 "x_c",  "y_c",  "u_c",  "v_c",  "exx",  "eyy",  "exy",  "e1",  "e2",  "gamma",  "e_vonmises",  "sigma",  "x",  "y",  "u",  "v"
-700,715,0,0,0,0,0,0,0,0,0,-1,524,309,0,0
-693,715,0,0,0,0,0,0,0,0,0,-1,531,309,0,0
-686,715,0,0,0,0,0,0,0,0,0,-1,538,309,0,0
-679,715,0,0,0,0,0,0,0,0,0,-1,545,309,0,0
-672,715,0,0,0,0,0,0,0,0,0,-1,552,309,0,0
-665,715,0,0,0,0,0,0,0,0,0,-1,559,309,0,0
-658,715,0,0,0,0,0,0,0,0,0,-1,566,309,0,0
-651,715,0,0,0,0,0,0,0,0,0,-1,573,309,0,0
-644,715,0,0,0,0,0,0,0,0,0,-1,580,309,0,0
-637,715,0,0,0,0,0,0,0,0,0,-1,587,309,0,0
-630,715,0,0,0,0,0,0,0,0,0,-1,594,309,0,0
-623,715,0,0,0,0,0,0,0,0,0,-1,601,309,0,0
-616,715,0,0,0,0,0,0,0,0,0,-1,608,309,0,0
-609,715,0,0,0,0,0,0,0,0,0,-1,615,309,0,0
-602,715,0,0,0,0,0,0,0,0,0,-1,622,309,0,0
-595,715,0,0,0,0,0,0,0,0,0,-1,629,309,0,0
-588,715,0,0,0,0,0,0,0,0,0,-1,636,309,0,0
-581,715,0,0,0,0,0,0,0,0,0,-1,643,309,0,0
-574,715,0,0,0,0,0,0,0,0,0,-1,650,309,0,0
-567,715,0,0,0,0,0,0,0,0,0,-1,657,309,0,0
-560,715,0,0,0,0,0,0,0,0,0,-1,664,309,0,0
-553,715,0,0,0,0,0,0,0,0,0,-1,671,309,0,0
-546,715,0,0,0,0,0,0,0,0,0,-1,678,309,0,0
-539,715,0,0,0,0,0,0,0,0,0,-1,685,309,0,0
-532,715,0,0,0,0,0,0,0,0,0,-1,692,309,0,0
-525,715,0,0,0,0,0,0,0,0,0,-1,699,309,0,0
-518,715,0,0,0,0,0,0,0,0,0,-1,706,309,0,0
-511,715,0,0,0,0,0,0,0,0,0,-1,713,309,0,0
-504,715,0,0,0,0,0,0,0,0,0,-1,720,309,0,0
-497,715,0,0,0,0,0,0,0,0,0,-1,727,309,0,0
-490,715,0,0,0,0,0,0,0,0,0,-1,734,309,0,0
-483,715,0,0,0,0,0,0,0,0,0,-1,741,309,0,0
-476,715,0,0,0,0,0,0,0,0,0,-1,748,309,0,0
-469,715,0,0,0,0,0,0,0,0,0,-1,755,309,0,0
-462,715,0,0,0,0,0,0,0,0,0,-1,762,309,0,0
-455,715,0,0,0,0,0,0,0,0,0,-1,769,309,0,0
-448,715,0,0,0,0,0,0,0,0,0,-1,776,309,0,0
-441,715,0,0,0,0,0,0,0,0,0,-1,783,309,0,0
-434,715,0,0,0,0,0,0,0,0,0,-1,790,309,0,0
-427,715,0,0,0,0,0,0,0,0,0,-1,797,309,0,0
-420,715,0,0,0,0,0,0,0,0,0,-1,804,309,0,0
-413,715,0,0,0,0,0,0,0,0,0,-1,811,309,0,0
-406,715,0,0,0,0,0,0,0,0,0,-1,818,309,0,0
-399,715,0,0,0,0,0,0,0,0,0,-1,825,309,0,0
-392,715,0,0,0,0,0,0,0,0,0,-1,832,309,0,0
-385,715,0,0,0,0,0,0,0,0,0,-1,839,309,0,0
-378,715,0,0,0,0,0,0,0,0,0,-1,846,309,0,0
-371,715,0,0,0,0,0,0,0,0,0,-1,853,309,0,0
-364,715,0,0,0,0,0,0,0,0,0,-1,860,309,0,0
-357,715,0,0,0,0,0,0,0,0,0,-1,867,309,0,0
-350,715,0,0,0,0,0,0,0,0,0,-1,874,309,0,0
-343,715,0,0,0,0,0,0,0,0,0,-1,881,309,0,0
-336,715,0,0,0,0,0,0,0,0,0,-1,888,309,0,0
-329,715,0,0,0,0,0,0,0,0,0,-1,895,309,0,0
-322,715,0,0,0,0,0,0,0,0,0,-1,902,309,0,0
-315,715,0,0,0,0,0,0,0,0,0,-1,909,309,0,0
-308,715,0,0,0,0,0,0,0,0,0,-1,916,309,0,0
-301,715,0,0,0,0,0,0,0,0,0,-1,923,309,0,0
-294,715,0,0,0,0,0,0,0,0,0,-1,930,309,0,0
-287,715,0,0,0,0,0,0,0,0,0,-1,937,309,0,0
-280,715,0,0,0,0,0,0,0,0,0,-1,944,309,0,0
-273,715,0,0,0,0,0,0,0,0,0,-1,951,309,0,0
-266,715,0,0,0,0,0,0,0,0,0,-1,958,309,0,0
-259,715,0,0,0,0,0,0,0,0,0,-1,965,309,0,0
-252,715,0,0,0,0,0,0,0,0,0,-1,972,309,0,0
-245,715,0,0,0,0,0,0,0,0,0,-1,979,309,0,0
-238,715,0,0,0,0,0,0,0,0,0,-1,986,309,0,0
-231,715,0,0,0,0,0,0,0,0,0,-1,993,309,0,0
-224,715,0,0,0,0,0,0,0,0,0,-1,1000,309,0,0
-217,715,0,0,0,0,0,0,0,0,0,-1,1007,309,0,0
-210,715,0,0,0,0,0,0,0,0,0,-1,1014,309,0,0
-203,715,0,0,0,0,0,0,0,0,0,-1,1021,309,0,0
-196,715,0,0,0,0,0,0,0,0,0,-1,1028,309,0,0
-189,715,0,0,0,0,0,0,0,0,0,-1,1035,309,0,0
-182,715,0,0,0,0,0,0,0,0,0,-1,1042,309,0,0
-175,715,0,0,0,0,0,0,0,0,0,-1,1049,309,0,0
-168,715,0,0,0,0,0,0,0,0,0,-1,1056,309,0,0
-161,715,0,0,0,0,0,0,0,0,0,-1,1063,309,0,0
-154,715,0,0,0,0,0,0,0,0,0,-1,1070,309,0,0
-147,715,0,0,0,0,0,0,0,0,0,-1,1077,309,0,0
-140,715,0,0,0,0,0,0,0,0,0,-1,1084,309,0,0
-133,715,0,0,0,0,0,0,0,0,0,-1,1091,309,0,0
-126,715,0,0,0,0,0,0,0,0,0,-1,1098,309,0,0
-119,715,0,0,0,0,0,0,0,0,0,-1,1105,309,0,0
-112,715,0,0,0,0,0,0,0,0,0,-1,1112,309,0,0
-105,715,0,0,0,0,0,0,0,0,0,-1,1119,309,0,0
-98,715,0,0,0,0,0,0,0,0,0,-1,1126,309,0,0
-91,715,0,0,0,0,0,0,0,0,0,-1,1133,309,0,0
-84,715,0,0,0,0,0,0,0,0,0,-1,1140,309,0,0
-77,715,0,0,0,0,0,0,0,0,0,-1,1147,309,0,0
-70,715,0,0,0,0,0,0,0,0,0,-1,1154,309,0,0
-63,715,0,0,0,0,0,0,0,0,0,-1,1161,309,0,0
-56,715,0,0,0,0,0,0,0,0,0,-1,1168,309,0,0
-49,715,0,0,0,0,0,0,0,0,0,-1,1175,309,0,0
-42,715,0,0,0,0,0,0,0,0,0,-1,1182,309,0,0
-35,715,0,0,0,0,0,0,0,0,0,-1,1189,309,0,0
-28,715,0,0,0,0,0,0,0,0,0,-1,1196,309,0,0
-21,715,0,0,0,0,0,0,0,0,0,-1,1203,309,0,0
-14,715,0,0,0,0,0,0,0,0,0,-1,1210,309,0,0
-7,715,0,0,0,0,0,0,0,0,0,-1,1217,309,0,0
0,715,0,0,0,0,0,0,0,0,0,-1,1224,309,0,0
7,715,0,0,0,0,0,0,0,0,0,-1,1231,309,0,0
14,715,0,0,0,0,0,0,0,0,0,-1,1238,309,0,0
21,715,0,0,0,0,0,0,0,0,0,-1,1245,309,0,0
28,715,0,0,0,0,0,0,0,0,0,-1,1252,309,0,0
35,715,0,0,0,0,0,0,0,0,0,-1,1259,309,0,0
42,715,0,0,0,0,0,0,0,0,0,-1,1266,309,0,0
49,715,0,0,0,0,0,0,0,0,0,-1,1273,309,0,0
56,715,0,0,0,0,0,0,0,0,0,-1,1280,309,0,0
63,715,5.09338,-26.4772,0,0,0,0,0,0,0,-1,1287,309,5.09335,26.4772
70,715,5.13354,-26.7855,0,0,0,0,0,0,0,-1,1294,309,5.13358,26.7855
77,715,0,0,0,0,0,0,0,0,0,-1,1301,309,0,0
84,715,0,0,0,0,0,0,0,0,0,-1,1308,309,0,0
91,715,0,0,0,0,0,0,0,0,0,-1,1315,309,0,0
98,715,0,0,0,0,0,0,0,0,0,-1,1322,309,0,0
105,715,0,0,0,0,0,0,0,0,0,-1,1329,309,0,0
112,715,0,0,0,0,0,0,0,0,0,-1,1336,309,0,0
119,715,0,0,0,0,0,0,0,0,0,-1,1343,309,0,0
126,715,0,0,0,0,0,0,0,0,0,-1,1350,309,0,0
133,715,0,0,0,0,0,0,0,0,0,-1,1357,309,0,0
140,715,0,0,0,0,0,0,0,0,0,-1,1364,309,0,0
147,715,0,0,0,0,0,0,0,0,0,-1,1371,309,0,0
154,715,0,0,0,0,0,0,0,0,0,-1,1378,309,0,0
161,715,0,0,0,0,0,0,0,0,0,-1,1385,309,0,0
168,715,0,0,0,0,0,0,0,0,0,-1,1392,309,0,0
175,715,0,0,0,0,0,0,0,0,0,-1,1399,309,0,0
182,715,0,0,0,0,0,0,0,0,0,-1,1406,309,0,0
189,715,0,0,0,0,0,0,0,0,0,-1,1413,309,0,0
196,715,0,0,0,0,0,0,0,0,0,-1,1420,309,0,0
203,715,0,0,0,0,0,0,0,0,0,-1,1427,309,0,0
210,715,0,0,0,0,0,0,0,0,0,-1,1434,309,0,0
217,715,0,0,0,0,0,0,0,0,0,-1,1441,309,0,0
224,715,0,0,0,0,0,0,0,0,0,-1,1448,309,0,0
231,715,0,0,0,0,0,0,0,0,0,-1,1455,309,0,0
238,715,0,0,0,0,0,0,0,0,0,-1,1462,309,0,0
245,715,0,0,0,0,0,0,0,0,0,-1,1469,309,0,0
252,715,0,0,0,0,0,0,0,0,0,-1,1476,309,0,0
259,715,0,0,0,0,0,0,0,0,0,-1,1483,309,0,0
266,715,0,0,0,0,0,0,0,0,0,-1,1490,309,0,0
273,715,0,0,0,0,0,0,0,0,0,-1,1497,309,0,0
280,715,0,0,0,0,0,0,0,0,0,-1,1504,309,0,0
287,715,0,0,0,0,0,0,0,0,0,-1,1511,309,0,0
294,715,0,0,0,0,0,0,0,0,0,-1,1518,309,0,0
301,715,0,0,0,0,0,0,0,0,0,-1,1525,309,0,0
308,715,0,0,0,0,0,0,0,0,0,-1,1532,309,0,0
315,715,0,0,0,0,0,0,0,0,0,-1,1539,309,0,0
322,715,0,0,0,0,0,0,0,0,0,-1,1546,309,0,0
329,715,0,0,0,0,0,0,0,0,0,-1,1553,309,0,0
336,715,0,0,0,0,0,0,0,0,0,-1,1560,309,0,0
343,715,0,0,0,0,0,0,0,0,0,-1,1567,309,0,0
350,715,0,0,0,0,0,0,0,0,0,-1,1574,309,0,0
357,715,0,0,0,0,0,0,0,0,0,-1,1581,309,0,0
364,715,0,0,0,0,0,0,0,0,0,-1,1588,309,0,0
371,715,0,0,0,0,0,0,0,0,0,-1,1595,309,0,0
378,715,0,0,0,0,0,0,0,0,0,-1,1602,309,0,0
385,715,0,0,0,0,0,0,0,0,0,-1,1609,309,0,0
392,715,0,0,0,0,0,0,0,0,0,-1,1616,309,0,0
399,715,0,0,0,0,0,0,0,0,0,-1,1623,309,0,0
406,715,0,0,0,0,0,0,0,0,0,-1,1630,309,0,0
413,715,0,0,0,0,0,0,0,0,0,-1,1637,309,0,0
420,715,0,0,0,0,0,0,0,0,0,-1,1644,309,0,0
427,715,0,0,0,0,0,0,0,0,0,-1,1651,309,0,0
434,715,0,0,0,0,0,0,0,0,0,-1,1658,309,0,0
441,715,0,0,0,0,0,0,0,0,0,-1,1665,309,0,0
448,715,0,0,0,0,0,0,0,0,0,-1,1672,309,0,0
455,715,0,0,0,0,0,0,0,0,0,-1,1679,309,0,0
462,715,0,0,0,0,0,0,0,0,0,-1,1686,309,0,0
469,715,0,0,0,0,0,0,0,0,0,-1,1693,309,0,0
476,715,0,0,0,0,0,0,0,0,0,-1,1700,309,0,0
483,715,0,0,0,0,0,0,0,0,0,-1,1707,309,0,0
490,715,0,0,0,0,0,0,0,0,0,-1,1714,309,0,0
497,715,0,0,0,0,0,0,0,0,0,-1,1721,309,0,0
504,715,0,0,0,0,0,0,0,0,0,-1,1728,309,0,0
511,715,0,0,0,0,0,0,0,0,0,-1,1735,309,0,0
518,715,0,0,0,0,0,0,0,0,0,-1,1742,309,0,0
525,715,0,0,0,0,0,0,0,0,0,-1,1749,309,0,0
532,715,0,0,0,0,0,0,0,0,0,-1,1756,309,0,0
539,715,0,0,0,0,0,0,0,0,0,-1,1763,309,0,0
546,715,0,0,0,0,0,0,0,0,0,-1,1770,309,0,0
553,715,0,0,0,0,0,0,0,0,0,-1,1777,309,0,0
560,715,0,0,0,0,0,0,0,0,0,-1,1784,309,0,0
567,715,0,0,0,0,0,0,0,0,0,-1,1791,309,0,0
574,715,0,0,0,0,0,0,0,0,0,-1,1798,309,0,0
581,715,0,0,0,0,0,0,0,0,0,-1,1805,309,0,0
588,715,0,0,0,0,0,0,0,0,0,-1,1812,309,0,0
595,715,0,0,0,0,0,0,0,0,0,-1,1819,309,0,0
602,715,0,0,0,0,0,0,0,0,0,-1,1826,309,0,0
609,715,0,0,0,0,0,0,0,0,0,-1,1833,309,0,0
616,715,0,0,0,0,0,0,0,0,0,-1,1840,309,0,0
623,715,0,0,0,0,0,0,0,0,0,-1,1847,309,0,0
630,715,0,0,0,0,0,0,0,0,0,-1,1854,309,0,0
637,715,0,0,0,0,0,0,0,0,0,-1,1861,309,0,0
644,715,0,0,0,0,0,0,0,0,0,-1,1868,309,0,0
651,715,0,0,0,0,0,0,0,0,0,-1,1875,309,0,0
658,715,0,0,0,0,0,0,0,0,0,-1,1882,309,0,0
665,715,0,0,0,0,0,0,0,0,0,-1,1889,309,0,0
672,715,0,0,0,0,0,0,0,0,0,-1,1896,309,0,0
679,715,0,0,0,0,0,0,0,0,0,-1,1903,309,0,0
686,715,0,0,0,0,0,0,0,0,0,-1,1910,309,0,0
693,715,0,0,0,0,0,0,0,0,0,-1,1917,309,0,0
700,715,0,0,0,0,0,0,0,0,0,-1,1924,309,0,0
707,715,0,0,0,0,0,0,0,0,0,-1,1931,309,0,0
714,715,0,0,0,0,0,0,0,0,0,-1,1938,309,0,0
721,715,0,0,0,0,0,0,0,0,0,-1,1945,309,0,0
728,715,0,0,0,0,0,0,0,0,0,-1,1952,309,0,0
735,715,0,0,0,0,0,0,0,0,0,-1,1959,309,0,0
742,715,0,0,0,0,0,0,0,0,0,-1,1966,309,0,0
749,715,0,0,0,0,0,0,0,0,0,-1,1973,309,0,0
756,715,0,0,0,0,0,0,0,0,0,-1,1980,309,0,0
763,715,0,0,0,0,0,0,0,0,0,-1,1987,309,0,0
770,715,0,0,0,0,0,0,0,0,0,-1,1994,309,0,0
777,715,0,0,0,0,0,0,0,0,0,-1,2001,309,0,0
784,715,0,0,0,0,0,0,0,0,0,-1,2008,309,0,0
791,715,0,0,0,0,0,0,0,0,0,-1,2015,309,0,0
798,715,0,0,0,0,0,0,0,0,0,-1,2022,309,0,0
805,715,0,0,0,0,0,0,0,0,0,-1,2029,309,0,0
812,715,0,0,0,0,0,0,0,0,0,-1,2036,309,0,0
-700,708,0,0,0,0,0,0,0,0,0,-1,524,316,0,0
-693,708,0,0,0,0,0,0,0,0,0,-1,531,316,0,0
-686,708,0,0,0,0,0,0,0,0,0,-1,538,316,0,0
-679,708,0,0,0,0,0,0,0,0,0,-1,545,316,0,0
-672,708,0,0,0,0,0,0,0,0,0,-1,552,316,0,0
-665,708,0,0,0,0,0,0,0,0,0,-1,559,316,0,0
-658,708,0,0,0,0,0,0,0,0,0,-1,566,316,0,0
-651,708,0,0,0,0,0,0,0,0,0,-1,573,316,0,0
-644,708,0,0,0,0,0,0,0,0,0,-1,580,316,0,0
-637,708,0,0,0,0,0,0,0,0,0,-1,587,316,0,0
-630,708,0,0,0,0,0,0,0,0,0,-1,594,316,0,0
-623,708,0,0,0,0,0,0,0,0,0,-1,601,316,0,0
-616,708,0,0,0,0,0,0,0,0,0,-1,608,316,0,0
-609,708,0,0,0,0,0,0,0,0,0,-1,615,316,0,0
-602,708,0,0,0,0,0,0,0,0,0,-1,622,316,0,0
-595,708,0,0,0,0,0,0,0,0,0,-1,629,316,0,0
-588,708,0,0,0,0,0,0,0,0,0,-1,636,316,0,0
-581,708,0,0,0,0,0,0,0,0,0,-1,643,316,0,0
-574,708,0,0,0,0,0,0,0,0,0,-1,650,316,0,0
-567,708,0,0,0,0,0,0,0,0,0,-1,657,316,0,0
-560,708,0,0,0,0,0,0,0,0,0,-1,664,316,0,0
-553,708,0,0,0,0,0,0,0,0,0,-1,671,316,0,0
-546,708,0,0,0,0,0,0,0,0,0,-1,678,316,0,0
-539,708,0,0,0,0,0,0,0,0,0,-1,685,316,0,0
-532,708,0,0,0,0,0,0,0,0,0,-1,692,316,0,0
-525,708,0,0,0,0,0,0,0,0,0,-1,699,316,0,0
-518,708,0,0,0,0,0,0,0,0,0,-1,706,316,0,0
-511,708,0,0,0,0,0,0,0,0,0,-1,713,316,0,0
-504,708,0,0,0,0,0,0,0,0,0,-1,720,316,0,0
-497,708,0,0,0,0,0,0,0,0,0,-1,727,316,0,0
-490,708,0,0,0,0,0,0,0,0,0,-1,734,316,0,0
-483,708,0,0,0,0,0,0,0,0,0,-1,741,316,0,0
-476,708,0,0,0,0,0,0,0,0,0,-1,748,316,0,0
-469,708,0,0,0,0,0,0,0,0,0,-1,755,316,0,0
-462,708,0,0,0,0,0,0,0,0,0,-1,762,316,0,0
-455,708,0,0,0,0,0,0,0,0,0,-1,769,316,0,0
-448,708,0,0,0,0,0,0,0,0,0,-1,776,316,0,0
-441,708,0,0,0,0,0,0,0,0,0,-1,783,316,0,0
-434,708,0,0,0,0,0,0,0,0,0,-1,790,316,0,0
-427,708,0,0,0,0,0,0,0,0,0,-1,797,316,0,0
-420,708,0,0,0,0,0,0,0,0,0,-1,804,316,0,0
-413,708,0,0,0,0,0,0,0,0,0,-1,811,316,0,0
-406,708,0,0,0,0,0,0,0,0,0,-1,818,316,0,0
-399,708,0,0,0,0,0,0,0,0,0,-1,825,316,0,0
-392,708,0,0,0,0,0,0,0,0,0,-1,832,316,0,0
-385,708,0,0,0,0,0,0,0,0,0,-1,839,316,0,0
-378,708,0,0,0,0,0,0,0,0,0,-1,846,316,0,0
-371,708,0,0,0,0,0,0,0,0,0,-1,853,316,0,0
-364,708,0,0,0,0,0,0,0,0,0,-1,860,316,0,0
-357,708,0,0,0,0,0,0,0,0,0,-1,867,316,0,0
-350,708,0,0,0,0,0,0,0,0,0,-1,874,316,0,0
-343,708,0,0,0,0,0,0,0,0,0,-1,881,316,0,0
-336,708,0,0,0,0,0,0,0,0,0,-1,888,316,0,0
-329,708,0,0,0,0,0,0,0,0,0,-1,895,316,0,0
-322,708,0,0,0,0,0,0,0,0,0,-1,902,316,0,0
-315,708,0,0,0,0,0,0,0,0,0,-1,909,316,0,0
-308,708,0,0,0,0,0,0,0,0,0,-1,916,316,0,0
-301,708,0,0,0,0,0,0,0,0,0,-1,923,316,0,0
-294,708,0,0,0,0,0,0,0,0,0,-1,930,316,0,0
-287,708,0,0,0,0,0,0,0,0,0,-1,937,316,0,0
-280,708,0,0,0,0,0,0,0,0,0,-1,944,316,0,0
-273,708,0,0,0,0,0,0,0,0,0,-1,951,316,0,0
-266,708,0,0,0,0,0,0,0,0,0,-1,958,316,0,0
-259,708,0,0,0,0,0,0,0,0,0,-1,965,316,0,0
-252,708,0,0,0,0,0,0,0,0,0,-1,972,316,0,0
-245,708,0,0,0,0,0,0,0,0,0,-1,979,316,0,0
-238,708,0,0,0,0,0,0,0,0,0,-1,986,316,0,0
-231,708,0,0,0,0,0,0,0,0,0,-1,993,316,0,0
-224,708,0,0,0,0,0,0,0,0,0,-1,1000,316,0,0
-217,708,0,0,0,0,0,0,0,0,0,-1,1007,316,0,0
-210,708,0,0,0,0,0,0,0,0,0,-1,1014,316,0,0
-203,708,0,0,0,0,0,0,0,0,0,-1,1021,316,0,0
-196,708,0,0,0,0,0,0,0,0,0,-1,1028,316,0,0
-189,708,0,0,0,0,0,0,0,0,0,-1,1035,316,0,0
-182,708,0,0,0,0,0,0,0,0,0,-1,1042,316,0,0
-175,708,0,0,0,0,0,0,0,0,0,-1,1049,316,0,0
-168,708,0,0,0,0,0,0,0,0,0,-1,1056,316,0,0
-161,708,0,0,0,0,0,0,0,0,0,-1,1063,316,0,0
-154,708,0,0,0,0,0,0,0,0,0,-1,1070,316,0,0
-147,708,0,0,0,0,0,0,0,0,0,-1,1077,316,0,0
-140,708,0,0,0,0,0,0,0,0,0,-1,1084,316,0,0
-133,708,0,0,0,0,0,0,0,0,0,-1,1091,316,0,0
-126,708,0,0,0,0,0,0,0,0,0,-1,1098,316,0,0
-119,708,0,0,0,0,0,0,0,0,0,-1,1105,316,0,0
-112,708,0,0,0,0,0,0,0,0,0,-1,1112,316,0,0
-105,708,0,0,0,0,0,0,0,0,0,-1,1119,316,0,0
-98,708,0,0,0,0,0,0,0,0,0,-1,1126,316,0,0
-91,708,0,0,0,0,0,0,0,0,0,-1,1133,316,0,0
-84,708,0,0,0,0,0,0,0,0,0,-1,1140,316,0,0
-77,708,0,0,0,0,0,0,0,0,0,-1,1147,316,0,0
-70,708,0,0,0,0,0,0,0,0,0,-1,1154,316,0,0
-63,708,0,0,0,0,0,0,0,0,0,-1,1161,316,0,0
-56,708,0,0,0,0,0,0,0,0,0,-1,1168,316,0,0
-49,708,0,0,0,0,0,0,0,0,0,-1,1175,316,0,0
-42,708,0,0,0,0,0,0,0,0,0,-1,1182,316,0,0
-35,708,-2.71204,-6.31558,0,0,0,0,0,0,0,-1,1189,316,-2.712,6.3156
-28,708,-2.92371,-5.53253,0,0,0,0,0,0,0,-1,1196,316,-2.92375,5.53254
-21,708,-0.417969,-24.5911,0,0,0,0,0,0,0,-1,1203,316,-0.418022,24.5911
-14,708,5.56641,-32.0021,0,0,0,0,0,0,0,-1,1210,316,5.56642,32.0021
-7,708,5.64868,-32.0432,0,0,0,0,0,0,0,-1,1217,316,5.64864,32.0433
0,708,5.72131,-32.1791,0,0,0,0,0,0,0,-1,1224,316,5.72134,32.1791
7,708,6.15332,-27.9596,0,0,0,0,0,0,0,-1,1231,316,6.15338,27.9596
14,708,6.19006,-27.7955,-0.0151135,0.0642747,0.00806514,0.0650858,-0.0159246,1.47057,0.049559,0.0440903,1238,316,6.19006,27.7955
21,708,5.97827,-27.438,0,0,0,0,0,0,0,-1,1245,316,5.97824,27.438
28,708,5.67798,-27.3492,-0.0202438,0.0816474,0.00832247,0.0823227,-0.0209191,1.48983,0.063023,0.0473347,1252,316,5.67792,27.3491
35,708,5.63525,-27.088,0,0,0,0,0,0,0,-1,1259,316,5.63525,27.088
42,708,5.35254,-26.7549,-0.0237081,0.105342,0.00552768,0.105578,-0.0239445,1.52807,0.0795768,0.042181,1266,316,5.35258,26.7549
49,708,4.88696,-27.0942,0,0,0,0,0,0,0,-1,1273,316,4.88698,27.0942
56,708,4.63477,-27.5051,-0.0248221,0.12774,0.00301929,0.127799,-0.0248818,1.55102,0.0945907,0.0450517,1280,316,4.63473,27.5051
63,708,4.62561,-27.5596,-0.025988,0.13596,0.000815936,0.135964,-0.0259921,1.56576,0.100434,0.0439912,1287,316,4.62559,27.5596
70,708,4.51514,-27.8315,0,0,0,0,0,0,0,-1,1294,316,4.51508,27.8315
77,708,4.47546,-28.5045,0,0,0,0,0,0,0,-1,1301,316,4.47544,28.5045
84,708,4.52942,-28.6806,-0.0264556,0.152384,-0.0058587,0.152576,-0.0266473,-1.53808,0.111664,0.0453173,1308,316,4.52936,28.6806
91,708,4.56738,-28.8846,-0.0280155,0.153322,-0.00981515,0.153851,-0.0285452,-1.51688,0.113288,0.0477679,1315,316,4.56743,28.8846
98,708,4.53699,-28.9791,-0.0295422,0.15371,-0.0133722,0.15468,-0.0305128,-1.49834,0.114653,0.0488133,1322,316,4.53697,28.9791
105,708,4.49988,-29.0382,0,0,0,0,0,0,0,-1,1329,316,4.49984,29.0382
112,708,3.7373,-29.6029,-0.0333549,0.14887,-0.0193966,0.150911,-0.0353967,-1.46592,0.114249,0.0437301,1336,316,3.7373,29.6029
119,708,3.33972,-29.3833,-0.0346255,0.145764,-0.0209815,0.148173,-0.0370337,-1.45652,0.113165,0.0465567,1343,316,3.33977,29.3833
126,708,2.87805,-29.3373,0,0,0,0,0,0,0,-1,1350,316,2.87808,29.3373
133,708,5.1543,-30.9815,0,0,0,0,0,0,0,-1,1357,316,5.15428,30.9815
140,708,1.40039,-32.1,0,0,0,0,0,0,0,-1,1364,316,1.40042,32.1
147,708,1.2666,-30.4515,0,0,0,0,0,0,0,-1,1371,316,1.26664,30.4515
154,708,0,0,0,0,0,0,0,0,0,-1,1378,316,0,0
161,708,0,0,0,0,0,0,0,0,0,-1,1385,316,0,0
168,708,0,0,0,0,0,0,0,0,0,-1,1392,316,0,0
175,708,0,0,0,0,0,0,0,0,0,-1,1399,316,0,0
182,708,0,0,0,0,0,0,0,0,0,-1,1406,316,0,0
189,708,0,0,0,0,0,0,0,0,0,-1,1413,316,0,0
196,708,0,0,0,0,0,0,0,0,0,-1,1420,316,0,0
203,708,0,0,0,0,0,0,0,0,0,-1,1427,316,0,0
210,708,0,0,0,0,0,0,0,0,0,-1,1434,316,0,0
217,708,0,0,0,0,0,0,0,0,0,-1,1441,316,0,0
224,708,0,0,0,0,0,0,0,0,0,-1,1448,316,0,0
231,708,0,0,0,0,0,0,0,0,0,-1,1455,316,0,0
238,708,0,0,0,0,0,0,0,0,0,-1,1462,316,0,0
245,708,0,0,0,0,0,0,0,0,0,-1,1469,316,0,0
252,708,0,0,0,0,0,0,0,0,0,-1,1476,316,0,0
259,708,0,0,0,0,0,0,0,0,0,-1,1483,316,0,0
266,708,0,0,0,0,0,0,0,0,0,-1,1490,316,0,0
273,708,0,0,0,0,0,0,0,0,0,-1,1497,316,0,0
280,708,0,0,0,0,0,0,0,0,0,-1,1504,316,0,0
287,708,0,0,0,0,0,0,0,0,0,-1,1511,316,0,0
294,708,0,0,0,0,0,0,0,0,0,-1,1518,316,0,0
301,708,0,0,0,0,0,0,0,0,0,-1,1525,316,0,0
308,708,0,0,0,0,0,0,0,0,0,-1,1532,316,0,0
315,708,0,0,0,0,0,0,0,0,0,-1,1539,316,0,0
322,708,0,0,0,0,0,0,0,0,0,-1,1546,316,0,0
329,708,0,0,0,0,0,0,0,0,0,-1,1553,316,0,0
336,708,0,0,0,0,0,0,0,0,0,-1,1560,316,0,0
343,708,0,0,0,0,0,0,0,0,0,-1,1567,316,0,0
350,708,0,0,0,0,0,0,0,0,0,-1,1574,316,0,0
357,708,0,0,0,0,0,0,0,0,0,-1,1581,316,0,0
364,708,0,0,0,0,0,0,0,0,0,-1,1588,316,0,0
371,708,0,0,0,0,0,0,0,0,0,-1,1595,316,0,0
378,708,0,0,0,0,0,0,0,0,0,-1,1602,316,0,0
385,708,0,0,0,0,0,0,0,0,0,-1,1609,316,0,0
392,708,0,0,0,0,0,0,0,0,0,-1,1616,316,0,0
399,708,0,0,0,0,0,0,0,0,0,-1,1623,316,0,0
406,708,0,0,0,0,0,0,0,0,0,-1,1630,316,0,0
413,708,0,0,0,0,0,0,0,0,0,-1,1637,316,0,0
420,708,0,0,0,0,0,0,0,0,0,-1,1644,316,0,0
427,708,0,0,0,0,0,0,0,0,0,-1,1651,316,0,0
434,708,0,0,0,0,0,0,0,0,0,-1,1658,316,0,0
441,708,0,0,0,0,0,0,0,0,0,-1,1665,316,0,0
448,708,0,0,0,0,0,0,0,0,0,-1,1672,316,0,0
455,708,0,0,0,0,0,0,0,0,0,-1,1679,316,0,0
462,708,0,0,0,0,0,0,0,0,0,-1,1686,316,0,0
469,708,0,0,0,0,0,0,0,0,0,-1,1693,316,0,0
476,708,0,0,0,0,0,0,0,0,0,-1,1700,316,0,0
483,708,0,0,0,0,0,0,0,0,0,-1,1707,316,0,0
490,708,0,0,0,0,0,0,0,0,0,-1,1714,316,0,0
497,708,0,0,0,0,0,0,0,0,0,-1,1721,316,0,0
504,708,0,0,0,0,0,0,0,0,0,-1,1728,316,0,0
511,708,0,0,0,0,0,0,0,0,0,-1,1735,316,0,0
518,708,0,0,0,0,0,0,0,0,0,-1,1742,316,0,0
525,708,0,0,0,0,0,0,0,0,0,-1,1749,316,0,0
532,708,0,0,0,0,0,0,0,0,0,-1,1756,316,0,0
539,708,0,0,0,0,0,0,0,0,0,-1,1763,316,0,0
546,708,0,0,0,0,0,0,0,0,0,-1,1770,316,0,0
553,708,0,0,0,0,0,0,0,0,0,-1,1777,316,0,0
560,708,0,0,0,0,0,0,0,0,0,-1,1784,316,0,0
567,708,0,0,0,0,0,0,0,0,0,-1,1791,316,0,0
574,708,0,0,0,0,0,0,0,0,0,-1,1798,316,0,0
581,708,0,0,0,0,0,0,0,0,0,-1,1805,316,0,0
588,708,0,0,0,0,0,0,0,0,0,-1,1812,316,0,0
595,708,0,0,0,0,0,0,0,0,0,-1,1819,316,0,0
602,708,0,0,0,0,0,0,0,0,0,-1,1826,316,0,0
609,708,0,0,0,0,0,0,0,0,0,-1,1833,316,0,0
616,708,0,0,0,0,0,0,0,0,0,-1,1840,316,0,0
623,708,0,0,0,0,0,0,0,0,0,-1,1847,316,0,0
630,708,0,0,0,0,0,0,0,0,0,-1,1854,316,0,0
637,708,0,0,0,0,0,0,0,0,0,-1,1861,316,0,0
644,708,0,0,0,0,0,0,0,0,0,-1,1868,316,0,0
651,708,0,0,0,0,0,0,0,0,0,-1,1875,316,0,0
658,708,0,0,0,0,0,0,0,0,0,-1,1882,316,0,0
665,708,0,0,0,0,0,0,0,0,0,-1,1889,316,0,0
672,708,0,0,0,0,0,0,0,0,0,-1,1896,316,0,0
679,708,0,0,0,0,0,0,0,0,0,-1,1903,316,0,0
686,708,0,0,0,0,0,0,0,0,0,-1,1910,316,0,0
693,708,0,0,0,0,0,0,0,0,0,-1,1917,316,0,0
700,708,0,0,0,0,0,0,0,0,0,-1,1924,316,0,0
707,708,0,0,0,0,0,0,0,0,0,-1,1931,316,0,0
714,708,0,0,0,0,0,0,0,0,0,-1,1938,316,0,0
721,708,0,0,0,0,0,0,0,0,0,-1,1945,316,0,0
728,708,0,0,0,0,0,0,0,0,0,-1,1952,316,0,0
735,708,0,0,0,0,0,0,0,0,0,-1,1959,316,0,0
742,708,0,0,0,0,0,0,0,0,0,-1,1966,316,0,0
749,708,0,0,0,0,0,0,0,0,0,-1,1973,316,0,0
756,708,0,0,0,0,0,0,0,0,0,-1,1980,316,0,0
763,708,0,0,0,0,0,0,0,0,0,-1,1987,316,0,0
770,708,0,0,0,0,0,0,0,0,0,-1,1994,316,0,0
777,708,0,0,0,0,0,0,0,0,0,-1,2001,316,0,0
784,708,0,0,0,0,0,0,0,0,0,-1,2008,316,0,0
791,708,0,0,0,0,0,0,0,0,0,-1,2015,316,0,0
798,708,0,0,0,0,0,0,0,0,0,-1,2022,316,0,0
805,708,0,0,0,0,0,0,0,0,0,-1,2029,316,0,0
812,708,0,0,0,0,0,0,0,0,0,-1,2036,316,0,0
-700,701,0,0,0,0,0,0,0,0,0,-1,524,323,0,0
-693,701,0,0,0,0,0,0,0,0,0,-1,531,323,0,0
-686,701,0,0,0,0,0,0,0,0,0,-1,538,323,0,0
-679,701,0,0,0,0,0,0,0,0,0,-1,545,323,0,0
-672,701,0,0,0,0,0,0,0,0,0,-1,552,323,0,0
-665,701,0,0,0,0,0,0,0,0,0,-1,559,323,0,0
-658,701,0,0,0,0,0,0,0,0,0,-1,566,323,0,0
-651,701,0,0,0,0,0,0,0,0,0,-1,573,323,0,0
-644,701,0,0,0,0,0,0,0,0,0,-1,580,323,0,0
-637,701,0,0,0,0,0,0,0,0,0,-1,587,323,0,0
-630,701,0,0,0,0,0,0,0,0,0,-1,594,323,0,0
-623,701,0,0,0,0,0,0,0,0,0,-1,601,323,0,0
-616,701,0,0,0,0,0,0,0,0,0,-1,608,323,0,0
-609,701,0,0,0,0,0,0,0,0,0,-1,615,323,0,0
-602,701,0,0,0,0,0,0,0,0,0,-1,622,323,0,0
-595,701,0,0,0,0,0,0,0,0,0,-1,629,323,0,0
-588,701,0,0,0,0,0,0,0,0,0,-1,636,323,0,0
-581,701,0,0,0,0,0,0,0,0,0,-1,643,323,0,0
-574,701,0,0,0,0,0,0,0,0,0,-1,650,323,0,0
-567,701,0,0,0,0,0,0,0,0,0,-1,657,323,0,0
-560,701,0,0,0,0,0,0,0,0,0,-1,664,323,0,0
-553,701,0,0,0,0,0,0,0,0,0,-1,671,323,0,0
-546,701,0,0,0,0,0,0,0,0,0,-1,678,323,0,0
-539,701,0,0,0,0,0,0,0,0,0,-1,685,323,0,0
-532,701,0,0,0,0,0,0,0,0,0,-1,692,323,0,0
-525,701,0,0,0,0,0,0,0,0,0,-1,699,323,0,0
-518,701,0,0,0,0,0,0,0,0,0,-1,706,323,0,0
-511,701,0,0,0,0,0,0,0,0,0,-1,713,323,0,0
-504,701,0,0,0,0,0,0,0,0,0,-1,720,323,0,0
-497,701,0,0,0,0,0,0,0,0,0,-1,727,323,0,0
-490,701,0,0,0,0,0,0,0,0,0,-1,734,323,0,0
-483,701,0,0,0,0,0,0,0,0,0,-1,741,323,0,0
-476,701,0,0,0,0,0,0,0,0,0,-1,748,323,0,0
-469,701,0,0,0,0,0,0,0,0,0,-1,755,323,0,0
-462,701,0,0,0,0,0,0,0,0,0,-1,762,323,0,0
-455,701,0,0,0,0,0,0,0,0,0,-1,769,323,0,0
-448,701,0,0,0,0,0,0,0,0,0,-1,776,323,0,0
-441,701,0,0,0,0,0,0,0,0,0,-1,783,323,0,0
-434,701,0,0,0,0,0,0,0,0,0,-1,790,323,0,0
-427,701,0,0,0,0,0,0,0,0,0,-1,797,323,0,0
-420,701,0,0,0,0,0,0,0,0,0,-1,804,323,0,0
-413,701,0,0,0,0,0,0,0,0,0,-1,811,323,0,0
-406,701,0,0,0,0,0,0,0,0,0,-1,818,323,0,0
-399,701,0,0,0,0,0,0,0,0,0,-1,825,323,0,0
-392,701,0,0,0,0,0,0,0,0,0,-1,832,323,0,0
-385,701,0,0,0,0,0,0,0,0,0,-1,839,323,0,0
-378,701,0,0,0,0,0,0,0,0,0,-1,846,323,0,0
-371,701,0,0,0,0,0,0,0,0,0,-1,853,323,0,0
-364,701,0,0,0,0,0,0,0,0,0,-1,860,323,0,0
-357,701,0,0,0,0,0,0,0,0,0,-1,867,323,0,0
-350,701,0,0,0,0,0,0,0,0,0,-1,874,323,0,0
-343,701,0,0,0,0,0,0,0,0,0,-1,881,323,0,0
-336,701,0,0,0,0,0,0,0,0,0,-1,888,323,0,0
-329,701,0,0,0,0,0,0,0,0,0,-1,895,323,0,0
-322,701,0,0,0,0,0,0,0,0,0,-1,902,323,0,0
-315,701,0,0,0,0,0,0,0,0,0,-1,909,323,0,0
-308,701,0,0,0,0,0,0,0,0,0,-1,916,323,0,0
-301,701,0,0,0,0,0,0,0,0,0,-1,923,323,0,0
-294,701,0,0,0,0,0,0,0,0,0,-1,930,323,0,0
-287,701,0,0,0,0,0,0,0,0,0,-1,937,323,0,0
-280,701,0,0,0,0,0,0,0,0,0,-1,944,323,0,0
-273,701,0,0,0,0,0,0,0,0,0,-1,951,323,0,0
-266,701,0,0,0,0,0,0,0,0,0,-1,958,323,0,0
-259,701,0,0,0,0,0,0,0,0,0,-1,965,323,0,0
-252,701,0,0,0,0,0,0,0,0,0,-1,972,323,0,0
-245,701,0,0,0,0,0,0,0,0,0,-1,979,323,0,0
-238,701,0,0,0,0,0,0,0,0,0,-1,986,323,0,0
-231,701,0,0,0,0,0,0,0,0,0,-1,993,323,0,0
-224,701,0,0,0,0,0,0,0,0,0,-1,1000,323,0,0
-217,701,0,0,0,0,0,0,0,0,0,-1,1007,323,0,0
-210,701,0,0,0,0,0,0,0,0,0,-1,1014,323,0,0
-203,701,0,0,0,0,0,0,0,0,0,-1,1021,323,0,0
-196,701,0,0,0,0,0,0,0,0,0,-1,1028,323,0,0
-189,701,0,0,0,0,0,0,0,0,0,-1,1035,323,0,0
-182,701,0,0,0,0,0,0,0,0,0,-1,1042,323,0,0
-175,701,0,0,0,0,0,0,0,0,0,-1,1049,323,0,0
-168,701,0,0,0,0,0,0,0,0,0,-1,1056,323,0,0
-161,701,0,0,0,0,0,0,0,0,0,-1,1063,323,0,0
-154,701,0,0,0,0,0,0,0,0,0,-1,1070,323,0,0
-147,701,0,0,0,0,0,0,0,0,0,-1,1077,323,0,0
-140,701,0,0,0,0,0,0,0,0,0,-1,1084,323,0,0
-133,701,0,0,0,0,0,0,0,0,0,-1,1091,323,0,0
-126,701,0,0,0,0,0,0,0,0,0,-1,1098,323,0,0
-119,701,0,0,0,0,0,0,0,0,0,-1,1105,323,0,0
-112,701,0,0,0,0,0,0,0,0,0,-1,1112,323,0,0
-105,701,0,0,0,0,0,0,0,0,0,-1,1119,323,0,0
-98,701,0,0,0,0,0,0,0,0,0,-1,1126,323,0,0
-91,701,0,0,0,0,0,0,0,0,0,-1,1133,323,0,0
-84,701,0,0,0,0,0,0,0,0,0,-1,1140,323,0,0
-77,701,0,0,0,0,0,0,0,0,0,-1,1147,323,0,0
-70,701,-11.9647,-28.192,0,0,0,0,0,0,0,-1,1154,323,-11.9647,28.1919
-63,701,-18.3169,-21.2322,0,0,0,0,0,0,0,-1,1161,323,-18.3169,21.2322
-56,701,-0.420166,-0.101776,0,0,0,0,0,0,0,-1,1168,323,-0.420119,0.101777
-49,701,-1.09021,-0.155762,0,0,0,0,0,0,0,-1,1175,323,-1.09024,0.155768
-42,701,-0.210327,-0.299133,0,0,0,0,0,0,0,-1,1182,323,-0.210379,0.29914
-35,701,-2.9635,-7.98676,0,0,0,0,0,0,0,-1,1189,323,-2.9635,7.98676
-28,701,-6.64417,-5.4917,0,0,0,0,0,0,0,-1,1196,323,-6.64411,5.4917
-21,701,5.22729,-32.2801,0,0,0,0,0,0,0,-1,1203,323,5.22728,32.2801
-14,701,5.31482,-32.2285,-0.00750967,0.0298997,0.0134108,0.0342105,-0.0118205,1.25978,0.0276041,0.0479156,1210,323,5.31481,32.2285
-7,701,5.2749,-32.2556,-0.00771688,0.0332717,0.0114797,0.0362678,-0.010713,1.3155,0.0284305,0.0450402,1217,323,5.27486,32.2557
0,701,5.10779,-32.6752,0,0,0,0,0,0,0,-1,1224,323,5.10773,32.6752
7,701,5.1427,-32.5225,0,0,0,0,0,0,0,-1,1231,323,5.1427,32.5225
14,701,6.93726,-28.2654,0,0,0,0,0,0,0,-1,1238,323,6.93728,28.2654
21,701,6.03821,-30.9217,0,0,0,0,0,0,0,-1,1245,323,6.03822,30.9217
28,701,5.89136,-28.0836,0,0,0,0,0,0,0,-1,1252,323,5.89137,28.0836
35,701,5.45422,-27.0309,0,0,0,0,0,0,0,-1,1259,323,5.45427,27.0309
42,701,5.10779,-26.9743,0,0,0,0,0,0,0,-1,1266,323,5.10773,26.9743
49,701,4.48645,-27.3108,0,0,0,0,0,0,0,-1,1273,323,4.48648,27.3108
56,701,4.05457,-28.0416,-0.0205087,0.111628,0.00319587,0.111706,-0.0205859,1.54663,0.0821962,0.0436056,1280,323,4.05458,28.0415
63,701,3.58313,-28.7156,-0.0218964,0.119247,0.00137299,0.11926,-0.0219097,1.56107,0.0877266,0.0427424,1287,323,3.58315,28.7156
70,701,5.55933,-29.7559,0,0,0,0,0,0,0,-1,1294,323,5.55934,29.7559
77,701,5.03259,-29.2943,0,0,0,0,0,0,0,-1,1301,323,5.03263,29.2942
84,701,4.8092,-29.4847,-0.0233789,0.133186,-0.0037185,0.133275,-0.0234672,-1.54706,0.0976169,0.0495695,1308,323,4.80918,29.4847
91,701,4.51538,-29.749,-0.0251208,0.133948,-0.00668367,0.134228,-0.0254011,-1.52888,0.099044,0.045259,1315,323,4.51537,29.749
98,701,4.53796,-29.9031,-0.0265871,0.134192,-0.0093644,0.134736,-0.0271307,-1.51281,0.100101,0.0446655,1322,323,4.53792,29.9031
105,701,4.29016,-29.9571,-0.0281409,0.132476,-0.0116254,0.133313,-0.028978,-1.49892,0.0999447,0.0474033,1329,323,4.29021,29.9571
112,701,4.1239,-30.0674,-0.0294035,0.131233,-0.0137138,0.132396,-0.0305658,-1.48624,0.100022,0.0464998,1336,323,4.12391,30.0675
119,701,3.7157,-30.3985,-0.030183,0.128927,-0.015043,0.130337,-0.0315927,-1.47736,0.0991149,0.0442859,1343,323,3.71575,30.3985
126,701,3.2854,-30.3496,0,0,0,0,0,0,0,-1,1350,323,3.28538,30.3496
133,701,4.91235,-31.1681,0,0,0,0,0,0,0,-1,1357,323,4.91238,31.1681
140,701,5.27039,-31.0677,0,0,0,0,0,0,0,-1,1364,323,5.27035,31.0678
147,701,5.51965,-29.97,0,0,0,0,0,0,0,-1,1371,323,5.51962,29.97
154,701,1.7135,-30.1893,0,0,0,0,0,0,0,-1,1378,323,1.71354,30.1893
161,701,-0.549072,-35.8157,0,0,0,0,0,0,0,-1,1385,323,-0.549096,35.8157
168,701,30.7272,1.76184,0,0,0,0,0,0,0,-1,1392,323,30.7272,-1.76184
175,701,31.5035,2.25711,0,0,0,0,0,0,0,-1,1399,323,31.5036,-2.25712
182,701,8.80652,5.42807,0,0,0,0,0,0,0,-1,1406,323,8.8065,-5.42808
189,701,8.58081,4.24493,0,0,0,0,0,0,0,-1,1413,323,8.58082,-4.24494
196,701,0,0,0,0,0,0,0,0,0,-1,1420,323,0,0
203,701,0,0,0,0,0,0,0,0,0,-1,1427,323,0,0
210,701,0,0,0,0,0,0,0,0,0,-1,1434,323,0,0
217,701,0,0,0,0,0,0,0,0,0,-1,1441,323,0,0
224,701,0,0,0,0,0,0,0,0,0,-1,1448,323,0,0
231,701,0,0,0,0,0,0,0,0,0,-1,1455,323,0,0
238,701,0,0,0,0,0,0,0,0,0,-1,1462,323,0,0
245,701,0,0,0,0,0,0,0,0,0,-1,1469,323,0,0
252,701,0,0,0,0,0,0,0,0,0,-1,1476,323,0,0
259,701,0,0,0,0,0,0,0,0,0,-1,1483,323,0,0
266,701,0,0,0,0,0,0,0,0,0,-1,1490,323,0,0
273,701,0,0,0,0,0,0,0,0,0,-1,1497,323,0,0
280,701,0,0,0,0,0,0,0,0,0,-1,1504,323,0,0
287,701,0,0,0,0,0,0,0,0,0,-1,1511,323,0,0
294,701,0,0,0,0,0,0,0,0,0,-1,1518,323,0,0
301,701,0,0,0,0,0,0,0,0,0,-1,1525,323,0,0
308,701,0,0,0,0,0,0,0,0,0,-1,1532,323,0,0
315,701,0,0,0,0,0,0,0,0,0,-1,1539,323,0,0
322,701,0,0,0,0,0,0,0,0,0,-1,1546,323,0,0
329,701,0,0,0,0,0,0,0,0,0,-1,1553,323,0,0
336,701,0,0,0,0,0,0,0,0,0,-1,1560,323,0,0
343,701,0,0,0,0,0,0,0,0,0,-1,1567,323,0,0
350,701,0,0,0,0,0,0,0,0,0,-1,1574,323,0,0
357,701,0,0,0,0,0,0,0,0,0,-1,1581,323,0,0
364,701,0,0,0,0,0,0,0,0,0,-1,1588,323,0,0
371,701,0,0,0,0,0,0,0,0,0,-1,1595,323,0,0
378,701,0,0,0,0,0,0,0,0,0,-1,1602,323,0,0
385,701,0,0,0,0,0,0,0,0,0,-1,1609,323,0,0
392,701,0,0,0,0,0,0,0,0,0,-1,1616,323,0,0
399,701,0,0,0,0,0,0,0,0,0,-1,1623,323,0,0
406,701,0,0,0,0,0,0,0,0,0,-1,1630,323,0,0
413,701,0,0,0,0,0,0,0,0,0,-1,1637,323,0,0
420,701,0,0,0,0,0,0,0,0,0,-1,1644,323,0,0
427,701,0,0,0,0,0,0,0,0,0,-1,1651,323,0,0
434,701,0,0,0,0,0,0,0,0,0,-1,1658,323,0,0
441,701,0,0,0,0,0,0,0,0,0,-1,1665,323,0,0
448,701,0,0,0,0,0,0,0,0,0,-1,1672,323,0,0
455,701,0,0,0,0,0,0,0,0,0,-1,1679,323,0,0
462,701,0,0,0,0,0,0,0,0,0,-1,1686,323,0,0
469,701,0,0,0,0,0,0,0,0,0,-1,1693,323,0,0
476,701,0,0,0,0,0,0,0,0,0,-1,1700,323,0,0
483,701,0,0,0,0,0,0,0,0,0,-1,1707,323,0,0
490,701,0,0,0,0,0,0,0,0,0,-1,1714,323,0,0
497,701,0,0,0,0,0,0,0,0,0,-1,1721,323,0,0
504,701,0,0,0,0,0,0,0,0,0,-1,1728,323,0,0
511,701,0,0,0,0,0,0,0,0,0,-1,1735,323,0,0
518,701,0,0,0,0,0,0,0,0,0,-1,1742,323,0,0
525,701,0,0,0,0,0,0,0,0,0,-1,1749,323,0,0
532,701,0,0,0,0,0,0,0,0,0,-1,1756,323,0,0
539,701,0,0,0,0,0,0,0,0,0,-1,1763,323,0,0
546,701,0,0,0,0,0,0,0,0,0,-1,1770,323,0,0
553,701,0,0,0,0,0,0,0,0,0,-1,1777,323,0,0
560,701,0,0,0,0,0,0,0,0,0,-1,1784,323,0,0
567,701,0,0,0,0,0,0,0,0,0,-1,1791,323,0,0
574,701,0,0,0,0,0,0,0,0,0,-1,1798,323,0,0
581,701,0,0,0,0,0,0,0,0,0,-1,1805,323,0,0
588,701,0,0,0,0,0,0,0,0,0,-1,1812,323,0,0
595,701,0,0,0,0,0,0,0,0,0,-1,1819,323,0,0
602,701,0,0,0,0,0,0,0,0,0,-1,1826,323,0,0
609,701,0,0,0,0,0,0,0,0,0,-1,1833,323,0,0
616,701,0,0,0,0,0,0,0,0,0,-1,1840,323,0,0
623,701,0,0,0,0,0,0,0,0,0,-1,1847,323,0,0
630,701,0,0,0,0,0,0,0,0,0,-1,1854,323,0,0
637,701,0,0,0,0,0,0,0,0,0,-1,1861,323,0,0
644,701,0,0,0,0,0,0,0,0,0,-1,1868,323,0,0
651,701,0,0,0,0,0,0,0,0,0,-1,1875,323,0,0
658,701,0,0,0,0,0,0,0,0,0,-1,1882,323,0,0
665,701,0,0,0,0,0,0,0,0,0,-1,1889,323,0,0
672,701,0,0,0,0,0,0,0,0,0,-1,1896,323,0,0
679,701,0,0,0,0,0,0,0,0,0,-1,1903,323,0,0
686,701,0,0,0,0,0,0,0,0,0,-1,1910,323,0,0
693,701,0,0,0,0,0,0,0,0,0,-1,1917,323,0,0
700,701,0,0,0,0,0,0,0,0,0,-1,1924,323,0,0
707,701,0,0,0,0,0,0,0,0,0,-1,1931,323,0,0
714,701,0,0,0,0,0,0,0,0,0,-1,1938,323,0,0
721,701,0,0,0,0,0,0,0,0,0,-1,1945,323,0,0
728,701,0,0,0,0,0,0,0,0,0,-1,1952,323,0,0
735,701,0,0,0,0,0,0,0,0,0,-1,1959,323,0,0
742,701,0,0,0,0,0,0,0,0,0,-1,1966,323,0,0
749,701,0,0,0,0,0,0,0,0,0,-1,1973,323,0,0
756,701,0,0,0,0,0,0,0,0,0,-1,1980,323,0,0
763,701,0,0,0,0,0,0,0,0,0,-1,1987,323,0,0
770,701,0,0,0,0,0,0,0,0,0,-1,1994,323,0,0
777,701,0,0,0,0,0,0,0,0,0,-1,2001,323,0,0
784,701,0,0,0,0,0,0,0,0,0,-1,2008,323,0,0
791,701,0,0,0,0,0,0,0,0,0,-1,2015,323,0,0
798,701,0,0,0,0,0,0,0,0,0,-1,2022,323,0,0
805,701,0,0,0,0,0,0,0,0,0,-1,2029,323,0,0
812,701,0,0,0,0,0,0,0,0,0,-1,2036,323,0,0
-700,694,0,0,0,0,0,0,0,0,0,-1,524,330,0,0
-693,694,0,0,0,0,0,0,0,0,0,-1,531,330,0,0
-686,694,0,0,0,0,0,0,0,0,0,-1,538,330,0,0
-679,694,0,0,0,0,0,0,0,0,0,-1,545,330,0,0
-672,694,0,0,0,0,0,0,0,0,0,-1,552,330,0,0
-665,694,0,0,0,0,0,0,0,0,0,-1,559,330,0,0
-658,694,0,0,0,0,0,0,0,0,0,-1,566,330,0,0
-651,694,0,0,0,0,0,0,0,0,0,-1,573,330,0,0
-644,694,0,0,0,0,0,0,0,0,0,-1,580,330,0,0
-637,694,0,0,0,0,0,0,0,0,0,-1,587,330,0,0
-630,694,0,0,0,0,0,0,0,0,0,-1,594,330,0,0
-623,694,0,0,0,0,0,0,0,0,0,-1,601,330,0,0
-616,694,0,0,0,0,0,0,0,0,0,-1,608,330,0,0
-609,694,0,0,0,0,0,0,0,0,0,-1,615,330,0,0
-602,694,0,0,0,0,0,0,0,0,0,-1,622,330,0,0
-595,694,0,0,0,0,0,0,0,0,0,-1,629,330,0,0
-588,694,0,0,0,0,0,0,0,0,0,-1,636,330,0,0
-581,694,0,0,0,0,0,0,0,0,0,-1,643,330,0,0
-574,694,0,0,0,0,0,0,0,0,0,-1,650,330,0,0
-567,694,0,0,0,0,0,0,0,0,0,-1,657,330,0,0
-560,694,0,0,0,0,0,0,0,0,0,-1,664,330,0,0
-553,694,0,0,0,0,0,0,0,0,0,-1,671,330,0,0
-546,694,0,0,0,0,0,0,0,0,0,-1,678,330,0,0
-539,694,0,0,0,0,0,0,0,0,0,-1,685,330,0,0
-532,694,0,0,0,0,0,0,0,0,0,-1,692,330,0,0
-525,694,0,0,0,0,0,0,0,0,0,-1,699,330,0,0
-518,694,0,0,0,0,0,0,0,0,0,-1,706,330,0,0
-511,694,0,0,0,0,0,0,0,0,0,-1,713,330,0,0
-504,694,0,0,0,0,0,0,0,0,0,-1,720,330,0,0
-497,694,0,0,0,0,0,0,0,0,0,-1,727,330,0,0
-490,694,0,0,0,0,0,0,0,0,0,-1,734,330,0,0
-483,694,0,0,0,0,0,0,0,0,0,-1,741,330,0,0
-476,694,0,0,0,0,0,0,0,0,0,-1,748,330,0,0
-469,694,0,0,0,0,0,0,0,0,0,-1,755,330,0,0
-462,694,0,0,0,0,0,0,0,0,0,-1,762,330,0,0
-455,694,0,0,0,0,0,0,0,0,0,-1,769,330,0,0
-448,694,0,0,0,0,0,0,0,0,0,-1,776,330,0,0
-441,694,0,0,0,0,0,0,0,0,0,-1,783,330,0,0
-434,694,0,0,0,0,0,0,0,0,0,-1,790,330,0,0
-427,694,0,0,0,0,0,0,0,0,0,-1,797,330,0,0
-420,694,0,0,0,0,0,0,0,0,0,-1,804,330,0,0
-413,694,0,0,0,0,0,0,0,0,0,-1,811,330,0,0
-406,694,0,0,0,0,0,0,0,0,0,-1,818,330,0,0
-399,694,0,0,0,0,0,0,0,0,0,-1,825,330,0,0
-392,694,0,0,0,0,0,0,0,0,0,-1,832,330,0,0
-385,694,0,0,0,0,0,0,0,0,0,-1,839,330,0,0
-378,694,0,0,0,0,0,0,0,0,0,-1,846,330,0,0
-371,694,0,0,0,0,0,0,0,0,0,-1,853,330,0,0
-364,694,0,0,0,0,0,0,0,0,0,-1,860,330,0,0
-357,694,0,0,0,0,0,0,0,0,0,-1,867,330,0,0
-350,694,0,0,0,0,0,0,0,0,0,-1,874,330,0,0
-343,694,0,0,0,0,0,0,0,0,0,-1,881,330,0,0
-336,694,0,0,0,0,0,0,0,0,0,-1,888,330,0,0
-329,694,0,0,0,0,0,0,0,0,0,-1,895,330,0,0
-322,694,0,0,0,0,0,0,0,0,0,-1,902,330,0,0
-315,694,0,0,0,0,0,0,0,0,0,-1,909,330,0,0
-308,694,0,0,0,0,0,0,0,0,0,-1,916,330,0,0
-301,694,0,0,0,0,0,0,0,0,0,-1,923,330,0,0
-294,694,0,0,0,0,0,0,0,0,0,-1,930,330,0,0
-287,694,0,0,0,0,0,0,0,0,0,-1,937,330,0,0
-280,694,0,0,0,0,0,0,0,0,0,-1,944,330,0,0
-273,694,0,0,0,0,0,0,0,0,0,-1,951,330,0,0
-266,694,0,0,0,0,0,0,0,0,0,-1,958,330,0,0
-259,694,0,0,0,0,0,0,0,0,0,-1,965,330,0,0
-252,694,0,0,0,0,0,0,0,0,0,-1,972,330,0,0
-245,694,0,0,0,0,0,0,0,0,0,-1,979,330,0,0
-238,694,0,0,0,0,0,0,0,0,0,-1,986,330,0,0
-231,694,0,0,0,0,0,0,0,0,0,-1,993,330,0,0
-224,694,0,0,0,0,0,0,0,0,0,-1,1000,330,0,0
-217,694,0,0,0,0,0,0,0,0,0,-1,1007,330,0,0
-210,694,0,0,0,0,0,0,0,0,0,-1,1014,330,0,0
-203,694,0,0,0,0,0,0,0,0,0,-1,1021,330,0,0
-196,694,0,0,0,0,0,0,0,0,0,-1,1028,330,0,0
-189,694,0,0,0,0,0,0,0,0,0,-1,1035,330,0,0
-182,694,0,0,0,0,0,0,0,0,0,-1,1042,330,0,0
-175,694,0,0,0,0,0,0,0,0,0,-1,1049,330,0,0
-168,694,0,0,0,0,0,0,0,0,0,-1,1056,330,0,0
-161,694,0,0,0,0,0,0,0,0,0,-1,1063,330,0,0
-154,694,0,0,0,0,0,0,0,0,0,-1,1070,330,0,0
-147,694,0,0,0,0,0,0,0,0,0,-1,1077,330,0,0
-140,694,0,0,0,0,0,0,0,0,0,-1,1084,330,0,0
-133,694,0,0,0,0,0,0,0,0,0,-1,1091,330,0,0
-126,694,0,0,0,0,0,0,0,0,0,-1,1098,330,0,0
-119,694,0,0,0,0,0,0,0,0,0,-1,1105,330,0,0
-112,694,0,0,0,0,0,0,0,0,0,-1,1112,330,0,0
-105,694,2.5188,-19.3963,0,0,0,0,0,0,0,-1,1119,330,2.51882,19.3963
-98,694,1.34875,-10.1051,0,0,0,0,0,0,0,-1,1126,330,1.34874,10.1051
-91,694,7.12927,-43.3935,0,0,0,0,0,0,0,-1,1133,330,7.12929,43.3935
-84,694,1.07324,-37.1586,0,0,0,0,0,0,0,-1,1140,330,1.07323,37.1586
-77,694,-5.02612,-31.0246,0,0,0,0,0,0,0,-1,1147,330,-5.02613,31.0246
-70,694,-11.1091,-23.8819,0,0,0,0,0,0,0,-1,1154,330,-11.1091,23.8819
-63,694,-17.3901,-16.7162,0,0,0,0,0,0,0,-1,1161,330,-17.3901,16.7162
-56,694,-6.50623,-0.649139,0,0,0,0,0,0,0,-1,1168,330,-6.5062,0.649126
-49,694,-1.11426,0.0341797,0,0,0,0,0,0,0,-1,1175,330,-1.11424,-0.0341846
-42,694,-0.346313,-0.709595,0,0,0,0,0,0,0,-1,1182,330,-0.346298,0.709581
-35,694,-0.459106,-1.24713,0,0,0,0,0,0,0,-1,1189,330,-0.459142,1.24714
-28,694,-6.48413,-3.95972,0,0,0,0,0,0,0,-1,1196,330,-6.48414,3.9597
-21,694,4.51855,-32.5075,0,0,0,0,0,0,0,-1,1203,330,4.51852,32.5075
-14,694,4.91565,-32.5504,-0.00765294,0.0236045,0.0112339,0.0272231,-0.0112715,1.25918,0.0228521,0.0495415,1210,330,4.91562,32.5504
-7,694,5.02026,-32.6376,-0.00757209,0.0264723,0.00995924,0.0291717,-0.0102715,1.30611,0.0236279,0.0436783,1217,330,5.02032,32.6376
0,694,5.05603,-32.655,-0.00771811,0.0300737,0.00837027,0.0318446,-0.00948901,1.3623,0.0250004,0.0476947,1224,330,5.05601,32.655
7,694,5.0979,-32.5404,-0.00859152,0.0348555,0.00690826,0.0359275,-0.00966352,1.41685,0.0277397,0.0471341,1231,330,5.09788,32.5404
14,694,5.18579,-32.2187,0,0,0,0,0,0,0,-1,1238,330,5.18574,32.2187
21,694,5.69092,-31.264,0,0,0,0,0,0,0,-1,1245,330,5.69087,31.264
28,694,5.71045,-31.5388,0,0,0,0,0,0,0,-1,1252,330,5.71049,31.5388
35,694,9.96814,-40.7939,0,0,0,0,0,0,0,-1,1259,330,9.96816,40.7939
42,694,4.81311,-27.2018,0,0,0,0,0,0,0,-1,1266,330,4.81312,27.2018
49,694,4.06592,-28.3778,0,0,0,0,0,0,0,-1,1273,330,4.06597,28.3778
56,694,3.32703,-28.7918,0,0,0,0,0,0,0,-1,1280,330,3.32698,28.7918
63,694,5.01062,-30.472,0,0,0,0,0,0,0,-1,1287,330,5.01066,30.472
70,694,5.20483,-30.6036,0,0,0,0,0,0,0,-1,1294,330,5.20487,30.6036
77,694,5.39905,-30.7352,0,0,0,0,0,0,0,-1,1301,330,5.39909,30.7352
84,694,5.05249,-31.1631,-0.0202638,0.113374,-0.00194324,0.113402,-0.020292,-1.55626,0.0831945,0.0461657,1308,330,5.05252,31.1631
91,694,4.53564,-30.8444,-0.0220115,0.114058,-0.00413516,0.114184,-0.022137,-1.54044,0.0844739,0.043906,1315,330,4.53563,30.8444
98,694,4.5531,-30.8344,-0.0233375,0.114258,-0.00611538,0.114529,-0.0236088,-1.52647,0.0853183,0.0435564,1322,330,4.55312,30.8343
105,694,4.45056,-30.7545,-0.0244995,0.113235,-0.00765848,0.113659,-0.024924,-1.51542,0.0853032,0.0437664,1329,330,4.45054,30.7546
112,694,4.23206,-30.9765,-0.0254471,0.112506,-0.0091917,0.113115,-0.0260568,-1.50456,0.0854309,0.0457691,1336,330,4.23204,30.9765
119,694,4.13,-31.2562,-0.0259238,0.110691,-0.0102582,0.111457,-0.0266898,-1.49626,0.0846163,0.046701,1343,330,4.13006,31.2562
126,694,4.01196,-31.4818,0,0,0,0,0,0,0,-1,1350,330,4.01192,31.4818
133,694,4.45557,-31.2426,0,0,0,0,0,0,0,-1,1357,330,4.45563,31.2426
140,694,3.81384,-30.8472,0,0,0,0,0,0,0,-1,1364,330,3.81382,30.8472
147,694,5.11707,-29.5462,0,0,0,0,0,0,0,-1,1371,330,5.11704,29.5462
154,694,6.12305,-29.4879,0,0,0,0,0,0,0,-1,1378,330,6.12305,29.488
161,694,3.92969,-26.2193,0,0,0,0,0,0,0,-1,1385,330,3.92966,26.2193
168,694,30.451,0.196686,0,0,0,0,0,0,0,-1,1392,330,30.4511,-0.196674
175,694,31.0701,0.869873,0,0,0,0,0,0,0,-1,1399,330,31.07,-0.869874
182,694,8.29028,5.75238,0,0,0,0,0,0,0,-1,1406,330,8.29034,-5.75237
189,694,7.9801,4.46118,0,0,0,0,0,0,0,-1,1413,330,7.9801,-4.46118
196,694,7.39331,3.32632,0,0,0,0,0,0,0,-1,1420,330,7.39329,-3.32633
203,694,7.04492,2.20529,0,0,0,0,0,0,0,-1,1427,330,7.04496,-2.20529
210,694,6.44714,0.646912,0,0,0,0,0,0,0,-1,1434,330,6.44717,-0.646903
217,694,7.12061,-0.644958,0,0,0,0,0,0,0,-1,1441,330,7.12059,0.644961
224,694,6.74011,-1.70544,0,0,0,0,0,0,0,-1,1448,330,6.74013,1.70546
231,694,0,0,0,0,0,0,0,0,0,-1,1455,330,0,0
238,694,0,0,0,0,0,0,0,0,0,-1,1462,330,0,0
245,694,0,0,0,0,0,0,0,0,0,-1,1469,330,0,0
252,694,0,0,0,0,0,0,0,0,0,-1,1476,330,0,0
259,694,0,0,0,0,0,0,0,0,0,-1,1483,330,0,0
266,694,0,0,0,0,0,0,0,0,0,-1,1490,330,0,0
273,694,0,0,0,0,0,0,0,0,0,-1,1497,330,0,0
280,694,0,0,0,0,0,0,0,0,0,-1,1504,330,0,0
287,694,0,0,0,0,0,0,0,0,0,-1,1511,330,0,0
294,694,0,0,0,0,0,0,0,0,0,-1,1518,330,0,0
301,694,0,0,0,0,0,0,0,0,0,-1,1525,330,0,0
308,694,0,0,0,0,0,0,0,0,0,-1,1532,330,0,0
315,694,0,0,0,0,0,0,0,0,0,-1,1539,330,0,0
322,694,0,0,0,0,0,0,0,0,0,-1,1546,330,0,0
329,694,0,0,0,0,0,0,0,0,0,-1,1553,330,0,0
336,694,0,0,0,0,0,0,0,0,0,-1,1560,330,0,0
343,694,0,0,0,0,0,0,0,0,0,-1,1567,330,0,0
350,694,0,0,0,0,0,0,0,0,0,-1,1574,330,0,0
357,694,0,0,0,0,0,0,0,0,0,-1,1581,330,0,0
364,694,0,0,0,0,0,0,0,0,0,-1,1588,330,0,0
371,694,0,0,0,0,0,0,0,0,0,-1,1595,330,0,0
378,694,0,0,0,0,0,0,0,0,0,-1,1602,330,0,0
385,694,0,0,0,0,0,0,0,0,0,-1,1609,330,0,0
392,694,0,0,0,0,0,0,0,0,0,-1,1616,330,0,0
399,694,0,0,0,0,0,0,0,0,0,-1,1623,330,0,0
406,694,0,0,0,0,0,0,0,0,0,-1,1630,330,0,0
413,694,0,0,0,0,0,0,0,0,0,-1,1637,330,0,0
420,694,0,0,0,0,0,0,0,0,0,-1,1644,330,0,0
427,694,0,0,0,0,0,0,0,0,0,-1,1651,330,0,0
434,694,0,0,0,0,0,0,0,0,0,-1,1658,330,0,0
441,694,0,0,0,0,0,0,0,0,0,-1,1665,330,0,0
448,694,0,0,0,0,0,0,0,0,0,-1,1672,330,0,0
455,694,0,0,0,0,0,0,0,0,0,-1,1679,330,0,0
462,694,0,0,0,0,0,0,0,0,0,-1,1686,330,0,0
469,694,0,0,0,0,0,0,0,0,0,-1,1693,330,0,0
476,694,0,0,0,0,0,0,0,0,0,-1,1700,330,0,0
483,694,0,0,0,0,0,0,0,0,0,-1,1707,330,0,0
490,694,0,0,0,0,0,0,0,0,0,-1,1714,330,0,0
497,694,0,0,0,0,0,0,0,0,0,-1,1721,330,0,0
504,694,0,0,0,0,0,0,0,0,0,-1,1728,330,0,0
511,694,0,0,0,0,0,0,0,0,0,-1,1735,330,0,0
518,694,0,0,0,0,0,0,0,0,0,-1,1742,330,0,0
525,694,0,0,0,0,0,0,0,0,0,-1,1749,330,0,0
532,694,0,0,0,0,0,0,0,0,0,-1,1756,330,0,0
539,694,0,0,0,0,0,0,0,0,0,-1,1763,330,0,0
546,694,0,0,0,0,0,0,0,0,0,-1,1770,330,0,0
553,694,0,0,0,0,0,0,0,0,0,-1,1777,330,0,0
560,694,0,0,0,0,0,0,0,0,0,-1,1784,330,0,0
567,694,0,0,0,0,0,0,0,0,0,-1,1791,330,0,0
574,694,0,0,0,0,0,0,0,0,0,-1,1798,330,0,0
581,694,0,0,0,0,0,0,0,0,0,-1,1805,330,0,0
588,694,0,0,0,0,0,0,0,0,0,-1,1812,330,0,0
595,694,0,0,0,0,0,0,0,0,0,-1,1819,330,0,0
602,694,0,0,0,0,0,0,0,0,0,-1,1826,330,0,0
609,694,0,0,0,0,0,0,0,0,0,-1,1833,330,0,0
616,694,0,0,0,0,0,0,0,0,0,-1,1840,330,0,0
623,694,0,0,0,0,0,0,0,0,0,-1,1847,330,0,0
630,694,0,0,0,0,0,0,0,0,0,-1,1854,330,0,0
637,694,0,0,0,0,0,0,0,0,0,-1,1861,330,0,0
644,694,0,0,0,0,0,0,0,0,0,-1,1868,330,0,0
651,694,0,0,0,0,0,0,0,0,0,-1,1875,330,0,0
658,694,0,0,0,0,0,0,0,0,0,-1,1882,330,0,0
665,694,0,0,0,0,0,0,0,0,0,-1,1889,330,0,0
672,694,0,0,0,0,0,0,0,0,0,-1,1896,330,0,0
679,694,0,0,0,0,0,0,0,0,0,-1,1903,330,0,0
686,694,0,0,0,0,0,0,0,0,0,-1,1910,330,0,0
693,694,0,0,0,0,0,0,0,0,0,-1,1917,330,0,0
700,694,0,0,0,0,0,0,0,0,0,-1,1924,330,0,0
707,694,0,0,0,0,0,0,0,0,0,-1,1931,330,0,0
714,694,0,0,0,0,0,0,0,0,0,-1,1938,330,0,0
721,694,0,0,0,0,0,0,0,0,0,-1,1945,330,0,0
728,694,0,0,0,0,0,0,0,0,0,-1,1952,330,0,0
735,694,0,0,0,0,0,0,0,0,0,-1,1959,330,0,0
742,694,0,0,0,0,0,0,0,0,0,-1,1966,330,0,0
749,694,0,0,0,0,0,0,0,0,0,-1,1973,330,0,0
756,694,0,0,0,0,0,0,0,0,0,-1,1980,330,0,0
763,694,0,0,0,0,0,0,0,0,0,-1,1987,330,0,0
770,694,0,0,0,0,0,0,0,0,0,-1,1994,330,0,0
777,694,0,0,0,0,0,0,0,0,0,-1,2001,330,0,0
784,694,0,0,0,0,0,0,0,0,0,-1,2008,330,0,0
791,694,0,0,0,0,0,0,0,0,0,-1,2015,330,0,0
798,694,0,0,0,0,0,0,0,0,0,-1,2022,330,0,0
805,694,0,0,0,0,0,0,0,0,0,-1,2029,330,0,0
812,694,0,0,0,0,0,0,0,0,0,-1,2036,330,0,0
-700,687,0,0,0,0,0,0,0,0,0,-1,524,337,0,0
-693,687,0,0,0,0,0,0,0,0,0,-1,531,337,0,0
-686,687,0,0,0,0,0,0,0,0,0,-1,538,337,0,0
-679,687,0,0,0,0,0,0,0,0,0,-1,545,337,0,0
-672,687,0,0,0,0,0,0,0,0,0,-1,552,337,0,0
-665,687,0,0,0,0,0,0,0,0,0,-1,559,337,0,0
-658,687,0,0,0,0,0,0,0,0,0,-1,566,337,0,0
-651,687,0,0,0,0,0,0,0,0,0,-1,573,337,0,0
-644,687,0,0,0,0,0,0,0,0,0,-1,580,337,0,0
-637,687,0,0,0,0,0,0,0,0,0,-1,587,337,0,0
-630,687,0,0,0,0,0,0,0,0,0,-1,594,337,0,0
-623,687,0,0,0,0,0,0,0,0,0,-1,601,337,0,0
-616,687,0,0,0,0,0,0,0,0,0,-1,608,337,0,0
-609,687,0,0,0,0,0,0,0,0,0,-1,615,337,0,0
-602,687,0,0,0,0,0,0,0,0,0,-1,622,337,0,0
-595,687,0,0,0,0,0,0,0,0,0,-1,629,337,0,0
-588,687,0,0,0,0,0,0,0,0,0,-1,636,337,0,0
-581,687,0,0,0,0,0,0,0,0,0,-1,643,337,0,0
-574,687,0,0,0,0,0,0,0,0,0,-1,650,337,0,0
-567,687,0,0,0,0,0,0,0,0,0,-1,657,337,0,0
-560,687,0,0,0,0,0,0,0,0,0,-1,664,337,0,0
-553,687,0,0,0,0,0,0,0,0,0,-1,671,337,0,0
-546,687,0,0,0,0,0,0,0,0,0,-1,678,337,0,0
-539,687,0,0,0,0,0,0,0,0,0,-1,685,337,0,0
-532,687,0,0,0,0,0,0,0,0,0,-1,692,337,0,0
-525,687,0,0,0,0,0,0,0,0,0,-1,699,337,0,0
-518,687,0,0,0,0,0,0,0,0,0,-1,706,337,0,0
-511,687,0,0,0,0,0,0,0,0,0,-1,713,337,0,0
-504,687,0,0,0,0,0,0,0,0,0,-1,720,337,0,0
-497,687,0,0,0,0,0,0,0,0,0,-1,727,337,0,0
-490,687,0,0,0,0,0,0,0,0,0,-1,734,337,0,0
-483,687,0,0,0,0,0,0,0,0,0,-1,741,337,0,0
-476,687,0,0,0,0,0,0,0,0,0,-1,748,337,0,0
-469,687,0,0,0,0,0,0,0,0,0,-1,755,337,0,0
-462,687,0,0,0,0,0,0,0,0,0,-1,762,337,0,0
-455,687,0,0,0,0,0,0,0,0,0,-1,769,337,0,0
-448,687,0,0,0,0,0,0,0,0,0,-1,776,337,0,0
-441,687,0,0,0,0,0,0,0,0,0,-1,783,337,0,0
-434,687,0,0,0,0,0,0,0,0,0,-1,790,337,0,0
-427,687,0,0,0,0,0,0,0,0,0,-1,797,337,0,0
-420,687,0,0,0,0,0,0,0,0,0,-1,804,337,0,0
-413,687,0,0,0,0,0,0,0,0,0,-1,811,337,0,0
-406,687,0,0,0,0,0,0,0,0,0,-1,818,337,0,0
-399,687,0,0,0,0,0,0,0,0,0,-1,825,337,0,0
-392,687,0,0,0,0,0,0,0,0,0,-1,832,337,0,0
-385,687,0,0,0,0,0,0,0,0,0,-1,839,337,0,0
-378,687,0,0,0,0,0,0,0,0,0,-1,846,337,0,0
-371,687,0,0,0,0,0,0,0,0,0,-1,853,337,0,0
-364,687,0,0,0,0,0,0,0,0,0,-1,860,337,0,0
-357,687,0,0,0,0,0,0,0,0,0,-1,867,337,0,0
-350,687,0,0,0,0,0,0,0,0,0,-1,874,337,0,0
-343,687,0,0,0,0,0,0,0,0,0,-1,881,337,0,0
-336,687,0,0,0,0,0,0,0,0,0,-1,888,337,0,0
-329,687,0,0,0,0,0,0,0,0,0,-1,895,337,0,0
-322,687,0,0,0,0,0,0,0,0,0,-1,902,337,0,0
-315,687,0,0,0,0,0,0,0,0,0,-1,909,337,0,0
-308,687,0,0,0,0,0,0,0,0,0,-1,916,337,0,0
-301,687,0,0,0,0,0,0,0,0,0,-1,923,337,0,0
-294,687,0,0,0,0,0,0,0,0,0,-1,930,337,0,0
-287,687,0,0,0,0,0,0,0,0,0,-1,937,337,0,0
-280,687,0,0,0,0,0,0,0,0,0,-1,944,337,0,0
-273,687,0,0,0,0,0,0,0,0,0,-1,951,337,0,0
-266,687,0,0,0,0,0,0,0,0,0,-1,958,337,0,0
-259,687,0,0,0,0,0,0,0,0,0,-1,965,337,0,0
-252,687,0,0,0,0,0,0,0,0,0,-1,972,337,0,0
-245,687,0,0,0,0,0,0,0,0,0,-1,979,337,0,0
-238,687,0,0,0,0,0,0,0,0,0,-1,986,337,0,0
-231,687,0,0,0,0,0,0,0,0,0,-1,993,337,0,0
-224,687,0,0,0,0,0,0,0,0,0,-1,1000,337,0,0
-217,687,0,0,0,0,0,0,0,0,0,-1,1007,337,0,0
-210,687,0,0,0,0,0,0,0,0,0,-1,1014,337,0,0
-203,687,0,0,0,0,0,0,0,0,0,-1,1021,337,0,0
-196,687,0,0,0,0,0,0,0,0,0,-1,1028,337,0,0
-189,687,0,0,0,0,0,0,0,0,0,-1,1035,337,0,0
-182,687,0,0,0,0,0,0,0,0,0,-1,1042,337,0,0
-175,687,0,0,0,0,0,0,0,0,0,-1,1049,337,0,0
-168,687,0,0,0,0,0,0,0,0,0,-1,1056,337,0,0
-161,687,0,0,0,0,0,0,0,0,0,-1,1063,337,0,0
-154,687,0,0,0,0,0,0,0,0,0,-1,1070,337,0,0
-147,687,0,0,0,0,0,0,0,0,0,-1,1077,337,0,0
-140,687,0,0,0,0,0,0,0,0,0,-1,1084,337,0,0
-133,687,8.26331,-31.5719,0,0,0,0,0,0,0,-1,1091,337,8.26332,31.5719
-126,687,8.20032,-30.658,0.0139008,-0.0190519,0.0962807,0.0951047,-0.100256,0.700655,0.112805,0.0420932,1098,337,8.20032,30.658
-119,687,7.8457,-29.9218,0.00909999,-0.0157191,0.0955661,0.0930589,-0.099678,0.720833,0.111299,0.0432622,1105,337,7.84569,29.9218
-112,687,7.16846,-29.0458,0.00339672,-0.0125604,0.0952596,0.0910113,-0.100175,0.743618,0.110424,0.0479798,1112,337,7.16844,29.0458
-105,687,6.71155,-27.9981,0,0,0,0,0,0,0,-1,1119,337,6.7116,27.9981
-98,687,13.5825,-44.6227,0,0,0,0,0,0,0,-1,1126,337,13.5825,44.6227
-91,687,7.73694,-38.4884,0,0,0,0,0,0,0,-1,1133,337,7.73693,38.4884
-84,687,1.797,-32.6166,0,0,0,0,0,0,0,-1,1140,337,1.79697,32.6166
-77,687,-4.23816,-26.3512,0,0,0,0,0,0,0,-1,1147,337,-4.23819,26.3512
-70,687,-10.2548,-19.4462,0,0,0,0,0,0,0,-1,1154,337,-10.2548,19.4462
-63,687,-16.4756,-12.504,0,0,0,0,0,0,0,-1,1161,337,-16.4756,12.504
-56,687,-18.104,7.81931,0,0,0,0,0,0,0,-1,1168,337,-18.104,-7.81931
-49,687,-15.6449,-9.94391,0,0,0,0,0,0,0,-1,1175,337,-15.6449,9.94392
-42,687,-4.2019,-0.405609,0,0,0,0,0,0,0,-1,1182,337,-4.20192,0.405614
-35,687,-4.42273,-0.688171,0,0,0,0,0,0,0,-1,1189,337,-4.42276,0.688178
-28,687,-1.14038,-1.39072,0,0,0,0,0,0,0,-1,1196,337,-1.14035,1.3907
-21,687,5.84802,-33.7599,0,0,0,0,0,0,0,-1,1203,337,5.84796,33.7599
-14,687,5.35657,-33.3412,-0.00750775,0.01903,0.00905404,0.0218247,-0.0103025,1.2714,0.0189421,0.0476913,1210,337,5.35654,33.3411
-7,687,4.85596,-32.9077,-0.00731146,0.0214648,0.0082229,0.0236487,-0.00949543,1.31119,0.0197088,0.0426267,1217,337,4.8559,32.9077
0,687,5.03259,-32.576,-0.0071832,0.024504,0.00708196,0.0260148,-0.00869396,1.36062,0.0208542,0.0486283,1224,337,5.03255,32.576
7,687,5.05908,-32.4795,-0.00754231,0.0284966,0.00594114,0.0294508,-0.00849647,1.41155,0.0229953,0.0491634,1231,337,5.05913,32.4795
14,687,5.31079,-31.7771,-0.00827704,0.0350246,0.00554496,0.0357234,-0.00897582,1.44544,0.0273038,0.0439411,1238,337,5.31079,31.7771
21,687,5.29028,-31.6559,-0.00890453,0.0406156,0.00511625,0.0411386,-0.0094276,1.46891,0.0310491,0.0447085,1245,337,5.29031,31.6559
28,687,4.85413,-32.4879,-0.00957567,0.0465648,0.00523831,0.0470494,-0.0100603,1.47855,0.0352021,0.0478252,1252,337,4.85409,32.4879
35,687,5.01892,-32.506,0,0,0,0,0,0,0,-1,1259,337,5.01893,32.506
42,687,6.11853,-31.7249,0,0,0,0,0,0,0,-1,1266,337,6.11858,31.7249
49,687,3.74792,-32.0695,0,0,0,0,0,0,0,-1,1273,337,3.74791,32.0695
56,687,4.26392,-32.0949,0,0,0,0,0,0,0,-1,1280,337,4.26387,32.0949
63,687,4.73608,-31.6158,0,0,0,0,0,0,0,-1,1287,337,4.73604,31.6158
70,687,4.85132,-31.4921,0,0,0,0,0,0,0,-1,1294,337,4.85138,31.4921
77,687,4.88049,-31.3796,0,0,0,0,0,0,0,-1,1301,337,4.88054,31.3796
84,687,4.83228,-31.1921,0,0,0,0,0,0,0,-1,1308,337,4.83232,31.1921
91,687,4.55029,-31.7776,-0.0188649,0.0947927,-0.00212756,0.0948325,-0.0189047,-1.55209,0.0703747,0.0454912,1315,337,4.55031,31.7776
98,687,4.49902,-31.8521,-0.0200208,0.094988,-0.00355887,0.095098,-0.0201308,-1.53989,0.0710658,0.0471836,1322,337,4.49907,31.8521
105,687,4.0509,-32.1628,0,0,0,0,0,0,0,-1,1329,337,4.05091,32.1628
112,687,3.6748,-31.9442,0,0,0,0,0,0,0,-1,1336,337,3.67478,31.9442
119,687,3.77063,-31.7523,0,0,0,0,0,0,0,-1,1343,337,3.77066,31.7523
126,687,3.76624,-32.1588,0,0,0,0,0,0,0,-1,1350,337,3.76622,32.1587
133,687,3.85815,-31.5397,0,0,0,0,0,0,0,-1,1357,337,3.85816,31.5397
140,687,3.85107,-31.1817,0,0,0,0,0,0,0,-1,1364,337,3.85107,31.1817
147,687,3.87427,-30.9066,0,0,0,0,0,0,0,-1,1371,337,3.87427,30.9066
154,687,3.06482,-29.9561,0,0,0,0,0,0,0,-1,1378,337,3.06482,29.9561
161,687,29.3895,-1.90628,0,0,0,0,0,0,0,-1,1385,337,29.3895,1.90628
168,687,29.8564,-1.19434,0,0,0,0,0,0,0,-1,1392,337,29.8564,1.19434
175,687,30.3419,-0.453583,0,0,0,0,0,0,0,-1,1399,337,30.3419,0.45357
182,687,6.67249,0.289917,0,0,0,0,0,0,0,-1,1406,337,6.67247,-0.289916
189,687,7.76062,4.53635,0,0,0,0,0,0,0,-1,1413,337,7.76064,-4.53636
196,687,6.99048,3.2966,0,0,0,0,0,0,0,-1,1420,337,6.99046,-3.2966
203,687,6.36499,2.1445,0,0,0,0,0,0,0,-1,1427,337,6.36499,-2.14451
210,687,6.68066,0.674652,0,0,0,0,0,0,0,-1,1434,337,6.68062,-0.674655
217,687,5.99683,-0.630493,0,0,0,0,0,0,0,-1,1441,337,5.99684,0.630497
224,687,5.52917,0.524902,0,0,0,0,0,0,0,-1,1448,337,5.5292,-0.524915
231,687,5.85583,-1.73651,0,0,0,0,0,0,0,-1,1455,337,5.85577,1.73651
238,687,5.96582,-2.96774,0,0,0,0,0,0,0,-1,1462,337,5.96577,2.96773
245,687,1.28259,2.32211,0,0,0,0,0,0,0,-1,1469,337,1.28258,-2.32211
252,687,1.97278,3.88422,0,0,0,0,0,0,0,-1,1476,337,1.97281,-3.88421
259,687,0,0,0,0,0,0,0,0,0,-1,1483,337,0,0
266,687,0,0,0,0,0,0,0,0,0,-1,1490,337,0,0
273,687,0,0,0,0,0,0,0,0,0,-1,1497,337,0,0
280,687,0,0,0,0,0,0,0,0,0,-1,1504,337,0,0
287,687,0,0,0,0,0,0,0,0,0,-1,1511,337,0,0
294,687,0,0,0,0,0,0,0,0,0,-1,1518,337,0,0
301,687,0,0,0,0,0,0,0,0,0,-1,1525,337,0,0
308,687,0,0,0,0,0,0,0,0,0,-1,1532,337,0,0
315,687,0,0,0,0,0,0,0,0,0,-1,1539,337,0,0
322,687,0,0,0,0,0,0,0,0,0,-1,1546,337,0,0
329,687,0,0,0,0,0,0,0,0,0,-1,1553,337,0,0
336,687,0,0,0,0,0,0,0,0,0,-1,1560,337,0,0
343,687,0,0,0,0,0,0,0,0,0,-1,1567,337,0,0
350,687,0,0,0,0,0,0,0,0,0,-1,1574,337,0,0
357,687,0,0,0,0,0,0,0,0,0,-1,1581,337,0,0
364,687,0,0,0,0,0,0,0,0,0,-1,1588,337,0,0
371,687,0,0,0,0,0,0,0,0,0,-1,1595,337,0,0
378,687,0,0,0,0,0,0,0,0,0,-1,1602,337,0,0
385,687,0,0,0,0,0,0,0,0,0,-1,1609,337,0,0
392,687,0,0,0,0,0,0,0,0,0,-1,1616,337,0,0
399,687,0,0,0,0,0,0,0,0,0,-1,1623,337,0,0
406,687,0,0,0,0,0,0,0,0,0,-1,1630,337,0,0
413,687,0,0,0,0,0,0,0,0,0,-1,1637,337,0,0
420,687,0,0,0,0,0,0,0,0,0,-1,1644,337,0,0
427,687,0,0,0,0,0,0,0,0,0,-1,1651,337,0,0
434,687,0,0,0,0,0,0,0,0,0,-1,1658,337,0,0
441,687,0,0,0,0,0,0,0,0,0,-1,1665,337,0,0
448,687,0,0,0,0,0,0,0,0,0,-1,1672,337,0,0
455,687,0,0,0,0,0,0,0,0,0,-1,1679,337,0,0
462,687,0,0,0,0,0,0,0,0,0,-1,1686,337,0,0
469,687,0,0,0,0,0,0,0,0,0,-1,1693,337,0,0
476,687,0,0,0,0,0,0,0,0,0,-1,1700,337,0,0
483,687,0,0,0,0,0,0,0,0,0,-1,1707,337,0,0
490,687,0,0,0,0,0,0,0,0,0,-1,1714,337,0,0
497,687,0,0,0,0,0,0,0,0,0,-1,1721,337,0,0
504,687,0,0,0,0,0,0,0,0,0,-1,1728,337,0,0
511,687,0,0,0,0,0,0,0,0,0,-1,1735,337,0,0
518,687,0,0,0,0,0,0,0,0,0,-1,1742,337,0,0
525,687,0,0,0,0,0,0,0,0,0,-1,1749,337,0,0
532,687,0,0,0,0,0,0,0,0,0,-1,1756,337,0,0
539,687,0,0,0,0,0,0,0,0,0,-1,1763,337,0,0
546,687,0,0,0,0,0,0,0,0,0,-1,1770,337,0,0
553,687,0,0,0,0,0,0,0,0,0,-1,1777,337,0,0
560,687,0,0,0,0,0,0,0,0,0,-1,1784,337,0,0
567,687,0,0,0,0,0,0,0,0,0,-1,1791,337,0,0
574,687,0,0,0,0,0,0,0,0,0,-1,1798,337,0,0
581,687,0,0,0,0,0,0,0,0,0,-1,1805,337,0,0
588,687,0,0,0,0,0,0,0,0,0,-1,1812,337,0,0
595,687,0,0,0,0,0,0,0,0,0,-1,1819,337,0,0
602,687,0,0,0,0,0,0,0,0,0,-1,1826,337,0,0
609,687,0,0,0,0,0,0,0,0,0,-1,1833,337,0,0
616,687,0,0,0,0,0,0,0,0,0,-1,1840,337,0,0
623,687,0,0,0,0,0,0,0,0,0,-1,1847,337,0,0
630,687,0,0,0,0,0,0,0,0,0,-1,1854,337,0,0
637,687,0,0,0,0,0,0,0,0,0,-1,1861,337,0,0
644,687,0,0,0,0,0,0,0,0,0,-1,1868,337,0,0
651,687,0,0,0,0,0,0,0,0,0,-1,1875,337,0,0
658,687,0,0,0,0,0,0,0,0,0,-1,1882,337,0,0
665,687,0,0,0,0,0,0,0,0,0,-1,1889,337,0,0
672,687,0,0,0,0,0,0,0,0,0,-1,1896,337,0,0
679,687,0,0,0,0,0,0,0,0,0,-1,1903,337,0,0
686,687,0,0,0,0,0,0,0,0,0,-1,1910,337,0,0
693,687,0,0,0,0,0,0,0,0,0,-1,1917,337,0,0
700,687,0,0,0,0,0,0,0,0,0,-1,1924,337,0,0
707,687,0,0,0,0,0,0,0,0,0,-1,1931,337,0,0
714,687,0,0,0,0,0,0,0,0,0,-1,1938,337,0,0
721,687,0,0,0,0,0,0,0,0,0,-1,1945,337,0,0
728,687,0,0,0,0,0,0,0,0,0,-1,1952,337,0,0
735,687,0,0,0,0,0,0,0,0,0,-1,1959,337,0,0
742,687,0,0,0,0,0,0,0,0,0,-1,1966,337,0,0
749,687,0,0,0,0,0,0,0,0,0,-1,1973,337,0,0
756,687,0,0,0,0,0,0,0,0,0,-1,1980,337,0,0
763,687,0,0,0,0,0,0,0,0,0,-1,1987,337,0,0
770,687,0,0,0,0,0,0,0,0,0,-1,1994,337,0,0
777,687,0,0,0,0,0,0,0,0,0,-1,2001,337,0,0
784,687,0,0,0,0,0,0,0,0,0,-1,2008,337,0,0
791,687,0,0,0,0,0,0,0,0,0,-1,2015,337,0,0
798,687,0,0,0,0,0,0,0,0,0,-1,2022,337,0,0
805,687,0,0,0,0,0,0,0,0,0,-1,2029,337,0,0
812,687,0,0,0,0,0,0,0,0,0,-1,2036,337,0,0
-700,680,0,0,0,0,0,0,0,0,0,-1,524,344,0,0
-693,680,0,0,0,0,0,0,0,0,0,-1,531,344,0,0
-686,680,0,0,0,0,0,0,0,0,0,-1,538,344,0,0
-679,680,0,0,0,0,0,0,0,0,0,-1,545,344,0,0
-672,680,0,0,0,0,0,0,0,0,0,-1,552,344,0,0
-665,680,0,0,0,0,0,0,0,0,0,-1,559,344,0,0
-658,680,0,0,0,0,0,0,0,0,0,-1,566,344,0,0
-651,680,0,0,0,0,0,0,0,0,0,-1,573,344,0,0
-644,680,0,0,0,0,0,0,0,0,0,-1,580,344,0,0
-637,680,0,0,0,0,0,0,0,0,0,-1,587,344,0,0
-630,680,0,0,0,0,0,0,0,0,0,-1,594,344,0,0
-623,680,0,0,0,0,0,0,0,0,0,-1,601,344,0,0
-616,680,0,0,0,0,0,0,0,0,0,-1,608,344,0,0
-609,680,0,0,0,0,0,0,0,0,0,-1,615,344,0,0
-602,680,0,0,0,0,0,0,0,0,0,-1,622,344,0,0
-595,680,0,0,0,0,0,0,0,0,0,-1,629,344,0,0
-588,680,0,0,0,0,0,0,0,0,0,-1,636,344,0,0
-581,680,0,0,0,0,0,0,0,0,0,-1,643,344,0,0
-574,680,0,0,0,0,0,0,0,0,0,-1,650,344,0,0
-567,680,0,0,0,0,0,0,0,0,0,-1,657,344,0,0
-560,680,0,0,0,0,0,0,0,0,0,-1,664,344,0,0
-553,680,0,0,0,0,0,0,0,0,0,-1,671,344,0,0
-546,680,0,0,0,0,0,0,0,0,0,-1,678,344,0,0
-539,680,0,0,0,0,0,0,0,0,0,-1,685,344,0,0
-532,680,0,0,0,0,0,0,0,0,0,-1,692,344,0,0
-525,680,0,0,0,0,0,0,0,0,0,-1,699,344,0,0
-518,680,0,0,0,0,0,0,0,0,0,-1,706,344,0,0
-511,680,0,0,0,0,0,0,0,0,0,-1,713,344,0,0
-504,680,0,0,0,0,0,0,0,0,0,-1,720,344,0,0
-497,680,0,0,0,0,0,0,0,0,0,-1,727,344,0,0
-490,680,0,0,0,0,0,0,0,0,0,-1,734,344,0,0
-483,680,0,0,0,0,0,0,0,0,0,-1,741,344,0,0
-476,680,0,0,0,0,0,0,0,0,0,-1,748,344,0,0
-469,680,0,0,0,0,0,0,0,0,0,-1,755,344,0,0
-462,680,0,0,0,0,0,0,0,0,0,-1,762,344,0,0
-455,680,0,0,0,0,0,0,0,0,0,-1,769,344,0,0
-448,680,0,0,0,0,0,0,0,0,0,-1,776,344,0,0
-441,680,0,0,0,0,0,0,0,0,0,-1,783,344,0,0
-434,680,0,0,0,0,0,0,0,0,0,-1,790,344,0,0
-427,680,0,0,0,0,0,0,0,0,0,-1,797,344,0,0
-420,680,0,0,0,0,0,0,0,0,0,-1,804,344,0,0
-413,680,0,0,0,0,0,0,0,0,0,-1,811,344,0,0
-406,680,0,0,0,0,0,0,0,0,0,-1,818,344,0,0
-399,680,0,0,0,0,0,0,0,0,0,-1,825,344,0,0
-392,680,0,0,0,0,0,0,0,0,0,-1,832,344,0,0
-385,680,0,0,0,0,0,0,0,0,0,-1,839,344,0,0
-378,680,0,0,0,0,0,0,0,0,0,-1,846,344,0,0
-371,680,0,0,0,0,0,0,0,0,0,-1,853,344,0,0
-364,680,0,0,0,0,0,0,0,0,0,-1,860,344,0,0
-357,680,0,0,0,0,0,0,0,0,0,-1,867,344,0,0
-350,680,0,0,0,0,0,0,0,0,0,-1,874,344,0,0
-343,680,0,0,0,0,0,0,0,0,0,-1,881,344,0,0
-336,680,0,0,0,0,0,0,0,0,0,-1,888,344,0,0
-329,680,0,0,0,0,0,0,0,0,0,-1,895,344,0,0
-322,680,0,0,0,0,0,0,0,0,0,-1,902,344,0,0
-315,680,0,0,0,0,0,0,0,0,0,-1,909,344,0,0
-308,680,0,0,0,0,0,0,0,0,0,-1,916,344,0,0
-301,680,0,0,0,0,0,0,0,0,0,-1,923,344,0,0
-294,680,0,0,0,0,0,0,0,0,0,-1,930,344,0,0
-287,680,0,0,0,0,0,0,0,0,0,-1,937,344,0,0
-280,680,0,0,0,0,0,0,0,0,0,-1,944,344,0,0
-273,680,0,0,0,0,0,0,0,0,0,-1,951,344,0,0
-266,680,0,0,0,0,0,0,0,0,0,-1,958,344,0,0
-259,680,0,0,0,0,0,0,0,0,0,-1,965,344,0,0
-252,680,0,0,0,0,0,0,0,0,0,-1,972,344,0,0
-245,680,0,0,0,0,0,0,0,0,0,-1,979,344,0,0
-238,680,0,0,0,0,0,0,0,0,0,-1,986,344,0,0
-231,680,0,0,0,0,0,0,0,0,0,-1,993,344,0,0
-224,680,0,0,0,0,0,0,0,0,0,-1,1000,344,0,0
-217,680,0,0,0,0,0,0,0,0,0,-1,1007,344,0,0
-210,680,0,0,0,0,0,0,0,0,0,-1,1014,344,0,0
-203,680,0,0,0,0,0,0,0,0,0,-1,1021,344,0,0
-196,680,0,0,0,0,0,0,0,0,0,-1,1028,344,0,0
-189,680,0,0,0,0,0,0,0,0,0,-1,1035,344,0,0
-182,680,0,0,0,0,0,0,0,0,0,-1,1042,344,0,0
-175,680,0,0,0,0,0,0,0,0,0,-1,1049,344,0,0
-168,680,0,0,0,0,0,0,0,0,0,-1,1056,344,0,0
-161,680,0,0,0,0,0,0,0,0,0,-1,1063,344,0,0
-154,680,2.25244,-29.1442,0,0,0,0,0,0,0,-1,1070,344,2.25241,29.1442
-147,680,5.75867,-30.2404,0,0,0,0,0,0,0,-1,1077,344,5.75868,30.2404
-140,680,5.85718,-30.1128,0,0,0,0,0,0,0,-1,1084,344,5.8572,30.1128
-133,680,6.99792,-31.7374,0,0,0,0,0,0,0,-1,1091,344,6.99792,31.7374
-126,680,7.16785,-30.7637,0.0184541,-0.0171667,0.0745166,0.0772593,-0.0759718,0.668093,0.088469,0.0407237,1098,344,7.16782,30.7637
-119,680,7.25037,-29.8569,0.0149377,-0.0145266,0.0747491,0.0763926,-0.0759815,0.688101,0.0879733,0.0414157,1105,344,7.25037,29.8569
-112,680,7.65002,-28.9064,0.0107595,-0.0120455,0.0751804,0.0753972,-0.0766832,0.710138,0.0878047,0.0454621,1112,344,7.65001,28.9064
-105,680,8.12,-27.7806,0,0,0,0,0,0,0,-1,1119,344,8.12,27.7806
-98,680,14.1224,-39.1392,0,0,0,0,0,0,0,-1,1126,344,14.1225,39.1392
-91,680,8.3208,-33.7806,0,0,0,0,0,0,0,-1,1133,344,8.32075,33.7806
-84,680,2.49768,-28.4062,0,0,0,0,0,0,0,-1,1140,344,2.49767,28.4062
-77,680,-3.48523,-21.6401,0,0,0,0,0,0,0,-1,1147,344,-3.48523,21.6402
-70,680,-9.48633,-14.8963,0,0,0,0,0,0,0,-1,1154,344,-9.48631,14.8963
-63,680,-15.8588,-2.46805,0,0,0,0,0,0,0,-1,1161,344,-15.8587,2.46806
-56,680,-6.96912,-8.83356,0,0,0,0,0,0,0,-1,1168,344,-6.96907,8.83354
-49,680,-6.7677,-2.24063,0,0,0,0,0,0,0,-1,1175,344,-6.76772,2.24063
-42,680,-1.02368,0.618805,0,0,0,0,0,0,0,-1,1182,344,-1.0237,-0.618797
-35,680,-0.947876,-0.942719,0,0,0,0,0,0,0,-1,1189,344,-0.947842,0.942731
-28,680,-1.46118,-1.10574,0,0,0,0,0,0,0,-1,1196,344,-1.4612,1.10575
-21,680,5.34155,-32.8802,0,0,0,0,0,0,0,-1,1203,344,5.34158,32.8802
-14,680,5.23438,-32.8026,-0.00713881,0.0155801,0.00701809,0.0175732,-0.00913192,1.29409,0.0156728,0.0423125,1210,344,5.23443,32.8026
-7,680,5.01306,-32.675,-0.00688847,0.0176189,0.0065025,0.0192373,-0.00850689,1.32686,0.0164126,0.0438301,1217,344,5.01311,32.6749
0,680,5.00415,-32.4955,-0.00661319,0.0201178,0.00570003,0.0212825,-0.0077779,1.36924,0.0173714,0.0487768,1224,344,5.00418,32.4955
7,680,5.09106,-32.4962,-0.00664397,0.0233232,0.00485908,0.0240914,-0.00741217,1.414,0.0190193,0.0468961,1231,344,5.09112,32.4962
14,680,5.30322,-32.285,-0.0069548,0.0282927,0.00450237,0.0288587,-0.00752082,1.44574,0.0221753,0.0421601,1238,344,5.3032,32.285
21,680,5.05103,-32.087,-0.00723546,0.032705,0.00416583,0.0331349,-0.00766533,1.46797,0.0250392,0.0418474,1245,344,5.05107,32.087
28,680,4.82751,-32.6725,-0.00755076,0.0374094,0.00423275,0.0378045,-0.00794578,1.47774,0.0282268,0.0446571,1252,344,4.82746,32.6725
35,680,4.91406,-32.7067,-0.00839378,0.0449397,0.00404613,0.0452449,-0.00869899,1.49551,0.0334422,0.0468185,1259,344,4.91406,32.7067
42,680,4.96716,-32.751,0,0,0,0,0,0,0,-1,1266,344,4.96719,32.751
49,680,4.12622,-32.4704,-0.00945091,0.0574336,0.00328886,0.0575949,-0.00961224,1.52178,0.0419692,0.0433914,1273,344,4.12616,32.4704
56,680,4.36853,-32.4929,-0.0106079,0.0630935,0.00304664,0.0632192,-0.0107336,1.52955,0.0461421,0.0435702,1280,344,4.36849,32.4929
63,680,4.62878,-32.1957,-0.0118349,0.0679968,0.00231102,0.0680637,-0.0119017,1.54188,0.0498192,0.0397007,1287,344,4.62876,32.1957
70,680,4.68127,-32.0686,-0.0127141,0.0714371,0.00149307,0.0714636,-0.0127406,1.55306,0.0524081,0.0395564,1294,344,4.68132,32.0686
77,680,4.7052,-31.9378,-0.0133055,0.0738671,0.00108516,0.0738806,-0.013319,1.55835,0.0542413,0.045763,1301,344,4.70521,31.9378
84,680,4.65283,-31.7603,-0.0142969,0.0761689,0.000506746,0.0761718,-0.0142997,1.5652,0.0561579,0.0493942,1308,344,4.65284,31.7603
91,680,4.60815,-31.5956,-0.0157766,0.0768256,-0.00062369,0.0768298,-0.0157808,-1.56406,0.0572103,0.0490177,1315,344,4.6082,31.5956
98,680,4.29419,-32.5601,-0.0167552,0.0770248,-0.00162952,0.0770531,-0.0167835,-1.55343,0.0577815,0.0467947,1322,344,4.29418,32.5601
105,680,4.04211,-32.4066,-0.0174189,0.0767645,-0.00228078,0.0768197,-0.0174741,-1.5466,0.0579232,0.0445372,1329,344,4.04211,32.4066
112,680,3.72253,-32.2198,0,0,0,0,0,0,0,-1,1336,344,3.7225,32.2198
119,680,3.41064,-32.0694,0,0,0,0,0,0,0,-1,1343,344,3.41064,32.0694
126,680,3.90369,-31.7368,0,0,0,0,0,0,0,-1,1350,344,3.90366,31.7368
133,680,3.7627,-31.8398,0,0,0,0,0,0,0,-1,1357,344,3.76268,31.8398
140,680,3.7124,-31.5413,-0.0160093,0.0717487,-0.00166535,0.0717803,-0.0160408,-1.55183,0.0540005,0.0472299,1364,344,3.71241,31.5413
147,680,3.23999,-31.1075,-0.0148969,0.0709124,-0.000237323,0.0709131,-0.0148976,-1.56803,0.0529446,0.0449638,1371,344,3.24002,31.1075
154,680,3.35107,-30.6236,-0.0136262,0.0689804,0.001364,0.0690029,-0.0136487,1.55429,0.051162,0.0469291,1378,344,3.35106,30.6236
161,680,3.46411,-30.1965,0,0,0,0,0,0,0,-1,1385,344,3.46411,30.1965
168,680,29.4142,-2.51651,0,0,0,0,0,0,0,-1,1392,344,29.4142,2.51652
175,680,6.66541,0.942078,0,0,0,0,0,0,0,-1,1399,344,6.66538,-0.942088
182,680,6.52917,0.532379,0,0,0,0,0,0,0,-1,1406,344,6.52922,-0.532385
189,680,7.55884,4.77695,0,0,0,0,0,0,0,-1,1413,344,7.55886,-4.77694
196,680,6.55627,3.35254,0,0,0,0,0,0,0,-1,1420,344,6.55622,-3.35255
203,680,5.7334,1.90753,0,0,0,0,0,0,0,-1,1427,344,5.73341,-1.90754
210,680,5.27515,0.493622,0,0,0,0,0,0,0,-1,1434,344,5.27514,-0.493632
217,680,6.56384,-0.374176,0,0,0,0,0,0,0,-1,1441,344,6.56379,0.374176
224,680,3.9491,-0.640228,0,0,0,0,0,0,0,-1,1448,344,3.94908,0.64024
231,680,4.24866,-1.96881,0,0,0,0,0,0,0,-1,1455,344,4.2486,1.96882
238,680,4.29333,-3.23984,0,0,0,0,0,0,0,-1,1462,344,4.29332,3.23984
245,680,2.44397,0.985382,0,0,0,0,0,0,0,-1,1469,344,2.44402,-0.985394
252,680,3.07349,2.18951,0,0,0,0,0,0,0,-1,1476,344,3.0735,-2.18952
259,680,2.82971,1.30682,0,0,0,0,0,0,0,-1,1483,344,2.82972,-1.30684
266,680,2.67554,1.44067,0,0,0,0,0,0,0,-1,1490,344,2.67551,-1.44066
273,680,2.46411,1.54666,0,0,0,0,0,0,0,-1,1497,344,2.46407,-1.54666
280,680,0,0,0,0,0,0,0,0,0,-1,1504,344,0,0
287,680,0,0,0,0,0,0,0,0,0,-1,1511,344,0,0
294,680,0,0,0,0,0,0,0,0,0,-1,1518,344,0,0
301,680,0,0,0,0,0,0,0,0,0,-1,1525,344,0,0
308,680,0,0,0,0,0,0,0,0,0,-1,1532,344,0,0
315,680,0,0,0,0,0,0,0,0,0,-1,1539,344,0,0
322,680,0,0,0,0,0,0,0,0,0,-1,1546,344,0,0
329,680,0,0,0,0,0,0,0,0,0,-1,1553,344,0,0
336,680,0,0,0,0,0,0,0,0,0,-1,1560,344,0,0
343,680,0,0,0,0,0,0,0,0,0,-1,1567,344,0,0
350,680,0,0,0,0,0,0,0,0,0,-1,1574,344,0,0
357,680,0,0,0,0,0,0,0,0,0,-1,1581,344,0,0
364,680,0,0,0,0,0,0,0,0,0,-1,1588,344,0,0
371,680,0,0,0,0,0,0,0,0,0,-1,1595,344,0,0
378,680,0,0,0,0,0,0,0,0,0,-1,1602,344,0,0
385,680,0,0,0,0,0,0,0,0,0,-1,1609,344,0,0
392,680,0,0,0,0,0,0,0,0,0,-1,1616,344,0,0
399,680,0,0,0,0,0,0,0,0,0,-1,1623,344,0,0
406,680,0,0,0,0,0,0,0,0,0,-1,1630,344,0,0
413,680,0,0,0,0,0,0,0,0,0,-1,1637,344,0,0
420,680,0,0,0,0,0,0,0,0,0,-1,1644,344,0,0
427,680,0,0,0,0,0,0,0,0,0,-1,1651,344,0,0
434,680,0,0,0,0,0,0,0,0,0,-1,1658,344,0,0
441,680,0,0,0,0,0,0,0,0,0,-1,1665,344,0,0
448,680,0,0,0,0,0,0,0,0,0,-1,1672,344,0,0
455,680,0,0,0,0,0,0,0,0,0,-1,1679,344,0,0
462,680,0,0,0,0,0,0,0,0,0,-1,1686,344,0,0
469,680,0,0,0,0,0,0,0,0,0,-1,1693,344,0,0
476,680,0,0,0,0,0,0,0,0,0,-1,1700,344,0,0
483,680,0,0,0,0,0,0,0,0,0,-1,1707,344,0,0
490,680,0,0,0,0,0,0,0,0,0,-1,1714,344,0,0
497,680,0,0,0,0,0,0,0,0,0,-1,1721,344,0,0
504,680,0,0,0,0,0,0,0,0,0,-1,1728,344,0,0
511,680,0,0,0,0,0,0,0,0,0,-1,1735,344,0,0
518,680,0,0,0,0,0,0,0,0,0,-1,1742,344,0,0
525,680,0,0,0,0,0,0,0,0,0,-1,1749,344,0,0
532,680,0,0,0,0,0,0,0,0,0,-1,1756,344,0,0
539,680,0,0,0,0,0,0,0,0,0,-1,1763,344,0,0
546,680,0,0,0,0,0,0,0,0,0,-1,1770,344,0,0
553,680,0,0,0,0,0,0,0,0,0,-1,1777,344,0,0
560,680,0,0,0,0,0,0,0,0,0,-1,1784,344,0,0
567,680,0,0,0,0,0,0,0,0,0,-1,1791,344,0,0
574,680,0,0,0,0,0,0,0,0,0,-1,1798,344,0,0
581,680,0,0,0,0,0,0,0,0,0,-1,1805,344,0,0
588,680,0,0,0,0,0,0,0,0,0,-1,1812,344,0,0
595,680,0,0,0,0,0,0,0,0,0,-1,1819,344,0,0
602,680,0,0,0,0,0,0,0,0,0,-1,1826,344,0,0
609,680,0,0,0,0,0,0,0,0,0,-1,1833,344,0,0
616,680,0,0,0,0,0,0,0,0,0,-1,1840,344,0,0
623,680,0,0,0,0,0,0,0,0,0,-1,1847,344,0,0
630,680,0,0,0,0,0,0,0,0,0,-1,1854,344,0,0
637,680,0,0,0,0,0,0,0,0,0,-1,1861,344,0,0
644,680,0,0,0,0,0,0,0,0,0,-1,1868,344,0,0
651,680,0,0,0,0,0,0,0,0,0,-1,1875,344,0,0
658,680,0,0,0,0,0,0,0,0,0,-1,1882,344,0,0
665,680,0,0,0,0,0,0,0,0,0,-1,1889,344,0,0
672,680,0,0,0,0,0,0,0,0,0,-1,1896,344,0,0
679,680,0,0,0,0,0,0,0,0,0,-1,1903,344,0,0
686,680,0,0,0,0,0,0,0,0,0,-1,1910,344,0,0
693,680,0,0,0,0,0,0,0,0,0,-1,1917,344,0,0
700,680,0,0,0,0,0,0,0,0,0,-1,1924,344,0,0
707,680,0,0,0,0,0,0,0,0,0,-1,1931,344,0,0
714,680,0,0,0,0,0,0,0,0,0,-1,1938,344,0,0
721,680,0,0,0,0,0,0,0,0,0,-1,1945,344,0,0
728,680,0,0,0,0,0,0,0,0,0,-1,1952,344,0,0
735,680,0,0,0,0,0,0,0,0,0,-1,1959,344,0,0
742,680,0,0,0,0,0,0,0,0,0,-1,1966,344,0,0
749,680,0,0,0,0,0,0,0,0,0,-1,1973,344,0,0
756,680,0,0,0,0,0,0,0,0,0,-1,1980,344,0,0
763,680,0,0,0,0,0,0,0,0,0,-1,1987,344,0,0
770,680,0,0,0,0,0,0,0,0,0,-1,1994,344,0,0
777,680,0,0,0,0,0,0,0,0,0,-1,2001,344,0,0
784,680,0,0,0,0,0,0,0,0,0,-1,2008,344,0,0
791,680,0,0,0,0,0,0,0,0,0,-1,2015,344,0,0
798,680,0,0,0,0,0,0,0,0,0,-1,2022,344,0,0
805,680,0,0,0,0,0,0,0,0,0,-1,2029,344,0,0
812,680,0,0,0,0,0,0,0,0,0,-1,2036,344,0,0
-700,673,0,0,0,0,0,0,0,0,0,-1,524,351,0,0
-693,673,0,0,0,0,0,0,0,0,0,-1,531,351,0,0
-686,673,0,0,0,0,0,0,0,0,0,-1,538,351,0,0
-679,673,0,0,0,0,0,0,0,0,0,-1,545,351,0,0
-672,673,0,0,0,0,0,0,0,0,0,-1,552,351,0,0
-665,673,0,0,0,0,0,0,0,0,0,-1,559,351,0,0
-658,673,0,0,0,0,0,0,0,0,0,-1,566,351,0,0
-651,673,0,0,0,0,0,0,0,0,0,-1,573,351,0,0
-644,673,0,0,0,0,0,0,0,0,0,-1,580,351,0,0
-637,673,0,0,0,0,0,0,0,0,0,-1,587,351,0,0
-630,673,0,0,0,0,0,0,0,0,0,-1,594,351,0,0
-623,673,0,0,0,0,0,0,0,0,0,-1,601,351,0,0
-616,673,0,0,0,0,0,0,0,0,0,-1,608,351,0,0
-609,673,0,0,0,0,0,0,0,0,0,-1,615,351,0,0
-602,673,0,0,0,0,0,0,0,0,0,-1,622,351,0,0
-595,673,0,0,0,0,0,0,0,0,0,-1,629,351,0,0
-588,673,0,0,0,0,0,0,0,0,0,-1,636,351,0,0
-581,673,0,0,0,0,0,0,0,0,0,-1,643,351,0,0
-574,673,0,0,0,0,0,0,0,0,0,-1,650,351,0,0
-567,673,0,0,0,0,0,0,0,0,0,-1,657,351,0,0
-560,673,0,0,0,0,0,0,0,0,0,-1,664,351,0,0
-553,673,0,0,0,0,0,0,0,0,0,-1,671,351,0,0
-546,673,0,0,0,0,0,0,0,0,0,-1,678,351,0,0
-539,673,0,0,0,0,0,0,0,0,0,-1,685,351,0,0
-532,673,0,0,0,0,0,0,0,0,0,-1,692,351,0,0
-525,673,0,0,0,0,0,0,0,0,0,-1,699,351,0,0
-518,673,0,0,0,0,0,0,0,0,0,-1,706,351,0,0
-511,673,0,0,0,0,0,0,0,0,0,-1,713,351,0,0
-504,673,0,0,0,0,0,0,0,0,0,-1,720,351,0,0
-497,673,0,0,0,0,0,0,0,0,0,-1,727,351,0,0
-490,673,0,0,0,0,0,0,0,0,0,-1,734,351,0,0
-483,673,0,0,0,0,0,0,0,0,0,-1,741,351,0,0
-476,673,0,0,0,0,0,0,0,0,0,-1,748,351,0,0
-469,673,0,0,0,0,0,0,0,0,0,-1,755,351,0,0
-462,673,0,0,0,0,0,0,0,0,0,-1,762,351,0,0
-455,673,0,0,0,0,0,0,0,0,0,-1,769,351,0,0
-448,673,0,0,0,0,0,0,0,0,0,-1,776,351,0,0
-441,673,0,0,0,0,0,0,0,0,0,-1,783,351,0,0
-434,673,0,0,0,0,0,0,0,0,0,-1,790,351,0,0
-427,673,0,0,0,0,0,0,0,0,0,-1,797,351,0,0
-420,673,0,0,0,0,0,0,0,0,0,-1,804,351,0,0
-413,673,0,0,0,0,0,0,0,0,0,-1,811,351,0,0
-406,673,0,0,0,0,0,0,0,0,0,-1,818,351,0,0
-399,673,0,0,0,0,0,0,0,0,0,-1,825,351,0,0
-392,673,0,0,0,0,0,0,0,0,0,-1,832,351,0,0
-385,673,0,0,0,0,0,0,0,0,0,-1,839,351,0,0
-378,673,0,0,0,0,0,0,0,0,0,-1,846,351,0,0
-371,673,0,0,0,0,0,0,0,0,0,-1,853,351,0,0
-364,673,0,0,0,0,0,0,0,0,0,-1,860,351,0,0
-357,673,0,0,0,0,0,0,0,0,0,-1,867,351,0,0
-350,673,0,0,0,0,0,0,0,0,0,-1,874,351,0,0
-343,673,0,0,0,0,0,0,0,0,0,-1,881,351,0,0
-336,673,0,0,0,0,0,0,0,0,0,-1,888,351,0,0
-329,673,0,0,0,0,0,0,0,0,0,-1,895,351,0,0
-322,673,0,0,0,0,0,0,0,0,0,-1,902,351,0,0
-315,673,0,0,0,0,0,0,0,0,0,-1,909,351,0,0
-308,673,0,0,0,0,0,0,0,0,0,-1,916,351,0,0
-301,673,0,0,0,0,0,0,0,0,0,-1,923,351,0,0
-294,673,0,0,0,0,0,0,0,0,0,-1,930,351,0,0
-287,673,0,0,0,0,0,0,0,0,0,-1,937,351,0,0
-280,673,0,0,0,0,0,0,0,0,0,-1,944,351,0,0
-273,673,0,0,0,0,0,0,0,0,0,-1,951,351,0,0
-266,673,0,0,0,0,0,0,0,0,0,-1,958,351,0,0
-259,673,0,0,0,0,0,0,0,0,0,-1,965,351,0,0
-252,673,0,0,0,0,0,0,0,0,0,-1,972,351,0,0
-245,673,0,0,0,0,0,0,0,0,0,-1,979,351,0,0
-238,673,0,0,0,0,0,0,0,0,0,-1,986,351,0,0
-231,673,0,0,0,0,0,0,0,0,0,-1,993,351,0,0
-224,673,0,0,0,0,0,0,0,0,0,-1,1000,351,0,0
-217,673,0,0,0,0,0,0,0,0,0,-1,1007,351,0,0
-210,673,0,0,0,0,0,0,0,0,0,-1,1014,351,0,0
-203,673,0,0,0,0,0,0,0,0,0,-1,1021,351,0,0
-196,673,0,0,0,0,0,0,0,0,0,-1,1028,351,0,0
-189,673,0,0,0,0,0,0,0,0,0,-1,1035,351,0,0
-182,673,0,0,0,0,0,0,0,0,0,-1,1042,351,0,0
-175,673,6.34473,-28.0434,0,0,0,0,0,0,0,-1,1049,351,6.34475,28.0434
-168,673,5.15417,-31.5307,0,0,0,0,0,0,0,-1,1056,351,5.1542,31.5307
-161,673,5.92847,-32.7654,0,0,0,0,0,0,0,-1,1063,351,5.92847,32.7654
-154,673,5.3512,-30.8734,0,0,0,0,0,0,0,-1,1070,351,5.35118,30.8734
-147,673,5.61096,-30.1121,0,0,0,0,0,0,0,-1,1077,351,5.61101,30.1121
-140,673,5.80225,-29.3888,0,0,0,0,0,0,0,-1,1084,351,5.80224,29.3888
-133,673,5.27136,-30.8274,0,0,0,0,0,0,0,-1,1091,351,5.27139,30.8274
-126,673,5.92969,-30.523,0.0192883,-0.0142026,0.0560428,0.0610339,-0.0559482,0.640222,0.0675609,0.0462086,1098,351,5.92971,30.523
-119,673,6.55566,-29.9116,0.0166627,-0.0120401,0.0566818,0.0607818,-0.0561591,0.661408,0.0675334,0.041149,1105,351,6.55569,29.9116
-112,673,7.19543,-29.0574,0,0,0,0,0,0,0,-1,1112,351,7.19542,29.0574
-105,673,6.33752,-27.3443,0,0,0,0,0,0,0,-1,1119,351,6.33757,27.3443
-98,673,14.6038,-34.1646,0,0,0,0,0,0,0,-1,1126,351,14.6038,34.1646
-91,673,8.87854,-29.3053,0,0,0,0,0,0,0,-1,1133,351,8.87848,29.3053
-84,673,3.21765,-23.7196,0,0,0,0,0,0,0,-1,1140,351,3.21768,23.7196
-77,673,-2.745,-17.165,0,0,0,0,0,0,0,-1,1147,351,-2.74502,17.165
-70,673,-8.71216,-10.3058,0,0,0,0,0,0,0,-1,1154,351,-8.71218,10.3058
-63,673,-12.606,-3.97971,0,0,0,0,0,0,0,-1,1161,351,-12.606,3.97969
-56,673,-18.0282,2.79053,0,0,0,0,0,0,0,-1,1168,351,-18.0283,-2.79052
-49,673,-0.926758,-0.115448,0,0,0,0,0,0,0,-1,1175,351,-0.926732,0.115444
-42,673,-1.15015,0.289917,0,0,0,0,0,0,0,-1,1182,351,-1.15017,-0.289932
-35,673,-0.919556,-1.00711,0,0,0,0,0,0,0,-1,1189,351,-0.919514,1.00711
-28,673,3.19104,-25.0986,0,0,0,0,0,0,0,-1,1196,351,3.19099,25.0986
-21,673,5.2085,-31.9864,0,0,0,0,0,0,0,-1,1203,351,5.20845,31.9864
-14,673,5.0105,-31.9219,-0.00651427,0.012885,0.00524152,0.0142106,-0.0078399,1.32308,0.0129068,0.0427569,1210,351,5.01054,31.9219
-7,673,4.89429,-32.4204,-0.00624771,0.0145367,0.00494725,0.0156542,-0.00736521,1.34864,0.0135744,0.0405359,1217,351,4.89433,32.4204
0,673,4.86511,-32.5008,-0.00591112,0.0165348,0.00439885,0.0173661,-0.0067424,1.38402,0.0143625,0.044454,1224,351,4.86506,32.5008
7,673,4.90125,-32.4835,-0.00575107,0.019032,0.00380877,0.0196042,-0.00632321,1.42169,0.0156101,0.046628,1231,351,4.9012,32.4835
14,673,5.06409,-32.3962,-0.00579453,0.0227075,0.00353263,0.0231388,-0.00622585,1.4493,0.0178665,0.0373484,1238,351,5.06404,32.3962
21,673,4.80505,-32.6163,-0.00586106,0.0260752,0.00329423,0.0264114,-0.00619732,1.46907,0.0199961,0.0268839,1245,351,4.80511,32.6163
28,673,4.78015,-32.789,-0.00594599,0.0296573,0.00333251,0.0299666,-0.00625523,1.47827,0.0223564,0.0204413,1252,351,4.7802,32.789
35,673,4.74451,-32.8119,-0.0064329,0.0353197,0.00327185,0.0355745,-0.00668774,1.49307,0.0262313,0.0305324,1259,351,4.74451,32.8119
42,673,4.54932,-32.7999,-0.00664099,0.0399785,0.00302114,0.0401734,-0.00683596,1.50635,0.0293277,0.0322838,1266,351,4.54937,32.7999
49,673,4.48083,-32.8272,-0.00722521,0.0450867,0.00285635,0.0452422,-0.00738071,1.51641,0.0328988,0.0194047,1273,351,4.48079,32.8272
56,673,4.44812,-32.8246,-0.00821536,0.0494355,0.00275868,0.0495672,-0.00834706,1.52309,0.0361498,0.0161552,1280,351,4.44816,32.8246
63,673,4.50305,-32.6693,-0.00924391,0.0533476,0.00229387,0.0534316,-0.00932786,1.53421,0.039103,0.0200312,1287,351,4.50307,32.6693
70,673,4.46875,-32.5953,-0.0100383,0.0561232,0.00174844,0.0561693,-0.0100845,1.54439,0.041221,0.0313247,1294,351,4.46874,32.5953
77,673,4.42615,-32.3789,-0.0106398,0.058095,0.00155106,0.05813,-0.0106748,1.54825,0.0427581,0.0404821,1301,351,4.42619,32.3789
84,673,4.32813,-32.3106,-0.0115404,0.0599883,0.00119035,0.0600081,-0.0115602,1.55416,0.0443637,0.0485977,1308,351,4.32817,32.3106
91,673,4.3573,-32.8148,0,0,0,0,0,0,0,-1,1315,351,4.3573,32.8149
98,673,4.2644,-32.7593,-0.0136226,0.060812,-0.000269993,0.060813,-0.0136236,-1.56717,0.0457642,0.0487507,1322,351,4.26438,32.7593
105,673,3.98718,-32.6184,-0.0141215,0.0607424,-0.000663125,0.0607482,-0.0141273,-1.56194,0.0459378,0.0452305,1329,351,3.98721,32.6184
112,673,3.80469,-32.5713,0,0,0,0,0,0,0,-1,1336,351,3.80463,32.5713
119,673,4.15955,-31.7322,0,0,0,0,0,0,0,-1,1343,351,4.15952,31.7322
126,673,3.93701,-31.9108,-0.0143391,0.0585472,-0.00155708,0.0585805,-0.0143724,-1.54945,0.0446228,0.0417897,1350,351,3.93701,31.9108
133,673,3.71655,-31.7762,-0.0137148,0.0577313,-0.00116814,0.0577504,-0.0137339,-1.55445,0.0438019,0.043162,1357,351,3.71655,31.7762
140,673,3.62891,-31.8241,-0.01269,0.0557573,-0.000304477,0.0557586,-0.0126914,-1.56635,0.0420463,0.0438816,1364,351,3.62895,31.8241
147,673,3.51453,-31.6273,-0.0116713,0.0548284,0.0008323,0.0548388,-0.0116817,1.55828,0.0410115,0.0396027,1371,351,3.51458,31.6273
154,673,3.67737,-31.2749,-0.0104719,0.0528284,0.00199646,0.0528913,-0.0105348,1.5393,0.0392466,0.0386037,1378,351,3.67734,31.2749
161,673,3.65417,-30.9678,0,0,0,0,0,0,0,-1,1385,351,3.65422,30.9678
168,673,6.87061,1.83954,0,0,0,0,0,0,0,-1,1392,351,6.87063,-1.83953
175,673,6.6228,1.1459,0,0,0,0,0,0,0,-1,1399,351,6.62276,-1.14591
182,673,6.37244,0.796112,0,0,0,0,0,0,0,-1,1406,351,6.3724,-0.796102
189,673,6.12097,0.265472,0,0,0,0,0,0,0,-1,1413,351,6.121,-0.265482
196,673,6.02173,3.12717,0,0,0,0,0,0,0,-1,1420,351,6.02176,-3.12717
203,673,5.04456,1.6351,0,0,0,0,0,0,0,-1,1427,351,5.04455,-1.63509
210,673,4.79224,0.447479,0,0,0,0,0,0,0,-1,1434,351,4.79229,-0.447469
217,673,2.01648,0.972687,0,0,0,0,0,0,0,-1,1441,351,2.01644,-0.972691
224,673,2.3689,-1.80539,0,0,0,0,0,0,0,-1,1448,351,2.36896,1.80539
231,673,2.65857,-2.18497,0,0,0,0,0,0,0,-1,1455,351,2.65852,2.18496
238,673,3.77844,-2.06088,0,0,0,0,0,0,0,-1,1462,351,3.77839,2.06088
245,673,3.5376,-0.190399,0,0,0,0,0,0,0,-1,1469,351,3.53759,0.1904
252,673,3.80518,0.55603,0,0,0,0,0,0,0,-1,1476,351,3.80519,-0.556022
259,673,3.88562,1.29617,0,0,0,0,0,0,0,-1,1483,351,3.88562,-1.29618
266,673,4.22424,2.04834,0,0,0,0,0,0,0,-1,1490,351,4.22429,-2.04834
273,673,6.07886,0.385895,0,0,0,0,0,0,0,-1,1497,351,6.0789,-0.385906
280,673,6.97534,-0.0820007,0,0,0,0,0,0,0,-1,1504,351,6.97536,0.0820122
287,673,7.66968,-0.348541,0,0,0,0,0,0,0,-1,1511,351,7.66969,0.348534
294,673,8.20996,0.28537,0,0,0,0,0,0,0,-1,1518,351,8.20993,-0.28536
301,673,0,0,0,0,0,0,0,0,0,-1,1525,351,0,0
308,673,0,0,0,0,0,0,0,0,0,-1,1532,351,0,0
315,673,0,0,0,0,0,0,0,0,0,-1,1539,351,0,0
322,673,0,0,0,0,0,0,0,0,0,-1,1546,351,0,0
329,673,0,0,0,0,0,0,0,0,0,-1,1553,351,0,0
336,673,0,0,0,0,0,0,0,0,0,-1,1560,351,0,0
343,673,0,0,0,0,0,0,0,0,0,-1,1567,351,0,0
350,673,0,0,0,0,0,0,0,0,0,-1,1574,351,0,0
357,673,0,0,0,0,0,0,0,0,0,-1,1581,351,0,0
364,673,0,0,0,0,0,0,0,0,0,-1,1588,351,0,0
371,673,0,0,0,0,0,0,0,0,0,-1,1595,351,0,0
378,673,0,0,0,0,0,0,0,0,0,-1,1602,351,0,0
385,673,0,0,0,0,0,0,0,0,0,-1,1609,351,0,0
392,673,0,0,0,0,0,0,0,0,0,-1,1616,351,0,0
399,673,0,0,0,0,0,0,0,0,0,-1,1623,351,0,0
406,673,0,0,0,0,0,0,0,0,0,-1,1630,351,0,0
413,673,0,0,0,0,0,0,0,0,0,-1,1637,351,0,0
420,673,0,0,0,0,0,0,0,0,0,-1,1644,351,0,0
427,673,0,0,0,0,0,0,0,0,0,-1,1651,351,0,0
434,673,0,0,0,0,0,0,0,0,0,-1,1658,351,0,0
441,673,0,0,0,0,0,0,0,0,0,-1,1665,351,0,0
448,673,0,0,0,0,0,0,0,0,0,-1,1672,351,0,0
455,673,0,0,0,0,0,0,0,0,0,-1,1679,351,0,0
462,673,0,0,0,0,0,0,0,0,0,-1,1686,351,0,0
469,673,0,0,0,0,0,0,0,0,0,-1,1693,351,0,0
476,673,0,0,0,0,0,0,0,0,0,-1,1700,351,0,0
483,673,0,0,0,0,0,0,0,0,0,-1,1707,351,0,0
490,673,0,0,0,0,0,0,0,0,0,-1,1714,351,0,0
497,673,0,0,0,0,0,0,0,0,0,-1,1721,351,0,0
504,673,0,0,0,0,0,0,0,0,0,-1,1728,351,0,0
511,673,0,0,0,0,0,0,0,0,0,-1,1735,351,0,0
518,673,0,0,0,0,0,0,0,0,0,-1,1742,351,0,0
525,673,0,0,0,0,0,0,0,0,0,-1,1749,351,0,0
532,673,0,0,0,0,0,0,0,0,0,-1,1756,351,0,0
539,673,0,0,0,0,0,0,0,0,0,-1,1763,351,0,0
546,673,0,0,0,0,0,0,0,0,0,-1,1770,351,0,0
553,673,0,0,0,0,0,0,0,0,0,-1,1777,351,0,0
560,673,0,0,0,0,0,0,0,0,0,-1,1784,351,0,0
567,673,0,0,0,0,0,0,0,0,0,-1,1791,351,0,0
574,673,0,0,0,0,0,0,0,0,0,-1,1798,351,0,0
581,673,0,0,0,0,0,0,0,0,0,-1,1805,351,0,0
588,673,0,0,0,0,0,0,0,0,0,-1,1812,351,0,0
595,673,0,0,0,0,0,0,0,0,0,-1,1819,351,0,0
602,673,0,0,0,0,0,0,0,0,0,-1,1826,351,0,0
609,673,0,0,0,0,0,0,0,0,0,-1,1833,351,0,0
616,673,0,0,0,0,0,0,0,0,0,-1,1840,351,0,0
623,673,0,0,0,0,0,0,0,0,0,-1,1847,351,0,0
630,673,0,0,0,0,0,0,0,0,0,-1,1854,351,0,0
637,673,0,0,0,0,0,0,0,0,0,-1,1861,351,0,0
644,673,0,0,0,0,0,0,0,0,0,-1,1868,351,0,0
651,673,0,0,0,0,0,0,0,0,0,-1,1875,351,0,0
658,673,0,0,0,0,0,0,0,0,0,-1,1882,351,0,0
665,673,0,0,0,0,0,0,0,0,0,-1,1889,351,0,0
672,673,0,0,0,0,0,0,0,0,0,-1,1896,351,0,0
679,673,0,0,0,0,0,0,0,0,0,-1,1903,351,0,0
686,673,0,0,0,0,0,0,0,0,0,-1,1910,351,0,0
693,673,0,0,0,0,0,0,0,0,0,-1,1917,351,0,0
700,673,0,0,0,0,0,0,0,0,0,-1,1924,351,0,0
707,673,0,0,0,0,0,0,0,0,0,-1,1931,351,0,0
714,673,0,0,0,0,0,0,0,0,0,-1,1938,351,0,0
721,673,0,0,0,0,0,0,0,0,0,-1,1945,351,0,0
728,673,0,0,0,0,0,0,0,0,0,-1,1952,351,0,0
735,673,0,0,0,0,0,0,0,0,0,-1,1959,351,0,0
742,673,0,0,0,0,0,0,0,0,0,-1,1966,351,0,0
749,673,0,0,0,0,0,0,0,0,0,-1,1973,351,0,0
756,673,0,0,0,0,0,0,0,0,0,-1,1980,351,0,0
763,673,0,0,0,0,0,0,0,0,0,-1,1987,351,0,0
770,673,0,0,0,0,0,0,0,0,0,-1,1994,351,0,0
777,673,0,0,0,0,0,0,0,0,0,-1,2001,351,0,0
784,673,0,0,0,0,0,0,0,0,0,-1,2008,351,0,0
791,673,0,0,0,0,0,0,0,0,0,-1,2015,351,0,0
798,673,0,0,0,0,0,0,0,0,0,-1,2022,351,0,0
805,673,0,0,0,0,0,0,0,0,0,-1,2029,351,0,0
812,673,0,0,0,0,0,0,0,0,0,-1,2036,351,0,0
-700,666,0,0,0,0,0,0,0,0,0,-1,524,358,0,0
-693,666,0,0,0,0,0,0,0,0,0,-1,531,358,0,0
-686,666,0,0,0,0,0,0,0,0,0,-1,538,358,0,0
-679,666,0,0,0,0,0,0,0,0,0,-1,545,358,0,0
-672,666,0,0,0,0,0,0,0,0,0,-1,552,358,0,0
-665,666,0,0,0,0,0,0,0,0,0,-1,559,358,0,0
-658,666,0,0,0,0,0,0,0,0,0,-1,566,358,0,0
-651,666,0,0,0,0,0,0,0,0,0,-1,573,358,0,0
-644,666,0,0,0,0,0,0,0,0,0,-1,580,358,0,0
-637,666,0,0,0,0,0,0,0,0,0,-1,587,358,0,0
-630,666,0,0,0,0,0,0,0,0,0,-1,594,358,0,0
-623,666,0,0,0,0,0,0,0,0,0,-1,601,358,0,0
-616,666,0,0,0,0,0,0,0,0,0,-1,608,358,0,0
-609,666,0,0,0,0,0,0,0,0,0,-1,615,358,0,0
-602,666,0,0,0,0,0,0,0,0,0,-1,622,358,0,0
-595,666,0,0,0,0,0,0,0,0,0,-1,629,358,0,0
-588,666,0,0,0,0,0,0,0,0,0,-1,636,358,0,0
-581,666,0,0,0,0,0,0,0,0,0,-1,643,358,0,0
-574,666,0,0,0,0,0,0,0,0,0,-1,650,358,0,0
-567,666,0,0,0,0,0,0,0,0,0,-1,657,358,0,0
-560,666,0,0,0,0,0,0,0,0,0,-1,664,358,0,0
-553,666,0,0,0,0,0,0,0,0,0,-1,671,358,0,0
-546,666,0,0,0,0,0,0,0,0,0,-1,678,358,0,0
-539,666,0,0,0,0,0,0,0,0,0,-1,685,358,0,0
-532,666,0,0,0,0,0,0,0,0,0,-1,692,358,0,0
-525,666,0,0,0,0,0,0,0,0,0,-1,699,358,0,0
-518,666,0,0,0,0,0,0,0,0,0,-1,706,358,0,0
-511,666,0,0,0,0,0,0,0,0,0,-1,713,358,0,0
-504,666,0,0,0,0,0,0,0,0,0,-1,720,358,0,0
-497,666,0,0,0,0,0,0,0,0,0,-1,727,358,0,0
-490,666,0,0,0,0,0,0,0,0,0,-1,734,358,0,0
-483,666,0,0,0,0,0,0,0,0,0,-1,741,358,0,0
-476,666,0,0,0,0,0,0,0,0,0,-1,748,358,0,0
-469,666,0,0,0,0,0,0,0,0,0,-1,755,358,0,0
-462,666,0,0,0,0,0,0,0,0,0,-1,762,358,0,0
-455,666,0,0,0,0,0,0,0,0,0,-1,769,358,0,0
-448,666,0,0,0,0,0,0,0,0,0,-1,776,358,0,0
-441,666,0,0,0,0,0,0,0,0,0,-1,783,358,0,0
-434,666,0,0,0,0,0,0,0,0,0,-1,790,358,0,0
-427,666,0,0,0,0,0,0,0,0,0,-1,797,358,0,0
-420,666,0,0,0,0,0,0,0,0,0,-1,804,358,0,0
-413,666,0,0,0,0,0,0,0,0,0,-1,811,358,0,0
-406,666,0,0,0,0,0,0,0,0,0,-1,818,358,0,0
-399,666,0,0,0,0,0,0,0,0,0,-1,825,358,0,0
-392,666,0,0,0,0,0,0,0,0,0,-1,832,358,0,0
-385,666,0,0,0,0,0,0,0,0,0,-1,839,358,0,0
-378,666,0,0,0,0,0,0,0,0,0,-1,846,358,0,0
-371,666,0,0,0,0,0,0,0,0,0,-1,853,358,0,0
-364,666,0,0,0,0,0,0,0,0,0,-1,860,358,0,0
-357,666,0,0,0,0,0,0,0,0,0,-1,867,358,0,0
-350,666,0,0,0,0,0,0,0,0,0,-1,874,358,0,0
-343,666,0,0,0,0,0,0,0,0,0,-1,881,358,0,0
-336,666,0,0,0,0,0,0,0,0,0,-1,888,358,0,0
-329,666,0,0,0,0,0,0,0,0,0,-1,895,358,0,0
-322,666,0,0,0,0,0,0,0,0,0,-1,902,358,0,0
-315,666,0,0,0,0,0,0,0,0,0,-1,909,358,0,0
-308,666,0,0,0,0,0,0,0,0,0,-1,916,358,0,0
-301,666,0,0,0,0,0,0,0,0,0,-1,923,358,0,0
-294,666,0,0,0,0,0,0,0,0,0,-1,930,358,0,0
-287,666,0,0,0,0,0,0,0,0,0,-1,937,358,0,0
-280,666,0,0,0,0,0,0,0,0,0,-1,944,358,0,0
-273,666,0,0,0,0,0,0,0,0,0,-1,951,358,0,0
-266,666,0,0,0,0,0,0,0,0,0,-1,958,358,0,0
-259,666,0,0,0,0,0,0,0,0,0,-1,965,358,0,0
-252,666,0,0,0,0,0,0,0,0,0,-1,972,358,0,0
-245,666,0,0,0,0,0,0,0,0,0,-1,979,358,0,0
-238,666,0,0,0,0,0,0,0,0,0,-1,986,358,0,0
-231,666,0,0,0,0,0,0,0,0,0,-1,993,358,0,0
-224,666,0,0,0,0,0,0,0,0,0,-1,1000,358,0,0
-217,666,0,0,0,0,0,0,0,0,0,-1,1007,358,0,0
-210,666,0,0,0,0,0,0,0,0,0,-1,1014,358,0,0
-203,666,0,0,0,0,0,0,0,0,0,-1,1021,358,0,0
-196,666,6.83093,-24.8537,0,0,0,0,0,0,0,-1,1028,358,6.8309,24.8537
-189,666,1.64697,-28.3105,0,0,0,0,0,0,0,-1,1035,358,1.647,28.3105
-182,666,2.87427,-28.7542,0,0,0,0,0,0,0,-1,1042,358,2.87421,28.7543
-175,666,4.34656,-29.3856,0,0,0,0,0,0,0,-1,1049,358,4.34661,29.3856
-168,666,5.18152,-30.6476,0,0,0,0,0,0,0,-1,1056,358,5.1815,30.6476
-161,666,6.05518,-31.9077,0,0,0,0,0,0,0,-1,1063,358,6.0552,31.9077
-154,666,6.87476,-33.0443,0,0,0,0,0,0,0,-1,1070,358,6.87473,33.0443
-147,666,5.3595,-29.8341,0,0,0,0,0,0,0,-1,1077,358,5.35944,29.8341
-140,666,5.33789,-29.3399,0,0,0,0,0,0,0,-1,1084,358,5.33792,29.3399
-133,666,5.46411,-29.3696,0.019546,-0.0122581,0.0396949,0.0464056,-0.0391177,0.594883,0.0494366,0.0437718,1091,358,5.46417,29.3696
-126,666,5.57239,-29.7003,0.017945,-0.0108216,0.0404754,0.0465167,-0.0393934,0.614678,0.049657,0.0426096,1098,358,5.57236,29.7003
-119,666,5.86523,-29.5441,0.0159715,-0.00906474,0.0412406,0.046552,-0.0396452,0.638048,0.0498192,0.0420731,1105,358,5.86529,29.5441
-112,666,6.29309,-28.9865,0,0,0,0,0,0,0,-1,1112,358,6.29305,28.9865
-105,666,5.97339,-27.6454,0,0,0,0,0,0,0,-1,1119,358,5.97342,27.6454
-98,666,3.5968,-23.5447,0,0,0,0,0,0,0,-1,1126,358,3.59686,23.5447
-91,666,9.5127,-25.1347,0,0,0,0,0,0,0,-1,1133,358,9.51269,25.1347
-84,666,4.03943,-19.3453,0,0,0,0,0,0,0,-1,1140,358,4.03941,19.3453
-77,666,-1.9137,-12.9077,0,0,0,0,0,0,0,-1,1147,358,-1.91368,12.9077
-70,666,-6.32251,-7.67145,0,0,0,0,0,0,0,-1,1154,358,-6.3225,7.67145
-63,666,-11.7778,-0.975189,0,0,0,0,0,0,0,-1,1161,358,-11.7778,0.97519
-56,666,0.424683,-2.04132,0,0,0,0,0,0,0,-1,1168,358,0.424665,2.04132
-49,666,0.754395,-2.23169,0,0,0,0,0,0,0,-1,1175,358,0.754383,2.23169
-42,666,1.34473,-3.53897,0,0,0,0,0,0,0,-1,1182,358,1.34476,3.53896
-35,666,4.81445,-32.3409,0,0,0,0,0,0,0,-1,1189,358,4.81445,32.3408
-28,666,5.07568,-32.0769,0,0,0,0,0,0,0,-1,1196,358,5.07568,32.0769
-21,666,5.01428,-32.239,-0.00616454,0.0096022,0.00380855,0.010474,-0.00703632,1.34577,0.0101743,0.0342975,1203,358,5.01432,32.239
-14,666,4.89172,-32.3976,-0.00567024,0.0106495,0.00378445,0.0114844,-0.00650512,1.35367,0.010518,0.0293661,1210,358,4.89168,32.3976
-7,666,4.80664,-32.5409,-0.00540493,0.0119377,0.00363694,0.0126695,-0.00613676,1.37223,0.011074,0.0193215,1217,358,4.80668,32.5409
0,666,4.79553,-32.6573,-0.00505328,0.0134782,0.00326999,0.0140382,-0.00561337,1.40116,0.0116882,0.0128584,1224,358,4.79558,32.6573
7,666,4.73999,-32.7056,-0.00479381,0.0153617,0.00286977,0.0157623,-0.00519445,1.43209,0.0126017,0.0162759,1231,358,4.74003,32.7056
14,666,4.69446,-32.7314,-0.00468461,0.0180026,0.0026776,0.0183144,-0.00499635,1.4549,0.0141717,0.016074,1238,358,4.69452,32.7314
21,666,4.63843,-32.8759,-0.00463085,0.0204955,0.00252781,0.0207472,-0.00488263,1.47152,0.015714,0.0130398,1245,358,4.63846,32.8759
28,666,4.61267,-32.956,-0.00457807,0.0231343,0.00255573,0.023368,-0.0048118,1.4796,0.0174058,0.014306,1252,358,4.61272,32.956
35,666,4.61829,-32.9475,-0.00480823,0.0272196,0.00256387,0.0274236,-0.00501217,1.49142,0.0201619,0.0134686,1259,358,4.61835,32.9475
42,666,4.55176,-32.9801,-0.00489492,0.0306738,0.00243362,0.0308395,-0.00506066,1.5028,0.0224376,0.0135236,1266,358,4.55179,32.9801
49,666,4.4928,-33.0087,-0.00535974,0.0344887,0.00238378,0.0346308,-0.00550183,1.51126,0.0251228,0.0113781,1273,358,4.49285,33.0087
56,666,4.46216,-33.023,-0.00615833,0.0376901,0.00237593,0.0378184,-0.00628669,1.51682,0.027548,0.0130168,1280,358,4.4621,33.023
63,666,4.40796,-33.0687,-0.00697365,0.0406593,0.0021108,0.0407527,-0.00706701,1.5266,0.0298047,0.0159695,1287,358,4.40799,33.0687
70,666,4.39417,-33.0239,-0.00764339,0.0428122,0.00178566,0.0428753,-0.00770651,1.53546,0.0314685,0.0159494,1294,358,4.39414,33.0239
77,666,4.35657,-32.9501,-0.00819705,0.0443546,0.0017337,0.0444117,-0.00825418,1.53785,0.0327082,0.0210275,1301,358,4.35653,32.9501
84,666,4.3562,-32.9831,-0.0089719,0.0458606,0.00153001,0.0459033,-0.00901456,1.54292,0.0340076,0.0292471,1308,358,4.35623,32.9831
91,666,4.31824,-32.9505,-0.0100317,0.0464241,0.00101314,0.0464423,-0.0100499,1.55286,0.0347986,0.0250979,1315,358,4.31823,32.9505
98,666,4.19385,-32.8619,-0.0106798,0.0466221,0.000569642,0.0466278,-0.0106855,1.56086,0.035192,0.0206201,1322,358,4.19381,32.8619
105,666,4.0636,-32.752,-0.0110515,0.0466709,0.000349994,0.046673,-0.0110536,1.56473,0.0353802,0.0223427,1329,358,4.06361,32.752
112,666,4.06738,-32.5337,-0.0113644,0.0464606,8.44503e-06,0.0464606,-0.0113644,1.57065,0.0353757,0.0453044,1336,358,4.06736,32.5337
119,666,4.1062,-32.2889,-0.0113901,0.0455786,-0.000320806,0.0455804,-0.0113919,-1.56517,0.0348112,0.0481553,1343,358,4.10621,32.2889
126,666,3.97864,-32.2573,-0.0111235,0.0448167,-0.000290114,0.0448182,-0.011125,-1.56561,0.0341958,0.0294047,1350,358,3.97864,32.2573
133,666,3.90601,-32.1614,-0.0106063,0.0440214,-5.78969e-05,0.0440214,-0.0106064,-1.56974,0.0334484,0.0264045,1357,358,3.90603,32.1614
140,666,3.85034,-32.1503,-0.0097589,0.0422357,0.00052498,0.042241,-0.0097642,1.5607,0.0319172,0.0238467,1364,358,3.8504,32.1503
147,666,3.77258,-32.0099,-0.00890122,0.04137,0.0013627,0.041407,-0.00893813,1.54372,0.0310163,0.0212209,1371,358,3.77264,32.0099
154,666,3.8042,-31.7164,-0.0078806,0.0396009,0.00214383,0.0396975,-0.0079772,1.52577,0.029486,0.0197399,1378,358,3.80424,31.7164
161,666,3.83142,-31.5283,-0.00658991,0.0384188,0.00294884,0.0386112,-0.00678229,1.50565,0.028274,0.0281598,1385,358,3.83139,31.5283
168,666,3.81055,-31.6328,0,0,0,0,0,0,0,-1,1392,358,3.81058,31.6328
175,666,3.88806,-31.5481,0,0,0,0,0,0,0,-1,1399,358,3.88805,31.5481
182,666,2.60876,-5.17068,0,0,0,0,0,0,0,-1,1406,358,2.6088,5.17068
189,666,2.46973,-5.49979,0,0,0,0,0,0,0,-1,1413,358,2.46975,5.49979
196,666,2.32458,-5.23651,0,0,0,0,0,0,0,-1,1420,358,2.32461,5.23653
203,666,2.28064,-3.88004,0,0,0,0,0,0,0,-1,1427,358,2.28059,3.88003
210,666,3.02576,-5.83548,0,0,0,0,0,0,0,-1,1434,358,3.02581,5.83547
217,666,2.30444,-5.36011,0,0,0,0,0,0,0,-1,1441,358,2.30447,5.3601
224,666,1.82324,-6.03101,0,0,0,0,0,0,0,-1,1448,358,1.82322,6.031
231,666,2.29797,-10.1093,0,0,0,0,0,0,0,-1,1455,358,2.29801,10.1093
238,666,2.52429,-6.10568,0,0,0,0,0,0,0,-1,1462,358,2.52423,6.10567
245,666,4.53345,-1.38205,0,0,0,0,0,0,0,-1,1469,358,4.53349,1.38204
252,666,4.77405,-0.246979,0,0,0,0,0,0,0,-1,1476,358,4.77405,0.246993
259,666,4.83655,1.14087,0,0,0,0,0,0,0,-1,1483,358,4.83652,-1.14087
266,666,6.14148,0.749512,0,0,0,0,0,0,0,-1,1490,358,6.14144,-0.749519
273,666,2.61304,-1.53772,0,0,0,0,0,0,0,-1,1497,358,2.613,1.53773
280,666,8.70898,-0.836975,0,0,0,0,0,0,0,-1,1504,358,8.70894,0.836988
287,666,-7.06934,-20.3464,0,0,0,0,0,0,0,-1,1511,358,-7.06933,20.3464
294,666,-5.98657,-22.7841,0,0,0,0,0,0,0,-1,1518,358,-5.98659,22.7842
301,666,-6.94861,-23.4221,0,0,0,0,0,0,0,-1,1525,358,-6.94857,23.4221
308,666,1.08496,-1.87576,0,0,0,0,0,0,0,-1,1532,358,1.08491,1.87575
315,666,1.76294,-0.284027,0,0,0,0,0,0,0,-1,1539,358,1.76291,0.284016
322,666,0,0,0,0,0,0,0,0,0,-1,1546,358,0,0
329,666,0,0,0,0,0,0,0,0,0,-1,1553,358,0,0
336,666,0,0,0,0,0,0,0,0,0,-1,1560,358,0,0
343,666,0,0,0,0,0,0,0,0,0,-1,1567,358,0,0
350,666,0,0,0,0,0,0,0,0,0,-1,1574,358,0,0
357,666,0,0,0,0,0,0,0,0,0,-1,1581,358,0,0
364,666,0,0,0,0,0,0,0,0,0,-1,1588,358,0,0
371,666,0,0,0,0,0,0,0,0,0,-1,1595,358,0,0
378,666,0,0,0,0,0,0,0,0,0,-1,1602,358,0,0
385,666,0,0,0,0,0,0,0,0,0,-1,1609,358,0,0
392,666,0,0,0,0,0,0,0,0,0,-1,1616,358,0,0
399,666,0,0,0,0,0,0,0,0,0,-1,1623,358,0,0
406,666,0,0,0,0,0,0,0,0,0,-1,1630,358,0,0
413,666,0,0,0,0,0,0,0,0,0,-1,1637,358,0,0
420,666,0,0,0,0,0,0,0,0,0,-1,1644,358,0,0
427,666,0,0,0,0,0,0,0,0,0,-1,1651,358,0,0
434,666,0,0,0,0,0,0,0,0,0,-1,1658,358,0,0
441,666,0,0,0,0,0,0,0,0,0,-1,1665,358,0,0
448,666,0,0,0,0,0,0,0,0,0,-1,1672,358,0,0
455,666,0,0,0,0,0,0,0,0,0,-1,1679,358,0,0
462,666,0,0,0,0,0,0,0,0,0,-1,1686,358,0,0
469,666,0,0,0,0,0,0,0,0,0,-1,1693,358,0,0
476,666,0,0,0,0,0,0,0,0,0,-1,1700,358,0,0
483,666,0,0,0,0,0,0,0,0,0,-1,1707,358,0,0
490,666,0,0,0,0,0,0,0,0,0,-1,1714,358,0,0
497,666,0,0,0,0,0,0,0,0,0,-1,1721,358,0,0
504,666,0,0,0,0,0,0,0,0,0,-1,1728,358,0,0
511,666,0,0,0,0,0,0,0,0,0,-1,1735,358,0,0
518,666,0,0,0,0,0,0,0,0,0,-1,1742,358,0,0
525,666,0,0,0,0,0,0,0,0,0,-1,1749,358,0,0
532,666,0,0,0,0,0,0,0,0,0,-1,1756,358,0,0
539,666,0,0,0,0,0,0,0,0,0,-1,1763,358,0,0
546,666,0,0,0,0,0,0,0,0,0,-1,1770,358,0,0
553,666,0,0,0,0,0,0,0,0,0,-1,1777,358,0,0
560,666,0,0,0,0,0,0,0,0,0,-1,1784,358,0,0
567,666,0,0,0,0,0,0,0,0,0,-1,1791,358,0,0
574,666,0,0,0,0,0,0,0,0,0,-1,1798,358,0,0
581,666,0,0,0,0,0,0,0,0,0,-1,1805,358,0,0
588,666,0,0,0,0,0,0,0,0,0,-1,1812,358,0,0
595,666,0,0,0,0,0,0,0,0,0,-1,1819,358,0,0
602,666,0,0,0,0,0,0,0,0,0,-1,1826,358,0,0
609,666,0,0,0,0,0,0,0,0,0,-1,1833,358,0,0
616,666,0,0,0,0,0,0,0,0,0,-1,1840,358,0,0
623,666,0,0,0,0,0,0,0,0,0,-1,1847,358,0,0
630,666,0,0,0,0,0,0,0,0,0,-1,1854,358,0,0
637,666,0,0,0,0,0,0,0,0,0,-1,1861,358,0,0
644,666,0,0,0,0,0,0,0,0,0,-1,1868,358,0,0
651,666,0,0,0,0,0,0,0,0,0,-1,1875,358,0,0
658,666,0,0,0,0,0,0,0,0,0,-1,1882,358,0,0
665,666,0,0,0,0,0,0,0,0,0,-1,1889,358,0,0
672,666,0,0,0,0,0,0,0,0,0,-1,1896,358,0,0
679,666,0,0,0,0,0,0,0,0,0,-1,1903,358,0,0
686,666,0,0,0,0,0,0,0,0,0,-1,1910,358,0,0
693,666,0,0,0,0,0,0,0,0,0,-1,1917,358,0,0
700,666,0,0,0,0,0,0,0,0,0,-1,1924,358,0,0
707,666,0,0,0,0,0,0,0,0,0,-1,1931,358,0,0
714,666,0,0,0,0,0,0,0,0,0,-1,1938,358,0,0
721,666,0,0,0,0,0,0,0,0,0,-1,1945,358,0,0
728,666,0,0,0,0,0,0,0,0,0,-1,1952,358,0,0
735,666,0,0,0,0,0,0,0,0,0,-1,1959,358,0,0
742,666,0,0,0,0,0,0,0,0,0,-1,1966,358,0,0
749,666,0,0,0,0,0,0,0,0,0,-1,1973,358,0,0
756,666,0,0,0,0,0,0,0,0,0,-1,1980,358,0,0
763,666,0,0,0,0,0,0,0,0,0,-1,1987,358,0,0
770,666,0,0,0,0,0,0,0,0,0,-1,1994,358,0,0
777,666,0,0,0,0,0,0,0,0,0,-1,2001,358,0,0
784,666,0,0,0,0,0,0,0,0,0,-1,2008,358,0,0
791,666,0,0,0,0,0,0,0,0,0,-1,2015,358,0,0
798,666,0,0,0,0,0,0,0,0,0,-1,2022,358,0,0
805,666,0,0,0,0,0,0,0,0,0,-1,2029,358,0,0
812,666,0,0,0,0,0,0,0,0,0,-1,2036,358,0,0
-700,659,0,0,0,0,0,0,0,0,0,-1,524,365,0,0
-693,659,0,0,0,0,0,0,0,0,0,-1,531,365,0,0
-686,659,0,0,0,0,0,0,0,0,0,-1,538,365,0,0
-679,659,0,0,0,0,0,0,0,0,0,-1,545,365,0,0
-672,659,0,0,0,0,0,0,0,0,0,-1,552,365,0,0
-665,659,0,0,0,0,0,0,0,0,0,-1,559,365,0,0
-658,659,0,0,0,0,0,0,0,0,0,-1,566,365,0,0
-651,659,0,0,0,0,0,0,0,0,0,-1,573,365,0,0
-644,659,0,0,0,0,0,0,0,0,0,-1,580,365,0,0
-637,659,0,0,0,0,0,0,0,0,0,-1,587,365,0,0
-630,659,0,0,0,0,0,0,0,0,0,-1,594,365,0,0
-623,659,0,0,0,0,0,0,0,0,0,-1,601,365,0,0
-616,659,0,0,0,0,0,0,0,0,0,-1,608,365,0,0
-609,659,0,0,0,0,0,0,0,0,0,-1,615,365,0,0
-602,659,0,0,0,0,0,0,0,0,0,-1,622,365,0,0
-595,659,0,0,0,0,0,0,0,0,0,-1,629,365,0,0
-588,659,0,0,0,0,0,0,0,0,0,-1,636,365,0,0
-581,659,0,0,0,0,0,0,0,0,0,-1,643,365,0,0
-574,659,0,0,0,0,0,0,0,0,0,-1,650,365,0,0
-567,659,0,0,0,0,0,0,0,0,0,-1,657,365,0,0
-560,659,0,0,0,0,0,0,0,0,0,-1,664,365,0,0
-553,659,0,0,0,0,0,0,0,0,0,-1,671,365,0,0
-546,659,0,0,0,0,0,0,0,0,0,-1,678,365,0,0
-539,659,0,0,0,0,0,0,0,0,0,-1,685,365,0,0
-532,659,0,0,0,0,0,0,0,0,0,-1,692,365,0,0
-525,659,0,0,0,0,0,0,0,0,0,-1,699,365,0,0
-518,659,0,0,0,0,0,0,0,0,0,-1,706,365,0,0
-511,659,0,0,0,0,0,0,0,0,0,-1,713,365,0,0
-504,659,0,0,0,0,0,0,0,0,0,-1,720,365,0,0
-497,659,0,0,0,0,0,0,0,0,0,-1,727,365,0,0
-490,659,0,0,0,0,0,0,0,0,0,-1,734,365,0,0
-483,659,0,0,0,0,0,0,0,0,0,-1,741,365,0,0
-476,659,0,0,0,0,0,0,0,0,0,-1,748,365,0,0
-469,659,0,0,0,0,0,0,0,0,0,-1,755,365,0,0
-462,659,0,0,0,0,0,0,0,0,0,-1,762,365,0,0
-455,659,0,0,0,0,0,0,0,0,0,-1,769,365,0,0
-448,659,0,0,0,0,0,0,0,0,0,-1,776,365,0,0
-441,659,0,0,0,0,0,0,0,0,0,-1,783,365,0,0
-434,659,0,0,0,0,0,0,0,0,0,-1,790,365,0,0
-427,659,0,0,0,0,0,0,0,0,0,-1,797,365,0,0
-420,659,0,0,0,0,0,0,0,0,0,-1,804,365,0,0
-413,659,0,0,0,0,0,0,0,0,0,-1,811,365,0,0
-406,659,0,0,0,0,0,0,0,0,0,-1,818,365,0,0
-399,659,0,0,0,0,0,0,0,0,0,-1,825,365,0,0
-392,659,0,0,0,0,0,0,0,0,0,-1,832,365,0,0
-385,659,0,0,0,0,0,0,0,0,0,-1,839,365,0,0
-378,659,0,0,0,0,0,0,0,0,0,-1,846,365,0,0
-371,659,0,0,0,0,0,0,0,0,0,-1,853,365,0,0
-364,659,0,0,0,0,0,0,0,0,0,-1,860,365,0,0
-357,659,0,0,0,0,0,0,0,0,0,-1,867,365,0,0
-350,659,0,0,0,0,0,0,0,0,0,-1,874,365,0,0
-343,659,0,0,0,0,0,0,0,0,0,-1,881,365,0,0
-336,659,0,0,0,0,0,0,0,0,0,-1,888,365,0,0
-329,659,0,0,0,0,0,0,0,0,0,-1,895,365,0,0
-322,659,0,0,0,0,0,0,0,0,0,-1,902,365,0,0
-315,659,0,0,0,0,0,0,0,0,0,-1,909,365,0,0
-308,659,0,0,0,0,0,0,0,0,0,-1,916,365,0,0
-301,659,0,0,0,0,0,0,0,0,0,-1,923,365,0,0
-294,659,0,0,0,0,0,0,0,0,0,-1,930,365,0,0
-287,659,0,0,0,0,0,0,0,0,0,-1,937,365,0,0
-280,659,0,0,0,0,0,0,0,0,0,-1,944,365,0,0
-273,659,0,0,0,0,0,0,0,0,0,-1,951,365,0,0
-266,659,0,0,0,0,0,0,0,0,0,-1,958,365,0,0
-259,659,0,0,0,0,0,0,0,0,0,-1,965,365,0,0
-252,659,0,0,0,0,0,0,0,0,0,-1,972,365,0,0
-245,659,0,0,0,0,0,0,0,0,0,-1,979,365,0,0
-238,659,0,0,0,0,0,0,0,0,0,-1,986,365,0,0
-231,659,0,0,0,0,0,0,0,0,0,-1,993,365,0,0
-224,659,0,0,0,0,0,0,0,0,0,-1,1000,365,0,0
-217,659,1.58905,-25.7653,0,0,0,0,0,0,0,-1,1007,365,1.58908,25.7652
-210,659,2.664,-25.0039,0,0,0,0,0,0,0,-1,1014,365,2.664,25.0039
-203,659,3.64746,-23.8298,0,0,0,0,0,0,0,-1,1021,365,3.64742,23.8298
-196,659,4.5022,-23.0318,0,0,0,0,0,0,0,-1,1028,365,4.50215,23.0318
-189,659,1.69055,-26.9917,0,0,0,0,0,0,0,-1,1035,365,1.69058,26.9917
-182,659,2.86572,-27.5772,0,0,0,0,0,0,0,-1,1042,365,2.86572,27.5772
-175,659,4.15869,-28.4581,0,0,0,0,0,0,0,-1,1049,365,4.15869,28.4581
-168,659,5.06995,-29.6031,0,0,0,0,0,0,0,-1,1056,365,5.06999,29.603
-161,659,5.87061,-30.7495,0,0,0,0,0,0,0,-1,1063,365,5.87064,30.7495
-154,659,6.34753,-28.7462,0,0,0,0,0,0,0,-1,1070,365,6.34752,28.7462
-147,659,5.67029,-28.2706,0,0,0,0,0,0,0,-1,1077,365,5.67027,28.2706
-140,659,3.98083,-28.1931,0,0,0,0,0,0,0,-1,1084,365,3.98081,28.1931
-133,659,5.23059,-29.4231,0.0165225,-0.00848504,0.0267686,0.0335637,-0.0255262,0.566905,0.0342206,0.0435633,1091,365,5.23055,29.4231
-126,659,5.41943,-29.4551,0.0153136,-0.00742846,0.0277059,0.0338912,-0.026006,0.590671,0.0346814,0.0411855,1098,365,5.41946,29.4551
-119,659,5.55383,-29.4304,0.0138486,-0.00602557,0.0284532,0.03405,-0.026227,0.617397,0.0348985,0.0414467,1105,365,5.55386,29.4304
-112,659,5.68591,-29.4477,0,0,0,0,0,0,0,-1,1112,365,5.68586,29.4477
-105,659,5.35803,-29.3068,0,0,0,0,0,0,0,-1,1119,365,5.35808,29.3068
-98,659,4.68042,-26.2438,0,0,0,0,0,0,0,-1,1126,365,4.68041,26.2438
-91,659,4.20776,-20.8654,0,0,0,0,0,0,0,-1,1133,365,4.20777,20.8654
-84,659,2.8584,-17.8303,0,0,0,0,0,0,0,-1,1140,365,2.85836,17.8303
-77,659,2.80139,-15.3457,0,0,0,0,0,0,0,-1,1147,365,2.80139,15.3457
-70,659,2.9353,-12.7028,0,0,0,0,0,0,0,-1,1154,365,2.93533,12.7028
-63,659,2.11267,-9.7796,0,0,0,0,0,0,0,-1,1161,365,2.11266,9.7796
-56,659,2.11182,-9.91541,0,0,0,0,0,0,0,-1,1168,365,2.11178,9.91541
-49,659,4.96033,-31.8464,0,0,0,0,0,0,0,-1,1175,365,4.96039,31.8464
-42,659,4.68665,-32.2825,0,0,0,0,0,0,0,-1,1182,365,4.68658,32.2825
-35,659,4.87146,-32.2441,-0.00572702,0.00663921,0.00245258,0.00710786,-0.00619568,1.38199,0.00768682,0.0432029,1189,365,4.87151,32.2441
-28,659,4.8894,-32.3019,-0.00545272,0.00722725,0.00260684,0.00774226,-0.00596773,1.37574,0.00793754,0.0156235,1196,365,4.88936,32.3019
-21,659,4.84277,-32.4249,-0.0050844,0.0079597,0.00256231,0.00844497,-0.00556967,1.38362,0.00814792,0.0123045,1203,365,4.84274,32.4249
-14,659,4.77881,-32.5836,-0.00465221,0.00868352,0.00264353,0.00918843,-0.00515712,1.38207,0.00839071,0.0100248,1210,365,4.77879,32.5836
-7,659,4.72876,-32.6918,-0.00438004,0.00956629,0.00259905,0.0100349,-0.00484865,1.39241,0.0087652,0.0100782,1217,365,4.72876,32.6918
0,659,4.71472,-32.7716,-0.00403156,0.0106356,0.00236419,0.0110073,-0.00440322,1.41487,0.00916555,0.00903091,1224,365,4.71476,32.7716
7,659,4.69897,-32.8455,-0.00372923,0.0119491,0.00209811,0.012225,-0.00400515,1.44004,0.00976284,0.00815626,1231,365,4.69894,32.8455
14,659,4.64697,-32.8952,-0.00354603,0.0137465,0.0019729,0.0139688,-0.00376826,1.45863,0.0107902,0.0105546,1238,365,4.647,32.8952
21,659,4.59619,-32.9625,-0.00343426,0.0155141,0.00188501,0.0156998,-0.00361996,1.4726,0.0118588,0.0115255,1245,365,4.59616,32.9625
28,659,4.56445,-33.0213,-0.00331023,0.0173946,0.00190246,0.0175679,-0.00348359,1.47993,0.0130293,0.0104785,1252,365,4.5644,33.0213
35,659,4.55774,-33.0573,-0.0033722,0.02024,0.00193836,0.0203981,-0.00353026,1.48943,0.0149154,0.0111538,1259,365,4.55772,33.0573
42,659,4.53308,-33.1015,-0.0033766,0.0226991,0.00188416,0.0228345,-0.00351204,1.49904,0.0165186,0.0118903,1266,365,4.53308,33.1015
49,659,4.48535,-33.126,-0.00372544,0.0254313,0.001898,0.0255544,-0.00384847,1.50606,0.0184533,0.0115087,1273,365,4.4854,33.126
56,659,4.44141,-33.1324,-0.00433711,0.0277003,0.00192741,0.0278158,-0.00445264,1.51092,0.0201924,0.014933,1280,365,4.44139,33.1323
63,659,4.43408,-33.1729,-0.00495422,0.0298577,0.00178708,0.0299492,-0.00504572,1.51964,0.0218432,0.0158037,1287,365,4.43408,33.1728
70,659,4.37817,-33.1593,-0.00548819,0.0314721,0.00161567,0.0315426,-0.00555869,1.52719,0.0231053,0.0170309,1294,365,4.37822,33.1593
77,659,4.32239,-33.1375,-0.00595787,0.0326457,0.00164472,0.0327157,-0.00602781,1.52829,0.0240726,0.0173411,1301,365,4.32244,33.1375
84,659,4.33582,-33.1091,-0.0065929,0.0338088,0.0015361,0.0338671,-0.00665122,1.53285,0.0250908,0.0125046,1308,365,4.33579,33.1091
91,659,4.28967,-33.0469,-0.00744453,0.0342929,0.00119692,0.0343272,-0.00747883,1.54215,0.0257424,0.011009,1315,365,4.28969,33.0469
98,659,4.24182,-32.9698,-0.00795965,0.0344764,0.000918307,0.0344963,-0.00797951,1.54917,0.0260677,0.00825751,1322,365,4.2418,32.9699
105,659,4.22083,-32.8785,-0.00823886,0.0345838,0.000808075,0.034599,-0.0082541,1.55193,0.0262535,0.00963055,1329,365,4.22081,32.8785
112,659,4.19287,-32.7841,-0.00846924,0.0344351,0.000601375,0.0344435,-0.00847766,1.55678,0.0262486,0.0134507,1336,365,4.19282,32.7841
119,659,4.1427,-32.6722,-0.00846562,0.0337778,0.000388021,0.0337814,-0.00846918,1.56161,0.0258114,0.0154314,1343,365,4.14266,32.6722
126,659,4.09253,-32.5328,-0.00823347,0.0331729,0.000391585,0.0331766,-0.00823718,1.56134,0.0253142,0.0140607,1350,365,4.09257,32.5328
133,659,4.05334,-32.4013,-0.00783213,0.0325344,0.000532377,0.0325414,-0.00783915,1.55761,0.0247251,0.0125554,1357,365,4.0534,32.4013
140,659,4.02051,-32.3136,-0.0071774,0.0311563,0.000925544,0.0311786,-0.00719974,1.54667,0.0235553,0.00981543,1364,365,4.02045,32.3136
147,659,3.99792,-32.1736,-0.00650337,0.0305341,0.00152745,0.030597,-0.00656626,1.52965,0.0229027,0.00868455,1371,365,3.99794,32.1736
154,659,3.95557,-31.9824,-0.00570677,0.0292336,0.00205164,0.0293536,-0.00582683,1.51235,0.0217728,0.0100423,1378,365,3.95558,31.9824
161,659,3.92151,-31.8145,-0.00483312,0.0283285,0.00255024,0.0285235,-0.00502809,1.49449,0.0208943,0.0118417,1385,365,3.92149,31.8145
168,659,3.91687,-31.637,-0.00427017,0.0268396,0.00318094,0.0271615,-0.00459209,1.46994,0.0198165,0.0187782,1392,365,3.91691,31.637
175,659,3.89404,-31.4723,-0.00378704,0.0241805,0.00380694,0.0246895,-0.00429597,1.4379,0.0180627,0.0414041,1399,365,3.89402,31.4723
182,659,3.74329,-31.3701,0,0,0,0,0,0,0,-1,1406,365,3.74323,31.3701
189,659,3.84802,-30.9057,0,0,0,0,0,0,0,-1,1413,365,3.84798,30.9057
196,659,2.41248,-13.4371,0,0,0,0,0,0,0,-1,1420,365,2.41243,13.4371
203,659,2.38623,-12.2163,0,0,0,0,0,0,0,-1,1427,365,2.38617,12.2163
210,659,2.20789,-13.9792,0,0,0,0,0,0,0,-1,1434,365,2.20794,13.9792
217,659,2.24121,-13.487,0,0,0,0,0,0,0,-1,1441,365,2.24116,13.487
224,659,2.3479,-15.2926,0,0,0,0,0,0,0,-1,1448,365,2.34793,15.2926
231,659,2.47974,-17.8629,0,0,0,0,0,0,0,-1,1455,365,2.47976,17.8628
238,659,3.57886,-21.1258,0,0,0,0,0,0,0,-1,1462,365,3.57889,21.1258
245,659,3.29883,-25.0283,0,0,0,0,0,0,0,-1,1469,365,3.29889,25.0283
252,659,2.81909,-24.1604,0,0,0,0,0,0,0,-1,1476,365,2.81905,24.1604
259,659,2.33069,-3.36703,0,0,0,0,0,0,0,-1,1483,365,2.33073,3.36702
266,659,1.72681,-17.183,0,0,0,0,0,0,0,-1,1490,365,1.72683,17.183
273,659,2.86487,-28.3759,0,0,0,0,0,0,0,-1,1497,365,2.86482,28.3759
280,659,-6.90784,-17.1906,0,0,0,0,0,0,0,-1,1504,365,-6.90789,17.1906
287,659,-5.92737,-19.4511,0,0,0,0,0,0,0,-1,1511,365,-5.92734,19.4511
294,659,-4.90845,-21.6836,0,0,0,0,0,0,0,-1,1518,365,-4.90846,21.6836
301,659,-4.74207,-23.313,0,0,0,0,0,0,0,-1,1525,365,-4.74206,23.313
308,659,-3.77832,-24.1487,0,0,0,0,0,0,0,-1,1532,365,-3.77827,24.1487
315,659,2.17102,-2.98474,0,0,0,0,0,0,0,-1,1539,365,2.171,2.98473
322,659,0.382813,-2.2424,0,0,0,0,0,0,0,-1,1546,365,0.382801,2.2424
329,659,0.604004,-1.75998,0,0,0,0,0,0,0,-1,1553,365,0.603966,1.75998
336,659,4.55933,-25.2647,0,0,0,0,0,0,0,-1,1560,365,4.55935,25.2647
343,659,0,0,0,0,0,0,0,0,0,-1,1567,365,0,0
350,659,0,0,0,0,0,0,0,0,0,-1,1574,365,0,0
357,659,0,0,0,0,0,0,0,0,0,-1,1581,365,0,0
364,659,0,0,0,0,0,0,0,0,0,-1,1588,365,0,0
371,659,0,0,0,0,0,0,0,0,0,-1,1595,365,0,0
378,659,0,0,0,0,0,0,0,0,0,-1,1602,365,0,0
385,659,0,0,0,0,0,0,0,0,0,-1,1609,365,0,0
392,659,0,0,0,0,0,0,0,0,0,-1,1616,365,0,0
399,659,0,0,0,0,0,0,0,0,0,-1,1623,365,0,0
406,659,0,0,0,0,0,0,0,0,0,-1,1630,365,0,0
413,659,0,0,0,0,0,0,0,0,0,-1,1637,365,0,0
420,659,0,0,0,0,0,0,0,0,0,-1,1644,365,0,0
427,659,0,0,0,0,0,0,0,0,0,-1,1651,365,0,0
434,659,0,0,0,0,0,0,0,0,0,-1,1658,365,0,0
441,659,0,0,0,0,0,0,0,0,0,-1,1665,365,0,0
448,659,0,0,0,0,0,0,0,0,0,-1,1672,365,0,0
455,659,0,0,0,0,0,0,0,0,0,-1,1679,365,0,0
462,659,0,0,0,0,0,0,0,0,0,-1,1686,365,0,0
469,659,0,0,0,0,0,0,0,0,0,-1,1693,365,0,0
476,659,0,0,0,0,0,0,0,0,0,-1,1700,365,0,0
483,659,0,0,0,0,0,0,0,0,0,-1,1707,365,0,0
490,659,0,0,0,0,0,0,0,0,0,-1,1714,365,0,0
497,659,0,0,0,0,0,0,0,0,0,-1,1721,365,0,0
504,659,0,0,0,0,0,0,0,0,0,-1,1728,365,0,0
511,659,0,0,0,0,0,0,0,0,0,-1,1735,365,0,0
518,659,0,0,0,0,0,0,0,0,0,-1,1742,365,0,0
525,659,0,0,0,0,0,0,0,0,0,-1,1749,365,0,0
532,659,0,0,0,0,0,0,0,0,0,-1,1756,365,0,0
539,659,0,0,0,0,0,0,0,0,0,-1,1763,365,0,0
546,659,0,0,0,0,0,0,0,0,0,-1,1770,365,0,0
553,659,0,0,0,0,0,0,0,0,0,-1,1777,365,0,0
560,659,0,0,0,0,0,0,0,0,0,-1,1784,365,0,0
567,659,0,0,0,0,0,0,0,0,0,-1,1791,365,0,0
574,659,0,0,0,0,0,0,0,0,0,-1,1798,365,0,0
581,659,0,0,0,0,0,0,0,0,0,-1,1805,365,0,0
588,659,0,0,0,0,0,0,0,0,0,-1,1812,365,0,0
595,659,0,0,0,0,0,0,0,0,0,-1,1819,365,0,0
602,659,0,0,0,0,0,0,0,0,0,-1,1826,365,0,0
609,659,0,0,0,0,0,0,0,0,0,-1,1833,365,0,0
616,659,0,0,0,0,0,0,0,0,0,-1,1840,365,0,0
623,659,0,0,0,0,0,0,0,0,0,-1,1847,365,0,0
630,659,0,0,0,0,0,0,0,0,0,-1,1854,365,0,0
637,659,0,0,0,0,0,0,0,0,0,-1,1861,365,0,0
644,659,0,0,0,0,0,0,0,0,0,-1,1868,365,0,0
651,659,0,0,0,0,0,0,0,0,0,-1,1875,365,0,0
658,659,0,0,0,0,0,0,0,0,0,-1,1882,365,0,0
665,659,0,0,0,0,0,0,0,0,0,-1,1889,365,0,0
672,659,0,0,0,0,0,0,0,0,0,-1,1896,365,0,0
679,659,0,0,0,0,0,0,0,0,0,-1,1903,365,0,0
686,659,0,0,0,0,0,0,0,0,0,-1,1910,365,0,0
693,659,0,0,0,0,0,0,0,0,0,-1,1917,365,0,0
700,659,0,0,0,0,0,0,0,0,0,-1,1924,365,0,0
707,659,0,0,0,0,0,0,0,0,0,-1,1931,365,0,0
714,659,0,0,0,0,0,0,0,0,0,-1,1938,365,0,0
721,659,0,0,0,0,0,0,0,0,0,-1,1945,365,0,0
728,659,0,0,0,0,0,0,0,0,0,-1,1952,365,0,0
735,659,0,0,0,0,0,0,0,0,0,-1,1959,365,0,0
742,659,0,0,0,0,0,0,0,0,0,-1,1966,365,0,0
749,659,0,0,0,0,0,0,0,0,0,-1,1973,365,0,0
756,659,0,0,0,0,0,0,0,0,0,-1,1980,365,0,0
763,659,0,0,0,0,0,0,0,0,0,-1,1987,365,0,0
770,659,0,0,0,0,0,0,0,0,0,-1,1994,365,0,0
777,659,0,0,0,0,0,0,0,0,0,-1,2001,365,0,0
784,659,0,0,0,0,0,0,0,0,0,-1,2008,365,0,0
791,659,0,0,0,0,0,0,0,0,0,-1,2015,365,0,0
798,659,0,0,0,0,0,0,0,0,0,-1,2022,365,0,0
805,659,0,0,0,0,0,0,0,0,0,-1,2029,365,0,0
812,659,0,0,0,0,0,0,0,0,0,-1,2036,365,0,0
-700,652,0,0,0,0,0,0,0,0,0,-1,524,372,0,0
-693,652,0,0,0,0,0,0,0,0,0,-1,531,372,0,0
-686,652,0,0,0,0,0,0,0,0,0,-1,538,372,0,0
-679,652,0,0,0,0,0,0,0,0,0,-1,545,372,0,0
-672,652,0,0,0,0,0,0,0,0,0,-1,552,372,0,0
-665,652,0,0,0,0,0,0,0,0,0,-1,559,372,0,0
-658,652,0,0,0,0,0,0,0,0,0,-1,566,372,0,0
-651,652,0,0,0,0,0,0,0,0,0,-1,573,372,0,0
-644,652,0,0,0,0,0,0,0,0,0,-1,580,372,0,0
-637,652,0,0,0,0,0,0,0,0,0,-1,587,372,0,0
-630,652,0,0,0,0,0,0,0,0,0,-1,594,372,0,0
-623,652,0,0,0,0,0,0,0,0,0,-1,601,372,0,0
-616,652,0,0,0,0,0,0,0,0,0,-1,608,372,0,0
-609,652,0,0,0,0,0,0,0,0,0,-1,615,372,0,0
-602,652,0,0,0,0,0,0,0,0,0,-1,622,372,0,0
-595,652,0,0,0,0,0,0,0,0,0,-1,629,372,0,0
-588,652,0,0,0,0,0,0,0,0,0,-1,636,372,0,0
-581,652,0,0,0,0,0,0,0,0,0,-1,643,372,0,0
-574,652,0,0,0,0,0,0,0,0,0,-1,650,372,0,0
-567,652,0,0,0,0,0,0,0,0,0,-1,657,372,0,0
-560,652,0,0,0,0,0,0,0,0,0,-1,664,372,0,0
-553,652,0,0,0,0,0,0,0,0,0,-1,671,372,0,0
-546,652,0,0,0,0,0,0,0,0,0,-1,678,372,0,0
-539,652,0,0,0,0,0,0,0,0,0,-1,685,372,0,0
-532,652,0,0,0,0,0,0,0,0,0,-1,692,372,0,0
-525,652,0,0,0,0,0,0,0,0,0,-1,699,372,0,0
-518,652,0,0,0,0,0,0,0,0,0,-1,706,372,0,0
-511,652,0,0,0,0,0,0,0,0,0,-1,713,372,0,0
-504,652,0,0,0,0,0,0,0,0,0,-1,720,372,0,0
-497,652,0,0,0,0,0,0,0,0,0,-1,727,372,0,0
-490,652,0,0,0,0,0,0,0,0,0,-1,734,372,0,0
-483,652,0,0,0,0,0,0,0,0,0,-1,741,372,0,0
-476,652,0,0,0,0,0,0,0,0,0,-1,748,372,0,0
-469,652,0,0,0,0,0,0,0,0,0,-1,755,372,0,0
-462,652,0,0,0,0,0,0,0,0,0,-1,762,372,0,0
-455,652,0,0,0,0,0,0,0,0,0,-1,769,372,0,0
-448,652,0,0,0,0,0,0,0,0,0,-1,776,372,0,0
-441,652,0,0,0,0,0,0,0,0,0,-1,783,372,0,0
-434,652,0,0,0,0,0,0,0,0,0,-1,790,372,0,0
-427,652,0,0,0,0,0,0,0,0,0,-1,797,372,0,0
-420,652,0,0,0,0,0,0,0,0,0,-1,804,372,0,0
-413,652,0,0,0,0,0,0,0,0,0,-1,811,372,0,0
-406,652,0,0,0,0,0,0,0,0,0,-1,818,372,0,0
-399,652,0,0,0,0,0,0,0,0,0,-1,825,372,0,0
-392,652,0,0,0,0,0,0,0,0,0,-1,832,372,0,0
-385,652,0,0,0,0,0,0,0,0,0,-1,839,372,0,0
-378,652,0,0,0,0,0,0,0,0,0,-1,846,372,0,0
-371,652,0,0,0,0,0,0,0,0,0,-1,853,372,0,0
-364,652,0,0,0,0,0,0,0,0,0,-1,860,372,0,0
-357,652,0,0,0,0,0,0,0,0,0,-1,867,372,0,0
-350,652,0,0,0,0,0,0,0,0,0,-1,874,372,0,0
-343,652,0,0,0,0,0,0,0,0,0,-1,881,372,0,0
-336,652,0,0,0,0,0,0,0,0,0,-1,888,372,0,0
-329,652,0,0,0,0,0,0,0,0,0,-1,895,372,0,0
-322,652,0,0,0,0,0,0,0,0,0,-1,902,372,0,0
-315,652,0,0,0,0,0,0,0,0,0,-1,909,372,0,0
-308,652,0,0,0,0,0,0,0,0,0,-1,916,372,0,0
-301,652,0,0,0,0,0,0,0,0,0,-1,923,372,0,0
-294,652,0,0,0,0,0,0,0,0,0,-1,930,372,0,0
-287,652,0,0,0,0,0,0,0,0,0,-1,937,372,0,0
-280,652,0,0,0,0,0,0,0,0,0,-1,944,372,0,0
-273,652,0,0,0,0,0,0,0,0,0,-1,951,372,0,0
-266,652,0,0,0,0,0,0,0,0,0,-1,958,372,0,0
-259,652,0,0,0,0,0,0,0,0,0,-1,965,372,0,0
-252,652,0,0,0,0,0,0,0,0,0,-1,972,372,0,0
-245,652,0,0,0,0,0,0,0,0,0,-1,979,372,0,0
-238,652,0,0,0,0,0,0,0,0,0,-1,986,372,0,0
-231,652,8.68457,-21.315,0,0,0,0,0,0,0,-1,993,372,8.68455,21.315
-224,652,9.47449,-18.002,0,0,0,0,0,0,0,-1,1000,372,9.47449,18.002
-217,652,1.80139,-26.709,0,0,0,0,0,0,0,-1,1007,372,1.80137,26.709
-210,652,2.70807,-25.7509,0,0,0,0,0,0,0,-1,1014,372,2.70809,25.7509
-203,652,3.66467,-24.6504,0,0,0,0,0,0,0,-1,1021,372,3.66463,24.6504
-196,652,4.50012,-23.3835,0,0,0,0,0,0,0,-1,1028,372,4.50007,23.3835
-189,652,2.43188,-26.0271,0,0,0,0,0,0,0,-1,1035,372,2.43189,26.0271
-182,652,3.18262,-26.595,0,0,0,0,0,0,0,-1,1042,372,3.18263,26.595
-175,652,4.18445,-27.3658,0,0,0,0,0,0,0,-1,1049,372,4.1845,27.3658
-168,652,4.79932,-28.9301,0,0,0,0,0,0,0,-1,1056,372,4.79938,28.9301
-161,652,5.776,-29.5175,0,0,0,0,0,0,0,-1,1063,372,5.77596,29.5175
-154,652,5.41284,-28.3215,0,0,0,0,0,0,0,-1,1070,372,5.41284,28.3215
-147,652,5.43616,-28.5456,0,0,0,0,0,0,0,-1,1077,372,5.43615,28.5456
-140,652,4.2085,-28.4942,0.0134317,-0.00502615,0.0155719,0.0223041,-0.0138985,0.517893,0.0210885,0.0430657,1084,372,4.20855,28.4942
-133,652,5.25916,-28.842,0.0129506,-0.00509316,0.016749,0.022953,-0.0150956,0.538354,0.0221229,0.0444858,1091,372,5.25914,28.842
-126,652,5.32544,-29.131,0.0120874,-0.00437187,0.0177064,0.0233833,-0.0156677,0.567859,0.0226923,0.0414721,1098,372,5.3254,29.131
-119,652,5.22485,-29.3587,0.0110389,-0.00327818,0.0183751,0.0236006,-0.0158399,0.599654,0.0229175,0.0376814,1105,372,5.22489,29.3587
-112,652,5.14075,-29.6864,0.00977162,-0.00202965,0.0186645,0.023446,-0.015704,0.632298,0.0227501,0.0312071,1112,372,5.1408,29.6864
-105,652,5.12488,-29.733,0.00832452,-0.000805963,0.0184459,0.0227617,-0.0152432,0.664089,0.0220848,0.0406836,1119,372,5.12488,29.733
-98,652,5.12268,-29.9337,0,0,0,0,0,0,0,-1,1126,372,5.12269,29.9337
-91,652,5.18481,-30.0638,0,0,0,0,0,0,0,-1,1133,372,5.18482,30.0638
-84,652,5.06653,-30.5106,0,0,0,0,0,0,0,-1,1140,372,5.06652,30.5106
-77,652,4.95081,-30.8792,0,0,0,0,0,0,0,-1,1147,372,4.95078,30.8792
-70,652,4.91589,-31.234,0,0,0,0,0,0,0,-1,1154,372,4.9159,31.234
-63,652,4.92346,-31.4663,0,0,0,0,0,0,0,-1,1161,372,4.92343,31.4663
-56,652,4.85901,-31.6948,0,0,0,0,0,0,0,-1,1168,372,4.85896,31.6948
-49,652,4.8811,-31.8883,-0.00550292,0.00571031,0.00050709,0.00573319,-0.0055258,1.5257,0.00650075,0.0378703,1175,372,4.88104,31.8883
-42,652,4.7937,-32.013,-0.00477471,0.00517479,0.000927946,0.0052606,-0.00486051,1.47859,0.00584494,0.0126327,1182,372,4.79375,32.013
-35,652,4.77075,-32.1812,-0.00438814,0.00537138,0.00135037,0.00555478,-0.00457154,1.43581,0.00585561,0.00988544,1189,372,4.77073,32.1811
-28,652,4.75208,-32.329,-0.00413555,0.00576803,0.00158661,0.006016,-0.00438353,1.41576,0.00602878,0.00801561,1196,372,4.75211,32.329
-21,652,4.70398,-32.4733,-0.00380775,0.00606742,0.00169499,0.00635025,-0.00409058,1.40546,0.00607489,0.00820667,1203,372,4.70403,32.4733
-14,652,4.6803,-32.5972,-0.00343202,0.00635705,0.00190883,0.0067161,-0.00379106,1.38487,0.00614417,0.00989252,1210,372,4.68026,32.5972
-7,652,4.64685,-32.7157,-0.00311112,0.00677993,0.00198307,0.00716271,-0.00349389,1.38012,0.00627295,0.0130611,1217,372,4.64691,32.7157
0,652,4.61328,-32.7995,-0.00275442,0.0073503,0.00186745,0.00768438,-0.0030885,1.39377,0.00640561,0.013782,1224,372,4.61327,32.7995
7,652,4.59875,-32.8517,-0.00243318,0.0080886,0.00168332,0.00835134,-0.00269593,1.41596,0.0066509,0.0135993,1231,372,4.59876,32.8517
14,652,4.58923,-32.9383,-0.00221398,0.00910413,0.00155177,0.00931302,-0.00242288,1.43698,0.0071544,0.0125776,1238,372,4.58924,32.9383
21,652,4.55249,-33.0181,-0.00207415,0.0102434,0.00145283,0.0104124,-0.00224319,1.45497,0.00779763,0.0114405,1245,372,4.55253,33.0181
28,652,4.53308,-33.0779,-0.00192145,0.0115087,0.0014009,0.0116533,-0.00206602,1.46796,0.00854122,0.00962904,1252,372,4.53303,33.0779
35,652,4.51135,-33.1159,-0.001915,0.0134237,0.00141141,0.0135525,-0.00204379,1.4798,0.00978763,0.00979458,1259,372,4.5114,33.1159
42,652,4.48486,-33.1517,-0.00190597,0.015087,0.00136284,0.0151956,-0.00201458,1.49127,0.0108643,0.0113106,1266,372,4.48489,33.1517
49,652,4.48157,-33.1695,-0.002202,0.0169609,0.00138427,0.0170604,-0.00230148,1.49906,0.0122132,0.0135357,1273,372,4.48157,33.1695
56,652,4.45862,-33.1727,-0.002723,0.0185144,0.00139431,0.0186055,-0.00281415,1.50552,0.0134403,0.0148394,1280,372,4.45857,33.1727
63,652,4.43323,-33.2075,-0.00322546,0.0200308,0.00131615,0.020105,-0.00329971,1.51444,0.0146278,0.0184899,1287,372,4.43328,33.2075
70,652,4.38989,-33.168,-0.00367149,0.0211559,0.00123591,0.0212173,-0.00373286,1.52118,0.0155393,0.0169115,1294,372,4.38986,33.168
77,652,4.36707,-33.1451,-0.00406984,0.0219959,0.00133792,0.0220644,-0.00413833,1.51965,0.0162655,0.0150931,1301,372,4.36706,33.1451
84,652,4.36609,-33.1111,-0.00457512,0.0228721,0.0013183,0.0229353,-0.00463829,1.52291,0.0170479,0.0130049,1308,372,4.36605,33.1111
91,652,4.31384,-33.1041,-0.00525197,0.0232812,0.0011218,0.0233252,-0.005296,1.53156,0.0175834,0.0161919,1315,372,4.31387,33.1041
98,652,4.30261,-33.0277,-0.00567247,0.0234498,0.000968565,0.023482,-0.00570465,1.53759,0.0178625,0.0132605,1322,372,4.30264,33.0277
105,652,4.28198,-32.9195,-0.00585573,0.0236407,0.00093444,0.0236702,-0.0058853,1.53916,0.0180644,0.0113635,1329,372,4.28198,32.9195
112,652,4.26318,-32.8263,-0.0059737,0.023607,0.000825065,0.02363,-0.0059967,1.54293,0.0180867,0.00977442,1336,372,4.26313,32.8263
119,652,4.23218,-32.7244,-0.00589875,0.0232677,0.000707307,0.0232848,-0.00591589,1.54656,0.0178255,0.0105511,1343,372,4.23219,32.7244
126,652,4.1925,-32.5949,-0.00565549,0.0228986,0.000673291,0.0229144,-0.00567136,1.54723,0.0174762,0.0126223,1350,372,4.19256,32.595
133,652,4.16003,-32.4646,-0.00530916,0.0225195,0.000739649,0.0225391,-0.00532881,1.54424,0.0170817,0.0125976,1357,372,4.16003,32.4646
140,652,4.13708,-32.3468,-0.00477333,0.0216447,0.000972206,0.0216804,-0.00480906,1.53406,0.0162949,0.00956468,1364,372,4.13709,32.3468
147,652,4.13098,-32.1976,-0.00424827,0.0213953,0.00139939,0.0214715,-0.00432441,1.51644,0.0159524,0.00913973,1371,372,4.13102,32.1976
154,652,4.11902,-32.0257,-0.00365472,0.0206697,0.00175808,0.0207961,-0.00378113,1.49902,0.0152812,0.00946865,1378,372,4.11906,32.0257
161,652,4.06763,-31.8493,-0.00314062,0.0201688,0.00210151,0.0203568,-0.00332857,1.4816,0.0148059,0.0103081,1385,372,4.06761,31.8493
168,652,4.04065,-31.6706,-0.00300782,0.0191936,0.00250719,0.0194732,-0.00328743,1.45973,0.0142053,0.0114831,1392,372,4.04069,31.6706
175,652,4.02563,-31.4747,-0.00294474,0.0175699,0.00289006,0.0179693,-0.00334411,1.43348,0.0132358,0.0120168,1399,372,4.02561,31.4747
182,652,3.97424,-31.3033,-0.00288048,0.01599,0.00305735,0.016473,-0.00336347,1.41412,0.0122579,0.017611,1406,372,3.9743,31.3033
189,652,3.98706,-31.0892,-0.0028601,0.0143992,0.0033751,0.0150357,-0.00349664,1.38439,0.01137,0.0299384,1413,372,3.98704,31.0892
196,652,3.94775,-30.8103,0,0,0,0,0,0,0,-1,1420,372,3.9478,30.8103
203,652,3.9032,-30.5875,0,0,0,0,0,0,0,-1,1427,372,3.9032,30.5875
210,652,3.94971,-30.2693,0,0,0,0,0,0,0,-1,1434,372,3.9497,30.2693
217,652,3.87976,-30.0739,0,0,0,0,0,0,0,-1,1441,372,3.87978,30.0739
224,652,3.66248,-29.8368,0,0,0,0,0,0,0,-1,1448,372,3.66242,29.8368
231,652,3.66626,-29.3523,0,0,0,0,0,0,0,-1,1455,372,3.66631,29.3523
238,652,3.77014,-28.9579,0,0,0,0,0,0,0,-1,1462,372,3.77013,28.9579
245,652,3.68579,-28.8435,0,0,0,0,0,0,0,-1,1469,372,3.68576,28.8435
252,652,3.7666,-28.5779,0,0,0,0,0,0,0,-1,1476,372,3.76665,28.5779
259,652,3.3595,-28.0524,0,0,0,0,0,0,0,-1,1483,372,3.35951,28.0524
266,652,3.21277,-27.6409,0,0,0,0,0,0,0,-1,1490,372,3.21271,27.6409
273,652,3.33081,-28.0452,0,0,0,0,0,0,0,-1,1497,372,3.33078,28.0452
280,652,3.32764,-28.0776,0,0,0,0,0,0,0,-1,1504,372,3.32758,28.0777
287,652,-4.71191,-19.5709,0,0,0,0,0,0,0,-1,1511,372,-4.71192,19.5709
294,652,-3.86414,-20.5635,0,0,0,0,0,0,0,-1,1518,372,-3.86419,20.5635
301,652,-2.35486,-21.8877,0,0,0,0,0,0,0,-1,1525,372,-2.35492,21.8877
308,652,-0.845703,-23.2118,0,0,0,0,0,0,0,-1,1532,372,-0.845646,23.2118
315,652,1.57373,-26.1443,0,0,0,0,0,0,0,-1,1539,372,1.5737,26.1442
322,652,1.47742,-24.1089,0,0,0,0,0,0,0,-1,1546,372,1.47736,24.1089
329,652,3.6593,-22.1693,0,0,0,0,0,0,0,-1,1553,372,3.65935,22.1693
336,652,3.52173,-24.2133,0,0,0,0,0,0,0,-1,1560,372,3.52174,24.2133
343,652,4.85767,-24.4762,0,0,0,0,0,0,0,-1,1567,372,4.85772,24.4762
350,652,5.28394,-25.6715,0,0,0,0,0,0,0,-1,1574,372,5.28393,25.6715
357,652,0,0,0,0,0,0,0,0,0,-1,1581,372,0,0
364,652,0,0,0,0,0,0,0,0,0,-1,1588,372,0,0
371,652,0,0,0,0,0,0,0,0,0,-1,1595,372,0,0
378,652,0,0,0,0,0,0,0,0,0,-1,1602,372,0,0
385,652,0,0,0,0,0,0,0,0,0,-1,1609,372,0,0
392,652,0,0,0,0,0,0,0,0,0,-1,1616,372,0,0
399,652,0,0,0,0,0,0,0,0,0,-1,1623,372,0,0
406,652,0,0,0,0,0,0,0,0,0,-1,1630,372,0,0
413,652,0,0,0,0,0,0,0,0,0,-1,1637,372,0,0
420,652,0,0,0,0,0,0,0,0,0,-1,1644,372,0,0
427,652,0,0,0,0,0,0,0,0,0,-1,1651,372,0,0
434,652,0,0,0,0,0,0,0,0,0,-1,1658,372,0,0
441,652,0,0,0,0,0,0,0,0,0,-1,1665,372,0,0
448,652,0,0,0,0,0,0,0,0,0,-1,1672,372,0,0
455,652,0,0,0,0,0,0,0,0,0,-1,1679,372,0,0
462,652,0,0,0,0,0,0,0,0,0,-1,1686,372,0,0
469,652,0,0,0,0,0,0,0,0,0,-1,1693,372,0,0
476,652,0,0,0,0,0,0,0,0,0,-1,1700,372,0,0
483,652,0,0,0,0,0,0,0,0,0,-1,1707,372,0,0
490,652,0,0,0,0,0,0,0,0,0,-1,1714,372,0,0
497,652,0,0,0,0,0,0,0,0,0,-1,1721,372,0,0
504,652,0,0,0,0,0,0,0,0,0,-1,1728,372,0,0
511,652,0,0,0,0,0,0,0,0,0,-1,1735,372,0,0
518,652,0,0,0,0,0,0,0,0,0,-1,1742,372,0,0
525,652,0,0,0,0,0,0,0,0,0,-1,1749,372,0,0
532,652,0,0,0,0,0,0,0,0,0,-1,1756,372,0,0
539,652,0,0,0,0,0,0,0,0,0,-1,1763,372,0,0
546,652,0,0,0,0,0,0,0,0,0,-1,1770,372,0,0
553,652,0,0,0,0,0,0,0,0,0,-1,1777,372,0,0
560,652,0,0,0,0,0,0,0,0,0,-1,1784,372,0,0
567,652,0,0,0,0,0,0,0,0,0,-1,1791,372,0,0
574,652,0,0,0,0,0,0,0,0,0,-1,1798,372,0,0
581,652,0,0,0,0,0,0,0,0,0,-1,1805,372,0,0
588,652,0,0,0,0,0,0,0,0,0,-1,1812,372,0,0
595,652,0,0,0,0,0,0,0,0,0,-1,1819,372,0,0
602,652,0,0,0,0,0,0,0,0,0,-1,1826,372,0,0
609,652,0,0,0,0,0,0,0,0,0,-1,1833,372,0,0
616,652,0,0,0,0,0,0,0,0,0,-1,1840,372,0,0
623,652,0,0,0,0,0,0,0,0,0,-1,1847,372,0,0
630,652,0,0,0,0,0,0,0,0,0,-1,1854,372,0,0
637,652,0,0,0,0,0,0,0,0,0,-1,1861,372,0,0
644,652,0,0,0,0,0,0,0,0,0,-1,1868,372,0,0
651,652,0,0,0,0,0,0,0,0,0,-1,1875,372,0,0
658,652,0,0,0,0,0,0,0,0,0,-1,1882,372,0,0
665,652,0,0,0,0,0,0,0,0,0,-1,1889,372,0,0
672,652,0,0,0,0,0,0,0,0,0,-1,1896,372,0,0
679,652,0,0,0,0,0,0,0,0,0,-1,1903,372,0,0
686,652,0,0,0,0,0,0,0,0,0,-1,1910,372,0,0
693,652,0,0,0,0,0,0,0,0,0,-1,1917,372,0,0
700,652,0,0,0,0,0,0,0,0,0,-1,1924,372,0,0
707,652,0,0,0,0,0,0,0,0,0,-1,1931,372,0,0
714,652,0,0,0,0,0,0,0,0,0,-1,1938,372,0,0
721,652,0,0,0,0,0,0,0,0,0,-1,1945,372,0,0
728,652,0,0,0,0,0,0,0,0,0,-1,1952,372,0,0
735,652,0,0,0,0,0,0,0,0,0,-1,1959,372,0,0
742,652,0,0,0,0,0,0,0,0,0,-1,1966,372,0,0
749,652,0,0,0,0,0,0,0,0,0,-1,1973,372,0,0
756,652,0,0,0,0,0,0,0,0,0,-1,1980,372,0,0
763,652,0,0,0,0,0,0,0,0,0,-1,1987,372,0,0
770,652,0,0,0,0,0,0,0,0,0,-1,1994,372,0,0
777,652,0,0,0,0,0,0,0,0,0,-1,2001,372,0,0
784,652,0,0,0,0,0,0,0,0,0,-1,2008,372,0,0
791,652,0,0,0,0,0,0,0,0,0,-1,2015,372,0,0
798,652,0,0,0,0,0,0,0,0,0,-1,2022,372,0,0
805,652,0,0,0,0,0,0,0,0,0,-1,2029,372,0,0
812,652,0,0,0,0,0,0,0,0,0,-1,2036,372,0,0
-700,645,0,0,0,0,0,0,0,0,0,-1,524,379,0,0
-693,645,0,0,0,0,0,0,0,0,0,-1,531,379,0,0
-686,645,0,0,0,0,0,0,0,0,0,-1,538,379,0,0
-679,645,0,0,0,0,0,0,0,0,0,-1,545,379,0,0
-672,645,0,0,0,0,0,0,0,0,0,-1,552,379,0,0
-665,645,0,0,0,0,0,0,0,0,0,-1,559,379,0,0
-658,645,0,0,0,0,0,0,0,0,0,-1,566,379,0,0
-651,645,0,0,0,0,0,0,0,0,0,-1,573,379,0,0
-644,645,0,0,0,0,0,0,0,0,0,-1,580,379,0,0
-637,645,0,0,0,0,0,0,0,0,0,-1,587,379,0,0
-630,645,0,0,0,0,0,0,0,0,0,-1,594,379,0,0
-623,645,0,0,0,0,0,0,0,0,0,-1,601,379,0,0
-616,645,0,0,0,0,0,0,0,0,0,-1,608,379,0,0
-609,645,0,0,0,0,0,0,0,0,0,-1,615,379,0,0
-602,645,0,0,0,0,0,0,0,0,0,-1,622,379,0,0
-595,645,0,0,0,0,0,0,0,0,0,-1,629,379,0,0
-588,645,0,0,0,0,0,0,0,0,0,-1,636,379,0,0
-581,645,0,0,0,0,0,0,0,0,0,-1,643,379,0,0
-574,645,0,0,0,0,0,0,0,0,0,-1,650,379,0,0
-567,645,0,0,0,0,0,0,0,0,0,-1,657,379,0,0
-560,645,0,0,0,0,0,0,0,0,0,-1,664,379,0,0
-553,645,0,0,0,0,0,0,0,0,0,-1,671,379,0,0
-546,645,0,0,0,0,0,0,0,0,0,-1,678,379,0,0
-539,645,0,0,0,0,0,0,0,0,0,-1,685,379,0,0
-532,645,0,0,0,0,0,0,0,0,0,-1,692,379,0,0
-525,645,0,0,0,0,0,0,0,0,0,-1,699,379,0,0
-518,645,0,0,0,0,0,0,0,0,0,-1,706,379,0,0
-511,645,0,0,0,0,0,0,0,0,0,-1,713,379,0,0
-504,645,0,0,0,0,0,0,0,0,0,-1,720,379,0,0
-497,645,0,0,0,0,0,0,0,0,0,-1,727,379,0,0
-490,645,0,0,0,0,0,0,0,0,0,-1,734,379,0,0
-483,645,0,0,0,0,0,0,0,0,0,-1,741,379,0,0
-476,645,0,0,0,0,0,0,0,0,0,-1,748,379,0,0
-469,645,0,0,0,0,0,0,0,0,0,-1,755,379,0,0
-462,645,0,0,0,0,0,0,0,0,0,-1,762,379,0,0
-455,645,0,0,0,0,0,0,0,0,0,-1,769,379,0,0
-448,645,0,0,0,0,0,0,0,0,0,-1,776,379,0,0
-441,645,0,0,0,0,0,0,0,0,0,-1,783,379,0,0
-434,645,0,0,0,0,0,0,0,0,0,-1,790,379,0,0
-427,645,0,0,0,0,0,0,0,0,0,-1,797,379,0,0
-420,645,0,0,0,0,0,0,0,0,0,-1,804,379,0,0
-413,645,0,0,0,0,0,0,0,0,0,-1,811,379,0,0
-406,645,0,0,0,0,0,0,0,0,0,-1,818,379,0,0
-399,645,0,0,0,0,0,0,0,0,0,-1,825,379,0,0
-392,645,0,0,0,0,0,0,0,0,0,-1,832,379,0,0
-385,645,0,0,0,0,0,0,0,0,0,-1,839,379,0,0
-378,645,0,0,0,0,0,0,0,0,0,-1,846,379,0,0
-371,645,0,0,0,0,0,0,0,0,0,-1,853,379,0,0
-364,645,0,0,0,0,0,0,0,0,0,-1,860,379,0,0
-357,645,0,0,0,0,0,0,0,0,0,-1,867,379,0,0
-350,645,0,0,0,0,0,0,0,0,0,-1,874,379,0,0
-343,645,0,0,0,0,0,0,0,0,0,-1,881,379,0,0
-336,645,0,0,0,0,0,0,0,0,0,-1,888,379,0,0
-329,645,0,0,0,0,0,0,0,0,0,-1,895,379,0,0
-322,645,0,0,0,0,0,0,0,0,0,-1,902,379,0,0
-315,645,0,0,0,0,0,0,0,0,0,-1,909,379,0,0
-308,645,0,0,0,0,0,0,0,0,0,-1,916,379,0,0
-301,645,0,0,0,0,0,0,0,0,0,-1,923,379,0,0
-294,645,0,0,0,0,0,0,0,0,0,-1,930,379,0,0
-287,645,0,0,0,0,0,0,0,0,0,-1,937,379,0,0
-280,645,0,0,0,0,0,0,0,0,0,-1,944,379,0,0
-273,645,0,0,0,0,0,0,0,0,0,-1,951,379,0,0
-266,645,0,0,0,0,0,0,0,0,0,-1,958,379,0,0
-259,645,0,0,0,0,0,0,0,0,0,-1,965,379,0,0
-252,645,2.95691,-26.9133,0,0,0,0,0,0,0,-1,972,379,2.9569,26.9133
-245,645,2.73169,-27.0215,0,0,0,0,0,0,0,-1,979,379,2.73172,27.0215
-238,645,2.6665,-26.9464,0,0,0,0,0,0,0,-1,986,379,2.66649,26.9464
-231,645,1.89801,-26.437,0,0,0,0,0,0,0,-1,993,379,1.89804,26.437
-224,645,9.92029,-21.3227,0,0,0,0,0,0,0,-1,1000,379,9.92026,21.3227
-217,645,8.09961,-19.0991,0,0,0,0,0,0,0,-1,1007,379,8.0996,19.0991
-210,645,3.58685,-26.664,0,0,0,0,0,0,0,-1,1014,379,3.58685,26.664
-203,645,3.70166,-25.3203,0,0,0,0,0,0,0,-1,1021,379,3.70166,25.3203
-196,645,3.98962,-24.5246,0,0,0,0,0,0,0,-1,1028,379,3.98963,24.5246
-189,645,3.8988,-23.8797,0,0,0,0,0,0,0,-1,1035,379,3.89886,23.8797
-182,645,2.88086,-25.8119,0,0,0,0,0,0,0,-1,1042,379,2.88087,25.8119
-175,645,4.83813,-27.2094,0,0,0,0,0,0,0,-1,1049,379,4.83813,27.2094
-168,645,4.88171,-28.086,0,0,0,0,0,0,0,-1,1056,379,4.88167,28.086
-161,645,5.16174,-27.7799,0,0,0,0,0,0,0,-1,1063,379,5.1618,27.7799
-154,645,5.14526,-28.1335,0.00884352,0.000678283,0.00575573,0.0118175,-0.00229574,0.476924,0.00874464,0.0429192,1070,379,5.14522,28.1334
-147,645,5.14795,-28.3843,0.00936301,-0.000956281,0.00711704,0.0129939,-0.00458721,0.471754,0.0105302,0.0401352,1077,379,5.1479,28.3843
-140,645,4.66589,-28.6257,0.00966395,-0.00204264,0.00832215,0.0139851,-0.00636379,0.478916,0.01202,0.040926,1084,379,4.66586,28.6257
-133,645,4.57654,-28.903,0,0,0,0,0,0,0,-1,1091,379,4.57656,28.903
-126,645,5.01709,-29.0883,0.00889406,-0.00187578,0.0103473,0.0151738,-0.00815549,0.545474,0.0136708,0.0336883,1098,379,5.01714,29.0883
-119,645,4.98291,-29.4759,0.00818859,-0.00102978,0.0108941,0.0154084,-0.00824961,0.585272,0.0138658,0.0205416,1105,379,4.9829,29.4759
-112,645,4.92383,-29.7984,0.00728017,-1.41273e-05,0.0110978,0.0153148,-0.00804872,0.626639,0.0137046,0.0133456,1112,379,4.92384,29.7984
-105,645,4.89624,-30.0324,0.0061744,0.000997586,0.010875,0.0147648,-0.00759281,0.668565,0.0131277,0.0166773,1119,379,4.89626,30.0324
-98,645,4.84753,-30.2205,0.00487613,0.00172425,0.0102565,0.0136771,-0.00707668,0.709168,0.0121825,0.0252709,1126,379,4.84751,30.2205
-91,645,4.88794,-30.4837,0.0036409,0.00227275,0.00926399,0.012246,-0.00633239,0.748544,0.0109059,0.0370142,1133,379,4.8879,30.4837
-84,645,4.87817,-30.7811,0.0020223,0.0022875,0.00838733,0.0105433,-0.00623347,0.793302,0.00979202,0.0424186,1140,379,4.87814,30.7811
-77,645,4.79236,-31.1024,0.000272222,0.00310463,0.00719986,0.00902625,-0.0056494,0.882508,0.00854743,0.0281626,1147,379,4.7923,31.1024
-70,645,4.73914,-31.3146,-0.00170217,0.00489908,0.00394455,0.00674176,-0.00354486,1.13378,0.00603383,0.0133567,1154,379,4.73918,31.3146
-63,645,4.71838,-31.4991,-0.00412279,0.00552502,0.000369188,0.00553913,-0.0041369,1.5326,0.00560598,0.0115409,1161,379,4.71844,31.4991
-56,645,4.70117,-31.675,-0.00432496,0.00523073,-0.000144707,0.00523292,-0.00432715,-1.55566,0.00552776,0.0132303,1168,379,4.70122,31.675
-49,645,4.69653,-31.8512,-0.00391557,0.00412133,-0.00012524,0.00412328,-0.00391752,-1.55522,0.00464287,0.0115725,1175,379,4.69651,31.8512
-42,645,4.65247,-32.0144,-0.00333868,0.00370887,0.000194345,0.00371422,-0.00334404,1.54325,0.00407696,0.0113522,1182,379,4.65241,32.0144
-35,645,4.62817,-32.1978,-0.00300127,0.00375825,0.000540882,0.00380126,-0.00304427,1.49145,0.00396032,0.0110171,1189,379,4.62823,32.1978
-28,645,4.60632,-32.3847,-0.0027897,0.00388495,0.000806141,0.00398094,-0.00288568,1.45229,0.00398122,0.00878771,1196,379,4.60636,32.3847
-21,645,4.57153,-32.5041,-0.00251534,0.00388858,0.00101306,0.00404502,-0.00267177,1.41759,0.00390487,0.0102329,1203,379,4.57156,32.5041
-14,645,4.56689,-32.6168,-0.00220569,0.00381345,0.00130746,0.00408519,-0.00247742,1.36588,0.00382664,0.00995176,1210,379,4.56694,32.6168
-7,645,4.56299,-32.7429,-0.00190616,0.00385671,0.00144577,0.00419908,-0.00224853,1.33827,0.00377888,0.0136719,1217,379,4.56293,32.7429
0,645,4.5072,-32.8705,-0.00156985,0.00402037,0.00141178,0.00435668,-0.00190615,1.33694,0.00370697,0.026572,1224,379,4.50722,32.8705
7,645,4.49915,-32.8997,-0.0012283,0.00429517,0.00131576,0.00459258,-0.00152571,1.34849,0.00367735,0.0171799,1231,379,4.49919,32.8997
14,645,4.50842,-32.9618,-0.000952872,0.00472015,0.00121826,0.0049707,-0.00120342,1.36796,0.00377936,0.0167073,1238,379,4.50844,32.9618
21,645,4.47913,-33.0404,-0.000761254,0.00534494,0.00111969,0.00554378,-0.000960094,1.39504,0.00405396,0.0111497,1245,379,4.47913,33.0404
28,645,4.48267,-33.1075,-0.00054819,0.00610173,0.00102491,0.00625611,-0.000702568,1.42129,0.00442357,0.0093022,1252,379,4.48261,33.1075
35,645,4.46838,-33.1489,-0.000412829,0.00721715,0.00100662,0.00734772,-0.000543398,1.44181,0.00508929,0.00864911,1259,379,4.46837,33.1489
42,645,4.44922,-33.1954,-0.000319626,0.00821193,0.00097615,0.00832219,-0.000429889,1.45832,0.00569683,0.00862122,1266,379,4.44919,33.1954
49,645,4.46326,-33.2127,-0.00048031,0.00936553,0.000995701,0.00946522,-0.000579995,1.47101,0.00651209,0.0118544,1273,379,4.46322,33.2127
56,645,4.46033,-33.202,-0.000837254,0.0103023,0.000981523,0.0103881,-0.000923076,1.48358,0.00725272,0.0119152,1280,379,4.46033,33.202
63,645,4.44141,-33.2099,-0.00118872,0.0112346,0.000933717,0.0113044,-0.0012585,1.4962,0.00798885,0.012141,1287,379,4.44142,33.2099
70,645,4.42188,-33.1906,-0.00151394,0.0119603,0.000933484,0.0120247,-0.00157831,1.50196,0.008591,0.0155558,1294,379,4.42187,33.1905
77,645,4.41296,-33.1628,-0.00183845,0.0125021,0.00107839,0.0125827,-0.00191909,1.49616,0.00909591,0.0174183,1301,379,4.41297,33.1628
84,645,4.39832,-33.1388,-0.00224328,0.0130925,0.00111762,0.0131735,-0.0023243,1.49843,0.00965086,0.013449,1308,379,4.39829,33.1388
91,645,4.36475,-33.1143,-0.00279283,0.0134162,0.00103261,0.0134817,-0.00285835,1.50743,0.0100766,0.0154445,1315,379,4.36479,33.1143
98,645,4.35791,-33.0281,-0.0031688,0.0136118,0.000996528,0.0136708,-0.00322777,1.51169,0.0103588,0.0135336,1322,379,4.35789,33.0281
105,645,4.34888,-32.9245,-0.0033482,0.0138353,0.00102097,0.0138958,-0.00340865,1.51166,0.0105846,0.0105677,1329,379,4.34885,32.9245
112,645,4.33582,-32.841,-0.00347252,0.0139371,0.000945733,0.0139883,-0.00352374,1.51669,0.0106954,0.00880313,1336,379,4.33578,32.841
119,645,4.32959,-32.7477,-0.00344059,0.0138944,0.000869947,0.0139379,-0.00348414,1.52078,0.0106451,0.00896821,1343,379,4.32963,32.7477
126,645,4.30872,-32.6187,-0.00326456,0.0137944,0.0008125,0.013833,-0.00330317,1.52331,0.0104977,0.0119494,1350,379,4.30872,32.6187
133,645,4.30371,-32.4906,-0.00303995,0.013718,0.000811108,0.0137572,-0.00307912,1.52255,0.0103516,0.0126647,1357,379,4.30375,32.4906
140,645,4.27917,-32.3597,-0.00271496,0.0134128,0.000894925,0.0134623,-0.00276447,1.51553,0.0100243,0.0120478,1364,379,4.27923,32.3597
147,645,4.25867,-32.2232,-0.0023846,0.0135223,0.00113091,0.0136023,-0.0024646,1.50017,0.0099916,0.0128305,1371,379,4.25863,32.2232
154,645,4.26672,-32.0735,-0.00199769,0.0133112,0.00132478,0.013425,-0.00211149,1.48511,0.00973049,0.0117758,1378,379,4.26674,32.0736
161,645,4.24133,-31.913,-0.00171847,0.013251,0.00151716,0.0134032,-0.00187069,1.4708,0.00961984,0.0135026,1385,379,4.24129,31.913
168,645,4.20593,-31.7187,-0.00177537,0.0128515,0.00172908,0.0130531,-0.00197699,1.45472,0.00943041,0.0162108,1392,379,4.20588,31.7187
175,645,4.21863,-31.5258,-0.00190607,0.0120156,0.00191948,0.0122754,-0.00216587,1.43626,0.00899291,0.0144147,1399,379,4.21857,31.5259
182,645,4.19128,-31.332,-0.00195138,0.0110086,0.0020881,0.0113367,-0.00227951,1.41493,0.0084211,0.0104268,1406,379,4.19124,31.332
189,645,4.15613,-31.0964,-0.00203174,0.00999317,0.00236525,0.0104417,-0.00248024,1.3834,0.00791842,0.0112747,1413,379,4.15609,31.0964
196,645,4.10986,-30.8766,-0.00193309,0.00883186,0.00243766,0.00935813,-0.00245936,1.35817,0.00719994,0.0121199,1420,379,4.10991,30.8766
203,645,4.07935,-30.6205,-0.00230729,0.00742845,0.00264068,0.00809857,-0.00297741,1.32227,0.00661864,0.0123237,1427,379,4.0793,30.6205
210,645,4.10315,-30.3082,-0.00326008,0.00589204,0.00257109,0.00656487,-0.00393291,1.31485,0.00612406,0.0211887,1434,379,4.10319,30.3082
217,645,4.06433,-30.1167,-0.00357258,0.00596846,0.00240181,0.00653897,-0.00414309,1.33759,0.00621878,0.0353032,1441,379,4.06438,30.1167
224,645,3.97693,-30.0382,-0.00349934,0.00672883,0.00232871,0.00723407,-0.00400458,1.35715,0.00657733,0.0415994,1448,379,3.97689,30.0382
231,645,3.8999,-29.6932,-0.00339497,0.00785415,0.00256025,0.00840945,-0.00395026,1.35722,0.00728904,0.0373308,1455,379,3.89988,29.6932
238,645,3.93384,-29.2399,-0.00347697,0.0095752,0.00299774,0.0102308,-0.00413254,1.3555,0.00853817,0.0211311,1462,379,3.93385,29.2399
245,645,3.92273,-28.9659,-0.00403419,0.0114397,0.00308773,0.0120331,-0.00462758,1.38094,0.00993072,0.0152257,1469,379,3.92279,28.9659
252,645,3.94922,-28.5594,-0.00410678,0.0134607,0.00341955,0.0141028,-0.00474894,1.38517,0.0113219,0.0256776,1476,379,3.94922,28.5594
259,645,3.79883,-28.1894,-0.00410852,0.0158041,0.003897,0.0165396,-0.00484402,1.38426,0.0129467,0.0428706,1483,379,3.79887,28.1893
266,645,3.64795,-27.8854,-0.00457405,0.0180047,0.00441516,0.0188374,-0.00540671,1.3844,0.0146958,0.0305877,1490,379,3.64792,27.8854
273,645,3.75623,-27.6872,-0.0050138,0.0198985,0.00470035,0.0207558,-0.00587114,1.39038,0.0161539,0.023445,1497,379,3.75625,27.6872
280,645,3.93335,-27.1841,0,0,0,0,0,0,0,-1,1504,379,3.93339,27.1841
287,645,3.99304,-26.5762,0,0,0,0,0,0,0,-1,1511,379,3.99304,26.5762
294,645,3.30188,-26.5972,0,0,0,0,0,0,0,-1,1518,379,3.30183,26.5972
301,645,0.0322266,-20.4623,0,0,0,0,0,0,0,-1,1525,379,0.0322246,20.4623
308,645,3.44702,-25.8757,0,0,0,0,0,0,0,-1,1532,379,3.44706,25.8757
315,645,3.20813,-23.5737,0,0,0,0,0,0,0,-1,1539,379,3.20809,23.5737
322,645,2.67651,-22.614,0,0,0,0,0,0,0,-1,1546,379,2.67648,22.6139
329,645,3.30127,-25.2427,0,0,0,0,0,0,0,-1,1553,379,3.30125,25.2427
336,645,3.82068,-23.5129,0,0,0,0,0,0,0,-1,1560,379,3.82071,23.5129
343,645,4.77185,-23.7191,0,0,0,0,0,0,0,-1,1567,379,4.77184,23.7191
350,645,4.76404,-22.1987,0,0,0,0,0,0,0,-1,1574,379,4.76399,22.1987
357,645,4.61316,-21.967,0,0,0,0,0,0,0,-1,1581,379,4.61316,21.967
364,645,-0.0794678,-3.22021,0,0,0,0,0,0,0,-1,1588,379,-0.0794987,3.22021
371,645,0,0,0,0,0,0,0,0,0,-1,1595,379,0,0
378,645,0,0,0,0,0,0,0,0,0,-1,1602,379,0,0
385,645,0,0,0,0,0,0,0,0,0,-1,1609,379,0,0
392,645,0,0,0,0,0,0,0,0,0,-1,1616,379,0,0
399,645,0,0,0,0,0,0,0,0,0,-1,1623,379,0,0
406,645,0,0,0,0,0,0,0,0,0,-1,1630,379,0,0
413,645,0,0,0,0,0,0,0,0,0,-1,1637,379,0,0
420,645,0,0,0,0,0,0,0,0,0,-1,1644,379,0,0
427,645,0,0,0,0,0,0,0,0,0,-1,1651,379,0,0
434,645,0,0,0,0,0,0,0,0,0,-1,1658,379,0,0
441,645,0,0,0,0,0,0,0,0,0,-1,1665,379,0,0
448,645,0,0,0,0,0,0,0,0,0,-1,1672,379,0,0
455,645,0,0,0,0,0,0,0,0,0,-1,1679,379,0,0
462,645,0,0,0,0,0,0,0,0,0,-1,1686,379,0,0
469,645,0,0,0,0,0,0,0,0,0,-1,1693,379,0,0
476,645,0,0,0,0,0,0,0,0,0,-1,1700,379,0,0
483,645,0,0,0,0,0,0,0,0,0,-1,1707,379,0,0
490,645,0,0,0,0,0,0,0,0,0,-1,1714,379,0,0
497,645,0,0,0,0,0,0,0,0,0,-1,1721,379,0,0
504,645,0,0,0,0,0,0,0,0,0,-1,1728,379,0,0
511,645,0,0,0,0,0,0,0,0,0,-1,1735,379,0,0
518,645,0,0,0,0,0,0,0,0,0,-1,1742,379,0,0
525,645,0,0,0,0,0,0,0,0,0,-1,1749,379,0,0
532,645,0,0,0,0,0,0,0,0,0,-1,1756,379,0,0
539,645,0,0,0,0,0,0,0,0,0,-1,1763,379,0,0
546,645,0,0,0,0,0,0,0,0,0,-1,1770,379,0,0
553,645,0,0,0,0,0,0,0,0,0,-1,1777,379,0,0
560,645,0,0,0,0,0,0,0,0,0,-1,1784,379,0,0
567,645,0,0,0,0,0,0,0,0,0,-1,1791,379,0,0
574,645,0,0,0,0,0,0,0,0,0,-1,1798,379,0,0
581,645,0,0,0,0,0,0,0,0,0,-1,1805,379,0,0
588,645,0,0,0,0,0,0,0,0,0,-1,1812,379,0,0
595,645,0,0,0,0,0,0,0,0,0,-1,1819,379,0,0
602,645,0,0,0,0,0,0,0,0,0,-1,1826,379,0,0
609,645,0,0,0,0,0,0,0,0,0,-1,1833,379,0,0
616,645,0,0,0,0,0,0,0,0,0,-1,1840,379,0,0
623,645,0,0,0,0,0,0,0,0,0,-1,1847,379,0,0
630,645,0,0,0,0,0,0,0,0,0,-1,1854,379,0,0
637,645,0,0,0,0,0,0,0,0,0,-1,1861,379,0,0
644,645,0,0,0,0,0,0,0,0,0,-1,1868,379,0,0
651,645,0,0,0,0,0,0,0,0,0,-1,1875,379,0,0
658,645,0,0,0,0,0,0,0,0,0,-1,1882,379,0,0
665,645,0,0,0,0,0,0,0,0,0,-1,1889,379,0,0
672,645,0,0,0,0,0,0,0,0,0,-1,1896,379,0,0
679,645,0,0,0,0,0,0,0,0,0,-1,1903,379,0,0
686,645,0,0,0,0,0,0,0,0,0,-1,1910,379,0,0
693,645,0,0,0,0,0,0,0,0,0,-1,1917,379,0,0
700,645,0,0,0,0,0,0,0,0,0,-1,1924,379,0,0
707,645,0,0,0,0,0,0,0,0,0,-1,1931,379,0,0
714,645,0,0,0,0,0,0,0,0,0,-1,1938,379,0,0
721,645,0,0,0,0,0,0,0,0,0,-1,1945,379,0,0
728,645,0,0,0,0,0,0,0,0,0,-1,1952,379,0,0
735,645,0,0,0,0,0,0,0,0,0,-1,1959,379,0,0
742,645,0,0,0,0,0,0,0,0,0,-1,1966,379,0,0
749,645,0,0,0,0,0,0,0,0,0,-1,1973,379,0,0
756,645,0,0,0,0,0,0,0,0,0,-1,1980,379,0,0
763,645,0,0,0,0,0,0,0,0,0,-1,1987,379,0,0
770,645,0,0,0,0,0,0,0,0,0,-1,1994,379,0,0
777,645,0,0,0,0,0,0,0,0,0,-1,2001,379,0,0
784,645,0,0,0,0,0,0,0,0,0,-1,2008,379,0,0
791,645,0,0,0,0,0,0,0,0,0,-1,2015,379,0,0
798,645,0,0,0,0,0,0,0,0,0,-1,2022,379,0,0
805,645,0,0,0,0,0,0,0,0,0,-1,2029,379,0,0
812,645,0,0,0,0,0,0,0,0,0,-1,2036,379,0,0
-700,638,0,0,0,0,0,0,0,0,0,-1,524,386,0,0
-693,638,0,0,0,0,0,0,0,0,0,-1,531,386,0,0
-686,638,0,0,0,0,0,0,0,0,0,-1,538,386,0,0
-679,638,0,0,0,0,0,0,0,0,0,-1,545,386,0,0
-672,638,0,0,0,0,0,0,0,0,0,-1,552,386,0,0
-665,638,0,0,0,0,0,0,0,0,0,-1,559,386,0,0
-658,638,0,0,0,0,0,0,0,0,0,-1,566,386,0,0
-651,638,0,0,0,0,0,0,0,0,0,-1,573,386,0,0
-644,638,0,0,0,0,0,0,0,0,0,-1,580,386,0,0
-637,638,0,0,0,0,0,0,0,0,0,-1,587,386,0,0
-630,638,0,0,0,0,0,0,0,0,0,-1,594,386,0,0
-623,638,0,0,0,0,0,0,0,0,0,-1,601,386,0,0
-616,638,0,0,0,0,0,0,0,0,0,-1,608,386,0,0
-609,638,0,0,0,0,0,0,0,0,0,-1,615,386,0,0
-602,638,0,0,0,0,0,0,0,0,0,-1,622,386,0,0
-595,638,0,0,0,0,0,0,0,0,0,-1,629,386,0,0
-588,638,0,0,0,0,0,0,0,0,0,-1,636,386,0,0
-581,638,0,0,0,0,0,0,0,0,0,-1,643,386,0,0
-574,638,0,0,0,0,0,0,0,0,0,-1,650,386,0,0
-567,638,0,0,0,0,0,0,0,0,0,-1,657,386,0,0
-560,638,0,0,0,0,0,0,0,0,0,-1,664,386,0,0
-553,638,0,0,0,0,0,0,0,0,0,-1,671,386,0,0
-546,638,0,0,0,0,0,0,0,0,0,-1,678,386,0,0
-539,638,0,0,0,0,0,0,0,0,0,-1,685,386,0,0
-532,638,0,0,0,0,0,0,0,0,0,-1,692,386,0,0
-525,638,0,0,0,0,0,0,0,0,0,-1,699,386,0,0
-518,638,0,0,0,0,0,0,0,0,0,-1,706,386,0,0
-511,638,0,0,0,0,0,0,0,0,0,-1,713,386,0,0
-504,638,0,0,0,0,0,0,0,0,0,-1,720,386,0,0
-497,638,0,0,0,0,0,0,0,0,0,-1,727,386,0,0
-490,638,0,0,0,0,0,0,0,0,0,-1,734,386,0,0
-483,638,0,0,0,0,0,0,0,0,0,-1,741,386,0,0
-476,638,0,0,0,0,0,0,0,0,0,-1,748,386,0,0
-469,638,0,0,0,0,0,0,0,0,0,-1,755,386,0,0
-462,638,0,0,0,0,0,0,0,0,0,-1,762,386,0,0
-455,638,0,0,0,0,0,0,0,0,0,-1,769,386,0,0
-448,638,0,0,0,0,0,0,0,0,0,-1,776,386,0,0
-441,638,0,0,0,0,0,0,0,0,0,-1,783,386,0,0
-434,638,0,0,0,0,0,0,0,0,0,-1,790,386,0,0
-427,638,0,0,0,0,0,0,0,0,0,-1,797,386,0,0
-420,638,0,0,0,0,0,0,0,0,0,-1,804,386,0,0
-413,638,0,0,0,0,0,0,0,0,0,-1,811,386,0,0
-406,638,0,0,0,0,0,0,0,0,0,-1,818,386,0,0
-399,638,0,0,0,0,0,0,0,0,0,-1,825,386,0,0
-392,638,0,0,0,0,0,0,0,0,0,-1,832,386,0,0
-385,638,0,0,0,0,0,0,0,0,0,-1,839,386,0,0
-378,638,0,0,0,0,0,0,0,0,0,-1,846,386,0,0
-371,638,0,0,0,0,0,0,0,0,0,-1,853,386,0,0
-364,638,0,0,0,0,0,0,0,0,0,-1,860,386,0,0
-357,638,0,0,0,0,0,0,0,0,0,-1,867,386,0,0
-350,638,0,0,0,0,0,0,0,0,0,-1,874,386,0,0
-343,638,0,0,0,0,0,0,0,0,0,-1,881,386,0,0
-336,638,0,0,0,0,0,0,0,0,0,-1,888,386,0,0
-329,638,0,0,0,0,0,0,0,0,0,-1,895,386,0,0
-322,638,0,0,0,0,0,0,0,0,0,-1,902,386,0,0
-315,638,0,0,0,0,0,0,0,0,0,-1,909,386,0,0
-308,638,0,0,0,0,0,0,0,0,0,-1,916,386,0,0
-301,638,0,0,0,0,0,0,0,0,0,-1,923,386,0,0
-294,638,0,0,0,0,0,0,0,0,0,-1,930,386,0,0
-287,638,0,0,0,0,0,0,0,0,0,-1,937,386,0,0
-280,638,0,0,0,0,0,0,0,0,0,-1,944,386,0,0
-273,638,0,0,0,0,0,0,0,0,0,-1,951,386,0,0
-266,638,4.3515,-26.0477,0,0,0,0,0,0,0,-1,958,386,4.3515,26.0477
-259,638,4.19092,-26.3311,0,0,0,0,0,0,0,-1,965,386,4.19089,26.3311
-252,638,3.76526,-26.4697,0,0,0,0,0,0,0,-1,972,386,3.76525,26.4697
-245,638,3.35309,-26.4681,0,0,0,0,0,0,0,-1,979,386,3.35311,26.4681
-238,638,2.93518,-26.3649,0,0,0,0,0,0,0,-1,986,386,2.93516,26.3649
-231,638,2.36829,-26.0088,0,0,0,0,0,0,0,-1,993,386,2.3683,26.0088
-224,638,1.80823,-25.8195,0,0,0,0,0,0,0,-1,1000,386,1.8082,25.8196
-217,638,3.34961,-27.6036,0,0,0,0,0,0,0,-1,1007,386,3.3496,27.6036
-210,638,3.4826,-26.5204,0,0,0,0,0,0,0,-1,1014,386,3.48262,26.5204
-203,638,3.61267,-25.3666,0,0,0,0,0,0,0,-1,1021,386,3.61262,25.3666
-196,638,3.92346,-24.3737,0,0,0,0,0,0,0,-1,1028,386,3.92344,24.3737
-189,638,4.1333,-23.6895,0,0,0,0,0,0,0,-1,1035,386,4.13334,23.6895
-182,638,4.18262,-25.9996,0,0,0,0,0,0,0,-1,1042,386,4.18259,25.9996
-175,638,4.87952,-26.9866,0,0,0,0,0,0,0,-1,1049,386,4.87949,26.9866
-168,638,4.87964,-27.4948,0.00347018,0.00778992,-0.00151543,0.00826853,0.00299157,-1.26489,0.00483424,0.0379198,1056,386,4.87965,27.4947
-161,638,4.84412,-27.853,0.00460799,0.00474226,-6.658e-05,0.00476967,0.00458058,-1.18016,0.00311866,0.033765,1063,386,4.84406,27.853
-154,638,4.88892,-28.0877,0.00546516,0.00273606,0.00128818,0.00597715,0.00222407,0.378307,0.00348834,0.0281282,1070,386,4.88897,28.0877
-147,638,4.83362,-28.3312,0.0060223,0.00121502,0.00250762,0.00709223,0.000145092,0.403283,0.00468054,0.0231926,1077,386,4.83357,28.3312
-140,638,4.78491,-28.6713,0.00645474,0.000122678,0.00358649,0.00807271,-0.00149529,0.423792,0.00594327,0.0206315,1084,386,4.78493,28.6713
-133,638,4.76904,-29.038,0.00644562,-0.000309178,0.00459593,0.00877167,-0.00263523,0.468525,0.00689612,0.0185964,1091,386,4.76908,29.038
-126,638,4.75061,-29.3213,0.00611888,-9.15327e-05,0.0053215,0.0091749,-0.00314755,0.521291,0.00739262,0.016981,1098,386,4.75055,29.3213
-119,638,4.71826,-29.6139,0.00569607,0.000555551,0.00573383,0.00940936,-0.00315774,0.574694,0.00754894,0.0161358,1105,386,4.71831,29.6139
-112,638,4.72449,-29.8904,0.00508821,0.0013663,0.00587156,0.00938667,-0.00293215,0.631934,0.00743057,0.0143516,1112,386,4.72446,29.8904
-105,638,4.70117,-30.1652,0.00428945,0.00218536,0.00567157,0.00900572,-0.00253091,0.693693,0.00700162,0.0165025,1119,386,4.70114,30.1651
-98,638,4.65784,-30.4041,0.00333629,0.00276463,0.00523384,0.0082921,-0.00219118,0.758119,0.00638504,0.0164437,1126,386,4.6578,30.4041
-91,638,4.59924,-30.6454,0.00246558,0.00316976,0.00459349,0.00742463,-0.0017893,0.823648,0.00564158,0.0130215,1133,386,4.59924,30.6454
-84,638,4.56677,-30.875,0.00130056,0.0030967,0.00421179,0.0065051,-0.00210784,0.890439,0.00518421,0.0141711,1140,386,4.56679,30.875
-77,638,4.55554,-31.1033,7.85192e-05,0.00356789,0.00352604,0.00575728,-0.00211087,1.01514,0.00470247,0.0113496,1147,386,4.55559,31.1033
-70,638,4.53503,-31.3346,-0.00111538,0.00444277,0.00174707,0.0049463,-0.00161892,1.29019,0.00394937,0.0107162,1154,386,4.53498,31.3346
-63,638,4.51721,-31.5388,-0.00248648,0.00432821,-0.000206739,0.00433448,-0.00249275,-1.5405,0.00398922,0.0118287,1161,386,4.51726,31.5389
-56,638,4.52844,-31.7269,-0.00261283,0.003752,-0.000544777,0.00379829,-0.00265912,-1.48603,0.00374748,0.015442,1168,386,4.52841,31.7269
-49,638,4.51123,-31.891,-0.00235553,0.00287159,-0.0004549,0.00291089,-0.00239482,-1.48463,0.00306808,0.0135071,1175,386,4.51121,31.891
-42,638,4.49158,-32.0277,-0.00192452,0.00240116,-4.18951e-05,0.00240157,-0.00192492,-1.56111,0.00250295,0.0127027,1182,386,4.4916,32.0277
-35,638,4.48401,-32.2099,-0.00163547,0.00211039,0.000464898,0.00216723,-0.00169231,1.44915,0.00223392,0.0111238,1189,386,4.48395,32.2099
-28,638,4.48132,-32.386,-0.00146392,0.00183503,0.000922946,0.00207568,-0.00170458,1.31573,0.00218604,0.0102739,1196,386,4.48134,32.386
-21,638,4.45105,-32.4982,-0.00126317,0.00137451,0.00135202,0.0019444,-0.00183305,1.17189,0.00218123,0.0114833,1203,386,4.45101,32.4982
-14,638,4.43579,-32.6244,-0.00105016,0.000692118,0.00180551,0.00182566,-0.00218371,1.01017,0.00231788,0.0118013,1210,386,4.43575,32.6244
-7,638,4.45154,-32.7784,-0.000806228,0.000129619,0.00200066,0.00171635,-0.00239296,0.900275,0.00238321,0.0175801,1217,386,4.45153,32.7784
0,638,4.47363,-32.868,-0.000555518,-0.000310621,0.00196842,0.00153916,-0.0024053,0.816461,0.00229556,0.0317659,1224,386,4.47366,32.868
7,638,4.41943,-32.9326,-0.000297239,-0.000617419,0.00184466,0.00139427,-0.00230893,0.742114,0.00215967,0.0239917,1231,386,4.41942,32.9326
14,638,4.41968,-32.9875,-8.19813e-05,-0.000741166,0.00166163,0.00128243,-0.00210558,0.687492,0.00197522,0.0125054,1238,386,4.41963,32.9876
21,638,4.41077,-33.0677,8.59077e-05,-0.000596017,0.00143628,0.00122114,-0.00173125,0.668859,0.00171303,0.0110032,1245,386,4.41082,33.0677
28,638,4.42175,-33.1176,0.000292639,-0.000213397,0.00118271,0.00124909,-0.00116985,0.680021,0.00139683,0.00925793,1252,386,4.4217,33.1176
35,638,4.42993,-33.1564,0.000430654,0.00032178,0.000968041,0.00134579,-0.000593353,0.757311,0.00114731,0.010584,1259,386,4.42988,33.1564
42,638,4.43616,-33.2094,0.000473911,0.0008503,0.000695992,0.00138309,-5.88818e-05,0.917439,0.000942302,0.00976993,1266,386,4.43615,33.2094
49,638,4.44775,-33.2124,0.000270548,0.00146329,0.00050129,0.00164599,8.78495e-05,1.2213,0.00106925,0.00899016,1273,386,4.44772,33.2124
56,638,4.44409,-33.2033,-4.91848e-05,0.00202604,0.000336801,0.00207933,-0.000102478,1.41386,0.00142161,0.0118838,1280,386,4.44405,33.2033
63,638,4.44238,-33.2193,-0.000364835,0.00257989,0.000156571,0.0025882,-0.000373137,1.51783,0.00186235,0.0136315,1287,386,4.44236,33.2193
70,638,4.42456,-33.2161,-0.000694591,0.00309434,4.69987e-05,0.00309493,-0.000695174,1.55839,0.00232984,0.0176693,1294,386,4.42454,33.2161
77,638,4.4314,-33.1978,-0.00101287,0.00349482,0.000115902,0.00349779,-0.00101585,1.54511,0.00273413,0.0177702,1301,386,4.43145,33.1979
84,638,4.46948,-33.1472,-0.00135238,0.00391564,8.78847e-05,0.0039171,-0.00135384,1.55412,0.00316085,0.0132157,1308,386,4.46943,33.1472
91,638,4.46057,-33.0824,-0.0017816,0.00426664,-2.99488e-05,0.00426678,-0.00178175,-1.56584,0.00358902,0.0139146,1315,386,4.46062,33.0824
98,638,4.44189,-32.9998,-0.00209335,0.00447967,-4.74435e-06,0.00447967,-0.00209335,-1.57007,0.00387741,0.0125682,1322,386,4.44194,32.9998
105,638,4.42432,-32.9384,-0.00216117,0.00476106,6.22458e-05,0.00476162,-0.00216173,1.56181,0.00409007,0.00984226,1329,386,4.42429,32.9384
112,638,4.42688,-32.8557,-0.00214625,0.00508718,3.01651e-05,0.0050873,-0.00214638,1.56663,0.00428988,0.00961264,1336,386,4.42686,32.8557
119,638,4.43958,-32.7741,-0.00198962,0.00539885,2.65162e-05,0.00539894,-0.00198971,1.56721,0.00441462,0.0123081,1343,386,4.43959,32.7741
126,638,4.45007,-32.6614,-0.00173414,0.00571858,2.01934e-05,0.00571863,-0.0017342,1.56809,0.00450321,0.0163873,1350,386,4.45011,32.6614
133,638,4.43518,-32.5058,-0.00147174,0.00606786,4.89031e-05,0.00606818,-0.00147206,1.56431,0.00461507,0.0163356,1357,386,4.43513,32.5058
140,638,4.40125,-32.3871,-0.00117843,0.00640515,0.000138249,0.00640767,-0.00118095,1.55257,0.00471499,0.0164277,1364,386,4.4013,32.387
147,638,4.37744,-32.2555,-0.000897768,0.00687614,0.000325624,0.00688975,-0.000911384,1.52901,0.00492515,0.0178094,1371,386,4.37739,32.2555
154,638,4.39246,-32.1128,-0.000595981,0.007103,0.000487557,0.00713375,-0.000626734,1.5078,0.00497791,0.0158161,1378,386,4.39248,32.1128
161,638,4.39343,-31.9606,-0.000445806,0.00737215,0.000659384,0.00742737,-0.00050103,1.48724,0.00512676,0.0187612,1385,386,4.39344,31.9606
168,638,4.38281,-31.7482,-0.000580415,0.00745447,0.000828263,0.00753896,-0.000664907,1.46914,0.00526163,0.024122,1392,386,4.38276,31.7482
175,638,4.3916,-31.5471,-0.000780147,0.00721749,0.0010063,0.00734217,-0.00090482,1.44753,0.00522258,0.0197501,1399,386,4.39158,31.5471
182,638,4.36816,-31.3555,-0.000923352,0.00679921,0.00120193,0.00698195,-0.00110609,1.41991,0.00506376,0.0130207,1406,386,4.36822,31.3555
189,638,4.33643,-31.1255,-0.0010851,0.00640309,0.00148266,0.00668597,-0.00136798,1.38227,0.00497638,0.0110352,1413,386,4.33648,31.1255
196,638,4.31482,-30.8904,-0.00114492,0.00587972,0.0016204,0.00623548,-0.00150069,1.35467,0.00473713,0.0139975,1420,386,4.31481,30.8903
203,638,4.29651,-30.6634,-0.00148734,0.00522704,0.00184047,0.00569843,-0.00195873,1.32006,0.00459325,0.0196573,1427,386,4.29654,30.6634
210,638,4.29773,-30.4506,-0.0021543,0.00451746,0.00187907,0.00501028,-0.00264713,1.3143,0.00449064,0.0161245,1434,386,4.29767,30.4506
217,638,4.27307,-30.1755,-0.00243842,0.00474952,0.00182386,0.00518582,-0.00287472,1.33599,0.00471708,0.012297,1441,386,4.27304,30.1755
224,638,4.245,-29.8723,-0.00244462,0.00536428,0.00182605,0.00577019,-0.00285053,1.35206,0.00507143,0.0101381,1448,386,4.24502,29.8723
231,638,4.21021,-29.596,-0.00241793,0.00622522,0.00207348,0.00669691,-0.00288961,1.34712,0.00567841,0.0106852,1455,386,4.21019,29.596
238,638,4.19043,-29.3337,-0.00253117,0.00755648,0.00248572,0.00813574,-0.00311042,1.34185,0.00670557,0.0127232,1462,386,4.19046,29.3337
245,638,4.17468,-29.0302,-0.00300267,0.008972,0.0026165,0.00951875,-0.00354942,1.3648,0.00780287,0.0146748,1469,386,4.17464,29.0303
252,638,4.15137,-28.7084,-0.00310582,0.0105216,0.00292295,0.0111221,-0.00370631,1.36818,0.00891092,0.018184,1476,386,4.15135,28.7084
259,638,4.12378,-28.4269,-0.0031577,0.0123283,0.00336387,0.0130275,-0.00385684,1.36588,0.0102162,0.0181324,1483,386,4.12375,28.4269
266,638,4.04932,-28.0822,-0.00358891,0.0139911,0.00383092,0.0147897,-0.00438744,1.36529,0.0116022,0.0122483,1490,386,4.04932,28.0822
273,638,4.03601,-27.7689,-0.00396107,0.0153868,0.00408734,0.0162148,-0.00478911,1.37092,0.0127106,0.0112321,1497,386,4.03596,27.7689
280,638,4.10986,-27.3544,-0.00326618,0.0171367,0.00470732,0.0181704,-0.00429987,1.35463,0.0137725,0.0212396,1504,386,4.10989,27.3544
287,638,4.1908,-26.7728,-0.00149639,0.0185798,0.00585579,0.020163,-0.00307955,1.30675,0.0145773,0.0393811,1511,386,4.19082,26.7728
294,638,3.82043,-26.5057,-0.000175276,0.0196188,0.00671914,0.0216841,-0.00224061,1.27258,0.0152579,0.0491551,1518,386,3.82038,26.5057
301,638,3.82703,-26.0575,0,0,0,0,0,0,0,-1,1525,386,3.82697,26.0575
308,638,4.20374,-25.4857,0,0,0,0,0,0,0,-1,1532,386,4.20368,25.4858
315,638,4.28271,-25.4209,0,0,0,0,0,0,0,-1,1539,386,4.28276,25.4209
322,638,3.07825,-25.7991,0,0,0,0,0,0,0,-1,1546,386,3.07829,25.7991
329,638,3.62793,-24.937,0,0,0,0,0,0,0,-1,1553,386,3.62788,24.937
336,638,4.36206,-24.2771,0,0,0,0,0,0,0,-1,1560,386,4.36207,24.2771
343,638,4.81348,-22.8303,0,0,0,0,0,0,0,-1,1567,386,4.81344,22.8303
350,638,5.91162,-19.0222,0,0,0,0,0,0,0,-1,1574,386,5.91165,19.0222
357,638,0.387329,-3.01077,0,0,0,0,0,0,0,-1,1581,386,0.387332,3.01077
364,638,3.78149,-6.45215,0,0,0,0,0,0,0,-1,1588,386,3.78155,6.45216
371,638,4.18604,-6.71164,0,0,0,0,0,0,0,-1,1595,386,4.18598,6.71164
378,638,4.59045,-6.97113,0,0,0,0,0,0,0,-1,1602,386,4.5904,6.97112
385,638,0,0,0,0,0,0,0,0,0,-1,1609,386,0,0
392,638,0,0,0,0,0,0,0,0,0,-1,1616,386,0,0
399,638,0,0,0,0,0,0,0,0,0,-1,1623,386,0,0
406,638,0,0,0,0,0,0,0,0,0,-1,1630,386,0,0
413,638,0,0,0,0,0,0,0,0,0,-1,1637,386,0,0
420,638,0,0,0,0,0,0,0,0,0,-1,1644,386,0,0
427,638,0,0,0,0,0,0,0,0,0,-1,1651,386,0,0
434,638,0,0,0,0,0,0,0,0,0,-1,1658,386,0,0
441,638,0,0,0,0,0,0,0,0,0,-1,1665,386,0,0
448,638,0,0,0,0,0,0,0,0,0,-1,1672,386,0,0
455,638,0,0,0,0,0,0,0,0,0,-1,1679,386,0,0
462,638,0,0,0,0,0,0,0,0,0,-1,1686,386,0,0
469,638,0,0,0,0,0,0,0,0,0,-1,1693,386,0,0
476,638,0,0,0,0,0,0,0,0,0,-1,1700,386,0,0
483,638,0,0,0,0,0,0,0,0,0,-1,1707,386,0,0
490,638,0,0,0,0,0,0,0,0,0,-1,1714,386,0,0
497,638,0,0,0,0,0,0,0,0,0,-1,1721,386,0,0
504,638,0,0,0,0,0,0,0,0,0,-1,1728,386,0,0
511,638,0,0,0,0,0,0,0,0,0,-1,1735,386,0,0
518,638,0,0,0,0,0,0,0,0,0,-1,1742,386,0,0
525,638,0,0,0,0,0,0,0,0,0,-1,1749,386,0,0
532,638,0,0,0,0,0,0,0,0,0,-1,1756,386,0,0
539,638,0,0,0,0,0,0,0,0,0,-1,1763,386,0,0
546,638,0,0,0,0,0,0,0,0,0,-1,1770,386,0,0
553,638,0,0,0,0,0,0,0,0,0,-1,1777,386,0,0
560,638,0,0,0,0,0,0,0,0,0,-1,1784,386,0,0
567,638,0,0,0,0,0,0,0,0,0,-1,1791,386,0,0
574,638,0,0,0,0,0,0,0,0,0,-1,1798,386,0,0
581,638,0,0,0,0,0,0,0,0,0,-1,1805,386,0,0
588,638,0,0,0,0,0,0,0,0,0,-1,1812,386,0,0
595,638,0,0,0,0,0,0,0,0,0,-1,1819,386,0,0
602,638,0,0,0,0,0,0,0,0,0,-1,1826,386,0,0
609,638,0,0,0,0,0,0,0,0,0,-1,1833,386,0,0
616,638,0,0,0,0,0,0,0,0,0,-1,1840,386,0,0
623,638,0,0,0,0,0,0,0,0,0,-1,1847,386,0,0
630,638,0,0,0,0,0,0,0,0,0,-1,1854,386,0,0
637,638,0,0,0,0,0,0,0,0,0,-1,1861,386,0,0
644,638,0,0,0,0,0,0,0,0,0,-1,1868,386,0,0
651,638,0,0,0,0,0,0,0,0,0,-1,1875,386,0,0
658,638,0,0,0,0,0,0,0,0,0,-1,1882,386,0,0
665,638,0,0,0,0,0,0,0,0,0,-1,1889,386,0,0
672,638,0,0,0,0,0,0,0,0,0,-1,1896,386,0,0
679,638,0,0,0,0,0,0,0,0,0,-1,1903,386,0,0
686,638,0,0,0,0,0,0,0,0,0,-1,1910,386,0,0
693,638,0,0,0,0,0,0,0,0,0,-1,1917,386,0,0
700,638,0,0,0,0,0,0,0,0,0,-1,1924,386,0,0
707,638,0,0,0,0,0,0,0,0,0,-1,1931,386,0,0
714,638,0,0,0,0,0,0,0,0,0,-1,1938,386,0,0
721,638,0,0,0,0,0,0,0,0,0,-1,1945,386,0,0
728,638,0,0,0,0,0,0,0,0,0,-1,1952,386,0,0
735,638,0,0,0,0,0,0,0,0,0,-1,1959,386,0,0
742,638,0,0,0,0,0,0,0,0,0,-1,1966,386,0,0
749,638,0,0,0,0,0,0,0,0,0,-1,1973,386,0,0
756,638,0,0,0,0,0,0,0,0,0,-1,1980,386,0,0
763,638,0,0,0,0,0,0,0,0,0,-1,1987,386,0,0
770,638,0,0,0,0,0,0,0,0,0,-1,1994,386,0,0
777,638,0,0,0,0,0,0,0,0,0,-1,2001,386,0,0
784,638,0,0,0,0,0,0,0,0,0,-1,2008,386,0,0
791,638,0,0,0,0,0,0,0,0,0,-1,2015,386,0,0
798,638,0,0,0,0,0,0,0,0,0,-1,2022,386,0,0
805,638,0,0,0,0,0,0,0,0,0,-1,2029,386,0,0
812,638,0,0,0,0,0,0,0,0,0,-1,2036,386,0,0
-700,631,0,0,0,0,0,0,0,0,0,-1,524,393,0,0
-693,631,0,0,0,0,0,0,0,0,0,-1,531,393,0,0
-686,631,0,0,0,0,0,0,0,0,0,-1,538,393,0,0
-679,631,0,0,0,0,0,0,0,0,0,-1,545,393,0,0
-672,631,0,0,0,0,0,0,0,0,0,-1,552,393,0,0
-665,631,0,0,0,0,0,0,0,0,0,-1,559,393,0,0
-658,631,0,0,0,0,0,0,0,0,0,-1,566,393,0,0
-651,631,0,0,0,0,0,0,0,0,0,-1,573,393,0,0
-644,631,0,0,0,0,0,0,0,0,0,-1,580,393,0,0
-637,631,0,0,0,0,0,0,0,0,0,-1,587,393,0,0
-630,631,0,0,0,0,0,0,0,0,0,-1,594,393,0,0
-623,631,0,0,0,0,0,0,0,0,0,-1,601,393,0,0
-616,631,0,0,0,0,0,0,0,0,0,-1,608,393,0,0
-609,631,0,0,0,0,0,0,0,0,0,-1,615,393,0,0
-602,631,0,0,0,0,0,0,0,0,0,-1,622,393,0,0
-595,631,0,0,0,0,0,0,0,0,0,-1,629,393,0,0
-588,631,0,0,0,0,0,0,0,0,0,-1,636,393,0,0
-581,631,0,0,0,0,0,0,0,0,0,-1,643,393,0,0
-574,631,0,0,0,0,0,0,0,0,0,-1,650,393,0,0
-567,631,0,0,0,0,0,0,0,0,0,-1,657,393,0,0
-560,631,0,0,0,0,0,0,0,0,0,-1,664,393,0,0
-553,631,0,0,0,0,0,0,0,0,0,-1,671,393,0,0
-546,631,0,0,0,0,0,0,0,0,0,-1,678,393,0,0
-539,631,0,0,0,0,0,0,0,0,0,-1,685,393,0,0
-532,631,0,0,0,0,0,0,0,0,0,-1,692,393,0,0
-525,631,0,0,0,0,0,0,0,0,0,-1,699,393,0,0
-518,631,0,0,0,0,0,0,0,0,0,-1,706,393,0,0
-511,631,0,0,0,0,0,0,0,0,0,-1,713,393,0,0
-504,631,0,0,0,0,0,0,0,0,0,-1,720,393,0,0
-497,631,0,0,0,0,0,0,0,0,0,-1,727,393,0,0
-490,631,0,0,0,0,0,0,0,0,0,-1,734,393,0,0
-483,631,0,0,0,0,0,0,0,0,0,-1,741,393,0,0
-476,631,0,0,0,0,0,0,0,0,0,-1,748,393,0,0
-469,631,0,0,0,0,0,0,0,0,0,-1,755,393,0,0
-462,631,0,0,0,0,0,0,0,0,0,-1,762,393,0,0
-455,631,0,0,0,0,0,0,0,0,0,-1,769,393,0,0
-448,631,0,0,0,0,0,0,0,0,0,-1,776,393,0,0
-441,631,0,0,0,0,0,0,0,0,0,-1,783,393,0,0
-434,631,0,0,0,0,0,0,0,0,0,-1,790,393,0,0
-427,631,0,0,0,0,0,0,0,0,0,-1,797,393,0,0
-420,631,0,0,0,0,0,0,0,0,0,-1,804,393,0,0
-413,631,0,0,0,0,0,0,0,0,0,-1,811,393,0,0
-406,631,0,0,0,0,0,0,0,0,0,-1,818,393,0,0
-399,631,0,0,0,0,0,0,0,0,0,-1,825,393,0,0
-392,631,0,0,0,0,0,0,0,0,0,-1,832,393,0,0
-385,631,0,0,0,0,0,0,0,0,0,-1,839,393,0,0
-378,631,0,0,0,0,0,0,0,0,0,-1,846,393,0,0
-371,631,0,0,0,0,0,0,0,0,0,-1,853,393,0,0
-364,631,0,0,0,0,0,0,0,0,0,-1,860,393,0,0
-357,631,0,0,0,0,0,0,0,0,0,-1,867,393,0,0
-350,631,0,0,0,0,0,0,0,0,0,-1,874,393,0,0
-343,631,0,0,0,0,0,0,0,0,0,-1,881,393,0,0
-336,631,0,0,0,0,0,0,0,0,0,-1,888,393,0,0
-329,631,0,0,0,0,0,0,0,0,0,-1,895,393,0,0
-322,631,0,0,0,0,0,0,0,0,0,-1,902,393,0,0
-315,631,0,0,0,0,0,0,0,0,0,-1,909,393,0,0
-308,631,0,0,0,0,0,0,0,0,0,-1,916,393,0,0
-301,631,0,0,0,0,0,0,0,0,0,-1,923,393,0,0
-294,631,0,0,0,0,0,0,0,0,0,-1,930,393,0,0
-287,631,0,0,0,0,0,0,0,0,0,-1,937,393,0,0
-280,631,1.55042,-14.0146,0,0,0,0,0,0,0,-1,944,393,1.55041,14.0146
-273,631,3.38184,-23.9561,0,0,0,0,0,0,0,-1,951,393,3.38186,23.9561
-266,631,4.62512,-24.2785,0,0,0,0,0,0,0,-1,958,393,4.62511,24.2785
-259,631,4.8363,-25.6252,0,0,0,0,0,0,0,-1,965,393,4.83632,25.6252
-252,631,5.01581,-26.2312,0,0,0,0,0,0,0,-1,972,393,5.0158,26.2312
-245,631,4.06909,-25.853,0,0,0,0,0,0,0,-1,979,393,4.06911,25.853
-238,631,3.05438,-25.4099,0,0,0,0,0,0,0,-1,986,393,3.0544,25.4099
-231,631,2.14966,-25.2306,0,0,0,0,0,0,0,-1,993,393,2.14968,25.2306
-224,631,6.83575,-19.7909,0,0,0,0,0,0,0,-1,1000,393,6.83575,19.7909
-217,631,5.05188,-18.3867,0,0,0,0,0,0,0,-1,1007,393,5.0519,18.3866
-210,631,3.37842,-26.3769,0,0,0,0,0,0,0,-1,1014,393,3.37839,26.3769
-203,631,5.03845,-24.6826,0,0,0,0,0,0,0,-1,1021,393,5.0384,24.6826
-196,631,4.6698,-25.5674,0,0,0,0,0,0,0,-1,1028,393,4.66976,25.5674
-189,631,4.39111,-25.5724,0,0,0,0,0,0,0,-1,1035,393,4.3911,25.5724
-182,631,4.59875,-26.207,0,0,0,0,0,0,0,-1,1042,393,4.59881,26.207
-175,631,4.73816,-27.0526,-0.000225952,0.0113232,-0.00606949,0.0139262,-0.00282899,-1.16565,0.0103567,0.0388062,1049,393,4.73817,27.0526
-168,631,4.66003,-27.4861,0.00160893,0.0081947,-0.00399451,0.0100786,-0.000274982,-1.13011,0.00681259,0.0203368,1056,393,4.66004,27.4861
-161,631,4.58911,-27.8551,0.00292236,0.00560857,-0.0029645,0.00752004,0.0010109,-0.998097,0.00471267,0.0100325,1063,393,4.58912,27.8551
-154,631,4.57336,-28.1842,0.00379252,0.00381466,-0.00187921,0.00568283,0.00192435,-0.788343,0.00333746,0.010178,1070,393,4.5734,28.1842
-147,631,4.54578,-28.4919,0.00441888,0.00237693,-0.000901518,0.00475993,0.00203587,-0.36167,0.00275771,0.0109735,1077,393,4.54575,28.4919
-140,631,4.51599,-28.7967,0.0049523,0.00126842,-2.02747e-05,0.00495241,0.00126831,-0.00550341,0.0029705,0.00993512,1084,393,4.51604,28.7967
-133,631,4.49524,-29.0877,0.00509772,0.00070182,0.000821089,0.00524608,0.00055346,0.178759,0.00332827,0.00867252,1091,393,4.49519,29.0877
-126,631,4.47522,-29.367,0.004954,0.000738664,0.00141951,0.00538745,0.000305214,0.296359,0.00349434,0.0130764,1098,393,4.47526,29.367
-119,631,4.43457,-29.6441,0.00474052,0.00124819,0.00174132,0.00546038,0.000528327,0.392004,0.00347755,0.0156834,1105,393,4.43459,29.6441
-112,631,4.45935,-29.9169,0.00434231,0.00192175,0.00187203,0.00536121,0.000902844,0.498439,0.00331444,0.0145558,1112,393,4.45934,29.9169
-105,631,4.51758,-30.1746,0.00375283,0.0026221,0.00175306,0.00502943,0.0013455,0.629412,0.00300655,0.0194618,1119,393,4.51754,30.1746
-98,631,4.46021,-30.4146,0.00302115,0.00311834,0.00150333,0.00457386,0.00156564,0.801556,0.00268414,0.0160873,1126,393,4.46025,30.4146
-91,631,4.37793,-30.661,0.00236393,0.00344414,0.00116313,0.00418645,0.00162162,1.00276,0.00243741,0.0172115,1133,393,4.3779,30.661
-84,631,4.36829,-30.8844,0.00152741,0.00334227,0.00110647,0.00386582,0.00100386,1.12884,0.00231628,0.0164058,1140,393,4.36824,30.8844
-77,631,4.37634,-31.1172,0.000707119,0.00353465,0.000816337,0.00375341,0.00048836,1.30897,0.00235642,0.010828,1147,393,4.3764,31.1171
-70,631,4.35181,-31.3406,2.53232e-05,0.00379056,0.000158741,0.00379724,1.86425e-05,1.52874,0.0025253,0.0121196,1154,393,4.35187,31.3406
-63,631,4.33264,-31.5435,-0.000525406,0.00341196,-0.000435182,0.00345949,-0.000572932,-1.46202,0.00251911,0.0129538,1161,393,4.33265,31.5435
-56,631,4.33191,-31.7449,-0.000482089,0.00277143,-0.000304412,0.00279967,-0.000510326,-1.4783,0.00205776,0.0139546,1168,393,4.33187,31.7449
-49,631,4.33167,-31.9066,-0.000199943,0.00200032,3.64782e-05,0.00200092,-0.000200547,1.55422,0.00140557,0.0111648,1175,393,4.33171,31.9067
-42,631,4.33032,-32.0554,0.000167379,0.00121158,0.00069532,0.001559,-0.000180036,1.10743,0.00110425,0.00945809,1182,393,4.33028,32.0554
-35,631,4.32983,-32.219,0.000472959,0.000275877,0.00139473,0.00177263,-0.00102379,0.750131,0.0016337,0.0103934,1189,393,4.32986,32.219
-28,631,4.33984,-32.3786,0.000669427,-0.000724098,0.00199189,0.0020829,-0.00213757,0.61715,0.00243676,0.0130593,1196,393,4.33979,32.3786
-21,631,4.31543,-32.5067,0.000809584,-0.00192709,0.00257966,0.00236134,-0.00347885,0.541549,0.00339235,0.0116737,1203,393,4.31547,32.5067
-14,631,4.29517,-32.6338,0.000879144,-0.00345654,0.00310696,0.0024998,-0.00507719,0.480795,0.00445815,0.0140728,1210,393,4.29521,32.6338
-7,631,4.30981,-32.8043,0.000997483,-0.00473949,0.00323706,0.00245413,-0.00619614,0.422846,0.00514764,0.0215447,1217,393,4.30982,32.8043
0,631,4.3429,-32.8874,0.00104541,-0.00585678,0.00308449,0.00222294,-0.00703431,0.364682,0.00558011,0.0232756,1224,393,4.34291,32.8874
7,631,4.34363,-32.9387,0.00106679,-0.00681839,0.00283775,0.00198186,-0.00773346,0.311935,0.00592774,0.018766,1231,393,4.34366,32.9387
14,631,4.35461,-33.0284,0.00101083,-0.00762633,0.00248527,0.00167489,-0.0082904,0.261099,0.00616158,0.01071,1238,393,4.35459,33.0284
21,631,4.36877,-33.1003,0.000948104,-0.00811175,0.0020449,0.00138827,-0.00855192,0.212017,0.00621593,0.0131146,1245,393,4.3688,33.1003
28,631,4.37756,-33.1172,0.000937985,-0.00826048,0.00154324,0.00118999,-0.00851249,0.161869,0.00611041,0.0150372,1252,393,4.37754,33.1173
35,631,4.40442,-33.1474,0.000829778,-0.00822379,0.00105118,0.000950225,-0.00834424,0.114085,0.0059051,0.0135827,1259,393,4.40442,33.1474
42,631,4.44763,-33.1919,0.000527743,-0.00818295,0.000404004,0.000546441,-0.00820165,0.0462478,0.00565871,0.0124543,1266,393,4.44761,33.1919
49,631,4.43713,-33.2207,2.16429e-05,-0.00805429,-0.000130516,2.3752e-05,-0.0080564,-0.0161555,0.00537887,0.0118404,1273,393,4.43717,33.2207
56,631,4.45129,-33.2391,-0.000418036,-0.00769276,-0.000528971,-0.000379774,-0.00773103,-0.0722073,0.0050322,0.0133974,1280,393,4.45128,33.2391
63,631,4.44604,-33.2548,-0.000854963,-0.00729734,-0.000962672,-0.000714189,-0.00743811,-0.145204,0.00473865,0.0150815,1287,393,4.44609,33.2548
70,631,4.44543,-33.2238,-0.00131159,-0.00675893,-0.00125107,-0.001038,-0.00703252,-0.215294,0.00438351,0.0155083,1294,393,4.44549,33.2238
77,631,4.45801,-33.2006,-0.00168846,-0.00624964,-0.00134211,-0.00132285,-0.00661525,-0.265956,0.00404203,0.0154915,1301,393,4.45802,33.2006
84,631,4.48987,-33.159,-0.00197804,-0.00570201,-0.00152494,-0.00143328,-0.00624677,-0.343105,0.00377848,0.0127775,1308,393,4.48992,33.159
91,631,4.51965,-33.0866,-0.00226606,-0.00504796,-0.00173464,-0.00143356,-0.00588045,-0.447459,0.00354055,0.0148606,1315,393,4.51964,33.0866
98,631,4.53101,-33.0132,-0.00249492,-0.00461803,-0.00166083,-0.00158537,-0.00552758,-0.501035,0.00328663,0.0127817,1322,393,4.53101,33.0132
105,631,4.49829,-32.9491,-0.00236946,-0.0040703,-0.00153922,-0.00146136,-0.0049784,-0.533018,0.00295483,0.0108586,1329,393,4.49835,32.9491
112,631,4.51208,-32.8642,-0.00206265,-0.00331059,-0.00150617,-0.00105633,-0.00431692,-0.589022,0.00259842,0.011931,1336,393,4.51212,32.8642
119,631,4.53381,-32.8,-0.00156369,-0.00238828,-0.00139446,-0.000521845,-0.00343012,-0.641659,0.00213417,0.0134356,1343,393,4.53386,32.8
126,631,4.54761,-32.6784,-0.00102502,-0.00148212,-0.00127171,3.85178e-05,-0.00254566,-0.696487,0.00171009,0.0179756,1350,393,4.54755,32.6784
133,631,4.54163,-32.5265,-0.000526339,-0.000615171,-0.00113645,0.000566566,-0.00170808,-0.765866,0.00136728,0.0186977,1357,393,4.54165,32.5265
140,631,4.54089,-32.3984,-3.27178e-05,0.000270393,-0.000977954,0.00110847,-0.00087079,-0.862273,0.00114547,0.0192473,1364,393,4.54084,32.3984
147,631,4.50073,-32.2054,0.000379064,0.00113323,-0.000778166,0.00162086,-0.000108569,-1.01102,0.00111852,0.0219751,1371,393,4.50072,32.2054
154,631,4.51477,-32.0443,0.000744329,0.00181067,-0.000582706,0.00206732,0.000487679,-1.15592,0.00124783,0.0207022,1378,393,4.51474,32.0443
161,631,4.54785,-31.9188,0.000835311,0.00230061,-0.000380682,0.00239361,0.000742313,-1.3312,0.00141478,0.0228564,1385,393,4.54791,31.9188
168,631,4.56897,-31.7172,0.000676467,0.00273012,-0.000202201,0.00274984,0.000656748,-1.47358,0.00165824,0.0282143,1392,393,4.569,31.7172
175,631,4.57251,-31.5538,0.00043799,0.00299567,1.31823e-05,0.00299574,0.000437922,1.56564,0.00186837,0.0212655,1399,393,4.57247,31.5538
182,631,4.56702,-31.3627,0.00021803,0.00312953,0.000238671,0.00314897,0.000198594,1.48954,0.00203635,0.011315,1406,393,4.56697,31.3627
189,631,4.56519,-31.1275,-1.18009e-05,0.00331096,0.000549601,0.00339951,-0.000100348,1.41106,0.00230052,0.0103733,1413,393,4.56523,31.1275
196,631,4.54492,-30.9038,-0.000163724,0.003362,0.000817597,0.00354237,-0.000344093,1.35367,0.00248423,0.0107915,1420,393,4.54488,30.9038
203,631,4.54675,-30.6744,-0.000474658,0.00335365,0.00109181,0.00364314,-0.000764145,1.31162,0.0027195,0.0125091,1427,393,4.5468,30.6745
210,631,4.55273,-30.4583,-0.000986559,0.00328348,0.00126804,0.00363165,-0.00133473,1.30283,0.0029678,0.0145277,1434,393,4.55276,30.4583
217,631,4.53687,-30.2298,-0.00125701,0.00365834,0.00134607,0.00400282,-0.00160149,1.32026,0.00333319,0.0163439,1441,393,4.53684,30.2298
224,631,4.49646,-29.9326,-0.00133808,0.00419076,0.00143728,0.00454207,-0.00168939,1.33107,0.00372128,0.0130623,1448,393,4.49643,29.9326
231,631,4.47485,-29.6447,-0.00138806,0.00487137,0.00170914,0.00530764,-0.00182434,1.32087,0.00427822,0.0105824,1455,393,4.47488,29.6447
238,631,4.44458,-29.3431,-0.00152393,0.00589801,0.00208937,0.00644577,-0.00207169,1.3144,0.00512915,0.0175736,1462,393,4.44455,29.3431
245,631,4.43457,-29.0454,-0.00191138,0.00697838,0.00223834,0.00751015,-0.00244315,1.33754,0.00598962,0.0190207,1469,393,4.43452,29.0454
252,631,4.39722,-28.7692,-0.00204257,0.00817257,0.0024959,0.00874978,-0.00261979,1.34353,0.0068749,0.0173225,1476,393,4.39723,28.7692
259,631,4.37158,-28.449,-0.00214664,0.00956028,0.0028682,0.0102252,-0.00281158,1.34299,0.0079221,0.0126061,1483,393,4.37161,28.449
266,631,4.38123,-28.1414,-0.00254829,0.0108166,0.00325464,0.011567,-0.00329873,1.34418,0.0090144,0.0117538,1490,393,4.38122,28.1414
273,631,4.34241,-27.8122,-0.00288275,0.0118504,0.00346007,0.0126225,-0.00365488,1.35124,0.00986172,0.0145832,1497,393,4.34236,27.8122
280,631,4.32898,-27.4625,-0.00237394,0.0131308,0.00395886,0.0140831,-0.00332627,1.33472,0.0106717,0.012377,1504,393,4.32895,27.4625
287,631,4.32397,-27.0763,-0.00102678,0.0142713,0.00491961,0.0157168,-0.00247227,1.28502,0.0113917,0.0132492,1511,393,4.32398,27.0763
294,631,4.26233,-26.6606,-6.18691e-05,0.0150933,0.00562239,0.0169514,-0.00191991,1.25162,0.0119922,0.0166266,1518,393,4.26229,26.6606
301,631,4.19153,-26.2194,0.00141143,0.0157193,0.00642052,0.0181779,-0.00104723,1.20509,0.0124823,0.0239929,1525,393,4.19158,26.2194
308,631,4.38965,-25.7181,0.0035977,0.0162136,0.00735869,0.019598,0.00021336,1.13973,0.0129948,0.0336608,1532,393,4.38964,25.7181
315,631,4.43994,-25.4959,0.00655926,0.0164032,0.00856247,0.0213575,0.00160491,1.04625,0.0137347,0.042754,1539,393,4.43995,25.4959
322,631,3.90369,-25.3566,0.0100466,0.0165264,0.0100278,0.0238247,0.00274831,0.941649,0.0150509,0.0475592,1546,393,3.90365,25.3566
329,631,4.13293,-24.7544,0.0138339,0.0166433,0.0114491,0.0267735,0.00370363,0.846438,0.0167515,0.0463054,1553,393,4.13298,24.7544
336,631,4.68835,-24.1622,0.0177723,0.0164033,0.0125831,0.0296895,0.00448612,0.758225,0.01848,0.0437922,1560,393,4.6884,24.1622
343,631,4.97815,-23.6548,0,0,0,0,0,0,0,-1,1567,393,4.97813,23.6548
350,631,2.1344,-9.23401,0,0,0,0,0,0,0,-1,1574,393,2.13439,9.23401
357,631,2.6449,-9.60303,0,0,0,0,0,0,0,-1,1581,393,2.64491,9.60304
364,631,3.39136,-5.7594,0,0,0,0,0,0,0,-1,1588,393,3.39137,5.75939
371,631,3.72839,-6.0574,0,0,0,0,0,0,0,-1,1595,393,3.72845,6.05742
378,631,4.06555,-6.35544,0,0,0,0,0,0,0,-1,1602,393,4.06553,6.35544
385,631,3.90442,-3.58298,0,0,0,0,0,0,0,-1,1609,393,3.90437,3.58299
392,631,0.352295,-2.21301,0,0,0,0,0,0,0,-1,1616,393,0.352345,2.213
399,631,0,0,0,0,0,0,0,0,0,-1,1623,393,0,0
406,631,0,0,0,0,0,0,0,0,0,-1,1630,393,0,0
413,631,0,0,0,0,0,0,0,0,0,-1,1637,393,0,0
420,631,0,0,0,0,0,0,0,0,0,-1,1644,393,0,0
427,631,0,0,0,0,0,0,0,0,0,-1,1651,393,0,0
434,631,0,0,0,0,0,0,0,0,0,-1,1658,393,0,0
441,631,0,0,0,0,0,0,0,0,0,-1,1665,393,0,0
448,631,0,0,0,0,0,0,0,0,0,-1,1672,393,0,0
455,631,0,0,0,0,0,0,0,0,0,-1,1679,393,0,0
462,631,0,0,0,0,0,0,0,0,0,-1,1686,393,0,0
469,631,0,0,0,0,0,0,0,0,0,-1,1693,393,0,0
476,631,0,0,0,0,0,0,0,0,0,-1,1700,393,0,0
483,631,0,0,0,0,0,0,0,0,0,-1,1707,393,0,0
490,631,0,0,0,0,0,0,0,0,0,-1,1714,393,0,0
497,631,0,0,0,0,0,0,0,0,0,-1,1721,393,0,0
504,631,0,0,0,0,0,0,0,0,0,-1,1728,393,0,0
511,631,0,0,0,0,0,0,0,0,0,-1,1735,393,0,0
518,631,0,0,0,0,0,0,0,0,0,-1,1742,393,0,0
525,631,0,0,0,0,0,0,0,0,0,-1,1749,393,0,0
532,631,0,0,0,0,0,0,0,0,0,-1,1756,393,0,0
539,631,0,0,0,0,0,0,0,0,0,-1,1763,393,0,0
546,631,0,0,0,0,0,0,0,0,0,-1,1770,393,0,0
553,631,0,0,0,0,0,0,0,0,0,-1,1777,393,0,0
560,631,0,0,0,0,0,0,0,0,0,-1,1784,393,0,0
567,631,0,0,0,0,0,0,0,0,0,-1,1791,393,0,0
574,631,0,0,0,0,0,0,0,0,0,-1,1798,393,0,0
581,631,0,0,0,0,0,0,0,0,0,-1,1805,393,0,0
588,631,0,0,0,0,0,0,0,0,0,-1,1812,393,0,0
595,631,0,0,0,0,0,0,0,0,0,-1,1819,393,0,0
602,631,0,0,0,0,0,0,0,0,0,-1,1826,393,0,0
609,631,0,0,0,0,0,0,0,0,0,-1,1833,393,0,0
616,631,0,0,0,0,0,0,0,0,0,-1,1840,393,0,0
623,631,0,0,0,0,0,0,0,0,0,-1,1847,393,0,0
630,631,0,0,0,0,0,0,0,0,0,-1,1854,393,0,0
637,631,0,0,0,0,0,0,0,0,0,-1,1861,393,0,0
644,631,0,0,0,0,0,0,0,0,0,-1,1868,393,0,0
651,631,0,0,0,0,0,0,0,0,0,-1,1875,393,0,0
658,631,0,0,0,0,0,0,0,0,0,-1,1882,393,0,0
665,631,0,0,0,0,0,0,0,0,0,-1,1889,393,0,0
672,631,0,0,0,0,0,0,0,0,0,-1,1896,393,0,0
679,631,0,0,0,0,0,0,0,0,0,-1,1903,393,0,0
686,631,0,0,0,0,0,0,0,0,0,-1,1910,393,0,0
693,631,0,0,0,0,0,0,0,0,0,-1,1917,393,0,0
700,631,0,0,0,0,0,0,0,0,0,-1,1924,393,0,0
707,631,0,0,0,0,0,0,0,0,0,-1,1931,393,0,0
714,631,0,0,0,0,0,0,0,0,0,-1,1938,393,0,0
721,631,0,0,0,0,0,0,0,0,0,-1,1945,393,0,0
728,631,0,0,0,0,0,0,0,0,0,-1,1952,393,0,0
735,631,0,0,0,0,0,0,0,0,0,-1,1959,393,0,0
742,631,0,0,0,0,0,0,0,0,0,-1,1966,393,0,0
749,631,0,0,0,0,0,0,0,0,0,-1,1973,393,0,0
756,631,0,0,0,0,0,0,0,0,0,-1,1980,393,0,0
763,631,0,0,0,0,0,0,0,0,0,-1,1987,393,0,0
770,631,0,0,0,0,0,0,0,0,0,-1,1994,393,0,0
777,631,0,0,0,0,0,0,0,0,0,-1,2001,393,0,0
784,631,0,0,0,0,0,0,0,0,0,-1,2008,393,0,0
791,631,0,0,0,0,0,0,0,0,0,-1,2015,393,0,0
798,631,0,0,0,0,0,0,0,0,0,-1,2022,393,0,0
805,631,0,0,0,0,0,0,0,0,0,-1,2029,393,0,0
812,631,0,0,0,0,0,0,0,0,0,-1,2036,393,0,0
-700,624,0,0,0,0,0,0,0,0,0,-1,524,400,0,0
-693,624,0,0,0,0,0,0,0,0,0,-1,531,400,0,0
-686,624,0,0,0,0,0,0,0,0,0,-1,538,400,0,0
-679,624,0,0,0,0,0,0,0,0,0,-1,545,400,0,0
-672,624,0,0,0,0,0,0,0,0,0,-1,552,400,0,0
-665,624,0,0,0,0,0,0,0,0,0,-1,559,400,0,0
-658,624,0,0,0,0,0,0,0,0,0,-1,566,400,0,0
-651,624,0,0,0,0,0,0,0,0,0,-1,573,400,0,0
-644,624,0,0,0,0,0,0,0,0,0,-1,580,400,0,0
-637,624,0,0,0,0,0,0,0,0,0,-1,587,400,0,0
-630,624,0,0,0,0,0,0,0,0,0,-1,594,400,0,0
-623,624,0,0,0,0,0,0,0,0,0,-1,601,400,0,0
-616,624,0,0,0,0,0,0,0,0,0,-1,608,400,0,0
-609,624,0,0,0,0,0,0,0,0,0,-1,615,400,0,0
-602,624,0,0,0,0,0,0,0,0,0,-1,622,400,0,0
-595,624,0,0,0,0,0,0,0,0,0,-1,629,400,0,0
-588,624,0,0,0,0,0,0,0,0,0,-1,636,400,0,0
-581,624,0,0,0,0,0,0,0,0,0,-1,643,400,0,0
-574,624,0,0,0,0,0,0,0,0,0,-1,650,400,0,0
-567,624,0,0,0,0,0,0,0,0,0,-1,657,400,0,0
-560,624,0,0,0,0,0,0,0,0,0,-1,664,400,0,0
-553,624,0,0,0,0,0,0,0,0,0,-1,671,400,0,0
-546,624,0,0,0,0,0,0,0,0,0,-1,678,400,0,0
-539,624,0,0,0,0,0,0,0,0,0,-1,685,400,0,0
-532,624,0,0,0,0,0,0,0,0,0,-1,692,400,0,0
-525,624,0,0,0,0,0,0,0,0,0,-1,699,400,0,0
-518,624,0,0,0,0,0,0,0,0,0,-1,706,400,0,0
-511,624,0,0,0,0,0,0,0,0,0,-1,713,400,0,0
-504,624,0,0,0,0,0,0,0,0,0,-1,720,400,0,0
-497,624,0,0,0,0,0,0,0,0,0,-1,727,400,0,0
-490,624,0,0,0,0,0,0,0,0,0,-1,734,400,0,0
-483,624,0,0,0,0,0,0,0,0,0,-1,741,400,0,0
-476,624,0,0,0,0,0,0,0,0,0,-1,748,400,0,0
-469,624,0,0,0,0,0,0,0,0,0,-1,755,400,0,0
-462,624,0,0,0,0,0,0,0,0,0,-1,762,400,0,0
-455,624,0,0,0,0,0,0,0,0,0,-1,769,400,0,0
-448,624,0,0,0,0,0,0,0,0,0,-1,776,400,0,0
-441,624,0,0,0,0,0,0,0,0,0,-1,783,400,0,0
-434,624,0,0,0,0,0,0,0,0,0,-1,790,400,0,0
-427,624,0,0,0,0,0,0,0,0,0,-1,797,400,0,0
-420,624,0,0,0,0,0,0,0,0,0,-1,804,400,0,0
-413,624,0,0,0,0,0,0,0,0,0,-1,811,400,0,0
-406,624,0,0,0,0,0,0,0,0,0,-1,818,400,0,0
-399,624,0,0,0,0,0,0,0,0,0,-1,825,400,0,0
-392,624,0,0,0,0,0,0,0,0,0,-1,832,400,0,0
-385,624,0,0,0,0,0,0,0,0,0,-1,839,400,0,0
-378,624,0,0,0,0,0,0,0,0,0,-1,846,400,0,0
-371,624,0,0,0,0,0,0,0,0,0,-1,853,400,0,0
-364,624,0,0,0,0,0,0,0,0,0,-1,860,400,0,0
-357,624,0,0,0,0,0,0,0,0,0,-1,867,400,0,0
-350,624,0,0,0,0,0,0,0,0,0,-1,874,400,0,0
-343,624,0,0,0,0,0,0,0,0,0,-1,881,400,0,0
-336,624,0,0,0,0,0,0,0,0,0,-1,888,400,0,0
-329,624,0,0,0,0,0,0,0,0,0,-1,895,400,0,0
-322,624,0,0,0,0,0,0,0,0,0,-1,902,400,0,0
-315,624,0,0,0,0,0,0,0,0,0,-1,909,400,0,0
-308,624,0,0,0,0,0,0,0,0,0,-1,916,400,0,0
-301,624,0,0,0,0,0,0,0,0,0,-1,923,400,0,0
-294,624,10.6271,-28.4093,0,0,0,0,0,0,0,-1,930,400,10.6271,28.4093
-287,624,0.12146,-15.0862,0,0,0,0,0,0,0,-1,937,400,0.121451,15.0862
-280,624,1.51831,-12.2324,0,0,0,0,0,0,0,-1,944,400,1.51834,12.2324
-273,624,5.91284,-26.7006,0,0,0,0,0,0,0,-1,951,400,5.91285,26.7006
-266,624,4.78094,-22.7993,0,0,0,0,0,0,0,-1,958,400,4.78096,22.7993
-259,624,4.19537,-21.6596,0,0,0,0,0,0,0,-1,965,400,4.19537,21.6596
-252,624,5.96722,-26.0497,0,0,0,0,0,0,0,-1,972,400,5.96722,26.0497
-245,624,4.72278,-25.3516,0,0,0,0,0,0,0,-1,979,400,4.72279,25.3516
-238,624,4.08038,-25.0565,0,0,0,0,0,0,0,-1,986,400,4.0804,25.0565
-231,624,4.95148,-20.7456,0,0,0,0,0,0,0,-1,993,400,4.95146,20.7456
-224,624,3.2287,-22.9566,0,0,0,0,0,0,0,-1,1000,400,3.22873,22.9566
-217,624,5.12372,-24.6284,0,0,0,0,0,0,0,-1,1007,400,5.12369,24.6284
-210,624,4.6156,-25.2693,0,0,0,0,0,0,0,-1,1014,400,4.61558,25.2693
-203,624,4.51392,-25.609,0,0,0,0,0,0,0,-1,1021,400,4.51386,25.609
-196,624,4.42896,-25.8213,-0.00612792,0.0197933,-0.00648562,0.0213254,-0.00766009,-1.33881,0.0173437,0.0419997,1028,400,4.42901,25.8213
-189,624,4.23596,-26.0656,-0.00444132,0.0172431,-0.00698143,0.0192963,-0.00649461,-1.28475,0.0154898,0.0373493,1035,400,4.23597,26.0656
-182,624,4.35059,-26.5742,-0.00259689,0.0137135,-0.00662244,0.0160637,-0.00494712,-1.22977,0.012684,0.0328455,1042,400,4.3506,26.5742
-175,624,4.45313,-27.1485,-0.00110291,0.0102787,-0.00568648,0.0126328,-0.00345707,-1.17829,0.00978008,0.0218585,1049,400,4.45316,27.1485
-168,624,4.35913,-27.5351,0.000107234,0.00777655,-0.00459301,0.00992524,-0.00204145,-1.13323,0.00739188,0.0141465,1056,400,4.35917,27.5351
-161,624,4.3092,-27.8857,0.00101047,0.00557494,-0.00390668,0.00781716,-0.00123175,-1.04975,0.00566683,0.0103686,1063,400,4.30925,27.8857
-154,624,4.28442,-28.185,0.00169779,0.00394589,-0.00310947,0.00612824,-0.000484559,-0.958836,0.00425622,0.00980802,1070,400,4.28436,28.185
-147,624,4.26929,-28.5084,0.00219397,0.00257172,-0.00239769,0.00478797,-2.22772e-05,-0.824703,0.00319943,0.0116356,1077,400,4.26934,28.5084
-140,624,4.24719,-28.8144,0.00264275,0.00144292,-0.00174167,0.00388493,0.000200733,-0.619538,0.0025257,0.0106979,1084,400,4.24725,28.8144
-133,624,4.23169,-29.109,0.00279645,0.000746014,-0.00108687,0.00326534,0.000277125,-0.407289,0.00209065,0.0113664,1091,400,4.23163,29.109
-126,624,4.20044,-29.3717,0.00274176,0.000606835,-0.000619896,0.0029087,0.000439896,-0.263061,0.0018104,0.0131608,1098,400,4.2004,29.3717
-119,624,4.16968,-29.6479,0.00268702,0.000984081,-0.000385356,0.00277017,0.000900938,-0.212497,0.0016316,0.0151601,1105,400,4.16971,29.6479
-112,624,4.17041,-29.9039,0.00249905,0.00152156,-0.00025805,0.00256299,0.00145762,-0.242893,0.00148439,0.0175665,1112,400,4.17035,29.9039
-105,624,4.21838,-30.1667,0.0021907,0.00211247,-0.00030692,0.00246099,0.00184218,-0.722014,0.00147821,0.0130831,1119,400,4.2184,30.1667
-98,624,4.17896,-30.4129,0.00181068,0.00254216,-0.000427334,0.00273889,0.00161394,-1.13934,0.00158968,0.0127875,1126,400,4.17897,30.4129
-91,624,4.16382,-30.665,0.00152933,0.00283282,-0.000585736,0.00305735,0.0013048,-1.20474,0.00177146,0.0178902,1133,400,4.16377,30.665
-84,624,4.17346,-30.9065,0.00123286,0.00278037,-0.000538225,0.00294915,0.00106407,-1.26691,0.00172455,0.0169186,1140,400,4.17344,30.9065
-77,624,4.19202,-31.1385,0.00101386,0.00278956,-0.000615601,0.0029821,0.000821318,-1.26767,0.00177867,0.0129342,1147,400,4.19197,31.1385
-70,624,4.18835,-31.3246,0.000990661,0.00271893,-0.000709366,0.0029728,0.000736793,-1.22712,0.00178762,0.014226,1154,400,4.18841,31.3246
-63,624,4.17029,-31.5212,0.00159656,0.00241385,8.52263e-06,0.00241393,0.00159647,1.56037,0.00141767,0.0156238,1161,400,4.17024,31.5212
-56,624,4.15186,-31.7347,0.00251257,0.00172383,0.00102004,0.00321182,0.00102458,0.600937,0.00189441,0.0127339,1168,400,4.15188,31.7347
-49,624,4.17456,-31.9204,0.00319727,0.000887342,0.00192395,0.0042863,-0.00020169,0.515075,0.00292708,0.00994016,1175,400,4.17455,31.9204
-42,624,4.17688,-32.0747,0.00416003,-0.000507891,0.0031449,0.00574242,-0.00209027,0.466171,0.0046832,0.00975094,1182,400,4.17684,32.0747
-35,624,4.18933,-32.2278,0.00488601,-0.00229881,0.00408911,0.0067366,-0.0041494,0.424984,0.00634392,0.014779,1189,400,4.18929,32.2278
-28,624,4.18616,-32.3977,0.00518322,-0.00417538,0.00479163,0.00720135,-0.00619351,0.398629,0.00774082,0.0195467,1196,400,4.18611,32.3977
-21,624,4.17944,-32.5208,0.00541707,-0.00615972,0.00545745,0.00758413,-0.00832678,0.377989,0.0091895,0.0143353,1203,400,4.17941,32.5208
-14,624,4.19226,-32.6283,0.00532137,-0.00858732,0.00592403,0.00750251,-0.0107685,0.352783,0.0106048,0.0149206,1210,400,4.19227,32.6283
-7,624,4.20837,-32.7524,0.00514982,-0.0105874,0.00577709,0.00704287,-0.0124804,0.316655,0.0114166,0.018413,1217,400,4.20832,32.7524
0,624,4.24341,-32.8468,0.00467322,-0.0124137,0.0052532,0.00615905,-0.0138996,0.275644,0.0118648,0.0187553,1224,400,4.24344,32.8468
7,624,4.23853,-32.9296,0.00401012,-0.0141291,0.00461196,0.00511539,-0.0152343,0.235216,0.0122235,0.0143238,1231,400,4.23856,32.9296
14,624,4.29175,-33.0497,0.00316926,-0.0157283,0.00381723,0.0039112,-0.0164703,0.191971,0.0124897,0.0121247,1238,400,4.2918,33.0497
21,624,4.31726,-33.1016,0.00235546,-0.0169785,0.0028835,0.00277634,-0.0173993,0.144941,0.0126272,0.0134145,1245,400,4.31724,33.1016
28,624,4.31543,-33.1381,0.00160525,-0.0178307,0.00188758,0.00178687,-0.0180123,0.0959234,0.012646,0.0124829,1252,400,4.31547,33.1381
35,624,4.3313,-33.1622,0.0007952,-0.0184642,0.000895664,0.000836764,-0.0185057,0.0463719,0.0126253,0.0147155,1259,400,4.33126,33.1622
42,624,4.37781,-33.205,-0.000249753,-0.0190279,-0.000309336,-0.000244658,-0.0190329,-0.0164673,0.0126079,0.0169176,1266,400,4.37785,33.205
49,624,4.42834,-33.2118,-0.00144486,-0.0194083,-0.00130906,-0.00134997,-0.0195032,-0.0723637,0.0125763,0.0187661,1273,400,4.42833,33.2118
56,624,4.44946,-33.2544,-0.00221575,-0.0192022,-0.00204721,-0.0019725,-0.0194454,-0.118264,0.0123587,0.018677,1280,400,4.44945,33.2544
63,624,4.48047,-33.2403,-0.00321961,-0.0189506,-0.00288344,-0.00270774,-0.0194625,-0.17569,0.0121732,0.0146834,1287,400,4.48046,33.2403
70,624,4.47888,-33.2309,-0.00400666,-0.0183444,-0.00342545,-0.00323031,-0.0191207,-0.222875,0.0118184,0.0136786,1294,400,4.47887,33.2309
77,624,4.49634,-33.1984,-0.00439904,-0.0176378,-0.00372507,-0.00342287,-0.018614,-0.256291,0.0114403,0.0140978,1301,400,4.49637,33.1984
84,624,4.52295,-33.1691,-0.00483237,-0.0168559,-0.00410378,-0.00356524,-0.0181231,-0.299484,0.0110864,0.0125217,1308,400,4.52292,33.1691
91,624,4.55737,-33.0883,-0.00510739,-0.0157352,-0.00448615,-0.00346693,-0.0173756,-0.350567,0.0106185,0.0126672,1315,400,4.55733,33.0883
98,624,4.58386,-33.0301,-0.00536511,-0.0148983,-0.00443645,-0.00361999,-0.0166435,-0.374769,0.0101074,0.0127693,1322,400,4.58382,33.03
105,624,4.59094,-32.9954,-0.00514875,-0.0138584,-0.00430739,-0.00337838,-0.0156288,-0.38996,0.00949556,0.0142317,1329,400,4.59098,32.9954
112,624,4.60779,-32.9298,-0.00457528,-0.0124493,-0.00420443,-0.00275232,-0.0142723,-0.409116,0.00874304,0.0148175,1336,400,4.60779,32.9298
119,624,4.62354,-32.8475,-0.00369353,-0.0107638,-0.00394488,-0.00193157,-0.0125258,-0.420061,0.00778692,0.0155303,1343,400,4.62353,32.8475
126,624,4.6333,-32.691,-0.00271293,-0.00911704,-0.0035841,-0.00110885,-0.0107211,-0.420818,0.00680796,0.0190237,1350,400,4.63324,32.691
133,624,4.67383,-32.5323,-0.00167372,-0.00755219,-0.00322078,-0.000252614,-0.00897329,-0.415536,0.00589979,0.0192953,1357,400,4.67381,32.5323
140,624,4.69019,-32.388,-0.000594998,-0.00593955,-0.00283788,0.000630752,-0.0071653,-0.407722,0.00500039,0.0184134,1364,400,4.69017,32.388
147,624,4.67261,-32.1955,0.000350847,-0.00458921,-0.00247597,0.00137817,-0.00561654,-0.3933,0.00427839,0.0229661,1371,400,4.67266,32.1955
154,624,4.73694,-32.0826,0.0013077,-0.00332785,-0.00208226,0.00210567,-0.00412582,-0.365962,0.00366023,0.0258001,1378,400,4.73692,32.0826
161,624,4.77222,-31.9383,0.00173992,-0.00255874,-0.00169957,0.00233069,-0.00314951,-0.334537,0.00317575,0.023582,1385,400,4.77226,31.9383
168,624,4.77405,-31.726,0.00183068,-0.00170688,-0.0014137,0.00232621,-0.00220242,-0.337142,0.00261493,0.0237028,1392,400,4.77401,31.726
175,624,4.79688,-31.5548,0.00173673,-0.000885605,-0.00108256,0.00212588,-0.00127476,-0.345091,0.00198375,0.0177582,1399,400,4.79686,31.5548
182,624,4.78284,-31.3673,0.00145359,-0.000224886,-0.000806684,0.00177843,-0.000549718,-0.382811,0.00140517,0.0110214,1406,400,4.78286,31.3673
189,624,4.77087,-31.1559,0.00116282,0.000506646,-0.000430105,0.00137569,0.000293779,-0.459574,0.000836574,0.010791,1413,400,4.77088,31.156
196,624,4.74463,-30.9214,0.000942549,0.00108643,1.15995e-05,0.00108736,0.00094162,1.49087,0.000681542,0.0110188,1420,400,4.74464,30.9215
203,624,4.77441,-30.6724,0.00064447,0.00166715,0.00036776,0.00178566,0.000525956,1.25905,0.00105957,0.0131443,1427,400,4.77442,30.6724
210,624,4.79675,-30.4531,0.000205434,0.00216275,0.000694321,0.00238403,-1.58475e-05,1.26227,0.00159466,0.0165404,1434,400,4.79681,30.4531
217,624,4.76855,-30.2117,-8.37733e-05,0.00271674,0.000913372,0.0029883,-0.000355332,1.28181,0.00212059,0.0199199,1441,400,4.76858,30.2117
224,624,4.73315,-29.9391,-0.000255027,0.00324436,0.00110046,0.00356165,-0.000572319,1.29008,0.0025864,0.0162354,1448,400,4.73316,29.9391
231,624,4.74756,-29.677,-0.000399688,0.00383403,0.00140454,0.00425761,-0.000823265,1.27789,0.00314891,0.0119171,1455,400,4.74756,29.677
238,624,4.72937,-29.3883,-0.000561494,0.00464337,0.00175846,0.00518177,-0.00109989,1.27368,0.00387355,0.0177598,1462,400,4.72935,29.3883
245,624,4.70081,-29.1024,-0.000874349,0.00548646,0.00191838,0.00602024,-0.00140813,1.29942,0.00455599,0.0184646,1469,400,4.70081,29.1024
252,624,4.68506,-28.7936,-0.00103825,0.00642394,0.00212274,0.00698552,-0.00159983,1.31217,0.00527184,0.0133686,1476,400,4.68503,28.7936
259,624,4.67883,-28.4802,-0.00120322,0.00749643,0.00241867,0.00812365,-0.00183044,1.31706,0.00611788,0.00933833,1483,400,4.67888,28.4802
266,624,4.69385,-28.1385,-0.00158337,0.00846385,0.00272231,0.00915405,-0.00227357,1.32249,0.006985,0.0129225,1490,400,4.6939,28.1385
273,624,4.66638,-27.8241,-0.00190074,0.00926777,0.00288317,0.00996815,-0.00260111,1.33249,0.0076611,0.0161599,1497,400,4.66632,27.8241
280,624,4.63257,-27.5112,-0.00157731,0.0102303,0.00326781,0.0110743,-0.00242136,1.31803,0.00830846,0.0141136,1504,400,4.63261,27.5112
287,624,4.61206,-27.1692,-0.000590082,0.0111597,0.00405086,0.0124209,-0.00185128,1.26897,0.00896165,0.0102254,1511,400,4.61204,27.1692
294,624,4.58521,-26.8062,9.56243e-05,0.0118304,0.0046141,0.0134273,-0.00150131,1.2376,0.00949165,0.00889935,1518,400,4.58519,26.8062
301,624,4.55176,-26.4105,0.00114024,0.0123514,0.00525176,0.0144272,-0.000935546,1.19439,0.00994467,0.0103503,1525,400,4.55179,26.4105
308,624,4.55322,-25.9854,0.00268441,0.0127965,0.00601945,0.0156015,-0.00012068,1.13471,0.0104415,0.0145071,1532,400,4.55317,25.9854
315,624,4.55798,-25.627,0.00473446,0.0130388,0.00695185,0.0169841,0.000789186,1.05461,0.011069,0.0188709,1539,400,4.55804,25.627
322,624,4.52466,-25.2787,0.00707975,0.013235,0.00804199,0.0187682,0.00154662,0.968148,0.0120298,0.0317222,1546,400,4.52472,25.2787
329,624,4.56116,-24.8054,0.00951955,0.0133828,0.00907858,0.020733,0.00216937,0.890218,0.0131586,0.0462541,1553,400,4.56116,24.8054
336,624,4.84949,-24.2607,0.0118864,0.0133008,0.00987801,0.0224969,0.00269028,0.821133,0.0141864,0.0421844,1560,400,4.84943,24.2607
343,624,5.10706,-23.7846,0,0,0,0,0,0,0,-1,1567,400,5.1071,23.7846
350,624,1.99194,-7.29742,0,0,0,0,0,0,0,-1,1574,400,1.99198,7.29741
357,624,2.64075,-3.13092,0,0,0,0,0,0,0,-1,1581,400,2.64076,3.13091
364,624,3.16565,-4.9458,0,0,0,0,0,0,0,-1,1588,400,3.16564,4.94579
371,624,3.37561,-5.23529,0,0,0,0,0,0,0,-1,1595,400,3.37563,5.23529
378,624,1.50439,-5.22165,0,0,0,0,0,0,0,-1,1602,400,1.50438,5.22164
385,624,1.2301,-10.5866,0,0,0,0,0,0,0,-1,1609,400,1.2301,10.5866
392,624,4.26819,-5.14236,0,0,0,0,0,0,0,-1,1616,400,4.26818,5.14236
399,624,2.22168,-9.19293,0,0,0,0,0,0,0,-1,1623,400,2.22173,9.19294
406,624,2.68213,-9.91171,0,0,0,0,0,0,0,-1,1630,400,2.68213,9.91171
413,624,0,0,0,0,0,0,0,0,0,-1,1637,400,0,0
420,624,0,0,0,0,0,0,0,0,0,-1,1644,400,0,0
427,624,0,0,0,0,0,0,0,0,0,-1,1651,400,0,0
434,624,0,0,0,0,0,0,0,0,0,-1,1658,400,0,0
441,624,0,0,0,0,0,0,0,0,0,-1,1665,400,0,0
448,624,0,0,0,0,0,0,0,0,0,-1,1672,400,0,0
455,624,0,0,0,0,0,0,0,0,0,-1,1679,400,0,0
462,624,0,0,0,0,0,0,0,0,0,-1,1686,400,0,0
469,624,0,0,0,0,0,0,0,0,0,-1,1693,400,0,0
476,624,0,0,0,0,0,0,0,0,0,-1,1700,400,0,0
483,624,0,0,0,0,0,0,0,0,0,-1,1707,400,0,0
490,624,0,0,0,0,0,0,0,0,0,-1,1714,400,0,0
497,624,0,0,0,0,0,0,0,0,0,-1,1721,400,0,0
504,624,0,0,0,0,0,0,0,0,0,-1,1728,400,0,0
511,624,0,0,0,0,0,0,0,0,0,-1,1735,400,0,0
518,624,0,0,0,0,0,0,0,0,0,-1,1742,400,0,0
525,624,0,0,0,0,0,0,0,0,0,-1,1749,400,0,0
532,624,0,0,0,0,0,0,0,0,0,-1,1756,400,0,0
539,624,0,0,0,0,0,0,0,0,0,-1,1763,400,0,0
546,624,0,0,0,0,0,0,0,0,0,-1,1770,400,0,0
553,624,0,0,0,0,0,0,0,0,0,-1,1777,400,0,0
560,624,0,0,0,0,0,0,0,0,0,-1,1784,400,0,0
567,624,0,0,0,0,0,0,0,0,0,-1,1791,400,0,0
574,624,0,0,0,0,0,0,0,0,0,-1,1798,400,0,0
581,624,0,0,0,0,0,0,0,0,0,-1,1805,400,0,0
588,624,0,0,0,0,0,0,0,0,0,-1,1812,400,0,0
595,624,0,0,0,0,0,0,0,0,0,-1,1819,400,0,0
602,624,0,0,0,0,0,0,0,0,0,-1,1826,400,0,0
609,624,0,0,0,0,0,0,0,0,0,-1,1833,400,0,0
616,624,0,0,0,0,0,0,0,0,0,-1,1840,400,0,0
623,624,0,0,0,0,0,0,0,0,0,-1,1847,400,0,0
630,624,0,0,0,0,0,0,0,0,0,-1,1854,400,0,0
637,624,0,0,0,0,0,0,0,0,0,-1,1861,400,0,0
644,624,0,0,0,0,0,0,0,0,0,-1,1868,400,0,0
651,624,0,0,0,0,0,0,0,0,0,-1,1875,400,0,0
658,624,0,0,0,0,0,0,0,0,0,-1,1882,400,0,0
665,624,0,0,0,0,0,0,0,0,0,-1,1889,400,0,0
672,624,0,0,0,0,0,0,0,0,0,-1,1896,400,0,0
679,624,0,0,0,0,0,0,0,0,0,-1,1903,400,0,0
686,624,0,0,0,0,0,0,0,0,0,-1,1910,400,0,0
693,624,0,0,0,0,0,0,0,0,0,-1,1917,400,0,0
700,624,0,0,0,0,0,0,0,0,0,-1,1924,400,0,0
707,624,0,0,0,0,0,0,0,0,0,-1,1931,400,0,0
714,624,0,0,0,0,0,0,0,0,0,-1,1938,400,0,0
721,624,0,0,0,0,0,0,0,0,0,-1,1945,400,0,0
728,624,0,0,0,0,0,0,0,0,0,-1,1952,400,0,0
735,624,0,0,0,0,0,0,0,0,0,-1,1959,400,0,0
742,624,0,0,0,0,0,0,0,0,0,-1,1966,400,0,0
749,624,0,0,0,0,0,0,0,0,0,-1,1973,400,0,0
756,624,0,0,0,0,0,0,0,0,0,-1,1980,400,0,0
763,624,0,0,0,0,0,0,0,0,0,-1,1987,400,0,0
770,624,0,0,0,0,0,0,0,0,0,-1,1994,400,0,0
777,624,0,0,0,0,0,0,0,0,0,-1,2001,400,0,0
784,624,0,0,0,0,0,0,0,0,0,-1,2008,400,0,0
791,624,0,0,0,0,0,0,0,0,0,-1,2015,400,0,0
798,624,0,0,0,0,0,0,0,0,0,-1,2022,400,0,0
805,624,0,0,0,0,0,0,0,0,0,-1,2029,400,0,0
812,624,0,0,0,0,0,0,0,0,0,-1,2036,400,0,0
-700,617,0,0,0,0,0,0,0,0,0,-1,524,407,0,0
-693,617,0,0,0,0,0,0,0,0,0,-1,531,407,0,0
-686,617,0,0,0,0,0,0,0,0,0,-1,538,407,0,0
-679,617,0,0,0,0,0,0,0,0,0,-1,545,407,0,0
-672,617,0,0,0,0,0,0,0,0,0,-1,552,407,0,0
-665,617,0,0,0,0,0,0,0,0,0,-1,559,407,0,0
-658,617,0,0,0,0,0,0,0,0,0,-1,566,407,0,0
-651,617,0,0,0,0,0,0,0,0,0,-1,573,407,0,0
-644,617,0,0,0,0,0,0,0,0,0,-1,580,407,0,0
-637,617,0,0,0,0,0,0,0,0,0,-1,587,407,0,0
-630,617,0,0,0,0,0,0,0,0,0,-1,594,407,0,0
-623,617,0,0,0,0,0,0,0,0,0,-1,601,407,0,0
-616,617,0,0,0,0,0,0,0,0,0,-1,608,407,0,0
-609,617,0,0,0,0,0,0,0,0,0,-1,615,407,0,0
-602,617,0,0,0,0,0,0,0,0,0,-1,622,407,0,0
-595,617,0,0,0,0,0,0,0,0,0,-1,629,407,0,0
-588,617,0,0,0,0,0,0,0,0,0,-1,636,407,0,0
-581,617,0,0,0,0,0,0,0,0,0,-1,643,407,0,0
-574,617,0,0,0,0,0,0,0,0,0,-1,650,407,0,0
-567,617,0,0,0,0,0,0,0,0,0,-1,657,407,0,0
-560,617,0,0,0,0,0,0,0,0,0,-1,664,407,0,0
-553,617,0,0,0,0,0,0,0,0,0,-1,671,407,0,0
-546,617,0,0,0,0,0,0,0,0,0,-1,678,407,0,0
-539,617,0,0,0,0,0,0,0,0,0,-1,685,407,0,0
-532,617,0,0,0,0,0,0,0,0,0,-1,692,407,0,0
-525,617,0,0,0,0,0,0,0,0,0,-1,699,407,0,0
-518,617,0,0,0,0,0,0,0,0,0,-1,706,407,0,0
-511,617,0,0,0,0,0,0,0,0,0,-1,713,407,0,0
-504,617,0,0,0,0,0,0,0,0,0,-1,720,407,0,0
-497,617,0,0,0,0,0,0,0,0,0,-1,727,407,0,0
-490,617,0,0,0,0,0,0,0,0,0,-1,734,407,0,0
-483,617,0,0,0,0,0,0,0,0,0,-1,741,407,0,0
-476,617,0,0,0,0,0,0,0,0,0,-1,748,407,0,0
-469,617,0,0,0,0,0,0,0,0,0,-1,755,407,0,0
-462,617,0,0,0,0,0,0,0,0,0,-1,762,407,0,0
-455,617,0,0,0,0,0,0,0,0,0,-1,769,407,0,0
-448,617,0,0,0,0,0,0,0,0,0,-1,776,407,0,0
-441,617,0,0,0,0,0,0,0,0,0,-1,783,407,0,0
-434,617,0,0,0,0,0,0,0,0,0,-1,790,407,0,0
-427,617,0,0,0,0,0,0,0,0,0,-1,797,407,0,0
-420,617,0,0,0,0,0,0,0,0,0,-1,804,407,0,0
-413,617,0,0,0,0,0,0,0,0,0,-1,811,407,0,0
-406,617,0,0,0,0,0,0,0,0,0,-1,818,407,0,0
-399,617,0,0,0,0,0,0,0,0,0,-1,825,407,0,0
-392,617,0,0,0,0,0,0,0,0,0,-1,832,407,0,0
-385,617,0,0,0,0,0,0,0,0,0,-1,839,407,0,0
-378,617,0,0,0,0,0,0,0,0,0,-1,846,407,0,0
-371,617,0,0,0,0,0,0,0,0,0,-1,853,407,0,0
-364,617,0,0,0,0,0,0,0,0,0,-1,860,407,0,0
-357,617,0,0,0,0,0,0,0,0,0,-1,867,407,0,0
-350,617,0,0,0,0,0,0,0,0,0,-1,874,407,0,0
-343,617,0,0,0,0,0,0,0,0,0,-1,881,407,0,0
-336,617,0,0,0,0,0,0,0,0,0,-1,888,407,0,0
-329,617,0,0,0,0,0,0,0,0,0,-1,895,407,0,0
-322,617,0,0,0,0,0,0,0,0,0,-1,902,407,0,0
-315,617,0,0,0,0,0,0,0,0,0,-1,909,407,0,0
-308,617,0,0,0,0,0,0,0,0,0,-1,916,407,0,0
-301,617,6.8504,-26.4473,0,0,0,0,0,0,0,-1,923,407,6.85041,26.4473
-294,617,8.41962,-26.4389,0,0,0,0,0,0,0,-1,930,407,8.41964,26.4389
-287,617,9.90497,-26.4554,0,0,0,0,0,0,0,-1,937,407,9.90498,26.4554
-280,617,4.3504,-25.0479,0,0,0,0,0,0,0,-1,944,407,4.35041,25.0479
-273,617,5.10046,-25.4946,0,0,0,0,0,0,0,-1,951,407,5.10045,25.4946
-266,617,5.85046,-25.9413,0,0,0,0,0,0,0,-1,958,407,5.85049,25.9412
-259,617,2.80859,-20.0673,0,0,0,0,0,0,0,-1,965,407,2.80857,20.0673
-252,617,6.30573,-25.6465,0,0,0,0,0,0,0,-1,972,407,6.30575,25.6465
-245,617,4.70587,-24.3445,0,0,0,0,0,0,0,-1,979,407,4.70584,24.3445
-238,617,4.2309,-24.2819,0,0,0,0,0,0,0,-1,986,407,4.23092,24.2819
-231,617,4.27808,-23.7533,0,0,0,0,0,0,0,-1,993,407,4.2781,23.7533
-224,617,4.14337,-24.2693,0,0,0,0,0,0,0,-1,1000,407,4.14337,24.2693
-217,617,4.47461,-24.7827,-0.00579237,0.0209132,-0.00580809,0.0221217,-0.00700087,-1.36565,0.0175531,0.0438408,1007,407,4.47461,24.7827
-210,617,4.2395,-25.3701,-0.00534157,0.0197272,-0.00577564,0.0209939,-0.00660822,-1.3549,0.0166419,0.0301142,1014,407,4.23951,25.3701
-203,617,4.18457,-25.7688,-0.00490201,0.0174524,-0.00541098,0.0186933,-0.00614289,-1.34537,0.014937,0.0223393,1021,407,4.18458,25.7688
-196,617,4.14807,-26.1257,-0.00460852,0.0156866,-0.00519603,0.0169396,-0.00586147,-1.33418,0.0136723,0.0159062,1028,407,4.14807,26.1257
-189,617,4.07507,-26.485,-0.00352283,0.0136969,-0.00543219,0.0152673,-0.00509326,-1.28937,0.0122346,0.013285,1035,407,4.07511,26.4849
-182,617,4.08582,-26.8456,-0.00228193,0.0110721,-0.00510316,0.0127989,-0.00400877,-1.2445,0.0101366,0.0159307,1042,407,4.08576,26.8456
-175,617,4.07776,-27.1824,-0.00139584,0.00855323,-0.00460096,0.0103547,-0.00319735,-1.19759,0.00817996,0.0155432,1049,407,4.07779,27.1824
-168,617,4.04663,-27.5661,-0.000683992,0.00648768,-0.00396211,0.00824567,-0.00244199,-1.15319,0.00646668,0.011157,1056,407,4.04663,27.5661
-161,617,4.01123,-27.9156,-3.17823e-05,0.00459042,-0.00345953,0.00643979,-0.00188116,-1.07987,0.00503869,0.0103513,1063,407,4.01124,27.9156
-154,617,3.98938,-28.2108,0.000477374,0.00314776,-0.00285357,0.00496306,-0.00133793,-1.00422,0.00383332,0.0112193,1070,407,3.98937,28.2108
-147,617,3.98669,-28.5219,0.000844391,0.00190546,-0.00232226,0.00375702,-0.00100717,-0.897699,0.00289931,0.0165717,1077,407,3.98669,28.5219
-140,617,3.98535,-28.8561,0.0011971,0.0008465,-0.00182688,0.00285707,-0.000813472,-0.737566,0.00222598,0.0126648,1084,407,3.98538,28.8561
-133,617,3.97107,-29.134,0.00135553,0.00011062,-0.00131655,0.00218936,-0.000723204,-0.564575,0.00175115,0.0141669,1091,407,3.97108,29.134
-126,617,3.94458,-29.3739,0.00140624,-0.000147036,-0.000958253,0.00186306,-0.000603854,-0.44485,0.00148484,0.014097,1098,407,3.94458,29.3739
-119,617,3.9231,-29.6595,0.00153711,0.000114317,-0.000815023,0.00190754,-0.000256113,-0.426591,0.0013651,0.0141305,1105,407,3.92312,29.6595
-112,617,3.92078,-29.9147,0.00159429,0.000499807,-0.000725139,0.0019555,0.000138587,-0.462157,0.00126002,0.0153584,1112,407,3.92083,29.9147
-105,617,3.91846,-30.1586,0.00159892,0.000962827,-0.000773326,0.00211705,0.0004447,-0.590305,0.00128896,0.0156465,1119,407,3.91842,30.1586
-98,617,3.92334,-30.4114,0.00158672,0.00130204,-0.000873685,0.00232958,0.000559177,-0.704651,0.00140428,0.0123036,1126,407,3.92336,30.4114
-91,617,3.93494,-30.6664,0.00167026,0.00158021,-0.00102545,0.00265167,0.0005988,-0.763457,0.00160584,0.0163331,1133,407,3.93498,30.6665
-84,617,3.96301,-30.9086,0.00185429,0.00165321,-0.00108629,0.00284467,0.000662817,-0.739252,0.00171866,0.0167041,1140,407,3.96306,30.9086
-77,617,3.97241,-31.1277,0.00212782,0.00158392,-0.00112887,0.00301703,0.000694707,-0.667197,0.00182442,0.0141313,1147,407,3.97238,31.1277
-70,617,3.98877,-31.3219,0.00250441,0.00148437,-0.00111099,0.00321685,0.000771928,-0.570214,0.00193917,0.0154314,1154,407,3.98881,31.3219
-63,617,4.01233,-31.5201,0.0042525,0.00127676,0.000971919,0.00454181,0.000987449,0.289321,0.00275829,0.0171977,1161,407,4.0123,31.5201
-56,617,3.98804,-31.7296,0.00623492,0.000431906,0.00314,0.00760873,-0.000941907,0.412427,0.00541384,0.0125994,1168,407,3.98808,31.7296
-49,617,3.99756,-31.9249,0.00747148,-0.000585801,0.00480501,0.00971325,-0.00282757,0.43653,0.00759553,0.00963305,1175,407,3.99759,31.9249
-42,617,4.00659,-32.1087,0.00993572,-0.00295694,0.00684308,0.0128906,-0.00591183,0.407622,0.011102,0.0116407,1182,407,4.00664,32.1087
-35,617,4.05481,-32.2452,0.0112545,-0.00579001,0.00827351,0.01461,-0.00914545,0.385295,0.0138356,0.016396,1189,407,4.05486,32.2452
-28,617,4.06799,-32.3731,0.0112992,-0.00875039,0.00905503,0.0147833,-0.0122345,0.367307,0.0156219,0.0193707,1196,407,4.06805,32.3731
-21,617,4.07483,-32.5032,0.0113047,-0.0117106,0.00977196,0.014894,-0.0152999,0.352006,0.017433,0.014314,1203,407,4.0748,32.5032
-14,617,4.08679,-32.6159,0.0107168,-0.0151484,0.010129,0.0142113,-0.0186428,0.33221,0.0190258,0.0150877,1210,407,4.08678,32.6159
-7,617,4.10413,-32.7064,0.00990472,-0.0179433,0.00963897,0.0129155,-0.0209541,0.302755,0.0197374,0.0169999,1217,407,4.10411,32.7064
0,617,4.14233,-32.8121,0.00859599,-0.0205098,0.00864425,0.0109697,-0.0228835,0.267994,0.0199445,0.0152864,1224,407,4.14232,32.8121
7,617,4.17053,-32.9221,0.00699033,-0.0229912,0.00749193,0.00875821,-0.0247591,0.231732,0.0200728,0.0112294,1231,407,4.17057,32.9222
14,617,4.21289,-33.0183,0.00516329,-0.0253084,0.00615602,0.00635996,-0.0265051,0.191996,0.0201278,0.0130532,1238,407,4.2129,33.0183
21,617,4.24512,-33.0819,0.00335115,-0.027223,0.00460091,0.00402851,-0.0279003,0.146172,0.0200782,0.0125021,1245,407,4.24513,33.0819
28,617,4.27893,-33.1509,0.00165374,-0.028705,0.00299535,0.00194646,-0.0289977,0.0974136,0.0200122,0.0113778,1252,407,4.27898,33.1509
35,617,4.26233,-33.2061,-2.3983e-07,-0.0299682,0.00139748,6.47865e-05,-0.0300332,0.046498,0.0200438,0.0136785,1259,407,4.26228,33.2061
42,617,4.33667,-33.1992,-0.00191876,-0.0312448,-0.000388932,-0.0019136,-0.0312499,-0.0132592,0.0202256,0.0204457,1266,407,4.33668,33.1992
49,617,4.39771,-33.1991,-0.0039002,-0.0321487,-0.00196722,-0.00376386,-0.032285,-0.0691945,0.0203849,0.0209013,1273,407,4.39772,33.1991
56,617,4.4574,-33.2196,-0.00519745,-0.0321223,-0.00319575,-0.00482334,-0.0324964,-0.116535,0.0202489,0.0148118,1280,407,4.45744,33.2196
63,617,4.4696,-33.2306,-0.00713122,-0.0320857,-0.00456719,-0.0063216,-0.0328953,-0.175447,0.0201562,0.0105764,1287,407,4.46956,33.2306
70,617,4.49768,-33.2278,-0.00844529,-0.0315527,-0.00559942,-0.00715994,-0.0328381,-0.225643,0.0199386,0.0158086,1294,407,4.49767,33.2278
77,617,4.55798,-33.1933,-0.00892392,-0.0307352,-0.00617967,-0.00729475,-0.0323643,-0.257768,0.0196024,0.0140145,1301,407,4.55795,33.1933
84,617,4.60315,-33.1766,-0.00954904,-0.0297399,-0.00682962,-0.0074559,-0.0318331,-0.297392,0.0192249,0.0107953,1308,407,4.60317,33.1766
91,617,4.62073,-33.1043,-0.00998789,-0.0282123,-0.00745699,-0.00732559,-0.0308746,-0.342916,0.0186277,0.0105234,1315,407,4.62076,33.1043
98,617,4.65735,-33.028,-0.0104074,-0.0269205,-0.00755794,-0.0074705,-0.0298574,-0.370626,0.0179409,0.012046,1322,407,4.65736,33.0281
105,617,4.68091,-32.9729,-0.0102266,-0.0252913,-0.00751403,-0.00711958,-0.0283984,-0.392091,0.0170616,0.014143,1329,407,4.6809,32.9729
112,617,4.70618,-32.9116,-0.00952841,-0.0230924,-0.00742205,-0.00625644,-0.0263644,-0.415214,0.0159064,0.016859,1336,407,4.70612,32.9116
119,617,4.71008,-32.796,-0.00833589,-0.0205373,-0.00708035,-0.00509046,-0.0237827,-0.429793,0.0144601,0.0196751,1343,407,4.71009,32.796
126,617,4.73889,-32.6581,-0.00685223,-0.017956,-0.00653046,-0.00383264,-0.0209756,-0.433106,0.0128974,0.0224267,1350,407,4.73883,32.6581
133,617,4.76697,-32.5347,-0.00515712,-0.0153754,-0.00597771,-0.00240265,-0.0181298,-0.431791,0.0113706,0.0193864,1357,407,4.767,32.5347
140,617,4.82715,-32.3984,-0.00330358,-0.0126558,-0.00536273,-0.000864579,-0.0150948,-0.426844,0.00978774,0.0163491,1364,407,4.82716,32.3984
147,617,4.84717,-32.2188,-0.00140628,-0.0103015,-0.00483224,0.000713593,-0.0124214,-0.413411,0.00852874,0.0198343,1371,407,4.84713,32.2188
154,617,4.90588,-32.1089,0.000634015,-0.008176,-0.00407535,0.00223005,-0.00977204,-0.373272,0.00737136,0.023355,1378,407,4.90584,32.1089
161,617,4.94128,-31.9824,0.00188248,-0.00707027,-0.00334101,0.00299182,-0.00817962,-0.320585,0.00667763,0.0244281,1385,407,4.94124,31.9823
168,617,4.95642,-31.8091,0.0026679,-0.00567082,-0.00283622,0.00354113,-0.00654405,-0.298674,0.00590809,0.0227807,1392,407,4.95639,31.8091
175,617,4.94812,-31.6082,0.00308313,-0.00417097,-0.00226084,0.00373006,-0.0048179,-0.278698,0.00494847,0.0178815,1399,407,4.94815,31.6082
182,617,4.95959,-31.3881,0.00275797,-0.00302522,-0.0019024,0.00332766,-0.0035949,-0.290956,0.00399773,0.0120828,1406,407,4.95955,31.3881
189,617,4.95557,-31.1732,0.00241472,-0.00179184,-0.00141125,0.00284431,-0.00222143,-0.29549,0.00293207,0.0119151,1413,407,4.95557,31.1732
196,617,4.95044,-30.9149,0.00219128,-0.000786835,-0.000767377,0.00237738,-0.000972937,-0.237923,0.00199015,0.0151844,1420,407,4.95049,30.9149
203,617,4.99597,-30.6965,0.00189342,0.000242222,-0.000317122,0.00195223,0.000183412,-0.183367,0.00124486,0.0156064,1427,407,4.99594,30.6965
210,617,5.0304,-30.4619,0.00142763,0.00113766,0.000160811,0.00149916,0.00106613,0.418557,0.000890897,0.0144767,1434,407,5.03042,30.4619
217,617,4.99622,-30.201,0.00110052,0.00190011,0.000527612,0.00216229,0.00083834,1.10962,0.00125885,0.0191994,1441,407,4.99623,30.201
224,617,4.98999,-29.9443,0.000835253,0.00247062,0.000815633,0.00280787,0.000498007,1.17873,0.00172997,0.01877,1448,407,4.98996,29.9443
231,617,5.02966,-29.7015,0.000593159,0.00301797,0.00115971,0.00348332,0.000127811,1.1892,0.0022808,0.0143045,1455,407,5.02972,29.7015
238,617,5.03369,-29.4436,0.000414049,0.00365683,0.00149407,0.00424024,-0.000169364,1.19852,0.00288494,0.0158517,1462,407,5.03367,29.4436
245,617,5.01648,-29.1518,0.00017255,0.00428893,0.001652,0.00486991,-0.000408439,1.23262,0.00339097,0.0134323,1469,407,5.01648,29.1518
252,617,5.00024,-28.8087,-2.21251e-05,0.0049911,0.00179615,0.0055682,-0.00059922,1.25992,0.00392714,0.0145651,1476,407,5.00028,28.8086
259,617,4.97778,-28.4817,-0.00024768,0.00576647,0.00200746,0.00637497,-0.00085618,1.27648,0.00456223,0.0120614,1483,407,4.97775,28.4817
266,617,4.96851,-28.1507,-0.000604772,0.00646991,0.00222311,0.00711049,-0.00124535,1.29025,0.00520534,0.013259,1490,407,4.96853,28.1507
273,617,4.98926,-27.8214,-0.000905677,0.00708335,0.00234323,0.00771991,-0.00154224,1.30554,0.00573029,0.0141877,1497,407,4.98924,27.8214
280,617,4.95947,-27.5117,-0.000759415,0.00778572,0.00261881,0.00852444,-0.00149814,1.29586,0.00624255,0.0124182,1504,407,4.95942,27.5117
287,617,4.91565,-27.1584,-0.000101119,0.00854968,0.00323124,0.00962336,-0.00117479,1.25,0.00684088,0.0112471,1511,407,4.91564,27.1584
294,617,4.91028,-26.8027,0.000350098,0.0091101,0.00367536,0.0104478,-0.000987653,1.22172,0.0073167,0.00945178,1518,407,4.91024,26.8027
301,617,4.88147,-26.4491,0.00105208,0.00957585,0.00418606,0.0112878,-0.000659874,1.18258,0.00775453,0.00790669,1525,407,4.88149,26.4491
308,617,4.85852,-26.0841,0.00210588,0.00999689,0.00481726,0.0122782,-0.000175411,1.12852,0.00824455,0.008165,1532,407,4.85856,26.0841
315,617,4.84216,-25.7238,0.00348528,0.0102948,0.00554294,0.0133952,0.000384914,1.06081,0.0088046,0.00937755,1539,407,4.84212,25.7238
322,617,4.80078,-25.3452,0.00501313,0.0105561,0.00636089,0.0147231,0.000846162,0.99085,0.00954582,0.0137659,1546,407,4.80075,25.3452
329,617,4.8009,-24.9293,0.0065265,0.0107402,0.00712559,0.0160639,0.00120283,0.929141,0.0103317,0.0152262,1553,407,4.80096,24.9293
336,617,4.86792,-24.4533,0.00788305,0.0107587,0.00769783,0.0171519,0.00148993,0.877727,0.0109717,0.0275505,1560,407,4.86792,24.4533
343,617,4.94543,-23.9982,0,0,0,0,0,0,0,-1,1567,407,4.94538,23.9982
350,617,4.7655,-23.6297,0,0,0,0,0,0,0,-1,1574,407,4.7655,23.6297
357,617,2.1748,-7.16504,0,0,0,0,0,0,0,-1,1581,407,2.1748,7.16505
364,617,2.30127,-7.60257,0,0,0,0,0,0,0,-1,1588,407,2.30125,7.60258
371,617,2.60266,-6.20667,0,0,0,0,0,0,0,-1,1595,407,2.60261,6.20668
378,617,1.56921,-10.3601,0,0,0,0,0,0,0,-1,1602,407,1.56918,10.3601
385,617,1.74146,-10.3561,0,0,0,0,0,0,0,-1,1609,407,1.7414,10.3561
392,617,1.96936,-5.10449,0,0,0,0,0,0,0,-1,1616,407,1.96931,5.10451
399,617,2.48889,-5.81256,0,0,0,0,0,0,0,-1,1623,407,2.48888,5.81255
406,617,3.01465,-6.51642,0,0,0,0,0,0,0,-1,1630,407,3.01461,6.51643
413,617,3.6427,-7.2074,0,0,0,0,0,0,0,-1,1637,407,3.64274,7.20739
420,617,3.42737,-4.47391,0,0,0,0,0,0,0,-1,1644,407,3.42737,4.47391
427,617,0,0,0,0,0,0,0,0,0,-1,1651,407,0,0
434,617,0,0,0,0,0,0,0,0,0,-1,1658,407,0,0
441,617,0,0,0,0,0,0,0,0,0,-1,1665,407,0,0
448,617,0,0,0,0,0,0,0,0,0,-1,1672,407,0,0
455,617,0,0,0,0,0,0,0,0,0,-1,1679,407,0,0
462,617,0,0,0,0,0,0,0,0,0,-1,1686,407,0,0
469,617,0,0,0,0,0,0,0,0,0,-1,1693,407,0,0
476,617,0,0,0,0,0,0,0,0,0,-1,1700,407,0,0
483,617,0,0,0,0,0,0,0,0,0,-1,1707,407,0,0
490,617,0,0,0,0,0,0,0,0,0,-1,1714,407,0,0
497,617,0,0,0,0,0,0,0,0,0,-1,1721,407,0,0
504,617,0,0,0,0,0,0,0,0,0,-1,1728,407,0,0
511,617,0,0,0,0,0,0,0,0,0,-1,1735,407,0,0
518,617,0,0,0,0,0,0,0,0,0,-1,1742,407,0,0
525,617,0,0,0,0,0,0,0,0,0,-1,1749,407,0,0
532,617,0,0,0,0,0,0,0,0,0,-1,1756,407,0,0
539,617,0,0,0,0,0,0,0,0,0,-1,1763,407,0,0
546,617,0,0,0,0,0,0,0,0,0,-1,1770,407,0,0
553,617,0,0,0,0,0,0,0,0,0,-1,1777,407,0,0
560,617,0,0,0,0,0,0,0,0,0,-1,1784,407,0,0
567,617,0,0,0,0,0,0,0,0,0,-1,1791,407,0,0
574,617,0,0,0,0,0,0,0,0,0,-1,1798,407,0,0
581,617,0,0,0,0,0,0,0,0,0,-1,1805,407,0,0
588,617,0,0,0,0,0,0,0,0,0,-1,1812,407,0,0
595,617,0,0,0,0,0,0,0,0,0,-1,1819,407,0,0
602,617,0,0,0,0,0,0,0,0,0,-1,1826,407,0,0
609,617,0,0,0,0,0,0,0,0,0,-1,1833,407,0,0
616,617,0,0,0,0,0,0,0,0,0,-1,1840,407,0,0
623,617,0,0,0,0,0,0,0,0,0,-1,1847,407,0,0
630,617,0,0,0,0,0,0,0,0,0,-1,1854,407,0,0
637,617,0,0,0,0,0,0,0,0,0,-1,1861,407,0,0
644,617,0,0,0,0,0,0,0,0,0,-1,1868,407,0,0
651,617,0,0,0,0,0,0,0,0,0,-1,1875,407,0,0
658,617,0,0,0,0,0,0,0,0,0,-1,1882,407,0,0
665,617,0,0,0,0,0,0,0,0,0,-1,1889,407,0,0
672,617,0,0,0,0,0,0,0,0,0,-1,1896,407,0,0
679,617,0,0,0,0,0,0,0,0,0,-1,1903,407,0,0
686,617,0,0,0,0,0,0,0,0,0,-1,1910,407,0,0
693,617,0,0,0,0,0,0,0,0,0,-1,1917,407,0,0
700,617,0,0,0,0,0,0,0,0,0,-1,1924,407,0,0
707,617,0,0,0,0,0,0,0,0,0,-1,1931,407,0,0
714,617,0,0,0,0,0,0,0,0,0,-1,1938,407,0,0
721,617,0,0,0,0,0,0,0,0,0,-1,1945,407,0,0
728,617,0,0,0,0,0,0,0,0,0,-1,1952,407,0,0
735,617,0,0,0,0,0,0,0,0,0,-1,1959,407,0,0
742,617,0,0,0,0,0,0,0,0,0,-1,1966,407,0,0
749,617,0,0,0,0,0,0,0,0,0,-1,1973,407,0,0
756,617,0,0,0,0,0,0,0,0,0,-1,1980,407,0,0
763,617,0,0,0,0,0,0,0,0,0,-1,1987,407,0,0
770,617,0,0,0,0,0,0,0,0,0,-1,1994,407,0,0
777,617,0,0,0,0,0,0,0,0,0,-1,2001,407,0,0
784,617,0,0,0,0,0,0,0,0,0,-1,2008,407,0,0
791,617,0,0,0,0,0,0,0,0,0,-1,2015,407,0,0
798,617,0,0,0,0,0,0,0,0,0,-1,2022,407,0,0
805,617,0,0,0,0,0,0,0,0,0,-1,2029,407,0,0
812,617,0,0,0,0,0,0,0,0,0,-1,2036,407,0,0
-700,610,0,0,0,0,0,0,0,0,0,-1,524,414,0,0
-693,610,0,0,0,0,0,0,0,0,0,-1,531,414,0,0
-686,610,0,0,0,0,0,0,0,0,0,-1,538,414,0,0
-679,610,0,0,0,0,0,0,0,0,0,-1,545,414,0,0
-672,610,0,0,0,0,0,0,0,0,0,-1,552,414,0,0
-665,610,0,0,0,0,0,0,0,0,0,-1,559,414,0,0
-658,610,0,0,0,0,0,0,0,0,0,-1,566,414,0,0
-651,610,0,0,0,0,0,0,0,0,0,-1,573,414,0,0
-644,610,0,0,0,0,0,0,0,0,0,-1,580,414,0,0
-637,610,0,0,0,0,0,0,0,0,0,-1,587,414,0,0
-630,610,0,0,0,0,0,0,0,0,0,-1,594,414,0,0
-623,610,0,0,0,0,0,0,0,0,0,-1,601,414,0,0
-616,610,0,0,0,0,0,0,0,0,0,-1,608,414,0,0
-609,610,0,0,0,0,0,0,0,0,0,-1,615,414,0,0
-602,610,0,0,0,0,0,0,0,0,0,-1,622,414,0,0
-595,610,0,0,0,0,0,0,0,0,0,-1,629,414,0,0
-588,610,0,0,0,0,0,0,0,0,0,-1,636,414,0,0
-581,610,0,0,0,0,0,0,0,0,0,-1,643,414,0,0
-574,610,0,0,0,0,0,0,0,0,0,-1,650,414,0,0
-567,610,0,0,0,0,0,0,0,0,0,-1,657,414,0,0
-560,610,0,0,0,0,0,0,0,0,0,-1,664,414,0,0
-553,610,0,0,0,0,0,0,0,0,0,-1,671,414,0,0
-546,610,0,0,0,0,0,0,0,0,0,-1,678,414,0,0
-539,610,0,0,0,0,0,0,0,0,0,-1,685,414,0,0
-532,610,0,0,0,0,0,0,0,0,0,-1,692,414,0,0
-525,610,0,0,0,0,0,0,0,0,0,-1,699,414,0,0
-518,610,0,0,0,0,0,0,0,0,0,-1,706,414,0,0
-511,610,0,0,0,0,0,0,0,0,0,-1,713,414,0,0
-504,610,0,0,0,0,0,0,0,0,0,-1,720,414,0,0
-497,610,0,0,0,0,0,0,0,0,0,-1,727,414,0,0
-490,610,0,0,0,0,0,0,0,0,0,-1,734,414,0,0
-483,610,0,0,0,0,0,0,0,0,0,-1,741,414,0,0
-476,610,0,0,0,0,0,0,0,0,0,-1,748,414,0,0
-469,610,0,0,0,0,0,0,0,0,0,-1,755,414,0,0
-462,610,0,0,0,0,0,0,0,0,0,-1,762,414,0,0
-455,610,0,0,0,0,0,0,0,0,0,-1,769,414,0,0
-448,610,0,0,0,0,0,0,0,0,0,-1,776,414,0,0
-441,610,0,0,0,0,0,0,0,0,0,-1,783,414,0,0
-434,610,0,0,0,0,0,0,0,0,0,-1,790,414,0,0
-427,610,0,0,0,0,0,0,0,0,0,-1,797,414,0,0
-420,610,0,0,0,0,0,0,0,0,0,-1,804,414,0,0
-413,610,0,0,0,0,0,0,0,0,0,-1,811,414,0,0
-406,610,0,0,0,0,0,0,0,0,0,-1,818,414,0,0
-399,610,0,0,0,0,0,0,0,0,0,-1,825,414,0,0
-392,610,0,0,0,0,0,0,0,0,0,-1,832,414,0,0
-385,610,0,0,0,0,0,0,0,0,0,-1,839,414,0,0
-378,610,0,0,0,0,0,0,0,0,0,-1,846,414,0,0
-371,610,0,0,0,0,0,0,0,0,0,-1,853,414,0,0
-364,610,0,0,0,0,0,0,0,0,0,-1,860,414,0,0
-357,610,0,0,0,0,0,0,0,0,0,-1,867,414,0,0
-350,610,0,0,0,0,0,0,0,0,0,-1,874,414,0,0
-343,610,0,0,0,0,0,0,0,0,0,-1,881,414,0,0
-336,610,0,0,0,0,0,0,0,0,0,-1,888,414,0,0
-329,610,0,0,0,0,0,0,0,0,0,-1,895,414,0,0
-322,610,0,0,0,0,0,0,0,0,0,-1,902,414,0,0
-315,610,8.08594,-20.6403,0,0,0,0,0,0,0,-1,909,414,8.08595,20.6403
-308,610,3.97559,-24.1635,0,0,0,0,0,0,0,-1,916,414,3.97556,24.1635
-301,610,4.95953,-24.3575,0,0,0,0,0,0,0,-1,923,414,4.95952,24.3575
-294,610,6.20813,-24.3114,0,0,0,0,0,0,0,-1,930,414,6.20815,24.3114
-287,610,2.427,-24.4821,0,0,0,0,0,0,0,-1,937,414,2.42702,24.4821
-280,610,3.31763,-24.3248,0,0,0,0,0,0,0,-1,944,414,3.31765,24.3248
-273,610,4.22638,-24.2812,0,0,0,0,0,0,0,-1,951,414,4.22639,24.2812
-266,610,5.02094,-24.7015,0,0,0,0,0,0,0,-1,958,414,5.02092,24.7015
-259,610,3.6272,-23.1905,0,0,0,0,0,0,0,-1,965,414,3.62718,23.1905
-252,610,4.13269,-23.5089,0,0,0,0,0,0,0,-1,972,414,4.13266,23.5089
-245,610,4.30023,-23.8693,0,0,0,0,0,0,0,-1,979,414,4.30022,23.8693
-238,610,3.98309,-23.5739,0,0,0,0,0,0,0,-1,986,414,3.9831,23.5738
-231,610,3.90918,-24.0036,-0.00443396,0.014394,-0.00399803,0.0152078,-0.00524775,-1.36999,0.0122678,0.0385881,993,414,3.90918,24.0036
-224,610,3.85016,-24.4918,-0.00459007,0.0151995,-0.0042894,0.0160892,-0.0054798,-1.36627,0.0129453,0.0266724,1000,414,3.85014,24.4918
-217,610,3.88568,-24.9985,-0.00411603,0.0158271,-0.00465257,0.0168591,-0.00514804,-1.35252,0.013292,0.0176956,1007,414,3.88566,24.9985
-210,610,3.86603,-25.4492,-0.00380323,0.0150336,-0.00456433,0.0160813,-0.00485093,-1.34516,0.0126517,0.0119574,1014,414,3.866,25.4492
-203,610,3.84998,-25.8375,-0.00351444,0.0133599,-0.00425344,0.0143714,-0.00452595,-1.33732,0.0113933,0.0140287,1021,414,3.84994,25.8375
-196,610,3.81238,-26.1849,-0.00326496,0.0120357,-0.00405686,0.0130448,-0.00427406,-1.32701,0.0104177,0.0139123,1028,414,3.81241,26.1849
-189,610,3.78931,-26.5538,-0.00253863,0.0104014,-0.00409616,0.011589,-0.00372627,-1.28859,0.00922253,0.0108832,1035,414,3.78925,26.5538
-182,610,3.77856,-26.8982,-0.00170516,0.00835699,-0.00375798,0.00960558,-0.00295375,-1.25002,0.00758256,0.0120109,1042,414,3.77861,26.8982
-175,610,3.7522,-27.222,-0.00109451,0.00636431,-0.00330178,0.00761589,-0.00234609,-1.20847,0.00601382,0.0132693,1049,414,3.7522,27.222
-168,610,3.7168,-27.563,-0.000632174,0.00457488,-0.00278902,0.00578672,-0.00184401,-1.16091,0.00459745,0.0118838,1056,414,3.71677,27.563
-161,610,3.69958,-27.9297,-0.00015277,0.00288999,-0.00234906,0.00416731,-0.00143009,-1.07276,0.00335799,0.0108315,1063,414,3.69955,27.9298
-154,610,3.69922,-28.2268,0.000240995,0.00157264,-0.00182642,0.00285081,-0.00103718,-0.960187,0.00232471,0.0134972,1070,414,3.69922,28.2268
-147,610,3.68396,-28.5089,0.000542176,0.000414072,-0.00138023,0.00185984,-0.000903588,-0.762211,0.00162699,0.0156595,1077,414,3.68393,28.509
-140,610,3.69275,-28.8305,0.000845011,-0.000605361,-0.000971939,0.00133249,-0.00109284,-0.464891,0.00140254,0.0119494,1084,414,3.69272,28.8305
-133,610,3.69836,-29.1102,0.00103057,-0.00139577,-0.000563019,0.00115485,-0.00152005,-0.217255,0.00154914,0.0132832,1091,414,3.69838,29.1102
-126,610,3.68823,-29.3657,0.00118863,-0.00178656,-0.000299984,0.00121857,-0.0018165,-0.0994945,0.0017636,0.0128821,1098,414,3.68822,29.3657
-119,610,3.67493,-29.6482,0.00148133,-0.00164542,-0.000273098,0.001505,-0.0016691,-0.08647,0.00183338,0.010834,1105,414,3.67488,29.6482
-112,610,3.67212,-29.8983,0.00172551,-0.00139631,-0.000284546,0.00175124,-0.00142204,-0.0901573,0.00183537,0.0180091,1112,414,3.67208,29.8983
-105,610,3.66272,-30.1506,0.00195867,-0.00101781,-0.000433066,0.0020204,-0.00107954,-0.141586,0.00181702,0.018423,1119,414,3.66275,30.1506
-98,610,3.70386,-30.3995,0.00221127,-0.000713171,-0.000634073,0.00234283,-0.000844732,-0.204582,0.00190688,0.0131357,1126,414,3.70389,30.3995
-91,610,3.70593,-30.6477,0.00254605,-0.000367807,-0.000918849,0.0028116,-0.000633355,-0.281335,0.00211733,0.0133036,1133,414,3.70595,30.6477
-84,610,3.73462,-30.8963,0.00306642,-8.76515e-05,-0.00120004,0.00347108,-0.000492318,-0.325236,0.00249441,0.0137091,1140,414,3.73464,30.8963
-77,610,3.73779,-31.1343,0.00365931,-9.49383e-05,-0.00130155,0.00406639,-0.000502026,-0.303133,0.00289283,0.0119455,1147,414,3.73774,31.1343
-70,610,3.77844,-31.3492,0.0042406,0.000107975,-0.00134367,0.00463906,-0.000290485,-0.288285,0.00319394,0.0143425,1154,414,3.7784,31.3492
-63,610,3.8031,-31.5425,0.00794639,0.000144044,0.00344265,0.0092482,-0.00115776,0.361521,0.0065854,0.0126776,1161,414,3.80305,31.5425
-56,610,3.81152,-31.7239,0.0119675,-0.000875385,0.00820544,0.0159655,-0.00487335,0.453382,0.0125866,0.0106952,1168,414,3.81151,31.7239
-49,610,3.81775,-31.8931,0.0143112,-0.00207115,0.0114571,0.020204,-0.00796402,0.475056,0.0167668,0.0117661,1175,414,3.81774,31.8931
-42,610,3.82397,-32.0718,0.0181246,-0.00575036,0.0146429,0.0250794,-0.0127051,0.443415,0.0222015,0.0157013,1182,414,3.824,32.0718
-35,610,3.8573,-32.2292,0.0201103,-0.00956897,0.0165459,0.0274963,-0.016955,0.419854,0.0259034,0.0153139,1189,414,3.85731,32.2292
-28,610,3.89868,-32.372,0.0198718,-0.0136285,0.017271,0.027181,-0.0209378,0.400353,0.0278592,0.0129464,1196,414,3.89865,32.372
-21,610,3.9325,-32.4933,0.019296,-0.0175251,0.0177753,0.0264766,-0.0247057,0.383922,0.0295561,0.0111874,1203,414,3.93244,32.4933
-14,610,3.9657,-32.5926,0.0177521,-0.0219566,0.0176552,0.0244666,-0.0286711,0.363419,0.030711,0.0122354,1210,414,3.96569,32.5926
-7,610,4.01965,-32.6786,0.0157797,-0.0256265,0.0163442,0.0214537,-0.0313005,0.334139,0.030634,0.0140068,1217,414,4.01969,32.6786
0,610,4.05566,-32.7994,0.0132088,-0.0290549,0.0143615,0.0176271,-0.0334731,0.298456,0.0299718,0.0111854,1224,414,4.05567,32.7994
7,610,4.08618,-32.8938,0.0102329,-0.0324065,0.0121686,0.0134612,-0.0356348,0.259324,0.0292934,0.0118615,1231,414,4.08621,32.8938
14,610,4.18933,-32.9476,0.00712605,-0.0355603,0.00977755,0.00925907,-0.0376933,0.214789,0.0287172,0.0147701,1238,414,4.18937,32.9476
21,610,4.24426,-33.002,0.00414587,-0.038204,0.00724811,0.00535203,-0.0394101,0.164898,0.0282271,0.0135818,1245,414,4.24424,33.002
28,610,4.20654,-33.0828,0.00128847,-0.0403541,0.00476322,0.00182636,-0.040892,0.112448,0.0278901,0.0147497,1252,414,4.20658,33.0828
35,610,4.30945,-33.1041,-0.00126448,-0.0422343,0.00238588,-0.00112601,-0.0423728,0.0579737,0.0278808,0.0189554,1259,414,4.30943,33.1041
42,610,4.33923,-33.122,-0.003971,-0.0442026,-0.000280256,-0.00396905,-0.0442046,-0.00696561,0.0282398,0.0168674,1266,414,4.3392,33.122
49,610,4.36279,-33.1917,-0.00651752,-0.0456374,-0.00266523,-0.00633677,-0.0458181,-0.0677128,0.0286676,0.0163645,1273,414,4.36275,33.1917
56,610,4.44641,-33.1798,-0.00794892,-0.0456449,-0.00454639,-0.00740835,-0.0461855,-0.118346,0.0286421,0.0154756,1280,414,4.44647,33.1798
63,610,4.45374,-33.1182,-0.0102067,-0.0457518,-0.00652055,-0.00904826,-0.0469102,-0.17582,0.0287362,0.0210306,1287,414,4.45372,33.1182
70,610,4.53003,-33.1123,-0.0118032,-0.0452044,-0.00805785,-0.00996095,-0.0470467,-0.224771,0.0286277,0.0290974,1294,414,4.53002,33.1123
77,610,4.60168,-33.1334,-0.0123024,-0.0442553,-0.00910581,-0.00988962,-0.046668,-0.259016,0.0283955,0.0339361,1301,414,4.60171,33.1334
84,610,4.60449,-33.1458,-0.0128686,-0.0430297,-0.0102098,-0.00973749,-0.0461608,-0.297568,0.0280963,0.0332405,1308,414,4.60444,33.1458
91,610,4.71826,-33.1167,-0.0133966,-0.0411052,-0.0112754,-0.0093882,-0.0451136,-0.341565,0.0274861,0.0284649,1315,414,4.71829,33.1167
98,610,4.80737,-33.0431,-0.013988,-0.0393674,-0.011711,-0.00940994,-0.0439455,-0.372656,0.0267185,0.0259553,1322,414,4.8074,33.0431
105,610,4.80762,-32.9474,-0.0140588,-0.037192,-0.0118755,-0.00904789,-0.0422029,-0.399289,0.0256568,0.0210812,1329,414,4.80758,32.9474
112,610,4.8114,-32.8786,-0.0136205,-0.0343052,-0.0118812,-0.00821084,-0.0397149,-0.427267,0.0242083,0.0135215,1336,414,4.81146,32.8786
119,610,4.81421,-32.7823,-0.0127578,-0.0309877,-0.0114912,-0.00720542,-0.0365401,-0.450106,0.0223488,0.0193246,1343,414,4.8142,32.7823
126,610,4.87952,-32.6406,-0.0114263,-0.0276517,-0.0108476,-0.0059933,-0.0330847,-0.464325,0.020355,0.0279306,1350,414,4.87946,32.6406
133,610,4.92456,-32.523,-0.00950408,-0.0241994,-0.01013,-0.00433752,-0.0293659,-0.471635,0.0183036,0.0217357,1357,414,4.92453,32.523
140,610,4.99121,-32.3964,-0.0073842,-0.0205556,-0.00921047,-0.00264717,-0.0252926,-0.475029,0.0160523,0.0170622,1364,414,4.9912,32.3964
147,610,4.9801,-32.2056,-0.00505023,-0.0170773,-0.00830913,-0.000806861,-0.0213207,-0.472161,0.0139526,0.0175517,1371,414,4.98006,32.2056
154,610,4.99316,-32.0563,-0.00217371,-0.0138274,-0.00696198,0.00107806,-0.0170792,-0.436963,0.011762,0.0225685,1378,414,4.9932,32.0563
161,610,5.05896,-31.9324,-9.03671e-05,-0.012377,-0.00545761,0.00198373,-0.0144511,-0.36318,0.0103588,0.0274031,1385,414,5.059,31.9324
168,610,5.09448,-31.7532,0.00173007,-0.010317,-0.00469709,0.00334496,-0.0119319,-0.331147,0.00927293,0.0276914,1392,414,5.0945,31.7532
175,610,5.13599,-31.5814,0.00329662,-0.0079088,-0.00383113,0.00448124,-0.00909342,-0.299885,0.0079867,0.0213115,1399,414,5.13604,31.5814
182,610,5.18811,-31.3683,0.00324977,-0.00615129,-0.00328599,0.00428446,-0.00718598,-0.30505,0.00669272,0.0154012,1406,414,5.18806,31.3683
189,610,5.19348,-31.149,0.00313485,-0.00428626,-0.00256295,0.00393394,-0.00508535,-0.302235,0.00522142,0.0149428,1413,414,5.19345,31.149
196,610,5.20215,-30.934,0.00358148,-0.0024422,-0.00154192,0.00395323,-0.00281395,-0.236582,0.00392545,0.0143744,1420,414,5.20214,30.934
203,610,5.22009,-30.7138,0.00324403,-0.00101396,-0.000966991,0.00345335,-0.00122327,-0.213171,0.00280051,0.0142854,1427,414,5.2201,30.7138
210,610,5.23572,-30.4813,0.00267507,0.000240125,-0.000323761,0.00271739,0.000197812,-0.129957,0.00174939,0.0110581,1434,414,5.23567,30.4813
217,610,5.2489,-30.2047,0.0022878,0.00124096,0.000195086,0.00232297,0.00120579,0.178382,0.0013415,0.0163704,1441,414,5.24889,30.2047
224,610,5.27356,-29.9346,0.00192343,0.00190297,0.000588571,0.00250186,0.00132454,0.77671,0.00144528,0.0193746,1448,414,5.27358,29.9346
231,610,5.26685,-29.6888,0.00158254,0.00245517,0.000981068,0.00309257,0.000945139,0.994631,0.00182992,0.0160566,1455,414,5.26682,29.6887
238,610,5.27832,-29.4043,0.00139391,0.00296753,0.00130231,0.00370225,0.000659182,1.05714,0.00228042,0.0121743,1462,414,5.27834,29.4043
245,610,5.30176,-29.1025,0.00121854,0.0034149,0.00144701,0.00413327,0.000500175,1.10999,0.00260484,0.0128731,1469,414,5.3017,29.1025
252,610,5.30261,-28.8032,0.00100035,0.00386537,0.00152117,0.00452237,0.000343349,1.16309,0.00290723,0.0144556,1476,414,5.30256,28.8032
259,610,5.29553,-28.4747,0.00071881,0.00433127,0.00163396,0.00496067,8.94121e-05,1.20311,0.00327772,0.0126041,1483,414,5.29553,28.4747
266,610,5.2782,-28.1481,0.000382086,0.00476735,0.00174823,0.00537899,-0.000229557,1.23424,0.00366491,0.0123124,1490,414,5.27819,28.1481
273,610,5.29004,-27.8279,9.05735e-05,0.00519566,0.00182159,0.00577898,-0.000492752,1.26089,0.00402697,0.00999435,1497,414,5.29007,27.828
280,610,5.27368,-27.4925,6.56329e-05,0.005639,0.00198538,0.00627392,-0.00056928,1.26128,0.00438471,0.00938524,1504,414,5.27371,27.4924
287,610,5.2218,-27.1408,0.000419707,0.00623507,0.00243076,0.00711728,-0.000462496,1.22265,0.00490629,0.0117823,1511,414,5.22179,27.1408
294,610,5.23425,-26.7878,0.000662312,0.00668414,0.00276916,0.00776393,-0.000417475,1.199,0.00532057,0.0103744,1518,414,5.23425,26.7878
301,610,5.2384,-26.4784,0.00107764,0.00710317,0.00317694,0.00846872,-0.000287916,1.16484,0.00574419,0.0100951,1525,414,5.23843,26.4784
308,610,5.23376,-26.1175,0.00174534,0.00749457,0.00369773,0.00930361,-6.36983e-05,1.1158,0.00622375,0.0119171,1532,414,5.23379,26.1175
315,610,5.19385,-25.7516,0.00261905,0.00783743,0.00427002,0.0102323,0.000224141,1.05965,0.00674808,0.0131637,1539,414,5.19384,25.7516
322,610,5.1521,-25.3487,0.00355072,0.0081601,0.00489819,0.0112687,0.000442106,1.00529,0.00736953,0.0132408,1546,414,5.15206,25.3487
329,610,5.12659,-24.9556,0.00442121,0.00840345,0.00548062,0.0122434,0.000581231,0.959636,0.0079756,0.0112901,1553,414,5.12658,24.9556
336,610,5.12866,-24.5538,0.00512555,0.00852772,0.00590971,0.0129763,0.000676969,0.925533,0.00843427,0.00998972,1560,414,5.1286,24.5538
343,610,5.1123,-24.1226,0.00582347,0.00869636,0.00636447,0.0137845,0.000735356,0.896387,0.0089546,0.0190163,1567,414,5.11233,24.1225
350,610,5.07031,-23.7627,0.00643763,0.00931523,0.00698414,0.0150072,0.000745629,0.886982,0.00976577,0.0452312,1574,414,5.07033,23.7627
357,610,5.09521,-23.0552,0,0,0,0,0,0,0,-1,1581,414,5.09516,23.0553
364,610,4.34302,-15.9496,0,0,0,0,0,0,0,-1,1588,414,4.34299,15.9496
371,610,3.54138,-13.3788,0,0,0,0,0,0,0,-1,1595,414,3.54137,13.3788
378,610,3.5752,-12.1958,0,0,0,0,0,0,0,-1,1602,414,3.57517,12.1958
385,610,2.57104,-10.3878,0,0,0,0,0,0,0,-1,1609,414,2.57109,10.3878
392,610,1.99744,-1.83582,0,0,0,0,0,0,0,-1,1616,414,1.99741,1.8358
399,610,2.77136,-2.60333,0,0,0,0,0,0,0,-1,1623,414,2.77133,2.60332
406,610,3.54529,-3.37085,0,0,0,0,0,0,0,-1,1630,414,3.54525,3.37084
413,610,3.01929,-3.20306,0,0,0,0,0,0,0,-1,1637,414,3.01929,3.20306
420,610,4.78149,-3.64041,0,0,0,0,0,0,0,-1,1644,414,4.78152,3.64042
427,610,5.20764,-4.67545,0,0,0,0,0,0,0,-1,1651,414,5.20759,4.67545
434,610,5.39233,-5.45441,0,0,0,0,0,0,0,-1,1658,414,5.39228,5.4544
441,610,0,0,0,0,0,0,0,0,0,-1,1665,414,0,0
448,610,0,0,0,0,0,0,0,0,0,-1,1672,414,0,0
455,610,0,0,0,0,0,0,0,0,0,-1,1679,414,0,0
462,610,0,0,0,0,0,0,0,0,0,-1,1686,414,0,0
469,610,0,0,0,0,0,0,0,0,0,-1,1693,414,0,0
476,610,0,0,0,0,0,0,0,0,0,-1,1700,414,0,0
483,610,0,0,0,0,0,0,0,0,0,-1,1707,414,0,0
490,610,0,0,0,0,0,0,0,0,0,-1,1714,414,0,0
497,610,0,0,0,0,0,0,0,0,0,-1,1721,414,0,0
504,610,0,0,0,0,0,0,0,0,0,-1,1728,414,0,0
511,610,0,0,0,0,0,0,0,0,0,-1,1735,414,0,0
518,610,0,0,0,0,0,0,0,0,0,-1,1742,414,0,0
525,610,0,0,0,0,0,0,0,0,0,-1,1749,414,0,0
532,610,0,0,0,0,0,0,0,0,0,-1,1756,414,0,0
539,610,0,0,0,0,0,0,0,0,0,-1,1763,414,0,0
546,610,0,0,0,0,0,0,0,0,0,-1,1770,414,0,0
553,610,0,0,0,0,0,0,0,0,0,-1,1777,414,0,0
560,610,0,0,0,0,0,0,0,0,0,-1,1784,414,0,0
567,610,0,0,0,0,0,0,0,0,0,-1,1791,414,0,0
574,610,0,0,0,0,0,0,0,0,0,-1,1798,414,0,0
581,610,0,0,0,0,0,0,0,0,0,-1,1805,414,0,0
588,610,0,0,0,0,0,0,0,0,0,-1,1812,414,0,0
595,610,0,0,0,0,0,0,0,0,0,-1,1819,414,0,0
602,610,0,0,0,0,0,0,0,0,0,-1,1826,414,0,0
609,610,0,0,0,0,0,0,0,0,0,-1,1833,414,0,0
616,610,0,0,0,0,0,0,0,0,0,-1,1840,414,0,0
623,610,0,0,0,0,0,0,0,0,0,-1,1847,414,0,0
630,610,0,0,0,0,0,0,0,0,0,-1,1854,414,0,0
637,610,0,0,0,0,0,0,0,0,0,-1,1861,414,0,0
644,610,0,0,0,0,0,0,0,0,0,-1,1868,414,0,0
651,610,0,0,0,0,0,0,0,0,0,-1,1875,414,0,0
658,610,0,0,0,0,0,0,0,0,0,-1,1882,414,0,0
665,610,0,0,0,0,0,0,0,0,0,-1,1889,414,0,0
672,610,0,0,0,0,0,0,0,0,0,-1,1896,414,0,0
679,610,0,0,0,0,0,0,0,0,0,-1,1903,414,0,0
686,610,0,0,0,0,0,0,0,0,0,-1,1910,414,0,0
693,610,0,0,0,0,0,0,0,0,0,-1,1917,414,0,0
700,610,0,0,0,0,0,0,0,0,0,-1,1924,414,0,0
707,610,0,0,0,0,0,0,0,0,0,-1,1931,414,0,0
714,610,0,0,0,0,0,0,0,0,0,-1,1938,414,0,0
721,610,0,0,0,0,0,0,0,0,0,-1,1945,414,0,0
728,610,0,0,0,0,0,0,0,0,0,-1,1952,414,0,0
735,610,0,0,0,0,0,0,0,0,0,-1,1959,414,0,0
742,610,0,0,0,0,0,0,0,0,0,-1,1966,414,0,0
749,610,0,0,0,0,0,0,0,0,0,-1,1973,414,0,0
756,610,0,0,0,0,0,0,0,0,0,-1,1980,414,0,0
763,610,0,0,0,0,0,0,0,0,0,-1,1987,414,0,0
770,610,0,0,0,0,0,0,0,0,0,-1,1994,414,0,0
777,610,0,0,0,0,0,0,0,0,0,-1,2001,414,0,0
784,610,0,0,0,0,0,0,0,0,0,-1,2008,414,0,0
791,610,0,0,0,0,0,0,0,0,0,-1,2015,414,0,0
798,610,0,0,0,0,0,0,0,0,0,-1,2022,414,0,0
805,610,0,0,0,0,0,0,0,0,0,-1,2029,414,0,0
812,610,0,0,0,0,0,0,0,0,0,-1,2036,414,0,0
-700,603,0,0,0,0,0,0,0,0,0,-1,524,421,0,0
-693,603,0,0,0,0,0,0,0,0,0,-1,531,421,0,0
-686,603,0,0,0,0,0,0,0,0,0,-1,538,421,0,0
-679,603,0,0,0,0,0,0,0,0,0,-1,545,421,0,0
-672,603,0,0,0,0,0,0,0,0,0,-1,552,421,0,0
-665,603,0,0,0,0,0,0,0,0,0,-1,559,421,0,0
-658,603,0,0,0,0,0,0,0,0,0,-1,566,421,0,0
-651,603,0,0,0,0,0,0,0,0,0,-1,573,421,0,0
-644,603,0,0,0,0,0,0,0,0,0,-1,580,421,0,0
-637,603,0,0,0,0,0,0,0,0,0,-1,587,421,0,0
-630,603,0,0,0,0,0,0,0,0,0,-1,594,421,0,0
-623,603,0,0,0,0,0,0,0,0,0,-1,601,421,0,0
-616,603,0,0,0,0,0,0,0,0,0,-1,608,421,0,0
-609,603,0,0,0,0,0,0,0,0,0,-1,615,421,0,0
-602,603,0,0,0,0,0,0,0,0,0,-1,622,421,0,0
-595,603,0,0,0,0,0,0,0,0,0,-1,629,421,0,0
-588,603,0,0,0,0,0,0,0,0,0,-1,636,421,0,0
-581,603,0,0,0,0,0,0,0,0,0,-1,643,421,0,0
-574,603,0,0,0,0,0,0,0,0,0,-1,650,421,0,0
-567,603,0,0,0,0,0,0,0,0,0,-1,657,421,0,0
-560,603,0,0,0,0,0,0,0,0,0,-1,664,421,0,0
-553,603,0,0,0,0,0,0,0,0,0,-1,671,421,0,0
-546,603,0,0,0,0,0,0,0,0,0,-1,678,421,0,0
-539,603,0,0,0,0,0,0,0,0,0,-1,685,421,0,0
-532,603,0,0,0,0,0,0,0,0,0,-1,692,421,0,0
-525,603,0,0,0,0,0,0,0,0,0,-1,699,421,0,0
-518,603,0,0,0,0,0,0,0,0,0,-1,706,421,0,0
-511,603,0,0,0,0,0,0,0,0,0,-1,713,421,0,0
-504,603,0,0,0,0,0,0,0,0,0,-1,720,421,0,0
-497,603,0,0,0,0,0,0,0,0,0,-1,727,421,0,0
-490,603,0,0,0,0,0,0,0,0,0,-1,734,421,0,0
-483,603,0,0,0,0,0,0,0,0,0,-1,741,421,0,0
-476,603,0,0,0,0,0,0,0,0,0,-1,748,421,0,0
-469,603,0,0,0,0,0,0,0,0,0,-1,755,421,0,0
-462,603,0,0,0,0,0,0,0,0,0,-1,762,421,0,0
-455,603,0,0,0,0,0,0,0,0,0,-1,769,421,0,0
-448,603,0,0,0,0,0,0,0,0,0,-1,776,421,0,0
-441,603,0,0,0,0,0,0,0,0,0,-1,783,421,0,0
-434,603,0,0,0,0,0,0,0,0,0,-1,790,421,0,0
-427,603,0,0,0,0,0,0,0,0,0,-1,797,421,0,0
-420,603,0,0,0,0,0,0,0,0,0,-1,804,421,0,0
-413,603,0,0,0,0,0,0,0,0,0,-1,811,421,0,0
-406,603,0,0,0,0,0,0,0,0,0,-1,818,421,0,0
-399,603,0,0,0,0,0,0,0,0,0,-1,825,421,0,0
-392,603,0,0,0,0,0,0,0,0,0,-1,832,421,0,0
-385,603,0,0,0,0,0,0,0,0,0,-1,839,421,0,0
-378,603,0,0,0,0,0,0,0,0,0,-1,846,421,0,0
-371,603,0,0,0,0,0,0,0,0,0,-1,853,421,0,0
-364,603,0,0,0,0,0,0,0,0,0,-1,860,421,0,0
-357,603,0,0,0,0,0,0,0,0,0,-1,867,421,0,0
-350,603,0,0,0,0,0,0,0,0,0,-1,874,421,0,0
-343,603,0,0,0,0,0,0,0,0,0,-1,881,421,0,0
-336,603,0,0,0,0,0,0,0,0,0,-1,888,421,0,0
-329,603,4.09686,-17.9702,0,0,0,0,0,0,0,-1,895,421,4.09687,17.9702
-322,603,5.98431,-20.9071,0,0,0,0,0,0,0,-1,902,421,5.98431,20.9071
-315,603,5.99744,-20.4501,0,0,0,0,0,0,0,-1,909,421,5.99745,20.4501
-308,603,5.92249,-20.778,0,0,0,0,0,0,0,-1,916,421,5.92248,20.778
-301,603,2.87506,-22.5246,0,0,0,0,0,0,0,-1,923,421,2.87504,22.5246
-294,603,3.98431,-22.4698,0,0,0,0,0,0,0,-1,930,421,3.98428,22.4697
-287,603,5.09351,-22.4149,0,0,0,0,0,0,0,-1,937,421,5.09353,22.4149
-280,603,2.80798,-22.7742,0,0,0,0,0,0,0,-1,944,421,2.80801,22.7742
-273,603,3.50214,-23.2956,0,0,0,0,0,0,0,-1,951,421,3.50211,23.2955
-266,603,3.06427,-22.5546,0,0,0,0,0,0,0,-1,958,421,3.0643,22.5546
-259,603,3.44769,-22.3161,0,0,0,0,0,0,0,-1,965,421,3.44767,22.3161
-252,603,3.70679,-23.2314,-0.000870765,0.00365269,-0.00410104,0.00607433,-0.0032924,-1.0374,0.00548682,0.0415666,972,421,3.70681,23.2314
-245,603,3.74164,-23.4769,-0.00157754,0.00709806,-0.00355891,0.00837118,-0.00285065,-1.22726,0.00673519,0.0325728,979,421,3.74164,23.4769
-238,603,3.6413,-23.8372,-0.00223758,0.00928134,-0.0036427,0.0103366,-0.00329286,-1.28882,0.0082118,0.0226721,986,421,3.64127,23.8372
-231,603,3.56909,-24.2742,-0.00295027,0.0106115,-0.00340028,0.0114163,-0.00375505,-1.33839,0.00912384,0.0140842,993,421,3.56907,24.2742
-224,603,3.52295,-24.6797,-0.00311986,0.0111879,-0.0034844,0.0119914,-0.00392331,-1.34417,0.00957383,0.0138879,1000,421,3.52297,24.6797
-217,603,3.51501,-25.0616,-0.00274848,0.0117381,-0.00366304,0.0126117,-0.00362203,-1.33669,0.0098399,0.012357,1007,421,3.51501,25.0616
-210,603,3.51538,-25.4579,-0.00251451,0.0110653,-0.0034915,0.0119104,-0.00335962,-1.33332,0.00926547,0.0107755,1014,421,3.51538,25.4579
-203,603,3.5083,-25.8513,-0.00231326,0.00970197,-0.00317223,0.0104881,-0.00309936,-1.32788,0.00822224,0.0172435,1021,421,3.50828,25.8513
-196,603,3.49854,-26.2137,-0.00210476,0.00859329,-0.0029328,0.00934454,-0.00285601,-1.32003,0.00736856,0.0184308,1028,421,3.49853,26.2137
-189,603,3.46985,-26.5465,-0.0016055,0.00716205,-0.0028083,0.00798443,-0.00242788,-1.28592,0.00629042,0.0152784,1035,421,3.46981,26.5465
-182,603,3.46069,-26.9088,-0.00103891,0.00551637,-0.00243902,0.00632428,-0.00184682,-1.25093,0.00494805,0.0113376,1042,421,3.46072,26.9088
-175,603,3.42896,-27.2339,-0.000609395,0.00381601,-0.00196839,0.00456483,-0.00135822,-1.20728,0.00358283,0.0113817,1049,421,3.42894,27.2339
-168,603,3.39221,-27.5493,-0.000294198,0.00216229,-0.0014798,0.00285717,-0.000989077,-1.13178,0.00230628,0.0138049,1056,421,3.39223,27.5493
-161,603,3.38428,-27.8981,6.76001e-05,0.000606787,-0.00107523,0.00144571,-0.000771319,-0.908231,0.00129959,0.0133099,1063,421,3.38429,27.8981
-154,603,3.38989,-28.22,0.000392179,-0.000654921,-0.000607021,0.000670239,-0.000932981,-0.429548,0.000929754,0.0127163,1070,421,3.38983,28.22
-147,603,3.38416,-28.5096,0.000676905,-0.00179132,-0.000219931,0.000696349,-0.00181076,-0.0881792,0.00149439,0.0140989,1077,421,3.38421,28.5096
-140,603,3.4187,-28.7981,0.000966158,-0.00284441,0.000119416,0.000969896,-0.00284815,0.0312971,0.00229154,0.0118527,1084,421,3.41876,28.7981
-133,603,3.41382,-29.0794,0.00119605,-0.00373156,0.000447644,0.00123638,-0.00377189,0.089864,0.00301251,0.0120622,1091,421,3.41377,29.0794
-126,603,3.41113,-29.3349,0.00146175,-0.00429302,0.000637701,0.00153157,-0.00436284,0.10905,0.00353157,0.0109184,1098,421,3.41114,29.3349
-119,603,3.43115,-29.6308,0.00190341,-0.00429119,0.000557125,0.00195311,-0.0043409,0.0889857,0.00371999,0.0108117,1105,421,3.43117,29.6308
-112,603,3.42993,-29.9302,0.00231519,-0.00416171,0.000431179,0.00234377,-0.00419028,0.0661826,0.00382232,0.0159194,1112,421,3.42993,29.9302
-105,603,3.44727,-30.1927,0.00274931,-0.00381235,0.000154967,0.00275297,-0.00381601,0.0235995,0.00380912,0.0161045,1119,421,3.44732,30.1927
-98,603,3.45776,-30.4037,0.00323553,-0.00347347,-0.000178978,0.0032403,-0.00347824,-0.026652,0.00387976,0.0134192,1126,421,3.4578,30.4037
-91,603,3.46631,-30.6276,0.00379179,-0.00296444,-0.00064974,0.00385371,-0.00302636,-0.0950086,0.00398177,0.00926473,1133,421,3.46628,30.6276
-84,603,3.49646,-30.9031,0.0045697,-0.00238386,-0.00117303,0.00476225,-0.00257641,-0.162698,0.00429917,0.00979824,1140,421,3.49648,30.9031
-77,603,3.53882,-31.1883,0.00535209,-0.00215232,-0.00136359,0.00559218,-0.00239241,-0.174285,0.00473169,0.0171695,1147,421,3.53876,31.1883
-70,603,3.72095,-31.6131,0.00608851,-0.00146377,-0.00152669,0.00638545,-0.00176071,-0.192103,0.00494939,0.0479544,1154,421,3.72089,31.6131
-63,603,3.55457,-31.5359,0,0,0,0,0,0,0,-1,1161,421,3.5546,31.5359
-56,603,3.60254,-31.7139,0,0,0,0,0,0,0,-1,1168,421,3.60249,31.7139
-49,603,3.64856,-31.8557,0,0,0,0,0,0,0,-1,1175,421,3.64856,31.8557
-42,603,3.65112,-32.0049,0,0,0,0,0,0,0,-1,1182,421,3.65118,32.0049
-35,603,3.61963,-32.1475,0.0340214,-0.0134659,0.027907,0.0469187,-0.0263632,0.432916,0.0428606,0.0421781,1189,421,3.61967,32.1475
-28,603,3.64465,-32.2655,0.0329354,-0.0183833,0.0279819,0.0452416,-0.0306895,0.414334,0.0441064,0.0257923,1196,421,3.64471,32.2655
-21,603,3.74048,-32.4019,0.0313752,-0.0229336,0.0277174,0.0430231,-0.0345815,0.397829,0.0448933,0.0221161,1203,421,3.7405,32.4019
-14,603,3.85449,-32.5,0.0285203,-0.0282176,0.0266106,0.0390476,-0.0387449,0.376714,0.0449137,0.0213907,1210,421,3.85447,32.5
-7,603,3.8938,-32.6011,0.0249009,-0.0327783,0.0238952,0.033514,-0.0413914,0.345956,0.0433263,0.0243228,1217,421,3.89376,32.6011
0,603,3.86108,-32.7283,0.0205709,-0.0372083,0.0205369,0.0271266,-0.043764,0.308994,0.0413028,0.0293413,1224,421,3.86113,32.7283
7,603,3.90039,-32.6919,0.0156102,-0.0416043,0.0169118,0.0202352,-0.0462293,0.266951,0.0393394,0.0366224,1231,421,3.90042,32.6919
14,603,4.17224,-32.5904,0.0104969,-0.0457674,0.0131697,0.013427,-0.0486974,0.218917,0.0377452,0.0352377,1238,421,4.1722,32.5904
21,603,4.20227,-32.6721,0.00565086,-0.0493344,0.00954685,0.00726128,-0.0509448,0.167112,0.0366244,0.0277195,1245,421,4.20225,32.6721
28,603,4.1897,-32.7126,0.00111323,-0.052281,0.0061127,0.00180409,-0.0529719,0.112542,0.0359311,0.0328332,1252,421,4.18966,32.7126
35,603,4.22156,-32.637,-0.00276637,-0.0548563,0.00296712,-0.0025979,-0.0550248,0.056717,0.0358486,0.0440337,1259,421,4.22159,32.637
42,603,4.33594,-32.8663,-0.00655486,-0.0575155,-0.000577639,-0.00654831,-0.0575221,-0.0113331,0.0363624,0.0389765,1266,421,4.33595,32.8663
49,603,4.40881,-33.0436,-0.00976081,-0.0595169,-0.00377342,-0.00947627,-0.0598015,-0.0752646,0.0371144,0.0200722,1273,421,4.40886,33.0436
56,603,4.39636,-32.9293,-0.0111813,-0.0594317,-0.00639918,-0.0103471,-0.060266,-0.129639,0.0372109,0.038285,1280,421,4.39636,32.9293
63,603,4.40723,-32.8026,0,0,0,0,0,0,0,-1,1287,421,4.40727,32.8026
70,603,4.5144,-32.939,0,0,0,0,0,0,0,-1,1294,421,4.51439,32.939
77,603,4.63953,-33.0768,0,0,0,0,0,0,0,-1,1301,421,4.63957,33.0768
84,603,4.59656,-33.1228,0,0,0,0,0,0,0,-1,1308,421,4.59651,33.1228
91,603,4.81653,-33.1075,0,0,0,0,0,0,0,-1,1315,421,4.81656,33.1074
98,603,4.979,-33.0806,0,0,0,0,0,0,0,-1,1322,421,4.979,33.0806
105,603,5.2605,-32.7582,-0.0169842,-0.0491381,-0.0179449,-0.00896783,-0.0571545,-0.420125,0.0354934,0.0476549,1329,421,5.2605,32.7582
112,603,5.02759,-32.5981,-0.0167304,-0.0455785,-0.0182775,-0.00787099,-0.054438,-0.451347,0.0339736,0.0379329,1336,421,5.0276,32.5981
119,603,5.04065,-32.5339,-0.0161127,-0.041554,-0.0180129,-0.00678163,-0.0508851,-0.477961,0.031904,0.0390527,1343,421,5.04059,32.5339
126,603,5.10535,-32.3578,-0.0149781,-0.0375081,-0.0175107,-0.00542182,-0.0470643,-0.499565,0.0297342,0.0483607,1350,421,5.10533,32.3578
133,603,5.14685,-32.243,-0.0131145,-0.0333548,-0.0166075,-0.00378661,-0.0426828,-0.511757,0.0272807,0.0404644,1357,421,5.14687,32.243
140,603,5.26538,-32.1354,-0.0110402,-0.0289132,-0.0153151,-0.00224498,-0.0377084,-0.521295,0.024425,0.0277697,1364,421,5.26541,32.1354
147,603,5.15747,-32.0375,-0.00863462,-0.0243648,-0.0138298,-0.00058982,-0.0324096,-0.526854,0.0214125,0.0227054,1371,421,5.15745,32.0375
154,603,5.14197,-31.9853,-0.00541601,-0.0197431,-0.0115114,0.000978763,-0.0261379,-0.507069,0.0177605,0.0297629,1378,421,5.14202,31.9853
161,603,5.23987,-31.8601,-0.00315658,-0.0182412,-0.00824967,0.000478919,-0.0218767,-0.41508,0.0147467,0.0311692,1385,421,5.23989,31.8602
168,603,5.31274,-31.6694,0.000135286,-0.0154773,-0.0070905,0.00287478,-0.0182167,-0.368693,0.0132075,0.0324133,1392,421,5.31269,31.6694
175,603,5.52051,-31.5026,0.00335473,-0.0119961,-0.00574468,0.00526646,-0.0139078,-0.321255,0.0114389,0.0351872,1399,421,5.52052,31.5026
182,603,5.61157,-31.3086,0.00363839,-0.00954295,-0.00491593,0.00526985,-0.0111744,-0.320434,0.00969596,0.0421428,1406,421,5.61157,31.3086
189,603,5.58752,-31.0797,0.00380616,-0.00691772,-0.00384638,0.00504308,-0.00815464,-0.311137,0.00768998,0.0381594,1413,421,5.58755,31.0796
196,603,5.46326,-30.8172,0.00507195,-0.00411426,-0.0023135,0.00562169,-0.00466401,-0.233298,0.00594703,0.0287828,1420,421,5.46331,30.8172
203,603,5.45886,-30.6599,0.00466514,-0.00219284,-0.00157712,0.00501044,-0.00253814,-0.215544,0.00443541,0.0165592,1427,421,5.45885,30.6599
210,603,5.47107,-30.5018,0.00394233,-0.000502284,-0.000742933,0.00406323,-0.00062318,-0.161313,0.00293865,0.0127813,1434,421,5.47104,30.5018
217,603,5.50476,-30.2217,0.0034718,0.000776697,-7.29421e-05,0.00347377,0.000774724,-0.0270383,0.00210566,0.013205,1441,421,5.50479,30.2217
224,603,5.53955,-29.9373,0.00299951,0.00157714,0.000426214,0.00311744,0.0014592,0.269954,0.00180108,0.016986,1448,421,5.5395,29.9373
231,603,5.52881,-29.6626,0.00255905,0.0021797,0.000875255,0.00326494,0.0014738,0.678695,0.00188798,0.0155425,1455,421,5.52878,29.6626
238,603,5.55518,-29.3764,0.00237156,0.0026068,0.00119157,0.00368654,0.00129182,0.834594,0.00215994,0.0114999,1462,421,5.55519,29.3764
245,603,5.58655,-29.0924,0.00225714,0.00288241,0.00131004,0.0039166,0.00122294,0.902531,0.00231378,0.0119417,1469,421,5.58656,29.0924
252,603,5.60828,-28.7922,0.00201763,0.00308008,0.00130746,0.00396011,0.0011376,0.978363,0.00235434,0.0107044,1476,421,5.60829,28.7922
259,603,5.60303,-28.4726,0.00168361,0.0032321,0.00131483,0.00398372,0.000932,1.05149,0.00240608,0.0103504,1483,421,5.60302,28.4726
266,603,5.58154,-28.156,0.00136512,0.00339406,0.00132129,0.00404541,0.00071377,1.11279,0.00249331,0.0116576,1490,421,5.58155,28.156
273,603,5.58691,-27.8197,0.00107926,0.0036259,0.00134163,0.00420226,0.000502896,1.16504,0.00264983,0.0108704,1497,421,5.58687,27.8197
280,603,5.60254,-27.4868,0.000887396,0.00376409,0.00137274,0.00431402,0.000337462,1.18976,0.00277039,0.0117441,1504,421,5.60256,27.4868
287,603,5.5863,-27.1406,0.000962353,0.00416027,0.00164325,0.00485411,0.000268512,1.17127,0.00315038,0.0108794,1511,421,5.58631,27.1406
294,603,5.5575,-26.7981,0.00102397,0.00447815,0.00187194,0.00529802,0.000204099,1.15798,0.00346598,0.00931192,1518,421,5.55751,26.7981
301,603,5.56152,-26.4731,0.00120694,0.00483544,0.00218401,0.00586045,0.00018193,1.13199,0.00384776,0.010941,1525,421,5.56155,26.4731
308,603,5.56519,-26.1245,0.00158145,0.00517293,0.00260555,0.00654162,0.00021277,1.08712,0.00429191,0.0164524,1532,421,5.5652,26.1245
315,603,5.53101,-25.7554,0.00209262,0.00553785,0.00306075,0.00732744,0.000303025,1.04171,0.00478715,0.0158271,1539,421,5.53102,25.7554
322,603,5.51379,-25.3674,0.00262324,0.00590821,0.00356536,0.00819123,0.000340221,1.00125,0.00535102,0.0156788,1546,421,5.51374,25.3674
329,603,5.49487,-24.967,0.00309582,0.0062197,0.00405097,0.00899942,0.000316099,0.969401,0.00589707,0.0108875,1553,421,5.49483,24.967
336,603,5.48694,-24.5806,0.00343124,0.0064495,0.00443044,0.00962079,0.000259956,0.949549,0.00632899,0.00876379,1560,421,5.48693,24.5806
343,603,5.4939,-24.1771,0.00372429,0.00674273,0.0048279,0.0102918,0.000175218,0.936888,0.00680355,0.0110946,1567,421,5.49388,24.1771
350,603,5.47363,-23.7599,0.00392112,0.00741083,0.00535328,0.0112964,3.55071e-05,0.94294,0.00751915,0.0213155,1574,421,5.47363,23.7599
357,603,5.4762,-23.2513,0.00371731,0.00792459,0.00579976,0.0119904,-0.000348532,0.959376,0.0081123,0.0337349,1581,421,5.47619,23.2513
364,603,5.49414,-22.7133,0,0,0,0,0,0,0,-1,1588,421,5.4942,22.7133
371,603,5.39868,-22.2867,0,0,0,0,0,0,0,-1,1595,421,5.39867,22.2867
378,603,5.27271,-22.1525,0,0,0,0,0,0,0,-1,1602,421,5.27274,22.1525
385,603,5.08191,-21.6294,0,0,0,0,0,0,0,-1,1609,421,5.08192,21.6294
392,603,4.90527,-19.605,0,0,0,0,0,0,0,-1,1616,421,4.90526,19.605
399,603,2.94299,0.638214,0,0,0,0,0,0,0,-1,1623,421,2.94293,-0.638215
406,603,3.01917,-2.37219,0,0,0,0,0,0,0,-1,1630,421,3.01915,2.37219
413,603,2.38928,-2.41275,0,0,0,0,0,0,0,-1,1637,421,2.38926,2.41274
420,603,2.74866,-2.30066,0,0,0,0,0,0,0,-1,1644,421,2.74867,2.30065
427,603,7.11548,-3.35352,0,0,0,0,0,0,0,-1,1651,421,7.11549,3.35351
434,603,7.32153,-4.50525,0,0,0,0,0,0,0,-1,1658,421,7.32149,4.50525
441,603,3.18213,-0.250946,0,0,0,0,0,0,0,-1,1665,421,3.18212,0.250944
448,603,2.95667,-0.066925,0,0,0,0,0,0,0,-1,1672,421,2.95662,0.0669226
455,603,0,0,0,0,0,0,0,0,0,-1,1679,421,0,0
462,603,0,0,0,0,0,0,0,0,0,-1,1686,421,0,0
469,603,0,0,0,0,0,0,0,0,0,-1,1693,421,0,0
476,603,0,0,0,0,0,0,0,0,0,-1,1700,421,0,0
483,603,0,0,0,0,0,0,0,0,0,-1,1707,421,0,0
490,603,0,0,0,0,0,0,0,0,0,-1,1714,421,0,0
497,603,0,0,0,0,0,0,0,0,0,-1,1721,421,0,0
504,603,0,0,0,0,0,0,0,0,0,-1,1728,421,0,0
511,603,0,0,0,0,0,0,0,0,0,-1,1735,421,0,0
518,603,0,0,0,0,0,0,0,0,0,-1,1742,421,0,0
525,603,0,0,0,0,0,0,0,0,0,-1,1749,421,0,0
532,603,0,0,0,0,0,0,0,0,0,-1,1756,421,0,0
539,603,0,0,0,0,0,0,0,0,0,-1,1763,421,0,0
546,603,0,0,0,0,0,0,0,0,0,-1,1770,421,0,0
553,603,0,0,0,0,0,0,0,0,0,-1,1777,421,0,0
560,603,0,0,0,0,0,0,0,0,0,-1,1784,421,0,0
567,603,0,0,0,0,0,0,0,0,0,-1,1791,421,0,0
574,603,0,0,0,0,0,0,0,0,0,-1,1798,421,0,0
581,603,0,0,0,0,0,0,0,0,0,-1,1805,421,0,0
588,603,0,0,0,0,0,0,0,0,0,-1,1812,421,0,0
595,603,0,0,0,0,0,0,0,0,0,-1,1819,421,0,0
602,603,0,0,0,0,0,0,0,0,0,-1,1826,421,0,0
609,603,0,0,0,0,0,0,0,0,0,-1,1833,421,0,0
616,603,0,0,0,0,0,0,0,0,0,-1,1840,421,0,0
623,603,0,0,0,0,0,0,0,0,0,-1,1847,421,0,0
630,603,0,0,0,0,0,0,0,0,0,-1,1854,421,0,0
637,603,0,0,0,0,0,0,0,0,0,-1,1861,421,0,0
644,603,0,0,0,0,0,0,0,0,0,-1,1868,421,0,0
651,603,0,0,0,0,0,0,0,0,0,-1,1875,421,0,0
658,603,0,0,0,0,0,0,0,0,0,-1,1882,421,0,0
665,603,0,0,0,0,0,0,0,0,0,-1,1889,421,0,0
672,603,0,0,0,0,0,0,0,0,0,-1,1896,421,0,0
679,603,0,0,0,0,0,0,0,0,0,-1,1903,421,0,0
686,603,0,0,0,0,0,0,0,0,0,-1,1910,421,0,0
693,603,0,0,0,0,0,0,0,0,0,-1,1917,421,0,0
700,603,0,0,0,0,0,0,0,0,0,-1,1924,421,0,0
707,603,0,0,0,0,0,0,0,0,0,-1,1931,421,0,0
714,603,0,0,0,0,0,0,0,0,0,-1,1938,421,0,0
721,603,0,0,0,0,0,0,0,0,0,-1,1945,421,0,0
728,603,0,0,0,0,0,0,0,0,0,-1,1952,421,0,0
735,603,0,0,0,0,0,0,0,0,0,-1,1959,421,0,0
742,603,0,0,0,0,0,0,0,0,0,-1,1966,421,0,0
749,603,0,0,0,0,0,0,0,0,0,-1,1973,421,0,0
756,603,0,0,0,0,0,0,0,0,0,-1,1980,421,0,0
763,603,0,0,0,0,0,0,0,0,0,-1,1987,421,0,0
770,603,0,0,0,0,0,0,0,0,0,-1,1994,421,0,0
777,603,0,0,0,0,0,0,0,0,0,-1,2001,421,0,0
784,603,0,0,0,0,0,0,0,0,0,-1,2008,421,0,0
791,603,0,0,0,0,0,0,0,0,0,-1,2015,421,0,0
798,603,0,0,0,0,0,0,0,0,0,-1,2022,421,0,0
805,603,0,0,0,0,0,0,0,0,0,-1,2029,421,0,0
812,603,0,0,0,0,0,0,0,0,0,-1,2036,421,0,0
-700,596,0,0,0,0,0,0,0,0,0,-1,524,428,0,0
-693,596,0,0,0,0,0,0,0,0,0,-1,531,428,0,0
-686,596,0,0,0,0,0,0,0,0,0,-1,538,428,0,0
-679,596,0,0,0,0,0,0,0,0,0,-1,545,428,0,0
-672,596,0,0,0,0,0,0,0,0,0,-1,552,428,0,0
-665,596,0,0,0,0,0,0,0,0,0,-1,559,428,0,0
-658,596,0,0,0,0,0,0,0,0,0,-1,566,428,0,0
-651,596,0,0,0,0,0,0,0,0,0,-1,573,428,0,0
-644,596,0,0,0,0,0,0,0,0,0,-1,580,428,0,0
-637,596,0,0,0,0,0,0,0,0,0,-1,587,428,0,0
-630,596,0,0,0,0,0,0,0,0,0,-1,594,428,0,0
-623,596,0,0,0,0,0,0,0,0,0,-1,601,428,0,0
-616,596,0,0,0,0,0,0,0,0,0,-1,608,428,0,0
-609,596,0,0,0,0,0,0,0,0,0,-1,615,428,0,0
-602,596,0,0,0,0,0,0,0,0,0,-1,622,428,0,0
-595,596,0,0,0,0,0,0,0,0,0,-1,629,428,0,0
-588,596,0,0,0,0,0,0,0,0,0,-1,636,428,0,0
-581,596,0,0,0,0,0,0,0,0,0,-1,643,428,0,0
-574,596,0,0,0,0,0,0,0,0,0,-1,650,428,0,0
-567,596,0,0,0,0,0,0,0,0,0,-1,657,428,0,0
-560,596,0,0,0,0,0,0,0,0,0,-1,664,428,0,0
-553,596,0,0,0,0,0,0,0,0,0,-1,671,428,0,0
-546,596,0,0,0,0,0,0,0,0,0,-1,678,428,0,0
-539,596,0,0,0,0,0,0,0,0,0,-1,685,428,0,0
-532,596,0,0,0,0,0,0,0,0,0,-1,692,428,0,0
-525,596,0,0,0,0,0,0,0,0,0,-1,699,428,0,0
-518,596,0,0,0,0,0,0,0,0,0,-1,706,428,0,0
-511,596,0,0,0,0,0,0,0,0,0,-1,713,428,0,0
-504,596,0,0,0,0,0,0,0,0,0,-1,720,428,0,0
-497,596,0,0,0,0,0,0,0,0,0,-1,727,428,0,0
-490,596,0,0,0,0,0,0,0,0,0,-1,734,428,0,0
-483,596,0,0,0,0,0,0,0,0,0,-1,741,428,0,0
-476,596,0,0,0,0,0,0,0,0,0,-1,748,428,0,0
-469,596,0,0,0,0,0,0,0,0,0,-1,755,428,0,0
-462,596,0,0,0,0,0,0,0,0,0,-1,762,428,0,0
-455,596,0,0,0,0,0,0,0,0,0,-1,769,428,0,0
-448,596,0,0,0,0,0,0,0,0,0,-1,776,428,0,0
-441,596,0,0,0,0,0,0,0,0,0,-1,783,428,0,0
-434,596,0,0,0,0,0,0,0,0,0,-1,790,428,0,0
-427,596,0,0,0,0,0,0,0,0,0,-1,797,428,0,0
-420,596,0,0,0,0,0,0,0,0,0,-1,804,428,0,0
-413,596,0,0,0,0,0,0,0,0,0,-1,811,428,0,0
-406,596,0,0,0,0,0,0,0,0,0,-1,818,428,0,0
-399,596,0,0,0,0,0,0,0,0,0,-1,825,428,0,0
-392,596,0,0,0,0,0,0,0,0,0,-1,832,428,0,0
-385,596,0,0,0,0,0,0,0,0,0,-1,839,428,0,0
-378,596,0,0,0,0,0,0,0,0,0,-1,846,428,0,0
-371,596,0,0,0,0,0,0,0,0,0,-1,853,428,0,0
-364,596,0,0,0,0,0,0,0,0,0,-1,860,428,0,0
-357,596,0,0,0,0,0,0,0,0,0,-1,867,428,0,0
-350,596,0,0,0,0,0,0,0,0,0,-1,874,428,0,0
-343,596,0,0,0,0,0,0,0,0,0,-1,881,428,0,0
-336,596,-0.98291,-20.0836,0,0,0,0,0,0,0,-1,888,428,-0.982933,20.0836
-329,596,4.43048,-20.1666,0,0,0,0,0,0,0,-1,895,428,4.43045,20.1666
-322,596,4.29657,-19.996,0,0,0,0,0,0,0,-1,902,428,4.29655,19.996
-315,596,4.20044,-19.8317,0,0,0,0,0,0,0,-1,909,428,4.20045,19.8317
-308,596,0.254761,-20.841,0,0,0,0,0,0,0,-1,916,428,0.254731,20.841
-301,596,0.962402,-20.7614,0,0,0,0,0,0,0,-1,923,428,0.962388,20.7615
-294,596,2.33917,-20.2245,0,0,0,0,0,0,0,-1,930,428,2.33919,20.2245
-287,596,2.9455,-20.6294,0,0,0,0,0,0,0,-1,937,428,2.94552,20.6294
-280,596,3.34985,-21.4303,0,0,0,0,0,0,0,-1,944,428,3.34984,21.4303
-273,596,3.30133,-22.4846,-3.35504e-05,-0.00700713,-0.00538764,0.00289716,-0.00993785,-0.498202,0.00777306,0.0423514,951,428,3.30134,22.4846
-266,596,2.99969,-22.4103,-0.000232075,-0.00278159,-0.00497757,0.00363138,-0.00664504,-0.660042,0.00601753,0.0386816,958,428,2.99972,22.4103
-259,596,3.15283,-22.4986,-0.000293458,0.000322025,-0.00443872,0.00446366,-0.00443509,-0.820008,0.00513771,0.0331986,965,428,3.15282,22.4986
-252,596,3.24371,-23.0519,-0.000346164,0.00288048,-0.00383417,0.00542693,-0.00289261,-0.984541,0.00487701,0.0173431,972,428,3.24371,23.0519
-245,596,3.26178,-23.524,-0.000687219,0.00536367,-0.00321966,0.00675632,-0.00207986,-1.16255,0.00533441,0.0136253,979,428,3.26179,23.524
-238,596,3.26263,-23.9376,-0.00116747,0.00672311,-0.00308648,0.00778698,-0.00223134,-1.23886,0.0060733,0.0120935,986,428,3.26261,23.9376
-231,596,3.2135,-24.3321,-0.00177009,0.0075337,-0.00269535,0.00825814,-0.00249453,-1.30823,0.00649854,0.0139915,993,428,3.21349,24.3321
-224,596,3.17596,-24.7076,-0.0019472,0.00780658,-0.00259759,0.00845522,-0.00259585,-1.32609,0.00667259,0.0142696,1000,428,3.17596,24.7076
-217,596,3.16925,-25.0924,-0.00168331,0.008114,-0.00259836,0.00876045,-0.00232977,-1.32695,0.00675222,0.0138921,1007,428,3.16927,25.0924
-210,596,3.18231,-25.4857,-0.00153572,0.00740073,-0.0023392,0.00797601,-0.002111,-1.32965,0.00614312,0.0124276,1014,428,3.18229,25.4857
-203,596,3.16467,-25.8394,-0.00141979,0.00618648,-0.00200067,0.00668062,-0.00191392,-1.32866,0.00521024,0.0163595,1021,428,3.16468,25.8394
-196,596,3.15942,-26.1984,-0.0012743,0.0051695,-0.00171231,0.00559624,-0.00170105,-1.32655,0.00440863,0.016191,1028,428,3.15947,26.1984
-189,596,3.13574,-26.5422,-0.00105218,0.00386301,-0.00144212,0.00425489,-0.00144406,-1.30547,0.00342109,0.0127955,1035,428,3.13579,26.5422
-182,596,3.12793,-26.8949,-0.00071869,0.00249306,-0.00102314,0.0027913,-0.00101693,-1.28716,0.00227685,0.0116387,1042,428,3.12793,26.8949
-175,596,3.12683,-27.2377,-0.000417543,0.000972714,-0.000512409,0.00114116,-0.000585993,-1.25319,0.0010142,0.0138565,1049,428,3.12681,27.2377
-168,596,3.12256,-27.567,-0.000175002,-0.00063508,-7.46406e-07,-0.000175001,-0.000635082,-0.00162234,0.000378778,0.0161047,1056,428,3.12256,27.567
-161,596,3.11121,-27.8971,0.000147282,-0.00212185,0.000375348,0.000207758,-0.00218233,0.159748,0.00152885,0.0148388,1063,428,3.11115,27.8971
-154,596,3.09949,-28.2074,0.000494478,-0.00339468,0.000787854,0.000648018,-0.00354822,0.192471,0.00260846,0.012952,1070,428,3.09943,28.2074
-147,596,3.13916,-28.4872,0.000888134,-0.00455084,0.00112586,0.00111197,-0.00477468,0.196258,0.0036113,0.0130265,1077,428,3.13911,28.4872
-140,596,3.15503,-28.7684,0.00130878,-0.00573312,0.00140152,0.00157747,-0.00600181,0.189413,0.00461773,0.0139181,1084,428,3.15497,28.7684
-133,596,3.13245,-29.063,0.00166562,-0.00678753,0.00163819,0.001972,-0.0070939,0.184883,0.00550561,0.0144264,1091,428,3.13246,29.063
-126,596,3.14026,-29.3424,0.00212483,-0.00757443,0.00172654,0.002423,-0.0078726,0.171011,0.00621554,0.0111058,1098,428,3.14029,29.3424
-119,596,3.16113,-29.6382,0.0028009,-0.00775277,0.00149234,0.00300786,-0.00795973,0.137806,0.00654375,0.01414,1105,428,3.16111,29.6382
-112,596,3.1604,-29.906,0.00346139,-0.00773907,0.00118389,0.00358516,-0.00786284,0.104167,0.00676156,0.015778,1112,428,3.16035,29.9061
-105,596,3.17017,-30.1742,0.00415454,-0.00736112,0.000707351,0.00419783,-0.00740441,0.0611189,0.0067833,0.0163651,1119,428,3.17022,30.1742
-98,596,3.21838,-30.3987,0.0049082,-0.0068881,0.000178176,0.00491089,-0.0068908,0.0150998,0.00684559,0.0119015,1126,428,3.21841,30.3987
-91,596,3.22339,-30.7211,0.00568099,-0.00607536,-0.000533728,0.00570517,-0.00609954,-0.045275,0.00681672,0.0261065,1133,428,3.22339,30.7211
-84,596,3.36133,-31.2386,0,0,0,0,0,0,0,-1,1140,428,3.36133,31.2386
-77,596,3.35132,-31.2605,0,0,0,0,0,0,0,-1,1147,428,3.35131,31.2605
-70,596,3.495,-31.8058,0,0,0,0,0,0,0,-1,1154,428,3.49498,31.8058
-63,596,1.95569,-12.2758,0,0,0,0,0,0,0,-1,1161,428,1.95563,12.2759
-56,596,1.60107,-10.5827,0,0,0,0,0,0,0,-1,1168,428,1.60108,10.5827
-49,596,1.59473,-10.0393,0,0,0,0,0,0,0,-1,1175,428,1.59472,10.0393
-42,596,1.99585,-6.6246,0,0,0,0,0,0,0,-1,1182,428,1.99586,6.62459
-35,596,3.20801,-31.9156,0,0,0,0,0,0,0,-1,1189,428,3.20801,31.9155
-28,596,3.41772,-32.1152,0,0,0,0,0,0,0,-1,1196,428,3.41768,32.1152
-21,596,3.54919,-32.253,0,0,0,0,0,0,0,-1,1203,428,3.54922,32.253
-14,596,3.73621,-32.3532,0,0,0,0,0,0,0,-1,1210,428,3.73617,32.3532
-7,596,3.74939,-32.4558,0,0,0,0,0,0,0,-1,1217,428,3.74934,32.4558
0,596,3.63232,-32.6216,0,0,0,0,0,0,0,-1,1224,428,3.63227,32.6216
7,596,3.60327,-32.3091,0.0211255,-0.0499599,0.0237143,0.0283104,-0.0571449,0.294188,0.0502651,0.0464151,1231,428,3.60326,32.3091
14,596,3.56897,-32.1151,0.0138468,-0.0556514,0.0182254,0.0183363,-0.0601409,0.241522,0.0474032,0.0496439,1238,428,3.56896,32.1151
21,596,3.81506,-32.1379,0,0,0,0,0,0,0,-1,1245,428,3.81512,32.1379
28,596,2.82043,-31.9197,0,0,0,0,0,0,0,-1,1252,428,2.82049,31.9197
35,596,2.8811,-31.6351,0,0,0,0,0,0,0,-1,1259,428,2.88112,31.6351
42,596,4.40564,-32.4476,-0.00963564,-0.0718283,-0.000557366,-0.00963065,-0.0718333,-0.00896096,0.0450233,0.0453275,1266,428,4.40564,32.4476
49,596,4.61584,-32.7955,-0.0136081,-0.0746332,-0.00477509,-0.0132367,-0.0750046,-0.0776183,0.0462269,0.0451003,1273,428,4.61583,32.7955
56,596,4.3988,-32.8795,0,0,0,0,0,0,0,-1,1280,428,4.39881,32.8794
63,596,5.74622,-32.5401,0,0,0,0,0,0,0,-1,1287,428,5.74619,32.5401
70,596,0.19873,-31.175,0,0,0,0,0,0,0,-1,1294,428,0.198747,31.175
77,596,-0.168945,-30.9029,0,0,0,0,0,0,0,-1,1301,428,-0.168971,30.9029
84,596,-0.531738,-30.6087,0,0,0,0,0,0,0,-1,1308,428,-0.531786,30.6087
91,596,-0.891602,-30.3004,0,0,0,0,0,0,0,-1,1315,428,-0.89157,30.3004
98,596,-1.45911,-30.5924,0,0,0,0,0,0,0,-1,1322,428,-1.45906,30.5924
105,596,5.64294,-32.6349,0,0,0,0,0,0,0,-1,1329,428,5.64295,32.6349
112,596,5.26355,-32.0901,0,0,0,0,0,0,0,-1,1336,428,5.26349,32.0901
119,596,5.34094,-32.0792,0,0,0,0,0,0,0,-1,1343,428,5.3409,32.0792
126,596,5.38672,-31.9124,0,0,0,0,0,0,0,-1,1350,428,5.38671,31.9124
133,596,5.36218,-31.8458,0,0,0,0,0,0,0,-1,1357,428,5.36215,31.8458
140,596,5.58191,-31.6748,0,0,0,0,0,0,0,-1,1364,428,5.58186,31.6748
147,596,5.36865,-31.611,0,0,0,0,0,0,0,-1,1371,428,5.36861,31.611
154,596,5.2467,-31.6841,0,0,0,0,0,0,0,-1,1378,428,5.24665,31.6841
161,596,5.48669,-31.4136,0,0,0,0,0,0,0,-1,1385,428,5.48667,31.4136
168,596,5.64233,-31.3682,0,0,0,0,0,0,0,-1,1392,428,5.64237,31.3682
175,596,5.83093,-31.1893,0,0,0,0,0,0,0,-1,1399,428,5.83098,31.1893
182,596,5.92859,-31.1663,0,0,0,0,0,0,0,-1,1406,428,5.92857,31.1663
189,596,5.88513,-31.0159,0,0,0,0,0,0,0,-1,1413,428,5.88519,31.0159
196,596,5.7644,-30.5982,0,0,0,0,0,0,0,-1,1420,428,5.76445,30.5982
203,596,5.69043,-30.5907,0,0,0,0,0,0,0,-1,1427,428,5.69049,30.5907
210,596,5.69385,-30.53,0,0,0,0,0,0,0,-1,1434,428,5.69381,30.53
217,596,5.75867,-30.2148,0,0,0,0,0,0,0,-1,1441,428,5.75867,30.2148
224,596,5.74561,-30.124,0.00406137,0.00154116,0.000340055,0.00410645,0.00149608,0.131792,0.00239978,0.0441766,1448,428,5.74556,30.124
231,596,5.83948,-29.6557,0.00351658,0.00222988,0.000850846,0.00393992,0.00180654,0.461693,0.00227732,0.0177121,1455,428,5.83953,29.6557
238,596,5.86035,-29.3751,0.00334088,0.00260644,0.00117127,0.00420115,0.00174618,0.633489,0.00243701,0.0145073,1462,428,5.86035,29.3751
245,596,5.88892,-29.0882,0.00328119,0.00270791,0.00124754,0.0042746,0.0017145,0.672477,0.00248399,0.0125847,1469,428,5.88895,29.0882
252,596,5.90784,-28.7808,0.00302804,0.00261578,0.00115996,0.00400004,0.00164378,0.697463,0.0023216,0.00989484,1476,428,5.90783,28.7808
259,596,5.90833,-28.4676,0.00265044,0.00242606,0.00105303,0.00359724,0.00147926,0.732327,0.00208775,0.00855954,1483,428,5.90831,28.4675
266,596,5.89282,-28.1564,0.00235041,0.00229381,0.000943104,0.00326564,0.00137858,0.770399,0.00189302,0.0100199,1490,428,5.8928,28.1564
273,596,5.90454,-27.83,0.00206943,0.00231158,0.000903629,0.00310221,0.0012788,0.851996,0.00180024,0.0129883,1497,428,5.90457,27.83
280,596,5.92017,-27.5044,0.00173007,0.00212971,0.000802263,0.00275666,0.00110311,0.907451,0.0016021,0.0136361,1504,428,5.92019,27.5044
287,596,5.91968,-27.1675,0.0015626,0.00230441,0.000905042,0.0029116,0.00095541,0.979869,0.00171379,0.0116672,1511,428,5.91962,27.1675
294,596,5.89478,-26.815,0.00145044,0.00249891,0.00102824,0.00312884,0.000820506,1.02114,0.00187328,0.0089878,1518,428,5.89483,26.815
301,596,5.8844,-26.4767,0.00142597,0.00279829,0.00125585,0.0035432,0.000681061,1.03542,0.00217102,0.00984542,1525,428,5.88435,26.4767
308,596,5.92871,-26.1228,0.00155825,0.00306127,0.00158276,0.00406187,0.000557651,1.00705,0.0025425,0.0156693,1532,428,5.92874,26.1228
315,596,5.88953,-25.7427,0.0017824,0.00342951,0.00193907,0.00471267,0.000499239,0.986213,0.00298929,0.0164682,1539,428,5.88958,25.7427
322,596,5.88635,-25.3566,0.00201044,0.00382528,0.00234517,0.00543246,0.000403258,0.969993,0.00349499,0.0140672,1546,428,5.88634,25.3566
329,596,5.87134,-24.9724,0.0022078,0.0041877,0.00275459,0.00612482,0.000270678,0.957902,0.00399605,0.0105904,1553,428,5.87139,24.9723
336,596,5.84741,-24.5967,0.00232164,0.00449079,0.00309438,0.00668515,0.000127272,0.953957,0.00441496,0.0089916,1560,428,5.8474,24.5967
343,596,5.85779,-24.2142,0.00239113,0.00485226,0.00343977,0.00727496,-3.15693e-05,0.957177,0.00486053,0.0118536,1567,428,5.85782,24.2142
350,596,5.85657,-23.7895,0.00239408,0.00552818,0.00388775,0.00815282,-0.000230555,0.976975,0.00551367,0.012478,1574,428,5.85653,23.7895
357,596,5.82373,-23.3471,0.00214404,0.00607661,0.00429148,0.00883082,-0.000610174,1.00022,0.00610079,0.0101427,1581,428,5.82376,23.3471
364,596,5.79309,-22.9068,0.00167705,0.00654223,0.00455782,0.00927599,-0.00105671,1.03053,0.00656464,0.0155703,1588,428,5.7931,22.9068
371,596,5.78796,-22.5182,0.0012831,0.00727967,0.00482638,0.00996326,-0.00140049,1.06334,0.00715484,0.0235573,1595,428,5.78798,22.5182
378,596,5.71826,-22.1796,0.000670567,0.00844874,0.00526654,0.0111065,-0.00198721,1.10343,0.00814793,0.0319431,1602,428,5.71826,22.1796
385,596,5.61365,-21.6865,-0.000989932,0.00906633,0.00506098,0.0111723,-0.00309591,1.17647,0.00866651,0.0432872,1609,428,5.61365,21.6865
392,596,5.50964,-21.2553,0,0,0,0,0,0,0,-1,1616,428,5.50967,21.2553
399,596,5.53784,-20.16,0,0,0,0,0,0,0,-1,1623,428,5.53788,20.16
406,596,3.60034,-10.1525,0,0,0,0,0,0,0,-1,1630,428,3.60028,10.1525
413,596,3.39124,-2.63528,0,0,0,0,0,0,0,-1,1637,428,3.39122,2.6353
420,596,2.6344,-3.06308,0,0,0,0,0,0,0,-1,1644,428,2.63439,3.06308
427,596,2.99329,-1.90512,0,0,0,0,0,0,0,-1,1651,428,2.99327,1.90512
434,596,3.80896,-0.253998,0,0,0,0,0,0,0,-1,1658,428,3.80902,0.254004
441,596,3.86401,-0.131622,0,0,0,0,0,0,0,-1,1665,428,3.86406,0.131613
448,596,1.0769,0.0083313,0,0,0,0,0,0,0,-1,1672,428,1.07684,-0.00832231
455,596,2.00769,-1.43329,0,0,0,0,0,0,0,-1,1679,428,2.00765,1.4333
462,596,0,0,0,0,0,0,0,0,0,-1,1686,428,0,0
469,596,0,0,0,0,0,0,0,0,0,-1,1693,428,0,0
476,596,0,0,0,0,0,0,0,0,0,-1,1700,428,0,0
483,596,0,0,0,0,0,0,0,0,0,-1,1707,428,0,0
490,596,0,0,0,0,0,0,0,0,0,-1,1714,428,0,0
497,596,0,0,0,0,0,0,0,0,0,-1,1721,428,0,0
504,596,0,0,0,0,0,0,0,0,0,-1,1728,428,0,0
511,596,0,0,0,0,0,0,0,0,0,-1,1735,428,0,0
518,596,0,0,0,0,0,0,0,0,0,-1,1742,428,0,0
525,596,0,0,0,0,0,0,0,0,0,-1,1749,428,0,0
532,596,0,0,0,0,0,0,0,0,0,-1,1756,428,0,0
539,596,0,0,0,0,0,0,0,0,0,-1,1763,428,0,0
546,596,0,0,0,0,0,0,0,0,0,-1,1770,428,0,0
553,596,0,0,0,0,0,0,0,0,0,-1,1777,428,0,0
560,596,0,0,0,0,0,0,0,0,0,-1,1784,428,0,0
567,596,0,0,0,0,0,0,0,0,0,-1,1791,428,0,0
574,596,0,0,0,0,0,0,0,0,0,-1,1798,428,0,0
581,596,0,0,0,0,0,0,0,0,0,-1,1805,428,0,0
588,596,0,0,0,0,0,0,0,0,0,-1,1812,428,0,0
595,596,0,0,0,0,0,0,0,0,0,-1,1819,428,0,0
602,596,0,0,0,0,0,0,0,0,0,-1,1826,428,0,0
609,596,0,0,0,0,0,0,0,0,0,-1,1833,428,0,0
616,596,0,0,0,0,0,0,0,0,0,-1,1840,428,0,0
623,596,0,0,0,0,0,0,0,0,0,-1,1847,428,0,0
630,596,0,0,0,0,0,0,0,0,0,-1,1854,428,0,0
637,596,0,0,0,0,0,0,0,0,0,-1,1861,428,0,0
644,596,0,0,0,0,0,0,0,0,0,-1,1868,428,0,0
651,596,0,0,0,0,0,0,0,0,0,-1,1875,428,0,0
658,596,0,0,0,0,0,0,0,0,0,-1,1882,428,0,0
665,596,0,0,0,0,0,0,0,0,0,-1,1889,428,0,0
672,596,0,0,0,0,0,0,0,0,0,-1,1896,428,0,0
679,596,0,0,0,0,0,0,0,0,0,-1,1903,428,0,0
686,596,0,0,0,0,0,0,0,0,0,-1,1910,428,0,0
693,596,0,0,0,0,0,0,0,0,0,-1,1917,428,0,0
700,596,0,0,0,0,0,0,0,0,0,-1,1924,428,0,0
707,596,0,0,0,0,0,0,0,0,0,-1,1931,428,0,0
714,596,0,0,0,0,0,0,0,0,0,-1,1938,428,0,0
721,596,0,0,0,0,0,0,0,0,0,-1,1945,428,0,0
728,596,0,0,0,0,0,0,0,0,0,-1,1952,428,0,0
735,596,0,0,0,0,0,0,0,0,0,-1,1959,428,0,0
742,596,0,0,0,0,0,0,0,0,0,-1,1966,428,0,0
749,596,0,0,0,0,0,0,0,0,0,-1,1973,428,0,0
756,596,0,0,0,0,0,0,0,0,0,-1,1980,428,0,0
763,596,0,0,0,0,0,0,0,0,0,-1,1987,428,0,0
770,596,0,0,0,0,0,0,0,0,0,-1,1994,428,0,0
777,596,0,0,0,0,0,0,0,0,0,-1,2001,428,0,0
784,596,0,0,0,0,0,0,0,0,0,-1,2008,428,0,0
791,596,0,0,0,0,0,0,0,0,0,-1,2015,428,0,0
798,596,0,0,0,0,0,0,0,0,0,-1,2022,428,0,0
805,596,0,0,0,0,0,0,0,0,0,-1,2029,428,0,0
812,596,0,0,0,0,0,0,0,0,0,-1,2036,428,0,0
-700,589,0,0,0,0,0,0,0,0,0,-1,524,435,0,0
-693,589,0,0,0,0,0,0,0,0,0,-1,531,435,0,0
-686,589,0,0,0,0,0,0,0,0,0,-1,538,435,0,0
-679,589,0,0,0,0,0,0,0,0,0,-1,545,435,0,0
-672,589,0,0,0,0,0,0,0,0,0,-1,552,435,0,0
-665,589,0,0,0,0,0,0,0,0,0,-1,559,435,0,0
-658,589,0,0,0,0,0,0,0,0,0,-1,566,435,0,0
-651,589,0,0,0,0,0,0,0,0,0,-1,573,435,0,0
-644,589,0,0,0,0,0,0,0,0,0,-1,580,435,0,0
-637,589,0,0,0,0,0,0,0,0,0,-1,587,435,0,0
-630,589,0,0,0,0,0,0,0,0,0,-1,594,435,0,0
-623,589,0,0,0,0,0,0,0,0,0,-1,601,435,0,0
-616,589,0,0,0,0,0,0,0,0,0,-1,608,435,0,0
-609,589,0,0,0,0,0,0,0,0,0,-1,615,435,0,0
-602,589,0,0,0,0,0,0,0,0,0,-1,622,435,0,0
-595,589,0,0,0,0,0,0,0,0,0,-1,629,435,0,0
-588,589,0,0,0,0,0,0,0,0,0,-1,636,435,0,0
-581,589,0,0,0,0,0,0,0,0,0,-1,643,435,0,0
-574,589,0,0,0,0,0,0,0,0,0,-1,650,435,0,0
-567,589,0,0,0,0,0,0,0,0,0,-1,657,435,0,0
-560,589,0,0,0,0,0,0,0,0,0,-1,664,435,0,0
-553,589,0,0,0,0,0,0,0,0,0,-1,671,435,0,0
-546,589,0,0,0,0,0,0,0,0,0,-1,678,435,0,0
-539,589,0,0,0,0,0,0,0,0,0,-1,685,435,0,0
-532,589,0,0,0,0,0,0,0,0,0,-1,692,435,0,0
-525,589,0,0,0,0,0,0,0,0,0,-1,699,435,0,0
-518,589,0,0,0,0,0,0,0,0,0,-1,706,435,0,0
-511,589,0,0,0,0,0,0,0,0,0,-1,713,435,0,0
-504,589,0,0,0,0,0,0,0,0,0,-1,720,435,0,0
-497,589,0,0,0,0,0,0,0,0,0,-1,727,435,0,0
-490,589,0,0,0,0,0,0,0,0,0,-1,734,435,0,0
-483,589,0,0,0,0,0,0,0,0,0,-1,741,435,0,0
-476,589,0,0,0,0,0,0,0,0,0,-1,748,435,0,0
-469,589,0,0,0,0,0,0,0,0,0,-1,755,435,0,0
-462,589,0,0,0,0,0,0,0,0,0,-1,762,435,0,0
-455,589,0,0,0,0,0,0,0,0,0,-1,769,435,0,0
-448,589,0,0,0,0,0,0,0,0,0,-1,776,435,0,0
-441,589,0,0,0,0,0,0,0,0,0,-1,783,435,0,0
-434,589,0,0,0,0,0,0,0,0,0,-1,790,435,0,0
-427,589,0,0,0,0,0,0,0,0,0,-1,797,435,0,0
-420,589,0,0,0,0,0,0,0,0,0,-1,804,435,0,0
-413,589,0,0,0,0,0,0,0,0,0,-1,811,435,0,0
-406,589,0,0,0,0,0,0,0,0,0,-1,818,435,0,0
-399,589,0,0,0,0,0,0,0,0,0,-1,825,435,0,0
-392,589,0,0,0,0,0,0,0,0,0,-1,832,435,0,0
-385,589,0,0,0,0,0,0,0,0,0,-1,839,435,0,0
-378,589,0,0,0,0,0,0,0,0,0,-1,846,435,0,0
-371,589,0,0,0,0,0,0,0,0,0,-1,853,435,0,0
-364,589,0,0,0,0,0,0,0,0,0,-1,860,435,0,0
-357,589,0,0,0,0,0,0,0,0,0,-1,867,435,0,0
-350,589,-0.799927,-20.664,0,0,0,0,0,0,0,-1,874,435,-0.799952,20.664
-343,589,-0.370911,-19.1543,0,0,0,0,0,0,0,-1,881,435,-0.370922,19.1543
-336,589,-0.836914,-18.9103,0,0,0,0,0,0,0,-1,888,435,-0.836925,18.9103
-329,589,2.58252,-16.902,0,0,0,0,0,0,0,-1,895,435,2.58251,16.902
-322,589,3.07397,-18.5277,0,0,0,0,0,0,0,-1,902,435,3.07397,18.5277
-315,589,3.39478,-19.5505,0,0,0,0,0,0,0,-1,909,435,3.39478,19.5505
-308,589,3.10333,-20.0861,0,0,0,0,0,0,0,-1,916,435,3.10332,20.0861
-301,589,1.39789,-20.1956,0,0,0,0,0,0,0,-1,923,435,1.3979,20.1956
-294,589,1.94391,-20.5191,0,0,0,0,0,0,0,-1,930,435,1.94391,20.5191
-287,589,2.50854,-20.8893,-0.0016898,-0.0111083,-0.00551044,0.000849531,-0.0136477,-0.431817,0.00939442,0.0434906,937,435,2.50856,20.8893
-280,589,2.98688,-21.3758,-0.00086572,-0.00766702,-0.00511528,0.00187615,-0.0104089,-0.492043,0.00764179,0.0337345,944,435,2.98685,21.3758
-273,589,3.00061,-21.8783,-0.000300052,-0.00478071,-0.00477226,0.00273158,-0.00781234,-0.565944,0.00631873,0.0197787,951,435,3.00062,21.8783
-266,589,2.95685,-22.2712,-0.000244661,-0.00177181,-0.00446692,0.00352348,-0.00553995,-0.700747,0.00527577,0.016267,958,435,2.95683,22.2712
-259,589,2.89032,-22.6854,-0.000142657,0.000415508,-0.00394133,0.00408763,-0.00381478,-0.820744,0.00456336,0.0140596,965,435,2.89033,22.6854
-252,589,2.89478,-23.1705,-7.61527e-05,0.00210324,-0.0033214,0.00450913,-0.00248205,-0.943907,0.00409252,0.00968224,972,435,2.89477,23.1705
-245,589,2.91138,-23.5718,-0.000276885,0.00375364,-0.00266417,0.00507891,-0.00160215,-1.1092,0.00402764,0.010195,979,435,2.91135,23.5718
-238,589,2.90009,-23.9722,-0.000623512,0.00442329,-0.00237588,0.00536578,-0.001566,-1.19315,0.00419771,0.0145514,986,435,2.9001,23.9722
-231,589,2.86182,-24.3427,-0.00111601,0.00475726,-0.00188354,0.0053094,-0.00166815,-1.28565,0.00420737,0.0160258,993,435,2.86181,24.3428
-224,589,2.83258,-24.7249,-0.00126996,0.00470213,-0.00163841,0.00512208,-0.00168992,-1.31988,0.00409593,0.0150843,1000,435,2.83256,24.7249
-217,589,2.8291,-25.1241,-0.0010679,0.00469365,-0.00148154,0.00505229,-0.00142654,-1.33329,0.00393096,0.0152068,1007,435,2.82911,25.1241
-210,589,2.82849,-25.4875,-0.000941075,0.00386611,-0.00114047,0.00412296,-0.00119792,-1.34928,0.00322303,0.0149734,1014,435,2.82848,25.4875
-203,589,2.80914,-25.8271,-0.000827701,0.00274634,-0.000784989,0.00291115,-0.000992513,-1.36385,0.00234276,0.0117234,1021,435,2.80912,25.8271
-196,589,2.7876,-26.1786,-0.000661095,0.00178483,-0.000451212,0.00186541,-0.000741678,-1.39407,0.00155111,0.0137229,1028,435,2.78762,26.1785
-189,589,2.77502,-26.5642,-0.000397073,0.000574547,-0.000108268,0.000586465,-0.000408991,-1.46116,0.000577764,0.0166864,1035,435,2.77501,26.5642
-182,589,2.79358,-26.8711,-6.96698e-05,-0.000659016,0.000326549,7.55056e-05,-0.000804191,0.418333,0.000562986,0.012718,1042,435,2.79353,26.8711
-175,589,2.79919,-27.2087,0.000226077,-0.00208692,0.000870585,0.00051713,-0.00237797,0.322638,0.00178287,0.0160432,1049,435,2.79918,27.2087
-168,589,2.81775,-27.5815,0.000483344,-0.00374656,0.00139512,0.00090204,-0.00416525,0.291563,0.00312127,0.0134646,1056,435,2.81778,27.5815
-161,589,2.80334,-27.8969,0.000815042,-0.00522566,0.00172865,0.00127474,-0.00568536,0.259914,0.00427892,0.0123612,1063,435,2.80334,27.8969
-154,589,2.80566,-28.183,0.00116757,-0.00655979,0.00210425,0.00170343,-0.00709565,0.249353,0.00538874,0.0130799,1070,435,2.80569,28.183
-147,589,2.84387,-28.4582,0.00160715,-0.00781358,0.0024168,0.00219097,-0.00839741,0.237029,0.00645377,0.0132126,1077,435,2.84391,28.4581
-140,589,2.84924,-28.7361,0.0020478,-0.00918865,0.00265391,0.00264309,-0.00978394,0.220652,0.00755928,0.0136149,1084,435,2.84922,28.736
-133,589,2.83704,-29.0406,0.00237316,-0.0104376,0.00283199,0.00297128,-0.0110357,0.208143,0.00852204,0.0131846,1091,435,2.83709,29.0406
-126,589,2.86584,-29.3463,0.00282924,-0.0114639,0.00285859,0.00337974,-0.0120144,0.190251,0.00934224,0.0111662,1098,435,2.86585,29.3463
-119,589,2.84656,-29.6068,0.00352587,-0.0118062,0.00249391,0.00392133,-0.0122016,0.15726,0.00970918,0.017904,1105,435,2.8465,29.6068
-112,589,2.87354,-29.8457,0.00422082,-0.0118267,0.00199629,0.00446543,-0.0120713,0.121923,0.00987835,0.0185057,1112,435,2.87358,29.8457
-105,589,2.91797,-30.1345,0.00499493,-0.0112831,0.00128965,0.00509647,-0.0113847,0.0785733,0.00974351,0.0208239,1119,435,2.91799,30.1345
-98,589,3.01746,-30.4539,0.00588667,-0.0105026,0.000528849,0.00590372,-0.0105197,0.0322233,0.00960607,0.03838,1126,435,3.01747,30.4539
-91,589,2.91992,-30.8523,0,0,0,0,0,0,0,-1,1133,435,2.91989,30.8523
-84,589,2.76538,-22.6013,0,0,0,0,0,0,0,-1,1140,435,2.76539,22.6014
-77,589,2.18152,-14.8023,0,0,0,0,0,0,0,-1,1147,435,2.18155,14.8023
-70,589,1.48267,-9.90961,0,0,0,0,0,0,0,-1,1154,435,1.48264,9.9096
-63,589,0.880127,-5.50586,0,0,0,0,0,0,0,-1,1161,435,0.880186,5.50587
-56,589,-2.78052,-7.28082,0,0,0,0,0,0,0,-1,1168,435,-2.78053,7.28082
-49,589,-0.525757,-2.76703,0,0,0,0,0,0,0,-1,1175,435,-0.525771,2.76702
-42,589,-2.7738,-2.87921,0,0,0,0,0,0,0,-1,1182,435,-2.77383,2.87922
-35,589,-2.55225,-3.27551,0,0,0,0,0,0,0,-1,1189,435,-2.55223,3.27552
-28,589,-0.0632324,-3.42938,0,0,0,0,0,0,0,-1,1196,435,-0.063241,3.42938
-21,589,3.08411,-33.2232,0,0,0,0,0,0,0,-1,1203,435,3.08406,33.2232
-14,589,3.25647,-33.3244,0.0535729,-0.0356524,0.0525889,0.0779232,-0.0600026,0.433637,0.0798552,0.0451609,1210,435,3.25652,33.3244
-7,589,3.46924,-33.2012,0.0466795,-0.0430443,0.0462268,0.0662342,-0.062599,0.400191,0.0743918,0.045788,1217,435,3.46929,33.2012
0,589,3.81201,-32.1283,0,0,0,0,0,0,0,-1,1224,435,3.81205,32.1283
7,589,3.54529,-31.8228,0.0283515,-0.0586736,0.0313338,0.0384593,-0.0687814,0.312048,0.062735,0.0455989,1231,435,3.54527,31.8228
14,589,3.2511,-31.4623,0.0182094,-0.0660411,0.0237633,0.0244497,-0.0722815,0.256807,0.0580791,0.0434477,1238,435,3.25107,31.4623
21,589,3.21301,-31.1133,0.00873978,-0.0723475,0.0169003,0.0121212,-0.0757289,0.197471,0.0549736,0.0446865,1245,435,3.21301,31.1133
28,589,3.15808,-30.5226,3.98972e-05,-0.0776803,0.0106964,0.00148514,-0.0791256,0.134302,0.0532523,0.0439843,1252,435,3.1581,30.5226
35,589,3.09937,-30.0888,-0.00701369,-0.0823008,0.00529478,-0.00664314,-0.0826713,0.0698695,0.0530387,0.043798,1259,435,3.09932,30.0888
42,589,3.05066,-29.6413,0,0,0,0,0,0,0,-1,1266,435,3.05067,29.6413
49,589,4.74951,-32.6066,-0.0179618,-0.090495,-0.00578853,-0.0175027,-0.0909541,-0.0791376,0.0557257,0.0451417,1273,435,4.74955,32.6066
56,589,4.59497,-32.952,0,0,0,0,0,0,0,-1,1280,435,4.59492,32.952
63,589,0.908936,-29.6875,0,0,0,0,0,0,0,-1,1287,435,0.908913,29.6875
70,589,0.618774,-29.6432,0,0,0,0,0,0,0,-1,1294,435,0.618772,29.6432
77,589,0.3302,-29.5051,0,0,0,0,0,0,0,-1,1301,435,0.330194,29.5051
84,589,-0.0479736,-29.3825,-0.0250705,-0.0859432,-0.0237894,-0.0168765,-0.0941372,-0.331714,0.0579576,0.0435764,1308,435,-0.0479726,29.3826
91,589,-0.461426,-29.2741,-0.0254556,-0.0823545,-0.0269702,-0.0147034,-0.0931066,-0.379357,0.0577968,0.0445248,1315,435,-0.461423,29.2742
98,589,-1.11328,-29.2996,-0.0263497,-0.0786785,-0.0292904,-0.0132393,-0.0917888,-0.420855,0.0572916,0.0467646,1322,435,-1.11331,29.2996
105,589,-1.90479,-29.0692,0,0,0,0,0,0,0,-1,1329,435,-1.90473,29.0692
112,589,5.35388,-31.8625,0,0,0,0,0,0,0,-1,1336,435,5.35392,31.8625
119,589,5.55457,-30.6586,0,0,0,0,0,0,0,-1,1343,435,5.55457,30.6586
126,589,5.12292,-30.0429,0,0,0,0,0,0,0,-1,1350,435,5.12291,30.0429
133,589,5.48694,-31.2946,0,0,0,0,0,0,0,-1,1357,435,5.48689,31.2946
140,589,5.56873,-31.3527,-0.024053,-0.0480451,-0.0295142,-0.00419006,-0.067908,-0.592372,0.0439419,0.0497153,1364,435,5.56869,31.3527
147,589,5.58496,-31.3524,0,0,0,0,0,0,0,-1,1371,435,5.58495,31.3524
154,589,5.60083,-31.2344,-0.0205811,-0.0361092,-0.0240624,-0.00306112,-0.0536291,-0.629339,0.0347773,0.0461404,1378,435,5.60089,31.2344
161,589,5.75049,-31.0485,0,0,0,0,0,0,0,-1,1385,435,5.75053,31.0485
168,589,5.89319,-30.8319,0,0,0,0,0,0,0,-1,1392,435,5.89317,30.8319
175,589,8.66992,-7.65527,0,0,0,0,0,0,0,-1,1399,435,8.66994,7.65528
182,589,3.8136,-2.45389,0,0,0,0,0,0,0,-1,1406,435,3.81363,2.4539
189,589,3.69983,-3.68149,0,0,0,0,0,0,0,-1,1413,435,3.69987,3.68147
196,589,3.31055,-5.31677,0,0,0,0,0,0,0,-1,1420,435,3.31059,5.31678
203,589,2.72559,-8.84338,0,0,0,0,0,0,0,-1,1427,435,2.72558,8.84338
210,589,3.62378,-14.4032,0,0,0,0,0,0,0,-1,1434,435,3.62378,14.4032
217,589,4.65601,-22.3745,0,0,0,0,0,0,0,-1,1441,435,4.65607,22.3745
224,589,6.18213,-30.4836,0,0,0,0,0,0,0,-1,1448,435,6.18213,30.4837
231,589,6.16565,-29.8622,0,0,0,0,0,0,0,-1,1455,435,6.16559,29.8622
238,589,6.12939,-29.4514,0.0043098,0.00355281,0.00130695,0.00529196,0.00257065,0.644451,0.00305573,0.0474766,1462,435,6.12937,29.4514
245,589,6.15833,-29.0497,0.00433234,0.00335469,0.00127738,0.00521123,0.00247579,0.602656,0.00300995,0.028581,1469,435,6.15831,29.0497
252,589,6.19177,-28.7449,0.00407664,0.00277583,0.00105951,0.00466945,0.00218302,0.510118,0.00269781,0.0139532,1476,435,6.1918,28.7449
259,589,6.21655,-28.4615,0.0036617,0.00208326,0.000807313,0.00400147,0.00174349,0.398367,0.00231661,0.00954521,1483,435,6.21658,28.4615
266,589,6.23499,-28.1393,0.00337898,0.00154309,0.0005696,0.00354135,0.00138073,0.277685,0.00206106,0.00973614,1490,435,6.23505,28.1393
273,589,6.25476,-27.8475,0.00309506,0.00126433,0.00047408,0.00321054,0.00114885,0.238938,0.00187842,0.0125758,1497,435,6.25478,27.8475
280,589,6.24963,-27.5253,0.00261226,0.000674806,0.000243585,0.00264242,0.00064465,0.123171,0.00159088,0.0141555,1504,435,6.24959,27.5253
287,589,6.24792,-27.1917,0.002228,0.000574583,0.000197251,0.00225121,0.000551377,0.11711,0.00135494,0.0121207,1511,435,6.24798,27.1918
294,589,6.25183,-26.8225,0.00196595,0.000617114,0.000230596,0.00200428,0.000578781,0.164729,0.00119109,0.00994337,1518,435,6.25189,26.8225
301,589,6.26233,-26.4638,0.00177056,0.000842069,0.000385399,0.00190969,0.000702944,0.346432,0.00111527,0.0100038,1525,435,6.26237,26.4638
308,589,6.27454,-26.1064,0.00168072,0.000995362,0.000608525,0.00203642,0.000639664,0.528963,0.00120251,0.0101862,1532,435,6.27455,26.1064
315,589,6.26843,-25.7377,0.00165497,0.00134912,0.000862608,0.0023781,0.000625986,0.697669,0.00142339,0.0105127,1539,435,6.2684,25.7377
322,589,6.27795,-25.3487,0.00164239,0.00177084,0.00117949,0.00288785,0.000525378,0.812599,0.0017762,0.0117766,1546,435,6.27799,25.3487
329,589,6.25928,-24.97,0.00163855,0.00220113,0.00152872,0.00347422,0.000365459,0.876381,0.00220445,0.0105291,1553,435,6.25929,24.97
336,589,6.24036,-24.6078,0.00160136,0.00260378,0.00185315,0.0040223,0.00018283,0.917471,0.00262272,0.00978173,1560,435,6.24041,24.6078
343,589,6.24438,-24.2424,0.00153148,0.00306333,0.00218166,0.00460961,-1.4792e-05,0.954214,0.00307801,0.0112515,1567,435,6.24436,24.2424
350,589,6.22461,-23.8144,0.00144357,0.00379872,0.00261171,0.00548606,-0.00024377,0.997192,0.00374128,0.0163369,1574,435,6.22459,23.8144
357,589,6.2019,-23.3638,0.00121866,0.00445461,0.0030349,0.00627589,-0.000602623,1.0303,0.00439858,0.0134932,1581,435,6.20186,23.3638
364,589,6.20093,-22.9395,0.000863009,0.00502954,0.00336188,0.0069013,-0.00100875,1.06278,0.00497135,0.0112852,1588,435,6.20097,22.9395
371,589,6.17981,-22.5377,0.000545051,0.00577365,0.00368521,0.00767769,-0.00135899,1.0939,0.00562643,0.0113791,1595,435,6.17982,22.5377
378,589,6.17053,-22.1116,8.01842e-05,0.00677217,0.00408853,0.00870934,-0.00185698,1.12832,0.00651405,0.0125727,1602,435,6.17051,22.1116
385,589,6.14758,-21.6377,-0.000970331,0.00737966,0.00403925,0.00901381,-0.00260448,1.18636,0.00703984,0.0155169,1609,435,6.14762,21.6377
392,589,6.09412,-21.0984,-0.00237913,0.00799712,0.00379523,0.00923709,-0.0036191,1.25501,0.00765511,0.019447,1616,435,6.09406,21.0984
399,589,6.06311,-20.5013,-0.00434565,0.00911245,0.00429856,0.0103682,-0.00560144,1.28656,0.00935601,0.0325297,1623,435,6.06309,20.5013
406,589,6.07397,-20.0624,0,0,0,0,0,0,0,-1,1630,435,6.07401,20.0624
413,589,5.61377,-19.0606,0,0,0,0,0,0,0,-1,1637,435,5.61372,19.0606
420,589,2.79724,-5.79956,0,0,0,0,0,0,0,-1,1644,435,2.7973,5.79955
427,589,5.32166,-18.5201,0,0,0,0,0,0,0,-1,1651,435,5.32167,18.5201
434,589,2.52734,-2.73029,0,0,0,0,0,0,0,-1,1658,435,2.52736,2.73029
441,589,3.17639,-2.02435,0,0,0,0,0,0,0,-1,1665,435,3.17643,2.02435
448,589,0.453735,-3.2868,0,0,0,0,0,0,0,-1,1672,435,0.453701,3.28681
455,589,0.664307,-3.46848,0,0,0,0,0,0,0,-1,1679,435,0.66425,3.46846
462,589,3.46716,-4.41891,0,0,0,0,0,0,0,-1,1686,435,3.4672,4.41891
469,589,0.0238037,-3.81497,0,0,0,0,0,0,0,-1,1693,435,0.0237965,3.81498
476,589,0,0,0,0,0,0,0,0,0,-1,1700,435,0,0
483,589,0,0,0,0,0,0,0,0,0,-1,1707,435,0,0
490,589,0,0,0,0,0,0,0,0,0,-1,1714,435,0,0
497,589,0,0,0,0,0,0,0,0,0,-1,1721,435,0,0
504,589,0,0,0,0,0,0,0,0,0,-1,1728,435,0,0
511,589,0,0,0,0,0,0,0,0,0,-1,1735,435,0,0
518,589,0,0,0,0,0,0,0,0,0,-1,1742,435,0,0
525,589,0,0,0,0,0,0,0,0,0,-1,1749,435,0,0
532,589,0,0,0,0,0,0,0,0,0,-1,1756,435,0,0
539,589,0,0,0,0,0,0,0,0,0,-1,1763,435,0,0
546,589,0,0,0,0,0,0,0,0,0,-1,1770,435,0,0
553,589,0,0,0,0,0,0,0,0,0,-1,1777,435,0,0
560,589,0,0,0,0,0,0,0,0,0,-1,1784,435,0,0
567,589,0,0,0,0,0,0,0,0,0,-1,1791,435,0,0
574,589,0,0,0,0,0,0,0,0,0,-1,1798,435,0,0
581,589,0,0,0,0,0,0,0,0,0,-1,1805,435,0,0
588,589,0,0,0,0,0,0,0,0,0,-1,1812,435,0,0
595,589,0,0,0,0,0,0,0,0,0,-1,1819,435,0,0
602,589,0,0,0,0,0,0,0,0,0,-1,1826,435,0,0
609,589,0,0,0,0,0,0,0,0,0,-1,1833,435,0,0
616,589,0,0,0,0,0,0,0,0,0,-1,1840,435,0,0
623,589,0,0,0,0,0,0,0,0,0,-1,1847,435,0,0
630,589,0,0,0,0,0,0,0,0,0,-1,1854,435,0,0
637,589,0,0,0,0,0,0,0,0,0,-1,1861,435,0,0
644,589,0,0,0,0,0,0,0,0,0,-1,1868,435,0,0
651,589,0,0,0,0,0,0,0,0,0,-1,1875,435,0,0
658,589,0,0,0,0,0,0,0,0,0,-1,1882,435,0,0
665,589,0,0,0,0,0,0,0,0,0,-1,1889,435,0,0
672,589,0,0,0,0,0,0,0,0,0,-1,1896,435,0,0
679,589,0,0,0,0,0,0,0,0,0,-1,1903,435,0,0
686,589,0,0,0,0,0,0,0,0,0,-1,1910,435,0,0
693,589,0,0,0,0,0,0,0,0,0,-1,1917,435,0,0
700,589,0,0,0,0,0,0,0,0,0,-1,1924,435,0,0
707,589,0,0,0,0,0,0,0,0,0,-1,1931,435,0,0
714,589,0,0,0,0,0,0,0,0,0,-1,1938,435,0,0
721,589,0,0,0,0,0,0,0,0,0,-1,1945,435,0,0
728,589,0,0,0,0,0,0,0,0,0,-1,1952,435,0,0
735,589,0,0,0,0,0,0,0,0,0,-1,1959,435,0,0
742,589,0,0,0,0,0,0,0,0,0,-1,1966,435,0,0
749,589,0,0,0,0,0,0,0,0,0,-1,1973,435,0,0
756,589,0,0,0,0,0,0,0,0,0,-1,1980,435,0,0
763,589,0,0,0,0,0,0,0,0,0,-1,1987,435,0,0
770,589,0,0,0,0,0,0,0,0,0,-1,1994,435,0,0
777,589,0,0,0,0,0,0,0,0,0,-1,2001,435,0,0
784,589,0,0,0,0,0,0,0,0,0,-1,2008,435,0,0
791,589,0,0,0,0,0,0,0,0,0,-1,2015,435,0,0
798,589,0,0,0,0,0,0,0,0,0,-1,2022,435,0,0
805,589,0,0,0,0,0,0,0,0,0,-1,2029,435,0,0
812,589,0,0,0,0,0,0,0,0,0,-1,2036,435,0,0
-700,582,0,0,0,0,0,0,0,0,0,-1,524,442,0,0
-693,582,0,0,0,0,0,0,0,0,0,-1,531,442,0,0
-686,582,0,0,0,0,0,0,0,0,0,-1,538,442,0,0
-679,582,0,0,0,0,0,0,0,0,0,-1,545,442,0,0
-672,582,0,0,0,0,0,0,0,0,0,-1,552,442,0,0
-665,582,0,0,0,0,0,0,0,0,0,-1,559,442,0,0
-658,582,0,0,0,0,0,0,0,0,0,-1,566,442,0,0
-651,582,0,0,0,0,0,0,0,0,0,-1,573,442,0,0
-644,582,0,0,0,0,0,0,0,0,0,-1,580,442,0,0
-637,582,0,0,0,0,0,0,0,0,0,-1,587,442,0,0
-630,582,0,0,0,0,0,0,0,0,0,-1,594,442,0,0
-623,582,0,0,0,0,0,0,0,0,0,-1,601,442,0,0
-616,582,0,0,0,0,0,0,0,0,0,-1,608,442,0,0
-609,582,0,0,0,0,0,0,0,0,0,-1,615,442,0,0
-602,582,0,0,0,0,0,0,0,0,0,-1,622,442,0,0
-595,582,0,0,0,0,0,0,0,0,0,-1,629,442,0,0
-588,582,0,0,0,0,0,0,0,0,0,-1,636,442,0,0
-581,582,0,0,0,0,0,0,0,0,0,-1,643,442,0,0
-574,582,0,0,0,0,0,0,0,0,0,-1,650,442,0,0
-567,582,0,0,0,0,0,0,0,0,0,-1,657,442,0,0
-560,582,0,0,0,0,0,0,0,0,0,-1,664,442,0,0
-553,582,0,0,0,0,0,0,0,0,0,-1,671,442,0,0
-546,582,0,0,0,0,0,0,0,0,0,-1,678,442,0,0
-539,582,0,0,0,0,0,0,0,0,0,-1,685,442,0,0
-532,582,0,0,0,0,0,0,0,0,0,-1,692,442,0,0
-525,582,0,0,0,0,0,0,0,0,0,-1,699,442,0,0
-518,582,0,0,0,0,0,0,0,0,0,-1,706,442,0,0
-511,582,0,0,0,0,0,0,0,0,0,-1,713,442,0,0
-504,582,0,0,0,0,0,0,0,0,0,-1,720,442,0,0
-497,582,0,0,0,0,0,0,0,0,0,-1,727,442,0,0
-490,582,0,0,0,0,0,0,0,0,0,-1,734,442,0,0
-483,582,0,0,0,0,0,0,0,0,0,-1,741,442,0,0
-476,582,0,0,0,0,0,0,0,0,0,-1,748,442,0,0
-469,582,0,0,0,0,0,0,0,0,0,-1,755,442,0,0
-462,582,0,0,0,0,0,0,0,0,0,-1,762,442,0,0
-455,582,0,0,0,0,0,0,0,0,0,-1,769,442,0,0
-448,582,0,0,0,0,0,0,0,0,0,-1,776,442,0,0
-441,582,0,0,0,0,0,0,0,0,0,-1,783,442,0,0
-434,582,0,0,0,0,0,0,0,0,0,-1,790,442,0,0
-427,582,0,0,0,0,0,0,0,0,0,-1,797,442,0,0
-420,582,0,0,0,0,0,0,0,0,0,-1,804,442,0,0
-413,582,0,0,0,0,0,0,0,0,0,-1,811,442,0,0
-406,582,0,0,0,0,0,0,0,0,0,-1,818,442,0,0
-399,582,0,0,0,0,0,0,0,0,0,-1,825,442,0,0
-392,582,0,0,0,0,0,0,0,0,0,-1,832,442,0,0
-385,582,0,0,0,0,0,0,0,0,0,-1,839,442,0,0
-378,582,0,0,0,0,0,0,0,0,0,-1,846,442,0,0
-371,582,0,0,0,0,0,0,0,0,0,-1,853,442,0,0
-364,582,0,0,0,0,0,0,0,0,0,-1,860,442,0,0
-357,582,-1.4903,-21.5295,0,0,0,0,0,0,0,-1,867,442,-1.49031,21.5295
-350,582,-0.880859,-19.7966,0,0,0,0,0,0,0,-1,874,442,-0.880885,19.7966
-343,582,-0.208557,-18.0078,0,0,0,0,0,0,0,-1,881,442,-0.208576,18.0078
-336,582,-0.167114,-18.7637,0,0,0,0,0,0,0,-1,888,442,-0.167108,18.7637
-329,582,3.59625,-18.4753,0,0,0,0,0,0,0,-1,895,442,3.59627,18.4753
-322,582,3.21442,-19.1249,0,0,0,0,0,0,0,-1,902,442,3.21443,19.1249
-315,582,2.95935,-19.4872,-0.00928791,-0.0164873,-0.00227086,-0.00863148,-0.0171438,-0.281395,0.00989804,0.0446528,909,442,2.95935,19.4872
-308,582,2.79089,-19.8759,-0.00682588,-0.0140164,-0.00376896,-0.0052124,-0.0156299,-0.404489,0.00918921,0.0470412,916,442,2.79089,19.8759
-301,582,2.47156,-20.626,-0.00463516,-0.0118423,-0.0044832,-0.00248679,-0.0139907,-0.446873,0.00861862,0.0449707,923,442,2.47153,20.626
-294,582,2.44733,-20.4518,0,0,0,0,0,0,0,-1,930,442,2.44734,20.4518
-287,582,2.54401,-20.9276,-0.00183031,-0.00734184,-0.00456992,0.000750438,-0.00992259,-0.514078,0.00687886,0.0337734,937,442,2.54402,20.9276
-280,582,2.61969,-21.3586,-0.00109448,-0.00499736,-0.00430928,0.00168461,-0.00777646,-0.572789,0.00582758,0.0162524,944,442,2.61971,21.3586
-273,582,2.62134,-21.8414,-0.000512385,-0.00309062,-0.00405668,0.00245508,-0.00605808,-0.631556,0.00505968,0.0107083,951,442,2.62134,21.8414
-266,582,2.58472,-22.3007,-0.00030517,-0.00111638,-0.0037999,0.0031107,-0.00453226,-0.732229,0.00443804,0.00984078,958,442,2.58473,22.3007
-259,582,2.54486,-22.7407,-7.6805e-05,0.000249112,-0.00328578,0.00337597,-0.00320367,-0.810175,0.00379919,0.00852913,965,442,2.54486,22.7407
-252,582,2.52734,-23.1722,8.6855e-05,0.00118888,-0.00266059,0.00335492,-0.00207919,-0.887505,0.00316607,0.00805659,972,442,2.52733,23.1723
-245,582,2.53204,-23.556,-4.18575e-06,0.00211558,-0.00197497,0.00329709,-0.0011857,-1.03167,0.00268212,0.0117857,979,442,2.53202,23.556
-238,582,2.51135,-23.9347,-0.000221248,0.00219195,-0.00156443,0.00296103,-0.000990328,-1.11389,0.00237401,0.016448,986,442,2.51137,23.9347
-231,582,2.479,-24.3325,-0.000584857,0.00208276,-0.000999188,0.00241551,-0.000917608,-1.24933,0.00198809,0.0129957,993,442,2.47902,24.3325
-224,582,2.46832,-24.7358,-0.000700124,0.00169165,-0.000626632,0.00184588,-0.000854353,-1.32947,0.00159363,0.0106091,1000,442,2.46834,24.7358
-217,582,2.46857,-25.1334,-0.000558883,0.00134175,-0.000320156,0.00139423,-0.000611363,-1.40832,0.00118697,0.0124622,1007,442,2.46859,25.1334
-210,582,2.46558,-25.4738,-0.000463254,0.000373162,0.000100447,0.000385056,-0.000475148,1.45294,0.000497546,0.0131924,1014,442,2.46558,25.4738
-203,582,2.45624,-25.8193,-0.000356779,-0.000706273,0.00048196,-1.88641e-05,-0.00104419,0.611481,0.000689923,0.0109366,1021,442,2.45626,25.8193
-196,582,2.43628,-26.1946,-0.000209963,-0.00165907,0.00087703,0.000203095,-0.00207213,0.440158,0.00145385,0.0159858,1028,442,2.43628,26.1946
-189,582,2.42981,-26.5609,1.73105e-05,-0.00280037,0.00127616,0.000509372,-0.00329243,0.368012,0.00238296,0.0228384,1035,442,2.42976,26.5609
-182,582,2.4436,-26.8843,0.000292676,-0.00394511,0.00172969,0.000909024,-0.00456146,0.342306,0.00338492,0.0166125,1042,442,2.44355,26.8843
-175,582,2.45398,-27.1879,0.000534423,-0.00530721,0.00232018,0.00134381,-0.00611659,0.335646,0.00459169,0.0135307,1049,442,2.45395,27.1879
-168,582,2.45557,-27.5335,0.000806203,-0.00708062,0.00286837,0.00173906,-0.00801348,0.314434,0.00600652,0.0109318,1056,442,2.45557,27.5335
-161,582,2.46863,-27.869,0.00116588,-0.00860687,0.00316442,0.00210103,-0.00954203,0.287344,0.00716512,0.0122695,1063,442,2.46857,27.869
-154,582,2.4834,-28.157,0.00155104,-0.0100424,0.00351188,0.00253187,-0.0110232,0.272351,0.00832218,0.0126157,1070,442,2.48337,28.157
-147,582,2.51245,-28.4485,0.00209788,-0.0114082,0.00381329,0.00310014,-0.0124105,0.257021,0.00947757,0.0124067,1077,442,2.51249,28.4484
-140,582,2.50854,-28.7222,0.0026493,-0.0130554,0.00402354,0.00362011,-0.0140263,0.236759,0.0107624,0.0134281,1084,442,2.50849,28.7222
-133,582,2.54761,-29.0152,0.00298994,-0.0145702,0.00416321,0.00392696,-0.0155073,0.221384,0.0118658,0.0156707,1091,442,2.54766,29.0152
-126,582,2.56824,-29.238,0.00349664,-0.0159598,0.00416159,0.0043494,-0.0168126,0.202114,0.0129048,0.0143633,1098,442,2.56828,29.238
-119,582,2.52991,-29.397,0.00427858,-0.0166174,0.00368578,0.00490965,-0.0172485,0.169572,0.0134379,0.0188491,1105,442,2.52994,29.397
-112,582,2.49146,-29.6676,0.0050773,-0.0167557,0.00300033,0.0054821,-0.0171605,0.134111,0.01364,0.0277364,1112,442,2.49139,29.6676
-105,582,2.52783,-30.1175,0.00597887,-0.0161064,0.00203389,0.00616462,-0.0162921,0.0910721,0.0133977,0.0425045,1119,442,2.52781,30.1175
-98,582,2.56628,-30.5714,0,0,0,0,0,0,0,-1,1126,442,2.5663,30.5714
-91,582,2.16492,-24.1119,0,0,0,0,0,0,0,-1,1133,442,2.16496,24.1119
-84,582,2.10278,-16.7533,0,0,0,0,0,0,0,-1,1140,442,2.10279,16.7533
-77,582,2.30212,-11.4907,0,0,0,0,0,0,0,-1,1147,442,2.30207,11.4907
-70,582,1.49255,-6.36548,0,0,0,0,0,0,0,-1,1154,442,1.49251,6.36549
-63,582,-4.62915,-4.0347,0,0,0,0,0,0,0,-1,1161,442,-4.6292,4.03471
-56,582,-5.81714,-5.24149,0,0,0,0,0,0,0,-1,1168,442,-5.81718,5.24149
-49,582,-3.88672,-10.1064,0,0,0,0,0,0,0,-1,1175,442,-3.88678,10.1064
-42,582,-0.948975,1.13968,0,0,0,0,0,0,0,-1,1182,442,-0.949003,-1.13969
-35,582,-2.58435,-3.86911,0,0,0,0,0,0,0,-1,1189,442,-2.58437,3.86912
-28,582,-0.825317,-3.45941,0,0,0,0,0,0,0,-1,1196,442,-0.825377,3.45942
-21,582,1.44055,-33.0511,0,0,0,0,0,0,0,-1,1203,442,1.44059,33.0511
-14,582,1.62061,-33.1121,0.0702652,-0.0367192,0.069518,0.104489,-0.0709434,0.457474,0.101902,0.0461802,1210,442,1.62066,33.1121
-7,582,2.31384,-32.9837,0.0614864,-0.0461683,0.0606098,0.0887204,-0.0734023,0.422298,0.0937407,0.044783,1217,442,2.31388,32.9837
0,582,4.01123,-31.7481,0,0,0,0,0,0,0,-1,1224,442,4.01117,31.7481
7,582,3.84265,-31.2701,0.0370164,-0.0663597,0.0402464,0.0508373,-0.0801807,0.33079,0.076273,0.0464103,1231,442,3.84266,31.2702
14,582,3.75513,-30.6232,0.0234926,-0.0757167,0.0301863,0.0319554,-0.0841796,0.273337,0.0692735,0.0444467,1238,442,3.75513,30.6232
21,582,3.8894,-29.7114,0.0109635,-0.0837174,0.0213303,0.015547,-0.088301,0.211665,0.0646755,0.043213,1245,442,3.88943,29.7114
28,582,3.36426,-29.2401,-0.00043749,-0.0905325,0.0134878,0.00153839,-0.0925084,0.145459,0.0621914,0.0441096,1252,442,3.36423,29.2401
35,582,2.89404,-28.6566,-0.00952658,-0.0964191,0.00679534,-0.00899836,-0.0969473,0.0775754,0.0618507,0.0456771,1259,442,2.89407,28.6566
42,582,2.43005,-28.1128,0,0,0,0,0,0,0,-1,1266,442,2.43008,28.1128
49,582,4.63428,-32.6117,0,0,0,0,0,0,0,-1,1273,442,4.63422,32.6117
56,582,1.2616,-28.4413,0,0,0,0,0,0,0,-1,1280,442,1.26154,28.4413
63,582,0.980835,-28.3621,-0.0288181,-0.106786,-0.0170136,-0.0252673,-0.110337,-0.205753,0.0667493,0.0426352,1287,442,0.980831,28.3621
70,582,0.699585,-28.3183,-0.0309442,-0.105912,-0.0207065,-0.0256051,-0.111251,-0.252348,0.0672763,0.0454165,1294,442,0.699584,28.3183
77,582,0.717407,-28.2149,-0.0299212,-0.103981,-0.0248185,-0.0223735,-0.111529,-0.295232,0.0681304,0.0462225,1301,442,0.717456,28.2149
84,582,0.373535,-28.0774,-0.0293277,-0.101131,-0.0292968,-0.0188911,-0.111568,-0.342219,0.0689496,0.0483339,1308,442,0.373593,28.0774
91,582,-0.0262451,-27.9677,-0.0296616,-0.0967194,-0.0334205,-0.01585,-0.110531,-0.39189,0.0690133,0.0474977,1315,442,-0.0262198,27.9677
98,582,-0.560303,-27.9196,-0.0307028,-0.0918837,-0.0367088,-0.0135093,-0.109077,-0.438031,0.0686595,0.0460667,1322,442,-0.560354,27.9196
105,582,-1.13416,-27.8504,0,0,0,0,0,0,0,-1,1329,442,-1.13412,27.8504
112,582,-2.60168,-27.6776,0,0,0,0,0,0,0,-1,1336,442,-2.60168,27.6776
119,582,-3.41553,-27.6774,0,0,0,0,0,0,0,-1,1343,442,-3.41547,27.6774
126,582,4.82092,-29.7996,0,0,0,0,0,0,0,-1,1350,442,4.82086,29.7996
133,582,5.82068,-31.3381,0,0,0,0,0,0,0,-1,1357,442,5.82071,31.3381
140,582,6.11438,-31.3053,0,0,0,0,0,0,0,-1,1364,442,6.11438,31.3053
147,582,5.92517,-31.1499,0,0,0,0,0,0,0,-1,1371,442,5.92511,31.1499
154,582,5.9762,-30.9421,0,0,0,0,0,0,0,-1,1378,442,5.97618,30.9421
161,582,6.09094,-30.7062,0,0,0,0,0,0,0,-1,1385,442,6.09099,30.7062
168,582,6.72119,-30.1363,0,0,0,0,0,0,0,-1,1392,442,6.72121,30.1363
175,582,6.50549,-2.00424,0,0,0,0,0,0,0,-1,1399,442,6.50546,2.00425
182,582,5.18958,-2.18652,0,0,0,0,0,0,0,-1,1406,442,5.1896,2.18652
189,582,6.19751,-0.880951,0,0,0,0,0,0,0,-1,1413,442,6.19754,0.88096
196,582,4.87354,-2.22327,0,0,0,0,0,0,0,-1,1420,442,4.87348,2.22325
203,582,3.11401,-4.48257,0,0,0,0,0,0,0,-1,1427,442,3.11404,4.48259
210,582,2.93115,-11.0731,0,0,0,0,0,0,0,-1,1434,442,2.93113,11.0731
217,582,4.94092,-16.5476,0,0,0,0,0,0,0,-1,1441,442,4.94087,16.5476
224,582,5.21008,-20.9908,0,0,0,0,0,0,0,-1,1448,442,5.21006,20.9908
231,582,5.70032,-25.622,0,0,0,0,0,0,0,-1,1455,442,5.70026,25.6221
238,582,6.41455,-29.7102,0,0,0,0,0,0,0,-1,1462,442,6.41455,29.7102
245,582,6.55969,-29.315,0,0,0,0,0,0,0,-1,1469,442,6.55966,29.315
252,582,6.57263,-28.8893,0.00493616,0.00384909,0.00130677,0.00580792,0.00297733,0.588312,0.00335356,0.0356929,1476,442,6.57258,28.8892
259,582,6.51709,-28.5263,0.00448322,0.00242628,0.000836065,0.00478018,0.00212932,0.341285,0.00276531,0.0268115,1483,442,6.51715,28.5263
266,582,6.52087,-28.232,0.00423464,0.0013157,0.000395583,0.0042873,0.00126304,0.132343,0.00254394,0.0190181,1490,442,6.52091,28.232
273,582,6.5863,-27.8795,0.00397424,0.00062104,0.00018832,0.00398478,0.000610497,0.0559268,0.00247822,0.0155399,1497,442,6.58636,27.8795
280,582,6.58997,-27.5508,0.00338541,-0.000517198,-0.000235509,0.00339957,-0.000531359,-0.060056,0.00246268,0.0132219,1504,442,6.59002,27.5507
287,582,6.61035,-27.1921,0.00284573,-0.000984587,-0.000471038,0.0029028,-0.00104166,-0.120583,0.00236033,0.0112186,1511,442,6.61032,27.1921
294,582,6.63245,-26.8246,0.002485,-0.00113859,-0.000552133,0.00256726,-0.00122086,-0.147901,0.00223264,0.00876099,1518,442,6.63239,26.8246
301,582,6.64575,-26.4632,0.00218187,-0.00102246,-0.00047618,0.00225114,-0.00109173,-0.144448,0.00196832,0.0098524,1525,442,6.6457,26.4632
308,582,6.64844,-26.1032,0.00194818,-0.00100994,-0.000355664,0.00199034,-0.0010521,-0.117993,0.00178418,0.0127371,1532,442,6.6484,26.1032
315,582,6.63977,-25.7411,0.00171156,-0.000716185,-0.00021478,0.00173041,-0.00073504,-0.087563,0.00146159,0.0132205,1539,442,6.63978,25.7411
322,582,6.65247,-25.3484,0.00149436,-0.000276134,3.11277e-05,0.00149491,-0.000276681,0.0175741,0.00110049,0.0109072,1546,442,6.65251,25.3484
329,582,6.63501,-24.9694,0.00132742,0.000237468,0.000342834,0.00142629,0.000138601,0.280764,0.000908193,0.01022,1553,442,6.63505,24.9694
336,582,6.62292,-24.5992,0.00117739,0.00074862,0.000660863,0.00165777,0.000268237,0.628553,0.00102751,0.0107957,1560,442,6.62287,24.5992
343,582,6.62744,-24.2137,0.000994887,0.00131169,0.000977483,0.00214352,0.000163054,0.865725,0.00137788,0.0138249,1567,442,6.62745,24.2137
350,582,6.61951,-23.8022,0.000833216,0.00209428,0.00138945,0.00298958,-6.208e-05,0.998403,0.00201407,0.0167131,1574,442,6.61952,23.8022
357,582,6.60364,-23.3622,0.000651478,0.00283202,0.0018324,0.00387398,-0.000390478,1.05376,0.00272216,0.0138077,1581,442,6.60369,23.3623
364,582,6.59595,-22.9396,0.000412322,0.00347917,0.00222198,0.00464548,-0.000753995,1.08743,0.0033765,0.011051,1588,442,6.59597,22.9396
371,582,6.57654,-22.5215,0.00020135,0.00421081,0.00261109,0.005498,-0.00108584,1.11279,0.00407578,0.0142528,1595,442,6.57655,22.5215
378,582,6.56372,-22.1288,-0.000102829,0.00508073,0.00302998,0.00647619,-0.00149829,1.1392,0.00489395,0.0150187,1602,442,6.56369,22.1288
385,582,6.55261,-21.6935,-0.000735248,0.00569369,0.0031301,0.00696591,-0.00200746,1.18475,0.00543804,0.0121409,1609,442,6.55257,21.6936
392,582,6.49866,-21.2339,-0.00154264,0.0062535,0.00315044,0.00736743,-0.00265658,1.23093,0.00599661,0.0104061,1616,442,6.49871,21.234
399,582,6.46484,-20.8089,-0.00305902,0.00711117,0.00359966,0.0082563,-0.00420415,1.2628,0.00731975,0.0170681,1623,442,6.4649,20.8089
406,582,6.474,-20.2227,-0.00415803,0.00788812,0.00383483,0.00900531,-0.00527522,1.28732,0.00833809,0.0319187,1630,442,6.47395,20.2227
413,582,6.47998,-19.6035,0,0,0,0,0,0,0,-1,1637,442,6.48002,19.6035
420,582,6.34631,-19.3806,0,0,0,0,0,0,0,-1,1644,442,6.3463,19.3805
427,582,6.30066,-18.8758,0,0,0,0,0,0,0,-1,1651,442,6.3007,18.8758
434,582,5.99597,-18.5667,0,0,0,0,0,0,0,-1,1658,442,5.99592,18.5667
441,582,4.53979,-12.7726,0,0,0,0,0,0,0,-1,1665,442,4.53983,12.7726
448,582,6.40625,-17.2598,0,0,0,0,0,0,0,-1,1672,442,6.4063,17.2598
455,582,5.93567,-16.3171,0,0,0,0,0,0,0,-1,1679,442,5.93569,16.3171
462,582,4.80444,-16.4417,0,0,0,0,0,0,0,-1,1686,442,4.80439,16.4417
469,582,5.90674,-15.9182,0,0,0,0,0,0,0,-1,1693,442,5.90676,15.9182
476,582,1.93579,-8.53891,0,0,0,0,0,0,0,-1,1700,442,1.93579,8.53892
483,582,0,0,0,0,0,0,0,0,0,-1,1707,442,0,0
490,582,0,0,0,0,0,0,0,0,0,-1,1714,442,0,0
497,582,0,0,0,0,0,0,0,0,0,-1,1721,442,0,0
504,582,0,0,0,0,0,0,0,0,0,-1,1728,442,0,0
511,582,0,0,0,0,0,0,0,0,0,-1,1735,442,0,0
518,582,0,0,0,0,0,0,0,0,0,-1,1742,442,0,0
525,582,0,0,0,0,0,0,0,0,0,-1,1749,442,0,0
532,582,0,0,0,0,0,0,0,0,0,-1,1756,442,0,0
539,582,0,0,0,0,0,0,0,0,0,-1,1763,442,0,0
546,582,0,0,0,0,0,0,0,0,0,-1,1770,442,0,0
553,582,0,0,0,0,0,0,0,0,0,-1,1777,442,0,0
560,582,0,0,0,0,0,0,0,0,0,-1,1784,442,0,0
567,582,0,0,0,0,0,0,0,0,0,-1,1791,442,0,0
574,582,0,0,0,0,0,0,0,0,0,-1,1798,442,0,0
581,582,0,0,0,0,0,0,0,0,0,-1,1805,442,0,0
588,582,0,0,0,0,0,0,0,0,0,-1,1812,442,0,0
595,582,0,0,0,0,0,0,0,0,0,-1,1819,442,0,0
602,582,0,0,0,0,0,0,0,0,0,-1,1826,442,0,0
609,582,0,0,0,0,0,0,0,0,0,-1,1833,442,0,0
616,582,0,0,0,0,0,0,0,0,0,-1,1840,442,0,0
623,582,0,0,0,0,0,0,0,0,0,-1,1847,442,0,0
630,582,0,0,0,0,0,0,0,0,0,-1,1854,442,0,0
637,582,0,0,0,0,0,0,0,0,0,-1,1861,442,0,0
644,582,0,0,0,0,0,0,0,0,0,-1,1868,442,0,0
651,582,0,0,0,0,0,0,0,0,0,-1,1875,442,0,0
658,582,0,0,0,0,0,0,0,0,0,-1,1882,442,0,0
665,582,0,0,0,0,0,0,0,0,0,-1,1889,442,0,0
672,582,0,0,0,0,0,0,0,0,0,-1,1896,442,0,0
679,582,0,0,0,0,0,0,0,0,0,-1,1903,442,0,0
686,582,0,0,0,0,0,0,0,0,0,-1,1910,442,0,0
693,582,0,0,0,0,0,0,0,0,0,-1,1917,442,0,0
700,582,0,0,0,0,0,0,0,0,0,-1,1924,442,0,0
707,582,0,0,0,0,0,0,0,0,0,-1,1931,442,0,0
714,582,0,0,0,0,0,0,0,0,0,-1,1938,442,0,0
721,582,0,0,0,0,0,0,0,0,0,-1,1945,442,0,0
728,582,0,0,0,0,0,0,0,0,0,-1,1952,442,0,0
735,582,0,0,0,0,0,0,0,0,0,-1,1959,442,0,0
742,582,0,0,0,0,0,0,0,0,0,-1,1966,442,0,0
749,582,0,0,0,0,0,0,0,0,0,-1,1973,442,0,0
756,582,0,0,0,0,0,0,0,0,0,-1,1980,442,0,0
763,582,0,0,0,0,0,0,0,0,0,-1,1987,442,0,0
770,582,0,0,0,0,0,0,0,0,0,-1,1994,442,0,0
777,582,0,0,0,0,0,0,0,0,0,-1,2001,442,0,0
784,582,0,0,0,0,0,0,0,0,0,-1,2008,442,0,0
791,582,0,0,0,0,0,0,0,0,0,-1,2015,442,0,0
798,582,0,0,0,0,0,0,0,0,0,-1,2022,442,0,0
805,582,0,0,0,0,0,0,0,0,0,-1,2029,442,0,0
812,582,0,0,0,0,0,0,0,0,0,-1,2036,442,0,0
-700,575,0,0,0,0,0,0,0,0,0,-1,524,449,0,0
-693,575,0,0,0,0,0,0,0,0,0,-1,531,449,0,0
-686,575,0,0,0,0,0,0,0,0,0,-1,538,449,0,0
-679,575,0,0,0,0,0,0,0,0,0,-1,545,449,0,0
-672,575,0,0,0,0,0,0,0,0,0,-1,552,449,0,0
-665,575,0,0,0,0,0,0,0,0,0,-1,559,449,0,0
-658,575,0,0,0,0,0,0,0,0,0,-1,566,449,0,0
-651,575,0,0,0,0,0,0,0,0,0,-1,573,449,0,0
-644,575,0,0,0,0,0,0,0,0,0,-1,580,449,0,0
-637,575,0,0,0,0,0,0,0,0,0,-1,587,449,0,0
-630,575,0,0,0,0,0,0,0,0,0,-1,594,449,0,0
-623,575,0,0,0,0,0,0,0,0,0,-1,601,449,0,0
-616,575,0,0,0,0,0,0,0,0,0,-1,608,449,0,0
-609,575,0,0,0,0,0,0,0,0,0,-1,615,449,0,0
-602,575,0,0,0,0,0,0,0,0,0,-1,622,449,0,0
-595,575,0,0,0,0,0,0,0,0,0,-1,629,449,0,0
-588,575,0,0,0,0,0,0,0,0,0,-1,636,449,0,0
-581,575,0,0,0,0,0,0,0,0,0,-1,643,449,0,0
-574,575,0,0,0,0,0,0,0,0,0,-1,650,449,0,0
-567,575,0,0,0,0,0,0,0,0,0,-1,657,449,0,0
-560,575,0,0,0,0,0,0,0,0,0,-1,664,449,0,0
-553,575,0,0,0,0,0,0,0,0,0,-1,671,449,0,0
-546,575,0,0,0,0,0,0,0,0,0,-1,678,449,0,0
-539,575,0,0,0,0,0,0,0,0,0,-1,685,449,0,0
-532,575,0,0,0,0,0,0,0,0,0,-1,692,449,0,0
-525,575,0,0,0,0,0,0,0,0,0,-1,699,449,0,0
-518,575,0,0,0,0,0,0,0,0,0,-1,706,449,0,0
-511,575,0,0,0,0,0,0,0,0,0,-1,713,449,0,0
-504,575,0,0,0,0,0,0,0,0,0,-1,720,449,0,0
-497,575,0,0,0,0,0,0,0,0,0,-1,727,449,0,0
-490,575,0,0,0,0,0,0,0,0,0,-1,734,449,0,0
-483,575,0,0,0,0,0,0,0,0,0,-1,741,449,0,0
-476,575,0,0,0,0,0,0,0,0,0,-1,748,449,0,0
-469,575,0,0,0,0,0,0,0,0,0,-1,755,449,0,0
-462,575,0,0,0,0,0,0,0,0,0,-1,762,449,0,0
-455,575,0,0,0,0,0,0,0,0,0,-1,769,449,0,0
-448,575,0,0,0,0,0,0,0,0,0,-1,776,449,0,0
-441,575,0,0,0,0,0,0,0,0,0,-1,783,449,0,0
-434,575,0,0,0,0,0,0,0,0,0,-1,790,449,0,0
-427,575,0,0,0,0,0,0,0,0,0,-1,797,449,0,0
-420,575,0,0,0,0,0,0,0,0,0,-1,804,449,0,0
-413,575,0,0,0,0,0,0,0,0,0,-1,811,449,0,0
-406,575,0,0,0,0,0,0,0,0,0,-1,818,449,0,0
-399,575,0,0,0,0,0,0,0,0,0,-1,825,449,0,0
-392,575,0,0,0,0,0,0,0,0,0,-1,832,449,0,0
-385,575,0,0,0,0,0,0,0,0,0,-1,839,449,0,0
-378,575,0,0,0,0,0,0,0,0,0,-1,846,449,0,0
-371,575,0.56897,-3.52304,0,0,0,0,0,0,0,-1,853,449,0.568955,3.52306
-364,575,1.49805,-4.67191,0,0,0,0,0,0,0,-1,860,449,1.49803,4.6719
-357,575,3.15521,-8.29892,0,0,0,0,0,0,0,-1,867,449,3.15521,8.29891
-350,575,-0.825928,-18.5347,0,0,0,0,0,0,0,-1,874,449,-0.825948,18.5347
-343,575,0.465393,-16.3569,0,0,0,0,0,0,0,-1,881,449,0.465397,16.3569
-336,575,3.1994,-17.5725,0,0,0,0,0,0,0,-1,888,449,3.19941,17.5725
-329,575,2.41425,-18.5393,0,0,0,0,0,0,0,-1,895,449,2.41424,18.5393
-322,575,2.70764,-19.0506,-0.00901248,-0.0114009,-0.000595347,-0.00887231,-0.0115411,-0.231231,0.00697675,0.0449176,902,449,2.70766,19.0506
-315,575,2.5744,-19.3952,-0.00736589,-0.0105496,-0.00186322,-0.00650712,-0.0114084,-0.431885,0.00660837,0.0420461,909,449,2.57438,19.3952
-308,575,2.33539,-19.7933,-0.0056207,-0.00903848,-0.00294691,-0.00392303,-0.0107361,-0.522646,0.00627293,0.0425268,916,449,2.33541,19.7933
-301,575,2.367,-20.0825,-0.0039668,-0.0076272,-0.00355539,-0.00179819,-0.00979581,-0.547703,0.00602132,0.0334289,923,449,2.36701,20.0824
-294,575,2.2934,-20.4557,-0.0026242,-0.00610297,-0.00374777,-0.000231853,-0.00849532,-0.568134,0.00558787,0.0236171,930,449,2.29339,20.4557
-287,575,2.24011,-20.9461,-0.00167613,-0.00476302,-0.00367705,0.000768276,-0.00720743,-0.58669,0.00508044,0.0162187,937,449,2.24012,20.9461
-280,575,2.23724,-21.422,-0.000992173,-0.00333695,-0.00347931,0.00150696,-0.00583608,-0.622893,0.00447837,0.0129346,944,449,2.23723,21.422
-273,575,2.23242,-21.8835,-0.000428769,-0.00216724,-0.00326136,0.0020772,-0.00467322,-0.655163,0.00399227,0.0116225,951,449,2.23239,21.8835
-266,575,2.21277,-22.3349,-0.000151873,-0.000997109,-0.00300165,0.00245676,-0.00360574,-0.71546,0.00352108,0.0125344,958,449,2.21276,22.3349
-259,575,2.1825,-22.7483,0.000127778,-0.000304171,-0.00247609,0.0023973,-0.00257369,-0.741896,0.00287061,0.012098,965,449,2.18251,22.7483
-252,575,2.14337,-23.1335,0.000313808,-2.99334e-06,-0.00183337,0.00199561,-0.0016848,-0.742306,0.00212741,0.0107468,972,449,2.1434,23.1335
-245,575,2.1239,-23.5332,0.000243823,0.000298965,-0.00111619,0.00138792,-0.000845132,-0.797746,0.00130189,0.0143615,979,449,2.12389,23.5332
-238,575,2.12585,-23.9328,8.89391e-05,-0.000126222,-0.000595372,0.000586372,-0.000623656,-0.696015,0.000698721,0.0143459,986,449,2.12587,23.9328
-231,575,2.10437,-24.3246,-0.000189355,-0.000636522,2.81263e-05,-0.000187593,-0.000638284,0.0625702,0.000378805,0.0120273,993,449,2.10438,24.3246
-224,575,2.07733,-24.704,-0.000302477,-0.00135018,0.000520607,-8.77809e-05,-0.00156487,0.391146,0.00101526,0.0128194,1000,449,2.07733,24.704
-217,575,2.1012,-25.0847,-0.000255085,-0.00206693,0.00097006,0.000166288,-0.0024883,0.409787,0.00171698,0.0105333,1007,449,2.1012,25.0847
-210,575,2.11725,-25.4794,-0.000215538,-0.00321744,0.00147217,0.000385926,-0.00381891,0.38786,0.00268384,0.00906662,1014,449,2.11722,25.4794
-203,575,2.10706,-25.8316,-0.000132676,-0.00429815,0.00188313,0.000592426,-0.00502325,0.367554,0.00356277,0.0120564,1021,449,2.10708,25.8316
-196,575,2.09241,-26.1859,-1.51774e-05,-0.00526302,0.00233447,0.000872984,-0.00615118,0.363544,0.00442061,0.015307,1028,449,2.09241,26.1859
-189,575,2.07739,-26.5449,0.000179919,-0.00633641,0.00277211,0.00119963,-0.00735612,0.352485,0.00534899,0.0165582,1035,449,2.07741,26.5449
-182,575,2.08545,-26.8649,0.000397786,-0.00744238,0.00325476,0.00157285,-0.00861745,0.346466,0.00633468,0.0154418,1042,449,2.0854,26.8649
-175,575,2.10974,-27.1804,0.00057566,-0.00877657,0.00390666,0.00199282,-0.0101937,0.347993,0.0075483,0.0121381,1049,449,2.10978,27.1804
-168,575,2.12183,-27.5055,0.000859959,-0.0107071,0.00448923,0.00239779,-0.0122449,0.330032,0.00906884,0.0104301,1056,449,2.12188,27.5055
-161,575,2.1344,-27.8329,0.00125593,-0.0123043,0.00474757,0.00275286,-0.0138012,0.305437,0.0102425,0.0154254,1063,449,2.13437,27.8329
-154,575,2.15112,-28.119,0.00167506,-0.0138822,0.00507599,0.00318474,-0.0153919,0.289085,0.0114712,0.0197893,1070,449,2.15112,28.119
-147,575,2.20154,-28.3658,0.00237399,-0.0153872,0.00539136,0.00388241,-0.0168956,0.27281,0.0127564,0.0191868,1077,449,2.20156,28.3658
-140,575,2.16809,-28.5827,0.00311696,-0.0174629,0.00559534,0.00453986,-0.0188858,0.249024,0.0143453,0.0251907,1084,449,2.1681,28.5827
-133,575,2.17847,-28.8018,0.00346934,-0.019403,0.00573174,0.00482532,-0.0207589,0.232302,0.0156969,0.0338998,1091,449,2.1785,28.8019
-126,575,2.09692,-28.7589,0.00402485,-0.021412,0.00576314,0.00526967,-0.0226568,0.212728,0.0171334,0.039457,1098,449,2.09694,28.7589
-119,575,2.02881,-28.7994,0.00491194,-0.0226994,0.00524162,0.00587351,-0.0236609,0.18143,0.0180531,0.0388571,1105,449,2.02883,28.7994
-112,575,2.14685,-29.4765,0.00585427,-0.0232451,0.0043905,0.00650228,-0.0238931,0.146535,0.0184815,0.0464275,1112,449,2.14684,29.4765
-105,575,2.06262,-29.8192,0,0,0,0,0,0,0,-1,1119,449,2.06264,29.8193
-98,575,1.521,-25.6961,0,0,0,0,0,0,0,-1,1126,449,1.52105,25.6961
-91,575,1.60803,-16.4247,0,0,0,0,0,0,0,-1,1133,449,1.60802,16.4247
-84,575,1.16553,-11.9056,0,0,0,0,0,0,0,-1,1140,449,1.16558,11.9056
-77,575,0.205078,-11.2584,0,0,0,0,0,0,0,-1,1147,449,0.205117,11.2584
-70,575,-4.2467,-1.78738,0,0,0,0,0,0,0,-1,1154,449,-4.24674,1.78739
-63,575,-4.52209,-3.48798,0,0,0,0,0,0,0,-1,1161,449,-4.5221,3.48796
-56,575,-5.5968,-5.4928,0,0,0,0,0,0,0,-1,1168,449,-5.59683,5.49281
-49,575,-5.96863,-7.17612,0,0,0,0,0,0,0,-1,1175,449,-5.96868,7.1761
-42,575,-0.830322,0.773499,0,0,0,0,0,0,0,-1,1182,449,-0.83038,-0.77351
-35,575,-0.62085,0.205139,0,0,0,0,0,0,0,-1,1189,449,-0.620855,-0.205126
-28,575,0.49292,-3.87988,0,0,0,0,0,0,0,-1,1196,449,0.492941,3.87989
-21,575,-0.700317,-33.0675,0,0,0,0,0,0,0,-1,1203,449,-0.7003,33.0675
-14,575,0.00524902,-32.6685,0.0889512,-0.0348281,0.0894407,0.135827,-0.0817041,0.482742,0.126881,0.0489896,1210,449,0.00522333,32.6685
-7,575,1.44922,-32.5162,0.0783157,-0.0469126,0.077337,0.115208,-0.0838049,0.445106,0.115376,0.0450291,1217,449,1.44917,32.5162
0,575,4.19263,-31.1205,0,0,0,0,0,0,0,-1,1224,449,4.19262,31.1205
7,575,4.02795,-30.682,0.0468729,-0.0724864,0.0503166,0.0652536,-0.0908671,0.350241,0.0905398,0.0466682,1231,449,4.02791,30.682
14,575,5.96619,-29.0377,0.0295948,-0.084073,0.0374052,0.0407995,-0.0952776,0.291041,0.0806355,0.0460616,1238,449,5.96619,29.0377
21,575,4.61255,-28.6773,0.01369,-0.0939917,0.026355,0.0197943,-0.100096,0.227606,0.074214,0.0440388,1245,449,4.61253,28.6773
28,575,3.52307,-28.3435,0,0,0,0,0,0,0,-1,1252,449,3.52306,28.3435
35,575,3.28748,-27.6015,-0.0120675,-0.109865,0.00868588,-0.0113021,-0.11063,0.0878982,0.0702898,0.0444239,1259,449,3.28746,27.6015
42,575,2.53821,-27.3622,-0.0211434,-0.116884,0.000219589,-0.0211429,-0.116885,0.00229356,0.0719192,0.0443953,1266,449,2.53826,27.3622
49,575,1.95374,-27.3164,-0.0274938,-0.122603,-0.00757955,-0.0268936,-0.123204,-0.0790282,0.0748004,0.0439943,1273,449,1.95368,27.3164
56,575,1.54944,-27.2585,-0.0288441,-0.122331,-0.0139303,-0.0268125,-0.124362,-0.144818,0.0755732,0.0437323,1280,449,1.54943,27.2585
63,575,1.14368,-27.1621,-0.0339984,-0.122804,-0.0199163,-0.0297364,-0.127066,-0.210818,0.0767437,0.0431062,1287,449,1.14367,27.1621
70,575,1.25562,-27.1396,-0.0359851,-0.121885,-0.0243126,-0.0295812,-0.128289,-0.257548,0.0775689,0.0432779,1294,449,1.25561,27.1396
77,575,1.36133,-27.1333,-0.0340627,-0.119563,-0.0296335,-0.0247963,-0.12883,-0.303065,0.0789303,0.0455671,1301,449,1.36133,27.1333
84,575,1.19507,-27.1823,-0.0326822,-0.11599,-0.0354914,-0.0196123,-0.12906,-0.352844,0.0803046,0.0486283,1308,449,1.19507,27.1823
91,575,1.00256,-27.2362,0,0,0,0,0,0,0,-1,1315,449,1.00257,27.2362
98,575,-0.0897217,-26.9129,-0.0339803,-0.104243,-0.0453693,-0.0117307,-0.126493,-0.455947,0.0807032,0.0426115,1322,449,-0.0896884,26.9129
105,575,-1.02686,-27.0765,-0.0351664,-0.0963258,-0.0485557,-0.00836341,-0.123129,-0.504381,0.0794449,0.042244,1329,449,-1.02688,27.0765
112,575,-1.82605,-27.1126,-0.0365371,-0.0881924,-0.0506644,-0.0054969,-0.119233,-0.549678,0.0777209,0.0443734,1336,449,-1.8261,27.1126
119,575,-2.61169,-27.1338,-0.0376768,-0.0807554,-0.0510825,-0.00377826,-0.114654,-0.58588,0.0752082,0.0447898,1343,449,-2.61164,27.1338
126,575,-3.42761,-27.1643,0,0,0,0,0,0,0,-1,1350,449,-3.42759,27.1643
133,575,9.96887,-32.6629,0,0,0,0,0,0,0,-1,1357,449,9.96885,32.6629
140,575,6.63354,-31.279,0,0,0,0,0,0,0,-1,1364,449,6.6336,31.279
147,575,6.3158,-30.7254,0,0,0,0,0,0,0,-1,1371,449,6.31581,30.7254
154,575,6.36755,-30.6725,0,0,0,0,0,0,0,-1,1378,449,6.36755,30.6725
161,575,6.41931,-30.6197,0,0,0,0,0,0,0,-1,1385,449,6.4193,30.6197
168,575,7.08777,-29.2379,0,0,0,0,0,0,0,-1,1392,449,7.08772,29.2379
175,575,4.32617,1.93634,0,0,0,0,0,0,0,-1,1399,449,4.32612,-1.93634
182,575,6.3147,-2.88345,0,0,0,0,0,0,0,-1,1406,449,6.31466,2.88346
189,575,6.10449,-1.30817,0,0,0,0,0,0,0,-1,1413,449,6.10455,1.30817
196,575,5.79895,0.818359,0,0,0,0,0,0,0,-1,1420,449,5.79895,-0.81837
203,575,3.29724,-1.46378,0,0,0,0,0,0,0,-1,1427,449,3.29722,1.46377
210,575,2.32739,-7.74503,0,0,0,0,0,0,0,-1,1434,449,2.32741,7.74502
217,575,3.33618,-11.5521,0,0,0,0,0,0,0,-1,1441,449,3.3362,11.5521
224,575,5.51709,-16.3903,0,0,0,0,0,0,0,-1,1448,449,5.51713,16.3903
231,575,5.48572,-20.4595,0,0,0,0,0,0,0,-1,1455,449,5.48571,20.4595
238,575,5.33484,-22.3575,0,0,0,0,0,0,0,-1,1462,449,5.33478,22.3575
245,575,5.59741,-23.513,0,0,0,0,0,0,0,-1,1469,449,5.5974,23.513
252,575,6.94763,-29.2274,0,0,0,0,0,0,0,-1,1476,449,6.94764,29.2274
259,575,6.85168,-28.7604,0,0,0,0,0,0,0,-1,1483,449,6.85169,28.7604
266,575,6.79651,-28.4666,0,0,0,0,0,0,0,-1,1490,449,6.79646,28.4666
273,575,6.83911,-27.9668,0,0,0,0,0,0,0,-1,1497,449,6.83913,27.9668
280,575,6.89148,-27.5576,0,0,0,0,0,0,0,-1,1504,449,6.89154,27.5576
287,575,6.89221,-27.229,0.00391127,-0.0023709,-0.00102187,0.00407331,-0.00253294,-0.157262,0.00384853,0.0271898,1511,449,6.89216,27.229
294,575,6.98523,-26.8432,0.00339977,-0.00274893,-0.00124443,0.00364208,-0.00299124,-0.192309,0.00383589,0.0115603,1518,449,6.98523,26.8432
301,575,7.01563,-26.4789,0.00293517,-0.00277171,-0.00126522,0.00320309,-0.00303963,-0.208677,0.00360465,0.00975922,1525,449,7.01557,26.4788
308,575,7.02795,-26.1169,0.00249163,-0.00295422,-0.00127722,0.0027763,-0.00323888,-0.219295,0.00347629,0.0104871,1532,449,7.02797,26.1169
315,575,7.0199,-25.735,0.00198756,-0.00274574,-0.00125374,0.00229914,-0.00305731,-0.243583,0.00310286,0.0107824,1539,449,7.01987,25.735
322,575,7.04138,-25.3564,0.00151878,-0.00229407,-0.00107162,0.00179933,-0.00257461,-0.256046,0.00253848,0.0101422,1546,449,7.04142,25.3564
329,575,7.03271,-24.9824,0.00113661,-0.00169075,-0.000795871,0.00134524,-0.00189938,-0.256377,0.00188237,0.0104036,1553,449,7.03276,24.9823
336,575,7.01379,-24.5902,0.000818234,-0.00107082,-0.000492747,0.000939038,-0.00119162,-0.240423,0.00123302,0.0123118,1560,449,7.0138,24.5902
343,575,7.01733,-24.1773,0.000487546,-0.000413128,-0.000198316,0.000529279,-0.000454861,-0.207409,0.000568735,0.0128958,1567,449,7.01739,24.1773
350,575,7.00891,-23.7743,0.00025592,0.000414362,0.000209219,0.000558856,0.000111426,0.966382,0.000341542,0.0119699,1574,449,7.00896,23.7743
357,575,6.99829,-23.345,7.4023e-05,0.00123906,0.000655177,0.00153323,-0.000220149,1.14878,0.00110288,0.0109465,1581,449,6.99831,23.345
364,575,6.98267,-22.9381,-8.51834e-05,0.00195973,0.0010845,0.00242776,-0.000553216,1.16338,0.00183099,0.0103857,1588,449,6.98262,22.9381
371,575,6.96729,-22.5486,-0.000221248,0.00268156,0.00151202,0.00332605,-0.000865742,1.16787,0.00255531,0.0173521,1595,449,6.96723,22.5486
378,575,6.95618,-22.1013,-0.000384736,0.00345251,0.00192765,0.00425362,-0.00118585,1.17692,0.00330277,0.0165269,1602,449,6.95614,22.1013
385,575,6.94946,-21.6828,-0.000654866,0.00409563,0.00214536,0.00492107,-0.0014803,1.2035,0.00386971,0.0116183,1609,449,6.94951,21.6828
392,575,6.9281,-21.2598,-0.000994991,0.00462312,0.00233978,0.00546993,-0.0018418,1.22354,0.00439125,0.00959411,1616,449,6.92814,21.2598
399,575,6.8938,-20.8452,-0.00213159,0.00531458,0.0027538,0.00622235,-0.00303936,1.25237,0.00545149,0.00983057,1623,449,6.89378,20.8452
406,575,6.87146,-20.3455,-0.00294276,0.00593391,0.00296434,0.00683281,-0.00384166,1.27637,0.00624304,0.0115949,1630,449,6.87143,20.3455
413,575,6.8512,-19.8711,-0.00411228,0.00621115,0.00298307,0.00701115,-0.00491228,1.30878,0.00691946,0.0142823,1637,449,6.85114,19.8711
420,575,6.81726,-19.4027,-0.00563874,0.00632835,0.00301274,0.00704402,-0.00635441,1.33757,0.007739,0.014493,1644,449,6.81722,19.4027
427,575,6.77332,-18.8924,-0.00711687,0.0063483,0.0031797,0.00706139,-0.00782997,1.35018,0.00860135,0.0179064,1651,449,6.77333,18.8924
434,575,6.65613,-18.4927,-0.00888291,0.00652808,0.00330973,0.00720882,-0.00956365,1.36795,0.00971535,0.0285623,1658,449,6.65611,18.4927
441,575,6.56128,-18.0969,0,0,0,0,0,0,0,-1,1665,449,6.56125,18.0969
448,575,6.71802,-17.3318,-0.013178,0.00591514,0.00334193,0.00648319,-0.013746,1.40243,0.0119276,0.0468648,1672,449,6.71796,17.3318
455,575,5.97498,-16.7092,0,0,0,0,0,0,0,-1,1679,449,5.975,16.7092
462,575,5.42224,-16.3758,0,0,0,0,0,0,0,-1,1686,449,5.42221,16.3758
469,575,6.32739,-15.516,0,0,0,0,0,0,0,-1,1693,449,6.32735,15.516
476,575,6.77588,-15.1698,0,0,0,0,0,0,0,-1,1700,449,6.77589,15.1698
483,575,6.57288,-15.8891,0,0,0,0,0,0,0,-1,1707,449,6.57284,15.8891
490,575,5.84216,-16.4164,0,0,0,0,0,0,0,-1,1714,449,5.84215,16.4164
497,575,0,0,0,0,0,0,0,0,0,-1,1721,449,0,0
504,575,0,0,0,0,0,0,0,0,0,-1,1728,449,0,0
511,575,0,0,0,0,0,0,0,0,0,-1,1735,449,0,0
518,575,0,0,0,0,0,0,0,0,0,-1,1742,449,0,0
525,575,0,0,0,0,0,0,0,0,0,-1,1749,449,0,0
532,575,0,0,0,0,0,0,0,0,0,-1,1756,449,0,0
539,575,0,0,0,0,0,0,0,0,0,-1,1763,449,0,0
546,575,0,0,0,0,0,0,0,0,0,-1,1770,449,0,0
553,575,0,0,0,0,0,0,0,0,0,-1,1777,449,0,0
560,575,0,0,0,0,0,0,0,0,0,-1,1784,449,0,0
567,575,0,0,0,0,0,0,0,0,0,-1,1791,449,0,0
574,575,0,0,0,0,0,0,0,0,0,-1,1798,449,0,0
581,575,0,0,0,0,0,0,0,0,0,-1,1805,449,0,0
588,575,0,0,0,0,0,0,0,0,0,-1,1812,449,0,0
595,575,0,0,0,0,0,0,0,0,0,-1,1819,449,0,0
602,575,0,0,0,0,0,0,0,0,0,-1,1826,449,0,0
609,575,0,0,0,0,0,0,0,0,0,-1,1833,449,0,0
616,575,0,0,0,0,0,0,0,0,0,-1,1840,449,0,0
623,575,0,0,0,0,0,0,0,0,0,-1,1847,449,0,0
630,575,0,0,0,0,0,0,0,0,0,-1,1854,449,0,0
637,575,0,0,0,0,0,0,0,0,0,-1,1861,449,0,0
644,575,0,0,0,0,0,0,0,0,0,-1,1868,449,0,0
651,575,0,0,0,0,0,0,0,0,0,-1,1875,449,0,0
658,575,0,0,0,0,0,0,0,0,0,-1,1882,449,0,0
665,575,0,0,0,0,0,0,0,0,0,-1,1889,449,0,0
672,575,0,0,0,0,0,0,0,0,0,-1,1896,449,0,0
679,575,0,0,0,0,0,0,0,0,0,-1,1903,449,0,0
686,575,0,0,0,0,0,0,0,0,0,-1,1910,449,0,0
693,575,0,0,0,0,0,0,0,0,0,-1,1917,449,0,0
700,575,0,0,0,0,0,0,0,0,0,-1,1924,449,0,0
707,575,0,0,0,0,0,0,0,0,0,-1,1931,449,0,0
714,575,0,0,0,0,0,0,0,0,0,-1,1938,449,0,0
721,575,0,0,0,0,0,0,0,0,0,-1,1945,449,0,0
728,575,0,0,0,0,0,0,0,0,0,-1,1952,449,0,0
735,575,0,0,0,0,0,0,0,0,0,-1,1959,449,0,0
742,575,0,0,0,0,0,0,0,0,0,-1,1966,449,0,0
749,575,0,0,0,0,0,0,0,0,0,-1,1973,449,0,0
756,575,0,0,0,0,0,0,0,0,0,-1,1980,449,0,0
763,575,0,0,0,0,0,0,0,0,0,-1,1987,449,0,0
770,575,0,0,0,0,0,0,0,0,0,-1,1994,449,0,0
777,575,0,0,0,0,0,0,0,0,0,-1,2001,449,0,0
784,575,0,0,0,0,0,0,0,0,0,-1,2008,449,0,0
791,575,0,0,0,0,0,0,0,0,0,-1,2015,449,0,0
798,575,0,0,0,0,0,0,0,0,0,-1,2022,449,0,0
805,575,0,0,0,0,0,0,0,0,0,-1,2029,449,0,0
812,575,0,0,0,0,0,0,0,0,0,-1,2036,449,0,0
-700,568,0,0,0,0,0,0,0,0,0,-1,524,456,0,0
-693,568,0,0,0,0,0,0,0,0,0,-1,531,456,0,0
-686,568,0,0,0,0,0,0,0,0,0,-1,538,456,0,0
-679,568,0,0,0,0,0,0,0,0,0,-1,545,456,0,0
-672,568,0,0,0,0,0,0,0,0,0,-1,552,456,0,0
-665,568,0,0,0,0,0,0,0,0,0,-1,559,456,0,0
-658,568,0,0,0,0,0,0,0,0,0,-1,566,456,0,0
-651,568,0,0,0,0,0,0,0,0,0,-1,573,456,0,0
-644,568,0,0,0,0,0,0,0,0,0,-1,580,456,0,0
-637,568,0,0,0,0,0,0,0,0,0,-1,587,456,0,0
-630,568,0,0,0,0,0,0,0,0,0,-1,594,456,0,0
-623,568,0,0,0,0,0,0,0,0,0,-1,601,456,0,0
-616,568,0,0,0,0,0,0,0,0,0,-1,608,456,0,0
-609,568,0,0,0,0,0,0,0,0,0,-1,615,456,0,0
-602,568,0,0,0,0,0,0,0,0,0,-1,622,456,0,0
-595,568,0,0,0,0,0,0,0,0,0,-1,629,456,0,0
-588,568,0,0,0,0,0,0,0,0,0,-1,636,456,0,0
-581,568,0,0,0,0,0,0,0,0,0,-1,643,456,0,0
-574,568,0,0,0,0,0,0,0,0,0,-1,650,456,0,0
-567,568,0,0,0,0,0,0,0,0,0,-1,657,456,0,0
-560,568,0,0,0,0,0,0,0,0,0,-1,664,456,0,0
-553,568,0,0,0,0,0,0,0,0,0,-1,671,456,0,0
-546,568,0,0,0,0,0,0,0,0,0,-1,678,456,0,0
-539,568,0,0,0,0,0,0,0,0,0,-1,685,456,0,0
-532,568,0,0,0,0,0,0,0,0,0,-1,692,456,0,0
-525,568,0,0,0,0,0,0,0,0,0,-1,699,456,0,0
-518,568,0,0,0,0,0,0,0,0,0,-1,706,456,0,0
-511,568,0,0,0,0,0,0,0,0,0,-1,713,456,0,0
-504,568,0,0,0,0,0,0,0,0,0,-1,720,456,0,0
-497,568,0,0,0,0,0,0,0,0,0,-1,727,456,0,0
-490,568,0,0,0,0,0,0,0,0,0,-1,734,456,0,0
-483,568,0,0,0,0,0,0,0,0,0,-1,741,456,0,0
-476,568,0,0,0,0,0,0,0,0,0,-1,748,456,0,0
-469,568,0,0,0,0,0,0,0,0,0,-1,755,456,0,0
-462,568,0,0,0,0,0,0,0,0,0,-1,762,456,0,0
-455,568,0,0,0,0,0,0,0,0,0,-1,769,456,0,0
-448,568,0,0,0,0,0,0,0,0,0,-1,776,456,0,0
-441,568,0,0,0,0,0,0,0,0,0,-1,783,456,0,0
-434,568,0,0,0,0,0,0,0,0,0,-1,790,456,0,0
-427,568,0,0,0,0,0,0,0,0,0,-1,797,456,0,0
-420,568,0,0,0,0,0,0,0,0,0,-1,804,456,0,0
-413,568,0,0,0,0,0,0,0,0,0,-1,811,456,0,0
-406,568,0,0,0,0,0,0,0,0,0,-1,818,456,0,0
-399,568,0,0,0,0,0,0,0,0,0,-1,825,456,0,0
-392,568,0,0,0,0,0,0,0,0,0,-1,832,456,0,0
-385,568,0,0,0,0,0,0,0,0,0,-1,839,456,0,0
-378,568,0.321777,-7.29929,0,0,0,0,0,0,0,-1,846,456,0.321806,7.29927
-371,568,1.09595,-7.46707,0,0,0,0,0,0,0,-1,853,456,1.09597,7.46707
-364,568,1.87787,-7.61115,0,0,0,0,0,0,0,-1,860,456,1.87784,7.61116
-357,568,2.14166,-7.67645,0,0,0,0,0,0,0,-1,867,456,2.14167,7.67646
-350,568,2.7467,-11.2507,0,0,0,0,0,0,0,-1,874,456,2.7467,11.2507
-343,568,2.16516,-11.3762,0,0,0,0,0,0,0,-1,881,456,2.16514,11.3762
-336,568,2.09387,-17.9885,0,0,0,0,0,0,0,-1,888,456,2.09387,17.9885
-329,568,2.05212,-18.4005,-0.00763332,-0.00610908,-0.000322072,-0.00604382,-0.00769858,-1.37088,0.00467937,0.0480784,895,456,2.05211,18.4005
-322,568,1.95618,-18.6806,-0.00678154,-0.00655408,-0.000908896,-0.00575183,-0.0075838,-0.847639,0.00456931,0.0423082,902,456,1.95615,18.6806
-315,568,2.22925,-19.0704,-0.00567336,-0.00626754,-0.0016253,-0.00431823,-0.00762268,-0.695001,0.00441391,0.0382983,909,456,2.22927,19.0704
-308,568,1.96429,-19.6455,-0.00446048,-0.0054762,-0.00230351,-0.00260951,-0.00732717,-0.676897,0.00428831,0.0295954,916,456,1.96428,19.6455
-301,568,1.92371,-20.1214,-0.00324688,-0.00472044,-0.00270777,-0.00117745,-0.00678988,-0.652564,0.00418962,0.0171994,923,456,1.92373,20.1214
-294,568,1.87958,-20.5511,-0.00220457,-0.00392238,-0.00280615,-0.000128816,-0.00599813,-0.636886,0.00395651,0.0129296,930,456,1.87959,20.5511
-287,568,1.85193,-21.008,-0.00141592,-0.00318272,-0.00271351,0.000554364,-0.005153,-0.62803,0.00363425,0.0111583,937,456,1.85193,21.008
-280,568,1.85071,-21.4687,-0.000793868,-0.00241839,-0.00254478,0.00106515,-0.0042774,-0.630916,0.00326508,0.0110362,944,456,1.85069,21.4687
-273,568,1.83789,-21.9118,-0.000270925,-0.00178701,-0.00234067,0.00143139,-0.00348933,-0.628799,0.00292262,0.012789,951,456,1.83786,21.9118
-266,568,1.80511,-22.3391,3.64483e-05,-0.00123194,-0.00206657,0.00156395,-0.00275944,-0.636519,0.00252772,0.0122163,958,456,1.80514,22.3391
-259,568,1.77844,-22.7395,0.000339889,-0.00107885,-0.00154146,0.00132737,-0.00206633,-0.569749,0.00197478,0.0122337,965,456,1.77845,22.7395
-252,568,1.7428,-23.1227,0.000524811,-0.00131941,-0.000903428,0.000893618,-0.00168822,-0.387582,0.00151397,0.0117299,972,456,1.74277,23.1227
-245,568,1.7309,-23.5053,0.000459561,-0.00158298,-0.000180022,0.000475306,-0.00159872,-0.0872403,0.00125463,0.0139435,979,456,1.73091,23.5053
-238,568,1.7395,-23.9135,0.000353125,-0.00247645,0.000435093,0.000418517,-0.00254185,0.149176,0.00184992,0.0131565,986,456,1.73948,23.9135
-231,568,1.71863,-24.3125,0.000140099,-0.00339337,0.00111329,0.00046161,-0.00371488,0.281144,0.00264392,0.0117156,993,456,1.71861,24.3125
-224,568,1.69446,-24.6891,1.49387e-07,-0.00445523,0.0017259,0.000590496,-0.00504558,0.329576,0.00357683,0.0136554,1000,456,1.69447,24.6891
-217,568,1.72113,-25.0626,-7.88876e-05,-0.00557628,0.00232521,0.000772686,-0.00642785,0.351064,0.00456465,0.0113731,1007,456,1.72116,25.0626
-210,568,1.74493,-25.4215,-0.000137168,-0.00695748,0.00292483,0.000945313,-0.00803997,0.354468,0.00570126,0.0109143,1014,456,1.74496,25.4215
-203,568,1.74139,-25.7997,-0.000130587,-0.00805292,0.00338052,0.00111581,-0.00929932,0.353237,0.00660299,0.00987948,1021,456,1.74136,25.7997
-196,568,1.7605,-26.1595,-9.26347e-05,-0.00901845,0.00390012,0.00137138,-0.0104825,0.359102,0.00748742,0.0132552,1028,456,1.76055,26.1596
-189,568,1.75244,-26.4943,3.24564e-05,-0.0100007,0.00438712,0.00168018,-0.0116484,0.359281,0.00838198,0.0141132,1035,456,1.75244,26.4943
-182,568,1.75806,-26.8524,0.000154812,-0.0110321,0.00490565,0.00200126,-0.0128785,0.359991,0.00932463,0.0160985,1042,456,1.75802,26.8524
-175,568,1.7804,-27.1658,0.000225823,-0.0122798,0.00563765,0.00239209,-0.014446,0.366855,0.0105191,0.0152404,1049,456,1.78034,27.1658
-168,568,1.78271,-27.3879,0.000531191,-0.014384,0.00626393,0.00281282,-0.0166656,0.349313,0.012157,0.0212749,1056,456,1.78272,27.3879
-161,568,1.76501,-27.6552,0.000991379,-0.0160753,0.00647872,0.00317213,-0.018256,0.32469,0.0133542,0.0359131,1063,456,1.76505,27.6552
-154,568,1.97095,-28.1929,0.00145832,-0.0178786,0.00679717,0.00360851,-0.0200288,0.306376,0.0147037,0.0448247,1070,456,1.97093,28.1929
-147,568,1.89319,-28.3274,0.00239878,-0.0195975,0.00715685,0.00452236,-0.0217211,0.288445,0.0162,0.0479908,1077,456,1.89319,28.3274
-140,568,1.91174,-28.3721,0.00354718,-0.0224329,0.00734829,0.00548156,-0.0243673,0.257403,0.0183471,0.0454161,1084,456,1.91176,28.3721
-133,568,1.81555,-28.6824,0,0,0,0,0,0,0,-1,1091,456,1.81557,28.6824
-126,568,1.60083,-28.1513,0,0,0,0,0,0,0,-1,1098,456,1.60082,28.1513
-119,568,1.48523,-28.0953,0,0,0,0,0,0,0,-1,1105,456,1.48525,28.0953
-112,568,1.7666,-29.1584,0,0,0,0,0,0,0,-1,1112,456,1.76664,29.1583
-105,568,2.02454,-25.038,0,0,0,0,0,0,0,-1,1119,456,2.02459,25.038
-98,568,1.58618,-14.7874,0,0,0,0,0,0,0,-1,1126,456,1.58617,14.7874
-91,568,1.11621,-11.1853,0,0,0,0,0,0,0,-1,1133,456,1.11626,11.1853
-84,568,0.461792,-9.7959,0,0,0,0,0,0,0,-1,1140,456,0.461793,9.7959
-77,568,-1.13806,-8.57822,0,0,0,0,0,0,0,-1,1147,456,-1.13807,8.57821
-70,568,-4.09766,-1.42911,0,0,0,0,0,0,0,-1,1154,456,-4.09767,1.4291
-63,568,-5.92273,-3.70752,0,0,0,0,0,0,0,-1,1161,456,-5.92272,3.70751
-56,568,-5.24158,-6.01385,0,0,0,0,0,0,0,-1,1168,456,-5.24161,6.01386
-49,568,-5.24365,-8.33557,0,0,0,0,0,0,0,-1,1175,456,-5.24371,8.33557
-42,568,-0.664795,0.521973,0,0,0,0,0,0,0,-1,1182,456,-0.664829,-0.521984
-35,568,-0.153076,-1.67731,0,0,0,0,0,0,0,-1,1189,456,-0.153068,1.67731
-28,568,1.25439,-4.48798,0,0,0,0,0,0,0,-1,1196,456,1.2544,4.48797
-21,568,-2.49487,-32.6893,0,0,0,0,0,0,0,-1,1203,456,-2.4949,32.6893
-14,568,-1.5,-32.2857,0,0,0,0,0,0,0,-1,1210,456,-1.50006,32.2857
-7,568,4.54651,-30.8471,0,0,0,0,0,0,0,-1,1217,456,4.54645,30.8471
0,568,4.28992,-30.4718,0,0,0,0,0,0,0,-1,1224,456,4.28995,30.4718
7,568,4.18286,-30.0813,0.0572774,-0.0764492,0.0611971,0.0810551,-0.100227,0.37059,0.104858,0.048076,1231,456,4.18283,30.0813
14,568,6.49194,-28.2667,0.0361733,-0.0903192,0.0451999,0.0506646,-0.10481,0.310251,0.0915601,0.04411,1238,456,6.49197,28.2667
21,568,5.26843,-27.6912,0.016851,-0.102236,0.0318941,0.024855,-0.11024,0.245878,0.0830277,0.042536,1245,456,5.26839,27.6912
28,568,4.24414,-27.2128,-0.00059645,-0.112564,0.0205099,0.00304224,-0.116202,0.175585,0.078502,0.0438764,1252,456,4.24414,27.2128
35,568,3.64343,-26.5788,-0.0144207,-0.121552,0.0110622,-0.0132904,-0.122683,0.101827,0.077738,0.0435716,1259,456,3.64338,26.5788
42,568,3.04626,-26.5798,-0.0250008,-0.129953,0.00113155,-0.0249886,-0.129966,0.0107798,0.079632,0.0417654,1266,456,3.04631,26.5798
49,568,2.18079,-26.1877,-0.0320976,-0.137156,-0.00820826,-0.0314602,-0.137794,-0.0775036,0.0833782,0.0440046,1273,456,2.18079,26.1877
56,568,1.87805,-26.0708,-0.0330004,-0.136896,-0.0157032,-0.0306789,-0.139218,-0.146778,0.0844636,0.0450993,1280,456,1.8781,26.0708
63,568,1.57336,-26.0775,0,0,0,0,0,0,0,-1,1287,456,1.57336,26.0775
70,568,2.06885,-25.9496,-0.0401002,-0.136578,-0.0279468,-0.0325895,-0.144089,-0.262546,0.0872489,0.0457161,1294,456,2.06884,25.9495
77,568,1.62427,-25.6625,-0.0367516,-0.133826,-0.0348032,-0.0255634,-0.145014,-0.311037,0.0893818,0.0456127,1301,456,1.62433,25.6625
84,568,1.55933,-25.7087,-0.0340104,-0.129408,-0.0424339,-0.0178672,-0.145551,-0.363526,0.0916607,0.0462322,1308,456,1.55938,25.7087
91,568,1.39111,-25.7498,-0.033738,-0.122855,-0.0493371,-0.0118164,-0.144777,-0.418123,0.0928301,0.0437658,1315,456,1.39113,25.7498
98,568,0.456665,-26.2784,-0.0348318,-0.114697,-0.0555654,-0.0063383,-0.14319,-0.473829,0.093419,0.0441084,1322,456,0.456697,26.2784
105,568,-0.0836182,-26.7258,-0.0365247,-0.104427,-0.0600763,-0.00146989,-0.139482,-0.528203,0.0925021,0.0459571,1329,456,-0.0836776,26.7258
112,568,-1.0332,-26.5452,-0.0387092,-0.094419,-0.062836,0.00216917,-0.135297,-0.576766,0.0909299,0.0482231,1336,456,-1.03315,26.5452
119,568,-1.82642,-26.5645,-0.0406679,-0.0857731,-0.063236,0.00391679,-0.130358,-0.614109,0.0882398,0.0455689,1343,456,-1.82641,26.5645
126,568,-2.58459,-26.5746,0,0,0,0,0,0,0,-1,1350,456,-2.58462,26.5746
133,568,9.96021,-31.7393,0,0,0,0,0,0,0,-1,1357,456,9.96015,31.7394
140,568,8.88245,-31.6304,0,0,0,0,0,0,0,-1,1364,456,8.88249,31.6304
147,568,6.71118,-30.615,0,0,0,0,0,0,0,-1,1371,456,6.71122,30.6149
154,568,6.7323,-30.505,0,0,0,0,0,0,0,-1,1378,456,6.73226,30.505
161,568,6.7533,-30.3951,0,0,0,0,0,0,0,-1,1385,456,6.7533,30.3951
168,568,4.17395,-32.3794,0,0,0,0,0,0,0,-1,1392,456,4.174,32.3794
175,568,10.5151,0.747498,0,0,0,0,0,0,0,-1,1399,456,10.5152,-0.747501
182,568,6.35095,-3.63361,0,0,0,0,0,0,0,-1,1406,456,6.35093,3.63359
189,568,6.17493,-1.70911,0,0,0,0,0,0,0,-1,1413,456,6.17497,1.70911
196,568,6.04724,0.200836,0,0,0,0,0,0,0,-1,1420,456,6.04724,-0.200835
203,568,5.9281,2.08649,0,0,0,0,0,0,0,-1,1427,456,5.92812,-2.08648
210,568,1.46216,-2.50446,0,0,0,0,0,0,0,-1,1434,456,1.46219,2.50446
217,568,2.62366,-7.86703,0,0,0,0,0,0,0,-1,1441,456,2.62365,7.86704
224,568,3.43494,-12.1555,0,0,0,0,0,0,0,-1,1448,456,3.43492,12.1555
231,568,4.38245,-9.3205,0,0,0,0,0,0,0,-1,1455,456,4.38244,9.32048
238,568,5.88879,-20.7448,0,0,0,0,0,0,0,-1,1462,456,5.88876,20.7449
245,568,3.34387,-10.6774,0,0,0,0,0,0,0,-1,1469,456,3.34389,10.6774
252,568,3.56946,-9.28928,0,0,0,0,0,0,0,-1,1476,456,3.56948,9.28928
259,568,3.38843,-8.73068,0,0,0,0,0,0,0,-1,1483,456,3.38842,8.73068
266,568,3.104,-9.16876,0,0,0,0,0,0,0,-1,1490,456,3.10397,9.16876
273,568,3.77869,-13.1147,0,0,0,0,0,0,0,-1,1497,456,3.77869,13.1147
280,568,4.40002,-14.9322,0,0,0,0,0,0,0,-1,1504,456,4.4,14.9322
287,568,7.25281,-27.3644,0,0,0,0,0,0,0,-1,1511,456,7.25276,27.3644
294,568,7.36047,-26.7231,0.00455858,-0.00453032,-0.0017945,0.00490006,-0.00487179,-0.188042,0.00564179,0.0395681,1518,456,7.36051,26.7231
301,568,7.35913,-26.4258,0.00393649,-0.00459664,-0.00191218,0.00434539,-0.00500554,-0.210669,0.00540325,0.0201414,1525,456,7.35913,26.4258
308,568,7.38892,-26.0608,0.00326898,-0.00493921,-0.0020919,0.00377137,-0.00544159,-0.235693,0.00534816,0.0133438,1532,456,7.38893,26.0608
315,568,7.39282,-25.7122,0.00247643,-0.00479752,-0.00223203,0.00310672,-0.00542781,-0.275218,0.00498778,0.00834311,1539,456,7.39286,25.7122
322,568,7.40515,-25.3512,0.00177631,-0.00430438,-0.0021346,0.00245083,-0.0049789,-0.306064,0.00437154,0.00982145,1546,456,7.40517,25.3512
329,568,7.42529,-24.9682,0.00122016,-0.00359228,-0.00191136,0.00188692,-0.00425904,-0.33564,0.00363541,0.010385,1553,456,7.42531,24.9682
336,568,7.43481,-24.5712,0.000770283,-0.00286438,-0.00163906,0.00140024,-0.00349433,-0.366933,0.00291082,0.0119566,1560,456,7.43483,24.5712
343,568,7.43884,-24.1635,0.000327782,-0.00213204,-0.00137849,0.000945276,-0.00274953,-0.421148,0.00221636,0.0116482,1567,456,7.43884,24.1635
350,568,7.40918,-23.7739,4.93705e-05,-0.00127618,-0.000978056,0.000568062,-0.00179487,-0.487615,0.00142421,0.0103095,1574,456,7.40913,23.7739
357,568,7.38818,-23.3592,-0.000126461,-0.000368987,-0.000523209,0.000289354,-0.000784801,-0.671525,0.000641776,0.00947564,1581,456,7.38816,23.3591
364,568,7.40442,-22.9544,-0.000229192,0.000423972,-4.7499e-05,0.000427408,-0.000232628,-1.49858,0.000386563,0.0116116,1588,456,7.4044,22.9544
371,568,7.40759,-22.5219,-0.000280408,0.00116791,0.000439122,0.00129065,-0.000403146,1.29824,0.00102168,0.0206603,1595,456,7.40762,22.5219
378,568,7.37756,-22.0862,-0.000336086,0.00191966,0.000900519,0.00223505,-0.000651484,1.23391,0.00174814,0.0184094,1602,456,7.37752,22.0862
385,568,7.35034,-21.6623,-0.00044295,0.00265038,0.00123761,0.00308459,-0.000877156,1.23337,0.00240275,0.00965814,1609,456,7.35033,21.6623
392,568,7.33423,-21.2484,-0.000597428,0.00319742,0.00155001,0.00375004,-0.00115005,1.22831,0.00295884,0.0107014,1616,456,7.3342,21.2484
399,568,7.30127,-20.8602,-0.00141326,0.00379434,0.0019589,0.00444892,-0.00206784,1.2483,0.00384526,0.0172544,1623,456,7.30131,20.8602
406,568,7.30579,-20.3869,-0.0020186,0.00434203,0.00218464,0.00502009,-0.00269666,1.26985,0.00452208,0.0154072,1630,456,7.30579,20.3869
413,568,7.29333,-19.8726,-0.00289331,0.00464828,0.00228429,0.00528621,-0.00353124,1.29846,0.00512426,0.0118735,1637,456,7.29333,19.8726
420,568,7.26379,-19.403,-0.0040239,0.0047916,0.00237268,0.00538963,-0.00462194,1.32389,0.00578584,0.0104712,1644,456,7.26373,19.403
427,568,7.25415,-18.9071,-0.0050853,0.00482049,0.00254034,0.00543396,-0.00569877,1.33384,0.00642809,0.0125335,1651,456,7.2542,18.9071
434,568,7.26758,-18.4072,-0.00630836,0.00493766,0.00267248,0.00554044,-0.00691113,1.34896,0.00720342,0.0186531,1658,456,7.2676,18.4072
441,568,7.22949,-18.029,-0.00767237,0.00484261,0.00279788,0.00543963,-0.00826939,1.36057,0.00797092,0.0284864,1665,456,7.22949,18.029
448,568,7.1792,-17.4071,-0.00925872,0.00444452,0.00276721,0.00498222,-0.00979643,1.37887,0.00868205,0.0408563,1672,456,7.1792,17.4071
455,568,7.01208,-16.7272,0,0,0,0,0,0,0,-1,1679,456,7.01214,16.7272
462,568,7.10779,-16.4181,0,0,0,0,0,0,0,-1,1686,456,7.10777,16.4181
469,568,6.91272,-15.8213,0,0,0,0,0,0,0,-1,1693,456,6.91274,15.8213
476,568,7.17163,-15.0538,0,0,0,0,0,0,0,-1,1700,456,7.1716,15.0538
483,568,7.73828,-15.321,0,0,0,0,0,0,0,-1,1707,456,7.73834,15.3209
490,568,7.13123,-15.6385,0,0,0,0,0,0,0,-1,1714,456,7.13125,15.6386
497,568,5.27844,-10.0788,0,0,0,0,0,0,0,-1,1721,456,5.27847,10.0788
504,568,0,0,0,0,0,0,0,0,0,-1,1728,456,0,0
511,568,0,0,0,0,0,0,0,0,0,-1,1735,456,0,0
518,568,0,0,0,0,0,0,0,0,0,-1,1742,456,0,0
525,568,0,0,0,0,0,0,0,0,0,-1,1749,456,0,0
532,568,0,0,0,0,0,0,0,0,0,-1,1756,456,0,0
539,568,0,0,0,0,0,0,0,0,0,-1,1763,456,0,0
546,568,0,0,0,0,0,0,0,0,0,-1,1770,456,0,0
553,568,0,0,0,0,0,0,0,0,0,-1,1777,456,0,0
560,568,0,0,0,0,0,0,0,0,0,-1,1784,456,0,0
567,568,0,0,0,0,0,0,0,0,0,-1,1791,456,0,0
574,568,0,0,0,0,0,0,0,0,0,-1,1798,456,0,0
581,568,0,0,0,0,0,0,0,0,0,-1,1805,456,0,0
588,568,0,0,0,0,0,0,0,0,0,-1,1812,456,0,0
595,568,0,0,0,0,0,0,0,0,0,-1,1819,456,0,0
602,568,0,0,0,0,0,0,0,0,0,-1,1826,456,0,0
609,568,0,0,0,0,0,0,0,0,0,-1,1833,456,0,0
616,568,0,0,0,0,0,0,0,0,0,-1,1840,456,0,0
623,568,0,0,0,0,0,0,0,0,0,-1,1847,456,0,0
630,568,0,0,0,0,0,0,0,0,0,-1,1854,456,0,0
637,568,0,0,0,0,0,0,0,0,0,-1,1861,456,0,0
644,568,0,0,0,0,0,0,0,0,0,-1,1868,456,0,0
651,568,0,0,0,0,0,0,0,0,0,-1,1875,456,0,0
658,568,0,0,0,0,0,0,0,0,0,-1,1882,456,0,0
665,568,0,0,0,0,0,0,0,0,0,-1,1889,456,0,0
672,568,0,0,0,0,0,0,0,0,0,-1,1896,456,0,0
679,568,0,0,0,0,0,0,0,0,0,-1,1903,456,0,0
686,568,0,0,0,0,0,0,0,0,0,-1,1910,456,0,0
693,568,0,0,0,0,0,0,0,0,0,-1,1917,456,0,0
700,568,0,0,0,0,0,0,0,0,0,-1,1924,456,0,0
707,568,0,0,0,0,0,0,0,0,0,-1,1931,456,0,0
714,568,0,0,0,0,0,0,0,0,0,-1,1938,456,0,0
721,568,0,0,0,0,0,0,0,0,0,-1,1945,456,0,0
728,568,0,0,0,0,0,0,0,0,0,-1,1952,456,0,0
735,568,0,0,0,0,0,0,0,0,0,-1,1959,456,0,0
742,568,0,0,0,0,0,0,0,0,0,-1,1966,456,0,0
749,568,0,0,0,0,0,0,0,0,0,-1,1973,456,0,0
756,568,0,0,0,0,0,0,0,0,0,-1,1980,456,0,0
763,568,0,0,0,0,0,0,0,0,0,-1,1987,456,0,0
770,568,0,0,0,0,0,0,0,0,0,-1,1994,456,0,0
777,568,0,0,0,0,0,0,0,0,0,-1,2001,456,0,0
784,568,0,0,0,0,0,0,0,0,0,-1,2008,456,0,0
791,568,0,0,0,0,0,0,0,0,0,-1,2015,456,0,0
798,568,0,0,0,0,0,0,0,0,0,-1,2022,456,0,0
805,568,0,0,0,0,0,0,0,0,0,-1,2029,456,0,0
812,568,0,0,0,0,0,0,0,0,0,-1,2036,456,0,0
-700,561,0,0,0,0,0,0,0,0,0,-1,524,463,0,0
-693,561,0,0,0,0,0,0,0,0,0,-1,531,463,0,0
-686,561,0,0,0,0,0,0,0,0,0,-1,538,463,0,0
-679,561,0,0,0,0,0,0,0,0,0,-1,545,463,0,0
-672,561,0,0,0,0,0,0,0,0,0,-1,552,463,0,0
-665,561,0,0,0,0,0,0,0,0,0,-1,559,463,0,0
-658,561,0,0,0,0,0,0,0,0,0,-1,566,463,0,0
-651,561,0,0,0,0,0,0,0,0,0,-1,573,463,0,0
-644,561,0,0,0,0,0,0,0,0,0,-1,580,463,0,0
-637,561,0,0,0,0,0,0,0,0,0,-1,587,463,0,0
-630,561,0,0,0,0,0,0,0,0,0,-1,594,463,0,0
-623,561,0,0,0,0,0,0,0,0,0,-1,601,463,0,0
-616,561,0,0,0,0,0,0,0,0,0,-1,608,463,0,0
-609,561,0,0,0,0,0,0,0,0,0,-1,615,463,0,0
-602,561,0,0,0,0,0,0,0,0,0,-1,622,463,0,0
-595,561,0,0,0,0,0,0,0,0,0,-1,629,463,0,0
-588,561,0,0,0,0,0,0,0,0,0,-1,636,463,0,0
-581,561,0,0,0,0,0,0,0,0,0,-1,643,463,0,0
-574,561,0,0,0,0,0,0,0,0,0,-1,650,463,0,0
-567,561,0,0,0,0,0,0,0,0,0,-1,657,463,0,0
-560,561,0,0,0,0,0,0,0,0,0,-1,664,463,0,0
-553,561,0,0,0,0,0,0,0,0,0,-1,671,463,0,0
-546,561,0,0,0,0,0,0,0,0,0,-1,678,463,0,0
-539,561,0,0,0,0,0,0,0,0,0,-1,685,463,0,0
-532,561,0,0,0,0,0,0,0,0,0,-1,692,463,0,0
-525,561,0,0,0,0,0,0,0,0,0,-1,699,463,0,0
-518,561,0,0,0,0,0,0,0,0,0,-1,706,463,0,0
-511,561,0,0,0,0,0,0,0,0,0,-1,713,463,0,0
-504,561,0,0,0,0,0,0,0,0,0,-1,720,463,0,0
-497,561,0,0,0,0,0,0,0,0,0,-1,727,463,0,0
-490,561,0,0,0,0,0,0,0,0,0,-1,734,463,0,0
-483,561,0,0,0,0,0,0,0,0,0,-1,741,463,0,0
-476,561,0,0,0,0,0,0,0,0,0,-1,748,463,0,0
-469,561,0,0,0,0,0,0,0,0,0,-1,755,463,0,0
-462,561,0,0,0,0,0,0,0,0,0,-1,762,463,0,0
-455,561,0,0,0,0,0,0,0,0,0,-1,769,463,0,0
-448,561,0,0,0,0,0,0,0,0,0,-1,776,463,0,0
-441,561,0,0,0,0,0,0,0,0,0,-1,783,463,0,0
-434,561,0,0,0,0,0,0,0,0,0,-1,790,463,0,0
-427,561,0,0,0,0,0,0,0,0,0,-1,797,463,0,0
-420,561,0,0,0,0,0,0,0,0,0,-1,804,463,0,0
-413,561,0,0,0,0,0,0,0,0,0,-1,811,463,0,0
-406,561,0,0,0,0,0,0,0,0,0,-1,818,463,0,0
-399,561,0,0,0,0,0,0,0,0,0,-1,825,463,0,0
-392,561,4.92407,-2.54578,0,0,0,0,0,0,0,-1,832,463,4.92408,2.54576
-385,561,5.55634,-1.02338,0,0,0,0,0,0,0,-1,839,463,5.55634,1.02338
-378,561,0.160522,-4.51785,0,0,0,0,0,0,0,-1,846,463,0.160542,4.51785
-371,561,1.06299,-7.56818,0,0,0,0,0,0,0,-1,853,463,1.06297,7.56817
-364,561,1.45264,-7.57684,0,0,0,0,0,0,0,-1,860,463,1.45264,7.57684
-357,561,0.948242,-12.2803,0,0,0,0,0,0,0,-1,867,463,0.948262,12.2803
-350,561,1.33124,-11.9406,0,0,0,0,0,0,0,-1,874,463,1.33127,11.9406
-343,561,1.13214,-14.1837,0,0,0,0,0,0,0,-1,881,463,1.13217,14.1837
-336,561,1.67053,-17.9097,0,0,0,0,0,0,0,-1,888,463,1.67053,17.9097
-329,561,1.5813,-18.3877,-0.00548843,-0.00240196,-0.00104935,-0.002079,-0.0058114,-1.27222,0.00340017,0.0413737,895,463,1.58129,18.3877
-322,561,1.5293,-18.6557,-0.00502512,-0.0031224,-0.00116763,-0.00256762,-0.00557989,-1.12724,0.00322496,0.0344856,902,463,1.52927,18.6557
-315,561,1.57916,-19.0163,-0.00430035,-0.00324072,-0.00146065,-0.00221676,-0.00532431,-0.959382,0.0030883,0.02373,909,463,1.57919,19.0163
-308,561,1.54163,-19.5746,-0.00344741,-0.0029446,-0.00181319,-0.00136547,-0.00502654,-0.854286,0.00300126,0.0181235,916,463,1.54163,19.5747
-301,561,1.48242,-20.1437,-0.00254695,-0.00266715,-0.00201524,-0.000590914,-0.00462319,-0.770492,0.00290526,0.0125611,923,463,1.48244,20.1437
-294,561,1.45532,-20.5904,-0.00173078,-0.00242159,-0.00199057,-5.58703e-05,-0.0040965,-0.699493,0.00271257,0.0111074,930,463,1.45533,20.5904
-287,561,1.44537,-21.0216,-0.00106275,-0.00214355,-0.00183938,0.000313972,-0.00352027,-0.642521,0.00245819,0.0101031,937,463,1.44539,21.0216
-280,561,1.4198,-21.4505,-0.000493171,-0.00190637,-0.00165809,0.000602597,-0.00300214,-0.583974,0.0022296,0.0119962,944,463,1.41981,21.4505
-273,561,1.38751,-21.876,-1.48365e-05,-0.001726,-0.00142816,0.00079441,-0.00253525,-0.515526,0.00200805,0.0153915,951,463,1.38752,21.876
-266,561,1.38354,-22.2962,0.000324656,-0.00173478,-0.00110222,0.000803315,-0.00221344,-0.409696,0.00180403,0.0103501,958,463,1.38354,22.2962
-259,561,1.36603,-22.7174,0.000651952,-0.00209465,-0.000549766,0.000757908,-0.0022006,-0.190393,0.0017745,0.0102935,965,463,1.36605,22.7174
-252,561,1.34796,-23.1173,0.000823797,-0.00286742,0.000100094,0.000826509,-0.00287013,0.0270904,0.00224033,0.0141819,972,463,1.34797,23.1173
-245,561,1.3465,-23.5101,0.000716545,-0.00365893,0.000848526,0.000875335,-0.00381772,0.184997,0.00288159,0.0171392,979,463,1.34651,23.5101
-238,561,1.3551,-23.9139,0.000626505,-0.00495705,0.0015561,0.00103089,-0.00536144,0.254248,0.00396288,0.0136576,986,463,1.35511,23.9139
-231,561,1.32306,-24.3119,0.00044904,-0.00625198,0.00228652,0.00115489,-0.00695783,0.299422,0.00506758,0.0115082,993,463,1.32307,24.3119
-224,561,1.3064,-24.7069,0.000230797,-0.0076642,0.00302866,0.00125879,-0.00869219,0.32722,0.00625674,0.0116692,1000,463,1.30641,24.707
-217,561,1.33563,-25.0685,-3.26531e-05,-0.00917782,0.00378074,0.00132793,-0.0105384,0.345443,0.0075075,0.011534,1007,463,1.33561,25.0685
-210,561,1.34619,-25.416,-0.000272919,-0.0108097,0.0044952,0.00138421,-0.0124668,0.353187,0.00880892,0.0118762,1014,463,1.34621,25.416
-203,561,1.3595,-25.7706,-0.000440019,-0.0119692,0.00502316,0.00144148,-0.0138507,0.358389,0.00974987,0.0127273,1021,463,1.3595,25.7706
-196,561,1.35388,-26.0981,-0.000579134,-0.012979,0.00564025,0.00160255,-0.0151607,0.369081,0.0106815,0.0139068,1028,463,1.35388,26.0981
-189,561,1.35669,-26.4221,-0.000609048,-0.0138977,0.00621394,0.00184388,-0.0163507,0.375969,0.0115642,0.0189031,1035,463,1.35674,26.422
-182,561,1.43005,-26.7611,-0.000683362,-0.0149287,0.00682394,0.00205797,-0.01767,0.381991,0.0125225,0.0231043,1042,463,1.43002,26.7611
-175,561,1.3905,-27.0396,-0.000835803,-0.0161307,0.00772011,0.00238337,-0.0193499,0.395063,0.0137633,0.0357577,1049,463,1.39047,27.0396
-168,561,1.32556,-27.2374,0,0,0,0,0,0,0,-1,1056,463,1.32559,27.2374
-161,561,1.33459,-27.5919,0,0,0,0,0,0,0,-1,1063,463,1.33454,27.5919
-154,561,1.9458,-28.4814,0,0,0,0,0,0,0,-1,1070,463,1.94582,28.4814
-147,561,1.52698,-28.3412,0,0,0,0,0,0,0,-1,1077,463,1.52692,28.3412
-140,561,1.71289,-28.1,0,0,0,0,0,0,0,-1,1084,463,1.71289,28.1
-133,561,2.53076,-26.5784,0,0,0,0,0,0,0,-1,1091,463,2.53081,26.5784
-126,561,1.57788,-27.5258,0,0,0,0,0,0,0,-1,1098,463,1.57794,27.5258
-119,561,0.625122,-28.4731,0,0,0,0,0,0,0,-1,1105,463,0.625072,28.4731
-112,561,0.793579,-25.7806,0,0,0,0,0,0,0,-1,1112,463,0.793536,25.7806
-105,561,0.530518,-13.5379,0,0,0,0,0,0,0,-1,1119,463,0.530477,13.5379
-98,561,1.5387,-7.54352,0,0,0,0,0,0,0,-1,1126,463,1.53871,7.54351
-91,561,1.29553,-6.57968,0,0,0,0,0,0,0,-1,1133,463,1.29549,6.5797
-84,561,1.23364,-5.84555,0,0,0,0,0,0,0,-1,1140,463,1.23363,5.84556
-77,561,-2.36023,1.00204,0,0,0,0,0,0,0,-1,1147,463,-2.3602,-1.00205
-70,561,-3.90015,-1.41541,0,0,0,0,0,0,0,-1,1154,463,-3.90009,1.4154
-63,561,-6.95691,-4.02756,0,0,0,0,0,0,0,-1,1161,463,-6.95696,4.02756
-56,561,-5.37988,-6.66855,0,0,0,0,0,0,0,-1,1168,463,-5.37988,6.66854
-49,561,-5.7439,-9.11029,0,0,0,0,0,0,0,-1,1175,463,-5.74387,9.1103
-42,561,-1.72644,-5.63065,0,0,0,0,0,0,0,-1,1182,463,-1.72648,5.63064
-35,561,-1.65674,-4.87994,0,0,0,0,0,0,0,-1,1189,463,-1.6567,4.87993
-28,561,-1.91418,-3.86896,0,0,0,0,0,0,0,-1,1196,463,-1.91414,3.86895
-21,561,-4.24316,-32.4204,0,0,0,0,0,0,0,-1,1203,463,-4.24322,32.4204
-14,561,-3.45691,-31.6221,0.128921,-0.0213047,0.137556,0.210536,-0.10292,0.535495,0.184495,0.0440641,1210,463,-3.45693,31.6221
-7,561,-2.66077,-30.8115,0.113849,-0.0402633,0.115808,0.175894,-0.102308,0.491843,0.162482,0.0481162,1217,463,-2.66073,30.8115
0,561,4.69263,-30.1613,0,0,0,0,0,0,0,-1,1224,463,4.69267,30.1613
7,561,4.47461,-29.1951,0.0669331,-0.077385,0.0720696,0.0967592,-0.107211,0.392389,0.117814,0.0452315,1231,463,4.47458,29.1951
14,561,3.87195,-27.8499,0.0424668,-0.0932455,0.0530217,0.0607254,-0.111504,0.331643,0.100867,0.0419697,1238,463,3.87199,27.8499
21,561,5.8728,-26.702,0.0201849,-0.106958,0.037678,0.0305117,-0.117285,0.267512,0.0900996,0.0440248,1245,463,5.87279,26.702
28,561,4.8219,-26.2167,-4.65667e-05,-0.118993,0.024693,0.00487595,-0.123915,0.196769,0.0842825,0.0439251,1252,463,4.82192,26.2167
35,561,4.19482,-25.8495,-0.0162657,-0.129608,0.0139945,-0.0145633,-0.13131,0.121049,0.083112,0.0409773,1259,463,4.19487,25.8495
42,561,2.56909,-25.2001,-0.0281382,-0.139298,0.00258975,-0.0280779,-0.139358,0.0232807,0.0851044,0.0466842,1266,463,2.56907,25.2001
49,561,2.35986,-25.0299,-0.0357151,-0.148276,-0.00852744,-0.0350727,-0.148919,-0.0751864,0.0898984,0.0468778,1273,463,2.3598,25.0299
56,561,2.10156,-24.8815,-0.0356844,-0.147907,-0.017173,-0.0331153,-0.150476,-0.1485,0.0913034,0.0461127,1280,463,2.1015,24.8815
63,561,1.87512,-24.7935,-0.0413791,-0.148442,-0.025425,-0.035648,-0.154173,-0.221705,0.0932004,0.0483358,1287,463,1.87509,24.7935
70,561,3.14954,-25.2469,-0.04165,-0.147513,-0.0313616,-0.0330568,-0.156107,-0.26744,0.0949892,0.0447421,1294,463,3.14956,25.2469
77,561,2.21289,-24.5552,-0.0359023,-0.144231,-0.0402273,-0.022598,-0.157535,-0.319404,0.0983598,0.0480336,1301,463,2.2129,24.5552
84,561,2.08887,-24.6867,0,0,0,0,0,0,0,-1,1308,463,2.08888,24.6867
91,561,0.654053,-24.0234,-0.0293249,-0.131034,-0.0592705,-0.00208216,-0.158276,-0.430836,0.10483,0.0417674,1315,463,0.654064,24.0234
98,561,0.807739,-25.2709,-0.0299841,-0.120831,-0.0677646,0.00617274,-0.156988,-0.490138,0.106775,0.0441342,1322,463,0.807703,25.2709
105,561,1.02112,-26.4879,-0.0323115,-0.10769,-0.0742311,0.0132502,-0.153252,-0.550491,0.106859,0.0492547,1329,463,1.02106,26.4879
112,561,-0.25769,-25.984,0,0,0,0,0,0,0,-1,1336,463,-0.257659,25.984
119,561,-1.19531,-25.9649,-0.0392678,-0.085865,-0.0780398,0.018877,-0.14401,-0.640336,0.102878,0.0484338,1343,463,-1.19528,25.9649
126,561,-1.62341,-25.3126,0,0,0,0,0,0,0,-1,1350,463,-1.62342,25.3126
133,561,-1.92871,-24.9356,0,0,0,0,0,0,0,-1,1357,463,-1.92874,24.9356
140,561,8.96265,-30.4945,-0.0493999,-0.0765208,-0.0661496,0.00456484,-0.130486,-0.6843,0.0885512,0.0472959,1364,463,8.96259,30.4945
147,561,7.91736,-30.3958,0,0,0,0,0,0,0,-1,1371,463,7.91731,30.3958
154,561,7.21631,-30.3926,0,0,0,0,0,0,0,-1,1378,463,7.21629,30.3926
161,561,7.2439,-30.3269,0,0,0,0,0,0,0,-1,1385,463,7.24389,30.3269
168,561,3.78113,-33.7118,0,0,0,0,0,0,0,-1,1392,463,3.78116,33.7118
175,561,10.4185,0.276398,0,0,0,0,0,0,0,-1,1399,463,10.4185,-0.276394
182,561,6.45703,-4.02127,0,0,0,0,0,0,0,-1,1406,463,6.45704,4.02127
189,561,6.50854,-2.08685,0,0,0,0,0,0,0,-1,1413,463,6.50851,2.08686
196,561,6.44775,-0.27182,0,0,0,0,0,0,0,-1,1420,463,6.44773,0.271814
203,561,6.18591,1.1301,0,0,0,0,0,0,0,-1,1427,463,6.18592,-1.13009
210,561,5.68713,2.68427,0,0,0,0,0,0,0,-1,1434,463,5.6871,-2.68425
217,561,3.61743,-7.33582,0,0,0,0,0,0,0,-1,1441,463,3.61738,7.33581
224,561,4.27466,-8.59171,0,0,0,0,0,0,0,-1,1448,463,4.27466,8.59171
231,561,4.93188,-9.8476,0,0,0,0,0,0,0,-1,1455,463,4.93193,9.84761
238,561,2.18018,-5.18359,0,0,0,0,0,0,0,-1,1462,463,2.18023,5.18359
245,561,3.07568,-3.50238,0,0,0,0,0,0,0,-1,1469,463,3.0757,3.50238
252,561,3.47412,-3.71109,0,0,0,0,0,0,0,-1,1476,463,3.47413,3.71109
259,561,3.42212,-3.2334,0,0,0,0,0,0,0,-1,1483,463,3.42214,3.2334
266,561,4.44373,-5.90027,0,0,0,0,0,0,0,-1,1490,463,4.44372,5.90026
273,561,2.59485,-3.65268,0,0,0,0,0,0,0,-1,1497,463,2.5948,3.65268
280,561,3.10767,-6.38235,0,0,0,0,0,0,0,-1,1504,463,3.10766,6.38235
287,561,4.91809,-14.429,0,0,0,0,0,0,0,-1,1511,463,4.9181,14.429
294,561,7.69543,-26.5273,0,0,0,0,0,0,0,-1,1518,463,7.69548,26.5273
301,561,7.65308,-26.2187,0.00479345,-0.0069503,-0.00258136,0.0053358,-0.00749266,-0.207092,0.00744133,0.0424961,1525,463,7.65313,26.2187
308,561,7.729,-25.9416,0.00386969,-0.00730712,-0.00294538,0.00459837,-0.00803579,-0.242527,0.00738378,0.0320862,1532,463,7.72903,25.9416
315,561,7.76257,-25.6822,0.00275326,-0.00712605,-0.00327657,0.00374117,-0.00811397,-0.292841,0.00699805,0.019174,1539,463,7.76256,25.6822
322,561,7.77356,-25.3709,0.00185474,-0.00647474,-0.00324958,0.0029725,-0.0075925,-0.331294,0.00629111,0.0200223,1546,463,7.77357,25.3709
329,561,7.80432,-24.9581,0.00118603,-0.00557196,-0.00306087,0.00236625,-0.00675219,-0.368019,0.00546376,0.0151181,1553,463,7.80429,24.9581
336,561,7.83984,-24.5533,0.000657791,-0.00469306,-0.0028088,0.00186145,-0.00589672,-0.404857,0.00467678,0.0119261,1560,463,7.83985,24.5532
343,561,7.8385,-24.1674,0.000145135,-0.00385409,-0.00257352,0.00140458,-0.00511353,-0.455121,0.00396111,0.010726,1567,463,7.83846,24.1674
350,561,7.80896,-23.7657,-0.000147028,-0.00295865,-0.00217248,0.00103482,-0.0041405,-0.498231,0.00316222,0.010022,1574,463,7.8089,23.7657
357,561,7.8009,-23.343,-0.000299193,-0.00196819,-0.00170601,0.00076548,-0.00303286,-0.557932,0.00231956,0.0102611,1581,463,7.80093,23.343
364,561,7.80945,-22.9489,-0.00034104,-0.00110081,-0.00118264,0.000521231,-0.00196308,-0.629995,0.0015127,0.0103267,1588,463,7.8094,22.9488
371,561,7.79126,-22.5106,-0.000304131,-0.000301975,-0.000626507,0.000323455,-0.000929561,-0.786259,0.000751111,0.0180921,1595,463,7.79131,22.5106
378,561,7.78552,-22.0874,-0.000260706,0.000492113,-9.34571e-05,0.000503541,-0.000272134,-1.44911,0.000454431,0.0123926,1602,463,7.78552,22.0874
385,561,7.78113,-21.6475,-0.000249133,0.0013486,0.000371062,0.00143058,-0.000331104,1.35338,0.00108112,0.0110416,1609,463,7.78108,21.6475
392,561,7.78418,-21.2146,-0.000287942,0.00195086,0.000778522,0.00219497,-0.000532049,1.26695,0.00166917,0.0147876,1616,463,7.78418,21.2146
399,561,7.77673,-20.8026,-0.000793426,0.0025079,0.00121042,0.00290414,-0.00118967,1.25443,0.00243167,0.0209493,1623,463,7.77668,20.8026
406,561,7.77832,-20.3495,-0.00121147,0.00304203,0.0014812,0.003507,-0.00167644,1.26662,0.00305424,0.0189174,1630,463,7.77835,20.3495
413,561,7.74377,-19.8595,-0.00183668,0.00341138,0.00167233,0.00389898,-0.00232427,1.28709,0.00363113,0.0169964,1637,463,7.74381,19.8595
420,561,7.70544,-19.4006,-0.00265476,0.00361033,0.00183276,0.00410709,-0.00315152,1.30611,0.00420285,0.0136217,1644,463,7.70549,19.4006
427,561,7.71411,-18.9187,-0.00343026,0.00366379,0.00201307,0.00419522,-0.0039617,1.31269,0.00471004,0.010534,1651,463,7.71409,18.9187
434,561,7.7207,-18.4224,-0.00429311,0.0037467,0.00215899,0.00428978,-0.00483619,1.32436,0.00527203,0.0125427,1658,463,7.7207,18.4224
441,561,7.7085,-17.9813,-0.00525938,0.00363503,0.00230412,0.00419648,-0.00582083,1.33178,0.00580878,0.0161687,1665,463,7.70845,17.9813
448,561,7.62793,-17.4979,-0.00641005,0.00331348,0.00231084,0.00383472,-0.00693129,1.34895,0.00630088,0.0212954,1672,463,7.62795,17.4979
455,561,7.57593,-16.9543,-0.00734513,0.00267968,0.00234596,0.00320151,-0.00786696,1.35192,0.00657689,0.0372426,1679,463,7.57588,16.9543
462,561,7.56519,-16.5415,-0.00801052,0.00187713,0.00245393,0.00245265,-0.00858604,1.34043,0.00669308,0.0383096,1686,463,7.56522,16.5415
469,561,7.49768,-16.0942,-0.00845743,0.000791582,0.00271073,0.0015275,-0.00919335,1.3057,0.00669639,0.0252773,1693,463,7.49772,16.0942
476,561,7.40698,-15.6097,-0.00886431,-0.000809636,0.00291025,0.000131832,-0.00980577,1.25792,0.00658157,0.0423134,1700,463,7.40704,15.6098
483,561,7.54919,-14.8703,0,0,0,0,0,0,0,-1,1707,463,7.54918,14.8703
490,561,7.91907,-14.0965,0,0,0,0,0,0,0,-1,1714,463,7.91908,14.0965
497,561,7.77515,-8.73441,0,0,0,0,0,0,0,-1,1721,463,7.77516,8.73441
504,561,10.0769,-0.811401,0,0,0,0,0,0,0,-1,1728,463,10.0769,0.8114
511,561,0,0,0,0,0,0,0,0,0,-1,1735,463,0,0
518,561,0,0,0,0,0,0,0,0,0,-1,1742,463,0,0
525,561,0,0,0,0,0,0,0,0,0,-1,1749,463,0,0
532,561,0,0,0,0,0,0,0,0,0,-1,1756,463,0,0
539,561,0,0,0,0,0,0,0,0,0,-1,1763,463,0,0
546,561,0,0,0,0,0,0,0,0,0,-1,1770,463,0,0
553,561,0,0,0,0,0,0,0,0,0,-1,1777,463,0,0
560,561,0,0,0,0,0,0,0,0,0,-1,1784,463,0,0
567,561,0,0,0,0,0,0,0,0,0,-1,1791,463,0,0
574,561,0,0,0,0,0,0,0,0,0,-1,1798,463,0,0
581,561,0,0,0,0,0,0,0,0,0,-1,1805,463,0,0
588,561,0,0,0,0,0,0,0,0,0,-1,1812,463,0,0
595,561,0,0,0,0,0,0,0,0,0,-1,1819,463,0,0
602,561,0,0,0,0,0,0,0,0,0,-1,1826,463,0,0
609,561,0,0,0,0,0,0,0,0,0,-1,1833,463,0,0
616,561,0,0,0,0,0,0,0,0,0,-1,1840,463,0,0
623,561,0,0,0,0,0,0,0,0,0,-1,1847,463,0,0
630,561,0,0,0,0,0,0,0,0,0,-1,1854,463,0,0
637,561,0,0,0,0,0,0,0,0,0,-1,1861,463,0,0
644,561,0,0,0,0,0,0,0,0,0,-1,1868,463,0,0
651,561,0,0,0,0,0,0,0,0,0,-1,1875,463,0,0
658,561,0,0,0,0,0,0,0,0,0,-1,1882,463,0,0
665,561,0,0,0,0,0,0,0,0,0,-1,1889,463,0,0
672,561,0,0,0,0,0,0,0,0,0,-1,1896,463,0,0
679,561,0,0,0,0,0,0,0,0,0,-1,1903,463,0,0
686,561,0,0,0,0,0,0,0,0,0,-1,1910,463,0,0
693,561,0,0,0,0,0,0,0,0,0,-1,1917,463,0,0
700,561,0,0,0,0,0,0,0,0,0,-1,1924,463,0,0
707,561,0,0,0,0,0,0,0,0,0,-1,1931,463,0,0
714,561,0,0,0,0,0,0,0,0,0,-1,1938,463,0,0
721,561,0,0,0,0,0,0,0,0,0,-1,1945,463,0,0
728,561,0,0,0,0,0,0,0,0,0,-1,1952,463,0,0
735,561,0,0,0,0,0,0,0,0,0,-1,1959,463,0,0
742,561,0,0,0,0,0,0,0,0,0,-1,1966,463,0,0
749,561,0,0,0,0,0,0,0,0,0,-1,1973,463,0,0
756,561,0,0,0,0,0,0,0,0,0,-1,1980,463,0,0
763,561,0,0,0,0,0,0,0,0,0,-1,1987,463,0,0
770,561,0,0,0,0,0,0,0,0,0,-1,1994,463,0,0
777,561,0,0,0,0,0,0,0,0,0,-1,2001,463,0,0
784,561,0,0,0,0,0,0,0,0,0,-1,2008,463,0,0
791,561,0,0,0,0,0,0,0,0,0,-1,2015,463,0,0
798,561,0,0,0,0,0,0,0,0,0,-1,2022,463,0,0
805,561,0,0,0,0,0,0,0,0,0,-1,2029,463,0,0
812,561,0,0,0,0,0,0,0,0,0,-1,2036,463,0,0
-700,554,0,0,0,0,0,0,0,0,0,-1,524,470,0,0
-693,554,0,0,0,0,0,0,0,0,0,-1,531,470,0,0
-686,554,0,0,0,0,0,0,0,0,0,-1,538,470,0,0
-679,554,0,0,0,0,0,0,0,0,0,-1,545,470,0,0
-672,554,0,0,0,0,0,0,0,0,0,-1,552,470,0,0
-665,554,0,0,0,0,0,0,0,0,0,-1,559,470,0,0
-658,554,0,0,0,0,0,0,0,0,0,-1,566,470,0,0
-651,554,0,0,0,0,0,0,0,0,0,-1,573,470,0,0
-644,554,0,0,0,0,0,0,0,0,0,-1,580,470,0,0
-637,554,0,0,0,0,0,0,0,0,0,-1,587,470,0,0
-630,554,0,0,0,0,0,0,0,0,0,-1,594,470,0,0
-623,554,0,0,0,0,0,0,0,0,0,-1,601,470,0,0
-616,554,0,0,0,0,0,0,0,0,0,-1,608,470,0,0
-609,554,0,0,0,0,0,0,0,0,0,-1,615,470,0,0
-602,554,0,0,0,0,0,0,0,0,0,-1,622,470,0,0
-595,554,0,0,0,0,0,0,0,0,0,-1,629,470,0,0
-588,554,0,0,0,0,0,0,0,0,0,-1,636,470,0,0
-581,554,0,0,0,0,0,0,0,0,0,-1,643,470,0,0
-574,554,0,0,0,0,0,0,0,0,0,-1,650,470,0,0
-567,554,0,0,0,0,0,0,0,0,0,-1,657,470,0,0
-560,554,0,0,0,0,0,0,0,0,0,-1,664,470,0,0
-553,554,0,0,0,0,0,0,0,0,0,-1,671,470,0,0
-546,554,0,0,0,0,0,0,0,0,0,-1,678,470,0,0
-539,554,0,0,0,0,0,0,0,0,0,-1,685,470,0,0
-532,554,0,0,0,0,0,0,0,0,0,-1,692,470,0,0
-525,554,0,0,0,0,0,0,0,0,0,-1,699,470,0,0
-518,554,0,0,0,0,0,0,0,0,0,-1,706,470,0,0
-511,554,0,0,0,0,0,0,0,0,0,-1,713,470,0,0
-504,554,0,0,0,0,0,0,0,0,0,-1,720,470,0,0
-497,554,0,0,0,0,0,0,0,0,0,-1,727,470,0,0
-490,554,0,0,0,0,0,0,0,0,0,-1,734,470,0,0
-483,554,0,0,0,0,0,0,0,0,0,-1,741,470,0,0
-476,554,0,0,0,0,0,0,0,0,0,-1,748,470,0,0
-469,554,0,0,0,0,0,0,0,0,0,-1,755,470,0,0
-462,554,0,0,0,0,0,0,0,0,0,-1,762,470,0,0
-455,554,0,0,0,0,0,0,0,0,0,-1,769,470,0,0
-448,554,0,0,0,0,0,0,0,0,0,-1,776,470,0,0
-441,554,0,0,0,0,0,0,0,0,0,-1,783,470,0,0
-434,554,0,0,0,0,0,0,0,0,0,-1,790,470,0,0
-427,554,0,0,0,0,0,0,0,0,0,-1,797,470,0,0
-420,554,0,0,0,0,0,0,0,0,0,-1,804,470,0,0
-413,554,0,0,0,0,0,0,0,0,0,-1,811,470,0,0
-406,554,0,0,0,0,0,0,0,0,0,-1,818,470,0,0
-399,554,-1.32275,-3.95142,0,0,0,0,0,0,0,-1,825,470,-1.32275,3.95141
-392,554,-1.35632,-3.7406,0,0,0,0,0,0,0,-1,832,470,-1.35632,3.7406
-385,554,-0.849243,-4.14447,0,0,0,0,0,0,0,-1,839,470,-0.849262,4.14446
-378,554,-0.982666,-4.55084,0,0,0,0,0,0,0,-1,846,470,-0.982671,4.55084
-371,554,-1.74542,-4.63467,0,0,0,0,0,0,0,-1,853,470,-1.74541,4.63468
-364,554,1.04883,-7.68756,0,0,0,0,0,0,0,-1,860,470,1.0488,7.68757
-357,554,1.06714,-11.5403,0,0,0,0,0,0,0,-1,867,470,1.06715,11.5403
-350,554,0.835327,-15.9311,0,0,0,0,0,0,0,-1,874,470,0.8353,15.9311
-343,554,1.4209,-17.4263,0,0,0,0,0,0,0,-1,881,470,1.42088,17.4263
-336,554,1.30341,-17.765,-0.00371912,0.00105024,-0.00212224,0.00185783,-0.00452671,-1.20718,0.00379195,0.0423799,888,470,1.30341,17.765
-329,554,1.16394,-18.2884,-0.00379808,-5.91801e-05,-0.00155335,0.000501953,-0.00435921,-1.22414,0.00308709,0.0200749,895,470,1.16393,18.2884
-322,554,1.08209,-18.7834,-0.00358612,-0.000907279,-0.00135024,-0.000344806,-0.0041486,-1.17609,0.00265826,0.0127715,902,470,1.08207,18.7834
-315,554,1.08063,-19.2352,-0.0031223,-0.00126184,-0.00132295,-0.000574807,-0.00380933,-1.09182,0.00237129,0.0123514,909,470,1.08064,19.2352
-308,554,1.06097,-19.6858,-0.00252,-0.00128367,-0.0014073,-0.000364754,-0.00343892,-0.99234,0.00218122,0.0134811,916,470,1.06099,19.6858
-301,554,1.05719,-20.1461,-0.00185189,-0.00134098,-0.00141022,-0.000163262,-0.00302961,-0.875,0.00196758,0.0131542,923,470,1.05716,20.1461
-294,554,1.03394,-20.5851,-0.00121641,-0.00150941,-0.00123995,-0.000114334,-0.00261148,-0.726596,0.00170415,0.0112302,930,470,1.03393,20.5851
-287,554,1.02496,-21.0234,-0.000648149,-0.00158253,-0.000998663,-1.27996e-05,-0.00221788,-0.566613,0.00147434,0.0117214,937,470,1.02497,21.0234
-280,554,1.00763,-21.4416,-0.000126178,-0.00179963,-0.000762857,0.000169377,-0.00209519,-0.369625,0.00145654,0.0114759,944,470,1.00762,21.4416
-273,554,0.974609,-21.8642,0.000300388,-0.00203107,-0.00046449,0.00038952,-0.0021202,-0.189587,0.0015596,0.0146935,951,470,0.974625,21.8642
-266,554,0.962769,-22.288,0.000632879,-0.00254219,-5.02895e-05,0.000633675,-0.00254299,-0.0158336,0.00194134,0.0124329,958,470,0.962778,22.288
-259,554,0.951477,-22.6816,0.000954382,-0.00338219,0.000549837,0.00102301,-0.00345082,0.124173,0.00270678,0.0119646,965,470,0.951459,22.6816
-252,554,0.941467,-23.0673,0.00108713,-0.00466895,0.00122586,0.00133732,-0.00491914,0.201331,0.00380438,0.0146322,972,470,0.941476,23.0673
-245,554,0.936462,-23.4819,0.000911596,-0.00596515,0.00200429,0.00145312,-0.00650668,0.263882,0.00489459,0.0163561,979,470,0.93649,23.4819
-238,554,0.956482,-23.9078,0.0008164,-0.0076201,0.00278673,0.00165379,-0.00845749,0.291908,0.00626281,0.0119489,986,470,0.956504,23.9078
-231,554,0.946533,-24.3026,0.000649623,-0.00928891,0.00357818,0.00180384,-0.0104431,0.312032,0.00763472,0.0108306,993,470,0.946552,24.3025
-224,554,0.943787,-24.6731,0.000336098,-0.0110719,0.00445985,0.00187267,-0.0126085,0.331798,0.00909436,0.011125,1000,470,0.943769,24.6731
-217,554,0.954529,-25.0395,-0.000135472,-0.0130264,0.00538681,0.00181917,-0.014981,0.348082,0.0106457,0.0105034,1007,470,0.954536,25.0394
-210,554,0.970459,-25.4052,-0.000598986,-0.0150005,0.00625451,0.00173807,-0.0173375,0.357594,0.0121791,0.0137889,1014,470,0.970459,25.4052
-203,554,0.984619,-25.7291,-0.000996801,-0.0163321,0.00690052,0.00165107,-0.01898,0.366394,0.013238,0.0239855,1021,470,0.984627,25.7291
-196,554,0.880615,-25.9298,-0.0013721,-0.0175046,0.00766184,0.00168677,-0.0205635,0.379846,0.0143044,0.0315934,1028,470,0.880616,25.9298
-189,554,0.851563,-26.1589,-0.00162099,-0.018464,0.00837531,0.00183469,-0.0219197,0.391323,0.0152615,0.0408149,1035,470,0.851581,26.1589
-182,554,0.861084,-26.4218,0,0,0,0,0,0,0,-1,1042,470,0.861054,26.4219
-175,554,0.993652,-26.9042,0,0,0,0,0,0,0,-1,1049,470,0.993634,26.9042
-168,554,0.854004,-26.728,0,0,0,0,0,0,0,-1,1056,470,0.854063,26.728
-161,554,2.62341,-27.2382,0,0,0,0,0,0,0,-1,1063,470,2.6234,27.2382
-154,554,2.70959,-27.3832,0,0,0,0,0,0,0,-1,1070,470,2.70955,27.3832
-147,554,2.79565,-27.5283,0,0,0,0,0,0,0,-1,1077,470,2.7957,27.5283
-140,554,3.14563,-26.981,0,0,0,0,0,0,0,-1,1084,470,3.14569,26.981
-133,554,1.24866,-27.4076,0,0,0,0,0,0,0,-1,1091,470,1.24861,27.4076
-126,554,1.02307,-27.4019,0,0,0,0,0,0,0,-1,1098,470,1.02311,27.4019
-119,554,1.11841,-25.5079,0,0,0,0,0,0,0,-1,1105,470,1.11838,25.5079
-112,554,1.03162,-24.5784,0,0,0,0,0,0,0,-1,1112,470,1.03156,24.5784
-105,554,0.608765,-21.0475,0,0,0,0,0,0,0,-1,1119,470,0.608728,21.0475
-98,554,1.51929,-7.3624,0,0,0,0,0,0,0,-1,1126,470,1.51928,7.36241
-91,554,1.41089,-6.5864,0,0,0,0,0,0,0,-1,1133,470,1.41093,6.58638
-84,554,1.62305,-5.87186,0,0,0,0,0,0,0,-1,1140,470,1.62299,5.87186
-77,554,-2.56958,1.33258,0,0,0,0,0,0,0,-1,1147,470,-2.56959,-1.33257
-70,554,-3.68164,-1.18332,0,0,0,0,0,0,0,-1,1154,470,-3.68158,1.18331
-63,554,-4.86853,-3.88708,0,0,0,0,0,0,0,-1,1161,470,-4.86853,3.88708
-56,554,-5.69958,-6.45422,0,0,0,0,0,0,0,-1,1168,470,-5.69955,6.45422
-49,554,-6.23645,-8.8569,0,0,0,0,0,0,0,-1,1175,470,-6.23643,8.85689
-42,554,-6.62524,-11.5382,0,0,0,0,0,0,0,-1,1182,470,-6.62522,11.5382
-35,554,-2.40173,-4.59482,0,0,0,0,0,0,0,-1,1189,470,-2.40169,4.59481
-28,554,-0.760132,-1.65555,0,0,0,0,0,0,0,-1,1196,470,-0.760095,1.65556
-21,554,-6.11462,-31.9121,0,0,0,0,0,0,0,-1,1203,470,-6.11458,31.9122
-14,554,-5.4071,-31.1511,0.147396,-0.0101169,0.164347,0.250883,-0.113604,0.56196,0.215354,0.0492405,1210,470,-5.40715,31.1511
-7,554,-4.70288,-30.3878,0.127478,-0.032884,0.134182,0.20361,-0.109016,0.516088,0.183228,0.0494026,1217,470,-4.70293,30.3878
0,554,5.86389,-29.323,0,0,0,0,0,0,0,-1,1224,470,5.86393,29.323
7,554,5.04102,-28.0407,0.0731971,-0.0742527,0.0812085,0.109154,-0.11021,0.416831,0.126651,0.0479028,1231,470,5.041,28.0407
14,554,7.43994,-26.0981,0.0469315,-0.0912678,0.0597368,0.0691732,-0.11351,0.356427,0.106502,0.0448493,1238,470,7.44,26.0981
21,554,6.43372,-25.7893,0.0231185,-0.106112,0.0431243,0.0361875,-0.119181,0.294255,0.0938711,0.043527,1245,470,6.43373,25.7893
28,554,5.4502,-25.4262,0.00110188,-0.11932,0.0290894,0.00776058,-0.125979,0.225028,0.0866886,0.0407801,1252,470,5.45021,25.4262
35,554,3.79346,-24.2657,-0.0169519,-0.131183,0.0175699,-0.0143105,-0.133824,0.149216,0.0848494,0.0416431,1259,470,3.79347,24.2657
42,554,3.22827,-24.1981,-0.0292785,-0.141414,0.00487392,-0.029067,-0.141626,0.0433554,0.0863742,0.0467233,1266,470,3.22822,24.1981
49,554,2.57813,-23.8652,0,0,0,0,0,0,0,-1,1273,470,2.57809,23.8652
56,554,2.34497,-23.671,-0.0343164,-0.150914,-0.0179705,-0.0316096,-0.153621,-0.149503,0.0936725,0.0451834,1280,470,2.34498,23.671
63,554,2.26685,-23.5515,-0.0389361,-0.150345,-0.0273504,-0.0325839,-0.156697,-0.228208,0.0954751,0.0454039,1287,470,2.26689,23.5515
70,554,1.95044,-23.7305,-0.0359237,-0.148533,-0.0339089,-0.0265014,-0.157955,-0.271033,0.0976754,0.04551,1294,470,1.95042,23.7305
77,554,2.72632,-23.3671,0,0,0,0,0,0,0,-1,1301,470,2.72627,23.3671
84,554,1.66309,-22.2261,0,0,0,0,0,0,0,-1,1308,470,1.66304,22.2261
91,554,1.48816,-23.0977,-0.0101881,-0.127638,-0.0713969,0.0235324,-0.161358,-0.44124,0.116213,0.0423366,1315,470,1.48818,23.0977
98,554,1.28845,-23.9679,-0.00886933,-0.115293,-0.0832509,0.0367229,-0.160885,-0.501036,0.121364,0.0431638,1322,470,1.28847,23.9679
105,554,2.1488,-26.0761,-0.0116465,-0.0987268,-0.0930122,0.047512,-0.157885,-0.566491,0.124162,0.0470337,1329,470,2.14886,26.0762
112,554,1.90027,-26.0444,0,0,0,0,0,0,0,-1,1336,470,1.90021,26.0444
119,554,-0.669067,-25.6436,0,0,0,0,0,0,0,-1,1343,470,-0.669094,25.6436
126,554,-0.913208,-25.4545,0,0,0,0,0,0,0,-1,1350,470,-0.913207,25.4545
133,554,9.96838,-29.436,0,0,0,0,0,0,0,-1,1357,470,9.9684,29.436
140,554,9.56848,-29.4235,0,0,0,0,0,0,0,-1,1364,470,9.5685,29.4235
147,554,8.64453,-29.3972,0,0,0,0,0,0,0,-1,1371,470,8.64453,29.3972
154,554,7.66431,-30.1928,0,0,0,0,0,0,0,-1,1378,470,7.66431,30.1928
161,554,1.58655,-34.4199,0,0,0,0,0,0,0,-1,1385,470,1.58656,34.4199
168,554,1.83154,-34.5717,0,0,0,0,0,0,0,-1,1392,470,1.83154,34.5716
175,554,10.663,0.286957,0,0,0,0,0,0,0,-1,1399,470,10.663,-0.286966
182,554,6.71106,-4.50217,0,0,0,0,0,0,0,-1,1406,470,6.71107,4.50215
189,554,6.90479,-2.50348,0,0,0,0,0,0,0,-1,1413,470,6.90477,2.50348
196,554,6.96216,-0.740906,0,0,0,0,0,0,0,-1,1420,470,6.96214,0.740912
203,554,6.43518,0.414154,0,0,0,0,0,0,0,-1,1427,470,6.43523,-0.414141
210,554,6.21167,1.96707,0,0,0,0,0,0,0,-1,1434,470,6.21165,-1.96706
217,554,5.64551,3.4989,0,0,0,0,0,0,0,-1,1441,470,5.64555,-3.49891
224,554,4.85144,-8.85172,0,0,0,0,0,0,0,-1,1448,470,4.85146,8.85173
231,554,3.25073,-5.29642,0,0,0,0,0,0,0,-1,1455,470,3.25078,5.29642
238,554,4.28625,-3.25253,0,0,0,0,0,0,0,-1,1462,470,4.28622,3.25252
245,554,4.0752,-2.90033,0,0,0,0,0,0,0,-1,1469,470,4.07515,2.90032
252,554,3.52112,-0.934998,0,0,0,0,0,0,0,-1,1476,470,3.52113,0.934996
259,554,3.96448,-2.16425,0,0,0,0,0,0,0,-1,1483,470,3.96446,2.16424
266,554,3.0592,-2.71716,0,0,0,0,0,0,0,-1,1490,470,3.05923,2.71718
273,554,2.58521,-3.06876,0,0,0,0,0,0,0,-1,1497,470,2.58524,3.06874
280,554,2.83301,-0.991699,0,0,0,0,0,0,0,-1,1504,470,2.83303,0.991704
287,554,3.54126,-4.12277,0,0,0,0,0,0,0,-1,1511,470,3.54123,4.12277
294,554,3.62036,-8.50146,0,0,0,0,0,0,0,-1,1518,470,3.62031,8.50145
301,554,7.88733,-25.7769,0,0,0,0,0,0,0,-1,1525,470,7.88737,25.7769
308,554,8.07861,-25.8562,0,0,0,0,0,0,0,-1,1532,470,8.07856,25.8562
315,554,8.14819,-25.6663,0,0,0,0,0,0,0,-1,1539,470,8.14822,25.6663
322,554,8.15369,-25.0055,0,0,0,0,0,0,0,-1,1546,470,8.15372,25.0055
329,554,8.23071,-24.6492,0.000729959,-0.00792379,-0.00456916,0.00269587,-0.0098897,-0.406314,0.00765173,0.0440929,1553,470,8.23077,24.6492
336,554,8.20105,-24.4804,0.000179108,-0.00678173,-0.00426557,0.002204,-0.00880662,-0.443208,0.00672719,0.0263945,1560,470,8.20108,24.4804
343,554,8.19922,-24.1624,-0.00035143,-0.00573864,-0.00398806,0.00176746,-0.00785753,-0.48838,0.00591617,0.0141116,1567,470,8.19921,24.1624
350,554,8.23291,-23.747,-0.000601372,-0.00473896,-0.00352401,0.00141622,-0.00675655,-0.519974,0.00504317,0.0100086,1574,470,8.23296,23.747
357,554,8.24353,-23.3261,-0.000669793,-0.00361823,-0.00299192,0.00119139,-0.00547941,-0.55649,0.00410807,0.0113521,1581,470,8.24352,23.3261
364,554,8.23682,-22.9353,-0.000606491,-0.00263553,-0.00237967,0.000965892,-0.00420791,-0.583901,0.00317657,0.0096411,1588,470,8.23677,22.9353
371,554,8.23218,-22.516,-0.000448135,-0.00174294,-0.0017224,0.000744517,-0.00293559,-0.605631,0.00224674,0.00933546,1595,470,8.23214,22.5159
378,554,8.23401,-22.0828,-0.000285647,-0.000827475,-0.00107712,0.000554107,-0.00166723,-0.662195,0.00133508,0.0100988,1602,470,8.23406,22.0828
385,554,8.22644,-21.6502,-0.000150168,0.00019711,-0.000454388,0.000509906,-0.000462964,-0.967906,0.000561905,0.00965821,1609,470,8.22641,21.6502
392,554,8.23218,-21.2029,-7.52527e-05,0.000893419,5.6106e-05,0.000896658,-7.84915e-05,1.51313,0.000625579,0.0128742,1616,470,8.23213,21.2029
399,554,8.24133,-20.7534,-0.00028749,0.00146057,0.000536224,0.00161195,-0.00043887,1.29565,0.00124694,0.0173319,1623,470,8.24139,20.7534
406,554,8.2113,-20.3132,-0.000539401,0.00202277,0.00086926,0.00228984,-0.000806474,1.27271,0.00185478,0.0162692,1630,470,8.21126,20.3132
413,554,8.20068,-19.8367,-0.000952853,0.00248092,0.00115462,0.00283305,-0.00130499,1.27478,0.00244279,0.0151259,1637,470,8.20066,19.8367
420,554,8.17456,-19.4126,-0.00151882,0.00275681,0.00138792,0.00316783,-0.00192984,1.28288,0.00297193,0.0160479,1644,470,8.17462,19.4126
427,554,8.16199,-18.9315,-0.00209693,0.00284302,0.00157526,0.00330259,-0.00255649,1.28693,0.00339187,0.0113627,1651,470,8.16205,18.9315
434,554,8.14233,-18.4585,-0.00271958,0.00290648,0.00172522,0.00339338,-0.00320648,1.29573,0.00381094,0.00965345,1658,470,8.14234,18.4585
441,554,8.13306,-18.009,-0.00342531,0.00278666,0.00187712,0.00330983,-0.00394847,1.29899,0.00419599,0.0112935,1665,470,8.133,18.009
448,554,8.09753,-17.5045,-0.0042963,0.00250176,0.00189915,0.00299633,-0.00479087,1.31604,0.00453557,0.0154817,1672,470,8.09758,17.5045
455,554,8.0813,-17.0036,-0.0049575,0.00197827,0.0019525,0.00249014,-0.00546937,1.3144,0.0047015,0.0163234,1679,470,8.08132,17.0036
462,554,8.02625,-16.5623,-0.00541105,0.00117724,0.0020525,0.00176435,-0.00599816,1.29219,0.00469864,0.0179375,1686,470,8.02624,16.5623
469,554,7.96594,-16.0884,-0.00571967,8.31708e-05,0.00226294,0.000861305,-0.00649781,1.2396,0.00464566,0.0223829,1693,470,7.96593,16.0884
476,554,7.88379,-15.556,-0.00601507,-0.00141931,0.00241821,-0.000381325,-0.00705306,1.16534,0.00458022,0.0413812,1700,470,7.88381,15.556
483,554,7.80579,-15.0469,0,0,0,0,0,0,0,-1,1707,470,7.80574,15.0469
490,554,7.31543,-3.51794,0,0,0,0,0,0,0,-1,1714,470,7.3154,3.51794
497,554,10.9613,1.60983,0,0,0,0,0,0,0,-1,1721,470,10.9613,-1.60982
504,554,2.13257,-3.81628,0,0,0,0,0,0,0,-1,1728,470,2.1326,3.8163
511,554,1.31396,-4.02713,0,0,0,0,0,0,0,-1,1735,470,1.31398,4.02712
518,554,5.04236,-5.9472,0,0,0,0,0,0,0,-1,1742,470,5.04231,5.94721
525,554,0,0,0,0,0,0,0,0,0,-1,1749,470,0,0
532,554,0,0,0,0,0,0,0,0,0,-1,1756,470,0,0
539,554,0,0,0,0,0,0,0,0,0,-1,1763,470,0,0
546,554,0,0,0,0,0,0,0,0,0,-1,1770,470,0,0
553,554,0,0,0,0,0,0,0,0,0,-1,1777,470,0,0
560,554,0,0,0,0,0,0,0,0,0,-1,1784,470,0,0
567,554,0,0,0,0,0,0,0,0,0,-1,1791,470,0,0
574,554,0,0,0,0,0,0,0,0,0,-1,1798,470,0,0
581,554,0,0,0,0,0,0,0,0,0,-1,1805,470,0,0
588,554,0,0,0,0,0,0,0,0,0,-1,1812,470,0,0
595,554,0,0,0,0,0,0,0,0,0,-1,1819,470,0,0
602,554,0,0,0,0,0,0,0,0,0,-1,1826,470,0,0
609,554,0,0,0,0,0,0,0,0,0,-1,1833,470,0,0
616,554,0,0,0,0,0,0,0,0,0,-1,1840,470,0,0
623,554,0,0,0,0,0,0,0,0,0,-1,1847,470,0,0
630,554,0,0,0,0,0,0,0,0,0,-1,1854,470,0,0
637,554,0,0,0,0,0,0,0,0,0,-1,1861,470,0,0
644,554,0,0,0,0,0,0,0,0,0,-1,1868,470,0,0
651,554,0,0,0,0,0,0,0,0,0,-1,1875,470,0,0
658,554,0,0,0,0,0,0,0,0,0,-1,1882,470,0,0
665,554,0,0,0,0,0,0,0,0,0,-1,1889,470,0,0
672,554,0,0,0,0,0,0,0,0,0,-1,1896,470,0,0
679,554,0,0,0,0,0,0,0,0,0,-1,1903,470,0,0
686,554,0,0,0,0,0,0,0,0,0,-1,1910,470,0,0
693,554,0,0,0,0,0,0,0,0,0,-1,1917,470,0,0
700,554,0,0,0,0,0,0,0,0,0,-1,1924,470,0,0
707,554,0,0,0,0,0,0,0,0,0,-1,1931,470,0,0
714,554,0,0,0,0,0,0,0,0,0,-1,1938,470,0,0
721,554,0,0,0,0,0,0,0,0,0,-1,1945,470,0,0
728,554,0,0,0,0,0,0,0,0,0,-1,1952,470,0,0
735,554,0,0,0,0,0,0,0,0,0,-1,1959,470,0,0
742,554,0,0,0,0,0,0,0,0,0,-1,1966,470,0,0
749,554,0,0,0,0,0,0,0,0,0,-1,1973,470,0,0
756,554,0,0,0,0,0,0,0,0,0,-1,1980,470,0,0
763,554,0,0,0,0,0,0,0,0,0,-1,1987,470,0,0
770,554,0,0,0,0,0,0,0,0,0,-1,1994,470,0,0
777,554,0,0,0,0,0,0,0,0,0,-1,2001,470,0,0
784,554,0,0,0,0,0,0,0,0,0,-1,2008,470,0,0
791,554,0,0,0,0,0,0,0,0,0,-1,2015,470,0,0
798,554,0,0,0,0,0,0,0,0,0,-1,2022,470,0,0
805,554,0,0,0,0,0,0,0,0,0,-1,2029,470,0,0
812,554,0,0,0,0,0,0,0,0,0,-1,2036,470,0,0
-700,547,0,0,0,0,0,0,0,0,0,-1,524,477,0,0
-693,547,0,0,0,0,0,0,0,0,0,-1,531,477,0,0
-686,547,0,0,0,0,0,0,0,0,0,-1,538,477,0,0
-679,547,0,0,0,0,0,0,0,0,0,-1,545,477,0,0
-672,547,0,0,0,0,0,0,0,0,0,-1,552,477,0,0
-665,547,0,0,0,0,0,0,0,0,0,-1,559,477,0,0
-658,547,0,0,0,0,0,0,0,0,0,-1,566,477,0,0
-651,547,0,0,0,0,0,0,0,0,0,-1,573,477,0,0
-644,547,0,0,0,0,0,0,0,0,0,-1,580,477,0,0
-637,547,0,0,0,0,0,0,0,0,0,-1,587,477,0,0
-630,547,0,0,0,0,0,0,0,0,0,-1,594,477,0,0
-623,547,0,0,0,0,0,0,0,0,0,-1,601,477,0,0
-616,547,0,0,0,0,0,0,0,0,0,-1,608,477,0,0
-609,547,0,0,0,0,0,0,0,0,0,-1,615,477,0,0
-602,547,0,0,0,0,0,0,0,0,0,-1,622,477,0,0
-595,547,0,0,0,0,0,0,0,0,0,-1,629,477,0,0
-588,547,0,0,0,0,0,0,0,0,0,-1,636,477,0,0
-581,547,0,0,0,0,0,0,0,0,0,-1,643,477,0,0
-574,547,0,0,0,0,0,0,0,0,0,-1,650,477,0,0
-567,547,0,0,0,0,0,0,0,0,0,-1,657,477,0,0
-560,547,0,0,0,0,0,0,0,0,0,-1,664,477,0,0
-553,547,0,0,0,0,0,0,0,0,0,-1,671,477,0,0
-546,547,0,0,0,0,0,0,0,0,0,-1,678,477,0,0
-539,547,0,0,0,0,0,0,0,0,0,-1,685,477,0,0
-532,547,0,0,0,0,0,0,0,0,0,-1,692,477,0,0
-525,547,0,0,0,0,0,0,0,0,0,-1,699,477,0,0
-518,547,0,0,0,0,0,0,0,0,0,-1,706,477,0,0
-511,547,0,0,0,0,0,0,0,0,0,-1,713,477,0,0
-504,547,0,0,0,0,0,0,0,0,0,-1,720,477,0,0
-497,547,0,0,0,0,0,0,0,0,0,-1,727,477,0,0
-490,547,0,0,0,0,0,0,0,0,0,-1,734,477,0,0
-483,547,0,0,0,0,0,0,0,0,0,-1,741,477,0,0
-476,547,0,0,0,0,0,0,0,0,0,-1,748,477,0,0
-469,547,0,0,0,0,0,0,0,0,0,-1,755,477,0,0
-462,547,0,0,0,0,0,0,0,0,0,-1,762,477,0,0
-455,547,0,0,0,0,0,0,0,0,0,-1,769,477,0,0
-448,547,0,0,0,0,0,0,0,0,0,-1,776,477,0,0
-441,547,0,0,0,0,0,0,0,0,0,-1,783,477,0,0
-434,547,0,0,0,0,0,0,0,0,0,-1,790,477,0,0
-427,547,0,0,0,0,0,0,0,0,0,-1,797,477,0,0
-420,547,0,0,0,0,0,0,0,0,0,-1,804,477,0,0
-413,547,0,0,0,0,0,0,0,0,0,-1,811,477,0,0
-406,547,0.144592,-11.0292,0,0,0,0,0,0,0,-1,818,477,0.144583,11.0292
-399,547,0.775513,-10.0294,0,0,0,0,0,0,0,-1,825,477,0.775482,10.0295
-392,547,-1.52271,-4.41675,0,0,0,0,0,0,0,-1,832,477,-1.52273,4.41674
-385,547,-1.73743,-4.6431,0,0,0,0,0,0,0,-1,839,477,-1.73743,4.64308
-378,547,-2.41339,-4.60071,0,0,0,0,0,0,0,-1,846,477,-2.41337,4.60071
-371,547,1.64569,-11.1445,0,0,0,0,0,0,0,-1,853,477,1.64569,11.1445
-364,547,0.271729,-4.58582,0,0,0,0,0,0,0,-1,860,477,0.271753,4.5858
-357,547,0.575989,-15.8035,0,0,0,0,0,0,0,-1,867,477,0.575992,15.8035
-350,547,0.860107,-16.5156,0,0,0,0,0,0,0,-1,874,477,0.860132,16.5156
-343,547,0.760742,-17.1401,-0.001959,0.00357531,-0.0031879,0.00502951,-0.0034132,-1.14283,0.00490409,0.0472786,881,477,0.760772,17.1401
-336,547,0.756531,-17.8132,-0.00231461,0.00243973,-0.00244751,0.00347448,-0.00334936,-1.17081,0.00393997,0.0191245,888,477,0.756555,17.8132
-329,547,0.692017,-18.3106,-0.002536,0.00122878,-0.00170927,0.00188903,-0.00319624,-1.20218,0.00296814,0.0106853,895,477,0.69202,18.3106
-322,547,0.668579,-18.7804,-0.00245037,0.000347749,-0.00133661,0.000883606,-0.00298622,-1.18951,0.0023416,0.011317,902,477,0.668566,18.7804
-315,547,0.640198,-19.2622,-0.00212898,-0.00011562,-0.00112177,0.000384942,-0.00262954,-1.15109,0.00189442,0.0101472,909,477,0.640188,19.2622
-308,547,0.623474,-19.7098,-0.00167141,-0.000316883,-0.001034,0.000241913,-0.00223021,-1.07534,0.00157365,0.0118366,916,477,0.623473,19.7098
-301,547,0.628174,-20.1618,-0.00115758,-0.000577435,-0.000905506,8.3326e-05,-0.00181834,-0.940405,0.00124093,0.0118463,923,477,0.62819,20.1618
-294,547,0.609741,-20.5795,-0.000648937,-0.0010457,-0.000629029,-0.000187749,-0.00150689,-0.632646,0.000948226,0.0099389,930,477,0.609757,20.5795
-287,547,0.582275,-20.9972,-0.000144893,-0.00138346,-0.000309309,-7.19457e-05,-0.00145641,-0.231608,0.00094787,0.0112926,937,477,0.582263,20.9972
-280,547,0.596802,-21.4373,0.000340582,-0.00195548,-1.0569e-05,0.000340631,-0.00195552,-0.00460297,0.00143081,0.0134388,944,477,0.596782,21.4373
-273,547,0.573242,-21.8499,0.000718645,-0.0025359,0.000376036,0.000761528,-0.00257879,0.113548,0.00202143,0.0125091,951,477,0.573254,21.8498
-266,547,0.539734,-22.2709,0.00104583,-0.00349755,0.000916481,0.00122374,-0.00367545,0.191732,0.00294424,0.0115074,958,477,0.539718,22.2709
-259,547,0.524841,-22.6605,0.00135757,-0.00479432,0.00161153,0.00175415,-0.00519091,0.241297,0.00417017,0.0106002,965,477,0.524856,22.6605
-252,547,0.544739,-23.0629,0.00143315,-0.00660734,0.00237178,0.00208063,-0.00725483,0.266502,0.00565906,0.0109749,972,477,0.544761,23.0629
-245,547,0.554626,-23.4751,0.00115988,-0.0084612,0.00325483,0.00215754,-0.00945887,0.297425,0.00713467,0.0120518,979,477,0.554635,23.4751
-238,547,0.561829,-23.8897,0.00104043,-0.0105379,0.00416883,0.00238523,-0.0118827,0.312047,0.00882499,0.00858402,986,477,0.561805,23.8897
-231,547,0.560181,-24.2746,0.000853761,-0.0126961,0.00508743,0.00255124,-0.0143935,0.322045,0.0105494,0.00871221,993,477,0.560156,24.2746
-224,547,0.559875,-24.625,0.000393475,-0.0150105,0.00618822,0.0025715,-0.0171885,0.338423,0.0124053,0.0118639,1000,477,0.559895,24.625
-217,547,0.574524,-24.9924,-0.000362076,-0.0175961,0.00737237,0.00236132,-0.0203195,0.353857,0.0143981,0.0190338,1007,477,0.574513,24.9924
-210,547,0.588562,-25.2489,-0.0011629,-0.0201382,0.00848142,0.0020754,-0.0233765,0.364729,0.0163202,0.0343393,1014,477,0.588591,25.2489
-203,547,0.528625,-25.2279,-0.00193981,-0.0218345,0.00932078,0.00174467,-0.025519,0.376446,0.017623,0.0463768,1021,477,0.528595,25.2279
-196,547,0.118164,-25.8147,-0.00270671,-0.0232153,0.0102092,0.00150888,-0.0274309,0.391596,0.0188104,0.0493446,1028,477,0.118193,25.8147
-189,547,0.353882,-25.9154,0,0,0,0,0,0,0,-1,1035,477,0.35384,25.9154
-182,547,-0.0454102,-23.1846,0,0,0,0,0,0,0,-1,1042,477,-0.0454543,23.1846
-175,547,-0.350098,-12.3584,0,0,0,0,0,0,0,-1,1049,477,-0.350098,12.3584
-168,547,1.12463,-8.66785,0,0,0,0,0,0,0,-1,1056,477,1.12461,8.66786
-161,547,1.57947,-26.2864,0,0,0,0,0,0,0,-1,1063,477,1.57942,26.2864
-154,547,2.91882,-27.4394,0,0,0,0,0,0,0,-1,1070,477,2.91887,27.4394
-147,547,3.69434,-26.413,0,0,0,0,0,0,0,-1,1077,477,3.69437,26.413
-140,547,1.55676,-22.5229,0,0,0,0,0,0,0,-1,1084,477,1.5568,22.5229
-133,547,2.31665,-17.9421,0,0,0,0,0,0,0,-1,1091,477,2.31667,17.9421
-126,547,0.969604,-25.8804,0,0,0,0,0,0,0,-1,1098,477,0.969571,25.8804
-119,547,0.967651,-24.9351,0,0,0,0,0,0,0,-1,1105,477,0.967657,24.9351
-112,547,1.15674,-22.2276,0,0,0,0,0,0,0,-1,1112,477,1.15677,22.2276
-105,547,0.966797,-20.5777,0,0,0,0,0,0,0,-1,1119,477,0.966804,20.5777
-98,547,0.70166,-18.9755,0,0,0,0,0,0,0,-1,1126,477,0.701713,18.9755
-91,547,1.37805,-7.12024,0,0,0,0,0,0,0,-1,1133,477,1.37804,7.12025
-84,547,1.94202,-6.66241,0,0,0,0,0,0,0,-1,1140,477,1.94201,6.66241
-77,547,-2.28357,1.8588,0,0,0,0,0,0,0,-1,1147,477,-2.28356,-1.85879
-70,547,-3.70178,-0.874908,0,0,0,0,0,0,0,-1,1154,477,-3.70182,0.874918
-63,547,-5.12012,-3.60861,0,0,0,0,0,0,0,-1,1161,477,-5.12009,3.60862
-56,547,-6.01917,-6.2399,0,0,0,0,0,0,0,-1,1168,477,-6.01921,6.23991
-49,547,-6.729,-8.60349,0,0,0,0,0,0,0,-1,1175,477,-6.72899,8.60348
-42,547,-2.41736,-5.53012,0,0,0,0,0,0,0,-1,1182,477,-2.41734,5.53011
-35,547,-2.96838,-4.45734,0,0,0,0,0,0,0,-1,1189,477,-2.96839,4.45734
-28,547,-0.869141,-1.29901,0,0,0,0,0,0,0,-1,1196,477,-0.869135,1.29901
-21,547,-7.68262,-30.8089,0,0,0,0,0,0,0,-1,1203,477,-7.68256,30.8089
-14,547,-7.10242,-30.6255,0.147719,0.000803432,0.178003,0.266826,-0.118304,0.589705,0.227799,0.0484894,1210,477,-7.10247,30.6255
-7,547,-6.89832,-30.5818,0.125312,-0.0222874,0.142548,0.212031,-0.109007,0.546537,0.188506,0.0480572,1217,477,-6.89827,30.5818
0,547,-7.09473,-30.4852,0,0,0,0,0,0,0,-1,1224,477,-7.09476,30.4852
7,547,5.51965,-26.9514,0,0,0,0,0,0,0,-1,1231,477,5.51966,26.9514
14,547,0,0,0,0,0,0,0,0,0,-1,1238,477,0,0
21,547,0,0,0,0,0,0,0,0,0,-1,1245,477,0,0
28,547,0,0,0,0,0,0,0,0,0,-1,1252,477,0,0
35,547,0,0,0,0,0,0,0,0,0,-1,1259,477,0,0
42,547,0,0,0,0,0,0,0,0,0,-1,1266,477,0,0
49,547,0,0,0,0,0,0,0,0,0,-1,1273,477,0,0
56,547,0,0,0,0,0,0,0,0,0,-1,1280,477,0,0
63,547,0,0,0,0,0,0,0,0,0,-1,1287,477,0,0
70,547,0,0,0,0,0,0,0,0,0,-1,1294,477,0,0
77,547,0,0,0,0,0,0,0,0,0,-1,1301,477,0,0
84,547,0,0,0,0,0,0,0,0,0,-1,1308,477,0,0
91,547,0,0,0,0,0,0,0,0,0,-1,1315,477,0,0
98,547,0,0,0,0,0,0,0,0,0,-1,1322,477,0,0
105,547,3.22998,-25.9196,0,0,0,0,0,0,0,-1,1329,477,3.22995,25.9196
112,547,2.93054,-25.5604,0,0,0,0,0,0,0,-1,1336,477,2.93052,25.5604
119,547,-0.0812988,-25.7116,0,0,0,0,0,0,0,-1,1343,477,-0.0813451,25.7116
126,547,-0.0733643,-25.3825,0,0,0,0,0,0,0,-1,1350,477,-0.0733522,25.3825
133,547,0.0196533,-24.874,0,0,0,0,0,0,0,-1,1357,477,0.0196517,24.8739
140,547,10.1791,-28.4084,0,0,0,0,0,0,0,-1,1364,477,10.179,28.4084
147,547,9.73584,-28.7152,0,0,0,0,0,0,0,-1,1371,477,9.73583,28.7152
154,547,0.026123,-33.7544,0,0,0,0,0,0,0,-1,1378,477,0.0261271,33.7544
161,547,0.0715332,-33.9922,0,0,0,0,0,0,0,-1,1385,477,0.0715296,33.9922
168,547,-0.464355,-30.7631,0,0,0,0,0,0,0,-1,1392,477,-0.464348,30.7631
175,547,3.35034,-0.26532,0,0,0,0,0,0,0,-1,1399,477,3.3503,0.265306
182,547,4.26038,3.72672,0,0,0,0,0,0,0,-1,1406,477,4.26039,-3.7267
189,547,3.40454,1.28671,0,0,0,0,0,0,0,-1,1413,477,3.40457,-1.28673
196,547,3.53931,1.87793,0,0,0,0,0,0,0,-1,1420,477,3.53928,-1.87794
203,547,6.49414,-0.425842,0,0,0,0,0,0,0,-1,1427,477,6.4941,0.425844
210,547,4.82092,0.53595,0,0,0,0,0,0,0,-1,1434,477,4.82096,-0.535942
217,547,4.68579,0.480072,0,0,0,0,0,0,0,-1,1441,477,4.68577,-0.480069
224,547,4.55615,0.739807,0,0,0,0,0,0,0,-1,1448,477,4.55613,-0.73981
231,547,5.90869,-3.57721,0,0,0,0,0,0,0,-1,1455,477,5.90871,3.57722
238,547,5.50049,-3.15356,0,0,0,0,0,0,0,-1,1462,477,5.50045,3.15356
245,547,5.13708,-2.65213,0,0,0,0,0,0,0,-1,1469,477,5.13708,2.65212
252,547,3.73511,-0.645233,0,0,0,0,0,0,0,-1,1476,477,3.73515,0.645237
259,547,5.86816,-3.20816,0,0,0,0,0,0,0,-1,1483,477,5.86815,3.20816
266,547,5.40222,-2.45731,0,0,0,0,0,0,0,-1,1490,477,5.40221,2.45732
273,547,3.05737,0.495789,0,0,0,0,0,0,0,-1,1497,477,3.05742,-0.49578
280,547,2.0885,1.47797,0,0,0,0,0,0,0,-1,1504,477,2.08848,-1.47795
287,547,2.31177,-2.21716,0,0,0,0,0,0,0,-1,1511,477,2.31174,2.21717
294,547,2.4823,-3.03659,0,0,0,0,0,0,0,-1,1518,477,2.48229,3.0366
301,547,4.72119,-3.93454,0,0,0,0,0,0,0,-1,1525,477,4.72119,3.93453
308,547,4.07471,-5.42175,0,0,0,0,0,0,0,-1,1532,477,4.07468,5.42174
315,547,3.58496,-6.62112,0,0,0,0,0,0,0,-1,1539,477,3.58497,6.62113
322,547,5.73926,-14.1878,0,0,0,0,0,0,0,-1,1546,477,5.73926,14.1878
329,547,8.54199,-24.5132,0,0,0,0,0,0,0,-1,1553,477,8.54205,24.5131
336,547,8.57507,-24.6362,0,0,0,0,0,0,0,-1,1560,477,8.57508,24.6362
343,547,8.77258,-24.2414,-0.00119544,-0.00781119,-0.00562123,0.00201898,-0.0110256,-0.519452,0.00810763,0.0455366,1567,477,8.77254,24.2414
350,547,8.66968,-23.7509,-0.00136718,-0.00664976,-0.00505813,0.00169776,-0.0097147,-0.544779,0.00711028,0.0261933,1574,477,8.66974,23.7508
357,547,8.65649,-23.3336,-0.00129742,-0.00535488,-0.00442421,0.00154102,-0.00819333,-0.570427,0.00604176,0.0145936,1581,477,8.65647,23.3336
364,547,8.64551,-22.9171,-0.00108356,-0.00421361,-0.00369362,0.00136292,-0.00666009,-0.585009,0.00495722,0.00975891,1588,477,8.64555,22.9172
371,547,8.6521,-22.4871,-0.000759778,-0.0031755,-0.00290279,0.00117642,-0.00511169,-0.588243,0.00386016,0.00886086,1595,477,8.65207,22.4871
378,547,8.64844,-22.0735,-0.000442829,-0.00208751,-0.00211688,0.00100583,-0.00353617,-0.600136,0.00275463,0.00960434,1602,477,8.64848,22.0735
385,547,8.64856,-21.6475,-0.00014001,-0.000857651,-0.0012924,0.00084246,-0.00184012,-0.64999,0.00158409,0.0100719,1609,477,8.6486,21.6475
392,547,8.6416,-21.1949,8.24155e-05,-5.30082e-05,-0.000652537,0.000670744,-0.000641337,-0.7337,0.000757594,0.0107668,1616,477,8.64159,21.1949
399,547,8.62781,-20.7608,0.000158995,0.000557768,-9.20938e-05,0.000578009,0.000138754,-1.35445,0.000348422,0.0127403,1623,477,8.62778,20.7608
406,547,8.64319,-20.3228,6.5448e-05,0.00117806,0.000333346,0.00127029,-2.67796e-05,1.30088,0.000855926,0.0123704,1630,477,8.64316,20.3228
413,547,8.6438,-19.8542,-0.000164522,0.00174616,0.000727951,0.0019919,-0.00041026,1.24523,0.00148371,0.0126418,1637,477,8.64374,19.8542
420,547,8.6283,-19.4276,-0.000531105,0.002116,0.00104568,0.00247923,-0.000894336,1.23647,0.0020181,0.0151008,1644,477,8.62828,19.4277
427,547,8.61877,-18.939,-0.000987787,0.00224597,0.00124722,0.00267112,-0.00141293,1.24228,0.00239493,0.0141823,1651,477,8.61875,18.939
434,547,8.57715,-18.4797,-0.00147452,0.00231387,0.00140486,0.00277798,-0.00193863,1.25172,0.00273747,0.00941176,1658,477,8.57718,18.4797
441,547,8.5553,-18.0478,-0.00203007,0.00221475,0.0015635,0.00272846,-0.00254379,1.25334,0.00304456,0.0101764,1665,477,8.55529,18.0477
448,547,8.53162,-17.5312,-0.00273541,0.00197335,0.00159962,0.00246536,-0.00322741,1.2724,0.00329652,0.0122576,1672,477,8.53166,17.5312
455,547,8.53516,-17.0291,-0.00325629,0.00154645,0.00166291,0.00206601,-0.00377585,1.26796,0.00342062,0.0113234,1679,477,8.53517,17.0292
462,547,8.51135,-16.5532,-0.0036125,0.00080098,0.00176138,0.00141774,-0.00422927,1.23398,0.00339232,0.0106226,1686,477,8.51139,16.5532
469,547,8.44885,-16.0501,-0.00386703,-0.000230002,0.00194643,0.000615235,-0.00471226,1.16112,0.00336539,0.017895,1693,477,8.4488,16.0501
476,547,8.4436,-15.4734,-0.00414639,-0.00155803,0.00207686,-0.000405124,-0.0052993,1.06403,0.00340586,0.0335242,1700,477,8.44354,15.4734
483,547,8.39575,-15.0952,0,0,0,0,0,0,0,-1,1707,477,8.3958,15.0953
490,547,3.65271,-3.71707,0,0,0,0,0,0,0,-1,1714,477,3.65277,3.71708
497,547,2.55481,-3.81421,0,0,0,0,0,0,0,-1,1721,477,2.55476,3.8142
504,547,4.01953,-2.22714,0,0,0,0,0,0,0,-1,1728,477,4.0195,2.22713
511,547,5.2146,-6.9552,0,0,0,0,0,0,0,-1,1735,477,5.21464,6.95521
518,547,5.24243,-6.56122,0,0,0,0,0,0,0,-1,1742,477,5.24241,6.56121
525,547,5.89368,-5.49866,0,0,0,0,0,0,0,-1,1749,477,5.89372,5.49866
532,547,0,0,0,0,0,0,0,0,0,-1,1756,477,0,0
539,547,0,0,0,0,0,0,0,0,0,-1,1763,477,0,0
546,547,0,0,0,0,0,0,0,0,0,-1,1770,477,0,0
553,547,0,0,0,0,0,0,0,0,0,-1,1777,477,0,0
560,547,0,0,0,0,0,0,0,0,0,-1,1784,477,0,0
567,547,0,0,0,0,0,0,0,0,0,-1,1791,477,0,0
574,547,0,0,0,0,0,0,0,0,0,-1,1798,477,0,0
581,547,0,0,0,0,0,0,0,0,0,-1,1805,477,0,0
588,547,0,0,0,0,0,0,0,0,0,-1,1812,477,0,0
595,547,0,0,0,0,0,0,0,0,0,-1,1819,477,0,0
602,547,0,0,0,0,0,0,0,0,0,-1,1826,477,0,0
609,547,0,0,0,0,0,0,0,0,0,-1,1833,477,0,0
616,547,0,0,0,0,0,0,0,0,0,-1,1840,477,0,0
623,547,0,0,0,0,0,0,0,0,0,-1,1847,477,0,0
630,547,0,0,0,0,0,0,0,0,0,-1,1854,477,0,0
637,547,0,0,0,0,0,0,0,0,0,-1,1861,477,0,0
644,547,0,0,0,0,0,0,0,0,0,-1,1868,477,0,0
651,547,0,0,0,0,0,0,0,0,0,-1,1875,477,0,0
658,547,0,0,0,0,0,0,0,0,0,-1,1882,477,0,0
665,547,0,0,0,0,0,0,0,0,0,-1,1889,477,0,0
672,547,0,0,0,0,0,0,0,0,0,-1,1896,477,0,0
679,547,0,0,0,0,0,0,0,0,0,-1,1903,477,0,0
686,547,0,0,0,0,0,0,0,0,0,-1,1910,477,0,0
693,547,0,0,0,0,0,0,0,0,0,-1,1917,477,0,0
700,547,0,0,0,0,0,0,0,0,0,-1,1924,477,0,0
707,547,0,0,0,0,0,0,0,0,0,-1,1931,477,0,0
714,547,0,0,0,0,0,0,0,0,0,-1,1938,477,0,0
721,547,0,0,0,0,0,0,0,0,0,-1,1945,477,0,0
728,547,0,0,0,0,0,0,0,0,0,-1,1952,477,0,0
735,547,0,0,0,0,0,0,0,0,0,-1,1959,477,0,0
742,547,0,0,0,0,0,0,0,0,0,-1,1966,477,0,0
749,547,0,0,0,0,0,0,0,0,0,-1,1973,477,0,0
756,547,0,0,0,0,0,0,0,0,0,-1,1980,477,0,0
763,547,0,0,0,0,0,0,0,0,0,-1,1987,477,0,0
770,547,0,0,0,0,0,0,0,0,0,-1,1994,477,0,0
777,547,0,0,0,0,0,0,0,0,0,-1,2001,477,0,0
784,547,0,0,0,0,0,0,0,0,0,-1,2008,477,0,0
791,547,0,0,0,0,0,0,0,0,0,-1,2015,477,0,0
798,547,0,0,0,0,0,0,0,0,0,-1,2022,477,0,0
805,547,0,0,0,0,0,0,0,0,0,-1,2029,477,0,0
812,547,0,0,0,0,0,0,0,0,0,-1,2036,477,0,0
-700,540,0,0,0,0,0,0,0,0,0,-1,524,484,0,0
-693,540,0,0,0,0,0,0,0,0,0,-1,531,484,0,0
-686,540,0,0,0,0,0,0,0,0,0,-1,538,484,0,0
-679,540,0,0,0,0,0,0,0,0,0,-1,545,484,0,0
-672,540,0,0,0,0,0,0,0,0,0,-1,552,484,0,0
-665,540,0,0,0,0,0,0,0,0,0,-1,559,484,0,0
-658,540,0,0,0,0,0,0,0,0,0,-1,566,484,0,0
-651,540,0,0,0,0,0,0,0,0,0,-1,573,484,0,0
-644,540,0,0,0,0,0,0,0,0,0,-1,580,484,0,0
-637,540,0,0,0,0,0,0,0,0,0,-1,587,484,0,0
-630,540,0,0,0,0,0,0,0,0,0,-1,594,484,0,0
-623,540,0,0,0,0,0,0,0,0,0,-1,601,484,0,0
-616,540,0,0,0,0,0,0,0,0,0,-1,608,484,0,0
-609,540,0,0,0,0,0,0,0,0,0,-1,615,484,0,0
-602,540,0,0,0,0,0,0,0,0,0,-1,622,484,0,0
-595,540,0,0,0,0,0,0,0,0,0,-1,629,484,0,0
-588,540,0,0,0,0,0,0,0,0,0,-1,636,484,0,0
-581,540,0,0,0,0,0,0,0,0,0,-1,643,484,0,0
-574,540,0,0,0,0,0,0,0,0,0,-1,650,484,0,0
-567,540,0,0,0,0,0,0,0,0,0,-1,657,484,0,0
-560,540,0,0,0,0,0,0,0,0,0,-1,664,484,0,0
-553,540,0,0,0,0,0,0,0,0,0,-1,671,484,0,0
-546,540,0,0,0,0,0,0,0,0,0,-1,678,484,0,0
-539,540,0,0,0,0,0,0,0,0,0,-1,685,484,0,0
-532,540,0,0,0,0,0,0,0,0,0,-1,692,484,0,0
-525,540,0,0,0,0,0,0,0,0,0,-1,699,484,0,0
-518,540,0,0,0,0,0,0,0,0,0,-1,706,484,0,0
-511,540,0,0,0,0,0,0,0,0,0,-1,713,484,0,0
-504,540,0,0,0,0,0,0,0,0,0,-1,720,484,0,0
-497,540,0,0,0,0,0,0,0,0,0,-1,727,484,0,0
-490,540,0,0,0,0,0,0,0,0,0,-1,734,484,0,0
-483,540,0,0,0,0,0,0,0,0,0,-1,741,484,0,0
-476,540,0,0,0,0,0,0,0,0,0,-1,748,484,0,0
-469,540,0,0,0,0,0,0,0,0,0,-1,755,484,0,0
-462,540,0,0,0,0,0,0,0,0,0,-1,762,484,0,0
-455,540,0,0,0,0,0,0,0,0,0,-1,769,484,0,0
-448,540,0,0,0,0,0,0,0,0,0,-1,776,484,0,0
-441,540,0,0,0,0,0,0,0,0,0,-1,783,484,0,0
-434,540,0,0,0,0,0,0,0,0,0,-1,790,484,0,0
-427,540,0,0,0,0,0,0,0,0,0,-1,797,484,0,0
-420,540,0.227051,-10.0402,0,0,0,0,0,0,0,-1,804,484,0.227063,10.0402
-413,540,-1.12311,-11.6776,0,0,0,0,0,0,0,-1,811,484,-1.12312,11.6776
-406,540,-0.518372,-11.5288,0,0,0,0,0,0,0,-1,818,484,-0.518402,11.5288
-399,540,0.0863037,-11.3801,0,0,0,0,0,0,0,-1,825,484,0.0863201,11.3801
-392,540,-0.517395,-10.6735,0,0,0,0,0,0,0,-1,832,484,-0.517377,10.6735
-385,540,-2.29407,-5.03418,0,0,0,0,0,0,0,-1,839,484,-2.29408,5.03418
-378,540,1.06445,-10.5824,0,0,0,0,0,0,0,-1,846,484,1.06446,10.5824
-371,540,1.14825,-10.7452,0,0,0,0,0,0,0,-1,853,484,1.14827,10.7452
-364,540,0.375366,-15.9652,0,0,0,0,0,0,0,-1,860,484,0.375387,15.9652
-357,540,0.329773,-16.3362,0,0,0,0,0,0,0,-1,867,484,0.329754,16.3362
-350,540,0.322144,-16.5813,0.000154897,0.00563635,-0.00466822,0.00830893,-0.00251768,-1.05084,0.00654204,0.0367878,874,484,0.322165,16.5813
-343,540,0.300476,-17.2662,-0.000784089,0.00414566,-0.00337519,0.0058602,-0.00249863,-1.10078,0.00495435,0.0197836,881,484,0.300492,17.2662
-336,540,0.248474,-17.8777,-0.00121783,0.0030138,-0.00252788,0.00419447,-0.00239851,-1.13384,0.00385325,0.0124495,888,484,0.248458,17.8777
-329,540,0.225647,-18.34,-0.00152289,0.00178273,-0.00170137,0.00250193,-0.00224209,-1.17086,0.00274033,0.0104025,895,484,0.225649,18.34
-322,540,0.200806,-18.7939,-0.00149706,0.000963757,-0.00123872,0.0014793,-0.0020126,-1.17641,0.00202387,0.0148291,902,484,0.200818,18.7938
-315,540,0.194641,-19.2488,-0.00126251,0.000479423,-0.000903065,0.000863091,-0.00164618,-1.16905,0.00147205,0.0127138,909,484,0.194666,19.2488
-308,540,0.187866,-19.6942,-0.000905412,0.000177231,-0.000689706,0.000512678,-0.00124086,-1.11812,0.0010411,0.0118362,916,484,0.187861,19.6942
-301,540,0.171448,-20.1292,-0.000498606,-0.000222334,-0.000437122,9.79593e-05,-0.0008189,-0.938439,0.000581344,0.0129193,923,484,0.171427,20.1292
-294,540,0.173279,-20.5438,-9.14401e-05,-0.000918056,-4.66189e-05,-8.88192e-05,-0.000920676,-0.0561599,0.000586424,0.0122011,930,484,0.173265,20.5438
-287,540,0.169495,-20.9791,0.000357713,-0.0014703,0.000367832,0.000428952,-0.00154154,0.191304,0.00119659,0.00860999,937,484,0.169484,20.9791
-280,540,0.149963,-21.4149,0.000812465,-0.00236626,0.000761515,0.000985481,-0.00253928,0.223407,0.0020999,0.00993713,944,484,0.149942,21.4149
-273,540,0.135925,-21.8399,0.0011381,-0.0032996,0.00127783,0.00147974,-0.00364124,0.261255,0.00304313,0.0117567,951,484,0.135915,21.8399
-266,540,0.130859,-22.2711,0.0014573,-0.00473898,0.00199152,0.00204218,-0.00532386,0.285653,0.00439122,0.0124124,958,484,0.130865,22.2712
-259,540,0.123413,-22.6883,0.00176883,-0.0065479,0.00283126,0.00264117,-0.00742025,0.298882,0.00602343,0.0116301,965,484,0.123389,22.6883
-252,540,0.147827,-23.0573,0.00179036,-0.008982,0.00372059,0.00295046,-0.0101421,0.302251,0.00793,0.0117194,972,484,0.147813,23.0573
-245,540,0.156128,-23.4546,0.00142508,-0.0115276,0.00474495,0.00297729,-0.0130798,0.316156,0.00986322,0.0126889,979,484,0.15613,23.4546
-238,540,0.14209,-23.8427,0.00129114,-0.0141529,0.00581437,0.00323537,-0.0160972,0.322696,0.0119567,0.0105185,986,484,0.14207,23.8427
-231,540,0.161804,-24.2137,0.0010864,-0.016987,0.00689973,0.00341932,-0.0193199,0.32605,0.014158,0.0149116,993,484,0.161817,24.2138
-224,540,0.155884,-24.5468,0.000451789,-0.020057,0.0082797,0.00337715,-0.0229824,0.339627,0.0165625,0.0257502,1000,484,0.155906,24.5468
-217,540,0.083374,-24.6984,-0.000550232,-0.0232838,0.00969892,0.0030253,-0.0268594,0.353194,0.0189951,0.0387247,1007,484,0.0833959,24.6984
-210,540,0.130676,-25.0139,-0.0017572,-0.026555,0.011087,0.00247685,-0.030789,0.364799,0.0213995,0.0471118,1014,484,0.130661,25.0139
-203,540,-0.0808105,-25.4448,0,0,0,0,0,0,0,-1,1021,484,-0.0808317,25.4448
-196,540,-0.669189,-25.9787,0,0,0,0,0,0,0,-1,1028,484,-0.66923,25.9787
-189,540,-0.726807,-22.826,0,0,0,0,0,0,0,-1,1035,484,-0.72684,22.8259
-182,540,0.109375,-15.2948,0,0,0,0,0,0,0,-1,1042,484,0.109331,15.2948
-175,540,1.73413,-10.728,0,0,0,0,0,0,0,-1,1049,484,1.73414,10.728
-168,540,1.18164,-7.65347,0,0,0,0,0,0,0,-1,1056,484,1.18163,7.65347
-161,540,-0.405884,-9.86481,0,0,0,0,0,0,0,-1,1063,484,-0.405886,9.8648
-154,540,1.96863,-22.0727,0,0,0,0,0,0,0,-1,1070,484,1.96859,22.0727
-147,540,1.32764,-21.9952,0,0,0,0,0,0,0,-1,1077,484,1.32762,21.9952
-140,540,1.40735,-15.6289,0,0,0,0,0,0,0,-1,1084,484,1.4073,15.6289
-133,540,2.28345,-17.6413,0,0,0,0,0,0,0,-1,1091,484,2.2835,17.6413
-126,540,1.25293,-23.9108,0,0,0,0,0,0,0,-1,1098,484,1.25288,23.9108
-119,540,1.55969,-23.0125,0,0,0,0,0,0,0,-1,1105,484,1.55968,23.0125
-112,540,1.4801,-21.6515,0,0,0,0,0,0,0,-1,1112,484,1.4801,21.6515
-105,540,1.30078,-19.8938,0,0,0,0,0,0,0,-1,1119,484,1.30077,19.8938
-98,540,1.08105,-18.1304,0,0,0,0,0,0,0,-1,1126,484,1.08101,18.1304
-91,540,1.56519,-7.48666,0,0,0,0,0,0,0,-1,1133,484,1.56514,7.48667
-84,540,-0.945923,4.43073,0,0,0,0,0,0,0,-1,1140,484,-0.945891,-4.43074
-77,540,-2.28894,2.14368,0,0,0,0,0,0,0,-1,1147,484,-2.28894,-2.14368
-70,540,-3.75244,-0.452576,0,0,0,0,0,0,0,-1,1154,484,-3.75244,0.452576
-63,540,-5.26257,-3.04767,0,0,0,0,0,0,0,-1,1161,484,-5.26262,3.04766
-56,540,-5.19055,-6.12595,0,0,0,0,0,0,0,-1,1168,484,-5.19057,6.12595
-49,540,-5.63867,-8.52298,0,0,0,0,0,0,0,-1,1175,484,-5.63871,8.52298
-42,540,0,0,0,0,0,0,0,0,0,-1,1182,484,0,0
-35,540,0,0,0,0,0,0,0,0,0,-1,1189,484,0,0
-28,540,0,0,0,0,0,0,0,0,0,-1,1196,484,0,0
-21,540,0,0,0,0,0,0,0,0,0,-1,1203,484,0,0
-14,540,0,0,0,0,0,0,0,0,0,-1,1210,484,0,0
-7,540,0,0,0,0,0,0,0,0,0,-1,1217,484,0,0
0,540,0,0,0,0,0,0,0,0,0,-1,1224,484,0,0
7,540,0,0,0,0,0,0,0,0,0,-1,1231,484,0,0
14,540,0,0,0,0,0,0,0,0,0,-1,1238,484,0,0
21,540,0,0,0,0,0,0,0,0,0,-1,1245,484,0,0
28,540,0,0,0,0,0,0,0,0,0,-1,1252,484,0,0
35,540,0,0,0,0,0,0,0,0,0,-1,1259,484,0,0
42,540,0,0,0,0,0,0,0,0,0,-1,1266,484,0,0
49,540,0,0,0,0,0,0,0,0,0,-1,1273,484,0,0
56,540,0,0,0,0,0,0,0,0,0,-1,1280,484,0,0
63,540,0,0,0,0,0,0,0,0,0,-1,1287,484,0,0
70,540,0,0,0,0,0,0,0,0,0,-1,1294,484,0,0
77,540,0,0,0,0,0,0,0,0,0,-1,1301,484,0,0
84,540,0,0,0,0,0,0,0,0,0,-1,1308,484,0,0
91,540,0,0,0,0,0,0,0,0,0,-1,1315,484,0,0
98,540,0,0,0,0,0,0,0,0,0,-1,1322,484,0,0
105,540,0,0,0,0,0,0,0,0,0,-1,1329,484,0,0
112,540,0,0,0,0,0,0,0,0,0,-1,1336,484,0,0
119,540,0,0,0,0,0,0,0,0,0,-1,1343,484,0,0
126,540,0,0,0,0,0,0,0,0,0,-1,1350,484,0,0
133,540,0,0,0,0,0,0,0,0,0,-1,1357,484,0,0
140,540,0,0,0,0,0,0,0,0,0,-1,1364,484,0,0
147,540,0,0,0,0,0,0,0,0,0,-1,1371,484,0,0
154,540,0,0,0,0,0,0,0,0,0,-1,1378,484,0,0
161,540,0,0,0,0,0,0,0,0,0,-1,1385,484,0,0
168,540,3.05078,-0.0010376,0,0,0,0,0,0,0,-1,1392,484,3.05084,0.00102554
175,540,3.37708,0.617035,0,0,0,0,0,0,0,-1,1399,484,3.37707,-0.617046
182,540,3.32678,1.23267,0,0,0,0,0,0,0,-1,1406,484,3.32678,-1.23266
189,540,3.5813,2.15619,0,0,0,0,0,0,0,-1,1413,484,3.58129,-2.1562
196,540,1.84448,-0.801483,0,0,0,0,0,0,0,-1,1420,484,1.84446,0.80148
203,540,4.14648,0.702087,0,0,0,0,0,0,0,-1,1427,484,4.14645,-0.702089
210,540,4.50671,-0.56076,0,0,0,0,0,0,0,-1,1434,484,4.50667,0.560771
217,540,5.00452,-0.278717,0,0,0,0,0,0,0,-1,1441,484,5.00452,0.278709
224,540,6.44458,-2.83527,0,0,0,0,0,0,0,-1,1448,484,6.44457,2.83525
231,540,6.9231,-3.10504,0,0,0,0,0,0,0,-1,1455,484,6.92307,3.10505
238,540,6.4823,-2.58365,0,0,0,0,0,0,0,-1,1462,484,6.48225,2.58363
245,540,6.02087,-1.97916,0,0,0,0,0,0,0,-1,1469,484,6.02088,1.97915
252,540,6.50647,-3.56006,0,0,0,0,0,0,0,-1,1476,484,6.50649,3.56006
259,540,6.01941,-2.798,0,0,0,0,0,0,0,-1,1483,484,6.01941,2.79801
266,540,5.5332,-2.02853,0,0,0,0,0,0,0,-1,1490,484,5.53323,2.02855
273,540,5.06787,-1.28137,0,0,0,0,0,0,0,-1,1497,484,5.06786,1.28136
280,540,1.62903,-2.14609,0,0,0,0,0,0,0,-1,1504,484,1.62906,2.1461
287,540,1.97156,-2.45053,0,0,0,0,0,0,0,-1,1511,484,1.97159,2.45053
294,540,2.44165,-2.6185,0,0,0,0,0,0,0,-1,1518,484,2.44167,2.6185
301,540,4.36169,-2.54272,0,0,0,0,0,0,0,-1,1525,484,4.36165,2.54272
308,540,4.2019,-4.30469,0,0,0,0,0,0,0,-1,1532,484,4.20193,4.3047
315,540,4.45923,-5.32101,0,0,0,0,0,0,0,-1,1539,484,4.45923,5.32103
322,540,4.71655,-6.33737,0,0,0,0,0,0,0,-1,1546,484,4.71653,6.33736
329,540,5.8949,-12.9383,0,0,0,0,0,0,0,-1,1553,484,5.89492,12.9383
336,540,7.16467,-17.7826,0,0,0,0,0,0,0,-1,1560,484,7.16469,17.7826
343,540,9.40613,-24.4088,0,0,0,0,0,0,0,-1,1567,484,9.40615,24.4088
350,540,9.04163,-23.788,0,0,0,0,0,0,0,-1,1574,484,9.04157,23.788
357,540,9.18689,-23.0978,-0.00253439,-0.00745755,-0.00630459,0.00177214,-0.0117641,-0.599278,0.00849526,0.0376891,1581,484,9.18689,23.0978
364,540,9.04102,-22.8444,-0.00202253,-0.0060356,-0.00533285,0.00166879,-0.00972692,-0.605461,0.00710649,0.021135,1588,484,9.04107,22.8444
371,540,9.04565,-22.4624,-0.00139572,-0.00472371,-0.00429072,0.00154236,-0.0076618,-0.60042,0.00569207,0.0139272,1595,484,9.04566,22.4624
378,540,9.08044,-22.0536,-0.000818407,-0.00332329,-0.00325831,0.00141988,-0.00556158,-0.601913,0.00426062,0.0116308,1602,484,9.08047,22.0536
385,540,9.08105,-21.6257,-0.000274849,-0.0018148,-0.00215684,0.00124534,-0.00333498,-0.613954,0.00273465,0.0134748,1609,484,9.08104,21.6257
392,540,9.06689,-21.1774,0.000120066,-0.000914409,-0.00138885,0.00108487,-0.00187921,-0.607145,0.00173168,0.0124994,1616,484,9.06684,21.1774
399,540,9.04688,-20.7729,0.000474561,-0.000227193,-0.000737483,0.000940382,-0.000693014,-0.563357,0.000946639,0.0158696,1623,484,9.04693,20.7729
406,540,9.07458,-20.333,0.000534226,0.000458639,-0.000211436,0.000711219,0.000281646,-0.696958,0.000413573,0.0158985,1630,484,9.07463,20.333
413,540,9.08948,-19.8529,0.000465832,0.00112503,0.000283712,0.00123032,0.000360542,1.21544,0.000730325,0.0130819,1637,484,9.08949,19.8529
420,540,9.07642,-19.3902,0.000267951,0.00158061,0.00068481,0.00187282,-2.42625e-05,1.16748,0.00125672,0.0122322,1644,484,9.07645,19.3902
427,540,9.04126,-18.9197,-0.000106266,0.00173767,0.000900311,0.00210434,-0.000472935,1.18404,0.00158425,0.0128648,1651,484,9.0413,18.9197
434,540,9.01855,-18.4685,-0.000510871,0.00180199,0.00106912,0.00222047,-0.000929351,1.1977,0.00186878,0.0153032,1658,484,9.01853,18.4685
441,540,9.02429,-18.001,-0.000959094,0.00172791,0.00124412,0.00221548,-0.00144667,1.19729,0.00212982,0.0188989,1665,484,9.02432,18.001
448,540,8.99841,-17.5415,-0.00152635,0.00153226,0.00131934,0.00202271,-0.0020168,1.21488,0.00233222,0.011831,1672,484,8.99841,17.5415
455,540,8.99768,-17.045,-0.00194589,0.00119829,0.00141796,0.00174329,-0.00249089,1.20385,0.00245727,0.0107064,1679,484,8.99768,17.045
462,540,8.96838,-16.5502,-0.00223375,0.000552028,0.00154896,0.00124226,-0.00292398,1.1516,0.00246984,0.0110386,1686,484,8.96834,16.5502
469,540,8.92712,-16.0607,-0.00243996,-0.000362422,0.0017487,0.000632766,-0.00343515,1.05341,0.00252757,0.0136451,1693,484,8.92711,16.0607
476,540,8.91565,-15.5639,-0.0026834,-0.00148535,0.00190026,-9.19339e-05,-0.00407682,0.938083,0.00268776,0.0181654,1700,484,8.91568,15.5639
483,540,8.93799,-15.0465,-0.00297762,-0.00295229,0.00203075,-0.000934167,-0.00499574,0.788516,0.0030669,0.0333701,1707,484,8.93796,15.0465
490,540,9.09058,-14.4213,0,0,0,0,0,0,0,-1,1714,484,9.09056,14.4213
497,540,8.59424,-14.1097,0,0,0,0,0,0,0,-1,1721,484,8.59422,14.1097
504,540,5.68176,-6.39444,0,0,0,0,0,0,0,-1,1728,484,5.68179,6.39445
511,540,5.82471,-6.83521,0,0,0,0,0,0,0,-1,1735,484,5.82465,6.83522
518,540,9.98181,-12.4608,0,0,0,0,0,0,0,-1,1742,484,9.98187,12.4608
525,540,8.45044,-12.0836,0,0,0,0,0,0,0,-1,1749,484,8.45049,12.0836
532,540,2.84265,-1.07925,0,0,0,0,0,0,0,-1,1756,484,2.84269,1.07927
539,540,0,0,0,0,0,0,0,0,0,-1,1763,484,0,0
546,540,0,0,0,0,0,0,0,0,0,-1,1770,484,0,0
553,540,0,0,0,0,0,0,0,0,0,-1,1777,484,0,0
560,540,0,0,0,0,0,0,0,0,0,-1,1784,484,0,0
567,540,0,0,0,0,0,0,0,0,0,-1,1791,484,0,0
574,540,0,0,0,0,0,0,0,0,0,-1,1798,484,0,0
581,540,0,0,0,0,0,0,0,0,0,-1,1805,484,0,0
588,540,0,0,0,0,0,0,0,0,0,-1,1812,484,0,0
595,540,0,0,0,0,0,0,0,0,0,-1,1819,484,0,0
602,540,0,0,0,0,0,0,0,0,0,-1,1826,484,0,0
609,540,0,0,0,0,0,0,0,0,0,-1,1833,484,0,0
616,540,0,0,0,0,0,0,0,0,0,-1,1840,484,0,0
623,540,0,0,0,0,0,0,0,0,0,-1,1847,484,0,0
630,540,0,0,0,0,0,0,0,0,0,-1,1854,484,0,0
637,540,0,0,0,0,0,0,0,0,0,-1,1861,484,0,0
644,540,0,0,0,0,0,0,0,0,0,-1,1868,484,0,0
651,540,0,0,0,0,0,0,0,0,0,-1,1875,484,0,0
658,540,0,0,0,0,0,0,0,0,0,-1,1882,484,0,0
665,540,0,0,0,0,0,0,0,0,0,-1,1889,484,0,0
672,540,0,0,0,0,0,0,0,0,0,-1,1896,484,0,0
679,540,0,0,0,0,0,0,0,0,0,-1,1903,484,0,0
686,540,0,0,0,0,0,0,0,0,0,-1,1910,484,0,0
693,540,0,0,0,0,0,0,0,0,0,-1,1917,484,0,0
700,540,0,0,0,0,0,0,0,0,0,-1,1924,484,0,0
707,540,0,0,0,0,0,0,0,0,0,-1,1931,484,0,0
714,540,0,0,0,0,0,0,0,0,0,-1,1938,484,0,0
721,540,0,0,0,0,0,0,0,0,0,-1,1945,484,0,0
728,540,0,0,0,0,0,0,0,0,0,-1,1952,484,0,0
735,540,0,0,0,0,0,0,0,0,0,-1,1959,484,0,0
742,540,0,0,0,0,0,0,0,0,0,-1,1966,484,0,0
749,540,0,0,0,0,0,0,0,0,0,-1,1973,484,0,0
756,540,0,0,0,0,0,0,0,0,0,-1,1980,484,0,0
763,540,0,0,0,0,0,0,0,0,0,-1,1987,484,0,0
770,540,0,0,0,0,0,0,0,0,0,-1,1994,484,0,0
777,540,0,0,0,0,0,0,0,0,0,-1,2001,484,0,0
784,540,0,0,0,0,0,0,0,0,0,-1,2008,484,0,0
791,540,0,0,0,0,0,0,0,0,0,-1,2015,484,0,0
798,540,0,0,0,0,0,0,0,0,0,-1,2022,484,0,0
805,540,0,0,0,0,0,0,0,0,0,-1,2029,484,0,0
812,540,0,0,0,0,0,0,0,0,0,-1,2036,484,0,0
-700,533,0,0,0,0,0,0,0,0,0,-1,524,491,0,0
-693,533,0,0,0,0,0,0,0,0,0,-1,531,491,0,0
-686,533,0,0,0,0,0,0,0,0,0,-1,538,491,0,0
-679,533,0,0,0,0,0,0,0,0,0,-1,545,491,0,0
-672,533,0,0,0,0,0,0,0,0,0,-1,552,491,0,0
-665,533,0,0,0,0,0,0,0,0,0,-1,559,491,0,0
-658,533,0,0,0,0,0,0,0,0,0,-1,566,491,0,0
-651,533,0,0,0,0,0,0,0,0,0,-1,573,491,0,0
-644,533,0,0,0,0,0,0,0,0,0,-1,580,491,0,0
-637,533,0,0,0,0,0,0,0,0,0,-1,587,491,0,0
-630,533,0,0,0,0,0,0,0,0,0,-1,594,491,0,0
-623,533,0,0,0,0,0,0,0,0,0,-1,601,491,0,0
-616,533,0,0,0,0,0,0,0,0,0,-1,608,491,0,0
-609,533,0,0,0,0,0,0,0,0,0,-1,615,491,0,0
-602,533,0,0,0,0,0,0,0,0,0,-1,622,491,0,0
-595,533,0,0,0,0,0,0,0,0,0,-1,629,491,0,0
-588,533,0,0,0,0,0,0,0,0,0,-1,636,491,0,0
-581,533,0,0,0,0,0,0,0,0,0,-1,643,491,0,0
-574,533,0,0,0,0,0,0,0,0,0,-1,650,491,0,0
-567,533,0,0,0,0,0,0,0,0,0,-1,657,491,0,0
-560,533,0,0,0,0,0,0,0,0,0,-1,664,491,0,0
-553,533,0,0,0,0,0,0,0,0,0,-1,671,491,0,0
-546,533,0,0,0,0,0,0,0,0,0,-1,678,491,0,0
-539,533,0,0,0,0,0,0,0,0,0,-1,685,491,0,0
-532,533,0,0,0,0,0,0,0,0,0,-1,692,491,0,0
-525,533,0,0,0,0,0,0,0,0,0,-1,699,491,0,0
-518,533,0,0,0,0,0,0,0,0,0,-1,706,491,0,0
-511,533,0,0,0,0,0,0,0,0,0,-1,713,491,0,0
-504,533,0,0,0,0,0,0,0,0,0,-1,720,491,0,0
-497,533,0,0,0,0,0,0,0,0,0,-1,727,491,0,0
-490,533,0,0,0,0,0,0,0,0,0,-1,734,491,0,0
-483,533,0,0,0,0,0,0,0,0,0,-1,741,491,0,0
-476,533,0,0,0,0,0,0,0,0,0,-1,748,491,0,0
-469,533,0,0,0,0,0,0,0,0,0,-1,755,491,0,0
-462,533,0,0,0,0,0,0,0,0,0,-1,762,491,0,0
-455,533,0,0,0,0,0,0,0,0,0,-1,769,491,0,0
-448,533,0,0,0,0,0,0,0,0,0,-1,776,491,0,0
-441,533,0,0,0,0,0,0,0,0,0,-1,783,491,0,0
-434,533,0,0,0,0,0,0,0,0,0,-1,790,491,0,0
-427,533,0.559814,-4.40222,0,0,0,0,0,0,0,-1,797,491,0.559816,4.40222
-420,533,-0.194275,-9.77838,0,0,0,0,0,0,0,-1,804,491,-0.194288,9.77838
-413,533,-1.32666,-12.065,0,0,0,0,0,0,0,-1,811,491,-1.32665,12.065
-406,533,-0.890869,-12.2537,0,0,0,0,0,0,0,-1,818,491,-0.89084,12.2537
-399,533,-0.455017,-12.4423,0,0,0,0,0,0,0,-1,825,491,-0.455032,12.4423
-392,533,-1.89661,-10.3905,0,0,0,0,0,0,0,-1,832,491,-1.89661,10.3905
-385,533,-1.69116,-6.64645,0,0,0,0,0,0,0,-1,839,491,-1.69115,6.64645
-378,533,0.0107422,-15.0494,0,0,0,0,0,0,0,-1,846,491,0.0107296,15.0494
-371,533,-0.223938,-15.5621,0,0,0,0,0,0,0,-1,853,491,-0.223914,15.5621
-364,533,-0.141968,-15.9557,0.00376179,0.00929706,-0.00792249,0.0149214,-0.00186258,-0.953441,0.010623,0.0418881,860,491,-0.141977,15.9557
-357,533,-0.115662,-16.3405,0.00206736,0.00729771,-0.00598786,0.0112166,-0.00185151,-0.991287,0.00816516,0.0231022,867,491,-0.115663,16.3405
-350,533,-0.0908813,-16.8416,0.000790974,0.00538298,-0.00449286,0.00813251,-0.00195855,-1.02162,0.00617888,0.0142899,874,491,-0.0909002,16.8417
-343,533,-0.13916,-17.3782,-1.71712e-05,0.00399228,-0.00323757,0.00579554,-0.00182043,-1.06261,0.00459239,0.0124307,881,491,-0.139147,17.3782
-336,533,-0.175903,-17.8653,-0.000524513,0.00293973,-0.00232647,0.00410808,-0.00169286,-1.10539,0.00344457,0.014785,888,491,-0.175882,17.8653
-329,533,-0.187683,-18.314,-0.000876315,0.00177906,-0.00147473,0.00243571,-0.00153296,-1.15189,0.00231099,0.0141157,895,491,-0.18768,18.314
-322,533,-0.238159,-18.7723,-0.000909902,0.0010159,-0.000946084,0.0014029,-0.00129691,-1.1825,0.00155914,0.0119801,902,491,-0.238146,18.7723
-315,533,-0.254578,-19.2289,-0.000737455,0.00053529,-0.000524094,0.000723323,-0.000925488,-1.22632,0.000954324,0.0126275,909,491,-0.254575,19.2289
-308,533,-0.263672,-19.6723,-0.000430276,0.000179393,-0.000211679,0.000245681,-0.000496564,-1.26732,0.000436619,0.0118115,916,491,-0.263693,19.6723
-301,533,-0.288818,-20.095,-7.43695e-05,-0.000329346,0.000139109,-1.31664e-05,-0.000390549,0.414479,0.00025609,0.0128076,923,491,-0.288809,20.095
-294,533,-0.270081,-20.5181,0.000295166,-0.0012106,0.000616906,0.000515631,-0.00143106,0.343227,0.00116461,0.0119464,930,491,-0.270097,20.5181
-287,533,-0.262634,-20.9695,0.000771441,-0.00194186,0.00109482,0.0011581,-0.00232852,0.339498,0.00205046,0.00932529,937,491,-0.262638,20.9695
-280,533,-0.281677,-21.4177,0.00129767,-0.00314051,0.00155641,0.00178907,-0.00363191,0.305823,0.00318952,0.00875599,944,491,-0.281649,21.4177
-273,533,-0.291565,-21.8268,0.00168251,-0.00441999,0.00217068,0.00237585,-0.00511333,0.30917,0.00441912,0.0117904,951,491,-0.291582,21.8268
-266,533,-0.278503,-22.2498,0.00209661,-0.00634833,0.00302712,0.00306959,-0.00732131,0.310992,0.00616432,0.0118906,958,491,-0.278514,22.2498
-259,533,-0.259827,-22.6721,0.00249913,-0.00871069,0.00399559,0.00377751,-0.00998907,0.309657,0.00821341,0.0123902,965,491,-0.259801,22.6721
-252,533,-0.242432,-23.0369,0.00252185,-0.0118582,0.005017,0.00409919,-0.0134355,0.304615,0.0105912,0.0140402,972,491,-0.242415,23.0369
-245,533,-0.277588,-23.3909,0.00207165,-0.0152676,0.0062169,0.00407031,-0.0172662,0.311052,0.0130804,0.0197688,979,491,-0.277571,23.3909
-238,533,-0.221375,-23.7125,0.0019125,-0.0185825,0.00746952,0.00434589,-0.0210159,0.314934,0.0156615,0.0264945,986,491,-0.221392,23.7125
-231,533,-0.0119629,-23.8396,0.00148601,-0.0222728,0.00884984,0.00442011,-0.0252069,0.320139,0.0184552,0.044588,993,491,-0.0119757,23.8396
-224,533,-0.213196,-24.5302,0,0,0,0,0,0,0,-1,1000,491,-0.213166,24.5302
-217,533,-0.308105,-24.5874,0,0,0,0,0,0,0,-1,1007,491,-0.308088,24.5874
-210,533,-0.0791626,-24.9439,0,0,0,0,0,0,0,-1,1014,491,-0.0791441,24.9439
-203,533,-0.495544,-25.0083,0,0,0,0,0,0,0,-1,1021,491,-0.495529,25.0083
-196,533,0.688354,-19.5743,0,0,0,0,0,0,0,-1,1028,491,0.688406,19.5743
-189,533,-0.169189,-15.0303,0,0,0,0,0,0,0,-1,1035,491,-0.169241,15.0303
-182,533,1.26123,-11.4969,0,0,0,0,0,0,0,-1,1042,491,1.26128,11.4969
-175,533,0.937744,-7.36966,0,0,0,0,0,0,0,-1,1049,491,0.937769,7.36965
-168,533,2.64807,-2.7543,0,0,0,0,0,0,0,-1,1056,491,2.64812,2.7543
-161,533,1.91833,-1.76553,0,0,0,0,0,0,0,-1,1063,491,1.91836,1.76554
-154,533,0.376709,-11.0633,0,0,0,0,0,0,0,-1,1070,491,0.376715,11.0632
-147,533,0.383789,-12.1586,0,0,0,0,0,0,0,-1,1077,491,0.383829,12.1586
-140,533,1.14001,-15.4608,0,0,0,0,0,0,0,-1,1084,491,1.14005,15.4608
-133,533,0.189941,-16.0795,0,0,0,0,0,0,0,-1,1091,491,0.18994,16.0795
-126,533,2.89612,-2.59003,0,0,0,0,0,0,0,-1,1098,491,2.89608,2.59003
-119,533,1.78284,-22.5394,0,0,0,0,0,0,0,-1,1105,491,1.78279,22.5394
-112,533,1.83862,-21.2401,0,0,0,0,0,0,0,-1,1112,491,1.83859,21.24
-105,533,1.67554,-19.4018,0,0,0,0,0,0,0,-1,1119,491,1.6755,19.4018
-98,533,-1.39392,-5.16367,0,0,0,0,0,0,0,-1,1126,491,-1.39394,5.16367
-91,533,0.367432,4.49753,0,0,0,0,0,0,0,-1,1133,491,0.367468,-4.49754
-84,533,-0.88623,3.03604,0,0,0,0,0,0,0,-1,1140,491,-0.886288,-3.03605
-77,533,0,0,0,0,0,0,0,0,0,-1,1147,491,0,0
-70,533,0,0,0,0,0,0,0,0,0,-1,1154,491,0,0
-63,533,0,0,0,0,0,0,0,0,0,-1,1161,491,0,0
-56,533,0,0,0,0,0,0,0,0,0,-1,1168,491,0,0
-49,533,0,0,0,0,0,0,0,0,0,-1,1175,491,0,0
-42,533,0,0,0,0,0,0,0,0,0,-1,1182,491,0,0
-35,533,0,0,0,0,0,0,0,0,0,-1,1189,491,0,0
-28,533,0,0,0,0,0,0,0,0,0,-1,1196,491,0,0
-21,533,0,0,0,0,0,0,0,0,0,-1,1203,491,0,0
-14,533,0,0,0,0,0,0,0,0,0,-1,1210,491,0,0
-7,533,0,0,0,0,0,0,0,0,0,-1,1217,491,0,0
0,533,0,0,0,0,0,0,0,0,0,-1,1224,491,0,0
7,533,0,0,0,0,0,0,0,0,0,-1,1231,491,0,0
14,533,0,0,0,0,0,0,0,0,0,-1,1238,491,0,0
21,533,0,0,0,0,0,0,0,0,0,-1,1245,491,0,0
28,533,0,0,0,0,0,0,0,0,0,-1,1252,491,0,0
35,533,0,0,0,0,0,0,0,0,0,-1,1259,491,0,0
42,533,0,0,0,0,0,0,0,0,0,-1,1266,491,0,0
49,533,0,0,0,0,0,0,0,0,0,-1,1273,491,0,0
56,533,0,0,0,0,0,0,0,0,0,-1,1280,491,0,0
63,533,0,0,0,0,0,0,0,0,0,-1,1287,491,0,0
70,533,0,0,0,0,0,0,0,0,0,-1,1294,491,0,0
77,533,0,0,0,0,0,0,0,0,0,-1,1301,491,0,0
84,533,0,0,0,0,0,0,0,0,0,-1,1308,491,0,0
91,533,0,0,0,0,0,0,0,0,0,-1,1315,491,0,0
98,533,0,0,0,0,0,0,0,0,0,-1,1322,491,0,0
105,533,0,0,0,0,0,0,0,0,0,-1,1329,491,0,0
112,533,0,0,0,0,0,0,0,0,0,-1,1336,491,0,0
119,533,0,0,0,0,0,0,0,0,0,-1,1343,491,0,0
126,533,0,0,0,0,0,0,0,0,0,-1,1350,491,0,0
133,533,0,0,0,0,0,0,0,0,0,-1,1357,491,0,0
140,533,0,0,0,0,0,0,0,0,0,-1,1364,491,0,0
147,533,0,0,0,0,0,0,0,0,0,-1,1371,491,0,0
154,533,0,0,0,0,0,0,0,0,0,-1,1378,491,0,0
161,533,0,0,0,0,0,0,0,0,0,-1,1385,491,0,0
168,533,0,0,0,0,0,0,0,0,0,-1,1392,491,0,0
175,533,0,0,0,0,0,0,0,0,0,-1,1399,491,0,0
182,533,0,0,0,0,0,0,0,0,0,-1,1406,491,0,0
189,533,0,0,0,0,0,0,0,0,0,-1,1413,491,0,0
196,533,0,0,0,0,0,0,0,0,0,-1,1420,491,0,0
203,533,3.7887,1.16193,0,0,0,0,0,0,0,-1,1427,491,3.78872,-1.16193
210,533,5.09558,-0.216034,0,0,0,0,0,0,0,-1,1434,491,5.09559,0.216028
217,533,6.91614,-2.46814,0,0,0,0,0,0,0,-1,1441,491,6.91618,2.46814
224,533,7.23621,-2.1857,0,0,0,0,0,0,0,-1,1448,491,7.23621,2.1857
231,533,7.23474,-1.92282,0,0,0,0,0,0,0,-1,1455,491,7.2347,1.92282
238,533,7.23535,-1.67258,0,0,0,0,0,0,0,-1,1462,491,7.23539,1.67258
245,533,6.86682,-1.2301,0,0,0,0,0,0,0,-1,1469,491,6.86686,1.23011
252,533,6.63354,-3.07825,0,0,0,0,0,0,0,-1,1476,491,6.6335,3.07824
259,533,6.16431,-2.35037,0,0,0,0,0,0,0,-1,1483,491,6.1643,2.35037
266,533,5.68884,-1.6214,0,0,0,0,0,0,0,-1,1490,491,5.68885,1.6214
273,533,5.21399,-0.864227,0,0,0,0,0,0,0,-1,1497,491,5.21403,0.864227
280,533,1.41089,-1.97946,0,0,0,0,0,0,0,-1,1504,491,1.41087,1.97946
287,533,1.6814,-2.44443,0,0,0,0,0,0,0,-1,1511,491,1.6814,2.44444
294,533,2.2384,-2.57626,0,0,0,0,0,0,0,-1,1518,491,2.23839,2.57625
301,533,3.39941,-4.0817,0,0,0,0,0,0,0,-1,1525,491,3.3994,4.08171
308,533,4.13733,-4.14752,0,0,0,0,0,0,0,-1,1532,491,4.13727,4.14752
315,533,4.80762,-5.29349,0,0,0,0,0,0,0,-1,1539,491,4.80762,5.29347
322,533,5.47803,-6.43942,0,0,0,0,0,0,0,-1,1546,491,5.47798,6.43943
329,533,3.88477,-3.86301,0,0,0,0,0,0,0,-1,1553,491,3.88475,3.86299
336,533,6.70923,-13.2003,0,0,0,0,0,0,0,-1,1560,491,6.70926,13.2004
343,533,7.06677,-17.1133,0,0,0,0,0,0,0,-1,1567,491,7.06673,17.1133
350,533,8.65698,-20.3847,0,0,0,0,0,0,0,-1,1574,491,8.65697,20.3848
357,533,9.66711,-22.869,0,0,0,0,0,0,0,-1,1581,491,9.66716,22.869
364,533,9.65735,-22.6086,-0.00334423,-0.00768412,-0.0070897,0.00190017,-0.0129285,-0.63689,0.00931721,0.0411641,1588,491,9.65738,22.6086
371,533,9.46265,-22.408,-0.00228368,-0.00597232,-0.00569534,0.00185852,-0.0101145,-0.628812,0.0074403,0.0363759,1595,491,9.46265,22.408
378,533,9.48438,-22.0306,-0.00136234,-0.00414714,-0.00433824,0.00180147,-0.00731095,-0.630112,0.00557238,0.027118,1602,491,9.48443,22.0306
385,533,9.53845,-21.5866,-0.000513451,-0.00236509,-0.00290642,0.00161105,-0.00448959,-0.631208,0.00365056,0.0221698,1609,491,9.53849,21.5866
392,533,9.51257,-21.1822,8.85666e-05,-0.00143042,-0.00201281,0.0014804,-0.00282225,-0.604992,0.00252409,0.014517,1616,491,9.51263,21.1822
399,533,9.5271,-20.7794,0.000715371,-0.000732374,-0.00128515,0.00146649,-0.00148349,-0.528915,0.00170318,0.0132162,1623,491,9.52714,20.7794
406,533,9.5415,-20.3346,0.000919546,-5.0224e-05,-0.000678118,0.0012683,-0.00039898,-0.475022,0.00100528,0.014926,1630,491,9.54152,20.3346
413,533,9.547,-19.845,0.00100233,0.000650401,-0.000106511,0.00103206,0.000620676,-0.272153,0.000599928,0.0130732,1637,491,9.54697,19.845
420,533,9.52979,-19.3807,0.000949164,0.00114692,0.000359643,0.00142103,0.000675055,0.919553,0.000820774,0.0123987,1644,491,9.52982,19.3807
427,533,9.50378,-18.8907,0.000627769,0.00129972,0.000576008,0.00163058,0.000296913,1.04942,0.00100284,0.0131964,1651,491,9.50384,18.8908
434,533,9.48047,-18.4377,0.000263707,0.00135354,0.00074133,0.00172868,-0.000111433,1.10233,0.00119134,0.0130928,1658,491,9.48046,18.4377
441,533,9.48694,-17.9609,-0.00011665,0.00130501,0.000917564,0.00175487,-0.00056651,1.11496,0.00139756,0.0158131,1665,491,9.48688,17.9609
448,533,9.48914,-17.533,-0.000583722,0.00114659,0.00102251,0.00162085,-0.00105797,1.13652,0.00155796,0.0173652,1672,491,9.48919,17.533
455,533,9.4635,-17.058,-0.00095423,0.000899872,0.00113848,0.001441,-0.00149536,1.1271,0.0016954,0.0170403,1679,491,9.46355,17.058
462,533,9.43445,-16.5377,-0.00122392,0.000351698,0.0012756,0.00106316,-0.00193538,1.06203,0.00175545,0.0162045,1686,491,9.4345,16.5377
469,533,9.41846,-16.0526,-0.00141864,-0.000444645,0.00147013,0.000617047,-0.00248034,0.945341,0.00189306,0.0104641,1693,491,9.41845,16.0526
476,533,9.41699,-15.5424,-0.00165395,-0.00138767,0.00162904,0.000113661,-0.00315529,0.826172,0.00214242,0.0112787,1700,491,9.41694,15.5424
483,533,9.43958,-14.9966,-0.00194756,-0.00261233,0.00175387,-0.00049486,-0.00406503,0.691752,0.00256105,0.0178686,1707,491,9.43963,14.9966
490,533,9.53052,-14.6128,-0.00221501,-0.00437448,0.00197419,-0.00104458,-0.00554491,0.535159,0.0034023,0.0422908,1714,491,9.53047,14.6128
497,533,9.17529,-14.1599,-0.00247063,-0.00688295,0.00201703,-0.00168755,-0.00766603,0.370322,0.00465136,0.0471531,1721,491,9.17533,14.16
504,533,9.55774,-13.4968,0,0,0,0,0,0,0,-1,1728,491,9.55772,13.4968
511,533,9.79749,-13.3614,0,0,0,0,0,0,0,-1,1735,491,9.79744,13.3614
518,533,9.94153,-12.9196,0,0,0,0,0,0,0,-1,1742,491,9.94156,12.9197
525,533,10.2653,-11.1067,0,0,0,0,0,0,0,-1,1749,491,10.2653,11.1067
532,533,8.92249,-11.2121,0,0,0,0,0,0,0,-1,1756,491,8.92243,11.2121
539,533,3.61609,1.62427,0,0,0,0,0,0,0,-1,1763,491,3.61606,-1.62426
546,533,3.59607,1.65799,0,0,0,0,0,0,0,-1,1770,491,3.59605,-1.658
553,533,0,0,0,0,0,0,0,0,0,-1,1777,491,0,0
560,533,0,0,0,0,0,0,0,0,0,-1,1784,491,0,0
567,533,0,0,0,0,0,0,0,0,0,-1,1791,491,0,0
574,533,0,0,0,0,0,0,0,0,0,-1,1798,491,0,0
581,533,0,0,0,0,0,0,0,0,0,-1,1805,491,0,0
588,533,0,0,0,0,0,0,0,0,0,-1,1812,491,0,0
595,533,0,0,0,0,0,0,0,0,0,-1,1819,491,0,0
602,533,0,0,0,0,0,0,0,0,0,-1,1826,491,0,0
609,533,0,0,0,0,0,0,0,0,0,-1,1833,491,0,0
616,533,0,0,0,0,0,0,0,0,0,-1,1840,491,0,0
623,533,0,0,0,0,0,0,0,0,0,-1,1847,491,0,0
630,533,0,0,0,0,0,0,0,0,0,-1,1854,491,0,0
637,533,0,0,0,0,0,0,0,0,0,-1,1861,491,0,0
644,533,0,0,0,0,0,0,0,0,0,-1,1868,491,0,0
651,533,0,0,0,0,0,0,0,0,0,-1,1875,491,0,0
658,533,0,0,0,0,0,0,0,0,0,-1,1882,491,0,0
665,533,0,0,0,0,0,0,0,0,0,-1,1889,491,0,0
672,533,0,0,0,0,0,0,0,0,0,-1,1896,491,0,0
679,533,0,0,0,0,0,0,0,0,0,-1,1903,491,0,0
686,533,0,0,0,0,0,0,0,0,0,-1,1910,491,0,0
693,533,0,0,0,0,0,0,0,0,0,-1,1917,491,0,0
700,533,0,0,0,0,0,0,0,0,0,-1,1924,491,0,0
707,533,0,0,0,0,0,0,0,0,0,-1,1931,491,0,0
714,533,0,0,0,0,0,0,0,0,0,-1,1938,491,0,0
721,533,0,0,0,0,0,0,0,0,0,-1,1945,491,0,0
728,533,0,0,0,0,0,0,0,0,0,-1,1952,491,0,0
735,533,0,0,0,0,0,0,0,0,0,-1,1959,491,0,0
742,533,0,0,0,0,0,0,0,0,0,-1,1966,491,0,0
749,533,0,0,0,0,0,0,0,0,0,-1,1973,491,0,0
756,533,0,0,0,0,0,0,0,0,0,-1,1980,491,0,0
763,533,0,0,0,0,0,0,0,0,0,-1,1987,491,0,0
770,533,0,0,0,0,0,0,0,0,0,-1,1994,491,0,0
777,533,0,0,0,0,0,0,0,0,0,-1,2001,491,0,0
784,533,0,0,0,0,0,0,0,0,0,-1,2008,491,0,0
791,533,0,0,0,0,0,0,0,0,0,-1,2015,491,0,0
798,533,0,0,0,0,0,0,0,0,0,-1,2022,491,0,0
805,533,0,0,0,0,0,0,0,0,0,-1,2029,491,0,0
812,533,0,0,0,0,0,0,0,0,0,-1,2036,491,0,0
-700,526,0,0,0,0,0,0,0,0,0,-1,524,498,0,0
-693,526,0,0,0,0,0,0,0,0,0,-1,531,498,0,0
-686,526,0,0,0,0,0,0,0,0,0,-1,538,498,0,0
-679,526,0,0,0,0,0,0,0,0,0,-1,545,498,0,0
-672,526,0,0,0,0,0,0,0,0,0,-1,552,498,0,0
-665,526,0,0,0,0,0,0,0,0,0,-1,559,498,0,0
-658,526,0,0,0,0,0,0,0,0,0,-1,566,498,0,0
-651,526,0,0,0,0,0,0,0,0,0,-1,573,498,0,0
-644,526,0,0,0,0,0,0,0,0,0,-1,580,498,0,0
-637,526,0,0,0,0,0,0,0,0,0,-1,587,498,0,0
-630,526,0,0,0,0,0,0,0,0,0,-1,594,498,0,0
-623,526,0,0,0,0,0,0,0,0,0,-1,601,498,0,0
-616,526,0,0,0,0,0,0,0,0,0,-1,608,498,0,0
-609,526,0,0,0,0,0,0,0,0,0,-1,615,498,0,0
-602,526,0,0,0,0,0,0,0,0,0,-1,622,498,0,0
-595,526,0,0,0,0,0,0,0,0,0,-1,629,498,0,0
-588,526,0,0,0,0,0,0,0,0,0,-1,636,498,0,0
-581,526,0,0,0,0,0,0,0,0,0,-1,643,498,0,0
-574,526,0,0,0,0,0,0,0,0,0,-1,650,498,0,0
-567,526,0,0,0,0,0,0,0,0,0,-1,657,498,0,0
-560,526,0,0,0,0,0,0,0,0,0,-1,664,498,0,0
-553,526,0,0,0,0,0,0,0,0,0,-1,671,498,0,0
-546,526,0,0,0,0,0,0,0,0,0,-1,678,498,0,0
-539,526,0,0,0,0,0,0,0,0,0,-1,685,498,0,0
-532,526,0,0,0,0,0,0,0,0,0,-1,692,498,0,0
-525,526,0,0,0,0,0,0,0,0,0,-1,699,498,0,0
-518,526,0,0,0,0,0,0,0,0,0,-1,706,498,0,0
-511,526,0,0,0,0,0,0,0,0,0,-1,713,498,0,0
-504,526,0,0,0,0,0,0,0,0,0,-1,720,498,0,0
-497,526,0,0,0,0,0,0,0,0,0,-1,727,498,0,0
-490,526,0,0,0,0,0,0,0,0,0,-1,734,498,0,0
-483,526,0,0,0,0,0,0,0,0,0,-1,741,498,0,0
-476,526,0,0,0,0,0,0,0,0,0,-1,748,498,0,0
-469,526,0,0,0,0,0,0,0,0,0,-1,755,498,0,0
-462,526,0,0,0,0,0,0,0,0,0,-1,762,498,0,0
-455,526,0,0,0,0,0,0,0,0,0,-1,769,498,0,0
-448,526,0,0,0,0,0,0,0,0,0,-1,776,498,0,0
-441,526,0,0,0,0,0,0,0,0,0,-1,783,498,0,0
-434,526,-0.153564,-5.96649,0,0,0,0,0,0,0,-1,790,498,-0.153589,5.9665
-427,526,1.23206,-4.59808,0,0,0,0,0,0,0,-1,797,498,1.23208,4.59809
-420,526,0.923462,-10.1938,0,0,0,0,0,0,0,-1,804,498,0.92349,10.1938
-413,526,-1.71814,-12.3744,0,0,0,0,0,0,0,-1,811,498,-1.71813,12.3744
-406,526,-1.29816,-12.5131,0,0,0,0,0,0,0,-1,818,498,-1.29816,12.5131
-399,526,-0.878174,-12.6518,0,0,0,0,0,0,0,-1,825,498,-0.878176,12.6518
-392,526,-2.27356,-11.5593,0,0,0,0,0,0,0,-1,832,498,-2.27357,11.5593
-385,526,-1.19427,-13.7044,0,0,0,0,0,0,0,-1,839,498,-1.19429,13.7044
-378,526,-0.694031,-14.7294,0,0,0,0,0,0,0,-1,846,498,-0.694033,14.7294
-371,526,-0.654297,-15.3248,0.00479009,0.010004,-0.00918964,0.0169493,-0.0021552,-0.92361,0.0120822,0.0356976,853,498,-0.654275,15.3249
-364,526,-0.608276,-15.8738,0.00336749,0.00800791,-0.00707063,0.0131293,-0.00175388,-0.943936,0.00939223,0.0180646,860,498,-0.608263,15.8739
-357,526,-0.57428,-16.3751,0.00215448,0.00634253,-0.00538061,0.0100222,-0.00152522,-0.97097,0.00724362,0.0118905,867,498,-0.574275,16.3751
-350,526,-0.563782,-16.8591,0.00123563,0.00485644,-0.00398597,0.00742388,-0.00133181,-0.998566,0.00544773,0.011492,874,498,-0.563793,16.8591
-343,526,-0.59198,-17.3594,0.000609365,0.00358499,-0.0028073,0.00527437,-0.00108001,-1.02907,0.00392608,0.0156851,881,498,-0.591988,17.3594
-336,526,-0.624573,-17.8203,0.00019342,0.00263421,-0.00191943,0.00368837,-0.000860738,-1.06857,0.00279043,0.0151632,888,498,-0.624594,17.8203
-329,526,-0.626709,-18.2772,-8.24575e-05,0.00157753,-0.00110889,0.00213264,-0.000637569,-1.10667,0.00167523,0.0152514,895,498,-0.626707,18.2772
-322,526,-0.659607,-18.7363,-0.000103022,0.000846446,-0.000571945,0.00111501,-0.000371587,-1.13179,0.000893346,0.0108567,902,498,-0.659615,18.7363
-315,526,-0.687805,-19.219,4.84385e-05,0.0003485,-0.000129989,0.00039698,-4.14293e-08,-1.21382,0.000264667,0.00978728,909,498,-0.687778,19.219
-308,526,-0.695007,-19.6905,0.000318867,-8.00258e-05,0.000221025,0.00041713,-0.000178289,0.418337,0.000352864,0.00920965,916,498,-0.694996,19.6905
-301,526,-0.713074,-20.0963,0.000608962,-0.00071867,0.000612671,0.000848483,-0.000958191,0.372676,0.00104372,0.0102043,923,498,-0.713067,20.0963
-294,526,-0.711731,-20.5162,0.000891402,-0.0018038,0.00112675,0.00130038,-0.00221278,0.348188,0.002051,0.00929931,930,498,-0.71172,20.5162
-287,526,-0.726379,-20.9563,0.0013139,-0.002743,0.00163247,0.00188921,-0.00331831,0.338827,0.00304407,0.00940011,937,498,-0.726408,20.9563
-280,526,-0.736816,-21.381,0.00182154,-0.00429585,0.002161,0.00250791,-0.00498222,0.307541,0.00440238,0.0123594,944,498,-0.73679,21.381
-273,526,-0.723999,-21.8124,0.00218249,-0.00598131,0.00287895,0.00309561,-0.00689443,0.307136,0.00590512,0.0105033,951,498,-0.724029,21.8124
-266,526,-0.709473,-22.2252,0.00262553,-0.0084622,0.00391401,0.00386797,-0.00970464,0.307374,0.00807406,0.0108293,958,498,-0.70946,22.2252
-259,526,-0.673584,-22.6151,0.00310842,-0.0114124,0.00506517,0.00470067,-0.0130046,0.304571,0.0105903,0.0230237,965,498,-0.673579,22.6151
-252,526,-0.681824,-22.7615,0.00314285,-0.0153516,0.00631674,0.0050944,-0.0173032,0.299645,0.0135565,0.0379926,972,498,-0.681842,22.7615
-245,526,-0.750366,-22.8741,0.00266528,-0.0196359,0.00790486,0.005183,-0.0221536,0.308343,0.0167659,0.0451093,979,498,-0.750359,22.8741
-238,526,-0.687927,-22.9274,0,0,0,0,0,0,0,-1,986,498,-0.687945,22.9274
-231,526,-0.0792236,-23.5162,0,0,0,0,0,0,0,-1,993,498,-0.0792245,23.5162
-224,526,-0.292603,-23.2656,0,0,0,0,0,0,0,-1,1000,498,-0.292617,23.2656
-217,526,0.00238037,-23.7004,0,0,0,0,0,0,0,-1,1007,498,0.00235469,23.7004
-210,526,-0.297424,-24.0909,0,0,0,0,0,0,0,-1,1014,498,-0.297426,24.0909
-203,526,-0.659302,-18.8818,0,0,0,0,0,0,0,-1,1021,498,-0.659273,18.8818
-196,526,-0.328247,-12.179,0,0,0,0,0,0,0,-1,1028,498,-0.328238,12.179
-189,526,0.401245,-5.96826,0,0,0,0,0,0,0,-1,1035,498,0.401197,5.96826
-182,526,1.7323,-2.99405,0,0,0,0,0,0,0,-1,1042,498,1.73226,2.99404
-175,526,2.27637,-2.07983,0,0,0,0,0,0,0,-1,1049,498,2.27639,2.07984
-168,526,2.12036,-1.66049,0,0,0,0,0,0,0,-1,1056,498,2.12035,1.66048
-161,526,2.09082,-1.20572,0,0,0,0,0,0,0,-1,1063,498,2.09086,1.2057
-154,526,-1.3446,-5.37799,0,0,0,0,0,0,0,-1,1070,498,-1.34457,5.37799
-147,526,-0.472656,-6.64996,0,0,0,0,0,0,0,-1,1077,498,-0.472659,6.64997
-140,526,0.422852,-8.03339,0,0,0,0,0,0,0,-1,1084,498,0.422844,8.0334
-133,526,1.09583,-9.2215,0,0,0,0,0,0,0,-1,1091,498,1.09581,9.2215
-126,526,3.42529,-2.36053,0,0,0,0,0,0,0,-1,1098,498,3.42523,2.36052
-119,526,2.7771,-0.764099,0,0,0,0,0,0,0,-1,1105,498,2.7771,0.764107
-112,526,2.57715,-1.1893,0,0,0,0,0,0,0,-1,1112,498,2.57718,1.1893
-105,526,0,0,0,0,0,0,0,0,0,-1,1119,498,0,0
-98,526,0,0,0,0,0,0,0,0,0,-1,1126,498,0,0
-91,526,0,0,0,0,0,0,0,0,0,-1,1133,498,0,0
-84,526,0,0,0,0,0,0,0,0,0,-1,1140,498,0,0
-77,526,0,0,0,0,0,0,0,0,0,-1,1147,498,0,0
-70,526,0,0,0,0,0,0,0,0,0,-1,1154,498,0,0
-63,526,0,0,0,0,0,0,0,0,0,-1,1161,498,0,0
-56,526,0,0,0,0,0,0,0,0,0,-1,1168,498,0,0
-49,526,0,0,0,0,0,0,0,0,0,-1,1175,498,0,0
-42,526,0,0,0,0,0,0,0,0,0,-1,1182,498,0,0
-35,526,0,0,0,0,0,0,0,0,0,-1,1189,498,0,0
-28,526,0,0,0,0,0,0,0,0,0,-1,1196,498,0,0
-21,526,0,0,0,0,0,0,0,0,0,-1,1203,498,0,0
-14,526,0,0,0,0,0,0,0,0,0,-1,1210,498,0,0
-7,526,0,0,0,0,0,0,0,0,0,-1,1217,498,0,0
0,526,0,0,0,0,0,0,0,0,0,-1,1224,498,0,0
7,526,0,0,0,0,0,0,0,0,0,-1,1231,498,0,0
14,526,0,0,0,0,0,0,0,0,0,-1,1238,498,0,0
21,526,0,0,0,0,0,0,0,0,0,-1,1245,498,0,0
28,526,0,0,0,0,0,0,0,0,0,-1,1252,498,0,0
35,526,0,0,0,0,0,0,0,0,0,-1,1259,498,0,0
42,526,0,0,0,0,0,0,0,0,0,-1,1266,498,0,0
49,526,0,0,0,0,0,0,0,0,0,-1,1273,498,0,0
56,526,0,0,0,0,0,0,0,0,0,-1,1280,498,0,0
63,526,0,0,0,0,0,0,0,0,0,-1,1287,498,0,0
70,526,0,0,0,0,0,0,0,0,0,-1,1294,498,0,0
77,526,0,0,0,0,0,0,0,0,0,-1,1301,498,0,0
84,526,0,0,0,0,0,0,0,0,0,-1,1308,498,0,0
91,526,0,0,0,0,0,0,0,0,0,-1,1315,498,0,0
98,526,0,0,0,0,0,0,0,0,0,-1,1322,498,0,0
105,526,0,0,0,0,0,0,0,0,0,-1,1329,498,0,0
112,526,0,0,0,0,0,0,0,0,0,-1,1336,498,0,0
119,526,0,0,0,0,0,0,0,0,0,-1,1343,498,0,0
126,526,0,0,0,0,0,0,0,0,0,-1,1350,498,0,0
133,526,0,0,0,0,0,0,0,0,0,-1,1357,498,0,0
140,526,0,0,0,0,0,0,0,0,0,-1,1364,498,0,0
147,526,0,0,0,0,0,0,0,0,0,-1,1371,498,0,0
154,526,0,0,0,0,0,0,0,0,0,-1,1378,498,0,0
161,526,0,0,0,0,0,0,0,0,0,-1,1385,498,0,0
168,526,0,0,0,0,0,0,0,0,0,-1,1392,498,0,0
175,526,0,0,0,0,0,0,0,0,0,-1,1399,498,0,0
182,526,0,0,0,0,0,0,0,0,0,-1,1406,498,0,0
189,526,0,0,0,0,0,0,0,0,0,-1,1413,498,0,0
196,526,0,0,0,0,0,0,0,0,0,-1,1420,498,0,0
203,526,0,0,0,0,0,0,0,0,0,-1,1427,498,0,0
210,526,0,0,0,0,0,0,0,0,0,-1,1434,498,0,0
217,526,0,0,0,0,0,0,0,0,0,-1,1441,498,0,0
224,526,0,0,0,0,0,0,0,0,0,-1,1448,498,0,0
231,526,7.93237,-1.30618,0,0,0,0,0,0,0,-1,1455,498,7.93238,1.30618
238,526,7.97717,-1.08197,0,0,0,0,0,0,0,-1,1462,498,7.97723,1.08196
245,526,7.2793,-0.792938,0,0,0,0,0,0,0,-1,1469,498,7.27931,0.792926
252,526,6.73523,-2.23608,0,0,0,0,0,0,0,-1,1476,498,6.73525,2.23608
259,526,6.22949,-1.84967,0,0,0,0,0,0,0,-1,1483,498,6.22953,1.84968
266,526,5.72375,-1.46329,0,0,0,0,0,0,0,-1,1490,498,5.72381,1.46328
273,526,4.33984,0.49173,0,0,0,0,0,0,0,-1,1497,498,4.33979,-0.491727
280,526,1.4585,-1.59897,0,0,0,0,0,0,0,-1,1504,498,1.45846,1.59895
287,526,1.46411,-2.40134,0,0,0,0,0,0,0,-1,1511,498,1.46406,2.40133
294,526,5.57471,-4.59085,0,0,0,0,0,0,0,-1,1518,498,5.57466,4.59084
301,526,4.42786,-3.99677,0,0,0,0,0,0,0,-1,1525,498,4.42788,3.99676
308,526,5.79529,-4.19366,0,0,0,0,0,0,0,-1,1532,498,5.79528,4.19368
315,526,5.09851,-5.20068,0,0,0,0,0,0,0,-1,1539,498,5.09851,5.20068
322,526,5.50708,-4.72348,0,0,0,0,0,0,0,-1,1546,498,5.50713,4.72347
329,526,3.88672,-4.345,0,0,0,0,0,0,0,-1,1553,498,3.88674,4.34501
336,526,4.97876,-2.23828,0,0,0,0,0,0,0,-1,1560,498,4.97877,2.23828
343,526,3.31665,-2.69696,0,0,0,0,0,0,0,-1,1567,498,3.31667,2.69696
350,526,6.06287,-6.12015,0,0,0,0,0,0,0,-1,1574,498,6.06286,6.12014
357,526,5.79736,-7.7854,0,0,0,0,0,0,0,-1,1581,498,5.79734,7.78539
364,526,10.2494,-22.536,0,0,0,0,0,0,0,-1,1588,498,10.2494,22.536
371,526,9.94995,-22.653,0,0,0,0,0,0,0,-1,1595,498,9.94994,22.653
378,526,9.87756,-22.2783,0,0,0,0,0,0,0,-1,1602,498,9.87756,22.2783
385,526,9.95923,-21.6774,0,0,0,0,0,0,0,-1,1609,498,9.9592,21.6774
392,526,10.0535,-21.2042,2.99104e-05,-0.00163667,-0.00253488,0.00186496,-0.00347172,-0.626598,0.00312733,0.0448834,1616,498,10.0535,21.2042
399,526,9.95544,-20.7656,0.000925147,-0.000950384,-0.00172827,0.00195368,-0.00197891,-0.536825,0.0022705,0.025077,1623,498,9.95547,20.7656
406,526,10.0073,-20.2843,0.00126676,-0.000309712,-0.00104473,0.00178725,-0.000830207,-0.462215,0.0015445,0.0126821,1630,498,10.0073,20.2843
413,526,10.0007,-19.8373,0.00147701,0.000382696,-0.00041575,0.00161705,0.000242665,-0.324883,0.00100694,0.0122072,1637,498,10.0007,19.8373
420,526,9.98547,-19.378,0.00152061,0.000877842,8.78023e-05,0.00153239,0.000866063,0.133347,0.000887225,0.0125869,1644,498,9.98542,19.378
427,526,9.98047,-18.8926,0.00121312,0.000994551,0.000288033,0.0014119,0.000795768,0.604079,0.000817359,0.0136739,1651,498,9.98045,18.8926
434,526,9.9447,-18.4029,0.00084521,0.00101931,0.000432728,0.00137366,0.000490863,0.884657,0.00080377,0.0125004,1658,498,9.94468,18.4029
441,526,9.93201,-17.9365,0.000501195,0.000985719,0.000596919,0.00138766,9.92496e-05,0.97817,0.000893865,0.0119936,1665,498,9.93204,17.9365
448,526,9.94141,-17.4964,0.000119025,0.000849041,0.00072322,0.00129414,-0.000326077,1.0191,0.000989528,0.0117594,1672,498,9.94137,17.4964
455,526,9.92065,-17.0357,-0.00021964,0.000666628,0.000842962,0.00117583,-0.000728847,1.02739,0.00110972,0.014663,1679,498,9.92066,17.0357
462,526,9.91382,-16.515,-0.000476361,0.000243836,0.000986263,0.000933683,-0.00116621,0.960436,0.00121485,0.0107558,1686,498,9.91378,16.515
469,526,9.90515,-16.0331,-0.000661232,-0.000412377,0.00117302,0.000642793,-0.0017164,0.838238,0.00140831,0.00794246,1693,498,9.90519,16.0331
476,526,9.88391,-15.5409,-0.000883412,-0.00117342,0.00133534,0.000314773,-0.0023716,0.731315,0.00169576,0.00975055,1700,498,9.88397,15.5409
483,526,9.88062,-14.9891,-0.00116102,-0.00216818,0.00145243,-0.000127348,-0.00320185,0.618525,0.00209341,0.0124799,1707,498,9.88062,14.9891
490,526,9.94922,-14.4184,-0.00143888,-0.00359115,0.00162789,-0.000563585,-0.00446645,0.493342,0.00280868,0.0234171,1714,498,9.94927,14.4184
497,526,9.84314,-14.0805,-0.0017269,-0.00553613,0.00167015,-0.00109835,-0.00616468,0.359951,0.003797,0.0285456,1721,498,9.84317,14.0805
504,526,9.83472,-13.5958,-0.00184421,-0.00789833,0.0016624,-0.00141777,-0.00832477,0.251106,0.00514282,0.0335199,1728,498,9.83469,13.5958
511,526,10.0013,-13.223,-0.00219383,-0.0106588,0.00176041,-0.00184233,-0.0110103,0.197081,0.00680967,0.0422485,1735,498,10.0013,13.2229
518,526,10.0769,-12.7603,-0.00254261,-0.0139089,0.00178726,-0.0022682,-0.0141833,0.152346,0.00879746,0.0435923,1742,498,10.0769,12.7603
525,526,10.0677,-12.3323,0,0,0,0,0,0,0,-1,1749,498,10.0677,12.3323
532,526,9.36365,-11.4988,0,0,0,0,0,0,0,-1,1756,498,9.36367,11.4988
539,526,3.29407,0.932312,0,0,0,0,0,0,0,-1,1763,498,3.2941,-0.93232
546,526,3.36731,1.07721,0,0,0,0,0,0,0,-1,1770,498,3.36735,-1.07719
553,526,3.40796,1.37137,0,0,0,0,0,0,0,-1,1777,498,3.40792,-1.37138
560,526,0,0,0,0,0,0,0,0,0,-1,1784,498,0,0
567,526,0,0,0,0,0,0,0,0,0,-1,1791,498,0,0
574,526,0,0,0,0,0,0,0,0,0,-1,1798,498,0,0
581,526,0,0,0,0,0,0,0,0,0,-1,1805,498,0,0
588,526,0,0,0,0,0,0,0,0,0,-1,1812,498,0,0
595,526,0,0,0,0,0,0,0,0,0,-1,1819,498,0,0
602,526,0,0,0,0,0,0,0,0,0,-1,1826,498,0,0
609,526,0,0,0,0,0,0,0,0,0,-1,1833,498,0,0
616,526,0,0,0,0,0,0,0,0,0,-1,1840,498,0,0
623,526,0,0,0,0,0,0,0,0,0,-1,1847,498,0,0
630,526,0,0,0,0,0,0,0,0,0,-1,1854,498,0,0
637,526,0,0,0,0,0,0,0,0,0,-1,1861,498,0,0
644,526,0,0,0,0,0,0,0,0,0,-1,1868,498,0,0
651,526,0,0,0,0,0,0,0,0,0,-1,1875,498,0,0
658,526,0,0,0,0,0,0,0,0,0,-1,1882,498,0,0
665,526,0,0,0,0,0,0,0,0,0,-1,1889,498,0,0
672,526,0,0,0,0,0,0,0,0,0,-1,1896,498,0,0
679,526,0,0,0,0,0,0,0,0,0,-1,1903,498,0,0
686,526,0,0,0,0,0,0,0,0,0,-1,1910,498,0,0
693,526,0,0,0,0,0,0,0,0,0,-1,1917,498,0,0
700,526,0,0,0,0,0,0,0,0,0,-1,1924,498,0,0
707,526,0,0,0,0,0,0,0,0,0,-1,1931,498,0,0
714,526,0,0,0,0,0,0,0,0,0,-1,1938,498,0,0
721,526,0,0,0,0,0,0,0,0,0,-1,1945,498,0,0
728,526,0,0,0,0,0,0,0,0,0,-1,1952,498,0,0
735,526,0,0,0,0,0,0,0,0,0,-1,1959,498,0,0
742,526,0,0,0,0,0,0,0,0,0,-1,1966,498,0,0
749,526,0,0,0,0,0,0,0,0,0,-1,1973,498,0,0
756,526,0,0,0,0,0,0,0,0,0,-1,1980,498,0,0
763,526,0,0,0,0,0,0,0,0,0,-1,1987,498,0,0
770,526,0,0,0,0,0,0,0,0,0,-1,1994,498,0,0
777,526,0,0,0,0,0,0,0,0,0,-1,2001,498,0,0
784,526,0,0,0,0,0,0,0,0,0,-1,2008,498,0,0
791,526,0,0,0,0,0,0,0,0,0,-1,2015,498,0,0
798,526,0,0,0,0,0,0,0,0,0,-1,2022,498,0,0
805,526,0,0,0,0,0,0,0,0,0,-1,2029,498,0,0
812,526,0,0,0,0,0,0,0,0,0,-1,2036,498,0,0
-700,519,0,0,0,0,0,0,0,0,0,-1,524,505,0,0
-693,519,0,0,0,0,0,0,0,0,0,-1,531,505,0,0
-686,519,0,0,0,0,0,0,0,0,0,-1,538,505,0,0
-679,519,0,0,0,0,0,0,0,0,0,-1,545,505,0,0
-672,519,0,0,0,0,0,0,0,0,0,-1,552,505,0,0
-665,519,0,0,0,0,0,0,0,0,0,-1,559,505,0,0
-658,519,0,0,0,0,0,0,0,0,0,-1,566,505,0,0
-651,519,0,0,0,0,0,0,0,0,0,-1,573,505,0,0
-644,519,0,0,0,0,0,0,0,0,0,-1,580,505,0,0
-637,519,0,0,0,0,0,0,0,0,0,-1,587,505,0,0
-630,519,0,0,0,0,0,0,0,0,0,-1,594,505,0,0
-623,519,0,0,0,0,0,0,0,0,0,-1,601,505,0,0
-616,519,0,0,0,0,0,0,0,0,0,-1,608,505,0,0
-609,519,0,0,0,0,0,0,0,0,0,-1,615,505,0,0
-602,519,0,0,0,0,0,0,0,0,0,-1,622,505,0,0
-595,519,0,0,0,0,0,0,0,0,0,-1,629,505,0,0
-588,519,0,0,0,0,0,0,0,0,0,-1,636,505,0,0
-581,519,0,0,0,0,0,0,0,0,0,-1,643,505,0,0
-574,519,0,0,0,0,0,0,0,0,0,-1,650,505,0,0
-567,519,0,0,0,0,0,0,0,0,0,-1,657,505,0,0
-560,519,0,0,0,0,0,0,0,0,0,-1,664,505,0,0
-553,519,0,0,0,0,0,0,0,0,0,-1,671,505,0,0
-546,519,0,0,0,0,0,0,0,0,0,-1,678,505,0,0
-539,519,0,0,0,0,0,0,0,0,0,-1,685,505,0,0
-532,519,0,0,0,0,0,0,0,0,0,-1,692,505,0,0
-525,519,0,0,0,0,0,0,0,0,0,-1,699,505,0,0
-518,519,0,0,0,0,0,0,0,0,0,-1,706,505,0,0
-511,519,0,0,0,0,0,0,0,0,0,-1,713,505,0,0
-504,519,0,0,0,0,0,0,0,0,0,-1,720,505,0,0
-497,519,0,0,0,0,0,0,0,0,0,-1,727,505,0,0
-490,519,0,0,0,0,0,0,0,0,0,-1,734,505,0,0
-483,519,0,0,0,0,0,0,0,0,0,-1,741,505,0,0
-476,519,0,0,0,0,0,0,0,0,0,-1,748,505,0,0
-469,519,0,0,0,0,0,0,0,0,0,-1,755,505,0,0
-462,519,0,0,0,0,0,0,0,0,0,-1,762,505,0,0
-455,519,0,0,0,0,0,0,0,0,0,-1,769,505,0,0
-448,519,0,0,0,0,0,0,0,0,0,-1,776,505,0,0
-441,519,1.34839,-5.29346,0,0,0,0,0,0,0,-1,783,505,1.3484,5.29347
-434,519,0.949585,-5.77313,0,0,0,0,0,0,0,-1,790,505,0.949598,5.77315
-427,519,-0.0523682,-9.31567,0,0,0,0,0,0,0,-1,797,505,-0.0523854,9.31568
-420,519,-1.04669,-9.8855,0,0,0,0,0,0,0,-1,804,505,-1.04669,9.88547
-413,519,-2.14728,-12.5604,0,0,0,0,0,0,0,-1,811,505,-2.14725,12.5604
-406,519,-0.983887,-11.4449,0,0,0,0,0,0,0,-1,818,505,-0.983898,11.4449
-399,519,-0.944031,-12.1539,0,0,0,0,0,0,0,-1,825,505,-0.944052,12.1539
-392,519,-1.49677,-13.6469,0,0,0,0,0,0,0,-1,832,505,-1.49676,13.6469
-385,519,-1.33215,-14.03,0.00620281,0.0126171,-0.0120306,0.0218607,-0.00304078,-0.91566,0.0156859,0.0473851,839,505,-1.33216,14.03
-378,519,-1.10529,-14.6912,0.00497432,0.0103619,-0.00982071,0.0178516,-0.00251533,-0.919255,0.012822,0.0319826,846,505,-1.10527,14.6912
-371,519,-1.00488,-15.2703,0.00392667,0.00839471,-0.00786765,0.0143394,-0.00201799,-0.923732,0.0102984,0.018144,853,505,-1.00485,15.2702
-364,519,-1.02777,-15.8661,0.00295302,0.00671495,-0.00613638,0.0112522,-0.00158421,-0.934115,0.00808145,0.0110533,860,505,-1.02775,15.8661
-357,519,-1.0174,-16.3898,0.00209866,0.00532505,-0.00470897,0.00868948,-0.00126577,-0.950422,0.00625773,0.00969357,867,505,-1.01742,16.3898
-350,519,-1.02515,-16.8715,0.00143394,0.00411251,-0.00350276,0.00652329,-0.000976844,-0.967998,0.00470837,0.0118953,874,505,-1.02512,16.8715
-343,519,-1.07043,-17.3275,0.000961803,0.0029217,-0.00241938,0.00455206,-0.000668553,-0.977821,0.00328034,0.0155899,881,505,-1.07046,17.3274
-336,519,-1.10602,-17.787,0.000641709,0.00202311,-0.00158628,0.00306254,-0.000397725,-0.99073,0.00218636,0.0154337,888,505,-1.10601,17.787
-329,519,-1.09845,-18.2406,0.000455587,0.00103066,-0.000839278,0.00163029,-0.000144042,-0.950433,0.00113792,0.0130761,895,505,-1.09845,18.2406
-322,519,-1.09967,-18.7231,0.000464351,0.000282287,-0.000300419,0.000687227,5.94104e-05,-0.638287,0.000439688,0.0111182,902,505,-1.09964,18.7232
-315,519,-1.11151,-19.2114,0.000616236,-0.000278854,0.000163988,0.000645334,-0.000307952,0.175612,0.000561752,0.0094942,909,505,-1.1115,19.2113
-308,519,-1.12518,-19.6844,0.000878052,-0.000812237,0.000573636,0.00105434,-0.000988527,0.298158,0.00117965,0.00817795,916,505,-1.12519,19.6844
-301,519,-1.13477,-20.1051,0.0011355,-0.00158463,0.00104005,0.00148759,-0.00193672,0.326422,0.00198269,0.0123661,923,505,-1.13479,20.1051
-294,519,-1.14746,-20.5092,0.00134946,-0.00285445,0.00163002,0.00190743,-0.00341242,0.329805,0.00311211,0.0145333,930,505,-1.14749,20.5091
-287,519,-1.177,-20.9468,0.00172291,-0.00397033,0.00220634,0.00247784,-0.00472527,0.329678,0.00422565,0.0105467,937,505,-1.177,20.9468
-280,519,-1.19,-21.3725,0.00224069,-0.0058677,0.0028552,0.00314519,-0.0067722,0.306789,0.00585205,0.0162641,944,505,-1.19001,21.3725
-273,519,-1.14545,-21.8098,0.00259984,-0.00797754,0.00373893,0.00378802,-0.00916572,0.307693,0.00769067,0.0287318,951,505,-1.14543,21.8098
-266,519,-1.18292,-22.247,0.0031129,-0.0109308,0.00494709,0.00468059,-0.0124985,0.30688,0.010255,0.0438143,958,505,-1.18295,22.247
-259,519,-1.04486,-22.644,0,0,0,0,0,0,0,-1,965,505,-1.04487,22.644
-252,519,-1.13617,-22.3948,0,0,0,0,0,0,0,-1,972,505,-1.13616,22.3948
-245,519,-1.03192,-22.2002,0,0,0,0,0,0,0,-1,979,505,-1.03191,22.2002
-238,519,0.523621,-16.4753,0,0,0,0,0,0,0,-1,986,505,0.523651,16.4753
-231,519,0.337585,-11.2798,0,0,0,0,0,0,0,-1,993,505,0.337568,11.2798
-224,519,-0.0494995,-7.97394,0,0,0,0,0,0,0,-1,1000,505,-0.0495123,7.97392
-217,519,-0.283691,-23.8409,0,0,0,0,0,0,0,-1,1007,505,-0.283683,23.8409
-210,519,-2.14398,-4.74774,0,0,0,0,0,0,0,-1,1014,505,-2.14397,4.74775
-203,519,-0.513611,-5.39017,0,0,0,0,0,0,0,-1,1021,505,-0.513585,5.39017
-196,519,-0.374023,-5.41635,0,0,0,0,0,0,0,-1,1028,505,-0.374047,5.41635
-189,519,-0.234497,-5.44254,0,0,0,0,0,0,0,-1,1035,505,-0.234508,5.44253
-182,519,2.76697,-1.19659,0,0,0,0,0,0,0,-1,1042,505,2.76696,1.19661
-175,519,2.31323,-0.960938,0,0,0,0,0,0,0,-1,1049,505,2.31319,0.960941
-168,519,2.01074,-0.721405,0,0,0,0,0,0,0,-1,1056,505,2.01072,0.721407
-161,519,2.32056,-0.522339,0,0,0,0,0,0,0,-1,1063,505,2.32057,0.522328
-154,519,2.55566,0.116669,0,0,0,0,0,0,0,-1,1070,505,2.55563,-0.116661
-147,519,-0.55127,-6.14001,0,0,0,0,0,0,0,-1,1077,505,-0.551252,6.14001
-140,519,0.240601,-7.53503,0,0,0,0,0,0,0,-1,1084,505,0.240653,7.53501
-133,519,2.70911,-4.4516,0,0,0,0,0,0,0,-1,1091,505,2.70915,4.45161
-126,519,0,0,0,0,0,0,0,0,0,-1,1098,505,0,0
-119,519,0,0,0,0,0,0,0,0,0,-1,1105,505,0,0
-112,519,0,0,0,0,0,0,0,0,0,-1,1112,505,0,0
-105,519,0,0,0,0,0,0,0,0,0,-1,1119,505,0,0
-98,519,0,0,0,0,0,0,0,0,0,-1,1126,505,0,0
-91,519,0,0,0,0,0,0,0,0,0,-1,1133,505,0,0
-84,519,0,0,0,0,0,0,0,0,0,-1,1140,505,0,0
-77,519,0,0,0,0,0,0,0,0,0,-1,1147,505,0,0
-70,519,0,0,0,0,0,0,0,0,0,-1,1154,505,0,0
-63,519,0,0,0,0,0,0,0,0,0,-1,1161,505,0,0
-56,519,0,0,0,0,0,0,0,0,0,-1,1168,505,0,0
-49,519,0,0,0,0,0,0,0,0,0,-1,1175,505,0,0
-42,519,0,0,0,0,0,0,0,0,0,-1,1182,505,0,0
-35,519,0,0,0,0,0,0,0,0,0,-1,1189,505,0,0
-28,519,0,0,0,0,0,0,0,0,0,-1,1196,505,0,0
-21,519,0,0,0,0,0,0,0,0,0,-1,1203,505,0,0
-14,519,0,0,0,0,0,0,0,0,0,-1,1210,505,0,0
-7,519,0,0,0,0,0,0,0,0,0,-1,1217,505,0,0
0,519,0,0,0,0,0,0,0,0,0,-1,1224,505,0,0
7,519,0,0,0,0,0,0,0,0,0,-1,1231,505,0,0
14,519,0,0,0,0,0,0,0,0,0,-1,1238,505,0,0
21,519,0,0,0,0,0,0,0,0,0,-1,1245,505,0,0
28,519,0,0,0,0,0,0,0,0,0,-1,1252,505,0,0
35,519,0,0,0,0,0,0,0,0,0,-1,1259,505,0,0
42,519,0,0,0,0,0,0,0,0,0,-1,1266,505,0,0
49,519,0,0,0,0,0,0,0,0,0,-1,1273,505,0,0
56,519,0,0,0,0,0,0,0,0,0,-1,1280,505,0,0
63,519,0,0,0,0,0,0,0,0,0,-1,1287,505,0,0
70,519,0,0,0,0,0,0,0,0,0,-1,1294,505,0,0
77,519,0,0,0,0,0,0,0,0,0,-1,1301,505,0,0
84,519,0,0,0,0,0,0,0,0,0,-1,1308,505,0,0
91,519,0,0,0,0,0,0,0,0,0,-1,1315,505,0,0
98,519,0,0,0,0,0,0,0,0,0,-1,1322,505,0,0
105,519,0,0,0,0,0,0,0,0,0,-1,1329,505,0,0
112,519,0,0,0,0,0,0,0,0,0,-1,1336,505,0,0
119,519,0,0,0,0,0,0,0,0,0,-1,1343,505,0,0
126,519,0,0,0,0,0,0,0,0,0,-1,1350,505,0,0
133,519,0,0,0,0,0,0,0,0,0,-1,1357,505,0,0
140,519,0,0,0,0,0,0,0,0,0,-1,1364,505,0,0
147,519,0,0,0,0,0,0,0,0,0,-1,1371,505,0,0
154,519,0,0,0,0,0,0,0,0,0,-1,1378,505,0,0
161,519,0,0,0,0,0,0,0,0,0,-1,1385,505,0,0
168,519,0,0,0,0,0,0,0,0,0,-1,1392,505,0,0
175,519,0,0,0,0,0,0,0,0,0,-1,1399,505,0,0
182,519,0,0,0,0,0,0,0,0,0,-1,1406,505,0,0
189,519,0,0,0,0,0,0,0,0,0,-1,1413,505,0,0
196,519,0,0,0,0,0,0,0,0,0,-1,1420,505,0,0
203,519,0,0,0,0,0,0,0,0,0,-1,1427,505,0,0
210,519,0,0,0,0,0,0,0,0,0,-1,1434,505,0,0
217,519,0,0,0,0,0,0,0,0,0,-1,1441,505,0,0
224,519,0,0,0,0,0,0,0,0,0,-1,1448,505,0,0
231,519,0,0,0,0,0,0,0,0,0,-1,1455,505,0,0
238,519,0,0,0,0,0,0,0,0,0,-1,1462,505,0,0
245,519,0,0,0,0,0,0,0,0,0,-1,1469,505,0,0
252,519,5.26208,0.0938416,0,0,0,0,0,0,0,-1,1476,505,5.26207,-0.0938493
259,519,6.14246,-1.36441,0,0,0,0,0,0,0,-1,1483,505,6.14241,1.36441
266,519,5.31909,-0.400787,0,0,0,0,0,0,0,-1,1490,505,5.31912,0.400773
273,519,4.02393,0.325531,0,0,0,0,0,0,0,-1,1497,505,4.0239,-0.325522
280,519,4.68848,0.53006,0,0,0,0,0,0,0,-1,1504,505,4.68842,-0.530073
287,519,7.9519,-3.80801,0,0,0,0,0,0,0,-1,1511,505,7.95193,3.808
294,519,6.92273,-3.38889,0,0,0,0,0,0,0,-1,1518,505,6.92268,3.38888
301,519,5.35669,-2.92661,0,0,0,0,0,0,0,-1,1525,505,5.35675,2.9266
308,519,7.37549,-5.64529,0,0,0,0,0,0,0,-1,1532,505,7.3755,5.64529
315,519,6.30029,-4.53754,0,0,0,0,0,0,0,-1,1539,505,6.30024,4.53753
322,519,5.84302,-5.45117,0,0,0,0,0,0,0,-1,1546,505,5.84303,5.45116
329,519,4.92407,0.62384,0,0,0,0,0,0,0,-1,1553,505,4.92403,-0.623832
336,519,3.10095,-0.329285,0,0,0,0,0,0,0,-1,1560,505,3.1009,0.329283
343,519,2.49146,-2.31119,0,0,0,0,0,0,0,-1,1567,505,2.49145,2.31119
350,519,3.47729,-2.22516,0,0,0,0,0,0,0,-1,1574,505,3.47726,2.22515
357,519,4.51917,-4.51691,0,0,0,0,0,0,0,-1,1581,505,4.51914,4.51691
364,519,3.54626,-7.20673,0,0,0,0,0,0,0,-1,1588,505,3.54622,7.20675
371,519,5.349,-8.20068,0,0,0,0,0,0,0,-1,1595,505,5.34898,8.20068
378,519,6.36597,-10.0967,0,0,0,0,0,0,0,-1,1602,505,6.36597,10.0967
385,519,6.24756,-9.72186,0,0,0,0,0,0,0,-1,1609,505,6.24752,9.72183
392,519,10.3298,-21.4641,0,0,0,0,0,0,0,-1,1616,505,10.3298,21.4641
399,519,10.3055,-20.7849,0,0,0,0,0,0,0,-1,1623,505,10.3055,20.7849
406,519,10.416,-20.2786,0.00111157,-0.000529242,-0.00145073,0.0019578,-0.00137547,-0.52806,0.00193423,0.0348942,1630,505,10.4161,20.2786
413,519,10.4847,-19.8325,0.00151862,0.000190489,-0.000733206,0.00184379,-0.000134674,-0.417419,0.00127645,0.0154777,1637,505,10.4848,19.8325
420,519,10.4557,-19.3407,0.0017333,0.000697828,-0.000174847,0.00176203,0.0006691,-0.162844,0.00102707,0.0145506,1644,505,10.4557,19.3407
427,519,10.4688,-18.8954,0.00155521,0.000775286,3.11603e-05,0.00155646,0.000774043,0.039868,0.000898625,0.0136495,1651,505,10.4688,18.8955
434,519,10.4431,-18.4147,0.00127479,0.000766939,0.00015934,0.00132064,0.000721086,0.2802,0.000763549,0.0127285,1658,505,10.4432,18.4147
441,519,10.3997,-17.9358,0.00105359,0.00074496,0.000309303,0.00124493,0.000553612,0.554013,0.000720227,0.0126088,1665,505,10.3996,17.9358
448,519,10.4011,-17.4763,0.000836238,0.000624975,0.000457978,0.00120061,0.000260604,0.672057,0.000729228,0.00991059,1672,505,10.4011,17.4763
455,519,10.3796,-17.0074,0.000574566,0.0004958,0.000571269,0.00110781,-3.74423e-05,0.750983,0.000751331,0.0109244,1679,505,10.3797,17.0074
462,519,10.3787,-16.5093,0.000344405,0.000201225,0.000705415,0.000981853,-0.000436223,0.734828,0.000838685,0.0100576,1686,505,10.3787,16.5093
469,519,10.3969,-16.0082,0.00016341,-0.000304646,0.000878752,0.000838763,-0.00098,0.655259,0.00105112,0.0102214,1693,505,10.3969,16.0082
476,519,10.3862,-15.5003,-7.75562e-05,-0.000890839,0.00103706,0.00062974,-0.00159814,0.598556,0.00132615,0.0125524,1700,505,10.3862,15.5003
483,519,10.3691,-15.0015,-0.000396293,-0.00167288,0.00113485,0.000267454,-0.00233663,0.529224,0.00165413,0.0137157,1707,505,10.3692,15.0015
490,519,10.3551,-14.4577,-0.000758009,-0.00279159,0.00125155,-0.00016227,-0.00338733,0.444263,0.00220612,0.011451,1714,505,10.3552,14.4577
497,519,10.3193,-13.9995,-0.0011369,-0.00424243,0.00129308,-0.000668992,-0.00471034,0.3472,0.00294269,0.0149955,1721,505,10.3194,13.9995
504,519,10.2565,-13.4864,-0.00154206,-0.00598361,0.00128766,-0.00119575,-0.00632992,0.262727,0.00388322,0.0157773,1728,505,10.2564,13.4864
511,519,10.2582,-12.9412,-0.00200184,-0.00803352,0.00127788,-0.00174227,-0.00829308,0.200394,0.00504918,0.021457,1735,505,10.2582,12.9412
518,519,10.1909,-12.6334,-0.00251873,-0.0103906,0.00116118,-0.00235102,-0.0105583,0.143441,0.00640077,0.0393068,1742,505,10.1909,12.6334
525,519,10.1757,-12.3639,0,0,0,0,0,0,0,-1,1749,505,10.1757,12.3639
532,519,3.5155,-2.86511,0,0,0,0,0,0,0,-1,1756,505,3.51554,2.8651
539,519,3.30005,0.0229797,0,0,0,0,0,0,0,-1,1763,505,3.30008,-0.0229869
546,519,4.62024,-2.89774,0,0,0,0,0,0,0,-1,1770,505,4.62023,2.89775
553,519,4.14136,0.0667419,0,0,0,0,0,0,0,-1,1777,505,4.14141,-0.0667503
560,519,3.77856,0.279724,0,0,0,0,0,0,0,-1,1784,505,3.77861,-0.279731
567,519,0,0,0,0,0,0,0,0,0,-1,1791,505,0,0
574,519,0,0,0,0,0,0,0,0,0,-1,1798,505,0,0
581,519,0,0,0,0,0,0,0,0,0,-1,1805,505,0,0
588,519,0,0,0,0,0,0,0,0,0,-1,1812,505,0,0
595,519,0,0,0,0,0,0,0,0,0,-1,1819,505,0,0
602,519,0,0,0,0,0,0,0,0,0,-1,1826,505,0,0
609,519,0,0,0,0,0,0,0,0,0,-1,1833,505,0,0
616,519,0,0,0,0,0,0,0,0,0,-1,1840,505,0,0
623,519,0,0,0,0,0,0,0,0,0,-1,1847,505,0,0
630,519,0,0,0,0,0,0,0,0,0,-1,1854,505,0,0
637,519,0,0,0,0,0,0,0,0,0,-1,1861,505,0,0
644,519,0,0,0,0,0,0,0,0,0,-1,1868,505,0,0
651,519,0,0,0,0,0,0,0,0,0,-1,1875,505,0,0
658,519,0,0,0,0,0,0,0,0,0,-1,1882,505,0,0
665,519,0,0,0,0,0,0,0,0,0,-1,1889,505,0,0
672,519,0,0,0,0,0,0,0,0,0,-1,1896,505,0,0
679,519,0,0,0,0,0,0,0,0,0,-1,1903,505,0,0
686,519,0,0,0,0,0,0,0,0,0,-1,1910,505,0,0
693,519,0,0,0,0,0,0,0,0,0,-1,1917,505,0,0
700,519,0,0,0,0,0,0,0,0,0,-1,1924,505,0,0
707,519,0,0,0,0,0,0,0,0,0,-1,1931,505,0,0
714,519,0,0,0,0,0,0,0,0,0,-1,1938,505,0,0
721,519,0,0,0,0,0,0,0,0,0,-1,1945,505,0,0
728,519,0,0,0,0,0,0,0,0,0,-1,1952,505,0,0
735,519,0,0,0,0,0,0,0,0,0,-1,1959,505,0,0
742,519,0,0,0,0,0,0,0,0,0,-1,1966,505,0,0
749,519,0,0,0,0,0,0,0,0,0,-1,1973,505,0,0
756,519,0,0,0,0,0,0,0,0,0,-1,1980,505,0,0
763,519,0,0,0,0,0,0,0,0,0,-1,1987,505,0,0
770,519,0,0,0,0,0,0,0,0,0,-1,1994,505,0,0
777,519,0,0,0,0,0,0,0,0,0,-1,2001,505,0,0
784,519,0,0,0,0,0,0,0,0,0,-1,2008,505,0,0
791,519,0,0,0,0,0,0,0,0,0,-1,2015,505,0,0
798,519,0,0,0,0,0,0,0,0,0,-1,2022,505,0,0
805,519,0,0,0,0,0,0,0,0,0,-1,2029,505,0,0
812,519,0,0,0,0,0,0,0,0,0,-1,2036,505,0,0
-700,512,0,0,0,0,0,0,0,0,0,-1,524,512,0,0
-693,512,0,0,0,0,0,0,0,0,0,-1,531,512,0,0
-686,512,0,0,0,0,0,0,0,0,0,-1,538,512,0,0
-679,512,0,0,0,0,0,0,0,0,0,-1,545,512,0,0
-672,512,0,0,0,0,0,0,0,0,0,-1,552,512,0,0
-665,512,0,0,0,0,0,0,0,0,0,-1,559,512,0,0
-658,512,0,0,0,0,0,0,0,0,0,-1,566,512,0,0
-651,512,0,0,0,0,0,0,0,0,0,-1,573,512,0,0
-644,512,0,0,0,0,0,0,0,0,0,-1,580,512,0,0
-637,512,0,0,0,0,0,0,0,0,0,-1,587,512,0,0
-630,512,0,0,0,0,0,0,0,0,0,-1,594,512,0,0
-623,512,0,0,0,0,0,0,0,0,0,-1,601,512,0,0
-616,512,0,0,0,0,0,0,0,0,0,-1,608,512,0,0
-609,512,0,0,0,0,0,0,0,0,0,-1,615,512,0,0
-602,512,0,0,0,0,0,0,0,0,0,-1,622,512,0,0
-595,512,0,0,0,0,0,0,0,0,0,-1,629,512,0,0
-588,512,0,0,0,0,0,0,0,0,0,-1,636,512,0,0
-581,512,0,0,0,0,0,0,0,0,0,-1,643,512,0,0
-574,512,0,0,0,0,0,0,0,0,0,-1,650,512,0,0
-567,512,0,0,0,0,0,0,0,0,0,-1,657,512,0,0
-560,512,0,0,0,0,0,0,0,0,0,-1,664,512,0,0
-553,512,0,0,0,0,0,0,0,0,0,-1,671,512,0,0
-546,512,0,0,0,0,0,0,0,0,0,-1,678,512,0,0
-539,512,0,0,0,0,0,0,0,0,0,-1,685,512,0,0
-532,512,0,0,0,0,0,0,0,0,0,-1,692,512,0,0
-525,512,0,0,0,0,0,0,0,0,0,-1,699,512,0,0
-518,512,0,0,0,0,0,0,0,0,0,-1,706,512,0,0
-511,512,0,0,0,0,0,0,0,0,0,-1,713,512,0,0
-504,512,0,0,0,0,0,0,0,0,0,-1,720,512,0,0
-497,512,0,0,0,0,0,0,0,0,0,-1,727,512,0,0
-490,512,0,0,0,0,0,0,0,0,0,-1,734,512,0,0
-483,512,0,0,0,0,0,0,0,0,0,-1,741,512,0,0
-476,512,0,0,0,0,0,0,0,0,0,-1,748,512,0,0
-469,512,0,0,0,0,0,0,0,0,0,-1,755,512,0,0
-462,512,0,0,0,0,0,0,0,0,0,-1,762,512,0,0
-455,512,0,0,0,0,0,0,0,0,0,-1,769,512,0,0
-448,512,1.96283,-4.15674,0,0,0,0,0,0,0,-1,776,512,1.96285,4.15677
-441,512,1.78198,-4.88824,0,0,0,0,0,0,0,-1,783,512,1.78201,4.88826
-434,512,0.0726929,-9.85822,0,0,0,0,0,0,0,-1,790,512,0.0727008,9.85819
-427,512,-0.384583,-9.94824,0,0,0,0,0,0,0,-1,797,512,-0.384552,9.94823
-420,512,-2.54126,-12.1921,0,0,0,0,0,0,0,-1,804,512,-2.54126,12.1921
-413,512,-2.42139,-11.0782,0,0,0,0,0,0,0,-1,811,512,-2.42136,11.0782
-406,512,-2.16052,-11.8353,0,0,0,0,0,0,0,-1,818,512,-2.16052,11.8353
-399,512,-1.5426,-13.4142,0,0,0,0,0,0,0,-1,825,512,-1.54259,13.4142
-392,512,-1.45959,-13.8839,0.00499551,0.0123983,-0.011355,0.02064,-0.00324616,-0.942953,0.0149599,0.0400895,832,512,-1.4596,13.8839
-385,512,-1.43225,-14.3515,0.00437034,0.0101949,-0.00955104,0.0172678,-0.00270257,-0.933378,0.0125104,0.0202149,839,512,-1.43227,14.3515
-378,512,-1.44336,-14.8374,0.00376932,0.00834062,-0.00795864,0.0143353,-0.00222537,-0.92523,0.0103785,0.0152159,846,512,-1.44337,14.8374
-371,512,-1.44934,-15.371,0.00311558,0.00667985,-0.00647608,0.0116145,-0.0018191,-0.919668,0.00841519,0.0125261,853,512,-1.44932,15.371
-364,512,-1.46069,-15.933,0.00245998,0.0052255,-0.00507404,0.00910182,-0.00141634,-0.918426,0.00659091,0.00993564,860,512,-1.46068,15.9331
-357,512,-1.47174,-16.3979,0.00190125,0.00404675,-0.00387308,0.0069929,-0.00104489,-0.9205,0.00504642,0.010452,867,512,-1.47175,16.3979
-350,512,-1.48633,-16.8755,0.00146176,0.00301651,-0.00285332,0.00519646,-0.00071819,-0.918393,0.00372684,0.0112371,874,512,-1.48633,16.8755
-343,512,-1.54047,-17.3434,0.00112801,0.0019012,-0.00187424,0.00342831,-0.000399095,-0.887106,0.00242952,0.0129408,881,512,-1.54047,17.3434
-336,512,-1.57245,-17.8067,0.000907091,0.00103655,-0.00110557,0.00207928,-0.000135645,-0.814639,0.00143355,0.0137562,888,512,-1.57247,17.8067
-329,512,-1.55432,-18.2562,0.000832285,0.000116513,-0.000437366,0.00103953,-9.07309e-05,-0.442506,0.000725157,0.0151148,895,512,-1.5543,18.2562
-322,512,-1.55518,-18.7263,0.000904161,-0.000638787,8.89701e-05,0.000909274,-0.0006439,0.0574088,0.000901078,0.012509,902,512,-1.55516,18.7263
-315,512,-1.56409,-19.209,0.0010966,-0.00125306,0.000556864,0.0012219,-0.00137836,0.221314,0.00150216,0.0107418,909,512,-1.56411,19.209
-308,512,-1.59088,-19.6567,0.00139687,-0.00187362,0.00101202,0.0016847,-0.00216144,0.277093,0.00222625,0.0107036,916,512,-1.5909,19.6567
-301,512,-1.60358,-20.0817,0.00166025,-0.00274239,0.00154752,0.00214977,-0.00323191,0.306366,0.00312798,0.0147091,923,512,-1.60357,20.0817
-294,512,-1.59009,-20.4822,0.00180646,-0.00416437,0.00222353,0.00254352,-0.00490142,0.320081,0.00436961,0.0146796,930,512,-1.59007,20.4822
-287,512,-1.66412,-20.8589,0.00214303,-0.00543187,0.00286272,0.00310321,-0.00639204,0.323615,0.00559063,0.0235349,937,512,-1.66414,20.8589
-280,512,-1.58557,-21.3647,0.00268353,-0.00770234,0.00365839,0.00384279,-0.0088616,0.306868,0.00752325,0.039459,944,512,-1.58556,21.3647
-273,512,-1.29773,-21.8986,0,0,0,0,0,0,0,-1,951,512,-1.29772,21.8986
-266,512,-1.59241,-22.3287,0,0,0,0,0,0,0,-1,958,512,-1.5924,22.3287
-259,512,-0.525452,-14.0815,0,0,0,0,0,0,0,-1,965,512,-0.525475,14.0815
-252,512,1.45941,-3.43475,0,0,0,0,0,0,0,-1,972,512,1.45938,3.43475
-245,512,4.12927,-11.272,0,0,0,0,0,0,0,-1,979,512,4.1293,11.272
-238,512,0.227051,-8.92969,0,0,0,0,0,0,0,-1,986,512,0.227073,8.92968
-231,512,-2.54437,-10.169,0,0,0,0,0,0,0,-1,993,512,-2.54439,10.169
-224,512,-4.84601,-7.52783,0,0,0,0,0,0,0,-1,1000,512,-4.84602,7.52786
-217,512,-7.37274,-3.89563,0,0,0,0,0,0,0,-1,1007,512,-7.37274,3.89561
-210,512,-3.76642,-1.94702,0,0,0,0,0,0,0,-1,1014,512,-3.76641,1.94702
-203,512,-2.48328,-5.19061,0,0,0,0,0,0,0,-1,1021,512,-2.48328,5.19059
-196,512,-1.14929,-4.63202,0,0,0,0,0,0,0,-1,1028,512,-1.14934,4.632
-189,512,0.197998,4.55505,0,0,0,0,0,0,0,-1,1035,512,0.197996,-4.55506
-182,512,2.73938,0.0778503,0,0,0,0,0,0,0,-1,1042,512,2.73944,-0.077852
-175,512,2.29565,0.209808,0,0,0,0,0,0,0,-1,1049,512,2.29565,-0.209813
-168,512,2.09399,-0.302856,0,0,0,0,0,0,0,-1,1056,512,2.09403,0.302826
-161,512,2.76636,0.0921021,0,0,0,0,0,0,0,-1,1063,512,2.76633,-0.0921104
-154,512,3.41382,0.466187,0,0,0,0,0,0,0,-1,1070,512,3.41382,-0.466178
-147,512,0,0,0,0,0,0,0,0,0,-1,1077,512,0,0
-140,512,0,0,0,0,0,0,0,0,0,-1,1084,512,0,0
-133,512,0,0,0,0,0,0,0,0,0,-1,1091,512,0,0
-126,512,0,0,0,0,0,0,0,0,0,-1,1098,512,0,0
-119,512,0,0,0,0,0,0,0,0,0,-1,1105,512,0,0
-112,512,0,0,0,0,0,0,0,0,0,-1,1112,512,0,0
-105,512,0,0,0,0,0,0,0,0,0,-1,1119,512,0,0
-98,512,0,0,0,0,0,0,0,0,0,-1,1126,512,0,0
-91,512,0,0,0,0,0,0,0,0,0,-1,1133,512,0,0
-84,512,0,0,0,0,0,0,0,0,0,-1,1140,512,0,0
-77,512,0,0,0,0,0,0,0,0,0,-1,1147,512,0,0
-70,512,0,0,0,0,0,0,0,0,0,-1,1154,512,0,0
-63,512,0,0,0,0,0,0,0,0,0,-1,1161,512,0,0
-56,512,0,0,0,0,0,0,0,0,0,-1,1168,512,0,0
-49,512,0,0,0,0,0,0,0,0,0,-1,1175,512,0,0
-42,512,0,0,0,0,0,0,0,0,0,-1,1182,512,0,0
-35,512,0,0,0,0,0,0,0,0,0,-1,1189,512,0,0
-28,512,0,0,0,0,0,0,0,0,0,-1,1196,512,0,0
-21,512,0,0,0,0,0,0,0,0,0,-1,1203,512,0,0
-14,512,0,0,0,0,0,0,0,0,0,-1,1210,512,0,0
-7,512,0,0,0,0,0,0,0,0,0,-1,1217,512,0,0
0,512,0,0,0,0,0,0,0,0,0,-1,1224,512,0,0
7,512,0,0,0,0,0,0,0,0,0,-1,1231,512,0,0
14,512,0,0,0,0,0,0,0,0,0,-1,1238,512,0,0
21,512,0,0,0,0,0,0,0,0,0,-1,1245,512,0,0
28,512,0,0,0,0,0,0,0,0,0,-1,1252,512,0,0
35,512,0,0,0,0,0,0,0,0,0,-1,1259,512,0,0
42,512,0,0,0,0,0,0,0,0,0,-1,1266,512,0,0
49,512,0,0,0,0,0,0,0,0,0,-1,1273,512,0,0
56,512,0,0,0,0,0,0,0,0,0,-1,1280,512,0,0
63,512,0,0,0,0,0,0,0,0,0,-1,1287,512,0,0
70,512,0,0,0,0,0,0,0,0,0,-1,1294,512,0,0
77,512,0,0,0,0,0,0,0,0,0,-1,1301,512,0,0
84,512,0,0,0,0,0,0,0,0,0,-1,1308,512,0,0
91,512,0,0,0,0,0,0,0,0,0,-1,1315,512,0,0
98,512,0,0,0,0,0,0,0,0,0,-1,1322,512,0,0
105,512,0,0,0,0,0,0,0,0,0,-1,1329,512,0,0
112,512,0,0,0,0,0,0,0,0,0,-1,1336,512,0,0
119,512,0,0,0,0,0,0,0,0,0,-1,1343,512,0,0
126,512,0,0,0,0,0,0,0,0,0,-1,1350,512,0,0
133,512,0,0,0,0,0,0,0,0,0,-1,1357,512,0,0
140,512,0,0,0,0,0,0,0,0,0,-1,1364,512,0,0
147,512,0,0,0,0,0,0,0,0,0,-1,1371,512,0,0
154,512,0,0,0,0,0,0,0,0,0,-1,1378,512,0,0
161,512,0,0,0,0,0,0,0,0,0,-1,1385,512,0,0
168,512,0,0,0,0,0,0,0,0,0,-1,1392,512,0,0
175,512,0,0,0,0,0,0,0,0,0,-1,1399,512,0,0
182,512,0,0,0,0,0,0,0,0,0,-1,1406,512,0,0
189,512,0,0,0,0,0,0,0,0,0,-1,1413,512,0,0
196,512,0,0,0,0,0,0,0,0,0,-1,1420,512,0,0
203,512,0,0,0,0,0,0,0,0,0,-1,1427,512,0,0
210,512,0,0,0,0,0,0,0,0,0,-1,1434,512,0,0
217,512,0,0,0,0,0,0,0,0,0,-1,1441,512,0,0
224,512,0,0,0,0,0,0,0,0,0,-1,1448,512,0,0
231,512,0,0,0,0,0,0,0,0,0,-1,1455,512,0,0
238,512,0,0,0,0,0,0,0,0,0,-1,1462,512,0,0
245,512,0,0,0,0,0,0,0,0,0,-1,1469,512,0,0
252,512,0,0,0,0,0,0,0,0,0,-1,1476,512,0,0
259,512,0,0,0,0,0,0,0,0,0,-1,1483,512,0,0
266,512,0,0,0,0,0,0,0,0,0,-1,1490,512,0,0
273,512,4.00745,0.618622,0,0,0,0,0,0,0,-1,1497,512,4.00747,-0.618611
280,512,4.49609,0.649841,0,0,0,0,0,0,0,-1,1504,512,4.49612,-0.649834
287,512,4.77234,0.458069,0,0,0,0,0,0,0,-1,1511,512,4.77233,-0.458083
294,512,8.54956,-2.36273,0,0,0,0,0,0,0,-1,1518,512,8.54952,2.36274
301,512,6.302,-1.69092,0,0,0,0,0,0,0,-1,1525,512,6.30196,1.69093
308,512,8.2439,-6.22754,0,0,0,0,0,0,0,-1,1532,512,8.24394,6.22757
315,512,7.53687,-6.04211,0,0,0,0,0,0,0,-1,1539,512,7.53691,6.04211
322,512,6.82983,-5.85663,0,0,0,0,0,0,0,-1,1546,512,6.82988,5.85666
329,512,4.38147,-0.329651,0,0,0,0,0,0,0,-1,1553,512,4.38144,0.329662
336,512,4.41467,-0.741455,0,0,0,0,0,0,0,-1,1560,512,4.41467,0.741442
343,512,4.44727,-1.21667,0,0,0,0,0,0,0,-1,1567,512,4.44732,1.21666
350,512,4.55469,-1.65082,0,0,0,0,0,0,0,-1,1574,512,4.5547,1.65083
357,512,5.79993,-2.67456,0,0,0,0,0,0,0,-1,1581,512,5.79991,2.67454
364,512,5.18298,-6.80133,0,0,0,0,0,0,0,-1,1588,512,5.18296,6.80132
371,512,5.28467,-7.69269,0,0,0,0,0,0,0,-1,1595,512,5.28464,7.69269
378,512,6.29407,-9.88055,0,0,0,0,0,0,0,-1,1602,512,6.29412,9.88057
385,512,6.45569,-9.32233,0,0,0,0,0,0,0,-1,1609,512,6.45565,9.3223
392,512,6.35522,-8.98425,0,0,0,0,0,0,0,-1,1616,512,6.35526,8.98422
399,512,7.5304,-12.1449,0,0,0,0,0,0,0,-1,1623,512,7.53042,12.1449
406,512,10.902,-20.3663,0,0,0,0,0,0,0,-1,1630,512,10.902,20.3663
413,512,10.9637,-19.8561,0,0,0,0,0,0,0,-1,1637,512,10.9637,19.8562
420,512,10.9303,-19.3726,0.00211137,0.000482922,-0.000440581,0.00222293,0.000371364,-0.247995,0.00137498,0.0264162,1644,512,10.9303,19.3726
427,512,10.9458,-18.8864,0.00191742,0.000533671,-0.00024585,0.0019598,0.000491289,-0.170712,0.00117745,0.0147569,1651,512,10.9458,18.8864
434,512,10.9237,-18.4206,0.00157657,0.000502247,-0.000153022,0.00159794,0.000480877,-0.138761,0.000946627,0.0114439,1658,512,10.9238,18.4206
441,512,10.8851,-17.9427,0.00135184,0.000508452,-2.67842e-05,0.00135269,0.000507602,-0.0317153,0.000789036,0.0129717,1665,512,10.8851,17.9428
448,512,10.8718,-17.4773,0.00120795,0.000424177,0.00014696,0.0012346,0.000397528,0.179388,0.000727697,0.00882226,1672,512,10.8718,17.4773
455,512,10.8578,-16.9838,0.000956115,0.000359663,0.000256045,0.00105095,0.000264827,0.354722,0.000631158,0.00870967,1679,512,10.8578,16.9837
462,512,10.8633,-16.4793,0.000719747,0.000203064,0.000386483,0.000926281,-3.47043e-06,0.490783,0.000618681,0.00960146,1686,512,10.8632,16.4793
469,512,10.863,-15.9936,0.000540408,-0.000136605,0.000561033,0.000857145,-0.000453342,0.513954,0.00076849,0.0111021,1693,512,10.863,15.9936
476,512,10.8479,-15.5042,0.000309446,-0.000552623,0.000729691,0.000725902,-0.000969079,0.518619,0.000981949,0.0138845,1700,512,10.8479,15.5041
483,512,10.8348,-14.9864,1.08006e-05,-0.00114236,0.000830821,0.000445511,-0.00157707,0.482059,0.00122714,0.012367,1707,512,10.8349,14.9864
490,512,10.8265,-14.4677,-0.000354066,-0.00198967,0.000922782,6.11477e-05,-0.00240488,0.422819,0.00162402,0.00995168,1714,512,10.8266,14.4677
497,512,10.803,-13.9553,-0.000740845,-0.00303316,0.000981127,-0.000378266,-0.00339574,0.353987,0.00214887,0.0116423,1721,512,10.803,13.9552
504,512,10.754,-13.424,-0.00117127,-0.00432715,0.000984249,-0.000889471,-0.00460896,0.278852,0.00282325,0.0132477,1728,512,10.7541,13.424
511,512,10.708,-12.8856,-0.00169218,-0.00583024,0.00093637,-0.00149016,-0.00603226,0.212492,0.00362827,0.0142674,1735,512,10.7081,12.8856
518,512,10.7407,-12.3618,-0.00233248,-0.00749678,0.000759624,-0.00222306,-0.0076062,0.143056,0.00451601,0.0181446,1742,512,10.7407,12.3618
525,512,10.6158,-12.0895,0,0,0,0,0,0,0,-1,1749,512,10.6158,12.0895
532,512,10.6642,-11.6302,0,0,0,0,0,0,0,-1,1756,512,10.6641,11.6302
539,512,7.05908,-7.00647,0,0,0,0,0,0,0,-1,1763,512,7.05909,7.00647
546,512,2.77551,-0.66449,0,0,0,0,0,0,0,-1,1770,512,2.77548,0.664503
553,512,3.927,-0.448853,0,0,0,0,0,0,0,-1,1777,512,3.92704,0.448843
560,512,3.55762,-0.201233,0,0,0,0,0,0,0,-1,1784,512,3.55768,0.201259
567,512,3.09045,0.191193,0,0,0,0,0,0,0,-1,1791,512,3.09045,-0.191203
574,512,0,0,0,0,0,0,0,0,0,-1,1798,512,0,0
581,512,0,0,0,0,0,0,0,0,0,-1,1805,512,0,0
588,512,0,0,0,0,0,0,0,0,0,-1,1812,512,0,0
595,512,0,0,0,0,0,0,0,0,0,-1,1819,512,0,0
602,512,0,0,0,0,0,0,0,0,0,-1,1826,512,0,0
609,512,0,0,0,0,0,0,0,0,0,-1,1833,512,0,0
616,512,0,0,0,0,0,0,0,0,0,-1,1840,512,0,0
623,512,0,0,0,0,0,0,0,0,0,-1,1847,512,0,0
630,512,0,0,0,0,0,0,0,0,0,-1,1854,512,0,0
637,512,0,0,0,0,0,0,0,0,0,-1,1861,512,0,0
644,512,0,0,0,0,0,0,0,0,0,-1,1868,512,0,0
651,512,0,0,0,0,0,0,0,0,0,-1,1875,512,0,0
658,512,0,0,0,0,0,0,0,0,0,-1,1882,512,0,0
665,512,0,0,0,0,0,0,0,0,0,-1,1889,512,0,0
672,512,0,0,0,0,0,0,0,0,0,-1,1896,512,0,0
679,512,0,0,0,0,0,0,0,0,0,-1,1903,512,0,0
686,512,0,0,0,0,0,0,0,0,0,-1,1910,512,0,0
693,512,0,0,0,0,0,0,0,0,0,-1,1917,512,0,0
700,512,0,0,0,0,0,0,0,0,0,-1,1924,512,0,0
707,512,0,0,0,0,0,0,0,0,0,-1,1931,512,0,0
714,512,0,0,0,0,0,0,0,0,0,-1,1938,512,0,0
721,512,0,0,0,0,0,0,0,0,0,-1,1945,512,0,0
728,512,0,0,0,0,0,0,0,0,0,-1,1952,512,0,0
735,512,0,0,0,0,0,0,0,0,0,-1,1959,512,0,0
742,512,0,0,0,0,0,0,0,0,0,-1,1966,512,0,0
749,512,0,0,0,0,0,0,0,0,0,-1,1973,512,0,0
756,512,0,0,0,0,0,0,0,0,0,-1,1980,512,0,0
763,512,0,0,0,0,0,0,0,0,0,-1,1987,512,0,0
770,512,0,0,0,0,0,0,0,0,0,-1,1994,512,0,0
777,512,0,0,0,0,0,0,0,0,0,-1,2001,512,0,0
784,512,0,0,0,0,0,0,0,0,0,-1,2008,512,0,0
791,512,0,0,0,0,0,0,0,0,0,-1,2015,512,0,0
798,512,0,0,0,0,0,0,0,0,0,-1,2022,512,0,0
805,512,0,0,0,0,0,0,0,0,0,-1,2029,512,0,0
812,512,0,0,0,0,0,0,0,0,0,-1,2036,512,0,0
-700,505,0,0,0,0,0,0,0,0,0,-1,524,519,0,0
-693,505,0,0,0,0,0,0,0,0,0,-1,531,519,0,0
-686,505,0,0,0,0,0,0,0,0,0,-1,538,519,0,0
-679,505,0,0,0,0,0,0,0,0,0,-1,545,519,0,0
-672,505,0,0,0,0,0,0,0,0,0,-1,552,519,0,0
-665,505,0,0,0,0,0,0,0,0,0,-1,559,519,0,0
-658,505,0,0,0,0,0,0,0,0,0,-1,566,519,0,0
-651,505,0,0,0,0,0,0,0,0,0,-1,573,519,0,0
-644,505,0,0,0,0,0,0,0,0,0,-1,580,519,0,0
-637,505,0,0,0,0,0,0,0,0,0,-1,587,519,0,0
-630,505,0,0,0,0,0,0,0,0,0,-1,594,519,0,0
-623,505,0,0,0,0,0,0,0,0,0,-1,601,519,0,0
-616,505,0,0,0,0,0,0,0,0,0,-1,608,519,0,0
-609,505,0,0,0,0,0,0,0,0,0,-1,615,519,0,0
-602,505,0,0,0,0,0,0,0,0,0,-1,622,519,0,0
-595,505,0,0,0,0,0,0,0,0,0,-1,629,519,0,0
-588,505,0,0,0,0,0,0,0,0,0,-1,636,519,0,0
-581,505,0,0,0,0,0,0,0,0,0,-1,643,519,0,0
-574,505,0,0,0,0,0,0,0,0,0,-1,650,519,0,0
-567,505,0,0,0,0,0,0,0,0,0,-1,657,519,0,0
-560,505,0,0,0,0,0,0,0,0,0,-1,664,519,0,0
-553,505,0,0,0,0,0,0,0,0,0,-1,671,519,0,0
-546,505,0,0,0,0,0,0,0,0,0,-1,678,519,0,0
-539,505,0,0,0,0,0,0,0,0,0,-1,685,519,0,0
-532,505,0,0,0,0,0,0,0,0,0,-1,692,519,0,0
-525,505,0,0,0,0,0,0,0,0,0,-1,699,519,0,0
-518,505,0,0,0,0,0,0,0,0,0,-1,706,519,0,0
-511,505,0,0,0,0,0,0,0,0,0,-1,713,519,0,0
-504,505,0,0,0,0,0,0,0,0,0,-1,720,519,0,0
-497,505,0,0,0,0,0,0,0,0,0,-1,727,519,0,0
-490,505,0,0,0,0,0,0,0,0,0,-1,734,519,0,0
-483,505,0,0,0,0,0,0,0,0,0,-1,741,519,0,0
-476,505,0,0,0,0,0,0,0,0,0,-1,748,519,0,0
-469,505,0,0,0,0,0,0,0,0,0,-1,755,519,0,0
-462,505,0,0,0,0,0,0,0,0,0,-1,762,519,0,0
-455,505,2.72137,-3.26379,0,0,0,0,0,0,0,-1,769,519,2.72135,3.26377
-448,505,2.51111,-3.94989,0,0,0,0,0,0,0,-1,776,519,2.51112,3.94986
-441,505,2.80212,-6.8902,0,0,0,0,0,0,0,-1,783,519,2.80209,6.89019
-434,505,-0.155212,-10.6374,0,0,0,0,0,0,0,-1,790,519,-0.155194,10.6374
-427,505,-0.474426,-10.4702,0,0,0,0,0,0,0,-1,797,519,-0.474433,10.4702
-420,505,-0.922546,-10.1928,0,0,0,0,0,0,0,-1,804,519,-0.92257,10.1928
-413,505,-2.85608,-12.5858,0,0,0,0,0,0,0,-1,811,519,-2.8561,12.5858
-406,505,-1.92731,-12.3906,0,0,0,0,0,0,0,-1,818,519,-1.92733,12.3907
-399,505,-1.91302,-13.0577,0.0034218,0.0121889,-0.0101015,0.018817,-0.00320626,-0.990112,0.0137387,0.0489028,825,519,-1.91302,13.0577
-392,505,-1.86554,-13.7885,0.0032749,0.0101027,-0.00886629,0.0161896,-0.00281202,-0.969172,0.0118423,0.0217395,832,519,-1.86555,13.7884
-385,505,-1.90369,-14.3642,0.00306286,0.00815048,-0.00749162,0.0135184,-0.00230505,-0.949068,0.00987073,0.00964363,839,519,-1.90366,14.3642
-378,505,-1.94562,-14.8564,0.00284679,0.00655861,-0.00628885,0.0112597,-0.00185429,-0.928881,0.00819479,0.011198,846,519,-1.94561,14.8564
-371,505,-1.93671,-15.401,0.00249139,0.00506008,-0.00511504,0.00904956,-0.00149809,-0.908401,0.00658941,0.0140704,853,519,-1.93668,15.401
-364,505,-1.95331,-15.9225,0.00207772,0.00370742,-0.00395496,0.0069306,-0.00114546,-0.886992,0.00504575,0.0151614,860,519,-1.95333,15.9225
-357,505,-1.93878,-16.3959,0.00173824,0.00264225,-0.002934,0.00515886,-0.000778376,-0.861826,0.0037259,0.0120945,867,519,-1.93876,16.3959
-350,505,-1.96027,-16.8677,0.00148484,0.00173301,-0.00206805,0.00368069,-0.000462841,-0.815364,0.00262173,0.011675,874,519,-1.96028,16.8677
-343,505,-1.99988,-17.3395,0.00126751,0.000679141,-0.00118862,0.00219781,-0.000251153,-0.664084,0.0015557,0.0101481,881,519,-1.99988,17.3395
-336,505,-2.02734,-17.7941,0.00113823,-0.000163046,-0.000484388,0.00129874,-0.000323556,-0.31998,0.000991438,0.0124883,888,519,-2.02733,17.7941
-329,505,-2.02649,-18.2369,0.00118107,-0.000981685,9.46976e-05,0.00118521,-0.000985824,0.0436742,0.00125521,0.0174224,895,519,-2.0265,18.2369
-322,505,-2.03314,-18.7267,0.00132793,-0.00169897,0.000595572,0.0014409,-0.00181194,0.187453,0.0018821,0.0192506,902,519,-2.03315,18.7268
-315,505,-2.03827,-19.2012,0.00157368,-0.00231884,0.0010466,0.00183724,-0.0025824,0.246695,0.00256374,0.0144711,909,519,-2.0383,19.2013
-308,505,-2.05603,-19.6254,0.00192944,-0.00296685,0.00153024,0.00236835,-0.00340575,0.279322,0.00335156,0.0118772,916,519,-2.05601,19.6254
-301,505,-2.05212,-20.0956,0.00222043,-0.00385552,0.00213237,0.00289409,-0.00452919,0.306002,0.00432035,0.0175784,923,519,-2.05214,20.0957
-294,505,-2.07043,-20.2799,0.00229929,-0.0053635,0.00289451,0.00326975,-0.00633396,0.323497,0.00563799,0.0388934,930,519,-2.07045,20.2799
-287,505,-2.099,-20.9521,0,0,0,0,0,0,0,-1,937,519,-2.099,20.9521
-280,505,-2.00134,-21.5855,0,0,0,0,0,0,0,-1,944,519,-2.00133,21.5855
-273,505,-0.0680542,-9.44867,0,0,0,0,0,0,0,-1,951,519,-0.0680462,9.44866
-266,505,-0.036377,-9.07922,0,0,0,0,0,0,0,-1,958,519,-0.0364055,9.0792
-259,505,0.10321,-6.69824,0,0,0,0,0,0,0,-1,965,519,0.103235,6.69826
-252,505,6.82312,-15.6972,0,0,0,0,0,0,0,-1,972,519,6.82314,15.6972
-245,505,4.26727,-12.9861,0,0,0,0,0,0,0,-1,979,519,4.2673,12.9861
-238,505,1.67432,-11.2307,0,0,0,0,0,0,0,-1,986,519,1.67429,11.2307
-231,505,-0.958435,-8.3075,0,0,0,0,0,0,0,-1,993,519,-0.958421,8.30751
-224,505,-3.69653,-5.12732,0,0,0,0,0,0,0,-1,1000,519,-3.69653,5.12733
-217,505,-6.34302,-1.65533,0,0,0,0,0,0,0,-1,1007,519,-6.34299,1.65535
-210,505,-3.06128,-0.396301,0,0,0,0,0,0,0,-1,1014,519,-3.06129,0.396294
-203,505,-4.26465,2.03607,0,0,0,0,0,0,0,-1,1021,519,-4.26462,-2.03606
-196,505,-5.47595,4.27295,0,0,0,0,0,0,0,-1,1028,519,-5.47597,-4.27292
-189,505,1.51526,5.56207,0,0,0,0,0,0,0,-1,1035,519,1.51523,-5.56209
-182,505,2.97815,7.5097,0,0,0,0,0,0,0,-1,1042,519,2.97812,-7.5097
-175,505,-2.38416,-2.17548,0,0,0,0,0,0,0,-1,1049,519,-2.38411,2.1755
-168,505,0,0,0,0,0,0,0,0,0,-1,1056,519,0,0
-161,505,0,0,0,0,0,0,0,0,0,-1,1063,519,0,0
-154,505,0,0,0,0,0,0,0,0,0,-1,1070,519,0,0
-147,505,0,0,0,0,0,0,0,0,0,-1,1077,519,0,0
-140,505,0,0,0,0,0,0,0,0,0,-1,1084,519,0,0
-133,505,0,0,0,0,0,0,0,0,0,-1,1091,519,0,0
-126,505,0,0,0,0,0,0,0,0,0,-1,1098,519,0,0
-119,505,0,0,0,0,0,0,0,0,0,-1,1105,519,0,0
-112,505,0,0,0,0,0,0,0,0,0,-1,1112,519,0,0
-105,505,0,0,0,0,0,0,0,0,0,-1,1119,519,0,0
-98,505,0,0,0,0,0,0,0,0,0,-1,1126,519,0,0
-91,505,0,0,0,0,0,0,0,0,0,-1,1133,519,0,0
-84,505,0,0,0,0,0,0,0,0,0,-1,1140,519,0,0
-77,505,0,0,0,0,0,0,0,0,0,-1,1147,519,0,0
-70,505,0,0,0,0,0,0,0,0,0,-1,1154,519,0,0
-63,505,0,0,0,0,0,0,0,0,0,-1,1161,519,0,0
-56,505,0,0,0,0,0,0,0,0,0,-1,1168,519,0,0
-49,505,0,0,0,0,0,0,0,0,0,-1,1175,519,0,0
-42,505,0,0,0,0,0,0,0,0,0,-1,1182,519,0,0
-35,505,0,0,0,0,0,0,0,0,0,-1,1189,519,0,0
-28,505,0,0,0,0,0,0,0,0,0,-1,1196,519,0,0
-21,505,0,0,0,0,0,0,0,0,0,-1,1203,519,0,0
-14,505,0,0,0,0,0,0,0,0,0,-1,1210,519,0,0
-7,505,0,0,0,0,0,0,0,0,0,-1,1217,519,0,0
0,505,0,0,0,0,0,0,0,0,0,-1,1224,519,0,0
7,505,0,0,0,0,0,0,0,0,0,-1,1231,519,0,0
14,505,0,0,0,0,0,0,0,0,0,-1,1238,519,0,0
21,505,0,0,0,0,0,0,0,0,0,-1,1245,519,0,0
28,505,0,0,0,0,0,0,0,0,0,-1,1252,519,0,0
35,505,0,0,0,0,0,0,0,0,0,-1,1259,519,0,0
42,505,0,0,0,0,0,0,0,0,0,-1,1266,519,0,0
49,505,0,0,0,0,0,0,0,0,0,-1,1273,519,0,0
56,505,0,0,0,0,0,0,0,0,0,-1,1280,519,0,0
63,505,0,0,0,0,0,0,0,0,0,-1,1287,519,0,0
70,505,0,0,0,0,0,0,0,0,0,-1,1294,519,0,0
77,505,0,0,0,0,0,0,0,0,0,-1,1301,519,0,0
84,505,0,0,0,0,0,0,0,0,0,-1,1308,519,0,0
91,505,0,0,0,0,0,0,0,0,0,-1,1315,519,0,0
98,505,0,0,0,0,0,0,0,0,0,-1,1322,519,0,0
105,505,0,0,0,0,0,0,0,0,0,-1,1329,519,0,0
112,505,0,0,0,0,0,0,0,0,0,-1,1336,519,0,0
119,505,0,0,0,0,0,0,0,0,0,-1,1343,519,0,0
126,505,0,0,0,0,0,0,0,0,0,-1,1350,519,0,0
133,505,0,0,0,0,0,0,0,0,0,-1,1357,519,0,0
140,505,0,0,0,0,0,0,0,0,0,-1,1364,519,0,0
147,505,0,0,0,0,0,0,0,0,0,-1,1371,519,0,0
154,505,0,0,0,0,0,0,0,0,0,-1,1378,519,0,0
161,505,0,0,0,0,0,0,0,0,0,-1,1385,519,0,0
168,505,0,0,0,0,0,0,0,0,0,-1,1392,519,0,0
175,505,0,0,0,0,0,0,0,0,0,-1,1399,519,0,0
182,505,0,0,0,0,0,0,0,0,0,-1,1406,519,0,0
189,505,0,0,0,0,0,0,0,0,0,-1,1413,519,0,0
196,505,0,0,0,0,0,0,0,0,0,-1,1420,519,0,0
203,505,0,0,0,0,0,0,0,0,0,-1,1427,519,0,0
210,505,0,0,0,0,0,0,0,0,0,-1,1434,519,0,0
217,505,0,0,0,0,0,0,0,0,0,-1,1441,519,0,0
224,505,0,0,0,0,0,0,0,0,0,-1,1448,519,0,0
231,505,0,0,0,0,0,0,0,0,0,-1,1455,519,0,0
238,505,0,0,0,0,0,0,0,0,0,-1,1462,519,0,0
245,505,0,0,0,0,0,0,0,0,0,-1,1469,519,0,0
252,505,0,0,0,0,0,0,0,0,0,-1,1476,519,0,0
259,505,0,0,0,0,0,0,0,0,0,-1,1483,519,0,0
266,505,0,0,0,0,0,0,0,0,0,-1,1490,519,0,0
273,505,0,0,0,0,0,0,0,0,0,-1,1497,519,0,0
280,505,0,0,0,0,0,0,0,0,0,-1,1504,519,0,0
287,505,4.39478,0.499512,0,0,0,0,0,0,0,-1,1511,519,4.39476,-0.499506
294,505,4.88867,0.0822754,0,0,0,0,0,0,0,-1,1518,519,4.88871,-0.0822748
301,505,4.82153,-0.0704346,0,0,0,0,0,0,0,-1,1525,519,4.82156,0.0704312
308,505,4.67761,-0.29187,0,0,0,0,0,0,0,-1,1532,519,4.67762,0.291845
315,505,8.44055,-6.54352,0,0,0,0,0,0,0,-1,1539,519,8.44059,6.54349
322,505,4.78955,-0.594116,0,0,0,0,0,0,0,-1,1546,519,4.78957,0.594096
329,505,5.16321,0.434631,0,0,0,0,0,0,0,-1,1553,519,5.16316,-0.434614
336,505,4.94495,-0.920471,0,0,0,0,0,0,0,-1,1560,519,4.945,0.920495
343,505,5.01855,-1.4823,0,0,0,0,0,0,0,-1,1567,519,5.01851,1.48227
350,505,5.33154,-1.77838,0,0,0,0,0,0,0,-1,1574,519,5.33152,1.77838
357,505,5.56567,-1.9425,0,0,0,0,0,0,0,-1,1581,519,5.56562,1.94248
364,505,5.85205,-2.6579,0,0,0,0,0,0,0,-1,1588,519,5.85211,2.65788
371,505,5.88477,-7.00922,0,0,0,0,0,0,0,-1,1595,519,5.88473,7.00924
378,505,5.44104,-7.10162,0,0,0,0,0,0,0,-1,1602,519,5.44099,7.10162
385,505,6.64661,-8.65015,0,0,0,0,0,0,0,-1,1609,519,6.64662,8.65014
392,505,6.34558,-8.3429,0,0,0,0,0,0,0,-1,1616,519,6.34554,8.34288
399,505,7.45898,-9.70386,0,0,0,0,0,0,0,-1,1623,519,7.45899,9.70388
406,505,7.08679,-9.4928,0,0,0,0,0,0,0,-1,1630,519,7.08678,9.49278
413,505,8.4032,-14.0308,0,0,0,0,0,0,0,-1,1637,519,8.4032,14.0308
420,505,11.4767,-19.6401,0,0,0,0,0,0,0,-1,1644,519,11.4766,19.6401
427,505,11.4221,-19.0236,0.00223173,0.000274159,-0.000595716,0.00239876,0.000107127,-0.27337,0.00156469,0.0294195,1651,519,11.4221,19.0235
434,505,11.387,-18.442,0.00182326,0.000215945,-0.000538062,0.00198675,5.24538e-05,-0.294986,0.00130737,0.0119511,1658,519,11.3869,18.442
441,505,11.387,-17.907,0.00160666,0.00025355,-0.000427395,0.00173035,0.000129859,-0.28171,0.00111281,0.0106327,1665,519,11.3869,17.9071
448,505,11.3761,-17.4346,0.0015545,0.000230233,-0.000200173,0.0015841,0.000200637,-0.14679,0.000995947,0.0106374,1672,519,11.3761,17.4346
455,505,11.373,-16.9522,0.00131905,0.00024947,-7.63835e-05,0.00132448,0.000244043,-0.0709345,0.000813928,0.0109409,1679,519,11.373,16.9522
462,505,11.3535,-16.462,0.00107676,0.000237298,6.38758e-05,0.00108159,0.000232465,0.075512,0.000657419,0.0109688,1686,519,11.3535,16.462
469,505,11.3378,-15.9854,0.000893788,6.4147e-05,0.000254089,0.000965422,-7.48652e-06,0.27479,0.000646124,0.0110184,1693,519,11.3378,15.9853
476,505,11.3171,-15.5089,0.000670718,-0.00020433,0.000442567,0.000855523,-0.000389135,0.395564,0.000735228,0.0114361,1700,519,11.3171,15.5089
483,505,11.3075,-14.9954,0.000391866,-0.000639389,0.00056076,0.000638028,-0.000885551,0.413651,0.0008835,0.0125111,1707,519,11.3074,14.9953
490,505,11.3007,-14.4757,2.24407e-05,-0.00126073,0.000647211,0.00029218,-0.00153047,0.394882,0.00113036,0.0120643,1714,519,11.3006,14.4757
497,505,11.2881,-13.9682,-0.000370511,-0.00197766,0.000732602,-8.66859e-05,-0.00226148,0.369616,0.00147961,0.0119406,1721,519,11.2881,13.9682
504,505,11.2599,-13.4423,-0.000818915,-0.00295603,0.000739119,-0.000588199,-0.00318675,0.302566,0.00195811,0.0126085,1728,519,11.2598,13.4423
511,505,11.2273,-12.9161,-0.00136982,-0.00405764,0.000665296,-0.00121416,-0.0042133,0.229838,0.00250426,0.0142391,1735,519,11.2273,12.9161
518,505,11.2721,-12.3824,-0.00205394,-0.00523826,0.00044367,-0.00199328,-0.00529892,0.135883,0.00309045,0.0214546,1742,519,11.2721,12.3824
525,505,11.248,-11.8916,0,0,0,0,0,0,0,-1,1749,519,11.2481,11.8916
532,505,10.8518,-11.335,0,0,0,0,0,0,0,-1,1756,519,10.8518,11.335
539,505,7.90369,-7.11932,0,0,0,0,0,0,0,-1,1763,519,7.90373,7.11932
546,505,7.94946,-6.64539,0,0,0,0,0,0,0,-1,1770,519,7.94947,6.64539
553,505,2.82837,0.162659,0,0,0,0,0,0,0,-1,1777,519,2.82841,-0.162672
560,505,3.66223,-0.479797,0,0,0,0,0,0,0,-1,1784,519,3.66219,0.47982
567,505,4.65271,-0.950256,0,0,0,0,0,0,0,-1,1791,519,4.65274,0.95028
574,505,5.54443,-1.19977,0,0,0,0,0,0,0,-1,1798,519,5.54443,1.19974
581,505,0,0,0,0,0,0,0,0,0,-1,1805,519,0,0
588,505,0,0,0,0,0,0,0,0,0,-1,1812,519,0,0
595,505,0,0,0,0,0,0,0,0,0,-1,1819,519,0,0
602,505,0,0,0,0,0,0,0,0,0,-1,1826,519,0,0
609,505,0,0,0,0,0,0,0,0,0,-1,1833,519,0,0
616,505,0,0,0,0,0,0,0,0,0,-1,1840,519,0,0
623,505,0,0,0,0,0,0,0,0,0,-1,1847,519,0,0
630,505,0,0,0,0,0,0,0,0,0,-1,1854,519,0,0
637,505,0,0,0,0,0,0,0,0,0,-1,1861,519,0,0
644,505,0,0,0,0,0,0,0,0,0,-1,1868,519,0,0
651,505,0,0,0,0,0,0,0,0,0,-1,1875,519,0,0
658,505,0,0,0,0,0,0,0,0,0,-1,1882,519,0,0
665,505,0,0,0,0,0,0,0,0,0,-1,1889,519,0,0
672,505,0,0,0,0,0,0,0,0,0,-1,1896,519,0,0
679,505,0,0,0,0,0,0,0,0,0,-1,1903,519,0,0
686,505,0,0,0,0,0,0,0,0,0,-1,1910,519,0,0
693,505,0,0,0,0,0,0,0,0,0,-1,1917,519,0,0
700,505,0,0,0,0,0,0,0,0,0,-1,1924,519,0,0
707,505,0,0,0,0,0,0,0,0,0,-1,1931,519,0,0
714,505,0,0,0,0,0,0,0,0,0,-1,1938,519,0,0
721,505,0,0,0,0,0,0,0,0,0,-1,1945,519,0,0
728,505,0,0,0,0,0,0,0,0,0,-1,1952,519,0,0
735,505,0,0,0,0,0,0,0,0,0,-1,1959,519,0,0
742,505,0,0,0,0,0,0,0,0,0,-1,1966,519,0,0
749,505,0,0,0,0,0,0,0,0,0,-1,1973,519,0,0
756,505,0,0,0,0,0,0,0,0,0,-1,1980,519,0,0
763,505,0,0,0,0,0,0,0,0,0,-1,1987,519,0,0
770,505,0,0,0,0,0,0,0,0,0,-1,1994,519,0,0
777,505,0,0,0,0,0,0,0,0,0,-1,2001,519,0,0
784,505,0,0,0,0,0,0,0,0,0,-1,2008,519,0,0
791,505,0,0,0,0,0,0,0,0,0,-1,2015,519,0,0
798,505,0,0,0,0,0,0,0,0,0,-1,2022,519,0,0
805,505,0,0,0,0,0,0,0,0,0,-1,2029,519,0,0
812,505,0,0,0,0,0,0,0,0,0,-1,2036,519,0,0
-700,498,0,0,0,0,0,0,0,0,0,-1,524,526,0,0
-693,498,0,0,0,0,0,0,0,0,0,-1,531,526,0,0
-686,498,0,0,0,0,0,0,0,0,0,-1,538,526,0,0
-679,498,0,0,0,0,0,0,0,0,0,-1,545,526,0,0
-672,498,0,0,0,0,0,0,0,0,0,-1,552,526,0,0
-665,498,0,0,0,0,0,0,0,0,0,-1,559,526,0,0
-658,498,0,0,0,0,0,0,0,0,0,-1,566,526,0,0
-651,498,0,0,0,0,0,0,0,0,0,-1,573,526,0,0
-644,498,0,0,0,0,0,0,0,0,0,-1,580,526,0,0
-637,498,0,0,0,0,0,0,0,0,0,-1,587,526,0,0
-630,498,0,0,0,0,0,0,0,0,0,-1,594,526,0,0
-623,498,0,0,0,0,0,0,0,0,0,-1,601,526,0,0
-616,498,0,0,0,0,0,0,0,0,0,-1,608,526,0,0
-609,498,0,0,0,0,0,0,0,0,0,-1,615,526,0,0
-602,498,0,0,0,0,0,0,0,0,0,-1,622,526,0,0
-595,498,0,0,0,0,0,0,0,0,0,-1,629,526,0,0
-588,498,0,0,0,0,0,0,0,0,0,-1,636,526,0,0
-581,498,0,0,0,0,0,0,0,0,0,-1,643,526,0,0
-574,498,0,0,0,0,0,0,0,0,0,-1,650,526,0,0
-567,498,0,0,0,0,0,0,0,0,0,-1,657,526,0,0
-560,498,0,0,0,0,0,0,0,0,0,-1,664,526,0,0
-553,498,0,0,0,0,0,0,0,0,0,-1,671,526,0,0
-546,498,0,0,0,0,0,0,0,0,0,-1,678,526,0,0
-539,498,0,0,0,0,0,0,0,0,0,-1,685,526,0,0
-532,498,0,0,0,0,0,0,0,0,0,-1,692,526,0,0
-525,498,0,0,0,0,0,0,0,0,0,-1,699,526,0,0
-518,498,0,0,0,0,0,0,0,0,0,-1,706,526,0,0
-511,498,0,0,0,0,0,0,0,0,0,-1,713,526,0,0
-504,498,0,0,0,0,0,0,0,0,0,-1,720,526,0,0
-497,498,0,0,0,0,0,0,0,0,0,-1,727,526,0,0
-490,498,0,0,0,0,0,0,0,0,0,-1,734,526,0,0
-483,498,0,0,0,0,0,0,0,0,0,-1,741,526,0,0
-476,498,0,0,0,0,0,0,0,0,0,-1,748,526,0,0
-469,498,0,0,0,0,0,0,0,0,0,-1,755,526,0,0
-462,498,6.81024,1.15515,0,0,0,0,0,0,0,-1,762,526,6.81026,-1.15514
-455,498,3.25757,-3.0592,0,0,0,0,0,0,0,-1,769,526,3.25754,3.05921
-448,498,3.05939,-3.74298,0,0,0,0,0,0,0,-1,776,526,3.05939,3.74296
-441,498,2.77191,-6.08209,0,0,0,0,0,0,0,-1,783,526,2.77189,6.08207
-434,498,2.10681,-6.95929,0,0,0,0,0,0,0,-1,790,526,2.10682,6.9593
-427,498,-0.368042,-10.7726,0,0,0,0,0,0,0,-1,797,526,-0.36807,10.7726
-420,498,-1.05035,-10.5142,0,0,0,0,0,0,0,-1,804,526,-1.05034,10.5142
-413,498,-2.5174,-11.3257,0,0,0,0,0,0,0,-1,811,526,-2.51742,11.3257
-406,498,-2.37848,-12.2037,0,0,0,0,0,0,0,-1,818,526,-2.37845,12.2037
-399,498,-2.30316,-13.1859,0.00197657,0.00988864,-0.00761464,0.0145136,-0.00264836,-1.02497,0.0106686,0.0254812,825,526,-2.30318,13.1859
-392,498,-2.37311,-13.8568,0.00205957,0.00803996,-0.00669077,0.0123783,-0.00227879,-0.99554,0.00910734,0.0124728,832,526,-2.3731,13.8568
-385,498,-2.39185,-14.3541,0.00213509,0.00633086,-0.00567477,0.0102831,-0.00181717,-0.96245,0.00753453,0.00899678,839,526,-2.39184,14.3541
-378,498,-2.40143,-14.8399,0.00218589,0.00494336,-0.00476127,0.0085215,-0.00139225,-0.92633,0.00619744,0.0101511,846,526,-2.40142,14.8399
-371,498,-2.40259,-15.36,0.00205986,0.0035863,-0.00382417,0.00672266,-0.00107651,-0.883893,0.00488035,0.0155217,853,526,-2.40259,15.3601
-364,498,-2.44519,-15.8923,0.00184443,0.00232621,-0.00285622,0.00495168,-0.000781042,-0.827468,0.0035899,0.0156515,860,526,-2.44521,15.8923
-357,498,-2.43518,-16.3731,0.00168712,0.00134976,-0.00199476,0.00352032,-0.000483439,-0.743218,0.00252351,0.0108748,867,526,-2.43516,16.3731
-350,498,-2.44513,-16.8265,0.0015893,0.000536897,-0.00126875,0.00243665,-0.000310445,-0.588824,0.00173718,0.0113661,874,526,-2.4451,16.8265
-343,498,-2.45557,-17.2952,0.00146642,-0.000449113,-0.000495807,0.00158714,-0.000569837,-0.238842,0.00129068,0.0117161,881,526,-2.45557,17.2952
-336,498,-2.46155,-17.7759,0.00140669,-0.00127523,0.000135103,0.00141348,-0.00128202,0.0502059,0.00155686,0.0148115,888,526,-2.46154,17.7759
-329,498,-2.46362,-18.2357,0.00154575,-0.00198236,0.000609022,0.00164792,-0.00208453,0.166214,0.00215984,0.0214544,895,526,-2.46361,18.2357
-322,498,-2.49786,-18.705,0.00174961,-0.00264918,0.00106446,0.00199366,-0.00289323,0.225374,0.00283734,0.0229321,902,526,-2.49784,18.705
-315,498,-2.5155,-19.1601,0.00202851,-0.00327714,0.00147362,0.00241033,-0.00365896,0.253525,0.00352874,0.0181529,909,526,-2.51548,19.1601
-308,498,-2.51862,-19.5956,0.00242625,-0.00393964,0.00195701,0.00297975,-0.00449314,0.275631,0.00434387,0.0207492,916,526,-2.51862,19.5956
-301,498,-2.4353,-20.1163,0.00273877,-0.00482304,0.00261659,0.00355589,-0.00564016,0.302687,0.00535461,0.0407969,923,526,-2.43531,20.1163
-294,498,-2.38202,-20.6525,0,0,0,0,0,0,0,-1,930,526,-2.38199,20.6524
-287,498,-0.91394,-13.4327,0,0,0,0,0,0,0,-1,937,526,-0.913935,13.4327
-280,498,-0.341614,-8.66608,0,0,0,0,0,0,0,-1,944,526,-0.341589,8.66606
-273,498,-0.988892,-8.62921,0,0,0,0,0,0,0,-1,951,526,-0.988906,8.62922
-266,498,0.362488,-6.33545,0,0,0,0,0,0,0,-1,958,526,0.362478,6.33547
-259,498,10.9454,-17.3615,0,0,0,0,0,0,0,-1,965,526,10.9454,17.3614
-252,498,8.56586,-14.6886,0,0,0,0,0,0,0,-1,972,526,8.56584,14.6886
-245,498,5.97382,-11.928,0,0,0,0,0,0,0,-1,979,526,5.97381,11.928
-238,498,2.24841,-13.8145,0,0,0,0,0,0,0,-1,986,526,2.24838,13.8145
-231,498,0.665894,-10.4898,0,0,0,0,0,0,0,-1,993,526,0.665863,10.4898
-224,498,-2.11243,-4.76312,0,0,0,0,0,0,0,-1,1000,526,-2.11245,4.76314
-217,498,-3.82239,-1.42841,0,0,0,0,0,0,0,-1,1007,526,-3.82241,1.42843
-210,498,-1.80591,-0.358215,0,0,0,0,0,0,0,-1,1014,526,-1.8059,0.3582
-203,498,-3.17316,1.06641,0,0,0,0,0,0,0,-1,1021,526,-3.17313,-1.0664
-196,498,-0.103271,5.40527,0,0,0,0,0,0,0,-1,1028,526,-0.103285,-5.40528
-189,498,3.00256,6.47137,0,0,0,0,0,0,0,-1,1035,526,3.00256,-6.47139
-182,498,0,0,0,0,0,0,0,0,0,-1,1042,526,0,0
-175,498,0,0,0,0,0,0,0,0,0,-1,1049,526,0,0
-168,498,0,0,0,0,0,0,0,0,0,-1,1056,526,0,0
-161,498,0,0,0,0,0,0,0,0,0,-1,1063,526,0,0
-154,498,0,0,0,0,0,0,0,0,0,-1,1070,526,0,0
-147,498,0,0,0,0,0,0,0,0,0,-1,1077,526,0,0
-140,498,0,0,0,0,0,0,0,0,0,-1,1084,526,0,0
-133,498,0,0,0,0,0,0,0,0,0,-1,1091,526,0,0
-126,498,0,0,0,0,0,0,0,0,0,-1,1098,526,0,0
-119,498,0,0,0,0,0,0,0,0,0,-1,1105,526,0,0
-112,498,0,0,0,0,0,0,0,0,0,-1,1112,526,0,0
-105,498,0,0,0,0,0,0,0,0,0,-1,1119,526,0,0
-98,498,0,0,0,0,0,0,0,0,0,-1,1126,526,0,0
-91,498,0,0,0,0,0,0,0,0,0,-1,1133,526,0,0
-84,498,0,0,0,0,0,0,0,0,0,-1,1140,526,0,0
-77,498,0,0,0,0,0,0,0,0,0,-1,1147,526,0,0
-70,498,0,0,0,0,0,0,0,0,0,-1,1154,526,0,0
-63,498,0,0,0,0,0,0,0,0,0,-1,1161,526,0,0
-56,498,0,0,0,0,0,0,0,0,0,-1,1168,526,0,0
-49,498,0,0,0,0,0,0,0,0,0,-1,1175,526,0,0
-42,498,0,0,0,0,0,0,0,0,0,-1,1182,526,0,0
-35,498,0,0,0,0,0,0,0,0,0,-1,1189,526,0,0
-28,498,0,0,0,0,0,0,0,0,0,-1,1196,526,0,0
-21,498,0,0,0,0,0,0,0,0,0,-1,1203,526,0,0
-14,498,0,0,0,0,0,0,0,0,0,-1,1210,526,0,0
-7,498,0,0,0,0,0,0,0,0,0,-1,1217,526,0,0
0,498,0,0,0,0,0,0,0,0,0,-1,1224,526,0,0
7,498,0,0,0,0,0,0,0,0,0,-1,1231,526,0,0
14,498,0,0,0,0,0,0,0,0,0,-1,1238,526,0,0
21,498,0,0,0,0,0,0,0,0,0,-1,1245,526,0,0
28,498,0,0,0,0,0,0,0,0,0,-1,1252,526,0,0
35,498,0,0,0,0,0,0,0,0,0,-1,1259,526,0,0
42,498,0,0,0,0,0,0,0,0,0,-1,1266,526,0,0
49,498,0,0,0,0,0,0,0,0,0,-1,1273,526,0,0
56,498,0,0,0,0,0,0,0,0,0,-1,1280,526,0,0
63,498,0,0,0,0,0,0,0,0,0,-1,1287,526,0,0
70,498,0,0,0,0,0,0,0,0,0,-1,1294,526,0,0
77,498,0,0,0,0,0,0,0,0,0,-1,1301,526,0,0
84,498,0,0,0,0,0,0,0,0,0,-1,1308,526,0,0
91,498,0,0,0,0,0,0,0,0,0,-1,1315,526,0,0
98,498,0,0,0,0,0,0,0,0,0,-1,1322,526,0,0
105,498,0,0,0,0,0,0,0,0,0,-1,1329,526,0,0
112,498,0,0,0,0,0,0,0,0,0,-1,1336,526,0,0
119,498,0,0,0,0,0,0,0,0,0,-1,1343,526,0,0
126,498,0,0,0,0,0,0,0,0,0,-1,1350,526,0,0
133,498,0,0,0,0,0,0,0,0,0,-1,1357,526,0,0
140,498,0,0,0,0,0,0,0,0,0,-1,1364,526,0,0
147,498,0,0,0,0,0,0,0,0,0,-1,1371,526,0,0
154,498,0,0,0,0,0,0,0,0,0,-1,1378,526,0,0
161,498,0,0,0,0,0,0,0,0,0,-1,1385,526,0,0
168,498,0,0,0,0,0,0,0,0,0,-1,1392,526,0,0
175,498,0,0,0,0,0,0,0,0,0,-1,1399,526,0,0
182,498,0,0,0,0,0,0,0,0,0,-1,1406,526,0,0
189,498,0,0,0,0,0,0,0,0,0,-1,1413,526,0,0
196,498,0,0,0,0,0,0,0,0,0,-1,1420,526,0,0
203,498,0,0,0,0,0,0,0,0,0,-1,1427,526,0,0
210,498,0,0,0,0,0,0,0,0,0,-1,1434,526,0,0
217,498,0,0,0,0,0,0,0,0,0,-1,1441,526,0,0
224,498,0,0,0,0,0,0,0,0,0,-1,1448,526,0,0
231,498,0,0,0,0,0,0,0,0,0,-1,1455,526,0,0
238,498,0,0,0,0,0,0,0,0,0,-1,1462,526,0,0
245,498,0,0,0,0,0,0,0,0,0,-1,1469,526,0,0
252,498,0,0,0,0,0,0,0,0,0,-1,1476,526,0,0
259,498,0,0,0,0,0,0,0,0,0,-1,1483,526,0,0
266,498,0,0,0,0,0,0,0,0,0,-1,1490,526,0,0
273,498,0,0,0,0,0,0,0,0,0,-1,1497,526,0,0
280,498,0,0,0,0,0,0,0,0,0,-1,1504,526,0,0
287,498,0,0,0,0,0,0,0,0,0,-1,1511,526,0,0
294,498,0,0,0,0,0,0,0,0,0,-1,1518,526,0,0
301,498,0,0,0,0,0,0,0,0,0,-1,1525,526,0,0
308,498,4.77942,-0.293884,0,0,0,0,0,0,0,-1,1532,526,4.77939,0.293899
315,498,4.56091,-0.564148,0,0,0,0,0,0,0,-1,1539,526,4.56097,0.564142
322,498,4.52344,-0.447266,0,0,0,0,0,0,0,-1,1546,526,4.52341,0.447295
329,498,4.63232,-0.156982,0,0,0,0,0,0,0,-1,1553,526,4.63238,0.156991
336,498,5.22644,0.0925903,0,0,0,0,0,0,0,-1,1560,526,5.22648,-0.0926188
343,498,6.22607,-1.67615,0,0,0,0,0,0,0,-1,1567,526,6.22605,1.67617
350,498,6.19373,-1.59906,0,0,0,0,0,0,0,-1,1574,526,6.19367,1.59906
357,498,6.21472,-1.58929,0,0,0,0,0,0,0,-1,1581,526,6.21476,1.58927
364,498,5.73547,-1.2019,0,0,0,0,0,0,0,-1,1588,526,5.73547,1.20192
371,498,3.27087,-4.55334,0,0,0,0,0,0,0,-1,1595,526,3.27089,4.55332
378,498,8.42944,-4.70624,0,0,0,0,0,0,0,-1,1602,526,8.42942,4.70624
385,498,4.7793,-5.15314,0,0,0,0,0,0,0,-1,1609,526,4.77935,5.15311
392,498,9.12439,-8.57953,0,0,0,0,0,0,0,-1,1616,526,9.12443,8.57955
399,498,7.98938,-9.46021,0,0,0,0,0,0,0,-1,1623,526,7.98936,9.4602
406,498,7.58081,-9.26819,0,0,0,0,0,0,0,-1,1630,526,7.58085,9.26817
413,498,7.17236,-9.07611,0,0,0,0,0,0,0,-1,1637,526,7.17234,9.07614
420,498,11.4314,-16.1147,0,0,0,0,0,0,0,-1,1644,526,11.4313,16.1147
427,498,11.6719,-18.9161,0,0,0,0,0,0,0,-1,1651,526,11.6719,18.9161
434,498,11.7805,-18.4377,0.00194604,-0.000163421,-0.00100984,0.00235152,-0.000568905,-0.381828,0.00178775,0.0345002,1658,526,11.7805,18.4377
441,498,11.8535,-17.9139,0.00174634,-7.35724e-05,-0.000910049,0.00212332,-0.000450554,-0.392724,0.00158719,0.0121379,1665,526,11.8535,17.9139
448,498,11.8752,-17.4115,0.00181283,-4.79437e-06,-0.000613896,0.00200075,-0.000192708,-0.297044,0.00140249,0.0106454,1672,526,11.8753,17.4115
455,498,11.879,-16.937,0.00163342,0.000150175,-0.000444384,0.00175637,2.72274e-05,-0.269917,0.00116194,0.014316,1679,526,11.879,16.937
462,498,11.859,-16.4591,0.00141418,0.000308359,-0.000269029,0.00147616,0.000246382,-0.226423,0.000913126,0.0157267,1686,526,11.8591,16.4591
469,498,11.832,-15.9821,0.00124867,0.000315034,-4.14369e-05,0.0012505,0.000313198,-0.0442665,0.000751352,0.0137323,1693,526,11.8321,15.9821
476,498,11.8168,-15.4872,0.00105044,0.000184719,0.000184527,0.00108813,0.000147028,0.201485,0.000681715,0.0101371,1700,526,11.8167,15.4873
483,498,11.7926,-14.9712,0.000805905,-0.000113384,0.000342222,0.000919313,-0.000226792,0.319998,0.000700813,0.00871276,1707,526,11.7926,14.9712
490,498,11.7789,-14.4857,0.00044512,-0.000536069,0.000443614,0.000615945,-0.000706894,0.367576,0.000764343,0.0111228,1714,526,11.7789,14.4856
497,498,11.7897,-13.973,6.19256e-05,-0.00098097,0.000571686,0.000314256,-0.0012333,0.415662,0.000944542,0.0121606,1721,526,11.7897,13.973
504,498,11.7731,-13.4401,-0.000388418,-0.00172776,0.00058895,-0.00016628,-0.00194989,0.360676,0.0012482,0.0135259,1728,526,11.7731,13.4401
511,498,11.746,-12.9007,-0.000957614,-0.00254542,0.000504522,-0.000810866,-0.00269217,0.283055,0.00159475,0.0148501,1735,526,11.7459,12.9007
518,498,11.7803,-12.3789,-0.00166106,-0.00339668,0.000274253,-0.00161876,-0.00343899,0.153048,0.00198664,0.017136,1742,526,11.7803,12.3789
525,498,11.6823,-11.8771,-0.00251135,-0.00446385,-0.000149938,-0.0024999,-0.0044753,-0.0761976,0.00258972,0.0258558,1749,526,11.6822,11.8771
532,498,11.5231,-11.3676,-0.00344309,-0.00551545,-0.000645152,-0.00325866,-0.00569988,-0.278445,0.00330209,0.043424,1756,526,11.523,11.3676
539,498,11.5481,-10.8519,0,0,0,0,0,0,0,-1,1763,526,11.5481,10.8519
546,498,10.2014,-8.47589,0,0,0,0,0,0,0,-1,1770,526,10.2014,8.47589
553,498,5.93958,-1.71448,0,0,0,0,0,0,0,-1,1777,526,5.93956,1.71447
560,498,3.69385,-0.615112,0,0,0,0,0,0,0,-1,1784,526,3.69381,0.615118
567,498,5.12695,-0.581604,0,0,0,0,0,0,0,-1,1791,526,5.12699,0.58159
574,498,3.88,0.0286255,0,0,0,0,0,0,0,-1,1798,526,3.87999,-0.0286535
581,498,10.8722,2.58551,0,0,0,0,0,0,0,-1,1805,526,10.8723,-2.58551
588,498,0,0,0,0,0,0,0,0,0,-1,1812,526,0,0
595,498,0,0,0,0,0,0,0,0,0,-1,1819,526,0,0
602,498,0,0,0,0,0,0,0,0,0,-1,1826,526,0,0
609,498,0,0,0,0,0,0,0,0,0,-1,1833,526,0,0
616,498,0,0,0,0,0,0,0,0,0,-1,1840,526,0,0
623,498,0,0,0,0,0,0,0,0,0,-1,1847,526,0,0
630,498,0,0,0,0,0,0,0,0,0,-1,1854,526,0,0
637,498,0,0,0,0,0,0,0,0,0,-1,1861,526,0,0
644,498,0,0,0,0,0,0,0,0,0,-1,1868,526,0,0
651,498,0,0,0,0,0,0,0,0,0,-1,1875,526,0,0
658,498,0,0,0,0,0,0,0,0,0,-1,1882,526,0,0
665,498,0,0,0,0,0,0,0,0,0,-1,1889,526,0,0
672,498,0,0,0,0,0,0,0,0,0,-1,1896,526,0,0
679,498,0,0,0,0,0,0,0,0,0,-1,1903,526,0,0
686,498,0,0,0,0,0,0,0,0,0,-1,1910,526,0,0
693,498,0,0,0,0,0,0,0,0,0,-1,1917,526,0,0
700,498,0,0,0,0,0,0,0,0,0,-1,1924,526,0,0
707,498,0,0,0,0,0,0,0,0,0,-1,1931,526,0,0
714,498,0,0,0,0,0,0,0,0,0,-1,1938,526,0,0
721,498,0,0,0,0,0,0,0,0,0,-1,1945,526,0,0
728,498,0,0,0,0,0,0,0,0,0,-1,1952,526,0,0
735,498,0,0,0,0,0,0,0,0,0,-1,1959,526,0,0
742,498,0,0,0,0,0,0,0,0,0,-1,1966,526,0,0
749,498,0,0,0,0,0,0,0,0,0,-1,1973,526,0,0
756,498,0,0,0,0,0,0,0,0,0,-1,1980,526,0,0
763,498,0,0,0,0,0,0,0,0,0,-1,1987,526,0,0
770,498,0,0,0,0,0,0,0,0,0,-1,1994,526,0,0
777,498,0,0,0,0,0,0,0,0,0,-1,2001,526,0,0
784,498,0,0,0,0,0,0,0,0,0,-1,2008,526,0,0
791,498,0,0,0,0,0,0,0,0,0,-1,2015,526,0,0
798,498,0,0,0,0,0,0,0,0,0,-1,2022,526,0,0
805,498,0,0,0,0,0,0,0,0,0,-1,2029,526,0,0
812,498,0,0,0,0,0,0,0,0,0,-1,2036,526,0,0
-700,491,0,0,0,0,0,0,0,0,0,-1,524,533,0,0
-693,491,0,0,0,0,0,0,0,0,0,-1,531,533,0,0
-686,491,0,0,0,0,0,0,0,0,0,-1,538,533,0,0
-679,491,0,0,0,0,0,0,0,0,0,-1,545,533,0,0
-672,491,0,0,0,0,0,0,0,0,0,-1,552,533,0,0
-665,491,0,0,0,0,0,0,0,0,0,-1,559,533,0,0
-658,491,0,0,0,0,0,0,0,0,0,-1,566,533,0,0
-651,491,0,0,0,0,0,0,0,0,0,-1,573,533,0,0
-644,491,0,0,0,0,0,0,0,0,0,-1,580,533,0,0
-637,491,0,0,0,0,0,0,0,0,0,-1,587,533,0,0
-630,491,0,0,0,0,0,0,0,0,0,-1,594,533,0,0
-623,491,0,0,0,0,0,0,0,0,0,-1,601,533,0,0
-616,491,0,0,0,0,0,0,0,0,0,-1,608,533,0,0
-609,491,0,0,0,0,0,0,0,0,0,-1,615,533,0,0
-602,491,0,0,0,0,0,0,0,0,0,-1,622,533,0,0
-595,491,0,0,0,0,0,0,0,0,0,-1,629,533,0,0
-588,491,0,0,0,0,0,0,0,0,0,-1,636,533,0,0
-581,491,0,0,0,0,0,0,0,0,0,-1,643,533,0,0
-574,491,0,0,0,0,0,0,0,0,0,-1,650,533,0,0
-567,491,0,0,0,0,0,0,0,0,0,-1,657,533,0,0
-560,491,0,0,0,0,0,0,0,0,0,-1,664,533,0,0
-553,491,0,0,0,0,0,0,0,0,0,-1,671,533,0,0
-546,491,0,0,0,0,0,0,0,0,0,-1,678,533,0,0
-539,491,0,0,0,0,0,0,0,0,0,-1,685,533,0,0
-532,491,0,0,0,0,0,0,0,0,0,-1,692,533,0,0
-525,491,0,0,0,0,0,0,0,0,0,-1,699,533,0,0
-518,491,0,0,0,0,0,0,0,0,0,-1,706,533,0,0
-511,491,0,0,0,0,0,0,0,0,0,-1,713,533,0,0
-504,491,0,0,0,0,0,0,0,0,0,-1,720,533,0,0
-497,491,0,0,0,0,0,0,0,0,0,-1,727,533,0,0
-490,491,0,0,0,0,0,0,0,0,0,-1,734,533,0,0
-483,491,0,0,0,0,0,0,0,0,0,-1,741,533,0,0
-476,491,0,0,0,0,0,0,0,0,0,-1,748,533,0,0
-469,491,-5.85913,4.55011,0,0,0,0,0,0,0,-1,755,533,-5.8591,-4.55009
-462,491,-9.93713,4.90381,0,0,0,0,0,0,0,-1,762,533,-9.93716,-4.9038
-455,491,1.9494,-0.27887,0,0,0,0,0,0,0,-1,769,533,1.94941,0.27885
-448,491,2.68909,-1.8999,0,0,0,0,0,0,0,-1,776,533,2.6891,1.89988
-441,491,3.46069,-3.51855,0,0,0,0,0,0,0,-1,783,533,3.46071,3.51854
-434,491,2.67145,-7.44061,0,0,0,0,0,0,0,-1,790,533,2.67146,7.44061
-427,491,2.27136,-8.34546,0,0,0,0,0,0,0,-1,797,533,2.27136,8.34546
-420,491,-1.52142,-8.1123,0,0,0,0,0,0,0,-1,804,533,-1.52142,8.11228
-413,491,-2.8075,-12.3735,0,0,0,0,0,0,0,-1,811,533,-2.80748,12.3735
-406,491,-2.89648,-12.7133,0,0,0,0,0,0,0,-1,818,533,-2.89649,12.7132
-399,491,-2.80017,-13.3967,0.000990837,0.00781607,-0.0055635,0.0109302,-0.0021233,-1.0605,0.00808801,0.0116429,825,533,-2.80016,13.3967
-392,491,-2.85553,-13.9117,0.00124126,0.00618973,-0.00487291,0.00918058,-0.00174958,-1.02031,0.00677926,0.0105755,832,533,-2.85553,13.9118
-385,491,-2.86731,-14.3766,0.00149667,0.00471194,-0.00411734,0.00752437,-0.00131577,-0.971524,0.00550748,0.00962306,839,533,-2.86733,14.3766
-378,491,-2.86761,-14.8516,0.00172135,0.00349221,-0.0034237,0.00614313,-0.000929563,-0.911934,0.00443784,0.0132811,846,533,-2.86762,14.8515
-371,491,-2.8866,-15.3484,0.00176634,0.00227059,-0.00267437,0.00470469,-0.000667761,-0.832397,0.0033811,0.0138231,853,533,-2.88658,15.3484
-364,491,-2.91632,-15.8656,0.001711,0.0011195,-0.0018682,0.00330672,-0.000476214,-0.706897,0.00237916,0.012912,860,533,-2.91634,15.8656
-357,491,-2.91888,-16.3309,0.00170777,0.000233381,-0.00114947,0.00233613,-0.00039498,-0.50027,0.0017044,0.0115444,867,533,-2.91886,16.3309
-350,491,-2.9295,-16.7814,0.00175072,-0.00048785,-0.000555642,0.00188105,-0.00061818,-0.230392,0.00150308,0.0145485,874,533,-2.92951,16.7814
-343,491,-2.89526,-17.2421,0.00172865,-0.00138101,9.39863e-05,0.00173149,-0.00138385,0.0301872,0.00180237,0.0220258,881,533,-2.89528,17.2421
-336,491,-2.91669,-17.7103,0.00176092,-0.00218771,0.000632857,0.00185987,-0.00228666,0.155099,0.00239823,0.0227659,888,533,-2.91668,17.7103
-329,491,-2.95721,-18.1899,0.00203248,-0.00277937,0.000981168,0.00222486,-0.00297175,0.193612,0.00301057,0.0248387,895,533,-2.95719,18.1899
-322,491,-2.96387,-18.6401,0.00234188,-0.0033913,0.0013672,0.00265123,-0.00370065,0.222516,0.0036839,0.0220707,902,533,-2.96389,18.6401
-315,491,-3.01117,-19.0649,0.00270075,-0.004085,0.00171773,0.0031108,-0.00449504,0.234328,0.00441541,0.0217694,909,533,-3.01119,19.065
-308,491,-2.96887,-19.6622,0,0,0,0,0,0,0,-1,916,533,-2.9689,19.6622
-301,491,-2.91956,-20.4821,0,0,0,0,0,0,0,-1,923,533,-2.91957,20.4821
-294,491,-0.777283,-8.60913,0,0,0,0,0,0,0,-1,930,533,-0.777288,8.6091
-287,491,-0.26123,-8.69055,0,0,0,0,0,0,0,-1,937,533,-0.261204,8.69053
-280,491,0.2948,-5.99219,0,0,0,0,0,0,0,-1,944,533,0.294811,5.99221
-273,491,0.369995,-5.33691,0,0,0,0,0,0,0,-1,951,533,0.369985,5.33693
-266,491,1.1167,-5.0321,0,0,0,0,0,0,0,-1,958,533,1.11668,5.0321
-259,491,12.0862,-16.9615,0,0,0,0,0,0,0,-1,965,533,12.0862,16.9615
-252,491,9.72443,-13.8417,0,0,0,0,0,0,0,-1,972,533,9.72444,13.8418
-245,491,5.27258,-14.3619,0,0,0,0,0,0,0,-1,979,533,5.27255,14.3619
-238,491,3.65381,-11.1472,0,0,0,0,0,0,0,-1,986,533,3.6538,11.1472
-231,491,2.17719,-7.86835,0,0,0,0,0,0,0,-1,993,533,2.17719,7.86832
-224,491,0.554626,-4.61725,0,0,0,0,0,0,0,-1,1000,533,0.554608,4.61727
-217,491,-2.92743,-1.0766,0,0,0,0,0,0,0,-1,1007,533,-2.92743,1.07659
-210,491,-0.92395,0.374512,0,0,0,0,0,0,0,-1,1014,533,-0.923959,-0.374531
-203,491,0.417419,4.77161,0,0,0,0,0,0,0,-1,1021,533,0.417446,-4.77162
-196,491,0,0,0,0,0,0,0,0,0,-1,1028,533,0,0
-189,491,0,0,0,0,0,0,0,0,0,-1,1035,533,0,0
-182,491,0,0,0,0,0,0,0,0,0,-1,1042,533,0,0
-175,491,0,0,0,0,0,0,0,0,0,-1,1049,533,0,0
-168,491,0,0,0,0,0,0,0,0,0,-1,1056,533,0,0
-161,491,0,0,0,0,0,0,0,0,0,-1,1063,533,0,0
-154,491,0,0,0,0,0,0,0,0,0,-1,1070,533,0,0
-147,491,0,0,0,0,0,0,0,0,0,-1,1077,533,0,0
-140,491,0,0,0,0,0,0,0,0,0,-1,1084,533,0,0
-133,491,0,0,0,0,0,0,0,0,0,-1,1091,533,0,0
-126,491,0,0,0,0,0,0,0,0,0,-1,1098,533,0,0
-119,491,0,0,0,0,0,0,0,0,0,-1,1105,533,0,0
-112,491,0,0,0,0,0,0,0,0,0,-1,1112,533,0,0
-105,491,0,0,0,0,0,0,0,0,0,-1,1119,533,0,0
-98,491,0,0,0,0,0,0,0,0,0,-1,1126,533,0,0
-91,491,0,0,0,0,0,0,0,0,0,-1,1133,533,0,0
-84,491,0,0,0,0,0,0,0,0,0,-1,1140,533,0,0
-77,491,0,0,0,0,0,0,0,0,0,-1,1147,533,0,0
-70,491,0,0,0,0,0,0,0,0,0,-1,1154,533,0,0
-63,491,0,0,0,0,0,0,0,0,0,-1,1161,533,0,0
-56,491,0,0,0,0,0,0,0,0,0,-1,1168,533,0,0
-49,491,0,0,0,0,0,0,0,0,0,-1,1175,533,0,0
-42,491,0,0,0,0,0,0,0,0,0,-1,1182,533,0,0
-35,491,0,0,0,0,0,0,0,0,0,-1,1189,533,0,0
-28,491,0,0,0,0,0,0,0,0,0,-1,1196,533,0,0
-21,491,0,0,0,0,0,0,0,0,0,-1,1203,533,0,0
-14,491,0,0,0,0,0,0,0,0,0,-1,1210,533,0,0
-7,491,0,0,0,0,0,0,0,0,0,-1,1217,533,0,0
0,491,0,0,0,0,0,0,0,0,0,-1,1224,533,0,0
7,491,0,0,0,0,0,0,0,0,0,-1,1231,533,0,0
14,491,0,0,0,0,0,0,0,0,0,-1,1238,533,0,0
21,491,0,0,0,0,0,0,0,0,0,-1,1245,533,0,0
28,491,0,0,0,0,0,0,0,0,0,-1,1252,533,0,0
35,491,0,0,0,0,0,0,0,0,0,-1,1259,533,0,0
42,491,0,0,0,0,0,0,0,0,0,-1,1266,533,0,0
49,491,0,0,0,0,0,0,0,0,0,-1,1273,533,0,0
56,491,0,0,0,0,0,0,0,0,0,-1,1280,533,0,0
63,491,0,0,0,0,0,0,0,0,0,-1,1287,533,0,0
70,491,0,0,0,0,0,0,0,0,0,-1,1294,533,0,0
77,491,0,0,0,0,0,0,0,0,0,-1,1301,533,0,0
84,491,0,0,0,0,0,0,0,0,0,-1,1308,533,0,0
91,491,0,0,0,0,0,0,0,0,0,-1,1315,533,0,0
98,491,0,0,0,0,0,0,0,0,0,-1,1322,533,0,0
105,491,0,0,0,0,0,0,0,0,0,-1,1329,533,0,0
112,491,0,0,0,0,0,0,0,0,0,-1,1336,533,0,0
119,491,0,0,0,0,0,0,0,0,0,-1,1343,533,0,0
126,491,0,0,0,0,0,0,0,0,0,-1,1350,533,0,0
133,491,0,0,0,0,0,0,0,0,0,-1,1357,533,0,0
140,491,0,0,0,0,0,0,0,0,0,-1,1364,533,0,0
147,491,0,0,0,0,0,0,0,0,0,-1,1371,533,0,0
154,491,0,0,0,0,0,0,0,0,0,-1,1378,533,0,0
161,491,0,0,0,0,0,0,0,0,0,-1,1385,533,0,0
168,491,0,0,0,0,0,0,0,0,0,-1,1392,533,0,0
175,491,0,0,0,0,0,0,0,0,0,-1,1399,533,0,0
182,491,0,0,0,0,0,0,0,0,0,-1,1406,533,0,0
189,491,0,0,0,0,0,0,0,0,0,-1,1413,533,0,0
196,491,0,0,0,0,0,0,0,0,0,-1,1420,533,0,0
203,491,0,0,0,0,0,0,0,0,0,-1,1427,533,0,0
210,491,0,0,0,0,0,0,0,0,0,-1,1434,533,0,0
217,491,0,0,0,0,0,0,0,0,0,-1,1441,533,0,0
224,491,0,0,0,0,0,0,0,0,0,-1,1448,533,0,0
231,491,0,0,0,0,0,0,0,0,0,-1,1455,533,0,0
238,491,0,0,0,0,0,0,0,0,0,-1,1462,533,0,0
245,491,0,0,0,0,0,0,0,0,0,-1,1469,533,0,0
252,491,0,0,0,0,0,0,0,0,0,-1,1476,533,0,0
259,491,0,0,0,0,0,0,0,0,0,-1,1483,533,0,0
266,491,0,0,0,0,0,0,0,0,0,-1,1490,533,0,0
273,491,0,0,0,0,0,0,0,0,0,-1,1497,533,0,0
280,491,0,0,0,0,0,0,0,0,0,-1,1504,533,0,0
287,491,0,0,0,0,0,0,0,0,0,-1,1511,533,0,0
294,491,0,0,0,0,0,0,0,0,0,-1,1518,533,0,0
301,491,0,0,0,0,0,0,0,0,0,-1,1525,533,0,0
308,491,0,0,0,0,0,0,0,0,0,-1,1532,533,0,0
315,491,0,0,0,0,0,0,0,0,0,-1,1539,533,0,0
322,491,4.26331,-0.734314,0,0,0,0,0,0,0,-1,1546,533,4.26326,0.734324
329,491,4.25354,-0.783752,0,0,0,0,0,0,0,-1,1553,533,4.25359,0.783734
336,491,4.81604,-0.722107,0,0,0,0,0,0,0,-1,1560,533,4.81605,0.722115
343,491,6.14478,-1.44281,0,0,0,0,0,0,0,-1,1567,533,6.14474,1.44281
350,491,6.36353,-1.30792,0,0,0,0,0,0,0,-1,1574,533,6.36352,1.3079
357,491,6.69482,-1.06018,0,0,0,0,0,0,0,-1,1581,533,6.69489,1.06018
364,491,8.01086,-1.69604,0,0,0,0,0,0,0,-1,1588,533,8.01087,1.69607
371,491,8.2135,-0.539307,0,0,0,0,0,0,0,-1,1595,533,8.21348,0.53929
378,491,13.3589,2.17267,0,0,0,0,0,0,0,-1,1602,533,13.3589,-2.17264
385,491,8.08228,-4.95471,0,0,0,0,0,0,0,-1,1609,533,8.08227,4.95474
392,491,2.88721,-4.30988,0,0,0,0,0,0,0,-1,1616,533,2.88716,4.30986
399,491,8.95862,-8.55518,0,0,0,0,0,0,0,-1,1623,533,8.95864,8.55516
406,491,8.16541,-9.00806,0,0,0,0,0,0,0,-1,1630,533,8.16535,9.00807
413,491,5.31848,-3.7124,0,0,0,0,0,0,0,-1,1637,533,5.31849,3.7124
420,491,4.86389,-3.95892,0,0,0,0,0,0,0,-1,1644,533,4.86387,3.95893
427,491,11.5096,-15.2742,0,0,0,0,0,0,0,-1,1651,533,11.5096,15.2742
434,491,12.2286,-18.4322,0,0,0,0,0,0,0,-1,1658,533,12.2287,18.4322
441,491,12.3882,-17.6393,0.00194223,-0.000494858,-0.00139928,0.00257918,-0.00113181,-0.427166,0.00219619,0.045617,1665,533,12.3882,17.6394
448,491,12.3192,-17.4371,0.00211054,-0.000259753,-0.00102433,0.00249186,-0.000641078,-0.356372,0.00191112,0.0289095,1672,533,12.3192,17.4371
455,491,12.3317,-16.9248,0.00197153,6.48886e-05,-0.000810918,0.00226977,-0.000233353,-0.352428,0.00159666,0.0154832,1679,533,12.3317,16.9248
462,491,12.354,-16.4436,0.00177211,0.000398871,-0.000584739,0.00198736,0.000183622,-0.352717,0.00126814,0.0150404,1686,533,12.354,16.4436
469,491,12.3308,-15.958,0.0016056,0.000575494,-0.000313309,0.00169341,0.000487685,-0.273252,0.00100656,0.0145221,1693,533,12.3308,15.958
476,491,12.3284,-15.462,0.00141795,0.000549289,-5.03672e-05,0.00142086,0.000546378,-0.0577247,0.000827593,0.010432,1700,533,12.3284,15.462
483,491,12.317,-14.9543,0.00120485,0.000351025,0.000153711,0.00123168,0.000324196,0.172802,0.00073721,0.0117415,1707,533,12.3171,14.9543
490,491,12.3035,-14.4858,0.000855849,8.96768e-05,0.000277209,0.000945626,-1.00612e-07,0.313202,0.000630451,0.0107959,1714,533,12.3035,14.4858
497,491,12.2987,-13.9756,0.000489592,-0.000147243,0.000454154,0.000725833,-0.000383484,0.479659,0.000650551,0.0120734,1721,533,12.2988,13.9756
504,491,12.283,-13.4343,5.00864e-05,-0.000729078,0.000493792,0.000289476,-0.000968467,0.451412,0.000760723,0.0132879,1728,533,12.283,13.4342
511,491,12.2482,-12.8886,-0.000514709,-0.00134358,0.000424578,-0.000335829,-0.00152246,0.398742,0.000923612,0.0124815,1735,533,12.2481,12.8886
518,491,12.2446,-12.3943,-0.00120907,-0.00196341,0.000218012,-0.00115059,-0.00202189,0.262048,0.00117104,0.0100175,1742,533,12.2446,12.3944
525,491,12.254,-11.887,-0.00198739,-0.0027673,-0.000141725,-0.00196244,-0.00279225,-0.1743,0.00165573,0.00981612,1749,533,12.254,11.887
532,491,12.2444,-11.3672,-0.00279767,-0.00347261,-0.000532719,-0.00250453,-0.00376575,-0.50306,0.00221331,0.0217759,1756,533,12.2444,11.3672
539,491,12.1143,-10.9572,-0.00372415,-0.00412187,-0.00111255,-0.00279282,-0.00505319,-0.696961,0.00292286,0.0399224,1763,533,12.1142,10.9571
546,491,11.8878,-10.3254,0,0,0,0,0,0,0,-1,1770,533,11.8878,10.3255
553,491,10.5021,-7.77869,0,0,0,0,0,0,0,-1,1777,533,10.502,7.77871
560,491,6.28455,-1.43585,0,0,0,0,0,0,0,-1,1784,533,6.28458,1.43586
567,491,5.67651,-1.3562,0,0,0,0,0,0,0,-1,1791,533,5.67649,1.3562
574,491,8.0719,1.58325,0,0,0,0,0,0,0,-1,1798,533,8.07195,-1.58326
581,491,9.44812,1.60931,0,0,0,0,0,0,0,-1,1805,533,9.44808,-1.60933
588,491,11.0497,1.54962,0,0,0,0,0,0,0,-1,1812,533,11.0496,-1.54963
595,491,0,0,0,0,0,0,0,0,0,-1,1819,533,0,0
602,491,0,0,0,0,0,0,0,0,0,-1,1826,533,0,0
609,491,0,0,0,0,0,0,0,0,0,-1,1833,533,0,0
616,491,0,0,0,0,0,0,0,0,0,-1,1840,533,0,0
623,491,0,0,0,0,0,0,0,0,0,-1,1847,533,0,0
630,491,0,0,0,0,0,0,0,0,0,-1,1854,533,0,0
637,491,0,0,0,0,0,0,0,0,0,-1,1861,533,0,0
644,491,0,0,0,0,0,0,0,0,0,-1,1868,533,0,0
651,491,0,0,0,0,0,0,0,0,0,-1,1875,533,0,0
658,491,0,0,0,0,0,0,0,0,0,-1,1882,533,0,0
665,491,0,0,0,0,0,0,0,0,0,-1,1889,533,0,0
672,491,0,0,0,0,0,0,0,0,0,-1,1896,533,0,0
679,491,0,0,0,0,0,0,0,0,0,-1,1903,533,0,0
686,491,0,0,0,0,0,0,0,0,0,-1,1910,533,0,0
693,491,0,0,0,0,0,0,0,0,0,-1,1917,533,0,0
700,491,0,0,0,0,0,0,0,0,0,-1,1924,533,0,0
707,491,0,0,0,0,0,0,0,0,0,-1,1931,533,0,0
714,491,0,0,0,0,0,0,0,0,0,-1,1938,533,0,0
721,491,0,0,0,0,0,0,0,0,0,-1,1945,533,0,0
728,491,0,0,0,0,0,0,0,0,0,-1,1952,533,0,0
735,491,0,0,0,0,0,0,0,0,0,-1,1959,533,0,0
742,491,0,0,0,0,0,0,0,0,0,-1,1966,533,0,0
749,491,0,0,0,0,0,0,0,0,0,-1,1973,533,0,0
756,491,0,0,0,0,0,0,0,0,0,-1,1980,533,0,0
763,491,0,0,0,0,0,0,0,0,0,-1,1987,533,0,0
770,491,0,0,0,0,0,0,0,0,0,-1,1994,533,0,0
777,491,0,0,0,0,0,0,0,0,0,-1,2001,533,0,0
784,491,0,0,0,0,0,0,0,0,0,-1,2008,533,0,0
791,491,0,0,0,0,0,0,0,0,0,-1,2015,533,0,0
798,491,0,0,0,0,0,0,0,0,0,-1,2022,533,0,0
805,491,0,0,0,0,0,0,0,0,0,-1,2029,533,0,0
812,491,0,0,0,0,0,0,0,0,0,-1,2036,533,0,0
-700,484,0,0,0,0,0,0,0,0,0,-1,524,540,0,0
-693,484,0,0,0,0,0,0,0,0,0,-1,531,540,0,0
-686,484,0,0,0,0,0,0,0,0,0,-1,538,540,0,0
-679,484,0,0,0,0,0,0,0,0,0,-1,545,540,0,0
-672,484,0,0,0,0,0,0,0,0,0,-1,552,540,0,0
-665,484,0,0,0,0,0,0,0,0,0,-1,559,540,0,0
-658,484,0,0,0,0,0,0,0,0,0,-1,566,540,0,0
-651,484,0,0,0,0,0,0,0,0,0,-1,573,540,0,0
-644,484,0,0,0,0,0,0,0,0,0,-1,580,540,0,0
-637,484,0,0,0,0,0,0,0,0,0,-1,587,540,0,0
-630,484,0,0,0,0,0,0,0,0,0,-1,594,540,0,0
-623,484,0,0,0,0,0,0,0,0,0,-1,601,540,0,0
-616,484,0,0,0,0,0,0,0,0,0,-1,608,540,0,0
-609,484,0,0,0,0,0,0,0,0,0,-1,615,540,0,0
-602,484,0,0,0,0,0,0,0,0,0,-1,622,540,0,0
-595,484,0,0,0,0,0,0,0,0,0,-1,629,540,0,0
-588,484,0,0,0,0,0,0,0,0,0,-1,636,540,0,0
-581,484,0,0,0,0,0,0,0,0,0,-1,643,540,0,0
-574,484,0,0,0,0,0,0,0,0,0,-1,650,540,0,0
-567,484,0,0,0,0,0,0,0,0,0,-1,657,540,0,0
-560,484,0,0,0,0,0,0,0,0,0,-1,664,540,0,0
-553,484,0,0,0,0,0,0,0,0,0,-1,671,540,0,0
-546,484,0,0,0,0,0,0,0,0,0,-1,678,540,0,0
-539,484,0,0,0,0,0,0,0,0,0,-1,685,540,0,0
-532,484,0,0,0,0,0,0,0,0,0,-1,692,540,0,0
-525,484,0,0,0,0,0,0,0,0,0,-1,699,540,0,0
-518,484,0,0,0,0,0,0,0,0,0,-1,706,540,0,0
-511,484,0,0,0,0,0,0,0,0,0,-1,713,540,0,0
-504,484,0,0,0,0,0,0,0,0,0,-1,720,540,0,0
-497,484,0,0,0,0,0,0,0,0,0,-1,727,540,0,0
-490,484,0,0,0,0,0,0,0,0,0,-1,734,540,0,0
-483,484,0,0,0,0,0,0,0,0,0,-1,741,540,0,0
-476,484,-8.46552,1.44702,0,0,0,0,0,0,0,-1,748,540,-8.46554,-1.44702
-469,484,-7.82343,1.70355,0,0,0,0,0,0,0,-1,755,540,-7.82345,-1.70355
-462,484,-8.36987,3.08612,0,0,0,0,0,0,0,-1,762,540,-8.36988,-3.0861
-455,484,-6.77197,2.07092,0,0,0,0,0,0,0,-1,769,540,-6.77197,-2.07094
-448,484,3.54895,-1.40106,0,0,0,0,0,0,0,-1,776,540,3.54897,1.40106
-441,484,4.28906,-3.05884,0,0,0,0,0,0,0,-1,783,540,4.28905,3.05883
-434,484,-2.17548,-5.07245,0,0,0,0,0,0,0,-1,790,540,-2.17546,5.07243
-427,484,-3.22723,-10.7483,0,0,0,0,0,0,0,-1,797,540,-3.22723,10.7483
-420,484,-3.17065,-11.5713,0,0,0,0,0,0,0,-1,804,540,-3.17063,11.5713
-413,484,-3.17834,-12.2293,-0.000749181,0.00929568,-0.00484768,0.0112536,-0.00270706,-1.18695,0.00854881,0.0316355,811,540,-3.17834,12.2293
-406,484,-3.24847,-12.8433,2.25453e-05,0.00757198,-0.00447231,0.00964962,-0.0020551,-1.1359,0.00721632,0.0160171,818,540,-3.2485,12.8433
-399,484,-3.30707,-13.3713,0.000467851,0.00601176,-0.00397392,0.00808498,-0.00160537,-1.08993,0.00599717,0.0156172,825,540,-3.30708,13.3713
-392,484,-3.31335,-13.8539,0.000803777,0.00456392,-0.00341342,0.00658078,-0.00121308,-1.03712,0.00484247,0.018214,832,540,-3.31335,13.8539
-385,484,-3.33691,-14.3668,0.00115668,0.00326916,-0.00281897,0.00522327,-0.000797434,-0.964648,0.00377616,0.0136357,839,540,-3.33689,14.3667
-378,484,-3.34833,-14.8634,0.00147835,0.00218129,-0.00226106,0.00411803,-0.000458386,-0.862504,0.00291021,0.0151114,846,540,-3.34833,14.8634
-371,484,-3.37109,-15.3479,0.00163927,0.00108319,-0.00164023,0.00302486,-0.000302401,-0.70144,0.00212456,0.0163941,853,540,-3.3711,15.3479
-364,484,-3.39929,-15.8356,0.00170811,5.5074e-05,-0.000966052,0.00215297,-0.00038978,-0.43154,0.00158133,0.0120698,860,540,-3.3993,15.8356
-357,484,-3.4068,-16.3093,0.00183275,-0.000731653,-0.000378742,0.00188752,-0.000786421,-0.143608,0.00158683,0.013071,867,540,-3.40677,16.3093
-350,484,-3.41882,-16.775,0.00199897,-0.00134631,8.09595e-05,0.00200093,-0.00134827,0.0241822,0.00194586,0.0146777,874,540,-3.41883,16.775
-343,484,-3.35321,-17.2521,0.00207717,-0.00209681,0.000577784,0.00215568,-0.00217532,0.135043,0.00250051,0.0223207,881,540,-3.3532,17.2521
-336,484,-3.39178,-17.697,0.00221254,-0.00285235,0.000987844,0.00239839,-0.0030382,0.18596,0.00314605,0.026117,888,540,-3.39178,17.697
-329,484,-3.43756,-18.127,0.00264329,-0.00329679,0.00115896,0.00286141,-0.0035149,0.186022,0.0036878,0.037193,895,540,-3.43753,18.127
-322,484,-3.36707,-18.587,0,0,0,0,0,0,0,-1,902,540,-3.36707,18.5871
-315,484,-3.2774,-19.113,0,0,0,0,0,0,0,-1,909,540,-3.27741,19.113
-308,484,-1.32623,-8.9317,0,0,0,0,0,0,0,-1,916,540,-1.32626,8.93173
-301,484,-1.33453,-6.52667,0,0,0,0,0,0,0,-1,923,540,-1.33454,6.5267
-294,484,-1.61224,-8.17059,0,0,0,0,0,0,0,-1,930,540,-1.61227,8.17058
-287,484,-0.715759,-5.62103,0,0,0,0,0,0,0,-1,937,540,-0.715772,5.62105
-280,484,2.66742,-1.6795,0,0,0,0,0,0,0,-1,944,540,2.6674,1.67949
-273,484,2.53125,-2.22296,0,0,0,0,0,0,0,-1,951,540,2.53128,2.22295
-266,484,2.6778,-2.72058,0,0,0,0,0,0,0,-1,958,540,2.6778,2.72061
-259,484,2.41718,-2.59894,0,0,0,0,0,0,0,-1,965,540,2.41717,2.59892
-252,484,10.6069,-11.696,0,0,0,0,0,0,0,-1,972,540,10.6069,11.696
-245,484,6.34106,-11.6107,0,0,0,0,0,0,0,-1,979,540,6.34104,11.6107
-238,484,4.89319,-8.54059,0,0,0,0,0,0,0,-1,986,540,4.89321,8.5406
-231,484,3.47675,-5.22064,0,0,0,0,0,0,0,-1,993,540,3.47676,5.22067
-224,484,1.71344,-2.03473,0,0,0,0,0,0,0,-1,1000,540,1.71342,2.03472
-217,484,-0.745056,1.17358,0,0,0,0,0,0,0,-1,1007,540,-0.745043,-1.17359
-210,484,0,0,0,0,0,0,0,0,0,-1,1014,540,0,0
-203,484,0,0,0,0,0,0,0,0,0,-1,1021,540,0,0
-196,484,0,0,0,0,0,0,0,0,0,-1,1028,540,0,0
-189,484,0,0,0,0,0,0,0,0,0,-1,1035,540,0,0
-182,484,0,0,0,0,0,0,0,0,0,-1,1042,540,0,0
-175,484,0,0,0,0,0,0,0,0,0,-1,1049,540,0,0
-168,484,0,0,0,0,0,0,0,0,0,-1,1056,540,0,0
-161,484,0,0,0,0,0,0,0,0,0,-1,1063,540,0,0
-154,484,0,0,0,0,0,0,0,0,0,-1,1070,540,0,0
-147,484,0,0,0,0,0,0,0,0,0,-1,1077,540,0,0
-140,484,0,0,0,0,0,0,0,0,0,-1,1084,540,0,0
-133,484,0,0,0,0,0,0,0,0,0,-1,1091,540,0,0
-126,484,0,0,0,0,0,0,0,0,0,-1,1098,540,0,0
-119,484,0,0,0,0,0,0,0,0,0,-1,1105,540,0,0
-112,484,0,0,0,0,0,0,0,0,0,-1,1112,540,0,0
-105,484,0,0,0,0,0,0,0,0,0,-1,1119,540,0,0
-98,484,0,0,0,0,0,0,0,0,0,-1,1126,540,0,0
-91,484,0,0,0,0,0,0,0,0,0,-1,1133,540,0,0
-84,484,0,0,0,0,0,0,0,0,0,-1,1140,540,0,0
-77,484,0,0,0,0,0,0,0,0,0,-1,1147,540,0,0
-70,484,0,0,0,0,0,0,0,0,0,-1,1154,540,0,0
-63,484,0,0,0,0,0,0,0,0,0,-1,1161,540,0,0
-56,484,0,0,0,0,0,0,0,0,0,-1,1168,540,0,0
-49,484,0,0,0,0,0,0,0,0,0,-1,1175,540,0,0
-42,484,0,0,0,0,0,0,0,0,0,-1,1182,540,0,0
-35,484,0,0,0,0,0,0,0,0,0,-1,1189,540,0,0
-28,484,0,0,0,0,0,0,0,0,0,-1,1196,540,0,0
-21,484,0,0,0,0,0,0,0,0,0,-1,1203,540,0,0
-14,484,0,0,0,0,0,0,0,0,0,-1,1210,540,0,0
-7,484,0,0,0,0,0,0,0,0,0,-1,1217,540,0,0
0,484,0,0,0,0,0,0,0,0,0,-1,1224,540,0,0
7,484,0,0,0,0,0,0,0,0,0,-1,1231,540,0,0
14,484,0,0,0,0,0,0,0,0,0,-1,1238,540,0,0
21,484,0,0,0,0,0,0,0,0,0,-1,1245,540,0,0
28,484,0,0,0,0,0,0,0,0,0,-1,1252,540,0,0
35,484,0,0,0,0,0,0,0,0,0,-1,1259,540,0,0
42,484,0,0,0,0,0,0,0,0,0,-1,1266,540,0,0
49,484,0,0,0,0,0,0,0,0,0,-1,1273,540,0,0
56,484,0,0,0,0,0,0,0,0,0,-1,1280,540,0,0
63,484,0,0,0,0,0,0,0,0,0,-1,1287,540,0,0
70,484,0,0,0,0,0,0,0,0,0,-1,1294,540,0,0
77,484,0,0,0,0,0,0,0,0,0,-1,1301,540,0,0
84,484,0,0,0,0,0,0,0,0,0,-1,1308,540,0,0
91,484,0,0,0,0,0,0,0,0,0,-1,1315,540,0,0
98,484,0,0,0,0,0,0,0,0,0,-1,1322,540,0,0
105,484,0,0,0,0,0,0,0,0,0,-1,1329,540,0,0
112,484,0,0,0,0,0,0,0,0,0,-1,1336,540,0,0
119,484,0,0,0,0,0,0,0,0,0,-1,1343,540,0,0
126,484,0,0,0,0,0,0,0,0,0,-1,1350,540,0,0
133,484,0,0,0,0,0,0,0,0,0,-1,1357,540,0,0
140,484,0,0,0,0,0,0,0,0,0,-1,1364,540,0,0
147,484,0,0,0,0,0,0,0,0,0,-1,1371,540,0,0
154,484,0,0,0,0,0,0,0,0,0,-1,1378,540,0,0
161,484,0,0,0,0,0,0,0,0,0,-1,1385,540,0,0
168,484,0,0,0,0,0,0,0,0,0,-1,1392,540,0,0
175,484,0,0,0,0,0,0,0,0,0,-1,1399,540,0,0
182,484,0,0,0,0,0,0,0,0,0,-1,1406,540,0,0
189,484,0,0,0,0,0,0,0,0,0,-1,1413,540,0,0
196,484,0,0,0,0,0,0,0,0,0,-1,1420,540,0,0
203,484,0,0,0,0,0,0,0,0,0,-1,1427,540,0,0
210,484,0,0,0,0,0,0,0,0,0,-1,1434,540,0,0
217,484,0,0,0,0,0,0,0,0,0,-1,1441,540,0,0
224,484,0,0,0,0,0,0,0,0,0,-1,1448,540,0,0
231,484,0,0,0,0,0,0,0,0,0,-1,1455,540,0,0
238,484,0,0,0,0,0,0,0,0,0,-1,1462,540,0,0
245,484,0,0,0,0,0,0,0,0,0,-1,1469,540,0,0
252,484,0,0,0,0,0,0,0,0,0,-1,1476,540,0,0
259,484,0,0,0,0,0,0,0,0,0,-1,1483,540,0,0
266,484,0,0,0,0,0,0,0,0,0,-1,1490,540,0,0
273,484,0,0,0,0,0,0,0,0,0,-1,1497,540,0,0
280,484,0,0,0,0,0,0,0,0,0,-1,1504,540,0,0
287,484,0,0,0,0,0,0,0,0,0,-1,1511,540,0,0
294,484,0,0,0,0,0,0,0,0,0,-1,1518,540,0,0
301,484,0,0,0,0,0,0,0,0,0,-1,1525,540,0,0
308,484,0,0,0,0,0,0,0,0,0,-1,1532,540,0,0
315,484,0,0,0,0,0,0,0,0,0,-1,1539,540,0,0
322,484,0,0,0,0,0,0,0,0,0,-1,1546,540,0,0
329,484,0,0,0,0,0,0,0,0,0,-1,1553,540,0,0
336,484,4.38708,-1.64136,0,0,0,0,0,0,0,-1,1560,540,4.38704,1.64138
343,484,7.57996,-1.05457,0,0,0,0,0,0,0,-1,1567,540,7.57995,1.05454
350,484,8.10425,-1.18878,0,0,0,0,0,0,0,-1,1574,540,8.1043,1.18877
357,484,7.74902,-3.80286,0,0,0,0,0,0,0,-1,1581,540,7.74901,3.80287
364,484,6.31262,-3.87213,0,0,0,0,0,0,0,-1,1588,540,6.31263,3.87215
371,484,7.21008,0.973511,0,0,0,0,0,0,0,-1,1595,540,7.21014,-0.973541
378,484,11.0563,1.5014,0,0,0,0,0,0,0,-1,1602,540,11.0563,-1.5014
385,484,14.3469,2.5545,0,0,0,0,0,0,0,-1,1609,540,14.3469,-2.55453
392,484,7.39453,-4.95026,0,0,0,0,0,0,0,-1,1616,540,7.39448,4.95023
399,484,7.14417,-2.5639,0,0,0,0,0,0,0,-1,1623,540,7.14417,2.56391
406,484,7.88953,-2.47321,0,0,0,0,0,0,0,-1,1630,540,7.88954,2.47323
413,484,4.4895,-1.08673,0,0,0,0,0,0,0,-1,1637,540,4.48952,1.08674
420,484,4.50012,-2.11255,0,0,0,0,0,0,0,-1,1644,540,4.50012,2.11256
427,484,5.28601,-3.54053,0,0,0,0,0,0,0,-1,1651,540,5.28599,3.54051
434,484,11.1488,-13.5359,0,0,0,0,0,0,0,-1,1658,540,11.1489,13.5359
441,484,12.8492,-17.2791,0,0,0,0,0,0,0,-1,1665,540,12.8492,17.2791
448,484,12.7443,-17.56,0,0,0,0,0,0,0,-1,1672,540,12.7443,17.56
455,484,12.8169,-16.9661,0,0,0,0,0,0,0,-1,1679,540,12.8169,16.9661
462,484,12.8551,-16.4201,0.00220834,0.000499188,-0.0008917,0.00258885,0.000118682,-0.403326,0.00168773,0.0207412,1686,540,12.8551,16.4201
469,484,12.8783,-15.9323,0.00200858,0.000850565,-0.000537382,0.00221952,0.000639617,-0.374066,0.00131922,0.0169967,1693,540,12.8783,15.9323
476,484,12.8451,-15.4299,0.00181691,0.000902231,-0.000219457,0.00186684,0.000852302,-0.223701,0.00107918,0.0154321,1700,540,12.845,15.4299
483,484,12.844,-14.9413,0.00163081,0.000767947,4.843e-05,0.00163352,0.000765238,0.0558931,0.000943738,0.0118772,1707,540,12.844,14.9413
490,484,12.8175,-14.4724,0.00129336,0.000635466,0.00020583,0.00135245,0.000576376,0.27956,0.000783669,0.0122688,1714,540,12.8175,14.4724
497,484,12.7991,-13.9565,0.000939998,0.000546581,0.000433734,0.00121954,0.000267034,0.572508,0.000740251,0.0140626,1721,540,12.799,13.9565
504,484,12.7865,-13.4407,0.00050926,7.09725e-05,0.000493699,0.000830267,-0.000250035,0.576521,0.000653012,0.0164483,1728,540,12.7865,13.4407
511,484,12.7782,-12.921,-3.88902e-05,-0.000410233,0.000442927,0.000255707,-0.00070483,0.586928,0.000574419,0.0186653,1735,540,12.7782,12.921
518,484,12.7595,-12.3976,-0.0006997,-0.000876863,0.000266954,-0.000507015,-0.00106955,0.625203,0.000617782,0.0160141,1742,540,12.7595,12.3976
525,484,12.7343,-11.8699,-0.00139517,-0.00150198,-3.39576e-05,-0.00138529,-0.00151186,-0.283185,0.000968477,0.0139464,1749,540,12.7343,11.87
532,484,12.7467,-11.3152,-0.00209968,-0.00198802,-0.000357114,-0.0016824,-0.0024053,-0.862938,0.00142506,0.0146569,1756,540,12.7467,11.3153
539,484,12.681,-10.7433,-0.00288562,-0.00244879,-0.000817549,-0.00182098,-0.00351343,-0.91593,0.00202893,0.0364771,1763,540,12.681,10.7433
546,484,12.6796,-10.2107,0,0,0,0,0,0,0,-1,1770,540,12.6795,10.2107
553,484,12.4246,-8.96423,0,0,0,0,0,0,0,-1,1777,540,12.4246,8.96422
560,484,10.0549,-5.47931,0,0,0,0,0,0,0,-1,1784,540,10.055,5.47928
567,484,7.78223,-1.38312,0,0,0,0,0,0,0,-1,1791,540,7.78224,1.38311
574,484,5.74463,1.50922,0,0,0,0,0,0,0,-1,1798,540,5.74463,-1.50924
581,484,10.34,2.9491,0,0,0,0,0,0,0,-1,1805,540,10.34,-2.94912
588,484,10.6669,2.88568,0,0,0,0,0,0,0,-1,1812,540,10.6669,-2.88567
595,484,10.7233,1.04767,0,0,0,0,0,0,0,-1,1819,540,10.7233,-1.04766
602,484,0,0,0,0,0,0,0,0,0,-1,1826,540,0,0
609,484,0,0,0,0,0,0,0,0,0,-1,1833,540,0,0
616,484,0,0,0,0,0,0,0,0,0,-1,1840,540,0,0
623,484,0,0,0,0,0,0,0,0,0,-1,1847,540,0,0
630,484,0,0,0,0,0,0,0,0,0,-1,1854,540,0,0
637,484,0,0,0,0,0,0,0,0,0,-1,1861,540,0,0
644,484,0,0,0,0,0,0,0,0,0,-1,1868,540,0,0
651,484,0,0,0,0,0,0,0,0,0,-1,1875,540,0,0
658,484,0,0,0,0,0,0,0,0,0,-1,1882,540,0,0
665,484,0,0,0,0,0,0,0,0,0,-1,1889,540,0,0
672,484,0,0,0,0,0,0,0,0,0,-1,1896,540,0,0
679,484,0,0,0,0,0,0,0,0,0,-1,1903,540,0,0
686,484,0,0,0,0,0,0,0,0,0,-1,1910,540,0,0
693,484,0,0,0,0,0,0,0,0,0,-1,1917,540,0,0
700,484,0,0,0,0,0,0,0,0,0,-1,1924,540,0,0
707,484,0,0,0,0,0,0,0,0,0,-1,1931,540,0,0
714,484,0,0,0,0,0,0,0,0,0,-1,1938,540,0,0
721,484,0,0,0,0,0,0,0,0,0,-1,1945,540,0,0
728,484,0,0,0,0,0,0,0,0,0,-1,1952,540,0,0
735,484,0,0,0,0,0,0,0,0,0,-1,1959,540,0,0
742,484,0,0,0,0,0,0,0,0,0,-1,1966,540,0,0
749,484,0,0,0,0,0,0,0,0,0,-1,1973,540,0,0
756,484,0,0,0,0,0,0,0,0,0,-1,1980,540,0,0
763,484,0,0,0,0,0,0,0,0,0,-1,1987,540,0,0
770,484,0,0,0,0,0,0,0,0,0,-1,1994,540,0,0
777,484,0,0,0,0,0,0,0,0,0,-1,2001,540,0,0
784,484,0,0,0,0,0,0,0,0,0,-1,2008,540,0,0
791,484,0,0,0,0,0,0,0,0,0,-1,2015,540,0,0
798,484,0,0,0,0,0,0,0,0,0,-1,2022,540,0,0
805,484,0,0,0,0,0,0,0,0,0,-1,2029,540,0,0
812,484,0,0,0,0,0,0,0,0,0,-1,2036,540,0,0
-700,477,0,0,0,0,0,0,0,0,0,-1,524,547,0,0
-693,477,0,0,0,0,0,0,0,0,0,-1,531,547,0,0
-686,477,0,0,0,0,0,0,0,0,0,-1,538,547,0,0
-679,477,0,0,0,0,0,0,0,0,0,-1,545,547,0,0
-672,477,0,0,0,0,0,0,0,0,0,-1,552,547,0,0
-665,477,0,0,0,0,0,0,0,0,0,-1,559,547,0,0
-658,477,0,0,0,0,0,0,0,0,0,-1,566,547,0,0
-651,477,0,0,0,0,0,0,0,0,0,-1,573,547,0,0
-644,477,0,0,0,0,0,0,0,0,0,-1,580,547,0,0
-637,477,0,0,0,0,0,0,0,0,0,-1,587,547,0,0
-630,477,0,0,0,0,0,0,0,0,0,-1,594,547,0,0
-623,477,0,0,0,0,0,0,0,0,0,-1,601,547,0,0
-616,477,0,0,0,0,0,0,0,0,0,-1,608,547,0,0
-609,477,0,0,0,0,0,0,0,0,0,-1,615,547,0,0
-602,477,0,0,0,0,0,0,0,0,0,-1,622,547,0,0
-595,477,0,0,0,0,0,0,0,0,0,-1,629,547,0,0
-588,477,0,0,0,0,0,0,0,0,0,-1,636,547,0,0
-581,477,0,0,0,0,0,0,0,0,0,-1,643,547,0,0
-574,477,0,0,0,0,0,0,0,0,0,-1,650,547,0,0
-567,477,0,0,0,0,0,0,0,0,0,-1,657,547,0,0
-560,477,0,0,0,0,0,0,0,0,0,-1,664,547,0,0
-553,477,0,0,0,0,0,0,0,0,0,-1,671,547,0,0
-546,477,0,0,0,0,0,0,0,0,0,-1,678,547,0,0
-539,477,0,0,0,0,0,0,0,0,0,-1,685,547,0,0
-532,477,0,0,0,0,0,0,0,0,0,-1,692,547,0,0
-525,477,0,0,0,0,0,0,0,0,0,-1,699,547,0,0
-518,477,0,0,0,0,0,0,0,0,0,-1,706,547,0,0
-511,477,0,0,0,0,0,0,0,0,0,-1,713,547,0,0
-504,477,0,0,0,0,0,0,0,0,0,-1,720,547,0,0
-497,477,0,0,0,0,0,0,0,0,0,-1,727,547,0,0
-490,477,0,0,0,0,0,0,0,0,0,-1,734,547,0,0
-483,477,-7.73151,-0.224182,0,0,0,0,0,0,0,-1,741,547,-7.73152,0.224176
-476,477,-6.25806,-0.310547,0,0,0,0,0,0,0,-1,748,547,-6.25804,0.310549
-469,477,-7.26617,0.525085,0,0,0,0,0,0,0,-1,755,547,-7.2662,-0.525111
-462,477,-6.65143,1.06042,0,0,0,0,0,0,0,-1,762,547,-6.65143,-1.06043
-455,477,-5.31757,0.429016,0,0,0,0,0,0,0,-1,769,547,-5.31756,-0.42902
-448,477,-4.0697,0.273376,0,0,0,0,0,0,0,-1,776,547,-4.06971,-0.273363
-441,477,-2.47504,-4.76971,0,0,0,0,0,0,0,-1,783,547,-2.47505,4.76973
-434,477,-3.51489,-10.9042,0,0,0,0,0,0,0,-1,790,547,-3.51492,10.9041
-427,477,-3.69971,-11.0815,-0.00286274,0.0112835,-0.00394396,0.0123088,-0.003888,-1.31647,0.00976342,0.0407176,797,547,-3.69972,11.0816
-420,477,-3.7403,-11.4653,-0.00180917,0.00918723,-0.00374797,0.0103432,-0.0029651,-1.27164,0.00806753,0.0335115,804,547,-3.74029,11.4653
-413,477,-3.73206,-12.2176,-0.000981267,0.00736414,-0.00350318,0.00863972,-0.00225684,-1.2216,0.00664117,0.0195305,811,547,-3.73208,12.2176
-406,477,-3.78711,-12.8251,-0.000248118,0.00587818,-0.0031742,0.0072262,-0.00159614,-1.1692,0.00542831,0.0106762,818,547,-3.78712,12.8251
-399,477,-3.80927,-13.3192,0.00023301,0.00453664,-0.00276686,0.00588993,-0.00112029,-1.1159,0.00434842,0.0176565,825,547,-3.80926,13.3192
-392,477,-3.81622,-13.8301,0.000622703,0.00325578,-0.00231279,0.00460049,-0.000722009,-1.04415,0.00333383,0.0172973,832,547,-3.8162,13.8301
-385,477,-3.80939,-14.3278,0.00103973,0.00212625,-0.00184529,0.00350659,-0.000340605,-0.928555,0.00245913,0.0150274,839,547,-3.80942,14.3278
-378,477,-3.83093,-14.8358,0.00142585,0.00114943,-0.00138472,0.00267924,-0.000103961,-0.735658,0.0018218,0.0137944,846,547,-3.83095,14.8357
-371,477,-3.85736,-15.3146,0.001686,0.000166106,-0.000855968,0.00207069,-0.000218587,-0.422375,0.00145879,0.013795,853,547,-3.85739,15.3147
-364,477,-3.87842,-15.7952,0.0018767,-0.000745516,-0.000281758,0.00190663,-0.000775449,-0.105841,0.00159375,0.0138016,860,547,-3.8784,15.7952
-357,477,-3.90002,-16.272,0.00213045,-0.0014711,0.000213771,0.0021431,-0.00148375,0.0590788,0.00210546,0.0117095,867,547,-3.90003,16.2719
-350,477,-3.89923,-16.7381,0.00242474,-0.002041,0.000593694,0.00250232,-0.00211858,0.129938,0.00267095,0.0101761,874,547,-3.89921,16.7381
-343,477,-3.84076,-17.2391,0.00262213,-0.00270614,0.00099004,0.00280015,-0.00288415,0.177901,0.00328195,0.0191117,881,547,-3.84074,17.2392
-336,477,-3.78796,-17.7258,0.00289137,-0.00348406,0.00131917,0.00315354,-0.00374624,0.196185,0.00398848,0.0387429,888,547,-3.78795,17.7258
-329,477,-3.66522,-18.181,0,0,0,0,0,0,0,-1,895,547,-3.66521,18.181
-322,477,-2.04822,-12.0026,0,0,0,0,0,0,0,-1,902,547,-2.04819,12.0026
-315,477,-1.67358,-9.15253,0,0,0,0,0,0,0,-1,909,547,-1.67356,9.15253
-308,477,-1.30127,-6.55188,0,0,0,0,0,0,0,-1,916,547,-1.30128,6.55185
-301,477,-1.21185,-6.28351,0,0,0,0,0,0,0,-1,923,547,-1.21184,6.28352
-294,477,-0.352905,3.27142,0,0,0,0,0,0,0,-1,930,547,-0.35292,-3.27144
-287,477,3.54364,2.15399,0,0,0,0,0,0,0,-1,937,547,3.54362,-2.15396
-280,477,1.97308,-0.954163,0,0,0,0,0,0,0,-1,944,547,1.9731,0.954178
-273,477,2.11621,-3.76709,0,0,0,0,0,0,0,-1,951,547,2.11619,3.76706
-266,477,2.04669,-3.42389,0,0,0,0,0,0,0,-1,958,547,2.04671,3.42391
-259,477,-1.33478,-3.41205,0,0,0,0,0,0,0,-1,965,547,-1.3348,3.41206
-252,477,0.597168,-5.32922,0,0,0,0,0,0,0,-1,972,547,0.597144,5.32924
-245,477,8.2309,-8.48492,0,0,0,0,0,0,0,-1,979,547,8.23091,8.48494
-238,477,6.60938,-5.64063,0,0,0,0,0,0,0,-1,986,547,6.60938,5.64063
-231,477,4.71716,-2.52484,0,0,0,0,0,0,0,-1,993,547,4.71716,2.52483
-224,477,0,0,0,0,0,0,0,0,0,-1,1000,547,0,0
-217,477,0,0,0,0,0,0,0,0,0,-1,1007,547,0,0
-210,477,0,0,0,0,0,0,0,0,0,-1,1014,547,0,0
-203,477,0,0,0,0,0,0,0,0,0,-1,1021,547,0,0
-196,477,0,0,0,0,0,0,0,0,0,-1,1028,547,0,0
-189,477,0,0,0,0,0,0,0,0,0,-1,1035,547,0,0
-182,477,0,0,0,0,0,0,0,0,0,-1,1042,547,0,0
-175,477,0,0,0,0,0,0,0,0,0,-1,1049,547,0,0
-168,477,0,0,0,0,0,0,0,0,0,-1,1056,547,0,0
-161,477,0,0,0,0,0,0,0,0,0,-1,1063,547,0,0
-154,477,0,0,0,0,0,0,0,0,0,-1,1070,547,0,0
-147,477,0,0,0,0,0,0,0,0,0,-1,1077,547,0,0
-140,477,0,0,0,0,0,0,0,0,0,-1,1084,547,0,0
-133,477,0,0,0,0,0,0,0,0,0,-1,1091,547,0,0
-126,477,0,0,0,0,0,0,0,0,0,-1,1098,547,0,0
-119,477,0,0,0,0,0,0,0,0,0,-1,1105,547,0,0
-112,477,0,0,0,0,0,0,0,0,0,-1,1112,547,0,0
-105,477,0,0,0,0,0,0,0,0,0,-1,1119,547,0,0
-98,477,0,0,0,0,0,0,0,0,0,-1,1126,547,0,0
-91,477,0,0,0,0,0,0,0,0,0,-1,1133,547,0,0
-84,477,0,0,0,0,0,0,0,0,0,-1,1140,547,0,0
-77,477,0,0,0,0,0,0,0,0,0,-1,1147,547,0,0
-70,477,0,0,0,0,0,0,0,0,0,-1,1154,547,0,0
-63,477,0,0,0,0,0,0,0,0,0,-1,1161,547,0,0
-56,477,0,0,0,0,0,0,0,0,0,-1,1168,547,0,0
-49,477,0,0,0,0,0,0,0,0,0,-1,1175,547,0,0
-42,477,0,0,0,0,0,0,0,0,0,-1,1182,547,0,0
-35,477,0,0,0,0,0,0,0,0,0,-1,1189,547,0,0
-28,477,0,0,0,0,0,0,0,0,0,-1,1196,547,0,0
-21,477,0,0,0,0,0,0,0,0,0,-1,1203,547,0,0
-14,477,0,0,0,0,0,0,0,0,0,-1,1210,547,0,0
-7,477,0,0,0,0,0,0,0,0,0,-1,1217,547,0,0
0,477,0,0,0,0,0,0,0,0,0,-1,1224,547,0,0
7,477,0,0,0,0,0,0,0,0,0,-1,1231,547,0,0
14,477,0,0,0,0,0,0,0,0,0,-1,1238,547,0,0
21,477,0,0,0,0,0,0,0,0,0,-1,1245,547,0,0
28,477,0,0,0,0,0,0,0,0,0,-1,1252,547,0,0
35,477,0,0,0,0,0,0,0,0,0,-1,1259,547,0,0
42,477,0,0,0,0,0,0,0,0,0,-1,1266,547,0,0
49,477,0,0,0,0,0,0,0,0,0,-1,1273,547,0,0
56,477,0,0,0,0,0,0,0,0,0,-1,1280,547,0,0
63,477,0,0,0,0,0,0,0,0,0,-1,1287,547,0,0
70,477,0,0,0,0,0,0,0,0,0,-1,1294,547,0,0
77,477,0,0,0,0,0,0,0,0,0,-1,1301,547,0,0
84,477,0,0,0,0,0,0,0,0,0,-1,1308,547,0,0
91,477,0,0,0,0,0,0,0,0,0,-1,1315,547,0,0
98,477,0,0,0,0,0,0,0,0,0,-1,1322,547,0,0
105,477,0,0,0,0,0,0,0,0,0,-1,1329,547,0,0
112,477,0,0,0,0,0,0,0,0,0,-1,1336,547,0,0
119,477,0,0,0,0,0,0,0,0,0,-1,1343,547,0,0
126,477,0,0,0,0,0,0,0,0,0,-1,1350,547,0,0
133,477,0,0,0,0,0,0,0,0,0,-1,1357,547,0,0
140,477,0,0,0,0,0,0,0,0,0,-1,1364,547,0,0
147,477,0,0,0,0,0,0,0,0,0,-1,1371,547,0,0
154,477,0,0,0,0,0,0,0,0,0,-1,1378,547,0,0
161,477,0,0,0,0,0,0,0,0,0,-1,1385,547,0,0
168,477,0,0,0,0,0,0,0,0,0,-1,1392,547,0,0
175,477,0,0,0,0,0,0,0,0,0,-1,1399,547,0,0
182,477,0,0,0,0,0,0,0,0,0,-1,1406,547,0,0
189,477,0,0,0,0,0,0,0,0,0,-1,1413,547,0,0
196,477,0,0,0,0,0,0,0,0,0,-1,1420,547,0,0
203,477,0,0,0,0,0,0,0,0,0,-1,1427,547,0,0
210,477,0,0,0,0,0,0,0,0,0,-1,1434,547,0,0
217,477,0,0,0,0,0,0,0,0,0,-1,1441,547,0,0
224,477,0,0,0,0,0,0,0,0,0,-1,1448,547,0,0
231,477,0,0,0,0,0,0,0,0,0,-1,1455,547,0,0
238,477,0,0,0,0,0,0,0,0,0,-1,1462,547,0,0
245,477,0,0,0,0,0,0,0,0,0,-1,1469,547,0,0
252,477,0,0,0,0,0,0,0,0,0,-1,1476,547,0,0
259,477,0,0,0,0,0,0,0,0,0,-1,1483,547,0,0
266,477,0,0,0,0,0,0,0,0,0,-1,1490,547,0,0
273,477,0,0,0,0,0,0,0,0,0,-1,1497,547,0,0
280,477,0,0,0,0,0,0,0,0,0,-1,1504,547,0,0
287,477,0,0,0,0,0,0,0,0,0,-1,1511,547,0,0
294,477,0,0,0,0,0,0,0,0,0,-1,1518,547,0,0
301,477,0,0,0,0,0,0,0,0,0,-1,1525,547,0,0
308,477,0,0,0,0,0,0,0,0,0,-1,1532,547,0,0
315,477,0,0,0,0,0,0,0,0,0,-1,1539,547,0,0
322,477,0,0,0,0,0,0,0,0,0,-1,1546,547,0,0
329,477,0,0,0,0,0,0,0,0,0,-1,1553,547,0,0
336,477,0,0,0,0,0,0,0,0,0,-1,1560,547,0,0
343,477,0,0,0,0,0,0,0,0,0,-1,1567,547,0,0
350,477,1.7699,-3.32275,0,0,0,0,0,0,0,-1,1574,547,1.7699,3.32272
357,477,3.073,-4.83313,0,0,0,0,0,0,0,-1,1581,547,3.07303,4.83316
364,477,4.30127,-4.22864,0,0,0,0,0,0,0,-1,1588,547,4.30125,4.22865
371,477,4.57703,0.283264,0,0,0,0,0,0,0,-1,1595,547,4.57706,-0.283262
378,477,8.57947,1.05969,0,0,0,0,0,0,0,-1,1602,547,8.5795,-1.05972
385,477,12.3726,2.02356,0,0,0,0,0,0,0,-1,1609,547,12.3725,-2.02355
392,477,16.4678,2.76843,0,0,0,0,0,0,0,-1,1616,547,16.4678,-2.76845
399,477,8.00037,-2.29523,0,0,0,0,0,0,0,-1,1623,547,8.00031,2.2952
406,477,4.82495,2.7475,0,0,0,0,0,0,0,-1,1630,547,4.825,-2.74752
413,477,4.88171,-0.336426,0,0,0,0,0,0,0,-1,1637,547,4.88169,0.336398
420,477,3.34875,0.102722,0,0,0,0,0,0,0,-1,1644,547,3.34871,-0.1027
427,477,1.66772,-0.373108,0,0,0,0,0,0,0,-1,1651,547,1.66768,0.373104
434,477,3.76978,-2.30798,0,0,0,0,0,0,0,-1,1658,547,3.76974,2.30801
441,477,4.05444,-2.80402,0,0,0,0,0,0,0,-1,1665,547,4.05444,2.804
448,477,10.4247,-11.7421,0,0,0,0,0,0,0,-1,1672,547,10.4247,11.7421
455,477,13.3054,-16.8109,0,0,0,0,0,0,0,-1,1679,547,13.3054,16.8109
462,477,13.3434,-16.5117,0,0,0,0,0,0,0,-1,1686,547,13.3433,16.5117
469,477,13.4143,-15.9009,0.00222257,0.000914137,-0.000766203,0.00257585,0.000560848,-0.432039,0.00156417,0.0373944,1693,547,13.4143,15.9009
476,477,13.3561,-15.4494,0.00209821,0.00109851,-0.000366791,0.00221834,0.000978368,-0.316527,0.00128373,0.0195615,1700,547,13.3561,15.4494
483,477,13.3562,-14.9412,0.00202897,0.00107051,4.23512e-06,0.00202899,0.00107049,0.00441855,0.00117203,0.0112789,1707,547,13.3562,14.9412
490,477,13.3148,-14.4363,0.00178084,0.00109377,0.00021914,0.00184478,0.00102982,0.28391,0.00106749,0.0114151,1714,547,13.3148,14.4363
497,477,13.292,-13.9023,0.00149679,0.00114056,0.000509526,0.00185843,0.000778916,0.617256,0.00107764,0.013564,1721,547,13.292,13.9023
504,477,13.2838,-13.4107,0.00111733,0.000746686,0.000595142,0.00155533,0.000308678,0.634463,0.000950847,0.0189515,1728,547,13.2838,13.4107
511,477,13.3425,-12.9315,0.000617121,0.000354258,0.000566064,0.00106681,-9.54326e-05,0.671327,0.000745058,0.0240421,1735,547,13.3425,12.9315
518,477,13.307,-12.3942,3.58847e-06,-1.60725e-05,0.000422445,0.000416317,-0.000428801,0.773765,0.000487947,0.0218019,1742,547,13.307,12.3942
525,477,13.2323,-11.8442,-0.000626028,-0.000525724,0.00017394,-0.000394851,-0.000756901,0.925757,0.000437134,0.0185956,1749,547,13.2322,11.8442
532,477,13.2029,-11.3036,-0.00127599,-0.000896816,-0.00010173,-0.000871247,-0.00130156,-1.32456,0.000765696,0.0197324,1756,547,13.2028,11.3036
539,477,13.1956,-10.7076,-0.00197753,-0.00125195,-0.000472969,-0.00101865,-0.00221082,-1.11256,0.00127773,0.0177541,1763,547,13.1955,10.7076
546,477,13.1311,-10.2408,-0.00281342,-0.00160741,-0.000954311,-0.00108155,-0.00333927,-1.06716,0.00196739,0.0355144,1770,547,13.1311,10.2408
553,477,13.1962,-9.61877,0,0,0,0,0,0,0,-1,1777,547,13.1962,9.6188
560,477,12.9518,-8.26862,0,0,0,0,0,0,0,-1,1784,547,12.9517,8.26862
567,477,13.2845,-8.3736,0,0,0,0,0,0,0,-1,1791,547,13.2845,8.37358
574,477,6.82593,-0.916992,0,0,0,0,0,0,0,-1,1798,547,6.82598,0.916977
581,477,9.29321,-0.557007,0,0,0,0,0,0,0,-1,1805,547,9.29324,0.55703
588,477,9.75195,0.422729,0,0,0,0,0,0,0,-1,1812,547,9.75198,-0.42273
595,477,9.89172,1.21326,0,0,0,0,0,0,0,-1,1819,547,9.89174,-1.21328
602,477,6.5271,-0.964417,0,0,0,0,0,0,0,-1,1826,547,6.52706,0.964427
609,477,0,0,0,0,0,0,0,0,0,-1,1833,547,0,0
616,477,0,0,0,0,0,0,0,0,0,-1,1840,547,0,0
623,477,0,0,0,0,0,0,0,0,0,-1,1847,547,0,0
630,477,0,0,0,0,0,0,0,0,0,-1,1854,547,0,0
637,477,0,0,0,0,0,0,0,0,0,-1,1861,547,0,0
644,477,0,0,0,0,0,0,0,0,0,-1,1868,547,0,0
651,477,0,0,0,0,0,0,0,0,0,-1,1875,547,0,0
658,477,0,0,0,0,0,0,0,0,0,-1,1882,547,0,0
665,477,0,0,0,0,0,0,0,0,0,-1,1889,547,0,0
672,477,0,0,0,0,0,0,0,0,0,-1,1896,547,0,0
679,477,0,0,0,0,0,0,0,0,0,-1,1903,547,0,0
686,477,0,0,0,0,0,0,0,0,0,-1,1910,547,0,0
693,477,0,0,0,0,0,0,0,0,0,-1,1917,547,0,0
700,477,0,0,0,0,0,0,0,0,0,-1,1924,547,0,0
707,477,0,0,0,0,0,0,0,0,0,-1,1931,547,0,0
714,477,0,0,0,0,0,0,0,0,0,-1,1938,547,0,0
721,477,0,0,0,0,0,0,0,0,0,-1,1945,547,0,0
728,477,0,0,0,0,0,0,0,0,0,-1,1952,547,0,0
735,477,0,0,0,0,0,0,0,0,0,-1,1959,547,0,0
742,477,0,0,0,0,0,0,0,0,0,-1,1966,547,0,0
749,477,0,0,0,0,0,0,0,0,0,-1,1973,547,0,0
756,477,0,0,0,0,0,0,0,0,0,-1,1980,547,0,0
763,477,0,0,0,0,0,0,0,0,0,-1,1987,547,0,0
770,477,0,0,0,0,0,0,0,0,0,-1,1994,547,0,0
777,477,0,0,0,0,0,0,0,0,0,-1,2001,547,0,0
784,477,0,0,0,0,0,0,0,0,0,-1,2008,547,0,0
791,477,0,0,0,0,0,0,0,0,0,-1,2015,547,0,0
798,477,0,0,0,0,0,0,0,0,0,-1,2022,547,0,0
805,477,0,0,0,0,0,0,0,0,0,-1,2029,547,0,0
812,477,0,0,0,0,0,0,0,0,0,-1,2036,547,0,0
-700,470,0,0,0,0,0,0,0,0,0,-1,524,554,0,0
-693,470,0,0,0,0,0,0,0,0,0,-1,531,554,0,0
-686,470,0,0,0,0,0,0,0,0,0,-1,538,554,0,0
-679,470,0,0,0,0,0,0,0,0,0,-1,545,554,0,0
-672,470,0,0,0,0,0,0,0,0,0,-1,552,554,0,0
-665,470,0,0,0,0,0,0,0,0,0,-1,559,554,0,0
-658,470,0,0,0,0,0,0,0,0,0,-1,566,554,0,0
-651,470,0,0,0,0,0,0,0,0,0,-1,573,554,0,0
-644,470,0,0,0,0,0,0,0,0,0,-1,580,554,0,0
-637,470,0,0,0,0,0,0,0,0,0,-1,587,554,0,0
-630,470,0,0,0,0,0,0,0,0,0,-1,594,554,0,0
-623,470,0,0,0,0,0,0,0,0,0,-1,601,554,0,0
-616,470,0,0,0,0,0,0,0,0,0,-1,608,554,0,0
-609,470,0,0,0,0,0,0,0,0,0,-1,615,554,0,0
-602,470,0,0,0,0,0,0,0,0,0,-1,622,554,0,0
-595,470,0,0,0,0,0,0,0,0,0,-1,629,554,0,0
-588,470,0,0,0,0,0,0,0,0,0,-1,636,554,0,0
-581,470,0,0,0,0,0,0,0,0,0,-1,643,554,0,0
-574,470,0,0,0,0,0,0,0,0,0,-1,650,554,0,0
-567,470,0,0,0,0,0,0,0,0,0,-1,657,554,0,0
-560,470,0,0,0,0,0,0,0,0,0,-1,664,554,0,0
-553,470,0,0,0,0,0,0,0,0,0,-1,671,554,0,0
-546,470,0,0,0,0,0,0,0,0,0,-1,678,554,0,0
-539,470,0,0,0,0,0,0,0,0,0,-1,685,554,0,0
-532,470,0,0,0,0,0,0,0,0,0,-1,692,554,0,0
-525,470,0,0,0,0,0,0,0,0,0,-1,699,554,0,0
-518,470,0,0,0,0,0,0,0,0,0,-1,706,554,0,0
-511,470,0,0,0,0,0,0,0,0,0,-1,713,554,0,0
-504,470,0,0,0,0,0,0,0,0,0,-1,720,554,0,0
-497,470,0,0,0,0,0,0,0,0,0,-1,727,554,0,0
-490,470,-9.13263,-1.03125,0,0,0,0,0,0,0,-1,734,554,-9.1326,1.03127
-483,470,-7.68677,-1.03955,0,0,0,0,0,0,0,-1,741,554,-7.68678,1.03958
-476,470,-6.17969,-1.03394,0,0,0,0,0,0,0,-1,748,554,-6.17971,1.03395
-469,470,-6.23016,-0.651855,0,0,0,0,0,0,0,-1,755,554,-6.23014,0.651829
-462,470,-4.87915,-1.03705,0,0,0,0,0,0,0,-1,762,554,-4.87914,1.03702
-455,470,-4.14777,-1.37079,0,0,0,0,0,0,0,-1,769,554,-4.14779,1.37078
-448,470,-2.9314,-5.74518,0,0,0,0,0,0,0,-1,776,554,-2.93137,5.74518
-441,470,-3.98798,-10.1385,0,0,0,0,0,0,0,-1,783,554,-3.98796,10.1385
-434,470,-4.02777,-10.7755,-0.00354176,0.0106935,-0.00342241,0.0114735,-0.00432182,-1.3467,0.00942588,0.0451623,790,554,-4.02778,10.7755
-427,470,-4.26093,-11.2007,-0.0023955,0.00893458,-0.0030947,0.00972476,-0.00318567,-1.3208,0.00776601,0.0209756,797,554,-4.26095,11.2007
-420,470,-4.2251,-11.7446,-0.0015519,0.00730028,-0.00281133,0.00811765,-0.00236927,-1.28786,0.00635059,0.0152587,804,554,-4.22508,11.7445
-413,470,-4.25171,-12.2933,-0.000899489,0.00573141,-0.00248809,0.00656118,-0.00172926,-1.2489,0.00505021,0.0134774,811,554,-4.25174,12.2933
-406,470,-4.27911,-12.799,-0.000273623,0.00444987,-0.00213042,0.00526877,-0.00109253,-1.20382,0.00392767,0.011124,818,554,-4.27913,12.799
-399,470,-4.28046,-13.3033,0.00017408,0.00331351,-0.00175367,0.00409738,-0.000609791,-1.15045,0.00295589,0.0141104,825,554,-4.28044,13.3034
-392,470,-4.29468,-13.811,0.000558529,0.00218472,-0.0013493,0.00294698,-0.000203731,-1.05656,0.00203596,0.0136889,832,554,-4.29468,13.811
-385,470,-4.302,-14.2988,0.000996201,0.00119593,-0.000960504,0.00206175,0.000130383,-0.837197,0.00133316,0.0110839,839,554,-4.30198,14.2987
-378,470,-4.31006,-14.8043,0.00141448,0.000301638,-0.000561449,0.00164852,6.75971e-05,-0.394948,0.00107719,0.0155114,846,554,-4.31007,14.8042
-371,470,-4.33582,-15.2829,0.00176401,-0.000585665,-0.000108788,0.00176903,-0.000590691,-0.0461675,0.00141788,0.013675,853,554,-4.3358,15.2829
-364,470,-4.36456,-15.7457,0.00209079,-0.00139174,0.000357279,0.00212706,-0.00142802,0.101187,0.00206571,0.0142135,860,554,-4.36457,15.7457
-357,470,-4.38635,-16.2289,0.00249609,-0.00210246,0.000739036,0.00261194,-0.00221832,0.155496,0.00279184,0.0147148,867,554,-4.38632,16.229
-350,470,-4.36865,-16.7129,0.00294669,-0.00270777,0.00102218,0.0031258,-0.00288688,0.173463,0.00347234,0.0110349,874,554,-4.36866,16.7129
-343,470,-4.29449,-17.1628,0.00334797,-0.00334162,0.00126428,0.00357893,-0.00357258,0.180692,0.00412893,0.0374392,881,554,-4.29449,17.1628
-336,470,-4.1532,-17.7857,0,0,0,0,0,0,0,-1,888,554,-4.15317,17.7857
-329,470,-2.78516,-12.3594,0,0,0,0,0,0,0,-1,895,554,-2.78517,12.3594
-322,470,-2.30829,-11.4527,0,0,0,0,0,0,0,-1,902,554,-2.30827,11.4527
-315,470,-1.04797,-8.29529,0,0,0,0,0,0,0,-1,909,554,-1.04797,8.29526
-308,470,-1.39368,-6.68152,0,0,0,0,0,0,0,-1,916,554,-1.39369,6.68149
-301,470,-0.0340576,3.34888,0,0,0,0,0,0,0,-1,923,554,-0.0340496,-3.3489
-294,470,-1.18378,3.22266,0,0,0,0,0,0,0,-1,930,554,-1.18376,-3.22268
-287,470,-2.15454,3.2204,0,0,0,0,0,0,0,-1,937,554,-2.15452,-3.22037
-280,470,-3.00537,3.099,0,0,0,0,0,0,0,-1,944,554,-3.00536,-3.09898
-273,470,-12.3932,3.65009,0,0,0,0,0,0,0,-1,951,554,-12.3932,-3.65011
-266,470,-11.5706,1.16028,0,0,0,0,0,0,0,-1,958,554,-11.5706,-1.16031
-259,470,-7.50415,-2.77167,0,0,0,0,0,0,0,-1,965,554,-7.50413,2.7717
-252,470,-0.371155,-5.87823,0,0,0,0,0,0,0,-1,972,554,-0.37114,5.87821
-245,470,1.33221,-6.81122,0,0,0,0,0,0,0,-1,979,554,1.33223,6.8112
-238,470,0,0,0,0,0,0,0,0,0,-1,986,554,0,0
-231,470,0,0,0,0,0,0,0,0,0,-1,993,554,0,0
-224,470,0,0,0,0,0,0,0,0,0,-1,1000,554,0,0
-217,470,0,0,0,0,0,0,0,0,0,-1,1007,554,0,0
-210,470,0,0,0,0,0,0,0,0,0,-1,1014,554,0,0
-203,470,0,0,0,0,0,0,0,0,0,-1,1021,554,0,0
-196,470,0,0,0,0,0,0,0,0,0,-1,1028,554,0,0
-189,470,0,0,0,0,0,0,0,0,0,-1,1035,554,0,0
-182,470,0,0,0,0,0,0,0,0,0,-1,1042,554,0,0
-175,470,0,0,0,0,0,0,0,0,0,-1,1049,554,0,0
-168,470,0,0,0,0,0,0,0,0,0,-1,1056,554,0,0
-161,470,0,0,0,0,0,0,0,0,0,-1,1063,554,0,0
-154,470,0,0,0,0,0,0,0,0,0,-1,1070,554,0,0
-147,470,0,0,0,0,0,0,0,0,0,-1,1077,554,0,0
-140,470,0,0,0,0,0,0,0,0,0,-1,1084,554,0,0
-133,470,0,0,0,0,0,0,0,0,0,-1,1091,554,0,0
-126,470,0,0,0,0,0,0,0,0,0,-1,1098,554,0,0
-119,470,0,0,0,0,0,0,0,0,0,-1,1105,554,0,0
-112,470,0,0,0,0,0,0,0,0,0,-1,1112,554,0,0
-105,470,0,0,0,0,0,0,0,0,0,-1,1119,554,0,0
-98,470,0,0,0,0,0,0,0,0,0,-1,1126,554,0,0
-91,470,0,0,0,0,0,0,0,0,0,-1,1133,554,0,0
-84,470,0,0,0,0,0,0,0,0,0,-1,1140,554,0,0
-77,470,0,0,0,0,0,0,0,0,0,-1,1147,554,0,0
-70,470,0,0,0,0,0,0,0,0,0,-1,1154,554,0,0
-63,470,0,0,0,0,0,0,0,0,0,-1,1161,554,0,0
-56,470,0,0,0,0,0,0,0,0,0,-1,1168,554,0,0
-49,470,0,0,0,0,0,0,0,0,0,-1,1175,554,0,0
-42,470,0,0,0,0,0,0,0,0,0,-1,1182,554,0,0
-35,470,0,0,0,0,0,0,0,0,0,-1,1189,554,0,0
-28,470,0,0,0,0,0,0,0,0,0,-1,1196,554,0,0
-21,470,0,0,0,0,0,0,0,0,0,-1,1203,554,0,0
-14,470,0,0,0,0,0,0,0,0,0,-1,1210,554,0,0
-7,470,0,0,0,0,0,0,0,0,0,-1,1217,554,0,0
0,470,0,0,0,0,0,0,0,0,0,-1,1224,554,0,0
7,470,0,0,0,0,0,0,0,0,0,-1,1231,554,0,0
14,470,0,0,0,0,0,0,0,0,0,-1,1238,554,0,0
21,470,0,0,0,0,0,0,0,0,0,-1,1245,554,0,0
28,470,0,0,0,0,0,0,0,0,0,-1,1252,554,0,0
35,470,0,0,0,0,0,0,0,0,0,-1,1259,554,0,0
42,470,0,0,0,0,0,0,0,0,0,-1,1266,554,0,0
49,470,0,0,0,0,0,0,0,0,0,-1,1273,554,0,0
56,470,0,0,0,0,0,0,0,0,0,-1,1280,554,0,0
63,470,0,0,0,0,0,0,0,0,0,-1,1287,554,0,0
70,470,0,0,0,0,0,0,0,0,0,-1,1294,554,0,0
77,470,0,0,0,0,0,0,0,0,0,-1,1301,554,0,0
84,470,0,0,0,0,0,0,0,0,0,-1,1308,554,0,0
91,470,0,0,0,0,0,0,0,0,0,-1,1315,554,0,0
98,470,0,0,0,0,0,0,0,0,0,-1,1322,554,0,0
105,470,0,0,0,0,0,0,0,0,0,-1,1329,554,0,0
112,470,0,0,0,0,0,0,0,0,0,-1,1336,554,0,0
119,470,0,0,0,0,0,0,0,0,0,-1,1343,554,0,0
126,470,0,0,0,0,0,0,0,0,0,-1,1350,554,0,0
133,470,0,0,0,0,0,0,0,0,0,-1,1357,554,0,0
140,470,0,0,0,0,0,0,0,0,0,-1,1364,554,0,0
147,470,0,0,0,0,0,0,0,0,0,-1,1371,554,0,0
154,470,0,0,0,0,0,0,0,0,0,-1,1378,554,0,0
161,470,0,0,0,0,0,0,0,0,0,-1,1385,554,0,0
168,470,0,0,0,0,0,0,0,0,0,-1,1392,554,0,0
175,470,0,0,0,0,0,0,0,0,0,-1,1399,554,0,0
182,470,0,0,0,0,0,0,0,0,0,-1,1406,554,0,0
189,470,0,0,0,0,0,0,0,0,0,-1,1413,554,0,0
196,470,0,0,0,0,0,0,0,0,0,-1,1420,554,0,0
203,470,0,0,0,0,0,0,0,0,0,-1,1427,554,0,0
210,470,0,0,0,0,0,0,0,0,0,-1,1434,554,0,0
217,470,0,0,0,0,0,0,0,0,0,-1,1441,554,0,0
224,470,0,0,0,0,0,0,0,0,0,-1,1448,554,0,0
231,470,0,0,0,0,0,0,0,0,0,-1,1455,554,0,0
238,470,0,0,0,0,0,0,0,0,0,-1,1462,554,0,0
245,470,0,0,0,0,0,0,0,0,0,-1,1469,554,0,0
252,470,0,0,0,0,0,0,0,0,0,-1,1476,554,0,0
259,470,0,0,0,0,0,0,0,0,0,-1,1483,554,0,0
266,470,0,0,0,0,0,0,0,0,0,-1,1490,554,0,0
273,470,0,0,0,0,0,0,0,0,0,-1,1497,554,0,0
280,470,0,0,0,0,0,0,0,0,0,-1,1504,554,0,0
287,470,0,0,0,0,0,0,0,0,0,-1,1511,554,0,0
294,470,0,0,0,0,0,0,0,0,0,-1,1518,554,0,0
301,470,0,0,0,0,0,0,0,0,0,-1,1525,554,0,0
308,470,0,0,0,0,0,0,0,0,0,-1,1532,554,0,0
315,470,0,0,0,0,0,0,0,0,0,-1,1539,554,0,0
322,470,0,0,0,0,0,0,0,0,0,-1,1546,554,0,0
329,470,0,0,0,0,0,0,0,0,0,-1,1553,554,0,0
336,470,0,0,0,0,0,0,0,0,0,-1,1560,554,0,0
343,470,0,0,0,0,0,0,0,0,0,-1,1567,554,0,0
350,470,0,0,0,0,0,0,0,0,0,-1,1574,554,0,0
357,470,0,0,0,0,0,0,0,0,0,-1,1581,554,0,0
364,470,1.33423,0.293335,0,0,0,0,0,0,0,-1,1588,554,1.33422,-0.293348
371,470,2.22498,-0.0305176,0,0,0,0,0,0,0,-1,1595,554,2.22494,0.0305046
378,470,6.27051,0.710083,0,0,0,0,0,0,0,-1,1602,554,6.27054,-0.710093
385,470,10.3657,1.47296,0,0,0,0,0,0,0,-1,1609,554,10.3657,-1.47299
392,470,15.3881,3.01935,0,0,0,0,0,0,0,-1,1616,554,15.388,-3.01937
399,470,18.4479,2.93793,0,0,0,0,0,0,0,-1,1623,554,18.4479,-2.93792
406,470,15.1896,1.36676,0,0,0,0,0,0,0,-1,1630,554,15.1896,-1.36679
413,470,6.55383,1.99207,0,0,0,0,0,0,0,-1,1637,554,6.5538,-1.99208
420,470,4.47095,0.845703,0,0,0,0,0,0,0,-1,1644,554,4.47098,-0.845718
427,470,3.51038,1.19684,0,0,0,0,0,0,0,-1,1651,554,3.51039,-1.19684
434,470,3.31775,-1.37427,0,0,0,0,0,0,0,-1,1658,554,3.31781,1.37426
441,470,2.55457,-2.05902,0,0,0,0,0,0,0,-1,1665,554,2.55461,2.05904
448,470,3.27258,-2.64032,0,0,0,0,0,0,0,-1,1672,554,3.27257,2.64029
455,470,10.3658,-9.82233,0,0,0,0,0,0,0,-1,1679,554,10.3659,9.82233
462,470,11.0651,-11.9958,0,0,0,0,0,0,0,-1,1686,554,11.0651,11.9958
469,470,13.749,-16.0587,0,0,0,0,0,0,0,-1,1693,554,13.749,16.0587
476,470,13.7606,-15.449,0.00292042,0.000890723,-0.000225527,0.00294517,0.000865965,-0.109337,0.00174783,0.0464747,1700,554,13.7607,15.4489
483,470,13.8588,-14.9354,0.0029017,0.00104039,0.000245088,0.00293343,0.00100866,0.128752,0.00172092,0.0160498,1707,554,13.8588,14.9353
490,470,13.824,-14.4182,0.00262967,0.00131638,0.00047901,0.00278582,0.00116023,0.315119,0.00161586,0.0112466,1714,554,13.824,14.4182
497,470,13.8097,-13.8919,0.00227376,0.00153812,0.000775885,0.0027646,0.00104729,0.564055,0.00161169,0.012732,1721,554,13.8097,13.8919
504,470,13.8346,-13.425,0.00180562,0.00126859,0.000818928,0.00239893,0.000675278,0.626977,0.00142843,0.0200759,1728,554,13.8346,13.4251
511,470,13.8602,-12.9259,0.0012357,0.000995216,0.000744521,0.00186963,0.000361291,0.705338,0.00114515,0.0279521,1735,554,13.8603,12.9259
518,470,13.865,-12.3768,0.000574035,0.000734321,0.00057443,0.00123417,7.41839e-05,0.85471,0.000799201,0.0273271,1742,554,13.865,12.3768
525,470,13.7864,-11.8195,-7.94583e-05,0.000344729,0.000320647,0.000517081,-0.00025181,1.07759,0.00045264,0.0162489,1749,554,13.7864,11.8195
532,470,13.7173,-11.2623,-0.000756895,6.09128e-05,3.09449e-05,6.20821e-05,-0.000758065,1.53303,0.00052729,0.0134372,1756,554,13.7173,11.2623
539,470,13.7056,-10.7274,-0.00144826,-0.000228779,-0.000313019,-0.000153126,-0.00152392,-1.33366,0.000968944,0.0160005,1763,554,13.7056,10.7274
546,470,13.7026,-10.204,-0.00225522,-0.000549348,-0.000755187,-0.00026307,-0.0025415,-1.20845,0.0016138,0.0147466,1770,554,13.7027,10.204
553,470,13.7288,-9.64966,-0.00311129,-0.000579098,-0.00120367,-9.82506e-05,-0.00359214,-1.19073,0.00236269,0.0201781,1777,554,13.7288,9.64967
560,470,13.7452,-8.94354,0,0,0,0,0,0,0,-1,1784,554,13.7452,8.94354
567,470,13.5515,-8.54688,0,0,0,0,0,0,0,-1,1791,554,13.5516,8.5469
574,470,13.5656,-7.67078,0,0,0,0,0,0,0,-1,1798,554,13.5656,7.67079
581,470,8.24646,-4.06317,0,0,0,0,0,0,0,-1,1805,554,8.24648,4.06318
588,470,11.1803,1.74927,0,0,0,0,0,0,0,-1,1812,554,11.1803,-1.74926
595,470,4.72192,3.44116,0,0,0,0,0,0,0,-1,1819,554,4.72191,-3.44116
602,470,14.4307,2.76141,0,0,0,0,0,0,0,-1,1826,554,14.4306,-2.76139
609,470,20.9181,4.41058,0,0,0,0,0,0,0,-1,1833,554,20.9181,-4.4106
616,470,0,0,0,0,0,0,0,0,0,-1,1840,554,0,0
623,470,0,0,0,0,0,0,0,0,0,-1,1847,554,0,0
630,470,0,0,0,0,0,0,0,0,0,-1,1854,554,0,0
637,470,0,0,0,0,0,0,0,0,0,-1,1861,554,0,0
644,470,0,0,0,0,0,0,0,0,0,-1,1868,554,0,0
651,470,0,0,0,0,0,0,0,0,0,-1,1875,554,0,0
658,470,0,0,0,0,0,0,0,0,0,-1,1882,554,0,0
665,470,0,0,0,0,0,0,0,0,0,-1,1889,554,0,0
672,470,0,0,0,0,0,0,0,0,0,-1,1896,554,0,0
679,470,0,0,0,0,0,0,0,0,0,-1,1903,554,0,0
686,470,0,0,0,0,0,0,0,0,0,-1,1910,554,0,0
693,470,0,0,0,0,0,0,0,0,0,-1,1917,554,0,0
700,470,0,0,0,0,0,0,0,0,0,-1,1924,554,0,0
707,470,0,0,0,0,0,0,0,0,0,-1,1931,554,0,0
714,470,0,0,0,0,0,0,0,0,0,-1,1938,554,0,0
721,470,0,0,0,0,0,0,0,0,0,-1,1945,554,0,0
728,470,0,0,0,0,0,0,0,0,0,-1,1952,554,0,0
735,470,0,0,0,0,0,0,0,0,0,-1,1959,554,0,0
742,470,0,0,0,0,0,0,0,0,0,-1,1966,554,0,0
749,470,0,0,0,0,0,0,0,0,0,-1,1973,554,0,0
756,470,0,0,0,0,0,0,0,0,0,-1,1980,554,0,0
763,470,0,0,0,0,0,0,0,0,0,-1,1987,554,0,0
770,470,0,0,0,0,0,0,0,0,0,-1,1994,554,0,0
777,470,0,0,0,0,0,0,0,0,0,-1,2001,554,0,0
784,470,0,0,0,0,0,0,0,0,0,-1,2008,554,0,0
791,470,0,0,0,0,0,0,0,0,0,-1,2015,554,0,0
798,470,0,0,0,0,0,0,0,0,0,-1,2022,554,0,0
805,470,0,0,0,0,0,0,0,0,0,-1,2029,554,0,0
812,470,0,0,0,0,0,0,0,0,0,-1,2036,554,0,0
-700,463,0,0,0,0,0,0,0,0,0,-1,524,561,0,0
-693,463,0,0,0,0,0,0,0,0,0,-1,531,561,0,0
-686,463,0,0,0,0,0,0,0,0,0,-1,538,561,0,0
-679,463,0,0,0,0,0,0,0,0,0,-1,545,561,0,0
-672,463,0,0,0,0,0,0,0,0,0,-1,552,561,0,0
-665,463,0,0,0,0,0,0,0,0,0,-1,559,561,0,0
-658,463,0,0,0,0,0,0,0,0,0,-1,566,561,0,0
-651,463,0,0,0,0,0,0,0,0,0,-1,573,561,0,0
-644,463,0,0,0,0,0,0,0,0,0,-1,580,561,0,0
-637,463,0,0,0,0,0,0,0,0,0,-1,587,561,0,0
-630,463,0,0,0,0,0,0,0,0,0,-1,594,561,0,0
-623,463,0,0,0,0,0,0,0,0,0,-1,601,561,0,0
-616,463,0,0,0,0,0,0,0,0,0,-1,608,561,0,0
-609,463,0,0,0,0,0,0,0,0,0,-1,615,561,0,0
-602,463,0,0,0,0,0,0,0,0,0,-1,622,561,0,0
-595,463,0,0,0,0,0,0,0,0,0,-1,629,561,0,0
-588,463,0,0,0,0,0,0,0,0,0,-1,636,561,0,0
-581,463,0,0,0,0,0,0,0,0,0,-1,643,561,0,0
-574,463,0,0,0,0,0,0,0,0,0,-1,650,561,0,0
-567,463,0,0,0,0,0,0,0,0,0,-1,657,561,0,0
-560,463,0,0,0,0,0,0,0,0,0,-1,664,561,0,0
-553,463,0,0,0,0,0,0,0,0,0,-1,671,561,0,0
-546,463,0,0,0,0,0,0,0,0,0,-1,678,561,0,0
-539,463,0,0,0,0,0,0,0,0,0,-1,685,561,0,0
-532,463,0,0,0,0,0,0,0,0,0,-1,692,561,0,0
-525,463,0,0,0,0,0,0,0,0,0,-1,699,561,0,0
-518,463,0,0,0,0,0,0,0,0,0,-1,706,561,0,0
-511,463,0,0,0,0,0,0,0,0,0,-1,713,561,0,0
-504,463,0,0,0,0,0,0,0,0,0,-1,720,561,0,0
-497,463,-9.81451,-1.67126,0,0,0,0,0,0,0,-1,727,561,-9.81452,1.67127
-490,463,-8.57043,-1.58942,0,0,0,0,0,0,0,-1,734,561,-8.57045,1.58944
-483,463,-7.29224,-1.7226,0,0,0,0,0,0,0,-1,741,561,-7.29226,1.72261
-476,463,-5.77704,-1.7312,0,0,0,0,0,0,0,-1,748,561,-5.77703,1.73121
-469,463,-5.14545,-2.138,0,0,0,0,0,0,0,-1,755,561,-5.14546,2.13799
-462,463,-3.13672,-3.07977,0,0,0,0,0,0,0,-1,762,561,-3.13672,3.07974
-455,463,-2.91406,-5.61798,0,0,0,0,0,0,0,-1,769,561,-2.91406,5.61801
-448,463,-4.00177,-8.54681,0,0,0,0,0,0,0,-1,776,561,-4.00175,8.54683
-441,463,-4.84106,-9.98865,0,0,0,0,0,0,0,-1,783,561,-4.84107,9.98862
-434,463,-4.72638,-10.7092,-0.0028812,0.0085695,-0.00287126,0.00924913,-0.00356083,-1.33837,0.00763502,0.025559,790,561,-4.7264,10.7092
-427,463,-4.71796,-11.2532,-0.00203586,0.00700129,-0.00238076,0.00759011,-0.00262468,-1.32834,0.00612537,0.0100538,797,561,-4.71799,11.2532
-420,463,-4.70618,-11.774,-0.00137432,0.0056072,-0.00198972,0.00613445,-0.00190157,-1.31176,0.0048494,0.00978406,804,561,-4.7062,11.774
-413,463,-4.73999,-12.2847,-0.000868451,0.0041654,-0.00156401,0.00461175,-0.00131481,-1.29279,0.00359386,0.00958253,811,561,-4.73999,12.2848
-406,463,-4.77338,-12.7808,-0.000337077,0.0030115,-0.00115713,0.00337245,-0.000698024,-1.26843,0.00251349,0.00958932,818,561,-4.7734,12.7808
-399,463,-4.7738,-13.2716,8.76329e-05,0.00201837,-0.000789221,0.00229992,-0.000193917,-1.22813,0.00160184,0.0107079,825,561,-4.77379,13.2716
-392,463,-4.7951,-13.7813,0.000491928,0.00102128,-0.000427617,0.00125951,0.000253704,-1.06252,0.00076918,0.0104918,832,561,-4.79509,13.7812
-385,463,-4.82928,-14.3089,0.000988936,0.000185535,-0.000124852,0.00100789,0.00016658,-0.150671,0.000623858,0.0112526,839,561,-4.8293,14.3089
-378,463,-4.83112,-14.8112,0.0014915,-0.000583472,0.000189016,0.00150858,-0.000600549,0.0901048,0.00125476,0.0121837,846,561,-4.83109,14.8112
-371,463,-4.83435,-15.2952,0.00200581,-0.00128585,0.000516405,0.00208492,-0.00136497,0.152019,0.0020062,0.0119549,853,561,-4.83436,15.2951
-364,463,-4.8399,-15.724,0.00256358,-0.00185105,0.000798029,0.00270341,-0.00199088,0.173458,0.00272064,0.0140538,860,561,-4.83991,15.724
-357,463,-4.86871,-16.1821,0.00321259,-0.00241047,0.000973603,0.00337639,-0.00257428,0.166683,0.00344601,0.0205714,867,561,-4.8687,16.182
-350,463,-4.77167,-16.726,0.00392558,-0.00289399,0.00105081,0.00408383,-0.00305224,0.14947,0.00413433,0.0353805,874,561,-4.77165,16.726
-343,463,-4.56934,-17.0336,0,0,0,0,0,0,0,-1,881,561,-4.56932,17.0336
-336,463,-2.94928,-12.2127,0,0,0,0,0,0,0,-1,888,561,-2.94925,12.2127
-329,463,-2.64307,-12.7037,0,0,0,0,0,0,0,-1,895,561,-2.64307,12.7038
-322,463,-1.82898,-9.11957,0,0,0,0,0,0,0,-1,902,561,-1.829,9.11957
-315,463,-0.944763,-5.96234,0,0,0,0,0,0,0,-1,909,561,-0.94479,5.96237
-308,463,-1.1535,-3.17889,0,0,0,0,0,0,0,-1,916,561,-1.15352,3.17889
-301,463,-1.50366,-3.15338,0,0,0,0,0,0,0,-1,923,561,-1.50364,3.15341
-294,463,-2.35889,-3.93463,0,0,0,0,0,0,0,-1,930,561,-2.35886,3.93465
-287,463,-2.80322,2.73999,0,0,0,0,0,0,0,-1,937,561,-2.80322,-2.74
-280,463,-12.864,5.25146,0,0,0,0,0,0,0,-1,944,561,-12.864,-5.25149
-273,463,-12.4598,3.39178,0,0,0,0,0,0,0,-1,951,561,-12.4598,-3.3918
-266,463,-8.78101,-3.7356,0,0,0,0,0,0,0,-1,958,561,-8.78098,3.73562
-259,463,-6.23285,-5.68842,0,0,0,0,0,0,0,-1,965,561,-6.23288,5.68843
-252,463,0,0,0,0,0,0,0,0,0,-1,972,561,0,0
-245,463,0,0,0,0,0,0,0,0,0,-1,979,561,0,0
-238,463,0,0,0,0,0,0,0,0,0,-1,986,561,0,0
-231,463,0,0,0,0,0,0,0,0,0,-1,993,561,0,0
-224,463,0,0,0,0,0,0,0,0,0,-1,1000,561,0,0
-217,463,0,0,0,0,0,0,0,0,0,-1,1007,561,0,0
-210,463,0,0,0,0,0,0,0,0,0,-1,1014,561,0,0
-203,463,0,0,0,0,0,0,0,0,0,-1,1021,561,0,0
-196,463,0,0,0,0,0,0,0,0,0,-1,1028,561,0,0
-189,463,0,0,0,0,0,0,0,0,0,-1,1035,561,0,0
-182,463,0,0,0,0,0,0,0,0,0,-1,1042,561,0,0
-175,463,0,0,0,0,0,0,0,0,0,-1,1049,561,0,0
-168,463,0,0,0,0,0,0,0,0,0,-1,1056,561,0,0
-161,463,0,0,0,0,0,0,0,0,0,-1,1063,561,0,0
-154,463,0,0,0,0,0,0,0,0,0,-1,1070,561,0,0
-147,463,0,0,0,0,0,0,0,0,0,-1,1077,561,0,0
-140,463,0,0,0,0,0,0,0,0,0,-1,1084,561,0,0
-133,463,0,0,0,0,0,0,0,0,0,-1,1091,561,0,0
-126,463,0,0,0,0,0,0,0,0,0,-1,1098,561,0,0
-119,463,0,0,0,0,0,0,0,0,0,-1,1105,561,0,0
-112,463,0,0,0,0,0,0,0,0,0,-1,1112,561,0,0
-105,463,0,0,0,0,0,0,0,0,0,-1,1119,561,0,0
-98,463,0,0,0,0,0,0,0,0,0,-1,1126,561,0,0
-91,463,0,0,0,0,0,0,0,0,0,-1,1133,561,0,0
-84,463,0,0,0,0,0,0,0,0,0,-1,1140,561,0,0
-77,463,0,0,0,0,0,0,0,0,0,-1,1147,561,0,0
-70,463,0,0,0,0,0,0,0,0,0,-1,1154,561,0,0
-63,463,0,0,0,0,0,0,0,0,0,-1,1161,561,0,0
-56,463,0,0,0,0,0,0,0,0,0,-1,1168,561,0,0
-49,463,0,0,0,0,0,0,0,0,0,-1,1175,561,0,0
-42,463,0,0,0,0,0,0,0,0,0,-1,1182,561,0,0
-35,463,0,0,0,0,0,0,0,0,0,-1,1189,561,0,0
-28,463,0,0,0,0,0,0,0,0,0,-1,1196,561,0,0
-21,463,0,0,0,0,0,0,0,0,0,-1,1203,561,0,0
-14,463,0,0,0,0,0,0,0,0,0,-1,1210,561,0,0
-7,463,0,0,0,0,0,0,0,0,0,-1,1217,561,0,0
0,463,0,0,0,0,0,0,0,0,0,-1,1224,561,0,0
7,463,0,0,0,0,0,0,0,0,0,-1,1231,561,0,0
14,463,0,0,0,0,0,0,0,0,0,-1,1238,561,0,0
21,463,0,0,0,0,0,0,0,0,0,-1,1245,561,0,0
28,463,0,0,0,0,0,0,0,0,0,-1,1252,561,0,0
35,463,0,0,0,0,0,0,0,0,0,-1,1259,561,0,0
42,463,0,0,0,0,0,0,0,0,0,-1,1266,561,0,0
49,463,0,0,0,0,0,0,0,0,0,-1,1273,561,0,0
56,463,0,0,0,0,0,0,0,0,0,-1,1280,561,0,0
63,463,0,0,0,0,0,0,0,0,0,-1,1287,561,0,0
70,463,0,0,0,0,0,0,0,0,0,-1,1294,561,0,0
77,463,0,0,0,0,0,0,0,0,0,-1,1301,561,0,0
84,463,0,0,0,0,0,0,0,0,0,-1,1308,561,0,0
91,463,0,0,0,0,0,0,0,0,0,-1,1315,561,0,0
98,463,0,0,0,0,0,0,0,0,0,-1,1322,561,0,0
105,463,0,0,0,0,0,0,0,0,0,-1,1329,561,0,0
112,463,0,0,0,0,0,0,0,0,0,-1,1336,561,0,0
119,463,0,0,0,0,0,0,0,0,0,-1,1343,561,0,0
126,463,0,0,0,0,0,0,0,0,0,-1,1350,561,0,0
133,463,0,0,0,0,0,0,0,0,0,-1,1357,561,0,0
140,463,0,0,0,0,0,0,0,0,0,-1,1364,561,0,0
147,463,0,0,0,0,0,0,0,0,0,-1,1371,561,0,0
154,463,0,0,0,0,0,0,0,0,0,-1,1378,561,0,0
161,463,0,0,0,0,0,0,0,0,0,-1,1385,561,0,0
168,463,0,0,0,0,0,0,0,0,0,-1,1392,561,0,0
175,463,0,0,0,0,0,0,0,0,0,-1,1399,561,0,0
182,463,0,0,0,0,0,0,0,0,0,-1,1406,561,0,0
189,463,0,0,0,0,0,0,0,0,0,-1,1413,561,0,0
196,463,0,0,0,0,0,0,0,0,0,-1,1420,561,0,0
203,463,0,0,0,0,0,0,0,0,0,-1,1427,561,0,0
210,463,0,0,0,0,0,0,0,0,0,-1,1434,561,0,0
217,463,0,0,0,0,0,0,0,0,0,-1,1441,561,0,0
224,463,0,0,0,0,0,0,0,0,0,-1,1448,561,0,0
231,463,0,0,0,0,0,0,0,0,0,-1,1455,561,0,0
238,463,0,0,0,0,0,0,0,0,0,-1,1462,561,0,0
245,463,0,0,0,0,0,0,0,0,0,-1,1469,561,0,0
252,463,0,0,0,0,0,0,0,0,0,-1,1476,561,0,0
259,463,0,0,0,0,0,0,0,0,0,-1,1483,561,0,0
266,463,0,0,0,0,0,0,0,0,0,-1,1490,561,0,0
273,463,0,0,0,0,0,0,0,0,0,-1,1497,561,0,0
280,463,0,0,0,0,0,0,0,0,0,-1,1504,561,0,0
287,463,0,0,0,0,0,0,0,0,0,-1,1511,561,0,0
294,463,0,0,0,0,0,0,0,0,0,-1,1518,561,0,0
301,463,0,0,0,0,0,0,0,0,0,-1,1525,561,0,0
308,463,0,0,0,0,0,0,0,0,0,-1,1532,561,0,0
315,463,0,0,0,0,0,0,0,0,0,-1,1539,561,0,0
322,463,0,0,0,0,0,0,0,0,0,-1,1546,561,0,0
329,463,0,0,0,0,0,0,0,0,0,-1,1553,561,0,0
336,463,0,0,0,0,0,0,0,0,0,-1,1560,561,0,0
343,463,0,0,0,0,0,0,0,0,0,-1,1567,561,0,0
350,463,0,0,0,0,0,0,0,0,0,-1,1574,561,0,0
357,463,0,0,0,0,0,0,0,0,0,-1,1581,561,0,0
364,463,0,0,0,0,0,0,0,0,0,-1,1588,561,0,0
371,463,1.75842,0.152588,0,0,0,0,0,0,0,-1,1595,561,1.75844,-0.152558
378,463,4.58813,-0.0444336,0,0,0,0,0,0,0,-1,1602,561,4.58809,0.0444505
385,463,8.88574,1.65057,0,0,0,0,0,0,0,-1,1609,561,8.88575,-1.65055
392,463,14.0912,2.50513,0,0,0,0,0,0,0,-1,1616,561,14.0912,-2.5051
399,463,21.4769,2.7002,0,0,0,0,0,0,0,-1,1623,561,21.477,-2.70017
406,463,26.2987,4.32318,0,0,0,0,0,0,0,-1,1630,561,26.2987,-4.3232
413,463,26.5011,2.65222,0,0,0,0,0,0,0,-1,1637,561,26.5011,-2.65224
420,463,8.849,2.26611,0,0,0,0,0,0,0,-1,1644,561,8.84899,-2.26613
427,463,5.12207,1.69183,0,0,0,0,0,0,0,-1,1651,561,5.12206,-1.69184
434,463,4.59814,1.81995,0,0,0,0,0,0,0,-1,1658,561,4.59812,-1.81994
441,463,1.76392,-5.99225,0,0,0,0,0,0,0,-1,1665,561,1.7639,5.99225
448,463,2.49939,-4.30536,0,0,0,0,0,0,0,-1,1672,561,2.49941,4.30536
455,463,4.40295,-3.02557,0,0,0,0,0,0,0,-1,1679,561,4.40299,3.02558
462,463,5.38293,-4.06445,0,0,0,0,0,0,0,-1,1686,561,5.38289,4.06444
469,463,5.94373,-4.50647,0,0,0,0,0,0,0,-1,1693,561,5.94368,4.50646
476,463,14.0891,-15.7465,0,0,0,0,0,0,0,-1,1700,561,14.0891,15.7465
483,463,14.3483,-15.0193,0,0,0,0,0,0,0,-1,1707,561,14.3483,15.0193
490,463,14.3553,-14.4141,0.00345622,0.00147357,0.000915758,0.00381446,0.00111533,0.372898,0.00226467,0.0227035,1714,561,14.3554,14.4141
497,463,14.3317,-13.8786,0.00309592,0.00182182,0.0012064,0.00382314,0.0010946,0.542479,0.0022735,0.0129308,1721,561,14.3317,13.8786
504,463,14.3356,-13.3891,0.00260428,0.00163574,0.00119907,0.00341318,0.000826841,0.593479,0.00205603,0.0166802,1728,561,14.3356,13.3891
511,463,14.3472,-12.894,0.00203877,0.00142644,0.00109063,0.0028654,0.000599814,0.648559,0.00174503,0.0234444,1735,561,14.3472,12.894
518,463,14.3673,-12.3395,0.00139958,0.00121815,0.000920627,0.00223395,0.000383779,0.736286,0.00137929,0.0237476,1742,561,14.3673,12.3395
525,463,14.3041,-11.8185,0.000775798,0.000915844,0.00068567,0.00153506,0.000156585,0.836283,0.000975375,0.0180674,1749,561,14.3041,11.8185
532,463,14.3016,-11.2787,0.00011582,0.000671428,0.000397031,0.000878194,-9.09462e-05,1.09066,0.000618013,0.0158706,1756,561,14.3016,11.2787
539,463,14.2667,-10.7168,-0.000538879,0.000401355,8.11935e-05,0.000408315,-0.000545839,1.48529,0.000552785,0.0177696,1763,561,14.2667,10.7168
546,463,14.2446,-10.2151,-0.00128617,8.6872e-05,-0.000319997,0.000157787,-0.00135709,-1.35271,0.000961645,0.0140355,1770,561,14.2446,10.2152
553,463,14.239,-9.65936,-0.00211106,3.12637e-06,-0.000723401,0.000226953,-0.00233489,-1.27073,0.00163749,0.0112668,1777,561,14.239,9.65938
560,463,14.2256,-9.02875,-0.00296988,-7.49575e-05,-0.00109731,0.000293961,-0.00333879,-1.24647,0.00233004,0.0183509,1784,561,14.2256,9.02874
567,463,14.1094,-8.49945,-0.00390871,-0.000225351,-0.0014622,0.000284527,-0.00441858,-1.23528,0.003045,0.0258855,1791,561,14.1094,8.49946
574,463,14.1716,-7.95087,0,0,0,0,0,0,0,-1,1798,561,14.1716,7.95088
581,463,9.4939,-3.88245,0,0,0,0,0,0,0,-1,1805,561,9.49392,3.88245
588,463,1.97424,2.16016,0,0,0,0,0,0,0,-1,1812,561,1.97422,-2.16013
595,463,9.98657,2.99854,0,0,0,0,0,0,0,-1,1819,561,9.98662,-2.99856
602,463,17.2202,4.91302,0,0,0,0,0,0,0,-1,1826,561,17.2202,-4.91305
609,463,17.96,4.03131,0,0,0,0,0,0,0,-1,1833,561,17.96,-4.03132
616,463,20.8352,3.15131,0,0,0,0,0,0,0,-1,1840,561,20.8352,-3.1513
623,463,0,0,0,0,0,0,0,0,0,-1,1847,561,0,0
630,463,0,0,0,0,0,0,0,0,0,-1,1854,561,0,0
637,463,0,0,0,0,0,0,0,0,0,-1,1861,561,0,0
644,463,0,0,0,0,0,0,0,0,0,-1,1868,561,0,0
651,463,0,0,0,0,0,0,0,0,0,-1,1875,561,0,0
658,463,0,0,0,0,0,0,0,0,0,-1,1882,561,0,0
665,463,0,0,0,0,0,0,0,0,0,-1,1889,561,0,0
672,463,0,0,0,0,0,0,0,0,0,-1,1896,561,0,0
679,463,0,0,0,0,0,0,0,0,0,-1,1903,561,0,0
686,463,0,0,0,0,0,0,0,0,0,-1,1910,561,0,0
693,463,0,0,0,0,0,0,0,0,0,-1,1917,561,0,0
700,463,0,0,0,0,0,0,0,0,0,-1,1924,561,0,0
707,463,0,0,0,0,0,0,0,0,0,-1,1931,561,0,0
714,463,0,0,0,0,0,0,0,0,0,-1,1938,561,0,0
721,463,0,0,0,0,0,0,0,0,0,-1,1945,561,0,0
728,463,0,0,0,0,0,0,0,0,0,-1,1952,561,0,0
735,463,0,0,0,0,0,0,0,0,0,-1,1959,561,0,0
742,463,0,0,0,0,0,0,0,0,0,-1,1966,561,0,0
749,463,0,0,0,0,0,0,0,0,0,-1,1973,561,0,0
756,463,0,0,0,0,0,0,0,0,0,-1,1980,561,0,0
763,463,0,0,0,0,0,0,0,0,0,-1,1987,561,0,0
770,463,0,0,0,0,0,0,0,0,0,-1,1994,561,0,0
777,463,0,0,0,0,0,0,0,0,0,-1,2001,561,0,0
784,463,0,0,0,0,0,0,0,0,0,-1,2008,561,0,0
791,463,0,0,0,0,0,0,0,0,0,-1,2015,561,0,0
798,463,0,0,0,0,0,0,0,0,0,-1,2022,561,0,0
805,463,0,0,0,0,0,0,0,0,0,-1,2029,561,0,0
812,463,0,0,0,0,0,0,0,0,0,-1,2036,561,0,0
-700,456,0,0,0,0,0,0,0,0,0,-1,524,568,0,0
-693,456,0,0,0,0,0,0,0,0,0,-1,531,568,0,0
-686,456,0,0,0,0,0,0,0,0,0,-1,538,568,0,0
-679,456,0,0,0,0,0,0,0,0,0,-1,545,568,0,0
-672,456,0,0,0,0,0,0,0,0,0,-1,552,568,0,0
-665,456,0,0,0,0,0,0,0,0,0,-1,559,568,0,0
-658,456,0,0,0,0,0,0,0,0,0,-1,566,568,0,0
-651,456,0,0,0,0,0,0,0,0,0,-1,573,568,0,0
-644,456,0,0,0,0,0,0,0,0,0,-1,580,568,0,0
-637,456,0,0,0,0,0,0,0,0,0,-1,587,568,0,0
-630,456,0,0,0,0,0,0,0,0,0,-1,594,568,0,0
-623,456,0,0,0,0,0,0,0,0,0,-1,601,568,0,0
-616,456,0,0,0,0,0,0,0,0,0,-1,608,568,0,0
-609,456,0,0,0,0,0,0,0,0,0,-1,615,568,0,0
-602,456,0,0,0,0,0,0,0,0,0,-1,622,568,0,0
-595,456,0,0,0,0,0,0,0,0,0,-1,629,568,0,0
-588,456,0,0,0,0,0,0,0,0,0,-1,636,568,0,0
-581,456,0,0,0,0,0,0,0,0,0,-1,643,568,0,0
-574,456,0,0,0,0,0,0,0,0,0,-1,650,568,0,0
-567,456,0,0,0,0,0,0,0,0,0,-1,657,568,0,0
-560,456,0,0,0,0,0,0,0,0,0,-1,664,568,0,0
-553,456,0,0,0,0,0,0,0,0,0,-1,671,568,0,0
-546,456,0,0,0,0,0,0,0,0,0,-1,678,568,0,0
-539,456,0,0,0,0,0,0,0,0,0,-1,685,568,0,0
-532,456,0,0,0,0,0,0,0,0,0,-1,692,568,0,0
-525,456,0,0,0,0,0,0,0,0,0,-1,699,568,0,0
-518,456,0,0,0,0,0,0,0,0,0,-1,706,568,0,0
-511,456,0,0,0,0,0,0,0,0,0,-1,713,568,0,0
-504,456,-10.3994,-2.34839,0,0,0,0,0,0,0,-1,720,568,-10.3994,2.3484
-497,456,-9.21375,-2.38068,0,0,0,0,0,0,0,-1,727,568,-9.21372,2.38069
-490,456,-8.09058,-2.31824,0,0,0,0,0,0,0,-1,734,568,-8.09057,2.31821
-483,456,-6.66119,-2.24329,0,0,0,0,0,0,0,-1,741,568,-6.66121,2.24331
-476,456,-5.1499,-2.21185,0,0,0,0,0,0,0,-1,748,568,-5.14992,2.21184
-469,456,-2.81238,-3.51501,0,0,0,0,0,0,0,-1,755,568,-2.81237,3.51501
-462,456,-4.2431,-5.27478,0,0,0,0,0,0,0,-1,762,568,-4.24312,5.27476
-455,456,-5.58929,-8.65594,0,0,0,0,0,0,0,-1,769,568,-5.58931,8.65596
-448,456,-4.9967,-9.26074,0,0,0,0,0,0,0,-1,776,568,-4.99668,9.26075
-441,456,-5.1369,-10.1307,-0.00303186,0.00858243,-0.00309866,0.00935743,-0.00380686,-1.32572,0.00782237,0.0296852,783,568,-5.13692,10.1307
-434,456,-5.20648,-10.7269,-0.00218912,0.00695117,-0.00244312,0.00756321,-0.00280116,-1.32533,0.00619083,0.0153355,790,568,-5.20648,10.727
-427,456,-5.20654,-11.248,-0.00152419,0.00551733,-0.00189023,0.00599265,-0.00199952,-1.32444,0.00480242,0.00879831,797,568,-5.20654,11.248
-420,456,-5.21356,-11.7519,-0.000985563,0.00426676,-0.0014354,0.00463344,-0.00135224,-1.32069,0.00362478,0.00939077,804,568,-5.21354,11.7519
-413,456,-5.24585,-12.2491,-0.000594937,0.00290473,-0.000935796,0.00313924,-0.00082945,-1.32525,0.00241722,0.00867323,811,568,-5.24587,12.2491
-406,456,-5.29199,-12.7529,-0.000159101,0.00182495,-0.000483927,0.00193669,-0.000270841,-1.34387,0.00139023,0.00867477,818,568,-5.29201,12.7529
-399,456,-5.30084,-13.2524,0.000217884,0.000913316,-0.000106203,0.000929173,0.000202027,-1.42258,0.000564293,0.0106147,825,568,-5.30086,13.2524
-392,456,-5.30579,-13.7571,0.000610001,-6.21954e-06,0.000243734,0.00069475,-9.09686e-05,0.334634,0.000496276,0.0106237,832,568,-5.30581,13.7571
-385,456,-5.3277,-14.2687,0.00111308,-0.00074592,0.000511336,0.00124445,-0.000877285,0.251467,0.00123108,0.0104111,839,568,-5.32768,14.2687
-378,456,-5.34326,-14.7917,0.00162576,-0.00144728,0.000808871,0.00182566,-0.00164719,0.242284,0.00200593,0.0115091,846,568,-5.34325,14.7917
-371,456,-5.33661,-15.2753,0.00222471,-0.00200325,0.00108791,0.00248822,-0.00226676,0.237641,0.00274628,0.0120679,853,568,-5.33659,15.2753
-364,456,-5.33209,-15.6855,0.00293657,-0.0023316,0.00125965,0.00322226,-0.0026173,0.223033,0.0033775,0.019765,860,568,-5.33207,15.6855
-357,456,-5.25513,-16.2462,0,0,0,0,0,0,0,-1,867,568,-5.25514,16.2462
-350,456,-5.10211,-16.9449,0,0,0,0,0,0,0,-1,874,568,-5.10213,16.9449
-343,456,-3.39081,-12.0217,0,0,0,0,0,0,0,-1,881,568,-3.39078,12.0217
-336,456,-3.04517,-12.4623,0,0,0,0,0,0,0,-1,888,568,-3.04519,12.4624
-329,456,-1.06183,-10.7184,0,0,0,0,0,0,0,-1,895,568,-1.06184,10.7184
-322,456,-0.662537,-7.66632,0,0,0,0,0,0,0,-1,902,568,-0.662564,7.66633
-315,456,-0.675476,-3.38397,0,0,0,0,0,0,0,-1,909,568,-0.675473,3.38399
-308,456,-1.1618,-3.15314,0,0,0,0,0,0,0,-1,916,568,-1.16178,3.15314
-301,456,-1.83551,-3.26447,0,0,0,0,0,0,0,-1,923,568,-1.8355,3.26449
-294,456,-2.93414,-3.35449,0,0,0,0,0,0,0,-1,930,568,-2.93413,3.35451
-287,456,-3.7569,-3.53101,0,0,0,0,0,0,0,-1,937,568,-3.75692,3.53101
-280,456,-13.072,4.52856,0,0,0,0,0,0,0,-1,944,568,-13.072,-4.52855
-273,456,-8.76031,-5.4386,0,0,0,0,0,0,0,-1,951,568,-8.7603,5.43861
-266,456,-5.61133,-8.90918,0,0,0,0,0,0,0,-1,958,568,-5.61135,8.90919
-259,456,0,0,0,0,0,0,0,0,0,-1,965,568,0,0
-252,456,0,0,0,0,0,0,0,0,0,-1,972,568,0,0
-245,456,0,0,0,0,0,0,0,0,0,-1,979,568,0,0
-238,456,0,0,0,0,0,0,0,0,0,-1,986,568,0,0
-231,456,0,0,0,0,0,0,0,0,0,-1,993,568,0,0
-224,456,0,0,0,0,0,0,0,0,0,-1,1000,568,0,0
-217,456,0,0,0,0,0,0,0,0,0,-1,1007,568,0,0
-210,456,0,0,0,0,0,0,0,0,0,-1,1014,568,0,0
-203,456,0,0,0,0,0,0,0,0,0,-1,1021,568,0,0
-196,456,0,0,0,0,0,0,0,0,0,-1,1028,568,0,0
-189,456,0,0,0,0,0,0,0,0,0,-1,1035,568,0,0
-182,456,0,0,0,0,0,0,0,0,0,-1,1042,568,0,0
-175,456,0,0,0,0,0,0,0,0,0,-1,1049,568,0,0
-168,456,0,0,0,0,0,0,0,0,0,-1,1056,568,0,0
-161,456,0,0,0,0,0,0,0,0,0,-1,1063,568,0,0
-154,456,0,0,0,0,0,0,0,0,0,-1,1070,568,0,0
-147,456,0,0,0,0,0,0,0,0,0,-1,1077,568,0,0
-140,456,0,0,0,0,0,0,0,0,0,-1,1084,568,0,0
-133,456,0,0,0,0,0,0,0,0,0,-1,1091,568,0,0
-126,456,0,0,0,0,0,0,0,0,0,-1,1098,568,0,0
-119,456,0,0,0,0,0,0,0,0,0,-1,1105,568,0,0
-112,456,0,0,0,0,0,0,0,0,0,-1,1112,568,0,0
-105,456,0,0,0,0,0,0,0,0,0,-1,1119,568,0,0
-98,456,0,0,0,0,0,0,0,0,0,-1,1126,568,0,0
-91,456,0,0,0,0,0,0,0,0,0,-1,1133,568,0,0
-84,456,0,0,0,0,0,0,0,0,0,-1,1140,568,0,0
-77,456,0,0,0,0,0,0,0,0,0,-1,1147,568,0,0
-70,456,0,0,0,0,0,0,0,0,0,-1,1154,568,0,0
-63,456,0,0,0,0,0,0,0,0,0,-1,1161,568,0,0
-56,456,0,0,0,0,0,0,0,0,0,-1,1168,568,0,0
-49,456,0,0,0,0,0,0,0,0,0,-1,1175,568,0,0
-42,456,0,0,0,0,0,0,0,0,0,-1,1182,568,0,0
-35,456,0,0,0,0,0,0,0,0,0,-1,1189,568,0,0
-28,456,0,0,0,0,0,0,0,0,0,-1,1196,568,0,0
-21,456,0,0,0,0,0,0,0,0,0,-1,1203,568,0,0
-14,456,0,0,0,0,0,0,0,0,0,-1,1210,568,0,0
-7,456,0,0,0,0,0,0,0,0,0,-1,1217,568,0,0
0,456,0,0,0,0,0,0,0,0,0,-1,1224,568,0,0
7,456,0,0,0,0,0,0,0,0,0,-1,1231,568,0,0
14,456,0,0,0,0,0,0,0,0,0,-1,1238,568,0,0
21,456,0,0,0,0,0,0,0,0,0,-1,1245,568,0,0
28,456,0,0,0,0,0,0,0,0,0,-1,1252,568,0,0
35,456,0,0,0,0,0,0,0,0,0,-1,1259,568,0,0
42,456,0,0,0,0,0,0,0,0,0,-1,1266,568,0,0
49,456,0,0,0,0,0,0,0,0,0,-1,1273,568,0,0
56,456,0,0,0,0,0,0,0,0,0,-1,1280,568,0,0
63,456,0,0,0,0,0,0,0,0,0,-1,1287,568,0,0
70,456,0,0,0,0,0,0,0,0,0,-1,1294,568,0,0
77,456,0,0,0,0,0,0,0,0,0,-1,1301,568,0,0
84,456,0,0,0,0,0,0,0,0,0,-1,1308,568,0,0
91,456,0,0,0,0,0,0,0,0,0,-1,1315,568,0,0
98,456,0,0,0,0,0,0,0,0,0,-1,1322,568,0,0
105,456,0,0,0,0,0,0,0,0,0,-1,1329,568,0,0
112,456,0,0,0,0,0,0,0,0,0,-1,1336,568,0,0
119,456,0,0,0,0,0,0,0,0,0,-1,1343,568,0,0
126,456,0,0,0,0,0,0,0,0,0,-1,1350,568,0,0
133,456,0,0,0,0,0,0,0,0,0,-1,1357,568,0,0
140,456,0,0,0,0,0,0,0,0,0,-1,1364,568,0,0
147,456,0,0,0,0,0,0,0,0,0,-1,1371,568,0,0
154,456,0,0,0,0,0,0,0,0,0,-1,1378,568,0,0
161,456,0,0,0,0,0,0,0,0,0,-1,1385,568,0,0
168,456,0,0,0,0,0,0,0,0,0,-1,1392,568,0,0
175,456,0,0,0,0,0,0,0,0,0,-1,1399,568,0,0
182,456,0,0,0,0,0,0,0,0,0,-1,1406,568,0,0
189,456,0,0,0,0,0,0,0,0,0,-1,1413,568,0,0
196,456,0,0,0,0,0,0,0,0,0,-1,1420,568,0,0
203,456,0,0,0,0,0,0,0,0,0,-1,1427,568,0,0
210,456,0,0,0,0,0,0,0,0,0,-1,1434,568,0,0
217,456,0,0,0,0,0,0,0,0,0,-1,1441,568,0,0
224,456,0,0,0,0,0,0,0,0,0,-1,1448,568,0,0
231,456,0,0,0,0,0,0,0,0,0,-1,1455,568,0,0
238,456,0,0,0,0,0,0,0,0,0,-1,1462,568,0,0
245,456,0,0,0,0,0,0,0,0,0,-1,1469,568,0,0
252,456,0,0,0,0,0,0,0,0,0,-1,1476,568,0,0
259,456,0,0,0,0,0,0,0,0,0,-1,1483,568,0,0
266,456,0,0,0,0,0,0,0,0,0,-1,1490,568,0,0
273,456,0,0,0,0,0,0,0,0,0,-1,1497,568,0,0
280,456,0,0,0,0,0,0,0,0,0,-1,1504,568,0,0
287,456,0,0,0,0,0,0,0,0,0,-1,1511,568,0,0
294,456,0,0,0,0,0,0,0,0,0,-1,1518,568,0,0
301,456,0,0,0,0,0,0,0,0,0,-1,1525,568,0,0
308,456,0,0,0,0,0,0,0,0,0,-1,1532,568,0,0
315,456,0,0,0,0,0,0,0,0,0,-1,1539,568,0,0
322,456,0,0,0,0,0,0,0,0,0,-1,1546,568,0,0
329,456,0,0,0,0,0,0,0,0,0,-1,1553,568,0,0
336,456,0,0,0,0,0,0,0,0,0,-1,1560,568,0,0
343,456,0,0,0,0,0,0,0,0,0,-1,1567,568,0,0
350,456,0,0,0,0,0,0,0,0,0,-1,1574,568,0,0
357,456,0,0,0,0,0,0,0,0,0,-1,1581,568,0,0
364,456,0,0,0,0,0,0,0,0,0,-1,1588,568,0,0
371,456,0,0,0,0,0,0,0,0,0,-1,1595,568,0,0
378,456,0,0,0,0,0,0,0,0,0,-1,1602,568,0,0
385,456,5.66284,0.660645,0,0,0,0,0,0,0,-1,1609,568,5.66285,-0.660615
392,456,17.5027,4.32971,0,0,0,0,0,0,0,-1,1616,568,17.5026,-4.32971
399,456,24.1917,5.99652,0,0,0,0,0,0,0,-1,1623,568,24.1916,-5.99651
406,456,24.446,4.53003,0,0,0,0,0,0,0,-1,1630,568,24.446,-4.53005
413,456,24.9418,2.90521,0,0,0,0,0,0,0,-1,1637,568,24.9418,-2.90524
420,456,25.3048,1.04712,0,0,0,0,0,0,0,-1,1644,568,25.3048,-1.04713
427,456,6.21375,2.02905,0,0,0,0,0,0,0,-1,1651,568,6.21372,-2.02904
434,456,3.0719,-4.86285,0,0,0,0,0,0,0,-1,1658,568,3.07184,4.86287
441,456,2.90344,-4.70459,0,0,0,0,0,0,0,-1,1665,568,2.90346,4.7046
448,456,3.06995,-4.93689,0,0,0,0,0,0,0,-1,1672,568,3.06991,4.93687
455,456,3.46582,-3.43701,0,0,0,0,0,0,0,-1,1679,568,3.46585,3.43698
462,456,4.68445,-4.45831,0,0,0,0,0,0,0,-1,1686,568,4.68439,4.45833
469,456,4.93201,-2.289,0,0,0,0,0,0,0,-1,1693,568,4.93197,2.28903
476,456,4.8363,-2.79364,0,0,0,0,0,0,0,-1,1700,568,4.83636,2.79363
483,456,12.8522,-13.692,0,0,0,0,0,0,0,-1,1707,568,12.8522,13.6919
490,456,14.8657,-14.5299,0,0,0,0,0,0,0,-1,1714,568,14.8657,14.5299
497,456,14.8489,-13.9176,0.00405902,0.00225951,0.00171757,0.00509823,0.00122029,0.544124,0.00307389,0.0444562,1721,568,14.8488,13.9176
504,456,14.8328,-13.3708,0.00348596,0.00203735,0.00162963,0.004545,0.000978311,0.57628,0.00276226,0.0125219,1728,568,14.8328,13.3708
511,456,14.8644,-12.8477,0.00288343,0.00177128,0.00147085,0.00389981,0.000754896,0.604672,0.00238834,0.0142807,1735,568,14.8644,12.8477
518,456,14.8606,-12.3177,0.00223438,0.00151796,0.00129421,0.00321904,0.000533301,0.65039,0.0019922,0.0165425,1742,568,14.8606,12.3178
525,456,14.8228,-11.7878,0.00160205,0.00125343,0.00107149,0.00251331,0.000342168,0.704766,0.00157393,0.015962,1749,568,14.8228,11.7878
532,456,14.8376,-11.2366,0.000929518,0.00100538,0.000778737,0.00174711,0.00018779,0.809734,0.00110746,0.0164447,1756,568,14.8377,11.2366
539,456,14.8167,-10.684,0.00029079,0.000736526,0.000483747,0.00104628,-1.89587e-05,1.00126,0.000703922,0.0211632,1763,568,14.8167,10.684
546,456,14.7509,-10.1606,-0.000412922,0.000431594,0.000120222,0.000448375,-0.000429703,1.43211,0.000506997,0.023426,1770,568,14.7508,10.1606
553,456,14.7219,-9.60266,-0.00120986,0.000335909,-0.000230324,0.000369498,-0.00124345,-1.42598,0.000975739,0.0145168,1777,568,14.7219,9.60269
560,456,14.7244,-9.09131,-0.00206964,0.000236355,-0.000538946,0.000356097,-0.00218938,-1.35217,0.00159162,0.0103834,1784,568,14.7244,9.09132
567,456,14.7253,-8.54071,-0.00295018,0.000160911,-0.000793643,0.000351674,-0.00314094,-1.33491,0.00222049,0.0167768,1791,568,14.7253,8.54072
574,456,14.6843,-8.16376,-0.0041757,0.000148518,-0.00110695,0.000415411,-0.00444259,-1.3342,0.00310946,0.0477057,1798,568,14.6844,8.16374
581,456,14.7207,-7.71313,0,0,0,0,0,0,0,-1,1805,568,14.7207,7.71314
588,456,5.23901,-0.0901489,0,0,0,0,0,0,0,-1,1812,568,5.23906,0.0901656
595,456,6.90063,3.14886,0,0,0,0,0,0,0,-1,1819,568,6.90066,-3.14887
602,456,16.894,4.10938,0,0,0,0,0,0,0,-1,1826,568,16.8941,-4.1094
609,456,14.9966,3.5708,0,0,0,0,0,0,0,-1,1833,568,14.9966,-3.57083
616,456,17.7407,2.6579,0,0,0,0,0,0,0,-1,1840,568,17.7408,-2.6579
623,456,20.6838,1.7121,0,0,0,0,0,0,0,-1,1847,568,20.6838,-1.71208
630,456,0,0,0,0,0,0,0,0,0,-1,1854,568,0,0
637,456,0,0,0,0,0,0,0,0,0,-1,1861,568,0,0
644,456,0,0,0,0,0,0,0,0,0,-1,1868,568,0,0
651,456,0,0,0,0,0,0,0,0,0,-1,1875,568,0,0
658,456,0,0,0,0,0,0,0,0,0,-1,1882,568,0,0
665,456,0,0,0,0,0,0,0,0,0,-1,1889,568,0,0
672,456,0,0,0,0,0,0,0,0,0,-1,1896,568,0,0
679,456,0,0,0,0,0,0,0,0,0,-1,1903,568,0,0
686,456,0,0,0,0,0,0,0,0,0,-1,1910,568,0,0
693,456,0,0,0,0,0,0,0,0,0,-1,1917,568,0,0
700,456,0,0,0,0,0,0,0,0,0,-1,1924,568,0,0
707,456,0,0,0,0,0,0,0,0,0,-1,1931,568,0,0
714,456,0,0,0,0,0,0,0,0,0,-1,1938,568,0,0
721,456,0,0,0,0,0,0,0,0,0,-1,1945,568,0,0
728,456,0,0,0,0,0,0,0,0,0,-1,1952,568,0,0
735,456,0,0,0,0,0,0,0,0,0,-1,1959,568,0,0
742,456,0,0,0,0,0,0,0,0,0,-1,1966,568,0,0
749,456,0,0,0,0,0,0,0,0,0,-1,1973,568,0,0
756,456,0,0,0,0,0,0,0,0,0,-1,1980,568,0,0
763,456,0,0,0,0,0,0,0,0,0,-1,1987,568,0,0
770,456,0,0,0,0,0,0,0,0,0,-1,1994,568,0,0
777,456,0,0,0,0,0,0,0,0,0,-1,2001,568,0,0
784,456,0,0,0,0,0,0,0,0,0,-1,2008,568,0,0
791,456,0,0,0,0,0,0,0,0,0,-1,2015,568,0,0
798,456,0,0,0,0,0,0,0,0,0,-1,2022,568,0,0
805,456,0,0,0,0,0,0,0,0,0,-1,2029,568,0,0
812,456,0,0,0,0,0,0,0,0,0,-1,2036,568,0,0
-700,449,0,0,0,0,0,0,0,0,0,-1,524,575,0,0
-693,449,0,0,0,0,0,0,0,0,0,-1,531,575,0,0
-686,449,0,0,0,0,0,0,0,0,0,-1,538,575,0,0
-679,449,0,0,0,0,0,0,0,0,0,-1,545,575,0,0
-672,449,0,0,0,0,0,0,0,0,0,-1,552,575,0,0
-665,449,0,0,0,0,0,0,0,0,0,-1,559,575,0,0
-658,449,0,0,0,0,0,0,0,0,0,-1,566,575,0,0
-651,449,0,0,0,0,0,0,0,0,0,-1,573,575,0,0
-644,449,0,0,0,0,0,0,0,0,0,-1,580,575,0,0
-637,449,0,0,0,0,0,0,0,0,0,-1,587,575,0,0
-630,449,0,0,0,0,0,0,0,0,0,-1,594,575,0,0
-623,449,0,0,0,0,0,0,0,0,0,-1,601,575,0,0
-616,449,0,0,0,0,0,0,0,0,0,-1,608,575,0,0
-609,449,0,0,0,0,0,0,0,0,0,-1,615,575,0,0
-602,449,0,0,0,0,0,0,0,0,0,-1,622,575,0,0
-595,449,0,0,0,0,0,0,0,0,0,-1,629,575,0,0
-588,449,0,0,0,0,0,0,0,0,0,-1,636,575,0,0
-581,449,0,0,0,0,0,0,0,0,0,-1,643,575,0,0
-574,449,0,0,0,0,0,0,0,0,0,-1,650,575,0,0
-567,449,0,0,0,0,0,0,0,0,0,-1,657,575,0,0
-560,449,0,0,0,0,0,0,0,0,0,-1,664,575,0,0
-553,449,0,0,0,0,0,0,0,0,0,-1,671,575,0,0
-546,449,0,0,0,0,0,0,0,0,0,-1,678,575,0,0
-539,449,0,0,0,0,0,0,0,0,0,-1,685,575,0,0
-532,449,0,0,0,0,0,0,0,0,0,-1,692,575,0,0
-525,449,0,0,0,0,0,0,0,0,0,-1,699,575,0,0
-518,449,0,0,0,0,0,0,0,0,0,-1,706,575,0,0
-511,449,-0.941345,-4.4519,0,0,0,0,0,0,0,-1,713,575,-0.941356,4.45191
-504,449,-14.1078,0.318237,0,0,0,0,0,0,0,-1,720,575,-14.1078,-0.318231
-497,449,-8.61292,-3.09009,0,0,0,0,0,0,0,-1,727,575,-8.61291,3.09011
-490,449,-7.50995,-2.96252,0,0,0,0,0,0,0,-1,734,575,-7.50995,2.96251
-483,449,-5.77789,-2.50061,0,0,0,0,0,0,0,-1,741,575,-5.77792,2.50059
-476,449,-4.1723,-2.07739,0,0,0,0,0,0,0,-1,748,575,-4.17228,2.0774
-469,449,-4.02954,-4.56329,0,0,0,0,0,0,0,-1,755,575,-4.02951,4.56329
-462,449,-5.57996,-8.28857,0,0,0,0,0,0,0,-1,762,575,-5.57994,8.28856
-455,449,-5.92554,-8.79041,0,0,0,0,0,0,0,-1,769,575,-5.92555,8.7904
-448,449,-5.67743,-9.54596,-0.00323276,0.00804901,-0.00313967,0.00886391,-0.00404766,-1.31685,0.00762541,0.0381433,776,575,-5.67741,9.54599
-441,449,-5.64728,-10.2558,-0.00230845,0.00667474,-0.00251837,0.00733257,-0.00296628,-1.31529,0.00612158,0.0182575,783,575,-5.64731,10.2558
-434,449,-5.71466,-10.7347,-0.00164838,0.0053184,-0.00189168,0.0057989,-0.00212889,-1.32205,0.00473778,0.0124873,790,575,-5.71465,10.7347
-427,449,-5.73279,-11.2291,-0.00112136,0.00405155,-0.00131351,0.00436596,-0.00143578,-1.33585,0.00348914,0.0130622,797,575,-5.73278,11.2291
-420,449,-5.73108,-11.7249,-0.000682742,0.00296736,-0.000833556,0.00314871,-0.000864087,-1.35658,0.00243874,0.0130393,804,575,-5.73105,11.7249
-413,449,-5.75018,-12.2263,-0.000389148,0.00173099,-0.000297001,0.00177181,-0.000429968,-1.43421,0.00134759,0.0103078,811,575,-5.75016,12.2263
-406,449,-5.79065,-12.7519,-4.97656e-05,0.000755333,0.000173001,0.000790933,-8.53661e-05,1.36785,0.000557925,0.0093533,818,575,-5.79067,12.7519
-399,449,-5.81201,-13.253,0.00027474,-6.1854e-05,0.00053971,0.000671785,-0.000458899,0.634262,0.000656646,0.00913071,825,575,-5.812,13.253
-392,449,-5.79578,-13.7421,0.000655892,-0.00088554,0.000855892,0.00103694,-0.00126659,0.418857,0.00133214,0.0101992,832,575,-5.79579,13.7421
-385,449,-5.80579,-14.2295,0.00115974,-0.00153299,0.00107411,0.00153571,-0.00190895,0.336695,0.00199266,0.0109551,839,575,-5.80579,14.2295
-378,449,-5.83252,-14.7413,0.00167909,-0.0021913,0.00134961,0.00210323,-0.00261544,0.304491,0.00272967,0.0101255,846,575,-5.83252,14.7412
-371,449,-5.82532,-15.2545,0.00236949,-0.00263934,0.00157843,0.00282541,-0.00309525,0.281187,0.00341948,0.0139871,853,575,-5.82535,15.2545
-364,449,-5.82629,-15.7297,0,0,0,0,0,0,0,-1,860,575,-5.82631,15.7297
-357,449,-5.88049,-15.8704,0,0,0,0,0,0,0,-1,867,575,-5.88051,15.8704
-350,449,-2.8764,-9.90204,0,0,0,0,0,0,0,-1,874,575,-2.87638,9.90203
-343,449,-2.98492,-9.2254,0,0,0,0,0,0,0,-1,881,575,-2.98491,9.22541
-336,449,-1.29523,-9.54626,0,0,0,0,0,0,0,-1,888,575,-1.29525,9.54626
-329,449,-0.733398,-7.78937,0,0,0,0,0,0,0,-1,895,575,-0.733398,7.78937
-322,449,-0.628845,-3.16669,0,0,0,0,0,0,0,-1,902,575,-0.628861,3.16667
-315,449,-0.540344,-3.21918,0,0,0,0,0,0,0,-1,909,575,-0.540336,3.21917
-308,449,-1.04413,-2.99341,0,0,0,0,0,0,0,-1,916,575,-1.04415,2.99338
-301,449,-1.58691,-2.80725,0,0,0,0,0,0,0,-1,923,575,-1.58692,2.80728
-294,449,-3.71118,-2.76086,0,0,0,0,0,0,0,-1,930,575,-3.71119,2.76087
-287,449,-4.4082,-2.69525,0,0,0,0,0,0,0,-1,937,575,-4.40822,2.69526
-280,449,-3.00708,-8.11707,0,0,0,0,0,0,0,-1,944,575,-3.00708,8.1171
-273,449,0,0,0,0,0,0,0,0,0,-1,951,575,0,0
-266,449,0,0,0,0,0,0,0,0,0,-1,958,575,0,0
-259,449,0,0,0,0,0,0,0,0,0,-1,965,575,0,0
-252,449,0,0,0,0,0,0,0,0,0,-1,972,575,0,0
-245,449,0,0,0,0,0,0,0,0,0,-1,979,575,0,0
-238,449,0,0,0,0,0,0,0,0,0,-1,986,575,0,0
-231,449,0,0,0,0,0,0,0,0,0,-1,993,575,0,0
-224,449,0,0,0,0,0,0,0,0,0,-1,1000,575,0,0
-217,449,0,0,0,0,0,0,0,0,0,-1,1007,575,0,0
-210,449,0,0,0,0,0,0,0,0,0,-1,1014,575,0,0
-203,449,0,0,0,0,0,0,0,0,0,-1,1021,575,0,0
-196,449,0,0,0,0,0,0,0,0,0,-1,1028,575,0,0
-189,449,0,0,0,0,0,0,0,0,0,-1,1035,575,0,0
-182,449,0,0,0,0,0,0,0,0,0,-1,1042,575,0,0
-175,449,0,0,0,0,0,0,0,0,0,-1,1049,575,0,0
-168,449,0,0,0,0,0,0,0,0,0,-1,1056,575,0,0
-161,449,0,0,0,0,0,0,0,0,0,-1,1063,575,0,0
-154,449,0,0,0,0,0,0,0,0,0,-1,1070,575,0,0
-147,449,0,0,0,0,0,0,0,0,0,-1,1077,575,0,0
-140,449,0,0,0,0,0,0,0,0,0,-1,1084,575,0,0
-133,449,0,0,0,0,0,0,0,0,0,-1,1091,575,0,0
-126,449,0,0,0,0,0,0,0,0,0,-1,1098,575,0,0
-119,449,0,0,0,0,0,0,0,0,0,-1,1105,575,0,0
-112,449,0,0,0,0,0,0,0,0,0,-1,1112,575,0,0
-105,449,0,0,0,0,0,0,0,0,0,-1,1119,575,0,0
-98,449,0,0,0,0,0,0,0,0,0,-1,1126,575,0,0
-91,449,0,0,0,0,0,0,0,0,0,-1,1133,575,0,0
-84,449,0,0,0,0,0,0,0,0,0,-1,1140,575,0,0
-77,449,0,0,0,0,0,0,0,0,0,-1,1147,575,0,0
-70,449,0,0,0,0,0,0,0,0,0,-1,1154,575,0,0
-63,449,0,0,0,0,0,0,0,0,0,-1,1161,575,0,0
-56,449,0,0,0,0,0,0,0,0,0,-1,1168,575,0,0
-49,449,0,0,0,0,0,0,0,0,0,-1,1175,575,0,0
-42,449,0,0,0,0,0,0,0,0,0,-1,1182,575,0,0
-35,449,0,0,0,0,0,0,0,0,0,-1,1189,575,0,0
-28,449,0,0,0,0,0,0,0,0,0,-1,1196,575,0,0
-21,449,0,0,0,0,0,0,0,0,0,-1,1203,575,0,0
-14,449,0,0,0,0,0,0,0,0,0,-1,1210,575,0,0
-7,449,0,0,0,0,0,0,0,0,0,-1,1217,575,0,0
0,449,0,0,0,0,0,0,0,0,0,-1,1224,575,0,0
7,449,0,0,0,0,0,0,0,0,0,-1,1231,575,0,0
14,449,0,0,0,0,0,0,0,0,0,-1,1238,575,0,0
21,449,0,0,0,0,0,0,0,0,0,-1,1245,575,0,0
28,449,0,0,0,0,0,0,0,0,0,-1,1252,575,0,0
35,449,0,0,0,0,0,0,0,0,0,-1,1259,575,0,0
42,449,0,0,0,0,0,0,0,0,0,-1,1266,575,0,0
49,449,0,0,0,0,0,0,0,0,0,-1,1273,575,0,0
56,449,0,0,0,0,0,0,0,0,0,-1,1280,575,0,0
63,449,0,0,0,0,0,0,0,0,0,-1,1287,575,0,0
70,449,0,0,0,0,0,0,0,0,0,-1,1294,575,0,0
77,449,0,0,0,0,0,0,0,0,0,-1,1301,575,0,0
84,449,0,0,0,0,0,0,0,0,0,-1,1308,575,0,0
91,449,0,0,0,0,0,0,0,0,0,-1,1315,575,0,0
98,449,0,0,0,0,0,0,0,0,0,-1,1322,575,0,0
105,449,0,0,0,0,0,0,0,0,0,-1,1329,575,0,0
112,449,0,0,0,0,0,0,0,0,0,-1,1336,575,0,0
119,449,0,0,0,0,0,0,0,0,0,-1,1343,575,0,0
126,449,0,0,0,0,0,0,0,0,0,-1,1350,575,0,0
133,449,0,0,0,0,0,0,0,0,0,-1,1357,575,0,0
140,449,0,0,0,0,0,0,0,0,0,-1,1364,575,0,0
147,449,0,0,0,0,0,0,0,0,0,-1,1371,575,0,0
154,449,0,0,0,0,0,0,0,0,0,-1,1378,575,0,0
161,449,0,0,0,0,0,0,0,0,0,-1,1385,575,0,0
168,449,0,0,0,0,0,0,0,0,0,-1,1392,575,0,0
175,449,0,0,0,0,0,0,0,0,0,-1,1399,575,0,0
182,449,0,0,0,0,0,0,0,0,0,-1,1406,575,0,0
189,449,0,0,0,0,0,0,0,0,0,-1,1413,575,0,0
196,449,0,0,0,0,0,0,0,0,0,-1,1420,575,0,0
203,449,0,0,0,0,0,0,0,0,0,-1,1427,575,0,0
210,449,0,0,0,0,0,0,0,0,0,-1,1434,575,0,0
217,449,0,0,0,0,0,0,0,0,0,-1,1441,575,0,0
224,449,0,0,0,0,0,0,0,0,0,-1,1448,575,0,0
231,449,0,0,0,0,0,0,0,0,0,-1,1455,575,0,0
238,449,0,0,0,0,0,0,0,0,0,-1,1462,575,0,0
245,449,0,0,0,0,0,0,0,0,0,-1,1469,575,0,0
252,449,0,0,0,0,0,0,0,0,0,-1,1476,575,0,0
259,449,0,0,0,0,0,0,0,0,0,-1,1483,575,0,0
266,449,0,0,0,0,0,0,0,0,0,-1,1490,575,0,0
273,449,0,0,0,0,0,0,0,0,0,-1,1497,575,0,0
280,449,0,0,0,0,0,0,0,0,0,-1,1504,575,0,0
287,449,0,0,0,0,0,0,0,0,0,-1,1511,575,0,0
294,449,0,0,0,0,0,0,0,0,0,-1,1518,575,0,0
301,449,0,0,0,0,0,0,0,0,0,-1,1525,575,0,0
308,449,0,0,0,0,0,0,0,0,0,-1,1532,575,0,0
315,449,0,0,0,0,0,0,0,0,0,-1,1539,575,0,0
322,449,0,0,0,0,0,0,0,0,0,-1,1546,575,0,0
329,449,0,0,0,0,0,0,0,0,0,-1,1553,575,0,0
336,449,0,0,0,0,0,0,0,0,0,-1,1560,575,0,0
343,449,0,0,0,0,0,0,0,0,0,-1,1567,575,0,0
350,449,0,0,0,0,0,0,0,0,0,-1,1574,575,0,0
357,449,0,0,0,0,0,0,0,0,0,-1,1581,575,0,0
364,449,0,0,0,0,0,0,0,0,0,-1,1588,575,0,0
371,449,0,0,0,0,0,0,0,0,0,-1,1595,575,0,0
378,449,0,0,0,0,0,0,0,0,0,-1,1602,575,0,0
385,449,0,0,0,0,0,0,0,0,0,-1,1609,575,0,0
392,449,7.95471,3.66217,0,0,0,0,0,0,0,-1,1616,575,7.95471,-3.66218
399,449,19.9791,5.565,0,0,0,0,0,0,0,-1,1623,575,19.9791,-5.56499
406,449,24.9847,4.55969,0,0,0,0,0,0,0,-1,1630,575,24.9848,-4.55968
413,449,30.4159,3.15027,0,0,0,0,0,0,0,-1,1637,575,30.4159,-3.15028
420,449,23.9675,1.29718,0,0,0,0,0,0,0,-1,1644,575,23.9675,-1.29721
427,449,24.4276,-0.596558,0,0,0,0,0,0,0,-1,1651,575,24.4277,0.596569
434,449,25.61,-2.96594,0,0,0,0,0,0,0,-1,1658,575,25.61,2.96595
441,449,3.89856,-6.06458,0,0,0,0,0,0,0,-1,1665,575,3.89855,6.06459
448,449,4.03198,-5.18207,0,0,0,0,0,0,0,-1,1672,575,4.03197,5.18207
455,449,4.21948,-4.09467,0,0,0,0,0,0,0,-1,1679,575,4.21952,4.09465
462,449,4.23181,-2.96924,0,0,0,0,0,0,0,-1,1686,575,4.23185,2.96926
469,449,4.51672,-2.95135,0,0,0,0,0,0,0,-1,1693,575,4.51672,2.95135
476,449,4.71838,-1.86688,0,0,0,0,0,0,0,-1,1700,575,4.71842,1.86689
483,449,4.87878,-1.73126,0,0,0,0,0,0,0,-1,1707,575,4.87875,1.73128
490,449,5.73279,-2.74573,0,0,0,0,0,0,0,-1,1714,575,5.73282,2.74575
497,449,15.2722,-14.1213,0,0,0,0,0,0,0,-1,1721,575,15.2722,14.1213
504,449,15.3235,-13.4304,0.00460831,0.00270125,0.00222981,0.00607992,0.00122965,0.583351,0.00371192,0.0485198,1728,575,15.3234,13.4304
511,449,15.37,-12.827,0.00389616,0.0022787,0.00197355,0.00522025,0.000954608,0.590942,0.00320964,0.0120402,1735,575,15.37,12.827
518,449,15.3759,-12.2896,0.00317699,0.00189407,0.0017528,0.00440202,0.00066905,0.609986,0.00273904,0.0136551,1742,575,15.3758,12.2896
525,449,15.3394,-11.7635,0.00247465,0.00161951,0.00150234,0.00360908,0.000485077,0.646762,0.00226177,0.0132279,1749,575,15.3393,11.7635
532,449,15.3064,-11.2289,0.00174155,0.00131379,0.0011648,0.00271194,0.000343397,0.694599,0.00170506,0.0114512,1756,575,15.3064,11.2289
539,449,15.2709,-10.6941,0.00107977,0.00101082,0.000851165,0.00189716,0.000193433,0.765157,0.00120548,0.0145207,1763,575,15.2709,10.6941
546,449,15.2535,-10.1537,0.000382108,0.000687257,0.000487633,0.00104563,2.37379e-05,0.937017,0.000689309,0.0248169,1770,575,15.2535,10.1538
553,449,15.2546,-9.62653,-0.000422999,0.000549203,0.000144441,0.000570209,-0.000444005,1.42638,0.000587066,0.0175976,1777,575,15.2546,9.62654
560,449,15.2888,-9.09454,-0.00131806,0.000415243,-0.000154433,0.000428895,-0.00133171,-1.48262,0.0010601,0.0139365,1784,575,15.2889,9.09455
567,449,15.2599,-8.56836,-0.0022116,0.0003698,-0.000383829,0.000425663,-0.00226746,-1.42627,0.00167169,0.00949485,1791,575,15.2599,8.56834
574,449,15.2574,-7.97992,-0.00334289,0.000381563,-0.000640475,0.000488625,-0.00344995,-1.40517,0.00247895,0.0222783,1798,575,15.2575,7.97992
581,449,15.3195,-7.23804,0,0,0,0,0,0,0,-1,1805,575,15.3195,7.23801
588,449,12.3274,-4.5672,0,0,0,0,0,0,0,-1,1812,575,12.3274,4.5672
595,449,11.2511,-2.25397,0,0,0,0,0,0,0,-1,1819,575,11.2511,2.25397
602,449,9.46167,4.17444,0,0,0,0,0,0,0,-1,1826,575,9.46164,-4.17442
609,449,12.2028,3.18652,0,0,0,0,0,0,0,-1,1833,575,12.2027,-3.18655
616,449,14.9438,2.19867,0,0,0,0,0,0,0,-1,1840,575,14.9438,-2.19867
623,449,9.83789,-0.0820313,0,0,0,0,0,0,0,-1,1847,575,9.83794,0.0820443
630,449,8.90686,4.99329,0,0,0,0,0,0,0,-1,1854,575,8.90685,-4.99327
637,449,0,0,0,0,0,0,0,0,0,-1,1861,575,0,0
644,449,0,0,0,0,0,0,0,0,0,-1,1868,575,0,0
651,449,0,0,0,0,0,0,0,0,0,-1,1875,575,0,0
658,449,0,0,0,0,0,0,0,0,0,-1,1882,575,0,0
665,449,0,0,0,0,0,0,0,0,0,-1,1889,575,0,0
672,449,0,0,0,0,0,0,0,0,0,-1,1896,575,0,0
679,449,0,0,0,0,0,0,0,0,0,-1,1903,575,0,0
686,449,0,0,0,0,0,0,0,0,0,-1,1910,575,0,0
693,449,0,0,0,0,0,0,0,0,0,-1,1917,575,0,0
700,449,0,0,0,0,0,0,0,0,0,-1,1924,575,0,0
707,449,0,0,0,0,0,0,0,0,0,-1,1931,575,0,0
714,449,0,0,0,0,0,0,0,0,0,-1,1938,575,0,0
721,449,0,0,0,0,0,0,0,0,0,-1,1945,575,0,0
728,449,0,0,0,0,0,0,0,0,0,-1,1952,575,0,0
735,449,0,0,0,0,0,0,0,0,0,-1,1959,575,0,0
742,449,0,0,0,0,0,0,0,0,0,-1,1966,575,0,0
749,449,0,0,0,0,0,0,0,0,0,-1,1973,575,0,0
756,449,0,0,0,0,0,0,0,0,0,-1,1980,575,0,0
763,449,0,0,0,0,0,0,0,0,0,-1,1987,575,0,0
770,449,0,0,0,0,0,0,0,0,0,-1,1994,575,0,0
777,449,0,0,0,0,0,0,0,0,0,-1,2001,575,0,0
784,449,0,0,0,0,0,0,0,0,0,-1,2008,575,0,0
791,449,0,0,0,0,0,0,0,0,0,-1,2015,575,0,0
798,449,0,0,0,0,0,0,0,0,0,-1,2022,575,0,0
805,449,0,0,0,0,0,0,0,0,0,-1,2029,575,0,0
812,449,0,0,0,0,0,0,0,0,0,-1,2036,575,0,0
-700,442,0,0,0,0,0,0,0,0,0,-1,524,582,0,0
-693,442,0,0,0,0,0,0,0,0,0,-1,531,582,0,0
-686,442,0,0,0,0,0,0,0,0,0,-1,538,582,0,0
-679,442,0,0,0,0,0,0,0,0,0,-1,545,582,0,0
-672,442,0,0,0,0,0,0,0,0,0,-1,552,582,0,0
-665,442,0,0,0,0,0,0,0,0,0,-1,559,582,0,0
-658,442,0,0,0,0,0,0,0,0,0,-1,566,582,0,0
-651,442,0,0,0,0,0,0,0,0,0,-1,573,582,0,0
-644,442,0,0,0,0,0,0,0,0,0,-1,580,582,0,0
-637,442,0,0,0,0,0,0,0,0,0,-1,587,582,0,0
-630,442,0,0,0,0,0,0,0,0,0,-1,594,582,0,0
-623,442,0,0,0,0,0,0,0,0,0,-1,601,582,0,0
-616,442,0,0,0,0,0,0,0,0,0,-1,608,582,0,0
-609,442,0,0,0,0,0,0,0,0,0,-1,615,582,0,0
-602,442,0,0,0,0,0,0,0,0,0,-1,622,582,0,0
-595,442,0,0,0,0,0,0,0,0,0,-1,629,582,0,0
-588,442,0,0,0,0,0,0,0,0,0,-1,636,582,0,0
-581,442,0,0,0,0,0,0,0,0,0,-1,643,582,0,0
-574,442,0,0,0,0,0,0,0,0,0,-1,650,582,0,0
-567,442,0,0,0,0,0,0,0,0,0,-1,657,582,0,0
-560,442,0,0,0,0,0,0,0,0,0,-1,664,582,0,0
-553,442,0,0,0,0,0,0,0,0,0,-1,671,582,0,0
-546,442,0,0,0,0,0,0,0,0,0,-1,678,582,0,0
-539,442,0,0,0,0,0,0,0,0,0,-1,685,582,0,0
-532,442,0,0,0,0,0,0,0,0,0,-1,692,582,0,0
-525,442,0,0,0,0,0,0,0,0,0,-1,699,582,0,0
-518,442,-0.493774,-5.72943,0,0,0,0,0,0,0,-1,706,582,-0.493791,5.72946
-511,442,-1.33008,-6.18512,0,0,0,0,0,0,0,-1,713,582,-1.33006,6.18511
-504,442,-3.20807,-6.34082,0,0,0,0,0,0,0,-1,720,582,-3.2081,6.34083
-497,442,-13.6886,-0.250122,0,0,0,0,0,0,0,-1,727,582,-13.6886,0.250143
-490,442,-9.09039,-3.64862,0,0,0,0,0,0,0,-1,734,582,-9.09037,3.64861
-483,442,-7.36499,-1.01892,0,0,0,0,0,0,0,-1,741,582,-7.365,1.01895
-476,442,-4.62225,-3.47467,0,0,0,0,0,0,0,-1,748,582,-4.62225,3.47465
-469,442,-5.75745,-7.41748,0,0,0,0,0,0,0,-1,755,582,-5.75743,7.41746
-462,442,-6.02826,-8.4129,-0.00453455,0.00808926,-0.00353156,0.00901007,-0.00545535,-1.31574,0.00843525,0.0475711,762,582,-6.02828,8.41289
-455,442,-6.27234,-9.07739,-0.00335754,0.00715035,-0.00307997,0.00798658,-0.00419377,-1.30568,0.00714506,0.0420365,769,582,-6.27236,9.0774
-448,442,-6.1676,-9.65277,-0.00239861,0.00600244,-0.00255319,0.00671753,-0.0031137,-1.29772,0.00580179,0.0173059,776,582,-6.16759,9.65279
-441,442,-6.20111,-10.2014,-0.00167807,0.00497148,-0.00198095,0.00551688,-0.00222347,-1.30213,0.00460176,0.0138081,783,582,-6.2011,10.2013
-434,442,-6.23291,-10.7155,-0.00115228,0.00382918,-0.00139423,0.00419285,-0.00151595,-1.31564,0.00341463,0.0136661,790,582,-6.23289,10.7155
-427,442,-6.24579,-11.2117,-0.000730419,0.00269857,-0.000819196,0.00288423,-0.000916076,-1.34793,0.00229009,0.013923,797,582,-6.2458,11.2116
-420,442,-6.24432,-11.7215,-0.000376054,0.00174662,-0.000327724,0.00179607,-0.0004255,-1.42105,0.00136156,0.0140338,804,582,-6.24432,11.7215
-413,442,-6.24817,-12.2361,-0.000173808,0.000632599,0.000238928,0.000698075,-0.000239283,1.30333,0.000562377,0.0114859,811,582,-6.24816,12.2361
-406,442,-6.28528,-12.7615,4.55349e-05,-0.000249524,0.000736183,0.000648825,-0.000852815,0.686509,0.000869635,0.0100441,818,582,-6.2853,12.7614
-399,442,-6.31323,-13.2538,0.000278208,-0.000990313,0.00111537,0.000927047,-0.00163915,0.526872,0.00150049,0.00878748,825,582,-6.31325,13.2538
-392,442,-6.29779,-13.7219,0.000605994,-0.00171424,0.00143049,0.00128766,-0.00239591,0.444694,0.00215856,0.0104254,832,582,-6.29779,13.7219
-385,442,-6.31342,-14.203,0.0010457,-0.00226493,0.00164253,0.00172233,-0.00294156,0.390761,0.00272319,0.012785,839,582,-6.31341,14.203
-378,442,-6.32251,-14.723,0.00149643,-0.00287701,0.00194732,0.00223781,-0.0036184,0.363777,0.00341226,0.0149666,846,582,-6.32249,14.723
-371,442,-6.27856,-15.2599,0.00222108,-0.00319464,0.00218438,0.0029923,-0.00396586,0.339401,0.00403038,0.0435505,853,582,-6.27856,15.2599
-364,442,-6.14514,-15.7711,0,0,0,0,0,0,0,-1,860,582,-6.14513,15.7711
-357,442,-4.9115,-11.2649,0,0,0,0,0,0,0,-1,867,582,-4.91147,11.2649
-350,442,-1.75372,-6.27618,0,0,0,0,0,0,0,-1,874,582,-1.75371,6.27618
-343,442,-1.4599,-4.63605,0,0,0,0,0,0,0,-1,881,582,-1.4599,4.63607
-336,442,-1.4054,-2.64313,0,0,0,0,0,0,0,-1,888,582,-1.40539,2.64315
-329,442,-0.952576,-2.76923,0,0,0,0,0,0,0,-1,895,582,-0.952571,2.7692
-322,442,-0.972534,-2.63208,0,0,0,0,0,0,0,-1,902,582,-0.972512,2.6321
-315,442,-0.445557,-2.89764,0,0,0,0,0,0,0,-1,909,582,-0.445582,2.89765
-308,442,-0.654175,-3.07831,0,0,0,0,0,0,0,-1,916,582,-0.654145,3.07832
-301,442,-1.37427,-2.41455,0,0,0,0,0,0,0,-1,923,582,-1.37425,2.41453
-294,442,-2.99963,-2.07855,0,0,0,0,0,0,0,-1,930,582,-2.99964,2.07857
-287,442,-5.62799,-2.76422,0,0,0,0,0,0,0,-1,937,582,-5.628,2.76424
-280,442,0,0,0,0,0,0,0,0,0,-1,944,582,0,0
-273,442,0,0,0,0,0,0,0,0,0,-1,951,582,0,0
-266,442,0,0,0,0,0,0,0,0,0,-1,958,582,0,0
-259,442,0,0,0,0,0,0,0,0,0,-1,965,582,0,0
-252,442,0,0,0,0,0,0,0,0,0,-1,972,582,0,0
-245,442,0,0,0,0,0,0,0,0,0,-1,979,582,0,0
-238,442,0,0,0,0,0,0,0,0,0,-1,986,582,0,0
-231,442,0,0,0,0,0,0,0,0,0,-1,993,582,0,0
-224,442,0,0,0,0,0,0,0,0,0,-1,1000,582,0,0
-217,442,0,0,0,0,0,0,0,0,0,-1,1007,582,0,0
-210,442,0,0,0,0,0,0,0,0,0,-1,1014,582,0,0
-203,442,0,0,0,0,0,0,0,0,0,-1,1021,582,0,0
-196,442,0,0,0,0,0,0,0,0,0,-1,1028,582,0,0
-189,442,0,0,0,0,0,0,0,0,0,-1,1035,582,0,0
-182,442,0,0,0,0,0,0,0,0,0,-1,1042,582,0,0
-175,442,0,0,0,0,0,0,0,0,0,-1,1049,582,0,0
-168,442,0,0,0,0,0,0,0,0,0,-1,1056,582,0,0
-161,442,0,0,0,0,0,0,0,0,0,-1,1063,582,0,0
-154,442,0,0,0,0,0,0,0,0,0,-1,1070,582,0,0
-147,442,0,0,0,0,0,0,0,0,0,-1,1077,582,0,0
-140,442,0,0,0,0,0,0,0,0,0,-1,1084,582,0,0
-133,442,0,0,0,0,0,0,0,0,0,-1,1091,582,0,0
-126,442,0,0,0,0,0,0,0,0,0,-1,1098,582,0,0
-119,442,0,0,0,0,0,0,0,0,0,-1,1105,582,0,0
-112,442,0,0,0,0,0,0,0,0,0,-1,1112,582,0,0
-105,442,0,0,0,0,0,0,0,0,0,-1,1119,582,0,0
-98,442,0,0,0,0,0,0,0,0,0,-1,1126,582,0,0
-91,442,0,0,0,0,0,0,0,0,0,-1,1133,582,0,0
-84,442,0,0,0,0,0,0,0,0,0,-1,1140,582,0,0
-77,442,0,0,0,0,0,0,0,0,0,-1,1147,582,0,0
-70,442,0,0,0,0,0,0,0,0,0,-1,1154,582,0,0
-63,442,0,0,0,0,0,0,0,0,0,-1,1161,582,0,0
-56,442,0,0,0,0,0,0,0,0,0,-1,1168,582,0,0
-49,442,0,0,0,0,0,0,0,0,0,-1,1175,582,0,0
-42,442,0,0,0,0,0,0,0,0,0,-1,1182,582,0,0
-35,442,0,0,0,0,0,0,0,0,0,-1,1189,582,0,0
-28,442,0,0,0,0,0,0,0,0,0,-1,1196,582,0,0
-21,442,0,0,0,0,0,0,0,0,0,-1,1203,582,0,0
-14,442,0,0,0,0,0,0,0,0,0,-1,1210,582,0,0
-7,442,0,0,0,0,0,0,0,0,0,-1,1217,582,0,0
0,442,0,0,0,0,0,0,0,0,0,-1,1224,582,0,0
7,442,0,0,0,0,0,0,0,0,0,-1,1231,582,0,0
14,442,0,0,0,0,0,0,0,0,0,-1,1238,582,0,0
21,442,0,0,0,0,0,0,0,0,0,-1,1245,582,0,0
28,442,0,0,0,0,0,0,0,0,0,-1,1252,582,0,0
35,442,0,0,0,0,0,0,0,0,0,-1,1259,582,0,0
42,442,0,0,0,0,0,0,0,0,0,-1,1266,582,0,0
49,442,0,0,0,0,0,0,0,0,0,-1,1273,582,0,0
56,442,0,0,0,0,0,0,0,0,0,-1,1280,582,0,0
63,442,0,0,0,0,0,0,0,0,0,-1,1287,582,0,0
70,442,0,0,0,0,0,0,0,0,0,-1,1294,582,0,0
77,442,0,0,0,0,0,0,0,0,0,-1,1301,582,0,0
84,442,0,0,0,0,0,0,0,0,0,-1,1308,582,0,0
91,442,0,0,0,0,0,0,0,0,0,-1,1315,582,0,0
98,442,0,0,0,0,0,0,0,0,0,-1,1322,582,0,0
105,442,0,0,0,0,0,0,0,0,0,-1,1329,582,0,0
112,442,0,0,0,0,0,0,0,0,0,-1,1336,582,0,0
119,442,0,0,0,0,0,0,0,0,0,-1,1343,582,0,0
126,442,0,0,0,0,0,0,0,0,0,-1,1350,582,0,0
133,442,0,0,0,0,0,0,0,0,0,-1,1357,582,0,0
140,442,0,0,0,0,0,0,0,0,0,-1,1364,582,0,0
147,442,0,0,0,0,0,0,0,0,0,-1,1371,582,0,0
154,442,0,0,0,0,0,0,0,0,0,-1,1378,582,0,0
161,442,0,0,0,0,0,0,0,0,0,-1,1385,582,0,0
168,442,0,0,0,0,0,0,0,0,0,-1,1392,582,0,0
175,442,0,0,0,0,0,0,0,0,0,-1,1399,582,0,0
182,442,0,0,0,0,0,0,0,0,0,-1,1406,582,0,0
189,442,0,0,0,0,0,0,0,0,0,-1,1413,582,0,0
196,442,0,0,0,0,0,0,0,0,0,-1,1420,582,0,0
203,442,0,0,0,0,0,0,0,0,0,-1,1427,582,0,0
210,442,0,0,0,0,0,0,0,0,0,-1,1434,582,0,0
217,442,0,0,0,0,0,0,0,0,0,-1,1441,582,0,0
224,442,0,0,0,0,0,0,0,0,0,-1,1448,582,0,0
231,442,0,0,0,0,0,0,0,0,0,-1,1455,582,0,0
238,442,0,0,0,0,0,0,0,0,0,-1,1462,582,0,0
245,442,0,0,0,0,0,0,0,0,0,-1,1469,582,0,0
252,442,0,0,0,0,0,0,0,0,0,-1,1476,582,0,0
259,442,0,0,0,0,0,0,0,0,0,-1,1483,582,0,0
266,442,0,0,0,0,0,0,0,0,0,-1,1490,582,0,0
273,442,0,0,0,0,0,0,0,0,0,-1,1497,582,0,0
280,442,0,0,0,0,0,0,0,0,0,-1,1504,582,0,0
287,442,0,0,0,0,0,0,0,0,0,-1,1511,582,0,0
294,442,0,0,0,0,0,0,0,0,0,-1,1518,582,0,0
301,442,0,0,0,0,0,0,0,0,0,-1,1525,582,0,0
308,442,0,0,0,0,0,0,0,0,0,-1,1532,582,0,0
315,442,0,0,0,0,0,0,0,0,0,-1,1539,582,0,0
322,442,0,0,0,0,0,0,0,0,0,-1,1546,582,0,0
329,442,0,0,0,0,0,0,0,0,0,-1,1553,582,0,0
336,442,0,0,0,0,0,0,0,0,0,-1,1560,582,0,0
343,442,0,0,0,0,0,0,0,0,0,-1,1567,582,0,0
350,442,0,0,0,0,0,0,0,0,0,-1,1574,582,0,0
357,442,0,0,0,0,0,0,0,0,0,-1,1581,582,0,0
364,442,0,0,0,0,0,0,0,0,0,-1,1588,582,0,0
371,442,0,0,0,0,0,0,0,0,0,-1,1595,582,0,0
378,442,0,0,0,0,0,0,0,0,0,-1,1602,582,0,0
385,442,0,0,0,0,0,0,0,0,0,-1,1609,582,0,0
392,442,0,0,0,0,0,0,0,0,0,-1,1616,582,0,0
399,442,0,0,0,0,0,0,0,0,0,-1,1623,582,0,0
406,442,17.6321,4.08295,0,0,0,0,0,0,0,-1,1630,582,17.6321,-4.08293
413,442,25.4768,2.74445,0,0,0,0,0,0,0,-1,1637,582,25.4768,-2.74444
420,442,22.7478,1.55011,0,0,0,0,0,0,0,-1,1644,582,22.7478,-1.55009
427,442,23.2969,-0.456787,0,0,0,0,0,0,0,-1,1651,582,23.2968,0.456769
434,442,23.9512,-2.49365,0,0,0,0,0,0,0,-1,1658,582,23.9512,2.49366
441,442,24.8251,-4.43958,0,0,0,0,0,0,0,-1,1665,582,24.8251,4.43956
448,442,4.7749,-5.88562,0,0,0,0,0,0,0,-1,1672,582,4.7749,5.8856
455,442,4.87024,-4.60687,0,0,0,0,0,0,0,-1,1679,582,4.87019,4.60686
462,442,5.02307,-3.72821,0,0,0,0,0,0,0,-1,1686,582,5.02311,3.7282
469,442,5.12976,-2.98834,0,0,0,0,0,0,0,-1,1693,582,5.12971,2.98834
476,442,5.4624,1.76947,0,0,0,0,0,0,0,-1,1700,582,5.46234,-1.76944
483,442,5.98486,1.87042,0,0,0,0,0,0,0,-1,1707,582,5.98492,-1.87045
490,442,5.04407,-2.35834,0,0,0,0,0,0,0,-1,1714,582,5.04411,2.35837
497,442,6.20984,-3.07831,0,0,0,0,0,0,0,-1,1721,582,6.2098,3.07833
504,442,15.7045,-13.4597,0,0,0,0,0,0,0,-1,1728,582,15.7044,13.4596
511,442,15.8413,-12.8268,0.0047855,0.00304317,0.00248688,0.00654939,0.00127929,0.616925,0.00400846,0.0319379,1735,582,15.8413,12.8269
518,442,15.8948,-12.2618,0.00404281,0.00244897,0.00223881,0.0056223,0.000869476,0.614412,0.00349462,0.0123756,1742,582,15.8948,12.2618
525,442,15.8594,-11.7431,0.00330539,0.00212025,0.00196262,0.00476295,0.000662699,0.638786,0.00297907,0.0110351,1749,582,15.8594,11.7431
532,442,15.8495,-11.2197,0.0025412,0.00170502,0.0015781,0.00375566,0.000490562,0.655908,0.00235733,0.0115849,1756,582,15.8495,11.2197
539,442,15.8302,-10.6702,0.00188015,0.00133898,0.00124197,0.00288066,0.000338462,0.678141,0.00181815,0.0125381,1763,582,15.8302,10.6702
546,442,15.8138,-10.1509,0.00120747,0.000975739,0.000877004,0.00197623,0.000206979,0.719721,0.0012542,0.0154878,1770,582,15.8139,10.1509
553,442,15.7937,-9.61609,0.000411893,0.000763302,0.000531674,0.00114755,2.76429e-05,0.944986,0.000755989,0.0165026,1777,582,15.7937,9.61609
560,442,15.8112,-9.06989,-0.000495628,0.000578325,0.000224125,0.000623221,-0.000540524,1.3731,0.000672454,0.0155646,1784,582,15.8111,9.06992
567,442,15.7852,-8.54779,-0.0013849,0.000528854,-5.04613e-06,0.000528868,-0.00138491,-1.56816,0.00114117,0.0107036,1791,582,15.7852,8.54778
574,442,15.7772,-8.00226,-0.00242414,0.000563299,-0.000221597,0.000579647,-0.00244049,-1.49716,0.00185072,0.0122831,1798,582,15.7772,8.00224
581,442,15.8104,-7.37238,-0.00369459,0.000697081,-0.0004212,0.000737113,-0.00373462,-1.47604,0.00276836,0.0255548,1805,582,15.8105,7.37235
588,442,15.8859,-6.71313,0,0,0,0,0,0,0,-1,1812,582,15.8858,6.71312
595,442,15.6626,-6.4646,0,0,0,0,0,0,0,-1,1819,582,15.6626,6.46458
602,442,11.4385,-1.74512,0,0,0,0,0,0,0,-1,1826,582,11.4385,1.74509
609,442,12.761,2.97223,0,0,0,0,0,0,0,-1,1833,582,12.761,-2.97221
616,442,9.78345,-0.103394,0,0,0,0,0,0,0,-1,1840,582,9.78341,0.103424
623,442,9.23828,0.326721,0,0,0,0,0,0,0,-1,1847,582,9.23829,-0.326727
630,442,7.74304,2.3924,0,0,0,0,0,0,0,-1,1854,582,7.7431,-2.39238
637,442,5.87805,1.84027,0,0,0,0,0,0,0,-1,1861,582,5.87807,-1.84025
644,442,0,0,0,0,0,0,0,0,0,-1,1868,582,0,0
651,442,0,0,0,0,0,0,0,0,0,-1,1875,582,0,0
658,442,0,0,0,0,0,0,0,0,0,-1,1882,582,0,0
665,442,0,0,0,0,0,0,0,0,0,-1,1889,582,0,0
672,442,0,0,0,0,0,0,0,0,0,-1,1896,582,0,0
679,442,0,0,0,0,0,0,0,0,0,-1,1903,582,0,0
686,442,0,0,0,0,0,0,0,0,0,-1,1910,582,0,0
693,442,0,0,0,0,0,0,0,0,0,-1,1917,582,0,0
700,442,0,0,0,0,0,0,0,0,0,-1,1924,582,0,0
707,442,0,0,0,0,0,0,0,0,0,-1,1931,582,0,0
714,442,0,0,0,0,0,0,0,0,0,-1,1938,582,0,0
721,442,0,0,0,0,0,0,0,0,0,-1,1945,582,0,0
728,442,0,0,0,0,0,0,0,0,0,-1,1952,582,0,0
735,442,0,0,0,0,0,0,0,0,0,-1,1959,582,0,0
742,442,0,0,0,0,0,0,0,0,0,-1,1966,582,0,0
749,442,0,0,0,0,0,0,0,0,0,-1,1973,582,0,0
756,442,0,0,0,0,0,0,0,0,0,-1,1980,582,0,0
763,442,0,0,0,0,0,0,0,0,0,-1,1987,582,0,0
770,442,0,0,0,0,0,0,0,0,0,-1,1994,582,0,0
777,442,0,0,0,0,0,0,0,0,0,-1,2001,582,0,0
784,442,0,0,0,0,0,0,0,0,0,-1,2008,582,0,0
791,442,0,0,0,0,0,0,0,0,0,-1,2015,582,0,0
798,442,0,0,0,0,0,0,0,0,0,-1,2022,582,0,0
805,442,0,0,0,0,0,0,0,0,0,-1,2029,582,0,0
812,442,0,0,0,0,0,0,0,0,0,-1,2036,582,0,0
-700,435,0,0,0,0,0,0,0,0,0,-1,524,589,0,0
-693,435,0,0,0,0,0,0,0,0,0,-1,531,589,0,0
-686,435,0,0,0,0,0,0,0,0,0,-1,538,589,0,0
-679,435,0,0,0,0,0,0,0,0,0,-1,545,589,0,0
-672,435,0,0,0,0,0,0,0,0,0,-1,552,589,0,0
-665,435,0,0,0,0,0,0,0,0,0,-1,559,589,0,0
-658,435,0,0,0,0,0,0,0,0,0,-1,566,589,0,0
-651,435,0,0,0,0,0,0,0,0,0,-1,573,589,0,0
-644,435,0,0,0,0,0,0,0,0,0,-1,580,589,0,0
-637,435,0,0,0,0,0,0,0,0,0,-1,587,589,0,0
-630,435,0,0,0,0,0,0,0,0,0,-1,594,589,0,0
-623,435,0,0,0,0,0,0,0,0,0,-1,601,589,0,0
-616,435,0,0,0,0,0,0,0,0,0,-1,608,589,0,0
-609,435,0,0,0,0,0,0,0,0,0,-1,615,589,0,0
-602,435,0,0,0,0,0,0,0,0,0,-1,622,589,0,0
-595,435,0,0,0,0,0,0,0,0,0,-1,629,589,0,0
-588,435,0,0,0,0,0,0,0,0,0,-1,636,589,0,0
-581,435,0,0,0,0,0,0,0,0,0,-1,643,589,0,0
-574,435,0,0,0,0,0,0,0,0,0,-1,650,589,0,0
-567,435,0,0,0,0,0,0,0,0,0,-1,657,589,0,0
-560,435,0,0,0,0,0,0,0,0,0,-1,664,589,0,0
-553,435,0,0,0,0,0,0,0,0,0,-1,671,589,0,0
-546,435,0,0,0,0,0,0,0,0,0,-1,678,589,0,0
-539,435,0,0,0,0,0,0,0,0,0,-1,685,589,0,0
-532,435,0,0,0,0,0,0,0,0,0,-1,692,589,0,0
-525,435,-10.0776,10.0547,0,0,0,0,0,0,0,-1,699,589,-10.0776,-10.0547
-518,435,-1.83093,-5.82367,0,0,0,0,0,0,0,-1,706,589,-1.83093,5.8237
-511,435,-2.45154,-5.33118,0,0,0,0,0,0,0,-1,713,589,-2.45151,5.33115
-504,435,-3.07208,-4.83862,0,0,0,0,0,0,0,-1,720,589,-3.0721,4.8386
-497,435,-6.31012,-5.84698,0,0,0,0,0,0,0,-1,727,589,-6.31012,5.84697
-490,435,-5.81903,-0.458679,0,0,0,0,0,0,0,-1,734,589,-5.81902,0.458684
-483,435,-6.96503,-3.01624,0,0,0,0,0,0,0,-1,741,589,-6.96505,3.01623
-476,435,-6.66614,-6.98694,0,0,0,0,0,0,0,-1,748,589,-6.66615,6.98695
-469,435,-6.5611,-7.66785,-0.00458533,0.00653417,-0.00292643,0.00725732,-0.00530848,-1.32854,0.00728389,0.0361836,755,589,-6.56108,7.66782
-462,435,-6.55493,-8.51563,-0.00346073,0.00599573,-0.00273822,0.00673138,-0.00419638,-1.30833,0.00636548,0.0226336,762,589,-6.55496,8.51564
-455,435,-6.7049,-9.05933,-0.00251385,0.0053181,-0.0024228,0.006007,-0.00320274,-1.29377,0.00539878,0.0208311,769,589,-6.70488,9.05935
-448,435,-6.68054,-9.65387,-0.00171841,0.00435218,-0.00197559,0.00493849,-0.00230471,-1.2823,0.00427302,0.0138861,776,589,-6.68052,9.65387
-441,435,-6.70947,-10.1664,-0.00115309,0.00354362,-0.00147405,0.00396792,-0.00157738,-1.29053,0.00329925,0.0120876,783,589,-6.70947,10.1665
-434,435,-6.74786,-10.668,-0.000741097,0.00256677,-0.000938697,0.00281459,-0.000988912,-1.31269,0.00227872,0.0125437,790,589,-6.74785,10.668
-427,435,-6.7627,-11.2023,-0.000415457,0.00153328,-0.000374074,0.00160262,-0.000484796,-1.38751,0.00126146,0.0103717,797,589,-6.76267,11.2023
-420,435,-6.74896,-11.7014,-0.000151126,0.000662357,0.000134166,0.000683913,-0.000172682,1.41149,0.000523092,0.0109409,804,589,-6.74894,11.7014
-413,435,-6.7666,-12.2187,-4.94059e-05,-0.000352891,0.000737448,0.00055175,-0.000954047,0.683931,0.000879653,0.0115584,811,589,-6.76658,12.2187
-406,435,-6.79095,-12.7349,2.21538e-05,-0.00118259,0.00128553,0.000839441,-0.00199988,0.566299,0.0016843,0.0121308,818,589,-6.79096,12.7348
-399,435,-6.81592,-13.2148,0.000129878,-0.00190517,0.00171618,0.00110751,-0.0028828,0.517807,0.00237859,0.00973739,825,589,-6.8159,13.2148
-392,435,-6.83203,-13.7169,0.000379281,-0.00258412,0.00208204,0.00145303,-0.00365788,0.476144,0.00304093,0.0100894,832,589,-6.83203,13.7169
-385,435,-6.82739,-14.2227,0.000714406,-0.00310711,0.00236074,0.00184077,-0.00423347,0.445178,0.00359652,0.0179045,839,589,-6.82739,14.2227
-378,435,-6.8501,-14.6317,0.0010422,-0.00375316,0.00279049,0.00232361,-0.00503458,0.430483,0.0043433,0.0394626,846,589,-6.85011,14.6316
-371,435,-6.75842,-15.2418,0,0,0,0,0,0,0,-1,853,589,-6.75841,15.2417
-364,435,-5.62848,-11.5937,0,0,0,0,0,0,0,-1,860,589,-5.62847,11.5937
-357,435,-5.57343,-10.9666,0,0,0,0,0,0,0,-1,867,589,-5.57342,10.9666
-350,435,-0.86676,-3.69836,0,0,0,0,0,0,0,-1,874,589,-0.866784,3.69834
-343,435,-1.60706,-2.36835,0,0,0,0,0,0,0,-1,881,589,-1.60706,2.36838
-336,435,-2.07263,-1.94012,0,0,0,0,0,0,0,-1,888,589,-2.07265,1.94014
-329,435,-2.55963,-1.5517,0,0,0,0,0,0,0,-1,895,589,-2.5596,1.55168
-322,435,-3.08545,-1.55255,0,0,0,0,0,0,0,-1,902,589,-3.08544,1.55254
-315,435,-0.404297,-2.63763,0,0,0,0,0,0,0,-1,909,589,-0.404276,2.63761
-308,435,-1.70056,-1.90369,0,0,0,0,0,0,0,-1,916,589,-1.70056,1.90367
-301,435,-1.25232,-2.05511,0,0,0,0,0,0,0,-1,923,589,-1.25234,2.05514
-294,435,-1.79974,-1.97321,0,0,0,0,0,0,0,-1,930,589,-1.79973,1.97322
-287,435,0,0,0,0,0,0,0,0,0,-1,937,589,0,0
-280,435,0,0,0,0,0,0,0,0,0,-1,944,589,0,0
-273,435,0,0,0,0,0,0,0,0,0,-1,951,589,0,0
-266,435,0,0,0,0,0,0,0,0,0,-1,958,589,0,0
-259,435,0,0,0,0,0,0,0,0,0,-1,965,589,0,0
-252,435,0,0,0,0,0,0,0,0,0,-1,972,589,0,0
-245,435,0,0,0,0,0,0,0,0,0,-1,979,589,0,0
-238,435,0,0,0,0,0,0,0,0,0,-1,986,589,0,0
-231,435,0,0,0,0,0,0,0,0,0,-1,993,589,0,0
-224,435,0,0,0,0,0,0,0,0,0,-1,1000,589,0,0
-217,435,0,0,0,0,0,0,0,0,0,-1,1007,589,0,0
-210,435,0,0,0,0,0,0,0,0,0,-1,1014,589,0,0
-203,435,0,0,0,0,0,0,0,0,0,-1,1021,589,0,0
-196,435,0,0,0,0,0,0,0,0,0,-1,1028,589,0,0
-189,435,0,0,0,0,0,0,0,0,0,-1,1035,589,0,0
-182,435,0,0,0,0,0,0,0,0,0,-1,1042,589,0,0
-175,435,0,0,0,0,0,0,0,0,0,-1,1049,589,0,0
-168,435,0,0,0,0,0,0,0,0,0,-1,1056,589,0,0
-161,435,0,0,0,0,0,0,0,0,0,-1,1063,589,0,0
-154,435,0,0,0,0,0,0,0,0,0,-1,1070,589,0,0
-147,435,0,0,0,0,0,0,0,0,0,-1,1077,589,0,0
-140,435,0,0,0,0,0,0,0,0,0,-1,1084,589,0,0
-133,435,0,0,0,0,0,0,0,0,0,-1,1091,589,0,0
-126,435,0,0,0,0,0,0,0,0,0,-1,1098,589,0,0
-119,435,0,0,0,0,0,0,0,0,0,-1,1105,589,0,0
-112,435,0,0,0,0,0,0,0,0,0,-1,1112,589,0,0
-105,435,0,0,0,0,0,0,0,0,0,-1,1119,589,0,0
-98,435,0,0,0,0,0,0,0,0,0,-1,1126,589,0,0
-91,435,0,0,0,0,0,0,0,0,0,-1,1133,589,0,0
-84,435,0,0,0,0,0,0,0,0,0,-1,1140,589,0,0
-77,435,0,0,0,0,0,0,0,0,0,-1,1147,589,0,0
-70,435,0,0,0,0,0,0,0,0,0,-1,1154,589,0,0
-63,435,0,0,0,0,0,0,0,0,0,-1,1161,589,0,0
-56,435,0,0,0,0,0,0,0,0,0,-1,1168,589,0,0
-49,435,0,0,0,0,0,0,0,0,0,-1,1175,589,0,0
-42,435,0,0,0,0,0,0,0,0,0,-1,1182,589,0,0
-35,435,0,0,0,0,0,0,0,0,0,-1,1189,589,0,0
-28,435,0,0,0,0,0,0,0,0,0,-1,1196,589,0,0
-21,435,0,0,0,0,0,0,0,0,0,-1,1203,589,0,0
-14,435,0,0,0,0,0,0,0,0,0,-1,1210,589,0,0
-7,435,0,0,0,0,0,0,0,0,0,-1,1217,589,0,0
0,435,0,0,0,0,0,0,0,0,0,-1,1224,589,0,0
7,435,0,0,0,0,0,0,0,0,0,-1,1231,589,0,0
14,435,0,0,0,0,0,0,0,0,0,-1,1238,589,0,0
21,435,0,0,0,0,0,0,0,0,0,-1,1245,589,0,0
28,435,0,0,0,0,0,0,0,0,0,-1,1252,589,0,0
35,435,0,0,0,0,0,0,0,0,0,-1,1259,589,0,0
42,435,0,0,0,0,0,0,0,0,0,-1,1266,589,0,0
49,435,0,0,0,0,0,0,0,0,0,-1,1273,589,0,0
56,435,0,0,0,0,0,0,0,0,0,-1,1280,589,0,0
63,435,0,0,0,0,0,0,0,0,0,-1,1287,589,0,0
70,435,0,0,0,0,0,0,0,0,0,-1,1294,589,0,0
77,435,0,0,0,0,0,0,0,0,0,-1,1301,589,0,0
84,435,0,0,0,0,0,0,0,0,0,-1,1308,589,0,0
91,435,0,0,0,0,0,0,0,0,0,-1,1315,589,0,0
98,435,0,0,0,0,0,0,0,0,0,-1,1322,589,0,0
105,435,0,0,0,0,0,0,0,0,0,-1,1329,589,0,0
112,435,0,0,0,0,0,0,0,0,0,-1,1336,589,0,0
119,435,0,0,0,0,0,0,0,0,0,-1,1343,589,0,0
126,435,0,0,0,0,0,0,0,0,0,-1,1350,589,0,0
133,435,0,0,0,0,0,0,0,0,0,-1,1357,589,0,0
140,435,0,0,0,0,0,0,0,0,0,-1,1364,589,0,0
147,435,0,0,0,0,0,0,0,0,0,-1,1371,589,0,0
154,435,0,0,0,0,0,0,0,0,0,-1,1378,589,0,0
161,435,0,0,0,0,0,0,0,0,0,-1,1385,589,0,0
168,435,0,0,0,0,0,0,0,0,0,-1,1392,589,0,0
175,435,0,0,0,0,0,0,0,0,0,-1,1399,589,0,0
182,435,0,0,0,0,0,0,0,0,0,-1,1406,589,0,0
189,435,0,0,0,0,0,0,0,0,0,-1,1413,589,0,0
196,435,0,0,0,0,0,0,0,0,0,-1,1420,589,0,0
203,435,0,0,0,0,0,0,0,0,0,-1,1427,589,0,0
210,435,0,0,0,0,0,0,0,0,0,-1,1434,589,0,0
217,435,0,0,0,0,0,0,0,0,0,-1,1441,589,0,0
224,435,0,0,0,0,0,0,0,0,0,-1,1448,589,0,0
231,435,0,0,0,0,0,0,0,0,0,-1,1455,589,0,0
238,435,0,0,0,0,0,0,0,0,0,-1,1462,589,0,0
245,435,0,0,0,0,0,0,0,0,0,-1,1469,589,0,0
252,435,0,0,0,0,0,0,0,0,0,-1,1476,589,0,0
259,435,0,0,0,0,0,0,0,0,0,-1,1483,589,0,0
266,435,0,0,0,0,0,0,0,0,0,-1,1490,589,0,0
273,435,0,0,0,0,0,0,0,0,0,-1,1497,589,0,0
280,435,0,0,0,0,0,0,0,0,0,-1,1504,589,0,0
287,435,0,0,0,0,0,0,0,0,0,-1,1511,589,0,0
294,435,0,0,0,0,0,0,0,0,0,-1,1518,589,0,0
301,435,0,0,0,0,0,0,0,0,0,-1,1525,589,0,0
308,435,0,0,0,0,0,0,0,0,0,-1,1532,589,0,0
315,435,0,0,0,0,0,0,0,0,0,-1,1539,589,0,0
322,435,0,0,0,0,0,0,0,0,0,-1,1546,589,0,0
329,435,0,0,0,0,0,0,0,0,0,-1,1553,589,0,0
336,435,0,0,0,0,0,0,0,0,0,-1,1560,589,0,0
343,435,0,0,0,0,0,0,0,0,0,-1,1567,589,0,0
350,435,0,0,0,0,0,0,0,0,0,-1,1574,589,0,0
357,435,0,0,0,0,0,0,0,0,0,-1,1581,589,0,0
364,435,0,0,0,0,0,0,0,0,0,-1,1588,589,0,0
371,435,0,0,0,0,0,0,0,0,0,-1,1595,589,0,0
378,435,0,0,0,0,0,0,0,0,0,-1,1602,589,0,0
385,435,0,0,0,0,0,0,0,0,0,-1,1609,589,0,0
392,435,0,0,0,0,0,0,0,0,0,-1,1616,589,0,0
399,435,0,0,0,0,0,0,0,0,0,-1,1623,589,0,0
406,435,0,0,0,0,0,0,0,0,0,-1,1630,589,0,0
413,435,20.4565,3.49835,0,0,0,0,0,0,0,-1,1637,589,20.4565,-3.49836
420,435,21.4015,1.49609,0,0,0,0,0,0,0,-1,1644,589,21.4015,-1.49609
427,435,22.0464,-0.373962,0,0,0,0,0,0,0,-1,1651,589,22.0464,0.373972
434,435,22.1863,-1.54407,0,0,0,0,0,0,0,-1,1658,589,22.1862,1.54405
441,435,22.3992,-2.38287,0,0,0,0,0,0,0,-1,1665,589,22.3992,2.38289
448,435,7.4585,-0.00292969,0,0,0,0,0,0,0,-1,1672,589,7.45848,0.00294131
455,435,5.49915,-5.047,0,0,0,0,0,0,0,-1,1679,589,5.49914,5.04703
462,435,5.60669,-4.71466,0,0,0,0,0,0,0,-1,1686,589,5.60675,4.71469
469,435,5.87708,1.22351,0,0,0,0,0,0,0,-1,1693,589,5.87703,-1.22351
476,435,6.14136,1.37714,0,0,0,0,0,0,0,-1,1700,589,6.14138,-1.37712
483,435,6.49243,1.36169,0,0,0,0,0,0,0,-1,1707,589,6.49242,-1.36171
490,435,4.38391,-1.36218,0,0,0,0,0,0,0,-1,1714,589,4.38389,1.3622
497,435,7.23499,-3.64551,0,0,0,0,0,0,0,-1,1721,589,7.23495,3.64551
504,435,7.31189,-3.75909,0,0,0,0,0,0,0,-1,1728,589,7.31184,3.75911
511,435,16.325,-12.8673,0,0,0,0,0,0,0,-1,1735,589,16.3249,12.8673
518,435,16.4298,-12.2885,0.0050422,0.00293003,0.00276933,0.00694998,0.00102225,0.603235,0.00433295,0.0278725,1742,589,16.4298,12.2885
525,435,16.3988,-11.7255,0.00420959,0.00257547,0.00244251,0.00596808,0.000816983,0.623991,0.00373629,0.0129005,1749,589,16.3988,11.7255
532,435,16.3977,-11.1885,0.00336349,0.00207256,0.00198624,0.00480651,0.000629535,0.628297,0.00301647,0.0149531,1756,589,16.3978,11.1885
539,435,16.3981,-10.6456,0.0026671,0.00168237,0.00161325,0.00386145,0.000488022,0.637287,0.00242803,0.0166059,1763,589,16.398,10.6456
546,435,16.3625,-10.1284,0.00199169,0.00131241,0.00124157,0.00293924,0.000364869,0.651886,0.0018499,0.0146225,1770,589,16.3625,10.1284
553,435,16.3409,-9.60571,0.00118821,0.00103812,0.000884389,0.00200073,0.000225595,0.743072,0.00126534,0.0107724,1777,589,16.341,9.60573
560,435,16.3247,-9.06165,0.00025927,0.000824264,0.000560135,0.00116911,-8.55725e-05,1.01895,0.000809438,0.00972532,1784,589,16.3247,9.06166
567,435,16.3276,-8.51782,-0.000650873,0.000779993,0.000323299,0.000849651,-0.00072053,1.35858,0.000907565,0.00909034,1791,589,16.3277,8.51784
574,435,16.2844,-7.98633,-0.00163684,0.000831037,0.000129934,0.000837859,-0.00164367,1.51834,0.00145767,0.00986079,1798,589,16.2844,7.98633
581,435,16.2552,-7.44946,-0.00276813,0.00100811,1.38057e-06,0.00100811,-0.00276813,1.57043,0.00225777,0.0177537,1805,589,16.2553,7.44948
588,435,16.2562,-6.92902,-0.00399878,0.00140718,-1.33237e-07,0.00140718,-0.00399878,-1.57077,0.00323847,0.0397285,1812,589,16.2562,6.92904
595,435,16.0765,-6.43121,-0.00540505,0.00227707,0.00015154,0.00228006,-0.00540804,1.55108,0.00455954,0.0460111,1819,589,16.0765,6.43119
602,435,15.9207,-5.29907,0,0,0,0,0,0,0,-1,1826,589,15.9206,5.29905
609,435,15.2611,-3.42242,0,0,0,0,0,0,0,-1,1833,589,15.2611,3.42242
616,435,5.05151,-2.75269,0,0,0,0,0,0,0,-1,1840,589,5.05157,2.7527
623,435,11.7588,3.9704,0,0,0,0,0,0,0,-1,1847,589,11.7587,-3.97043
630,435,4.72742,-0.87561,0,0,0,0,0,0,0,-1,1854,589,4.7274,0.875636
637,435,5.05286,1.48792,0,0,0,0,0,0,0,-1,1861,589,5.05291,-1.48792
644,435,0,0,0,0,0,0,0,0,0,-1,1868,589,0,0
651,435,0,0,0,0,0,0,0,0,0,-1,1875,589,0,0
658,435,0,0,0,0,0,0,0,0,0,-1,1882,589,0,0
665,435,0,0,0,0,0,0,0,0,0,-1,1889,589,0,0
672,435,0,0,0,0,0,0,0,0,0,-1,1896,589,0,0
679,435,0,0,0,0,0,0,0,0,0,-1,1903,589,0,0
686,435,0,0,0,0,0,0,0,0,0,-1,1910,589,0,0
693,435,0,0,0,0,0,0,0,0,0,-1,1917,589,0,0
700,435,0,0,0,0,0,0,0,0,0,-1,1924,589,0,0
707,435,0,0,0,0,0,0,0,0,0,-1,1931,589,0,0
714,435,0,0,0,0,0,0,0,0,0,-1,1938,589,0,0
721,435,0,0,0,0,0,0,0,0,0,-1,1945,589,0,0
728,435,0,0,0,0,0,0,0,0,0,-1,1952,589,0,0
735,435,0,0,0,0,0,0,0,0,0,-1,1959,589,0,0
742,435,0,0,0,0,0,0,0,0,0,-1,1966,589,0,0
749,435,0,0,0,0,0,0,0,0,0,-1,1973,589,0,0
756,435,0,0,0,0,0,0,0,0,0,-1,1980,589,0,0
763,435,0,0,0,0,0,0,0,0,0,-1,1987,589,0,0
770,435,0,0,0,0,0,0,0,0,0,-1,1994,589,0,0
777,435,0,0,0,0,0,0,0,0,0,-1,2001,589,0,0
784,435,0,0,0,0,0,0,0,0,0,-1,2008,589,0,0
791,435,0,0,0,0,0,0,0,0,0,-1,2015,589,0,0
798,435,0,0,0,0,0,0,0,0,0,-1,2022,589,0,0
805,435,0,0,0,0,0,0,0,0,0,-1,2029,589,0,0
812,435,0,0,0,0,0,0,0,0,0,-1,2036,589,0,0
-700,428,0,0,0,0,0,0,0,0,0,-1,524,596,0,0
-693,428,0,0,0,0,0,0,0,0,0,-1,531,596,0,0
-686,428,0,0,0,0,0,0,0,0,0,-1,538,596,0,0
-679,428,0,0,0,0,0,0,0,0,0,-1,545,596,0,0
-672,428,0,0,0,0,0,0,0,0,0,-1,552,596,0,0
-665,428,0,0,0,0,0,0,0,0,0,-1,559,596,0,0
-658,428,0,0,0,0,0,0,0,0,0,-1,566,596,0,0
-651,428,0,0,0,0,0,0,0,0,0,-1,573,596,0,0
-644,428,0,0,0,0,0,0,0,0,0,-1,580,596,0,0
-637,428,0,0,0,0,0,0,0,0,0,-1,587,596,0,0
-630,428,0,0,0,0,0,0,0,0,0,-1,594,596,0,0
-623,428,0,0,0,0,0,0,0,0,0,-1,601,596,0,0
-616,428,0,0,0,0,0,0,0,0,0,-1,608,596,0,0
-609,428,0,0,0,0,0,0,0,0,0,-1,615,596,0,0
-602,428,0,0,0,0,0,0,0,0,0,-1,622,596,0,0
-595,428,0,0,0,0,0,0,0,0,0,-1,629,596,0,0
-588,428,0,0,0,0,0,0,0,0,0,-1,636,596,0,0
-581,428,0,0,0,0,0,0,0,0,0,-1,643,596,0,0
-574,428,0,0,0,0,0,0,0,0,0,-1,650,596,0,0
-567,428,0,0,0,0,0,0,0,0,0,-1,657,596,0,0
-560,428,0,0,0,0,0,0,0,0,0,-1,664,596,0,0
-553,428,0,0,0,0,0,0,0,0,0,-1,671,596,0,0
-546,428,0,0,0,0,0,0,0,0,0,-1,678,596,0,0
-539,428,0,0,0,0,0,0,0,0,0,-1,685,596,0,0
-532,428,0,0,0,0,0,0,0,0,0,-1,692,596,0,0
-525,428,-9.59918,7.58618,0,0,0,0,0,0,0,-1,699,596,-9.59918,-7.5862
-518,428,-2.92285,-4.81854,0,0,0,0,0,0,0,-1,706,596,-2.92285,4.81856
-511,428,-3.68811,-4.79474,0,0,0,0,0,0,0,-1,713,596,-3.68811,4.79474
-504,428,-4.45337,-4.77094,0,0,0,0,0,0,0,-1,720,596,-4.45337,4.77092
-497,428,-2.98108,-3.77502,0,0,0,0,0,0,0,-1,727,596,-2.98106,3.77505
-490,428,-6.39044,-2.80481,0,0,0,0,0,0,0,-1,734,596,-6.39047,2.80483
-483,428,-7.62341,-5.64526,0,0,0,0,0,0,0,-1,741,596,-7.62344,5.64525
-476,428,-7.17419,-7.47125,0,0,0,0,0,0,0,-1,748,596,-7.17418,7.47124
-469,428,-7.07831,-7.9743,-0.00340868,0.00448151,-0.00209319,0.00500243,-0.00392959,-1.32689,0.00516929,0.0255244,755,596,-7.07833,7.97428
-462,428,-7.15533,-8.43866,-0.00252753,0.00421195,-0.00202213,0.00477211,-0.0030877,-1.30056,0.00457247,0.0247799,762,596,-7.15536,8.43866
-455,428,-7.21954,-9.0434,-0.00176322,0.00373932,-0.0018091,0.00428082,-0.00230472,-1.27996,0.0038588,0.0148592,769,596,-7.21955,9.04337
-448,428,-7.21399,-9.5954,-0.00111143,0.00294774,-0.00143519,0.00340391,-0.00156761,-1.26305,0.00293485,0.012142,776,596,-7.21399,9.59538
-441,428,-7.24207,-10.126,-0.000686159,0.00232033,-0.000983302,0.00261336,-0.000979196,-1.28116,0.0021445,0.014677,783,596,-7.24205,10.1261
-434,428,-7.26624,-10.6588,-0.000380421,0.00147164,-0.000478549,0.00158798,-0.000496764,-1.33231,0.00125739,0.0106065,790,596,-7.26624,10.6588
-427,428,-7.2674,-11.1884,-0.000156875,0.000510417,8.75054e-05,0.000521702,-0.000168159,1.44255,0.00041536,0.0104727,797,596,-7.26738,11.1884
-420,428,-7.26263,-11.674,-4.3004e-06,-0.000325105,0.00063006,0.000485455,-0.00081486,0.660755,0.000758724,0.0114213,804,596,-7.26266,11.674
-413,428,-7.27484,-12.1662,-2.68336e-05,-0.0012707,0.00128169,0.000775849,-0.00207339,0.559511,0.00170092,0.0143153,811,596,-7.27487,12.1662
-406,428,-7.30035,-12.665,-0.00014651,-0.00210565,0.00189999,0.00101156,-0.00326373,0.547386,0.00257998,0.0171705,818,596,-7.30037,12.665
-399,428,-7.2984,-13.1703,-0.000219163,-0.00289603,0.00240728,0.00119675,-0.00431194,0.531682,0.00334567,0.014761,825,596,-7.2984,13.1703
-392,428,-7.30408,-13.7248,-0.000103478,-0.00363487,0.00285624,0.00148877,-0.00522711,0.508555,0.00407273,0.023205,832,596,-7.3041,13.7248
-385,428,-7.36603,-14.3604,0,0,0,0,0,0,0,-1,839,596,-7.36602,14.3604
-378,428,-7.47638,-14.6211,0,0,0,0,0,0,0,-1,846,596,-7.47637,14.6211
-371,428,-5.96155,-11.0703,0,0,0,0,0,0,0,-1,853,596,-5.96154,11.0702
-364,428,-6.33643,-10.7223,0,0,0,0,0,0,0,-1,860,596,-6.33645,10.7223
-357,428,-3.20996,-4.70966,0,0,0,0,0,0,0,-1,867,596,-3.20997,4.70965
-350,428,-1.62793,-3.94055,0,0,0,0,0,0,0,-1,874,596,-1.62794,3.94055
-343,428,-0.0567017,-4.80994,0,0,0,0,0,0,0,-1,881,596,-0.0567096,4.80996
-336,428,-3.29175,-1.39569,0,0,0,0,0,0,0,-1,888,596,-3.29172,1.39568
-329,428,-3.71564,-0.791321,0,0,0,0,0,0,0,-1,895,596,-3.71564,0.791299
-322,428,-5.52863,-3.59827,0,0,0,0,0,0,0,-1,902,596,-5.52865,3.59829
-315,428,-4.57172,-1.22052,0,0,0,0,0,0,0,-1,909,596,-4.57171,1.22052
-308,428,-5.94324,-0.810791,0,0,0,0,0,0,0,-1,916,596,-5.94321,0.810803
-301,428,0,0,0,0,0,0,0,0,0,-1,923,596,0,0
-294,428,0,0,0,0,0,0,0,0,0,-1,930,596,0,0
-287,428,0,0,0,0,0,0,0,0,0,-1,937,596,0,0
-280,428,0,0,0,0,0,0,0,0,0,-1,944,596,0,0
-273,428,0,0,0,0,0,0,0,0,0,-1,951,596,0,0
-266,428,0,0,0,0,0,0,0,0,0,-1,958,596,0,0
-259,428,0,0,0,0,0,0,0,0,0,-1,965,596,0,0
-252,428,0,0,0,0,0,0,0,0,0,-1,972,596,0,0
-245,428,0,0,0,0,0,0,0,0,0,-1,979,596,0,0
-238,428,0,0,0,0,0,0,0,0,0,-1,986,596,0,0
-231,428,0,0,0,0,0,0,0,0,0,-1,993,596,0,0
-224,428,0,0,0,0,0,0,0,0,0,-1,1000,596,0,0
-217,428,0,0,0,0,0,0,0,0,0,-1,1007,596,0,0
-210,428,0,0,0,0,0,0,0,0,0,-1,1014,596,0,0
-203,428,0,0,0,0,0,0,0,0,0,-1,1021,596,0,0
-196,428,0,0,0,0,0,0,0,0,0,-1,1028,596,0,0
-189,428,0,0,0,0,0,0,0,0,0,-1,1035,596,0,0
-182,428,0,0,0,0,0,0,0,0,0,-1,1042,596,0,0
-175,428,0,0,0,0,0,0,0,0,0,-1,1049,596,0,0
-168,428,0,0,0,0,0,0,0,0,0,-1,1056,596,0,0
-161,428,0,0,0,0,0,0,0,0,0,-1,1063,596,0,0
-154,428,0,0,0,0,0,0,0,0,0,-1,1070,596,0,0
-147,428,0,0,0,0,0,0,0,0,0,-1,1077,596,0,0
-140,428,0,0,0,0,0,0,0,0,0,-1,1084,596,0,0
-133,428,0,0,0,0,0,0,0,0,0,-1,1091,596,0,0
-126,428,0,0,0,0,0,0,0,0,0,-1,1098,596,0,0
-119,428,0,0,0,0,0,0,0,0,0,-1,1105,596,0,0
-112,428,0,0,0,0,0,0,0,0,0,-1,1112,596,0,0
-105,428,0,0,0,0,0,0,0,0,0,-1,1119,596,0,0
-98,428,0,0,0,0,0,0,0,0,0,-1,1126,596,0,0
-91,428,0,0,0,0,0,0,0,0,0,-1,1133,596,0,0
-84,428,0,0,0,0,0,0,0,0,0,-1,1140,596,0,0
-77,428,0,0,0,0,0,0,0,0,0,-1,1147,596,0,0
-70,428,0,0,0,0,0,0,0,0,0,-1,1154,596,0,0
-63,428,0,0,0,0,0,0,0,0,0,-1,1161,596,0,0
-56,428,0,0,0,0,0,0,0,0,0,-1,1168,596,0,0
-49,428,0,0,0,0,0,0,0,0,0,-1,1175,596,0,0
-42,428,0,0,0,0,0,0,0,0,0,-1,1182,596,0,0
-35,428,0,0,0,0,0,0,0,0,0,-1,1189,596,0,0
-28,428,0,0,0,0,0,0,0,0,0,-1,1196,596,0,0
-21,428,0,0,0,0,0,0,0,0,0,-1,1203,596,0,0
-14,428,0,0,0,0,0,0,0,0,0,-1,1210,596,0,0
-7,428,0,0,0,0,0,0,0,0,0,-1,1217,596,0,0
0,428,0,0,0,0,0,0,0,0,0,-1,1224,596,0,0
7,428,0,0,0,0,0,0,0,0,0,-1,1231,596,0,0
14,428,0,0,0,0,0,0,0,0,0,-1,1238,596,0,0
21,428,0,0,0,0,0,0,0,0,0,-1,1245,596,0,0
28,428,0,0,0,0,0,0,0,0,0,-1,1252,596,0,0
35,428,0,0,0,0,0,0,0,0,0,-1,1259,596,0,0
42,428,0,0,0,0,0,0,0,0,0,-1,1266,596,0,0
49,428,0,0,0,0,0,0,0,0,0,-1,1273,596,0,0
56,428,0,0,0,0,0,0,0,0,0,-1,1280,596,0,0
63,428,0,0,0,0,0,0,0,0,0,-1,1287,596,0,0
70,428,0,0,0,0,0,0,0,0,0,-1,1294,596,0,0
77,428,0,0,0,0,0,0,0,0,0,-1,1301,596,0,0
84,428,0,0,0,0,0,0,0,0,0,-1,1308,596,0,0
91,428,0,0,0,0,0,0,0,0,0,-1,1315,596,0,0
98,428,0,0,0,0,0,0,0,0,0,-1,1322,596,0,0
105,428,0,0,0,0,0,0,0,0,0,-1,1329,596,0,0
112,428,0,0,0,0,0,0,0,0,0,-1,1336,596,0,0
119,428,0,0,0,0,0,0,0,0,0,-1,1343,596,0,0
126,428,0,0,0,0,0,0,0,0,0,-1,1350,596,0,0
133,428,0,0,0,0,0,0,0,0,0,-1,1357,596,0,0
140,428,0,0,0,0,0,0,0,0,0,-1,1364,596,0,0
147,428,0,0,0,0,0,0,0,0,0,-1,1371,596,0,0
154,428,0,0,0,0,0,0,0,0,0,-1,1378,596,0,0
161,428,0,0,0,0,0,0,0,0,0,-1,1385,596,0,0
168,428,0,0,0,0,0,0,0,0,0,-1,1392,596,0,0
175,428,0,0,0,0,0,0,0,0,0,-1,1399,596,0,0
182,428,0,0,0,0,0,0,0,0,0,-1,1406,596,0,0
189,428,0,0,0,0,0,0,0,0,0,-1,1413,596,0,0
196,428,0,0,0,0,0,0,0,0,0,-1,1420,596,0,0
203,428,0,0,0,0,0,0,0,0,0,-1,1427,596,0,0
210,428,0,0,0,0,0,0,0,0,0,-1,1434,596,0,0
217,428,0,0,0,0,0,0,0,0,0,-1,1441,596,0,0
224,428,0,0,0,0,0,0,0,0,0,-1,1448,596,0,0
231,428,0,0,0,0,0,0,0,0,0,-1,1455,596,0,0
238,428,0,0,0,0,0,0,0,0,0,-1,1462,596,0,0
245,428,0,0,0,0,0,0,0,0,0,-1,1469,596,0,0
252,428,0,0,0,0,0,0,0,0,0,-1,1476,596,0,0
259,428,0,0,0,0,0,0,0,0,0,-1,1483,596,0,0
266,428,0,0,0,0,0,0,0,0,0,-1,1490,596,0,0
273,428,0,0,0,0,0,0,0,0,0,-1,1497,596,0,0
280,428,0,0,0,0,0,0,0,0,0,-1,1504,596,0,0
287,428,0,0,0,0,0,0,0,0,0,-1,1511,596,0,0
294,428,0,0,0,0,0,0,0,0,0,-1,1518,596,0,0
301,428,0,0,0,0,0,0,0,0,0,-1,1525,596,0,0
308,428,0,0,0,0,0,0,0,0,0,-1,1532,596,0,0
315,428,0,0,0,0,0,0,0,0,0,-1,1539,596,0,0
322,428,0,0,0,0,0,0,0,0,0,-1,1546,596,0,0
329,428,0,0,0,0,0,0,0,0,0,-1,1553,596,0,0
336,428,0,0,0,0,0,0,0,0,0,-1,1560,596,0,0
343,428,0,0,0,0,0,0,0,0,0,-1,1567,596,0,0
350,428,0,0,0,0,0,0,0,0,0,-1,1574,596,0,0
357,428,0,0,0,0,0,0,0,0,0,-1,1581,596,0,0
364,428,0,0,0,0,0,0,0,0,0,-1,1588,596,0,0
371,428,0,0,0,0,0,0,0,0,0,-1,1595,596,0,0
378,428,0,0,0,0,0,0,0,0,0,-1,1602,596,0,0
385,428,0,0,0,0,0,0,0,0,0,-1,1609,596,0,0
392,428,0,0,0,0,0,0,0,0,0,-1,1616,596,0,0
399,428,0,0,0,0,0,0,0,0,0,-1,1623,596,0,0
406,428,0,0,0,0,0,0,0,0,0,-1,1630,596,0,0
413,428,0,0,0,0,0,0,0,0,0,-1,1637,596,0,0
420,428,19.8469,1.3399,0,0,0,0,0,0,0,-1,1644,596,19.8469,-1.33992
427,428,20.7299,-0.225281,0,0,0,0,0,0,0,-1,1651,596,20.7299,0.225262
434,428,19.8915,-0.583069,0,0,0,0,0,0,0,-1,1658,596,19.8915,0.583075
441,428,8.17993,0.607483,0,0,0,0,0,0,0,-1,1665,596,8.17997,-0.607513
448,428,7.84338,-0.385986,0,0,0,0,0,0,0,-1,1672,596,7.84336,0.385978
455,428,6.64038,2.1123,0,0,0,0,0,0,0,-1,1679,596,6.64037,-2.11229
462,428,4.84106,4.12341,0,0,0,0,0,0,0,-1,1686,596,4.84107,-4.12339
469,428,7.83789,3.10083,0,0,0,0,0,0,0,-1,1693,596,7.83785,-3.10086
476,428,7.61255,1.73956,0,0,0,0,0,0,0,-1,1700,596,7.61252,-1.73958
483,428,7.22766,1.05121,0,0,0,0,0,0,0,-1,1707,596,7.2277,-1.05121
490,428,5.4071,-3.2793,0,0,0,0,0,0,0,-1,1714,596,5.40707,3.27929
497,428,7.84106,-3.65491,0,0,0,0,0,0,0,-1,1721,596,7.84107,3.65491
504,428,6.92139,-2.83356,0,0,0,0,0,0,0,-1,1728,596,6.92137,2.83353
511,428,7.88501,-3.78723,0,0,0,0,0,0,0,-1,1735,596,7.88502,3.78722
518,428,16.9099,-12.3468,0,0,0,0,0,0,0,-1,1742,596,16.9099,12.3468
525,428,16.9037,-11.7047,0,0,0,0,0,0,0,-1,1749,596,16.9037,11.7047
532,428,16.8937,-11.1335,0.00442082,0.00243507,0.00247708,0.0060966,0.000759283,0.594789,0.00383644,0.0220902,1756,596,16.8937,11.1335
539,428,16.9307,-10.5985,0.0036421,0.00198963,0.0019865,0.00496735,0.000664386,0.588318,0.00311382,0.0220917,1763,596,16.9307,10.5985
546,428,16.8954,-10.1203,0.0029242,0.00158461,0.00155454,0.0039471,0.000561715,0.581984,0.00246558,0.0169553,1770,596,16.8953,10.1203
553,428,16.8687,-9.59766,0.00208074,0.00121149,0.00114266,0.00286865,0.000423588,0.603667,0.00178804,0.0106848,1777,596,16.8687,9.59763
560,428,16.8907,-9.02631,0.00110004,0.000952217,0.000777811,0.00180744,0.000244815,0.738028,0.00113221,0.0121693,1784,596,16.8908,9.02628
567,428,16.881,-8.5,0.00013012,0.000892307,0.00052478,0.00115977,-0.000137344,1.09944,0.000822792,0.0121259,1791,596,16.8809,8.50002
574,428,16.8413,-7.97357,-0.000866225,0.000942953,0.00035336,0.00100952,-0.000932793,1.38459,0.00112169,0.0135199,1798,596,16.8412,7.9736
581,428,16.7924,-7.41907,-0.0019497,0.00114565,0.000293534,0.00117324,-0.00197729,1.47708,0.0018386,0.0108881,1805,596,16.7924,7.41909
588,428,16.7743,-6.85968,-0.00309713,0.00159223,0.000361601,0.00161995,-0.00312485,1.49429,0.00278496,0.0165673,1812,596,16.7743,6.8597
595,428,16.7368,-6.29163,-0.00429925,0.00241553,0.000615756,0.00247153,-0.00435525,1.4801,0.00399114,0.020218,1819,596,16.7368,6.29163
602,428,16.5829,-5.66376,-0.00560592,0.0034831,0.000995289,0.00359081,-0.00571363,1.46299,0.00541832,0.0354862,1826,596,16.5829,5.66374
609,428,16.4194,-4.74445,0,0,0,0,0,0,0,-1,1833,596,16.4194,4.74445
616,428,15.7817,-3.09558,0,0,0,0,0,0,0,-1,1840,596,15.7817,3.09556
623,428,9.53577,1.12518,0,0,0,0,0,0,0,-1,1847,596,9.5358,-1.1252
630,428,7.07996,6.88562,0,0,0,0,0,0,0,-1,1854,596,7.0799,-6.88565
637,428,3.95435,1.90857,0,0,0,0,0,0,0,-1,1861,596,3.95439,-1.90858
644,428,5.75476,0.888977,0,0,0,0,0,0,0,-1,1868,596,5.75472,-0.888955
651,428,0,0,0,0,0,0,0,0,0,-1,1875,596,0,0
658,428,0,0,0,0,0,0,0,0,0,-1,1882,596,0,0
665,428,0,0,0,0,0,0,0,0,0,-1,1889,596,0,0
672,428,0,0,0,0,0,0,0,0,0,-1,1896,596,0,0
679,428,0,0,0,0,0,0,0,0,0,-1,1903,596,0,0
686,428,0,0,0,0,0,0,0,0,0,-1,1910,596,0,0
693,428,0,0,0,0,0,0,0,0,0,-1,1917,596,0,0
700,428,0,0,0,0,0,0,0,0,0,-1,1924,596,0,0
707,428,0,0,0,0,0,0,0,0,0,-1,1931,596,0,0
714,428,0,0,0,0,0,0,0,0,0,-1,1938,596,0,0
721,428,0,0,0,0,0,0,0,0,0,-1,1945,596,0,0
728,428,0,0,0,0,0,0,0,0,0,-1,1952,596,0,0
735,428,0,0,0,0,0,0,0,0,0,-1,1959,596,0,0
742,428,0,0,0,0,0,0,0,0,0,-1,1966,596,0,0
749,428,0,0,0,0,0,0,0,0,0,-1,1973,596,0,0
756,428,0,0,0,0,0,0,0,0,0,-1,1980,596,0,0
763,428,0,0,0,0,0,0,0,0,0,-1,1987,596,0,0
770,428,0,0,0,0,0,0,0,0,0,-1,1994,596,0,0
777,428,0,0,0,0,0,0,0,0,0,-1,2001,596,0,0
784,428,0,0,0,0,0,0,0,0,0,-1,2008,596,0,0
791,428,0,0,0,0,0,0,0,0,0,-1,2015,596,0,0
798,428,0,0,0,0,0,0,0,0,0,-1,2022,596,0,0
805,428,0,0,0,0,0,0,0,0,0,-1,2029,596,0,0
812,428,0,0,0,0,0,0,0,0,0,-1,2036,596,0,0
-700,421,0,0,0,0,0,0,0,0,0,-1,524,603,0,0
-693,421,0,0,0,0,0,0,0,0,0,-1,531,603,0,0
-686,421,0,0,0,0,0,0,0,0,0,-1,538,603,0,0
-679,421,0,0,0,0,0,0,0,0,0,-1,545,603,0,0
-672,421,0,0,0,0,0,0,0,0,0,-1,552,603,0,0
-665,421,0,0,0,0,0,0,0,0,0,-1,559,603,0,0
-658,421,0,0,0,0,0,0,0,0,0,-1,566,603,0,0
-651,421,0,0,0,0,0,0,0,0,0,-1,573,603,0,0
-644,421,0,0,0,0,0,0,0,0,0,-1,580,603,0,0
-637,421,0,0,0,0,0,0,0,0,0,-1,587,603,0,0
-630,421,0,0,0,0,0,0,0,0,0,-1,594,603,0,0
-623,421,0,0,0,0,0,0,0,0,0,-1,601,603,0,0
-616,421,0,0,0,0,0,0,0,0,0,-1,608,603,0,0
-609,421,0,0,0,0,0,0,0,0,0,-1,615,603,0,0
-602,421,0,0,0,0,0,0,0,0,0,-1,622,603,0,0
-595,421,0,0,0,0,0,0,0,0,0,-1,629,603,0,0
-588,421,0,0,0,0,0,0,0,0,0,-1,636,603,0,0
-581,421,0,0,0,0,0,0,0,0,0,-1,643,603,0,0
-574,421,0,0,0,0,0,0,0,0,0,-1,650,603,0,0
-567,421,0,0,0,0,0,0,0,0,0,-1,657,603,0,0
-560,421,0,0,0,0,0,0,0,0,0,-1,664,603,0,0
-553,421,0,0,0,0,0,0,0,0,0,-1,671,603,0,0
-546,421,0,0,0,0,0,0,0,0,0,-1,678,603,0,0
-539,421,0,0,0,0,0,0,0,0,0,-1,685,603,0,0
-532,421,-8.97382,6.95636,0,0,0,0,0,0,0,-1,692,603,-8.97384,-6.95634
-525,421,-2.11481,-8.04272,0,0,0,0,0,0,0,-1,699,603,-2.11483,8.0427
-518,421,-3.05908,-5.07233,0,0,0,0,0,0,0,-1,706,603,-3.0591,5.07235
-511,421,-4.63525,-4.08447,0,0,0,0,0,0,0,-1,713,603,-4.63524,4.08449
-504,421,-5.17029,-4.94458,0,0,0,0,0,0,0,-1,720,603,-5.17029,4.9446
-497,421,-6.63141,-2.32501,0,0,0,0,0,0,0,-1,727,603,-6.6314,2.32498
-490,421,-6.7616,-4.14783,0,0,0,0,0,0,0,-1,734,603,-6.76159,4.1478
-483,421,-7.50922,-7.17267,0,0,0,0,0,0,0,-1,741,603,-7.50921,7.17268
-476,421,-7.58948,-7.60217,-0.00295567,0.00255489,-0.00138587,0.0028838,-0.00328457,-1.33778,0.00356382,0.0345789,748,603,-7.58946,7.6022
-469,421,-7.70551,-7.95923,-0.0023798,0.00276251,-0.00149976,0.00316795,-0.00278524,-1.30677,0.00343944,0.0261119,755,603,-7.70552,7.95923
-462,421,-7.72992,-8.53851,-0.00171281,0.00265691,-0.00148951,0.00311634,-0.00217224,-1.27161,0.00306954,0.0195916,762,603,-7.72989,8.53849
-455,421,-7.76563,-9.05463,-0.00111422,0.00231579,-0.0013408,0.00277771,-0.00157614,-1.23902,0.0025454,0.0182231,769,603,-7.76561,9.05462
-448,421,-7.75909,-9.57806,-0.000601031,0.00165319,-0.0010014,0.00203379,-0.000981627,-1.20759,0.00177593,0.018429,776,603,-7.75909,9.57808
-441,421,-7.74829,-10.1241,-0.000304464,0.00114664,-0.000568674,0.00134294,-0.000500767,-1.23841,0.00110086,0.0148778,783,603,-7.74827,10.1241
-434,421,-7.78302,-10.6507,-9.73262e-05,0.000397157,-6.96662e-05,0.000406785,-0.000106954,-1.43347,0.000312993,0.0110361,790,603,-7.78304,10.6507
-427,421,-7.78632,-11.179,2.38214e-05,-0.000489918,0.000520132,0.000347054,-0.000813151,0.556038,0.000687627,0.0103933,797,603,-7.78633,11.179
-420,421,-7.78662,-11.6674,4.82971e-05,-0.00129202,0.00113007,0.000691976,-0.0019357,0.517761,0.00157272,0.0115273,804,603,-7.78665,11.6674
-413,421,-7.7981,-12.1553,-0.000117934,-0.0021311,0.00185953,0.000989968,-0.003239,0.537324,0.0025541,0.0145214,811,603,-7.79812,12.1553
-406,421,-7.83203,-12.6718,-0.000463682,-0.00293487,0.00258396,0.0011649,-0.00456346,0.562378,0.00349591,0.0195689,818,603,-7.83203,12.6718
-399,421,-7.76807,-13.2378,-0.000755185,-0.00376187,0.00321002,0.00128608,-0.00580314,0.566403,0.00436113,0.0270593,825,603,-7.76804,13.2378
-392,421,-7.92096,-13.6467,-0.000820003,-0.0045252,0.00380534,0.00155974,-0.00690494,0.558865,0.00520175,0.0461013,832,603,-7.92094,13.6467
-385,421,-8.03235,-14.2621,0,0,0,0,0,0,0,-1,839,603,-8.03235,14.2621
-378,421,-4.94733,-8.87909,0,0,0,0,0,0,0,-1,846,603,-4.94731,8.87906
-371,421,-5.65082,-7.01849,0,0,0,0,0,0,0,-1,853,603,-5.65082,7.0185
-364,421,-5.94189,-7.09875,0,0,0,0,0,0,0,-1,860,603,-5.94192,7.09878
-357,421,-7.62531,-8.26337,0,0,0,0,0,0,0,-1,867,603,-7.62532,8.26337
-350,421,-5.38019,-3.75024,0,0,0,0,0,0,0,-1,874,603,-5.38017,3.75026
-343,421,-6.22797,-2.57123,0,0,0,0,0,0,0,-1,881,603,-6.22798,2.57121
-336,421,-6.22882,-2.59369,0,0,0,0,0,0,0,-1,888,603,-6.22883,2.5937
-329,421,-4.50134,-1.49469,0,0,0,0,0,0,0,-1,895,603,-4.50137,1.49468
-322,421,-7.55817,1.13263,0,0,0,0,0,0,0,-1,902,603,-7.55818,-1.13263
-315,421,-4.47821,-1.26733,0,0,0,0,0,0,0,-1,909,603,-4.47824,1.26732
-308,421,0,0,0,0,0,0,0,0,0,-1,916,603,0,0
-301,421,0,0,0,0,0,0,0,0,0,-1,923,603,0,0
-294,421,0,0,0,0,0,0,0,0,0,-1,930,603,0,0
-287,421,0,0,0,0,0,0,0,0,0,-1,937,603,0,0
-280,421,0,0,0,0,0,0,0,0,0,-1,944,603,0,0
-273,421,0,0,0,0,0,0,0,0,0,-1,951,603,0,0
-266,421,0,0,0,0,0,0,0,0,0,-1,958,603,0,0
-259,421,0,0,0,0,0,0,0,0,0,-1,965,603,0,0
-252,421,0,0,0,0,0,0,0,0,0,-1,972,603,0,0
-245,421,0,0,0,0,0,0,0,0,0,-1,979,603,0,0
-238,421,0,0,0,0,0,0,0,0,0,-1,986,603,0,0
-231,421,0,0,0,0,0,0,0,0,0,-1,993,603,0,0
-224,421,0,0,0,0,0,0,0,0,0,-1,1000,603,0,0
-217,421,0,0,0,0,0,0,0,0,0,-1,1007,603,0,0
-210,421,0,0,0,0,0,0,0,0,0,-1,1014,603,0,0
-203,421,0,0,0,0,0,0,0,0,0,-1,1021,603,0,0
-196,421,0,0,0,0,0,0,0,0,0,-1,1028,603,0,0
-189,421,0,0,0,0,0,0,0,0,0,-1,1035,603,0,0
-182,421,0,0,0,0,0,0,0,0,0,-1,1042,603,0,0
-175,421,0,0,0,0,0,0,0,0,0,-1,1049,603,0,0
-168,421,0,0,0,0,0,0,0,0,0,-1,1056,603,0,0
-161,421,0,0,0,0,0,0,0,0,0,-1,1063,603,0,0
-154,421,0,0,0,0,0,0,0,0,0,-1,1070,603,0,0
-147,421,0,0,0,0,0,0,0,0,0,-1,1077,603,0,0
-140,421,0,0,0,0,0,0,0,0,0,-1,1084,603,0,0
-133,421,0,0,0,0,0,0,0,0,0,-1,1091,603,0,0
-126,421,0,0,0,0,0,0,0,0,0,-1,1098,603,0,0
-119,421,0,0,0,0,0,0,0,0,0,-1,1105,603,0,0
-112,421,0,0,0,0,0,0,0,0,0,-1,1112,603,0,0
-105,421,0,0,0,0,0,0,0,0,0,-1,1119,603,0,0
-98,421,0,0,0,0,0,0,0,0,0,-1,1126,603,0,0
-91,421,0,0,0,0,0,0,0,0,0,-1,1133,603,0,0
-84,421,0,0,0,0,0,0,0,0,0,-1,1140,603,0,0
-77,421,0,0,0,0,0,0,0,0,0,-1,1147,603,0,0
-70,421,0,0,0,0,0,0,0,0,0,-1,1154,603,0,0
-63,421,0,0,0,0,0,0,0,0,0,-1,1161,603,0,0
-56,421,0,0,0,0,0,0,0,0,0,-1,1168,603,0,0
-49,421,0,0,0,0,0,0,0,0,0,-1,1175,603,0,0
-42,421,0,0,0,0,0,0,0,0,0,-1,1182,603,0,0
-35,421,0,0,0,0,0,0,0,0,0,-1,1189,603,0,0
-28,421,0,0,0,0,0,0,0,0,0,-1,1196,603,0,0
-21,421,0,0,0,0,0,0,0,0,0,-1,1203,603,0,0
-14,421,0,0,0,0,0,0,0,0,0,-1,1210,603,0,0
-7,421,0,0,0,0,0,0,0,0,0,-1,1217,603,0,0
0,421,0,0,0,0,0,0,0,0,0,-1,1224,603,0,0
7,421,0,0,0,0,0,0,0,0,0,-1,1231,603,0,0
14,421,0,0,0,0,0,0,0,0,0,-1,1238,603,0,0
21,421,0,0,0,0,0,0,0,0,0,-1,1245,603,0,0
28,421,0,0,0,0,0,0,0,0,0,-1,1252,603,0,0
35,421,0,0,0,0,0,0,0,0,0,-1,1259,603,0,0
42,421,0,0,0,0,0,0,0,0,0,-1,1266,603,0,0
49,421,0,0,0,0,0,0,0,0,0,-1,1273,603,0,0
56,421,0,0,0,0,0,0,0,0,0,-1,1280,603,0,0
63,421,0,0,0,0,0,0,0,0,0,-1,1287,603,0,0
70,421,0,0,0,0,0,0,0,0,0,-1,1294,603,0,0
77,421,0,0,0,0,0,0,0,0,0,-1,1301,603,0,0
84,421,0,0,0,0,0,0,0,0,0,-1,1308,603,0,0
91,421,0,0,0,0,0,0,0,0,0,-1,1315,603,0,0
98,421,0,0,0,0,0,0,0,0,0,-1,1322,603,0,0
105,421,0,0,0,0,0,0,0,0,0,-1,1329,603,0,0
112,421,0,0,0,0,0,0,0,0,0,-1,1336,603,0,0
119,421,0,0,0,0,0,0,0,0,0,-1,1343,603,0,0
126,421,0,0,0,0,0,0,0,0,0,-1,1350,603,0,0
133,421,0,0,0,0,0,0,0,0,0,-1,1357,603,0,0
140,421,0,0,0,0,0,0,0,0,0,-1,1364,603,0,0
147,421,0,0,0,0,0,0,0,0,0,-1,1371,603,0,0
154,421,0,0,0,0,0,0,0,0,0,-1,1378,603,0,0
161,421,0,0,0,0,0,0,0,0,0,-1,1385,603,0,0
168,421,0,0,0,0,0,0,0,0,0,-1,1392,603,0,0
175,421,0,0,0,0,0,0,0,0,0,-1,1399,603,0,0
182,421,0,0,0,0,0,0,0,0,0,-1,1406,603,0,0
189,421,0,0,0,0,0,0,0,0,0,-1,1413,603,0,0
196,421,0,0,0,0,0,0,0,0,0,-1,1420,603,0,0
203,421,0,0,0,0,0,0,0,0,0,-1,1427,603,0,0
210,421,0,0,0,0,0,0,0,0,0,-1,1434,603,0,0
217,421,0,0,0,0,0,0,0,0,0,-1,1441,603,0,0
224,421,0,0,0,0,0,0,0,0,0,-1,1448,603,0,0
231,421,0,0,0,0,0,0,0,0,0,-1,1455,603,0,0
238,421,0,0,0,0,0,0,0,0,0,-1,1462,603,0,0
245,421,0,0,0,0,0,0,0,0,0,-1,1469,603,0,0
252,421,0,0,0,0,0,0,0,0,0,-1,1476,603,0,0
259,421,0,0,0,0,0,0,0,0,0,-1,1483,603,0,0
266,421,0,0,0,0,0,0,0,0,0,-1,1490,603,0,0
273,421,0,0,0,0,0,0,0,0,0,-1,1497,603,0,0
280,421,0,0,0,0,0,0,0,0,0,-1,1504,603,0,0
287,421,0,0,0,0,0,0,0,0,0,-1,1511,603,0,0
294,421,0,0,0,0,0,0,0,0,0,-1,1518,603,0,0
301,421,0,0,0,0,0,0,0,0,0,-1,1525,603,0,0
308,421,0,0,0,0,0,0,0,0,0,-1,1532,603,0,0
315,421,0,0,0,0,0,0,0,0,0,-1,1539,603,0,0
322,421,0,0,0,0,0,0,0,0,0,-1,1546,603,0,0
329,421,0,0,0,0,0,0,0,0,0,-1,1553,603,0,0
336,421,0,0,0,0,0,0,0,0,0,-1,1560,603,0,0
343,421,0,0,0,0,0,0,0,0,0,-1,1567,603,0,0
350,421,0,0,0,0,0,0,0,0,0,-1,1574,603,0,0
357,421,0,0,0,0,0,0,0,0,0,-1,1581,603,0,0
364,421,0,0,0,0,0,0,0,0,0,-1,1588,603,0,0
371,421,0,0,0,0,0,0,0,0,0,-1,1595,603,0,0
378,421,0,0,0,0,0,0,0,0,0,-1,1602,603,0,0
385,421,0,0,0,0,0,0,0,0,0,-1,1609,603,0,0
392,421,0,0,0,0,0,0,0,0,0,-1,1616,603,0,0
399,421,0,0,0,0,0,0,0,0,0,-1,1623,603,0,0
406,421,0,0,0,0,0,0,0,0,0,-1,1630,603,0,0
413,421,0,0,0,0,0,0,0,0,0,-1,1637,603,0,0
420,421,0,0,0,0,0,0,0,0,0,-1,1644,603,0,0
427,421,0,0,0,0,0,0,0,0,0,-1,1651,603,0,0
434,421,3.68176,-0.0327759,0,0,0,0,0,0,0,-1,1658,603,3.6818,0.0328037
441,421,8.06689,0.527832,0,0,0,0,0,0,0,-1,1665,603,8.06693,-0.527851
448,421,6.93921,0.802246,0,0,0,0,0,0,0,-1,1672,603,6.93923,-0.802251
455,421,7.29456,2.14825,0,0,0,0,0,0,0,-1,1679,603,7.29461,-2.14827
462,421,7.86902,3.53174,0,0,0,0,0,0,0,-1,1686,603,7.869,-3.53173
469,421,8.06604,2.81213,0,0,0,0,0,0,0,-1,1693,603,8.06606,-2.81212
476,421,8.26306,2.09253,0,0,0,0,0,0,0,-1,1700,603,8.26312,-2.09251
483,421,8.05322,0.798096,0,0,0,0,0,0,0,-1,1707,603,8.05323,-0.7981
490,421,7.51233,0.213074,0,0,0,0,0,0,0,-1,1714,603,7.51235,-0.213043
497,421,7.49634,-2.86688,0,0,0,0,0,0,0,-1,1721,603,7.4963,2.86688
504,421,6.90491,-2.18671,0,0,0,0,0,0,0,-1,1728,603,6.90491,2.18669
511,421,6.31348,-1.50653,0,0,0,0,0,0,0,-1,1735,603,6.31353,1.5065
518,421,6.27588,-2.49878,0,0,0,0,0,0,0,-1,1742,603,6.2759,2.4988
525,421,17.1708,-11.9694,0,0,0,0,0,0,0,-1,1749,603,17.1707,11.9694
532,421,17.3134,-11.1852,0.00544002,0.00290012,0.00294953,0.00738138,0.000958764,0.582112,0.00463451,0.0430944,1756,603,17.3133,11.1852
539,421,17.449,-10.5873,0.00455755,0.0023663,0.00234087,0.00604651,0.00087734,0.56652,0.00377272,0.0224993,1763,603,17.4489,10.5873
546,421,17.4224,-10.0928,0.00379503,0.00188841,0.00184764,0.0049208,0.00076264,0.547232,0.00305818,0.0136533,1770,603,17.4224,10.0929
553,421,17.4131,-9.55139,0.00292928,0.00137461,0.00137433,0.00373088,0.000573012,0.528025,0.00231996,0.0119792,1777,603,17.4131,9.55137
560,421,17.4164,-8.99585,0.00192697,0.00104396,0.000963676,0.00254546,0.000425463,0.570593,0.00157444,0.0146199,1784,603,17.4164,8.99584
567,421,17.4006,-8.48889,0.000931783,0.000932132,0.000688817,0.00162077,0.000243141,0.785525,0.00100928,0.0182102,1791,603,17.4006,8.48891
574,421,17.3838,-7.93201,-3.53209e-05,0.000957434,0.000532175,0.00118879,-0.00026668,1.1607,0.000894769,0.0198874,1798,603,17.3838,7.93199
581,421,17.3541,-7.36755,-0.00102484,0.00115507,0.000515946,0.00127102,-0.00114079,1.34974,0.00139314,0.0159353,1805,603,17.3541,7.36758
588,421,17.3142,-6.85663,-0.00202624,0.0016027,0.000620062,0.00170572,-0.00212926,1.40615,0.00221862,0.0117098,1812,603,17.3142,6.85666
595,421,17.3472,-6.29822,-0.00297533,0.00236372,0.000927198,0.00252016,-0.00313177,1.40365,0.0032695,0.0166594,1819,603,17.3472,6.29819
602,421,17.251,-5.83862,-0.00387529,0.00339616,0.0013943,0.00365435,-0.00413348,1.3877,0.00449914,0.0222675,1826,603,17.251,5.8386
609,421,17.1019,-5.14307,-0.00451207,0.00484166,0.00216352,0.00531784,-0.00498825,1.35416,0.00595124,0.0338043,1833,603,17.1019,5.14307
616,421,17.1508,-4.38147,0,0,0,0,0,0,0,-1,1840,603,17.1508,4.38148
623,421,6.19885,0.376648,0,0,0,0,0,0,0,-1,1847,603,6.19881,-0.376624
630,421,6.54993,0.778748,0,0,0,0,0,0,0,-1,1854,603,6.54991,-0.778744
637,421,3.74512,1.65405,0,0,0,0,0,0,0,-1,1861,603,3.74517,-1.65407
644,421,3.58081,0.354675,0,0,0,0,0,0,0,-1,1868,603,3.58082,-0.354704
651,421,3.28687,3.66351,0,0,0,0,0,0,0,-1,1875,603,3.28688,-3.66353
658,421,0,0,0,0,0,0,0,0,0,-1,1882,603,0,0
665,421,0,0,0,0,0,0,0,0,0,-1,1889,603,0,0
672,421,0,0,0,0,0,0,0,0,0,-1,1896,603,0,0
679,421,0,0,0,0,0,0,0,0,0,-1,1903,603,0,0
686,421,0,0,0,0,0,0,0,0,0,-1,1910,603,0,0
693,421,0,0,0,0,0,0,0,0,0,-1,1917,603,0,0
700,421,0,0,0,0,0,0,0,0,0,-1,1924,603,0,0
707,421,0,0,0,0,0,0,0,0,0,-1,1931,603,0,0
714,421,0,0,0,0,0,0,0,0,0,-1,1938,603,0,0
721,421,0,0,0,0,0,0,0,0,0,-1,1945,603,0,0
728,421,0,0,0,0,0,0,0,0,0,-1,1952,603,0,0
735,421,0,0,0,0,0,0,0,0,0,-1,1959,603,0,0
742,421,0,0,0,0,0,0,0,0,0,-1,1966,603,0,0
749,421,0,0,0,0,0,0,0,0,0,-1,1973,603,0,0
756,421,0,0,0,0,0,0,0,0,0,-1,1980,603,0,0
763,421,0,0,0,0,0,0,0,0,0,-1,1987,603,0,0
770,421,0,0,0,0,0,0,0,0,0,-1,1994,603,0,0
777,421,0,0,0,0,0,0,0,0,0,-1,2001,603,0,0
784,421,0,0,0,0,0,0,0,0,0,-1,2008,603,0,0
791,421,0,0,0,0,0,0,0,0,0,-1,2015,603,0,0
798,421,0,0,0,0,0,0,0,0,0,-1,2022,603,0,0
805,421,0,0,0,0,0,0,0,0,0,-1,2029,603,0,0
812,421,0,0,0,0,0,0,0,0,0,-1,2036,603,0,0
-700,414,0,0,0,0,0,0,0,0,0,-1,524,610,0,0
-693,414,0,0,0,0,0,0,0,0,0,-1,531,610,0,0
-686,414,0,0,0,0,0,0,0,0,0,-1,538,610,0,0
-679,414,0,0,0,0,0,0,0,0,0,-1,545,610,0,0
-672,414,0,0,0,0,0,0,0,0,0,-1,552,610,0,0
-665,414,0,0,0,0,0,0,0,0,0,-1,559,610,0,0
-658,414,0,0,0,0,0,0,0,0,0,-1,566,610,0,0
-651,414,0,0,0,0,0,0,0,0,0,-1,573,610,0,0
-644,414,0,0,0,0,0,0,0,0,0,-1,580,610,0,0
-637,414,0,0,0,0,0,0,0,0,0,-1,587,610,0,0
-630,414,0,0,0,0,0,0,0,0,0,-1,594,610,0,0
-623,414,0,0,0,0,0,0,0,0,0,-1,601,610,0,0
-616,414,0,0,0,0,0,0,0,0,0,-1,608,610,0,0
-609,414,0,0,0,0,0,0,0,0,0,-1,615,610,0,0
-602,414,0,0,0,0,0,0,0,0,0,-1,622,610,0,0
-595,414,0,0,0,0,0,0,0,0,0,-1,629,610,0,0
-588,414,0,0,0,0,0,0,0,0,0,-1,636,610,0,0
-581,414,0,0,0,0,0,0,0,0,0,-1,643,610,0,0
-574,414,0,0,0,0,0,0,0,0,0,-1,650,610,0,0
-567,414,0,0,0,0,0,0,0,0,0,-1,657,610,0,0
-560,414,0,0,0,0,0,0,0,0,0,-1,664,610,0,0
-553,414,0,0,0,0,0,0,0,0,0,-1,671,610,0,0
-546,414,0,0,0,0,0,0,0,0,0,-1,678,610,0,0
-539,414,-7.50146,5.65619,0,0,0,0,0,0,0,-1,685,610,-7.50149,-5.65617
-532,414,-8.15204,4.01605,0,0,0,0,0,0,0,-1,692,610,-8.15206,-4.01606
-525,414,-3.47137,-3.27924,0,0,0,0,0,0,0,-1,699,610,-3.47136,3.27922
-518,414,-4.12909,-4.36908,0,0,0,0,0,0,0,-1,706,610,-4.12909,4.36909
-511,414,-3.92542,-4.97021,0,0,0,0,0,0,0,-1,713,610,-3.92542,4.97023
-504,414,-8.42041,-8.32294,0,0,0,0,0,0,0,-1,720,610,-8.42043,8.32296
-497,414,-8.38855,-5.28534,0,0,0,0,0,0,0,-1,727,610,-8.38855,5.28534
-490,414,-8.31415,-6.46863,0,0,0,0,0,0,0,-1,734,610,-8.31418,6.46865
-483,414,-7.99933,-6.94739,0,0,0,0,0,0,0,-1,741,610,-7.99932,6.94736
-476,414,-8.18103,-7.48236,-0.00186953,0.00132129,-0.00097599,0.00159614,-0.00214439,-1.29629,0.00216731,0.0213003,748,610,-8.181,7.48234
-469,414,-8.24365,-7.97778,-0.00141934,0.00159727,-0.00112092,0.00196818,-0.00179025,-1.25124,0.00217074,0.0146751,755,610,-8.24363,7.97776
-462,414,-8.26917,-8.526,-0.000893785,0.00160335,-0.00115769,0.00205748,-0.00134791,-1.19697,0.00198028,0.0228549,762,610,-8.26918,8.52599
-455,414,-8.31653,-9.05402,-0.00042038,0.0013537,-0.0010549,0.00184494,-0.00091162,-1.13498,0.00162163,0.0245897,769,610,-8.31653,9.054
-448,414,-8.29291,-9.56519,-1.92424e-05,0.000789297,-0.000743095,0.00123097,-0.000460919,-1.03452,0.00100998,0.0235759,776,610,-8.29293,9.5652
-441,414,-8.26996,-10.1112,0.000166647,0.000353367,-0.000322324,0.000595579,-7.55652e-05,-0.926364,0.000424489,0.0164483,783,610,-8.26998,10.1112
-434,414,-8.29425,-10.6348,0.000269884,-0.000344553,0.000184921,0.000321244,-0.000395913,0.270915,0.000414799,0.0101103,790,610,-8.29428,10.6348
-427,414,-8.3161,-11.1535,0.000255405,-0.0012046,0.000820656,0.000623757,-0.00157295,0.421897,0.00130714,0.0107204,797,610,-8.31609,11.1535
-420,414,-8.32062,-11.6638,8.76104e-05,-0.00205504,0.00154411,0.000895654,-0.00286308,0.482118,0.00226703,0.0101822,804,610,-8.3206,11.6638
-413,414,-8.3324,-12.1764,-0.000301952,-0.00285605,0.00240555,0.00114451,-0.00430251,0.541377,0.00331634,0.0107853,811,610,-8.3324,12.1764
-406,414,-8.32678,-12.7598,-0.00098798,-0.00372551,0.00331083,0.00122587,-0.00593936,0.589388,0.00442516,0.023828,818,610,-8.32676,12.7598
-399,414,-8.41296,-13.105,-0.00164962,-0.00472483,0.00416707,0.00125447,-0.00762892,0.608652,0.00555156,0.0487223,825,610,-8.41296,13.105
-392,414,-8.54053,-13.4799,0,0,0,0,0,0,0,-1,832,610,-8.54053,13.4799
-385,414,-8.14691,-13.0653,0,0,0,0,0,0,0,-1,839,610,-8.14692,13.0653
-378,414,-8.04907,-11.3331,0,0,0,0,0,0,0,-1,846,610,-8.04905,11.3331
-371,414,-5.20886,-8.05151,0,0,0,0,0,0,0,-1,853,610,-5.20887,8.05153
-364,414,-6.76282,-6.58759,0,0,0,0,0,0,0,-1,860,610,-6.7628,6.58756
-357,414,-9.08685,-8.86188,0,0,0,0,0,0,0,-1,867,610,-9.08688,8.86187
-350,414,-6.4502,-2.41821,0,0,0,0,0,0,0,-1,874,610,-6.45021,2.41822
-343,414,-6.80249,-2.32117,0,0,0,0,0,0,0,-1,881,610,-6.80252,2.32116
-336,414,-7.11017,-2.52026,0,0,0,0,0,0,0,-1,888,610,-7.11016,2.52026
-329,414,-7.59747,-2.70313,0,0,0,0,0,0,0,-1,895,610,-7.59747,2.70315
-322,414,-4.42236,-1.29163,0,0,0,0,0,0,0,-1,902,610,-4.42238,1.2916
-315,414,0,0,0,0,0,0,0,0,0,-1,909,610,0,0
-308,414,0,0,0,0,0,0,0,0,0,-1,916,610,0,0
-301,414,0,0,0,0,0,0,0,0,0,-1,923,610,0,0
-294,414,0,0,0,0,0,0,0,0,0,-1,930,610,0,0
-287,414,0,0,0,0,0,0,0,0,0,-1,937,610,0,0
-280,414,0,0,0,0,0,0,0,0,0,-1,944,610,0,0
-273,414,0,0,0,0,0,0,0,0,0,-1,951,610,0,0
-266,414,0,0,0,0,0,0,0,0,0,-1,958,610,0,0
-259,414,0,0,0,0,0,0,0,0,0,-1,965,610,0,0
-252,414,0,0,0,0,0,0,0,0,0,-1,972,610,0,0
-245,414,0,0,0,0,0,0,0,0,0,-1,979,610,0,0
-238,414,0,0,0,0,0,0,0,0,0,-1,986,610,0,0
-231,414,0,0,0,0,0,0,0,0,0,-1,993,610,0,0
-224,414,0,0,0,0,0,0,0,0,0,-1,1000,610,0,0
-217,414,0,0,0,0,0,0,0,0,0,-1,1007,610,0,0
-210,414,0,0,0,0,0,0,0,0,0,-1,1014,610,0,0
-203,414,0,0,0,0,0,0,0,0,0,-1,1021,610,0,0
-196,414,0,0,0,0,0,0,0,0,0,-1,1028,610,0,0
-189,414,0,0,0,0,0,0,0,0,0,-1,1035,610,0,0
-182,414,0,0,0,0,0,0,0,0,0,-1,1042,610,0,0
-175,414,0,0,0,0,0,0,0,0,0,-1,1049,610,0,0
-168,414,0,0,0,0,0,0,0,0,0,-1,1056,610,0,0
-161,414,0,0,0,0,0,0,0,0,0,-1,1063,610,0,0
-154,414,0,0,0,0,0,0,0,0,0,-1,1070,610,0,0
-147,414,0,0,0,0,0,0,0,0,0,-1,1077,610,0,0
-140,414,0,0,0,0,0,0,0,0,0,-1,1084,610,0,0
-133,414,0,0,0,0,0,0,0,0,0,-1,1091,610,0,0
-126,414,0,0,0,0,0,0,0,0,0,-1,1098,610,0,0
-119,414,0,0,0,0,0,0,0,0,0,-1,1105,610,0,0
-112,414,0,0,0,0,0,0,0,0,0,-1,1112,610,0,0
-105,414,0,0,0,0,0,0,0,0,0,-1,1119,610,0,0
-98,414,0,0,0,0,0,0,0,0,0,-1,1126,610,0,0
-91,414,0,0,0,0,0,0,0,0,0,-1,1133,610,0,0
-84,414,0,0,0,0,0,0,0,0,0,-1,1140,610,0,0
-77,414,0,0,0,0,0,0,0,0,0,-1,1147,610,0,0
-70,414,0,0,0,0,0,0,0,0,0,-1,1154,610,0,0
-63,414,0,0,0,0,0,0,0,0,0,-1,1161,610,0,0
-56,414,0,0,0,0,0,0,0,0,0,-1,1168,610,0,0
-49,414,0,0,0,0,0,0,0,0,0,-1,1175,610,0,0
-42,414,0,0,0,0,0,0,0,0,0,-1,1182,610,0,0
-35,414,0,0,0,0,0,0,0,0,0,-1,1189,610,0,0
-28,414,0,0,0,0,0,0,0,0,0,-1,1196,610,0,0
-21,414,0,0,0,0,0,0,0,0,0,-1,1203,610,0,0
-14,414,0,0,0,0,0,0,0,0,0,-1,1210,610,0,0
-7,414,0,0,0,0,0,0,0,0,0,-1,1217,610,0,0
0,414,0,0,0,0,0,0,0,0,0,-1,1224,610,0,0
7,414,0,0,0,0,0,0,0,0,0,-1,1231,610,0,0
14,414,0,0,0,0,0,0,0,0,0,-1,1238,610,0,0
21,414,0,0,0,0,0,0,0,0,0,-1,1245,610,0,0
28,414,0,0,0,0,0,0,0,0,0,-1,1252,610,0,0
35,414,0,0,0,0,0,0,0,0,0,-1,1259,610,0,0
42,414,0,0,0,0,0,0,0,0,0,-1,1266,610,0,0
49,414,0,0,0,0,0,0,0,0,0,-1,1273,610,0,0
56,414,0,0,0,0,0,0,0,0,0,-1,1280,610,0,0
63,414,0,0,0,0,0,0,0,0,0,-1,1287,610,0,0
70,414,0,0,0,0,0,0,0,0,0,-1,1294,610,0,0
77,414,0,0,0,0,0,0,0,0,0,-1,1301,610,0,0
84,414,0,0,0,0,0,0,0,0,0,-1,1308,610,0,0
91,414,0,0,0,0,0,0,0,0,0,-1,1315,610,0,0
98,414,0,0,0,0,0,0,0,0,0,-1,1322,610,0,0
105,414,0,0,0,0,0,0,0,0,0,-1,1329,610,0,0
112,414,0,0,0,0,0,0,0,0,0,-1,1336,610,0,0
119,414,0,0,0,0,0,0,0,0,0,-1,1343,610,0,0
126,414,0,0,0,0,0,0,0,0,0,-1,1350,610,0,0
133,414,0,0,0,0,0,0,0,0,0,-1,1357,610,0,0
140,414,0,0,0,0,0,0,0,0,0,-1,1364,610,0,0
147,414,0,0,0,0,0,0,0,0,0,-1,1371,610,0,0
154,414,0,0,0,0,0,0,0,0,0,-1,1378,610,0,0
161,414,0,0,0,0,0,0,0,0,0,-1,1385,610,0,0
168,414,0,0,0,0,0,0,0,0,0,-1,1392,610,0,0
175,414,0,0,0,0,0,0,0,0,0,-1,1399,610,0,0
182,414,0,0,0,0,0,0,0,0,0,-1,1406,610,0,0
189,414,0,0,0,0,0,0,0,0,0,-1,1413,610,0,0
196,414,0,0,0,0,0,0,0,0,0,-1,1420,610,0,0
203,414,0,0,0,0,0,0,0,0,0,-1,1427,610,0,0
210,414,0,0,0,0,0,0,0,0,0,-1,1434,610,0,0
217,414,0,0,0,0,0,0,0,0,0,-1,1441,610,0,0
224,414,0,0,0,0,0,0,0,0,0,-1,1448,610,0,0
231,414,0,0,0,0,0,0,0,0,0,-1,1455,610,0,0
238,414,0,0,0,0,0,0,0,0,0,-1,1462,610,0,0
245,414,0,0,0,0,0,0,0,0,0,-1,1469,610,0,0
252,414,0,0,0,0,0,0,0,0,0,-1,1476,610,0,0
259,414,0,0,0,0,0,0,0,0,0,-1,1483,610,0,0
266,414,0,0,0,0,0,0,0,0,0,-1,1490,610,0,0
273,414,0,0,0,0,0,0,0,0,0,-1,1497,610,0,0
280,414,0,0,0,0,0,0,0,0,0,-1,1504,610,0,0
287,414,0,0,0,0,0,0,0,0,0,-1,1511,610,0,0
294,414,0,0,0,0,0,0,0,0,0,-1,1518,610,0,0
301,414,0,0,0,0,0,0,0,0,0,-1,1525,610,0,0
308,414,0,0,0,0,0,0,0,0,0,-1,1532,610,0,0
315,414,0,0,0,0,0,0,0,0,0,-1,1539,610,0,0
322,414,0,0,0,0,0,0,0,0,0,-1,1546,610,0,0
329,414,0,0,0,0,0,0,0,0,0,-1,1553,610,0,0
336,414,0,0,0,0,0,0,0,0,0,-1,1560,610,0,0
343,414,0,0,0,0,0,0,0,0,0,-1,1567,610,0,0
350,414,0,0,0,0,0,0,0,0,0,-1,1574,610,0,0
357,414,0,0,0,0,0,0,0,0,0,-1,1581,610,0,0
364,414,0,0,0,0,0,0,0,0,0,-1,1588,610,0,0
371,414,0,0,0,0,0,0,0,0,0,-1,1595,610,0,0
378,414,0,0,0,0,0,0,0,0,0,-1,1602,610,0,0
385,414,0,0,0,0,0,0,0,0,0,-1,1609,610,0,0
392,414,0,0,0,0,0,0,0,0,0,-1,1616,610,0,0
399,414,0,0,0,0,0,0,0,0,0,-1,1623,610,0,0
406,414,0,0,0,0,0,0,0,0,0,-1,1630,610,0,0
413,414,0,0,0,0,0,0,0,0,0,-1,1637,610,0,0
420,414,0,0,0,0,0,0,0,0,0,-1,1644,610,0,0
427,414,0,0,0,0,0,0,0,0,0,-1,1651,610,0,0
434,414,0,0,0,0,0,0,0,0,0,-1,1658,610,0,0
441,414,7.84375,0.584412,0,0,0,0,0,0,0,-1,1665,610,7.84379,-0.584394
448,414,7.40808,1.25446,0,0,0,0,0,0,0,-1,1672,610,7.40807,-1.25446
455,414,6.3512,1.73846,0,0,0,0,0,0,0,-1,1679,610,6.3512,-1.73847
462,414,8.18103,3.22113,0,0,0,0,0,0,0,-1,1686,610,8.18108,-3.22112
469,414,8.38513,2.49579,0,0,0,0,0,0,0,-1,1693,610,8.38516,-2.49576
476,414,8.64099,1.71161,0,0,0,0,0,0,0,-1,1700,610,8.64097,-1.71164
483,414,8.62744,0.687622,0,0,0,0,0,0,0,-1,1707,610,8.62749,-0.687615
490,414,8.38831,-0.0302734,0,0,0,0,0,0,0,-1,1714,610,8.38835,0.0302913
497,414,4.71094,-0.110046,0,0,0,0,0,0,0,-1,1721,610,4.71089,0.110024
504,414,7.19568,-1.43835,0,0,0,0,0,0,0,-1,1728,610,7.19563,1.43836
511,414,5.94153,-1.28772,0,0,0,0,0,0,0,-1,1735,610,5.94151,1.28769
518,414,4.53381,-0.0996704,0,0,0,0,0,0,0,-1,1742,610,4.53378,0.0996819
525,414,6.18811,-1.64056,0,0,0,0,0,0,0,-1,1749,610,6.18814,1.64055
532,414,17.8346,-11.3963,0,0,0,0,0,0,0,-1,1756,610,17.8346,11.3963
539,414,17.9275,-10.7245,0.0057409,0.00288558,0.00283569,0.00748804,0.00113844,0.552192,0.00465914,0.0455219,1763,610,17.9275,10.7246
546,414,17.9453,-10.0698,0.0048605,0.00229042,0.00225666,0.00617235,0.000978572,0.526574,0.0038306,0.013882,1770,610,17.9453,10.0698
553,414,17.9537,-9.53229,0.0039233,0.00159141,0.00169505,0.00481468,0.000700022,0.484135,0.00300376,0.0122123,1777,610,17.9537,9.53229
560,414,17.9615,-8.99103,0.00285967,0.0011614,0.00121459,0.00349252,0.000528556,0.480335,0.00217369,0.0139655,1784,610,17.9616,8.99105
567,414,17.9379,-8.44189,0.00179736,0.000966329,0.000886712,0.00236108,0.000402604,0.566291,0.0014585,0.0237282,1791,610,17.9378,8.44187
574,414,17.9012,-7.89569,0.000817689,0.000946056,0.000705708,0.00159049,0.000173252,0.830748,0.00100756,0.0222147,1798,610,17.9013,7.89567
581,414,17.9088,-7.34827,-0.000130927,0.00111869,0.000679701,0.00141712,-0.000429363,1.15707,0.00111576,0.0169201,1805,610,17.9088,7.34826
588,414,17.8632,-6.8465,-0.00104809,0.00153642,0.000761484,0.00174409,-0.00125576,1.30455,0.0017396,0.016576,1812,610,17.8632,6.84648
595,414,17.856,-6.27191,-0.00182479,0.00222411,0.00104782,0.00247921,-0.00207989,1.33199,0.00263556,0.0224849,1819,610,17.856,6.27188
602,414,17.8545,-5.70776,-0.00245963,0.0031951,0.00151084,0.00357345,-0.00283799,1.32542,0.00370975,0.0250672,1826,610,17.8545,5.70778
609,414,17.7452,-5.14795,-0.00279849,0.00452379,0.00223904,0.00515419,-0.00342889,1.29635,0.0049887,0.0241375,1833,610,17.7453,5.14794
616,414,18.0565,-4.40192,0,0,0,0,0,0,0,-1,1840,610,18.0565,4.4019
623,414,9.6969,0.0378418,0,0,0,0,0,0,0,-1,1847,610,9.69685,-0.0378644
630,414,5.47144,0.499329,0,0,0,0,0,0,0,-1,1854,610,5.47142,-0.499303
637,414,8.36707,4.16278,0,0,0,0,0,0,0,-1,1861,610,8.36709,-4.16278
644,414,5.87073,1.51422,0,0,0,0,0,0,0,-1,1868,610,5.87076,-1.51424
651,414,3.6377,0.820557,0,0,0,0,0,0,0,-1,1875,610,3.6377,-0.820543
658,414,2.29761,3.87323,0,0,0,0,0,0,0,-1,1882,610,2.29758,-3.87325
665,414,0,0,0,0,0,0,0,0,0,-1,1889,610,0,0
672,414,0,0,0,0,0,0,0,0,0,-1,1896,610,0,0
679,414,0,0,0,0,0,0,0,0,0,-1,1903,610,0,0
686,414,0,0,0,0,0,0,0,0,0,-1,1910,610,0,0
693,414,0,0,0,0,0,0,0,0,0,-1,1917,610,0,0
700,414,0,0,0,0,0,0,0,0,0,-1,1924,610,0,0
707,414,0,0,0,0,0,0,0,0,0,-1,1931,610,0,0
714,414,0,0,0,0,0,0,0,0,0,-1,1938,610,0,0
721,414,0,0,0,0,0,0,0,0,0,-1,1945,610,0,0
728,414,0,0,0,0,0,0,0,0,0,-1,1952,610,0,0
735,414,0,0,0,0,0,0,0,0,0,-1,1959,610,0,0
742,414,0,0,0,0,0,0,0,0,0,-1,1966,610,0,0
749,414,0,0,0,0,0,0,0,0,0,-1,1973,610,0,0
756,414,0,0,0,0,0,0,0,0,0,-1,1980,610,0,0
763,414,0,0,0,0,0,0,0,0,0,-1,1987,610,0,0
770,414,0,0,0,0,0,0,0,0,0,-1,1994,610,0,0
777,414,0,0,0,0,0,0,0,0,0,-1,2001,610,0,0
784,414,0,0,0,0,0,0,0,0,0,-1,2008,610,0,0
791,414,0,0,0,0,0,0,0,0,0,-1,2015,610,0,0
798,414,0,0,0,0,0,0,0,0,0,-1,2022,610,0,0
805,414,0,0,0,0,0,0,0,0,0,-1,2029,610,0,0
812,414,0,0,0,0,0,0,0,0,0,-1,2036,610,0,0
-700,407,0,0,0,0,0,0,0,0,0,-1,524,617,0,0
-693,407,0,0,0,0,0,0,0,0,0,-1,531,617,0,0
-686,407,0,0,0,0,0,0,0,0,0,-1,538,617,0,0
-679,407,0,0,0,0,0,0,0,0,0,-1,545,617,0,0
-672,407,0,0,0,0,0,0,0,0,0,-1,552,617,0,0
-665,407,0,0,0,0,0,0,0,0,0,-1,559,617,0,0
-658,407,0,0,0,0,0,0,0,0,0,-1,566,617,0,0
-651,407,0,0,0,0,0,0,0,0,0,-1,573,617,0,0
-644,407,0,0,0,0,0,0,0,0,0,-1,580,617,0,0
-637,407,0,0,0,0,0,0,0,0,0,-1,587,617,0,0
-630,407,0,0,0,0,0,0,0,0,0,-1,594,617,0,0
-623,407,0,0,0,0,0,0,0,0,0,-1,601,617,0,0
-616,407,0,0,0,0,0,0,0,0,0,-1,608,617,0,0
-609,407,0,0,0,0,0,0,0,0,0,-1,615,617,0,0
-602,407,0,0,0,0,0,0,0,0,0,-1,622,617,0,0
-595,407,0,0,0,0,0,0,0,0,0,-1,629,617,0,0
-588,407,0,0,0,0,0,0,0,0,0,-1,636,617,0,0
-581,407,0,0,0,0,0,0,0,0,0,-1,643,617,0,0
-574,407,0,0,0,0,0,0,0,0,0,-1,650,617,0,0
-567,407,0,0,0,0,0,0,0,0,0,-1,657,617,0,0
-560,407,0,0,0,0,0,0,0,0,0,-1,664,617,0,0
-553,407,0,0,0,0,0,0,0,0,0,-1,671,617,0,0
-546,407,-8.54517,-0.658142,0,0,0,0,0,0,0,-1,678,617,-8.54515,0.658112
-539,407,-6.09442,-1.01154,0,0,0,0,0,0,0,-1,685,617,-6.09441,1.01155
-532,407,-7.75665,1.62152,0,0,0,0,0,0,0,-1,692,617,-7.75667,-1.62154
-525,407,-3.78247,-2.67639,0,0,0,0,0,0,0,-1,699,617,-3.78246,2.67638
-518,407,-5.013,-5.87323,0,0,0,0,0,0,0,-1,706,617,-5.013,5.87324
-511,407,-8.50342,-7.86023,0,0,0,0,0,0,0,-1,713,617,-8.5034,7.86024
-504,407,-8.64575,-7.46301,0,0,0,0,0,0,0,-1,720,617,-8.64573,7.46301
-497,407,-8.67566,-5.96448,0,0,0,0,0,0,0,-1,727,617,-8.67567,5.96447
-490,407,-8.65308,-6.41895,-0.00114719,-0.000624684,-0.000529783,-0.00029524,-0.00147663,-1.01447,0.000902257,0.0447173,734,617,-8.65307,6.41893
-483,407,-8.61755,-6.88409,-0.00123736,8.36632e-05,-0.000646438,0.000347359,-0.00150105,-1.18348,0.00113436,0.0273598,741,617,-8.61753,6.88407
-476,407,-8.69464,-7.39691,-0.00108475,0.000598554,-0.000773846,0.000900238,-0.00138643,-1.19907,0.00133012,0.0154845,748,617,-8.69461,7.39691
-469,407,-8.74103,-7.92944,-0.00072111,0.000869135,-0.00089701,0.0012727,-0.00112467,-1.14803,0.001385,0.0137287,755,617,-8.74105,7.92943
-462,407,-8.79425,-8.46338,-0.00030107,0.000917338,-0.000935305,0.00142434,-0.000808076,-1.07406,0.00130516,0.0213028,762,617,-8.79428,8.46339
-455,407,-8.80298,-9.0249,8.34167e-05,0.000707315,-0.000847364,0.00129833,-0.000507595,-0.96177,0.00107545,0.0226712,769,617,-8.803,9.02491
-448,407,-8.76428,-9.57703,0.000408486,0.000209726,-0.00055494,0.000872875,-0.000254663,-0.696796,0.000682822,0.0195306,776,617,-8.76428,9.57701
-441,407,-8.7959,-10.0759,0.000534907,-0.00020983,-0.000146088,0.000562538,-0.000237462,-0.186934,0.00047442,0.0146607,783,617,-8.79592,10.0759
-434,407,-8.82507,-10.5811,0.000589477,-0.000891707,0.000364893,0.00067449,-0.00097672,0.228897,0.000958635,0.0108717,790,617,-8.82505,10.581
-427,407,-8.82758,-11.1,0.000490907,-0.00175725,0.00103592,0.000895449,-0.00216179,0.372303,0.00181487,0.0110592,797,617,-8.82755,11.1
-420,407,-8.81592,-11.6091,0.000168761,-0.00272336,0.00186953,0.00108622,-0.00364082,0.456215,0.00285892,0.0105474,804,617,-8.81589,11.6091
-413,407,-8.81775,-12.1151,-0.000403429,-0.0035555,0.00286312,0.00128877,-0.00524769,0.5338,0.0039979,0.012517,811,617,-8.81774,12.1151
-406,407,-8.91595,-12.4814,-0.00142806,-0.00461039,0.00397766,0.00126489,-0.00730333,0.595134,0.00534068,0.0379848,818,617,-8.91596,12.4814
-399,407,-9.18677,-13.085,0,0,0,0,0,0,0,-1,825,617,-9.18678,13.085
-392,407,-8.33612,-12.195,0,0,0,0,0,0,0,-1,832,617,-8.33611,12.195
-385,407,-7.65765,-10.7744,0,0,0,0,0,0,0,-1,839,617,-7.65767,10.7744
-378,407,-6.08655,-7.42291,0,0,0,0,0,0,0,-1,846,617,-6.08652,7.42292
-371,407,-7.4007,-5.79449,0,0,0,0,0,0,0,-1,853,617,-7.40072,5.79447
-364,407,-10.0638,-6.6228,0,0,0,0,0,0,0,-1,860,617,-10.0639,6.62279
-357,407,-6.64447,-1.83337,0,0,0,0,0,0,0,-1,867,617,-6.64446,1.8334
-350,407,-7.03351,-1.77551,0,0,0,0,0,0,0,-1,874,617,-7.03349,1.77551
-343,407,-7.40967,-1.95026,0,0,0,0,0,0,0,-1,881,617,-7.40969,1.95026
-336,407,-8.10229,-2.40662,0,0,0,0,0,0,0,-1,888,617,-8.10229,2.40664
-329,407,-8.81232,-2.76331,0,0,0,0,0,0,0,-1,895,617,-8.81235,2.76331
-322,407,0,0,0,0,0,0,0,0,0,-1,902,617,0,0
-315,407,0,0,0,0,0,0,0,0,0,-1,909,617,0,0
-308,407,0,0,0,0,0,0,0,0,0,-1,916,617,0,0
-301,407,0,0,0,0,0,0,0,0,0,-1,923,617,0,0
-294,407,0,0,0,0,0,0,0,0,0,-1,930,617,0,0
-287,407,0,0,0,0,0,0,0,0,0,-1,937,617,0,0
-280,407,0,0,0,0,0,0,0,0,0,-1,944,617,0,0
-273,407,0,0,0,0,0,0,0,0,0,-1,951,617,0,0
-266,407,0,0,0,0,0,0,0,0,0,-1,958,617,0,0
-259,407,0,0,0,0,0,0,0,0,0,-1,965,617,0,0
-252,407,0,0,0,0,0,0,0,0,0,-1,972,617,0,0
-245,407,0,0,0,0,0,0,0,0,0,-1,979,617,0,0
-238,407,0,0,0,0,0,0,0,0,0,-1,986,617,0,0
-231,407,0,0,0,0,0,0,0,0,0,-1,993,617,0,0
-224,407,0,0,0,0,0,0,0,0,0,-1,1000,617,0,0
-217,407,0,0,0,0,0,0,0,0,0,-1,1007,617,0,0
-210,407,0,0,0,0,0,0,0,0,0,-1,1014,617,0,0
-203,407,0,0,0,0,0,0,0,0,0,-1,1021,617,0,0
-196,407,0,0,0,0,0,0,0,0,0,-1,1028,617,0,0
-189,407,0,0,0,0,0,0,0,0,0,-1,1035,617,0,0
-182,407,0,0,0,0,0,0,0,0,0,-1,1042,617,0,0
-175,407,0,0,0,0,0,0,0,0,0,-1,1049,617,0,0
-168,407,0,0,0,0,0,0,0,0,0,-1,1056,617,0,0
-161,407,0,0,0,0,0,0,0,0,0,-1,1063,617,0,0
-154,407,0,0,0,0,0,0,0,0,0,-1,1070,617,0,0
-147,407,0,0,0,0,0,0,0,0,0,-1,1077,617,0,0
-140,407,0,0,0,0,0,0,0,0,0,-1,1084,617,0,0
-133,407,0,0,0,0,0,0,0,0,0,-1,1091,617,0,0
-126,407,0,0,0,0,0,0,0,0,0,-1,1098,617,0,0
-119,407,0,0,0,0,0,0,0,0,0,-1,1105,617,0,0
-112,407,0,0,0,0,0,0,0,0,0,-1,1112,617,0,0
-105,407,0,0,0,0,0,0,0,0,0,-1,1119,617,0,0
-98,407,0,0,0,0,0,0,0,0,0,-1,1126,617,0,0
-91,407,0,0,0,0,0,0,0,0,0,-1,1133,617,0,0
-84,407,0,0,0,0,0,0,0,0,0,-1,1140,617,0,0
-77,407,0,0,0,0,0,0,0,0,0,-1,1147,617,0,0
-70,407,0,0,0,0,0,0,0,0,0,-1,1154,617,0,0
-63,407,0,0,0,0,0,0,0,0,0,-1,1161,617,0,0
-56,407,0,0,0,0,0,0,0,0,0,-1,1168,617,0,0
-49,407,0,0,0,0,0,0,0,0,0,-1,1175,617,0,0
-42,407,0,0,0,0,0,0,0,0,0,-1,1182,617,0,0
-35,407,0,0,0,0,0,0,0,0,0,-1,1189,617,0,0
-28,407,0,0,0,0,0,0,0,0,0,-1,1196,617,0,0
-21,407,0,0,0,0,0,0,0,0,0,-1,1203,617,0,0
-14,407,0,0,0,0,0,0,0,0,0,-1,1210,617,0,0
-7,407,0,0,0,0,0,0,0,0,0,-1,1217,617,0,0
0,407,0,0,0,0,0,0,0,0,0,-1,1224,617,0,0
7,407,0,0,0,0,0,0,0,0,0,-1,1231,617,0,0
14,407,0,0,0,0,0,0,0,0,0,-1,1238,617,0,0
21,407,0,0,0,0,0,0,0,0,0,-1,1245,617,0,0
28,407,0,0,0,0,0,0,0,0,0,-1,1252,617,0,0
35,407,0,0,0,0,0,0,0,0,0,-1,1259,617,0,0
42,407,0,0,0,0,0,0,0,0,0,-1,1266,617,0,0
49,407,0,0,0,0,0,0,0,0,0,-1,1273,617,0,0
56,407,0,0,0,0,0,0,0,0,0,-1,1280,617,0,0
63,407,0,0,0,0,0,0,0,0,0,-1,1287,617,0,0
70,407,0,0,0,0,0,0,0,0,0,-1,1294,617,0,0
77,407,0,0,0,0,0,0,0,0,0,-1,1301,617,0,0
84,407,0,0,0,0,0,0,0,0,0,-1,1308,617,0,0
91,407,0,0,0,0,0,0,0,0,0,-1,1315,617,0,0
98,407,0,0,0,0,0,0,0,0,0,-1,1322,617,0,0
105,407,0,0,0,0,0,0,0,0,0,-1,1329,617,0,0
112,407,0,0,0,0,0,0,0,0,0,-1,1336,617,0,0
119,407,0,0,0,0,0,0,0,0,0,-1,1343,617,0,0
126,407,0,0,0,0,0,0,0,0,0,-1,1350,617,0,0
133,407,0,0,0,0,0,0,0,0,0,-1,1357,617,0,0
140,407,0,0,0,0,0,0,0,0,0,-1,1364,617,0,0
147,407,0,0,0,0,0,0,0,0,0,-1,1371,617,0,0
154,407,0,0,0,0,0,0,0,0,0,-1,1378,617,0,0
161,407,0,0,0,0,0,0,0,0,0,-1,1385,617,0,0
168,407,0,0,0,0,0,0,0,0,0,-1,1392,617,0,0
175,407,0,0,0,0,0,0,0,0,0,-1,1399,617,0,0
182,407,0,0,0,0,0,0,0,0,0,-1,1406,617,0,0
189,407,0,0,0,0,0,0,0,0,0,-1,1413,617,0,0
196,407,0,0,0,0,0,0,0,0,0,-1,1420,617,0,0
203,407,0,0,0,0,0,0,0,0,0,-1,1427,617,0,0
210,407,0,0,0,0,0,0,0,0,0,-1,1434,617,0,0
217,407,0,0,0,0,0,0,0,0,0,-1,1441,617,0,0
224,407,0,0,0,0,0,0,0,0,0,-1,1448,617,0,0
231,407,0,0,0,0,0,0,0,0,0,-1,1455,617,0,0
238,407,0,0,0,0,0,0,0,0,0,-1,1462,617,0,0
245,407,0,0,0,0,0,0,0,0,0,-1,1469,617,0,0
252,407,0,0,0,0,0,0,0,0,0,-1,1476,617,0,0
259,407,0,0,0,0,0,0,0,0,0,-1,1483,617,0,0
266,407,0,0,0,0,0,0,0,0,0,-1,1490,617,0,0
273,407,0,0,0,0,0,0,0,0,0,-1,1497,617,0,0
280,407,0,0,0,0,0,0,0,0,0,-1,1504,617,0,0
287,407,0,0,0,0,0,0,0,0,0,-1,1511,617,0,0
294,407,0,0,0,0,0,0,0,0,0,-1,1518,617,0,0
301,407,0,0,0,0,0,0,0,0,0,-1,1525,617,0,0
308,407,0,0,0,0,0,0,0,0,0,-1,1532,617,0,0
315,407,0,0,0,0,0,0,0,0,0,-1,1539,617,0,0
322,407,0,0,0,0,0,0,0,0,0,-1,1546,617,0,0
329,407,0,0,0,0,0,0,0,0,0,-1,1553,617,0,0
336,407,0,0,0,0,0,0,0,0,0,-1,1560,617,0,0
343,407,0,0,0,0,0,0,0,0,0,-1,1567,617,0,0
350,407,0,0,0,0,0,0,0,0,0,-1,1574,617,0,0
357,407,0,0,0,0,0,0,0,0,0,-1,1581,617,0,0
364,407,0,0,0,0,0,0,0,0,0,-1,1588,617,0,0
371,407,0,0,0,0,0,0,0,0,0,-1,1595,617,0,0
378,407,0,0,0,0,0,0,0,0,0,-1,1602,617,0,0
385,407,0,0,0,0,0,0,0,0,0,-1,1609,617,0,0
392,407,0,0,0,0,0,0,0,0,0,-1,1616,617,0,0
399,407,0,0,0,0,0,0,0,0,0,-1,1623,617,0,0
406,407,0,0,0,0,0,0,0,0,0,-1,1630,617,0,0
413,407,0,0,0,0,0,0,0,0,0,-1,1637,617,0,0
420,407,0,0,0,0,0,0,0,0,0,-1,1644,617,0,0
427,407,0,0,0,0,0,0,0,0,0,-1,1651,617,0,0
434,407,0,0,0,0,0,0,0,0,0,-1,1658,617,0,0
441,407,0,0,0,0,0,0,0,0,0,-1,1665,617,0,0
448,407,7.02893,2.13843,0,0,0,0,0,0,0,-1,1672,617,7.02899,-2.13844
455,407,7.55237,2.29242,0,0,0,0,0,0,0,-1,1679,617,7.55236,-2.29244
462,407,8.2926,2.46173,0,0,0,0,0,0,0,-1,1686,617,8.29261,-2.46174
469,407,8.71509,2.22681,0,0,0,0,0,0,0,-1,1693,617,8.71511,-2.22681
476,407,8.89917,1.47766,0,0,0,0,0,0,0,-1,1700,617,8.89914,-1.47768
483,407,9.02612,0.682983,0,0,0,0,0,0,0,-1,1707,617,9.02608,-0.683004
490,407,9.12659,0.000671387,0,0,0,0,0,0,0,-1,1714,617,9.12653,-0.000675931
497,407,7.76819,0.855835,0,0,0,0,0,0,0,-1,1721,617,7.7682,-0.855865
504,407,4.69336,0.160706,0,0,0,0,0,0,0,-1,1728,617,4.69337,-0.1607
511,407,4.07104,-0.00140381,0,0,0,0,0,0,0,-1,1735,617,4.07109,0.00141425
518,407,6.09534,1.9411,0,0,0,0,0,0,0,-1,1742,617,6.09532,-1.94113
525,407,5.72534,-1.35986,0,0,0,0,0,0,0,-1,1749,617,5.72529,1.35988
532,407,18.5767,-10.6388,0,0,0,0,0,0,0,-1,1756,617,18.5766,10.6388
539,407,18.3461,-10.8075,0,0,0,0,0,0,0,-1,1763,617,18.3461,10.8075
546,407,18.4943,-10.0617,0.00596702,0.00278224,0.00268973,0.00750039,0.00124888,0.51813,0.00464033,0.019511,1770,617,18.4943,10.0617
553,407,18.488,-9.52863,0.00496396,0.0018379,0.00200033,0.00593951,0.000862349,0.453755,0.00370582,0.0144741,1777,617,18.488,9.52863
560,407,18.5016,-8.96497,0.00384356,0.00126954,0.00142322,0.00447539,0.000637708,0.417807,0.00279538,0.0150299,1784,617,18.5016,8.96494
567,407,18.4738,-8.42444,0.00270776,0.00096077,0.00101996,0.00317714,0.000491394,0.431297,0.00197478,0.0274216,1791,617,18.4738,8.42444
574,407,18.4547,-7.90881,0.00170524,0.00088376,0.000805561,0.00219873,0.000390268,0.549638,0.0013546,0.0253878,1798,617,18.4547,7.90882
581,407,18.4346,-7.31592,0.000776628,0.00102788,0.000762664,0.00167519,0.000129312,0.867024,0.00107628,0.0178348,1805,617,18.4345,7.31594
588,407,18.3966,-6.81537,-8.14306e-05,0.00141388,0.000825749,0.00178016,-0.00044771,1.1533,0.00136078,0.0126095,1812,617,18.3965,6.81539
595,407,18.4019,-6.29205,-0.000724788,0.00203043,0.00109786,0.00241438,-0.00110874,1.23436,0.00208012,0.0243828,1819,617,18.4018,6.29206
602,407,18.3987,-5.68567,-0.00112649,0.00293834,0.00158882,0.00348567,-0.00167381,1.23904,0.00303943,0.0197999,1826,617,18.3987,5.68566
609,407,18.3292,-5.09973,-0.00122576,0.00414414,0.00230902,0.00500045,-0.00208207,1.21566,0.00420321,0.0157146,1833,617,18.3293,5.09974
616,407,18.3835,-4.43927,-0.000922228,0.00574212,0.0033089,0.00710592,-0.00228603,1.17985,0.00565545,0.0282662,1840,617,18.3836,4.43925
623,407,18.6378,-3.65649,0,0,0,0,0,0,0,-1,1847,617,18.6378,3.6565
630,407,7.06177,0.814575,0,0,0,0,0,0,0,-1,1854,617,7.06178,-0.814579
637,407,8.90479,0.219421,0,0,0,0,0,0,0,-1,1861,617,8.90474,-0.219401
644,407,5.09766,2.27747,0,0,0,0,0,0,0,-1,1868,617,5.09764,-2.27746
651,407,7.37524,0.0513916,0,0,0,0,0,0,0,-1,1875,617,7.3752,-0.0513923
658,407,3.76685,0.594177,0,0,0,0,0,0,0,-1,1882,617,3.76683,-0.594184
665,407,5.76123,0.375061,0,0,0,0,0,0,0,-1,1889,617,5.76118,-0.37509
672,407,0,0,0,0,0,0,0,0,0,-1,1896,617,0,0
679,407,0,0,0,0,0,0,0,0,0,-1,1903,617,0,0
686,407,0,0,0,0,0,0,0,0,0,-1,1910,617,0,0
693,407,0,0,0,0,0,0,0,0,0,-1,1917,617,0,0
700,407,0,0,0,0,0,0,0,0,0,-1,1924,617,0,0
707,407,0,0,0,0,0,0,0,0,0,-1,1931,617,0,0
714,407,0,0,0,0,0,0,0,0,0,-1,1938,617,0,0
721,407,0,0,0,0,0,0,0,0,0,-1,1945,617,0,0
728,407,0,0,0,0,0,0,0,0,0,-1,1952,617,0,0
735,407,0,0,0,0,0,0,0,0,0,-1,1959,617,0,0
742,407,0,0,0,0,0,0,0,0,0,-1,1966,617,0,0
749,407,0,0,0,0,0,0,0,0,0,-1,1973,617,0,0
756,407,0,0,0,0,0,0,0,0,0,-1,1980,617,0,0
763,407,0,0,0,0,0,0,0,0,0,-1,1987,617,0,0
770,407,0,0,0,0,0,0,0,0,0,-1,1994,617,0,0
777,407,0,0,0,0,0,0,0,0,0,-1,2001,617,0,0
784,407,0,0,0,0,0,0,0,0,0,-1,2008,617,0,0
791,407,0,0,0,0,0,0,0,0,0,-1,2015,617,0,0
798,407,0,0,0,0,0,0,0,0,0,-1,2022,617,0,0
805,407,0,0,0,0,0,0,0,0,0,-1,2029,617,0,0
812,407,0,0,0,0,0,0,0,0,0,-1,2036,617,0,0
-700,400,0,0,0,0,0,0,0,0,0,-1,524,624,0,0
-693,400,0,0,0,0,0,0,0,0,0,-1,531,624,0,0
-686,400,0,0,0,0,0,0,0,0,0,-1,538,624,0,0
-679,400,0,0,0,0,0,0,0,0,0,-1,545,624,0,0
-672,400,0,0,0,0,0,0,0,0,0,-1,552,624,0,0
-665,400,0,0,0,0,0,0,0,0,0,-1,559,624,0,0
-658,400,0,0,0,0,0,0,0,0,0,-1,566,624,0,0
-651,400,0,0,0,0,0,0,0,0,0,-1,573,624,0,0
-644,400,0,0,0,0,0,0,0,0,0,-1,580,624,0,0
-637,400,0,0,0,0,0,0,0,0,0,-1,587,624,0,0
-630,400,0,0,0,0,0,0,0,0,0,-1,594,624,0,0
-623,400,0,0,0,0,0,0,0,0,0,-1,601,624,0,0
-616,400,0,0,0,0,0,0,0,0,0,-1,608,624,0,0
-609,400,0,0,0,0,0,0,0,0,0,-1,615,624,0,0
-602,400,0,0,0,0,0,0,0,0,0,-1,622,624,0,0
-595,400,0,0,0,0,0,0,0,0,0,-1,629,624,0,0
-588,400,0,0,0,0,0,0,0,0,0,-1,636,624,0,0
-581,400,0,0,0,0,0,0,0,0,0,-1,643,624,0,0
-574,400,0,0,0,0,0,0,0,0,0,-1,650,624,0,0
-567,400,0,0,0,0,0,0,0,0,0,-1,657,624,0,0
-560,400,0,0,0,0,0,0,0,0,0,-1,664,624,0,0
-553,400,0,0,0,0,0,0,0,0,0,-1,671,624,0,0
-546,400,-8.41174,-1.4599,0,0,0,0,0,0,0,-1,678,624,-8.41173,1.45989
-539,400,-5.69104,-1.7337,0,0,0,0,0,0,0,-1,685,624,-5.69103,1.7337
-532,400,-3.03632,-2.03912,0,0,0,0,0,0,0,-1,692,624,-3.03632,2.03909
-525,400,-6.20813,-7.04071,0,0,0,0,0,0,0,-1,699,624,-6.20814,7.04071
-518,400,-5.26544,-1.58661,0,0,0,0,0,0,0,-1,706,624,-5.26544,1.58658
-511,400,-9.32965,-6.91058,0,0,0,0,0,0,0,-1,713,624,-9.32963,6.91059
-504,400,-9.14325,-6.46045,0,0,0,0,0,0,0,-1,720,624,-9.14327,6.46042
-497,400,-9.23651,-5.98505,-0.000474769,-0.0013996,-0.000229431,-0.00042098,-0.00145339,-0.230284,0.000863513,0.0451157,727,624,-9.2365,5.98504
-490,400,-9.16455,-6.26917,-0.000603712,-0.000707655,-0.000388353,-0.000263869,-0.0010475,-0.71888,0.000629101,0.0280526,734,624,-9.16458,6.26914
-483,400,-9.21362,-6.86139,-0.000611687,-0.000203832,-0.000510829,0.00014227,-0.00095779,-0.97531,0.00069085,0.0166701,741,624,-9.21365,6.86138
-476,400,-9.24774,-7.38214,-0.000430727,0.000191417,-0.00064788,0.000599034,-0.000838345,-1.00921,0.000833696,0.013701,748,624,-9.24775,7.38217
-469,400,-9.26959,-7.92297,-8.3458e-05,0.00044968,-0.000797311,0.0010238,-0.000657581,-0.946724,0.000978393,0.014698,755,624,-9.26958,7.923
-462,400,-9.28314,-8.46851,0.00027658,0.000487025,-0.000841051,0.00122941,-0.000465805,-0.847629,0.00101129,0.0202892,762,624,-9.28312,8.46852
-455,400,-9.3006,-9,0.000603019,0.000291155,-0.000765512,0.00122832,-0.000334145,-0.684925,0.000950055,0.0213908,769,624,-9.30058,9.00003
-448,400,-9.29657,-9.56207,0.000873299,-0.000141174,-0.000501483,0.00107935,-0.000347222,-0.389848,0.000859024,0.0159585,776,624,-9.29656,9.56205
-441,400,-9.31372,-10.0286,0.000962196,-0.000571398,-0.000117648,0.000971169,-0.000580371,-0.0761203,0.000905204,0.0148448,783,624,-9.31374,10.0285
-434,400,-9.34033,-10.5276,0.000976171,-0.00123509,0.000388309,0.00104238,-0.00130129,0.168877,0.00135587,0.0120603,790,624,-9.34035,10.5276
-427,400,-9.34644,-11.0477,0.000781147,-0.002086,0.00108998,0.00114846,-0.00245331,0.325039,0.00212448,0.0104291,797,624,-9.34642,11.0477
-420,400,-9.28998,-11.5843,0.000258578,-0.00316851,0.00203568,0.0012059,-0.00411584,0.435554,0.00322198,0.0145957,804,624,-9.28998,11.5843
-413,400,-9.3811,-12.0273,-0.000579535,-0.00402826,0.00316866,0.00130357,-0.00591136,0.536211,0.00443969,0.0339485,811,624,-9.38111,12.0273
-406,400,-9.41675,-12.0935,0,0,0,0,0,0,0,-1,818,624,-9.41673,12.0935
-399,400,-9.54022,-12.2183,0,0,0,0,0,0,0,-1,825,624,-9.5402,12.2183
-392,400,-4.92285,-6.63354,0,0,0,0,0,0,0,-1,832,624,-4.92285,6.63354
-385,400,-3.68738,-5.04205,0,0,0,0,0,0,0,-1,839,624,-3.68736,5.04207
-378,400,-6.84064,-1.28662,0,0,0,0,0,0,0,-1,846,624,-6.84062,1.28662
-371,400,-6.98865,-1.2572,0,0,0,0,0,0,0,-1,853,624,-6.98865,1.25721
-364,400,-6.97247,-1.24133,0,0,0,0,0,0,0,-1,860,624,-6.97249,1.24135
-357,400,-7.18329,-1.23218,0,0,0,0,0,0,0,-1,867,624,-7.18327,1.2322
-350,400,-7.40186,-1.19409,0,0,0,0,0,0,0,-1,874,624,-7.40187,1.19407
-343,400,-8.09357,-1.51147,0,0,0,0,0,0,0,-1,881,624,-8.09355,1.51148
-336,400,0,0,0,0,0,0,0,0,0,-1,888,624,0,0
-329,400,0,0,0,0,0,0,0,0,0,-1,895,624,0,0
-322,400,0,0,0,0,0,0,0,0,0,-1,902,624,0,0
-315,400,0,0,0,0,0,0,0,0,0,-1,909,624,0,0
-308,400,0,0,0,0,0,0,0,0,0,-1,916,624,0,0
-301,400,0,0,0,0,0,0,0,0,0,-1,923,624,0,0
-294,400,0,0,0,0,0,0,0,0,0,-1,930,624,0,0
-287,400,0,0,0,0,0,0,0,0,0,-1,937,624,0,0
-280,400,0,0,0,0,0,0,0,0,0,-1,944,624,0,0
-273,400,0,0,0,0,0,0,0,0,0,-1,951,624,0,0
-266,400,0,0,0,0,0,0,0,0,0,-1,958,624,0,0
-259,400,0,0,0,0,0,0,0,0,0,-1,965,624,0,0
-252,400,0,0,0,0,0,0,0,0,0,-1,972,624,0,0
-245,400,0,0,0,0,0,0,0,0,0,-1,979,624,0,0
-238,400,0,0,0,0,0,0,0,0,0,-1,986,624,0,0
-231,400,0,0,0,0,0,0,0,0,0,-1,993,624,0,0
-224,400,0,0,0,0,0,0,0,0,0,-1,1000,624,0,0
-217,400,0,0,0,0,0,0,0,0,0,-1,1007,624,0,0
-210,400,0,0,0,0,0,0,0,0,0,-1,1014,624,0,0
-203,400,0,0,0,0,0,0,0,0,0,-1,1021,624,0,0
-196,400,0,0,0,0,0,0,0,0,0,-1,1028,624,0,0
-189,400,0,0,0,0,0,0,0,0,0,-1,1035,624,0,0
-182,400,0,0,0,0,0,0,0,0,0,-1,1042,624,0,0
-175,400,0,0,0,0,0,0,0,0,0,-1,1049,624,0,0
-168,400,0,0,0,0,0,0,0,0,0,-1,1056,624,0,0
-161,400,0,0,0,0,0,0,0,0,0,-1,1063,624,0,0
-154,400,0,0,0,0,0,0,0,0,0,-1,1070,624,0,0
-147,400,0,0,0,0,0,0,0,0,0,-1,1077,624,0,0
-140,400,0,0,0,0,0,0,0,0,0,-1,1084,624,0,0
-133,400,0,0,0,0,0,0,0,0,0,-1,1091,624,0,0
-126,400,0,0,0,0,0,0,0,0,0,-1,1098,624,0,0
-119,400,0,0,0,0,0,0,0,0,0,-1,1105,624,0,0
-112,400,0,0,0,0,0,0,0,0,0,-1,1112,624,0,0
-105,400,0,0,0,0,0,0,0,0,0,-1,1119,624,0,0
-98,400,0,0,0,0,0,0,0,0,0,-1,1126,624,0,0
-91,400,0,0,0,0,0,0,0,0,0,-1,1133,624,0,0
-84,400,0,0,0,0,0,0,0,0,0,-1,1140,624,0,0
-77,400,0,0,0,0,0,0,0,0,0,-1,1147,624,0,0
-70,400,0,0,0,0,0,0,0,0,0,-1,1154,624,0,0
-63,400,0,0,0,0,0,0,0,0,0,-1,1161,624,0,0
-56,400,0,0,0,0,0,0,0,0,0,-1,1168,624,0,0
-49,400,0,0,0,0,0,0,0,0,0,-1,1175,624,0,0
-42,400,0,0,0,0,0,0,0,0,0,-1,1182,624,0,0
-35,400,0,0,0,0,0,0,0,0,0,-1,1189,624,0,0
-28,400,0,0,0,0,0,0,0,0,0,-1,1196,624,0,0
-21,400,0,0,0,0,0,0,0,0,0,-1,1203,624,0,0
-14,400,0,0,0,0,0,0,0,0,0,-1,1210,624,0,0
-7,400,0,0,0,0,0,0,0,0,0,-1,1217,624,0,0
0,400,0,0,0,0,0,0,0,0,0,-1,1224,624,0,0
7,400,0,0,0,0,0,0,0,0,0,-1,1231,624,0,0
14,400,0,0,0,0,0,0,0,0,0,-1,1238,624,0,0
21,400,0,0,0,0,0,0,0,0,0,-1,1245,624,0,0
28,400,0,0,0,0,0,0,0,0,0,-1,1252,624,0,0
35,400,0,0,0,0,0,0,0,0,0,-1,1259,624,0,0
42,400,0,0,0,0,0,0,0,0,0,-1,1266,624,0,0
49,400,0,0,0,0,0,0,0,0,0,-1,1273,624,0,0
56,400,0,0,0,0,0,0,0,0,0,-1,1280,624,0,0
63,400,0,0,0,0,0,0,0,0,0,-1,1287,624,0,0
70,400,0,0,0,0,0,0,0,0,0,-1,1294,624,0,0
77,400,0,0,0,0,0,0,0,0,0,-1,1301,624,0,0
84,400,0,0,0,0,0,0,0,0,0,-1,1308,624,0,0
91,400,0,0,0,0,0,0,0,0,0,-1,1315,624,0,0
98,400,0,0,0,0,0,0,0,0,0,-1,1322,624,0,0
105,400,0,0,0,0,0,0,0,0,0,-1,1329,624,0,0
112,400,0,0,0,0,0,0,0,0,0,-1,1336,624,0,0
119,400,0,0,0,0,0,0,0,0,0,-1,1343,624,0,0
126,400,0,0,0,0,0,0,0,0,0,-1,1350,624,0,0
133,400,0,0,0,0,0,0,0,0,0,-1,1357,624,0,0
140,400,0,0,0,0,0,0,0,0,0,-1,1364,624,0,0
147,400,0,0,0,0,0,0,0,0,0,-1,1371,624,0,0
154,400,0,0,0,0,0,0,0,0,0,-1,1378,624,0,0
161,400,0,0,0,0,0,0,0,0,0,-1,1385,624,0,0
168,400,0,0,0,0,0,0,0,0,0,-1,1392,624,0,0
175,400,0,0,0,0,0,0,0,0,0,-1,1399,624,0,0
182,400,0,0,0,0,0,0,0,0,0,-1,1406,624,0,0
189,400,0,0,0,0,0,0,0,0,0,-1,1413,624,0,0
196,400,0,0,0,0,0,0,0,0,0,-1,1420,624,0,0
203,400,0,0,0,0,0,0,0,0,0,-1,1427,624,0,0
210,400,0,0,0,0,0,0,0,0,0,-1,1434,624,0,0
217,400,0,0,0,0,0,0,0,0,0,-1,1441,624,0,0
224,400,0,0,0,0,0,0,0,0,0,-1,1448,624,0,0
231,400,0,0,0,0,0,0,0,0,0,-1,1455,624,0,0
238,400,0,0,0,0,0,0,0,0,0,-1,1462,624,0,0
245,400,0,0,0,0,0,0,0,0,0,-1,1469,624,0,0
252,400,0,0,0,0,0,0,0,0,0,-1,1476,624,0,0
259,400,0,0,0,0,0,0,0,0,0,-1,1483,624,0,0
266,400,0,0,0,0,0,0,0,0,0,-1,1490,624,0,0
273,400,0,0,0,0,0,0,0,0,0,-1,1497,624,0,0
280,400,0,0,0,0,0,0,0,0,0,-1,1504,624,0,0
287,400,0,0,0,0,0,0,0,0,0,-1,1511,624,0,0
294,400,0,0,0,0,0,0,0,0,0,-1,1518,624,0,0
301,400,0,0,0,0,0,0,0,0,0,-1,1525,624,0,0
308,400,0,0,0,0,0,0,0,0,0,-1,1532,624,0,0
315,400,0,0,0,0,0,0,0,0,0,-1,1539,624,0,0
322,400,0,0,0,0,0,0,0,0,0,-1,1546,624,0,0
329,400,0,0,0,0,0,0,0,0,0,-1,1553,624,0,0
336,400,0,0,0,0,0,0,0,0,0,-1,1560,624,0,0
343,400,0,0,0,0,0,0,0,0,0,-1,1567,624,0,0
350,400,0,0,0,0,0,0,0,0,0,-1,1574,624,0,0
357,400,0,0,0,0,0,0,0,0,0,-1,1581,624,0,0
364,400,0,0,0,0,0,0,0,0,0,-1,1588,624,0,0
371,400,0,0,0,0,0,0,0,0,0,-1,1595,624,0,0
378,400,0,0,0,0,0,0,0,0,0,-1,1602,624,0,0
385,400,0,0,0,0,0,0,0,0,0,-1,1609,624,0,0
392,400,0,0,0,0,0,0,0,0,0,-1,1616,624,0,0
399,400,0,0,0,0,0,0,0,0,0,-1,1623,624,0,0
406,400,0,0,0,0,0,0,0,0,0,-1,1630,624,0,0
413,400,0,0,0,0,0,0,0,0,0,-1,1637,624,0,0
420,400,0,0,0,0,0,0,0,0,0,-1,1644,624,0,0
427,400,0,0,0,0,0,0,0,0,0,-1,1651,624,0,0
434,400,0,0,0,0,0,0,0,0,0,-1,1658,624,0,0
441,400,0,0,0,0,0,0,0,0,0,-1,1665,624,0,0
448,400,0,0,0,0,0,0,0,0,0,-1,1672,624,0,0
455,400,8.91309,2.75885,0,0,0,0,0,0,0,-1,1679,624,8.91312,-2.75885
462,400,8.90356,2.37878,0,0,0,0,0,0,0,-1,1686,624,8.90353,-2.37878
469,400,9.14429,1.76849,0,0,0,0,0,0,0,-1,1693,624,9.14432,-1.76847
476,400,9.23254,1.25995,0,0,0,0,0,0,0,-1,1700,624,9.23252,-1.25994
483,400,9.59766,0.562439,0,0,0,0,0,0,0,-1,1707,624,9.59771,-0.56242
490,400,9.92578,-0.213745,0,0,0,0,0,0,0,-1,1714,624,9.92579,0.21376
497,400,9.19141,0.175232,0,0,0,0,0,0,0,-1,1721,624,9.19138,-0.175209
504,400,9.23438,0.00823975,0,0,0,0,0,0,0,-1,1728,624,9.23436,-0.00823766
511,400,6.16687,3.3501,0,0,0,0,0,0,0,-1,1735,624,6.16682,-3.35007
518,400,6.55237,1.74994,0,0,0,0,0,0,0,-1,1742,624,6.55236,-1.74993
525,400,6.99731,1.08783,0,0,0,0,0,0,0,-1,1749,624,6.99736,-1.08785
532,400,6.96582,-1.74982,0,0,0,0,0,0,0,-1,1756,624,6.96585,1.74983
539,400,16.0278,-8.40637,0,0,0,0,0,0,0,-1,1763,624,16.0278,8.40635
546,400,19.0759,-10.0594,0,0,0,0,0,0,0,-1,1770,624,19.076,10.0595
553,400,18.9878,-9.53772,0.00617598,0.0019417,0.0021748,0.00709397,0.00102371,0.399416,0.00442771,0.033706,1777,624,18.9878,9.53771
560,400,19.0306,-8.93652,0.00492593,0.00130145,0.00154253,0.00549353,0.000733857,0.352588,0.0034439,0.0140159,1784,624,19.0306,8.93653
567,400,19.0413,-8.40448,0.00363981,0.00091559,0.00108589,0.00401968,0.000535721,0.336518,0.00252026,0.0163682,1791,624,19.0413,8.40451
574,400,19.006,-7.89117,0.00255131,0.000814122,0.000857926,0.00290357,0.000461858,0.38961,0.0018016,0.0192207,1798,624,19.006,7.89115
581,400,18.9559,-7.32361,0.00158882,0.000951716,0.000807578,0.0021384,0.000402132,0.597541,0.00131226,0.0185422,1805,624,18.9559,7.32363
588,400,18.9349,-6.74847,0.000746128,0.00131042,0.00086163,0.00193493,0.000121626,0.943625,0.00125138,0.0148957,1812,624,18.9349,6.74848
595,400,18.9375,-6.24768,0.000170902,0.00185487,0.00111153,0.00240732,-0.000381547,1.10954,0.00174601,0.0144853,1819,624,18.9375,6.24769
602,400,18.931,-5.69849,-0.000115231,0.00267811,0.00159365,0.0034005,-0.000837622,1.14521,0.00259173,0.0140673,1826,624,18.9311,5.69851
609,400,18.858,-5.12164,-0.000193708,0.00371371,0.00223348,0.0047274,-0.00120739,1.14474,0.00362178,0.0133946,1833,624,18.858,5.12167
616,400,18.8401,-4.54022,-0.000129813,0.00492897,0.00296131,0.00629408,-0.00149493,1.13885,0.00477305,0.0179236,1840,624,18.8401,4.54019
623,400,18.891,-3.94604,0,0,0,0,0,0,0,-1,1847,624,18.891,3.94606
630,400,11.9432,0.09021,0,0,0,0,0,0,0,-1,1854,624,11.9432,-0.0902007
637,400,6.92896,1.01917,0,0,0,0,0,0,0,-1,1861,624,6.92899,-1.01918
644,400,8.65381,1.4599,0,0,0,0,0,0,0,-1,1868,624,8.65379,-1.45991
651,400,7.90601,0.424072,0,0,0,0,0,0,0,-1,1875,624,7.90598,-0.424097
658,400,8.69031,1.0484,0,0,0,0,0,0,0,-1,1882,624,8.6903,-1.0484
665,400,5.98438,0.522522,0,0,0,0,0,0,0,-1,1889,624,5.98442,-0.522552
672,400,0,0,0,0,0,0,0,0,0,-1,1896,624,0,0
679,400,0,0,0,0,0,0,0,0,0,-1,1903,624,0,0
686,400,0,0,0,0,0,0,0,0,0,-1,1910,624,0,0
693,400,0,0,0,0,0,0,0,0,0,-1,1917,624,0,0
700,400,0,0,0,0,0,0,0,0,0,-1,1924,624,0,0
707,400,0,0,0,0,0,0,0,0,0,-1,1931,624,0,0
714,400,0,0,0,0,0,0,0,0,0,-1,1938,624,0,0
721,400,0,0,0,0,0,0,0,0,0,-1,1945,624,0,0
728,400,0,0,0,0,0,0,0,0,0,-1,1952,624,0,0
735,400,0,0,0,0,0,0,0,0,0,-1,1959,624,0,0
742,400,0,0,0,0,0,0,0,0,0,-1,1966,624,0,0
749,400,0,0,0,0,0,0,0,0,0,-1,1973,624,0,0
756,400,0,0,0,0,0,0,0,0,0,-1,1980,624,0,0
763,400,0,0,0,0,0,0,0,0,0,-1,1987,624,0,0
770,400,0,0,0,0,0,0,0,0,0,-1,1994,624,0,0
777,400,0,0,0,0,0,0,0,0,0,-1,2001,624,0,0
784,400,0,0,0,0,0,0,0,0,0,-1,2008,624,0,0
791,400,0,0,0,0,0,0,0,0,0,-1,2015,624,0,0
798,400,0,0,0,0,0,0,0,0,0,-1,2022,624,0,0
805,400,0,0,0,0,0,0,0,0,0,-1,2029,624,0,0
812,400,0,0,0,0,0,0,0,0,0,-1,2036,624,0,0
-700,393,0,0,0,0,0,0,0,0,0,-1,524,631,0,0
-693,393,0,0,0,0,0,0,0,0,0,-1,531,631,0,0
-686,393,0,0,0,0,0,0,0,0,0,-1,538,631,0,0
-679,393,0,0,0,0,0,0,0,0,0,-1,545,631,0,0
-672,393,0,0,0,0,0,0,0,0,0,-1,552,631,0,0
-665,393,0,0,0,0,0,0,0,0,0,-1,559,631,0,0
-658,393,0,0,0,0,0,0,0,0,0,-1,566,631,0,0
-651,393,0,0,0,0,0,0,0,0,0,-1,573,631,0,0
-644,393,0,0,0,0,0,0,0,0,0,-1,580,631,0,0
-637,393,0,0,0,0,0,0,0,0,0,-1,587,631,0,0
-630,393,0,0,0,0,0,0,0,0,0,-1,594,631,0,0
-623,393,0,0,0,0,0,0,0,0,0,-1,601,631,0,0
-616,393,0,0,0,0,0,0,0,0,0,-1,608,631,0,0
-609,393,0,0,0,0,0,0,0,0,0,-1,615,631,0,0
-602,393,0,0,0,0,0,0,0,0,0,-1,622,631,0,0
-595,393,0,0,0,0,0,0,0,0,0,-1,629,631,0,0
-588,393,0,0,0,0,0,0,0,0,0,-1,636,631,0,0
-581,393,0,0,0,0,0,0,0,0,0,-1,643,631,0,0
-574,393,0,0,0,0,0,0,0,0,0,-1,650,631,0,0
-567,393,0,0,0,0,0,0,0,0,0,-1,657,631,0,0
-560,393,0,0,0,0,0,0,0,0,0,-1,664,631,0,0
-553,393,-2.35107,3.92633,0,0,0,0,0,0,0,-1,671,631,-2.35108,-3.92634
-546,393,-1.78778,2.4856,0,0,0,0,0,0,0,-1,678,631,-1.78778,-2.48557
-539,393,-5.2113,-2.20245,0,0,0,0,0,0,0,-1,685,631,-5.21128,2.20247
-532,393,-2.83643,-2.01624,0,0,0,0,0,0,0,-1,692,631,-2.83642,2.01626
-525,393,-5.9505,-0.952698,0,0,0,0,0,0,0,-1,699,631,-5.95053,0.95268
-518,393,-5.80219,-1.57739,0,0,0,0,0,0,0,-1,706,631,-5.80219,1.57738
-511,393,-6.15527,-2.09906,0,0,0,0,0,0,0,-1,713,631,-6.15526,2.09903
-504,393,-9.99945,-4.60773,0,0,0,0,0,0,0,-1,720,631,-9.99948,4.60771
-497,393,-9.73297,-5.47278,-3.56828e-05,-0.00103811,-0.000265483,3.02863e-05,-0.00110408,-0.243554,0.000746353,0.0356243,727,631,-9.73298,5.47279
-490,393,-9.7168,-6.29132,-0.000107198,-0.000577589,-0.000387955,0.000111287,-0.000796074,-0.512899,0.000571435,0.0190096,734,631,-9.71679,6.29131
-483,393,-9.745,-6.82135,-7.46166e-05,-0.000213873,-0.000502502,0.000363058,-0.000651547,-0.716555,0.000593623,0.0192516,741,631,-9.74497,6.82136
-476,393,-9.76904,-7.35352,0.000120149,9.4209e-05,-0.000644544,0.000751854,-0.000537495,-0.775338,0.000747827,0.0158343,748,631,-9.76904,7.35349
-469,393,-9.77087,-7.90045,0.000445757,0.000337208,-0.000806672,0.00119998,-0.000417013,-0.751808,0.000969365,0.0121761,755,631,-9.77089,7.90043
-462,393,-9.79742,-8.45551,0.000772603,0.000372839,-0.000867423,0.00146288,-0.000317434,-0.672159,0.00109649,0.0141211,762,631,-9.79744,8.45547
-455,393,-9.82837,-8.99213,0.00107791,0.000199299,-0.000822961,0.00157148,-0.000294268,-0.540233,0.00115827,0.0144956,769,631,-9.82837,8.99211
-448,393,-9.8363,-9.53021,0.00132933,-0.000145157,-0.000614683,0.00155196,-0.00036779,-0.347494,0.00117656,0.0144502,776,631,-9.83631,9.53024
-441,393,-9.8385,-10.0272,0.00143409,-0.00060312,-0.000285996,0.00147348,-0.000642508,-0.136862,0.00125268,0.0130224,783,631,-9.8385,10.0271
-434,393,-9.84857,-10.4916,0.00146017,-0.00125083,0.000191296,0.0014736,-0.00126426,0.0701,0.00158225,0.0119993,790,631,-9.84858,10.4916
-427,393,-9.80658,-11.048,0.00120705,-0.00208096,0.000912718,0.00144342,-0.00231733,0.253406,0.00219072,0.0216645,797,631,-9.80659,11.048
-420,393,-9.84015,-11.5566,0.000500942,-0.00329613,0.00198384,0.00134832,-0.00414351,0.403683,0.00330477,0.0473812,804,631,-9.84015,11.5567
-413,393,-10.0891,-12.0568,0,0,0,0,0,0,0,-1,811,631,-10.0891,12.0568
-406,393,-10.2997,-11.8004,0,0,0,0,0,0,0,-1,818,631,-10.2997,11.8004
-399,393,-5.07343,-5.92365,0,0,0,0,0,0,0,-1,825,631,-5.07344,5.92364
-392,393,-2.08063,-3.02386,0,0,0,0,0,0,0,-1,832,631,-2.08063,3.02384
-385,393,-3.16931,-0.624756,0,0,0,0,0,0,0,-1,839,631,-3.16928,0.624764
-378,393,-7.33081,-0.872314,0,0,0,0,0,0,0,-1,846,631,-7.33081,0.872325
-371,393,-7.47858,-0.811096,0,0,0,0,0,0,0,-1,853,631,-7.47859,0.811075
-364,393,-7.64917,-0.662415,0,0,0,0,0,0,0,-1,860,631,-7.64917,0.662406
-357,393,-8.09686,-0.726013,0,0,0,0,0,0,0,-1,867,631,-8.09689,0.726029
-350,393,-8.38788,-0.511841,0,0,0,0,0,0,0,-1,874,631,-8.38785,0.511811
-343,393,0,0,0,0,0,0,0,0,0,-1,881,631,0,0
-336,393,0,0,0,0,0,0,0,0,0,-1,888,631,0,0
-329,393,0,0,0,0,0,0,0,0,0,-1,895,631,0,0
-322,393,0,0,0,0,0,0,0,0,0,-1,902,631,0,0
-315,393,0,0,0,0,0,0,0,0,0,-1,909,631,0,0
-308,393,0,0,0,0,0,0,0,0,0,-1,916,631,0,0
-301,393,0,0,0,0,0,0,0,0,0,-1,923,631,0,0
-294,393,0,0,0,0,0,0,0,0,0,-1,930,631,0,0
-287,393,0,0,0,0,0,0,0,0,0,-1,937,631,0,0
-280,393,0,0,0,0,0,0,0,0,0,-1,944,631,0,0
-273,393,0,0,0,0,0,0,0,0,0,-1,951,631,0,0
-266,393,0,0,0,0,0,0,0,0,0,-1,958,631,0,0
-259,393,0,0,0,0,0,0,0,0,0,-1,965,631,0,0
-252,393,0,0,0,0,0,0,0,0,0,-1,972,631,0,0
-245,393,0,0,0,0,0,0,0,0,0,-1,979,631,0,0
-238,393,0,0,0,0,0,0,0,0,0,-1,986,631,0,0
-231,393,0,0,0,0,0,0,0,0,0,-1,993,631,0,0
-224,393,0,0,0,0,0,0,0,0,0,-1,1000,631,0,0
-217,393,0,0,0,0,0,0,0,0,0,-1,1007,631,0,0
-210,393,0,0,0,0,0,0,0,0,0,-1,1014,631,0,0
-203,393,0,0,0,0,0,0,0,0,0,-1,1021,631,0,0
-196,393,0,0,0,0,0,0,0,0,0,-1,1028,631,0,0
-189,393,0,0,0,0,0,0,0,0,0,-1,1035,631,0,0
-182,393,0,0,0,0,0,0,0,0,0,-1,1042,631,0,0
-175,393,0,0,0,0,0,0,0,0,0,-1,1049,631,0,0
-168,393,0,0,0,0,0,0,0,0,0,-1,1056,631,0,0
-161,393,0,0,0,0,0,0,0,0,0,-1,1063,631,0,0
-154,393,0,0,0,0,0,0,0,0,0,-1,1070,631,0,0
-147,393,0,0,0,0,0,0,0,0,0,-1,1077,631,0,0
-140,393,0,0,0,0,0,0,0,0,0,-1,1084,631,0,0
-133,393,0,0,0,0,0,0,0,0,0,-1,1091,631,0,0
-126,393,0,0,0,0,0,0,0,0,0,-1,1098,631,0,0
-119,393,0,0,0,0,0,0,0,0,0,-1,1105,631,0,0
-112,393,0,0,0,0,0,0,0,0,0,-1,1112,631,0,0
-105,393,0,0,0,0,0,0,0,0,0,-1,1119,631,0,0
-98,393,0,0,0,0,0,0,0,0,0,-1,1126,631,0,0
-91,393,0,0,0,0,0,0,0,0,0,-1,1133,631,0,0
-84,393,0,0,0,0,0,0,0,0,0,-1,1140,631,0,0
-77,393,0,0,0,0,0,0,0,0,0,-1,1147,631,0,0
-70,393,0,0,0,0,0,0,0,0,0,-1,1154,631,0,0
-63,393,0,0,0,0,0,0,0,0,0,-1,1161,631,0,0
-56,393,0,0,0,0,0,0,0,0,0,-1,1168,631,0,0
-49,393,0,0,0,0,0,0,0,0,0,-1,1175,631,0,0
-42,393,0,0,0,0,0,0,0,0,0,-1,1182,631,0,0
-35,393,0,0,0,0,0,0,0,0,0,-1,1189,631,0,0
-28,393,0,0,0,0,0,0,0,0,0,-1,1196,631,0,0
-21,393,0,0,0,0,0,0,0,0,0,-1,1203,631,0,0
-14,393,0,0,0,0,0,0,0,0,0,-1,1210,631,0,0
-7,393,0,0,0,0,0,0,0,0,0,-1,1217,631,0,0
0,393,0,0,0,0,0,0,0,0,0,-1,1224,631,0,0
7,393,0,0,0,0,0,0,0,0,0,-1,1231,631,0,0
14,393,0,0,0,0,0,0,0,0,0,-1,1238,631,0,0
21,393,0,0,0,0,0,0,0,0,0,-1,1245,631,0,0
28,393,0,0,0,0,0,0,0,0,0,-1,1252,631,0,0
35,393,0,0,0,0,0,0,0,0,0,-1,1259,631,0,0
42,393,0,0,0,0,0,0,0,0,0,-1,1266,631,0,0
49,393,0,0,0,0,0,0,0,0,0,-1,1273,631,0,0
56,393,0,0,0,0,0,0,0,0,0,-1,1280,631,0,0
63,393,0,0,0,0,0,0,0,0,0,-1,1287,631,0,0
70,393,0,0,0,0,0,0,0,0,0,-1,1294,631,0,0
77,393,0,0,0,0,0,0,0,0,0,-1,1301,631,0,0
84,393,0,0,0,0,0,0,0,0,0,-1,1308,631,0,0
91,393,0,0,0,0,0,0,0,0,0,-1,1315,631,0,0
98,393,0,0,0,0,0,0,0,0,0,-1,1322,631,0,0
105,393,0,0,0,0,0,0,0,0,0,-1,1329,631,0,0
112,393,0,0,0,0,0,0,0,0,0,-1,1336,631,0,0
119,393,0,0,0,0,0,0,0,0,0,-1,1343,631,0,0
126,393,0,0,0,0,0,0,0,0,0,-1,1350,631,0,0
133,393,0,0,0,0,0,0,0,0,0,-1,1357,631,0,0
140,393,0,0,0,0,0,0,0,0,0,-1,1364,631,0,0
147,393,0,0,0,0,0,0,0,0,0,-1,1371,631,0,0
154,393,0,0,0,0,0,0,0,0,0,-1,1378,631,0,0
161,393,0,0,0,0,0,0,0,0,0,-1,1385,631,0,0
168,393,0,0,0,0,0,0,0,0,0,-1,1392,631,0,0
175,393,0,0,0,0,0,0,0,0,0,-1,1399,631,0,0
182,393,0,0,0,0,0,0,0,0,0,-1,1406,631,0,0
189,393,0,0,0,0,0,0,0,0,0,-1,1413,631,0,0
196,393,0,0,0,0,0,0,0,0,0,-1,1420,631,0,0
203,393,0,0,0,0,0,0,0,0,0,-1,1427,631,0,0
210,393,0,0,0,0,0,0,0,0,0,-1,1434,631,0,0
217,393,0,0,0,0,0,0,0,0,0,-1,1441,631,0,0
224,393,0,0,0,0,0,0,0,0,0,-1,1448,631,0,0
231,393,0,0,0,0,0,0,0,0,0,-1,1455,631,0,0
238,393,0,0,0,0,0,0,0,0,0,-1,1462,631,0,0
245,393,0,0,0,0,0,0,0,0,0,-1,1469,631,0,0
252,393,0,0,0,0,0,0,0,0,0,-1,1476,631,0,0
259,393,0,0,0,0,0,0,0,0,0,-1,1483,631,0,0
266,393,0,0,0,0,0,0,0,0,0,-1,1490,631,0,0
273,393,0,0,0,0,0,0,0,0,0,-1,1497,631,0,0
280,393,0,0,0,0,0,0,0,0,0,-1,1504,631,0,0
287,393,0,0,0,0,0,0,0,0,0,-1,1511,631,0,0
294,393,0,0,0,0,0,0,0,0,0,-1,1518,631,0,0
301,393,0,0,0,0,0,0,0,0,0,-1,1525,631,0,0
308,393,0,0,0,0,0,0,0,0,0,-1,1532,631,0,0
315,393,0,0,0,0,0,0,0,0,0,-1,1539,631,0,0
322,393,0,0,0,0,0,0,0,0,0,-1,1546,631,0,0
329,393,0,0,0,0,0,0,0,0,0,-1,1553,631,0,0
336,393,0,0,0,0,0,0,0,0,0,-1,1560,631,0,0
343,393,0,0,0,0,0,0,0,0,0,-1,1567,631,0,0
350,393,0,0,0,0,0,0,0,0,0,-1,1574,631,0,0
357,393,0,0,0,0,0,0,0,0,0,-1,1581,631,0,0
364,393,0,0,0,0,0,0,0,0,0,-1,1588,631,0,0
371,393,0,0,0,0,0,0,0,0,0,-1,1595,631,0,0
378,393,0,0,0,0,0,0,0,0,0,-1,1602,631,0,0
385,393,0,0,0,0,0,0,0,0,0,-1,1609,631,0,0
392,393,0,0,0,0,0,0,0,0,0,-1,1616,631,0,0
399,393,0,0,0,0,0,0,0,0,0,-1,1623,631,0,0
406,393,0,0,0,0,0,0,0,0,0,-1,1630,631,0,0
413,393,0,0,0,0,0,0,0,0,0,-1,1637,631,0,0
420,393,0,0,0,0,0,0,0,0,0,-1,1644,631,0,0
427,393,0,0,0,0,0,0,0,0,0,-1,1651,631,0,0
434,393,0,0,0,0,0,0,0,0,0,-1,1658,631,0,0
441,393,0,0,0,0,0,0,0,0,0,-1,1665,631,0,0
448,393,0,0,0,0,0,0,0,0,0,-1,1672,631,0,0
455,393,0,0,0,0,0,0,0,0,0,-1,1679,631,0,0
462,393,8.51099,1.89502,0,0,0,0,0,0,0,-1,1686,631,8.51103,-1.89504
469,393,9.39465,1.51703,0,0,0,0,0,0,0,-1,1693,631,9.39465,-1.51703
476,393,9.95569,1.185,0,0,0,0,0,0,0,-1,1700,631,9.95575,-1.18497
483,393,10.5267,0.887329,0,0,0,0,0,0,0,-1,1707,631,10.5267,-0.887321
490,393,10.9303,0.761414,0,0,0,0,0,0,0,-1,1714,631,10.9303,-0.761386
497,393,8.32153,1.88104,0,0,0,0,0,0,0,-1,1721,631,8.32148,-1.88103
504,393,9.46985,1.78711,0,0,0,0,0,0,0,-1,1728,631,9.46986,-1.78713
511,393,9.66565,-0.375977,0,0,0,0,0,0,0,-1,1735,631,9.66571,0.375949
518,393,7.01599,1.62482,0,0,0,0,0,0,0,-1,1742,631,7.01597,-1.62483
525,393,7.88245,-1.13422,0,0,0,0,0,0,0,-1,1749,631,7.88246,1.13423
532,393,7.06335,-1.18103,0,0,0,0,0,0,0,-1,1756,631,7.06332,1.18101
539,393,9.91626,-2.46301,0,0,0,0,0,0,0,-1,1763,631,9.91625,2.46302
546,393,16.4094,-8.04651,0,0,0,0,0,0,0,-1,1770,631,16.4094,8.04649
553,393,19.4357,-9.57275,0,0,0,0,0,0,0,-1,1777,631,19.4356,9.57275
560,393,19.5708,-8.98163,0.00610522,0.00122424,0.00165093,0.00661118,0.000718278,0.297381,0.00418861,0.0321368,1784,631,19.5708,8.98165
567,393,19.5499,-8.39447,0.00457315,0.000742278,0.0010821,0.00485768,0.000457754,0.257118,0.00309716,0.0144774,1791,631,19.5499,8.39447
574,393,19.5455,-7.88483,0.00332432,0.000597474,0.000788252,0.00353578,0.000386012,0.262096,0.00223963,0.0150617,1798,631,19.5455,7.8848
581,393,19.505,-7.29803,0.0022657,0.000717196,0.000689265,0.00252806,0.000454842,0.363696,0.00155608,0.0150758,1805,631,19.505,7.29802
588,393,19.4987,-6.71497,0.00139952,0.00104045,0.000716266,0.00195841,0.00048156,0.662601,0.00117836,0.0164936,1812,631,19.4986,6.71498
595,393,19.4918,-6.21375,0.000855816,0.00152291,0.000935243,0.0021823,0.00019642,0.956687,0.00139402,0.0143042,1819,631,19.4918,6.21372
602,393,19.4752,-5.67078,0.000641194,0.0022715,0.00140018,0.00307652,-0.00016383,1.049,0.00210775,0.0160354,1826,631,19.4752,5.67078
609,393,19.4292,-5.11639,0.000595373,0.00318583,0.00198775,0.0042631,-0.000481901,1.07415,0.00301556,0.0152755,1833,631,19.4292,5.11637
616,393,19.4,-4.55237,0.000594535,0.00416156,0.00255825,0.00549664,-0.000740539,1.08981,0.00393457,0.0153091,1840,631,19.4,4.55236
623,393,19.4441,-3.89246,0.00117084,0.00525977,0.00342586,0.00720483,-0.000774224,1.05442,0.005081,0.0318601,1847,631,19.4441,3.89243
630,393,19.5332,-3.13873,0,0,0,0,0,0,0,-1,1854,631,19.5332,3.13872
637,393,11.4626,0.608887,0,0,0,0,0,0,0,-1,1861,631,11.4627,-0.608904
644,393,8.97583,1.30585,0,0,0,0,0,0,0,-1,1868,631,8.97586,-1.30584
651,393,11.348,0.53302,0,0,0,0,0,0,0,-1,1875,631,11.348,-0.53305
658,393,9.21338,1.50836,0,0,0,0,0,0,0,-1,1882,631,9.21338,-1.50834
665,393,6.1001,2.32129,0,0,0,0,0,0,0,-1,1889,631,6.10012,-2.3213
672,393,7.14575,2.43225,0,0,0,0,0,0,0,-1,1896,631,7.14572,-2.43222
679,393,0,0,0,0,0,0,0,0,0,-1,1903,631,0,0
686,393,0,0,0,0,0,0,0,0,0,-1,1910,631,0,0
693,393,0,0,0,0,0,0,0,0,0,-1,1917,631,0,0
700,393,0,0,0,0,0,0,0,0,0,-1,1924,631,0,0
707,393,0,0,0,0,0,0,0,0,0,-1,1931,631,0,0
714,393,0,0,0,0,0,0,0,0,0,-1,1938,631,0,0
721,393,0,0,0,0,0,0,0,0,0,-1,1945,631,0,0
728,393,0,0,0,0,0,0,0,0,0,-1,1952,631,0,0
735,393,0,0,0,0,0,0,0,0,0,-1,1959,631,0,0
742,393,0,0,0,0,0,0,0,0,0,-1,1966,631,0,0
749,393,0,0,0,0,0,0,0,0,0,-1,1973,631,0,0
756,393,0,0,0,0,0,0,0,0,0,-1,1980,631,0,0
763,393,0,0,0,0,0,0,0,0,0,-1,1987,631,0,0
770,393,0,0,0,0,0,0,0,0,0,-1,1994,631,0,0
777,393,0,0,0,0,0,0,0,0,0,-1,2001,631,0,0
784,393,0,0,0,0,0,0,0,0,0,-1,2008,631,0,0
791,393,0,0,0,0,0,0,0,0,0,-1,2015,631,0,0
798,393,0,0,0,0,0,0,0,0,0,-1,2022,631,0,0
805,393,0,0,0,0,0,0,0,0,0,-1,2029,631,0,0
812,393,0,0,0,0,0,0,0,0,0,-1,2036,631,0,0
-700,386,0,0,0,0,0,0,0,0,0,-1,524,638,0,0
-693,386,0,0,0,0,0,0,0,0,0,-1,531,638,0,0
-686,386,0,0,0,0,0,0,0,0,0,-1,538,638,0,0
-679,386,0,0,0,0,0,0,0,0,0,-1,545,638,0,0
-672,386,0,0,0,0,0,0,0,0,0,-1,552,638,0,0
-665,386,0,0,0,0,0,0,0,0,0,-1,559,638,0,0
-658,386,0,0,0,0,0,0,0,0,0,-1,566,638,0,0
-651,386,0,0,0,0,0,0,0,0,0,-1,573,638,0,0
-644,386,0,0,0,0,0,0,0,0,0,-1,580,638,0,0
-637,386,0,0,0,0,0,0,0,0,0,-1,587,638,0,0
-630,386,0,0,0,0,0,0,0,0,0,-1,594,638,0,0
-623,386,0,0,0,0,0,0,0,0,0,-1,601,638,0,0
-616,386,0,0,0,0,0,0,0,0,0,-1,608,638,0,0
-609,386,0,0,0,0,0,0,0,0,0,-1,615,638,0,0
-602,386,0,0,0,0,0,0,0,0,0,-1,622,638,0,0
-595,386,0,0,0,0,0,0,0,0,0,-1,629,638,0,0
-588,386,0,0,0,0,0,0,0,0,0,-1,636,638,0,0
-581,386,0,0,0,0,0,0,0,0,0,-1,643,638,0,0
-574,386,0,0,0,0,0,0,0,0,0,-1,650,638,0,0
-567,386,0,0,0,0,0,0,0,0,0,-1,657,638,0,0
-560,386,-3.97229,-5.13898,0,0,0,0,0,0,0,-1,664,638,-3.97232,5.13897
-553,386,-4.94244,-5.54309,0,0,0,0,0,0,0,-1,671,638,-4.94242,5.5431
-546,386,-1.78668,1.72827,0,0,0,0,0,0,0,-1,678,638,-1.78668,-1.72829
-539,386,-0.879456,-2.90009,0,0,0,0,0,0,0,-1,685,638,-0.879442,2.90008
-532,386,-5.4884,1.73328,0,0,0,0,0,0,0,-1,692,638,-5.4884,-1.73325
-525,386,-6.64148,-1.50604,0,0,0,0,0,0,0,-1,699,638,-6.64149,1.50603
-518,386,-7.68927,-2.40173,0,0,0,0,0,0,0,-1,706,638,-7.68929,2.4017
-511,386,-10.2102,-3.91956,0,0,0,0,0,0,0,-1,713,638,-10.2102,3.91957
-504,386,-10.2015,-5.00201,0.000673428,-0.000375275,-0.000634206,0.000971975,-0.000673822,-0.439968,0.000955384,0.0365211,720,638,-10.2015,5.00202
-497,386,-10.2908,-5.745,0.000410687,-0.000398477,-0.000446774,0.000608843,-0.000596634,-0.417458,0.000695994,0.0179137,727,638,-10.2908,5.74502
-490,386,-10.2529,-6.33124,0.000310906,-0.000401572,-0.000323674,0.000435989,-0.000526656,-0.368769,0.000556604,0.0130799,734,638,-10.2529,6.33122
-483,386,-10.2593,-6.86884,0.00044459,-8.73146e-05,-0.000501252,0.000746074,-0.000388799,-0.541494,0.000665954,0.0165875,741,638,-10.2593,6.86886
-476,386,-10.2786,-7.39478,0.000700436,0.00020525,-0.000710972,0.00120569,-0.000300007,-0.617843,0.000920246,0.0159073,748,638,-10.2785,7.39476
-469,386,-10.2952,-7.90955,0.00102631,0.000474771,-0.000932064,0.00172254,-0.000221464,-0.641567,0.00122885,0.0118718,755,638,-10.2952,7.90953
-462,386,-10.3117,-8.44763,0.00132426,0.0005627,-0.00105818,0.00206808,-0.000181128,-0.61269,0.00144289,0.0106315,762,638,-10.3117,8.44761
-455,386,-10.3307,-8.96808,0.00160265,0.000459118,-0.0010874,0.00225944,-0.000197675,-0.543358,0.00157632,0.0128347,769,638,-10.3307,8.96807
-448,386,-10.3282,-9.49097,0.00181856,0.000263998,-0.000986285,0.00229703,-0.000214478,-0.45168,0.00160762,0.0137475,776,638,-10.3282,9.49097
-441,386,-10.3505,-9.99139,0.00193382,-0.000212289,-0.000772294,0.00218284,-0.000461309,-0.311918,0.00163089,0.0135352,783,638,-10.3506,9.99137
-434,386,-10.3205,-10.5525,0.00196077,-0.000843317,-0.000366733,0.00200794,-0.000890487,-0.127919,0.00171436,0.0364964,790,638,-10.3205,10.5525
-427,386,-10.2412,-11.0932,0,0,0,0,0,0,0,-1,797,638,-10.2412,11.0932
-420,386,-10.3697,-11.6003,0,0,0,0,0,0,0,-1,804,638,-10.3697,11.6003
-413,386,-5.45691,-5.35785,0,0,0,0,0,0,0,-1,811,638,-5.45691,5.35783
-406,386,-4.51135,-4.10999,0,0,0,0,0,0,0,-1,818,638,-4.51135,4.10996
-399,386,-3.57117,-3.42126,0,0,0,0,0,0,0,-1,825,638,-3.57116,3.42129
-392,386,-4.00977,0.403625,0,0,0,0,0,0,0,-1,832,638,-4.0098,-0.403616
-385,386,-3.2406,-0.118469,0,0,0,0,0,0,0,-1,839,638,-3.24058,0.118485
-378,386,-2.55243,-1.22748,0,0,0,0,0,0,0,-1,846,638,-2.55243,1.22748
-371,386,-7.95807,-0.330261,0,0,0,0,0,0,0,-1,853,638,-7.95806,0.330284
-364,386,-8.90637,-0.665955,0,0,0,0,0,0,0,-1,860,638,-8.90635,0.665951
-357,386,-9.10364,-0.388733,0,0,0,0,0,0,0,-1,867,638,-9.10364,0.388744
-350,386,0,0,0,0,0,0,0,0,0,-1,874,638,0,0
-343,386,0,0,0,0,0,0,0,0,0,-1,881,638,0,0
-336,386,0,0,0,0,0,0,0,0,0,-1,888,638,0,0
-329,386,0,0,0,0,0,0,0,0,0,-1,895,638,0,0
-322,386,0,0,0,0,0,0,0,0,0,-1,902,638,0,0
-315,386,0,0,0,0,0,0,0,0,0,-1,909,638,0,0
-308,386,0,0,0,0,0,0,0,0,0,-1,916,638,0,0
-301,386,0,0,0,0,0,0,0,0,0,-1,923,638,0,0
-294,386,0,0,0,0,0,0,0,0,0,-1,930,638,0,0
-287,386,0,0,0,0,0,0,0,0,0,-1,937,638,0,0
-280,386,0,0,0,0,0,0,0,0,0,-1,944,638,0,0
-273,386,0,0,0,0,0,0,0,0,0,-1,951,638,0,0
-266,386,0,0,0,0,0,0,0,0,0,-1,958,638,0,0
-259,386,0,0,0,0,0,0,0,0,0,-1,965,638,0,0
-252,386,0,0,0,0,0,0,0,0,0,-1,972,638,0,0
-245,386,0,0,0,0,0,0,0,0,0,-1,979,638,0,0
-238,386,0,0,0,0,0,0,0,0,0,-1,986,638,0,0
-231,386,0,0,0,0,0,0,0,0,0,-1,993,638,0,0
-224,386,0,0,0,0,0,0,0,0,0,-1,1000,638,0,0
-217,386,0,0,0,0,0,0,0,0,0,-1,1007,638,0,0
-210,386,0,0,0,0,0,0,0,0,0,-1,1014,638,0,0
-203,386,0,0,0,0,0,0,0,0,0,-1,1021,638,0,0
-196,386,0,0,0,0,0,0,0,0,0,-1,1028,638,0,0
-189,386,0,0,0,0,0,0,0,0,0,-1,1035,638,0,0
-182,386,0,0,0,0,0,0,0,0,0,-1,1042,638,0,0
-175,386,0,0,0,0,0,0,0,0,0,-1,1049,638,0,0
-168,386,0,0,0,0,0,0,0,0,0,-1,1056,638,0,0
-161,386,0,0,0,0,0,0,0,0,0,-1,1063,638,0,0
-154,386,0,0,0,0,0,0,0,0,0,-1,1070,638,0,0
-147,386,0,0,0,0,0,0,0,0,0,-1,1077,638,0,0
-140,386,0,0,0,0,0,0,0,0,0,-1,1084,638,0,0
-133,386,0,0,0,0,0,0,0,0,0,-1,1091,638,0,0
-126,386,0,0,0,0,0,0,0,0,0,-1,1098,638,0,0
-119,386,0,0,0,0,0,0,0,0,0,-1,1105,638,0,0
-112,386,0,0,0,0,0,0,0,0,0,-1,1112,638,0,0
-105,386,0,0,0,0,0,0,0,0,0,-1,1119,638,0,0
-98,386,0,0,0,0,0,0,0,0,0,-1,1126,638,0,0
-91,386,0,0,0,0,0,0,0,0,0,-1,1133,638,0,0
-84,386,0,0,0,0,0,0,0,0,0,-1,1140,638,0,0
-77,386,0,0,0,0,0,0,0,0,0,-1,1147,638,0,0
-70,386,0,0,0,0,0,0,0,0,0,-1,1154,638,0,0
-63,386,0,0,0,0,0,0,0,0,0,-1,1161,638,0,0
-56,386,0,0,0,0,0,0,0,0,0,-1,1168,638,0,0
-49,386,0,0,0,0,0,0,0,0,0,-1,1175,638,0,0
-42,386,0,0,0,0,0,0,0,0,0,-1,1182,638,0,0
-35,386,0,0,0,0,0,0,0,0,0,-1,1189,638,0,0
-28,386,0,0,0,0,0,0,0,0,0,-1,1196,638,0,0
-21,386,0,0,0,0,0,0,0,0,0,-1,1203,638,0,0
-14,386,0,0,0,0,0,0,0,0,0,-1,1210,638,0,0
-7,386,0,0,0,0,0,0,0,0,0,-1,1217,638,0,0
0,386,0,0,0,0,0,0,0,0,0,-1,1224,638,0,0
7,386,0,0,0,0,0,0,0,0,0,-1,1231,638,0,0
14,386,0,0,0,0,0,0,0,0,0,-1,1238,638,0,0
21,386,0,0,0,0,0,0,0,0,0,-1,1245,638,0,0
28,386,0,0,0,0,0,0,0,0,0,-1,1252,638,0,0
35,386,0,0,0,0,0,0,0,0,0,-1,1259,638,0,0
42,386,0,0,0,0,0,0,0,0,0,-1,1266,638,0,0
49,386,0,0,0,0,0,0,0,0,0,-1,1273,638,0,0
56,386,0,0,0,0,0,0,0,0,0,-1,1280,638,0,0
63,386,0,0,0,0,0,0,0,0,0,-1,1287,638,0,0
70,386,0,0,0,0,0,0,0,0,0,-1,1294,638,0,0
77,386,0,0,0,0,0,0,0,0,0,-1,1301,638,0,0
84,386,0,0,0,0,0,0,0,0,0,-1,1308,638,0,0
91,386,0,0,0,0,0,0,0,0,0,-1,1315,638,0,0
98,386,0,0,0,0,0,0,0,0,0,-1,1322,638,0,0
105,386,0,0,0,0,0,0,0,0,0,-1,1329,638,0,0
112,386,0,0,0,0,0,0,0,0,0,-1,1336,638,0,0
119,386,0,0,0,0,0,0,0,0,0,-1,1343,638,0,0
126,386,0,0,0,0,0,0,0,0,0,-1,1350,638,0,0
133,386,0,0,0,0,0,0,0,0,0,-1,1357,638,0,0
140,386,0,0,0,0,0,0,0,0,0,-1,1364,638,0,0
147,386,0,0,0,0,0,0,0,0,0,-1,1371,638,0,0
154,386,0,0,0,0,0,0,0,0,0,-1,1378,638,0,0
161,386,0,0,0,0,0,0,0,0,0,-1,1385,638,0,0
168,386,0,0,0,0,0,0,0,0,0,-1,1392,638,0,0
175,386,0,0,0,0,0,0,0,0,0,-1,1399,638,0,0
182,386,0,0,0,0,0,0,0,0,0,-1,1406,638,0,0
189,386,0,0,0,0,0,0,0,0,0,-1,1413,638,0,0
196,386,0,0,0,0,0,0,0,0,0,-1,1420,638,0,0
203,386,0,0,0,0,0,0,0,0,0,-1,1427,638,0,0
210,386,0,0,0,0,0,0,0,0,0,-1,1434,638,0,0
217,386,0,0,0,0,0,0,0,0,0,-1,1441,638,0,0
224,386,0,0,0,0,0,0,0,0,0,-1,1448,638,0,0
231,386,0,0,0,0,0,0,0,0,0,-1,1455,638,0,0
238,386,0,0,0,0,0,0,0,0,0,-1,1462,638,0,0
245,386,0,0,0,0,0,0,0,0,0,-1,1469,638,0,0
252,386,0,0,0,0,0,0,0,0,0,-1,1476,638,0,0
259,386,0,0,0,0,0,0,0,0,0,-1,1483,638,0,0
266,386,0,0,0,0,0,0,0,0,0,-1,1490,638,0,0
273,386,0,0,0,0,0,0,0,0,0,-1,1497,638,0,0
280,386,0,0,0,0,0,0,0,0,0,-1,1504,638,0,0
287,386,0,0,0,0,0,0,0,0,0,-1,1511,638,0,0
294,386,0,0,0,0,0,0,0,0,0,-1,1518,638,0,0
301,386,0,0,0,0,0,0,0,0,0,-1,1525,638,0,0
308,386,0,0,0,0,0,0,0,0,0,-1,1532,638,0,0
315,386,0,0,0,0,0,0,0,0,0,-1,1539,638,0,0
322,386,0,0,0,0,0,0,0,0,0,-1,1546,638,0,0
329,386,0,0,0,0,0,0,0,0,0,-1,1553,638,0,0
336,386,0,0,0,0,0,0,0,0,0,-1,1560,638,0,0
343,386,0,0,0,0,0,0,0,0,0,-1,1567,638,0,0
350,386,0,0,0,0,0,0,0,0,0,-1,1574,638,0,0
357,386,0,0,0,0,0,0,0,0,0,-1,1581,638,0,0
364,386,0,0,0,0,0,0,0,0,0,-1,1588,638,0,0
371,386,0,0,0,0,0,0,0,0,0,-1,1595,638,0,0
378,386,0,0,0,0,0,0,0,0,0,-1,1602,638,0,0
385,386,0,0,0,0,0,0,0,0,0,-1,1609,638,0,0
392,386,0,0,0,0,0,0,0,0,0,-1,1616,638,0,0
399,386,0,0,0,0,0,0,0,0,0,-1,1623,638,0,0
406,386,0,0,0,0,0,0,0,0,0,-1,1630,638,0,0
413,386,0,0,0,0,0,0,0,0,0,-1,1637,638,0,0
420,386,0,0,0,0,0,0,0,0,0,-1,1644,638,0,0
427,386,0,0,0,0,0,0,0,0,0,-1,1651,638,0,0
434,386,0,0,0,0,0,0,0,0,0,-1,1658,638,0,0
441,386,0,0,0,0,0,0,0,0,0,-1,1665,638,0,0
448,386,0,0,0,0,0,0,0,0,0,-1,1672,638,0,0
455,386,0,0,0,0,0,0,0,0,0,-1,1679,638,0,0
462,386,0,0,0,0,0,0,0,0,0,-1,1686,638,0,0
469,386,9.84692,1.55804,0,0,0,0,0,0,0,-1,1693,638,9.84691,-1.55807
476,386,10.6145,0.986511,0,0,0,0,0,0,0,-1,1700,638,10.6145,-0.986529
483,386,11.4113,0.732971,0,0,0,0,0,0,0,-1,1707,638,11.4112,-0.732958
490,386,7.79785,1.79572,0,0,0,0,0,0,0,-1,1714,638,7.79788,-1.7957
497,386,8.96362,1.77081,0,0,0,0,0,0,0,-1,1721,638,8.96357,-1.77081
504,386,10.0555,1.69427,0,0,0,0,0,0,0,-1,1728,638,10.0555,-1.69426
511,386,11.2172,1.534,0,0,0,0,0,0,0,-1,1735,638,11.2172,-1.53398
518,386,7.41553,1.75238,0,0,0,0,0,0,0,-1,1742,638,7.41547,-1.75238
525,386,8.82422,-1.1449,0,0,0,0,0,0,0,-1,1749,638,8.82426,1.14492
532,386,10.6432,0.617371,0,0,0,0,0,0,0,-1,1756,638,10.6432,-0.617359
539,386,9.62061,-0.393616,0,0,0,0,0,0,0,-1,1763,638,9.62059,0.393634
546,386,10.7963,-2.854,0,0,0,0,0,0,0,-1,1770,638,10.7962,2.854
553,386,16.9939,-7.27942,0,0,0,0,0,0,0,-1,1777,638,16.9939,7.27944
560,386,20.0334,-9.19641,0,0,0,0,0,0,0,-1,1784,638,20.0335,9.19642
567,386,20.0065,-8.35822,0.00557935,0.000604393,0.00114785,0.00583142,0.000352324,0.216169,0.00377565,0.0262636,1791,638,20.0064,8.35821
574,386,20.0831,-7.80994,0.00408635,0.000389492,0.000743625,0.00423033,0.000245519,0.191244,0.00274204,0.0144655,1798,638,20.0831,7.80995
581,386,20.0529,-7.28918,0.00286513,0.000463428,0.000552503,0.00298613,0.000342423,0.215608,0.001887,0.0139475,1805,638,20.0529,7.28921
588,386,20.0568,-6.73761,0.00192734,0.000718092,0.000525284,0.00212365,0.000521783,0.357648,0.00127785,0.0123837,1812,638,20.0567,6.7376
595,386,20.0236,-6.20404,0.00136014,0.00112394,0.000690487,0.00194255,0.000541526,0.700701,0.00115755,0.013859,1819,638,20.0235,6.20406
602,386,19.9828,-5.66254,0.0011525,0.00177944,0.00110587,0.00261541,0.000316523,0.923505,0.00164826,0.0158971,1826,638,19.9828,5.66256
609,386,19.9866,-5.12549,0.00109908,0.00256966,0.00162008,0.0036135,5.52428e-05,0.998428,0.0023908,0.0150883,1833,638,19.9866,5.12549
616,386,19.9734,-4.56879,0.00104001,0.00335523,0.00205641,0.00455748,-0.00016223,1.04176,0.00309381,0.0121173,1840,638,19.9734,4.5688
623,386,19.9626,-3.99408,0.00141455,0.00422857,0.00270538,0.00587095,-0.000227832,1.02519,0.00399208,0.0102293,1847,638,19.9627,3.99406
630,386,20.0817,-3.36932,0.00174207,0.00505238,0.00321553,0.00701374,-0.000219287,1.02308,0.00475061,0.0354697,1854,638,20.0817,3.36933
637,386,20.15,-2.7735,0,0,0,0,0,0,0,-1,1861,638,20.15,2.77347
644,386,11.6521,0.723328,0,0,0,0,0,0,0,-1,1868,638,11.6521,-0.723355
651,386,9.3866,1.31097,0,0,0,0,0,0,0,-1,1875,638,9.3866,-1.31095
658,386,12.0731,-0.00415039,0,0,0,0,0,0,0,-1,1882,638,12.0731,0.00412803
665,386,6.33167,1.78601,0,0,0,0,0,0,0,-1,1889,638,6.33171,-1.78601
672,386,7.23352,2.14435,0,0,0,0,0,0,0,-1,1896,638,7.23353,-2.14433
679,386,8.07764,2.57104,0,0,0,0,0,0,0,-1,1903,638,8.07758,-2.57103
686,386,0,0,0,0,0,0,0,0,0,-1,1910,638,0,0
693,386,0,0,0,0,0,0,0,0,0,-1,1917,638,0,0
700,386,0,0,0,0,0,0,0,0,0,-1,1924,638,0,0
707,386,0,0,0,0,0,0,0,0,0,-1,1931,638,0,0
714,386,0,0,0,0,0,0,0,0,0,-1,1938,638,0,0
721,386,0,0,0,0,0,0,0,0,0,-1,1945,638,0,0
728,386,0,0,0,0,0,0,0,0,0,-1,1952,638,0,0
735,386,0,0,0,0,0,0,0,0,0,-1,1959,638,0,0
742,386,0,0,0,0,0,0,0,0,0,-1,1966,638,0,0
749,386,0,0,0,0,0,0,0,0,0,-1,1973,638,0,0
756,386,0,0,0,0,0,0,0,0,0,-1,1980,638,0,0
763,386,0,0,0,0,0,0,0,0,0,-1,1987,638,0,0
770,386,0,0,0,0,0,0,0,0,0,-1,1994,638,0,0
777,386,0,0,0,0,0,0,0,0,0,-1,2001,638,0,0
784,386,0,0,0,0,0,0,0,0,0,-1,2008,638,0,0
791,386,0,0,0,0,0,0,0,0,0,-1,2015,638,0,0
798,386,0,0,0,0,0,0,0,0,0,-1,2022,638,0,0
805,386,0,0,0,0,0,0,0,0,0,-1,2029,638,0,0
812,386,0,0,0,0,0,0,0,0,0,-1,2036,638,0,0
-700,379,0,0,0,0,0,0,0,0,0,-1,524,645,0,0
-693,379,0,0,0,0,0,0,0,0,0,-1,531,645,0,0
-686,379,0,0,0,0,0,0,0,0,0,-1,538,645,0,0
-679,379,0,0,0,0,0,0,0,0,0,-1,545,645,0,0
-672,379,0,0,0,0,0,0,0,0,0,-1,552,645,0,0
-665,379,0,0,0,0,0,0,0,0,0,-1,559,645,0,0
-658,379,0,0,0,0,0,0,0,0,0,-1,566,645,0,0
-651,379,0,0,0,0,0,0,0,0,0,-1,573,645,0,0
-644,379,0,0,0,0,0,0,0,0,0,-1,580,645,0,0
-637,379,0,0,0,0,0,0,0,0,0,-1,587,645,0,0
-630,379,0,0,0,0,0,0,0,0,0,-1,594,645,0,0
-623,379,0,0,0,0,0,0,0,0,0,-1,601,645,0,0
-616,379,0,0,0,0,0,0,0,0,0,-1,608,645,0,0
-609,379,0,0,0,0,0,0,0,0,0,-1,615,645,0,0
-602,379,0,0,0,0,0,0,0,0,0,-1,622,645,0,0
-595,379,0,0,0,0,0,0,0,0,0,-1,629,645,0,0
-588,379,0,0,0,0,0,0,0,0,0,-1,636,645,0,0
-581,379,0,0,0,0,0,0,0,0,0,-1,643,645,0,0
-574,379,0,0,0,0,0,0,0,0,0,-1,650,645,0,0
-567,379,-8.78058,0.59668,0,0,0,0,0,0,0,-1,657,645,-8.7806,-0.596692
-560,379,-9.53485,-0.211304,0,0,0,0,0,0,0,-1,664,645,-9.53487,0.211282
-553,379,-5.17108,-4.53119,0,0,0,0,0,0,0,-1,671,645,-5.17106,4.53117
-546,379,-6.23053,-4.92102,0,0,0,0,0,0,0,-1,678,645,-6.23054,4.92105
-539,379,-0.71698,-2.19427,0,0,0,0,0,0,0,-1,685,645,-0.716959,2.19427
-532,379,-7.69611,0.217224,0,0,0,0,0,0,0,-1,692,645,-7.69614,-0.217204
-525,379,-7.09833,-1.13043,0,0,0,0,0,0,0,-1,699,645,-7.0983,1.13041
-518,379,-10.5613,-3.82849,0,0,0,0,0,0,0,-1,706,645,-10.5613,3.82849
-511,379,-10.7299,-4.67444,0,0,0,0,0,0,0,-1,713,645,-10.7299,4.67446
-504,379,-10.7069,-5.27728,0.000843699,5.6296e-05,-0.000586923,0.00115674,-0.000256741,-0.489972,0.000869466,0.0258486,720,645,-10.7069,5.27728
-497,379,-10.7695,-5.76837,0.000662821,-0.000127402,-0.000400772,0.000830498,-0.000295079,-0.396255,0.000673915,0.0130552,727,645,-10.7695,5.7684
-490,379,-10.7698,-6.31281,0.000591851,-0.000264959,-0.000261806,0.000665515,-0.000338623,-0.274277,0.000589891,0.010952,734,645,-10.7698,6.31283
-483,379,-10.79,-6.85547,0.000787638,2.93329e-05,-0.000498225,0.00103457,-0.000217601,-0.460144,0.000772532,0.0134046,741,645,-10.7901,6.85547
-476,379,-10.7869,-7.36487,0.00108926,0.000336737,-0.000778577,0.00157773,-0.000151729,-0.560311,0.00110587,0.0144055,748,645,-10.7869,7.36488
-469,379,-10.8105,-7.88,0.00144368,0.000665934,-0.00107917,0.00220191,-9.22942e-05,-0.612469,0.00149965,0.0126558,755,645,-10.8106,7.87999
-462,379,-10.8409,-8.41681,0.00177011,0.000854264,-0.0013053,0.00269548,-7.11073e-05,-0.616697,0.00182115,0.00904897,762,645,-10.8409,8.41682
-455,379,-10.8578,-8.93091,0.00208979,0.000882435,-0.00144883,0.00305568,-8.34516e-05,-0.588003,0.0020655,0.00981915,769,645,-10.8579,8.93091
-448,379,-10.843,-9.44177,0.00234309,0.000944891,-0.00151584,0.00331327,-2.52903e-05,-0.569335,0.00221733,0.0126063,776,645,-10.843,9.44177
-441,379,-10.845,-10.0088,0.00255906,0.00052892,-0.00149711,0.00335278,-0.000264798,-0.487488,0.00232848,0.0231773,783,645,-10.845,10.0088
-434,379,-10.7057,-10.6677,0,0,0,0,0,0,0,-1,790,645,-10.7057,10.6677
-427,379,-4.16113,-4.13452,0,0,0,0,0,0,0,-1,797,645,-4.16116,4.1345
-420,379,-4.63953,-3.46869,0,0,0,0,0,0,0,-1,804,645,-4.63953,3.46872
-413,379,-4.62543,-3.7912,0,0,0,0,0,0,0,-1,811,645,-4.62541,3.79123
-406,379,-4.64063,-4.38489,0,0,0,0,0,0,0,-1,818,645,-4.64065,4.3849
-399,379,-2.93536,-1.40118,0,0,0,0,0,0,0,-1,825,645,-2.93534,1.40119
-392,379,-4.16711,-0.466003,0,0,0,0,0,0,0,-1,832,645,-4.16714,0.465992
-385,379,-3.51862,0.441101,0,0,0,0,0,0,0,-1,839,645,-3.51859,-0.441072
-378,379,-5.3504,0.212219,0,0,0,0,0,0,0,-1,846,645,-5.35038,-0.212241
-371,379,-4.32092,-0.186707,0,0,0,0,0,0,0,-1,853,645,-4.3209,0.186707
-364,379,-3.40887,-0.549805,0,0,0,0,0,0,0,-1,860,645,-3.4089,0.549802
-357,379,0,0,0,0,0,0,0,0,0,-1,867,645,0,0
-350,379,0,0,0,0,0,0,0,0,0,-1,874,645,0,0
-343,379,0,0,0,0,0,0,0,0,0,-1,881,645,0,0
-336,379,0,0,0,0,0,0,0,0,0,-1,888,645,0,0
-329,379,0,0,0,0,0,0,0,0,0,-1,895,645,0,0
-322,379,0,0,0,0,0,0,0,0,0,-1,902,645,0,0
-315,379,0,0,0,0,0,0,0,0,0,-1,909,645,0,0
-308,379,0,0,0,0,0,0,0,0,0,-1,916,645,0,0
-301,379,0,0,0,0,0,0,0,0,0,-1,923,645,0,0
-294,379,0,0,0,0,0,0,0,0,0,-1,930,645,0,0
-287,379,0,0,0,0,0,0,0,0,0,-1,937,645,0,0
-280,379,0,0,0,0,0,0,0,0,0,-1,944,645,0,0
-273,379,0,0,0,0,0,0,0,0,0,-1,951,645,0,0
-266,379,0,0,0,0,0,0,0,0,0,-1,958,645,0,0
-259,379,0,0,0,0,0,0,0,0,0,-1,965,645,0,0
-252,379,0,0,0,0,0,0,0,0,0,-1,972,645,0,0
-245,379,0,0,0,0,0,0,0,0,0,-1,979,645,0,0
-238,379,0,0,0,0,0,0,0,0,0,-1,986,645,0,0
-231,379,0,0,0,0,0,0,0,0,0,-1,993,645,0,0
-224,379,0,0,0,0,0,0,0,0,0,-1,1000,645,0,0
-217,379,0,0,0,0,0,0,0,0,0,-1,1007,645,0,0
-210,379,0,0,0,0,0,0,0,0,0,-1,1014,645,0,0
-203,379,0,0,0,0,0,0,0,0,0,-1,1021,645,0,0
-196,379,0,0,0,0,0,0,0,0,0,-1,1028,645,0,0
-189,379,0,0,0,0,0,0,0,0,0,-1,1035,645,0,0
-182,379,0,0,0,0,0,0,0,0,0,-1,1042,645,0,0
-175,379,0,0,0,0,0,0,0,0,0,-1,1049,645,0,0
-168,379,0,0,0,0,0,0,0,0,0,-1,1056,645,0,0
-161,379,0,0,0,0,0,0,0,0,0,-1,1063,645,0,0
-154,379,0,0,0,0,0,0,0,0,0,-1,1070,645,0,0
-147,379,0,0,0,0,0,0,0,0,0,-1,1077,645,0,0
-140,379,0,0,0,0,0,0,0,0,0,-1,1084,645,0,0
-133,379,0,0,0,0,0,0,0,0,0,-1,1091,645,0,0
-126,379,0,0,0,0,0,0,0,0,0,-1,1098,645,0,0
-119,379,0,0,0,0,0,0,0,0,0,-1,1105,645,0,0
-112,379,0,0,0,0,0,0,0,0,0,-1,1112,645,0,0
-105,379,0,0,0,0,0,0,0,0,0,-1,1119,645,0,0
-98,379,0,0,0,0,0,0,0,0,0,-1,1126,645,0,0
-91,379,0,0,0,0,0,0,0,0,0,-1,1133,645,0,0
-84,379,0,0,0,0,0,0,0,0,0,-1,1140,645,0,0
-77,379,0,0,0,0,0,0,0,0,0,-1,1147,645,0,0
-70,379,0,0,0,0,0,0,0,0,0,-1,1154,645,0,0
-63,379,0,0,0,0,0,0,0,0,0,-1,1161,645,0,0
-56,379,0,0,0,0,0,0,0,0,0,-1,1168,645,0,0
-49,379,0,0,0,0,0,0,0,0,0,-1,1175,645,0,0
-42,379,0,0,0,0,0,0,0,0,0,-1,1182,645,0,0
-35,379,0,0,0,0,0,0,0,0,0,-1,1189,645,0,0
-28,379,0,0,0,0,0,0,0,0,0,-1,1196,645,0,0
-21,379,0,0,0,0,0,0,0,0,0,-1,1203,645,0,0
-14,379,0,0,0,0,0,0,0,0,0,-1,1210,645,0,0
-7,379,0,0,0,0,0,0,0,0,0,-1,1217,645,0,0
0,379,0,0,0,0,0,0,0,0,0,-1,1224,645,0,0
7,379,0,0,0,0,0,0,0,0,0,-1,1231,645,0,0
14,379,0,0,0,0,0,0,0,0,0,-1,1238,645,0,0
21,379,0,0,0,0,0,0,0,0,0,-1,1245,645,0,0
28,379,0,0,0,0,0,0,0,0,0,-1,1252,645,0,0
35,379,0,0,0,0,0,0,0,0,0,-1,1259,645,0,0
42,379,0,0,0,0,0,0,0,0,0,-1,1266,645,0,0
49,379,0,0,0,0,0,0,0,0,0,-1,1273,645,0,0
56,379,0,0,0,0,0,0,0,0,0,-1,1280,645,0,0
63,379,0,0,0,0,0,0,0,0,0,-1,1287,645,0,0
70,379,0,0,0,0,0,0,0,0,0,-1,1294,645,0,0
77,379,0,0,0,0,0,0,0,0,0,-1,1301,645,0,0
84,379,0,0,0,0,0,0,0,0,0,-1,1308,645,0,0
91,379,0,0,0,0,0,0,0,0,0,-1,1315,645,0,0
98,379,0,0,0,0,0,0,0,0,0,-1,1322,645,0,0
105,379,0,0,0,0,0,0,0,0,0,-1,1329,645,0,0
112,379,0,0,0,0,0,0,0,0,0,-1,1336,645,0,0
119,379,0,0,0,0,0,0,0,0,0,-1,1343,645,0,0
126,379,0,0,0,0,0,0,0,0,0,-1,1350,645,0,0
133,379,0,0,0,0,0,0,0,0,0,-1,1357,645,0,0
140,379,0,0,0,0,0,0,0,0,0,-1,1364,645,0,0
147,379,0,0,0,0,0,0,0,0,0,-1,1371,645,0,0
154,379,0,0,0,0,0,0,0,0,0,-1,1378,645,0,0
161,379,0,0,0,0,0,0,0,0,0,-1,1385,645,0,0
168,379,0,0,0,0,0,0,0,0,0,-1,1392,645,0,0
175,379,0,0,0,0,0,0,0,0,0,-1,1399,645,0,0
182,379,0,0,0,0,0,0,0,0,0,-1,1406,645,0,0
189,379,0,0,0,0,0,0,0,0,0,-1,1413,645,0,0
196,379,0,0,0,0,0,0,0,0,0,-1,1420,645,0,0
203,379,0,0,0,0,0,0,0,0,0,-1,1427,645,0,0
210,379,0,0,0,0,0,0,0,0,0,-1,1434,645,0,0
217,379,0,0,0,0,0,0,0,0,0,-1,1441,645,0,0
224,379,0,0,0,0,0,0,0,0,0,-1,1448,645,0,0
231,379,0,0,0,0,0,0,0,0,0,-1,1455,645,0,0
238,379,0,0,0,0,0,0,0,0,0,-1,1462,645,0,0
245,379,0,0,0,0,0,0,0,0,0,-1,1469,645,0,0
252,379,0,0,0,0,0,0,0,0,0,-1,1476,645,0,0
259,379,0,0,0,0,0,0,0,0,0,-1,1483,645,0,0
266,379,0,0,0,0,0,0,0,0,0,-1,1490,645,0,0
273,379,0,0,0,0,0,0,0,0,0,-1,1497,645,0,0
280,379,0,0,0,0,0,0,0,0,0,-1,1504,645,0,0
287,379,0,0,0,0,0,0,0,0,0,-1,1511,645,0,0
294,379,0,0,0,0,0,0,0,0,0,-1,1518,645,0,0
301,379,0,0,0,0,0,0,0,0,0,-1,1525,645,0,0
308,379,0,0,0,0,0,0,0,0,0,-1,1532,645,0,0
315,379,0,0,0,0,0,0,0,0,0,-1,1539,645,0,0
322,379,0,0,0,0,0,0,0,0,0,-1,1546,645,0,0
329,379,0,0,0,0,0,0,0,0,0,-1,1553,645,0,0
336,379,0,0,0,0,0,0,0,0,0,-1,1560,645,0,0
343,379,0,0,0,0,0,0,0,0,0,-1,1567,645,0,0
350,379,0,0,0,0,0,0,0,0,0,-1,1574,645,0,0
357,379,0,0,0,0,0,0,0,0,0,-1,1581,645,0,0
364,379,0,0,0,0,0,0,0,0,0,-1,1588,645,0,0
371,379,0,0,0,0,0,0,0,0,0,-1,1595,645,0,0
378,379,0,0,0,0,0,0,0,0,0,-1,1602,645,0,0
385,379,0,0,0,0,0,0,0,0,0,-1,1609,645,0,0
392,379,0,0,0,0,0,0,0,0,0,-1,1616,645,0,0
399,379,0,0,0,0,0,0,0,0,0,-1,1623,645,0,0
406,379,0,0,0,0,0,0,0,0,0,-1,1630,645,0,0
413,379,0,0,0,0,0,0,0,0,0,-1,1637,645,0,0
420,379,0,0,0,0,0,0,0,0,0,-1,1644,645,0,0
427,379,0,0,0,0,0,0,0,0,0,-1,1651,645,0,0
434,379,0,0,0,0,0,0,0,0,0,-1,1658,645,0,0
441,379,0,0,0,0,0,0,0,0,0,-1,1665,645,0,0
448,379,0,0,0,0,0,0,0,0,0,-1,1672,645,0,0
455,379,0,0,0,0,0,0,0,0,0,-1,1679,645,0,0
462,379,0,0,0,0,0,0,0,0,0,-1,1686,645,0,0
469,379,0,0,0,0,0,0,0,0,0,-1,1693,645,0,0
476,379,11.1787,0.830383,0,0,0,0,0,0,0,-1,1700,645,11.1787,-0.830365
483,379,7.4231,1.54321,0,0,0,0,0,0,0,-1,1707,645,7.42314,-1.54324
490,379,8.52881,1.56677,0,0,0,0,0,0,0,-1,1714,645,8.52878,-1.56677
497,379,9.63599,1.49573,0,0,0,0,0,0,0,-1,1721,645,9.63604,-1.4957
504,379,10.0833,1.35229,0,0,0,0,0,0,0,-1,1728,645,10.0832,-1.35227
511,379,8.14343,1.59912,0,0,0,0,0,0,0,-1,1735,645,8.14347,-1.59912
518,379,12.7955,-0.324097,0,0,0,0,0,0,0,-1,1742,645,12.7955,0.324101
525,379,6.03711,1.10352,0,0,0,0,0,0,0,-1,1749,645,6.03711,-1.10351
532,379,8.70947,0.887817,0,0,0,0,0,0,0,-1,1756,645,8.70953,-0.887808
539,379,9.87097,0.111389,0,0,0,0,0,0,0,-1,1763,645,9.87095,-0.111395
546,379,8.42383,-0.730652,0,0,0,0,0,0,0,-1,1770,645,8.42378,0.730638
553,379,19.2905,-7.67834,0,0,0,0,0,0,0,-1,1777,645,19.2905,7.67837
560,379,20.265,-8.80737,0,0,0,0,0,0,0,-1,1784,645,20.265,8.80739
567,379,20.4384,-8.2865,0.00641559,0.000243468,0.00103501,0.00658453,7.45284e-05,0.161797,0.00436505,0.0339686,1791,645,20.4383,8.2865
574,379,20.6313,-7.78247,0.00467982,3.64109e-05,0.000583362,0.00475199,-3.57565e-05,0.123084,0.00317998,0.0137617,1798,645,20.6313,7.78246
581,379,20.6228,-7.25372,0.0033382,0.000129509,0.000350276,0.00337599,9.17165e-05,0.107478,0.00222072,0.0150113,1805,645,20.6228,7.25372
588,379,20.6055,-6.71893,0.0023687,0.000357514,0.000321784,0.00241893,0.000307284,0.154849,0.00152058,0.0168371,1812,645,20.6055,6.71894
595,379,20.5706,-6.17828,0.00179653,0.000739572,0.000469049,0.00197466,0.000561442,0.362945,0.00117489,0.0147232,1819,645,20.5706,6.1783
602,379,20.5404,-5.65564,0.0015909,0.00134014,0.000847203,0.00232195,0.000609088,0.711935,0.00139015,0.0148624,1826,645,20.5404,5.65566
609,379,20.514,-5.13049,0.00151942,0.0020352,0.00130244,0.00310504,0.000449582,0.883137,0.00193763,0.0153421,1833,645,20.514,5.13048
616,379,20.4938,-4.57513,0.00139214,0.0026684,0.00163882,0.00378894,0.000271595,0.971058,0.00244047,0.0124771,1840,645,20.4937,4.57511
623,379,20.4973,-3.97876,0.00151164,0.00335874,0.00211551,0.0047435,0.000126875,0.99121,0.0031209,0.0114724,1847,645,20.4973,3.97874
630,379,20.4738,-3.4082,0.00143358,0.00393329,0.00243428,0.00541983,-5.29552e-05,1.02257,0.003631,0.0132343,1854,645,20.4737,3.40818
637,379,20.4912,-2.75629,0.000950472,0.00449026,0.00257406,0.0058442,-0.000403467,1.08657,0.00403735,0.0386581,1861,645,20.4912,2.75627
644,379,20.672,-2.02118,0,0,0,0,0,0,0,-1,1868,645,20.672,2.0212
651,379,12.9515,0.220825,0,0,0,0,0,0,0,-1,1875,645,12.9515,-0.220814
658,379,13.7498,0.37439,0,0,0,0,0,0,0,-1,1882,645,13.7498,-0.374371
665,379,11.9719,0.353333,0,0,0,0,0,0,0,-1,1889,645,11.9719,-0.353321
672,379,7.57605,2.15326,0,0,0,0,0,0,0,-1,1896,645,7.57599,-2.15326
679,379,8.55078,2.50409,0,0,0,0,0,0,0,-1,1903,645,8.55073,-2.50406
686,379,0,0,0,0,0,0,0,0,0,-1,1910,645,0,0
693,379,0,0,0,0,0,0,0,0,0,-1,1917,645,0,0
700,379,0,0,0,0,0,0,0,0,0,-1,1924,645,0,0
707,379,0,0,0,0,0,0,0,0,0,-1,1931,645,0,0
714,379,0,0,0,0,0,0,0,0,0,-1,1938,645,0,0
721,379,0,0,0,0,0,0,0,0,0,-1,1945,645,0,0
728,379,0,0,0,0,0,0,0,0,0,-1,1952,645,0,0
735,379,0,0,0,0,0,0,0,0,0,-1,1959,645,0,0
742,379,0,0,0,0,0,0,0,0,0,-1,1966,645,0,0
749,379,0,0,0,0,0,0,0,0,0,-1,1973,645,0,0
756,379,0,0,0,0,0,0,0,0,0,-1,1980,645,0,0
763,379,0,0,0,0,0,0,0,0,0,-1,1987,645,0,0
770,379,0,0,0,0,0,0,0,0,0,-1,1994,645,0,0
777,379,0,0,0,0,0,0,0,0,0,-1,2001,645,0,0
784,379,0,0,0,0,0,0,0,0,0,-1,2008,645,0,0
791,379,0,0,0,0,0,0,0,0,0,-1,2015,645,0,0
798,379,0,0,0,0,0,0,0,0,0,-1,2022,645,0,0
805,379,0,0,0,0,0,0,0,0,0,-1,2029,645,0,0
812,379,0,0,0,0,0,0,0,0,0,-1,2036,645,0,0
-700,372,0,0,0,0,0,0,0,0,0,-1,524,652,0,0
-693,372,0,0,0,0,0,0,0,0,0,-1,531,652,0,0
-686,372,0,0,0,0,0,0,0,0,0,-1,538,652,0,0
-679,372,0,0,0,0,0,0,0,0,0,-1,545,652,0,0
-672,372,0,0,0,0,0,0,0,0,0,-1,552,652,0,0
-665,372,0,0,0,0,0,0,0,0,0,-1,559,652,0,0
-658,372,0,0,0,0,0,0,0,0,0,-1,566,652,0,0
-651,372,0,0,0,0,0,0,0,0,0,-1,573,652,0,0
-644,372,0,0,0,0,0,0,0,0,0,-1,580,652,0,0
-637,372,0,0,0,0,0,0,0,0,0,-1,587,652,0,0
-630,372,0,0,0,0,0,0,0,0,0,-1,594,652,0,0
-623,372,0,0,0,0,0,0,0,0,0,-1,601,652,0,0
-616,372,0,0,0,0,0,0,0,0,0,-1,608,652,0,0
-609,372,0,0,0,0,0,0,0,0,0,-1,615,652,0,0
-602,372,0,0,0,0,0,0,0,0,0,-1,622,652,0,0
-595,372,0,0,0,0,0,0,0,0,0,-1,629,652,0,0
-588,372,0,0,0,0,0,0,0,0,0,-1,636,652,0,0
-581,372,0,0,0,0,0,0,0,0,0,-1,643,652,0,0
-574,372,0,0,0,0,0,0,0,0,0,-1,650,652,0,0
-567,372,-7.93744,0.73407,0,0,0,0,0,0,0,-1,657,652,-7.93741,-0.734076
-560,372,-8.78552,-0.158203,0,0,0,0,0,0,0,-1,664,652,-8.78552,0.158216
-553,372,-7.95551,1.61694,0,0,0,0,0,0,0,-1,671,652,-7.95552,-1.61697
-546,372,-4.2403,-3.75372,0,0,0,0,0,0,0,-1,678,652,-4.24028,3.75369
-539,372,-7.92285,-0.0650024,0,0,0,0,0,0,0,-1,685,652,-7.92287,0.0649772
-532,372,-8.59589,-0.419556,0,0,0,0,0,0,0,-1,692,652,-8.59591,0.419539
-525,372,-8.03674,-1.36804,0,0,0,0,0,0,0,-1,699,652,-8.03676,1.36806
-518,372,-11.2783,-4.11627,0,0,0,0,0,0,0,-1,706,652,-11.2783,4.11624
-511,372,-11.2391,-4.73907,0.00129335,0.000978605,-0.00104035,0.00218816,8.3794e-05,-0.710334,0.00143166,0.0308971,713,652,-11.2391,4.73906
-504,372,-11.2659,-5.21704,0.000993937,0.000448233,-0.00060875,0.00138819,5.39836e-05,-0.574713,0.000907998,0.0151778,720,652,-11.2659,5.21703
-497,372,-11.2543,-5.76135,0.000909385,0.000237811,-0.000485111,0.00116359,-1.63896e-05,-0.482667,0.000781244,0.0115554,727,652,-11.2543,5.76136
-490,372,-11.2787,-6.28632,0.000880371,2.96979e-05,-0.000370868,0.00101935,-0.000109283,-0.358547,0.00071877,0.0118117,734,652,-11.2787,6.2863
-483,372,-11.3081,-6.80548,0.00113943,0.000304972,-0.000653081,0.00149718,-5.2779e-05,-0.501144,0.00101617,0.0126157,741,652,-11.3081,6.8055
-476,372,-11.3234,-7.29449,0.00148368,0.00062469,-0.000976049,0.00212055,-1.21831e-05,-0.578131,0.00141778,0.0145175,748,652,-11.3233,7.29451
-469,372,-11.338,-7.81818,0.00185864,0.000993265,-0.00131624,0.00281149,4.04142e-05,-0.626598,0.001861,0.0118363,755,652,-11.338,7.81821
-462,372,-11.3533,-8.37769,0.00220796,0.00127142,-0.00159831,0.00340518,7.4198e-05,-0.642897,0.00224579,0.0100818,762,652,-11.3533,8.37768
-455,372,-11.3845,-8.90051,0.00256674,0.00142335,-0.00180686,0.00389019,9.98966e-05,-0.63218,0.00256081,0.0100756,769,652,-11.3845,8.90053
-448,372,-11.384,-9.42346,0.00284973,0.00177868,-0.00199392,0.00437879,0.00024962,-0.654205,0.00283965,0.0123476,776,652,-11.3841,9.42344
-441,372,-11.3253,-10.0236,0,0,0,0,0,0,0,-1,783,652,-11.3253,10.0236
-434,372,-9.86865,-9.68494,0,0,0,0,0,0,0,-1,790,652,-9.86863,9.68492
-427,372,-4.54248,-3.56268,0,0,0,0,0,0,0,-1,797,652,-4.54247,3.56266
-420,372,-4.66168,-2.93597,0,0,0,0,0,0,0,-1,804,652,-4.66166,2.93599
-413,372,-4.74762,-3.29541,0,0,0,0,0,0,0,-1,811,652,-4.74763,3.29542
-406,372,-0.885437,-0.583923,0,0,0,0,0,0,0,-1,818,652,-0.885437,0.5839
-399,372,-3.97357,-0.825012,0,0,0,0,0,0,0,-1,825,652,-3.97359,0.825037
-392,372,-7.64337,0.173035,0,0,0,0,0,0,0,-1,832,652,-7.64337,-0.173019
-385,372,-6.48871,-0.0271606,0,0,0,0,0,0,0,-1,839,652,-6.48874,0.0271353
-378,372,-5.33044,-0.242432,0,0,0,0,0,0,0,-1,846,652,-5.33042,0.242457
-371,372,-4.40802,-0.495667,0,0,0,0,0,0,0,-1,853,652,-4.40802,0.495661
-364,372,0,0,0,0,0,0,0,0,0,-1,860,652,0,0
-357,372,0,0,0,0,0,0,0,0,0,-1,867,652,0,0
-350,372,0,0,0,0,0,0,0,0,0,-1,874,652,0,0
-343,372,0,0,0,0,0,0,0,0,0,-1,881,652,0,0
-336,372,0,0,0,0,0,0,0,0,0,-1,888,652,0,0
-329,372,0,0,0,0,0,0,0,0,0,-1,895,652,0,0
-322,372,0,0,0,0,0,0,0,0,0,-1,902,652,0,0
-315,372,0,0,0,0,0,0,0,0,0,-1,909,652,0,0
-308,372,0,0,0,0,0,0,0,0,0,-1,916,652,0,0
-301,372,0,0,0,0,0,0,0,0,0,-1,923,652,0,0
-294,372,0,0,0,0,0,0,0,0,0,-1,930,652,0,0
-287,372,0,0,0,0,0,0,0,0,0,-1,937,652,0,0
-280,372,0,0,0,0,0,0,0,0,0,-1,944,652,0,0
-273,372,0,0,0,0,0,0,0,0,0,-1,951,652,0,0
-266,372,0,0,0,0,0,0,0,0,0,-1,958,652,0,0
-259,372,0,0,0,0,0,0,0,0,0,-1,965,652,0,0
-252,372,0,0,0,0,0,0,0,0,0,-1,972,652,0,0
-245,372,0,0,0,0,0,0,0,0,0,-1,979,652,0,0
-238,372,0,0,0,0,0,0,0,0,0,-1,986,652,0,0
-231,372,0,0,0,0,0,0,0,0,0,-1,993,652,0,0
-224,372,0,0,0,0,0,0,0,0,0,-1,1000,652,0,0
-217,372,0,0,0,0,0,0,0,0,0,-1,1007,652,0,0
-210,372,0,0,0,0,0,0,0,0,0,-1,1014,652,0,0
-203,372,0,0,0,0,0,0,0,0,0,-1,1021,652,0,0
-196,372,0,0,0,0,0,0,0,0,0,-1,1028,652,0,0
-189,372,0,0,0,0,0,0,0,0,0,-1,1035,652,0,0
-182,372,0,0,0,0,0,0,0,0,0,-1,1042,652,0,0
-175,372,0,0,0,0,0,0,0,0,0,-1,1049,652,0,0
-168,372,0,0,0,0,0,0,0,0,0,-1,1056,652,0,0
-161,372,0,0,0,0,0,0,0,0,0,-1,1063,652,0,0
-154,372,0,0,0,0,0,0,0,0,0,-1,1070,652,0,0
-147,372,0,0,0,0,0,0,0,0,0,-1,1077,652,0,0
-140,372,0,0,0,0,0,0,0,0,0,-1,1084,652,0,0
-133,372,0,0,0,0,0,0,0,0,0,-1,1091,652,0,0
-126,372,0,0,0,0,0,0,0,0,0,-1,1098,652,0,0
-119,372,0,0,0,0,0,0,0,0,0,-1,1105,652,0,0
-112,372,0,0,0,0,0,0,0,0,0,-1,1112,652,0,0
-105,372,0,0,0,0,0,0,0,0,0,-1,1119,652,0,0
-98,372,0,0,0,0,0,0,0,0,0,-1,1126,652,0,0
-91,372,0,0,0,0,0,0,0,0,0,-1,1133,652,0,0
-84,372,0,0,0,0,0,0,0,0,0,-1,1140,652,0,0
-77,372,0,0,0,0,0,0,0,0,0,-1,1147,652,0,0
-70,372,0,0,0,0,0,0,0,0,0,-1,1154,652,0,0
-63,372,0,0,0,0,0,0,0,0,0,-1,1161,652,0,0
-56,372,0,0,0,0,0,0,0,0,0,-1,1168,652,0,0
-49,372,0,0,0,0,0,0,0,0,0,-1,1175,652,0,0
-42,372,0,0,0,0,0,0,0,0,0,-1,1182,652,0,0
-35,372,0,0,0,0,0,0,0,0,0,-1,1189,652,0,0
-28,372,0,0,0,0,0,0,0,0,0,-1,1196,652,0,0
-21,372,0,0,0,0,0,0,0,0,0,-1,1203,652,0,0
-14,372,0,0,0,0,0,0,0,0,0,-1,1210,652,0,0
-7,372,0,0,0,0,0,0,0,0,0,-1,1217,652,0,0
0,372,0,0,0,0,0,0,0,0,0,-1,1224,652,0,0
7,372,0,0,0,0,0,0,0,0,0,-1,1231,652,0,0
14,372,0,0,0,0,0,0,0,0,0,-1,1238,652,0,0
21,372,0,0,0,0,0,0,0,0,0,-1,1245,652,0,0
28,372,0,0,0,0,0,0,0,0,0,-1,1252,652,0,0
35,372,0,0,0,0,0,0,0,0,0,-1,1259,652,0,0
42,372,0,0,0,0,0,0,0,0,0,-1,1266,652,0,0
49,372,0,0,0,0,0,0,0,0,0,-1,1273,652,0,0
56,372,0,0,0,0,0,0,0,0,0,-1,1280,652,0,0
63,372,0,0,0,0,0,0,0,0,0,-1,1287,652,0,0
70,372,0,0,0,0,0,0,0,0,0,-1,1294,652,0,0
77,372,0,0,0,0,0,0,0,0,0,-1,1301,652,0,0
84,372,0,0,0,0,0,0,0,0,0,-1,1308,652,0,0
91,372,0,0,0,0,0,0,0,0,0,-1,1315,652,0,0
98,372,0,0,0,0,0,0,0,0,0,-1,1322,652,0,0
105,372,0,0,0,0,0,0,0,0,0,-1,1329,652,0,0
112,372,0,0,0,0,0,0,0,0,0,-1,1336,652,0,0
119,372,0,0,0,0,0,0,0,0,0,-1,1343,652,0,0
126,372,0,0,0,0,0,0,0,0,0,-1,1350,652,0,0
133,372,0,0,0,0,0,0,0,0,0,-1,1357,652,0,0
140,372,0,0,0,0,0,0,0,0,0,-1,1364,652,0,0
147,372,0,0,0,0,0,0,0,0,0,-1,1371,652,0,0
154,372,0,0,0,0,0,0,0,0,0,-1,1378,652,0,0
161,372,0,0,0,0,0,0,0,0,0,-1,1385,652,0,0
168,372,0,0,0,0,0,0,0,0,0,-1,1392,652,0,0
175,372,0,0,0,0,0,0,0,0,0,-1,1399,652,0,0
182,372,0,0,0,0,0,0,0,0,0,-1,1406,652,0,0
189,372,0,0,0,0,0,0,0,0,0,-1,1413,652,0,0
196,372,0,0,0,0,0,0,0,0,0,-1,1420,652,0,0
203,372,0,0,0,0,0,0,0,0,0,-1,1427,652,0,0
210,372,0,0,0,0,0,0,0,0,0,-1,1434,652,0,0
217,372,0,0,0,0,0,0,0,0,0,-1,1441,652,0,0
224,372,0,0,0,0,0,0,0,0,0,-1,1448,652,0,0
231,372,0,0,0,0,0,0,0,0,0,-1,1455,652,0,0
238,372,0,0,0,0,0,0,0,0,0,-1,1462,652,0,0
245,372,0,0,0,0,0,0,0,0,0,-1,1469,652,0,0
252,372,0,0,0,0,0,0,0,0,0,-1,1476,652,0,0
259,372,0,0,0,0,0,0,0,0,0,-1,1483,652,0,0
266,372,0,0,0,0,0,0,0,0,0,-1,1490,652,0,0
273,372,0,0,0,0,0,0,0,0,0,-1,1497,652,0,0
280,372,0,0,0,0,0,0,0,0,0,-1,1504,652,0,0
287,372,0,0,0,0,0,0,0,0,0,-1,1511,652,0,0
294,372,0,0,0,0,0,0,0,0,0,-1,1518,652,0,0
301,372,0,0,0,0,0,0,0,0,0,-1,1525,652,0,0
308,372,0,0,0,0,0,0,0,0,0,-1,1532,652,0,0
315,372,0,0,0,0,0,0,0,0,0,-1,1539,652,0,0
322,372,0,0,0,0,0,0,0,0,0,-1,1546,652,0,0
329,372,0,0,0,0,0,0,0,0,0,-1,1553,652,0,0
336,372,0,0,0,0,0,0,0,0,0,-1,1560,652,0,0
343,372,0,0,0,0,0,0,0,0,0,-1,1567,652,0,0
350,372,0,0,0,0,0,0,0,0,0,-1,1574,652,0,0
357,372,0,0,0,0,0,0,0,0,0,-1,1581,652,0,0
364,372,0,0,0,0,0,0,0,0,0,-1,1588,652,0,0
371,372,0,0,0,0,0,0,0,0,0,-1,1595,652,0,0
378,372,0,0,0,0,0,0,0,0,0,-1,1602,652,0,0
385,372,0,0,0,0,0,0,0,0,0,-1,1609,652,0,0
392,372,0,0,0,0,0,0,0,0,0,-1,1616,652,0,0
399,372,0,0,0,0,0,0,0,0,0,-1,1623,652,0,0
406,372,0,0,0,0,0,0,0,0,0,-1,1630,652,0,0
413,372,0,0,0,0,0,0,0,0,0,-1,1637,652,0,0
420,372,0,0,0,0,0,0,0,0,0,-1,1644,652,0,0
427,372,0,0,0,0,0,0,0,0,0,-1,1651,652,0,0
434,372,0,0,0,0,0,0,0,0,0,-1,1658,652,0,0
441,372,0,0,0,0,0,0,0,0,0,-1,1665,652,0,0
448,372,0,0,0,0,0,0,0,0,0,-1,1672,652,0,0
455,372,0,0,0,0,0,0,0,0,0,-1,1679,652,0,0
462,372,0,0,0,0,0,0,0,0,0,-1,1686,652,0,0
469,372,0,0,0,0,0,0,0,0,0,-1,1693,652,0,0
476,372,0,0,0,0,0,0,0,0,0,-1,1700,652,0,0
483,372,8.74182,1.53125,0,0,0,0,0,0,0,-1,1707,652,8.74186,-1.53126
490,372,9.78455,1.67096,0,0,0,0,0,0,0,-1,1714,652,9.7846,-1.67093
497,372,9.97644,1.46069,0,0,0,0,0,0,0,-1,1721,652,9.97647,-1.46071
504,372,10.1216,1.28375,0,0,0,0,0,0,0,-1,1728,652,10.1216,-1.28376
511,372,11.7367,-0.0272217,0,0,0,0,0,0,0,-1,1735,652,11.7367,0.0272326
518,372,12.0657,-0.0995483,0,0,0,0,0,0,0,-1,1742,652,12.0657,0.0995285
525,372,12.3947,-0.171814,0,0,0,0,0,0,0,-1,1749,652,12.3946,0.171824
532,372,9.36597,1.72034,0,0,0,0,0,0,0,-1,1756,652,9.36597,-1.72036
539,372,7.82886,-0.0865479,0,0,0,0,0,0,0,-1,1763,652,7.82882,0.0865771
546,372,10.953,-0.187195,0,0,0,0,0,0,0,-1,1770,652,10.953,0.187181
553,372,14.1201,-4.83234,0,0,0,0,0,0,0,-1,1777,652,14.1201,4.83235
560,372,20.1057,-8.06934,0,0,0,0,0,0,0,-1,1784,652,20.1058,8.06936
567,372,20.8669,-8.24927,0,0,0,0,0,0,0,-1,1791,652,20.8669,8.24924
574,372,21.198,-7.70038,0.0050337,-0.000202061,0.000370846,0.00505984,-0.000228198,0.0703614,0.0034518,0.0307653,1798,652,21.198,7.70038
581,372,21.191,-7.25189,0.00354888,-0.000147063,8.30278e-05,0.00355074,-0.000148927,0.0224495,0.00241833,0.0194674,1805,652,21.1911,7.2519
588,372,21.1504,-6.72034,0.00253947,-1.26991e-05,5.56508e-05,0.00254068,-1.3912e-05,0.0217915,0.00169844,0.0160925,1812,652,21.1504,6.72035
595,372,21.113,-6.16449,0.00195124,0.00028995,0.000176503,0.00196978,0.000271404,0.104687,0.00123272,0.0139927,1819,652,21.113,6.16451
602,372,21.1208,-5.64148,0.00173687,0.000786573,0.00050352,0.00195404,0.000569408,0.407189,0.00116043,0.0139697,1826,652,21.1208,5.64145
609,372,21.0516,-5.10938,0.00167131,0.00135772,0.00091065,0.00243857,0.000590468,0.700146,0.00146899,0.0144968,1833,652,21.0517,5.10936
616,372,21.035,-4.53705,0.00152517,0.00184749,0.0011852,0.00288243,0.000490224,0.852972,0.00178085,0.0145576,1840,652,21.035,4.53704
623,372,21.0533,-3.95044,0.00147697,0.00238806,0.00154257,0.00354095,0.000324086,0.928974,0.00226036,0.0127804,1847,652,21.0533,3.95043
630,372,21.0372,-3.39581,0.00118724,0.00279006,0.00174948,0.00391295,6.43415e-05,1.00018,0.00258746,0.0163192,1854,652,21.0373,3.39581
637,372,21.0598,-2.86896,0.000544312,0.00311803,0.00176867,0.00401845,-0.000356108,1.0999,0.00280521,0.0244581,1861,652,21.0598,2.86895
644,372,21.2214,-2.31531,0,0,0,0,0,0,0,-1,1868,652,21.2215,2.31532
651,372,21.3998,-0.888,0,0,0,0,0,0,0,-1,1875,652,21.3998,0.887992
658,372,14.157,0.280273,0,0,0,0,0,0,0,-1,1882,652,14.157,-0.280264
665,372,15.2286,0.463867,0,0,0,0,0,0,0,-1,1889,652,15.2287,-0.463854
672,372,9.34106,1.48444,0,0,0,0,0,0,0,-1,1896,652,9.34109,-1.48444
679,372,10.7308,2.32391,0,0,0,0,0,0,0,-1,1903,652,10.7309,-2.3239
686,372,11.6295,2.52997,0,0,0,0,0,0,0,-1,1910,652,11.6296,-2.52996
693,372,0,0,0,0,0,0,0,0,0,-1,1917,652,0,0
700,372,0,0,0,0,0,0,0,0,0,-1,1924,652,0,0
707,372,0,0,0,0,0,0,0,0,0,-1,1931,652,0,0
714,372,0,0,0,0,0,0,0,0,0,-1,1938,652,0,0
721,372,0,0,0,0,0,0,0,0,0,-1,1945,652,0,0
728,372,0,0,0,0,0,0,0,0,0,-1,1952,652,0,0
735,372,0,0,0,0,0,0,0,0,0,-1,1959,652,0,0
742,372,0,0,0,0,0,0,0,0,0,-1,1966,652,0,0
749,372,0,0,0,0,0,0,0,0,0,-1,1973,652,0,0
756,372,0,0,0,0,0,0,0,0,0,-1,1980,652,0,0
763,372,0,0,0,0,0,0,0,0,0,-1,1987,652,0,0
770,372,0,0,0,0,0,0,0,0,0,-1,1994,652,0,0
777,372,0,0,0,0,0,0,0,0,0,-1,2001,652,0,0
784,372,0,0,0,0,0,0,0,0,0,-1,2008,652,0,0
791,372,0,0,0,0,0,0,0,0,0,-1,2015,652,0,0
798,372,0,0,0,0,0,0,0,0,0,-1,2022,652,0,0
805,372,0,0,0,0,0,0,0,0,0,-1,2029,652,0,0
812,372,0,0,0,0,0,0,0,0,0,-1,2036,652,0,0
-700,365,0,0,0,0,0,0,0,0,0,-1,524,659,0,0
-693,365,0,0,0,0,0,0,0,0,0,-1,531,659,0,0
-686,365,0,0,0,0,0,0,0,0,0,-1,538,659,0,0
-679,365,0,0,0,0,0,0,0,0,0,-1,545,659,0,0
-672,365,0,0,0,0,0,0,0,0,0,-1,552,659,0,0
-665,365,0,0,0,0,0,0,0,0,0,-1,559,659,0,0
-658,365,0,0,0,0,0,0,0,0,0,-1,566,659,0,0
-651,365,0,0,0,0,0,0,0,0,0,-1,573,659,0,0
-644,365,0,0,0,0,0,0,0,0,0,-1,580,659,0,0
-637,365,0,0,0,0,0,0,0,0,0,-1,587,659,0,0
-630,365,0,0,0,0,0,0,0,0,0,-1,594,659,0,0
-623,365,0,0,0,0,0,0,0,0,0,-1,601,659,0,0
-616,365,0,0,0,0,0,0,0,0,0,-1,608,659,0,0
-609,365,0,0,0,0,0,0,0,0,0,-1,615,659,0,0
-602,365,0,0,0,0,0,0,0,0,0,-1,622,659,0,0
-595,365,0,0,0,0,0,0,0,0,0,-1,629,659,0,0
-588,365,0,0,0,0,0,0,0,0,0,-1,636,659,0,0
-581,365,0,0,0,0,0,0,0,0,0,-1,643,659,0,0
-574,365,-7.69281,1.59015,0,0,0,0,0,0,0,-1,650,659,-7.69282,-1.59018
-567,365,-8.2583,1.72638,0,0,0,0,0,0,0,-1,657,659,-8.25827,-1.72637
-560,365,-7.17767,0.275757,0,0,0,0,0,0,0,-1,664,659,-7.17768,-0.27577
-553,365,-10.0349,-0.169617,0,0,0,0,0,0,0,-1,671,659,-10.0349,0.169593
-546,365,-10.6303,-1.51642,0,0,0,0,0,0,0,-1,678,659,-10.6303,1.5164
-539,365,-8.38599,1.52936,0,0,0,0,0,0,0,-1,685,659,-8.38598,-1.52935
-532,365,-8.52863,0.166504,0,0,0,0,0,0,0,-1,692,659,-8.52863,-0.166501
-525,365,-9.28229,-2.62726,0,0,0,0,0,0,0,-1,699,659,-9.28227,2.62724
-518,365,-11.806,-4.08514,0,0,0,0,0,0,0,-1,706,659,-11.806,4.08512
-511,365,-11.8159,-4.68115,0.00124644,0.00127871,-0.000931415,0.00219413,0.00033102,-0.79406,0.00136585,0.0311081,713,659,-11.8159,4.68113
-504,365,-11.7961,-5.20331,0.00110002,0.000754159,-0.000611505,0.00156257,0.000291602,-0.6476,0.000959403,0.0133163,720,659,-11.7962,5.20332
-497,365,-11.7836,-5.75439,0.00115151,0.000566012,-0.000574447,0.0015035,0.00021402,-0.549742,0.000939159,0.0133534,727,659,-11.7836,5.75437
-490,365,-11.7928,-6.28101,0.00116345,0.000340729,-0.000499967,0.00139953,0.000104645,-0.441161,0.000900171,0.0137518,734,659,-11.7928,6.28103
-483,365,-11.8232,-6.78015,0.00146184,0.000625114,-0.000827819,0.00197101,0.000115946,-0.551427,0.00127711,0.0125741,741,659,-11.8232,6.78016
-476,365,-11.8043,-7.28809,0.00183654,0.000971362,-0.00119517,0.002675,0.000132899,-0.61176,0.00174073,0.0150332,748,659,-11.8042,7.28808
-469,365,-11.8253,-7.8197,0.00222685,0.00136744,-0.00156727,0.00342226,0.000172031,-0.651599,0.00222638,0.0155838,755,659,-11.8253,7.8197
-462,365,-11.8673,-8.36377,0.00260821,0.00173414,-0.00190249,0.00412321,0.000219135,-0.672498,0.00267875,0.014352,762,659,-11.8673,8.36378
-455,365,-11.8941,-8.89355,0.00302475,0.00199204,-0.0021695,0.0047385,0.000278289,-0.668569,0.00307044,0.0156552,769,659,-11.8941,8.89354
-448,365,-11.8249,-9.4939,0.00337609,0.00268504,-0.00249798,0.00555233,0.000508798,-0.716673,0.00354415,0.0351661,776,659,-11.8249,9.49389
-441,365,-11.5931,-10.1933,0,0,0,0,0,0,0,-1,783,659,-11.5931,10.1933
-434,365,-5.45056,-3.98041,0,0,0,0,0,0,0,-1,790,659,-5.45055,3.98042
-427,365,-5.05377,-4.74689,0,0,0,0,0,0,0,-1,797,659,-5.05376,4.7469
-420,365,-4.58813,-3.16376,0,0,0,0,0,0,0,-1,804,659,-4.58816,3.16374
-413,365,0.141357,0.672729,0,0,0,0,0,0,0,-1,811,659,0.141365,-0.672714
-406,365,-1.75067,-0.934448,0,0,0,0,0,0,0,-1,818,659,-1.7507,0.934424
-399,365,-4.10242,-1.25439,0,0,0,0,0,0,0,-1,825,659,-4.10244,1.25438
-392,365,-7.46545,-0.779724,0,0,0,0,0,0,0,-1,832,659,-7.46543,0.779744
-385,365,-6.27875,-0.887573,0,0,0,0,0,0,0,-1,839,659,-6.27874,0.887545
-378,365,-5.34503,-0.263306,0,0,0,0,0,0,0,-1,846,659,-5.34504,0.263275
-371,365,0,0,0,0,0,0,0,0,0,-1,853,659,0,0
-364,365,0,0,0,0,0,0,0,0,0,-1,860,659,0,0
-357,365,0,0,0,0,0,0,0,0,0,-1,867,659,0,0
-350,365,0,0,0,0,0,0,0,0,0,-1,874,659,0,0
-343,365,0,0,0,0,0,0,0,0,0,-1,881,659,0,0
-336,365,0,0,0,0,0,0,0,0,0,-1,888,659,0,0
-329,365,0,0,0,0,0,0,0,0,0,-1,895,659,0,0
-322,365,0,0,0,0,0,0,0,0,0,-1,902,659,0,0
-315,365,0,0,0,0,0,0,0,0,0,-1,909,659,0,0
-308,365,0,0,0,0,0,0,0,0,0,-1,916,659,0,0
-301,365,0,0,0,0,0,0,0,0,0,-1,923,659,0,0
-294,365,0,0,0,0,0,0,0,0,0,-1,930,659,0,0
-287,365,0,0,0,0,0,0,0,0,0,-1,937,659,0,0
-280,365,0,0,0,0,0,0,0,0,0,-1,944,659,0,0
-273,365,0,0,0,0,0,0,0,0,0,-1,951,659,0,0
-266,365,0,0,0,0,0,0,0,0,0,-1,958,659,0,0
-259,365,0,0,0,0,0,0,0,0,0,-1,965,659,0,0
-252,365,0,0,0,0,0,0,0,0,0,-1,972,659,0,0
-245,365,0,0,0,0,0,0,0,0,0,-1,979,659,0,0
-238,365,0,0,0,0,0,0,0,0,0,-1,986,659,0,0
-231,365,0,0,0,0,0,0,0,0,0,-1,993,659,0,0
-224,365,0,0,0,0,0,0,0,0,0,-1,1000,659,0,0
-217,365,0,0,0,0,0,0,0,0,0,-1,1007,659,0,0
-210,365,0,0,0,0,0,0,0,0,0,-1,1014,659,0,0
-203,365,0,0,0,0,0,0,0,0,0,-1,1021,659,0,0
-196,365,0,0,0,0,0,0,0,0,0,-1,1028,659,0,0
-189,365,0,0,0,0,0,0,0,0,0,-1,1035,659,0,0
-182,365,0,0,0,0,0,0,0,0,0,-1,1042,659,0,0
-175,365,0,0,0,0,0,0,0,0,0,-1,1049,659,0,0
-168,365,0,0,0,0,0,0,0,0,0,-1,1056,659,0,0
-161,365,0,0,0,0,0,0,0,0,0,-1,1063,659,0,0
-154,365,0,0,0,0,0,0,0,0,0,-1,1070,659,0,0
-147,365,0,0,0,0,0,0,0,0,0,-1,1077,659,0,0
-140,365,0,0,0,0,0,0,0,0,0,-1,1084,659,0,0
-133,365,0,0,0,0,0,0,0,0,0,-1,1091,659,0,0
-126,365,0,0,0,0,0,0,0,0,0,-1,1098,659,0,0
-119,365,0,0,0,0,0,0,0,0,0,-1,1105,659,0,0
-112,365,0,0,0,0,0,0,0,0,0,-1,1112,659,0,0
-105,365,0,0,0,0,0,0,0,0,0,-1,1119,659,0,0
-98,365,0,0,0,0,0,0,0,0,0,-1,1126,659,0,0
-91,365,0,0,0,0,0,0,0,0,0,-1,1133,659,0,0
-84,365,0,0,0,0,0,0,0,0,0,-1,1140,659,0,0
-77,365,0,0,0,0,0,0,0,0,0,-1,1147,659,0,0
-70,365,0,0,0,0,0,0,0,0,0,-1,1154,659,0,0
-63,365,0,0,0,0,0,0,0,0,0,-1,1161,659,0,0
-56,365,0,0,0,0,0,0,0,0,0,-1,1168,659,0,0
-49,365,0,0,0,0,0,0,0,0,0,-1,1175,659,0,0
-42,365,0,0,0,0,0,0,0,0,0,-1,1182,659,0,0
-35,365,0,0,0,0,0,0,0,0,0,-1,1189,659,0,0
-28,365,0,0,0,0,0,0,0,0,0,-1,1196,659,0,0
-21,365,0,0,0,0,0,0,0,0,0,-1,1203,659,0,0
-14,365,0,0,0,0,0,0,0,0,0,-1,1210,659,0,0
-7,365,0,0,0,0,0,0,0,0,0,-1,1217,659,0,0
0,365,0,0,0,0,0,0,0,0,0,-1,1224,659,0,0
7,365,0,0,0,0,0,0,0,0,0,-1,1231,659,0,0
14,365,0,0,0,0,0,0,0,0,0,-1,1238,659,0,0
21,365,0,0,0,0,0,0,0,0,0,-1,1245,659,0,0
28,365,0,0,0,0,0,0,0,0,0,-1,1252,659,0,0
35,365,0,0,0,0,0,0,0,0,0,-1,1259,659,0,0
42,365,0,0,0,0,0,0,0,0,0,-1,1266,659,0,0
49,365,0,0,0,0,0,0,0,0,0,-1,1273,659,0,0
56,365,0,0,0,0,0,0,0,0,0,-1,1280,659,0,0
63,365,0,0,0,0,0,0,0,0,0,-1,1287,659,0,0
70,365,0,0,0,0,0,0,0,0,0,-1,1294,659,0,0
77,365,0,0,0,0,0,0,0,0,0,-1,1301,659,0,0
84,365,0,0,0,0,0,0,0,0,0,-1,1308,659,0,0
91,365,0,0,0,0,0,0,0,0,0,-1,1315,659,0,0
98,365,0,0,0,0,0,0,0,0,0,-1,1322,659,0,0
105,365,0,0,0,0,0,0,0,0,0,-1,1329,659,0,0
112,365,0,0,0,0,0,0,0,0,0,-1,1336,659,0,0
119,365,0,0,0,0,0,0,0,0,0,-1,1343,659,0,0
126,365,0,0,0,0,0,0,0,0,0,-1,1350,659,0,0
133,365,0,0,0,0,0,0,0,0,0,-1,1357,659,0,0
140,365,0,0,0,0,0,0,0,0,0,-1,1364,659,0,0
147,365,0,0,0,0,0,0,0,0,0,-1,1371,659,0,0
154,365,0,0,0,0,0,0,0,0,0,-1,1378,659,0,0
161,365,0,0,0,0,0,0,0,0,0,-1,1385,659,0,0
168,365,0,0,0,0,0,0,0,0,0,-1,1392,659,0,0
175,365,0,0,0,0,0,0,0,0,0,-1,1399,659,0,0
182,365,0,0,0,0,0,0,0,0,0,-1,1406,659,0,0
189,365,0,0,0,0,0,0,0,0,0,-1,1413,659,0,0
196,365,0,0,0,0,0,0,0,0,0,-1,1420,659,0,0
203,365,0,0,0,0,0,0,0,0,0,-1,1427,659,0,0
210,365,0,0,0,0,0,0,0,0,0,-1,1434,659,0,0
217,365,0,0,0,0,0,0,0,0,0,-1,1441,659,0,0
224,365,0,0,0,0,0,0,0,0,0,-1,1448,659,0,0
231,365,0,0,0,0,0,0,0,0,0,-1,1455,659,0,0
238,365,0,0,0,0,0,0,0,0,0,-1,1462,659,0,0
245,365,0,0,0,0,0,0,0,0,0,-1,1469,659,0,0
252,365,0,0,0,0,0,0,0,0,0,-1,1476,659,0,0
259,365,0,0,0,0,0,0,0,0,0,-1,1483,659,0,0
266,365,0,0,0,0,0,0,0,0,0,-1,1490,659,0,0
273,365,0,0,0,0,0,0,0,0,0,-1,1497,659,0,0
280,365,0,0,0,0,0,0,0,0,0,-1,1504,659,0,0
287,365,0,0,0,0,0,0,0,0,0,-1,1511,659,0,0
294,365,0,0,0,0,0,0,0,0,0,-1,1518,659,0,0
301,365,0,0,0,0,0,0,0,0,0,-1,1525,659,0,0
308,365,0,0,0,0,0,0,0,0,0,-1,1532,659,0,0
315,365,0,0,0,0,0,0,0,0,0,-1,1539,659,0,0
322,365,0,0,0,0,0,0,0,0,0,-1,1546,659,0,0
329,365,0,0,0,0,0,0,0,0,0,-1,1553,659,0,0
336,365,0,0,0,0,0,0,0,0,0,-1,1560,659,0,0
343,365,0,0,0,0,0,0,0,0,0,-1,1567,659,0,0
350,365,0,0,0,0,0,0,0,0,0,-1,1574,659,0,0
357,365,0,0,0,0,0,0,0,0,0,-1,1581,659,0,0
364,365,0,0,0,0,0,0,0,0,0,-1,1588,659,0,0
371,365,0,0,0,0,0,0,0,0,0,-1,1595,659,0,0
378,365,0,0,0,0,0,0,0,0,0,-1,1602,659,0,0
385,365,0,0,0,0,0,0,0,0,0,-1,1609,659,0,0
392,365,0,0,0,0,0,0,0,0,0,-1,1616,659,0,0
399,365,0,0,0,0,0,0,0,0,0,-1,1623,659,0,0
406,365,0,0,0,0,0,0,0,0,0,-1,1630,659,0,0
413,365,0,0,0,0,0,0,0,0,0,-1,1637,659,0,0
420,365,0,0,0,0,0,0,0,0,0,-1,1644,659,0,0
427,365,0,0,0,0,0,0,0,0,0,-1,1651,659,0,0
434,365,0,0,0,0,0,0,0,0,0,-1,1658,659,0,0
441,365,0,0,0,0,0,0,0,0,0,-1,1665,659,0,0
448,365,0,0,0,0,0,0,0,0,0,-1,1672,659,0,0
455,365,0,0,0,0,0,0,0,0,0,-1,1679,659,0,0
462,365,0,0,0,0,0,0,0,0,0,-1,1686,659,0,0
469,365,0,0,0,0,0,0,0,0,0,-1,1693,659,0,0
476,365,0,0,0,0,0,0,0,0,0,-1,1700,659,0,0
483,365,0,0,0,0,0,0,0,0,0,-1,1707,659,0,0
490,365,8.39551,0.471252,0,0,0,0,0,0,0,-1,1714,659,8.39551,-0.471241
497,365,9.89233,1.35394,0,0,0,0,0,0,0,-1,1721,659,9.89237,-1.35396
504,365,10.1414,1.18005,0,0,0,0,0,0,0,-1,1728,659,10.1413,-1.18004
511,365,10.5151,0.993896,0,0,0,0,0,0,0,-1,1735,659,10.5152,-0.993894
518,365,11.2029,0.398132,0,0,0,0,0,0,0,-1,1742,659,11.2029,-0.398136
525,365,15.5748,3.85303,0,0,0,0,0,0,0,-1,1749,659,15.5748,-3.85303
532,365,11.2446,1.00629,0,0,0,0,0,0,0,-1,1756,659,11.2446,-1.00631
539,365,12.6301,1.03204,0,0,0,0,0,0,0,-1,1763,659,12.6302,-1.03204
546,365,11.647,0.84198,0,0,0,0,0,0,0,-1,1770,659,11.6469,-0.841955
553,365,12.028,-0.558899,0,0,0,0,0,0,0,-1,1777,659,12.028,0.558873
560,365,14.5372,-4.55548,0,0,0,0,0,0,0,-1,1784,659,14.5373,4.55547
567,365,20.5676,-7.53888,0,0,0,0,0,0,0,-1,1791,659,20.5676,7.53887
574,365,21.9136,-7.62952,0,0,0,0,0,0,0,-1,1798,659,21.9136,7.62949
581,365,21.7446,-7.18921,0,0,0,0,0,0,0,-1,1805,659,21.7446,7.18921
588,365,21.6477,-6.81604,0.0024804,-0.00034881,-0.000253254,0.00250289,-0.000371301,-0.0885757,0.00180514,0.0207838,1812,659,21.6477,6.81602
595,365,21.6681,-6.14752,0.0018831,-7.41239e-05,-0.000135843,0.00189248,-8.35072e-05,-0.0689654,0.00129039,0.0132246,1819,659,21.668,6.14754
602,365,21.6492,-5.59375,0.00165672,0.000343331,0.000138085,0.00167108,0.00032897,0.103627,0.0010222,0.0149827,1826,659,21.6492,5.59375
609,365,21.5935,-5.05396,0.0016304,0.000817863,0.000514885,0.00188,0.000568265,0.451386,0.00111335,0.0155747,1833,659,21.5936,5.05398
616,365,21.5985,-4.48309,0.00151877,0.00120841,0.00076683,0.00214596,0.000581213,0.685563,0.00128161,0.0172835,1840,659,21.5985,4.48308
623,365,21.6289,-3.92297,0.00137025,0.00162201,0.00103544,0.00253919,0.000453065,0.845887,0.00156381,0.0123408,1847,659,21.6289,3.92298
630,365,21.5958,-3.37976,0.000929267,0.00188791,0.00116838,0.00267147,0.000145708,0.980051,0.00173445,0.0159318,1854,659,21.5959,3.37974
637,365,21.5864,-2.86377,7.40155e-05,0.00202343,0.00106745,0.00249423,-0.000396792,1.1554,0.00180964,0.0219105,1861,659,21.5864,2.86379
644,365,21.608,-2.30731,-0.00132614,0.00206306,0.000764482,0.00222752,-0.0014906,1.3589,0.00216067,0.0215738,1868,659,21.608,2.30733
651,365,21.7365,-1.64185,0,0,0,0,0,0,0,-1,1875,659,21.7364,1.64182
658,365,20.9567,-0.394592,0,0,0,0,0,0,0,-1,1882,659,20.9567,0.394603
665,365,14.0961,0.769043,0,0,0,0,0,0,0,-1,1889,659,14.0961,-0.769063
672,365,10.0579,2.15088,0,0,0,0,0,0,0,-1,1896,659,10.0579,-2.15088
679,365,10.9718,2.19208,0,0,0,0,0,0,0,-1,1903,659,10.9718,-2.19211
686,365,12.2134,2.17108,0,0,0,0,0,0,0,-1,1910,659,12.2134,-2.17109
693,365,13.7141,1.98279,0,0,0,0,0,0,0,-1,1917,659,13.7141,-1.98278
700,365,0,0,0,0,0,0,0,0,0,-1,1924,659,0,0
707,365,0,0,0,0,0,0,0,0,0,-1,1931,659,0,0
714,365,0,0,0,0,0,0,0,0,0,-1,1938,659,0,0
721,365,0,0,0,0,0,0,0,0,0,-1,1945,659,0,0
728,365,0,0,0,0,0,0,0,0,0,-1,1952,659,0,0
735,365,0,0,0,0,0,0,0,0,0,-1,1959,659,0,0
742,365,0,0,0,0,0,0,0,0,0,-1,1966,659,0,0
749,365,0,0,0,0,0,0,0,0,0,-1,1973,659,0,0
756,365,0,0,0,0,0,0,0,0,0,-1,1980,659,0,0
763,365,0,0,0,0,0,0,0,0,0,-1,1987,659,0,0
770,365,0,0,0,0,0,0,0,0,0,-1,1994,659,0,0
777,365,0,0,0,0,0,0,0,0,0,-1,2001,659,0,0
784,365,0,0,0,0,0,0,0,0,0,-1,2008,659,0,0
791,365,0,0,0,0,0,0,0,0,0,-1,2015,659,0,0
798,365,0,0,0,0,0,0,0,0,0,-1,2022,659,0,0
805,365,0,0,0,0,0,0,0,0,0,-1,2029,659,0,0
812,365,0,0,0,0,0,0,0,0,0,-1,2036,659,0,0
-700,358,0,0,0,0,0,0,0,0,0,-1,524,666,0,0
-693,358,0,0,0,0,0,0,0,0,0,-1,531,666,0,0
-686,358,0,0,0,0,0,0,0,0,0,-1,538,666,0,0
-679,358,0,0,0,0,0,0,0,0,0,-1,545,666,0,0
-672,358,0,0,0,0,0,0,0,0,0,-1,552,666,0,0
-665,358,0,0,0,0,0,0,0,0,0,-1,559,666,0,0
-658,358,0,0,0,0,0,0,0,0,0,-1,566,666,0,0
-651,358,0,0,0,0,0,0,0,0,0,-1,573,666,0,0
-644,358,0,0,0,0,0,0,0,0,0,-1,580,666,0,0
-637,358,0,0,0,0,0,0,0,0,0,-1,587,666,0,0
-630,358,0,0,0,0,0,0,0,0,0,-1,594,666,0,0
-623,358,0,0,0,0,0,0,0,0,0,-1,601,666,0,0
-616,358,0,0,0,0,0,0,0,0,0,-1,608,666,0,0
-609,358,0,0,0,0,0,0,0,0,0,-1,615,666,0,0
-602,358,0,0,0,0,0,0,0,0,0,-1,622,666,0,0
-595,358,0,0,0,0,0,0,0,0,0,-1,629,666,0,0
-588,358,0,0,0,0,0,0,0,0,0,-1,636,666,0,0
-581,358,-8.31616,1.61993,0,0,0,0,0,0,0,-1,643,666,-8.31614,-1.61993
-574,358,-8.22406,1.75385,0,0,0,0,0,0,0,-1,650,666,-8.22408,-1.75383
-567,358,-8.14215,1.91577,0,0,0,0,0,0,0,-1,657,666,-8.14214,-1.91579
-560,358,-10.6086,2.18872,0,0,0,0,0,0,0,-1,664,666,-10.6086,-2.18873
-553,358,-13.4767,1.09552,0,0,0,0,0,0,0,-1,671,666,-13.4767,-1.09551
-546,358,-13.3743,-0.185059,0,0,0,0,0,0,0,-1,678,666,-13.3743,0.185037
-539,358,-9.43884,-2.04785,0,0,0,0,0,0,0,-1,685,666,-9.43884,2.04785
-532,358,-12.4141,-2.36572,0,0,0,0,0,0,0,-1,692,666,-12.4141,2.3657
-525,358,-12.2109,-3.75421,0,0,0,0,0,0,0,-1,699,666,-12.2109,3.7542
-518,358,-12.2925,-4.11237,0,0,0,0,0,0,0,-1,706,666,-12.2925,4.11237
-511,358,-12.3007,-4.64966,0.00123677,0.00138595,-0.000747683,0.00206275,0.000559964,-0.835117,0.0012317,0.0164721,713,666,-12.3007,4.64964
-504,358,-12.3117,-5.17877,0.00119708,0.000895127,-0.000516183,0.00158392,0.000508296,-0.643122,0.000933822,0.0120234,720,666,-12.3117,5.1788
-497,358,-12.3101,-5.72668,0.00134742,0.000749827,-0.000556797,0.00168053,0.000416719,-0.539138,0.0010105,0.0116391,727,666,-12.3101,5.72667
-490,358,-12.317,-6.25,0.00141954,0.0005527,-0.000544519,0.00168208,0.000290165,-0.449258,0.00103827,0.0111629,734,666,-12.317,6.25002
-483,358,-12.3539,-6.74847,0.0017697,0.000871142,-0.000931484,0.00235459,0.000286247,-0.560694,0.00148355,0.0104036,741,666,-12.3539,6.74848
-476,358,-12.3252,-7.25433,0.00219287,0.00126693,-0.00136979,0.00317582,0.000283989,-0.622432,0.00202918,0.0123178,748,666,-12.3252,7.25435
-469,358,-12.3447,-7.7821,0.00262523,0.00169487,-0.00180552,0.00402454,0.000295563,-0.659319,0.00259013,0.0157181,755,666,-12.3447,7.78208
-462,358,-12.3935,-8.33929,0.00307382,0.00218035,-0.00224537,0.00491646,0.000337706,-0.687202,0.00317107,0.01712,762,666,-12.3935,8.33931
-455,358,-12.3468,-8.91235,0.00361961,0.0026061,-0.00266529,0.00582589,0.000399813,-0.691454,0.00375775,0.0373046,769,666,-12.3468,8.91237
-448,358,-12.1986,-9.56171,0,0,0,0,0,0,0,-1,776,666,-12.1986,9.56169
-441,358,-5.56293,-3.98041,0,0,0,0,0,0,0,-1,783,666,-5.56291,3.98043
-434,358,-5.21558,-4.43127,0,0,0,0,0,0,0,-1,790,666,-5.21559,4.43125
-427,358,-3.56189,-3.15729,0,0,0,0,0,0,0,-1,797,666,-3.56192,3.15729
-420,358,0.200195,1.08234,0,0,0,0,0,0,0,-1,804,666,0.200174,-1.08231
-413,358,0.0325317,0.161072,0,0,0,0,0,0,0,-1,811,666,0.0325501,-0.161098
-406,358,-3.85846,0.753113,0,0,0,0,0,0,0,-1,818,666,-3.85846,-0.753129
-399,358,-1.31213,0.190735,0,0,0,0,0,0,0,-1,825,666,-1.31215,-0.190763
-392,358,-3.73914,-0.832214,0,0,0,0,0,0,0,-1,832,666,-3.73915,0.832202
-385,358,-5.95178,-1.69141,0,0,0,0,0,0,0,-1,839,666,-5.9518,1.69143
-378,358,0,0,0,0,0,0,0,0,0,-1,846,666,0,0
-371,358,0,0,0,0,0,0,0,0,0,-1,853,666,0,0
-364,358,0,0,0,0,0,0,0,0,0,-1,860,666,0,0
-357,358,0,0,0,0,0,0,0,0,0,-1,867,666,0,0
-350,358,0,0,0,0,0,0,0,0,0,-1,874,666,0,0
-343,358,0,0,0,0,0,0,0,0,0,-1,881,666,0,0
-336,358,0,0,0,0,0,0,0,0,0,-1,888,666,0,0
-329,358,0,0,0,0,0,0,0,0,0,-1,895,666,0,0
-322,358,0,0,0,0,0,0,0,0,0,-1,902,666,0,0
-315,358,0,0,0,0,0,0,0,0,0,-1,909,666,0,0
-308,358,0,0,0,0,0,0,0,0,0,-1,916,666,0,0
-301,358,0,0,0,0,0,0,0,0,0,-1,923,666,0,0
-294,358,0,0,0,0,0,0,0,0,0,-1,930,666,0,0
-287,358,0,0,0,0,0,0,0,0,0,-1,937,666,0,0
-280,358,0,0,0,0,0,0,0,0,0,-1,944,666,0,0
-273,358,0,0,0,0,0,0,0,0,0,-1,951,666,0,0
-266,358,0,0,0,0,0,0,0,0,0,-1,958,666,0,0
-259,358,0,0,0,0,0,0,0,0,0,-1,965,666,0,0
-252,358,0,0,0,0,0,0,0,0,0,-1,972,666,0,0
-245,358,0,0,0,0,0,0,0,0,0,-1,979,666,0,0
-238,358,0,0,0,0,0,0,0,0,0,-1,986,666,0,0
-231,358,0,0,0,0,0,0,0,0,0,-1,993,666,0,0
-224,358,0,0,0,0,0,0,0,0,0,-1,1000,666,0,0
-217,358,0,0,0,0,0,0,0,0,0,-1,1007,666,0,0
-210,358,0,0,0,0,0,0,0,0,0,-1,1014,666,0,0
-203,358,0,0,0,0,0,0,0,0,0,-1,1021,666,0,0
-196,358,0,0,0,0,0,0,0,0,0,-1,1028,666,0,0
-189,358,0,0,0,0,0,0,0,0,0,-1,1035,666,0,0
-182,358,0,0,0,0,0,0,0,0,0,-1,1042,666,0,0
-175,358,0,0,0,0,0,0,0,0,0,-1,1049,666,0,0
-168,358,0,0,0,0,0,0,0,0,0,-1,1056,666,0,0
-161,358,0,0,0,0,0,0,0,0,0,-1,1063,666,0,0
-154,358,0,0,0,0,0,0,0,0,0,-1,1070,666,0,0
-147,358,0,0,0,0,0,0,0,0,0,-1,1077,666,0,0
-140,358,0,0,0,0,0,0,0,0,0,-1,1084,666,0,0
-133,358,0,0,0,0,0,0,0,0,0,-1,1091,666,0,0
-126,358,0,0,0,0,0,0,0,0,0,-1,1098,666,0,0
-119,358,0,0,0,0,0,0,0,0,0,-1,1105,666,0,0
-112,358,0,0,0,0,0,0,0,0,0,-1,1112,666,0,0
-105,358,0,0,0,0,0,0,0,0,0,-1,1119,666,0,0
-98,358,0,0,0,0,0,0,0,0,0,-1,1126,666,0,0
-91,358,0,0,0,0,0,0,0,0,0,-1,1133,666,0,0
-84,358,0,0,0,0,0,0,0,0,0,-1,1140,666,0,0
-77,358,0,0,0,0,0,0,0,0,0,-1,1147,666,0,0
-70,358,0,0,0,0,0,0,0,0,0,-1,1154,666,0,0
-63,358,0,0,0,0,0,0,0,0,0,-1,1161,666,0,0
-56,358,0,0,0,0,0,0,0,0,0,-1,1168,666,0,0
-49,358,0,0,0,0,0,0,0,0,0,-1,1175,666,0,0
-42,358,0,0,0,0,0,0,0,0,0,-1,1182,666,0,0
-35,358,0,0,0,0,0,0,0,0,0,-1,1189,666,0,0
-28,358,0,0,0,0,0,0,0,0,0,-1,1196,666,0,0
-21,358,0,0,0,0,0,0,0,0,0,-1,1203,666,0,0
-14,358,0,0,0,0,0,0,0,0,0,-1,1210,666,0,0
-7,358,0,0,0,0,0,0,0,0,0,-1,1217,666,0,0
0,358,0,0,0,0,0,0,0,0,0,-1,1224,666,0,0
7,358,0,0,0,0,0,0,0,0,0,-1,1231,666,0,0
14,358,0,0,0,0,0,0,0,0,0,-1,1238,666,0,0
21,358,0,0,0,0,0,0,0,0,0,-1,1245,666,0,0
28,358,0,0,0,0,0,0,0,0,0,-1,1252,666,0,0
35,358,0,0,0,0,0,0,0,0,0,-1,1259,666,0,0
42,358,0,0,0,0,0,0,0,0,0,-1,1266,666,0,0
49,358,0,0,0,0,0,0,0,0,0,-1,1273,666,0,0
56,358,0,0,0,0,0,0,0,0,0,-1,1280,666,0,0
63,358,0,0,0,0,0,0,0,0,0,-1,1287,666,0,0
70,358,0,0,0,0,0,0,0,0,0,-1,1294,666,0,0
77,358,0,0,0,0,0,0,0,0,0,-1,1301,666,0,0
84,358,0,0,0,0,0,0,0,0,0,-1,1308,666,0,0
91,358,0,0,0,0,0,0,0,0,0,-1,1315,666,0,0
98,358,0,0,0,0,0,0,0,0,0,-1,1322,666,0,0
105,358,0,0,0,0,0,0,0,0,0,-1,1329,666,0,0
112,358,0,0,0,0,0,0,0,0,0,-1,1336,666,0,0
119,358,0,0,0,0,0,0,0,0,0,-1,1343,666,0,0
126,358,0,0,0,0,0,0,0,0,0,-1,1350,666,0,0
133,358,0,0,0,0,0,0,0,0,0,-1,1357,666,0,0
140,358,0,0,0,0,0,0,0,0,0,-1,1364,666,0,0
147,358,0,0,0,0,0,0,0,0,0,-1,1371,666,0,0
154,358,0,0,0,0,0,0,0,0,0,-1,1378,666,0,0
161,358,0,0,0,0,0,0,0,0,0,-1,1385,666,0,0
168,358,0,0,0,0,0,0,0,0,0,-1,1392,666,0,0
175,358,0,0,0,0,0,0,0,0,0,-1,1399,666,0,0
182,358,0,0,0,0,0,0,0,0,0,-1,1406,666,0,0
189,358,0,0,0,0,0,0,0,0,0,-1,1413,666,0,0
196,358,0,0,0,0,0,0,0,0,0,-1,1420,666,0,0
203,358,0,0,0,0,0,0,0,0,0,-1,1427,666,0,0
210,358,0,0,0,0,0,0,0,0,0,-1,1434,666,0,0
217,358,0,0,0,0,0,0,0,0,0,-1,1441,666,0,0
224,358,0,0,0,0,0,0,0,0,0,-1,1448,666,0,0
231,358,0,0,0,0,0,0,0,0,0,-1,1455,666,0,0
238,358,0,0,0,0,0,0,0,0,0,-1,1462,666,0,0
245,358,0,0,0,0,0,0,0,0,0,-1,1469,666,0,0
252,358,0,0,0,0,0,0,0,0,0,-1,1476,666,0,0
259,358,0,0,0,0,0,0,0,0,0,-1,1483,666,0,0
266,358,0,0,0,0,0,0,0,0,0,-1,1490,666,0,0
273,358,0,0,0,0,0,0,0,0,0,-1,1497,666,0,0
280,358,0,0,0,0,0,0,0,0,0,-1,1504,666,0,0
287,358,0,0,0,0,0,0,0,0,0,-1,1511,666,0,0
294,358,0,0,0,0,0,0,0,0,0,-1,1518,666,0,0
301,358,0,0,0,0,0,0,0,0,0,-1,1525,666,0,0
308,358,0,0,0,0,0,0,0,0,0,-1,1532,666,0,0
315,358,0,0,0,0,0,0,0,0,0,-1,1539,666,0,0
322,358,0,0,0,0,0,0,0,0,0,-1,1546,666,0,0
329,358,0,0,0,0,0,0,0,0,0,-1,1553,666,0,0
336,358,0,0,0,0,0,0,0,0,0,-1,1560,666,0,0
343,358,0,0,0,0,0,0,0,0,0,-1,1567,666,0,0
350,358,0,0,0,0,0,0,0,0,0,-1,1574,666,0,0
357,358,0,0,0,0,0,0,0,0,0,-1,1581,666,0,0
364,358,0,0,0,0,0,0,0,0,0,-1,1588,666,0,0
371,358,0,0,0,0,0,0,0,0,0,-1,1595,666,0,0
378,358,0,0,0,0,0,0,0,0,0,-1,1602,666,0,0
385,358,0,0,0,0,0,0,0,0,0,-1,1609,666,0,0
392,358,0,0,0,0,0,0,0,0,0,-1,1616,666,0,0
399,358,0,0,0,0,0,0,0,0,0,-1,1623,666,0,0
406,358,0,0,0,0,0,0,0,0,0,-1,1630,666,0,0
413,358,0,0,0,0,0,0,0,0,0,-1,1637,666,0,0
420,358,0,0,0,0,0,0,0,0,0,-1,1644,666,0,0
427,358,0,0,0,0,0,0,0,0,0,-1,1651,666,0,0
434,358,0,0,0,0,0,0,0,0,0,-1,1658,666,0,0
441,358,0,0,0,0,0,0,0,0,0,-1,1665,666,0,0
448,358,0,0,0,0,0,0,0,0,0,-1,1672,666,0,0
455,358,0,0,0,0,0,0,0,0,0,-1,1679,666,0,0
462,358,0,0,0,0,0,0,0,0,0,-1,1686,666,0,0
469,358,0,0,0,0,0,0,0,0,0,-1,1693,666,0,0
476,358,0,0,0,0,0,0,0,0,0,-1,1700,666,0,0
483,358,0,0,0,0,0,0,0,0,0,-1,1707,666,0,0
490,358,0,0,0,0,0,0,0,0,0,-1,1714,666,0,0
497,358,8.57239,1.1322,0,0,0,0,0,0,0,-1,1721,666,8.57234,-1.13219
504,358,10.5972,0.832947,0,0,0,0,0,0,0,-1,1728,666,10.5972,-0.832968
511,358,10.6873,0.868469,0,0,0,0,0,0,0,-1,1735,666,10.6872,-0.868484
518,358,16.5884,2.34894,0,0,0,0,0,0,0,-1,1742,666,16.5884,-2.34894
525,358,15.7626,3.65344,0,0,0,0,0,0,0,-1,1749,666,15.7626,-3.65342
532,358,14.9368,4.95789,0,0,0,0,0,0,0,-1,1756,666,14.9367,-4.9579
539,358,15.1597,3.42694,0,0,0,0,0,0,0,-1,1763,666,15.1597,-3.42692
546,358,12.3792,1.53558,0,0,0,0,0,0,0,-1,1770,666,12.3792,-1.5356
553,358,11.6584,1.26172,0,0,0,0,0,0,0,-1,1777,666,11.6585,-1.26175
560,358,10.8234,1.43042,0,0,0,0,0,0,0,-1,1784,666,10.8233,-1.43041
567,358,10.1333,-0.955139,0,0,0,0,0,0,0,-1,1791,666,10.1333,0.955132
574,358,14.7886,-2.69293,0,0,0,0,0,0,0,-1,1798,666,14.7885,2.6929
581,358,20.1738,-6.76135,0,0,0,0,0,0,0,-1,1805,666,20.1738,6.76137
588,358,22.0487,-6.927,0,0,0,0,0,0,0,-1,1812,666,22.0487,6.92697
595,358,22.2216,-6.11743,0.00172188,-0.000333545,-0.000360658,0.00178332,-0.000394991,-0.168753,0.00134009,0.0156329,1819,666,22.2216,6.11741
602,358,22.1826,-5.5368,0.00145908,3.42491e-05,-0.000155893,0.00147594,1.7392e-05,-0.107714,0.000978215,0.0136801,1826,666,22.1826,5.5368
609,358,22.1342,-5.02673,0.00147906,0.000434563,0.000187867,0.00151182,0.000401801,0.172657,0.000904213,0.0172488,1833,666,22.1342,5.02673
616,358,22.1288,-4.48804,0.00142429,0.000759818,0.000442719,0.00164557,0.000538538,0.463504,0.000968787,0.016859,1840,666,22.1288,4.48805
623,358,22.177,-3.93286,0.00119946,0.00105824,0.000635012,0.00176777,0.000489923,0.730027,0.00105388,0.0147811,1847,666,22.177,3.93284
630,358,22.1542,-3.37787,0.00067045,0.00120995,0.000709891,0.00169961,0.000180784,0.966965,0.00107788,0.0175731,1854,666,22.1542,3.37786
637,358,22.0775,-2.86627,-0.000276124,0.00121058,0.000536306,0.00138385,-0.000449395,1.2583,0.00110331,0.0261665,1861,666,22.0775,2.86626
644,358,22.1113,-2.36572,-0.00171035,0.00107335,0.000152804,0.00108171,-0.00171871,1.51612,0.00163071,0.0218284,1868,666,22.1113,2.3657
651,358,22.2308,-1.68842,-0.00389953,0.000717628,-0.000546608,0.000781456,-0.00396336,-1.45455,0.00293758,0.032954,1875,666,22.2309,1.68841
658,358,22.251,-0.868713,0,0,0,0,0,0,0,-1,1882,666,22.251,0.868704
665,358,21.2505,-0.534729,0,0,0,0,0,0,0,-1,1889,666,21.2504,0.53474
672,358,12.4299,1.47272,0,0,0,0,0,0,0,-1,1896,666,12.4299,-1.4727
679,358,12.1294,2.19702,0,0,0,0,0,0,0,-1,1903,666,12.1294,-2.19703
686,358,11.9557,2.2002,0,0,0,0,0,0,0,-1,1910,666,11.9557,-2.20021
693,358,13.188,2.52203,0,0,0,0,0,0,0,-1,1917,666,13.188,-2.52202
700,358,0,0,0,0,0,0,0,0,0,-1,1924,666,0,0
707,358,0,0,0,0,0,0,0,0,0,-1,1931,666,0,0
714,358,0,0,0,0,0,0,0,0,0,-1,1938,666,0,0
721,358,0,0,0,0,0,0,0,0,0,-1,1945,666,0,0
728,358,0,0,0,0,0,0,0,0,0,-1,1952,666,0,0
735,358,0,0,0,0,0,0,0,0,0,-1,1959,666,0,0
742,358,0,0,0,0,0,0,0,0,0,-1,1966,666,0,0
749,358,0,0,0,0,0,0,0,0,0,-1,1973,666,0,0
756,358,0,0,0,0,0,0,0,0,0,-1,1980,666,0,0
763,358,0,0,0,0,0,0,0,0,0,-1,1987,666,0,0
770,358,0,0,0,0,0,0,0,0,0,-1,1994,666,0,0
777,358,0,0,0,0,0,0,0,0,0,-1,2001,666,0,0
784,358,0,0,0,0,0,0,0,0,0,-1,2008,666,0,0
791,358,0,0,0,0,0,0,0,0,0,-1,2015,666,0,0
798,358,0,0,0,0,0,0,0,0,0,-1,2022,666,0,0
805,358,0,0,0,0,0,0,0,0,0,-1,2029,666,0,0
812,358,0,0,0,0,0,0,0,0,0,-1,2036,666,0,0
-700,351,0,0,0,0,0,0,0,0,0,-1,524,673,0,0
-693,351,0,0,0,0,0,0,0,0,0,-1,531,673,0,0
-686,351,0,0,0,0,0,0,0,0,0,-1,538,673,0,0
-679,351,0,0,0,0,0,0,0,0,0,-1,545,673,0,0
-672,351,0,0,0,0,0,0,0,0,0,-1,552,673,0,0
-665,351,0,0,0,0,0,0,0,0,0,-1,559,673,0,0
-658,351,0,0,0,0,0,0,0,0,0,-1,566,673,0,0
-651,351,0,0,0,0,0,0,0,0,0,-1,573,673,0,0
-644,351,0,0,0,0,0,0,0,0,0,-1,580,673,0,0
-637,351,0,0,0,0,0,0,0,0,0,-1,587,673,0,0
-630,351,0,0,0,0,0,0,0,0,0,-1,594,673,0,0
-623,351,0,0,0,0,0,0,0,0,0,-1,601,673,0,0
-616,351,0,0,0,0,0,0,0,0,0,-1,608,673,0,0
-609,351,0,0,0,0,0,0,0,0,0,-1,615,673,0,0
-602,351,0,0,0,0,0,0,0,0,0,-1,622,673,0,0
-595,351,0,0,0,0,0,0,0,0,0,-1,629,673,0,0
-588,351,0,0,0,0,0,0,0,0,0,-1,636,673,0,0
-581,351,-9.0647,1.71906,0,0,0,0,0,0,0,-1,643,673,-9.06472,-1.71908
-574,351,-8.23584,2.64764,0,0,0,0,0,0,0,-1,650,673,-8.23584,-2.64764
-567,351,-10.8027,4.56836,0,0,0,0,0,0,0,-1,657,673,-10.8027,-4.56839
-560,351,-14.2001,2.17084,0,0,0,0,0,0,0,-1,664,673,-14.2002,-2.17086
-553,351,-13.4979,0.779541,0,0,0,0,0,0,0,-1,671,673,-13.4978,-0.779519
-546,351,-13.4453,-0.385925,0,0,0,0,0,0,0,-1,678,673,-13.4452,0.38592
-539,351,-12.8123,-1.46393,0,0,0,0,0,0,0,-1,685,673,-12.8123,1.46395
-532,351,-12.5947,-3.0531,0,0,0,0,0,0,0,-1,692,673,-12.5947,3.05307
-525,351,-12.7336,-3.73584,0.0018375,0.00380762,-0.00209337,0.00513612,0.000508999,-1.00531,0.00326765,0.0458315,699,673,-12.7336,3.73586
-518,351,-12.8268,-4.05811,0.00143811,0.00224607,-0.00113832,0.00304997,0.000634208,-0.95591,0.00185834,0.0178694,706,673,-12.8268,4.05808
-511,351,-12.8057,-4.61902,0.00129386,0.00143385,-0.000667336,0.00203485,0.000692859,-0.837653,0.00119458,0.0119831,713,673,-12.8056,4.61899
-504,351,-12.8308,-5.17023,0.00129495,0.000958799,-0.000477968,0.00163353,0.000620215,-0.61633,0.000952179,0.0112284,720,673,-12.8308,5.17025
-497,351,-12.8453,-5.69141,0.00148518,0.000824803,-0.000547429,0.00179429,0.000515691,-0.514029,0.00106669,0.010951,727,673,-12.8454,5.69138
-490,351,-12.8643,-6.19806,0.00162031,0.000677396,-0.000601669,0.00191323,0.000384473,-0.453073,0.00116861,0.010782,734,673,-12.8643,6.19808
-483,351,-12.897,-6.71106,0.00201873,0.0010215,-0.00102686,0.00266163,0.0003786,-0.559378,0.00166265,0.0122618,741,673,-12.897,6.71107
-476,351,-12.9207,-7.2312,0.00248853,0.00146969,-0.00152493,0.00358688,0.00037134,-0.624196,0.00227759,0.011013,748,673,-12.9206,7.23123
-469,351,-12.9036,-7.74304,0.00297641,0.00193117,-0.00201783,0.0045382,0.000369378,-0.658682,0.00291017,0.013402,755,673,-12.9037,7.74302
-462,351,-12.8982,-8.32941,0.00354562,0.00260044,-0.00260577,0.00572131,0.000424752,-0.695692,0.0036808,0.0285215,762,673,-12.8982,8.32939
-455,351,-12.707,-8.99908,0,0,0,0,0,0,0,-1,769,673,-12.707,8.9991
-448,351,-6.61456,-4.38654,0,0,0,0,0,0,0,-1,776,673,-6.61456,4.38654
-441,351,-4.31567,-2.3009,0,0,0,0,0,0,0,-1,783,673,-4.31565,2.30089
-434,351,-3.81708,-2.28003,0,0,0,0,0,0,0,-1,790,673,-3.81706,2.28006
-427,351,-2.05157,-2.7785,0,0,0,0,0,0,0,-1,797,673,-2.05157,2.77848
-420,351,-1.06989,-2.43665,0,0,0,0,0,0,0,-1,804,673,-1.06991,2.43663
-413,351,-0.392334,-2.06671,0,0,0,0,0,0,0,-1,811,673,-0.392363,2.06672
-406,351,-1.86316,-2.58105,0,0,0,0,0,0,0,-1,818,673,-1.86313,2.58106
-399,351,1.00952,-1.53455,0,0,0,0,0,0,0,-1,825,673,1.00954,1.53457
-392,351,-1.02197,0.877136,0,0,0,0,0,0,0,-1,832,673,-1.02195,-0.877143
-385,351,-1.47205,1.04437,0,0,0,0,0,0,0,-1,839,673,-1.47207,-1.04435
-378,351,0,0,0,0,0,0,0,0,0,-1,846,673,0,0
-371,351,0,0,0,0,0,0,0,0,0,-1,853,673,0,0
-364,351,0,0,0,0,0,0,0,0,0,-1,860,673,0,0
-357,351,0,0,0,0,0,0,0,0,0,-1,867,673,0,0
-350,351,0,0,0,0,0,0,0,0,0,-1,874,673,0,0
-343,351,0,0,0,0,0,0,0,0,0,-1,881,673,0,0
-336,351,0,0,0,0,0,0,0,0,0,-1,888,673,0,0
-329,351,0,0,0,0,0,0,0,0,0,-1,895,673,0,0
-322,351,0,0,0,0,0,0,0,0,0,-1,902,673,0,0
-315,351,0,0,0,0,0,0,0,0,0,-1,909,673,0,0
-308,351,0,0,0,0,0,0,0,0,0,-1,916,673,0,0
-301,351,0,0,0,0,0,0,0,0,0,-1,923,673,0,0
-294,351,0,0,0,0,0,0,0,0,0,-1,930,673,0,0
-287,351,0,0,0,0,0,0,0,0,0,-1,937,673,0,0
-280,351,0,0,0,0,0,0,0,0,0,-1,944,673,0,0
-273,351,0,0,0,0,0,0,0,0,0,-1,951,673,0,0
-266,351,0,0,0,0,0,0,0,0,0,-1,958,673,0,0
-259,351,0,0,0,0,0,0,0,0,0,-1,965,673,0,0
-252,351,0,0,0,0,0,0,0,0,0,-1,972,673,0,0
-245,351,0,0,0,0,0,0,0,0,0,-1,979,673,0,0
-238,351,0,0,0,0,0,0,0,0,0,-1,986,673,0,0
-231,351,0,0,0,0,0,0,0,0,0,-1,993,673,0,0
-224,351,0,0,0,0,0,0,0,0,0,-1,1000,673,0,0
-217,351,0,0,0,0,0,0,0,0,0,-1,1007,673,0,0
-210,351,0,0,0,0,0,0,0,0,0,-1,1014,673,0,0
-203,351,0,0,0,0,0,0,0,0,0,-1,1021,673,0,0
-196,351,0,0,0,0,0,0,0,0,0,-1,1028,673,0,0
-189,351,0,0,0,0,0,0,0,0,0,-1,1035,673,0,0
-182,351,0,0,0,0,0,0,0,0,0,-1,1042,673,0,0
-175,351,0,0,0,0,0,0,0,0,0,-1,1049,673,0,0
-168,351,0,0,0,0,0,0,0,0,0,-1,1056,673,0,0
-161,351,0,0,0,0,0,0,0,0,0,-1,1063,673,0,0
-154,351,0,0,0,0,0,0,0,0,0,-1,1070,673,0,0
-147,351,0,0,0,0,0,0,0,0,0,-1,1077,673,0,0
-140,351,0,0,0,0,0,0,0,0,0,-1,1084,673,0,0
-133,351,0,0,0,0,0,0,0,0,0,-1,1091,673,0,0
-126,351,0,0,0,0,0,0,0,0,0,-1,1098,673,0,0
-119,351,0,0,0,0,0,0,0,0,0,-1,1105,673,0,0
-112,351,0,0,0,0,0,0,0,0,0,-1,1112,673,0,0
-105,351,0,0,0,0,0,0,0,0,0,-1,1119,673,0,0
-98,351,0,0,0,0,0,0,0,0,0,-1,1126,673,0,0
-91,351,0,0,0,0,0,0,0,0,0,-1,1133,673,0,0
-84,351,0,0,0,0,0,0,0,0,0,-1,1140,673,0,0
-77,351,0,0,0,0,0,0,0,0,0,-1,1147,673,0,0
-70,351,0,0,0,0,0,0,0,0,0,-1,1154,673,0,0
-63,351,0,0,0,0,0,0,0,0,0,-1,1161,673,0,0
-56,351,0,0,0,0,0,0,0,0,0,-1,1168,673,0,0
-49,351,0,0,0,0,0,0,0,0,0,-1,1175,673,0,0
-42,351,0,0,0,0,0,0,0,0,0,-1,1182,673,0,0
-35,351,0,0,0,0,0,0,0,0,0,-1,1189,673,0,0
-28,351,0,0,0,0,0,0,0,0,0,-1,1196,673,0,0
-21,351,0,0,0,0,0,0,0,0,0,-1,1203,673,0,0
-14,351,0,0,0,0,0,0,0,0,0,-1,1210,673,0,0
-7,351,0,0,0,0,0,0,0,0,0,-1,1217,673,0,0
0,351,0,0,0,0,0,0,0,0,0,-1,1224,673,0,0
7,351,0,0,0,0,0,0,0,0,0,-1,1231,673,0,0
14,351,0,0,0,0,0,0,0,0,0,-1,1238,673,0,0
21,351,0,0,0,0,0,0,0,0,0,-1,1245,673,0,0
28,351,0,0,0,0,0,0,0,0,0,-1,1252,673,0,0
35,351,0,0,0,0,0,0,0,0,0,-1,1259,673,0,0
42,351,0,0,0,0,0,0,0,0,0,-1,1266,673,0,0
49,351,0,0,0,0,0,0,0,0,0,-1,1273,673,0,0
56,351,0,0,0,0,0,0,0,0,0,-1,1280,673,0,0
63,351,0,0,0,0,0,0,0,0,0,-1,1287,673,0,0
70,351,0,0,0,0,0,0,0,0,0,-1,1294,673,0,0
77,351,0,0,0,0,0,0,0,0,0,-1,1301,673,0,0
84,351,0,0,0,0,0,0,0,0,0,-1,1308,673,0,0
91,351,0,0,0,0,0,0,0,0,0,-1,1315,673,0,0
98,351,0,0,0,0,0,0,0,0,0,-1,1322,673,0,0
105,351,0,0,0,0,0,0,0,0,0,-1,1329,673,0,0
112,351,0,0,0,0,0,0,0,0,0,-1,1336,673,0,0
119,351,0,0,0,0,0,0,0,0,0,-1,1343,673,0,0
126,351,0,0,0,0,0,0,0,0,0,-1,1350,673,0,0
133,351,0,0,0,0,0,0,0,0,0,-1,1357,673,0,0
140,351,0,0,0,0,0,0,0,0,0,-1,1364,673,0,0
147,351,0,0,0,0,0,0,0,0,0,-1,1371,673,0,0
154,351,0,0,0,0,0,0,0,0,0,-1,1378,673,0,0
161,351,0,0,0,0,0,0,0,0,0,-1,1385,673,0,0
168,351,0,0,0,0,0,0,0,0,0,-1,1392,673,0,0
175,351,0,0,0,0,0,0,0,0,0,-1,1399,673,0,0
182,351,0,0,0,0,0,0,0,0,0,-1,1406,673,0,0
189,351,0,0,0,0,0,0,0,0,0,-1,1413,673,0,0
196,351,0,0,0,0,0,0,0,0,0,-1,1420,673,0,0
203,351,0,0,0,0,0,0,0,0,0,-1,1427,673,0,0
210,351,0,0,0,0,0,0,0,0,0,-1,1434,673,0,0
217,351,0,0,0,0,0,0,0,0,0,-1,1441,673,0,0
224,351,0,0,0,0,0,0,0,0,0,-1,1448,673,0,0
231,351,0,0,0,0,0,0,0,0,0,-1,1455,673,0,0
238,351,0,0,0,0,0,0,0,0,0,-1,1462,673,0,0
245,351,0,0,0,0,0,0,0,0,0,-1,1469,673,0,0
252,351,0,0,0,0,0,0,0,0,0,-1,1476,673,0,0
259,351,0,0,0,0,0,0,0,0,0,-1,1483,673,0,0
266,351,0,0,0,0,0,0,0,0,0,-1,1490,673,0,0
273,351,0,0,0,0,0,0,0,0,0,-1,1497,673,0,0
280,351,0,0,0,0,0,0,0,0,0,-1,1504,673,0,0
287,351,0,0,0,0,0,0,0,0,0,-1,1511,673,0,0
294,351,0,0,0,0,0,0,0,0,0,-1,1518,673,0,0
301,351,0,0,0,0,0,0,0,0,0,-1,1525,673,0,0
308,351,0,0,0,0,0,0,0,0,0,-1,1532,673,0,0
315,351,0,0,0,0,0,0,0,0,0,-1,1539,673,0,0
322,351,0,0,0,0,0,0,0,0,0,-1,1546,673,0,0
329,351,0,0,0,0,0,0,0,0,0,-1,1553,673,0,0
336,351,0,0,0,0,0,0,0,0,0,-1,1560,673,0,0
343,351,0,0,0,0,0,0,0,0,0,-1,1567,673,0,0
350,351,0,0,0,0,0,0,0,0,0,-1,1574,673,0,0
357,351,0,0,0,0,0,0,0,0,0,-1,1581,673,0,0
364,351,0,0,0,0,0,0,0,0,0,-1,1588,673,0,0
371,351,0,0,0,0,0,0,0,0,0,-1,1595,673,0,0
378,351,0,0,0,0,0,0,0,0,0,-1,1602,673,0,0
385,351,0,0,0,0,0,0,0,0,0,-1,1609,673,0,0
392,351,0,0,0,0,0,0,0,0,0,-1,1616,673,0,0
399,351,0,0,0,0,0,0,0,0,0,-1,1623,673,0,0
406,351,0,0,0,0,0,0,0,0,0,-1,1630,673,0,0
413,351,0,0,0,0,0,0,0,0,0,-1,1637,673,0,0
420,351,0,0,0,0,0,0,0,0,0,-1,1644,673,0,0
427,351,0,0,0,0,0,0,0,0,0,-1,1651,673,0,0
434,351,0,0,0,0,0,0,0,0,0,-1,1658,673,0,0
441,351,0,0,0,0,0,0,0,0,0,-1,1665,673,0,0
448,351,0,0,0,0,0,0,0,0,0,-1,1672,673,0,0
455,351,0,0,0,0,0,0,0,0,0,-1,1679,673,0,0
462,351,0,0,0,0,0,0,0,0,0,-1,1686,673,0,0
469,351,0,0,0,0,0,0,0,0,0,-1,1693,673,0,0
476,351,0,0,0,0,0,0,0,0,0,-1,1700,673,0,0
483,351,0,0,0,0,0,0,0,0,0,-1,1707,673,0,0
490,351,0,0,0,0,0,0,0,0,0,-1,1714,673,0,0
497,351,0,0,0,0,0,0,0,0,0,-1,1721,673,0,0
504,351,10.8842,1.61615,0,0,0,0,0,0,0,-1,1728,673,10.8842,-1.61618
511,351,15.4548,0.0236816,0,0,0,0,0,0,0,-1,1735,673,15.4549,-0.0236664
518,351,16.7448,2.49268,0,0,0,0,0,0,0,-1,1742,673,16.7448,-2.49269
525,351,16.0701,3.43225,0,0,0,0,0,0,0,-1,1749,673,16.07,-3.43227
532,351,32.3822,3.03021,0,0,0,0,0,0,0,-1,1756,673,32.3822,-3.03019
539,351,15.3387,3.54486,0,0,0,0,0,0,0,-1,1763,673,15.3387,-3.54485
546,351,13.9387,4.59357,0,0,0,0,0,0,0,-1,1770,673,13.9388,-4.59359
553,351,12.0682,2.02832,0,0,0,0,0,0,0,-1,1777,673,12.0683,-2.02831
560,351,12.0173,0.55304,0,0,0,0,0,0,0,-1,1784,673,12.0174,-0.553028
567,351,10.7827,0.130188,0,0,0,0,0,0,0,-1,1791,673,10.7827,-0.130183
574,351,13.405,-1.09204,0,0,0,0,0,0,0,-1,1798,673,13.405,1.09207
581,351,15.2351,-3.06049,0,0,0,0,0,0,0,-1,1805,673,15.2351,3.06046
588,351,22.6545,-6.75037,0,0,0,0,0,0,0,-1,1812,673,22.6546,6.75039
595,351,22.75,-6.13837,0.00158722,-0.000480039,-0.000414565,0.00166726,-0.000560077,-0.190717,0.00133786,0.0373638,1819,673,22.7501,6.13838
602,351,22.7173,-5.54297,0.00122346,-0.000206123,-0.000367203,0.00131227,-0.000294926,-0.237282,0.000987937,0.0194338,1826,673,22.7173,5.54295
609,351,22.7389,-5.01715,0.00128099,9.50426e-05,-8.93175e-05,0.00128768,8.83536e-05,-0.0747512,0.000830569,0.017983,1833,673,22.7389,5.01715
616,351,22.7155,-4.47766,0.00129387,0.000362449,0.000176932,0.00132634,0.000329971,0.181539,0.000797333,0.0162786,1840,673,22.7155,4.47763
623,351,22.7415,-3.93817,0.00101733,0.000563773,0.000298985,0.00116581,0.00041529,0.460942,0.000682292,0.0158679,1847,673,22.7415,3.93815
630,351,22.7198,-3.38074,0.000456047,0.000636538,0.000332353,0.00089068,0.000201905,0.917969,0.000539236,0.0243749,1854,673,22.7199,3.38075
637,351,22.6606,-2.82416,-0.000504759,0.000574157,0.000127259,0.000588964,-0.000519566,1.45496,0.000640428,0.030393,1861,673,22.6607,2.82419
644,351,22.6366,-2.31299,-0.00189797,0.000363317,-0.000276263,0.000396579,-0.00193123,-1.45097,0.00143803,0.0221652,1868,673,22.6366,2.313
651,351,22.6573,-1.71661,-0.00391827,1.08828e-05,-0.000932282,0.000220866,-0.00412825,-1.34926,0.00282867,0.0160035,1875,673,22.6573,1.71662
658,351,22.6106,-1.10693,-0.0067313,-0.00064037,-0.00201738,-3.28002e-05,-0.00733887,-1.27827,0.00488168,0.033341,1882,673,22.6106,1.10695
665,351,22.1388,-0.78186,-0.0105177,-0.00162293,-0.00354697,-0.000381702,-0.0117589,-1.23418,0.00771517,0.0435538,1889,673,22.1388,0.78188
672,351,21.8381,-0.210083,0,0,0,0,0,0,0,-1,1896,673,21.8381,0.210055
679,351,14.1252,1.85681,0,0,0,0,0,0,0,-1,1903,673,14.1253,-1.85682
686,351,13.0294,2.1189,0,0,0,0,0,0,0,-1,1910,673,13.0294,-2.11892
693,351,13.5187,2.34595,0,0,0,0,0,0,0,-1,1917,673,13.5187,-2.34596
700,351,14.5629,-2.40173,0,0,0,0,0,0,0,-1,1924,673,14.5629,2.40172
707,351,0,0,0,0,0,0,0,0,0,-1,1931,673,0,0
714,351,0,0,0,0,0,0,0,0,0,-1,1938,673,0,0
721,351,0,0,0,0,0,0,0,0,0,-1,1945,673,0,0
728,351,0,0,0,0,0,0,0,0,0,-1,1952,673,0,0
735,351,0,0,0,0,0,0,0,0,0,-1,1959,673,0,0
742,351,0,0,0,0,0,0,0,0,0,-1,1966,673,0,0
749,351,0,0,0,0,0,0,0,0,0,-1,1973,673,0,0
756,351,0,0,0,0,0,0,0,0,0,-1,1980,673,0,0
763,351,0,0,0,0,0,0,0,0,0,-1,1987,673,0,0
770,351,0,0,0,0,0,0,0,0,0,-1,1994,673,0,0
777,351,0,0,0,0,0,0,0,0,0,-1,2001,673,0,0
784,351,0,0,0,0,0,0,0,0,0,-1,2008,673,0,0
791,351,0,0,0,0,0,0,0,0,0,-1,2015,673,0,0
798,351,0,0,0,0,0,0,0,0,0,-1,2022,673,0,0
805,351,0,0,0,0,0,0,0,0,0,-1,2029,673,0,0
812,351,0,0,0,0,0,0,0,0,0,-1,2036,673,0,0
-700,344,0,0,0,0,0,0,0,0,0,-1,524,680,0,0
-693,344,0,0,0,0,0,0,0,0,0,-1,531,680,0,0
-686,344,0,0,0,0,0,0,0,0,0,-1,538,680,0,0
-679,344,0,0,0,0,0,0,0,0,0,-1,545,680,0,0
-672,344,0,0,0,0,0,0,0,0,0,-1,552,680,0,0
-665,344,0,0,0,0,0,0,0,0,0,-1,559,680,0,0
-658,344,0,0,0,0,0,0,0,0,0,-1,566,680,0,0
-651,344,0,0,0,0,0,0,0,0,0,-1,573,680,0,0
-644,344,0,0,0,0,0,0,0,0,0,-1,580,680,0,0
-637,344,0,0,0,0,0,0,0,0,0,-1,587,680,0,0
-630,344,0,0,0,0,0,0,0,0,0,-1,594,680,0,0
-623,344,0,0,0,0,0,0,0,0,0,-1,601,680,0,0
-616,344,0,0,0,0,0,0,0,0,0,-1,608,680,0,0
-609,344,0,0,0,0,0,0,0,0,0,-1,615,680,0,0
-602,344,0,0,0,0,0,0,0,0,0,-1,622,680,0,0
-595,344,0,0,0,0,0,0,0,0,0,-1,629,680,0,0
-588,344,-9.27826,1.47302,0,0,0,0,0,0,0,-1,636,680,-9.27829,-1.473
-581,344,-10.0098,1.71753,0,0,0,0,0,0,0,-1,643,680,-10.0098,-1.7175
-574,344,-10.2208,3.04871,0,0,0,0,0,0,0,-1,650,680,-10.2208,-3.04869
-567,344,-14.3779,2.29016,0,0,0,0,0,0,0,-1,657,680,-14.3779,-2.29014
-560,344,-14.1238,1.8374,0,0,0,0,0,0,0,-1,664,680,-14.1238,-1.83743
-553,344,-14.1902,0.622253,0,0,0,0,0,0,0,-1,671,680,-14.1902,-0.622264
-546,344,-13.848,-0.708557,0,0,0,0,0,0,0,-1,678,680,-13.848,0.708555
-539,344,-13.4059,-2.11615,0,0,0,0,0,0,0,-1,685,680,-13.4059,2.11613
-532,344,-13.2974,-2.93463,0,0,0,0,0,0,0,-1,692,680,-13.2973,2.93464
-525,344,-13.3923,-3.49847,0.00168303,0.00382807,-0.00182007,0.00486812,0.000642981,-1.05165,0.00305374,0.0355912,699,680,-13.3923,3.49847
-518,344,-13.367,-4.09644,0.0013783,0.00244159,-0.00103941,0.00307743,0.000742457,-1.0218,0.00185436,0.0207809,706,680,-13.367,4.09643
-511,344,-13.3746,-4.64575,0.00127336,0.00160079,-0.000624227,0.00208241,0.000791737,-0.913645,0.00121373,0.0175201,713,680,-13.3746,4.64573
-504,344,-13.3721,-5.18457,0.00131575,0.00104173,-0.000447805,0.00164703,0.000710443,-0.636941,0.000953899,0.0178331,720,680,-13.3721,5.18455
-497,344,-13.3818,-5.69379,0.00154054,0.000815221,-0.000511221,0.00180467,0.000551087,-0.476896,0.00106792,0.0162406,727,680,-13.3818,5.69382
-490,344,-13.4048,-6.19281,0.00175825,0.000652383,-0.000633289,0.00204603,0.000364608,-0.426518,0.00126019,0.0147482,734,680,-13.4049,6.19281
-483,344,-13.4131,-6.69647,0.00220594,0.000914193,-0.0010653,0.00280587,0.000314266,-0.512884,0.00177512,0.013929,741,680,-13.4131,6.69648
-476,344,-13.4224,-7.2243,0.00272228,0.00131299,-0.00159952,0.00376549,0.000269783,-0.57792,0.00242541,0.0133837,748,680,-13.4224,7.2243
-469,344,-13.4136,-7.77167,0.00329166,0.00170626,-0.00214114,0.00478213,0.000215795,-0.60811,0.00311864,0.0171957,755,680,-13.4136,7.77167
-462,344,-13.37,-8.34888,0,0,0,0,0,0,0,-1,762,680,-13.37,8.34887
-455,344,-12.1653,-7.99176,0,0,0,0,0,0,0,-1,769,680,-12.1653,7.99174
-448,344,-5.67657,-2.72864,0,0,0,0,0,0,0,-1,776,680,-5.6766,2.72863
-441,344,-5.09229,-2.34167,0,0,0,0,0,0,0,-1,783,680,-5.09229,2.34168
-434,344,-4.28778,-2.08807,0,0,0,0,0,0,0,-1,790,680,-4.28778,2.08809
-427,344,-3.06506,-1.45404,0,0,0,0,0,0,0,-1,797,680,-3.06505,1.45402
-420,344,-1.96582,-1.57574,0,0,0,0,0,0,0,-1,804,680,-1.96579,1.57574
-413,344,-0.817993,-1.4751,0,0,0,0,0,0,0,-1,811,680,-0.818017,1.47511
-406,344,-0.00714111,-1.25189,0,0,0,0,0,0,0,-1,818,680,-0.00714956,1.25191
-399,344,0.240051,-1.75769,0,0,0,0,0,0,0,-1,825,680,0.240079,1.75767
-392,344,1.11353,-2.05615,0,0,0,0,0,0,0,-1,832,680,1.11351,2.05616
-385,344,0,0,0,0,0,0,0,0,0,-1,839,680,0,0
-378,344,0,0,0,0,0,0,0,0,0,-1,846,680,0,0
-371,344,0,0,0,0,0,0,0,0,0,-1,853,680,0,0
-364,344,0,0,0,0,0,0,0,0,0,-1,860,680,0,0
-357,344,0,0,0,0,0,0,0,0,0,-1,867,680,0,0
-350,344,0,0,0,0,0,0,0,0,0,-1,874,680,0,0
-343,344,0,0,0,0,0,0,0,0,0,-1,881,680,0,0
-336,344,0,0,0,0,0,0,0,0,0,-1,888,680,0,0
-329,344,0,0,0,0,0,0,0,0,0,-1,895,680,0,0
-322,344,0,0,0,0,0,0,0,0,0,-1,902,680,0,0
-315,344,0,0,0,0,0,0,0,0,0,-1,909,680,0,0
-308,344,0,0,0,0,0,0,0,0,0,-1,916,680,0,0
-301,344,0,0,0,0,0,0,0,0,0,-1,923,680,0,0
-294,344,0,0,0,0,0,0,0,0,0,-1,930,680,0,0
-287,344,0,0,0,0,0,0,0,0,0,-1,937,680,0,0
-280,344,0,0,0,0,0,0,0,0,0,-1,944,680,0,0
-273,344,0,0,0,0,0,0,0,0,0,-1,951,680,0,0
-266,344,0,0,0,0,0,0,0,0,0,-1,958,680,0,0
-259,344,0,0,0,0,0,0,0,0,0,-1,965,680,0,0
-252,344,0,0,0,0,0,0,0,0,0,-1,972,680,0,0
-245,344,0,0,0,0,0,0,0,0,0,-1,979,680,0,0
-238,344,0,0,0,0,0,0,0,0,0,-1,986,680,0,0
-231,344,0,0,0,0,0,0,0,0,0,-1,993,680,0,0
-224,344,0,0,0,0,0,0,0,0,0,-1,1000,680,0,0
-217,344,0,0,0,0,0,0,0,0,0,-1,1007,680,0,0
-210,344,0,0,0,0,0,0,0,0,0,-1,1014,680,0,0
-203,344,0,0,0,0,0,0,0,0,0,-1,1021,680,0,0
-196,344,0,0,0,0,0,0,0,0,0,-1,1028,680,0,0
-189,344,0,0,0,0,0,0,0,0,0,-1,1035,680,0,0
-182,344,0,0,0,0,0,0,0,0,0,-1,1042,680,0,0
-175,344,0,0,0,0,0,0,0,0,0,-1,1049,680,0,0
-168,344,0,0,0,0,0,0,0,0,0,-1,1056,680,0,0
-161,344,0,0,0,0,0,0,0,0,0,-1,1063,680,0,0
-154,344,0,0,0,0,0,0,0,0,0,-1,1070,680,0,0
-147,344,0,0,0,0,0,0,0,0,0,-1,1077,680,0,0
-140,344,0,0,0,0,0,0,0,0,0,-1,1084,680,0,0
-133,344,0,0,0,0,0,0,0,0,0,-1,1091,680,0,0
-126,344,0,0,0,0,0,0,0,0,0,-1,1098,680,0,0
-119,344,0,0,0,0,0,0,0,0,0,-1,1105,680,0,0
-112,344,0,0,0,0,0,0,0,0,0,-1,1112,680,0,0
-105,344,0,0,0,0,0,0,0,0,0,-1,1119,680,0,0
-98,344,0,0,0,0,0,0,0,0,0,-1,1126,680,0,0
-91,344,0,0,0,0,0,0,0,0,0,-1,1133,680,0,0
-84,344,0,0,0,0,0,0,0,0,0,-1,1140,680,0,0
-77,344,0,0,0,0,0,0,0,0,0,-1,1147,680,0,0
-70,344,0,0,0,0,0,0,0,0,0,-1,1154,680,0,0
-63,344,0,0,0,0,0,0,0,0,0,-1,1161,680,0,0
-56,344,0,0,0,0,0,0,0,0,0,-1,1168,680,0,0
-49,344,0,0,0,0,0,0,0,0,0,-1,1175,680,0,0
-42,344,0,0,0,0,0,0,0,0,0,-1,1182,680,0,0
-35,344,0,0,0,0,0,0,0,0,0,-1,1189,680,0,0
-28,344,0,0,0,0,0,0,0,0,0,-1,1196,680,0,0
-21,344,0,0,0,0,0,0,0,0,0,-1,1203,680,0,0
-14,344,0,0,0,0,0,0,0,0,0,-1,1210,680,0,0
-7,344,0,0,0,0,0,0,0,0,0,-1,1217,680,0,0
0,344,0,0,0,0,0,0,0,0,0,-1,1224,680,0,0
7,344,0,0,0,0,0,0,0,0,0,-1,1231,680,0,0
14,344,0,0,0,0,0,0,0,0,0,-1,1238,680,0,0
21,344,0,0,0,0,0,0,0,0,0,-1,1245,680,0,0
28,344,0,0,0,0,0,0,0,0,0,-1,1252,680,0,0
35,344,0,0,0,0,0,0,0,0,0,-1,1259,680,0,0
42,344,0,0,0,0,0,0,0,0,0,-1,1266,680,0,0
49,344,0,0,0,0,0,0,0,0,0,-1,1273,680,0,0
56,344,0,0,0,0,0,0,0,0,0,-1,1280,680,0,0
63,344,0,0,0,0,0,0,0,0,0,-1,1287,680,0,0
70,344,0,0,0,0,0,0,0,0,0,-1,1294,680,0,0
77,344,0,0,0,0,0,0,0,0,0,-1,1301,680,0,0
84,344,0,0,0,0,0,0,0,0,0,-1,1308,680,0,0
91,344,0,0,0,0,0,0,0,0,0,-1,1315,680,0,0
98,344,0,0,0,0,0,0,0,0,0,-1,1322,680,0,0
105,344,0,0,0,0,0,0,0,0,0,-1,1329,680,0,0
112,344,0,0,0,0,0,0,0,0,0,-1,1336,680,0,0
119,344,0,0,0,0,0,0,0,0,0,-1,1343,680,0,0
126,344,0,0,0,0,0,0,0,0,0,-1,1350,680,0,0
133,344,0,0,0,0,0,0,0,0,0,-1,1357,680,0,0
140,344,0,0,0,0,0,0,0,0,0,-1,1364,680,0,0
147,344,0,0,0,0,0,0,0,0,0,-1,1371,680,0,0
154,344,0,0,0,0,0,0,0,0,0,-1,1378,680,0,0
161,344,0,0,0,0,0,0,0,0,0,-1,1385,680,0,0
168,344,0,0,0,0,0,0,0,0,0,-1,1392,680,0,0
175,344,0,0,0,0,0,0,0,0,0,-1,1399,680,0,0
182,344,0,0,0,0,0,0,0,0,0,-1,1406,680,0,0
189,344,0,0,0,0,0,0,0,0,0,-1,1413,680,0,0
196,344,0,0,0,0,0,0,0,0,0,-1,1420,680,0,0
203,344,0,0,0,0,0,0,0,0,0,-1,1427,680,0,0
210,344,0,0,0,0,0,0,0,0,0,-1,1434,680,0,0
217,344,0,0,0,0,0,0,0,0,0,-1,1441,680,0,0
224,344,0,0,0,0,0,0,0,0,0,-1,1448,680,0,0
231,344,0,0,0,0,0,0,0,0,0,-1,1455,680,0,0
238,344,0,0,0,0,0,0,0,0,0,-1,1462,680,0,0
245,344,0,0,0,0,0,0,0,0,0,-1,1469,680,0,0
252,344,0,0,0,0,0,0,0,0,0,-1,1476,680,0,0
259,344,0,0,0,0,0,0,0,0,0,-1,1483,680,0,0
266,344,0,0,0,0,0,0,0,0,0,-1,1490,680,0,0
273,344,0,0,0,0,0,0,0,0,0,-1,1497,680,0,0
280,344,0,0,0,0,0,0,0,0,0,-1,1504,680,0,0
287,344,0,0,0,0,0,0,0,0,0,-1,1511,680,0,0
294,344,0,0,0,0,0,0,0,0,0,-1,1518,680,0,0
301,344,0,0,0,0,0,0,0,0,0,-1,1525,680,0,0
308,344,0,0,0,0,0,0,0,0,0,-1,1532,680,0,0
315,344,0,0,0,0,0,0,0,0,0,-1,1539,680,0,0
322,344,0,0,0,0,0,0,0,0,0,-1,1546,680,0,0
329,344,0,0,0,0,0,0,0,0,0,-1,1553,680,0,0
336,344,0,0,0,0,0,0,0,0,0,-1,1560,680,0,0
343,344,0,0,0,0,0,0,0,0,0,-1,1567,680,0,0
350,344,0,0,0,0,0,0,0,0,0,-1,1574,680,0,0
357,344,0,0,0,0,0,0,0,0,0,-1,1581,680,0,0
364,344,0,0,0,0,0,0,0,0,0,-1,1588,680,0,0
371,344,0,0,0,0,0,0,0,0,0,-1,1595,680,0,0
378,344,0,0,0,0,0,0,0,0,0,-1,1602,680,0,0
385,344,0,0,0,0,0,0,0,0,0,-1,1609,680,0,0
392,344,0,0,0,0,0,0,0,0,0,-1,1616,680,0,0
399,344,0,0,0,0,0,0,0,0,0,-1,1623,680,0,0
406,344,0,0,0,0,0,0,0,0,0,-1,1630,680,0,0
413,344,0,0,0,0,0,0,0,0,0,-1,1637,680,0,0
420,344,0,0,0,0,0,0,0,0,0,-1,1644,680,0,0
427,344,0,0,0,0,0,0,0,0,0,-1,1651,680,0,0
434,344,0,0,0,0,0,0,0,0,0,-1,1658,680,0,0
441,344,0,0,0,0,0,0,0,0,0,-1,1665,680,0,0
448,344,0,0,0,0,0,0,0,0,0,-1,1672,680,0,0
455,344,0,0,0,0,0,0,0,0,0,-1,1679,680,0,0
462,344,0,0,0,0,0,0,0,0,0,-1,1686,680,0,0
469,344,0,0,0,0,0,0,0,0,0,-1,1693,680,0,0
476,344,0,0,0,0,0,0,0,0,0,-1,1700,680,0,0
483,344,0,0,0,0,0,0,0,0,0,-1,1707,680,0,0
490,344,0,0,0,0,0,0,0,0,0,-1,1714,680,0,0
497,344,0,0,0,0,0,0,0,0,0,-1,1721,680,0,0
504,344,0,0,0,0,0,0,0,0,0,-1,1728,680,0,0
511,344,15.4819,0.452637,0,0,0,0,0,0,0,-1,1735,680,15.4819,-0.452656
518,344,17.1357,2.31207,0,0,0,0,0,0,0,-1,1742,680,17.1358,-2.31207
525,344,31.5201,2.6217,0,0,0,0,0,0,0,-1,1749,680,31.5201,-2.62168
532,344,31.9766,2.61047,0,0,0,0,0,0,0,-1,1756,680,31.9765,-2.6105
539,344,32.4379,2.65314,0,0,0,0,0,0,0,-1,1763,680,32.4378,-2.65316
546,344,14.6722,4.30243,0,0,0,0,0,0,0,-1,1770,680,14.6722,-4.30241
553,344,14.8136,4.35681,0,0,0,0,0,0,0,-1,1777,680,14.8136,-4.35679
560,344,11.9363,2.14185,0,0,0,0,0,0,0,-1,1784,680,11.9362,-2.14182
567,344,11.397,0.925842,0,0,0,0,0,0,0,-1,1791,680,11.397,-0.92583
574,344,10.0004,0.504639,0,0,0,0,0,0,0,-1,1798,680,10.0004,-0.504645
581,344,13.6709,-0.969604,0,0,0,0,0,0,0,-1,1805,680,13.6709,0.969629
588,344,16.1447,-3.15948,0,0,0,0,0,0,0,-1,1812,680,16.1447,3.15946
595,344,23.1622,-6.20544,0,0,0,0,0,0,0,-1,1819,680,23.1622,6.20542
602,344,23.3578,-5.48248,0.000895153,-0.000312713,-0.000542145,0.0011028,-0.000520356,-0.365769,0.000957027,0.0458524,1826,680,23.3578,5.48251
609,344,23.3062,-4.96381,0.00108669,-0.000100982,-0.000273211,0.00114653,-0.000160817,-0.215601,0.000823211,0.0156956,1833,680,23.3062,4.9638
616,344,23.2644,-4.41113,0.00122939,0.000133221,5.86571e-05,0.00123252,0.000130091,0.0533081,0.000781931,0.0234127,1840,680,23.2644,4.41114
623,344,23.2816,-3.8844,0.000958464,0.000255518,0.000146239,0.000987673,0.000226308,0.197144,0.000597474,0.0195436,1847,680,23.2817,3.88442
630,344,23.2562,-3.35889,0.000427936,0.000269283,0.000164824,0.000531529,0.00016569,0.561117,0.000314047,0.0244417,1854,680,23.2562,3.35886
637,344,23.2183,-2.78766,-0.000498919,0.000172647,-4.04514e-05,0.000175075,-0.000501347,-1.51085,0.000405393,0.0253754,1861,680,23.2182,2.78768
644,344,23.2216,-2.2561,-0.00180185,-6.16338e-05,-0.000427263,3.76095e-05,-0.00190109,-1.34257,0.00128012,0.0174033,1868,680,23.2215,2.2561
651,344,23.1978,-1.70331,-0.00362376,-0.000379324,-0.00101757,-8.65925e-05,-0.00391649,-1.29068,0.00258262,0.0114712,1875,680,23.1977,1.70334
658,344,23.1847,-1.05859,-0.00609117,-0.000887826,-0.0019165,-0.00025814,-0.00672085,-1.25335,0.00439705,0.0226586,1882,680,23.1847,1.05862
665,344,23.0397,-0.536621,-0.00933054,-0.00162123,-0.00315917,-0.000492042,-0.0104597,-1.22752,0.00681506,0.0373571,1889,680,23.0397,0.536641
672,344,23.0559,-0.0367432,0,0,0,0,0,0,0,-1,1896,680,23.0559,0.0367444
679,344,23.399,0.345093,0,0,0,0,0,0,0,-1,1903,680,23.399,-0.345087
686,344,15.024,1.82709,0,0,0,0,0,0,0,-1,1910,680,15.024,-1.82706
693,344,12.4362,-1.42346,0,0,0,0,0,0,0,-1,1917,680,12.4361,1.42348
700,344,17.5396,2.61206,0,0,0,0,0,0,0,-1,1924,680,17.5396,-2.61204
707,344,18.5829,3.29352,0,0,0,0,0,0,0,-1,1931,680,18.5828,-3.2935
714,344,0,0,0,0,0,0,0,0,0,-1,1938,680,0,0
721,344,0,0,0,0,0,0,0,0,0,-1,1945,680,0,0
728,344,0,0,0,0,0,0,0,0,0,-1,1952,680,0,0
735,344,0,0,0,0,0,0,0,0,0,-1,1959,680,0,0
742,344,0,0,0,0,0,0,0,0,0,-1,1966,680,0,0
749,344,0,0,0,0,0,0,0,0,0,-1,1973,680,0,0
756,344,0,0,0,0,0,0,0,0,0,-1,1980,680,0,0
763,344,0,0,0,0,0,0,0,0,0,-1,1987,680,0,0
770,344,0,0,0,0,0,0,0,0,0,-1,1994,680,0,0
777,344,0,0,0,0,0,0,0,0,0,-1,2001,680,0,0
784,344,0,0,0,0,0,0,0,0,0,-1,2008,680,0,0
791,344,0,0,0,0,0,0,0,0,0,-1,2015,680,0,0
798,344,0,0,0,0,0,0,0,0,0,-1,2022,680,0,0
805,344,0,0,0,0,0,0,0,0,0,-1,2029,680,0,0
812,344,0,0,0,0,0,0,0,0,0,-1,2036,680,0,0
-700,337,0,0,0,0,0,0,0,0,0,-1,524,687,0,0
-693,337,0,0,0,0,0,0,0,0,0,-1,531,687,0,0
-686,337,0,0,0,0,0,0,0,0,0,-1,538,687,0,0
-679,337,0,0,0,0,0,0,0,0,0,-1,545,687,0,0
-672,337,0,0,0,0,0,0,0,0,0,-1,552,687,0,0
-665,337,0,0,0,0,0,0,0,0,0,-1,559,687,0,0
-658,337,0,0,0,0,0,0,0,0,0,-1,566,687,0,0
-651,337,0,0,0,0,0,0,0,0,0,-1,573,687,0,0
-644,337,0,0,0,0,0,0,0,0,0,-1,580,687,0,0
-637,337,0,0,0,0,0,0,0,0,0,-1,587,687,0,0
-630,337,0,0,0,0,0,0,0,0,0,-1,594,687,0,0
-623,337,0,0,0,0,0,0,0,0,0,-1,601,687,0,0
-616,337,0,0,0,0,0,0,0,0,0,-1,608,687,0,0
-609,337,0,0,0,0,0,0,0,0,0,-1,615,687,0,0
-602,337,0,0,0,0,0,0,0,0,0,-1,622,687,0,0
-595,337,0,0,0,0,0,0,0,0,0,-1,629,687,0,0
-588,337,-10.8413,1.27863,0,0,0,0,0,0,0,-1,636,687,-10.8413,-1.27861
-581,337,-11.2157,1.31567,0,0,0,0,0,0,0,-1,643,687,-11.2157,-1.3157
-574,337,-6.03339,2.0321,0,0,0,0,0,0,0,-1,650,687,-6.03337,-2.03213
-567,337,-13.8102,1.56787,0,0,0,0,0,0,0,-1,657,687,-13.8102,-1.56789
-560,337,-15.5435,2.34247,0,0,0,0,0,0,0,-1,664,687,-15.5435,-2.34247
-553,337,-14.2417,-0.00360107,0,0,0,0,0,0,0,-1,671,687,-14.2417,0.00358952
-546,337,-14.0327,-1.14728,0.00271479,0.00845269,-0.00466884,0.0110636,0.000103877,-1.0609,0.00734135,0.0456686,678,687,-14.0327,1.14731
-539,337,-13.798,-2.31488,0,0,0,0,0,0,0,-1,685,687,-13.7979,2.31489
-532,337,-13.7976,-3.03082,0.00165765,0.00441119,-0.00205415,0.00550727,0.000561566,-1.08063,0.00349938,0.025504,692,687,-13.7976,3.03082
-525,337,-13.9024,-3.56915,0.0013822,0.00298633,-0.00121163,0.00363731,0.000731212,-1.07777,0.00222162,0.0163367,699,687,-13.9024,3.56913
-518,337,-13.9031,-4.09662,0.00122671,0.0018706,-0.000611584,0.0022398,0.000857505,-1.02768,0.00130493,0.0238901,706,687,-13.9031,4.09659
-511,337,-13.8972,-4.6178,0.00122159,0.00113095,-0.000284719,0.00146457,0.000887968,-0.70647,0.000851918,0.0241065,713,687,-13.8972,4.6178
-504,337,-13.8947,-5.19177,0.001309,0.00063542,-0.00015434,0.00134268,0.00060174,-0.214854,0.000776585,0.023543,720,687,-13.8947,5.19177
-497,337,-13.8946,-5.68658,0.0015449,0.000452851,-0.000250821,0.00159975,0.000397998,-0.215305,0.000961692,0.0176429,727,687,-13.8946,5.6866
-490,337,-13.9165,-6.18268,0.00185137,0.000460308,-0.000522925,0.00202602,0.000285658,-0.322338,0.00126625,0.0150896,734,687,-13.9165,6.18265
-483,337,-13.9221,-6.70813,0.00233216,0.000793196,-0.00103832,0.00285505,0.000270313,-0.466512,0.00181996,0.0144432,741,687,-13.9221,6.70813
-476,337,-13.9229,-7.2536,0.00288191,0.00129744,-0.00171146,0.0039756,0.000203742,-0.568634,0.00258517,0.0142563,748,687,-13.9229,7.25363
-469,337,-13.8901,-7.9212,0.00355018,0.00178571,-0.00244945,0.00527143,6.44659e-05,-0.612542,0.003493,0.0473908,755,687,-13.8902,7.9212
-462,337,-13.5349,-8.48682,0,0,0,0,0,0,0,-1,762,687,-13.5349,8.48679
-455,337,-6.00574,-3.12933,0,0,0,0,0,0,0,-1,769,687,-6.00576,3.12934
-448,337,-5.30627,-2.07202,0,0,0,0,0,0,0,-1,776,687,-5.30628,2.07205
-441,337,-4.24762,-1.49597,0,0,0,0,0,0,0,-1,783,687,-4.24762,1.49598
-434,337,-6.86908,1.37531,0,0,0,0,0,0,0,-1,790,687,-6.86908,-1.3753
-427,337,-9.92004,2.487,0,0,0,0,0,0,0,-1,797,687,-9.92002,-2.48701
-420,337,-2.95996,-1.76697,0,0,0,0,0,0,0,-1,804,687,-2.95998,1.76696
-413,337,-1.29169,-1.99487,0,0,0,0,0,0,0,-1,811,687,-1.29171,1.9949
-406,337,-1.02356,-1.89563,0,0,0,0,0,0,0,-1,818,687,-1.02357,1.89564
-399,337,-0.472839,-2.21338,0,0,0,0,0,0,0,-1,825,687,-0.472837,2.2134
-392,337,0,0,0,0,0,0,0,0,0,-1,832,687,0,0
-385,337,0,0,0,0,0,0,0,0,0,-1,839,687,0,0
-378,337,0,0,0,0,0,0,0,0,0,-1,846,687,0,0
-371,337,0,0,0,0,0,0,0,0,0,-1,853,687,0,0
-364,337,0,0,0,0,0,0,0,0,0,-1,860,687,0,0
-357,337,0,0,0,0,0,0,0,0,0,-1,867,687,0,0
-350,337,0,0,0,0,0,0,0,0,0,-1,874,687,0,0
-343,337,0,0,0,0,0,0,0,0,0,-1,881,687,0,0
-336,337,0,0,0,0,0,0,0,0,0,-1,888,687,0,0
-329,337,0,0,0,0,0,0,0,0,0,-1,895,687,0,0
-322,337,0,0,0,0,0,0,0,0,0,-1,902,687,0,0
-315,337,0,0,0,0,0,0,0,0,0,-1,909,687,0,0
-308,337,0,0,0,0,0,0,0,0,0,-1,916,687,0,0
-301,337,0,0,0,0,0,0,0,0,0,-1,923,687,0,0
-294,337,0,0,0,0,0,0,0,0,0,-1,930,687,0,0
-287,337,0,0,0,0,0,0,0,0,0,-1,937,687,0,0
-280,337,0,0,0,0,0,0,0,0,0,-1,944,687,0,0
-273,337,0,0,0,0,0,0,0,0,0,-1,951,687,0,0
-266,337,0,0,0,0,0,0,0,0,0,-1,958,687,0,0
-259,337,0,0,0,0,0,0,0,0,0,-1,965,687,0,0
-252,337,0,0,0,0,0,0,0,0,0,-1,972,687,0,0
-245,337,0,0,0,0,0,0,0,0,0,-1,979,687,0,0
-238,337,0,0,0,0,0,0,0,0,0,-1,986,687,0,0
-231,337,0,0,0,0,0,0,0,0,0,-1,993,687,0,0
-224,337,0,0,0,0,0,0,0,0,0,-1,1000,687,0,0
-217,337,0,0,0,0,0,0,0,0,0,-1,1007,687,0,0
-210,337,0,0,0,0,0,0,0,0,0,-1,1014,687,0,0
-203,337,0,0,0,0,0,0,0,0,0,-1,1021,687,0,0
-196,337,0,0,0,0,0,0,0,0,0,-1,1028,687,0,0
-189,337,0,0,0,0,0,0,0,0,0,-1,1035,687,0,0
-182,337,0,0,0,0,0,0,0,0,0,-1,1042,687,0,0
-175,337,0,0,0,0,0,0,0,0,0,-1,1049,687,0,0
-168,337,0,0,0,0,0,0,0,0,0,-1,1056,687,0,0
-161,337,0,0,0,0,0,0,0,0,0,-1,1063,687,0,0
-154,337,0,0,0,0,0,0,0,0,0,-1,1070,687,0,0
-147,337,0,0,0,0,0,0,0,0,0,-1,1077,687,0,0
-140,337,0,0,0,0,0,0,0,0,0,-1,1084,687,0,0
-133,337,0,0,0,0,0,0,0,0,0,-1,1091,687,0,0
-126,337,0,0,0,0,0,0,0,0,0,-1,1098,687,0,0
-119,337,0,0,0,0,0,0,0,0,0,-1,1105,687,0,0
-112,337,0,0,0,0,0,0,0,0,0,-1,1112,687,0,0
-105,337,0,0,0,0,0,0,0,0,0,-1,1119,687,0,0
-98,337,0,0,0,0,0,0,0,0,0,-1,1126,687,0,0
-91,337,0,0,0,0,0,0,0,0,0,-1,1133,687,0,0
-84,337,0,0,0,0,0,0,0,0,0,-1,1140,687,0,0
-77,337,0,0,0,0,0,0,0,0,0,-1,1147,687,0,0
-70,337,0,0,0,0,0,0,0,0,0,-1,1154,687,0,0
-63,337,0,0,0,0,0,0,0,0,0,-1,1161,687,0,0
-56,337,0,0,0,0,0,0,0,0,0,-1,1168,687,0,0
-49,337,0,0,0,0,0,0,0,0,0,-1,1175,687,0,0
-42,337,0,0,0,0,0,0,0,0,0,-1,1182,687,0,0
-35,337,0,0,0,0,0,0,0,0,0,-1,1189,687,0,0
-28,337,0,0,0,0,0,0,0,0,0,-1,1196,687,0,0
-21,337,0,0,0,0,0,0,0,0,0,-1,1203,687,0,0
-14,337,0,0,0,0,0,0,0,0,0,-1,1210,687,0,0
-7,337,0,0,0,0,0,0,0,0,0,-1,1217,687,0,0
0,337,0,0,0,0,0,0,0,0,0,-1,1224,687,0,0
7,337,0,0,0,0,0,0,0,0,0,-1,1231,687,0,0
14,337,0,0,0,0,0,0,0,0,0,-1,1238,687,0,0
21,337,0,0,0,0,0,0,0,0,0,-1,1245,687,0,0
28,337,0,0,0,0,0,0,0,0,0,-1,1252,687,0,0
35,337,0,0,0,0,0,0,0,0,0,-1,1259,687,0,0
42,337,0,0,0,0,0,0,0,0,0,-1,1266,687,0,0
49,337,0,0,0,0,0,0,0,0,0,-1,1273,687,0,0
56,337,0,0,0,0,0,0,0,0,0,-1,1280,687,0,0
63,337,0,0,0,0,0,0,0,0,0,-1,1287,687,0,0
70,337,0,0,0,0,0,0,0,0,0,-1,1294,687,0,0
77,337,0,0,0,0,0,0,0,0,0,-1,1301,687,0,0
84,337,0,0,0,0,0,0,0,0,0,-1,1308,687,0,0
91,337,0,0,0,0,0,0,0,0,0,-1,1315,687,0,0
98,337,0,0,0,0,0,0,0,0,0,-1,1322,687,0,0
105,337,0,0,0,0,0,0,0,0,0,-1,1329,687,0,0
112,337,0,0,0,0,0,0,0,0,0,-1,1336,687,0,0
119,337,0,0,0,0,0,0,0,0,0,-1,1343,687,0,0
126,337,0,0,0,0,0,0,0,0,0,-1,1350,687,0,0
133,337,0,0,0,0,0,0,0,0,0,-1,1357,687,0,0
140,337,0,0,0,0,0,0,0,0,0,-1,1364,687,0,0
147,337,0,0,0,0,0,0,0,0,0,-1,1371,687,0,0
154,337,0,0,0,0,0,0,0,0,0,-1,1378,687,0,0
161,337,0,0,0,0,0,0,0,0,0,-1,1385,687,0,0
168,337,0,0,0,0,0,0,0,0,0,-1,1392,687,0,0
175,337,0,0,0,0,0,0,0,0,0,-1,1399,687,0,0
182,337,0,0,0,0,0,0,0,0,0,-1,1406,687,0,0
189,337,0,0,0,0,0,0,0,0,0,-1,1413,687,0,0
196,337,0,0,0,0,0,0,0,0,0,-1,1420,687,0,0
203,337,0,0,0,0,0,0,0,0,0,-1,1427,687,0,0
210,337,0,0,0,0,0,0,0,0,0,-1,1434,687,0,0
217,337,0,0,0,0,0,0,0,0,0,-1,1441,687,0,0
224,337,0,0,0,0,0,0,0,0,0,-1,1448,687,0,0
231,337,0,0,0,0,0,0,0,0,0,-1,1455,687,0,0
238,337,0,0,0,0,0,0,0,0,0,-1,1462,687,0,0
245,337,0,0,0,0,0,0,0,0,0,-1,1469,687,0,0
252,337,0,0,0,0,0,0,0,0,0,-1,1476,687,0,0
259,337,0,0,0,0,0,0,0,0,0,-1,1483,687,0,0
266,337,0,0,0,0,0,0,0,0,0,-1,1490,687,0,0
273,337,0,0,0,0,0,0,0,0,0,-1,1497,687,0,0
280,337,0,0,0,0,0,0,0,0,0,-1,1504,687,0,0
287,337,0,0,0,0,0,0,0,0,0,-1,1511,687,0,0
294,337,0,0,0,0,0,0,0,0,0,-1,1518,687,0,0
301,337,0,0,0,0,0,0,0,0,0,-1,1525,687,0,0
308,337,0,0,0,0,0,0,0,0,0,-1,1532,687,0,0
315,337,0,0,0,0,0,0,0,0,0,-1,1539,687,0,0
322,337,0,0,0,0,0,0,0,0,0,-1,1546,687,0,0
329,337,0,0,0,0,0,0,0,0,0,-1,1553,687,0,0
336,337,0,0,0,0,0,0,0,0,0,-1,1560,687,0,0
343,337,0,0,0,0,0,0,0,0,0,-1,1567,687,0,0
350,337,0,0,0,0,0,0,0,0,0,-1,1574,687,0,0
357,337,0,0,0,0,0,0,0,0,0,-1,1581,687,0,0
364,337,0,0,0,0,0,0,0,0,0,-1,1588,687,0,0
371,337,0,0,0,0,0,0,0,0,0,-1,1595,687,0,0
378,337,0,0,0,0,0,0,0,0,0,-1,1602,687,0,0
385,337,0,0,0,0,0,0,0,0,0,-1,1609,687,0,0
392,337,0,0,0,0,0,0,0,0,0,-1,1616,687,0,0
399,337,0,0,0,0,0,0,0,0,0,-1,1623,687,0,0
406,337,0,0,0,0,0,0,0,0,0,-1,1630,687,0,0
413,337,0,0,0,0,0,0,0,0,0,-1,1637,687,0,0
420,337,0,0,0,0,0,0,0,0,0,-1,1644,687,0,0
427,337,0,0,0,0,0,0,0,0,0,-1,1651,687,0,0
434,337,0,0,0,0,0,0,0,0,0,-1,1658,687,0,0
441,337,0,0,0,0,0,0,0,0,0,-1,1665,687,0,0
448,337,0,0,0,0,0,0,0,0,0,-1,1672,687,0,0
455,337,0,0,0,0,0,0,0,0,0,-1,1679,687,0,0
462,337,0,0,0,0,0,0,0,0,0,-1,1686,687,0,0
469,337,0,0,0,0,0,0,0,0,0,-1,1693,687,0,0
476,337,0,0,0,0,0,0,0,0,0,-1,1700,687,0,0
483,337,0,0,0,0,0,0,0,0,0,-1,1707,687,0,0
490,337,0,0,0,0,0,0,0,0,0,-1,1714,687,0,0
497,337,0,0,0,0,0,0,0,0,0,-1,1721,687,0,0
504,337,0,0,0,0,0,0,0,0,0,-1,1728,687,0,0
511,337,0,0,0,0,0,0,0,0,0,-1,1735,687,0,0
518,337,18.0369,1.64581,0,0,0,0,0,0,0,-1,1742,687,18.0368,-1.64581
525,337,31.0717,2.13745,0,0,0,0,0,0,0,-1,1749,687,31.0717,-2.13747
532,337,31.5126,2.13904,0,0,0,0,0,0,0,-1,1756,687,31.5125,-2.13905
539,337,31.9684,2.15594,0,0,0,0,0,0,0,-1,1763,687,31.9684,-2.15596
546,337,32.3584,1.43719,0,0,0,0,0,0,0,-1,1770,687,32.3585,-1.43722
553,337,32.1809,1.36395,0,0,0,0,0,0,0,-1,1777,687,32.181,-1.36396
560,337,18.4053,3.62793,0,0,0,0,0,0,0,-1,1784,687,18.4052,-3.6279
567,337,11.9288,1.38776,0,0,0,0,0,0,0,-1,1791,687,11.9288,-1.38777
574,337,10.704,1.19476,0,0,0,0,0,0,0,-1,1798,687,10.704,-1.19478
581,337,8.50427,0.561768,0,0,0,0,0,0,0,-1,1805,687,8.5043,-0.561754
588,337,8.5885,-0.0536499,0,0,0,0,0,0,0,-1,1812,687,8.58844,0.0536788
595,337,13.8816,-1.70703,0,0,0,0,0,0,0,-1,1819,687,13.8816,1.70702
602,337,23.7992,-5.51672,0,0,0,0,0,0,0,-1,1826,687,23.7992,5.5167
609,337,23.8351,-4.91193,0.00108471,-0.000160865,-0.000379188,0.00119106,-0.00026722,-0.273453,0.000896491,0.0266627,1833,687,23.8351,4.91193
616,337,23.814,-4.3844,0.00129919,3.19482e-05,3.63814e-05,0.00130024,3.09046e-05,0.0286776,0.000856709,0.0168012,1840,687,23.814,4.38438
623,337,23.813,-3.86658,0.00101321,7.18424e-05,9.93346e-05,0.00102358,6.14747e-05,0.103995,0.000662847,0.0145379,1847,687,23.813,3.8666
630,337,23.7692,-3.32684,0.00051541,3.69393e-05,0.000107584,0.000538487,1.38622e-05,0.211301,0.000354461,0.0185413,1854,687,23.7691,3.32685
637,337,23.7855,-2.78766,-0.000376314,-7.10313e-05,-8.73309e-05,-4.78145e-05,-0.000399531,-1.31096,0.000251933,0.0175626,1861,687,23.7855,2.78769
644,337,23.7688,-2.20776,-0.0015959,-0.000279621,-0.000436562,-0.000147992,-0.00172753,-1.27795,0.00110566,0.0118947,1868,687,23.7688,2.20778
651,337,23.7328,-1.651,-0.00324095,-0.000495051,-0.000936241,-0.000206213,-0.00352978,-1.27155,0.00228755,0.0111762,1875,687,23.7328,1.65101
658,337,23.7305,-1.09515,-0.00540304,-0.000824902,-0.00165478,-0.000289415,-0.00593853,-1.25783,0.00386616,0.0129486,1882,687,23.7305,1.09512
665,337,23.7314,-0.54834,-0.00817047,-0.00127506,-0.00262796,-0.000387699,-0.00905783,-1.24515,0.00591356,0.015128,1889,687,23.7315,0.548321
672,337,23.6934,-0.0531006,-0.0117722,-0.00181084,-0.00401025,-0.000397058,-0.013186,-1.23186,0.00866137,0.0312265,1896,687,23.6934,0.0530958
679,337,23.4417,0.592346,0,0,0,0,0,0,0,-1,1903,687,23.4417,-0.59233
686,337,18.5614,1.68597,0,0,0,0,0,0,0,-1,1910,687,18.5614,-1.68598
693,337,16.5415,2.21411,0,0,0,0,0,0,0,-1,1917,687,16.5415,-2.2141
700,337,17.2661,2.44379,0,0,0,0,0,0,0,-1,1924,687,17.2661,-2.44378
707,337,17.3544,5.61853,0,0,0,0,0,0,0,-1,1931,687,17.3543,-5.61851
714,337,0,0,0,0,0,0,0,0,0,-1,1938,687,0,0
721,337,0,0,0,0,0,0,0,0,0,-1,1945,687,0,0
728,337,0,0,0,0,0,0,0,0,0,-1,1952,687,0,0
735,337,0,0,0,0,0,0,0,0,0,-1,1959,687,0,0
742,337,0,0,0,0,0,0,0,0,0,-1,1966,687,0,0
749,337,0,0,0,0,0,0,0,0,0,-1,1973,687,0,0
756,337,0,0,0,0,0,0,0,0,0,-1,1980,687,0,0
763,337,0,0,0,0,0,0,0,0,0,-1,1987,687,0,0
770,337,0,0,0,0,0,0,0,0,0,-1,1994,687,0,0
777,337,0,0,0,0,0,0,0,0,0,-1,2001,687,0,0
784,337,0,0,0,0,0,0,0,0,0,-1,2008,687,0,0
791,337,0,0,0,0,0,0,0,0,0,-1,2015,687,0,0
798,337,0,0,0,0,0,0,0,0,0,-1,2022,687,0,0
805,337,0,0,0,0,0,0,0,0,0,-1,2029,687,0,0
812,337,0,0,0,0,0,0,0,0,0,-1,2036,687,0,0
-700,330,0,0,0,0,0,0,0,0,0,-1,524,694,0,0
-693,330,0,0,0,0,0,0,0,0,0,-1,531,694,0,0
-686,330,0,0,0,0,0,0,0,0,0,-1,538,694,0,0
-679,330,0,0,0,0,0,0,0,0,0,-1,545,694,0,0
-672,330,0,0,0,0,0,0,0,0,0,-1,552,694,0,0
-665,330,0,0,0,0,0,0,0,0,0,-1,559,694,0,0
-658,330,0,0,0,0,0,0,0,0,0,-1,566,694,0,0
-651,330,0,0,0,0,0,0,0,0,0,-1,573,694,0,0
-644,330,0,0,0,0,0,0,0,0,0,-1,580,694,0,0
-637,330,0,0,0,0,0,0,0,0,0,-1,587,694,0,0
-630,330,0,0,0,0,0,0,0,0,0,-1,594,694,0,0
-623,330,0,0,0,0,0,0,0,0,0,-1,601,694,0,0
-616,330,0,0,0,0,0,0,0,0,0,-1,608,694,0,0
-609,330,0,0,0,0,0,0,0,0,0,-1,615,694,0,0
-602,330,0,0,0,0,0,0,0,0,0,-1,622,694,0,0
-595,330,-4.67883,1.65515,0,0,0,0,0,0,0,-1,629,694,-4.67881,-1.65515
-588,330,-8.5047,2.67346,0,0,0,0,0,0,0,-1,636,694,-8.50469,-2.67348
-581,330,-12.4227,0.947083,0,0,0,0,0,0,0,-1,643,694,-12.4227,-0.947109
-574,330,-9.02118,1.87952,0,0,0,0,0,0,0,-1,650,694,-9.02115,-1.87953
-567,330,-8.35577,0.909973,0,0,0,0,0,0,0,-1,657,694,-8.35575,-0.909945
-560,330,-13.1036,-0.584656,0,0,0,0,0,0,0,-1,664,694,-13.1035,0.584658
-553,330,-14.2318,-1.06879,0,0,0,0,0,0,0,-1,671,694,-14.2318,1.06879
-546,330,-14.2065,-1.76227,0,0,0,0,0,0,0,-1,678,694,-14.2065,1.76229
-539,330,-14.3463,-2.35071,0,0,0,0,0,0,0,-1,685,694,-14.3463,2.35072
-532,330,-14.4135,-2.98834,0.00113991,0.00294022,-0.00120837,0.00354687,0.000533266,-1.10552,0.00220839,0.0147184,692,694,-14.4135,2.98833
-525,330,-14.397,-3.56702,0.00110455,0.00183876,-0.000619997,0.00219219,0.000751123,-1.0527,0.00128638,0.0117667,699,694,-14.3969,3.567
-518,330,-14.386,-4.04095,0.00114094,0.00102684,-0.000215846,0.00130715,0.000860633,-0.656196,0.000767204,0.0156283,706,694,-14.386,4.04097
-511,330,-14.3922,-4.56537,0.00122127,0.000462352,-2.00671e-05,0.0012218,0.000461822,-0.0264171,0.000712374,0.0202216,713,694,-14.3922,4.56535
-504,330,-14.4056,-5.15149,0.00121135,9.79119e-05,-6.01256e-05,0.00121459,9.46746e-05,-0.0537915,0.000780083,0.0183804,720,694,-14.4057,5.15148
-497,330,-14.4308,-5.65283,0.001184,-9.30031e-06,-0.000373121,0.00129106,-0.000116362,-0.279429,0.000902,0.0143562,727,694,-14.4308,5.65284
-490,330,-14.4248,-6.16602,0.00108695,0.000165813,-0.00108243,0.00180272,-0.000549962,-0.584254,0.00142106,0.014703,734,694,-14.4248,6.166
-483,330,-14.4391,-6.70575,0.000813396,0.00049216,-0.00211046,0.00276934,-0.00146378,-0.747418,0.00248244,0.0143293,741,694,-14.4391,6.70576
-476,330,-14.4769,-7.24469,0,0,0,0,0,0,0,-1,748,694,-14.4769,7.24471
-469,330,-14.1868,-7.94678,0,0,0,0,0,0,0,-1,755,694,-14.1868,7.94677
-462,330,-7.26733,-3.84833,0,0,0,0,0,0,0,-1,762,694,-7.26731,3.84832
-455,330,-5.04254,-1.79303,0,0,0,0,0,0,0,-1,769,694,-5.04252,1.79305
-448,330,-4.89886,-1.66156,0,0,0,0,0,0,0,-1,776,694,-4.89886,1.66157
-441,330,-5.30676,-2.34045,0,0,0,0,0,0,0,-1,783,694,-5.30679,2.34048
-434,330,-7.20428,1.00024,0,0,0,0,0,0,0,-1,790,694,-7.20431,-1.00027
-427,330,-16.0428,2.89258,0,0,0,0,0,0,0,-1,797,694,-16.0428,-2.89259
-420,330,-29.0331,0.271606,0,0,0,0,0,0,0,-1,804,694,-29.0331,-0.27158
-413,330,-29.0896,0.56366,0,0,0,0,0,0,0,-1,811,694,-29.0896,-0.563671
-406,330,-1.65375,-1.74371,0,0,0,0,0,0,0,-1,818,694,-1.65375,1.74371
-399,330,0,0,0,0,0,0,0,0,0,-1,825,694,0,0
-392,330,0,0,0,0,0,0,0,0,0,-1,832,694,0,0
-385,330,0,0,0,0,0,0,0,0,0,-1,839,694,0,0
-378,330,0,0,0,0,0,0,0,0,0,-1,846,694,0,0
-371,330,0,0,0,0,0,0,0,0,0,-1,853,694,0,0
-364,330,0,0,0,0,0,0,0,0,0,-1,860,694,0,0
-357,330,0,0,0,0,0,0,0,0,0,-1,867,694,0,0
-350,330,0,0,0,0,0,0,0,0,0,-1,874,694,0,0
-343,330,0,0,0,0,0,0,0,0,0,-1,881,694,0,0
-336,330,0,0,0,0,0,0,0,0,0,-1,888,694,0,0
-329,330,0,0,0,0,0,0,0,0,0,-1,895,694,0,0
-322,330,0,0,0,0,0,0,0,0,0,-1,902,694,0,0
-315,330,0,0,0,0,0,0,0,0,0,-1,909,694,0,0
-308,330,0,0,0,0,0,0,0,0,0,-1,916,694,0,0
-301,330,0,0,0,0,0,0,0,0,0,-1,923,694,0,0
-294,330,0,0,0,0,0,0,0,0,0,-1,930,694,0,0
-287,330,0,0,0,0,0,0,0,0,0,-1,937,694,0,0
-280,330,0,0,0,0,0,0,0,0,0,-1,944,694,0,0
-273,330,0,0,0,0,0,0,0,0,0,-1,951,694,0,0
-266,330,0,0,0,0,0,0,0,0,0,-1,958,694,0,0
-259,330,0,0,0,0,0,0,0,0,0,-1,965,694,0,0
-252,330,0,0,0,0,0,0,0,0,0,-1,972,694,0,0
-245,330,0,0,0,0,0,0,0,0,0,-1,979,694,0,0
-238,330,0,0,0,0,0,0,0,0,0,-1,986,694,0,0
-231,330,0,0,0,0,0,0,0,0,0,-1,993,694,0,0
-224,330,0,0,0,0,0,0,0,0,0,-1,1000,694,0,0
-217,330,0,0,0,0,0,0,0,0,0,-1,1007,694,0,0
-210,330,0,0,0,0,0,0,0,0,0,-1,1014,694,0,0
-203,330,0,0,0,0,0,0,0,0,0,-1,1021,694,0,0
-196,330,0,0,0,0,0,0,0,0,0,-1,1028,694,0,0
-189,330,0,0,0,0,0,0,0,0,0,-1,1035,694,0,0
-182,330,0,0,0,0,0,0,0,0,0,-1,1042,694,0,0
-175,330,0,0,0,0,0,0,0,0,0,-1,1049,694,0,0
-168,330,0,0,0,0,0,0,0,0,0,-1,1056,694,0,0
-161,330,0,0,0,0,0,0,0,0,0,-1,1063,694,0,0
-154,330,0,0,0,0,0,0,0,0,0,-1,1070,694,0,0
-147,330,0,0,0,0,0,0,0,0,0,-1,1077,694,0,0
-140,330,0,0,0,0,0,0,0,0,0,-1,1084,694,0,0
-133,330,0,0,0,0,0,0,0,0,0,-1,1091,694,0,0
-126,330,0,0,0,0,0,0,0,0,0,-1,1098,694,0,0
-119,330,0,0,0,0,0,0,0,0,0,-1,1105,694,0,0
-112,330,0,0,0,0,0,0,0,0,0,-1,1112,694,0,0
-105,330,0,0,0,0,0,0,0,0,0,-1,1119,694,0,0
-98,330,0,0,0,0,0,0,0,0,0,-1,1126,694,0,0
-91,330,0,0,0,0,0,0,0,0,0,-1,1133,694,0,0
-84,330,0,0,0,0,0,0,0,0,0,-1,1140,694,0,0
-77,330,0,0,0,0,0,0,0,0,0,-1,1147,694,0,0
-70,330,0,0,0,0,0,0,0,0,0,-1,1154,694,0,0
-63,330,0,0,0,0,0,0,0,0,0,-1,1161,694,0,0
-56,330,0,0,0,0,0,0,0,0,0,-1,1168,694,0,0
-49,330,0,0,0,0,0,0,0,0,0,-1,1175,694,0,0
-42,330,0,0,0,0,0,0,0,0,0,-1,1182,694,0,0
-35,330,0,0,0,0,0,0,0,0,0,-1,1189,694,0,0
-28,330,0,0,0,0,0,0,0,0,0,-1,1196,694,0,0
-21,330,0,0,0,0,0,0,0,0,0,-1,1203,694,0,0
-14,330,0,0,0,0,0,0,0,0,0,-1,1210,694,0,0
-7,330,0,0,0,0,0,0,0,0,0,-1,1217,694,0,0
0,330,0,0,0,0,0,0,0,0,0,-1,1224,694,0,0
7,330,0,0,0,0,0,0,0,0,0,-1,1231,694,0,0
14,330,0,0,0,0,0,0,0,0,0,-1,1238,694,0,0
21,330,0,0,0,0,0,0,0,0,0,-1,1245,694,0,0
28,330,0,0,0,0,0,0,0,0,0,-1,1252,694,0,0
35,330,0,0,0,0,0,0,0,0,0,-1,1259,694,0,0
42,330,0,0,0,0,0,0,0,0,0,-1,1266,694,0,0
49,330,0,0,0,0,0,0,0,0,0,-1,1273,694,0,0
56,330,0,0,0,0,0,0,0,0,0,-1,1280,694,0,0
63,330,0,0,0,0,0,0,0,0,0,-1,1287,694,0,0
70,330,0,0,0,0,0,0,0,0,0,-1,1294,694,0,0
77,330,0,0,0,0,0,0,0,0,0,-1,1301,694,0,0
84,330,0,0,0,0,0,0,0,0,0,-1,1308,694,0,0
91,330,0,0,0,0,0,0,0,0,0,-1,1315,694,0,0
98,330,0,0,0,0,0,0,0,0,0,-1,1322,694,0,0
105,330,0,0,0,0,0,0,0,0,0,-1,1329,694,0,0
112,330,0,0,0,0,0,0,0,0,0,-1,1336,694,0,0
119,330,0,0,0,0,0,0,0,0,0,-1,1343,694,0,0
126,330,0,0,0,0,0,0,0,0,0,-1,1350,694,0,0
133,330,0,0,0,0,0,0,0,0,0,-1,1357,694,0,0
140,330,0,0,0,0,0,0,0,0,0,-1,1364,694,0,0
147,330,0,0,0,0,0,0,0,0,0,-1,1371,694,0,0
154,330,0,0,0,0,0,0,0,0,0,-1,1378,694,0,0
161,330,0,0,0,0,0,0,0,0,0,-1,1385,694,0,0
168,330,0,0,0,0,0,0,0,0,0,-1,1392,694,0,0
175,330,0,0,0,0,0,0,0,0,0,-1,1399,694,0,0
182,330,0,0,0,0,0,0,0,0,0,-1,1406,694,0,0
189,330,0,0,0,0,0,0,0,0,0,-1,1413,694,0,0
196,330,0,0,0,0,0,0,0,0,0,-1,1420,694,0,0
203,330,0,0,0,0,0,0,0,0,0,-1,1427,694,0,0
210,330,0,0,0,0,0,0,0,0,0,-1,1434,694,0,0
217,330,0,0,0,0,0,0,0,0,0,-1,1441,694,0,0
224,330,0,0,0,0,0,0,0,0,0,-1,1448,694,0,0
231,330,0,0,0,0,0,0,0,0,0,-1,1455,694,0,0
238,330,0,0,0,0,0,0,0,0,0,-1,1462,694,0,0
245,330,0,0,0,0,0,0,0,0,0,-1,1469,694,0,0
252,330,0,0,0,0,0,0,0,0,0,-1,1476,694,0,0
259,330,0,0,0,0,0,0,0,0,0,-1,1483,694,0,0
266,330,0,0,0,0,0,0,0,0,0,-1,1490,694,0,0
273,330,0,0,0,0,0,0,0,0,0,-1,1497,694,0,0
280,330,0,0,0,0,0,0,0,0,0,-1,1504,694,0,0
287,330,0,0,0,0,0,0,0,0,0,-1,1511,694,0,0
294,330,0,0,0,0,0,0,0,0,0,-1,1518,694,0,0
301,330,0,0,0,0,0,0,0,0,0,-1,1525,694,0,0
308,330,0,0,0,0,0,0,0,0,0,-1,1532,694,0,0
315,330,0,0,0,0,0,0,0,0,0,-1,1539,694,0,0
322,330,0,0,0,0,0,0,0,0,0,-1,1546,694,0,0
329,330,0,0,0,0,0,0,0,0,0,-1,1553,694,0,0
336,330,0,0,0,0,0,0,0,0,0,-1,1560,694,0,0
343,330,0,0,0,0,0,0,0,0,0,-1,1567,694,0,0
350,330,0,0,0,0,0,0,0,0,0,-1,1574,694,0,0
357,330,0,0,0,0,0,0,0,0,0,-1,1581,694,0,0
364,330,0,0,0,0,0,0,0,0,0,-1,1588,694,0,0
371,330,0,0,0,0,0,0,0,0,0,-1,1595,694,0,0
378,330,0,0,0,0,0,0,0,0,0,-1,1602,694,0,0
385,330,0,0,0,0,0,0,0,0,0,-1,1609,694,0,0
392,330,0,0,0,0,0,0,0,0,0,-1,1616,694,0,0
399,330,0,0,0,0,0,0,0,0,0,-1,1623,694,0,0
406,330,0,0,0,0,0,0,0,0,0,-1,1630,694,0,0
413,330,0,0,0,0,0,0,0,0,0,-1,1637,694,0,0
420,330,0,0,0,0,0,0,0,0,0,-1,1644,694,0,0
427,330,0,0,0,0,0,0,0,0,0,-1,1651,694,0,0
434,330,0,0,0,0,0,0,0,0,0,-1,1658,694,0,0
441,330,0,0,0,0,0,0,0,0,0,-1,1665,694,0,0
448,330,0,0,0,0,0,0,0,0,0,-1,1672,694,0,0
455,330,0,0,0,0,0,0,0,0,0,-1,1679,694,0,0
462,330,0,0,0,0,0,0,0,0,0,-1,1686,694,0,0
469,330,0,0,0,0,0,0,0,0,0,-1,1693,694,0,0
476,330,0,0,0,0,0,0,0,0,0,-1,1700,694,0,0
483,330,0,0,0,0,0,0,0,0,0,-1,1707,694,0,0
490,330,0,0,0,0,0,0,0,0,0,-1,1714,694,0,0
497,330,0,0,0,0,0,0,0,0,0,-1,1721,694,0,0
504,330,0,0,0,0,0,0,0,0,0,-1,1728,694,0,0
511,330,0,0,0,0,0,0,0,0,0,-1,1735,694,0,0
518,330,0,0,0,0,0,0,0,0,0,-1,1742,694,0,0
525,330,30.6694,0.69519,0,0,0,0,0,0,0,-1,1749,694,30.6694,-0.695206
532,330,30.9469,1.32501,0,0,0,0,0,0,0,-1,1756,694,30.9469,-1.32501
539,330,31.5155,1.62506,0,0,0,0,0,0,0,-1,1763,694,31.5155,-1.62507
546,330,31.4187,1.85651,0,0,0,0,0,0,0,-1,1770,694,31.4187,-1.85651
553,330,31.8452,1.81476,0,0,0,0,0,0,0,-1,1777,694,31.8452,-1.81475
560,330,32.2401,2.43225,0,0,0,0,0,0,0,-1,1784,694,32.2401,-2.43227
567,330,18.0321,3.98578,0,0,0,0,0,0,0,-1,1791,694,18.0321,-3.98576
574,330,12.0454,2.1662,0,0,0,0,0,0,0,-1,1798,694,12.0455,-2.16618
581,330,11.4215,4.50836,0,0,0,0,0,0,0,-1,1805,694,11.4215,-4.50837
588,330,6.45667,-0.0630493,0,0,0,0,0,0,0,-1,1812,694,6.45661,0.0630695
595,330,8.23193,-0.258484,0,0,0,0,0,0,0,-1,1819,694,8.23188,0.258459
602,330,24.2236,-5.55878,0,0,0,0,0,0,0,-1,1826,694,24.2236,5.55879
609,330,24.3066,-4.92041,0.00124026,-0.000109253,-0.000369447,0.00133478,-0.000203774,-0.250471,0.000964976,0.0411531,1833,694,24.3066,4.9204
616,330,24.3583,-4.38593,0.00148145,8.94775e-06,9.61265e-05,0.0014877,2.69909e-06,0.0649138,0.000990902,0.0113863,1840,694,24.3583,4.38591
623,330,24.3455,-3.85065,0.00117602,-2.34651e-05,0.000124957,0.0011889,-3.63444e-05,0.102707,0.000804986,0.012488,1847,694,24.3455,3.85066
630,330,24.3499,-3.28534,0.000713453,-8.30237e-05,0.000117251,0.000730355,-9.99259e-05,0.143167,0.000523401,0.0137205,1854,694,24.3498,3.28535
637,330,24.3657,-2.73328,-0.000142041,-0.000177415,-6.53363e-05,-9.20398e-05,-0.000227416,-0.653213,0.000132091,0.0134834,1861,694,24.3657,2.7333
644,330,24.3104,-2.17719,-0.00128196,-0.000328914,-0.00037273,-0.000200456,-0.00141042,-1.2389,0.000881094,0.00862437,1868,694,24.3104,2.17716
651,330,24.2878,-1.62103,-0.00275609,-0.000439013,-0.000788118,-0.000196359,-0.00299874,-1.27212,0.00193703,0.0124187,1875,694,24.2878,1.62102
658,330,24.2703,-1.08368,-0.00463391,-0.000605852,-0.00135432,-0.000192848,-0.00504691,-1.2748,0.0033022,0.0131761,1882,694,24.2703,1.08365
665,330,24.2461,-0.538086,-0.00697496,-0.000823488,-0.00210567,-0.000171757,-0.00762669,-1.27064,0.00502819,0.011188,1889,694,24.2461,0.538061
672,330,24.2751,0.0330811,-0.00992437,-0.00103483,-0.00311767,-5.04302e-05,-0.0109088,-1.26496,0.00725576,0.0229648,1896,694,24.2752,-0.0330877
679,330,23.976,0.546509,-0.0138914,-0.00138722,-0.00446326,4.24376e-05,-0.0153211,-1.2608,0.0102282,0.0380276,1903,694,23.976,-0.546532
686,330,23.7434,1.17267,0,0,0,0,0,0,0,-1,1910,694,23.7434,-1.17268
693,330,17.3999,2.5976,0,0,0,0,0,0,0,-1,1917,694,17.4,-2.59759
700,330,17.1072,4.13,0,0,0,0,0,0,0,-1,1924,694,17.1071,-4.13002
707,330,16.663,4.88672,0,0,0,0,0,0,0,-1,1931,694,16.6629,-4.88673
714,330,16.5454,5.80896,0,0,0,0,0,0,0,-1,1938,694,16.5454,-5.80899
721,330,0,0,0,0,0,0,0,0,0,-1,1945,694,0,0
728,330,0,0,0,0,0,0,0,0,0,-1,1952,694,0,0
735,330,0,0,0,0,0,0,0,0,0,-1,1959,694,0,0
742,330,0,0,0,0,0,0,0,0,0,-1,1966,694,0,0
749,330,0,0,0,0,0,0,0,0,0,-1,1973,694,0,0
756,330,0,0,0,0,0,0,0,0,0,-1,1980,694,0,0
763,330,0,0,0,0,0,0,0,0,0,-1,1987,694,0,0
770,330,0,0,0,0,0,0,0,0,0,-1,1994,694,0,0
777,330,0,0,0,0,0,0,0,0,0,-1,2001,694,0,0
784,330,0,0,0,0,0,0,0,0,0,-1,2008,694,0,0
791,330,0,0,0,0,0,0,0,0,0,-1,2015,694,0,0
798,330,0,0,0,0,0,0,0,0,0,-1,2022,694,0,0
805,330,0,0,0,0,0,0,0,0,0,-1,2029,694,0,0
812,330,0,0,0,0,0,0,0,0,0,-1,2036,694,0,0
-700,323,0,0,0,0,0,0,0,0,0,-1,524,701,0,0
-693,323,0,0,0,0,0,0,0,0,0,-1,531,701,0,0
-686,323,0,0,0,0,0,0,0,0,0,-1,538,701,0,0
-679,323,0,0,0,0,0,0,0,0,0,-1,545,701,0,0
-672,323,0,0,0,0,0,0,0,0,0,-1,552,701,0,0
-665,323,0,0,0,0,0,0,0,0,0,-1,559,701,0,0
-658,323,0,0,0,0,0,0,0,0,0,-1,566,701,0,0
-651,323,0,0,0,0,0,0,0,0,0,-1,573,701,0,0
-644,323,0,0,0,0,0,0,0,0,0,-1,580,701,0,0
-637,323,0,0,0,0,0,0,0,0,0,-1,587,701,0,0
-630,323,0,0,0,0,0,0,0,0,0,-1,594,701,0,0
-623,323,0,0,0,0,0,0,0,0,0,-1,601,701,0,0
-616,323,0,0,0,0,0,0,0,0,0,-1,608,701,0,0
-609,323,0,0,0,0,0,0,0,0,0,-1,615,701,0,0
-602,323,-4.15833,2.12256,0,0,0,0,0,0,0,-1,622,701,-4.1583,-2.12257
-595,323,-4.052,1.79156,0,0,0,0,0,0,0,-1,629,701,-4.05198,-1.79158
-588,323,-4.07019,1.94543,0,0,0,0,0,0,0,-1,636,701,-4.07019,-1.94542
-581,323,-6.63727,0.562805,0,0,0,0,0,0,0,-1,643,701,-6.63728,-0.56279
-574,323,-6.15887,0.426697,0,0,0,0,0,0,0,-1,650,701,-6.15887,-0.426727
-567,323,-10.0015,0.0371094,0,0,0,0,0,0,0,-1,657,701,-10.0015,-0.037126
-560,323,-14.9941,-1.18005,0,0,0,0,0,0,0,-1,664,701,-14.9941,1.18005
-553,323,-14.865,-1.61865,0.000808579,0.00544465,-0.00239261,0.00645796,-0.000204732,-1.17018,0.00437515,0.049472,671,701,-14.865,1.61863
-546,323,-14.8527,-1.96149,0.000807481,0.00417343,-0.00178982,0.00494726,3.36552e-05,-1.16272,0.00328701,0.0213267,678,701,-14.8527,1.96146
-539,323,-14.8505,-2.40778,0.00082327,0.00304343,-0.00118856,0.00355968,0.000307015,-1.16103,0.00227769,0.01846,685,701,-14.8505,2.40779
-532,323,-14.8916,-2.98224,0.000884711,0.00205473,-0.00070368,0.00238482,0.000554624,-1.13218,0.00144103,0.0111223,692,701,-14.8916,2.98224
-525,323,-14.9237,-3.52905,0.0009226,0.00121491,-0.000276818,0.00138179,0.000755723,-1.02829,0.000798947,0.00863217,699,701,-14.9237,3.52903
-518,323,-14.9416,-4.04291,0.00105662,0.000583616,-6.44942e-06,0.00105671,0.000583528,-0.0136316,0.000611199,0.0108429,706,701,-14.9416,4.0429
-511,323,-14.9513,-4.56146,0.00109026,6.62773e-05,6.13824e-05,0.00109393,6.26108e-05,0.0596599,0.000709337,0.0137033,713,701,-14.9513,4.56148
-504,323,-14.984,-5.10071,0.000998706,-0.000281188,-5.65056e-05,0.0010012,-0.000283678,-0.0440345,0.000779425,0.0140785,720,701,-14.984,5.10073
-497,323,-14.9863,-5.62543,0.00075811,-0.000446567,-0.000451177,0.000908348,-0.000596805,-0.321444,0.000875184,0.0123224,727,701,-14.9862,5.62544
-490,323,-14.9722,-6.14117,0.000379002,-0.00022772,-0.00141937,0.00152707,-0.00137579,-0.680117,0.00167672,0.0137884,734,701,-14.9722,6.14116
-483,323,-14.9799,-6.63251,-0.000430827,1.25385e-05,-0.00274992,0.0025497,-0.00296799,-0.825618,0.00318869,0.0257771,741,701,-14.9799,6.63251
-476,323,-14.9616,-7.13837,0,0,0,0,0,0,0,-1,748,701,-14.9616,7.13839
-469,323,-8.33301,-3.64001,0,0,0,0,0,0,0,-1,755,701,-8.33298,3.64
-462,323,-5.29431,-1.45697,0,0,0,0,0,0,0,-1,762,701,-5.29431,1.45699
-455,323,-5.0658,-1.36639,0,0,0,0,0,0,0,-1,769,701,-5.06578,1.3664
-448,323,-4.91608,-1.59601,0,0,0,0,0,0,0,-1,776,701,-4.91606,1.59604
-441,323,-14.4006,0.535217,0,0,0,0,0,0,0,-1,783,701,-14.4006,-0.535203
-434,323,-15.3158,2.479,0,0,0,0,0,0,0,-1,790,701,-15.3158,-2.47898
-427,323,-28.3923,1.16797,0,0,0,0,0,0,0,-1,797,701,-28.3923,-1.16796
-420,323,-28.7292,1.09302,0,0,0,0,0,0,0,-1,804,701,-28.7292,-1.09304
-413,323,-28.7955,1.22418,0,0,0,0,0,0,0,-1,811,701,-28.7956,-1.22419
-406,323,0,0,0,0,0,0,0,0,0,-1,818,701,0,0
-399,323,0,0,0,0,0,0,0,0,0,-1,825,701,0,0
-392,323,0,0,0,0,0,0,0,0,0,-1,832,701,0,0
-385,323,0,0,0,0,0,0,0,0,0,-1,839,701,0,0
-378,323,0,0,0,0,0,0,0,0,0,-1,846,701,0,0
-371,323,0,0,0,0,0,0,0,0,0,-1,853,701,0,0
-364,323,0,0,0,0,0,0,0,0,0,-1,860,701,0,0
-357,323,0,0,0,0,0,0,0,0,0,-1,867,701,0,0
-350,323,0,0,0,0,0,0,0,0,0,-1,874,701,0,0
-343,323,0,0,0,0,0,0,0,0,0,-1,881,701,0,0
-336,323,0,0,0,0,0,0,0,0,0,-1,888,701,0,0
-329,323,0,0,0,0,0,0,0,0,0,-1,895,701,0,0
-322,323,0,0,0,0,0,0,0,0,0,-1,902,701,0,0
-315,323,0,0,0,0,0,0,0,0,0,-1,909,701,0,0
-308,323,0,0,0,0,0,0,0,0,0,-1,916,701,0,0
-301,323,0,0,0,0,0,0,0,0,0,-1,923,701,0,0
-294,323,0,0,0,0,0,0,0,0,0,-1,930,701,0,0
-287,323,0,0,0,0,0,0,0,0,0,-1,937,701,0,0
-280,323,0,0,0,0,0,0,0,0,0,-1,944,701,0,0
-273,323,0,0,0,0,0,0,0,0,0,-1,951,701,0,0
-266,323,0,0,0,0,0,0,0,0,0,-1,958,701,0,0
-259,323,0,0,0,0,0,0,0,0,0,-1,965,701,0,0
-252,323,0,0,0,0,0,0,0,0,0,-1,972,701,0,0
-245,323,0,0,0,0,0,0,0,0,0,-1,979,701,0,0
-238,323,0,0,0,0,0,0,0,0,0,-1,986,701,0,0
-231,323,0,0,0,0,0,0,0,0,0,-1,993,701,0,0
-224,323,0,0,0,0,0,0,0,0,0,-1,1000,701,0,0
-217,323,0,0,0,0,0,0,0,0,0,-1,1007,701,0,0
-210,323,0,0,0,0,0,0,0,0,0,-1,1014,701,0,0
-203,323,0,0,0,0,0,0,0,0,0,-1,1021,701,0,0
-196,323,0,0,0,0,0,0,0,0,0,-1,1028,701,0,0
-189,323,0,0,0,0,0,0,0,0,0,-1,1035,701,0,0
-182,323,0,0,0,0,0,0,0,0,0,-1,1042,701,0,0
-175,323,0,0,0,0,0,0,0,0,0,-1,1049,701,0,0
-168,323,0,0,0,0,0,0,0,0,0,-1,1056,701,0,0
-161,323,0,0,0,0,0,0,0,0,0,-1,1063,701,0,0
-154,323,0,0,0,0,0,0,0,0,0,-1,1070,701,0,0
-147,323,0,0,0,0,0,0,0,0,0,-1,1077,701,0,0
-140,323,0,0,0,0,0,0,0,0,0,-1,1084,701,0,0
-133,323,0,0,0,0,0,0,0,0,0,-1,1091,701,0,0
-126,323,0,0,0,0,0,0,0,0,0,-1,1098,701,0,0
-119,323,0,0,0,0,0,0,0,0,0,-1,1105,701,0,0
-112,323,0,0,0,0,0,0,0,0,0,-1,1112,701,0,0
-105,323,0,0,0,0,0,0,0,0,0,-1,1119,701,0,0
-98,323,0,0,0,0,0,0,0,0,0,-1,1126,701,0,0
-91,323,0,0,0,0,0,0,0,0,0,-1,1133,701,0,0
-84,323,0,0,0,0,0,0,0,0,0,-1,1140,701,0,0
-77,323,0,0,0,0,0,0,0,0,0,-1,1147,701,0,0
-70,323,0,0,0,0,0,0,0,0,0,-1,1154,701,0,0
-63,323,0,0,0,0,0,0,0,0,0,-1,1161,701,0,0
-56,323,0,0,0,0,0,0,0,0,0,-1,1168,701,0,0
-49,323,0,0,0,0,0,0,0,0,0,-1,1175,701,0,0
-42,323,0,0,0,0,0,0,0,0,0,-1,1182,701,0,0
-35,323,0,0,0,0,0,0,0,0,0,-1,1189,701,0,0
-28,323,0,0,0,0,0,0,0,0,0,-1,1196,701,0,0
-21,323,0,0,0,0,0,0,0,0,0,-1,1203,701,0,0
-14,323,0,0,0,0,0,0,0,0,0,-1,1210,701,0,0
-7,323,0,0,0,0,0,0,0,0,0,-1,1217,701,0,0
0,323,0,0,0,0,0,0,0,0,0,-1,1224,701,0,0
7,323,0,0,0,0,0,0,0,0,0,-1,1231,701,0,0
14,323,0,0,0,0,0,0,0,0,0,-1,1238,701,0,0
21,323,0,0,0,0,0,0,0,0,0,-1,1245,701,0,0
28,323,0,0,0,0,0,0,0,0,0,-1,1252,701,0,0
35,323,0,0,0,0,0,0,0,0,0,-1,1259,701,0,0
42,323,0,0,0,0,0,0,0,0,0,-1,1266,701,0,0
49,323,0,0,0,0,0,0,0,0,0,-1,1273,701,0,0
56,323,0,0,0,0,0,0,0,0,0,-1,1280,701,0,0
63,323,0,0,0,0,0,0,0,0,0,-1,1287,701,0,0
70,323,0,0,0,0,0,0,0,0,0,-1,1294,701,0,0
77,323,0,0,0,0,0,0,0,0,0,-1,1301,701,0,0
84,323,0,0,0,0,0,0,0,0,0,-1,1308,701,0,0
91,323,0,0,0,0,0,0,0,0,0,-1,1315,701,0,0
98,323,0,0,0,0,0,0,0,0,0,-1,1322,701,0,0
105,323,0,0,0,0,0,0,0,0,0,-1,1329,701,0,0
112,323,0,0,0,0,0,0,0,0,0,-1,1336,701,0,0
119,323,0,0,0,0,0,0,0,0,0,-1,1343,701,0,0
126,323,0,0,0,0,0,0,0,0,0,-1,1350,701,0,0
133,323,0,0,0,0,0,0,0,0,0,-1,1357,701,0,0
140,323,0,0,0,0,0,0,0,0,0,-1,1364,701,0,0
147,323,0,0,0,0,0,0,0,0,0,-1,1371,701,0,0
154,323,0,0,0,0,0,0,0,0,0,-1,1378,701,0,0
161,323,0,0,0,0,0,0,0,0,0,-1,1385,701,0,0
168,323,0,0,0,0,0,0,0,0,0,-1,1392,701,0,0
175,323,0,0,0,0,0,0,0,0,0,-1,1399,701,0,0
182,323,0,0,0,0,0,0,0,0,0,-1,1406,701,0,0
189,323,0,0,0,0,0,0,0,0,0,-1,1413,701,0,0
196,323,0,0,0,0,0,0,0,0,0,-1,1420,701,0,0
203,323,0,0,0,0,0,0,0,0,0,-1,1427,701,0,0
210,323,0,0,0,0,0,0,0,0,0,-1,1434,701,0,0
217,323,0,0,0,0,0,0,0,0,0,-1,1441,701,0,0
224,323,0,0,0,0,0,0,0,0,0,-1,1448,701,0,0
231,323,0,0,0,0,0,0,0,0,0,-1,1455,701,0,0
238,323,0,0,0,0,0,0,0,0,0,-1,1462,701,0,0
245,323,0,0,0,0,0,0,0,0,0,-1,1469,701,0,0
252,323,0,0,0,0,0,0,0,0,0,-1,1476,701,0,0
259,323,0,0,0,0,0,0,0,0,0,-1,1483,701,0,0
266,323,0,0,0,0,0,0,0,0,0,-1,1490,701,0,0
273,323,0,0,0,0,0,0,0,0,0,-1,1497,701,0,0
280,323,0,0,0,0,0,0,0,0,0,-1,1504,701,0,0
287,323,0,0,0,0,0,0,0,0,0,-1,1511,701,0,0
294,323,0,0,0,0,0,0,0,0,0,-1,1518,701,0,0
301,323,0,0,0,0,0,0,0,0,0,-1,1525,701,0,0
308,323,0,0,0,0,0,0,0,0,0,-1,1532,701,0,0
315,323,0,0,0,0,0,0,0,0,0,-1,1539,701,0,0
322,323,0,0,0,0,0,0,0,0,0,-1,1546,701,0,0
329,323,0,0,0,0,0,0,0,0,0,-1,1553,701,0,0
336,323,0,0,0,0,0,0,0,0,0,-1,1560,701,0,0
343,323,0,0,0,0,0,0,0,0,0,-1,1567,701,0,0
350,323,0,0,0,0,0,0,0,0,0,-1,1574,701,0,0
357,323,0,0,0,0,0,0,0,0,0,-1,1581,701,0,0
364,323,0,0,0,0,0,0,0,0,0,-1,1588,701,0,0
371,323,0,0,0,0,0,0,0,0,0,-1,1595,701,0,0
378,323,0,0,0,0,0,0,0,0,0,-1,1602,701,0,0
385,323,0,0,0,0,0,0,0,0,0,-1,1609,701,0,0
392,323,0,0,0,0,0,0,0,0,0,-1,1616,701,0,0
399,323,0,0,0,0,0,0,0,0,0,-1,1623,701,0,0
406,323,0,0,0,0,0,0,0,0,0,-1,1630,701,0,0
413,323,0,0,0,0,0,0,0,0,0,-1,1637,701,0,0
420,323,0,0,0,0,0,0,0,0,0,-1,1644,701,0,0
427,323,0,0,0,0,0,0,0,0,0,-1,1651,701,0,0
434,323,0,0,0,0,0,0,0,0,0,-1,1658,701,0,0
441,323,0,0,0,0,0,0,0,0,0,-1,1665,701,0,0
448,323,0,0,0,0,0,0,0,0,0,-1,1672,701,0,0
455,323,0,0,0,0,0,0,0,0,0,-1,1679,701,0,0
462,323,0,0,0,0,0,0,0,0,0,-1,1686,701,0,0
469,323,0,0,0,0,0,0,0,0,0,-1,1693,701,0,0
476,323,0,0,0,0,0,0,0,0,0,-1,1700,701,0,0
483,323,0,0,0,0,0,0,0,0,0,-1,1707,701,0,0
490,323,0,0,0,0,0,0,0,0,0,-1,1714,701,0,0
497,323,0,0,0,0,0,0,0,0,0,-1,1721,701,0,0
504,323,0,0,0,0,0,0,0,0,0,-1,1728,701,0,0
511,323,0,0,0,0,0,0,0,0,0,-1,1735,701,0,0
518,323,0,0,0,0,0,0,0,0,0,-1,1742,701,0,0
525,323,0,0,0,0,0,0,0,0,0,-1,1749,701,0,0
532,323,33.6193,1.69446,0,0,0,0,0,0,0,-1,1756,701,33.6193,-1.69444
539,323,32.2698,2.44037,0,0,0,0,0,0,0,-1,1763,701,32.2697,-2.44036
546,323,31.1644,3.9444,0,0,0,0,0,0,0,-1,1770,701,31.1644,-3.94438
553,323,30.2488,5.8775,0,0,0,0,0,0,0,-1,1777,701,30.2487,-5.87752
560,323,40.6711,1.25153,0,0,0,0,0,0,0,-1,1784,701,40.6711,-1.25154
567,323,42.1637,2.01208,0,0,0,0,0,0,0,-1,1791,701,42.1637,-2.01207
574,323,12.514,5.89685,0,0,0,0,0,0,0,-1,1798,701,12.5141,-5.89683
581,323,11.821,5.3476,0,0,0,0,0,0,0,-1,1805,701,11.821,-5.34762
588,323,11.7933,7.00818,0,0,0,0,0,0,0,-1,1812,701,11.7933,-7.00819
595,323,6.67847,0.06604,0,0,0,0,0,0,0,-1,1819,701,6.67841,-0.0660418
602,323,11.2856,-0.595459,0,0,0,0,0,0,0,-1,1826,701,11.2856,0.595433
609,323,24.7653,-4.96179,0,0,0,0,0,0,0,-1,1833,701,24.7653,4.96177
616,323,24.9036,-4.34155,0.00152675,5.3429e-05,0.000207135,0.00155532,2.48617e-05,0.137052,0.00102869,0.0148549,1840,701,24.9035,4.34154
623,323,24.8964,-3.79443,0.00131774,-6.18174e-05,0.000198336,0.00134569,-8.97656e-05,0.139992,0.000928495,0.0126866,1847,701,24.8963,3.79445
630,323,24.8748,-3.23303,0.000970765,-0.000145192,0.000180541,0.000999247,-0.000173673,0.156466,0.000730966,0.0141555,1854,701,24.8748,3.23303
637,323,24.8807,-2.69855,0.00020865,-0.000225995,2.3375e-05,0.000209903,-0.000227248,0.0535735,0.000252456,0.0113574,1861,701,24.8807,2.69855
644,323,24.8606,-2.16406,-0.000819907,-0.00032215,-0.000238806,-0.000226109,-0.000915948,-1.18842,0.000550951,0.00841619,1868,701,24.8606,2.16404
651,323,24.8463,-1.59735,-0.00211543,-0.000344077,-0.000575069,-0.000173757,-0.00228575,-1.28286,0.00146934,0.010432,1875,701,24.8463,1.59738
658,323,24.8002,-1.03308,-0.00372811,-0.000367495,-0.00101629,-8.40605e-05,-0.00401155,-1.29882,0.00264679,0.0149767,1882,701,24.8001,1.03308
665,323,24.7659,-0.504761,-0.00570069,-0.000399278,-0.0015889,4.04597e-05,-0.00614042,-1.3008,0.00410717,0.0129463,1889,701,24.7659,0.504749
672,323,24.7891,0.0853271,-0.00811238,-0.000369497,-0.00231837,0.00027159,-0.00875347,-1.30101,0.00592825,0.0130094,1896,701,24.7891,-0.0853444
679,323,24.6746,0.666748,-0.0112569,-0.000362425,-0.00325717,0.000537112,-0.0121565,-1.30134,0.00828916,0.0316524,1903,701,24.6746,-0.666778
686,323,24.0933,1.03241,0,0,0,0,0,0,0,-1,1910,701,24.0933,-1.0324
693,323,23.8806,1.08844,0,0,0,0,0,0,0,-1,1917,701,23.8806,-1.08845
700,323,10.7705,0.828613,0,0,0,0,0,0,0,-1,1924,701,10.7705,-0.828591
707,323,16.9005,4.79193,0,0,0,0,0,0,0,-1,1931,701,16.9005,-4.7919
714,323,16.2346,6.25958,0,0,0,0,0,0,0,-1,1938,701,16.2346,-6.25956
721,323,0,0,0,0,0,0,0,0,0,-1,1945,701,0,0
728,323,0,0,0,0,0,0,0,0,0,-1,1952,701,0,0
735,323,0,0,0,0,0,0,0,0,0,-1,1959,701,0,0
742,323,0,0,0,0,0,0,0,0,0,-1,1966,701,0,0
749,323,0,0,0,0,0,0,0,0,0,-1,1973,701,0,0
756,323,0,0,0,0,0,0,0,0,0,-1,1980,701,0,0
763,323,0,0,0,0,0,0,0,0,0,-1,1987,701,0,0
770,323,0,0,0,0,0,0,0,0,0,-1,1994,701,0,0
777,323,0,0,0,0,0,0,0,0,0,-1,2001,701,0,0
784,323,0,0,0,0,0,0,0,0,0,-1,2008,701,0,0
791,323,0,0,0,0,0,0,0,0,0,-1,2015,701,0,0
798,323,0,0,0,0,0,0,0,0,0,-1,2022,701,0,0
805,323,0,0,0,0,0,0,0,0,0,-1,2029,701,0,0
812,323,0,0,0,0,0,0,0,0,0,-1,2036,701,0,0
-700,316,0,0,0,0,0,0,0,0,0,-1,524,708,0,0
-693,316,0,0,0,0,0,0,0,0,0,-1,531,708,0,0
-686,316,0,0,0,0,0,0,0,0,0,-1,538,708,0,0
-679,316,0,0,0,0,0,0,0,0,0,-1,545,708,0,0
-672,316,0,0,0,0,0,0,0,0,0,-1,552,708,0,0
-665,316,0,0,0,0,0,0,0,0,0,-1,559,708,0,0
-658,316,0,0,0,0,0,0,0,0,0,-1,566,708,0,0
-651,316,0,0,0,0,0,0,0,0,0,-1,573,708,0,0
-644,316,0,0,0,0,0,0,0,0,0,-1,580,708,0,0
-637,316,0,0,0,0,0,0,0,0,0,-1,587,708,0,0
-630,316,0,0,0,0,0,0,0,0,0,-1,594,708,0,0
-623,316,0,0,0,0,0,0,0,0,0,-1,601,708,0,0
-616,316,0,0,0,0,0,0,0,0,0,-1,608,708,0,0
-609,316,0,0,0,0,0,0,0,0,0,-1,615,708,0,0
-602,316,-0.451782,-0.0494995,0,0,0,0,0,0,0,-1,622,708,-0.451768,0.0495022
-595,316,-3.3761,2.17188,0,0,0,0,0,0,0,-1,629,708,-3.37609,-2.17189
-588,316,-5.00177,2.60675,0,0,0,0,0,0,0,-1,636,708,-5.00175,-2.60676
-581,316,-3.94653,0.393433,0,0,0,0,0,0,0,-1,643,708,-3.94655,-0.39342
-574,316,-9.67395,1.06067,0,0,0,0,0,0,0,-1,650,708,-9.67396,-1.06065
-567,316,-10.1962,0.448425,0,0,0,0,0,0,0,-1,657,708,-10.1962,-0.448411
-560,316,-15.1626,-1.18372,0,0,0,0,0,0,0,-1,664,708,-15.1626,1.18369
-553,316,-15.2653,-1.53375,-0.000334187,0.00474112,-0.00109591,0.00496765,-0.000560715,-1.36696,0.00351362,0.0419456,671,708,-15.2652,1.53373
-546,316,-15.4456,-1.86908,3.25553e-05,0.00348697,-0.000903518,0.00370902,-0.000189491,-1.32981,0.0025382,0.0264066,678,708,-15.4455,1.8691
-539,316,-15.3818,-2.44226,0.000308866,0.00245032,-0.000599547,0.00260674,0.000152436,-1.31557,0.00168931,0.014107,685,708,-15.3818,2.44227
-532,316,-15.4211,-2.97443,0.000564325,0.00143488,-0.000356481,0.00156223,0.000436979,-1.2277,0.000930675,0.0113621,692,708,-15.4211,2.97442
-525,316,-15.4554,-3.49628,0.000704621,0.000725849,-1.28854e-05,0.000731929,0.000698541,-1.12992,0.000477213,0.00945539,699,708,-15.4555,3.49626
-518,316,-15.4534,-4.01703,0.000919121,0.000239261,0.000241333,0.000996077,0.000162305,0.308686,0.000617106,0.00940949,706,708,-15.4534,4.01704
-511,316,-15.4782,-4.5462,0.000836321,-0.000165406,0.00029969,0.000919134,-0.000248219,0.269601,0.000710106,0.0112358,713,708,-15.4782,4.54618
-504,316,-15.5132,-5.07849,0.000619461,-0.000338717,0.000284284,0.000697457,-0.000416713,0.26777,0.000650037,0.0144435,720,708,-15.5133,5.07848
-497,316,-15.4956,-5.58789,0.000110915,-0.000285397,6.05331e-05,0.000119955,-0.000294437,0.148239,0.000246217,0.0124398,727,708,-15.4956,5.5879
-490,316,-15.5035,-6.11719,-0.000667713,0.000372683,-0.000735936,0.000753711,-0.00104874,-1.09305,0.00104528,0.0170159,734,708,-15.5035,6.1172
-483,316,-15.4975,-6.65668,0,0,0,0,0,0,0,-1,741,708,-15.4975,6.65669
-476,316,-8.90894,-3.31207,0,0,0,0,0,0,0,-1,748,708,-8.90896,3.31206
-469,316,-6.24194,-1.42725,0,0,0,0,0,0,0,-1,755,708,-6.24192,1.42725
-462,316,-5.74237,-1.40039,0,0,0,0,0,0,0,-1,762,708,-5.74238,1.40039
-455,316,-5.44745,-1.21899,0,0,0,0,0,0,0,-1,769,708,-5.44746,1.21898
-448,316,-14.8945,0.655396,0,0,0,0,0,0,0,-1,776,708,-14.8946,-0.655396
-441,316,-14.9626,0.576111,0,0,0,0,0,0,0,-1,783,708,-14.9626,-0.576115
-434,316,-27.7723,1.15576,0,0,0,0,0,0,0,-1,790,708,-27.7723,-1.15579
-427,316,-28.0504,1.31427,0,0,0,0,0,0,0,-1,797,708,-28.0504,-1.31427
-420,316,-28.198,1.62891,0,0,0,0,0,0,0,-1,804,708,-28.198,-1.62889
-413,316,0,0,0,0,0,0,0,0,0,-1,811,708,0,0
-406,316,0,0,0,0,0,0,0,0,0,-1,818,708,0,0
-399,316,0,0,0,0,0,0,0,0,0,-1,825,708,0,0
-392,316,0,0,0,0,0,0,0,0,0,-1,832,708,0,0
-385,316,0,0,0,0,0,0,0,0,0,-1,839,708,0,0
-378,316,0,0,0,0,0,0,0,0,0,-1,846,708,0,0
-371,316,0,0,0,0,0,0,0,0,0,-1,853,708,0,0
-364,316,0,0,0,0,0,0,0,0,0,-1,860,708,0,0
-357,316,0,0,0,0,0,0,0,0,0,-1,867,708,0,0
-350,316,0,0,0,0,0,0,0,0,0,-1,874,708,0,0
-343,316,0,0,0,0,0,0,0,0,0,-1,881,708,0,0
-336,316,0,0,0,0,0,0,0,0,0,-1,888,708,0,0
-329,316,0,0,0,0,0,0,0,0,0,-1,895,708,0,0
-322,316,0,0,0,0,0,0,0,0,0,-1,902,708,0,0
-315,316,0,0,0,0,0,0,0,0,0,-1,909,708,0,0
-308,316,0,0,0,0,0,0,0,0,0,-1,916,708,0,0
-301,316,0,0,0,0,0,0,0,0,0,-1,923,708,0,0
-294,316,0,0,0,0,0,0,0,0,0,-1,930,708,0,0
-287,316,0,0,0,0,0,0,0,0,0,-1,937,708,0,0
-280,316,0,0,0,0,0,0,0,0,0,-1,944,708,0,0
-273,316,0,0,0,0,0,0,0,0,0,-1,951,708,0,0
-266,316,0,0,0,0,0,0,0,0,0,-1,958,708,0,0
-259,316,0,0,0,0,0,0,0,0,0,-1,965,708,0,0
-252,316,0,0,0,0,0,0,0,0,0,-1,972,708,0,0
-245,316,0,0,0,0,0,0,0,0,0,-1,979,708,0,0
-238,316,0,0,0,0,0,0,0,0,0,-1,986,708,0,0
-231,316,0,0,0,0,0,0,0,0,0,-1,993,708,0,0
-224,316,0,0,0,0,0,0,0,0,0,-1,1000,708,0,0
-217,316,0,0,0,0,0,0,0,0,0,-1,1007,708,0,0
-210,316,0,0,0,0,0,0,0,0,0,-1,1014,708,0,0
-203,316,0,0,0,0,0,0,0,0,0,-1,1021,708,0,0
-196,316,0,0,0,0,0,0,0,0,0,-1,1028,708,0,0
-189,316,0,0,0,0,0,0,0,0,0,-1,1035,708,0,0
-182,316,0,0,0,0,0,0,0,0,0,-1,1042,708,0,0
-175,316,0,0,0,0,0,0,0,0,0,-1,1049,708,0,0
-168,316,0,0,0,0,0,0,0,0,0,-1,1056,708,0,0
-161,316,0,0,0,0,0,0,0,0,0,-1,1063,708,0,0
-154,316,0,0,0,0,0,0,0,0,0,-1,1070,708,0,0
-147,316,0,0,0,0,0,0,0,0,0,-1,1077,708,0,0
-140,316,0,0,0,0,0,0,0,0,0,-1,1084,708,0,0
-133,316,0,0,0,0,0,0,0,0,0,-1,1091,708,0,0
-126,316,0,0,0,0,0,0,0,0,0,-1,1098,708,0,0
-119,316,0,0,0,0,0,0,0,0,0,-1,1105,708,0,0
-112,316,0,0,0,0,0,0,0,0,0,-1,1112,708,0,0
-105,316,0,0,0,0,0,0,0,0,0,-1,1119,708,0,0
-98,316,0,0,0,0,0,0,0,0,0,-1,1126,708,0,0
-91,316,0,0,0,0,0,0,0,0,0,-1,1133,708,0,0
-84,316,0,0,0,0,0,0,0,0,0,-1,1140,708,0,0
-77,316,0,0,0,0,0,0,0,0,0,-1,1147,708,0,0
-70,316,0,0,0,0,0,0,0,0,0,-1,1154,708,0,0
-63,316,0,0,0,0,0,0,0,0,0,-1,1161,708,0,0
-56,316,0,0,0,0,0,0,0,0,0,-1,1168,708,0,0
-49,316,0,0,0,0,0,0,0,0,0,-1,1175,708,0,0
-42,316,0,0,0,0,0,0,0,0,0,-1,1182,708,0,0
-35,316,0,0,0,0,0,0,0,0,0,-1,1189,708,0,0
-28,316,0,0,0,0,0,0,0,0,0,-1,1196,708,0,0
-21,316,0,0,0,0,0,0,0,0,0,-1,1203,708,0,0
-14,316,0,0,0,0,0,0,0,0,0,-1,1210,708,0,0
-7,316,0,0,0,0,0,0,0,0,0,-1,1217,708,0,0
0,316,0,0,0,0,0,0,0,0,0,-1,1224,708,0,0
7,316,0,0,0,0,0,0,0,0,0,-1,1231,708,0,0
14,316,0,0,0,0,0,0,0,0,0,-1,1238,708,0,0
21,316,0,0,0,0,0,0,0,0,0,-1,1245,708,0,0
28,316,0,0,0,0,0,0,0,0,0,-1,1252,708,0,0
35,316,0,0,0,0,0,0,0,0,0,-1,1259,708,0,0
42,316,0,0,0,0,0,0,0,0,0,-1,1266,708,0,0
49,316,0,0,0,0,0,0,0,0,0,-1,1273,708,0,0
56,316,0,0,0,0,0,0,0,0,0,-1,1280,708,0,0
63,316,0,0,0,0,0,0,0,0,0,-1,1287,708,0,0
70,316,0,0,0,0,0,0,0,0,0,-1,1294,708,0,0
77,316,0,0,0,0,0,0,0,0,0,-1,1301,708,0,0
84,316,0,0,0,0,0,0,0,0,0,-1,1308,708,0,0
91,316,0,0,0,0,0,0,0,0,0,-1,1315,708,0,0
98,316,0,0,0,0,0,0,0,0,0,-1,1322,708,0,0
105,316,0,0,0,0,0,0,0,0,0,-1,1329,708,0,0
112,316,0,0,0,0,0,0,0,0,0,-1,1336,708,0,0
119,316,0,0,0,0,0,0,0,0,0,-1,1343,708,0,0
126,316,0,0,0,0,0,0,0,0,0,-1,1350,708,0,0
133,316,0,0,0,0,0,0,0,0,0,-1,1357,708,0,0
140,316,0,0,0,0,0,0,0,0,0,-1,1364,708,0,0
147,316,0,0,0,0,0,0,0,0,0,-1,1371,708,0,0
154,316,0,0,0,0,0,0,0,0,0,-1,1378,708,0,0
161,316,0,0,0,0,0,0,0,0,0,-1,1385,708,0,0
168,316,0,0,0,0,0,0,0,0,0,-1,1392,708,0,0
175,316,0,0,0,0,0,0,0,0,0,-1,1399,708,0,0
182,316,0,0,0,0,0,0,0,0,0,-1,1406,708,0,0
189,316,0,0,0,0,0,0,0,0,0,-1,1413,708,0,0
196,316,0,0,0,0,0,0,0,0,0,-1,1420,708,0,0
203,316,0,0,0,0,0,0,0,0,0,-1,1427,708,0,0
210,316,0,0,0,0,0,0,0,0,0,-1,1434,708,0,0
217,316,0,0,0,0,0,0,0,0,0,-1,1441,708,0,0
224,316,0,0,0,0,0,0,0,0,0,-1,1448,708,0,0
231,316,0,0,0,0,0,0,0,0,0,-1,1455,708,0,0
238,316,0,0,0,0,0,0,0,0,0,-1,1462,708,0,0
245,316,0,0,0,0,0,0,0,0,0,-1,1469,708,0,0
252,316,0,0,0,0,0,0,0,0,0,-1,1476,708,0,0
259,316,0,0,0,0,0,0,0,0,0,-1,1483,708,0,0
266,316,0,0,0,0,0,0,0,0,0,-1,1490,708,0,0
273,316,0,0,0,0,0,0,0,0,0,-1,1497,708,0,0
280,316,0,0,0,0,0,0,0,0,0,-1,1504,708,0,0
287,316,0,0,0,0,0,0,0,0,0,-1,1511,708,0,0
294,316,0,0,0,0,0,0,0,0,0,-1,1518,708,0,0
301,316,0,0,0,0,0,0,0,0,0,-1,1525,708,0,0
308,316,0,0,0,0,0,0,0,0,0,-1,1532,708,0,0
315,316,0,0,0,0,0,0,0,0,0,-1,1539,708,0,0
322,316,0,0,0,0,0,0,0,0,0,-1,1546,708,0,0
329,316,0,0,0,0,0,0,0,0,0,-1,1553,708,0,0
336,316,0,0,0,0,0,0,0,0,0,-1,1560,708,0,0
343,316,0,0,0,0,0,0,0,0,0,-1,1567,708,0,0
350,316,0,0,0,0,0,0,0,0,0,-1,1574,708,0,0
357,316,0,0,0,0,0,0,0,0,0,-1,1581,708,0,0
364,316,0,0,0,0,0,0,0,0,0,-1,1588,708,0,0
371,316,0,0,0,0,0,0,0,0,0,-1,1595,708,0,0
378,316,0,0,0,0,0,0,0,0,0,-1,1602,708,0,0
385,316,0,0,0,0,0,0,0,0,0,-1,1609,708,0,0
392,316,0,0,0,0,0,0,0,0,0,-1,1616,708,0,0
399,316,0,0,0,0,0,0,0,0,0,-1,1623,708,0,0
406,316,0,0,0,0,0,0,0,0,0,-1,1630,708,0,0
413,316,0,0,0,0,0,0,0,0,0,-1,1637,708,0,0
420,316,0,0,0,0,0,0,0,0,0,-1,1644,708,0,0
427,316,0,0,0,0,0,0,0,0,0,-1,1651,708,0,0
434,316,0,0,0,0,0,0,0,0,0,-1,1658,708,0,0
441,316,0,0,0,0,0,0,0,0,0,-1,1665,708,0,0
448,316,0,0,0,0,0,0,0,0,0,-1,1672,708,0,0
455,316,0,0,0,0,0,0,0,0,0,-1,1679,708,0,0
462,316,0,0,0,0,0,0,0,0,0,-1,1686,708,0,0
469,316,0,0,0,0,0,0,0,0,0,-1,1693,708,0,0
476,316,0,0,0,0,0,0,0,0,0,-1,1700,708,0,0
483,316,0,0,0,0,0,0,0,0,0,-1,1707,708,0,0
490,316,0,0,0,0,0,0,0,0,0,-1,1714,708,0,0
497,316,0,0,0,0,0,0,0,0,0,-1,1721,708,0,0
504,316,0,0,0,0,0,0,0,0,0,-1,1728,708,0,0
511,316,0,0,0,0,0,0,0,0,0,-1,1735,708,0,0
518,316,0,0,0,0,0,0,0,0,0,-1,1742,708,0,0
525,316,0,0,0,0,0,0,0,0,0,-1,1749,708,0,0
532,316,33.8604,0.531128,0,0,0,0,0,0,0,-1,1756,708,33.8604,-0.531151
539,316,37.7004,1.9234,0,0,0,0,0,0,0,-1,1763,708,37.7005,-1.92343
546,316,37.8945,2.03882,0,0,0,0,0,0,0,-1,1770,708,37.8945,-2.03879
553,316,38.1301,0.431152,0,0,0,0,0,0,0,-1,1777,708,38.1301,-0.43115
560,316,39.1196,1.10046,0,0,0,0,0,0,0,-1,1784,708,39.1197,-1.10048
567,316,40.3279,1.98065,0,0,0,0,0,0,0,-1,1791,708,40.3279,-1.98067
574,316,40.1323,2.25415,0,0,0,0,0,0,0,-1,1798,708,40.1324,-2.25415
581,316,24.6815,7.77496,0,0,0,0,0,0,0,-1,1805,708,24.6815,-7.77499
588,316,19.7659,2.90198,0,0,0,0,0,0,0,-1,1812,708,19.7659,-2.902
595,316,12.5363,1.50702,0,0,0,0,0,0,0,-1,1819,708,12.5363,-1.50701
602,316,7.79919,0.0422363,0,0,0,0,0,0,0,-1,1826,708,7.79923,-0.0422066
609,316,25.3975,-4.85223,0,0,0,0,0,0,0,-1,1833,708,25.3974,4.85226
616,316,25.4641,-4.30243,0.00163048,-0.000111482,0.000185546,0.00165003,-0.000131026,0.104946,0.00114619,0.0179627,1840,708,25.4641,4.30242
623,316,25.4684,-3.76947,0.00140065,-0.000220533,0.000166811,0.00141763,-0.000237519,0.101478,0.0010334,0.0106519,1847,708,25.4684,3.76945
630,316,25.4175,-3.23718,0.00116189,-0.00028108,0.000172645,0.00118226,-0.000301448,0.117438,0.000905537,0.012191,1854,708,25.4175,3.23718
637,316,25.4087,-2.68634,0.000525405,-0.000304175,8.22997e-05,0.000533491,-0.000312261,0.0979345,0.000493832,0.0116227,1861,708,25.4087,2.68632
644,316,25.3992,-2.13275,-0.00037076,-0.000303109,-0.000103617,-0.000227936,-0.000445933,-0.943168,0.000257481,0.0122695,1868,708,25.3992,2.13274
651,316,25.3622,-1.5863,-0.00147145,-0.000211765,-0.000340515,-0.00012561,-0.00155761,-1.32298,0.00099917,0.0140281,1875,708,25.3622,1.58631
658,316,25.3022,-1.01697,-0.00280578,-8.51272e-05,-0.000654172,6.39934e-05,-0.0029549,-1.34667,0.00199161,0.0245764,1882,708,25.3023,1.01699
665,316,25.2813,-0.458679,-0.00438256,7.0923e-05,-0.00105447,0.000307974,-0.00461961,-1.34967,0.00318736,0.0189254,1889,708,25.2812,0.458698
672,316,25.3311,0.0690918,-0.00626671,0.000313318,-0.00154505,0.000658051,-0.00661144,-1.35127,0.00464255,0.0132838,1896,708,25.3311,-0.0691015
679,316,25.3223,0.707825,-0.00861752,0.000619013,-0.00215542,0.00109724,-0.00909574,-1.35246,0.00646071,0.0274542,1903,708,25.3222,-0.707807
686,316,24.9143,1.21484,-0.0114156,0.000997281,-0.00285378,0.00162194,-0.0120403,-1.35531,0.00861852,0.0385409,1910,708,24.9143,-1.21484
693,316,24.4425,1.77002,0,0,0,0,0,0,0,-1,1917,708,24.4425,-1.76999
700,316,12.8749,2.89136,0,0,0,0,0,0,0,-1,1924,708,12.8748,-2.89137
707,316,15.7089,5.41486,0,0,0,0,0,0,0,-1,1931,708,15.7088,-5.41487
714,316,16.1727,5.52045,0,0,0,0,0,0,0,-1,1938,708,16.1728,-5.52042
721,316,16.7094,6.53351,0,0,0,0,0,0,0,-1,1945,708,16.7094,-6.5335
728,316,0,0,0,0,0,0,0,0,0,-1,1952,708,0,0
735,316,0,0,0,0,0,0,0,0,0,-1,1959,708,0,0
742,316,0,0,0,0,0,0,0,0,0,-1,1966,708,0,0
749,316,0,0,0,0,0,0,0,0,0,-1,1973,708,0,0
756,316,0,0,0,0,0,0,0,0,0,-1,1980,708,0,0
763,316,0,0,0,0,0,0,0,0,0,-1,1987,708,0,0
770,316,0,0,0,0,0,0,0,0,0,-1,1994,708,0,0
777,316,0,0,0,0,0,0,0,0,0,-1,2001,708,0,0
784,316,0,0,0,0,0,0,0,0,0,-1,2008,708,0,0
791,316,0,0,0,0,0,0,0,0,0,-1,2015,708,0,0
798,316,0,0,0,0,0,0,0,0,0,-1,2022,708,0,0
805,316,0,0,0,0,0,0,0,0,0,-1,2029,708,0,0
812,316,0,0,0,0,0,0,0,0,0,-1,2036,708,0,0
-700,309,0,0,0,0,0,0,0,0,0,-1,524,715,0,0
-693,309,0,0,0,0,0,0,0,0,0,-1,531,715,0,0
-686,309,0,0,0,0,0,0,0,0,0,-1,538,715,0,0
-679,309,0,0,0,0,0,0,0,0,0,-1,545,715,0,0
-672,309,0,0,0,0,0,0,0,0,0,-1,552,715,0,0
-665,309,0,0,0,0,0,0,0,0,0,-1,559,715,0,0
-658,309,0,0,0,0,0,0,0,0,0,-1,566,715,0,0
-651,309,0,0,0,0,0,0,0,0,0,-1,573,715,0,0
-644,309,0,0,0,0,0,0,0,0,0,-1,580,715,0,0
-637,309,0,0,0,0,0,0,0,0,0,-1,587,715,0,0
-630,309,0,0,0,0,0,0,0,0,0,-1,594,715,0,0
-623,309,0,0,0,0,0,0,0,0,0,-1,601,715,0,0
-616,309,0,0,0,0,0,0,0,0,0,-1,608,715,0,0
-609,309,-5.95392,-3.93689,0,0,0,0,0,0,0,-1,615,715,-5.95392,3.93686
-602,309,-4.99786,-3.31287,0,0,0,0,0,0,0,-1,622,715,-4.99786,3.31284
-595,309,-6.80847,2.4046,0,0,0,0,0,0,0,-1,629,715,-6.80845,-2.40458
-588,309,-6.08795,2.19324,0,0,0,0,0,0,0,-1,636,715,-6.08793,-2.19325
-581,309,-5.97552,1.3277,0,0,0,0,0,0,0,-1,643,715,-5.97552,-1.32769
-574,309,-8.73602,0.208435,0,0,0,0,0,0,0,-1,650,715,-8.73604,-0.208437
-567,309,-10.3909,0.85968,0,0,0,0,0,0,0,-1,657,715,-10.3909,-0.859696
-560,309,-15.8472,-1.35217,0,0,0,0,0,0,0,-1,664,715,-15.8472,1.35218
-553,309,-15.8921,-1.43585,0.000332794,0.00408636,-0.000116166,0.00408995,0.000329203,-1.53989,0.0026238,0.0419316,671,715,-15.8921,1.43583
-546,309,-15.9718,-1.85907,0.000283628,0.00286014,-0.000164222,0.00287057,0.000273203,-1.5074,0.00182946,0.0216566,678,715,-15.9718,1.85909
-539,309,-15.9191,-2.42651,0.000354823,0.00188657,-6.1293e-05,0.00188902,0.000352374,-1.53087,0.00115987,0.0148905,685,715,-15.9191,2.42649
-532,309,-15.931,-2.95203,0.000384614,0.000860698,2.18773e-05,0.000861701,0.000383611,1.52497,0.000498499,0.0124314,692,715,-15.931,2.95203
-525,309,-15.966,-3.4931,0.000515541,0.000270925,0.000312256,0.000728588,5.7878e-05,0.598736,0.000467628,0.0158703,699,715,-15.966,3.49309
-518,309,-15.97,-4.01068,0.000816015,2.74276e-05,0.000549864,0.00109834,-0.000254901,0.474351,0.000830342,0.0156541,706,715,-15.97,4.0107
-511,309,-15.9903,-4.51172,0.000660829,-0.000177645,0.000543683,0.000928142,-0.000444958,0.456962,0.000808955,0.0132751,713,715,-15.9903,4.51172
-504,309,-16.0039,-5.03131,0.000449001,-3.07567e-05,0.000562539,0.000820671,-0.000402427,0.583861,0.000719786,0.0106932,720,715,-16.0039,5.03129
-497,309,-16.0079,-5.55768,-0.000118368,0.000447721,0.000417546,0.000669116,-0.000339763,1.08326,0.000592732,0.0143387,727,715,-16.0079,5.5577
-490,309,-15.9644,-6.07764,-0.000984169,0.00175261,-0.000296117,0.00178428,-0.00101584,-1.46424,0.00163682,0.0474831,734,715,-15.9643,6.07764
-483,309,-15.637,-6.8515,0,0,0,0,0,0,0,-1,741,715,-15.637,6.85149
-476,309,-5.29486,-1.2262,0,0,0,0,0,0,0,-1,748,715,-5.29484,1.22622
-469,309,-4.22717,-0.592896,0,0,0,0,0,0,0,-1,755,715,-4.2272,0.592905
-462,309,-10.428,2.46948,0,0,0,0,0,0,0,-1,762,715,-10.428,-2.46947
-455,309,-15.8216,0.00915527,0,0,0,0,0,0,0,-1,769,715,-15.8216,-0.00913359
-448,309,-19.2673,1.19257,0,0,0,0,0,0,0,-1,776,715,-19.2673,-1.19254
-441,309,-19.8181,1.4425,0,0,0,0,0,0,0,-1,783,715,-19.8181,-1.44249
-434,309,-28.3196,0.95105,0,0,0,0,0,0,0,-1,790,715,-28.3196,-0.951068
-427,309,-27.8553,1.40332,0,0,0,0,0,0,0,-1,797,715,-27.8553,-1.40334
-420,309,-27.3148,1.90747,0,0,0,0,0,0,0,-1,804,715,-27.3148,-1.90745
-413,309,0,0,0,0,0,0,0,0,0,-1,811,715,0,0
-406,309,0,0,0,0,0,0,0,0,0,-1,818,715,0,0
-399,309,0,0,0,0,0,0,0,0,0,-1,825,715,0,0
-392,309,0,0,0,0,0,0,0,0,0,-1,832,715,0,0
-385,309,0,0,0,0,0,0,0,0,0,-1,839,715,0,0
-378,309,0,0,0,0,0,0,0,0,0,-1,846,715,0,0
-371,309,0,0,0,0,0,0,0,0,0,-1,853,715,0,0
-364,309,0,0,0,0,0,0,0,0,0,-1,860,715,0,0
-357,309,0,0,0,0,0,0,0,0,0,-1,867,715,0,0
-350,309,0,0,0,0,0,0,0,0,0,-1,874,715,0,0
-343,309,0,0,0,0,0,0,0,0,0,-1,881,715,0,0
-336,309,0,0,0,0,0,0,0,0,0,-1,888,715,0,0
-329,309,0,0,0,0,0,0,0,0,0,-1,895,715,0,0
-322,309,0,0,0,0,0,0,0,0,0,-1,902,715,0,0
-315,309,0,0,0,0,0,0,0,0,0,-1,909,715,0,0
-308,309,0,0,0,0,0,0,0,0,0,-1,916,715,0,0
-301,309,0,0,0,0,0,0,0,0,0,-1,923,715,0,0
-294,309,0,0,0,0,0,0,0,0,0,-1,930,715,0,0
-287,309,0,0,0,0,0,0,0,0,0,-1,937,715,0,0
-280,309,0,0,0,0,0,0,0,0,0,-1,944,715,0,0
-273,309,0,0,0,0,0,0,0,0,0,-1,951,715,0,0
-266,309,0,0,0,0,0,0,0,0,0,-1,958,715,0,0
-259,309,0,0,0,0,0,0,0,0,0,-1,965,715,0,0
-252,309,0,0,0,0,0,0,0,0,0,-1,972,715,0,0
-245,309,0,0,0,0,0,0,0,0,0,-1,979,715,0,0
-238,309,0,0,0,0,0,0,0,0,0,-1,986,715,0,0
-231,309,0,0,0,0,0,0,0,0,0,-1,993,715,0,0
-224,309,0,0,0,0,0,0,0,0,0,-1,1000,715,0,0
-217,309,0,0,0,0,0,0,0,0,0,-1,1007,715,0,0
-210,309,0,0,0,0,0,0,0,0,0,-1,1014,715,0,0
-203,309,0,0,0,0,0,0,0,0,0,-1,1021,715,0,0
-196,309,0,0,0,0,0,0,0,0,0,-1,1028,715,0,0
-189,309,0,0,0,0,0,0,0,0,0,-1,1035,715,0,0
-182,309,0,0,0,0,0,0,0,0,0,-1,1042,715,0,0
-175,309,0,0,0,0,0,0,0,0,0,-1,1049,715,0,0
-168,309,0,0,0,0,0,0,0,0,0,-1,1056,715,0,0
-161,309,0,0,0,0,0,0,0,0,0,-1,1063,715,0,0
-154,309,0,0,0,0,0,0,0,0,0,-1,1070,715,0,0
-147,309,0,0,0,0,0,0,0,0,0,-1,1077,715,0,0
-140,309,0,0,0,0,0,0,0,0,0,-1,1084,715,0,0
-133,309,0,0,0,0,0,0,0,0,0,-1,1091,715,0,0
-126,309,0,0,0,0,0,0,0,0,0,-1,1098,715,0,0
-119,309,0,0,0,0,0,0,0,0,0,-1,1105,715,0,0
-112,309,0,0,0,0,0,0,0,0,0,-1,1112,715,0,0
-105,309,0,0,0,0,0,0,0,0,0,-1,1119,715,0,0
-98,309,0,0,0,0,0,0,0,0,0,-1,1126,715,0,0
-91,309,0,0,0,0,0,0,0,0,0,-1,1133,715,0,0
-84,309,0,0,0,0,0,0,0,0,0,-1,1140,715,0,0
-77,309,0,0,0,0,0,0,0,0,0,-1,1147,715,0,0
-70,309,0,0,0,0,0,0,0,0,0,-1,1154,715,0,0
-63,309,0,0,0,0,0,0,0,0,0,-1,1161,715,0,0
-56,309,0,0,0,0,0,0,0,0,0,-1,1168,715,0,0
-49,309,0,0,0,0,0,0,0,0,0,-1,1175,715,0,0
-42,309,0,0,0,0,0,0,0,0,0,-1,1182,715,0,0
-35,309,0,0,0,0,0,0,0,0,0,-1,1189,715,0,0
-28,309,0,0,0,0,0,0,0,0,0,-1,1196,715,0,0
-21,309,0,0,0,0,0,0,0,0,0,-1,1203,715,0,0
-14,309,0,0,0,0,0,0,0,0,0,-1,1210,715,0,0
-7,309,0,0,0,0,0,0,0,0,0,-1,1217,715,0,0
0,309,0,0,0,0,0,0,0,0,0,-1,1224,715,0,0
7,309,0,0,0,0,0,0,0,0,0,-1,1231,715,0,0
14,309,0,0,0,0,0,0,0,0,0,-1,1238,715,0,0
21,309,0,0,0,0,0,0,0,0,0,-1,1245,715,0,0
28,309,0,0,0,0,0,0,0,0,0,-1,1252,715,0,0
35,309,0,0,0,0,0,0,0,0,0,-1,1259,715,0,0
42,309,0,0,0,0,0,0,0,0,0,-1,1266,715,0,0
49,309,0,0,0,0,0,0,0,0,0,-1,1273,715,0,0
56,309,0,0,0,0,0,0,0,0,0,-1,1280,715,0,0
63,309,0,0,0,0,0,0,0,0,0,-1,1287,715,0,0
70,309,0,0,0,0,0,0,0,0,0,-1,1294,715,0,0
77,309,0,0,0,0,0,0,0,0,0,-1,1301,715,0,0
84,309,0,0,0,0,0,0,0,0,0,-1,1308,715,0,0
91,309,0,0,0,0,0,0,0,0,0,-1,1315,715,0,0
98,309,0,0,0,0,0,0,0,0,0,-1,1322,715,0,0
105,309,0,0,0,0,0,0,0,0,0,-1,1329,715,0,0
112,309,0,0,0,0,0,0,0,0,0,-1,1336,715,0,0
119,309,0,0,0,0,0,0,0,0,0,-1,1343,715,0,0
126,309,0,0,0,0,0,0,0,0,0,-1,1350,715,0,0
133,309,0,0,0,0,0,0,0,0,0,-1,1357,715,0,0
140,309,0,0,0,0,0,0,0,0,0,-1,1364,715,0,0
147,309,0,0,0,0,0,0,0,0,0,-1,1371,715,0,0
154,309,0,0,0,0,0,0,0,0,0,-1,1378,715,0,0
161,309,0,0,0,0,0,0,0,0,0,-1,1385,715,0,0
168,309,0,0,0,0,0,0,0,0,0,-1,1392,715,0,0
175,309,0,0,0,0,0,0,0,0,0,-1,1399,715,0,0
182,309,0,0,0,0,0,0,0,0,0,-1,1406,715,0,0
189,309,0,0,0,0,0,0,0,0,0,-1,1413,715,0,0
196,309,0,0,0,0,0,0,0,0,0,-1,1420,715,0,0
203,309,0,0,0,0,0,0,0,0,0,-1,1427,715,0,0
210,309,0,0,0,0,0,0,0,0,0,-1,1434,715,0,0
217,309,0,0,0,0,0,0,0,0,0,-1,1441,715,0,0
224,309,0,0,0,0,0,0,0,0,0,-1,1448,715,0,0
231,309,0,0,0,0,0,0,0,0,0,-1,1455,715,0,0
238,309,0,0,0,0,0,0,0,0,0,-1,1462,715,0,0
245,309,0,0,0,0,0,0,0,0,0,-1,1469,715,0,0
252,309,0,0,0,0,0,0,0,0,0,-1,1476,715,0,0
259,309,0,0,0,0,0,0,0,0,0,-1,1483,715,0,0
266,309,0,0,0,0,0,0,0,0,0,-1,1490,715,0,0
273,309,0,0,0,0,0,0,0,0,0,-1,1497,715,0,0
280,309,0,0,0,0,0,0,0,0,0,-1,1504,715,0,0
287,309,0,0,0,0,0,0,0,0,0,-1,1511,715,0,0
294,309,0,0,0,0,0,0,0,0,0,-1,1518,715,0,0
301,309,0,0,0,0,0,0,0,0,0,-1,1525,715,0,0
308,309,0,0,0,0,0,0,0,0,0,-1,1532,715,0,0
315,309,0,0,0,0,0,0,0,0,0,-1,1539,715,0,0
322,309,0,0,0,0,0,0,0,0,0,-1,1546,715,0,0
329,309,0,0,0,0,0,0,0,0,0,-1,1553,715,0,0
336,309,0,0,0,0,0,0,0,0,0,-1,1560,715,0,0
343,309,0,0,0,0,0,0,0,0,0,-1,1567,715,0,0
350,309,0,0,0,0,0,0,0,0,0,-1,1574,715,0,0
357,309,0,0,0,0,0,0,0,0,0,-1,1581,715,0,0
364,309,0,0,0,0,0,0,0,0,0,-1,1588,715,0,0
371,309,0,0,0,0,0,0,0,0,0,-1,1595,715,0,0
378,309,0,0,0,0,0,0,0,0,0,-1,1602,715,0,0
385,309,0,0,0,0,0,0,0,0,0,-1,1609,715,0,0
392,309,0,0,0,0,0,0,0,0,0,-1,1616,715,0,0
399,309,0,0,0,0,0,0,0,0,0,-1,1623,715,0,0
406,309,0,0,0,0,0,0,0,0,0,-1,1630,715,0,0
413,309,0,0,0,0,0,0,0,0,0,-1,1637,715,0,0
420,309,0,0,0,0,0,0,0,0,0,-1,1644,715,0,0
427,309,0,0,0,0,0,0,0,0,0,-1,1651,715,0,0
434,309,0,0,0,0,0,0,0,0,0,-1,1658,715,0,0
441,309,0,0,0,0,0,0,0,0,0,-1,1665,715,0,0
448,309,0,0,0,0,0,0,0,0,0,-1,1672,715,0,0
455,309,0,0,0,0,0,0,0,0,0,-1,1679,715,0,0
462,309,0,0,0,0,0,0,0,0,0,-1,1686,715,0,0
469,309,0,0,0,0,0,0,0,0,0,-1,1693,715,0,0
476,309,0,0,0,0,0,0,0,0,0,-1,1700,715,0,0
483,309,0,0,0,0,0,0,0,0,0,-1,1707,715,0,0
490,309,0,0,0,0,0,0,0,0,0,-1,1714,715,0,0
497,309,0,0,0,0,0,0,0,0,0,-1,1721,715,0,0
504,309,0,0,0,0,0,0,0,0,0,-1,1728,715,0,0
511,309,0,0,0,0,0,0,0,0,0,-1,1735,715,0,0
518,309,0,0,0,0,0,0,0,0,0,-1,1742,715,0,0
525,309,0,0,0,0,0,0,0,0,0,-1,1749,715,0,0
532,309,0,0,0,0,0,0,0,0,0,-1,1756,715,0,0
539,309,37.3879,2.08527,0,0,0,0,0,0,0,-1,1763,715,37.3879,-2.08529
546,309,41.1765,3.50244,0,0,0,0,0,0,0,-1,1770,715,41.1766,-3.50246
553,309,36.5366,0.485413,0,0,0,0,0,0,0,-1,1777,715,36.5366,-0.485426
560,309,37.4066,1.09186,0,0,0,0,0,0,0,-1,1784,715,37.4066,-1.09187
567,309,38.2872,1.72437,0,0,0,0,0,0,0,-1,1791,715,38.2872,-1.72434
574,309,39.0372,2.01044,0,0,0,0,0,0,0,-1,1798,715,39.0372,-2.01045
581,309,39.9871,2.35028,0,0,0,0,0,0,0,-1,1805,715,39.9871,-2.3503
588,309,26.2064,7.76422,0,0,0,0,0,0,0,-1,1812,715,26.2064,-7.7642
595,309,19.585,3.71558,0,0,0,0,0,0,0,-1,1819,715,19.5849,-3.71555
602,309,11.0811,3.47772,0,0,0,0,0,0,0,-1,1826,715,11.0811,-3.47772
609,309,25.9753,-4.95544,0,0,0,0,0,0,0,-1,1833,715,25.9753,4.95546
616,309,26.0228,-4.34827,0.0016276,-0.000363759,-3.64661e-05,0.00162826,-0.000364427,-0.018304,0.00122519,0.0283772,1840,715,26.0228,4.34825
623,309,26.0272,-3.76019,0.00142028,-0.000437712,1.69214e-05,0.00142043,-0.000437866,0.00910638,0.00112177,0.0114671,1847,715,26.0272,3.76016
630,309,25.9725,-3.2276,0.00131526,-0.000455362,9.55586e-05,0.0013204,-0.000460505,0.0537609,0.00106741,0.010674,1854,715,25.9725,3.2276
637,309,25.9364,-2.66608,0.000820288,-0.000431212,9.07283e-05,0.000826831,-0.000437755,0.0719939,0.000741538,0.0131988,1861,715,25.9365,2.66606
644,309,25.9089,-2.10602,4.95438e-05,-0.000338311,-2.00983e-05,5.05825e-05,-0.000339349,-0.0516347,0.000244842,0.0146891,1868,715,25.909,2.10602
651,309,25.9037,-1.56793,-0.000883511,-0.000157023,-0.000173411,-0.000117753,-0.00092278,-1.3481,0.000579935,0.013814,1875,715,25.9037,1.56794
658,309,25.8657,-0.988403,-0.00198424,8.57929e-05,-0.000384574,0.000154931,-0.00205338,-1.39292,0.00142338,0.0197479,1882,715,25.8658,0.988388
665,309,25.8953,-0.457336,-0.00323575,0.000382352,-0.0006524,0.000496395,-0.00334979,-1.39774,0.00241572,0.0173495,1889,715,25.8952,0.457325
672,309,25.8955,0.0675049,-0.00470184,0.000770646,-0.000970293,0.00093759,-0.00486878,-1.40041,0.00359932,0.0154603,1896,715,25.8955,-0.0674829
679,309,25.891,0.676941,-0.00644311,0.00126746,-0.00135475,0.00149857,-0.00667421,-1.40183,0.00502406,0.0187939,1903,715,25.891,-0.676917
686,309,25.7253,1.30237,-0.00840497,0.00187489,-0.00177375,0.00217234,-0.00870242,-1.40465,0.00664516,0.0303245,1910,715,25.7254,-1.30236
693,309,25.3024,1.8877,0,0,0,0,0,0,0,-1,1917,715,25.3024,-1.88769
700,309,23.0179,3.08337,0,0,0,0,0,0,0,-1,1924,715,23.018,-3.08336
707,309,15.6318,4.58655,0,0,0,0,0,0,0,-1,1931,715,15.6318,-4.58657
714,309,16.7573,6.68286,0,0,0,0,0,0,0,-1,1938,715,16.7574,-6.68284
721,309,16.8337,5.4458,0,0,0,0,0,0,0,-1,1945,715,16.8338,-5.44582
728,309,0,0,0,0,0,0,0,0,0,-1,1952,715,0,0
735,309,0,0,0,0,0,0,0,0,0,-1,1959,715,0,0
742,309,0,0,0,0,0,0,0,0,0,-1,1966,715,0,0
749,309,0,0,0,0,0,0,0,0,0,-1,1973,715,0,0
756,309,0,0,0,0,0,0,0,0,0,-1,1980,715,0,0
763,309,0,0,0,0,0,0,0,0,0,-1,1987,715,0,0
770,309,0,0,0,0,0,0,0,0,0,-1,1994,715,0,0
777,309,0,0,0,0,0,0,0,0,0,-1,2001,715,0,0
784,309,0,0,0,0,0,0,0,0,0,-1,2008,715,0,0
791,309,0,0,0,0,0,0,0,0,0,-1,2015,715,0,0
798,309,0,0,0,0,0,0,0,0,0,-1,2022,715,0,0
805,309,0,0,0,0,0,0,0,0,0,-1,2029,715,0,0
812,309,0,0,0,0,0,0,0,0,0,-1,2036,715,0,0
-700,302,0,0,0,0,0,0,0,0,0,-1,524,722,0,0
-693,302,0,0,0,0,0,0,0,0,0,-1,531,722,0,0
-686,302,0,0,0,0,0,0,0,0,0,-1,538,722,0,0
-679,302,0,0,0,0,0,0,0,0,0,-1,545,722,0,0
-672,302,0,0,0,0,0,0,0,0,0,-1,552,722,0,0
-665,302,0,0,0,0,0,0,0,0,0,-1,559,722,0,0
-658,302,0,0,0,0,0,0,0,0,0,-1,566,722,0,0
-651,302,0,0,0,0,0,0,0,0,0,-1,573,722,0,0
-644,302,0,0,0,0,0,0,0,0,0,-1,580,722,0,0
-637,302,0,0,0,0,0,0,0,0,0,-1,587,722,0,0
-630,302,0,0,0,0,0,0,0,0,0,-1,594,722,0,0
-623,302,0,0,0,0,0,0,0,0,0,-1,601,722,0,0
-616,302,0,0,0,0,0,0,0,0,0,-1,608,722,0,0
-609,302,-7.79266,-3.71649,0,0,0,0,0,0,0,-1,615,722,-7.79267,3.7165
-602,302,0.92865,-1.99158,0,0,0,0,0,0,0,-1,622,722,0.928637,1.99157
-595,302,-7.89941,2.13641,0,0,0,0,0,0,0,-1,629,722,-7.89939,-2.13639
-588,302,-7.10895,1.79163,0,0,0,0,0,0,0,-1,636,722,-7.10896,-1.79163
-581,302,-9.17566,1.09448,0,0,0,0,0,0,0,-1,643,722,-9.17569,-1.09445
-574,302,-11.5183,-0.344543,0,0,0,0,0,0,0,-1,650,722,-11.5183,0.344557
-567,302,-12.1534,-0.672241,0,0,0,0,0,0,0,-1,657,722,-12.1535,0.672246
-560,302,-16.5634,-0.836304,0,0,0,0,0,0,0,-1,664,722,-16.5634,0.836284
-553,302,-16.4611,-1.33636,0.000547482,0.0032924,0.000356006,0.00333782,0.000502061,1.4439,0.00207817,0.0229299,671,722,-16.4611,1.33636
-546,302,-16.4375,-1.88287,0.000340452,0.00219569,0.000257756,0.00223084,0.000305307,1.43528,0.00139662,0.0158904,678,722,-16.4375,1.88287
-539,302,-16.451,-2.38556,0.000289649,0.00134617,0.000275487,0.00141369,0.00022213,1.33045,0.000877834,0.0145491,685,722,-16.451,2.38556
-532,302,-16.4639,-2.90851,0.000237806,0.000339972,0.00032213,0.000615045,-3.72665e-05,0.864033,0.000423,0.0144011,692,722,-16.4639,2.90854
-525,302,-16.4707,-3.48114,0.000387413,-0.000111522,0.000603087,0.000790593,-0.000514702,0.589289,0.000759203,0.0205264,699,722,-16.4707,3.48114
-518,302,-16.4978,-3.99457,0.000693164,-5.22309e-05,0.000827995,0.00122847,-0.000587542,0.573921,0.00107002,0.0209612,706,722,-16.4978,3.99456
-511,302,-16.4981,-4.49091,0.000341162,-2.44137e-05,0.000716196,0.000897527,-0.000580779,0.660455,0.000860007,0.0111541,713,722,-16.4981,4.49091
-504,302,-16.5274,-5.00354,-1.09766e-05,0.000497625,0.00069256,0.000981097,-0.000494448,0.961351,0.000867213,0.0103539,720,722,-16.5274,5.00356
-497,302,-16.5623,-5.5072,-0.000789621,0.00148891,0.000470006,0.00158206,-0.000882764,1.37516,0.00144203,0.015587,727,722,-16.5622,5.50718
-490,302,-16.3661,-6.01105,0,0,0,0,0,0,0,-1,734,722,-16.3661,6.01107
-483,302,-9.53412,-3.1673,0,0,0,0,0,0,0,-1,741,722,-9.53411,3.1673
-476,302,-4.29749,-0.203491,0,0,0,0,0,0,0,-1,748,722,-4.29751,0.203464
-469,302,-12.369,1.42859,0,0,0,0,0,0,0,-1,755,722,-12.3689,-1.42857
-462,302,-17.4766,0.310791,0,0,0,0,0,0,0,-1,762,722,-17.4766,-0.310788
-455,302,-28.6006,-0.598206,0,0,0,0,0,0,0,-1,769,722,-28.6006,0.598234
-448,302,-29.7947,1.49585,0,0,0,0,0,0,0,-1,776,722,-29.7948,-1.49585
-441,302,-27.6344,0.371826,0,0,0,0,0,0,0,-1,783,722,-27.6344,-0.371825
-434,302,-27.6,1.27759,0,0,0,0,0,0,0,-1,790,722,-27.6,-1.27759
-427,302,-27.1735,1.81506,0,0,0,0,0,0,0,-1,797,722,-27.1735,-1.81504
-420,302,0,0,0,0,0,0,0,0,0,-1,804,722,0,0
-413,302,0,0,0,0,0,0,0,0,0,-1,811,722,0,0
-406,302,0,0,0,0,0,0,0,0,0,-1,818,722,0,0
-399,302,0,0,0,0,0,0,0,0,0,-1,825,722,0,0
-392,302,0,0,0,0,0,0,0,0,0,-1,832,722,0,0
-385,302,0,0,0,0,0,0,0,0,0,-1,839,722,0,0
-378,302,0,0,0,0,0,0,0,0,0,-1,846,722,0,0
-371,302,0,0,0,0,0,0,0,0,0,-1,853,722,0,0
-364,302,0,0,0,0,0,0,0,0,0,-1,860,722,0,0
-357,302,0,0,0,0,0,0,0,0,0,-1,867,722,0,0
-350,302,0,0,0,0,0,0,0,0,0,-1,874,722,0,0
-343,302,0,0,0,0,0,0,0,0,0,-1,881,722,0,0
-336,302,0,0,0,0,0,0,0,0,0,-1,888,722,0,0
-329,302,0,0,0,0,0,0,0,0,0,-1,895,722,0,0
-322,302,0,0,0,0,0,0,0,0,0,-1,902,722,0,0
-315,302,0,0,0,0,0,0,0,0,0,-1,909,722,0,0
-308,302,0,0,0,0,0,0,0,0,0,-1,916,722,0,0
-301,302,0,0,0,0,0,0,0,0,0,-1,923,722,0,0
-294,302,0,0,0,0,0,0,0,0,0,-1,930,722,0,0
-287,302,0,0,0,0,0,0,0,0,0,-1,937,722,0,0
-280,302,0,0,0,0,0,0,0,0,0,-1,944,722,0,0
-273,302,0,0,0,0,0,0,0,0,0,-1,951,722,0,0
-266,302,0,0,0,0,0,0,0,0,0,-1,958,722,0,0
-259,302,0,0,0,0,0,0,0,0,0,-1,965,722,0,0
-252,302,0,0,0,0,0,0,0,0,0,-1,972,722,0,0
-245,302,0,0,0,0,0,0,0,0,0,-1,979,722,0,0
-238,302,0,0,0,0,0,0,0,0,0,-1,986,722,0,0
-231,302,0,0,0,0,0,0,0,0,0,-1,993,722,0,0
-224,302,0,0,0,0,0,0,0,0,0,-1,1000,722,0,0
-217,302,0,0,0,0,0,0,0,0,0,-1,1007,722,0,0
-210,302,0,0,0,0,0,0,0,0,0,-1,1014,722,0,0
-203,302,0,0,0,0,0,0,0,0,0,-1,1021,722,0,0
-196,302,0,0,0,0,0,0,0,0,0,-1,1028,722,0,0
-189,302,0,0,0,0,0,0,0,0,0,-1,1035,722,0,0
-182,302,0,0,0,0,0,0,0,0,0,-1,1042,722,0,0
-175,302,0,0,0,0,0,0,0,0,0,-1,1049,722,0,0
-168,302,0,0,0,0,0,0,0,0,0,-1,1056,722,0,0
-161,302,0,0,0,0,0,0,0,0,0,-1,1063,722,0,0
-154,302,0,0,0,0,0,0,0,0,0,-1,1070,722,0,0
-147,302,0,0,0,0,0,0,0,0,0,-1,1077,722,0,0
-140,302,0,0,0,0,0,0,0,0,0,-1,1084,722,0,0
-133,302,0,0,0,0,0,0,0,0,0,-1,1091,722,0,0
-126,302,0,0,0,0,0,0,0,0,0,-1,1098,722,0,0
-119,302,0,0,0,0,0,0,0,0,0,-1,1105,722,0,0
-112,302,0,0,0,0,0,0,0,0,0,-1,1112,722,0,0
-105,302,0,0,0,0,0,0,0,0,0,-1,1119,722,0,0
-98,302,0,0,0,0,0,0,0,0,0,-1,1126,722,0,0
-91,302,0,0,0,0,0,0,0,0,0,-1,1133,722,0,0
-84,302,0,0,0,0,0,0,0,0,0,-1,1140,722,0,0
-77,302,0,0,0,0,0,0,0,0,0,-1,1147,722,0,0
-70,302,0,0,0,0,0,0,0,0,0,-1,1154,722,0,0
-63,302,0,0,0,0,0,0,0,0,0,-1,1161,722,0,0
-56,302,0,0,0,0,0,0,0,0,0,-1,1168,722,0,0
-49,302,0,0,0,0,0,0,0,0,0,-1,1175,722,0,0
-42,302,0,0,0,0,0,0,0,0,0,-1,1182,722,0,0
-35,302,0,0,0,0,0,0,0,0,0,-1,1189,722,0,0
-28,302,0,0,0,0,0,0,0,0,0,-1,1196,722,0,0
-21,302,0,0,0,0,0,0,0,0,0,-1,1203,722,0,0
-14,302,0,0,0,0,0,0,0,0,0,-1,1210,722,0,0
-7,302,0,0,0,0,0,0,0,0,0,-1,1217,722,0,0
0,302,0,0,0,0,0,0,0,0,0,-1,1224,722,0,0
7,302,0,0,0,0,0,0,0,0,0,-1,1231,722,0,0
14,302,0,0,0,0,0,0,0,0,0,-1,1238,722,0,0
21,302,0,0,0,0,0,0,0,0,0,-1,1245,722,0,0
28,302,0,0,0,0,0,0,0,0,0,-1,1252,722,0,0
35,302,0,0,0,0,0,0,0,0,0,-1,1259,722,0,0
42,302,0,0,0,0,0,0,0,0,0,-1,1266,722,0,0
49,302,0,0,0,0,0,0,0,0,0,-1,1273,722,0,0
56,302,0,0,0,0,0,0,0,0,0,-1,1280,722,0,0
63,302,0,0,0,0,0,0,0,0,0,-1,1287,722,0,0
70,302,0,0,0,0,0,0,0,0,0,-1,1294,722,0,0
77,302,0,0,0,0,0,0,0,0,0,-1,1301,722,0,0
84,302,0,0,0,0,0,0,0,0,0,-1,1308,722,0,0
91,302,0,0,0,0,0,0,0,0,0,-1,1315,722,0,0
98,302,0,0,0,0,0,0,0,0,0,-1,1322,722,0,0
105,302,0,0,0,0,0,0,0,0,0,-1,1329,722,0,0
112,302,0,0,0,0,0,0,0,0,0,-1,1336,722,0,0
119,302,0,0,0,0,0,0,0,0,0,-1,1343,722,0,0
126,302,0,0,0,0,0,0,0,0,0,-1,1350,722,0,0
133,302,0,0,0,0,0,0,0,0,0,-1,1357,722,0,0
140,302,0,0,0,0,0,0,0,0,0,-1,1364,722,0,0
147,302,0,0,0,0,0,0,0,0,0,-1,1371,722,0,0
154,302,0,0,0,0,0,0,0,0,0,-1,1378,722,0,0
161,302,0,0,0,0,0,0,0,0,0,-1,1385,722,0,0
168,302,0,0,0,0,0,0,0,0,0,-1,1392,722,0,0
175,302,0,0,0,0,0,0,0,0,0,-1,1399,722,0,0
182,302,0,0,0,0,0,0,0,0,0,-1,1406,722,0,0
189,302,0,0,0,0,0,0,0,0,0,-1,1413,722,0,0
196,302,0,0,0,0,0,0,0,0,0,-1,1420,722,0,0
203,302,0,0,0,0,0,0,0,0,0,-1,1427,722,0,0
210,302,0,0,0,0,0,0,0,0,0,-1,1434,722,0,0
217,302,0,0,0,0,0,0,0,0,0,-1,1441,722,0,0
224,302,0,0,0,0,0,0,0,0,0,-1,1448,722,0,0
231,302,0,0,0,0,0,0,0,0,0,-1,1455,722,0,0
238,302,0,0,0,0,0,0,0,0,0,-1,1462,722,0,0
245,302,0,0,0,0,0,0,0,0,0,-1,1469,722,0,0
252,302,0,0,0,0,0,0,0,0,0,-1,1476,722,0,0
259,302,0,0,0,0,0,0,0,0,0,-1,1483,722,0,0
266,302,0,0,0,0,0,0,0,0,0,-1,1490,722,0,0
273,302,0,0,0,0,0,0,0,0,0,-1,1497,722,0,0
280,302,0,0,0,0,0,0,0,0,0,-1,1504,722,0,0
287,302,0,0,0,0,0,0,0,0,0,-1,1511,722,0,0
294,302,0,0,0,0,0,0,0,0,0,-1,1518,722,0,0
301,302,0,0,0,0,0,0,0,0,0,-1,1525,722,0,0
308,302,0,0,0,0,0,0,0,0,0,-1,1532,722,0,0
315,302,0,0,0,0,0,0,0,0,0,-1,1539,722,0,0
322,302,0,0,0,0,0,0,0,0,0,-1,1546,722,0,0
329,302,0,0,0,0,0,0,0,0,0,-1,1553,722,0,0
336,302,0,0,0,0,0,0,0,0,0,-1,1560,722,0,0
343,302,0,0,0,0,0,0,0,0,0,-1,1567,722,0,0
350,302,0,0,0,0,0,0,0,0,0,-1,1574,722,0,0
357,302,0,0,0,0,0,0,0,0,0,-1,1581,722,0,0
364,302,0,0,0,0,0,0,0,0,0,-1,1588,722,0,0
371,302,0,0,0,0,0,0,0,0,0,-1,1595,722,0,0
378,302,0,0,0,0,0,0,0,0,0,-1,1602,722,0,0
385,302,0,0,0,0,0,0,0,0,0,-1,1609,722,0,0
392,302,0,0,0,0,0,0,0,0,0,-1,1616,722,0,0
399,302,0,0,0,0,0,0,0,0,0,-1,1623,722,0,0
406,302,0,0,0,0,0,0,0,0,0,-1,1630,722,0,0
413,302,0,0,0,0,0,0,0,0,0,-1,1637,722,0,0
420,302,0,0,0,0,0,0,0,0,0,-1,1644,722,0,0
427,302,0,0,0,0,0,0,0,0,0,-1,1651,722,0,0
434,302,0,0,0,0,0,0,0,0,0,-1,1658,722,0,0
441,302,0,0,0,0,0,0,0,0,0,-1,1665,722,0,0
448,302,0,0,0,0,0,0,0,0,0,-1,1672,722,0,0
455,302,0,0,0,0,0,0,0,0,0,-1,1679,722,0,0
462,302,0,0,0,0,0,0,0,0,0,-1,1686,722,0,0
469,302,0,0,0,0,0,0,0,0,0,-1,1693,722,0,0
476,302,0,0,0,0,0,0,0,0,0,-1,1700,722,0,0
483,302,0,0,0,0,0,0,0,0,0,-1,1707,722,0,0
490,302,0,0,0,0,0,0,0,0,0,-1,1714,722,0,0
497,302,0,0,0,0,0,0,0,0,0,-1,1721,722,0,0
504,302,0,0,0,0,0,0,0,0,0,-1,1728,722,0,0
511,302,0,0,0,0,0,0,0,0,0,-1,1735,722,0,0
518,302,0,0,0,0,0,0,0,0,0,-1,1742,722,0,0
525,302,0,0,0,0,0,0,0,0,0,-1,1749,722,0,0
532,302,0,0,0,0,0,0,0,0,0,-1,1756,722,0,0
539,302,0,0,0,0,0,0,0,0,0,-1,1763,722,0,0
546,302,41.7406,3.55981,0,0,0,0,0,0,0,-1,1770,722,41.7406,-3.5598
553,302,42.2363,3.05817,0,0,0,0,0,0,0,-1,1777,722,42.2364,-3.05819
560,302,42.7981,3.25372,0,0,0,0,0,0,0,-1,1784,722,42.7981,-3.25372
567,302,40.6429,4.55444,0,0,0,0,0,0,0,-1,1791,722,40.643,-4.55442
574,302,37.9297,1.69781,0,0,0,0,0,0,0,-1,1798,722,37.9297,-1.69781
581,302,38.2401,2.2843,0,0,0,0,0,0,0,-1,1805,722,38.2402,-2.28431
588,302,26.9731,7.19983,0,0,0,0,0,0,0,-1,1812,722,26.9732,-7.19981
595,302,27.3826,8.13104,0,0,0,0,0,0,0,-1,1819,722,27.3825,-8.13102
602,302,14.7349,5.21246,0,0,0,0,0,0,0,-1,1826,722,14.7349,-5.21247
609,302,11.1578,-0.125854,0,0,0,0,0,0,0,-1,1833,722,11.1579,0.125839
616,302,26.5579,-4.3692,0,0,0,0,0,0,0,-1,1840,722,26.5578,4.36921
623,302,26.5677,-3.73004,0.00318972,-0.000662081,0.000102744,0.00319246,-0.00066482,0.0266489,0.00238105,0.0165339,1847,722,26.5677,3.73001
630,302,26.5065,-3.19427,0.00229793,-0.00066109,0.00013663,0.00230423,-0.000667385,0.0460433,0.00180033,0.0116082,1854,722,26.5065,3.19429
637,302,26.4609,-2.64618,0.00146491,-0.00059516,0.000145587,0.00147515,-0.000605398,0.0702057,0.0012357,0.0143172,1861,722,26.4609,2.6462
644,302,26.4703,-2.09381,0.000492735,-0.000443332,5.76645e-05,0.000496273,-0.000446871,0.0612941,0.000544773,0.0154826,1868,722,26.4703,2.09384
651,302,26.4813,-1.53943,-0.000416752,-0.000172655,-5.75795e-05,-0.000159755,-0.000429652,-1.35039,0.000250762,0.0149581,1875,722,26.4813,1.53942
658,302,26.4658,-0.983398,-0.00132495,0.000165272,-0.000204039,0.000192704,-0.00135238,-1.43715,0.000972207,0.0158349,1882,722,26.4658,0.983402
665,302,26.4498,-0.448914,-0.00230201,0.00055937,-0.000387337,0.000610875,-0.00235352,-1.4386,0.00180738,0.0147707,1889,722,26.4498,0.448895
672,302,26.4193,0.0692749,-0.00339416,0.00101886,-0.000584024,0.00109484,-0.00347014,-1.44142,0.00275196,0.011476,1896,722,26.4193,-0.0692608
679,302,26.397,0.642029,-0.00462213,0.00159973,-0.000816299,0.00170504,-0.00472744,-1.44249,0.00384802,0.00951458,1903,722,26.3969,-0.642038
686,302,26.4041,1.21014,-0.00590782,0.00228086,-0.00105215,0.00241389,-0.00604084,-1.44503,0.00502883,0.0179835,1910,722,26.404,-1.21014
693,302,26.3739,1.77344,0,0,0,0,0,0,0,-1,1917,722,26.3738,-1.77343
700,302,25.4069,1.97308,0,0,0,0,0,0,0,-1,1924,722,25.4068,-1.97311
707,302,16.7321,4.76685,0,0,0,0,0,0,0,-1,1931,722,16.7321,-4.76687
714,302,17.2,5.77594,0,0,0,0,0,0,0,-1,1938,722,17.2,-5.77595
721,302,17.7914,6.60394,0,0,0,0,0,0,0,-1,1945,722,17.7914,-6.60395
728,302,17.2798,4.81702,0,0,0,0,0,0,0,-1,1952,722,17.2798,-4.81703
735,302,0,0,0,0,0,0,0,0,0,-1,1959,722,0,0
742,302,0,0,0,0,0,0,0,0,0,-1,1966,722,0,0
749,302,0,0,0,0,0,0,0,0,0,-1,1973,722,0,0
756,302,0,0,0,0,0,0,0,0,0,-1,1980,722,0,0
763,302,0,0,0,0,0,0,0,0,0,-1,1987,722,0,0
770,302,0,0,0,0,0,0,0,0,0,-1,1994,722,0,0
777,302,0,0,0,0,0,0,0,0,0,-1,2001,722,0,0
784,302,0,0,0,0,0,0,0,0,0,-1,2008,722,0,0
791,302,0,0,0,0,0,0,0,0,0,-1,2015,722,0,0
798,302,0,0,0,0,0,0,0,0,0,-1,2022,722,0,0
805,302,0,0,0,0,0,0,0,0,0,-1,2029,722,0,0
812,302,0,0,0,0,0,0,0,0,0,-1,2036,722,0,0
-700,295,0,0,0,0,0,0,0,0,0,-1,524,729,0,0
-693,295,0,0,0,0,0,0,0,0,0,-1,531,729,0,0
-686,295,0,0,0,0,0,0,0,0,0,-1,538,729,0,0
-679,295,0,0,0,0,0,0,0,0,0,-1,545,729,0,0
-672,295,0,0,0,0,0,0,0,0,0,-1,552,729,0,0
-665,295,0,0,0,0,0,0,0,0,0,-1,559,729,0,0
-658,295,0,0,0,0,0,0,0,0,0,-1,566,729,0,0
-651,295,0,0,0,0,0,0,0,0,0,-1,573,729,0,0
-644,295,0,0,0,0,0,0,0,0,0,-1,580,729,0,0
-637,295,0,0,0,0,0,0,0,0,0,-1,587,729,0,0
-630,295,0,0,0,0,0,0,0,0,0,-1,594,729,0,0
-623,295,0,0,0,0,0,0,0,0,0,-1,601,729,0,0
-616,295,-13.4911,1.31738,0,0,0,0,0,0,0,-1,608,729,-13.4911,-1.3174
-609,295,-10.2864,0.832031,0,0,0,0,0,0,0,-1,615,729,-10.2863,-0.832034
-602,295,-8.19006,3.01587,0,0,0,0,0,0,0,-1,622,729,-8.19005,-3.01588
-595,295,-0.615479,-1.95447,0,0,0,0,0,0,0,-1,629,729,-0.615481,1.95445
-588,295,-7.98999,1.56903,0,0,0,0,0,0,0,-1,636,729,-7.98997,-1.56905
-581,295,-12.0404,0.150574,0,0,0,0,0,0,0,-1,643,729,-12.0404,-0.150604
-574,295,-12.1605,-0.0739746,0,0,0,0,0,0,0,-1,650,729,-12.1605,0.0739856
-567,295,-16.7097,-0.171326,0,0,0,0,0,0,0,-1,657,729,-16.7097,0.171319
-560,295,-16.8951,-0.830933,0.00179914,0.00395847,0.000705349,0.00416845,0.00158915,1.28145,0.00242918,0.0328801,664,729,-16.8951,0.830937
-553,295,-16.9097,-1.40137,0.00105793,0.00276348,0.000441387,0.00287094,0.000950468,1.33199,0.00168878,0.0187117,671,729,-16.9097,1.40139
-546,295,-16.9617,-1.91724,0.000609679,0.00172368,0.000390788,0.0018471,0.000486265,1.2649,0.00110555,0.0211856,678,729,-16.9618,1.91725
-539,295,-16.9736,-2.38855,0.000327869,0.00092166,0.000436096,0.00115233,9.71982e-05,1.08426,0.000737958,0.0191985,685,729,-16.9736,2.38857
-532,295,-17.0093,-2.89752,0.000131658,-0.000126876,0.000509777,0.000528302,-0.00052352,0.661228,0.000607272,0.0166012,692,729,-17.0093,2.89755
-525,295,-17.0161,-3.43872,0.000272611,-0.000485775,0.000862854,0.000835917,-0.00104908,0.578369,0.00109062,0.0153231,699,729,-17.016,3.43869
-518,295,-17.0142,-3.95819,0.000542047,-0.000172988,0.00115346,0.00139213,-0.00102307,0.635117,0.00139983,0.0105719,706,729,-17.0142,3.95821
-511,295,-17.0075,-4.46954,-2.92201e-05,3.35108e-05,0.00100398,0.00100662,-0.00100233,0.801014,0.00115986,0.00912421,713,729,-17.0075,4.46957
-504,295,-17.0425,-4.97479,-0.000484289,0.000847019,0.00100057,0.00138313,-0.0010204,1.07892,0.00139293,0.0113752,720,729,-17.0425,4.9748
-497,295,-17.1044,-5.4043,-0.00137473,0.00220218,0.000774719,0.00236277,-0.00153532,1.36641,0.0022674,0.0215208,727,729,-17.1044,5.40428
-490,295,-17.1537,-5.80316,0,0,0,0,0,0,0,-1,734,729,-17.1537,5.80317
-483,295,-6.84503,-0.454651,0,0,0,0,0,0,0,-1,741,729,-6.84505,0.454639
-476,295,-13.1738,-0.836243,0,0,0,0,0,0,0,-1,748,729,-13.1738,0.836223
-469,295,-26.5608,-0.466187,0,0,0,0,0,0,0,-1,755,729,-26.5608,0.466162
-462,295,-29.7701,-0.792664,0,0,0,0,0,0,0,-1,762,729,-29.7701,0.792642
-455,295,-33.181,-0.472229,0,0,0,0,0,0,0,-1,769,729,-33.181,0.472208
-448,295,-30.5955,2.21436,0,0,0,0,0,0,0,-1,776,729,-30.5955,-2.21439
-441,295,-30.8951,1.99799,0,0,0,0,0,0,0,-1,783,729,-30.8951,-1.99799
-434,295,-26.6473,1.64215,0,0,0,0,0,0,0,-1,790,729,-26.6473,-1.64213
-427,295,0,0,0,0,0,0,0,0,0,-1,797,729,0,0
-420,295,0,0,0,0,0,0,0,0,0,-1,804,729,0,0
-413,295,0,0,0,0,0,0,0,0,0,-1,811,729,0,0
-406,295,0,0,0,0,0,0,0,0,0,-1,818,729,0,0
-399,295,0,0,0,0,0,0,0,0,0,-1,825,729,0,0
-392,295,0,0,0,0,0,0,0,0,0,-1,832,729,0,0
-385,295,0,0,0,0,0,0,0,0,0,-1,839,729,0,0
-378,295,0,0,0,0,0,0,0,0,0,-1,846,729,0,0
-371,295,0,0,0,0,0,0,0,0,0,-1,853,729,0,0
-364,295,0,0,0,0,0,0,0,0,0,-1,860,729,0,0
-357,295,0,0,0,0,0,0,0,0,0,-1,867,729,0,0
-350,295,0,0,0,0,0,0,0,0,0,-1,874,729,0,0
-343,295,0,0,0,0,0,0,0,0,0,-1,881,729,0,0
-336,295,0,0,0,0,0,0,0,0,0,-1,888,729,0,0
-329,295,0,0,0,0,0,0,0,0,0,-1,895,729,0,0
-322,295,0,0,0,0,0,0,0,0,0,-1,902,729,0,0
-315,295,0,0,0,0,0,0,0,0,0,-1,909,729,0,0
-308,295,0,0,0,0,0,0,0,0,0,-1,916,729,0,0
-301,295,0,0,0,0,0,0,0,0,0,-1,923,729,0,0
-294,295,0,0,0,0,0,0,0,0,0,-1,930,729,0,0
-287,295,0,0,0,0,0,0,0,0,0,-1,937,729,0,0
-280,295,0,0,0,0,0,0,0,0,0,-1,944,729,0,0
-273,295,0,0,0,0,0,0,0,0,0,-1,951,729,0,0
-266,295,0,0,0,0,0,0,0,0,0,-1,958,729,0,0
-259,295,0,0,0,0,0,0,0,0,0,-1,965,729,0,0
-252,295,0,0,0,0,0,0,0,0,0,-1,972,729,0,0
-245,295,0,0,0,0,0,0,0,0,0,-1,979,729,0,0
-238,295,0,0,0,0,0,0,0,0,0,-1,986,729,0,0
-231,295,0,0,0,0,0,0,0,0,0,-1,993,729,0,0
-224,295,0,0,0,0,0,0,0,0,0,-1,1000,729,0,0
-217,295,0,0,0,0,0,0,0,0,0,-1,1007,729,0,0
-210,295,0,0,0,0,0,0,0,0,0,-1,1014,729,0,0
-203,295,0,0,0,0,0,0,0,0,0,-1,1021,729,0,0
-196,295,0,0,0,0,0,0,0,0,0,-1,1028,729,0,0
-189,295,0,0,0,0,0,0,0,0,0,-1,1035,729,0,0
-182,295,0,0,0,0,0,0,0,0,0,-1,1042,729,0,0
-175,295,0,0,0,0,0,0,0,0,0,-1,1049,729,0,0
-168,295,0,0,0,0,0,0,0,0,0,-1,1056,729,0,0
-161,295,0,0,0,0,0,0,0,0,0,-1,1063,729,0,0
-154,295,0,0,0,0,0,0,0,0,0,-1,1070,729,0,0
-147,295,0,0,0,0,0,0,0,0,0,-1,1077,729,0,0
-140,295,0,0,0,0,0,0,0,0,0,-1,1084,729,0,0
-133,295,0,0,0,0,0,0,0,0,0,-1,1091,729,0,0
-126,295,0,0,0,0,0,0,0,0,0,-1,1098,729,0,0
-119,295,0,0,0,0,0,0,0,0,0,-1,1105,729,0,0
-112,295,0,0,0,0,0,0,0,0,0,-1,1112,729,0,0
-105,295,0,0,0,0,0,0,0,0,0,-1,1119,729,0,0
-98,295,0,0,0,0,0,0,0,0,0,-1,1126,729,0,0
-91,295,0,0,0,0,0,0,0,0,0,-1,1133,729,0,0
-84,295,0,0,0,0,0,0,0,0,0,-1,1140,729,0,0
-77,295,0,0,0,0,0,0,0,0,0,-1,1147,729,0,0
-70,295,0,0,0,0,0,0,0,0,0,-1,1154,729,0,0
-63,295,0,0,0,0,0,0,0,0,0,-1,1161,729,0,0
-56,295,0,0,0,0,0,0,0,0,0,-1,1168,729,0,0
-49,295,0,0,0,0,0,0,0,0,0,-1,1175,729,0,0
-42,295,0,0,0,0,0,0,0,0,0,-1,1182,729,0,0
-35,295,0,0,0,0,0,0,0,0,0,-1,1189,729,0,0
-28,295,0,0,0,0,0,0,0,0,0,-1,1196,729,0,0
-21,295,0,0,0,0,0,0,0,0,0,-1,1203,729,0,0
-14,295,0,0,0,0,0,0,0,0,0,-1,1210,729,0,0
-7,295,0,0,0,0,0,0,0,0,0,-1,1217,729,0,0
0,295,0,0,0,0,0,0,0,0,0,-1,1224,729,0,0
7,295,0,0,0,0,0,0,0,0,0,-1,1231,729,0,0
14,295,0,0,0,0,0,0,0,0,0,-1,1238,729,0,0
21,295,0,0,0,0,0,0,0,0,0,-1,1245,729,0,0
28,295,0,0,0,0,0,0,0,0,0,-1,1252,729,0,0
35,295,0,0,0,0,0,0,0,0,0,-1,1259,729,0,0
42,295,0,0,0,0,0,0,0,0,0,-1,1266,729,0,0
49,295,0,0,0,0,0,0,0,0,0,-1,1273,729,0,0
56,295,0,0,0,0,0,0,0,0,0,-1,1280,729,0,0
63,295,0,0,0,0,0,0,0,0,0,-1,1287,729,0,0
70,295,0,0,0,0,0,0,0,0,0,-1,1294,729,0,0
77,295,0,0,0,0,0,0,0,0,0,-1,1301,729,0,0
84,295,0,0,0,0,0,0,0,0,0,-1,1308,729,0,0
91,295,0,0,0,0,0,0,0,0,0,-1,1315,729,0,0
98,295,0,0,0,0,0,0,0,0,0,-1,1322,729,0,0
105,295,0,0,0,0,0,0,0,0,0,-1,1329,729,0,0
112,295,0,0,0,0,0,0,0,0,0,-1,1336,729,0,0
119,295,0,0,0,0,0,0,0,0,0,-1,1343,729,0,0
126,295,0,0,0,0,0,0,0,0,0,-1,1350,729,0,0
133,295,0,0,0,0,0,0,0,0,0,-1,1357,729,0,0
140,295,0,0,0,0,0,0,0,0,0,-1,1364,729,0,0
147,295,0,0,0,0,0,0,0,0,0,-1,1371,729,0,0
154,295,0,0,0,0,0,0,0,0,0,-1,1378,729,0,0
161,295,0,0,0,0,0,0,0,0,0,-1,1385,729,0,0
168,295,0,0,0,0,0,0,0,0,0,-1,1392,729,0,0
175,295,0,0,0,0,0,0,0,0,0,-1,1399,729,0,0
182,295,0,0,0,0,0,0,0,0,0,-1,1406,729,0,0
189,295,0,0,0,0,0,0,0,0,0,-1,1413,729,0,0
196,295,0,0,0,0,0,0,0,0,0,-1,1420,729,0,0
203,295,0,0,0,0,0,0,0,0,0,-1,1427,729,0,0
210,295,0,0,0,0,0,0,0,0,0,-1,1434,729,0,0
217,295,0,0,0,0,0,0,0,0,0,-1,1441,729,0,0
224,295,0,0,0,0,0,0,0,0,0,-1,1448,729,0,0
231,295,0,0,0,0,0,0,0,0,0,-1,1455,729,0,0
238,295,0,0,0,0,0,0,0,0,0,-1,1462,729,0,0
245,295,0,0,0,0,0,0,0,0,0,-1,1469,729,0,0
252,295,0,0,0,0,0,0,0,0,0,-1,1476,729,0,0
259,295,0,0,0,0,0,0,0,0,0,-1,1483,729,0,0
266,295,0,0,0,0,0,0,0,0,0,-1,1490,729,0,0
273,295,0,0,0,0,0,0,0,0,0,-1,1497,729,0,0
280,295,0,0,0,0,0,0,0,0,0,-1,1504,729,0,0
287,295,0,0,0,0,0,0,0,0,0,-1,1511,729,0,0
294,295,0,0,0,0,0,0,0,0,0,-1,1518,729,0,0
301,295,0,0,0,0,0,0,0,0,0,-1,1525,729,0,0
308,295,0,0,0,0,0,0,0,0,0,-1,1532,729,0,0
315,295,0,0,0,0,0,0,0,0,0,-1,1539,729,0,0
322,295,0,0,0,0,0,0,0,0,0,-1,1546,729,0,0
329,295,0,0,0,0,0,0,0,0,0,-1,1553,729,0,0
336,295,0,0,0,0,0,0,0,0,0,-1,1560,729,0,0
343,295,0,0,0,0,0,0,0,0,0,-1,1567,729,0,0
350,295,0,0,0,0,0,0,0,0,0,-1,1574,729,0,0
357,295,0,0,0,0,0,0,0,0,0,-1,1581,729,0,0
364,295,0,0,0,0,0,0,0,0,0,-1,1588,729,0,0
371,295,0,0,0,0,0,0,0,0,0,-1,1595,729,0,0
378,295,0,0,0,0,0,0,0,0,0,-1,1602,729,0,0
385,295,0,0,0,0,0,0,0,0,0,-1,1609,729,0,0
392,295,0,0,0,0,0,0,0,0,0,-1,1616,729,0,0
399,295,0,0,0,0,0,0,0,0,0,-1,1623,729,0,0
406,295,0,0,0,0,0,0,0,0,0,-1,1630,729,0,0
413,295,0,0,0,0,0,0,0,0,0,-1,1637,729,0,0
420,295,0,0,0,0,0,0,0,0,0,-1,1644,729,0,0
427,295,0,0,0,0,0,0,0,0,0,-1,1651,729,0,0
434,295,0,0,0,0,0,0,0,0,0,-1,1658,729,0,0
441,295,0,0,0,0,0,0,0,0,0,-1,1665,729,0,0
448,295,0,0,0,0,0,0,0,0,0,-1,1672,729,0,0
455,295,0,0,0,0,0,0,0,0,0,-1,1679,729,0,0
462,295,0,0,0,0,0,0,0,0,0,-1,1686,729,0,0
469,295,0,0,0,0,0,0,0,0,0,-1,1693,729,0,0
476,295,0,0,0,0,0,0,0,0,0,-1,1700,729,0,0
483,295,0,0,0,0,0,0,0,0,0,-1,1707,729,0,0
490,295,0,0,0,0,0,0,0,0,0,-1,1714,729,0,0
497,295,0,0,0,0,0,0,0,0,0,-1,1721,729,0,0
504,295,0,0,0,0,0,0,0,0,0,-1,1728,729,0,0
511,295,0,0,0,0,0,0,0,0,0,-1,1735,729,0,0
518,295,0,0,0,0,0,0,0,0,0,-1,1742,729,0,0
525,295,0,0,0,0,0,0,0,0,0,-1,1749,729,0,0
532,295,0,0,0,0,0,0,0,0,0,-1,1756,729,0,0
539,295,0,0,0,0,0,0,0,0,0,-1,1763,729,0,0
546,295,42.2577,3.30042,0,0,0,0,0,0,0,-1,1770,729,42.2577,-3.3004
553,295,42.1073,3.07355,0,0,0,0,0,0,0,-1,1777,729,42.1073,-3.07356
560,295,42.4982,3.12653,0,0,0,0,0,0,0,-1,1784,729,42.4982,-3.1265
567,295,42.8815,3.07184,0,0,0,0,0,0,0,-1,1791,729,42.8815,-3.07183
574,295,43.5406,3.35315,0,0,0,0,0,0,0,-1,1798,729,43.5406,-3.35315
581,295,37.8191,2.19592,0,0,0,0,0,0,0,-1,1805,729,37.8191,-2.19594
588,295,39.0542,2.45679,0,0,0,0,0,0,0,-1,1812,729,39.0542,-2.45676
595,295,27.2102,6.99121,0,0,0,0,0,0,0,-1,1819,729,27.2103,-6.99121
602,295,26.9065,7.82141,0,0,0,0,0,0,0,-1,1826,729,26.9064,-7.8214
609,295,11.7737,2.19989,0,0,0,0,0,0,0,-1,1833,729,11.7736,-2.19988
616,295,27.2426,-4.20813,0,0,0,0,0,0,0,-1,1840,729,27.2425,4.20816
623,295,27.1154,-3.68823,0.00443483,-0.00100357,0.000366935,0.00445948,-0.00102821,0.0670661,0.00336845,0.0335322,1847,729,27.1154,3.68823
630,295,27.0376,-3.15491,0.00306185,-0.000952176,0.000302288,0.00308449,-0.000974813,0.074746,0.00244687,0.0131533,1854,729,27.0376,3.15492
637,295,27.0287,-2.61584,0.00203057,-0.00084961,0.000340973,0.00207038,-0.000889426,0.116245,0.0017536,0.0140725,1861,729,27.0287,2.61586
644,295,27.0317,-2.06549,0.00096759,-0.000608766,0.000242192,0.00100396,-0.000645137,0.149062,0.000959591,0.0134061,1868,729,27.0318,2.06552
651,295,27.0217,-1.5116,0.000169806,-0.000230585,0.000134637,0.000210868,-0.000271647,0.296024,0.000279316,0.013848,1875,729,27.0218,1.51162
658,295,27.0028,-0.963257,-0.000474707,0.000210243,5.03366e-05,0.000213922,-0.000478386,1.49783,0.00040931,0.0131967,1882,729,27.0028,0.963254
665,295,26.9756,-0.425964,-0.00116729,0.000698954,-3.36154e-05,0.000699559,-0.00116789,-1.55279,0.00108942,0.0118783,1889,729,26.9756,0.425966
672,295,26.9357,0.0904541,-0.00193151,0.00122001,-0.000105531,0.00122354,-0.00193504,-1.53736,0.00183897,0.0134526,1896,729,26.9356,-0.0904352
679,295,26.918,0.641113,-0.00272743,0.00189758,-0.000142288,0.00190195,-0.0027318,-1.54007,0.00268956,0.0107714,1903,729,26.918,-0.641093
686,295,26.9479,1.17603,-0.00352727,0.00265795,-0.000175261,0.00266292,-0.00353223,-1.54249,0.00358849,0.0107487,1910,729,26.9478,-1.17602
693,295,26.9032,1.71588,-0.00429235,0.00352269,-0.000192074,0.00352741,-0.00429706,-1.54624,0.00452474,0.0421058,1917,729,26.9032,-1.71588
700,295,26.9501,2.54712,0,0,0,0,0,0,0,-1,1924,729,26.9501,-2.54715
707,295,22.2661,3.05206,0,0,0,0,0,0,0,-1,1931,729,22.2662,-3.05207
714,295,17.4906,4.63068,0,0,0,0,0,0,0,-1,1938,729,17.4906,-4.63066
721,295,18.3792,5.32281,0,0,0,0,0,0,0,-1,1945,729,18.3791,-5.32283
728,295,17.379,3.74866,0,0,0,0,0,0,0,-1,1952,729,17.379,-3.74863
735,295,0,0,0,0,0,0,0,0,0,-1,1959,729,0,0
742,295,0,0,0,0,0,0,0,0,0,-1,1966,729,0,0
749,295,0,0,0,0,0,0,0,0,0,-1,1973,729,0,0
756,295,0,0,0,0,0,0,0,0,0,-1,1980,729,0,0
763,295,0,0,0,0,0,0,0,0,0,-1,1987,729,0,0
770,295,0,0,0,0,0,0,0,0,0,-1,1994,729,0,0
777,295,0,0,0,0,0,0,0,0,0,-1,2001,729,0,0
784,295,0,0,0,0,0,0,0,0,0,-1,2008,729,0,0
791,295,0,0,0,0,0,0,0,0,0,-1,2015,729,0,0
798,295,0,0,0,0,0,0,0,0,0,-1,2022,729,0,0
805,295,0,0,0,0,0,0,0,0,0,-1,2029,729,0,0
812,295,0,0,0,0,0,0,0,0,0,-1,2036,729,0,0
-700,288,0,0,0,0,0,0,0,0,0,-1,524,736,0,0
-693,288,0,0,0,0,0,0,0,0,0,-1,531,736,0,0
-686,288,0,0,0,0,0,0,0,0,0,-1,538,736,0,0
-679,288,0,0,0,0,0,0,0,0,0,-1,545,736,0,0
-672,288,0,0,0,0,0,0,0,0,0,-1,552,736,0,0
-665,288,0,0,0,0,0,0,0,0,0,-1,559,736,0,0
-658,288,0,0,0,0,0,0,0,0,0,-1,566,736,0,0
-651,288,0,0,0,0,0,0,0,0,0,-1,573,736,0,0
-644,288,0,0,0,0,0,0,0,0,0,-1,580,736,0,0
-637,288,0,0,0,0,0,0,0,0,0,-1,587,736,0,0
-630,288,0,0,0,0,0,0,0,0,0,-1,594,736,0,0
-623,288,0,0,0,0,0,0,0,0,0,-1,601,736,0,0
-616,288,-11.7584,2.4425,0,0,0,0,0,0,0,-1,608,736,-11.7584,-2.44251
-609,288,-10.3007,2.32178,0,0,0,0,0,0,0,-1,615,736,-10.3007,-2.32178
-602,288,-10.1458,-1.85559,0,0,0,0,0,0,0,-1,622,736,-10.1458,1.85556
-595,288,-7.63208,1.81769,0,0,0,0,0,0,0,-1,629,736,-7.63205,-1.81766
-588,288,-8.19269,1.50598,0,0,0,0,0,0,0,-1,636,736,-8.19268,-1.50601
-581,288,-13.1915,0.659241,0,0,0,0,0,0,0,-1,643,736,-13.1915,-0.659228
-574,288,-17.0913,0.193909,0,0,0,0,0,0,0,-1,650,736,-17.0913,-0.193907
-567,288,-17.2319,-0.340027,0.0037421,0.00481229,0.000719753,0.00517407,0.00338032,1.10505,0.0030337,0.0362246,657,736,-17.2319,0.340048
-560,288,-17.4506,-0.91449,0.00221981,0.0033265,0.000584317,0.0035779,0.00196841,1.16449,0.00206916,0.0164969,664,736,-17.4506,0.914477
-553,288,-17.4258,-1.40472,0.0012629,0.00218877,0.000509279,0.00241408,0.0010376,1.15428,0.00139834,0.0190392,671,736,-17.4258,1.40474
-546,288,-17.462,-1.92938,0.000669431,0.00118269,0.000573915,0.00155474,0.00029738,0.99564,0.000952958,0.0197884,678,736,-17.462,1.92939
-539,288,-17.4898,-2.39612,0.000254574,0.000406063,0.000708741,0.0010431,-0.000382459,0.838632,0.000851995,0.0174253,685,736,-17.4898,2.39614
-532,288,-17.4797,-2.89099,1.91773e-05,-0.000680693,0.000804909,0.000546929,-0.00120844,0.580348,0.00103718,0.0147649,692,736,-17.4797,2.89101
-525,288,-17.5104,-3.40948,0.000268677,-0.000928983,0.00117188,0.000985866,-0.00164617,0.549195,0.00153546,0.0126613,699,736,-17.5104,3.40946
-518,288,-17.5515,-3.9259,0.000603489,-0.000347562,0.0014267,0.00163182,-0.00137589,0.624535,0.0017386,0.0104921,706,736,-17.5515,3.92589
-511,288,-17.5493,-4.44385,6.59256e-06,1.82878e-05,0.00111852,0.00113098,-0.0011061,0.788012,0.0012916,0.0084173,713,736,-17.5492,4.44387
-504,288,-17.5655,-4.94708,-0.000331706,0.00103213,0.000993859,0.00155552,-0.000855096,1.08608,0.00141122,0.0106734,720,736,-17.5655,4.94706
-497,288,-17.5984,-5.25397,-0.00107002,0.00258025,0.000624054,0.00268399,-0.00117376,1.40607,0.00228345,0.0312674,727,736,-17.5985,5.25398
-490,288,-17.5347,-5.49628,0,0,0,0,0,0,0,-1,734,736,-17.5347,5.4963
-483,288,-17.3287,0.564758,0,0,0,0,0,0,0,-1,741,736,-17.3287,-0.56477
-476,288,-26.136,0.452148,0,0,0,0,0,0,0,-1,748,736,-26.136,-0.452177
-469,288,-27.7904,0.649841,0,0,0,0,0,0,0,-1,755,736,-27.7904,-0.649854
-462,288,-32.1728,0.637939,0,0,0,0,0,0,0,-1,762,736,-32.1728,-0.637932
-455,288,-33.2912,-0.481812,0,0,0,0,0,0,0,-1,769,736,-33.2912,0.481798
-448,288,-34.0443,-1.5509,0,0,0,0,0,0,0,-1,776,736,-34.0443,1.5509
-441,288,-29.8209,2.36774,0,0,0,0,0,0,0,-1,783,736,-29.8209,-2.36772
-434,288,-26.0831,2.26532,0,0,0,0,0,0,0,-1,790,736,-26.083,-2.26529
-427,288,0,0,0,0,0,0,0,0,0,-1,797,736,0,0
-420,288,0,0,0,0,0,0,0,0,0,-1,804,736,0,0
-413,288,0,0,0,0,0,0,0,0,0,-1,811,736,0,0
-406,288,0,0,0,0,0,0,0,0,0,-1,818,736,0,0
-399,288,0,0,0,0,0,0,0,0,0,-1,825,736,0,0
-392,288,0,0,0,0,0,0,0,0,0,-1,832,736,0,0
-385,288,0,0,0,0,0,0,0,0,0,-1,839,736,0,0
-378,288,0,0,0,0,0,0,0,0,0,-1,846,736,0,0
-371,288,0,0,0,0,0,0,0,0,0,-1,853,736,0,0
-364,288,0,0,0,0,0,0,0,0,0,-1,860,736,0,0
-357,288,0,0,0,0,0,0,0,0,0,-1,867,736,0,0
-350,288,0,0,0,0,0,0,0,0,0,-1,874,736,0,0
-343,288,0,0,0,0,0,0,0,0,0,-1,881,736,0,0
-336,288,0,0,0,0,0,0,0,0,0,-1,888,736,0,0
-329,288,0,0,0,0,0,0,0,0,0,-1,895,736,0,0
-322,288,0,0,0,0,0,0,0,0,0,-1,902,736,0,0
-315,288,0,0,0,0,0,0,0,0,0,-1,909,736,0,0
-308,288,0,0,0,0,0,0,0,0,0,-1,916,736,0,0
-301,288,0,0,0,0,0,0,0,0,0,-1,923,736,0,0
-294,288,0,0,0,0,0,0,0,0,0,-1,930,736,0,0
-287,288,0,0,0,0,0,0,0,0,0,-1,937,736,0,0
-280,288,0,0,0,0,0,0,0,0,0,-1,944,736,0,0
-273,288,0,0,0,0,0,0,0,0,0,-1,951,736,0,0
-266,288,0,0,0,0,0,0,0,0,0,-1,958,736,0,0
-259,288,0,0,0,0,0,0,0,0,0,-1,965,736,0,0
-252,288,0,0,0,0,0,0,0,0,0,-1,972,736,0,0
-245,288,0,0,0,0,0,0,0,0,0,-1,979,736,0,0
-238,288,0,0,0,0,0,0,0,0,0,-1,986,736,0,0
-231,288,0,0,0,0,0,0,0,0,0,-1,993,736,0,0
-224,288,0,0,0,0,0,0,0,0,0,-1,1000,736,0,0
-217,288,0,0,0,0,0,0,0,0,0,-1,1007,736,0,0
-210,288,0,0,0,0,0,0,0,0,0,-1,1014,736,0,0
-203,288,0,0,0,0,0,0,0,0,0,-1,1021,736,0,0
-196,288,0,0,0,0,0,0,0,0,0,-1,1028,736,0,0
-189,288,0,0,0,0,0,0,0,0,0,-1,1035,736,0,0
-182,288,0,0,0,0,0,0,0,0,0,-1,1042,736,0,0
-175,288,0,0,0,0,0,0,0,0,0,-1,1049,736,0,0
-168,288,0,0,0,0,0,0,0,0,0,-1,1056,736,0,0
-161,288,0,0,0,0,0,0,0,0,0,-1,1063,736,0,0
-154,288,0,0,0,0,0,0,0,0,0,-1,1070,736,0,0
-147,288,0,0,0,0,0,0,0,0,0,-1,1077,736,0,0
-140,288,0,0,0,0,0,0,0,0,0,-1,1084,736,0,0
-133,288,0,0,0,0,0,0,0,0,0,-1,1091,736,0,0
-126,288,0,0,0,0,0,0,0,0,0,-1,1098,736,0,0
-119,288,0,0,0,0,0,0,0,0,0,-1,1105,736,0,0
-112,288,0,0,0,0,0,0,0,0,0,-1,1112,736,0,0
-105,288,0,0,0,0,0,0,0,0,0,-1,1119,736,0,0
-98,288,0,0,0,0,0,0,0,0,0,-1,1126,736,0,0
-91,288,0,0,0,0,0,0,0,0,0,-1,1133,736,0,0
-84,288,0,0,0,0,0,0,0,0,0,-1,1140,736,0,0
-77,288,0,0,0,0,0,0,0,0,0,-1,1147,736,0,0
-70,288,0,0,0,0,0,0,0,0,0,-1,1154,736,0,0
-63,288,0,0,0,0,0,0,0,0,0,-1,1161,736,0,0
-56,288,0,0,0,0,0,0,0,0,0,-1,1168,736,0,0
-49,288,0,0,0,0,0,0,0,0,0,-1,1175,736,0,0
-42,288,0,0,0,0,0,0,0,0,0,-1,1182,736,0,0
-35,288,0,0,0,0,0,0,0,0,0,-1,1189,736,0,0
-28,288,0,0,0,0,0,0,0,0,0,-1,1196,736,0,0
-21,288,0,0,0,0,0,0,0,0,0,-1,1203,736,0,0
-14,288,0,0,0,0,0,0,0,0,0,-1,1210,736,0,0
-7,288,0,0,0,0,0,0,0,0,0,-1,1217,736,0,0
0,288,0,0,0,0,0,0,0,0,0,-1,1224,736,0,0
7,288,0,0,0,0,0,0,0,0,0,-1,1231,736,0,0
14,288,0,0,0,0,0,0,0,0,0,-1,1238,736,0,0
21,288,0,0,0,0,0,0,0,0,0,-1,1245,736,0,0
28,288,0,0,0,0,0,0,0,0,0,-1,1252,736,0,0
35,288,0,0,0,0,0,0,0,0,0,-1,1259,736,0,0
42,288,0,0,0,0,0,0,0,0,0,-1,1266,736,0,0
49,288,0,0,0,0,0,0,0,0,0,-1,1273,736,0,0
56,288,0,0,0,0,0,0,0,0,0,-1,1280,736,0,0
63,288,0,0,0,0,0,0,0,0,0,-1,1287,736,0,0
70,288,0,0,0,0,0,0,0,0,0,-1,1294,736,0,0
77,288,0,0,0,0,0,0,0,0,0,-1,1301,736,0,0
84,288,0,0,0,0,0,0,0,0,0,-1,1308,736,0,0
91,288,0,0,0,0,0,0,0,0,0,-1,1315,736,0,0
98,288,0,0,0,0,0,0,0,0,0,-1,1322,736,0,0
105,288,0,0,0,0,0,0,0,0,0,-1,1329,736,0,0
112,288,0,0,0,0,0,0,0,0,0,-1,1336,736,0,0
119,288,0,0,0,0,0,0,0,0,0,-1,1343,736,0,0
126,288,0,0,0,0,0,0,0,0,0,-1,1350,736,0,0
133,288,0,0,0,0,0,0,0,0,0,-1,1357,736,0,0
140,288,0,0,0,0,0,0,0,0,0,-1,1364,736,0,0
147,288,0,0,0,0,0,0,0,0,0,-1,1371,736,0,0
154,288,0,0,0,0,0,0,0,0,0,-1,1378,736,0,0
161,288,0,0,0,0,0,0,0,0,0,-1,1385,736,0,0
168,288,0,0,0,0,0,0,0,0,0,-1,1392,736,0,0
175,288,0,0,0,0,0,0,0,0,0,-1,1399,736,0,0
182,288,0,0,0,0,0,0,0,0,0,-1,1406,736,0,0
189,288,0,0,0,0,0,0,0,0,0,-1,1413,736,0,0
196,288,0,0,0,0,0,0,0,0,0,-1,1420,736,0,0
203,288,0,0,0,0,0,0,0,0,0,-1,1427,736,0,0
210,288,0,0,0,0,0,0,0,0,0,-1,1434,736,0,0
217,288,0,0,0,0,0,0,0,0,0,-1,1441,736,0,0
224,288,0,0,0,0,0,0,0,0,0,-1,1448,736,0,0
231,288,0,0,0,0,0,0,0,0,0,-1,1455,736,0,0
238,288,0,0,0,0,0,0,0,0,0,-1,1462,736,0,0
245,288,0,0,0,0,0,0,0,0,0,-1,1469,736,0,0
252,288,0,0,0,0,0,0,0,0,0,-1,1476,736,0,0
259,288,0,0,0,0,0,0,0,0,0,-1,1483,736,0,0
266,288,0,0,0,0,0,0,0,0,0,-1,1490,736,0,0
273,288,0,0,0,0,0,0,0,0,0,-1,1497,736,0,0
280,288,0,0,0,0,0,0,0,0,0,-1,1504,736,0,0
287,288,0,0,0,0,0,0,0,0,0,-1,1511,736,0,0
294,288,0,0,0,0,0,0,0,0,0,-1,1518,736,0,0
301,288,0,0,0,0,0,0,0,0,0,-1,1525,736,0,0
308,288,0,0,0,0,0,0,0,0,0,-1,1532,736,0,0
315,288,0,0,0,0,0,0,0,0,0,-1,1539,736,0,0
322,288,0,0,0,0,0,0,0,0,0,-1,1546,736,0,0
329,288,0,0,0,0,0,0,0,0,0,-1,1553,736,0,0
336,288,0,0,0,0,0,0,0,0,0,-1,1560,736,0,0
343,288,0,0,0,0,0,0,0,0,0,-1,1567,736,0,0
350,288,0,0,0,0,0,0,0,0,0,-1,1574,736,0,0
357,288,0,0,0,0,0,0,0,0,0,-1,1581,736,0,0
364,288,0,0,0,0,0,0,0,0,0,-1,1588,736,0,0
371,288,0,0,0,0,0,0,0,0,0,-1,1595,736,0,0
378,288,0,0,0,0,0,0,0,0,0,-1,1602,736,0,0
385,288,0,0,0,0,0,0,0,0,0,-1,1609,736,0,0
392,288,0,0,0,0,0,0,0,0,0,-1,1616,736,0,0
399,288,0,0,0,0,0,0,0,0,0,-1,1623,736,0,0
406,288,0,0,0,0,0,0,0,0,0,-1,1630,736,0,0
413,288,0,0,0,0,0,0,0,0,0,-1,1637,736,0,0
420,288,0,0,0,0,0,0,0,0,0,-1,1644,736,0,0
427,288,0,0,0,0,0,0,0,0,0,-1,1651,736,0,0
434,288,0,0,0,0,0,0,0,0,0,-1,1658,736,0,0
441,288,0,0,0,0,0,0,0,0,0,-1,1665,736,0,0
448,288,0,0,0,0,0,0,0,0,0,-1,1672,736,0,0
455,288,0,0,0,0,0,0,0,0,0,-1,1679,736,0,0
462,288,0,0,0,0,0,0,0,0,0,-1,1686,736,0,0
469,288,0,0,0,0,0,0,0,0,0,-1,1693,736,0,0
476,288,0,0,0,0,0,0,0,0,0,-1,1700,736,0,0
483,288,0,0,0,0,0,0,0,0,0,-1,1707,736,0,0
490,288,0,0,0,0,0,0,0,0,0,-1,1714,736,0,0
497,288,0,0,0,0,0,0,0,0,0,-1,1721,736,0,0
504,288,0,0,0,0,0,0,0,0,0,-1,1728,736,0,0
511,288,0,0,0,0,0,0,0,0,0,-1,1735,736,0,0
518,288,0,0,0,0,0,0,0,0,0,-1,1742,736,0,0
525,288,0,0,0,0,0,0,0,0,0,-1,1749,736,0,0
532,288,0,0,0,0,0,0,0,0,0,-1,1756,736,0,0
539,288,0,0,0,0,0,0,0,0,0,-1,1763,736,0,0
546,288,0,0,0,0,0,0,0,0,0,-1,1770,736,0,0
553,288,41.854,3.1908,0,0,0,0,0,0,0,-1,1777,736,41.854,-3.19077
560,288,42.3778,3.16785,0,0,0,0,0,0,0,-1,1784,736,42.3778,-3.16786
567,288,42.8933,3.22986,0,0,0,0,0,0,0,-1,1791,736,42.8934,-3.22988
574,288,43.3102,3.41937,0,0,0,0,0,0,0,-1,1798,736,43.3101,-3.41935
581,288,43.4434,3.88812,0,0,0,0,0,0,0,-1,1805,736,43.4433,-3.8881
588,288,44.3285,4.1286,0,0,0,0,0,0,0,-1,1812,736,44.3285,-4.12857
595,288,40.1831,2.50763,0,0,0,0,0,0,0,-1,1819,736,40.1831,-2.50762
602,288,26.7634,7.61279,0,0,0,0,0,0,0,-1,1826,736,26.7635,-7.61279
609,288,17.5223,4.86414,0,0,0,0,0,0,0,-1,1833,736,17.5223,-4.86412
616,288,13.4886,0.801331,0,0,0,0,0,0,0,-1,1840,736,13.4886,-0.80132
623,288,27.6566,-3.67975,0,0,0,0,0,0,0,-1,1847,736,27.6566,3.67976
630,288,27.5558,-3.12335,0.00383616,-0.0010481,0.000545721,0.00389639,-0.00110833,0.109925,0.00303525,0.0257052,1854,736,27.5558,3.12334
637,288,27.5923,-2.59656,0.00268664,-0.00106451,0.000578651,0.00277387,-0.00115174,0.149627,0.00233006,0.0114906,1861,736,27.5923,2.59653
644,288,27.5858,-2.05518,0.00144598,-0.000834742,0.0004364,0.00152663,-0.000915392,0.182746,0.00142455,0.0103829,1868,736,27.5858,2.05519
651,288,27.5417,-1.51074,0.000620272,-0.000434334,0.000260824,0.000681253,-0.000495315,0.229674,0.000682113,0.0115158,1875,736,27.5417,1.51074
658,288,27.5121,-0.944885,0.000112558,4.39144e-05,0.000163502,0.000245302,-8.88298e-05,0.681942,0.000199838,0.0165125,1882,736,27.5121,0.944901
665,288,27.504,-0.409729,-0.000441148,0.000590128,0.000130856,0.000606473,-0.000457493,1.44653,0.000616285,0.0173034,1889,736,27.504,0.409721
672,288,27.4928,0.106934,-0.00103202,0.00114615,0.000118819,0.00115261,-0.00103848,1.51646,0.0012656,0.0166412,1896,736,27.4928,-0.106963
679,288,27.4845,0.669128,-0.00160355,0.00189226,0.000175059,0.00190101,-0.00161229,1.52089,0.00203069,0.0142544,1903,736,27.4845,-0.669134
686,288,27.4584,1.16974,-0.00215175,0.00270214,0.000231389,0.00271314,-0.00216276,1.52327,0.00282107,0.0109899,1910,736,27.4584,-1.16971
693,288,27.4681,1.77026,-0.00261255,0.0036204,0.000342543,0.00363917,-0.00263132,1.51606,0.00363582,0.0199509,1917,736,27.4681,-1.77024
700,288,27.3674,2.41229,-0.00288869,0.00479781,0.000596812,0.00484387,-0.00293475,1.49377,0.00453585,0.0441522,1924,736,27.3675,-2.41232
707,288,27.4305,3.06891,0,0,0,0,0,0,0,-1,1931,736,27.4306,-3.06891
714,288,23.0149,3.82544,0,0,0,0,0,0,0,-1,1938,736,23.0149,-3.82541
721,288,18.0732,3.69385,0,0,0,0,0,0,0,-1,1945,736,18.0732,-3.69387
728,288,19.3208,3.91455,0,0,0,0,0,0,0,-1,1952,736,19.3209,-3.91455
735,288,18.7712,3.51312,0,0,0,0,0,0,0,-1,1959,736,18.7713,-3.51309
742,288,0,0,0,0,0,0,0,0,0,-1,1966,736,0,0
749,288,0,0,0,0,0,0,0,0,0,-1,1973,736,0,0
756,288,0,0,0,0,0,0,0,0,0,-1,1980,736,0,0
763,288,0,0,0,0,0,0,0,0,0,-1,1987,736,0,0
770,288,0,0,0,0,0,0,0,0,0,-1,1994,736,0,0
777,288,0,0,0,0,0,0,0,0,0,-1,2001,736,0,0
784,288,0,0,0,0,0,0,0,0,0,-1,2008,736,0,0
791,288,0,0,0,0,0,0,0,0,0,-1,2015,736,0,0
798,288,0,0,0,0,0,0,0,0,0,-1,2022,736,0,0
805,288,0,0,0,0,0,0,0,0,0,-1,2029,736,0,0
812,288,0,0,0,0,0,0,0,0,0,-1,2036,736,0,0
-700,281,0,0,0,0,0,0,0,0,0,-1,524,743,0,0
-693,281,0,0,0,0,0,0,0,0,0,-1,531,743,0,0
-686,281,0,0,0,0,0,0,0,0,0,-1,538,743,0,0
-679,281,0,0,0,0,0,0,0,0,0,-1,545,743,0,0
-672,281,0,0,0,0,0,0,0,0,0,-1,552,743,0,0
-665,281,0,0,0,0,0,0,0,0,0,-1,559,743,0,0
-658,281,0,0,0,0,0,0,0,0,0,-1,566,743,0,0
-651,281,0,0,0,0,0,0,0,0,0,-1,573,743,0,0
-644,281,0,0,0,0,0,0,0,0,0,-1,580,743,0,0
-637,281,0,0,0,0,0,0,0,0,0,-1,587,743,0,0
-630,281,0,0,0,0,0,0,0,0,0,-1,594,743,0,0
-623,281,-19.1697,5.67017,0,0,0,0,0,0,0,-1,601,743,-19.1697,-5.67019
-616,281,-11.5906,2.6853,0,0,0,0,0,0,0,-1,608,743,-11.5906,-2.68529
-609,281,-16.1972,4.14838,0,0,0,0,0,0,0,-1,615,743,-16.1972,-4.14837
-602,281,-12.7697,3.94086,0,0,0,0,0,0,0,-1,622,743,-12.7697,-3.94086
-595,281,-10.4797,-1.07404,0,0,0,0,0,0,0,-1,629,743,-10.4798,1.07402
-588,281,-13.277,1.49817,0,0,0,0,0,0,0,-1,636,743,-13.2771,-1.49817
-581,281,-17.9316,0.497253,0,0,0,0,0,0,0,-1,643,743,-17.9316,-0.497282
-574,281,-17.8251,0.114746,0.0065117,0.00535002,0.000916293,0.00701575,0.00484598,0.502909,0.00414761,0.0388597,650,743,-17.8252,-0.114738
-567,281,-17.9446,-0.325562,0.00409826,0.00370636,0.000830139,0.00475526,0.00304935,0.669498,0.00278173,0.0187663,657,743,-17.9447,0.325572
-560,281,-17.995,-0.857361,0.00240432,0.00236136,0.000825848,0.00320897,0.00155671,0.772398,0.00185297,0.00848152,664,743,-17.995,0.857367
-553,281,-17.9628,-1.37061,0.00129654,0.00129686,0.000851223,0.00214792,0.000445478,0.785493,0.00130897,0.0135718,671,743,-17.9628,1.37063
-546,281,-17.9789,-1.85413,0.000603153,0.000373519,0.000950961,0.0014462,-0.000469531,0.72532,0.00115297,0.0149594,678,743,-17.9789,1.85415
-539,281,-17.991,-2.37494,0.00011347,-0.000330101,0.00107759,0.000991861,-0.00120849,0.683907,0.00127242,0.0134797,685,743,-17.9911,2.37493
-532,281,-17.9993,-2.86053,-0.00014312,-0.00131927,0.00110593,0.000521365,-0.00198375,0.541037,0.00152627,0.0135887,692,743,-17.9993,2.86055
-525,281,-18.0405,-3.37231,0.000182218,-0.00130717,0.00139798,0.00102148,-0.00214643,0.54067,0.00186704,0.0153014,699,743,-18.0405,3.3723
-518,281,-18.0593,-3.91168,0.000497989,-0.000334854,0.0015588,0.00169503,-0.0015319,0.654875,0.00186386,0.0118131,706,743,-18.0593,3.91167
-511,281,-18.0727,-4.43427,-0.000142947,0.00029051,0.00110179,0.00119668,-0.00104912,0.882511,0.00129755,0.0108824,713,743,-18.0727,4.43424
-504,281,-18.1099,-4.93134,-0.00044237,0.00158652,0.000872898,0.00191037,-0.000766227,1.21553,0.0015917,0.0143486,720,743,-18.1098,4.93133
-497,281,-17.9611,-5.35626,-0.0011266,0.00338759,0.000440007,0.00343008,-0.00116908,1.47453,0.00276022,0.0463297,727,743,-17.9611,5.35626
-490,281,-17.7495,-5.66797,0,0,0,0,0,0,0,-1,734,743,-17.7495,5.66797
-483,281,-22.1078,-2.34973,0,0,0,0,0,0,0,-1,741,743,-22.1078,2.3497
-476,281,-28.0016,2.17786,0,0,0,0,0,0,0,-1,748,743,-28.0016,-2.17786
-469,281,-31.5054,1.99506,0,0,0,0,0,0,0,-1,755,743,-31.5054,-1.99505
-462,281,-32.2655,0.794128,-0.0302993,0.0164145,-0.0121781,0.0193987,-0.0332835,-1.33049,0.0307662,0.0465431,762,743,-32.2655,-0.794136
-455,281,-33.244,-0.44635,0,0,0,0,0,0,0,-1,769,743,-33.244,0.446338
-448,281,-34.0654,-1.4256,0,0,0,0,0,0,0,-1,776,743,-34.0655,1.42557
-441,281,-34.881,-2.367,0,0,0,0,0,0,0,-1,783,743,-34.8811,2.36703
-434,281,0,0,0,0,0,0,0,0,0,-1,790,743,0,0
-427,281,0,0,0,0,0,0,0,0,0,-1,797,743,0,0
-420,281,0,0,0,0,0,0,0,0,0,-1,804,743,0,0
-413,281,0,0,0,0,0,0,0,0,0,-1,811,743,0,0
-406,281,0,0,0,0,0,0,0,0,0,-1,818,743,0,0
-399,281,0,0,0,0,0,0,0,0,0,-1,825,743,0,0
-392,281,0,0,0,0,0,0,0,0,0,-1,832,743,0,0
-385,281,0,0,0,0,0,0,0,0,0,-1,839,743,0,0
-378,281,0,0,0,0,0,0,0,0,0,-1,846,743,0,0
-371,281,0,0,0,0,0,0,0,0,0,-1,853,743,0,0
-364,281,0,0,0,0,0,0,0,0,0,-1,860,743,0,0
-357,281,0,0,0,0,0,0,0,0,0,-1,867,743,0,0
-350,281,0,0,0,0,0,0,0,0,0,-1,874,743,0,0
-343,281,0,0,0,0,0,0,0,0,0,-1,881,743,0,0
-336,281,0,0,0,0,0,0,0,0,0,-1,888,743,0,0
-329,281,0,0,0,0,0,0,0,0,0,-1,895,743,0,0
-322,281,0,0,0,0,0,0,0,0,0,-1,902,743,0,0
-315,281,0,0,0,0,0,0,0,0,0,-1,909,743,0,0
-308,281,0,0,0,0,0,0,0,0,0,-1,916,743,0,0
-301,281,0,0,0,0,0,0,0,0,0,-1,923,743,0,0
-294,281,0,0,0,0,0,0,0,0,0,-1,930,743,0,0
-287,281,0,0,0,0,0,0,0,0,0,-1,937,743,0,0
-280,281,0,0,0,0,0,0,0,0,0,-1,944,743,0,0
-273,281,0,0,0,0,0,0,0,0,0,-1,951,743,0,0
-266,281,0,0,0,0,0,0,0,0,0,-1,958,743,0,0
-259,281,0,0,0,0,0,0,0,0,0,-1,965,743,0,0
-252,281,0,0,0,0,0,0,0,0,0,-1,972,743,0,0
-245,281,0,0,0,0,0,0,0,0,0,-1,979,743,0,0
-238,281,0,0,0,0,0,0,0,0,0,-1,986,743,0,0
-231,281,0,0,0,0,0,0,0,0,0,-1,993,743,0,0
-224,281,0,0,0,0,0,0,0,0,0,-1,1000,743,0,0
-217,281,0,0,0,0,0,0,0,0,0,-1,1007,743,0,0
-210,281,0,0,0,0,0,0,0,0,0,-1,1014,743,0,0
-203,281,0,0,0,0,0,0,0,0,0,-1,1021,743,0,0
-196,281,0,0,0,0,0,0,0,0,0,-1,1028,743,0,0
-189,281,0,0,0,0,0,0,0,0,0,-1,1035,743,0,0
-182,281,0,0,0,0,0,0,0,0,0,-1,1042,743,0,0
-175,281,0,0,0,0,0,0,0,0,0,-1,1049,743,0,0
-168,281,0,0,0,0,0,0,0,0,0,-1,1056,743,0,0
-161,281,0,0,0,0,0,0,0,0,0,-1,1063,743,0,0
-154,281,0,0,0,0,0,0,0,0,0,-1,1070,743,0,0
-147,281,0,0,0,0,0,0,0,0,0,-1,1077,743,0,0
-140,281,0,0,0,0,0,0,0,0,0,-1,1084,743,0,0
-133,281,0,0,0,0,0,0,0,0,0,-1,1091,743,0,0
-126,281,0,0,0,0,0,0,0,0,0,-1,1098,743,0,0
-119,281,0,0,0,0,0,0,0,0,0,-1,1105,743,0,0
-112,281,0,0,0,0,0,0,0,0,0,-1,1112,743,0,0
-105,281,0,0,0,0,0,0,0,0,0,-1,1119,743,0,0
-98,281,0,0,0,0,0,0,0,0,0,-1,1126,743,0,0
-91,281,0,0,0,0,0,0,0,0,0,-1,1133,743,0,0
-84,281,0,0,0,0,0,0,0,0,0,-1,1140,743,0,0
-77,281,0,0,0,0,0,0,0,0,0,-1,1147,743,0,0
-70,281,0,0,0,0,0,0,0,0,0,-1,1154,743,0,0
-63,281,0,0,0,0,0,0,0,0,0,-1,1161,743,0,0
-56,281,0,0,0,0,0,0,0,0,0,-1,1168,743,0,0
-49,281,0,0,0,0,0,0,0,0,0,-1,1175,743,0,0
-42,281,0,0,0,0,0,0,0,0,0,-1,1182,743,0,0
-35,281,0,0,0,0,0,0,0,0,0,-1,1189,743,0,0
-28,281,0,0,0,0,0,0,0,0,0,-1,1196,743,0,0
-21,281,0,0,0,0,0,0,0,0,0,-1,1203,743,0,0
-14,281,0,0,0,0,0,0,0,0,0,-1,1210,743,0,0
-7,281,0,0,0,0,0,0,0,0,0,-1,1217,743,0,0
0,281,0,0,0,0,0,0,0,0,0,-1,1224,743,0,0
7,281,0,0,0,0,0,0,0,0,0,-1,1231,743,0,0
14,281,0,0,0,0,0,0,0,0,0,-1,1238,743,0,0
21,281,0,0,0,0,0,0,0,0,0,-1,1245,743,0,0
28,281,0,0,0,0,0,0,0,0,0,-1,1252,743,0,0
35,281,0,0,0,0,0,0,0,0,0,-1,1259,743,0,0
42,281,0,0,0,0,0,0,0,0,0,-1,1266,743,0,0
49,281,0,0,0,0,0,0,0,0,0,-1,1273,743,0,0
56,281,0,0,0,0,0,0,0,0,0,-1,1280,743,0,0
63,281,0,0,0,0,0,0,0,0,0,-1,1287,743,0,0
70,281,0,0,0,0,0,0,0,0,0,-1,1294,743,0,0
77,281,0,0,0,0,0,0,0,0,0,-1,1301,743,0,0
84,281,0,0,0,0,0,0,0,0,0,-1,1308,743,0,0
91,281,0,0,0,0,0,0,0,0,0,-1,1315,743,0,0
98,281,0,0,0,0,0,0,0,0,0,-1,1322,743,0,0
105,281,0,0,0,0,0,0,0,0,0,-1,1329,743,0,0
112,281,0,0,0,0,0,0,0,0,0,-1,1336,743,0,0
119,281,0,0,0,0,0,0,0,0,0,-1,1343,743,0,0
126,281,0,0,0,0,0,0,0,0,0,-1,1350,743,0,0
133,281,0,0,0,0,0,0,0,0,0,-1,1357,743,0,0
140,281,0,0,0,0,0,0,0,0,0,-1,1364,743,0,0
147,281,0,0,0,0,0,0,0,0,0,-1,1371,743,0,0
154,281,0,0,0,0,0,0,0,0,0,-1,1378,743,0,0
161,281,0,0,0,0,0,0,0,0,0,-1,1385,743,0,0
168,281,0,0,0,0,0,0,0,0,0,-1,1392,743,0,0
175,281,0,0,0,0,0,0,0,0,0,-1,1399,743,0,0
182,281,0,0,0,0,0,0,0,0,0,-1,1406,743,0,0
189,281,0,0,0,0,0,0,0,0,0,-1,1413,743,0,0
196,281,0,0,0,0,0,0,0,0,0,-1,1420,743,0,0
203,281,0,0,0,0,0,0,0,0,0,-1,1427,743,0,0
210,281,0,0,0,0,0,0,0,0,0,-1,1434,743,0,0
217,281,0,0,0,0,0,0,0,0,0,-1,1441,743,0,0
224,281,0,0,0,0,0,0,0,0,0,-1,1448,743,0,0
231,281,0,0,0,0,0,0,0,0,0,-1,1455,743,0,0
238,281,0,0,0,0,0,0,0,0,0,-1,1462,743,0,0
245,281,0,0,0,0,0,0,0,0,0,-1,1469,743,0,0
252,281,0,0,0,0,0,0,0,0,0,-1,1476,743,0,0
259,281,0,0,0,0,0,0,0,0,0,-1,1483,743,0,0
266,281,0,0,0,0,0,0,0,0,0,-1,1490,743,0,0
273,281,0,0,0,0,0,0,0,0,0,-1,1497,743,0,0
280,281,0,0,0,0,0,0,0,0,0,-1,1504,743,0,0
287,281,0,0,0,0,0,0,0,0,0,-1,1511,743,0,0
294,281,0,0,0,0,0,0,0,0,0,-1,1518,743,0,0
301,281,0,0,0,0,0,0,0,0,0,-1,1525,743,0,0
308,281,0,0,0,0,0,0,0,0,0,-1,1532,743,0,0
315,281,0,0,0,0,0,0,0,0,0,-1,1539,743,0,0
322,281,0,0,0,0,0,0,0,0,0,-1,1546,743,0,0
329,281,0,0,0,0,0,0,0,0,0,-1,1553,743,0,0
336,281,0,0,0,0,0,0,0,0,0,-1,1560,743,0,0
343,281,0,0,0,0,0,0,0,0,0,-1,1567,743,0,0
350,281,0,0,0,0,0,0,0,0,0,-1,1574,743,0,0
357,281,0,0,0,0,0,0,0,0,0,-1,1581,743,0,0
364,281,0,0,0,0,0,0,0,0,0,-1,1588,743,0,0
371,281,0,0,0,0,0,0,0,0,0,-1,1595,743,0,0
378,281,0,0,0,0,0,0,0,0,0,-1,1602,743,0,0
385,281,0,0,0,0,0,0,0,0,0,-1,1609,743,0,0
392,281,0,0,0,0,0,0,0,0,0,-1,1616,743,0,0
399,281,0,0,0,0,0,0,0,0,0,-1,1623,743,0,0
406,281,0,0,0,0,0,0,0,0,0,-1,1630,743,0,0
413,281,0,0,0,0,0,0,0,0,0,-1,1637,743,0,0
420,281,0,0,0,0,0,0,0,0,0,-1,1644,743,0,0
427,281,0,0,0,0,0,0,0,0,0,-1,1651,743,0,0
434,281,0,0,0,0,0,0,0,0,0,-1,1658,743,0,0
441,281,0,0,0,0,0,0,0,0,0,-1,1665,743,0,0
448,281,0,0,0,0,0,0,0,0,0,-1,1672,743,0,0
455,281,0,0,0,0,0,0,0,0,0,-1,1679,743,0,0
462,281,0,0,0,0,0,0,0,0,0,-1,1686,743,0,0
469,281,0,0,0,0,0,0,0,0,0,-1,1693,743,0,0
476,281,0,0,0,0,0,0,0,0,0,-1,1700,743,0,0
483,281,0,0,0,0,0,0,0,0,0,-1,1707,743,0,0
490,281,0,0,0,0,0,0,0,0,0,-1,1714,743,0,0
497,281,0,0,0,0,0,0,0,0,0,-1,1721,743,0,0
504,281,0,0,0,0,0,0,0,0,0,-1,1728,743,0,0
511,281,0,0,0,0,0,0,0,0,0,-1,1735,743,0,0
518,281,0,0,0,0,0,0,0,0,0,-1,1742,743,0,0
525,281,0,0,0,0,0,0,0,0,0,-1,1749,743,0,0
532,281,0,0,0,0,0,0,0,0,0,-1,1756,743,0,0
539,281,0,0,0,0,0,0,0,0,0,-1,1763,743,0,0
546,281,0,0,0,0,0,0,0,0,0,-1,1770,743,0,0
553,281,0,0,0,0,0,0,0,0,0,-1,1777,743,0,0
560,281,42.7839,3.34399,0,0,0,0,0,0,0,-1,1784,743,42.7839,-3.34397
567,281,43.0929,3.37225,0,0,0,0,0,0,0,-1,1791,743,43.0929,-3.37226
574,281,43.1315,3.4599,0,0,0,0,0,0,0,-1,1798,743,43.1315,-3.45992
581,281,43.3938,3.49469,0,0,0,0,0,0,0,-1,1805,743,43.3938,-3.49467
588,281,44.25,3.76233,0,0,0,0,0,0,0,-1,1812,743,44.25,-3.76234
595,281,45.0981,4.04681,0,0,0,0,0,0,0,-1,1819,743,45.0981,-4.0468
602,281,43.4924,3.27167,0,0,0,0,0,0,0,-1,1826,743,43.4925,-3.27166
609,281,32.7925,1.28723,0,0,0,0,0,0,0,-1,1833,743,32.7925,-1.28722
616,281,21.3191,-0.253906,0,0,0,0,0,0,0,-1,1840,743,21.3191,0.253931
623,281,27.9048,-3.52081,0,0,0,0,0,0,0,-1,1847,743,27.9048,3.52082
630,281,28.0343,-3.06915,0.00472705,-0.00144689,0.0011103,0.00492066,-0.00164049,0.172634,0.00394272,0.0457467,1854,743,28.0343,3.06914
637,281,28.1008,-2.57263,0.00342093,-0.0015124,0.00106839,0.00364237,-0.00173384,0.204368,0.00316848,0.0148152,1861,743,28.1009,2.57264
644,281,28.0875,-2.02368,0.00196652,-0.00130546,0.00084108,0.00217006,-0.001509,0.237436,0.00213551,0.0103016,1868,743,28.0875,2.02368
651,281,28.0707,-1.49731,0.00100632,-0.000884941,0.000500982,0.00113083,-0.00100945,0.243595,0.00123636,0.0114278,1875,743,28.0707,1.4973
658,281,28.0406,-0.947937,0.000538636,-0.000370508,0.000292399,0.000624557,-0.000456429,0.285804,0.000626619,0.0197898,1882,743,28.0407,0.947937
665,281,28.0197,-0.406067,4.25671e-05,0.000262277,0.00023044,0.000407708,-0.000102863,1.00782,0.000311801,0.0211515,1889,743,28.0196,0.406084
672,281,28.0199,0.125183,-0.000414996,0.000878453,0.000217846,0.000914157,-0.0004507,1.40834,0.000803002,0.0137493,1896,743,28.0199,-0.125205
679,281,28.0332,0.646362,-0.000797184,0.00169141,0.000317602,0.0017313,-0.000837078,1.44584,0.00151252,0.0210033,1903,743,28.0332,-0.646362
686,281,27.9711,1.15674,-0.00113188,0.00254324,0.000423794,0.00259148,-0.00118012,1.45746,0.00222778,0.0158469,1910,743,27.9711,-1.15673
693,281,27.955,1.70331,-0.00133717,0.00350129,0.000603627,0.00357546,-0.00141134,1.44854,0.00296812,0.0119573,1917,743,27.955,-1.70334
700,281,27.9287,2.27795,-0.00133531,0.00468146,0.000926111,0.00482078,-0.00147463,1.42148,0.00380195,0.0288728,1924,743,27.9287,-2.27793
707,281,27.9589,2.83154,0,0,0,0,0,0,0,-1,1931,743,27.9588,-2.83153
714,281,25.0125,2.5105,0,0,0,0,0,0,0,-1,1938,743,25.0124,-2.51053
721,281,16.9656,3.22174,0,0,0,0,0,0,0,-1,1945,743,16.9656,-3.22172
728,281,19.0251,3.63934,0,0,0,0,0,0,0,-1,1952,743,19.0252,-3.63932
735,281,19.0869,2.50311,0,0,0,0,0,0,0,-1,1959,743,19.0869,-2.5031
742,281,0,0,0,0,0,0,0,0,0,-1,1966,743,0,0
749,281,0,0,0,0,0,0,0,0,0,-1,1973,743,0,0
756,281,0,0,0,0,0,0,0,0,0,-1,1980,743,0,0
763,281,0,0,0,0,0,0,0,0,0,-1,1987,743,0,0
770,281,0,0,0,0,0,0,0,0,0,-1,1994,743,0,0
777,281,0,0,0,0,0,0,0,0,0,-1,2001,743,0,0
784,281,0,0,0,0,0,0,0,0,0,-1,2008,743,0,0
791,281,0,0,0,0,0,0,0,0,0,-1,2015,743,0,0
798,281,0,0,0,0,0,0,0,0,0,-1,2022,743,0,0
805,281,0,0,0,0,0,0,0,0,0,-1,2029,743,0,0
812,281,0,0,0,0,0,0,0,0,0,-1,2036,743,0,0
-700,274,0,0,0,0,0,0,0,0,0,-1,524,750,0,0
-693,274,0,0,0,0,0,0,0,0,0,-1,531,750,0,0
-686,274,0,0,0,0,0,0,0,0,0,-1,538,750,0,0
-679,274,0,0,0,0,0,0,0,0,0,-1,545,750,0,0
-672,274,0,0,0,0,0,0,0,0,0,-1,552,750,0,0
-665,274,0,0,0,0,0,0,0,0,0,-1,559,750,0,0
-658,274,0,0,0,0,0,0,0,0,0,-1,566,750,0,0
-651,274,0,0,0,0,0,0,0,0,0,-1,573,750,0,0
-644,274,0,0,0,0,0,0,0,0,0,-1,580,750,0,0
-637,274,0,0,0,0,0,0,0,0,0,-1,587,750,0,0
-630,274,0,0,0,0,0,0,0,0,0,-1,594,750,0,0
-623,274,-19.6909,5.12701,0,0,0,0,0,0,0,-1,601,750,-19.6908,-5.12703
-616,274,-17.9133,3.9024,0,0,0,0,0,0,0,-1,608,750,-17.9133,-3.90239
-609,274,-15.9735,4.90363,0,0,0,0,0,0,0,-1,615,750,-15.9735,-4.90364
-602,274,-18.3148,3.80109,0,0,0,0,0,0,0,-1,622,750,-18.3148,-3.80109
-595,274,-18.4301,3.18054,0,0,0,0,0,0,0,-1,629,750,-18.43,-3.18055
-588,274,-18.6874,1.16791,0,0,0,0,0,0,0,-1,636,750,-18.6874,-1.16788
-581,274,-18.5312,0.686035,0.0105008,0.00773206,-0.000629473,0.0106372,0.00759567,-0.213375,0.00632624,0.0468805,643,750,-18.5312,-0.686043
-574,274,-18.3301,0.152466,0.00700992,0.00549019,-0.000254386,0.00705137,0.00544874,-0.161524,0.0042682,0.0243569,650,750,-18.3301,-0.152465
-567,274,-18.4579,-0.32782,0.00451599,0.0037706,5.10027e-05,0.00451946,0.00376713,0.0680017,0.00279614,0.0231163,657,750,-18.4579,0.32785
-560,274,-18.4948,-0.809937,0.00269394,0.00234966,0.000335842,0.00289919,0.00214441,0.548573,0.00173676,0.0137966,664,750,-18.4948,0.809911
-553,274,-18.502,-1.33826,0.00143323,0.00117193,0.000598195,0.00191488,0.000690284,0.677883,0.00111981,0.00903425,671,750,-18.502,1.33825
-546,274,-18.5215,-1.85413,0.000559907,0.000149072,0.000912619,0.00128994,-0.000580962,0.6747,0.00110572,0.0103584,678,750,-18.5215,1.8541
-539,274,-18.5269,-2.36566,-0.000174548,-0.000520228,0.0011446,0.00081019,-0.00150497,0.710462,0.00135657,0.0112046,685,750,-18.5269,2.36563
-532,274,-18.5372,-2.83887,-0.000666793,-0.00136392,0.00122706,0.00026025,-0.00229096,0.647012,0.00162104,0.0124269,692,750,-18.5372,2.83889
-525,274,-18.5547,-3.33832,-0.00048994,-0.00109409,0.00151501,0.000752819,-0.00233685,0.686994,0.00186033,0.0129331,699,750,-18.5547,3.33829
-518,274,-18.5684,-3.88177,-0.000360386,0.000204064,0.00162564,0.00157179,-0.00172812,0.871346,0.00190592,0.0125785,706,750,-18.5684,3.88177
-511,274,-18.5916,-4.42017,-0.00107649,0.00103339,0.00111448,0.00151304,-0.00155614,1.16438,0.00177205,0.0128983,713,750,-18.5916,4.42018
-504,274,-18.6299,-4.94147,-0.00136655,0.00250267,0.000832453,0.00267417,-0.00153805,1.36762,0.00246124,0.0246347,720,750,-18.6299,4.94144
-497,274,-18.6779,-5.45331,0,0,0,0,0,0,0,-1,727,750,-18.6779,5.4533
-490,274,-13.6545,-3.58826,0,0,0,0,0,0,0,-1,734,750,-13.6546,3.58825
-483,274,-27.8608,1.30981,0,0,0,0,0,0,0,-1,741,750,-27.8608,-1.30979
-476,274,-31.7294,1.66565,0,0,0,0,0,0,0,-1,748,750,-31.7293,-1.66563
-469,274,-31.8704,1.97821,0,0,0,0,0,0,0,-1,755,750,-31.8704,-1.97821
-462,274,-32.548,1.03613,0,0,0,0,0,0,0,-1,762,750,-32.548,-1.03611
-455,274,-33.2813,0.241638,0,0,0,0,0,0,0,-1,769,750,-33.2813,-0.241659
-448,274,-34.0866,-1.30023,0,0,0,0,0,0,0,-1,776,750,-34.0866,1.30024
-441,274,0,0,0,0,0,0,0,0,0,-1,783,750,0,0
-434,274,0,0,0,0,0,0,0,0,0,-1,790,750,0,0
-427,274,0,0,0,0,0,0,0,0,0,-1,797,750,0,0
-420,274,0,0,0,0,0,0,0,0,0,-1,804,750,0,0
-413,274,0,0,0,0,0,0,0,0,0,-1,811,750,0,0
-406,274,0,0,0,0,0,0,0,0,0,-1,818,750,0,0
-399,274,0,0,0,0,0,0,0,0,0,-1,825,750,0,0
-392,274,0,0,0,0,0,0,0,0,0,-1,832,750,0,0
-385,274,0,0,0,0,0,0,0,0,0,-1,839,750,0,0
-378,274,0,0,0,0,0,0,0,0,0,-1,846,750,0,0
-371,274,0,0,0,0,0,0,0,0,0,-1,853,750,0,0
-364,274,0,0,0,0,0,0,0,0,0,-1,860,750,0,0
-357,274,0,0,0,0,0,0,0,0,0,-1,867,750,0,0
-350,274,0,0,0,0,0,0,0,0,0,-1,874,750,0,0
-343,274,0,0,0,0,0,0,0,0,0,-1,881,750,0,0
-336,274,0,0,0,0,0,0,0,0,0,-1,888,750,0,0
-329,274,0,0,0,0,0,0,0,0,0,-1,895,750,0,0
-322,274,0,0,0,0,0,0,0,0,0,-1,902,750,0,0
-315,274,0,0,0,0,0,0,0,0,0,-1,909,750,0,0
-308,274,0,0,0,0,0,0,0,0,0,-1,916,750,0,0
-301,274,0,0,0,0,0,0,0,0,0,-1,923,750,0,0
-294,274,0,0,0,0,0,0,0,0,0,-1,930,750,0,0
-287,274,0,0,0,0,0,0,0,0,0,-1,937,750,0,0
-280,274,0,0,0,0,0,0,0,0,0,-1,944,750,0,0
-273,274,0,0,0,0,0,0,0,0,0,-1,951,750,0,0
-266,274,0,0,0,0,0,0,0,0,0,-1,958,750,0,0
-259,274,0,0,0,0,0,0,0,0,0,-1,965,750,0,0
-252,274,0,0,0,0,0,0,0,0,0,-1,972,750,0,0
-245,274,0,0,0,0,0,0,0,0,0,-1,979,750,0,0
-238,274,0,0,0,0,0,0,0,0,0,-1,986,750,0,0
-231,274,0,0,0,0,0,0,0,0,0,-1,993,750,0,0
-224,274,0,0,0,0,0,0,0,0,0,-1,1000,750,0,0
-217,274,0,0,0,0,0,0,0,0,0,-1,1007,750,0,0
-210,274,0,0,0,0,0,0,0,0,0,-1,1014,750,0,0
-203,274,0,0,0,0,0,0,0,0,0,-1,1021,750,0,0
-196,274,0,0,0,0,0,0,0,0,0,-1,1028,750,0,0
-189,274,0,0,0,0,0,0,0,0,0,-1,1035,750,0,0
-182,274,0,0,0,0,0,0,0,0,0,-1,1042,750,0,0
-175,274,0,0,0,0,0,0,0,0,0,-1,1049,750,0,0
-168,274,0,0,0,0,0,0,0,0,0,-1,1056,750,0,0
-161,274,0,0,0,0,0,0,0,0,0,-1,1063,750,0,0
-154,274,0,0,0,0,0,0,0,0,0,-1,1070,750,0,0
-147,274,0,0,0,0,0,0,0,0,0,-1,1077,750,0,0
-140,274,0,0,0,0,0,0,0,0,0,-1,1084,750,0,0
-133,274,0,0,0,0,0,0,0,0,0,-1,1091,750,0,0
-126,274,0,0,0,0,0,0,0,0,0,-1,1098,750,0,0
-119,274,0,0,0,0,0,0,0,0,0,-1,1105,750,0,0
-112,274,0,0,0,0,0,0,0,0,0,-1,1112,750,0,0
-105,274,0,0,0,0,0,0,0,0,0,-1,1119,750,0,0
-98,274,0,0,0,0,0,0,0,0,0,-1,1126,750,0,0
-91,274,0,0,0,0,0,0,0,0,0,-1,1133,750,0,0
-84,274,0,0,0,0,0,0,0,0,0,-1,1140,750,0,0
-77,274,0,0,0,0,0,0,0,0,0,-1,1147,750,0,0
-70,274,0,0,0,0,0,0,0,0,0,-1,1154,750,0,0
-63,274,0,0,0,0,0,0,0,0,0,-1,1161,750,0,0
-56,274,0,0,0,0,0,0,0,0,0,-1,1168,750,0,0
-49,274,0,0,0,0,0,0,0,0,0,-1,1175,750,0,0
-42,274,0,0,0,0,0,0,0,0,0,-1,1182,750,0,0
-35,274,0,0,0,0,0,0,0,0,0,-1,1189,750,0,0
-28,274,0,0,0,0,0,0,0,0,0,-1,1196,750,0,0
-21,274,0,0,0,0,0,0,0,0,0,-1,1203,750,0,0
-14,274,0,0,0,0,0,0,0,0,0,-1,1210,750,0,0
-7,274,0,0,0,0,0,0,0,0,0,-1,1217,750,0,0
0,274,0,0,0,0,0,0,0,0,0,-1,1224,750,0,0
7,274,0,0,0,0,0,0,0,0,0,-1,1231,750,0,0
14,274,0,0,0,0,0,0,0,0,0,-1,1238,750,0,0
21,274,0,0,0,0,0,0,0,0,0,-1,1245,750,0,0
28,274,0,0,0,0,0,0,0,0,0,-1,1252,750,0,0
35,274,0,0,0,0,0,0,0,0,0,-1,1259,750,0,0
42,274,0,0,0,0,0,0,0,0,0,-1,1266,750,0,0
49,274,0,0,0,0,0,0,0,0,0,-1,1273,750,0,0
56,274,0,0,0,0,0,0,0,0,0,-1,1280,750,0,0
63,274,0,0,0,0,0,0,0,0,0,-1,1287,750,0,0
70,274,0,0,0,0,0,0,0,0,0,-1,1294,750,0,0
77,274,0,0,0,0,0,0,0,0,0,-1,1301,750,0,0
84,274,0,0,0,0,0,0,0,0,0,-1,1308,750,0,0
91,274,0,0,0,0,0,0,0,0,0,-1,1315,750,0,0
98,274,0,0,0,0,0,0,0,0,0,-1,1322,750,0,0
105,274,0,0,0,0,0,0,0,0,0,-1,1329,750,0,0
112,274,0,0,0,0,0,0,0,0,0,-1,1336,750,0,0
119,274,0,0,0,0,0,0,0,0,0,-1,1343,750,0,0
126,274,0,0,0,0,0,0,0,0,0,-1,1350,750,0,0
133,274,0,0,0,0,0,0,0,0,0,-1,1357,750,0,0
140,274,0,0,0,0,0,0,0,0,0,-1,1364,750,0,0
147,274,0,0,0,0,0,0,0,0,0,-1,1371,750,0,0
154,274,0,0,0,0,0,0,0,0,0,-1,1378,750,0,0
161,274,0,0,0,0,0,0,0,0,0,-1,1385,750,0,0
168,274,0,0,0,0,0,0,0,0,0,-1,1392,750,0,0
175,274,0,0,0,0,0,0,0,0,0,-1,1399,750,0,0
182,274,0,0,0,0,0,0,0,0,0,-1,1406,750,0,0
189,274,0,0,0,0,0,0,0,0,0,-1,1413,750,0,0
196,274,0,0,0,0,0,0,0,0,0,-1,1420,750,0,0
203,274,0,0,0,0,0,0,0,0,0,-1,1427,750,0,0
210,274,0,0,0,0,0,0,0,0,0,-1,1434,750,0,0
217,274,0,0,0,0,0,0,0,0,0,-1,1441,750,0,0
224,274,0,0,0,0,0,0,0,0,0,-1,1448,750,0,0
231,274,0,0,0,0,0,0,0,0,0,-1,1455,750,0,0
238,274,0,0,0,0,0,0,0,0,0,-1,1462,750,0,0
245,274,0,0,0,0,0,0,0,0,0,-1,1469,750,0,0
252,274,0,0,0,0,0,0,0,0,0,-1,1476,750,0,0
259,274,0,0,0,0,0,0,0,0,0,-1,1483,750,0,0
266,274,0,0,0,0,0,0,0,0,0,-1,1490,750,0,0
273,274,0,0,0,0,0,0,0,0,0,-1,1497,750,0,0
280,274,0,0,0,0,0,0,0,0,0,-1,1504,750,0,0
287,274,0,0,0,0,0,0,0,0,0,-1,1511,750,0,0
294,274,0,0,0,0,0,0,0,0,0,-1,1518,750,0,0
301,274,0,0,0,0,0,0,0,0,0,-1,1525,750,0,0
308,274,0,0,0,0,0,0,0,0,0,-1,1532,750,0,0
315,274,0,0,0,0,0,0,0,0,0,-1,1539,750,0,0
322,274,0,0,0,0,0,0,0,0,0,-1,1546,750,0,0
329,274,0,0,0,0,0,0,0,0,0,-1,1553,750,0,0
336,274,0,0,0,0,0,0,0,0,0,-1,1560,750,0,0
343,274,0,0,0,0,0,0,0,0,0,-1,1567,750,0,0
350,274,0,0,0,0,0,0,0,0,0,-1,1574,750,0,0
357,274,0,0,0,0,0,0,0,0,0,-1,1581,750,0,0
364,274,0,0,0,0,0,0,0,0,0,-1,1588,750,0,0
371,274,0,0,0,0,0,0,0,0,0,-1,1595,750,0,0
378,274,0,0,0,0,0,0,0,0,0,-1,1602,750,0,0
385,274,0,0,0,0,0,0,0,0,0,-1,1609,750,0,0
392,274,0,0,0,0,0,0,0,0,0,-1,1616,750,0,0
399,274,0,0,0,0,0,0,0,0,0,-1,1623,750,0,0
406,274,0,0,0,0,0,0,0,0,0,-1,1630,750,0,0
413,274,0,0,0,0,0,0,0,0,0,-1,1637,750,0,0
420,274,0,0,0,0,0,0,0,0,0,-1,1644,750,0,0
427,274,0,0,0,0,0,0,0,0,0,-1,1651,750,0,0
434,274,0,0,0,0,0,0,0,0,0,-1,1658,750,0,0
441,274,0,0,0,0,0,0,0,0,0,-1,1665,750,0,0
448,274,0,0,0,0,0,0,0,0,0,-1,1672,750,0,0
455,274,0,0,0,0,0,0,0,0,0,-1,1679,750,0,0
462,274,0,0,0,0,0,0,0,0,0,-1,1686,750,0,0
469,274,0,0,0,0,0,0,0,0,0,-1,1693,750,0,0
476,274,0,0,0,0,0,0,0,0,0,-1,1700,750,0,0
483,274,0,0,0,0,0,0,0,0,0,-1,1707,750,0,0
490,274,0,0,0,0,0,0,0,0,0,-1,1714,750,0,0
497,274,0,0,0,0,0,0,0,0,0,-1,1721,750,0,0
504,274,0,0,0,0,0,0,0,0,0,-1,1728,750,0,0
511,274,0,0,0,0,0,0,0,0,0,-1,1735,750,0,0
518,274,0,0,0,0,0,0,0,0,0,-1,1742,750,0,0
525,274,0,0,0,0,0,0,0,0,0,-1,1749,750,0,0
532,274,0,0,0,0,0,0,0,0,0,-1,1756,750,0,0
539,274,0,0,0,0,0,0,0,0,0,-1,1763,750,0,0
546,274,0,0,0,0,0,0,0,0,0,-1,1770,750,0,0
553,274,0,0,0,0,0,0,0,0,0,-1,1777,750,0,0
560,274,43.4087,3.30853,0,0,0,0,0,0,0,-1,1784,750,43.4087,-3.30855
567,274,43.4882,3.35889,0,0,0,0,0,0,0,-1,1791,750,43.4882,-3.35887
574,274,43.8834,3.22089,0,0,0,0,0,0,0,-1,1798,750,43.8835,-3.22088
581,274,43.8005,3.12823,0,0,0,0,0,0,0,-1,1805,750,43.8005,-3.12822
588,274,44.1691,3.40942,0,0,0,0,0,0,0,-1,1812,750,44.1691,-3.40943
595,274,44.8174,3.625,0,0,0,0,0,0,0,-1,1819,750,44.8173,-3.62498
602,274,43.8972,4.82446,0,0,0,0,0,0,0,-1,1826,750,43.8972,-4.82445
609,274,42.8204,3.33069,0,0,0,0,0,0,0,-1,1833,750,42.8205,-3.33069
616,274,32.7869,1.78436,0,0,0,0,0,0,0,-1,1840,750,32.7868,-1.78437
623,274,24.8231,-1.80353,0,0,0,0,0,0,0,-1,1847,750,24.8232,1.80351
630,274,28.5372,-3.11603,0,0,0,0,0,0,0,-1,1854,750,28.5373,3.116
637,274,28.6235,-2.5542,0.0041331,-0.00168485,0.00124474,0.00438822,-0.00193997,0.202161,0.00374362,0.0157913,1861,750,28.6236,2.55423
644,274,28.5981,-2.01123,0.00256607,-0.00157742,0.00101864,0.00280295,-0.0018143,0.228485,0.00268607,0.0116712,1868,750,28.5981,2.01123
651,274,28.6008,-1.49158,0.00144069,-0.00124925,0.000582571,0.00156144,-0.00137,0.204376,0.00169367,0.0133237,1875,750,28.6009,1.49157
658,274,28.5938,-0.942993,0.000955146,-0.000808414,0.000269094,0.000995292,-0.00084856,0.148097,0.00106567,0.0157871,1882,750,28.5938,0.943018
665,274,28.5712,-0.397949,0.00047964,-0.000149683,0.000179179,0.00052708,-0.000197122,0.25882,0.000432342,0.0151667,1889,750,28.5712,0.397956
672,274,28.557,0.145264,0.000122936,0.000516223,0.00016702,0.00057758,6.15793e-05,1.21874,0.000366257,0.0132683,1896,750,28.557,-0.145265
679,274,28.5522,0.680298,-8.81453e-05,0.00137626,0.000311652,0.00143982,-0.000151711,1.36959,0.00101424,0.015036,1903,750,28.5522,-0.680311
686,274,28.5236,1.20557,-0.000197545,0.00226845,0.000483366,0.00235981,-0.000288906,1.38399,0.00167782,0.0157062,1910,750,28.5236,-1.20557
693,274,28.4828,1.74139,-0.000157168,0.00325311,0.000743223,0.00340805,-0.000312104,1.36527,0.00238289,0.0125055,1917,750,28.4828,-1.74138
700,274,28.4712,2.31445,8.21184e-05,0.00440511,0.00114034,0.00468747,-0.000200241,1.32807,0.00319382,0.0150988,1924,750,28.4712,-2.31445
707,274,28.395,2.87439,0.000616648,0.00578757,0.00178905,0.00634619,5.80191e-05,1.26814,0.00421159,0.0262475,1931,750,28.3951,-2.87439
714,274,28.2822,3.46527,0,0,0,0,0,0,0,-1,1938,750,28.2822,-3.46526
721,274,25.6215,3.91144,0,0,0,0,0,0,0,-1,1945,750,25.6214,-3.91141
728,274,19.2209,3.95154,0,0,0,0,0,0,0,-1,1952,750,19.221,-3.95151
735,274,20.6608,4.10931,0,0,0,0,0,0,0,-1,1959,750,20.6607,-4.10932
742,274,11.7815,-0.740234,0,0,0,0,0,0,0,-1,1966,750,11.7815,0.740253
749,274,0,0,0,0,0,0,0,0,0,-1,1973,750,0,0
756,274,0,0,0,0,0,0,0,0,0,-1,1980,750,0,0
763,274,0,0,0,0,0,0,0,0,0,-1,1987,750,0,0
770,274,0,0,0,0,0,0,0,0,0,-1,1994,750,0,0
777,274,0,0,0,0,0,0,0,0,0,-1,2001,750,0,0
784,274,0,0,0,0,0,0,0,0,0,-1,2008,750,0,0
791,274,0,0,0,0,0,0,0,0,0,-1,2015,750,0,0
798,274,0,0,0,0,0,0,0,0,0,-1,2022,750,0,0
805,274,0,0,0,0,0,0,0,0,0,-1,2029,750,0,0
812,274,0,0,0,0,0,0,0,0,0,-1,2036,750,0,0
-700,267,0,0,0,0,0,0,0,0,0,-1,524,757,0,0
-693,267,0,0,0,0,0,0,0,0,0,-1,531,757,0,0
-686,267,0,0,0,0,0,0,0,0,0,-1,538,757,0,0
-679,267,0,0,0,0,0,0,0,0,0,-1,545,757,0,0
-672,267,0,0,0,0,0,0,0,0,0,-1,552,757,0,0
-665,267,0,0,0,0,0,0,0,0,0,-1,559,757,0,0
-658,267,0,0,0,0,0,0,0,0,0,-1,566,757,0,0
-651,267,0,0,0,0,0,0,0,0,0,-1,573,757,0,0
-644,267,0,0,0,0,0,0,0,0,0,-1,580,757,0,0
-637,267,0,0,0,0,0,0,0,0,0,-1,587,757,0,0
-630,267,-21.3979,5.17529,0,0,0,0,0,0,0,-1,594,757,-21.3979,-5.17529
-623,267,-20.043,4.43115,0,0,0,0,0,0,0,-1,601,757,-20.043,-4.43116
-616,267,-16.5916,4.92358,0,0,0,0,0,0,0,-1,608,757,-16.5916,-4.9236
-609,267,-20.8616,3.73059,0,0,0,0,0,0,0,-1,615,757,-20.8616,-3.73062
-602,267,-19.6304,3.49933,0,0,0,0,0,0,0,-1,622,757,-19.6304,-3.49933
-595,267,-18.5732,2.711,0,0,0,0,0,0,0,-1,629,757,-18.5732,-2.71099
-588,267,-18.5797,1.76678,0.0147678,0.0108037,-0.00266537,0.0161073,0.00946421,-0.465693,0.00934698,0.0466962,636,757,-18.5796,-1.76681
-581,267,-18.8254,0.789856,0.0101995,0.00773328,-0.00186354,0.011201,0.00673181,-0.493118,0.00651072,0.0346545,643,757,-18.8254,-0.789843
-574,267,-18.8678,0.212219,0.00696516,0.00551478,-0.0011246,0.00757811,0.00490183,-0.499027,0.00443767,0.0199043,650,757,-18.8678,-0.21225
-567,267,-18.958,-0.264404,0.00454371,0.0037466,-0.000530401,0.00480861,0.0034817,-0.463194,0.00286766,0.0250324,657,757,-18.958,0.264388
-560,267,-18.9833,-0.748169,0.0027024,0.00226203,-1.80754e-05,0.00270314,0.00226129,-0.0409545,0.00167436,0.0213135,664,757,-18.9833,0.748183
-553,267,-19.0319,-1.28986,0.00133225,0.00100822,0.000459381,0.00165735,0.000683118,0.615867,0.000961776,0.0165505,671,757,-19.0319,1.28988
-546,267,-19.0432,-1.83173,0.000317722,-3.94703e-05,0.000955983,0.00111165,-0.000833396,0.693053,0.0011268,0.0105918,678,757,-19.0432,1.83174
-539,267,-19.0369,-2.34113,-0.000570539,-0.000621607,0.00126477,0.000668956,-0.0018611,0.775305,0.00151382,0.0105547,685,757,-19.0369,2.3411
-532,267,-19.0297,-2.84039,-0.00117246,-0.00125496,0.00138122,0.000168121,-0.00259555,0.77047,0.00178904,0.0118348,692,757,-19.0297,2.8404
-525,267,-19.0666,-3.3266,-0.00102712,-0.00078962,0.00163348,0.000729423,-0.00254616,0.821682,0.00198575,0.0112924,699,757,-19.0666,3.3266
-518,267,-19.0983,-3.84479,-0.000954243,0.000692935,0.00167455,0.00173547,-0.00199678,1.01394,0.00215657,0.0109494,706,757,-19.0983,3.84476
-511,267,-19.1011,-4.36853,-0.0015921,0.00161995,0.00112486,0.0019747,-0.00194685,1.2653,0.00226412,0.0164507,713,757,-19.1011,4.36854
-504,267,-19.1776,-4.74701,-0.00176679,0.00311574,0.000791765,0.00324093,-0.00189197,1.41399,0.0029974,0.0316349,720,757,-19.1776,4.74703
-497,267,-19.3016,-5.08063,0,0,0,0,0,0,0,-1,727,757,-19.3017,5.08064
-490,267,-23.4949,-0.494995,0,0,0,0,0,0,0,-1,734,757,-23.4949,0.494981
-483,267,-33.1655,0.310303,0,0,0,0,0,0,0,-1,741,757,-33.1655,-0.310331
-476,267,-32.3617,1.508,-0.00658799,0.0132743,-0.00268234,0.0136302,-0.00694385,-1.4389,0.0120857,0.0494546,748,757,-32.3617,-1.50802
-469,267,-32.1959,1.73804,-0.0115153,0.0165667,-0.00475012,0.0173485,-0.0122971,-1.40769,0.0171985,0.0454942,755,757,-32.1959,-1.73802
-462,267,-32.8765,1.04706,0,0,0,0,0,0,0,-1,762,757,-32.8765,-1.04704
-455,267,-33.6129,0.304443,0,0,0,0,0,0,0,-1,769,757,-33.6129,-0.304428
-448,267,-34.0732,-0.57312,0,0,0,0,0,0,0,-1,776,757,-34.0732,0.573145
-441,267,0,0,0,0,0,0,0,0,0,-1,783,757,0,0
-434,267,0,0,0,0,0,0,0,0,0,-1,790,757,0,0
-427,267,0,0,0,0,0,0,0,0,0,-1,797,757,0,0
-420,267,0,0,0,0,0,0,0,0,0,-1,804,757,0,0
-413,267,0,0,0,0,0,0,0,0,0,-1,811,757,0,0
-406,267,0,0,0,0,0,0,0,0,0,-1,818,757,0,0
-399,267,0,0,0,0,0,0,0,0,0,-1,825,757,0,0
-392,267,0,0,0,0,0,0,0,0,0,-1,832,757,0,0
-385,267,0,0,0,0,0,0,0,0,0,-1,839,757,0,0
-378,267,0,0,0,0,0,0,0,0,0,-1,846,757,0,0
-371,267,0,0,0,0,0,0,0,0,0,-1,853,757,0,0
-364,267,0,0,0,0,0,0,0,0,0,-1,860,757,0,0
-357,267,0,0,0,0,0,0,0,0,0,-1,867,757,0,0
-350,267,0,0,0,0,0,0,0,0,0,-1,874,757,0,0
-343,267,0,0,0,0,0,0,0,0,0,-1,881,757,0,0
-336,267,0,0,0,0,0,0,0,0,0,-1,888,757,0,0
-329,267,0,0,0,0,0,0,0,0,0,-1,895,757,0,0
-322,267,0,0,0,0,0,0,0,0,0,-1,902,757,0,0
-315,267,0,0,0,0,0,0,0,0,0,-1,909,757,0,0
-308,267,0,0,0,0,0,0,0,0,0,-1,916,757,0,0
-301,267,0,0,0,0,0,0,0,0,0,-1,923,757,0,0
-294,267,0,0,0,0,0,0,0,0,0,-1,930,757,0,0
-287,267,0,0,0,0,0,0,0,0,0,-1,937,757,0,0
-280,267,0,0,0,0,0,0,0,0,0,-1,944,757,0,0
-273,267,0,0,0,0,0,0,0,0,0,-1,951,757,0,0
-266,267,0,0,0,0,0,0,0,0,0,-1,958,757,0,0
-259,267,0,0,0,0,0,0,0,0,0,-1,965,757,0,0
-252,267,0,0,0,0,0,0,0,0,0,-1,972,757,0,0
-245,267,0,0,0,0,0,0,0,0,0,-1,979,757,0,0
-238,267,0,0,0,0,0,0,0,0,0,-1,986,757,0,0
-231,267,0,0,0,0,0,0,0,0,0,-1,993,757,0,0
-224,267,0,0,0,0,0,0,0,0,0,-1,1000,757,0,0
-217,267,0,0,0,0,0,0,0,0,0,-1,1007,757,0,0
-210,267,0,0,0,0,0,0,0,0,0,-1,1014,757,0,0
-203,267,0,0,0,0,0,0,0,0,0,-1,1021,757,0,0
-196,267,0,0,0,0,0,0,0,0,0,-1,1028,757,0,0
-189,267,0,0,0,0,0,0,0,0,0,-1,1035,757,0,0
-182,267,0,0,0,0,0,0,0,0,0,-1,1042,757,0,0
-175,267,0,0,0,0,0,0,0,0,0,-1,1049,757,0,0
-168,267,0,0,0,0,0,0,0,0,0,-1,1056,757,0,0
-161,267,0,0,0,0,0,0,0,0,0,-1,1063,757,0,0
-154,267,0,0,0,0,0,0,0,0,0,-1,1070,757,0,0
-147,267,0,0,0,0,0,0,0,0,0,-1,1077,757,0,0
-140,267,0,0,0,0,0,0,0,0,0,-1,1084,757,0,0
-133,267,0,0,0,0,0,0,0,0,0,-1,1091,757,0,0
-126,267,0,0,0,0,0,0,0,0,0,-1,1098,757,0,0
-119,267,0,0,0,0,0,0,0,0,0,-1,1105,757,0,0
-112,267,0,0,0,0,0,0,0,0,0,-1,1112,757,0,0
-105,267,0,0,0,0,0,0,0,0,0,-1,1119,757,0,0
-98,267,0,0,0,0,0,0,0,0,0,-1,1126,757,0,0
-91,267,0,0,0,0,0,0,0,0,0,-1,1133,757,0,0
-84,267,0,0,0,0,0,0,0,0,0,-1,1140,757,0,0
-77,267,0,0,0,0,0,0,0,0,0,-1,1147,757,0,0
-70,267,0,0,0,0,0,0,0,0,0,-1,1154,757,0,0
-63,267,0,0,0,0,0,0,0,0,0,-1,1161,757,0,0
-56,267,0,0,0,0,0,0,0,0,0,-1,1168,757,0,0
-49,267,0,0,0,0,0,0,0,0,0,-1,1175,757,0,0
-42,267,0,0,0,0,0,0,0,0,0,-1,1182,757,0,0
-35,267,0,0,0,0,0,0,0,0,0,-1,1189,757,0,0
-28,267,0,0,0,0,0,0,0,0,0,-1,1196,757,0,0
-21,267,0,0,0,0,0,0,0,0,0,-1,1203,757,0,0
-14,267,0,0,0,0,0,0,0,0,0,-1,1210,757,0,0
-7,267,0,0,0,0,0,0,0,0,0,-1,1217,757,0,0
0,267,0,0,0,0,0,0,0,0,0,-1,1224,757,0,0
7,267,0,0,0,0,0,0,0,0,0,-1,1231,757,0,0
14,267,0,0,0,0,0,0,0,0,0,-1,1238,757,0,0
21,267,0,0,0,0,0,0,0,0,0,-1,1245,757,0,0
28,267,0,0,0,0,0,0,0,0,0,-1,1252,757,0,0
35,267,0,0,0,0,0,0,0,0,0,-1,1259,757,0,0
42,267,0,0,0,0,0,0,0,0,0,-1,1266,757,0,0
49,267,0,0,0,0,0,0,0,0,0,-1,1273,757,0,0
56,267,0,0,0,0,0,0,0,0,0,-1,1280,757,0,0
63,267,0,0,0,0,0,0,0,0,0,-1,1287,757,0,0
70,267,0,0,0,0,0,0,0,0,0,-1,1294,757,0,0
77,267,0,0,0,0,0,0,0,0,0,-1,1301,757,0,0
84,267,0,0,0,0,0,0,0,0,0,-1,1308,757,0,0
91,267,0,0,0,0,0,0,0,0,0,-1,1315,757,0,0
98,267,0,0,0,0,0,0,0,0,0,-1,1322,757,0,0
105,267,0,0,0,0,0,0,0,0,0,-1,1329,757,0,0
112,267,0,0,0,0,0,0,0,0,0,-1,1336,757,0,0
119,267,0,0,0,0,0,0,0,0,0,-1,1343,757,0,0
126,267,0,0,0,0,0,0,0,0,0,-1,1350,757,0,0
133,267,0,0,0,0,0,0,0,0,0,-1,1357,757,0,0
140,267,0,0,0,0,0,0,0,0,0,-1,1364,757,0,0
147,267,0,0,0,0,0,0,0,0,0,-1,1371,757,0,0
154,267,0,0,0,0,0,0,0,0,0,-1,1378,757,0,0
161,267,0,0,0,0,0,0,0,0,0,-1,1385,757,0,0
168,267,0,0,0,0,0,0,0,0,0,-1,1392,757,0,0
175,267,0,0,0,0,0,0,0,0,0,-1,1399,757,0,0
182,267,0,0,0,0,0,0,0,0,0,-1,1406,757,0,0
189,267,0,0,0,0,0,0,0,0,0,-1,1413,757,0,0
196,267,0,0,0,0,0,0,0,0,0,-1,1420,757,0,0
203,267,0,0,0,0,0,0,0,0,0,-1,1427,757,0,0
210,267,0,0,0,0,0,0,0,0,0,-1,1434,757,0,0
217,267,0,0,0,0,0,0,0,0,0,-1,1441,757,0,0
224,267,0,0,0,0,0,0,0,0,0,-1,1448,757,0,0
231,267,0,0,0,0,0,0,0,0,0,-1,1455,757,0,0
238,267,0,0,0,0,0,0,0,0,0,-1,1462,757,0,0
245,267,0,0,0,0,0,0,0,0,0,-1,1469,757,0,0
252,267,0,0,0,0,0,0,0,0,0,-1,1476,757,0,0
259,267,0,0,0,0,0,0,0,0,0,-1,1483,757,0,0
266,267,0,0,0,0,0,0,0,0,0,-1,1490,757,0,0
273,267,0,0,0,0,0,0,0,0,0,-1,1497,757,0,0
280,267,0,0,0,0,0,0,0,0,0,-1,1504,757,0,0
287,267,0,0,0,0,0,0,0,0,0,-1,1511,757,0,0
294,267,0,0,0,0,0,0,0,0,0,-1,1518,757,0,0
301,267,0,0,0,0,0,0,0,0,0,-1,1525,757,0,0
308,267,0,0,0,0,0,0,0,0,0,-1,1532,757,0,0
315,267,0,0,0,0,0,0,0,0,0,-1,1539,757,0,0
322,267,0,0,0,0,0,0,0,0,0,-1,1546,757,0,0
329,267,0,0,0,0,0,0,0,0,0,-1,1553,757,0,0
336,267,0,0,0,0,0,0,0,0,0,-1,1560,757,0,0
343,267,0,0,0,0,0,0,0,0,0,-1,1567,757,0,0
350,267,0,0,0,0,0,0,0,0,0,-1,1574,757,0,0
357,267,0,0,0,0,0,0,0,0,0,-1,1581,757,0,0
364,267,0,0,0,0,0,0,0,0,0,-1,1588,757,0,0
371,267,0,0,0,0,0,0,0,0,0,-1,1595,757,0,0
378,267,0,0,0,0,0,0,0,0,0,-1,1602,757,0,0
385,267,0,0,0,0,0,0,0,0,0,-1,1609,757,0,0
392,267,0,0,0,0,0,0,0,0,0,-1,1616,757,0,0
399,267,0,0,0,0,0,0,0,0,0,-1,1623,757,0,0
406,267,0,0,0,0,0,0,0,0,0,-1,1630,757,0,0
413,267,0,0,0,0,0,0,0,0,0,-1,1637,757,0,0
420,267,0,0,0,0,0,0,0,0,0,-1,1644,757,0,0
427,267,0,0,0,0,0,0,0,0,0,-1,1651,757,0,0
434,267,0,0,0,0,0,0,0,0,0,-1,1658,757,0,0
441,267,0,0,0,0,0,0,0,0,0,-1,1665,757,0,0
448,267,0,0,0,0,0,0,0,0,0,-1,1672,757,0,0
455,267,0,0,0,0,0,0,0,0,0,-1,1679,757,0,0
462,267,0,0,0,0,0,0,0,0,0,-1,1686,757,0,0
469,267,0,0,0,0,0,0,0,0,0,-1,1693,757,0,0
476,267,0,0,0,0,0,0,0,0,0,-1,1700,757,0,0
483,267,0,0,0,0,0,0,0,0,0,-1,1707,757,0,0
490,267,0,0,0,0,0,0,0,0,0,-1,1714,757,0,0
497,267,0,0,0,0,0,0,0,0,0,-1,1721,757,0,0
504,267,0,0,0,0,0,0,0,0,0,-1,1728,757,0,0
511,267,0,0,0,0,0,0,0,0,0,-1,1735,757,0,0
518,267,0,0,0,0,0,0,0,0,0,-1,1742,757,0,0
525,267,0,0,0,0,0,0,0,0,0,-1,1749,757,0,0
532,267,0,0,0,0,0,0,0,0,0,-1,1756,757,0,0
539,267,0,0,0,0,0,0,0,0,0,-1,1763,757,0,0
546,267,0,0,0,0,0,0,0,0,0,-1,1770,757,0,0
553,267,0,0,0,0,0,0,0,0,0,-1,1777,757,0,0
560,267,0,0,0,0,0,0,0,0,0,-1,1784,757,0,0
567,267,43.6289,3.18701,0,0,0,0,0,0,0,-1,1791,757,43.6289,-3.18703
574,267,43.8033,3.12091,0,0,0,0,0,0,0,-1,1798,757,43.8034,-3.12094
581,267,43.6478,3.33441,0,0,0,0,0,0,0,-1,1805,757,43.6478,-3.33443
588,267,43.8939,3.37244,0,0,0,0,0,0,0,-1,1812,757,43.8939,-3.37241
595,267,45.2074,2.25195,0,0,0,0,0,0,0,-1,1819,757,45.2075,-2.25193
602,267,43.8575,4.58588,0,0,0,0,0,0,0,-1,1826,757,43.8575,-4.58591
609,267,43.5557,5.47791,0,0,0,0,0,0,0,-1,1833,757,43.5556,-5.47791
616,267,41.4904,3.89758,0,0,0,0,0,0,0,-1,1840,757,41.4903,-3.89759
623,267,24.1475,-1.1391,0,0,0,0,0,0,0,-1,1847,757,24.1475,1.13913
630,267,29.3656,-2.86536,0,0,0,0,0,0,0,-1,1854,757,29.3655,2.86537
637,267,29.193,-2.4339,0.00263143,-0.00214474,0.00146021,0.00304248,-0.00255579,0.2744,0.00323623,0.0354813,1861,757,29.193,2.43393
644,267,29.1281,-1.98322,0.000750244,-0.00216882,0.00126369,0.00122129,-0.00263987,0.356803,0.00227884,0.0131817,1868,757,29.128,1.98321
651,267,29.1138,-1.474,-0.000459444,-0.00194496,0.000803491,-0.000107997,-0.00229641,0.412327,0.00149624,0.0143936,1875,757,29.1137,1.474
658,267,29.1234,-0.926697,-0.00065289,-0.00156408,0.000362424,-0.000526318,-0.00169065,0.335994,0.000998997,0.0148086,1882,757,29.1234,0.926723
665,267,29.1157,-0.377319,-0.000631045,-0.000847976,0.000162999,-0.000543721,-0.0009353,0.491823,0.000542372,0.0145496,1889,757,29.1157,0.377321
672,267,29.1165,0.162781,-0.000450646,-7.45467e-05,7.18723e-05,-6.12799e-05,-0.000463913,1.38826,0.000291007,0.0127406,1896,757,29.1165,-0.162801
679,267,29.1046,0.696228,-0.000136158,0.00085911,0.000193864,0.000895539,-0.000172587,1.38505,0.000662096,0.0131204,1903,757,29.1046,-0.696206
686,267,29.0704,1.24023,0.000279779,0.00180332,0.000404345,0.00190399,0.000179118,1.32681,0.00121403,0.0134436,1910,757,29.0705,-1.24025
693,267,29.0197,1.758,0.000719806,0.00276376,0.000743615,0.00300567,0.0004779,1.25628,0.001865,0.0132109,1917,757,29.0197,-1.75797
700,267,29.0015,2.30225,0.000982768,0.00385367,0.00121195,0.00429687,0.000539566,1.22021,0.00270274,0.014053,1924,757,29.0015,-2.30222
707,267,29.0001,2.83173,0.00173399,0.0051228,0.00191646,0.00598648,0.000870308,1.14739,0.00373484,0.0145765,1931,757,29.0001,-2.83174
714,267,29.0963,3.36011,0.00293831,0.00672902,0.003161,0.00851935,0.00114797,1.05546,0.00533822,0.0350622,1938,757,29.0963,-3.36013
721,267,29.2261,3.8902,0,0,0,0,0,0,0,-1,1945,757,29.2261,-3.89023
728,267,26.7886,3.90027,0,0,0,0,0,0,0,-1,1952,757,26.7886,-3.90028
735,267,24.6713,2.82483,0,0,0,0,0,0,0,-1,1959,757,24.6713,-2.82483
742,267,18.1177,3.56561,0,0,0,0,0,0,0,-1,1966,757,18.1176,-3.56564
749,267,0,0,0,0,0,0,0,0,0,-1,1973,757,0,0
756,267,0,0,0,0,0,0,0,0,0,-1,1980,757,0,0
763,267,0,0,0,0,0,0,0,0,0,-1,1987,757,0,0
770,267,0,0,0,0,0,0,0,0,0,-1,1994,757,0,0
777,267,0,0,0,0,0,0,0,0,0,-1,2001,757,0,0
784,267,0,0,0,0,0,0,0,0,0,-1,2008,757,0,0
791,267,0,0,0,0,0,0,0,0,0,-1,2015,757,0,0
798,267,0,0,0,0,0,0,0,0,0,-1,2022,757,0,0
805,267,0,0,0,0,0,0,0,0,0,-1,2029,757,0,0
812,267,0,0,0,0,0,0,0,0,0,-1,2036,757,0,0
-700,260,0,0,0,0,0,0,0,0,0,-1,524,764,0,0
-693,260,0,0,0,0,0,0,0,0,0,-1,531,764,0,0
-686,260,0,0,0,0,0,0,0,0,0,-1,538,764,0,0
-679,260,0,0,0,0,0,0,0,0,0,-1,545,764,0,0
-672,260,0,0,0,0,0,0,0,0,0,-1,552,764,0,0
-665,260,0,0,0,0,0,0,0,0,0,-1,559,764,0,0
-658,260,0,0,0,0,0,0,0,0,0,-1,566,764,0,0
-651,260,0,0,0,0,0,0,0,0,0,-1,573,764,0,0
-644,260,0,0,0,0,0,0,0,0,0,-1,580,764,0,0
-637,260,0,0,0,0,0,0,0,0,0,-1,587,764,0,0
-630,260,-21.8905,4.49341,0,0,0,0,0,0,0,-1,594,764,-21.8905,-4.49342
-623,260,-20.3127,3.53546,0,0,0,0,0,0,0,-1,601,764,-20.3127,-3.53544
-616,260,-23.4346,3.65009,0,0,0,0,0,0,0,-1,608,764,-23.4345,-3.65008
-609,260,-22.5261,2.84747,0,0,0,0,0,0,0,-1,615,764,-22.5261,-2.84745
-602,260,-19.2451,2.85156,0,0,0,0,0,0,0,-1,622,764,-19.2451,-2.85157
-595,260,-19.6794,1.51349,0,0,0,0,0,0,0,-1,629,764,-19.6794,-1.5135
-588,260,-20.304,1.29028,0.0129946,0.0106641,-0.00371488,0.0157227,0.00793598,-0.63342,0.00907763,0.042904,636,764,-20.304,-1.29026
-581,260,-19.4647,0.680359,0.00929838,0.00764735,-0.00262143,0.0112212,0.00572452,-0.632858,0.00647901,0.0260337,643,764,-19.4647,-0.680344
-574,260,-19.4673,0.201599,0.00650636,0.00539258,-0.00166208,0.00770237,0.00419657,-0.623747,0.00445292,0.0176032,650,764,-19.4673,-0.201593
-567,260,-19.4761,-0.236511,0.00429291,0.00354172,-0.000872273,0.00486701,0.00296761,-0.582098,0.00283244,0.0174551,657,764,-19.4761,0.236525
-560,260,-19.4809,-0.743225,0.00253088,0.00196964,-0.000196456,0.00259281,0.00190771,-0.305391,0.00155144,0.0198724,664,764,-19.4809,0.743196
-553,260,-19.5231,-1.27307,0.00113646,0.000700846,0.000449632,0.00141826,0.000419045,0.559846,0.000841363,0.0171938,671,764,-19.5231,1.27309
-546,260,-19.5352,-1.79309,3.76036e-05,-0.000259688,0.0011159,0.00101472,-0.0012368,0.719185,0.00130202,0.0114191,678,764,-19.5352,1.79309
-539,260,-19.5182,-2.29938,-0.000895068,-0.000651962,0.00148563,0.000717078,-0.00226411,0.826217,0.00179678,0.0122055,685,764,-19.5182,2.2994
-532,260,-19.5089,-2.77594,-0.00148548,-0.000957995,0.00166376,0.000462797,-0.00290627,0.864005,0.00210878,0.0153946,692,764,-19.5089,2.77592
-525,260,-19.5594,-3.31439,-0.00132386,-0.000312336,0.00192902,0.00117612,-0.00281232,0.913605,0.00236643,0.0133421,699,764,-19.5594,3.31439
-518,260,-19.6287,-3.80304,-0.00128353,0.00127805,0.00195036,0.00233057,-0.00233604,1.07593,0.00269427,0.015139,706,764,-19.6287,3.80303
-511,260,-19.6368,-4.28882,-0.00180897,0.00226031,0.001446,0.0027218,-0.00227046,1.26186,0.00288621,0.0283109,713,764,-19.6368,4.2888
-504,260,-19.6994,-4.77606,0,0,0,0,0,0,0,-1,720,764,-19.6994,4.77609
-497,260,-16.6542,-3.67334,0,0,0,0,0,0,0,-1,727,764,-16.6542,3.67331
-490,260,-29.4557,0.921387,0,0,0,0,0,0,0,-1,734,764,-29.4557,-0.921369
-483,260,-33.1967,0.452515,0,0,0,0,0,0,0,-1,741,764,-33.1967,-0.452541
-476,260,-32.7573,1.39172,-0.00531787,0.0128256,-0.00224638,0.0130996,-0.00559186,-1.44943,0.0110779,0.0426531,748,764,-32.7573,-1.39172
-469,260,-32.5758,1.23981,-0.00893962,0.0157612,-0.00400705,0.016395,-0.00957339,-1.41393,0.0151643,0.0485685,755,764,-32.5758,-1.23978
-462,260,-32.9398,0.71936,0,0,0,0,0,0,0,-1,762,764,-32.9398,-0.719345
-455,260,-33.8024,0.123657,0,0,0,0,0,0,0,-1,769,764,-33.8024,-0.123632
-448,260,0,0,0,0,0,0,0,0,0,-1,776,764,0,0
-441,260,0,0,0,0,0,0,0,0,0,-1,783,764,0,0
-434,260,0,0,0,0,0,0,0,0,0,-1,790,764,0,0
-427,260,0,0,0,0,0,0,0,0,0,-1,797,764,0,0
-420,260,0,0,0,0,0,0,0,0,0,-1,804,764,0,0
-413,260,0,0,0,0,0,0,0,0,0,-1,811,764,0,0
-406,260,0,0,0,0,0,0,0,0,0,-1,818,764,0,0
-399,260,0,0,0,0,0,0,0,0,0,-1,825,764,0,0
-392,260,0,0,0,0,0,0,0,0,0,-1,832,764,0,0
-385,260,0,0,0,0,0,0,0,0,0,-1,839,764,0,0
-378,260,0,0,0,0,0,0,0,0,0,-1,846,764,0,0
-371,260,0,0,0,0,0,0,0,0,0,-1,853,764,0,0
-364,260,0,0,0,0,0,0,0,0,0,-1,860,764,0,0
-357,260,0,0,0,0,0,0,0,0,0,-1,867,764,0,0
-350,260,0,0,0,0,0,0,0,0,0,-1,874,764,0,0
-343,260,0,0,0,0,0,0,0,0,0,-1,881,764,0,0
-336,260,0,0,0,0,0,0,0,0,0,-1,888,764,0,0
-329,260,0,0,0,0,0,0,0,0,0,-1,895,764,0,0
-322,260,0,0,0,0,0,0,0,0,0,-1,902,764,0,0
-315,260,0,0,0,0,0,0,0,0,0,-1,909,764,0,0
-308,260,0,0,0,0,0,0,0,0,0,-1,916,764,0,0
-301,260,0,0,0,0,0,0,0,0,0,-1,923,764,0,0
-294,260,0,0,0,0,0,0,0,0,0,-1,930,764,0,0
-287,260,0,0,0,0,0,0,0,0,0,-1,937,764,0,0
-280,260,0,0,0,0,0,0,0,0,0,-1,944,764,0,0
-273,260,0,0,0,0,0,0,0,0,0,-1,951,764,0,0
-266,260,0,0,0,0,0,0,0,0,0,-1,958,764,0,0
-259,260,0,0,0,0,0,0,0,0,0,-1,965,764,0,0
-252,260,0,0,0,0,0,0,0,0,0,-1,972,764,0,0
-245,260,0,0,0,0,0,0,0,0,0,-1,979,764,0,0
-238,260,0,0,0,0,0,0,0,0,0,-1,986,764,0,0
-231,260,0,0,0,0,0,0,0,0,0,-1,993,764,0,0
-224,260,0,0,0,0,0,0,0,0,0,-1,1000,764,0,0
-217,260,0,0,0,0,0,0,0,0,0,-1,1007,764,0,0
-210,260,0,0,0,0,0,0,0,0,0,-1,1014,764,0,0
-203,260,0,0,0,0,0,0,0,0,0,-1,1021,764,0,0
-196,260,0,0,0,0,0,0,0,0,0,-1,1028,764,0,0
-189,260,0,0,0,0,0,0,0,0,0,-1,1035,764,0,0
-182,260,0,0,0,0,0,0,0,0,0,-1,1042,764,0,0
-175,260,0,0,0,0,0,0,0,0,0,-1,1049,764,0,0
-168,260,0,0,0,0,0,0,0,0,0,-1,1056,764,0,0
-161,260,0,0,0,0,0,0,0,0,0,-1,1063,764,0,0
-154,260,0,0,0,0,0,0,0,0,0,-1,1070,764,0,0
-147,260,0,0,0,0,0,0,0,0,0,-1,1077,764,0,0
-140,260,0,0,0,0,0,0,0,0,0,-1,1084,764,0,0
-133,260,0,0,0,0,0,0,0,0,0,-1,1091,764,0,0
-126,260,0,0,0,0,0,0,0,0,0,-1,1098,764,0,0
-119,260,0,0,0,0,0,0,0,0,0,-1,1105,764,0,0
-112,260,0,0,0,0,0,0,0,0,0,-1,1112,764,0,0
-105,260,0,0,0,0,0,0,0,0,0,-1,1119,764,0,0
-98,260,0,0,0,0,0,0,0,0,0,-1,1126,764,0,0
-91,260,0,0,0,0,0,0,0,0,0,-1,1133,764,0,0
-84,260,0,0,0,0,0,0,0,0,0,-1,1140,764,0,0
-77,260,0,0,0,0,0,0,0,0,0,-1,1147,764,0,0
-70,260,0,0,0,0,0,0,0,0,0,-1,1154,764,0,0
-63,260,0,0,0,0,0,0,0,0,0,-1,1161,764,0,0
-56,260,0,0,0,0,0,0,0,0,0,-1,1168,764,0,0
-49,260,0,0,0,0,0,0,0,0,0,-1,1175,764,0,0
-42,260,0,0,0,0,0,0,0,0,0,-1,1182,764,0,0
-35,260,0,0,0,0,0,0,0,0,0,-1,1189,764,0,0
-28,260,0,0,0,0,0,0,0,0,0,-1,1196,764,0,0
-21,260,0,0,0,0,0,0,0,0,0,-1,1203,764,0,0
-14,260,0,0,0,0,0,0,0,0,0,-1,1210,764,0,0
-7,260,0,0,0,0,0,0,0,0,0,-1,1217,764,0,0
0,260,0,0,0,0,0,0,0,0,0,-1,1224,764,0,0
7,260,0,0,0,0,0,0,0,0,0,-1,1231,764,0,0
14,260,0,0,0,0,0,0,0,0,0,-1,1238,764,0,0
21,260,0,0,0,0,0,0,0,0,0,-1,1245,764,0,0
28,260,0,0,0,0,0,0,0,0,0,-1,1252,764,0,0
35,260,0,0,0,0,0,0,0,0,0,-1,1259,764,0,0
42,260,0,0,0,0,0,0,0,0,0,-1,1266,764,0,0
49,260,0,0,0,0,0,0,0,0,0,-1,1273,764,0,0
56,260,0,0,0,0,0,0,0,0,0,-1,1280,764,0,0
63,260,0,0,0,0,0,0,0,0,0,-1,1287,764,0,0
70,260,0,0,0,0,0,0,0,0,0,-1,1294,764,0,0
77,260,0,0,0,0,0,0,0,0,0,-1,1301,764,0,0
84,260,0,0,0,0,0,0,0,0,0,-1,1308,764,0,0
91,260,0,0,0,0,0,0,0,0,0,-1,1315,764,0,0
98,260,0,0,0,0,0,0,0,0,0,-1,1322,764,0,0
105,260,0,0,0,0,0,0,0,0,0,-1,1329,764,0,0
112,260,0,0,0,0,0,0,0,0,0,-1,1336,764,0,0
119,260,0,0,0,0,0,0,0,0,0,-1,1343,764,0,0
126,260,0,0,0,0,0,0,0,0,0,-1,1350,764,0,0
133,260,0,0,0,0,0,0,0,0,0,-1,1357,764,0,0
140,260,0,0,0,0,0,0,0,0,0,-1,1364,764,0,0
147,260,0,0,0,0,0,0,0,0,0,-1,1371,764,0,0
154,260,0,0,0,0,0,0,0,0,0,-1,1378,764,0,0
161,260,0,0,0,0,0,0,0,0,0,-1,1385,764,0,0
168,260,0,0,0,0,0,0,0,0,0,-1,1392,764,0,0
175,260,0,0,0,0,0,0,0,0,0,-1,1399,764,0,0
182,260,0,0,0,0,0,0,0,0,0,-1,1406,764,0,0
189,260,0,0,0,0,0,0,0,0,0,-1,1413,764,0,0
196,260,0,0,0,0,0,0,0,0,0,-1,1420,764,0,0
203,260,0,0,0,0,0,0,0,0,0,-1,1427,764,0,0
210,260,0,0,0,0,0,0,0,0,0,-1,1434,764,0,0
217,260,0,0,0,0,0,0,0,0,0,-1,1441,764,0,0
224,260,0,0,0,0,0,0,0,0,0,-1,1448,764,0,0
231,260,0,0,0,0,0,0,0,0,0,-1,1455,764,0,0
238,260,0,0,0,0,0,0,0,0,0,-1,1462,764,0,0
245,260,0,0,0,0,0,0,0,0,0,-1,1469,764,0,0
252,260,0,0,0,0,0,0,0,0,0,-1,1476,764,0,0
259,260,0,0,0,0,0,0,0,0,0,-1,1483,764,0,0
266,260,0,0,0,0,0,0,0,0,0,-1,1490,764,0,0
273,260,0,0,0,0,0,0,0,0,0,-1,1497,764,0,0
280,260,0,0,0,0,0,0,0,0,0,-1,1504,764,0,0
287,260,0,0,0,0,0,0,0,0,0,-1,1511,764,0,0
294,260,0,0,0,0,0,0,0,0,0,-1,1518,764,0,0
301,260,0,0,0,0,0,0,0,0,0,-1,1525,764,0,0
308,260,0,0,0,0,0,0,0,0,0,-1,1532,764,0,0
315,260,0,0,0,0,0,0,0,0,0,-1,1539,764,0,0
322,260,0,0,0,0,0,0,0,0,0,-1,1546,764,0,0
329,260,0,0,0,0,0,0,0,0,0,-1,1553,764,0,0
336,260,0,0,0,0,0,0,0,0,0,-1,1560,764,0,0
343,260,0,0,0,0,0,0,0,0,0,-1,1567,764,0,0
350,260,0,0,0,0,0,0,0,0,0,-1,1574,764,0,0
357,260,0,0,0,0,0,0,0,0,0,-1,1581,764,0,0
364,260,0,0,0,0,0,0,0,0,0,-1,1588,764,0,0
371,260,0,0,0,0,0,0,0,0,0,-1,1595,764,0,0
378,260,0,0,0,0,0,0,0,0,0,-1,1602,764,0,0
385,260,0,0,0,0,0,0,0,0,0,-1,1609,764,0,0
392,260,0,0,0,0,0,0,0,0,0,-1,1616,764,0,0
399,260,0,0,0,0,0,0,0,0,0,-1,1623,764,0,0
406,260,0,0,0,0,0,0,0,0,0,-1,1630,764,0,0
413,260,0,0,0,0,0,0,0,0,0,-1,1637,764,0,0
420,260,0,0,0,0,0,0,0,0,0,-1,1644,764,0,0
427,260,0,0,0,0,0,0,0,0,0,-1,1651,764,0,0
434,260,0,0,0,0,0,0,0,0,0,-1,1658,764,0,0
441,260,0,0,0,0,0,0,0,0,0,-1,1665,764,0,0
448,260,0,0,0,0,0,0,0,0,0,-1,1672,764,0,0
455,260,0,0,0,0,0,0,0,0,0,-1,1679,764,0,0
462,260,0,0,0,0,0,0,0,0,0,-1,1686,764,0,0
469,260,0,0,0,0,0,0,0,0,0,-1,1693,764,0,0
476,260,0,0,0,0,0,0,0,0,0,-1,1700,764,0,0
483,260,0,0,0,0,0,0,0,0,0,-1,1707,764,0,0
490,260,0,0,0,0,0,0,0,0,0,-1,1714,764,0,0
497,260,0,0,0,0,0,0,0,0,0,-1,1721,764,0,0
504,260,0,0,0,0,0,0,0,0,0,-1,1728,764,0,0
511,260,0,0,0,0,0,0,0,0,0,-1,1735,764,0,0
518,260,0,0,0,0,0,0,0,0,0,-1,1742,764,0,0
525,260,0,0,0,0,0,0,0,0,0,-1,1749,764,0,0
532,260,0,0,0,0,0,0,0,0,0,-1,1756,764,0,0
539,260,0,0,0,0,0,0,0,0,0,-1,1763,764,0,0
546,260,0,0,0,0,0,0,0,0,0,-1,1770,764,0,0
553,260,0,0,0,0,0,0,0,0,0,-1,1777,764,0,0
560,260,0,0,0,0,0,0,0,0,0,-1,1784,764,0,0
567,260,0,0,0,0,0,0,0,0,0,-1,1791,764,0,0
574,260,43.7678,3.03094,0,0,0,0,0,0,0,-1,1798,764,43.7678,-3.03092
581,260,43.7217,3.1817,0,0,0,0,0,0,0,-1,1805,764,43.7217,-3.18171
588,260,44.7974,2.49756,0,0,0,0,0,0,0,-1,1812,764,44.7973,-2.49758
595,260,45.0206,2.36584,0,0,0,0,0,0,0,-1,1819,764,45.0206,-2.36587
602,260,45.2438,2.23413,0,0,0,0,0,0,0,-1,1826,764,45.2438,-2.23416
609,260,43.5947,5.43463,0,0,0,0,0,0,0,-1,1833,764,43.5947,-5.43463
616,260,43.2764,6.46606,0,0,0,0,0,0,0,-1,1840,764,43.2764,-6.46605
623,260,32.2268,3.25836,0,0,0,0,0,0,0,-1,1847,764,32.2268,-3.25833
630,260,24.3739,-0.536316,0,0,0,0,0,0,0,-1,1854,764,24.3739,0.536343
637,260,29.7844,-2.32257,0,0,0,0,0,0,0,-1,1861,764,29.7844,2.3226
644,260,29.7123,-1.92981,-0.000439167,-0.00265489,0.00128876,0.000152462,-0.00324652,0.430368,0.00221692,0.0310459,1868,764,29.7122,1.92981
651,260,29.7028,-1.41132,-0.00185397,-0.0025392,0.000824986,-0.00130328,-0.00308988,0.588586,0.00179121,0.0150739,1875,764,29.7028,1.41134
658,260,29.6865,-0.891602,-0.00206407,-0.00223948,0.000294237,-0.00184475,-0.0024588,0.64056,0.00147768,0.0159075,1882,764,29.6866,0.891576
665,260,29.6478,-0.360718,-0.00183102,-0.00152338,1.66152e-05,-0.00152249,-0.00183191,1.517,0.00113231,0.0162022,1889,764,29.6478,0.360737
672,260,29.6393,0.198486,-0.00130094,-0.000688784,-0.000124988,-0.000664248,-0.00132548,-1.37695,0.000765267,0.0137418,1896,764,29.6393,-0.198462
679,260,29.615,0.731628,-0.000578176,0.000280456,3.66124e-06,0.000280472,-0.000578192,1.56653,0.000505585,0.0125128,1903,764,29.615,-0.731659
686,260,29.5806,1.26862,0.000287444,0.00124642,0.000287273,0.00132589,0.000207974,1.30091,0.000823403,0.0154382,1910,764,29.5805,-1.26861
693,260,29.5378,1.75751,0.00116904,0.00221582,0.000695683,0.00256301,0.000821852,1.1079,0.00151115,0.0152463,1917,764,29.5378,-1.7575
700,260,29.5068,2.28302,0.00169656,0.00323265,0.00120231,0.0038913,0.00103792,1.06963,0.00232672,0.0133439,1924,764,29.5069,-2.28301
707,260,29.5283,2.80713,0.00259763,0.00439119,0.0019247,0.00561778,0.00137104,1.00341,0.00338211,0.0138501,1931,764,29.5283,-2.80712
714,260,29.5806,3.31134,0.00389003,0.00581206,0.00309455,0.00809138,0.00161071,0.935952,0.00494557,0.0262091,1938,764,29.5806,-3.31133
721,260,29.6552,3.81213,0,0,0,0,0,0,0,-1,1945,764,29.6552,-3.81215
728,260,30.104,4.80133,0,0,0,0,0,0,0,-1,1952,764,30.104,-4.80133
735,260,26.9788,4.85681,0,0,0,0,0,0,0,-1,1959,764,26.9787,-4.85678
742,260,32.1443,1.73688,0,0,0,0,0,0,0,-1,1966,764,32.1442,-1.73688
749,260,33.6013,2.94733,0,0,0,0,0,0,0,-1,1973,764,33.6013,-2.9473
756,260,0,0,0,0,0,0,0,0,0,-1,1980,764,0,0
763,260,0,0,0,0,0,0,0,0,0,-1,1987,764,0,0
770,260,0,0,0,0,0,0,0,0,0,-1,1994,764,0,0
777,260,0,0,0,0,0,0,0,0,0,-1,2001,764,0,0
784,260,0,0,0,0,0,0,0,0,0,-1,2008,764,0,0
791,260,0,0,0,0,0,0,0,0,0,-1,2015,764,0,0
798,260,0,0,0,0,0,0,0,0,0,-1,2022,764,0,0
805,260,0,0,0,0,0,0,0,0,0,-1,2029,764,0,0
812,260,0,0,0,0,0,0,0,0,0,-1,2036,764,0,0
-700,253,0,0,0,0,0,0,0,0,0,-1,524,771,0,0
-693,253,0,0,0,0,0,0,0,0,0,-1,531,771,0,0
-686,253,0,0,0,0,0,0,0,0,0,-1,538,771,0,0
-679,253,0,0,0,0,0,0,0,0,0,-1,545,771,0,0
-672,253,0,0,0,0,0,0,0,0,0,-1,552,771,0,0
-665,253,0,0,0,0,0,0,0,0,0,-1,559,771,0,0
-658,253,0,0,0,0,0,0,0,0,0,-1,566,771,0,0
-651,253,0,0,0,0,0,0,0,0,0,-1,573,771,0,0
-644,253,0,0,0,0,0,0,0,0,0,-1,580,771,0,0
-637,253,-24.7979,-0.491394,0,0,0,0,0,0,0,-1,587,771,-24.7978,0.491371
-630,253,-25.156,0.540405,0,0,0,0,0,0,0,-1,594,771,-25.156,-0.540421
-623,253,-20.808,2.84314,0,0,0,0,0,0,0,-1,601,771,-20.8081,-2.84312
-616,253,-25.0877,2.96875,0,0,0,0,0,0,0,-1,608,771,-25.0877,-2.96876
-609,253,-24.28,2.08228,0,0,0,0,0,0,0,-1,615,771,-24.2801,-2.08227
-602,253,-20.4514,2.16998,0,0,0,0,0,0,0,-1,622,771,-20.4514,-2.17001
-595,253,-20.2065,1.65808,0.0153745,0.0116637,-0.0047679,0.0186352,0.00840288,-0.599842,0.0107763,0.0487508,629,771,-20.2065,-1.65805
-588,253,-20.0172,1.20325,0.0108739,0.010046,-0.00414972,0.0146303,0.00628965,-0.735686,0.00847442,0.0385854,636,771,-20.0171,-1.20323
-581,253,-19.972,0.678406,0.00797656,0.00722971,-0.0029801,0.0106065,0.00459973,-0.72307,0.00614163,0.0248391,643,771,-19.972,-0.678396
-574,253,-19.98,0.204468,0.00564082,0.00502603,-0.00192159,0.00727945,0.0033874,-0.706085,0.00420616,0.0211794,650,771,-19.98,-0.20444
-567,253,-20.0169,-0.284546,0.00368745,0.0031538,-0.00101173,0.00446695,0.00237429,-0.656469,0.0025807,0.0174321,657,771,-20.0169,0.284572
-560,253,-19.983,-0.743469,0.00206549,0.00155244,-0.000230937,0.00215412,0.0014638,-0.366477,0.00127013,0.0141036,664,771,-19.983,0.743465
-553,253,-19.9945,-1.2522,0.000708142,0.000358299,0.00055161,0.0011119,-4.54608e-05,0.631858,0.000756876,0.0127944,671,771,-19.9945,1.25222
-546,253,-20.0253,-1.74115,-0.000438592,-0.00049234,0.00133857,0.000873378,-0.00180431,0.775361,0.0015768,0.0108122,678,771,-20.0254,1.74114
-539,253,-20.0629,-2.28168,-0.00135751,-0.000680562,0.00169309,0.000707556,-0.00274563,0.884055,0.00210627,0.0121401,685,771,-20.0629,2.28169
-532,253,-20.0373,-2.79907,-0.00189494,-0.000654342,0.00185802,0.000684192,-0.00323347,0.946505,0.00241622,0.0162465,692,771,-20.0373,2.79905
-525,253,-20.0488,-3.3009,-0.00174648,0.000129196,0.0020716,0.00146535,-0.00308263,0.997952,0.00268055,0.0138043,699,771,-20.0488,3.30093
-518,253,-20.1454,-3.79041,-0.00177057,0.00177737,0.00204358,0.00270954,-0.00270274,1.14284,0.00312479,0.022359,706,771,-20.1455,3.79038
-511,253,-20.3065,-4.23242,0,0,0,0,0,0,0,-1,713,771,-20.3065,4.23241
-504,253,-19.317,-4.1723,0,0,0,0,0,0,0,-1,720,771,-19.317,4.1723
-497,253,-21.7737,-1.76837,0,0,0,0,0,0,0,-1,727,771,-21.7738,1.7684
-490,253,-29.7674,0.438354,0,0,0,0,0,0,0,-1,734,771,-29.7674,-0.438339
-483,253,-33.0459,0.706543,0,0,0,0,0,0,0,-1,741,771,-33.0459,-0.706531
-476,253,-32.7777,1.10663,-0.00432556,0.0123991,-0.00189456,0.012611,-0.00453749,-1.4594,0.0102599,0.0463548,748,771,-32.7777,-1.10666
-469,253,-32.8267,0.871033,-0.00681443,0.0148298,-0.00333152,0.015331,-0.00731561,-1.42148,0.0133452,0.04277,755,771,-32.8267,-0.871063
-462,253,-32.942,0.878479,0,0,0,0,0,0,0,-1,762,771,-32.9419,-0.878462
-455,253,-32.4379,1.18732,0,0,0,0,0,0,0,-1,769,771,-32.4379,-1.18731
-448,253,0,0,0,0,0,0,0,0,0,-1,776,771,0,0
-441,253,0,0,0,0,0,0,0,0,0,-1,783,771,0,0
-434,253,0,0,0,0,0,0,0,0,0,-1,790,771,0,0
-427,253,0,0,0,0,0,0,0,0,0,-1,797,771,0,0
-420,253,0,0,0,0,0,0,0,0,0,-1,804,771,0,0
-413,253,0,0,0,0,0,0,0,0,0,-1,811,771,0,0
-406,253,0,0,0,0,0,0,0,0,0,-1,818,771,0,0
-399,253,0,0,0,0,0,0,0,0,0,-1,825,771,0,0
-392,253,0,0,0,0,0,0,0,0,0,-1,832,771,0,0
-385,253,0,0,0,0,0,0,0,0,0,-1,839,771,0,0
-378,253,0,0,0,0,0,0,0,0,0,-1,846,771,0,0
-371,253,0,0,0,0,0,0,0,0,0,-1,853,771,0,0
-364,253,0,0,0,0,0,0,0,0,0,-1,860,771,0,0
-357,253,0,0,0,0,0,0,0,0,0,-1,867,771,0,0
-350,253,0,0,0,0,0,0,0,0,0,-1,874,771,0,0
-343,253,0,0,0,0,0,0,0,0,0,-1,881,771,0,0
-336,253,0,0,0,0,0,0,0,0,0,-1,888,771,0,0
-329,253,0,0,0,0,0,0,0,0,0,-1,895,771,0,0
-322,253,0,0,0,0,0,0,0,0,0,-1,902,771,0,0
-315,253,0,0,0,0,0,0,0,0,0,-1,909,771,0,0
-308,253,0,0,0,0,0,0,0,0,0,-1,916,771,0,0
-301,253,0,0,0,0,0,0,0,0,0,-1,923,771,0,0
-294,253,0,0,0,0,0,0,0,0,0,-1,930,771,0,0
-287,253,0,0,0,0,0,0,0,0,0,-1,937,771,0,0
-280,253,0,0,0,0,0,0,0,0,0,-1,944,771,0,0
-273,253,0,0,0,0,0,0,0,0,0,-1,951,771,0,0
-266,253,0,0,0,0,0,0,0,0,0,-1,958,771,0,0
-259,253,0,0,0,0,0,0,0,0,0,-1,965,771,0,0
-252,253,0,0,0,0,0,0,0,0,0,-1,972,771,0,0
-245,253,0,0,0,0,0,0,0,0,0,-1,979,771,0,0
-238,253,0,0,0,0,0,0,0,0,0,-1,986,771,0,0
-231,253,0,0,0,0,0,0,0,0,0,-1,993,771,0,0
-224,253,0,0,0,0,0,0,0,0,0,-1,1000,771,0,0
-217,253,0,0,0,0,0,0,0,0,0,-1,1007,771,0,0
-210,253,0,0,0,0,0,0,0,0,0,-1,1014,771,0,0
-203,253,0,0,0,0,0,0,0,0,0,-1,1021,771,0,0
-196,253,0,0,0,0,0,0,0,0,0,-1,1028,771,0,0
-189,253,0,0,0,0,0,0,0,0,0,-1,1035,771,0,0
-182,253,0,0,0,0,0,0,0,0,0,-1,1042,771,0,0
-175,253,0,0,0,0,0,0,0,0,0,-1,1049,771,0,0
-168,253,0,0,0,0,0,0,0,0,0,-1,1056,771,0,0
-161,253,0,0,0,0,0,0,0,0,0,-1,1063,771,0,0
-154,253,0,0,0,0,0,0,0,0,0,-1,1070,771,0,0
-147,253,0,0,0,0,0,0,0,0,0,-1,1077,771,0,0
-140,253,0,0,0,0,0,0,0,0,0,-1,1084,771,0,0
-133,253,0,0,0,0,0,0,0,0,0,-1,1091,771,0,0
-126,253,0,0,0,0,0,0,0,0,0,-1,1098,771,0,0
-119,253,0,0,0,0,0,0,0,0,0,-1,1105,771,0,0
-112,253,0,0,0,0,0,0,0,0,0,-1,1112,771,0,0
-105,253,0,0,0,0,0,0,0,0,0,-1,1119,771,0,0
-98,253,0,0,0,0,0,0,0,0,0,-1,1126,771,0,0
-91,253,0,0,0,0,0,0,0,0,0,-1,1133,771,0,0
-84,253,0,0,0,0,0,0,0,0,0,-1,1140,771,0,0
-77,253,0,0,0,0,0,0,0,0,0,-1,1147,771,0,0
-70,253,0,0,0,0,0,0,0,0,0,-1,1154,771,0,0
-63,253,0,0,0,0,0,0,0,0,0,-1,1161,771,0,0
-56,253,0,0,0,0,0,0,0,0,0,-1,1168,771,0,0
-49,253,0,0,0,0,0,0,0,0,0,-1,1175,771,0,0
-42,253,0,0,0,0,0,0,0,0,0,-1,1182,771,0,0
-35,253,0,0,0,0,0,0,0,0,0,-1,1189,771,0,0
-28,253,0,0,0,0,0,0,0,0,0,-1,1196,771,0,0
-21,253,0,0,0,0,0,0,0,0,0,-1,1203,771,0,0
-14,253,0,0,0,0,0,0,0,0,0,-1,1210,771,0,0
-7,253,0,0,0,0,0,0,0,0,0,-1,1217,771,0,0
0,253,0,0,0,0,0,0,0,0,0,-1,1224,771,0,0
7,253,0,0,0,0,0,0,0,0,0,-1,1231,771,0,0
14,253,0,0,0,0,0,0,0,0,0,-1,1238,771,0,0
21,253,0,0,0,0,0,0,0,0,0,-1,1245,771,0,0
28,253,0,0,0,0,0,0,0,0,0,-1,1252,771,0,0
35,253,0,0,0,0,0,0,0,0,0,-1,1259,771,0,0
42,253,0,0,0,0,0,0,0,0,0,-1,1266,771,0,0
49,253,0,0,0,0,0,0,0,0,0,-1,1273,771,0,0
56,253,0,0,0,0,0,0,0,0,0,-1,1280,771,0,0
63,253,0,0,0,0,0,0,0,0,0,-1,1287,771,0,0
70,253,0,0,0,0,0,0,0,0,0,-1,1294,771,0,0
77,253,0,0,0,0,0,0,0,0,0,-1,1301,771,0,0
84,253,0,0,0,0,0,0,0,0,0,-1,1308,771,0,0
91,253,0,0,0,0,0,0,0,0,0,-1,1315,771,0,0
98,253,0,0,0,0,0,0,0,0,0,-1,1322,771,0,0
105,253,0,0,0,0,0,0,0,0,0,-1,1329,771,0,0
112,253,0,0,0,0,0,0,0,0,0,-1,1336,771,0,0
119,253,0,0,0,0,0,0,0,0,0,-1,1343,771,0,0
126,253,0,0,0,0,0,0,0,0,0,-1,1350,771,0,0
133,253,0,0,0,0,0,0,0,0,0,-1,1357,771,0,0
140,253,0,0,0,0,0,0,0,0,0,-1,1364,771,0,0
147,253,0,0,0,0,0,0,0,0,0,-1,1371,771,0,0
154,253,0,0,0,0,0,0,0,0,0,-1,1378,771,0,0
161,253,0,0,0,0,0,0,0,0,0,-1,1385,771,0,0
168,253,0,0,0,0,0,0,0,0,0,-1,1392,771,0,0
175,253,0,0,0,0,0,0,0,0,0,-1,1399,771,0,0
182,253,0,0,0,0,0,0,0,0,0,-1,1406,771,0,0
189,253,0,0,0,0,0,0,0,0,0,-1,1413,771,0,0
196,253,0,0,0,0,0,0,0,0,0,-1,1420,771,0,0
203,253,0,0,0,0,0,0,0,0,0,-1,1427,771,0,0
210,253,0,0,0,0,0,0,0,0,0,-1,1434,771,0,0
217,253,0,0,0,0,0,0,0,0,0,-1,1441,771,0,0
224,253,0,0,0,0,0,0,0,0,0,-1,1448,771,0,0
231,253,0,0,0,0,0,0,0,0,0,-1,1455,771,0,0
238,253,0,0,0,0,0,0,0,0,0,-1,1462,771,0,0
245,253,0,0,0,0,0,0,0,0,0,-1,1469,771,0,0
252,253,0,0,0,0,0,0,0,0,0,-1,1476,771,0,0
259,253,0,0,0,0,0,0,0,0,0,-1,1483,771,0,0
266,253,0,0,0,0,0,0,0,0,0,-1,1490,771,0,0
273,253,0,0,0,0,0,0,0,0,0,-1,1497,771,0,0
280,253,0,0,0,0,0,0,0,0,0,-1,1504,771,0,0
287,253,0,0,0,0,0,0,0,0,0,-1,1511,771,0,0
294,253,0,0,0,0,0,0,0,0,0,-1,1518,771,0,0
301,253,0,0,0,0,0,0,0,0,0,-1,1525,771,0,0
308,253,0,0,0,0,0,0,0,0,0,-1,1532,771,0,0
315,253,0,0,0,0,0,0,0,0,0,-1,1539,771,0,0
322,253,0,0,0,0,0,0,0,0,0,-1,1546,771,0,0
329,253,0,0,0,0,0,0,0,0,0,-1,1553,771,0,0
336,253,0,0,0,0,0,0,0,0,0,-1,1560,771,0,0
343,253,0,0,0,0,0,0,0,0,0,-1,1567,771,0,0
350,253,0,0,0,0,0,0,0,0,0,-1,1574,771,0,0
357,253,0,0,0,0,0,0,0,0,0,-1,1581,771,0,0
364,253,0,0,0,0,0,0,0,0,0,-1,1588,771,0,0
371,253,0,0,0,0,0,0,0,0,0,-1,1595,771,0,0
378,253,0,0,0,0,0,0,0,0,0,-1,1602,771,0,0
385,253,0,0,0,0,0,0,0,0,0,-1,1609,771,0,0
392,253,0,0,0,0,0,0,0,0,0,-1,1616,771,0,0
399,253,0,0,0,0,0,0,0,0,0,-1,1623,771,0,0
406,253,0,0,0,0,0,0,0,0,0,-1,1630,771,0,0
413,253,0,0,0,0,0,0,0,0,0,-1,1637,771,0,0
420,253,0,0,0,0,0,0,0,0,0,-1,1644,771,0,0
427,253,0,0,0,0,0,0,0,0,0,-1,1651,771,0,0
434,253,0,0,0,0,0,0,0,0,0,-1,1658,771,0,0
441,253,0,0,0,0,0,0,0,0,0,-1,1665,771,0,0
448,253,0,0,0,0,0,0,0,0,0,-1,1672,771,0,0
455,253,0,0,0,0,0,0,0,0,0,-1,1679,771,0,0
462,253,0,0,0,0,0,0,0,0,0,-1,1686,771,0,0
469,253,0,0,0,0,0,0,0,0,0,-1,1693,771,0,0
476,253,0,0,0,0,0,0,0,0,0,-1,1700,771,0,0
483,253,0,0,0,0,0,0,0,0,0,-1,1707,771,0,0
490,253,0,0,0,0,0,0,0,0,0,-1,1714,771,0,0
497,253,0,0,0,0,0,0,0,0,0,-1,1721,771,0,0
504,253,0,0,0,0,0,0,0,0,0,-1,1728,771,0,0
511,253,0,0,0,0,0,0,0,0,0,-1,1735,771,0,0
518,253,0,0,0,0,0,0,0,0,0,-1,1742,771,0,0
525,253,0,0,0,0,0,0,0,0,0,-1,1749,771,0,0
532,253,0,0,0,0,0,0,0,0,0,-1,1756,771,0,0
539,253,0,0,0,0,0,0,0,0,0,-1,1763,771,0,0
546,253,0,0,0,0,0,0,0,0,0,-1,1770,771,0,0
553,253,0,0,0,0,0,0,0,0,0,-1,1777,771,0,0
560,253,0,0,0,0,0,0,0,0,0,-1,1784,771,0,0
567,253,0,0,0,0,0,0,0,0,0,-1,1791,771,0,0
574,253,43.7976,2.7934,0,0,0,0,0,0,0,-1,1798,771,43.7976,-2.79337
581,253,43.9536,2.92133,0,0,0,0,0,0,0,-1,1805,771,43.9536,-2.92131
588,253,44.3997,2.7666,0.0225095,0.00223446,-0.00213585,0.022732,0.0020119,-0.103826,0.0145305,0.0441126,1812,771,44.3997,-2.76662
595,253,44.7971,2.56866,0.021257,0.000919181,8.33472e-06,0.021257,0.000919178,0.000409814,0.0138751,0.0456984,1819,771,44.7972,-2.56869
602,253,45.0958,2.44592,0,0,0,0,0,0,0,-1,1826,771,45.0958,-2.44591
609,253,43.1426,4.0564,0,0,0,0,0,0,0,-1,1833,771,43.1426,-4.05638
616,253,42.9739,4.06671,0,0,0,0,0,0,0,-1,1840,771,42.9739,-4.06671
623,253,42.3893,4.99359,0,0,0,0,0,0,0,-1,1847,771,42.3893,-4.9936
630,253,33.561,2.96838,0,0,0,0,0,0,0,-1,1854,771,33.561,-2.96836
637,253,22.3192,-0.604004,0,0,0,0,0,0,0,-1,1861,771,22.3192,0.603986
644,253,30.3302,-1.89844,0,0,0,0,0,0,0,-1,1868,771,30.3302,1.89843
651,253,30.2308,-1.38086,-0.00267991,-0.00276913,0.000926224,-0.00179722,-0.00365182,0.761333,0.00210846,0.0270978,1875,771,30.2308,1.38087
658,253,30.2192,-0.856934,-0.00307446,-0.00252722,0.000345847,-0.00235985,-0.00324183,1.12006,0.00193542,0.0188818,1882,771,30.2192,0.856955
665,253,30.1088,-0.336243,-0.00289547,-0.00189312,-1.26762e-05,-0.00189296,-0.00289563,-1.55815,0.00169793,0.020682,1889,771,30.1088,0.33623
672,253,30.0955,0.208618,-0.00228912,-0.00111743,-0.000242303,-0.0010693,-0.00233725,-1.37471,0.00135104,0.0162577,1896,771,30.0955,-0.208626
679,253,30.1283,0.749573,-0.00142305,-0.000223204,-0.000175094,-0.000198175,-0.00144808,-1.42881,0.00090658,0.01242,1903,771,30.1283,-0.749585
686,253,30.1085,1.26245,-0.000328133,0.000686603,9.68132e-05,0.000695757,-0.000337287,1.47652,0.00060828,0.0182011,1910,771,30.1085,-1.26246
693,253,30.0573,1.77576,0.00095353,0.00163218,0.000435807,0.00184518,0.000740524,1.11618,0.00107221,0.0183713,1917,771,30.0572,-1.77577
700,253,30.0374,2.29016,0.00178724,0.00238335,0.000933111,0.00306485,0.00110574,0.939986,0.00179221,0.0151759,1924,771,30.0373,-2.29015
707,253,30.0577,2.82111,0.0024721,0.00280574,0.00158664,0.00423431,0.00104353,0.837776,0.0025473,0.0145031,1931,771,30.0578,-2.82111
714,253,30.0718,3.31488,0.00298441,0.00281727,0.00258073,0.00548292,0.000318754,0.769212,0.0035538,0.019978,1938,771,30.0718,-3.31489
721,253,30.1577,3.79901,0.00333228,0.00220473,0.0038225,0.00663236,-0.00109535,0.712182,0.00482828,0.0363623,1945,771,30.1577,-3.799
728,253,30.2557,4.30933,0,0,0,0,0,0,0,-1,1952,771,30.2557,-4.30935
735,253,31.1969,5.53528,0,0,0,0,0,0,0,-1,1959,771,31.1969,-5.53525
742,253,31.0571,5.7337,0,0,0,0,0,0,0,-1,1966,771,31.0571,-5.73373
749,253,33.7754,3.21533,0,0,0,0,0,0,0,-1,1973,771,33.7754,-3.21533
756,253,0,0,0,0,0,0,0,0,0,-1,1980,771,0,0
763,253,0,0,0,0,0,0,0,0,0,-1,1987,771,0,0
770,253,0,0,0,0,0,0,0,0,0,-1,1994,771,0,0
777,253,0,0,0,0,0,0,0,0,0,-1,2001,771,0,0
784,253,0,0,0,0,0,0,0,0,0,-1,2008,771,0,0
791,253,0,0,0,0,0,0,0,0,0,-1,2015,771,0,0
798,253,0,0,0,0,0,0,0,0,0,-1,2022,771,0,0
805,253,0,0,0,0,0,0,0,0,0,-1,2029,771,0,0
812,253,0,0,0,0,0,0,0,0,0,-1,2036,771,0,0
-700,246,0,0,0,0,0,0,0,0,0,-1,524,778,0,0
-693,246,0,0,0,0,0,0,0,0,0,-1,531,778,0,0
-686,246,0,0,0,0,0,0,0,0,0,-1,538,778,0,0
-679,246,0,0,0,0,0,0,0,0,0,-1,545,778,0,0
-672,246,0,0,0,0,0,0,0,0,0,-1,552,778,0,0
-665,246,0,0,0,0,0,0,0,0,0,-1,559,778,0,0
-658,246,0,0,0,0,0,0,0,0,0,-1,566,778,0,0
-651,246,0,0,0,0,0,0,0,0,0,-1,573,778,0,0
-644,246,0,0,0,0,0,0,0,0,0,-1,580,778,0,0
-637,246,-24.1234,0.130432,0,0,0,0,0,0,0,-1,587,778,-24.1234,-0.130438
-630,246,-24.0781,1.38916,0,0,0,0,0,0,0,-1,594,778,-24.0781,-1.38913
-623,246,-23.9183,2.49573,0,0,0,0,0,0,0,-1,601,778,-23.9183,-2.49575
-616,246,-26.8182,2.0705,0,0,0,0,0,0,0,-1,608,778,-26.8182,-2.07052
-609,246,-26.0615,1.16388,0,0,0,0,0,0,0,-1,615,778,-26.0615,-1.16388
-602,246,-21.0929,2.36456,0,0,0,0,0,0,0,-1,622,778,-21.0929,-2.36455
-595,246,-20.7974,1.86377,0.0130102,0.00959703,-0.00472198,0.0163245,0.0062827,-0.611996,0.00950789,0.0434206,629,778,-20.7974,-1.86376
-588,246,-20.424,1.27997,0.00859844,0.00920183,-0.00436516,0.0132757,0.00452456,-0.8199,0.00779314,0.0296708,636,778,-20.4239,-1.27997
-581,246,-20.4864,0.748779,0.0063997,0.00662526,-0.00312893,0.00964344,0.00338151,-0.803412,0.00564983,0.0181542,643,778,-20.4864,-0.748789
-574,246,-20.4592,0.197327,0.00450555,0.00451066,-0.00198089,0.006489,0.00252721,-0.786043,0.00377682,0.0203396,650,778,-20.4593,-0.19734
-567,246,-20.4836,-0.26001,0.00283369,0.00265659,-0.000961134,0.00371034,0.00177993,-0.739462,0.00214276,0.0222394,657,778,-20.4836,0.259994
-560,246,-20.5052,-0.74353,0.00137783,0.00108877,-0.000110625,0.00141531,0.00105129,-0.326642,0.000848634,0.0173803,664,778,-20.5052,0.743533
-553,246,-20.5024,-1.22144,8.69272e-05,8.31377e-05,0.000756027,0.000841062,-0.000670997,0.784145,0.000874826,0.0135496,671,778,-20.5024,1.22143
-546,246,-20.5319,-1.71191,-0.00106496,-0.0005563,0.00157956,0.000789276,-0.00241054,0.86522,0.00192484,0.0109465,678,778,-20.5319,1.71189
-539,246,-20.558,-2.25549,-0.00190446,-0.000471781,0.00183134,0.000778339,-0.00315458,0.971827,0.00240486,0.0110898,685,778,-20.558,2.25549
-532,246,-20.5445,-2.77411,-0.00233125,-0.000117229,0.00193232,0.00100271,-0.00345119,1.04552,0.00269788,0.0131413,692,778,-20.5445,2.77411
-525,246,-20.5777,-3.22919,-0.00219655,0.000715681,0.0020795,0.00179819,-0.00327906,1.09084,0.00297262,0.0199343,699,778,-20.5777,3.2292
-518,246,-20.7285,-3.57904,-0.00224363,0.00231348,0.00201205,0.00307469,-0.00300484,1.20911,0.00351009,0.0331148,706,778,-20.7284,3.57902
-511,246,-20.9748,-3.84241,0,0,0,0,0,0,0,-1,713,778,-20.9748,3.84238
-504,246,-20.0047,-2.88214,0,0,0,0,0,0,0,-1,720,778,-20.0047,2.88216
-497,246,-29.4669,1.82684,0,0,0,0,0,0,0,-1,727,778,-29.4669,-1.82687
-490,246,-33.2126,0.685608,0,0,0,0,0,0,0,-1,734,778,-33.2126,-0.685587
-483,246,-33.0135,0.802185,0,0,0,0,0,0,0,-1,741,778,-33.0135,-0.802198
-476,246,-32.8849,0.871826,-0.00332523,0.0116396,-0.00154125,0.0117967,-0.00348231,-1.46923,0.00924644,0.0456561,748,778,-32.8849,-0.871823
-469,246,-32.8342,0.932495,-0.00485198,0.0132682,-0.00270375,0.013663,-0.00524681,-1.42579,0.0112723,0.0385057,755,778,-32.8342,-0.932471
-462,246,-32.9568,0.874878,-0.0081612,0.0136155,-0.00418573,0.0143923,-0.00893803,-1.38729,0.0135919,0.0437027,762,778,-32.9568,-0.874857
-455,246,0,0,0,0,0,0,0,0,0,-1,769,778,0,0
-448,246,0,0,0,0,0,0,0,0,0,-1,776,778,0,0
-441,246,0,0,0,0,0,0,0,0,0,-1,783,778,0,0
-434,246,0,0,0,0,0,0,0,0,0,-1,790,778,0,0
-427,246,0,0,0,0,0,0,0,0,0,-1,797,778,0,0
-420,246,0,0,0,0,0,0,0,0,0,-1,804,778,0,0
-413,246,0,0,0,0,0,0,0,0,0,-1,811,778,0,0
-406,246,0,0,0,0,0,0,0,0,0,-1,818,778,0,0
-399,246,0,0,0,0,0,0,0,0,0,-1,825,778,0,0
-392,246,0,0,0,0,0,0,0,0,0,-1,832,778,0,0
-385,246,0,0,0,0,0,0,0,0,0,-1,839,778,0,0
-378,246,0,0,0,0,0,0,0,0,0,-1,846,778,0,0
-371,246,0,0,0,0,0,0,0,0,0,-1,853,778,0,0
-364,246,0,0,0,0,0,0,0,0,0,-1,860,778,0,0
-357,246,0,0,0,0,0,0,0,0,0,-1,867,778,0,0
-350,246,0,0,0,0,0,0,0,0,0,-1,874,778,0,0
-343,246,0,0,0,0,0,0,0,0,0,-1,881,778,0,0
-336,246,0,0,0,0,0,0,0,0,0,-1,888,778,0,0
-329,246,0,0,0,0,0,0,0,0,0,-1,895,778,0,0
-322,246,0,0,0,0,0,0,0,0,0,-1,902,778,0,0
-315,246,0,0,0,0,0,0,0,0,0,-1,909,778,0,0
-308,246,0,0,0,0,0,0,0,0,0,-1,916,778,0,0
-301,246,0,0,0,0,0,0,0,0,0,-1,923,778,0,0
-294,246,0,0,0,0,0,0,0,0,0,-1,930,778,0,0
-287,246,0,0,0,0,0,0,0,0,0,-1,937,778,0,0
-280,246,0,0,0,0,0,0,0,0,0,-1,944,778,0,0
-273,246,0,0,0,0,0,0,0,0,0,-1,951,778,0,0
-266,246,0,0,0,0,0,0,0,0,0,-1,958,778,0,0
-259,246,0,0,0,0,0,0,0,0,0,-1,965,778,0,0
-252,246,0,0,0,0,0,0,0,0,0,-1,972,778,0,0
-245,246,0,0,0,0,0,0,0,0,0,-1,979,778,0,0
-238,246,0,0,0,0,0,0,0,0,0,-1,986,778,0,0
-231,246,0,0,0,0,0,0,0,0,0,-1,993,778,0,0
-224,246,0,0,0,0,0,0,0,0,0,-1,1000,778,0,0
-217,246,0,0,0,0,0,0,0,0,0,-1,1007,778,0,0
-210,246,0,0,0,0,0,0,0,0,0,-1,1014,778,0,0
-203,246,0,0,0,0,0,0,0,0,0,-1,1021,778,0,0
-196,246,0,0,0,0,0,0,0,0,0,-1,1028,778,0,0
-189,246,0,0,0,0,0,0,0,0,0,-1,1035,778,0,0
-182,246,0,0,0,0,0,0,0,0,0,-1,1042,778,0,0
-175,246,0,0,0,0,0,0,0,0,0,-1,1049,778,0,0
-168,246,0,0,0,0,0,0,0,0,0,-1,1056,778,0,0
-161,246,0,0,0,0,0,0,0,0,0,-1,1063,778,0,0
-154,246,0,0,0,0,0,0,0,0,0,-1,1070,778,0,0
-147,246,0,0,0,0,0,0,0,0,0,-1,1077,778,0,0
-140,246,0,0,0,0,0,0,0,0,0,-1,1084,778,0,0
-133,246,0,0,0,0,0,0,0,0,0,-1,1091,778,0,0
-126,246,0,0,0,0,0,0,0,0,0,-1,1098,778,0,0
-119,246,0,0,0,0,0,0,0,0,0,-1,1105,778,0,0
-112,246,0,0,0,0,0,0,0,0,0,-1,1112,778,0,0
-105,246,0,0,0,0,0,0,0,0,0,-1,1119,778,0,0
-98,246,0,0,0,0,0,0,0,0,0,-1,1126,778,0,0
-91,246,0,0,0,0,0,0,0,0,0,-1,1133,778,0,0
-84,246,0,0,0,0,0,0,0,0,0,-1,1140,778,0,0
-77,246,0,0,0,0,0,0,0,0,0,-1,1147,778,0,0
-70,246,0,0,0,0,0,0,0,0,0,-1,1154,778,0,0
-63,246,0,0,0,0,0,0,0,0,0,-1,1161,778,0,0
-56,246,0,0,0,0,0,0,0,0,0,-1,1168,778,0,0
-49,246,0,0,0,0,0,0,0,0,0,-1,1175,778,0,0
-42,246,0,0,0,0,0,0,0,0,0,-1,1182,778,0,0
-35,246,0,0,0,0,0,0,0,0,0,-1,1189,778,0,0
-28,246,0,0,0,0,0,0,0,0,0,-1,1196,778,0,0
-21,246,0,0,0,0,0,0,0,0,0,-1,1203,778,0,0
-14,246,0,0,0,0,0,0,0,0,0,-1,1210,778,0,0
-7,246,0,0,0,0,0,0,0,0,0,-1,1217,778,0,0
0,246,0,0,0,0,0,0,0,0,0,-1,1224,778,0,0
7,246,0,0,0,0,0,0,0,0,0,-1,1231,778,0,0
14,246,0,0,0,0,0,0,0,0,0,-1,1238,778,0,0
21,246,0,0,0,0,0,0,0,0,0,-1,1245,778,0,0
28,246,0,0,0,0,0,0,0,0,0,-1,1252,778,0,0
35,246,0,0,0,0,0,0,0,0,0,-1,1259,778,0,0
42,246,0,0,0,0,0,0,0,0,0,-1,1266,778,0,0
49,246,0,0,0,0,0,0,0,0,0,-1,1273,778,0,0
56,246,0,0,0,0,0,0,0,0,0,-1,1280,778,0,0
63,246,0,0,0,0,0,0,0,0,0,-1,1287,778,0,0
70,246,0,0,0,0,0,0,0,0,0,-1,1294,778,0,0
77,246,0,0,0,0,0,0,0,0,0,-1,1301,778,0,0
84,246,0,0,0,0,0,0,0,0,0,-1,1308,778,0,0
91,246,0,0,0,0,0,0,0,0,0,-1,1315,778,0,0
98,246,0,0,0,0,0,0,0,0,0,-1,1322,778,0,0
105,246,0,0,0,0,0,0,0,0,0,-1,1329,778,0,0
112,246,0,0,0,0,0,0,0,0,0,-1,1336,778,0,0
119,246,0,0,0,0,0,0,0,0,0,-1,1343,778,0,0
126,246,0,0,0,0,0,0,0,0,0,-1,1350,778,0,0
133,246,0,0,0,0,0,0,0,0,0,-1,1357,778,0,0
140,246,0,0,0,0,0,0,0,0,0,-1,1364,778,0,0
147,246,0,0,0,0,0,0,0,0,0,-1,1371,778,0,0
154,246,0,0,0,0,0,0,0,0,0,-1,1378,778,0,0
161,246,0,0,0,0,0,0,0,0,0,-1,1385,778,0,0
168,246,0,0,0,0,0,0,0,0,0,-1,1392,778,0,0
175,246,0,0,0,0,0,0,0,0,0,-1,1399,778,0,0
182,246,0,0,0,0,0,0,0,0,0,-1,1406,778,0,0
189,246,0,0,0,0,0,0,0,0,0,-1,1413,778,0,0
196,246,0,0,0,0,0,0,0,0,0,-1,1420,778,0,0
203,246,0,0,0,0,0,0,0,0,0,-1,1427,778,0,0
210,246,0,0,0,0,0,0,0,0,0,-1,1434,778,0,0
217,246,0,0,0,0,0,0,0,0,0,-1,1441,778,0,0
224,246,0,0,0,0,0,0,0,0,0,-1,1448,778,0,0
231,246,0,0,0,0,0,0,0,0,0,-1,1455,778,0,0
238,246,0,0,0,0,0,0,0,0,0,-1,1462,778,0,0
245,246,0,0,0,0,0,0,0,0,0,-1,1469,778,0,0
252,246,0,0,0,0,0,0,0,0,0,-1,1476,778,0,0
259,246,0,0,0,0,0,0,0,0,0,-1,1483,778,0,0
266,246,0,0,0,0,0,0,0,0,0,-1,1490,778,0,0
273,246,0,0,0,0,0,0,0,0,0,-1,1497,778,0,0
280,246,0,0,0,0,0,0,0,0,0,-1,1504,778,0,0
287,246,0,0,0,0,0,0,0,0,0,-1,1511,778,0,0
294,246,0,0,0,0,0,0,0,0,0,-1,1518,778,0,0
301,246,0,0,0,0,0,0,0,0,0,-1,1525,778,0,0
308,246,0,0,0,0,0,0,0,0,0,-1,1532,778,0,0
315,246,0,0,0,0,0,0,0,0,0,-1,1539,778,0,0
322,246,0,0,0,0,0,0,0,0,0,-1,1546,778,0,0
329,246,0,0,0,0,0,0,0,0,0,-1,1553,778,0,0
336,246,0,0,0,0,0,0,0,0,0,-1,1560,778,0,0
343,246,0,0,0,0,0,0,0,0,0,-1,1567,778,0,0
350,246,0,0,0,0,0,0,0,0,0,-1,1574,778,0,0
357,246,0,0,0,0,0,0,0,0,0,-1,1581,778,0,0
364,246,0,0,0,0,0,0,0,0,0,-1,1588,778,0,0
371,246,0,0,0,0,0,0,0,0,0,-1,1595,778,0,0
378,246,0,0,0,0,0,0,0,0,0,-1,1602,778,0,0
385,246,0,0,0,0,0,0,0,0,0,-1,1609,778,0,0
392,246,0,0,0,0,0,0,0,0,0,-1,1616,778,0,0
399,246,0,0,0,0,0,0,0,0,0,-1,1623,778,0,0
406,246,0,0,0,0,0,0,0,0,0,-1,1630,778,0,0
413,246,0,0,0,0,0,0,0,0,0,-1,1637,778,0,0
420,246,0,0,0,0,0,0,0,0,0,-1,1644,778,0,0
427,246,0,0,0,0,0,0,0,0,0,-1,1651,778,0,0
434,246,0,0,0,0,0,0,0,0,0,-1,1658,778,0,0
441,246,0,0,0,0,0,0,0,0,0,-1,1665,778,0,0
448,246,0,0,0,0,0,0,0,0,0,-1,1672,778,0,0
455,246,0,0,0,0,0,0,0,0,0,-1,1679,778,0,0
462,246,0,0,0,0,0,0,0,0,0,-1,1686,778,0,0
469,246,0,0,0,0,0,0,0,0,0,-1,1693,778,0,0
476,246,0,0,0,0,0,0,0,0,0,-1,1700,778,0,0
483,246,0,0,0,0,0,0,0,0,0,-1,1707,778,0,0
490,246,0,0,0,0,0,0,0,0,0,-1,1714,778,0,0
497,246,0,0,0,0,0,0,0,0,0,-1,1721,778,0,0
504,246,0,0,0,0,0,0,0,0,0,-1,1728,778,0,0
511,246,0,0,0,0,0,0,0,0,0,-1,1735,778,0,0
518,246,0,0,0,0,0,0,0,0,0,-1,1742,778,0,0
525,246,0,0,0,0,0,0,0,0,0,-1,1749,778,0,0
532,246,0,0,0,0,0,0,0,0,0,-1,1756,778,0,0
539,246,0,0,0,0,0,0,0,0,0,-1,1763,778,0,0
546,246,0,0,0,0,0,0,0,0,0,-1,1770,778,0,0
553,246,0,0,0,0,0,0,0,0,0,-1,1777,778,0,0
560,246,0,0,0,0,0,0,0,0,0,-1,1784,778,0,0
567,246,0,0,0,0,0,0,0,0,0,-1,1791,778,0,0
574,246,0,0,0,0,0,0,0,0,0,-1,1798,778,0,0
581,246,44.0824,2.84033,0.019539,0.00239474,-0.00425904,0.0205387,0.00139499,-0.230561,0.013252,0.0398757,1805,778,44.0824,-2.84035
588,246,44.2224,2.7204,0.0200075,0.0018916,-0.00165939,0.0201582,0.00174086,-0.0905939,0.0128978,0.0408861,1812,778,44.2225,-2.72037
595,246,44.5187,2.60602,0.018953,0.000428563,0.000473718,0.0189651,0.000416457,0.0255503,0.0125069,0.0410739,1819,778,44.5187,-2.60599
602,246,44.533,2.68036,0.0153599,-0.000547324,0.00127706,0.0154617,-0.000649196,0.0796022,0.0105309,0.0460479,1826,778,44.533,-2.68035
609,246,44.2804,2.92712,0,0,0,0,0,0,0,-1,1833,778,44.2805,-2.92711
616,246,42.9531,4.02576,0,0,0,0,0,0,0,-1,1840,778,42.9531,-4.02573
623,246,45.4465,2.552,0,0,0,0,0,0,0,-1,1847,778,45.4466,-2.55203
630,246,42.2563,4.94934,0,0,0,0,0,0,0,-1,1854,778,42.2564,-4.94931
637,246,29.5785,0.837585,0,0,0,0,0,0,0,-1,1861,778,29.5785,-0.837606
644,246,28.1232,-1.43188,0,0,0,0,0,0,0,-1,1868,778,28.1232,1.43188
651,246,30.7216,-1.37598,0,0,0,0,0,0,0,-1,1875,778,30.7216,1.376
658,246,30.6531,-0.877197,-0.00409453,-0.00289384,0.00038395,-0.00278156,-0.00420681,1.2863,0.00247052,0.0293394,1882,778,30.6531,0.877209
665,246,30.6313,-0.3125,-0.00404195,-0.00234257,-4.35887e-05,-0.00234145,-0.00404306,-1.54517,0.00234399,0.0207524,1889,778,30.6313,0.312514
672,246,30.6407,0.247742,-0.00347322,-0.00161418,-0.000361984,-0.00154618,-0.00354121,-1.38511,0.00204999,0.019674,1896,778,30.6407,-0.247749
679,246,30.6445,0.76123,-0.00257369,-0.000754487,-0.000382818,-0.000677213,-0.00265097,-1.37162,0.00159039,0.0199451,1903,778,30.6445,-0.761239
686,246,30.6368,1.29144,-0.00133084,0.000132396,-0.000146776,0.000146974,-0.00134542,-1.4718,0.000949735,0.0205899,1910,778,30.6368,-1.29147
693,246,30.613,1.79932,0.000324182,0.00110981,0.000112827,0.00112569,0.0003083,1.43095,0.000671706,0.01736,1917,778,30.613,-1.79929
700,246,30.5952,2.30511,0.00146879,0.00168245,0.000676752,0.00226076,0.00089049,0.863681,0.00131501,0.0147813,1924,778,30.5953,-2.30512
707,246,30.5865,2.83746,0.00193993,0.00147525,0.00135185,0.00307926,0.000335917,0.700295,0.00195054,0.0138319,1931,778,30.5866,-2.83745
714,246,30.5682,3.35944,0.00185682,0.000399379,0.00218894,0.00343515,-0.00117895,0.624713,0.00276808,0.0132049,1938,778,30.5682,-3.35945
721,246,30.5394,3.84161,0.0014672,-0.00163955,0.00326926,0.00353335,-0.00370571,0.563614,0.00417987,0.0192643,1945,778,30.5394,-3.8416
728,246,30.6261,4.63782,-0.000239776,-0.00591831,0.00455968,0.00229238,-0.00845046,0.50693,0.00653323,0.0435511,1952,778,30.6262,-4.63785
735,246,30.9155,5.55127,0,0,0,0,0,0,0,-1,1959,778,30.9156,-5.55128
742,246,31.7356,6.70013,0,0,0,0,0,0,0,-1,1966,778,31.7356,-6.70011
749,246,32.3883,7.69324,0,0,0,0,0,0,0,-1,1973,778,32.3883,-7.69322
756,246,33.6919,3.45264,0,0,0,0,0,0,0,-1,1980,778,33.6919,-3.45262
763,246,0,0,0,0,0,0,0,0,0,-1,1987,778,0,0
770,246,0,0,0,0,0,0,0,0,0,-1,1994,778,0,0
777,246,0,0,0,0,0,0,0,0,0,-1,2001,778,0,0
784,246,0,0,0,0,0,0,0,0,0,-1,2008,778,0,0
791,246,0,0,0,0,0,0,0,0,0,-1,2015,778,0,0
798,246,0,0,0,0,0,0,0,0,0,-1,2022,778,0,0
805,246,0,0,0,0,0,0,0,0,0,-1,2029,778,0,0
812,246,0,0,0,0,0,0,0,0,0,-1,2036,778,0,0
-700,239,0,0,0,0,0,0,0,0,0,-1,524,785,0,0
-693,239,0,0,0,0,0,0,0,0,0,-1,531,785,0,0
-686,239,0,0,0,0,0,0,0,0,0,-1,538,785,0,0
-679,239,0,0,0,0,0,0,0,0,0,-1,545,785,0,0
-672,239,0,0,0,0,0,0,0,0,0,-1,552,785,0,0
-665,239,0,0,0,0,0,0,0,0,0,-1,559,785,0,0
-658,239,0,0,0,0,0,0,0,0,0,-1,566,785,0,0
-651,239,0,0,0,0,0,0,0,0,0,-1,573,785,0,0
-644,239,0,0,0,0,0,0,0,0,0,-1,580,785,0,0
-637,239,-23.2709,0.465088,0,0,0,0,0,0,0,-1,587,785,-23.271,-0.465116
-630,239,-23.4006,0.956299,0,0,0,0,0,0,0,-1,594,785,-23.4005,-0.956285
-623,239,-30.6328,2.52185,0,0,0,0,0,0,0,-1,601,785,-30.6328,-2.52183
-616,239,-29.1425,1.42139,0,0,0,0,0,0,0,-1,608,785,-29.1425,-1.42139
-609,239,-27.8569,0.322937,0,0,0,0,0,0,0,-1,615,785,-27.857,-0.322963
-602,239,-20.9059,2.87018,0,0,0,0,0,0,0,-1,622,785,-20.906,-2.87016
-595,239,-20.8964,2.09839,0.0101114,0.00828879,-0.00449969,0.0137911,0.00460905,-0.685486,0.00810692,0.0424651,629,785,-20.8964,-2.09841
-588,239,-20.9042,1.35138,0.00626552,0.0084314,-0.00429884,0.0117816,0.00291531,-0.908788,0.00708546,0.0198172,636,785,-20.9042,-1.3514
-581,239,-20.9718,0.754028,0.00472372,0.00601283,-0.00306911,0.00850434,0.00223221,-0.888901,0.00509131,0.0120701,643,785,-20.9718,-0.75401
-574,239,-20.9729,0.211365,0.00327508,0.00394368,-0.00189731,0.00553592,0.00168285,-0.872602,0.00327701,0.0137071,650,785,-20.9729,-0.211355
-567,239,-20.9815,-0.271118,0.00190379,0.0021105,-0.000840962,0.00285443,0.00115985,-0.846542,0.00165762,0.0167892,657,785,-20.9815,0.271114
-560,239,-21.0166,-0.734863,0.00066687,0.000574694,2.33617e-05,0.000672453,0.000569111,0.234574,0.000418133,0.0161111,664,785,-21.0166,0.734867
-553,239,-21.0273,-1.22021,-0.000513764,-0.00017767,0.000937712,0.000606934,-0.00129837,0.874062,0.00112391,0.0139906,671,785,-21.0274,1.22022
-546,239,-21.0865,-1.71448,-0.00157083,-0.000544838,0.001758,0.00077349,-0.00288916,0.927359,0.00222912,0.0151188,678,785,-21.0866,1.71447
-539,239,-21.1132,-2.24225,-0.00221141,-0.000196466,0.00187496,0.000924551,-0.00333242,1.03193,0.0025855,0.0173021,685,785,-21.1131,2.24224
-532,239,-21.0752,-2.72473,-0.00249466,0.000414676,0.00192698,0.0013744,-0.00345439,1.10871,0.00287282,0.0174501,692,785,-21.0752,2.72471
-525,239,-21.1068,-3.06903,-0.00236092,0.00123501,0.00202335,0.00214382,-0.00326973,1.14864,0.00314797,0.0260182,699,785,-21.1068,3.069
-518,239,-21.3345,-3.28973,0,0,0,0,0,0,0,-1,706,785,-21.3345,3.28973
-511,239,-20.9849,-2.09235,0,0,0,0,0,0,0,-1,713,785,-20.9848,2.09234
-504,239,-25.5015,2.00421,0,0,0,0,0,0,0,-1,720,785,-25.5015,-2.00422
-497,239,-33.595,1.28009,0,0,0,0,0,0,0,-1,727,785,-33.595,-1.28011
-490,239,-33.21,1.04431,-0.00236167,0.00789637,0.000285568,0.00790432,-0.00236962,1.54299,0.00621194,0.0494443,734,785,-33.21,-1.04431
-483,239,-32.9175,0.969299,-0.00235249,0.00937855,-0.000464494,0.00939691,-0.00237085,-1.53128,0.00718646,0.0467923,741,785,-32.9176,-0.9693
-476,239,-32.845,0.944092,-0.00257586,0.0107251,-0.00132813,0.0108565,-0.00270718,-1.47224,0.00828874,0.0395841,748,785,-32.845,-0.944102
-469,239,-32.8646,0.95874,-0.00347797,0.0113086,-0.00223398,0.0116388,-0.00380811,-1.42408,0.00929239,0.039418,755,785,-32.8645,-0.95877
-462,239,-32.9641,0.850281,-0.0060155,0.00991044,-0.00324902,0.0105478,-0.00665282,-1.3771,0.0100153,0.041357,762,785,-32.9641,-0.850252
-455,239,0,0,0,0,0,0,0,0,0,-1,769,785,0,0
-448,239,0,0,0,0,0,0,0,0,0,-1,776,785,0,0
-441,239,0,0,0,0,0,0,0,0,0,-1,783,785,0,0
-434,239,0,0,0,0,0,0,0,0,0,-1,790,785,0,0
-427,239,0,0,0,0,0,0,0,0,0,-1,797,785,0,0
-420,239,0,0,0,0,0,0,0,0,0,-1,804,785,0,0
-413,239,0,0,0,0,0,0,0,0,0,-1,811,785,0,0
-406,239,0,0,0,0,0,0,0,0,0,-1,818,785,0,0
-399,239,0,0,0,0,0,0,0,0,0,-1,825,785,0,0
-392,239,0,0,0,0,0,0,0,0,0,-1,832,785,0,0
-385,239,0,0,0,0,0,0,0,0,0,-1,839,785,0,0
-378,239,0,0,0,0,0,0,0,0,0,-1,846,785,0,0
-371,239,0,0,0,0,0,0,0,0,0,-1,853,785,0,0
-364,239,0,0,0,0,0,0,0,0,0,-1,860,785,0,0
-357,239,0,0,0,0,0,0,0,0,0,-1,867,785,0,0
-350,239,0,0,0,0,0,0,0,0,0,-1,874,785,0,0
-343,239,0,0,0,0,0,0,0,0,0,-1,881,785,0,0
-336,239,0,0,0,0,0,0,0,0,0,-1,888,785,0,0
-329,239,0,0,0,0,0,0,0,0,0,-1,895,785,0,0
-322,239,0,0,0,0,0,0,0,0,0,-1,902,785,0,0
-315,239,0,0,0,0,0,0,0,0,0,-1,909,785,0,0
-308,239,0,0,0,0,0,0,0,0,0,-1,916,785,0,0
-301,239,0,0,0,0,0,0,0,0,0,-1,923,785,0,0
-294,239,0,0,0,0,0,0,0,0,0,-1,930,785,0,0
-287,239,0,0,0,0,0,0,0,0,0,-1,937,785,0,0
-280,239,0,0,0,0,0,0,0,0,0,-1,944,785,0,0
-273,239,0,0,0,0,0,0,0,0,0,-1,951,785,0,0
-266,239,0,0,0,0,0,0,0,0,0,-1,958,785,0,0
-259,239,0,0,0,0,0,0,0,0,0,-1,965,785,0,0
-252,239,0,0,0,0,0,0,0,0,0,-1,972,785,0,0
-245,239,0,0,0,0,0,0,0,0,0,-1,979,785,0,0
-238,239,0,0,0,0,0,0,0,0,0,-1,986,785,0,0
-231,239,0,0,0,0,0,0,0,0,0,-1,993,785,0,0
-224,239,0,0,0,0,0,0,0,0,0,-1,1000,785,0,0
-217,239,0,0,0,0,0,0,0,0,0,-1,1007,785,0,0
-210,239,0,0,0,0,0,0,0,0,0,-1,1014,785,0,0
-203,239,0,0,0,0,0,0,0,0,0,-1,1021,785,0,0
-196,239,0,0,0,0,0,0,0,0,0,-1,1028,785,0,0
-189,239,0,0,0,0,0,0,0,0,0,-1,1035,785,0,0
-182,239,0,0,0,0,0,0,0,0,0,-1,1042,785,0,0
-175,239,0,0,0,0,0,0,0,0,0,-1,1049,785,0,0
-168,239,0,0,0,0,0,0,0,0,0,-1,1056,785,0,0
-161,239,0,0,0,0,0,0,0,0,0,-1,1063,785,0,0
-154,239,0,0,0,0,0,0,0,0,0,-1,1070,785,0,0
-147,239,0,0,0,0,0,0,0,0,0,-1,1077,785,0,0
-140,239,0,0,0,0,0,0,0,0,0,-1,1084,785,0,0
-133,239,0,0,0,0,0,0,0,0,0,-1,1091,785,0,0
-126,239,0,0,0,0,0,0,0,0,0,-1,1098,785,0,0
-119,239,0,0,0,0,0,0,0,0,0,-1,1105,785,0,0
-112,239,0,0,0,0,0,0,0,0,0,-1,1112,785,0,0
-105,239,0,0,0,0,0,0,0,0,0,-1,1119,785,0,0
-98,239,0,0,0,0,0,0,0,0,0,-1,1126,785,0,0
-91,239,0,0,0,0,0,0,0,0,0,-1,1133,785,0,0
-84,239,0,0,0,0,0,0,0,0,0,-1,1140,785,0,0
-77,239,0,0,0,0,0,0,0,0,0,-1,1147,785,0,0
-70,239,0,0,0,0,0,0,0,0,0,-1,1154,785,0,0
-63,239,0,0,0,0,0,0,0,0,0,-1,1161,785,0,0
-56,239,0,0,0,0,0,0,0,0,0,-1,1168,785,0,0
-49,239,0,0,0,0,0,0,0,0,0,-1,1175,785,0,0
-42,239,0,0,0,0,0,0,0,0,0,-1,1182,785,0,0
-35,239,0,0,0,0,0,0,0,0,0,-1,1189,785,0,0
-28,239,0,0,0,0,0,0,0,0,0,-1,1196,785,0,0
-21,239,0,0,0,0,0,0,0,0,0,-1,1203,785,0,0
-14,239,0,0,0,0,0,0,0,0,0,-1,1210,785,0,0
-7,239,0,0,0,0,0,0,0,0,0,-1,1217,785,0,0
0,239,0,0,0,0,0,0,0,0,0,-1,1224,785,0,0
7,239,0,0,0,0,0,0,0,0,0,-1,1231,785,0,0
14,239,0,0,0,0,0,0,0,0,0,-1,1238,785,0,0
21,239,0,0,0,0,0,0,0,0,0,-1,1245,785,0,0
28,239,0,0,0,0,0,0,0,0,0,-1,1252,785,0,0
35,239,0,0,0,0,0,0,0,0,0,-1,1259,785,0,0
42,239,0,0,0,0,0,0,0,0,0,-1,1266,785,0,0
49,239,0,0,0,0,0,0,0,0,0,-1,1273,785,0,0
56,239,0,0,0,0,0,0,0,0,0,-1,1280,785,0,0
63,239,0,0,0,0,0,0,0,0,0,-1,1287,785,0,0
70,239,0,0,0,0,0,0,0,0,0,-1,1294,785,0,0
77,239,0,0,0,0,0,0,0,0,0,-1,1301,785,0,0
84,239,0,0,0,0,0,0,0,0,0,-1,1308,785,0,0
91,239,0,0,0,0,0,0,0,0,0,-1,1315,785,0,0
98,239,0,0,0,0,0,0,0,0,0,-1,1322,785,0,0
105,239,0,0,0,0,0,0,0,0,0,-1,1329,785,0,0
112,239,0,0,0,0,0,0,0,0,0,-1,1336,785,0,0
119,239,0,0,0,0,0,0,0,0,0,-1,1343,785,0,0
126,239,0,0,0,0,0,0,0,0,0,-1,1350,785,0,0
133,239,0,0,0,0,0,0,0,0,0,-1,1357,785,0,0
140,239,0,0,0,0,0,0,0,0,0,-1,1364,785,0,0
147,239,0,0,0,0,0,0,0,0,0,-1,1371,785,0,0
154,239,0,0,0,0,0,0,0,0,0,-1,1378,785,0,0
161,239,0,0,0,0,0,0,0,0,0,-1,1385,785,0,0
168,239,0,0,0,0,0,0,0,0,0,-1,1392,785,0,0
175,239,0,0,0,0,0,0,0,0,0,-1,1399,785,0,0
182,239,0,0,0,0,0,0,0,0,0,-1,1406,785,0,0
189,239,0,0,0,0,0,0,0,0,0,-1,1413,785,0,0
196,239,0,0,0,0,0,0,0,0,0,-1,1420,785,0,0
203,239,0,0,0,0,0,0,0,0,0,-1,1427,785,0,0
210,239,0,0,0,0,0,0,0,0,0,-1,1434,785,0,0
217,239,0,0,0,0,0,0,0,0,0,-1,1441,785,0,0
224,239,0,0,0,0,0,0,0,0,0,-1,1448,785,0,0
231,239,0,0,0,0,0,0,0,0,0,-1,1455,785,0,0
238,239,0,0,0,0,0,0,0,0,0,-1,1462,785,0,0
245,239,0,0,0,0,0,0,0,0,0,-1,1469,785,0,0
252,239,0,0,0,0,0,0,0,0,0,-1,1476,785,0,0
259,239,0,0,0,0,0,0,0,0,0,-1,1483,785,0,0
266,239,0,0,0,0,0,0,0,0,0,-1,1490,785,0,0
273,239,0,0,0,0,0,0,0,0,0,-1,1497,785,0,0
280,239,0,0,0,0,0,0,0,0,0,-1,1504,785,0,0
287,239,0,0,0,0,0,0,0,0,0,-1,1511,785,0,0
294,239,0,0,0,0,0,0,0,0,0,-1,1518,785,0,0
301,239,0,0,0,0,0,0,0,0,0,-1,1525,785,0,0
308,239,0,0,0,0,0,0,0,0,0,-1,1532,785,0,0
315,239,0,0,0,0,0,0,0,0,0,-1,1539,785,0,0
322,239,0,0,0,0,0,0,0,0,0,-1,1546,785,0,0
329,239,0,0,0,0,0,0,0,0,0,-1,1553,785,0,0
336,239,0,0,0,0,0,0,0,0,0,-1,1560,785,0,0
343,239,0,0,0,0,0,0,0,0,0,-1,1567,785,0,0
350,239,0,0,0,0,0,0,0,0,0,-1,1574,785,0,0
357,239,0,0,0,0,0,0,0,0,0,-1,1581,785,0,0
364,239,0,0,0,0,0,0,0,0,0,-1,1588,785,0,0
371,239,0,0,0,0,0,0,0,0,0,-1,1595,785,0,0
378,239,0,0,0,0,0,0,0,0,0,-1,1602,785,0,0
385,239,0,0,0,0,0,0,0,0,0,-1,1609,785,0,0
392,239,0,0,0,0,0,0,0,0,0,-1,1616,785,0,0
399,239,0,0,0,0,0,0,0,0,0,-1,1623,785,0,0
406,239,0,0,0,0,0,0,0,0,0,-1,1630,785,0,0
413,239,0,0,0,0,0,0,0,0,0,-1,1637,785,0,0
420,239,0,0,0,0,0,0,0,0,0,-1,1644,785,0,0
427,239,0,0,0,0,0,0,0,0,0,-1,1651,785,0,0
434,239,0,0,0,0,0,0,0,0,0,-1,1658,785,0,0
441,239,0,0,0,0,0,0,0,0,0,-1,1665,785,0,0
448,239,0,0,0,0,0,0,0,0,0,-1,1672,785,0,0
455,239,0,0,0,0,0,0,0,0,0,-1,1679,785,0,0
462,239,0,0,0,0,0,0,0,0,0,-1,1686,785,0,0
469,239,0,0,0,0,0,0,0,0,0,-1,1693,785,0,0
476,239,0,0,0,0,0,0,0,0,0,-1,1700,785,0,0
483,239,0,0,0,0,0,0,0,0,0,-1,1707,785,0,0
490,239,0,0,0,0,0,0,0,0,0,-1,1714,785,0,0
497,239,0,0,0,0,0,0,0,0,0,-1,1721,785,0,0
504,239,0,0,0,0,0,0,0,0,0,-1,1728,785,0,0
511,239,0,0,0,0,0,0,0,0,0,-1,1735,785,0,0
518,239,0,0,0,0,0,0,0,0,0,-1,1742,785,0,0
525,239,0,0,0,0,0,0,0,0,0,-1,1749,785,0,0
532,239,0,0,0,0,0,0,0,0,0,-1,1756,785,0,0
539,239,0,0,0,0,0,0,0,0,0,-1,1763,785,0,0
546,239,0,0,0,0,0,0,0,0,0,-1,1770,785,0,0
553,239,0,0,0,0,0,0,0,0,0,-1,1777,785,0,0
560,239,0,0,0,0,0,0,0,0,0,-1,1784,785,0,0
567,239,0,0,0,0,0,0,0,0,0,-1,1791,785,0,0
574,239,0,0,0,0,0,0,0,0,0,-1,1798,785,0,0
581,239,44.2181,2.7771,0.0132496,0.00300481,-0.00590657,0.0159456,0.000308866,-0.42819,0.0105289,0.0352692,1805,785,44.2182,-2.77709
588,239,44.2197,2.7818,0.0165009,0.00218285,-0.00210488,0.0168039,0.00187982,-0.14298,0.0106316,0.0367521,1812,785,44.2197,-2.78178
595,239,44.3536,2.65497,0.0163283,0.000330955,0.000526925,0.0163456,0.000313617,0.0328907,0.0107941,0.0337868,1819,785,44.3537,-2.65498
602,239,44.3413,2.716,0.0130846,-0.000917084,0.00148153,0.0132396,-0.00107213,0.104272,0.00920463,0.0376184,1826,785,44.3413,-2.71603
609,239,44.6686,2.513,0,0,0,0,0,0,0,-1,1833,785,44.6686,-2.51301
616,239,44.8264,2.51147,0,0,0,0,0,0,0,-1,1840,785,44.8264,-2.51148
623,239,45.0223,2.61987,0,0,0,0,0,0,0,-1,1847,785,45.0223,-2.61988
630,239,45.1879,2.85602,0,0,0,0,0,0,0,-1,1854,785,45.1879,-2.85602
637,239,39.5542,2.54114,0,0,0,0,0,0,0,-1,1861,785,39.5543,-2.54114
644,239,18.3466,0.735413,0,0,0,0,0,0,0,-1,1868,785,18.3465,-0.735414
651,239,30.8759,-1.49866,0,0,0,0,0,0,0,-1,1875,785,30.8758,1.49867
658,239,31.0964,-0.84906,-0.00504825,-0.00314867,0.000444023,-0.00305,-0.00514692,1.35214,0.00298851,0.0394804,1882,785,31.0964,0.849083
665,239,31.2112,-0.265564,-0.00508141,-0.00265425,-4.05431e-05,-0.00265358,-0.00508209,-1.5541,0.0029351,0.0167082,1889,785,31.2112,0.265548
672,239,31.1763,0.268677,-0.00457567,-0.00193665,-0.000452373,-0.00186126,-0.00465106,-1.40566,0.00270307,0.0198024,1896,785,31.1763,-0.268669
679,239,31.1576,0.812744,-0.00370303,-0.00108545,-0.000565053,-0.000968681,-0.0038198,-1.36702,0.00229289,0.021552,1903,785,31.1576,-0.812722
686,239,31.1459,1.34985,-0.0023928,-0.000231885,-0.000381165,-0.000166622,-0.00245806,-1.40122,0.00158609,0.0220285,1910,785,31.1459,-1.34983
693,239,31.1417,1.82654,-0.00038903,0.00075996,-0.000235436,0.000806331,-0.000435401,-1.37633,0.000727499,0.0146472,1917,785,31.1417,-1.82652
700,239,31.1295,2.32623,0.00112199,0.00118151,0.000367568,0.00152052,0.000782982,0.82579,0.000878005,0.0120944,1924,785,31.1295,-2.32626
707,239,31.1079,2.84363,0.00148947,0.00067484,0.00104595,0.00220461,-4.03018e-05,0.599721,0.00148336,0.0122036,1931,785,31.1079,-2.8436
714,239,31.0852,3.34363,0.00111531,-0.000859758,0.00180167,0.00218234,-0.00192679,0.534698,0.00237394,0.0112508,1938,785,31.0853,-3.34362
721,239,31.0297,3.87762,0.000414337,-0.00339637,0.00278653,0.00188465,-0.00486668,0.485522,0.00402263,0.0235877,1945,785,31.0297,-3.87764
728,239,30.9503,4.47485,-0.00172852,-0.00831078,0.00390855,8.99821e-05,-0.0101293,0.435473,0.00678304,0.0440665,1952,785,30.9504,-4.47483
735,239,31.1105,5.22382,0,0,0,0,0,0,0,-1,1959,785,31.1105,-5.22379
742,239,32.4141,7.6665,0,0,0,0,0,0,0,-1,1966,785,32.4141,-7.6665
749,239,32.1489,3.4411,0,0,0,0,0,0,0,-1,1973,785,32.149,-3.44109
756,239,32.9064,3.6687,0,0,0,0,0,0,0,-1,1980,785,32.9063,-3.66873
763,239,0,0,0,0,0,0,0,0,0,-1,1987,785,0,0
770,239,0,0,0,0,0,0,0,0,0,-1,1994,785,0,0
777,239,0,0,0,0,0,0,0,0,0,-1,2001,785,0,0
784,239,0,0,0,0,0,0,0,0,0,-1,2008,785,0,0
791,239,0,0,0,0,0,0,0,0,0,-1,2015,785,0,0
798,239,0,0,0,0,0,0,0,0,0,-1,2022,785,0,0
805,239,0,0,0,0,0,0,0,0,0,-1,2029,785,0,0
812,239,0,0,0,0,0,0,0,0,0,-1,2036,785,0,0
-700,232,0,0,0,0,0,0,0,0,0,-1,524,792,0,0
-693,232,0,0,0,0,0,0,0,0,0,-1,531,792,0,0
-686,232,0,0,0,0,0,0,0,0,0,-1,538,792,0,0
-679,232,0,0,0,0,0,0,0,0,0,-1,545,792,0,0
-672,232,0,0,0,0,0,0,0,0,0,-1,552,792,0,0
-665,232,0,0,0,0,0,0,0,0,0,-1,559,792,0,0
-658,232,0,0,0,0,0,0,0,0,0,-1,566,792,0,0
-651,232,0,0,0,0,0,0,0,0,0,-1,573,792,0,0
-644,232,-22.5826,0.269348,0,0,0,0,0,0,0,-1,580,792,-22.5826,-0.269357
-637,232,-30.1556,5.06824,0,0,0,0,0,0,0,-1,587,792,-30.1556,-5.06823
-630,232,-32.2345,1.80212,0,0,0,0,0,0,0,-1,594,792,-32.2345,-1.80211
-623,232,-31.5665,1.05115,0,0,0,0,0,0,0,-1,601,792,-31.5664,-1.05112
-616,232,-30.6812,0.432861,0,0,0,0,0,0,0,-1,608,792,-30.6812,-0.432881
-609,232,-29.7142,-0.478943,0,0,0,0,0,0,0,-1,615,792,-29.7142,0.478965
-602,232,-21.3132,3.15393,0,0,0,0,0,0,0,-1,622,792,-21.3132,-3.15394
-595,232,-21.3463,2.23566,0.00702027,0.00915467,-0.00379563,0.0120303,0.00414466,-0.922443,0.00705673,0.0370554,629,792,-21.3463,-2.23568
-588,232,-21.4213,1.32507,0.00405047,0.00871876,-0.00412734,0.0111263,0.00164297,-1.04274,0.00693502,0.0140862,636,792,-21.4214,-1.32504
-581,232,-21.4514,0.751221,0.00317562,0.00559258,-0.00291145,0.0075364,0.00123181,-0.982117,0.00466815,0.00939809,643,792,-21.4514,-0.751196
-574,232,-21.4594,0.267883,0.00212535,0.00339086,-0.00165261,0.00452771,0.000988505,-0.96823,0.00274887,0.00924134,650,792,-21.4594,-0.267856
-567,232,-21.5015,-0.226257,0.00103753,0.00158128,-0.000602425,0.00197034,0.000648475,-0.997365,0.00115951,0.0107127,657,792,-21.5014,0.226232
-560,232,-21.5225,-0.708862,1.36458e-05,8.29978e-05,0.000238835,0.000289661,-0.000193017,0.857489,0.00028053,0.0139795,664,792,-21.5225,0.708844
-553,232,-21.5567,-1.2041,-0.00110541,-0.000351705,0.00117416,0.000504597,-0.00196171,0.940682,0.00150448,0.0134441,671,792,-21.5567,1.20413
-546,232,-21.619,-1.71313,-0.00211283,-0.000425053,0.00197432,0.000878174,-0.00341605,0.987362,0.00261963,0.0207688,678,792,-21.619,1.71312
-539,232,-21.6592,-2.19446,-0.0026384,0.000178061,0.00199945,0.00121542,-0.00367576,1.0922,0.0029406,0.0305928,685,792,-21.6593,2.19443
-532,232,-21.6755,-2.66779,-0.00284744,0.0010161,0.00203786,0.00189228,-0.00372362,1.16474,0.00329931,0.0292228,692,792,-21.6755,2.66778
-525,232,-21.6166,-2.87457,0,0,0,0,0,0,0,-1,699,792,-21.6166,2.87459
-518,232,-20.8098,-3.08154,0,0,0,0,0,0,0,-1,706,792,-20.8098,3.08155
-511,232,-21.6708,-0.962708,0,0,0,0,0,0,0,-1,713,792,-21.6708,0.962731
-504,232,-31.5711,1.60474,0,0,0,0,0,0,0,-1,720,792,-31.5711,-1.60476
-497,232,-32.034,1.35327,0,0,0,0,0,0,0,-1,727,792,-32.034,-1.35327
-490,232,-32.8862,1.19464,-0.0025519,0.00803018,0.000468449,0.00805087,-0.0025726,1.52664,0.00639953,0.0452834,734,792,-32.8862,-1.19462
-483,232,-32.9108,0.963013,-0.00227811,0.00908256,-0.000247607,0.00908795,-0.0022835,-1.54902,0.00694607,0.0419203,741,792,-32.9108,-0.963002
-476,232,-32.8727,0.899719,-0.00198435,0.00961221,-0.00103949,0.00970465,-0.00207679,-1.4821,0.00726171,0.0336422,748,792,-32.8727,-0.899742
-469,232,-32.913,0.854736,-0.00215735,0.00876608,-0.00168618,0.00902044,-0.00241171,-1.42107,0.00695827,0.0316886,755,792,-32.913,-0.854733
-462,232,0,0,0,0,0,0,0,0,0,-1,762,792,0,0
-455,232,0,0,0,0,0,0,0,0,0,-1,769,792,0,0
-448,232,0,0,0,0,0,0,0,0,0,-1,776,792,0,0
-441,232,0,0,0,0,0,0,0,0,0,-1,783,792,0,0
-434,232,0,0,0,0,0,0,0,0,0,-1,790,792,0,0
-427,232,0,0,0,0,0,0,0,0,0,-1,797,792,0,0
-420,232,0,0,0,0,0,0,0,0,0,-1,804,792,0,0
-413,232,0,0,0,0,0,0,0,0,0,-1,811,792,0,0
-406,232,0,0,0,0,0,0,0,0,0,-1,818,792,0,0
-399,232,0,0,0,0,0,0,0,0,0,-1,825,792,0,0
-392,232,0,0,0,0,0,0,0,0,0,-1,832,792,0,0
-385,232,0,0,0,0,0,0,0,0,0,-1,839,792,0,0
-378,232,0,0,0,0,0,0,0,0,0,-1,846,792,0,0
-371,232,0,0,0,0,0,0,0,0,0,-1,853,792,0,0
-364,232,0,0,0,0,0,0,0,0,0,-1,860,792,0,0
-357,232,0,0,0,0,0,0,0,0,0,-1,867,792,0,0
-350,232,0,0,0,0,0,0,0,0,0,-1,874,792,0,0
-343,232,0,0,0,0,0,0,0,0,0,-1,881,792,0,0
-336,232,0,0,0,0,0,0,0,0,0,-1,888,792,0,0
-329,232,0,0,0,0,0,0,0,0,0,-1,895,792,0,0
-322,232,0,0,0,0,0,0,0,0,0,-1,902,792,0,0
-315,232,0,0,0,0,0,0,0,0,0,-1,909,792,0,0
-308,232,0,0,0,0,0,0,0,0,0,-1,916,792,0,0
-301,232,0,0,0,0,0,0,0,0,0,-1,923,792,0,0
-294,232,0,0,0,0,0,0,0,0,0,-1,930,792,0,0
-287,232,0,0,0,0,0,0,0,0,0,-1,937,792,0,0
-280,232,0,0,0,0,0,0,0,0,0,-1,944,792,0,0
-273,232,0,0,0,0,0,0,0,0,0,-1,951,792,0,0
-266,232,0,0,0,0,0,0,0,0,0,-1,958,792,0,0
-259,232,0,0,0,0,0,0,0,0,0,-1,965,792,0,0
-252,232,0,0,0,0,0,0,0,0,0,-1,972,792,0,0
-245,232,0,0,0,0,0,0,0,0,0,-1,979,792,0,0
-238,232,0,0,0,0,0,0,0,0,0,-1,986,792,0,0
-231,232,0,0,0,0,0,0,0,0,0,-1,993,792,0,0
-224,232,0,0,0,0,0,0,0,0,0,-1,1000,792,0,0
-217,232,0,0,0,0,0,0,0,0,0,-1,1007,792,0,0
-210,232,0,0,0,0,0,0,0,0,0,-1,1014,792,0,0
-203,232,0,0,0,0,0,0,0,0,0,-1,1021,792,0,0
-196,232,0,0,0,0,0,0,0,0,0,-1,1028,792,0,0
-189,232,0,0,0,0,0,0,0,0,0,-1,1035,792,0,0
-182,232,0,0,0,0,0,0,0,0,0,-1,1042,792,0,0
-175,232,0,0,0,0,0,0,0,0,0,-1,1049,792,0,0
-168,232,0,0,0,0,0,0,0,0,0,-1,1056,792,0,0
-161,232,0,0,0,0,0,0,0,0,0,-1,1063,792,0,0
-154,232,0,0,0,0,0,0,0,0,0,-1,1070,792,0,0
-147,232,0,0,0,0,0,0,0,0,0,-1,1077,792,0,0
-140,232,0,0,0,0,0,0,0,0,0,-1,1084,792,0,0
-133,232,0,0,0,0,0,0,0,0,0,-1,1091,792,0,0
-126,232,0,0,0,0,0,0,0,0,0,-1,1098,792,0,0
-119,232,0,0,0,0,0,0,0,0,0,-1,1105,792,0,0
-112,232,0,0,0,0,0,0,0,0,0,-1,1112,792,0,0
-105,232,0,0,0,0,0,0,0,0,0,-1,1119,792,0,0
-98,232,0,0,0,0,0,0,0,0,0,-1,1126,792,0,0
-91,232,0,0,0,0,0,0,0,0,0,-1,1133,792,0,0
-84,232,0,0,0,0,0,0,0,0,0,-1,1140,792,0,0
-77,232,0,0,0,0,0,0,0,0,0,-1,1147,792,0,0
-70,232,0,0,0,0,0,0,0,0,0,-1,1154,792,0,0
-63,232,0,0,0,0,0,0,0,0,0,-1,1161,792,0,0
-56,232,0,0,0,0,0,0,0,0,0,-1,1168,792,0,0
-49,232,0,0,0,0,0,0,0,0,0,-1,1175,792,0,0
-42,232,0,0,0,0,0,0,0,0,0,-1,1182,792,0,0
-35,232,0,0,0,0,0,0,0,0,0,-1,1189,792,0,0
-28,232,0,0,0,0,0,0,0,0,0,-1,1196,792,0,0
-21,232,0,0,0,0,0,0,0,0,0,-1,1203,792,0,0
-14,232,0,0,0,0,0,0,0,0,0,-1,1210,792,0,0
-7,232,0,0,0,0,0,0,0,0,0,-1,1217,792,0,0
0,232,0,0,0,0,0,0,0,0,0,-1,1224,792,0,0
7,232,0,0,0,0,0,0,0,0,0,-1,1231,792,0,0
14,232,0,0,0,0,0,0,0,0,0,-1,1238,792,0,0
21,232,0,0,0,0,0,0,0,0,0,-1,1245,792,0,0
28,232,0,0,0,0,0,0,0,0,0,-1,1252,792,0,0
35,232,0,0,0,0,0,0,0,0,0,-1,1259,792,0,0
42,232,0,0,0,0,0,0,0,0,0,-1,1266,792,0,0
49,232,0,0,0,0,0,0,0,0,0,-1,1273,792,0,0
56,232,0,0,0,0,0,0,0,0,0,-1,1280,792,0,0
63,232,0,0,0,0,0,0,0,0,0,-1,1287,792,0,0
70,232,0,0,0,0,0,0,0,0,0,-1,1294,792,0,0
77,232,0,0,0,0,0,0,0,0,0,-1,1301,792,0,0
84,232,0,0,0,0,0,0,0,0,0,-1,1308,792,0,0
91,232,0,0,0,0,0,0,0,0,0,-1,1315,792,0,0
98,232,0,0,0,0,0,0,0,0,0,-1,1322,792,0,0
105,232,0,0,0,0,0,0,0,0,0,-1,1329,792,0,0
112,232,0,0,0,0,0,0,0,0,0,-1,1336,792,0,0
119,232,0,0,0,0,0,0,0,0,0,-1,1343,792,0,0
126,232,0,0,0,0,0,0,0,0,0,-1,1350,792,0,0
133,232,0,0,0,0,0,0,0,0,0,-1,1357,792,0,0
140,232,0,0,0,0,0,0,0,0,0,-1,1364,792,0,0
147,232,0,0,0,0,0,0,0,0,0,-1,1371,792,0,0
154,232,0,0,0,0,0,0,0,0,0,-1,1378,792,0,0
161,232,0,0,0,0,0,0,0,0,0,-1,1385,792,0,0
168,232,0,0,0,0,0,0,0,0,0,-1,1392,792,0,0
175,232,0,0,0,0,0,0,0,0,0,-1,1399,792,0,0
182,232,0,0,0,0,0,0,0,0,0,-1,1406,792,0,0
189,232,0,0,0,0,0,0,0,0,0,-1,1413,792,0,0
196,232,0,0,0,0,0,0,0,0,0,-1,1420,792,0,0
203,232,0,0,0,0,0,0,0,0,0,-1,1427,792,0,0
210,232,0,0,0,0,0,0,0,0,0,-1,1434,792,0,0
217,232,0,0,0,0,0,0,0,0,0,-1,1441,792,0,0
224,232,0,0,0,0,0,0,0,0,0,-1,1448,792,0,0
231,232,0,0,0,0,0,0,0,0,0,-1,1455,792,0,0
238,232,0,0,0,0,0,0,0,0,0,-1,1462,792,0,0
245,232,0,0,0,0,0,0,0,0,0,-1,1469,792,0,0
252,232,0,0,0,0,0,0,0,0,0,-1,1476,792,0,0
259,232,0,0,0,0,0,0,0,0,0,-1,1483,792,0,0
266,232,0,0,0,0,0,0,0,0,0,-1,1490,792,0,0
273,232,0,0,0,0,0,0,0,0,0,-1,1497,792,0,0
280,232,0,0,0,0,0,0,0,0,0,-1,1504,792,0,0
287,232,0,0,0,0,0,0,0,0,0,-1,1511,792,0,0
294,232,0,0,0,0,0,0,0,0,0,-1,1518,792,0,0
301,232,0,0,0,0,0,0,0,0,0,-1,1525,792,0,0
308,232,0,0,0,0,0,0,0,0,0,-1,1532,792,0,0
315,232,0,0,0,0,0,0,0,0,0,-1,1539,792,0,0
322,232,0,0,0,0,0,0,0,0,0,-1,1546,792,0,0
329,232,0,0,0,0,0,0,0,0,0,-1,1553,792,0,0
336,232,0,0,0,0,0,0,0,0,0,-1,1560,792,0,0
343,232,0,0,0,0,0,0,0,0,0,-1,1567,792,0,0
350,232,0,0,0,0,0,0,0,0,0,-1,1574,792,0,0
357,232,0,0,0,0,0,0,0,0,0,-1,1581,792,0,0
364,232,0,0,0,0,0,0,0,0,0,-1,1588,792,0,0
371,232,0,0,0,0,0,0,0,0,0,-1,1595,792,0,0
378,232,0,0,0,0,0,0,0,0,0,-1,1602,792,0,0
385,232,0,0,0,0,0,0,0,0,0,-1,1609,792,0,0
392,232,0,0,0,0,0,0,0,0,0,-1,1616,792,0,0
399,232,0,0,0,0,0,0,0,0,0,-1,1623,792,0,0
406,232,0,0,0,0,0,0,0,0,0,-1,1630,792,0,0
413,232,0,0,0,0,0,0,0,0,0,-1,1637,792,0,0
420,232,0,0,0,0,0,0,0,0,0,-1,1644,792,0,0
427,232,0,0,0,0,0,0,0,0,0,-1,1651,792,0,0
434,232,0,0,0,0,0,0,0,0,0,-1,1658,792,0,0
441,232,0,0,0,0,0,0,0,0,0,-1,1665,792,0,0
448,232,0,0,0,0,0,0,0,0,0,-1,1672,792,0,0
455,232,0,0,0,0,0,0,0,0,0,-1,1679,792,0,0
462,232,0,0,0,0,0,0,0,0,0,-1,1686,792,0,0
469,232,0,0,0,0,0,0,0,0,0,-1,1693,792,0,0
476,232,0,0,0,0,0,0,0,0,0,-1,1700,792,0,0
483,232,0,0,0,0,0,0,0,0,0,-1,1707,792,0,0
490,232,0,0,0,0,0,0,0,0,0,-1,1714,792,0,0
497,232,0,0,0,0,0,0,0,0,0,-1,1721,792,0,0
504,232,0,0,0,0,0,0,0,0,0,-1,1728,792,0,0
511,232,0,0,0,0,0,0,0,0,0,-1,1735,792,0,0
518,232,0,0,0,0,0,0,0,0,0,-1,1742,792,0,0
525,232,0,0,0,0,0,0,0,0,0,-1,1749,792,0,0
532,232,0,0,0,0,0,0,0,0,0,-1,1756,792,0,0
539,232,0,0,0,0,0,0,0,0,0,-1,1763,792,0,0
546,232,0,0,0,0,0,0,0,0,0,-1,1770,792,0,0
553,232,0,0,0,0,0,0,0,0,0,-1,1777,792,0,0
560,232,0,0,0,0,0,0,0,0,0,-1,1784,792,0,0
567,232,0,0,0,0,0,0,0,0,0,-1,1791,792,0,0
574,232,0,0,0,0,0,0,0,0,0,-1,1798,792,0,0
581,232,0,0,0,0,0,0,0,0,0,-1,1805,792,0,0
588,232,44.2488,2.78333,0.0123335,0.00286205,-0.00318347,0.0133041,0.00189151,-0.295919,0.00831094,0.0379526,1812,792,44.2487,-2.78332
595,232,44.296,2.67206,0.0135152,0.000520832,0.000172763,0.0135175,0.000518535,0.0132921,0.00884387,0.0349178,1819,792,44.296,-2.67207
602,232,44.2357,2.64362,0.0105107,-0.00109893,0.00146887,0.0106936,-0.00128189,0.123921,0.00759253,0.0332566,1826,792,44.2357,-2.64359
609,232,44.3427,2.64471,0.00737363,-0.00211144,0.00211387,0.00782341,-0.00256122,0.209647,0.00624688,0.0393331,1833,792,44.3426,-2.64473
616,232,44.571,2.58551,0.00432203,-0.00287257,0.00227199,0.00497943,-0.00352997,0.281659,0.00493661,0.0455114,1840,792,44.5711,-2.58554
623,232,44.64,2.6156,0.00159334,-0.00339199,0.0021227,0.0023747,-0.00417335,0.352706,0.00382776,0.0444063,1847,792,44.64,-2.61559
630,232,44.7266,2.59613,0,0,0,0,0,0,0,-1,1854,792,44.7265,-2.59615
637,232,44.1359,3.50415,0,0,0,0,0,0,0,-1,1861,792,44.1359,-3.50413
644,232,30.7756,4.24139,0,0,0,0,0,0,0,-1,1868,792,30.7757,-4.24141
651,232,31.6797,-0.564087,0,0,0,0,0,0,0,-1,1875,792,31.6797,0.564059
658,232,31.6534,-0.799255,0,0,0,0,0,0,0,-1,1882,792,31.6534,0.799241
665,232,31.7632,-0.230591,-0.00593317,-0.00284327,-0.000206973,-0.00282947,-0.00594698,-1.50421,0.00343483,0.0189935,1889,792,31.7632,0.230575
672,232,31.6744,0.316223,-0.00549626,-0.00219229,-0.000700311,-0.00204998,-0.00563857,-1.37032,0.00329558,0.0204434,1896,792,31.6745,-0.316236
679,232,31.6802,0.838623,-0.00471748,-0.00139786,-0.000872174,-0.00118267,-0.00493268,-1.32889,0.00297369,0.0196729,1903,792,31.6801,-0.838646
686,232,31.6814,1.35187,-0.00344518,-0.000608584,-0.000713964,-0.000439018,-0.00361475,-1.33762,0.00227764,0.0186328,1910,792,31.6814,-1.35186
693,232,31.673,1.8252,-0.00116609,0.000376758,-0.000668589,0.00062617,-0.0014155,-1.21374,0.00120777,0.0105163,1917,792,31.673,-1.82522
700,232,31.6624,2.33112,0.000750215,0.000659733,-3.27664e-05,0.000760834,0.000649114,-0.313413,0.000474388,0.0125642,1924,792,31.6623,-2.33111
707,232,31.6311,2.86005,0.00113648,-0.000146439,0.000636297,0.00139854,-0.000408497,0.390678,0.00109424,0.0132214,1931,792,31.6311,-2.86002
714,232,31.6241,3.36316,0.000642227,-0.00204565,0.00131927,0.00118154,-0.00258496,0.388068,0.00222434,0.0140452,1938,792,31.6242,-3.36316
721,232,31.5988,3.88568,-0.000123842,-0.00492374,0.00221539,0.000742357,-0.00578994,0.372716,0.00412971,0.0232657,1945,792,31.5987,-3.88571
728,232,31.5374,4.32709,-0.00228602,-0.0101697,0.00319235,-0.00115547,-0.0113003,0.340362,0.00717943,0.0469738,1952,792,31.5373,-4.3271
735,232,31.7053,4.93457,0,0,0,0,0,0,0,-1,1959,792,31.7053,-4.93455
742,232,25.6461,6.00684,0,0,0,0,0,0,0,-1,1966,792,25.6461,-6.00684
749,232,31.2874,3.74713,0,0,0,0,0,0,0,-1,1973,792,31.2874,-3.74713
756,232,32.1207,3.896,0,0,0,0,0,0,0,-1,1980,792,32.1207,-3.89597
763,232,32.7255,4.05878,0,0,0,0,0,0,0,-1,1987,792,32.7255,-4.05881
770,232,0,0,0,0,0,0,0,0,0,-1,1994,792,0,0
777,232,0,0,0,0,0,0,0,0,0,-1,2001,792,0,0
784,232,0,0,0,0,0,0,0,0,0,-1,2008,792,0,0
791,232,0,0,0,0,0,0,0,0,0,-1,2015,792,0,0
798,232,0,0,0,0,0,0,0,0,0,-1,2022,792,0,0
805,232,0,0,0,0,0,0,0,0,0,-1,2029,792,0,0
812,232,0,0,0,0,0,0,0,0,0,-1,2036,792,0,0
-700,225,0,0,0,0,0,0,0,0,0,-1,524,799,0,0
-693,225,0,0,0,0,0,0,0,0,0,-1,531,799,0,0
-686,225,0,0,0,0,0,0,0,0,0,-1,538,799,0,0
-679,225,0,0,0,0,0,0,0,0,0,-1,545,799,0,0
-672,225,0,0,0,0,0,0,0,0,0,-1,552,799,0,0
-665,225,0,0,0,0,0,0,0,0,0,-1,559,799,0,0
-658,225,0,0,0,0,0,0,0,0,0,-1,566,799,0,0
-651,225,0,0,0,0,0,0,0,0,0,-1,573,799,0,0
-644,225,-29.6308,5.53137,0,0,0,0,0,0,0,-1,580,799,-29.6308,-5.53137
-637,225,-29.8104,5.12939,0,0,0,0,0,0,0,-1,587,799,-29.8104,-5.12942
-630,225,-29.8912,5.02606,0,0,0,0,0,0,0,-1,594,799,-29.8912,-5.02606
-623,225,-32.8276,-0.00836182,0,0,0,0,0,0,0,-1,601,799,-32.8276,0.00837668
-616,225,-32.0569,-0.549255,0,0,0,0,0,0,0,-1,608,799,-32.0569,0.549265
-609,225,-21.2455,3.96423,0,0,0,0,0,0,0,-1,615,799,-21.2456,-3.96423
-602,225,-21.6671,3.05725,0.00874302,0.00641851,0.000181098,0.00875705,0.00640449,0.0772865,0.00523318,0.0498501,622,799,-21.6671,-3.05726
-595,225,-21.9619,1.99744,0.00426715,0.00956504,-0.00272017,0.010713,0.00311923,-1.17146,0.00636242,0.0322937,629,799,-21.9619,-1.99744
-588,225,-21.9457,1.25189,0.00193825,0.00867225,-0.00340031,0.0100905,0.000519976,-1.17564,0.00656056,0.0135731,636,799,-21.9458,-1.25186
-581,225,-21.9478,0.776733,0.00162321,0.00506657,-0.00237619,0.00627925,0.00041053,-1.09891,0.00405625,0.0111666,643,799,-21.9478,-0.776742
-574,225,-21.9485,0.300171,0.000987043,0.00275305,-0.00120588,0.00336465,0.000375444,-1.10142,0.00212902,0.00891342,650,799,-21.9485,-0.300149
-567,225,-21.9859,-0.197815,0.000203923,0.00100112,-0.000244007,0.00106988,0.000135168,-1.29614,0.000672739,0.0114379,657,799,-21.9859,0.197789
-560,225,-22.0157,-0.68457,-0.000606186,-0.000436536,0.000509752,-4.59951e-06,-0.00103812,0.867845,0.000690554,0.0125699,664,799,-22.0157,0.684554
-553,225,-22.0457,-1.17926,-0.0016403,-0.000580211,0.00141748,0.000403083,-0.0026236,0.964316,0.00189775,0.0112634,671,799,-22.0457,1.17924
-546,225,-22.08,-1.66217,-0.00256843,-0.000443135,0.00217036,0.000910763,-0.00392232,1.01305,0.00296546,0.0197061,678,799,-22.08,1.66217
-539,225,-22.0734,-2.16388,-0.00298311,0.000316465,0.00214201,0.00137038,-0.00403702,1.11355,0.00324604,0.0395299,685,799,-22.0734,2.16388
-532,225,-22.2045,-2.58154,-0.00313943,0.00128005,0.00220061,0.0021889,-0.00404829,1.17913,0.00365399,0.0389182,692,799,-22.2045,2.58155
-525,225,-22.5439,-2.78638,0,0,0,0,0,0,0,-1,699,799,-22.5439,2.78637
-518,225,-21.963,0.171326,0,0,0,0,0,0,0,-1,706,799,-21.9629,-0.171319
-511,225,-31.7129,1.82031,0,0,0,0,0,0,0,-1,713,799,-31.7129,-1.82029
-504,225,-32.0095,1.51935,-0.00313855,0.00575942,0.00184099,0.00612528,-0.00350441,1.37462,0.00562792,0.0492653,720,799,-32.0095,-1.51934
-497,225,-32.3835,1.19141,-0.00278523,0.0069859,0.00147812,0.00720461,-0.00300394,1.4239,0.00605795,0.0426145,727,799,-32.3835,-1.19139
-490,225,-32.8357,0.890808,-0.00232274,0.00809406,0.00105846,0.00820052,-0.0024292,1.47055,0.00643153,0.0394978,734,799,-32.8357,-0.890831
-483,225,-32.8646,0.880859,-0.00155295,0.00879875,0.000468898,0.00881995,-0.00157415,1.52562,0.00646884,0.0321164,741,799,-32.8646,-0.880836
-476,225,-32.8945,0.783875,-0.000407857,0.00849103,-9.34337e-05,0.00849201,-0.000408838,-1.5603,0.00580242,0.0296762,748,799,-32.8945,-0.783867
-469,225,-32.9408,0.767151,0.000536486,0.00600448,-0.000375501,0.00603015,0.00051082,-1.50255,0.00386111,0.0334094,755,799,-32.9408,-0.767178
-462,225,0,0,0,0,0,0,0,0,0,-1,762,799,0,0
-455,225,0,0,0,0,0,0,0,0,0,-1,769,799,0,0
-448,225,0,0,0,0,0,0,0,0,0,-1,776,799,0,0
-441,225,0,0,0,0,0,0,0,0,0,-1,783,799,0,0
-434,225,0,0,0,0,0,0,0,0,0,-1,790,799,0,0
-427,225,0,0,0,0,0,0,0,0,0,-1,797,799,0,0
-420,225,0,0,0,0,0,0,0,0,0,-1,804,799,0,0
-413,225,0,0,0,0,0,0,0,0,0,-1,811,799,0,0
-406,225,0,0,0,0,0,0,0,0,0,-1,818,799,0,0
-399,225,0,0,0,0,0,0,0,0,0,-1,825,799,0,0
-392,225,0,0,0,0,0,0,0,0,0,-1,832,799,0,0
-385,225,0,0,0,0,0,0,0,0,0,-1,839,799,0,0
-378,225,0,0,0,0,0,0,0,0,0,-1,846,799,0,0
-371,225,0,0,0,0,0,0,0,0,0,-1,853,799,0,0
-364,225,0,0,0,0,0,0,0,0,0,-1,860,799,0,0
-357,225,0,0,0,0,0,0,0,0,0,-1,867,799,0,0
-350,225,0,0,0,0,0,0,0,0,0,-1,874,799,0,0
-343,225,0,0,0,0,0,0,0,0,0,-1,881,799,0,0
-336,225,0,0,0,0,0,0,0,0,0,-1,888,799,0,0
-329,225,0,0,0,0,0,0,0,0,0,-1,895,799,0,0
-322,225,0,0,0,0,0,0,0,0,0,-1,902,799,0,0
-315,225,0,0,0,0,0,0,0,0,0,-1,909,799,0,0
-308,225,0,0,0,0,0,0,0,0,0,-1,916,799,0,0
-301,225,0,0,0,0,0,0,0,0,0,-1,923,799,0,0
-294,225,0,0,0,0,0,0,0,0,0,-1,930,799,0,0
-287,225,0,0,0,0,0,0,0,0,0,-1,937,799,0,0
-280,225,0,0,0,0,0,0,0,0,0,-1,944,799,0,0
-273,225,0,0,0,0,0,0,0,0,0,-1,951,799,0,0
-266,225,0,0,0,0,0,0,0,0,0,-1,958,799,0,0
-259,225,0,0,0,0,0,0,0,0,0,-1,965,799,0,0
-252,225,0,0,0,0,0,0,0,0,0,-1,972,799,0,0
-245,225,0,0,0,0,0,0,0,0,0,-1,979,799,0,0
-238,225,0,0,0,0,0,0,0,0,0,-1,986,799,0,0
-231,225,0,0,0,0,0,0,0,0,0,-1,993,799,0,0
-224,225,0,0,0,0,0,0,0,0,0,-1,1000,799,0,0
-217,225,0,0,0,0,0,0,0,0,0,-1,1007,799,0,0
-210,225,0,0,0,0,0,0,0,0,0,-1,1014,799,0,0
-203,225,0,0,0,0,0,0,0,0,0,-1,1021,799,0,0
-196,225,0,0,0,0,0,0,0,0,0,-1,1028,799,0,0
-189,225,0,0,0,0,0,0,0,0,0,-1,1035,799,0,0
-182,225,0,0,0,0,0,0,0,0,0,-1,1042,799,0,0
-175,225,0,0,0,0,0,0,0,0,0,-1,1049,799,0,0
-168,225,0,0,0,0,0,0,0,0,0,-1,1056,799,0,0
-161,225,0,0,0,0,0,0,0,0,0,-1,1063,799,0,0
-154,225,0,0,0,0,0,0,0,0,0,-1,1070,799,0,0
-147,225,0,0,0,0,0,0,0,0,0,-1,1077,799,0,0
-140,225,0,0,0,0,0,0,0,0,0,-1,1084,799,0,0
-133,225,0,0,0,0,0,0,0,0,0,-1,1091,799,0,0
-126,225,0,0,0,0,0,0,0,0,0,-1,1098,799,0,0
-119,225,0,0,0,0,0,0,0,0,0,-1,1105,799,0,0
-112,225,0,0,0,0,0,0,0,0,0,-1,1112,799,0,0
-105,225,0,0,0,0,0,0,0,0,0,-1,1119,799,0,0
-98,225,0,0,0,0,0,0,0,0,0,-1,1126,799,0,0
-91,225,0,0,0,0,0,0,0,0,0,-1,1133,799,0,0
-84,225,0,0,0,0,0,0,0,0,0,-1,1140,799,0,0
-77,225,0,0,0,0,0,0,0,0,0,-1,1147,799,0,0
-70,225,0,0,0,0,0,0,0,0,0,-1,1154,799,0,0
-63,225,0,0,0,0,0,0,0,0,0,-1,1161,799,0,0
-56,225,0,0,0,0,0,0,0,0,0,-1,1168,799,0,0
-49,225,0,0,0,0,0,0,0,0,0,-1,1175,799,0,0
-42,225,0,0,0,0,0,0,0,0,0,-1,1182,799,0,0
-35,225,0,0,0,0,0,0,0,0,0,-1,1189,799,0,0
-28,225,0,0,0,0,0,0,0,0,0,-1,1196,799,0,0
-21,225,0,0,0,0,0,0,0,0,0,-1,1203,799,0,0
-14,225,0,0,0,0,0,0,0,0,0,-1,1210,799,0,0
-7,225,0,0,0,0,0,0,0,0,0,-1,1217,799,0,0
0,225,0,0,0,0,0,0,0,0,0,-1,1224,799,0,0
7,225,0,0,0,0,0,0,0,0,0,-1,1231,799,0,0
14,225,0,0,0,0,0,0,0,0,0,-1,1238,799,0,0
21,225,0,0,0,0,0,0,0,0,0,-1,1245,799,0,0
28,225,0,0,0,0,0,0,0,0,0,-1,1252,799,0,0
35,225,0,0,0,0,0,0,0,0,0,-1,1259,799,0,0
42,225,0,0,0,0,0,0,0,0,0,-1,1266,799,0,0
49,225,0,0,0,0,0,0,0,0,0,-1,1273,799,0,0
56,225,0,0,0,0,0,0,0,0,0,-1,1280,799,0,0
63,225,0,0,0,0,0,0,0,0,0,-1,1287,799,0,0
70,225,0,0,0,0,0,0,0,0,0,-1,1294,799,0,0
77,225,0,0,0,0,0,0,0,0,0,-1,1301,799,0,0
84,225,0,0,0,0,0,0,0,0,0,-1,1308,799,0,0
91,225,0,0,0,0,0,0,0,0,0,-1,1315,799,0,0
98,225,0,0,0,0,0,0,0,0,0,-1,1322,799,0,0
105,225,0,0,0,0,0,0,0,0,0,-1,1329,799,0,0
112,225,0,0,0,0,0,0,0,0,0,-1,1336,799,0,0
119,225,0,0,0,0,0,0,0,0,0,-1,1343,799,0,0
126,225,0,0,0,0,0,0,0,0,0,-1,1350,799,0,0
133,225,0,0,0,0,0,0,0,0,0,-1,1357,799,0,0
140,225,0,0,0,0,0,0,0,0,0,-1,1364,799,0,0
147,225,0,0,0,0,0,0,0,0,0,-1,1371,799,0,0
154,225,0,0,0,0,0,0,0,0,0,-1,1378,799,0,0
161,225,0,0,0,0,0,0,0,0,0,-1,1385,799,0,0
168,225,0,0,0,0,0,0,0,0,0,-1,1392,799,0,0
175,225,0,0,0,0,0,0,0,0,0,-1,1399,799,0,0
182,225,0,0,0,0,0,0,0,0,0,-1,1406,799,0,0
189,225,0,0,0,0,0,0,0,0,0,-1,1413,799,0,0
196,225,0,0,0,0,0,0,0,0,0,-1,1420,799,0,0
203,225,0,0,0,0,0,0,0,0,0,-1,1427,799,0,0
210,225,0,0,0,0,0,0,0,0,0,-1,1434,799,0,0
217,225,0,0,0,0,0,0,0,0,0,-1,1441,799,0,0
224,225,0,0,0,0,0,0,0,0,0,-1,1448,799,0,0
231,225,0,0,0,0,0,0,0,0,0,-1,1455,799,0,0
238,225,0,0,0,0,0,0,0,0,0,-1,1462,799,0,0
245,225,0,0,0,0,0,0,0,0,0,-1,1469,799,0,0
252,225,0,0,0,0,0,0,0,0,0,-1,1476,799,0,0
259,225,0,0,0,0,0,0,0,0,0,-1,1483,799,0,0
266,225,0,0,0,0,0,0,0,0,0,-1,1490,799,0,0
273,225,0,0,0,0,0,0,0,0,0,-1,1497,799,0,0
280,225,0,0,0,0,0,0,0,0,0,-1,1504,799,0,0
287,225,0,0,0,0,0,0,0,0,0,-1,1511,799,0,0
294,225,0,0,0,0,0,0,0,0,0,-1,1518,799,0,0
301,225,0,0,0,0,0,0,0,0,0,-1,1525,799,0,0
308,225,0,0,0,0,0,0,0,0,0,-1,1532,799,0,0
315,225,0,0,0,0,0,0,0,0,0,-1,1539,799,0,0
322,225,0,0,0,0,0,0,0,0,0,-1,1546,799,0,0
329,225,0,0,0,0,0,0,0,0,0,-1,1553,799,0,0
336,225,0,0,0,0,0,0,0,0,0,-1,1560,799,0,0
343,225,0,0,0,0,0,0,0,0,0,-1,1567,799,0,0
350,225,0,0,0,0,0,0,0,0,0,-1,1574,799,0,0
357,225,0,0,0,0,0,0,0,0,0,-1,1581,799,0,0
364,225,0,0,0,0,0,0,0,0,0,-1,1588,799,0,0
371,225,0,0,0,0,0,0,0,0,0,-1,1595,799,0,0
378,225,0,0,0,0,0,0,0,0,0,-1,1602,799,0,0
385,225,0,0,0,0,0,0,0,0,0,-1,1609,799,0,0
392,225,0,0,0,0,0,0,0,0,0,-1,1616,799,0,0
399,225,0,0,0,0,0,0,0,0,0,-1,1623,799,0,0
406,225,0,0,0,0,0,0,0,0,0,-1,1630,799,0,0
413,225,0,0,0,0,0,0,0,0,0,-1,1637,799,0,0
420,225,0,0,0,0,0,0,0,0,0,-1,1644,799,0,0
427,225,0,0,0,0,0,0,0,0,0,-1,1651,799,0,0
434,225,0,0,0,0,0,0,0,0,0,-1,1658,799,0,0
441,225,0,0,0,0,0,0,0,0,0,-1,1665,799,0,0
448,225,0,0,0,0,0,0,0,0,0,-1,1672,799,0,0
455,225,0,0,0,0,0,0,0,0,0,-1,1679,799,0,0
462,225,0,0,0,0,0,0,0,0,0,-1,1686,799,0,0
469,225,0,0,0,0,0,0,0,0,0,-1,1693,799,0,0
476,225,0,0,0,0,0,0,0,0,0,-1,1700,799,0,0
483,225,0,0,0,0,0,0,0,0,0,-1,1707,799,0,0
490,225,0,0,0,0,0,0,0,0,0,-1,1714,799,0,0
497,225,0,0,0,0,0,0,0,0,0,-1,1721,799,0,0
504,225,0,0,0,0,0,0,0,0,0,-1,1728,799,0,0
511,225,0,0,0,0,0,0,0,0,0,-1,1735,799,0,0
518,225,0,0,0,0,0,0,0,0,0,-1,1742,799,0,0
525,225,0,0,0,0,0,0,0,0,0,-1,1749,799,0,0
532,225,0,0,0,0,0,0,0,0,0,-1,1756,799,0,0
539,225,0,0,0,0,0,0,0,0,0,-1,1763,799,0,0
546,225,0,0,0,0,0,0,0,0,0,-1,1770,799,0,0
553,225,0,0,0,0,0,0,0,0,0,-1,1777,799,0,0
560,225,0,0,0,0,0,0,0,0,0,-1,1784,799,0,0
567,225,0,0,0,0,0,0,0,0,0,-1,1791,799,0,0
574,225,0,0,0,0,0,0,0,0,0,-1,1798,799,0,0
581,225,0,0,0,0,0,0,0,0,0,-1,1805,799,0,0
588,225,44.1624,2.84277,0.00821193,0.00344144,-0.00428846,0.0107339,0.000919518,-0.531602,0.00686994,0.0362894,1812,799,44.1623,-2.84276
595,225,44.1924,2.67078,0.0111692,0.000827686,-0.000309219,0.0111784,0.000818448,-0.0298651,0.00719501,0.0331509,1819,799,44.1924,-2.67076
602,225,44.2534,2.5885,0.00837403,-0.00108048,0.00128694,0.00854608,-0.00125252,0.132898,0.0061575,0.0316803,1826,799,44.2535,-2.58848
609,225,44.2223,2.70068,0.00523963,-0.00236641,0.00209148,0.0057768,-0.00290358,0.251403,0.00510231,0.0309866,1833,799,44.2223,-2.70067
616,225,44.2865,2.68762,0.00219124,-0.00330758,0.00229068,0.00302045,-0.00413678,0.347316,0.00414895,0.0370483,1840,799,44.2865,-2.68763
623,225,44.3998,2.72571,-0.000458332,-0.00390428,0.00207808,0.000518151,-0.00488077,0.439276,0.00343959,0.0412633,1847,799,44.3997,-2.72571
630,225,44.6285,2.50183,-0.00257992,-0.00406172,0.00174682,-0.00142337,-0.00521827,0.584827,0.00311475,0.0441762,1854,799,44.6285,-2.50183
637,225,45.0988,2.00854,0,0,0,0,0,0,0,-1,1861,799,45.0988,-2.00856
644,225,42.0298,2.46411,0,0,0,0,0,0,0,-1,1868,799,42.0298,-2.4641
651,225,27.9657,0.579529,0,0,0,0,0,0,0,-1,1875,799,27.9657,-0.579541
658,225,32.7341,-0.394836,0,0,0,0,0,0,0,-1,1882,799,32.7341,0.394846
665,225,32.4094,-0.0569458,-0.00648204,-0.00310237,-0.000406601,-0.00305414,-0.00653027,-1.45273,0.00377287,0.0241948,1889,799,32.4094,0.0569474
672,225,32.234,0.412964,-0.00610049,-0.00246943,-0.00093322,-0.00224363,-0.00632629,-1.3334,0.00370357,0.0220568,1896,799,32.234,-0.412967
679,225,32.2266,0.914978,-0.00549626,-0.00170726,-0.00113395,-0.00139383,-0.0058097,-1.30112,0.00350223,0.0187074,1903,799,32.2266,-0.914965
686,225,32.2073,1.35303,-0.00441098,-0.000956062,-0.000994624,-0.000690185,-0.00467686,-1.30959,0.00291521,0.0109484,1910,799,32.2073,-1.35303
693,225,32.191,1.83777,-0.00203002,4.37252e-05,-0.00104478,0.000478815,-0.00246511,-1.1762,0.00182408,0.010261,1917,799,32.191,-1.83775
700,225,32.1882,2.35425,0.000209722,0.000258773,-0.000386524,0.000621549,-0.000153054,-0.817081,0.000473699,0.0113215,1924,799,32.1882,-2.35422
707,225,32.141,2.86938,0.00061295,-0.000753102,0.000288338,0.000671317,-0.000811468,0.199726,0.00085736,0.0114459,1931,799,32.141,-2.86938
714,225,32.1296,3.39075,7.66551e-05,-0.00289022,0.000941126,0.000350006,-0.00316357,0.282673,0.00223487,0.0130133,1938,799,32.1296,-3.39077
721,225,32.1609,3.91931,-0.000699821,-0.00597763,0.0018088,-0.000139418,-0.00653804,0.300442,0.00431297,0.0171522,1945,799,32.1609,-3.91934
728,225,32.0842,4.28662,-0.00280277,-0.0113561,0.00274196,-0.00199926,-0.0121596,0.285061,0.00752902,0.0351372,1952,799,32.0842,-4.28662
735,225,32.2374,4.83044,0,0,0,0,0,0,0,-1,1959,799,32.2374,-4.83042
742,225,29.0922,3.2132,0,0,0,0,0,0,0,-1,1966,799,29.0921,-3.21322
749,225,29.9529,4.45538,0,0,0,0,0,0,0,-1,1973,799,29.9529,-4.45537
756,225,31.8855,3.83466,0,0,0,0,0,0,0,-1,1980,799,31.8855,-3.83463
763,225,28.3649,5.54443,0,0,0,0,0,0,0,-1,1987,799,28.3649,-5.54444
770,225,0,0,0,0,0,0,0,0,0,-1,1994,799,0,0
777,225,0,0,0,0,0,0,0,0,0,-1,2001,799,0,0
784,225,0,0,0,0,0,0,0,0,0,-1,2008,799,0,0
791,225,0,0,0,0,0,0,0,0,0,-1,2015,799,0,0
798,225,0,0,0,0,0,0,0,0,0,-1,2022,799,0,0
805,225,0,0,0,0,0,0,0,0,0,-1,2029,799,0,0
812,225,0,0,0,0,0,0,0,0,0,-1,2036,799,0,0
-700,218,0,0,0,0,0,0,0,0,0,-1,524,806,0,0
-693,218,0,0,0,0,0,0,0,0,0,-1,531,806,0,0
-686,218,0,0,0,0,0,0,0,0,0,-1,538,806,0,0
-679,218,0,0,0,0,0,0,0,0,0,-1,545,806,0,0
-672,218,0,0,0,0,0,0,0,0,0,-1,552,806,0,0
-665,218,0,0,0,0,0,0,0,0,0,-1,559,806,0,0
-658,218,0,0,0,0,0,0,0,0,0,-1,566,806,0,0
-651,218,-32.1339,2.1004,0,0,0,0,0,0,0,-1,573,806,-32.1339,-2.10038
-644,218,-32.6035,3.86414,0,0,0,0,0,0,0,-1,580,806,-32.6035,-3.86413
-637,218,-29.4564,5.19836,0,0,0,0,0,0,0,-1,587,806,-29.4564,-5.19835
-630,218,-29.4624,4.92188,0,0,0,0,0,0,0,-1,594,806,-29.4624,-4.92185
-623,218,-29.4469,4.34161,0,0,0,0,0,0,0,-1,601,806,-29.4469,-4.34164
-616,218,-20.0258,1.87585,0,0,0,0,0,0,0,-1,608,806,-20.0258,-1.87585
-609,218,-21.9167,3.01343,0,0,0,0,0,0,0,-1,615,806,-21.9168,-3.01344
-602,218,-22.1796,2.38306,0.00565822,0.00721266,0.00156158,0.00817974,0.00469113,1.01631,0.00473956,0.0417727,622,806,-22.1796,-2.38304
-595,218,-22.4545,1.75952,0.00185375,0.00962421,-0.00129552,0.00983451,0.00164345,-1.40987,0.00608298,0.0195617,629,806,-22.4545,-1.75955
-588,218,-22.4584,1.24408,9.41669e-05,0.00836542,-0.00229806,0.00896101,-0.00050143,-1.3172,0.00614797,0.0115546,636,806,-22.4584,-1.24405
-581,218,-22.4548,0.790222,0.000243298,0.00451417,-0.00151517,0.0049971,-0.000239632,-1.26225,0.00341408,0.0107837,643,806,-22.4548,-0.790193
-574,218,-22.4628,0.318298,1.52766e-06,0.00217665,-0.000491669,0.00228262,-0.000104447,-1.3585,0.00155773,0.0101043,650,806,-22.4628,-0.3183
-567,218,-22.4831,-0.202759,-0.000500367,0.00056866,0.000358379,0.000677684,-0.00060939,1.27548,0.000743441,0.0168438,657,806,-22.4831,0.20275
-560,218,-22.5104,-0.657593,-0.00107977,-0.000767802,0.000975998,6.4598e-05,-0.00191217,0.864638,0.00129685,0.0173999,664,806,-22.5104,0.65759
-553,218,-22.4878,-1.19879,-0.00194578,-0.000697982,0.00177987,0.000564174,-0.00320793,0.953971,0.00234937,0.0171359,671,806,-22.4878,1.19878
-546,218,-22.5789,-1.79126,-0.00270019,-0.000463139,0.00241692,0.00108153,-0.00424486,1.00212,0.00325095,0.0198124,678,806,-22.5789,1.79127
-539,218,-22.6102,-2.29547,-0.00299555,0.00032436,0.00234057,0.00153385,-0.00420504,1.09384,0.0034309,0.0320866,685,806,-22.6103,2.29547
-532,218,-22.723,-2.526,-0.00309761,0.0013011,0.00240223,0.00235872,-0.00415523,1.15607,0.00380821,0.0401724,692,806,-22.7229,2.52602
-525,218,-23.1184,-2.651,0,0,0,0,0,0,0,-1,699,806,-23.1184,2.65103
-518,218,-23.61,2.54181,0,0,0,0,0,0,0,-1,706,806,-23.61,-2.54183
-511,218,-33.2803,0.347412,0,0,0,0,0,0,0,-1,713,806,-33.2803,-0.347412
-504,218,-32.6769,1.34955,-0.0030021,0.00554661,0.00210614,0.00603733,-0.00349282,1.34189,0.00556722,0.045972,720,806,-32.6769,-1.34952
-497,218,-32.7813,0.971436,-0.00258002,0.00672268,0.00175694,0.00704345,-0.00290079,1.39022,0.00590503,0.0495756,727,806,-32.7812,-0.971463
-490,218,-32.886,0.874695,-0.00199608,0.00761762,0.00136417,0.00780745,-0.0021859,1.43253,0.00606633,0.0381523,734,806,-32.8861,-0.874686
-483,218,-32.8636,0.898132,-0.000890615,0.00773481,0.000782121,0.00780515,-0.000960961,1.48109,0.00555155,0.0326926,741,806,-32.8636,-0.898113
-476,218,-32.845,0.970276,0.000797784,0.00605839,0.000381747,0.00608594,0.000770226,1.49873,0.00382648,0.0353135,748,806,-32.845,-0.970282
-469,218,0,0,0,0,0,0,0,0,0,-1,755,806,0,0
-462,218,0,0,0,0,0,0,0,0,0,-1,762,806,0,0
-455,218,0,0,0,0,0,0,0,0,0,-1,769,806,0,0
-448,218,0,0,0,0,0,0,0,0,0,-1,776,806,0,0
-441,218,0,0,0,0,0,0,0,0,0,-1,783,806,0,0
-434,218,0,0,0,0,0,0,0,0,0,-1,790,806,0,0
-427,218,0,0,0,0,0,0,0,0,0,-1,797,806,0,0
-420,218,0,0,0,0,0,0,0,0,0,-1,804,806,0,0
-413,218,0,0,0,0,0,0,0,0,0,-1,811,806,0,0
-406,218,0,0,0,0,0,0,0,0,0,-1,818,806,0,0
-399,218,0,0,0,0,0,0,0,0,0,-1,825,806,0,0
-392,218,0,0,0,0,0,0,0,0,0,-1,832,806,0,0
-385,218,0,0,0,0,0,0,0,0,0,-1,839,806,0,0
-378,218,0,0,0,0,0,0,0,0,0,-1,846,806,0,0
-371,218,0,0,0,0,0,0,0,0,0,-1,853,806,0,0
-364,218,0,0,0,0,0,0,0,0,0,-1,860,806,0,0
-357,218,0,0,0,0,0,0,0,0,0,-1,867,806,0,0
-350,218,0,0,0,0,0,0,0,0,0,-1,874,806,0,0
-343,218,0,0,0,0,0,0,0,0,0,-1,881,806,0,0
-336,218,0,0,0,0,0,0,0,0,0,-1,888,806,0,0
-329,218,0,0,0,0,0,0,0,0,0,-1,895,806,0,0
-322,218,0,0,0,0,0,0,0,0,0,-1,902,806,0,0
-315,218,0,0,0,0,0,0,0,0,0,-1,909,806,0,0
-308,218,0,0,0,0,0,0,0,0,0,-1,916,806,0,0
-301,218,0,0,0,0,0,0,0,0,0,-1,923,806,0,0
-294,218,0,0,0,0,0,0,0,0,0,-1,930,806,0,0
-287,218,0,0,0,0,0,0,0,0,0,-1,937,806,0,0
-280,218,0,0,0,0,0,0,0,0,0,-1,944,806,0,0
-273,218,0,0,0,0,0,0,0,0,0,-1,951,806,0,0
-266,218,0,0,0,0,0,0,0,0,0,-1,958,806,0,0
-259,218,0,0,0,0,0,0,0,0,0,-1,965,806,0,0
-252,218,0,0,0,0,0,0,0,0,0,-1,972,806,0,0
-245,218,0,0,0,0,0,0,0,0,0,-1,979,806,0,0
-238,218,0,0,0,0,0,0,0,0,0,-1,986,806,0,0
-231,218,0,0,0,0,0,0,0,0,0,-1,993,806,0,0
-224,218,0,0,0,0,0,0,0,0,0,-1,1000,806,0,0
-217,218,0,0,0,0,0,0,0,0,0,-1,1007,806,0,0
-210,218,0,0,0,0,0,0,0,0,0,-1,1014,806,0,0
-203,218,0,0,0,0,0,0,0,0,0,-1,1021,806,0,0
-196,218,0,0,0,0,0,0,0,0,0,-1,1028,806,0,0
-189,218,0,0,0,0,0,0,0,0,0,-1,1035,806,0,0
-182,218,0,0,0,0,0,0,0,0,0,-1,1042,806,0,0
-175,218,0,0,0,0,0,0,0,0,0,-1,1049,806,0,0
-168,218,0,0,0,0,0,0,0,0,0,-1,1056,806,0,0
-161,218,0,0,0,0,0,0,0,0,0,-1,1063,806,0,0
-154,218,0,0,0,0,0,0,0,0,0,-1,1070,806,0,0
-147,218,0,0,0,0,0,0,0,0,0,-1,1077,806,0,0
-140,218,0,0,0,0,0,0,0,0,0,-1,1084,806,0,0
-133,218,0,0,0,0,0,0,0,0,0,-1,1091,806,0,0
-126,218,0,0,0,0,0,0,0,0,0,-1,1098,806,0,0
-119,218,0,0,0,0,0,0,0,0,0,-1,1105,806,0,0
-112,218,0,0,0,0,0,0,0,0,0,-1,1112,806,0,0
-105,218,0,0,0,0,0,0,0,0,0,-1,1119,806,0,0
-98,218,0,0,0,0,0,0,0,0,0,-1,1126,806,0,0
-91,218,0,0,0,0,0,0,0,0,0,-1,1133,806,0,0
-84,218,0,0,0,0,0,0,0,0,0,-1,1140,806,0,0
-77,218,0,0,0,0,0,0,0,0,0,-1,1147,806,0,0
-70,218,0,0,0,0,0,0,0,0,0,-1,1154,806,0,0
-63,218,0,0,0,0,0,0,0,0,0,-1,1161,806,0,0
-56,218,0,0,0,0,0,0,0,0,0,-1,1168,806,0,0
-49,218,0,0,0,0,0,0,0,0,0,-1,1175,806,0,0
-42,218,0,0,0,0,0,0,0,0,0,-1,1182,806,0,0
-35,218,0,0,0,0,0,0,0,0,0,-1,1189,806,0,0
-28,218,0,0,0,0,0,0,0,0,0,-1,1196,806,0,0
-21,218,0,0,0,0,0,0,0,0,0,-1,1203,806,0,0
-14,218,0,0,0,0,0,0,0,0,0,-1,1210,806,0,0
-7,218,0,0,0,0,0,0,0,0,0,-1,1217,806,0,0
0,218,0,0,0,0,0,0,0,0,0,-1,1224,806,0,0
7,218,0,0,0,0,0,0,0,0,0,-1,1231,806,0,0
14,218,0,0,0,0,0,0,0,0,0,-1,1238,806,0,0
21,218,0,0,0,0,0,0,0,0,0,-1,1245,806,0,0
28,218,0,0,0,0,0,0,0,0,0,-1,1252,806,0,0
35,218,0,0,0,0,0,0,0,0,0,-1,1259,806,0,0
42,218,0,0,0,0,0,0,0,0,0,-1,1266,806,0,0
49,218,0,0,0,0,0,0,0,0,0,-1,1273,806,0,0
56,218,0,0,0,0,0,0,0,0,0,-1,1280,806,0,0
63,218,0,0,0,0,0,0,0,0,0,-1,1287,806,0,0
70,218,0,0,0,0,0,0,0,0,0,-1,1294,806,0,0
77,218,0,0,0,0,0,0,0,0,0,-1,1301,806,0,0
84,218,0,0,0,0,0,0,0,0,0,-1,1308,806,0,0
91,218,0,0,0,0,0,0,0,0,0,-1,1315,806,0,0
98,218,0,0,0,0,0,0,0,0,0,-1,1322,806,0,0
105,218,0,0,0,0,0,0,0,0,0,-1,1329,806,0,0
112,218,0,0,0,0,0,0,0,0,0,-1,1336,806,0,0
119,218,0,0,0,0,0,0,0,0,0,-1,1343,806,0,0
126,218,0,0,0,0,0,0,0,0,0,-1,1350,806,0,0
133,218,0,0,0,0,0,0,0,0,0,-1,1357,806,0,0
140,218,0,0,0,0,0,0,0,0,0,-1,1364,806,0,0
147,218,0,0,0,0,0,0,0,0,0,-1,1371,806,0,0
154,218,0,0,0,0,0,0,0,0,0,-1,1378,806,0,0
161,218,0,0,0,0,0,0,0,0,0,-1,1385,806,0,0
168,218,0,0,0,0,0,0,0,0,0,-1,1392,806,0,0
175,218,0,0,0,0,0,0,0,0,0,-1,1399,806,0,0
182,218,0,0,0,0,0,0,0,0,0,-1,1406,806,0,0
189,218,0,0,0,0,0,0,0,0,0,-1,1413,806,0,0
196,218,0,0,0,0,0,0,0,0,0,-1,1420,806,0,0
203,218,0,0,0,0,0,0,0,0,0,-1,1427,806,0,0
210,218,0,0,0,0,0,0,0,0,0,-1,1434,806,0,0
217,218,0,0,0,0,0,0,0,0,0,-1,1441,806,0,0
224,218,0,0,0,0,0,0,0,0,0,-1,1448,806,0,0
231,218,0,0,0,0,0,0,0,0,0,-1,1455,806,0,0
238,218,0,0,0,0,0,0,0,0,0,-1,1462,806,0,0
245,218,0,0,0,0,0,0,0,0,0,-1,1469,806,0,0
252,218,0,0,0,0,0,0,0,0,0,-1,1476,806,0,0
259,218,0,0,0,0,0,0,0,0,0,-1,1483,806,0,0
266,218,0,0,0,0,0,0,0,0,0,-1,1490,806,0,0
273,218,0,0,0,0,0,0,0,0,0,-1,1497,806,0,0
280,218,0,0,0,0,0,0,0,0,0,-1,1504,806,0,0
287,218,0,0,0,0,0,0,0,0,0,-1,1511,806,0,0
294,218,0,0,0,0,0,0,0,0,0,-1,1518,806,0,0
301,218,0,0,0,0,0,0,0,0,0,-1,1525,806,0,0
308,218,0,0,0,0,0,0,0,0,0,-1,1532,806,0,0
315,218,0,0,0,0,0,0,0,0,0,-1,1539,806,0,0
322,218,0,0,0,0,0,0,0,0,0,-1,1546,806,0,0
329,218,0,0,0,0,0,0,0,0,0,-1,1553,806,0,0
336,218,0,0,0,0,0,0,0,0,0,-1,1560,806,0,0
343,218,0,0,0,0,0,0,0,0,0,-1,1567,806,0,0
350,218,0,0,0,0,0,0,0,0,0,-1,1574,806,0,0
357,218,0,0,0,0,0,0,0,0,0,-1,1581,806,0,0
364,218,0,0,0,0,0,0,0,0,0,-1,1588,806,0,0
371,218,0,0,0,0,0,0,0,0,0,-1,1595,806,0,0
378,218,0,0,0,0,0,0,0,0,0,-1,1602,806,0,0
385,218,0,0,0,0,0,0,0,0,0,-1,1609,806,0,0
392,218,0,0,0,0,0,0,0,0,0,-1,1616,806,0,0
399,218,0,0,0,0,0,0,0,0,0,-1,1623,806,0,0
406,218,0,0,0,0,0,0,0,0,0,-1,1630,806,0,0
413,218,0,0,0,0,0,0,0,0,0,-1,1637,806,0,0
420,218,0,0,0,0,0,0,0,0,0,-1,1644,806,0,0
427,218,0,0,0,0,0,0,0,0,0,-1,1651,806,0,0
434,218,0,0,0,0,0,0,0,0,0,-1,1658,806,0,0
441,218,0,0,0,0,0,0,0,0,0,-1,1665,806,0,0
448,218,0,0,0,0,0,0,0,0,0,-1,1672,806,0,0
455,218,0,0,0,0,0,0,0,0,0,-1,1679,806,0,0
462,218,0,0,0,0,0,0,0,0,0,-1,1686,806,0,0
469,218,0,0,0,0,0,0,0,0,0,-1,1693,806,0,0
476,218,0,0,0,0,0,0,0,0,0,-1,1700,806,0,0
483,218,0,0,0,0,0,0,0,0,0,-1,1707,806,0,0
490,218,0,0,0,0,0,0,0,0,0,-1,1714,806,0,0
497,218,0,0,0,0,0,0,0,0,0,-1,1721,806,0,0
504,218,0,0,0,0,0,0,0,0,0,-1,1728,806,0,0
511,218,0,0,0,0,0,0,0,0,0,-1,1735,806,0,0
518,218,0,0,0,0,0,0,0,0,0,-1,1742,806,0,0
525,218,0,0,0,0,0,0,0,0,0,-1,1749,806,0,0
532,218,0,0,0,0,0,0,0,0,0,-1,1756,806,0,0
539,218,0,0,0,0,0,0,0,0,0,-1,1763,806,0,0
546,218,0,0,0,0,0,0,0,0,0,-1,1770,806,0,0
553,218,0,0,0,0,0,0,0,0,0,-1,1777,806,0,0
560,218,0,0,0,0,0,0,0,0,0,-1,1784,806,0,0
567,218,0,0,0,0,0,0,0,0,0,-1,1791,806,0,0
574,218,0,0,0,0,0,0,0,0,0,-1,1798,806,0,0
581,218,0,0,0,0,0,0,0,0,0,-1,1805,806,0,0
588,218,0,0,0,0,0,0,0,0,0,-1,1812,806,0,0
595,218,44.255,2.70465,0.0097382,0.000915155,-0.00088846,0.00982678,0.000826579,-0.0993684,0.00629378,0.0362275,1819,806,44.255,-2.70465
602,218,44.2839,2.57605,0.00713272,-0.00108083,0.000860232,0.00722185,-0.00116996,0.103241,0.0052482,0.0326635,1826,806,44.2839,-2.57604
609,218,44.2408,2.63147,0.00394813,-0.00251754,0.00180603,0.0044184,-0.00298781,0.254731,0.00430249,0.0291297,1833,806,44.2408,-2.63144
616,218,44.2056,2.7309,0.000786744,-0.00358192,0.00210701,0.00163734,-0.00443252,0.383691,0.00362618,0.0313497,1840,806,44.2056,-2.73092
623,218,44.2737,2.68774,-0.00193925,-0.0042485,0.00187335,-0.000893289,-0.00529446,0.509224,0.00327277,0.0378226,1847,806,44.2736,-2.68777
630,218,44.5342,2.43268,-0.00399103,-0.00434481,0.00149782,-0.00265969,-0.00567615,0.726622,0.00327928,0.0416348,1854,806,44.5341,-2.43268
637,218,44.9299,2.08667,-0.00527555,-0.00432682,0.0011127,-0.00359159,-0.00601078,0.98689,0.00349226,0.0449071,1861,806,44.9299,-2.08669
644,218,42.8032,2.59033,-0.006233,-0.00410016,0.00071495,-0.00388268,-0.00645048,1.2755,0.00374989,0.0464633,1868,806,42.8032,-2.59031
651,218,41.7338,1.99164,0,0,0,0,0,0,0,-1,1875,806,41.7338,-1.99162
658,218,28.41,0.514954,0,0,0,0,0,0,0,-1,1882,806,28.41,-0.514983
665,218,33.1233,0.237366,0,0,0,0,0,0,0,-1,1889,806,33.1233,-0.237348
672,218,32.8994,0.474365,-0.00633971,-0.00248156,-0.00112791,-0.00217602,-0.00664525,-1.30625,0.00391204,0.0195654,1896,806,32.8994,-0.47439
679,218,32.7804,0.910095,-0.00587702,-0.00176556,-0.00130083,-0.00138856,-0.00625402,-1.28871,0.0037922,0.0156971,1903,806,32.7803,-0.91008
686,218,32.7217,1.35614,-0.00502685,-0.00110231,-0.00117048,-0.000779731,-0.00534943,-1.30188,0.00333688,0.0115109,1910,806,32.7217,-1.35613
693,218,32.7084,1.86609,-0.00271437,-0.000150112,-0.00131257,0.000402611,-0.00326709,-1.17223,0.00232392,0.0110816,1917,806,32.7083,-1.86607
700,218,32.7058,2.37079,-0.000300659,-4.26347e-06,-0.000674326,0.000537957,-0.00084288,-0.893565,0.00080368,0.00898092,1924,806,32.7058,-2.3708
707,218,32.6433,2.86707,9.6255e-05,-0.00114099,-4.07031e-05,9.75926e-05,-0.00114233,-0.0328508,0.000796081,0.00774134,1931,806,32.6433,-2.86706
714,218,32.6279,3.39172,-0.000456686,-0.00341362,0.000561027,-0.00035382,-0.00351649,0.18134,0.00223574,0.0107331,1938,806,32.6279,-3.39171
721,218,32.6591,3.90588,-0.00123737,-0.00663058,0.00137076,-0.000908972,-0.00695898,0.235143,0.00436797,0.013606,1945,806,32.6591,-3.90589
728,218,32.6533,4.41791,-0.00325631,-0.0120228,0.00223426,-0.00271973,-0.0125594,0.235699,0.0076297,0.0249133,1952,806,32.6533,-4.41792
735,218,32.8781,4.97748,-0.00700861,-0.0202213,0.00326345,-0.00624652,-0.0209834,0.229413,0.0124409,0.0455158,1959,806,32.878,-4.9775
742,218,33.1948,5.56104,0,0,0,0,0,0,0,-1,1966,806,33.1949,-5.56102
749,218,32.3662,5.508,0,0,0,0,0,0,0,-1,1973,806,32.3662,-5.50799
756,218,32.0544,6.07904,0,0,0,0,0,0,0,-1,1980,806,32.0545,-6.07904
763,218,31.1039,4.53247,0,0,0,0,0,0,0,-1,1987,806,31.1038,-4.53247
770,218,0,0,0,0,0,0,0,0,0,-1,1994,806,0,0
777,218,0,0,0,0,0,0,0,0,0,-1,2001,806,0,0
784,218,0,0,0,0,0,0,0,0,0,-1,2008,806,0,0
791,218,0,0,0,0,0,0,0,0,0,-1,2015,806,0,0
798,218,0,0,0,0,0,0,0,0,0,-1,2022,806,0,0
805,218,0,0,0,0,0,0,0,0,0,-1,2029,806,0,0
812,218,0,0,0,0,0,0,0,0,0,-1,2036,806,0,0
-700,211,0,0,0,0,0,0,0,0,0,-1,524,813,0,0
-693,211,0,0,0,0,0,0,0,0,0,-1,531,813,0,0
-686,211,0,0,0,0,0,0,0,0,0,-1,538,813,0,0
-679,211,0,0,0,0,0,0,0,0,0,-1,545,813,0,0
-672,211,0,0,0,0,0,0,0,0,0,-1,552,813,0,0
-665,211,0,0,0,0,0,0,0,0,0,-1,559,813,0,0
-658,211,0,0,0,0,0,0,0,0,0,-1,566,813,0,0
-651,211,-31.6703,2.68042,0.0702851,-0.0805789,0.045613,0.0830037,-0.0932975,0.27193,0.101845,0.0441842,573,813,-31.6703,-2.68041
-644,211,-31.6545,4.41211,0.0554067,-0.0559679,0.0372442,0.0667134,-0.0672747,0.294742,0.0773583,0.0457185,580,813,-31.6545,-4.4121
-637,211,-31.5224,6.12036,0,0,0,0,0,0,0,-1,587,813,-31.5224,-6.12039
-630,211,-24.548,5.93097,0,0,0,0,0,0,0,-1,594,813,-24.548,-5.93094
-623,211,-23.3645,3.88855,0,0,0,0,0,0,0,-1,601,813,-23.3645,-3.88856
-616,211,-22.6411,3.13239,0,0,0,0,0,0,0,-1,608,813,-22.6411,-3.13237
-609,211,-22.6979,2.70038,0.00790214,0.00422743,0.00626551,0.0125941,-0.000464569,0.642772,0.00855515,0.0439917,615,813,-22.6979,-2.70037
-602,211,-22.8153,2.23047,0.00348935,0.00729657,0.0024558,0.00850016,0.00228576,1.1151,0.00507928,0.0220354,622,813,-22.8153,-2.23048
-595,211,-22.9267,1.73389,0.000313001,0.00893379,-0.000266518,0.00894202,0.00030477,-1.53992,0.0058624,0.0110735,629,813,-22.9267,-1.73387
-588,211,-22.9568,1.25189,-0.000946385,0.00734604,-0.00145036,0.00759239,-0.00119274,-1.40255,0.00550243,0.0105059,636,813,-22.9568,-1.2519
-581,211,-22.9573,0.780884,-0.000494672,0.00344003,-0.000835555,0.00361011,-0.000664754,-1.36998,0.0026562,0.01175,643,813,-22.9573,-0.780864
-574,211,-22.975,0.301086,-0.000488777,0.00129097,9.29919e-05,0.00129582,-0.000493623,1.51874,0.00106718,0.0132548,650,813,-22.975,-0.301086
-567,211,-23.016,-0.160645,-0.000800156,1.90878e-05,0.00080689,0.000514376,-0.00129544,1.02027,0.00107685,0.0203066,657,813,-23.016,0.160635
-560,211,-23.0502,-0.623047,-0.00121665,-0.00105354,0.0012672,0.000134729,-0.00240491,0.817533,0.00165002,0.0242947,664,813,-23.0502,0.623023
-553,211,-22.9026,-1.14386,-0.00195221,-0.000704249,0.00193568,0.000705537,-0.003362,0.941318,0.00250979,0.0312693,671,813,-22.9027,1.14388
-546,211,-23.1963,-1.53296,-0.00256019,-0.000360415,0.00246037,0.00123473,-0.00415533,0.995593,0.00326068,0.0412271,678,813,-23.1963,1.53295
-539,211,-23.1022,-2.0849,-0.00278038,0.00044268,0.00237744,0.0017033,-0.004041,1.08325,0.00340679,0.0279275,685,813,-23.1022,2.08491
-532,211,-23.1529,-2.43097,0,0,0,0,0,0,0,-1,692,813,-23.1529,2.43094
-525,211,-14.3009,2.3233,0,0,0,0,0,0,0,-1,699,813,-14.3009,-2.3233
-518,211,-33.4044,0.0662231,0,0,0,0,0,0,0,-1,706,813,-33.4044,-0.0662305
-511,211,-33.1967,0.373291,0,0,0,0,0,0,0,-1,713,813,-33.1967,-0.373282
-504,211,-32.9664,0.692932,-0.00267334,0.00534524,0.00218007,0.00589962,-0.00322772,1.32178,0.00534441,0.0461348,720,813,-32.9664,-0.692932
-497,211,-32.8306,0.921387,-0.00211364,0.00634797,0.00184519,0.00673284,-0.0024985,1.36517,0.00551344,0.0489297,727,813,-32.8307,-0.921381
-490,211,-32.8787,0.921448,-0.00125911,0.00680925,0.00151421,0.00708407,-0.00153393,1.39126,0.00530842,0.0371307,734,813,-32.8787,-0.921444
-483,211,-32.8676,0.940247,0.000505039,0.00595174,0.00107478,0.00615615,0.000300626,1.38285,0.00400765,0.0329971,741,813,-32.8676,-0.940225
-476,211,-32.8434,1.19629,0.00315539,0.0023612,0.00136763,0.00418241,0.00133419,0.644107,0.00246689,0.0360011,748,813,-32.8434,-1.19631
-469,211,0,0,0,0,0,0,0,0,0,-1,755,813,0,0
-462,211,0,0,0,0,0,0,0,0,0,-1,762,813,0,0
-455,211,0,0,0,0,0,0,0,0,0,-1,769,813,0,0
-448,211,0,0,0,0,0,0,0,0,0,-1,776,813,0,0
-441,211,0,0,0,0,0,0,0,0,0,-1,783,813,0,0
-434,211,0,0,0,0,0,0,0,0,0,-1,790,813,0,0
-427,211,0,0,0,0,0,0,0,0,0,-1,797,813,0,0
-420,211,0,0,0,0,0,0,0,0,0,-1,804,813,0,0
-413,211,0,0,0,0,0,0,0,0,0,-1,811,813,0,0
-406,211,0,0,0,0,0,0,0,0,0,-1,818,813,0,0
-399,211,0,0,0,0,0,0,0,0,0,-1,825,813,0,0
-392,211,0,0,0,0,0,0,0,0,0,-1,832,813,0,0
-385,211,0,0,0,0,0,0,0,0,0,-1,839,813,0,0
-378,211,0,0,0,0,0,0,0,0,0,-1,846,813,0,0
-371,211,0,0,0,0,0,0,0,0,0,-1,853,813,0,0
-364,211,0,0,0,0,0,0,0,0,0,-1,860,813,0,0
-357,211,0,0,0,0,0,0,0,0,0,-1,867,813,0,0
-350,211,0,0,0,0,0,0,0,0,0,-1,874,813,0,0
-343,211,0,0,0,0,0,0,0,0,0,-1,881,813,0,0
-336,211,0,0,0,0,0,0,0,0,0,-1,888,813,0,0
-329,211,0,0,0,0,0,0,0,0,0,-1,895,813,0,0
-322,211,0,0,0,0,0,0,0,0,0,-1,902,813,0,0
-315,211,0,0,0,0,0,0,0,0,0,-1,909,813,0,0
-308,211,0,0,0,0,0,0,0,0,0,-1,916,813,0,0
-301,211,0,0,0,0,0,0,0,0,0,-1,923,813,0,0
-294,211,0,0,0,0,0,0,0,0,0,-1,930,813,0,0
-287,211,0,0,0,0,0,0,0,0,0,-1,937,813,0,0
-280,211,0,0,0,0,0,0,0,0,0,-1,944,813,0,0
-273,211,0,0,0,0,0,0,0,0,0,-1,951,813,0,0
-266,211,0,0,0,0,0,0,0,0,0,-1,958,813,0,0
-259,211,0,0,0,0,0,0,0,0,0,-1,965,813,0,0
-252,211,0,0,0,0,0,0,0,0,0,-1,972,813,0,0
-245,211,0,0,0,0,0,0,0,0,0,-1,979,813,0,0
-238,211,0,0,0,0,0,0,0,0,0,-1,986,813,0,0
-231,211,0,0,0,0,0,0,0,0,0,-1,993,813,0,0
-224,211,0,0,0,0,0,0,0,0,0,-1,1000,813,0,0
-217,211,0,0,0,0,0,0,0,0,0,-1,1007,813,0,0
-210,211,0,0,0,0,0,0,0,0,0,-1,1014,813,0,0
-203,211,0,0,0,0,0,0,0,0,0,-1,1021,813,0,0
-196,211,0,0,0,0,0,0,0,0,0,-1,1028,813,0,0
-189,211,0,0,0,0,0,0,0,0,0,-1,1035,813,0,0
-182,211,0,0,0,0,0,0,0,0,0,-1,1042,813,0,0
-175,211,0,0,0,0,0,0,0,0,0,-1,1049,813,0,0
-168,211,0,0,0,0,0,0,0,0,0,-1,1056,813,0,0
-161,211,0,0,0,0,0,0,0,0,0,-1,1063,813,0,0
-154,211,0,0,0,0,0,0,0,0,0,-1,1070,813,0,0
-147,211,0,0,0,0,0,0,0,0,0,-1,1077,813,0,0
-140,211,0,0,0,0,0,0,0,0,0,-1,1084,813,0,0
-133,211,0,0,0,0,0,0,0,0,0,-1,1091,813,0,0
-126,211,0,0,0,0,0,0,0,0,0,-1,1098,813,0,0
-119,211,0,0,0,0,0,0,0,0,0,-1,1105,813,0,0
-112,211,0,0,0,0,0,0,0,0,0,-1,1112,813,0,0
-105,211,0,0,0,0,0,0,0,0,0,-1,1119,813,0,0
-98,211,0,0,0,0,0,0,0,0,0,-1,1126,813,0,0
-91,211,0,0,0,0,0,0,0,0,0,-1,1133,813,0,0
-84,211,0,0,0,0,0,0,0,0,0,-1,1140,813,0,0
-77,211,0,0,0,0,0,0,0,0,0,-1,1147,813,0,0
-70,211,0,0,0,0,0,0,0,0,0,-1,1154,813,0,0
-63,211,0,0,0,0,0,0,0,0,0,-1,1161,813,0,0
-56,211,0,0,0,0,0,0,0,0,0,-1,1168,813,0,0
-49,211,0,0,0,0,0,0,0,0,0,-1,1175,813,0,0
-42,211,0,0,0,0,0,0,0,0,0,-1,1182,813,0,0
-35,211,0,0,0,0,0,0,0,0,0,-1,1189,813,0,0
-28,211,0,0,0,0,0,0,0,0,0,-1,1196,813,0,0
-21,211,0,0,0,0,0,0,0,0,0,-1,1203,813,0,0
-14,211,0,0,0,0,0,0,0,0,0,-1,1210,813,0,0
-7,211,0,0,0,0,0,0,0,0,0,-1,1217,813,0,0
0,211,0,0,0,0,0,0,0,0,0,-1,1224,813,0,0
7,211,0,0,0,0,0,0,0,0,0,-1,1231,813,0,0
14,211,0,0,0,0,0,0,0,0,0,-1,1238,813,0,0
21,211,0,0,0,0,0,0,0,0,0,-1,1245,813,0,0
28,211,0,0,0,0,0,0,0,0,0,-1,1252,813,0,0
35,211,0,0,0,0,0,0,0,0,0,-1,1259,813,0,0
42,211,0,0,0,0,0,0,0,0,0,-1,1266,813,0,0
49,211,0,0,0,0,0,0,0,0,0,-1,1273,813,0,0
56,211,0,0,0,0,0,0,0,0,0,-1,1280,813,0,0
63,211,0,0,0,0,0,0,0,0,0,-1,1287,813,0,0
70,211,0,0,0,0,0,0,0,0,0,-1,1294,813,0,0
77,211,0,0,0,0,0,0,0,0,0,-1,1301,813,0,0
84,211,0,0,0,0,0,0,0,0,0,-1,1308,813,0,0
91,211,0,0,0,0,0,0,0,0,0,-1,1315,813,0,0
98,211,0,0,0,0,0,0,0,0,0,-1,1322,813,0,0
105,211,0,0,0,0,0,0,0,0,0,-1,1329,813,0,0
112,211,0,0,0,0,0,0,0,0,0,-1,1336,813,0,0
119,211,0,0,0,0,0,0,0,0,0,-1,1343,813,0,0
126,211,0,0,0,0,0,0,0,0,0,-1,1350,813,0,0
133,211,0,0,0,0,0,0,0,0,0,-1,1357,813,0,0
140,211,0,0,0,0,0,0,0,0,0,-1,1364,813,0,0
147,211,0,0,0,0,0,0,0,0,0,-1,1371,813,0,0
154,211,0,0,0,0,0,0,0,0,0,-1,1378,813,0,0
161,211,0,0,0,0,0,0,0,0,0,-1,1385,813,0,0
168,211,0,0,0,0,0,0,0,0,0,-1,1392,813,0,0
175,211,0,0,0,0,0,0,0,0,0,-1,1399,813,0,0
182,211,0,0,0,0,0,0,0,0,0,-1,1406,813,0,0
189,211,0,0,0,0,0,0,0,0,0,-1,1413,813,0,0
196,211,0,0,0,0,0,0,0,0,0,-1,1420,813,0,0
203,211,0,0,0,0,0,0,0,0,0,-1,1427,813,0,0
210,211,0,0,0,0,0,0,0,0,0,-1,1434,813,0,0
217,211,0,0,0,0,0,0,0,0,0,-1,1441,813,0,0
224,211,0,0,0,0,0,0,0,0,0,-1,1448,813,0,0
231,211,0,0,0,0,0,0,0,0,0,-1,1455,813,0,0
238,211,0,0,0,0,0,0,0,0,0,-1,1462,813,0,0
245,211,0,0,0,0,0,0,0,0,0,-1,1469,813,0,0
252,211,0,0,0,0,0,0,0,0,0,-1,1476,813,0,0
259,211,0,0,0,0,0,0,0,0,0,-1,1483,813,0,0
266,211,0,0,0,0,0,0,0,0,0,-1,1490,813,0,0
273,211,0,0,0,0,0,0,0,0,0,-1,1497,813,0,0
280,211,0,0,0,0,0,0,0,0,0,-1,1504,813,0,0
287,211,0,0,0,0,0,0,0,0,0,-1,1511,813,0,0
294,211,0,0,0,0,0,0,0,0,0,-1,1518,813,0,0
301,211,0,0,0,0,0,0,0,0,0,-1,1525,813,0,0
308,211,0,0,0,0,0,0,0,0,0,-1,1532,813,0,0
315,211,0,0,0,0,0,0,0,0,0,-1,1539,813,0,0
322,211,0,0,0,0,0,0,0,0,0,-1,1546,813,0,0
329,211,0,0,0,0,0,0,0,0,0,-1,1553,813,0,0
336,211,0,0,0,0,0,0,0,0,0,-1,1560,813,0,0
343,211,0,0,0,0,0,0,0,0,0,-1,1567,813,0,0
350,211,0,0,0,0,0,0,0,0,0,-1,1574,813,0,0
357,211,0,0,0,0,0,0,0,0,0,-1,1581,813,0,0
364,211,0,0,0,0,0,0,0,0,0,-1,1588,813,0,0
371,211,0,0,0,0,0,0,0,0,0,-1,1595,813,0,0
378,211,0,0,0,0,0,0,0,0,0,-1,1602,813,0,0
385,211,0,0,0,0,0,0,0,0,0,-1,1609,813,0,0
392,211,0,0,0,0,0,0,0,0,0,-1,1616,813,0,0
399,211,0,0,0,0,0,0,0,0,0,-1,1623,813,0,0
406,211,0,0,0,0,0,0,0,0,0,-1,1630,813,0,0
413,211,0,0,0,0,0,0,0,0,0,-1,1637,813,0,0
420,211,0,0,0,0,0,0,0,0,0,-1,1644,813,0,0
427,211,0,0,0,0,0,0,0,0,0,-1,1651,813,0,0
434,211,0,0,0,0,0,0,0,0,0,-1,1658,813,0,0
441,211,0,0,0,0,0,0,0,0,0,-1,1665,813,0,0
448,211,0,0,0,0,0,0,0,0,0,-1,1672,813,0,0
455,211,0,0,0,0,0,0,0,0,0,-1,1679,813,0,0
462,211,0,0,0,0,0,0,0,0,0,-1,1686,813,0,0
469,211,0,0,0,0,0,0,0,0,0,-1,1693,813,0,0
476,211,0,0,0,0,0,0,0,0,0,-1,1700,813,0,0
483,211,0,0,0,0,0,0,0,0,0,-1,1707,813,0,0
490,211,0,0,0,0,0,0,0,0,0,-1,1714,813,0,0
497,211,0,0,0,0,0,0,0,0,0,-1,1721,813,0,0
504,211,0,0,0,0,0,0,0,0,0,-1,1728,813,0,0
511,211,0,0,0,0,0,0,0,0,0,-1,1735,813,0,0
518,211,0,0,0,0,0,0,0,0,0,-1,1742,813,0,0
525,211,0,0,0,0,0,0,0,0,0,-1,1749,813,0,0
532,211,0,0,0,0,0,0,0,0,0,-1,1756,813,0,0
539,211,0,0,0,0,0,0,0,0,0,-1,1763,813,0,0
546,211,0,0,0,0,0,0,0,0,0,-1,1770,813,0,0
553,211,0,0,0,0,0,0,0,0,0,-1,1777,813,0,0
560,211,0,0,0,0,0,0,0,0,0,-1,1784,813,0,0
567,211,0,0,0,0,0,0,0,0,0,-1,1791,813,0,0
574,211,0,0,0,0,0,0,0,0,0,-1,1798,813,0,0
581,211,0,0,0,0,0,0,0,0,0,-1,1805,813,0,0
588,211,0,0,0,0,0,0,0,0,0,-1,1812,813,0,0
595,211,44.2936,2.61035,0.00872687,0.00147483,-0.00169012,0.00910142,0.00110028,-0.218085,0.00573613,0.0384912,1819,813,44.2936,-2.61033
602,211,44.2365,2.45856,0.00643451,-0.00062039,0.000112542,0.00643631,-0.000622185,0.015947,0.00451259,0.037607,1826,813,44.2364,-2.45855
609,211,44.2469,2.54132,0.00336656,-0.00213891,0.00121586,0.00362312,-0.00239547,0.207962,0.00349885,0.0367274,1833,813,44.247,-2.54135
616,211,44.2416,2.71936,0.000145978,-0.00326438,0.00172361,0.000865351,-0.00398375,0.395386,0.00298637,0.0313596,1840,813,44.2416,-2.71933
623,211,44.2559,2.70135,-0.00272265,-0.00396115,0.00158197,-0.00164305,-0.00504076,0.598845,0.00296847,0.0326544,1847,813,44.2558,-2.70133
630,211,44.365,2.56458,-0.00482148,-0.00397887,0.00122146,-0.00310809,-0.00569225,0.951469,0.00329106,0.0367814,1854,813,44.365,-2.56457
637,211,44.3098,2.71075,-0.00599188,-0.00387462,0.000809346,-0.00360068,-0.00626582,1.24443,0.00363099,0.0413916,1861,813,44.3098,-2.71076
644,211,43.6392,2.67139,-0.00670338,-0.00360223,0.000404242,-0.0035504,-0.00675521,1.44328,0.00390182,0.0410859,1868,813,43.6392,-2.67137
651,211,43.2537,2.62592,0,0,0,0,0,0,0,-1,1875,813,43.2537,-2.62594
658,211,27.7909,1.52234,0,0,0,0,0,0,0,-1,1882,813,27.7909,-1.52234
665,211,33.6356,0.202881,0,0,0,0,0,0,0,-1,1889,813,33.6356,-0.202892
672,211,33.4882,0.520874,-0.00631051,-0.00207279,-0.00124701,-0.00173307,-0.00665023,-1.30483,0.00398351,0.0362906,1896,813,33.4882,-0.520879
679,211,33.3613,0.918518,-0.0059369,-0.00150266,-0.00138238,-0.00110701,-0.00633255,-1.29204,0.00390535,0.0203056,1903,813,33.3613,-0.918542
686,211,33.2397,1.3844,-0.00532072,-0.00102252,-0.00126393,-0.000678402,-0.00566484,-1.30498,0.00357197,0.0121231,1910,813,33.2397,-1.38439
693,211,33.2214,1.88422,-0.00324547,-0.000245641,-0.00150701,0.000380666,-0.00387178,-1.17692,0.00271698,0.0114064,1917,813,33.2214,-1.88423
700,211,33.1222,2.36493,-0.00085193,-0.000223522,-0.000940587,0.000453954,-0.00152941,-0.946596,0.0011999,0.0127161,1924,813,33.1222,-2.36495
707,211,33.0907,2.88403,-0.000505573,-0.00142653,-0.000378632,-0.000369896,-0.00156221,-0.344082,0.000942685,0.0195341,1931,813,33.0907,-2.88401
714,211,33.1628,3.44226,-0.0010473,-0.00368904,0.000179307,-0.00103519,-0.00370115,0.0674623,0.00220492,0.0221062,1938,813,33.1628,-3.44226
721,211,33.1698,3.92889,-0.00181698,-0.00689629,0.000951676,-0.00164452,-0.00706874,0.179265,0.00427119,0.0166452,1945,813,33.1698,-3.92886
728,211,33.1715,4.40668,-0.00374971,-0.0120335,0.00195923,-0.0033097,-0.0124735,0.220918,0.00746129,0.016262,1952,813,33.1715,-4.4067
735,211,33.2288,4.8949,-0.00724099,-0.0196025,0.00332398,-0.00640387,-0.0204397,0.246712,0.0120719,0.0292258,1959,813,33.2287,-4.8949
742,211,33.3376,5.40033,0,0,0,0,0,0,0,-1,1966,813,33.3376,-5.40031
749,211,34.1471,4.88965,0,0,0,0,0,0,0,-1,1973,813,34.1471,-4.88963
756,211,33.5288,3.84869,0,0,0,0,0,0,0,-1,1980,813,33.5289,-3.84871
763,211,31.9862,4.7663,0,0,0,0,0,0,0,-1,1987,813,31.9862,-4.76628
770,211,27.9138,9.25177,0,0,0,0,0,0,0,-1,1994,813,27.9139,-9.25176
777,211,0,0,0,0,0,0,0,0,0,-1,2001,813,0,0
784,211,0,0,0,0,0,0,0,0,0,-1,2008,813,0,0
791,211,0,0,0,0,0,0,0,0,0,-1,2015,813,0,0
798,211,0,0,0,0,0,0,0,0,0,-1,2022,813,0,0
805,211,0,0,0,0,0,0,0,0,0,-1,2029,813,0,0
812,211,0,0,0,0,0,0,0,0,0,-1,2036,813,0,0
-700,204,0,0,0,0,0,0,0,0,0,-1,524,820,0,0
-693,204,0,0,0,0,0,0,0,0,0,-1,531,820,0,0
-686,204,0,0,0,0,0,0,0,0,0,-1,538,820,0,0
-679,204,0,0,0,0,0,0,0,0,0,-1,545,820,0,0
-672,204,0,0,0,0,0,0,0,0,0,-1,552,820,0,0
-665,204,0,0,0,0,0,0,0,0,0,-1,559,820,0,0
-658,204,0,0,0,0,0,0,0,0,0,-1,566,820,0,0
-651,204,-30.9467,3.40283,0.0613353,-0.0600384,0.04629,0.0769745,-0.0756775,0.325812,0.0881347,0.041663,573,820,-30.9467,-3.40284
-644,204,-30.6304,4.97833,0.0471578,-0.0403091,0.0379303,0.0613149,-0.0544662,0.357228,0.0668852,0.0445241,580,820,-30.6304,-4.97831
-637,204,-24.3679,6.19324,0,0,0,0,0,0,0,-1,587,820,-24.3679,-6.19322
-630,204,-24.3862,5.71533,0,0,0,0,0,0,0,-1,594,820,-24.3862,-5.71536
-623,204,-23.5259,3.22345,0,0,0,0,0,0,0,-1,601,820,-23.5259,-3.22344
-616,204,-23.4922,2.79865,0.00916045,0.00244908,0.0116248,0.0179042,-0.00629469,0.644885,0.0144973,0.0486473,608,820,-23.4922,-2.79863
-609,204,-23.3792,2.50482,0.0041454,0.00584836,0.00708744,0.0121353,-0.00214153,0.845181,0.00889043,0.0360591,615,820,-23.3792,-2.50484
-602,204,-23.3605,2.21436,0.000450502,0.00784964,0.00341635,0.00918577,-0.000885626,1.19799,0.00643939,0.0170578,622,820,-23.3605,-2.21434
-595,204,-23.4136,1.72388,-0.00196356,0.00852836,0.000816842,0.00859157,-0.00202677,1.49356,0.00650934,0.015101,629,820,-23.4137,-1.7239
-588,204,-23.4325,1.25256,-0.00255157,0.00644948,-0.000548928,0.00648283,-0.00258493,-1.51011,0.00539409,0.0133311,636,820,-23.4325,-1.25256
-581,204,-23.4382,0.769653,-0.00162723,0.00245886,-0.000176831,0.0024665,-0.00163487,-1.52763,0.0023841,0.0134286,643,820,-23.4382,-0.769665
-574,204,-23.4554,0.295471,-0.00119714,0.000443582,0.000574825,0.000624927,-0.00137849,1.2652,0.00118363,0.0145966,650,820,-23.4554,-0.295498
-567,204,-23.4302,-0.143738,-0.0011738,-0.000555871,0.00110832,0.000285741,-0.00201541,0.921331,0.00144828,0.0151433,657,820,-23.4302,0.143731
-560,204,-23.4387,-0.630615,-0.00134965,-0.00141637,0.00140167,1.90535e-05,-0.00278507,0.773501,0.0018631,0.0175156,664,820,-23.4387,0.630637
-553,204,-23.4886,-1.03247,-0.00191299,-0.000893861,0.00193721,0.000599679,-0.00340653,0.914006,0.00249505,0.0183699,671,820,-23.4886,1.03246
-546,204,-23.606,-1.4115,-0.00233548,-0.000524637,0.00237352,0.00111029,-0.00397041,0.967613,0.00308439,0.023994,678,820,-23.606,1.41148
-539,204,-23.4862,-1.96918,-0.00248673,0.000254388,0.00232305,0.00158105,-0.00381339,1.05191,0.00320214,0.0450118,685,820,-23.4862,1.96917
-532,204,-23.3228,-2.79108,0,0,0,0,0,0,0,-1,692,820,-23.3228,2.79106
-525,204,-25.7137,1.52496,0,0,0,0,0,0,0,-1,699,820,-25.7137,-1.52496
-518,204,-32.6901,1.24585,0,0,0,0,0,0,0,-1,706,820,-32.69,-1.24585
-511,204,-32.748,1.04297,0,0,0,0,0,0,0,-1,713,820,-32.7481,-1.04298
-504,204,-32.2159,1.63617,0,0,0,0,0,0,0,-1,720,820,-32.2159,-1.63614
-497,204,-32.5292,1.33246,0,0,0,0,0,0,0,-1,727,820,-32.5292,-1.33247
-490,204,-32.8869,0.902893,-0.000408463,0.00576544,0.00183761,0.006271,-0.000914015,1.30232,0.00451627,0.035455,734,820,-32.8869,-0.902868
-483,204,-32.8741,0.881042,0.00233211,0.00387944,0.00154605,0.0048346,0.00137695,1.01739,0.00287614,0.0403892,741,820,-32.8742,-0.88104
-476,204,0,0,0,0,0,0,0,0,0,-1,748,820,0,0
-469,204,0,0,0,0,0,0,0,0,0,-1,755,820,0,0
-462,204,0,0,0,0,0,0,0,0,0,-1,762,820,0,0
-455,204,0,0,0,0,0,0,0,0,0,-1,769,820,0,0
-448,204,0,0,0,0,0,0,0,0,0,-1,776,820,0,0
-441,204,0,0,0,0,0,0,0,0,0,-1,783,820,0,0
-434,204,0,0,0,0,0,0,0,0,0,-1,790,820,0,0
-427,204,0,0,0,0,0,0,0,0,0,-1,797,820,0,0
-420,204,0,0,0,0,0,0,0,0,0,-1,804,820,0,0
-413,204,0,0,0,0,0,0,0,0,0,-1,811,820,0,0
-406,204,0,0,0,0,0,0,0,0,0,-1,818,820,0,0
-399,204,0,0,0,0,0,0,0,0,0,-1,825,820,0,0
-392,204,0,0,0,0,0,0,0,0,0,-1,832,820,0,0
-385,204,0,0,0,0,0,0,0,0,0,-1,839,820,0,0
-378,204,0,0,0,0,0,0,0,0,0,-1,846,820,0,0
-371,204,0,0,0,0,0,0,0,0,0,-1,853,820,0,0
-364,204,0,0,0,0,0,0,0,0,0,-1,860,820,0,0
-357,204,0,0,0,0,0,0,0,0,0,-1,867,820,0,0
-350,204,0,0,0,0,0,0,0,0,0,-1,874,820,0,0
-343,204,0,0,0,0,0,0,0,0,0,-1,881,820,0,0
-336,204,0,0,0,0,0,0,0,0,0,-1,888,820,0,0
-329,204,0,0,0,0,0,0,0,0,0,-1,895,820,0,0
-322,204,0,0,0,0,0,0,0,0,0,-1,902,820,0,0
-315,204,0,0,0,0,0,0,0,0,0,-1,909,820,0,0
-308,204,0,0,0,0,0,0,0,0,0,-1,916,820,0,0
-301,204,0,0,0,0,0,0,0,0,0,-1,923,820,0,0
-294,204,0,0,0,0,0,0,0,0,0,-1,930,820,0,0
-287,204,0,0,0,0,0,0,0,0,0,-1,937,820,0,0
-280,204,0,0,0,0,0,0,0,0,0,-1,944,820,0,0
-273,204,0,0,0,0,0,0,0,0,0,-1,951,820,0,0
-266,204,0,0,0,0,0,0,0,0,0,-1,958,820,0,0
-259,204,0,0,0,0,0,0,0,0,0,-1,965,820,0,0
-252,204,0,0,0,0,0,0,0,0,0,-1,972,820,0,0
-245,204,0,0,0,0,0,0,0,0,0,-1,979,820,0,0
-238,204,0,0,0,0,0,0,0,0,0,-1,986,820,0,0
-231,204,0,0,0,0,0,0,0,0,0,-1,993,820,0,0
-224,204,0,0,0,0,0,0,0,0,0,-1,1000,820,0,0
-217,204,0,0,0,0,0,0,0,0,0,-1,1007,820,0,0
-210,204,0,0,0,0,0,0,0,0,0,-1,1014,820,0,0
-203,204,0,0,0,0,0,0,0,0,0,-1,1021,820,0,0
-196,204,0,0,0,0,0,0,0,0,0,-1,1028,820,0,0
-189,204,0,0,0,0,0,0,0,0,0,-1,1035,820,0,0
-182,204,0,0,0,0,0,0,0,0,0,-1,1042,820,0,0
-175,204,0,0,0,0,0,0,0,0,0,-1,1049,820,0,0
-168,204,0,0,0,0,0,0,0,0,0,-1,1056,820,0,0
-161,204,0,0,0,0,0,0,0,0,0,-1,1063,820,0,0
-154,204,0,0,0,0,0,0,0,0,0,-1,1070,820,0,0
-147,204,0,0,0,0,0,0,0,0,0,-1,1077,820,0,0
-140,204,0,0,0,0,0,0,0,0,0,-1,1084,820,0,0
-133,204,0,0,0,0,0,0,0,0,0,-1,1091,820,0,0
-126,204,0,0,0,0,0,0,0,0,0,-1,1098,820,0,0
-119,204,0,0,0,0,0,0,0,0,0,-1,1105,820,0,0
-112,204,0,0,0,0,0,0,0,0,0,-1,1112,820,0,0
-105,204,0,0,0,0,0,0,0,0,0,-1,1119,820,0,0
-98,204,0,0,0,0,0,0,0,0,0,-1,1126,820,0,0
-91,204,0,0,0,0,0,0,0,0,0,-1,1133,820,0,0
-84,204,0,0,0,0,0,0,0,0,0,-1,1140,820,0,0
-77,204,0,0,0,0,0,0,0,0,0,-1,1147,820,0,0
-70,204,0,0,0,0,0,0,0,0,0,-1,1154,820,0,0
-63,204,0,0,0,0,0,0,0,0,0,-1,1161,820,0,0
-56,204,0,0,0,0,0,0,0,0,0,-1,1168,820,0,0
-49,204,0,0,0,0,0,0,0,0,0,-1,1175,820,0,0
-42,204,0,0,0,0,0,0,0,0,0,-1,1182,820,0,0
-35,204,0,0,0,0,0,0,0,0,0,-1,1189,820,0,0
-28,204,0,0,0,0,0,0,0,0,0,-1,1196,820,0,0
-21,204,0,0,0,0,0,0,0,0,0,-1,1203,820,0,0
-14,204,0,0,0,0,0,0,0,0,0,-1,1210,820,0,0
-7,204,0,0,0,0,0,0,0,0,0,-1,1217,820,0,0
0,204,0,0,0,0,0,0,0,0,0,-1,1224,820,0,0
7,204,0,0,0,0,0,0,0,0,0,-1,1231,820,0,0
14,204,0,0,0,0,0,0,0,0,0,-1,1238,820,0,0
21,204,0,0,0,0,0,0,0,0,0,-1,1245,820,0,0
28,204,0,0,0,0,0,0,0,0,0,-1,1252,820,0,0
35,204,0,0,0,0,0,0,0,0,0,-1,1259,820,0,0
42,204,0,0,0,0,0,0,0,0,0,-1,1266,820,0,0
49,204,0,0,0,0,0,0,0,0,0,-1,1273,820,0,0
56,204,0,0,0,0,0,0,0,0,0,-1,1280,820,0,0
63,204,0,0,0,0,0,0,0,0,0,-1,1287,820,0,0
70,204,0,0,0,0,0,0,0,0,0,-1,1294,820,0,0
77,204,0,0,0,0,0,0,0,0,0,-1,1301,820,0,0
84,204,0,0,0,0,0,0,0,0,0,-1,1308,820,0,0
91,204,0,0,0,0,0,0,0,0,0,-1,1315,820,0,0
98,204,0,0,0,0,0,0,0,0,0,-1,1322,820,0,0
105,204,0,0,0,0,0,0,0,0,0,-1,1329,820,0,0
112,204,0,0,0,0,0,0,0,0,0,-1,1336,820,0,0
119,204,0,0,0,0,0,0,0,0,0,-1,1343,820,0,0
126,204,0,0,0,0,0,0,0,0,0,-1,1350,820,0,0
133,204,0,0,0,0,0,0,0,0,0,-1,1357,820,0,0
140,204,0,0,0,0,0,0,0,0,0,-1,1364,820,0,0
147,204,0,0,0,0,0,0,0,0,0,-1,1371,820,0,0
154,204,0,0,0,0,0,0,0,0,0,-1,1378,820,0,0
161,204,0,0,0,0,0,0,0,0,0,-1,1385,820,0,0
168,204,0,0,0,0,0,0,0,0,0,-1,1392,820,0,0
175,204,0,0,0,0,0,0,0,0,0,-1,1399,820,0,0
182,204,0,0,0,0,0,0,0,0,0,-1,1406,820,0,0
189,204,0,0,0,0,0,0,0,0,0,-1,1413,820,0,0
196,204,0,0,0,0,0,0,0,0,0,-1,1420,820,0,0
203,204,0,0,0,0,0,0,0,0,0,-1,1427,820,0,0
210,204,0,0,0,0,0,0,0,0,0,-1,1434,820,0,0
217,204,0,0,0,0,0,0,0,0,0,-1,1441,820,0,0
224,204,0,0,0,0,0,0,0,0,0,-1,1448,820,0,0
231,204,0,0,0,0,0,0,0,0,0,-1,1455,820,0,0
238,204,0,0,0,0,0,0,0,0,0,-1,1462,820,0,0
245,204,0,0,0,0,0,0,0,0,0,-1,1469,820,0,0
252,204,0,0,0,0,0,0,0,0,0,-1,1476,820,0,0
259,204,0,0,0,0,0,0,0,0,0,-1,1483,820,0,0
266,204,0,0,0,0,0,0,0,0,0,-1,1490,820,0,0
273,204,0,0,0,0,0,0,0,0,0,-1,1497,820,0,0
280,204,0,0,0,0,0,0,0,0,0,-1,1504,820,0,0
287,204,0,0,0,0,0,0,0,0,0,-1,1511,820,0,0
294,204,0,0,0,0,0,0,0,0,0,-1,1518,820,0,0
301,204,0,0,0,0,0,0,0,0,0,-1,1525,820,0,0
308,204,0,0,0,0,0,0,0,0,0,-1,1532,820,0,0
315,204,0,0,0,0,0,0,0,0,0,-1,1539,820,0,0
322,204,0,0,0,0,0,0,0,0,0,-1,1546,820,0,0
329,204,0,0,0,0,0,0,0,0,0,-1,1553,820,0,0
336,204,0,0,0,0,0,0,0,0,0,-1,1560,820,0,0
343,204,0,0,0,0,0,0,0,0,0,-1,1567,820,0,0
350,204,0,0,0,0,0,0,0,0,0,-1,1574,820,0,0
357,204,0,0,0,0,0,0,0,0,0,-1,1581,820,0,0
364,204,0,0,0,0,0,0,0,0,0,-1,1588,820,0,0
371,204,0,0,0,0,0,0,0,0,0,-1,1595,820,0,0
378,204,0,0,0,0,0,0,0,0,0,-1,1602,820,0,0
385,204,0,0,0,0,0,0,0,0,0,-1,1609,820,0,0
392,204,0,0,0,0,0,0,0,0,0,-1,1616,820,0,0
399,204,0,0,0,0,0,0,0,0,0,-1,1623,820,0,0
406,204,0,0,0,0,0,0,0,0,0,-1,1630,820,0,0
413,204,0,0,0,0,0,0,0,0,0,-1,1637,820,0,0
420,204,0,0,0,0,0,0,0,0,0,-1,1644,820,0,0
427,204,0,0,0,0,0,0,0,0,0,-1,1651,820,0,0
434,204,0,0,0,0,0,0,0,0,0,-1,1658,820,0,0
441,204,0,0,0,0,0,0,0,0,0,-1,1665,820,0,0
448,204,0,0,0,0,0,0,0,0,0,-1,1672,820,0,0
455,204,0,0,0,0,0,0,0,0,0,-1,1679,820,0,0
462,204,0,0,0,0,0,0,0,0,0,-1,1686,820,0,0
469,204,0,0,0,0,0,0,0,0,0,-1,1693,820,0,0
476,204,0,0,0,0,0,0,0,0,0,-1,1700,820,0,0
483,204,0,0,0,0,0,0,0,0,0,-1,1707,820,0,0
490,204,0,0,0,0,0,0,0,0,0,-1,1714,820,0,0
497,204,0,0,0,0,0,0,0,0,0,-1,1721,820,0,0
504,204,0,0,0,0,0,0,0,0,0,-1,1728,820,0,0
511,204,0,0,0,0,0,0,0,0,0,-1,1735,820,0,0
518,204,0,0,0,0,0,0,0,0,0,-1,1742,820,0,0
525,204,0,0,0,0,0,0,0,0,0,-1,1749,820,0,0
532,204,0,0,0,0,0,0,0,0,0,-1,1756,820,0,0
539,204,0,0,0,0,0,0,0,0,0,-1,1763,820,0,0
546,204,0,0,0,0,0,0,0,0,0,-1,1770,820,0,0
553,204,0,0,0,0,0,0,0,0,0,-1,1777,820,0,0
560,204,0,0,0,0,0,0,0,0,0,-1,1784,820,0,0
567,204,0,0,0,0,0,0,0,0,0,-1,1791,820,0,0
574,204,0,0,0,0,0,0,0,0,0,-1,1798,820,0,0
581,204,0,0,0,0,0,0,0,0,0,-1,1805,820,0,0
588,204,0,0,0,0,0,0,0,0,0,-1,1812,820,0,0
595,204,0,0,0,0,0,0,0,0,0,-1,1819,820,0,0
602,204,44.2611,2.57117,0.00556663,0.000620626,-0.000851595,0.00570915,0.000478107,-0.165819,0.00365716,0.0386072,1826,820,44.2612,-2.57115
609,204,44.3344,2.63593,0.00294142,-0.00102645,0.000299214,0.00296386,-0.00104889,0.0748451,0.00240309,0.0400492,1833,820,44.3344,-2.63594
616,204,44.2494,2.76086,-2.61561e-05,-0.00230469,0.00101547,0.00036072,-0.00269157,0.364004,0.00192591,0.0375359,1840,820,44.2494,-2.76085
623,204,44.1978,2.70447,-0.0029089,-0.00313692,0.0010613,-0.0019555,-0.00409032,0.731889,0.0023623,0.0277817,1847,820,44.1977,-2.70449
630,204,44.2473,2.65253,-0.00508839,-0.00319262,0.000789654,-0.00290679,-0.00537421,1.22351,0.00310626,0.0254239,1854,820,44.2473,-2.65254
637,204,44.2903,2.6452,-0.00623044,-0.00307547,0.000408264,-0.00302349,-0.00628241,1.44417,0.003628,0.0329103,1861,820,44.2903,-2.64518
644,204,44.2198,2.72296,-0.00677197,-0.00282133,4.15445e-05,-0.00282089,-0.00677241,1.56028,0.00392817,0.0408684,1868,820,44.2198,-2.72298
651,204,44.1439,2.82458,0,0,0,0,0,0,0,-1,1875,820,44.1439,-2.82458
658,204,34.9631,1.64844,0,0,0,0,0,0,0,-1,1882,820,34.9631,-1.64842
665,204,21.8292,1.51099,0,0,0,0,0,0,0,-1,1889,820,21.8292,-1.51099
672,204,33.8069,0.163025,0,0,0,0,0,0,0,-1,1896,820,33.8069,-0.16302
679,204,33.7794,0.748535,-0.0056408,-0.00119501,-0.00143064,-0.000774425,-0.00606139,-1.28487,0.00380911,0.0373388,1903,820,33.7794,-0.748522
686,204,33.7336,1.38007,-0.00522211,-0.000899319,-0.00131592,-0.000530245,-0.00559118,-1.29735,0.00356388,0.0177891,1910,820,33.7336,-1.38006
693,204,33.6583,1.8855,-0.00347674,-0.000320438,-0.00162914,0.000369597,-0.00416677,-1.17015,0.00290889,0.0160148,1917,820,33.6583,-1.88549
700,204,33.6956,2.38867,-0.0012546,-0.000417717,-0.00117324,0.000409465,-0.00208179,-0.956694,0.00154257,0.016832,1924,820,33.6956,-2.38869
707,204,33.6661,2.92023,-0.000973398,-0.00159536,-0.000711958,-0.000507465,-0.00206129,-0.579489,0.00124014,0.015176,1931,820,33.6661,-2.92021
714,204,33.6886,3.48962,-0.00145229,-0.00365895,-0.00018242,-0.00143731,-0.00367393,-0.0819267,0.00213781,0.0225562,1938,820,33.6886,-3.48962
721,204,33.6724,3.93488,-0.00216096,-0.00660675,0.000617271,-0.00207684,-0.00669086,0.135432,0.00395447,0.0216772,1945,820,33.6724,-3.93486
728,204,33.6427,4.39575,-0.00393467,-0.0112115,0.00185672,-0.0034883,-0.0116579,0.235931,0.00690919,0.0137298,1952,820,33.6427,-4.39573
735,204,33.5961,4.89911,-0.00707943,-0.0178265,0.00360916,-0.00597987,-0.0189261,0.295724,0.011171,0.015703,1959,820,33.596,-4.89913
742,204,33.6582,5.30658,-0.0121341,-0.0276421,0.00566093,-0.0102875,-0.0294887,0.31531,0.0172826,0.032226,1966,820,33.6581,-5.30656
749,204,34.3145,5.23279,-0.0198194,-0.041525,0.00849106,-0.0168924,-0.044452,0.331952,0.0259095,0.0461934,1973,820,34.3145,-5.2328
756,204,33.5474,5.0921,-0.0307945,-0.0600345,0.0122839,-0.026319,-0.06451,0.349392,0.0374545,0.048575,1980,820,33.5473,-5.09209
763,204,32.5236,5.75073,-0.0458374,-0.083543,0.0173023,-0.0391012,-0.0902792,0.371269,0.052278,0.0483308,1987,820,32.5236,-5.75072
770,204,32.2986,6.22162,0,0,0,0,0,0,0,-1,1994,820,32.2985,-6.22164
777,204,0,0,0,0,0,0,0,0,0,-1,2001,820,0,0
784,204,0,0,0,0,0,0,0,0,0,-1,2008,820,0,0
791,204,0,0,0,0,0,0,0,0,0,-1,2015,820,0,0
798,204,0,0,0,0,0,0,0,0,0,-1,2022,820,0,0
805,204,0,0,0,0,0,0,0,0,0,-1,2029,820,0,0
812,204,0,0,0,0,0,0,0,0,0,-1,2036,820,0,0
-700,197,0,0,0,0,0,0,0,0,0,-1,524,827,0,0
-693,197,0,0,0,0,0,0,0,0,0,-1,531,827,0,0
-686,197,0,0,0,0,0,0,0,0,0,-1,538,827,0,0
-679,197,0,0,0,0,0,0,0,0,0,-1,545,827,0,0
-672,197,0,0,0,0,0,0,0,0,0,-1,552,827,0,0
-665,197,0,0,0,0,0,0,0,0,0,-1,559,827,0,0
-658,197,-30.4204,2.35925,0.0651278,-0.0602803,0.0555585,0.0862005,-0.081353,0.362525,0.0967505,0.04546,566,827,-30.4204,-2.35925
-651,197,-30.2333,3.96747,0.0506461,-0.0409363,0.0466605,0.070231,-0.0605212,0.3974,0.0755592,0.0454944,573,827,-30.2333,-3.96747
-644,197,-29.4877,5.617,0.0378953,-0.0253719,0.0381971,0.0558571,-0.0433337,0.439557,0.0574197,0.0497104,580,827,-29.4877,-5.617
-637,197,-24.3416,6.20563,0,0,0,0,0,0,0,-1,587,827,-24.3416,-6.20564
-630,197,-24.4034,5.27606,0,0,0,0,0,0,0,-1,594,827,-24.4035,-5.27608
-623,197,-23.9341,3.39313,0,0,0,0,0,0,0,-1,601,827,-23.9341,-3.39315
-616,197,-23.9178,2.91302,0.00575504,0.0057047,0.0121756,0.0179055,-0.00644579,0.784364,0.0145689,0.0454832,608,827,-23.9178,-2.91305
-609,197,-23.8253,2.57758,0.00183756,0.00764037,0.00780356,0.0130645,-0.00358653,0.963382,0.0101193,0.0313734,615,827,-23.8252,-2.5776
-602,197,-23.8449,2.20374,-0.0011894,0.00862761,0.00424939,0.0102115,-0.00277325,1.21402,0.0078961,0.0169181,622,827,-23.8449,-2.20373
-595,197,-23.8945,1.76849,-0.00289104,0.00837159,0.00180333,0.00865329,-0.00317274,1.41584,0.00706793,0.0185452,629,827,-23.8946,-1.76848
-588,197,-23.9028,1.26086,-0.00294151,0.00581223,0.000368589,0.00582772,-0.002957,1.52879,0.00516135,0.0207476,636,827,-23.9028,-1.26089
-581,197,-23.913,0.766418,-0.00176931,0.0018343,0.000545113,0.00191495,-0.00184996,1.4239,0.00217378,0.0122806,643,827,-23.913,-0.766425
-574,197,-23.9174,0.310181,-0.0011304,-6.58321e-05,0.00110884,0.000631868,-0.0018281,1.00917,0.00147518,0.0139251,650,827,-23.9174,-0.310188
-567,197,-23.8984,-0.130066,-0.000962766,-0.000872621,0.00147041,0.000553406,-0.00238879,0.80072,0.00180549,0.0161443,657,827,-23.8985,0.130078
-560,197,-23.8917,-0.596802,-0.00105298,-0.00161086,0.00162172,0.000313612,-0.00297745,0.700231,0.00209734,0.0233662,664,827,-23.8916,0.596826
-553,197,-24.1745,-0.955688,-0.00153794,-0.00110085,0.00200206,0.000694557,-0.00333335,0.839763,0.00248631,0.0244479,671,827,-24.1745,0.955671
-546,197,-24.0659,-1.37598,-0.0018347,-0.000853852,0.00234294,0.00104944,-0.00373799,0.888568,0.00290568,0.0382244,678,827,-24.0659,1.37597
-539,197,-23.8134,-1.77032,0,0,0,0,0,0,0,-1,685,827,-23.8134,1.77031
-532,197,-16.0519,0.0410156,0,0,0,0,0,0,0,-1,692,827,-16.0519,-0.0410415
-525,197,-32.4977,1.43274,0,0,0,0,0,0,0,-1,699,827,-32.4977,-1.43275
-518,197,-32.7465,1.04144,-0.00216206,0.00219085,0.00251078,0.00333718,-0.0033084,1.14249,0.00383684,0.0479927,706,827,-32.7465,-1.04147
-511,197,-32.9243,0.713135,-0.0021309,0.00319075,0.0024869,0.00417199,-0.00311215,1.19498,0.00422031,0.045358,713,827,-32.9243,-0.713142
-504,197,-32.9197,0.75238,0,0,0,0,0,0,0,-1,720,827,-32.9197,-0.752367
-497,197,-33.0977,0.734619,-0.000717797,0.0047361,0.00232067,0.0055899,-0.0015716,1.21826,0.00434623,0.0398567,727,827,-33.0977,-0.734614
-490,197,-33.0712,0.698059,0.000995399,0.00420177,0.00221782,0.00533517,-0.00013801,1.09835,0.00360367,0.0392333,734,827,-33.0712,-0.698087
-483,197,-32.9639,0.712524,0.00479296,0.00125509,0.00199017,0.00568671,0.000361333,0.422093,0.00367662,0.0436709,741,827,-32.9639,-0.712513
-476,197,0,0,0,0,0,0,0,0,0,-1,748,827,0,0
-469,197,0,0,0,0,0,0,0,0,0,-1,755,827,0,0
-462,197,0,0,0,0,0,0,0,0,0,-1,762,827,0,0
-455,197,0,0,0,0,0,0,0,0,0,-1,769,827,0,0
-448,197,0,0,0,0,0,0,0,0,0,-1,776,827,0,0
-441,197,0,0,0,0,0,0,0,0,0,-1,783,827,0,0
-434,197,0,0,0,0,0,0,0,0,0,-1,790,827,0,0
-427,197,0,0,0,0,0,0,0,0,0,-1,797,827,0,0
-420,197,0,0,0,0,0,0,0,0,0,-1,804,827,0,0
-413,197,0,0,0,0,0,0,0,0,0,-1,811,827,0,0
-406,197,0,0,0,0,0,0,0,0,0,-1,818,827,0,0
-399,197,0,0,0,0,0,0,0,0,0,-1,825,827,0,0
-392,197,0,0,0,0,0,0,0,0,0,-1,832,827,0,0
-385,197,0,0,0,0,0,0,0,0,0,-1,839,827,0,0
-378,197,0,0,0,0,0,0,0,0,0,-1,846,827,0,0
-371,197,0,0,0,0,0,0,0,0,0,-1,853,827,0,0
-364,197,0,0,0,0,0,0,0,0,0,-1,860,827,0,0
-357,197,0,0,0,0,0,0,0,0,0,-1,867,827,0,0
-350,197,0,0,0,0,0,0,0,0,0,-1,874,827,0,0
-343,197,0,0,0,0,0,0,0,0,0,-1,881,827,0,0
-336,197,0,0,0,0,0,0,0,0,0,-1,888,827,0,0
-329,197,0,0,0,0,0,0,0,0,0,-1,895,827,0,0
-322,197,0,0,0,0,0,0,0,0,0,-1,902,827,0,0
-315,197,0,0,0,0,0,0,0,0,0,-1,909,827,0,0
-308,197,0,0,0,0,0,0,0,0,0,-1,916,827,0,0
-301,197,0,0,0,0,0,0,0,0,0,-1,923,827,0,0
-294,197,0,0,0,0,0,0,0,0,0,-1,930,827,0,0
-287,197,0,0,0,0,0,0,0,0,0,-1,937,827,0,0
-280,197,0,0,0,0,0,0,0,0,0,-1,944,827,0,0
-273,197,0,0,0,0,0,0,0,0,0,-1,951,827,0,0
-266,197,0,0,0,0,0,0,0,0,0,-1,958,827,0,0
-259,197,0,0,0,0,0,0,0,0,0,-1,965,827,0,0
-252,197,0,0,0,0,0,0,0,0,0,-1,972,827,0,0
-245,197,0,0,0,0,0,0,0,0,0,-1,979,827,0,0
-238,197,0,0,0,0,0,0,0,0,0,-1,986,827,0,0
-231,197,0,0,0,0,0,0,0,0,0,-1,993,827,0,0
-224,197,0,0,0,0,0,0,0,0,0,-1,1000,827,0,0
-217,197,0,0,0,0,0,0,0,0,0,-1,1007,827,0,0
-210,197,0,0,0,0,0,0,0,0,0,-1,1014,827,0,0
-203,197,0,0,0,0,0,0,0,0,0,-1,1021,827,0,0
-196,197,0,0,0,0,0,0,0,0,0,-1,1028,827,0,0
-189,197,0,0,0,0,0,0,0,0,0,-1,1035,827,0,0
-182,197,0,0,0,0,0,0,0,0,0,-1,1042,827,0,0
-175,197,0,0,0,0,0,0,0,0,0,-1,1049,827,0,0
-168,197,0,0,0,0,0,0,0,0,0,-1,1056,827,0,0
-161,197,0,0,0,0,0,0,0,0,0,-1,1063,827,0,0
-154,197,0,0,0,0,0,0,0,0,0,-1,1070,827,0,0
-147,197,0,0,0,0,0,0,0,0,0,-1,1077,827,0,0
-140,197,0,0,0,0,0,0,0,0,0,-1,1084,827,0,0
-133,197,0,0,0,0,0,0,0,0,0,-1,1091,827,0,0
-126,197,0,0,0,0,0,0,0,0,0,-1,1098,827,0,0
-119,197,0,0,0,0,0,0,0,0,0,-1,1105,827,0,0
-112,197,0,0,0,0,0,0,0,0,0,-1,1112,827,0,0
-105,197,0,0,0,0,0,0,0,0,0,-1,1119,827,0,0
-98,197,0,0,0,0,0,0,0,0,0,-1,1126,827,0,0
-91,197,0,0,0,0,0,0,0,0,0,-1,1133,827,0,0
-84,197,0,0,0,0,0,0,0,0,0,-1,1140,827,0,0
-77,197,0,0,0,0,0,0,0,0,0,-1,1147,827,0,0
-70,197,0,0,0,0,0,0,0,0,0,-1,1154,827,0,0
-63,197,0,0,0,0,0,0,0,0,0,-1,1161,827,0,0
-56,197,0,0,0,0,0,0,0,0,0,-1,1168,827,0,0
-49,197,0,0,0,0,0,0,0,0,0,-1,1175,827,0,0
-42,197,0,0,0,0,0,0,0,0,0,-1,1182,827,0,0
-35,197,0,0,0,0,0,0,0,0,0,-1,1189,827,0,0
-28,197,0,0,0,0,0,0,0,0,0,-1,1196,827,0,0
-21,197,0,0,0,0,0,0,0,0,0,-1,1203,827,0,0
-14,197,0,0,0,0,0,0,0,0,0,-1,1210,827,0,0
-7,197,0,0,0,0,0,0,0,0,0,-1,1217,827,0,0
0,197,0,0,0,0,0,0,0,0,0,-1,1224,827,0,0
7,197,0,0,0,0,0,0,0,0,0,-1,1231,827,0,0
14,197,0,0,0,0,0,0,0,0,0,-1,1238,827,0,0
21,197,0,0,0,0,0,0,0,0,0,-1,1245,827,0,0
28,197,0,0,0,0,0,0,0,0,0,-1,1252,827,0,0
35,197,0,0,0,0,0,0,0,0,0,-1,1259,827,0,0
42,197,0,0,0,0,0,0,0,0,0,-1,1266,827,0,0
49,197,0,0,0,0,0,0,0,0,0,-1,1273,827,0,0
56,197,0,0,0,0,0,0,0,0,0,-1,1280,827,0,0
63,197,0,0,0,0,0,0,0,0,0,-1,1287,827,0,0
70,197,0,0,0,0,0,0,0,0,0,-1,1294,827,0,0
77,197,0,0,0,0,0,0,0,0,0,-1,1301,827,0,0
84,197,0,0,0,0,0,0,0,0,0,-1,1308,827,0,0
91,197,0,0,0,0,0,0,0,0,0,-1,1315,827,0,0
98,197,0,0,0,0,0,0,0,0,0,-1,1322,827,0,0
105,197,0,0,0,0,0,0,0,0,0,-1,1329,827,0,0
112,197,0,0,0,0,0,0,0,0,0,-1,1336,827,0,0
119,197,0,0,0,0,0,0,0,0,0,-1,1343,827,0,0
126,197,0,0,0,0,0,0,0,0,0,-1,1350,827,0,0
133,197,0,0,0,0,0,0,0,0,0,-1,1357,827,0,0
140,197,0,0,0,0,0,0,0,0,0,-1,1364,827,0,0
147,197,0,0,0,0,0,0,0,0,0,-1,1371,827,0,0
154,197,0,0,0,0,0,0,0,0,0,-1,1378,827,0,0
161,197,0,0,0,0,0,0,0,0,0,-1,1385,827,0,0
168,197,0,0,0,0,0,0,0,0,0,-1,1392,827,0,0
175,197,0,0,0,0,0,0,0,0,0,-1,1399,827,0,0
182,197,0,0,0,0,0,0,0,0,0,-1,1406,827,0,0
189,197,0,0,0,0,0,0,0,0,0,-1,1413,827,0,0
196,197,0,0,0,0,0,0,0,0,0,-1,1420,827,0,0
203,197,0,0,0,0,0,0,0,0,0,-1,1427,827,0,0
210,197,0,0,0,0,0,0,0,0,0,-1,1434,827,0,0
217,197,0,0,0,0,0,0,0,0,0,-1,1441,827,0,0
224,197,0,0,0,0,0,0,0,0,0,-1,1448,827,0,0
231,197,0,0,0,0,0,0,0,0,0,-1,1455,827,0,0
238,197,0,0,0,0,0,0,0,0,0,-1,1462,827,0,0
245,197,0,0,0,0,0,0,0,0,0,-1,1469,827,0,0
252,197,0,0,0,0,0,0,0,0,0,-1,1476,827,0,0
259,197,0,0,0,0,0,0,0,0,0,-1,1483,827,0,0
266,197,0,0,0,0,0,0,0,0,0,-1,1490,827,0,0
273,197,0,0,0,0,0,0,0,0,0,-1,1497,827,0,0
280,197,0,0,0,0,0,0,0,0,0,-1,1504,827,0,0
287,197,0,0,0,0,0,0,0,0,0,-1,1511,827,0,0
294,197,0,0,0,0,0,0,0,0,0,-1,1518,827,0,0
301,197,0,0,0,0,0,0,0,0,0,-1,1525,827,0,0
308,197,0,0,0,0,0,0,0,0,0,-1,1532,827,0,0
315,197,0,0,0,0,0,0,0,0,0,-1,1539,827,0,0
322,197,0,0,0,0,0,0,0,0,0,-1,1546,827,0,0
329,197,0,0,0,0,0,0,0,0,0,-1,1553,827,0,0
336,197,0,0,0,0,0,0,0,0,0,-1,1560,827,0,0
343,197,0,0,0,0,0,0,0,0,0,-1,1567,827,0,0
350,197,0,0,0,0,0,0,0,0,0,-1,1574,827,0,0
357,197,0,0,0,0,0,0,0,0,0,-1,1581,827,0,0
364,197,0,0,0,0,0,0,0,0,0,-1,1588,827,0,0
371,197,0,0,0,0,0,0,0,0,0,-1,1595,827,0,0
378,197,0,0,0,0,0,0,0,0,0,-1,1602,827,0,0
385,197,0,0,0,0,0,0,0,0,0,-1,1609,827,0,0
392,197,0,0,0,0,0,0,0,0,0,-1,1616,827,0,0
399,197,0,0,0,0,0,0,0,0,0,-1,1623,827,0,0
406,197,0,0,0,0,0,0,0,0,0,-1,1630,827,0,0
413,197,0,0,0,0,0,0,0,0,0,-1,1637,827,0,0
420,197,0,0,0,0,0,0,0,0,0,-1,1644,827,0,0
427,197,0,0,0,0,0,0,0,0,0,-1,1651,827,0,0
434,197,0,0,0,0,0,0,0,0,0,-1,1658,827,0,0
441,197,0,0,0,0,0,0,0,0,0,-1,1665,827,0,0
448,197,0,0,0,0,0,0,0,0,0,-1,1672,827,0,0
455,197,0,0,0,0,0,0,0,0,0,-1,1679,827,0,0
462,197,0,0,0,0,0,0,0,0,0,-1,1686,827,0,0
469,197,0,0,0,0,0,0,0,0,0,-1,1693,827,0,0
476,197,0,0,0,0,0,0,0,0,0,-1,1700,827,0,0
483,197,0,0,0,0,0,0,0,0,0,-1,1707,827,0,0
490,197,0,0,0,0,0,0,0,0,0,-1,1714,827,0,0
497,197,0,0,0,0,0,0,0,0,0,-1,1721,827,0,0
504,197,0,0,0,0,0,0,0,0,0,-1,1728,827,0,0
511,197,0,0,0,0,0,0,0,0,0,-1,1735,827,0,0
518,197,0,0,0,0,0,0,0,0,0,-1,1742,827,0,0
525,197,0,0,0,0,0,0,0,0,0,-1,1749,827,0,0
532,197,0,0,0,0,0,0,0,0,0,-1,1756,827,0,0
539,197,0,0,0,0,0,0,0,0,0,-1,1763,827,0,0
546,197,0,0,0,0,0,0,0,0,0,-1,1770,827,0,0
553,197,0,0,0,0,0,0,0,0,0,-1,1777,827,0,0
560,197,0,0,0,0,0,0,0,0,0,-1,1784,827,0,0
567,197,0,0,0,0,0,0,0,0,0,-1,1791,827,0,0
574,197,0,0,0,0,0,0,0,0,0,-1,1798,827,0,0
581,197,0,0,0,0,0,0,0,0,0,-1,1805,827,0,0
588,197,0,0,0,0,0,0,0,0,0,-1,1812,827,0,0
595,197,0,0,0,0,0,0,0,0,0,-1,1819,827,0,0
602,197,44.2285,2.77087,0.00419544,0.0014073,-0.0016102,0.0049312,0.000671537,-0.428607,0.00308805,0.0411846,1826,827,44.2285,-2.77086
609,197,44.2491,2.77917,0.00219189,-5.84494e-05,-0.000572923,0.00232936,-0.000195915,-0.235485,0.00162216,0.0387559,1833,827,44.2492,-2.77918
616,197,44.2244,2.6535,-0.00016683,-0.00127761,0.000209369,-0.000128677,-0.00131576,0.180251,0.000837585,0.0384825,1840,827,44.2244,-2.6535
623,197,44.1588,2.58539,-0.0027035,-0.00216612,0.000439102,-0.00192002,-0.00294959,1.05996,0.00172862,0.0339209,1847,827,44.1588,-2.58539
630,197,44.2102,2.56976,-0.00479495,-0.00232936,0.000292271,-0.00229519,-0.00482912,1.45441,0.00278923,0.027381,1854,827,44.2102,-2.56977
637,197,44.2616,2.56433,-0.0059161,-0.00225671,-1.38935e-05,-0.00225665,-0.00591615,-1.567,0.00344755,0.0266919,1861,827,44.2616,-2.56435
644,197,44.2472,2.64636,-0.00634488,-0.00205988,-0.000323038,-0.00203566,-0.00636909,-1.49597,0.00375612,0.0345118,1868,827,44.2472,-2.64638
651,197,44.1317,3.05151,0,0,0,0,0,0,0,-1,1875,827,44.1317,-3.05154
658,197,40.4694,3.05927,0,0,0,0,0,0,0,-1,1882,827,40.4694,-3.05926
665,197,14.0618,1.80304,0,0,0,0,0,0,0,-1,1889,827,14.0617,-1.80303
672,197,33.3518,0.135193,0,0,0,0,0,0,0,-1,1896,827,33.3518,-0.135171
679,197,34.1333,0.573486,0,0,0,0,0,0,0,-1,1903,827,34.1333,-0.573458
686,197,34.239,1.44672,-0.00479805,-0.000763881,-0.00131953,-0.000370613,-0.00519131,-1.28114,0.00334419,0.0299548,1910,827,34.239,-1.44669
693,197,34.1644,1.96771,-0.00343887,-0.000373439,-0.0016392,0.000337996,-0.0041503,-1.16132,0.00288614,0.0174974,1917,827,34.1644,-1.9677
700,197,34.1559,2.45172,-0.00154636,-0.000563254,-0.00128499,0.000320992,-0.0024306,-0.968078,0.00173731,0.0225048,1924,827,34.1559,-2.45171
707,197,34.2247,2.93774,-0.0013731,-0.00164112,-0.000936303,-0.000561263,-0.00245295,-0.714317,0.00148402,0.0097521,1931,827,34.2248,-2.93775
714,197,34.1796,3.41589,-0.00178563,-0.0033771,-0.000462194,-0.00166114,-0.0035016,-0.263105,0.00202253,0.0111277,1938,827,34.1795,-3.4159
721,197,34.1432,3.89374,-0.00245914,-0.00593694,0.000345678,-0.00242511,-0.00597097,0.0981164,0.00346752,0.0116296,1945,827,34.1432,-3.89371
728,197,34.1099,4.3902,-0.00412779,-0.00993331,0.00180086,-0.00361454,-0.0104466,0.277641,0.00612594,0.0108554,1952,827,34.1098,-4.39021
735,197,34.0844,4.90302,-0.006927,-0.0155824,0.00387182,-0.00544782,-0.0170616,0.364927,0.0100627,0.0111584,1959,827,34.0843,-4.90304
742,197,34.0645,5.4248,-0.0112485,-0.0236365,0.00631318,-0.0085982,-0.0262868,0.397463,0.0154762,0.0205233,1966,827,34.0645,-5.42479
749,197,34.0101,5.93359,-0.0176496,-0.0347542,0.00974668,-0.013235,-0.0391688,0.425287,0.0230069,0.0442259,1973,827,34.0102,-5.93358
756,197,33.63,6.52875,-0.0265887,-0.0494171,0.0144773,-0.0195672,-0.0564387,0.451578,0.0330915,0.0445196,1980,827,33.63,-6.52875
763,197,33.0707,6.72778,-0.0387418,-0.0677849,0.0207605,-0.0279281,-0.0785986,0.48021,0.0460078,0.0445412,1987,827,33.0707,-6.72781
770,197,32.8149,7.16052,0,0,0,0,0,0,0,-1,1994,827,32.8149,-7.16055
777,197,0,0,0,0,0,0,0,0,0,-1,2001,827,0,0
784,197,0,0,0,0,0,0,0,0,0,-1,2008,827,0,0
791,197,0,0,0,0,0,0,0,0,0,-1,2015,827,0,0
798,197,0,0,0,0,0,0,0,0,0,-1,2022,827,0,0
805,197,0,0,0,0,0,0,0,0,0,-1,2029,827,0,0
812,197,0,0,0,0,0,0,0,0,0,-1,2036,827,0,0
-700,190,0,0,0,0,0,0,0,0,0,-1,524,834,0,0
-693,190,0,0,0,0,0,0,0,0,0,-1,531,834,0,0
-686,190,0,0,0,0,0,0,0,0,0,-1,538,834,0,0
-679,190,0,0,0,0,0,0,0,0,0,-1,545,834,0,0
-672,190,0,0,0,0,0,0,0,0,0,-1,552,834,0,0
-665,190,0,0,0,0,0,0,0,0,0,-1,559,834,0,0
-658,190,-29.6581,2.95612,0.0523059,-0.0397718,0.0553184,0.0782372,-0.0657031,0.438348,0.0832089,0.04759,566,834,-29.6581,-2.95613
-651,190,-29.42,4.58313,0.0396738,-0.023833,0.0465594,0.0642769,-0.0484361,0.486127,0.0652888,0.0486896,573,834,-29.42,-4.58312
-644,190,-22.9308,4.65051,0,0,0,0,0,0,0,-1,580,834,-22.9308,-4.65049
-637,190,-24.5661,5.81213,0,0,0,0,0,0,0,-1,587,834,-24.5661,-5.81214
-630,190,-24.5186,4.86481,0,0,0,0,0,0,0,-1,594,834,-24.5185,-4.86478
-623,190,-24.0369,3.75116,0,0,0,0,0,0,0,-1,601,834,-24.0368,-3.75117
-616,190,-24.1717,3.18677,0.00262477,0.00859322,0.0125244,0.018484,-0.007266,0.902354,0.0153298,0.0434048,608,834,-24.1717,-3.18675
-609,190,-24.2903,2.64014,-0.000349124,0.00921145,0.00830467,0.0140134,-0.00515105,1.04655,0.0114522,0.0243259,615,834,-24.2904,-2.64014
-602,190,-24.33,2.21344,-0.00266663,0.00916815,0.00488579,0.0109245,-0.00442299,1.2257,0.00912206,0.016076,622,834,-24.33,-2.21342
-595,190,-24.3802,1.78278,-0.00360927,0.00796407,0.00262118,0.00853004,-0.00417524,1.35814,0.00747765,0.0190703,629,834,-24.3802,-1.78278
-588,190,-24.396,1.263,-0.00311392,0.0049737,0.00119062,0.00514533,-0.00328556,1.42763,0.00490689,0.0176599,636,834,-24.396,-1.26303
-581,190,-24.3851,0.787231,-0.0017344,0.00116986,0.00121567,0.00161154,-0.00217608,1.2223,0.00219487,0.0123216,643,834,-24.3852,-0.787218
-574,190,-24.3713,0.337463,-0.00093058,-0.000555429,0.00162411,0.000891897,-0.00237791,0.842891,0.00195172,0.0117289,650,834,-24.3713,-0.337467
-567,190,-24.3334,-0.179626,-0.000663177,-0.00116737,0.00185504,0.000956817,-0.00278736,0.717863,0.00224617,0.0204682,657,834,-24.3334,0.179649
-560,190,-24.4261,-0.612244,-0.0007173,-0.00174462,0.00190776,0.000744743,-0.00320666,0.653893,0.00242445,0.041954,664,834,-24.4261,0.612229
-553,190,-24.8311,-1.10907,0,0,0,0,0,0,0,-1,671,834,-24.8311,1.10905
-546,190,-24.5724,-1.41766,0,0,0,0,0,0,0,-1,678,834,-24.5724,1.41765
-539,190,-16.4624,-0.542542,0,0,0,0,0,0,0,-1,685,834,-16.4624,0.542527
-532,190,-21.6292,2.06122,0,0,0,0,0,0,0,-1,692,834,-21.6292,-2.06123
-525,190,-32.704,0.971436,0,0,0,0,0,0,0,-1,699,834,-32.704,-0.971433
-518,190,-32.7711,0.88678,-0.00173349,0.00163014,0.00256103,0.00301221,-0.00311556,1.07593,0.00353804,0.0498356,706,834,-32.7711,-0.886767
-511,190,-32.7933,0.837769,-0.00166223,0.00261411,0.00257231,0.00382087,-0.00286899,1.13214,0.0038754,0.0429685,713,834,-32.7933,-0.837786
-504,190,-33.1564,0.991089,0,0,0,0,0,0,0,-1,720,834,-33.1565,-0.991096
-497,190,-33.2708,0.758789,-2.60127e-05,0.0038458,0.00261877,0.00516653,-0.00134675,1.10369,0.00397016,0.0463024,727,834,-33.2707,-0.758797
-490,190,-33.0792,0.66272,0.00213234,0.00269129,0.00269439,0.00512066,-0.00029703,0.837076,0.00351697,0.0434941,734,834,-33.0792,-0.662744
-483,190,0,0,0,0,0,0,0,0,0,-1,741,834,0,0
-476,190,0,0,0,0,0,0,0,0,0,-1,748,834,0,0
-469,190,0,0,0,0,0,0,0,0,0,-1,755,834,0,0
-462,190,0,0,0,0,0,0,0,0,0,-1,762,834,0,0
-455,190,0,0,0,0,0,0,0,0,0,-1,769,834,0,0
-448,190,0,0,0,0,0,0,0,0,0,-1,776,834,0,0
-441,190,0,0,0,0,0,0,0,0,0,-1,783,834,0,0
-434,190,0,0,0,0,0,0,0,0,0,-1,790,834,0,0
-427,190,0,0,0,0,0,0,0,0,0,-1,797,834,0,0
-420,190,0,0,0,0,0,0,0,0,0,-1,804,834,0,0
-413,190,0,0,0,0,0,0,0,0,0,-1,811,834,0,0
-406,190,0,0,0,0,0,0,0,0,0,-1,818,834,0,0
-399,190,0,0,0,0,0,0,0,0,0,-1,825,834,0,0
-392,190,0,0,0,0,0,0,0,0,0,-1,832,834,0,0
-385,190,0,0,0,0,0,0,0,0,0,-1,839,834,0,0
-378,190,0,0,0,0,0,0,0,0,0,-1,846,834,0,0
-371,190,0,0,0,0,0,0,0,0,0,-1,853,834,0,0
-364,190,0,0,0,0,0,0,0,0,0,-1,860,834,0,0
-357,190,0,0,0,0,0,0,0,0,0,-1,867,834,0,0
-350,190,0,0,0,0,0,0,0,0,0,-1,874,834,0,0
-343,190,0,0,0,0,0,0,0,0,0,-1,881,834,0,0
-336,190,0,0,0,0,0,0,0,0,0,-1,888,834,0,0
-329,190,0,0,0,0,0,0,0,0,0,-1,895,834,0,0
-322,190,0,0,0,0,0,0,0,0,0,-1,902,834,0,0
-315,190,0,0,0,0,0,0,0,0,0,-1,909,834,0,0
-308,190,0,0,0,0,0,0,0,0,0,-1,916,834,0,0
-301,190,0,0,0,0,0,0,0,0,0,-1,923,834,0,0
-294,190,0,0,0,0,0,0,0,0,0,-1,930,834,0,0
-287,190,0,0,0,0,0,0,0,0,0,-1,937,834,0,0
-280,190,0,0,0,0,0,0,0,0,0,-1,944,834,0,0
-273,190,0,0,0,0,0,0,0,0,0,-1,951,834,0,0
-266,190,0,0,0,0,0,0,0,0,0,-1,958,834,0,0
-259,190,0,0,0,0,0,0,0,0,0,-1,965,834,0,0
-252,190,0,0,0,0,0,0,0,0,0,-1,972,834,0,0
-245,190,0,0,0,0,0,0,0,0,0,-1,979,834,0,0
-238,190,0,0,0,0,0,0,0,0,0,-1,986,834,0,0
-231,190,0,0,0,0,0,0,0,0,0,-1,993,834,0,0
-224,190,0,0,0,0,0,0,0,0,0,-1,1000,834,0,0
-217,190,0,0,0,0,0,0,0,0,0,-1,1007,834,0,0
-210,190,0,0,0,0,0,0,0,0,0,-1,1014,834,0,0
-203,190,0,0,0,0,0,0,0,0,0,-1,1021,834,0,0
-196,190,0,0,0,0,0,0,0,0,0,-1,1028,834,0,0
-189,190,0,0,0,0,0,0,0,0,0,-1,1035,834,0,0
-182,190,0,0,0,0,0,0,0,0,0,-1,1042,834,0,0
-175,190,0,0,0,0,0,0,0,0,0,-1,1049,834,0,0
-168,190,0,0,0,0,0,0,0,0,0,-1,1056,834,0,0
-161,190,0,0,0,0,0,0,0,0,0,-1,1063,834,0,0
-154,190,0,0,0,0,0,0,0,0,0,-1,1070,834,0,0
-147,190,0,0,0,0,0,0,0,0,0,-1,1077,834,0,0
-140,190,0,0,0,0,0,0,0,0,0,-1,1084,834,0,0
-133,190,0,0,0,0,0,0,0,0,0,-1,1091,834,0,0
-126,190,0,0,0,0,0,0,0,0,0,-1,1098,834,0,0
-119,190,0,0,0,0,0,0,0,0,0,-1,1105,834,0,0
-112,190,0,0,0,0,0,0,0,0,0,-1,1112,834,0,0
-105,190,0,0,0,0,0,0,0,0,0,-1,1119,834,0,0
-98,190,0,0,0,0,0,0,0,0,0,-1,1126,834,0,0
-91,190,0,0,0,0,0,0,0,0,0,-1,1133,834,0,0
-84,190,0,0,0,0,0,0,0,0,0,-1,1140,834,0,0
-77,190,0,0,0,0,0,0,0,0,0,-1,1147,834,0,0
-70,190,0,0,0,0,0,0,0,0,0,-1,1154,834,0,0
-63,190,0,0,0,0,0,0,0,0,0,-1,1161,834,0,0
-56,190,0,0,0,0,0,0,0,0,0,-1,1168,834,0,0
-49,190,0,0,0,0,0,0,0,0,0,-1,1175,834,0,0
-42,190,0,0,0,0,0,0,0,0,0,-1,1182,834,0,0
-35,190,0,0,0,0,0,0,0,0,0,-1,1189,834,0,0
-28,190,0,0,0,0,0,0,0,0,0,-1,1196,834,0,0
-21,190,0,0,0,0,0,0,0,0,0,-1,1203,834,0,0
-14,190,0,0,0,0,0,0,0,0,0,-1,1210,834,0,0
-7,190,0,0,0,0,0,0,0,0,0,-1,1217,834,0,0
0,190,0,0,0,0,0,0,0,0,0,-1,1224,834,0,0
7,190,0,0,0,0,0,0,0,0,0,-1,1231,834,0,0
14,190,0,0,0,0,0,0,0,0,0,-1,1238,834,0,0
21,190,0,0,0,0,0,0,0,0,0,-1,1245,834,0,0
28,190,0,0,0,0,0,0,0,0,0,-1,1252,834,0,0
35,190,0,0,0,0,0,0,0,0,0,-1,1259,834,0,0
42,190,0,0,0,0,0,0,0,0,0,-1,1266,834,0,0
49,190,0,0,0,0,0,0,0,0,0,-1,1273,834,0,0
56,190,0,0,0,0,0,0,0,0,0,-1,1280,834,0,0
63,190,0,0,0,0,0,0,0,0,0,-1,1287,834,0,0
70,190,0,0,0,0,0,0,0,0,0,-1,1294,834,0,0
77,190,0,0,0,0,0,0,0,0,0,-1,1301,834,0,0
84,190,0,0,0,0,0,0,0,0,0,-1,1308,834,0,0
91,190,0,0,0,0,0,0,0,0,0,-1,1315,834,0,0
98,190,0,0,0,0,0,0,0,0,0,-1,1322,834,0,0
105,190,0,0,0,0,0,0,0,0,0,-1,1329,834,0,0
112,190,0,0,0,0,0,0,0,0,0,-1,1336,834,0,0
119,190,0,0,0,0,0,0,0,0,0,-1,1343,834,0,0
126,190,0,0,0,0,0,0,0,0,0,-1,1350,834,0,0
133,190,0,0,0,0,0,0,0,0,0,-1,1357,834,0,0
140,190,0,0,0,0,0,0,0,0,0,-1,1364,834,0,0
147,190,0,0,0,0,0,0,0,0,0,-1,1371,834,0,0
154,190,0,0,0,0,0,0,0,0,0,-1,1378,834,0,0
161,190,0,0,0,0,0,0,0,0,0,-1,1385,834,0,0
168,190,0,0,0,0,0,0,0,0,0,-1,1392,834,0,0
175,190,0,0,0,0,0,0,0,0,0,-1,1399,834,0,0
182,190,0,0,0,0,0,0,0,0,0,-1,1406,834,0,0
189,190,0,0,0,0,0,0,0,0,0,-1,1413,834,0,0
196,190,0,0,0,0,0,0,0,0,0,-1,1420,834,0,0
203,190,0,0,0,0,0,0,0,0,0,-1,1427,834,0,0
210,190,0,0,0,0,0,0,0,0,0,-1,1434,834,0,0
217,190,0,0,0,0,0,0,0,0,0,-1,1441,834,0,0
224,190,0,0,0,0,0,0,0,0,0,-1,1448,834,0,0
231,190,0,0,0,0,0,0,0,0,0,-1,1455,834,0,0
238,190,0,0,0,0,0,0,0,0,0,-1,1462,834,0,0
245,190,0,0,0,0,0,0,0,0,0,-1,1469,834,0,0
252,190,0,0,0,0,0,0,0,0,0,-1,1476,834,0,0
259,190,0,0,0,0,0,0,0,0,0,-1,1483,834,0,0
266,190,0,0,0,0,0,0,0,0,0,-1,1490,834,0,0
273,190,0,0,0,0,0,0,0,0,0,-1,1497,834,0,0
280,190,0,0,0,0,0,0,0,0,0,-1,1504,834,0,0
287,190,0,0,0,0,0,0,0,0,0,-1,1511,834,0,0
294,190,0,0,0,0,0,0,0,0,0,-1,1518,834,0,0
301,190,0,0,0,0,0,0,0,0,0,-1,1525,834,0,0
308,190,0,0,0,0,0,0,0,0,0,-1,1532,834,0,0
315,190,0,0,0,0,0,0,0,0,0,-1,1539,834,0,0
322,190,0,0,0,0,0,0,0,0,0,-1,1546,834,0,0
329,190,0,0,0,0,0,0,0,0,0,-1,1553,834,0,0
336,190,0,0,0,0,0,0,0,0,0,-1,1560,834,0,0
343,190,0,0,0,0,0,0,0,0,0,-1,1567,834,0,0
350,190,0,0,0,0,0,0,0,0,0,-1,1574,834,0,0
357,190,0,0,0,0,0,0,0,0,0,-1,1581,834,0,0
364,190,0,0,0,0,0,0,0,0,0,-1,1588,834,0,0
371,190,0,0,0,0,0,0,0,0,0,-1,1595,834,0,0
378,190,0,0,0,0,0,0,0,0,0,-1,1602,834,0,0
385,190,0,0,0,0,0,0,0,0,0,-1,1609,834,0,0
392,190,0,0,0,0,0,0,0,0,0,-1,1616,834,0,0
399,190,0,0,0,0,0,0,0,0,0,-1,1623,834,0,0
406,190,0,0,0,0,0,0,0,0,0,-1,1630,834,0,0
413,190,0,0,0,0,0,0,0,0,0,-1,1637,834,0,0
420,190,0,0,0,0,0,0,0,0,0,-1,1644,834,0,0
427,190,0,0,0,0,0,0,0,0,0,-1,1651,834,0,0
434,190,0,0,0,0,0,0,0,0,0,-1,1658,834,0,0
441,190,0,0,0,0,0,0,0,0,0,-1,1665,834,0,0
448,190,0,0,0,0,0,0,0,0,0,-1,1672,834,0,0
455,190,0,0,0,0,0,0,0,0,0,-1,1679,834,0,0
462,190,0,0,0,0,0,0,0,0,0,-1,1686,834,0,0
469,190,0,0,0,0,0,0,0,0,0,-1,1693,834,0,0
476,190,0,0,0,0,0,0,0,0,0,-1,1700,834,0,0
483,190,0,0,0,0,0,0,0,0,0,-1,1707,834,0,0
490,190,0,0,0,0,0,0,0,0,0,-1,1714,834,0,0
497,190,0,0,0,0,0,0,0,0,0,-1,1721,834,0,0
504,190,0,0,0,0,0,0,0,0,0,-1,1728,834,0,0
511,190,0,0,0,0,0,0,0,0,0,-1,1735,834,0,0
518,190,0,0,0,0,0,0,0,0,0,-1,1742,834,0,0
525,190,0,0,0,0,0,0,0,0,0,-1,1749,834,0,0
532,190,0,0,0,0,0,0,0,0,0,-1,1756,834,0,0
539,190,0,0,0,0,0,0,0,0,0,-1,1763,834,0,0
546,190,0,0,0,0,0,0,0,0,0,-1,1770,834,0,0
553,190,0,0,0,0,0,0,0,0,0,-1,1777,834,0,0
560,190,0,0,0,0,0,0,0,0,0,-1,1784,834,0,0
567,190,0,0,0,0,0,0,0,0,0,-1,1791,834,0,0
574,190,0,0,0,0,0,0,0,0,0,-1,1798,834,0,0
581,190,0,0,0,0,0,0,0,0,0,-1,1805,834,0,0
588,190,0,0,0,0,0,0,0,0,0,-1,1812,834,0,0
595,190,0,0,0,0,0,0,0,0,0,-1,1819,834,0,0
602,190,44.2677,2.65002,0.00294425,0.00161021,-0.00231587,0.00468725,-0.00013279,-0.645182,0.00317002,0.0438321,1826,834,44.2677,-2.65
609,190,44.2227,2.63202,0.00160896,0.000480372,-0.00146061,0.00261049,-0.000521162,-0.60106,0.00193756,0.0390989,1833,834,44.2226,-2.63202
616,190,44.2632,2.75531,-3.66041e-05,-0.000508063,-0.00070586,0.000471849,-0.00101652,-0.624241,0.000878277,0.0388511,1840,834,44.2632,-2.75534
623,190,44.1573,2.92206,-0.00207011,-0.00128951,-0.000290188,-0.00119345,-0.00216616,-1.25113,0.0012528,0.0384214,1847,834,44.1574,-2.92207
630,190,44.1997,2.79248,-0.00398851,-0.00151525,-0.000240822,-0.00149201,-0.00401174,-1.47463,0.00234138,0.0410643,1854,834,44.1997,-2.79246
637,190,44.2262,2.58026,-0.00514635,-0.00147072,-0.000403826,-0.00142688,-0.0051902,-1.46265,0.00309612,0.0347221,1861,834,44.2262,-2.58027
644,190,44.1727,2.69897,-0.00560702,-0.00134558,-0.000600659,-0.00126254,-0.00569007,-1.43341,0.00345041,0.0280635,1868,834,44.1728,-2.69897
651,190,44.1298,2.93329,-0.00557958,-0.00127745,-0.000751155,-0.00115007,-0.00570696,-1.40281,0.00348512,0.040641,1875,834,44.1298,-2.9333
658,190,44.0903,3.17389,0,0,0,0,0,0,0,-1,1882,834,44.0903,-3.17389
665,190,25.9916,3.05157,0,0,0,0,0,0,0,-1,1889,834,25.9916,-3.05156
672,190,27.2662,1.70862,0,0,0,0,0,0,0,-1,1896,834,27.2662,-1.70861
679,190,34.7677,1.151,0,0,0,0,0,0,0,-1,1903,834,34.7677,-1.15099
686,190,34.6967,1.5578,-0.00442813,-0.000513018,-0.00121043,-0.000169018,-0.00477213,-1.2939,0.0031266,0.0250216,1910,834,34.6967,-1.55778
693,190,34.7355,2.00195,-0.00342888,-0.000257253,-0.00150839,0.000345552,-0.00403168,-1.19061,0.00281006,0.0185391,1917,834,34.7355,-2.00194
700,190,34.6494,2.46039,-0.00189779,-0.000504248,-0.00126818,0.000245964,-0.002648,-1.0366,0.00185277,0.0132003,1924,834,34.6494,-2.4604
707,190,34.6819,2.94049,-0.00179103,-0.00149112,-0.00106022,-0.000570303,-0.00271185,-0.855652,0.00165097,0.0136725,1931,834,34.6819,-2.94049
714,190,34.6757,3.42188,-0.00209473,-0.00290061,-0.000708143,-0.00168291,-0.00331243,-0.526737,0.00191251,0.0115341,1938,834,34.6756,-3.42186
721,190,34.6328,3.90533,-0.00265573,-0.00507969,-1.51983e-06,-0.00265572,-0.00507969,-0.000627001,0.00293378,0.0105476,1945,834,34.6329,-3.90532
728,190,34.6277,4.39136,-0.00414452,-0.00848254,0.00149985,-0.00367646,-0.0089506,0.302496,0.005195,0.0125839,1952,834,34.6277,-4.39138
735,190,34.6246,4.87891,-0.00661237,-0.013269,0.00372328,-0.00494664,-0.0149347,0.420675,0.00878481,0.0115967,1959,834,34.6247,-4.87891
742,190,34.5767,5.42542,-0.0102774,-0.0198202,0.00636257,-0.00709592,-0.0230017,0.463674,0.0136009,0.0158364,1966,834,34.5767,-5.42541
749,190,34.4813,6.04663,-0.0156087,-0.0286533,0.0101478,-0.0100679,-0.0341941,0.499775,0.0202905,0.0385526,1973,834,34.4813,-6.04661
756,190,34.3845,6.65637,0,0,0,0,0,0,0,-1,1980,834,34.3846,-6.65636
763,190,33.9222,7.63892,0,0,0,0,0,0,0,-1,1987,834,33.9223,-7.63891
770,190,34.1694,8.19507,0,0,0,0,0,0,0,-1,1994,834,34.1694,-8.19508
777,190,34.9115,4.44727,0,0,0,0,0,0,0,-1,2001,834,34.9115,-4.44725
784,190,0,0,0,0,0,0,0,0,0,-1,2008,834,0,0
791,190,0,0,0,0,0,0,0,0,0,-1,2015,834,0,0
798,190,0,0,0,0,0,0,0,0,0,-1,2022,834,0,0
805,190,0,0,0,0,0,0,0,0,0,-1,2029,834,0,0
812,190,0,0,0,0,0,0,0,0,0,-1,2036,834,0,0
-700,183,0,0,0,0,0,0,0,0,0,-1,524,841,0,0
-693,183,0,0,0,0,0,0,0,0,0,-1,531,841,0,0
-686,183,0,0,0,0,0,0,0,0,0,-1,538,841,0,0
-679,183,0,0,0,0,0,0,0,0,0,-1,545,841,0,0
-672,183,0,0,0,0,0,0,0,0,0,-1,552,841,0,0
-665,183,0,0,0,0,0,0,0,0,0,-1,559,841,0,0
-658,183,-29.0703,3.75574,0,0,0,0,0,0,0,-1,566,841,-29.0703,-3.75576
-651,183,-23.6422,4.72369,0,0,0,0,0,0,0,-1,573,841,-23.6422,-4.72372
-644,183,-23.5643,4.31525,0.0191867,-0.00202953,0.0375163,0.0475658,-0.0304086,0.647615,0.0453804,0.0494901,580,841,-23.5643,-4.31524
-637,183,-24.084,5.62775,0.0123562,0.00454523,0.0301008,0.0388038,-0.0219024,0.720885,0.0354986,0.0469141,587,841,-24.084,-5.62776
-630,183,-24.4471,4.47583,0.00686239,0.00849931,0.0234187,0.0311139,-0.0157521,0.802866,0.0275384,0.0466982,594,841,-24.4471,-4.47585
-623,183,-24.3875,3.68561,0.00268039,0.0103952,0.0175858,0.0245417,-0.0114661,0.893361,0.0212411,0.0463063,601,841,-24.3874,-3.68562
-616,183,-24.6053,3.17798,-0.000118624,0.0106871,0.0126929,0.0190792,-0.00851066,0.986614,0.0163139,0.0388157,608,841,-24.6054,-3.17799
-609,183,-24.8125,2.66687,-0.0021128,0.0102726,0.00861961,0.0146935,-0.00653363,1.0969,0.0125537,0.0171067,615,841,-24.8125,-2.66685
-602,183,-24.8281,2.20923,-0.00370617,0.00932827,0.00532064,0.0112243,-0.00560224,1.22847,0.00989393,0.0114931,622,841,-24.8281,-2.20924
-595,183,-24.8494,1.73151,-0.00396383,0.00725085,0.00323841,0.00811882,-0.00483179,1.30893,0.00755689,0.0116915,629,841,-24.8493,-1.73149
-588,183,-24.8361,1.26465,-0.00307136,0.00396388,0.0018529,0.00442205,-0.00352953,1.32839,0.00460048,0.012673,636,841,-24.8361,-1.26464
-581,183,-24.8534,0.81366,-0.00165343,0.000524315,0.00173185,0.00148116,-0.00261028,1.06604,0.00239199,0.0131043,643,841,-24.8534,-0.813649
-574,183,-24.8369,0.392517,-0.000809237,-0.000936304,0.00197584,0.0011041,-0.00284964,0.769326,0.00235568,0.0132664,650,841,-24.8368,-0.392496
-567,183,-24.7026,-0.0997314,-0.00049506,-0.0013731,0.00210337,0.00121461,-0.00308278,0.682514,0.00255805,0.0404481,657,841,-24.7027,0.0997413
-560,183,-24.9268,-0.485779,-0.000471959,-0.00179582,0.00207962,0.00104854,-0.00331631,0.631321,0.00263098,0.0462183,664,841,-24.9268,0.485809
-553,183,-25.1674,-1.1745,0,0,0,0,0,0,0,-1,671,841,-25.1674,1.17447
-546,183,-23.2448,-1.43811,0,0,0,0,0,0,0,-1,678,841,-23.2448,1.43813
-539,183,-16.8032,-0.417297,0,0,0,0,0,0,0,-1,685,841,-16.8032,0.41732
-532,183,-29.9686,0.953613,0,0,0,0,0,0,0,-1,692,841,-29.9686,-0.953627
-525,183,-32.7985,0.741028,0,0,0,0,0,0,0,-1,699,841,-32.7985,-0.741049
-518,183,-32.8246,0.778259,-0.00143543,0.00124373,0.00258292,0.00281378,-0.00300548,1.02462,0.00336036,0.0461003,706,841,-32.8246,-0.778249
-511,183,-32.6823,0.931519,-0.00134525,0.0022533,0.00267586,0.00367856,-0.00277051,1.08138,0.00373565,0.040051,713,841,-32.6822,-0.931527
-504,183,-33.0427,1.0061,-0.000678516,0.00314102,0.00279072,0.00461287,-0.00215037,1.08546,0.0039901,0.0428,720,841,-33.0427,-1.00609
-497,183,-33.0563,1.52051,0,0,0,0,0,0,0,-1,727,841,-33.0564,-1.52053
-490,183,-32.8777,0.739258,0,0,0,0,0,0,0,-1,734,841,-32.8777,-0.739233
-483,183,0,0,0,0,0,0,0,0,0,-1,741,841,0,0
-476,183,0,0,0,0,0,0,0,0,0,-1,748,841,0,0
-469,183,0,0,0,0,0,0,0,0,0,-1,755,841,0,0
-462,183,0,0,0,0,0,0,0,0,0,-1,762,841,0,0
-455,183,0,0,0,0,0,0,0,0,0,-1,769,841,0,0
-448,183,0,0,0,0,0,0,0,0,0,-1,776,841,0,0
-441,183,0,0,0,0,0,0,0,0,0,-1,783,841,0,0
-434,183,0,0,0,0,0,0,0,0,0,-1,790,841,0,0
-427,183,0,0,0,0,0,0,0,0,0,-1,797,841,0,0
-420,183,0,0,0,0,0,0,0,0,0,-1,804,841,0,0
-413,183,0,0,0,0,0,0,0,0,0,-1,811,841,0,0
-406,183,0,0,0,0,0,0,0,0,0,-1,818,841,0,0
-399,183,0,0,0,0,0,0,0,0,0,-1,825,841,0,0
-392,183,0,0,0,0,0,0,0,0,0,-1,832,841,0,0
-385,183,0,0,0,0,0,0,0,0,0,-1,839,841,0,0
-378,183,0,0,0,0,0,0,0,0,0,-1,846,841,0,0
-371,183,0,0,0,0,0,0,0,0,0,-1,853,841,0,0
-364,183,0,0,0,0,0,0,0,0,0,-1,860,841,0,0
-357,183,0,0,0,0,0,0,0,0,0,-1,867,841,0,0
-350,183,0,0,0,0,0,0,0,0,0,-1,874,841,0,0
-343,183,0,0,0,0,0,0,0,0,0,-1,881,841,0,0
-336,183,0,0,0,0,0,0,0,0,0,-1,888,841,0,0
-329,183,0,0,0,0,0,0,0,0,0,-1,895,841,0,0
-322,183,0,0,0,0,0,0,0,0,0,-1,902,841,0,0
-315,183,0,0,0,0,0,0,0,0,0,-1,909,841,0,0
-308,183,0,0,0,0,0,0,0,0,0,-1,916,841,0,0
-301,183,0,0,0,0,0,0,0,0,0,-1,923,841,0,0
-294,183,0,0,0,0,0,0,0,0,0,-1,930,841,0,0
-287,183,0,0,0,0,0,0,0,0,0,-1,937,841,0,0
-280,183,0,0,0,0,0,0,0,0,0,-1,944,841,0,0
-273,183,0,0,0,0,0,0,0,0,0,-1,951,841,0,0
-266,183,0,0,0,0,0,0,0,0,0,-1,958,841,0,0
-259,183,0,0,0,0,0,0,0,0,0,-1,965,841,0,0
-252,183,0,0,0,0,0,0,0,0,0,-1,972,841,0,0
-245,183,0,0,0,0,0,0,0,0,0,-1,979,841,0,0
-238,183,0,0,0,0,0,0,0,0,0,-1,986,841,0,0
-231,183,0,0,0,0,0,0,0,0,0,-1,993,841,0,0
-224,183,0,0,0,0,0,0,0,0,0,-1,1000,841,0,0
-217,183,0,0,0,0,0,0,0,0,0,-1,1007,841,0,0
-210,183,0,0,0,0,0,0,0,0,0,-1,1014,841,0,0
-203,183,0,0,0,0,0,0,0,0,0,-1,1021,841,0,0
-196,183,0,0,0,0,0,0,0,0,0,-1,1028,841,0,0
-189,183,0,0,0,0,0,0,0,0,0,-1,1035,841,0,0
-182,183,0,0,0,0,0,0,0,0,0,-1,1042,841,0,0
-175,183,0,0,0,0,0,0,0,0,0,-1,1049,841,0,0
-168,183,0,0,0,0,0,0,0,0,0,-1,1056,841,0,0
-161,183,0,0,0,0,0,0,0,0,0,-1,1063,841,0,0
-154,183,0,0,0,0,0,0,0,0,0,-1,1070,841,0,0
-147,183,0,0,0,0,0,0,0,0,0,-1,1077,841,0,0
-140,183,0,0,0,0,0,0,0,0,0,-1,1084,841,0,0
-133,183,0,0,0,0,0,0,0,0,0,-1,1091,841,0,0
-126,183,0,0,0,0,0,0,0,0,0,-1,1098,841,0,0
-119,183,0,0,0,0,0,0,0,0,0,-1,1105,841,0,0
-112,183,0,0,0,0,0,0,0,0,0,-1,1112,841,0,0
-105,183,0,0,0,0,0,0,0,0,0,-1,1119,841,0,0
-98,183,0,0,0,0,0,0,0,0,0,-1,1126,841,0,0
-91,183,0,0,0,0,0,0,0,0,0,-1,1133,841,0,0
-84,183,0,0,0,0,0,0,0,0,0,-1,1140,841,0,0
-77,183,0,0,0,0,0,0,0,0,0,-1,1147,841,0,0
-70,183,0,0,0,0,0,0,0,0,0,-1,1154,841,0,0
-63,183,0,0,0,0,0,0,0,0,0,-1,1161,841,0,0
-56,183,0,0,0,0,0,0,0,0,0,-1,1168,841,0,0
-49,183,0,0,0,0,0,0,0,0,0,-1,1175,841,0,0
-42,183,0,0,0,0,0,0,0,0,0,-1,1182,841,0,0
-35,183,0,0,0,0,0,0,0,0,0,-1,1189,841,0,0
-28,183,0,0,0,0,0,0,0,0,0,-1,1196,841,0,0
-21,183,0,0,0,0,0,0,0,0,0,-1,1203,841,0,0
-14,183,0,0,0,0,0,0,0,0,0,-1,1210,841,0,0
-7,183,0,0,0,0,0,0,0,0,0,-1,1217,841,0,0
0,183,0,0,0,0,0,0,0,0,0,-1,1224,841,0,0
7,183,0,0,0,0,0,0,0,0,0,-1,1231,841,0,0
14,183,0,0,0,0,0,0,0,0,0,-1,1238,841,0,0
21,183,0,0,0,0,0,0,0,0,0,-1,1245,841,0,0
28,183,0,0,0,0,0,0,0,0,0,-1,1252,841,0,0
35,183,0,0,0,0,0,0,0,0,0,-1,1259,841,0,0
42,183,0,0,0,0,0,0,0,0,0,-1,1266,841,0,0
49,183,0,0,0,0,0,0,0,0,0,-1,1273,841,0,0
56,183,0,0,0,0,0,0,0,0,0,-1,1280,841,0,0
63,183,0,0,0,0,0,0,0,0,0,-1,1287,841,0,0
70,183,0,0,0,0,0,0,0,0,0,-1,1294,841,0,0
77,183,0,0,0,0,0,0,0,0,0,-1,1301,841,0,0
84,183,0,0,0,0,0,0,0,0,0,-1,1308,841,0,0
91,183,0,0,0,0,0,0,0,0,0,-1,1315,841,0,0
98,183,0,0,0,0,0,0,0,0,0,-1,1322,841,0,0
105,183,0,0,0,0,0,0,0,0,0,-1,1329,841,0,0
112,183,0,0,0,0,0,0,0,0,0,-1,1336,841,0,0
119,183,0,0,0,0,0,0,0,0,0,-1,1343,841,0,0
126,183,0,0,0,0,0,0,0,0,0,-1,1350,841,0,0
133,183,0,0,0,0,0,0,0,0,0,-1,1357,841,0,0
140,183,0,0,0,0,0,0,0,0,0,-1,1364,841,0,0
147,183,0,0,0,0,0,0,0,0,0,-1,1371,841,0,0
154,183,0,0,0,0,0,0,0,0,0,-1,1378,841,0,0
161,183,0,0,0,0,0,0,0,0,0,-1,1385,841,0,0
168,183,0,0,0,0,0,0,0,0,0,-1,1392,841,0,0
175,183,0,0,0,0,0,0,0,0,0,-1,1399,841,0,0
182,183,0,0,0,0,0,0,0,0,0,-1,1406,841,0,0
189,183,0,0,0,0,0,0,0,0,0,-1,1413,841,0,0
196,183,0,0,0,0,0,0,0,0,0,-1,1420,841,0,0
203,183,0,0,0,0,0,0,0,0,0,-1,1427,841,0,0
210,183,0,0,0,0,0,0,0,0,0,-1,1434,841,0,0
217,183,0,0,0,0,0,0,0,0,0,-1,1441,841,0,0
224,183,0,0,0,0,0,0,0,0,0,-1,1448,841,0,0
231,183,0,0,0,0,0,0,0,0,0,-1,1455,841,0,0
238,183,0,0,0,0,0,0,0,0,0,-1,1462,841,0,0
245,183,0,0,0,0,0,0,0,0,0,-1,1469,841,0,0
252,183,0,0,0,0,0,0,0,0,0,-1,1476,841,0,0
259,183,0,0,0,0,0,0,0,0,0,-1,1483,841,0,0
266,183,0,0,0,0,0,0,0,0,0,-1,1490,841,0,0
273,183,0,0,0,0,0,0,0,0,0,-1,1497,841,0,0
280,183,0,0,0,0,0,0,0,0,0,-1,1504,841,0,0
287,183,0,0,0,0,0,0,0,0,0,-1,1511,841,0,0
294,183,0,0,0,0,0,0,0,0,0,-1,1518,841,0,0
301,183,0,0,0,0,0,0,0,0,0,-1,1525,841,0,0
308,183,0,0,0,0,0,0,0,0,0,-1,1532,841,0,0
315,183,0,0,0,0,0,0,0,0,0,-1,1539,841,0,0
322,183,0,0,0,0,0,0,0,0,0,-1,1546,841,0,0
329,183,0,0,0,0,0,0,0,0,0,-1,1553,841,0,0
336,183,0,0,0,0,0,0,0,0,0,-1,1560,841,0,0
343,183,0,0,0,0,0,0,0,0,0,-1,1567,841,0,0
350,183,0,0,0,0,0,0,0,0,0,-1,1574,841,0,0
357,183,0,0,0,0,0,0,0,0,0,-1,1581,841,0,0
364,183,0,0,0,0,0,0,0,0,0,-1,1588,841,0,0
371,183,0,0,0,0,0,0,0,0,0,-1,1595,841,0,0
378,183,0,0,0,0,0,0,0,0,0,-1,1602,841,0,0
385,183,0,0,0,0,0,0,0,0,0,-1,1609,841,0,0
392,183,0,0,0,0,0,0,0,0,0,-1,1616,841,0,0
399,183,0,0,0,0,0,0,0,0,0,-1,1623,841,0,0
406,183,0,0,0,0,0,0,0,0,0,-1,1630,841,0,0
413,183,0,0,0,0,0,0,0,0,0,-1,1637,841,0,0
420,183,0,0,0,0,0,0,0,0,0,-1,1644,841,0,0
427,183,0,0,0,0,0,0,0,0,0,-1,1651,841,0,0
434,183,0,0,0,0,0,0,0,0,0,-1,1658,841,0,0
441,183,0,0,0,0,0,0,0,0,0,-1,1665,841,0,0
448,183,0,0,0,0,0,0,0,0,0,-1,1672,841,0,0
455,183,0,0,0,0,0,0,0,0,0,-1,1679,841,0,0
462,183,0,0,0,0,0,0,0,0,0,-1,1686,841,0,0
469,183,0,0,0,0,0,0,0,0,0,-1,1693,841,0,0
476,183,0,0,0,0,0,0,0,0,0,-1,1700,841,0,0
483,183,0,0,0,0,0,0,0,0,0,-1,1707,841,0,0
490,183,0,0,0,0,0,0,0,0,0,-1,1714,841,0,0
497,183,0,0,0,0,0,0,0,0,0,-1,1721,841,0,0
504,183,0,0,0,0,0,0,0,0,0,-1,1728,841,0,0
511,183,0,0,0,0,0,0,0,0,0,-1,1735,841,0,0
518,183,0,0,0,0,0,0,0,0,0,-1,1742,841,0,0
525,183,0,0,0,0,0,0,0,0,0,-1,1749,841,0,0
532,183,0,0,0,0,0,0,0,0,0,-1,1756,841,0,0
539,183,0,0,0,0,0,0,0,0,0,-1,1763,841,0,0
546,183,0,0,0,0,0,0,0,0,0,-1,1770,841,0,0
553,183,0,0,0,0,0,0,0,0,0,-1,1777,841,0,0
560,183,0,0,0,0,0,0,0,0,0,-1,1784,841,0,0
567,183,0,0,0,0,0,0,0,0,0,-1,1791,841,0,0
574,183,0,0,0,0,0,0,0,0,0,-1,1798,841,0,0
581,183,0,0,0,0,0,0,0,0,0,-1,1805,841,0,0
588,183,0,0,0,0,0,0,0,0,0,-1,1812,841,0,0
595,183,0,0,0,0,0,0,0,0,0,-1,1819,841,0,0
602,183,0,0,0,0,0,0,0,0,0,-1,1826,841,0,0
609,183,44.2107,2.49768,0.000855227,0.000633174,-0.0022927,0.00303959,-0.00155119,-0.761204,0.00269652,0.0390545,1833,841,44.2107,-2.49767
616,183,44.2228,2.79529,-7.52074e-05,-3.89067e-05,-0.00157998,0.00152303,-0.00163715,-0.791142,0.00182493,0.0379658,1840,841,44.2228,-2.79529
623,183,44.1686,3.02179,-0.00149826,-0.000558219,-0.00099559,7.27241e-05,-0.0021292,-1.00594,0.00144432,0.0437703,1847,841,44.1685,-3.0218
630,183,44.1798,2.86542,-0.00308694,-0.000731577,-0.00073313,-0.000522026,-0.00329649,-1.29239,0.00204597,0.0439629,1854,841,44.1798,-2.86543
637,183,44.2432,2.68707,-0.00423517,-0.000657905,-0.000706536,-0.000523415,-0.00436966,-1.3827,0.00275526,0.0364473,1861,841,44.2431,-2.68704
644,183,44.1133,2.73401,-0.00475623,-0.000578981,-0.000775954,-0.000439499,-0.00489572,-1.39294,0.00312762,0.0292977,1868,841,44.1133,-2.73401
651,183,44.1924,2.71191,-0.00477683,-0.000580652,-0.000853749,-0.0004136,-0.00494388,-1.37757,0.00316707,0.0262796,1875,841,44.1923,-2.7119
658,183,44.2864,2.5777,0,0,0,0,0,0,0,-1,1882,841,44.2864,-2.57772
665,183,38.4337,2.66992,0,0,0,0,0,0,0,-1,1889,841,38.4337,-2.6699
672,183,29.168,1.54572,0,0,0,0,0,0,0,-1,1896,841,29.168,-1.54574
679,183,35.3936,1.18854,0,0,0,0,0,0,0,-1,1903,841,35.3936,-1.18851
686,183,35.2998,1.58258,-0.00382962,-0.000231032,-0.00109671,7.68616e-05,-0.00413751,-1.2971,0.00278432,0.0276006,1910,841,35.2998,-1.58259
693,183,35.2816,2.01654,-0.00313798,-9.63756e-05,-0.00137125,0.000430546,-0.0036649,-1.20393,0.0025987,0.0243522,1917,841,35.2816,-2.01654
700,183,35.1893,2.50385,-0.00197037,-0.000396115,-0.00122405,0.000272049,-0.00263853,-1.07113,0.00185636,0.0211846,1924,841,35.1894,-2.50387
707,183,35.1587,2.9751,-0.00189367,-0.00130165,-0.00110881,-0.000450014,-0.0027453,-0.915836,0.00170017,0.0124099,1931,841,35.1587,-2.97513
714,183,35.1703,3.4455,-0.0020557,-0.0023382,-0.000837908,-0.00134722,-0.00304668,-0.701896,0.00176291,0.0163962,1938,841,35.1703,-3.4455
721,183,35.1545,3.91901,-0.00250006,-0.00403312,-0.000188926,-0.00247712,-0.00405606,-0.120827,0.00236083,0.0150437,1945,841,35.1545,-3.91899
728,183,35.1298,4.39807,-0.00383944,-0.00674194,0.00138804,-0.00328251,-0.00729887,0.381568,0.0042211,0.0130068,1952,841,35.1297,-4.39809
735,183,35.1163,4.87531,-0.00603708,-0.010607,0.00379228,-0.00389457,-0.0127495,0.514262,0.00754432,0.0119026,1959,841,35.1163,-4.87527
742,183,35.1022,5.3797,-0.00919244,-0.0157245,0.00665535,-0.00504492,-0.019872,0.557294,0.0119275,0.0116568,1966,841,35.1022,-5.37973
749,183,35.025,5.97498,-0.0137187,-0.0224935,0.0107905,-0.00645777,-0.0297544,0.592307,0.0180725,0.0328576,1973,841,35.025,-5.975
756,183,35.3379,6.29126,-0.019887,-0.0311828,0.0166854,-0.00791955,-0.0431503,0.622205,0.0265241,0.0463476,1980,841,35.338,-6.29123
763,183,35.7972,6.75616,0,0,0,0,0,0,0,-1,1987,841,35.7973,-6.75617
770,183,35.5146,4.29053,0,0,0,0,0,0,0,-1,1994,841,35.5146,-4.29052
777,183,35.8634,3.97717,0,0,0,0,0,0,0,-1,2001,841,35.8634,-3.97714
784,183,0,0,0,0,0,0,0,0,0,-1,2008,841,0,0
791,183,0,0,0,0,0,0,0,0,0,-1,2015,841,0,0
798,183,0,0,0,0,0,0,0,0,0,-1,2022,841,0,0
805,183,0,0,0,0,0,0,0,0,0,-1,2029,841,0,0
812,183,0,0,0,0,0,0,0,0,0,-1,2036,841,0,0
-700,176,0,0,0,0,0,0,0,0,0,-1,524,848,0,0
-693,176,0,0,0,0,0,0,0,0,0,-1,531,848,0,0
-686,176,0,0,0,0,0,0,0,0,0,-1,538,848,0,0
-679,176,0,0,0,0,0,0,0,0,0,-1,545,848,0,0
-672,176,0,0,0,0,0,0,0,0,0,-1,552,848,0,0
-665,176,-28.4487,2.87634,0.0328119,-0.0403214,0.0577712,0.0646165,-0.072126,0.503248,0.078988,0.0461201,559,848,-28.4487,-2.87632
-658,176,-28.1902,4.48859,0.0228073,-0.0183954,0.051111,0.0573126,-0.0529007,0.593823,0.0636487,0.0469753,566,848,-28.1902,-4.48856
-651,176,-24.2695,4.48041,0,0,0,0,0,0,0,-1,573,848,-24.2695,-4.4804
-644,176,-24.1919,4.0625,0.00964051,0.00364997,0.0365064,0.0432743,-0.0299838,0.744466,0.042527,0.0450022,580,848,-24.1919,-4.06252
-637,176,-24.1856,3.86517,0.00506604,0.00882822,0.0294878,0.0364948,-0.0226006,0.817251,0.0344317,0.0491894,587,848,-24.1856,-3.86519
-630,176,-24.5072,3.83502,0.00146402,0.0114381,0.0230723,0.0300561,-0.017154,0.891835,0.027594,0.0441303,594,848,-24.5072,-3.835
-623,176,-24.887,3.61548,-0.00113288,0.0121139,0.0174335,0.0241398,-0.0131588,0.966938,0.0218432,0.0429406,601,848,-24.887,-3.61545
-616,176,-25.2045,3.11859,-0.0026046,0.0115398,0.012735,0.0190346,-0.0100993,1.03886,0.0170821,0.0294438,608,848,-25.2045,-3.11858
-609,176,-25.2908,2.68903,-0.00360019,0.0104235,0.00876813,0.0146387,-0.00781536,1.12268,0.0131619,0.0122783,615,848,-25.2908,-2.68901
-602,176,-25.3052,2.21918,-0.00444734,0.00879628,0.00554249,0.0108097,-0.00646079,1.22235,0.010076,0.0129697,622,848,-25.3052,-2.21915
-595,176,-25.3138,1.7337,-0.00406943,0.00609525,0.00361895,0.00725206,-0.00522624,1.26141,0.00723593,0.0122794,629,848,-25.3138,-1.73373
-588,176,-25.3039,1.28033,-0.00284351,0.00277999,0.0023168,0.00361152,-0.00367504,1.2262,0.00420695,0.0125176,636,848,-25.3039,-1.28032
-581,176,-25.3255,0.856628,-0.00142683,-7.31247e-05,0.00208762,0.00144463,-0.00294458,0.942163,0.00258296,0.0118249,643,848,-25.3255,-0.856637
-574,176,-25.3425,0.420715,-0.00060073,-0.00118679,0.00221429,0.00133983,-0.00312735,0.719612,0.00264706,0.0190347,650,848,-25.3426,-0.420731
-567,176,-25.1928,0.0996704,-0.000261673,-0.00150312,0.00230938,0.00150895,-0.00327374,0.65411,0.00282326,0.0478664,657,848,-25.1928,-0.0996609
-560,176,-25.3821,-0.481689,-0.000137848,-0.00184959,0.00228339,0.0014448,-0.00343224,0.60609,0.00289265,0.0362146,664,848,-25.3822,0.481718
-553,176,-25.3249,-1.06012,0,0,0,0,0,0,0,-1,671,848,-25.3249,1.0601
-546,176,-16.657,-0.403198,0,0,0,0,0,0,0,-1,678,848,-16.657,0.403182
-539,176,-22.7061,1.48657,0,0,0,0,0,0,0,-1,685,848,-22.7061,-1.48657
-532,176,-32.871,0.632507,0,0,0,0,0,0,0,-1,692,848,-32.871,-0.632518
-525,176,-32.8295,0.705994,-0.000575205,-0.000326093,0.00265405,0.00220632,-0.00310762,0.808846,0.00308268,0.0455398,699,848,-32.8295,-0.705974
-518,176,-32.8453,0.730164,-0.000857818,0.000525495,0.00276126,0.0026804,-0.00301272,0.908116,0.00328879,0.0386913,706,848,-32.8453,-0.730174
-511,176,-32.8454,0.721863,-0.000689403,0.00143416,0.00292218,0.00348148,-0.00273672,0.959659,0.00359866,0.0372615,713,848,-32.8454,-0.721859
-504,176,-32.9554,0.990479,9.98311e-05,0.00225975,0.00309585,0.0044586,-0.00209902,0.953219,0.00386688,0.0403639,720,848,-32.9554,-0.990458
-497,176,-32.9897,1.5965,0,0,0,0,0,0,0,-1,727,848,-32.9897,-1.59652
-490,176,-32.7527,0.833618,0,0,0,0,0,0,0,-1,734,848,-32.7527,-0.833606
-483,176,0,0,0,0,0,0,0,0,0,-1,741,848,0,0
-476,176,0,0,0,0,0,0,0,0,0,-1,748,848,0,0
-469,176,0,0,0,0,0,0,0,0,0,-1,755,848,0,0
-462,176,0,0,0,0,0,0,0,0,0,-1,762,848,0,0
-455,176,0,0,0,0,0,0,0,0,0,-1,769,848,0,0
-448,176,0,0,0,0,0,0,0,0,0,-1,776,848,0,0
-441,176,0,0,0,0,0,0,0,0,0,-1,783,848,0,0
-434,176,0,0,0,0,0,0,0,0,0,-1,790,848,0,0
-427,176,0,0,0,0,0,0,0,0,0,-1,797,848,0,0
-420,176,0,0,0,0,0,0,0,0,0,-1,804,848,0,0
-413,176,0,0,0,0,0,0,0,0,0,-1,811,848,0,0
-406,176,0,0,0,0,0,0,0,0,0,-1,818,848,0,0
-399,176,0,0,0,0,0,0,0,0,0,-1,825,848,0,0
-392,176,0,0,0,0,0,0,0,0,0,-1,832,848,0,0
-385,176,0,0,0,0,0,0,0,0,0,-1,839,848,0,0
-378,176,0,0,0,0,0,0,0,0,0,-1,846,848,0,0
-371,176,0,0,0,0,0,0,0,0,0,-1,853,848,0,0
-364,176,0,0,0,0,0,0,0,0,0,-1,860,848,0,0
-357,176,0,0,0,0,0,0,0,0,0,-1,867,848,0,0
-350,176,0,0,0,0,0,0,0,0,0,-1,874,848,0,0
-343,176,0,0,0,0,0,0,0,0,0,-1,881,848,0,0
-336,176,0,0,0,0,0,0,0,0,0,-1,888,848,0,0
-329,176,0,0,0,0,0,0,0,0,0,-1,895,848,0,0
-322,176,0,0,0,0,0,0,0,0,0,-1,902,848,0,0
-315,176,0,0,0,0,0,0,0,0,0,-1,909,848,0,0
-308,176,0,0,0,0,0,0,0,0,0,-1,916,848,0,0
-301,176,0,0,0,0,0,0,0,0,0,-1,923,848,0,0
-294,176,0,0,0,0,0,0,0,0,0,-1,930,848,0,0
-287,176,0,0,0,0,0,0,0,0,0,-1,937,848,0,0
-280,176,0,0,0,0,0,0,0,0,0,-1,944,848,0,0
-273,176,0,0,0,0,0,0,0,0,0,-1,951,848,0,0
-266,176,0,0,0,0,0,0,0,0,0,-1,958,848,0,0
-259,176,0,0,0,0,0,0,0,0,0,-1,965,848,0,0
-252,176,0,0,0,0,0,0,0,0,0,-1,972,848,0,0
-245,176,0,0,0,0,0,0,0,0,0,-1,979,848,0,0
-238,176,0,0,0,0,0,0,0,0,0,-1,986,848,0,0
-231,176,0,0,0,0,0,0,0,0,0,-1,993,848,0,0
-224,176,0,0,0,0,0,0,0,0,0,-1,1000,848,0,0
-217,176,0,0,0,0,0,0,0,0,0,-1,1007,848,0,0
-210,176,0,0,0,0,0,0,0,0,0,-1,1014,848,0,0
-203,176,0,0,0,0,0,0,0,0,0,-1,1021,848,0,0
-196,176,0,0,0,0,0,0,0,0,0,-1,1028,848,0,0
-189,176,0,0,0,0,0,0,0,0,0,-1,1035,848,0,0
-182,176,0,0,0,0,0,0,0,0,0,-1,1042,848,0,0
-175,176,0,0,0,0,0,0,0,0,0,-1,1049,848,0,0
-168,176,0,0,0,0,0,0,0,0,0,-1,1056,848,0,0
-161,176,0,0,0,0,0,0,0,0,0,-1,1063,848,0,0
-154,176,0,0,0,0,0,0,0,0,0,-1,1070,848,0,0
-147,176,0,0,0,0,0,0,0,0,0,-1,1077,848,0,0
-140,176,0,0,0,0,0,0,0,0,0,-1,1084,848,0,0
-133,176,0,0,0,0,0,0,0,0,0,-1,1091,848,0,0
-126,176,0,0,0,0,0,0,0,0,0,-1,1098,848,0,0
-119,176,0,0,0,0,0,0,0,0,0,-1,1105,848,0,0
-112,176,0,0,0,0,0,0,0,0,0,-1,1112,848,0,0
-105,176,0,0,0,0,0,0,0,0,0,-1,1119,848,0,0
-98,176,0,0,0,0,0,0,0,0,0,-1,1126,848,0,0
-91,176,0,0,0,0,0,0,0,0,0,-1,1133,848,0,0
-84,176,0,0,0,0,0,0,0,0,0,-1,1140,848,0,0
-77,176,0,0,0,0,0,0,0,0,0,-1,1147,848,0,0
-70,176,0,0,0,0,0,0,0,0,0,-1,1154,848,0,0
-63,176,0,0,0,0,0,0,0,0,0,-1,1161,848,0,0
-56,176,0,0,0,0,0,0,0,0,0,-1,1168,848,0,0
-49,176,0,0,0,0,0,0,0,0,0,-1,1175,848,0,0
-42,176,0,0,0,0,0,0,0,0,0,-1,1182,848,0,0
-35,176,0,0,0,0,0,0,0,0,0,-1,1189,848,0,0
-28,176,0,0,0,0,0,0,0,0,0,-1,1196,848,0,0
-21,176,0,0,0,0,0,0,0,0,0,-1,1203,848,0,0
-14,176,0,0,0,0,0,0,0,0,0,-1,1210,848,0,0
-7,176,0,0,0,0,0,0,0,0,0,-1,1217,848,0,0
0,176,0,0,0,0,0,0,0,0,0,-1,1224,848,0,0
7,176,0,0,0,0,0,0,0,0,0,-1,1231,848,0,0
14,176,0,0,0,0,0,0,0,0,0,-1,1238,848,0,0
21,176,0,0,0,0,0,0,0,0,0,-1,1245,848,0,0
28,176,0,0,0,0,0,0,0,0,0,-1,1252,848,0,0
35,176,0,0,0,0,0,0,0,0,0,-1,1259,848,0,0
42,176,0,0,0,0,0,0,0,0,0,-1,1266,848,0,0
49,176,0,0,0,0,0,0,0,0,0,-1,1273,848,0,0
56,176,0,0,0,0,0,0,0,0,0,-1,1280,848,0,0
63,176,0,0,0,0,0,0,0,0,0,-1,1287,848,0,0
70,176,0,0,0,0,0,0,0,0,0,-1,1294,848,0,0
77,176,0,0,0,0,0,0,0,0,0,-1,1301,848,0,0
84,176,0,0,0,0,0,0,0,0,0,-1,1308,848,0,0
91,176,0,0,0,0,0,0,0,0,0,-1,1315,848,0,0
98,176,0,0,0,0,0,0,0,0,0,-1,1322,848,0,0
105,176,0,0,0,0,0,0,0,0,0,-1,1329,848,0,0
112,176,0,0,0,0,0,0,0,0,0,-1,1336,848,0,0
119,176,0,0,0,0,0,0,0,0,0,-1,1343,848,0,0
126,176,0,0,0,0,0,0,0,0,0,-1,1350,848,0,0
133,176,0,0,0,0,0,0,0,0,0,-1,1357,848,0,0
140,176,0,0,0,0,0,0,0,0,0,-1,1364,848,0,0
147,176,0,0,0,0,0,0,0,0,0,-1,1371,848,0,0
154,176,0,0,0,0,0,0,0,0,0,-1,1378,848,0,0
161,176,0,0,0,0,0,0,0,0,0,-1,1385,848,0,0
168,176,0,0,0,0,0,0,0,0,0,-1,1392,848,0,0
175,176,0,0,0,0,0,0,0,0,0,-1,1399,848,0,0
182,176,0,0,0,0,0,0,0,0,0,-1,1406,848,0,0
189,176,0,0,0,0,0,0,0,0,0,-1,1413,848,0,0
196,176,0,0,0,0,0,0,0,0,0,-1,1420,848,0,0
203,176,0,0,0,0,0,0,0,0,0,-1,1427,848,0,0
210,176,0,0,0,0,0,0,0,0,0,-1,1434,848,0,0
217,176,0,0,0,0,0,0,0,0,0,-1,1441,848,0,0
224,176,0,0,0,0,0,0,0,0,0,-1,1448,848,0,0
231,176,0,0,0,0,0,0,0,0,0,-1,1455,848,0,0
238,176,0,0,0,0,0,0,0,0,0,-1,1462,848,0,0
245,176,0,0,0,0,0,0,0,0,0,-1,1469,848,0,0
252,176,0,0,0,0,0,0,0,0,0,-1,1476,848,0,0
259,176,0,0,0,0,0,0,0,0,0,-1,1483,848,0,0
266,176,0,0,0,0,0,0,0,0,0,-1,1490,848,0,0
273,176,0,0,0,0,0,0,0,0,0,-1,1497,848,0,0
280,176,0,0,0,0,0,0,0,0,0,-1,1504,848,0,0
287,176,0,0,0,0,0,0,0,0,0,-1,1511,848,0,0
294,176,0,0,0,0,0,0,0,0,0,-1,1518,848,0,0
301,176,0,0,0,0,0,0,0,0,0,-1,1525,848,0,0
308,176,0,0,0,0,0,0,0,0,0,-1,1532,848,0,0
315,176,0,0,0,0,0,0,0,0,0,-1,1539,848,0,0
322,176,0,0,0,0,0,0,0,0,0,-1,1546,848,0,0
329,176,0,0,0,0,0,0,0,0,0,-1,1553,848,0,0
336,176,0,0,0,0,0,0,0,0,0,-1,1560,848,0,0
343,176,0,0,0,0,0,0,0,0,0,-1,1567,848,0,0
350,176,0,0,0,0,0,0,0,0,0,-1,1574,848,0,0
357,176,0,0,0,0,0,0,0,0,0,-1,1581,848,0,0
364,176,0,0,0,0,0,0,0,0,0,-1,1588,848,0,0
371,176,0,0,0,0,0,0,0,0,0,-1,1595,848,0,0
378,176,0,0,0,0,0,0,0,0,0,-1,1602,848,0,0
385,176,0,0,0,0,0,0,0,0,0,-1,1609,848,0,0
392,176,0,0,0,0,0,0,0,0,0,-1,1616,848,0,0
399,176,0,0,0,0,0,0,0,0,0,-1,1623,848,0,0
406,176,0,0,0,0,0,0,0,0,0,-1,1630,848,0,0
413,176,0,0,0,0,0,0,0,0,0,-1,1637,848,0,0
420,176,0,0,0,0,0,0,0,0,0,-1,1644,848,0,0
427,176,0,0,0,0,0,0,0,0,0,-1,1651,848,0,0
434,176,0,0,0,0,0,0,0,0,0,-1,1658,848,0,0
441,176,0,0,0,0,0,0,0,0,0,-1,1665,848,0,0
448,176,0,0,0,0,0,0,0,0,0,-1,1672,848,0,0
455,176,0,0,0,0,0,0,0,0,0,-1,1679,848,0,0
462,176,0,0,0,0,0,0,0,0,0,-1,1686,848,0,0
469,176,0,0,0,0,0,0,0,0,0,-1,1693,848,0,0
476,176,0,0,0,0,0,0,0,0,0,-1,1700,848,0,0
483,176,0,0,0,0,0,0,0,0,0,-1,1707,848,0,0
490,176,0,0,0,0,0,0,0,0,0,-1,1714,848,0,0
497,176,0,0,0,0,0,0,0,0,0,-1,1721,848,0,0
504,176,0,0,0,0,0,0,0,0,0,-1,1728,848,0,0
511,176,0,0,0,0,0,0,0,0,0,-1,1735,848,0,0
518,176,0,0,0,0,0,0,0,0,0,-1,1742,848,0,0
525,176,0,0,0,0,0,0,0,0,0,-1,1749,848,0,0
532,176,0,0,0,0,0,0,0,0,0,-1,1756,848,0,0
539,176,0,0,0,0,0,0,0,0,0,-1,1763,848,0,0
546,176,0,0,0,0,0,0,0,0,0,-1,1770,848,0,0
553,176,0,0,0,0,0,0,0,0,0,-1,1777,848,0,0
560,176,0,0,0,0,0,0,0,0,0,-1,1784,848,0,0
567,176,0,0,0,0,0,0,0,0,0,-1,1791,848,0,0
574,176,0,0,0,0,0,0,0,0,0,-1,1798,848,0,0
581,176,0,0,0,0,0,0,0,0,0,-1,1805,848,0,0
588,176,0,0,0,0,0,0,0,0,0,-1,1812,848,0,0
595,176,0,0,0,0,0,0,0,0,0,-1,1819,848,0,0
602,176,0,0,0,0,0,0,0,0,0,-1,1826,848,0,0
609,176,44.2178,2.67242,-0.000405547,0.00108918,-0.00344583,0.00386776,-0.00318414,-0.892188,0.00407779,0.038827,1833,848,44.2177,-2.6724
616,176,44.0447,2.67151,-0.000667936,0.000624798,-0.00274095,0.00279456,-0.0028377,-0.901192,0.00325182,0.0400581,1840,848,44.0447,-2.67152
623,176,44.0251,2.96613,-0.00137933,0.000320759,-0.00195906,0.00160624,-0.00266482,-0.990093,0.00249102,0.0469182,1847,848,44.0252,-2.9661
630,176,44.1512,2.87689,-0.00239249,0.000188741,-0.00141071,0.000810139,-0.00301389,-1.15588,0.0023268,0.0441411,1854,848,44.1512,-2.87689
637,176,44.2568,2.70868,-0.00331891,0.000269327,-0.00107712,0.000567827,-0.00361741,-1.30045,0.00262146,0.034095,1861,848,44.2569,-2.7087
644,176,44.1743,2.77673,-0.0038072,0.000297505,-0.00093379,0.000499951,-0.00400965,-1.3573,0.00285438,0.0322234,1868,848,44.1743,-2.77673
651,176,44.2277,2.70184,-0.00385639,0.00021563,-0.000884856,0.000399599,-0.00404035,-1.36581,0.00283617,0.0326452,1875,848,44.2276,-2.70186
658,176,44.2903,2.60852,-0.00381482,9.09653e-05,-0.000981752,0.000323851,-0.0040477,-1.33789,0.00281264,0.0393247,1882,848,44.2903,-2.6085
665,176,44.2965,2.53613,0,0,0,0,0,0,0,-1,1889,848,44.2965,-2.53612
672,176,16.9304,2.80719,0,0,0,0,0,0,0,-1,1896,848,16.9305,-2.80719
679,176,36.1469,1.10876,0,0,0,0,0,0,0,-1,1903,848,36.1468,-1.10877
686,176,35.9785,1.64911,-0.00311335,-1.68494e-05,-0.000852974,0.000202566,-0.00333276,-1.31902,0.00229235,0.038407,1910,848,35.9786,-1.64913
693,176,35.8082,2.14178,-0.00270699,-3.5744e-06,-0.00109125,0.000381939,-0.0030925,-1.2312,0.00220006,0.0209177,1917,848,35.8082,-2.14176
700,176,35.6969,2.62085,-0.00192418,-0.000344153,-0.00102669,0.000161294,-0.00242963,-1.11332,0.00167611,0.0225976,1924,848,35.6969,-2.62087
707,176,35.6949,3.05731,-0.00190312,-0.00117325,-0.00101185,-0.000462538,-0.00261383,-0.958468,0.00161067,0.014907,1931,848,35.6949,-3.05729
714,176,35.6521,3.46881,-0.00198304,-0.00187073,-0.000857627,-0.00106743,-0.00278635,-0.81809,0.00162329,0.0125993,1938,848,35.652,-3.4688
721,176,35.6333,3.92688,-0.00234125,-0.00305301,-0.000290938,-0.00223746,-0.0031568,-0.342666,0.00187479,0.0119812,1945,848,35.6334,-3.92688
728,176,35.6105,4.41803,-0.00355218,-0.00501637,0.00131367,-0.00278038,-0.00578816,0.531187,0.00334266,0.0147227,1952,848,35.6104,-4.41805
735,176,35.5868,4.88489,-0.0055093,-0.00792806,0.00384632,-0.00268671,-0.0107507,0.633079,0.00646052,0.0142571,1959,848,35.5868,-4.88491
742,176,35.584,5.34558,-0.00825267,-0.0117128,0.00689159,-0.00287731,-0.0170882,0.662419,0.0105644,0.0180537,1966,848,35.584,-5.34556
749,176,35.5637,5.89215,-0.0121324,-0.0166481,0.0112909,-0.00287582,-0.0259046,0.686715,0.0163954,0.0301737,1973,848,35.5637,-5.89217
756,176,35.6265,6.47705,-0.0173378,-0.0228915,0.0175641,-0.00233239,-0.0378969,0.706998,0.0245242,0.0497342,1980,848,35.6264,-6.47707
763,176,35.7831,7.07434,0,0,0,0,0,0,0,-1,1987,848,35.7831,-7.07432
770,176,36.4186,4.25641,0,0,0,0,0,0,0,-1,1994,848,36.4186,-4.25639
777,176,36.828,3.72211,0,0,0,0,0,0,0,-1,2001,848,36.828,-3.72213
784,176,0,0,0,0,0,0,0,0,0,-1,2008,848,0,0
791,176,0,0,0,0,0,0,0,0,0,-1,2015,848,0,0
798,176,0,0,0,0,0,0,0,0,0,-1,2022,848,0,0
805,176,0,0,0,0,0,0,0,0,0,-1,2029,848,0,0
812,176,0,0,0,0,0,0,0,0,0,-1,2036,848,0,0
-700,169,0,0,0,0,0,0,0,0,0,-1,524,855,0,0
-693,169,0,0,0,0,0,0,0,0,0,-1,531,855,0,0
-686,169,0,0,0,0,0,0,0,0,0,-1,538,855,0,0
-679,169,0,0,0,0,0,0,0,0,0,-1,545,855,0,0
-672,169,0,0,0,0,0,0,0,0,0,-1,552,855,0,0
-665,169,-27.82,3.31958,0.0121478,-0.0325114,0.0541403,0.0483826,-0.0687461,0.589806,0.0679641,0.041971,559,855,-27.82,-3.3196
-658,169,-27.4872,4.75085,0.00671804,-0.0138444,0.0482483,0.0457684,-0.0528947,0.680423,0.0570127,0.0488206,566,855,-27.4872,-4.75087
-651,169,-24.9939,3.79791,0,0,0,0,0,0,0,-1,573,855,-24.9939,-3.7979
-644,169,-25.034,3.58466,0.000385031,0.00543302,0.0348868,0.037887,-0.032069,0.821509,0.0404357,0.0456819,580,855,-25.034,-3.58464
-637,169,-25.0858,3.43073,-0.0015992,0.00978873,0.0283543,0.0330152,-0.0248256,0.884488,0.0335058,0.0463538,587,855,-25.0858,-3.43075
-630,169,-25.4585,3.56403,-0.00314568,0.0117411,0.0223045,0.0278115,-0.019216,0.946446,0.0273021,0.0459744,594,855,-25.4585,-3.56402
-623,169,-25.5462,3.57629,0,0,0,0,0,0,0,-1,601,855,-25.5462,-3.57631
-616,169,-25.7238,3.14532,-0.00428889,0.0109577,0.012479,0.0179577,-0.0112889,1.05959,0.0170312,0.0243874,608,855,-25.7238,-3.14532
-609,169,-25.7562,2.70178,-0.00431859,0.0095187,0.00864373,0.0136717,-0.00847161,1.1229,0.0129014,0.015075,615,855,-25.7562,-2.7018
-602,169,-25.7858,2.23907,-0.00449295,0.00749676,0.0055182,0.00964984,-0.00664603,1.19879,0.00946155,0.014125,622,855,-25.7858,-2.2391
-595,169,-25.7876,1.74738,-0.00372329,0.0045039,0.00376917,0.00596959,-0.00518897,1.19993,0.00644765,0.0121069,629,855,-25.7876,-1.74739
-588,169,-25.7679,1.30981,-0.00236515,0.00144379,0.00260039,0.00276252,-0.00368389,1.10146,0.00373449,0.00948146,636,855,-25.768,-1.30983
-581,169,-25.8025,0.881531,-0.00111343,-0.000669591,0.00232533,0.00144438,-0.0032274,0.832972,0.00276196,0.0132789,643,855,-25.8025,-0.881502
-574,169,-25.9806,0.421143,-0.000398666,-0.00144641,0.00237787,0.00151235,-0.00335743,0.676974,0.00287805,0.0251352,650,855,-25.9806,-0.421171
-567,169,-25.8062,0.100708,-4.49159e-05,-0.00168463,0.00248802,0.00175484,-0.00348439,0.62624,0.00307932,0.0372136,657,855,-25.8062,-0.100692
-560,169,-25.8304,-0.256409,0.000198381,-0.00194991,0.00248217,0.00182886,-0.00358038,0.581193,0.00317713,0.0426828,664,855,-25.8304,0.256421
-553,169,-25.7116,-0.656799,0,0,0,0,0,0,0,-1,671,855,-25.7116,0.656825
-546,169,-19.0852,-1.05609,0,0,0,0,0,0,0,-1,678,855,-19.0852,1.05612
-539,169,-32.7203,0.825012,0,0,0,0,0,0,0,-1,685,855,-32.7203,-0.825028
-532,169,-32.7982,0.779541,0.000407572,-0.00132667,0.00266606,0.00234398,-0.00326308,0.628172,0.0032517,0.0458512,692,855,-32.7982,-0.779549
-525,169,-32.8198,0.757385,0.000352962,-0.000907823,0.00269121,0.00248662,-0.00304148,0.670352,0.00319701,0.0401645,699,855,-32.8198,-0.757384
-518,169,-32.9031,0.881958,0.000193239,-0.000180725,0.00281315,0.00282561,-0.0028131,0.752213,0.00325551,0.0376263,706,855,-32.9031,-0.881944
-511,169,-32.9354,0.941895,0.000581728,0.000651104,0.00301425,0.00363087,-0.00239804,0.791152,0.00350496,0.0398157,713,855,-32.9354,-0.941888
-504,169,-32.8205,1.10156,0.00156105,0.00158736,0.00323449,0.00480873,-0.00166031,0.787432,0.00387955,0.0409689,720,855,-32.8205,-1.10158
-497,169,-32.7733,1.50269,0,0,0,0,0,0,0,-1,727,855,-32.7732,-1.50266
-490,169,0,0,0,0,0,0,0,0,0,-1,734,855,0,0
-483,169,0,0,0,0,0,0,0,0,0,-1,741,855,0,0
-476,169,0,0,0,0,0,0,0,0,0,-1,748,855,0,0
-469,169,0,0,0,0,0,0,0,0,0,-1,755,855,0,0
-462,169,0,0,0,0,0,0,0,0,0,-1,762,855,0,0
-455,169,0,0,0,0,0,0,0,0,0,-1,769,855,0,0
-448,169,0,0,0,0,0,0,0,0,0,-1,776,855,0,0
-441,169,0,0,0,0,0,0,0,0,0,-1,783,855,0,0
-434,169,0,0,0,0,0,0,0,0,0,-1,790,855,0,0
-427,169,0,0,0,0,0,0,0,0,0,-1,797,855,0,0
-420,169,0,0,0,0,0,0,0,0,0,-1,804,855,0,0
-413,169,0,0,0,0,0,0,0,0,0,-1,811,855,0,0
-406,169,0,0,0,0,0,0,0,0,0,-1,818,855,0,0
-399,169,0,0,0,0,0,0,0,0,0,-1,825,855,0,0
-392,169,0,0,0,0,0,0,0,0,0,-1,832,855,0,0
-385,169,0,0,0,0,0,0,0,0,0,-1,839,855,0,0
-378,169,0,0,0,0,0,0,0,0,0,-1,846,855,0,0
-371,169,0,0,0,0,0,0,0,0,0,-1,853,855,0,0
-364,169,0,0,0,0,0,0,0,0,0,-1,860,855,0,0
-357,169,0,0,0,0,0,0,0,0,0,-1,867,855,0,0
-350,169,0,0,0,0,0,0,0,0,0,-1,874,855,0,0
-343,169,0,0,0,0,0,0,0,0,0,-1,881,855,0,0
-336,169,0,0,0,0,0,0,0,0,0,-1,888,855,0,0
-329,169,0,0,0,0,0,0,0,0,0,-1,895,855,0,0
-322,169,0,0,0,0,0,0,0,0,0,-1,902,855,0,0
-315,169,0,0,0,0,0,0,0,0,0,-1,909,855,0,0
-308,169,0,0,0,0,0,0,0,0,0,-1,916,855,0,0
-301,169,0,0,0,0,0,0,0,0,0,-1,923,855,0,0
-294,169,0,0,0,0,0,0,0,0,0,-1,930,855,0,0
-287,169,0,0,0,0,0,0,0,0,0,-1,937,855,0,0
-280,169,0,0,0,0,0,0,0,0,0,-1,944,855,0,0
-273,169,0,0,0,0,0,0,0,0,0,-1,951,855,0,0
-266,169,0,0,0,0,0,0,0,0,0,-1,958,855,0,0
-259,169,0,0,0,0,0,0,0,0,0,-1,965,855,0,0
-252,169,0,0,0,0,0,0,0,0,0,-1,972,855,0,0
-245,169,0,0,0,0,0,0,0,0,0,-1,979,855,0,0
-238,169,0,0,0,0,0,0,0,0,0,-1,986,855,0,0
-231,169,0,0,0,0,0,0,0,0,0,-1,993,855,0,0
-224,169,0,0,0,0,0,0,0,0,0,-1,1000,855,0,0
-217,169,0,0,0,0,0,0,0,0,0,-1,1007,855,0,0
-210,169,0,0,0,0,0,0,0,0,0,-1,1014,855,0,0
-203,169,0,0,0,0,0,0,0,0,0,-1,1021,855,0,0
-196,169,0,0,0,0,0,0,0,0,0,-1,1028,855,0,0
-189,169,0,0,0,0,0,0,0,0,0,-1,1035,855,0,0
-182,169,0,0,0,0,0,0,0,0,0,-1,1042,855,0,0
-175,169,0,0,0,0,0,0,0,0,0,-1,1049,855,0,0
-168,169,0,0,0,0,0,0,0,0,0,-1,1056,855,0,0
-161,169,0,0,0,0,0,0,0,0,0,-1,1063,855,0,0
-154,169,0,0,0,0,0,0,0,0,0,-1,1070,855,0,0
-147,169,0,0,0,0,0,0,0,0,0,-1,1077,855,0,0
-140,169,0,0,0,0,0,0,0,0,0,-1,1084,855,0,0
-133,169,0,0,0,0,0,0,0,0,0,-1,1091,855,0,0
-126,169,0,0,0,0,0,0,0,0,0,-1,1098,855,0,0
-119,169,0,0,0,0,0,0,0,0,0,-1,1105,855,0,0
-112,169,0,0,0,0,0,0,0,0,0,-1,1112,855,0,0
-105,169,0,0,0,0,0,0,0,0,0,-1,1119,855,0,0
-98,169,0,0,0,0,0,0,0,0,0,-1,1126,855,0,0
-91,169,0,0,0,0,0,0,0,0,0,-1,1133,855,0,0
-84,169,0,0,0,0,0,0,0,0,0,-1,1140,855,0,0
-77,169,0,0,0,0,0,0,0,0,0,-1,1147,855,0,0
-70,169,0,0,0,0,0,0,0,0,0,-1,1154,855,0,0
-63,169,0,0,0,0,0,0,0,0,0,-1,1161,855,0,0
-56,169,0,0,0,0,0,0,0,0,0,-1,1168,855,0,0
-49,169,0,0,0,0,0,0,0,0,0,-1,1175,855,0,0
-42,169,0,0,0,0,0,0,0,0,0,-1,1182,855,0,0
-35,169,0,0,0,0,0,0,0,0,0,-1,1189,855,0,0
-28,169,0,0,0,0,0,0,0,0,0,-1,1196,855,0,0
-21,169,0,0,0,0,0,0,0,0,0,-1,1203,855,0,0
-14,169,0,0,0,0,0,0,0,0,0,-1,1210,855,0,0
-7,169,0,0,0,0,0,0,0,0,0,-1,1217,855,0,0
0,169,0,0,0,0,0,0,0,0,0,-1,1224,855,0,0
7,169,0,0,0,0,0,0,0,0,0,-1,1231,855,0,0
14,169,0,0,0,0,0,0,0,0,0,-1,1238,855,0,0
21,169,0,0,0,0,0,0,0,0,0,-1,1245,855,0,0
28,169,0,0,0,0,0,0,0,0,0,-1,1252,855,0,0
35,169,0,0,0,0,0,0,0,0,0,-1,1259,855,0,0
42,169,0,0,0,0,0,0,0,0,0,-1,1266,855,0,0
49,169,0,0,0,0,0,0,0,0,0,-1,1273,855,0,0
56,169,0,0,0,0,0,0,0,0,0,-1,1280,855,0,0
63,169,0,0,0,0,0,0,0,0,0,-1,1287,855,0,0
70,169,0,0,0,0,0,0,0,0,0,-1,1294,855,0,0
77,169,0,0,0,0,0,0,0,0,0,-1,1301,855,0,0
84,169,0,0,0,0,0,0,0,0,0,-1,1308,855,0,0
91,169,0,0,0,0,0,0,0,0,0,-1,1315,855,0,0
98,169,0,0,0,0,0,0,0,0,0,-1,1322,855,0,0
105,169,0,0,0,0,0,0,0,0,0,-1,1329,855,0,0
112,169,0,0,0,0,0,0,0,0,0,-1,1336,855,0,0
119,169,0,0,0,0,0,0,0,0,0,-1,1343,855,0,0
126,169,0,0,0,0,0,0,0,0,0,-1,1350,855,0,0
133,169,0,0,0,0,0,0,0,0,0,-1,1357,855,0,0
140,169,0,0,0,0,0,0,0,0,0,-1,1364,855,0,0
147,169,0,0,0,0,0,0,0,0,0,-1,1371,855,0,0
154,169,0,0,0,0,0,0,0,0,0,-1,1378,855,0,0
161,169,0,0,0,0,0,0,0,0,0,-1,1385,855,0,0
168,169,0,0,0,0,0,0,0,0,0,-1,1392,855,0,0
175,169,0,0,0,0,0,0,0,0,0,-1,1399,855,0,0
182,169,0,0,0,0,0,0,0,0,0,-1,1406,855,0,0
189,169,0,0,0,0,0,0,0,0,0,-1,1413,855,0,0
196,169,0,0,0,0,0,0,0,0,0,-1,1420,855,0,0
203,169,0,0,0,0,0,0,0,0,0,-1,1427,855,0,0
210,169,0,0,0,0,0,0,0,0,0,-1,1434,855,0,0
217,169,0,0,0,0,0,0,0,0,0,-1,1441,855,0,0
224,169,0,0,0,0,0,0,0,0,0,-1,1448,855,0,0
231,169,0,0,0,0,0,0,0,0,0,-1,1455,855,0,0
238,169,0,0,0,0,0,0,0,0,0,-1,1462,855,0,0
245,169,0,0,0,0,0,0,0,0,0,-1,1469,855,0,0
252,169,0,0,0,0,0,0,0,0,0,-1,1476,855,0,0
259,169,0,0,0,0,0,0,0,0,0,-1,1483,855,0,0
266,169,0,0,0,0,0,0,0,0,0,-1,1490,855,0,0
273,169,0,0,0,0,0,0,0,0,0,-1,1497,855,0,0
280,169,0,0,0,0,0,0,0,0,0,-1,1504,855,0,0
287,169,0,0,0,0,0,0,0,0,0,-1,1511,855,0,0
294,169,0,0,0,0,0,0,0,0,0,-1,1518,855,0,0
301,169,0,0,0,0,0,0,0,0,0,-1,1525,855,0,0
308,169,0,0,0,0,0,0,0,0,0,-1,1532,855,0,0
315,169,0,0,0,0,0,0,0,0,0,-1,1539,855,0,0
322,169,0,0,0,0,0,0,0,0,0,-1,1546,855,0,0
329,169,0,0,0,0,0,0,0,0,0,-1,1553,855,0,0
336,169,0,0,0,0,0,0,0,0,0,-1,1560,855,0,0
343,169,0,0,0,0,0,0,0,0,0,-1,1567,855,0,0
350,169,0,0,0,0,0,0,0,0,0,-1,1574,855,0,0
357,169,0,0,0,0,0,0,0,0,0,-1,1581,855,0,0
364,169,0,0,0,0,0,0,0,0,0,-1,1588,855,0,0
371,169,0,0,0,0,0,0,0,0,0,-1,1595,855,0,0
378,169,0,0,0,0,0,0,0,0,0,-1,1602,855,0,0
385,169,0,0,0,0,0,0,0,0,0,-1,1609,855,0,0
392,169,0,0,0,0,0,0,0,0,0,-1,1616,855,0,0
399,169,0,0,0,0,0,0,0,0,0,-1,1623,855,0,0
406,169,0,0,0,0,0,0,0,0,0,-1,1630,855,0,0
413,169,0,0,0,0,0,0,0,0,0,-1,1637,855,0,0
420,169,0,0,0,0,0,0,0,0,0,-1,1644,855,0,0
427,169,0,0,0,0,0,0,0,0,0,-1,1651,855,0,0
434,169,0,0,0,0,0,0,0,0,0,-1,1658,855,0,0
441,169,0,0,0,0,0,0,0,0,0,-1,1665,855,0,0
448,169,0,0,0,0,0,0,0,0,0,-1,1672,855,0,0
455,169,0,0,0,0,0,0,0,0,0,-1,1679,855,0,0
462,169,0,0,0,0,0,0,0,0,0,-1,1686,855,0,0
469,169,0,0,0,0,0,0,0,0,0,-1,1693,855,0,0
476,169,0,0,0,0,0,0,0,0,0,-1,1700,855,0,0
483,169,0,0,0,0,0,0,0,0,0,-1,1707,855,0,0
490,169,0,0,0,0,0,0,0,0,0,-1,1714,855,0,0
497,169,0,0,0,0,0,0,0,0,0,-1,1721,855,0,0
504,169,0,0,0,0,0,0,0,0,0,-1,1728,855,0,0
511,169,0,0,0,0,0,0,0,0,0,-1,1735,855,0,0
518,169,0,0,0,0,0,0,0,0,0,-1,1742,855,0,0
525,169,0,0,0,0,0,0,0,0,0,-1,1749,855,0,0
532,169,0,0,0,0,0,0,0,0,0,-1,1756,855,0,0
539,169,0,0,0,0,0,0,0,0,0,-1,1763,855,0,0
546,169,0,0,0,0,0,0,0,0,0,-1,1770,855,0,0
553,169,0,0,0,0,0,0,0,0,0,-1,1777,855,0,0
560,169,0,0,0,0,0,0,0,0,0,-1,1784,855,0,0
567,169,0,0,0,0,0,0,0,0,0,-1,1791,855,0,0
574,169,0,0,0,0,0,0,0,0,0,-1,1798,855,0,0
581,169,0,0,0,0,0,0,0,0,0,-1,1805,855,0,0
588,169,0,0,0,0,0,0,0,0,0,-1,1812,855,0,0
595,169,0,0,0,0,0,0,0,0,0,-1,1819,855,0,0
602,169,0,0,0,0,0,0,0,0,0,-1,1826,855,0,0
609,169,0,0,0,0,0,0,0,0,0,-1,1833,855,0,0
616,169,44.1432,3.10846,-0.0016574,0.00120205,-0.00398412,0.00400521,-0.00446056,-0.957669,0.00489007,0.0457548,1840,855,44.1432,-3.10847
623,169,44.2651,3.10687,-0.0017346,0.00100898,-0.00297285,0.00291128,-0.00363689,-1.00156,0.00378832,0.0478075,1847,855,44.2651,-3.10685
630,169,44.142,2.91895,-0.00212862,0.000861433,-0.00210416,0.00194761,-0.0032148,-1.09427,0.0030103,0.0462205,1854,855,44.1419,-2.91892
637,169,44.2517,2.85193,-0.0026911,0.000933299,-0.00140764,0.00141577,-0.00317357,-1.24059,0.00271367,0.0394192,1861,855,44.2517,-2.85193
644,169,44.2572,2.88965,-0.00304327,0.000921218,-0.00100279,0.00116043,-0.00328249,-1.33662,0.00266086,0.037376,1868,855,44.2572,-2.88966
651,169,44.2241,2.75775,-0.0030576,0.000781537,-0.000799526,0.000941387,-0.00321745,-1.37347,0.00251812,0.037625,1875,855,44.2241,-2.75772
658,169,44.2354,2.67755,-0.00305127,0.000571811,-0.000812,0.000745472,-0.00322493,-1.3601,0.00243676,0.0373943,1882,855,44.2353,-2.67757
665,169,44.2008,2.7619,0,0,0,0,0,0,0,-1,1889,855,44.2008,-2.76188
672,169,31.2465,2.96387,0,0,0,0,0,0,0,-1,1896,855,31.2464,-2.9639
679,169,36.3876,1.15295,0,0,0,0,0,0,0,-1,1903,855,36.3876,-1.15293
686,169,36.3542,1.67224,-0.00244921,8.60907e-05,-0.000566813,0.000207042,-0.00257016,-1.36056,0.00178646,0.0469039,1910,855,36.3542,-1.67224
693,169,36.3049,2.17859,-0.00226929,1.69314e-05,-0.000768379,0.000251177,-0.00250353,-1.27489,0.00175874,0.0212643,1917,855,36.3049,-2.17857
700,169,36.3136,2.6701,-0.00182043,-0.00031126,-0.000774295,1.53258e-05,-0.00214702,-1.17165,0.00143648,0.0188415,1924,855,36.3136,-2.67009
707,169,36.2393,3.08179,-0.00186077,-0.00101998,-0.000842583,-0.000498743,-0.00238201,-1.0168,0.00145063,0.0181586,1931,855,36.2393,-3.0818
714,169,36.1217,3.46515,-0.00190449,-0.00142934,-0.000802352,-0.000830129,-0.0025037,-0.929333,0.0014726,0.0141557,1938,855,36.1217,-3.46515
721,169,36.0988,3.95837,-0.00221707,-0.00215195,-0.000352582,-0.00183043,-0.00253859,-0.831442,0.00151264,0.0153998,1945,855,36.0988,-3.95837
728,169,36.1022,4.4422,-0.00332084,-0.0034295,0.00118775,-0.00218618,-0.00456416,0.762543,0.0026359,0.0133806,1952,855,36.1021,-4.4422
735,169,36.0677,4.8985,-0.00506391,-0.00548887,0.00374038,-0.00152998,-0.0090228,0.757025,0.00557562,0.0203267,1959,855,36.0678,-4.8985
742,169,36.0605,5.34509,-0.00747393,-0.00814229,0.00687899,-0.000921015,-0.0146952,0.761127,0.00950469,0.0155167,1966,855,36.0606,-5.34511
749,169,35.9912,5.72101,-0.0108511,-0.0115929,0.0114204,0.000204464,-0.0226484,0.769165,0.0151676,0.0258866,1973,855,35.9912,-5.72104
756,169,36.2072,6.30603,0,0,0,0,0,0,0,-1,1980,855,36.2072,-6.30603
763,169,36.3302,6.63281,0,0,0,0,0,0,0,-1,1987,855,36.3302,-6.6328
770,169,37.2059,3.97021,0,0,0,0,0,0,0,-1,1994,855,37.2059,-3.97022
777,169,37.9381,9.14392,0,0,0,0,0,0,0,-1,2001,855,37.9381,-9.1439
784,169,37.6997,9.83215,0,0,0,0,0,0,0,-1,2008,855,37.6997,-9.83216
791,169,0,0,0,0,0,0,0,0,0,-1,2015,855,0,0
798,169,0,0,0,0,0,0,0,0,0,-1,2022,855,0,0
805,169,0,0,0,0,0,0,0,0,0,-1,2029,855,0,0
812,169,0,0,0,0,0,0,0,0,0,-1,2036,855,0,0
-700,162,0,0,0,0,0,0,0,0,0,-1,524,862,0,0
-693,162,0,0,0,0,0,0,0,0,0,-1,531,862,0,0
-686,162,0,0,0,0,0,0,0,0,0,-1,538,862,0,0
-679,162,0,0,0,0,0,0,0,0,0,-1,545,862,0,0
-672,162,0,0,0,0,0,0,0,0,0,-1,552,862,0,0
-665,162,-33.9628,5.87836,0,0,0,0,0,0,0,-1,559,862,-33.9627,-5.87838
-658,162,-26.8021,5.25452,0,0,0,0,0,0,0,-1,566,862,-26.802,-5.25454
-651,162,-25.6083,3.5105,0,0,0,0,0,0,0,-1,573,862,-25.6083,-3.51047
-644,162,-25.7206,3.14227,-0.00931534,0.00595104,0.0310451,0.0302876,-0.0336519,0.905944,0.0369325,0.0459513,580,862,-25.7206,-3.14228
-637,162,-25.9624,3.00214,-0.00874933,0.0096053,0.0253105,0.0273509,-0.026495,0.959321,0.0310892,0.0456653,587,862,-25.9624,-3.00214
-630,162,-26.5609,3.32422,0,0,0,0,0,0,0,-1,594,862,-26.5609,-3.32421
-623,162,-26.1613,3.6283,-0.007456,0.0110009,0.0152324,0.0195823,-0.0160374,1.05775,0.0205989,0.0361181,601,862,-26.1613,-3.6283
-616,162,-26.1647,3.14722,-0.00616175,0.0101042,0.0112682,0.0158679,-0.0119254,1.09799,0.0161002,0.0210934,608,862,-26.1647,-3.1472
-609,162,-26.2086,2.6709,-0.00513618,0.00857406,0.00777704,0.012086,-0.00864807,1.14664,0.0120255,0.0143335,615,862,-26.2086,-2.67088
-602,162,-26.2454,2.20184,-0.00456831,0.00634334,0.00498974,0.008281,-0.00650596,1.20039,0.00855774,0.0117299,622,862,-26.2453,-2.20186
-595,162,-26.2346,1.76831,-0.00341448,0.00327564,0.00361664,0.00485699,-0.00499583,1.1586,0.00568871,0.0108286,629,862,-26.2346,-1.76831
-588,162,-26.2249,1.33759,-0.00199627,0.000630542,0.00262819,0.00225524,-0.00362096,1.01712,0.00342303,0.0109564,636,862,-26.2249,-1.3376
-581,162,-26.4001,0.891907,-0.00085016,-0.000866893,0.00234493,0.00148641,-0.00320347,0.783614,0.00276753,0.0210698,643,862,-26.4001,-0.891884
-574,162,-26.6273,0.423523,-0.000232582,-0.00140822,0.00234042,0.0015927,-0.00323351,0.662363,0.00283958,0.0323322,650,862,-26.6273,-0.423543
-567,162,-26.5437,0.0109253,0.000149724,-0.00164121,0.00244937,0.00186218,-0.00335367,0.61015,0.00305214,0.0411758,657,862,-26.5437,-0.0109136
-560,162,-26.355,-0.600952,0.000489096,-0.00187526,0.00244227,0.00202026,-0.00340643,0.559995,0.00316698,0.0384858,664,862,-26.3551,0.600981
-553,162,-26.0206,-1.19336,0,0,0,0,0,0,0,-1,671,862,-26.0205,1.19335
-546,162,-22.8181,-1.51154,0,0,0,0,0,0,0,-1,678,862,-22.8181,1.51155
-539,162,-32.7974,0.80365,0,0,0,0,0,0,0,-1,685,862,-32.7974,-0.803651
-532,162,-32.7659,0.80249,0.000908224,-0.0015901,0.00253028,0.0024809,-0.00316277,0.556107,0.00326629,0.0375552,692,862,-32.7659,-0.802466
-525,162,-32.8022,0.776062,0.00079155,-0.00125368,0.0025416,0.00250854,-0.00297067,0.594132,0.00316717,0.0383156,699,862,-32.8022,-0.776032
-518,162,-32.8687,0.890869,0.000573403,-0.000632582,0.00267835,0.0027158,-0.00277498,0.674676,0.00317016,0.0381471,706,862,-32.8687,-0.890874
-511,162,-32.9014,1.01947,0.000961576,0.000174996,0.00291276,0.00350748,-0.00237091,0.718293,0.00341497,0.0422278,713,862,-32.9014,-1.01947
-504,162,-32.7623,1.23175,0.00189691,0.00139555,0.00311518,0.00477147,-0.00147902,0.74525,0.00377192,0.0430274,720,862,-32.7623,-1.23176
-497,162,-32.7424,1.29724,0,0,0,0,0,0,0,-1,727,862,-32.7424,-1.29722
-490,162,0,0,0,0,0,0,0,0,0,-1,734,862,0,0
-483,162,0,0,0,0,0,0,0,0,0,-1,741,862,0,0
-476,162,0,0,0,0,0,0,0,0,0,-1,748,862,0,0
-469,162,0,0,0,0,0,0,0,0,0,-1,755,862,0,0
-462,162,0,0,0,0,0,0,0,0,0,-1,762,862,0,0
-455,162,0,0,0,0,0,0,0,0,0,-1,769,862,0,0
-448,162,0,0,0,0,0,0,0,0,0,-1,776,862,0,0
-441,162,0,0,0,0,0,0,0,0,0,-1,783,862,0,0
-434,162,0,0,0,0,0,0,0,0,0,-1,790,862,0,0
-427,162,0,0,0,0,0,0,0,0,0,-1,797,862,0,0
-420,162,0,0,0,0,0,0,0,0,0,-1,804,862,0,0
-413,162,0,0,0,0,0,0,0,0,0,-1,811,862,0,0
-406,162,0,0,0,0,0,0,0,0,0,-1,818,862,0,0
-399,162,0,0,0,0,0,0,0,0,0,-1,825,862,0,0
-392,162,0,0,0,0,0,0,0,0,0,-1,832,862,0,0
-385,162,0,0,0,0,0,0,0,0,0,-1,839,862,0,0
-378,162,0,0,0,0,0,0,0,0,0,-1,846,862,0,0
-371,162,0,0,0,0,0,0,0,0,0,-1,853,862,0,0
-364,162,0,0,0,0,0,0,0,0,0,-1,860,862,0,0
-357,162,0,0,0,0,0,0,0,0,0,-1,867,862,0,0
-350,162,0,0,0,0,0,0,0,0,0,-1,874,862,0,0
-343,162,0,0,0,0,0,0,0,0,0,-1,881,862,0,0
-336,162,0,0,0,0,0,0,0,0,0,-1,888,862,0,0
-329,162,0,0,0,0,0,0,0,0,0,-1,895,862,0,0
-322,162,0,0,0,0,0,0,0,0,0,-1,902,862,0,0
-315,162,0,0,0,0,0,0,0,0,0,-1,909,862,0,0
-308,162,0,0,0,0,0,0,0,0,0,-1,916,862,0,0
-301,162,0,0,0,0,0,0,0,0,0,-1,923,862,0,0
-294,162,0,0,0,0,0,0,0,0,0,-1,930,862,0,0
-287,162,0,0,0,0,0,0,0,0,0,-1,937,862,0,0
-280,162,0,0,0,0,0,0,0,0,0,-1,944,862,0,0
-273,162,0,0,0,0,0,0,0,0,0,-1,951,862,0,0
-266,162,0,0,0,0,0,0,0,0,0,-1,958,862,0,0
-259,162,0,0,0,0,0,0,0,0,0,-1,965,862,0,0
-252,162,0,0,0,0,0,0,0,0,0,-1,972,862,0,0
-245,162,0,0,0,0,0,0,0,0,0,-1,979,862,0,0
-238,162,0,0,0,0,0,0,0,0,0,-1,986,862,0,0
-231,162,0,0,0,0,0,0,0,0,0,-1,993,862,0,0
-224,162,0,0,0,0,0,0,0,0,0,-1,1000,862,0,0
-217,162,0,0,0,0,0,0,0,0,0,-1,1007,862,0,0
-210,162,0,0,0,0,0,0,0,0,0,-1,1014,862,0,0
-203,162,0,0,0,0,0,0,0,0,0,-1,1021,862,0,0
-196,162,0,0,0,0,0,0,0,0,0,-1,1028,862,0,0
-189,162,0,0,0,0,0,0,0,0,0,-1,1035,862,0,0
-182,162,0,0,0,0,0,0,0,0,0,-1,1042,862,0,0
-175,162,0,0,0,0,0,0,0,0,0,-1,1049,862,0,0
-168,162,0,0,0,0,0,0,0,0,0,-1,1056,862,0,0
-161,162,0,0,0,0,0,0,0,0,0,-1,1063,862,0,0
-154,162,0,0,0,0,0,0,0,0,0,-1,1070,862,0,0
-147,162,0,0,0,0,0,0,0,0,0,-1,1077,862,0,0
-140,162,0,0,0,0,0,0,0,0,0,-1,1084,862,0,0
-133,162,0,0,0,0,0,0,0,0,0,-1,1091,862,0,0
-126,162,0,0,0,0,0,0,0,0,0,-1,1098,862,0,0
-119,162,0,0,0,0,0,0,0,0,0,-1,1105,862,0,0
-112,162,0,0,0,0,0,0,0,0,0,-1,1112,862,0,0
-105,162,0,0,0,0,0,0,0,0,0,-1,1119,862,0,0
-98,162,0,0,0,0,0,0,0,0,0,-1,1126,862,0,0
-91,162,0,0,0,0,0,0,0,0,0,-1,1133,862,0,0
-84,162,0,0,0,0,0,0,0,0,0,-1,1140,862,0,0
-77,162,0,0,0,0,0,0,0,0,0,-1,1147,862,0,0
-70,162,0,0,0,0,0,0,0,0,0,-1,1154,862,0,0
-63,162,0,0,0,0,0,0,0,0,0,-1,1161,862,0,0
-56,162,0,0,0,0,0,0,0,0,0,-1,1168,862,0,0
-49,162,0,0,0,0,0,0,0,0,0,-1,1175,862,0,0
-42,162,0,0,0,0,0,0,0,0,0,-1,1182,862,0,0
-35,162,0,0,0,0,0,0,0,0,0,-1,1189,862,0,0
-28,162,0,0,0,0,0,0,0,0,0,-1,1196,862,0,0
-21,162,0,0,0,0,0,0,0,0,0,-1,1203,862,0,0
-14,162,0,0,0,0,0,0,0,0,0,-1,1210,862,0,0
-7,162,0,0,0,0,0,0,0,0,0,-1,1217,862,0,0
0,162,0,0,0,0,0,0,0,0,0,-1,1224,862,0,0
7,162,0,0,0,0,0,0,0,0,0,-1,1231,862,0,0
14,162,0,0,0,0,0,0,0,0,0,-1,1238,862,0,0
21,162,0,0,0,0,0,0,0,0,0,-1,1245,862,0,0
28,162,0,0,0,0,0,0,0,0,0,-1,1252,862,0,0
35,162,0,0,0,0,0,0,0,0,0,-1,1259,862,0,0
42,162,0,0,0,0,0,0,0,0,0,-1,1266,862,0,0
49,162,0,0,0,0,0,0,0,0,0,-1,1273,862,0,0
56,162,0,0,0,0,0,0,0,0,0,-1,1280,862,0,0
63,162,0,0,0,0,0,0,0,0,0,-1,1287,862,0,0
70,162,0,0,0,0,0,0,0,0,0,-1,1294,862,0,0
77,162,0,0,0,0,0,0,0,0,0,-1,1301,862,0,0
84,162,0,0,0,0,0,0,0,0,0,-1,1308,862,0,0
91,162,0,0,0,0,0,0,0,0,0,-1,1315,862,0,0
98,162,0,0,0,0,0,0,0,0,0,-1,1322,862,0,0
105,162,0,0,0,0,0,0,0,0,0,-1,1329,862,0,0
112,162,0,0,0,0,0,0,0,0,0,-1,1336,862,0,0
119,162,0,0,0,0,0,0,0,0,0,-1,1343,862,0,0
126,162,0,0,0,0,0,0,0,0,0,-1,1350,862,0,0
133,162,0,0,0,0,0,0,0,0,0,-1,1357,862,0,0
140,162,0,0,0,0,0,0,0,0,0,-1,1364,862,0,0
147,162,0,0,0,0,0,0,0,0,0,-1,1371,862,0,0
154,162,0,0,0,0,0,0,0,0,0,-1,1378,862,0,0
161,162,0,0,0,0,0,0,0,0,0,-1,1385,862,0,0
168,162,0,0,0,0,0,0,0,0,0,-1,1392,862,0,0
175,162,0,0,0,0,0,0,0,0,0,-1,1399,862,0,0
182,162,0,0,0,0,0,0,0,0,0,-1,1406,862,0,0
189,162,0,0,0,0,0,0,0,0,0,-1,1413,862,0,0
196,162,0,0,0,0,0,0,0,0,0,-1,1420,862,0,0
203,162,0,0,0,0,0,0,0,0,0,-1,1427,862,0,0
210,162,0,0,0,0,0,0,0,0,0,-1,1434,862,0,0
217,162,0,0,0,0,0,0,0,0,0,-1,1441,862,0,0
224,162,0,0,0,0,0,0,0,0,0,-1,1448,862,0,0
231,162,0,0,0,0,0,0,0,0,0,-1,1455,862,0,0
238,162,0,0,0,0,0,0,0,0,0,-1,1462,862,0,0
245,162,0,0,0,0,0,0,0,0,0,-1,1469,862,0,0
252,162,0,0,0,0,0,0,0,0,0,-1,1476,862,0,0
259,162,0,0,0,0,0,0,0,0,0,-1,1483,862,0,0
266,162,0,0,0,0,0,0,0,0,0,-1,1490,862,0,0
273,162,0,0,0,0,0,0,0,0,0,-1,1497,862,0,0
280,162,0,0,0,0,0,0,0,0,0,-1,1504,862,0,0
287,162,0,0,0,0,0,0,0,0,0,-1,1511,862,0,0
294,162,0,0,0,0,0,0,0,0,0,-1,1518,862,0,0
301,162,0,0,0,0,0,0,0,0,0,-1,1525,862,0,0
308,162,0,0,0,0,0,0,0,0,0,-1,1532,862,0,0
315,162,0,0,0,0,0,0,0,0,0,-1,1539,862,0,0
322,162,0,0,0,0,0,0,0,0,0,-1,1546,862,0,0
329,162,0,0,0,0,0,0,0,0,0,-1,1553,862,0,0
336,162,0,0,0,0,0,0,0,0,0,-1,1560,862,0,0
343,162,0,0,0,0,0,0,0,0,0,-1,1567,862,0,0
350,162,0,0,0,0,0,0,0,0,0,-1,1574,862,0,0
357,162,0,0,0,0,0,0,0,0,0,-1,1581,862,0,0
364,162,0,0,0,0,0,0,0,0,0,-1,1588,862,0,0
371,162,0,0,0,0,0,0,0,0,0,-1,1595,862,0,0
378,162,0,0,0,0,0,0,0,0,0,-1,1602,862,0,0
385,162,0,0,0,0,0,0,0,0,0,-1,1609,862,0,0
392,162,0,0,0,0,0,0,0,0,0,-1,1616,862,0,0
399,162,0,0,0,0,0,0,0,0,0,-1,1623,862,0,0
406,162,0,0,0,0,0,0,0,0,0,-1,1630,862,0,0
413,162,0,0,0,0,0,0,0,0,0,-1,1637,862,0,0
420,162,0,0,0,0,0,0,0,0,0,-1,1644,862,0,0
427,162,0,0,0,0,0,0,0,0,0,-1,1651,862,0,0
434,162,0,0,0,0,0,0,0,0,0,-1,1658,862,0,0
441,162,0,0,0,0,0,0,0,0,0,-1,1665,862,0,0
448,162,0,0,0,0,0,0,0,0,0,-1,1672,862,0,0
455,162,0,0,0,0,0,0,0,0,0,-1,1679,862,0,0
462,162,0,0,0,0,0,0,0,0,0,-1,1686,862,0,0
469,162,0,0,0,0,0,0,0,0,0,-1,1693,862,0,0
476,162,0,0,0,0,0,0,0,0,0,-1,1700,862,0,0
483,162,0,0,0,0,0,0,0,0,0,-1,1707,862,0,0
490,162,0,0,0,0,0,0,0,0,0,-1,1714,862,0,0
497,162,0,0,0,0,0,0,0,0,0,-1,1721,862,0,0
504,162,0,0,0,0,0,0,0,0,0,-1,1728,862,0,0
511,162,0,0,0,0,0,0,0,0,0,-1,1735,862,0,0
518,162,0,0,0,0,0,0,0,0,0,-1,1742,862,0,0
525,162,0,0,0,0,0,0,0,0,0,-1,1749,862,0,0
532,162,0,0,0,0,0,0,0,0,0,-1,1756,862,0,0
539,162,0,0,0,0,0,0,0,0,0,-1,1763,862,0,0
546,162,0,0,0,0,0,0,0,0,0,-1,1770,862,0,0
553,162,0,0,0,0,0,0,0,0,0,-1,1777,862,0,0
560,162,0,0,0,0,0,0,0,0,0,-1,1784,862,0,0
567,162,0,0,0,0,0,0,0,0,0,-1,1791,862,0,0
574,162,0,0,0,0,0,0,0,0,0,-1,1798,862,0,0
581,162,0,0,0,0,0,0,0,0,0,-1,1805,862,0,0
588,162,0,0,0,0,0,0,0,0,0,-1,1812,862,0,0
595,162,0,0,0,0,0,0,0,0,0,-1,1819,862,0,0
602,162,0,0,0,0,0,0,0,0,0,-1,1826,862,0,0
609,162,0,0,0,0,0,0,0,0,0,-1,1833,862,0,0
616,162,44.2902,3.2691,-0.00380275,0.000969264,-0.00507427,0.0041905,-0.00702399,-1.00517,0.00654322,0.0445733,1840,862,44.2901,-3.26913
623,162,44.2854,3.10406,-0.00266187,0.00118551,-0.00391935,0.00362781,-0.00510417,-1.01354,0.00506537,0.0447876,1847,862,44.2854,-3.10408
630,162,44.0868,2.69647,-0.00189393,0.00127396,-0.00284574,0.00294687,-0.00356684,-1.03935,0.00376637,0.0424993,1854,862,44.0868,-2.69647
637,162,44.1741,2.71265,-0.00159425,0.00150576,-0.00187498,0.00238847,-0.00247696,-1.1308,0.00280921,0.0404927,1861,862,44.1741,-2.71262
644,162,44.2587,2.73322,-0.00160368,0.00152725,-0.00122102,0.00194712,-0.00202355,-1.23959,0.00229261,0.0403145,1868,862,44.2587,-2.73319
651,162,44.2159,2.67676,-0.00157919,0.00134716,-0.000846814,0.00157454,-0.00180657,-1.30847,0.00195362,0.0373351,1875,862,44.216,-2.67673
658,162,44.1753,2.74438,-0.0017058,0.00104391,-0.000743512,0.00123207,-0.00189397,-1.32292,0.00181826,0.0369036,1882,862,44.1752,-2.74436
665,162,44.1392,2.8017,-0.00182019,0.000836889,-0.000760893,0.00103935,-0.00202266,-1.31073,0.00179798,0.0430443,1889,862,44.1391,-2.80169
672,162,44.1272,2.78479,0,0,0,0,0,0,0,-1,1896,862,44.1273,-2.78476
679,162,26.5077,2.54785,0,0,0,0,0,0,0,-1,1903,862,26.5077,-2.54787
686,162,36.7479,1.58411,0,0,0,0,0,0,0,-1,1910,862,36.748,-1.58408
693,162,36.7528,2.22327,-0.001828,1.52149e-05,-0.000510757,0.000147284,-0.00196007,-1.31776,0.00135847,0.0246211,1917,862,36.7528,-2.2233
700,162,36.79,2.65662,-0.00183212,-0.000271783,-0.000562013,-9.04309e-05,-0.00201347,-1.25866,0.00131321,0.0235457,1924,862,36.7901,-2.65661
707,162,36.7172,3.05811,-0.00190005,-0.000860659,-0.000674128,-0.00052916,-0.00223155,-1.11377,0.00134643,0.0165182,1931,862,36.7171,-3.0581
714,162,36.5911,3.47919,-0.00191425,-0.00107116,-0.000723854,-0.00065505,-0.00233036,-1.04907,0.00138775,0.0190572,1938,862,36.5911,-3.47917
721,162,36.5223,4.02728,-0.00219287,-0.00146247,-0.000434544,-0.00126005,-0.0023953,-1.13485,0.00138355,0.0277753,1945,862,36.5223,-4.0273
728,162,36.5248,4.45105,-0.00323377,-0.00220595,0.00091115,-0.00167377,-0.00376594,1.04217,0.00217874,0.0230101,1952,862,36.5248,-4.45102
735,162,36.5547,4.90234,-0.00484023,-0.00360697,0.00329147,-0.00087487,-0.00757233,0.877996,0.00478334,0.0120544,1959,862,36.5547,-4.90232
742,162,36.524,5.35419,-0.0070394,-0.00541547,0.00631444,0.000139,-0.0125939,0.849342,0.00844263,0.0135495,1966,862,36.5241,-5.35416
749,162,36.4293,5.79712,-0.0100976,-0.00781314,0.0107516,0.00185677,-0.0197675,0.838318,0.0138388,0.0192244,1973,862,36.4293,-5.79714
756,162,36.3031,6.23596,-0.0140632,-0.0107991,0.0170644,0.00471113,-0.0295735,0.833074,0.0214591,0.0426542,1980,862,36.3031,-6.23595
763,162,36.2142,6.6947,0,0,0,0,0,0,0,-1,1987,862,36.2142,-6.69472
770,162,36.7083,7.7453,0,0,0,0,0,0,0,-1,1994,862,36.7083,-7.74527
777,162,37.1432,9.00262,-0.0331593,-0.0226953,0.0525713,0.0249037,-0.0807584,0.834996,0.0637819,0.0485547,2001,862,37.1432,-9.00261
784,162,36.8551,9.67413,-0.041435,-0.0269194,0.0717728,0.0379617,-0.106316,0.835788,0.0863587,0.045901,2008,862,36.8551,-9.67412
791,162,0,0,0,0,0,0,0,0,0,-1,2015,862,0,0
798,162,0,0,0,0,0,0,0,0,0,-1,2022,862,0,0
805,162,0,0,0,0,0,0,0,0,0,-1,2029,862,0,0
812,162,0,0,0,0,0,0,0,0,0,-1,2036,862,0,0
-700,155,0,0,0,0,0,0,0,0,0,-1,524,869,0,0
-693,155,0,0,0,0,0,0,0,0,0,-1,531,869,0,0
-686,155,0,0,0,0,0,0,0,0,0,-1,538,869,0,0
-679,155,0,0,0,0,0,0,0,0,0,-1,545,869,0,0
-672,155,0,0,0,0,0,0,0,0,0,-1,552,869,0,0
-665,155,-33.6031,5.34753,0,0,0,0,0,0,0,-1,559,869,-33.6031,-5.34756
-658,155,-26.0653,2.76367,0,0,0,0,0,0,0,-1,566,869,-26.0653,-2.7637
-651,155,-26.2028,2.80627,0,0,0,0,0,0,0,-1,573,869,-26.2027,-2.80629
-644,155,-26.4688,2.80701,-0.0125476,0.00635946,0.0261349,0.0246981,-0.0308862,0.958937,0.0321578,0.0470746,580,869,-26.4688,-2.80702
-637,155,-26.8036,2.58856,-0.0106793,0.00934716,0.0212179,0.0227959,-0.0241281,1.00587,0.0270952,0.0498125,587,869,-26.8036,-2.58858
-630,155,-26.9833,2.47559,0,0,0,0,0,0,0,-1,594,869,-26.9833,-2.47559
-623,155,-26.5883,3.69757,-0.00786634,0.0101143,0.012767,0.0167388,-0.0144908,1.09216,0.018046,0.0275236,601,869,-26.5883,-3.69756
-616,155,-26.6124,3.13165,-0.00601118,0.009199,0.00943896,0.0137154,-0.0105276,1.12451,0.014037,0.0149839,608,869,-26.6124,-3.13167
-609,155,-26.657,2.6405,-0.00461127,0.00760469,0.00645967,0.0103869,-0.00739344,1.16411,0.0103138,0.0131778,615,869,-26.657,-2.64048
-602,155,-26.6794,2.1983,-0.00392111,0.0053202,0.00420219,0.00694525,-0.00554616,1.20179,0.00722698,0.0112262,622,869,-26.6794,-2.19831
-595,155,-26.6989,1.77911,-0.00293507,0.00237979,0.00333316,0.00398521,-0.00454049,1.12194,0.0049258,0.011124,629,869,-26.6989,-1.77912
-588,155,-26.6847,1.37854,-0.00169042,0.000186201,0.00253221,0.00194835,-0.00345257,0.96283,0.00315828,0.0147813,636,869,-26.6847,-1.37855
-581,155,-26.9015,1.04718,-0.000651522,-0.000878529,0.00226057,0.00149839,-0.00302844,0.760314,0.00266286,0.027842,643,869,-26.9015,-1.04721
-574,155,-27.0433,0.693481,-0.000152469,-0.00126431,0.00223971,0.00159928,-0.00301606,0.663751,0.00270619,0.0346673,650,869,-27.0433,-0.693498
-567,155,-26.9786,0.0704346,0.000207792,-0.00150465,0.00236542,0.00186719,-0.00316404,0.611748,0.00293677,0.038878,657,869,-26.9786,-0.0704331
-560,155,-26.8417,-0.463623,0.00061101,-0.00172221,0.00236973,0.00208573,-0.00319693,0.556665,0.00307235,0.0342974,664,869,-26.8417,0.463619
-553,155,-26.6114,-1.22418,0,0,0,0,0,0,0,-1,671,869,-26.6114,1.22416
-546,155,-22.7988,0.873657,0,0,0,0,0,0,0,-1,678,869,-22.7988,-0.873645
-539,155,-32.9413,0.528625,0,0,0,0,0,0,0,-1,685,869,-32.9413,-0.528634
-532,155,-32.7896,0.682861,0.00102929,-0.00172691,0.00237278,0.00239513,-0.00309275,0.522309,0.00317695,0.0375911,692,869,-32.7896,-0.682854
-525,155,-32.7062,0.770264,0.00075466,-0.001497,0.00232665,0.00221355,-0.00295589,0.560061,0.00299482,0.0400354,699,869,-32.7062,-0.770236
-518,155,-32.7167,0.836548,0.000422726,-0.00103084,0.00239483,0.00219863,-0.00280674,0.638075,0.00289695,0.0418352,706,869,-32.7167,-0.836546
-511,155,-32.7126,0.92627,0.000764606,-0.000303043,0.00251741,0.00280417,-0.00234261,0.680919,0.00297548,0.0422605,713,869,-32.7126,-0.926266
-504,155,-32.7316,1.03955,0.00161379,0.00118073,0.00245945,0.00386623,-0.00107171,0.741491,0.00299924,0.0425264,720,869,-32.7316,-1.03954
-497,155,0,0,0,0,0,0,0,0,0,-1,727,869,0,0
-490,155,0,0,0,0,0,0,0,0,0,-1,734,869,0,0
-483,155,0,0,0,0,0,0,0,0,0,-1,741,869,0,0
-476,155,0,0,0,0,0,0,0,0,0,-1,748,869,0,0
-469,155,0,0,0,0,0,0,0,0,0,-1,755,869,0,0
-462,155,0,0,0,0,0,0,0,0,0,-1,762,869,0,0
-455,155,0,0,0,0,0,0,0,0,0,-1,769,869,0,0
-448,155,0,0,0,0,0,0,0,0,0,-1,776,869,0,0
-441,155,0,0,0,0,0,0,0,0,0,-1,783,869,0,0
-434,155,0,0,0,0,0,0,0,0,0,-1,790,869,0,0
-427,155,0,0,0,0,0,0,0,0,0,-1,797,869,0,0
-420,155,0,0,0,0,0,0,0,0,0,-1,804,869,0,0
-413,155,0,0,0,0,0,0,0,0,0,-1,811,869,0,0
-406,155,0,0,0,0,0,0,0,0,0,-1,818,869,0,0
-399,155,0,0,0,0,0,0,0,0,0,-1,825,869,0,0
-392,155,0,0,0,0,0,0,0,0,0,-1,832,869,0,0
-385,155,0,0,0,0,0,0,0,0,0,-1,839,869,0,0
-378,155,0,0,0,0,0,0,0,0,0,-1,846,869,0,0
-371,155,0,0,0,0,0,0,0,0,0,-1,853,869,0,0
-364,155,0,0,0,0,0,0,0,0,0,-1,860,869,0,0
-357,155,0,0,0,0,0,0,0,0,0,-1,867,869,0,0
-350,155,0,0,0,0,0,0,0,0,0,-1,874,869,0,0
-343,155,0,0,0,0,0,0,0,0,0,-1,881,869,0,0
-336,155,0,0,0,0,0,0,0,0,0,-1,888,869,0,0
-329,155,0,0,0,0,0,0,0,0,0,-1,895,869,0,0
-322,155,0,0,0,0,0,0,0,0,0,-1,902,869,0,0
-315,155,0,0,0,0,0,0,0,0,0,-1,909,869,0,0
-308,155,0,0,0,0,0,0,0,0,0,-1,916,869,0,0
-301,155,0,0,0,0,0,0,0,0,0,-1,923,869,0,0
-294,155,0,0,0,0,0,0,0,0,0,-1,930,869,0,0
-287,155,0,0,0,0,0,0,0,0,0,-1,937,869,0,0
-280,155,0,0,0,0,0,0,0,0,0,-1,944,869,0,0
-273,155,0,0,0,0,0,0,0,0,0,-1,951,869,0,0
-266,155,0,0,0,0,0,0,0,0,0,-1,958,869,0,0
-259,155,0,0,0,0,0,0,0,0,0,-1,965,869,0,0
-252,155,0,0,0,0,0,0,0,0,0,-1,972,869,0,0
-245,155,0,0,0,0,0,0,0,0,0,-1,979,869,0,0
-238,155,0,0,0,0,0,0,0,0,0,-1,986,869,0,0
-231,155,0,0,0,0,0,0,0,0,0,-1,993,869,0,0
-224,155,0,0,0,0,0,0,0,0,0,-1,1000,869,0,0
-217,155,0,0,0,0,0,0,0,0,0,-1,1007,869,0,0
-210,155,0,0,0,0,0,0,0,0,0,-1,1014,869,0,0
-203,155,0,0,0,0,0,0,0,0,0,-1,1021,869,0,0
-196,155,0,0,0,0,0,0,0,0,0,-1,1028,869,0,0
-189,155,0,0,0,0,0,0,0,0,0,-1,1035,869,0,0
-182,155,0,0,0,0,0,0,0,0,0,-1,1042,869,0,0
-175,155,0,0,0,0,0,0,0,0,0,-1,1049,869,0,0
-168,155,0,0,0,0,0,0,0,0,0,-1,1056,869,0,0
-161,155,0,0,0,0,0,0,0,0,0,-1,1063,869,0,0
-154,155,0,0,0,0,0,0,0,0,0,-1,1070,869,0,0
-147,155,0,0,0,0,0,0,0,0,0,-1,1077,869,0,0
-140,155,0,0,0,0,0,0,0,0,0,-1,1084,869,0,0
-133,155,0,0,0,0,0,0,0,0,0,-1,1091,869,0,0
-126,155,0,0,0,0,0,0,0,0,0,-1,1098,869,0,0
-119,155,0,0,0,0,0,0,0,0,0,-1,1105,869,0,0
-112,155,0,0,0,0,0,0,0,0,0,-1,1112,869,0,0
-105,155,0,0,0,0,0,0,0,0,0,-1,1119,869,0,0
-98,155,0,0,0,0,0,0,0,0,0,-1,1126,869,0,0
-91,155,0,0,0,0,0,0,0,0,0,-1,1133,869,0,0
-84,155,0,0,0,0,0,0,0,0,0,-1,1140,869,0,0
-77,155,0,0,0,0,0,0,0,0,0,-1,1147,869,0,0
-70,155,0,0,0,0,0,0,0,0,0,-1,1154,869,0,0
-63,155,0,0,0,0,0,0,0,0,0,-1,1161,869,0,0
-56,155,0,0,0,0,0,0,0,0,0,-1,1168,869,0,0
-49,155,0,0,0,0,0,0,0,0,0,-1,1175,869,0,0
-42,155,0,0,0,0,0,0,0,0,0,-1,1182,869,0,0
-35,155,0,0,0,0,0,0,0,0,0,-1,1189,869,0,0
-28,155,0,0,0,0,0,0,0,0,0,-1,1196,869,0,0
-21,155,0,0,0,0,0,0,0,0,0,-1,1203,869,0,0
-14,155,0,0,0,0,0,0,0,0,0,-1,1210,869,0,0
-7,155,0,0,0,0,0,0,0,0,0,-1,1217,869,0,0
0,155,0,0,0,0,0,0,0,0,0,-1,1224,869,0,0
7,155,0,0,0,0,0,0,0,0,0,-1,1231,869,0,0
14,155,0,0,0,0,0,0,0,0,0,-1,1238,869,0,0
21,155,0,0,0,0,0,0,0,0,0,-1,1245,869,0,0
28,155,0,0,0,0,0,0,0,0,0,-1,1252,869,0,0
35,155,0,0,0,0,0,0,0,0,0,-1,1259,869,0,0
42,155,0,0,0,0,0,0,0,0,0,-1,1266,869,0,0
49,155,0,0,0,0,0,0,0,0,0,-1,1273,869,0,0
56,155,0,0,0,0,0,0,0,0,0,-1,1280,869,0,0
63,155,0,0,0,0,0,0,0,0,0,-1,1287,869,0,0
70,155,0,0,0,0,0,0,0,0,0,-1,1294,869,0,0
77,155,0,0,0,0,0,0,0,0,0,-1,1301,869,0,0
84,155,0,0,0,0,0,0,0,0,0,-1,1308,869,0,0
91,155,0,0,0,0,0,0,0,0,0,-1,1315,869,0,0
98,155,0,0,0,0,0,0,0,0,0,-1,1322,869,0,0
105,155,0,0,0,0,0,0,0,0,0,-1,1329,869,0,0
112,155,0,0,0,0,0,0,0,0,0,-1,1336,869,0,0
119,155,0,0,0,0,0,0,0,0,0,-1,1343,869,0,0
126,155,0,0,0,0,0,0,0,0,0,-1,1350,869,0,0
133,155,0,0,0,0,0,0,0,0,0,-1,1357,869,0,0
140,155,0,0,0,0,0,0,0,0,0,-1,1364,869,0,0
147,155,0,0,0,0,0,0,0,0,0,-1,1371,869,0,0
154,155,0,0,0,0,0,0,0,0,0,-1,1378,869,0,0
161,155,0,0,0,0,0,0,0,0,0,-1,1385,869,0,0
168,155,0,0,0,0,0,0,0,0,0,-1,1392,869,0,0
175,155,0,0,0,0,0,0,0,0,0,-1,1399,869,0,0
182,155,0,0,0,0,0,0,0,0,0,-1,1406,869,0,0
189,155,0,0,0,0,0,0,0,0,0,-1,1413,869,0,0
196,155,0,0,0,0,0,0,0,0,0,-1,1420,869,0,0
203,155,0,0,0,0,0,0,0,0,0,-1,1427,869,0,0
210,155,0,0,0,0,0,0,0,0,0,-1,1434,869,0,0
217,155,0,0,0,0,0,0,0,0,0,-1,1441,869,0,0
224,155,0,0,0,0,0,0,0,0,0,-1,1448,869,0,0
231,155,0,0,0,0,0,0,0,0,0,-1,1455,869,0,0
238,155,0,0,0,0,0,0,0,0,0,-1,1462,869,0,0
245,155,0,0,0,0,0,0,0,0,0,-1,1469,869,0,0
252,155,0,0,0,0,0,0,0,0,0,-1,1476,869,0,0
259,155,0,0,0,0,0,0,0,0,0,-1,1483,869,0,0
266,155,0,0,0,0,0,0,0,0,0,-1,1490,869,0,0
273,155,0,0,0,0,0,0,0,0,0,-1,1497,869,0,0
280,155,0,0,0,0,0,0,0,0,0,-1,1504,869,0,0
287,155,0,0,0,0,0,0,0,0,0,-1,1511,869,0,0
294,155,0,0,0,0,0,0,0,0,0,-1,1518,869,0,0
301,155,0,0,0,0,0,0,0,0,0,-1,1525,869,0,0
308,155,0,0,0,0,0,0,0,0,0,-1,1532,869,0,0
315,155,0,0,0,0,0,0,0,0,0,-1,1539,869,0,0
322,155,0,0,0,0,0,0,0,0,0,-1,1546,869,0,0
329,155,0,0,0,0,0,0,0,0,0,-1,1553,869,0,0
336,155,0,0,0,0,0,0,0,0,0,-1,1560,869,0,0
343,155,0,0,0,0,0,0,0,0,0,-1,1567,869,0,0
350,155,0,0,0,0,0,0,0,0,0,-1,1574,869,0,0
357,155,0,0,0,0,0,0,0,0,0,-1,1581,869,0,0
364,155,0,0,0,0,0,0,0,0,0,-1,1588,869,0,0
371,155,0,0,0,0,0,0,0,0,0,-1,1595,869,0,0
378,155,0,0,0,0,0,0,0,0,0,-1,1602,869,0,0
385,155,0,0,0,0,0,0,0,0,0,-1,1609,869,0,0
392,155,0,0,0,0,0,0,0,0,0,-1,1616,869,0,0
399,155,0,0,0,0,0,0,0,0,0,-1,1623,869,0,0
406,155,0,0,0,0,0,0,0,0,0,-1,1630,869,0,0
413,155,0,0,0,0,0,0,0,0,0,-1,1637,869,0,0
420,155,0,0,0,0,0,0,0,0,0,-1,1644,869,0,0
427,155,0,0,0,0,0,0,0,0,0,-1,1651,869,0,0
434,155,0,0,0,0,0,0,0,0,0,-1,1658,869,0,0
441,155,0,0,0,0,0,0,0,0,0,-1,1665,869,0,0
448,155,0,0,0,0,0,0,0,0,0,-1,1672,869,0,0
455,155,0,0,0,0,0,0,0,0,0,-1,1679,869,0,0
462,155,0,0,0,0,0,0,0,0,0,-1,1686,869,0,0
469,155,0,0,0,0,0,0,0,0,0,-1,1693,869,0,0
476,155,0,0,0,0,0,0,0,0,0,-1,1700,869,0,0
483,155,0,0,0,0,0,0,0,0,0,-1,1707,869,0,0
490,155,0,0,0,0,0,0,0,0,0,-1,1714,869,0,0
497,155,0,0,0,0,0,0,0,0,0,-1,1721,869,0,0
504,155,0,0,0,0,0,0,0,0,0,-1,1728,869,0,0
511,155,0,0,0,0,0,0,0,0,0,-1,1735,869,0,0
518,155,0,0,0,0,0,0,0,0,0,-1,1742,869,0,0
525,155,0,0,0,0,0,0,0,0,0,-1,1749,869,0,0
532,155,0,0,0,0,0,0,0,0,0,-1,1756,869,0,0
539,155,0,0,0,0,0,0,0,0,0,-1,1763,869,0,0
546,155,0,0,0,0,0,0,0,0,0,-1,1770,869,0,0
553,155,0,0,0,0,0,0,0,0,0,-1,1777,869,0,0
560,155,0,0,0,0,0,0,0,0,0,-1,1784,869,0,0
567,155,0,0,0,0,0,0,0,0,0,-1,1791,869,0,0
574,155,0,0,0,0,0,0,0,0,0,-1,1798,869,0,0
581,155,0,0,0,0,0,0,0,0,0,-1,1805,869,0,0
588,155,0,0,0,0,0,0,0,0,0,-1,1812,869,0,0
595,155,0,0,0,0,0,0,0,0,0,-1,1819,869,0,0
602,155,0,0,0,0,0,0,0,0,0,-1,1826,869,0,0
609,155,0,0,0,0,0,0,0,0,0,-1,1833,869,0,0
616,155,44.4562,2.95844,-0.00488432,2.98467e-06,-0.00636534,0.00437761,-0.00925895,-0.968673,0.00803945,0.0443331,1840,869,44.4562,-2.95846
623,155,44.2345,2.70886,-0.00323458,0.000573938,-0.00492784,0.00395265,-0.00661329,-0.969775,0.00616438,0.0436626,1847,869,44.2345,-2.70889
630,155,44.0842,2.48462,-0.00200654,0.000916011,-0.00355197,0.00329554,-0.00438607,-0.980545,0.00444985,0.0437228,1854,869,44.0843,-2.48459
637,155,44.1644,2.54364,-0.0012943,0.00138644,-0.00226283,0.00267609,-0.00258395,-1.05278,0.00303704,0.0414875,1861,869,44.1645,-2.54367
644,155,44.2554,2.55621,-0.00110201,0.00155768,-0.00132145,0.00210259,-0.00164692,-1.17968,0.00217011,0.0386776,1868,869,44.2554,-2.55624
651,155,44.2542,2.58429,-0.00102953,0.00144394,-0.000742217,0.00164956,-0.00123515,-1.30053,0.00167121,0.0351687,1875,869,44.2542,-2.58429
658,155,44.1989,2.68494,-0.00120535,0.00113035,-0.00050273,0.00123396,-0.00130896,-1.36755,0.00146837,0.0290549,1882,869,44.1989,-2.68496
665,155,44.1362,2.75507,-0.00137465,0.000884004,-0.000449429,0.000970147,-0.00146079,-1.38142,0.001413,0.0324272,1889,869,44.1362,-2.75506
672,155,44.093,2.7616,0,0,0,0,0,0,0,-1,1896,869,44.093,-2.76158
679,155,35.1565,2.78528,0,0,0,0,0,0,0,-1,1903,869,35.1565,-2.7853
686,155,37.2289,1.94958,0,0,0,0,0,0,0,-1,1910,869,37.2289,-1.94958
693,155,37.1705,2.23785,-0.00161309,-6.16366e-06,-0.000198973,1.8107e-05,-0.00163736,-1.44942,0.00109766,0.0386267,1917,869,37.1705,-2.23783
700,155,37.2411,2.70776,-0.00176445,-0.000206576,-0.000320732,-0.000143128,-0.00182789,-1.3755,0.0011738,0.0282313,1924,869,37.241,-2.70779
707,155,37.2894,3.19885,-0.00184564,-0.000654245,-0.000469975,-0.000491172,-0.00200871,-1.23681,0.00120914,0.0203641,1931,869,37.2895,-3.19885
714,155,37.2207,3.56885,-0.00181941,-0.000718312,-0.000593617,-0.00045924,-0.00207848,-1.15929,0.00126077,0.0382545,1938,869,37.2207,-3.56884
721,155,37.0295,4.00439,-0.00204418,-0.000883868,-0.000448169,-0.000730923,-0.00219712,-1.24192,0.00129197,0.027524,1945,869,37.0295,-4.00437
728,155,37.0262,4.46423,-0.00300166,-0.00122002,0.000669169,-0.000996681,-0.003225,1.24867,0.00190668,0.019623,1952,869,37.0263,-4.46425
735,155,37.0087,4.89587,-0.00448595,-0.00208547,0.00278222,-0.000255633,-0.00631578,0.989036,0.00412795,0.0161823,1959,869,37.0087,-4.89586
742,155,37.0103,5.37305,-0.00653152,-0.00321611,0.00557865,0.000945927,-0.0106936,0.929819,0.00746435,0.0179484,1966,869,37.0102,-5.37302
749,155,36.9283,5.82855,-0.00937527,-0.00480516,0.00977085,0.00294428,-0.0171247,0.900266,0.0125139,0.0158534,1973,869,36.9283,-5.82857
756,155,36.8146,6.28577,-0.0130142,-0.0068354,0.0157427,0.0061182,-0.0259678,0.882289,0.019671,0.0261957,1980,869,36.8146,-6.28579
763,155,36.7338,6.82068,-0.0176425,-0.0092617,0.0238143,0.010728,-0.0376322,0.872487,0.0293257,0.0426153,1987,869,36.7337,-6.82066
770,155,36.7639,8.05304,-0.0234971,-0.0121936,0.034971,0.0175794,-0.0532701,0.865512,0.0425999,0.0457804,1994,869,36.7639,-8.05305
777,155,36.4469,9.07941,-0.0303093,-0.0154431,0.0496318,0.0273091,-0.0730615,0.859728,0.0599222,0.0448671,2001,869,36.4469,-9.07938
784,155,36.0692,9.85168,-0.0378881,-0.0187471,0.0681736,0.0405245,-0.0971597,0.855135,0.0817029,0.047498,2008,869,36.0692,-9.85168
791,155,0,0,0,0,0,0,0,0,0,-1,2015,869,0,0
798,155,0,0,0,0,0,0,0,0,0,-1,2022,869,0,0
805,155,0,0,0,0,0,0,0,0,0,-1,2029,869,0,0
812,155,0,0,0,0,0,0,0,0,0,-1,2036,869,0,0
-700,148,0,0,0,0,0,0,0,0,0,-1,524,876,0,0
-693,148,0,0,0,0,0,0,0,0,0,-1,531,876,0,0
-686,148,0,0,0,0,0,0,0,0,0,-1,538,876,0,0
-679,148,0,0,0,0,0,0,0,0,0,-1,545,876,0,0
-672,148,-32.0291,4.58417,0,0,0,0,0,0,0,-1,552,876,-32.0291,-4.58417
-665,148,-33.2484,4.7738,-0.0294526,-0.0140457,0.0386999,0.01771,-0.0612083,0.883642,0.0478149,0.0446983,559,876,-33.2484,-4.77379
-658,148,-34.3625,5.37897,0,0,0,0,0,0,0,-1,566,876,-34.3625,-5.37897
-651,148,-27.1993,2.35455,0,0,0,0,0,0,0,-1,573,876,-27.1993,-2.35458
-644,148,-27.428,2.4422,0,0,0,0,0,0,0,-1,580,876,-27.428,-2.44218
-637,148,-27.6625,2.17377,0,0,0,0,0,0,0,-1,587,876,-27.6625,-2.17374
-630,148,-26.8185,4.3631,0,0,0,0,0,0,0,-1,594,876,-26.8185,-4.36308
-623,148,-26.9465,3.70868,-0.00794144,0.00875821,0.0105009,0.0138244,-0.0130076,1.12129,0.0154938,0.0268678,601,876,-26.9465,-3.70868
-616,148,-27.0482,3.11401,-0.00563104,0.00790616,0.00768019,0.0113747,-0.00909959,1.14659,0.0118451,0.0131568,608,876,-27.0481,-3.11402
-609,148,-27.1155,2.63593,-0.0040109,0.0063557,0.00518907,0.00850677,-0.00616197,1.17782,0.00850499,0.0117102,615,876,-27.1155,-2.6359
-602,148,-27.1588,2.22131,-0.00333179,0.00417588,0.00342587,0.00550415,-0.00466007,1.20092,0.00587506,0.0129939,622,876,-27.1588,-2.22129
-595,148,-27.1766,1.79932,-0.00261781,0.00163608,0.00303237,0.00321307,-0.0041948,1.09124,0.00428944,0.0114912,629,876,-27.1766,-1.79933
-588,148,-27.1622,1.32654,-0.00159285,-0.000138255,0.00241445,0.00165605,-0.00338716,0.93169,0.00296833,0.0206822,636,876,-27.1622,-1.32653
-581,148,-27.3069,1.00989,-0.000684134,-0.000960111,0.00216296,0.00134523,-0.00298948,0.753543,0.00256196,0.0357515,643,876,-27.3069,-1.00992
-574,148,-27.0673,0.669128,-0.00030374,-0.00126932,0.00214506,0.00141219,-0.00298525,0.674707,0.00259244,0.0414053,650,876,-27.0673,-0.669152
-567,148,-27.301,0.234558,0,0,0,0,0,0,0,-1,657,876,-27.3009,-0.234536
-560,148,-27.3638,-0.354736,0,0,0,0,0,0,0,-1,664,876,-27.3638,0.354749
-553,148,-18.3896,-0.00280762,0,0,0,0,0,0,0,-1,671,876,-18.3897,0.00278524
-546,148,-32.7649,0.827393,0,0,0,0,0,0,0,-1,678,876,-32.7649,-0.827369
-539,148,-32.7808,0.715088,0.000935849,-0.00191977,0.00235405,0.00226125,-0.00324517,0.512794,0.00319601,0.0366103,685,876,-32.7808,-0.715101
-532,148,-32.7528,0.707458,0.00110836,-0.00178372,0.00235593,0.00242664,-0.003102,0.510151,0.00319989,0.0367497,692,876,-32.7528,-0.707482
-525,148,-32.6328,0.848755,0.000751398,-0.00157492,0.00232997,0.00219241,-0.00301593,0.553887,0.00301954,0.0381806,699,876,-32.6328,-0.848744
-518,148,-32.5969,0.940857,0.000416845,-0.00117856,0.00240497,0.00215296,-0.00291467,0.625263,0.00293679,0.0452299,706,876,-32.5969,-0.940836
-511,148,-32.5961,1.03357,0.000802366,-0.000566046,0.00249255,0.00270292,-0.0024666,0.651447,0.00298566,0.0444607,713,876,-32.5961,-1.03354
-504,148,-32.6152,0.891541,0.00164148,0.00074123,0.00224344,0.00347951,-0.00109679,0.686392,0.00275892,0.0436715,720,876,-32.6152,-0.891567
-497,148,0,0,0,0,0,0,0,0,0,-1,727,876,0,0
-490,148,0,0,0,0,0,0,0,0,0,-1,734,876,0,0
-483,148,0,0,0,0,0,0,0,0,0,-1,741,876,0,0
-476,148,0,0,0,0,0,0,0,0,0,-1,748,876,0,0
-469,148,0,0,0,0,0,0,0,0,0,-1,755,876,0,0
-462,148,0,0,0,0,0,0,0,0,0,-1,762,876,0,0
-455,148,0,0,0,0,0,0,0,0,0,-1,769,876,0,0
-448,148,0,0,0,0,0,0,0,0,0,-1,776,876,0,0
-441,148,0,0,0,0,0,0,0,0,0,-1,783,876,0,0
-434,148,0,0,0,0,0,0,0,0,0,-1,790,876,0,0
-427,148,0,0,0,0,0,0,0,0,0,-1,797,876,0,0
-420,148,0,0,0,0,0,0,0,0,0,-1,804,876,0,0
-413,148,0,0,0,0,0,0,0,0,0,-1,811,876,0,0
-406,148,0,0,0,0,0,0,0,0,0,-1,818,876,0,0
-399,148,0,0,0,0,0,0,0,0,0,-1,825,876,0,0
-392,148,0,0,0,0,0,0,0,0,0,-1,832,876,0,0
-385,148,0,0,0,0,0,0,0,0,0,-1,839,876,0,0
-378,148,0,0,0,0,0,0,0,0,0,-1,846,876,0,0
-371,148,0,0,0,0,0,0,0,0,0,-1,853,876,0,0
-364,148,0,0,0,0,0,0,0,0,0,-1,860,876,0,0
-357,148,0,0,0,0,0,0,0,0,0,-1,867,876,0,0
-350,148,0,0,0,0,0,0,0,0,0,-1,874,876,0,0
-343,148,0,0,0,0,0,0,0,0,0,-1,881,876,0,0
-336,148,0,0,0,0,0,0,0,0,0,-1,888,876,0,0
-329,148,0,0,0,0,0,0,0,0,0,-1,895,876,0,0
-322,148,0,0,0,0,0,0,0,0,0,-1,902,876,0,0
-315,148,0,0,0,0,0,0,0,0,0,-1,909,876,0,0
-308,148,0,0,0,0,0,0,0,0,0,-1,916,876,0,0
-301,148,0,0,0,0,0,0,0,0,0,-1,923,876,0,0
-294,148,0,0,0,0,0,0,0,0,0,-1,930,876,0,0
-287,148,0,0,0,0,0,0,0,0,0,-1,937,876,0,0
-280,148,0,0,0,0,0,0,0,0,0,-1,944,876,0,0
-273,148,0,0,0,0,0,0,0,0,0,-1,951,876,0,0
-266,148,0,0,0,0,0,0,0,0,0,-1,958,876,0,0
-259,148,0,0,0,0,0,0,0,0,0,-1,965,876,0,0
-252,148,0,0,0,0,0,0,0,0,0,-1,972,876,0,0
-245,148,0,0,0,0,0,0,0,0,0,-1,979,876,0,0
-238,148,0,0,0,0,0,0,0,0,0,-1,986,876,0,0
-231,148,0,0,0,0,0,0,0,0,0,-1,993,876,0,0
-224,148,0,0,0,0,0,0,0,0,0,-1,1000,876,0,0
-217,148,0,0,0,0,0,0,0,0,0,-1,1007,876,0,0
-210,148,0,0,0,0,0,0,0,0,0,-1,1014,876,0,0
-203,148,0,0,0,0,0,0,0,0,0,-1,1021,876,0,0
-196,148,0,0,0,0,0,0,0,0,0,-1,1028,876,0,0
-189,148,0,0,0,0,0,0,0,0,0,-1,1035,876,0,0
-182,148,0,0,0,0,0,0,0,0,0,-1,1042,876,0,0
-175,148,0,0,0,0,0,0,0,0,0,-1,1049,876,0,0
-168,148,0,0,0,0,0,0,0,0,0,-1,1056,876,0,0
-161,148,0,0,0,0,0,0,0,0,0,-1,1063,876,0,0
-154,148,0,0,0,0,0,0,0,0,0,-1,1070,876,0,0
-147,148,0,0,0,0,0,0,0,0,0,-1,1077,876,0,0
-140,148,0,0,0,0,0,0,0,0,0,-1,1084,876,0,0
-133,148,0,0,0,0,0,0,0,0,0,-1,1091,876,0,0
-126,148,0,0,0,0,0,0,0,0,0,-1,1098,876,0,0
-119,148,0,0,0,0,0,0,0,0,0,-1,1105,876,0,0
-112,148,0,0,0,0,0,0,0,0,0,-1,1112,876,0,0
-105,148,0,0,0,0,0,0,0,0,0,-1,1119,876,0,0
-98,148,0,0,0,0,0,0,0,0,0,-1,1126,876,0,0
-91,148,0,0,0,0,0,0,0,0,0,-1,1133,876,0,0
-84,148,0,0,0,0,0,0,0,0,0,-1,1140,876,0,0
-77,148,0,0,0,0,0,0,0,0,0,-1,1147,876,0,0
-70,148,0,0,0,0,0,0,0,0,0,-1,1154,876,0,0
-63,148,0,0,0,0,0,0,0,0,0,-1,1161,876,0,0
-56,148,0,0,0,0,0,0,0,0,0,-1,1168,876,0,0
-49,148,0,0,0,0,0,0,0,0,0,-1,1175,876,0,0
-42,148,0,0,0,0,0,0,0,0,0,-1,1182,876,0,0
-35,148,0,0,0,0,0,0,0,0,0,-1,1189,876,0,0
-28,148,0,0,0,0,0,0,0,0,0,-1,1196,876,0,0
-21,148,0,0,0,0,0,0,0,0,0,-1,1203,876,0,0
-14,148,0,0,0,0,0,0,0,0,0,-1,1210,876,0,0
-7,148,0,0,0,0,0,0,0,0,0,-1,1217,876,0,0
0,148,0,0,0,0,0,0,0,0,0,-1,1224,876,0,0
7,148,0,0,0,0,0,0,0,0,0,-1,1231,876,0,0
14,148,0,0,0,0,0,0,0,0,0,-1,1238,876,0,0
21,148,0,0,0,0,0,0,0,0,0,-1,1245,876,0,0
28,148,0,0,0,0,0,0,0,0,0,-1,1252,876,0,0
35,148,0,0,0,0,0,0,0,0,0,-1,1259,876,0,0
42,148,0,0,0,0,0,0,0,0,0,-1,1266,876,0,0
49,148,0,0,0,0,0,0,0,0,0,-1,1273,876,0,0
56,148,0,0,0,0,0,0,0,0,0,-1,1280,876,0,0
63,148,0,0,0,0,0,0,0,0,0,-1,1287,876,0,0
70,148,0,0,0,0,0,0,0,0,0,-1,1294,876,0,0
77,148,0,0,0,0,0,0,0,0,0,-1,1301,876,0,0
84,148,0,0,0,0,0,0,0,0,0,-1,1308,876,0,0
91,148,0,0,0,0,0,0,0,0,0,-1,1315,876,0,0
98,148,0,0,0,0,0,0,0,0,0,-1,1322,876,0,0
105,148,0,0,0,0,0,0,0,0,0,-1,1329,876,0,0
112,148,0,0,0,0,0,0,0,0,0,-1,1336,876,0,0
119,148,0,0,0,0,0,0,0,0,0,-1,1343,876,0,0
126,148,0,0,0,0,0,0,0,0,0,-1,1350,876,0,0
133,148,0,0,0,0,0,0,0,0,0,-1,1357,876,0,0
140,148,0,0,0,0,0,0,0,0,0,-1,1364,876,0,0
147,148,0,0,0,0,0,0,0,0,0,-1,1371,876,0,0
154,148,0,0,0,0,0,0,0,0,0,-1,1378,876,0,0
161,148,0,0,0,0,0,0,0,0,0,-1,1385,876,0,0
168,148,0,0,0,0,0,0,0,0,0,-1,1392,876,0,0
175,148,0,0,0,0,0,0,0,0,0,-1,1399,876,0,0
182,148,0,0,0,0,0,0,0,0,0,-1,1406,876,0,0
189,148,0,0,0,0,0,0,0,0,0,-1,1413,876,0,0
196,148,0,0,0,0,0,0,0,0,0,-1,1420,876,0,0
203,148,0,0,0,0,0,0,0,0,0,-1,1427,876,0,0
210,148,0,0,0,0,0,0,0,0,0,-1,1434,876,0,0
217,148,0,0,0,0,0,0,0,0,0,-1,1441,876,0,0
224,148,0,0,0,0,0,0,0,0,0,-1,1448,876,0,0
231,148,0,0,0,0,0,0,0,0,0,-1,1455,876,0,0
238,148,0,0,0,0,0,0,0,0,0,-1,1462,876,0,0
245,148,0,0,0,0,0,0,0,0,0,-1,1469,876,0,0
252,148,0,0,0,0,0,0,0,0,0,-1,1476,876,0,0
259,148,0,0,0,0,0,0,0,0,0,-1,1483,876,0,0
266,148,0,0,0,0,0,0,0,0,0,-1,1490,876,0,0
273,148,0,0,0,0,0,0,0,0,0,-1,1497,876,0,0
280,148,0,0,0,0,0,0,0,0,0,-1,1504,876,0,0
287,148,0,0,0,0,0,0,0,0,0,-1,1511,876,0,0
294,148,0,0,0,0,0,0,0,0,0,-1,1518,876,0,0
301,148,0,0,0,0,0,0,0,0,0,-1,1525,876,0,0
308,148,0,0,0,0,0,0,0,0,0,-1,1532,876,0,0
315,148,0,0,0,0,0,0,0,0,0,-1,1539,876,0,0
322,148,0,0,0,0,0,0,0,0,0,-1,1546,876,0,0
329,148,0,0,0,0,0,0,0,0,0,-1,1553,876,0,0
336,148,0,0,0,0,0,0,0,0,0,-1,1560,876,0,0
343,148,0,0,0,0,0,0,0,0,0,-1,1567,876,0,0
350,148,0,0,0,0,0,0,0,0,0,-1,1574,876,0,0
357,148,0,0,0,0,0,0,0,0,0,-1,1581,876,0,0
364,148,0,0,0,0,0,0,0,0,0,-1,1588,876,0,0
371,148,0,0,0,0,0,0,0,0,0,-1,1595,876,0,0
378,148,0,0,0,0,0,0,0,0,0,-1,1602,876,0,0
385,148,0,0,0,0,0,0,0,0,0,-1,1609,876,0,0
392,148,0,0,0,0,0,0,0,0,0,-1,1616,876,0,0
399,148,0,0,0,0,0,0,0,0,0,-1,1623,876,0,0
406,148,0,0,0,0,0,0,0,0,0,-1,1630,876,0,0
413,148,0,0,0,0,0,0,0,0,0,-1,1637,876,0,0
420,148,0,0,0,0,0,0,0,0,0,-1,1644,876,0,0
427,148,0,0,0,0,0,0,0,0,0,-1,1651,876,0,0
434,148,0,0,0,0,0,0,0,0,0,-1,1658,876,0,0
441,148,0,0,0,0,0,0,0,0,0,-1,1665,876,0,0
448,148,0,0,0,0,0,0,0,0,0,-1,1672,876,0,0
455,148,0,0,0,0,0,0,0,0,0,-1,1679,876,0,0
462,148,0,0,0,0,0,0,0,0,0,-1,1686,876,0,0
469,148,0,0,0,0,0,0,0,0,0,-1,1693,876,0,0
476,148,0,0,0,0,0,0,0,0,0,-1,1700,876,0,0
483,148,0,0,0,0,0,0,0,0,0,-1,1707,876,0,0
490,148,0,0,0,0,0,0,0,0,0,-1,1714,876,0,0
497,148,0,0,0,0,0,0,0,0,0,-1,1721,876,0,0
504,148,0,0,0,0,0,0,0,0,0,-1,1728,876,0,0
511,148,0,0,0,0,0,0,0,0,0,-1,1735,876,0,0
518,148,0,0,0,0,0,0,0,0,0,-1,1742,876,0,0
525,148,0,0,0,0,0,0,0,0,0,-1,1749,876,0,0
532,148,0,0,0,0,0,0,0,0,0,-1,1756,876,0,0
539,148,0,0,0,0,0,0,0,0,0,-1,1763,876,0,0
546,148,0,0,0,0,0,0,0,0,0,-1,1770,876,0,0
553,148,0,0,0,0,0,0,0,0,0,-1,1777,876,0,0
560,148,0,0,0,0,0,0,0,0,0,-1,1784,876,0,0
567,148,0,0,0,0,0,0,0,0,0,-1,1791,876,0,0
574,148,0,0,0,0,0,0,0,0,0,-1,1798,876,0,0
581,148,0,0,0,0,0,0,0,0,0,-1,1805,876,0,0
588,148,0,0,0,0,0,0,0,0,0,-1,1812,876,0,0
595,148,0,0,0,0,0,0,0,0,0,-1,1819,876,0,0
602,148,0,0,0,0,0,0,0,0,0,-1,1826,876,0,0
609,148,0,0,0,0,0,0,0,0,0,-1,1833,876,0,0
616,148,0,0,0,0,0,0,0,0,0,-1,1840,876,0,0
623,148,44.2809,2.56665,-0.00389846,-3.77796e-05,-0.00579535,0.00414026,-0.0080765,-0.946161,0.00717435,0.0422743,1847,876,44.2809,-2.56665
630,148,44.1315,2.38879,-0.00249721,0.000232651,-0.00411345,0.00320171,-0.00546628,-0.945593,0.00506108,0.0444075,1854,876,44.1315,-2.38878
637,148,44.1638,2.52301,-0.00162228,0.000743803,-0.00263191,0.00244634,-0.00332481,-0.996617,0.00334481,0.0388565,1861,876,44.1638,-2.523
644,148,44.2218,2.48871,-0.00131655,0.00103862,-0.00150377,0.00177102,-0.00204895,-1.11757,0.00220741,0.0367467,1868,876,44.2218,-2.48872
651,148,44.2289,2.50439,-0.00119787,0.00105431,-0.000759503,0.0012865,-0.00143006,-1.27411,0.00156914,0.037363,1875,876,44.2288,-2.50442
658,148,44.2168,2.62659,-0.0013477,0.000829531,-0.000384886,0.000895567,-0.00141374,-1.40088,0.00134442,0.0331362,1882,876,44.2168,-2.62661
665,148,44.1609,2.72675,-0.00149621,0.000617356,-0.000274357,0.000652389,-0.00153124,-1.44379,0.00129431,0.0244468,1889,876,44.1609,-2.72673
672,148,44.1967,2.65375,-0.00150074,0.00036891,-0.000152014,0.000381189,-0.00151301,-1.4902,0.00115687,0.0295395,1896,876,44.1967,-2.65373
679,148,43.9945,2.91614,0,0,0,0,0,0,0,-1,1903,876,43.9945,-2.91614
686,148,21.6195,2.40845,0,0,0,0,0,0,0,-1,1910,876,21.6196,-2.40846
693,148,37.6963,2.35272,0,0,0,0,0,0,0,-1,1917,876,37.6963,-2.35271
700,148,37.7097,2.77759,-0.00178488,-0.000119605,-0.000188063,-9.86302e-05,-0.00180585,-1.45973,0.00117241,0.02909,1924,876,37.7097,-2.7776
707,148,37.8417,3.36102,-0.00183424,-0.000341894,-0.00036665,-0.000256679,-0.00191946,-1.34244,0.00120324,0.0249176,1931,876,37.8417,-3.36105
714,148,37.7351,3.65381,-0.0017403,-0.000216267,-0.000536203,-4.65207e-05,-0.00191005,-1.26421,0.00125814,0.0252807,1938,876,37.7351,-3.65381
721,148,37.5022,4.0202,-0.00189194,-0.000155073,-0.000490914,-2.5923e-05,-0.00202109,-1.31354,0.00133884,0.0197482,1945,876,37.5022,-4.02018
728,148,37.4941,4.4436,-0.00268334,-6.41668e-05,0.000425791,3.31423e-06,-0.00275082,1.41362,0.00183498,0.0204844,1952,876,37.4941,-4.44359
735,148,37.4965,4.90863,-0.00392465,-0.000305848,0.00224605,0.000768964,-0.00499946,1.12447,0.00361665,0.019256,1959,876,37.4964,-4.90866
742,148,37.4628,5.39923,-0.00566709,-0.000600607,0.00475564,0.00225442,-0.00852212,1.03012,0.00656324,0.0209314,1966,876,37.4628,-5.39925
749,148,37.4043,5.82336,-0.00812776,-0.00123118,0.00862138,0.00460595,-0.0139649,0.975638,0.0111665,0.0194422,1973,876,37.4042,-5.82339
756,148,37.3123,6.26807,-0.0112859,-0.00225812,0.0141222,0.00805405,-0.0215981,0.940082,0.0177049,0.023951,1980,876,37.3123,-6.26804
763,148,37.2357,6.83337,-0.0153278,-0.00373574,0.0215046,0.0127402,-0.0318037,0.917033,0.0264909,0.0422948,1987,876,37.2358,-6.83337
770,148,37.3657,7.96069,-0.0205231,-0.00585574,0.0317624,0.0194086,-0.0457875,0.898856,0.0386544,0.0425786,1994,876,37.3658,-7.96072
777,148,36.2773,9.2171,-0.0267047,-0.00863935,0.0453091,0.0285287,-0.0638727,0.883787,0.0546334,0.0463445,2001,876,36.2773,-9.21711
784,148,36.1949,9.99164,-0.03385,-0.0121324,0.0625092,0.0404542,-0.0864366,0.871398,0.0748466,0.0489769,2008,876,36.195,-9.99164
791,148,36.1023,10.5164,0,0,0,0,0,0,0,-1,2015,876,36.1024,-10.5164
798,148,0,0,0,0,0,0,0,0,0,-1,2022,876,0,0
805,148,0,0,0,0,0,0,0,0,0,-1,2029,876,0,0
812,148,0,0,0,0,0,0,0,0,0,-1,2036,876,0,0
-700,141,0,0,0,0,0,0,0,0,0,-1,524,883,0,0
-693,141,0,0,0,0,0,0,0,0,0,-1,531,883,0,0
-686,141,0,0,0,0,0,0,0,0,0,-1,538,883,0,0
-679,141,0,0,0,0,0,0,0,0,0,-1,545,883,0,0
-672,141,-32.0271,3.33704,0,0,0,0,0,0,0,-1,552,883,-32.0271,-3.33701
-665,141,-32.7621,4.28101,0,0,0,0,0,0,0,-1,559,883,-32.7621,-4.28099
-658,141,-32.8097,4.85199,0,0,0,0,0,0,0,-1,566,883,-32.8097,-4.85199
-651,141,-26.8701,4.42352,0,0,0,0,0,0,0,-1,573,883,-26.87,-4.42354
-644,141,-28.4802,2.24866,0,0,0,0,0,0,0,-1,580,883,-28.4802,-2.24866
-637,141,-28.2238,4.97412,0,0,0,0,0,0,0,-1,587,883,-28.2238,-4.97414
-630,141,-27.8479,4.39496,0,0,0,0,0,0,0,-1,594,883,-27.8479,-4.39498
-623,141,-27.3351,3.57965,-0.00857065,0.00801638,0.00846608,0.0115743,-0.0121286,1.17295,0.0136861,0.0292591,601,883,-27.3352,-3.57967
-616,141,-27.4987,3.07257,-0.00570906,0.00709075,0.0061488,0.0095659,-0.00818421,1.1881,0.0102584,0.0130031,608,883,-27.4987,-3.07258
-609,141,-27.564,2.64606,-0.00387446,0.00546143,0.00416474,0.00704926,-0.00546229,1.20655,0.00724289,0.013543,615,883,-27.5639,-2.64604
-602,141,-27.6016,2.23749,-0.00327343,0.00324376,0.00289334,0.00434291,-0.00437258,1.20775,0.00503189,0.0143795,622,883,-27.6016,-2.23751
-595,141,-27.601,1.80249,-0.0029447,0.00111216,0.00280452,0.00254492,-0.00437746,1.09849,0.00404305,0.0137573,629,883,-27.601,-1.80248
-588,141,-27.8455,1.38483,-0.00218284,-0.000355583,0.00225713,0.00116581,-0.00370423,0.977706,0.00293628,0.0255532,636,883,-27.8455,-1.38485
-581,141,-27.7976,1.00787,-0.00141314,-0.00108419,0.00199677,0.000754861,-0.0032522,0.826491,0.00245869,0.0352416,643,883,-27.7976,-1.0079
-574,141,-27.4807,0.74054,-0.00108179,-0.00134755,0.00194948,0.000739334,-0.00316867,0.75137,0.0023972,0.0473899,650,883,-27.4806,-0.740567
-567,141,-27.5469,0.354675,0,0,0,0,0,0,0,-1,657,883,-27.5469,-0.354673
-560,141,-27.5574,0.0740967,0,0,0,0,0,0,0,-1,664,883,-27.5574,-0.0740805
-553,141,-32.0876,1.39459,0,0,0,0,0,0,0,-1,671,883,-32.0876,-1.3946
-546,141,-32.7242,0.766724,0,0,0,0,0,0,0,-1,678,883,-32.7242,-0.766708
-539,141,-32.7514,0.719177,0.000693293,-0.00210719,0.00218269,0.00188628,-0.00330017,0.500203,0.00303126,0.0308055,685,883,-32.7514,-0.719207
-532,141,-32.7841,0.795776,0.000977435,-0.00197883,0.00222064,0.00216691,-0.00316831,0.491754,0.00309832,0.0299894,692,883,-32.7841,-0.795762
-525,141,-32.6839,1.00195,0.000680314,-0.00175911,0.00224013,0.00201126,-0.00309006,0.536099,0.00296712,0.036998,699,883,-32.6839,-1.00197
-518,141,-32.6376,1.10132,0.000392918,-0.00141031,0.00229741,0.0019593,-0.0029767,0.598408,0.00286991,0.0434458,706,883,-32.6376,-1.10133
-511,141,-32.7294,1.10461,0.000698666,-0.000899404,0.0022483,0.00228569,-0.00248643,0.614661,0.002756,0.0431602,713,883,-32.7293,-1.10461
-504,141,-32.792,0.963135,0.00126403,0.000186267,0.00160291,0.00241622,-0.000965917,0.623238,0.00201163,0.0433856,720,883,-32.792,-0.963138
-497,141,0,0,0,0,0,0,0,0,0,-1,727,883,0,0
-490,141,0,0,0,0,0,0,0,0,0,-1,734,883,0,0
-483,141,0,0,0,0,0,0,0,0,0,-1,741,883,0,0
-476,141,0,0,0,0,0,0,0,0,0,-1,748,883,0,0
-469,141,0,0,0,0,0,0,0,0,0,-1,755,883,0,0
-462,141,0,0,0,0,0,0,0,0,0,-1,762,883,0,0
-455,141,0,0,0,0,0,0,0,0,0,-1,769,883,0,0
-448,141,0,0,0,0,0,0,0,0,0,-1,776,883,0,0
-441,141,0,0,0,0,0,0,0,0,0,-1,783,883,0,0
-434,141,0,0,0,0,0,0,0,0,0,-1,790,883,0,0
-427,141,0,0,0,0,0,0,0,0,0,-1,797,883,0,0
-420,141,0,0,0,0,0,0,0,0,0,-1,804,883,0,0
-413,141,0,0,0,0,0,0,0,0,0,-1,811,883,0,0
-406,141,0,0,0,0,0,0,0,0,0,-1,818,883,0,0
-399,141,0,0,0,0,0,0,0,0,0,-1,825,883,0,0
-392,141,0,0,0,0,0,0,0,0,0,-1,832,883,0,0
-385,141,0,0,0,0,0,0,0,0,0,-1,839,883,0,0
-378,141,0,0,0,0,0,0,0,0,0,-1,846,883,0,0
-371,141,0,0,0,0,0,0,0,0,0,-1,853,883,0,0
-364,141,0,0,0,0,0,0,0,0,0,-1,860,883,0,0
-357,141,0,0,0,0,0,0,0,0,0,-1,867,883,0,0
-350,141,0,0,0,0,0,0,0,0,0,-1,874,883,0,0
-343,141,0,0,0,0,0,0,0,0,0,-1,881,883,0,0
-336,141,0,0,0,0,0,0,0,0,0,-1,888,883,0,0
-329,141,0,0,0,0,0,0,0,0,0,-1,895,883,0,0
-322,141,0,0,0,0,0,0,0,0,0,-1,902,883,0,0
-315,141,0,0,0,0,0,0,0,0,0,-1,909,883,0,0
-308,141,0,0,0,0,0,0,0,0,0,-1,916,883,0,0
-301,141,0,0,0,0,0,0,0,0,0,-1,923,883,0,0
-294,141,0,0,0,0,0,0,0,0,0,-1,930,883,0,0
-287,141,0,0,0,0,0,0,0,0,0,-1,937,883,0,0
-280,141,0,0,0,0,0,0,0,0,0,-1,944,883,0,0
-273,141,0,0,0,0,0,0,0,0,0,-1,951,883,0,0
-266,141,0,0,0,0,0,0,0,0,0,-1,958,883,0,0
-259,141,0,0,0,0,0,0,0,0,0,-1,965,883,0,0
-252,141,0,0,0,0,0,0,0,0,0,-1,972,883,0,0
-245,141,0,0,0,0,0,0,0,0,0,-1,979,883,0,0
-238,141,0,0,0,0,0,0,0,0,0,-1,986,883,0,0
-231,141,0,0,0,0,0,0,0,0,0,-1,993,883,0,0
-224,141,0,0,0,0,0,0,0,0,0,-1,1000,883,0,0
-217,141,0,0,0,0,0,0,0,0,0,-1,1007,883,0,0
-210,141,0,0,0,0,0,0,0,0,0,-1,1014,883,0,0
-203,141,0,0,0,0,0,0,0,0,0,-1,1021,883,0,0
-196,141,0,0,0,0,0,0,0,0,0,-1,1028,883,0,0
-189,141,0,0,0,0,0,0,0,0,0,-1,1035,883,0,0
-182,141,0,0,0,0,0,0,0,0,0,-1,1042,883,0,0
-175,141,0,0,0,0,0,0,0,0,0,-1,1049,883,0,0
-168,141,0,0,0,0,0,0,0,0,0,-1,1056,883,0,0
-161,141,0,0,0,0,0,0,0,0,0,-1,1063,883,0,0
-154,141,0,0,0,0,0,0,0,0,0,-1,1070,883,0,0
-147,141,0,0,0,0,0,0,0,0,0,-1,1077,883,0,0
-140,141,0,0,0,0,0,0,0,0,0,-1,1084,883,0,0
-133,141,0,0,0,0,0,0,0,0,0,-1,1091,883,0,0
-126,141,0,0,0,0,0,0,0,0,0,-1,1098,883,0,0
-119,141,0,0,0,0,0,0,0,0,0,-1,1105,883,0,0
-112,141,0,0,0,0,0,0,0,0,0,-1,1112,883,0,0
-105,141,0,0,0,0,0,0,0,0,0,-1,1119,883,0,0
-98,141,0,0,0,0,0,0,0,0,0,-1,1126,883,0,0
-91,141,0,0,0,0,0,0,0,0,0,-1,1133,883,0,0
-84,141,0,0,0,0,0,0,0,0,0,-1,1140,883,0,0
-77,141,0,0,0,0,0,0,0,0,0,-1,1147,883,0,0
-70,141,0,0,0,0,0,0,0,0,0,-1,1154,883,0,0
-63,141,0,0,0,0,0,0,0,0,0,-1,1161,883,0,0
-56,141,0,0,0,0,0,0,0,0,0,-1,1168,883,0,0
-49,141,0,0,0,0,0,0,0,0,0,-1,1175,883,0,0
-42,141,0,0,0,0,0,0,0,0,0,-1,1182,883,0,0
-35,141,0,0,0,0,0,0,0,0,0,-1,1189,883,0,0
-28,141,0,0,0,0,0,0,0,0,0,-1,1196,883,0,0
-21,141,0,0,0,0,0,0,0,0,0,-1,1203,883,0,0
-14,141,0,0,0,0,0,0,0,0,0,-1,1210,883,0,0
-7,141,0,0,0,0,0,0,0,0,0,-1,1217,883,0,0
0,141,0,0,0,0,0,0,0,0,0,-1,1224,883,0,0
7,141,0,0,0,0,0,0,0,0,0,-1,1231,883,0,0
14,141,0,0,0,0,0,0,0,0,0,-1,1238,883,0,0
21,141,0,0,0,0,0,0,0,0,0,-1,1245,883,0,0
28,141,0,0,0,0,0,0,0,0,0,-1,1252,883,0,0
35,141,0,0,0,0,0,0,0,0,0,-1,1259,883,0,0
42,141,0,0,0,0,0,0,0,0,0,-1,1266,883,0,0
49,141,0,0,0,0,0,0,0,0,0,-1,1273,883,0,0
56,141,0,0,0,0,0,0,0,0,0,-1,1280,883,0,0
63,141,0,0,0,0,0,0,0,0,0,-1,1287,883,0,0
70,141,0,0,0,0,0,0,0,0,0,-1,1294,883,0,0
77,141,0,0,0,0,0,0,0,0,0,-1,1301,883,0,0
84,141,0,0,0,0,0,0,0,0,0,-1,1308,883,0,0
91,141,0,0,0,0,0,0,0,0,0,-1,1315,883,0,0
98,141,0,0,0,0,0,0,0,0,0,-1,1322,883,0,0
105,141,0,0,0,0,0,0,0,0,0,-1,1329,883,0,0
112,141,0,0,0,0,0,0,0,0,0,-1,1336,883,0,0
119,141,0,0,0,0,0,0,0,0,0,-1,1343,883,0,0
126,141,0,0,0,0,0,0,0,0,0,-1,1350,883,0,0
133,141,0,0,0,0,0,0,0,0,0,-1,1357,883,0,0
140,141,0,0,0,0,0,0,0,0,0,-1,1364,883,0,0
147,141,0,0,0,0,0,0,0,0,0,-1,1371,883,0,0
154,141,0,0,0,0,0,0,0,0,0,-1,1378,883,0,0
161,141,0,0,0,0,0,0,0,0,0,-1,1385,883,0,0
168,141,0,0,0,0,0,0,0,0,0,-1,1392,883,0,0
175,141,0,0,0,0,0,0,0,0,0,-1,1399,883,0,0
182,141,0,0,0,0,0,0,0,0,0,-1,1406,883,0,0
189,141,0,0,0,0,0,0,0,0,0,-1,1413,883,0,0
196,141,0,0,0,0,0,0,0,0,0,-1,1420,883,0,0
203,141,0,0,0,0,0,0,0,0,0,-1,1427,883,0,0
210,141,0,0,0,0,0,0,0,0,0,-1,1434,883,0,0
217,141,0,0,0,0,0,0,0,0,0,-1,1441,883,0,0
224,141,0,0,0,0,0,0,0,0,0,-1,1448,883,0,0
231,141,0,0,0,0,0,0,0,0,0,-1,1455,883,0,0
238,141,0,0,0,0,0,0,0,0,0,-1,1462,883,0,0
245,141,0,0,0,0,0,0,0,0,0,-1,1469,883,0,0
252,141,0,0,0,0,0,0,0,0,0,-1,1476,883,0,0
259,141,0,0,0,0,0,0,0,0,0,-1,1483,883,0,0
266,141,0,0,0,0,0,0,0,0,0,-1,1490,883,0,0
273,141,0,0,0,0,0,0,0,0,0,-1,1497,883,0,0
280,141,0,0,0,0,0,0,0,0,0,-1,1504,883,0,0
287,141,0,0,0,0,0,0,0,0,0,-1,1511,883,0,0
294,141,0,0,0,0,0,0,0,0,0,-1,1518,883,0,0
301,141,0,0,0,0,0,0,0,0,0,-1,1525,883,0,0
308,141,0,0,0,0,0,0,0,0,0,-1,1532,883,0,0
315,141,0,0,0,0,0,0,0,0,0,-1,1539,883,0,0
322,141,0,0,0,0,0,0,0,0,0,-1,1546,883,0,0
329,141,0,0,0,0,0,0,0,0,0,-1,1553,883,0,0
336,141,0,0,0,0,0,0,0,0,0,-1,1560,883,0,0
343,141,0,0,0,0,0,0,0,0,0,-1,1567,883,0,0
350,141,0,0,0,0,0,0,0,0,0,-1,1574,883,0,0
357,141,0,0,0,0,0,0,0,0,0,-1,1581,883,0,0
364,141,0,0,0,0,0,0,0,0,0,-1,1588,883,0,0
371,141,0,0,0,0,0,0,0,0,0,-1,1595,883,0,0
378,141,0,0,0,0,0,0,0,0,0,-1,1602,883,0,0
385,141,0,0,0,0,0,0,0,0,0,-1,1609,883,0,0
392,141,0,0,0,0,0,0,0,0,0,-1,1616,883,0,0
399,141,0,0,0,0,0,0,0,0,0,-1,1623,883,0,0
406,141,0,0,0,0,0,0,0,0,0,-1,1630,883,0,0
413,141,0,0,0,0,0,0,0,0,0,-1,1637,883,0,0
420,141,0,0,0,0,0,0,0,0,0,-1,1644,883,0,0
427,141,0,0,0,0,0,0,0,0,0,-1,1651,883,0,0
434,141,0,0,0,0,0,0,0,0,0,-1,1658,883,0,0
441,141,0,0,0,0,0,0,0,0,0,-1,1665,883,0,0
448,141,0,0,0,0,0,0,0,0,0,-1,1672,883,0,0
455,141,0,0,0,0,0,0,0,0,0,-1,1679,883,0,0
462,141,0,0,0,0,0,0,0,0,0,-1,1686,883,0,0
469,141,0,0,0,0,0,0,0,0,0,-1,1693,883,0,0
476,141,0,0,0,0,0,0,0,0,0,-1,1700,883,0,0
483,141,0,0,0,0,0,0,0,0,0,-1,1707,883,0,0
490,141,0,0,0,0,0,0,0,0,0,-1,1714,883,0,0
497,141,0,0,0,0,0,0,0,0,0,-1,1721,883,0,0
504,141,0,0,0,0,0,0,0,0,0,-1,1728,883,0,0
511,141,0,0,0,0,0,0,0,0,0,-1,1735,883,0,0
518,141,0,0,0,0,0,0,0,0,0,-1,1742,883,0,0
525,141,0,0,0,0,0,0,0,0,0,-1,1749,883,0,0
532,141,0,0,0,0,0,0,0,0,0,-1,1756,883,0,0
539,141,0,0,0,0,0,0,0,0,0,-1,1763,883,0,0
546,141,0,0,0,0,0,0,0,0,0,-1,1770,883,0,0
553,141,0,0,0,0,0,0,0,0,0,-1,1777,883,0,0
560,141,0,0,0,0,0,0,0,0,0,-1,1784,883,0,0
567,141,0,0,0,0,0,0,0,0,0,-1,1791,883,0,0
574,141,0,0,0,0,0,0,0,0,0,-1,1798,883,0,0
581,141,0,0,0,0,0,0,0,0,0,-1,1805,883,0,0
588,141,0,0,0,0,0,0,0,0,0,-1,1812,883,0,0
595,141,0,0,0,0,0,0,0,0,0,-1,1819,883,0,0
602,141,0,0,0,0,0,0,0,0,0,-1,1826,883,0,0
609,141,0,0,0,0,0,0,0,0,0,-1,1833,883,0,0
616,141,0,0,0,0,0,0,0,0,0,-1,1840,883,0,0
623,141,44.1929,2.64673,-0.00467244,-0.00108391,-0.00621855,0.00359405,-0.0093504,-0.925851,0.00771587,0.0452677,1847,883,44.1929,-2.64674
630,141,44.2147,2.466,-0.0031381,-0.000841321,-0.00435774,0.00251681,-0.00649623,-0.914233,0.00537009,0.0457882,1854,883,44.2147,-2.46602
637,141,44.3391,2.39355,-0.00216099,-0.000231721,-0.00282353,0.00178741,-0.00418012,-0.950003,0.00353646,0.0419586,1861,883,44.3391,-2.39353
644,141,44.2948,2.30994,-0.00175777,0.000265685,-0.00160383,0.00115024,-0.00264232,-1.06678,0.00224541,0.0382286,1868,883,44.2948,-2.30995
651,141,44.3181,2.5376,-0.00159388,0.000503043,-0.000729564,0.000731897,-0.00182273,-1.26683,0.00151908,0.0366304,1875,883,44.3181,-2.53758
658,141,44.2859,2.66418,-0.0017045,0.000471899,-0.00021235,0.000492424,-0.00172503,-1.47444,0.00134456,0.0361067,1882,883,44.2859,-2.66416
665,141,44.1674,2.72021,-0.00178944,0.000370179,-1.68067e-05,0.00037031,-0.00178957,-1.56301,0.00133373,0.0269376,1889,883,44.1673,-2.72021
672,141,44.1633,2.72656,-0.00174015,0.000187967,0.000132813,0.000197072,-0.00174925,1.50234,0.0012371,0.0204996,1896,883,44.1633,-2.72658
679,141,44.0936,2.78448,-0.00158286,5.99453e-06,0.000239066,4.1186e-05,-0.00161805,1.42464,0.00109269,0.0399045,1903,883,44.0937,-2.78451
686,141,44.0085,2.85272,0,0,0,0,0,0,0,-1,1910,883,44.0085,-2.8527
693,141,37.8864,2.1413,0,0,0,0,0,0,0,-1,1917,883,37.8864,-2.14127
700,141,38.1631,2.77063,-0.00177728,-3.56892e-05,3.02873e-05,-3.51627e-05,-0.00177781,1.55341,0.00117366,0.0279214,1924,883,38.1631,-2.77063
707,141,38.129,3.29755,-0.00180874,-6.09501e-05,-0.000192,-4.01067e-05,-0.00182958,-1.46266,0.00120657,0.0245767,1931,883,38.129,-3.29752
714,141,37.9243,3.61084,-0.00166245,0.000182637,-0.000406449,0.000268204,-0.00174802,-1.3633,0.00126427,0.0239928,1938,883,37.9244,-3.61083
721,141,37.9092,4.01868,-0.00173675,0.000321702,-0.000470216,0.000424027,-0.00183908,-1.35652,0.00138914,0.0150345,1945,883,37.9092,-4.01865
728,141,37.9716,4.43091,-0.00241156,0.000621386,0.000194452,0.000633802,-0.00242397,1.50703,0.00186353,0.0157939,1952,883,37.9716,-4.43092
735,141,37.9489,4.95441,-0.00348499,0.000733066,0.0016125,0.00127887,-0.0040308,1.24442,0.00319985,0.0171801,1959,883,37.9488,-4.9544
742,141,37.9181,5.38293,-0.00506453,0.000995375,0.00370282,0.00274993,-0.00681908,1.12829,0.00568874,0.0176642,1966,883,37.918,-5.38292
749,141,37.8967,5.78912,-0.00734644,0.00104781,0.0071024,0.00510053,-0.0113992,1.05227,0.00975473,0.0141642,1973,883,37.8968,-5.78913
756,141,37.856,6.29498,-0.0102903,0.000734158,0.0119914,0.00841963,-0.0179758,1.00084,0.0155688,0.0211045,1980,883,37.856,-6.295
763,141,37.7384,6.80597,-0.0140468,-7.77544e-05,0.0185222,0.0127331,-0.0268577,0.965699,0.0233376,0.0443337,1987,883,37.7383,-6.80595
770,141,37.5966,7.28632,0,0,0,0,0,0,0,-1,1994,883,37.5966,-7.28634
777,141,36.4214,9.28241,0,0,0,0,0,0,0,-1,2001,883,36.4214,-9.28242
784,141,36.8268,10.1112,0,0,0,0,0,0,0,-1,2008,883,36.8268,-10.1112
791,141,35.4685,9.67169,0,0,0,0,0,0,0,-1,2015,883,35.4684,-9.67168
798,141,0,0,0,0,0,0,0,0,0,-1,2022,883,0,0
805,141,0,0,0,0,0,0,0,0,0,-1,2029,883,0,0
812,141,0,0,0,0,0,0,0,0,0,-1,2036,883,0,0
-700,134,0,0,0,0,0,0,0,0,0,-1,524,890,0,0
-693,134,0,0,0,0,0,0,0,0,0,-1,531,890,0,0
-686,134,0,0,0,0,0,0,0,0,0,-1,538,890,0,0
-679,134,0,0,0,0,0,0,0,0,0,-1,545,890,0,0
-672,134,-31.9099,3.664,-0.0579105,-0.0151213,0.0346242,0.00418501,-0.0772168,1.06214,0.052928,0.0468259,552,890,-31.9099,-3.66399
-665,134,-32.3326,4.15088,-0.0445074,-0.0059026,0.0281635,0.00893828,-0.0593482,1.08582,0.0428567,0.043855,559,890,-32.3326,-4.1509
-658,134,-32.6867,4.81049,-0.034281,0.000143923,0.0227052,0.0114235,-0.0455606,1.10973,0.034812,0.0423461,566,890,-32.6867,-4.8105
-651,134,-33.2283,5.46851,0,0,0,0,0,0,0,-1,573,890,-33.2283,-5.46848
-644,134,-29.0103,0.935974,0,0,0,0,0,0,0,-1,580,890,-29.0103,-0.936002
-637,134,-28.7275,0.339355,0,0,0,0,0,0,0,-1,587,890,-28.7275,-0.339377
-630,134,-27.7255,3.76996,0,0,0,0,0,0,0,-1,594,890,-27.7255,-3.76994
-623,134,-27.8176,3.44403,-0.0078021,0.00657801,0.00655871,0.00912005,-0.0103441,1.20104,0.0112451,0.0257187,601,890,-27.8176,-3.44401
-616,134,-27.9533,3.04633,-0.0049053,0.00580811,0.00477702,0.00762875,-0.00672594,1.20667,0.00829314,0.0116622,608,890,-27.9533,-3.0463
-609,134,-28.0176,2.6452,-0.00329669,0.00431873,0.00331479,0.00555944,-0.0045374,1.21265,0.00583936,0.0111831,615,890,-28.0176,-2.64519
-602,134,-28.0237,2.22986,-0.00316547,0.00237696,0.00251737,0.00334965,-0.00413816,1.20208,0.00433107,0.0121316,622,890,-28.0238,-2.22983
-595,134,-27.9803,1.85089,-0.00337421,0.000716286,0.00268836,0.00204895,-0.00470688,1.11058,0.00399984,0.0189819,629,890,-27.9803,-1.85088
-588,134,-28.3744,1.52539,-0.00289859,-0.000513317,0.002197,0.000793884,-0.00420579,1.03407,0.00310253,0.033502,636,890,-28.3744,-1.52536
-581,134,-28.4832,1.12225,0,0,0,0,0,0,0,-1,643,890,-28.4832,-1.12226
-574,134,-28.0373,0.625183,0,0,0,0,0,0,0,-1,650,890,-28.0373,-0.625196
-567,134,-27.8653,0.271667,0,0,0,0,0,0,0,-1,657,890,-27.8653,-0.27167
-560,134,-22.9123,0.106567,0,0,0,0,0,0,0,-1,664,890,-22.9123,-0.106594
-553,134,-32.7498,0.721985,0,0,0,0,0,0,0,-1,671,890,-32.7498,-0.722007
-546,134,-32.7313,0.758362,-0.000246926,-0.00223497,0.00184255,0.000852629,-0.00333453,0.538032,0.0025551,0.0294099,678,890,-32.7313,-0.758332
-539,134,-32.7383,0.780396,0.000125636,-0.0021817,0.00184963,0.0011519,-0.00320797,0.506556,0.0026088,0.0184495,685,890,-32.7383,-0.780418
-532,134,-32.7414,0.865967,0.000498743,-0.0020186,0.00187453,0.00149797,-0.00301783,0.489742,0.00265597,0.0236087,692,890,-32.7414,-0.865977
-525,134,-32.6907,1.03375,0.000290798,-0.00175001,0.00187399,0.00140418,-0.0028634,0.536089,0.00251144,0.0360558,699,890,-32.6907,-1.03378
-518,134,-32.7265,0.999939,1.43096e-05,-0.00140721,0.00183298,0.00126951,-0.00266241,0.600443,0.00231709,0.0435741,706,890,-32.7265,-0.999944
-511,134,-32.6609,0.866211,0.000198635,-0.000884121,0.00165406,0.00139766,-0.00208315,0.627242,0.0020226,0.0458501,713,890,-32.6609,-0.866208
-504,134,0,0,0,0,0,0,0,0,0,-1,720,890,0,0
-497,134,0,0,0,0,0,0,0,0,0,-1,727,890,0,0
-490,134,0,0,0,0,0,0,0,0,0,-1,734,890,0,0
-483,134,0,0,0,0,0,0,0,0,0,-1,741,890,0,0
-476,134,0,0,0,0,0,0,0,0,0,-1,748,890,0,0
-469,134,0,0,0,0,0,0,0,0,0,-1,755,890,0,0
-462,134,0,0,0,0,0,0,0,0,0,-1,762,890,0,0
-455,134,0,0,0,0,0,0,0,0,0,-1,769,890,0,0
-448,134,0,0,0,0,0,0,0,0,0,-1,776,890,0,0
-441,134,0,0,0,0,0,0,0,0,0,-1,783,890,0,0
-434,134,0,0,0,0,0,0,0,0,0,-1,790,890,0,0
-427,134,0,0,0,0,0,0,0,0,0,-1,797,890,0,0
-420,134,0,0,0,0,0,0,0,0,0,-1,804,890,0,0
-413,134,0,0,0,0,0,0,0,0,0,-1,811,890,0,0
-406,134,0,0,0,0,0,0,0,0,0,-1,818,890,0,0
-399,134,0,0,0,0,0,0,0,0,0,-1,825,890,0,0
-392,134,0,0,0,0,0,0,0,0,0,-1,832,890,0,0
-385,134,0,0,0,0,0,0,0,0,0,-1,839,890,0,0
-378,134,0,0,0,0,0,0,0,0,0,-1,846,890,0,0
-371,134,0,0,0,0,0,0,0,0,0,-1,853,890,0,0
-364,134,0,0,0,0,0,0,0,0,0,-1,860,890,0,0
-357,134,0,0,0,0,0,0,0,0,0,-1,867,890,0,0
-350,134,0,0,0,0,0,0,0,0,0,-1,874,890,0,0
-343,134,0,0,0,0,0,0,0,0,0,-1,881,890,0,0
-336,134,0,0,0,0,0,0,0,0,0,-1,888,890,0,0
-329,134,0,0,0,0,0,0,0,0,0,-1,895,890,0,0
-322,134,0,0,0,0,0,0,0,0,0,-1,902,890,0,0
-315,134,0,0,0,0,0,0,0,0,0,-1,909,890,0,0
-308,134,0,0,0,0,0,0,0,0,0,-1,916,890,0,0
-301,134,0,0,0,0,0,0,0,0,0,-1,923,890,0,0
-294,134,0,0,0,0,0,0,0,0,0,-1,930,890,0,0
-287,134,0,0,0,0,0,0,0,0,0,-1,937,890,0,0
-280,134,0,0,0,0,0,0,0,0,0,-1,944,890,0,0
-273,134,0,0,0,0,0,0,0,0,0,-1,951,890,0,0
-266,134,0,0,0,0,0,0,0,0,0,-1,958,890,0,0
-259,134,0,0,0,0,0,0,0,0,0,-1,965,890,0,0
-252,134,0,0,0,0,0,0,0,0,0,-1,972,890,0,0
-245,134,0,0,0,0,0,0,0,0,0,-1,979,890,0,0
-238,134,0,0,0,0,0,0,0,0,0,-1,986,890,0,0
-231,134,0,0,0,0,0,0,0,0,0,-1,993,890,0,0
-224,134,0,0,0,0,0,0,0,0,0,-1,1000,890,0,0
-217,134,0,0,0,0,0,0,0,0,0,-1,1007,890,0,0
-210,134,0,0,0,0,0,0,0,0,0,-1,1014,890,0,0
-203,134,0,0,0,0,0,0,0,0,0,-1,1021,890,0,0
-196,134,0,0,0,0,0,0,0,0,0,-1,1028,890,0,0
-189,134,0,0,0,0,0,0,0,0,0,-1,1035,890,0,0
-182,134,0,0,0,0,0,0,0,0,0,-1,1042,890,0,0
-175,134,0,0,0,0,0,0,0,0,0,-1,1049,890,0,0
-168,134,0,0,0,0,0,0,0,0,0,-1,1056,890,0,0
-161,134,0,0,0,0,0,0,0,0,0,-1,1063,890,0,0
-154,134,0,0,0,0,0,0,0,0,0,-1,1070,890,0,0
-147,134,0,0,0,0,0,0,0,0,0,-1,1077,890,0,0
-140,134,0,0,0,0,0,0,0,0,0,-1,1084,890,0,0
-133,134,0,0,0,0,0,0,0,0,0,-1,1091,890,0,0
-126,134,0,0,0,0,0,0,0,0,0,-1,1098,890,0,0
-119,134,0,0,0,0,0,0,0,0,0,-1,1105,890,0,0
-112,134,0,0,0,0,0,0,0,0,0,-1,1112,890,0,0
-105,134,0,0,0,0,0,0,0,0,0,-1,1119,890,0,0
-98,134,0,0,0,0,0,0,0,0,0,-1,1126,890,0,0
-91,134,0,0,0,0,0,0,0,0,0,-1,1133,890,0,0
-84,134,0,0,0,0,0,0,0,0,0,-1,1140,890,0,0
-77,134,0,0,0,0,0,0,0,0,0,-1,1147,890,0,0
-70,134,0,0,0,0,0,0,0,0,0,-1,1154,890,0,0
-63,134,0,0,0,0,0,0,0,0,0,-1,1161,890,0,0
-56,134,0,0,0,0,0,0,0,0,0,-1,1168,890,0,0
-49,134,0,0,0,0,0,0,0,0,0,-1,1175,890,0,0
-42,134,0,0,0,0,0,0,0,0,0,-1,1182,890,0,0
-35,134,0,0,0,0,0,0,0,0,0,-1,1189,890,0,0
-28,134,0,0,0,0,0,0,0,0,0,-1,1196,890,0,0
-21,134,0,0,0,0,0,0,0,0,0,-1,1203,890,0,0
-14,134,0,0,0,0,0,0,0,0,0,-1,1210,890,0,0
-7,134,0,0,0,0,0,0,0,0,0,-1,1217,890,0,0
0,134,0,0,0,0,0,0,0,0,0,-1,1224,890,0,0
7,134,0,0,0,0,0,0,0,0,0,-1,1231,890,0,0
14,134,0,0,0,0,0,0,0,0,0,-1,1238,890,0,0
21,134,0,0,0,0,0,0,0,0,0,-1,1245,890,0,0
28,134,0,0,0,0,0,0,0,0,0,-1,1252,890,0,0
35,134,0,0,0,0,0,0,0,0,0,-1,1259,890,0,0
42,134,0,0,0,0,0,0,0,0,0,-1,1266,890,0,0
49,134,0,0,0,0,0,0,0,0,0,-1,1273,890,0,0
56,134,0,0,0,0,0,0,0,0,0,-1,1280,890,0,0
63,134,0,0,0,0,0,0,0,0,0,-1,1287,890,0,0
70,134,0,0,0,0,0,0,0,0,0,-1,1294,890,0,0
77,134,0,0,0,0,0,0,0,0,0,-1,1301,890,0,0
84,134,0,0,0,0,0,0,0,0,0,-1,1308,890,0,0
91,134,0,0,0,0,0,0,0,0,0,-1,1315,890,0,0
98,134,0,0,0,0,0,0,0,0,0,-1,1322,890,0,0
105,134,0,0,0,0,0,0,0,0,0,-1,1329,890,0,0
112,134,0,0,0,0,0,0,0,0,0,-1,1336,890,0,0
119,134,0,0,0,0,0,0,0,0,0,-1,1343,890,0,0
126,134,0,0,0,0,0,0,0,0,0,-1,1350,890,0,0
133,134,0,0,0,0,0,0,0,0,0,-1,1357,890,0,0
140,134,0,0,0,0,0,0,0,0,0,-1,1364,890,0,0
147,134,0,0,0,0,0,0,0,0,0,-1,1371,890,0,0
154,134,0,0,0,0,0,0,0,0,0,-1,1378,890,0,0
161,134,0,0,0,0,0,0,0,0,0,-1,1385,890,0,0
168,134,0,0,0,0,0,0,0,0,0,-1,1392,890,0,0
175,134,0,0,0,0,0,0,0,0,0,-1,1399,890,0,0
182,134,0,0,0,0,0,0,0,0,0,-1,1406,890,0,0
189,134,0,0,0,0,0,0,0,0,0,-1,1413,890,0,0
196,134,0,0,0,0,0,0,0,0,0,-1,1420,890,0,0
203,134,0,0,0,0,0,0,0,0,0,-1,1427,890,0,0
210,134,0,0,0,0,0,0,0,0,0,-1,1434,890,0,0
217,134,0,0,0,0,0,0,0,0,0,-1,1441,890,0,0
224,134,0,0,0,0,0,0,0,0,0,-1,1448,890,0,0
231,134,0,0,0,0,0,0,0,0,0,-1,1455,890,0,0
238,134,0,0,0,0,0,0,0,0,0,-1,1462,890,0,0
245,134,0,0,0,0,0,0,0,0,0,-1,1469,890,0,0
252,134,0,0,0,0,0,0,0,0,0,-1,1476,890,0,0
259,134,0,0,0,0,0,0,0,0,0,-1,1483,890,0,0
266,134,0,0,0,0,0,0,0,0,0,-1,1490,890,0,0
273,134,0,0,0,0,0,0,0,0,0,-1,1497,890,0,0
280,134,0,0,0,0,0,0,0,0,0,-1,1504,890,0,0
287,134,0,0,0,0,0,0,0,0,0,-1,1511,890,0,0
294,134,0,0,0,0,0,0,0,0,0,-1,1518,890,0,0
301,134,0,0,0,0,0,0,0,0,0,-1,1525,890,0,0
308,134,0,0,0,0,0,0,0,0,0,-1,1532,890,0,0
315,134,0,0,0,0,0,0,0,0,0,-1,1539,890,0,0
322,134,0,0,0,0,0,0,0,0,0,-1,1546,890,0,0
329,134,0,0,0,0,0,0,0,0,0,-1,1553,890,0,0
336,134,0,0,0,0,0,0,0,0,0,-1,1560,890,0,0
343,134,0,0,0,0,0,0,0,0,0,-1,1567,890,0,0
350,134,0,0,0,0,0,0,0,0,0,-1,1574,890,0,0
357,134,0,0,0,0,0,0,0,0,0,-1,1581,890,0,0
364,134,0,0,0,0,0,0,0,0,0,-1,1588,890,0,0
371,134,0,0,0,0,0,0,0,0,0,-1,1595,890,0,0
378,134,0,0,0,0,0,0,0,0,0,-1,1602,890,0,0
385,134,0,0,0,0,0,0,0,0,0,-1,1609,890,0,0
392,134,0,0,0,0,0,0,0,0,0,-1,1616,890,0,0
399,134,0,0,0,0,0,0,0,0,0,-1,1623,890,0,0
406,134,0,0,0,0,0,0,0,0,0,-1,1630,890,0,0
413,134,0,0,0,0,0,0,0,0,0,-1,1637,890,0,0
420,134,0,0,0,0,0,0,0,0,0,-1,1644,890,0,0
427,134,0,0,0,0,0,0,0,0,0,-1,1651,890,0,0
434,134,0,0,0,0,0,0,0,0,0,-1,1658,890,0,0
441,134,0,0,0,0,0,0,0,0,0,-1,1665,890,0,0
448,134,0,0,0,0,0,0,0,0,0,-1,1672,890,0,0
455,134,0,0,0,0,0,0,0,0,0,-1,1679,890,0,0
462,134,0,0,0,0,0,0,0,0,0,-1,1686,890,0,0
469,134,0,0,0,0,0,0,0,0,0,-1,1693,890,0,0
476,134,0,0,0,0,0,0,0,0,0,-1,1700,890,0,0
483,134,0,0,0,0,0,0,0,0,0,-1,1707,890,0,0
490,134,0,0,0,0,0,0,0,0,0,-1,1714,890,0,0
497,134,0,0,0,0,0,0,0,0,0,-1,1721,890,0,0
504,134,0,0,0,0,0,0,0,0,0,-1,1728,890,0,0
511,134,0,0,0,0,0,0,0,0,0,-1,1735,890,0,0
518,134,0,0,0,0,0,0,0,0,0,-1,1742,890,0,0
525,134,0,0,0,0,0,0,0,0,0,-1,1749,890,0,0
532,134,0,0,0,0,0,0,0,0,0,-1,1756,890,0,0
539,134,0,0,0,0,0,0,0,0,0,-1,1763,890,0,0
546,134,0,0,0,0,0,0,0,0,0,-1,1770,890,0,0
553,134,0,0,0,0,0,0,0,0,0,-1,1777,890,0,0
560,134,0,0,0,0,0,0,0,0,0,-1,1784,890,0,0
567,134,0,0,0,0,0,0,0,0,0,-1,1791,890,0,0
574,134,0,0,0,0,0,0,0,0,0,-1,1798,890,0,0
581,134,0,0,0,0,0,0,0,0,0,-1,1805,890,0,0
588,134,0,0,0,0,0,0,0,0,0,-1,1812,890,0,0
595,134,0,0,0,0,0,0,0,0,0,-1,1819,890,0,0
602,134,0,0,0,0,0,0,0,0,0,-1,1826,890,0,0
609,134,0,0,0,0,0,0,0,0,0,-1,1833,890,0,0
616,134,0,0,0,0,0,0,0,0,0,-1,1840,890,0,0
623,134,44.1705,2.77075,-0.00526577,-0.00207518,-0.00670401,0.00322072,-0.0105617,-0.902206,0.00832502,0.0469818,1847,890,44.1705,-2.77076
630,134,44.1083,2.70905,-0.00358766,-0.00175263,-0.00466141,0.00208071,-0.00742099,-0.882572,0.00576739,0.0447226,1854,890,44.1083,-2.70905
637,134,44.1406,2.58893,-0.00250551,-0.00103829,-0.00312173,0.00143488,-0.00497867,-0.900805,0.00388672,0.0405424,1861,890,44.1407,-2.58892
644,134,44.2338,2.58038,-0.00202511,-0.000366344,-0.00185983,0.000840653,-0.00323211,-0.995137,0.00248286,0.0374971,1868,890,44.2338,-2.5804
651,134,44.3193,2.64069,-0.00182944,9.99539e-05,-0.000884958,0.000444376,-0.00217386,-1.19964,0.00161784,0.0409174,1875,890,44.3193,-2.64068
658,134,44.2549,2.66974,-0.0019054,0.000314079,-0.000232859,0.000338247,-0.00192956,-1.46738,0.00141269,0.0403547,1882,890,44.2549,-2.66973
665,134,44.1824,2.65588,-0.00194334,0.000362221,6.84808e-05,0.000364254,-0.00194537,1.54113,0.00143384,0.0319694,1889,890,44.1823,-2.6559
672,134,44.2036,2.65851,-0.00185762,0.000262557,0.000291069,0.00030179,-0.00189685,1.43681,0.00137624,0.0213687,1896,890,44.2036,-2.65854
679,134,44.1711,2.66632,-0.00168228,0.000119977,0.000419194,0.000212707,-0.00177501,1.35309,0.00126024,0.0199593,1903,890,44.1712,-2.66633
686,134,44.1281,2.70172,0,0,0,0,0,0,0,-1,1910,890,44.128,-2.70171
693,134,34.5778,2.48096,0,0,0,0,0,0,0,-1,1917,890,34.5777,-2.48099
700,134,38.3314,2.58514,0,0,0,0,0,0,0,-1,1924,890,38.3314,-2.58515
707,134,38.0059,2.82855,0,0,0,0,0,0,0,-1,1931,890,38.0059,-2.82853
714,134,38.2168,3.43542,-0.00165375,0.000433353,-0.000230665,0.000458542,-0.00167894,-1.46203,0.0012994,0.0228068,1938,890,38.2168,-3.43542
721,134,38.3969,3.97272,-0.00173269,0.000500762,-0.000351472,0.000554766,-0.00178669,-1.41834,0.00141283,0.0208886,1945,890,38.3968,-3.9727
728,134,38.4388,4.43457,-0.00237022,0.000742538,8.78495e-05,0.000745015,-0.0023727,1.5426,0.00188,0.0179676,1952,890,38.4389,-4.43456
735,134,38.4045,4.94159,-0.003357,0.000893699,0.00103055,0.00113037,-0.00359367,1.34505,0.00284834,0.0247336,1959,890,38.4046,-4.94157
742,134,38.3827,5.40112,-0.0048712,0.00127841,0.00251775,0.00217771,-0.0057705,1.22774,0.0047426,0.0163721,1966,890,38.3827,-5.40115
749,134,38.3999,5.7984,-0.00709427,0.001573,0.00517684,0.00399067,-0.00951193,1.13388,0.00801003,0.0124544,1973,890,38.3999,-5.79841
756,134,38.3485,6.23468,-0.00993519,0.00161988,0.00913845,0.00665397,-0.0149693,1.06729,0.0127882,0.0170243,1980,890,38.3485,-6.23471
763,134,38.2764,6.68713,-0.0134427,0.00130095,0.0144377,0.0101399,-0.0222817,1.02144,0.0191512,0.0388594,1987,890,38.2764,-6.68713
770,134,38.2002,7.12701,0,0,0,0,0,0,0,-1,1994,890,38.2001,-7.12702
777,134,41.8022,6.13672,0,0,0,0,0,0,0,-1,2001,890,41.8022,-6.13672
784,134,44.0518,6.09558,0,0,0,0,0,0,0,-1,2008,890,44.0517,-6.09556
791,134,42.2061,9.63593,0,0,0,0,0,0,0,-1,2015,890,42.2061,-9.63591
798,134,0,0,0,0,0,0,0,0,0,-1,2022,890,0,0
805,134,0,0,0,0,0,0,0,0,0,-1,2029,890,0,0
812,134,0,0,0,0,0,0,0,0,0,-1,2036,890,0,0
-700,127,0,0,0,0,0,0,0,0,0,-1,524,897,0,0
-693,127,0,0,0,0,0,0,0,0,0,-1,531,897,0,0
-686,127,0,0,0,0,0,0,0,0,0,-1,538,897,0,0
-679,127,-30.8856,3.76727,0,0,0,0,0,0,0,-1,545,897,-30.8856,-3.76728
-672,127,-31.7971,4.0285,-0.0562515,-0.0152188,0.0292447,-1.15931e-05,-0.0714587,1.09128,0.0476353,0.0453926,552,897,-31.797,-4.02849
-665,127,-32.3314,4.39307,-0.0427984,-0.00816878,0.0231658,0.00343801,-0.0544052,1.10633,0.0374688,0.0458108,559,897,-32.3314,-4.39306
-658,127,-32.7308,5.04974,-0.0323495,-0.00323919,0.018275,0.0055686,-0.0411573,1.12169,0.0294703,0.0475901,566,897,-32.7309,-5.04974
-651,127,-33.2594,5.69147,0,0,0,0,0,0,0,-1,573,897,-33.2594,-5.69147
-644,127,-29.3811,0.996094,0,0,0,0,0,0,0,-1,580,897,-29.3811,-0.996079
-637,127,-28.6403,2.64978,0,0,0,0,0,0,0,-1,587,897,-28.6403,-2.6498
-630,127,-28.4218,3.13165,-0.00879792,0.00382226,0.00662798,0.00666353,-0.0116392,1.16581,0.0106964,0.0445763,594,897,-28.4218,-3.13165
-623,127,-28.3362,3.40076,-0.00618289,0.00371795,0.00502583,0.00582201,-0.00828694,1.17432,0.00818714,0.0163461,601,897,-28.3363,-3.40075
-616,127,-28.3962,3.02667,-0.00366002,0.00350688,0.00367583,0.00505693,-0.00521008,1.17173,0.00592788,0.00960477,608,897,-28.3962,-3.02667
-609,127,-28.4193,2.63098,-0.00258963,0.00255313,0.00264985,0.00367414,-0.00371063,1.17058,0.00426362,0.0129923,615,897,-28.4193,-2.631
-602,127,-28.4322,2.24957,-0.00313051,0.0012412,0.00221338,0.00216613,-0.00405545,1.17497,0.00364682,0.0148629,622,897,-28.4322,-2.24958
-595,127,-28.4139,1.90173,-0.00388308,0.000136928,0.00257887,0.00139659,-0.00514274,1.11643,0.00397663,0.0242798,629,897,-28.4139,-1.90176
-588,127,-28.5737,1.48132,-0.00365706,-0.000867264,0.00216431,0.00031271,-0.00483703,1.07165,0.00333382,0.032839,636,897,-28.5737,-1.48131
-581,127,-28.4451,1.10144,0,0,0,0,0,0,0,-1,643,897,-28.445,-1.10143
-574,127,-25.2603,0.511169,0,0,0,0,0,0,0,-1,650,897,-25.2603,-0.51117
-567,127,-24.5417,-0.0447388,0,0,0,0,0,0,0,-1,657,897,-24.5417,0.0447226
-560,127,-18.9678,1.21667,0,0,0,0,0,0,0,-1,664,897,-18.9677,-1.2167
-553,127,-32.6915,0.73938,0,0,0,0,0,0,0,-1,671,897,-32.6916,-0.739351
-546,127,-32.6996,0.786011,-0.00092077,-0.00247344,0.00154362,3.07423e-05,-0.00342495,0.552403,0.00229362,0.023568,678,897,-32.6996,-0.786035
-539,127,-32.6924,0.827454,-0.000384191,-0.00243685,0.00150509,0.000411195,-0.00323224,0.486158,0.00230415,0.0198615,685,897,-32.6924,-0.827439
-532,127,-32.6754,0.83551,0.000174771,-0.00229051,0.00148756,0.000874026,-0.00298977,0.439418,0.00233959,0.0162387,692,897,-32.6754,-0.835519
-525,127,-32.6847,0.876526,0.000286034,-0.00203924,0.00142247,0.000960555,-0.00271376,0.442787,0.00220039,0.0339099,699,897,-32.6847,-0.876522
-518,127,-32.8373,1.01672,0.000223734,-0.00178465,0.00123406,0.000810548,-0.00237146,0.443869,0.00190939,0.0425832,706,897,-32.8373,-1.01673
-511,127,-32.6791,0.9599,0.000637441,-0.00127059,0.00091666,0.00100646,-0.00163961,0.382716,0.00154221,0.0422254,713,897,-32.6791,-0.959922
-504,127,0,0,0,0,0,0,0,0,0,-1,720,897,0,0
-497,127,0,0,0,0,0,0,0,0,0,-1,727,897,0,0
-490,127,0,0,0,0,0,0,0,0,0,-1,734,897,0,0
-483,127,0,0,0,0,0,0,0,0,0,-1,741,897,0,0
-476,127,0,0,0,0,0,0,0,0,0,-1,748,897,0,0
-469,127,0,0,0,0,0,0,0,0,0,-1,755,897,0,0
-462,127,0,0,0,0,0,0,0,0,0,-1,762,897,0,0
-455,127,0,0,0,0,0,0,0,0,0,-1,769,897,0,0
-448,127,0,0,0,0,0,0,0,0,0,-1,776,897,0,0
-441,127,0,0,0,0,0,0,0,0,0,-1,783,897,0,0
-434,127,0,0,0,0,0,0,0,0,0,-1,790,897,0,0
-427,127,0,0,0,0,0,0,0,0,0,-1,797,897,0,0
-420,127,0,0,0,0,0,0,0,0,0,-1,804,897,0,0
-413,127,0,0,0,0,0,0,0,0,0,-1,811,897,0,0
-406,127,0,0,0,0,0,0,0,0,0,-1,818,897,0,0
-399,127,0,0,0,0,0,0,0,0,0,-1,825,897,0,0
-392,127,0,0,0,0,0,0,0,0,0,-1,832,897,0,0
-385,127,0,0,0,0,0,0,0,0,0,-1,839,897,0,0
-378,127,0,0,0,0,0,0,0,0,0,-1,846,897,0,0
-371,127,0,0,0,0,0,0,0,0,0,-1,853,897,0,0
-364,127,0,0,0,0,0,0,0,0,0,-1,860,897,0,0
-357,127,0,0,0,0,0,0,0,0,0,-1,867,897,0,0
-350,127,0,0,0,0,0,0,0,0,0,-1,874,897,0,0
-343,127,0,0,0,0,0,0,0,0,0,-1,881,897,0,0
-336,127,0,0,0,0,0,0,0,0,0,-1,888,897,0,0
-329,127,0,0,0,0,0,0,0,0,0,-1,895,897,0,0
-322,127,0,0,0,0,0,0,0,0,0,-1,902,897,0,0
-315,127,0,0,0,0,0,0,0,0,0,-1,909,897,0,0
-308,127,0,0,0,0,0,0,0,0,0,-1,916,897,0,0
-301,127,0,0,0,0,0,0,0,0,0,-1,923,897,0,0
-294,127,0,0,0,0,0,0,0,0,0,-1,930,897,0,0
-287,127,0,0,0,0,0,0,0,0,0,-1,937,897,0,0
-280,127,0,0,0,0,0,0,0,0,0,-1,944,897,0,0
-273,127,0,0,0,0,0,0,0,0,0,-1,951,897,0,0
-266,127,0,0,0,0,0,0,0,0,0,-1,958,897,0,0
-259,127,0,0,0,0,0,0,0,0,0,-1,965,897,0,0
-252,127,0,0,0,0,0,0,0,0,0,-1,972,897,0,0
-245,127,0,0,0,0,0,0,0,0,0,-1,979,897,0,0
-238,127,0,0,0,0,0,0,0,0,0,-1,986,897,0,0
-231,127,0,0,0,0,0,0,0,0,0,-1,993,897,0,0
-224,127,0,0,0,0,0,0,0,0,0,-1,1000,897,0,0
-217,127,0,0,0,0,0,0,0,0,0,-1,1007,897,0,0
-210,127,0,0,0,0,0,0,0,0,0,-1,1014,897,0,0
-203,127,0,0,0,0,0,0,0,0,0,-1,1021,897,0,0
-196,127,0,0,0,0,0,0,0,0,0,-1,1028,897,0,0
-189,127,0,0,0,0,0,0,0,0,0,-1,1035,897,0,0
-182,127,0,0,0,0,0,0,0,0,0,-1,1042,897,0,0
-175,127,0,0,0,0,0,0,0,0,0,-1,1049,897,0,0
-168,127,0,0,0,0,0,0,0,0,0,-1,1056,897,0,0
-161,127,0,0,0,0,0,0,0,0,0,-1,1063,897,0,0
-154,127,0,0,0,0,0,0,0,0,0,-1,1070,897,0,0
-147,127,0,0,0,0,0,0,0,0,0,-1,1077,897,0,0
-140,127,0,0,0,0,0,0,0,0,0,-1,1084,897,0,0
-133,127,0,0,0,0,0,0,0,0,0,-1,1091,897,0,0
-126,127,0,0,0,0,0,0,0,0,0,-1,1098,897,0,0
-119,127,0,0,0,0,0,0,0,0,0,-1,1105,897,0,0
-112,127,0,0,0,0,0,0,0,0,0,-1,1112,897,0,0
-105,127,0,0,0,0,0,0,0,0,0,-1,1119,897,0,0
-98,127,0,0,0,0,0,0,0,0,0,-1,1126,897,0,0
-91,127,0,0,0,0,0,0,0,0,0,-1,1133,897,0,0
-84,127,0,0,0,0,0,0,0,0,0,-1,1140,897,0,0
-77,127,0,0,0,0,0,0,0,0,0,-1,1147,897,0,0
-70,127,0,0,0,0,0,0,0,0,0,-1,1154,897,0,0
-63,127,0,0,0,0,0,0,0,0,0,-1,1161,897,0,0
-56,127,0,0,0,0,0,0,0,0,0,-1,1168,897,0,0
-49,127,0,0,0,0,0,0,0,0,0,-1,1175,897,0,0
-42,127,0,0,0,0,0,0,0,0,0,-1,1182,897,0,0
-35,127,0,0,0,0,0,0,0,0,0,-1,1189,897,0,0
-28,127,0,0,0,0,0,0,0,0,0,-1,1196,897,0,0
-21,127,0,0,0,0,0,0,0,0,0,-1,1203,897,0,0
-14,127,0,0,0,0,0,0,0,0,0,-1,1210,897,0,0
-7,127,0,0,0,0,0,0,0,0,0,-1,1217,897,0,0
0,127,0,0,0,0,0,0,0,0,0,-1,1224,897,0,0
7,127,0,0,0,0,0,0,0,0,0,-1,1231,897,0,0
14,127,0,0,0,0,0,0,0,0,0,-1,1238,897,0,0
21,127,0,0,0,0,0,0,0,0,0,-1,1245,897,0,0
28,127,0,0,0,0,0,0,0,0,0,-1,1252,897,0,0
35,127,0,0,0,0,0,0,0,0,0,-1,1259,897,0,0
42,127,0,0,0,0,0,0,0,0,0,-1,1266,897,0,0
49,127,0,0,0,0,0,0,0,0,0,-1,1273,897,0,0
56,127,0,0,0,0,0,0,0,0,0,-1,1280,897,0,0
63,127,0,0,0,0,0,0,0,0,0,-1,1287,897,0,0
70,127,0,0,0,0,0,0,0,0,0,-1,1294,897,0,0
77,127,0,0,0,0,0,0,0,0,0,-1,1301,897,0,0
84,127,0,0,0,0,0,0,0,0,0,-1,1308,897,0,0
91,127,0,0,0,0,0,0,0,0,0,-1,1315,897,0,0
98,127,0,0,0,0,0,0,0,0,0,-1,1322,897,0,0
105,127,0,0,0,0,0,0,0,0,0,-1,1329,897,0,0
112,127,0,0,0,0,0,0,0,0,0,-1,1336,897,0,0
119,127,0,0,0,0,0,0,0,0,0,-1,1343,897,0,0
126,127,0,0,0,0,0,0,0,0,0,-1,1350,897,0,0
133,127,0,0,0,0,0,0,0,0,0,-1,1357,897,0,0
140,127,0,0,0,0,0,0,0,0,0,-1,1364,897,0,0
147,127,0,0,0,0,0,0,0,0,0,-1,1371,897,0,0
154,127,0,0,0,0,0,0,0,0,0,-1,1378,897,0,0
161,127,0,0,0,0,0,0,0,0,0,-1,1385,897,0,0
168,127,0,0,0,0,0,0,0,0,0,-1,1392,897,0,0
175,127,0,0,0,0,0,0,0,0,0,-1,1399,897,0,0
182,127,0,0,0,0,0,0,0,0,0,-1,1406,897,0,0
189,127,0,0,0,0,0,0,0,0,0,-1,1413,897,0,0
196,127,0,0,0,0,0,0,0,0,0,-1,1420,897,0,0
203,127,0,0,0,0,0,0,0,0,0,-1,1427,897,0,0
210,127,0,0,0,0,0,0,0,0,0,-1,1434,897,0,0
217,127,0,0,0,0,0,0,0,0,0,-1,1441,897,0,0
224,127,0,0,0,0,0,0,0,0,0,-1,1448,897,0,0
231,127,0,0,0,0,0,0,0,0,0,-1,1455,897,0,0
238,127,0,0,0,0,0,0,0,0,0,-1,1462,897,0,0
245,127,0,0,0,0,0,0,0,0,0,-1,1469,897,0,0
252,127,0,0,0,0,0,0,0,0,0,-1,1476,897,0,0
259,127,0,0,0,0,0,0,0,0,0,-1,1483,897,0,0
266,127,0,0,0,0,0,0,0,0,0,-1,1490,897,0,0
273,127,0,0,0,0,0,0,0,0,0,-1,1497,897,0,0
280,127,0,0,0,0,0,0,0,0,0,-1,1504,897,0,0
287,127,0,0,0,0,0,0,0,0,0,-1,1511,897,0,0
294,127,0,0,0,0,0,0,0,0,0,-1,1518,897,0,0
301,127,0,0,0,0,0,0,0,0,0,-1,1525,897,0,0
308,127,0,0,0,0,0,0,0,0,0,-1,1532,897,0,0
315,127,0,0,0,0,0,0,0,0,0,-1,1539,897,0,0
322,127,0,0,0,0,0,0,0,0,0,-1,1546,897,0,0
329,127,0,0,0,0,0,0,0,0,0,-1,1553,897,0,0
336,127,0,0,0,0,0,0,0,0,0,-1,1560,897,0,0
343,127,0,0,0,0,0,0,0,0,0,-1,1567,897,0,0
350,127,0,0,0,0,0,0,0,0,0,-1,1574,897,0,0
357,127,0,0,0,0,0,0,0,0,0,-1,1581,897,0,0
364,127,0,0,0,0,0,0,0,0,0,-1,1588,897,0,0
371,127,0,0,0,0,0,0,0,0,0,-1,1595,897,0,0
378,127,0,0,0,0,0,0,0,0,0,-1,1602,897,0,0
385,127,0,0,0,0,0,0,0,0,0,-1,1609,897,0,0
392,127,0,0,0,0,0,0,0,0,0,-1,1616,897,0,0
399,127,0,0,0,0,0,0,0,0,0,-1,1623,897,0,0
406,127,0,0,0,0,0,0,0,0,0,-1,1630,897,0,0
413,127,0,0,0,0,0,0,0,0,0,-1,1637,897,0,0
420,127,0,0,0,0,0,0,0,0,0,-1,1644,897,0,0
427,127,0,0,0,0,0,0,0,0,0,-1,1651,897,0,0
434,127,0,0,0,0,0,0,0,0,0,-1,1658,897,0,0
441,127,0,0,0,0,0,0,0,0,0,-1,1665,897,0,0
448,127,0,0,0,0,0,0,0,0,0,-1,1672,897,0,0
455,127,0,0,0,0,0,0,0,0,0,-1,1679,897,0,0
462,127,0,0,0,0,0,0,0,0,0,-1,1686,897,0,0
469,127,0,0,0,0,0,0,0,0,0,-1,1693,897,0,0
476,127,0,0,0,0,0,0,0,0,0,-1,1700,897,0,0
483,127,0,0,0,0,0,0,0,0,0,-1,1707,897,0,0
490,127,0,0,0,0,0,0,0,0,0,-1,1714,897,0,0
497,127,0,0,0,0,0,0,0,0,0,-1,1721,897,0,0
504,127,0,0,0,0,0,0,0,0,0,-1,1728,897,0,0
511,127,0,0,0,0,0,0,0,0,0,-1,1735,897,0,0
518,127,0,0,0,0,0,0,0,0,0,-1,1742,897,0,0
525,127,0,0,0,0,0,0,0,0,0,-1,1749,897,0,0
532,127,0,0,0,0,0,0,0,0,0,-1,1756,897,0,0
539,127,0,0,0,0,0,0,0,0,0,-1,1763,897,0,0
546,127,0,0,0,0,0,0,0,0,0,-1,1770,897,0,0
553,127,0,0,0,0,0,0,0,0,0,-1,1777,897,0,0
560,127,0,0,0,0,0,0,0,0,0,-1,1784,897,0,0
567,127,0,0,0,0,0,0,0,0,0,-1,1791,897,0,0
574,127,0,0,0,0,0,0,0,0,0,-1,1798,897,0,0
581,127,0,0,0,0,0,0,0,0,0,-1,1805,897,0,0
588,127,0,0,0,0,0,0,0,0,0,-1,1812,897,0,0
595,127,0,0,0,0,0,0,0,0,0,-1,1819,897,0,0
602,127,0,0,0,0,0,0,0,0,0,-1,1826,897,0,0
609,127,0,0,0,0,0,0,0,0,0,-1,1833,897,0,0
616,127,0,0,0,0,0,0,0,0,0,-1,1840,897,0,0
623,127,0,0,0,0,0,0,0,0,0,-1,1847,897,0,0
630,127,44.0752,2.71277,-0.00426901,-0.00212673,-0.00529788,0.00220721,-0.00860295,-0.885145,0.00659532,0.0409129,1854,897,44.0752,-2.71274
637,127,43.9869,2.64886,-0.00306189,-0.00142399,-0.00363707,0.00148519,-0.00597107,-0.896135,0.00455717,0.0372038,1861,897,43.9869,-2.64884
644,127,44.1621,2.51062,-0.00246482,-0.000691647,-0.00225608,0.000845797,-0.00400227,-0.972617,0.00299025,0.037479,1868,897,44.1621,-2.51064
651,127,44.2802,2.43103,-0.00219549,-5.81871e-05,-0.0011418,0.00043704,-0.00269072,-1.16156,0.00195584,0.0408153,1875,897,44.2801,-2.43102
658,127,44.257,2.5307,-0.0021824,0.000396826,-0.000331283,0.000438697,-0.00222428,-1.44507,0.00164865,0.042547,1882,897,44.2569,-2.53068
665,127,44.1997,2.6178,-0.00215056,0.000612797,9.75445e-05,0.000616236,-0.002154,1.53556,0.00167953,0.03868,1889,897,44.1997,-2.61778
672,127,44.2285,2.61255,-0.00200133,0.000610375,0.000403997,0.000671441,-0.0020624,1.42078,0.00164507,0.0335196,1896,897,44.2286,-2.61254
679,127,44.2329,2.63147,-0.00178206,0.000513783,0.000564168,0.000644927,-0.00191321,1.3424,0.00153625,0.025145,1903,897,44.2329,-2.63149
686,127,44.1702,2.65686,-0.00163716,0.000461185,0.000593599,0.000617467,-0.00179344,1.31336,0.00144608,0.0422689,1910,897,44.1701,-2.65686
693,127,44.0179,2.67975,0,0,0,0,0,0,0,-1,1917,897,44.0179,-2.67978
700,127,38.6726,2.56683,0,0,0,0,0,0,0,-1,1924,897,38.6726,-2.56685
707,127,38.5884,2.98657,0,0,0,0,0,0,0,-1,1931,897,38.5884,-2.98658
714,127,38.7957,3.47906,-0.00167041,0.000782127,-0.000101654,0.000786333,-0.00167462,-1.52944,0.00145135,0.0224325,1938,897,38.7956,-3.47904
721,127,38.9784,4.0802,-0.0017725,0.00077078,-0.000251124,0.00079534,-0.00179706,-1.47331,0.00153352,0.0198673,1945,897,38.9784,-4.08021
728,127,38.9069,4.47833,-0.00237718,0.000945901,2.30641e-05,0.000946061,-0.00237734,1.56386,0.00197719,0.0167909,1952,897,38.9068,-4.47832
735,127,38.8586,4.93646,-0.00328935,0.00112569,0.000550443,0.00119328,-0.00335694,1.44861,0.00272428,0.0203618,1959,897,38.8586,-4.93644
742,127,38.8527,5.38678,-0.00476558,0.00167565,0.0014478,0.00198611,-0.00507604,1.35956,0.00420542,0.0182089,1966,897,38.8527,-5.38678
749,127,38.8489,5.79907,-0.00693879,0.00227878,0.00335635,0.0033714,-0.00803141,1.25608,0.00676419,0.013165,1973,897,38.8489,-5.79904
756,127,38.7954,6.18018,-0.00968096,0.00281257,0.00637104,0.00548837,-0.0123568,1.17317,0.0105542,0.015529,1980,897,38.7955,-6.18016
763,127,38.7299,6.56445,-0.0129033,0.00316839,0.0104199,0.00829115,-0.0180261,1.11387,0.0155369,0.0254977,1987,897,38.7299,-6.56447
770,127,38.6901,6.95197,0,0,0,0,0,0,0,-1,1994,897,38.6901,-6.95195
777,127,42.703,5.33789,0,0,0,0,0,0,0,-1,2001,897,42.7031,-5.33791
784,127,42.6145,8.47131,0,0,0,0,0,0,0,-1,2008,897,42.6146,-8.47131
791,127,42.238,8.97205,0,0,0,0,0,0,0,-1,2015,897,42.2381,-8.97204
798,127,0,0,0,0,0,0,0,0,0,-1,2022,897,0,0
805,127,0,0,0,0,0,0,0,0,0,-1,2029,897,0,0
812,127,0,0,0,0,0,0,0,0,0,-1,2036,897,0,0
-700,120,0,0,0,0,0,0,0,0,0,-1,524,904,0,0
-693,120,0,0,0,0,0,0,0,0,0,-1,531,904,0,0
-686,120,0,0,0,0,0,0,0,0,0,-1,538,904,0,0
-679,120,-30.7464,3.828,0,0,0,0,0,0,0,-1,545,904,-30.7464,-3.82801
-672,120,-31.6151,4.30103,-0.056586,-0.0140494,0.0237045,-0.0034705,-0.0671649,1.15104,0.0436657,0.0417331,552,904,-31.6151,-4.30102
-665,120,-32.4675,4.73322,-0.0426307,-0.00827368,0.0180752,-0.000515997,-0.0503884,1.16538,0.0334216,0.0463883,559,904,-32.4675,-4.73322
-658,120,-33.3765,5.32861,-0.0315898,-0.00413835,0.0137246,0.00154625,-0.0372744,1.17812,0.0253808,0.0464031,566,904,-33.3765,-5.32862
-651,120,-34.3669,5.85089,0,0,0,0,0,0,0,-1,573,904,-34.3669,-5.85086
-644,120,-30.1328,3.28546,0,0,0,0,0,0,0,-1,580,904,-30.1328,-3.28547
-637,120,-29.4306,3.57111,-0.0108863,0.00166932,0.00581995,0.00395204,-0.013169,1.19701,0.0103513,0.0459093,587,904,-29.4306,-3.57108
-630,120,-28.74,3.75195,-0.00714969,0.00224758,0.00443233,0.00400826,-0.00891036,1.19268,0.00763546,0.0291962,594,904,-28.74,-3.75198
-623,120,-28.8004,3.39246,-0.0047984,0.00233448,0.00334789,0.00365965,-0.00612357,1.1939,0.00570775,0.0123051,601,904,-28.8003,-3.39247
-616,120,-28.8182,3.00647,-0.0026862,0.00228252,0.00243414,0.00327624,-0.00367993,1.1832,0.0040184,0.0102182,608,904,-28.8182,-3.00646
-609,120,-28.8296,2.63196,-0.00217902,0.0014894,0.00188048,0.00228207,-0.00297169,1.17187,0.00304196,0.0133275,615,904,-28.8296,-2.63198
-602,120,-28.8569,2.26416,-0.00331844,0.000446783,0.00178405,0.00115783,-0.00402948,1.19153,0.00314415,0.014987,622,904,-28.8569,-2.26419
-595,120,-28.84,1.96149,-0.00454737,-0.000368287,0.00234702,0.000684571,-0.00560023,1.14911,0.00398134,0.0260738,629,904,-28.84,-1.96151
-588,120,-28.8445,1.50153,-0.00456084,-0.00124205,0.00202948,-0.000279924,-0.00552297,1.1281,0.00359231,0.0368432,636,904,-28.8445,-1.5015
-581,120,-28.6732,0.941284,0,0,0,0,0,0,0,-1,643,904,-28.6732,-0.9413
-574,120,-27.5438,0.505066,0,0,0,0,0,0,0,-1,650,904,-27.5438,-0.505085
-567,120,-25.2822,-0.410645,0,0,0,0,0,0,0,-1,657,904,-25.2821,0.410629
-560,120,-27.3358,1.10327,0,0,0,0,0,0,0,-1,664,904,-27.3358,-1.10324
-553,120,-32.6602,0.788391,0,0,0,0,0,0,0,-1,671,904,-32.6602,-0.78841
-546,120,-32.6792,0.752075,-0.00172292,-0.00252681,0.00130259,-0.000761666,-0.00348806,0.635746,0.00211764,0.0315785,678,904,-32.6792,-0.752078
-539,120,-32.6744,0.802307,-0.000958484,-0.00243671,0.00121722,-0.000273551,-0.00312164,0.512544,0.00199617,0.0237259,685,904,-32.6744,-0.802312
-532,120,-32.624,0.771118,-9.8563e-05,-0.00220499,0.00112187,0.000387004,-0.00269056,0.408476,0.00193564,0.0268775,692,904,-32.624,-0.77112
-525,120,-32.825,0.957153,0.00047675,-0.00180448,0.000898505,0.000788139,-0.00211587,0.333609,0.00173406,0.0369538,699,904,-32.825,-0.957148
-518,120,-32.972,1.03217,0.000521539,-0.00141343,0.000394293,0.000598801,-0.00149069,0.193497,0.00124246,0.0384957,706,904,-32.972,-1.03218
-511,120,-32.7549,1.13055,0.00109163,-0.000689072,-0.000241428,0.00112378,-0.000721224,-0.132397,0.00107363,0.0374448,713,904,-32.7549,-1.13054
-504,120,0,0,0,0,0,0,0,0,0,-1,720,904,0,0
-497,120,0,0,0,0,0,0,0,0,0,-1,727,904,0,0
-490,120,0,0,0,0,0,0,0,0,0,-1,734,904,0,0
-483,120,0,0,0,0,0,0,0,0,0,-1,741,904,0,0
-476,120,0,0,0,0,0,0,0,0,0,-1,748,904,0,0
-469,120,0,0,0,0,0,0,0,0,0,-1,755,904,0,0
-462,120,0,0,0,0,0,0,0,0,0,-1,762,904,0,0
-455,120,0,0,0,0,0,0,0,0,0,-1,769,904,0,0
-448,120,0,0,0,0,0,0,0,0,0,-1,776,904,0,0
-441,120,0,0,0,0,0,0,0,0,0,-1,783,904,0,0
-434,120,0,0,0,0,0,0,0,0,0,-1,790,904,0,0
-427,120,0,0,0,0,0,0,0,0,0,-1,797,904,0,0
-420,120,0,0,0,0,0,0,0,0,0,-1,804,904,0,0
-413,120,0,0,0,0,0,0,0,0,0,-1,811,904,0,0
-406,120,0,0,0,0,0,0,0,0,0,-1,818,904,0,0
-399,120,0,0,0,0,0,0,0,0,0,-1,825,904,0,0
-392,120,0,0,0,0,0,0,0,0,0,-1,832,904,0,0
-385,120,0,0,0,0,0,0,0,0,0,-1,839,904,0,0
-378,120,0,0,0,0,0,0,0,0,0,-1,846,904,0,0
-371,120,0,0,0,0,0,0,0,0,0,-1,853,904,0,0
-364,120,0,0,0,0,0,0,0,0,0,-1,860,904,0,0
-357,120,0,0,0,0,0,0,0,0,0,-1,867,904,0,0
-350,120,0,0,0,0,0,0,0,0,0,-1,874,904,0,0
-343,120,0,0,0,0,0,0,0,0,0,-1,881,904,0,0
-336,120,0,0,0,0,0,0,0,0,0,-1,888,904,0,0
-329,120,0,0,0,0,0,0,0,0,0,-1,895,904,0,0
-322,120,0,0,0,0,0,0,0,0,0,-1,902,904,0,0
-315,120,0,0,0,0,0,0,0,0,0,-1,909,904,0,0
-308,120,0,0,0,0,0,0,0,0,0,-1,916,904,0,0
-301,120,0,0,0,0,0,0,0,0,0,-1,923,904,0,0
-294,120,0,0,0,0,0,0,0,0,0,-1,930,904,0,0
-287,120,0,0,0,0,0,0,0,0,0,-1,937,904,0,0
-280,120,0,0,0,0,0,0,0,0,0,-1,944,904,0,0
-273,120,0,0,0,0,0,0,0,0,0,-1,951,904,0,0
-266,120,0,0,0,0,0,0,0,0,0,-1,958,904,0,0
-259,120,0,0,0,0,0,0,0,0,0,-1,965,904,0,0
-252,120,0,0,0,0,0,0,0,0,0,-1,972,904,0,0
-245,120,0,0,0,0,0,0,0,0,0,-1,979,904,0,0
-238,120,0,0,0,0,0,0,0,0,0,-1,986,904,0,0
-231,120,0,0,0,0,0,0,0,0,0,-1,993,904,0,0
-224,120,0,0,0,0,0,0,0,0,0,-1,1000,904,0,0
-217,120,0,0,0,0,0,0,0,0,0,-1,1007,904,0,0
-210,120,0,0,0,0,0,0,0,0,0,-1,1014,904,0,0
-203,120,0,0,0,0,0,0,0,0,0,-1,1021,904,0,0
-196,120,0,0,0,0,0,0,0,0,0,-1,1028,904,0,0
-189,120,0,0,0,0,0,0,0,0,0,-1,1035,904,0,0
-182,120,0,0,0,0,0,0,0,0,0,-1,1042,904,0,0
-175,120,0,0,0,0,0,0,0,0,0,-1,1049,904,0,0
-168,120,0,0,0,0,0,0,0,0,0,-1,1056,904,0,0
-161,120,0,0,0,0,0,0,0,0,0,-1,1063,904,0,0
-154,120,0,0,0,0,0,0,0,0,0,-1,1070,904,0,0
-147,120,0,0,0,0,0,0,0,0,0,-1,1077,904,0,0
-140,120,0,0,0,0,0,0,0,0,0,-1,1084,904,0,0
-133,120,0,0,0,0,0,0,0,0,0,-1,1091,904,0,0
-126,120,0,0,0,0,0,0,0,0,0,-1,1098,904,0,0
-119,120,0,0,0,0,0,0,0,0,0,-1,1105,904,0,0
-112,120,0,0,0,0,0,0,0,0,0,-1,1112,904,0,0
-105,120,0,0,0,0,0,0,0,0,0,-1,1119,904,0,0
-98,120,0,0,0,0,0,0,0,0,0,-1,1126,904,0,0
-91,120,0,0,0,0,0,0,0,0,0,-1,1133,904,0,0
-84,120,0,0,0,0,0,0,0,0,0,-1,1140,904,0,0
-77,120,0,0,0,0,0,0,0,0,0,-1,1147,904,0,0
-70,120,0,0,0,0,0,0,0,0,0,-1,1154,904,0,0
-63,120,0,0,0,0,0,0,0,0,0,-1,1161,904,0,0
-56,120,0,0,0,0,0,0,0,0,0,-1,1168,904,0,0
-49,120,0,0,0,0,0,0,0,0,0,-1,1175,904,0,0
-42,120,0,0,0,0,0,0,0,0,0,-1,1182,904,0,0
-35,120,0,0,0,0,0,0,0,0,0,-1,1189,904,0,0
-28,120,0,0,0,0,0,0,0,0,0,-1,1196,904,0,0
-21,120,0,0,0,0,0,0,0,0,0,-1,1203,904,0,0
-14,120,0,0,0,0,0,0,0,0,0,-1,1210,904,0,0
-7,120,0,0,0,0,0,0,0,0,0,-1,1217,904,0,0
0,120,0,0,0,0,0,0,0,0,0,-1,1224,904,0,0
7,120,0,0,0,0,0,0,0,0,0,-1,1231,904,0,0
14,120,0,0,0,0,0,0,0,0,0,-1,1238,904,0,0
21,120,0,0,0,0,0,0,0,0,0,-1,1245,904,0,0
28,120,0,0,0,0,0,0,0,0,0,-1,1252,904,0,0
35,120,0,0,0,0,0,0,0,0,0,-1,1259,904,0,0
42,120,0,0,0,0,0,0,0,0,0,-1,1266,904,0,0
49,120,0,0,0,0,0,0,0,0,0,-1,1273,904,0,0
56,120,0,0,0,0,0,0,0,0,0,-1,1280,904,0,0
63,120,0,0,0,0,0,0,0,0,0,-1,1287,904,0,0
70,120,0,0,0,0,0,0,0,0,0,-1,1294,904,0,0
77,120,0,0,0,0,0,0,0,0,0,-1,1301,904,0,0
84,120,0,0,0,0,0,0,0,0,0,-1,1308,904,0,0
91,120,0,0,0,0,0,0,0,0,0,-1,1315,904,0,0
98,120,0,0,0,0,0,0,0,0,0,-1,1322,904,0,0
105,120,0,0,0,0,0,0,0,0,0,-1,1329,904,0,0
112,120,0,0,0,0,0,0,0,0,0,-1,1336,904,0,0
119,120,0,0,0,0,0,0,0,0,0,-1,1343,904,0,0
126,120,0,0,0,0,0,0,0,0,0,-1,1350,904,0,0
133,120,0,0,0,0,0,0,0,0,0,-1,1357,904,0,0
140,120,0,0,0,0,0,0,0,0,0,-1,1364,904,0,0
147,120,0,0,0,0,0,0,0,0,0,-1,1371,904,0,0
154,120,0,0,0,0,0,0,0,0,0,-1,1378,904,0,0
161,120,0,0,0,0,0,0,0,0,0,-1,1385,904,0,0
168,120,0,0,0,0,0,0,0,0,0,-1,1392,904,0,0
175,120,0,0,0,0,0,0,0,0,0,-1,1399,904,0,0
182,120,0,0,0,0,0,0,0,0,0,-1,1406,904,0,0
189,120,0,0,0,0,0,0,0,0,0,-1,1413,904,0,0
196,120,0,0,0,0,0,0,0,0,0,-1,1420,904,0,0
203,120,0,0,0,0,0,0,0,0,0,-1,1427,904,0,0
210,120,0,0,0,0,0,0,0,0,0,-1,1434,904,0,0
217,120,0,0,0,0,0,0,0,0,0,-1,1441,904,0,0
224,120,0,0,0,0,0,0,0,0,0,-1,1448,904,0,0
231,120,0,0,0,0,0,0,0,0,0,-1,1455,904,0,0
238,120,0,0,0,0,0,0,0,0,0,-1,1462,904,0,0
245,120,0,0,0,0,0,0,0,0,0,-1,1469,904,0,0
252,120,0,0,0,0,0,0,0,0,0,-1,1476,904,0,0
259,120,0,0,0,0,0,0,0,0,0,-1,1483,904,0,0
266,120,0,0,0,0,0,0,0,0,0,-1,1490,904,0,0
273,120,0,0,0,0,0,0,0,0,0,-1,1497,904,0,0
280,120,0,0,0,0,0,0,0,0,0,-1,1504,904,0,0
287,120,0,0,0,0,0,0,0,0,0,-1,1511,904,0,0
294,120,0,0,0,0,0,0,0,0,0,-1,1518,904,0,0
301,120,0,0,0,0,0,0,0,0,0,-1,1525,904,0,0
308,120,0,0,0,0,0,0,0,0,0,-1,1532,904,0,0
315,120,0,0,0,0,0,0,0,0,0,-1,1539,904,0,0
322,120,0,0,0,0,0,0,0,0,0,-1,1546,904,0,0
329,120,0,0,0,0,0,0,0,0,0,-1,1553,904,0,0
336,120,0,0,0,0,0,0,0,0,0,-1,1560,904,0,0
343,120,0,0,0,0,0,0,0,0,0,-1,1567,904,0,0
350,120,0,0,0,0,0,0,0,0,0,-1,1574,904,0,0
357,120,0,0,0,0,0,0,0,0,0,-1,1581,904,0,0
364,120,0,0,0,0,0,0,0,0,0,-1,1588,904,0,0
371,120,0,0,0,0,0,0,0,0,0,-1,1595,904,0,0
378,120,0,0,0,0,0,0,0,0,0,-1,1602,904,0,0
385,120,0,0,0,0,0,0,0,0,0,-1,1609,904,0,0
392,120,0,0,0,0,0,0,0,0,0,-1,1616,904,0,0
399,120,0,0,0,0,0,0,0,0,0,-1,1623,904,0,0
406,120,0,0,0,0,0,0,0,0,0,-1,1630,904,0,0
413,120,0,0,0,0,0,0,0,0,0,-1,1637,904,0,0
420,120,0,0,0,0,0,0,0,0,0,-1,1644,904,0,0
427,120,0,0,0,0,0,0,0,0,0,-1,1651,904,0,0
434,120,0,0,0,0,0,0,0,0,0,-1,1658,904,0,0
441,120,0,0,0,0,0,0,0,0,0,-1,1665,904,0,0
448,120,0,0,0,0,0,0,0,0,0,-1,1672,904,0,0
455,120,0,0,0,0,0,0,0,0,0,-1,1679,904,0,0
462,120,0,0,0,0,0,0,0,0,0,-1,1686,904,0,0
469,120,0,0,0,0,0,0,0,0,0,-1,1693,904,0,0
476,120,0,0,0,0,0,0,0,0,0,-1,1700,904,0,0
483,120,0,0,0,0,0,0,0,0,0,-1,1707,904,0,0
490,120,0,0,0,0,0,0,0,0,0,-1,1714,904,0,0
497,120,0,0,0,0,0,0,0,0,0,-1,1721,904,0,0
504,120,0,0,0,0,0,0,0,0,0,-1,1728,904,0,0
511,120,0,0,0,0,0,0,0,0,0,-1,1735,904,0,0
518,120,0,0,0,0,0,0,0,0,0,-1,1742,904,0,0
525,120,0,0,0,0,0,0,0,0,0,-1,1749,904,0,0
532,120,0,0,0,0,0,0,0,0,0,-1,1756,904,0,0
539,120,0,0,0,0,0,0,0,0,0,-1,1763,904,0,0
546,120,0,0,0,0,0,0,0,0,0,-1,1770,904,0,0
553,120,0,0,0,0,0,0,0,0,0,-1,1777,904,0,0
560,120,0,0,0,0,0,0,0,0,0,-1,1784,904,0,0
567,120,0,0,0,0,0,0,0,0,0,-1,1791,904,0,0
574,120,0,0,0,0,0,0,0,0,0,-1,1798,904,0,0
581,120,0,0,0,0,0,0,0,0,0,-1,1805,904,0,0
588,120,0,0,0,0,0,0,0,0,0,-1,1812,904,0,0
595,120,0,0,0,0,0,0,0,0,0,-1,1819,904,0,0
602,120,0,0,0,0,0,0,0,0,0,-1,1826,904,0,0
609,120,0,0,0,0,0,0,0,0,0,-1,1833,904,0,0
616,120,0,0,0,0,0,0,0,0,0,-1,1840,904,0,0
623,120,0,0,0,0,0,0,0,0,0,-1,1847,904,0,0
630,120,44.2003,2.54547,-0.00493535,-0.00189525,-0.00545124,0.0022439,-0.0090745,-0.921367,0.00691998,0.0385937,1854,904,44.2004,-2.54545
637,120,44.0847,2.62122,-0.00365949,-0.0014082,-0.00382775,0.00145598,-0.00652367,-0.928404,0.00490698,0.0391552,1861,904,44.0848,-2.62123
644,120,44.1332,2.65912,-0.00294434,-0.000787258,-0.0024746,0.000833624,-0.00456522,-0.990908,0.00335605,0.0392041,1868,904,44.1332,-2.65912
651,120,44.1665,2.65637,-0.00258017,-0.000140773,-0.00134014,0.000451609,-0.00317255,-1.15459,0.00228052,0.0380185,1875,904,44.1664,-2.65634
658,120,44.1433,2.63629,-0.00244791,0.000435276,-0.000451976,0.000504469,-0.0025171,-1.41889,0.00186905,0.0393755,1882,904,44.1434,-2.63627
665,120,44.1393,2.64569,-0.00233768,0.000764122,6.43925e-05,0.000765458,-0.00233901,1.55005,0.00186754,0.0385041,1889,904,44.1393,-2.64569
672,120,44.1882,2.58795,-0.00214583,0.000825907,0.000434588,0.000888157,-0.00220808,1.42852,0.00184096,0.0372656,1896,904,44.1882,-2.58795
679,120,44.1991,2.56171,-0.00189628,0.000760129,0.000637762,0.000905311,-0.00204146,1.34697,0.00174296,0.0311223,1903,904,44.1991,-2.56168
686,120,44.1873,2.65143,-0.00170309,0.000711273,0.000671746,0.000885586,-0.00187741,1.3169,0.00162911,0.0248297,1910,904,44.1872,-2.65146
693,120,44.0729,2.73889,0,0,0,0,0,0,0,-1,1917,904,44.0729,-2.73889
700,120,38.8206,3.08911,0,0,0,0,0,0,0,-1,1924,904,38.8206,-3.0891
707,120,39.2656,3.26825,0,0,0,0,0,0,0,-1,1931,904,39.2656,-3.26826
714,120,39.4034,3.73407,-0.00175859,0.000979149,-4.63747e-05,0.000979934,-0.00175938,-1.55386,0.00160274,0.0214692,1938,904,39.4034,-3.73405
721,120,39.3971,4.14233,-0.00188726,0.000936877,-0.000220454,0.000953982,-0.00190436,-1.49336,0.0016804,0.0170676,1945,904,39.3971,-4.14236
728,120,39.3491,4.58105,-0.00242978,0.00108811,-7.42745e-05,0.00108968,-0.00243135,-1.5497,0.00208148,0.0122189,1952,904,39.3491,-4.58107
735,120,39.3125,4.96289,-0.00321987,0.00129819,0.000114456,0.00130109,-0.00322277,1.54548,0.00268925,0.0138238,1959,904,39.3125,-4.96289
742,120,39.3041,5.39551,-0.00454915,0.00195507,0.000488563,0.00199157,-0.00458564,1.49624,0.00389456,0.0141521,1966,904,39.3041,-5.3955
749,120,39.2905,5.78558,-0.0065334,0.00280176,0.00169056,0.00309848,-0.00683012,1.39705,0.00586569,0.0113791,1973,904,39.2905,-5.78559
756,120,39.2339,6.16577,-0.00906855,0.00373527,0.00383552,0.00479631,-0.0101296,1.30091,0.00879894,0.0140549,1980,904,39.2339,-6.16579
763,120,39.1326,6.54773,-0.0119619,0.00461592,0.00680122,0.00704908,-0.014395,1.22723,0.0126206,0.0290509,1987,904,39.1326,-6.54773
770,120,38.9547,6.37097,0,0,0,0,0,0,0,-1,1994,904,38.9547,-6.37097
777,120,42.9915,7.60229,0,0,0,0,0,0,0,-1,2001,904,42.9915,-7.60228
784,120,42.5986,7.98151,0,0,0,0,0,0,0,-1,2008,904,42.5987,-7.98152
791,120,42.2107,8.33081,0,0,0,0,0,0,0,-1,2015,904,42.2107,-8.33081
798,120,41.7688,8.52698,0,0,0,0,0,0,0,-1,2022,904,41.7688,-8.52699
805,120,0,0,0,0,0,0,0,0,0,-1,2029,904,0,0
812,120,0,0,0,0,0,0,0,0,0,-1,2036,904,0,0
-700,113,0,0,0,0,0,0,0,0,0,-1,524,911,0,0
-693,113,0,0,0,0,0,0,0,0,0,-1,531,911,0,0
-686,113,0,0,0,0,0,0,0,0,0,-1,538,911,0,0
-679,113,-30.5453,4.09192,0,0,0,0,0,0,0,-1,545,911,-30.5454,-4.09191
-672,113,-31.4363,4.60126,-0.0525162,-0.0115524,0.0184351,-0.00447782,-0.0595909,1.20437,0.0383219,0.0469656,552,911,-31.4363,-4.60123
-665,113,-32.3287,5.03687,-0.0392303,-0.00663162,0.0132077,-0.0019521,-0.0439098,1.23029,0.0286447,0.0471658,559,911,-32.3287,-5.03687
-658,113,-33.1979,5.45654,-0.0285754,-0.00313547,0.00934515,-7.16075e-05,-0.0316393,1.25398,0.021069,0.0443597,566,911,-33.1978,-5.45657
-651,113,-33.9711,6.00366,-0.0200615,-0.000722816,0.0065296,0.0012754,-0.0220597,1.27382,0.0151495,0.0484138,573,911,-33.9711,-6.00368
-644,113,-28.9865,4.45703,0,0,0,0,0,0,0,-1,580,911,-28.9865,-4.45706
-637,113,-29.1205,4.04242,-0.00885424,0.00165939,0.00319591,0.00255464,-0.00974949,1.29767,0.00749771,0.0393256,587,911,-29.1206,-4.04243
-630,113,-29.1562,3.7262,-0.00548582,0.00212135,0.00235767,0.00279279,-0.00615727,1.29335,0.00528762,0.0193968,594,911,-29.1562,-3.72617
-623,113,-29.228,3.35846,-0.00365959,0.00212992,0.00176346,0.00262476,-0.00415444,1.29722,0.00394705,0.0117849,601,911,-29.228,-3.35843
-616,113,-29.2459,2.99847,-0.00212812,0.00191986,0.00124462,0.00227192,-0.00248018,1.29513,0.00274451,0.00986374,608,911,-29.2459,-2.99849
-609,113,-29.2393,2.6496,-0.00222253,0.00102166,0.00106375,0.00133935,-0.00254022,1.28058,0.00227536,0.0113009,615,911,-29.2392,-2.6496
-602,113,-29.2612,2.26794,-0.00379529,-4.69594e-06,0.00119644,0.000341351,-0.00414134,1.28925,0.00288143,0.017137,622,911,-29.2612,-2.26792
-595,113,-29.3004,2.01575,-0.00537152,-0.00067594,0.00190963,2.61865e-06,-0.00605008,1.22938,0.00403426,0.0218473,629,911,-29.3003,-2.01577
-588,113,-29.2589,1.6156,-0.00562598,-0.00148033,0.00168397,-0.000882506,-0.0062238,1.22967,0.00388855,0.0266308,636,911,-29.2588,-1.61563
-581,113,-29.2772,1.21564,-0.00522867,-0.00179643,0.00144334,-0.00127016,-0.00575494,1.22116,0.00349113,0.0292062,643,911,-29.2772,-1.21563
-574,113,-29.2469,0.671082,0,0,0,0,0,0,0,-1,650,911,-29.2469,-0.671098
-567,113,-21.8396,0.437378,0,0,0,0,0,0,0,-1,657,911,-21.8396,-0.437351
-560,113,-32.6608,0.7099,0,0,0,0,0,0,0,-1,664,911,-32.6608,-0.70989
-553,113,-32.6889,0.757202,-0.00333229,-0.00236831,0.000982989,-0.0017555,-0.0039451,1.01334,0.00228229,0.0403579,671,911,-32.6889,-0.757205
-546,113,-32.7092,0.746887,-0.00258054,-0.00229977,0.000885084,-0.00154401,-0.00333631,0.864048,0.00192799,0.0358276,678,911,-32.7092,-0.746898
-539,113,-32.645,0.795105,-0.00150128,-0.0020488,0.00077826,-0.000950036,-0.00260004,0.616279,0.00151916,0.0344615,685,911,-32.645,-0.795077
-532,113,-32.4449,0.646606,-0.00017666,-0.00158358,0.000613851,5.35121e-05,-0.00181375,0.358739,0.0012274,0.0368859,692,911,-32.4449,-0.646621
-525,113,-32.6225,0.77063,0.00101409,-0.000840231,0.000216737,0.00103909,-0.000865227,0.11482,0.00110098,0.0392242,699,911,-32.6225,-0.77065
-518,113,-32.8582,0.878113,0,0,0,0,0,0,0,-1,706,911,-32.8582,-0.878143
-511,113,-32.6292,0.873413,0,0,0,0,0,0,0,-1,713,911,-32.6292,-0.87339
-504,113,0,0,0,0,0,0,0,0,0,-1,720,911,0,0
-497,113,0,0,0,0,0,0,0,0,0,-1,727,911,0,0
-490,113,0,0,0,0,0,0,0,0,0,-1,734,911,0,0
-483,113,0,0,0,0,0,0,0,0,0,-1,741,911,0,0
-476,113,0,0,0,0,0,0,0,0,0,-1,748,911,0,0
-469,113,0,0,0,0,0,0,0,0,0,-1,755,911,0,0
-462,113,0,0,0,0,0,0,0,0,0,-1,762,911,0,0
-455,113,0,0,0,0,0,0,0,0,0,-1,769,911,0,0
-448,113,0,0,0,0,0,0,0,0,0,-1,776,911,0,0
-441,113,0,0,0,0,0,0,0,0,0,-1,783,911,0,0
-434,113,0,0,0,0,0,0,0,0,0,-1,790,911,0,0
-427,113,0,0,0,0,0,0,0,0,0,-1,797,911,0,0
-420,113,0,0,0,0,0,0,0,0,0,-1,804,911,0,0
-413,113,0,0,0,0,0,0,0,0,0,-1,811,911,0,0
-406,113,0,0,0,0,0,0,0,0,0,-1,818,911,0,0
-399,113,0,0,0,0,0,0,0,0,0,-1,825,911,0,0
-392,113,0,0,0,0,0,0,0,0,0,-1,832,911,0,0
-385,113,0,0,0,0,0,0,0,0,0,-1,839,911,0,0
-378,113,0,0,0,0,0,0,0,0,0,-1,846,911,0,0
-371,113,0,0,0,0,0,0,0,0,0,-1,853,911,0,0
-364,113,0,0,0,0,0,0,0,0,0,-1,860,911,0,0
-357,113,0,0,0,0,0,0,0,0,0,-1,867,911,0,0
-350,113,0,0,0,0,0,0,0,0,0,-1,874,911,0,0
-343,113,0,0,0,0,0,0,0,0,0,-1,881,911,0,0
-336,113,0,0,0,0,0,0,0,0,0,-1,888,911,0,0
-329,113,0,0,0,0,0,0,0,0,0,-1,895,911,0,0
-322,113,0,0,0,0,0,0,0,0,0,-1,902,911,0,0
-315,113,0,0,0,0,0,0,0,0,0,-1,909,911,0,0
-308,113,0,0,0,0,0,0,0,0,0,-1,916,911,0,0
-301,113,0,0,0,0,0,0,0,0,0,-1,923,911,0,0
-294,113,0,0,0,0,0,0,0,0,0,-1,930,911,0,0
-287,113,0,0,0,0,0,0,0,0,0,-1,937,911,0,0
-280,113,0,0,0,0,0,0,0,0,0,-1,944,911,0,0
-273,113,0,0,0,0,0,0,0,0,0,-1,951,911,0,0
-266,113,0,0,0,0,0,0,0,0,0,-1,958,911,0,0
-259,113,0,0,0,0,0,0,0,0,0,-1,965,911,0,0
-252,113,0,0,0,0,0,0,0,0,0,-1,972,911,0,0
-245,113,0,0,0,0,0,0,0,0,0,-1,979,911,0,0
-238,113,0,0,0,0,0,0,0,0,0,-1,986,911,0,0
-231,113,0,0,0,0,0,0,0,0,0,-1,993,911,0,0
-224,113,0,0,0,0,0,0,0,0,0,-1,1000,911,0,0
-217,113,0,0,0,0,0,0,0,0,0,-1,1007,911,0,0
-210,113,0,0,0,0,0,0,0,0,0,-1,1014,911,0,0
-203,113,0,0,0,0,0,0,0,0,0,-1,1021,911,0,0
-196,113,0,0,0,0,0,0,0,0,0,-1,1028,911,0,0
-189,113,0,0,0,0,0,0,0,0,0,-1,1035,911,0,0
-182,113,0,0,0,0,0,0,0,0,0,-1,1042,911,0,0
-175,113,0,0,0,0,0,0,0,0,0,-1,1049,911,0,0
-168,113,0,0,0,0,0,0,0,0,0,-1,1056,911,0,0
-161,113,0,0,0,0,0,0,0,0,0,-1,1063,911,0,0
-154,113,0,0,0,0,0,0,0,0,0,-1,1070,911,0,0
-147,113,0,0,0,0,0,0,0,0,0,-1,1077,911,0,0
-140,113,0,0,0,0,0,0,0,0,0,-1,1084,911,0,0
-133,113,0,0,0,0,0,0,0,0,0,-1,1091,911,0,0
-126,113,0,0,0,0,0,0,0,0,0,-1,1098,911,0,0
-119,113,0,0,0,0,0,0,0,0,0,-1,1105,911,0,0
-112,113,0,0,0,0,0,0,0,0,0,-1,1112,911,0,0
-105,113,0,0,0,0,0,0,0,0,0,-1,1119,911,0,0
-98,113,0,0,0,0,0,0,0,0,0,-1,1126,911,0,0
-91,113,0,0,0,0,0,0,0,0,0,-1,1133,911,0,0
-84,113,0,0,0,0,0,0,0,0,0,-1,1140,911,0,0
-77,113,0,0,0,0,0,0,0,0,0,-1,1147,911,0,0
-70,113,0,0,0,0,0,0,0,0,0,-1,1154,911,0,0
-63,113,0,0,0,0,0,0,0,0,0,-1,1161,911,0,0
-56,113,0,0,0,0,0,0,0,0,0,-1,1168,911,0,0
-49,113,0,0,0,0,0,0,0,0,0,-1,1175,911,0,0
-42,113,0,0,0,0,0,0,0,0,0,-1,1182,911,0,0
-35,113,0,0,0,0,0,0,0,0,0,-1,1189,911,0,0
-28,113,0,0,0,0,0,0,0,0,0,-1,1196,911,0,0
-21,113,0,0,0,0,0,0,0,0,0,-1,1203,911,0,0
-14,113,0,0,0,0,0,0,0,0,0,-1,1210,911,0,0
-7,113,0,0,0,0,0,0,0,0,0,-1,1217,911,0,0
0,113,0,0,0,0,0,0,0,0,0,-1,1224,911,0,0
7,113,0,0,0,0,0,0,0,0,0,-1,1231,911,0,0
14,113,0,0,0,0,0,0,0,0,0,-1,1238,911,0,0
21,113,0,0,0,0,0,0,0,0,0,-1,1245,911,0,0
28,113,0,0,0,0,0,0,0,0,0,-1,1252,911,0,0
35,113,0,0,0,0,0,0,0,0,0,-1,1259,911,0,0
42,113,0,0,0,0,0,0,0,0,0,-1,1266,911,0,0
49,113,0,0,0,0,0,0,0,0,0,-1,1273,911,0,0
56,113,0,0,0,0,0,0,0,0,0,-1,1280,911,0,0
63,113,0,0,0,0,0,0,0,0,0,-1,1287,911,0,0
70,113,0,0,0,0,0,0,0,0,0,-1,1294,911,0,0
77,113,0,0,0,0,0,0,0,0,0,-1,1301,911,0,0
84,113,0,0,0,0,0,0,0,0,0,-1,1308,911,0,0
91,113,0,0,0,0,0,0,0,0,0,-1,1315,911,0,0
98,113,0,0,0,0,0,0,0,0,0,-1,1322,911,0,0
105,113,0,0,0,0,0,0,0,0,0,-1,1329,911,0,0
112,113,0,0,0,0,0,0,0,0,0,-1,1336,911,0,0
119,113,0,0,0,0,0,0,0,0,0,-1,1343,911,0,0
126,113,0,0,0,0,0,0,0,0,0,-1,1350,911,0,0
133,113,0,0,0,0,0,0,0,0,0,-1,1357,911,0,0
140,113,0,0,0,0,0,0,0,0,0,-1,1364,911,0,0
147,113,0,0,0,0,0,0,0,0,0,-1,1371,911,0,0
154,113,0,0,0,0,0,0,0,0,0,-1,1378,911,0,0
161,113,0,0,0,0,0,0,0,0,0,-1,1385,911,0,0
168,113,0,0,0,0,0,0,0,0,0,-1,1392,911,0,0
175,113,0,0,0,0,0,0,0,0,0,-1,1399,911,0,0
182,113,0,0,0,0,0,0,0,0,0,-1,1406,911,0,0
189,113,0,0,0,0,0,0,0,0,0,-1,1413,911,0,0
196,113,0,0,0,0,0,0,0,0,0,-1,1420,911,0,0
203,113,0,0,0,0,0,0,0,0,0,-1,1427,911,0,0
210,113,0,0,0,0,0,0,0,0,0,-1,1434,911,0,0
217,113,0,0,0,0,0,0,0,0,0,-1,1441,911,0,0
224,113,0,0,0,0,0,0,0,0,0,-1,1448,911,0,0
231,113,0,0,0,0,0,0,0,0,0,-1,1455,911,0,0
238,113,0,0,0,0,0,0,0,0,0,-1,1462,911,0,0
245,113,0,0,0,0,0,0,0,0,0,-1,1469,911,0,0
252,113,0,0,0,0,0,0,0,0,0,-1,1476,911,0,0
259,113,0,0,0,0,0,0,0,0,0,-1,1483,911,0,0
266,113,0,0,0,0,0,0,0,0,0,-1,1490,911,0,0
273,113,0,0,0,0,0,0,0,0,0,-1,1497,911,0,0
280,113,0,0,0,0,0,0,0,0,0,-1,1504,911,0,0
287,113,0,0,0,0,0,0,0,0,0,-1,1511,911,0,0
294,113,0,0,0,0,0,0,0,0,0,-1,1518,911,0,0
301,113,0,0,0,0,0,0,0,0,0,-1,1525,911,0,0
308,113,0,0,0,0,0,0,0,0,0,-1,1532,911,0,0
315,113,0,0,0,0,0,0,0,0,0,-1,1539,911,0,0
322,113,0,0,0,0,0,0,0,0,0,-1,1546,911,0,0
329,113,0,0,0,0,0,0,0,0,0,-1,1553,911,0,0
336,113,0,0,0,0,0,0,0,0,0,-1,1560,911,0,0
343,113,0,0,0,0,0,0,0,0,0,-1,1567,911,0,0
350,113,0,0,0,0,0,0,0,0,0,-1,1574,911,0,0
357,113,0,0,0,0,0,0,0,0,0,-1,1581,911,0,0
364,113,0,0,0,0,0,0,0,0,0,-1,1588,911,0,0
371,113,0,0,0,0,0,0,0,0,0,-1,1595,911,0,0
378,113,0,0,0,0,0,0,0,0,0,-1,1602,911,0,0
385,113,0,0,0,0,0,0,0,0,0,-1,1609,911,0,0
392,113,0,0,0,0,0,0,0,0,0,-1,1616,911,0,0
399,113,0,0,0,0,0,0,0,0,0,-1,1623,911,0,0
406,113,0,0,0,0,0,0,0,0,0,-1,1630,911,0,0
413,113,0,0,0,0,0,0,0,0,0,-1,1637,911,0,0
420,113,0,0,0,0,0,0,0,0,0,-1,1644,911,0,0
427,113,0,0,0,0,0,0,0,0,0,-1,1651,911,0,0
434,113,0,0,0,0,0,0,0,0,0,-1,1658,911,0,0
441,113,0,0,0,0,0,0,0,0,0,-1,1665,911,0,0
448,113,0,0,0,0,0,0,0,0,0,-1,1672,911,0,0
455,113,0,0,0,0,0,0,0,0,0,-1,1679,911,0,0
462,113,0,0,0,0,0,0,0,0,0,-1,1686,911,0,0
469,113,0,0,0,0,0,0,0,0,0,-1,1693,911,0,0
476,113,0,0,0,0,0,0,0,0,0,-1,1700,911,0,0
483,113,0,0,0,0,0,0,0,0,0,-1,1707,911,0,0
490,113,0,0,0,0,0,0,0,0,0,-1,1714,911,0,0
497,113,0,0,0,0,0,0,0,0,0,-1,1721,911,0,0
504,113,0,0,0,0,0,0,0,0,0,-1,1728,911,0,0
511,113,0,0,0,0,0,0,0,0,0,-1,1735,911,0,0
518,113,0,0,0,0,0,0,0,0,0,-1,1742,911,0,0
525,113,0,0,0,0,0,0,0,0,0,-1,1749,911,0,0
532,113,0,0,0,0,0,0,0,0,0,-1,1756,911,0,0
539,113,0,0,0,0,0,0,0,0,0,-1,1763,911,0,0
546,113,0,0,0,0,0,0,0,0,0,-1,1770,911,0,0
553,113,0,0,0,0,0,0,0,0,0,-1,1777,911,0,0
560,113,0,0,0,0,0,0,0,0,0,-1,1784,911,0,0
567,113,0,0,0,0,0,0,0,0,0,-1,1791,911,0,0
574,113,0,0,0,0,0,0,0,0,0,-1,1798,911,0,0
581,113,0,0,0,0,0,0,0,0,0,-1,1805,911,0,0
588,113,0,0,0,0,0,0,0,0,0,-1,1812,911,0,0
595,113,0,0,0,0,0,0,0,0,0,-1,1819,911,0,0
602,113,0,0,0,0,0,0,0,0,0,-1,1826,911,0,0
609,113,0,0,0,0,0,0,0,0,0,-1,1833,911,0,0
616,113,0,0,0,0,0,0,0,0,0,-1,1840,911,0,0
623,113,0,0,0,0,0,0,0,0,0,-1,1847,911,0,0
630,113,44.3121,2.49438,-0.00576838,-0.00215633,-0.0051017,0.00144958,-0.00937429,-0.955517,0.00678454,0.0379764,1854,911,44.3121,-2.4944
637,113,44.2826,2.57104,-0.00422239,-0.00179848,-0.00368609,0.000869783,-0.00689066,-0.944227,0.00490945,0.0375246,1861,911,44.2825,-2.57104
644,113,44.2428,2.58063,-0.0033123,-0.00123344,-0.00249091,0.000426214,-0.00497195,-0.98306,0.00346546,0.0377167,1868,911,44.2428,-2.58063
651,113,44.2513,2.61304,-0.00285026,-0.000562137,-0.00143322,0.000127649,-0.00354005,-1.12223,0.00240371,0.0400665,1875,911,44.2513,-2.61304
658,113,44.2454,2.6438,-0.00263562,0.000122538,-0.00052499,0.000219085,-0.00273217,-1.38893,0.00189869,0.04061,1882,911,44.2454,-2.64382
665,113,44.2369,2.72351,-0.00248492,0.000590013,6.60101e-05,0.000591429,-0.00248634,1.54934,0.00188587,0.03835,1889,911,44.237,-2.72349
672,113,44.1321,2.74866,-0.00228864,0.000739475,0.000505317,0.000821573,-0.00237074,1.40973,0.00191405,0.036724,1896,911,44.1321,-2.74868
679,113,44.1559,2.61676,-0.00204516,0.000718148,0.00076616,0.000916357,-0.00224337,1.31764,0.00187713,0.0303536,1903,911,44.1558,-2.61678
686,113,44.2026,2.63141,-0.00182453,0.00068819,0.000825199,0.000934958,-0.0020713,1.28022,0.00177651,0.0267917,1910,911,44.2026,-2.63142
693,113,44.0493,2.77228,-0.0016205,0.000711547,0.000813276,0.000967152,-0.00187611,1.26628,0.00166928,0.0496779,1917,911,44.0494,-2.77225
700,113,43.897,2.79669,0,0,0,0,0,0,0,-1,1924,911,43.897,-2.79671
707,113,39.6865,3.24512,0,0,0,0,0,0,0,-1,1931,911,39.6865,-3.2451
714,113,39.7181,3.66113,-0.00186182,0.000989122,0.000143004,0.000996277,-0.00186897,1.5208,0.00167964,0.0220373,1938,911,39.7181,-3.66112
721,113,39.724,4.10168,-0.00199749,0.00097309,-4.78089e-05,0.000973859,-0.00199826,-1.55471,0.0017496,0.0212624,1945,911,39.724,-4.10166
728,113,39.7831,4.60724,-0.00245223,0.00114006,-5.7933e-06,0.00114007,-0.00245224,-1.56918,0.00211964,0.0213582,1952,911,39.7831,-4.60727
735,113,39.7473,5.005,-0.00306894,0.00141084,-9.40147e-05,0.00141281,-0.00307091,-1.54982,0.00264702,0.0189018,1959,911,39.7474,-5.00502
742,113,39.7175,5.36188,-0.00414331,0.00221862,-0.000158237,0.00222255,-0.00414724,-1.54594,0.00373315,0.0130811,1966,911,39.7175,-5.36185
749,113,39.7291,5.76556,-0.00581051,0.00333563,0.00039663,0.0033528,-0.00582768,1.52754,0.00536417,0.00994052,1973,911,39.7291,-5.76555
756,113,39.6753,6.18335,-0.00799216,0.00471678,0.00174161,0.00495112,-0.00822651,1.43704,0.00768605,0.0136016,1980,911,39.6753,-6.18335
763,113,39.541,6.61938,-0.0104159,0.00618633,0.0037772,0.00700529,-0.0112349,1.35728,0.0106249,0.0300351,1987,911,39.541,-6.61936
770,113,39.3843,6.49799,-0.0130608,0.00775196,0.0066218,0.00968013,-0.014989,1.28745,0.0143522,0.048847,1994,911,39.3843,-6.49798
777,113,39.3705,6.25647,0,0,0,0,0,0,0,-1,2001,911,39.3705,-6.25647
784,113,42.5828,7.4917,0,0,0,0,0,0,0,-1,2008,911,42.5828,-7.49173
791,113,41.9653,7.89362,0,0,0,0,0,0,0,-1,2015,911,41.9653,-7.8936
798,113,41.8872,8.34021,0,0,0,0,0,0,0,-1,2022,911,41.8873,-8.34019
805,113,0,0,0,0,0,0,0,0,0,-1,2029,911,0,0
812,113,0,0,0,0,0,0,0,0,0,-1,2036,911,0,0
-700,106,0,0,0,0,0,0,0,0,0,-1,524,918,0,0
-693,106,0,0,0,0,0,0,0,0,0,-1,531,918,0,0
-686,106,0,0,0,0,0,0,0,0,0,-1,538,918,0,0
-679,106,-31.2464,3.83624,0,0,0,0,0,0,0,-1,545,918,-31.2464,-3.83626
-672,106,-31.4905,4.7464,0,0,0,0,0,0,0,-1,552,918,-31.4905,-4.74641
-665,106,-31.8138,5.69373,0,0,0,0,0,0,0,-1,559,918,-31.8138,-5.69371
-658,106,-31.882,5.39929,-0.0219668,-0.00056669,0.00696093,0.00149828,-0.0240317,1.28241,0.0165432,0.0414738,566,918,-31.882,-5.39929
-651,106,-31.4388,5.86481,-0.0148219,0.00121274,0.004598,0.00243766,-0.0160469,1.31044,0.0115962,0.0483761,573,918,-31.4388,-5.86481
-644,106,-29.0553,4.50305,-0.00947744,0.00224637,0.00303676,0.00298627,-0.0102173,1.3318,0.00799509,0.0441147,580,918,-29.0553,-4.50306
-637,106,-29.2864,4.12433,-0.00577001,0.00268343,0.00207045,0.00316329,-0.00624988,1.34305,0.00553123,0.0293432,587,918,-29.2864,-4.12434
-630,106,-29.5183,3.76648,-0.00328063,0.00285406,0.00152935,0.00321418,-0.00364075,1.33954,0.00396025,0.0146332,594,918,-29.5183,-3.76648
-623,106,-29.6348,3.33313,-0.00231528,0.00262108,0.00118015,0.00288871,-0.00258291,1.34779,0.00316069,0.0152056,601,918,-29.6349,-3.33313
-616,106,-29.6775,2.97217,-0.00156912,0.00209882,0.000860775,0.00229078,-0.00176108,1.35138,0.002346,0.0147309,608,918,-29.6775,-2.97219
-609,106,-29.6583,2.64435,-0.00233738,0.00102572,0.000829222,0.00121906,-0.00253072,1.34173,0.00220865,0.0120938,615,918,-29.6583,-2.64436
-602,106,-29.6558,2.26886,-0.0042495,-7.42338e-05,0.00101857,0.000160996,-0.00448473,1.34383,0.0030449,0.0176664,622,918,-29.6558,-2.26887
-595,106,-29.7756,1.94141,-0.00608508,-0.000697852,0.00179377,-0.000155237,-0.0066277,1.27705,0.00436764,0.021152,629,918,-29.7757,-1.94138
-588,106,-29.7558,1.55328,-0.00662509,-0.00147703,0.00163651,-0.00100085,-0.00710128,1.28764,0.00443835,0.0249461,636,918,-29.7558,-1.55329
-581,106,-29.6118,1.14685,-0.00632119,-0.00172139,0.00140611,-0.00132561,-0.00671696,1.29642,0.00410803,0.0166372,643,918,-29.6118,-1.14682
-574,106,-29.5771,0.777039,0,0,0,0,0,0,0,-1,650,918,-29.5771,-0.777035
-567,106,-32.5684,0.890198,0,0,0,0,0,0,0,-1,657,918,-32.5684,-0.890181
-560,106,-32.6163,0.825256,-0.00495074,-0.00215796,0.000880881,-0.00190333,-0.00520536,1.28941,0.00304127,0.0477429,664,918,-32.6162,-0.825267
-553,106,-32.7163,0.807312,-0.00429578,-0.00215814,0.000755403,-0.00191814,-0.00453578,1.26317,0.00262909,0.03388,671,918,-32.7163,-0.80732
-546,106,-32.7191,0.795898,-0.00326181,-0.00197332,0.000605276,-0.00173359,-0.00350154,1.19368,0.00202165,0.0383337,678,918,-32.719,-0.795882
-539,106,-32.6014,0.831482,-0.00171438,-0.00154581,0.000402754,-0.00121862,-0.00204157,0.888543,0.00118606,0.0419244,685,918,-32.6015,-0.831498
-532,106,-32.3622,0.672607,0.000329671,-0.000808687,4.05435e-05,0.000331113,-0.000810129,0.0355557,0.000677967,0.0405867,692,918,-32.3622,-0.672603
-525,106,-32.5577,0.732422,0.00237086,0.000331779,-0.000701884,0.0025891,0.000113537,-0.30146,0.00168949,0.0388431,699,918,-32.5577,-0.7324
-518,106,-32.7045,0.744324,0.00259199,0.00146699,-0.0020415,0.00414707,-8.8091e-05,-0.650967,0.00279454,0.040739,706,918,-32.7045,-0.74432
-511,106,0,0,0,0,0,0,0,0,0,-1,713,918,0,0
-504,106,0,0,0,0,0,0,0,0,0,-1,720,918,0,0
-497,106,0,0,0,0,0,0,0,0,0,-1,727,918,0,0
-490,106,0,0,0,0,0,0,0,0,0,-1,734,918,0,0
-483,106,0,0,0,0,0,0,0,0,0,-1,741,918,0,0
-476,106,0,0,0,0,0,0,0,0,0,-1,748,918,0,0
-469,106,0,0,0,0,0,0,0,0,0,-1,755,918,0,0
-462,106,0,0,0,0,0,0,0,0,0,-1,762,918,0,0
-455,106,0,0,0,0,0,0,0,0,0,-1,769,918,0,0
-448,106,0,0,0,0,0,0,0,0,0,-1,776,918,0,0
-441,106,0,0,0,0,0,0,0,0,0,-1,783,918,0,0
-434,106,0,0,0,0,0,0,0,0,0,-1,790,918,0,0
-427,106,0,0,0,0,0,0,0,0,0,-1,797,918,0,0
-420,106,0,0,0,0,0,0,0,0,0,-1,804,918,0,0
-413,106,0,0,0,0,0,0,0,0,0,-1,811,918,0,0
-406,106,0,0,0,0,0,0,0,0,0,-1,818,918,0,0
-399,106,0,0,0,0,0,0,0,0,0,-1,825,918,0,0
-392,106,0,0,0,0,0,0,0,0,0,-1,832,918,0,0
-385,106,0,0,0,0,0,0,0,0,0,-1,839,918,0,0
-378,106,0,0,0,0,0,0,0,0,0,-1,846,918,0,0
-371,106,0,0,0,0,0,0,0,0,0,-1,853,918,0,0
-364,106,0,0,0,0,0,0,0,0,0,-1,860,918,0,0
-357,106,0,0,0,0,0,0,0,0,0,-1,867,918,0,0
-350,106,0,0,0,0,0,0,0,0,0,-1,874,918,0,0
-343,106,0,0,0,0,0,0,0,0,0,-1,881,918,0,0
-336,106,0,0,0,0,0,0,0,0,0,-1,888,918,0,0
-329,106,0,0,0,0,0,0,0,0,0,-1,895,918,0,0
-322,106,0,0,0,0,0,0,0,0,0,-1,902,918,0,0
-315,106,0,0,0,0,0,0,0,0,0,-1,909,918,0,0
-308,106,0,0,0,0,0,0,0,0,0,-1,916,918,0,0
-301,106,0,0,0,0,0,0,0,0,0,-1,923,918,0,0
-294,106,0,0,0,0,0,0,0,0,0,-1,930,918,0,0
-287,106,0,0,0,0,0,0,0,0,0,-1,937,918,0,0
-280,106,0,0,0,0,0,0,0,0,0,-1,944,918,0,0
-273,106,0,0,0,0,0,0,0,0,0,-1,951,918,0,0
-266,106,0,0,0,0,0,0,0,0,0,-1,958,918,0,0
-259,106,0,0,0,0,0,0,0,0,0,-1,965,918,0,0
-252,106,0,0,0,0,0,0,0,0,0,-1,972,918,0,0
-245,106,0,0,0,0,0,0,0,0,0,-1,979,918,0,0
-238,106,0,0,0,0,0,0,0,0,0,-1,986,918,0,0
-231,106,0,0,0,0,0,0,0,0,0,-1,993,918,0,0
-224,106,0,0,0,0,0,0,0,0,0,-1,1000,918,0,0
-217,106,0,0,0,0,0,0,0,0,0,-1,1007,918,0,0
-210,106,0,0,0,0,0,0,0,0,0,-1,1014,918,0,0
-203,106,0,0,0,0,0,0,0,0,0,-1,1021,918,0,0
-196,106,0,0,0,0,0,0,0,0,0,-1,1028,918,0,0
-189,106,0,0,0,0,0,0,0,0,0,-1,1035,918,0,0
-182,106,0,0,0,0,0,0,0,0,0,-1,1042,918,0,0
-175,106,0,0,0,0,0,0,0,0,0,-1,1049,918,0,0
-168,106,0,0,0,0,0,0,0,0,0,-1,1056,918,0,0
-161,106,0,0,0,0,0,0,0,0,0,-1,1063,918,0,0
-154,106,0,0,0,0,0,0,0,0,0,-1,1070,918,0,0
-147,106,0,0,0,0,0,0,0,0,0,-1,1077,918,0,0
-140,106,0,0,0,0,0,0,0,0,0,-1,1084,918,0,0
-133,106,0,0,0,0,0,0,0,0,0,-1,1091,918,0,0
-126,106,0,0,0,0,0,0,0,0,0,-1,1098,918,0,0
-119,106,0,0,0,0,0,0,0,0,0,-1,1105,918,0,0
-112,106,0,0,0,0,0,0,0,0,0,-1,1112,918,0,0
-105,106,0,0,0,0,0,0,0,0,0,-1,1119,918,0,0
-98,106,0,0,0,0,0,0,0,0,0,-1,1126,918,0,0
-91,106,0,0,0,0,0,0,0,0,0,-1,1133,918,0,0
-84,106,0,0,0,0,0,0,0,0,0,-1,1140,918,0,0
-77,106,0,0,0,0,0,0,0,0,0,-1,1147,918,0,0
-70,106,0,0,0,0,0,0,0,0,0,-1,1154,918,0,0
-63,106,0,0,0,0,0,0,0,0,0,-1,1161,918,0,0
-56,106,0,0,0,0,0,0,0,0,0,-1,1168,918,0,0
-49,106,0,0,0,0,0,0,0,0,0,-1,1175,918,0,0
-42,106,0,0,0,0,0,0,0,0,0,-1,1182,918,0,0
-35,106,0,0,0,0,0,0,0,0,0,-1,1189,918,0,0
-28,106,0,0,0,0,0,0,0,0,0,-1,1196,918,0,0
-21,106,0,0,0,0,0,0,0,0,0,-1,1203,918,0,0
-14,106,0,0,0,0,0,0,0,0,0,-1,1210,918,0,0
-7,106,0,0,0,0,0,0,0,0,0,-1,1217,918,0,0
0,106,0,0,0,0,0,0,0,0,0,-1,1224,918,0,0
7,106,0,0,0,0,0,0,0,0,0,-1,1231,918,0,0
14,106,0,0,0,0,0,0,0,0,0,-1,1238,918,0,0
21,106,0,0,0,0,0,0,0,0,0,-1,1245,918,0,0
28,106,0,0,0,0,0,0,0,0,0,-1,1252,918,0,0
35,106,0,0,0,0,0,0,0,0,0,-1,1259,918,0,0
42,106,0,0,0,0,0,0,0,0,0,-1,1266,918,0,0
49,106,0,0,0,0,0,0,0,0,0,-1,1273,918,0,0
56,106,0,0,0,0,0,0,0,0,0,-1,1280,918,0,0
63,106,0,0,0,0,0,0,0,0,0,-1,1287,918,0,0
70,106,0,0,0,0,0,0,0,0,0,-1,1294,918,0,0
77,106,0,0,0,0,0,0,0,0,0,-1,1301,918,0,0
84,106,0,0,0,0,0,0,0,0,0,-1,1308,918,0,0
91,106,0,0,0,0,0,0,0,0,0,-1,1315,918,0,0
98,106,0,0,0,0,0,0,0,0,0,-1,1322,918,0,0
105,106,0,0,0,0,0,0,0,0,0,-1,1329,918,0,0
112,106,0,0,0,0,0,0,0,0,0,-1,1336,918,0,0
119,106,0,0,0,0,0,0,0,0,0,-1,1343,918,0,0
126,106,0,0,0,0,0,0,0,0,0,-1,1350,918,0,0
133,106,0,0,0,0,0,0,0,0,0,-1,1357,918,0,0
140,106,0,0,0,0,0,0,0,0,0,-1,1364,918,0,0
147,106,0,0,0,0,0,0,0,0,0,-1,1371,918,0,0
154,106,0,0,0,0,0,0,0,0,0,-1,1378,918,0,0
161,106,0,0,0,0,0,0,0,0,0,-1,1385,918,0,0
168,106,0,0,0,0,0,0,0,0,0,-1,1392,918,0,0
175,106,0,0,0,0,0,0,0,0,0,-1,1399,918,0,0
182,106,0,0,0,0,0,0,0,0,0,-1,1406,918,0,0
189,106,0,0,0,0,0,0,0,0,0,-1,1413,918,0,0
196,106,0,0,0,0,0,0,0,0,0,-1,1420,918,0,0
203,106,0,0,0,0,0,0,0,0,0,-1,1427,918,0,0
210,106,0,0,0,0,0,0,0,0,0,-1,1434,918,0,0
217,106,0,0,0,0,0,0,0,0,0,-1,1441,918,0,0
224,106,0,0,0,0,0,0,0,0,0,-1,1448,918,0,0
231,106,0,0,0,0,0,0,0,0,0,-1,1455,918,0,0
238,106,0,0,0,0,0,0,0,0,0,-1,1462,918,0,0
245,106,0,0,0,0,0,0,0,0,0,-1,1469,918,0,0
252,106,0,0,0,0,0,0,0,0,0,-1,1476,918,0,0
259,106,0,0,0,0,0,0,0,0,0,-1,1483,918,0,0
266,106,0,0,0,0,0,0,0,0,0,-1,1490,918,0,0
273,106,0,0,0,0,0,0,0,0,0,-1,1497,918,0,0
280,106,0,0,0,0,0,0,0,0,0,-1,1504,918,0,0
287,106,0,0,0,0,0,0,0,0,0,-1,1511,918,0,0
294,106,0,0,0,0,0,0,0,0,0,-1,1518,918,0,0
301,106,0,0,0,0,0,0,0,0,0,-1,1525,918,0,0
308,106,0,0,0,0,0,0,0,0,0,-1,1532,918,0,0
315,106,0,0,0,0,0,0,0,0,0,-1,1539,918,0,0
322,106,0,0,0,0,0,0,0,0,0,-1,1546,918,0,0
329,106,0,0,0,0,0,0,0,0,0,-1,1553,918,0,0
336,106,0,0,0,0,0,0,0,0,0,-1,1560,918,0,0
343,106,0,0,0,0,0,0,0,0,0,-1,1567,918,0,0
350,106,0,0,0,0,0,0,0,0,0,-1,1574,918,0,0
357,106,0,0,0,0,0,0,0,0,0,-1,1581,918,0,0
364,106,0,0,0,0,0,0,0,0,0,-1,1588,918,0,0
371,106,0,0,0,0,0,0,0,0,0,-1,1595,918,0,0
378,106,0,0,0,0,0,0,0,0,0,-1,1602,918,0,0
385,106,0,0,0,0,0,0,0,0,0,-1,1609,918,0,0
392,106,0,0,0,0,0,0,0,0,0,-1,1616,918,0,0
399,106,0,0,0,0,0,0,0,0,0,-1,1623,918,0,0
406,106,0,0,0,0,0,0,0,0,0,-1,1630,918,0,0
413,106,0,0,0,0,0,0,0,0,0,-1,1637,918,0,0
420,106,0,0,0,0,0,0,0,0,0,-1,1644,918,0,0
427,106,0,0,0,0,0,0,0,0,0,-1,1651,918,0,0
434,106,0,0,0,0,0,0,0,0,0,-1,1658,918,0,0
441,106,0,0,0,0,0,0,0,0,0,-1,1665,918,0,0
448,106,0,0,0,0,0,0,0,0,0,-1,1672,918,0,0
455,106,0,0,0,0,0,0,0,0,0,-1,1679,918,0,0
462,106,0,0,0,0,0,0,0,0,0,-1,1686,918,0,0
469,106,0,0,0,0,0,0,0,0,0,-1,1693,918,0,0
476,106,0,0,0,0,0,0,0,0,0,-1,1700,918,0,0
483,106,0,0,0,0,0,0,0,0,0,-1,1707,918,0,0
490,106,0,0,0,0,0,0,0,0,0,-1,1714,918,0,0
497,106,0,0,0,0,0,0,0,0,0,-1,1721,918,0,0
504,106,0,0,0,0,0,0,0,0,0,-1,1728,918,0,0
511,106,0,0,0,0,0,0,0,0,0,-1,1735,918,0,0
518,106,0,0,0,0,0,0,0,0,0,-1,1742,918,0,0
525,106,0,0,0,0,0,0,0,0,0,-1,1749,918,0,0
532,106,0,0,0,0,0,0,0,0,0,-1,1756,918,0,0
539,106,0,0,0,0,0,0,0,0,0,-1,1763,918,0,0
546,106,0,0,0,0,0,0,0,0,0,-1,1770,918,0,0
553,106,0,0,0,0,0,0,0,0,0,-1,1777,918,0,0
560,106,0,0,0,0,0,0,0,0,0,-1,1784,918,0,0
567,106,0,0,0,0,0,0,0,0,0,-1,1791,918,0,0
574,106,0,0,0,0,0,0,0,0,0,-1,1798,918,0,0
581,106,0,0,0,0,0,0,0,0,0,-1,1805,918,0,0
588,106,0,0,0,0,0,0,0,0,0,-1,1812,918,0,0
595,106,0,0,0,0,0,0,0,0,0,-1,1819,918,0,0
602,106,0,0,0,0,0,0,0,0,0,-1,1826,918,0,0
609,106,0,0,0,0,0,0,0,0,0,-1,1833,918,0,0
616,106,0,0,0,0,0,0,0,0,0,-1,1840,918,0,0
623,106,0,0,0,0,0,0,0,0,0,-1,1847,918,0,0
630,106,44.3091,2.69122,-0.00649655,-0.00291745,-0.00471135,0.00033277,-0.00974677,-0.966901,0.00661156,0.0395343,1854,918,44.3091,-2.69125
637,106,44.3257,2.67609,-0.00469421,-0.00232127,-0.00362241,0.000304023,-0.0073195,-0.94366,0.0049841,0.0381588,1861,918,44.3256,-2.6761
644,106,44.2791,2.64594,-0.00360555,-0.00160503,-0.00263092,0.000209363,-0.00541995,-0.967056,0.00368507,0.0365186,1868,918,44.279,-2.64593
651,106,44.326,2.56256,-0.00304917,-0.000829777,-0.00166488,6.13352e-05,-0.00394028,-1.07935,0.00264754,0.0397898,1875,918,44.3261,-2.56258
658,106,44.4166,2.56415,-0.00276267,-1.94741e-05,-0.000741041,0.000167909,-0.00295006,-1.32312,0.002025,0.0405382,1882,918,44.4167,-2.56416
665,106,44.3187,2.69043,-0.00258655,0.000605335,-4.5253e-05,0.000605977,-0.00258719,-1.55662,0.00195829,0.0416305,1889,918,44.3187,-2.69043
672,106,44.1475,2.77405,-0.00240926,0.00086093,0.000502164,0.000936304,-0.00248464,1.42181,0.0020414,0.041538,1896,918,44.1475,-2.77408
679,106,44.115,2.67896,-0.00218216,0.000874648,0.000863102,0.00110151,-0.00240902,1.31376,0.00207314,0.0339927,1903,918,44.115,-2.67898
686,106,44.2009,2.65729,-0.00194031,0.000843726,0.000971901,0.00114944,-0.00224603,1.26604,0.00199416,0.0279924,1910,918,44.2009,-2.6573
693,106,44.0757,2.78522,-0.0016753,0.000844038,0.00100535,0.00119604,-0.0020273,1.23401,0.00188151,0.0296005,1917,918,44.0756,-2.78522
700,106,43.9814,2.89514,0,0,0,0,0,0,0,-1,1924,918,43.9815,-2.89514
707,106,40.0737,3.20178,0,0,0,0,0,0,0,-1,1931,918,40.0738,-3.20179
714,106,40.1823,3.64911,-0.00193664,0.00110012,0.000360588,0.00114235,-0.00197887,1.45421,0.00182348,0.0296906,1938,918,40.1823,-3.64913
721,106,40.205,4.13416,-0.00207997,0.00107366,0.000161405,0.0010819,-0.00208821,1.51979,0.00186075,0.0249117,1945,918,40.2049,-4.13415
728,106,40.2726,4.62836,-0.00244736,0.00125544,8.64452e-05,0.00125746,-0.00244938,1.54747,0.00217671,0.0237273,1952,918,40.2726,-4.62838
735,106,40.228,5.00311,-0.00289967,0.00159752,-0.000292787,0.00161651,-0.00291865,-1.50606,0.00265411,0.0205938,1959,918,40.228,-5.00311
742,106,40.1561,5.34387,-0.00373874,0.00256453,-0.000790569,0.00266217,-0.00383638,-1.44791,0.0037723,0.011913,1966,918,40.1561,-5.34389
749,106,40.1326,5.74213,-0.00509158,0.00395093,-0.00091715,0.00404302,-0.00518367,-1.47073,0.00534058,0.00979457,1973,918,40.1325,-5.7421
756,106,40.0916,6.13177,-0.00691563,0.00578541,-0.000500948,0.00580513,-0.00693536,-1.53144,0.00736537,0.0127257,1980,918,40.0915,-6.1318
763,106,40.0004,6.59332,-0.00891229,0.0078464,0.000405322,0.0078562,-0.00892209,1.54663,0.00969346,0.0237595,1987,918,40.0004,-6.59329
770,106,39.8369,6.8595,-0.0109769,0.0101382,0.00170772,0.0102754,-0.0111141,1.49061,0.0123524,0.0429463,1994,918,39.8369,-6.8595
777,106,39.7505,7.07935,0,0,0,0,0,0,0,-1,2001,918,39.7505,-7.07933
784,106,39.7991,7.9364,0,0,0,0,0,0,0,-1,2008,918,39.7991,-7.93638
791,106,41.5608,7.85516,0,0,0,0,0,0,0,-1,2015,918,41.5608,-7.85514
798,106,41.9639,8.36554,0,0,0,0,0,0,0,-1,2022,918,41.9638,-8.36557
805,106,0,0,0,0,0,0,0,0,0,-1,2029,918,0,0
812,106,0,0,0,0,0,0,0,0,0,-1,2036,918,0,0
-700,99,0,0,0,0,0,0,0,0,0,-1,524,925,0,0
-693,99,0,0,0,0,0,0,0,0,0,-1,531,925,0,0
-686,99,0,0,0,0,0,0,0,0,0,-1,538,925,0,0
-679,99,-31.1657,3.61334,-0.0487353,-0.0087443,0.0188486,-0.0012609,-0.0562187,1.19286,0.037066,0.0486458,545,925,-31.1657,-3.61333
-672,99,-31.3783,4.55139,-0.0349771,-0.00321442,0.0131982,0.00155395,-0.0397455,1.2241,0.0270299,0.0482923,552,925,-31.3783,-4.55138
-665,99,-31.6307,5.44781,-0.0246231,0.000310464,0.00904576,0.00324649,-0.0275591,1.25695,0.019545,0.0482971,559,925,-31.6307,-5.4478
-658,99,-31.2683,5.94604,-0.0166244,0.00244863,0.00603398,0.00419723,-0.018373,1.28873,0.0138612,0.04148,566,925,-31.2683,-5.94605
-651,99,-30.7576,6.76038,-0.0105333,0.00362443,0.00395292,0.00465333,-0.0115622,1.31616,0.00964112,0.0465823,573,925,-30.7576,-6.76039
-644,99,-29.6501,4.14911,-0.00613081,0.00410314,0.00261785,0.00473391,-0.00676158,1.33435,0.00667125,0.0472654,580,925,-29.6501,-4.1491
-637,99,-29.7673,3.97479,-0.00313941,0.00412624,0.00182032,0.00455679,-0.00356995,1.33854,0.00470349,0.0292803,587,925,-29.7673,-3.97476
-630,99,-29.907,3.71198,-0.00147463,0.00389511,0.00134874,0.00421485,-0.00179436,1.33803,0.003562,0.0159608,594,925,-29.907,-3.71197
-623,99,-30.0519,3.31732,-0.00131891,0.00333413,0.00104043,0.00355618,-0.00154095,1.36053,0.00301852,0.0117124,601,925,-30.0519,-3.31731
-616,99,-30.0597,2.97473,-0.0013043,0.00247417,0.000727411,0.00260937,-0.0014395,1.38703,0.00236992,0.0130677,608,925,-30.0597,-2.97474
-609,99,-30.0488,2.65485,-0.00260537,0.0012428,0.000658668,0.00135241,-0.00271499,1.40588,0.00239184,0.0119163,615,925,-30.0488,-2.65484
-602,99,-30.0313,2.33179,-0.00475959,6.42185e-05,0.000785852,0.000189014,-0.00488438,1.41331,0.00332105,0.0147924,622,925,-30.0313,-2.33178
-595,99,-30.1292,2.00531,-0.00679616,-0.000584827,0.00156769,-0.000211584,-0.00716941,1.33706,0.00471066,0.0189507,629,925,-30.1291,-2.00529
-588,99,-30.1381,1.62952,-0.00758407,-0.00144722,0.0014472,-0.00112306,-0.00790822,1.35044,0.00494053,0.0204402,636,925,-30.138,-1.6295
-581,99,-30.0574,1.19,-0.00737815,-0.00166635,0.00118723,-0.00142941,-0.0076151,1.37381,0.0046737,0.0152711,643,925,-30.0574,-1.18998
-574,99,-30.0492,0.766174,0,0,0,0,0,0,0,-1,650,925,-30.0492,-0.766182
-567,99,-32.5648,0.822571,0,0,0,0,0,0,0,-1,657,925,-32.5648,-0.822546
-560,99,-32.5709,0.732178,-0.00596954,-0.00208927,0.000520086,-0.00202077,-0.00603804,1.43984,0.00354902,0.0404543,664,925,-32.5708,-0.732177
-553,99,-32.7127,0.870667,-0.00508756,-0.00207803,0.000336664,-0.00204083,-0.00512476,1.46074,0.00297914,0.0362577,671,925,-32.7127,-0.870648
-546,99,-32.6943,0.923401,-0.00365523,-0.00183656,9.34919e-05,-0.00183176,-0.00366002,1.51957,0.00211311,0.0406015,678,925,-32.6943,-0.923421
-539,99,-32.6202,0.927246,-0.00148656,-0.00131106,-0.000278398,-0.00110691,-0.00169071,-0.938074,0.000991583,0.0408724,685,925,-32.6202,-0.927228
-532,99,-32.5356,0.770142,0.00146404,-0.000411842,-0.000960139,0.00186834,-0.000816137,-0.398546,0.00158907,0.0415378,692,925,-32.5356,-0.770122
-525,99,-32.7231,0.777527,0.00439182,0.00101713,-0.00224612,0.00551378,-0.000104831,-0.463256,0.00371129,0.0402043,699,925,-32.7231,-0.777535
-518,99,-32.706,0.691833,0.00461681,0.00249983,-0.0041244,0.00781638,-0.000699736,-0.659789,0.00545913,0.0406201,706,925,-32.706,-0.691857
-511,99,0,0,0,0,0,0,0,0,0,-1,713,925,0,0
-504,99,0,0,0,0,0,0,0,0,0,-1,720,925,0,0
-497,99,0,0,0,0,0,0,0,0,0,-1,727,925,0,0
-490,99,0,0,0,0,0,0,0,0,0,-1,734,925,0,0
-483,99,0,0,0,0,0,0,0,0,0,-1,741,925,0,0
-476,99,0,0,0,0,0,0,0,0,0,-1,748,925,0,0
-469,99,0,0,0,0,0,0,0,0,0,-1,755,925,0,0
-462,99,0,0,0,0,0,0,0,0,0,-1,762,925,0,0
-455,99,0,0,0,0,0,0,0,0,0,-1,769,925,0,0
-448,99,0,0,0,0,0,0,0,0,0,-1,776,925,0,0
-441,99,0,0,0,0,0,0,0,0,0,-1,783,925,0,0
-434,99,0,0,0,0,0,0,0,0,0,-1,790,925,0,0
-427,99,0,0,0,0,0,0,0,0,0,-1,797,925,0,0
-420,99,0,0,0,0,0,0,0,0,0,-1,804,925,0,0
-413,99,0,0,0,0,0,0,0,0,0,-1,811,925,0,0
-406,99,0,0,0,0,0,0,0,0,0,-1,818,925,0,0
-399,99,0,0,0,0,0,0,0,0,0,-1,825,925,0,0
-392,99,0,0,0,0,0,0,0,0,0,-1,832,925,0,0
-385,99,0,0,0,0,0,0,0,0,0,-1,839,925,0,0
-378,99,0,0,0,0,0,0,0,0,0,-1,846,925,0,0
-371,99,0,0,0,0,0,0,0,0,0,-1,853,925,0,0
-364,99,0,0,0,0,0,0,0,0,0,-1,860,925,0,0
-357,99,0,0,0,0,0,0,0,0,0,-1,867,925,0,0
-350,99,0,0,0,0,0,0,0,0,0,-1,874,925,0,0
-343,99,0,0,0,0,0,0,0,0,0,-1,881,925,0,0
-336,99,0,0,0,0,0,0,0,0,0,-1,888,925,0,0
-329,99,0,0,0,0,0,0,0,0,0,-1,895,925,0,0
-322,99,0,0,0,0,0,0,0,0,0,-1,902,925,0,0
-315,99,0,0,0,0,0,0,0,0,0,-1,909,925,0,0
-308,99,0,0,0,0,0,0,0,0,0,-1,916,925,0,0
-301,99,0,0,0,0,0,0,0,0,0,-1,923,925,0,0
-294,99,0,0,0,0,0,0,0,0,0,-1,930,925,0,0
-287,99,0,0,0,0,0,0,0,0,0,-1,937,925,0,0
-280,99,0,0,0,0,0,0,0,0,0,-1,944,925,0,0
-273,99,0,0,0,0,0,0,0,0,0,-1,951,925,0,0
-266,99,0,0,0,0,0,0,0,0,0,-1,958,925,0,0
-259,99,0,0,0,0,0,0,0,0,0,-1,965,925,0,0
-252,99,0,0,0,0,0,0,0,0,0,-1,972,925,0,0
-245,99,0,0,0,0,0,0,0,0,0,-1,979,925,0,0
-238,99,0,0,0,0,0,0,0,0,0,-1,986,925,0,0
-231,99,0,0,0,0,0,0,0,0,0,-1,993,925,0,0
-224,99,0,0,0,0,0,0,0,0,0,-1,1000,925,0,0
-217,99,0,0,0,0,0,0,0,0,0,-1,1007,925,0,0
-210,99,0,0,0,0,0,0,0,0,0,-1,1014,925,0,0
-203,99,0,0,0,0,0,0,0,0,0,-1,1021,925,0,0
-196,99,0,0,0,0,0,0,0,0,0,-1,1028,925,0,0
-189,99,0,0,0,0,0,0,0,0,0,-1,1035,925,0,0
-182,99,0,0,0,0,0,0,0,0,0,-1,1042,925,0,0
-175,99,0,0,0,0,0,0,0,0,0,-1,1049,925,0,0
-168,99,0,0,0,0,0,0,0,0,0,-1,1056,925,0,0
-161,99,0,0,0,0,0,0,0,0,0,-1,1063,925,0,0
-154,99,0,0,0,0,0,0,0,0,0,-1,1070,925,0,0
-147,99,0,0,0,0,0,0,0,0,0,-1,1077,925,0,0
-140,99,0,0,0,0,0,0,0,0,0,-1,1084,925,0,0
-133,99,0,0,0,0,0,0,0,0,0,-1,1091,925,0,0
-126,99,0,0,0,0,0,0,0,0,0,-1,1098,925,0,0
-119,99,0,0,0,0,0,0,0,0,0,-1,1105,925,0,0
-112,99,0,0,0,0,0,0,0,0,0,-1,1112,925,0,0
-105,99,0,0,0,0,0,0,0,0,0,-1,1119,925,0,0
-98,99,0,0,0,0,0,0,0,0,0,-1,1126,925,0,0
-91,99,0,0,0,0,0,0,0,0,0,-1,1133,925,0,0
-84,99,0,0,0,0,0,0,0,0,0,-1,1140,925,0,0
-77,99,0,0,0,0,0,0,0,0,0,-1,1147,925,0,0
-70,99,0,0,0,0,0,0,0,0,0,-1,1154,925,0,0
-63,99,0,0,0,0,0,0,0,0,0,-1,1161,925,0,0
-56,99,0,0,0,0,0,0,0,0,0,-1,1168,925,0,0
-49,99,0,0,0,0,0,0,0,0,0,-1,1175,925,0,0
-42,99,0,0,0,0,0,0,0,0,0,-1,1182,925,0,0
-35,99,0,0,0,0,0,0,0,0,0,-1,1189,925,0,0
-28,99,0,0,0,0,0,0,0,0,0,-1,1196,925,0,0
-21,99,0,0,0,0,0,0,0,0,0,-1,1203,925,0,0
-14,99,0,0,0,0,0,0,0,0,0,-1,1210,925,0,0
-7,99,0,0,0,0,0,0,0,0,0,-1,1217,925,0,0
0,99,0,0,0,0,0,0,0,0,0,-1,1224,925,0,0
7,99,0,0,0,0,0,0,0,0,0,-1,1231,925,0,0
14,99,0,0,0,0,0,0,0,0,0,-1,1238,925,0,0
21,99,0,0,0,0,0,0,0,0,0,-1,1245,925,0,0
28,99,0,0,0,0,0,0,0,0,0,-1,1252,925,0,0
35,99,0,0,0,0,0,0,0,0,0,-1,1259,925,0,0
42,99,0,0,0,0,0,0,0,0,0,-1,1266,925,0,0
49,99,0,0,0,0,0,0,0,0,0,-1,1273,925,0,0
56,99,0,0,0,0,0,0,0,0,0,-1,1280,925,0,0
63,99,0,0,0,0,0,0,0,0,0,-1,1287,925,0,0
70,99,0,0,0,0,0,0,0,0,0,-1,1294,925,0,0
77,99,0,0,0,0,0,0,0,0,0,-1,1301,925,0,0
84,99,0,0,0,0,0,0,0,0,0,-1,1308,925,0,0
91,99,0,0,0,0,0,0,0,0,0,-1,1315,925,0,0
98,99,0,0,0,0,0,0,0,0,0,-1,1322,925,0,0
105,99,0,0,0,0,0,0,0,0,0,-1,1329,925,0,0
112,99,0,0,0,0,0,0,0,0,0,-1,1336,925,0,0
119,99,0,0,0,0,0,0,0,0,0,-1,1343,925,0,0
126,99,0,0,0,0,0,0,0,0,0,-1,1350,925,0,0
133,99,0,0,0,0,0,0,0,0,0,-1,1357,925,0,0
140,99,0,0,0,0,0,0,0,0,0,-1,1364,925,0,0
147,99,0,0,0,0,0,0,0,0,0,-1,1371,925,0,0
154,99,0,0,0,0,0,0,0,0,0,-1,1378,925,0,0
161,99,0,0,0,0,0,0,0,0,0,-1,1385,925,0,0
168,99,0,0,0,0,0,0,0,0,0,-1,1392,925,0,0
175,99,0,0,0,0,0,0,0,0,0,-1,1399,925,0,0
182,99,0,0,0,0,0,0,0,0,0,-1,1406,925,0,0
189,99,0,0,0,0,0,0,0,0,0,-1,1413,925,0,0
196,99,0,0,0,0,0,0,0,0,0,-1,1420,925,0,0
203,99,0,0,0,0,0,0,0,0,0,-1,1427,925,0,0
210,99,0,0,0,0,0,0,0,0,0,-1,1434,925,0,0
217,99,0,0,0,0,0,0,0,0,0,-1,1441,925,0,0
224,99,0,0,0,0,0,0,0,0,0,-1,1448,925,0,0
231,99,0,0,0,0,0,0,0,0,0,-1,1455,925,0,0
238,99,0,0,0,0,0,0,0,0,0,-1,1462,925,0,0
245,99,0,0,0,0,0,0,0,0,0,-1,1469,925,0,0
252,99,0,0,0,0,0,0,0,0,0,-1,1476,925,0,0
259,99,0,0,0,0,0,0,0,0,0,-1,1483,925,0,0
266,99,0,0,0,0,0,0,0,0,0,-1,1490,925,0,0
273,99,0,0,0,0,0,0,0,0,0,-1,1497,925,0,0
280,99,0,0,0,0,0,0,0,0,0,-1,1504,925,0,0
287,99,0,0,0,0,0,0,0,0,0,-1,1511,925,0,0
294,99,0,0,0,0,0,0,0,0,0,-1,1518,925,0,0
301,99,0,0,0,0,0,0,0,0,0,-1,1525,925,0,0
308,99,0,0,0,0,0,0,0,0,0,-1,1532,925,0,0
315,99,0,0,0,0,0,0,0,0,0,-1,1539,925,0,0
322,99,0,0,0,0,0,0,0,0,0,-1,1546,925,0,0
329,99,0,0,0,0,0,0,0,0,0,-1,1553,925,0,0
336,99,0,0,0,0,0,0,0,0,0,-1,1560,925,0,0
343,99,0,0,0,0,0,0,0,0,0,-1,1567,925,0,0
350,99,0,0,0,0,0,0,0,0,0,-1,1574,925,0,0
357,99,0,0,0,0,0,0,0,0,0,-1,1581,925,0,0
364,99,0,0,0,0,0,0,0,0,0,-1,1588,925,0,0
371,99,0,0,0,0,0,0,0,0,0,-1,1595,925,0,0
378,99,0,0,0,0,0,0,0,0,0,-1,1602,925,0,0
385,99,0,0,0,0,0,0,0,0,0,-1,1609,925,0,0
392,99,0,0,0,0,0,0,0,0,0,-1,1616,925,0,0
399,99,0,0,0,0,0,0,0,0,0,-1,1623,925,0,0
406,99,0,0,0,0,0,0,0,0,0,-1,1630,925,0,0
413,99,0,0,0,0,0,0,0,0,0,-1,1637,925,0,0
420,99,0,0,0,0,0,0,0,0,0,-1,1644,925,0,0
427,99,0,0,0,0,0,0,0,0,0,-1,1651,925,0,0
434,99,0,0,0,0,0,0,0,0,0,-1,1658,925,0,0
441,99,0,0,0,0,0,0,0,0,0,-1,1665,925,0,0
448,99,0,0,0,0,0,0,0,0,0,-1,1672,925,0,0
455,99,0,0,0,0,0,0,0,0,0,-1,1679,925,0,0
462,99,0,0,0,0,0,0,0,0,0,-1,1686,925,0,0
469,99,0,0,0,0,0,0,0,0,0,-1,1693,925,0,0
476,99,0,0,0,0,0,0,0,0,0,-1,1700,925,0,0
483,99,0,0,0,0,0,0,0,0,0,-1,1707,925,0,0
490,99,0,0,0,0,0,0,0,0,0,-1,1714,925,0,0
497,99,0,0,0,0,0,0,0,0,0,-1,1721,925,0,0
504,99,0,0,0,0,0,0,0,0,0,-1,1728,925,0,0
511,99,0,0,0,0,0,0,0,0,0,-1,1735,925,0,0
518,99,0,0,0,0,0,0,0,0,0,-1,1742,925,0,0
525,99,0,0,0,0,0,0,0,0,0,-1,1749,925,0,0
532,99,0,0,0,0,0,0,0,0,0,-1,1756,925,0,0
539,99,0,0,0,0,0,0,0,0,0,-1,1763,925,0,0
546,99,0,0,0,0,0,0,0,0,0,-1,1770,925,0,0
553,99,0,0,0,0,0,0,0,0,0,-1,1777,925,0,0
560,99,0,0,0,0,0,0,0,0,0,-1,1784,925,0,0
567,99,0,0,0,0,0,0,0,0,0,-1,1791,925,0,0
574,99,0,0,0,0,0,0,0,0,0,-1,1798,925,0,0
581,99,0,0,0,0,0,0,0,0,0,-1,1805,925,0,0
588,99,0,0,0,0,0,0,0,0,0,-1,1812,925,0,0
595,99,0,0,0,0,0,0,0,0,0,-1,1819,925,0,0
602,99,0,0,0,0,0,0,0,0,0,-1,1826,925,0,0
609,99,0,0,0,0,0,0,0,0,0,-1,1833,925,0,0
616,99,0,0,0,0,0,0,0,0,0,-1,1840,925,0,0
623,99,0,0,0,0,0,0,0,0,0,-1,1847,925,0,0
630,99,0,0,0,0,0,0,0,0,0,-1,1854,925,0,0
637,99,44.4215,2.88879,-0.00513994,-0.00225887,-0.00358858,0.000167512,-0.00756632,-0.976264,0.00510097,0.0458528,1861,925,44.4215,-2.88879
644,99,44.2666,2.83691,-0.00392234,-0.00135029,-0.0028014,0.000446168,-0.0057188,-1.00058,0.00396962,0.0394336,1868,925,44.2666,-2.83692
651,99,44.2086,2.70715,-0.00327477,-0.000529811,-0.00192661,0.000463194,-0.00426777,-1.09489,0.00301148,0.0385881,1875,925,44.2087,-2.70718
658,99,44.2064,2.72467,-0.00292055,0.000289967,-0.00100027,0.000576107,-0.00320669,-1.29217,0.00235345,0.0380435,1882,925,44.2064,-2.72469
665,99,44.1448,2.7702,-0.0027232,0.000962809,-0.000191406,0.000972721,-0.00273311,-1.51905,0.00221857,0.0400903,1889,925,44.1448,-2.77018
672,99,44.1934,2.70868,-0.00257292,0.00126075,0.000482319,0.0013205,-0.00263267,1.44754,0.0023239,0.0415239,1896,925,44.1933,-2.70866
679,99,44.1664,2.61127,-0.00235526,0.00125593,0.000954568,0.00149273,-0.00259206,1.32764,0.00238665,0.0352027,1903,925,44.1663,-2.61129
686,99,44.1288,2.61609,-0.0020856,0.00118044,0.00112938,0.00153293,-0.00243809,1.26827,0.00231244,0.0273331,1910,925,44.1288,-2.61608
693,99,44.1356,2.75763,-0.00177068,0.00112191,0.00120787,0.00155995,-0.00220872,1.22289,0.00218656,0.0258051,1917,925,44.1356,-2.75766
700,99,44.0765,2.94043,0,0,0,0,0,0,0,-1,1924,925,44.0766,-2.94044
707,99,40.7483,3.29565,0,0,0,0,0,0,0,-1,1931,925,40.7483,-3.29567
714,99,40.7437,3.75616,-0.00202955,0.00129169,0.000569021,0.00138648,-0.00212433,1.40574,0.00204183,0.0350422,1938,925,40.7436,-3.75618
721,99,40.6184,4.11761,-0.00218165,0.00123358,0.000342838,0.00126765,-0.00221572,1.47173,0.00203581,0.028229,1945,925,40.6184,-4.11761
728,99,40.6547,4.5611,-0.0024623,0.00144336,0.000156152,0.00144959,-0.00246853,1.5309,0.00228749,0.0226078,1952,925,40.6546,-4.56107
735,99,40.6335,4.98242,-0.0028064,0.0018551,-0.00043472,0.00189529,-0.0028466,-1.4786,0.00275603,0.018496,1959,925,40.6335,-4.98245
742,99,40.5822,5.35187,-0.00351,0.00291672,-0.00122291,0.00314156,-0.00373483,-1.38897,0.00397501,0.0130312,1966,925,40.5822,-5.35185
749,99,40.5322,5.73035,-0.0046567,0.00446844,-0.00182666,0.00482052,-0.00500877,-1.38039,0.00567529,0.0119218,1973,925,40.5322,-5.73033
756,99,40.5052,6.07648,-0.00624723,0.00663121,-0.00210085,0.00696526,-0.00658127,-1.41311,0.00782214,0.012741,1980,925,40.5052,-6.07647
763,99,40.455,6.43701,-0.00798681,0.00918447,-0.00205196,0.00942627,-0.00822862,-1.4535,0.0102009,0.0151659,1987,925,40.455,-6.437
770,99,40.3627,6.91632,-0.00971023,0.0120553,-0.00187399,0.0122154,-0.0098704,-1.48553,0.0127752,0.0288777,1994,925,40.3626,-6.91632
777,99,40.2513,7.43207,-0.0115121,0.0153725,-0.00124304,0.0154298,-0.0115694,-1.52469,0.015641,0.0437528,2001,925,40.2513,-7.43207
784,99,40.1892,7.91748,0,0,0,0,0,0,0,-1,2008,925,40.1892,-7.91745
791,99,40.1663,8.40015,0,0,0,0,0,0,0,-1,2015,925,40.1662,-8.40014
798,99,41.8503,8.57849,0,0,0,0,0,0,0,-1,2022,925,41.8503,-8.5785
805,99,0,0,0,0,0,0,0,0,0,-1,2029,925,0,0
812,99,0,0,0,0,0,0,0,0,0,-1,2036,925,0,0
-700,92,0,0,0,0,0,0,0,0,0,-1,524,932,0,0
-693,92,0,0,0,0,0,0,0,0,0,-1,531,932,0,0
-686,92,-30.552,3.91992,-0.0602137,-0.0173815,0.0248516,-0.00599131,-0.0716039,1.14104,0.0458695,0.0468495,538,932,-30.552,-3.91991
-679,92,-30.8151,3.84515,-0.042869,-0.0075488,0.0183448,0.000255009,-0.0506729,1.16859,0.0338672,0.0454064,545,932,-30.8151,-3.84517
-672,92,-31.2037,4.36627,-0.0299027,-0.00174745,0.0133818,0.00359789,-0.0352481,1.19076,0.0247852,0.0440233,552,932,-31.2037,-4.36628
-665,92,-31.3568,5.05615,-0.0202577,0.00196602,0.00958081,0.00552608,-0.0238178,1.21503,0.0180055,0.0483831,559,932,-31.3568,-5.05613
-658,92,-31.507,4.64886,-0.0129758,0.00416834,0.00672956,0.00649432,-0.0153017,1.23801,0.0129219,0.0482752,566,932,-31.507,-4.64887
-651,92,-30.1487,4.55389,0,0,0,0,0,0,0,-1,573,932,-30.1487,-4.55392
-644,92,-30.1953,4.237,-0.00387275,0.00557309,0.00334083,0.00663525,-0.00493491,1.26297,0.00670404,0.0452861,580,932,-30.1953,-4.237
-637,92,-30.2477,3.9519,-0.00142849,0.00539501,0.00246484,0.00619223,-0.00222572,1.25798,0.00503674,0.0252863,587,932,-30.2477,-3.95193
-630,92,-30.3146,3.62238,-0.00041048,0.00491169,0.00182811,0.00547913,-0.000977919,1.26983,0.00401859,0.0132106,594,932,-30.3146,-3.62236
-623,92,-30.411,3.29291,-0.000836054,0.00416647,0.00131487,0.00449102,-0.0011606,1.3288,0.00344665,0.00987771,601,932,-30.411,-3.29291
-616,92,-30.4146,2.97198,-0.0013476,0.00306059,0.000797303,0.00320037,-0.00148738,1.39725,0.00276605,0.0093152,608,932,-30.4145,-2.97201
-609,92,-30.4267,2.65503,-0.00305144,0.00165122,0.000559823,0.00171694,-0.00311717,1.45393,0.00282973,0.00952279,615,932,-30.4267,-2.65502
-602,92,-30.3964,2.32977,-0.00531221,0.000314294,0.000529418,0.000363676,-0.00536159,1.47779,0.00370158,0.0108289,622,932,-30.3964,-2.32978
-595,92,-30.329,1.94598,-0.00745345,-0.000434683,0.00121366,-0.000230746,-0.00765738,1.40432,0.00502977,0.019809,629,932,-30.329,-1.94597
-588,92,-30.382,1.63525,-0.00841004,-0.00150418,0.00109865,-0.00133361,-0.00858061,1.41677,0.00533176,0.0226056,636,932,-30.382,-1.63525
-581,92,-30.5679,1.26001,-0.00827943,-0.00180838,0.000812493,-0.00170793,-0.00837988,1.44778,0.00511326,0.0224904,643,932,-30.5679,-1.25999
-574,92,-31.1578,0.873352,-0.00804756,-0.00175263,0.000485545,-0.0017154,-0.00808479,1.49427,0.0049188,0.0411658,650,932,-31.1579,-0.873374
-567,92,-32.043,0.49884,0,0,0,0,0,0,0,-1,657,932,-32.043,-0.498861
-560,92,-32.5656,0.758728,-0.00672088,-0.00221734,0.000100358,-0.0022151,-0.00672312,1.54853,0.00395612,0.0384903,664,932,-32.5655,-0.758734
-553,92,-32.7184,0.875671,-0.00549462,-0.00215254,-7.00791e-05,-0.00215107,-0.00549609,-1.54984,0.00319803,0.0379856,671,932,-32.7184,-0.87568
-546,92,-32.6509,1.05261,-0.00353795,-0.00181914,-0.000323058,-0.00176043,-0.00359667,-1.39101,0.00207669,0.0378733,678,932,-32.651,-1.05261
-539,92,-32.6113,0.957214,-0.000659242,-0.00115209,-0.000752227,-0.000114102,-0.00169722,-0.627112,0.00109543,0.0367203,685,932,-32.6113,-0.957198
-532,92,-32.7592,0.900757,0.00317537,-3.54734e-05,-0.00161235,0.00384526,-0.000705365,-0.393776,0.00282811,0.0405921,692,932,-32.7592,-0.900746
-525,92,-32.7935,0.928894,0.00670522,0.00177469,-0.00329521,0.00835528,0.00012463,-0.464245,0.00552911,0.0400792,699,932,-32.7935,-0.92889
-518,92,-32.7203,0.789063,0.00657594,0.00377237,-0.00565886,0.0110041,-0.000655745,-0.663984,0.0075641,0.0408116,706,932,-32.7203,-0.789042
-511,92,0,0,0,0,0,0,0,0,0,-1,713,932,0,0
-504,92,0,0,0,0,0,0,0,0,0,-1,720,932,0,0
-497,92,0,0,0,0,0,0,0,0,0,-1,727,932,0,0
-490,92,0,0,0,0,0,0,0,0,0,-1,734,932,0,0
-483,92,0,0,0,0,0,0,0,0,0,-1,741,932,0,0
-476,92,0,0,0,0,0,0,0,0,0,-1,748,932,0,0
-469,92,0,0,0,0,0,0,0,0,0,-1,755,932,0,0
-462,92,0,0,0,0,0,0,0,0,0,-1,762,932,0,0
-455,92,0,0,0,0,0,0,0,0,0,-1,769,932,0,0
-448,92,0,0,0,0,0,0,0,0,0,-1,776,932,0,0
-441,92,0,0,0,0,0,0,0,0,0,-1,783,932,0,0
-434,92,0,0,0,0,0,0,0,0,0,-1,790,932,0,0
-427,92,0,0,0,0,0,0,0,0,0,-1,797,932,0,0
-420,92,0,0,0,0,0,0,0,0,0,-1,804,932,0,0
-413,92,0,0,0,0,0,0,0,0,0,-1,811,932,0,0
-406,92,0,0,0,0,0,0,0,0,0,-1,818,932,0,0
-399,92,0,0,0,0,0,0,0,0,0,-1,825,932,0,0
-392,92,0,0,0,0,0,0,0,0,0,-1,832,932,0,0
-385,92,0,0,0,0,0,0,0,0,0,-1,839,932,0,0
-378,92,0,0,0,0,0,0,0,0,0,-1,846,932,0,0
-371,92,0,0,0,0,0,0,0,0,0,-1,853,932,0,0
-364,92,0,0,0,0,0,0,0,0,0,-1,860,932,0,0
-357,92,0,0,0,0,0,0,0,0,0,-1,867,932,0,0
-350,92,0,0,0,0,0,0,0,0,0,-1,874,932,0,0
-343,92,0,0,0,0,0,0,0,0,0,-1,881,932,0,0
-336,92,0,0,0,0,0,0,0,0,0,-1,888,932,0,0
-329,92,0,0,0,0,0,0,0,0,0,-1,895,932,0,0
-322,92,0,0,0,0,0,0,0,0,0,-1,902,932,0,0
-315,92,0,0,0,0,0,0,0,0,0,-1,909,932,0,0
-308,92,0,0,0,0,0,0,0,0,0,-1,916,932,0,0
-301,92,0,0,0,0,0,0,0,0,0,-1,923,932,0,0
-294,92,0,0,0,0,0,0,0,0,0,-1,930,932,0,0
-287,92,0,0,0,0,0,0,0,0,0,-1,937,932,0,0
-280,92,0,0,0,0,0,0,0,0,0,-1,944,932,0,0
-273,92,0,0,0,0,0,0,0,0,0,-1,951,932,0,0
-266,92,0,0,0,0,0,0,0,0,0,-1,958,932,0,0
-259,92,0,0,0,0,0,0,0,0,0,-1,965,932,0,0
-252,92,0,0,0,0,0,0,0,0,0,-1,972,932,0,0
-245,92,0,0,0,0,0,0,0,0,0,-1,979,932,0,0
-238,92,0,0,0,0,0,0,0,0,0,-1,986,932,0,0
-231,92,0,0,0,0,0,0,0,0,0,-1,993,932,0,0
-224,92,0,0,0,0,0,0,0,0,0,-1,1000,932,0,0
-217,92,0,0,0,0,0,0,0,0,0,-1,1007,932,0,0
-210,92,0,0,0,0,0,0,0,0,0,-1,1014,932,0,0
-203,92,0,0,0,0,0,0,0,0,0,-1,1021,932,0,0
-196,92,0,0,0,0,0,0,0,0,0,-1,1028,932,0,0
-189,92,0,0,0,0,0,0,0,0,0,-1,1035,932,0,0
-182,92,0,0,0,0,0,0,0,0,0,-1,1042,932,0,0
-175,92,0,0,0,0,0,0,0,0,0,-1,1049,932,0,0
-168,92,0,0,0,0,0,0,0,0,0,-1,1056,932,0,0
-161,92,0,0,0,0,0,0,0,0,0,-1,1063,932,0,0
-154,92,0,0,0,0,0,0,0,0,0,-1,1070,932,0,0
-147,92,0,0,0,0,0,0,0,0,0,-1,1077,932,0,0
-140,92,0,0,0,0,0,0,0,0,0,-1,1084,932,0,0
-133,92,0,0,0,0,0,0,0,0,0,-1,1091,932,0,0
-126,92,0,0,0,0,0,0,0,0,0,-1,1098,932,0,0
-119,92,0,0,0,0,0,0,0,0,0,-1,1105,932,0,0
-112,92,0,0,0,0,0,0,0,0,0,-1,1112,932,0,0
-105,92,0,0,0,0,0,0,0,0,0,-1,1119,932,0,0
-98,92,0,0,0,0,0,0,0,0,0,-1,1126,932,0,0
-91,92,0,0,0,0,0,0,0,0,0,-1,1133,932,0,0
-84,92,0,0,0,0,0,0,0,0,0,-1,1140,932,0,0
-77,92,0,0,0,0,0,0,0,0,0,-1,1147,932,0,0
-70,92,0,0,0,0,0,0,0,0,0,-1,1154,932,0,0
-63,92,0,0,0,0,0,0,0,0,0,-1,1161,932,0,0
-56,92,0,0,0,0,0,0,0,0,0,-1,1168,932,0,0
-49,92,0,0,0,0,0,0,0,0,0,-1,1175,932,0,0
-42,92,0,0,0,0,0,0,0,0,0,-1,1182,932,0,0
-35,92,0,0,0,0,0,0,0,0,0,-1,1189,932,0,0
-28,92,0,0,0,0,0,0,0,0,0,-1,1196,932,0,0
-21,92,0,0,0,0,0,0,0,0,0,-1,1203,932,0,0
-14,92,0,0,0,0,0,0,0,0,0,-1,1210,932,0,0
-7,92,0,0,0,0,0,0,0,0,0,-1,1217,932,0,0
0,92,0,0,0,0,0,0,0,0,0,-1,1224,932,0,0
7,92,0,0,0,0,0,0,0,0,0,-1,1231,932,0,0
14,92,0,0,0,0,0,0,0,0,0,-1,1238,932,0,0
21,92,0,0,0,0,0,0,0,0,0,-1,1245,932,0,0
28,92,0,0,0,0,0,0,0,0,0,-1,1252,932,0,0
35,92,0,0,0,0,0,0,0,0,0,-1,1259,932,0,0
42,92,0,0,0,0,0,0,0,0,0,-1,1266,932,0,0
49,92,0,0,0,0,0,0,0,0,0,-1,1273,932,0,0
56,92,0,0,0,0,0,0,0,0,0,-1,1280,932,0,0
63,92,0,0,0,0,0,0,0,0,0,-1,1287,932,0,0
70,92,0,0,0,0,0,0,0,0,0,-1,1294,932,0,0
77,92,0,0,0,0,0,0,0,0,0,-1,1301,932,0,0
84,92,0,0,0,0,0,0,0,0,0,-1,1308,932,0,0
91,92,0,0,0,0,0,0,0,0,0,-1,1315,932,0,0
98,92,0,0,0,0,0,0,0,0,0,-1,1322,932,0,0
105,92,0,0,0,0,0,0,0,0,0,-1,1329,932,0,0
112,92,0,0,0,0,0,0,0,0,0,-1,1336,932,0,0
119,92,0,0,0,0,0,0,0,0,0,-1,1343,932,0,0
126,92,0,0,0,0,0,0,0,0,0,-1,1350,932,0,0
133,92,0,0,0,0,0,0,0,0,0,-1,1357,932,0,0
140,92,0,0,0,0,0,0,0,0,0,-1,1364,932,0,0
147,92,0,0,0,0,0,0,0,0,0,-1,1371,932,0,0
154,92,0,0,0,0,0,0,0,0,0,-1,1378,932,0,0
161,92,0,0,0,0,0,0,0,0,0,-1,1385,932,0,0
168,92,0,0,0,0,0,0,0,0,0,-1,1392,932,0,0
175,92,0,0,0,0,0,0,0,0,0,-1,1399,932,0,0
182,92,0,0,0,0,0,0,0,0,0,-1,1406,932,0,0
189,92,0,0,0,0,0,0,0,0,0,-1,1413,932,0,0
196,92,0,0,0,0,0,0,0,0,0,-1,1420,932,0,0
203,92,0,0,0,0,0,0,0,0,0,-1,1427,932,0,0
210,92,0,0,0,0,0,0,0,0,0,-1,1434,932,0,0
217,92,0,0,0,0,0,0,0,0,0,-1,1441,932,0,0
224,92,0,0,0,0,0,0,0,0,0,-1,1448,932,0,0
231,92,0,0,0,0,0,0,0,0,0,-1,1455,932,0,0
238,92,0,0,0,0,0,0,0,0,0,-1,1462,932,0,0
245,92,0,0,0,0,0,0,0,0,0,-1,1469,932,0,0
252,92,0,0,0,0,0,0,0,0,0,-1,1476,932,0,0
259,92,0,0,0,0,0,0,0,0,0,-1,1483,932,0,0
266,92,0,0,0,0,0,0,0,0,0,-1,1490,932,0,0
273,92,0,0,0,0,0,0,0,0,0,-1,1497,932,0,0
280,92,0,0,0,0,0,0,0,0,0,-1,1504,932,0,0
287,92,0,0,0,0,0,0,0,0,0,-1,1511,932,0,0
294,92,0,0,0,0,0,0,0,0,0,-1,1518,932,0,0
301,92,0,0,0,0,0,0,0,0,0,-1,1525,932,0,0
308,92,0,0,0,0,0,0,0,0,0,-1,1532,932,0,0
315,92,0,0,0,0,0,0,0,0,0,-1,1539,932,0,0
322,92,0,0,0,0,0,0,0,0,0,-1,1546,932,0,0
329,92,0,0,0,0,0,0,0,0,0,-1,1553,932,0,0
336,92,0,0,0,0,0,0,0,0,0,-1,1560,932,0,0
343,92,0,0,0,0,0,0,0,0,0,-1,1567,932,0,0
350,92,0,0,0,0,0,0,0,0,0,-1,1574,932,0,0
357,92,0,0,0,0,0,0,0,0,0,-1,1581,932,0,0
364,92,0,0,0,0,0,0,0,0,0,-1,1588,932,0,0
371,92,0,0,0,0,0,0,0,0,0,-1,1595,932,0,0
378,92,0,0,0,0,0,0,0,0,0,-1,1602,932,0,0
385,92,0,0,0,0,0,0,0,0,0,-1,1609,932,0,0
392,92,0,0,0,0,0,0,0,0,0,-1,1616,932,0,0
399,92,0,0,0,0,0,0,0,0,0,-1,1623,932,0,0
406,92,0,0,0,0,0,0,0,0,0,-1,1630,932,0,0
413,92,0,0,0,0,0,0,0,0,0,-1,1637,932,0,0
420,92,0,0,0,0,0,0,0,0,0,-1,1644,932,0,0
427,92,0,0,0,0,0,0,0,0,0,-1,1651,932,0,0
434,92,0,0,0,0,0,0,0,0,0,-1,1658,932,0,0
441,92,0,0,0,0,0,0,0,0,0,-1,1665,932,0,0
448,92,0,0,0,0,0,0,0,0,0,-1,1672,932,0,0
455,92,0,0,0,0,0,0,0,0,0,-1,1679,932,0,0
462,92,0,0,0,0,0,0,0,0,0,-1,1686,932,0,0
469,92,0,0,0,0,0,0,0,0,0,-1,1693,932,0,0
476,92,0,0,0,0,0,0,0,0,0,-1,1700,932,0,0
483,92,0,0,0,0,0,0,0,0,0,-1,1707,932,0,0
490,92,0,0,0,0,0,0,0,0,0,-1,1714,932,0,0
497,92,0,0,0,0,0,0,0,0,0,-1,1721,932,0,0
504,92,0,0,0,0,0,0,0,0,0,-1,1728,932,0,0
511,92,0,0,0,0,0,0,0,0,0,-1,1735,932,0,0
518,92,0,0,0,0,0,0,0,0,0,-1,1742,932,0,0
525,92,0,0,0,0,0,0,0,0,0,-1,1749,932,0,0
532,92,0,0,0,0,0,0,0,0,0,-1,1756,932,0,0
539,92,0,0,0,0,0,0,0,0,0,-1,1763,932,0,0
546,92,0,0,0,0,0,0,0,0,0,-1,1770,932,0,0
553,92,0,0,0,0,0,0,0,0,0,-1,1777,932,0,0
560,92,0,0,0,0,0,0,0,0,0,-1,1784,932,0,0
567,92,0,0,0,0,0,0,0,0,0,-1,1791,932,0,0
574,92,0,0,0,0,0,0,0,0,0,-1,1798,932,0,0
581,92,0,0,0,0,0,0,0,0,0,-1,1805,932,0,0
588,92,0,0,0,0,0,0,0,0,0,-1,1812,932,0,0
595,92,0,0,0,0,0,0,0,0,0,-1,1819,932,0,0
602,92,0,0,0,0,0,0,0,0,0,-1,1826,932,0,0
609,92,0,0,0,0,0,0,0,0,0,-1,1833,932,0,0
616,92,0,0,0,0,0,0,0,0,0,-1,1840,932,0,0
623,92,0,0,0,0,0,0,0,0,0,-1,1847,932,0,0
630,92,0,0,0,0,0,0,0,0,0,-1,1854,932,0,0
637,92,44.344,2.94208,-0.00583786,-0.00122564,-0.00355018,0.000701686,-0.00776519,-1.07344,0.00542583,0.047899,1861,932,44.344,-2.94211
644,92,44.1389,2.83954,-0.00438443,-0.000518215,-0.00285193,0.000994023,-0.00589667,-1.08324,0.00430092,0.0407111,1868,932,44.1389,-2.83954
651,92,44.1005,2.80048,-0.0035581,0.000107097,-0.0020285,0.00100822,-0.00445923,-1.15275,0.0033597,0.0411451,1875,932,44.1005,-2.8005
658,92,44.1808,2.97736,-0.00308363,0.000749556,-0.00112856,0.00105714,-0.00339122,-1.30471,0.00268352,0.0429378,1882,932,44.1808,-2.97737
665,92,44.0051,2.86414,-0.002823,0.0013089,-0.000268381,0.00132626,-0.00284036,-1.5062,0.00245797,0.0429627,1889,932,44.0051,-2.86416
672,92,44.3533,2.54034,0,0,0,0,0,0,0,-1,1896,932,44.3533,-2.54034
679,92,44.2537,2.53503,-0.0024562,0.00147701,0.00102078,0.00172615,-0.00270534,1.33141,0.00257925,0.0381213,1903,932,44.2536,-2.53506
686,92,44.1836,2.52625,-0.00217326,0.00133642,0.00123268,0.0017261,-0.00256294,1.26461,0.00249194,0.0291296,1910,932,44.1836,-2.52627
693,92,44.1775,2.6972,-0.00183142,0.00120836,0.00132988,0.00170804,-0.0023311,1.21139,0.00234122,0.0233014,1917,932,44.1775,-2.69718
700,92,44.1566,2.79773,0,0,0,0,0,0,0,-1,1924,932,44.1566,-2.79773
707,92,32.9893,3.26874,0,0,0,0,0,0,0,-1,1931,932,32.9893,-3.26874
714,92,41.5405,4.1745,0,0,0,0,0,0,0,-1,1938,932,41.5405,-4.17452
721,92,41.0902,4.22894,-0.00225277,0.00126812,0.000405128,0.00131413,-0.00229878,1.4577,0.00211158,0.0314503,1945,932,41.0902,-4.22893
728,92,41.0173,4.63934,-0.00244077,0.00154612,0.00014377,0.0015513,-0.00244595,1.5348,0.002327,0.0236274,1952,932,41.0173,-4.63933
735,92,40.999,4.99042,-0.00268956,0.00205804,-0.000561455,0.00212354,-0.00275505,-1.45467,0.00282451,0.0186295,1959,932,40.9991,-4.99039
742,92,41.0326,5.33698,-0.00324809,0.00321669,-0.0014847,0.00354136,-0.00357276,-1.35551,0.00410735,0.0189398,1966,932,41.0326,-5.337
749,92,40.9612,5.71924,-0.00414353,0.00489429,-0.00233919,0.00546383,-0.00471307,-1.33196,0.00588097,0.0169113,1973,932,40.9611,-5.71921
756,92,40.902,6.05615,-0.00539754,0.00733716,-0.00302555,0.00801943,-0.00607981,-1.349,0.00816583,0.0143283,1980,932,40.9019,-6.05616
763,92,40.9075,6.40314,-0.00676396,0.010363,-0.00354517,0.0110678,-0.00746878,-1.37454,0.0107691,0.0165235,1987,932,40.9074,-6.40311
770,92,40.8429,6.87866,-0.0080504,0.0137799,-0.00409226,0.0145218,-0.00879231,-1.39145,0.0135952,0.0255577,1994,932,40.8429,-6.87864
777,92,40.7244,7.33398,-0.00929365,0.0178043,-0.00452209,0.018539,-0.0100284,-1.40973,0.0167356,0.0436417,2001,932,40.7243,-7.33397
784,92,40.5793,7.8985,0,0,0,0,0,0,0,-1,2008,932,40.5793,-7.89852
791,92,41.6355,8.07574,0,0,0,0,0,0,0,-1,2015,932,41.6355,-8.07574
798,92,42.012,8.49536,0,0,0,0,0,0,0,-1,2022,932,42.012,-8.49538
805,92,0,0,0,0,0,0,0,0,0,-1,2029,932,0,0
812,92,0,0,0,0,0,0,0,0,0,-1,2036,932,0,0
-700,85,0,0,0,0,0,0,0,0,0,-1,524,939,0,0
-693,85,0,0,0,0,0,0,0,0,0,-1,531,939,0,0
-686,85,-30.3721,4.10101,-0.0594603,-0.0191531,0.0249132,-0.00726245,-0.071351,1.12549,0.0453408,0.0461603,538,939,-30.3721,-4.10101
-679,85,-30.6774,4.33862,-0.0425815,-0.00895443,0.0193917,-0.000102153,-0.0514338,1.14255,0.0342552,0.0452355,545,939,-30.6773,-4.33862
-672,85,-30.7906,4.46735,-0.0298002,-0.0023786,0.0148924,0.00415336,-0.0363322,1.15745,0.0257179,0.0449879,552,939,-30.7906,-4.46736
-665,85,-31.0558,4.58258,-0.0201731,0.00197811,0.0112386,0.00668146,-0.0248765,1.17445,0.0192029,0.0438023,559,939,-31.0559,-4.58258
-658,85,-30.419,4.52667,0,0,0,0,0,0,0,-1,566,939,-30.419,-4.52667
-651,85,-30.4637,4.29968,-0.00754284,0.00601665,0.00616775,0.00840239,-0.00992857,1.20171,0.0105956,0.0461077,573,939,-30.4637,-4.29968
-644,85,-30.545,4.07513,-0.00383475,0.00640627,0.00460343,0.00817134,-0.00559982,1.20466,0.00799685,0.0337877,580,939,-30.545,-4.07512
-637,85,-30.6108,3.85321,-0.00136642,0.00623781,0.00346339,0.00757877,-0.00270738,1.20139,0.0061567,0.0173052,587,939,-30.6108,-3.85322
-630,85,-30.692,3.54437,-0.00050564,0.0056431,0.0025,0.00653127,-0.00139381,1.22943,0.00488552,0.0113556,594,939,-30.692,-3.54438
-623,85,-30.7631,3.23456,-0.00100213,0.00484883,0.00164343,0.00527884,-0.00143213,1.31488,0.00408124,0.0100012,601,939,-30.763,-3.23454
-616,85,-30.7691,2.94452,-0.00162467,0.00360915,0.000821327,0.00373501,-0.00175053,1.41874,0.00323542,0.00988262,608,939,-30.7691,-2.94455
-609,85,-30.7896,2.63129,-0.0033112,0.00207648,0.000351685,0.00209934,-0.00333406,1.50589,0.00316386,0.012251,615,939,-30.7896,-2.63132
-602,85,-30.7962,2.30682,-0.0056007,0.000653186,0.000154278,0.000656989,-0.0056045,1.54615,0.00397348,0.0162372,622,939,-30.7962,-2.30683
-595,85,-30.7112,1.99249,-0.007773,-0.000160858,0.000674534,-0.000101548,-0.00783231,1.48309,0.00518802,0.0190365,629,939,-30.7113,-1.99246
-588,85,-30.7162,1.68323,-0.00883293,-0.00136249,0.000529937,-0.00132509,-0.00887034,1.50033,0.00552509,0.0188696,636,939,-30.7162,-1.68325
-581,85,-30.8825,1.37701,-0.00874918,-0.00170278,0.000208939,-0.00169659,-0.00875537,1.54118,0.00536162,0.0257302,643,939,-30.8825,-1.377
-574,85,-31.4999,1.05463,-0.00848448,-0.00167681,-0.000131398,-0.00167428,-0.00848702,-1.5515,0.00519072,0.0422588,650,939,-31.4999,-1.05465
-567,85,-32.3897,0.789612,0,0,0,0,0,0,0,-1,657,939,-32.3897,-0.789618
-560,85,-32.5641,0.803284,-0.0069699,-0.00203717,-0.000492937,-0.00198839,-0.00701868,-1.47216,0.00417717,0.0358307,664,939,-32.5642,-0.803305
-553,85,-32.6286,0.726074,-0.0053942,-0.00187473,-0.000647369,-0.00175943,-0.0055095,-1.39454,0.00324938,0.0386949,671,939,-32.6286,-0.726055
-546,85,-32.6472,0.947937,-0.00294961,-0.00141995,-0.000909692,-0.000996294,-0.00337327,-1.13495,0.0020012,0.0388706,678,939,-32.6471,-0.947941
-539,85,-32.6462,1.09381,0.000522117,-0.000599562,-0.001402,0.00147129,-0.00154874,-0.595133,0.00174381,0.0381367,685,939,-32.6462,-1.09379
-532,85,-32.6249,1.00012,0.00498976,0.000719535,-0.00246829,0.00611826,-0.000408963,-0.428824,0.00422177,0.0393678,692,939,-32.625,-1.00013
-525,85,-32.6072,0.913208,0.0087391,0.00281913,-0.00462961,0.0112741,0.000284133,-0.500969,0.00742317,0.0391281,699,939,-32.6072,-0.913201
-518,85,-32.6229,0.845154,0.00821025,0.00524193,-0.00764338,0.0145122,-0.00106005,-0.689503,0.0100468,0.0393397,706,939,-32.6229,-0.84515
-511,85,0,0,0,0,0,0,0,0,0,-1,713,939,0,0
-504,85,0,0,0,0,0,0,0,0,0,-1,720,939,0,0
-497,85,0,0,0,0,0,0,0,0,0,-1,727,939,0,0
-490,85,0,0,0,0,0,0,0,0,0,-1,734,939,0,0
-483,85,0,0,0,0,0,0,0,0,0,-1,741,939,0,0
-476,85,0,0,0,0,0,0,0,0,0,-1,748,939,0,0
-469,85,0,0,0,0,0,0,0,0,0,-1,755,939,0,0
-462,85,0,0,0,0,0,0,0,0,0,-1,762,939,0,0
-455,85,0,0,0,0,0,0,0,0,0,-1,769,939,0,0
-448,85,0,0,0,0,0,0,0,0,0,-1,776,939,0,0
-441,85,0,0,0,0,0,0,0,0,0,-1,783,939,0,0
-434,85,0,0,0,0,0,0,0,0,0,-1,790,939,0,0
-427,85,0,0,0,0,0,0,0,0,0,-1,797,939,0,0
-420,85,0,0,0,0,0,0,0,0,0,-1,804,939,0,0
-413,85,0,0,0,0,0,0,0,0,0,-1,811,939,0,0
-406,85,0,0,0,0,0,0,0,0,0,-1,818,939,0,0
-399,85,0,0,0,0,0,0,0,0,0,-1,825,939,0,0
-392,85,0,0,0,0,0,0,0,0,0,-1,832,939,0,0
-385,85,0,0,0,0,0,0,0,0,0,-1,839,939,0,0
-378,85,0,0,0,0,0,0,0,0,0,-1,846,939,0,0
-371,85,0,0,0,0,0,0,0,0,0,-1,853,939,0,0
-364,85,0,0,0,0,0,0,0,0,0,-1,860,939,0,0
-357,85,0,0,0,0,0,0,0,0,0,-1,867,939,0,0
-350,85,0,0,0,0,0,0,0,0,0,-1,874,939,0,0
-343,85,0,0,0,0,0,0,0,0,0,-1,881,939,0,0
-336,85,0,0,0,0,0,0,0,0,0,-1,888,939,0,0
-329,85,0,0,0,0,0,0,0,0,0,-1,895,939,0,0
-322,85,0,0,0,0,0,0,0,0,0,-1,902,939,0,0
-315,85,0,0,0,0,0,0,0,0,0,-1,909,939,0,0
-308,85,0,0,0,0,0,0,0,0,0,-1,916,939,0,0
-301,85,0,0,0,0,0,0,0,0,0,-1,923,939,0,0
-294,85,0,0,0,0,0,0,0,0,0,-1,930,939,0,0
-287,85,0,0,0,0,0,0,0,0,0,-1,937,939,0,0
-280,85,0,0,0,0,0,0,0,0,0,-1,944,939,0,0
-273,85,0,0,0,0,0,0,0,0,0,-1,951,939,0,0
-266,85,0,0,0,0,0,0,0,0,0,-1,958,939,0,0
-259,85,0,0,0,0,0,0,0,0,0,-1,965,939,0,0
-252,85,0,0,0,0,0,0,0,0,0,-1,972,939,0,0
-245,85,0,0,0,0,0,0,0,0,0,-1,979,939,0,0
-238,85,0,0,0,0,0,0,0,0,0,-1,986,939,0,0
-231,85,0,0,0,0,0,0,0,0,0,-1,993,939,0,0
-224,85,0,0,0,0,0,0,0,0,0,-1,1000,939,0,0
-217,85,0,0,0,0,0,0,0,0,0,-1,1007,939,0,0
-210,85,0,0,0,0,0,0,0,0,0,-1,1014,939,0,0
-203,85,0,0,0,0,0,0,0,0,0,-1,1021,939,0,0
-196,85,0,0,0,0,0,0,0,0,0,-1,1028,939,0,0
-189,85,0,0,0,0,0,0,0,0,0,-1,1035,939,0,0
-182,85,0,0,0,0,0,0,0,0,0,-1,1042,939,0,0
-175,85,0,0,0,0,0,0,0,0,0,-1,1049,939,0,0
-168,85,0,0,0,0,0,0,0,0,0,-1,1056,939,0,0
-161,85,0,0,0,0,0,0,0,0,0,-1,1063,939,0,0
-154,85,0,0,0,0,0,0,0,0,0,-1,1070,939,0,0
-147,85,0,0,0,0,0,0,0,0,0,-1,1077,939,0,0
-140,85,0,0,0,0,0,0,0,0,0,-1,1084,939,0,0
-133,85,0,0,0,0,0,0,0,0,0,-1,1091,939,0,0
-126,85,0,0,0,0,0,0,0,0,0,-1,1098,939,0,0
-119,85,0,0,0,0,0,0,0,0,0,-1,1105,939,0,0
-112,85,0,0,0,0,0,0,0,0,0,-1,1112,939,0,0
-105,85,0,0,0,0,0,0,0,0,0,-1,1119,939,0,0
-98,85,0,0,0,0,0,0,0,0,0,-1,1126,939,0,0
-91,85,0,0,0,0,0,0,0,0,0,-1,1133,939,0,0
-84,85,0,0,0,0,0,0,0,0,0,-1,1140,939,0,0
-77,85,0,0,0,0,0,0,0,0,0,-1,1147,939,0,0
-70,85,0,0,0,0,0,0,0,0,0,-1,1154,939,0,0
-63,85,0,0,0,0,0,0,0,0,0,-1,1161,939,0,0
-56,85,0,0,0,0,0,0,0,0,0,-1,1168,939,0,0
-49,85,0,0,0,0,0,0,0,0,0,-1,1175,939,0,0
-42,85,0,0,0,0,0,0,0,0,0,-1,1182,939,0,0
-35,85,0,0,0,0,0,0,0,0,0,-1,1189,939,0,0
-28,85,0,0,0,0,0,0,0,0,0,-1,1196,939,0,0
-21,85,0,0,0,0,0,0,0,0,0,-1,1203,939,0,0
-14,85,0,0,0,0,0,0,0,0,0,-1,1210,939,0,0
-7,85,0,0,0,0,0,0,0,0,0,-1,1217,939,0,0
0,85,0,0,0,0,0,0,0,0,0,-1,1224,939,0,0
7,85,0,0,0,0,0,0,0,0,0,-1,1231,939,0,0
14,85,0,0,0,0,0,0,0,0,0,-1,1238,939,0,0
21,85,0,0,0,0,0,0,0,0,0,-1,1245,939,0,0
28,85,0,0,0,0,0,0,0,0,0,-1,1252,939,0,0
35,85,0,0,0,0,0,0,0,0,0,-1,1259,939,0,0
42,85,0,0,0,0,0,0,0,0,0,-1,1266,939,0,0
49,85,0,0,0,0,0,0,0,0,0,-1,1273,939,0,0
56,85,0,0,0,0,0,0,0,0,0,-1,1280,939,0,0
63,85,0,0,0,0,0,0,0,0,0,-1,1287,939,0,0
70,85,0,0,0,0,0,0,0,0,0,-1,1294,939,0,0
77,85,0,0,0,0,0,0,0,0,0,-1,1301,939,0,0
84,85,0,0,0,0,0,0,0,0,0,-1,1308,939,0,0
91,85,0,0,0,0,0,0,0,0,0,-1,1315,939,0,0
98,85,0,0,0,0,0,0,0,0,0,-1,1322,939,0,0
105,85,0,0,0,0,0,0,0,0,0,-1,1329,939,0,0
112,85,0,0,0,0,0,0,0,0,0,-1,1336,939,0,0
119,85,0,0,0,0,0,0,0,0,0,-1,1343,939,0,0
126,85,0,0,0,0,0,0,0,0,0,-1,1350,939,0,0
133,85,0,0,0,0,0,0,0,0,0,-1,1357,939,0,0
140,85,0,0,0,0,0,0,0,0,0,-1,1364,939,0,0
147,85,0,0,0,0,0,0,0,0,0,-1,1371,939,0,0
154,85,0,0,0,0,0,0,0,0,0,-1,1378,939,0,0
161,85,0,0,0,0,0,0,0,0,0,-1,1385,939,0,0
168,85,0,0,0,0,0,0,0,0,0,-1,1392,939,0,0
175,85,0,0,0,0,0,0,0,0,0,-1,1399,939,0,0
182,85,0,0,0,0,0,0,0,0,0,-1,1406,939,0,0
189,85,0,0,0,0,0,0,0,0,0,-1,1413,939,0,0
196,85,0,0,0,0,0,0,0,0,0,-1,1420,939,0,0
203,85,0,0,0,0,0,0,0,0,0,-1,1427,939,0,0
210,85,0,0,0,0,0,0,0,0,0,-1,1434,939,0,0
217,85,0,0,0,0,0,0,0,0,0,-1,1441,939,0,0
224,85,0,0,0,0,0,0,0,0,0,-1,1448,939,0,0
231,85,0,0,0,0,0,0,0,0,0,-1,1455,939,0,0
238,85,0,0,0,0,0,0,0,0,0,-1,1462,939,0,0
245,85,0,0,0,0,0,0,0,0,0,-1,1469,939,0,0
252,85,0,0,0,0,0,0,0,0,0,-1,1476,939,0,0
259,85,0,0,0,0,0,0,0,0,0,-1,1483,939,0,0
266,85,0,0,0,0,0,0,0,0,0,-1,1490,939,0,0
273,85,0,0,0,0,0,0,0,0,0,-1,1497,939,0,0
280,85,0,0,0,0,0,0,0,0,0,-1,1504,939,0,0
287,85,0,0,0,0,0,0,0,0,0,-1,1511,939,0,0
294,85,0,0,0,0,0,0,0,0,0,-1,1518,939,0,0
301,85,0,0,0,0,0,0,0,0,0,-1,1525,939,0,0
308,85,0,0,0,0,0,0,0,0,0,-1,1532,939,0,0
315,85,0,0,0,0,0,0,0,0,0,-1,1539,939,0,0
322,85,0,0,0,0,0,0,0,0,0,-1,1546,939,0,0
329,85,0,0,0,0,0,0,0,0,0,-1,1553,939,0,0
336,85,0,0,0,0,0,0,0,0,0,-1,1560,939,0,0
343,85,0,0,0,0,0,0,0,0,0,-1,1567,939,0,0
350,85,0,0,0,0,0,0,0,0,0,-1,1574,939,0,0
357,85,0,0,0,0,0,0,0,0,0,-1,1581,939,0,0
364,85,0,0,0,0,0,0,0,0,0,-1,1588,939,0,0
371,85,0,0,0,0,0,0,0,0,0,-1,1595,939,0,0
378,85,0,0,0,0,0,0,0,0,0,-1,1602,939,0,0
385,85,0,0,0,0,0,0,0,0,0,-1,1609,939,0,0
392,85,0,0,0,0,0,0,0,0,0,-1,1616,939,0,0
399,85,0,0,0,0,0,0,0,0,0,-1,1623,939,0,0
406,85,0,0,0,0,0,0,0,0,0,-1,1630,939,0,0
413,85,0,0,0,0,0,0,0,0,0,-1,1637,939,0,0
420,85,0,0,0,0,0,0,0,0,0,-1,1644,939,0,0
427,85,0,0,0,0,0,0,0,0,0,-1,1651,939,0,0
434,85,0,0,0,0,0,0,0,0,0,-1,1658,939,0,0
441,85,0,0,0,0,0,0,0,0,0,-1,1665,939,0,0
448,85,0,0,0,0,0,0,0,0,0,-1,1672,939,0,0
455,85,0,0,0,0,0,0,0,0,0,-1,1679,939,0,0
462,85,0,0,0,0,0,0,0,0,0,-1,1686,939,0,0
469,85,0,0,0,0,0,0,0,0,0,-1,1693,939,0,0
476,85,0,0,0,0,0,0,0,0,0,-1,1700,939,0,0
483,85,0,0,0,0,0,0,0,0,0,-1,1707,939,0,0
490,85,0,0,0,0,0,0,0,0,0,-1,1714,939,0,0
497,85,0,0,0,0,0,0,0,0,0,-1,1721,939,0,0
504,85,0,0,0,0,0,0,0,0,0,-1,1728,939,0,0
511,85,0,0,0,0,0,0,0,0,0,-1,1735,939,0,0
518,85,0,0,0,0,0,0,0,0,0,-1,1742,939,0,0
525,85,0,0,0,0,0,0,0,0,0,-1,1749,939,0,0
532,85,0,0,0,0,0,0,0,0,0,-1,1756,939,0,0
539,85,0,0,0,0,0,0,0,0,0,-1,1763,939,0,0
546,85,0,0,0,0,0,0,0,0,0,-1,1770,939,0,0
553,85,0,0,0,0,0,0,0,0,0,-1,1777,939,0,0
560,85,0,0,0,0,0,0,0,0,0,-1,1784,939,0,0
567,85,0,0,0,0,0,0,0,0,0,-1,1791,939,0,0
574,85,0,0,0,0,0,0,0,0,0,-1,1798,939,0,0
581,85,0,0,0,0,0,0,0,0,0,-1,1805,939,0,0
588,85,0,0,0,0,0,0,0,0,0,-1,1812,939,0,0
595,85,0,0,0,0,0,0,0,0,0,-1,1819,939,0,0
602,85,0,0,0,0,0,0,0,0,0,-1,1826,939,0,0
609,85,0,0,0,0,0,0,0,0,0,-1,1833,939,0,0
616,85,0,0,0,0,0,0,0,0,0,-1,1840,939,0,0
623,85,0,0,0,0,0,0,0,0,0,-1,1847,939,0,0
630,85,0,0,0,0,0,0,0,0,0,-1,1854,939,0,0
637,85,44.182,3.05365,-0.006855,0.000311943,-0.00337562,0.00165149,-0.00819454,-1.19303,0.00608864,0.0490123,1861,939,44.182,-3.05362
644,85,44.058,2.83002,-0.004972,0.000644169,-0.00276509,0.00177703,-0.00610486,-1.18195,0.00477381,0.043274,1868,939,44.058,-2.83004
651,85,44.204,2.98132,-0.00384451,0.000958759,-0.00199905,0.00168187,-0.00456762,-1.22371,0.00373417,0.0417739,1875,939,44.204,-2.98135
658,85,44.1229,3.0611,-0.00315154,0.00132579,-0.00113843,0.00159863,-0.00342438,-1.33557,0.0029632,0.0434271,1882,939,44.1229,-3.06109
665,85,44.063,2.8772,-0.00274855,0.00164099,-0.000231403,0.00165316,-0.00276071,-1.51827,0.00257495,0.0444623,1889,939,44.063,-2.87721
672,85,44.2256,2.61328,-0.00254151,0.00171213,0.000602178,0.00179574,-0.00262512,1.43284,0.00256731,0.0425518,1896,939,44.2255,-2.61325
679,85,44.2937,2.4386,-0.00234111,0.00151477,0.00120883,0.0018624,-0.00268874,1.29078,0.002642,0.0404082,1903,939,44.2937,-2.43858
686,85,44.1771,2.50647,-0.00206748,0.00126618,0.00146782,0.00182034,-0.00262165,1.2098,0.00257846,0.0343829,1910,939,44.1771,-2.50648
693,85,44.1409,2.69745,-0.0017435,0.00104708,0.00159046,0.00176754,-0.00246396,1.14546,0.00245406,0.0275203,1917,939,44.1408,-2.69742
700,85,44.1581,2.763,-0.00169581,0.000932151,0.00153632,0.00163976,-0.00240342,1.13917,0.00234817,0.0393924,1924,939,44.1581,-2.76302
707,85,44.2094,2.82129,0,0,0,0,0,0,0,-1,1931,939,44.2094,-2.82128
714,85,41.4764,3.80585,0,0,0,0,0,0,0,-1,1938,939,41.4765,-3.80585
721,85,41.4323,4.27435,-0.00231172,0.00107677,0.000683998,0.00120963,-0.00244458,1.37894,0.00214955,0.0297701,1945,939,41.4322,-4.27437
728,85,41.3636,4.7605,-0.00248749,0.00144012,0.000420049,0.00148455,-0.00253191,1.46544,0.00234504,0.0248015,1952,939,41.3636,-4.7605
735,85,41.3895,5.04108,-0.0026929,0.00204957,-0.000293628,0.00206768,-0.00271101,-1.5092,0.0027673,0.0223585,1959,939,41.3895,-5.04109
742,85,41.4419,5.35474,-0.00313305,0.00334436,-0.0011302,0.0035359,-0.00332458,-1.40292,0.00396153,0.0166431,1966,939,41.4419,-5.35471
749,85,41.3689,5.70862,-0.00381632,0.00511689,-0.00188958,0.00550014,-0.00419957,-1.37069,0.00561688,0.0136764,1973,939,41.3688,-5.70865
756,85,41.2773,6.021,-0.00460592,0.00776389,-0.00248961,0.00824616,-0.00508819,-1.37945,0.00777022,0.0129368,1980,939,41.2774,-6.02098
763,85,41.2783,6.35645,-0.00546745,0.0111228,-0.00284727,0.0115978,-0.00594251,-1.40547,0.0103009,0.013864,1987,939,41.2784,-6.35643
770,85,41.2549,6.71326,-0.00613046,0.0149117,-0.00312169,0.0153651,-0.00658381,-1.42658,0.0130058,0.0192109,1994,939,41.2549,-6.71324
777,85,41.1458,7.11737,-0.00645689,0.0193398,-0.00330683,0.019757,-0.00687404,-1.44531,0.0159639,0.0393759,2001,939,41.1457,-7.11735
784,85,41.0671,7.53564,-0.00601762,0.0247159,-0.00348418,0.0251059,-0.00640766,-1.45931,0.0192323,0.0460322,2008,939,41.0672,-7.53562
791,85,41.0942,7.77728,0,0,0,0,0,0,0,-1,2015,939,41.0941,-7.77731
798,85,42.2102,8.28998,0,0,0,0,0,0,0,-1,2022,939,42.2101,-8.28999
805,85,41.1609,3.92401,0,0,0,0,0,0,0,-1,2029,939,41.1608,-3.92401
812,85,0,0,0,0,0,0,0,0,0,-1,2036,939,0,0
-700,78,0,0,0,0,0,0,0,0,0,-1,524,946,0,0
-693,78,0,0,0,0,0,0,0,0,0,-1,531,946,0,0
-686,78,-30.7847,4.12598,-0.0604721,-0.0220447,0.0255204,-0.00931385,-0.073203,1.10807,0.0460127,0.0450954,538,946,-30.7847,-4.126
-679,78,-30.8514,4.18774,-0.043437,-0.0110644,0.0207714,-0.000917288,-0.0535841,1.11638,0.0354209,0.047137,545,946,-30.8514,-4.18775
-672,78,-31.0092,4.32385,-0.0305453,-0.00361046,0.016661,0.00434545,-0.0385012,1.1253,0.0272318,0.047667,552,946,-31.0092,-4.32387
-665,78,-31.2235,4.44666,-0.0207567,0.00148338,0.0131124,0.00755605,-0.0268294,1.13708,0.0208661,0.0462315,559,946,-31.2235,-4.44665
-658,78,-30.9193,4.33313,0,0,0,0,0,0,0,-1,566,946,-30.9193,-4.33316
-651,78,-30.877,4.17047,-0.00789716,0.00645517,0.00780966,0.00988505,-0.011327,1.15697,0.0122562,0.0444745,573,946,-30.877,-4.17047
-644,78,-30.8263,4.04236,-0.00411951,0.00703527,0.00600488,0.00965336,-0.0067376,1.15965,0.00951311,0.025688,580,946,-30.8263,-4.04235
-637,78,-30.9559,3.77502,-0.00151719,0.00696196,0.00456746,0.00895421,-0.00350945,1.15949,0.00742124,0.0138942,587,946,-30.9559,-3.77505
-630,78,-31.056,3.47437,-0.00066126,0.00631734,0.00324136,0.00759056,-0.00193448,1.19651,0.00581349,0.0136828,594,946,-31.056,-3.47439
-623,78,-31.0944,3.1803,-0.00107077,0.00548984,0.00202127,0.00606258,-0.00164351,1.29468,0.00468662,0.0131587,601,946,-31.0943,-3.18032
-616,78,-31.1023,2.90399,-0.00167219,0.00413985,0.000868019,0.00426672,-0.00179906,1.42567,0.00359738,0.011814,608,946,-31.1023,-2.904
-609,78,-31.0797,2.61792,-0.00320688,0.00252853,0.000126573,0.00253133,-0.00320967,1.54874,0.00332227,0.0118551,615,946,-31.0797,-2.61792
-602,78,-31.0995,2.29889,-0.00538099,0.00100452,-0.000284362,0.00101716,-0.00539362,-1.52638,0.00397838,0.0156309,622,946,-31.0995,-2.29889
-595,78,-31.0507,1.96698,-0.00749575,7.32735e-05,1.033e-06,7.32737e-05,-0.00749575,1.57066,0.00502177,0.0158304,629,946,-31.0507,-1.96701
-588,78,-31.0306,1.74438,-0.00853192,-0.00131196,-0.000195993,-0.00130664,-0.00853723,-1.54368,0.0053098,0.0136848,636,946,-31.0306,-1.7444
-581,78,-31.1713,1.51636,-0.00844813,-0.00171339,-0.000531245,-0.00167174,-0.00848978,-1.49256,0.00519309,0.0304525,643,946,-31.1712,-1.51636
-574,78,-31.8334,1.16077,-0.0081232,-0.00176169,-0.00084127,-0.00165232,-0.00823257,-1.44151,0.00502892,0.0384407,650,946,-31.8334,-1.16076
-567,78,-32.5744,0.887268,0,0,0,0,0,0,0,-1,657,946,-32.5744,-0.887286
-560,78,-32.5747,0.820801,-0.00643491,-0.00212091,-0.00104806,-0.00187977,-0.00667605,-1.34465,0.00397513,0.0338927,664,946,-32.5747,-0.820801
-553,78,-32.567,0.677307,-0.0046082,-0.00193594,-0.0011076,-0.00153656,-0.00500759,-1.22472,0.00296217,0.0406752,671,946,-32.567,-0.677314
-546,78,-32.5835,0.805237,-0.00184284,-0.00144694,-0.0012778,-0.00035185,-0.00293793,-0.862246,0.00185251,0.042293,678,946,-32.5835,-0.805242
-539,78,-32.5674,1.17261,0.00197053,-0.000581824,-0.00169929,0.00281949,-0.00143078,-0.463325,0.00249718,0.0402814,685,946,-32.5674,-1.17258
-532,78,-32.4631,1.2088,0.0067566,0.000812191,-0.00279043,0.00786122,-0.000292432,-0.376933,0.00534096,0.0402105,692,946,-32.4631,-1.20883
-525,78,-32.2393,1.51276,0,0,0,0,0,0,0,-1,699,946,-32.2393,-1.51275
-518,78,-32.4755,0.854797,0,0,0,0,0,0,0,-1,706,946,-32.4755,-0.854822
-511,78,0,0,0,0,0,0,0,0,0,-1,713,946,0,0
-504,78,0,0,0,0,0,0,0,0,0,-1,720,946,0,0
-497,78,0,0,0,0,0,0,0,0,0,-1,727,946,0,0
-490,78,0,0,0,0,0,0,0,0,0,-1,734,946,0,0
-483,78,0,0,0,0,0,0,0,0,0,-1,741,946,0,0
-476,78,0,0,0,0,0,0,0,0,0,-1,748,946,0,0
-469,78,0,0,0,0,0,0,0,0,0,-1,755,946,0,0
-462,78,0,0,0,0,0,0,0,0,0,-1,762,946,0,0
-455,78,0,0,0,0,0,0,0,0,0,-1,769,946,0,0
-448,78,0,0,0,0,0,0,0,0,0,-1,776,946,0,0
-441,78,0,0,0,0,0,0,0,0,0,-1,783,946,0,0
-434,78,0,0,0,0,0,0,0,0,0,-1,790,946,0,0
-427,78,0,0,0,0,0,0,0,0,0,-1,797,946,0,0
-420,78,0,0,0,0,0,0,0,0,0,-1,804,946,0,0
-413,78,0,0,0,0,0,0,0,0,0,-1,811,946,0,0
-406,78,0,0,0,0,0,0,0,0,0,-1,818,946,0,0
-399,78,0,0,0,0,0,0,0,0,0,-1,825,946,0,0
-392,78,0,0,0,0,0,0,0,0,0,-1,832,946,0,0
-385,78,0,0,0,0,0,0,0,0,0,-1,839,946,0,0
-378,78,0,0,0,0,0,0,0,0,0,-1,846,946,0,0
-371,78,0,0,0,0,0,0,0,0,0,-1,853,946,0,0
-364,78,0,0,0,0,0,0,0,0,0,-1,860,946,0,0
-357,78,0,0,0,0,0,0,0,0,0,-1,867,946,0,0
-350,78,0,0,0,0,0,0,0,0,0,-1,874,946,0,0
-343,78,0,0,0,0,0,0,0,0,0,-1,881,946,0,0
-336,78,0,0,0,0,0,0,0,0,0,-1,888,946,0,0
-329,78,0,0,0,0,0,0,0,0,0,-1,895,946,0,0
-322,78,0,0,0,0,0,0,0,0,0,-1,902,946,0,0
-315,78,0,0,0,0,0,0,0,0,0,-1,909,946,0,0
-308,78,0,0,0,0,0,0,0,0,0,-1,916,946,0,0
-301,78,0,0,0,0,0,0,0,0,0,-1,923,946,0,0
-294,78,0,0,0,0,0,0,0,0,0,-1,930,946,0,0
-287,78,0,0,0,0,0,0,0,0,0,-1,937,946,0,0
-280,78,0,0,0,0,0,0,0,0,0,-1,944,946,0,0
-273,78,0,0,0,0,0,0,0,0,0,-1,951,946,0,0
-266,78,0,0,0,0,0,0,0,0,0,-1,958,946,0,0
-259,78,0,0,0,0,0,0,0,0,0,-1,965,946,0,0
-252,78,0,0,0,0,0,0,0,0,0,-1,972,946,0,0
-245,78,0,0,0,0,0,0,0,0,0,-1,979,946,0,0
-238,78,0,0,0,0,0,0,0,0,0,-1,986,946,0,0
-231,78,0,0,0,0,0,0,0,0,0,-1,993,946,0,0
-224,78,0,0,0,0,0,0,0,0,0,-1,1000,946,0,0
-217,78,0,0,0,0,0,0,0,0,0,-1,1007,946,0,0
-210,78,0,0,0,0,0,0,0,0,0,-1,1014,946,0,0
-203,78,0,0,0,0,0,0,0,0,0,-1,1021,946,0,0
-196,78,0,0,0,0,0,0,0,0,0,-1,1028,946,0,0
-189,78,0,0,0,0,0,0,0,0,0,-1,1035,946,0,0
-182,78,0,0,0,0,0,0,0,0,0,-1,1042,946,0,0
-175,78,0,0,0,0,0,0,0,0,0,-1,1049,946,0,0
-168,78,0,0,0,0,0,0,0,0,0,-1,1056,946,0,0
-161,78,0,0,0,0,0,0,0,0,0,-1,1063,946,0,0
-154,78,0,0,0,0,0,0,0,0,0,-1,1070,946,0,0
-147,78,0,0,0,0,0,0,0,0,0,-1,1077,946,0,0
-140,78,0,0,0,0,0,0,0,0,0,-1,1084,946,0,0
-133,78,0,0,0,0,0,0,0,0,0,-1,1091,946,0,0
-126,78,0,0,0,0,0,0,0,0,0,-1,1098,946,0,0
-119,78,0,0,0,0,0,0,0,0,0,-1,1105,946,0,0
-112,78,0,0,0,0,0,0,0,0,0,-1,1112,946,0,0
-105,78,0,0,0,0,0,0,0,0,0,-1,1119,946,0,0
-98,78,0,0,0,0,0,0,0,0,0,-1,1126,946,0,0
-91,78,0,0,0,0,0,0,0,0,0,-1,1133,946,0,0
-84,78,0,0,0,0,0,0,0,0,0,-1,1140,946,0,0
-77,78,0,0,0,0,0,0,0,0,0,-1,1147,946,0,0
-70,78,0,0,0,0,0,0,0,0,0,-1,1154,946,0,0
-63,78,0,0,0,0,0,0,0,0,0,-1,1161,946,0,0
-56,78,0,0,0,0,0,0,0,0,0,-1,1168,946,0,0
-49,78,0,0,0,0,0,0,0,0,0,-1,1175,946,0,0
-42,78,0,0,0,0,0,0,0,0,0,-1,1182,946,0,0
-35,78,0,0,0,0,0,0,0,0,0,-1,1189,946,0,0
-28,78,0,0,0,0,0,0,0,0,0,-1,1196,946,0,0
-21,78,0,0,0,0,0,0,0,0,0,-1,1203,946,0,0
-14,78,0,0,0,0,0,0,0,0,0,-1,1210,946,0,0
-7,78,0,0,0,0,0,0,0,0,0,-1,1217,946,0,0
0,78,0,0,0,0,0,0,0,0,0,-1,1224,946,0,0
7,78,0,0,0,0,0,0,0,0,0,-1,1231,946,0,0
14,78,0,0,0,0,0,0,0,0,0,-1,1238,946,0,0
21,78,0,0,0,0,0,0,0,0,0,-1,1245,946,0,0
28,78,0,0,0,0,0,0,0,0,0,-1,1252,946,0,0
35,78,0,0,0,0,0,0,0,0,0,-1,1259,946,0,0
42,78,0,0,0,0,0,0,0,0,0,-1,1266,946,0,0
49,78,0,0,0,0,0,0,0,0,0,-1,1273,946,0,0
56,78,0,0,0,0,0,0,0,0,0,-1,1280,946,0,0
63,78,0,0,0,0,0,0,0,0,0,-1,1287,946,0,0
70,78,0,0,0,0,0,0,0,0,0,-1,1294,946,0,0
77,78,0,0,0,0,0,0,0,0,0,-1,1301,946,0,0
84,78,0,0,0,0,0,0,0,0,0,-1,1308,946,0,0
91,78,0,0,0,0,0,0,0,0,0,-1,1315,946,0,0
98,78,0,0,0,0,0,0,0,0,0,-1,1322,946,0,0
105,78,0,0,0,0,0,0,0,0,0,-1,1329,946,0,0
112,78,0,0,0,0,0,0,0,0,0,-1,1336,946,0,0
119,78,0,0,0,0,0,0,0,0,0,-1,1343,946,0,0
126,78,0,0,0,0,0,0,0,0,0,-1,1350,946,0,0
133,78,0,0,0,0,0,0,0,0,0,-1,1357,946,0,0
140,78,0,0,0,0,0,0,0,0,0,-1,1364,946,0,0
147,78,0,0,0,0,0,0,0,0,0,-1,1371,946,0,0
154,78,0,0,0,0,0,0,0,0,0,-1,1378,946,0,0
161,78,0,0,0,0,0,0,0,0,0,-1,1385,946,0,0
168,78,0,0,0,0,0,0,0,0,0,-1,1392,946,0,0
175,78,0,0,0,0,0,0,0,0,0,-1,1399,946,0,0
182,78,0,0,0,0,0,0,0,0,0,-1,1406,946,0,0
189,78,0,0,0,0,0,0,0,0,0,-1,1413,946,0,0
196,78,0,0,0,0,0,0,0,0,0,-1,1420,946,0,0
203,78,0,0,0,0,0,0,0,0,0,-1,1427,946,0,0
210,78,0,0,0,0,0,0,0,0,0,-1,1434,946,0,0
217,78,0,0,0,0,0,0,0,0,0,-1,1441,946,0,0
224,78,0,0,0,0,0,0,0,0,0,-1,1448,946,0,0
231,78,0,0,0,0,0,0,0,0,0,-1,1455,946,0,0
238,78,0,0,0,0,0,0,0,0,0,-1,1462,946,0,0
245,78,0,0,0,0,0,0,0,0,0,-1,1469,946,0,0
252,78,0,0,0,0,0,0,0,0,0,-1,1476,946,0,0
259,78,0,0,0,0,0,0,0,0,0,-1,1483,946,0,0
266,78,0,0,0,0,0,0,0,0,0,-1,1490,946,0,0
273,78,0,0,0,0,0,0,0,0,0,-1,1497,946,0,0
280,78,0,0,0,0,0,0,0,0,0,-1,1504,946,0,0
287,78,0,0,0,0,0,0,0,0,0,-1,1511,946,0,0
294,78,0,0,0,0,0,0,0,0,0,-1,1518,946,0,0
301,78,0,0,0,0,0,0,0,0,0,-1,1525,946,0,0
308,78,0,0,0,0,0,0,0,0,0,-1,1532,946,0,0
315,78,0,0,0,0,0,0,0,0,0,-1,1539,946,0,0
322,78,0,0,0,0,0,0,0,0,0,-1,1546,946,0,0
329,78,0,0,0,0,0,0,0,0,0,-1,1553,946,0,0
336,78,0,0,0,0,0,0,0,0,0,-1,1560,946,0,0
343,78,0,0,0,0,0,0,0,0,0,-1,1567,946,0,0
350,78,0,0,0,0,0,0,0,0,0,-1,1574,946,0,0
357,78,0,0,0,0,0,0,0,0,0,-1,1581,946,0,0
364,78,0,0,0,0,0,0,0,0,0,-1,1588,946,0,0
371,78,0,0,0,0,0,0,0,0,0,-1,1595,946,0,0
378,78,0,0,0,0,0,0,0,0,0,-1,1602,946,0,0
385,78,0,0,0,0,0,0,0,0,0,-1,1609,946,0,0
392,78,0,0,0,0,0,0,0,0,0,-1,1616,946,0,0
399,78,0,0,0,0,0,0,0,0,0,-1,1623,946,0,0
406,78,0,0,0,0,0,0,0,0,0,-1,1630,946,0,0
413,78,0,0,0,0,0,0,0,0,0,-1,1637,946,0,0
420,78,0,0,0,0,0,0,0,0,0,-1,1644,946,0,0
427,78,0,0,0,0,0,0,0,0,0,-1,1651,946,0,0
434,78,0,0,0,0,0,0,0,0,0,-1,1658,946,0,0
441,78,0,0,0,0,0,0,0,0,0,-1,1665,946,0,0
448,78,0,0,0,0,0,0,0,0,0,-1,1672,946,0,0
455,78,0,0,0,0,0,0,0,0,0,-1,1679,946,0,0
462,78,0,0,0,0,0,0,0,0,0,-1,1686,946,0,0
469,78,0,0,0,0,0,0,0,0,0,-1,1693,946,0,0
476,78,0,0,0,0,0,0,0,0,0,-1,1700,946,0,0
483,78,0,0,0,0,0,0,0,0,0,-1,1707,946,0,0
490,78,0,0,0,0,0,0,0,0,0,-1,1714,946,0,0
497,78,0,0,0,0,0,0,0,0,0,-1,1721,946,0,0
504,78,0,0,0,0,0,0,0,0,0,-1,1728,946,0,0
511,78,0,0,0,0,0,0,0,0,0,-1,1735,946,0,0
518,78,0,0,0,0,0,0,0,0,0,-1,1742,946,0,0
525,78,0,0,0,0,0,0,0,0,0,-1,1749,946,0,0
532,78,0,0,0,0,0,0,0,0,0,-1,1756,946,0,0
539,78,0,0,0,0,0,0,0,0,0,-1,1763,946,0,0
546,78,0,0,0,0,0,0,0,0,0,-1,1770,946,0,0
553,78,0,0,0,0,0,0,0,0,0,-1,1777,946,0,0
560,78,0,0,0,0,0,0,0,0,0,-1,1784,946,0,0
567,78,0,0,0,0,0,0,0,0,0,-1,1791,946,0,0
574,78,0,0,0,0,0,0,0,0,0,-1,1798,946,0,0
581,78,0,0,0,0,0,0,0,0,0,-1,1805,946,0,0
588,78,0,0,0,0,0,0,0,0,0,-1,1812,946,0,0
595,78,0,0,0,0,0,0,0,0,0,-1,1819,946,0,0
602,78,0,0,0,0,0,0,0,0,0,-1,1826,946,0,0
609,78,0,0,0,0,0,0,0,0,0,-1,1833,946,0,0
616,78,0,0,0,0,0,0,0,0,0,-1,1840,946,0,0
623,78,0,0,0,0,0,0,0,0,0,-1,1847,946,0,0
630,78,0,0,0,0,0,0,0,0,0,-1,1854,946,0,0
637,78,44.2728,2.97961,-0.00768127,0.00196975,-0.00328617,0.00298243,-0.00869395,-1.27187,0.00700504,0.0460786,1861,946,44.2728,-2.97959
644,78,44.1183,2.68298,-0.00547638,0.00180619,-0.0027017,0.00269902,-0.00636921,-1.25163,0.00537658,0.0421194,1868,946,44.1183,-2.68296
651,78,44.1173,2.58545,-0.0040837,0.00174013,-0.00196396,0.00234054,-0.0046841,-1.27411,0.00413023,0.0399665,1875,946,44.1174,-2.58545
658,78,44.1622,2.74768,-0.00320791,0.00180587,-0.00112426,0.00204643,-0.00344846,-1.36001,0.00320671,0.0379263,1882,946,44.1622,-2.74767
665,78,44.188,2.73438,-0.00269742,0.0018957,-0.000150581,0.00190064,-0.00270235,-1.53806,0.00267094,0.0398154,1889,946,44.188,-2.73435
672,78,44.2766,2.46515,-0.00246443,0.00183414,0.000791193,0.00197514,-0.00260543,1.39443,0.00265293,0.0415017,1896,946,44.2767,-2.46513
679,78,44.2906,2.31116,-0.00229626,0.0015697,0.00150416,0.00208599,-0.00281254,1.24016,0.00283852,0.0415155,1903,946,44.2907,-2.31116
686,78,44.2207,2.41394,-0.00206537,0.00126168,0.00184847,0.00208495,-0.00288865,1.15179,0.00288398,0.0370427,1910,946,44.2207,-2.41395
693,78,44.1404,2.6087,-0.0017879,0.000981272,0.00201819,0.00204417,-0.00285079,1.08605,0.00283887,0.0304746,1917,946,44.1404,-2.60871
700,78,44.1299,2.64777,-0.0017555,0.000835818,0.00197768,0.00190446,-0.00282415,1.07539,0.00274722,0.0258405,1924,946,44.1299,-2.64778
707,78,44.1648,2.72894,0,0,0,0,0,0,0,-1,1931,946,44.1648,-2.72893
714,78,41.6334,4.00299,0,0,0,0,0,0,0,-1,1938,946,41.6334,-4.00297
721,78,41.6951,4.36414,-0.00248958,0.00107771,0.00112756,0.00140422,-0.0028161,1.28893,0.00248164,0.0298819,1945,946,41.695,-4.36411
728,78,41.7332,4.82214,-0.00264654,0.00154615,0.000845405,0.0017102,-0.00281059,1.37913,0.00263573,0.0280032,1952,946,41.7332,-4.82213
735,78,41.7952,5.0871,-0.0028241,0.00222992,0.000105083,0.0022321,-0.00282628,1.55002,0.00292717,0.0200935,1959,946,41.7952,-5.08712
742,78,41.8138,5.37018,-0.00319865,0.00360036,-0.000692469,0.00367017,-0.00326846,-1.47032,0.00400825,0.0153861,1966,946,41.8138,-5.37021
749,78,41.7123,5.67365,-0.00372881,0.00538279,-0.00141599,0.00559777,-0.0039438,-1.42012,0.00553635,0.0137202,1973,946,41.7123,-5.67364
756,78,41.6696,5.95343,-0.00420411,0.00807348,-0.00199488,0.00838948,-0.0045201,-1.4137,0.00756413,0.0142116,1980,946,41.6695,-5.95345
763,78,41.6089,6.25201,-0.00472319,0.0115845,-0.00227329,0.0118955,-0.00503416,-1.43485,0.0100384,0.0156505,1987,946,41.6089,-6.25204
770,78,41.5453,6.54065,-0.00500681,0.0156195,-0.00234481,0.0158827,-0.00527001,-1.45902,0.0127145,0.0213954,1994,946,41.5453,-6.54064
777,78,41.532,6.99341,-0.00484425,0.0202691,-0.00232533,0.0204826,-0.00505774,-1.47924,0.0156164,0.0414587,2001,946,41.532,-6.9934
784,78,41.7617,7.29639,-0.00376739,0.0259187,-0.00224081,0.0260869,-0.00393558,-1.49588,0.0188406,0.0455835,2008,946,41.7618,-7.29641
791,78,41.4727,7.58386,-0.000977591,0.0327748,-0.00261724,0.0329765,-0.00117933,-1.49387,0.0223878,0.04777,2015,946,41.4726,-7.58389
798,78,41.1389,7.8515,0,0,0,0,0,0,0,-1,2022,946,41.1388,-7.85148
805,78,41.9668,3.42181,0,0,0,0,0,0,0,-1,2029,946,41.9668,-3.42179
812,78,0,0,0,0,0,0,0,0,0,-1,2036,946,0,0
-700,71,0,0,0,0,0,0,0,0,0,-1,524,953,0,0
-693,71,0,0,0,0,0,0,0,0,0,-1,531,953,0,0
-686,71,-31.0154,3.92249,0,0,0,0,0,0,0,-1,538,953,-31.0155,-3.92248
-679,71,-31.2663,4.45758,0,0,0,0,0,0,0,-1,545,953,-31.2663,-4.45757
-672,71,-31.3508,4.34174,-0.0313944,-0.00572995,0.0193185,0.00462987,-0.0417542,1.07856,0.0295008,0.0483443,552,953,-31.3508,-4.34172
-665,71,-31.5175,4.26245,-0.0219511,-0.000100409,0.0156383,0.0080509,-0.0301024,1.0903,0.0232219,0.0458602,559,953,-31.5174,-4.26243
-658,71,-31.5025,4.1936,-0.0146011,0.00372588,0.0124352,0.0100092,-0.0208844,1.10293,0.0182011,0.0490862,566,953,-31.5025,-4.19363
-651,71,-31.3259,4.12195,-0.00910308,0.00600177,0.00976164,0.0107915,-0.0138928,1.11464,0.0142889,0.0470994,573,953,-31.3259,-4.12194
-644,71,-31.1842,4.03851,0,0,0,0,0,0,0,-1,580,953,-31.1842,-4.03852
-637,71,-31.2899,3.71252,-0.00236686,0.00724954,0.00568342,0.0098858,-0.00500313,1.13648,0.00874885,0.01558,587,953,-31.2898,-3.71251
-630,71,-31.3817,3.43329,-0.00133825,0.00677147,0.00387815,0.00832749,-0.00289427,1.18923,0.00672726,0.0145807,594,953,-31.3817,-3.43326
-623,71,-31.4239,3.16125,-0.00145217,0.0060888,0.00223972,0.00670385,-0.00206722,1.30279,0.00529458,0.0140768,601,953,-31.4239,-3.16127
-616,71,-31.4222,2.86072,-0.00186097,0.00479914,0.000723904,0.00487692,-0.00193875,1.46377,0.00405508,0.0139833,608,953,-31.4223,-2.86074
-609,71,-31.3813,2.6037,-0.00310495,0.00318207,-0.000298641,0.00319622,-0.00311911,-1.52344,0.00364625,0.0149445,615,953,-31.3813,-2.60368
-602,71,-31.3603,2.33417,-0.00504217,0.00158816,-0.000938355,0.0017184,-0.00517242,-1.43288,0.00414166,0.0164828,622,953,-31.3603,-2.33417
-595,71,-31.3688,2.06653,-0.00698386,0.000477881,-0.000893562,0.000583395,-0.00708937,-1.45326,0.00493223,0.017503,629,953,-31.3688,-2.0665
-588,71,-31.3457,1.83679,-0.00790023,-0.00115244,-0.00116327,-0.000957532,-0.00809514,-1.40479,0.00510759,0.0201882,636,953,-31.3457,-1.83682
-581,71,-31.5887,1.46399,-0.00777371,-0.0016819,-0.00149899,-0.00133303,-0.00812258,-1.34213,0.00502994,0.0361307,643,953,-31.5887,-1.46398
-574,71,-32.2852,1.09082,-0.00736481,-0.00190429,-0.00174293,-0.0013954,-0.00787371,-1.28672,0.00485137,0.0411,650,953,-32.2852,-1.09082
-567,71,-32.8416,0.706299,0,0,0,0,0,0,0,-1,657,953,-32.8416,-0.706306
-560,71,-32.5892,0.84967,-0.00550698,-0.00243367,-0.00173158,-0.00165523,-0.00628542,-1.14831,0.00376194,0.0287096,664,953,-32.5892,-0.84969
-553,71,-32.5845,0.930847,-0.0035075,-0.00231829,-0.00166457,-0.00114531,-0.00468048,-0.956941,0.00281725,0.0389343,671,953,-32.5845,-0.930833
-546,71,-32.5684,1.08575,-0.000546186,-0.00186727,-0.00172093,0.000636612,-0.00305007,-0.602154,0.00227546,0.0418875,678,953,-32.5683,-1.08577
-539,71,-32.5184,1.25299,0.0034611,-0.000980307,-0.00207888,0.00428231,-0.00180152,-0.376213,0.00360853,0.0420638,685,953,-32.5183,-1.25302
-532,71,-32.4591,1.27393,0.00838818,0.000600011,-0.00328259,0.00958716,-0.000598965,-0.350199,0.00660016,0.0437618,692,953,-32.4591,-1.27391
-525,71,-32.3484,1.0451,0.0122637,0.00337674,-0.00621154,0.0154575,0.00018297,-0.474917,0.0102446,0.0436373,699,953,-32.3484,-1.04513
-518,71,0,0,0,0,0,0,0,0,0,-1,706,953,0,0
-511,71,0,0,0,0,0,0,0,0,0,-1,713,953,0,0
-504,71,0,0,0,0,0,0,0,0,0,-1,720,953,0,0
-497,71,0,0,0,0,0,0,0,0,0,-1,727,953,0,0
-490,71,0,0,0,0,0,0,0,0,0,-1,734,953,0,0
-483,71,0,0,0,0,0,0,0,0,0,-1,741,953,0,0
-476,71,0,0,0,0,0,0,0,0,0,-1,748,953,0,0
-469,71,0,0,0,0,0,0,0,0,0,-1,755,953,0,0
-462,71,0,0,0,0,0,0,0,0,0,-1,762,953,0,0
-455,71,0,0,0,0,0,0,0,0,0,-1,769,953,0,0
-448,71,0,0,0,0,0,0,0,0,0,-1,776,953,0,0
-441,71,0,0,0,0,0,0,0,0,0,-1,783,953,0,0
-434,71,0,0,0,0,0,0,0,0,0,-1,790,953,0,0
-427,71,0,0,0,0,0,0,0,0,0,-1,797,953,0,0
-420,71,0,0,0,0,0,0,0,0,0,-1,804,953,0,0
-413,71,0,0,0,0,0,0,0,0,0,-1,811,953,0,0
-406,71,0,0,0,0,0,0,0,0,0,-1,818,953,0,0
-399,71,0,0,0,0,0,0,0,0,0,-1,825,953,0,0
-392,71,0,0,0,0,0,0,0,0,0,-1,832,953,0,0
-385,71,0,0,0,0,0,0,0,0,0,-1,839,953,0,0
-378,71,0,0,0,0,0,0,0,0,0,-1,846,953,0,0
-371,71,0,0,0,0,0,0,0,0,0,-1,853,953,0,0
-364,71,0,0,0,0,0,0,0,0,0,-1,860,953,0,0
-357,71,0,0,0,0,0,0,0,0,0,-1,867,953,0,0
-350,71,0,0,0,0,0,0,0,0,0,-1,874,953,0,0
-343,71,0,0,0,0,0,0,0,0,0,-1,881,953,0,0
-336,71,0,0,0,0,0,0,0,0,0,-1,888,953,0,0
-329,71,0,0,0,0,0,0,0,0,0,-1,895,953,0,0
-322,71,0,0,0,0,0,0,0,0,0,-1,902,953,0,0
-315,71,0,0,0,0,0,0,0,0,0,-1,909,953,0,0
-308,71,0,0,0,0,0,0,0,0,0,-1,916,953,0,0
-301,71,0,0,0,0,0,0,0,0,0,-1,923,953,0,0
-294,71,0,0,0,0,0,0,0,0,0,-1,930,953,0,0
-287,71,0,0,0,0,0,0,0,0,0,-1,937,953,0,0
-280,71,0,0,0,0,0,0,0,0,0,-1,944,953,0,0
-273,71,0,0,0,0,0,0,0,0,0,-1,951,953,0,0
-266,71,0,0,0,0,0,0,0,0,0,-1,958,953,0,0
-259,71,0,0,0,0,0,0,0,0,0,-1,965,953,0,0
-252,71,0,0,0,0,0,0,0,0,0,-1,972,953,0,0
-245,71,0,0,0,0,0,0,0,0,0,-1,979,953,0,0
-238,71,0,0,0,0,0,0,0,0,0,-1,986,953,0,0
-231,71,0,0,0,0,0,0,0,0,0,-1,993,953,0,0
-224,71,0,0,0,0,0,0,0,0,0,-1,1000,953,0,0
-217,71,0,0,0,0,0,0,0,0,0,-1,1007,953,0,0
-210,71,0,0,0,0,0,0,0,0,0,-1,1014,953,0,0
-203,71,0,0,0,0,0,0,0,0,0,-1,1021,953,0,0
-196,71,0,0,0,0,0,0,0,0,0,-1,1028,953,0,0
-189,71,0,0,0,0,0,0,0,0,0,-1,1035,953,0,0
-182,71,0,0,0,0,0,0,0,0,0,-1,1042,953,0,0
-175,71,0,0,0,0,0,0,0,0,0,-1,1049,953,0,0
-168,71,0,0,0,0,0,0,0,0,0,-1,1056,953,0,0
-161,71,0,0,0,0,0,0,0,0,0,-1,1063,953,0,0
-154,71,0,0,0,0,0,0,0,0,0,-1,1070,953,0,0
-147,71,0,0,0,0,0,0,0,0,0,-1,1077,953,0,0
-140,71,0,0,0,0,0,0,0,0,0,-1,1084,953,0,0
-133,71,0,0,0,0,0,0,0,0,0,-1,1091,953,0,0
-126,71,0,0,0,0,0,0,0,0,0,-1,1098,953,0,0
-119,71,0,0,0,0,0,0,0,0,0,-1,1105,953,0,0
-112,71,0,0,0,0,0,0,0,0,0,-1,1112,953,0,0
-105,71,0,0,0,0,0,0,0,0,0,-1,1119,953,0,0
-98,71,0,0,0,0,0,0,0,0,0,-1,1126,953,0,0
-91,71,0,0,0,0,0,0,0,0,0,-1,1133,953,0,0
-84,71,0,0,0,0,0,0,0,0,0,-1,1140,953,0,0
-77,71,0,0,0,0,0,0,0,0,0,-1,1147,953,0,0
-70,71,0,0,0,0,0,0,0,0,0,-1,1154,953,0,0
-63,71,0,0,0,0,0,0,0,0,0,-1,1161,953,0,0
-56,71,0,0,0,0,0,0,0,0,0,-1,1168,953,0,0
-49,71,0,0,0,0,0,0,0,0,0,-1,1175,953,0,0
-42,71,0,0,0,0,0,0,0,0,0,-1,1182,953,0,0
-35,71,0,0,0,0,0,0,0,0,0,-1,1189,953,0,0
-28,71,0,0,0,0,0,0,0,0,0,-1,1196,953,0,0
-21,71,0,0,0,0,0,0,0,0,0,-1,1203,953,0,0
-14,71,0,0,0,0,0,0,0,0,0,-1,1210,953,0,0
-7,71,0,0,0,0,0,0,0,0,0,-1,1217,953,0,0
0,71,0,0,0,0,0,0,0,0,0,-1,1224,953,0,0
7,71,0,0,0,0,0,0,0,0,0,-1,1231,953,0,0
14,71,0,0,0,0,0,0,0,0,0,-1,1238,953,0,0
21,71,0,0,0,0,0,0,0,0,0,-1,1245,953,0,0
28,71,0,0,0,0,0,0,0,0,0,-1,1252,953,0,0
35,71,0,0,0,0,0,0,0,0,0,-1,1259,953,0,0
42,71,0,0,0,0,0,0,0,0,0,-1,1266,953,0,0
49,71,0,0,0,0,0,0,0,0,0,-1,1273,953,0,0
56,71,0,0,0,0,0,0,0,0,0,-1,1280,953,0,0
63,71,0,0,0,0,0,0,0,0,0,-1,1287,953,0,0
70,71,0,0,0,0,0,0,0,0,0,-1,1294,953,0,0
77,71,0,0,0,0,0,0,0,0,0,-1,1301,953,0,0
84,71,0,0,0,0,0,0,0,0,0,-1,1308,953,0,0
91,71,0,0,0,0,0,0,0,0,0,-1,1315,953,0,0
98,71,0,0,0,0,0,0,0,0,0,-1,1322,953,0,0
105,71,0,0,0,0,0,0,0,0,0,-1,1329,953,0,0
112,71,0,0,0,0,0,0,0,0,0,-1,1336,953,0,0
119,71,0,0,0,0,0,0,0,0,0,-1,1343,953,0,0
126,71,0,0,0,0,0,0,0,0,0,-1,1350,953,0,0
133,71,0,0,0,0,0,0,0,0,0,-1,1357,953,0,0
140,71,0,0,0,0,0,0,0,0,0,-1,1364,953,0,0
147,71,0,0,0,0,0,0,0,0,0,-1,1371,953,0,0
154,71,0,0,0,0,0,0,0,0,0,-1,1378,953,0,0
161,71,0,0,0,0,0,0,0,0,0,-1,1385,953,0,0
168,71,0,0,0,0,0,0,0,0,0,-1,1392,953,0,0
175,71,0,0,0,0,0,0,0,0,0,-1,1399,953,0,0
182,71,0,0,0,0,0,0,0,0,0,-1,1406,953,0,0
189,71,0,0,0,0,0,0,0,0,0,-1,1413,953,0,0
196,71,0,0,0,0,0,0,0,0,0,-1,1420,953,0,0
203,71,0,0,0,0,0,0,0,0,0,-1,1427,953,0,0
210,71,0,0,0,0,0,0,0,0,0,-1,1434,953,0,0
217,71,0,0,0,0,0,0,0,0,0,-1,1441,953,0,0
224,71,0,0,0,0,0,0,0,0,0,-1,1448,953,0,0
231,71,0,0,0,0,0,0,0,0,0,-1,1455,953,0,0
238,71,0,0,0,0,0,0,0,0,0,-1,1462,953,0,0
245,71,0,0,0,0,0,0,0,0,0,-1,1469,953,0,0
252,71,0,0,0,0,0,0,0,0,0,-1,1476,953,0,0
259,71,0,0,0,0,0,0,0,0,0,-1,1483,953,0,0
266,71,0,0,0,0,0,0,0,0,0,-1,1490,953,0,0
273,71,0,0,0,0,0,0,0,0,0,-1,1497,953,0,0
280,71,0,0,0,0,0,0,0,0,0,-1,1504,953,0,0
287,71,0,0,0,0,0,0,0,0,0,-1,1511,953,0,0
294,71,0,0,0,0,0,0,0,0,0,-1,1518,953,0,0
301,71,0,0,0,0,0,0,0,0,0,-1,1525,953,0,0
308,71,0,0,0,0,0,0,0,0,0,-1,1532,953,0,0
315,71,0,0,0,0,0,0,0,0,0,-1,1539,953,0,0
322,71,0,0,0,0,0,0,0,0,0,-1,1546,953,0,0
329,71,0,0,0,0,0,0,0,0,0,-1,1553,953,0,0
336,71,0,0,0,0,0,0,0,0,0,-1,1560,953,0,0
343,71,0,0,0,0,0,0,0,0,0,-1,1567,953,0,0
350,71,0,0,0,0,0,0,0,0,0,-1,1574,953,0,0
357,71,0,0,0,0,0,0,0,0,0,-1,1581,953,0,0
364,71,0,0,0,0,0,0,0,0,0,-1,1588,953,0,0
371,71,0,0,0,0,0,0,0,0,0,-1,1595,953,0,0
378,71,0,0,0,0,0,0,0,0,0,-1,1602,953,0,0
385,71,0,0,0,0,0,0,0,0,0,-1,1609,953,0,0
392,71,0,0,0,0,0,0,0,0,0,-1,1616,953,0,0
399,71,0,0,0,0,0,0,0,0,0,-1,1623,953,0,0
406,71,0,0,0,0,0,0,0,0,0,-1,1630,953,0,0
413,71,0,0,0,0,0,0,0,0,0,-1,1637,953,0,0
420,71,0,0,0,0,0,0,0,0,0,-1,1644,953,0,0
427,71,0,0,0,0,0,0,0,0,0,-1,1651,953,0,0
434,71,0,0,0,0,0,0,0,0,0,-1,1658,953,0,0
441,71,0,0,0,0,0,0,0,0,0,-1,1665,953,0,0
448,71,0,0,0,0,0,0,0,0,0,-1,1672,953,0,0
455,71,0,0,0,0,0,0,0,0,0,-1,1679,953,0,0
462,71,0,0,0,0,0,0,0,0,0,-1,1686,953,0,0
469,71,0,0,0,0,0,0,0,0,0,-1,1693,953,0,0
476,71,0,0,0,0,0,0,0,0,0,-1,1700,953,0,0
483,71,0,0,0,0,0,0,0,0,0,-1,1707,953,0,0
490,71,0,0,0,0,0,0,0,0,0,-1,1714,953,0,0
497,71,0,0,0,0,0,0,0,0,0,-1,1721,953,0,0
504,71,0,0,0,0,0,0,0,0,0,-1,1728,953,0,0
511,71,0,0,0,0,0,0,0,0,0,-1,1735,953,0,0
518,71,0,0,0,0,0,0,0,0,0,-1,1742,953,0,0
525,71,0,0,0,0,0,0,0,0,0,-1,1749,953,0,0
532,71,0,0,0,0,0,0,0,0,0,-1,1756,953,0,0
539,71,0,0,0,0,0,0,0,0,0,-1,1763,953,0,0
546,71,0,0,0,0,0,0,0,0,0,-1,1770,953,0,0
553,71,0,0,0,0,0,0,0,0,0,-1,1777,953,0,0
560,71,0,0,0,0,0,0,0,0,0,-1,1784,953,0,0
567,71,0,0,0,0,0,0,0,0,0,-1,1791,953,0,0
574,71,0,0,0,0,0,0,0,0,0,-1,1798,953,0,0
581,71,0,0,0,0,0,0,0,0,0,-1,1805,953,0,0
588,71,0,0,0,0,0,0,0,0,0,-1,1812,953,0,0
595,71,0,0,0,0,0,0,0,0,0,-1,1819,953,0,0
602,71,0,0,0,0,0,0,0,0,0,-1,1826,953,0,0
609,71,0,0,0,0,0,0,0,0,0,-1,1833,953,0,0
616,71,0,0,0,0,0,0,0,0,0,-1,1840,953,0,0
623,71,0,0,0,0,0,0,0,0,0,-1,1847,953,0,0
630,71,0,0,0,0,0,0,0,0,0,-1,1854,953,0,0
637,71,44.2568,2.71234,-0.00824885,0.00313657,-0.00275977,0.00377025,-0.00888253,-1.34509,0.00750122,0.0405348,1861,953,44.2569,-2.71237
644,71,44.0737,2.57922,-0.00582287,0.00270239,-0.00235013,0.00330732,-0.0064278,-1.31886,0.00571601,0.0410142,1868,953,44.0737,-2.57925
651,71,44.0979,2.52588,-0.00421504,0.0023907,-0.00175971,0.00283022,-0.00465457,-1.32603,0.00436392,0.0390146,1875,953,44.098,-2.5259
658,71,44.2421,2.57874,-0.0032001,0.00223459,-0.00103487,0.00242497,-0.00339048,-1.38886,0.00337295,0.0374262,1882,953,44.2421,-2.57873
665,71,44.3187,2.61041,-0.00259907,0.00216325,-8.67088e-05,0.00216483,-0.00260064,-1.5526,0.00275518,0.0385769,1889,953,44.3187,-2.61042
672,71,44.3527,2.38721,-0.00232223,0.00201233,0.000898433,0.00219118,-0.00250107,1.37431,0.00271104,0.0409934,1896,953,44.3526,-2.3872
679,71,44.269,2.27106,-0.00215019,0.0017293,0.00170642,0.00237306,-0.00279394,1.21005,0.00298647,0.0420952,1903,953,44.2691,-2.27106
686,71,44.2411,2.37701,-0.00194128,0.00140436,0.00215112,0.00245654,-0.00299346,1.11588,0.00315164,0.0387223,1910,953,44.2411,-2.37702
693,71,44.235,2.50836,-0.0016994,0.00109462,0.00238163,0.00245873,-0.00306351,1.05064,0.00319464,0.0329488,1917,953,44.235,-2.50838
700,71,44.1477,2.52032,-0.00166515,0.000937399,0.00237119,0.00234091,-0.00306866,1.03635,0.00313262,0.0297445,1924,953,44.1477,-2.5203
707,71,44.1409,2.69794,0,0,0,0,0,0,0,-1,1931,953,44.1408,-2.69792
714,71,42.3851,4.14337,0,0,0,0,0,0,0,-1,1938,953,42.3851,-4.14339
721,71,42.1887,4.42499,-0.00248442,0.00126279,0.00159917,0.00185246,-0.00307409,1.21753,0.00287335,0.0406693,1945,953,42.1887,-4.425
728,71,42.0487,4.83154,-0.00263037,0.00182166,0.00131786,0.00218251,-0.00299123,1.30353,0.0029992,0.0249139,1952,953,42.0487,-4.83156
735,71,42.0795,5.13257,-0.00281351,0.00255776,0.000584053,0.00262054,-0.00287628,1.46373,0.00317473,0.0192707,1959,953,42.0795,-5.13259
742,71,42.1211,5.3985,-0.00317849,0.00398774,-0.000155747,0.00399112,-0.00318188,-1.54908,0.00415011,0.0193036,1966,953,42.1211,-5.39849
749,71,42.0582,5.65662,-0.00359958,0.00577801,-0.000840069,0.00585267,-0.00367424,-1.48215,0.00554809,0.0181052,1973,953,42.0582,-5.65659
756,71,42.0316,5.91815,-0.0037772,0.00852487,-0.00142616,0.00868804,-0.00394036,-1.45688,0.00746079,0.0166664,1980,953,42.0317,-5.91815
763,71,41.999,6.21899,-0.0038787,0.0122706,-0.00174194,0.0124563,-0.00406446,-1.46456,0.00994001,0.0205293,1987,953,41.9991,-6.21899
770,71,41.8096,6.44824,-0.00364315,0.0167031,-0.00174946,0.0168524,-0.00379248,-1.48564,0.0126894,0.0254487,1994,953,41.8095,-6.44823
777,71,41.8712,6.81476,-0.00277385,0.021845,-0.0017079,0.0219629,-0.00289177,-1.50186,0.0156949,0.0459707,2001,953,41.8712,-6.81473
784,71,41.8501,6.75671,0,0,0,0,0,0,0,-1,2008,953,41.8502,-6.7567
791,71,41.8809,7.24054,0,0,0,0,0,0,0,-1,2015,953,41.8809,-7.24055
798,71,41.7043,7.66107,0,0,0,0,0,0,0,-1,2022,953,41.7043,-7.66108
805,71,42.76,3.48193,0,0,0,0,0,0,0,-1,2029,953,42.76,-3.48193
812,71,0,0,0,0,0,0,0,0,0,-1,2036,953,0,0
-700,64,0,0,0,0,0,0,0,0,0,-1,524,960,0,0
-693,64,0,0,0,0,0,0,0,0,0,-1,531,960,0,0
-686,64,-28.6037,-2.44702,0,0,0,0,0,0,0,-1,538,960,-28.6037,2.44705
-679,64,-31.3856,4.43927,0,0,0,0,0,0,0,-1,545,960,-31.3855,-4.43925
-672,64,-31.5563,4.24158,-0.0299747,-0.00754758,0.0223834,0.00627406,-0.0437963,1.01761,0.0314979,0.049217,552,960,-31.5563,-4.24159
-665,64,-31.7097,4.10175,-0.0217769,-0.00183591,0.0185646,0.00926622,-0.032879,1.03183,0.0255739,0.047713,559,960,-31.7097,-4.10176
-658,64,-31.8307,4.03552,-0.0151374,0.00235356,0.015084,0.011044,-0.0238278,1.04811,0.0205793,0.0493417,566,960,-31.8307,-4.03553
-651,64,-31.677,4.02368,0,0,0,0,0,0,0,-1,573,960,-31.677,-4.02368
-644,64,-31.6098,3.79669,-0.00617344,0.00653308,0.00938936,0.0115167,-0.011157,1.08284,0.0130912,0.0329932,580,960,-31.6098,-3.79666
-637,64,-31.6168,3.55896,-0.00330672,0.00719656,0.00692342,0.0106348,-0.00674493,1.10987,0.0101176,0.0175526,587,960,-31.6167,-3.55896
-630,64,-31.6846,3.34875,-0.00213034,0.006992,0.00457695,0.00889246,-0.00403081,1.17723,0.00763522,0.0142714,594,960,-31.6846,-3.34874
-623,64,-31.7191,3.13837,-0.00187827,0.00655798,0.00244306,0.00721439,-0.00253468,1.30831,0.00584078,0.0143327,601,960,-31.7191,-3.1384
-616,64,-31.7252,2.88544,-0.00201729,0.00542146,0.000534784,0.00545971,-0.00205554,1.49939,0.00448486,0.0176292,608,960,-31.7252,-2.88544
-609,64,-31.6846,2.65833,-0.00293039,0.00385434,-0.000800149,0.00394743,-0.00302348,-1.45498,0.00403642,0.0175284,615,960,-31.6846,-2.65835
-602,64,-31.6635,2.41565,-0.00458188,0.00224036,-0.00170302,0.00264185,-0.00498337,-1.33927,0.00447108,0.0173,622,960,-31.6635,-2.41566
-595,64,-31.6697,2.17291,-0.00625238,0.000967095,-0.00191669,0.0014444,-0.00672968,-1.32674,0.00503743,0.018727,629,960,-31.6697,-2.17293
-588,64,-31.4075,2.19183,0,0,0,0,0,0,0,-1,636,960,-31.4075,-2.19182
-581,64,-31.9099,1.51471,-0.00670787,-0.00162225,-0.0026262,-0.000509542,-0.00782057,-1.17003,0.00505244,0.0408302,643,960,-31.9098,-1.5147
-574,64,-32.4443,1.04968,-0.00621369,-0.00203991,-0.00279124,-0.000641669,-0.00761193,-1.1064,0.00487483,0.0395631,650,960,-32.4443,-1.04967
-567,64,-32.5578,0.768921,-0.00552661,-0.00260686,-0.00272245,-0.000977567,-0.00715591,-1.03151,0.00448044,0.0257555,657,960,-32.5578,-0.768943
-560,64,-32.559,0.818604,-0.00428331,-0.00296505,-0.00248281,-0.00105536,-0.00619299,-0.915144,0.00382571,0.0343106,664,960,-32.559,-0.818575
-553,64,-32.636,1.00525,-0.00222314,-0.00305483,-0.00223971,-0.000361,-0.00491697,-0.693609,0.00316452,0.0374754,671,960,-32.636,-1.00527
-546,64,-32.6837,1.21069,0.000785174,-0.0027878,-0.00213726,0.00178426,-0.00378689,-0.43728,0.00328505,0.0398179,678,960,-32.6837,-1.21068
-539,64,-32.731,1.23907,0.0048337,-0.00202313,-0.00242884,0.00560687,-0.0027963,-0.308186,0.0049412,0.0424278,685,960,-32.7309,-1.23909
-532,64,-32.5665,1.05017,0.00976273,-0.000327338,-0.00383295,0.0110536,-0.00161822,-0.324855,0.00796348,0.0438888,692,960,-32.5665,-1.05019
-525,64,-32.4417,0.665771,0.0135772,0.00280193,-0.00733412,0.0172899,-0.00091077,-0.468614,0.0118418,0.0446687,699,960,-32.4417,-0.665786
-518,64,0,0,0,0,0,0,0,0,0,-1,706,960,0,0
-511,64,0,0,0,0,0,0,0,0,0,-1,713,960,0,0
-504,64,0,0,0,0,0,0,0,0,0,-1,720,960,0,0
-497,64,0,0,0,0,0,0,0,0,0,-1,727,960,0,0
-490,64,0,0,0,0,0,0,0,0,0,-1,734,960,0,0
-483,64,0,0,0,0,0,0,0,0,0,-1,741,960,0,0
-476,64,0,0,0,0,0,0,0,0,0,-1,748,960,0,0
-469,64,0,0,0,0,0,0,0,0,0,-1,755,960,0,0
-462,64,0,0,0,0,0,0,0,0,0,-1,762,960,0,0
-455,64,0,0,0,0,0,0,0,0,0,-1,769,960,0,0
-448,64,0,0,0,0,0,0,0,0,0,-1,776,960,0,0
-441,64,0,0,0,0,0,0,0,0,0,-1,783,960,0,0
-434,64,0,0,0,0,0,0,0,0,0,-1,790,960,0,0
-427,64,0,0,0,0,0,0,0,0,0,-1,797,960,0,0
-420,64,0,0,0,0,0,0,0,0,0,-1,804,960,0,0
-413,64,0,0,0,0,0,0,0,0,0,-1,811,960,0,0
-406,64,0,0,0,0,0,0,0,0,0,-1,818,960,0,0
-399,64,0,0,0,0,0,0,0,0,0,-1,825,960,0,0
-392,64,0,0,0,0,0,0,0,0,0,-1,832,960,0,0
-385,64,0,0,0,0,0,0,0,0,0,-1,839,960,0,0
-378,64,0,0,0,0,0,0,0,0,0,-1,846,960,0,0
-371,64,0,0,0,0,0,0,0,0,0,-1,853,960,0,0
-364,64,0,0,0,0,0,0,0,0,0,-1,860,960,0,0
-357,64,0,0,0,0,0,0,0,0,0,-1,867,960,0,0
-350,64,0,0,0,0,0,0,0,0,0,-1,874,960,0,0
-343,64,0,0,0,0,0,0,0,0,0,-1,881,960,0,0
-336,64,0,0,0,0,0,0,0,0,0,-1,888,960,0,0
-329,64,0,0,0,0,0,0,0,0,0,-1,895,960,0,0
-322,64,0,0,0,0,0,0,0,0,0,-1,902,960,0,0
-315,64,0,0,0,0,0,0,0,0,0,-1,909,960,0,0
-308,64,0,0,0,0,0,0,0,0,0,-1,916,960,0,0
-301,64,0,0,0,0,0,0,0,0,0,-1,923,960,0,0
-294,64,0,0,0,0,0,0,0,0,0,-1,930,960,0,0
-287,64,0,0,0,0,0,0,0,0,0,-1,937,960,0,0
-280,64,0,0,0,0,0,0,0,0,0,-1,944,960,0,0
-273,64,0,0,0,0,0,0,0,0,0,-1,951,960,0,0
-266,64,0,0,0,0,0,0,0,0,0,-1,958,960,0,0
-259,64,0,0,0,0,0,0,0,0,0,-1,965,960,0,0
-252,64,0,0,0,0,0,0,0,0,0,-1,972,960,0,0
-245,64,0,0,0,0,0,0,0,0,0,-1,979,960,0,0
-238,64,0,0,0,0,0,0,0,0,0,-1,986,960,0,0
-231,64,0,0,0,0,0,0,0,0,0,-1,993,960,0,0
-224,64,0,0,0,0,0,0,0,0,0,-1,1000,960,0,0
-217,64,0,0,0,0,0,0,0,0,0,-1,1007,960,0,0
-210,64,0,0,0,0,0,0,0,0,0,-1,1014,960,0,0
-203,64,0,0,0,0,0,0,0,0,0,-1,1021,960,0,0
-196,64,0,0,0,0,0,0,0,0,0,-1,1028,960,0,0
-189,64,0,0,0,0,0,0,0,0,0,-1,1035,960,0,0
-182,64,0,0,0,0,0,0,0,0,0,-1,1042,960,0,0
-175,64,0,0,0,0,0,0,0,0,0,-1,1049,960,0,0
-168,64,0,0,0,0,0,0,0,0,0,-1,1056,960,0,0
-161,64,0,0,0,0,0,0,0,0,0,-1,1063,960,0,0
-154,64,0,0,0,0,0,0,0,0,0,-1,1070,960,0,0
-147,64,0,0,0,0,0,0,0,0,0,-1,1077,960,0,0
-140,64,0,0,0,0,0,0,0,0,0,-1,1084,960,0,0
-133,64,0,0,0,0,0,0,0,0,0,-1,1091,960,0,0
-126,64,0,0,0,0,0,0,0,0,0,-1,1098,960,0,0
-119,64,0,0,0,0,0,0,0,0,0,-1,1105,960,0,0
-112,64,0,0,0,0,0,0,0,0,0,-1,1112,960,0,0
-105,64,0,0,0,0,0,0,0,0,0,-1,1119,960,0,0
-98,64,0,0,0,0,0,0,0,0,0,-1,1126,960,0,0
-91,64,0,0,0,0,0,0,0,0,0,-1,1133,960,0,0
-84,64,0,0,0,0,0,0,0,0,0,-1,1140,960,0,0
-77,64,0,0,0,0,0,0,0,0,0,-1,1147,960,0,0
-70,64,0,0,0,0,0,0,0,0,0,-1,1154,960,0,0
-63,64,0,0,0,0,0,0,0,0,0,-1,1161,960,0,0
-56,64,0,0,0,0,0,0,0,0,0,-1,1168,960,0,0
-49,64,0,0,0,0,0,0,0,0,0,-1,1175,960,0,0
-42,64,0,0,0,0,0,0,0,0,0,-1,1182,960,0,0
-35,64,0,0,0,0,0,0,0,0,0,-1,1189,960,0,0
-28,64,0,0,0,0,0,0,0,0,0,-1,1196,960,0,0
-21,64,0,0,0,0,0,0,0,0,0,-1,1203,960,0,0
-14,64,0,0,0,0,0,0,0,0,0,-1,1210,960,0,0
-7,64,0,0,0,0,0,0,0,0,0,-1,1217,960,0,0
0,64,0,0,0,0,0,0,0,0,0,-1,1224,960,0,0
7,64,0,0,0,0,0,0,0,0,0,-1,1231,960,0,0
14,64,0,0,0,0,0,0,0,0,0,-1,1238,960,0,0
21,64,0,0,0,0,0,0,0,0,0,-1,1245,960,0,0
28,64,0,0,0,0,0,0,0,0,0,-1,1252,960,0,0
35,64,0,0,0,0,0,0,0,0,0,-1,1259,960,0,0
42,64,0,0,0,0,0,0,0,0,0,-1,1266,960,0,0
49,64,0,0,0,0,0,0,0,0,0,-1,1273,960,0,0
56,64,0,0,0,0,0,0,0,0,0,-1,1280,960,0,0
63,64,0,0,0,0,0,0,0,0,0,-1,1287,960,0,0
70,64,0,0,0,0,0,0,0,0,0,-1,1294,960,0,0
77,64,0,0,0,0,0,0,0,0,0,-1,1301,960,0,0
84,64,0,0,0,0,0,0,0,0,0,-1,1308,960,0,0
91,64,0,0,0,0,0,0,0,0,0,-1,1315,960,0,0
98,64,0,0,0,0,0,0,0,0,0,-1,1322,960,0,0
105,64,0,0,0,0,0,0,0,0,0,-1,1329,960,0,0
112,64,0,0,0,0,0,0,0,0,0,-1,1336,960,0,0
119,64,0,0,0,0,0,0,0,0,0,-1,1343,960,0,0
126,64,0,0,0,0,0,0,0,0,0,-1,1350,960,0,0
133,64,0,0,0,0,0,0,0,0,0,-1,1357,960,0,0
140,64,0,0,0,0,0,0,0,0,0,-1,1364,960,0,0
147,64,0,0,0,0,0,0,0,0,0,-1,1371,960,0,0
154,64,0,0,0,0,0,0,0,0,0,-1,1378,960,0,0
161,64,0,0,0,0,0,0,0,0,0,-1,1385,960,0,0
168,64,0,0,0,0,0,0,0,0,0,-1,1392,960,0,0
175,64,0,0,0,0,0,0,0,0,0,-1,1399,960,0,0
182,64,0,0,0,0,0,0,0,0,0,-1,1406,960,0,0
189,64,0,0,0,0,0,0,0,0,0,-1,1413,960,0,0
196,64,0,0,0,0,0,0,0,0,0,-1,1420,960,0,0
203,64,0,0,0,0,0,0,0,0,0,-1,1427,960,0,0
210,64,0,0,0,0,0,0,0,0,0,-1,1434,960,0,0
217,64,0,0,0,0,0,0,0,0,0,-1,1441,960,0,0
224,64,0,0,0,0,0,0,0,0,0,-1,1448,960,0,0
231,64,0,0,0,0,0,0,0,0,0,-1,1455,960,0,0
238,64,0,0,0,0,0,0,0,0,0,-1,1462,960,0,0
245,64,0,0,0,0,0,0,0,0,0,-1,1469,960,0,0
252,64,0,0,0,0,0,0,0,0,0,-1,1476,960,0,0
259,64,0,0,0,0,0,0,0,0,0,-1,1483,960,0,0
266,64,0,0,0,0,0,0,0,0,0,-1,1490,960,0,0
273,64,0,0,0,0,0,0,0,0,0,-1,1497,960,0,0
280,64,0,0,0,0,0,0,0,0,0,-1,1504,960,0,0
287,64,0,0,0,0,0,0,0,0,0,-1,1511,960,0,0
294,64,0,0,0,0,0,0,0,0,0,-1,1518,960,0,0
301,64,0,0,0,0,0,0,0,0,0,-1,1525,960,0,0
308,64,0,0,0,0,0,0,0,0,0,-1,1532,960,0,0
315,64,0,0,0,0,0,0,0,0,0,-1,1539,960,0,0
322,64,0,0,0,0,0,0,0,0,0,-1,1546,960,0,0
329,64,0,0,0,0,0,0,0,0,0,-1,1553,960,0,0
336,64,0,0,0,0,0,0,0,0,0,-1,1560,960,0,0
343,64,0,0,0,0,0,0,0,0,0,-1,1567,960,0,0
350,64,0,0,0,0,0,0,0,0,0,-1,1574,960,0,0
357,64,0,0,0,0,0,0,0,0,0,-1,1581,960,0,0
364,64,0,0,0,0,0,0,0,0,0,-1,1588,960,0,0
371,64,0,0,0,0,0,0,0,0,0,-1,1595,960,0,0
378,64,0,0,0,0,0,0,0,0,0,-1,1602,960,0,0
385,64,0,0,0,0,0,0,0,0,0,-1,1609,960,0,0
392,64,0,0,0,0,0,0,0,0,0,-1,1616,960,0,0
399,64,0,0,0,0,0,0,0,0,0,-1,1623,960,0,0
406,64,0,0,0,0,0,0,0,0,0,-1,1630,960,0,0
413,64,0,0,0,0,0,0,0,0,0,-1,1637,960,0,0
420,64,0,0,0,0,0,0,0,0,0,-1,1644,960,0,0
427,64,0,0,0,0,0,0,0,0,0,-1,1651,960,0,0
434,64,0,0,0,0,0,0,0,0,0,-1,1658,960,0,0
441,64,0,0,0,0,0,0,0,0,0,-1,1665,960,0,0
448,64,0,0,0,0,0,0,0,0,0,-1,1672,960,0,0
455,64,0,0,0,0,0,0,0,0,0,-1,1679,960,0,0
462,64,0,0,0,0,0,0,0,0,0,-1,1686,960,0,0
469,64,0,0,0,0,0,0,0,0,0,-1,1693,960,0,0
476,64,0,0,0,0,0,0,0,0,0,-1,1700,960,0,0
483,64,0,0,0,0,0,0,0,0,0,-1,1707,960,0,0
490,64,0,0,0,0,0,0,0,0,0,-1,1714,960,0,0
497,64,0,0,0,0,0,0,0,0,0,-1,1721,960,0,0
504,64,0,0,0,0,0,0,0,0,0,-1,1728,960,0,0
511,64,0,0,0,0,0,0,0,0,0,-1,1735,960,0,0
518,64,0,0,0,0,0,0,0,0,0,-1,1742,960,0,0
525,64,0,0,0,0,0,0,0,0,0,-1,1749,960,0,0
532,64,0,0,0,0,0,0,0,0,0,-1,1756,960,0,0
539,64,0,0,0,0,0,0,0,0,0,-1,1763,960,0,0
546,64,0,0,0,0,0,0,0,0,0,-1,1770,960,0,0
553,64,0,0,0,0,0,0,0,0,0,-1,1777,960,0,0
560,64,0,0,0,0,0,0,0,0,0,-1,1784,960,0,0
567,64,0,0,0,0,0,0,0,0,0,-1,1791,960,0,0
574,64,0,0,0,0,0,0,0,0,0,-1,1798,960,0,0
581,64,0,0,0,0,0,0,0,0,0,-1,1805,960,0,0
588,64,0,0,0,0,0,0,0,0,0,-1,1812,960,0,0
595,64,0,0,0,0,0,0,0,0,0,-1,1819,960,0,0
602,64,0,0,0,0,0,0,0,0,0,-1,1826,960,0,0
609,64,0,0,0,0,0,0,0,0,0,-1,1833,960,0,0
616,64,0,0,0,0,0,0,0,0,0,-1,1840,960,0,0
623,64,0,0,0,0,0,0,0,0,0,-1,1847,960,0,0
630,64,0,0,0,0,0,0,0,0,0,-1,1854,960,0,0
637,64,0,0,0,0,0,0,0,0,0,-1,1861,960,0,0
644,64,44.0637,2.51929,-0.00593452,0.00357059,-0.00187784,0.00392812,-0.00629206,-1.38265,0.00595301,0.0397473,1868,960,44.0638,-2.51929
651,64,44.0913,2.5191,-0.0041876,0.00311084,-0.00139859,0.00336967,-0.00444643,-1.3878,0.00452688,0.0380127,1875,960,44.0914,-2.51912
658,64,44.2152,2.7049,-0.00309216,0.00277309,-0.000780034,0.00287506,-0.00319412,-1.44081,0.00350566,0.0380299,1882,960,44.2153,-2.70492
665,64,44.2521,2.75323,-0.00243483,0.00254728,0.000119797,0.00255016,-0.00243771,1.54677,0.00287999,0.041503,1889,960,44.2521,-2.75322
672,64,44.2446,2.55396,-0.00210896,0.00228044,0.00110982,0.00254509,-0.00237361,1.33671,0.00284039,0.0426183,1896,960,44.2447,-2.55397
679,64,44.2223,2.46606,-0.00190688,0.00193616,0.00198188,0.00277509,-0.00274581,1.17037,0.00318751,0.0423129,1903,960,44.2223,-2.46604
686,64,44.1658,2.48291,-0.00169451,0.00156209,0.00252095,0.00293488,-0.0030673,1.07214,0.00346564,0.0379081,1910,960,44.1657,-2.48288
693,64,44.1808,2.49689,-0.00147332,0.00119944,0.00280703,0.00297197,-0.00324585,1.00756,0.00359102,0.0321121,1917,960,44.1807,-2.49687
700,64,44.1678,2.50061,-0.00142211,0.00101723,0.0028237,0.00287342,-0.0032783,0.989266,0.00355426,0.0280936,1924,960,44.1679,-2.50063
707,64,44.0626,2.89545,-0.00162188,0.00100911,0.00261983,0.00262517,-0.00323794,1.01807,0.00339123,0.0397846,1931,960,44.0627,-2.89543
714,64,43.903,3.65631,0,0,0,0,0,0,0,-1,1938,960,43.903,-3.65633
721,64,42.4237,4.49036,0,0,0,0,0,0,0,-1,1945,960,42.4237,-4.49034
728,64,42.3152,4.84265,-0.00243313,0.00200477,0.00181605,0.00265318,-0.00308154,1.22786,0.00331402,0.0205368,1952,960,42.3152,-4.84265
735,64,42.3201,5.16351,-0.0026469,0.00278034,0.0011076,0.00299767,-0.00286424,1.37703,0.00338467,0.0289706,1959,960,42.3201,-5.16352
742,64,42.4227,5.39063,-0.0029931,0.00421256,0.000463841,0.0042423,-0.00302284,1.50678,0.00421418,0.0255221,1966,960,42.4227,-5.39062
749,64,42.3774,5.63977,-0.00332209,0.00597973,-0.00013965,0.00598182,-0.00332418,-1.55579,0.00544537,0.0165772,1973,960,42.3775,-5.63975
756,64,42.3431,5.90228,-0.00319556,0.00867452,-0.00068047,0.0087134,-0.00323444,-1.51372,0.00713576,0.0154445,1980,960,42.3431,-5.90228
763,64,42.3517,6.18121,-0.00276328,0.0124612,-0.0010074,0.0125276,-0.00282965,-1.50501,0.00943742,0.0182004,1987,960,42.3517,-6.18122
770,64,42.1707,6.40778,-0.00182066,0.0170169,-0.00091231,0.017061,-0.00186475,-1.52252,0.0120438,0.019958,1994,960,42.1707,-6.4078
777,64,42.0261,6.69836,3.4561e-05,0.0222895,-0.000770634,0.0223162,7.90879e-06,-1.53622,0.0148748,0.0366869,2001,960,42.0261,-6.69839
784,64,42.1948,6.82434,0.00351935,0.028809,-0.000607042,0.0288235,0.00350479,-1.54681,0.0181605,0.0415895,2008,960,42.1947,-6.82436
791,64,42.3582,7.09137,0.00936019,0.0366961,-0.0010459,0.0367361,0.00932023,-1.53261,0.0220506,0.0472272,2015,960,42.3581,-7.09138
798,64,42.45,7.4389,0,0,0,0,0,0,0,-1,2022,960,42.45,-7.43892
805,64,43.3259,3.58185,0,0,0,0,0,0,0,-1,2029,960,43.3259,-3.58182
812,64,0,0,0,0,0,0,0,0,0,-1,2036,960,0,0
-700,57,0,0,0,0,0,0,0,0,0,-1,524,967,0,0
-693,57,0,0,0,0,0,0,0,0,0,-1,531,967,0,0
-686,57,-28.2824,-1.95056,0,0,0,0,0,0,0,-1,538,967,-28.2824,1.95056
-679,57,-29.4034,-2.32129,0,0,0,0,0,0,0,-1,545,967,-29.4034,2.32131
-672,57,-31.9995,4.09747,0,0,0,0,0,0,0,-1,552,967,-31.9995,-4.09745
-665,57,-32.041,3.97198,0,0,0,0,0,0,0,-1,559,967,-32.041,-3.97196
-658,57,-32.1563,3.90942,0,0,0,0,0,0,0,-1,566,967,-32.1562,-3.9094
-651,57,-32.3299,3.43988,-0.01082,0.0033208,0.0149587,0.0127959,-0.0202951,1.00617,0.0192679,0.044542,573,967,-32.3299,-3.43988
-644,57,-31.9479,3.52917,-0.00706492,0.0051555,0.0118217,0.0123527,-0.0142621,1.02392,0.0153793,0.0320747,580,967,-31.9479,-3.5292
-637,57,-31.9008,3.43634,-0.00410824,0.00622628,0.00875167,0.0112223,-0.00910426,1.05208,0.0117568,0.0190237,587,967,-31.9008,-3.43637
-630,57,-31.9733,3.26825,-0.00274994,0.00636068,0.00577407,0.00916001,-0.00554927,1.11937,0.00857727,0.0147631,594,967,-31.9733,-3.26827
-623,57,-31.988,3.09973,-0.00209675,0.00625432,0.00304463,0.00724646,-0.00308889,1.25578,0.00612594,0.0129025,601,967,-31.9881,-3.09972
-616,57,-31.9911,2.8988,-0.00191117,0.00536417,0.000667986,0.00542499,-0.00197199,1.47999,0.00442304,0.0142459,608,967,-31.9912,-2.89881
-609,57,-31.9782,2.66791,-0.00244486,0.00393635,-0.00104099,0.00410188,-0.00261038,-1.41311,0.00390709,0.0144262,615,967,-31.9782,-2.66793
-602,57,-31.9459,2.44061,-0.00378294,0.00237287,-0.00225735,0.00311192,-0.00452199,-1.2544,0.00443243,0.0119425,622,967,-31.9459,-2.4406
-595,57,-31.9381,2.2373,-0.00524241,0.00099851,-0.0027496,0.00203709,-0.00628098,-1.20964,0.00500646,0.013245,629,967,-31.9381,-2.23728
-588,57,-31.8022,2.15802,0,0,0,0,0,0,0,-1,636,967,-31.8022,-2.15801
-581,57,-32.1685,1.49976,0,0,0,0,0,0,0,-1,643,967,-32.1685,-1.49974
-574,57,-32.5349,0.841492,0,0,0,0,0,0,0,-1,650,967,-32.5348,-0.841468
-567,57,-32.5204,0.767761,-0.0042819,-0.00327505,-0.00337538,-0.000365764,-0.00719119,-0.859426,0.00467698,0.0330622,657,967,-32.5205,-0.767777
-560,57,-32.5392,0.719177,-0.00306423,-0.00382165,-0.00295495,-0.000463822,-0.00642206,-0.721665,0.00413544,0.0400793,664,967,-32.5392,-0.71917
-553,57,-32.5487,0.695068,-0.00105628,-0.00408788,-0.00252051,0.000369117,-0.00551327,-0.514679,0.00380453,0.0387452,671,967,-32.5487,-0.695073
-546,57,-32.614,0.766174,0.00187849,-0.00396801,-0.00223598,0.00263559,-0.00472511,-0.326484,0.0043064,0.0404583,678,967,-32.614,-0.766169
-539,57,-33.0438,1.17108,0,0,0,0,0,0,0,-1,685,967,-33.0438,-1.1711
-532,57,-32.7242,0.67511,0.010745,-0.00148161,-0.00393298,0.0119008,-0.00263747,-0.285842,0.00894364,0.0409604,692,967,-32.7242,-0.675121
-525,57,-32.5154,0.551819,0.0145596,0.00185637,-0.00775549,0.0182325,-0.00181653,-0.442294,0.0128035,0.0414704,699,967,-32.5155,-0.551806
-518,57,0,0,0,0,0,0,0,0,0,-1,706,967,0,0
-511,57,0,0,0,0,0,0,0,0,0,-1,713,967,0,0
-504,57,0,0,0,0,0,0,0,0,0,-1,720,967,0,0
-497,57,0,0,0,0,0,0,0,0,0,-1,727,967,0,0
-490,57,0,0,0,0,0,0,0,0,0,-1,734,967,0,0
-483,57,0,0,0,0,0,0,0,0,0,-1,741,967,0,0
-476,57,0,0,0,0,0,0,0,0,0,-1,748,967,0,0
-469,57,0,0,0,0,0,0,0,0,0,-1,755,967,0,0
-462,57,0,0,0,0,0,0,0,0,0,-1,762,967,0,0
-455,57,0,0,0,0,0,0,0,0,0,-1,769,967,0,0
-448,57,0,0,0,0,0,0,0,0,0,-1,776,967,0,0
-441,57,0,0,0,0,0,0,0,0,0,-1,783,967,0,0
-434,57,0,0,0,0,0,0,0,0,0,-1,790,967,0,0
-427,57,0,0,0,0,0,0,0,0,0,-1,797,967,0,0
-420,57,0,0,0,0,0,0,0,0,0,-1,804,967,0,0
-413,57,0,0,0,0,0,0,0,0,0,-1,811,967,0,0
-406,57,0,0,0,0,0,0,0,0,0,-1,818,967,0,0
-399,57,0,0,0,0,0,0,0,0,0,-1,825,967,0,0
-392,57,0,0,0,0,0,0,0,0,0,-1,832,967,0,0
-385,57,0,0,0,0,0,0,0,0,0,-1,839,967,0,0
-378,57,0,0,0,0,0,0,0,0,0,-1,846,967,0,0
-371,57,0,0,0,0,0,0,0,0,0,-1,853,967,0,0
-364,57,0,0,0,0,0,0,0,0,0,-1,860,967,0,0
-357,57,0,0,0,0,0,0,0,0,0,-1,867,967,0,0
-350,57,0,0,0,0,0,0,0,0,0,-1,874,967,0,0
-343,57,0,0,0,0,0,0,0,0,0,-1,881,967,0,0
-336,57,0,0,0,0,0,0,0,0,0,-1,888,967,0,0
-329,57,0,0,0,0,0,0,0,0,0,-1,895,967,0,0
-322,57,0,0,0,0,0,0,0,0,0,-1,902,967,0,0
-315,57,0,0,0,0,0,0,0,0,0,-1,909,967,0,0
-308,57,0,0,0,0,0,0,0,0,0,-1,916,967,0,0
-301,57,0,0,0,0,0,0,0,0,0,-1,923,967,0,0
-294,57,0,0,0,0,0,0,0,0,0,-1,930,967,0,0
-287,57,0,0,0,0,0,0,0,0,0,-1,937,967,0,0
-280,57,0,0,0,0,0,0,0,0,0,-1,944,967,0,0
-273,57,0,0,0,0,0,0,0,0,0,-1,951,967,0,0
-266,57,0,0,0,0,0,0,0,0,0,-1,958,967,0,0
-259,57,0,0,0,0,0,0,0,0,0,-1,965,967,0,0
-252,57,0,0,0,0,0,0,0,0,0,-1,972,967,0,0
-245,57,0,0,0,0,0,0,0,0,0,-1,979,967,0,0
-238,57,0,0,0,0,0,0,0,0,0,-1,986,967,0,0
-231,57,0,0,0,0,0,0,0,0,0,-1,993,967,0,0
-224,57,0,0,0,0,0,0,0,0,0,-1,1000,967,0,0
-217,57,0,0,0,0,0,0,0,0,0,-1,1007,967,0,0
-210,57,0,0,0,0,0,0,0,0,0,-1,1014,967,0,0
-203,57,0,0,0,0,0,0,0,0,0,-1,1021,967,0,0
-196,57,0,0,0,0,0,0,0,0,0,-1,1028,967,0,0
-189,57,0,0,0,0,0,0,0,0,0,-1,1035,967,0,0
-182,57,0,0,0,0,0,0,0,0,0,-1,1042,967,0,0
-175,57,0,0,0,0,0,0,0,0,0,-1,1049,967,0,0
-168,57,0,0,0,0,0,0,0,0,0,-1,1056,967,0,0
-161,57,0,0,0,0,0,0,0,0,0,-1,1063,967,0,0
-154,57,0,0,0,0,0,0,0,0,0,-1,1070,967,0,0
-147,57,0,0,0,0,0,0,0,0,0,-1,1077,967,0,0
-140,57,0,0,0,0,0,0,0,0,0,-1,1084,967,0,0
-133,57,0,0,0,0,0,0,0,0,0,-1,1091,967,0,0
-126,57,0,0,0,0,0,0,0,0,0,-1,1098,967,0,0
-119,57,0,0,0,0,0,0,0,0,0,-1,1105,967,0,0
-112,57,0,0,0,0,0,0,0,0,0,-1,1112,967,0,0
-105,57,0,0,0,0,0,0,0,0,0,-1,1119,967,0,0
-98,57,0,0,0,0,0,0,0,0,0,-1,1126,967,0,0
-91,57,0,0,0,0,0,0,0,0,0,-1,1133,967,0,0
-84,57,0,0,0,0,0,0,0,0,0,-1,1140,967,0,0
-77,57,0,0,0,0,0,0,0,0,0,-1,1147,967,0,0
-70,57,0,0,0,0,0,0,0,0,0,-1,1154,967,0,0
-63,57,0,0,0,0,0,0,0,0,0,-1,1161,967,0,0
-56,57,0,0,0,0,0,0,0,0,0,-1,1168,967,0,0
-49,57,0,0,0,0,0,0,0,0,0,-1,1175,967,0,0
-42,57,0,0,0,0,0,0,0,0,0,-1,1182,967,0,0
-35,57,0,0,0,0,0,0,0,0,0,-1,1189,967,0,0
-28,57,0,0,0,0,0,0,0,0,0,-1,1196,967,0,0
-21,57,0,0,0,0,0,0,0,0,0,-1,1203,967,0,0
-14,57,0,0,0,0,0,0,0,0,0,-1,1210,967,0,0
-7,57,0,0,0,0,0,0,0,0,0,-1,1217,967,0,0
0,57,0,0,0,0,0,0,0,0,0,-1,1224,967,0,0
7,57,0,0,0,0,0,0,0,0,0,-1,1231,967,0,0
14,57,0,0,0,0,0,0,0,0,0,-1,1238,967,0,0
21,57,0,0,0,0,0,0,0,0,0,-1,1245,967,0,0
28,57,0,0,0,0,0,0,0,0,0,-1,1252,967,0,0
35,57,0,0,0,0,0,0,0,0,0,-1,1259,967,0,0
42,57,0,0,0,0,0,0,0,0,0,-1,1266,967,0,0
49,57,0,0,0,0,0,0,0,0,0,-1,1273,967,0,0
56,57,0,0,0,0,0,0,0,0,0,-1,1280,967,0,0
63,57,0,0,0,0,0,0,0,0,0,-1,1287,967,0,0
70,57,0,0,0,0,0,0,0,0,0,-1,1294,967,0,0
77,57,0,0,0,0,0,0,0,0,0,-1,1301,967,0,0
84,57,0,0,0,0,0,0,0,0,0,-1,1308,967,0,0
91,57,0,0,0,0,0,0,0,0,0,-1,1315,967,0,0
98,57,0,0,0,0,0,0,0,0,0,-1,1322,967,0,0
105,57,0,0,0,0,0,0,0,0,0,-1,1329,967,0,0
112,57,0,0,0,0,0,0,0,0,0,-1,1336,967,0,0
119,57,0,0,0,0,0,0,0,0,0,-1,1343,967,0,0
126,57,0,0,0,0,0,0,0,0,0,-1,1350,967,0,0
133,57,0,0,0,0,0,0,0,0,0,-1,1357,967,0,0
140,57,0,0,0,0,0,0,0,0,0,-1,1364,967,0,0
147,57,0,0,0,0,0,0,0,0,0,-1,1371,967,0,0
154,57,0,0,0,0,0,0,0,0,0,-1,1378,967,0,0
161,57,0,0,0,0,0,0,0,0,0,-1,1385,967,0,0
168,57,0,0,0,0,0,0,0,0,0,-1,1392,967,0,0
175,57,0,0,0,0,0,0,0,0,0,-1,1399,967,0,0
182,57,0,0,0,0,0,0,0,0,0,-1,1406,967,0,0
189,57,0,0,0,0,0,0,0,0,0,-1,1413,967,0,0
196,57,0,0,0,0,0,0,0,0,0,-1,1420,967,0,0
203,57,0,0,0,0,0,0,0,0,0,-1,1427,967,0,0
210,57,0,0,0,0,0,0,0,0,0,-1,1434,967,0,0
217,57,0,0,0,0,0,0,0,0,0,-1,1441,967,0,0
224,57,0,0,0,0,0,0,0,0,0,-1,1448,967,0,0
231,57,0,0,0,0,0,0,0,0,0,-1,1455,967,0,0
238,57,0,0,0,0,0,0,0,0,0,-1,1462,967,0,0
245,57,0,0,0,0,0,0,0,0,0,-1,1469,967,0,0
252,57,0,0,0,0,0,0,0,0,0,-1,1476,967,0,0
259,57,0,0,0,0,0,0,0,0,0,-1,1483,967,0,0
266,57,0,0,0,0,0,0,0,0,0,-1,1490,967,0,0
273,57,0,0,0,0,0,0,0,0,0,-1,1497,967,0,0
280,57,0,0,0,0,0,0,0,0,0,-1,1504,967,0,0
287,57,0,0,0,0,0,0,0,0,0,-1,1511,967,0,0
294,57,0,0,0,0,0,0,0,0,0,-1,1518,967,0,0
301,57,0,0,0,0,0,0,0,0,0,-1,1525,967,0,0
308,57,0,0,0,0,0,0,0,0,0,-1,1532,967,0,0
315,57,0,0,0,0,0,0,0,0,0,-1,1539,967,0,0
322,57,0,0,0,0,0,0,0,0,0,-1,1546,967,0,0
329,57,0,0,0,0,0,0,0,0,0,-1,1553,967,0,0
336,57,0,0,0,0,0,0,0,0,0,-1,1560,967,0,0
343,57,0,0,0,0,0,0,0,0,0,-1,1567,967,0,0
350,57,0,0,0,0,0,0,0,0,0,-1,1574,967,0,0
357,57,0,0,0,0,0,0,0,0,0,-1,1581,967,0,0
364,57,0,0,0,0,0,0,0,0,0,-1,1588,967,0,0
371,57,0,0,0,0,0,0,0,0,0,-1,1595,967,0,0
378,57,0,0,0,0,0,0,0,0,0,-1,1602,967,0,0
385,57,0,0,0,0,0,0,0,0,0,-1,1609,967,0,0
392,57,0,0,0,0,0,0,0,0,0,-1,1616,967,0,0
399,57,0,0,0,0,0,0,0,0,0,-1,1623,967,0,0
406,57,0,0,0,0,0,0,0,0,0,-1,1630,967,0,0
413,57,0,0,0,0,0,0,0,0,0,-1,1637,967,0,0
420,57,0,0,0,0,0,0,0,0,0,-1,1644,967,0,0
427,57,0,0,0,0,0,0,0,0,0,-1,1651,967,0,0
434,57,0,0,0,0,0,0,0,0,0,-1,1658,967,0,0
441,57,0,0,0,0,0,0,0,0,0,-1,1665,967,0,0
448,57,0,0,0,0,0,0,0,0,0,-1,1672,967,0,0
455,57,0,0,0,0,0,0,0,0,0,-1,1679,967,0,0
462,57,0,0,0,0,0,0,0,0,0,-1,1686,967,0,0
469,57,0,0,0,0,0,0,0,0,0,-1,1693,967,0,0
476,57,0,0,0,0,0,0,0,0,0,-1,1700,967,0,0
483,57,0,0,0,0,0,0,0,0,0,-1,1707,967,0,0
490,57,0,0,0,0,0,0,0,0,0,-1,1714,967,0,0
497,57,0,0,0,0,0,0,0,0,0,-1,1721,967,0,0
504,57,0,0,0,0,0,0,0,0,0,-1,1728,967,0,0
511,57,0,0,0,0,0,0,0,0,0,-1,1735,967,0,0
518,57,0,0,0,0,0,0,0,0,0,-1,1742,967,0,0
525,57,0,0,0,0,0,0,0,0,0,-1,1749,967,0,0
532,57,0,0,0,0,0,0,0,0,0,-1,1756,967,0,0
539,57,0,0,0,0,0,0,0,0,0,-1,1763,967,0,0
546,57,0,0,0,0,0,0,0,0,0,-1,1770,967,0,0
553,57,0,0,0,0,0,0,0,0,0,-1,1777,967,0,0
560,57,0,0,0,0,0,0,0,0,0,-1,1784,967,0,0
567,57,0,0,0,0,0,0,0,0,0,-1,1791,967,0,0
574,57,0,0,0,0,0,0,0,0,0,-1,1798,967,0,0
581,57,0,0,0,0,0,0,0,0,0,-1,1805,967,0,0
588,57,0,0,0,0,0,0,0,0,0,-1,1812,967,0,0
595,57,0,0,0,0,0,0,0,0,0,-1,1819,967,0,0
602,57,0,0,0,0,0,0,0,0,0,-1,1826,967,0,0
609,57,0,0,0,0,0,0,0,0,0,-1,1833,967,0,0
616,57,0,0,0,0,0,0,0,0,0,-1,1840,967,0,0
623,57,0,0,0,0,0,0,0,0,0,-1,1847,967,0,0
630,57,0,0,0,0,0,0,0,0,0,-1,1854,967,0,0
637,57,0,0,0,0,0,0,0,0,0,-1,1861,967,0,0
644,57,44.1586,2.66748,-0.00616063,0.00428542,-0.00141718,0.00447427,-0.00634948,-1.43832,0.00628028,0.0394688,1868,967,44.1586,-2.66747
651,57,44.1194,2.61658,-0.0042078,0.0036306,-0.000989048,0.00375347,-0.00433067,-1.4472,0.00467135,0.0336801,1875,967,44.1193,-2.61656
658,57,44.2523,2.66785,-0.00297598,0.00308919,-0.000452324,0.00312274,-0.00300953,-1.49676,0.00354067,0.0357402,1882,967,44.2523,-2.66784
665,57,44.1332,2.97913,-0.00221891,0.00270957,0.000392219,0.00274059,-0.00224993,1.49188,0.00288592,0.0457915,1889,967,44.1332,-2.97915
672,57,44.1545,2.5246,-0.00181186,0.00233541,0.00135833,0.00274069,-0.00221714,1.28084,0.00286772,0.0449363,1896,967,44.1545,-2.52458
679,57,44.0913,2.49628,-0.00158076,0.00194351,0.00226655,0.00305232,-0.00268958,1.11582,0.00331729,0.0435681,1903,967,44.0913,-2.49628
686,57,44.0416,2.5163,-0.00137729,0.0015227,0.00290026,0.00331523,-0.00316982,1.0172,0.00374446,0.0402625,1910,967,44.0416,-2.51632
693,57,44.1288,2.5293,-0.00119761,0.00112797,0.00324706,0.00341416,-0.0034838,0.957337,0.00398261,0.0306728,1917,967,44.1288,-2.52929
700,57,44.1387,2.52112,-0.00116619,0.000944314,0.00329369,0.00334766,-0.00356954,0.940425,0.00399433,0.0223007,1924,967,44.1386,-2.52114
707,57,44.0752,2.89685,-0.0013772,0.000937388,0.0031261,0.00311354,-0.00355335,0.962678,0.00385192,0.0422405,1931,967,44.0752,-2.89682
714,57,43.9965,3.4245,0,0,0,0,0,0,0,-1,1938,967,43.9965,-3.42449
721,57,42.7168,4.59619,0,0,0,0,0,0,0,-1,1945,967,42.7167,-4.59618
728,57,42.6021,4.91705,-0.00235439,0.00211152,0.00239394,0.00315226,-0.00339513,1.16071,0.003781,0.0215933,1952,967,42.6021,-4.91704
735,57,42.6588,5.20062,-0.00262231,0.00292927,0.00173035,0.00342443,-0.00311747,1.29208,0.00377836,0.0280996,1959,967,42.6588,-5.20064
742,57,42.7184,5.36932,-0.00298895,0.00437366,0.00117534,0.00455674,-0.00317203,1.41627,0.00448601,0.021037,1966,967,42.7184,-5.36932
749,57,42.6769,5.6333,-0.0032947,0.00616358,0.000651436,0.00620824,-0.00333936,1.50235,0.00559464,0.0151199,1973,967,42.6768,-5.63333
756,57,42.6326,5.87238,-0.00297094,0.00884919,0.000150697,0.00885111,-0.00297286,1.55805,0.00710221,0.0119364,1980,967,42.6326,-5.87237
763,57,42.5918,6.10016,-0.00222602,0.0126224,-0.00020344,0.0126252,-0.0022288,-1.5571,0.00924968,0.0126022,1987,967,42.5918,-6.10017
770,57,42.5219,6.31012,-0.000842768,0.0172374,-5.73643e-05,0.0172376,-0.00084295,-1.56762,0.0117828,0.0122318,1994,967,42.5218,-6.31013
777,57,42.4563,6.55164,0.00156592,0.0225743,0.000167442,0.0225756,0.00156459,1.56283,0.014557,0.026144,2001,967,42.4564,-6.55164
784,57,42.3948,6.78821,0.00572892,0.0291357,0.000464139,0.0291449,0.00571972,1.55098,0.0178318,0.043366,2008,967,42.3947,-6.78822
791,57,42.4417,6.70923,0.0123104,0.0370247,0.000314589,0.0370287,0.0123064,1.55807,0.0217754,0.0476686,2015,967,42.4418,-6.70923
798,57,42.5667,6.94434,0,0,0,0,0,0,0,-1,2022,967,42.5667,-6.94434
805,57,41.3035,8.00171,0,0,0,0,0,0,0,-1,2029,967,41.3034,-8.00171
812,57,0,0,0,0,0,0,0,0,0,-1,2036,967,0,0
-700,50,0,0,0,0,0,0,0,0,0,-1,524,974,0,0
-693,50,-27.5089,-1.54492,-0.0512554,-0.0297998,0.0391419,5.78165e-05,-0.081113,0.919151,0.0540946,0.0477927,531,974,-27.5089,1.5449
-686,50,-28.4622,-1.62805,0,0,0,0,0,0,0,-1,538,974,-28.4622,1.62803
-679,50,-29.4651,-1.6369,0,0,0,0,0,0,0,-1,545,974,-29.4651,1.63692
-672,50,-30.4569,-1.078,0,0,0,0,0,0,0,-1,552,974,-30.4569,1.07801
-665,50,-32.4708,3.74976,0,0,0,0,0,0,0,-1,559,974,-32.4708,-3.74978
-658,50,-32.7532,2.64575,-0.0179659,-0.00125737,0.0218626,0.0137928,-0.0330161,0.9679,0.0277744,0.0484937,566,974,-32.7533,-2.64578
-651,50,-32.4033,2.97498,-0.013395,0.00191727,0.0179338,0.0137608,-0.0252386,0.987142,0.0228391,0.0431581,573,974,-32.4033,-2.975
-644,50,-32.0687,3.35303,-0.00957164,0.00401517,0.0142162,0.0129777,-0.0185342,1.00829,0.0182874,0.0299058,580,974,-32.0687,-3.35301
-637,50,-32.1319,3.35034,-0.00634129,0.00537459,0.0104993,0.0115396,-0.0125063,1.03986,0.0138867,0.0179948,587,974,-32.1319,-3.35033
-630,50,-32.1807,3.2218,-0.00452093,0.00578237,0.00686561,0.00921419,-0.00795276,1.10726,0.00992026,0.0120996,594,974,-32.1807,-3.22181
-623,50,-32.2089,3.07111,-0.00321067,0.00595495,0.00353864,0.00716214,-0.00441787,1.24203,0.00674801,0.0118565,601,974,-32.2089,-3.07114
-616,50,-32.2351,2.88623,-0.00240322,0.00532758,0.000726173,0.0053952,-0.00247084,1.47795,0.0046449,0.010991,608,974,-32.2351,-2.88622
-609,50,-32.2232,2.64124,-0.00229145,0.00406902,-0.00132016,0.00433214,-0.00255457,-1.37406,0.00401995,0.0101597,615,974,-32.2232,-2.64121
-602,50,-32.2182,2.4444,-0.00307372,0.00255494,-0.00281267,0.0037195,-0.00423828,-1.17824,0.00459768,0.0117941,622,974,-32.2182,-2.44442
-595,50,-32.2121,2.26105,-0.0041022,0.00107596,-0.00354636,0.00287778,-0.00590402,-1.10071,0.00516955,0.0121649,629,974,-32.2121,-2.26106
-588,50,-32.2377,1.96887,-0.00435559,-0.00109248,-0.00405227,0.00164436,-0.00709243,-0.976783,0.00536113,0.0167103,636,974,-32.2377,-1.96889
-581,50,-32.4381,1.22681,-0.00403997,-0.0020515,-0.00434421,0.0014108,-0.00750227,-0.897893,0.00553207,0.0249397,643,974,-32.4381,-1.22681
-574,50,-32.6064,0.486572,0,0,0,0,0,0,0,-1,650,974,-32.6064,-0.486558
-567,50,-32.5396,0.707642,-0.00295417,-0.00375248,-0.00399566,0.000662228,-0.00736887,-0.735615,0.00514754,0.0361253,657,974,-32.5396,-0.707653
-560,50,-32.5831,0.648499,-0.00184655,-0.00448272,-0.00342473,0.000504985,-0.00683426,-0.601699,0.00473349,0.0413972,664,974,-32.5831,-0.648485
-553,50,-32.5671,0.700378,8.36983e-07,-0.00492697,-0.00283646,0.00129411,-0.00622024,-0.427786,0.00463876,0.0392035,671,974,-32.5671,-0.70036
-546,50,-32.5424,1.0191,0.00274839,-0.00497007,-0.00241404,0.00344122,-0.0056629,-0.279488,0.00530818,0.0396164,678,974,-32.5424,-1.0191
-539,50,-32.5629,1.22174,0.00657916,-0.0043806,-0.00254928,0.00714311,-0.00494456,-0.217714,0.00701719,0.044773,685,974,-32.5628,-1.22176
-532,50,-32.5544,0.329224,0.0113686,-0.00248196,-0.00427581,0.0125822,-0.0036956,-0.276565,0.0098538,0.0401783,692,974,-32.5544,-0.329254
-525,50,-32.3798,0.276794,0.0151862,0.000997954,-0.00851868,0.0191778,-0.00299371,-0.438195,0.0138911,0.0404473,699,974,-32.3798,-0.276769
-518,50,0,0,0,0,0,0,0,0,0,-1,706,974,0,0
-511,50,0,0,0,0,0,0,0,0,0,-1,713,974,0,0
-504,50,0,0,0,0,0,0,0,0,0,-1,720,974,0,0
-497,50,0,0,0,0,0,0,0,0,0,-1,727,974,0,0
-490,50,0,0,0,0,0,0,0,0,0,-1,734,974,0,0
-483,50,0,0,0,0,0,0,0,0,0,-1,741,974,0,0
-476,50,0,0,0,0,0,0,0,0,0,-1,748,974,0,0
-469,50,0,0,0,0,0,0,0,0,0,-1,755,974,0,0
-462,50,0,0,0,0,0,0,0,0,0,-1,762,974,0,0
-455,50,0,0,0,0,0,0,0,0,0,-1,769,974,0,0
-448,50,0,0,0,0,0,0,0,0,0,-1,776,974,0,0
-441,50,0,0,0,0,0,0,0,0,0,-1,783,974,0,0
-434,50,0,0,0,0,0,0,0,0,0,-1,790,974,0,0
-427,50,0,0,0,0,0,0,0,0,0,-1,797,974,0,0
-420,50,0,0,0,0,0,0,0,0,0,-1,804,974,0,0
-413,50,0,0,0,0,0,0,0,0,0,-1,811,974,0,0
-406,50,0,0,0,0,0,0,0,0,0,-1,818,974,0,0
-399,50,0,0,0,0,0,0,0,0,0,-1,825,974,0,0
-392,50,0,0,0,0,0,0,0,0,0,-1,832,974,0,0
-385,50,0,0,0,0,0,0,0,0,0,-1,839,974,0,0
-378,50,0,0,0,0,0,0,0,0,0,-1,846,974,0,0
-371,50,0,0,0,0,0,0,0,0,0,-1,853,974,0,0
-364,50,0,0,0,0,0,0,0,0,0,-1,860,974,0,0
-357,50,0,0,0,0,0,0,0,0,0,-1,867,974,0,0
-350,50,0,0,0,0,0,0,0,0,0,-1,874,974,0,0
-343,50,0,0,0,0,0,0,0,0,0,-1,881,974,0,0
-336,50,0,0,0,0,0,0,0,0,0,-1,888,974,0,0
-329,50,0,0,0,0,0,0,0,0,0,-1,895,974,0,0
-322,50,0,0,0,0,0,0,0,0,0,-1,902,974,0,0
-315,50,0,0,0,0,0,0,0,0,0,-1,909,974,0,0
-308,50,0,0,0,0,0,0,0,0,0,-1,916,974,0,0
-301,50,0,0,0,0,0,0,0,0,0,-1,923,974,0,0
-294,50,0,0,0,0,0,0,0,0,0,-1,930,974,0,0
-287,50,0,0,0,0,0,0,0,0,0,-1,937,974,0,0
-280,50,0,0,0,0,0,0,0,0,0,-1,944,974,0,0
-273,50,0,0,0,0,0,0,0,0,0,-1,951,974,0,0
-266,50,0,0,0,0,0,0,0,0,0,-1,958,974,0,0
-259,50,0,0,0,0,0,0,0,0,0,-1,965,974,0,0
-252,50,0,0,0,0,0,0,0,0,0,-1,972,974,0,0
-245,50,0,0,0,0,0,0,0,0,0,-1,979,974,0,0
-238,50,0,0,0,0,0,0,0,0,0,-1,986,974,0,0
-231,50,0,0,0,0,0,0,0,0,0,-1,993,974,0,0
-224,50,0,0,0,0,0,0,0,0,0,-1,1000,974,0,0
-217,50,0,0,0,0,0,0,0,0,0,-1,1007,974,0,0
-210,50,0,0,0,0,0,0,0,0,0,-1,1014,974,0,0
-203,50,0,0,0,0,0,0,0,0,0,-1,1021,974,0,0
-196,50,0,0,0,0,0,0,0,0,0,-1,1028,974,0,0
-189,50,0,0,0,0,0,0,0,0,0,-1,1035,974,0,0
-182,50,0,0,0,0,0,0,0,0,0,-1,1042,974,0,0
-175,50,0,0,0,0,0,0,0,0,0,-1,1049,974,0,0
-168,50,0,0,0,0,0,0,0,0,0,-1,1056,974,0,0
-161,50,0,0,0,0,0,0,0,0,0,-1,1063,974,0,0
-154,50,0,0,0,0,0,0,0,0,0,-1,1070,974,0,0
-147,50,0,0,0,0,0,0,0,0,0,-1,1077,974,0,0
-140,50,0,0,0,0,0,0,0,0,0,-1,1084,974,0,0
-133,50,0,0,0,0,0,0,0,0,0,-1,1091,974,0,0
-126,50,0,0,0,0,0,0,0,0,0,-1,1098,974,0,0
-119,50,0,0,0,0,0,0,0,0,0,-1,1105,974,0,0
-112,50,0,0,0,0,0,0,0,0,0,-1,1112,974,0,0
-105,50,0,0,0,0,0,0,0,0,0,-1,1119,974,0,0
-98,50,0,0,0,0,0,0,0,0,0,-1,1126,974,0,0
-91,50,0,0,0,0,0,0,0,0,0,-1,1133,974,0,0
-84,50,0,0,0,0,0,0,0,0,0,-1,1140,974,0,0
-77,50,0,0,0,0,0,0,0,0,0,-1,1147,974,0,0
-70,50,0,0,0,0,0,0,0,0,0,-1,1154,974,0,0
-63,50,0,0,0,0,0,0,0,0,0,-1,1161,974,0,0
-56,50,0,0,0,0,0,0,0,0,0,-1,1168,974,0,0
-49,50,0,0,0,0,0,0,0,0,0,-1,1175,974,0,0
-42,50,0,0,0,0,0,0,0,0,0,-1,1182,974,0,0
-35,50,0,0,0,0,0,0,0,0,0,-1,1189,974,0,0
-28,50,0,0,0,0,0,0,0,0,0,-1,1196,974,0,0
-21,50,0,0,0,0,0,0,0,0,0,-1,1203,974,0,0
-14,50,0,0,0,0,0,0,0,0,0,-1,1210,974,0,0
-7,50,0,0,0,0,0,0,0,0,0,-1,1217,974,0,0
0,50,0,0,0,0,0,0,0,0,0,-1,1224,974,0,0
7,50,0,0,0,0,0,0,0,0,0,-1,1231,974,0,0
14,50,0,0,0,0,0,0,0,0,0,-1,1238,974,0,0
21,50,0,0,0,0,0,0,0,0,0,-1,1245,974,0,0
28,50,0,0,0,0,0,0,0,0,0,-1,1252,974,0,0
35,50,0,0,0,0,0,0,0,0,0,-1,1259,974,0,0
42,50,0,0,0,0,0,0,0,0,0,-1,1266,974,0,0
49,50,0,0,0,0,0,0,0,0,0,-1,1273,974,0,0
56,50,0,0,0,0,0,0,0,0,0,-1,1280,974,0,0
63,50,0,0,0,0,0,0,0,0,0,-1,1287,974,0,0
70,50,0,0,0,0,0,0,0,0,0,-1,1294,974,0,0
77,50,0,0,0,0,0,0,0,0,0,-1,1301,974,0,0
84,50,0,0,0,0,0,0,0,0,0,-1,1308,974,0,0
91,50,0,0,0,0,0,0,0,0,0,-1,1315,974,0,0
98,50,0,0,0,0,0,0,0,0,0,-1,1322,974,0,0
105,50,0,0,0,0,0,0,0,0,0,-1,1329,974,0,0
112,50,0,0,0,0,0,0,0,0,0,-1,1336,974,0,0
119,50,0,0,0,0,0,0,0,0,0,-1,1343,974,0,0
126,50,0,0,0,0,0,0,0,0,0,-1,1350,974,0,0
133,50,0,0,0,0,0,0,0,0,0,-1,1357,974,0,0
140,50,0,0,0,0,0,0,0,0,0,-1,1364,974,0,0
147,50,0,0,0,0,0,0,0,0,0,-1,1371,974,0,0
154,50,0,0,0,0,0,0,0,0,0,-1,1378,974,0,0
161,50,0,0,0,0,0,0,0,0,0,-1,1385,974,0,0
168,50,0,0,0,0,0,0,0,0,0,-1,1392,974,0,0
175,50,0,0,0,0,0,0,0,0,0,-1,1399,974,0,0
182,50,0,0,0,0,0,0,0,0,0,-1,1406,974,0,0
189,50,0,0,0,0,0,0,0,0,0,-1,1413,974,0,0
196,50,0,0,0,0,0,0,0,0,0,-1,1420,974,0,0
203,50,0,0,0,0,0,0,0,0,0,-1,1427,974,0,0
210,50,0,0,0,0,0,0,0,0,0,-1,1434,974,0,0
217,50,0,0,0,0,0,0,0,0,0,-1,1441,974,0,0
224,50,0,0,0,0,0,0,0,0,0,-1,1448,974,0,0
231,50,0,0,0,0,0,0,0,0,0,-1,1455,974,0,0
238,50,0,0,0,0,0,0,0,0,0,-1,1462,974,0,0
245,50,0,0,0,0,0,0,0,0,0,-1,1469,974,0,0
252,50,0,0,0,0,0,0,0,0,0,-1,1476,974,0,0
259,50,0,0,0,0,0,0,0,0,0,-1,1483,974,0,0
266,50,0,0,0,0,0,0,0,0,0,-1,1490,974,0,0
273,50,0,0,0,0,0,0,0,0,0,-1,1497,974,0,0
280,50,0,0,0,0,0,0,0,0,0,-1,1504,974,0,0
287,50,0,0,0,0,0,0,0,0,0,-1,1511,974,0,0
294,50,0,0,0,0,0,0,0,0,0,-1,1518,974,0,0
301,50,0,0,0,0,0,0,0,0,0,-1,1525,974,0,0
308,50,0,0,0,0,0,0,0,0,0,-1,1532,974,0,0
315,50,0,0,0,0,0,0,0,0,0,-1,1539,974,0,0
322,50,0,0,0,0,0,0,0,0,0,-1,1546,974,0,0
329,50,0,0,0,0,0,0,0,0,0,-1,1553,974,0,0
336,50,0,0,0,0,0,0,0,0,0,-1,1560,974,0,0
343,50,0,0,0,0,0,0,0,0,0,-1,1567,974,0,0
350,50,0,0,0,0,0,0,0,0,0,-1,1574,974,0,0
357,50,0,0,0,0,0,0,0,0,0,-1,1581,974,0,0
364,50,0,0,0,0,0,0,0,0,0,-1,1588,974,0,0
371,50,0,0,0,0,0,0,0,0,0,-1,1595,974,0,0
378,50,0,0,0,0,0,0,0,0,0,-1,1602,974,0,0
385,50,0,0,0,0,0,0,0,0,0,-1,1609,974,0,0
392,50,0,0,0,0,0,0,0,0,0,-1,1616,974,0,0
399,50,0,0,0,0,0,0,0,0,0,-1,1623,974,0,0
406,50,0,0,0,0,0,0,0,0,0,-1,1630,974,0,0
413,50,0,0,0,0,0,0,0,0,0,-1,1637,974,0,0
420,50,0,0,0,0,0,0,0,0,0,-1,1644,974,0,0
427,50,0,0,0,0,0,0,0,0,0,-1,1651,974,0,0
434,50,0,0,0,0,0,0,0,0,0,-1,1658,974,0,0
441,50,0,0,0,0,0,0,0,0,0,-1,1665,974,0,0
448,50,0,0,0,0,0,0,0,0,0,-1,1672,974,0,0
455,50,0,0,0,0,0,0,0,0,0,-1,1679,974,0,0
462,50,0,0,0,0,0,0,0,0,0,-1,1686,974,0,0
469,50,0,0,0,0,0,0,0,0,0,-1,1693,974,0,0
476,50,0,0,0,0,0,0,0,0,0,-1,1700,974,0,0
483,50,0,0,0,0,0,0,0,0,0,-1,1707,974,0,0
490,50,0,0,0,0,0,0,0,0,0,-1,1714,974,0,0
497,50,0,0,0,0,0,0,0,0,0,-1,1721,974,0,0
504,50,0,0,0,0,0,0,0,0,0,-1,1728,974,0,0
511,50,0,0,0,0,0,0,0,0,0,-1,1735,974,0,0
518,50,0,0,0,0,0,0,0,0,0,-1,1742,974,0,0
525,50,0,0,0,0,0,0,0,0,0,-1,1749,974,0,0
532,50,0,0,0,0,0,0,0,0,0,-1,1756,974,0,0
539,50,0,0,0,0,0,0,0,0,0,-1,1763,974,0,0
546,50,0,0,0,0,0,0,0,0,0,-1,1770,974,0,0
553,50,0,0,0,0,0,0,0,0,0,-1,1777,974,0,0
560,50,0,0,0,0,0,0,0,0,0,-1,1784,974,0,0
567,50,0,0,0,0,0,0,0,0,0,-1,1791,974,0,0
574,50,0,0,0,0,0,0,0,0,0,-1,1798,974,0,0
581,50,0,0,0,0,0,0,0,0,0,-1,1805,974,0,0
588,50,0,0,0,0,0,0,0,0,0,-1,1812,974,0,0
595,50,0,0,0,0,0,0,0,0,0,-1,1819,974,0,0
602,50,0,0,0,0,0,0,0,0,0,-1,1826,974,0,0
609,50,0,0,0,0,0,0,0,0,0,-1,1833,974,0,0
616,50,0,0,0,0,0,0,0,0,0,-1,1840,974,0,0
623,50,0,0,0,0,0,0,0,0,0,-1,1847,974,0,0
630,50,0,0,0,0,0,0,0,0,0,-1,1854,974,0,0
637,50,0,0,0,0,0,0,0,0,0,-1,1861,974,0,0
644,50,44.3188,2.59247,-0.00646447,0.0050531,-0.000858998,0.00511681,-0.00652819,-1.49676,0.00673968,0.0390612,1868,974,44.3188,-2.59245
651,50,44.1782,2.6673,-0.00427716,0.00410926,-0.000528799,0.00414247,-0.00431037,-1.50807,0.00488057,0.0324629,1875,974,44.1782,-2.66732
658,50,44.2078,2.50177,-0.00289005,0.00332132,-0.000107945,0.00332319,-0.00289193,-1.55342,0.00359118,0.0383963,1882,974,44.2078,-2.50179
665,50,44.2817,2.33423,-0.00203005,0.00278072,0.000648749,0.00286667,-0.002116,1.43908,0.00288761,0.0436812,1889,974,44.2817,-2.3342
672,50,44.1881,2.25476,-0.00153891,0.00231955,0.00156611,0.0028752,-0.00209457,1.22985,0.00288107,0.0434309,1896,974,44.1881,-2.25477
679,50,43.8903,2.47601,-0.0012695,0.00190226,0.00249147,0.00326975,-0.002637,1.06882,0.00341678,0.0431642,1903,974,43.8903,-2.476
686,50,43.9662,2.58295,-0.00104698,0.0014575,0.00318981,0.00363207,-0.00322155,0.972442,0.0039593,0.0435436,1910,974,43.9662,-2.58295
693,50,44.0963,2.59399,-0.000883384,0.00106062,0.00358689,0.00380487,-0.00362764,0.917714,0.00429157,0.0365905,1917,974,44.0964,-2.59398
700,50,44.0779,2.64001,-0.000846049,0.000883067,0.00366594,0.00378502,-0.003748,0.9012,0.00434921,0.0196237,1924,974,44.0779,-2.64004
707,50,44.0756,2.86084,-0.00104587,0.000892484,0.00353756,0.00359122,-0.00374461,0.919101,0.00423565,0.0315875,1931,974,44.0756,-2.86084
714,50,44.0323,3.13068,0,0,0,0,0,0,0,-1,1938,974,44.0323,-3.13068
721,50,42.9192,4.6225,0,0,0,0,0,0,0,-1,1945,974,42.9192,-4.62249
728,50,42.8997,4.91217,-0.00216742,0.00221467,0.00282479,0.00359855,-0.00355131,1.11526,0.004128,0.0207947,1952,974,42.8997,-4.91217
735,50,42.9512,5.13501,-0.00247409,0.00305966,0.00217164,0.00381012,-0.00322455,1.23807,0.00406616,0.020296,1959,974,42.9511,-5.135
742,50,42.9622,5.38867,-0.00285297,0.00444986,0.00165435,0.00480715,-0.00321026,1.35809,0.00465936,0.0157979,1966,974,42.9622,-5.38868
749,50,42.9453,5.57886,-0.00315929,0.00620583,0.00115998,0.00634737,-0.00330082,1.44938,0.0056622,0.0160784,1973,974,42.9453,-5.57888
756,50,42.9047,5.81165,-0.00271704,0.00888018,0.000647888,0.00891626,-0.00275312,1.51516,0.00704358,0.0133113,1980,974,42.9047,-5.81165
763,50,42.8428,6.04657,-0.00177794,0.0126145,0.00018595,0.0126169,-0.00178034,1.55788,0.00906318,0.013333,1987,974,42.8427,-6.04654
770,50,42.7874,6.23895,-0.000106519,0.0172545,0.000260602,0.0172584,-0.00011043,1.55579,0.0115426,0.0123268,1994,974,42.7874,-6.23896
777,50,42.781,6.46552,0.002693,0.0226872,0.000456266,0.0226976,0.0026826,1.54799,0.0143215,0.0239022,2001,974,42.781,-6.46554
784,50,42.4041,7.06427,0.00729515,0.0293157,0.000747141,0.029341,0.00726982,1.53692,0.0176439,0.0410147,2008,974,42.404,-7.06429
791,50,42.1367,7.60815,0,0,0,0,0,0,0,-1,2015,974,42.1367,-7.60815
798,50,42.1746,7.39447,0,0,0,0,0,0,0,-1,2022,974,42.1746,-7.3945
805,50,42.0984,7.63586,0,0,0,0,0,0,0,-1,2029,974,42.0984,-7.63587
812,50,0,0,0,0,0,0,0,0,0,-1,2036,974,0,0
-700,43,0,0,0,0,0,0,0,0,0,-1,524,981,0,0
-693,43,-27.6375,-1.06506,0,0,0,0,0,0,0,-1,531,981,-27.6375,1.06503
-686,43,-28.5916,-1.57056,0,0,0,0,0,0,0,-1,538,981,-28.5916,1.57054
-679,43,-29.5161,-0.928894,-0.0343851,-0.017994,0.0367859,0.0114982,-0.0638774,0.895003,0.04689,0.0468571,545,981,-29.5161,0.92889
-672,43,-30.3305,-0.305603,-0.02912,-0.0120094,0.0326395,0.0131774,-0.0543068,0.913572,0.0413038,0.0481799,552,981,-30.3305,0.305582
-665,43,-32.9838,2.96576,0,0,0,0,0,0,0,-1,559,981,-32.9838,-2.96575
-658,43,-32.8483,3.03204,-0.0192034,-0.00226559,0.0237395,0.0144704,-0.0359394,0.956733,0.029971,0.0499965,566,981,-32.8483,-3.03203
-651,43,-32.518,3.21283,-0.014895,0.00104228,0.0194648,0.0141065,-0.0279591,0.979683,0.0247217,0.0419949,573,981,-32.518,-3.21281
-644,43,-32.3203,3.38177,-0.0110862,0.003335,0.0153711,0.0131027,-0.0208539,1.00471,0.0197744,0.0254592,580,981,-32.3203,-3.38179
-637,43,-32.3605,3.27716,-0.00774278,0.00488996,0.0112294,0.0114575,-0.0143103,1.04159,0.0149074,0.0185406,587,981,-32.3605,-3.27717
-630,43,-32.3669,3.14178,-0.00559385,0.00550598,0.00717831,0.00902963,-0.00911751,1.11448,0.0104773,0.0148914,594,981,-32.3669,-3.14177
-623,43,-32.3869,3.0022,-0.00377794,0.00587201,0.00349693,0.00700597,-0.0049119,1.25722,0.0069161,0.0120561,601,981,-32.3869,-3.00217
-616,43,-32.4095,2.81915,-0.00250503,0.0054782,0.000469995,0.00550577,-0.00253261,1.51219,0.0047456,0.0106696,608,981,-32.4095,-2.81915
-609,43,-32.4211,2.63293,-0.00187501,0.00443716,-0.00174095,0.00488548,-0.00232334,-1.31875,0.00424874,0.0126737,615,981,-32.4211,-2.63292
-602,43,-32.4113,2.47064,-0.00217374,0.00305906,-0.00335609,0.00469812,-0.0038128,-1.11649,0.00492263,0.0152933,622,981,-32.4112,-2.47065
-595,43,-32.4395,2.31012,-0.00284134,0.00154776,-0.00421411,0.00410451,-0.00539809,-1.02546,0.00550324,0.0142469,629,981,-32.4395,-2.31011
-588,43,-32.4261,1.87158,-0.0028763,-0.000626034,-0.00476125,0.00314122,-0.00664356,-0.901425,0.00576861,0.0199968,636,981,-32.4262,-1.87158
-581,43,-32.4938,1.08081,-0.00251625,-0.00162647,-0.00499831,0.00294671,-0.00708943,-0.829785,0.00595664,0.0260885,643,981,-32.4938,-1.08083
-574,43,-32.5326,0.768494,-0.00208928,-0.00251434,-0.00493073,0.0026335,-0.00723711,-0.76386,0.00590179,0.0295225,650,981,-32.5326,-0.768515
-567,43,-32.5267,0.717102,-0.00160365,-0.00355993,-0.00445161,0.00197601,-0.0071396,-0.677253,0.0055372,0.0382567,657,981,-32.5267,-0.71709
-560,43,-32.5018,0.817688,-0.00067028,-0.00444803,-0.0037576,0.00164649,-0.00676479,-0.552503,0.00514723,0.0419526,664,981,-32.5017,-0.817697
-553,43,-32.484,1.08594,0.000921249,-0.00509389,-0.00303896,0.00218928,-0.00636192,-0.395295,0.00512922,0.0404383,671,981,-32.484,-1.08592
-546,43,-32.466,1.42413,0.00334998,-0.00538735,-0.00249273,0.00401112,-0.00604849,-0.259258,0.00584749,0.042388,678,981,-32.466,-1.42415
-539,43,-32.3607,1.77832,0.00683945,-0.00503658,-0.00258384,0.00737725,-0.00557439,-0.205212,0.00750174,0.0466781,685,981,-32.3607,-1.77834
-532,43,-32.2906,2.03632,0,0,0,0,0,0,0,-1,692,981,-32.2906,-2.03633
-525,43,-32.426,0.352783,0,0,0,0,0,0,0,-1,699,981,-32.4259,-0.352803
-518,43,0,0,0,0,0,0,0,0,0,-1,706,981,0,0
-511,43,0,0,0,0,0,0,0,0,0,-1,713,981,0,0
-504,43,0,0,0,0,0,0,0,0,0,-1,720,981,0,0
-497,43,0,0,0,0,0,0,0,0,0,-1,727,981,0,0
-490,43,0,0,0,0,0,0,0,0,0,-1,734,981,0,0
-483,43,0,0,0,0,0,0,0,0,0,-1,741,981,0,0
-476,43,0,0,0,0,0,0,0,0,0,-1,748,981,0,0
-469,43,0,0,0,0,0,0,0,0,0,-1,755,981,0,0
-462,43,0,0,0,0,0,0,0,0,0,-1,762,981,0,0
-455,43,0,0,0,0,0,0,0,0,0,-1,769,981,0,0
-448,43,0,0,0,0,0,0,0,0,0,-1,776,981,0,0
-441,43,0,0,0,0,0,0,0,0,0,-1,783,981,0,0
-434,43,0,0,0,0,0,0,0,0,0,-1,790,981,0,0
-427,43,0,0,0,0,0,0,0,0,0,-1,797,981,0,0
-420,43,0,0,0,0,0,0,0,0,0,-1,804,981,0,0
-413,43,0,0,0,0,0,0,0,0,0,-1,811,981,0,0
-406,43,0,0,0,0,0,0,0,0,0,-1,818,981,0,0
-399,43,0,0,0,0,0,0,0,0,0,-1,825,981,0,0
-392,43,0,0,0,0,0,0,0,0,0,-1,832,981,0,0
-385,43,0,0,0,0,0,0,0,0,0,-1,839,981,0,0
-378,43,0,0,0,0,0,0,0,0,0,-1,846,981,0,0
-371,43,0,0,0,0,0,0,0,0,0,-1,853,981,0,0
-364,43,0,0,0,0,0,0,0,0,0,-1,860,981,0,0
-357,43,0,0,0,0,0,0,0,0,0,-1,867,981,0,0
-350,43,0,0,0,0,0,0,0,0,0,-1,874,981,0,0
-343,43,0,0,0,0,0,0,0,0,0,-1,881,981,0,0
-336,43,0,0,0,0,0,0,0,0,0,-1,888,981,0,0
-329,43,0,0,0,0,0,0,0,0,0,-1,895,981,0,0
-322,43,0,0,0,0,0,0,0,0,0,-1,902,981,0,0
-315,43,0,0,0,0,0,0,0,0,0,-1,909,981,0,0
-308,43,0,0,0,0,0,0,0,0,0,-1,916,981,0,0
-301,43,0,0,0,0,0,0,0,0,0,-1,923,981,0,0
-294,43,0,0,0,0,0,0,0,0,0,-1,930,981,0,0
-287,43,0,0,0,0,0,0,0,0,0,-1,937,981,0,0
-280,43,0,0,0,0,0,0,0,0,0,-1,944,981,0,0
-273,43,0,0,0,0,0,0,0,0,0,-1,951,981,0,0
-266,43,0,0,0,0,0,0,0,0,0,-1,958,981,0,0
-259,43,0,0,0,0,0,0,0,0,0,-1,965,981,0,0
-252,43,0,0,0,0,0,0,0,0,0,-1,972,981,0,0
-245,43,0,0,0,0,0,0,0,0,0,-1,979,981,0,0
-238,43,0,0,0,0,0,0,0,0,0,-1,986,981,0,0
-231,43,0,0,0,0,0,0,0,0,0,-1,993,981,0,0
-224,43,0,0,0,0,0,0,0,0,0,-1,1000,981,0,0
-217,43,0,0,0,0,0,0,0,0,0,-1,1007,981,0,0
-210,43,0,0,0,0,0,0,0,0,0,-1,1014,981,0,0
-203,43,0,0,0,0,0,0,0,0,0,-1,1021,981,0,0
-196,43,0,0,0,0,0,0,0,0,0,-1,1028,981,0,0
-189,43,0,0,0,0,0,0,0,0,0,-1,1035,981,0,0
-182,43,0,0,0,0,0,0,0,0,0,-1,1042,981,0,0
-175,43,0,0,0,0,0,0,0,0,0,-1,1049,981,0,0
-168,43,0,0,0,0,0,0,0,0,0,-1,1056,981,0,0
-161,43,0,0,0,0,0,0,0,0,0,-1,1063,981,0,0
-154,43,0,0,0,0,0,0,0,0,0,-1,1070,981,0,0
-147,43,0,0,0,0,0,0,0,0,0,-1,1077,981,0,0
-140,43,0,0,0,0,0,0,0,0,0,-1,1084,981,0,0
-133,43,0,0,0,0,0,0,0,0,0,-1,1091,981,0,0
-126,43,0,0,0,0,0,0,0,0,0,-1,1098,981,0,0
-119,43,0,0,0,0,0,0,0,0,0,-1,1105,981,0,0
-112,43,0,0,0,0,0,0,0,0,0,-1,1112,981,0,0
-105,43,0,0,0,0,0,0,0,0,0,-1,1119,981,0,0
-98,43,0,0,0,0,0,0,0,0,0,-1,1126,981,0,0
-91,43,0,0,0,0,0,0,0,0,0,-1,1133,981,0,0
-84,43,0,0,0,0,0,0,0,0,0,-1,1140,981,0,0
-77,43,0,0,0,0,0,0,0,0,0,-1,1147,981,0,0
-70,43,0,0,0,0,0,0,0,0,0,-1,1154,981,0,0
-63,43,0,0,0,0,0,0,0,0,0,-1,1161,981,0,0
-56,43,0,0,0,0,0,0,0,0,0,-1,1168,981,0,0
-49,43,0,0,0,0,0,0,0,0,0,-1,1175,981,0,0
-42,43,0,0,0,0,0,0,0,0,0,-1,1182,981,0,0
-35,43,0,0,0,0,0,0,0,0,0,-1,1189,981,0,0
-28,43,0,0,0,0,0,0,0,0,0,-1,1196,981,0,0
-21,43,0,0,0,0,0,0,0,0,0,-1,1203,981,0,0
-14,43,0,0,0,0,0,0,0,0,0,-1,1210,981,0,0
-7,43,0,0,0,0,0,0,0,0,0,-1,1217,981,0,0
0,43,0,0,0,0,0,0,0,0,0,-1,1224,981,0,0
7,43,0,0,0,0,0,0,0,0,0,-1,1231,981,0,0
14,43,0,0,0,0,0,0,0,0,0,-1,1238,981,0,0
21,43,0,0,0,0,0,0,0,0,0,-1,1245,981,0,0
28,43,0,0,0,0,0,0,0,0,0,-1,1252,981,0,0
35,43,0,0,0,0,0,0,0,0,0,-1,1259,981,0,0
42,43,0,0,0,0,0,0,0,0,0,-1,1266,981,0,0
49,43,0,0,0,0,0,0,0,0,0,-1,1273,981,0,0
56,43,0,0,0,0,0,0,0,0,0,-1,1280,981,0,0
63,43,0,0,0,0,0,0,0,0,0,-1,1287,981,0,0
70,43,0,0,0,0,0,0,0,0,0,-1,1294,981,0,0
77,43,0,0,0,0,0,0,0,0,0,-1,1301,981,0,0
84,43,0,0,0,0,0,0,0,0,0,-1,1308,981,0,0
91,43,0,0,0,0,0,0,0,0,0,-1,1315,981,0,0
98,43,0,0,0,0,0,0,0,0,0,-1,1322,981,0,0
105,43,0,0,0,0,0,0,0,0,0,-1,1329,981,0,0
112,43,0,0,0,0,0,0,0,0,0,-1,1336,981,0,0
119,43,0,0,0,0,0,0,0,0,0,-1,1343,981,0,0
126,43,0,0,0,0,0,0,0,0,0,-1,1350,981,0,0
133,43,0,0,0,0,0,0,0,0,0,-1,1357,981,0,0
140,43,0,0,0,0,0,0,0,0,0,-1,1364,981,0,0
147,43,0,0,0,0,0,0,0,0,0,-1,1371,981,0,0
154,43,0,0,0,0,0,0,0,0,0,-1,1378,981,0,0
161,43,0,0,0,0,0,0,0,0,0,-1,1385,981,0,0
168,43,0,0,0,0,0,0,0,0,0,-1,1392,981,0,0
175,43,0,0,0,0,0,0,0,0,0,-1,1399,981,0,0
182,43,0,0,0,0,0,0,0,0,0,-1,1406,981,0,0
189,43,0,0,0,0,0,0,0,0,0,-1,1413,981,0,0
196,43,0,0,0,0,0,0,0,0,0,-1,1420,981,0,0
203,43,0,0,0,0,0,0,0,0,0,-1,1427,981,0,0
210,43,0,0,0,0,0,0,0,0,0,-1,1434,981,0,0
217,43,0,0,0,0,0,0,0,0,0,-1,1441,981,0,0
224,43,0,0,0,0,0,0,0,0,0,-1,1448,981,0,0
231,43,0,0,0,0,0,0,0,0,0,-1,1455,981,0,0
238,43,0,0,0,0,0,0,0,0,0,-1,1462,981,0,0
245,43,0,0,0,0,0,0,0,0,0,-1,1469,981,0,0
252,43,0,0,0,0,0,0,0,0,0,-1,1476,981,0,0
259,43,0,0,0,0,0,0,0,0,0,-1,1483,981,0,0
266,43,0,0,0,0,0,0,0,0,0,-1,1490,981,0,0
273,43,0,0,0,0,0,0,0,0,0,-1,1497,981,0,0
280,43,0,0,0,0,0,0,0,0,0,-1,1504,981,0,0
287,43,0,0,0,0,0,0,0,0,0,-1,1511,981,0,0
294,43,0,0,0,0,0,0,0,0,0,-1,1518,981,0,0
301,43,0,0,0,0,0,0,0,0,0,-1,1525,981,0,0
308,43,0,0,0,0,0,0,0,0,0,-1,1532,981,0,0
315,43,0,0,0,0,0,0,0,0,0,-1,1539,981,0,0
322,43,0,0,0,0,0,0,0,0,0,-1,1546,981,0,0
329,43,0,0,0,0,0,0,0,0,0,-1,1553,981,0,0
336,43,0,0,0,0,0,0,0,0,0,-1,1560,981,0,0
343,43,0,0,0,0,0,0,0,0,0,-1,1567,981,0,0
350,43,0,0,0,0,0,0,0,0,0,-1,1574,981,0,0
357,43,0,0,0,0,0,0,0,0,0,-1,1581,981,0,0
364,43,0,0,0,0,0,0,0,0,0,-1,1588,981,0,0
371,43,0,0,0,0,0,0,0,0,0,-1,1595,981,0,0
378,43,0,0,0,0,0,0,0,0,0,-1,1602,981,0,0
385,43,0,0,0,0,0,0,0,0,0,-1,1609,981,0,0
392,43,0,0,0,0,0,0,0,0,0,-1,1616,981,0,0
399,43,0,0,0,0,0,0,0,0,0,-1,1623,981,0,0
406,43,0,0,0,0,0,0,0,0,0,-1,1630,981,0,0
413,43,0,0,0,0,0,0,0,0,0,-1,1637,981,0,0
420,43,0,0,0,0,0,0,0,0,0,-1,1644,981,0,0
427,43,0,0,0,0,0,0,0,0,0,-1,1651,981,0,0
434,43,0,0,0,0,0,0,0,0,0,-1,1658,981,0,0
441,43,0,0,0,0,0,0,0,0,0,-1,1665,981,0,0
448,43,0,0,0,0,0,0,0,0,0,-1,1672,981,0,0
455,43,0,0,0,0,0,0,0,0,0,-1,1679,981,0,0
462,43,0,0,0,0,0,0,0,0,0,-1,1686,981,0,0
469,43,0,0,0,0,0,0,0,0,0,-1,1693,981,0,0
476,43,0,0,0,0,0,0,0,0,0,-1,1700,981,0,0
483,43,0,0,0,0,0,0,0,0,0,-1,1707,981,0,0
490,43,0,0,0,0,0,0,0,0,0,-1,1714,981,0,0
497,43,0,0,0,0,0,0,0,0,0,-1,1721,981,0,0
504,43,0,0,0,0,0,0,0,0,0,-1,1728,981,0,0
511,43,0,0,0,0,0,0,0,0,0,-1,1735,981,0,0
518,43,0,0,0,0,0,0,0,0,0,-1,1742,981,0,0
525,43,0,0,0,0,0,0,0,0,0,-1,1749,981,0,0
532,43,0,0,0,0,0,0,0,0,0,-1,1756,981,0,0
539,43,0,0,0,0,0,0,0,0,0,-1,1763,981,0,0
546,43,0,0,0,0,0,0,0,0,0,-1,1770,981,0,0
553,43,0,0,0,0,0,0,0,0,0,-1,1777,981,0,0
560,43,0,0,0,0,0,0,0,0,0,-1,1784,981,0,0
567,43,0,0,0,0,0,0,0,0,0,-1,1791,981,0,0
574,43,0,0,0,0,0,0,0,0,0,-1,1798,981,0,0
581,43,0,0,0,0,0,0,0,0,0,-1,1805,981,0,0
588,43,0,0,0,0,0,0,0,0,0,-1,1812,981,0,0
595,43,0,0,0,0,0,0,0,0,0,-1,1819,981,0,0
602,43,0,0,0,0,0,0,0,0,0,-1,1826,981,0,0
609,43,0,0,0,0,0,0,0,0,0,-1,1833,981,0,0
616,43,0,0,0,0,0,0,0,0,0,-1,1840,981,0,0
623,43,0,0,0,0,0,0,0,0,0,-1,1847,981,0,0
630,43,0,0,0,0,0,0,0,0,0,-1,1854,981,0,0
637,43,0,0,0,0,0,0,0,0,0,-1,1861,981,0,0
644,43,44.2444,2.48352,-0.00615788,0.00480462,-0.000578753,0.00483509,-0.00618835,-1.5182,0.00638035,0.0395596,1868,981,44.2444,-2.48352
651,43,44.0822,2.573,-0.00401448,0.00388319,-0.000286148,0.00389354,-0.00402484,-1.53463,0.00457189,0.0377528,1875,981,44.0822,-2.57297
658,43,44.1521,2.479,-0.00264241,0.00308828,7.87334e-05,0.00308936,-0.00264349,1.55706,0.0033132,0.0398638,1882,981,44.1521,-2.47901
665,43,44.2051,2.31628,-0.00179455,0.00256595,0.000784405,0.00270276,-0.00193136,1.39812,0.00268784,0.0396771,1889,981,44.2051,-2.31626
672,43,44.0927,2.39099,-0.00128079,0.00216542,0.00167813,0.00284756,-0.00196293,1.18471,0.00279295,0.0402254,1896,981,44.0927,-2.391
679,43,43.9784,2.53314,-0.000986226,0.00182497,0.00263512,0.00340594,-0.00256719,1.03041,0.0034599,0.0403871,1903,981,43.9783,-2.53317
686,43,44.097,2.62891,-0.00073693,0.00143608,0.00340017,0.00391912,-0.00321997,0.940043,0.00412834,0.0396636,1910,981,44.0971,-2.62892
693,43,44.136,2.62689,-0.00057219,0.00107181,0.0038637,0.00419998,-0.00370036,0.89021,0.0045643,0.0352654,1917,981,44.136,-2.62689
700,43,44.0656,2.63727,-0.00051275,0.000919461,0.00399016,0.00425727,-0.00385056,0.874187,0.00468302,0.0317086,1924,981,44.0656,-2.63725
707,43,44.1216,2.6264,-0.000685663,0.000957199,0.00392213,0.00414299,-0.00387146,0.888624,0.00462803,0.027432,1931,981,44.1216,-2.62641
714,43,44.0867,2.81274,0,0,0,0,0,0,0,-1,1938,981,44.0866,-2.81272
721,43,43.2957,4.60834,0,0,0,0,0,0,0,-1,1945,981,43.2956,-4.60833
728,43,43.2743,4.89502,-0.0019257,0.00237757,0.0032154,0.00409482,-0.00364296,1.08026,0.00446995,0.0205677,1952,981,43.2742,-4.89501
735,43,43.226,5.14557,-0.00226405,0.00322066,0.00257337,0.00423899,-0.00328238,1.19399,0.00435416,0.015474,1959,981,43.226,-5.14559
742,43,43.1879,5.35193,-0.00266906,0.00449855,0.0020983,0.00506764,-0.00323815,1.30595,0.00483397,0.0168673,1966,981,43.1878,-5.35192
749,43,43.176,5.5415,-0.00299721,0.00618545,0.00162299,0.00646386,-0.00327563,1.40091,0.00572264,0.0178497,1973,981,43.176,-5.54153
756,43,43.1631,5.75031,-0.00248355,0.00880908,0.00110295,0.0089158,-0.00259027,1.47434,0.00696962,0.0193692,1980,981,43.1631,-5.75029
763,43,43.1312,5.9483,-0.00139289,0.0124716,0.000543171,0.0124929,-0.00141413,1.5317,0.00883776,0.0225169,1987,981,43.1312,-5.94833
770,43,43.0464,6.19647,0.000513644,0.0170604,0.000531668,0.0170775,0.000496579,1.53871,0.0112231,0.0189443,1994,981,43.0464,-6.19645
777,43,43.0697,6.39172,0.0036748,0.0225243,0.000691152,0.0225496,0.00364949,1.53419,0.0139763,0.0249712,2001,981,43.0697,-6.39173
784,43,43.0984,6.69159,0.00867082,0.0291384,0.00095596,0.0291829,0.00862627,1.52423,0.0173117,0.0463238,2008,981,43.0985,-6.69161
791,43,43.1565,6.99133,0,0,0,0,0,0,0,-1,2015,981,43.1564,-6.99132
798,43,42.8833,7.34174,0,0,0,0,0,0,0,-1,2022,981,42.8832,-7.34173
805,43,42.9795,7.03192,0,0,0,0,0,0,0,-1,2029,981,42.9795,-7.03192
812,43,43.6873,6.18652,0,0,0,0,0,0,0,-1,2036,981,43.6874,-6.18655
-700,36,0,0,0,0,0,0,0,0,0,-1,524,988,0,0
-693,36,-27.674,-0.65802,0,0,0,0,0,0,0,-1,531,988,-27.674,0.658013
-686,36,-28.7709,-0.766968,0,0,0,0,0,0,0,-1,538,988,-28.7709,0.766982
-679,36,-29.608,-0.217285,-0.0306879,-0.01828,0.0409469,0.0169303,-0.0658982,0.860582,0.05053,0.0467333,545,988,-29.608,0.217298
-672,36,-30.4482,0.322327,-0.0265945,-0.0127473,0.0358489,0.0168405,-0.0561823,0.88079,0.0441522,0.0453247,552,988,-30.4482,-0.322354
-665,36,-31.5408,0.95459,-0.0223559,-0.00761084,0.0306034,0.0164956,-0.0464623,0.903599,0.0376963,0.0456029,559,988,-31.5408,-0.954582
-658,36,-32.3537,3.47906,0,0,0,0,0,0,0,-1,566,988,-32.3537,-3.47909
-651,36,-32.4178,3.36346,-0.0144391,0.000116235,0.0206449,0.0147287,-0.0290516,0.954855,0.0257235,0.0389974,573,988,-32.4178,-3.36349
-644,36,-32.5136,3.2641,-0.0109542,0.00255208,0.0160676,0.013228,-0.0216301,0.984339,0.0203193,0.0251132,580,988,-32.5136,-3.2641
-637,36,-32.5823,3.13806,-0.00782616,0.00426141,0.0114827,0.0111937,-0.0147585,1.02765,0.0150305,0.0202952,587,988,-32.5823,-3.13805
-630,36,-32.5692,3.06702,-0.00564526,0.00507588,0.00704109,0.00856476,-0.00913413,1.11075,0.0102202,0.0153967,594,988,-32.5691,-3.067
-623,36,-32.579,2.95453,-0.00362168,0.00562434,0.00309604,0.0065653,-0.00456264,1.27575,0.0064593,0.0115742,601,988,-32.579,-2.95454
-616,36,-32.5773,2.80695,-0.00211202,0.00545222,-3.00798e-05,0.00545234,-0.00211214,-1.56682,0.00450705,0.00981142,608,988,-32.5773,-2.80692
-609,36,-32.559,2.67896,-0.00114576,0.00467339,-0.00226548,0.00545136,-0.00192374,-1.24001,0.0044174,0.014195,615,988,-32.559,-2.67897
-602,36,-32.574,2.52429,-0.00107349,0.00352321,-0.00389115,0.00574409,-0.00329437,-1.05216,0.00528186,0.0185183,622,988,-32.574,-2.5243
-595,36,-32.644,2.35406,-0.00146271,0.0021111,-0.0047352,0.00538534,-0.00473695,-0.96582,0.0058481,0.0208872,629,988,-32.6441,-2.35407
-588,36,-32.5874,1.75201,-0.00130981,3.58767e-06,-0.00525598,0.00464374,-0.00594996,-0.847548,0.00613175,0.0267371,636,988,-32.5874,-1.75199
-581,36,-32.496,0.97583,-0.000899611,-0.00101418,-0.00542015,0.00446356,-0.00637735,-0.780114,0.00629142,0.0302679,643,988,-32.496,-0.975819
-574,36,-32.486,0.716431,-0.000548682,-0.00197474,-0.0052524,0.00403886,-0.00656229,-0.717934,0.00617811,0.0309862,650,988,-32.486,-0.716455
-567,36,-32.4736,0.623596,-0.000226935,-0.00308624,-0.00464985,0.00320808,-0.00652125,-0.636254,0.00572477,0.0377275,657,988,-32.4735,-0.623594
-560,36,-32.4727,1.07178,0.000442273,-0.00410215,-0.00381927,0.00261414,-0.00627401,-0.517056,0.00527459,0.0424732,664,988,-32.4726,-1.07175
-553,36,-32.4363,1.56458,0,0,0,0,0,0,0,-1,671,988,-32.4363,-1.56456
-546,36,-32.4536,1.21704,0,0,0,0,0,0,0,-1,678,988,-32.4536,-1.21705
-539,36,-32.1353,2.01215,0,0,0,0,0,0,0,-1,685,988,-32.1353,-2.01216
-532,36,-32.3935,0.722046,0.0103275,-0.00392488,-0.00411294,0.0114293,-0.00502661,-0.261727,0.00973757,0.0459272,692,988,-32.3935,-0.722024
-525,36,-32.4567,0.616821,0.0136231,-0.000902468,-0.00861057,0.0176248,-0.00490423,-0.435052,0.0136809,0.0475634,699,988,-32.4567,-0.616809
-518,36,0,0,0,0,0,0,0,0,0,-1,706,988,0,0
-511,36,0,0,0,0,0,0,0,0,0,-1,713,988,0,0
-504,36,0,0,0,0,0,0,0,0,0,-1,720,988,0,0
-497,36,0,0,0,0,0,0,0,0,0,-1,727,988,0,0
-490,36,0,0,0,0,0,0,0,0,0,-1,734,988,0,0
-483,36,0,0,0,0,0,0,0,0,0,-1,741,988,0,0
-476,36,0,0,0,0,0,0,0,0,0,-1,748,988,0,0
-469,36,0,0,0,0,0,0,0,0,0,-1,755,988,0,0
-462,36,0,0,0,0,0,0,0,0,0,-1,762,988,0,0
-455,36,0,0,0,0,0,0,0,0,0,-1,769,988,0,0
-448,36,0,0,0,0,0,0,0,0,0,-1,776,988,0,0
-441,36,0,0,0,0,0,0,0,0,0,-1,783,988,0,0
-434,36,0,0,0,0,0,0,0,0,0,-1,790,988,0,0
-427,36,0,0,0,0,0,0,0,0,0,-1,797,988,0,0
-420,36,0,0,0,0,0,0,0,0,0,-1,804,988,0,0
-413,36,0,0,0,0,0,0,0,0,0,-1,811,988,0,0
-406,36,0,0,0,0,0,0,0,0,0,-1,818,988,0,0
-399,36,0,0,0,0,0,0,0,0,0,-1,825,988,0,0
-392,36,0,0,0,0,0,0,0,0,0,-1,832,988,0,0
-385,36,0,0,0,0,0,0,0,0,0,-1,839,988,0,0
-378,36,0,0,0,0,0,0,0,0,0,-1,846,988,0,0
-371,36,0,0,0,0,0,0,0,0,0,-1,853,988,0,0
-364,36,0,0,0,0,0,0,0,0,0,-1,860,988,0,0
-357,36,0,0,0,0,0,0,0,0,0,-1,867,988,0,0
-350,36,0,0,0,0,0,0,0,0,0,-1,874,988,0,0
-343,36,0,0,0,0,0,0,0,0,0,-1,881,988,0,0
-336,36,0,0,0,0,0,0,0,0,0,-1,888,988,0,0
-329,36,0,0,0,0,0,0,0,0,0,-1,895,988,0,0
-322,36,0,0,0,0,0,0,0,0,0,-1,902,988,0,0
-315,36,0,0,0,0,0,0,0,0,0,-1,909,988,0,0
-308,36,0,0,0,0,0,0,0,0,0,-1,916,988,0,0
-301,36,0,0,0,0,0,0,0,0,0,-1,923,988,0,0
-294,36,0,0,0,0,0,0,0,0,0,-1,930,988,0,0
-287,36,0,0,0,0,0,0,0,0,0,-1,937,988,0,0
-280,36,0,0,0,0,0,0,0,0,0,-1,944,988,0,0
-273,36,0,0,0,0,0,0,0,0,0,-1,951,988,0,0
-266,36,0,0,0,0,0,0,0,0,0,-1,958,988,0,0
-259,36,0,0,0,0,0,0,0,0,0,-1,965,988,0,0
-252,36,0,0,0,0,0,0,0,0,0,-1,972,988,0,0
-245,36,0,0,0,0,0,0,0,0,0,-1,979,988,0,0
-238,36,0,0,0,0,0,0,0,0,0,-1,986,988,0,0
-231,36,0,0,0,0,0,0,0,0,0,-1,993,988,0,0
-224,36,0,0,0,0,0,0,0,0,0,-1,1000,988,0,0
-217,36,0,0,0,0,0,0,0,0,0,-1,1007,988,0,0
-210,36,0,0,0,0,0,0,0,0,0,-1,1014,988,0,0
-203,36,0,0,0,0,0,0,0,0,0,-1,1021,988,0,0
-196,36,0,0,0,0,0,0,0,0,0,-1,1028,988,0,0
-189,36,0,0,0,0,0,0,0,0,0,-1,1035,988,0,0
-182,36,0,0,0,0,0,0,0,0,0,-1,1042,988,0,0
-175,36,0,0,0,0,0,0,0,0,0,-1,1049,988,0,0
-168,36,0,0,0,0,0,0,0,0,0,-1,1056,988,0,0
-161,36,0,0,0,0,0,0,0,0,0,-1,1063,988,0,0
-154,36,0,0,0,0,0,0,0,0,0,-1,1070,988,0,0
-147,36,0,0,0,0,0,0,0,0,0,-1,1077,988,0,0
-140,36,0,0,0,0,0,0,0,0,0,-1,1084,988,0,0
-133,36,0,0,0,0,0,0,0,0,0,-1,1091,988,0,0
-126,36,0,0,0,0,0,0,0,0,0,-1,1098,988,0,0
-119,36,0,0,0,0,0,0,0,0,0,-1,1105,988,0,0
-112,36,0,0,0,0,0,0,0,0,0,-1,1112,988,0,0
-105,36,0,0,0,0,0,0,0,0,0,-1,1119,988,0,0
-98,36,0,0,0,0,0,0,0,0,0,-1,1126,988,0,0
-91,36,0,0,0,0,0,0,0,0,0,-1,1133,988,0,0
-84,36,0,0,0,0,0,0,0,0,0,-1,1140,988,0,0
-77,36,0,0,0,0,0,0,0,0,0,-1,1147,988,0,0
-70,36,0,0,0,0,0,0,0,0,0,-1,1154,988,0,0
-63,36,0,0,0,0,0,0,0,0,0,-1,1161,988,0,0
-56,36,0,0,0,0,0,0,0,0,0,-1,1168,988,0,0
-49,36,0,0,0,0,0,0,0,0,0,-1,1175,988,0,0
-42,36,0,0,0,0,0,0,0,0,0,-1,1182,988,0,0
-35,36,0,0,0,0,0,0,0,0,0,-1,1189,988,0,0
-28,36,0,0,0,0,0,0,0,0,0,-1,1196,988,0,0
-21,36,0,0,0,0,0,0,0,0,0,-1,1203,988,0,0
-14,36,0,0,0,0,0,0,0,0,0,-1,1210,988,0,0
-7,36,0,0,0,0,0,0,0,0,0,-1,1217,988,0,0
0,36,0,0,0,0,0,0,0,0,0,-1,1224,988,0,0
7,36,0,0,0,0,0,0,0,0,0,-1,1231,988,0,0
14,36,0,0,0,0,0,0,0,0,0,-1,1238,988,0,0
21,36,0,0,0,0,0,0,0,0,0,-1,1245,988,0,0
28,36,0,0,0,0,0,0,0,0,0,-1,1252,988,0,0
35,36,0,0,0,0,0,0,0,0,0,-1,1259,988,0,0
42,36,0,0,0,0,0,0,0,0,0,-1,1266,988,0,0
49,36,0,0,0,0,0,0,0,0,0,-1,1273,988,0,0
56,36,0,0,0,0,0,0,0,0,0,-1,1280,988,0,0
63,36,0,0,0,0,0,0,0,0,0,-1,1287,988,0,0
70,36,0,0,0,0,0,0,0,0,0,-1,1294,988,0,0
77,36,0,0,0,0,0,0,0,0,0,-1,1301,988,0,0
84,36,0,0,0,0,0,0,0,0,0,-1,1308,988,0,0
91,36,0,0,0,0,0,0,0,0,0,-1,1315,988,0,0
98,36,0,0,0,0,0,0,0,0,0,-1,1322,988,0,0
105,36,0,0,0,0,0,0,0,0,0,-1,1329,988,0,0
112,36,0,0,0,0,0,0,0,0,0,-1,1336,988,0,0
119,36,0,0,0,0,0,0,0,0,0,-1,1343,988,0,0
126,36,0,0,0,0,0,0,0,0,0,-1,1350,988,0,0
133,36,0,0,0,0,0,0,0,0,0,-1,1357,988,0,0
140,36,0,0,0,0,0,0,0,0,0,-1,1364,988,0,0
147,36,0,0,0,0,0,0,0,0,0,-1,1371,988,0,0
154,36,0,0,0,0,0,0,0,0,0,-1,1378,988,0,0
161,36,0,0,0,0,0,0,0,0,0,-1,1385,988,0,0
168,36,0,0,0,0,0,0,0,0,0,-1,1392,988,0,0
175,36,0,0,0,0,0,0,0,0,0,-1,1399,988,0,0
182,36,0,0,0,0,0,0,0,0,0,-1,1406,988,0,0
189,36,0,0,0,0,0,0,0,0,0,-1,1413,988,0,0
196,36,0,0,0,0,0,0,0,0,0,-1,1420,988,0,0
203,36,0,0,0,0,0,0,0,0,0,-1,1427,988,0,0
210,36,0,0,0,0,0,0,0,0,0,-1,1434,988,0,0
217,36,0,0,0,0,0,0,0,0,0,-1,1441,988,0,0
224,36,0,0,0,0,0,0,0,0,0,-1,1448,988,0,0
231,36,0,0,0,0,0,0,0,0,0,-1,1455,988,0,0
238,36,0,0,0,0,0,0,0,0,0,-1,1462,988,0,0
245,36,0,0,0,0,0,0,0,0,0,-1,1469,988,0,0
252,36,0,0,0,0,0,0,0,0,0,-1,1476,988,0,0
259,36,0,0,0,0,0,0,0,0,0,-1,1483,988,0,0
266,36,0,0,0,0,0,0,0,0,0,-1,1490,988,0,0
273,36,0,0,0,0,0,0,0,0,0,-1,1497,988,0,0
280,36,0,0,0,0,0,0,0,0,0,-1,1504,988,0,0
287,36,0,0,0,0,0,0,0,0,0,-1,1511,988,0,0
294,36,0,0,0,0,0,0,0,0,0,-1,1518,988,0,0
301,36,0,0,0,0,0,0,0,0,0,-1,1525,988,0,0
308,36,0,0,0,0,0,0,0,0,0,-1,1532,988,0,0
315,36,0,0,0,0,0,0,0,0,0,-1,1539,988,0,0
322,36,0,0,0,0,0,0,0,0,0,-1,1546,988,0,0
329,36,0,0,0,0,0,0,0,0,0,-1,1553,988,0,0
336,36,0,0,0,0,0,0,0,0,0,-1,1560,988,0,0
343,36,0,0,0,0,0,0,0,0,0,-1,1567,988,0,0
350,36,0,0,0,0,0,0,0,0,0,-1,1574,988,0,0
357,36,0,0,0,0,0,0,0,0,0,-1,1581,988,0,0
364,36,0,0,0,0,0,0,0,0,0,-1,1588,988,0,0
371,36,0,0,0,0,0,0,0,0,0,-1,1595,988,0,0
378,36,0,0,0,0,0,0,0,0,0,-1,1602,988,0,0
385,36,0,0,0,0,0,0,0,0,0,-1,1609,988,0,0
392,36,0,0,0,0,0,0,0,0,0,-1,1616,988,0,0
399,36,0,0,0,0,0,0,0,0,0,-1,1623,988,0,0
406,36,0,0,0,0,0,0,0,0,0,-1,1630,988,0,0
413,36,0,0,0,0,0,0,0,0,0,-1,1637,988,0,0
420,36,0,0,0,0,0,0,0,0,0,-1,1644,988,0,0
427,36,0,0,0,0,0,0,0,0,0,-1,1651,988,0,0
434,36,0,0,0,0,0,0,0,0,0,-1,1658,988,0,0
441,36,0,0,0,0,0,0,0,0,0,-1,1665,988,0,0
448,36,0,0,0,0,0,0,0,0,0,-1,1672,988,0,0
455,36,0,0,0,0,0,0,0,0,0,-1,1679,988,0,0
462,36,0,0,0,0,0,0,0,0,0,-1,1686,988,0,0
469,36,0,0,0,0,0,0,0,0,0,-1,1693,988,0,0
476,36,0,0,0,0,0,0,0,0,0,-1,1700,988,0,0
483,36,0,0,0,0,0,0,0,0,0,-1,1707,988,0,0
490,36,0,0,0,0,0,0,0,0,0,-1,1714,988,0,0
497,36,0,0,0,0,0,0,0,0,0,-1,1721,988,0,0
504,36,0,0,0,0,0,0,0,0,0,-1,1728,988,0,0
511,36,0,0,0,0,0,0,0,0,0,-1,1735,988,0,0
518,36,0,0,0,0,0,0,0,0,0,-1,1742,988,0,0
525,36,0,0,0,0,0,0,0,0,0,-1,1749,988,0,0
532,36,0,0,0,0,0,0,0,0,0,-1,1756,988,0,0
539,36,0,0,0,0,0,0,0,0,0,-1,1763,988,0,0
546,36,0,0,0,0,0,0,0,0,0,-1,1770,988,0,0
553,36,0,0,0,0,0,0,0,0,0,-1,1777,988,0,0
560,36,0,0,0,0,0,0,0,0,0,-1,1784,988,0,0
567,36,0,0,0,0,0,0,0,0,0,-1,1791,988,0,0
574,36,0,0,0,0,0,0,0,0,0,-1,1798,988,0,0
581,36,0,0,0,0,0,0,0,0,0,-1,1805,988,0,0
588,36,0,0,0,0,0,0,0,0,0,-1,1812,988,0,0
595,36,0,0,0,0,0,0,0,0,0,-1,1819,988,0,0
602,36,0,0,0,0,0,0,0,0,0,-1,1826,988,0,0
609,36,0,0,0,0,0,0,0,0,0,-1,1833,988,0,0
616,36,0,0,0,0,0,0,0,0,0,-1,1840,988,0,0
623,36,0,0,0,0,0,0,0,0,0,-1,1847,988,0,0
630,36,0,0,0,0,0,0,0,0,0,-1,1854,988,0,0
637,36,0,0,0,0,0,0,0,0,0,-1,1861,988,0,0
644,36,44.114,2.55151,-0.00582297,0.00415558,-0.000194867,0.00415938,-0.00582677,-1.55128,0.00579224,0.0417989,1868,988,44.114,-2.5515
651,36,44.0126,2.62567,-0.00372655,0.0033751,3.84685e-05,0.00337531,-0.00372676,1.56538,0.00410206,0.0409195,1875,988,44.0126,-2.62566
658,36,44.0131,2.56421,-0.00235781,0.00267934,0.000310473,0.00269841,-0.00237688,1.50947,0.00293218,0.0406241,1882,988,44.0131,-2.56418
665,36,44.0477,2.42645,-0.00151581,0.00225131,0.000920518,0.00246421,-0.00172871,1.34351,0.00243317,0.0384307,1889,988,44.0477,-2.42645
672,36,44.0109,2.49359,-0.000988428,0.00196816,0.00173531,0.00276949,-0.00178975,1.13819,0.00265246,0.0386306,1896,988,44.0109,-2.49361
679,36,44.0409,2.62305,-0.000673556,0.00175022,0.00267989,0.0034795,-0.00240284,0.997746,0.00341508,0.0380529,1903,988,44.0408,-2.62307
686,36,44.1313,2.67053,-0.000418436,0.00144398,0.00348267,0.00411779,-0.00309224,0.916034,0.00417672,0.0357065,1910,988,44.1313,-2.67056
693,36,44.1676,2.6814,-0.000268394,0.00113368,0.00400205,0.00449563,-0.00363035,0.872103,0.00470039,0.0383865,1917,988,44.1676,-2.68143
700,36,44.1482,2.65149,-0.000198583,0.0010162,0.00417914,0.00463186,-0.00381424,0.857562,0.00488397,0.0385067,1924,988,44.1482,-2.6515
707,36,44.1482,2.60242,-0.000355241,0.00106822,0.00417486,0.00459158,-0.0038786,0.869827,0.00489603,0.0284906,1931,988,44.1482,-2.60241
714,36,44.0667,3.02972,-0.00080955,0.00129009,0.00403959,0.00441405,-0.00393351,0.912527,0.00482213,0.0336974,1938,988,44.0666,-3.02974
721,36,43.6035,4.6803,0,0,0,0,0,0,0,-1,1945,988,43.6036,-4.68032
728,36,43.5128,4.96082,-0.00177499,0.00253898,0.0035064,0.00449872,-0.00373473,1.06114,0.0047604,0.0215875,1952,988,43.5128,-4.96084
735,36,43.4421,5.20795,-0.00213047,0.00334491,0.0029075,0.00460078,-0.00338634,1.16306,0.0046291,0.0199366,1959,988,43.4422,-5.20795
742,36,43.3812,5.34479,-0.00252812,0.00447364,0.00250272,0.00527622,-0.0033307,1.26047,0.00501135,0.0158938,1966,988,43.3812,-5.34478
749,36,43.3859,5.53387,-0.00284951,0.00607655,0.00210011,0.00654598,-0.00331893,1.35089,0.0057962,0.0170809,1973,988,43.3858,-5.53388
756,36,43.376,5.71631,-0.00227596,0.00862967,0.00163221,0.00886871,-0.00251501,1.42537,0.00690521,0.016463,1980,988,43.376,-5.71631
763,36,43.2882,5.87402,-0.0010529,0.0121721,0.00106135,0.0122568,-0.00113753,1.49122,0.00857555,0.0183838,1987,988,43.2882,-5.87401
770,36,43.2311,6.05371,0.00103833,0.0166236,0.00105851,0.0166951,0.000966767,1.50329,0.0108222,0.0158803,1994,988,43.2311,-6.05368
777,36,43.269,6.34943,0.00446696,0.0220304,0.00128833,0.0221244,0.00437296,1.49796,0.0135296,0.0257033,2001,988,43.269,-6.34944
784,36,43.345,6.67542,0.00967736,0.0285229,0.00163794,0.0286642,0.00953606,1.48474,0.0168553,0.0473875,2008,988,43.3449,-6.67543
791,36,43.6426,7.39691,0.0173747,0.0363476,0.00179021,0.0365151,0.0172072,1.47754,0.0210936,0.0460998,2015,988,43.6425,-7.39694
798,36,43.7314,8.29321,0,0,0,0,0,0,0,-1,2022,988,43.7314,-8.29323
805,36,42.8298,6.74786,0.040894,0.0577612,-0.00112815,0.0578364,0.0408189,-1.50431,0.0343214,0.0482215,2029,988,42.8297,-6.74789
812,36,43.4778,6.12805,0,0,0,0,0,0,0,-1,2036,988,43.4779,-6.12806
-700,29,0,0,0,0,0,0,0,0,0,-1,524,995,0,0
-693,29,-30.5388,1.72632,0,0,0,0,0,0,0,-1,531,995,-30.5388,-1.7263
-686,29,-30.5211,1.82825,0,0,0,0,0,0,0,-1,538,995,-30.5212,-1.82824
-679,29,-29.7807,0.5224,0,0,0,0,0,0,0,-1,545,995,-29.7807,-0.522415
-672,29,-31.3055,0.996826,0,0,0,0,0,0,0,-1,552,995,-31.3055,-0.996829
-665,29,-31.951,1.26532,-0.0200054,-0.00706998,0.0321332,0.01924,-0.0463154,0.88471,0.0389096,0.0454,559,995,-31.951,-1.26531
-658,29,-32.4415,1.55817,-0.0167319,-0.00289849,0.0264561,0.0175302,-0.0371605,0.913256,0.0322466,0.0435033,566,995,-32.4415,-1.55817
-651,29,-32.5884,3.17267,0,0,0,0,0,0,0,-1,573,995,-32.5884,-3.17268
-644,29,-32.5714,2.90082,-0.0105077,0.00264613,0.0162531,0.0136026,-0.0214641,0.977655,0.0204147,0.0267168,580,995,-32.5714,-2.90081
-637,29,-32.7061,3.00269,-0.00769232,0.00428361,0.0113393,0.0111189,-0.0145276,1.02832,0.0148505,0.0181868,587,995,-32.706,-3.00271
-630,29,-32.7337,2.99835,-0.00556539,0.00509638,0.00666663,0.00830144,-0.00877045,1.12266,0.0098577,0.0130474,594,995,-32.7337,-2.99835
-623,29,-32.7311,2.92053,-0.00346742,0.0056151,0.00259196,0.00630274,-0.00415505,1.31148,0.0060801,0.0111584,601,995,-32.7311,-2.92056
-616,29,-32.741,2.80603,-0.00183902,0.00548481,-0.000542376,0.00552476,-0.00187897,-1.49727,0.00444394,0.0125908,608,995,-32.741,-2.80604
-609,29,-32.7334,2.7309,-0.000665223,0.00483171,-0.00270451,0.00593921,-0.00177272,-1.18213,0.00466406,0.0185016,615,995,-32.7334,-2.7309
-602,29,-32.7589,2.58807,-0.000276828,0.00375257,-0.00425265,0.00644361,-0.00296787,-1.00661,0.00555587,0.0199361,622,995,-32.7588,-2.58807
-595,29,-32.8024,2.42249,-0.000418302,0.00245181,-0.00505065,0.00626731,-0.00423381,-0.923817,0.0061006,0.0218215,629,995,-32.8024,-2.4225
-588,29,-32.6154,1.89154,-0.000126007,0.000471067,-0.00552966,0.00571024,-0.00536518,-0.812366,0.00639543,0.0337672,636,995,-32.6154,-1.89155
-581,29,-32.4637,1.1463,0.000302349,-0.00054597,-0.00562358,0.00551775,-0.00576137,-0.747757,0.00651251,0.0443223,643,995,-32.4637,-1.1463
-574,29,-32.485,0.752563,0.000564553,-0.00155515,-0.00536884,0.00497715,-0.00596775,-0.687947,0.00632766,0.0349813,650,995,-32.485,-0.752567
-567,29,-32.506,0.644226,0.000730418,-0.00270655,-0.0046781,0.00399569,-0.00597183,-0.609376,0.00579232,0.0340558,657,995,-32.506,-0.644245
-560,29,-32.5722,0.585449,0.00113384,-0.00382267,-0.00374465,0.00314603,-0.00583487,-0.493081,0.00526202,0.0379705,664,995,-32.5722,-0.585438
-553,29,-32.6384,0.679504,0.00193,-0.00485286,-0.00273891,0.00289787,-0.00582072,-0.339678,0.0051271,0.04139,671,995,-32.6384,-0.679529
-546,29,-32.4424,0.683777,0,0,0,0,0,0,0,-1,678,995,-32.4424,-0.683755
-539,29,-32.6067,0.503296,0.00555286,-0.00593784,-0.00174451,0.00581187,-0.00619685,-0.147396,0.00693442,0.0420495,685,995,-32.6067,-0.503315
-532,29,-32.4483,0.692017,0.008818,-0.00462739,-0.00363727,0.00973889,-0.00554828,-0.24797,0.00893591,0.0443378,692,995,-32.4483,-0.692019
-525,29,-32.4049,0.703918,0.0117309,-0.00196128,-0.0079648,0.0153875,-0.00561791,-0.430395,0.0125571,0.0448423,699,995,-32.4049,-0.703898
-518,29,0,0,0,0,0,0,0,0,0,-1,706,995,0,0
-511,29,0,0,0,0,0,0,0,0,0,-1,713,995,0,0
-504,29,0,0,0,0,0,0,0,0,0,-1,720,995,0,0
-497,29,0,0,0,0,0,0,0,0,0,-1,727,995,0,0
-490,29,0,0,0,0,0,0,0,0,0,-1,734,995,0,0
-483,29,0,0,0,0,0,0,0,0,0,-1,741,995,0,0
-476,29,0,0,0,0,0,0,0,0,0,-1,748,995,0,0
-469,29,0,0,0,0,0,0,0,0,0,-1,755,995,0,0
-462,29,0,0,0,0,0,0,0,0,0,-1,762,995,0,0
-455,29,0,0,0,0,0,0,0,0,0,-1,769,995,0,0
-448,29,0,0,0,0,0,0,0,0,0,-1,776,995,0,0
-441,29,0,0,0,0,0,0,0,0,0,-1,783,995,0,0
-434,29,0,0,0,0,0,0,0,0,0,-1,790,995,0,0
-427,29,0,0,0,0,0,0,0,0,0,-1,797,995,0,0
-420,29,0,0,0,0,0,0,0,0,0,-1,804,995,0,0
-413,29,0,0,0,0,0,0,0,0,0,-1,811,995,0,0
-406,29,0,0,0,0,0,0,0,0,0,-1,818,995,0,0
-399,29,0,0,0,0,0,0,0,0,0,-1,825,995,0,0
-392,29,0,0,0,0,0,0,0,0,0,-1,832,995,0,0
-385,29,0,0,0,0,0,0,0,0,0,-1,839,995,0,0
-378,29,0,0,0,0,0,0,0,0,0,-1,846,995,0,0
-371,29,0,0,0,0,0,0,0,0,0,-1,853,995,0,0
-364,29,0,0,0,0,0,0,0,0,0,-1,860,995,0,0
-357,29,0,0,0,0,0,0,0,0,0,-1,867,995,0,0
-350,29,0,0,0,0,0,0,0,0,0,-1,874,995,0,0
-343,29,0,0,0,0,0,0,0,0,0,-1,881,995,0,0
-336,29,0,0,0,0,0,0,0,0,0,-1,888,995,0,0
-329,29,0,0,0,0,0,0,0,0,0,-1,895,995,0,0
-322,29,0,0,0,0,0,0,0,0,0,-1,902,995,0,0
-315,29,0,0,0,0,0,0,0,0,0,-1,909,995,0,0
-308,29,0,0,0,0,0,0,0,0,0,-1,916,995,0,0
-301,29,0,0,0,0,0,0,0,0,0,-1,923,995,0,0
-294,29,0,0,0,0,0,0,0,0,0,-1,930,995,0,0
-287,29,0,0,0,0,0,0,0,0,0,-1,937,995,0,0
-280,29,0,0,0,0,0,0,0,0,0,-1,944,995,0,0
-273,29,0,0,0,0,0,0,0,0,0,-1,951,995,0,0
-266,29,0,0,0,0,0,0,0,0,0,-1,958,995,0,0
-259,29,0,0,0,0,0,0,0,0,0,-1,965,995,0,0
-252,29,0,0,0,0,0,0,0,0,0,-1,972,995,0,0
-245,29,0,0,0,0,0,0,0,0,0,-1,979,995,0,0
-238,29,0,0,0,0,0,0,0,0,0,-1,986,995,0,0
-231,29,0,0,0,0,0,0,0,0,0,-1,993,995,0,0
-224,29,0,0,0,0,0,0,0,0,0,-1,1000,995,0,0
-217,29,0,0,0,0,0,0,0,0,0,-1,1007,995,0,0
-210,29,0,0,0,0,0,0,0,0,0,-1,1014,995,0,0
-203,29,0,0,0,0,0,0,0,0,0,-1,1021,995,0,0
-196,29,0,0,0,0,0,0,0,0,0,-1,1028,995,0,0
-189,29,0,0,0,0,0,0,0,0,0,-1,1035,995,0,0
-182,29,0,0,0,0,0,0,0,0,0,-1,1042,995,0,0
-175,29,0,0,0,0,0,0,0,0,0,-1,1049,995,0,0
-168,29,0,0,0,0,0,0,0,0,0,-1,1056,995,0,0
-161,29,0,0,0,0,0,0,0,0,0,-1,1063,995,0,0
-154,29,0,0,0,0,0,0,0,0,0,-1,1070,995,0,0
-147,29,0,0,0,0,0,0,0,0,0,-1,1077,995,0,0
-140,29,0,0,0,0,0,0,0,0,0,-1,1084,995,0,0
-133,29,0,0,0,0,0,0,0,0,0,-1,1091,995,0,0
-126,29,0,0,0,0,0,0,0,0,0,-1,1098,995,0,0
-119,29,0,0,0,0,0,0,0,0,0,-1,1105,995,0,0
-112,29,0,0,0,0,0,0,0,0,0,-1,1112,995,0,0
-105,29,0,0,0,0,0,0,0,0,0,-1,1119,995,0,0
-98,29,0,0,0,0,0,0,0,0,0,-1,1126,995,0,0
-91,29,0,0,0,0,0,0,0,0,0,-1,1133,995,0,0
-84,29,0,0,0,0,0,0,0,0,0,-1,1140,995,0,0
-77,29,0,0,0,0,0,0,0,0,0,-1,1147,995,0,0
-70,29,0,0,0,0,0,0,0,0,0,-1,1154,995,0,0
-63,29,0,0,0,0,0,0,0,0,0,-1,1161,995,0,0
-56,29,0,0,0,0,0,0,0,0,0,-1,1168,995,0,0
-49,29,0,0,0,0,0,0,0,0,0,-1,1175,995,0,0
-42,29,0,0,0,0,0,0,0,0,0,-1,1182,995,0,0
-35,29,0,0,0,0,0,0,0,0,0,-1,1189,995,0,0
-28,29,0,0,0,0,0,0,0,0,0,-1,1196,995,0,0
-21,29,0,0,0,0,0,0,0,0,0,-1,1203,995,0,0
-14,29,0,0,0,0,0,0,0,0,0,-1,1210,995,0,0
-7,29,0,0,0,0,0,0,0,0,0,-1,1217,995,0,0
0,29,0,0,0,0,0,0,0,0,0,-1,1224,995,0,0
7,29,0,0,0,0,0,0,0,0,0,-1,1231,995,0,0
14,29,0,0,0,0,0,0,0,0,0,-1,1238,995,0,0
21,29,0,0,0,0,0,0,0,0,0,-1,1245,995,0,0
28,29,0,0,0,0,0,0,0,0,0,-1,1252,995,0,0
35,29,0,0,0,0,0,0,0,0,0,-1,1259,995,0,0
42,29,0,0,0,0,0,0,0,0,0,-1,1266,995,0,0
49,29,0,0,0,0,0,0,0,0,0,-1,1273,995,0,0
56,29,0,0,0,0,0,0,0,0,0,-1,1280,995,0,0
63,29,0,0,0,0,0,0,0,0,0,-1,1287,995,0,0
70,29,0,0,0,0,0,0,0,0,0,-1,1294,995,0,0
77,29,0,0,0,0,0,0,0,0,0,-1,1301,995,0,0
84,29,0,0,0,0,0,0,0,0,0,-1,1308,995,0,0
91,29,0,0,0,0,0,0,0,0,0,-1,1315,995,0,0
98,29,0,0,0,0,0,0,0,0,0,-1,1322,995,0,0
105,29,0,0,0,0,0,0,0,0,0,-1,1329,995,0,0
112,29,0,0,0,0,0,0,0,0,0,-1,1336,995,0,0
119,29,0,0,0,0,0,0,0,0,0,-1,1343,995,0,0
126,29,0,0,0,0,0,0,0,0,0,-1,1350,995,0,0
133,29,0,0,0,0,0,0,0,0,0,-1,1357,995,0,0
140,29,0,0,0,0,0,0,0,0,0,-1,1364,995,0,0
147,29,0,0,0,0,0,0,0,0,0,-1,1371,995,0,0
154,29,0,0,0,0,0,0,0,0,0,-1,1378,995,0,0
161,29,0,0,0,0,0,0,0,0,0,-1,1385,995,0,0
168,29,0,0,0,0,0,0,0,0,0,-1,1392,995,0,0
175,29,0,0,0,0,0,0,0,0,0,-1,1399,995,0,0
182,29,0,0,0,0,0,0,0,0,0,-1,1406,995,0,0
189,29,0,0,0,0,0,0,0,0,0,-1,1413,995,0,0
196,29,0,0,0,0,0,0,0,0,0,-1,1420,995,0,0
203,29,0,0,0,0,0,0,0,0,0,-1,1427,995,0,0
210,29,0,0,0,0,0,0,0,0,0,-1,1434,995,0,0
217,29,0,0,0,0,0,0,0,0,0,-1,1441,995,0,0
224,29,0,0,0,0,0,0,0,0,0,-1,1448,995,0,0
231,29,0,0,0,0,0,0,0,0,0,-1,1455,995,0,0
238,29,0,0,0,0,0,0,0,0,0,-1,1462,995,0,0
245,29,0,0,0,0,0,0,0,0,0,-1,1469,995,0,0
252,29,0,0,0,0,0,0,0,0,0,-1,1476,995,0,0
259,29,0,0,0,0,0,0,0,0,0,-1,1483,995,0,0
266,29,0,0,0,0,0,0,0,0,0,-1,1490,995,0,0
273,29,0,0,0,0,0,0,0,0,0,-1,1497,995,0,0
280,29,0,0,0,0,0,0,0,0,0,-1,1504,995,0,0
287,29,0,0,0,0,0,0,0,0,0,-1,1511,995,0,0
294,29,0,0,0,0,0,0,0,0,0,-1,1518,995,0,0
301,29,0,0,0,0,0,0,0,0,0,-1,1525,995,0,0
308,29,0,0,0,0,0,0,0,0,0,-1,1532,995,0,0
315,29,0,0,0,0,0,0,0,0,0,-1,1539,995,0,0
322,29,0,0,0,0,0,0,0,0,0,-1,1546,995,0,0
329,29,0,0,0,0,0,0,0,0,0,-1,1553,995,0,0
336,29,0,0,0,0,0,0,0,0,0,-1,1560,995,0,0
343,29,0,0,0,0,0,0,0,0,0,-1,1567,995,0,0
350,29,0,0,0,0,0,0,0,0,0,-1,1574,995,0,0
357,29,0,0,0,0,0,0,0,0,0,-1,1581,995,0,0
364,29,0,0,0,0,0,0,0,0,0,-1,1588,995,0,0
371,29,0,0,0,0,0,0,0,0,0,-1,1595,995,0,0
378,29,0,0,0,0,0,0,0,0,0,-1,1602,995,0,0
385,29,0,0,0,0,0,0,0,0,0,-1,1609,995,0,0
392,29,0,0,0,0,0,0,0,0,0,-1,1616,995,0,0
399,29,0,0,0,0,0,0,0,0,0,-1,1623,995,0,0
406,29,0,0,0,0,0,0,0,0,0,-1,1630,995,0,0
413,29,0,0,0,0,0,0,0,0,0,-1,1637,995,0,0
420,29,0,0,0,0,0,0,0,0,0,-1,1644,995,0,0
427,29,0,0,0,0,0,0,0,0,0,-1,1651,995,0,0
434,29,0,0,0,0,0,0,0,0,0,-1,1658,995,0,0
441,29,0,0,0,0,0,0,0,0,0,-1,1665,995,0,0
448,29,0,0,0,0,0,0,0,0,0,-1,1672,995,0,0
455,29,0,0,0,0,0,0,0,0,0,-1,1679,995,0,0
462,29,0,0,0,0,0,0,0,0,0,-1,1686,995,0,0
469,29,0,0,0,0,0,0,0,0,0,-1,1693,995,0,0
476,29,0,0,0,0,0,0,0,0,0,-1,1700,995,0,0
483,29,0,0,0,0,0,0,0,0,0,-1,1707,995,0,0
490,29,0,0,0,0,0,0,0,0,0,-1,1714,995,0,0
497,29,0,0,0,0,0,0,0,0,0,-1,1721,995,0,0
504,29,0,0,0,0,0,0,0,0,0,-1,1728,995,0,0
511,29,0,0,0,0,0,0,0,0,0,-1,1735,995,0,0
518,29,0,0,0,0,0,0,0,0,0,-1,1742,995,0,0
525,29,0,0,0,0,0,0,0,0,0,-1,1749,995,0,0
532,29,0,0,0,0,0,0,0,0,0,-1,1756,995,0,0
539,29,0,0,0,0,0,0,0,0,0,-1,1763,995,0,0
546,29,0,0,0,0,0,0,0,0,0,-1,1770,995,0,0
553,29,0,0,0,0,0,0,0,0,0,-1,1777,995,0,0
560,29,0,0,0,0,0,0,0,0,0,-1,1784,995,0,0
567,29,0,0,0,0,0,0,0,0,0,-1,1791,995,0,0
574,29,0,0,0,0,0,0,0,0,0,-1,1798,995,0,0
581,29,0,0,0,0,0,0,0,0,0,-1,1805,995,0,0
588,29,0,0,0,0,0,0,0,0,0,-1,1812,995,0,0
595,29,0,0,0,0,0,0,0,0,0,-1,1819,995,0,0
602,29,0,0,0,0,0,0,0,0,0,-1,1826,995,0,0
609,29,0,0,0,0,0,0,0,0,0,-1,1833,995,0,0
616,29,0,0,0,0,0,0,0,0,0,-1,1840,995,0,0
623,29,0,0,0,0,0,0,0,0,0,-1,1847,995,0,0
630,29,0,0,0,0,0,0,0,0,0,-1,1854,995,0,0
637,29,0,0,0,0,0,0,0,0,0,-1,1861,995,0,0
644,29,44.0386,2.53143,-0.00594026,0.00273981,0.000173114,0.00274326,-0.00594371,1.55086,0.00512763,0.0419836,1868,995,44.0386,-2.53143
651,29,43.932,2.69513,-0.00388517,0.00218262,0.000355885,0.00220342,-0.00390597,1.51241,0.00357262,0.0424268,1875,995,43.932,-2.69511
658,29,43.9592,2.58282,-0.00247958,0.00166706,0.000534512,0.00173485,-0.00254737,1.44464,0.00248713,0.0424175,1882,995,43.9593,-2.58284
665,29,43.9468,2.51758,-0.00159523,0.00140531,0.00104385,0.00173272,-0.00192265,1.26686,0.00211138,0.0408121,1889,995,43.9467,-2.51755
672,29,43.9222,2.55377,-0.00100961,0.00130974,0.00176934,0.00226558,-0.00196545,1.07549,0.00244483,0.0392685,1896,995,43.9223,-2.55377
679,29,43.9453,2.61383,-0.000625148,0.00128055,0.00267297,0.00316543,-0.00251002,0.956615,0.003284,0.0387535,1903,995,43.9453,-2.61386
686,29,43.9919,2.65576,-0.000328748,0.0011217,0.00348686,0.00395795,-0.003165,0.88793,0.00412093,0.0376515,1910,995,43.992,-2.65579
693,29,44.1875,2.57111,-0.000152503,0.00092755,0.00403862,0.00446209,-0.00368704,0.851862,0.00471199,0.0388144,1917,995,44.1875,-2.57111
700,29,44.1886,2.54791,-4.81058e-05,0.000880779,0.00426162,0.00470319,-0.00387052,0.839675,0.00495781,0.0354373,1924,995,44.1886,-2.54793
707,29,44.0911,2.63947,-0.00016672,0.000989461,0.00431689,0.0047668,-0.00394406,0.851959,0.00503668,0.0229307,1931,995,44.091,-2.63944
714,29,44.0303,3.12811,-0.000618465,0.00127208,0.00423471,0.00466574,-0.00401212,0.895208,0.00501491,0.0338816,1938,995,44.0303,-3.12811
721,29,43.6705,4.75409,0,0,0,0,0,0,0,-1,1945,995,43.6706,-4.75411
728,29,43.6367,5.04077,-0.00171764,0.00257711,0.00371368,0.00471956,-0.00386009,1.04753,0.00496174,0.0235525,1952,995,43.6368,-5.04076
735,29,43.579,5.27759,-0.00209012,0.00334391,0.00317623,0.00480668,-0.00355289,1.13921,0.00484446,0.0150741,1959,995,43.579,-5.27759
742,29,43.5627,5.37939,-0.00248697,0.00432817,0.00283653,0.00535426,-0.00351307,1.2237,0.00515621,0.012704,1966,995,43.5628,-5.37942
749,29,43.5518,5.52515,-0.00281921,0.00583816,0.00251599,0.00651624,-0.00349729,1.30754,0.00586824,0.013936,1973,995,43.5517,-5.52514
756,29,43.5349,5.70551,-0.00224734,0.00832267,0.00215754,0.0087461,-0.00267078,1.377,0.00689561,0.0134751,1980,995,43.5349,-5.7055
763,29,43.4897,5.80542,-0.000990604,0.0117145,0.00169043,0.0119356,-0.00121167,1.44076,0.00839016,0.0121831,1987,995,43.4898,-5.80539
770,29,43.4338,5.88647,0.00114122,0.0159546,0.00180673,0.0161718,0.00092405,1.45117,0.0104868,0.0160776,1994,995,43.4338,-5.88648
777,29,43.4119,6.15601,0.00464229,0.0212188,0.00226826,0.0215236,0.00433751,1.43723,0.013144,0.0270068,2001,995,43.4118,-6.156
784,29,43.4858,6.60278,0,0,0,0,0,0,0,-1,2008,995,43.4859,-6.60279
791,29,43.0281,6.68054,0,0,0,0,0,0,0,-1,2015,995,43.0281,-6.68051
798,29,43.2646,7.28088,0,0,0,0,0,0,0,-1,2022,995,43.2646,-7.28089
805,29,42.8967,6.46051,0,0,0,0,0,0,0,-1,2029,995,42.8967,-6.46054
812,29,43.1357,6.52228,0,0,0,0,0,0,0,-1,2036,995,43.1358,-6.5223
-700,22,0,0,0,0,0,0,0,0,0,-1,524,1002,0,0
-693,22,-31.3771,1.46851,-0.0185144,-0.0198871,0.0587181,0.0395214,-0.0779229,0.779554,0.0690042,0.0456591,531,1002,-31.3771,-1.46849
-686,22,-31.2945,1.64819,-0.020064,-0.0185273,0.0527635,0.0334734,-0.0720648,0.792679,0.0622756,0.0477387,538,1002,-31.2945,-1.64822
-679,22,-31.2014,1.73895,0,0,0,0,0,0,0,-1,545,1002,-31.2014,-1.73896
-672,22,-31.7656,1.13251,0,0,0,0,0,0,0,-1,552,1002,-31.7656,-1.13252
-665,22,-32.3635,1.53131,-0.0170138,-0.00551275,0.0330607,0.0222938,-0.0448204,0.871506,0.0394693,0.0450955,559,1002,-32.3635,-1.53132
-658,22,-32.9091,1.61346,-0.014701,-0.00169963,0.0269324,0.0195056,-0.0359062,0.903818,0.0324557,0.044686,566,1002,-32.9091,-1.61347
-651,22,-32.319,2.17944,0,0,0,0,0,0,0,-1,573,1002,-32.319,-2.17945
-644,22,-32.6082,2.60449,-0.00976698,0.00326757,0.0161105,0.0141291,-0.0206285,0.977604,0.0201839,0.028099,580,1002,-32.6082,-2.6045
-637,22,-32.8108,2.91315,-0.00734953,0.00468992,0.0109603,0.0111748,-0.0138344,1.03652,0.0144662,0.01952,587,1002,-32.8108,-2.91316
-630,22,-32.8373,2.9137,-0.00534364,0.00535938,0.00617536,0.00817939,-0.00816365,1.14242,0.00943566,0.0139813,594,1002,-32.8374,-2.91367
-623,22,-32.8604,2.84277,-0.00329588,0.00571722,0.00209205,0.00617914,-0.0037578,1.35349,0.00579359,0.0109897,601,1002,-32.8604,-2.84276
-616,22,-32.8573,2.74976,-0.00168842,0.00548049,-0.000962856,0.00560756,-0.00181549,-1.43958,0.00446822,0.0160131,608,1002,-32.8573,-2.74975
-609,22,-32.8701,2.67841,-0.00043451,0.00487931,-0.00299733,0.00622779,-0.00178299,-1.14803,0.00485654,0.0249819,615,1002,-32.8701,-2.67838
-602,22,-32.9384,2.61298,0.000185857,0.00386347,-0.0044138,0.00680617,-0.00275684,-0.982767,0.0056838,0.02449,622,1002,-32.9384,-2.61299
-595,22,-32.928,2.45361,0.000253065,0.00272371,-0.00512929,0.00676434,-0.00378757,-0.903566,0.00617242,0.0257746,629,1002,-32.928,-2.45359
-588,22,-32.633,1.80548,0.000633902,0.000959594,-0.00556587,0.006365,-0.00477151,-0.800023,0.00645157,0.0408847,636,1002,-32.633,-1.80547
-581,22,-32.4489,1.12305,0.00104352,2.36858e-05,-0.00561698,0.00617368,-0.00510648,-0.740132,0.00652231,0.0454109,643,1002,-32.4489,-1.12306
-574,22,-32.512,0.485596,0,0,0,0,0,0,0,-1,650,1002,-32.512,-0.485586
-567,22,-32.5336,0.716553,0.00123776,-0.00195653,-0.0046329,0.00454109,-0.00525986,-0.619408,0.00566365,0.0309282,657,1002,-32.5336,-0.716566
-560,22,-32.6166,0.850281,0.00138088,-0.00300596,-0.00369759,0.00348667,-0.00511175,-0.517695,0.00499377,0.0343468,664,1002,-32.6166,-0.850263
-553,22,-32.6476,0.984131,0.00176064,-0.0040477,-0.00268956,0.00281475,-0.00510181,-0.373525,0.00463377,0.0368053,671,1002,-32.6476,-0.984155
-546,22,-32.569,0.861084,0.00256632,-0.00505163,-0.00180281,0.00297141,-0.00545673,-0.221032,0.00493601,0.039319,678,1002,-32.569,-0.861076
-539,22,-32.5792,0.720703,0.00403334,-0.00543739,-0.00170176,0.00432984,-0.00573389,-0.1725,0.00582911,0.0405265,685,1002,-32.5792,-0.720693
-532,22,-32.5123,0.638123,0.00640086,-0.00436648,-0.00356774,0.00747572,-0.00544135,-0.292624,0.00748844,0.0414418,692,1002,-32.5123,-0.638125
-525,22,0,0,0,0,0,0,0,0,0,-1,699,1002,0,0
-518,22,0,0,0,0,0,0,0,0,0,-1,706,1002,0,0
-511,22,0,0,0,0,0,0,0,0,0,-1,713,1002,0,0
-504,22,0,0,0,0,0,0,0,0,0,-1,720,1002,0,0
-497,22,0,0,0,0,0,0,0,0,0,-1,727,1002,0,0
-490,22,0,0,0,0,0,0,0,0,0,-1,734,1002,0,0
-483,22,0,0,0,0,0,0,0,0,0,-1,741,1002,0,0
-476,22,0,0,0,0,0,0,0,0,0,-1,748,1002,0,0
-469,22,0,0,0,0,0,0,0,0,0,-1,755,1002,0,0
-462,22,0,0,0,0,0,0,0,0,0,-1,762,1002,0,0
-455,22,0,0,0,0,0,0,0,0,0,-1,769,1002,0,0
-448,22,0,0,0,0,0,0,0,0,0,-1,776,1002,0,0
-441,22,0,0,0,0,0,0,0,0,0,-1,783,1002,0,0
-434,22,0,0,0,0,0,0,0,0,0,-1,790,1002,0,0
-427,22,0,0,0,0,0,0,0,0,0,-1,797,1002,0,0
-420,22,0,0,0,0,0,0,0,0,0,-1,804,1002,0,0
-413,22,0,0,0,0,0,0,0,0,0,-1,811,1002,0,0
-406,22,0,0,0,0,0,0,0,0,0,-1,818,1002,0,0
-399,22,0,0,0,0,0,0,0,0,0,-1,825,1002,0,0
-392,22,0,0,0,0,0,0,0,0,0,-1,832,1002,0,0
-385,22,0,0,0,0,0,0,0,0,0,-1,839,1002,0,0
-378,22,0,0,0,0,0,0,0,0,0,-1,846,1002,0,0
-371,22,0,0,0,0,0,0,0,0,0,-1,853,1002,0,0
-364,22,0,0,0,0,0,0,0,0,0,-1,860,1002,0,0
-357,22,0,0,0,0,0,0,0,0,0,-1,867,1002,0,0
-350,22,0,0,0,0,0,0,0,0,0,-1,874,1002,0,0
-343,22,0,0,0,0,0,0,0,0,0,-1,881,1002,0,0
-336,22,0,0,0,0,0,0,0,0,0,-1,888,1002,0,0
-329,22,0,0,0,0,0,0,0,0,0,-1,895,1002,0,0
-322,22,0,0,0,0,0,0,0,0,0,-1,902,1002,0,0
-315,22,0,0,0,0,0,0,0,0,0,-1,909,1002,0,0
-308,22,0,0,0,0,0,0,0,0,0,-1,916,1002,0,0
-301,22,0,0,0,0,0,0,0,0,0,-1,923,1002,0,0
-294,22,0,0,0,0,0,0,0,0,0,-1,930,1002,0,0
-287,22,0,0,0,0,0,0,0,0,0,-1,937,1002,0,0
-280,22,0,0,0,0,0,0,0,0,0,-1,944,1002,0,0
-273,22,0,0,0,0,0,0,0,0,0,-1,951,1002,0,0
-266,22,0,0,0,0,0,0,0,0,0,-1,958,1002,0,0
-259,22,0,0,0,0,0,0,0,0,0,-1,965,1002,0,0
-252,22,0,0,0,0,0,0,0,0,0,-1,972,1002,0,0
-245,22,0,0,0,0,0,0,0,0,0,-1,979,1002,0,0
-238,22,0,0,0,0,0,0,0,0,0,-1,986,1002,0,0
-231,22,0,0,0,0,0,0,0,0,0,-1,993,1002,0,0
-224,22,0,0,0,0,0,0,0,0,0,-1,1000,1002,0,0
-217,22,0,0,0,0,0,0,0,0,0,-1,1007,1002,0,0
-210,22,0,0,0,0,0,0,0,0,0,-1,1014,1002,0,0
-203,22,0,0,0,0,0,0,0,0,0,-1,1021,1002,0,0
-196,22,0,0,0,0,0,0,0,0,0,-1,1028,1002,0,0
-189,22,0,0,0,0,0,0,0,0,0,-1,1035,1002,0,0
-182,22,0,0,0,0,0,0,0,0,0,-1,1042,1002,0,0
-175,22,0,0,0,0,0,0,0,0,0,-1,1049,1002,0,0
-168,22,0,0,0,0,0,0,0,0,0,-1,1056,1002,0,0
-161,22,0,0,0,0,0,0,0,0,0,-1,1063,1002,0,0
-154,22,0,0,0,0,0,0,0,0,0,-1,1070,1002,0,0
-147,22,0,0,0,0,0,0,0,0,0,-1,1077,1002,0,0
-140,22,0,0,0,0,0,0,0,0,0,-1,1084,1002,0,0
-133,22,0,0,0,0,0,0,0,0,0,-1,1091,1002,0,0
-126,22,0,0,0,0,0,0,0,0,0,-1,1098,1002,0,0
-119,22,0,0,0,0,0,0,0,0,0,-1,1105,1002,0,0
-112,22,0,0,0,0,0,0,0,0,0,-1,1112,1002,0,0
-105,22,0,0,0,0,0,0,0,0,0,-1,1119,1002,0,0
-98,22,0,0,0,0,0,0,0,0,0,-1,1126,1002,0,0
-91,22,0,0,0,0,0,0,0,0,0,-1,1133,1002,0,0
-84,22,0,0,0,0,0,0,0,0,0,-1,1140,1002,0,0
-77,22,0,0,0,0,0,0,0,0,0,-1,1147,1002,0,0
-70,22,0,0,0,0,0,0,0,0,0,-1,1154,1002,0,0
-63,22,0,0,0,0,0,0,0,0,0,-1,1161,1002,0,0
-56,22,0,0,0,0,0,0,0,0,0,-1,1168,1002,0,0
-49,22,0,0,0,0,0,0,0,0,0,-1,1175,1002,0,0
-42,22,0,0,0,0,0,0,0,0,0,-1,1182,1002,0,0
-35,22,0,0,0,0,0,0,0,0,0,-1,1189,1002,0,0
-28,22,0,0,0,0,0,0,0,0,0,-1,1196,1002,0,0
-21,22,0,0,0,0,0,0,0,0,0,-1,1203,1002,0,0
-14,22,0,0,0,0,0,0,0,0,0,-1,1210,1002,0,0
-7,22,0,0,0,0,0,0,0,0,0,-1,1217,1002,0,0
0,22,0,0,0,0,0,0,0,0,0,-1,1224,1002,0,0
7,22,0,0,0,0,0,0,0,0,0,-1,1231,1002,0,0
14,22,0,0,0,0,0,0,0,0,0,-1,1238,1002,0,0
21,22,0,0,0,0,0,0,0,0,0,-1,1245,1002,0,0
28,22,0,0,0,0,0,0,0,0,0,-1,1252,1002,0,0
35,22,0,0,0,0,0,0,0,0,0,-1,1259,1002,0,0
42,22,0,0,0,0,0,0,0,0,0,-1,1266,1002,0,0
49,22,0,0,0,0,0,0,0,0,0,-1,1273,1002,0,0
56,22,0,0,0,0,0,0,0,0,0,-1,1280,1002,0,0
63,22,0,0,0,0,0,0,0,0,0,-1,1287,1002,0,0
70,22,0,0,0,0,0,0,0,0,0,-1,1294,1002,0,0
77,22,0,0,0,0,0,0,0,0,0,-1,1301,1002,0,0
84,22,0,0,0,0,0,0,0,0,0,-1,1308,1002,0,0
91,22,0,0,0,0,0,0,0,0,0,-1,1315,1002,0,0
98,22,0,0,0,0,0,0,0,0,0,-1,1322,1002,0,0
105,22,0,0,0,0,0,0,0,0,0,-1,1329,1002,0,0
112,22,0,0,0,0,0,0,0,0,0,-1,1336,1002,0,0
119,22,0,0,0,0,0,0,0,0,0,-1,1343,1002,0,0
126,22,0,0,0,0,0,0,0,0,0,-1,1350,1002,0,0
133,22,0,0,0,0,0,0,0,0,0,-1,1357,1002,0,0
140,22,0,0,0,0,0,0,0,0,0,-1,1364,1002,0,0
147,22,0,0,0,0,0,0,0,0,0,-1,1371,1002,0,0
154,22,0,0,0,0,0,0,0,0,0,-1,1378,1002,0,0
161,22,0,0,0,0,0,0,0,0,0,-1,1385,1002,0,0
168,22,0,0,0,0,0,0,0,0,0,-1,1392,1002,0,0
175,22,0,0,0,0,0,0,0,0,0,-1,1399,1002,0,0
182,22,0,0,0,0,0,0,0,0,0,-1,1406,1002,0,0
189,22,0,0,0,0,0,0,0,0,0,-1,1413,1002,0,0
196,22,0,0,0,0,0,0,0,0,0,-1,1420,1002,0,0
203,22,0,0,0,0,0,0,0,0,0,-1,1427,1002,0,0
210,22,0,0,0,0,0,0,0,0,0,-1,1434,1002,0,0
217,22,0,0,0,0,0,0,0,0,0,-1,1441,1002,0,0
224,22,0,0,0,0,0,0,0,0,0,-1,1448,1002,0,0
231,22,0,0,0,0,0,0,0,0,0,-1,1455,1002,0,0
238,22,0,0,0,0,0,0,0,0,0,-1,1462,1002,0,0
245,22,0,0,0,0,0,0,0,0,0,-1,1469,1002,0,0
252,22,0,0,0,0,0,0,0,0,0,-1,1476,1002,0,0
259,22,0,0,0,0,0,0,0,0,0,-1,1483,1002,0,0
266,22,0,0,0,0,0,0,0,0,0,-1,1490,1002,0,0
273,22,0,0,0,0,0,0,0,0,0,-1,1497,1002,0,0
280,22,0,0,0,0,0,0,0,0,0,-1,1504,1002,0,0
287,22,0,0,0,0,0,0,0,0,0,-1,1511,1002,0,0
294,22,0,0,0,0,0,0,0,0,0,-1,1518,1002,0,0
301,22,0,0,0,0,0,0,0,0,0,-1,1525,1002,0,0
308,22,0,0,0,0,0,0,0,0,0,-1,1532,1002,0,0
315,22,0,0,0,0,0,0,0,0,0,-1,1539,1002,0,0
322,22,0,0,0,0,0,0,0,0,0,-1,1546,1002,0,0
329,22,0,0,0,0,0,0,0,0,0,-1,1553,1002,0,0
336,22,0,0,0,0,0,0,0,0,0,-1,1560,1002,0,0
343,22,0,0,0,0,0,0,0,0,0,-1,1567,1002,0,0
350,22,0,0,0,0,0,0,0,0,0,-1,1574,1002,0,0
357,22,0,0,0,0,0,0,0,0,0,-1,1581,1002,0,0
364,22,0,0,0,0,0,0,0,0,0,-1,1588,1002,0,0
371,22,0,0,0,0,0,0,0,0,0,-1,1595,1002,0,0
378,22,0,0,0,0,0,0,0,0,0,-1,1602,1002,0,0
385,22,0,0,0,0,0,0,0,0,0,-1,1609,1002,0,0
392,22,0,0,0,0,0,0,0,0,0,-1,1616,1002,0,0
399,22,0,0,0,0,0,0,0,0,0,-1,1623,1002,0,0
406,22,0,0,0,0,0,0,0,0,0,-1,1630,1002,0,0
413,22,0,0,0,0,0,0,0,0,0,-1,1637,1002,0,0
420,22,0,0,0,0,0,0,0,0,0,-1,1644,1002,0,0
427,22,0,0,0,0,0,0,0,0,0,-1,1651,1002,0,0
434,22,0,0,0,0,0,0,0,0,0,-1,1658,1002,0,0
441,22,0,0,0,0,0,0,0,0,0,-1,1665,1002,0,0
448,22,0,0,0,0,0,0,0,0,0,-1,1672,1002,0,0
455,22,0,0,0,0,0,0,0,0,0,-1,1679,1002,0,0
462,22,0,0,0,0,0,0,0,0,0,-1,1686,1002,0,0
469,22,0,0,0,0,0,0,0,0,0,-1,1693,1002,0,0
476,22,0,0,0,0,0,0,0,0,0,-1,1700,1002,0,0
483,22,0,0,0,0,0,0,0,0,0,-1,1707,1002,0,0
490,22,0,0,0,0,0,0,0,0,0,-1,1714,1002,0,0
497,22,0,0,0,0,0,0,0,0,0,-1,1721,1002,0,0
504,22,0,0,0,0,0,0,0,0,0,-1,1728,1002,0,0
511,22,0,0,0,0,0,0,0,0,0,-1,1735,1002,0,0
518,22,0,0,0,0,0,0,0,0,0,-1,1742,1002,0,0
525,22,0,0,0,0,0,0,0,0,0,-1,1749,1002,0,0
532,22,0,0,0,0,0,0,0,0,0,-1,1756,1002,0,0
539,22,0,0,0,0,0,0,0,0,0,-1,1763,1002,0,0
546,22,0,0,0,0,0,0,0,0,0,-1,1770,1002,0,0
553,22,0,0,0,0,0,0,0,0,0,-1,1777,1002,0,0
560,22,0,0,0,0,0,0,0,0,0,-1,1784,1002,0,0
567,22,0,0,0,0,0,0,0,0,0,-1,1791,1002,0,0
574,22,0,0,0,0,0,0,0,0,0,-1,1798,1002,0,0
581,22,0,0,0,0,0,0,0,0,0,-1,1805,1002,0,0
588,22,0,0,0,0,0,0,0,0,0,-1,1812,1002,0,0
595,22,0,0,0,0,0,0,0,0,0,-1,1819,1002,0,0
602,22,0,0,0,0,0,0,0,0,0,-1,1826,1002,0,0
609,22,0,0,0,0,0,0,0,0,0,-1,1833,1002,0,0
616,22,0,0,0,0,0,0,0,0,0,-1,1840,1002,0,0
623,22,0,0,0,0,0,0,0,0,0,-1,1847,1002,0,0
630,22,0,0,0,0,0,0,0,0,0,-1,1854,1002,0,0
637,22,0,0,0,0,0,0,0,0,0,-1,1861,1002,0,0
644,22,44.0437,2.45441,-0.00618461,0.00100753,0.000667456,0.00106895,-0.00624603,1.47904,0.00456227,0.0393125,1868,1002,44.0437,-2.45442
651,22,43.9827,2.57257,-0.00415569,0.000771739,0.000717439,0.000874074,-0.00425803,1.42911,0.00317046,0.0416881,1875,1002,43.9827,-2.57258
658,22,44.0583,2.71057,-0.00268452,0.000500509,0.000761512,0.000673215,-0.00285723,1.34778,0.00216441,0.0422487,1882,1002,44.0584,-2.7106
665,22,44.1343,2.74261,-0.00173229,0.000432868,0.00113426,0.000918256,-0.00221768,1.16644,0.00186162,0.0411112,1889,1002,44.1342,-2.74259
672,22,43.9917,2.6449,-0.00107295,0.000532366,0.00174522,0.00165066,-0.00219124,1.00093,0.00222543,0.0388185,1896,1002,43.9917,-2.6449
679,22,43.9895,2.62061,-0.000613877,0.000688751,0.00257894,0.00269735,-0.00262247,0.909087,0.0030715,0.038439,1903,1002,43.9895,-2.62063
686,22,44.0978,2.61298,-0.000278759,0.000672026,0.00338681,0.00361665,-0.00322338,0.855125,0.00395127,0.0398087,1910,1002,44.0978,-2.61299
693,22,44.2003,2.56024,-7.81264e-05,0.000595676,0.00396196,0.00423503,-0.00371749,0.827813,0.00459463,0.0382598,1917,1002,44.2003,-2.56026
700,22,44.1473,2.55286,4.23019e-05,0.000613581,0.00423271,0.00457028,-0.0039144,0.819089,0.00490351,0.0332943,1924,1002,44.1473,-2.55284
707,22,44.0596,2.65521,-4.17244e-05,0.000775636,0.00434117,0.00472732,-0.00399341,0.83233,0.00504085,0.0284661,1931,1002,44.0595,-2.65524
714,22,44.0542,2.86273,-0.000475904,0.00111495,0.00431781,0.00470998,-0.00407094,0.876487,0.00507414,0.0324443,1938,1002,44.0542,-2.86272
721,22,43.8328,4.14874,0,0,0,0,0,0,0,-1,1945,1002,43.8327,-4.14873
728,22,43.6951,4.8714,-0.00173294,0.00247659,0.0038504,0.00475995,-0.0040163,1.03553,0.00507303,0.0390674,1952,1002,43.6951,-4.87139
735,22,43.7249,5.33533,-0.00211189,0.00324093,0.00337984,0.00487573,-0.00374668,1.12028,0.00499236,0.0156337,1959,1002,43.7248,-5.33533
742,22,43.7368,5.43298,-0.00250289,0.00411392,0.00310623,0.0053436,-0.00373257,1.19385,0.00526757,0.0155549,1966,1002,43.7369,-5.43297
749,22,43.6967,5.53357,-0.00287619,0.00560122,0.00287117,0.00648211,-0.00375707,1.27311,0.00598098,0.012173,1973,1002,43.6967,-5.53359
756,22,43.6818,5.63043,-0.00237637,0.00805642,0.00263452,0.00868395,-0.00300391,1.33696,0.00700857,0.0170646,1980,1002,43.6817,-5.63046
763,22,43.6382,5.76288,-0.00119234,0.0113517,0.00230699,0.0117625,-0.00160316,1.39456,0.00842703,0.0187089,1987,1002,43.6382,-5.76287
770,22,43.5283,5.83527,0.000831384,0.0154338,0.00255223,0.015867,0.000398153,1.40265,0.0104478,0.0176115,1994,1002,43.5283,-5.83526
777,22,43.364,5.79163,0.00421873,0.0205998,0.00325177,0.0212217,0.00359684,1.38183,0.0131143,0.0366465,2001,1002,43.364,-5.79161
784,22,43.271,5.79962,0,0,0,0,0,0,0,-1,2008,1002,43.2709,-5.79961
791,22,42.3975,5.7442,0,0,0,0,0,0,0,-1,2015,1002,42.3975,-5.74421
798,22,42.9731,5.93829,0.0249519,0.0426836,0.00583595,0.0444319,0.0232035,1.27972,0.0256612,0.0465345,2022,1002,42.9732,-5.93827
805,22,43.217,6.22693,0.0364967,0.0536228,0.00549952,0.0552367,0.0348828,1.28535,0.0322566,0.0476414,2029,1002,43.2169,-6.22695
812,22,43.4707,6.27258,0.0506661,0.0675727,0.00349042,0.0682649,0.0499738,1.375,0.0408032,0.0472073,2036,1002,43.4708,-6.27256
-700,15,0,0,0,0,0,0,0,0,0,-1,524,1009,0,0
-693,15,-32.1491,1.34918,-0.00371023,-0.0111519,0.0613068,0.0539885,-0.0688507,0.755089,0.0710941,0.046862,531,1009,-32.1491,-1.34917
-686,15,-31.8541,1.63483,-0.00961843,-0.0120496,0.0543767,0.0435562,-0.0652243,0.774223,0.0632184,0.0447573,538,1009,-31.8541,-1.63484
-679,15,-31.6954,1.63239,-0.0128066,-0.00973576,0.0471337,0.0358876,-0.0584299,0.80168,0.0549702,0.0488809,545,1009,-31.6954,-1.63237
-672,15,-31.6008,1.69531,0,0,0,0,0,0,0,-1,552,1009,-31.6008,-1.69533
-665,15,-32.4049,1.68201,0,0,0,0,0,0,0,-1,559,1009,-32.4049,-1.68202
-658,15,-32.5333,2.17285,0,0,0,0,0,0,0,-1,566,1009,-32.5333,-2.17282
-651,15,-32.1564,1.62213,0,0,0,0,0,0,0,-1,573,1009,-32.1564,-1.62212
-644,15,-32.5574,2.40961,-0.00900271,0.00427041,0.0154853,0.0144814,-0.0192137,0.987844,0.0195177,0.0435218,580,1009,-32.5574,-2.4096
-637,15,-32.8137,2.84302,-0.00702109,0.00534074,0.0101831,0.011072,-0.0127523,1.05816,0.0137664,0.02663,587,1009,-32.8137,-2.84304
-630,15,-32.8464,2.84424,-0.00517083,0.00576386,0.00536448,0.00795612,-0.00736308,1.18285,0.00884675,0.0145256,594,1009,-32.8464,-2.84425
-623,15,-32.8948,2.79205,-0.00322729,0.00587449,0.0013384,0.00606722,-0.00342002,1.42778,0.00554808,0.00913756,601,1009,-32.8948,-2.79207
-616,15,-32.9244,2.75891,-0.00167397,0.00550013,-0.00160294,0.00584199,-0.00201583,-1.36067,0.00471258,0.0134431,608,1009,-32.9245,-2.7589
-609,15,-32.9341,2.73615,-0.00039804,0.00490438,-0.00350809,0.0066504,-0.00214406,-1.10898,0.00529501,0.0203495,615,1009,-32.9341,-2.73614
-602,15,-32.9589,2.66193,0.000395887,0.00398335,-0.00481472,0.00732761,-0.00294837,-0.963709,0.00610979,0.0199556,622,1009,-32.9588,-2.66195
-595,15,-32.7496,1.99841,0.000646242,0.00301604,-0.00543731,0.00739606,-0.00373377,-0.892681,0.00654074,0.0420883,629,1009,-32.7496,-1.9984
-588,15,-32.5377,1.40179,0.00107896,0.0015223,-0.00579319,0.00709806,-0.0044968,-0.804521,0.00675022,0.0493419,636,1009,-32.5376,-1.40179
-581,15,-32.472,0.691406,0,0,0,0,0,0,0,-1,643,1009,-32.472,-0.691433
-574,15,-32.5191,0.788696,0.00153463,-0.000112141,-0.00542263,0.00619603,-0.00477354,-0.710052,0.00635101,0.0322619,650,1009,-32.5191,-0.788677
-567,15,-32.5505,0.811035,0.00142284,-0.000998368,-0.00467993,0.00504622,-0.00462174,-0.658832,0.00558359,0.0334117,657,1009,-32.5505,-0.811048
-560,15,-32.5731,1.11041,0.00132454,-0.00193756,-0.0036886,0.00372661,-0.00433963,-0.577229,0.00466153,0.0377091,664,1009,-32.5731,-1.11041
-553,15,-32.6495,1.26764,0.00129304,-0.00297677,-0.0026096,0.00252975,-0.00421348,-0.442559,0.00393346,0.0363419,671,1009,-32.6496,-1.26762
-546,15,-32.6753,1.10077,0.00148627,-0.00415848,-0.00163248,0.00192438,-0.0045966,-0.262195,0.00386882,0.0373937,678,1009,-32.6753,-1.10076
-539,15,-32.5479,0.852112,0.00211551,-0.00482541,-0.00148854,0.00242127,-0.00513117,-0.202591,0.00445298,0.0403315,685,1009,-32.5479,-0.852101
-532,15,-32.5067,0.679382,0.00345418,-0.00417279,-0.00332809,0.0047022,-0.00542081,-0.358768,0.00584943,0.0412424,692,1009,-32.5066,-0.679408
-525,15,0,0,0,0,0,0,0,0,0,-1,699,1009,0,0
-518,15,0,0,0,0,0,0,0,0,0,-1,706,1009,0,0
-511,15,0,0,0,0,0,0,0,0,0,-1,713,1009,0,0
-504,15,0,0,0,0,0,0,0,0,0,-1,720,1009,0,0
-497,15,0,0,0,0,0,0,0,0,0,-1,727,1009,0,0
-490,15,0,0,0,0,0,0,0,0,0,-1,734,1009,0,0
-483,15,0,0,0,0,0,0,0,0,0,-1,741,1009,0,0
-476,15,0,0,0,0,0,0,0,0,0,-1,748,1009,0,0
-469,15,0,0,0,0,0,0,0,0,0,-1,755,1009,0,0
-462,15,0,0,0,0,0,0,0,0,0,-1,762,1009,0,0
-455,15,0,0,0,0,0,0,0,0,0,-1,769,1009,0,0
-448,15,0,0,0,0,0,0,0,0,0,-1,776,1009,0,0
-441,15,0,0,0,0,0,0,0,0,0,-1,783,1009,0,0
-434,15,0,0,0,0,0,0,0,0,0,-1,790,1009,0,0
-427,15,0,0,0,0,0,0,0,0,0,-1,797,1009,0,0
-420,15,0,0,0,0,0,0,0,0,0,-1,804,1009,0,0
-413,15,0,0,0,0,0,0,0,0,0,-1,811,1009,0,0
-406,15,0,0,0,0,0,0,0,0,0,-1,818,1009,0,0
-399,15,0,0,0,0,0,0,0,0,0,-1,825,1009,0,0
-392,15,0,0,0,0,0,0,0,0,0,-1,832,1009,0,0
-385,15,0,0,0,0,0,0,0,0,0,-1,839,1009,0,0
-378,15,0,0,0,0,0,0,0,0,0,-1,846,1009,0,0
-371,15,0,0,0,0,0,0,0,0,0,-1,853,1009,0,0
-364,15,0,0,0,0,0,0,0,0,0,-1,860,1009,0,0
-357,15,0,0,0,0,0,0,0,0,0,-1,867,1009,0,0
-350,15,0,0,0,0,0,0,0,0,0,-1,874,1009,0,0
-343,15,0,0,0,0,0,0,0,0,0,-1,881,1009,0,0
-336,15,0,0,0,0,0,0,0,0,0,-1,888,1009,0,0
-329,15,0,0,0,0,0,0,0,0,0,-1,895,1009,0,0
-322,15,0,0,0,0,0,0,0,0,0,-1,902,1009,0,0
-315,15,0,0,0,0,0,0,0,0,0,-1,909,1009,0,0
-308,15,0,0,0,0,0,0,0,0,0,-1,916,1009,0,0
-301,15,0,0,0,0,0,0,0,0,0,-1,923,1009,0,0
-294,15,0,0,0,0,0,0,0,0,0,-1,930,1009,0,0
-287,15,0,0,0,0,0,0,0,0,0,-1,937,1009,0,0
-280,15,0,0,0,0,0,0,0,0,0,-1,944,1009,0,0
-273,15,0,0,0,0,0,0,0,0,0,-1,951,1009,0,0
-266,15,0,0,0,0,0,0,0,0,0,-1,958,1009,0,0
-259,15,0,0,0,0,0,0,0,0,0,-1,965,1009,0,0
-252,15,0,0,0,0,0,0,0,0,0,-1,972,1009,0,0
-245,15,0,0,0,0,0,0,0,0,0,-1,979,1009,0,0
-238,15,0,0,0,0,0,0,0,0,0,-1,986,1009,0,0
-231,15,0,0,0,0,0,0,0,0,0,-1,993,1009,0,0
-224,15,0,0,0,0,0,0,0,0,0,-1,1000,1009,0,0
-217,15,0,0,0,0,0,0,0,0,0,-1,1007,1009,0,0
-210,15,0,0,0,0,0,0,0,0,0,-1,1014,1009,0,0
-203,15,0,0,0,0,0,0,0,0,0,-1,1021,1009,0,0
-196,15,0,0,0,0,0,0,0,0,0,-1,1028,1009,0,0
-189,15,0,0,0,0,0,0,0,0,0,-1,1035,1009,0,0
-182,15,0,0,0,0,0,0,0,0,0,-1,1042,1009,0,0
-175,15,0,0,0,0,0,0,0,0,0,-1,1049,1009,0,0
-168,15,0,0,0,0,0,0,0,0,0,-1,1056,1009,0,0
-161,15,0,0,0,0,0,0,0,0,0,-1,1063,1009,0,0
-154,15,0,0,0,0,0,0,0,0,0,-1,1070,1009,0,0
-147,15,0,0,0,0,0,0,0,0,0,-1,1077,1009,0,0
-140,15,0,0,0,0,0,0,0,0,0,-1,1084,1009,0,0
-133,15,0,0,0,0,0,0,0,0,0,-1,1091,1009,0,0
-126,15,0,0,0,0,0,0,0,0,0,-1,1098,1009,0,0
-119,15,0,0,0,0,0,0,0,0,0,-1,1105,1009,0,0
-112,15,0,0,0,0,0,0,0,0,0,-1,1112,1009,0,0
-105,15,0,0,0,0,0,0,0,0,0,-1,1119,1009,0,0
-98,15,0,0,0,0,0,0,0,0,0,-1,1126,1009,0,0
-91,15,0,0,0,0,0,0,0,0,0,-1,1133,1009,0,0
-84,15,0,0,0,0,0,0,0,0,0,-1,1140,1009,0,0
-77,15,0,0,0,0,0,0,0,0,0,-1,1147,1009,0,0
-70,15,0,0,0,0,0,0,0,0,0,-1,1154,1009,0,0
-63,15,0,0,0,0,0,0,0,0,0,-1,1161,1009,0,0
-56,15,0,0,0,0,0,0,0,0,0,-1,1168,1009,0,0
-49,15,0,0,0,0,0,0,0,0,0,-1,1175,1009,0,0
-42,15,0,0,0,0,0,0,0,0,0,-1,1182,1009,0,0
-35,15,0,0,0,0,0,0,0,0,0,-1,1189,1009,0,0
-28,15,0,0,0,0,0,0,0,0,0,-1,1196,1009,0,0
-21,15,0,0,0,0,0,0,0,0,0,-1,1203,1009,0,0
-14,15,0,0,0,0,0,0,0,0,0,-1,1210,1009,0,0
-7,15,0,0,0,0,0,0,0,0,0,-1,1217,1009,0,0
0,15,0,0,0,0,0,0,0,0,0,-1,1224,1009,0,0
7,15,0,0,0,0,0,0,0,0,0,-1,1231,1009,0,0
14,15,0,0,0,0,0,0,0,0,0,-1,1238,1009,0,0
21,15,0,0,0,0,0,0,0,0,0,-1,1245,1009,0,0
28,15,0,0,0,0,0,0,0,0,0,-1,1252,1009,0,0
35,15,0,0,0,0,0,0,0,0,0,-1,1259,1009,0,0
42,15,0,0,0,0,0,0,0,0,0,-1,1266,1009,0,0
49,15,0,0,0,0,0,0,0,0,0,-1,1273,1009,0,0
56,15,0,0,0,0,0,0,0,0,0,-1,1280,1009,0,0
63,15,0,0,0,0,0,0,0,0,0,-1,1287,1009,0,0
70,15,0,0,0,0,0,0,0,0,0,-1,1294,1009,0,0
77,15,0,0,0,0,0,0,0,0,0,-1,1301,1009,0,0
84,15,0,0,0,0,0,0,0,0,0,-1,1308,1009,0,0
91,15,0,0,0,0,0,0,0,0,0,-1,1315,1009,0,0
98,15,0,0,0,0,0,0,0,0,0,-1,1322,1009,0,0
105,15,0,0,0,0,0,0,0,0,0,-1,1329,1009,0,0
112,15,0,0,0,0,0,0,0,0,0,-1,1336,1009,0,0
119,15,0,0,0,0,0,0,0,0,0,-1,1343,1009,0,0
126,15,0,0,0,0,0,0,0,0,0,-1,1350,1009,0,0
133,15,0,0,0,0,0,0,0,0,0,-1,1357,1009,0,0
140,15,0,0,0,0,0,0,0,0,0,-1,1364,1009,0,0
147,15,0,0,0,0,0,0,0,0,0,-1,1371,1009,0,0
154,15,0,0,0,0,0,0,0,0,0,-1,1378,1009,0,0
161,15,0,0,0,0,0,0,0,0,0,-1,1385,1009,0,0
168,15,0,0,0,0,0,0,0,0,0,-1,1392,1009,0,0
175,15,0,0,0,0,0,0,0,0,0,-1,1399,1009,0,0
182,15,0,0,0,0,0,0,0,0,0,-1,1406,1009,0,0
189,15,0,0,0,0,0,0,0,0,0,-1,1413,1009,0,0
196,15,0,0,0,0,0,0,0,0,0,-1,1420,1009,0,0
203,15,0,0,0,0,0,0,0,0,0,-1,1427,1009,0,0
210,15,0,0,0,0,0,0,0,0,0,-1,1434,1009,0,0
217,15,0,0,0,0,0,0,0,0,0,-1,1441,1009,0,0
224,15,0,0,0,0,0,0,0,0,0,-1,1448,1009,0,0
231,15,0,0,0,0,0,0,0,0,0,-1,1455,1009,0,0
238,15,0,0,0,0,0,0,0,0,0,-1,1462,1009,0,0
245,15,0,0,0,0,0,0,0,0,0,-1,1469,1009,0,0
252,15,0,0,0,0,0,0,0,0,0,-1,1476,1009,0,0
259,15,0,0,0,0,0,0,0,0,0,-1,1483,1009,0,0
266,15,0,0,0,0,0,0,0,0,0,-1,1490,1009,0,0
273,15,0,0,0,0,0,0,0,0,0,-1,1497,1009,0,0
280,15,0,0,0,0,0,0,0,0,0,-1,1504,1009,0,0
287,15,0,0,0,0,0,0,0,0,0,-1,1511,1009,0,0
294,15,0,0,0,0,0,0,0,0,0,-1,1518,1009,0,0
301,15,0,0,0,0,0,0,0,0,0,-1,1525,1009,0,0
308,15,0,0,0,0,0,0,0,0,0,-1,1532,1009,0,0
315,15,0,0,0,0,0,0,0,0,0,-1,1539,1009,0,0
322,15,0,0,0,0,0,0,0,0,0,-1,1546,1009,0,0
329,15,0,0,0,0,0,0,0,0,0,-1,1553,1009,0,0
336,15,0,0,0,0,0,0,0,0,0,-1,1560,1009,0,0
343,15,0,0,0,0,0,0,0,0,0,-1,1567,1009,0,0
350,15,0,0,0,0,0,0,0,0,0,-1,1574,1009,0,0
357,15,0,0,0,0,0,0,0,0,0,-1,1581,1009,0,0
364,15,0,0,0,0,0,0,0,0,0,-1,1588,1009,0,0
371,15,0,0,0,0,0,0,0,0,0,-1,1595,1009,0,0
378,15,0,0,0,0,0,0,0,0,0,-1,1602,1009,0,0
385,15,0,0,0,0,0,0,0,0,0,-1,1609,1009,0,0
392,15,0,0,0,0,0,0,0,0,0,-1,1616,1009,0,0
399,15,0,0,0,0,0,0,0,0,0,-1,1623,1009,0,0
406,15,0,0,0,0,0,0,0,0,0,-1,1630,1009,0,0
413,15,0,0,0,0,0,0,0,0,0,-1,1637,1009,0,0
420,15,0,0,0,0,0,0,0,0,0,-1,1644,1009,0,0
427,15,0,0,0,0,0,0,0,0,0,-1,1651,1009,0,0
434,15,0,0,0,0,0,0,0,0,0,-1,1658,1009,0,0
441,15,0,0,0,0,0,0,0,0,0,-1,1665,1009,0,0
448,15,0,0,0,0,0,0,0,0,0,-1,1672,1009,0,0
455,15,0,0,0,0,0,0,0,0,0,-1,1679,1009,0,0
462,15,0,0,0,0,0,0,0,0,0,-1,1686,1009,0,0
469,15,0,0,0,0,0,0,0,0,0,-1,1693,1009,0,0
476,15,0,0,0,0,0,0,0,0,0,-1,1700,1009,0,0
483,15,0,0,0,0,0,0,0,0,0,-1,1707,1009,0,0
490,15,0,0,0,0,0,0,0,0,0,-1,1714,1009,0,0
497,15,0,0,0,0,0,0,0,0,0,-1,1721,1009,0,0
504,15,0,0,0,0,0,0,0,0,0,-1,1728,1009,0,0
511,15,0,0,0,0,0,0,0,0,0,-1,1735,1009,0,0
518,15,0,0,0,0,0,0,0,0,0,-1,1742,1009,0,0
525,15,0,0,0,0,0,0,0,0,0,-1,1749,1009,0,0
532,15,0,0,0,0,0,0,0,0,0,-1,1756,1009,0,0
539,15,0,0,0,0,0,0,0,0,0,-1,1763,1009,0,0
546,15,0,0,0,0,0,0,0,0,0,-1,1770,1009,0,0
553,15,0,0,0,0,0,0,0,0,0,-1,1777,1009,0,0
560,15,0,0,0,0,0,0,0,0,0,-1,1784,1009,0,0
567,15,0,0,0,0,0,0,0,0,0,-1,1791,1009,0,0
574,15,0,0,0,0,0,0,0,0,0,-1,1798,1009,0,0
581,15,0,0,0,0,0,0,0,0,0,-1,1805,1009,0,0
588,15,0,0,0,0,0,0,0,0,0,-1,1812,1009,0,0
595,15,0,0,0,0,0,0,0,0,0,-1,1819,1009,0,0
602,15,0,0,0,0,0,0,0,0,0,-1,1826,1009,0,0
609,15,0,0,0,0,0,0,0,0,0,-1,1833,1009,0,0
616,15,0,0,0,0,0,0,0,0,0,-1,1840,1009,0,0
623,15,0,0,0,0,0,0,0,0,0,-1,1847,1009,0,0
630,15,0,0,0,0,0,0,0,0,0,-1,1854,1009,0,0
637,15,0,0,0,0,0,0,0,0,0,-1,1861,1009,0,0
644,15,44.1433,2.46014,-0.00652566,0.000151626,0.000899695,0.000270726,-0.00664476,1.43918,0.00452278,0.0392805,1868,1009,44.1433,-2.46014
651,15,44.1306,2.47412,-0.00451194,0.000229739,0.000850818,0.000377782,-0.00465998,1.39852,0.00323993,0.0386913,1875,1009,44.1306,-2.47411
658,15,44.0902,2.52039,-0.00294949,0.000161155,0.000815274,0.000361879,-0.00315021,1.32939,0.00223057,0.039135,1882,1009,44.0903,-2.5204
665,15,44.1008,2.45392,-0.00191593,0.000204445,0.00108991,0.000664751,-0.00237624,1.17119,0.00184608,0.040068,1889,1009,44.1008,-2.45394
672,15,44.0762,2.58582,-0.00117608,0.000391002,0.00161582,0.00140323,-0.00218831,1.01115,0.00209003,0.0393858,1896,1009,44.0762,-2.58579
679,15,44.1611,2.59601,-0.00062206,0.000614334,0.00239033,0.00246511,-0.00247284,0.911938,0.00285093,0.0383224,1903,1009,44.1611,-2.59603
686,15,44.2001,2.58704,-0.000224001,0.000632776,0.00318788,0.00342092,-0.00301215,0.852188,0.00371663,0.0430263,1910,1009,44.2001,-2.58703
693,15,44.1515,2.53412,2.48783e-05,0.000579279,0.00379154,0.00410374,-0.00349958,0.821888,0.0043944,0.0404734,1917,1009,44.1515,-2.53413
700,15,44.1313,2.54761,0.000178054,0.000592248,0.00411382,0.00450418,-0.00373388,0.810548,0.00476317,0.031804,1924,1009,44.1314,-2.54763
707,15,44.0859,2.64258,0.000147244,0.00073174,0.00425617,0.00470569,-0.0038267,0.819677,0.00493488,0.026502,1931,1009,44.0859,-2.6426
714,15,44.087,2.72815,-0.000256829,0.00105444,0.00428577,0.00473443,-0.00393683,0.861299,0.00501341,0.0241789,1938,1009,44.0871,-2.72815
721,15,43.8894,3.70007,0,0,0,0,0,0,0,-1,1945,1009,43.8894,-3.70009
728,15,43.6704,4.90363,-0.00164038,0.0023959,0.00390456,0.00477304,-0.00401752,1.02392,0.00508148,0.0431096,1952,1009,43.6704,-4.90364
735,15,43.808,5.36639,-0.00199586,0.00317106,0.00348843,0.0049285,-0.0037533,1.10412,0.00502772,0.0181189,1959,1009,43.808,-5.36642
742,15,43.7954,5.51038,-0.00238601,0.00399038,0.00326596,0.0053663,-0.00376192,1.17207,0.00529724,0.0269908,1966,1009,43.7954,-5.51039
749,15,43.793,5.5697,-0.00279726,0.00552891,0.00308321,0.00654631,-0.00381466,1.25207,0.00605081,0.0167768,1973,1009,43.7929,-5.56973
756,15,43.7955,5.55963,-0.0024257,0.00798714,0.00292195,0.00875103,-0.00318959,1.31509,0.00713882,0.0150493,1980,1009,43.7956,-5.55961
763,15,43.7456,5.66339,-0.00137906,0.0112466,0.00268215,0.0117928,-0.00192522,1.36991,0.00857591,0.0132931,1987,1009,43.7456,-5.66338
770,15,43.625,5.69666,0.000439107,0.0152662,0.00296814,0.0158383,-0.00013299,1.38039,0.0106035,0.0188139,1994,1009,43.625,-5.69665
777,15,43.3619,5.74426,0.00357994,0.0204316,0.00378509,0.0212428,0.00276881,1.35969,0.0133351,0.0420743,2001,1009,43.3619,-5.74429
784,15,43.1604,5.77045,0,0,0,0,0,0,0,-1,2008,1009,43.1603,-5.77047
791,15,42.7827,4.54572,0.0141984,0.0334809,0.00624189,0.0353251,0.0123542,1.28352,0.0206997,0.047643,2015,1009,42.7828,-4.54573
798,15,43.1084,5.49805,0.022316,0.0419272,0.00740201,0.0444073,0.0198359,1.24749,0.0256871,0.0481365,2022,1009,43.1084,-5.49804
805,15,43.4771,5.65674,0.0326241,0.0523275,0.00798338,0.0551561,0.0297955,1.23029,0.0318787,0.0433553,2029,1009,43.477,-5.65674
812,15,44.0613,5.64508,0.0450746,0.0653958,0.00740519,0.067808,0.0426625,1.25589,0.039582,0.0441286,2036,1009,44.0613,-5.64509
-700,8,0,0,0,0,0,0,0,0,0,-1,524,1016,0,0
-693,8,-32.6207,1.73444,0,0,0,0,0,0,0,-1,531,1016,-32.6207,-1.73444
-686,8,-32.3477,1.62286,0.00182073,-0.00455583,0.054713,0.0534383,-0.0561734,0.756295,0.0632909,0.042013,538,1016,-32.3477,-1.62284
-679,8,-32.1986,1.49219,-0.00452101,-0.00406731,0.0470679,0.0427743,-0.0513626,0.787808,0.0544253,0.0430954,545,1016,-32.1986,-1.49216
-672,8,-32.1312,1.69446,-0.00789066,-0.00200734,0.0395767,0.0347369,-0.0446349,0.822494,0.0459439,0.0466241,552,1016,-32.1313,-1.69445
-665,8,-32.2781,1.99744,-0.00929554,0.000465133,0.0324739,0.0284233,-0.0372537,0.859983,0.0380328,0.0432472,559,1016,-32.2781,-1.99746
-658,8,-32.6685,2.2569,-0.00950452,0.00270955,0.0259274,0.0232395,-0.0300345,0.901061,0.030841,0.0387925,566,1016,-32.6685,-2.25692
-651,8,-32.3589,2.52954,0,0,0,0,0,0,0,-1,573,1016,-32.3589,-2.52956
-644,8,-32.6612,2.56488,0,0,0,0,0,0,0,-1,580,1016,-32.6612,-2.56489
-637,8,-32.7051,2.69104,-0.0063616,0.00603673,0.00927248,0.0109914,-0.0113163,1.08005,0.0128798,0.0364086,587,1016,-32.7051,-2.69101
-630,8,-32.8563,2.78479,-0.00481162,0.00612614,0.00448853,0.00773225,-0.00641773,1.22717,0.00818124,0.020336,594,1016,-32.8563,-2.78479
-623,8,-32.8558,2.80164,-0.00314397,0.00592628,0.00056394,0.00596121,-0.0031789,1.50894,0.00535792,0.0140301,601,1016,-32.8558,-2.80165
-616,8,-32.8871,2.7677,-0.00176156,0.00537944,-0.0022595,0.00603432,-0.00241644,-1.28869,0.00502588,0.0140093,608,1016,-32.8872,-2.76771
-609,8,-32.9274,2.74005,-0.000553205,0.00476279,-0.00404839,0.00694777,-0.00273819,-1.07588,0.00576555,0.0176845,615,1016,-32.9274,-2.74006
-602,8,-32.8928,2.74872,0.000327403,0.00388997,-0.00524213,0.0076452,-0.00342782,-0.949179,0.00654575,0.0205633,622,1016,-32.8928,-2.74871
-595,8,-32.8784,2.70142,0,0,0,0,0,0,0,-1,629,1016,-32.8784,-2.70143
-588,8,-32.5223,0.950134,0,0,0,0,0,0,0,-1,636,1016,-32.5223,-0.950155
-581,8,-32.4428,0.820557,0,0,0,0,0,0,0,-1,643,1016,-32.4428,-0.820549
-574,8,-32.53,0.877075,0.00159708,0.000304712,-0.005415,0.00640432,-0.00450252,-0.726013,0.0063289,0.0360284,650,1016,-32.53,-0.877052
-567,8,-32.6254,1.14203,0.00143716,-0.000437923,-0.00457345,0.00516818,-0.00416894,-0.684301,0.00540107,0.0391748,657,1016,-32.6254,-1.14204
-560,8,-32.608,1.33008,0.00121411,-0.0012606,-0.00346422,0.00365532,-0.00370182,-0.613869,0.00424768,0.0400948,664,1016,-32.608,-1.3301
-553,8,-32.5609,1.34753,0.00091939,-0.00225757,-0.00223986,0.00207686,-0.00341504,-0.476966,0.00320197,0.0390068,671,1016,-32.5608,-1.34752
-546,8,-32.5951,1.17102,0.000659958,-0.00354067,-0.00108432,0.00092334,-0.00380405,-0.238287,0.00289335,0.0386636,678,1016,-32.5951,-1.17099
-539,8,-32.605,0.952148,0.000607428,-0.00441799,-0.000819926,0.00073782,-0.00454839,-0.157709,0.00330576,0.0408777,685,1016,-32.605,-0.95216
-532,8,-32.5237,0.968018,0.0010093,-0.00409016,-0.00260141,0.00210216,-0.00518302,-0.397715,0.00432965,0.0416565,692,1016,-32.5237,-0.968026
-525,8,0,0,0,0,0,0,0,0,0,-1,699,1016,0,0
-518,8,0,0,0,0,0,0,0,0,0,-1,706,1016,0,0
-511,8,0,0,0,0,0,0,0,0,0,-1,713,1016,0,0
-504,8,0,0,0,0,0,0,0,0,0,-1,720,1016,0,0
-497,8,0,0,0,0,0,0,0,0,0,-1,727,1016,0,0
-490,8,0,0,0,0,0,0,0,0,0,-1,734,1016,0,0
-483,8,0,0,0,0,0,0,0,0,0,-1,741,1016,0,0
-476,8,0,0,0,0,0,0,0,0,0,-1,748,1016,0,0
-469,8,0,0,0,0,0,0,0,0,0,-1,755,1016,0,0
-462,8,0,0,0,0,0,0,0,0,0,-1,762,1016,0,0
-455,8,0,0,0,0,0,0,0,0,0,-1,769,1016,0,0
-448,8,0,0,0,0,0,0,0,0,0,-1,776,1016,0,0
-441,8,0,0,0,0,0,0,0,0,0,-1,783,1016,0,0
-434,8,0,0,0,0,0,0,0,0,0,-1,790,1016,0,0
-427,8,0,0,0,0,0,0,0,0,0,-1,797,1016,0,0
-420,8,0,0,0,0,0,0,0,0,0,-1,804,1016,0,0
-413,8,0,0,0,0,0,0,0,0,0,-1,811,1016,0,0
-406,8,0,0,0,0,0,0,0,0,0,-1,818,1016,0,0
-399,8,0,0,0,0,0,0,0,0,0,-1,825,1016,0,0
-392,8,0,0,0,0,0,0,0,0,0,-1,832,1016,0,0
-385,8,0,0,0,0,0,0,0,0,0,-1,839,1016,0,0
-378,8,0,0,0,0,0,0,0,0,0,-1,846,1016,0,0
-371,8,0,0,0,0,0,0,0,0,0,-1,853,1016,0,0
-364,8,0,0,0,0,0,0,0,0,0,-1,860,1016,0,0
-357,8,0,0,0,0,0,0,0,0,0,-1,867,1016,0,0
-350,8,0,0,0,0,0,0,0,0,0,-1,874,1016,0,0
-343,8,0,0,0,0,0,0,0,0,0,-1,881,1016,0,0
-336,8,0,0,0,0,0,0,0,0,0,-1,888,1016,0,0
-329,8,0,0,0,0,0,0,0,0,0,-1,895,1016,0,0
-322,8,0,0,0,0,0,0,0,0,0,-1,902,1016,0,0
-315,8,0,0,0,0,0,0,0,0,0,-1,909,1016,0,0
-308,8,0,0,0,0,0,0,0,0,0,-1,916,1016,0,0
-301,8,0,0,0,0,0,0,0,0,0,-1,923,1016,0,0
-294,8,0,0,0,0,0,0,0,0,0,-1,930,1016,0,0
-287,8,0,0,0,0,0,0,0,0,0,-1,937,1016,0,0
-280,8,0,0,0,0,0,0,0,0,0,-1,944,1016,0,0
-273,8,0,0,0,0,0,0,0,0,0,-1,951,1016,0,0
-266,8,0,0,0,0,0,0,0,0,0,-1,958,1016,0,0
-259,8,0,0,0,0,0,0,0,0,0,-1,965,1016,0,0
-252,8,0,0,0,0,0,0,0,0,0,-1,972,1016,0,0
-245,8,0,0,0,0,0,0,0,0,0,-1,979,1016,0,0
-238,8,0,0,0,0,0,0,0,0,0,-1,986,1016,0,0
-231,8,0,0,0,0,0,0,0,0,0,-1,993,1016,0,0
-224,8,0,0,0,0,0,0,0,0,0,-1,1000,1016,0,0
-217,8,0,0,0,0,0,0,0,0,0,-1,1007,1016,0,0
-210,8,0,0,0,0,0,0,0,0,0,-1,1014,1016,0,0
-203,8,0,0,0,0,0,0,0,0,0,-1,1021,1016,0,0
-196,8,0,0,0,0,0,0,0,0,0,-1,1028,1016,0,0
-189,8,0,0,0,0,0,0,0,0,0,-1,1035,1016,0,0
-182,8,0,0,0,0,0,0,0,0,0,-1,1042,1016,0,0
-175,8,0,0,0,0,0,0,0,0,0,-1,1049,1016,0,0
-168,8,0,0,0,0,0,0,0,0,0,-1,1056,1016,0,0
-161,8,0,0,0,0,0,0,0,0,0,-1,1063,1016,0,0
-154,8,0,0,0,0,0,0,0,0,0,-1,1070,1016,0,0
-147,8,0,0,0,0,0,0,0,0,0,-1,1077,1016,0,0
-140,8,0,0,0,0,0,0,0,0,0,-1,1084,1016,0,0
-133,8,0,0,0,0,0,0,0,0,0,-1,1091,1016,0,0
-126,8,0,0,0,0,0,0,0,0,0,-1,1098,1016,0,0
-119,8,0,0,0,0,0,0,0,0,0,-1,1105,1016,0,0
-112,8,0,0,0,0,0,0,0,0,0,-1,1112,1016,0,0
-105,8,0,0,0,0,0,0,0,0,0,-1,1119,1016,0,0
-98,8,0,0,0,0,0,0,0,0,0,-1,1126,1016,0,0
-91,8,0,0,0,0,0,0,0,0,0,-1,1133,1016,0,0
-84,8,0,0,0,0,0,0,0,0,0,-1,1140,1016,0,0
-77,8,0,0,0,0,0,0,0,0,0,-1,1147,1016,0,0
-70,8,0,0,0,0,0,0,0,0,0,-1,1154,1016,0,0
-63,8,0,0,0,0,0,0,0,0,0,-1,1161,1016,0,0
-56,8,0,0,0,0,0,0,0,0,0,-1,1168,1016,0,0
-49,8,0,0,0,0,0,0,0,0,0,-1,1175,1016,0,0
-42,8,0,0,0,0,0,0,0,0,0,-1,1182,1016,0,0
-35,8,0,0,0,0,0,0,0,0,0,-1,1189,1016,0,0
-28,8,0,0,0,0,0,0,0,0,0,-1,1196,1016,0,0
-21,8,0,0,0,0,0,0,0,0,0,-1,1203,1016,0,0
-14,8,0,0,0,0,0,0,0,0,0,-1,1210,1016,0,0
-7,8,0,0,0,0,0,0,0,0,0,-1,1217,1016,0,0
0,8,0,0,0,0,0,0,0,0,0,-1,1224,1016,0,0
7,8,0,0,0,0,0,0,0,0,0,-1,1231,1016,0,0
14,8,0,0,0,0,0,0,0,0,0,-1,1238,1016,0,0
21,8,0,0,0,0,0,0,0,0,0,-1,1245,1016,0,0
28,8,0,0,0,0,0,0,0,0,0,-1,1252,1016,0,0
35,8,0,0,0,0,0,0,0,0,0,-1,1259,1016,0,0
42,8,0,0,0,0,0,0,0,0,0,-1,1266,1016,0,0
49,8,0,0,0,0,0,0,0,0,0,-1,1273,1016,0,0
56,8,0,0,0,0,0,0,0,0,0,-1,1280,1016,0,0
63,8,0,0,0,0,0,0,0,0,0,-1,1287,1016,0,0
70,8,0,0,0,0,0,0,0,0,0,-1,1294,1016,0,0
77,8,0,0,0,0,0,0,0,0,0,-1,1301,1016,0,0
84,8,0,0,0,0,0,0,0,0,0,-1,1308,1016,0,0
91,8,0,0,0,0,0,0,0,0,0,-1,1315,1016,0,0
98,8,0,0,0,0,0,0,0,0,0,-1,1322,1016,0,0
105,8,0,0,0,0,0,0,0,0,0,-1,1329,1016,0,0
112,8,0,0,0,0,0,0,0,0,0,-1,1336,1016,0,0
119,8,0,0,0,0,0,0,0,0,0,-1,1343,1016,0,0
126,8,0,0,0,0,0,0,0,0,0,-1,1350,1016,0,0
133,8,0,0,0,0,0,0,0,0,0,-1,1357,1016,0,0
140,8,0,0,0,0,0,0,0,0,0,-1,1364,1016,0,0
147,8,0,0,0,0,0,0,0,0,0,-1,1371,1016,0,0
154,8,0,0,0,0,0,0,0,0,0,-1,1378,1016,0,0
161,8,0,0,0,0,0,0,0,0,0,-1,1385,1016,0,0
168,8,0,0,0,0,0,0,0,0,0,-1,1392,1016,0,0
175,8,0,0,0,0,0,0,0,0,0,-1,1399,1016,0,0
182,8,0,0,0,0,0,0,0,0,0,-1,1406,1016,0,0
189,8,0,0,0,0,0,0,0,0,0,-1,1413,1016,0,0
196,8,0,0,0,0,0,0,0,0,0,-1,1420,1016,0,0
203,8,0,0,0,0,0,0,0,0,0,-1,1427,1016,0,0
210,8,0,0,0,0,0,0,0,0,0,-1,1434,1016,0,0
217,8,0,0,0,0,0,0,0,0,0,-1,1441,1016,0,0
224,8,0,0,0,0,0,0,0,0,0,-1,1448,1016,0,0
231,8,0,0,0,0,0,0,0,0,0,-1,1455,1016,0,0
238,8,0,0,0,0,0,0,0,0,0,-1,1462,1016,0,0
245,8,0,0,0,0,0,0,0,0,0,-1,1469,1016,0,0
252,8,0,0,0,0,0,0,0,0,0,-1,1476,1016,0,0
259,8,0,0,0,0,0,0,0,0,0,-1,1483,1016,0,0
266,8,0,0,0,0,0,0,0,0,0,-1,1490,1016,0,0
273,8,0,0,0,0,0,0,0,0,0,-1,1497,1016,0,0
280,8,0,0,0,0,0,0,0,0,0,-1,1504,1016,0,0
287,8,0,0,0,0,0,0,0,0,0,-1,1511,1016,0,0
294,8,0,0,0,0,0,0,0,0,0,-1,1518,1016,0,0
301,8,0,0,0,0,0,0,0,0,0,-1,1525,1016,0,0
308,8,0,0,0,0,0,0,0,0,0,-1,1532,1016,0,0
315,8,0,0,0,0,0,0,0,0,0,-1,1539,1016,0,0
322,8,0,0,0,0,0,0,0,0,0,-1,1546,1016,0,0
329,8,0,0,0,0,0,0,0,0,0,-1,1553,1016,0,0
336,8,0,0,0,0,0,0,0,0,0,-1,1560,1016,0,0
343,8,0,0,0,0,0,0,0,0,0,-1,1567,1016,0,0
350,8,0,0,0,0,0,0,0,0,0,-1,1574,1016,0,0
357,8,0,0,0,0,0,0,0,0,0,-1,1581,1016,0,0
364,8,0,0,0,0,0,0,0,0,0,-1,1588,1016,0,0
371,8,0,0,0,0,0,0,0,0,0,-1,1595,1016,0,0
378,8,0,0,0,0,0,0,0,0,0,-1,1602,1016,0,0
385,8,0,0,0,0,0,0,0,0,0,-1,1609,1016,0,0
392,8,0,0,0,0,0,0,0,0,0,-1,1616,1016,0,0
399,8,0,0,0,0,0,0,0,0,0,-1,1623,1016,0,0
406,8,0,0,0,0,0,0,0,0,0,-1,1630,1016,0,0
413,8,0,0,0,0,0,0,0,0,0,-1,1637,1016,0,0
420,8,0,0,0,0,0,0,0,0,0,-1,1644,1016,0,0
427,8,0,0,0,0,0,0,0,0,0,-1,1651,1016,0,0
434,8,0,0,0,0,0,0,0,0,0,-1,1658,1016,0,0
441,8,0,0,0,0,0,0,0,0,0,-1,1665,1016,0,0
448,8,0,0,0,0,0,0,0,0,0,-1,1672,1016,0,0
455,8,0,0,0,0,0,0,0,0,0,-1,1679,1016,0,0
462,8,0,0,0,0,0,0,0,0,0,-1,1686,1016,0,0
469,8,0,0,0,0,0,0,0,0,0,-1,1693,1016,0,0
476,8,0,0,0,0,0,0,0,0,0,-1,1700,1016,0,0
483,8,0,0,0,0,0,0,0,0,0,-1,1707,1016,0,0
490,8,0,0,0,0,0,0,0,0,0,-1,1714,1016,0,0
497,8,0,0,0,0,0,0,0,0,0,-1,1721,1016,0,0
504,8,0,0,0,0,0,0,0,0,0,-1,1728,1016,0,0
511,8,0,0,0,0,0,0,0,0,0,-1,1735,1016,0,0
518,8,0,0,0,0,0,0,0,0,0,-1,1742,1016,0,0
525,8,0,0,0,0,0,0,0,0,0,-1,1749,1016,0,0
532,8,0,0,0,0,0,0,0,0,0,-1,1756,1016,0,0
539,8,0,0,0,0,0,0,0,0,0,-1,1763,1016,0,0
546,8,0,0,0,0,0,0,0,0,0,-1,1770,1016,0,0
553,8,0,0,0,0,0,0,0,0,0,-1,1777,1016,0,0
560,8,0,0,0,0,0,0,0,0,0,-1,1784,1016,0,0
567,8,0,0,0,0,0,0,0,0,0,-1,1791,1016,0,0
574,8,0,0,0,0,0,0,0,0,0,-1,1798,1016,0,0
581,8,0,0,0,0,0,0,0,0,0,-1,1805,1016,0,0
588,8,0,0,0,0,0,0,0,0,0,-1,1812,1016,0,0
595,8,0,0,0,0,0,0,0,0,0,-1,1819,1016,0,0
602,8,0,0,0,0,0,0,0,0,0,-1,1826,1016,0,0
609,8,0,0,0,0,0,0,0,0,0,-1,1833,1016,0,0
616,8,0,0,0,0,0,0,0,0,0,-1,1840,1016,0,0
623,8,0,0,0,0,0,0,0,0,0,-1,1847,1016,0,0
630,8,0,0,0,0,0,0,0,0,0,-1,1854,1016,0,0
637,8,0,0,0,0,0,0,0,0,0,-1,1861,1016,0,0
644,8,44.1257,2.53717,-0.00670991,0.000592043,0.000697323,0.000658039,-0.0067759,1.47643,0.00475183,0.0398668,1868,1016,44.1258,-2.53715
651,8,44.1069,2.40192,-0.00473237,0.000697359,0.000648384,0.000773711,-0.00480872,1.45358,0.0034924,0.0382329,1875,1016,44.1069,-2.40192
658,8,43.9954,2.37927,-0.00312733,0.000633509,0.000620557,0.000733258,-0.00322708,1.41142,0.00243292,0.0396461,1882,1016,43.9953,-2.37925
665,8,44.0269,2.38403,-0.00203815,0.000633822,0.000842895,0.000877497,-0.00228183,1.28938,0.00188315,0.0410987,1889,1016,44.0268,-2.384
672,8,44.1202,2.50659,-0.00125211,0.000767435,0.00130837,0.00141038,-0.00189506,1.11405,0.00191522,0.0407492,1896,1016,44.1202,-2.50659
679,8,44.1733,2.39526,-0.000639966,0.000936507,0.00202101,0.00231756,-0.00202102,0.971335,0.00250683,0.0388964,1903,1016,44.1733,-2.39527
686,8,44.0515,2.63074,-0.00021457,0.000890411,0.0027903,0.00318239,-0.00250655,0.883136,0.00329223,0.0396808,1910,1016,44.0515,-2.63073
693,8,44.0116,2.72784,6.03303e-05,0.000764065,0.00340964,0.00383995,-0.00301555,0.836815,0.00396755,0.0375129,1917,1016,44.0116,-2.72783
700,8,44.1304,2.63892,0.000231603,0.000717795,0.00377329,0.00425582,-0.00330642,0.817566,0.00437751,0.0308417,1924,1016,44.1303,-2.63892
707,8,44.0978,2.58154,0.00023173,0.000793609,0.00394705,0.0044697,-0.00344436,0.820927,0.00458195,0.0232806,1931,1016,44.0978,-2.58154
714,8,44.0956,2.58789,-0.000168921,0.00105324,0.00403243,0.00452063,-0.00363631,0.860597,0.00471863,0.0207941,1938,1016,44.0955,-2.58792
721,8,44.0773,3.64539,0,0,0,0,0,0,0,-1,1945,1016,44.0772,-3.64538
728,8,43.7635,4.89264,-0.0016422,0.00230123,0.0037688,0.00458293,-0.0039239,1.0264,0.00491633,0.0406962,1952,1016,43.7635,-4.89266
735,8,43.7288,5.3847,-0.00196197,0.00306814,0.00342654,0.00480358,-0.00369741,1.10199,0.00492188,0.0372917,1959,1016,43.7287,-5.38471
742,8,43.7616,5.59515,0,0,0,0,0,0,0,-1,1966,1016,43.7617,-5.59518
749,8,43.9259,5.53064,-0.00283958,0.00540785,0.00312543,0.00645843,-0.00389016,1.24652,0.00603578,0.0362469,1973,1016,43.926,-5.53063
756,8,43.8413,5.49438,-0.00263585,0.00788182,0.00301818,0.00868638,-0.00344041,1.31028,0.00721647,0.0251167,1980,1016,43.8413,-5.49441
763,8,43.8373,5.57745,-0.00177945,0.011122,0.00287541,0.0117339,-0.00239129,1.36114,0.00872954,0.0156288,1987,1016,43.8372,-5.57747
770,8,43.7375,5.58356,-0.000225413,0.0151152,0.0031686,0.0157439,-0.000854122,1.37492,0.0107919,0.0215848,1994,1016,43.7376,-5.58356
777,8,43.4119,5.6131,0.00257175,0.0203113,0.00403556,0.0211862,0.00169685,1.3573,0.0135939,0.0382,2001,1016,43.4119,-5.61311
784,8,43.103,5.6344,0,0,0,0,0,0,0,-1,2008,1016,43.103,-5.63443
791,8,43.0991,5.25513,0.0119078,0.0332189,0.00677005,0.0351877,0.00993902,1.28779,0.0209468,0.0498551,2015,1016,43.099,-5.25516
798,8,43.0974,5.3324,0.0190344,0.0414789,0.00836924,0.0442561,0.0162572,1.2504,0.0258493,0.0465825,2022,1016,43.0975,-5.33242
805,8,43.1636,5.3761,0.0280524,0.0515399,0.00973199,0.0550483,0.024544,1.2248,0.0318442,0.0444234,2029,1016,43.1637,-5.3761
812,8,43.23,5.37537,0,0,0,0,0,0,0,-1,2036,1016,43.23,-5.37535
-700,1,0,0,0,0,0,0,0,0,0,-1,524,1023,0,0
-693,1,-32.6219,3.66486,0,0,0,0,0,0,0,-1,531,1023,-32.622,-3.66487
-686,1,-33.0263,1.17072,0,0,0,0,0,0,0,-1,538,1023,-33.0263,-1.17071
-679,1,-33.0018,1.48932,0.00244015,0.00167183,0.0447229,0.0467805,-0.0426685,0.781103,0.0516616,0.0475273,545,1023,-33.0018,-1.4893
-672,1,-32.8799,1.8244,-0.00260924,0.00275215,0.0373503,0.0375178,-0.0373749,0.821223,0.0432393,0.0475231,552,1023,-32.8799,-1.82443
-665,1,-32.8444,2.03375,-0.00535815,0.0042919,0.0304356,0.0302826,-0.0313489,0.86401,0.0355847,0.043591,559,1023,-32.8444,-2.03378
-658,1,-32.8141,2.33606,-0.00665076,0.00566641,0.0241195,0.0244012,-0.0253856,0.910395,0.0287463,0.0314582,566,1023,-32.8141,-2.33606
-651,1,-32.6567,2.54254,-0.00692632,0.00650839,0.018508,0.0194803,-0.0198982,0.959478,0.0227356,0.025656,573,1023,-32.6567,-2.54253
-644,1,-32.4473,2.72766,0,0,0,0,0,0,0,-1,580,1023,-32.4473,-2.72766
-637,1,-32.6927,2.66888,-0.00559273,0.0069062,0.00817322,0.0109454,-0.00963196,1.1118,0.0118884,0.0335668,587,1023,-32.6927,-2.66889
-630,1,-32.9106,2.68011,-0.00439536,0.00653689,0.00362671,0.00763061,-0.00548908,1.2779,0.00760822,0.0271419,594,1023,-32.9106,-2.68011
-623,1,-32.8235,2.80084,-0.00311685,0.00594726,-5.12506e-05,0.00594755,-0.00311714,-1.56514,0.00531786,0.0148016,601,1023,-32.8235,-2.80084
-616,1,-32.9086,2.74744,-0.00200001,0.00516114,-0.00265493,0.00603805,-0.00287692,-1.25178,0.00525381,0.0182171,608,1023,-32.9086,-2.74747
-609,1,-32.9018,2.76752,-0.000960568,0.00448671,-0.00429594,0.00684965,-0.00332351,-1.06792,0.00598993,0.0196674,615,1023,-32.9018,-2.76752
-602,1,-32.7798,2.80518,-0.000119423,0.00359623,-0.0054053,0.00745406,-0.00397725,-0.950926,0.00670086,0.0133918,622,1023,-32.7798,-2.80515
-595,1,-32.6395,2.79852,0,0,0,0,0,0,0,-1,629,1023,-32.6395,-2.79852
-588,1,-32.5601,1.83026,0,0,0,0,0,0,0,-1,636,1023,-32.5601,-1.83025
-581,1,-32.4183,0.783997,0,0,0,0,0,0,0,-1,643,1023,-32.4183,-0.783972
-574,1,-32.5389,1.0528,0.0011104,0.000674329,-0.00523419,0.0061311,-0.00434636,-0.764582,0.00607835,0.0363494,650,1023,-32.5389,-1.05282
-567,1,-32.6885,1.36859,0.000935406,0.000184561,-0.00433035,0.00490658,-0.00378661,-0.742158,0.00503288,0.0425073,657,1023,-32.6885,-1.3686
-560,1,-32.7059,1.50861,0.000672838,-0.000367483,-0.00313315,0.00332871,-0.00302335,-0.703139,0.00366878,0.0399671,664,1023,-32.7059,-1.50859
-553,1,-32.5801,1.38782,0.000278743,-0.00111989,-0.00177949,0.0014914,-0.00233254,-0.598175,0.00222549,0.0384708,671,1023,-32.5801,-1.38782
-546,1,-32.5175,1.14081,-0.000181907,-0.00226012,-0.000440131,-9.25373e-05,-0.00234949,-0.200328,0.00153641,0.039995,678,1023,-32.5175,-1.14082
-539,1,-32.5306,0.935608,-0.000592757,-0.00317176,8.86682e-07,-0.000592757,-0.00317176,0.000343809,0.00194723,0.0419056,685,1023,-32.5306,-0.935608
-532,1,-32.5219,0.931152,-0.000759274,-0.00305531,-0.00153745,1.14831e-05,-0.00382606,-0.464705,0.00255455,0.0417422,692,1023,-32.5218,-0.931149
-525,1,0,0,0,0,0,0,0,0,0,-1,699,1023,0,0
-518,1,0,0,0,0,0,0,0,0,0,-1,706,1023,0,0
-511,1,0,0,0,0,0,0,0,0,0,-1,713,1023,0,0
-504,1,0,0,0,0,0,0,0,0,0,-1,720,1023,0,0
-497,1,0,0,0,0,0,0,0,0,0,-1,727,1023,0,0
-490,1,0,0,0,0,0,0,0,0,0,-1,734,1023,0,0
-483,1,0,0,0,0,0,0,0,0,0,-1,741,1023,0,0
-476,1,0,0,0,0,0,0,0,0,0,-1,748,1023,0,0
-469,1,0,0,0,0,0,0,0,0,0,-1,755,1023,0,0
-462,1,0,0,0,0,0,0,0,0,0,-1,762,1023,0,0
-455,1,0,0,0,0,0,0,0,0,0,-1,769,1023,0,0
-448,1,0,0,0,0,0,0,0,0,0,-1,776,1023,0,0
-441,1,0,0,0,0,0,0,0,0,0,-1,783,1023,0,0
-434,1,0,0,0,0,0,0,0,0,0,-1,790,1023,0,0
-427,1,0,0,0,0,0,0,0,0,0,-1,797,1023,0,0
-420,1,0,0,0,0,0,0,0,0,0,-1,804,1023,0,0
-413,1,0,0,0,0,0,0,0,0,0,-1,811,1023,0,0
-406,1,0,0,0,0,0,0,0,0,0,-1,818,1023,0,0
-399,1,0,0,0,0,0,0,0,0,0,-1,825,1023,0,0
-392,1,0,0,0,0,0,0,0,0,0,-1,832,1023,0,0
-385,1,0,0,0,0,0,0,0,0,0,-1,839,1023,0,0
-378,1,0,0,0,0,0,0,0,0,0,-1,846,1023,0,0
-371,1,0,0,0,0,0,0,0,0,0,-1,853,1023,0,0
-364,1,0,0,0,0,0,0,0,0,0,-1,860,1023,0,0
-357,1,0,0,0,0,0,0,0,0,0,-1,867,1023,0,0
-350,1,0,0,0,0,0,0,0,0,0,-1,874,1023,0,0
-343,1,0,0,0,0,0,0,0,0,0,-1,881,1023,0,0
-336,1,0,0,0,0,0,0,0,0,0,-1,888,1023,0,0
-329,1,0,0,0,0,0,0,0,0,0,-1,895,1023,0,0
-322,1,0,0,0,0,0,0,0,0,0,-1,902,1023,0,0
-315,1,0,0,0,0,0,0,0,0,0,-1,909,1023,0,0
-308,1,0,0,0,0,0,0,0,0,0,-1,916,1023,0,0
-301,1,0,0,0,0,0,0,0,0,0,-1,923,1023,0,0
-294,1,0,0,0,0,0,0,0,0,0,-1,930,1023,0,0
-287,1,0,0,0,0,0,0,0,0,0,-1,937,1023,0,0
-280,1,0,0,0,0,0,0,0,0,0,-1,944,1023,0,0
-273,1,0,0,0,0,0,0,0,0,0,-1,951,1023,0,0
-266,1,0,0,0,0,0,0,0,0,0,-1,958,1023,0,0
-259,1,0,0,0,0,0,0,0,0,0,-1,965,1023,0,0
-252,1,0,0,0,0,0,0,0,0,0,-1,972,1023,0,0
-245,1,0,0,0,0,0,0,0,0,0,-1,979,1023,0,0
-238,1,0,0,0,0,0,0,0,0,0,-1,986,1023,0,0
-231,1,0,0,0,0,0,0,0,0,0,-1,993,1023,0,0
-224,1,0,0,0,0,0,0,0,0,0,-1,1000,1023,0,0
-217,1,0,0,0,0,0,0,0,0,0,-1,1007,1023,0,0
-210,1,0,0,0,0,0,0,0,0,0,-1,1014,1023,0,0
-203,1,0,0,0,0,0,0,0,0,0,-1,1021,1023,0,0
-196,1,0,0,0,0,0,0,0,0,0,-1,1028,1023,0,0
-189,1,0,0,0,0,0,0,0,0,0,-1,1035,1023,0,0
-182,1,0,0,0,0,0,0,0,0,0,-1,1042,1023,0,0
-175,1,0,0,0,0,0,0,0,0,0,-1,1049,1023,0,0
-168,1,0,0,0,0,0,0,0,0,0,-1,1056,1023,0,0
-161,1,0,0,0,0,0,0,0,0,0,-1,1063,1023,0,0
-154,1,0,0,0,0,0,0,0,0,0,-1,1070,1023,0,0
-147,1,0,0,0,0,0,0,0,0,0,-1,1077,1023,0,0
-140,1,0,0,0,0,0,0,0,0,0,-1,1084,1023,0,0
-133,1,0,0,0,0,0,0,0,0,0,-1,1091,1023,0,0
-126,1,0,0,0,0,0,0,0,0,0,-1,1098,1023,0,0
-119,1,0,0,0,0,0,0,0,0,0,-1,1105,1023,0,0
-112,1,0,0,0,0,0,0,0,0,0,-1,1112,1023,0,0
-105,1,0,0,0,0,0,0,0,0,0,-1,1119,1023,0,0
-98,1,0,0,0,0,0,0,0,0,0,-1,1126,1023,0,0
-91,1,0,0,0,0,0,0,0,0,0,-1,1133,1023,0,0
-84,1,0,0,0,0,0,0,0,0,0,-1,1140,1023,0,0
-77,1,0,0,0,0,0,0,0,0,0,-1,1147,1023,0,0
-70,1,0,0,0,0,0,0,0,0,0,-1,1154,1023,0,0
-63,1,0,0,0,0,0,0,0,0,0,-1,1161,1023,0,0
-56,1,0,0,0,0,0,0,0,0,0,-1,1168,1023,0,0
-49,1,0,0,0,0,0,0,0,0,0,-1,1175,1023,0,0
-42,1,0,0,0,0,0,0,0,0,0,-1,1182,1023,0,0
-35,1,0,0,0,0,0,0,0,0,0,-1,1189,1023,0,0
-28,1,0,0,0,0,0,0,0,0,0,-1,1196,1023,0,0
-21,1,0,0,0,0,0,0,0,0,0,-1,1203,1023,0,0
-14,1,0,0,0,0,0,0,0,0,0,-1,1210,1023,0,0
-7,1,0,0,0,0,0,0,0,0,0,-1,1217,1023,0,0
0,1,0,0,0,0,0,0,0,0,0,-1,1224,1023,0,0
7,1,0,0,0,0,0,0,0,0,0,-1,1231,1023,0,0
14,1,0,0,0,0,0,0,0,0,0,-1,1238,1023,0,0
21,1,0,0,0,0,0,0,0,0,0,-1,1245,1023,0,0
28,1,0,0,0,0,0,0,0,0,0,-1,1252,1023,0,0
35,1,0,0,0,0,0,0,0,0,0,-1,1259,1023,0,0
42,1,0,0,0,0,0,0,0,0,0,-1,1266,1023,0,0
49,1,0,0,0,0,0,0,0,0,0,-1,1273,1023,0,0
56,1,0,0,0,0,0,0,0,0,0,-1,1280,1023,0,0
63,1,0,0,0,0,0,0,0,0,0,-1,1287,1023,0,0
70,1,0,0,0,0,0,0,0,0,0,-1,1294,1023,0,0
77,1,0,0,0,0,0,0,0,0,0,-1,1301,1023,0,0
84,1,0,0,0,0,0,0,0,0,0,-1,1308,1023,0,0
91,1,0,0,0,0,0,0,0,0,0,-1,1315,1023,0,0
98,1,0,0,0,0,0,0,0,0,0,-1,1322,1023,0,0
105,1,0,0,0,0,0,0,0,0,0,-1,1329,1023,0,0
112,1,0,0,0,0,0,0,0,0,0,-1,1336,1023,0,0
119,1,0,0,0,0,0,0,0,0,0,-1,1343,1023,0,0
126,1,0,0,0,0,0,0,0,0,0,-1,1350,1023,0,0
133,1,0,0,0,0,0,0,0,0,0,-1,1357,1023,0,0
140,1,0,0,0,0,0,0,0,0,0,-1,1364,1023,0,0
147,1,0,0,0,0,0,0,0,0,0,-1,1371,1023,0,0
154,1,0,0,0,0,0,0,0,0,0,-1,1378,1023,0,0
161,1,0,0,0,0,0,0,0,0,0,-1,1385,1023,0,0
168,1,0,0,0,0,0,0,0,0,0,-1,1392,1023,0,0
175,1,0,0,0,0,0,0,0,0,0,-1,1399,1023,0,0
182,1,0,0,0,0,0,0,0,0,0,-1,1406,1023,0,0
189,1,0,0,0,0,0,0,0,0,0,-1,1413,1023,0,0
196,1,0,0,0,0,0,0,0,0,0,-1,1420,1023,0,0
203,1,0,0,0,0,0,0,0,0,0,-1,1427,1023,0,0
210,1,0,0,0,0,0,0,0,0,0,-1,1434,1023,0,0
217,1,0,0,0,0,0,0,0,0,0,-1,1441,1023,0,0
224,1,0,0,0,0,0,0,0,0,0,-1,1448,1023,0,0
231,1,0,0,0,0,0,0,0,0,0,-1,1455,1023,0,0
238,1,0,0,0,0,0,0,0,0,0,-1,1462,1023,0,0
245,1,0,0,0,0,0,0,0,0,0,-1,1469,1023,0,0
252,1,0,0,0,0,0,0,0,0,0,-1,1476,1023,0,0
259,1,0,0,0,0,0,0,0,0,0,-1,1483,1023,0,0
266,1,0,0,0,0,0,0,0,0,0,-1,1490,1023,0,0
273,1,0,0,0,0,0,0,0,0,0,-1,1497,1023,0,0
280,1,0,0,0,0,0,0,0,0,0,-1,1504,1023,0,0
287,1,0,0,0,0,0,0,0,0,0,-1,1511,1023,0,0
294,1,0,0,0,0,0,0,0,0,0,-1,1518,1023,0,0
301,1,0,0,0,0,0,0,0,0,0,-1,1525,1023,0,0
308,1,0,0,0,0,0,0,0,0,0,-1,1532,1023,0,0
315,1,0,0,0,0,0,0,0,0,0,-1,1539,1023,0,0
322,1,0,0,0,0,0,0,0,0,0,-1,1546,1023,0,0
329,1,0,0,0,0,0,0,0,0,0,-1,1553,1023,0,0
336,1,0,0,0,0,0,0,0,0,0,-1,1560,1023,0,0
343,1,0,0,0,0,0,0,0,0,0,-1,1567,1023,0,0
350,1,0,0,0,0,0,0,0,0,0,-1,1574,1023,0,0
357,1,0,0,0,0,0,0,0,0,0,-1,1581,1023,0,0
364,1,0,0,0,0,0,0,0,0,0,-1,1588,1023,0,0
371,1,0,0,0,0,0,0,0,0,0,-1,1595,1023,0,0
378,1,0,0,0,0,0,0,0,0,0,-1,1602,1023,0,0
385,1,0,0,0,0,0,0,0,0,0,-1,1609,1023,0,0
392,1,0,0,0,0,0,0,0,0,0,-1,1616,1023,0,0
399,1,0,0,0,0,0,0,0,0,0,-1,1623,1023,0,0
406,1,0,0,0,0,0,0,0,0,0,-1,1630,1023,0,0
413,1,0,0,0,0,0,0,0,0,0,-1,1637,1023,0,0
420,1,0,0,0,0,0,0,0,0,0,-1,1644,1023,0,0
427,1,0,0,0,0,0,0,0,0,0,-1,1651,1023,0,0
434,1,0,0,0,0,0,0,0,0,0,-1,1658,1023,0,0
441,1,0,0,0,0,0,0,0,0,0,-1,1665,1023,0,0
448,1,0,0,0,0,0,0,0,0,0,-1,1672,1023,0,0
455,1,0,0,0,0,0,0,0,0,0,-1,1679,1023,0,0
462,1,0,0,0,0,0,0,0,0,0,-1,1686,1023,0,0
469,1,0,0,0,0,0,0,0,0,0,-1,1693,1023,0,0
476,1,0,0,0,0,0,0,0,0,0,-1,1700,1023,0,0
483,1,0,0,0,0,0,0,0,0,0,-1,1707,1023,0,0
490,1,0,0,0,0,0,0,0,0,0,-1,1714,1023,0,0
497,1,0,0,0,0,0,0,0,0,0,-1,1721,1023,0,0
504,1,0,0,0,0,0,0,0,0,0,-1,1728,1023,0,0
511,1,0,0,0,0,0,0,0,0,0,-1,1735,1023,0,0
518,1,0,0,0,0,0,0,0,0,0,-1,1742,1023,0,0
525,1,0,0,0,0,0,0,0,0,0,-1,1749,1023,0,0
532,1,0,0,0,0,0,0,0,0,0,-1,1756,1023,0,0
539,1,0,0,0,0,0,0,0,0,0,-1,1763,1023,0,0
546,1,0,0,0,0,0,0,0,0,0,-1,1770,1023,0,0
553,1,0,0,0,0,0,0,0,0,0,-1,1777,1023,0,0
560,1,0,0,0,0,0,0,0,0,0,-1,1784,1023,0,0
567,1,0,0,0,0,0,0,0,0,0,-1,1791,1023,0,0
574,1,0,0,0,0,0,0,0,0,0,-1,1798,1023,0,0
581,1,0,0,0,0,0,0,0,0,0,-1,1805,1023,0,0
588,1,0,0,0,0,0,0,0,0,0,-1,1812,1023,0,0
595,1,0,0,0,0,0,0,0,0,0,-1,1819,1023,0,0
602,1,0,0,0,0,0,0,0,0,0,-1,1826,1023,0,0
609,1,0,0,0,0,0,0,0,0,0,-1,1833,1023,0,0
616,1,0,0,0,0,0,0,0,0,0,-1,1840,1023,0,0
623,1,0,0,0,0,0,0,0,0,0,-1,1847,1023,0,0
630,1,0,0,0,0,0,0,0,0,0,-1,1854,1023,0,0
637,1,0,0,0,0,0,0,0,0,0,-1,1861,1023,0,0
644,1,0,0,0,0,0,0,0,0,0,-1,1868,1023,0,0
651,1,44.0692,2.31476,-0.0043284,0.000414729,0.000275485,0.000430675,-0.00434434,1.51297,0.00304994,0.039143,1875,1023,44.0693,-2.31476
658,1,44.0055,2.33551,-0.00291422,0.000361639,0.000312319,0.000391149,-0.00294373,1.47659,0.00210502,0.0407417,1882,1023,44.0056,-2.3355
665,1,44.0455,2.29163,-0.00194206,0.000377535,0.000525352,0.000490971,-0.0020555,1.35814,0.00155996,0.0409332,1889,1023,44.0455,-2.29163
672,1,44.2429,2.47723,-0.00123606,0.000533957,0.000959551,0.000954313,-0.00165642,1.1579,0.00152537,0.0395934,1896,1023,44.243,-2.47721
679,1,44.1322,2.42645,-0.000660214,0.000737858,0.00161705,0.0018005,-0.00172286,0.989412,0.00203438,0.0382997,1903,1023,44.1322,-2.42645
686,1,43.9534,2.60455,-0.000273865,0.000710882,0.00235167,0.00262117,-0.00218415,0.888593,0.00277818,0.0380158,1910,1023,43.9533,-2.60453
693,1,44.0316,2.80426,-1.38895e-05,0.00059096,0.00296969,0.00327359,-0.00269652,0.836142,0.00345221,0.0359275,1917,1023,44.0316,-2.80424
700,1,44.1553,2.72192,0.00015463,0.000541743,0.00335857,0.00371233,-0.00301596,0.814182,0.00389151,0.0308441,1924,1023,44.1553,-2.72191
707,1,44.1014,2.61823,0.000160811,0.000606086,0.00356042,0.00395082,-0.00318392,0.816623,0.00412717,0.0246371,1931,1023,44.1015,-2.61824
714,1,44.0851,2.56445,-0.000243123,0.000858535,0.00370079,0.00404926,-0.00343385,0.859276,0.00432524,0.0217064,1938,1023,44.0851,-2.56446
721,1,44.135,2.54498,0,0,0,0,0,0,0,-1,1945,1023,44.1351,-2.54496
728,1,43.6677,5.5741,0,0,0,0,0,0,0,-1,1952,1023,43.6677,-5.57411
735,1,43.6864,5.48016,-0.00199458,0.00286871,0.00326636,0.00450917,-0.00363504,1.10537,0.00471108,0.035954,1959,1023,43.6863,-5.48019
742,1,43.8584,5.47101,-0.00237505,0.00359196,0.00317991,0.00496886,-0.00375195,1.16217,0.00505127,0.0440632,1966,1023,43.8584,-5.47099
749,1,43.8643,5.52869,-0.00289032,0.00520046,0.00311407,0.00626023,-0.00395008,1.24278,0.00594501,0.0407441,1973,1023,43.8642,-5.52866
756,1,43.8843,5.54047,-0.00287588,0.00767244,0.00307267,0.00850222,-0.00370566,1.30704,0.00722729,0.0246509,1980,1023,43.8843,-5.54045
763,1,43.8203,5.51447,-0.00221524,0.0108779,0.00306912,0.0115616,-0.00289896,1.3516,0.00883406,0.0165501,1987,1023,43.8203,-5.51449
770,1,43.7981,5.51581,-0.00094293,0.0148393,0.00343347,0.0155539,-0.00165754,1.3656,0.0109636,0.0181973,1994,1023,43.7981,-5.51579
777,1,43.5308,5.45105,0.00144775,0.0200454,0.00441936,0.0210421,0.000450996,1.34897,0.0138802,0.0260266,2001,1023,43.5308,-5.45103
784,1,43.4399,5.35822,0.00474357,0.0259158,0.00575596,0.0273795,0.00327992,1.32179,0.0172639,0.0469887,2008,1023,43.4398,-5.35823
791,1,43.4583,5.24048,0.00929314,0.0328056,0.00757819,0.0350364,0.00706231,1.28451,0.0213956,0.0478108,2015,1023,43.4583,-5.24048
798,1,43.2998,5.21887,0,0,0,0,0,0,0,-1,2022,1023,43.2998,-5.21888
805,1,42.6272,4.90289,0.0227173,0.0507064,0.0118055,0.0550208,0.0184029,1.22042,0.0323413,0.0479467,2029,1023,42.6273,-4.90287
812,1,42.5999,4.69196,0,0,0,0,0,0,0,-1,2036,1023,42.5999,-4.69198
-700,-6,0,0,0,0,0,0,0,0,0,-1,524,1030,0,0
-693,-6,-31.0445,3.97046,0,0,0,0,0,0,0,-1,531,1030,-31.0445,-3.97045
-686,-6,-33.2707,0.976807,0,0,0,0,0,0,0,-1,538,1030,-33.2707,-0.976759
-679,-6,-33.5951,1.57922,0,0,0,0,0,0,0,-1,545,1030,-33.5951,-1.57921
-672,-6,-33.437,1.87976,0,0,0,0,0,0,0,-1,552,1030,-33.437,-1.87977
-665,-6,-33.0103,1.82507,-0.00160041,0.00813007,0.0282468,0.0319276,-0.0253979,0.870682,0.0331684,0.042821,559,1030,-33.0103,-1.82507
-658,-6,-32.7448,2.00916,-0.00384188,0.00881335,0.0221768,0.0255476,-0.0205761,0.924369,0.026681,0.0360176,566,1030,-32.7448,-2.00913
-651,-6,-32.7293,2.23865,-0.00487301,0.00895252,0.0168497,0.0202523,-0.0161728,0.980059,0.021074,0.0383261,573,1030,-32.7293,-2.23866
-644,-6,-32.5893,2.9187,0,0,0,0,0,0,0,-1,580,1030,-32.5893,-2.91876
-637,-6,-32.6897,2.71851,-0.00470263,0.00792939,0.00708397,0.0111041,-0.00787739,1.14947,0.0110116,0.0366038,587,1030,-32.6897,-2.71853
-630,-6,-32.8047,2.66577,-0.00380772,0.00701288,0.00284509,0.00771534,-0.00451018,1.32873,0.00713881,0.0201446,594,1030,-32.8047,-2.66574
-623,-6,-32.7821,2.72339,-0.00286009,0.00599506,-0.000533916,0.00602714,-0.00289217,-1.51079,0.00525452,0.0159431,601,1030,-32.7821,-2.72337
-616,-6,-32.8155,2.74744,-0.00200355,0.00493597,-0.00288058,0.00597586,-0.00304344,-1.22435,0.00529824,0.0175631,608,1030,-32.8155,-2.74741
-609,-6,-32.7986,2.80408,-0.00113723,0.00418575,-0.00434371,0.00661851,-0.00356999,-1.06026,0.00596946,0.0182039,615,1030,-32.7986,-2.80406
-602,-6,-32.7428,2.88831,-0.000345481,0.00328238,-0.00536838,0.007135,-0.00419811,-0.948322,0.006616,0.0130226,622,1030,-32.7428,-2.88836
-595,-6,-32.7064,2.93481,0,0,0,0,0,0,0,-1,629,1030,-32.7064,-2.93483
-588,-6,-32.538,1.71069,0,0,0,0,0,0,0,-1,636,1030,-32.538,-1.71065
-581,-6,-32.4814,0.794678,0.000704214,0.00152811,-0.00552219,0.0066537,-0.00442137,-0.822628,0.00643735,0.0225849,643,1030,-32.4814,-0.794692
-574,-6,-32.5179,0.931152,0.000714699,0.00128006,-0.00495987,0.0059653,-0.00397054,-0.813864,0.00577487,0.0296148,650,1030,-32.5179,-0.93118
-567,-6,-32.636,1.03503,0.000509929,0.00116751,-0.00402293,0.00487506,-0.00319763,-0.826172,0.00469419,0.0399055,657,1030,-32.6361,-1.03509
-560,-6,-32.6044,1.31763,0.00019427,0.00105862,-0.00276629,0.00342629,-0.0021734,-0.862886,0.00325985,0.0410324,664,1030,-32.6044,-1.31759
-553,-6,-32.5031,1.2832,-0.000302431,0.000772697,-0.00130181,0.00164357,-0.0011733,-0.981202,0.00163385,0.0395928,671,1030,-32.503,-1.28325
-546,-6,-32.4579,1.15649,-0.000953293,3.93288e-05,0.00022496,8.79319e-05,-0.0010019,1.35801,0.000699087,0.0413393,678,1030,-32.4579,-1.15652
-539,-6,-32.4297,1.07996,-0.00169237,-0.000712268,0.000872721,-0.000201424,-0.00220322,1.04122,0.00140649,0.0410344,685,1030,-32.4298,-1.07999
-532,-6,-32.4421,1.04846,-0.0023706,-0.000782173,-0.000407717,-0.000683633,-0.00246914,-1.33366,0.00147211,0.0397329,692,1030,-32.4421,-1.04849
-525,-6,0,0,0,0,0,0,0,0,0,-1,699,1030,0,0
-518,-6,0,0,0,0,0,0,0,0,0,-1,706,1030,0,0
-511,-6,0,0,0,0,0,0,0,0,0,-1,713,1030,0,0
-504,-6,0,0,0,0,0,0,0,0,0,-1,720,1030,0,0
-497,-6,0,0,0,0,0,0,0,0,0,-1,727,1030,0,0
-490,-6,0,0,0,0,0,0,0,0,0,-1,734,1030,0,0
-483,-6,0,0,0,0,0,0,0,0,0,-1,741,1030,0,0
-476,-6,0,0,0,0,0,0,0,0,0,-1,748,1030,0,0
-469,-6,0,0,0,0,0,0,0,0,0,-1,755,1030,0,0
-462,-6,0,0,0,0,0,0,0,0,0,-1,762,1030,0,0
-455,-6,0,0,0,0,0,0,0,0,0,-1,769,1030,0,0
-448,-6,0,0,0,0,0,0,0,0,0,-1,776,1030,0,0
-441,-6,0,0,0,0,0,0,0,0,0,-1,783,1030,0,0
-434,-6,0,0,0,0,0,0,0,0,0,-1,790,1030,0,0
-427,-6,0,0,0,0,0,0,0,0,0,-1,797,1030,0,0
-420,-6,0,0,0,0,0,0,0,0,0,-1,804,1030,0,0
-413,-6,0,0,0,0,0,0,0,0,0,-1,811,1030,0,0
-406,-6,0,0,0,0,0,0,0,0,0,-1,818,1030,0,0
-399,-6,0,0,0,0,0,0,0,0,0,-1,825,1030,0,0
-392,-6,0,0,0,0,0,0,0,0,0,-1,832,1030,0,0
-385,-6,0,0,0,0,0,0,0,0,0,-1,839,1030,0,0
-378,-6,0,0,0,0,0,0,0,0,0,-1,846,1030,0,0
-371,-6,0,0,0,0,0,0,0,0,0,-1,853,1030,0,0
-364,-6,0,0,0,0,0,0,0,0,0,-1,860,1030,0,0
-357,-6,0,0,0,0,0,0,0,0,0,-1,867,1030,0,0
-350,-6,0,0,0,0,0,0,0,0,0,-1,874,1030,0,0
-343,-6,0,0,0,0,0,0,0,0,0,-1,881,1030,0,0
-336,-6,0,0,0,0,0,0,0,0,0,-1,888,1030,0,0
-329,-6,0,0,0,0,0,0,0,0,0,-1,895,1030,0,0
-322,-6,0,0,0,0,0,0,0,0,0,-1,902,1030,0,0
-315,-6,0,0,0,0,0,0,0,0,0,-1,909,1030,0,0
-308,-6,0,0,0,0,0,0,0,0,0,-1,916,1030,0,0
-301,-6,0,0,0,0,0,0,0,0,0,-1,923,1030,0,0
-294,-6,0,0,0,0,0,0,0,0,0,-1,930,1030,0,0
-287,-6,0,0,0,0,0,0,0,0,0,-1,937,1030,0,0
-280,-6,0,0,0,0,0,0,0,0,0,-1,944,1030,0,0
-273,-6,0,0,0,0,0,0,0,0,0,-1,951,1030,0,0
-266,-6,0,0,0,0,0,0,0,0,0,-1,958,1030,0,0
-259,-6,0,0,0,0,0,0,0,0,0,-1,965,1030,0,0
-252,-6,0,0,0,0,0,0,0,0,0,-1,972,1030,0,0
-245,-6,0,0,0,0,0,0,0,0,0,-1,979,1030,0,0
-238,-6,0,0,0,0,0,0,0,0,0,-1,986,1030,0,0
-231,-6,0,0,0,0,0,0,0,0,0,-1,993,1030,0,0
-224,-6,0,0,0,0,0,0,0,0,0,-1,1000,1030,0,0
-217,-6,0,0,0,0,0,0,0,0,0,-1,1007,1030,0,0
-210,-6,0,0,0,0,0,0,0,0,0,-1,1014,1030,0,0
-203,-6,0,0,0,0,0,0,0,0,0,-1,1021,1030,0,0
-196,-6,0,0,0,0,0,0,0,0,0,-1,1028,1030,0,0
-189,-6,0,0,0,0,0,0,0,0,0,-1,1035,1030,0,0
-182,-6,0,0,0,0,0,0,0,0,0,-1,1042,1030,0,0
-175,-6,0,0,0,0,0,0,0,0,0,-1,1049,1030,0,0
-168,-6,0,0,0,0,0,0,0,0,0,-1,1056,1030,0,0
-161,-6,0,0,0,0,0,0,0,0,0,-1,1063,1030,0,0
-154,-6,0,0,0,0,0,0,0,0,0,-1,1070,1030,0,0
-147,-6,0,0,0,0,0,0,0,0,0,-1,1077,1030,0,0
-140,-6,0,0,0,0,0,0,0,0,0,-1,1084,1030,0,0
-133,-6,0,0,0,0,0,0,0,0,0,-1,1091,1030,0,0
-126,-6,0,0,0,0,0,0,0,0,0,-1,1098,1030,0,0
-119,-6,0,0,0,0,0,0,0,0,0,-1,1105,1030,0,0
-112,-6,0,0,0,0,0,0,0,0,0,-1,1112,1030,0,0
-105,-6,0,0,0,0,0,0,0,0,0,-1,1119,1030,0,0
-98,-6,0,0,0,0,0,0,0,0,0,-1,1126,1030,0,0
-91,-6,0,0,0,0,0,0,0,0,0,-1,1133,1030,0,0
-84,-6,0,0,0,0,0,0,0,0,0,-1,1140,1030,0,0
-77,-6,0,0,0,0,0,0,0,0,0,-1,1147,1030,0,0
-70,-6,0,0,0,0,0,0,0,0,0,-1,1154,1030,0,0
-63,-6,0,0,0,0,0,0,0,0,0,-1,1161,1030,0,0
-56,-6,0,0,0,0,0,0,0,0,0,-1,1168,1030,0,0
-49,-6,0,0,0,0,0,0,0,0,0,-1,1175,1030,0,0
-42,-6,0,0,0,0,0,0,0,0,0,-1,1182,1030,0,0
-35,-6,0,0,0,0,0,0,0,0,0,-1,1189,1030,0,0
-28,-6,0,0,0,0,0,0,0,0,0,-1,1196,1030,0,0
-21,-6,0,0,0,0,0,0,0,0,0,-1,1203,1030,0,0
-14,-6,0,0,0,0,0,0,0,0,0,-1,1210,1030,0,0
-7,-6,0,0,0,0,0,0,0,0,0,-1,1217,1030,0,0
0,-6,0,0,0,0,0,0,0,0,0,-1,1224,1030,0,0
7,-6,0,0,0,0,0,0,0,0,0,-1,1231,1030,0,0
14,-6,0,0,0,0,0,0,0,0,0,-1,1238,1030,0,0
21,-6,0,0,0,0,0,0,0,0,0,-1,1245,1030,0,0
28,-6,0,0,0,0,0,0,0,0,0,-1,1252,1030,0,0
35,-6,0,0,0,0,0,0,0,0,0,-1,1259,1030,0,0
42,-6,0,0,0,0,0,0,0,0,0,-1,1266,1030,0,0
49,-6,0,0,0,0,0,0,0,0,0,-1,1273,1030,0,0
56,-6,0,0,0,0,0,0,0,0,0,-1,1280,1030,0,0
63,-6,0,0,0,0,0,0,0,0,0,-1,1287,1030,0,0
70,-6,0,0,0,0,0,0,0,0,0,-1,1294,1030,0,0
77,-6,0,0,0,0,0,0,0,0,0,-1,1301,1030,0,0
84,-6,0,0,0,0,0,0,0,0,0,-1,1308,1030,0,0
91,-6,0,0,0,0,0,0,0,0,0,-1,1315,1030,0,0
98,-6,0,0,0,0,0,0,0,0,0,-1,1322,1030,0,0
105,-6,0,0,0,0,0,0,0,0,0,-1,1329,1030,0,0
112,-6,0,0,0,0,0,0,0,0,0,-1,1336,1030,0,0
119,-6,0,0,0,0,0,0,0,0,0,-1,1343,1030,0,0
126,-6,0,0,0,0,0,0,0,0,0,-1,1350,1030,0,0
133,-6,0,0,0,0,0,0,0,0,0,-1,1357,1030,0,0
140,-6,0,0,0,0,0,0,0,0,0,-1,1364,1030,0,0
147,-6,0,0,0,0,0,0,0,0,0,-1,1371,1030,0,0
154,-6,0,0,0,0,0,0,0,0,0,-1,1378,1030,0,0
161,-6,0,0,0,0,0,0,0,0,0,-1,1385,1030,0,0
168,-6,0,0,0,0,0,0,0,0,0,-1,1392,1030,0,0
175,-6,0,0,0,0,0,0,0,0,0,-1,1399,1030,0,0
182,-6,0,0,0,0,0,0,0,0,0,-1,1406,1030,0,0
189,-6,0,0,0,0,0,0,0,0,0,-1,1413,1030,0,0
196,-6,0,0,0,0,0,0,0,0,0,-1,1420,1030,0,0
203,-6,0,0,0,0,0,0,0,0,0,-1,1427,1030,0,0
210,-6,0,0,0,0,0,0,0,0,0,-1,1434,1030,0,0
217,-6,0,0,0,0,0,0,0,0,0,-1,1441,1030,0,0
224,-6,0,0,0,0,0,0,0,0,0,-1,1448,1030,0,0
231,-6,0,0,0,0,0,0,0,0,0,-1,1455,1030,0,0
238,-6,0,0,0,0,0,0,0,0,0,-1,1462,1030,0,0
245,-6,0,0,0,0,0,0,0,0,0,-1,1469,1030,0,0
252,-6,0,0,0,0,0,0,0,0,0,-1,1476,1030,0,0
259,-6,0,0,0,0,0,0,0,0,0,-1,1483,1030,0,0
266,-6,0,0,0,0,0,0,0,0,0,-1,1490,1030,0,0
273,-6,0,0,0,0,0,0,0,0,0,-1,1497,1030,0,0
280,-6,0,0,0,0,0,0,0,0,0,-1,1504,1030,0,0
287,-6,0,0,0,0,0,0,0,0,0,-1,1511,1030,0,0
294,-6,0,0,0,0,0,0,0,0,0,-1,1518,1030,0,0
301,-6,0,0,0,0,0,0,0,0,0,-1,1525,1030,0,0
308,-6,0,0,0,0,0,0,0,0,0,-1,1532,1030,0,0
315,-6,0,0,0,0,0,0,0,0,0,-1,1539,1030,0,0
322,-6,0,0,0,0,0,0,0,0,0,-1,1546,1030,0,0
329,-6,0,0,0,0,0,0,0,0,0,-1,1553,1030,0,0
336,-6,0,0,0,0,0,0,0,0,0,-1,1560,1030,0,0
343,-6,0,0,0,0,0,0,0,0,0,-1,1567,1030,0,0
350,-6,0,0,0,0,0,0,0,0,0,-1,1574,1030,0,0
357,-6,0,0,0,0,0,0,0,0,0,-1,1581,1030,0,0
364,-6,0,0,0,0,0,0,0,0,0,-1,1588,1030,0,0
371,-6,0,0,0,0,0,0,0,0,0,-1,1595,1030,0,0
378,-6,0,0,0,0,0,0,0,0,0,-1,1602,1030,0,0
385,-6,0,0,0,0,0,0,0,0,0,-1,1609,1030,0,0
392,-6,0,0,0,0,0,0,0,0,0,-1,1616,1030,0,0
399,-6,0,0,0,0,0,0,0,0,0,-1,1623,1030,0,0
406,-6,0,0,0,0,0,0,0,0,0,-1,1630,1030,0,0
413,-6,0,0,0,0,0,0,0,0,0,-1,1637,1030,0,0
420,-6,0,0,0,0,0,0,0,0,0,-1,1644,1030,0,0
427,-6,0,0,0,0,0,0,0,0,0,-1,1651,1030,0,0
434,-6,0,0,0,0,0,0,0,0,0,-1,1658,1030,0,0
441,-6,0,0,0,0,0,0,0,0,0,-1,1665,1030,0,0
448,-6,0,0,0,0,0,0,0,0,0,-1,1672,1030,0,0
455,-6,0,0,0,0,0,0,0,0,0,-1,1679,1030,0,0
462,-6,0,0,0,0,0,0,0,0,0,-1,1686,1030,0,0
469,-6,0,0,0,0,0,0,0,0,0,-1,1693,1030,0,0
476,-6,0,0,0,0,0,0,0,0,0,-1,1700,1030,0,0
483,-6,0,0,0,0,0,0,0,0,0,-1,1707,1030,0,0
490,-6,0,0,0,0,0,0,0,0,0,-1,1714,1030,0,0
497,-6,0,0,0,0,0,0,0,0,0,-1,1721,1030,0,0
504,-6,0,0,0,0,0,0,0,0,0,-1,1728,1030,0,0
511,-6,0,0,0,0,0,0,0,0,0,-1,1735,1030,0,0
518,-6,0,0,0,0,0,0,0,0,0,-1,1742,1030,0,0
525,-6,0,0,0,0,0,0,0,0,0,-1,1749,1030,0,0
532,-6,0,0,0,0,0,0,0,0,0,-1,1756,1030,0,0
539,-6,0,0,0,0,0,0,0,0,0,-1,1763,1030,0,0
546,-6,0,0,0,0,0,0,0,0,0,-1,1770,1030,0,0
553,-6,0,0,0,0,0,0,0,0,0,-1,1777,1030,0,0
560,-6,0,0,0,0,0,0,0,0,0,-1,1784,1030,0,0
567,-6,0,0,0,0,0,0,0,0,0,-1,1791,1030,0,0
574,-6,0,0,0,0,0,0,0,0,0,-1,1798,1030,0,0
581,-6,0,0,0,0,0,0,0,0,0,-1,1805,1030,0,0
588,-6,0,0,0,0,0,0,0,0,0,-1,1812,1030,0,0
595,-6,0,0,0,0,0,0,0,0,0,-1,1819,1030,0,0
602,-6,0,0,0,0,0,0,0,0,0,-1,1826,1030,0,0
609,-6,0,0,0,0,0,0,0,0,0,-1,1833,1030,0,0
616,-6,0,0,0,0,0,0,0,0,0,-1,1840,1030,0,0
623,-6,0,0,0,0,0,0,0,0,0,-1,1847,1030,0,0
630,-6,0,0,0,0,0,0,0,0,0,-1,1854,1030,0,0
637,-6,0,0,0,0,0,0,0,0,0,-1,1861,1030,0,0
644,-6,0,0,0,0,0,0,0,0,0,-1,1868,1030,0,0
651,-6,44.0679,2.6167,-0.00361752,0.000127772,0.000164419,0.000134976,-0.00362472,1.52701,0.00246271,0.0368559,1875,1030,44.0679,-2.61672
658,-6,44.0035,2.49756,-0.00247819,6.03926e-05,0.000203445,7.65934e-05,-0.00249439,1.49133,0.00168904,0.0391357,1882,1030,44.0035,-2.49758
665,-6,44.2042,2.22876,-0.00169697,6.15703e-05,0.000379009,0.000139778,-0.00177518,1.3673,0.00123269,0.0405845,1889,1030,44.2042,-2.22873
672,-6,44.3525,2.45764,-0.00112836,0.000210626,0.000760952,0.000554675,-0.00147241,1.14617,0.00120966,0.0401628,1896,1030,44.3525,-2.45761
679,-6,43.9988,2.62219,-0.00064331,0.000418103,0.00134643,0.00133464,-0.00155985,0.973128,0.00167282,0.0402826,1903,1030,43.9988,-2.62225
686,-6,43.7866,2.50769,-0.000329514,0.000398136,0.00202422,0.00209097,-0.00202235,0.874316,0.00237494,0.0381326,1910,1030,43.7866,-2.5077
693,-6,43.9226,2.56006,-0.000109174,0.00028352,0.00261646,0.00271099,-0.00253664,0.822849,0.00303028,0.037057,1917,1030,43.9226,-2.56009
700,-6,44.1151,2.66003,3.49042e-05,0.000242144,0.00301563,0.00315594,-0.00287889,0.802572,0.00348543,0.032032,1924,1030,44.1151,-2.66008
707,-6,44.0957,2.59485,2.70601e-05,0.000299019,0.00322761,0.00339351,-0.00306743,0.806451,0.00373181,0.0271831,1931,1030,44.0957,-2.59487
714,-6,44.0739,2.52344,-0.000368925,0.000550351,0.003395,0.00351668,-0.00333526,0.852683,0.00395643,0.0287734,1938,1030,44.0739,-2.52346
721,-6,44.121,2.54041,0,0,0,0,0,0,0,-1,1945,1030,44.1209,-2.54035
728,-6,43.6282,5.50977,0,0,0,0,0,0,0,-1,1952,1030,43.6281,-5.50977
735,-6,43.7269,5.44031,-0.00201905,0.0025948,0.00309055,0.00414448,-0.00356873,1.10601,0.00445736,0.0337635,1959,1030,43.7269,-5.4403
742,-6,43.8698,5.44299,-0.00233797,0.00336356,0.00306437,0.00469815,-0.00367256,1.16005,0.00484491,0.0330859,1966,1030,43.8698,-5.44296
749,-6,43.83,5.55591,-0.00286163,0.00502078,0.00303336,0.00605294,-0.00389379,1.24282,0.00578767,0.0270926,1973,1030,43.83,-5.5559
756,-6,43.8734,5.44983,-0.00298247,0.00747854,0.00301926,0.00828742,-0.00379135,1.30904,0.0071329,0.0206012,1980,1030,43.8734,-5.44977
763,-6,43.7893,5.39148,-0.00248518,0.010667,0.00311351,0.0113668,-0.003185,1.3497,0.00883309,0.0186426,1987,1030,43.7893,-5.39148
770,-6,43.7317,5.36902,-0.00145699,0.0146263,0.00351973,0.0153629,-0.00219353,1.36451,0.0110459,0.016333,1994,1030,43.7317,-5.36908
777,-6,43.653,5.33875,0.000542089,0.0198705,0.00458712,0.0209038,-0.000491301,1.34921,0.0141025,0.0186046,2001,1030,43.653,-5.33877
784,-6,43.7063,5.25708,0.00325761,0.0257436,0.00606087,0.0272732,0.00172802,1.32359,0.0176344,0.0442508,2008,1030,43.7063,-5.25705
791,-6,43.8171,5.18518,0,0,0,0,0,0,0,-1,2015,1030,43.8172,-5.1852
798,-6,44.4558,5.59058,0,0,0,0,0,0,0,-1,2022,1030,44.4558,-5.59057
805,-6,42.2808,4.36499,0,0,0,0,0,0,0,-1,2029,1030,42.2807,-4.36505
812,-6,42.3857,4.26831,0,0,0,0,0,0,0,-1,2036,1030,42.3857,-4.26836
-700,-13,0,0,0,0,0,0,0,0,0,-1,524,1037,0,0
-693,-13,-30.343,3.39819,0,0,0,0,0,0,0,-1,531,1037,-30.343,-3.39819
-686,-13,-33.9407,1.16064,0,0,0,0,0,0,0,-1,538,1037,-33.9407,-1.1606
-679,-13,-34.298,1.77295,0,0,0,0,0,0,0,-1,545,1037,-34.298,-1.77296
-672,-13,-32.7054,1.44214,0,0,0,0,0,0,0,-1,552,1037,-32.7054,-1.44219
-665,-13,-32.6646,1.63171,0.00212516,0.0118395,0.0257635,0.0331997,-0.019235,0.878569,0.0306289,0.0475902,559,1037,-32.6645,-1.63176
-658,-13,-32.5037,1.81299,-0.000878995,0.0119027,0.0201025,0.0266057,-0.0155821,0.939302,0.0246327,0.0459474,566,1037,-32.5037,-1.81299
-651,-13,-32.5011,2.07471,-0.00259876,0.0113663,0.0151543,0.0210694,-0.0123018,1.00128,0.0194873,0.040122,573,1037,-32.5011,-2.07475
-644,-13,-32.4857,2.37366,-0.00336266,0.0102971,0.0106962,0.016158,-0.00922353,1.06953,0.0148352,0.030797,580,1037,-32.4857,-2.37367
-637,-13,-32.5797,2.51343,-0.00353605,0.00895686,0.00614254,0.0114711,-0.00605025,1.18229,0.010276,0.0233694,587,1037,-32.5797,-2.51337
-630,-13,-32.6814,2.54431,-0.00305963,0.00745384,0.00219343,0.00789311,-0.00349889,1.37315,0.0067383,0.0153681,594,1037,-32.6814,-2.54435
-623,-13,-32.6927,2.67041,-0.00253011,0.00596785,-0.000923752,0.0060671,-0.00262937,-1.46376,0.00515002,0.0132897,601,1037,-32.6927,-2.67041
-616,-13,-32.6794,2.7738,-0.00199711,0.00463701,-0.0030536,0.00582854,-0.00318864,-1.19876,0.00527991,0.0119371,608,1037,-32.6794,-2.77384
-609,-13,-32.6594,2.83044,-0.00132021,0.00385959,-0.00438685,0.00636401,-0.00382462,-1.05206,0.00594299,0.016868,615,1037,-32.6594,-2.83048
-602,-13,-32.6506,2.92444,-0.000595596,0.00301365,-0.00534749,0.00685281,-0.00443476,-0.948133,0.00656653,0.0129638,622,1037,-32.6506,-2.92446
-595,-13,-32.67,3.00439,0,0,0,0,0,0,0,-1,629,1037,-32.67,-3.00445
-588,-13,-32.3893,0.788574,0,0,0,0,0,0,0,-1,636,1037,-32.3893,-0.788603
-581,-13,-32.4656,0.732666,0.000267986,0.00182114,-0.00541588,0.00651584,-0.00442671,-0.856607,0.00635595,0.0229181,643,1037,-32.4656,-0.732708
-574,-13,-32.4581,0.681396,0.000262967,0.00184553,-0.00486785,0.00598599,-0.0038775,-0.865969,0.0057379,0.0321105,650,1037,-32.4581,-0.681411
-567,-13,-32.5961,0.600708,5.41879e-05,0.00207226,-0.00396082,0.00515055,-0.0030241,-0.910122,0.00477257,0.0401916,657,1037,-32.5961,-0.600679
-560,-13,-32.5461,0.780151,-0.000258648,0.00237923,-0.00272695,0.00408946,-0.00196888,-1.01065,0.0035685,0.041623,664,1037,-32.5462,-0.780176
-553,-13,-32.3831,0.793457,-0.000755688,0.00257219,-0.00125622,0.00299314,-0.00117664,-1.24746,0.0024824,0.0414668,671,1037,-32.3831,-0.793501
-546,-13,-32.4615,0.956909,-0.00143392,0.0023443,0.000332785,0.00237339,-0.00146301,1.48361,0.00223564,0.0399238,678,1037,-32.4615,-0.956906
-539,-13,-32.4778,1.0946,-0.00229411,0.0019311,0.00110478,0.00220254,-0.00256554,1.32988,0.00275551,0.039229,685,1037,-32.4779,-1.09458
-532,-13,-32.6146,1.08386,-0.00327958,0.00191885,1.25016e-05,0.00191888,-0.00327961,1.56839,0.00303543,0.0397361,692,1037,-32.6145,-1.08385
-525,-13,0,0,0,0,0,0,0,0,0,-1,699,1037,0,0
-518,-13,0,0,0,0,0,0,0,0,0,-1,706,1037,0,0
-511,-13,0,0,0,0,0,0,0,0,0,-1,713,1037,0,0
-504,-13,0,0,0,0,0,0,0,0,0,-1,720,1037,0,0
-497,-13,0,0,0,0,0,0,0,0,0,-1,727,1037,0,0
-490,-13,0,0,0,0,0,0,0,0,0,-1,734,1037,0,0
-483,-13,0,0,0,0,0,0,0,0,0,-1,741,1037,0,0
-476,-13,0,0,0,0,0,0,0,0,0,-1,748,1037,0,0
-469,-13,0,0,0,0,0,0,0,0,0,-1,755,1037,0,0
-462,-13,0,0,0,0,0,0,0,0,0,-1,762,1037,0,0
-455,-13,0,0,0,0,0,0,0,0,0,-1,769,1037,0,0
-448,-13,0,0,0,0,0,0,0,0,0,-1,776,1037,0,0
-441,-13,0,0,0,0,0,0,0,0,0,-1,783,1037,0,0
-434,-13,0,0,0,0,0,0,0,0,0,-1,790,1037,0,0
-427,-13,0,0,0,0,0,0,0,0,0,-1,797,1037,0,0
-420,-13,0,0,0,0,0,0,0,0,0,-1,804,1037,0,0
-413,-13,0,0,0,0,0,0,0,0,0,-1,811,1037,0,0
-406,-13,0,0,0,0,0,0,0,0,0,-1,818,1037,0,0
-399,-13,0,0,0,0,0,0,0,0,0,-1,825,1037,0,0
-392,-13,0,0,0,0,0,0,0,0,0,-1,832,1037,0,0
-385,-13,0,0,0,0,0,0,0,0,0,-1,839,1037,0,0
-378,-13,0,0,0,0,0,0,0,0,0,-1,846,1037,0,0
-371,-13,0,0,0,0,0,0,0,0,0,-1,853,1037,0,0
-364,-13,0,0,0,0,0,0,0,0,0,-1,860,1037,0,0
-357,-13,0,0,0,0,0,0,0,0,0,-1,867,1037,0,0
-350,-13,0,0,0,0,0,0,0,0,0,-1,874,1037,0,0
-343,-13,0,0,0,0,0,0,0,0,0,-1,881,1037,0,0
-336,-13,0,0,0,0,0,0,0,0,0,-1,888,1037,0,0
-329,-13,0,0,0,0,0,0,0,0,0,-1,895,1037,0,0
-322,-13,0,0,0,0,0,0,0,0,0,-1,902,1037,0,0
-315,-13,0,0,0,0,0,0,0,0,0,-1,909,1037,0,0
-308,-13,0,0,0,0,0,0,0,0,0,-1,916,1037,0,0
-301,-13,0,0,0,0,0,0,0,0,0,-1,923,1037,0,0
-294,-13,0,0,0,0,0,0,0,0,0,-1,930,1037,0,0
-287,-13,0,0,0,0,0,0,0,0,0,-1,937,1037,0,0
-280,-13,0,0,0,0,0,0,0,0,0,-1,944,1037,0,0
-273,-13,0,0,0,0,0,0,0,0,0,-1,951,1037,0,0
-266,-13,0,0,0,0,0,0,0,0,0,-1,958,1037,0,0
-259,-13,0,0,0,0,0,0,0,0,0,-1,965,1037,0,0
-252,-13,0,0,0,0,0,0,0,0,0,-1,972,1037,0,0
-245,-13,0,0,0,0,0,0,0,0,0,-1,979,1037,0,0
-238,-13,0,0,0,0,0,0,0,0,0,-1,986,1037,0,0
-231,-13,0,0,0,0,0,0,0,0,0,-1,993,1037,0,0
-224,-13,0,0,0,0,0,0,0,0,0,-1,1000,1037,0,0
-217,-13,0,0,0,0,0,0,0,0,0,-1,1007,1037,0,0
-210,-13,0,0,0,0,0,0,0,0,0,-1,1014,1037,0,0
-203,-13,0,0,0,0,0,0,0,0,0,-1,1021,1037,0,0
-196,-13,0,0,0,0,0,0,0,0,0,-1,1028,1037,0,0
-189,-13,0,0,0,0,0,0,0,0,0,-1,1035,1037,0,0
-182,-13,0,0,0,0,0,0,0,0,0,-1,1042,1037,0,0
-175,-13,0,0,0,0,0,0,0,0,0,-1,1049,1037,0,0
-168,-13,0,0,0,0,0,0,0,0,0,-1,1056,1037,0,0
-161,-13,0,0,0,0,0,0,0,0,0,-1,1063,1037,0,0
-154,-13,0,0,0,0,0,0,0,0,0,-1,1070,1037,0,0
-147,-13,0,0,0,0,0,0,0,0,0,-1,1077,1037,0,0
-140,-13,0,0,0,0,0,0,0,0,0,-1,1084,1037,0,0
-133,-13,0,0,0,0,0,0,0,0,0,-1,1091,1037,0,0
-126,-13,0,0,0,0,0,0,0,0,0,-1,1098,1037,0,0
-119,-13,0,0,0,0,0,0,0,0,0,-1,1105,1037,0,0
-112,-13,0,0,0,0,0,0,0,0,0,-1,1112,1037,0,0
-105,-13,0,0,0,0,0,0,0,0,0,-1,1119,1037,0,0
-98,-13,0,0,0,0,0,0,0,0,0,-1,1126,1037,0,0
-91,-13,0,0,0,0,0,0,0,0,0,-1,1133,1037,0,0
-84,-13,0,0,0,0,0,0,0,0,0,-1,1140,1037,0,0
-77,-13,0,0,0,0,0,0,0,0,0,-1,1147,1037,0,0
-70,-13,0,0,0,0,0,0,0,0,0,-1,1154,1037,0,0
-63,-13,0,0,0,0,0,0,0,0,0,-1,1161,1037,0,0
-56,-13,0,0,0,0,0,0,0,0,0,-1,1168,1037,0,0
-49,-13,0,0,0,0,0,0,0,0,0,-1,1175,1037,0,0
-42,-13,0,0,0,0,0,0,0,0,0,-1,1182,1037,0,0
-35,-13,0,0,0,0,0,0,0,0,0,-1,1189,1037,0,0
-28,-13,0,0,0,0,0,0,0,0,0,-1,1196,1037,0,0
-21,-13,0,0,0,0,0,0,0,0,0,-1,1203,1037,0,0
-14,-13,0,0,0,0,0,0,0,0,0,-1,1210,1037,0,0
-7,-13,0,0,0,0,0,0,0,0,0,-1,1217,1037,0,0
0,-13,0,0,0,0,0,0,0,0,0,-1,1224,1037,0,0
7,-13,0,0,0,0,0,0,0,0,0,-1,1231,1037,0,0
14,-13,0,0,0,0,0,0,0,0,0,-1,1238,1037,0,0
21,-13,0,0,0,0,0,0,0,0,0,-1,1245,1037,0,0
28,-13,0,0,0,0,0,0,0,0,0,-1,1252,1037,0,0
35,-13,0,0,0,0,0,0,0,0,0,-1,1259,1037,0,0
42,-13,0,0,0,0,0,0,0,0,0,-1,1266,1037,0,0
49,-13,0,0,0,0,0,0,0,0,0,-1,1273,1037,0,0
56,-13,0,0,0,0,0,0,0,0,0,-1,1280,1037,0,0
63,-13,0,0,0,0,0,0,0,0,0,-1,1287,1037,0,0
70,-13,0,0,0,0,0,0,0,0,0,-1,1294,1037,0,0
77,-13,0,0,0,0,0,0,0,0,0,-1,1301,1037,0,0
84,-13,0,0,0,0,0,0,0,0,0,-1,1308,1037,0,0
91,-13,0,0,0,0,0,0,0,0,0,-1,1315,1037,0,0
98,-13,0,0,0,0,0,0,0,0,0,-1,1322,1037,0,0
105,-13,0,0,0,0,0,0,0,0,0,-1,1329,1037,0,0
112,-13,0,0,0,0,0,0,0,0,0,-1,1336,1037,0,0
119,-13,0,0,0,0,0,0,0,0,0,-1,1343,1037,0,0
126,-13,0,0,0,0,0,0,0,0,0,-1,1350,1037,0,0
133,-13,0,0,0,0,0,0,0,0,0,-1,1357,1037,0,0
140,-13,0,0,0,0,0,0,0,0,0,-1,1364,1037,0,0
147,-13,0,0,0,0,0,0,0,0,0,-1,1371,1037,0,0
154,-13,0,0,0,0,0,0,0,0,0,-1,1378,1037,0,0
161,-13,0,0,0,0,0,0,0,0,0,-1,1385,1037,0,0
168,-13,0,0,0,0,0,0,0,0,0,-1,1392,1037,0,0
175,-13,0,0,0,0,0,0,0,0,0,-1,1399,1037,0,0
182,-13,0,0,0,0,0,0,0,0,0,-1,1406,1037,0,0
189,-13,0,0,0,0,0,0,0,0,0,-1,1413,1037,0,0
196,-13,0,0,0,0,0,0,0,0,0,-1,1420,1037,0,0
203,-13,0,0,0,0,0,0,0,0,0,-1,1427,1037,0,0
210,-13,0,0,0,0,0,0,0,0,0,-1,1434,1037,0,0
217,-13,0,0,0,0,0,0,0,0,0,-1,1441,1037,0,0
224,-13,0,0,0,0,0,0,0,0,0,-1,1448,1037,0,0
231,-13,0,0,0,0,0,0,0,0,0,-1,1455,1037,0,0
238,-13,0,0,0,0,0,0,0,0,0,-1,1462,1037,0,0
245,-13,0,0,0,0,0,0,0,0,0,-1,1469,1037,0,0
252,-13,0,0,0,0,0,0,0,0,0,-1,1476,1037,0,0
259,-13,0,0,0,0,0,0,0,0,0,-1,1483,1037,0,0
266,-13,0,0,0,0,0,0,0,0,0,-1,1490,1037,0,0
273,-13,0,0,0,0,0,0,0,0,0,-1,1497,1037,0,0
280,-13,0,0,0,0,0,0,0,0,0,-1,1504,1037,0,0
287,-13,0,0,0,0,0,0,0,0,0,-1,1511,1037,0,0
294,-13,0,0,0,0,0,0,0,0,0,-1,1518,1037,0,0
301,-13,0,0,0,0,0,0,0,0,0,-1,1525,1037,0,0
308,-13,0,0,0,0,0,0,0,0,0,-1,1532,1037,0,0
315,-13,0,0,0,0,0,0,0,0,0,-1,1539,1037,0,0
322,-13,0,0,0,0,0,0,0,0,0,-1,1546,1037,0,0
329,-13,0,0,0,0,0,0,0,0,0,-1,1553,1037,0,0
336,-13,0,0,0,0,0,0,0,0,0,-1,1560,1037,0,0
343,-13,0,0,0,0,0,0,0,0,0,-1,1567,1037,0,0
350,-13,0,0,0,0,0,0,0,0,0,-1,1574,1037,0,0
357,-13,0,0,0,0,0,0,0,0,0,-1,1581,1037,0,0
364,-13,0,0,0,0,0,0,0,0,0,-1,1588,1037,0,0
371,-13,0,0,0,0,0,0,0,0,0,-1,1595,1037,0,0
378,-13,0,0,0,0,0,0,0,0,0,-1,1602,1037,0,0
385,-13,0,0,0,0,0,0,0,0,0,-1,1609,1037,0,0
392,-13,0,0,0,0,0,0,0,0,0,-1,1616,1037,0,0
399,-13,0,0,0,0,0,0,0,0,0,-1,1623,1037,0,0
406,-13,0,0,0,0,0,0,0,0,0,-1,1630,1037,0,0
413,-13,0,0,0,0,0,0,0,0,0,-1,1637,1037,0,0
420,-13,0,0,0,0,0,0,0,0,0,-1,1644,1037,0,0
427,-13,0,0,0,0,0,0,0,0,0,-1,1651,1037,0,0
434,-13,0,0,0,0,0,0,0,0,0,-1,1658,1037,0,0
441,-13,0,0,0,0,0,0,0,0,0,-1,1665,1037,0,0
448,-13,0,0,0,0,0,0,0,0,0,-1,1672,1037,0,0
455,-13,0,0,0,0,0,0,0,0,0,-1,1679,1037,0,0
462,-13,0,0,0,0,0,0,0,0,0,-1,1686,1037,0,0
469,-13,0,0,0,0,0,0,0,0,0,-1,1693,1037,0,0
476,-13,0,0,0,0,0,0,0,0,0,-1,1700,1037,0,0
483,-13,0,0,0,0,0,0,0,0,0,-1,1707,1037,0,0
490,-13,0,0,0,0,0,0,0,0,0,-1,1714,1037,0,0
497,-13,0,0,0,0,0,0,0,0,0,-1,1721,1037,0,0
504,-13,0,0,0,0,0,0,0,0,0,-1,1728,1037,0,0
511,-13,0,0,0,0,0,0,0,0,0,-1,1735,1037,0,0
518,-13,0,0,0,0,0,0,0,0,0,-1,1742,1037,0,0
525,-13,0,0,0,0,0,0,0,0,0,-1,1749,1037,0,0
532,-13,0,0,0,0,0,0,0,0,0,-1,1756,1037,0,0
539,-13,0,0,0,0,0,0,0,0,0,-1,1763,1037,0,0
546,-13,0,0,0,0,0,0,0,0,0,-1,1770,1037,0,0
553,-13,0,0,0,0,0,0,0,0,0,-1,1777,1037,0,0
560,-13,0,0,0,0,0,0,0,0,0,-1,1784,1037,0,0
567,-13,0,0,0,0,0,0,0,0,0,-1,1791,1037,0,0
574,-13,0,0,0,0,0,0,0,0,0,-1,1798,1037,0,0
581,-13,0,0,0,0,0,0,0,0,0,-1,1805,1037,0,0
588,-13,0,0,0,0,0,0,0,0,0,-1,1812,1037,0,0
595,-13,0,0,0,0,0,0,0,0,0,-1,1819,1037,0,0
602,-13,0,0,0,0,0,0,0,0,0,-1,1826,1037,0,0
609,-13,0,0,0,0,0,0,0,0,0,-1,1833,1037,0,0
616,-13,0,0,0,0,0,0,0,0,0,-1,1840,1037,0,0
623,-13,0,0,0,0,0,0,0,0,0,-1,1847,1037,0,0
630,-13,0,0,0,0,0,0,0,0,0,-1,1854,1037,0,0
637,-13,0,0,0,0,0,0,0,0,0,-1,1861,1037,0,0
644,-13,0,0,0,0,0,0,0,0,0,-1,1868,1037,0,0
651,-13,44.167,2.66907,0,0,0,0,0,0,0,-1,1875,1037,44.167,-2.6691
658,-13,43.8069,2.44836,0,0,0,0,0,0,0,-1,1882,1037,43.8069,-2.44834
665,-13,44.1191,2.4624,-0.0017616,0.000338932,0.000354303,0.000397083,-0.00181975,1.40812,0.00136492,0.0419524,1889,1037,44.1192,-2.4624
672,-13,44.255,2.50195,-0.00124378,0.000420062,0.000713655,0.000684223,-0.00150794,1.21628,0.00129509,0.0376637,1896,1037,44.255,-2.5019
679,-13,43.9998,2.54419,-0.000771948,0.000557256,0.00124842,0.00130695,-0.00152164,1.03,0.00163466,0.0381599,1903,1037,43.9998,-2.54416
686,-13,43.8719,2.37061,-0.00047239,0.000475187,0.00186836,0.00192889,-0.00192609,0.909574,0.00222568,0.0397784,1910,1037,43.8719,-2.37058
693,-13,43.9026,2.44824,-0.000255735,0.000301333,0.00242044,0.00245921,-0.00241361,0.842684,0.00281337,0.039694,1917,1037,43.9025,-2.4483
700,-13,44.031,2.5116,-0.000116154,0.000215276,0.00281521,0.00286964,-0.00277052,0.814796,0.00325652,0.0361733,1924,1037,44.0309,-2.51163
707,-13,44.1099,2.53418,-0.000122335,0.000231059,0.00302155,0.00308107,-0.00297235,0.814604,0.00349513,0.0311937,1931,1037,44.1098,-2.53412
714,-13,44.0681,2.67554,-0.000496022,0.000433879,0.0031942,0.00319679,-0.00325893,0.857671,0.00372727,0.0269445,1938,1037,44.0682,-2.67559
721,-13,43.99,2.94348,0,0,0,0,0,0,0,-1,1945,1037,43.99,-2.94344
728,-13,43.8369,5.59119,0,0,0,0,0,0,0,-1,1952,1037,43.8369,-5.59113
735,-13,43.8042,5.57556,-0.00207622,0.00237129,0.00298107,0.00386666,-0.00357159,1.10585,0.0042956,0.0267258,1959,1037,43.8042,-5.57553
742,-13,43.7902,5.53967,-0.00237661,0.00318835,0.00300859,0.00450389,-0.00369215,1.15859,0.00473972,0.0175849,1966,1037,43.7901,-5.53966
749,-13,43.8157,5.48157,-0.00294016,0.00486516,0.00300622,0.00588877,-0.00396377,1.24261,0.00572444,0.0229196,1973,1037,43.8157,-5.48151
756,-13,43.7952,5.40747,-0.00318174,0.0072878,0.00300725,0.00809012,-0.00398406,1.31008,0.00710412,0.0164359,1980,1037,43.7952,-5.4075
763,-13,43.7618,5.3374,-0.00282934,0.0104343,0.00318718,0.0111604,-0.00355545,1.3468,0.00886633,0.0218247,1987,1037,43.7619,-5.33743
770,-13,43.6949,5.31445,-0.00203134,0.0143814,0.0036342,0.0151501,-0.00280005,1.36235,0.0111512,0.0190216,1994,1037,43.6949,-5.31444
777,-13,43.5743,5.22827,-0.00036731,0.019646,0.00475079,0.0207165,-0.0014378,1.34917,0.0143143,0.0153901,2001,1037,43.5743,-5.22828
784,-13,43.6404,5.13745,0.00189508,0.025489,0.00629389,0.0270629,0.000321119,1.32575,0.0179359,0.0339578,2008,1037,43.6404,-5.13744
791,-13,43.9939,5.2583,0.00492961,0.0321987,0.00846196,0.0346112,0.00251718,1.29307,0.0222825,0.0473094,2015,1037,43.9938,-5.25836
798,-13,44.0508,5.45215,0.00889486,0.0399623,0.0112172,0.043589,0.00526815,1.25809,0.0274722,0.0477781,2022,1037,44.0508,-5.45211
805,-13,44.0911,5.60999,0,0,0,0,0,0,0,-1,2029,1037,44.091,-5.60996
812,-13,44.0576,6.0083,0,0,0,0,0,0,0,-1,2036,1037,44.0576,-6.00835
-700,-20,-30.2345,3.78076,0,0,0,0,0,0,0,-1,524,1044,-30.2345,-3.78081
-693,-20,-29.9875,3.68176,0,0,0,0,0,0,0,-1,531,1044,-29.9875,-3.6818
-686,-20,-34.4182,1.84668,0,0,0,0,0,0,0,-1,538,1044,-34.4182,-1.84662
-679,-20,-34.8066,2.27698,0,0,0,0,0,0,0,-1,545,1044,-34.8066,-2.27701
-672,-20,-32.4726,1.1084,0,0,0,0,0,0,0,-1,552,1044,-32.4726,-1.10841
-665,-20,-32.4464,1.52576,0.00512637,0.0133652,0.0228281,0.0324427,-0.013951,0.874665,0.0274855,0.0481821,559,1044,-32.4464,-1.5257
-658,-20,-32.2519,1.7229,0.00199582,0.0133664,0.0177022,0.0262738,-0.0109116,0.940777,0.0220713,0.0471097,566,1044,-32.2519,-1.72292
-651,-20,-32.3434,2.26111,-8.48406e-05,0.0125623,0.0132468,0.0209175,-0.00844001,1.00809,0.0174524,0.0382014,573,1044,-32.3434,-2.26116
-644,-20,-32.374,2.21558,-0.00130124,0.01113,0.00926758,0.0160733,-0.00624456,1.08079,0.0132952,0.0268867,580,1044,-32.374,-2.21562
-637,-20,-32.4631,2.30774,-0.00195478,0.00940542,0.00515612,0.0113966,-0.00394599,1.20226,0.00919964,0.0187237,587,1044,-32.4631,-2.30777
-630,-20,-32.5168,2.47778,-0.00197315,0.00753816,0.00154681,0.0077834,-0.00221839,1.41356,0.00606517,0.0154026,594,1044,-32.5168,-2.47775
-623,-20,-32.5377,2.64294,-0.00194578,0.00581734,-0.00128398,0.00602419,-0.00215263,-1.41107,0.0048941,0.0141586,601,1044,-32.5377,-2.64299
-616,-20,-32.5336,2.771,-0.00181903,0.0043323,-0.00320918,0.00570169,-0.00318843,-1.16748,0.00520063,0.0130128,608,1044,-32.5336,-2.77096
-609,-20,-32.5514,2.86255,-0.00143564,0.00350188,-0.00443898,0.00611243,-0.00404618,-1.03918,0.00590538,0.0147827,615,1044,-32.5514,-2.86258
-602,-20,-32.5366,2.96802,-0.000849087,0.00269415,-0.00536507,0.00657255,-0.00472748,-0.944868,0.006553,0.0132816,622,1044,-32.5366,-2.96803
-595,-20,-32.5656,3.08154,0,0,0,0,0,0,0,-1,629,1044,-32.5656,-3.08158
-588,-20,-32.4171,0.782471,0,0,0,0,0,0,0,-1,636,1044,-32.417,-0.782411
-581,-20,-32.4565,0.720703,-0.000144278,0.00181761,-0.00535636,0.00628211,-0.00460878,-0.875963,0.00631255,0.030776,643,1044,-32.4565,-0.720712
-574,-20,-32.4444,0.703491,-0.000118255,0.00199594,-0.00480095,0.00585479,-0.00397711,-0.893761,0.00571086,0.0380139,650,1044,-32.4444,-0.703512
-567,-20,-32.6193,0.588257,-0.000254912,0.00240359,-0.00389095,0.00518608,-0.0030374,-0.949996,0.00480154,0.0443486,657,1044,-32.6193,-0.588233
-560,-20,-32.5204,0.58667,-0.000449308,0.00294378,-0.00262342,0.00437143,-0.00187696,-1.07242,0.00370209,0.0445986,664,1044,-32.5204,-0.586666
-553,-20,-32.3448,0.629761,-0.00077204,0.00342992,-0.00105536,0.00368009,-0.00102221,-1.33805,0.00285578,0.0417668,671,1044,-32.3448,-0.629731
-546,-20,-32.397,0.886597,-0.00122139,0.00354987,0.000734377,0.00366034,-0.00133187,1.42148,0.00298493,0.0404745,678,1044,-32.397,-0.886582
-539,-20,-32.5994,1.0343,-0.00188517,0.00340635,0.00180502,0.00396342,-0.00244224,1.27145,0.00373291,0.0416422,685,1044,-32.5993,-1.03425
-532,-20,-32.7376,1.02234,-0.00286471,0.003549,0.00101667,0.00370629,-0.00302201,1.41729,0.00389128,0.0421005,692,1044,-32.7376,-1.02236
-525,-20,0,0,0,0,0,0,0,0,0,-1,699,1044,0,0
-518,-20,0,0,0,0,0,0,0,0,0,-1,706,1044,0,0
-511,-20,0,0,0,0,0,0,0,0,0,-1,713,1044,0,0
-504,-20,0,0,0,0,0,0,0,0,0,-1,720,1044,0,0
-497,-20,0,0,0,0,0,0,0,0,0,-1,727,1044,0,0
-490,-20,0,0,0,0,0,0,0,0,0,-1,734,1044,0,0
-483,-20,0,0,0,0,0,0,0,0,0,-1,741,1044,0,0
-476,-20,0,0,0,0,0,0,0,0,0,-1,748,1044,0,0
-469,-20,0,0,0,0,0,0,0,0,0,-1,755,1044,0,0
-462,-20,0,0,0,0,0,0,0,0,0,-1,762,1044,0,0
-455,-20,0,0,0,0,0,0,0,0,0,-1,769,1044,0,0
-448,-20,0,0,0,0,0,0,0,0,0,-1,776,1044,0,0
-441,-20,0,0,0,0,0,0,0,0,0,-1,783,1044,0,0
-434,-20,0,0,0,0,0,0,0,0,0,-1,790,1044,0,0
-427,-20,0,0,0,0,0,0,0,0,0,-1,797,1044,0,0
-420,-20,0,0,0,0,0,0,0,0,0,-1,804,1044,0,0
-413,-20,0,0,0,0,0,0,0,0,0,-1,811,1044,0,0
-406,-20,0,0,0,0,0,0,0,0,0,-1,818,1044,0,0
-399,-20,0,0,0,0,0,0,0,0,0,-1,825,1044,0,0
-392,-20,0,0,0,0,0,0,0,0,0,-1,832,1044,0,0
-385,-20,0,0,0,0,0,0,0,0,0,-1,839,1044,0,0
-378,-20,0,0,0,0,0,0,0,0,0,-1,846,1044,0,0
-371,-20,0,0,0,0,0,0,0,0,0,-1,853,1044,0,0
-364,-20,0,0,0,0,0,0,0,0,0,-1,860,1044,0,0
-357,-20,0,0,0,0,0,0,0,0,0,-1,867,1044,0,0
-350,-20,0,0,0,0,0,0,0,0,0,-1,874,1044,0,0
-343,-20,0,0,0,0,0,0,0,0,0,-1,881,1044,0,0
-336,-20,0,0,0,0,0,0,0,0,0,-1,888,1044,0,0
-329,-20,0,0,0,0,0,0,0,0,0,-1,895,1044,0,0
-322,-20,0,0,0,0,0,0,0,0,0,-1,902,1044,0,0
-315,-20,0,0,0,0,0,0,0,0,0,-1,909,1044,0,0
-308,-20,0,0,0,0,0,0,0,0,0,-1,916,1044,0,0
-301,-20,0,0,0,0,0,0,0,0,0,-1,923,1044,0,0
-294,-20,0,0,0,0,0,0,0,0,0,-1,930,1044,0,0
-287,-20,0,0,0,0,0,0,0,0,0,-1,937,1044,0,0
-280,-20,0,0,0,0,0,0,0,0,0,-1,944,1044,0,0
-273,-20,0,0,0,0,0,0,0,0,0,-1,951,1044,0,0
-266,-20,0,0,0,0,0,0,0,0,0,-1,958,1044,0,0
-259,-20,0,0,0,0,0,0,0,0,0,-1,965,1044,0,0
-252,-20,0,0,0,0,0,0,0,0,0,-1,972,1044,0,0
-245,-20,0,0,0,0,0,0,0,0,0,-1,979,1044,0,0
-238,-20,0,0,0,0,0,0,0,0,0,-1,986,1044,0,0
-231,-20,0,0,0,0,0,0,0,0,0,-1,993,1044,0,0
-224,-20,0,0,0,0,0,0,0,0,0,-1,1000,1044,0,0
-217,-20,0,0,0,0,0,0,0,0,0,-1,1007,1044,0,0
-210,-20,0,0,0,0,0,0,0,0,0,-1,1014,1044,0,0
-203,-20,0,0,0,0,0,0,0,0,0,-1,1021,1044,0,0
-196,-20,0,0,0,0,0,0,0,0,0,-1,1028,1044,0,0
-189,-20,0,0,0,0,0,0,0,0,0,-1,1035,1044,0,0
-182,-20,0,0,0,0,0,0,0,0,0,-1,1042,1044,0,0
-175,-20,0,0,0,0,0,0,0,0,0,-1,1049,1044,0,0
-168,-20,0,0,0,0,0,0,0,0,0,-1,1056,1044,0,0
-161,-20,0,0,0,0,0,0,0,0,0,-1,1063,1044,0,0
-154,-20,0,0,0,0,0,0,0,0,0,-1,1070,1044,0,0
-147,-20,0,0,0,0,0,0,0,0,0,-1,1077,1044,0,0
-140,-20,0,0,0,0,0,0,0,0,0,-1,1084,1044,0,0
-133,-20,0,0,0,0,0,0,0,0,0,-1,1091,1044,0,0
-126,-20,0,0,0,0,0,0,0,0,0,-1,1098,1044,0,0
-119,-20,0,0,0,0,0,0,0,0,0,-1,1105,1044,0,0
-112,-20,0,0,0,0,0,0,0,0,0,-1,1112,1044,0,0
-105,-20,0,0,0,0,0,0,0,0,0,-1,1119,1044,0,0
-98,-20,0,0,0,0,0,0,0,0,0,-1,1126,1044,0,0
-91,-20,0,0,0,0,0,0,0,0,0,-1,1133,1044,0,0
-84,-20,0,0,0,0,0,0,0,0,0,-1,1140,1044,0,0
-77,-20,0,0,0,0,0,0,0,0,0,-1,1147,1044,0,0
-70,-20,0,0,0,0,0,0,0,0,0,-1,1154,1044,0,0
-63,-20,0,0,0,0,0,0,0,0,0,-1,1161,1044,0,0
-56,-20,0,0,0,0,0,0,0,0,0,-1,1168,1044,0,0
-49,-20,0,0,0,0,0,0,0,0,0,-1,1175,1044,0,0
-42,-20,0,0,0,0,0,0,0,0,0,-1,1182,1044,0,0
-35,-20,0,0,0,0,0,0,0,0,0,-1,1189,1044,0,0
-28,-20,0,0,0,0,0,0,0,0,0,-1,1196,1044,0,0
-21,-20,0,0,0,0,0,0,0,0,0,-1,1203,1044,0,0
-14,-20,0,0,0,0,0,0,0,0,0,-1,1210,1044,0,0
-7,-20,0,0,0,0,0,0,0,0,0,-1,1217,1044,0,0
0,-20,0,0,0,0,0,0,0,0,0,-1,1224,1044,0,0
7,-20,0,0,0,0,0,0,0,0,0,-1,1231,1044,0,0
14,-20,0,0,0,0,0,0,0,0,0,-1,1238,1044,0,0
21,-20,0,0,0,0,0,0,0,0,0,-1,1245,1044,0,0
28,-20,0,0,0,0,0,0,0,0,0,-1,1252,1044,0,0
35,-20,0,0,0,0,0,0,0,0,0,-1,1259,1044,0,0
42,-20,0,0,0,0,0,0,0,0,0,-1,1266,1044,0,0
49,-20,0,0,0,0,0,0,0,0,0,-1,1273,1044,0,0
56,-20,0,0,0,0,0,0,0,0,0,-1,1280,1044,0,0
63,-20,0,0,0,0,0,0,0,0,0,-1,1287,1044,0,0
70,-20,0,0,0,0,0,0,0,0,0,-1,1294,1044,0,0
77,-20,0,0,0,0,0,0,0,0,0,-1,1301,1044,0,0
84,-20,0,0,0,0,0,0,0,0,0,-1,1308,1044,0,0
91,-20,0,0,0,0,0,0,0,0,0,-1,1315,1044,0,0
98,-20,0,0,0,0,0,0,0,0,0,-1,1322,1044,0,0
105,-20,0,0,0,0,0,0,0,0,0,-1,1329,1044,0,0
112,-20,0,0,0,0,0,0,0,0,0,-1,1336,1044,0,0
119,-20,0,0,0,0,0,0,0,0,0,-1,1343,1044,0,0
126,-20,0,0,0,0,0,0,0,0,0,-1,1350,1044,0,0
133,-20,0,0,0,0,0,0,0,0,0,-1,1357,1044,0,0
140,-20,0,0,0,0,0,0,0,0,0,-1,1364,1044,0,0
147,-20,0,0,0,0,0,0,0,0,0,-1,1371,1044,0,0
154,-20,0,0,0,0,0,0,0,0,0,-1,1378,1044,0,0
161,-20,0,0,0,0,0,0,0,0,0,-1,1385,1044,0,0
168,-20,0,0,0,0,0,0,0,0,0,-1,1392,1044,0,0
175,-20,0,0,0,0,0,0,0,0,0,-1,1399,1044,0,0
182,-20,0,0,0,0,0,0,0,0,0,-1,1406,1044,0,0
189,-20,0,0,0,0,0,0,0,0,0,-1,1413,1044,0,0
196,-20,0,0,0,0,0,0,0,0,0,-1,1420,1044,0,0
203,-20,0,0,0,0,0,0,0,0,0,-1,1427,1044,0,0
210,-20,0,0,0,0,0,0,0,0,0,-1,1434,1044,0,0
217,-20,0,0,0,0,0,0,0,0,0,-1,1441,1044,0,0
224,-20,0,0,0,0,0,0,0,0,0,-1,1448,1044,0,0
231,-20,0,0,0,0,0,0,0,0,0,-1,1455,1044,0,0
238,-20,0,0,0,0,0,0,0,0,0,-1,1462,1044,0,0
245,-20,0,0,0,0,0,0,0,0,0,-1,1469,1044,0,0
252,-20,0,0,0,0,0,0,0,0,0,-1,1476,1044,0,0
259,-20,0,0,0,0,0,0,0,0,0,-1,1483,1044,0,0
266,-20,0,0,0,0,0,0,0,0,0,-1,1490,1044,0,0
273,-20,0,0,0,0,0,0,0,0,0,-1,1497,1044,0,0
280,-20,0,0,0,0,0,0,0,0,0,-1,1504,1044,0,0
287,-20,0,0,0,0,0,0,0,0,0,-1,1511,1044,0,0
294,-20,0,0,0,0,0,0,0,0,0,-1,1518,1044,0,0
301,-20,0,0,0,0,0,0,0,0,0,-1,1525,1044,0,0
308,-20,0,0,0,0,0,0,0,0,0,-1,1532,1044,0,0
315,-20,0,0,0,0,0,0,0,0,0,-1,1539,1044,0,0
322,-20,0,0,0,0,0,0,0,0,0,-1,1546,1044,0,0
329,-20,0,0,0,0,0,0,0,0,0,-1,1553,1044,0,0
336,-20,0,0,0,0,0,0,0,0,0,-1,1560,1044,0,0
343,-20,0,0,0,0,0,0,0,0,0,-1,1567,1044,0,0
350,-20,0,0,0,0,0,0,0,0,0,-1,1574,1044,0,0
357,-20,0,0,0,0,0,0,0,0,0,-1,1581,1044,0,0
364,-20,0,0,0,0,0,0,0,0,0,-1,1588,1044,0,0
371,-20,0,0,0,0,0,0,0,0,0,-1,1595,1044,0,0
378,-20,0,0,0,0,0,0,0,0,0,-1,1602,1044,0,0
385,-20,0,0,0,0,0,0,0,0,0,-1,1609,1044,0,0
392,-20,0,0,0,0,0,0,0,0,0,-1,1616,1044,0,0
399,-20,0,0,0,0,0,0,0,0,0,-1,1623,1044,0,0
406,-20,0,0,0,0,0,0,0,0,0,-1,1630,1044,0,0
413,-20,0,0,0,0,0,0,0,0,0,-1,1637,1044,0,0
420,-20,0,0,0,0,0,0,0,0,0,-1,1644,1044,0,0
427,-20,0,0,0,0,0,0,0,0,0,-1,1651,1044,0,0
434,-20,0,0,0,0,0,0,0,0,0,-1,1658,1044,0,0
441,-20,0,0,0,0,0,0,0,0,0,-1,1665,1044,0,0
448,-20,0,0,0,0,0,0,0,0,0,-1,1672,1044,0,0
455,-20,0,0,0,0,0,0,0,0,0,-1,1679,1044,0,0
462,-20,0,0,0,0,0,0,0,0,0,-1,1686,1044,0,0
469,-20,0,0,0,0,0,0,0,0,0,-1,1693,1044,0,0
476,-20,0,0,0,0,0,0,0,0,0,-1,1700,1044,0,0
483,-20,0,0,0,0,0,0,0,0,0,-1,1707,1044,0,0
490,-20,0,0,0,0,0,0,0,0,0,-1,1714,1044,0,0
497,-20,0,0,0,0,0,0,0,0,0,-1,1721,1044,0,0
504,-20,0,0,0,0,0,0,0,0,0,-1,1728,1044,0,0
511,-20,0,0,0,0,0,0,0,0,0,-1,1735,1044,0,0
518,-20,0,0,0,0,0,0,0,0,0,-1,1742,1044,0,0
525,-20,0,0,0,0,0,0,0,0,0,-1,1749,1044,0,0
532,-20,0,0,0,0,0,0,0,0,0,-1,1756,1044,0,0
539,-20,0,0,0,0,0,0,0,0,0,-1,1763,1044,0,0
546,-20,0,0,0,0,0,0,0,0,0,-1,1770,1044,0,0
553,-20,0,0,0,0,0,0,0,0,0,-1,1777,1044,0,0
560,-20,0,0,0,0,0,0,0,0,0,-1,1784,1044,0,0
567,-20,0,0,0,0,0,0,0,0,0,-1,1791,1044,0,0
574,-20,0,0,0,0,0,0,0,0,0,-1,1798,1044,0,0
581,-20,0,0,0,0,0,0,0,0,0,-1,1805,1044,0,0
588,-20,0,0,0,0,0,0,0,0,0,-1,1812,1044,0,0
595,-20,0,0,0,0,0,0,0,0,0,-1,1819,1044,0,0
602,-20,0,0,0,0,0,0,0,0,0,-1,1826,1044,0,0
609,-20,0,0,0,0,0,0,0,0,0,-1,1833,1044,0,0
616,-20,0,0,0,0,0,0,0,0,0,-1,1840,1044,0,0
623,-20,0,0,0,0,0,0,0,0,0,-1,1847,1044,0,0
630,-20,0,0,0,0,0,0,0,0,0,-1,1854,1044,0,0
637,-20,0,0,0,0,0,0,0,0,0,-1,1861,1044,0,0
644,-20,0,0,0,0,0,0,0,0,0,-1,1868,1044,0,0
651,-20,44.2181,2.68909,-0.00328446,0.000621215,0.000196023,0.000631029,-0.00329427,1.52077,0.00243395,0.0390261,1875,1044,44.2181,-2.68911
658,-20,44.1024,2.76453,-0.00248403,0.000535993,0.000212602,0.000550886,-0.00249893,1.50086,0.00187673,0.0426514,1882,1044,44.1024,-2.76457
665,-20,44.0964,2.69214,-0.00188815,0.000480212,0.000334747,0.000526617,-0.00193455,1.43305,0.00149645,0.0395264,1889,1044,44.0965,-2.69218
672,-20,44.1184,2.60132,-0.00139595,0.000533869,0.000614445,0.000712898,-0.00157498,1.28728,0.0013518,0.0256936,1896,1044,44.1184,-2.60134
679,-20,44.094,2.49817,-0.000909416,0.000641206,0.00104397,0.00116627,-0.00143448,1.10479,0.00150421,0.0270915,1903,1044,44.094,-2.49813
686,-20,44.0352,2.30481,-0.000601778,0.000526166,0.00157483,0.00163496,-0.00171057,0.957342,0.00193171,0.0360742,1910,1044,44.0352,-2.30479
693,-20,43.9425,2.32996,-0.000384549,0.000317552,0.00206588,0.002062,-0.002129,0.869558,0.00241978,0.0405493,1917,1044,43.9425,-2.32999
700,-20,44.0065,2.45825,-0.000244284,0.000197984,0.00244618,0.002433,-0.0024793,0.830476,0.00283616,0.0366368,1924,1044,44.0065,-2.45827
707,-20,44.0826,2.51733,-0.000243647,0.000187239,0.00265304,0.00263357,-0.00268998,0.825912,0.00307361,0.0305923,1931,1044,44.0827,-2.51729
714,-20,44.0963,2.729,-0.000600587,0.000351464,0.00284685,0.00276181,-0.00301094,0.868237,0.00333393,0.0266913,1938,1044,44.0964,-2.72899
721,-20,43.9976,2.84277,0,0,0,0,0,0,0,-1,1945,1044,43.9975,-2.84276
728,-20,44.0698,5.60925,0,0,0,0,0,0,0,-1,1952,1044,44.0698,-5.60931
735,-20,43.8491,5.59058,-0.00210247,0.00213363,0.00274379,0.00348178,-0.00345061,1.1141,0.00400243,0.0273977,1959,1044,43.8491,-5.59056
742,-20,43.6927,5.50537,-0.00237578,0.00292235,0.00279632,0.00412517,-0.00357859,1.16458,0.0044515,0.0218696,1966,1044,43.6927,-5.50536
749,-20,43.7524,5.45007,-0.00289047,0.00459111,0.00281303,0.00553077,-0.00383014,1.24841,0.00543417,0.0231485,1973,1044,43.7524,-5.45005
756,-20,43.7249,5.37695,-0.00320186,0.00692358,0.00280567,0.00764903,-0.0039273,1.31777,0.00679776,0.01601,1980,1044,43.7248,-5.37695
763,-20,43.6505,5.2915,-0.00290091,0.00997295,0.00303548,0.0106528,-0.00358074,1.35047,0.00854915,0.0226123,1987,1044,43.6506,-5.2915
770,-20,43.5901,5.29602,-0.00219127,0.0138676,0.00348149,0.0145898,-0.00291355,1.36623,0.0108292,0.0201732,1994,1044,43.5901,-5.29598
777,-20,43.5059,5.15417,-0.000654831,0.0190821,0.0045816,0.0200938,-0.00166651,1.35347,0.0139845,0.0142452,2001,1044,43.5059,-5.15412
784,-20,43.5049,5.09741,0.00141279,0.0248339,0.00614752,0.0263494,-0.00010273,1.32909,0.0176006,0.0186087,2008,1044,43.505,-5.09744
791,-20,43.5779,5.04639,0.00416832,0.0313753,0.00840095,0.0337603,0.00178335,1.29418,0.0219366,0.0360919,2015,1044,43.5779,-5.04638
798,-20,43.6389,5.31848,0.00778905,0.0388885,0.0114018,0.0426208,0.00405677,1.25445,0.0271628,0.0460064,2022,1044,43.639,-5.31851
805,-20,43.6492,5.51855,0.0124331,0.0476935,0.015236,0.0533648,0.00676182,1.21446,0.0335505,0.0468575,2029,1044,43.6492,-5.5186
812,-20,43.6409,5.69873,0.0177584,0.0580207,0.0199517,0.0662326,0.00954639,1.18034,0.041342,0.0474806,2036,1044,43.6408,-5.69871
-700,-27,-29.8594,4.39832,0,0,0,0,0,0,0,-1,524,1051,-29.8594,-4.39828
-693,-27,-29.6017,3.98792,0,0,0,0,0,0,0,-1,531,1051,-29.6016,-3.9879
-686,-27,-29.6712,3.59863,0,0,0,0,0,0,0,-1,538,1051,-29.6712,-3.59867
-679,-27,-32.8563,0.470581,0,0,0,0,0,0,0,-1,545,1051,-32.8563,-0.470565
-672,-27,-32.7776,1.06165,0.0090608,0.0117918,0.02398,0.0344451,-0.0135925,0.813839,0.0285923,0.0496416,552,1051,-32.7776,-1.06163
-665,-27,-32.5867,1.78674,0.00553952,0.0132018,0.0191191,0.0288698,-0.0101285,0.884281,0.0233663,0.0461796,559,1051,-32.5868,-1.78676
-658,-27,-32.1851,1.80261,0,0,0,0,0,0,0,-1,566,1051,-32.1851,-1.80261
-651,-27,-32.14,2.1676,0.00091535,0.0126381,0.0110035,0.019244,-0.00569049,1.03012,0.0150882,0.0349245,573,1051,-32.14,-2.16764
-644,-27,-32.2418,2.09375,-0.000293826,0.0111375,0.00762269,0.0149494,-0.0041057,1.10709,0.0115801,0.0173604,580,1051,-32.2418,-2.09373
-637,-27,-32.3113,2.19897,-0.00105465,0.00927644,0.00404245,0.0106702,-0.00244839,1.23878,0.0080546,0.0145539,587,1051,-32.3113,-2.19892
-630,-27,-32.3605,2.45483,-0.00128773,0.00724154,0.000837402,0.00732298,-0.00136916,1.47385,0.00539658,0.0181158,594,1051,-32.3605,-2.45481
-623,-27,-32.3632,2.6366,-0.00151296,0.00548579,-0.00169148,0.00587315,-0.00190032,-1.34567,0.00467932,0.0164167,601,1051,-32.3632,-2.63665
-616,-27,-32.3421,2.7843,-0.00161857,0.00393992,-0.00339193,0.00554581,-0.00322446,-1.12862,0.0051223,0.0135876,608,1051,-32.3421,-2.78433
-609,-27,-32.3772,2.92651,-0.00143601,0.00305977,-0.00448707,0.00583052,-0.00420676,-1.01761,0.00582025,0.0136603,615,1051,-32.3772,-2.92649
-602,-27,-32.3462,3.0802,-0.000996257,0.00228844,-0.00535784,0.00624999,-0.00495781,-0.934118,0.00648515,0.0130971,622,1051,-32.3462,-3.0802
-595,-27,-32.3819,3.19397,-0.000729984,0.00181911,-0.00575252,0.00643659,-0.00534746,-0.894418,0.0068132,0.0146323,629,1051,-32.3819,-3.19394
-588,-27,-32.5896,3.26001,0,0,0,0,0,0,0,-1,636,1051,-32.5896,-3.26002
-581,-27,-32.3707,0.757202,-0.000382989,0.00175401,-0.00525072,0.00604385,-0.00467282,-0.885776,0.00620413,0.0250861,643,1051,-32.3708,-0.757228
-574,-27,-32.3409,0.740234,-0.000315812,0.00208172,-0.00469045,0.00572417,-0.00395826,-0.910508,0.00562106,0.0357499,650,1051,-32.3409,-0.740268
-567,-27,-32.4041,0.597046,-0.000362275,0.00265753,-0.00378417,0.00522191,-0.00292665,-0.975223,0.00476638,0.0435926,657,1051,-32.4041,-0.597066
-560,-27,-32.4396,0.683472,-0.000433605,0.00341188,-0.00250806,0.0046494,-0.00167113,-1.11243,0.00378179,0.0447927,664,1051,-32.4397,-0.683423
-553,-27,-32.4131,0.757202,-0.000596947,0.00418047,-0.000895271,0.00434273,-0.000759206,-1.3915,0.00317859,0.0404183,671,1051,-32.4131,-0.757184
-546,-27,-32.2953,0.69043,-0.000867186,0.00467016,0.00100231,0.00484601,-0.00104303,1.39713,0.00362866,0.0424415,678,1051,-32.2953,-0.690423
-539,-27,-32.4373,0.854248,-0.00144782,0.00487618,0.00225978,0.00560068,-0.00217232,1.26055,0.00463096,0.0448087,685,1051,-32.4372,-0.854271
-532,-27,-32.675,0.953735,-0.00259464,0.00532911,0.00161564,0.00564588,-0.0029114,1.37719,0.00502392,0.042716,692,1051,-32.675,-0.953696
-525,-27,0,0,0,0,0,0,0,0,0,-1,699,1051,0,0
-518,-27,0,0,0,0,0,0,0,0,0,-1,706,1051,0,0
-511,-27,0,0,0,0,0,0,0,0,0,-1,713,1051,0,0
-504,-27,0,0,0,0,0,0,0,0,0,-1,720,1051,0,0
-497,-27,0,0,0,0,0,0,0,0,0,-1,727,1051,0,0
-490,-27,0,0,0,0,0,0,0,0,0,-1,734,1051,0,0
-483,-27,0,0,0,0,0,0,0,0,0,-1,741,1051,0,0
-476,-27,0,0,0,0,0,0,0,0,0,-1,748,1051,0,0
-469,-27,0,0,0,0,0,0,0,0,0,-1,755,1051,0,0
-462,-27,0,0,0,0,0,0,0,0,0,-1,762,1051,0,0
-455,-27,0,0,0,0,0,0,0,0,0,-1,769,1051,0,0
-448,-27,0,0,0,0,0,0,0,0,0,-1,776,1051,0,0
-441,-27,0,0,0,0,0,0,0,0,0,-1,783,1051,0,0
-434,-27,0,0,0,0,0,0,0,0,0,-1,790,1051,0,0
-427,-27,0,0,0,0,0,0,0,0,0,-1,797,1051,0,0
-420,-27,0,0,0,0,0,0,0,0,0,-1,804,1051,0,0
-413,-27,0,0,0,0,0,0,0,0,0,-1,811,1051,0,0
-406,-27,0,0,0,0,0,0,0,0,0,-1,818,1051,0,0
-399,-27,0,0,0,0,0,0,0,0,0,-1,825,1051,0,0
-392,-27,0,0,0,0,0,0,0,0,0,-1,832,1051,0,0
-385,-27,0,0,0,0,0,0,0,0,0,-1,839,1051,0,0
-378,-27,0,0,0,0,0,0,0,0,0,-1,846,1051,0,0
-371,-27,0,0,0,0,0,0,0,0,0,-1,853,1051,0,0
-364,-27,0,0,0,0,0,0,0,0,0,-1,860,1051,0,0
-357,-27,0,0,0,0,0,0,0,0,0,-1,867,1051,0,0
-350,-27,0,0,0,0,0,0,0,0,0,-1,874,1051,0,0
-343,-27,0,0,0,0,0,0,0,0,0,-1,881,1051,0,0
-336,-27,0,0,0,0,0,0,0,0,0,-1,888,1051,0,0
-329,-27,0,0,0,0,0,0,0,0,0,-1,895,1051,0,0
-322,-27,0,0,0,0,0,0,0,0,0,-1,902,1051,0,0
-315,-27,0,0,0,0,0,0,0,0,0,-1,909,1051,0,0
-308,-27,0,0,0,0,0,0,0,0,0,-1,916,1051,0,0
-301,-27,0,0,0,0,0,0,0,0,0,-1,923,1051,0,0
-294,-27,0,0,0,0,0,0,0,0,0,-1,930,1051,0,0
-287,-27,0,0,0,0,0,0,0,0,0,-1,937,1051,0,0
-280,-27,0,0,0,0,0,0,0,0,0,-1,944,1051,0,0
-273,-27,0,0,0,0,0,0,0,0,0,-1,951,1051,0,0
-266,-27,0,0,0,0,0,0,0,0,0,-1,958,1051,0,0
-259,-27,0,0,0,0,0,0,0,0,0,-1,965,1051,0,0
-252,-27,0,0,0,0,0,0,0,0,0,-1,972,1051,0,0
-245,-27,0,0,0,0,0,0,0,0,0,-1,979,1051,0,0
-238,-27,0,0,0,0,0,0,0,0,0,-1,986,1051,0,0
-231,-27,0,0,0,0,0,0,0,0,0,-1,993,1051,0,0
-224,-27,0,0,0,0,0,0,0,0,0,-1,1000,1051,0,0
-217,-27,0,0,0,0,0,0,0,0,0,-1,1007,1051,0,0
-210,-27,0,0,0,0,0,0,0,0,0,-1,1014,1051,0,0
-203,-27,0,0,0,0,0,0,0,0,0,-1,1021,1051,0,0
-196,-27,0,0,0,0,0,0,0,0,0,-1,1028,1051,0,0
-189,-27,0,0,0,0,0,0,0,0,0,-1,1035,1051,0,0
-182,-27,0,0,0,0,0,0,0,0,0,-1,1042,1051,0,0
-175,-27,0,0,0,0,0,0,0,0,0,-1,1049,1051,0,0
-168,-27,0,0,0,0,0,0,0,0,0,-1,1056,1051,0,0
-161,-27,0,0,0,0,0,0,0,0,0,-1,1063,1051,0,0
-154,-27,0,0,0,0,0,0,0,0,0,-1,1070,1051,0,0
-147,-27,0,0,0,0,0,0,0,0,0,-1,1077,1051,0,0
-140,-27,0,0,0,0,0,0,0,0,0,-1,1084,1051,0,0
-133,-27,0,0,0,0,0,0,0,0,0,-1,1091,1051,0,0
-126,-27,0,0,0,0,0,0,0,0,0,-1,1098,1051,0,0
-119,-27,0,0,0,0,0,0,0,0,0,-1,1105,1051,0,0
-112,-27,0,0,0,0,0,0,0,0,0,-1,1112,1051,0,0
-105,-27,0,0,0,0,0,0,0,0,0,-1,1119,1051,0,0
-98,-27,0,0,0,0,0,0,0,0,0,-1,1126,1051,0,0
-91,-27,0,0,0,0,0,0,0,0,0,-1,1133,1051,0,0
-84,-27,0,0,0,0,0,0,0,0,0,-1,1140,1051,0,0
-77,-27,0,0,0,0,0,0,0,0,0,-1,1147,1051,0,0
-70,-27,0,0,0,0,0,0,0,0,0,-1,1154,1051,0,0
-63,-27,0,0,0,0,0,0,0,0,0,-1,1161,1051,0,0
-56,-27,0,0,0,0,0,0,0,0,0,-1,1168,1051,0,0
-49,-27,0,0,0,0,0,0,0,0,0,-1,1175,1051,0,0
-42,-27,0,0,0,0,0,0,0,0,0,-1,1182,1051,0,0
-35,-27,0,0,0,0,0,0,0,0,0,-1,1189,1051,0,0
-28,-27,0,0,0,0,0,0,0,0,0,-1,1196,1051,0,0
-21,-27,0,0,0,0,0,0,0,0,0,-1,1203,1051,0,0
-14,-27,0,0,0,0,0,0,0,0,0,-1,1210,1051,0,0
-7,-27,0,0,0,0,0,0,0,0,0,-1,1217,1051,0,0
0,-27,0,0,0,0,0,0,0,0,0,-1,1224,1051,0,0
7,-27,0,0,0,0,0,0,0,0,0,-1,1231,1051,0,0
14,-27,0,0,0,0,0,0,0,0,0,-1,1238,1051,0,0
21,-27,0,0,0,0,0,0,0,0,0,-1,1245,1051,0,0
28,-27,0,0,0,0,0,0,0,0,0,-1,1252,1051,0,0
35,-27,0,0,0,0,0,0,0,0,0,-1,1259,1051,0,0
42,-27,0,0,0,0,0,0,0,0,0,-1,1266,1051,0,0
49,-27,0,0,0,0,0,0,0,0,0,-1,1273,1051,0,0
56,-27,0,0,0,0,0,0,0,0,0,-1,1280,1051,0,0
63,-27,0,0,0,0,0,0,0,0,0,-1,1287,1051,0,0
70,-27,0,0,0,0,0,0,0,0,0,-1,1294,1051,0,0
77,-27,0,0,0,0,0,0,0,0,0,-1,1301,1051,0,0
84,-27,0,0,0,0,0,0,0,0,0,-1,1308,1051,0,0
91,-27,0,0,0,0,0,0,0,0,0,-1,1315,1051,0,0
98,-27,0,0,0,0,0,0,0,0,0,-1,1322,1051,0,0
105,-27,0,0,0,0,0,0,0,0,0,-1,1329,1051,0,0
112,-27,0,0,0,0,0,0,0,0,0,-1,1336,1051,0,0
119,-27,0,0,0,0,0,0,0,0,0,-1,1343,1051,0,0
126,-27,0,0,0,0,0,0,0,0,0,-1,1350,1051,0,0
133,-27,0,0,0,0,0,0,0,0,0,-1,1357,1051,0,0
140,-27,0,0,0,0,0,0,0,0,0,-1,1364,1051,0,0
147,-27,0,0,0,0,0,0,0,0,0,-1,1371,1051,0,0
154,-27,0,0,0,0,0,0,0,0,0,-1,1378,1051,0,0
161,-27,0,0,0,0,0,0,0,0,0,-1,1385,1051,0,0
168,-27,0,0,0,0,0,0,0,0,0,-1,1392,1051,0,0
175,-27,0,0,0,0,0,0,0,0,0,-1,1399,1051,0,0
182,-27,0,0,0,0,0,0,0,0,0,-1,1406,1051,0,0
189,-27,0,0,0,0,0,0,0,0,0,-1,1413,1051,0,0
196,-27,0,0,0,0,0,0,0,0,0,-1,1420,1051,0,0
203,-27,0,0,0,0,0,0,0,0,0,-1,1427,1051,0,0
210,-27,0,0,0,0,0,0,0,0,0,-1,1434,1051,0,0
217,-27,0,0,0,0,0,0,0,0,0,-1,1441,1051,0,0
224,-27,0,0,0,0,0,0,0,0,0,-1,1448,1051,0,0
231,-27,0,0,0,0,0,0,0,0,0,-1,1455,1051,0,0
238,-27,0,0,0,0,0,0,0,0,0,-1,1462,1051,0,0
245,-27,0,0,0,0,0,0,0,0,0,-1,1469,1051,0,0
252,-27,0,0,0,0,0,0,0,0,0,-1,1476,1051,0,0
259,-27,0,0,0,0,0,0,0,0,0,-1,1483,1051,0,0
266,-27,0,0,0,0,0,0,0,0,0,-1,1490,1051,0,0
273,-27,0,0,0,0,0,0,0,0,0,-1,1497,1051,0,0
280,-27,0,0,0,0,0,0,0,0,0,-1,1504,1051,0,0
287,-27,0,0,0,0,0,0,0,0,0,-1,1511,1051,0,0
294,-27,0,0,0,0,0,0,0,0,0,-1,1518,1051,0,0
301,-27,0,0,0,0,0,0,0,0,0,-1,1525,1051,0,0
308,-27,0,0,0,0,0,0,0,0,0,-1,1532,1051,0,0
315,-27,0,0,0,0,0,0,0,0,0,-1,1539,1051,0,0
322,-27,0,0,0,0,0,0,0,0,0,-1,1546,1051,0,0
329,-27,0,0,0,0,0,0,0,0,0,-1,1553,1051,0,0
336,-27,0,0,0,0,0,0,0,0,0,-1,1560,1051,0,0
343,-27,0,0,0,0,0,0,0,0,0,-1,1567,1051,0,0
350,-27,0,0,0,0,0,0,0,0,0,-1,1574,1051,0,0
357,-27,0,0,0,0,0,0,0,0,0,-1,1581,1051,0,0
364,-27,0,0,0,0,0,0,0,0,0,-1,1588,1051,0,0
371,-27,0,0,0,0,0,0,0,0,0,-1,1595,1051,0,0
378,-27,0,0,0,0,0,0,0,0,0,-1,1602,1051,0,0
385,-27,0,0,0,0,0,0,0,0,0,-1,1609,1051,0,0
392,-27,0,0,0,0,0,0,0,0,0,-1,1616,1051,0,0
399,-27,0,0,0,0,0,0,0,0,0,-1,1623,1051,0,0
406,-27,0,0,0,0,0,0,0,0,0,-1,1630,1051,0,0
413,-27,0,0,0,0,0,0,0,0,0,-1,1637,1051,0,0
420,-27,0,0,0,0,0,0,0,0,0,-1,1644,1051,0,0
427,-27,0,0,0,0,0,0,0,0,0,-1,1651,1051,0,0
434,-27,0,0,0,0,0,0,0,0,0,-1,1658,1051,0,0
441,-27,0,0,0,0,0,0,0,0,0,-1,1665,1051,0,0
448,-27,0,0,0,0,0,0,0,0,0,-1,1672,1051,0,0
455,-27,0,0,0,0,0,0,0,0,0,-1,1679,1051,0,0
462,-27,0,0,0,0,0,0,0,0,0,-1,1686,1051,0,0
469,-27,0,0,0,0,0,0,0,0,0,-1,1693,1051,0,0
476,-27,0,0,0,0,0,0,0,0,0,-1,1700,1051,0,0
483,-27,0,0,0,0,0,0,0,0,0,-1,1707,1051,0,0
490,-27,0,0,0,0,0,0,0,0,0,-1,1714,1051,0,0
497,-27,0,0,0,0,0,0,0,0,0,-1,1721,1051,0,0
504,-27,0,0,0,0,0,0,0,0,0,-1,1728,1051,0,0
511,-27,0,0,0,0,0,0,0,0,0,-1,1735,1051,0,0
518,-27,0,0,0,0,0,0,0,0,0,-1,1742,1051,0,0
525,-27,0,0,0,0,0,0,0,0,0,-1,1749,1051,0,0
532,-27,0,0,0,0,0,0,0,0,0,-1,1756,1051,0,0
539,-27,0,0,0,0,0,0,0,0,0,-1,1763,1051,0,0
546,-27,0,0,0,0,0,0,0,0,0,-1,1770,1051,0,0
553,-27,0,0,0,0,0,0,0,0,0,-1,1777,1051,0,0
560,-27,0,0,0,0,0,0,0,0,0,-1,1784,1051,0,0
567,-27,0,0,0,0,0,0,0,0,0,-1,1791,1051,0,0
574,-27,0,0,0,0,0,0,0,0,0,-1,1798,1051,0,0
581,-27,0,0,0,0,0,0,0,0,0,-1,1805,1051,0,0
588,-27,0,0,0,0,0,0,0,0,0,-1,1812,1051,0,0
595,-27,0,0,0,0,0,0,0,0,0,-1,1819,1051,0,0
602,-27,0,0,0,0,0,0,0,0,0,-1,1826,1051,0,0
609,-27,0,0,0,0,0,0,0,0,0,-1,1833,1051,0,0
616,-27,0,0,0,0,0,0,0,0,0,-1,1840,1051,0,0
623,-27,0,0,0,0,0,0,0,0,0,-1,1847,1051,0,0
630,-27,0,0,0,0,0,0,0,0,0,-1,1854,1051,0,0
637,-27,0,0,0,0,0,0,0,0,0,-1,1861,1051,0,0
644,-27,0,0,0,0,0,0,0,0,0,-1,1868,1051,0,0
651,-27,44.2505,2.71045,-0.00328569,0.00105592,0.00048524,0.00110949,-0.00333926,1.46084,0.00267387,0.0400423,1875,1051,44.2505,-2.71046
658,-27,44.0735,2.86914,-0.00259043,0.000869432,0.000431272,0.00092238,-0.00264337,1.44864,0.00213712,0.0395832,1882,1051,44.0735,-2.86919
665,-27,44.0023,2.69531,-0.00203561,0.000732121,0.000470388,0.000809881,-0.00211337,1.40697,0.00174277,0.0374498,1889,1051,44.0023,-2.69532
672,-27,44.0397,2.6156,-0.00154393,0.000658049,0.000652787,0.000837024,-0.0017229,1.3032,0.00150719,0.0291921,1896,1051,44.0396,-2.61564
679,-27,44.0424,2.59485,-0.00110081,0.000614468,0.000983943,0.00106208,-0.00154843,1.14386,0.00151587,0.0264597,1903,1051,44.0424,-2.59483
686,-27,44.0698,2.52698,-0.000894242,0.000375665,0.00144369,0.00131786,-0.00183644,0.992574,0.00182932,0.0354524,1910,1051,44.0699,-2.52703
693,-27,44.0757,2.50073,-0.000768918,7.50708e-05,0.00189527,0.00159476,-0.00228861,0.89494,0.00225396,0.0398507,1917,1051,44.0757,-2.50068
700,-27,44.0867,2.52966,-0.000714895,-0.00010856,0.00227518,0.00188357,-0.00270702,0.851633,0.00266455,0.0377246,1924,1051,44.0867,-2.52969
707,-27,44.0526,2.54846,-0.000766951,-0.000165048,0.00250011,0.00205216,-0.00298416,0.845298,0.00292427,0.0257289,1931,1051,44.0526,-2.54841
714,-27,44.0846,2.63257,-0.0011502,-3.93323e-05,0.0027266,0.00218783,-0.00337737,0.885878,0.00323744,0.0218203,1938,1051,44.0847,-2.63254
721,-27,44.0343,2.76709,0,0,0,0,0,0,0,-1,1945,1051,44.0343,-2.76704
728,-27,44.1357,5.64185,0,0,0,0,0,0,0,-1,1952,1051,44.1358,-5.64185
735,-27,43.7523,5.65808,-0.00255835,0.00162939,0.00273394,0.00297917,-0.00390813,1.11219,0.00398842,0.0296549,1959,1051,43.7523,-5.65806
742,-27,43.5935,5.5929,-0.00272156,0.00246336,0.00285158,0.00372477,-0.00398298,1.15432,0.0044509,0.018054,1966,1051,43.5935,-5.5929
749,-27,43.6362,5.47009,-0.00307964,0.00417776,0.00289402,0.00519048,-0.00409236,1.23418,0.00537194,0.0139171,1973,1051,43.6362,-5.47007
756,-27,43.5981,5.34961,-0.00324029,0.00649979,0.00287219,0.00728367,-0.00402417,1.30437,0.00661838,0.0138178,1980,1051,43.5982,-5.34959
763,-27,43.5394,5.21289,-0.00276142,0.00951254,0.00314563,0.0102718,-0.00352064,1.33397,0.00827491,0.0151163,1987,1051,43.5394,-5.21289
770,-27,43.4872,5.10498,-0.0018399,0.0134302,0.00358248,0.0142289,-0.0026386,1.35144,0.0104768,0.0162147,1994,1051,43.4872,-5.10497
777,-27,43.4401,5.08484,-7.24109e-05,0.0186486,0.00464477,0.0197376,-0.00116145,1.34049,0.0135622,0.0176068,2001,1051,43.44,-5.0848
784,-27,43.427,5.04309,0.00212807,0.024379,0.00619134,0.0259857,0.000521339,1.31689,0.0171527,0.0255094,2008,1051,43.427,-5.04309
791,-27,43.5132,4.94519,0.00488642,0.0308301,0.00843727,0.0333326,0.00238389,1.28246,0.0214713,0.0414024,2015,1051,43.5132,-4.94525
798,-27,43.3115,5.39026,0.00844013,0.0381906,0.0114981,0.0421164,0.00451436,1.24178,0.0267003,0.0474372,2022,1051,43.3116,-5.3902
805,-27,43.1335,5.27417,0.0129462,0.0466976,0.0155172,0.0527473,0.00689653,1.19905,0.0331063,0.0478103,2029,1051,43.1335,-5.27415
812,-27,42.9897,5.4032,0.0180857,0.0564582,0.0206374,0.0654502,0.00909369,1.15989,0.0409403,0.0480956,2036,1051,42.9897,-5.40323
-700,-34,-29.6925,4.54443,0,0,0,0,0,0,0,-1,524,1058,-29.6925,-4.54446
-693,-34,-27.3178,-0.427246,0,0,0,0,0,0,0,-1,531,1058,-27.3178,0.427291
-686,-34,-27.8285,-0.375732,0,0,0,0,0,0,0,-1,538,1058,-27.8285,0.37573
-679,-34,-32.7771,0.415405,0,0,0,0,0,0,0,-1,545,1058,-32.7771,-0.415448
-672,-34,-32.71,0.602661,0,0,0,0,0,0,0,-1,552,1058,-32.71,-0.602601
-665,-34,-31.9702,2.14087,0,0,0,0,0,0,0,-1,559,1058,-31.9702,-2.1409
-658,-34,-31.9348,2.15759,0,0,0,0,0,0,0,-1,566,1058,-31.9348,-2.15754
-651,-34,-31.9656,1.92883,0.00160458,0.0130408,0.00895851,0.0179506,-0.00330519,1.06945,0.0132074,0.0305014,573,1058,-31.9657,-1.92878
-644,-34,-32.1285,1.98511,0.000450803,0.0113383,0.00620855,0.0141517,-0.0023626,1.14533,0.0103126,0.0151663,580,1058,-32.1286,-1.98513
-637,-34,-32.1573,2.1333,-0.000333988,0.0092322,0.00320323,0.0102057,-0.00130752,1.27575,0.00727891,0.0163496,587,1058,-32.1573,-2.13325
-630,-34,-32.1637,2.38831,-0.000705064,0.00693646,0.000405208,0.00695789,-0.000726491,1.51797,0.00489875,0.0165531,594,1058,-32.1637,-2.38836
-623,-34,-32.1312,2.56982,-0.00113677,0.00504777,-0.00183758,0.00555256,-0.00164156,-1.30271,0.00435331,0.0129105,601,1058,-32.1311,-2.56977
-616,-34,-32.1278,2.79358,-0.00144558,0.00335596,-0.00333511,0.00506453,-0.00315415,-1.09736,0.0047876,0.0196244,608,1058,-32.1278,-2.79358
-609,-34,-32.1509,2.98535,-0.00144109,0.00237196,-0.00432758,0.00519437,-0.00426349,-0.992883,0.00546931,0.0194611,615,1058,-32.1509,-2.98538
-602,-34,-32.1638,3.11072,-0.00113988,0.00153696,-0.00516658,0.00553566,-0.00513859,-0.912139,0.0061642,0.0155496,622,1058,-32.1638,-3.11072
-595,-34,-32.2184,3.23425,-0.000911789,0.00106076,-0.00556088,0.00572215,-0.00557318,-0.873165,0.00652155,0.0166382,629,1058,-32.2184,-3.23424
-588,-34,-32.3953,1.96997,-0.000705867,0.000998108,-0.005412,0.00562477,-0.00533253,-0.86347,0.00632695,0.0310144,636,1058,-32.3953,-1.97
-581,-34,-32.452,0.377563,0,0,0,0,0,0,0,-1,643,1058,-32.452,-0.377533
-574,-34,-32.4211,0.725098,-0.000462916,0.00153952,-0.00443551,0.00508541,-0.0040088,-0.896402,0.0052628,0.0359618,650,1058,-32.4211,-0.725116
-567,-34,-32.4296,0.719849,-0.000384869,0.0022201,-0.00353457,0.00468453,-0.0028493,-0.961927,0.00439247,0.0408132,657,1058,-32.4296,-0.719902
-560,-34,-32.447,0.770264,-0.000273666,0.00313456,-0.0022573,0.00425877,-0.00139788,-1.10872,0.00340225,0.0404682,664,1058,-32.447,-0.770228
-553,-34,-32.3914,0.589722,-0.000173163,0.00415287,-0.000613633,0.00423823,-0.000258521,-1.43258,0.00291548,0.0403392,671,1058,-32.3914,-0.589669
-546,-34,-32.1902,0.233032,-8.5811e-05,0.00502308,0.00137539,0.00536982,-0.000432552,1.32384,0.00373243,0.0444516,678,1058,-32.1902,-0.232988
-539,-34,-32.2481,0.70105,-0.000293609,0.00564643,0.00284799,0.00679127,-0.00143845,1.18858,0.0050754,0.044903,685,1058,-32.2481,-0.700996
-532,-34,-32.6598,0.744507,-0.00124961,0.00641732,0.00245152,0.00713417,-0.00196647,1.28632,0.00552942,0.0433781,692,1058,-32.6598,-0.744477
-525,-34,0,0,0,0,0,0,0,0,0,-1,699,1058,0,0
-518,-34,0,0,0,0,0,0,0,0,0,-1,706,1058,0,0
-511,-34,0,0,0,0,0,0,0,0,0,-1,713,1058,0,0
-504,-34,0,0,0,0,0,0,0,0,0,-1,720,1058,0,0
-497,-34,0,0,0,0,0,0,0,0,0,-1,727,1058,0,0
-490,-34,0,0,0,0,0,0,0,0,0,-1,734,1058,0,0
-483,-34,0,0,0,0,0,0,0,0,0,-1,741,1058,0,0
-476,-34,0,0,0,0,0,0,0,0,0,-1,748,1058,0,0
-469,-34,0,0,0,0,0,0,0,0,0,-1,755,1058,0,0
-462,-34,0,0,0,0,0,0,0,0,0,-1,762,1058,0,0
-455,-34,0,0,0,0,0,0,0,0,0,-1,769,1058,0,0
-448,-34,0,0,0,0,0,0,0,0,0,-1,776,1058,0,0
-441,-34,0,0,0,0,0,0,0,0,0,-1,783,1058,0,0
-434,-34,0,0,0,0,0,0,0,0,0,-1,790,1058,0,0
-427,-34,0,0,0,0,0,0,0,0,0,-1,797,1058,0,0
-420,-34,0,0,0,0,0,0,0,0,0,-1,804,1058,0,0
-413,-34,0,0,0,0,0,0,0,0,0,-1,811,1058,0,0
-406,-34,0,0,0,0,0,0,0,0,0,-1,818,1058,0,0
-399,-34,0,0,0,0,0,0,0,0,0,-1,825,1058,0,0
-392,-34,0,0,0,0,0,0,0,0,0,-1,832,1058,0,0
-385,-34,0,0,0,0,0,0,0,0,0,-1,839,1058,0,0
-378,-34,0,0,0,0,0,0,0,0,0,-1,846,1058,0,0
-371,-34,0,0,0,0,0,0,0,0,0,-1,853,1058,0,0
-364,-34,0,0,0,0,0,0,0,0,0,-1,860,1058,0,0
-357,-34,0,0,0,0,0,0,0,0,0,-1,867,1058,0,0
-350,-34,0,0,0,0,0,0,0,0,0,-1,874,1058,0,0
-343,-34,0,0,0,0,0,0,0,0,0,-1,881,1058,0,0
-336,-34,0,0,0,0,0,0,0,0,0,-1,888,1058,0,0
-329,-34,0,0,0,0,0,0,0,0,0,-1,895,1058,0,0
-322,-34,0,0,0,0,0,0,0,0,0,-1,902,1058,0,0
-315,-34,0,0,0,0,0,0,0,0,0,-1,909,1058,0,0
-308,-34,0,0,0,0,0,0,0,0,0,-1,916,1058,0,0
-301,-34,0,0,0,0,0,0,0,0,0,-1,923,1058,0,0
-294,-34,0,0,0,0,0,0,0,0,0,-1,930,1058,0,0
-287,-34,0,0,0,0,0,0,0,0,0,-1,937,1058,0,0
-280,-34,0,0,0,0,0,0,0,0,0,-1,944,1058,0,0
-273,-34,0,0,0,0,0,0,0,0,0,-1,951,1058,0,0
-266,-34,0,0,0,0,0,0,0,0,0,-1,958,1058,0,0
-259,-34,0,0,0,0,0,0,0,0,0,-1,965,1058,0,0
-252,-34,0,0,0,0,0,0,0,0,0,-1,972,1058,0,0
-245,-34,0,0,0,0,0,0,0,0,0,-1,979,1058,0,0
-238,-34,0,0,0,0,0,0,0,0,0,-1,986,1058,0,0
-231,-34,0,0,0,0,0,0,0,0,0,-1,993,1058,0,0
-224,-34,0,0,0,0,0,0,0,0,0,-1,1000,1058,0,0
-217,-34,0,0,0,0,0,0,0,0,0,-1,1007,1058,0,0
-210,-34,0,0,0,0,0,0,0,0,0,-1,1014,1058,0,0
-203,-34,0,0,0,0,0,0,0,0,0,-1,1021,1058,0,0
-196,-34,0,0,0,0,0,0,0,0,0,-1,1028,1058,0,0
-189,-34,0,0,0,0,0,0,0,0,0,-1,1035,1058,0,0
-182,-34,0,0,0,0,0,0,0,0,0,-1,1042,1058,0,0
-175,-34,0,0,0,0,0,0,0,0,0,-1,1049,1058,0,0
-168,-34,0,0,0,0,0,0,0,0,0,-1,1056,1058,0,0
-161,-34,0,0,0,0,0,0,0,0,0,-1,1063,1058,0,0
-154,-34,0,0,0,0,0,0,0,0,0,-1,1070,1058,0,0
-147,-34,0,0,0,0,0,0,0,0,0,-1,1077,1058,0,0
-140,-34,0,0,0,0,0,0,0,0,0,-1,1084,1058,0,0
-133,-34,0,0,0,0,0,0,0,0,0,-1,1091,1058,0,0
-126,-34,0,0,0,0,0,0,0,0,0,-1,1098,1058,0,0
-119,-34,0,0,0,0,0,0,0,0,0,-1,1105,1058,0,0
-112,-34,0,0,0,0,0,0,0,0,0,-1,1112,1058,0,0
-105,-34,0,0,0,0,0,0,0,0,0,-1,1119,1058,0,0
-98,-34,0,0,0,0,0,0,0,0,0,-1,1126,1058,0,0
-91,-34,0,0,0,0,0,0,0,0,0,-1,1133,1058,0,0
-84,-34,0,0,0,0,0,0,0,0,0,-1,1140,1058,0,0
-77,-34,0,0,0,0,0,0,0,0,0,-1,1147,1058,0,0
-70,-34,0,0,0,0,0,0,0,0,0,-1,1154,1058,0,0
-63,-34,0,0,0,0,0,0,0,0,0,-1,1161,1058,0,0
-56,-34,0,0,0,0,0,0,0,0,0,-1,1168,1058,0,0
-49,-34,0,0,0,0,0,0,0,0,0,-1,1175,1058,0,0
-42,-34,0,0,0,0,0,0,0,0,0,-1,1182,1058,0,0
-35,-34,0,0,0,0,0,0,0,0,0,-1,1189,1058,0,0
-28,-34,0,0,0,0,0,0,0,0,0,-1,1196,1058,0,0
-21,-34,0,0,0,0,0,0,0,0,0,-1,1203,1058,0,0
-14,-34,0,0,0,0,0,0,0,0,0,-1,1210,1058,0,0
-7,-34,0,0,0,0,0,0,0,0,0,-1,1217,1058,0,0
0,-34,0,0,0,0,0,0,0,0,0,-1,1224,1058,0,0
7,-34,0,0,0,0,0,0,0,0,0,-1,1231,1058,0,0
14,-34,0,0,0,0,0,0,0,0,0,-1,1238,1058,0,0
21,-34,0,0,0,0,0,0,0,0,0,-1,1245,1058,0,0
28,-34,0,0,0,0,0,0,0,0,0,-1,1252,1058,0,0
35,-34,0,0,0,0,0,0,0,0,0,-1,1259,1058,0,0
42,-34,0,0,0,0,0,0,0,0,0,-1,1266,1058,0,0
49,-34,0,0,0,0,0,0,0,0,0,-1,1273,1058,0,0
56,-34,0,0,0,0,0,0,0,0,0,-1,1280,1058,0,0
63,-34,0,0,0,0,0,0,0,0,0,-1,1287,1058,0,0
70,-34,0,0,0,0,0,0,0,0,0,-1,1294,1058,0,0
77,-34,0,0,0,0,0,0,0,0,0,-1,1301,1058,0,0
84,-34,0,0,0,0,0,0,0,0,0,-1,1308,1058,0,0
91,-34,0,0,0,0,0,0,0,0,0,-1,1315,1058,0,0
98,-34,0,0,0,0,0,0,0,0,0,-1,1322,1058,0,0
105,-34,0,0,0,0,0,0,0,0,0,-1,1329,1058,0,0
112,-34,0,0,0,0,0,0,0,0,0,-1,1336,1058,0,0
119,-34,0,0,0,0,0,0,0,0,0,-1,1343,1058,0,0
126,-34,0,0,0,0,0,0,0,0,0,-1,1350,1058,0,0
133,-34,0,0,0,0,0,0,0,0,0,-1,1357,1058,0,0
140,-34,0,0,0,0,0,0,0,0,0,-1,1364,1058,0,0
147,-34,0,0,0,0,0,0,0,0,0,-1,1371,1058,0,0
154,-34,0,0,0,0,0,0,0,0,0,-1,1378,1058,0,0
161,-34,0,0,0,0,0,0,0,0,0,-1,1385,1058,0,0
168,-34,0,0,0,0,0,0,0,0,0,-1,1392,1058,0,0
175,-34,0,0,0,0,0,0,0,0,0,-1,1399,1058,0,0
182,-34,0,0,0,0,0,0,0,0,0,-1,1406,1058,0,0
189,-34,0,0,0,0,0,0,0,0,0,-1,1413,1058,0,0
196,-34,0,0,0,0,0,0,0,0,0,-1,1420,1058,0,0
203,-34,0,0,0,0,0,0,0,0,0,-1,1427,1058,0,0
210,-34,0,0,0,0,0,0,0,0,0,-1,1434,1058,0,0
217,-34,0,0,0,0,0,0,0,0,0,-1,1441,1058,0,0
224,-34,0,0,0,0,0,0,0,0,0,-1,1448,1058,0,0
231,-34,0,0,0,0,0,0,0,0,0,-1,1455,1058,0,0
238,-34,0,0,0,0,0,0,0,0,0,-1,1462,1058,0,0
245,-34,0,0,0,0,0,0,0,0,0,-1,1469,1058,0,0
252,-34,0,0,0,0,0,0,0,0,0,-1,1476,1058,0,0
259,-34,0,0,0,0,0,0,0,0,0,-1,1483,1058,0,0
266,-34,0,0,0,0,0,0,0,0,0,-1,1490,1058,0,0
273,-34,0,0,0,0,0,0,0,0,0,-1,1497,1058,0,0
280,-34,0,0,0,0,0,0,0,0,0,-1,1504,1058,0,0
287,-34,0,0,0,0,0,0,0,0,0,-1,1511,1058,0,0
294,-34,0,0,0,0,0,0,0,0,0,-1,1518,1058,0,0
301,-34,0,0,0,0,0,0,0,0,0,-1,1525,1058,0,0
308,-34,0,0,0,0,0,0,0,0,0,-1,1532,1058,0,0
315,-34,0,0,0,0,0,0,0,0,0,-1,1539,1058,0,0
322,-34,0,0,0,0,0,0,0,0,0,-1,1546,1058,0,0
329,-34,0,0,0,0,0,0,0,0,0,-1,1553,1058,0,0
336,-34,0,0,0,0,0,0,0,0,0,-1,1560,1058,0,0
343,-34,0,0,0,0,0,0,0,0,0,-1,1567,1058,0,0
350,-34,0,0,0,0,0,0,0,0,0,-1,1574,1058,0,0
357,-34,0,0,0,0,0,0,0,0,0,-1,1581,1058,0,0
364,-34,0,0,0,0,0,0,0,0,0,-1,1588,1058,0,0
371,-34,0,0,0,0,0,0,0,0,0,-1,1595,1058,0,0
378,-34,0,0,0,0,0,0,0,0,0,-1,1602,1058,0,0
385,-34,0,0,0,0,0,0,0,0,0,-1,1609,1058,0,0
392,-34,0,0,0,0,0,0,0,0,0,-1,1616,1058,0,0
399,-34,0,0,0,0,0,0,0,0,0,-1,1623,1058,0,0
406,-34,0,0,0,0,0,0,0,0,0,-1,1630,1058,0,0
413,-34,0,0,0,0,0,0,0,0,0,-1,1637,1058,0,0
420,-34,0,0,0,0,0,0,0,0,0,-1,1644,1058,0,0
427,-34,0,0,0,0,0,0,0,0,0,-1,1651,1058,0,0
434,-34,0,0,0,0,0,0,0,0,0,-1,1658,1058,0,0
441,-34,0,0,0,0,0,0,0,0,0,-1,1665,1058,0,0
448,-34,0,0,0,0,0,0,0,0,0,-1,1672,1058,0,0
455,-34,0,0,0,0,0,0,0,0,0,-1,1679,1058,0,0
462,-34,0,0,0,0,0,0,0,0,0,-1,1686,1058,0,0
469,-34,0,0,0,0,0,0,0,0,0,-1,1693,1058,0,0
476,-34,0,0,0,0,0,0,0,0,0,-1,1700,1058,0,0
483,-34,0,0,0,0,0,0,0,0,0,-1,1707,1058,0,0
490,-34,0,0,0,0,0,0,0,0,0,-1,1714,1058,0,0
497,-34,0,0,0,0,0,0,0,0,0,-1,1721,1058,0,0
504,-34,0,0,0,0,0,0,0,0,0,-1,1728,1058,0,0
511,-34,0,0,0,0,0,0,0,0,0,-1,1735,1058,0,0
518,-34,0,0,0,0,0,0,0,0,0,-1,1742,1058,0,0
525,-34,0,0,0,0,0,0,0,0,0,-1,1749,1058,0,0
532,-34,0,0,0,0,0,0,0,0,0,-1,1756,1058,0,0
539,-34,0,0,0,0,0,0,0,0,0,-1,1763,1058,0,0
546,-34,0,0,0,0,0,0,0,0,0,-1,1770,1058,0,0
553,-34,0,0,0,0,0,0,0,0,0,-1,1777,1058,0,0
560,-34,0,0,0,0,0,0,0,0,0,-1,1784,1058,0,0
567,-34,0,0,0,0,0,0,0,0,0,-1,1791,1058,0,0
574,-34,0,0,0,0,0,0,0,0,0,-1,1798,1058,0,0
581,-34,0,0,0,0,0,0,0,0,0,-1,1805,1058,0,0
588,-34,0,0,0,0,0,0,0,0,0,-1,1812,1058,0,0
595,-34,0,0,0,0,0,0,0,0,0,-1,1819,1058,0,0
602,-34,0,0,0,0,0,0,0,0,0,-1,1826,1058,0,0
609,-34,0,0,0,0,0,0,0,0,0,-1,1833,1058,0,0
616,-34,0,0,0,0,0,0,0,0,0,-1,1840,1058,0,0
623,-34,0,0,0,0,0,0,0,0,0,-1,1847,1058,0,0
630,-34,0,0,0,0,0,0,0,0,0,-1,1854,1058,0,0
637,-34,0,0,0,0,0,0,0,0,0,-1,1861,1058,0,0
644,-34,0,0,0,0,0,0,0,0,0,-1,1868,1058,0,0
651,-34,44.1454,2.6991,-0.00342511,0.00155783,0.00115669,0.00181324,-0.00368052,1.35347,0.00323232,0.0405762,1875,1058,44.1454,-2.69911
658,-34,43.9341,2.78723,-0.0027252,0.00118726,0.000945168,0.00140363,-0.00294156,1.34575,0.00256054,0.0422876,1882,1058,43.9341,-2.78726
665,-34,44.0281,2.65918,-0.00214539,0.000920069,0.000854693,0.00114226,-0.00236759,1.31646,0.00206717,0.0425723,1889,1058,44.0281,-2.65912
672,-34,44.1481,2.59973,-0.00162057,0.000705267,0.000920353,0.0010254,-0.0019407,1.23605,0.00173944,0.0381808,1896,1058,44.1481,-2.59974
679,-34,44.0171,2.73669,-0.00119492,0.000511486,0.00113561,0.00107869,-0.00176212,1.10757,0.00165589,0.037325,1903,1058,44.0171,-2.73667
686,-34,44.0859,2.71509,-0.00107222,0.000157354,0.00149634,0.00116028,-0.00207515,0.980314,0.0018927,0.0430701,1910,1058,44.0859,-2.71511
693,-34,44.1124,2.50208,-0.00102425,-0.000214951,0.00188052,0.00130396,-0.00254316,0.891371,0.00225922,0.042281,1917,1058,44.1124,-2.50205
700,-34,44.0909,2.60742,-0.0010434,-0.000439812,0.00221776,0.0014966,-0.0029798,0.853023,0.00263132,0.0387754,1924,1058,44.0909,-2.60747
707,-34,44.0214,2.60693,-0.00113822,-0.000523794,0.00242747,0.00161582,-0.00327784,0.848342,0.00287916,0.0243701,1931,1058,44.0214,-2.60693
714,-34,44.0331,2.66138,-0.00152613,-0.00042265,0.00265395,0.0017363,-0.00368508,0.887886,0.00319673,0.0176662,1938,1058,44.0331,-2.6614
721,-34,44.0117,2.7301,0,0,0,0,0,0,0,-1,1945,1058,44.0117,-2.7301
728,-34,43.6277,5.76025,0,0,0,0,0,0,0,-1,1952,1058,43.6276,-5.76023
735,-34,43.4813,5.69971,-0.00284526,0.0011876,0.00271292,0.00255139,-0.00420905,1.10499,0.00394206,0.0200534,1959,1058,43.4813,-5.69966
742,-34,43.4236,5.58643,-0.00291777,0.00205845,0.0028801,0.00337635,-0.00423567,1.14165,0.00440412,0.0153944,1966,1058,43.4235,-5.58648
749,-34,43.4639,5.47913,-0.00315705,0.00376777,0.00293982,0.00484747,-0.00423675,1.21882,0.00524873,0.0135553,1973,1058,43.4638,-5.4791
756,-34,43.4723,5.32617,-0.00319467,0.0060244,0.00290259,0.00686215,-0.00403241,1.28981,0.00636031,0.0111632,1980,1058,43.4723,-5.32613
763,-34,43.4142,5.16846,-0.00257335,0.00893116,0.00321129,0.00976683,-0.00340902,1.31621,0.00789677,0.012172,1987,1058,43.4142,-5.1684
770,-34,43.3405,5.04773,-0.00147006,0.0127831,0.00365036,0.0136635,-0.00235056,1.33411,0.0099852,0.017352,1994,1058,43.3405,-5.04775
777,-34,43.2555,4.97437,0.000469962,0.0178301,0.00469296,0.0190175,-0.000717465,1.32297,0.0129241,0.0192825,2001,1058,43.2555,-4.97433
784,-34,43.2888,4.86877,0.00277423,0.0233483,0.00623443,0.02509,0.00103249,1.29837,0.0163933,0.0365651,2008,1058,43.2887,-4.8688
791,-34,43.2415,4.68066,0.00553487,0.0295158,0.00849801,0.0322218,0.00282883,1.26252,0.0206031,0.047132,2015,1058,43.2415,-4.68066
798,-34,43.3745,4.4303,0.00903567,0.036515,0.0116561,0.0407932,0.0047575,1.21903,0.0257565,0.0490126,2022,1058,43.3744,-4.43033
805,-34,43.5286,4.12817,0,0,0,0,0,0,0,-1,2029,1058,43.5286,-4.12817
812,-34,42.6785,5.17847,0,0,0,0,0,0,0,-1,2036,1058,42.6785,-5.17843
-700,-41,-28.2501,-0.0057373,0,0,0,0,0,0,0,-1,524,1065,-28.2501,0.00570315
-693,-41,-27.7011,-0.718872,0,0,0,0,0,0,0,-1,531,1065,-27.7011,0.718897
-686,-41,-28.2804,-0.497559,0,0,0,0,0,0,0,-1,538,1065,-28.2804,0.497595
-679,-41,-28.9373,-0.189087,0,0,0,0,0,0,0,-1,545,1065,-28.9372,0.189043
-672,-41,-32.4235,0.110962,0,0,0,0,0,0,0,-1,552,1065,-32.4235,-0.111021
-665,-41,-32.2366,0.325928,0,0,0,0,0,0,0,-1,559,1065,-32.2366,-0.325875
-658,-41,-31.8414,1.63013,0,0,0,0,0,0,0,-1,566,1065,-31.8414,-1.63016
-651,-41,-31.7074,1.62793,0.00121613,0.0125959,0.00728928,0.0161531,-0.00234107,1.11679,0.0116279,0.0313492,573,1065,-31.7074,-1.62792
-644,-41,-31.9191,1.9353,0.000382335,0.0109049,0.00518374,0.0130296,-0.00174234,1.18181,0.00932158,0.016798,580,1065,-31.9191,-1.93534
-637,-41,-31.9444,2.12219,-0.000171664,0.0087514,0.00274822,0.00952991,-0.00095017,1.29475,0.00669252,0.0177797,587,1065,-31.9444,-2.12224
-630,-41,-31.9364,2.32715,-0.00044683,0.0063739,0.000317345,0.00638864,-0.000461563,1.5244,0.00442098,0.0138449,594,1065,-31.9364,-2.32714
-623,-41,-31.9127,2.53772,-0.000904264,0.00447189,-0.00166771,0.0049472,-0.00137957,-1.29315,0.00384147,0.0116962,601,1065,-31.9127,-2.53772
-616,-41,-31.9251,2.78479,-0.00129005,0.0027275,-0.00299507,0.00432505,-0.00288761,-1.08079,0.00419171,0.0157494,608,1065,-31.9251,-2.78476
-609,-41,-31.911,3.00305,-0.00134466,0.00169074,-0.00393308,0.00438878,-0.0040427,-0.969536,0.00486929,0.0212452,615,1065,-31.911,-3.00309
-602,-41,-31.9388,3.15674,-0.00109344,0.000811505,-0.00479212,0.0047449,-0.00502683,-0.883498,0.00564249,0.0138485,622,1065,-31.9388,-3.15677
-595,-41,-32.0423,3.29297,-0.000882694,0.000338711,-0.0052254,0.00498897,-0.00553295,-0.84357,0.00607754,0.0224051,629,1065,-32.0423,-3.29299
-588,-41,-32.2758,1.96838,-0.000686825,0.000324013,-0.00510758,0.00495112,-0.00531393,-0.834715,0.00592776,0.0350232,636,1065,-32.2758,-1.96839
-581,-41,-32.4407,0.688721,0,0,0,0,0,0,0,-1,643,1065,-32.4407,-0.688764
-574,-41,-32.6313,0.698975,-0.000388111,0.000975574,-0.00421315,0.00456169,-0.00397423,-0.865621,0.00493211,0.0375397,650,1065,-32.6313,-0.698979
-567,-41,-32.6868,0.750244,-0.000213814,0.00172426,-0.00339968,0.00429031,-0.00277987,-0.924235,0.0041129,0.0412115,657,1065,-32.6868,-0.75029
-560,-41,-32.533,0.721558,3.23557e-05,0.00275983,-0.00222108,0.00400243,-0.00121024,-1.06072,0.00315017,0.0412869,664,1065,-32.533,-0.72152
-553,-41,-32.3733,0.494751,0.000326419,0.00398959,-0.000663709,0.00410613,0.000209874,-1.39697,0.00267021,0.0425309,671,1065,-32.3733,-0.494777
-546,-41,-32.3522,0.474609,0.000670326,0.00521405,0.00130008,0.00555974,0.000324639,1.31091,0.00360316,0.0404741,678,1065,-32.3522,-0.474663
-539,-41,-32.3183,0.626831,0.000798528,0.00622902,0.00296014,0.0075306,-0.000503061,1.15654,0.00519621,0.0424794,685,1065,-32.3183,-0.62688
-532,-41,-32.3022,0.786865,0,0,0,0,0,0,0,-1,692,1065,-32.3022,-0.786916
-525,-41,0,0,0,0,0,0,0,0,0,-1,699,1065,0,0
-518,-41,0,0,0,0,0,0,0,0,0,-1,706,1065,0,0
-511,-41,0,0,0,0,0,0,0,0,0,-1,713,1065,0,0
-504,-41,0,0,0,0,0,0,0,0,0,-1,720,1065,0,0
-497,-41,0,0,0,0,0,0,0,0,0,-1,727,1065,0,0
-490,-41,0,0,0,0,0,0,0,0,0,-1,734,1065,0,0
-483,-41,0,0,0,0,0,0,0,0,0,-1,741,1065,0,0
-476,-41,0,0,0,0,0,0,0,0,0,-1,748,1065,0,0
-469,-41,0,0,0,0,0,0,0,0,0,-1,755,1065,0,0
-462,-41,0,0,0,0,0,0,0,0,0,-1,762,1065,0,0
-455,-41,0,0,0,0,0,0,0,0,0,-1,769,1065,0,0
-448,-41,0,0,0,0,0,0,0,0,0,-1,776,1065,0,0
-441,-41,0,0,0,0,0,0,0,0,0,-1,783,1065,0,0
-434,-41,0,0,0,0,0,0,0,0,0,-1,790,1065,0,0
-427,-41,0,0,0,0,0,0,0,0,0,-1,797,1065,0,0
-420,-41,0,0,0,0,0,0,0,0,0,-1,804,1065,0,0
-413,-41,0,0,0,0,0,0,0,0,0,-1,811,1065,0,0
-406,-41,0,0,0,0,0,0,0,0,0,-1,818,1065,0,0
-399,-41,0,0,0,0,0,0,0,0,0,-1,825,1065,0,0
-392,-41,0,0,0,0,0,0,0,0,0,-1,832,1065,0,0
-385,-41,0,0,0,0,0,0,0,0,0,-1,839,1065,0,0
-378,-41,0,0,0,0,0,0,0,0,0,-1,846,1065,0,0
-371,-41,0,0,0,0,0,0,0,0,0,-1,853,1065,0,0
-364,-41,0,0,0,0,0,0,0,0,0,-1,860,1065,0,0
-357,-41,0,0,0,0,0,0,0,0,0,-1,867,1065,0,0
-350,-41,0,0,0,0,0,0,0,0,0,-1,874,1065,0,0
-343,-41,0,0,0,0,0,0,0,0,0,-1,881,1065,0,0
-336,-41,0,0,0,0,0,0,0,0,0,-1,888,1065,0,0
-329,-41,0,0,0,0,0,0,0,0,0,-1,895,1065,0,0
-322,-41,0,0,0,0,0,0,0,0,0,-1,902,1065,0,0
-315,-41,0,0,0,0,0,0,0,0,0,-1,909,1065,0,0
-308,-41,0,0,0,0,0,0,0,0,0,-1,916,1065,0,0
-301,-41,0,0,0,0,0,0,0,0,0,-1,923,1065,0,0
-294,-41,0,0,0,0,0,0,0,0,0,-1,930,1065,0,0
-287,-41,0,0,0,0,0,0,0,0,0,-1,937,1065,0,0
-280,-41,0,0,0,0,0,0,0,0,0,-1,944,1065,0,0
-273,-41,0,0,0,0,0,0,0,0,0,-1,951,1065,0,0
-266,-41,0,0,0,0,0,0,0,0,0,-1,958,1065,0,0
-259,-41,0,0,0,0,0,0,0,0,0,-1,965,1065,0,0
-252,-41,0,0,0,0,0,0,0,0,0,-1,972,1065,0,0
-245,-41,0,0,0,0,0,0,0,0,0,-1,979,1065,0,0
-238,-41,0,0,0,0,0,0,0,0,0,-1,986,1065,0,0
-231,-41,0,0,0,0,0,0,0,0,0,-1,993,1065,0,0
-224,-41,0,0,0,0,0,0,0,0,0,-1,1000,1065,0,0
-217,-41,0,0,0,0,0,0,0,0,0,-1,1007,1065,0,0
-210,-41,0,0,0,0,0,0,0,0,0,-1,1014,1065,0,0
-203,-41,0,0,0,0,0,0,0,0,0,-1,1021,1065,0,0
-196,-41,0,0,0,0,0,0,0,0,0,-1,1028,1065,0,0
-189,-41,0,0,0,0,0,0,0,0,0,-1,1035,1065,0,0
-182,-41,0,0,0,0,0,0,0,0,0,-1,1042,1065,0,0
-175,-41,0,0,0,0,0,0,0,0,0,-1,1049,1065,0,0
-168,-41,0,0,0,0,0,0,0,0,0,-1,1056,1065,0,0
-161,-41,0,0,0,0,0,0,0,0,0,-1,1063,1065,0,0
-154,-41,0,0,0,0,0,0,0,0,0,-1,1070,1065,0,0
-147,-41,0,0,0,0,0,0,0,0,0,-1,1077,1065,0,0
-140,-41,0,0,0,0,0,0,0,0,0,-1,1084,1065,0,0
-133,-41,0,0,0,0,0,0,0,0,0,-1,1091,1065,0,0
-126,-41,0,0,0,0,0,0,0,0,0,-1,1098,1065,0,0
-119,-41,0,0,0,0,0,0,0,0,0,-1,1105,1065,0,0
-112,-41,0,0,0,0,0,0,0,0,0,-1,1112,1065,0,0
-105,-41,0,0,0,0,0,0,0,0,0,-1,1119,1065,0,0
-98,-41,0,0,0,0,0,0,0,0,0,-1,1126,1065,0,0
-91,-41,0,0,0,0,0,0,0,0,0,-1,1133,1065,0,0
-84,-41,0,0,0,0,0,0,0,0,0,-1,1140,1065,0,0
-77,-41,0,0,0,0,0,0,0,0,0,-1,1147,1065,0,0
-70,-41,0,0,0,0,0,0,0,0,0,-1,1154,1065,0,0
-63,-41,0,0,0,0,0,0,0,0,0,-1,1161,1065,0,0
-56,-41,0,0,0,0,0,0,0,0,0,-1,1168,1065,0,0
-49,-41,0,0,0,0,0,0,0,0,0,-1,1175,1065,0,0
-42,-41,0,0,0,0,0,0,0,0,0,-1,1182,1065,0,0
-35,-41,0,0,0,0,0,0,0,0,0,-1,1189,1065,0,0
-28,-41,0,0,0,0,0,0,0,0,0,-1,1196,1065,0,0
-21,-41,0,0,0,0,0,0,0,0,0,-1,1203,1065,0,0
-14,-41,0,0,0,0,0,0,0,0,0,-1,1210,1065,0,0
-7,-41,0,0,0,0,0,0,0,0,0,-1,1217,1065,0,0
0,-41,0,0,0,0,0,0,0,0,0,-1,1224,1065,0,0
7,-41,0,0,0,0,0,0,0,0,0,-1,1231,1065,0,0
14,-41,0,0,0,0,0,0,0,0,0,-1,1238,1065,0,0
21,-41,0,0,0,0,0,0,0,0,0,-1,1245,1065,0,0
28,-41,0,0,0,0,0,0,0,0,0,-1,1252,1065,0,0
35,-41,0,0,0,0,0,0,0,0,0,-1,1259,1065,0,0
42,-41,0,0,0,0,0,0,0,0,0,-1,1266,1065,0,0
49,-41,0,0,0,0,0,0,0,0,0,-1,1273,1065,0,0
56,-41,0,0,0,0,0,0,0,0,0,-1,1280,1065,0,0
63,-41,0,0,0,0,0,0,0,0,0,-1,1287,1065,0,0
70,-41,0,0,0,0,0,0,0,0,0,-1,1294,1065,0,0
77,-41,0,0,0,0,0,0,0,0,0,-1,1301,1065,0,0
84,-41,0,0,0,0,0,0,0,0,0,-1,1308,1065,0,0
91,-41,0,0,0,0,0,0,0,0,0,-1,1315,1065,0,0
98,-41,0,0,0,0,0,0,0,0,0,-1,1322,1065,0,0
105,-41,0,0,0,0,0,0,0,0,0,-1,1329,1065,0,0
112,-41,0,0,0,0,0,0,0,0,0,-1,1336,1065,0,0
119,-41,0,0,0,0,0,0,0,0,0,-1,1343,1065,0,0
126,-41,0,0,0,0,0,0,0,0,0,-1,1350,1065,0,0
133,-41,0,0,0,0,0,0,0,0,0,-1,1357,1065,0,0
140,-41,0,0,0,0,0,0,0,0,0,-1,1364,1065,0,0
147,-41,0,0,0,0,0,0,0,0,0,-1,1371,1065,0,0
154,-41,0,0,0,0,0,0,0,0,0,-1,1378,1065,0,0
161,-41,0,0,0,0,0,0,0,0,0,-1,1385,1065,0,0
168,-41,0,0,0,0,0,0,0,0,0,-1,1392,1065,0,0
175,-41,0,0,0,0,0,0,0,0,0,-1,1399,1065,0,0
182,-41,0,0,0,0,0,0,0,0,0,-1,1406,1065,0,0
189,-41,0,0,0,0,0,0,0,0,0,-1,1413,1065,0,0
196,-41,0,0,0,0,0,0,0,0,0,-1,1420,1065,0,0
203,-41,0,0,0,0,0,0,0,0,0,-1,1427,1065,0,0
210,-41,0,0,0,0,0,0,0,0,0,-1,1434,1065,0,0
217,-41,0,0,0,0,0,0,0,0,0,-1,1441,1065,0,0
224,-41,0,0,0,0,0,0,0,0,0,-1,1448,1065,0,0
231,-41,0,0,0,0,0,0,0,0,0,-1,1455,1065,0,0
238,-41,0,0,0,0,0,0,0,0,0,-1,1462,1065,0,0
245,-41,0,0,0,0,0,0,0,0,0,-1,1469,1065,0,0
252,-41,0,0,0,0,0,0,0,0,0,-1,1476,1065,0,0
259,-41,0,0,0,0,0,0,0,0,0,-1,1483,1065,0,0
266,-41,0,0,0,0,0,0,0,0,0,-1,1490,1065,0,0
273,-41,0,0,0,0,0,0,0,0,0,-1,1497,1065,0,0
280,-41,0,0,0,0,0,0,0,0,0,-1,1504,1065,0,0
287,-41,0,0,0,0,0,0,0,0,0,-1,1511,1065,0,0
294,-41,0,0,0,0,0,0,0,0,0,-1,1518,1065,0,0
301,-41,0,0,0,0,0,0,0,0,0,-1,1525,1065,0,0
308,-41,0,0,0,0,0,0,0,0,0,-1,1532,1065,0,0
315,-41,0,0,0,0,0,0,0,0,0,-1,1539,1065,0,0
322,-41,0,0,0,0,0,0,0,0,0,-1,1546,1065,0,0
329,-41,0,0,0,0,0,0,0,0,0,-1,1553,1065,0,0
336,-41,0,0,0,0,0,0,0,0,0,-1,1560,1065,0,0
343,-41,0,0,0,0,0,0,0,0,0,-1,1567,1065,0,0
350,-41,0,0,0,0,0,0,0,0,0,-1,1574,1065,0,0
357,-41,0,0,0,0,0,0,0,0,0,-1,1581,1065,0,0
364,-41,0,0,0,0,0,0,0,0,0,-1,1588,1065,0,0
371,-41,0,0,0,0,0,0,0,0,0,-1,1595,1065,0,0
378,-41,0,0,0,0,0,0,0,0,0,-1,1602,1065,0,0
385,-41,0,0,0,0,0,0,0,0,0,-1,1609,1065,0,0
392,-41,0,0,0,0,0,0,0,0,0,-1,1616,1065,0,0
399,-41,0,0,0,0,0,0,0,0,0,-1,1623,1065,0,0
406,-41,0,0,0,0,0,0,0,0,0,-1,1630,1065,0,0
413,-41,0,0,0,0,0,0,0,0,0,-1,1637,1065,0,0
420,-41,0,0,0,0,0,0,0,0,0,-1,1644,1065,0,0
427,-41,0,0,0,0,0,0,0,0,0,-1,1651,1065,0,0
434,-41,0,0,0,0,0,0,0,0,0,-1,1658,1065,0,0
441,-41,0,0,0,0,0,0,0,0,0,-1,1665,1065,0,0
448,-41,0,0,0,0,0,0,0,0,0,-1,1672,1065,0,0
455,-41,0,0,0,0,0,0,0,0,0,-1,1679,1065,0,0
462,-41,0,0,0,0,0,0,0,0,0,-1,1686,1065,0,0
469,-41,0,0,0,0,0,0,0,0,0,-1,1693,1065,0,0
476,-41,0,0,0,0,0,0,0,0,0,-1,1700,1065,0,0
483,-41,0,0,0,0,0,0,0,0,0,-1,1707,1065,0,0
490,-41,0,0,0,0,0,0,0,0,0,-1,1714,1065,0,0
497,-41,0,0,0,0,0,0,0,0,0,-1,1721,1065,0,0
504,-41,0,0,0,0,0,0,0,0,0,-1,1728,1065,0,0
511,-41,0,0,0,0,0,0,0,0,0,-1,1735,1065,0,0
518,-41,0,0,0,0,0,0,0,0,0,-1,1742,1065,0,0
525,-41,0,0,0,0,0,0,0,0,0,-1,1749,1065,0,0
532,-41,0,0,0,0,0,0,0,0,0,-1,1756,1065,0,0
539,-41,0,0,0,0,0,0,0,0,0,-1,1763,1065,0,0
546,-41,0,0,0,0,0,0,0,0,0,-1,1770,1065,0,0
553,-41,0,0,0,0,0,0,0,0,0,-1,1777,1065,0,0
560,-41,0,0,0,0,0,0,0,0,0,-1,1784,1065,0,0
567,-41,0,0,0,0,0,0,0,0,0,-1,1791,1065,0,0
574,-41,0,0,0,0,0,0,0,0,0,-1,1798,1065,0,0
581,-41,0,0,0,0,0,0,0,0,0,-1,1805,1065,0,0
588,-41,0,0,0,0,0,0,0,0,0,-1,1812,1065,0,0
595,-41,0,0,0,0,0,0,0,0,0,-1,1819,1065,0,0
602,-41,0,0,0,0,0,0,0,0,0,-1,1826,1065,0,0
609,-41,0,0,0,0,0,0,0,0,0,-1,1833,1065,0,0
616,-41,0,0,0,0,0,0,0,0,0,-1,1840,1065,0,0
623,-41,0,0,0,0,0,0,0,0,0,-1,1847,1065,0,0
630,-41,0,0,0,0,0,0,0,0,0,-1,1854,1065,0,0
637,-41,0,0,0,0,0,0,0,0,0,-1,1861,1065,0,0
644,-41,0,0,0,0,0,0,0,0,0,-1,1868,1065,0,0
651,-41,43.9041,2.43494,-0.00332673,0.00124598,0.00170203,0.00180995,-0.0038907,1.25083,0.00336356,0.0335736,1875,1065,43.9041,-2.43494
658,-41,43.822,2.40649,-0.00266057,0.000912733,0.00132602,0.00135104,-0.00309888,1.25156,0.0026344,0.0385548,1882,1065,43.822,-2.40651
665,-41,44.1085,2.52454,-0.00209242,0.000686547,0.00111226,0.00107689,-0.00248276,1.23328,0.00210792,0.0412814,1889,1065,44.1085,-2.52452
672,-41,44.3125,2.53625,-0.00156546,0.000481669,0.00107547,0.000942798,-0.00202659,1.16574,0.00175203,0.0403495,1896,1065,44.3124,-2.53624
679,-41,43.99,2.7887,-0.00120061,0.000280488,0.00119366,0.00094466,-0.00186478,1.06304,0.00165077,0.0413151,1903,1065,43.99,-2.78872
686,-41,43.9028,2.72131,-0.00119691,-8.17574e-05,0.00146831,0.000931283,-0.00220995,0.966857,0.001863,0.0427584,1910,1065,43.9028,-2.72137
693,-41,43.9565,2.47864,-0.00123794,-0.000448749,0.00178632,0.000986042,-0.00267274,0.894102,0.00218594,0.0438748,1917,1065,43.9565,-2.47859
700,-41,44.0171,2.61011,-0.00133563,-0.00066575,0.00208388,0.00110994,-0.00311132,0.865082,0.0025268,0.0385333,1924,1065,44.0171,-2.61013
707,-41,44.0364,2.62,-0.00148493,-0.000742955,0.00228263,0.00119863,-0.00342652,0.865957,0.00277167,0.0247694,1931,1065,44.0364,-2.62004
714,-41,44.0449,2.62878,-0.00188738,-0.000649912,0.00251122,0.00131768,-0.00385497,0.906186,0.00310388,0.0186293,1938,1065,44.0449,-2.62873
721,-41,44.0355,2.70215,0,0,0,0,0,0,0,-1,1945,1065,44.0355,-2.70213
728,-41,43.4304,5.79822,0,0,0,0,0,0,0,-1,1952,1065,43.4305,-5.79822
735,-41,43.3088,5.68542,-0.00311368,0.000899519,0.00262605,0.00219785,-0.00441201,1.11163,0.00388692,0.0202335,1959,1065,43.3088,-5.68542
742,-41,43.2469,5.57849,-0.00313757,0.00179173,0.00282961,0.00307957,-0.00442542,1.14368,0.00435617,0.0169132,1966,1065,43.2469,-5.57848
749,-41,43.2788,5.47607,-0.00325435,0.0034799,0.00289996,0.00455657,-0.00433101,1.2153,0.0051318,0.0150741,1973,1065,43.2788,-5.4761
756,-41,43.3219,5.33496,-0.00315342,0.00568066,0.00283701,0.00651328,-0.00398603,1.28533,0.00612003,0.0141794,1980,1065,43.3218,-5.33493
763,-41,43.2332,5.15076,-0.00238877,0.00851081,0.00314829,0.00935483,-0.00323279,1.30887,0.00754853,0.0122086,1987,1065,43.2331,-5.15077
770,-41,43.1534,5.01343,-0.00110039,0.0123283,0.0035503,0.0132091,-0.00198124,1.3276,0.00953537,0.0140846,1994,1065,43.1535,-5.01347
777,-41,43.0688,4.85425,0.00101483,0.0172457,0.00451059,0.0184149,-0.000154441,1.31715,0.0123284,0.0156856,2001,1065,43.0688,-4.85426
784,-41,42.9583,4.66724,0.00343765,0.0226139,0.00595478,0.0243125,0.00173898,1.29292,0.0156609,0.0261784,2008,1065,42.9582,-4.66725
791,-41,42.8511,4.34399,0.00622987,0.0285965,0.0081108,0.0312281,0.00359828,1.25706,0.019729,0.043559,2015,1065,42.8511,-4.34395
798,-41,42.9492,3.72681,0.00973928,0.0353572,0.0111781,0.0395488,0.00554767,1.21204,0.024725,0.0454756,2022,1065,42.9493,-3.72676
805,-41,42.874,3.08069,0.0140547,0.0430222,0.0154203,0.0496942,0.00738276,1.16244,0.0309633,0.0445151,2029,1065,42.8741,-3.08069
812,-41,42.6816,2.59595,0,0,0,0,0,0,0,-1,2036,1065,42.6817,-2.5959
-700,-48,-29.6867,-0.588379,0,0,0,0,0,0,0,-1,524,1072,-29.6867,0.588371
-693,-48,-29.807,-0.595703,0,0,0,0,0,0,0,-1,531,1072,-29.807,0.595682
-686,-48,-29.3292,-0.258423,0,0,0,0,0,0,0,-1,538,1072,-29.3292,0.258374
-679,-48,-31.2897,0.93335,0,0,0,0,0,0,0,-1,545,1072,-31.2897,-0.933376
-672,-48,-31.5115,0.705078,0.00551329,0.0111204,0.0092236,0.0179571,-0.00132343,0.932938,0.012436,0.0444348,552,1072,-31.5115,-0.705058
-665,-48,-31.8236,0.2146,0.00386235,0.012994,0.00817886,0.0177951,-0.000938824,1.03997,0.0121884,0.0448507,559,1072,-31.8236,-0.214625
-658,-48,-31.7457,0.552979,0.00242548,0.0131973,0.00691693,0.0165779,-0.000955141,1.11619,0.0113837,0.0453906,566,1072,-31.7457,-0.553028
-651,-48,-31.5006,1.28345,0.00130979,0.0122628,0.00554871,0.0145824,-0.00100987,1.17482,0.0100751,0.036396,573,1072,-31.5006,-1.28348
-644,-48,-31.6149,1.94495,0,0,0,0,0,0,0,-1,580,1072,-31.6149,-1.94493
-637,-48,-31.6054,2.04968,0.000138825,0.00842341,0.00216728,0.00895612,-0.000393889,1.32978,0.00610628,0.0206209,587,1072,-31.6054,-2.04966
-630,-48,-31.6223,2.28845,-5.64574e-05,0.00604545,0.000114547,0.00604759,-5.86067e-05,1.55203,0.00405141,0.0205809,594,1072,-31.6223,-2.28846
-623,-48,-31.7084,2.52917,-0.000484058,0.00420521,-0.00161807,0.00470934,-0.00098819,-1.26877,0.00351556,0.0117768,601,1072,-31.7084,-2.52916
-616,-48,-31.7191,2.76355,-0.00086639,0.00248882,-0.00278012,0.00405828,-0.00243585,-1.05687,0.00378819,0.0112541,608,1072,-31.7191,-2.76349
-609,-48,-31.6961,2.99512,-0.000926933,0.00147365,-0.00366811,0.00413285,-0.00358614,-0.943519,0.00446028,0.0125219,615,1072,-31.6961,-2.99506
-602,-48,-31.7151,3.19568,-0.000695338,0.000619439,-0.00454494,0.00455429,-0.00463019,-0.857221,0.00530272,0.0125659,622,1072,-31.7151,-3.19565
-595,-48,-31.7446,3.36719,-0.000470306,0.000204086,-0.00501674,0.00489495,-0.00516117,-0.818955,0.00580658,0.0272112,629,1072,-31.7446,-3.36717
-588,-48,-32.2115,2.06555,0,0,0,0,0,0,0,-1,636,1072,-32.2115,-2.06554
-581,-48,-32.3622,0.901123,0,0,0,0,0,0,0,-1,643,1072,-32.3622,-0.901159
-574,-48,-32.4238,0.933838,4.19079e-05,0.000934465,-0.00412484,0.0046371,-0.00366073,-0.839285,0.0048018,0.0405934,650,1072,-32.4238,-0.933786
-567,-48,-32.6461,0.80896,0.00024975,0.00168712,-0.00338306,0.00442699,-0.00249012,-0.890061,0.00404544,0.0399161,657,1072,-32.646,-0.808992
-560,-48,-32.5911,0.828857,0.000527609,0.00272761,-0.00228618,0.00416466,-0.000909435,-1.00963,0.00312402,0.0425704,664,1072,-32.5911,-0.828821
-553,-48,-32.5159,0.771851,0.000858958,0.0039704,-0.000790598,0.00415976,0.000669597,-1.33571,0.00257911,0.0426962,671,1072,-32.516,-0.771906
-546,-48,-32.5502,0.683594,0.00125168,0.00525017,0.00116633,0.00556551,0.000936338,1.30674,0.00344096,0.039198,678,1072,-32.5502,-0.683558
-539,-48,-32.5258,0.721069,0.00157738,0.00631999,0.00298061,0.0077575,0.000139867,1.12142,0.00512568,0.0391081,685,1072,-32.5257,-0.721019
-532,-48,-32.292,0.818848,0.000976846,0.00745896,0.00304954,0.00866809,-0.000232283,1.19331,0.00585769,0.0390776,692,1072,-32.292,-0.818894
-525,-48,0,0,0,0,0,0,0,0,0,-1,699,1072,0,0
-518,-48,0,0,0,0,0,0,0,0,0,-1,706,1072,0,0
-511,-48,0,0,0,0,0,0,0,0,0,-1,713,1072,0,0
-504,-48,0,0,0,0,0,0,0,0,0,-1,720,1072,0,0
-497,-48,0,0,0,0,0,0,0,0,0,-1,727,1072,0,0
-490,-48,0,0,0,0,0,0,0,0,0,-1,734,1072,0,0
-483,-48,0,0,0,0,0,0,0,0,0,-1,741,1072,0,0
-476,-48,0,0,0,0,0,0,0,0,0,-1,748,1072,0,0
-469,-48,0,0,0,0,0,0,0,0,0,-1,755,1072,0,0
-462,-48,0,0,0,0,0,0,0,0,0,-1,762,1072,0,0
-455,-48,0,0,0,0,0,0,0,0,0,-1,769,1072,0,0
-448,-48,0,0,0,0,0,0,0,0,0,-1,776,1072,0,0
-441,-48,0,0,0,0,0,0,0,0,0,-1,783,1072,0,0
-434,-48,0,0,0,0,0,0,0,0,0,-1,790,1072,0,0
-427,-48,0,0,0,0,0,0,0,0,0,-1,797,1072,0,0
-420,-48,0,0,0,0,0,0,0,0,0,-1,804,1072,0,0
-413,-48,0,0,0,0,0,0,0,0,0,-1,811,1072,0,0
-406,-48,0,0,0,0,0,0,0,0,0,-1,818,1072,0,0
-399,-48,0,0,0,0,0,0,0,0,0,-1,825,1072,0,0
-392,-48,0,0,0,0,0,0,0,0,0,-1,832,1072,0,0
-385,-48,0,0,0,0,0,0,0,0,0,-1,839,1072,0,0
-378,-48,0,0,0,0,0,0,0,0,0,-1,846,1072,0,0
-371,-48,0,0,0,0,0,0,0,0,0,-1,853,1072,0,0
-364,-48,0,0,0,0,0,0,0,0,0,-1,860,1072,0,0
-357,-48,0,0,0,0,0,0,0,0,0,-1,867,1072,0,0
-350,-48,0,0,0,0,0,0,0,0,0,-1,874,1072,0,0
-343,-48,0,0,0,0,0,0,0,0,0,-1,881,1072,0,0
-336,-48,0,0,0,0,0,0,0,0,0,-1,888,1072,0,0
-329,-48,0,0,0,0,0,0,0,0,0,-1,895,1072,0,0
-322,-48,0,0,0,0,0,0,0,0,0,-1,902,1072,0,0
-315,-48,0,0,0,0,0,0,0,0,0,-1,909,1072,0,0
-308,-48,0,0,0,0,0,0,0,0,0,-1,916,1072,0,0
-301,-48,0,0,0,0,0,0,0,0,0,-1,923,1072,0,0
-294,-48,0,0,0,0,0,0,0,0,0,-1,930,1072,0,0
-287,-48,0,0,0,0,0,0,0,0,0,-1,937,1072,0,0
-280,-48,0,0,0,0,0,0,0,0,0,-1,944,1072,0,0
-273,-48,0,0,0,0,0,0,0,0,0,-1,951,1072,0,0
-266,-48,0,0,0,0,0,0,0,0,0,-1,958,1072,0,0
-259,-48,0,0,0,0,0,0,0,0,0,-1,965,1072,0,0
-252,-48,0,0,0,0,0,0,0,0,0,-1,972,1072,0,0
-245,-48,0,0,0,0,0,0,0,0,0,-1,979,1072,0,0
-238,-48,0,0,0,0,0,0,0,0,0,-1,986,1072,0,0
-231,-48,0,0,0,0,0,0,0,0,0,-1,993,1072,0,0
-224,-48,0,0,0,0,0,0,0,0,0,-1,1000,1072,0,0
-217,-48,0,0,0,0,0,0,0,0,0,-1,1007,1072,0,0
-210,-48,0,0,0,0,0,0,0,0,0,-1,1014,1072,0,0
-203,-48,0,0,0,0,0,0,0,0,0,-1,1021,1072,0,0
-196,-48,0,0,0,0,0,0,0,0,0,-1,1028,1072,0,0
-189,-48,0,0,0,0,0,0,0,0,0,-1,1035,1072,0,0
-182,-48,0,0,0,0,0,0,0,0,0,-1,1042,1072,0,0
-175,-48,0,0,0,0,0,0,0,0,0,-1,1049,1072,0,0
-168,-48,0,0,0,0,0,0,0,0,0,-1,1056,1072,0,0
-161,-48,0,0,0,0,0,0,0,0,0,-1,1063,1072,0,0
-154,-48,0,0,0,0,0,0,0,0,0,-1,1070,1072,0,0
-147,-48,0,0,0,0,0,0,0,0,0,-1,1077,1072,0,0
-140,-48,0,0,0,0,0,0,0,0,0,-1,1084,1072,0,0
-133,-48,0,0,0,0,0,0,0,0,0,-1,1091,1072,0,0
-126,-48,0,0,0,0,0,0,0,0,0,-1,1098,1072,0,0
-119,-48,0,0,0,0,0,0,0,0,0,-1,1105,1072,0,0
-112,-48,0,0,0,0,0,0,0,0,0,-1,1112,1072,0,0
-105,-48,0,0,0,0,0,0,0,0,0,-1,1119,1072,0,0
-98,-48,0,0,0,0,0,0,0,0,0,-1,1126,1072,0,0
-91,-48,0,0,0,0,0,0,0,0,0,-1,1133,1072,0,0
-84,-48,0,0,0,0,0,0,0,0,0,-1,1140,1072,0,0
-77,-48,0,0,0,0,0,0,0,0,0,-1,1147,1072,0,0
-70,-48,0,0,0,0,0,0,0,0,0,-1,1154,1072,0,0
-63,-48,0,0,0,0,0,0,0,0,0,-1,1161,1072,0,0
-56,-48,0,0,0,0,0,0,0,0,0,-1,1168,1072,0,0
-49,-48,0,0,0,0,0,0,0,0,0,-1,1175,1072,0,0
-42,-48,0,0,0,0,0,0,0,0,0,-1,1182,1072,0,0
-35,-48,0,0,0,0,0,0,0,0,0,-1,1189,1072,0,0
-28,-48,0,0,0,0,0,0,0,0,0,-1,1196,1072,0,0
-21,-48,0,0,0,0,0,0,0,0,0,-1,1203,1072,0,0
-14,-48,0,0,0,0,0,0,0,0,0,-1,1210,1072,0,0
-7,-48,0,0,0,0,0,0,0,0,0,-1,1217,1072,0,0
0,-48,0,0,0,0,0,0,0,0,0,-1,1224,1072,0,0
7,-48,0,0,0,0,0,0,0,0,0,-1,1231,1072,0,0
14,-48,0,0,0,0,0,0,0,0,0,-1,1238,1072,0,0
21,-48,0,0,0,0,0,0,0,0,0,-1,1245,1072,0,0
28,-48,0,0,0,0,0,0,0,0,0,-1,1252,1072,0,0
35,-48,0,0,0,0,0,0,0,0,0,-1,1259,1072,0,0
42,-48,0,0,0,0,0,0,0,0,0,-1,1266,1072,0,0
49,-48,0,0,0,0,0,0,0,0,0,-1,1273,1072,0,0
56,-48,0,0,0,0,0,0,0,0,0,-1,1280,1072,0,0
63,-48,0,0,0,0,0,0,0,0,0,-1,1287,1072,0,0
70,-48,0,0,0,0,0,0,0,0,0,-1,1294,1072,0,0
77,-48,0,0,0,0,0,0,0,0,0,-1,1301,1072,0,0
84,-48,0,0,0,0,0,0,0,0,0,-1,1308,1072,0,0
91,-48,0,0,0,0,0,0,0,0,0,-1,1315,1072,0,0
98,-48,0,0,0,0,0,0,0,0,0,-1,1322,1072,0,0
105,-48,0,0,0,0,0,0,0,0,0,-1,1329,1072,0,0
112,-48,0,0,0,0,0,0,0,0,0,-1,1336,1072,0,0
119,-48,0,0,0,0,0,0,0,0,0,-1,1343,1072,0,0
126,-48,0,0,0,0,0,0,0,0,0,-1,1350,1072,0,0
133,-48,0,0,0,0,0,0,0,0,0,-1,1357,1072,0,0
140,-48,0,0,0,0,0,0,0,0,0,-1,1364,1072,0,0
147,-48,0,0,0,0,0,0,0,0,0,-1,1371,1072,0,0
154,-48,0,0,0,0,0,0,0,0,0,-1,1378,1072,0,0
161,-48,0,0,0,0,0,0,0,0,0,-1,1385,1072,0,0
168,-48,0,0,0,0,0,0,0,0,0,-1,1392,1072,0,0
175,-48,0,0,0,0,0,0,0,0,0,-1,1399,1072,0,0
182,-48,0,0,0,0,0,0,0,0,0,-1,1406,1072,0,0
189,-48,0,0,0,0,0,0,0,0,0,-1,1413,1072,0,0
196,-48,0,0,0,0,0,0,0,0,0,-1,1420,1072,0,0
203,-48,0,0,0,0,0,0,0,0,0,-1,1427,1072,0,0
210,-48,0,0,0,0,0,0,0,0,0,-1,1434,1072,0,0
217,-48,0,0,0,0,0,0,0,0,0,-1,1441,1072,0,0
224,-48,0,0,0,0,0,0,0,0,0,-1,1448,1072,0,0
231,-48,0,0,0,0,0,0,0,0,0,-1,1455,1072,0,0
238,-48,0,0,0,0,0,0,0,0,0,-1,1462,1072,0,0
245,-48,0,0,0,0,0,0,0,0,0,-1,1469,1072,0,0
252,-48,0,0,0,0,0,0,0,0,0,-1,1476,1072,0,0
259,-48,0,0,0,0,0,0,0,0,0,-1,1483,1072,0,0
266,-48,0,0,0,0,0,0,0,0,0,-1,1490,1072,0,0
273,-48,0,0,0,0,0,0,0,0,0,-1,1497,1072,0,0
280,-48,0,0,0,0,0,0,0,0,0,-1,1504,1072,0,0
287,-48,0,0,0,0,0,0,0,0,0,-1,1511,1072,0,0
294,-48,0,0,0,0,0,0,0,0,0,-1,1518,1072,0,0
301,-48,0,0,0,0,0,0,0,0,0,-1,1525,1072,0,0
308,-48,0,0,0,0,0,0,0,0,0,-1,1532,1072,0,0
315,-48,0,0,0,0,0,0,0,0,0,-1,1539,1072,0,0
322,-48,0,0,0,0,0,0,0,0,0,-1,1546,1072,0,0
329,-48,0,0,0,0,0,0,0,0,0,-1,1553,1072,0,0
336,-48,0,0,0,0,0,0,0,0,0,-1,1560,1072,0,0
343,-48,0,0,0,0,0,0,0,0,0,-1,1567,1072,0,0
350,-48,0,0,0,0,0,0,0,0,0,-1,1574,1072,0,0
357,-48,0,0,0,0,0,0,0,0,0,-1,1581,1072,0,0
364,-48,0,0,0,0,0,0,0,0,0,-1,1588,1072,0,0
371,-48,0,0,0,0,0,0,0,0,0,-1,1595,1072,0,0
378,-48,0,0,0,0,0,0,0,0,0,-1,1602,1072,0,0
385,-48,0,0,0,0,0,0,0,0,0,-1,1609,1072,0,0
392,-48,0,0,0,0,0,0,0,0,0,-1,1616,1072,0,0
399,-48,0,0,0,0,0,0,0,0,0,-1,1623,1072,0,0
406,-48,0,0,0,0,0,0,0,0,0,-1,1630,1072,0,0
413,-48,0,0,0,0,0,0,0,0,0,-1,1637,1072,0,0
420,-48,0,0,0,0,0,0,0,0,0,-1,1644,1072,0,0
427,-48,0,0,0,0,0,0,0,0,0,-1,1651,1072,0,0
434,-48,0,0,0,0,0,0,0,0,0,-1,1658,1072,0,0
441,-48,0,0,0,0,0,0,0,0,0,-1,1665,1072,0,0
448,-48,0,0,0,0,0,0,0,0,0,-1,1672,1072,0,0
455,-48,0,0,0,0,0,0,0,0,0,-1,1679,1072,0,0
462,-48,0,0,0,0,0,0,0,0,0,-1,1686,1072,0,0
469,-48,0,0,0,0,0,0,0,0,0,-1,1693,1072,0,0
476,-48,0,0,0,0,0,0,0,0,0,-1,1700,1072,0,0
483,-48,0,0,0,0,0,0,0,0,0,-1,1707,1072,0,0
490,-48,0,0,0,0,0,0,0,0,0,-1,1714,1072,0,0
497,-48,0,0,0,0,0,0,0,0,0,-1,1721,1072,0,0
504,-48,0,0,0,0,0,0,0,0,0,-1,1728,1072,0,0
511,-48,0,0,0,0,0,0,0,0,0,-1,1735,1072,0,0
518,-48,0,0,0,0,0,0,0,0,0,-1,1742,1072,0,0
525,-48,0,0,0,0,0,0,0,0,0,-1,1749,1072,0,0
532,-48,0,0,0,0,0,0,0,0,0,-1,1756,1072,0,0
539,-48,0,0,0,0,0,0,0,0,0,-1,1763,1072,0,0
546,-48,0,0,0,0,0,0,0,0,0,-1,1770,1072,0,0
553,-48,0,0,0,0,0,0,0,0,0,-1,1777,1072,0,0
560,-48,0,0,0,0,0,0,0,0,0,-1,1784,1072,0,0
567,-48,0,0,0,0,0,0,0,0,0,-1,1791,1072,0,0
574,-48,0,0,0,0,0,0,0,0,0,-1,1798,1072,0,0
581,-48,0,0,0,0,0,0,0,0,0,-1,1805,1072,0,0
588,-48,0,0,0,0,0,0,0,0,0,-1,1812,1072,0,0
595,-48,0,0,0,0,0,0,0,0,0,-1,1819,1072,0,0
602,-48,0,0,0,0,0,0,0,0,0,-1,1826,1072,0,0
609,-48,0,0,0,0,0,0,0,0,0,-1,1833,1072,0,0
616,-48,0,0,0,0,0,0,0,0,0,-1,1840,1072,0,0
623,-48,0,0,0,0,0,0,0,0,0,-1,1847,1072,0,0
630,-48,0,0,0,0,0,0,0,0,0,-1,1854,1072,0,0
637,-48,0,0,0,0,0,0,0,0,0,-1,1861,1072,0,0
644,-48,0,0,0,0,0,0,0,0,0,-1,1868,1072,0,0
651,-48,44.011,2.44299,-0.0031626,0.000427657,0.00201609,0.00133199,-0.00406693,1.14914,0.00324765,0.0312377,1875,1072,44.011,-2.44297
658,-48,44.2029,2.28516,-0.00257317,0.000396413,0.00150231,0.00102386,-0.00320061,1.17516,0.00254464,0.0362984,1882,1072,44.2029,-2.28518
665,-48,44.3447,2.22595,-0.00204036,0.00039426,0.00120293,0.000888345,-0.00253445,1.18107,0.00205091,0.0417706,1889,1072,44.3448,-2.2259
672,-48,44.2925,2.45801,-0.00152484,0.000330602,0.00109627,0.000839015,-0.00203325,1.13655,0.00170542,0.0405615,1896,1072,44.2924,-2.45801
679,-48,44.1268,2.63696,-0.00122745,0.000223084,0.00115816,0.000864322,-0.00186869,1.06514,0.00161303,0.0380266,1903,1072,44.1268,-2.63702
686,-48,43.9315,2.60156,-0.00131961,-8.25611e-05,0.00136969,0.000801788,-0.00220396,0.997481,0.00179721,0.0364167,1910,1072,43.9315,-2.60154
693,-48,43.8824,2.46912,-0.00142507,-0.000422519,0.00163806,0.00078925,-0.00263684,0.933883,0.00207171,0.0385812,1917,1072,43.8824,-2.46917
700,-48,44.0454,2.63794,-0.00157202,-0.000632457,0.0019027,0.000857597,-0.00306207,0.906429,0.00237934,0.0340464,1924,1072,44.0454,-2.63797
707,-48,44.063,2.58154,-0.00175187,-0.000709567,0.00209919,0.000932194,-0.00339363,0.90707,0.00262883,0.0236892,1931,1072,44.063,-2.58151
714,-48,44.0621,2.62878,-0.00215236,-0.000644467,0.00233882,0.00105893,-0.00385575,0.94132,0.00298672,0.0307316,1938,1072,44.0621,-2.62882
721,-48,44.0591,2.79773,0,0,0,0,0,0,0,-1,1945,1072,44.059,-2.79772
728,-48,43.2369,5.94116,0,0,0,0,0,0,0,-1,1952,1072,43.2369,-5.94113
735,-48,43.1656,5.79419,-0.00324093,0.000735041,0.00251268,0.00195106,-0.00445696,1.12007,0.00379279,0.0219193,1959,1072,43.1656,-5.7942
742,-48,43.0652,5.62622,-0.00318582,0.00156755,0.00277097,0.00284147,-0.00445974,1.13987,0.00424973,0.0187236,1966,1072,43.0652,-5.62621
749,-48,43.0847,5.44983,-0.00310503,0.00319252,0.00287426,0.0043071,-0.00421961,1.20087,0.00492298,0.0161887,1973,1072,43.0847,-5.44984
756,-48,43.0903,5.28247,-0.00269778,0.00532637,0.00283316,0.00622587,-0.00359728,1.26337,0.00573868,0.014322,1980,1072,43.0903,-5.28241
763,-48,43.0358,5.11218,-0.00153038,0.00810831,0.0031902,0.00906854,-0.00249061,1.27843,0.00702465,0.0139048,1987,1072,43.0357,-5.11213
770,-48,42.9977,4.95203,0.000275915,0.0118938,0.00363823,0.0129391,-0.000769375,1.29102,0.00889361,0.0154929,1994,1072,42.9976,-4.95201
777,-48,42.889,4.77783,0.00307034,0.0167083,0.00461893,0.0181254,0.00165324,1.27311,0.011572,0.0135812,2001,1072,42.8891,-4.77784
784,-48,42.7805,4.59692,0.00627556,0.0219953,0.0060542,0.0240567,0.00421419,1.24262,0.0148339,0.0238805,2008,1072,42.7805,-4.59689
791,-48,42.7549,4.37463,0.0099761,0.0279303,0.00815948,0.0310844,0.00682203,1.20194,0.0188647,0.0395657,2015,1072,42.7549,-4.37469
798,-48,42.6921,4.125,0,0,0,0,0,0,0,-1,2022,1072,42.6921,-4.12496
805,-48,42.719,2.58264,0.0203419,0.0423243,0.0152332,0.0501176,0.0125486,1.09791,0.0301134,0.0433189,2029,1072,42.7191,-2.5826
812,-48,42.3071,2.2052,0,0,0,0,0,0,0,-1,2036,1072,42.3072,-2.20515
-700,-55,-31.1306,-1.17993,0,0,0,0,0,0,0,-1,524,1079,-31.1306,1.17994
-693,-55,-30.553,-0.664063,0,0,0,0,0,0,0,-1,531,1079,-30.553,0.664102
-686,-55,-30.1368,-0.214355,0,0,0,0,0,0,0,-1,538,1079,-30.1368,0.214397
-679,-55,-31.7383,0.532715,0,0,0,0,0,0,0,-1,545,1079,-31.7383,-0.532682
-672,-55,-31.558,0.551636,0.00367005,0.00976379,0.00466825,0.0122915,0.00114234,1.07453,0.00784134,0.0469727,552,1079,-31.558,-0.551687
-665,-55,-31.5964,0.265625,0.00261013,0.0117227,0.0049845,0.0139196,0.000413268,1.15567,0.00914506,0.0454798,559,1079,-31.5964,-0.265669
-658,-55,-31.7832,0.1521,0.00158872,0.0120267,0.00472102,0.0138452,-0.000229754,1.20313,0.00930764,0.0479532,566,1079,-31.7832,-0.152055
-651,-55,-31.488,0.997437,0.000760698,0.0112302,0.00408553,0.0126358,-0.000644896,1.23944,0.00864685,0.0404853,573,1079,-31.488,-0.997402
-644,-55,-31.3913,1.79089,0.000279503,0.00969005,0.00317023,0.0106584,-0.000688845,1.27435,0.00734599,0.022922,580,1079,-31.3913,-1.79085
-637,-55,-31.395,1.97559,4.15304e-05,0.00771334,0.00172518,0.00808343,-0.000328564,1.35947,0.00550175,0.0179757,587,1079,-31.395,-1.97556
-630,-55,-31.4057,2.25476,2.6377e-05,0.00548811,4.36335e-05,0.00548846,2.60284e-05,1.56281,0.00365033,0.0190834,594,1079,-31.4057,-2.25471
-623,-55,-31.4988,2.54724,-0.000265003,0.00376322,-0.00141619,0.00421127,-0.000713055,-1.26438,0.0030729,0.0171166,601,1079,-31.4988,-2.5473
-616,-55,-31.5169,2.77002,-0.000539173,0.00208468,-0.0023942,0.00350283,-0.00195733,-1.03604,0.00319424,0.0160827,608,1079,-31.5169,-2.77002
-609,-55,-31.4987,3.03394,-0.000521786,0.00110582,-0.00320417,0.00359792,-0.00301389,-0.909759,0.00382229,0.0164178,615,1079,-31.4987,-3.03391
-602,-55,-31.4714,3.25012,-0.000259834,0.000281834,-0.00404244,0.0040625,-0.0040405,-0.818847,0.00467828,0.0138778,622,1079,-31.4714,-3.25017
-595,-55,-31.3666,3.49658,-1.64619e-05,-4.7732e-05,-0.00448683,0.00445476,-0.00451895,-0.783656,0.00518102,0.0278892,629,1079,-31.3666,-3.49656
-588,-55,-31.3429,3.78259,0,0,0,0,0,0,0,-1,636,1079,-31.3429,-3.78256
-581,-55,-32.3591,0.886108,0,0,0,0,0,0,0,-1,643,1079,-32.3592,-0.886076
-574,-55,-32.3083,0.836792,0.000513756,0.00061778,-0.00368814,0.00425428,-0.00312274,-0.792449,0.00427579,0.0405708,650,1079,-32.3084,-0.836753
-567,-55,-32.3805,0.870605,0.00073217,0.00131906,-0.00303687,0.00407663,-0.00202541,-0.833562,0.00358875,0.0407229,657,1079,-32.3805,-0.8706
-560,-55,-32.6146,0.972656,0.00100363,0.00230369,-0.00205813,0.003812,-0.000504674,-0.938358,0.00272518,0.0441378,664,1079,-32.6145,-0.97262
-553,-55,-32.5834,0.910034,0.00130975,0.00349917,-0.000685468,0.00369607,0.00111285,-1.29108,0.00218949,0.0419532,671,1079,-32.5834,-0.909977
-546,-55,-32.5022,0.748047,0.00169716,0.0047746,0.00117516,0.00517202,0.00129973,1.24468,0.00310676,0.0377535,678,1079,-32.5022,-0.748027
-539,-55,-32.4422,0.635376,0.0022272,0.00582816,0.00306667,0.00758383,0.000471532,1.05084,0.00490627,0.0373088,685,1079,-32.4422,-0.635379
-532,-55,-32.3752,0.678101,0.00181667,0.00692092,0.0033687,0.00859508,0.000142506,1.10957,0.00568315,0.0372973,692,1079,-32.3752,-0.678084
-525,-55,0,0,0,0,0,0,0,0,0,-1,699,1079,0,0
-518,-55,0,0,0,0,0,0,0,0,0,-1,706,1079,0,0
-511,-55,0,0,0,0,0,0,0,0,0,-1,713,1079,0,0
-504,-55,0,0,0,0,0,0,0,0,0,-1,720,1079,0,0
-497,-55,0,0,0,0,0,0,0,0,0,-1,727,1079,0,0
-490,-55,0,0,0,0,0,0,0,0,0,-1,734,1079,0,0
-483,-55,0,0,0,0,0,0,0,0,0,-1,741,1079,0,0
-476,-55,0,0,0,0,0,0,0,0,0,-1,748,1079,0,0
-469,-55,0,0,0,0,0,0,0,0,0,-1,755,1079,0,0
-462,-55,0,0,0,0,0,0,0,0,0,-1,762,1079,0,0
-455,-55,0,0,0,0,0,0,0,0,0,-1,769,1079,0,0
-448,-55,0,0,0,0,0,0,0,0,0,-1,776,1079,0,0
-441,-55,0,0,0,0,0,0,0,0,0,-1,783,1079,0,0
-434,-55,0,0,0,0,0,0,0,0,0,-1,790,1079,0,0
-427,-55,0,0,0,0,0,0,0,0,0,-1,797,1079,0,0
-420,-55,0,0,0,0,0,0,0,0,0,-1,804,1079,0,0
-413,-55,0,0,0,0,0,0,0,0,0,-1,811,1079,0,0
-406,-55,0,0,0,0,0,0,0,0,0,-1,818,1079,0,0
-399,-55,0,0,0,0,0,0,0,0,0,-1,825,1079,0,0
-392,-55,0,0,0,0,0,0,0,0,0,-1,832,1079,0,0
-385,-55,0,0,0,0,0,0,0,0,0,-1,839,1079,0,0
-378,-55,0,0,0,0,0,0,0,0,0,-1,846,1079,0,0
-371,-55,0,0,0,0,0,0,0,0,0,-1,853,1079,0,0
-364,-55,0,0,0,0,0,0,0,0,0,-1,860,1079,0,0
-357,-55,0,0,0,0,0,0,0,0,0,-1,867,1079,0,0
-350,-55,0,0,0,0,0,0,0,0,0,-1,874,1079,0,0
-343,-55,0,0,0,0,0,0,0,0,0,-1,881,1079,0,0
-336,-55,0,0,0,0,0,0,0,0,0,-1,888,1079,0,0
-329,-55,0,0,0,0,0,0,0,0,0,-1,895,1079,0,0
-322,-55,0,0,0,0,0,0,0,0,0,-1,902,1079,0,0
-315,-55,0,0,0,0,0,0,0,0,0,-1,909,1079,0,0
-308,-55,0,0,0,0,0,0,0,0,0,-1,916,1079,0,0
-301,-55,0,0,0,0,0,0,0,0,0,-1,923,1079,0,0
-294,-55,0,0,0,0,0,0,0,0,0,-1,930,1079,0,0
-287,-55,0,0,0,0,0,0,0,0,0,-1,937,1079,0,0
-280,-55,0,0,0,0,0,0,0,0,0,-1,944,1079,0,0
-273,-55,0,0,0,0,0,0,0,0,0,-1,951,1079,0,0
-266,-55,0,0,0,0,0,0,0,0,0,-1,958,1079,0,0
-259,-55,0,0,0,0,0,0,0,0,0,-1,965,1079,0,0
-252,-55,0,0,0,0,0,0,0,0,0,-1,972,1079,0,0
-245,-55,0,0,0,0,0,0,0,0,0,-1,979,1079,0,0
-238,-55,0,0,0,0,0,0,0,0,0,-1,986,1079,0,0
-231,-55,0,0,0,0,0,0,0,0,0,-1,993,1079,0,0
-224,-55,0,0,0,0,0,0,0,0,0,-1,1000,1079,0,0
-217,-55,0,0,0,0,0,0,0,0,0,-1,1007,1079,0,0
-210,-55,0,0,0,0,0,0,0,0,0,-1,1014,1079,0,0
-203,-55,0,0,0,0,0,0,0,0,0,-1,1021,1079,0,0
-196,-55,0,0,0,0,0,0,0,0,0,-1,1028,1079,0,0
-189,-55,0,0,0,0,0,0,0,0,0,-1,1035,1079,0,0
-182,-55,0,0,0,0,0,0,0,0,0,-1,1042,1079,0,0
-175,-55,0,0,0,0,0,0,0,0,0,-1,1049,1079,0,0
-168,-55,0,0,0,0,0,0,0,0,0,-1,1056,1079,0,0
-161,-55,0,0,0,0,0,0,0,0,0,-1,1063,1079,0,0
-154,-55,0,0,0,0,0,0,0,0,0,-1,1070,1079,0,0
-147,-55,0,0,0,0,0,0,0,0,0,-1,1077,1079,0,0
-140,-55,0,0,0,0,0,0,0,0,0,-1,1084,1079,0,0
-133,-55,0,0,0,0,0,0,0,0,0,-1,1091,1079,0,0
-126,-55,0,0,0,0,0,0,0,0,0,-1,1098,1079,0,0
-119,-55,0,0,0,0,0,0,0,0,0,-1,1105,1079,0,0
-112,-55,0,0,0,0,0,0,0,0,0,-1,1112,1079,0,0
-105,-55,0,0,0,0,0,0,0,0,0,-1,1119,1079,0,0
-98,-55,0,0,0,0,0,0,0,0,0,-1,1126,1079,0,0
-91,-55,0,0,0,0,0,0,0,0,0,-1,1133,1079,0,0
-84,-55,0,0,0,0,0,0,0,0,0,-1,1140,1079,0,0
-77,-55,0,0,0,0,0,0,0,0,0,-1,1147,1079,0,0
-70,-55,0,0,0,0,0,0,0,0,0,-1,1154,1079,0,0
-63,-55,0,0,0,0,0,0,0,0,0,-1,1161,1079,0,0
-56,-55,0,0,0,0,0,0,0,0,0,-1,1168,1079,0,0
-49,-55,0,0,0,0,0,0,0,0,0,-1,1175,1079,0,0
-42,-55,0,0,0,0,0,0,0,0,0,-1,1182,1079,0,0
-35,-55,0,0,0,0,0,0,0,0,0,-1,1189,1079,0,0
-28,-55,0,0,0,0,0,0,0,0,0,-1,1196,1079,0,0
-21,-55,0,0,0,0,0,0,0,0,0,-1,1203,1079,0,0
-14,-55,0,0,0,0,0,0,0,0,0,-1,1210,1079,0,0
-7,-55,0,0,0,0,0,0,0,0,0,-1,1217,1079,0,0
0,-55,0,0,0,0,0,0,0,0,0,-1,1224,1079,0,0
7,-55,0,0,0,0,0,0,0,0,0,-1,1231,1079,0,0
14,-55,0,0,0,0,0,0,0,0,0,-1,1238,1079,0,0
21,-55,0,0,0,0,0,0,0,0,0,-1,1245,1079,0,0
28,-55,0,0,0,0,0,0,0,0,0,-1,1252,1079,0,0
35,-55,0,0,0,0,0,0,0,0,0,-1,1259,1079,0,0
42,-55,0,0,0,0,0,0,0,0,0,-1,1266,1079,0,0
49,-55,0,0,0,0,0,0,0,0,0,-1,1273,1079,0,0
56,-55,0,0,0,0,0,0,0,0,0,-1,1280,1079,0,0
63,-55,0,0,0,0,0,0,0,0,0,-1,1287,1079,0,0
70,-55,0,0,0,0,0,0,0,0,0,-1,1294,1079,0,0
77,-55,0,0,0,0,0,0,0,0,0,-1,1301,1079,0,0
84,-55,0,0,0,0,0,0,0,0,0,-1,1308,1079,0,0
91,-55,0,0,0,0,0,0,0,0,0,-1,1315,1079,0,0
98,-55,0,0,0,0,0,0,0,0,0,-1,1322,1079,0,0
105,-55,0,0,0,0,0,0,0,0,0,-1,1329,1079,0,0
112,-55,0,0,0,0,0,0,0,0,0,-1,1336,1079,0,0
119,-55,0,0,0,0,0,0,0,0,0,-1,1343,1079,0,0
126,-55,0,0,0,0,0,0,0,0,0,-1,1350,1079,0,0
133,-55,0,0,0,0,0,0,0,0,0,-1,1357,1079,0,0
140,-55,0,0,0,0,0,0,0,0,0,-1,1364,1079,0,0
147,-55,0,0,0,0,0,0,0,0,0,-1,1371,1079,0,0
154,-55,0,0,0,0,0,0,0,0,0,-1,1378,1079,0,0
161,-55,0,0,0,0,0,0,0,0,0,-1,1385,1079,0,0
168,-55,0,0,0,0,0,0,0,0,0,-1,1392,1079,0,0
175,-55,0,0,0,0,0,0,0,0,0,-1,1399,1079,0,0
182,-55,0,0,0,0,0,0,0,0,0,-1,1406,1079,0,0
189,-55,0,0,0,0,0,0,0,0,0,-1,1413,1079,0,0
196,-55,0,0,0,0,0,0,0,0,0,-1,1420,1079,0,0
203,-55,0,0,0,0,0,0,0,0,0,-1,1427,1079,0,0
210,-55,0,0,0,0,0,0,0,0,0,-1,1434,1079,0,0
217,-55,0,0,0,0,0,0,0,0,0,-1,1441,1079,0,0
224,-55,0,0,0,0,0,0,0,0,0,-1,1448,1079,0,0
231,-55,0,0,0,0,0,0,0,0,0,-1,1455,1079,0,0
238,-55,0,0,0,0,0,0,0,0,0,-1,1462,1079,0,0
245,-55,0,0,0,0,0,0,0,0,0,-1,1469,1079,0,0
252,-55,0,0,0,0,0,0,0,0,0,-1,1476,1079,0,0
259,-55,0,0,0,0,0,0,0,0,0,-1,1483,1079,0,0
266,-55,0,0,0,0,0,0,0,0,0,-1,1490,1079,0,0
273,-55,0,0,0,0,0,0,0,0,0,-1,1497,1079,0,0
280,-55,0,0,0,0,0,0,0,0,0,-1,1504,1079,0,0
287,-55,0,0,0,0,0,0,0,0,0,-1,1511,1079,0,0
294,-55,0,0,0,0,0,0,0,0,0,-1,1518,1079,0,0
301,-55,0,0,0,0,0,0,0,0,0,-1,1525,1079,0,0
308,-55,0,0,0,0,0,0,0,0,0,-1,1532,1079,0,0
315,-55,0,0,0,0,0,0,0,0,0,-1,1539,1079,0,0
322,-55,0,0,0,0,0,0,0,0,0,-1,1546,1079,0,0
329,-55,0,0,0,0,0,0,0,0,0,-1,1553,1079,0,0
336,-55,0,0,0,0,0,0,0,0,0,-1,1560,1079,0,0
343,-55,0,0,0,0,0,0,0,0,0,-1,1567,1079,0,0
350,-55,0,0,0,0,0,0,0,0,0,-1,1574,1079,0,0
357,-55,0,0,0,0,0,0,0,0,0,-1,1581,1079,0,0
364,-55,0,0,0,0,0,0,0,0,0,-1,1588,1079,0,0
371,-55,0,0,0,0,0,0,0,0,0,-1,1595,1079,0,0
378,-55,0,0,0,0,0,0,0,0,0,-1,1602,1079,0,0
385,-55,0,0,0,0,0,0,0,0,0,-1,1609,1079,0,0
392,-55,0,0,0,0,0,0,0,0,0,-1,1616,1079,0,0
399,-55,0,0,0,0,0,0,0,0,0,-1,1623,1079,0,0
406,-55,0,0,0,0,0,0,0,0,0,-1,1630,1079,0,0
413,-55,0,0,0,0,0,0,0,0,0,-1,1637,1079,0,0
420,-55,0,0,0,0,0,0,0,0,0,-1,1644,1079,0,0
427,-55,0,0,0,0,0,0,0,0,0,-1,1651,1079,0,0
434,-55,0,0,0,0,0,0,0,0,0,-1,1658,1079,0,0
441,-55,0,0,0,0,0,0,0,0,0,-1,1665,1079,0,0
448,-55,0,0,0,0,0,0,0,0,0,-1,1672,1079,0,0
455,-55,0,0,0,0,0,0,0,0,0,-1,1679,1079,0,0
462,-55,0,0,0,0,0,0,0,0,0,-1,1686,1079,0,0
469,-55,0,0,0,0,0,0,0,0,0,-1,1693,1079,0,0
476,-55,0,0,0,0,0,0,0,0,0,-1,1700,1079,0,0
483,-55,0,0,0,0,0,0,0,0,0,-1,1707,1079,0,0
490,-55,0,0,0,0,0,0,0,0,0,-1,1714,1079,0,0
497,-55,0,0,0,0,0,0,0,0,0,-1,1721,1079,0,0
504,-55,0,0,0,0,0,0,0,0,0,-1,1728,1079,0,0
511,-55,0,0,0,0,0,0,0,0,0,-1,1735,1079,0,0
518,-55,0,0,0,0,0,0,0,0,0,-1,1742,1079,0,0
525,-55,0,0,0,0,0,0,0,0,0,-1,1749,1079,0,0
532,-55,0,0,0,0,0,0,0,0,0,-1,1756,1079,0,0
539,-55,0,0,0,0,0,0,0,0,0,-1,1763,1079,0,0
546,-55,0,0,0,0,0,0,0,0,0,-1,1770,1079,0,0
553,-55,0,0,0,0,0,0,0,0,0,-1,1777,1079,0,0
560,-55,0,0,0,0,0,0,0,0,0,-1,1784,1079,0,0
567,-55,0,0,0,0,0,0,0,0,0,-1,1791,1079,0,0
574,-55,0,0,0,0,0,0,0,0,0,-1,1798,1079,0,0
581,-55,0,0,0,0,0,0,0,0,0,-1,1805,1079,0,0
588,-55,0,0,0,0,0,0,0,0,0,-1,1812,1079,0,0
595,-55,0,0,0,0,0,0,0,0,0,-1,1819,1079,0,0
602,-55,0,0,0,0,0,0,0,0,0,-1,1826,1079,0,0
609,-55,0,0,0,0,0,0,0,0,0,-1,1833,1079,0,0
616,-55,0,0,0,0,0,0,0,0,0,-1,1840,1079,0,0
623,-55,0,0,0,0,0,0,0,0,0,-1,1847,1079,0,0
630,-55,0,0,0,0,0,0,0,0,0,-1,1854,1079,0,0
637,-55,0,0,0,0,0,0,0,0,0,-1,1861,1079,0,0
644,-55,0,0,0,0,0,0,0,0,0,-1,1868,1079,0,0
651,-55,44.1129,2.51147,-0.00264972,-7.50388e-05,0.00195853,0.000981353,-0.00370611,1.07614,0.00285465,0.0341238,1875,1079,44.1129,-2.51143
658,-55,44.299,2.56799,-0.00224936,0.000132299,0.00140242,0.00078127,-0.00289833,1.13739,0.00223856,0.0334396,1882,1079,44.2989,-2.56802
665,-55,44.1754,2.49133,-0.00183571,0.00029358,0.00109193,0.000753983,-0.00229611,1.17177,0.00183447,0.0401407,1889,1079,44.1754,-2.49134
672,-55,44.1873,2.59937,-0.00139078,0.000320794,0.000971114,0.000759392,-0.00182938,1.14658,0.00153659,0.039614,1896,1079,44.1872,-2.59939
679,-55,44.2281,2.64661,-0.00121607,0.000254721,0.00104956,0.000800877,-0.00176223,1.09099,0.00151411,0.0350386,1903,1079,44.2281,-2.64664
686,-55,44.1178,2.56824,-0.00143864,-3.53344e-05,0.00128436,0.000726533,-0.00220051,1.0354,0.0017599,0.0360205,1910,1079,44.1178,-2.56822
693,-55,44.0465,2.55457,-0.00163704,-0.000379937,0.00157004,0.000682696,-0.00269967,0.975798,0.00206531,0.0367663,1917,1079,44.0465,-2.55453
700,-55,44.0967,2.6145,-0.0018705,-0.000589343,0.00184373,0.000721921,-0.00318176,0.952592,0.00239831,0.0330035,1924,1079,44.0967,-2.61444
707,-55,44.0842,2.58398,-0.00210478,-0.000688182,0.00207377,0.000794915,-0.00358787,0.949962,0.00269623,0.0227235,1931,1079,44.0842,-2.584
714,-55,44.0693,2.68872,-0.002517,-0.000660459,0.00234705,0.000935219,-0.00411268,0.973711,0.0031009,0.0385297,1938,1079,44.0693,-2.68872
721,-55,44.0986,2.92126,0,0,0,0,0,0,0,-1,1945,1079,44.0987,-2.92128
728,-55,42.9712,6.026,0,0,0,0,0,0,0,-1,1952,1079,42.9711,-6.02603
735,-55,42.9257,5.83484,-0.00356037,0.000521779,0.00263058,0.00181026,-0.00484885,1.11534,0.00397582,0.0207408,1959,1079,42.9257,-5.83483
742,-55,42.9364,5.65125,-0.00344116,0.00127136,0.00292678,0.00267249,-0.00484229,1.12431,0.00439853,0.0212222,1966,1079,42.9364,-5.65119
749,-55,42.921,5.44568,-0.00311842,0.00282878,0.0030758,0.00413336,-0.00442301,1.16965,0.00494096,0.0148487,1973,1079,42.921,-5.44572
756,-55,42.8462,5.25684,-0.00234217,0.00487152,0.00309534,0.00601762,-0.00348827,1.21618,0.00555261,0.0132427,1980,1079,42.8462,-5.25683
763,-55,42.8408,5.07678,-0.000671998,0.00755447,0.00353376,0.00886399,-0.00198151,1.21591,0.00666869,0.0165886,1987,1079,42.8408,-5.07684
770,-55,42.8171,4.88623,0.00181202,0.01122,0.00409232,0.012751,0.000281059,1.21281,0.00840853,0.0172408,1994,1079,42.8171,-4.88622
777,-55,42.7144,4.71448,0.0055136,0.0158218,0.0051991,0.0179885,0.0033468,1.17592,0.0110471,0.0134507,2001,1079,42.7143,-4.7145
784,-55,42.6665,4.52637,0.00978431,0.0209126,0.00676672,0.0241091,0.00658785,1.12949,0.0143886,0.0284036,2008,1079,42.6666,-4.5264
791,-55,42.6541,4.32666,0.0147471,0.0266845,0.0090126,0.0315256,0.00990599,1.07787,0.0186154,0.0426823,2015,1079,42.6541,-4.32662
798,-55,42.6096,4.13733,0,0,0,0,0,0,0,-1,2022,1079,42.6095,-4.13737
805,-55,42.7607,2.10913,0,0,0,0,0,0,0,-1,2029,1079,42.7607,-2.10918
812,-55,44.73,3.81714,0,0,0,0,0,0,0,-1,2036,1079,44.73,-3.81708
-700,-62,-32.4433,-1.6499,0,0,0,0,0,0,0,-1,524,1086,-32.4433,1.64992
-693,-62,-31.5734,-0.961304,0,0,0,0,0,0,0,-1,531,1086,-31.5734,0.961307
-686,-62,-31.1387,-1.97925,0,0,0,0,0,0,0,-1,538,1086,-31.1387,1.97924
-679,-62,-30.8461,-1.29773,0,0,0,0,0,0,0,-1,545,1086,-30.8461,1.29772
-672,-62,-31.3156,-0.0772705,0,0,0,0,0,0,0,-1,552,1086,-31.3155,0.0772525
-665,-62,-31.2292,0.120117,0,0,0,0,0,0,0,-1,559,1086,-31.2292,-0.120156
-658,-62,-31.2814,0.736938,0,0,0,0,0,0,0,-1,566,1086,-31.2814,-0.736998
-651,-62,-31.1985,1.21606,0.000541466,0.00982072,0.00338729,0.0109256,-0.000563459,1.25548,0.00747866,0.0408256,573,1086,-31.1985,-1.21611
-644,-62,-31.1539,1.69019,0.000208103,0.00858065,0.00268012,0.00936508,-0.000576332,1.28606,0.0064441,0.0153151,580,1086,-31.1539,-1.6902
-637,-62,-31.1768,1.97424,0.000103411,0.00686579,0.00149491,0.00718152,-0.000212318,1.36265,0.00486,0.0132506,587,1086,-31.1768,-1.9742
-630,-62,-31.2257,2.24146,0.000211251,0.00486433,5.06607e-05,0.00486488,0.0002107,1.55991,0.00317535,0.0140498,594,1086,-31.2257,-2.2414
-623,-62,-31.251,2.55371,1.66761e-05,0.00327444,-0.00120216,0.00367002,-0.000378906,-1.2529,0.00258227,0.0161151,601,1086,-31.251,-2.55366
-616,-62,-31.2546,2.81897,-0.000172597,0.00162537,-0.00201163,0.00292975,-0.00147698,-0.995532,0.0025899,0.0159441,608,1086,-31.2546,-2.81896
-609,-62,-31.2413,3.07214,-7.07516e-05,0.000627348,-0.002717,0.00301763,-0.00246103,-0.849283,0.00316854,0.0155372,615,1086,-31.2413,-3.07209
-602,-62,-31.1639,3.30225,0.000245493,-0.000191049,-0.00346585,0.00349994,-0.0034455,-0.753951,0.00400999,0.015564,622,1086,-31.1639,-3.30228
-595,-62,-31.0471,3.59473,0.000506772,-0.000485466,-0.0038301,0.00387275,-0.00385145,-0.720991,0.00445957,0.0307608,629,1086,-31.0471,-3.59471
-588,-62,-30.9951,3.89563,0,0,0,0,0,0,0,-1,636,1086,-30.9951,-3.89558
-581,-62,-32.36,0.837402,0,0,0,0,0,0,0,-1,643,1086,-32.3601,-0.837429
-574,-62,-32.3295,0.671143,0.00112422,-1.17696e-05,-0.00313178,0.00373909,-0.00262664,-0.695691,0.00369392,0.0360593,650,1086,-32.3295,-0.671123
-567,-62,-32.4561,0.671021,0.00137698,0.000566555,-0.00262153,0.00362443,-0.0016809,-0.708719,0.0031308,0.0400212,657,1086,-32.4561,-0.671074
-560,-62,-32.6484,0.910522,0.00167748,0.00141041,-0.00184846,0.00339722,-0.000309327,-0.749341,0.00237465,0.0435719,664,1086,-32.6484,-0.91054
-553,-62,-32.5128,0.844727,0.00198454,0.00247699,-0.000738338,0.00300908,0.00145245,-0.946344,0.00173764,0.0384789,671,1086,-32.5127,-0.844752
-546,-62,-32.3571,0.683472,0.00241513,0.00367955,0.000830932,0.00409143,0.00200324,1.1106,0.00236236,0.0316545,678,1086,-32.3571,-0.683431
-539,-62,-32.3289,0.595215,0.00328034,0.00470567,0.00258662,0.00667601,0.00131001,0.919824,0.00408463,0.0363664,685,1086,-32.3288,-0.59518
-532,-62,-32.3278,0.856689,0.0032688,0.00574601,0.00301324,0.00776528,0.00124953,0.980398,0.0048147,0.0390516,692,1086,-32.3278,-0.85666
-525,-62,0,0,0,0,0,0,0,0,0,-1,699,1086,0,0
-518,-62,0,0,0,0,0,0,0,0,0,-1,706,1086,0,0
-511,-62,0,0,0,0,0,0,0,0,0,-1,713,1086,0,0
-504,-62,0,0,0,0,0,0,0,0,0,-1,720,1086,0,0
-497,-62,0,0,0,0,0,0,0,0,0,-1,727,1086,0,0
-490,-62,0,0,0,0,0,0,0,0,0,-1,734,1086,0,0
-483,-62,0,0,0,0,0,0,0,0,0,-1,741,1086,0,0
-476,-62,0,0,0,0,0,0,0,0,0,-1,748,1086,0,0
-469,-62,0,0,0,0,0,0,0,0,0,-1,755,1086,0,0
-462,-62,0,0,0,0,0,0,0,0,0,-1,762,1086,0,0
-455,-62,0,0,0,0,0,0,0,0,0,-1,769,1086,0,0
-448,-62,0,0,0,0,0,0,0,0,0,-1,776,1086,0,0
-441,-62,0,0,0,0,0,0,0,0,0,-1,783,1086,0,0
-434,-62,0,0,0,0,0,0,0,0,0,-1,790,1086,0,0
-427,-62,0,0,0,0,0,0,0,0,0,-1,797,1086,0,0
-420,-62,0,0,0,0,0,0,0,0,0,-1,804,1086,0,0
-413,-62,0,0,0,0,0,0,0,0,0,-1,811,1086,0,0
-406,-62,0,0,0,0,0,0,0,0,0,-1,818,1086,0,0
-399,-62,0,0,0,0,0,0,0,0,0,-1,825,1086,0,0
-392,-62,0,0,0,0,0,0,0,0,0,-1,832,1086,0,0
-385,-62,0,0,0,0,0,0,0,0,0,-1,839,1086,0,0
-378,-62,0,0,0,0,0,0,0,0,0,-1,846,1086,0,0
-371,-62,0,0,0,0,0,0,0,0,0,-1,853,1086,0,0
-364,-62,0,0,0,0,0,0,0,0,0,-1,860,1086,0,0
-357,-62,0,0,0,0,0,0,0,0,0,-1,867,1086,0,0
-350,-62,0,0,0,0,0,0,0,0,0,-1,874,1086,0,0
-343,-62,0,0,0,0,0,0,0,0,0,-1,881,1086,0,0
-336,-62,0,0,0,0,0,0,0,0,0,-1,888,1086,0,0
-329,-62,0,0,0,0,0,0,0,0,0,-1,895,1086,0,0
-322,-62,0,0,0,0,0,0,0,0,0,-1,902,1086,0,0
-315,-62,0,0,0,0,0,0,0,0,0,-1,909,1086,0,0
-308,-62,0,0,0,0,0,0,0,0,0,-1,916,1086,0,0
-301,-62,0,0,0,0,0,0,0,0,0,-1,923,1086,0,0
-294,-62,0,0,0,0,0,0,0,0,0,-1,930,1086,0,0
-287,-62,0,0,0,0,0,0,0,0,0,-1,937,1086,0,0
-280,-62,0,0,0,0,0,0,0,0,0,-1,944,1086,0,0
-273,-62,0,0,0,0,0,0,0,0,0,-1,951,1086,0,0
-266,-62,0,0,0,0,0,0,0,0,0,-1,958,1086,0,0
-259,-62,0,0,0,0,0,0,0,0,0,-1,965,1086,0,0
-252,-62,0,0,0,0,0,0,0,0,0,-1,972,1086,0,0
-245,-62,0,0,0,0,0,0,0,0,0,-1,979,1086,0,0
-238,-62,0,0,0,0,0,0,0,0,0,-1,986,1086,0,0
-231,-62,0,0,0,0,0,0,0,0,0,-1,993,1086,0,0
-224,-62,0,0,0,0,0,0,0,0,0,-1,1000,1086,0,0
-217,-62,0,0,0,0,0,0,0,0,0,-1,1007,1086,0,0
-210,-62,0,0,0,0,0,0,0,0,0,-1,1014,1086,0,0
-203,-62,0,0,0,0,0,0,0,0,0,-1,1021,1086,0,0
-196,-62,0,0,0,0,0,0,0,0,0,-1,1028,1086,0,0
-189,-62,0,0,0,0,0,0,0,0,0,-1,1035,1086,0,0
-182,-62,0,0,0,0,0,0,0,0,0,-1,1042,1086,0,0
-175,-62,0,0,0,0,0,0,0,0,0,-1,1049,1086,0,0
-168,-62,0,0,0,0,0,0,0,0,0,-1,1056,1086,0,0
-161,-62,0,0,0,0,0,0,0,0,0,-1,1063,1086,0,0
-154,-62,0,0,0,0,0,0,0,0,0,-1,1070,1086,0,0
-147,-62,0,0,0,0,0,0,0,0,0,-1,1077,1086,0,0
-140,-62,0,0,0,0,0,0,0,0,0,-1,1084,1086,0,0
-133,-62,0,0,0,0,0,0,0,0,0,-1,1091,1086,0,0
-126,-62,0,0,0,0,0,0,0,0,0,-1,1098,1086,0,0
-119,-62,0,0,0,0,0,0,0,0,0,-1,1105,1086,0,0
-112,-62,0,0,0,0,0,0,0,0,0,-1,1112,1086,0,0
-105,-62,0,0,0,0,0,0,0,0,0,-1,1119,1086,0,0
-98,-62,0,0,0,0,0,0,0,0,0,-1,1126,1086,0,0
-91,-62,0,0,0,0,0,0,0,0,0,-1,1133,1086,0,0
-84,-62,0,0,0,0,0,0,0,0,0,-1,1140,1086,0,0
-77,-62,0,0,0,0,0,0,0,0,0,-1,1147,1086,0,0
-70,-62,0,0,0,0,0,0,0,0,0,-1,1154,1086,0,0
-63,-62,0,0,0,0,0,0,0,0,0,-1,1161,1086,0,0
-56,-62,0,0,0,0,0,0,0,0,0,-1,1168,1086,0,0
-49,-62,0,0,0,0,0,0,0,0,0,-1,1175,1086,0,0
-42,-62,0,0,0,0,0,0,0,0,0,-1,1182,1086,0,0
-35,-62,0,0,0,0,0,0,0,0,0,-1,1189,1086,0,0
-28,-62,0,0,0,0,0,0,0,0,0,-1,1196,1086,0,0
-21,-62,0,0,0,0,0,0,0,0,0,-1,1203,1086,0,0
-14,-62,0,0,0,0,0,0,0,0,0,-1,1210,1086,0,0
-7,-62,0,0,0,0,0,0,0,0,0,-1,1217,1086,0,0
0,-62,0,0,0,0,0,0,0,0,0,-1,1224,1086,0,0
7,-62,0,0,0,0,0,0,0,0,0,-1,1231,1086,0,0
14,-62,0,0,0,0,0,0,0,0,0,-1,1238,1086,0,0
21,-62,0,0,0,0,0,0,0,0,0,-1,1245,1086,0,0
28,-62,0,0,0,0,0,0,0,0,0,-1,1252,1086,0,0
35,-62,0,0,0,0,0,0,0,0,0,-1,1259,1086,0,0
42,-62,0,0,0,0,0,0,0,0,0,-1,1266,1086,0,0
49,-62,0,0,0,0,0,0,0,0,0,-1,1273,1086,0,0
56,-62,0,0,0,0,0,0,0,0,0,-1,1280,1086,0,0
63,-62,0,0,0,0,0,0,0,0,0,-1,1287,1086,0,0
70,-62,0,0,0,0,0,0,0,0,0,-1,1294,1086,0,0
77,-62,0,0,0,0,0,0,0,0,0,-1,1301,1086,0,0
84,-62,0,0,0,0,0,0,0,0,0,-1,1308,1086,0,0
91,-62,0,0,0,0,0,0,0,0,0,-1,1315,1086,0,0
98,-62,0,0,0,0,0,0,0,0,0,-1,1322,1086,0,0
105,-62,0,0,0,0,0,0,0,0,0,-1,1329,1086,0,0
112,-62,0,0,0,0,0,0,0,0,0,-1,1336,1086,0,0
119,-62,0,0,0,0,0,0,0,0,0,-1,1343,1086,0,0
126,-62,0,0,0,0,0,0,0,0,0,-1,1350,1086,0,0
133,-62,0,0,0,0,0,0,0,0,0,-1,1357,1086,0,0
140,-62,0,0,0,0,0,0,0,0,0,-1,1364,1086,0,0
147,-62,0,0,0,0,0,0,0,0,0,-1,1371,1086,0,0
154,-62,0,0,0,0,0,0,0,0,0,-1,1378,1086,0,0
161,-62,0,0,0,0,0,0,0,0,0,-1,1385,1086,0,0
168,-62,0,0,0,0,0,0,0,0,0,-1,1392,1086,0,0
175,-62,0,0,0,0,0,0,0,0,0,-1,1399,1086,0,0
182,-62,0,0,0,0,0,0,0,0,0,-1,1406,1086,0,0
189,-62,0,0,0,0,0,0,0,0,0,-1,1413,1086,0,0
196,-62,0,0,0,0,0,0,0,0,0,-1,1420,1086,0,0
203,-62,0,0,0,0,0,0,0,0,0,-1,1427,1086,0,0
210,-62,0,0,0,0,0,0,0,0,0,-1,1434,1086,0,0
217,-62,0,0,0,0,0,0,0,0,0,-1,1441,1086,0,0
224,-62,0,0,0,0,0,0,0,0,0,-1,1448,1086,0,0
231,-62,0,0,0,0,0,0,0,0,0,-1,1455,1086,0,0
238,-62,0,0,0,0,0,0,0,0,0,-1,1462,1086,0,0
245,-62,0,0,0,0,0,0,0,0,0,-1,1469,1086,0,0
252,-62,0,0,0,0,0,0,0,0,0,-1,1476,1086,0,0
259,-62,0,0,0,0,0,0,0,0,0,-1,1483,1086,0,0
266,-62,0,0,0,0,0,0,0,0,0,-1,1490,1086,0,0
273,-62,0,0,0,0,0,0,0,0,0,-1,1497,1086,0,0
280,-62,0,0,0,0,0,0,0,0,0,-1,1504,1086,0,0
287,-62,0,0,0,0,0,0,0,0,0,-1,1511,1086,0,0
294,-62,0,0,0,0,0,0,0,0,0,-1,1518,1086,0,0
301,-62,0,0,0,0,0,0,0,0,0,-1,1525,1086,0,0
308,-62,0,0,0,0,0,0,0,0,0,-1,1532,1086,0,0
315,-62,0,0,0,0,0,0,0,0,0,-1,1539,1086,0,0
322,-62,0,0,0,0,0,0,0,0,0,-1,1546,1086,0,0
329,-62,0,0,0,0,0,0,0,0,0,-1,1553,1086,0,0
336,-62,0,0,0,0,0,0,0,0,0,-1,1560,1086,0,0
343,-62,0,0,0,0,0,0,0,0,0,-1,1567,1086,0,0
350,-62,0,0,0,0,0,0,0,0,0,-1,1574,1086,0,0
357,-62,0,0,0,0,0,0,0,0,0,-1,1581,1086,0,0
364,-62,0,0,0,0,0,0,0,0,0,-1,1588,1086,0,0
371,-62,0,0,0,0,0,0,0,0,0,-1,1595,1086,0,0
378,-62,0,0,0,0,0,0,0,0,0,-1,1602,1086,0,0
385,-62,0,0,0,0,0,0,0,0,0,-1,1609,1086,0,0
392,-62,0,0,0,0,0,0,0,0,0,-1,1616,1086,0,0
399,-62,0,0,0,0,0,0,0,0,0,-1,1623,1086,0,0
406,-62,0,0,0,0,0,0,0,0,0,-1,1630,1086,0,0
413,-62,0,0,0,0,0,0,0,0,0,-1,1637,1086,0,0
420,-62,0,0,0,0,0,0,0,0,0,-1,1644,1086,0,0
427,-62,0,0,0,0,0,0,0,0,0,-1,1651,1086,0,0
434,-62,0,0,0,0,0,0,0,0,0,-1,1658,1086,0,0
441,-62,0,0,0,0,0,0,0,0,0,-1,1665,1086,0,0
448,-62,0,0,0,0,0,0,0,0,0,-1,1672,1086,0,0
455,-62,0,0,0,0,0,0,0,0,0,-1,1679,1086,0,0
462,-62,0,0,0,0,0,0,0,0,0,-1,1686,1086,0,0
469,-62,0,0,0,0,0,0,0,0,0,-1,1693,1086,0,0
476,-62,0,0,0,0,0,0,0,0,0,-1,1700,1086,0,0
483,-62,0,0,0,0,0,0,0,0,0,-1,1707,1086,0,0
490,-62,0,0,0,0,0,0,0,0,0,-1,1714,1086,0,0
497,-62,0,0,0,0,0,0,0,0,0,-1,1721,1086,0,0
504,-62,0,0,0,0,0,0,0,0,0,-1,1728,1086,0,0
511,-62,0,0,0,0,0,0,0,0,0,-1,1735,1086,0,0
518,-62,0,0,0,0,0,0,0,0,0,-1,1742,1086,0,0
525,-62,0,0,0,0,0,0,0,0,0,-1,1749,1086,0,0
532,-62,0,0,0,0,0,0,0,0,0,-1,1756,1086,0,0
539,-62,0,0,0,0,0,0,0,0,0,-1,1763,1086,0,0
546,-62,0,0,0,0,0,0,0,0,0,-1,1770,1086,0,0
553,-62,0,0,0,0,0,0,0,0,0,-1,1777,1086,0,0
560,-62,0,0,0,0,0,0,0,0,0,-1,1784,1086,0,0
567,-62,0,0,0,0,0,0,0,0,0,-1,1791,1086,0,0
574,-62,0,0,0,0,0,0,0,0,0,-1,1798,1086,0,0
581,-62,0,0,0,0,0,0,0,0,0,-1,1805,1086,0,0
588,-62,0,0,0,0,0,0,0,0,0,-1,1812,1086,0,0
595,-62,0,0,0,0,0,0,0,0,0,-1,1819,1086,0,0
602,-62,0,0,0,0,0,0,0,0,0,-1,1826,1086,0,0
609,-62,0,0,0,0,0,0,0,0,0,-1,1833,1086,0,0
616,-62,0,0,0,0,0,0,0,0,0,-1,1840,1086,0,0
623,-62,0,0,0,0,0,0,0,0,0,-1,1847,1086,0,0
630,-62,0,0,0,0,0,0,0,0,0,-1,1854,1086,0,0
637,-62,0,0,0,0,0,0,0,0,0,-1,1861,1086,0,0
644,-62,0,0,0,0,0,0,0,0,0,-1,1868,1086,0,0
651,-62,44.3018,2.33667,-0.0016997,-0.000227118,0.00195939,0.00112976,-0.00305658,0.965124,0.00250086,0.0394074,1875,1086,44.3018,-2.33672
658,-62,44.2279,2.41528,-0.00160911,-1.56409e-05,0.0013841,0.000784659,-0.00240941,1.04655,0.00192198,0.0392336,1882,1086,44.2279,-2.41527
665,-62,44.0502,2.38147,-0.0014018,0.000136692,0.00107185,0.000686766,-0.00195188,1.09664,0.00158071,0.0394654,1889,1086,44.0502,-2.38143
672,-62,44.0337,2.52344,-0.00109609,0.000136072,0.000937973,0.000642199,-0.00160222,1.07598,0.00133474,0.0362728,1896,1086,44.0337,-2.52348
679,-62,44.0245,2.70532,-0.00110196,2.72423e-05,0.00103566,0.000642199,-0.00171692,1.03496,0.00140836,0.0343396,1903,1086,44.0245,-2.70538
686,-62,44.0808,2.63086,-0.00146684,-0.000278307,0.00128742,0.000545384,-0.00229053,1.00163,0.00173759,0.0383665,1910,1086,44.0808,-2.63086
693,-62,44.0735,2.60706,-0.00174943,-0.000615718,0.00157572,0.000492001,-0.00285715,0.958064,0.00208818,0.0376943,1917,1086,44.0735,-2.60707
700,-62,44.0681,2.58679,-0.00206444,-0.00079486,0.0018445,0.000521026,-0.00338032,0.951126,0.00244579,0.0316381,1924,1086,44.0681,-2.58674
707,-62,44.0525,2.56763,-0.00234453,-0.000892187,0.00208737,0.000591723,-0.00382844,0.952794,0.00277068,0.0204107,1931,1086,44.0525,-2.5676
714,-62,44.0681,2.59082,-0.00274935,-0.000872253,0.002375,0.000742919,-0.00436452,0.97357,0.00318632,0.0346319,1938,1086,44.0681,-2.59087
721,-62,44.114,2.67395,0,0,0,0,0,0,0,-1,1945,1086,44.114,-2.67399
728,-62,42.7208,6.15161,0,0,0,0,0,0,0,-1,1952,1086,42.7208,-6.1516
735,-62,42.7126,5.84619,-0.00379247,0.000233717,0.00271123,0.0015975,-0.00515625,1.10474,0.00407573,0.0228711,1959,1086,42.7126,-5.8462
742,-62,42.6985,5.66418,-0.0036304,0.000917773,0.00299403,0.00240343,-0.00511606,1.11019,0.00443454,0.0234896,1966,1086,42.6985,-5.66416
749,-62,42.649,5.4303,-0.00308337,0.00240062,0.00315556,0.00383907,-0.00452181,1.14309,0.00483252,0.0177485,1973,1086,42.649,-5.43031
756,-62,42.5835,5.27808,-0.00194661,0.00438584,0.00321819,0.00573423,-0.003295,1.17403,0.00527605,0.0143634,1980,1086,42.5835,-5.27812
763,-62,42.5931,5.05078,0.000178948,0.00698125,0.00368627,0.00859572,-0.00143552,1.15799,0.00626406,0.0164452,1987,1086,42.5931,-5.05079
770,-62,42.5897,4.82849,0.00332218,0.0105221,0.00429912,0.0125295,0.00131482,1.13396,0.00795105,0.0131146,1994,1086,42.5897,-4.82852
777,-62,42.4709,4.58923,0.00789025,0.0149177,0.00546068,0.0178975,0.0049105,1.07128,0.0106781,0.0136877,2001,1086,42.4709,-4.58925
784,-62,42.4226,4.31641,0.0132218,0.0198215,0.00708832,0.0243404,0.0087029,1.00324,0.0142418,0.0274517,2008,1086,42.4227,-4.31644
791,-62,42.439,4.09094,0.0195025,0.0254494,0.00941038,0.0323449,0.012607,0.938422,0.018825,0.0449107,2015,1086,42.439,-4.09088
798,-62,43.5134,4.40369,0,0,0,0,0,0,0,-1,2022,1086,43.5133,-4.40368
805,-62,44.0588,3.85876,0.0368835,0.039496,0.0167164,0.0549571,0.0214224,0.82439,0.0319854,0.0494885,2029,1086,44.0588,-3.85881
812,-62,44.4214,3.69592,0.0477202,0.0480815,0.0222178,0.0701194,0.0256823,0.789464,0.0409633,0.0494532,2036,1086,44.4214,-3.6959
-700,-69,-30.7788,-2.86829,0,0,0,0,0,0,0,-1,524,1093,-30.7788,2.86831
-693,-69,-30.0419,-1.91443,0,0,0,0,0,0,0,-1,531,1093,-30.0419,1.91441
-686,-69,-30.9279,-0.946655,0,0,0,0,0,0,0,-1,538,1093,-30.9279,0.946703
-679,-69,-30.8152,-0.502686,0.00198584,-7.89408e-05,0.000450216,0.00207974,-0.000172838,0.205613,0.00144755,0.0475233,545,1093,-30.8152,0.502746
-672,-69,-30.7938,0.143188,0.00187589,0.00537537,0.00208691,0.00634901,0.000902251,1.13427,0.00396628,0.0485181,552,1093,-30.7938,-0.143138
-665,-69,-30.7948,0.501587,0.00148933,0.00816072,0.00285692,0.00921693,0.000433117,1.21668,0.00600546,0.046503,559,1093,-30.7948,-0.501535
-658,-69,-30.85,0.89502,0.000849036,0.00912988,0.00300346,0.0101045,-0.000125607,1.25701,0.0067786,0.0457716,566,1093,-30.85,-0.894985
-651,-69,-30.8225,1.34082,0.00024528,0.00890667,0.00273929,0.0097003,-0.000548344,1.2888,0.00665718,0.0343812,573,1093,-30.8225,-1.34078
-644,-69,-30.8387,1.67761,-1.36713e-05,0.00785143,0.00221139,0.00843055,-0.000592794,1.31467,0.00582803,0.0108377,580,1093,-30.8387,-1.67764
-637,-69,-30.8775,1.98145,-1.9445e-05,0.00628945,0.00125893,0.00653139,-0.000261385,1.38093,0.00444395,0.0124312,587,1093,-30.8775,-1.98147
-630,-69,-30.9081,2.24451,0.000196872,0.00442481,4.72323e-05,0.00442533,0.000196344,1.55963,0.002887,0.0142025,594,1093,-30.9081,-2.24451
-623,-69,-30.9066,2.53101,0.000114305,0.00290476,-0.000983284,0.00321643,-0.000197368,-1.26384,0.00221301,0.0152897,601,1093,-30.9065,-2.53101
-616,-69,-30.9151,2.79114,3.56888e-05,0.00132134,-0.00159292,0.00239626,-0.00103922,-0.97718,0.0020344,0.0171594,608,1093,-30.9151,-2.79115
-609,-69,-30.9195,3.03589,0.000244139,0.0003886,-0.0021664,0.00248397,-0.00185123,-0.802063,0.0025118,0.0153546,615,1093,-30.9195,-3.03583
-602,-69,-30.8771,3.34119,0.000651343,-0.000353177,-0.00279839,0.00299219,-0.00269402,-0.696603,0.00328444,0.0182007,622,1093,-30.8771,-3.34117
-595,-69,-30.782,3.59741,0.000967728,-0.000561942,-0.00306603,0.00336288,-0.00295709,-0.663165,0.00365134,0.0305601,629,1093,-30.782,-3.59739
-588,-69,-30.7752,3.87231,0,0,0,0,0,0,0,-1,636,1093,-30.7752,-3.87235
-581,-69,-32.3118,0.760864,0,0,0,0,0,0,0,-1,643,1093,-32.3118,-0.760814
-574,-69,-32.2905,0.616455,0.00163227,-0.000191324,-0.00248677,0.00336914,-0.00192819,-0.609679,0.0030959,0.0319153,650,1093,-32.2905,-0.616412
-567,-69,-32.4019,0.704956,0.00188651,0.000286155,-0.00212636,0.00335826,-0.0011856,-0.605438,0.00272153,0.0389265,657,1093,-32.4019,-0.704903
-560,-69,-32.5763,0.80127,0.00217564,0.000974612,-0.0015759,0.00326156,-0.00011131,-0.603361,0.00221241,0.0414179,664,1093,-32.5763,-0.801233
-553,-69,-32.4315,0.650513,0.00241574,0.00182268,-0.000781286,0.00295487,0.00128354,-0.604025,0.00171089,0.0391079,671,1093,-32.4315,-0.650467
-546,-69,-32.3507,0.662476,0.0027982,0.00274195,0.000385974,0.00315707,0.00238308,0.749027,0.00190001,0.0362999,678,1093,-32.3507,-0.662436
-539,-69,-32.2381,0.709717,0.00385216,0.00335321,0.00177569,0.00539581,0.00180956,0.715607,0.00317107,0.0391654,685,1093,-32.2381,-0.70971
-532,-69,-32.0914,0.9729,0.00411522,0.00393565,0.00215195,0.00617926,0.00187161,0.764548,0.00365884,0.0407938,692,1093,-32.0914,-0.972913
-525,-69,0,0,0,0,0,0,0,0,0,-1,699,1093,0,0
-518,-69,0,0,0,0,0,0,0,0,0,-1,706,1093,0,0
-511,-69,0,0,0,0,0,0,0,0,0,-1,713,1093,0,0
-504,-69,0,0,0,0,0,0,0,0,0,-1,720,1093,0,0
-497,-69,0,0,0,0,0,0,0,0,0,-1,727,1093,0,0
-490,-69,0,0,0,0,0,0,0,0,0,-1,734,1093,0,0
-483,-69,0,0,0,0,0,0,0,0,0,-1,741,1093,0,0
-476,-69,0,0,0,0,0,0,0,0,0,-1,748,1093,0,0
-469,-69,0,0,0,0,0,0,0,0,0,-1,755,1093,0,0
-462,-69,0,0,0,0,0,0,0,0,0,-1,762,1093,0,0
-455,-69,0,0,0,0,0,0,0,0,0,-1,769,1093,0,0
-448,-69,0,0,0,0,0,0,0,0,0,-1,776,1093,0,0
-441,-69,0,0,0,0,0,0,0,0,0,-1,783,1093,0,0
-434,-69,0,0,0,0,0,0,0,0,0,-1,790,1093,0,0
-427,-69,0,0,0,0,0,0,0,0,0,-1,797,1093,0,0
-420,-69,0,0,0,0,0,0,0,0,0,-1,804,1093,0,0
-413,-69,0,0,0,0,0,0,0,0,0,-1,811,1093,0,0
-406,-69,0,0,0,0,0,0,0,0,0,-1,818,1093,0,0
-399,-69,0,0,0,0,0,0,0,0,0,-1,825,1093,0,0
-392,-69,0,0,0,0,0,0,0,0,0,-1,832,1093,0,0
-385,-69,0,0,0,0,0,0,0,0,0,-1,839,1093,0,0
-378,-69,0,0,0,0,0,0,0,0,0,-1,846,1093,0,0
-371,-69,0,0,0,0,0,0,0,0,0,-1,853,1093,0,0
-364,-69,0,0,0,0,0,0,0,0,0,-1,860,1093,0,0
-357,-69,0,0,0,0,0,0,0,0,0,-1,867,1093,0,0
-350,-69,0,0,0,0,0,0,0,0,0,-1,874,1093,0,0
-343,-69,0,0,0,0,0,0,0,0,0,-1,881,1093,0,0
-336,-69,0,0,0,0,0,0,0,0,0,-1,888,1093,0,0
-329,-69,0,0,0,0,0,0,0,0,0,-1,895,1093,0,0
-322,-69,0,0,0,0,0,0,0,0,0,-1,902,1093,0,0
-315,-69,0,0,0,0,0,0,0,0,0,-1,909,1093,0,0
-308,-69,0,0,0,0,0,0,0,0,0,-1,916,1093,0,0
-301,-69,0,0,0,0,0,0,0,0,0,-1,923,1093,0,0
-294,-69,0,0,0,0,0,0,0,0,0,-1,930,1093,0,0
-287,-69,0,0,0,0,0,0,0,0,0,-1,937,1093,0,0
-280,-69,0,0,0,0,0,0,0,0,0,-1,944,1093,0,0
-273,-69,0,0,0,0,0,0,0,0,0,-1,951,1093,0,0
-266,-69,0,0,0,0,0,0,0,0,0,-1,958,1093,0,0
-259,-69,0,0,0,0,0,0,0,0,0,-1,965,1093,0,0
-252,-69,0,0,0,0,0,0,0,0,0,-1,972,1093,0,0
-245,-69,0,0,0,0,0,0,0,0,0,-1,979,1093,0,0
-238,-69,0,0,0,0,0,0,0,0,0,-1,986,1093,0,0
-231,-69,0,0,0,0,0,0,0,0,0,-1,993,1093,0,0
-224,-69,0,0,0,0,0,0,0,0,0,-1,1000,1093,0,0
-217,-69,0,0,0,0,0,0,0,0,0,-1,1007,1093,0,0
-210,-69,0,0,0,0,0,0,0,0,0,-1,1014,1093,0,0
-203,-69,0,0,0,0,0,0,0,0,0,-1,1021,1093,0,0
-196,-69,0,0,0,0,0,0,0,0,0,-1,1028,1093,0,0
-189,-69,0,0,0,0,0,0,0,0,0,-1,1035,1093,0,0
-182,-69,0,0,0,0,0,0,0,0,0,-1,1042,1093,0,0
-175,-69,0,0,0,0,0,0,0,0,0,-1,1049,1093,0,0
-168,-69,0,0,0,0,0,0,0,0,0,-1,1056,1093,0,0
-161,-69,0,0,0,0,0,0,0,0,0,-1,1063,1093,0,0
-154,-69,0,0,0,0,0,0,0,0,0,-1,1070,1093,0,0
-147,-69,0,0,0,0,0,0,0,0,0,-1,1077,1093,0,0
-140,-69,0,0,0,0,0,0,0,0,0,-1,1084,1093,0,0
-133,-69,0,0,0,0,0,0,0,0,0,-1,1091,1093,0,0
-126,-69,0,0,0,0,0,0,0,0,0,-1,1098,1093,0,0
-119,-69,0,0,0,0,0,0,0,0,0,-1,1105,1093,0,0
-112,-69,0,0,0,0,0,0,0,0,0,-1,1112,1093,0,0
-105,-69,0,0,0,0,0,0,0,0,0,-1,1119,1093,0,0
-98,-69,0,0,0,0,0,0,0,0,0,-1,1126,1093,0,0
-91,-69,0,0,0,0,0,0,0,0,0,-1,1133,1093,0,0
-84,-69,0,0,0,0,0,0,0,0,0,-1,1140,1093,0,0
-77,-69,0,0,0,0,0,0,0,0,0,-1,1147,1093,0,0
-70,-69,0,0,0,0,0,0,0,0,0,-1,1154,1093,0,0
-63,-69,0,0,0,0,0,0,0,0,0,-1,1161,1093,0,0
-56,-69,0,0,0,0,0,0,0,0,0,-1,1168,1093,0,0
-49,-69,0,0,0,0,0,0,0,0,0,-1,1175,1093,0,0
-42,-69,0,0,0,0,0,0,0,0,0,-1,1182,1093,0,0
-35,-69,0,0,0,0,0,0,0,0,0,-1,1189,1093,0,0
-28,-69,0,0,0,0,0,0,0,0,0,-1,1196,1093,0,0
-21,-69,0,0,0,0,0,0,0,0,0,-1,1203,1093,0,0
-14,-69,0,0,0,0,0,0,0,0,0,-1,1210,1093,0,0
-7,-69,0,0,0,0,0,0,0,0,0,-1,1217,1093,0,0
0,-69,0,0,0,0,0,0,0,0,0,-1,1224,1093,0,0
7,-69,0,0,0,0,0,0,0,0,0,-1,1231,1093,0,0
14,-69,0,0,0,0,0,0,0,0,0,-1,1238,1093,0,0
21,-69,0,0,0,0,0,0,0,0,0,-1,1245,1093,0,0
28,-69,0,0,0,0,0,0,0,0,0,-1,1252,1093,0,0
35,-69,0,0,0,0,0,0,0,0,0,-1,1259,1093,0,0
42,-69,0,0,0,0,0,0,0,0,0,-1,1266,1093,0,0
49,-69,0,0,0,0,0,0,0,0,0,-1,1273,1093,0,0
56,-69,0,0,0,0,0,0,0,0,0,-1,1280,1093,0,0
63,-69,0,0,0,0,0,0,0,0,0,-1,1287,1093,0,0
70,-69,0,0,0,0,0,0,0,0,0,-1,1294,1093,0,0
77,-69,0,0,0,0,0,0,0,0,0,-1,1301,1093,0,0
84,-69,0,0,0,0,0,0,0,0,0,-1,1308,1093,0,0
91,-69,0,0,0,0,0,0,0,0,0,-1,1315,1093,0,0
98,-69,0,0,0,0,0,0,0,0,0,-1,1322,1093,0,0
105,-69,0,0,0,0,0,0,0,0,0,-1,1329,1093,0,0
112,-69,0,0,0,0,0,0,0,0,0,-1,1336,1093,0,0
119,-69,0,0,0,0,0,0,0,0,0,-1,1343,1093,0,0
126,-69,0,0,0,0,0,0,0,0,0,-1,1350,1093,0,0
133,-69,0,0,0,0,0,0,0,0,0,-1,1357,1093,0,0
140,-69,0,0,0,0,0,0,0,0,0,-1,1364,1093,0,0
147,-69,0,0,0,0,0,0,0,0,0,-1,1371,1093,0,0
154,-69,0,0,0,0,0,0,0,0,0,-1,1378,1093,0,0
161,-69,0,0,0,0,0,0,0,0,0,-1,1385,1093,0,0
168,-69,0,0,0,0,0,0,0,0,0,-1,1392,1093,0,0
175,-69,0,0,0,0,0,0,0,0,0,-1,1399,1093,0,0
182,-69,0,0,0,0,0,0,0,0,0,-1,1406,1093,0,0
189,-69,0,0,0,0,0,0,0,0,0,-1,1413,1093,0,0
196,-69,0,0,0,0,0,0,0,0,0,-1,1420,1093,0,0
203,-69,0,0,0,0,0,0,0,0,0,-1,1427,1093,0,0
210,-69,0,0,0,0,0,0,0,0,0,-1,1434,1093,0,0
217,-69,0,0,0,0,0,0,0,0,0,-1,1441,1093,0,0
224,-69,0,0,0,0,0,0,0,0,0,-1,1448,1093,0,0
231,-69,0,0,0,0,0,0,0,0,0,-1,1455,1093,0,0
238,-69,0,0,0,0,0,0,0,0,0,-1,1462,1093,0,0
245,-69,0,0,0,0,0,0,0,0,0,-1,1469,1093,0,0
252,-69,0,0,0,0,0,0,0,0,0,-1,1476,1093,0,0
259,-69,0,0,0,0,0,0,0,0,0,-1,1483,1093,0,0
266,-69,0,0,0,0,0,0,0,0,0,-1,1490,1093,0,0
273,-69,0,0,0,0,0,0,0,0,0,-1,1497,1093,0,0
280,-69,0,0,0,0,0,0,0,0,0,-1,1504,1093,0,0
287,-69,0,0,0,0,0,0,0,0,0,-1,1511,1093,0,0
294,-69,0,0,0,0,0,0,0,0,0,-1,1518,1093,0,0
301,-69,0,0,0,0,0,0,0,0,0,-1,1525,1093,0,0
308,-69,0,0,0,0,0,0,0,0,0,-1,1532,1093,0,0
315,-69,0,0,0,0,0,0,0,0,0,-1,1539,1093,0,0
322,-69,0,0,0,0,0,0,0,0,0,-1,1546,1093,0,0
329,-69,0,0,0,0,0,0,0,0,0,-1,1553,1093,0,0
336,-69,0,0,0,0,0,0,0,0,0,-1,1560,1093,0,0
343,-69,0,0,0,0,0,0,0,0,0,-1,1567,1093,0,0
350,-69,0,0,0,0,0,0,0,0,0,-1,1574,1093,0,0
357,-69,0,0,0,0,0,0,0,0,0,-1,1581,1093,0,0
364,-69,0,0,0,0,0,0,0,0,0,-1,1588,1093,0,0
371,-69,0,0,0,0,0,0,0,0,0,-1,1595,1093,0,0
378,-69,0,0,0,0,0,0,0,0,0,-1,1602,1093,0,0
385,-69,0,0,0,0,0,0,0,0,0,-1,1609,1093,0,0
392,-69,0,0,0,0,0,0,0,0,0,-1,1616,1093,0,0
399,-69,0,0,0,0,0,0,0,0,0,-1,1623,1093,0,0
406,-69,0,0,0,0,0,0,0,0,0,-1,1630,1093,0,0
413,-69,0,0,0,0,0,0,0,0,0,-1,1637,1093,0,0
420,-69,0,0,0,0,0,0,0,0,0,-1,1644,1093,0,0
427,-69,0,0,0,0,0,0,0,0,0,-1,1651,1093,0,0
434,-69,0,0,0,0,0,0,0,0,0,-1,1658,1093,0,0
441,-69,0,0,0,0,0,0,0,0,0,-1,1665,1093,0,0
448,-69,0,0,0,0,0,0,0,0,0,-1,1672,1093,0,0
455,-69,0,0,0,0,0,0,0,0,0,-1,1679,1093,0,0
462,-69,0,0,0,0,0,0,0,0,0,-1,1686,1093,0,0
469,-69,0,0,0,0,0,0,0,0,0,-1,1693,1093,0,0
476,-69,0,0,0,0,0,0,0,0,0,-1,1700,1093,0,0
483,-69,0,0,0,0,0,0,0,0,0,-1,1707,1093,0,0
490,-69,0,0,0,0,0,0,0,0,0,-1,1714,1093,0,0
497,-69,0,0,0,0,0,0,0,0,0,-1,1721,1093,0,0
504,-69,0,0,0,0,0,0,0,0,0,-1,1728,1093,0,0
511,-69,0,0,0,0,0,0,0,0,0,-1,1735,1093,0,0
518,-69,0,0,0,0,0,0,0,0,0,-1,1742,1093,0,0
525,-69,0,0,0,0,0,0,0,0,0,-1,1749,1093,0,0
532,-69,0,0,0,0,0,0,0,0,0,-1,1756,1093,0,0
539,-69,0,0,0,0,0,0,0,0,0,-1,1763,1093,0,0
546,-69,0,0,0,0,0,0,0,0,0,-1,1770,1093,0,0
553,-69,0,0,0,0,0,0,0,0,0,-1,1777,1093,0,0
560,-69,0,0,0,0,0,0,0,0,0,-1,1784,1093,0,0
567,-69,0,0,0,0,0,0,0,0,0,-1,1791,1093,0,0
574,-69,0,0,0,0,0,0,0,0,0,-1,1798,1093,0,0
581,-69,0,0,0,0,0,0,0,0,0,-1,1805,1093,0,0
588,-69,0,0,0,0,0,0,0,0,0,-1,1812,1093,0,0
595,-69,0,0,0,0,0,0,0,0,0,-1,1819,1093,0,0
602,-69,0,0,0,0,0,0,0,0,0,-1,1826,1093,0,0
609,-69,0,0,0,0,0,0,0,0,0,-1,1833,1093,0,0
616,-69,0,0,0,0,0,0,0,0,0,-1,1840,1093,0,0
623,-69,0,0,0,0,0,0,0,0,0,-1,1847,1093,0,0
630,-69,0,0,0,0,0,0,0,0,0,-1,1854,1093,0,0
637,-69,0,0,0,0,0,0,0,0,0,-1,1861,1093,0,0
644,-69,0,0,0,0,0,0,0,0,0,-1,1868,1093,0,0
651,-69,44.1638,2.53027,-0.000547227,-0.000658447,0.00137195,0.00077024,-0.00197591,0.765143,0.00163563,0.0432834,1875,1093,44.1638,-2.53024
658,-69,44.066,2.5658,-0.000806653,-0.000366101,0.00104212,0.000478767,-0.00165152,0.889552,0.00129055,0.0436648,1882,1093,44.066,-2.56585
665,-69,44.0186,2.52869,-0.000842343,-0.000183284,0.000884108,0.00043071,-0.00145634,0.963786,0.00114187,0.0404981,1889,1093,44.0185,-2.52874
672,-69,43.967,2.56226,-0.000707437,-0.000177844,0.000833207,0.000431631,-0.00131691,0.939253,0.00105177,0.036504,1896,1093,43.967,-2.56228
679,-69,43.9359,2.62598,-0.000909377,-0.000302201,0.00099737,0.000436762,-0.00164834,0.933137,0.00126977,0.0358681,1903,1093,43.9359,-2.62597
686,-69,44.0017,2.54651,-0.00138023,-0.000595105,0.00126579,0.000337596,-0.00231293,0.935762,0.00166593,0.0375696,1910,1093,44.0018,-2.54653
693,-69,44.0345,2.37622,-0.00170537,-0.000897537,0.0015408,0.000291404,-0.00289432,0.913588,0.00203365,0.0359645,1917,1093,44.0346,-2.37626
700,-69,44.0212,2.40247,-0.00207007,-0.00102102,0.00179308,0.000322679,-0.00341378,0.927692,0.00239068,0.0284394,1924,1093,44.0212,-2.40245
707,-69,44.0332,2.52112,-0.00236706,-0.00109766,0.00203326,0.000397665,-0.00386238,0.936685,0.00271719,0.0202233,1931,1093,44.0333,-2.52115
714,-69,44.0485,2.49817,-0.00276023,-0.00106835,0.00231471,0.000550158,-0.00437874,0.96059,0.00311876,0.027207,1938,1093,44.0484,-2.4982
721,-69,44.0426,2.44788,0,0,0,0,0,0,0,-1,1945,1093,44.0427,-2.44794
728,-69,42.1931,6.27673,0,0,0,0,0,0,0,-1,1952,1093,42.1931,-6.27675
735,-69,42.4229,5.98328,-0.00378927,1.63562e-05,0.00264281,0.00137009,-0.00514301,1.09741,0.00396507,0.0309029,1959,1093,42.4229,-5.98333
742,-69,42.4064,5.75745,-0.00363504,0.000624642,0.00290022,0.00209306,-0.00510346,1.10211,0.00427437,0.0241736,1966,1093,42.4064,-5.75741
749,-69,42.2631,5.47571,-0.00292575,0.00204529,0.00303673,0.00348399,-0.00436445,1.12835,0.00454079,0.0249077,1973,1093,42.263,-5.47568
756,-69,42.3274,5.25867,-0.00151891,0.00402563,0.00311147,0.0054207,-0.00291398,1.1493,0.00488404,0.0153539,1980,1093,42.3273,-5.25864
763,-69,42.3193,5.02917,0.000981488,0.00659369,0.00358778,0.0083424,-0.000767225,1.11727,0.00583418,0.0171224,1987,1093,42.3194,-5.02913
770,-69,42.2704,4.84863,0.00464812,0.0100966,0.00419688,0.0123759,0.00236883,1.07327,0.00758529,0.0177048,1994,1093,42.2704,-4.84863
777,-69,42.1801,4.59961,0.00985222,0.0144294,0.00532088,0.017933,0.00634863,0.988497,0.0104997,0.0228278,2001,1093,42.18,-4.59957
784,-69,42.1677,4.14966,0.0160029,0.0193584,0.00690817,0.0247897,0.0105717,0.904524,0.0143638,0.034195,2008,1093,42.1677,-4.14966
791,-69,42.3215,3.82312,0.0233568,0.0251227,0.00919121,0.0334733,0.0150062,0.833282,0.0193602,0.0427174,2015,1093,42.3215,-3.82308
798,-69,43.1663,4.17847,0.0325816,0.0319005,0.0122731,0.0445189,0.0199632,0.771526,0.0257485,0.0497951,2022,1093,43.1663,-4.17846
805,-69,43.7671,3.72668,0.0437554,0.0398365,0.016366,0.0582789,0.025313,0.725819,0.0337439,0.0492292,2029,1093,43.7671,-3.72669
812,-69,44.1772,3.58093,0.0566066,0.0490086,0.0218027,0.0749388,0.0306764,0.699141,0.0435023,0.0496513,2036,1093,44.1772,-3.58091
-700,-76,0,0,0,0,0,0,0,0,0,-1,524,1100,0,0
-693,-76,-28.7539,-0.802979,0,0,0,0,0,0,0,-1,531,1100,-28.7539,0.802918
-686,-76,-30.5789,-0.428711,0,0,0,0,0,0,0,-1,538,1100,-30.579,0.428716
-679,-76,-30.4904,-0.0152588,0.0066949,0.0113731,0.00912979,0.0184587,-0.000390662,0.910804,0.0124381,0.0457496,545,1100,-30.4903,0.0152725
-672,-76,-30.4371,0.282715,0.005062,0.0127842,0.0077267,0.0175608,0.00028539,1.0171,0.0116132,0.0483845,552,1100,-30.4371,-0.282752
-665,-76,-30.5529,0.359863,0.00361995,0.0127909,0.00640989,0.0160866,0.000324218,1.09588,0.010618,0.0499083,559,1100,-30.5529,-0.359845
-658,-76,-30.5143,0.779419,0.0021937,0.0118831,0.00514296,0.0141039,-2.70996e-05,1.16317,0.00941162,0.0477791,566,1100,-30.5143,-0.779453
-651,-76,-30.4239,1.24573,0.0010242,0.0104426,0.00395646,0.011884,-0.000417223,1.22142,0.00806534,0.0299855,573,1100,-30.4239,-1.24574
-644,-76,-30.4662,1.65454,0.00040929,0.00864576,0.0028831,0.00955466,-0.000499616,1.26541,0.00654268,0.0107982,580,1100,-30.4662,-1.65454
-637,-76,-30.5458,1.9353,0.000203876,0.00664027,0.00168159,0.00705312,-0.000208979,1.33004,0.00477327,0.0129891,587,1100,-30.5458,-1.9353
-630,-76,-30.5828,2.22156,0.000314177,0.00453246,0.000392704,0.0045687,0.000277929,1.47875,0.00295752,0.0146525,594,1100,-30.5828,-2.22157
-623,-76,-30.5693,2.51758,0.000198773,0.00279593,-0.000649314,0.00294921,4.54851e-05,-1.33896,0.00195116,0.0164156,601,1100,-30.5693,-2.51755
-616,-76,-30.5997,2.80957,0.000165306,0.00121672,-0.00117476,0.00197803,-0.000596012,-0.995785,0.00155589,0.0157509,608,1100,-30.5997,-2.80953
-609,-76,-30.6138,3.09082,0.000464225,0.000426493,-0.00161817,0.00206364,-0.00117292,-0.779569,0.00189207,0.0161327,615,1100,-30.6137,-3.09081
-602,-76,-30.5715,3.36633,0.000936129,-0.000148187,-0.00213367,0.00259545,-0.00180751,-0.660983,0.00255558,0.0184827,622,1100,-30.5715,-3.36631
-595,-76,-30.5178,3.61279,0.00128429,-0.000230421,-0.0022991,0.00294756,-0.00189369,-0.626289,0.00281709,0.0276518,629,1100,-30.5177,-3.6128
-588,-76,-30.4855,3.89514,0,0,0,0,0,0,0,-1,636,1100,-30.4855,-3.89517
-581,-76,-31.8472,1.02405,0,0,0,0,0,0,0,-1,643,1100,-31.8472,-1.02407
-574,-76,-32.4174,0.382935,0,0,0,0,0,0,0,-1,650,1100,-32.4174,-0.382934
-567,-76,-32.4437,0.635986,0.00219805,0.000565345,-0.00135453,0.00296321,-0.000199813,-0.514203,0.00204533,0.0415188,657,1100,-32.4436,-0.63593
-560,-76,-32.4216,0.729004,0.0024679,0.00112912,-0.000920314,0.00293652,0.000660504,-0.470976,0.00177886,0.044044,664,1100,-32.4215,-0.729037
-553,-76,-32.3845,0.642334,0.00262736,0.0017519,-0.00033008,0.00273787,0.0016414,-0.32305,0.00159111,0.0441141,671,1100,-32.3845,-0.642378
-546,-76,-32.3155,0.633301,0.00291967,0.00230112,0.00053187,0.00322565,0.00199514,0.522051,0.00187969,0.0423534,678,1100,-32.3155,-0.633328
-539,-76,-32.1113,0.617676,0.00406576,0.00230412,0.00160661,0.00501716,0.00135272,0.534649,0.0029974,0.0413724,685,1100,-32.1113,-0.617679
-532,-76,-32.0765,0.768433,0.0045283,0.00219158,0.00193328,0.00561884,0.00110104,0.513596,0.00343816,0.0421238,692,1100,-32.0765,-0.768462
-525,-76,0,0,0,0,0,0,0,0,0,-1,699,1100,0,0
-518,-76,0,0,0,0,0,0,0,0,0,-1,706,1100,0,0
-511,-76,0,0,0,0,0,0,0,0,0,-1,713,1100,0,0
-504,-76,0,0,0,0,0,0,0,0,0,-1,720,1100,0,0
-497,-76,0,0,0,0,0,0,0,0,0,-1,727,1100,0,0
-490,-76,0,0,0,0,0,0,0,0,0,-1,734,1100,0,0
-483,-76,0,0,0,0,0,0,0,0,0,-1,741,1100,0,0
-476,-76,0,0,0,0,0,0,0,0,0,-1,748,1100,0,0
-469,-76,0,0,0,0,0,0,0,0,0,-1,755,1100,0,0
-462,-76,0,0,0,0,0,0,0,0,0,-1,762,1100,0,0
-455,-76,0,0,0,0,0,0,0,0,0,-1,769,1100,0,0
-448,-76,0,0,0,0,0,0,0,0,0,-1,776,1100,0,0
-441,-76,0,0,0,0,0,0,0,0,0,-1,783,1100,0,0
-434,-76,0,0,0,0,0,0,0,0,0,-1,790,1100,0,0
-427,-76,0,0,0,0,0,0,0,0,0,-1,797,1100,0,0
-420,-76,0,0,0,0,0,0,0,0,0,-1,804,1100,0,0
-413,-76,0,0,0,0,0,0,0,0,0,-1,811,1100,0,0
-406,-76,0,0,0,0,0,0,0,0,0,-1,818,1100,0,0
-399,-76,0,0,0,0,0,0,0,0,0,-1,825,1100,0,0
-392,-76,0,0,0,0,0,0,0,0,0,-1,832,1100,0,0
-385,-76,0,0,0,0,0,0,0,0,0,-1,839,1100,0,0
-378,-76,0,0,0,0,0,0,0,0,0,-1,846,1100,0,0
-371,-76,0,0,0,0,0,0,0,0,0,-1,853,1100,0,0
-364,-76,0,0,0,0,0,0,0,0,0,-1,860,1100,0,0
-357,-76,0,0,0,0,0,0,0,0,0,-1,867,1100,0,0
-350,-76,0,0,0,0,0,0,0,0,0,-1,874,1100,0,0
-343,-76,0,0,0,0,0,0,0,0,0,-1,881,1100,0,0
-336,-76,0,0,0,0,0,0,0,0,0,-1,888,1100,0,0
-329,-76,0,0,0,0,0,0,0,0,0,-1,895,1100,0,0
-322,-76,0,0,0,0,0,0,0,0,0,-1,902,1100,0,0
-315,-76,0,0,0,0,0,0,0,0,0,-1,909,1100,0,0
-308,-76,0,0,0,0,0,0,0,0,0,-1,916,1100,0,0
-301,-76,0,0,0,0,0,0,0,0,0,-1,923,1100,0,0
-294,-76,0,0,0,0,0,0,0,0,0,-1,930,1100,0,0
-287,-76,0,0,0,0,0,0,0,0,0,-1,937,1100,0,0
-280,-76,0,0,0,0,0,0,0,0,0,-1,944,1100,0,0
-273,-76,0,0,0,0,0,0,0,0,0,-1,951,1100,0,0
-266,-76,0,0,0,0,0,0,0,0,0,-1,958,1100,0,0
-259,-76,0,0,0,0,0,0,0,0,0,-1,965,1100,0,0
-252,-76,0,0,0,0,0,0,0,0,0,-1,972,1100,0,0
-245,-76,0,0,0,0,0,0,0,0,0,-1,979,1100,0,0
-238,-76,0,0,0,0,0,0,0,0,0,-1,986,1100,0,0
-231,-76,0,0,0,0,0,0,0,0,0,-1,993,1100,0,0
-224,-76,0,0,0,0,0,0,0,0,0,-1,1000,1100,0,0
-217,-76,0,0,0,0,0,0,0,0,0,-1,1007,1100,0,0
-210,-76,0,0,0,0,0,0,0,0,0,-1,1014,1100,0,0
-203,-76,0,0,0,0,0,0,0,0,0,-1,1021,1100,0,0
-196,-76,0,0,0,0,0,0,0,0,0,-1,1028,1100,0,0
-189,-76,0,0,0,0,0,0,0,0,0,-1,1035,1100,0,0
-182,-76,0,0,0,0,0,0,0,0,0,-1,1042,1100,0,0
-175,-76,0,0,0,0,0,0,0,0,0,-1,1049,1100,0,0
-168,-76,0,0,0,0,0,0,0,0,0,-1,1056,1100,0,0
-161,-76,0,0,0,0,0,0,0,0,0,-1,1063,1100,0,0
-154,-76,0,0,0,0,0,0,0,0,0,-1,1070,1100,0,0
-147,-76,0,0,0,0,0,0,0,0,0,-1,1077,1100,0,0
-140,-76,0,0,0,0,0,0,0,0,0,-1,1084,1100,0,0
-133,-76,0,0,0,0,0,0,0,0,0,-1,1091,1100,0,0
-126,-76,0,0,0,0,0,0,0,0,0,-1,1098,1100,0,0
-119,-76,0,0,0,0,0,0,0,0,0,-1,1105,1100,0,0
-112,-76,0,0,0,0,0,0,0,0,0,-1,1112,1100,0,0
-105,-76,0,0,0,0,0,0,0,0,0,-1,1119,1100,0,0
-98,-76,0,0,0,0,0,0,0,0,0,-1,1126,1100,0,0
-91,-76,0,0,0,0,0,0,0,0,0,-1,1133,1100,0,0
-84,-76,0,0,0,0,0,0,0,0,0,-1,1140,1100,0,0
-77,-76,0,0,0,0,0,0,0,0,0,-1,1147,1100,0,0
-70,-76,0,0,0,0,0,0,0,0,0,-1,1154,1100,0,0
-63,-76,0,0,0,0,0,0,0,0,0,-1,1161,1100,0,0
-56,-76,0,0,0,0,0,0,0,0,0,-1,1168,1100,0,0
-49,-76,0,0,0,0,0,0,0,0,0,-1,1175,1100,0,0
-42,-76,0,0,0,0,0,0,0,0,0,-1,1182,1100,0,0
-35,-76,0,0,0,0,0,0,0,0,0,-1,1189,1100,0,0
-28,-76,0,0,0,0,0,0,0,0,0,-1,1196,1100,0,0
-21,-76,0,0,0,0,0,0,0,0,0,-1,1203,1100,0,0
-14,-76,0,0,0,0,0,0,0,0,0,-1,1210,1100,0,0
-7,-76,0,0,0,0,0,0,0,0,0,-1,1217,1100,0,0
0,-76,0,0,0,0,0,0,0,0,0,-1,1224,1100,0,0
7,-76,0,0,0,0,0,0,0,0,0,-1,1231,1100,0,0
14,-76,0,0,0,0,0,0,0,0,0,-1,1238,1100,0,0
21,-76,0,0,0,0,0,0,0,0,0,-1,1245,1100,0,0
28,-76,0,0,0,0,0,0,0,0,0,-1,1252,1100,0,0
35,-76,0,0,0,0,0,0,0,0,0,-1,1259,1100,0,0
42,-76,0,0,0,0,0,0,0,0,0,-1,1266,1100,0,0
49,-76,0,0,0,0,0,0,0,0,0,-1,1273,1100,0,0
56,-76,0,0,0,0,0,0,0,0,0,-1,1280,1100,0,0
63,-76,0,0,0,0,0,0,0,0,0,-1,1287,1100,0,0
70,-76,0,0,0,0,0,0,0,0,0,-1,1294,1100,0,0
77,-76,0,0,0,0,0,0,0,0,0,-1,1301,1100,0,0
84,-76,0,0,0,0,0,0,0,0,0,-1,1308,1100,0,0
91,-76,0,0,0,0,0,0,0,0,0,-1,1315,1100,0,0
98,-76,0,0,0,0,0,0,0,0,0,-1,1322,1100,0,0
105,-76,0,0,0,0,0,0,0,0,0,-1,1329,1100,0,0
112,-76,0,0,0,0,0,0,0,0,0,-1,1336,1100,0,0
119,-76,0,0,0,0,0,0,0,0,0,-1,1343,1100,0,0
126,-76,0,0,0,0,0,0,0,0,0,-1,1350,1100,0,0
133,-76,0,0,0,0,0,0,0,0,0,-1,1357,1100,0,0
140,-76,0,0,0,0,0,0,0,0,0,-1,1364,1100,0,0
147,-76,0,0,0,0,0,0,0,0,0,-1,1371,1100,0,0
154,-76,0,0,0,0,0,0,0,0,0,-1,1378,1100,0,0
161,-76,0,0,0,0,0,0,0,0,0,-1,1385,1100,0,0
168,-76,0,0,0,0,0,0,0,0,0,-1,1392,1100,0,0
175,-76,0,0,0,0,0,0,0,0,0,-1,1399,1100,0,0
182,-76,0,0,0,0,0,0,0,0,0,-1,1406,1100,0,0
189,-76,0,0,0,0,0,0,0,0,0,-1,1413,1100,0,0
196,-76,0,0,0,0,0,0,0,0,0,-1,1420,1100,0,0
203,-76,0,0,0,0,0,0,0,0,0,-1,1427,1100,0,0
210,-76,0,0,0,0,0,0,0,0,0,-1,1434,1100,0,0
217,-76,0,0,0,0,0,0,0,0,0,-1,1441,1100,0,0
224,-76,0,0,0,0,0,0,0,0,0,-1,1448,1100,0,0
231,-76,0,0,0,0,0,0,0,0,0,-1,1455,1100,0,0
238,-76,0,0,0,0,0,0,0,0,0,-1,1462,1100,0,0
245,-76,0,0,0,0,0,0,0,0,0,-1,1469,1100,0,0
252,-76,0,0,0,0,0,0,0,0,0,-1,1476,1100,0,0
259,-76,0,0,0,0,0,0,0,0,0,-1,1483,1100,0,0
266,-76,0,0,0,0,0,0,0,0,0,-1,1490,1100,0,0
273,-76,0,0,0,0,0,0,0,0,0,-1,1497,1100,0,0
280,-76,0,0,0,0,0,0,0,0,0,-1,1504,1100,0,0
287,-76,0,0,0,0,0,0,0,0,0,-1,1511,1100,0,0
294,-76,0,0,0,0,0,0,0,0,0,-1,1518,1100,0,0
301,-76,0,0,0,0,0,0,0,0,0,-1,1525,1100,0,0
308,-76,0,0,0,0,0,0,0,0,0,-1,1532,1100,0,0
315,-76,0,0,0,0,0,0,0,0,0,-1,1539,1100,0,0
322,-76,0,0,0,0,0,0,0,0,0,-1,1546,1100,0,0
329,-76,0,0,0,0,0,0,0,0,0,-1,1553,1100,0,0
336,-76,0,0,0,0,0,0,0,0,0,-1,1560,1100,0,0
343,-76,0,0,0,0,0,0,0,0,0,-1,1567,1100,0,0
350,-76,0,0,0,0,0,0,0,0,0,-1,1574,1100,0,0
357,-76,0,0,0,0,0,0,0,0,0,-1,1581,1100,0,0
364,-76,0,0,0,0,0,0,0,0,0,-1,1588,1100,0,0
371,-76,0,0,0,0,0,0,0,0,0,-1,1595,1100,0,0
378,-76,0,0,0,0,0,0,0,0,0,-1,1602,1100,0,0
385,-76,0,0,0,0,0,0,0,0,0,-1,1609,1100,0,0
392,-76,0,0,0,0,0,0,0,0,0,-1,1616,1100,0,0
399,-76,0,0,0,0,0,0,0,0,0,-1,1623,1100,0,0
406,-76,0,0,0,0,0,0,0,0,0,-1,1630,1100,0,0
413,-76,0,0,0,0,0,0,0,0,0,-1,1637,1100,0,0
420,-76,0,0,0,0,0,0,0,0,0,-1,1644,1100,0,0
427,-76,0,0,0,0,0,0,0,0,0,-1,1651,1100,0,0
434,-76,0,0,0,0,0,0,0,0,0,-1,1658,1100,0,0
441,-76,0,0,0,0,0,0,0,0,0,-1,1665,1100,0,0
448,-76,0,0,0,0,0,0,0,0,0,-1,1672,1100,0,0
455,-76,0,0,0,0,0,0,0,0,0,-1,1679,1100,0,0
462,-76,0,0,0,0,0,0,0,0,0,-1,1686,1100,0,0
469,-76,0,0,0,0,0,0,0,0,0,-1,1693,1100,0,0
476,-76,0,0,0,0,0,0,0,0,0,-1,1700,1100,0,0
483,-76,0,0,0,0,0,0,0,0,0,-1,1707,1100,0,0
490,-76,0,0,0,0,0,0,0,0,0,-1,1714,1100,0,0
497,-76,0,0,0,0,0,0,0,0,0,-1,1721,1100,0,0
504,-76,0,0,0,0,0,0,0,0,0,-1,1728,1100,0,0
511,-76,0,0,0,0,0,0,0,0,0,-1,1735,1100,0,0
518,-76,0,0,0,0,0,0,0,0,0,-1,1742,1100,0,0
525,-76,0,0,0,0,0,0,0,0,0,-1,1749,1100,0,0
532,-76,0,0,0,0,0,0,0,0,0,-1,1756,1100,0,0
539,-76,0,0,0,0,0,0,0,0,0,-1,1763,1100,0,0
546,-76,0,0,0,0,0,0,0,0,0,-1,1770,1100,0,0
553,-76,0,0,0,0,0,0,0,0,0,-1,1777,1100,0,0
560,-76,0,0,0,0,0,0,0,0,0,-1,1784,1100,0,0
567,-76,0,0,0,0,0,0,0,0,0,-1,1791,1100,0,0
574,-76,0,0,0,0,0,0,0,0,0,-1,1798,1100,0,0
581,-76,0,0,0,0,0,0,0,0,0,-1,1805,1100,0,0
588,-76,0,0,0,0,0,0,0,0,0,-1,1812,1100,0,0
595,-76,0,0,0,0,0,0,0,0,0,-1,1819,1100,0,0
602,-76,0,0,0,0,0,0,0,0,0,-1,1826,1100,0,0
609,-76,0,0,0,0,0,0,0,0,0,-1,1833,1100,0,0
616,-76,0,0,0,0,0,0,0,0,0,-1,1840,1100,0,0
623,-76,0,0,0,0,0,0,0,0,0,-1,1847,1100,0,0
630,-76,0,0,0,0,0,0,0,0,0,-1,1854,1100,0,0
637,-76,0,0,0,0,0,0,0,0,0,-1,1861,1100,0,0
644,-76,0,0,0,0,0,0,0,0,0,-1,1868,1100,0,0
651,-76,44.1626,2.60828,0.000518348,-0.00106919,0.00109934,0.00108054,-0.00163138,0.472716,0.00157646,0.0423943,1875,1100,44.1626,-2.60833
658,-76,43.9893,2.67615,-3.44979e-05,-0.00062637,0.000946174,0.000660941,-0.00132181,0.633832,0.00116574,0.0421536,1882,1100,43.9892,-2.67609
665,-76,43.9337,2.57336,-0.000278633,-0.000356024,0.000880459,0.00056398,-0.00119864,0.763438,0.0010394,0.0373631,1889,1100,43.9337,-2.57336
672,-76,43.9484,2.56946,-0.000301366,-0.000306391,0.000861998,0.000558123,-0.00116588,0.783941,0.00101576,0.0372603,1896,1100,43.9483,-2.56943
679,-76,43.996,2.54553,-0.000667518,-0.000418445,0.00103777,0.000502238,-0.0015882,0.845114,0.00126003,0.0373915,1903,1100,43.9959,-2.54558
686,-76,44.094,2.47583,-0.00120835,-0.000696062,0.00127535,0.000348611,-0.00225303,0.884502,0.00163069,0.0361653,1910,1100,44.094,-2.47582
693,-76,44.151,2.39722,-0.00155573,-0.000973782,0.00150494,0.000268058,-0.00279757,0.880893,0.00196052,0.0374416,1917,1100,44.151,-2.39723
700,-76,44.0507,2.3833,-0.00195262,-0.00105639,0.00171138,0.000264566,-0.00327358,0.913445,0.00227571,0.0319009,1924,1100,44.0507,-2.38333
707,-76,44.0313,2.54187,-0.0022634,-0.00113025,0.00193492,0.000319341,-0.00371299,0.927824,0.00258835,0.0219218,1931,1100,44.0313,-2.54182
714,-76,44.0723,2.71045,-0.00264177,-0.00111376,0.00219766,0.000448915,-0.00420444,0.952686,0.00296395,0.0476319,1938,1100,44.0723,-2.71039
721,-76,43.1929,6.03149,0,0,0,0,0,0,0,-1,1945,1100,43.1928,-6.03153
728,-76,42.7346,6.15906,-0.00352222,-0.000576212,0.00240355,0.000769786,-0.00486822,1.0603,0.00353016,0.0491689,1952,1100,42.7346,-6.15905
735,-76,41.8778,6.0791,-0.0036303,-0.000128803,0.00248406,0.00115947,-0.00491857,1.09237,0.00372616,0.0367204,1959,1100,41.8777,-6.07913
742,-76,42.1022,5.80017,-0.00348598,0.000380996,0.00273762,0.00179906,-0.00490405,1.09286,0.00400605,0.0244903,1966,1100,42.1021,-5.80017
749,-76,42.0034,5.49341,-0.00257261,0.00176246,0.00284839,0.00317424,-0.00398439,1.11064,0.00414185,0.0233594,1973,1100,42.0034,-5.49337
756,-76,42.0522,5.25842,-0.000788918,0.00380615,0.00290543,0.0052127,-0.00219546,1.11994,0.00439376,0.015814,1980,1100,42.0522,-5.25837
763,-76,42.0387,5.02734,0.00221814,0.00643341,0.00334747,0.00828149,0.000370057,1.06636,0.00540187,0.017136,1987,1100,42.0387,-5.02736
770,-76,41.9609,4.83264,0.00661421,0.0100539,0.00388636,0.012584,0.00408417,0.993714,0.00741296,0.0178714,1994,1100,41.961,-4.8327
777,-76,41.889,4.66162,0.0127022,0.0145497,0.00485885,0.0185719,0.00868009,0.879336,0.0107301,0.0222311,2001,1100,41.889,-4.66164
784,-76,42.0432,4.29968,0.0199859,0.019795,0.00625734,0.0261485,0.0136323,0.777772,0.0151014,0.0328369,2008,1100,42.0431,-4.29968
791,-76,42.4636,4.08105,0.0288275,0.0260659,0.00829416,0.035855,0.0190384,0.702915,0.0207142,0.0400352,2015,1100,42.4637,-4.08106
798,-76,42.8335,3.849,0.0399039,0.0335704,0.0110529,0.0482348,0.0252395,0.64588,0.0278584,0.0460314,2022,1100,42.8336,-3.84904
805,-76,43.0813,3.67126,0.0532492,0.0424651,0.0147411,0.0635534,0.0321608,0.610065,0.0366935,0.0480479,2029,1100,43.0813,-3.67129
812,-76,43.2922,3.41309,0.0686119,0.0528473,0.019725,0.0819712,0.039488,0.595314,0.0473366,0.0485794,2036,1100,43.2922,-3.41312
-700,-83,0,0,0,0,0,0,0,0,0,-1,524,1107,0,0
-693,-83,-28.4854,-0.14502,0,0,0,0,0,0,0,-1,531,1107,-28.4854,0.145048
-686,-83,-28.5823,-0.821533,0,0,0,0,0,0,0,-1,538,1107,-28.5823,0.821493
-679,-83,-30.2076,0.151001,0,0,0,0,0,0,0,-1,545,1107,-30.2076,-0.151025
-672,-83,-30.1247,0.0131836,0.0115463,0.0243665,0.0170553,0.0361765,-0.000263659,0.965153,0.0242061,0.0469018,552,1107,-30.1247,-0.0132014
-665,-83,-30.1248,0.181641,0.00851361,0.0203088,0.0125818,0.0283066,0.000515776,1.00456,0.0187015,0.0475932,559,1107,-30.1248,-0.181683
-658,-83,-30.1396,0.598999,0.00574306,0.0165216,0.00904135,0.021658,0.000606649,1.05416,0.0142408,0.0453615,566,1107,-30.1396,-0.598999
-651,-83,-30.1263,0.999268,0.00349169,0.0131536,0.00630124,0.0162627,0.000382638,1.11244,0.0107165,0.0328145,573,1107,-30.1263,-0.999248
-644,-83,-30.1317,1.5697,0.00207929,0.0101373,0.00424438,0.0119604,0.000256147,1.16508,0.00788963,0.015457,580,1107,-30.1317,-1.56976
-637,-83,-30.1943,1.91553,0.00132037,0.00738395,0.0025,0.00828175,0.000422561,1.22602,0.00538584,0.0114054,587,1107,-30.1944,-1.9155
-630,-83,-30.2354,2.23926,0.00102463,0.00483787,0.000940125,0.00505705,0.000805447,1.34175,0.00313754,0.0162394,594,1107,-30.2354,-2.23926
-623,-83,-30.2372,2.51489,0.000655304,0.0027285,-0.00026047,0.00276072,0.00062308,-1.44771,0.00167195,0.0166821,601,1107,-30.2372,-2.5149
-616,-83,-30.2619,2.79944,0.000546304,0.00111156,-0.000766812,0.00164617,1.16939e-05,-0.961962,0.00109357,0.0148065,608,1107,-30.2619,-2.79948
-609,-83,-30.2853,3.08313,0.00086645,0.000492003,-0.0010931,0.00178825,-0.000429792,-0.700582,0.00135829,0.0167675,615,1107,-30.2854,-3.08318
-602,-83,-30.2989,3.41016,0.00133341,9.16609e-05,-0.00149069,0.00232735,-0.000902284,-0.588073,0.00192419,0.0176713,622,1107,-30.2989,-3.41013
-595,-83,-30.2068,3.70459,0.00158492,0.000117663,-0.00155569,0.00257129,-0.000868705,-0.565072,0.00206558,0.021003,629,1107,-30.2068,-3.70462
-588,-83,-30.162,3.94153,0,0,0,0,0,0,0,-1,636,1107,-30.162,-3.94155
-581,-83,-32.2591,0.550537,0,0,0,0,0,0,0,-1,643,1107,-32.2591,-0.550528
-574,-83,-32.3776,0.433838,0.00215838,0.000528592,-0.000864642,0.00253162,0.000155353,-0.407505,0.00163842,0.0369293,650,1107,-32.3775,-0.433852
-567,-83,-32.5671,0.635498,0.00238117,0.000921538,-0.000616005,0.00260639,0.000696318,-0.350516,0.00155824,0.0422897,657,1107,-32.5671,-0.635506
-560,-83,-32.5596,0.704346,0.00261985,0.00140024,-0.000283376,0.00268247,0.00133761,-0.217506,0.00154873,0.0440286,664,1107,-32.5596,-0.704312
-553,-83,-32.3575,0.68396,0.00268456,0.00185769,0.000113272,0.0026998,0.00184245,0.133708,0.00159294,0.0422094,671,1107,-32.3576,-0.683994
-546,-83,-32.2364,0.788818,0.00286867,0.00212751,0.000669101,0.00326296,0.00173322,0.532501,0.00188509,0.0408462,678,1107,-32.2364,-0.788846
-539,-83,-32.1208,0.93689,0,0,0,0,0,0,0,-1,685,1107,-32.1208,-0.936899
-532,-83,-32.2084,0.542358,0,0,0,0,0,0,0,-1,692,1107,-32.2084,-0.5423
-525,-83,0,0,0,0,0,0,0,0,0,-1,699,1107,0,0
-518,-83,0,0,0,0,0,0,0,0,0,-1,706,1107,0,0
-511,-83,0,0,0,0,0,0,0,0,0,-1,713,1107,0,0
-504,-83,0,0,0,0,0,0,0,0,0,-1,720,1107,0,0
-497,-83,0,0,0,0,0,0,0,0,0,-1,727,1107,0,0
-490,-83,0,0,0,0,0,0,0,0,0,-1,734,1107,0,0
-483,-83,0,0,0,0,0,0,0,0,0,-1,741,1107,0,0
-476,-83,0,0,0,0,0,0,0,0,0,-1,748,1107,0,0
-469,-83,0,0,0,0,0,0,0,0,0,-1,755,1107,0,0
-462,-83,0,0,0,0,0,0,0,0,0,-1,762,1107,0,0
-455,-83,0,0,0,0,0,0,0,0,0,-1,769,1107,0,0
-448,-83,0,0,0,0,0,0,0,0,0,-1,776,1107,0,0
-441,-83,0,0,0,0,0,0,0,0,0,-1,783,1107,0,0
-434,-83,0,0,0,0,0,0,0,0,0,-1,790,1107,0,0
-427,-83,0,0,0,0,0,0,0,0,0,-1,797,1107,0,0
-420,-83,0,0,0,0,0,0,0,0,0,-1,804,1107,0,0
-413,-83,0,0,0,0,0,0,0,0,0,-1,811,1107,0,0
-406,-83,0,0,0,0,0,0,0,0,0,-1,818,1107,0,0
-399,-83,0,0,0,0,0,0,0,0,0,-1,825,1107,0,0
-392,-83,0,0,0,0,0,0,0,0,0,-1,832,1107,0,0
-385,-83,0,0,0,0,0,0,0,0,0,-1,839,1107,0,0
-378,-83,0,0,0,0,0,0,0,0,0,-1,846,1107,0,0
-371,-83,0,0,0,0,0,0,0,0,0,-1,853,1107,0,0
-364,-83,0,0,0,0,0,0,0,0,0,-1,860,1107,0,0
-357,-83,0,0,0,0,0,0,0,0,0,-1,867,1107,0,0
-350,-83,0,0,0,0,0,0,0,0,0,-1,874,1107,0,0
-343,-83,0,0,0,0,0,0,0,0,0,-1,881,1107,0,0
-336,-83,0,0,0,0,0,0,0,0,0,-1,888,1107,0,0
-329,-83,0,0,0,0,0,0,0,0,0,-1,895,1107,0,0
-322,-83,0,0,0,0,0,0,0,0,0,-1,902,1107,0,0
-315,-83,0,0,0,0,0,0,0,0,0,-1,909,1107,0,0
-308,-83,0,0,0,0,0,0,0,0,0,-1,916,1107,0,0
-301,-83,0,0,0,0,0,0,0,0,0,-1,923,1107,0,0
-294,-83,0,0,0,0,0,0,0,0,0,-1,930,1107,0,0
-287,-83,0,0,0,0,0,0,0,0,0,-1,937,1107,0,0
-280,-83,0,0,0,0,0,0,0,0,0,-1,944,1107,0,0
-273,-83,0,0,0,0,0,0,0,0,0,-1,951,1107,0,0
-266,-83,0,0,0,0,0,0,0,0,0,-1,958,1107,0,0
-259,-83,0,0,0,0,0,0,0,0,0,-1,965,1107,0,0
-252,-83,0,0,0,0,0,0,0,0,0,-1,972,1107,0,0
-245,-83,0,0,0,0,0,0,0,0,0,-1,979,1107,0,0
-238,-83,0,0,0,0,0,0,0,0,0,-1,986,1107,0,0
-231,-83,0,0,0,0,0,0,0,0,0,-1,993,1107,0,0
-224,-83,0,0,0,0,0,0,0,0,0,-1,1000,1107,0,0
-217,-83,0,0,0,0,0,0,0,0,0,-1,1007,1107,0,0
-210,-83,0,0,0,0,0,0,0,0,0,-1,1014,1107,0,0
-203,-83,0,0,0,0,0,0,0,0,0,-1,1021,1107,0,0
-196,-83,0,0,0,0,0,0,0,0,0,-1,1028,1107,0,0
-189,-83,0,0,0,0,0,0,0,0,0,-1,1035,1107,0,0
-182,-83,0,0,0,0,0,0,0,0,0,-1,1042,1107,0,0
-175,-83,0,0,0,0,0,0,0,0,0,-1,1049,1107,0,0
-168,-83,0,0,0,0,0,0,0,0,0,-1,1056,1107,0,0
-161,-83,0,0,0,0,0,0,0,0,0,-1,1063,1107,0,0
-154,-83,0,0,0,0,0,0,0,0,0,-1,1070,1107,0,0
-147,-83,0,0,0,0,0,0,0,0,0,-1,1077,1107,0,0
-140,-83,0,0,0,0,0,0,0,0,0,-1,1084,1107,0,0
-133,-83,0,0,0,0,0,0,0,0,0,-1,1091,1107,0,0
-126,-83,0,0,0,0,0,0,0,0,0,-1,1098,1107,0,0
-119,-83,0,0,0,0,0,0,0,0,0,-1,1105,1107,0,0
-112,-83,0,0,0,0,0,0,0,0,0,-1,1112,1107,0,0
-105,-83,0,0,0,0,0,0,0,0,0,-1,1119,1107,0,0
-98,-83,0,0,0,0,0,0,0,0,0,-1,1126,1107,0,0
-91,-83,0,0,0,0,0,0,0,0,0,-1,1133,1107,0,0
-84,-83,0,0,0,0,0,0,0,0,0,-1,1140,1107,0,0
-77,-83,0,0,0,0,0,0,0,0,0,-1,1147,1107,0,0
-70,-83,0,0,0,0,0,0,0,0,0,-1,1154,1107,0,0
-63,-83,0,0,0,0,0,0,0,0,0,-1,1161,1107,0,0
-56,-83,0,0,0,0,0,0,0,0,0,-1,1168,1107,0,0
-49,-83,0,0,0,0,0,0,0,0,0,-1,1175,1107,0,0
-42,-83,0,0,0,0,0,0,0,0,0,-1,1182,1107,0,0
-35,-83,0,0,0,0,0,0,0,0,0,-1,1189,1107,0,0
-28,-83,0,0,0,0,0,0,0,0,0,-1,1196,1107,0,0
-21,-83,0,0,0,0,0,0,0,0,0,-1,1203,1107,0,0
-14,-83,0,0,0,0,0,0,0,0,0,-1,1210,1107,0,0
-7,-83,0,0,0,0,0,0,0,0,0,-1,1217,1107,0,0
0,-83,0,0,0,0,0,0,0,0,0,-1,1224,1107,0,0
7,-83,0,0,0,0,0,0,0,0,0,-1,1231,1107,0,0
14,-83,0,0,0,0,0,0,0,0,0,-1,1238,1107,0,0
21,-83,0,0,0,0,0,0,0,0,0,-1,1245,1107,0,0
28,-83,0,0,0,0,0,0,0,0,0,-1,1252,1107,0,0
35,-83,0,0,0,0,0,0,0,0,0,-1,1259,1107,0,0
42,-83,0,0,0,0,0,0,0,0,0,-1,1266,1107,0,0
49,-83,0,0,0,0,0,0,0,0,0,-1,1273,1107,0,0
56,-83,0,0,0,0,0,0,0,0,0,-1,1280,1107,0,0
63,-83,0,0,0,0,0,0,0,0,0,-1,1287,1107,0,0
70,-83,0,0,0,0,0,0,0,0,0,-1,1294,1107,0,0
77,-83,0,0,0,0,0,0,0,0,0,-1,1301,1107,0,0
84,-83,0,0,0,0,0,0,0,0,0,-1,1308,1107,0,0
91,-83,0,0,0,0,0,0,0,0,0,-1,1315,1107,0,0
98,-83,0,0,0,0,0,0,0,0,0,-1,1322,1107,0,0
105,-83,0,0,0,0,0,0,0,0,0,-1,1329,1107,0,0
112,-83,0,0,0,0,0,0,0,0,0,-1,1336,1107,0,0
119,-83,0,0,0,0,0,0,0,0,0,-1,1343,1107,0,0
126,-83,0,0,0,0,0,0,0,0,0,-1,1350,1107,0,0
133,-83,0,0,0,0,0,0,0,0,0,-1,1357,1107,0,0
140,-83,0,0,0,0,0,0,0,0,0,-1,1364,1107,0,0
147,-83,0,0,0,0,0,0,0,0,0,-1,1371,1107,0,0
154,-83,0,0,0,0,0,0,0,0,0,-1,1378,1107,0,0
161,-83,0,0,0,0,0,0,0,0,0,-1,1385,1107,0,0
168,-83,0,0,0,0,0,0,0,0,0,-1,1392,1107,0,0
175,-83,0,0,0,0,0,0,0,0,0,-1,1399,1107,0,0
182,-83,0,0,0,0,0,0,0,0,0,-1,1406,1107,0,0
189,-83,0,0,0,0,0,0,0,0,0,-1,1413,1107,0,0
196,-83,0,0,0,0,0,0,0,0,0,-1,1420,1107,0,0
203,-83,0,0,0,0,0,0,0,0,0,-1,1427,1107,0,0
210,-83,0,0,0,0,0,0,0,0,0,-1,1434,1107,0,0
217,-83,0,0,0,0,0,0,0,0,0,-1,1441,1107,0,0
224,-83,0,0,0,0,0,0,0,0,0,-1,1448,1107,0,0
231,-83,0,0,0,0,0,0,0,0,0,-1,1455,1107,0,0
238,-83,0,0,0,0,0,0,0,0,0,-1,1462,1107,0,0
245,-83,0,0,0,0,0,0,0,0,0,-1,1469,1107,0,0
252,-83,0,0,0,0,0,0,0,0,0,-1,1476,1107,0,0
259,-83,0,0,0,0,0,0,0,0,0,-1,1483,1107,0,0
266,-83,0,0,0,0,0,0,0,0,0,-1,1490,1107,0,0
273,-83,0,0,0,0,0,0,0,0,0,-1,1497,1107,0,0
280,-83,0,0,0,0,0,0,0,0,0,-1,1504,1107,0,0
287,-83,0,0,0,0,0,0,0,0,0,-1,1511,1107,0,0
294,-83,0,0,0,0,0,0,0,0,0,-1,1518,1107,0,0
301,-83,0,0,0,0,0,0,0,0,0,-1,1525,1107,0,0
308,-83,0,0,0,0,0,0,0,0,0,-1,1532,1107,0,0
315,-83,0,0,0,0,0,0,0,0,0,-1,1539,1107,0,0
322,-83,0,0,0,0,0,0,0,0,0,-1,1546,1107,0,0
329,-83,0,0,0,0,0,0,0,0,0,-1,1553,1107,0,0
336,-83,0,0,0,0,0,0,0,0,0,-1,1560,1107,0,0
343,-83,0,0,0,0,0,0,0,0,0,-1,1567,1107,0,0
350,-83,0,0,0,0,0,0,0,0,0,-1,1574,1107,0,0
357,-83,0,0,0,0,0,0,0,0,0,-1,1581,1107,0,0
364,-83,0,0,0,0,0,0,0,0,0,-1,1588,1107,0,0
371,-83,0,0,0,0,0,0,0,0,0,-1,1595,1107,0,0
378,-83,0,0,0,0,0,0,0,0,0,-1,1602,1107,0,0
385,-83,0,0,0,0,0,0,0,0,0,-1,1609,1107,0,0
392,-83,0,0,0,0,0,0,0,0,0,-1,1616,1107,0,0
399,-83,0,0,0,0,0,0,0,0,0,-1,1623,1107,0,0
406,-83,0,0,0,0,0,0,0,0,0,-1,1630,1107,0,0
413,-83,0,0,0,0,0,0,0,0,0,-1,1637,1107,0,0
420,-83,0,0,0,0,0,0,0,0,0,-1,1644,1107,0,0
427,-83,0,0,0,0,0,0,0,0,0,-1,1651,1107,0,0
434,-83,0,0,0,0,0,0,0,0,0,-1,1658,1107,0,0
441,-83,0,0,0,0,0,0,0,0,0,-1,1665,1107,0,0
448,-83,0,0,0,0,0,0,0,0,0,-1,1672,1107,0,0
455,-83,0,0,0,0,0,0,0,0,0,-1,1679,1107,0,0
462,-83,0,0,0,0,0,0,0,0,0,-1,1686,1107,0,0
469,-83,0,0,0,0,0,0,0,0,0,-1,1693,1107,0,0
476,-83,0,0,0,0,0,0,0,0,0,-1,1700,1107,0,0
483,-83,0,0,0,0,0,0,0,0,0,-1,1707,1107,0,0
490,-83,0,0,0,0,0,0,0,0,0,-1,1714,1107,0,0
497,-83,0,0,0,0,0,0,0,0,0,-1,1721,1107,0,0
504,-83,0,0,0,0,0,0,0,0,0,-1,1728,1107,0,0
511,-83,0,0,0,0,0,0,0,0,0,-1,1735,1107,0,0
518,-83,0,0,0,0,0,0,0,0,0,-1,1742,1107,0,0
525,-83,0,0,0,0,0,0,0,0,0,-1,1749,1107,0,0
532,-83,0,0,0,0,0,0,0,0,0,-1,1756,1107,0,0
539,-83,0,0,0,0,0,0,0,0,0,-1,1763,1107,0,0
546,-83,0,0,0,0,0,0,0,0,0,-1,1770,1107,0,0
553,-83,0,0,0,0,0,0,0,0,0,-1,1777,1107,0,0
560,-83,0,0,0,0,0,0,0,0,0,-1,1784,1107,0,0
567,-83,0,0,0,0,0,0,0,0,0,-1,1791,1107,0,0
574,-83,0,0,0,0,0,0,0,0,0,-1,1798,1107,0,0
581,-83,0,0,0,0,0,0,0,0,0,-1,1805,1107,0,0
588,-83,0,0,0,0,0,0,0,0,0,-1,1812,1107,0,0
595,-83,0,0,0,0,0,0,0,0,0,-1,1819,1107,0,0
602,-83,0,0,0,0,0,0,0,0,0,-1,1826,1107,0,0
609,-83,0,0,0,0,0,0,0,0,0,-1,1833,1107,0,0
616,-83,0,0,0,0,0,0,0,0,0,-1,1840,1107,0,0
623,-83,0,0,0,0,0,0,0,0,0,-1,1847,1107,0,0
630,-83,0,0,0,0,0,0,0,0,0,-1,1854,1107,0,0
637,-83,0,0,0,0,0,0,0,0,0,-1,1861,1107,0,0
644,-83,44.0779,2.40894,0.00264303,-0.00309304,0.000503586,0.00268691,-0.00313691,0.086907,0.00336573,0.0339831,1868,1107,44.0778,-2.40899
651,-83,44.0433,2.4408,0.00124508,-0.00191598,0.000545217,0.00133647,-0.00200737,0.166088,0.00194348,0.0399147,1875,1107,44.0434,-2.44077
658,-83,43.9108,2.58728,0.000487206,-0.00124335,0.000596851,0.000673087,-0.00142923,0.301916,0.00123967,0.0425584,1882,1107,43.9108,-2.5873
665,-83,43.8506,2.5531,0.000100552,-0.000797844,0.000660951,0.0004505,-0.00114779,0.486938,0.000951597,0.037355,1889,1107,43.8506,-2.55305
672,-83,43.9066,2.53711,-3.1143e-05,-0.000604821,0.000721994,0.000458904,-0.00109487,0.596315,0.000921778,0.0354606,1896,1107,43.9067,-2.53716
679,-83,44.006,2.51294,-0.000496326,-0.000616653,0.00095107,0.000396482,-0.00150946,0.753811,0.00116125,0.0362677,1903,1107,44.006,-2.51291
686,-83,44.0704,2.55261,-0.0010549,-0.000815832,0.0011858,0.000256441,-0.00212717,0.83563,0.00151086,0.0347229,1910,1107,44.0705,-2.5526
693,-83,44.0942,2.49854,-0.00138871,-0.0010258,0.00139447,0.000198973,-0.00261349,0.850097,0.00181229,0.0360053,1917,1107,44.0942,-2.4985
700,-83,44.04,2.51636,-0.0017796,-0.00104438,0.00157845,0.000208704,-0.00303268,0.899805,0.00209482,0.0320233,1924,1107,44.04,-2.51631
707,-83,44.0493,2.60168,-0.00209011,-0.00110002,0.0018028,0.000274474,-0.0034646,0.919394,0.00240645,0.0229832,1931,1107,44.0493,-2.60167
714,-83,44.0459,2.61108,0,0,0,0,0,0,0,-1,1938,1107,44.0459,-2.61105
721,-83,41.8469,6.58972,0,0,0,0,0,0,0,-1,1945,1107,41.8469,-6.58971
728,-83,41.8541,6.34558,-0.00325707,-0.000564776,0.00222999,0.000693873,-0.00451572,1.05695,0.00326643,0.0363869,1952,1107,41.8541,-6.34556
735,-83,41.6018,6.05627,-0.00339283,-0.000189454,0.00232658,0.00103346,-0.00461575,1.08686,0.00347329,0.0367256,1959,1107,41.6017,-6.05628
742,-83,41.7595,5.7793,-0.00326613,0.000218537,0.00258499,0.00159356,-0.00464114,1.08194,0.00374021,0.0225609,1966,1107,41.7596,-5.77929
749,-83,41.7938,5.52063,-0.00219744,0.00151101,0.00269768,0.00293025,-0.00361668,1.08649,0.00378679,0.0164646,1973,1107,41.7939,-5.52069
756,-83,41.8047,5.25317,-9.64885e-05,0.00357245,0.00279262,0.00507924,-0.00160328,1.076,0.00402838,0.0164777,1980,1107,41.8047,-5.25321
763,-83,41.8003,4.97852,0.00341199,0.00623152,0.00328123,0.00839302,0.0012505,0.988297,0.0052286,0.0125275,1987,1107,41.8003,-4.97857
770,-83,41.7249,4.77881,0.00849021,0.00989107,0.00386985,0.0131234,0.00525791,0.874927,0.00762647,0.0147593,1994,1107,41.7249,-4.7788
777,-83,41.6349,4.56531,0.0153487,0.0144346,0.00485794,0.0197711,0.0100123,0.738496,0.0114151,0.0168097,2001,1107,41.6348,-4.56534
784,-83,41.6367,4.35535,0.0236676,0.0198511,0.00626828,0.0283116,0.015207,0.63764,0.0163607,0.0257774,2008,1107,41.6366,-4.35537
791,-83,41.825,4.06177,0.0339389,0.0264504,0.00829335,0.039294,0.0210953,0.57336,0.022707,0.042099,2015,1107,41.825,-4.06172
798,-83,41.9678,3.7854,0,0,0,0,0,0,0,-1,2022,1107,41.9679,-3.78546
805,-83,42.4565,3.05566,0,0,0,0,0,0,0,-1,2029,1107,42.4566,-3.05572
812,-83,42.6736,2.74866,0,0,0,0,0,0,0,-1,2036,1107,42.6736,-2.7486
-700,-90,0,0,0,0,0,0,0,0,0,-1,524,1114,0,0
-693,-90,-28.2109,0.485352,0,0,0,0,0,0,0,-1,531,1114,-28.2109,-0.4854
-686,-90,-28.8427,0.010376,0,0,0,0,0,0,0,-1,538,1114,-28.8428,-0.0104289
-679,-90,-28.997,0.0477295,0,0,0,0,0,0,0,-1,545,1114,-28.997,-0.0476698
-672,-90,-29.785,-0.453857,0,0,0,0,0,0,0,-1,552,1114,-29.785,0.453836
-665,-90,-29.7221,-0.0311279,0,0,0,0,0,0,0,-1,559,1114,-29.7221,0.0310948
-658,-90,-29.8256,0.339111,0,0,0,0,0,0,0,-1,566,1114,-29.8256,-0.339092
-651,-90,-29.7614,0.928467,0.00639734,0.0152041,0.008342,0.0202336,0.00136786,1.02824,0.013057,0.0328308,573,1114,-29.7614,-0.928523
-644,-90,-29.853,1.47876,0.00406559,0.0111389,0.00536203,0.0140256,0.0011789,1.07694,0.00898324,0.0153535,580,1114,-29.853,-1.47873
-637,-90,-29.8722,1.88916,0.00263718,0.00777206,0.00314809,0.00926692,0.00114232,1.12748,0.00583456,0.0124017,587,1114,-29.8722,-1.88921
-630,-90,-29.8884,2.20129,0.00181358,0.00488484,0.0014168,0.00543859,0.00125983,1.19821,0.00328726,0.0120306,594,1114,-29.8884,-2.20124
-623,-90,-29.8898,2.50061,0.00111714,0.0024822,0.000159558,0.0025006,0.00109874,1.45597,0.00144725,0.010308,601,1114,-29.8898,-2.50066
-616,-90,-29.9092,2.83606,0.000872347,0.000862984,-0.000282764,0.00115047,0.000584863,-0.777121,0.000664254,0.0120489,608,1114,-29.9092,-2.83612
-609,-90,-29.9391,3.12781,0.00114326,0.000416708,-0.000479292,0.00138139,0.000178576,-0.461116,0.000867549,0.0171074,615,1114,-29.9391,-3.12786
-602,-90,-30.0162,3.42273,0.00155176,0.000158387,-0.00074011,0.0018715,-0.000161359,-0.407806,0.00130478,0.018729,622,1114,-30.0163,-3.42267
-595,-90,-29.8706,3.79956,0.00165042,0.000321727,-0.000720815,0.00196634,5.80226e-06,-0.413072,0.00130896,0.0153461,629,1114,-29.8706,-3.79961
-588,-90,-29.8255,4.0614,0,0,0,0,0,0,0,-1,636,1114,-29.8255,-4.06136
-581,-90,-32.2402,0.460693,0,0,0,0,0,0,0,-1,643,1114,-32.2402,-0.460669
-574,-90,-32.3436,0.681763,0.0020801,0.000802744,-4.05273e-05,0.00208138,0.000801459,-0.0316851,0.00121222,0.0370688,650,1114,-32.3436,-0.681803
-567,-90,-32.4811,0.990112,0.0022832,0.00119864,0.000148925,0.00230328,0.00117856,0.13401,0.00132992,0.0373185,657,1114,-32.4811,-0.990172
-560,-90,-32.3941,1.03931,0.00249365,0.00164617,0.000375847,0.00263632,0.0015035,0.362788,0.00152708,0.0388917,664,1114,-32.3941,-1.03929
-553,-90,-32.3058,0.865723,0.00248616,0.00201782,0.000569422,0.00286768,0.0016363,0.59032,0.00166115,0.0387128,671,1114,-32.3058,-0.865781
-546,-90,-32.1963,0.828247,0.00255925,0.00210256,0.000800691,0.00316352,0.00149829,0.646493,0.00182731,0.0419201,678,1114,-32.1963,-0.82828
-539,-90,-32.2092,0.750488,0.00376201,0.00125145,0.00115782,0.00421444,0.000799019,0.372517,0.00258479,0.0442827,685,1114,-32.2092,-0.750537
-532,-90,-32.3479,0.658691,0.0047487,0.000128844,0.00131978,0.00509915,-0.000221604,0.259545,0.00347565,0.0444147,692,1114,-32.3479,-0.658752
-525,-90,0,0,0,0,0,0,0,0,0,-1,699,1114,0,0
-518,-90,0,0,0,0,0,0,0,0,0,-1,706,1114,0,0
-511,-90,0,0,0,0,0,0,0,0,0,-1,713,1114,0,0
-504,-90,0,0,0,0,0,0,0,0,0,-1,720,1114,0,0
-497,-90,0,0,0,0,0,0,0,0,0,-1,727,1114,0,0
-490,-90,0,0,0,0,0,0,0,0,0,-1,734,1114,0,0
-483,-90,0,0,0,0,0,0,0,0,0,-1,741,1114,0,0
-476,-90,0,0,0,0,0,0,0,0,0,-1,748,1114,0,0
-469,-90,0,0,0,0,0,0,0,0,0,-1,755,1114,0,0
-462,-90,0,0,0,0,0,0,0,0,0,-1,762,1114,0,0
-455,-90,0,0,0,0,0,0,0,0,0,-1,769,1114,0,0
-448,-90,0,0,0,0,0,0,0,0,0,-1,776,1114,0,0
-441,-90,0,0,0,0,0,0,0,0,0,-1,783,1114,0,0
-434,-90,0,0,0,0,0,0,0,0,0,-1,790,1114,0,0
-427,-90,0,0,0,0,0,0,0,0,0,-1,797,1114,0,0
-420,-90,0,0,0,0,0,0,0,0,0,-1,804,1114,0,0
-413,-90,0,0,0,0,0,0,0,0,0,-1,811,1114,0,0
-406,-90,0,0,0,0,0,0,0,0,0,-1,818,1114,0,0
-399,-90,0,0,0,0,0,0,0,0,0,-1,825,1114,0,0
-392,-90,0,0,0,0,0,0,0,0,0,-1,832,1114,0,0
-385,-90,0,0,0,0,0,0,0,0,0,-1,839,1114,0,0
-378,-90,0,0,0,0,0,0,0,0,0,-1,846,1114,0,0
-371,-90,0,0,0,0,0,0,0,0,0,-1,853,1114,0,0
-364,-90,0,0,0,0,0,0,0,0,0,-1,860,1114,0,0
-357,-90,0,0,0,0,0,0,0,0,0,-1,867,1114,0,0
-350,-90,0,0,0,0,0,0,0,0,0,-1,874,1114,0,0
-343,-90,0,0,0,0,0,0,0,0,0,-1,881,1114,0,0
-336,-90,0,0,0,0,0,0,0,0,0,-1,888,1114,0,0
-329,-90,0,0,0,0,0,0,0,0,0,-1,895,1114,0,0
-322,-90,0,0,0,0,0,0,0,0,0,-1,902,1114,0,0
-315,-90,0,0,0,0,0,0,0,0,0,-1,909,1114,0,0
-308,-90,0,0,0,0,0,0,0,0,0,-1,916,1114,0,0
-301,-90,0,0,0,0,0,0,0,0,0,-1,923,1114,0,0
-294,-90,0,0,0,0,0,0,0,0,0,-1,930,1114,0,0
-287,-90,0,0,0,0,0,0,0,0,0,-1,937,1114,0,0
-280,-90,0,0,0,0,0,0,0,0,0,-1,944,1114,0,0
-273,-90,0,0,0,0,0,0,0,0,0,-1,951,1114,0,0
-266,-90,0,0,0,0,0,0,0,0,0,-1,958,1114,0,0
-259,-90,0,0,0,0,0,0,0,0,0,-1,965,1114,0,0
-252,-90,0,0,0,0,0,0,0,0,0,-1,972,1114,0,0
-245,-90,0,0,0,0,0,0,0,0,0,-1,979,1114,0,0
-238,-90,0,0,0,0,0,0,0,0,0,-1,986,1114,0,0
-231,-90,0,0,0,0,0,0,0,0,0,-1,993,1114,0,0
-224,-90,0,0,0,0,0,0,0,0,0,-1,1000,1114,0,0
-217,-90,0,0,0,0,0,0,0,0,0,-1,1007,1114,0,0
-210,-90,0,0,0,0,0,0,0,0,0,-1,1014,1114,0,0
-203,-90,0,0,0,0,0,0,0,0,0,-1,1021,1114,0,0
-196,-90,0,0,0,0,0,0,0,0,0,-1,1028,1114,0,0
-189,-90,0,0,0,0,0,0,0,0,0,-1,1035,1114,0,0
-182,-90,0,0,0,0,0,0,0,0,0,-1,1042,1114,0,0
-175,-90,0,0,0,0,0,0,0,0,0,-1,1049,1114,0,0
-168,-90,0,0,0,0,0,0,0,0,0,-1,1056,1114,0,0
-161,-90,0,0,0,0,0,0,0,0,0,-1,1063,1114,0,0
-154,-90,0,0,0,0,0,0,0,0,0,-1,1070,1114,0,0
-147,-90,0,0,0,0,0,0,0,0,0,-1,1077,1114,0,0
-140,-90,0,0,0,0,0,0,0,0,0,-1,1084,1114,0,0
-133,-90,0,0,0,0,0,0,0,0,0,-1,1091,1114,0,0
-126,-90,0,0,0,0,0,0,0,0,0,-1,1098,1114,0,0
-119,-90,0,0,0,0,0,0,0,0,0,-1,1105,1114,0,0
-112,-90,0,0,0,0,0,0,0,0,0,-1,1112,1114,0,0
-105,-90,0,0,0,0,0,0,0,0,0,-1,1119,1114,0,0
-98,-90,0,0,0,0,0,0,0,0,0,-1,1126,1114,0,0
-91,-90,0,0,0,0,0,0,0,0,0,-1,1133,1114,0,0
-84,-90,0,0,0,0,0,0,0,0,0,-1,1140,1114,0,0
-77,-90,0,0,0,0,0,0,0,0,0,-1,1147,1114,0,0
-70,-90,0,0,0,0,0,0,0,0,0,-1,1154,1114,0,0
-63,-90,0,0,0,0,0,0,0,0,0,-1,1161,1114,0,0
-56,-90,0,0,0,0,0,0,0,0,0,-1,1168,1114,0,0
-49,-90,0,0,0,0,0,0,0,0,0,-1,1175,1114,0,0
-42,-90,0,0,0,0,0,0,0,0,0,-1,1182,1114,0,0
-35,-90,0,0,0,0,0,0,0,0,0,-1,1189,1114,0,0
-28,-90,0,0,0,0,0,0,0,0,0,-1,1196,1114,0,0
-21,-90,0,0,0,0,0,0,0,0,0,-1,1203,1114,0,0
-14,-90,0,0,0,0,0,0,0,0,0,-1,1210,1114,0,0
-7,-90,0,0,0,0,0,0,0,0,0,-1,1217,1114,0,0
0,-90,0,0,0,0,0,0,0,0,0,-1,1224,1114,0,0
7,-90,0,0,0,0,0,0,0,0,0,-1,1231,1114,0,0
14,-90,0,0,0,0,0,0,0,0,0,-1,1238,1114,0,0
21,-90,0,0,0,0,0,0,0,0,0,-1,1245,1114,0,0
28,-90,0,0,0,0,0,0,0,0,0,-1,1252,1114,0,0
35,-90,0,0,0,0,0,0,0,0,0,-1,1259,1114,0,0
42,-90,0,0,0,0,0,0,0,0,0,-1,1266,1114,0,0
49,-90,0,0,0,0,0,0,0,0,0,-1,1273,1114,0,0
56,-90,0,0,0,0,0,0,0,0,0,-1,1280,1114,0,0
63,-90,0,0,0,0,0,0,0,0,0,-1,1287,1114,0,0
70,-90,0,0,0,0,0,0,0,0,0,-1,1294,1114,0,0
77,-90,0,0,0,0,0,0,0,0,0,-1,1301,1114,0,0
84,-90,0,0,0,0,0,0,0,0,0,-1,1308,1114,0,0
91,-90,0,0,0,0,0,0,0,0,0,-1,1315,1114,0,0
98,-90,0,0,0,0,0,0,0,0,0,-1,1322,1114,0,0
105,-90,0,0,0,0,0,0,0,0,0,-1,1329,1114,0,0
112,-90,0,0,0,0,0,0,0,0,0,-1,1336,1114,0,0
119,-90,0,0,0,0,0,0,0,0,0,-1,1343,1114,0,0
126,-90,0,0,0,0,0,0,0,0,0,-1,1350,1114,0,0
133,-90,0,0,0,0,0,0,0,0,0,-1,1357,1114,0,0
140,-90,0,0,0,0,0,0,0,0,0,-1,1364,1114,0,0
147,-90,0,0,0,0,0,0,0,0,0,-1,1371,1114,0,0
154,-90,0,0,0,0,0,0,0,0,0,-1,1378,1114,0,0
161,-90,0,0,0,0,0,0,0,0,0,-1,1385,1114,0,0
168,-90,0,0,0,0,0,0,0,0,0,-1,1392,1114,0,0
175,-90,0,0,0,0,0,0,0,0,0,-1,1399,1114,0,0
182,-90,0,0,0,0,0,0,0,0,0,-1,1406,1114,0,0
189,-90,0,0,0,0,0,0,0,0,0,-1,1413,1114,0,0
196,-90,0,0,0,0,0,0,0,0,0,-1,1420,1114,0,0
203,-90,0,0,0,0,0,0,0,0,0,-1,1427,1114,0,0
210,-90,0,0,0,0,0,0,0,0,0,-1,1434,1114,0,0
217,-90,0,0,0,0,0,0,0,0,0,-1,1441,1114,0,0
224,-90,0,0,0,0,0,0,0,0,0,-1,1448,1114,0,0
231,-90,0,0,0,0,0,0,0,0,0,-1,1455,1114,0,0
238,-90,0,0,0,0,0,0,0,0,0,-1,1462,1114,0,0
245,-90,0,0,0,0,0,0,0,0,0,-1,1469,1114,0,0
252,-90,0,0,0,0,0,0,0,0,0,-1,1476,1114,0,0
259,-90,0,0,0,0,0,0,0,0,0,-1,1483,1114,0,0
266,-90,0,0,0,0,0,0,0,0,0,-1,1490,1114,0,0
273,-90,0,0,0,0,0,0,0,0,0,-1,1497,1114,0,0
280,-90,0,0,0,0,0,0,0,0,0,-1,1504,1114,0,0
287,-90,0,0,0,0,0,0,0,0,0,-1,1511,1114,0,0
294,-90,0,0,0,0,0,0,0,0,0,-1,1518,1114,0,0
301,-90,0,0,0,0,0,0,0,0,0,-1,1525,1114,0,0
308,-90,0,0,0,0,0,0,0,0,0,-1,1532,1114,0,0
315,-90,0,0,0,0,0,0,0,0,0,-1,1539,1114,0,0
322,-90,0,0,0,0,0,0,0,0,0,-1,1546,1114,0,0
329,-90,0,0,0,0,0,0,0,0,0,-1,1553,1114,0,0
336,-90,0,0,0,0,0,0,0,0,0,-1,1560,1114,0,0
343,-90,0,0,0,0,0,0,0,0,0,-1,1567,1114,0,0
350,-90,0,0,0,0,0,0,0,0,0,-1,1574,1114,0,0
357,-90,0,0,0,0,0,0,0,0,0,-1,1581,1114,0,0
364,-90,0,0,0,0,0,0,0,0,0,-1,1588,1114,0,0
371,-90,0,0,0,0,0,0,0,0,0,-1,1595,1114,0,0
378,-90,0,0,0,0,0,0,0,0,0,-1,1602,1114,0,0
385,-90,0,0,0,0,0,0,0,0,0,-1,1609,1114,0,0
392,-90,0,0,0,0,0,0,0,0,0,-1,1616,1114,0,0
399,-90,0,0,0,0,0,0,0,0,0,-1,1623,1114,0,0
406,-90,0,0,0,0,0,0,0,0,0,-1,1630,1114,0,0
413,-90,0,0,0,0,0,0,0,0,0,-1,1637,1114,0,0
420,-90,0,0,0,0,0,0,0,0,0,-1,1644,1114,0,0
427,-90,0,0,0,0,0,0,0,0,0,-1,1651,1114,0,0
434,-90,0,0,0,0,0,0,0,0,0,-1,1658,1114,0,0
441,-90,0,0,0,0,0,0,0,0,0,-1,1665,1114,0,0
448,-90,0,0,0,0,0,0,0,0,0,-1,1672,1114,0,0
455,-90,0,0,0,0,0,0,0,0,0,-1,1679,1114,0,0
462,-90,0,0,0,0,0,0,0,0,0,-1,1686,1114,0,0
469,-90,0,0,0,0,0,0,0,0,0,-1,1693,1114,0,0
476,-90,0,0,0,0,0,0,0,0,0,-1,1700,1114,0,0
483,-90,0,0,0,0,0,0,0,0,0,-1,1707,1114,0,0
490,-90,0,0,0,0,0,0,0,0,0,-1,1714,1114,0,0
497,-90,0,0,0,0,0,0,0,0,0,-1,1721,1114,0,0
504,-90,0,0,0,0,0,0,0,0,0,-1,1728,1114,0,0
511,-90,0,0,0,0,0,0,0,0,0,-1,1735,1114,0,0
518,-90,0,0,0,0,0,0,0,0,0,-1,1742,1114,0,0
525,-90,0,0,0,0,0,0,0,0,0,-1,1749,1114,0,0
532,-90,0,0,0,0,0,0,0,0,0,-1,1756,1114,0,0
539,-90,0,0,0,0,0,0,0,0,0,-1,1763,1114,0,0
546,-90,0,0,0,0,0,0,0,0,0,-1,1770,1114,0,0
553,-90,0,0,0,0,0,0,0,0,0,-1,1777,1114,0,0
560,-90,0,0,0,0,0,0,0,0,0,-1,1784,1114,0,0
567,-90,0,0,0,0,0,0,0,0,0,-1,1791,1114,0,0
574,-90,0,0,0,0,0,0,0,0,0,-1,1798,1114,0,0
581,-90,0,0,0,0,0,0,0,0,0,-1,1805,1114,0,0
588,-90,0,0,0,0,0,0,0,0,0,-1,1812,1114,0,0
595,-90,0,0,0,0,0,0,0,0,0,-1,1819,1114,0,0
602,-90,0,0,0,0,0,0,0,0,0,-1,1826,1114,0,0
609,-90,0,0,0,0,0,0,0,0,0,-1,1833,1114,0,0
616,-90,0,0,0,0,0,0,0,0,0,-1,1840,1114,0,0
623,-90,0,0,0,0,0,0,0,0,0,-1,1847,1114,0,0
630,-90,0,0,0,0,0,0,0,0,0,-1,1854,1114,0,0
637,-90,0,0,0,0,0,0,0,0,0,-1,1861,1114,0,0
644,-90,43.9333,2.35791,0.00347032,-0.0044336,-0.000198539,0.0034753,-0.00443859,-0.0250979,0.00458035,0.0343229,1868,1114,43.9333,-2.35792
651,-90,43.9257,2.40771,0.00178111,-0.00298355,9.52519e-05,0.00178302,-0.00298546,0.0199807,0.0027821,0.0383816,1875,1114,43.9256,-2.40769
658,-90,43.901,2.43127,0.000859728,-0.00210369,0.000299511,0.000889696,-0.00213366,0.0997256,0.00179411,0.0421145,1882,1114,43.901,-2.43125
665,-90,43.9957,2.43872,0.000358466,-0.00147441,0.000461909,0.000468293,-0.00158423,0.233432,0.00124204,0.0403117,1889,1114,43.9958,-2.43876
672,-90,44.0302,2.57959,0.000140592,-0.00110481,0.000586818,0.000373527,-0.00133774,0.37787,0.00103897,0.0385564,1896,1114,44.0301,-2.57958
679,-90,44.0038,2.63953,-0.00038465,-0.000970517,0.000841762,0.000213693,-0.00156886,0.617952,0.00112393,0.0360746,1903,1114,44.0038,-2.63947
686,-90,44.0396,2.70764,-0.000937106,-0.00104561,0.00105833,6.83579e-05,-0.00205107,0.75979,0.00139073,0.0334243,1910,1114,44.0396,-2.70764
693,-90,44.0258,2.56482,-0.00124388,-0.00114981,0.00123204,3.60931e-05,-0.00242977,0.804477,0.00163201,0.0331976,1917,1114,44.0257,-2.56486
700,-90,44.0231,2.58069,-0.0016174,-0.00107691,0.00138739,6.63056e-05,-0.00276062,0.881588,0.00186291,0.0281448,1924,1114,44.023,-2.58073
707,-90,44.0487,2.56055,-0.00192579,-0.00108664,0.00160487,0.000152595,-0.00316502,0.913255,0.00216267,0.0211446,1931,1114,44.0487,-2.56059
714,-90,44.0148,2.42554,0,0,0,0,0,0,0,-1,1938,1114,44.0148,-2.42554
721,-90,41.4525,6.65759,0,0,0,0,0,0,0,-1,1945,1114,41.4525,-6.65753
728,-90,41.4822,6.44226,-0.00299268,-0.000496218,0.00200427,0.00061673,-0.00410563,1.0639,0.00296413,0.0271604,1952,1114,41.4821,-6.44221
735,-90,41.3298,6.11475,-0.00319192,-0.000184189,0.0021607,0.000944483,-0.00432059,1.08942,0.00324142,0.0302767,1959,1114,41.3298,-6.11479
742,-90,41.3964,5.78333,-0.00313335,0.000144527,0.00246056,0.00146201,-0.00445084,1.0792,0.00355619,0.0271409,1966,1114,41.3964,-5.7833
749,-90,41.6116,5.41895,-0.00201606,0.00133754,0.00262659,0.00277693,-0.00345545,1.06949,0.00360537,0.0193946,1973,1114,41.6115,-5.41889
756,-90,41.5863,5.19373,0.000280159,0.00343081,0.00281959,0.00508531,-0.00137434,1.04015,0.00392927,0.0170663,1980,1114,41.5864,-5.19376
763,-90,41.5294,4.94409,0.00409877,0.00613283,0.00344516,0.00870794,0.00152366,0.928924,0.00536995,0.0130577,1987,1114,41.5294,-4.94415
770,-90,41.4791,4.69849,0.00957975,0.00984335,0.00418211,0.0138957,0.00552737,0.80115,0.0080784,0.0165484,1994,1114,41.4791,-4.69849
777,-90,41.3938,4.52063,0.0168693,0.0144883,0.00528176,0.0210931,0.0102646,0.674552,0.0121795,0.0162032,2001,1114,41.3938,-4.52063
784,-90,41.3923,4.38306,0.0258644,0.0201636,0.0067929,0.0303807,0.0156473,0.586748,0.0175429,0.0286697,2008,1114,41.3922,-4.38309
791,-90,41.4177,4.32349,0.0371694,0.027235,0.0088724,0.0423704,0.022034,0.53021,0.0244691,0.0440182,2015,1114,41.4178,-4.32347
798,-90,41.479,4.19617,0,0,0,0,0,0,0,-1,2022,1114,41.479,-4.19621
805,-90,41.9792,2.45068,0,0,0,0,0,0,0,-1,2029,1114,41.9791,-2.4507
812,-90,44.6223,3.38574,0,0,0,0,0,0,0,-1,2036,1114,44.6224,-3.38579
-700,-97,0,0,0,0,0,0,0,0,0,-1,524,1121,0,0
-693,-97,-28.1553,-0.34082,0,0,0,0,0,0,0,-1,531,1121,-28.1553,0.340842
-686,-97,-28.3021,-0.222412,0,0,0,0,0,0,0,-1,538,1121,-28.3021,0.222391
-679,-97,-28.4379,-0.125854,0,0,0,0,0,0,0,-1,545,1121,-28.4379,0.125823
-672,-97,-28.4892,0.145142,0,0,0,0,0,0,0,-1,552,1121,-28.4892,-0.145175
-665,-97,-28.6359,0.161133,0,0,0,0,0,0,0,-1,559,1121,-28.6359,-0.161117
-658,-97,-29.0828,0.685059,0,0,0,0,0,0,0,-1,566,1121,-29.0828,-0.685109
-651,-97,-29.4897,1.15906,0.00927871,0.0195306,0.0114433,0.0269436,0.00186571,0.995969,0.0173739,0.032367,573,1121,-29.4897,-1.15901
-644,-97,-29.531,1.49158,0.00611802,0.0135635,0.00709406,0.0178523,0.00182925,1.02703,0.0113411,0.0121019,580,1121,-29.531,-1.49153
-637,-97,-29.543,1.85168,0.00403201,0.00900003,0.00406856,0.0112829,0.00174911,1.05946,0.00701202,0.0121573,587,1121,-29.543,-1.85167
-630,-97,-29.5555,2.16174,0.00267813,0.00528088,0.00187169,0.00625915,0.00169985,1.08918,0.00373731,0.0101634,594,1121,-29.5555,-2.16178
-623,-97,-29.5679,2.48987,0.00164028,0.00234744,0.000405118,0.00253158,0.00145614,1.14419,0.00146711,0.0115657,601,1121,-29.5679,-2.48983
-616,-97,-29.5916,2.83521,0.00127323,0.000724139,1.51519e-05,0.00127365,0.000723721,0.0275665,0.00073762,0.0177735,608,1121,-29.5916,-2.83522
-609,-97,-29.6823,3.17407,0.0014856,0.000477293,-4.21591e-05,0.00148736,0.000475534,-0.0417149,0.000877135,0.0245155,615,1121,-29.6823,-3.17407
-602,-97,-29.7141,3.44128,0.00182446,0.000414386,-0.000178366,0.00184668,0.000392174,-0.123894,0.00112345,0.0226791,622,1121,-29.7141,-3.44129
-595,-97,-29.5667,3.79773,0.00176225,0.000759442,-7.448e-05,0.00176775,0.00075394,-0.0737324,0.00102428,0.018228,629,1121,-29.5667,-3.7977
-588,-97,-29.5649,4.11694,0,0,0,0,0,0,0,-1,636,1121,-29.5649,-4.11691
-581,-97,-32.2754,0.491455,0,0,0,0,0,0,0,-1,643,1121,-32.2754,-0.491472
-574,-97,-32.3331,0.703003,0.00188062,0.00133711,0.000645331,0.00230908,0.000908646,0.586112,0.00134319,0.0464179,650,1121,-32.3331,-0.70304
-567,-97,-32.3376,0.794434,0.00201073,0.00175743,0.000814024,0.0027079,0.00106026,0.708224,0.00157562,0.0363019,657,1121,-32.3376,-0.794378
-560,-97,-32.2162,0.769531,0.00212046,0.00221272,0.000990138,0.0031578,0.00117538,0.808677,0.0018429,0.0396958,664,1121,-32.2162,-0.769546
-553,-97,-32.0781,0.717651,0.00191496,0.00256309,0.00104815,0.00333613,0.00114193,0.935326,0.00195779,0.0443351,671,1121,-32.0781,-0.717637
-546,-97,-32.0071,0.641968,0.00168703,0.00256013,0.00103903,0.0032506,0.000996569,0.984276,0.00192297,0.0444829,678,1121,-32.0071,-0.641959
-539,-97,-32.0858,0.595825,0.00248316,0.00150633,0.00109914,0.00319752,0.00079197,0.57632,0.00192285,0.0426191,685,1121,-32.0858,-0.595849
-532,-97,-32.3622,0.639404,0.00329136,7.40758e-05,0.00118061,0.0036781,-0.000312667,0.316563,0.00256266,0.0406479,692,1121,-32.3622,-0.639412
-525,-97,0,0,0,0,0,0,0,0,0,-1,699,1121,0,0
-518,-97,0,0,0,0,0,0,0,0,0,-1,706,1121,0,0
-511,-97,0,0,0,0,0,0,0,0,0,-1,713,1121,0,0
-504,-97,0,0,0,0,0,0,0,0,0,-1,720,1121,0,0
-497,-97,0,0,0,0,0,0,0,0,0,-1,727,1121,0,0
-490,-97,0,0,0,0,0,0,0,0,0,-1,734,1121,0,0
-483,-97,0,0,0,0,0,0,0,0,0,-1,741,1121,0,0
-476,-97,0,0,0,0,0,0,0,0,0,-1,748,1121,0,0
-469,-97,0,0,0,0,0,0,0,0,0,-1,755,1121,0,0
-462,-97,0,0,0,0,0,0,0,0,0,-1,762,1121,0,0
-455,-97,0,0,0,0,0,0,0,0,0,-1,769,1121,0,0
-448,-97,0,0,0,0,0,0,0,0,0,-1,776,1121,0,0
-441,-97,0,0,0,0,0,0,0,0,0,-1,783,1121,0,0
-434,-97,0,0,0,0,0,0,0,0,0,-1,790,1121,0,0
-427,-97,0,0,0,0,0,0,0,0,0,-1,797,1121,0,0
-420,-97,0,0,0,0,0,0,0,0,0,-1,804,1121,0,0
-413,-97,0,0,0,0,0,0,0,0,0,-1,811,1121,0,0
-406,-97,0,0,0,0,0,0,0,0,0,-1,818,1121,0,0
-399,-97,0,0,0,0,0,0,0,0,0,-1,825,1121,0,0
-392,-97,0,0,0,0,0,0,0,0,0,-1,832,1121,0,0
-385,-97,0,0,0,0,0,0,0,0,0,-1,839,1121,0,0
-378,-97,0,0,0,0,0,0,0,0,0,-1,846,1121,0,0
-371,-97,0,0,0,0,0,0,0,0,0,-1,853,1121,0,0
-364,-97,0,0,0,0,0,0,0,0,0,-1,860,1121,0,0
-357,-97,0,0,0,0,0,0,0,0,0,-1,867,1121,0,0
-350,-97,0,0,0,0,0,0,0,0,0,-1,874,1121,0,0
-343,-97,0,0,0,0,0,0,0,0,0,-1,881,1121,0,0
-336,-97,0,0,0,0,0,0,0,0,0,-1,888,1121,0,0
-329,-97,0,0,0,0,0,0,0,0,0,-1,895,1121,0,0
-322,-97,0,0,0,0,0,0,0,0,0,-1,902,1121,0,0
-315,-97,0,0,0,0,0,0,0,0,0,-1,909,1121,0,0
-308,-97,0,0,0,0,0,0,0,0,0,-1,916,1121,0,0
-301,-97,0,0,0,0,0,0,0,0,0,-1,923,1121,0,0
-294,-97,0,0,0,0,0,0,0,0,0,-1,930,1121,0,0
-287,-97,0,0,0,0,0,0,0,0,0,-1,937,1121,0,0
-280,-97,0,0,0,0,0,0,0,0,0,-1,944,1121,0,0
-273,-97,0,0,0,0,0,0,0,0,0,-1,951,1121,0,0
-266,-97,0,0,0,0,0,0,0,0,0,-1,958,1121,0,0
-259,-97,0,0,0,0,0,0,0,0,0,-1,965,1121,0,0
-252,-97,0,0,0,0,0,0,0,0,0,-1,972,1121,0,0
-245,-97,0,0,0,0,0,0,0,0,0,-1,979,1121,0,0
-238,-97,0,0,0,0,0,0,0,0,0,-1,986,1121,0,0
-231,-97,0,0,0,0,0,0,0,0,0,-1,993,1121,0,0
-224,-97,0,0,0,0,0,0,0,0,0,-1,1000,1121,0,0
-217,-97,0,0,0,0,0,0,0,0,0,-1,1007,1121,0,0
-210,-97,0,0,0,0,0,0,0,0,0,-1,1014,1121,0,0
-203,-97,0,0,0,0,0,0,0,0,0,-1,1021,1121,0,0
-196,-97,0,0,0,0,0,0,0,0,0,-1,1028,1121,0,0
-189,-97,0,0,0,0,0,0,0,0,0,-1,1035,1121,0,0
-182,-97,0,0,0,0,0,0,0,0,0,-1,1042,1121,0,0
-175,-97,0,0,0,0,0,0,0,0,0,-1,1049,1121,0,0
-168,-97,0,0,0,0,0,0,0,0,0,-1,1056,1121,0,0
-161,-97,0,0,0,0,0,0,0,0,0,-1,1063,1121,0,0
-154,-97,0,0,0,0,0,0,0,0,0,-1,1070,1121,0,0
-147,-97,0,0,0,0,0,0,0,0,0,-1,1077,1121,0,0
-140,-97,0,0,0,0,0,0,0,0,0,-1,1084,1121,0,0
-133,-97,0,0,0,0,0,0,0,0,0,-1,1091,1121,0,0
-126,-97,0,0,0,0,0,0,0,0,0,-1,1098,1121,0,0
-119,-97,0,0,0,0,0,0,0,0,0,-1,1105,1121,0,0
-112,-97,0,0,0,0,0,0,0,0,0,-1,1112,1121,0,0
-105,-97,0,0,0,0,0,0,0,0,0,-1,1119,1121,0,0
-98,-97,0,0,0,0,0,0,0,0,0,-1,1126,1121,0,0
-91,-97,0,0,0,0,0,0,0,0,0,-1,1133,1121,0,0
-84,-97,0,0,0,0,0,0,0,0,0,-1,1140,1121,0,0
-77,-97,0,0,0,0,0,0,0,0,0,-1,1147,1121,0,0
-70,-97,0,0,0,0,0,0,0,0,0,-1,1154,1121,0,0
-63,-97,0,0,0,0,0,0,0,0,0,-1,1161,1121,0,0
-56,-97,0,0,0,0,0,0,0,0,0,-1,1168,1121,0,0
-49,-97,0,0,0,0,0,0,0,0,0,-1,1175,1121,0,0
-42,-97,0,0,0,0,0,0,0,0,0,-1,1182,1121,0,0
-35,-97,0,0,0,0,0,0,0,0,0,-1,1189,1121,0,0
-28,-97,0,0,0,0,0,0,0,0,0,-1,1196,1121,0,0
-21,-97,0,0,0,0,0,0,0,0,0,-1,1203,1121,0,0
-14,-97,0,0,0,0,0,0,0,0,0,-1,1210,1121,0,0
-7,-97,0,0,0,0,0,0,0,0,0,-1,1217,1121,0,0
0,-97,0,0,0,0,0,0,0,0,0,-1,1224,1121,0,0
7,-97,0,0,0,0,0,0,0,0,0,-1,1231,1121,0,0
14,-97,0,0,0,0,0,0,0,0,0,-1,1238,1121,0,0
21,-97,0,0,0,0,0,0,0,0,0,-1,1245,1121,0,0
28,-97,0,0,0,0,0,0,0,0,0,-1,1252,1121,0,0
35,-97,0,0,0,0,0,0,0,0,0,-1,1259,1121,0,0
42,-97,0,0,0,0,0,0,0,0,0,-1,1266,1121,0,0
49,-97,0,0,0,0,0,0,0,0,0,-1,1273,1121,0,0
56,-97,0,0,0,0,0,0,0,0,0,-1,1280,1121,0,0
63,-97,0,0,0,0,0,0,0,0,0,-1,1287,1121,0,0
70,-97,0,0,0,0,0,0,0,0,0,-1,1294,1121,0,0
77,-97,0,0,0,0,0,0,0,0,0,-1,1301,1121,0,0
84,-97,0,0,0,0,0,0,0,0,0,-1,1308,1121,0,0
91,-97,0,0,0,0,0,0,0,0,0,-1,1315,1121,0,0
98,-97,0,0,0,0,0,0,0,0,0,-1,1322,1121,0,0
105,-97,0,0,0,0,0,0,0,0,0,-1,1329,1121,0,0
112,-97,0,0,0,0,0,0,0,0,0,-1,1336,1121,0,0
119,-97,0,0,0,0,0,0,0,0,0,-1,1343,1121,0,0
126,-97,0,0,0,0,0,0,0,0,0,-1,1350,1121,0,0
133,-97,0,0,0,0,0,0,0,0,0,-1,1357,1121,0,0
140,-97,0,0,0,0,0,0,0,0,0,-1,1364,1121,0,0
147,-97,0,0,0,0,0,0,0,0,0,-1,1371,1121,0,0
154,-97,0,0,0,0,0,0,0,0,0,-1,1378,1121,0,0
161,-97,0,0,0,0,0,0,0,0,0,-1,1385,1121,0,0
168,-97,0,0,0,0,0,0,0,0,0,-1,1392,1121,0,0
175,-97,0,0,0,0,0,0,0,0,0,-1,1399,1121,0,0
182,-97,0,0,0,0,0,0,0,0,0,-1,1406,1121,0,0
189,-97,0,0,0,0,0,0,0,0,0,-1,1413,1121,0,0
196,-97,0,0,0,0,0,0,0,0,0,-1,1420,1121,0,0
203,-97,0,0,0,0,0,0,0,0,0,-1,1427,1121,0,0
210,-97,0,0,0,0,0,0,0,0,0,-1,1434,1121,0,0
217,-97,0,0,0,0,0,0,0,0,0,-1,1441,1121,0,0
224,-97,0,0,0,0,0,0,0,0,0,-1,1448,1121,0,0
231,-97,0,0,0,0,0,0,0,0,0,-1,1455,1121,0,0
238,-97,0,0,0,0,0,0,0,0,0,-1,1462,1121,0,0
245,-97,0,0,0,0,0,0,0,0,0,-1,1469,1121,0,0
252,-97,0,0,0,0,0,0,0,0,0,-1,1476,1121,0,0
259,-97,0,0,0,0,0,0,0,0,0,-1,1483,1121,0,0
266,-97,0,0,0,0,0,0,0,0,0,-1,1490,1121,0,0
273,-97,0,0,0,0,0,0,0,0,0,-1,1497,1121,0,0
280,-97,0,0,0,0,0,0,0,0,0,-1,1504,1121,0,0
287,-97,0,0,0,0,0,0,0,0,0,-1,1511,1121,0,0
294,-97,0,0,0,0,0,0,0,0,0,-1,1518,1121,0,0
301,-97,0,0,0,0,0,0,0,0,0,-1,1525,1121,0,0
308,-97,0,0,0,0,0,0,0,0,0,-1,1532,1121,0,0
315,-97,0,0,0,0,0,0,0,0,0,-1,1539,1121,0,0
322,-97,0,0,0,0,0,0,0,0,0,-1,1546,1121,0,0
329,-97,0,0,0,0,0,0,0,0,0,-1,1553,1121,0,0
336,-97,0,0,0,0,0,0,0,0,0,-1,1560,1121,0,0
343,-97,0,0,0,0,0,0,0,0,0,-1,1567,1121,0,0
350,-97,0,0,0,0,0,0,0,0,0,-1,1574,1121,0,0
357,-97,0,0,0,0,0,0,0,0,0,-1,1581,1121,0,0
364,-97,0,0,0,0,0,0,0,0,0,-1,1588,1121,0,0
371,-97,0,0,0,0,0,0,0,0,0,-1,1595,1121,0,0
378,-97,0,0,0,0,0,0,0,0,0,-1,1602,1121,0,0
385,-97,0,0,0,0,0,0,0,0,0,-1,1609,1121,0,0
392,-97,0,0,0,0,0,0,0,0,0,-1,1616,1121,0,0
399,-97,0,0,0,0,0,0,0,0,0,-1,1623,1121,0,0
406,-97,0,0,0,0,0,0,0,0,0,-1,1630,1121,0,0
413,-97,0,0,0,0,0,0,0,0,0,-1,1637,1121,0,0
420,-97,0,0,0,0,0,0,0,0,0,-1,1644,1121,0,0
427,-97,0,0,0,0,0,0,0,0,0,-1,1651,1121,0,0
434,-97,0,0,0,0,0,0,0,0,0,-1,1658,1121,0,0
441,-97,0,0,0,0,0,0,0,0,0,-1,1665,1121,0,0
448,-97,0,0,0,0,0,0,0,0,0,-1,1672,1121,0,0
455,-97,0,0,0,0,0,0,0,0,0,-1,1679,1121,0,0
462,-97,0,0,0,0,0,0,0,0,0,-1,1686,1121,0,0
469,-97,0,0,0,0,0,0,0,0,0,-1,1693,1121,0,0
476,-97,0,0,0,0,0,0,0,0,0,-1,1700,1121,0,0
483,-97,0,0,0,0,0,0,0,0,0,-1,1707,1121,0,0
490,-97,0,0,0,0,0,0,0,0,0,-1,1714,1121,0,0
497,-97,0,0,0,0,0,0,0,0,0,-1,1721,1121,0,0
504,-97,0,0,0,0,0,0,0,0,0,-1,1728,1121,0,0
511,-97,0,0,0,0,0,0,0,0,0,-1,1735,1121,0,0
518,-97,0,0,0,0,0,0,0,0,0,-1,1742,1121,0,0
525,-97,0,0,0,0,0,0,0,0,0,-1,1749,1121,0,0
532,-97,0,0,0,0,0,0,0,0,0,-1,1756,1121,0,0
539,-97,0,0,0,0,0,0,0,0,0,-1,1763,1121,0,0
546,-97,0,0,0,0,0,0,0,0,0,-1,1770,1121,0,0
553,-97,0,0,0,0,0,0,0,0,0,-1,1777,1121,0,0
560,-97,0,0,0,0,0,0,0,0,0,-1,1784,1121,0,0
567,-97,0,0,0,0,0,0,0,0,0,-1,1791,1121,0,0
574,-97,0,0,0,0,0,0,0,0,0,-1,1798,1121,0,0
581,-97,0,0,0,0,0,0,0,0,0,-1,1805,1121,0,0
588,-97,0,0,0,0,0,0,0,0,0,-1,1812,1121,0,0
595,-97,0,0,0,0,0,0,0,0,0,-1,1819,1121,0,0
602,-97,0,0,0,0,0,0,0,0,0,-1,1826,1121,0,0
609,-97,0,0,0,0,0,0,0,0,0,-1,1833,1121,0,0
616,-97,0,0,0,0,0,0,0,0,0,-1,1840,1121,0,0
623,-97,0,0,0,0,0,0,0,0,0,-1,1847,1121,0,0
630,-97,0,0,0,0,0,0,0,0,0,-1,1854,1121,0,0
637,-97,0,0,0,0,0,0,0,0,0,-1,1861,1121,0,0
644,-97,43.9757,2.60522,0.00363415,-0.00594597,-0.000195581,0.00363814,-0.00594997,-0.020404,0.00558908,0.0373872,1868,1121,43.9758,-2.60526
651,-97,44.0055,2.68225,0.00190451,-0.00417288,0.000138384,0.00190766,-0.00417603,0.0227546,0.00359289,0.0377211,1875,1121,44.0055,-2.68229
658,-97,44.0226,2.53589,0.000965626,-0.00304979,0.00034837,0.000995626,-0.00307979,0.0859027,0.00245336,0.0404129,1882,1121,44.0226,-2.53586
665,-97,44.1781,2.27808,0,0,0,0,0,0,0,-1,1889,1121,44.1781,-2.27804
672,-97,44.054,2.64307,0.000201903,-0.001648,0.000608374,0.000384044,-0.00183014,0.290897,0.00136622,0.0401502,1896,1121,44.0539,-2.64302
679,-97,43.9612,2.68762,-0.000368134,-0.00132956,0.000817343,9.93808e-05,-0.00179707,0.519572,0.00123251,0.0387347,1903,1121,43.9612,-2.68765
686,-97,43.9938,2.66931,-0.000933372,-0.00124254,0.000984429,-9.14633e-05,-0.00208445,0.70752,0.00136017,0.0342419,1910,1121,43.9938,-2.66935
693,-97,44.0399,2.60107,-0.00123057,-0.00119645,0.00109759,-0.000115791,-0.00231124,0.793169,0.00150371,0.0314393,1917,1121,44.0399,-2.60107
700,-97,43.9951,2.54004,-0.00161532,-0.00101762,0.00121662,-6.36849e-05,-0.00256926,0.905834,0.00169201,0.0241992,1924,1121,43.9951,-2.54008
707,-97,44.0171,2.53284,-0.00194371,-0.000969728,0.00141058,3.55581e-05,-0.002949,0.951613,0.00197796,0.0204071,1931,1121,44.0171,-2.53284
714,-97,43.9984,2.43335,0,0,0,0,0,0,0,-1,1938,1121,43.9984,-2.43336
721,-97,41.2662,6.59509,0,0,0,0,0,0,0,-1,1945,1121,41.2663,-6.59513
728,-97,41.2765,6.39758,-0.00294522,-0.000292191,0.00179157,0.0006105,-0.00384791,1.10407,0.00279112,0.02393,1952,1121,41.2765,-6.39761
735,-97,41.2257,6.06519,-0.00324313,-2.87514e-05,0.00201283,0.000939824,-0.0042117,1.1223,0.00316789,0.0233715,1959,1121,41.2257,-6.06519
742,-97,41.203,5.77124,-0.00328259,0.00025242,0.00237538,0.00144574,-0.00447592,1.10525,0.00356496,0.0191949,1966,1121,41.203,-5.7713
749,-97,41.2875,5.44543,-0.00214763,0.00136271,0.00260985,0.00275269,-0.00353761,1.08142,0.00364112,0.0217662,1973,1121,41.2875,-5.44546
756,-97,41.3032,5.16199,0.000324643,0.00347709,0.00291388,0.00521374,-0.00141201,1.03333,0.00402982,0.01659,1980,1121,41.3033,-5.16196
763,-97,41.226,4.92542,0.00442706,0.00624414,0.00367814,0.00912429,0.00154691,0.90648,0.0056384,0.0128839,1987,1121,41.2259,-4.9254
770,-97,41.1678,4.69482,0.0102412,0.0100454,0.00455545,0.0146998,0.00558681,0.774657,0.00856795,0.0112326,1994,1121,41.1678,-4.69482
777,-97,41.1632,4.45398,0.0178948,0.0148702,0.00574181,0.0223201,0.0104449,0.656628,0.0128953,0.0157589,2001,1121,41.1632,-4.45403
784,-97,41.2524,4.23425,0.0275232,0.0209241,0.00731155,0.0322453,0.0162021,0.573439,0.0186169,0.0360512,2008,1121,41.2523,-4.2343
791,-97,41.2986,3.86487,0,0,0,0,0,0,0,-1,2015,1121,41.2987,-3.86485
798,-97,42.3865,3.91223,0,0,0,0,0,0,0,-1,2022,1121,42.3864,-3.91217
805,-97,43.0208,3.4884,0.0744188,0.0501804,0.0152143,0.0817508,0.0428483,0.449077,0.0472172,0.044721,2029,1121,43.0208,-3.48844
812,-97,43.6687,3.11682,0.0967333,0.0645418,0.0195321,0.105947,0.0553279,0.440776,0.0611887,0.0489972,2036,1121,43.6688,-3.11687
-700,-104,0,0,0,0,0,0,0,0,0,-1,524,1128,0,0
-693,-104,-28.8589,1.03101,0,0,0,0,0,0,0,-1,531,1128,-28.8588,-1.03105
-686,-104,-27.6776,-0.377319,0,0,0,0,0,0,0,-1,538,1128,-27.6776,0.37737
-679,-104,-27.8107,0.0427246,0,0,0,0,0,0,0,-1,545,1128,-27.8107,-0.0427492
-672,-104,-27.8041,0.0238037,0,0,0,0,0,0,0,-1,552,1128,-27.8041,-0.0237895
-665,-104,-28.5325,0.15686,0,0,0,0,0,0,0,-1,559,1128,-28.5324,-0.156915
-658,-104,-29.2379,1.01074,0,0,0,0,0,0,0,-1,566,1128,-29.2379,-1.01068
-651,-104,-29.2081,1.22192,0.0122526,0.0218163,0.0154795,0.0332357,0.000833167,0.935204,0.0218847,0.0384106,573,1128,-29.2081,-1.22197
-644,-104,-29.1841,1.47437,0.00840078,0.0150554,0.00955663,0.0218474,0.0016088,0.952919,0.0140594,0.0152397,580,1128,-29.1841,-1.47431
-637,-104,-29.1734,1.83484,0.00564344,0.00986419,0.00542673,0.0135764,0.00193118,0.970842,0.00848085,0.0108685,587,1128,-29.1734,-1.83483
-630,-104,-29.193,2.11755,0.0036938,0.00577522,0.00241696,0.007366,0.00210301,0.988695,0.00438127,0.0135847,594,1128,-29.193,-2.11753
-623,-104,-29.2316,2.47803,0.00221672,0.00241197,0.000478499,0.0028027,0.00182599,0.886029,0.00164272,0.0157951,601,1128,-29.2316,-2.47802
-616,-104,-29.4026,2.88721,0.00165876,0.000742704,1.52398e-05,0.00165901,0.00074245,0.0166303,0.000959586,0.0211945,608,1128,-29.4027,-2.88726
-609,-104,-29.5158,3.08667,0.00176225,0.000635489,-1.29655e-05,0.0017624,0.00063534,-0.0115048,0.00103064,0.0277021,615,1128,-29.5158,-3.08662
-602,-104,-29.3601,3.45032,0.00200015,0.000778723,-6.05082e-05,0.00200314,0.000775733,-0.0493777,0.00116627,0.0238913,622,1128,-29.3601,-3.45033
-595,-104,-29.1995,3.88342,0.00173061,0.00125853,0.000130581,0.00176433,0.00122481,0.25265,0.00104393,0.0178796,629,1128,-29.1994,-3.88345
-588,-104,-29.1218,4.31616,0,0,0,0,0,0,0,-1,636,1128,-29.1218,-4.31614
-581,-104,-23.9373,2.85864,0,0,0,0,0,0,0,-1,643,1128,-23.9373,-2.85861
-574,-104,-32.3262,0.813599,0,0,0,0,0,0,0,-1,650,1128,-32.3262,-0.813658
-567,-104,-32.2297,0.631348,0.00167325,0.00245354,0.00118601,0.00331193,0.000814863,0.944301,0.00199266,0.0360794,657,1128,-32.2297,-0.631318
-560,-104,-32.1002,0.511353,0.00174517,0.00294386,0.00140681,0.00387367,0.000815355,0.98677,0.00235813,0.0429092,664,1128,-32.1001,-0.511409
-553,-104,-32.1127,0.439209,0.00142112,0.00330583,0.00146373,0.00410432,0.000622633,1.0714,0.00255409,0.0485555,671,1128,-32.1127,-0.439202
-546,-104,-32.263,0.417358,0.000969969,0.00323885,0.00138589,0.0038954,0.000313422,1.12838,0.00249902,0.045673,678,1128,-32.263,-0.417408
-539,-104,-32.3503,0.714111,0.00137587,0.00199131,0.00130963,0.00302889,0.000338299,0.900788,0.00191647,0.0401822,685,1128,-32.3503,-0.714118
-532,-104,-32.4072,0.730225,0.00194484,0.000252369,0.00120518,0.00257121,-0.000374007,0.47931,0.00185145,0.0416457,692,1128,-32.4072,-0.730177
-525,-104,-32.4269,0.77417,0.00253835,-0.0017677,0.00100298,0.0027605,-0.00198986,0.217977,0.00275463,0.0395205,699,1128,-32.427,-0.774136
-518,-104,0,0,0,0,0,0,0,0,0,-1,706,1128,0,0
-511,-104,0,0,0,0,0,0,0,0,0,-1,713,1128,0,0
-504,-104,0,0,0,0,0,0,0,0,0,-1,720,1128,0,0
-497,-104,0,0,0,0,0,0,0,0,0,-1,727,1128,0,0
-490,-104,0,0,0,0,0,0,0,0,0,-1,734,1128,0,0
-483,-104,0,0,0,0,0,0,0,0,0,-1,741,1128,0,0
-476,-104,0,0,0,0,0,0,0,0,0,-1,748,1128,0,0
-469,-104,0,0,0,0,0,0,0,0,0,-1,755,1128,0,0
-462,-104,0,0,0,0,0,0,0,0,0,-1,762,1128,0,0
-455,-104,0,0,0,0,0,0,0,0,0,-1,769,1128,0,0
-448,-104,0,0,0,0,0,0,0,0,0,-1,776,1128,0,0
-441,-104,0,0,0,0,0,0,0,0,0,-1,783,1128,0,0
-434,-104,0,0,0,0,0,0,0,0,0,-1,790,1128,0,0
-427,-104,0,0,0,0,0,0,0,0,0,-1,797,1128,0,0
-420,-104,0,0,0,0,0,0,0,0,0,-1,804,1128,0,0
-413,-104,0,0,0,0,0,0,0,0,0,-1,811,1128,0,0
-406,-104,0,0,0,0,0,0,0,0,0,-1,818,1128,0,0
-399,-104,0,0,0,0,0,0,0,0,0,-1,825,1128,0,0
-392,-104,0,0,0,0,0,0,0,0,0,-1,832,1128,0,0
-385,-104,0,0,0,0,0,0,0,0,0,-1,839,1128,0,0
-378,-104,0,0,0,0,0,0,0,0,0,-1,846,1128,0,0
-371,-104,0,0,0,0,0,0,0,0,0,-1,853,1128,0,0
-364,-104,0,0,0,0,0,0,0,0,0,-1,860,1128,0,0
-357,-104,0,0,0,0,0,0,0,0,0,-1,867,1128,0,0
-350,-104,0,0,0,0,0,0,0,0,0,-1,874,1128,0,0
-343,-104,0,0,0,0,0,0,0,0,0,-1,881,1128,0,0
-336,-104,0,0,0,0,0,0,0,0,0,-1,888,1128,0,0
-329,-104,0,0,0,0,0,0,0,0,0,-1,895,1128,0,0
-322,-104,0,0,0,0,0,0,0,0,0,-1,902,1128,0,0
-315,-104,0,0,0,0,0,0,0,0,0,-1,909,1128,0,0
-308,-104,0,0,0,0,0,0,0,0,0,-1,916,1128,0,0
-301,-104,0,0,0,0,0,0,0,0,0,-1,923,1128,0,0
-294,-104,0,0,0,0,0,0,0,0,0,-1,930,1128,0,0
-287,-104,0,0,0,0,0,0,0,0,0,-1,937,1128,0,0
-280,-104,0,0,0,0,0,0,0,0,0,-1,944,1128,0,0
-273,-104,0,0,0,0,0,0,0,0,0,-1,951,1128,0,0
-266,-104,0,0,0,0,0,0,0,0,0,-1,958,1128,0,0
-259,-104,0,0,0,0,0,0,0,0,0,-1,965,1128,0,0
-252,-104,0,0,0,0,0,0,0,0,0,-1,972,1128,0,0
-245,-104,0,0,0,0,0,0,0,0,0,-1,979,1128,0,0
-238,-104,0,0,0,0,0,0,0,0,0,-1,986,1128,0,0
-231,-104,0,0,0,0,0,0,0,0,0,-1,993,1128,0,0
-224,-104,0,0,0,0,0,0,0,0,0,-1,1000,1128,0,0
-217,-104,0,0,0,0,0,0,0,0,0,-1,1007,1128,0,0
-210,-104,0,0,0,0,0,0,0,0,0,-1,1014,1128,0,0
-203,-104,0,0,0,0,0,0,0,0,0,-1,1021,1128,0,0
-196,-104,0,0,0,0,0,0,0,0,0,-1,1028,1128,0,0
-189,-104,0,0,0,0,0,0,0,0,0,-1,1035,1128,0,0
-182,-104,0,0,0,0,0,0,0,0,0,-1,1042,1128,0,0
-175,-104,0,0,0,0,0,0,0,0,0,-1,1049,1128,0,0
-168,-104,0,0,0,0,0,0,0,0,0,-1,1056,1128,0,0
-161,-104,0,0,0,0,0,0,0,0,0,-1,1063,1128,0,0
-154,-104,0,0,0,0,0,0,0,0,0,-1,1070,1128,0,0
-147,-104,0,0,0,0,0,0,0,0,0,-1,1077,1128,0,0
-140,-104,0,0,0,0,0,0,0,0,0,-1,1084,1128,0,0
-133,-104,0,0,0,0,0,0,0,0,0,-1,1091,1128,0,0
-126,-104,0,0,0,0,0,0,0,0,0,-1,1098,1128,0,0
-119,-104,0,0,0,0,0,0,0,0,0,-1,1105,1128,0,0
-112,-104,0,0,0,0,0,0,0,0,0,-1,1112,1128,0,0
-105,-104,0,0,0,0,0,0,0,0,0,-1,1119,1128,0,0
-98,-104,0,0,0,0,0,0,0,0,0,-1,1126,1128,0,0
-91,-104,0,0,0,0,0,0,0,0,0,-1,1133,1128,0,0
-84,-104,0,0,0,0,0,0,0,0,0,-1,1140,1128,0,0
-77,-104,0,0,0,0,0,0,0,0,0,-1,1147,1128,0,0
-70,-104,0,0,0,0,0,0,0,0,0,-1,1154,1128,0,0
-63,-104,0,0,0,0,0,0,0,0,0,-1,1161,1128,0,0
-56,-104,0,0,0,0,0,0,0,0,0,-1,1168,1128,0,0
-49,-104,0,0,0,0,0,0,0,0,0,-1,1175,1128,0,0
-42,-104,0,0,0,0,0,0,0,0,0,-1,1182,1128,0,0
-35,-104,0,0,0,0,0,0,0,0,0,-1,1189,1128,0,0
-28,-104,0,0,0,0,0,0,0,0,0,-1,1196,1128,0,0
-21,-104,0,0,0,0,0,0,0,0,0,-1,1203,1128,0,0
-14,-104,0,0,0,0,0,0,0,0,0,-1,1210,1128,0,0
-7,-104,0,0,0,0,0,0,0,0,0,-1,1217,1128,0,0
0,-104,0,0,0,0,0,0,0,0,0,-1,1224,1128,0,0
7,-104,0,0,0,0,0,0,0,0,0,-1,1231,1128,0,0
14,-104,0,0,0,0,0,0,0,0,0,-1,1238,1128,0,0
21,-104,0,0,0,0,0,0,0,0,0,-1,1245,1128,0,0
28,-104,0,0,0,0,0,0,0,0,0,-1,1252,1128,0,0
35,-104,0,0,0,0,0,0,0,0,0,-1,1259,1128,0,0
42,-104,0,0,0,0,0,0,0,0,0,-1,1266,1128,0,0
49,-104,0,0,0,0,0,0,0,0,0,-1,1273,1128,0,0
56,-104,0,0,0,0,0,0,0,0,0,-1,1280,1128,0,0
63,-104,0,0,0,0,0,0,0,0,0,-1,1287,1128,0,0
70,-104,0,0,0,0,0,0,0,0,0,-1,1294,1128,0,0
77,-104,0,0,0,0,0,0,0,0,0,-1,1301,1128,0,0
84,-104,0,0,0,0,0,0,0,0,0,-1,1308,1128,0,0
91,-104,0,0,0,0,0,0,0,0,0,-1,1315,1128,0,0
98,-104,0,0,0,0,0,0,0,0,0,-1,1322,1128,0,0
105,-104,0,0,0,0,0,0,0,0,0,-1,1329,1128,0,0
112,-104,0,0,0,0,0,0,0,0,0,-1,1336,1128,0,0
119,-104,0,0,0,0,0,0,0,0,0,-1,1343,1128,0,0
126,-104,0,0,0,0,0,0,0,0,0,-1,1350,1128,0,0
133,-104,0,0,0,0,0,0,0,0,0,-1,1357,1128,0,0
140,-104,0,0,0,0,0,0,0,0,0,-1,1364,1128,0,0
147,-104,0,0,0,0,0,0,0,0,0,-1,1371,1128,0,0
154,-104,0,0,0,0,0,0,0,0,0,-1,1378,1128,0,0
161,-104,0,0,0,0,0,0,0,0,0,-1,1385,1128,0,0
168,-104,0,0,0,0,0,0,0,0,0,-1,1392,1128,0,0
175,-104,0,0,0,0,0,0,0,0,0,-1,1399,1128,0,0
182,-104,0,0,0,0,0,0,0,0,0,-1,1406,1128,0,0
189,-104,0,0,0,0,0,0,0,0,0,-1,1413,1128,0,0
196,-104,0,0,0,0,0,0,0,0,0,-1,1420,1128,0,0
203,-104,0,0,0,0,0,0,0,0,0,-1,1427,1128,0,0
210,-104,0,0,0,0,0,0,0,0,0,-1,1434,1128,0,0
217,-104,0,0,0,0,0,0,0,0,0,-1,1441,1128,0,0
224,-104,0,0,0,0,0,0,0,0,0,-1,1448,1128,0,0
231,-104,0,0,0,0,0,0,0,0,0,-1,1455,1128,0,0
238,-104,0,0,0,0,0,0,0,0,0,-1,1462,1128,0,0
245,-104,0,0,0,0,0,0,0,0,0,-1,1469,1128,0,0
252,-104,0,0,0,0,0,0,0,0,0,-1,1476,1128,0,0
259,-104,0,0,0,0,0,0,0,0,0,-1,1483,1128,0,0
266,-104,0,0,0,0,0,0,0,0,0,-1,1490,1128,0,0
273,-104,0,0,0,0,0,0,0,0,0,-1,1497,1128,0,0
280,-104,0,0,0,0,0,0,0,0,0,-1,1504,1128,0,0
287,-104,0,0,0,0,0,0,0,0,0,-1,1511,1128,0,0
294,-104,0,0,0,0,0,0,0,0,0,-1,1518,1128,0,0
301,-104,0,0,0,0,0,0,0,0,0,-1,1525,1128,0,0
308,-104,0,0,0,0,0,0,0,0,0,-1,1532,1128,0,0
315,-104,0,0,0,0,0,0,0,0,0,-1,1539,1128,0,0
322,-104,0,0,0,0,0,0,0,0,0,-1,1546,1128,0,0
329,-104,0,0,0,0,0,0,0,0,0,-1,1553,1128,0,0
336,-104,0,0,0,0,0,0,0,0,0,-1,1560,1128,0,0
343,-104,0,0,0,0,0,0,0,0,0,-1,1567,1128,0,0
350,-104,0,0,0,0,0,0,0,0,0,-1,1574,1128,0,0
357,-104,0,0,0,0,0,0,0,0,0,-1,1581,1128,0,0
364,-104,0,0,0,0,0,0,0,0,0,-1,1588,1128,0,0
371,-104,0,0,0,0,0,0,0,0,0,-1,1595,1128,0,0
378,-104,0,0,0,0,0,0,0,0,0,-1,1602,1128,0,0
385,-104,0,0,0,0,0,0,0,0,0,-1,1609,1128,0,0
392,-104,0,0,0,0,0,0,0,0,0,-1,1616,1128,0,0
399,-104,0,0,0,0,0,0,0,0,0,-1,1623,1128,0,0
406,-104,0,0,0,0,0,0,0,0,0,-1,1630,1128,0,0
413,-104,0,0,0,0,0,0,0,0,0,-1,1637,1128,0,0
420,-104,0,0,0,0,0,0,0,0,0,-1,1644,1128,0,0
427,-104,0,0,0,0,0,0,0,0,0,-1,1651,1128,0,0
434,-104,0,0,0,0,0,0,0,0,0,-1,1658,1128,0,0
441,-104,0,0,0,0,0,0,0,0,0,-1,1665,1128,0,0
448,-104,0,0,0,0,0,0,0,0,0,-1,1672,1128,0,0
455,-104,0,0,0,0,0,0,0,0,0,-1,1679,1128,0,0
462,-104,0,0,0,0,0,0,0,0,0,-1,1686,1128,0,0
469,-104,0,0,0,0,0,0,0,0,0,-1,1693,1128,0,0
476,-104,0,0,0,0,0,0,0,0,0,-1,1700,1128,0,0
483,-104,0,0,0,0,0,0,0,0,0,-1,1707,1128,0,0
490,-104,0,0,0,0,0,0,0,0,0,-1,1714,1128,0,0
497,-104,0,0,0,0,0,0,0,0,0,-1,1721,1128,0,0
504,-104,0,0,0,0,0,0,0,0,0,-1,1728,1128,0,0
511,-104,0,0,0,0,0,0,0,0,0,-1,1735,1128,0,0
518,-104,0,0,0,0,0,0,0,0,0,-1,1742,1128,0,0
525,-104,0,0,0,0,0,0,0,0,0,-1,1749,1128,0,0
532,-104,0,0,0,0,0,0,0,0,0,-1,1756,1128,0,0
539,-104,0,0,0,0,0,0,0,0,0,-1,1763,1128,0,0
546,-104,0,0,0,0,0,0,0,0,0,-1,1770,1128,0,0
553,-104,0,0,0,0,0,0,0,0,0,-1,1777,1128,0,0
560,-104,0,0,0,0,0,0,0,0,0,-1,1784,1128,0,0
567,-104,0,0,0,0,0,0,0,0,0,-1,1791,1128,0,0
574,-104,0,0,0,0,0,0,0,0,0,-1,1798,1128,0,0
581,-104,0,0,0,0,0,0,0,0,0,-1,1805,1128,0,0
588,-104,0,0,0,0,0,0,0,0,0,-1,1812,1128,0,0
595,-104,0,0,0,0,0,0,0,0,0,-1,1819,1128,0,0
602,-104,0,0,0,0,0,0,0,0,0,-1,1826,1128,0,0
609,-104,0,0,0,0,0,0,0,0,0,-1,1833,1128,0,0
616,-104,0,0,0,0,0,0,0,0,0,-1,1840,1128,0,0
623,-104,0,0,0,0,0,0,0,0,0,-1,1847,1128,0,0
630,-104,0,0,0,0,0,0,0,0,0,-1,1854,1128,0,0
637,-104,0,0,0,0,0,0,0,0,0,-1,1861,1128,0,0
644,-104,43.9679,2.8219,0.00350807,-0.00666367,0.000163153,0.00351069,-0.00666629,0.0160344,0.00596909,0.0370502,1868,1128,43.9679,-2.82196
651,-104,44.1232,2.80103,0.00186737,-0.00464217,0.000450113,0.00189835,-0.00467314,0.0687108,0.00390517,0.0377107,1875,1128,44.1232,-2.80105
658,-104,44.2522,2.61023,0.000990782,-0.00335436,0.000607945,0.00107424,-0.00343782,0.136424,0.00272157,0.0415431,1882,1128,44.2522,-2.61023
665,-104,44.2097,2.48767,0.000499461,-0.0024026,0.000703818,0.000661146,-0.00256428,0.225807,0.00196729,0.0439878,1889,1128,44.2097,-2.48762
672,-104,44.115,2.51172,0.000285037,-0.00174644,0.000741448,0.000526864,-0.00198826,0.315276,0.00153164,0.0418489,1896,1128,44.115,-2.51172
679,-104,44.0193,2.4895,-0.000264029,-0.00134511,0.00086844,0.000218354,-0.00182749,0.507025,0.00129725,0.0411421,1903,1128,44.0193,-2.4895
686,-104,43.9219,2.45093,-0.000781247,-0.00118725,0.000968636,5.43159e-06,-0.00197393,0.682106,0.00131777,0.0398338,1910,1128,43.9219,-2.45091
693,-104,44.027,2.54993,-0.00103846,-0.0010564,0.00102026,-2.71306e-05,-0.00206773,0.781003,0.00136953,0.0335779,1917,1128,44.0269,-2.54996
700,-104,44.0369,2.5354,-0.00140053,-0.000828751,0.00110835,2.99854e-05,-0.00225927,0.911618,0.00151627,0.0234113,1924,1128,44.0369,-2.53536
707,-104,44.0078,2.50562,-0.00171561,-0.000771002,0.0012692,0.000110929,-0.00259754,0.963522,0.00176983,0.0457993,1931,1128,44.0079,-2.50558
714,-104,43.9404,2.37073,0,0,0,0,0,0,0,-1,1938,1128,43.9405,-2.3707
721,-104,40.9362,6.69434,0,0,0,0,0,0,0,-1,1945,1128,40.9362,-6.69435
728,-104,41.0857,6.30115,-0.00265728,-0.000124256,0.00164966,0.000688996,-0.00347054,1.11278,0.00257428,0.0240564,1952,1128,41.0857,-6.3011
735,-104,41.0907,6.00549,-0.00306821,0.000109711,0.00194987,0.00103606,-0.00399456,1.12728,0.00306728,0.0248921,1959,1128,41.0906,-6.00545
742,-104,40.9772,5.75671,-0.00325337,0.000364888,0.00238086,0.00154598,-0.00443446,1.11029,0.00358454,0.016415,1966,1128,40.9772,-5.7567
749,-104,40.9523,5.47791,-0.00220588,0.00145508,0.00267811,0.00286851,-0.00361931,1.08518,0.00375409,0.0188451,1973,1128,40.9523,-5.47794
756,-104,40.9596,5.18091,0.000329297,0.00365372,0.00305563,0.00546998,-0.00148697,1.0345,0.00423034,0.0175499,1980,1128,40.9595,-5.18093
763,-104,40.9207,4.91089,0.00455704,0.00658669,0.00390543,0.00960699,0.00153674,0.912512,0.00595884,0.0154683,1987,1128,40.9207,-4.91089
770,-104,40.8679,4.66357,0.0105025,0.0106198,0.00484073,0.0154023,0.00572009,0.791455,0.00899003,0.0129571,1994,1128,40.8679,-4.66355
777,-104,40.8121,4.36633,0.0183385,0.0157915,0.00600519,0.0232037,0.0109262,0.680913,0.0134042,0.0211464,2001,1128,40.8122,-4.36628
784,-104,40.7759,4.07178,0.0284184,0.0224324,0.00748446,0.0334861,0.0173647,0.595189,0.0193377,0.0392383,2008,1128,40.7758,-4.07172
791,-104,40.7957,3.84705,0,0,0,0,0,0,0,-1,2015,1128,40.7956,-3.847
798,-104,41.2925,3.62134,0.0583258,0.0419425,0.0114664,0.0642261,0.0360423,0.475235,0.0371733,0.0443394,2022,1128,41.2924,-3.62138
805,-104,42.0042,3.13245,0.0789761,0.0554286,0.0140934,0.0855666,0.0488381,0.437417,0.0495665,0.0467085,2029,1128,42.0042,-3.13243
812,-104,42.7312,2.69592,0.103551,0.071911,0.0174579,0.111291,0.0641715,0.417287,0.0645047,0.0468594,2036,1128,42.7313,-2.69594
-700,-111,0,0,0,0,0,0,0,0,0,-1,524,1135,0,0
-693,-111,-27.9065,1.65784,0,0,0,0,0,0,0,-1,531,1135,-27.9065,-1.65781
-686,-111,-27.2595,0.964355,0,0,0,0,0,0,0,-1,538,1135,-27.2595,-0.964311
-679,-111,-26.9161,3.03308,0,0,0,0,0,0,0,-1,545,1135,-26.9161,-3.03313
-672,-111,-27.1099,-0.122803,0,0,0,0,0,0,0,-1,552,1135,-27.1099,0.122821
-665,-111,-28.3611,0.18335,0,0,0,0,0,0,0,-1,559,1135,-28.3611,-0.183375
-658,-111,-29.374,1.68933,0,0,0,0,0,0,0,-1,566,1135,-29.374,-1.68935
-651,-111,-29.0316,1.6051,0.0144725,0.0253984,0.0178866,0.0386377,0.00123323,0.93361,0.0253574,0.0388284,573,1135,-29.0315,-1.60509
-644,-111,-28.7701,1.52222,0.0102793,0.017622,0.0111376,0.0256777,0.00222356,0.944606,0.0164275,0.0251973,580,1135,-28.7701,-1.52217
-637,-111,-28.8127,1.82874,0.00703344,0.0115288,0.00632647,0.015995,0.00256724,0.956085,0.00991898,0.0104279,587,1135,-28.8127,-1.82875
-630,-111,-28.823,2.10327,0.00458089,0.00685323,0.00278705,0.0087268,0.00270732,0.978945,0.00515796,0.0185202,594,1135,-28.823,-2.10326
-623,-111,-28.8481,2.46509,0.00267829,0.0028593,0.000512275,0.003289,0.00224859,0.872836,0.00194114,0.0157503,601,1135,-28.8481,-2.46508
-616,-111,-29.0249,2.8324,0.00193759,0.000953654,5.27209e-05,0.0019404,0.000950837,0.0533781,0.00112037,0.0170824,608,1135,-29.0249,-2.83245
-609,-111,-29.2245,3.12354,0.0019451,0.000893638,9.75425e-05,0.00195407,0.000884666,0.0917258,0.00112986,0.0268511,615,1135,-29.2246,-3.12352
-602,-111,-29.1226,3.47498,0.00204348,0.0011384,0.000112552,0.00205726,0.00112461,0.121883,0.00118948,0.0306558,622,1135,-29.1225,-3.475
-595,-111,-28.9218,3.89905,0.0015737,0.00165317,0.000358207,0.00197384,0.00125303,0.840636,0.00115332,0.0163439,629,1135,-28.9218,-3.89906
-588,-111,-28.7011,4.37402,0,0,0,0,0,0,0,-1,636,1135,-28.7011,-4.37398
-581,-111,-21.0555,3.14551,0,0,0,0,0,0,0,-1,643,1135,-21.0555,-3.14548
-574,-111,-32.2655,0.647583,0,0,0,0,0,0,0,-1,650,1135,-32.2655,-0.647561
-567,-111,-32.2823,0.827515,0,0,0,0,0,0,0,-1,657,1135,-32.2823,-0.82753
-560,-111,-31.9213,0.340332,0,0,0,0,0,0,0,-1,664,1135,-31.9213,-0.340316
-553,-111,-32.2775,0.681885,0,0,0,0,0,0,0,-1,671,1135,-32.2775,-0.681911
-546,-111,-32.6039,0.281006,0,0,0,0,0,0,0,-1,678,1135,-32.6039,-0.281047
-539,-111,-32.4463,0.715942,0.000701638,0.00285617,0.00163772,0.00373917,-0.00018136,1.07631,0.00255538,0.0395367,685,1135,-32.4463,-0.715922
-532,-111,-32.4524,0.874268,0.00118228,0.00128389,0.00148645,0.00272041,-0.000254236,0.80248,0.00190402,0.0411168,692,1135,-32.4524,-0.874305
-525,-111,-32.2391,0.845703,0.00171751,-0.000510421,0.00117806,0.00222489,-0.0010178,0.406678,0.00191491,0.0388618,699,1135,-32.2391,-0.845752
-518,-111,0,0,0,0,0,0,0,0,0,-1,706,1135,0,0
-511,-111,0,0,0,0,0,0,0,0,0,-1,713,1135,0,0
-504,-111,0,0,0,0,0,0,0,0,0,-1,720,1135,0,0
-497,-111,0,0,0,0,0,0,0,0,0,-1,727,1135,0,0
-490,-111,0,0,0,0,0,0,0,0,0,-1,734,1135,0,0
-483,-111,0,0,0,0,0,0,0,0,0,-1,741,1135,0,0
-476,-111,0,0,0,0,0,0,0,0,0,-1,748,1135,0,0
-469,-111,0,0,0,0,0,0,0,0,0,-1,755,1135,0,0
-462,-111,0,0,0,0,0,0,0,0,0,-1,762,1135,0,0
-455,-111,0,0,0,0,0,0,0,0,0,-1,769,1135,0,0
-448,-111,0,0,0,0,0,0,0,0,0,-1,776,1135,0,0
-441,-111,0,0,0,0,0,0,0,0,0,-1,783,1135,0,0
-434,-111,0,0,0,0,0,0,0,0,0,-1,790,1135,0,0
-427,-111,0,0,0,0,0,0,0,0,0,-1,797,1135,0,0
-420,-111,0,0,0,0,0,0,0,0,0,-1,804,1135,0,0
-413,-111,0,0,0,0,0,0,0,0,0,-1,811,1135,0,0
-406,-111,0,0,0,0,0,0,0,0,0,-1,818,1135,0,0
-399,-111,0,0,0,0,0,0,0,0,0,-1,825,1135,0,0
-392,-111,0,0,0,0,0,0,0,0,0,-1,832,1135,0,0
-385,-111,0,0,0,0,0,0,0,0,0,-1,839,1135,0,0
-378,-111,0,0,0,0,0,0,0,0,0,-1,846,1135,0,0
-371,-111,0,0,0,0,0,0,0,0,0,-1,853,1135,0,0
-364,-111,0,0,0,0,0,0,0,0,0,-1,860,1135,0,0
-357,-111,0,0,0,0,0,0,0,0,0,-1,867,1135,0,0
-350,-111,0,0,0,0,0,0,0,0,0,-1,874,1135,0,0
-343,-111,0,0,0,0,0,0,0,0,0,-1,881,1135,0,0
-336,-111,0,0,0,0,0,0,0,0,0,-1,888,1135,0,0
-329,-111,0,0,0,0,0,0,0,0,0,-1,895,1135,0,0
-322,-111,0,0,0,0,0,0,0,0,0,-1,902,1135,0,0
-315,-111,0,0,0,0,0,0,0,0,0,-1,909,1135,0,0
-308,-111,0,0,0,0,0,0,0,0,0,-1,916,1135,0,0
-301,-111,0,0,0,0,0,0,0,0,0,-1,923,1135,0,0
-294,-111,0,0,0,0,0,0,0,0,0,-1,930,1135,0,0
-287,-111,0,0,0,0,0,0,0,0,0,-1,937,1135,0,0
-280,-111,0,0,0,0,0,0,0,0,0,-1,944,1135,0,0
-273,-111,0,0,0,0,0,0,0,0,0,-1,951,1135,0,0
-266,-111,0,0,0,0,0,0,0,0,0,-1,958,1135,0,0
-259,-111,0,0,0,0,0,0,0,0,0,-1,965,1135,0,0
-252,-111,0,0,0,0,0,0,0,0,0,-1,972,1135,0,0
-245,-111,0,0,0,0,0,0,0,0,0,-1,979,1135,0,0
-238,-111,0,0,0,0,0,0,0,0,0,-1,986,1135,0,0
-231,-111,0,0,0,0,0,0,0,0,0,-1,993,1135,0,0
-224,-111,0,0,0,0,0,0,0,0,0,-1,1000,1135,0,0
-217,-111,0,0,0,0,0,0,0,0,0,-1,1007,1135,0,0
-210,-111,0,0,0,0,0,0,0,0,0,-1,1014,1135,0,0
-203,-111,0,0,0,0,0,0,0,0,0,-1,1021,1135,0,0
-196,-111,0,0,0,0,0,0,0,0,0,-1,1028,1135,0,0
-189,-111,0,0,0,0,0,0,0,0,0,-1,1035,1135,0,0
-182,-111,0,0,0,0,0,0,0,0,0,-1,1042,1135,0,0
-175,-111,0,0,0,0,0,0,0,0,0,-1,1049,1135,0,0
-168,-111,0,0,0,0,0,0,0,0,0,-1,1056,1135,0,0
-161,-111,0,0,0,0,0,0,0,0,0,-1,1063,1135,0,0
-154,-111,0,0,0,0,0,0,0,0,0,-1,1070,1135,0,0
-147,-111,0,0,0,0,0,0,0,0,0,-1,1077,1135,0,0
-140,-111,0,0,0,0,0,0,0,0,0,-1,1084,1135,0,0
-133,-111,0,0,0,0,0,0,0,0,0,-1,1091,1135,0,0
-126,-111,0,0,0,0,0,0,0,0,0,-1,1098,1135,0,0
-119,-111,0,0,0,0,0,0,0,0,0,-1,1105,1135,0,0
-112,-111,0,0,0,0,0,0,0,0,0,-1,1112,1135,0,0
-105,-111,0,0,0,0,0,0,0,0,0,-1,1119,1135,0,0
-98,-111,0,0,0,0,0,0,0,0,0,-1,1126,1135,0,0
-91,-111,0,0,0,0,0,0,0,0,0,-1,1133,1135,0,0
-84,-111,0,0,0,0,0,0,0,0,0,-1,1140,1135,0,0
-77,-111,0,0,0,0,0,0,0,0,0,-1,1147,1135,0,0
-70,-111,0,0,0,0,0,0,0,0,0,-1,1154,1135,0,0
-63,-111,0,0,0,0,0,0,0,0,0,-1,1161,1135,0,0
-56,-111,0,0,0,0,0,0,0,0,0,-1,1168,1135,0,0
-49,-111,0,0,0,0,0,0,0,0,0,-1,1175,1135,0,0
-42,-111,0,0,0,0,0,0,0,0,0,-1,1182,1135,0,0
-35,-111,0,0,0,0,0,0,0,0,0,-1,1189,1135,0,0
-28,-111,0,0,0,0,0,0,0,0,0,-1,1196,1135,0,0
-21,-111,0,0,0,0,0,0,0,0,0,-1,1203,1135,0,0
-14,-111,0,0,0,0,0,0,0,0,0,-1,1210,1135,0,0
-7,-111,0,0,0,0,0,0,0,0,0,-1,1217,1135,0,0
0,-111,0,0,0,0,0,0,0,0,0,-1,1224,1135,0,0
7,-111,0,0,0,0,0,0,0,0,0,-1,1231,1135,0,0
14,-111,0,0,0,0,0,0,0,0,0,-1,1238,1135,0,0
21,-111,0,0,0,0,0,0,0,0,0,-1,1245,1135,0,0
28,-111,0,0,0,0,0,0,0,0,0,-1,1252,1135,0,0
35,-111,0,0,0,0,0,0,0,0,0,-1,1259,1135,0,0
42,-111,0,0,0,0,0,0,0,0,0,-1,1266,1135,0,0
49,-111,0,0,0,0,0,0,0,0,0,-1,1273,1135,0,0
56,-111,0,0,0,0,0,0,0,0,0,-1,1280,1135,0,0
63,-111,0,0,0,0,0,0,0,0,0,-1,1287,1135,0,0
70,-111,0,0,0,0,0,0,0,0,0,-1,1294,1135,0,0
77,-111,0,0,0,0,0,0,0,0,0,-1,1301,1135,0,0
84,-111,0,0,0,0,0,0,0,0,0,-1,1308,1135,0,0
91,-111,0,0,0,0,0,0,0,0,0,-1,1315,1135,0,0
98,-111,0,0,0,0,0,0,0,0,0,-1,1322,1135,0,0
105,-111,0,0,0,0,0,0,0,0,0,-1,1329,1135,0,0
112,-111,0,0,0,0,0,0,0,0,0,-1,1336,1135,0,0
119,-111,0,0,0,0,0,0,0,0,0,-1,1343,1135,0,0
126,-111,0,0,0,0,0,0,0,0,0,-1,1350,1135,0,0
133,-111,0,0,0,0,0,0,0,0,0,-1,1357,1135,0,0
140,-111,0,0,0,0,0,0,0,0,0,-1,1364,1135,0,0
147,-111,0,0,0,0,0,0,0,0,0,-1,1371,1135,0,0
154,-111,0,0,0,0,0,0,0,0,0,-1,1378,1135,0,0
161,-111,0,0,0,0,0,0,0,0,0,-1,1385,1135,0,0
168,-111,0,0,0,0,0,0,0,0,0,-1,1392,1135,0,0
175,-111,0,0,0,0,0,0,0,0,0,-1,1399,1135,0,0
182,-111,0,0,0,0,0,0,0,0,0,-1,1406,1135,0,0
189,-111,0,0,0,0,0,0,0,0,0,-1,1413,1135,0,0
196,-111,0,0,0,0,0,0,0,0,0,-1,1420,1135,0,0
203,-111,0,0,0,0,0,0,0,0,0,-1,1427,1135,0,0
210,-111,0,0,0,0,0,0,0,0,0,-1,1434,1135,0,0
217,-111,0,0,0,0,0,0,0,0,0,-1,1441,1135,0,0
224,-111,0,0,0,0,0,0,0,0,0,-1,1448,1135,0,0
231,-111,0,0,0,0,0,0,0,0,0,-1,1455,1135,0,0
238,-111,0,0,0,0,0,0,0,0,0,-1,1462,1135,0,0
245,-111,0,0,0,0,0,0,0,0,0,-1,1469,1135,0,0
252,-111,0,0,0,0,0,0,0,0,0,-1,1476,1135,0,0
259,-111,0,0,0,0,0,0,0,0,0,-1,1483,1135,0,0
266,-111,0,0,0,0,0,0,0,0,0,-1,1490,1135,0,0
273,-111,0,0,0,0,0,0,0,0,0,-1,1497,1135,0,0
280,-111,0,0,0,0,0,0,0,0,0,-1,1504,1135,0,0
287,-111,0,0,0,0,0,0,0,0,0,-1,1511,1135,0,0
294,-111,0,0,0,0,0,0,0,0,0,-1,1518,1135,0,0
301,-111,0,0,0,0,0,0,0,0,0,-1,1525,1135,0,0
308,-111,0,0,0,0,0,0,0,0,0,-1,1532,1135,0,0
315,-111,0,0,0,0,0,0,0,0,0,-1,1539,1135,0,0
322,-111,0,0,0,0,0,0,0,0,0,-1,1546,1135,0,0
329,-111,0,0,0,0,0,0,0,0,0,-1,1553,1135,0,0
336,-111,0,0,0,0,0,0,0,0,0,-1,1560,1135,0,0
343,-111,0,0,0,0,0,0,0,0,0,-1,1567,1135,0,0
350,-111,0,0,0,0,0,0,0,0,0,-1,1574,1135,0,0
357,-111,0,0,0,0,0,0,0,0,0,-1,1581,1135,0,0
364,-111,0,0,0,0,0,0,0,0,0,-1,1588,1135,0,0
371,-111,0,0,0,0,0,0,0,0,0,-1,1595,1135,0,0
378,-111,0,0,0,0,0,0,0,0,0,-1,1602,1135,0,0
385,-111,0,0,0,0,0,0,0,0,0,-1,1609,1135,0,0
392,-111,0,0,0,0,0,0,0,0,0,-1,1616,1135,0,0
399,-111,0,0,0,0,0,0,0,0,0,-1,1623,1135,0,0
406,-111,0,0,0,0,0,0,0,0,0,-1,1630,1135,0,0
413,-111,0,0,0,0,0,0,0,0,0,-1,1637,1135,0,0
420,-111,0,0,0,0,0,0,0,0,0,-1,1644,1135,0,0
427,-111,0,0,0,0,0,0,0,0,0,-1,1651,1135,0,0
434,-111,0,0,0,0,0,0,0,0,0,-1,1658,1135,0,0
441,-111,0,0,0,0,0,0,0,0,0,-1,1665,1135,0,0
448,-111,0,0,0,0,0,0,0,0,0,-1,1672,1135,0,0
455,-111,0,0,0,0,0,0,0,0,0,-1,1679,1135,0,0
462,-111,0,0,0,0,0,0,0,0,0,-1,1686,1135,0,0
469,-111,0,0,0,0,0,0,0,0,0,-1,1693,1135,0,0
476,-111,0,0,0,0,0,0,0,0,0,-1,1700,1135,0,0
483,-111,0,0,0,0,0,0,0,0,0,-1,1707,1135,0,0
490,-111,0,0,0,0,0,0,0,0,0,-1,1714,1135,0,0
497,-111,0,0,0,0,0,0,0,0,0,-1,1721,1135,0,0
504,-111,0,0,0,0,0,0,0,0,0,-1,1728,1135,0,0
511,-111,0,0,0,0,0,0,0,0,0,-1,1735,1135,0,0
518,-111,0,0,0,0,0,0,0,0,0,-1,1742,1135,0,0
525,-111,0,0,0,0,0,0,0,0,0,-1,1749,1135,0,0
532,-111,0,0,0,0,0,0,0,0,0,-1,1756,1135,0,0
539,-111,0,0,0,0,0,0,0,0,0,-1,1763,1135,0,0
546,-111,0,0,0,0,0,0,0,0,0,-1,1770,1135,0,0
553,-111,0,0,0,0,0,0,0,0,0,-1,1777,1135,0,0
560,-111,0,0,0,0,0,0,0,0,0,-1,1784,1135,0,0
567,-111,0,0,0,0,0,0,0,0,0,-1,1791,1135,0,0
574,-111,0,0,0,0,0,0,0,0,0,-1,1798,1135,0,0
581,-111,0,0,0,0,0,0,0,0,0,-1,1805,1135,0,0
588,-111,0,0,0,0,0,0,0,0,0,-1,1812,1135,0,0
595,-111,0,0,0,0,0,0,0,0,0,-1,1819,1135,0,0
602,-111,0,0,0,0,0,0,0,0,0,-1,1826,1135,0,0
609,-111,0,0,0,0,0,0,0,0,0,-1,1833,1135,0,0
616,-111,0,0,0,0,0,0,0,0,0,-1,1840,1135,0,0
623,-111,0,0,0,0,0,0,0,0,0,-1,1847,1135,0,0
630,-111,0,0,0,0,0,0,0,0,0,-1,1854,1135,0,0
637,-111,0,0,0,0,0,0,0,0,0,-1,1861,1135,0,0
644,-111,43.8687,2.96741,0.00377819,-0.00716662,0.000102205,0.00377915,-0.00716757,0.00933715,0.00642022,0.0424786,1868,1135,43.8687,-2.96745
651,-111,44.1431,2.78711,0.00212406,-0.00498728,0.000453168,0.00215282,-0.00501605,0.063383,0.00424756,0.0423334,1875,1135,44.143,-2.78714
658,-111,44.323,2.63965,0.00123244,-0.00356906,0.000645327,0.00131766,-0.00365428,0.131298,0.00297434,0.0440222,1882,1135,44.3231,-2.63968
665,-111,44.3126,2.4917,0.000718261,-0.00250844,0.00074589,0.000882339,-0.00267252,0.216527,0.00213739,0.045514,1889,1135,44.3126,-2.49166
672,-111,44.1854,2.39612,0.000481234,-0.00175987,0.000764478,0.000717171,-0.00199581,0.299351,0.00162329,0.042871,1896,1135,44.1854,-2.39617
679,-111,44.0542,2.49365,-8.20548e-05,-0.00126031,0.000838315,0.000353435,-0.0016958,0.479112,0.00126492,0.0395157,1903,1135,44.0542,-2.49368
686,-111,43.9337,2.55164,-0.000605232,-0.00105078,0.000895365,9.46551e-05,-0.00175067,0.663469,0.00119991,0.0390499,1910,1135,43.9337,-2.55166
693,-111,43.9796,2.54944,-0.000877928,-0.00084736,0.000905864,4.33486e-05,-0.00176864,0.793833,0.0011938,0.0343322,1917,1135,43.9796,-2.54943
700,-111,44.0562,2.57019,-0.00123646,-0.000590208,0.000974312,0.000113161,-0.00193983,0.945514,0.00133254,0.0236617,1924,1135,44.0562,-2.57022
707,-111,44.0436,2.59167,0,0,0,0,0,0,0,-1,1931,1135,44.0436,-2.59165
714,-111,39.0695,6.81152,0,0,0,0,0,0,0,-1,1938,1135,39.0694,-6.81152
721,-111,40.6106,6.74268,0,0,0,0,0,0,0,-1,1945,1135,40.6106,-6.74273
728,-111,40.7147,6.33801,-0.00249852,7.6092e-05,0.0014884,0.000756652,-0.00317908,1.14194,0.0024115,0.0227159,1952,1135,40.7147,-6.33801
735,-111,40.7334,6.04285,-0.00299239,0.000289075,0.00185734,0.00112659,-0.00382991,1.14718,0.00300016,0.0217731,1959,1135,40.7334,-6.0429
742,-111,40.6554,5.80933,-0.00331255,0.000507616,0.0023486,0.0016248,-0.00442974,1.12679,0.00361847,0.0136298,1966,1135,40.6554,-5.80927
749,-111,40.6083,5.51917,-0.00240352,0.00156521,0.00269435,0.00292707,-0.00376538,1.1028,0.00387398,0.0162495,1973,1135,40.6083,-5.51922
756,-111,40.6116,5.18921,8.72093e-05,0.00386583,0.003097,0.00560432,-0.00165128,1.05928,0.00439138,0.0169272,1980,1135,40.6115,-5.18916
763,-111,40.6041,4.9054,0.00432407,0.00698886,0.00395991,0.00983452,0.0014784,0.947684,0.00612333,0.0143828,1987,1135,40.6041,-4.90537
770,-111,40.5836,4.63501,0.0102305,0.0112883,0.00485175,0.0156399,0.00587891,0.839694,0.00912195,0.0120613,1994,1135,40.5836,-4.63496
777,-111,40.46,4.32275,0.0180598,0.0168583,0.00587866,0.0233683,0.0115498,0.734477,0.013492,0.0243599,2001,1135,40.4599,-4.32281
784,-111,40.2744,4.01062,0.0283305,0.0241705,0.00712314,0.0336711,0.0188299,0.643344,0.0194854,0.038942,2008,1135,40.2745,-4.01067
791,-111,40.2925,3.8291,0,0,0,0,0,0,0,-1,2015,1135,40.2925,-3.82916
798,-111,40.2686,3.56934,0.0594431,0.046049,0.0100583,0.06483,0.0406622,0.491688,0.0378313,0.0453248,2022,1135,40.2686,-3.56934
805,-111,41.0415,2.85962,0.0813332,0.0614177,0.011768,0.0867911,0.0559598,0.434264,0.0508041,0.0472632,2029,1135,41.0416,-2.8596
812,-111,41.4189,2.33923,0,0,0,0,0,0,0,-1,2036,1135,41.4188,-2.33928
-700,-118,0,0,0,0,0,0,0,0,0,-1,524,1142,0,0
-693,-118,-26.7717,1.93994,0,0,0,0,0,0,0,-1,531,1142,-26.7717,-1.93994
-686,-118,-27.4647,0.832397,0,0,0,0,0,0,0,-1,538,1142,-27.4647,-0.832425
-679,-118,-26.944,2.08752,0,0,0,0,0,0,0,-1,545,1142,-26.944,-2.08754
-672,-118,-26.4263,3.59314,0,0,0,0,0,0,0,-1,552,1142,-26.4263,-3.59319
-665,-118,-28.0276,-1.02405,0,0,0,0,0,0,0,-1,559,1142,-28.0276,1.02409
-658,-118,-28.2195,0.741821,0,0,0,0,0,0,0,-1,566,1142,-28.2195,-0.741786
-651,-118,-28.2188,1.09937,0.0160111,0.0322012,0.0196111,0.0453223,0.00289,0.981134,0.0292991,0.0432387,573,1142,-28.2188,-1.09935
-644,-118,-28.3274,1.46216,0.0117369,0.0223137,0.0124569,0.0305583,0.00349226,0.986136,0.0193136,0.0290004,580,1142,-28.3274,-1.46218
-637,-118,-28.4089,1.80811,0.00816928,0.0144724,0.00717447,0.019157,0.0034847,0.992349,0.0117828,0.0164093,587,1142,-28.4089,-1.8081
-630,-118,-28.4401,2.13135,0.00531923,0.00837973,0.00324306,0.0104354,0.00326352,1.00584,0.00616415,0.0212766,594,1142,-28.44,-2.13137
-623,-118,-28.4604,2.48523,0.00301445,0.00338266,0.000622047,0.00384727,0.00254984,0.929272,0.00226011,0.0171137,601,1142,-28.4604,-2.48518
-616,-118,-28.5491,2.82959,0.00205356,0.00117932,0.000103593,0.00206567,0.00116721,0.116348,0.00119597,0.0192626,608,1142,-28.5491,-2.82963
-609,-118,-28.7352,3.05518,0.00192179,0.00114763,0.000185916,0.00196412,0.0011053,0.223883,0.00113696,0.0315503,615,1142,-28.7352,-3.05515
-602,-118,-28.6434,3.5835,0.00185284,0.00140843,0.000232006,0.00195189,0.00130939,0.403486,0.00114864,0.0294363,622,1142,-28.6434,-3.58349
-595,-118,-28.8675,4.10889,0,0,0,0,0,0,0,-1,629,1142,-28.8675,-4.10887
-588,-118,-27.7964,4.67371,0,0,0,0,0,0,0,-1,636,1142,-27.7964,-4.67368
-581,-118,-24.6116,3.89648,0,0,0,0,0,0,0,-1,643,1142,-24.6116,-3.89645
-574,-118,-32.2139,0.737427,0,0,0,0,0,0,0,-1,650,1142,-32.2139,-0.737439
-567,-118,-32.2669,0.791382,0.000883287,0.00317405,0.00157284,0.00397437,8.2974e-05,1.10011,0.00262236,0.0445823,657,1142,-32.2669,-0.791382
-560,-118,-32.2706,0.902466,0.000972133,0.00368128,0.00184654,0.00461681,3.66021e-05,1.10185,0.00306575,0.0386073,664,1142,-32.2705,-0.902422
-553,-118,-32.1685,0.875,0.000620191,0.00413826,0.00194254,0.00499985,-0.000241399,1.15333,0.00341655,0.040324,671,1142,-32.1684,-0.875018
-546,-118,-32.074,0.792969,9.72833e-05,0.00423312,0.00189384,0.0049693,-0.00063889,1.20005,0.00354507,0.0412939,678,1142,-32.074,-0.792929
-539,-118,-32.2313,0.879883,0.000162345,0.00348603,0.00188758,0.00433908,-0.000690705,1.14634,0.00314831,0.0414253,685,1142,-32.2313,-0.879873
-532,-118,-32.3734,1.05066,0.000581546,0.00226466,0.00179339,0.00340413,-0.00055792,1.00477,0.00247643,0.0398823,692,1142,-32.3734,-1.05062
-525,-118,-32.2549,0.97583,0.0010518,0.000898523,0.00151961,0.0024967,-0.000546379,0.760204,0.00187334,0.0421469,699,1142,-32.2549,-0.97582
-518,-118,0,0,0,0,0,0,0,0,0,-1,706,1142,0,0
-511,-118,0,0,0,0,0,0,0,0,0,-1,713,1142,0,0
-504,-118,0,0,0,0,0,0,0,0,0,-1,720,1142,0,0
-497,-118,0,0,0,0,0,0,0,0,0,-1,727,1142,0,0
-490,-118,0,0,0,0,0,0,0,0,0,-1,734,1142,0,0
-483,-118,0,0,0,0,0,0,0,0,0,-1,741,1142,0,0
-476,-118,0,0,0,0,0,0,0,0,0,-1,748,1142,0,0
-469,-118,0,0,0,0,0,0,0,0,0,-1,755,1142,0,0
-462,-118,0,0,0,0,0,0,0,0,0,-1,762,1142,0,0
-455,-118,0,0,0,0,0,0,0,0,0,-1,769,1142,0,0
-448,-118,0,0,0,0,0,0,0,0,0,-1,776,1142,0,0
-441,-118,0,0,0,0,0,0,0,0,0,-1,783,1142,0,0
-434,-118,0,0,0,0,0,0,0,0,0,-1,790,1142,0,0
-427,-118,0,0,0,0,0,0,0,0,0,-1,797,1142,0,0
-420,-118,0,0,0,0,0,0,0,0,0,-1,804,1142,0,0
-413,-118,0,0,0,0,0,0,0,0,0,-1,811,1142,0,0
-406,-118,0,0,0,0,0,0,0,0,0,-1,818,1142,0,0
-399,-118,0,0,0,0,0,0,0,0,0,-1,825,1142,0,0
-392,-118,0,0,0,0,0,0,0,0,0,-1,832,1142,0,0
-385,-118,0,0,0,0,0,0,0,0,0,-1,839,1142,0,0
-378,-118,0,0,0,0,0,0,0,0,0,-1,846,1142,0,0
-371,-118,0,0,0,0,0,0,0,0,0,-1,853,1142,0,0
-364,-118,0,0,0,0,0,0,0,0,0,-1,860,1142,0,0
-357,-118,0,0,0,0,0,0,0,0,0,-1,867,1142,0,0
-350,-118,0,0,0,0,0,0,0,0,0,-1,874,1142,0,0
-343,-118,0,0,0,0,0,0,0,0,0,-1,881,1142,0,0
-336,-118,0,0,0,0,0,0,0,0,0,-1,888,1142,0,0
-329,-118,0,0,0,0,0,0,0,0,0,-1,895,1142,0,0
-322,-118,0,0,0,0,0,0,0,0,0,-1,902,1142,0,0
-315,-118,0,0,0,0,0,0,0,0,0,-1,909,1142,0,0
-308,-118,0,0,0,0,0,0,0,0,0,-1,916,1142,0,0
-301,-118,0,0,0,0,0,0,0,0,0,-1,923,1142,0,0
-294,-118,0,0,0,0,0,0,0,0,0,-1,930,1142,0,0
-287,-118,0,0,0,0,0,0,0,0,0,-1,937,1142,0,0
-280,-118,0,0,0,0,0,0,0,0,0,-1,944,1142,0,0
-273,-118,0,0,0,0,0,0,0,0,0,-1,951,1142,0,0
-266,-118,0,0,0,0,0,0,0,0,0,-1,958,1142,0,0
-259,-118,0,0,0,0,0,0,0,0,0,-1,965,1142,0,0
-252,-118,0,0,0,0,0,0,0,0,0,-1,972,1142,0,0
-245,-118,0,0,0,0,0,0,0,0,0,-1,979,1142,0,0
-238,-118,0,0,0,0,0,0,0,0,0,-1,986,1142,0,0
-231,-118,0,0,0,0,0,0,0,0,0,-1,993,1142,0,0
-224,-118,0,0,0,0,0,0,0,0,0,-1,1000,1142,0,0
-217,-118,0,0,0,0,0,0,0,0,0,-1,1007,1142,0,0
-210,-118,0,0,0,0,0,0,0,0,0,-1,1014,1142,0,0
-203,-118,0,0,0,0,0,0,0,0,0,-1,1021,1142,0,0
-196,-118,0,0,0,0,0,0,0,0,0,-1,1028,1142,0,0
-189,-118,0,0,0,0,0,0,0,0,0,-1,1035,1142,0,0
-182,-118,0,0,0,0,0,0,0,0,0,-1,1042,1142,0,0
-175,-118,0,0,0,0,0,0,0,0,0,-1,1049,1142,0,0
-168,-118,0,0,0,0,0,0,0,0,0,-1,1056,1142,0,0
-161,-118,0,0,0,0,0,0,0,0,0,-1,1063,1142,0,0
-154,-118,0,0,0,0,0,0,0,0,0,-1,1070,1142,0,0
-147,-118,0,0,0,0,0,0,0,0,0,-1,1077,1142,0,0
-140,-118,0,0,0,0,0,0,0,0,0,-1,1084,1142,0,0
-133,-118,0,0,0,0,0,0,0,0,0,-1,1091,1142,0,0
-126,-118,0,0,0,0,0,0,0,0,0,-1,1098,1142,0,0
-119,-118,0,0,0,0,0,0,0,0,0,-1,1105,1142,0,0
-112,-118,0,0,0,0,0,0,0,0,0,-1,1112,1142,0,0
-105,-118,0,0,0,0,0,0,0,0,0,-1,1119,1142,0,0
-98,-118,0,0,0,0,0,0,0,0,0,-1,1126,1142,0,0
-91,-118,0,0,0,0,0,0,0,0,0,-1,1133,1142,0,0
-84,-118,0,0,0,0,0,0,0,0,0,-1,1140,1142,0,0
-77,-118,0,0,0,0,0,0,0,0,0,-1,1147,1142,0,0
-70,-118,0,0,0,0,0,0,0,0,0,-1,1154,1142,0,0
-63,-118,0,0,0,0,0,0,0,0,0,-1,1161,1142,0,0
-56,-118,0,0,0,0,0,0,0,0,0,-1,1168,1142,0,0
-49,-118,0,0,0,0,0,0,0,0,0,-1,1175,1142,0,0
-42,-118,0,0,0,0,0,0,0,0,0,-1,1182,1142,0,0
-35,-118,0,0,0,0,0,0,0,0,0,-1,1189,1142,0,0
-28,-118,0,0,0,0,0,0,0,0,0,-1,1196,1142,0,0
-21,-118,0,0,0,0,0,0,0,0,0,-1,1203,1142,0,0
-14,-118,0,0,0,0,0,0,0,0,0,-1,1210,1142,0,0
-7,-118,0,0,0,0,0,0,0,0,0,-1,1217,1142,0,0
0,-118,0,0,0,0,0,0,0,0,0,-1,1224,1142,0,0
7,-118,0,0,0,0,0,0,0,0,0,-1,1231,1142,0,0
14,-118,0,0,0,0,0,0,0,0,0,-1,1238,1142,0,0
21,-118,0,0,0,0,0,0,0,0,0,-1,1245,1142,0,0
28,-118,0,0,0,0,0,0,0,0,0,-1,1252,1142,0,0
35,-118,0,0,0,0,0,0,0,0,0,-1,1259,1142,0,0
42,-118,0,0,0,0,0,0,0,0,0,-1,1266,1142,0,0
49,-118,0,0,0,0,0,0,0,0,0,-1,1273,1142,0,0
56,-118,0,0,0,0,0,0,0,0,0,-1,1280,1142,0,0
63,-118,0,0,0,0,0,0,0,0,0,-1,1287,1142,0,0
70,-118,0,0,0,0,0,0,0,0,0,-1,1294,1142,0,0
77,-118,0,0,0,0,0,0,0,0,0,-1,1301,1142,0,0
84,-118,0,0,0,0,0,0,0,0,0,-1,1308,1142,0,0
91,-118,0,0,0,0,0,0,0,0,0,-1,1315,1142,0,0
98,-118,0,0,0,0,0,0,0,0,0,-1,1322,1142,0,0
105,-118,0,0,0,0,0,0,0,0,0,-1,1329,1142,0,0
112,-118,0,0,0,0,0,0,0,0,0,-1,1336,1142,0,0
119,-118,0,0,0,0,0,0,0,0,0,-1,1343,1142,0,0
126,-118,0,0,0,0,0,0,0,0,0,-1,1350,1142,0,0
133,-118,0,0,0,0,0,0,0,0,0,-1,1357,1142,0,0
140,-118,0,0,0,0,0,0,0,0,0,-1,1364,1142,0,0
147,-118,0,0,0,0,0,0,0,0,0,-1,1371,1142,0,0
154,-118,0,0,0,0,0,0,0,0,0,-1,1378,1142,0,0
161,-118,0,0,0,0,0,0,0,0,0,-1,1385,1142,0,0
168,-118,0,0,0,0,0,0,0,0,0,-1,1392,1142,0,0
175,-118,0,0,0,0,0,0,0,0,0,-1,1399,1142,0,0
182,-118,0,0,0,0,0,0,0,0,0,-1,1406,1142,0,0
189,-118,0,0,0,0,0,0,0,0,0,-1,1413,1142,0,0
196,-118,0,0,0,0,0,0,0,0,0,-1,1420,1142,0,0
203,-118,0,0,0,0,0,0,0,0,0,-1,1427,1142,0,0
210,-118,0,0,0,0,0,0,0,0,0,-1,1434,1142,0,0
217,-118,0,0,0,0,0,0,0,0,0,-1,1441,1142,0,0
224,-118,0,0,0,0,0,0,0,0,0,-1,1448,1142,0,0
231,-118,0,0,0,0,0,0,0,0,0,-1,1455,1142,0,0
238,-118,0,0,0,0,0,0,0,0,0,-1,1462,1142,0,0
245,-118,0,0,0,0,0,0,0,0,0,-1,1469,1142,0,0
252,-118,0,0,0,0,0,0,0,0,0,-1,1476,1142,0,0
259,-118,0,0,0,0,0,0,0,0,0,-1,1483,1142,0,0
266,-118,0,0,0,0,0,0,0,0,0,-1,1490,1142,0,0
273,-118,0,0,0,0,0,0,0,0,0,-1,1497,1142,0,0
280,-118,0,0,0,0,0,0,0,0,0,-1,1504,1142,0,0
287,-118,0,0,0,0,0,0,0,0,0,-1,1511,1142,0,0
294,-118,0,0,0,0,0,0,0,0,0,-1,1518,1142,0,0
301,-118,0,0,0,0,0,0,0,0,0,-1,1525,1142,0,0
308,-118,0,0,0,0,0,0,0,0,0,-1,1532,1142,0,0
315,-118,0,0,0,0,0,0,0,0,0,-1,1539,1142,0,0
322,-118,0,0,0,0,0,0,0,0,0,-1,1546,1142,0,0
329,-118,0,0,0,0,0,0,0,0,0,-1,1553,1142,0,0
336,-118,0,0,0,0,0,0,0,0,0,-1,1560,1142,0,0
343,-118,0,0,0,0,0,0,0,0,0,-1,1567,1142,0,0
350,-118,0,0,0,0,0,0,0,0,0,-1,1574,1142,0,0
357,-118,0,0,0,0,0,0,0,0,0,-1,1581,1142,0,0
364,-118,0,0,0,0,0,0,0,0,0,-1,1588,1142,0,0
371,-118,0,0,0,0,0,0,0,0,0,-1,1595,1142,0,0
378,-118,0,0,0,0,0,0,0,0,0,-1,1602,1142,0,0
385,-118,0,0,0,0,0,0,0,0,0,-1,1609,1142,0,0
392,-118,0,0,0,0,0,0,0,0,0,-1,1616,1142,0,0
399,-118,0,0,0,0,0,0,0,0,0,-1,1623,1142,0,0
406,-118,0,0,0,0,0,0,0,0,0,-1,1630,1142,0,0
413,-118,0,0,0,0,0,0,0,0,0,-1,1637,1142,0,0
420,-118,0,0,0,0,0,0,0,0,0,-1,1644,1142,0,0
427,-118,0,0,0,0,0,0,0,0,0,-1,1651,1142,0,0
434,-118,0,0,0,0,0,0,0,0,0,-1,1658,1142,0,0
441,-118,0,0,0,0,0,0,0,0,0,-1,1665,1142,0,0
448,-118,0,0,0,0,0,0,0,0,0,-1,1672,1142,0,0
455,-118,0,0,0,0,0,0,0,0,0,-1,1679,1142,0,0
462,-118,0,0,0,0,0,0,0,0,0,-1,1686,1142,0,0
469,-118,0,0,0,0,0,0,0,0,0,-1,1693,1142,0,0
476,-118,0,0,0,0,0,0,0,0,0,-1,1700,1142,0,0
483,-118,0,0,0,0,0,0,0,0,0,-1,1707,1142,0,0
490,-118,0,0,0,0,0,0,0,0,0,-1,1714,1142,0,0
497,-118,0,0,0,0,0,0,0,0,0,-1,1721,1142,0,0
504,-118,0,0,0,0,0,0,0,0,0,-1,1728,1142,0,0
511,-118,0,0,0,0,0,0,0,0,0,-1,1735,1142,0,0
518,-118,0,0,0,0,0,0,0,0,0,-1,1742,1142,0,0
525,-118,0,0,0,0,0,0,0,0,0,-1,1749,1142,0,0
532,-118,0,0,0,0,0,0,0,0,0,-1,1756,1142,0,0
539,-118,0,0,0,0,0,0,0,0,0,-1,1763,1142,0,0
546,-118,0,0,0,0,0,0,0,0,0,-1,1770,1142,0,0
553,-118,0,0,0,0,0,0,0,0,0,-1,1777,1142,0,0
560,-118,0,0,0,0,0,0,0,0,0,-1,1784,1142,0,0
567,-118,0,0,0,0,0,0,0,0,0,-1,1791,1142,0,0
574,-118,0,0,0,0,0,0,0,0,0,-1,1798,1142,0,0
581,-118,0,0,0,0,0,0,0,0,0,-1,1805,1142,0,0
588,-118,0,0,0,0,0,0,0,0,0,-1,1812,1142,0,0
595,-118,0,0,0,0,0,0,0,0,0,-1,1819,1142,0,0
602,-118,0,0,0,0,0,0,0,0,0,-1,1826,1142,0,0
609,-118,0,0,0,0,0,0,0,0,0,-1,1833,1142,0,0
616,-118,0,0,0,0,0,0,0,0,0,-1,1840,1142,0,0
623,-118,0,0,0,0,0,0,0,0,0,-1,1847,1142,0,0
630,-118,0,0,0,0,0,0,0,0,0,-1,1854,1142,0,0
637,-118,0,0,0,0,0,0,0,0,0,-1,1861,1142,0,0
644,-118,43.8151,3.07458,0.00423202,-0.00703109,-0.00044425,0.00424951,-0.00704858,-0.0393615,0.00658935,0.0477331,1868,1142,43.8151,-3.07457
651,-118,44.0287,2.57483,0.00257494,-0.00494431,8.07579e-05,0.00257581,-0.00494518,0.0107385,0.00441349,0.042562,1875,1142,44.0287,-2.57481
658,-118,44.0918,2.50073,0.00164251,-0.00355013,0.000384822,0.00167088,-0.0035785,0.0735734,0.00309672,0.0421448,1882,1142,44.0918,-2.50071
665,-118,44.2236,2.53662,0.001064,-0.00248048,0.000544673,0.00114581,-0.00256229,0.149087,0.00219232,0.0441873,1889,1142,44.2236,-2.53664
672,-118,44.0635,2.67297,0.000754207,-0.00171356,0.000590689,0.000888308,-0.00184766,0.223241,0.00161165,0.0445032,1896,1142,44.0635,-2.67294
679,-118,43.9387,2.8772,0.000127398,-0.0011403,0.00064872,0.000400523,-0.00141342,0.398496,0.00110036,0.0397994,1903,1142,43.9388,-2.8772
686,-118,43.9269,2.70056,-0.000434459,-0.000892133,0.000700004,7.31636e-05,-0.00139976,0.62742,0.000958489,0.0334247,1910,1142,43.9269,-2.70062
693,-118,43.9192,2.578,-0.000748295,-0.000633903,0.000709904,2.11049e-05,-0.0014033,0.825596,0.000942649,0.0308003,1917,1142,43.9192,-2.57803
700,-118,44.0115,2.6145,-0.00109815,-0.000362898,0.000778029,0.000129986,-0.00159104,1.00611,0.00110657,0.0181666,1924,1142,44.0114,-2.61449
707,-118,44.1002,2.69482,0,0,0,0,0,0,0,-1,1931,1142,44.1002,-2.69481
714,-118,40.5145,7.13306,0,0,0,0,0,0,0,-1,1938,1142,40.5145,-7.13303
721,-118,40.3314,6.75684,-0.00205818,0.000121439,0.00102462,0.000527464,-0.0024642,1.19351,0.00184394,0.0236672,1945,1142,40.3314,-6.75689
728,-118,40.3842,6.40967,-0.00241795,0.000316316,0.00128123,0.000822844,-0.00292448,1.19431,0.00227411,0.0198012,1952,1142,40.3842,-6.40972
735,-118,40.3551,6.11511,-0.00297181,0.00049703,0.00172568,0.00120928,-0.00368406,1.17936,0.00294314,0.0186921,1959,1142,40.3551,-6.11508
742,-118,40.3481,5.84912,-0.0033843,0.000694965,0.00227359,0.00170973,-0.00439906,1.151,0.00363905,0.0243385,1966,1142,40.3481,-5.84909
749,-118,40.3026,5.5033,-0.00266972,0.0016981,0.00267505,0.0029675,-0.00393912,1.12773,0.00400067,0.022198,1973,1142,40.3026,-5.50325
756,-118,40.2872,5.18738,-0.000303358,0.00404457,0.0031039,0.00566011,-0.0019189,1.09089,0.00454998,0.0190971,1980,1142,40.2873,-5.18733
763,-118,40.3113,4.89685,0.00382784,0.00730499,0.00397304,0.0099032,0.00122964,0.991643,0.00623282,0.0106419,1987,1142,40.3113,-4.89685
770,-118,40.25,4.62964,0.00957266,0.0117982,0.00482277,0.0156349,0.00573594,0.89878,0.00913285,0.01318,1994,1142,40.25,-4.62966
777,-118,40.1338,4.34485,0.0173141,0.0177221,0.00572665,0.0232484,0.0117878,0.803199,0.0134229,0.0271873,2001,1142,40.1338,-4.34482
784,-118,39.9451,3.99768,0.027699,0.025715,0.00674592,0.0335255,0.0198885,0.712394,0.0194678,0.0416591,2008,1142,39.945,-3.99771
791,-118,39.1345,3.87939,0,0,0,0,0,0,0,-1,2015,1142,39.1345,-3.87936
798,-118,39.9314,3.15015,0.0600224,0.050137,0.00863688,0.0650309,0.0451285,0.525505,0.0384757,0.0460663,2022,1142,39.9313,-3.15018
805,-118,40.4626,2.42578,0.0832664,0.0676192,0.00937411,0.0876527,0.0632328,0.437657,0.0522339,0.048878,2029,1142,40.4627,-2.42573
812,-118,40.2295,1.96667,0,0,0,0,0,0,0,-1,2036,1142,40.2296,-1.96663
-700,-125,0,0,0,0,0,0,0,0,0,-1,524,1149,0,0
-693,-125,-27.6775,-1.24011,0,0,0,0,0,0,0,-1,531,1149,-27.6775,1.24011
-686,-125,-27.3434,0.0145264,0,0,0,0,0,0,0,-1,538,1149,-27.3434,-0.0145328
-679,-125,-27.0267,1.33911,0.0350388,0.108421,0.0717653,0.152331,-0.00887099,1.02171,0.104636,0.045024,545,1149,-27.0267,-1.33909
-672,-125,-26.6464,2.68823,0.0313992,0.0890724,0.0560566,0.123275,-0.00280299,1.02296,0.0831331,0.0494579,552,1149,-26.6464,-2.68821
-665,-125,-26.266,3.99854,0,0,0,0,0,0,0,-1,559,1149,-26.266,-3.99855
-658,-125,-28.0406,0.569458,0,0,0,0,0,0,0,-1,566,1149,-28.0406,-0.569423
-651,-125,-27.9708,0.994507,0.017455,0.0391476,0.0212129,0.0521263,0.00447636,1.02172,0.033359,0.0401365,573,1149,-27.9708,-0.994484
-644,-125,-27.9832,1.39392,0.0130979,0.0270758,0.0136934,0.0354607,0.00471298,1.02136,0.0222366,0.0279067,580,1149,-27.9832,-1.39388
-637,-125,-28.0383,1.77686,0.00924867,0.0173911,0.00799719,0.0222937,0.00434604,1.02084,0.0136465,0.0144606,587,1149,-28.0383,-1.77684
-630,-125,-28.0537,2.13586,0.00609668,0.00971314,0.00373296,0.0120528,0.00375706,1.01094,0.00712123,0.0147456,594,1149,-28.0537,-2.13584
-623,-125,-28.0821,2.51453,0.00340357,0.00366426,0.000776739,0.00432151,0.00274632,0.868527,0.00252538,0.0126194,601,1149,-28.0821,-2.51447
-616,-125,-28.1207,2.85608,0.00216536,0.00119224,0.000198418,0.00220426,0.00115334,0.193605,0.00127309,0.0187574,608,1149,-28.1207,-2.85606
-609,-125,-28.256,3.11658,0.00189718,0.00111175,0.000327332,0.00201571,0.000993218,0.34742,0.00116381,0.0356496,615,1149,-28.256,-3.11654
-602,-125,-28.2599,3.60144,0.001702,0.00130947,0.000371723,0.00192609,0.00108538,0.542509,0.00111501,0.028322,622,1149,-28.2599,-3.6015
-595,-125,-28.2897,3.97192,0.000998715,0.00173487,0.00055713,0.00203453,0.000699052,1.07732,0.00119364,0.0279313,629,1149,-28.2898,-3.97187
-588,-125,-27.7402,4.3844,0,0,0,0,0,0,0,-1,636,1149,-27.7403,-4.38443
-581,-125,-26.4055,4.83203,0,0,0,0,0,0,0,-1,643,1149,-26.4055,-4.83204
-574,-125,-32.1597,0.621582,0,0,0,0,0,0,0,-1,650,1149,-32.1598,-0.621585
-567,-125,-32.2267,0.667603,0.000605135,0.00289893,0.0015422,0.00367394,-0.000169879,1.10512,0.00250784,0.0454965,657,1149,-32.2267,-0.667605
-560,-125,-32.2505,0.745361,0.000658227,0.00340713,0.00181374,0.00430837,-0.00024301,1.10964,0.00295658,0.038854,664,1149,-32.2505,-0.745401
-553,-125,-32.2514,0.873657,0.000263544,0.00393468,0.00191765,0.00475367,-0.000555449,1.16716,0.00336956,0.0410622,671,1149,-32.2514,-0.87367
-546,-125,-32.27,0.71814,-0.000297294,0.00417555,0.00189304,0.00486917,-0.000990921,1.21958,0.00362189,0.0422883,678,1149,-32.27,-0.718139
-539,-125,-32.3271,1.10803,-0.000437136,0.00382298,0.00195509,0.0045842,-0.00119836,1.1995,0.00352417,0.0422194,685,1149,-32.3271,-1.10804
-532,-125,-32.424,1.56946,0,0,0,0,0,0,0,-1,692,1149,-32.424,-1.56946
-525,-125,-32.1823,0.785767,0,0,0,0,0,0,0,-1,699,1149,-32.1823,-0.785718
-518,-125,0,0,0,0,0,0,0,0,0,-1,706,1149,0,0
-511,-125,0,0,0,0,0,0,0,0,0,-1,713,1149,0,0
-504,-125,0,0,0,0,0,0,0,0,0,-1,720,1149,0,0
-497,-125,0,0,0,0,0,0,0,0,0,-1,727,1149,0,0
-490,-125,0,0,0,0,0,0,0,0,0,-1,734,1149,0,0
-483,-125,0,0,0,0,0,0,0,0,0,-1,741,1149,0,0
-476,-125,0,0,0,0,0,0,0,0,0,-1,748,1149,0,0
-469,-125,0,0,0,0,0,0,0,0,0,-1,755,1149,0,0
-462,-125,0,0,0,0,0,0,0,0,0,-1,762,1149,0,0
-455,-125,0,0,0,0,0,0,0,0,0,-1,769,1149,0,0
-448,-125,0,0,0,0,0,0,0,0,0,-1,776,1149,0,0
-441,-125,0,0,0,0,0,0,0,0,0,-1,783,1149,0,0
-434,-125,0,0,0,0,0,0,0,0,0,-1,790,1149,0,0
-427,-125,0,0,0,0,0,0,0,0,0,-1,797,1149,0,0
-420,-125,0,0,0,0,0,0,0,0,0,-1,804,1149,0,0
-413,-125,0,0,0,0,0,0,0,0,0,-1,811,1149,0,0
-406,-125,0,0,0,0,0,0,0,0,0,-1,818,1149,0,0
-399,-125,0,0,0,0,0,0,0,0,0,-1,825,1149,0,0
-392,-125,0,0,0,0,0,0,0,0,0,-1,832,1149,0,0
-385,-125,0,0,0,0,0,0,0,0,0,-1,839,1149,0,0
-378,-125,0,0,0,0,0,0,0,0,0,-1,846,1149,0,0
-371,-125,0,0,0,0,0,0,0,0,0,-1,853,1149,0,0
-364,-125,0,0,0,0,0,0,0,0,0,-1,860,1149,0,0
-357,-125,0,0,0,0,0,0,0,0,0,-1,867,1149,0,0
-350,-125,0,0,0,0,0,0,0,0,0,-1,874,1149,0,0
-343,-125,0,0,0,0,0,0,0,0,0,-1,881,1149,0,0
-336,-125,0,0,0,0,0,0,0,0,0,-1,888,1149,0,0
-329,-125,0,0,0,0,0,0,0,0,0,-1,895,1149,0,0
-322,-125,0,0,0,0,0,0,0,0,0,-1,902,1149,0,0
-315,-125,0,0,0,0,0,0,0,0,0,-1,909,1149,0,0
-308,-125,0,0,0,0,0,0,0,0,0,-1,916,1149,0,0
-301,-125,0,0,0,0,0,0,0,0,0,-1,923,1149,0,0
-294,-125,0,0,0,0,0,0,0,0,0,-1,930,1149,0,0
-287,-125,0,0,0,0,0,0,0,0,0,-1,937,1149,0,0
-280,-125,0,0,0,0,0,0,0,0,0,-1,944,1149,0,0
-273,-125,0,0,0,0,0,0,0,0,0,-1,951,1149,0,0
-266,-125,0,0,0,0,0,0,0,0,0,-1,958,1149,0,0
-259,-125,0,0,0,0,0,0,0,0,0,-1,965,1149,0,0
-252,-125,0,0,0,0,0,0,0,0,0,-1,972,1149,0,0
-245,-125,0,0,0,0,0,0,0,0,0,-1,979,1149,0,0
-238,-125,0,0,0,0,0,0,0,0,0,-1,986,1149,0,0
-231,-125,0,0,0,0,0,0,0,0,0,-1,993,1149,0,0
-224,-125,0,0,0,0,0,0,0,0,0,-1,1000,1149,0,0
-217,-125,0,0,0,0,0,0,0,0,0,-1,1007,1149,0,0
-210,-125,0,0,0,0,0,0,0,0,0,-1,1014,1149,0,0
-203,-125,0,0,0,0,0,0,0,0,0,-1,1021,1149,0,0
-196,-125,0,0,0,0,0,0,0,0,0,-1,1028,1149,0,0
-189,-125,0,0,0,0,0,0,0,0,0,-1,1035,1149,0,0
-182,-125,0,0,0,0,0,0,0,0,0,-1,1042,1149,0,0
-175,-125,0,0,0,0,0,0,0,0,0,-1,1049,1149,0,0
-168,-125,0,0,0,0,0,0,0,0,0,-1,1056,1149,0,0
-161,-125,0,0,0,0,0,0,0,0,0,-1,1063,1149,0,0
-154,-125,0,0,0,0,0,0,0,0,0,-1,1070,1149,0,0
-147,-125,0,0,0,0,0,0,0,0,0,-1,1077,1149,0,0
-140,-125,0,0,0,0,0,0,0,0,0,-1,1084,1149,0,0
-133,-125,0,0,0,0,0,0,0,0,0,-1,1091,1149,0,0
-126,-125,0,0,0,0,0,0,0,0,0,-1,1098,1149,0,0
-119,-125,0,0,0,0,0,0,0,0,0,-1,1105,1149,0,0
-112,-125,0,0,0,0,0,0,0,0,0,-1,1112,1149,0,0
-105,-125,0,0,0,0,0,0,0,0,0,-1,1119,1149,0,0
-98,-125,0,0,0,0,0,0,0,0,0,-1,1126,1149,0,0
-91,-125,0,0,0,0,0,0,0,0,0,-1,1133,1149,0,0
-84,-125,0,0,0,0,0,0,0,0,0,-1,1140,1149,0,0
-77,-125,0,0,0,0,0,0,0,0,0,-1,1147,1149,0,0
-70,-125,0,0,0,0,0,0,0,0,0,-1,1154,1149,0,0
-63,-125,0,0,0,0,0,0,0,0,0,-1,1161,1149,0,0
-56,-125,0,0,0,0,0,0,0,0,0,-1,1168,1149,0,0
-49,-125,0,0,0,0,0,0,0,0,0,-1,1175,1149,0,0
-42,-125,0,0,0,0,0,0,0,0,0,-1,1182,1149,0,0
-35,-125,0,0,0,0,0,0,0,0,0,-1,1189,1149,0,0
-28,-125,0,0,0,0,0,0,0,0,0,-1,1196,1149,0,0
-21,-125,0,0,0,0,0,0,0,0,0,-1,1203,1149,0,0
-14,-125,0,0,0,0,0,0,0,0,0,-1,1210,1149,0,0
-7,-125,0,0,0,0,0,0,0,0,0,-1,1217,1149,0,0
0,-125,0,0,0,0,0,0,0,0,0,-1,1224,1149,0,0
7,-125,0,0,0,0,0,0,0,0,0,-1,1231,1149,0,0
14,-125,0,0,0,0,0,0,0,0,0,-1,1238,1149,0,0
21,-125,0,0,0,0,0,0,0,0,0,-1,1245,1149,0,0
28,-125,0,0,0,0,0,0,0,0,0,-1,1252,1149,0,0
35,-125,0,0,0,0,0,0,0,0,0,-1,1259,1149,0,0
42,-125,0,0,0,0,0,0,0,0,0,-1,1266,1149,0,0
49,-125,0,0,0,0,0,0,0,0,0,-1,1273,1149,0,0
56,-125,0,0,0,0,0,0,0,0,0,-1,1280,1149,0,0
63,-125,0,0,0,0,0,0,0,0,0,-1,1287,1149,0,0
70,-125,0,0,0,0,0,0,0,0,0,-1,1294,1149,0,0
77,-125,0,0,0,0,0,0,0,0,0,-1,1301,1149,0,0
84,-125,0,0,0,0,0,0,0,0,0,-1,1308,1149,0,0
91,-125,0,0,0,0,0,0,0,0,0,-1,1315,1149,0,0
98,-125,0,0,0,0,0,0,0,0,0,-1,1322,1149,0,0
105,-125,0,0,0,0,0,0,0,0,0,-1,1329,1149,0,0
112,-125,0,0,0,0,0,0,0,0,0,-1,1336,1149,0,0
119,-125,0,0,0,0,0,0,0,0,0,-1,1343,1149,0,0
126,-125,0,0,0,0,0,0,0,0,0,-1,1350,1149,0,0
133,-125,0,0,0,0,0,0,0,0,0,-1,1357,1149,0,0
140,-125,0,0,0,0,0,0,0,0,0,-1,1364,1149,0,0
147,-125,0,0,0,0,0,0,0,0,0,-1,1371,1149,0,0
154,-125,0,0,0,0,0,0,0,0,0,-1,1378,1149,0,0
161,-125,0,0,0,0,0,0,0,0,0,-1,1385,1149,0,0
168,-125,0,0,0,0,0,0,0,0,0,-1,1392,1149,0,0
175,-125,0,0,0,0,0,0,0,0,0,-1,1399,1149,0,0
182,-125,0,0,0,0,0,0,0,0,0,-1,1406,1149,0,0
189,-125,0,0,0,0,0,0,0,0,0,-1,1413,1149,0,0
196,-125,0,0,0,0,0,0,0,0,0,-1,1420,1149,0,0
203,-125,0,0,0,0,0,0,0,0,0,-1,1427,1149,0,0
210,-125,0,0,0,0,0,0,0,0,0,-1,1434,1149,0,0
217,-125,0,0,0,0,0,0,0,0,0,-1,1441,1149,0,0
224,-125,0,0,0,0,0,0,0,0,0,-1,1448,1149,0,0
231,-125,0,0,0,0,0,0,0,0,0,-1,1455,1149,0,0
238,-125,0,0,0,0,0,0,0,0,0,-1,1462,1149,0,0
245,-125,0,0,0,0,0,0,0,0,0,-1,1469,1149,0,0
252,-125,0,0,0,0,0,0,0,0,0,-1,1476,1149,0,0
259,-125,0,0,0,0,0,0,0,0,0,-1,1483,1149,0,0
266,-125,0,0,0,0,0,0,0,0,0,-1,1490,1149,0,0
273,-125,0,0,0,0,0,0,0,0,0,-1,1497,1149,0,0
280,-125,0,0,0,0,0,0,0,0,0,-1,1504,1149,0,0
287,-125,0,0,0,0,0,0,0,0,0,-1,1511,1149,0,0
294,-125,0,0,0,0,0,0,0,0,0,-1,1518,1149,0,0
301,-125,0,0,0,0,0,0,0,0,0,-1,1525,1149,0,0
308,-125,0,0,0,0,0,0,0,0,0,-1,1532,1149,0,0
315,-125,0,0,0,0,0,0,0,0,0,-1,1539,1149,0,0
322,-125,0,0,0,0,0,0,0,0,0,-1,1546,1149,0,0
329,-125,0,0,0,0,0,0,0,0,0,-1,1553,1149,0,0
336,-125,0,0,0,0,0,0,0,0,0,-1,1560,1149,0,0
343,-125,0,0,0,0,0,0,0,0,0,-1,1567,1149,0,0
350,-125,0,0,0,0,0,0,0,0,0,-1,1574,1149,0,0
357,-125,0,0,0,0,0,0,0,0,0,-1,1581,1149,0,0
364,-125,0,0,0,0,0,0,0,0,0,-1,1588,1149,0,0
371,-125,0,0,0,0,0,0,0,0,0,-1,1595,1149,0,0
378,-125,0,0,0,0,0,0,0,0,0,-1,1602,1149,0,0
385,-125,0,0,0,0,0,0,0,0,0,-1,1609,1149,0,0
392,-125,0,0,0,0,0,0,0,0,0,-1,1616,1149,0,0
399,-125,0,0,0,0,0,0,0,0,0,-1,1623,1149,0,0
406,-125,0,0,0,0,0,0,0,0,0,-1,1630,1149,0,0
413,-125,0,0,0,0,0,0,0,0,0,-1,1637,1149,0,0
420,-125,0,0,0,0,0,0,0,0,0,-1,1644,1149,0,0
427,-125,0,0,0,0,0,0,0,0,0,-1,1651,1149,0,0
434,-125,0,0,0,0,0,0,0,0,0,-1,1658,1149,0,0
441,-125,0,0,0,0,0,0,0,0,0,-1,1665,1149,0,0
448,-125,0,0,0,0,0,0,0,0,0,-1,1672,1149,0,0
455,-125,0,0,0,0,0,0,0,0,0,-1,1679,1149,0,0
462,-125,0,0,0,0,0,0,0,0,0,-1,1686,1149,0,0
469,-125,0,0,0,0,0,0,0,0,0,-1,1693,1149,0,0
476,-125,0,0,0,0,0,0,0,0,0,-1,1700,1149,0,0
483,-125,0,0,0,0,0,0,0,0,0,-1,1707,1149,0,0
490,-125,0,0,0,0,0,0,0,0,0,-1,1714,1149,0,0
497,-125,0,0,0,0,0,0,0,0,0,-1,1721,1149,0,0
504,-125,0,0,0,0,0,0,0,0,0,-1,1728,1149,0,0
511,-125,0,0,0,0,0,0,0,0,0,-1,1735,1149,0,0
518,-125,0,0,0,0,0,0,0,0,0,-1,1742,1149,0,0
525,-125,0,0,0,0,0,0,0,0,0,-1,1749,1149,0,0
532,-125,0,0,0,0,0,0,0,0,0,-1,1756,1149,0,0
539,-125,0,0,0,0,0,0,0,0,0,-1,1763,1149,0,0
546,-125,0,0,0,0,0,0,0,0,0,-1,1770,1149,0,0
553,-125,0,0,0,0,0,0,0,0,0,-1,1777,1149,0,0
560,-125,0,0,0,0,0,0,0,0,0,-1,1784,1149,0,0
567,-125,0,0,0,0,0,0,0,0,0,-1,1791,1149,0,0
574,-125,0,0,0,0,0,0,0,0,0,-1,1798,1149,0,0
581,-125,0,0,0,0,0,0,0,0,0,-1,1805,1149,0,0
588,-125,0,0,0,0,0,0,0,0,0,-1,1812,1149,0,0
595,-125,0,0,0,0,0,0,0,0,0,-1,1819,1149,0,0
602,-125,0,0,0,0,0,0,0,0,0,-1,1826,1149,0,0
609,-125,0,0,0,0,0,0,0,0,0,-1,1833,1149,0,0
616,-125,0,0,0,0,0,0,0,0,0,-1,1840,1149,0,0
623,-125,0,0,0,0,0,0,0,0,0,-1,1847,1149,0,0
630,-125,0,0,0,0,0,0,0,0,0,-1,1854,1149,0,0
637,-125,0,0,0,0,0,0,0,0,0,-1,1861,1149,0,0
644,-125,43.7341,3.16541,0,0,0,0,0,0,0,-1,1868,1149,43.7341,-3.16546
651,-125,43.9391,2.28564,0.00257139,-0.00461933,-0.000193019,0.00257657,-0.00462451,-0.0268171,0.00421321,0.039257,1875,1149,43.9391,-2.2857
658,-125,43.9546,2.198,0.00170294,-0.00330029,0.00022887,0.00171339,-0.00331074,0.0456175,0.00294914,0.0420097,1882,1149,43.9546,-2.19803
665,-125,43.9412,2.40723,0.00115921,-0.00226016,0.000446428,0.00121653,-0.00231749,0.127707,0.00207311,0.044146,1889,1149,43.9412,-2.40727
672,-125,43.8575,2.87512,0.000860627,-0.00149955,0.000516218,0.000968595,-0.00160752,0.20618,0.00150249,0.0434075,1896,1149,43.8575,-2.87512
679,-125,43.9821,2.88635,0.000193593,-0.000857659,0.000559459,0.000435611,-0.00109968,0.408284,0.00091362,0.0379778,1903,1149,43.982,-2.88636
686,-125,43.9547,2.77258,-0.00040538,-0.000574774,0.000605898,0.000121712,-0.00110187,0.715955,0.000778327,0.0343533,1910,1149,43.9547,-2.77258
693,-125,43.9199,2.61047,-0.000756265,-0.000292487,0.000634672,0.000151331,-0.00120008,0.960548,0.000854976,0.0285374,1917,1149,43.9199,-2.61049
700,-125,43.9995,2.63098,-0.0011023,-1.29648e-05,0.000712562,0.000339254,-0.00145452,1.11172,0.00110034,0.0126833,1924,1149,43.9995,-2.63104
707,-125,44.1169,2.66565,0,0,0,0,0,0,0,-1,1931,1149,44.1169,-2.66563
714,-125,40.1072,7.06958,0,0,0,0,0,0,0,-1,1938,1149,40.1072,-7.06957
721,-125,40.0483,6.76685,-0.00208217,0.000505304,0.000893444,0.000783826,-0.00236069,1.2686,0.00189005,0.0264656,1945,1149,40.0483,-6.76687
728,-125,40.0021,6.49207,-0.00236647,0.000688712,0.00113942,0.00106685,-0.00274462,1.25036,0.00227051,0.0204241,1952,1149,40.0021,-6.49209
735,-125,39.9951,6.1936,-0.00292709,0.000871045,0.00160631,0.00145928,-0.00351532,1.21976,0.00295273,0.0207624,1959,1149,39.9952,-6.19356
742,-125,40.027,5.83533,-0.00335278,0.00109807,0.0021521,0.00196846,-0.00422317,1.18647,0.00365289,0.0235213,1966,1149,40.0269,-5.83528
749,-125,39.9905,5.49036,-0.00283021,0.00203662,0.00257471,0.00314589,-0.00393949,1.16399,0.00409929,0.0269502,1973,1149,39.9905,-5.49034
756,-125,39.9489,5.18298,-0.000615771,0.00441786,0.00299076,0.00580988,-0.00200779,1.13518,0.00468809,0.0218578,1980,1149,39.9488,-5.18295
763,-125,39.9629,4.87976,0.00330833,0.00780462,0.00377164,0.00994731,0.00116564,1.05416,0.00627916,0.0121671,1987,1149,39.9628,-4.87973
770,-125,39.918,4.5863,0.00875501,0.0124721,0.0044809,0.0154646,0.00576252,0.981987,0.00902456,0.0148681,1994,1149,39.918,-4.58629
777,-125,39.8488,4.34729,0.0162536,0.0187306,0.00516453,0.0228031,0.0121812,0.903079,0.0131756,0.0281112,2001,1149,39.8488,-4.34723
784,-125,39.7146,4.53003,0.0265376,0.0273617,0.00583311,0.0327973,0.021102,0.820659,0.0191934,0.0447083,2008,1149,39.7146,-4.53005
791,-125,39.5364,2.65686,0,0,0,0,0,0,0,-1,2015,1149,39.5365,-2.65681
798,-125,39.6296,2.31311,0.0597679,0.0541214,0.00638761,0.0639284,0.0499609,0.577312,0.0388101,0.042762,2022,1149,39.6296,-2.31314
805,-125,40.6211,1.42139,0.0843562,0.073563,0.00597035,0.0870075,0.0709117,0.417913,0.0534537,0.0469404,2029,1149,40.621,-1.42137
812,-125,39.7605,1.36243,0,0,0,0,0,0,0,-1,2036,1149,39.7604,-1.36238
-700,-132,0,0,0,0,0,0,0,0,0,-1,524,1156,0,0
-693,-132,-23.6656,0.435059,0,0,0,0,0,0,0,-1,531,1156,-23.6656,-0.435112
-686,-132,-27.6524,-1.24255,0,0,0,0,0,0,0,-1,538,1156,-27.6524,1.24254
-679,-132,-27.3875,0.0933838,0.0564644,0.116953,0.0783794,0.170721,0.00269637,0.96953,0.112926,0.0483525,545,1156,-27.3875,-0.0934163
-672,-132,-26.9731,1.67578,0.0537361,0.0956007,0.0616098,0.139737,0.00959976,0.949158,0.0901287,0.0474977,552,1156,-26.9732,-1.67575
-665,-132,-26.8342,2.98413,0,0,0,0,0,0,0,-1,559,1156,-26.8343,-2.98415
-658,-132,-29.0472,0.0175781,0,0,0,0,0,0,0,-1,566,1156,-29.0472,-0.01758
-651,-132,-28.3707,0.70459,0.0308181,0.0423351,0.0244034,0.0616502,0.0115029,0.901264,0.037853,0.0396397,573,1156,-28.3707,-0.70454
-644,-132,-27.6524,1.41614,0.02276,0.0293758,0.0160947,0.0424991,0.00963675,0.88675,0.0257292,0.0217666,580,1156,-27.6524,-1.41613
-637,-132,-27.6692,1.79138,0.0155124,0.0188211,0.0095964,0.0269047,0.00742877,0.870755,0.0160441,0.0121811,587,1156,-27.6692,-1.79135
-630,-132,-27.6691,2.1521,0.00982422,0.010396,0.0046987,0.0148175,0.0054027,0.815781,0.00865878,0.0101461,594,1156,-27.6692,-2.15209
-623,-132,-27.705,2.53455,0.00447801,0.00379025,0.00115648,0.00534065,0.0029276,0.640886,0.00308819,0.0145886,601,1156,-27.705,-2.53449
-616,-132,-27.7348,2.85779,0.00198831,0.00108965,0.000173658,0.0020207,0.00105726,0.1844,0.00116707,0.0255768,608,1156,-27.7348,-2.8578
-609,-132,-27.8326,3.3595,0,0,0,0,0,0,0,-1,615,1156,-27.8326,-3.35951
-602,-132,-27.7786,3.53516,0.00120579,0.00111208,0.000344867,0.00150697,0.000810901,0.717882,0.000870891,0.0270136,622,1156,-27.7786,-3.53518
-595,-132,-27.8701,3.9364,0.000474157,0.00152665,0.000480938,0.00171331,0.000287496,1.20057,0.00105946,0.0379402,629,1156,-27.8701,-3.93646
-588,-132,-27.6641,4.45459,0,0,0,0,0,0,0,-1,636,1156,-27.664,-4.45464
-581,-132,-27.2563,5.05066,0,0,0,0,0,0,0,-1,643,1156,-27.2563,-5.05066
-574,-132,-30.1481,2.64905,0,0,0,0,0,0,0,-1,650,1156,-30.1481,-2.64904
-567,-132,-32.2103,0.663818,0,0,0,0,0,0,0,-1,657,1156,-32.2103,-0.663805
-560,-132,-32.2928,0.75415,0.000156777,0.0031706,0.0016222,0.0038778,-0.00055043,1.15968,0.00278686,0.0350709,664,1156,-32.2928,-0.75412
-553,-132,-32.3718,0.835815,-0.000219017,0.00375486,0.00172802,0.00440117,-0.000865325,1.21289,0.00326105,0.037152,671,1156,-32.3718,-0.835839
-546,-132,-32.488,0.861328,-0.000651731,0.00411037,0.00173693,0.00467658,-0.00121793,1.25568,0.00359317,0.0419999,678,1156,-32.4881,-0.861291
-539,-132,-32.474,1.03601,-0.000747724,0.0040812,0.001881,0.00472743,-0.00139395,1.23988,0.00370474,0.0423538,685,1156,-32.474,-1.03606
-532,-132,-32.4412,1.16418,-0.000429111,0.00347676,0.00201123,0.00432722,-0.00127957,1.17074,0.00339274,0.0400784,692,1156,-32.4412,-1.16418
-525,-132,-32.329,1.04297,6.58275e-05,0.00257212,0.00202148,0.00369736,-0.00105942,1.06287,0.00288366,0.0412449,699,1156,-32.329,-1.04292
-518,-132,0,0,0,0,0,0,0,0,0,-1,706,1156,0,0
-511,-132,0,0,0,0,0,0,0,0,0,-1,713,1156,0,0
-504,-132,0,0,0,0,0,0,0,0,0,-1,720,1156,0,0
-497,-132,0,0,0,0,0,0,0,0,0,-1,727,1156,0,0
-490,-132,0,0,0,0,0,0,0,0,0,-1,734,1156,0,0
-483,-132,0,0,0,0,0,0,0,0,0,-1,741,1156,0,0
-476,-132,0,0,0,0,0,0,0,0,0,-1,748,1156,0,0
-469,-132,0,0,0,0,0,0,0,0,0,-1,755,1156,0,0
-462,-132,0,0,0,0,0,0,0,0,0,-1,762,1156,0,0
-455,-132,0,0,0,0,0,0,0,0,0,-1,769,1156,0,0
-448,-132,0,0,0,0,0,0,0,0,0,-1,776,1156,0,0
-441,-132,0,0,0,0,0,0,0,0,0,-1,783,1156,0,0
-434,-132,0,0,0,0,0,0,0,0,0,-1,790,1156,0,0
-427,-132,0,0,0,0,0,0,0,0,0,-1,797,1156,0,0
-420,-132,0,0,0,0,0,0,0,0,0,-1,804,1156,0,0
-413,-132,0,0,0,0,0,0,0,0,0,-1,811,1156,0,0
-406,-132,0,0,0,0,0,0,0,0,0,-1,818,1156,0,0
-399,-132,0,0,0,0,0,0,0,0,0,-1,825,1156,0,0
-392,-132,0,0,0,0,0,0,0,0,0,-1,832,1156,0,0
-385,-132,0,0,0,0,0,0,0,0,0,-1,839,1156,0,0
-378,-132,0,0,0,0,0,0,0,0,0,-1,846,1156,0,0
-371,-132,0,0,0,0,0,0,0,0,0,-1,853,1156,0,0
-364,-132,0,0,0,0,0,0,0,0,0,-1,860,1156,0,0
-357,-132,0,0,0,0,0,0,0,0,0,-1,867,1156,0,0
-350,-132,0,0,0,0,0,0,0,0,0,-1,874,1156,0,0
-343,-132,0,0,0,0,0,0,0,0,0,-1,881,1156,0,0
-336,-132,0,0,0,0,0,0,0,0,0,-1,888,1156,0,0
-329,-132,0,0,0,0,0,0,0,0,0,-1,895,1156,0,0
-322,-132,0,0,0,0,0,0,0,0,0,-1,902,1156,0,0
-315,-132,0,0,0,0,0,0,0,0,0,-1,909,1156,0,0
-308,-132,0,0,0,0,0,0,0,0,0,-1,916,1156,0,0
-301,-132,0,0,0,0,0,0,0,0,0,-1,923,1156,0,0
-294,-132,0,0,0,0,0,0,0,0,0,-1,930,1156,0,0
-287,-132,0,0,0,0,0,0,0,0,0,-1,937,1156,0,0
-280,-132,0,0,0,0,0,0,0,0,0,-1,944,1156,0,0
-273,-132,0,0,0,0,0,0,0,0,0,-1,951,1156,0,0
-266,-132,0,0,0,0,0,0,0,0,0,-1,958,1156,0,0
-259,-132,0,0,0,0,0,0,0,0,0,-1,965,1156,0,0
-252,-132,0,0,0,0,0,0,0,0,0,-1,972,1156,0,0
-245,-132,0,0,0,0,0,0,0,0,0,-1,979,1156,0,0
-238,-132,0,0,0,0,0,0,0,0,0,-1,986,1156,0,0
-231,-132,0,0,0,0,0,0,0,0,0,-1,993,1156,0,0
-224,-132,0,0,0,0,0,0,0,0,0,-1,1000,1156,0,0
-217,-132,0,0,0,0,0,0,0,0,0,-1,1007,1156,0,0
-210,-132,0,0,0,0,0,0,0,0,0,-1,1014,1156,0,0
-203,-132,0,0,0,0,0,0,0,0,0,-1,1021,1156,0,0
-196,-132,0,0,0,0,0,0,0,0,0,-1,1028,1156,0,0
-189,-132,0,0,0,0,0,0,0,0,0,-1,1035,1156,0,0
-182,-132,0,0,0,0,0,0,0,0,0,-1,1042,1156,0,0
-175,-132,0,0,0,0,0,0,0,0,0,-1,1049,1156,0,0
-168,-132,0,0,0,0,0,0,0,0,0,-1,1056,1156,0,0
-161,-132,0,0,0,0,0,0,0,0,0,-1,1063,1156,0,0
-154,-132,0,0,0,0,0,0,0,0,0,-1,1070,1156,0,0
-147,-132,0,0,0,0,0,0,0,0,0,-1,1077,1156,0,0
-140,-132,0,0,0,0,0,0,0,0,0,-1,1084,1156,0,0
-133,-132,0,0,0,0,0,0,0,0,0,-1,1091,1156,0,0
-126,-132,0,0,0,0,0,0,0,0,0,-1,1098,1156,0,0
-119,-132,0,0,0,0,0,0,0,0,0,-1,1105,1156,0,0
-112,-132,0,0,0,0,0,0,0,0,0,-1,1112,1156,0,0
-105,-132,0,0,0,0,0,0,0,0,0,-1,1119,1156,0,0
-98,-132,0,0,0,0,0,0,0,0,0,-1,1126,1156,0,0
-91,-132,0,0,0,0,0,0,0,0,0,-1,1133,1156,0,0
-84,-132,0,0,0,0,0,0,0,0,0,-1,1140,1156,0,0
-77,-132,0,0,0,0,0,0,0,0,0,-1,1147,1156,0,0
-70,-132,0,0,0,0,0,0,0,0,0,-1,1154,1156,0,0
-63,-132,0,0,0,0,0,0,0,0,0,-1,1161,1156,0,0
-56,-132,0,0,0,0,0,0,0,0,0,-1,1168,1156,0,0
-49,-132,0,0,0,0,0,0,0,0,0,-1,1175,1156,0,0
-42,-132,0,0,0,0,0,0,0,0,0,-1,1182,1156,0,0
-35,-132,0,0,0,0,0,0,0,0,0,-1,1189,1156,0,0
-28,-132,0,0,0,0,0,0,0,0,0,-1,1196,1156,0,0
-21,-132,0,0,0,0,0,0,0,0,0,-1,1203,1156,0,0
-14,-132,0,0,0,0,0,0,0,0,0,-1,1210,1156,0,0
-7,-132,0,0,0,0,0,0,0,0,0,-1,1217,1156,0,0
0,-132,0,0,0,0,0,0,0,0,0,-1,1224,1156,0,0
7,-132,0,0,0,0,0,0,0,0,0,-1,1231,1156,0,0
14,-132,0,0,0,0,0,0,0,0,0,-1,1238,1156,0,0
21,-132,0,0,0,0,0,0,0,0,0,-1,1245,1156,0,0
28,-132,0,0,0,0,0,0,0,0,0,-1,1252,1156,0,0
35,-132,0,0,0,0,0,0,0,0,0,-1,1259,1156,0,0
42,-132,0,0,0,0,0,0,0,0,0,-1,1266,1156,0,0
49,-132,0,0,0,0,0,0,0,0,0,-1,1273,1156,0,0
56,-132,0,0,0,0,0,0,0,0,0,-1,1280,1156,0,0
63,-132,0,0,0,0,0,0,0,0,0,-1,1287,1156,0,0
70,-132,0,0,0,0,0,0,0,0,0,-1,1294,1156,0,0
77,-132,0,0,0,0,0,0,0,0,0,-1,1301,1156,0,0
84,-132,0,0,0,0,0,0,0,0,0,-1,1308,1156,0,0
91,-132,0,0,0,0,0,0,0,0,0,-1,1315,1156,0,0
98,-132,0,0,0,0,0,0,0,0,0,-1,1322,1156,0,0
105,-132,0,0,0,0,0,0,0,0,0,-1,1329,1156,0,0
112,-132,0,0,0,0,0,0,0,0,0,-1,1336,1156,0,0
119,-132,0,0,0,0,0,0,0,0,0,-1,1343,1156,0,0
126,-132,0,0,0,0,0,0,0,0,0,-1,1350,1156,0,0
133,-132,0,0,0,0,0,0,0,0,0,-1,1357,1156,0,0
140,-132,0,0,0,0,0,0,0,0,0,-1,1364,1156,0,0
147,-132,0,0,0,0,0,0,0,0,0,-1,1371,1156,0,0
154,-132,0,0,0,0,0,0,0,0,0,-1,1378,1156,0,0
161,-132,0,0,0,0,0,0,0,0,0,-1,1385,1156,0,0
168,-132,0,0,0,0,0,0,0,0,0,-1,1392,1156,0,0
175,-132,0,0,0,0,0,0,0,0,0,-1,1399,1156,0,0
182,-132,0,0,0,0,0,0,0,0,0,-1,1406,1156,0,0
189,-132,0,0,0,0,0,0,0,0,0,-1,1413,1156,0,0
196,-132,0,0,0,0,0,0,0,0,0,-1,1420,1156,0,0
203,-132,0,0,0,0,0,0,0,0,0,-1,1427,1156,0,0
210,-132,0,0,0,0,0,0,0,0,0,-1,1434,1156,0,0
217,-132,0,0,0,0,0,0,0,0,0,-1,1441,1156,0,0
224,-132,0,0,0,0,0,0,0,0,0,-1,1448,1156,0,0
231,-132,0,0,0,0,0,0,0,0,0,-1,1455,1156,0,0
238,-132,0,0,0,0,0,0,0,0,0,-1,1462,1156,0,0
245,-132,0,0,0,0,0,0,0,0,0,-1,1469,1156,0,0
252,-132,0,0,0,0,0,0,0,0,0,-1,1476,1156,0,0
259,-132,0,0,0,0,0,0,0,0,0,-1,1483,1156,0,0
266,-132,0,0,0,0,0,0,0,0,0,-1,1490,1156,0,0
273,-132,0,0,0,0,0,0,0,0,0,-1,1497,1156,0,0
280,-132,0,0,0,0,0,0,0,0,0,-1,1504,1156,0,0
287,-132,0,0,0,0,0,0,0,0,0,-1,1511,1156,0,0
294,-132,0,0,0,0,0,0,0,0,0,-1,1518,1156,0,0
301,-132,0,0,0,0,0,0,0,0,0,-1,1525,1156,0,0
308,-132,0,0,0,0,0,0,0,0,0,-1,1532,1156,0,0
315,-132,0,0,0,0,0,0,0,0,0,-1,1539,1156,0,0
322,-132,0,0,0,0,0,0,0,0,0,-1,1546,1156,0,0
329,-132,0,0,0,0,0,0,0,0,0,-1,1553,1156,0,0
336,-132,0,0,0,0,0,0,0,0,0,-1,1560,1156,0,0
343,-132,0,0,0,0,0,0,0,0,0,-1,1567,1156,0,0
350,-132,0,0,0,0,0,0,0,0,0,-1,1574,1156,0,0
357,-132,0,0,0,0,0,0,0,0,0,-1,1581,1156,0,0
364,-132,0,0,0,0,0,0,0,0,0,-1,1588,1156,0,0
371,-132,0,0,0,0,0,0,0,0,0,-1,1595,1156,0,0
378,-132,0,0,0,0,0,0,0,0,0,-1,1602,1156,0,0
385,-132,0,0,0,0,0,0,0,0,0,-1,1609,1156,0,0
392,-132,0,0,0,0,0,0,0,0,0,-1,1616,1156,0,0
399,-132,0,0,0,0,0,0,0,0,0,-1,1623,1156,0,0
406,-132,0,0,0,0,0,0,0,0,0,-1,1630,1156,0,0
413,-132,0,0,0,0,0,0,0,0,0,-1,1637,1156,0,0
420,-132,0,0,0,0,0,0,0,0,0,-1,1644,1156,0,0
427,-132,0,0,0,0,0,0,0,0,0,-1,1651,1156,0,0
434,-132,0,0,0,0,0,0,0,0,0,-1,1658,1156,0,0
441,-132,0,0,0,0,0,0,0,0,0,-1,1665,1156,0,0
448,-132,0,0,0,0,0,0,0,0,0,-1,1672,1156,0,0
455,-132,0,0,0,0,0,0,0,0,0,-1,1679,1156,0,0
462,-132,0,0,0,0,0,0,0,0,0,-1,1686,1156,0,0
469,-132,0,0,0,0,0,0,0,0,0,-1,1693,1156,0,0
476,-132,0,0,0,0,0,0,0,0,0,-1,1700,1156,0,0
483,-132,0,0,0,0,0,0,0,0,0,-1,1707,1156,0,0
490,-132,0,0,0,0,0,0,0,0,0,-1,1714,1156,0,0
497,-132,0,0,0,0,0,0,0,0,0,-1,1721,1156,0,0
504,-132,0,0,0,0,0,0,0,0,0,-1,1728,1156,0,0
511,-132,0,0,0,0,0,0,0,0,0,-1,1735,1156,0,0
518,-132,0,0,0,0,0,0,0,0,0,-1,1742,1156,0,0
525,-132,0,0,0,0,0,0,0,0,0,-1,1749,1156,0,0
532,-132,0,0,0,0,0,0,0,0,0,-1,1756,1156,0,0
539,-132,0,0,0,0,0,0,0,0,0,-1,1763,1156,0,0
546,-132,0,0,0,0,0,0,0,0,0,-1,1770,1156,0,0
553,-132,0,0,0,0,0,0,0,0,0,-1,1777,1156,0,0
560,-132,0,0,0,0,0,0,0,0,0,-1,1784,1156,0,0
567,-132,0,0,0,0,0,0,0,0,0,-1,1791,1156,0,0
574,-132,0,0,0,0,0,0,0,0,0,-1,1798,1156,0,0
581,-132,0,0,0,0,0,0,0,0,0,-1,1805,1156,0,0
588,-132,0,0,0,0,0,0,0,0,0,-1,1812,1156,0,0
595,-132,0,0,0,0,0,0,0,0,0,-1,1819,1156,0,0
602,-132,0,0,0,0,0,0,0,0,0,-1,1826,1156,0,0
609,-132,0,0,0,0,0,0,0,0,0,-1,1833,1156,0,0
616,-132,0,0,0,0,0,0,0,0,0,-1,1840,1156,0,0
623,-132,0,0,0,0,0,0,0,0,0,-1,1847,1156,0,0
630,-132,0,0,0,0,0,0,0,0,0,-1,1854,1156,0,0
637,-132,0,0,0,0,0,0,0,0,0,-1,1861,1156,0,0
644,-132,44.2123,2.39319,0.00382995,-0.0068935,-0.000809051,0.00389065,-0.0069542,-0.0748819,0.00634401,0.0399725,1868,1156,44.2123,-2.39321
651,-132,44.0469,2.34729,0.00245808,-0.00491021,-8.63391e-05,0.00245909,-0.00491122,-0.0117155,0.00433304,0.0406838,1875,1156,44.0469,-2.34725
658,-132,43.991,2.32202,0.00167317,-0.00343814,0.000315318,0.00169255,-0.00345751,0.06138,0.00303103,0.0413424,1882,1156,43.9909,-2.32201
665,-132,43.886,2.49866,0.00118508,-0.00221638,0.000478567,0.00125113,-0.00228243,0.137148,0.00206886,0.0410809,1889,1156,43.886,-2.49866
672,-132,43.8236,2.79651,0.00085597,-0.00134365,0.000525373,0.000975011,-0.00146269,0.222822,0.00141677,0.0399379,1896,1156,43.8236,-2.79655
679,-132,43.9817,2.81482,0.000141825,-0.000574661,0.000518222,0.000413575,-0.000846411,0.482969,0.000741623,0.0387538,1903,1156,43.9817,-2.81476
686,-132,44.0034,2.71216,-0.000495076,-0.000286821,0.000575182,0.000193583,-0.00097548,0.874945,0.000723532,0.0369984,1910,1156,44.0035,-2.71212
693,-132,43.9639,2.64685,-0.000922591,-3.52075e-05,0.000646057,0.000304843,-0.00126264,1.08629,0.000959653,0.0284058,1917,1156,43.9638,-2.64691
700,-132,44.0232,2.63745,-0.00129184,0.000211317,0.000757767,0.000527015,-0.00160754,1.17605,0.00128394,0.0349725,1924,1156,44.0231,-2.63741
707,-132,44.0798,2.62854,0,0,0,0,0,0,0,-1,1931,1156,44.0799,-2.6286
714,-132,39.6594,7.05737,0,0,0,0,0,0,0,-1,1938,1156,39.6594,-7.05738
721,-132,39.7308,6.76599,-0.00228581,0.000717003,0.000923179,0.000978118,-0.00254692,1.29515,0.00210129,0.032761,1945,1156,39.7309,-6.76603
728,-132,39.6708,6.50281,-0.00250178,0.000879192,0.0011692,0.00124413,-0.00286672,1.26825,0.00243425,0.0243641,1952,1156,39.6708,-6.50277
735,-132,39.6202,6.23816,-0.00300636,0.00105724,0.0016229,0.00162583,-0.00357495,1.23381,0.00307216,0.0251402,1959,1156,39.6202,-6.23816
742,-132,39.6509,5.8385,-0.00336351,0.00130359,0.0021422,0.00213776,-0.00419768,1.19946,0.00372166,0.0192784,1966,1156,39.6509,-5.83855
749,-132,39.6427,5.48096,-0.00295556,0.00219607,0.002586,0.00327022,-0.00402971,1.17711,0.00422221,0.0233594,1973,1156,39.6427,-5.48094
756,-132,39.6232,5.18066,-0.000885354,0.00459468,0.00300291,0.00591978,-0.00221045,1.15523,0.00485411,0.0216158,1980,1156,39.6231,-5.18066
763,-132,39.599,4.87427,0.00276148,0.00805472,0.0037141,0.00996871,0.000847491,1.09496,0.00638209,0.0136618,1987,1156,39.599,-4.87425
770,-132,39.6007,4.58386,0.00783246,0.0128199,0.00431131,0.0153067,0.00534561,1.04759,0.00897025,0.0136207,1994,1156,39.6008,-4.58387
777,-132,39.5245,4.24023,0,0,0,0,0,0,0,-1,2001,1156,39.5245,-4.24027
784,-132,39.5056,4.59534,0,0,0,0,0,0,0,-1,2008,1156,39.5056,-4.5953
791,-132,39.4868,4.95032,0,0,0,0,0,0,0,-1,2015,1156,39.4868,-4.95033
798,-132,38.9514,1.48633,0,0,0,0,0,0,0,-1,2022,1156,38.9515,-1.48636
805,-132,39.8694,0.280273,0,0,0,0,0,0,0,-1,2029,1156,39.8694,-0.280224
812,-132,40.9297,-0.924683,0,0,0,0,0,0,0,-1,2036,1156,40.9296,0.924656
-700,-139,0,0,0,0,0,0,0,0,0,-1,524,1163,0,0
-693,-139,-22.2555,-0.307129,0,0,0,0,0,0,0,-1,531,1163,-22.2555,0.307108
-686,-139,-27.0533,-1.9071,0,0,0,0,0,0,0,-1,538,1163,-27.0533,1.90707
-679,-139,-27.0189,-0.665039,0,0,0,0,0,0,0,-1,545,1163,-27.0189,0.664988
-672,-139,-26.9437,0.569702,0,0,0,0,0,0,0,-1,552,1163,-26.9437,-0.569713
-665,-139,-29.0977,-0.798096,0,0,0,0,0,0,0,-1,559,1163,-29.0977,0.79807
-658,-139,-28.587,-0.109497,0,0,0,0,0,0,0,-1,566,1163,-28.587,0.109464
-651,-139,-27.9042,0.726196,0.0330779,0.0414714,0.02188,0.0595535,0.0149958,0.88015,0.0357674,0.0396333,573,1163,-27.9042,-0.72625
-644,-139,-27.2922,1.41553,0.0243799,0.0288206,0.0143316,0.0411029,0.0120977,0.86225,0.0243908,0.0213643,580,1163,-27.2921,-1.41551
-637,-139,-27.2697,1.77869,0.0164819,0.0184572,0.00844691,0.025974,0.00896506,0.843596,0.0152339,0.0121441,587,1163,-27.2697,-1.77874
-630,-139,-27.2861,2.14697,0.0103512,0.0100912,0.00400181,0.0142251,0.00621727,0.76916,0.00823453,0.0104046,594,1163,-27.2861,-2.14695
-623,-139,-27.326,2.51917,0.0044175,0.00372707,0.00088355,0.00502088,0.00312369,0.59916,0.0029275,0.0164383,601,1163,-27.3261,-2.51913
-616,-139,-27.3411,2.87964,0.00163866,0.0010481,-0.00011004,0.0016585,0.00102827,-0.17836,0.000966683,0.0188441,608,1163,-27.341,-2.87968
-609,-139,-27.2061,3.25049,0.00105583,0.000963883,7.59012e-05,0.00109859,0.000921117,0.513105,0.00068099,0.0368611,615,1163,-27.2061,-3.25048
-602,-139,-27.4026,3.61609,0.000684531,0.00114937,9.39558e-05,0.00116764,0.000666259,1.37871,0.000676373,0.0341097,622,1163,-27.4026,-3.61607
-595,-139,-27.5118,4.0188,-7.75074e-06,0.00157314,0.000191156,0.00159593,-3.05361e-05,1.45216,0.00107427,0.037444,629,1163,-27.5119,-4.01884
-588,-139,-27.6507,4.36377,0,0,0,0,0,0,0,-1,636,1163,-27.6507,-4.36378
-581,-139,-29.3637,3.54138,0,0,0,0,0,0,0,-1,643,1163,-29.3637,-3.54141
-574,-139,-23.0725,2.4043,0,0,0,0,0,0,0,-1,650,1163,-23.0725,-2.40433
-567,-139,-32.1778,0.678101,0,0,0,0,0,0,0,-1,657,1163,-32.1778,-0.678043
-560,-139,-32.253,0.765381,-0.000234274,0.00320277,0.00128815,0.00363196,-0.000663463,1.24918,0.00267008,0.0350001,664,1163,-32.253,-0.765376
-553,-139,-32.3165,0.86145,-0.000593551,0.00380115,0.00139329,0.00420565,-0.000998045,1.28825,0.00318894,0.0366131,671,1163,-32.3164,-0.86148
-546,-139,-32.4116,0.845825,-0.000877776,0.0042123,0.00145475,0.00459873,-0.00126421,1.31116,0.00356279,0.0401413,678,1163,-32.4116,-0.845856
-539,-139,-32.3282,0.812378,-0.000869226,0.00445502,0.00175266,0.00498017,-0.00139438,1.27968,0.00386958,0.039953,685,1163,-32.3283,-0.812418
-532,-139,-32.3582,0.918213,-0.000544616,0.00417534,0.00208138,0.00496205,-0.00133133,1.20942,0.00382974,0.0380423,692,1163,-32.3582,-0.918169
-525,-139,-32.3652,0.984131,-3.02672e-05,0.00365207,0.00232378,0.00477567,-0.00115386,1.12042,0.00363005,0.0395945,699,1163,-32.3652,-0.984138
-518,-139,0,0,0,0,0,0,0,0,0,-1,706,1163,0,0
-511,-139,0,0,0,0,0,0,0,0,0,-1,713,1163,0,0
-504,-139,0,0,0,0,0,0,0,0,0,-1,720,1163,0,0
-497,-139,0,0,0,0,0,0,0,0,0,-1,727,1163,0,0
-490,-139,0,0,0,0,0,0,0,0,0,-1,734,1163,0,0
-483,-139,0,0,0,0,0,0,0,0,0,-1,741,1163,0,0
-476,-139,0,0,0,0,0,0,0,0,0,-1,748,1163,0,0
-469,-139,0,0,0,0,0,0,0,0,0,-1,755,1163,0,0
-462,-139,0,0,0,0,0,0,0,0,0,-1,762,1163,0,0
-455,-139,0,0,0,0,0,0,0,0,0,-1,769,1163,0,0
-448,-139,0,0,0,0,0,0,0,0,0,-1,776,1163,0,0
-441,-139,0,0,0,0,0,0,0,0,0,-1,783,1163,0,0
-434,-139,0,0,0,0,0,0,0,0,0,-1,790,1163,0,0
-427,-139,0,0,0,0,0,0,0,0,0,-1,797,1163,0,0
-420,-139,0,0,0,0,0,0,0,0,0,-1,804,1163,0,0
-413,-139,0,0,0,0,0,0,0,0,0,-1,811,1163,0,0
-406,-139,0,0,0,0,0,0,0,0,0,-1,818,1163,0,0
-399,-139,0,0,0,0,0,0,0,0,0,-1,825,1163,0,0
-392,-139,0,0,0,0,0,0,0,0,0,-1,832,1163,0,0
-385,-139,0,0,0,0,0,0,0,0,0,-1,839,1163,0,0
-378,-139,0,0,0,0,0,0,0,0,0,-1,846,1163,0,0
-371,-139,0,0,0,0,0,0,0,0,0,-1,853,1163,0,0
-364,-139,0,0,0,0,0,0,0,0,0,-1,860,1163,0,0
-357,-139,0,0,0,0,0,0,0,0,0,-1,867,1163,0,0
-350,-139,0,0,0,0,0,0,0,0,0,-1,874,1163,0,0
-343,-139,0,0,0,0,0,0,0,0,0,-1,881,1163,0,0
-336,-139,0,0,0,0,0,0,0,0,0,-1,888,1163,0,0
-329,-139,0,0,0,0,0,0,0,0,0,-1,895,1163,0,0
-322,-139,0,0,0,0,0,0,0,0,0,-1,902,1163,0,0
-315,-139,0,0,0,0,0,0,0,0,0,-1,909,1163,0,0
-308,-139,0,0,0,0,0,0,0,0,0,-1,916,1163,0,0
-301,-139,0,0,0,0,0,0,0,0,0,-1,923,1163,0,0
-294,-139,0,0,0,0,0,0,0,0,0,-1,930,1163,0,0
-287,-139,0,0,0,0,0,0,0,0,0,-1,937,1163,0,0
-280,-139,0,0,0,0,0,0,0,0,0,-1,944,1163,0,0
-273,-139,0,0,0,0,0,0,0,0,0,-1,951,1163,0,0
-266,-139,0,0,0,0,0,0,0,0,0,-1,958,1163,0,0
-259,-139,0,0,0,0,0,0,0,0,0,-1,965,1163,0,0
-252,-139,0,0,0,0,0,0,0,0,0,-1,972,1163,0,0
-245,-139,0,0,0,0,0,0,0,0,0,-1,979,1163,0,0
-238,-139,0,0,0,0,0,0,0,0,0,-1,986,1163,0,0
-231,-139,0,0,0,0,0,0,0,0,0,-1,993,1163,0,0
-224,-139,0,0,0,0,0,0,0,0,0,-1,1000,1163,0,0
-217,-139,0,0,0,0,0,0,0,0,0,-1,1007,1163,0,0
-210,-139,0,0,0,0,0,0,0,0,0,-1,1014,1163,0,0
-203,-139,0,0,0,0,0,0,0,0,0,-1,1021,1163,0,0
-196,-139,0,0,0,0,0,0,0,0,0,-1,1028,1163,0,0
-189,-139,0,0,0,0,0,0,0,0,0,-1,1035,1163,0,0
-182,-139,0,0,0,0,0,0,0,0,0,-1,1042,1163,0,0
-175,-139,0,0,0,0,0,0,0,0,0,-1,1049,1163,0,0
-168,-139,0,0,0,0,0,0,0,0,0,-1,1056,1163,0,0
-161,-139,0,0,0,0,0,0,0,0,0,-1,1063,1163,0,0
-154,-139,0,0,0,0,0,0,0,0,0,-1,1070,1163,0,0
-147,-139,0,0,0,0,0,0,0,0,0,-1,1077,1163,0,0
-140,-139,0,0,0,0,0,0,0,0,0,-1,1084,1163,0,0
-133,-139,0,0,0,0,0,0,0,0,0,-1,1091,1163,0,0
-126,-139,0,0,0,0,0,0,0,0,0,-1,1098,1163,0,0
-119,-139,0,0,0,0,0,0,0,0,0,-1,1105,1163,0,0
-112,-139,0,0,0,0,0,0,0,0,0,-1,1112,1163,0,0
-105,-139,0,0,0,0,0,0,0,0,0,-1,1119,1163,0,0
-98,-139,0,0,0,0,0,0,0,0,0,-1,1126,1163,0,0
-91,-139,0,0,0,0,0,0,0,0,0,-1,1133,1163,0,0
-84,-139,0,0,0,0,0,0,0,0,0,-1,1140,1163,0,0
-77,-139,0,0,0,0,0,0,0,0,0,-1,1147,1163,0,0
-70,-139,0,0,0,0,0,0,0,0,0,-1,1154,1163,0,0
-63,-139,0,0,0,0,0,0,0,0,0,-1,1161,1163,0,0
-56,-139,0,0,0,0,0,0,0,0,0,-1,1168,1163,0,0
-49,-139,0,0,0,0,0,0,0,0,0,-1,1175,1163,0,0
-42,-139,0,0,0,0,0,0,0,0,0,-1,1182,1163,0,0
-35,-139,0,0,0,0,0,0,0,0,0,-1,1189,1163,0,0
-28,-139,0,0,0,0,0,0,0,0,0,-1,1196,1163,0,0
-21,-139,0,0,0,0,0,0,0,0,0,-1,1203,1163,0,0
-14,-139,0,0,0,0,0,0,0,0,0,-1,1210,1163,0,0
-7,-139,0,0,0,0,0,0,0,0,0,-1,1217,1163,0,0
0,-139,0,0,0,0,0,0,0,0,0,-1,1224,1163,0,0
7,-139,0,0,0,0,0,0,0,0,0,-1,1231,1163,0,0
14,-139,0,0,0,0,0,0,0,0,0,-1,1238,1163,0,0
21,-139,0,0,0,0,0,0,0,0,0,-1,1245,1163,0,0
28,-139,0,0,0,0,0,0,0,0,0,-1,1252,1163,0,0
35,-139,0,0,0,0,0,0,0,0,0,-1,1259,1163,0,0
42,-139,0,0,0,0,0,0,0,0,0,-1,1266,1163,0,0
49,-139,0,0,0,0,0,0,0,0,0,-1,1273,1163,0,0
56,-139,0,0,0,0,0,0,0,0,0,-1,1280,1163,0,0
63,-139,0,0,0,0,0,0,0,0,0,-1,1287,1163,0,0
70,-139,0,0,0,0,0,0,0,0,0,-1,1294,1163,0,0
77,-139,0,0,0,0,0,0,0,0,0,-1,1301,1163,0,0
84,-139,0,0,0,0,0,0,0,0,0,-1,1308,1163,0,0
91,-139,0,0,0,0,0,0,0,0,0,-1,1315,1163,0,0
98,-139,0,0,0,0,0,0,0,0,0,-1,1322,1163,0,0
105,-139,0,0,0,0,0,0,0,0,0,-1,1329,1163,0,0
112,-139,0,0,0,0,0,0,0,0,0,-1,1336,1163,0,0
119,-139,0,0,0,0,0,0,0,0,0,-1,1343,1163,0,0
126,-139,0,0,0,0,0,0,0,0,0,-1,1350,1163,0,0
133,-139,0,0,0,0,0,0,0,0,0,-1,1357,1163,0,0
140,-139,0,0,0,0,0,0,0,0,0,-1,1364,1163,0,0
147,-139,0,0,0,0,0,0,0,0,0,-1,1371,1163,0,0
154,-139,0,0,0,0,0,0,0,0,0,-1,1378,1163,0,0
161,-139,0,0,0,0,0,0,0,0,0,-1,1385,1163,0,0
168,-139,0,0,0,0,0,0,0,0,0,-1,1392,1163,0,0
175,-139,0,0,0,0,0,0,0,0,0,-1,1399,1163,0,0
182,-139,0,0,0,0,0,0,0,0,0,-1,1406,1163,0,0
189,-139,0,0,0,0,0,0,0,0,0,-1,1413,1163,0,0
196,-139,0,0,0,0,0,0,0,0,0,-1,1420,1163,0,0
203,-139,0,0,0,0,0,0,0,0,0,-1,1427,1163,0,0
210,-139,0,0,0,0,0,0,0,0,0,-1,1434,1163,0,0
217,-139,0,0,0,0,0,0,0,0,0,-1,1441,1163,0,0
224,-139,0,0,0,0,0,0,0,0,0,-1,1448,1163,0,0
231,-139,0,0,0,0,0,0,0,0,0,-1,1455,1163,0,0
238,-139,0,0,0,0,0,0,0,0,0,-1,1462,1163,0,0
245,-139,0,0,0,0,0,0,0,0,0,-1,1469,1163,0,0
252,-139,0,0,0,0,0,0,0,0,0,-1,1476,1163,0,0
259,-139,0,0,0,0,0,0,0,0,0,-1,1483,1163,0,0
266,-139,0,0,0,0,0,0,0,0,0,-1,1490,1163,0,0
273,-139,0,0,0,0,0,0,0,0,0,-1,1497,1163,0,0
280,-139,0,0,0,0,0,0,0,0,0,-1,1504,1163,0,0
287,-139,0,0,0,0,0,0,0,0,0,-1,1511,1163,0,0
294,-139,0,0,0,0,0,0,0,0,0,-1,1518,1163,0,0
301,-139,0,0,0,0,0,0,0,0,0,-1,1525,1163,0,0
308,-139,0,0,0,0,0,0,0,0,0,-1,1532,1163,0,0
315,-139,0,0,0,0,0,0,0,0,0,-1,1539,1163,0,0
322,-139,0,0,0,0,0,0,0,0,0,-1,1546,1163,0,0
329,-139,0,0,0,0,0,0,0,0,0,-1,1553,1163,0,0
336,-139,0,0,0,0,0,0,0,0,0,-1,1560,1163,0,0
343,-139,0,0,0,0,0,0,0,0,0,-1,1567,1163,0,0
350,-139,0,0,0,0,0,0,0,0,0,-1,1574,1163,0,0
357,-139,0,0,0,0,0,0,0,0,0,-1,1581,1163,0,0
364,-139,0,0,0,0,0,0,0,0,0,-1,1588,1163,0,0
371,-139,0,0,0,0,0,0,0,0,0,-1,1595,1163,0,0
378,-139,0,0,0,0,0,0,0,0,0,-1,1602,1163,0,0
385,-139,0,0,0,0,0,0,0,0,0,-1,1609,1163,0,0
392,-139,0,0,0,0,0,0,0,0,0,-1,1616,1163,0,0
399,-139,0,0,0,0,0,0,0,0,0,-1,1623,1163,0,0
406,-139,0,0,0,0,0,0,0,0,0,-1,1630,1163,0,0
413,-139,0,0,0,0,0,0,0,0,0,-1,1637,1163,0,0
420,-139,0,0,0,0,0,0,0,0,0,-1,1644,1163,0,0
427,-139,0,0,0,0,0,0,0,0,0,-1,1651,1163,0,0
434,-139,0,0,0,0,0,0,0,0,0,-1,1658,1163,0,0
441,-139,0,0,0,0,0,0,0,0,0,-1,1665,1163,0,0
448,-139,0,0,0,0,0,0,0,0,0,-1,1672,1163,0,0
455,-139,0,0,0,0,0,0,0,0,0,-1,1679,1163,0,0
462,-139,0,0,0,0,0,0,0,0,0,-1,1686,1163,0,0
469,-139,0,0,0,0,0,0,0,0,0,-1,1693,1163,0,0
476,-139,0,0,0,0,0,0,0,0,0,-1,1700,1163,0,0
483,-139,0,0,0,0,0,0,0,0,0,-1,1707,1163,0,0
490,-139,0,0,0,0,0,0,0,0,0,-1,1714,1163,0,0
497,-139,0,0,0,0,0,0,0,0,0,-1,1721,1163,0,0
504,-139,0,0,0,0,0,0,0,0,0,-1,1728,1163,0,0
511,-139,0,0,0,0,0,0,0,0,0,-1,1735,1163,0,0
518,-139,0,0,0,0,0,0,0,0,0,-1,1742,1163,0,0
525,-139,0,0,0,0,0,0,0,0,0,-1,1749,1163,0,0
532,-139,0,0,0,0,0,0,0,0,0,-1,1756,1163,0,0
539,-139,0,0,0,0,0,0,0,0,0,-1,1763,1163,0,0
546,-139,0,0,0,0,0,0,0,0,0,-1,1770,1163,0,0
553,-139,0,0,0,0,0,0,0,0,0,-1,1777,1163,0,0
560,-139,0,0,0,0,0,0,0,0,0,-1,1784,1163,0,0
567,-139,0,0,0,0,0,0,0,0,0,-1,1791,1163,0,0
574,-139,0,0,0,0,0,0,0,0,0,-1,1798,1163,0,0
581,-139,0,0,0,0,0,0,0,0,0,-1,1805,1163,0,0
588,-139,0,0,0,0,0,0,0,0,0,-1,1812,1163,0,0
595,-139,0,0,0,0,0,0,0,0,0,-1,1819,1163,0,0
602,-139,0,0,0,0,0,0,0,0,0,-1,1826,1163,0,0
609,-139,0,0,0,0,0,0,0,0,0,-1,1833,1163,0,0
616,-139,0,0,0,0,0,0,0,0,0,-1,1840,1163,0,0
623,-139,0,0,0,0,0,0,0,0,0,-1,1847,1163,0,0
630,-139,0,0,0,0,0,0,0,0,0,-1,1854,1163,0,0
637,-139,0,0,0,0,0,0,0,0,0,-1,1861,1163,0,0
644,-139,44.2035,2.40186,0.00337265,-0.00717485,-0.000820976,0.00343617,-0.00723837,-0.0772163,0.00629192,0.0383215,1868,1163,44.2035,-2.40188
651,-139,44.0601,2.40576,0.00221601,-0.00507439,-0.000129809,0.00221832,-0.0050767,-0.017798,0.00431821,0.0402,1875,1163,44.0601,-2.40579
658,-139,44.0228,2.51074,0.00155355,-0.0033848,0.000225647,0.00156384,-0.00339508,0.0455663,0.00292738,0.0402624,1882,1163,44.0229,-2.51076
665,-139,43.9897,2.63782,0.00118017,-0.00199119,0.000369344,0.00122261,-0.00203364,0.114422,0.00189934,0.0361838,1889,1163,43.9897,-2.63783
672,-139,43.9218,2.71521,0.000862708,-0.0010651,0.000471677,0.000971926,-0.00117431,0.227542,0.00124097,0.0375373,1896,1163,43.9217,-2.71517
679,-139,44.0496,2.70129,5.92175e-05,-0.000263087,0.000523105,0.00044543,-0.0006493,0.635977,0.000635686,0.035972,1903,1163,44.0495,-2.70134
686,-139,43.9563,2.64856,-0.000657405,-3.54152e-05,0.000671907,0.00039398,-0.0010868,1.00214,0.000885571,0.032804,1910,1163,43.9563,-2.64858
693,-139,43.9957,2.64978,-0.00116455,0.000125683,0.000826461,0.000528999,-0.00156787,1.11679,0.00125918,0.0215625,1917,1163,43.9957,-2.64984
700,-139,44.0355,2.54871,0,0,0,0,0,0,0,-1,1924,1163,44.0355,-2.54867
707,-139,32.116,6.54346,0,0,0,0,0,0,0,-1,1931,1163,32.116,-6.54343
714,-139,39.2351,7.24097,0,0,0,0,0,0,0,-1,1938,1163,39.2351,-7.24096
721,-139,39.3746,6.78125,-0.00260513,0.000746898,0.00118656,0.00112441,-0.00298264,1.26277,0.00245077,0.0313017,1945,1163,39.3747,-6.78122
728,-139,39.2821,6.5542,-0.00280142,0.000873286,0.00144222,0.00137171,-0.00329985,1.23805,0.00277264,0.0367796,1952,1163,39.2821,-6.55419
735,-139,39.2007,6.29895,-0.0032705,0.00102073,0.00187551,0.00172489,-0.00397466,1.21163,0.00337501,0.0278176,1959,1163,39.2007,-6.29899
742,-139,39.2653,5.83154,-0.00355873,0.00129387,0.00233762,0.00223675,-0.00450161,1.1874,0.00396297,0.0214029,1966,1163,39.2652,-5.83154
749,-139,39.2711,5.50269,-0.00314022,0.0022093,0.00274444,0.00336681,-0.00429773,1.17167,0.00443599,0.0183106,1973,1163,39.2711,-5.50265
756,-139,39.2529,5.19238,-0.00108122,0.00466648,0.00310217,0.0060214,-0.00243614,1.159,0.00502708,0.0104677,1980,1163,39.2529,-5.19241
763,-139,39.2225,4.8584,0.00234675,0.00817523,0.00370939,0.00997823,0.000543755,1.11836,0.00647851,0.0106793,1987,1163,39.2225,-4.85845
770,-139,39.2373,4.56055,0.00707584,0.0129688,0.00421519,0.0151652,0.00487941,1.09043,0.0089392,0.0122361,1994,1163,39.2373,-4.56052
777,-139,39.2638,4.30664,0.0138539,0.0195854,0.00461588,0.0221528,0.0112866,1.0632,0.0127907,0.0238566,2001,1163,39.2638,-4.30659
784,-139,38.9656,4.62256,0.0234911,0.0290601,0.00471622,0.0317525,0.0207987,1.05207,0.0186237,0.0416636,2008,1163,38.9656,-4.62254
791,-139,38.4543,4.8175,0,0,0,0,0,0,0,-1,2015,1163,38.4543,-4.81752
798,-139,38.1589,5.00769,0,0,0,0,0,0,0,-1,2022,1163,38.1589,-5.00774
805,-139,37.9387,5.17847,0,0,0,0,0,0,0,-1,2029,1163,37.9388,-5.17841
812,-139,0,0,0,0,0,0,0,0,0,-1,2036,1163,0,0
-700,-146,0,0,0,0,0,0,0,0,0,-1,524,1170,0,0
-693,-146,-26.8671,-4.35437,0,0,0,0,0,0,0,-1,531,1170,-26.8671,4.35436
-686,-146,-27.0314,-2.93262,0.0771698,0.13659,0.0810879,0.193239,0.0205206,0.961001,0.12256,0.0459817,538,1170,-27.0314,2.9326
-679,-146,-27.0353,-1.75012,0.0733716,0.112929,0.0639635,0.160102,0.0261987,0.935345,0.0991623,0.0466864,545,1170,-27.0353,1.75011
-672,-146,-26.9186,-0.529297,0,0,0,0,0,0,0,-1,552,1170,-26.9186,0.52924
-665,-146,-26.9462,0.754883,0,0,0,0,0,0,0,-1,559,1170,-26.9462,-0.754932
-658,-146,-27.2814,0.782837,0,0,0,0,0,0,0,-1,566,1170,-27.2814,-0.782819
-651,-146,-27.0875,1.05518,0.0347182,0.040204,0.0186068,0.056269,0.0186532,0.858579,0.0330961,0.0379605,573,1170,-27.0875,-1.05516
-644,-146,-26.8844,1.34619,0.0252389,0.028006,0.0120239,0.0387257,0.0145192,0.842678,0.0225903,0.019605,580,1170,-26.8844,-1.34622
-637,-146,-26.8719,1.75464,0.0167959,0.018012,0.00693668,0.0243672,0.0104406,0.829115,0.0141163,0.0106666,587,1170,-26.872,-1.7546
-630,-146,-26.9028,2.1333,0.010394,0.00981223,0.00308692,0.0132037,0.00700251,0.738423,0.00762784,0.0103621,594,1170,-26.9028,-2.13332
-623,-146,-26.9416,2.51624,0.00406913,0.00370346,0.000438129,0.00436105,0.00341155,0.587727,0.00264822,0.0132439,601,1170,-26.9416,-2.51628
-616,-146,-26.9832,2.91321,0.00124399,0.00102655,-0.000402754,0.00155244,0.000718099,-0.653571,0.000897137,0.0192786,608,1170,-26.9832,-2.91323
-609,-146,-26.8389,3.34021,0.000620022,0.000870511,-0.000110519,0.000912302,0.000578232,-1.20929,0.000532969,0.0229166,615,1170,-26.8389,-3.34025
-602,-146,-26.5349,3.70117,0,0,0,0,0,0,0,-1,622,1170,-26.5349,-3.70119
-595,-146,-27.1766,4.09058,0,0,0,0,0,0,0,-1,629,1170,-27.1766,-4.09063
-588,-146,-27.2938,4.34241,0,0,0,0,0,0,0,-1,636,1170,-27.2938,-4.3424
-581,-146,-25.8838,5.00452,0,0,0,0,0,0,0,-1,643,1170,-25.8838,-5.00447
-574,-146,-17.9915,3.79114,0,0,0,0,0,0,0,-1,650,1170,-17.9915,-3.79118
-567,-146,-32.1724,0.698608,0,0,0,0,0,0,0,-1,657,1170,-32.1724,-0.698611
-560,-146,-32.2235,0.790161,-0.00044207,0.00277576,0.0011074,0.00312003,-0.000786341,1.26939,0.00238573,0.0386854,664,1170,-32.2235,-0.790117
-553,-146,-32.2667,0.886963,-0.000742516,0.00331403,0.0012106,0.00364784,-0.00107633,1.30174,0.00285902,0.0376328,671,1170,-32.2667,-0.88699
-546,-146,-32.3032,0.860962,-0.000801226,0.00371272,0.00132075,0.00407076,-0.00115927,1.30607,0.00317169,0.0404724,678,1170,-32.3032,-0.860965
-539,-146,-32.257,0.752808,-0.000476614,0.00423824,0.00179107,0.00484146,-0.00107983,1.24594,0.00364135,0.0399518,685,1170,-32.257,-0.752844
-532,-146,-32.2861,0.839111,0.000184013,0.00435598,0.00237994,0.00543471,-0.000894718,1.14523,0.00395526,0.0388492,692,1170,-32.2861,-0.839147
-525,-146,-32.3741,1.02271,0.00117242,0.00426474,0.00296468,0.00606222,-0.000625061,1.02576,0.00426513,0.040138,699,1170,-32.3741,-1.02272
-518,-146,0,0,0,0,0,0,0,0,0,-1,706,1170,0,0
-511,-146,0,0,0,0,0,0,0,0,0,-1,713,1170,0,0
-504,-146,0,0,0,0,0,0,0,0,0,-1,720,1170,0,0
-497,-146,0,0,0,0,0,0,0,0,0,-1,727,1170,0,0
-490,-146,0,0,0,0,0,0,0,0,0,-1,734,1170,0,0
-483,-146,0,0,0,0,0,0,0,0,0,-1,741,1170,0,0
-476,-146,0,0,0,0,0,0,0,0,0,-1,748,1170,0,0
-469,-146,0,0,0,0,0,0,0,0,0,-1,755,1170,0,0
-462,-146,0,0,0,0,0,0,0,0,0,-1,762,1170,0,0
-455,-146,0,0,0,0,0,0,0,0,0,-1,769,1170,0,0
-448,-146,0,0,0,0,0,0,0,0,0,-1,776,1170,0,0
-441,-146,0,0,0,0,0,0,0,0,0,-1,783,1170,0,0
-434,-146,0,0,0,0,0,0,0,0,0,-1,790,1170,0,0
-427,-146,0,0,0,0,0,0,0,0,0,-1,797,1170,0,0
-420,-146,0,0,0,0,0,0,0,0,0,-1,804,1170,0,0
-413,-146,0,0,0,0,0,0,0,0,0,-1,811,1170,0,0
-406,-146,0,0,0,0,0,0,0,0,0,-1,818,1170,0,0
-399,-146,0,0,0,0,0,0,0,0,0,-1,825,1170,0,0
-392,-146,0,0,0,0,0,0,0,0,0,-1,832,1170,0,0
-385,-146,0,0,0,0,0,0,0,0,0,-1,839,1170,0,0
-378,-146,0,0,0,0,0,0,0,0,0,-1,846,1170,0,0
-371,-146,0,0,0,0,0,0,0,0,0,-1,853,1170,0,0
-364,-146,0,0,0,0,0,0,0,0,0,-1,860,1170,0,0
-357,-146,0,0,0,0,0,0,0,0,0,-1,867,1170,0,0
-350,-146,0,0,0,0,0,0,0,0,0,-1,874,1170,0,0
-343,-146,0,0,0,0,0,0,0,0,0,-1,881,1170,0,0
-336,-146,0,0,0,0,0,0,0,0,0,-1,888,1170,0,0
-329,-146,0,0,0,0,0,0,0,0,0,-1,895,1170,0,0
-322,-146,0,0,0,0,0,0,0,0,0,-1,902,1170,0,0
-315,-146,0,0,0,0,0,0,0,0,0,-1,909,1170,0,0
-308,-146,0,0,0,0,0,0,0,0,0,-1,916,1170,0,0
-301,-146,0,0,0,0,0,0,0,0,0,-1,923,1170,0,0
-294,-146,0,0,0,0,0,0,0,0,0,-1,930,1170,0,0
-287,-146,0,0,0,0,0,0,0,0,0,-1,937,1170,0,0
-280,-146,0,0,0,0,0,0,0,0,0,-1,944,1170,0,0
-273,-146,0,0,0,0,0,0,0,0,0,-1,951,1170,0,0
-266,-146,0,0,0,0,0,0,0,0,0,-1,958,1170,0,0
-259,-146,0,0,0,0,0,0,0,0,0,-1,965,1170,0,0
-252,-146,0,0,0,0,0,0,0,0,0,-1,972,1170,0,0
-245,-146,0,0,0,0,0,0,0,0,0,-1,979,1170,0,0
-238,-146,0,0,0,0,0,0,0,0,0,-1,986,1170,0,0
-231,-146,0,0,0,0,0,0,0,0,0,-1,993,1170,0,0
-224,-146,0,0,0,0,0,0,0,0,0,-1,1000,1170,0,0
-217,-146,0,0,0,0,0,0,0,0,0,-1,1007,1170,0,0
-210,-146,0,0,0,0,0,0,0,0,0,-1,1014,1170,0,0
-203,-146,0,0,0,0,0,0,0,0,0,-1,1021,1170,0,0
-196,-146,0,0,0,0,0,0,0,0,0,-1,1028,1170,0,0
-189,-146,0,0,0,0,0,0,0,0,0,-1,1035,1170,0,0
-182,-146,0,0,0,0,0,0,0,0,0,-1,1042,1170,0,0
-175,-146,0,0,0,0,0,0,0,0,0,-1,1049,1170,0,0
-168,-146,0,0,0,0,0,0,0,0,0,-1,1056,1170,0,0
-161,-146,0,0,0,0,0,0,0,0,0,-1,1063,1170,0,0
-154,-146,0,0,0,0,0,0,0,0,0,-1,1070,1170,0,0
-147,-146,0,0,0,0,0,0,0,0,0,-1,1077,1170,0,0
-140,-146,0,0,0,0,0,0,0,0,0,-1,1084,1170,0,0
-133,-146,0,0,0,0,0,0,0,0,0,-1,1091,1170,0,0
-126,-146,0,0,0,0,0,0,0,0,0,-1,1098,1170,0,0
-119,-146,0,0,0,0,0,0,0,0,0,-1,1105,1170,0,0
-112,-146,0,0,0,0,0,0,0,0,0,-1,1112,1170,0,0
-105,-146,0,0,0,0,0,0,0,0,0,-1,1119,1170,0,0
-98,-146,0,0,0,0,0,0,0,0,0,-1,1126,1170,0,0
-91,-146,0,0,0,0,0,0,0,0,0,-1,1133,1170,0,0
-84,-146,0,0,0,0,0,0,0,0,0,-1,1140,1170,0,0
-77,-146,0,0,0,0,0,0,0,0,0,-1,1147,1170,0,0
-70,-146,0,0,0,0,0,0,0,0,0,-1,1154,1170,0,0
-63,-146,0,0,0,0,0,0,0,0,0,-1,1161,1170,0,0
-56,-146,0,0,0,0,0,0,0,0,0,-1,1168,1170,0,0
-49,-146,0,0,0,0,0,0,0,0,0,-1,1175,1170,0,0
-42,-146,0,0,0,0,0,0,0,0,0,-1,1182,1170,0,0
-35,-146,0,0,0,0,0,0,0,0,0,-1,1189,1170,0,0
-28,-146,0,0,0,0,0,0,0,0,0,-1,1196,1170,0,0
-21,-146,0,0,0,0,0,0,0,0,0,-1,1203,1170,0,0
-14,-146,0,0,0,0,0,0,0,0,0,-1,1210,1170,0,0
-7,-146,0,0,0,0,0,0,0,0,0,-1,1217,1170,0,0
0,-146,0,0,0,0,0,0,0,0,0,-1,1224,1170,0,0
7,-146,0,0,0,0,0,0,0,0,0,-1,1231,1170,0,0
14,-146,0,0,0,0,0,0,0,0,0,-1,1238,1170,0,0
21,-146,0,0,0,0,0,0,0,0,0,-1,1245,1170,0,0
28,-146,0,0,0,0,0,0,0,0,0,-1,1252,1170,0,0
35,-146,0,0,0,0,0,0,0,0,0,-1,1259,1170,0,0
42,-146,0,0,0,0,0,0,0,0,0,-1,1266,1170,0,0
49,-146,0,0,0,0,0,0,0,0,0,-1,1273,1170,0,0
56,-146,0,0,0,0,0,0,0,0,0,-1,1280,1170,0,0
63,-146,0,0,0,0,0,0,0,0,0,-1,1287,1170,0,0
70,-146,0,0,0,0,0,0,0,0,0,-1,1294,1170,0,0
77,-146,0,0,0,0,0,0,0,0,0,-1,1301,1170,0,0
84,-146,0,0,0,0,0,0,0,0,0,-1,1308,1170,0,0
91,-146,0,0,0,0,0,0,0,0,0,-1,1315,1170,0,0
98,-146,0,0,0,0,0,0,0,0,0,-1,1322,1170,0,0
105,-146,0,0,0,0,0,0,0,0,0,-1,1329,1170,0,0
112,-146,0,0,0,0,0,0,0,0,0,-1,1336,1170,0,0
119,-146,0,0,0,0,0,0,0,0,0,-1,1343,1170,0,0
126,-146,0,0,0,0,0,0,0,0,0,-1,1350,1170,0,0
133,-146,0,0,0,0,0,0,0,0,0,-1,1357,1170,0,0
140,-146,0,0,0,0,0,0,0,0,0,-1,1364,1170,0,0
147,-146,0,0,0,0,0,0,0,0,0,-1,1371,1170,0,0
154,-146,0,0,0,0,0,0,0,0,0,-1,1378,1170,0,0
161,-146,0,0,0,0,0,0,0,0,0,-1,1385,1170,0,0
168,-146,0,0,0,0,0,0,0,0,0,-1,1392,1170,0,0
175,-146,0,0,0,0,0,0,0,0,0,-1,1399,1170,0,0
182,-146,0,0,0,0,0,0,0,0,0,-1,1406,1170,0,0
189,-146,0,0,0,0,0,0,0,0,0,-1,1413,1170,0,0
196,-146,0,0,0,0,0,0,0,0,0,-1,1420,1170,0,0
203,-146,0,0,0,0,0,0,0,0,0,-1,1427,1170,0,0
210,-146,0,0,0,0,0,0,0,0,0,-1,1434,1170,0,0
217,-146,0,0,0,0,0,0,0,0,0,-1,1441,1170,0,0
224,-146,0,0,0,0,0,0,0,0,0,-1,1448,1170,0,0
231,-146,0,0,0,0,0,0,0,0,0,-1,1455,1170,0,0
238,-146,0,0,0,0,0,0,0,0,0,-1,1462,1170,0,0
245,-146,0,0,0,0,0,0,0,0,0,-1,1469,1170,0,0
252,-146,0,0,0,0,0,0,0,0,0,-1,1476,1170,0,0
259,-146,0,0,0,0,0,0,0,0,0,-1,1483,1170,0,0
266,-146,0,0,0,0,0,0,0,0,0,-1,1490,1170,0,0
273,-146,0,0,0,0,0,0,0,0,0,-1,1497,1170,0,0
280,-146,0,0,0,0,0,0,0,0,0,-1,1504,1170,0,0
287,-146,0,0,0,0,0,0,0,0,0,-1,1511,1170,0,0
294,-146,0,0,0,0,0,0,0,0,0,-1,1518,1170,0,0
301,-146,0,0,0,0,0,0,0,0,0,-1,1525,1170,0,0
308,-146,0,0,0,0,0,0,0,0,0,-1,1532,1170,0,0
315,-146,0,0,0,0,0,0,0,0,0,-1,1539,1170,0,0
322,-146,0,0,0,0,0,0,0,0,0,-1,1546,1170,0,0
329,-146,0,0,0,0,0,0,0,0,0,-1,1553,1170,0,0
336,-146,0,0,0,0,0,0,0,0,0,-1,1560,1170,0,0
343,-146,0,0,0,0,0,0,0,0,0,-1,1567,1170,0,0
350,-146,0,0,0,0,0,0,0,0,0,-1,1574,1170,0,0
357,-146,0,0,0,0,0,0,0,0,0,-1,1581,1170,0,0
364,-146,0,0,0,0,0,0,0,0,0,-1,1588,1170,0,0
371,-146,0,0,0,0,0,0,0,0,0,-1,1595,1170,0,0
378,-146,0,0,0,0,0,0,0,0,0,-1,1602,1170,0,0
385,-146,0,0,0,0,0,0,0,0,0,-1,1609,1170,0,0
392,-146,0,0,0,0,0,0,0,0,0,-1,1616,1170,0,0
399,-146,0,0,0,0,0,0,0,0,0,-1,1623,1170,0,0
406,-146,0,0,0,0,0,0,0,0,0,-1,1630,1170,0,0
413,-146,0,0,0,0,0,0,0,0,0,-1,1637,1170,0,0
420,-146,0,0,0,0,0,0,0,0,0,-1,1644,1170,0,0
427,-146,0,0,0,0,0,0,0,0,0,-1,1651,1170,0,0
434,-146,0,0,0,0,0,0,0,0,0,-1,1658,1170,0,0
441,-146,0,0,0,0,0,0,0,0,0,-1,1665,1170,0,0
448,-146,0,0,0,0,0,0,0,0,0,-1,1672,1170,0,0
455,-146,0,0,0,0,0,0,0,0,0,-1,1679,1170,0,0
462,-146,0,0,0,0,0,0,0,0,0,-1,1686,1170,0,0
469,-146,0,0,0,0,0,0,0,0,0,-1,1693,1170,0,0
476,-146,0,0,0,0,0,0,0,0,0,-1,1700,1170,0,0
483,-146,0,0,0,0,0,0,0,0,0,-1,1707,1170,0,0
490,-146,0,0,0,0,0,0,0,0,0,-1,1714,1170,0,0
497,-146,0,0,0,0,0,0,0,0,0,-1,1721,1170,0,0
504,-146,0,0,0,0,0,0,0,0,0,-1,1728,1170,0,0
511,-146,0,0,0,0,0,0,0,0,0,-1,1735,1170,0,0
518,-146,0,0,0,0,0,0,0,0,0,-1,1742,1170,0,0
525,-146,0,0,0,0,0,0,0,0,0,-1,1749,1170,0,0
532,-146,0,0,0,0,0,0,0,0,0,-1,1756,1170,0,0
539,-146,0,0,0,0,0,0,0,0,0,-1,1763,1170,0,0
546,-146,0,0,0,0,0,0,0,0,0,-1,1770,1170,0,0
553,-146,0,0,0,0,0,0,0,0,0,-1,1777,1170,0,0
560,-146,0,0,0,0,0,0,0,0,0,-1,1784,1170,0,0
567,-146,0,0,0,0,0,0,0,0,0,-1,1791,1170,0,0
574,-146,0,0,0,0,0,0,0,0,0,-1,1798,1170,0,0
581,-146,0,0,0,0,0,0,0,0,0,-1,1805,1170,0,0
588,-146,0,0,0,0,0,0,0,0,0,-1,1812,1170,0,0
595,-146,0,0,0,0,0,0,0,0,0,-1,1819,1170,0,0
602,-146,0,0,0,0,0,0,0,0,0,-1,1826,1170,0,0
609,-146,0,0,0,0,0,0,0,0,0,-1,1833,1170,0,0
616,-146,0,0,0,0,0,0,0,0,0,-1,1840,1170,0,0
623,-146,0,0,0,0,0,0,0,0,0,-1,1847,1170,0,0
630,-146,0,0,0,0,0,0,0,0,0,-1,1854,1170,0,0
637,-146,44.0905,2.38281,0.00402526,-0.00906452,-0.00222548,0.00439328,-0.00943254,-0.163884,0.00815716,0.0375779,1861,1170,44.0904,-2.38281
644,-146,44.0134,2.38489,0.00261993,-0.00663809,-0.000958682,0.00271816,-0.00673632,-0.102108,0.00562047,0.0382592,1868,1170,44.0134,-2.38484
651,-146,44.0143,2.49573,0.00179097,-0.00459694,-0.000321086,0.00180707,-0.00461304,-0.0500964,0.00382284,0.0361104,1875,1170,44.0142,-2.49577
658,-146,44.0524,2.63342,0.00135585,-0.0028839,-2.64287e-05,0.00135601,-0.00288406,-0.00623324,0.00250044,0.0380781,1882,1170,44.0524,-2.63347
665,-146,44.0107,2.74707,0.00115782,-0.00150508,9.76548e-05,0.0011614,-0.00150866,0.0366067,0.0015459,0.0373307,1889,1170,44.0107,-2.74712
672,-146,43.9426,2.70276,0.000875264,-0.000673262,0.00027478,0.000922577,-0.000720575,0.170513,0.000951061,0.0372358,1896,1170,43.9426,-2.70274
679,-146,44.0032,2.59656,-1.46125e-05,5.50553e-05,0.000434129,0.000455746,-0.000415303,0.825432,0.000503081,0.0315794,1903,1170,44.0032,-2.59659
686,-146,43.9294,2.56165,-0.000793796,0.000197374,0.000696822,0.000556871,-0.00115329,1.0945,0.00100718,0.022974,1910,1170,43.9294,-2.5617
693,-146,43.9817,2.53784,-0.00136589,0.00028147,0.000954095,0.000718244,-0.00180266,1.14148,0.00149966,0.0146881,1917,1170,43.9817,-2.53789
700,-146,44.0161,2.35901,0,0,0,0,0,0,0,-1,1924,1170,44.0161,-2.35895
707,-146,29.9441,6.94653,0,0,0,0,0,0,0,-1,1931,1170,29.9441,-6.94652
714,-146,31.325,6.13245,0,0,0,0,0,0,0,-1,1938,1170,31.325,-6.1325
721,-146,38.9894,6.67224,0,0,0,0,0,0,0,-1,1945,1170,38.9894,-6.67219
728,-146,39.3638,6.23364,-0.00307277,0.000849372,0.00173418,0.00150616,-0.00372956,1.20876,0.00311237,0.0477158,1952,1170,39.3638,-6.23361
735,-146,38.908,6.22217,-0.00351324,0.000948489,0.00214887,0.0018151,-0.00437986,1.18746,0.00367742,0.0262853,1959,1170,38.9079,-6.22216
742,-146,38.9467,5.83813,-0.00371792,0.00125107,0.00254289,0.00232171,-0.00478856,1.17229,0.00418666,0.0170305,1966,1170,38.9466,-5.83816
749,-146,38.9377,5.53076,-0.00319172,0.00221035,0.00286555,0.0034472,-0.00442857,1.16332,0.00455883,0.015907,1973,1170,38.9377,-5.53074
756,-146,38.9175,5.18347,-0.00108665,0.00469157,0.00310646,0.00604475,-0.00243983,1.15998,0.00504381,0.0122074,1980,1170,38.9175,-5.18346
763,-146,38.8695,4.84204,0.00214882,0.00815243,0.00355917,0.00980665,0.000494604,1.13572,0.00637929,0.0113771,1987,1170,38.8695,-4.84207
770,-146,38.8649,4.52563,0.0065443,0.0128781,0.00394208,0.0147678,0.00465459,1.12379,0.00871816,0.0125287,1994,1170,38.8649,-4.52569
777,-146,38.8933,4.35449,0.0128518,0.0194807,0.00423653,0.0215452,0.0107872,1.11734,0.0124392,0.0228053,2001,1170,38.8933,-4.35445
784,-146,38.4698,4.56055,0.0217928,0.0291053,0.00417531,0.030999,0.0198992,1.14501,0.018136,0.0391514,2008,1170,38.4699,-4.56057
791,-146,38.1106,4.72742,0,0,0,0,0,0,0,-1,2015,1170,38.1105,-4.72745
798,-146,37.8171,4.93152,0,0,0,0,0,0,0,-1,2022,1170,37.8172,-4.93157
805,-146,37.5833,5.12732,0,0,0,0,0,0,0,-1,2029,1170,37.5833,-5.12737
812,-146,0,0,0,0,0,0,0,0,0,-1,2036,1170,0,0
-700,-153,0,0,0,0,0,0,0,0,0,-1,524,1177,0,0
-693,-153,0,0,0,0,0,0,0,0,0,-1,531,1177,0,0
-686,-153,-26.9243,-3.9679,0.0913669,0.129235,0.0650453,0.178046,0.0425558,0.927029,0.107361,0.0485531,538,1177,-26.9242,3.96786
-679,-153,-26.9652,-2.85938,0.0826086,0.106445,0.0516347,0.147519,0.0415347,0.898823,0.087838,0.0486381,545,1177,-26.9652,2.85933
-672,-153,-27.3634,-0.392822,0,0,0,0,0,0,0,-1,552,1177,-27.3634,0.392842
-665,-153,-27.1752,0.116211,0.0591873,0.0675637,0.0298122,0.0934805,0.0332705,0.855185,0.0547129,0.0472472,559,1177,-27.1752,-0.11617
-658,-153,-26.9808,0.639648,0,0,0,0,0,0,0,-1,566,1177,-26.9808,-0.639602
-651,-153,-26.8455,0.908203,0.0358404,0.0378991,0.0145055,0.0514117,0.0223278,0.820821,0.0297679,0.0457126,573,1177,-26.8455,-0.908193
-644,-153,-26.4673,1.3114,0.0256283,0.0264968,0.00909893,0.0351718,0.0169533,0.809245,0.0203108,0.0280758,580,1177,-26.4674,-1.31139
-637,-153,-26.4656,1.75439,0.0167828,0.0172118,0.00502146,0.0220234,0.0119713,0.806746,0.0127313,0.011629,587,1177,-26.4656,-1.75443
-630,-153,-26.4928,2.13916,0.010243,0.00940316,0.00192376,0.0117921,0.00785402,0.677946,0.00693219,0.0103227,594,1177,-26.4928,-2.13921
-623,-153,-26.5103,2.52173,0.00364114,0.00372708,-8.27151e-05,0.00377732,0.0035909,-1.02496,0.00245843,0.0107099,601,1177,-26.5103,-2.52177
-616,-153,-26.5342,2.91357,0.000879978,0.00102123,-0.000681515,0.00163577,0.00026544,-0.837029,0.00101368,0.0130523,608,1177,-26.5343,-2.91356
-609,-153,-26.4905,3.29626,0.000266416,0.000601209,-0.000269731,0.000751265,0.00011636,-1.06312,0.000466915,0.0193337,615,1177,-26.4905,-3.29628
-602,-153,-26.4252,3.67212,0,0,0,0,0,0,0,-1,622,1177,-26.4253,-3.67212
-595,-153,-26.8618,4.16943,0,0,0,0,0,0,0,-1,629,1177,-26.8618,-4.16937
-588,-153,-26.1733,4.40442,0,0,0,0,0,0,0,-1,636,1177,-26.1734,-4.40446
-581,-153,-25.6566,4.79578,0,0,0,0,0,0,0,-1,643,1177,-25.6566,-4.79579
-574,-153,-25.4814,5.16956,0,0,0,0,0,0,0,-1,650,1177,-25.4814,-5.16961
-567,-153,-32.1573,0.732422,0,0,0,0,0,0,0,-1,657,1177,-32.1573,-0.732428
-560,-153,-32.19,0.738403,-0.000679221,0.00201882,0.000837828,0.00225782,-0.000918222,1.29291,0.00188728,0.045082,664,1177,-32.19,-0.738436
-553,-153,-32.2051,0.724854,-0.000932218,0.00251952,0.000928044,0.00275321,-0.00116591,1.32411,0.00232374,0.0348265,671,1177,-32.2052,-0.724846
-546,-153,-32.2432,0.674194,-0.000797902,0.00295489,0.00104169,0.00322465,-0.00106766,1.3174,0.00258036,0.0376518,678,1177,-32.2432,-0.674216
-539,-153,-32.3049,0.734131,-0.000153722,0.00391048,0.00161058,0.00447134,-0.000714574,1.2357,0.00324541,0.0407003,685,1177,-32.3048,-0.734165
-532,-153,-32.2485,0.893799,0.000906605,0.00473534,0.00239172,0.00588449,-0.000242547,1.12289,0.00400629,0.0409157,692,1177,-32.2485,-0.89379
-525,-153,-32.264,1.12573,0.00251877,0.00545472,0.00327844,0.00757883,0.000394654,0.995895,0.00492628,0.0379354,699,1177,-32.264,-1.12572
-518,-153,0,0,0,0,0,0,0,0,0,-1,706,1177,0,0
-511,-153,0,0,0,0,0,0,0,0,0,-1,713,1177,0,0
-504,-153,0,0,0,0,0,0,0,0,0,-1,720,1177,0,0
-497,-153,0,0,0,0,0,0,0,0,0,-1,727,1177,0,0
-490,-153,0,0,0,0,0,0,0,0,0,-1,734,1177,0,0
-483,-153,0,0,0,0,0,0,0,0,0,-1,741,1177,0,0
-476,-153,0,0,0,0,0,0,0,0,0,-1,748,1177,0,0
-469,-153,0,0,0,0,0,0,0,0,0,-1,755,1177,0,0
-462,-153,0,0,0,0,0,0,0,0,0,-1,762,1177,0,0
-455,-153,0,0,0,0,0,0,0,0,0,-1,769,1177,0,0
-448,-153,0,0,0,0,0,0,0,0,0,-1,776,1177,0,0
-441,-153,0,0,0,0,0,0,0,0,0,-1,783,1177,0,0
-434,-153,0,0,0,0,0,0,0,0,0,-1,790,1177,0,0
-427,-153,0,0,0,0,0,0,0,0,0,-1,797,1177,0,0
-420,-153,0,0,0,0,0,0,0,0,0,-1,804,1177,0,0
-413,-153,0,0,0,0,0,0,0,0,0,-1,811,1177,0,0
-406,-153,0,0,0,0,0,0,0,0,0,-1,818,1177,0,0
-399,-153,0,0,0,0,0,0,0,0,0,-1,825,1177,0,0
-392,-153,0,0,0,0,0,0,0,0,0,-1,832,1177,0,0
-385,-153,0,0,0,0,0,0,0,0,0,-1,839,1177,0,0
-378,-153,0,0,0,0,0,0,0,0,0,-1,846,1177,0,0
-371,-153,0,0,0,0,0,0,0,0,0,-1,853,1177,0,0
-364,-153,0,0,0,0,0,0,0,0,0,-1,860,1177,0,0
-357,-153,0,0,0,0,0,0,0,0,0,-1,867,1177,0,0
-350,-153,0,0,0,0,0,0,0,0,0,-1,874,1177,0,0
-343,-153,0,0,0,0,0,0,0,0,0,-1,881,1177,0,0
-336,-153,0,0,0,0,0,0,0,0,0,-1,888,1177,0,0
-329,-153,0,0,0,0,0,0,0,0,0,-1,895,1177,0,0
-322,-153,0,0,0,0,0,0,0,0,0,-1,902,1177,0,0
-315,-153,0,0,0,0,0,0,0,0,0,-1,909,1177,0,0
-308,-153,0,0,0,0,0,0,0,0,0,-1,916,1177,0,0
-301,-153,0,0,0,0,0,0,0,0,0,-1,923,1177,0,0
-294,-153,0,0,0,0,0,0,0,0,0,-1,930,1177,0,0
-287,-153,0,0,0,0,0,0,0,0,0,-1,937,1177,0,0
-280,-153,0,0,0,0,0,0,0,0,0,-1,944,1177,0,0
-273,-153,0,0,0,0,0,0,0,0,0,-1,951,1177,0,0
-266,-153,0,0,0,0,0,0,0,0,0,-1,958,1177,0,0
-259,-153,0,0,0,0,0,0,0,0,0,-1,965,1177,0,0
-252,-153,0,0,0,0,0,0,0,0,0,-1,972,1177,0,0
-245,-153,0,0,0,0,0,0,0,0,0,-1,979,1177,0,0
-238,-153,0,0,0,0,0,0,0,0,0,-1,986,1177,0,0
-231,-153,0,0,0,0,0,0,0,0,0,-1,993,1177,0,0
-224,-153,0,0,0,0,0,0,0,0,0,-1,1000,1177,0,0
-217,-153,0,0,0,0,0,0,0,0,0,-1,1007,1177,0,0
-210,-153,0,0,0,0,0,0,0,0,0,-1,1014,1177,0,0
-203,-153,0,0,0,0,0,0,0,0,0,-1,1021,1177,0,0
-196,-153,0,0,0,0,0,0,0,0,0,-1,1028,1177,0,0
-189,-153,0,0,0,0,0,0,0,0,0,-1,1035,1177,0,0
-182,-153,0,0,0,0,0,0,0,0,0,-1,1042,1177,0,0
-175,-153,0,0,0,0,0,0,0,0,0,-1,1049,1177,0,0
-168,-153,0,0,0,0,0,0,0,0,0,-1,1056,1177,0,0
-161,-153,0,0,0,0,0,0,0,0,0,-1,1063,1177,0,0
-154,-153,0,0,0,0,0,0,0,0,0,-1,1070,1177,0,0
-147,-153,0,0,0,0,0,0,0,0,0,-1,1077,1177,0,0
-140,-153,0,0,0,0,0,0,0,0,0,-1,1084,1177,0,0
-133,-153,0,0,0,0,0,0,0,0,0,-1,1091,1177,0,0
-126,-153,0,0,0,0,0,0,0,0,0,-1,1098,1177,0,0
-119,-153,0,0,0,0,0,0,0,0,0,-1,1105,1177,0,0
-112,-153,0,0,0,0,0,0,0,0,0,-1,1112,1177,0,0
-105,-153,0,0,0,0,0,0,0,0,0,-1,1119,1177,0,0
-98,-153,0,0,0,0,0,0,0,0,0,-1,1126,1177,0,0
-91,-153,0,0,0,0,0,0,0,0,0,-1,1133,1177,0,0
-84,-153,0,0,0,0,0,0,0,0,0,-1,1140,1177,0,0
-77,-153,0,0,0,0,0,0,0,0,0,-1,1147,1177,0,0
-70,-153,0,0,0,0,0,0,0,0,0,-1,1154,1177,0,0
-63,-153,0,0,0,0,0,0,0,0,0,-1,1161,1177,0,0
-56,-153,0,0,0,0,0,0,0,0,0,-1,1168,1177,0,0
-49,-153,0,0,0,0,0,0,0,0,0,-1,1175,1177,0,0
-42,-153,0,0,0,0,0,0,0,0,0,-1,1182,1177,0,0
-35,-153,0,0,0,0,0,0,0,0,0,-1,1189,1177,0,0
-28,-153,0,0,0,0,0,0,0,0,0,-1,1196,1177,0,0
-21,-153,0,0,0,0,0,0,0,0,0,-1,1203,1177,0,0
-14,-153,0,0,0,0,0,0,0,0,0,-1,1210,1177,0,0
-7,-153,0,0,0,0,0,0,0,0,0,-1,1217,1177,0,0
0,-153,0,0,0,0,0,0,0,0,0,-1,1224,1177,0,0
7,-153,0,0,0,0,0,0,0,0,0,-1,1231,1177,0,0
14,-153,0,0,0,0,0,0,0,0,0,-1,1238,1177,0,0
21,-153,0,0,0,0,0,0,0,0,0,-1,1245,1177,0,0
28,-153,0,0,0,0,0,0,0,0,0,-1,1252,1177,0,0
35,-153,0,0,0,0,0,0,0,0,0,-1,1259,1177,0,0
42,-153,0,0,0,0,0,0,0,0,0,-1,1266,1177,0,0
49,-153,0,0,0,0,0,0,0,0,0,-1,1273,1177,0,0
56,-153,0,0,0,0,0,0,0,0,0,-1,1280,1177,0,0
63,-153,0,0,0,0,0,0,0,0,0,-1,1287,1177,0,0
70,-153,0,0,0,0,0,0,0,0,0,-1,1294,1177,0,0
77,-153,0,0,0,0,0,0,0,0,0,-1,1301,1177,0,0
84,-153,0,0,0,0,0,0,0,0,0,-1,1308,1177,0,0
91,-153,0,0,0,0,0,0,0,0,0,-1,1315,1177,0,0
98,-153,0,0,0,0,0,0,0,0,0,-1,1322,1177,0,0
105,-153,0,0,0,0,0,0,0,0,0,-1,1329,1177,0,0
112,-153,0,0,0,0,0,0,0,0,0,-1,1336,1177,0,0
119,-153,0,0,0,0,0,0,0,0,0,-1,1343,1177,0,0
126,-153,0,0,0,0,0,0,0,0,0,-1,1350,1177,0,0
133,-153,0,0,0,0,0,0,0,0,0,-1,1357,1177,0,0
140,-153,0,0,0,0,0,0,0,0,0,-1,1364,1177,0,0
147,-153,0,0,0,0,0,0,0,0,0,-1,1371,1177,0,0
154,-153,0,0,0,0,0,0,0,0,0,-1,1378,1177,0,0
161,-153,0,0,0,0,0,0,0,0,0,-1,1385,1177,0,0
168,-153,0,0,0,0,0,0,0,0,0,-1,1392,1177,0,0
175,-153,0,0,0,0,0,0,0,0,0,-1,1399,1177,0,0
182,-153,0,0,0,0,0,0,0,0,0,-1,1406,1177,0,0
189,-153,0,0,0,0,0,0,0,0,0,-1,1413,1177,0,0
196,-153,0,0,0,0,0,0,0,0,0,-1,1420,1177,0,0
203,-153,0,0,0,0,0,0,0,0,0,-1,1427,1177,0,0
210,-153,0,0,0,0,0,0,0,0,0,-1,1434,1177,0,0
217,-153,0,0,0,0,0,0,0,0,0,-1,1441,1177,0,0
224,-153,0,0,0,0,0,0,0,0,0,-1,1448,1177,0,0
231,-153,0,0,0,0,0,0,0,0,0,-1,1455,1177,0,0
238,-153,0,0,0,0,0,0,0,0,0,-1,1462,1177,0,0
245,-153,0,0,0,0,0,0,0,0,0,-1,1469,1177,0,0
252,-153,0,0,0,0,0,0,0,0,0,-1,1476,1177,0,0
259,-153,0,0,0,0,0,0,0,0,0,-1,1483,1177,0,0
266,-153,0,0,0,0,0,0,0,0,0,-1,1490,1177,0,0
273,-153,0,0,0,0,0,0,0,0,0,-1,1497,1177,0,0
280,-153,0,0,0,0,0,0,0,0,0,-1,1504,1177,0,0
287,-153,0,0,0,0,0,0,0,0,0,-1,1511,1177,0,0
294,-153,0,0,0,0,0,0,0,0,0,-1,1518,1177,0,0
301,-153,0,0,0,0,0,0,0,0,0,-1,1525,1177,0,0
308,-153,0,0,0,0,0,0,0,0,0,-1,1532,1177,0,0
315,-153,0,0,0,0,0,0,0,0,0,-1,1539,1177,0,0
322,-153,0,0,0,0,0,0,0,0,0,-1,1546,1177,0,0
329,-153,0,0,0,0,0,0,0,0,0,-1,1553,1177,0,0
336,-153,0,0,0,0,0,0,0,0,0,-1,1560,1177,0,0
343,-153,0,0,0,0,0,0,0,0,0,-1,1567,1177,0,0
350,-153,0,0,0,0,0,0,0,0,0,-1,1574,1177,0,0
357,-153,0,0,0,0,0,0,0,0,0,-1,1581,1177,0,0
364,-153,0,0,0,0,0,0,0,0,0,-1,1588,1177,0,0
371,-153,0,0,0,0,0,0,0,0,0,-1,1595,1177,0,0
378,-153,0,0,0,0,0,0,0,0,0,-1,1602,1177,0,0
385,-153,0,0,0,0,0,0,0,0,0,-1,1609,1177,0,0
392,-153,0,0,0,0,0,0,0,0,0,-1,1616,1177,0,0
399,-153,0,0,0,0,0,0,0,0,0,-1,1623,1177,0,0
406,-153,0,0,0,0,0,0,0,0,0,-1,1630,1177,0,0
413,-153,0,0,0,0,0,0,0,0,0,-1,1637,1177,0,0
420,-153,0,0,0,0,0,0,0,0,0,-1,1644,1177,0,0
427,-153,0,0,0,0,0,0,0,0,0,-1,1651,1177,0,0
434,-153,0,0,0,0,0,0,0,0,0,-1,1658,1177,0,0
441,-153,0,0,0,0,0,0,0,0,0,-1,1665,1177,0,0
448,-153,0,0,0,0,0,0,0,0,0,-1,1672,1177,0,0
455,-153,0,0,0,0,0,0,0,0,0,-1,1679,1177,0,0
462,-153,0,0,0,0,0,0,0,0,0,-1,1686,1177,0,0
469,-153,0,0,0,0,0,0,0,0,0,-1,1693,1177,0,0
476,-153,0,0,0,0,0,0,0,0,0,-1,1700,1177,0,0
483,-153,0,0,0,0,0,0,0,0,0,-1,1707,1177,0,0
490,-153,0,0,0,0,0,0,0,0,0,-1,1714,1177,0,0
497,-153,0,0,0,0,0,0,0,0,0,-1,1721,1177,0,0
504,-153,0,0,0,0,0,0,0,0,0,-1,1728,1177,0,0
511,-153,0,0,0,0,0,0,0,0,0,-1,1735,1177,0,0
518,-153,0,0,0,0,0,0,0,0,0,-1,1742,1177,0,0
525,-153,0,0,0,0,0,0,0,0,0,-1,1749,1177,0,0
532,-153,0,0,0,0,0,0,0,0,0,-1,1756,1177,0,0
539,-153,0,0,0,0,0,0,0,0,0,-1,1763,1177,0,0
546,-153,0,0,0,0,0,0,0,0,0,-1,1770,1177,0,0
553,-153,0,0,0,0,0,0,0,0,0,-1,1777,1177,0,0
560,-153,0,0,0,0,0,0,0,0,0,-1,1784,1177,0,0
567,-153,0,0,0,0,0,0,0,0,0,-1,1791,1177,0,0
574,-153,0,0,0,0,0,0,0,0,0,-1,1798,1177,0,0
581,-153,0,0,0,0,0,0,0,0,0,-1,1805,1177,0,0
588,-153,0,0,0,0,0,0,0,0,0,-1,1812,1177,0,0
595,-153,0,0,0,0,0,0,0,0,0,-1,1819,1177,0,0
602,-153,0,0,0,0,0,0,0,0,0,-1,1826,1177,0,0
609,-153,0,0,0,0,0,0,0,0,0,-1,1833,1177,0,0
616,-153,0,0,0,0,0,0,0,0,0,-1,1840,1177,0,0
623,-153,0,0,0,0,0,0,0,0,0,-1,1847,1177,0,0
630,-153,0,0,0,0,0,0,0,0,0,-1,1854,1177,0,0
637,-153,43.9384,2.65918,0.00308982,-0.00745629,-0.00197375,0.00344711,-0.00781358,-0.179082,0.00666229,0.0393622,1861,1177,43.9383,-2.65924
644,-153,43.9595,2.56506,0.0021118,-0.00543447,-0.000929803,0.00222467,-0.00554735,-0.120807,0.00462185,0.0378807,1868,1177,43.9594,-2.56511
651,-153,43.9871,2.60938,0.00155902,-0.00364268,-0.000428275,0.00159404,-0.00367771,-0.0816013,0.00312189,0.0304207,1875,1177,43.9871,-2.60936
658,-153,43.9944,2.64563,0.00137286,-0.00214017,-0.00026554,0.00139282,-0.00216013,-0.0750191,0.00206718,0.0344204,1882,1177,43.9943,-2.64565
665,-153,44.0099,2.65674,0.00137466,-0.00101703,-0.000185872,0.00138901,-0.00103139,-0.0770991,0.00140249,0.0371687,1889,1177,44.0099,-2.65671
672,-153,43.9482,2.59851,0.0011467,-0.000470374,6.29103e-05,0.00114915,-0.000472818,0.0388255,0.000963198,0.035531,1896,1177,43.9482,-2.59854
679,-153,43.88,2.53247,0.000210069,5.14045e-05,0.000335319,0.000475313,-0.000213839,0.66924,0.000407316,0.0271555,1903,1177,43.88,-2.53249
686,-153,43.9501,2.56348,-0.000601584,7.56306e-05,0.000687305,0.000503211,-0.00102916,1.01428,0.000901921,0.0178154,1910,1177,43.9501,-2.56345
693,-153,44.0099,2.51587,-0.0012079,9.98588e-05,0.00102692,0.000663401,-0.00177144,1.0689,0.00145347,0.0286082,1917,1177,44.0098,-2.51582
700,-153,44.0431,2.39233,0,0,0,0,0,0,0,-1,1924,1177,44.0431,-2.39236
707,-153,29.6483,6.6842,0,0,0,0,0,0,0,-1,1931,1177,29.6483,-6.68415
714,-153,36.0046,6.78418,0,0,0,0,0,0,0,-1,1938,1177,36.0046,-6.78418
721,-153,36.4866,6.47595,0,0,0,0,0,0,0,-1,1945,1177,36.4866,-6.47593
728,-153,38.597,6.31445,0,0,0,0,0,0,0,-1,1952,1177,38.597,-6.31446
735,-153,38.5925,6.13794,-0.00350611,0.000627892,0.00239705,0.00172607,-0.00460429,1.1412,0.00377866,0.0316464,1959,1177,38.5925,-6.13791
742,-153,38.5961,5.88623,-0.00363513,0.00102387,0.00272156,0.00227675,-0.00488801,1.13936,0.00422716,0.0147775,1966,1177,38.596,-5.88617
749,-153,38.5759,5.57349,-0.0029572,0.00207701,0.00293166,0.0034239,-0.00430409,1.14013,0.00447139,0.0158479,1973,1177,38.5759,-5.57354
756,-153,38.5747,5.18933,-0.000906572,0.00448964,0.00301407,0.00583682,-0.00225376,1.15047,0.00482138,0.0109567,1980,1177,38.5748,-5.18932
763,-153,38.5323,4.84656,0.00197777,0.00769902,0.00323591,0.00915745,0.000519334,1.14736,0.00593943,0.0105891,1987,1177,38.5324,-4.84661
770,-153,38.5291,4.52368,0.00586209,0.0121195,0.00342634,0.0136307,0.0043509,1.15541,0.00803936,0.0109103,1994,1177,38.5291,-4.52363
777,-153,38.5079,4.28064,0.011405,0.0183834,0.00351196,0.0198448,0.00994365,1.17647,0.0114574,0.0230895,2001,1177,38.5079,-4.28061
784,-153,38.274,4.63989,0.0192204,0.0278128,0.00311939,0.0288258,0.0182073,1.25679,0.0168338,0.0426068,2008,1177,38.2741,-4.63993
791,-153,38.0315,4.86755,0,0,0,0,0,0,0,-1,2015,1177,38.0314,-4.86753
798,-153,37.4756,4.85535,0,0,0,0,0,0,0,-1,2022,1177,37.4755,-4.8554
805,-153,37.2278,5.07629,0,0,0,0,0,0,0,-1,2029,1177,37.2278,-5.07632
812,-153,0,0,0,0,0,0,0,0,0,-1,2036,1177,0,0
-700,-160,0,0,0,0,0,0,0,0,0,-1,524,1184,0,0
-693,-160,0,0,0,0,0,0,0,0,0,-1,531,1184,0,0
-686,-160,-27.8831,-0.250122,0.106467,0.119579,0.0474886,0.160962,0.0650842,0.853992,0.0934968,0.0451468,538,1184,-27.883,0.250142
-679,-160,-27.6017,-0.0919189,0.0929004,0.0984111,0.0381283,0.133883,0.057428,0.821468,0.0775574,0.0444255,545,1184,-27.6017,0.0918812
-672,-160,-27.6544,-0.225464,0.0781849,0.079505,0.0296142,0.108466,0.0492234,0.79654,0.0627121,0.0428504,552,1184,-27.6544,0.225408
-665,-160,-27.5621,-0.626221,0.0635882,0.0627672,0.0221266,0.0853081,0.0410473,0.776122,0.0492643,0.0475071,559,1184,-27.5621,0.626254
-658,-160,-27.2885,-0.0826416,0,0,0,0,0,0,0,-1,566,1184,-27.2885,0.0826499
-651,-160,-26.8284,0.876831,0,0,0,0,0,0,0,-1,573,1184,-26.8284,-0.876878
-644,-160,-26.0751,1.46057,0.0261084,0.0251476,0.00639473,0.0320407,0.0192152,0.747907,0.0186209,0.0387409,580,1184,-26.0751,-1.46062
-637,-160,-26.0433,1.75354,0.0167827,0.0166146,0.00334167,0.0200413,0.0133559,0.772823,0.0117826,0.0146688,587,1184,-26.0434,-1.75352
-630,-160,-26.1019,2.11609,0.0100638,0.0091619,0.000966606,0.0106795,0.00854623,0.56714,0.00652585,0.00919225,594,1184,-26.1019,-2.11605
-623,-160,-26.1392,2.48621,0.00314335,0.00391114,-0.000419686,0.00409603,0.00295846,-1.15585,0.00244149,0.0119477,601,1184,-26.1392,-2.48615
-616,-160,-26.152,2.88391,0.000421558,0.00114454,-0.000883107,0.00173728,-0.000171179,-0.979665,0.00121926,0.0103586,608,1184,-26.1521,-2.88393
-609,-160,-26.143,3.32251,-3.37944e-05,0.00042218,-0.000375429,0.000633425,-0.00024504,-1.05827,0.000523444,0.0123727,615,1184,-26.143,-3.32251
-602,-160,-26.0306,3.89587,-0.00059345,0.00013013,-0.000403768,0.000310485,-0.000773804,-1.15071,0.000644784,0.0423398,622,1184,-26.0306,-3.8959
-595,-160,-26.0528,4.64978,0,0,0,0,0,0,0,-1,629,1184,-26.0528,-4.64975
-588,-160,-26.1257,4.65198,0,0,0,0,0,0,0,-1,636,1184,-26.1256,-4.65201
-581,-160,-25.2925,4.6272,0,0,0,0,0,0,0,-1,643,1184,-25.2925,-4.62719
-574,-160,-28.1793,4.33484,0,0,0,0,0,0,0,-1,650,1184,-28.1792,-4.33488
-567,-160,-29.5828,0.643921,0,0,0,0,0,0,0,-1,657,1184,-29.5828,-0.643968
-560,-160,-32.1415,0.67395,0,0,0,0,0,0,0,-1,664,1184,-32.1415,-0.67401
-553,-160,-32.1385,0.665405,-0.00102307,0.00214788,0.000516811,0.00222998,-0.00110518,1.41324,0.00196172,0.0352011,671,1184,-32.1385,-0.665429
-546,-160,-32.2087,0.570313,-0.00078749,0.00263425,0.000640347,0.00275016,-0.000903398,1.39173,0.00219737,0.0366989,678,1184,-32.2087,-0.570274
-539,-160,-32.2302,0.498169,-5.05378e-05,0.00390546,0.001255,0.00427,-0.000415081,1.2881,0.00299463,0.0420094,685,1184,-32.2302,-0.498167
-532,-160,-32.0563,0.695313,0.0010628,0.00531645,0.00213081,0.00620022,0.000179022,1.17763,0.00407512,0.0455831,692,1184,-32.0564,-0.695336
-525,-160,-31.9673,0.825195,0.00292337,0.00679269,0.00321965,0.00861424,0.00110182,1.05594,0.00541306,0.0414136,699,1184,-31.9673,-0.825171
-518,-160,-32.1202,0.832642,0.0045048,0.00840472,0.00422905,0.0111117,0.00179781,1.00142,0.0068872,0.0383623,706,1184,-32.1202,-0.832646
-511,-160,0,0,0,0,0,0,0,0,0,-1,713,1184,0,0
-504,-160,0,0,0,0,0,0,0,0,0,-1,720,1184,0,0
-497,-160,0,0,0,0,0,0,0,0,0,-1,727,1184,0,0
-490,-160,0,0,0,0,0,0,0,0,0,-1,734,1184,0,0
-483,-160,0,0,0,0,0,0,0,0,0,-1,741,1184,0,0
-476,-160,0,0,0,0,0,0,0,0,0,-1,748,1184,0,0
-469,-160,0,0,0,0,0,0,0,0,0,-1,755,1184,0,0
-462,-160,0,0,0,0,0,0,0,0,0,-1,762,1184,0,0
-455,-160,0,0,0,0,0,0,0,0,0,-1,769,1184,0,0
-448,-160,0,0,0,0,0,0,0,0,0,-1,776,1184,0,0
-441,-160,0,0,0,0,0,0,0,0,0,-1,783,1184,0,0
-434,-160,0,0,0,0,0,0,0,0,0,-1,790,1184,0,0
-427,-160,0,0,0,0,0,0,0,0,0,-1,797,1184,0,0
-420,-160,0,0,0,0,0,0,0,0,0,-1,804,1184,0,0
-413,-160,0,0,0,0,0,0,0,0,0,-1,811,1184,0,0
-406,-160,0,0,0,0,0,0,0,0,0,-1,818,1184,0,0
-399,-160,0,0,0,0,0,0,0,0,0,-1,825,1184,0,0
-392,-160,0,0,0,0,0,0,0,0,0,-1,832,1184,0,0
-385,-160,0,0,0,0,0,0,0,0,0,-1,839,1184,0,0
-378,-160,0,0,0,0,0,0,0,0,0,-1,846,1184,0,0
-371,-160,0,0,0,0,0,0,0,0,0,-1,853,1184,0,0
-364,-160,0,0,0,0,0,0,0,0,0,-1,860,1184,0,0
-357,-160,0,0,0,0,0,0,0,0,0,-1,867,1184,0,0
-350,-160,0,0,0,0,0,0,0,0,0,-1,874,1184,0,0
-343,-160,0,0,0,0,0,0,0,0,0,-1,881,1184,0,0
-336,-160,0,0,0,0,0,0,0,0,0,-1,888,1184,0,0
-329,-160,0,0,0,0,0,0,0,0,0,-1,895,1184,0,0
-322,-160,0,0,0,0,0,0,0,0,0,-1,902,1184,0,0
-315,-160,0,0,0,0,0,0,0,0,0,-1,909,1184,0,0
-308,-160,0,0,0,0,0,0,0,0,0,-1,916,1184,0,0
-301,-160,0,0,0,0,0,0,0,0,0,-1,923,1184,0,0
-294,-160,0,0,0,0,0,0,0,0,0,-1,930,1184,0,0
-287,-160,0,0,0,0,0,0,0,0,0,-1,937,1184,0,0
-280,-160,0,0,0,0,0,0,0,0,0,-1,944,1184,0,0
-273,-160,0,0,0,0,0,0,0,0,0,-1,951,1184,0,0
-266,-160,0,0,0,0,0,0,0,0,0,-1,958,1184,0,0
-259,-160,0,0,0,0,0,0,0,0,0,-1,965,1184,0,0
-252,-160,0,0,0,0,0,0,0,0,0,-1,972,1184,0,0
-245,-160,0,0,0,0,0,0,0,0,0,-1,979,1184,0,0
-238,-160,0,0,0,0,0,0,0,0,0,-1,986,1184,0,0
-231,-160,0,0,0,0,0,0,0,0,0,-1,993,1184,0,0
-224,-160,0,0,0,0,0,0,0,0,0,-1,1000,1184,0,0
-217,-160,0,0,0,0,0,0,0,0,0,-1,1007,1184,0,0
-210,-160,0,0,0,0,0,0,0,0,0,-1,1014,1184,0,0
-203,-160,0,0,0,0,0,0,0,0,0,-1,1021,1184,0,0
-196,-160,0,0,0,0,0,0,0,0,0,-1,1028,1184,0,0
-189,-160,0,0,0,0,0,0,0,0,0,-1,1035,1184,0,0
-182,-160,0,0,0,0,0,0,0,0,0,-1,1042,1184,0,0
-175,-160,0,0,0,0,0,0,0,0,0,-1,1049,1184,0,0
-168,-160,0,0,0,0,0,0,0,0,0,-1,1056,1184,0,0
-161,-160,0,0,0,0,0,0,0,0,0,-1,1063,1184,0,0
-154,-160,0,0,0,0,0,0,0,0,0,-1,1070,1184,0,0
-147,-160,0,0,0,0,0,0,0,0,0,-1,1077,1184,0,0
-140,-160,0,0,0,0,0,0,0,0,0,-1,1084,1184,0,0
-133,-160,0,0,0,0,0,0,0,0,0,-1,1091,1184,0,0
-126,-160,0,0,0,0,0,0,0,0,0,-1,1098,1184,0,0
-119,-160,0,0,0,0,0,0,0,0,0,-1,1105,1184,0,0
-112,-160,0,0,0,0,0,0,0,0,0,-1,1112,1184,0,0
-105,-160,0,0,0,0,0,0,0,0,0,-1,1119,1184,0,0
-98,-160,0,0,0,0,0,0,0,0,0,-1,1126,1184,0,0
-91,-160,0,0,0,0,0,0,0,0,0,-1,1133,1184,0,0
-84,-160,0,0,0,0,0,0,0,0,0,-1,1140,1184,0,0
-77,-160,0,0,0,0,0,0,0,0,0,-1,1147,1184,0,0
-70,-160,0,0,0,0,0,0,0,0,0,-1,1154,1184,0,0
-63,-160,0,0,0,0,0,0,0,0,0,-1,1161,1184,0,0
-56,-160,0,0,0,0,0,0,0,0,0,-1,1168,1184,0,0
-49,-160,0,0,0,0,0,0,0,0,0,-1,1175,1184,0,0
-42,-160,0,0,0,0,0,0,0,0,0,-1,1182,1184,0,0
-35,-160,0,0,0,0,0,0,0,0,0,-1,1189,1184,0,0
-28,-160,0,0,0,0,0,0,0,0,0,-1,1196,1184,0,0
-21,-160,0,0,0,0,0,0,0,0,0,-1,1203,1184,0,0
-14,-160,0,0,0,0,0,0,0,0,0,-1,1210,1184,0,0
-7,-160,0,0,0,0,0,0,0,0,0,-1,1217,1184,0,0
0,-160,0,0,0,0,0,0,0,0,0,-1,1224,1184,0,0
7,-160,0,0,0,0,0,0,0,0,0,-1,1231,1184,0,0
14,-160,0,0,0,0,0,0,0,0,0,-1,1238,1184,0,0
21,-160,0,0,0,0,0,0,0,0,0,-1,1245,1184,0,0
28,-160,0,0,0,0,0,0,0,0,0,-1,1252,1184,0,0
35,-160,0,0,0,0,0,0,0,0,0,-1,1259,1184,0,0
42,-160,0,0,0,0,0,0,0,0,0,-1,1266,1184,0,0
49,-160,0,0,0,0,0,0,0,0,0,-1,1273,1184,0,0
56,-160,0,0,0,0,0,0,0,0,0,-1,1280,1184,0,0
63,-160,0,0,0,0,0,0,0,0,0,-1,1287,1184,0,0
70,-160,0,0,0,0,0,0,0,0,0,-1,1294,1184,0,0
77,-160,0,0,0,0,0,0,0,0,0,-1,1301,1184,0,0
84,-160,0,0,0,0,0,0,0,0,0,-1,1308,1184,0,0
91,-160,0,0,0,0,0,0,0,0,0,-1,1315,1184,0,0
98,-160,0,0,0,0,0,0,0,0,0,-1,1322,1184,0,0
105,-160,0,0,0,0,0,0,0,0,0,-1,1329,1184,0,0
112,-160,0,0,0,0,0,0,0,0,0,-1,1336,1184,0,0
119,-160,0,0,0,0,0,0,0,0,0,-1,1343,1184,0,0
126,-160,0,0,0,0,0,0,0,0,0,-1,1350,1184,0,0
133,-160,0,0,0,0,0,0,0,0,0,-1,1357,1184,0,0
140,-160,0,0,0,0,0,0,0,0,0,-1,1364,1184,0,0
147,-160,0,0,0,0,0,0,0,0,0,-1,1371,1184,0,0
154,-160,0,0,0,0,0,0,0,0,0,-1,1378,1184,0,0
161,-160,0,0,0,0,0,0,0,0,0,-1,1385,1184,0,0
168,-160,0,0,0,0,0,0,0,0,0,-1,1392,1184,0,0
175,-160,0,0,0,0,0,0,0,0,0,-1,1399,1184,0,0
182,-160,0,0,0,0,0,0,0,0,0,-1,1406,1184,0,0
189,-160,0,0,0,0,0,0,0,0,0,-1,1413,1184,0,0
196,-160,0,0,0,0,0,0,0,0,0,-1,1420,1184,0,0
203,-160,0,0,0,0,0,0,0,0,0,-1,1427,1184,0,0
210,-160,0,0,0,0,0,0,0,0,0,-1,1434,1184,0,0
217,-160,0,0,0,0,0,0,0,0,0,-1,1441,1184,0,0
224,-160,0,0,0,0,0,0,0,0,0,-1,1448,1184,0,0
231,-160,0,0,0,0,0,0,0,0,0,-1,1455,1184,0,0
238,-160,0,0,0,0,0,0,0,0,0,-1,1462,1184,0,0
245,-160,0,0,0,0,0,0,0,0,0,-1,1469,1184,0,0
252,-160,0,0,0,0,0,0,0,0,0,-1,1476,1184,0,0
259,-160,0,0,0,0,0,0,0,0,0,-1,1483,1184,0,0
266,-160,0,0,0,0,0,0,0,0,0,-1,1490,1184,0,0
273,-160,0,0,0,0,0,0,0,0,0,-1,1497,1184,0,0
280,-160,0,0,0,0,0,0,0,0,0,-1,1504,1184,0,0
287,-160,0,0,0,0,0,0,0,0,0,-1,1511,1184,0,0
294,-160,0,0,0,0,0,0,0,0,0,-1,1518,1184,0,0
301,-160,0,0,0,0,0,0,0,0,0,-1,1525,1184,0,0
308,-160,0,0,0,0,0,0,0,0,0,-1,1532,1184,0,0
315,-160,0,0,0,0,0,0,0,0,0,-1,1539,1184,0,0
322,-160,0,0,0,0,0,0,0,0,0,-1,1546,1184,0,0
329,-160,0,0,0,0,0,0,0,0,0,-1,1553,1184,0,0
336,-160,0,0,0,0,0,0,0,0,0,-1,1560,1184,0,0
343,-160,0,0,0,0,0,0,0,0,0,-1,1567,1184,0,0
350,-160,0,0,0,0,0,0,0,0,0,-1,1574,1184,0,0
357,-160,0,0,0,0,0,0,0,0,0,-1,1581,1184,0,0
364,-160,0,0,0,0,0,0,0,0,0,-1,1588,1184,0,0
371,-160,0,0,0,0,0,0,0,0,0,-1,1595,1184,0,0
378,-160,0,0,0,0,0,0,0,0,0,-1,1602,1184,0,0
385,-160,0,0,0,0,0,0,0,0,0,-1,1609,1184,0,0
392,-160,0,0,0,0,0,0,0,0,0,-1,1616,1184,0,0
399,-160,0,0,0,0,0,0,0,0,0,-1,1623,1184,0,0
406,-160,0,0,0,0,0,0,0,0,0,-1,1630,1184,0,0
413,-160,0,0,0,0,0,0,0,0,0,-1,1637,1184,0,0
420,-160,0,0,0,0,0,0,0,0,0,-1,1644,1184,0,0
427,-160,0,0,0,0,0,0,0,0,0,-1,1651,1184,0,0
434,-160,0,0,0,0,0,0,0,0,0,-1,1658,1184,0,0
441,-160,0,0,0,0,0,0,0,0,0,-1,1665,1184,0,0
448,-160,0,0,0,0,0,0,0,0,0,-1,1672,1184,0,0
455,-160,0,0,0,0,0,0,0,0,0,-1,1679,1184,0,0
462,-160,0,0,0,0,0,0,0,0,0,-1,1686,1184,0,0
469,-160,0,0,0,0,0,0,0,0,0,-1,1693,1184,0,0
476,-160,0,0,0,0,0,0,0,0,0,-1,1700,1184,0,0
483,-160,0,0,0,0,0,0,0,0,0,-1,1707,1184,0,0
490,-160,0,0,0,0,0,0,0,0,0,-1,1714,1184,0,0
497,-160,0,0,0,0,0,0,0,0,0,-1,1721,1184,0,0
504,-160,0,0,0,0,0,0,0,0,0,-1,1728,1184,0,0
511,-160,0,0,0,0,0,0,0,0,0,-1,1735,1184,0,0
518,-160,0,0,0,0,0,0,0,0,0,-1,1742,1184,0,0
525,-160,0,0,0,0,0,0,0,0,0,-1,1749,1184,0,0
532,-160,0,0,0,0,0,0,0,0,0,-1,1756,1184,0,0
539,-160,0,0,0,0,0,0,0,0,0,-1,1763,1184,0,0
546,-160,0,0,0,0,0,0,0,0,0,-1,1770,1184,0,0
553,-160,0,0,0,0,0,0,0,0,0,-1,1777,1184,0,0
560,-160,0,0,0,0,0,0,0,0,0,-1,1784,1184,0,0
567,-160,0,0,0,0,0,0,0,0,0,-1,1791,1184,0,0
574,-160,0,0,0,0,0,0,0,0,0,-1,1798,1184,0,0
581,-160,0,0,0,0,0,0,0,0,0,-1,1805,1184,0,0
588,-160,0,0,0,0,0,0,0,0,0,-1,1812,1184,0,0
595,-160,0,0,0,0,0,0,0,0,0,-1,1819,1184,0,0
602,-160,0,0,0,0,0,0,0,0,0,-1,1826,1184,0,0
609,-160,0,0,0,0,0,0,0,0,0,-1,1833,1184,0,0
616,-160,0,0,0,0,0,0,0,0,0,-1,1840,1184,0,0
623,-160,0,0,0,0,0,0,0,0,0,-1,1847,1184,0,0
630,-160,0,0,0,0,0,0,0,0,0,-1,1854,1184,0,0
637,-160,43.6488,2.91064,0.00232658,-0.00665577,-0.00151234,0.00257437,-0.00690356,-0.162405,0.00565917,0.0436821,1861,1184,43.6488,-2.91067
644,-160,43.8098,2.66943,0.0017373,-0.00477498,-0.000785601,0.00183073,-0.00486841,-0.118372,0.00399809,0.0426656,1868,1184,43.8098,-2.66949
651,-160,43.8195,2.62292,0.00144288,-0.00307441,-0.000483177,0.00149399,-0.00312551,-0.105373,0.00272195,0.0384174,1875,1184,43.8195,-2.62298
658,-160,43.7769,2.63379,0.00151016,-0.00169191,-0.00048082,0.0015808,-0.00176255,-0.145875,0.00193123,0.0371053,1882,1184,43.7768,-2.63379
665,-160,43.9664,2.64746,0.00169419,-0.000790128,-0.000439512,0.00176965,-0.000865591,-0.170041,0.00155102,0.0363553,1889,1184,43.9664,-2.6475
672,-160,43.9763,2.55188,0.00151069,-0.00049802,-0.000120507,0.00151789,-0.000505224,-0.0597067,0.00121585,0.0310354,1896,1184,43.9763,-2.55184
679,-160,43.9318,2.56677,0.00056624,-0.000155159,0.000238446,0.00063793,-0.000226849,0.292057,0.000517742,0.0225978,1903,1184,43.9318,-2.56681
686,-160,43.9741,2.55737,-0.00025015,-0.000206508,0.00062244,0.000394494,-0.000851152,0.802919,0.000735107,0.0148166,1910,1184,43.9742,-2.55742
693,-160,44.0393,2.51367,0,0,0,0,0,0,0,-1,1917,1184,44.0393,-2.51367
700,-160,42.8784,2.44617,0,0,0,0,0,0,0,-1,1924,1184,42.8785,-2.4462
707,-160,24.5115,6.27405,0,0,0,0,0,0,0,-1,1931,1184,24.5115,-6.27401
714,-160,35.6892,6.8905,0,0,0,0,0,0,0,-1,1938,1184,35.6892,-6.89048
721,-160,36.2388,6.37878,0,0,0,0,0,0,0,-1,1945,1184,36.2388,-6.37876
728,-160,38.2246,6.61316,0,0,0,0,0,0,0,-1,1952,1184,38.2246,-6.61318
735,-160,38.3285,6.19922,-0.00327999,0.000290666,0.00249661,0.00157461,-0.00456394,1.09579,0.00368151,0.0250354,1959,1184,38.3284,-6.19923
742,-160,38.2317,5.87659,-0.00328514,0.000800529,0.00275326,0.00218605,-0.00467066,1.10457,0.00404443,0.0160854,1966,1184,38.2317,-5.87653
749,-160,38.2084,5.56287,-0.00240975,0.00196748,0.00283949,0.00336394,-0.00380621,1.11373,0.00414231,0.016654,1973,1184,38.2084,-5.56289
756,-160,38.2151,5.18701,-0.000402176,0.00427768,0.00277501,0.00556762,-0.00169212,1.13567,0.00438597,0.0104687,1980,1184,38.215,-5.18698
763,-160,38.173,4.8634,0.00213581,0.00721153,0.00278597,0.00844227,0.000905069,1.15481,0.00535206,0.0111021,1987,1184,38.1729,-4.86342
770,-160,38.101,4.51343,0.00545384,0.0112863,0.00279698,0.0124108,0.00432934,1.18853,0.0072737,0.0216677,1994,1184,38.101,-4.51342
777,-160,38.1091,4.29785,0.0100064,0.0171134,0.00268131,0.0180115,0.00910827,1.24759,0.0103992,0.0345371,2001,1184,38.1091,-4.2978
784,-160,38.2146,4.10352,0.0162004,0.0262413,0.00191373,0.0265937,0.015848,1.38871,0.0154478,0.0473113,2008,1184,38.2146,-4.10348
791,-160,38.3279,3.92358,0,0,0,0,0,0,0,-1,2015,1184,38.3278,-3.9236
798,-160,36.99,3.35986,0,0,0,0,0,0,0,-1,2022,1184,36.9899,-3.35989
805,-160,36.7615,3.31995,0,0,0,0,0,0,0,-1,2029,1184,36.7615,-3.31994
812,-160,0,0,0,0,0,0,0,0,0,-1,2036,1184,0,0
-700,-167,0,0,0,0,0,0,0,0,0,-1,524,1191,0,0
-693,-167,0,0,0,0,0,0,0,0,0,-1,531,1191,0,0
-686,-167,-27.7823,-1.65393,0.121754,0.107439,0.0287252,0.1442,0.0849929,0.663292,0.0836965,0.0431577,538,1191,-27.7824,1.65397
-679,-167,-27.555,-1.84644,0.102717,0.0882407,0.0237832,0.120339,0.0706186,0.637683,0.0698261,0.0420256,545,1191,-27.555,1.84642
-672,-167,-27.751,-1.5979,0.0842238,0.0713459,0.0187903,0.0976477,0.057922,0.620332,0.0567023,0.046316,552,1191,-27.751,1.59795
-665,-167,-27.9685,-1.34631,0,0,0,0,0,0,0,-1,559,1191,-27.9685,1.34632
-658,-167,-23.8334,0.0949707,0,0,0,0,0,0,0,-1,566,1191,-23.8333,-0.0949801
-651,-167,-25.6219,0.94519,0,0,0,0,0,0,0,-1,573,1191,-25.6219,-0.945234
-644,-167,-25.6074,1.3335,0.0259254,0.0231235,0.00383486,0.0286072,0.0204417,0.610268,0.0170157,0.040779,580,1191,-25.6074,-1.33352
-637,-167,-25.6246,1.72681,0.0163419,0.0155574,0.00186748,0.0178579,0.0140414,0.681877,0.010859,0.0174166,587,1191,-25.6246,-1.72682
-630,-167,-25.69,2.10168,0.0096236,0.00863716,0.000266922,0.00969119,0.00856957,0.248024,0.00612127,0.00932852,594,1191,-25.69,-2.10172
-623,-167,-25.7189,2.4751,0.00255728,0.00403338,-0.000429822,0.00414942,0.00244124,-1.30712,0.0024081,0.0111217,601,1191,-25.7189,-2.47508
-616,-167,-25.746,2.87549,-4.12407e-05,0.00138757,-0.000819253,0.00176016,-0.000413826,-1.14397,0.00133297,0.0142688,608,1191,-25.746,-2.87552
-609,-167,-25.7533,3.30737,-0.000124897,0.000552072,-0.000265527,0.000643792,-0.000216618,-1.2382,0.000516763,0.013505,615,1191,-25.7533,-3.30737
-602,-167,-25.7618,3.70032,-0.00059653,0.000181976,-0.000299682,0.000283974,-0.000698528,-1.24274,0.000583836,0.0156453,622,1191,-25.7618,-3.70035
-595,-167,-25.624,4.04004,0,0,0,0,0,0,0,-1,629,1191,-25.624,-4.04007
-588,-167,-25.8934,4.36719,0,0,0,0,0,0,0,-1,636,1191,-25.8934,-4.36721
-581,-167,-25.8835,4.57703,0,0,0,0,0,0,0,-1,643,1191,-25.8835,-4.57697
-574,-167,-24.1547,5.43677,0,0,0,0,0,0,0,-1,650,1191,-24.1547,-5.43682
-567,-167,-27.3643,2.55859,0,0,0,0,0,0,0,-1,657,1191,-27.3643,-2.55864
-560,-167,-32.0902,0.739746,0,0,0,0,0,0,0,-1,664,1191,-32.0902,-0.73979
-553,-167,-32.1282,0.711304,-0.00103877,0.00233667,0.000382753,0.00237953,-0.00108163,1.45929,0.0020446,0.0368627,671,1191,-32.1282,-0.711264
-546,-167,-32.1719,0.68042,-0.000807867,0.00280202,0.00049943,0.00286985,-0.000875689,1.43582,0.00226234,0.0350231,678,1191,-32.1719,-0.68047
-539,-167,-32.0851,0.47522,-0.000176213,0.00405485,0.00106006,0.00430558,-0.000426946,1.33854,0.00302277,0.0396087,685,1191,-32.0851,-0.475227
-532,-167,-31.9474,0.485474,0.000671881,0.00557609,0.00190112,0.00622673,2.12339e-05,1.24105,0.0041441,0.0451373,692,1191,-31.9474,-0.485426
-525,-167,-31.9285,0.628662,0.00239533,0.00740294,0.0032191,0.00897733,0.000820939,1.11593,0.00573087,0.0442615,699,1191,-31.9286,-0.628648
-518,-167,-32.0746,0.713135,0.00405195,0.00981533,0.00482358,0.0125525,0.00131483,1.05466,0.00796628,0.0421928,706,1191,-32.0746,-0.713191
-511,-167,0,0,0,0,0,0,0,0,0,-1,713,1191,0,0
-504,-167,0,0,0,0,0,0,0,0,0,-1,720,1191,0,0
-497,-167,0,0,0,0,0,0,0,0,0,-1,727,1191,0,0
-490,-167,0,0,0,0,0,0,0,0,0,-1,734,1191,0,0
-483,-167,0,0,0,0,0,0,0,0,0,-1,741,1191,0,0
-476,-167,0,0,0,0,0,0,0,0,0,-1,748,1191,0,0
-469,-167,0,0,0,0,0,0,0,0,0,-1,755,1191,0,0
-462,-167,0,0,0,0,0,0,0,0,0,-1,762,1191,0,0
-455,-167,0,0,0,0,0,0,0,0,0,-1,769,1191,0,0
-448,-167,0,0,0,0,0,0,0,0,0,-1,776,1191,0,0
-441,-167,0,0,0,0,0,0,0,0,0,-1,783,1191,0,0
-434,-167,0,0,0,0,0,0,0,0,0,-1,790,1191,0,0
-427,-167,0,0,0,0,0,0,0,0,0,-1,797,1191,0,0
-420,-167,0,0,0,0,0,0,0,0,0,-1,804,1191,0,0
-413,-167,0,0,0,0,0,0,0,0,0,-1,811,1191,0,0
-406,-167,0,0,0,0,0,0,0,0,0,-1,818,1191,0,0
-399,-167,0,0,0,0,0,0,0,0,0,-1,825,1191,0,0
-392,-167,0,0,0,0,0,0,0,0,0,-1,832,1191,0,0
-385,-167,0,0,0,0,0,0,0,0,0,-1,839,1191,0,0
-378,-167,0,0,0,0,0,0,0,0,0,-1,846,1191,0,0
-371,-167,0,0,0,0,0,0,0,0,0,-1,853,1191,0,0
-364,-167,0,0,0,0,0,0,0,0,0,-1,860,1191,0,0
-357,-167,0,0,0,0,0,0,0,0,0,-1,867,1191,0,0
-350,-167,0,0,0,0,0,0,0,0,0,-1,874,1191,0,0
-343,-167,0,0,0,0,0,0,0,0,0,-1,881,1191,0,0
-336,-167,0,0,0,0,0,0,0,0,0,-1,888,1191,0,0
-329,-167,0,0,0,0,0,0,0,0,0,-1,895,1191,0,0
-322,-167,0,0,0,0,0,0,0,0,0,-1,902,1191,0,0
-315,-167,0,0,0,0,0,0,0,0,0,-1,909,1191,0,0
-308,-167,0,0,0,0,0,0,0,0,0,-1,916,1191,0,0
-301,-167,0,0,0,0,0,0,0,0,0,-1,923,1191,0,0
-294,-167,0,0,0,0,0,0,0,0,0,-1,930,1191,0,0
-287,-167,0,0,0,0,0,0,0,0,0,-1,937,1191,0,0
-280,-167,0,0,0,0,0,0,0,0,0,-1,944,1191,0,0
-273,-167,0,0,0,0,0,0,0,0,0,-1,951,1191,0,0
-266,-167,0,0,0,0,0,0,0,0,0,-1,958,1191,0,0
-259,-167,0,0,0,0,0,0,0,0,0,-1,965,1191,0,0
-252,-167,0,0,0,0,0,0,0,0,0,-1,972,1191,0,0
-245,-167,0,0,0,0,0,0,0,0,0,-1,979,1191,0,0
-238,-167,0,0,0,0,0,0,0,0,0,-1,986,1191,0,0
-231,-167,0,0,0,0,0,0,0,0,0,-1,993,1191,0,0
-224,-167,0,0,0,0,0,0,0,0,0,-1,1000,1191,0,0
-217,-167,0,0,0,0,0,0,0,0,0,-1,1007,1191,0,0
-210,-167,0,0,0,0,0,0,0,0,0,-1,1014,1191,0,0
-203,-167,0,0,0,0,0,0,0,0,0,-1,1021,1191,0,0
-196,-167,0,0,0,0,0,0,0,0,0,-1,1028,1191,0,0
-189,-167,0,0,0,0,0,0,0,0,0,-1,1035,1191,0,0
-182,-167,0,0,0,0,0,0,0,0,0,-1,1042,1191,0,0
-175,-167,0,0,0,0,0,0,0,0,0,-1,1049,1191,0,0
-168,-167,0,0,0,0,0,0,0,0,0,-1,1056,1191,0,0
-161,-167,0,0,0,0,0,0,0,0,0,-1,1063,1191,0,0
-154,-167,0,0,0,0,0,0,0,0,0,-1,1070,1191,0,0
-147,-167,0,0,0,0,0,0,0,0,0,-1,1077,1191,0,0
-140,-167,0,0,0,0,0,0,0,0,0,-1,1084,1191,0,0
-133,-167,0,0,0,0,0,0,0,0,0,-1,1091,1191,0,0
-126,-167,0,0,0,0,0,0,0,0,0,-1,1098,1191,0,0
-119,-167,0,0,0,0,0,0,0,0,0,-1,1105,1191,0,0
-112,-167,0,0,0,0,0,0,0,0,0,-1,1112,1191,0,0
-105,-167,0,0,0,0,0,0,0,0,0,-1,1119,1191,0,0
-98,-167,0,0,0,0,0,0,0,0,0,-1,1126,1191,0,0
-91,-167,0,0,0,0,0,0,0,0,0,-1,1133,1191,0,0
-84,-167,0,0,0,0,0,0,0,0,0,-1,1140,1191,0,0
-77,-167,0,0,0,0,0,0,0,0,0,-1,1147,1191,0,0
-70,-167,0,0,0,0,0,0,0,0,0,-1,1154,1191,0,0
-63,-167,0,0,0,0,0,0,0,0,0,-1,1161,1191,0,0
-56,-167,0,0,0,0,0,0,0,0,0,-1,1168,1191,0,0
-49,-167,0,0,0,0,0,0,0,0,0,-1,1175,1191,0,0
-42,-167,0,0,0,0,0,0,0,0,0,-1,1182,1191,0,0
-35,-167,0,0,0,0,0,0,0,0,0,-1,1189,1191,0,0
-28,-167,0,0,0,0,0,0,0,0,0,-1,1196,1191,0,0
-21,-167,0,0,0,0,0,0,0,0,0,-1,1203,1191,0,0
-14,-167,0,0,0,0,0,0,0,0,0,-1,1210,1191,0,0
-7,-167,0,0,0,0,0,0,0,0,0,-1,1217,1191,0,0
0,-167,0,0,0,0,0,0,0,0,0,-1,1224,1191,0,0
7,-167,0,0,0,0,0,0,0,0,0,-1,1231,1191,0,0
14,-167,0,0,0,0,0,0,0,0,0,-1,1238,1191,0,0
21,-167,0,0,0,0,0,0,0,0,0,-1,1245,1191,0,0
28,-167,0,0,0,0,0,0,0,0,0,-1,1252,1191,0,0
35,-167,0,0,0,0,0,0,0,0,0,-1,1259,1191,0,0
42,-167,0,0,0,0,0,0,0,0,0,-1,1266,1191,0,0
49,-167,0,0,0,0,0,0,0,0,0,-1,1273,1191,0,0
56,-167,0,0,0,0,0,0,0,0,0,-1,1280,1191,0,0
63,-167,0,0,0,0,0,0,0,0,0,-1,1287,1191,0,0
70,-167,0,0,0,0,0,0,0,0,0,-1,1294,1191,0,0
77,-167,0,0,0,0,0,0,0,0,0,-1,1301,1191,0,0
84,-167,0,0,0,0,0,0,0,0,0,-1,1308,1191,0,0
91,-167,0,0,0,0,0,0,0,0,0,-1,1315,1191,0,0
98,-167,0,0,0,0,0,0,0,0,0,-1,1322,1191,0,0
105,-167,0,0,0,0,0,0,0,0,0,-1,1329,1191,0,0
112,-167,0,0,0,0,0,0,0,0,0,-1,1336,1191,0,0
119,-167,0,0,0,0,0,0,0,0,0,-1,1343,1191,0,0
126,-167,0,0,0,0,0,0,0,0,0,-1,1350,1191,0,0
133,-167,0,0,0,0,0,0,0,0,0,-1,1357,1191,0,0
140,-167,0,0,0,0,0,0,0,0,0,-1,1364,1191,0,0
147,-167,0,0,0,0,0,0,0,0,0,-1,1371,1191,0,0
154,-167,0,0,0,0,0,0,0,0,0,-1,1378,1191,0,0
161,-167,0,0,0,0,0,0,0,0,0,-1,1385,1191,0,0
168,-167,0,0,0,0,0,0,0,0,0,-1,1392,1191,0,0
175,-167,0,0,0,0,0,0,0,0,0,-1,1399,1191,0,0
182,-167,0,0,0,0,0,0,0,0,0,-1,1406,1191,0,0
189,-167,0,0,0,0,0,0,0,0,0,-1,1413,1191,0,0
196,-167,0,0,0,0,0,0,0,0,0,-1,1420,1191,0,0
203,-167,0,0,0,0,0,0,0,0,0,-1,1427,1191,0,0
210,-167,0,0,0,0,0,0,0,0,0,-1,1434,1191,0,0
217,-167,0,0,0,0,0,0,0,0,0,-1,1441,1191,0,0
224,-167,0,0,0,0,0,0,0,0,0,-1,1448,1191,0,0
231,-167,0,0,0,0,0,0,0,0,0,-1,1455,1191,0,0
238,-167,0,0,0,0,0,0,0,0,0,-1,1462,1191,0,0
245,-167,0,0,0,0,0,0,0,0,0,-1,1469,1191,0,0
252,-167,0,0,0,0,0,0,0,0,0,-1,1476,1191,0,0
259,-167,0,0,0,0,0,0,0,0,0,-1,1483,1191,0,0
266,-167,0,0,0,0,0,0,0,0,0,-1,1490,1191,0,0
273,-167,0,0,0,0,0,0,0,0,0,-1,1497,1191,0,0
280,-167,0,0,0,0,0,0,0,0,0,-1,1504,1191,0,0
287,-167,0,0,0,0,0,0,0,0,0,-1,1511,1191,0,0
294,-167,0,0,0,0,0,0,0,0,0,-1,1518,1191,0,0
301,-167,0,0,0,0,0,0,0,0,0,-1,1525,1191,0,0
308,-167,0,0,0,0,0,0,0,0,0,-1,1532,1191,0,0
315,-167,0,0,0,0,0,0,0,0,0,-1,1539,1191,0,0
322,-167,0,0,0,0,0,0,0,0,0,-1,1546,1191,0,0
329,-167,0,0,0,0,0,0,0,0,0,-1,1553,1191,0,0
336,-167,0,0,0,0,0,0,0,0,0,-1,1560,1191,0,0
343,-167,0,0,0,0,0,0,0,0,0,-1,1567,1191,0,0
350,-167,0,0,0,0,0,0,0,0,0,-1,1574,1191,0,0
357,-167,0,0,0,0,0,0,0,0,0,-1,1581,1191,0,0
364,-167,0,0,0,0,0,0,0,0,0,-1,1588,1191,0,0
371,-167,0,0,0,0,0,0,0,0,0,-1,1595,1191,0,0
378,-167,0,0,0,0,0,0,0,0,0,-1,1602,1191,0,0
385,-167,0,0,0,0,0,0,0,0,0,-1,1609,1191,0,0
392,-167,0,0,0,0,0,0,0,0,0,-1,1616,1191,0,0
399,-167,0,0,0,0,0,0,0,0,0,-1,1623,1191,0,0
406,-167,0,0,0,0,0,0,0,0,0,-1,1630,1191,0,0
413,-167,0,0,0,0,0,0,0,0,0,-1,1637,1191,0,0
420,-167,0,0,0,0,0,0,0,0,0,-1,1644,1191,0,0
427,-167,0,0,0,0,0,0,0,0,0,-1,1651,1191,0,0
434,-167,0,0,0,0,0,0,0,0,0,-1,1658,1191,0,0
441,-167,0,0,0,0,0,0,0,0,0,-1,1665,1191,0,0
448,-167,0,0,0,0,0,0,0,0,0,-1,1672,1191,0,0
455,-167,0,0,0,0,0,0,0,0,0,-1,1679,1191,0,0
462,-167,0,0,0,0,0,0,0,0,0,-1,1686,1191,0,0
469,-167,0,0,0,0,0,0,0,0,0,-1,1693,1191,0,0
476,-167,0,0,0,0,0,0,0,0,0,-1,1700,1191,0,0
483,-167,0,0,0,0,0,0,0,0,0,-1,1707,1191,0,0
490,-167,0,0,0,0,0,0,0,0,0,-1,1714,1191,0,0
497,-167,0,0,0,0,0,0,0,0,0,-1,1721,1191,0,0
504,-167,0,0,0,0,0,0,0,0,0,-1,1728,1191,0,0
511,-167,0,0,0,0,0,0,0,0,0,-1,1735,1191,0,0
518,-167,0,0,0,0,0,0,0,0,0,-1,1742,1191,0,0
525,-167,0,0,0,0,0,0,0,0,0,-1,1749,1191,0,0
532,-167,0,0,0,0,0,0,0,0,0,-1,1756,1191,0,0
539,-167,0,0,0,0,0,0,0,0,0,-1,1763,1191,0,0
546,-167,0,0,0,0,0,0,0,0,0,-1,1770,1191,0,0
553,-167,0,0,0,0,0,0,0,0,0,-1,1777,1191,0,0
560,-167,0,0,0,0,0,0,0,0,0,-1,1784,1191,0,0
567,-167,0,0,0,0,0,0,0,0,0,-1,1791,1191,0,0
574,-167,0,0,0,0,0,0,0,0,0,-1,1798,1191,0,0
581,-167,0,0,0,0,0,0,0,0,0,-1,1805,1191,0,0
588,-167,0,0,0,0,0,0,0,0,0,-1,1812,1191,0,0
595,-167,0,0,0,0,0,0,0,0,0,-1,1819,1191,0,0
602,-167,0,0,0,0,0,0,0,0,0,-1,1826,1191,0,0
609,-167,0,0,0,0,0,0,0,0,0,-1,1833,1191,0,0
616,-167,0,0,0,0,0,0,0,0,0,-1,1840,1191,0,0
623,-167,0,0,0,0,0,0,0,0,0,-1,1847,1191,0,0
630,-167,0,0,0,0,0,0,0,0,0,-1,1854,1191,0,0
637,-167,43.6915,2.91541,0.0016886,-0.0064596,-0.00158668,0.00198667,-0.00675767,-0.185692,0.00529311,0.044607,1861,1191,43.6916,-2.91539
644,-167,43.8905,2.56824,0.00142138,-0.00448697,-0.00104733,0.00160154,-0.00466713,-0.17035,0.00376071,0.0457243,1868,1191,43.8906,-2.56826
651,-167,43.6442,2.52795,0.0013622,-0.00272373,-0.000828563,0.00152382,-0.00288535,-0.192649,0.00258578,0.0438587,1875,1191,43.6441,-2.528
658,-167,43.6226,2.79187,0.00162796,-0.0013459,-0.000884604,0.0018712,-0.00158914,-0.268338,0.00200004,0.0425883,1882,1191,43.6226,-2.79181
665,-167,43.9701,2.81836,0.00190985,-0.000540576,-0.000804761,0.00215052,-0.000781237,-0.290582,0.00175311,0.0367698,1889,1191,43.97,-2.81832
672,-167,43.9897,2.59546,0.00172405,-0.000371949,-0.000392409,0.00179511,-0.000443006,-0.179138,0.00136852,0.0257586,1896,1191,43.9897,-2.59548
679,-167,43.9512,2.55127,0.00080812,-0.000113191,4.03274e-05,0.000809882,-0.000114953,0.0436605,0.000582035,0.019225,1903,1191,43.9512,-2.55123
686,-167,43.9375,2.51147,1.72859e-05,-0.000175164,0.000436728,0.000368264,-0.000526142,0.676965,0.00051906,0.0258161,1910,1191,43.9375,-2.5115
693,-167,43.9254,2.48901,0,0,0,0,0,0,0,-1,1917,1191,43.9254,-2.48907
700,-167,28.0459,2.70508,0,0,0,0,0,0,0,-1,1924,1191,28.0459,-2.70513
707,-167,29.4708,7.10168,0,0,0,0,0,0,0,-1,1931,1191,29.4708,-7.10172
714,-167,35.9202,6.84668,0,0,0,0,0,0,0,-1,1938,1191,35.9202,-6.84664
721,-167,36.2072,6.38892,0,0,0,0,0,0,0,-1,1945,1191,36.2072,-6.38891
728,-167,37.8712,6.65942,0,0,0,0,0,0,0,-1,1952,1191,37.8713,-6.65941
735,-167,37.9136,6.31213,-0.00302159,0.000184041,0.00251319,0.00156202,-0.00439957,1.06926,0.00356952,0.0176761,1959,1191,37.9135,-6.31218
742,-167,37.8657,5.90015,-0.00283047,0.000760745,0.00271152,0.0022173,-0.00428702,1.07785,0.00381812,0.0158845,1966,1191,37.8657,-5.90014
749,-167,37.8546,5.52588,-0.00170066,0.00196451,0.00273551,0.00342455,-0.00316071,1.08053,0.00380302,0.0144073,1973,1191,37.8546,-5.52593
756,-167,37.8623,5.19775,0.000313329,0.00406642,0.0026531,0.00543955,-0.0010598,1.0932,0.0040264,0.0107814,1980,1191,37.8623,-5.1977
763,-167,37.7966,4.83276,0.0027575,0.00671604,0.00265521,0.00804851,0.00142503,1.10568,0.00495939,0.0122753,1987,1191,37.7966,-4.83272
770,-167,37.6589,4.56433,0.00574195,0.0103937,0.00274831,0.0116683,0.00446743,1.13657,0.00679801,0.0277388,1994,1191,37.6589,-4.56433
777,-167,37.7882,4.33862,0.00950667,0.0156449,0.00284465,0.0167605,0.00839111,1.19707,0.00967666,0.0449405,2001,1191,37.7882,-4.33867
784,-167,37.8444,4.14075,0,0,0,0,0,0,0,-1,2008,1191,37.8444,-4.14074
791,-167,37.7874,4.6134,0,0,0,0,0,0,0,-1,2015,1191,37.7874,-4.6134
798,-167,35.4456,3.32568,0,0,0,0,0,0,0,-1,2022,1191,35.4456,-3.32566
805,-167,36.6545,3.36218,0,0,0,0,0,0,0,-1,2029,1191,36.6546,-3.36219
812,-167,0,0,0,0,0,0,0,0,0,-1,2036,1191,0,0
-700,-174,0,0,0,0,0,0,0,0,0,-1,524,1198,0,0
-693,-174,0,0,0,0,0,0,0,0,0,-1,531,1198,0,0
-686,-174,-27.5409,-3.88928,0.135536,0.0926693,0.00936618,0.137493,0.0907122,0.205994,0.0807208,0.0462472,538,1198,-27.5409,3.88932
-679,-174,-27.5589,-3.81348,0.111173,0.0757125,0.00859573,0.113147,0.0737387,0.22571,0.0663201,0.0454526,545,1198,-27.5589,3.81351
-672,-174,-27.914,-3.05188,0,0,0,0,0,0,0,-1,552,1198,-27.914,3.05191
-665,-174,-23.4216,-0.356934,0,0,0,0,0,0,0,-1,559,1198,-23.4216,0.35696
-658,-174,-25.512,1.02197,0,0,0,0,0,0,0,-1,566,1198,-25.512,-1.02192
-651,-174,-25.2704,0.713623,0,0,0,0,0,0,0,-1,573,1198,-25.2704,-0.713666
-644,-174,-25.2249,1.18762,0.0255022,0.0203419,0.000534405,0.0255569,0.0202872,0.102118,0.0155813,0.0463979,580,1198,-25.2249,-1.18767
-637,-174,-25.1844,1.67126,0.0158579,0.0139615,-0.000260157,0.0158929,0.0139265,-0.133894,0.0100044,0.024611,587,1198,-25.1845,-1.67126
-630,-174,-25.2588,2.09412,0.0092338,0.00773711,-0.000996016,0.00973127,0.00723964,-0.463221,0.00583701,0.0132612,594,1198,-25.2588,-2.09411
-623,-174,-25.2944,2.49255,0.00203534,0.00393441,-0.000874132,0.0042755,0.00169424,-1.19876,0.00248611,0.0134812,601,1198,-25.2944,-2.49255
-616,-174,-25.3143,2.9176,-0.000479775,0.00156924,-0.00108297,0.00203552,-0.000946055,-1.16423,0.0017593,0.0181754,608,1198,-25.3143,-2.91759
-609,-174,-25.3499,3.30334,-5.47369e-05,0.00066403,-0.000348029,0.000804927,-0.000195634,-1.18612,0.000612337,0.0203596,615,1198,-25.3499,-3.30332
-602,-174,-25.3724,3.66724,-0.000301627,0.0001976,-0.000304901,0.000342032,-0.000446059,-1.12841,0.000456324,0.0143206,622,1198,-25.3724,-3.6672
-595,-174,-25.2234,4.01489,0,0,0,0,0,0,0,-1,629,1198,-25.2234,-4.01494
-588,-174,-25.7286,4.3667,-0.00100183,0.000583276,-0.000357149,0.000660031,-0.00107858,-1.35911,0.00101344,0.0304906,636,1198,-25.7286,-4.36674
-581,-174,-25.6566,4.87671,-0.000721353,0.000798682,-0.000226929,0.000831838,-0.000754508,-1.42572,0.00091624,0.0368439,643,1198,-25.6565,-4.87675
-574,-174,-25.2587,5.47156,0,0,0,0,0,0,0,-1,650,1198,-25.2587,-5.47157
-567,-174,-26.6597,3.04041,0,0,0,0,0,0,0,-1,657,1198,-26.6597,-3.04039
-560,-174,-32.1067,0.922119,0,0,0,0,0,0,0,-1,664,1198,-32.1067,-0.922153
-553,-174,-32.1201,0.834717,-0.000656606,0.00257659,0.000396575,0.00262452,-0.000704538,1.45051,0.00202579,0.0377923,671,1198,-32.12,-0.834746
-546,-174,-32.1534,0.75415,-0.000438612,0.00305003,0.000568022,0.00314018,-0.000528768,1.41339,0.00229015,0.0304959,678,1198,-32.1534,-0.754145
-539,-174,-32.1454,0.680542,8.28296e-05,0.00419348,0.00108279,0.00446125,-0.000184946,1.32836,0.00303769,0.0348951,685,1198,-32.1454,-0.680528
-532,-174,-32.0682,0.560181,0.000741212,0.00559327,0.00182118,0.00620077,0.000133708,1.24883,0.00409001,0.0433222,692,1198,-32.0682,-0.560179
-525,-174,-31.965,0.6521,0.00236014,0.00738156,0.0030846,0.00884809,0.000893611,1.12699,0.00562457,0.0442119,699,1198,-31.965,-0.652052
-518,-174,-32.0423,0.77002,0.00438355,0.0101995,0.00496077,0.0130418,0.00154126,1.0505,0.00822903,0.0427199,706,1198,-32.0423,-0.770073
-511,-174,0,0,0,0,0,0,0,0,0,-1,713,1198,0,0
-504,-174,0,0,0,0,0,0,0,0,0,-1,720,1198,0,0
-497,-174,0,0,0,0,0,0,0,0,0,-1,727,1198,0,0
-490,-174,0,0,0,0,0,0,0,0,0,-1,734,1198,0,0
-483,-174,0,0,0,0,0,0,0,0,0,-1,741,1198,0,0
-476,-174,0,0,0,0,0,0,0,0,0,-1,748,1198,0,0
-469,-174,0,0,0,0,0,0,0,0,0,-1,755,1198,0,0
-462,-174,0,0,0,0,0,0,0,0,0,-1,762,1198,0,0
-455,-174,0,0,0,0,0,0,0,0,0,-1,769,1198,0,0
-448,-174,0,0,0,0,0,0,0,0,0,-1,776,1198,0,0
-441,-174,0,0,0,0,0,0,0,0,0,-1,783,1198,0,0
-434,-174,0,0,0,0,0,0,0,0,0,-1,790,1198,0,0
-427,-174,0,0,0,0,0,0,0,0,0,-1,797,1198,0,0
-420,-174,0,0,0,0,0,0,0,0,0,-1,804,1198,0,0
-413,-174,0,0,0,0,0,0,0,0,0,-1,811,1198,0,0
-406,-174,0,0,0,0,0,0,0,0,0,-1,818,1198,0,0
-399,-174,0,0,0,0,0,0,0,0,0,-1,825,1198,0,0
-392,-174,0,0,0,0,0,0,0,0,0,-1,832,1198,0,0
-385,-174,0,0,0,0,0,0,0,0,0,-1,839,1198,0,0
-378,-174,0,0,0,0,0,0,0,0,0,-1,846,1198,0,0
-371,-174,0,0,0,0,0,0,0,0,0,-1,853,1198,0,0
-364,-174,0,0,0,0,0,0,0,0,0,-1,860,1198,0,0
-357,-174,0,0,0,0,0,0,0,0,0,-1,867,1198,0,0
-350,-174,0,0,0,0,0,0,0,0,0,-1,874,1198,0,0
-343,-174,0,0,0,0,0,0,0,0,0,-1,881,1198,0,0
-336,-174,0,0,0,0,0,0,0,0,0,-1,888,1198,0,0
-329,-174,0,0,0,0,0,0,0,0,0,-1,895,1198,0,0
-322,-174,0,0,0,0,0,0,0,0,0,-1,902,1198,0,0
-315,-174,0,0,0,0,0,0,0,0,0,-1,909,1198,0,0
-308,-174,0,0,0,0,0,0,0,0,0,-1,916,1198,0,0
-301,-174,0,0,0,0,0,0,0,0,0,-1,923,1198,0,0
-294,-174,0,0,0,0,0,0,0,0,0,-1,930,1198,0,0
-287,-174,0,0,0,0,0,0,0,0,0,-1,937,1198,0,0
-280,-174,0,0,0,0,0,0,0,0,0,-1,944,1198,0,0
-273,-174,0,0,0,0,0,0,0,0,0,-1,951,1198,0,0
-266,-174,0,0,0,0,0,0,0,0,0,-1,958,1198,0,0
-259,-174,0,0,0,0,0,0,0,0,0,-1,965,1198,0,0
-252,-174,0,0,0,0,0,0,0,0,0,-1,972,1198,0,0
-245,-174,0,0,0,0,0,0,0,0,0,-1,979,1198,0,0
-238,-174,0,0,0,0,0,0,0,0,0,-1,986,1198,0,0
-231,-174,0,0,0,0,0,0,0,0,0,-1,993,1198,0,0
-224,-174,0,0,0,0,0,0,0,0,0,-1,1000,1198,0,0
-217,-174,0,0,0,0,0,0,0,0,0,-1,1007,1198,0,0
-210,-174,0,0,0,0,0,0,0,0,0,-1,1014,1198,0,0
-203,-174,0,0,0,0,0,0,0,0,0,-1,1021,1198,0,0
-196,-174,0,0,0,0,0,0,0,0,0,-1,1028,1198,0,0
-189,-174,0,0,0,0,0,0,0,0,0,-1,1035,1198,0,0
-182,-174,0,0,0,0,0,0,0,0,0,-1,1042,1198,0,0
-175,-174,0,0,0,0,0,0,0,0,0,-1,1049,1198,0,0
-168,-174,0,0,0,0,0,0,0,0,0,-1,1056,1198,0,0
-161,-174,0,0,0,0,0,0,0,0,0,-1,1063,1198,0,0
-154,-174,0,0,0,0,0,0,0,0,0,-1,1070,1198,0,0
-147,-174,0,0,0,0,0,0,0,0,0,-1,1077,1198,0,0
-140,-174,0,0,0,0,0,0,0,0,0,-1,1084,1198,0,0
-133,-174,0,0,0,0,0,0,0,0,0,-1,1091,1198,0,0
-126,-174,0,0,0,0,0,0,0,0,0,-1,1098,1198,0,0
-119,-174,0,0,0,0,0,0,0,0,0,-1,1105,1198,0,0
-112,-174,0,0,0,0,0,0,0,0,0,-1,1112,1198,0,0
-105,-174,0,0,0,0,0,0,0,0,0,-1,1119,1198,0,0
-98,-174,0,0,0,0,0,0,0,0,0,-1,1126,1198,0,0
-91,-174,0,0,0,0,0,0,0,0,0,-1,1133,1198,0,0
-84,-174,0,0,0,0,0,0,0,0,0,-1,1140,1198,0,0
-77,-174,0,0,0,0,0,0,0,0,0,-1,1147,1198,0,0
-70,-174,0,0,0,0,0,0,0,0,0,-1,1154,1198,0,0
-63,-174,0,0,0,0,0,0,0,0,0,-1,1161,1198,0,0
-56,-174,0,0,0,0,0,0,0,0,0,-1,1168,1198,0,0
-49,-174,0,0,0,0,0,0,0,0,0,-1,1175,1198,0,0
-42,-174,0,0,0,0,0,0,0,0,0,-1,1182,1198,0,0
-35,-174,0,0,0,0,0,0,0,0,0,-1,1189,1198,0,0
-28,-174,0,0,0,0,0,0,0,0,0,-1,1196,1198,0,0
-21,-174,0,0,0,0,0,0,0,0,0,-1,1203,1198,0,0
-14,-174,0,0,0,0,0,0,0,0,0,-1,1210,1198,0,0
-7,-174,0,0,0,0,0,0,0,0,0,-1,1217,1198,0,0
0,-174,0,0,0,0,0,0,0,0,0,-1,1224,1198,0,0
7,-174,0,0,0,0,0,0,0,0,0,-1,1231,1198,0,0
14,-174,0,0,0,0,0,0,0,0,0,-1,1238,1198,0,0
21,-174,0,0,0,0,0,0,0,0,0,-1,1245,1198,0,0
28,-174,0,0,0,0,0,0,0,0,0,-1,1252,1198,0,0
35,-174,0,0,0,0,0,0,0,0,0,-1,1259,1198,0,0
42,-174,0,0,0,0,0,0,0,0,0,-1,1266,1198,0,0
49,-174,0,0,0,0,0,0,0,0,0,-1,1273,1198,0,0
56,-174,0,0,0,0,0,0,0,0,0,-1,1280,1198,0,0
63,-174,0,0,0,0,0,0,0,0,0,-1,1287,1198,0,0
70,-174,0,0,0,0,0,0,0,0,0,-1,1294,1198,0,0
77,-174,0,0,0,0,0,0,0,0,0,-1,1301,1198,0,0
84,-174,0,0,0,0,0,0,0,0,0,-1,1308,1198,0,0
91,-174,0,0,0,0,0,0,0,0,0,-1,1315,1198,0,0
98,-174,0,0,0,0,0,0,0,0,0,-1,1322,1198,0,0
105,-174,0,0,0,0,0,0,0,0,0,-1,1329,1198,0,0
112,-174,0,0,0,0,0,0,0,0,0,-1,1336,1198,0,0
119,-174,0,0,0,0,0,0,0,0,0,-1,1343,1198,0,0
126,-174,0,0,0,0,0,0,0,0,0,-1,1350,1198,0,0
133,-174,0,0,0,0,0,0,0,0,0,-1,1357,1198,0,0
140,-174,0,0,0,0,0,0,0,0,0,-1,1364,1198,0,0
147,-174,0,0,0,0,0,0,0,0,0,-1,1371,1198,0,0
154,-174,0,0,0,0,0,0,0,0,0,-1,1378,1198,0,0
161,-174,0,0,0,0,0,0,0,0,0,-1,1385,1198,0,0
168,-174,0,0,0,0,0,0,0,0,0,-1,1392,1198,0,0
175,-174,0,0,0,0,0,0,0,0,0,-1,1399,1198,0,0
182,-174,0,0,0,0,0,0,0,0,0,-1,1406,1198,0,0
189,-174,0,0,0,0,0,0,0,0,0,-1,1413,1198,0,0
196,-174,0,0,0,0,0,0,0,0,0,-1,1420,1198,0,0
203,-174,0,0,0,0,0,0,0,0,0,-1,1427,1198,0,0
210,-174,0,0,0,0,0,0,0,0,0,-1,1434,1198,0,0
217,-174,0,0,0,0,0,0,0,0,0,-1,1441,1198,0,0
224,-174,0,0,0,0,0,0,0,0,0,-1,1448,1198,0,0
231,-174,0,0,0,0,0,0,0,0,0,-1,1455,1198,0,0
238,-174,0,0,0,0,0,0,0,0,0,-1,1462,1198,0,0
245,-174,0,0,0,0,0,0,0,0,0,-1,1469,1198,0,0
252,-174,0,0,0,0,0,0,0,0,0,-1,1476,1198,0,0
259,-174,0,0,0,0,0,0,0,0,0,-1,1483,1198,0,0
266,-174,0,0,0,0,0,0,0,0,0,-1,1490,1198,0,0
273,-174,0,0,0,0,0,0,0,0,0,-1,1497,1198,0,0
280,-174,0,0,0,0,0,0,0,0,0,-1,1504,1198,0,0
287,-174,0,0,0,0,0,0,0,0,0,-1,1511,1198,0,0
294,-174,0,0,0,0,0,0,0,0,0,-1,1518,1198,0,0
301,-174,0,0,0,0,0,0,0,0,0,-1,1525,1198,0,0
308,-174,0,0,0,0,0,0,0,0,0,-1,1532,1198,0,0
315,-174,0,0,0,0,0,0,0,0,0,-1,1539,1198,0,0
322,-174,0,0,0,0,0,0,0,0,0,-1,1546,1198,0,0
329,-174,0,0,0,0,0,0,0,0,0,-1,1553,1198,0,0
336,-174,0,0,0,0,0,0,0,0,0,-1,1560,1198,0,0
343,-174,0,0,0,0,0,0,0,0,0,-1,1567,1198,0,0
350,-174,0,0,0,0,0,0,0,0,0,-1,1574,1198,0,0
357,-174,0,0,0,0,0,0,0,0,0,-1,1581,1198,0,0
364,-174,0,0,0,0,0,0,0,0,0,-1,1588,1198,0,0
371,-174,0,0,0,0,0,0,0,0,0,-1,1595,1198,0,0
378,-174,0,0,0,0,0,0,0,0,0,-1,1602,1198,0,0
385,-174,0,0,0,0,0,0,0,0,0,-1,1609,1198,0,0
392,-174,0,0,0,0,0,0,0,0,0,-1,1616,1198,0,0
399,-174,0,0,0,0,0,0,0,0,0,-1,1623,1198,0,0
406,-174,0,0,0,0,0,0,0,0,0,-1,1630,1198,0,0
413,-174,0,0,0,0,0,0,0,0,0,-1,1637,1198,0,0
420,-174,0,0,0,0,0,0,0,0,0,-1,1644,1198,0,0
427,-174,0,0,0,0,0,0,0,0,0,-1,1651,1198,0,0
434,-174,0,0,0,0,0,0,0,0,0,-1,1658,1198,0,0
441,-174,0,0,0,0,0,0,0,0,0,-1,1665,1198,0,0
448,-174,0,0,0,0,0,0,0,0,0,-1,1672,1198,0,0
455,-174,0,0,0,0,0,0,0,0,0,-1,1679,1198,0,0
462,-174,0,0,0,0,0,0,0,0,0,-1,1686,1198,0,0
469,-174,0,0,0,0,0,0,0,0,0,-1,1693,1198,0,0
476,-174,0,0,0,0,0,0,0,0,0,-1,1700,1198,0,0
483,-174,0,0,0,0,0,0,0,0,0,-1,1707,1198,0,0
490,-174,0,0,0,0,0,0,0,0,0,-1,1714,1198,0,0
497,-174,0,0,0,0,0,0,0,0,0,-1,1721,1198,0,0
504,-174,0,0,0,0,0,0,0,0,0,-1,1728,1198,0,0
511,-174,0,0,0,0,0,0,0,0,0,-1,1735,1198,0,0
518,-174,0,0,0,0,0,0,0,0,0,-1,1742,1198,0,0
525,-174,0,0,0,0,0,0,0,0,0,-1,1749,1198,0,0
532,-174,0,0,0,0,0,0,0,0,0,-1,1756,1198,0,0
539,-174,0,0,0,0,0,0,0,0,0,-1,1763,1198,0,0
546,-174,0,0,0,0,0,0,0,0,0,-1,1770,1198,0,0
553,-174,0,0,0,0,0,0,0,0,0,-1,1777,1198,0,0
560,-174,0,0,0,0,0,0,0,0,0,-1,1784,1198,0,0
567,-174,0,0,0,0,0,0,0,0,0,-1,1791,1198,0,0
574,-174,0,0,0,0,0,0,0,0,0,-1,1798,1198,0,0
581,-174,0,0,0,0,0,0,0,0,0,-1,1805,1198,0,0
588,-174,0,0,0,0,0,0,0,0,0,-1,1812,1198,0,0
595,-174,0,0,0,0,0,0,0,0,0,-1,1819,1198,0,0
602,-174,0,0,0,0,0,0,0,0,0,-1,1826,1198,0,0
609,-174,0,0,0,0,0,0,0,0,0,-1,1833,1198,0,0
616,-174,0,0,0,0,0,0,0,0,0,-1,1840,1198,0,0
623,-174,0,0,0,0,0,0,0,0,0,-1,1847,1198,0,0
630,-174,0,0,0,0,0,0,0,0,0,-1,1854,1198,0,0
637,-174,43.9651,2.67188,0.00196131,-0.00588023,-0.00195379,0.00242115,-0.00634007,-0.23115,0.00522424,0.0423932,1861,1198,43.9651,-2.67183
644,-174,44.0737,2.47302,0.00158676,-0.00396687,-0.00156974,0.00199974,-0.00437985,-0.257258,0.00376774,0.0405689,1868,1198,44.0738,-2.47307
651,-174,43.9271,2.4342,0.00133279,-0.00227357,-0.00134684,0.00178026,-0.00272104,-0.320765,0.00261768,0.0427446,1875,1198,43.9271,-2.43416
658,-174,43.7969,2.77429,0.00141586,-0.00102768,-0.00133458,0.00200346,-0.00161528,-0.414749,0.00209328,0.041931,1882,1198,43.7969,-2.77425
665,-174,43.9625,2.68384,0.0015405,-0.00038838,-0.00111178,0.00204787,-0.000895744,-0.428123,0.00174235,0.0350567,1889,1198,43.9625,-2.68384
672,-174,43.9384,2.54736,0.00126339,-0.000334908,-0.000557579,0.00143868,-0.000510198,-0.304595,0.00116698,0.025582,1896,1198,43.9384,-2.54731
679,-174,43.9401,2.52527,0.000432595,-0.000148079,-3.86217e-05,0.000435152,-0.000150637,-0.0661235,0.000351251,0.0207708,1903,1198,43.94,-2.5253
686,-174,43.962,2.57776,-0.000252227,-0.000200615,0.00038119,0.000155641,-0.000608484,0.819196,0.000466277,0.0446162,1910,1198,43.962,-2.57782
693,-174,43.9775,2.66602,0,0,0,0,0,0,0,-1,1917,1198,43.9776,-2.666
700,-174,25.4004,6.11792,0,0,0,0,0,0,0,-1,1924,1198,25.4004,-6.11797
707,-174,34.7908,7.34473,0,0,0,0,0,0,0,-1,1931,1198,34.7908,-7.34475
714,-174,38.1937,7.21411,0,0,0,0,0,0,0,-1,1938,1198,38.1937,-7.21414
721,-174,38.103,6.59631,0,0,0,0,0,0,0,-1,1945,1198,38.103,-6.59631
728,-174,37.6503,6.61035,-0.00260253,-4.52102e-05,0.00230684,0.00131364,-0.00396138,1.03846,0.00317084,0.0395893,1952,1198,37.6503,-6.61039
735,-174,37.5175,6.28516,-0.0028233,9.89451e-05,0.00263757,0.00165306,-0.00437742,1.03834,0.00359818,0.0131847,1959,1198,37.5174,-6.28511
742,-174,37.5072,5.90747,-0.00234371,0.000755849,0.00272361,0.00233974,-0.0039276,1.04406,0.00365695,0.0198878,1966,1198,37.5072,-5.90748
749,-174,37.5059,5.55322,-0.000900164,0.00193007,0.00266586,0.00353312,-0.00250322,1.0294,0.00350195,0.0179463,1973,1198,37.5059,-5.55319
756,-174,37.4799,5.18652,0.00129355,0.00373396,0.00260678,0.00539199,-0.000364475,1.00429,0.0037221,0.0108195,1980,1198,37.4799,-5.1865
763,-174,37.4386,4.81226,0.00390481,0.00599462,0.00266217,0.00780961,0.00208982,0.972411,0.00466841,0.0135339,1987,1198,37.4385,-4.81227
770,-174,37.5084,4.49939,0.00696495,0.00905611,0.00298085,0.0111694,0.00485162,0.954077,0.00646717,0.0285501,1994,1198,37.5084,-4.49934
777,-174,37.9736,4.01855,0.0104535,0.0132862,0.00359101,0.0157301,0.00800962,0.973239,0.00908228,0.0495288,2001,1198,37.9736,-4.01857
784,-174,38.4972,3.52527,0,0,0,0,0,0,0,-1,2008,1198,38.4972,-3.52524
791,-174,35.4441,1.3689,0,0,0,0,0,0,0,-1,2015,1198,35.4442,-1.36893
798,-174,34.8989,3.03467,0,0,0,0,0,0,0,-1,2022,1198,34.899,-3.03469
805,-174,32.0928,2.34009,0,0,0,0,0,0,0,-1,2029,1198,32.0929,-2.34008
812,-174,0,0,0,0,0,0,0,0,0,-1,2036,1198,0,0
-700,-181,0,0,0,0,0,0,0,0,0,-1,524,1205,0,0
-693,-181,0,0,0,0,0,0,0,0,0,-1,531,1205,0,0
-686,-181,-27.4025,-5.47937,0,0,0,0,0,0,0,-1,538,1205,-27.4025,5.47937
-679,-181,-27.5707,-5.05457,0.117055,0.0601295,-0.00767197,0.118071,0.0591137,-0.131643,0.0681685,0.0415309,545,1205,-27.5707,5.05462
-672,-181,-23.6002,1.5625,0.0917512,0.0487656,-0.00577735,0.0925141,0.0480027,-0.131299,0.0534257,0.0498244,552,1205,-23.6001,-1.56247
-665,-181,-23.7965,1.13647,0,0,0,0,0,0,0,-1,559,1205,-23.7965,-1.13649
-658,-181,-24.5364,1.2179,0,0,0,0,0,0,0,-1,566,1205,-24.5363,-1.2179
-651,-181,-24.3002,1.45349,0,0,0,0,0,0,0,-1,573,1205,-24.3002,-1.45344
-644,-181,-24.7714,1.16602,0.0241136,0.0170136,-0.00344787,0.0255124,0.0156149,-0.385402,0.0148524,0.0470317,580,1205,-24.7714,-1.16607
-637,-181,-24.7686,1.66382,0.0146167,0.0120135,-0.0029524,0.0165417,0.0100885,-0.57778,0.00962693,0.0264492,587,1205,-24.7686,-1.66383
-630,-181,-24.8613,2.0896,0.00823113,0.00664689,-0.00271625,0.0102684,0.00460961,-0.643521,0.00593877,0.0138177,594,1205,-24.8613,-2.08957
-623,-181,-24.8934,2.4895,0.00112388,0.0038055,-0.00160642,0.00455714,0.000372242,-1.13316,0.00292193,0.0152764,601,1205,-24.8934,-2.48944
-616,-181,-24.8953,2.92261,-0.00114944,0.00182039,-0.00148402,0.00243483,-0.00176388,-1.17825,0.00243442,0.0141314,608,1205,-24.8953,-2.92266
-609,-181,-24.9092,3.34192,-0.000107217,0.000841601,-0.000515707,0.00106792,-0.000333535,-1.15725,0.000845349,0.0135239,615,1205,-24.9092,-3.34189
-602,-181,-24.9213,3.73364,7.85289e-05,0.000227892,-0.000322159,0.000483912,-0.000177491,-0.899294,0.000395286,0.0122113,622,1205,-24.9212,-3.73368
-595,-181,-25.0728,4.05054,-0.000289739,0.000230191,-0.000460314,0.000498876,-0.000558424,-1.04245,0.000610755,0.0291312,629,1205,-25.0728,-4.05059
-588,-181,-25.3099,4.51672,-0.000507207,0.000631219,-0.000400026,0.000757725,-0.000633713,-1.2645,0.00080441,0.0290086,636,1205,-25.31,-4.51676
-581,-181,-25.2208,5.03381,-0.000300147,0.00082963,-0.000291932,0.000900605,-0.000371123,-1.3323,0.000755147,0.0260929,643,1205,-25.2208,-5.03376
-574,-181,-24.9871,5.48267,0,0,0,0,0,0,0,-1,650,1205,-24.9871,-5.48265
-567,-181,-25.8839,3.34485,0,0,0,0,0,0,0,-1,657,1205,-25.8839,-3.3449
-560,-181,-31.7396,1.63306,0,0,0,0,0,0,0,-1,664,1205,-31.7396,-1.63303
-553,-181,-32.128,0.930664,0,0,0,0,0,0,0,-1,671,1205,-32.128,-0.930651
-546,-181,-32.0628,0.672363,3.17244e-05,0.00334884,0.000619008,0.00346059,-8.00245e-05,1.39219,0.00233419,0.0335666,678,1205,-32.0628,-0.67236
-539,-181,-32.1484,0.763428,0.000395439,0.00442038,0.00107509,0.00468955,0.000126273,1.32547,0.00308513,0.0360445,685,1205,-32.1484,-0.763436
-532,-181,-32.0798,0.746216,0.00078055,0.00564037,0.00164273,0.00614355,0.000277367,1.27356,0.00400645,0.0430824,692,1205,-32.0798,-0.746242
-525,-181,-31.9586,0.634155,0.0020579,0.00710706,0.00260404,0.0082094,0.000955558,1.17035,0.00518386,0.042339,699,1205,-31.9586,-0.634152
-518,-181,-31.949,0.733521,0.00428424,0.00971611,0.00440604,0.012176,0.00182432,1.0616,0.00758276,0.0401881,706,1205,-31.949,-0.733522
-511,-181,0,0,0,0,0,0,0,0,0,-1,713,1205,0,0
-504,-181,0,0,0,0,0,0,0,0,0,-1,720,1205,0,0
-497,-181,0,0,0,0,0,0,0,0,0,-1,727,1205,0,0
-490,-181,0,0,0,0,0,0,0,0,0,-1,734,1205,0,0
-483,-181,0,0,0,0,0,0,0,0,0,-1,741,1205,0,0
-476,-181,0,0,0,0,0,0,0,0,0,-1,748,1205,0,0
-469,-181,0,0,0,0,0,0,0,0,0,-1,755,1205,0,0
-462,-181,0,0,0,0,0,0,0,0,0,-1,762,1205,0,0
-455,-181,0,0,0,0,0,0,0,0,0,-1,769,1205,0,0
-448,-181,0,0,0,0,0,0,0,0,0,-1,776,1205,0,0
-441,-181,0,0,0,0,0,0,0,0,0,-1,783,1205,0,0
-434,-181,0,0,0,0,0,0,0,0,0,-1,790,1205,0,0
-427,-181,0,0,0,0,0,0,0,0,0,-1,797,1205,0,0
-420,-181,0,0,0,0,0,0,0,0,0,-1,804,1205,0,0
-413,-181,0,0,0,0,0,0,0,0,0,-1,811,1205,0,0
-406,-181,0,0,0,0,0,0,0,0,0,-1,818,1205,0,0
-399,-181,0,0,0,0,0,0,0,0,0,-1,825,1205,0,0
-392,-181,0,0,0,0,0,0,0,0,0,-1,832,1205,0,0
-385,-181,0,0,0,0,0,0,0,0,0,-1,839,1205,0,0
-378,-181,0,0,0,0,0,0,0,0,0,-1,846,1205,0,0
-371,-181,0,0,0,0,0,0,0,0,0,-1,853,1205,0,0
-364,-181,0,0,0,0,0,0,0,0,0,-1,860,1205,0,0
-357,-181,0,0,0,0,0,0,0,0,0,-1,867,1205,0,0
-350,-181,0,0,0,0,0,0,0,0,0,-1,874,1205,0,0
-343,-181,0,0,0,0,0,0,0,0,0,-1,881,1205,0,0
-336,-181,0,0,0,0,0,0,0,0,0,-1,888,1205,0,0
-329,-181,0,0,0,0,0,0,0,0,0,-1,895,1205,0,0
-322,-181,0,0,0,0,0,0,0,0,0,-1,902,1205,0,0
-315,-181,0,0,0,0,0,0,0,0,0,-1,909,1205,0,0
-308,-181,0,0,0,0,0,0,0,0,0,-1,916,1205,0,0
-301,-181,0,0,0,0,0,0,0,0,0,-1,923,1205,0,0
-294,-181,0,0,0,0,0,0,0,0,0,-1,930,1205,0,0
-287,-181,0,0,0,0,0,0,0,0,0,-1,937,1205,0,0
-280,-181,0,0,0,0,0,0,0,0,0,-1,944,1205,0,0
-273,-181,0,0,0,0,0,0,0,0,0,-1,951,1205,0,0
-266,-181,0,0,0,0,0,0,0,0,0,-1,958,1205,0,0
-259,-181,0,0,0,0,0,0,0,0,0,-1,965,1205,0,0
-252,-181,0,0,0,0,0,0,0,0,0,-1,972,1205,0,0
-245,-181,0,0,0,0,0,0,0,0,0,-1,979,1205,0,0
-238,-181,0,0,0,0,0,0,0,0,0,-1,986,1205,0,0
-231,-181,0,0,0,0,0,0,0,0,0,-1,993,1205,0,0
-224,-181,0,0,0,0,0,0,0,0,0,-1,1000,1205,0,0
-217,-181,0,0,0,0,0,0,0,0,0,-1,1007,1205,0,0
-210,-181,0,0,0,0,0,0,0,0,0,-1,1014,1205,0,0
-203,-181,0,0,0,0,0,0,0,0,0,-1,1021,1205,0,0
-196,-181,0,0,0,0,0,0,0,0,0,-1,1028,1205,0,0
-189,-181,0,0,0,0,0,0,0,0,0,-1,1035,1205,0,0
-182,-181,0,0,0,0,0,0,0,0,0,-1,1042,1205,0,0
-175,-181,0,0,0,0,0,0,0,0,0,-1,1049,1205,0,0
-168,-181,0,0,0,0,0,0,0,0,0,-1,1056,1205,0,0
-161,-181,0,0,0,0,0,0,0,0,0,-1,1063,1205,0,0
-154,-181,0,0,0,0,0,0,0,0,0,-1,1070,1205,0,0
-147,-181,0,0,0,0,0,0,0,0,0,-1,1077,1205,0,0
-140,-181,0,0,0,0,0,0,0,0,0,-1,1084,1205,0,0
-133,-181,0,0,0,0,0,0,0,0,0,-1,1091,1205,0,0
-126,-181,0,0,0,0,0,0,0,0,0,-1,1098,1205,0,0
-119,-181,0,0,0,0,0,0,0,0,0,-1,1105,1205,0,0
-112,-181,0,0,0,0,0,0,0,0,0,-1,1112,1205,0,0
-105,-181,0,0,0,0,0,0,0,0,0,-1,1119,1205,0,0
-98,-181,0,0,0,0,0,0,0,0,0,-1,1126,1205,0,0
-91,-181,0,0,0,0,0,0,0,0,0,-1,1133,1205,0,0
-84,-181,0,0,0,0,0,0,0,0,0,-1,1140,1205,0,0
-77,-181,0,0,0,0,0,0,0,0,0,-1,1147,1205,0,0
-70,-181,0,0,0,0,0,0,0,0,0,-1,1154,1205,0,0
-63,-181,0,0,0,0,0,0,0,0,0,-1,1161,1205,0,0
-56,-181,0,0,0,0,0,0,0,0,0,-1,1168,1205,0,0
-49,-181,0,0,0,0,0,0,0,0,0,-1,1175,1205,0,0
-42,-181,0,0,0,0,0,0,0,0,0,-1,1182,1205,0,0
-35,-181,0,0,0,0,0,0,0,0,0,-1,1189,1205,0,0
-28,-181,0,0,0,0,0,0,0,0,0,-1,1196,1205,0,0
-21,-181,0,0,0,0,0,0,0,0,0,-1,1203,1205,0,0
-14,-181,0,0,0,0,0,0,0,0,0,-1,1210,1205,0,0
-7,-181,0,0,0,0,0,0,0,0,0,-1,1217,1205,0,0
0,-181,0,0,0,0,0,0,0,0,0,-1,1224,1205,0,0
7,-181,0,0,0,0,0,0,0,0,0,-1,1231,1205,0,0
14,-181,0,0,0,0,0,0,0,0,0,-1,1238,1205,0,0
21,-181,0,0,0,0,0,0,0,0,0,-1,1245,1205,0,0
28,-181,0,0,0,0,0,0,0,0,0,-1,1252,1205,0,0
35,-181,0,0,0,0,0,0,0,0,0,-1,1259,1205,0,0
42,-181,0,0,0,0,0,0,0,0,0,-1,1266,1205,0,0
49,-181,0,0,0,0,0,0,0,0,0,-1,1273,1205,0,0
56,-181,0,0,0,0,0,0,0,0,0,-1,1280,1205,0,0
63,-181,0,0,0,0,0,0,0,0,0,-1,1287,1205,0,0
70,-181,0,0,0,0,0,0,0,0,0,-1,1294,1205,0,0
77,-181,0,0,0,0,0,0,0,0,0,-1,1301,1205,0,0
84,-181,0,0,0,0,0,0,0,0,0,-1,1308,1205,0,0
91,-181,0,0,0,0,0,0,0,0,0,-1,1315,1205,0,0
98,-181,0,0,0,0,0,0,0,0,0,-1,1322,1205,0,0
105,-181,0,0,0,0,0,0,0,0,0,-1,1329,1205,0,0
112,-181,0,0,0,0,0,0,0,0,0,-1,1336,1205,0,0
119,-181,0,0,0,0,0,0,0,0,0,-1,1343,1205,0,0
126,-181,0,0,0,0,0,0,0,0,0,-1,1350,1205,0,0
133,-181,0,0,0,0,0,0,0,0,0,-1,1357,1205,0,0
140,-181,0,0,0,0,0,0,0,0,0,-1,1364,1205,0,0
147,-181,0,0,0,0,0,0,0,0,0,-1,1371,1205,0,0
154,-181,0,0,0,0,0,0,0,0,0,-1,1378,1205,0,0
161,-181,0,0,0,0,0,0,0,0,0,-1,1385,1205,0,0
168,-181,0,0,0,0,0,0,0,0,0,-1,1392,1205,0,0
175,-181,0,0,0,0,0,0,0,0,0,-1,1399,1205,0,0
182,-181,0,0,0,0,0,0,0,0,0,-1,1406,1205,0,0
189,-181,0,0,0,0,0,0,0,0,0,-1,1413,1205,0,0
196,-181,0,0,0,0,0,0,0,0,0,-1,1420,1205,0,0
203,-181,0,0,0,0,0,0,0,0,0,-1,1427,1205,0,0
210,-181,0,0,0,0,0,0,0,0,0,-1,1434,1205,0,0
217,-181,0,0,0,0,0,0,0,0,0,-1,1441,1205,0,0
224,-181,0,0,0,0,0,0,0,0,0,-1,1448,1205,0,0
231,-181,0,0,0,0,0,0,0,0,0,-1,1455,1205,0,0
238,-181,0,0,0,0,0,0,0,0,0,-1,1462,1205,0,0
245,-181,0,0,0,0,0,0,0,0,0,-1,1469,1205,0,0
252,-181,0,0,0,0,0,0,0,0,0,-1,1476,1205,0,0
259,-181,0,0,0,0,0,0,0,0,0,-1,1483,1205,0,0
266,-181,0,0,0,0,0,0,0,0,0,-1,1490,1205,0,0
273,-181,0,0,0,0,0,0,0,0,0,-1,1497,1205,0,0
280,-181,0,0,0,0,0,0,0,0,0,-1,1504,1205,0,0
287,-181,0,0,0,0,0,0,0,0,0,-1,1511,1205,0,0
294,-181,0,0,0,0,0,0,0,0,0,-1,1518,1205,0,0
301,-181,0,0,0,0,0,0,0,0,0,-1,1525,1205,0,0
308,-181,0,0,0,0,0,0,0,0,0,-1,1532,1205,0,0
315,-181,0,0,0,0,0,0,0,0,0,-1,1539,1205,0,0
322,-181,0,0,0,0,0,0,0,0,0,-1,1546,1205,0,0
329,-181,0,0,0,0,0,0,0,0,0,-1,1553,1205,0,0
336,-181,0,0,0,0,0,0,0,0,0,-1,1560,1205,0,0
343,-181,0,0,0,0,0,0,0,0,0,-1,1567,1205,0,0
350,-181,0,0,0,0,0,0,0,0,0,-1,1574,1205,0,0
357,-181,0,0,0,0,0,0,0,0,0,-1,1581,1205,0,0
364,-181,0,0,0,0,0,0,0,0,0,-1,1588,1205,0,0
371,-181,0,0,0,0,0,0,0,0,0,-1,1595,1205,0,0
378,-181,0,0,0,0,0,0,0,0,0,-1,1602,1205,0,0
385,-181,0,0,0,0,0,0,0,0,0,-1,1609,1205,0,0
392,-181,0,0,0,0,0,0,0,0,0,-1,1616,1205,0,0
399,-181,0,0,0,0,0,0,0,0,0,-1,1623,1205,0,0
406,-181,0,0,0,0,0,0,0,0,0,-1,1630,1205,0,0
413,-181,0,0,0,0,0,0,0,0,0,-1,1637,1205,0,0
420,-181,0,0,0,0,0,0,0,0,0,-1,1644,1205,0,0
427,-181,0,0,0,0,0,0,0,0,0,-1,1651,1205,0,0
434,-181,0,0,0,0,0,0,0,0,0,-1,1658,1205,0,0
441,-181,0,0,0,0,0,0,0,0,0,-1,1665,1205,0,0
448,-181,0,0,0,0,0,0,0,0,0,-1,1672,1205,0,0
455,-181,0,0,0,0,0,0,0,0,0,-1,1679,1205,0,0
462,-181,0,0,0,0,0,0,0,0,0,-1,1686,1205,0,0
469,-181,0,0,0,0,0,0,0,0,0,-1,1693,1205,0,0
476,-181,0,0,0,0,0,0,0,0,0,-1,1700,1205,0,0
483,-181,0,0,0,0,0,0,0,0,0,-1,1707,1205,0,0
490,-181,0,0,0,0,0,0,0,0,0,-1,1714,1205,0,0
497,-181,0,0,0,0,0,0,0,0,0,-1,1721,1205,0,0
504,-181,0,0,0,0,0,0,0,0,0,-1,1728,1205,0,0
511,-181,0,0,0,0,0,0,0,0,0,-1,1735,1205,0,0
518,-181,0,0,0,0,0,0,0,0,0,-1,1742,1205,0,0
525,-181,0,0,0,0,0,0,0,0,0,-1,1749,1205,0,0
532,-181,0,0,0,0,0,0,0,0,0,-1,1756,1205,0,0
539,-181,0,0,0,0,0,0,0,0,0,-1,1763,1205,0,0
546,-181,0,0,0,0,0,0,0,0,0,-1,1770,1205,0,0
553,-181,0,0,0,0,0,0,0,0,0,-1,1777,1205,0,0
560,-181,0,0,0,0,0,0,0,0,0,-1,1784,1205,0,0
567,-181,0,0,0,0,0,0,0,0,0,-1,1791,1205,0,0
574,-181,0,0,0,0,0,0,0,0,0,-1,1798,1205,0,0
581,-181,0,0,0,0,0,0,0,0,0,-1,1805,1205,0,0
588,-181,0,0,0,0,0,0,0,0,0,-1,1812,1205,0,0
595,-181,0,0,0,0,0,0,0,0,0,-1,1819,1205,0,0
602,-181,0,0,0,0,0,0,0,0,0,-1,1826,1205,0,0
609,-181,0,0,0,0,0,0,0,0,0,-1,1833,1205,0,0
616,-181,0,0,0,0,0,0,0,0,0,-1,1840,1205,0,0
623,-181,0,0,0,0,0,0,0,0,0,-1,1847,1205,0,0
630,-181,44.0167,2.60376,0,0,0,0,0,0,0,-1,1854,1205,44.0167,-2.60371
637,-181,44.1783,2.4624,0,0,0,0,0,0,0,-1,1861,1205,44.1784,-2.46245
644,-181,43.9862,2.67615,0.00170426,-0.00294566,-0.00212135,0.00252661,-0.00376801,-0.369818,0.00365768,0.0377722,1868,1205,43.9862,-2.67618
651,-181,44.0084,2.698,0.00137496,-0.00154644,-0.00186931,0.00228659,-0.00245807,-0.453746,0.00273993,0.0385982,1875,1205,44.0084,-2.69796
658,-181,43.9698,2.73962,0.00142112,-0.000652751,-0.00174992,0.00241825,-0.00164989,-0.517932,0.00236267,0.0347474,1882,1205,43.9698,-2.73966
665,-181,43.9349,2.69519,0.00149985,-0.000321522,-0.00137873,0.00224151,-0.00106318,-0.493529,0.00194797,0.0312273,1889,1205,43.935,-2.69519
672,-181,43.9395,2.59241,0.00123152,-0.000454552,-0.000726076,0.00150109,-0.000724124,-0.355499,0.00131057,0.0227609,1896,1205,43.9394,-2.59245
679,-181,43.9624,2.52246,0.00053462,-0.000380954,-0.00015451,0.000559992,-0.000406325,-0.162754,0.00056025,0.0268857,1903,1205,43.9624,-2.52243
686,-181,43.9696,2.4187,0,0,0,0,0,0,0,-1,1910,1205,43.9696,-2.41866
693,-181,36.1301,2.91016,0,0,0,0,0,0,0,-1,1917,1205,36.1302,-2.9102
700,-181,29.5845,6.58398,0,0,0,0,0,0,0,-1,1924,1205,29.5844,-6.58395
707,-181,37.5637,7.72803,0,0,0,0,0,0,0,-1,1931,1205,37.5638,-7.72806
714,-181,37.7468,7.2146,-0.00166641,-0.000333657,0.00150871,0.000649291,-0.00264936,0.993357,0.0020178,0.0469838,1938,1205,37.7468,-7.21463
721,-181,37.6259,6.80774,-0.00204277,-0.000372261,0.00200541,0.000964886,-0.00337992,0.982723,0.00263448,0.044061,1945,1205,37.6259,-6.80778
728,-181,37.1577,6.6228,-0.00224169,-0.000338533,0.00244974,0.00133795,-0.00391818,0.970649,0.00315416,0.0224744,1952,1205,37.1578,-6.62278
735,-181,37.1587,6.28137,-0.00227424,-5.98802e-05,0.00270561,0.00175633,-0.00409045,0.979611,0.00346414,0.0117558,1959,1205,37.1587,-6.28131
742,-181,37.1147,5.94006,-0.00151985,0.000707085,0.00269392,0.00250858,-0.00332135,0.981369,0.0033768,0.016596,1966,1205,37.1147,-5.94008
749,-181,37.1221,5.54858,7.82135e-05,0.00181002,0.00262779,0.0037109,-0.00182266,0.944554,0.00325622,0.0156642,1973,1205,37.1221,-5.54856
756,-181,37.1066,5.1626,0.00217891,0.0032297,0.00270081,0.00545574,-4.71282e-05,0.881464,0.00365297,0.0115302,1980,1205,37.1065,-5.16258
763,-181,37.111,4.80103,0.00469155,0.00498,0.00294545,0.00778476,0.0018868,0.809861,0.00468919,0.0132445,1987,1205,37.111,-4.80106
770,-181,37.2061,4.4137,0.00734464,0.00715698,0.00369108,0.0109431,0.00355854,0.772691,0.00644542,0.0322233,1994,1205,37.206,-4.41372
777,-181,37.3605,3.96619,0,0,0,0,0,0,0,-1,2001,1205,37.3604,-3.96617
784,-181,34.7717,2.39917,0,0,0,0,0,0,0,-1,2008,1205,34.7717,-2.39918
791,-181,33.6541,1.79431,0,0,0,0,0,0,0,-1,2015,1205,33.6541,-1.79432
798,-181,32.4534,1.89966,0,0,0,0,0,0,0,-1,2022,1205,32.4535,-1.8997
805,-181,0,0,0,0,0,0,0,0,0,-1,2029,1205,0,0
812,-181,0,0,0,0,0,0,0,0,0,-1,2036,1205,0,0
-700,-188,0,0,0,0,0,0,0,0,0,-1,524,1212,0,0
-693,-188,0,0,0,0,0,0,0,0,0,-1,531,1212,0,0
-686,-188,0,0,0,0,0,0,0,0,0,-1,538,1212,0,0
-679,-188,-22.5288,1.54529,0.11947,0.0421345,-0.0236193,0.126113,0.0354914,-0.274173,0.0750944,0.0434582,545,1212,-22.5288,-1.54527
-672,-188,-22.9309,1.5675,0.0914171,0.0351658,-0.0179694,0.0966673,0.0299156,-0.284265,0.0571456,0.0487834,552,1212,-22.9309,-1.56747
-665,-188,-23.2036,1.37866,0.068183,0.0289048,-0.0139985,0.0726613,0.0244265,-0.309628,0.0426951,0.0494064,559,1212,-23.2036,-1.3786
-658,-188,-23.6082,1.29651,0.0490335,0.0232517,-0.0110728,0.0531362,0.019149,-0.354838,0.0310744,0.0483591,566,1212,-23.6082,-1.29652
-651,-188,-23.8281,1.46582,0.0336173,0.0181874,-0.00880107,0.0376061,0.0141985,-0.425533,0.0219278,0.0478481,573,1212,-23.8281,-1.4658
-644,-188,-24.103,1.60791,0.0214662,0.0138791,-0.00686693,0.0255177,0.00982752,-0.533043,0.0148617,0.0430505,580,1212,-24.103,-1.60794
-637,-188,-24.4156,1.68506,0.0123772,0.0102397,-0.00520126,0.0166183,0.00599849,-0.684069,0.00971748,0.0233112,587,1212,-24.4157,-1.68502
-630,-188,-24.4543,2.10107,0.00639459,0.00575936,-0.00409668,0.0101859,0.001968,-0.746711,0.00623896,0.0111438,594,1212,-24.4544,-2.10107
-623,-188,-24.454,2.51929,-0.000380493,0.00380313,-0.00214475,0.00470726,-0.00128462,-1.17185,0.00364268,0.0116497,601,1212,-24.454,-2.51932
-616,-188,-24.4484,2.93982,-0.00231393,0.00223081,-0.00178905,0.00285056,-0.00293368,-1.23732,0.00333965,0.0109424,608,1212,-24.4484,-2.93981
-609,-188,-24.4537,3.36609,-0.000560493,0.00127158,-0.000639099,0.00147249,-0.000761403,-1.26621,0.00131134,0.0133112,615,1212,-24.4537,-3.36614
-602,-188,-24.4519,3.79456,0.000302317,0.000531089,-0.0002422,0.000684556,0.00014885,-1.00601,0.000415733,0.0159408,622,1212,-24.4519,-3.79451
-595,-188,-24.5275,4.16162,0.000407045,0.000444305,-0.000242471,0.00066886,0.00018249,-0.82374,0.000399231,0.0183371,629,1212,-24.5275,-4.16163
-588,-188,-24.663,4.5686,0.000256374,0.000843648,-0.000106305,0.000862299,0.000237724,-1.39712,0.000514277,0.0227743,636,1212,-24.663,-4.56866
-581,-188,-24.6844,4.97986,0.000382877,0.000976372,2.05229e-05,0.00097708,0.000382168,1.53627,0.000568557,0.0231765,643,1212,-24.6844,-4.97987
-574,-188,-25.0306,5.33557,0,0,0,0,0,0,0,-1,650,1212,-25.0306,-5.33554
-567,-188,-19.5786,4.10388,0,0,0,0,0,0,0,-1,657,1212,-19.5785,-4.10383
-560,-188,-23.9507,0.416626,0,0,0,0,0,0,0,-1,664,1212,-23.9508,-0.416602
-553,-188,-32.041,0.393921,0,0,0,0,0,0,0,-1,671,1212,-32.041,-0.393907
-546,-188,-32.0511,0.65332,0.000806408,0.00366141,0.00108128,0.0040247,0.000443124,1.24667,0.0025483,0.0412786,678,1212,-32.0512,-0.653295
-539,-188,-32.1164,0.787109,0.000977662,0.00462893,0.00146188,0.00514211,0.000464488,1.2332,0.00328421,0.0340963,685,1212,-32.1164,-0.78711
-532,-188,-32.0845,0.76123,0.000966563,0.00560257,0.00183495,0.00624095,0.000328187,1.236,0.00405566,0.0387684,692,1212,-32.0845,-0.761248
-525,-188,-32.035,0.818115,0.0014594,0.0064843,0.0023929,0.00744149,0.000502208,1.19028,0.00480235,0.0380422,699,1212,-32.035,-0.818176
-518,-188,-32.2235,0.982056,0,0,0,0,0,0,0,-1,706,1212,-32.2235,-0.982093
-511,-188,-32.0895,0.88208,0,0,0,0,0,0,0,-1,713,1212,-32.0896,-0.882062
-504,-188,0,0,0,0,0,0,0,0,0,-1,720,1212,0,0
-497,-188,0,0,0,0,0,0,0,0,0,-1,727,1212,0,0
-490,-188,0,0,0,0,0,0,0,0,0,-1,734,1212,0,0
-483,-188,0,0,0,0,0,0,0,0,0,-1,741,1212,0,0
-476,-188,0,0,0,0,0,0,0,0,0,-1,748,1212,0,0
-469,-188,0,0,0,0,0,0,0,0,0,-1,755,1212,0,0
-462,-188,0,0,0,0,0,0,0,0,0,-1,762,1212,0,0
-455,-188,0,0,0,0,0,0,0,0,0,-1,769,1212,0,0
-448,-188,0,0,0,0,0,0,0,0,0,-1,776,1212,0,0
-441,-188,0,0,0,0,0,0,0,0,0,-1,783,1212,0,0
-434,-188,0,0,0,0,0,0,0,0,0,-1,790,1212,0,0
-427,-188,0,0,0,0,0,0,0,0,0,-1,797,1212,0,0
-420,-188,0,0,0,0,0,0,0,0,0,-1,804,1212,0,0
-413,-188,0,0,0,0,0,0,0,0,0,-1,811,1212,0,0
-406,-188,0,0,0,0,0,0,0,0,0,-1,818,1212,0,0
-399,-188,0,0,0,0,0,0,0,0,0,-1,825,1212,0,0
-392,-188,0,0,0,0,0,0,0,0,0,-1,832,1212,0,0
-385,-188,0,0,0,0,0,0,0,0,0,-1,839,1212,0,0
-378,-188,0,0,0,0,0,0,0,0,0,-1,846,1212,0,0
-371,-188,0,0,0,0,0,0,0,0,0,-1,853,1212,0,0
-364,-188,0,0,0,0,0,0,0,0,0,-1,860,1212,0,0
-357,-188,0,0,0,0,0,0,0,0,0,-1,867,1212,0,0
-350,-188,0,0,0,0,0,0,0,0,0,-1,874,1212,0,0
-343,-188,0,0,0,0,0,0,0,0,0,-1,881,1212,0,0
-336,-188,0,0,0,0,0,0,0,0,0,-1,888,1212,0,0
-329,-188,0,0,0,0,0,0,0,0,0,-1,895,1212,0,0
-322,-188,0,0,0,0,0,0,0,0,0,-1,902,1212,0,0
-315,-188,0,0,0,0,0,0,0,0,0,-1,909,1212,0,0
-308,-188,0,0,0,0,0,0,0,0,0,-1,916,1212,0,0
-301,-188,0,0,0,0,0,0,0,0,0,-1,923,1212,0,0
-294,-188,0,0,0,0,0,0,0,0,0,-1,930,1212,0,0
-287,-188,0,0,0,0,0,0,0,0,0,-1,937,1212,0,0
-280,-188,0,0,0,0,0,0,0,0,0,-1,944,1212,0,0
-273,-188,0,0,0,0,0,0,0,0,0,-1,951,1212,0,0
-266,-188,0,0,0,0,0,0,0,0,0,-1,958,1212,0,0
-259,-188,0,0,0,0,0,0,0,0,0,-1,965,1212,0,0
-252,-188,0,0,0,0,0,0,0,0,0,-1,972,1212,0,0
-245,-188,0,0,0,0,0,0,0,0,0,-1,979,1212,0,0
-238,-188,0,0,0,0,0,0,0,0,0,-1,986,1212,0,0
-231,-188,0,0,0,0,0,0,0,0,0,-1,993,1212,0,0
-224,-188,0,0,0,0,0,0,0,0,0,-1,1000,1212,0,0
-217,-188,0,0,0,0,0,0,0,0,0,-1,1007,1212,0,0
-210,-188,0,0,0,0,0,0,0,0,0,-1,1014,1212,0,0
-203,-188,0,0,0,0,0,0,0,0,0,-1,1021,1212,0,0
-196,-188,0,0,0,0,0,0,0,0,0,-1,1028,1212,0,0
-189,-188,0,0,0,0,0,0,0,0,0,-1,1035,1212,0,0
-182,-188,0,0,0,0,0,0,0,0,0,-1,1042,1212,0,0
-175,-188,0,0,0,0,0,0,0,0,0,-1,1049,1212,0,0
-168,-188,0,0,0,0,0,0,0,0,0,-1,1056,1212,0,0
-161,-188,0,0,0,0,0,0,0,0,0,-1,1063,1212,0,0
-154,-188,0,0,0,0,0,0,0,0,0,-1,1070,1212,0,0
-147,-188,0,0,0,0,0,0,0,0,0,-1,1077,1212,0,0
-140,-188,0,0,0,0,0,0,0,0,0,-1,1084,1212,0,0
-133,-188,0,0,0,0,0,0,0,0,0,-1,1091,1212,0,0
-126,-188,0,0,0,0,0,0,0,0,0,-1,1098,1212,0,0
-119,-188,0,0,0,0,0,0,0,0,0,-1,1105,1212,0,0
-112,-188,0,0,0,0,0,0,0,0,0,-1,1112,1212,0,0
-105,-188,0,0,0,0,0,0,0,0,0,-1,1119,1212,0,0
-98,-188,0,0,0,0,0,0,0,0,0,-1,1126,1212,0,0
-91,-188,0,0,0,0,0,0,0,0,0,-1,1133,1212,0,0
-84,-188,0,0,0,0,0,0,0,0,0,-1,1140,1212,0,0
-77,-188,0,0,0,0,0,0,0,0,0,-1,1147,1212,0,0
-70,-188,0,0,0,0,0,0,0,0,0,-1,1154,1212,0,0
-63,-188,0,0,0,0,0,0,0,0,0,-1,1161,1212,0,0
-56,-188,0,0,0,0,0,0,0,0,0,-1,1168,1212,0,0
-49,-188,0,0,0,0,0,0,0,0,0,-1,1175,1212,0,0
-42,-188,0,0,0,0,0,0,0,0,0,-1,1182,1212,0,0
-35,-188,0,0,0,0,0,0,0,0,0,-1,1189,1212,0,0
-28,-188,0,0,0,0,0,0,0,0,0,-1,1196,1212,0,0
-21,-188,0,0,0,0,0,0,0,0,0,-1,1203,1212,0,0
-14,-188,0,0,0,0,0,0,0,0,0,-1,1210,1212,0,0
-7,-188,0,0,0,0,0,0,0,0,0,-1,1217,1212,0,0
0,-188,0,0,0,0,0,0,0,0,0,-1,1224,1212,0,0
7,-188,0,0,0,0,0,0,0,0,0,-1,1231,1212,0,0
14,-188,0,0,0,0,0,0,0,0,0,-1,1238,1212,0,0
21,-188,0,0,0,0,0,0,0,0,0,-1,1245,1212,0,0
28,-188,0,0,0,0,0,0,0,0,0,-1,1252,1212,0,0
35,-188,0,0,0,0,0,0,0,0,0,-1,1259,1212,0,0
42,-188,0,0,0,0,0,0,0,0,0,-1,1266,1212,0,0
49,-188,0,0,0,0,0,0,0,0,0,-1,1273,1212,0,0
56,-188,0,0,0,0,0,0,0,0,0,-1,1280,1212,0,0
63,-188,0,0,0,0,0,0,0,0,0,-1,1287,1212,0,0
70,-188,0,0,0,0,0,0,0,0,0,-1,1294,1212,0,0
77,-188,0,0,0,0,0,0,0,0,0,-1,1301,1212,0,0
84,-188,0,0,0,0,0,0,0,0,0,-1,1308,1212,0,0
91,-188,0,0,0,0,0,0,0,0,0,-1,1315,1212,0,0
98,-188,0,0,0,0,0,0,0,0,0,-1,1322,1212,0,0
105,-188,0,0,0,0,0,0,0,0,0,-1,1329,1212,0,0
112,-188,0,0,0,0,0,0,0,0,0,-1,1336,1212,0,0
119,-188,0,0,0,0,0,0,0,0,0,-1,1343,1212,0,0
126,-188,0,0,0,0,0,0,0,0,0,-1,1350,1212,0,0
133,-188,0,0,0,0,0,0,0,0,0,-1,1357,1212,0,0
140,-188,0,0,0,0,0,0,0,0,0,-1,1364,1212,0,0
147,-188,0,0,0,0,0,0,0,0,0,-1,1371,1212,0,0
154,-188,0,0,0,0,0,0,0,0,0,-1,1378,1212,0,0
161,-188,0,0,0,0,0,0,0,0,0,-1,1385,1212,0,0
168,-188,0,0,0,0,0,0,0,0,0,-1,1392,1212,0,0
175,-188,0,0,0,0,0,0,0,0,0,-1,1399,1212,0,0
182,-188,0,0,0,0,0,0,0,0,0,-1,1406,1212,0,0
189,-188,0,0,0,0,0,0,0,0,0,-1,1413,1212,0,0
196,-188,0,0,0,0,0,0,0,0,0,-1,1420,1212,0,0
203,-188,0,0,0,0,0,0,0,0,0,-1,1427,1212,0,0
210,-188,0,0,0,0,0,0,0,0,0,-1,1434,1212,0,0
217,-188,0,0,0,0,0,0,0,0,0,-1,1441,1212,0,0
224,-188,0,0,0,0,0,0,0,0,0,-1,1448,1212,0,0
231,-188,0,0,0,0,0,0,0,0,0,-1,1455,1212,0,0
238,-188,0,0,0,0,0,0,0,0,0,-1,1462,1212,0,0
245,-188,0,0,0,0,0,0,0,0,0,-1,1469,1212,0,0
252,-188,0,0,0,0,0,0,0,0,0,-1,1476,1212,0,0
259,-188,0,0,0,0,0,0,0,0,0,-1,1483,1212,0,0
266,-188,0,0,0,0,0,0,0,0,0,-1,1490,1212,0,0
273,-188,0,0,0,0,0,0,0,0,0,-1,1497,1212,0,0
280,-188,0,0,0,0,0,0,0,0,0,-1,1504,1212,0,0
287,-188,0,0,0,0,0,0,0,0,0,-1,1511,1212,0,0
294,-188,0,0,0,0,0,0,0,0,0,-1,1518,1212,0,0
301,-188,0,0,0,0,0,0,0,0,0,-1,1525,1212,0,0
308,-188,0,0,0,0,0,0,0,0,0,-1,1532,1212,0,0
315,-188,0,0,0,0,0,0,0,0,0,-1,1539,1212,0,0
322,-188,0,0,0,0,0,0,0,0,0,-1,1546,1212,0,0
329,-188,0,0,0,0,0,0,0,0,0,-1,1553,1212,0,0
336,-188,0,0,0,0,0,0,0,0,0,-1,1560,1212,0,0
343,-188,0,0,0,0,0,0,0,0,0,-1,1567,1212,0,0
350,-188,0,0,0,0,0,0,0,0,0,-1,1574,1212,0,0
357,-188,0,0,0,0,0,0,0,0,0,-1,1581,1212,0,0
364,-188,0,0,0,0,0,0,0,0,0,-1,1588,1212,0,0
371,-188,0,0,0,0,0,0,0,0,0,-1,1595,1212,0,0
378,-188,0,0,0,0,0,0,0,0,0,-1,1602,1212,0,0
385,-188,0,0,0,0,0,0,0,0,0,-1,1609,1212,0,0
392,-188,0,0,0,0,0,0,0,0,0,-1,1616,1212,0,0
399,-188,0,0,0,0,0,0,0,0,0,-1,1623,1212,0,0
406,-188,0,0,0,0,0,0,0,0,0,-1,1630,1212,0,0
413,-188,0,0,0,0,0,0,0,0,0,-1,1637,1212,0,0
420,-188,0,0,0,0,0,0,0,0,0,-1,1644,1212,0,0
427,-188,0,0,0,0,0,0,0,0,0,-1,1651,1212,0,0
434,-188,0,0,0,0,0,0,0,0,0,-1,1658,1212,0,0
441,-188,0,0,0,0,0,0,0,0,0,-1,1665,1212,0,0
448,-188,0,0,0,0,0,0,0,0,0,-1,1672,1212,0,0
455,-188,0,0,0,0,0,0,0,0,0,-1,1679,1212,0,0
462,-188,0,0,0,0,0,0,0,0,0,-1,1686,1212,0,0
469,-188,0,0,0,0,0,0,0,0,0,-1,1693,1212,0,0
476,-188,0,0,0,0,0,0,0,0,0,-1,1700,1212,0,0
483,-188,0,0,0,0,0,0,0,0,0,-1,1707,1212,0,0
490,-188,0,0,0,0,0,0,0,0,0,-1,1714,1212,0,0
497,-188,0,0,0,0,0,0,0,0,0,-1,1721,1212,0,0
504,-188,0,0,0,0,0,0,0,0,0,-1,1728,1212,0,0
511,-188,0,0,0,0,0,0,0,0,0,-1,1735,1212,0,0
518,-188,0,0,0,0,0,0,0,0,0,-1,1742,1212,0,0
525,-188,0,0,0,0,0,0,0,0,0,-1,1749,1212,0,0
532,-188,0,0,0,0,0,0,0,0,0,-1,1756,1212,0,0
539,-188,0,0,0,0,0,0,0,0,0,-1,1763,1212,0,0
546,-188,0,0,0,0,0,0,0,0,0,-1,1770,1212,0,0
553,-188,0,0,0,0,0,0,0,0,0,-1,1777,1212,0,0
560,-188,0,0,0,0,0,0,0,0,0,-1,1784,1212,0,0
567,-188,0,0,0,0,0,0,0,0,0,-1,1791,1212,0,0
574,-188,0,0,0,0,0,0,0,0,0,-1,1798,1212,0,0
581,-188,0,0,0,0,0,0,0,0,0,-1,1805,1212,0,0
588,-188,0,0,0,0,0,0,0,0,0,-1,1812,1212,0,0
595,-188,0,0,0,0,0,0,0,0,0,-1,1819,1212,0,0
602,-188,0,0,0,0,0,0,0,0,0,-1,1826,1212,0,0
609,-188,0,0,0,0,0,0,0,0,0,-1,1833,1212,0,0
616,-188,0,0,0,0,0,0,0,0,0,-1,1840,1212,0,0
623,-188,0,0,0,0,0,0,0,0,0,-1,1847,1212,0,0
630,-188,43.8982,2.57483,0.00315083,-0.00532592,-0.00292087,0.00405982,-0.00623491,-0.301703,0.00598772,0.0409688,1854,1212,43.8982,-2.57484
637,-188,43.9008,2.7146,0.00249614,-0.00341999,-0.00250933,0.00341711,-0.00434096,-0.351754,0.00448969,0.0392629,1861,1212,43.9007,-2.71465
644,-188,43.8807,2.77112,0.00185232,-0.00186682,-0.00218833,0.00286447,-0.00287897,-0.433219,0.00331598,0.0349108,1868,1212,43.8807,-2.77111
651,-188,43.8633,2.66333,0.00139962,-0.000733613,-0.00182647,0.00244811,-0.0017821,-0.521121,0.00245238,0.0316427,1875,1212,43.8633,-2.66334
658,-188,43.8818,2.64319,0.00141486,-0.000176471,-0.00161137,0.0024163,-0.00117791,-0.556068,0.00211578,0.032329,1882,1212,43.8819,-2.64323
665,-188,43.8663,2.6189,0.00148024,-0.000121553,-0.0011888,0.00211276,-0.000754073,-0.48897,0.00171601,0.0283847,1889,1212,43.8663,-2.61894
672,-188,43.9369,2.57593,0.00127214,-0.000418796,-0.000577564,0.00145058,-0.000597241,-0.299657,0.00121605,0.0219559,1896,1212,43.9369,-2.57599
679,-188,43.9136,2.4552,0.000754446,-0.00046245,-6.99269e-05,0.000758451,-0.000466455,-0.0572123,0.000713867,0.0429458,1903,1212,43.9136,-2.45517
686,-188,43.8923,2.33301,0,0,0,0,0,0,0,-1,1910,1212,43.8923,-2.33304
693,-188,35.9054,2.18042,0,0,0,0,0,0,0,-1,1917,1212,35.9054,-2.18038
700,-188,37.2294,8.01563,0,0,0,0,0,0,0,-1,1924,1212,37.2293,-8.01563
707,-188,37.0255,7.70825,-0.000774918,-0.000688286,0.00134134,0.000610434,-0.00207364,0.801539,0.00162459,0.0358919,1931,1212,37.0255,-7.70829
714,-188,37.1266,7.39917,-0.00128088,-0.00074622,0.00155724,0.000566473,-0.00259357,0.870404,0.00194556,0.0322433,1938,1212,37.1266,-7.3992
721,-188,36.9325,7.06104,-0.00161622,-0.000802499,0.00207801,0.000908107,-0.00332683,0.882072,0.00257454,0.0336193,1945,1212,36.9325,-7.061
728,-188,36.7815,6.65686,-0.00169319,-0.000663562,0.00245092,0.00132603,-0.00368278,0.888918,0.00299664,0.0121524,1952,1212,36.7815,-6.65687
735,-188,36.7494,6.28845,-0.00154118,-0.00025689,0.0026249,0.00180326,-0.00360134,0.905361,0.00317739,0.0127398,1959,1212,36.7494,-6.28845
742,-188,36.7227,5.91821,-0.000602955,0.000564075,0.00256823,0.00261424,-0.00265312,0.897105,0.00304114,0.0145995,1966,1212,36.7227,-5.91822
749,-188,36.7255,5.55127,0.00112076,0.00161204,0.00249831,0.00387676,-0.00114395,0.834402,0.00303847,0.0141255,1973,1212,36.7255,-5.55132
756,-188,36.7269,5.15942,0.00337516,0.00288631,0.00257195,0.00571427,0.000547198,0.738023,0.00364085,0.0126722,1980,1212,36.7269,-5.15936
763,-188,36.7362,4.79077,0.00623077,0.00443877,0.00277482,0.00825067,0.00241887,0.62923,0.00489749,0.0155124,1987,1212,36.7362,-4.79078
770,-188,36.7421,4.40674,0.0094513,0.00635898,0.00345889,0.0116939,0.0041164,0.575216,0.00684933,0.0286598,1994,1212,36.742,-4.40675
777,-188,36.7941,4.02344,0,0,0,0,0,0,0,-1,2001,1212,36.7941,-4.02345
784,-188,34.7103,1.6665,0,0,0,0,0,0,0,-1,2008,1212,34.7103,-1.66656
791,-188,38.8401,0.969482,0,0,0,0,0,0,0,-1,2015,1212,38.8401,-0.969542
798,-188,38.8203,2.93079,0,0,0,0,0,0,0,-1,2022,1212,38.8204,-2.93082
805,-188,0,0,0,0,0,0,0,0,0,-1,2029,1212,0,0
812,-188,0,0,0,0,0,0,0,0,0,-1,2036,1212,0,0
-700,-195,0,0,0,0,0,0,0,0,0,-1,524,1219,0,0
-693,-195,0,0,0,0,0,0,0,0,0,-1,531,1219,0,0
-686,-195,0,0,0,0,0,0,0,0,0,-1,538,1219,0,0
-679,-195,-21.6573,1.33081,0,0,0,0,0,0,0,-1,545,1219,-21.6573,-1.33081
-672,-195,-22.2587,1.76868,0.0876465,0.0210499,-0.028646,0.0982728,0.0104236,-0.355217,0.0623319,0.0458133,552,1219,-22.2587,-1.76866
-665,-195,-22.7563,1.58081,0.064161,0.0193596,-0.0211753,0.0725854,0.0109352,-0.378643,0.0451884,0.0477697,559,1219,-22.7563,-1.58082
-658,-195,-22.9303,1.52429,0.0451236,0.017012,-0.0157592,0.0521846,0.00995097,-0.421234,0.0319928,0.0488087,566,1219,-22.9303,-1.52433
-651,-195,-23.3542,1.43823,0.0301134,0.0142564,-0.0117405,0.0363518,0.00801799,-0.488417,0.0220532,0.045595,573,1219,-23.3543,-1.43828
-644,-195,-23.6244,1.58496,0.0186256,0.0116284,-0.00858022,0.0243931,0.00586095,-0.591814,0.0147031,0.0405178,580,1219,-23.6244,-1.58495
-637,-195,-23.8917,1.72375,0.0101814,0.00916116,-0.00606933,0.015762,0.00358056,-0.743472,0.00954113,0.0232907,587,1219,-23.8917,-1.72375
-630,-195,-24.0048,2.10229,0.00473783,0.00548618,-0.00439153,0.00951944,0.000704566,-0.827898,0.00612496,0.00889153,594,1219,-24.0048,-2.1023
-623,-195,-24.0145,2.52527,-0.00152547,0.00411248,-0.00205484,0.00478191,-0.0021949,-1.25586,0.00411934,0.00842214,601,1219,-24.0144,-2.52521
-616,-195,-24.0153,2.95422,-0.00311534,0.00282732,-0.00169599,0.00327728,-0.00356529,-1.31147,0.00395173,0.00950968,608,1219,-24.0153,-2.95421
-609,-195,-24.0319,3.3833,-0.000884243,0.00192539,-0.00055057,0.00202943,-0.00098828,-1.38404,0.0017765,0.0172985,615,1219,-24.0319,-3.38335
-602,-195,-24.071,3.79688,0.000521624,0.0010821,-6.66524e-05,0.00108992,0.000513806,-1.45405,0.000629608,0.0206373,622,1219,-24.071,-3.79684
-595,-195,-24.1045,4.20703,0.00109706,0.000837557,4.41759e-05,0.00110438,0.000830243,0.164075,0.000664012,0.016063,629,1219,-24.1045,-4.20708
-588,-195,-24.1249,4.6637,0.00103968,0.00120648,0.000308389,0.00144254,0.000803613,0.917454,0.000834661,0.0189891,636,1219,-24.1249,-4.66367
-581,-195,-23.941,5.15283,0,0,0,0,0,0,0,-1,643,1219,-23.9411,-5.15283
-574,-195,-22.6731,4.11804,0,0,0,0,0,0,0,-1,650,1219,-22.6731,-4.11802
-567,-195,-20.6388,3.78369,0,0,0,0,0,0,0,-1,657,1219,-20.6388,-3.78369
-560,-195,-20.878,2.10388,0,0,0,0,0,0,0,-1,664,1219,-20.878,-2.10385
-553,-195,-31.4797,1.34521,0,0,0,0,0,0,0,-1,671,1219,-31.4797,-1.34516
-546,-195,-32.1206,0.927734,0,0,0,0,0,0,0,-1,678,1219,-32.1206,-0.927709
-539,-195,-32.0931,0.859375,0.00144891,0.00519027,0.00189654,0.00598348,0.000655707,1.17467,0.00378938,0.0384123,685,1219,-32.0931,-0.859345
-532,-195,-32.1998,0.843384,0.00122803,0.00612244,0.00214442,0.00692905,0.000421418,1.21102,0.0044855,0.033254,692,1219,-32.1998,-0.843397
-525,-195,-32.2427,0.968018,0.00124657,0.00683659,0.00238854,0.00771816,0.000365001,1.21722,0.00502819,0.0377236,699,1219,-32.2427,-0.967976
-518,-195,-32.024,1.18933,0.00234689,0.00802234,0.0034418,0.00964541,0.000723823,1.13015,0.00620309,0.0410386,706,1219,-32.024,-1.18938
-511,-195,-31.7198,1.12891,0.00566073,0.0095458,0.00568286,0.013609,0.00159757,0.950084,0.00858978,0.04154,713,1219,-31.7198,-1.12888
-504,-195,0,0,0,0,0,0,0,0,0,-1,720,1219,0,0
-497,-195,0,0,0,0,0,0,0,0,0,-1,727,1219,0,0
-490,-195,0,0,0,0,0,0,0,0,0,-1,734,1219,0,0
-483,-195,0,0,0,0,0,0,0,0,0,-1,741,1219,0,0
-476,-195,0,0,0,0,0,0,0,0,0,-1,748,1219,0,0
-469,-195,0,0,0,0,0,0,0,0,0,-1,755,1219,0,0
-462,-195,0,0,0,0,0,0,0,0,0,-1,762,1219,0,0
-455,-195,0,0,0,0,0,0,0,0,0,-1,769,1219,0,0
-448,-195,0,0,0,0,0,0,0,0,0,-1,776,1219,0,0
-441,-195,0,0,0,0,0,0,0,0,0,-1,783,1219,0,0
-434,-195,0,0,0,0,0,0,0,0,0,-1,790,1219,0,0
-427,-195,0,0,0,0,0,0,0,0,0,-1,797,1219,0,0
-420,-195,0,0,0,0,0,0,0,0,0,-1,804,1219,0,0
-413,-195,0,0,0,0,0,0,0,0,0,-1,811,1219,0,0
-406,-195,0,0,0,0,0,0,0,0,0,-1,818,1219,0,0
-399,-195,0,0,0,0,0,0,0,0,0,-1,825,1219,0,0
-392,-195,0,0,0,0,0,0,0,0,0,-1,832,1219,0,0
-385,-195,0,0,0,0,0,0,0,0,0,-1,839,1219,0,0
-378,-195,0,0,0,0,0,0,0,0,0,-1,846,1219,0,0
-371,-195,0,0,0,0,0,0,0,0,0,-1,853,1219,0,0
-364,-195,0,0,0,0,0,0,0,0,0,-1,860,1219,0,0
-357,-195,0,0,0,0,0,0,0,0,0,-1,867,1219,0,0
-350,-195,0,0,0,0,0,0,0,0,0,-1,874,1219,0,0
-343,-195,0,0,0,0,0,0,0,0,0,-1,881,1219,0,0
-336,-195,0,0,0,0,0,0,0,0,0,-1,888,1219,0,0
-329,-195,0,0,0,0,0,0,0,0,0,-1,895,1219,0,0
-322,-195,0,0,0,0,0,0,0,0,0,-1,902,1219,0,0
-315,-195,0,0,0,0,0,0,0,0,0,-1,909,1219,0,0
-308,-195,0,0,0,0,0,0,0,0,0,-1,916,1219,0,0
-301,-195,0,0,0,0,0,0,0,0,0,-1,923,1219,0,0
-294,-195,0,0,0,0,0,0,0,0,0,-1,930,1219,0,0
-287,-195,0,0,0,0,0,0,0,0,0,-1,937,1219,0,0
-280,-195,0,0,0,0,0,0,0,0,0,-1,944,1219,0,0
-273,-195,0,0,0,0,0,0,0,0,0,-1,951,1219,0,0
-266,-195,0,0,0,0,0,0,0,0,0,-1,958,1219,0,0
-259,-195,0,0,0,0,0,0,0,0,0,-1,965,1219,0,0
-252,-195,0,0,0,0,0,0,0,0,0,-1,972,1219,0,0
-245,-195,0,0,0,0,0,0,0,0,0,-1,979,1219,0,0
-238,-195,0,0,0,0,0,0,0,0,0,-1,986,1219,0,0
-231,-195,0,0,0,0,0,0,0,0,0,-1,993,1219,0,0
-224,-195,0,0,0,0,0,0,0,0,0,-1,1000,1219,0,0
-217,-195,0,0,0,0,0,0,0,0,0,-1,1007,1219,0,0
-210,-195,0,0,0,0,0,0,0,0,0,-1,1014,1219,0,0
-203,-195,0,0,0,0,0,0,0,0,0,-1,1021,1219,0,0
-196,-195,0,0,0,0,0,0,0,0,0,-1,1028,1219,0,0
-189,-195,0,0,0,0,0,0,0,0,0,-1,1035,1219,0,0
-182,-195,0,0,0,0,0,0,0,0,0,-1,1042,1219,0,0
-175,-195,0,0,0,0,0,0,0,0,0,-1,1049,1219,0,0
-168,-195,0,0,0,0,0,0,0,0,0,-1,1056,1219,0,0
-161,-195,0,0,0,0,0,0,0,0,0,-1,1063,1219,0,0
-154,-195,0,0,0,0,0,0,0,0,0,-1,1070,1219,0,0
-147,-195,0,0,0,0,0,0,0,0,0,-1,1077,1219,0,0
-140,-195,0,0,0,0,0,0,0,0,0,-1,1084,1219,0,0
-133,-195,0,0,0,0,0,0,0,0,0,-1,1091,1219,0,0
-126,-195,0,0,0,0,0,0,0,0,0,-1,1098,1219,0,0
-119,-195,0,0,0,0,0,0,0,0,0,-1,1105,1219,0,0
-112,-195,0,0,0,0,0,0,0,0,0,-1,1112,1219,0,0
-105,-195,0,0,0,0,0,0,0,0,0,-1,1119,1219,0,0
-98,-195,0,0,0,0,0,0,0,0,0,-1,1126,1219,0,0
-91,-195,0,0,0,0,0,0,0,0,0,-1,1133,1219,0,0
-84,-195,0,0,0,0,0,0,0,0,0,-1,1140,1219,0,0
-77,-195,0,0,0,0,0,0,0,0,0,-1,1147,1219,0,0
-70,-195,0,0,0,0,0,0,0,0,0,-1,1154,1219,0,0
-63,-195,0,0,0,0,0,0,0,0,0,-1,1161,1219,0,0
-56,-195,0,0,0,0,0,0,0,0,0,-1,1168,1219,0,0
-49,-195,0,0,0,0,0,0,0,0,0,-1,1175,1219,0,0
-42,-195,0,0,0,0,0,0,0,0,0,-1,1182,1219,0,0
-35,-195,0,0,0,0,0,0,0,0,0,-1,1189,1219,0,0
-28,-195,0,0,0,0,0,0,0,0,0,-1,1196,1219,0,0
-21,-195,0,0,0,0,0,0,0,0,0,-1,1203,1219,0,0
-14,-195,0,0,0,0,0,0,0,0,0,-1,1210,1219,0,0
-7,-195,0,0,0,0,0,0,0,0,0,-1,1217,1219,0,0
0,-195,0,0,0,0,0,0,0,0,0,-1,1224,1219,0,0
7,-195,0,0,0,0,0,0,0,0,0,-1,1231,1219,0,0
14,-195,0,0,0,0,0,0,0,0,0,-1,1238,1219,0,0
21,-195,0,0,0,0,0,0,0,0,0,-1,1245,1219,0,0
28,-195,0,0,0,0,0,0,0,0,0,-1,1252,1219,0,0
35,-195,0,0,0,0,0,0,0,0,0,-1,1259,1219,0,0
42,-195,0,0,0,0,0,0,0,0,0,-1,1266,1219,0,0
49,-195,0,0,0,0,0,0,0,0,0,-1,1273,1219,0,0
56,-195,0,0,0,0,0,0,0,0,0,-1,1280,1219,0,0
63,-195,0,0,0,0,0,0,0,0,0,-1,1287,1219,0,0
70,-195,0,0,0,0,0,0,0,0,0,-1,1294,1219,0,0
77,-195,0,0,0,0,0,0,0,0,0,-1,1301,1219,0,0
84,-195,0,0,0,0,0,0,0,0,0,-1,1308,1219,0,0
91,-195,0,0,0,0,0,0,0,0,0,-1,1315,1219,0,0
98,-195,0,0,0,0,0,0,0,0,0,-1,1322,1219,0,0
105,-195,0,0,0,0,0,0,0,0,0,-1,1329,1219,0,0
112,-195,0,0,0,0,0,0,0,0,0,-1,1336,1219,0,0
119,-195,0,0,0,0,0,0,0,0,0,-1,1343,1219,0,0
126,-195,0,0,0,0,0,0,0,0,0,-1,1350,1219,0,0
133,-195,0,0,0,0,0,0,0,0,0,-1,1357,1219,0,0
140,-195,0,0,0,0,0,0,0,0,0,-1,1364,1219,0,0
147,-195,0,0,0,0,0,0,0,0,0,-1,1371,1219,0,0
154,-195,0,0,0,0,0,0,0,0,0,-1,1378,1219,0,0
161,-195,0,0,0,0,0,0,0,0,0,-1,1385,1219,0,0
168,-195,0,0,0,0,0,0,0,0,0,-1,1392,1219,0,0
175,-195,0,0,0,0,0,0,0,0,0,-1,1399,1219,0,0
182,-195,0,0,0,0,0,0,0,0,0,-1,1406,1219,0,0
189,-195,0,0,0,0,0,0,0,0,0,-1,1413,1219,0,0
196,-195,0,0,0,0,0,0,0,0,0,-1,1420,1219,0,0
203,-195,0,0,0,0,0,0,0,0,0,-1,1427,1219,0,0
210,-195,0,0,0,0,0,0,0,0,0,-1,1434,1219,0,0
217,-195,0,0,0,0,0,0,0,0,0,-1,1441,1219,0,0
224,-195,0,0,0,0,0,0,0,0,0,-1,1448,1219,0,0
231,-195,0,0,0,0,0,0,0,0,0,-1,1455,1219,0,0
238,-195,0,0,0,0,0,0,0,0,0,-1,1462,1219,0,0
245,-195,0,0,0,0,0,0,0,0,0,-1,1469,1219,0,0
252,-195,0,0,0,0,0,0,0,0,0,-1,1476,1219,0,0
259,-195,0,0,0,0,0,0,0,0,0,-1,1483,1219,0,0
266,-195,0,0,0,0,0,0,0,0,0,-1,1490,1219,0,0
273,-195,0,0,0,0,0,0,0,0,0,-1,1497,1219,0,0
280,-195,0,0,0,0,0,0,0,0,0,-1,1504,1219,0,0
287,-195,0,0,0,0,0,0,0,0,0,-1,1511,1219,0,0
294,-195,0,0,0,0,0,0,0,0,0,-1,1518,1219,0,0
301,-195,0,0,0,0,0,0,0,0,0,-1,1525,1219,0,0
308,-195,0,0,0,0,0,0,0,0,0,-1,1532,1219,0,0
315,-195,0,0,0,0,0,0,0,0,0,-1,1539,1219,0,0
322,-195,0,0,0,0,0,0,0,0,0,-1,1546,1219,0,0
329,-195,0,0,0,0,0,0,0,0,0,-1,1553,1219,0,0
336,-195,0,0,0,0,0,0,0,0,0,-1,1560,1219,0,0
343,-195,0,0,0,0,0,0,0,0,0,-1,1567,1219,0,0
350,-195,0,0,0,0,0,0,0,0,0,-1,1574,1219,0,0
357,-195,0,0,0,0,0,0,0,0,0,-1,1581,1219,0,0
364,-195,0,0,0,0,0,0,0,0,0,-1,1588,1219,0,0
371,-195,0,0,0,0,0,0,0,0,0,-1,1595,1219,0,0
378,-195,0,0,0,0,0,0,0,0,0,-1,1602,1219,0,0
385,-195,0,0,0,0,0,0,0,0,0,-1,1609,1219,0,0
392,-195,0,0,0,0,0,0,0,0,0,-1,1616,1219,0,0
399,-195,0,0,0,0,0,0,0,0,0,-1,1623,1219,0,0
406,-195,0,0,0,0,0,0,0,0,0,-1,1630,1219,0,0
413,-195,0,0,0,0,0,0,0,0,0,-1,1637,1219,0,0
420,-195,0,0,0,0,0,0,0,0,0,-1,1644,1219,0,0
427,-195,0,0,0,0,0,0,0,0,0,-1,1651,1219,0,0
434,-195,0,0,0,0,0,0,0,0,0,-1,1658,1219,0,0
441,-195,0,0,0,0,0,0,0,0,0,-1,1665,1219,0,0
448,-195,0,0,0,0,0,0,0,0,0,-1,1672,1219,0,0
455,-195,0,0,0,0,0,0,0,0,0,-1,1679,1219,0,0
462,-195,0,0,0,0,0,0,0,0,0,-1,1686,1219,0,0
469,-195,0,0,0,0,0,0,0,0,0,-1,1693,1219,0,0
476,-195,0,0,0,0,0,0,0,0,0,-1,1700,1219,0,0
483,-195,0,0,0,0,0,0,0,0,0,-1,1707,1219,0,0
490,-195,0,0,0,0,0,0,0,0,0,-1,1714,1219,0,0
497,-195,0,0,0,0,0,0,0,0,0,-1,1721,1219,0,0
504,-195,0,0,0,0,0,0,0,0,0,-1,1728,1219,0,0
511,-195,0,0,0,0,0,0,0,0,0,-1,1735,1219,0,0
518,-195,0,0,0,0,0,0,0,0,0,-1,1742,1219,0,0
525,-195,0,0,0,0,0,0,0,0,0,-1,1749,1219,0,0
532,-195,0,0,0,0,0,0,0,0,0,-1,1756,1219,0,0
539,-195,0,0,0,0,0,0,0,0,0,-1,1763,1219,0,0
546,-195,0,0,0,0,0,0,0,0,0,-1,1770,1219,0,0
553,-195,0,0,0,0,0,0,0,0,0,-1,1777,1219,0,0
560,-195,0,0,0,0,0,0,0,0,0,-1,1784,1219,0,0
567,-195,0,0,0,0,0,0,0,0,0,-1,1791,1219,0,0
574,-195,0,0,0,0,0,0,0,0,0,-1,1798,1219,0,0
581,-195,0,0,0,0,0,0,0,0,0,-1,1805,1219,0,0
588,-195,0,0,0,0,0,0,0,0,0,-1,1812,1219,0,0
595,-195,0,0,0,0,0,0,0,0,0,-1,1819,1219,0,0
602,-195,0,0,0,0,0,0,0,0,0,-1,1826,1219,0,0
609,-195,0,0,0,0,0,0,0,0,0,-1,1833,1219,0,0
616,-195,0,0,0,0,0,0,0,0,0,-1,1840,1219,0,0
623,-195,0,0,0,0,0,0,0,0,0,-1,1847,1219,0,0
630,-195,43.9927,2.74805,0.00330362,-0.00413847,-0.00295383,0.0043335,-0.00516835,-0.33548,0.00549295,0.0423959,1854,1219,43.9927,-2.74811
637,-195,43.9257,2.67297,0.00257297,-0.00236161,-0.00247573,0.00360093,-0.00338956,-0.393553,0.00403658,0.0380865,1861,1219,43.9256,-2.67301
644,-195,43.9121,2.64221,0.00176086,-0.000950471,-0.00201104,0.0028305,-0.00202011,-0.488828,0.0028135,0.0334131,1868,1219,43.9121,-2.64216
651,-195,43.9396,2.59863,0.00126568,-0.00011256,-0.0016027,0.00232113,-0.00116801,-0.58236,0.0020508,0.0268919,1875,1219,43.9396,-2.59857
658,-195,43.915,2.6123,0.00128766,0.000132661,-0.00137916,0.00220535,-0.000785027,-0.587123,0.00179023,0.0255028,1882,1219,43.9151,-2.61225
665,-195,43.9111,2.59631,0.00135715,-2.24365e-05,-0.000991411,0.00187512,-0.000540415,-0.481458,0.00146386,0.0227772,1889,1219,43.9111,-2.5963
672,-195,43.9755,2.50195,0.00122555,-0.000413478,-0.000492888,0.00136235,-0.000550281,-0.270738,0.00113695,0.032111,1896,1219,43.9755,-2.50196
679,-195,43.8593,2.35498,0,0,0,0,0,0,0,-1,1903,1219,43.8592,-2.35504
686,-195,42.8165,2.35498,0,0,0,0,0,0,0,-1,1910,1219,42.8165,-2.35495
693,-195,24.4368,5.68298,0,0,0,0,0,0,0,-1,1917,1219,24.4368,-5.68293
700,-195,36.4272,8.41174,0,0,0,0,0,0,0,-1,1924,1219,36.4272,-8.41169
707,-195,36.4673,7.88403,-0.000339816,-0.00108999,0.00132089,0.000658214,-0.00208802,0.647058,0.00165562,0.0323242,1931,1219,36.4673,-7.88408
714,-195,36.441,7.34778,-0.000779144,-0.00122616,0.00155596,0.000569273,-0.00257458,0.714063,0.00193427,0.0381593,1938,1219,36.441,-7.3478
721,-195,36.4078,7.06628,-0.00101613,-0.00128081,0.00207709,0.000932835,-0.00322978,0.753585,0.0025223,0.0199096,1945,1219,36.4078,-7.06628
728,-195,36.3899,6.70032,-0.000951319,-0.00102728,0.00235967,0.00137067,-0.00334927,0.777351,0.00280374,0.0115036,1952,1219,36.3899,-6.70026
735,-195,36.3784,6.28064,-0.000604493,-0.000481642,0.00247302,0.00193072,-0.00301685,0.797815,0.00287933,0.0128597,1959,1219,36.3784,-6.28068
742,-195,36.3521,5.9093,0.000506342,0.000406943,0.00241801,0.00287516,-0.00196188,0.775123,0.00280921,0.0148537,1966,1219,36.352,-5.90926
749,-195,36.3495,5.55408,0.00235784,0.00145222,0.00236179,0.00430984,-0.000499775,0.690686,0.00305348,0.0145693,1973,1219,36.3495,-5.55405
756,-195,36.3362,5.16687,0.00484456,0.00266996,0.00238621,0.00637951,0.00113501,0.571622,0.00392969,0.0134284,1980,1219,36.3362,-5.16685
763,-195,36.3402,4.7915,0.00818375,0.00413073,0.00245817,0.00934304,0.00297144,0.440677,0.00551199,0.0175818,1987,1219,36.3403,-4.7915
770,-195,36.3479,4.4436,0.0121889,0.00591596,0.00293424,0.0133474,0.00475741,0.37605,0.00781133,0.0335896,1994,1219,36.3479,-4.44362
777,-195,36.3998,4.1322,0,0,0,0,0,0,0,-1,2001,1219,36.3998,-4.13224
784,-195,40.2747,-0.327393,0,0,0,0,0,0,0,-1,2008,1219,40.2747,0.327416
791,-195,40.3972,1.3114,0,0,0,0,0,0,0,-1,2015,1219,40.3973,-1.31137
798,-195,40.4421,3.11365,0,0,0,0,0,0,0,-1,2022,1219,40.4421,-3.11367
805,-195,0,0,0,0,0,0,0,0,0,-1,2029,1219,0,0
812,-195,0,0,0,0,0,0,0,0,0,-1,2036,1219,0,0
-700,-202,0,0,0,0,0,0,0,0,0,-1,524,1226,0,0
-693,-202,0,0,0,0,0,0,0,0,0,-1,531,1226,0,0
-686,-202,0,0,0,0,0,0,0,0,0,-1,538,1226,0,0
-679,-202,-20.8219,2.20239,0,0,0,0,0,0,0,-1,545,1226,-20.8219,-2.20236
-672,-202,-21.532,2.28101,0.0821772,0.00992895,-0.0342787,0.0958525,-0.00374636,-0.379596,0.0651864,0.0458736,552,1226,-21.532,-2.28095
-665,-202,-22.2931,2.13147,0.0597697,0.0118844,-0.0243695,0.0699902,0.00166386,-0.397117,0.0461156,0.0494082,559,1226,-22.2931,-2.13146
-658,-202,-22.2435,1.52124,0.0414352,0.0121057,-0.017298,0.0494482,0.00409282,-0.433799,0.0316894,0.0499557,566,1226,-22.2435,-1.52126
-651,-202,-22.8411,1.22461,0,0,0,0,0,0,0,-1,573,1226,-22.8411,-1.22465
-644,-202,-23.0933,1.56665,0.0161734,0.00993659,-0.0082086,0.021836,0.00427402,-0.603871,0.0133625,0.0443457,580,1226,-23.0934,-1.5667
-637,-202,-23.3785,1.69165,0.00837694,0.00842868,-0.00528048,0.0136833,0.00312227,-0.787848,0.00828008,0.0364022,587,1226,-23.3785,-1.69162
-630,-202,-23.5478,2.09485,0.0034644,0.00556242,-0.00335954,0.00803292,0.000993895,-0.936726,0.00505664,0.0157541,594,1226,-23.5478,-2.09487
-623,-202,-23.5801,2.52795,-0.00215661,0.00466961,-0.00100567,0.00481468,-0.00230169,-1.42753,0.00419316,0.00841633,601,1226,-23.5801,-2.52792
-616,-202,-23.5881,2.95056,-0.00343908,0.00354682,-0.000873354,0.00365435,-0.00354661,-1.44829,0.00415763,0.00832496,608,1226,-23.5881,-2.95052
-609,-202,-23.5883,3.39587,-0.00109426,0.00263024,-2.0661e-05,0.00263036,-0.00109437,-1.56525,0.00221058,0.0211099,615,1226,-23.5882,-3.39585
-602,-202,-23.637,3.76709,0.000576286,0.00163061,0.000337816,0.00172956,0.000477333,1.28585,0.00103143,0.0206687,622,1226,-23.637,-3.76703
-595,-202,-23.6784,4.20154,0.0015647,0.00116238,0.000427059,0.0018356,0.000891475,0.565294,0.00105993,0.0144637,629,1226,-23.6784,-4.20157
-588,-202,-23.6165,4.67822,0.00171779,0.00149493,0.000794057,0.0024082,0.000804525,0.71569,0.00141566,0.012527,636,1226,-23.6165,-4.67819
-581,-202,-23.564,4.96936,0,0,0,0,0,0,0,-1,643,1226,-23.564,-4.96936
-574,-202,-23.7382,5.14221,0,0,0,0,0,0,0,-1,650,1226,-23.7382,-5.14224
-567,-202,-22.1768,4.56995,0,0,0,0,0,0,0,-1,657,1226,-22.1768,-4.56991
-560,-202,-10.929,2.73096,0,0,0,0,0,0,0,-1,664,1226,-10.929,-2.73092
-553,-202,-30.2701,1.474,0,0,0,0,0,0,0,-1,671,1226,-30.2701,-1.47395
-546,-202,-31.7657,0.451294,0,0,0,0,0,0,0,-1,678,1226,-31.7657,-0.45128
-539,-202,-31.9237,0.70166,0.00188179,0.00582744,0.00224395,0.00684249,0.000866747,1.14599,0.00430195,0.0427344,685,1226,-31.9237,-0.701604
-532,-202,-32.1496,0.875122,0.00147303,0.0067339,0.00237627,0.0076483,0.000558636,1.20346,0.00492323,0.0289755,692,1226,-32.1496,-0.875166
-525,-202,-32.2418,0.930786,0.0010673,0.00740523,0.00237047,0.00819372,0.00027881,1.24968,0.00537196,0.03574,699,1226,-32.2417,-0.930824
-518,-202,-32.0098,1.09387,0.00140183,0.00822561,0.00293676,0.00931545,0.00031199,1.21545,0.00610896,0.0431655,706,1226,-32.0097,-1.09385
-511,-202,-31.8027,1.17432,0.00424537,0.00937875,0.00483517,0.0122863,0.00133787,1.0294,0.0077833,0.0440695,713,1226,-31.8028,-1.17427
-504,-202,0,0,0,0,0,0,0,0,0,-1,720,1226,0,0
-497,-202,0,0,0,0,0,0,0,0,0,-1,727,1226,0,0
-490,-202,0,0,0,0,0,0,0,0,0,-1,734,1226,0,0
-483,-202,0,0,0,0,0,0,0,0,0,-1,741,1226,0,0
-476,-202,0,0,0,0,0,0,0,0,0,-1,748,1226,0,0
-469,-202,0,0,0,0,0,0,0,0,0,-1,755,1226,0,0
-462,-202,0,0,0,0,0,0,0,0,0,-1,762,1226,0,0
-455,-202,0,0,0,0,0,0,0,0,0,-1,769,1226,0,0
-448,-202,0,0,0,0,0,0,0,0,0,-1,776,1226,0,0
-441,-202,0,0,0,0,0,0,0,0,0,-1,783,1226,0,0
-434,-202,0,0,0,0,0,0,0,0,0,-1,790,1226,0,0
-427,-202,0,0,0,0,0,0,0,0,0,-1,797,1226,0,0
-420,-202,0,0,0,0,0,0,0,0,0,-1,804,1226,0,0
-413,-202,0,0,0,0,0,0,0,0,0,-1,811,1226,0,0
-406,-202,0,0,0,0,0,0,0,0,0,-1,818,1226,0,0
-399,-202,0,0,0,0,0,0,0,0,0,-1,825,1226,0,0
-392,-202,0,0,0,0,0,0,0,0,0,-1,832,1226,0,0
-385,-202,0,0,0,0,0,0,0,0,0,-1,839,1226,0,0
-378,-202,0,0,0,0,0,0,0,0,0,-1,846,1226,0,0
-371,-202,0,0,0,0,0,0,0,0,0,-1,853,1226,0,0
-364,-202,0,0,0,0,0,0,0,0,0,-1,860,1226,0,0
-357,-202,0,0,0,0,0,0,0,0,0,-1,867,1226,0,0
-350,-202,0,0,0,0,0,0,0,0,0,-1,874,1226,0,0
-343,-202,0,0,0,0,0,0,0,0,0,-1,881,1226,0,0
-336,-202,0,0,0,0,0,0,0,0,0,-1,888,1226,0,0
-329,-202,0,0,0,0,0,0,0,0,0,-1,895,1226,0,0
-322,-202,0,0,0,0,0,0,0,0,0,-1,902,1226,0,0
-315,-202,0,0,0,0,0,0,0,0,0,-1,909,1226,0,0
-308,-202,0,0,0,0,0,0,0,0,0,-1,916,1226,0,0
-301,-202,0,0,0,0,0,0,0,0,0,-1,923,1226,0,0
-294,-202,0,0,0,0,0,0,0,0,0,-1,930,1226,0,0
-287,-202,0,0,0,0,0,0,0,0,0,-1,937,1226,0,0
-280,-202,0,0,0,0,0,0,0,0,0,-1,944,1226,0,0
-273,-202,0,0,0,0,0,0,0,0,0,-1,951,1226,0,0
-266,-202,0,0,0,0,0,0,0,0,0,-1,958,1226,0,0
-259,-202,0,0,0,0,0,0,0,0,0,-1,965,1226,0,0
-252,-202,0,0,0,0,0,0,0,0,0,-1,972,1226,0,0
-245,-202,0,0,0,0,0,0,0,0,0,-1,979,1226,0,0
-238,-202,0,0,0,0,0,0,0,0,0,-1,986,1226,0,0
-231,-202,0,0,0,0,0,0,0,0,0,-1,993,1226,0,0
-224,-202,0,0,0,0,0,0,0,0,0,-1,1000,1226,0,0
-217,-202,0,0,0,0,0,0,0,0,0,-1,1007,1226,0,0
-210,-202,0,0,0,0,0,0,0,0,0,-1,1014,1226,0,0
-203,-202,0,0,0,0,0,0,0,0,0,-1,1021,1226,0,0
-196,-202,0,0,0,0,0,0,0,0,0,-1,1028,1226,0,0
-189,-202,0,0,0,0,0,0,0,0,0,-1,1035,1226,0,0
-182,-202,0,0,0,0,0,0,0,0,0,-1,1042,1226,0,0
-175,-202,0,0,0,0,0,0,0,0,0,-1,1049,1226,0,0
-168,-202,0,0,0,0,0,0,0,0,0,-1,1056,1226,0,0
-161,-202,0,0,0,0,0,0,0,0,0,-1,1063,1226,0,0
-154,-202,0,0,0,0,0,0,0,0,0,-1,1070,1226,0,0
-147,-202,0,0,0,0,0,0,0,0,0,-1,1077,1226,0,0
-140,-202,0,0,0,0,0,0,0,0,0,-1,1084,1226,0,0
-133,-202,0,0,0,0,0,0,0,0,0,-1,1091,1226,0,0
-126,-202,0,0,0,0,0,0,0,0,0,-1,1098,1226,0,0
-119,-202,0,0,0,0,0,0,0,0,0,-1,1105,1226,0,0
-112,-202,0,0,0,0,0,0,0,0,0,-1,1112,1226,0,0
-105,-202,0,0,0,0,0,0,0,0,0,-1,1119,1226,0,0
-98,-202,0,0,0,0,0,0,0,0,0,-1,1126,1226,0,0
-91,-202,0,0,0,0,0,0,0,0,0,-1,1133,1226,0,0
-84,-202,0,0,0,0,0,0,0,0,0,-1,1140,1226,0,0
-77,-202,0,0,0,0,0,0,0,0,0,-1,1147,1226,0,0
-70,-202,0,0,0,0,0,0,0,0,0,-1,1154,1226,0,0
-63,-202,0,0,0,0,0,0,0,0,0,-1,1161,1226,0,0
-56,-202,0,0,0,0,0,0,0,0,0,-1,1168,1226,0,0
-49,-202,0,0,0,0,0,0,0,0,0,-1,1175,1226,0,0
-42,-202,0,0,0,0,0,0,0,0,0,-1,1182,1226,0,0
-35,-202,0,0,0,0,0,0,0,0,0,-1,1189,1226,0,0
-28,-202,0,0,0,0,0,0,0,0,0,-1,1196,1226,0,0
-21,-202,0,0,0,0,0,0,0,0,0,-1,1203,1226,0,0
-14,-202,0,0,0,0,0,0,0,0,0,-1,1210,1226,0,0
-7,-202,0,0,0,0,0,0,0,0,0,-1,1217,1226,0,0
0,-202,0,0,0,0,0,0,0,0,0,-1,1224,1226,0,0
7,-202,0,0,0,0,0,0,0,0,0,-1,1231,1226,0,0
14,-202,0,0,0,0,0,0,0,0,0,-1,1238,1226,0,0
21,-202,0,0,0,0,0,0,0,0,0,-1,1245,1226,0,0
28,-202,0,0,0,0,0,0,0,0,0,-1,1252,1226,0,0
35,-202,0,0,0,0,0,0,0,0,0,-1,1259,1226,0,0
42,-202,0,0,0,0,0,0,0,0,0,-1,1266,1226,0,0
49,-202,0,0,0,0,0,0,0,0,0,-1,1273,1226,0,0
56,-202,0,0,0,0,0,0,0,0,0,-1,1280,1226,0,0
63,-202,0,0,0,0,0,0,0,0,0,-1,1287,1226,0,0
70,-202,0,0,0,0,0,0,0,0,0,-1,1294,1226,0,0
77,-202,0,0,0,0,0,0,0,0,0,-1,1301,1226,0,0
84,-202,0,0,0,0,0,0,0,0,0,-1,1308,1226,0,0
91,-202,0,0,0,0,0,0,0,0,0,-1,1315,1226,0,0
98,-202,0,0,0,0,0,0,0,0,0,-1,1322,1226,0,0
105,-202,0,0,0,0,0,0,0,0,0,-1,1329,1226,0,0
112,-202,0,0,0,0,0,0,0,0,0,-1,1336,1226,0,0
119,-202,0,0,0,0,0,0,0,0,0,-1,1343,1226,0,0
126,-202,0,0,0,0,0,0,0,0,0,-1,1350,1226,0,0
133,-202,0,0,0,0,0,0,0,0,0,-1,1357,1226,0,0
140,-202,0,0,0,0,0,0,0,0,0,-1,1364,1226,0,0
147,-202,0,0,0,0,0,0,0,0,0,-1,1371,1226,0,0
154,-202,0,0,0,0,0,0,0,0,0,-1,1378,1226,0,0
161,-202,0,0,0,0,0,0,0,0,0,-1,1385,1226,0,0
168,-202,0,0,0,0,0,0,0,0,0,-1,1392,1226,0,0
175,-202,0,0,0,0,0,0,0,0,0,-1,1399,1226,0,0
182,-202,0,0,0,0,0,0,0,0,0,-1,1406,1226,0,0
189,-202,0,0,0,0,0,0,0,0,0,-1,1413,1226,0,0
196,-202,0,0,0,0,0,0,0,0,0,-1,1420,1226,0,0
203,-202,0,0,0,0,0,0,0,0,0,-1,1427,1226,0,0
210,-202,0,0,0,0,0,0,0,0,0,-1,1434,1226,0,0
217,-202,0,0,0,0,0,0,0,0,0,-1,1441,1226,0,0
224,-202,0,0,0,0,0,0,0,0,0,-1,1448,1226,0,0
231,-202,0,0,0,0,0,0,0,0,0,-1,1455,1226,0,0
238,-202,0,0,0,0,0,0,0,0,0,-1,1462,1226,0,0
245,-202,0,0,0,0,0,0,0,0,0,-1,1469,1226,0,0
252,-202,0,0,0,0,0,0,0,0,0,-1,1476,1226,0,0
259,-202,0,0,0,0,0,0,0,0,0,-1,1483,1226,0,0
266,-202,0,0,0,0,0,0,0,0,0,-1,1490,1226,0,0
273,-202,0,0,0,0,0,0,0,0,0,-1,1497,1226,0,0
280,-202,0,0,0,0,0,0,0,0,0,-1,1504,1226,0,0
287,-202,0,0,0,0,0,0,0,0,0,-1,1511,1226,0,0
294,-202,0,0,0,0,0,0,0,0,0,-1,1518,1226,0,0
301,-202,0,0,0,0,0,0,0,0,0,-1,1525,1226,0,0
308,-202,0,0,0,0,0,0,0,0,0,-1,1532,1226,0,0
315,-202,0,0,0,0,0,0,0,0,0,-1,1539,1226,0,0
322,-202,0,0,0,0,0,0,0,0,0,-1,1546,1226,0,0
329,-202,0,0,0,0,0,0,0,0,0,-1,1553,1226,0,0
336,-202,0,0,0,0,0,0,0,0,0,-1,1560,1226,0,0
343,-202,0,0,0,0,0,0,0,0,0,-1,1567,1226,0,0
350,-202,0,0,0,0,0,0,0,0,0,-1,1574,1226,0,0
357,-202,0,0,0,0,0,0,0,0,0,-1,1581,1226,0,0
364,-202,0,0,0,0,0,0,0,0,0,-1,1588,1226,0,0
371,-202,0,0,0,0,0,0,0,0,0,-1,1595,1226,0,0
378,-202,0,0,0,0,0,0,0,0,0,-1,1602,1226,0,0
385,-202,0,0,0,0,0,0,0,0,0,-1,1609,1226,0,0
392,-202,0,0,0,0,0,0,0,0,0,-1,1616,1226,0,0
399,-202,0,0,0,0,0,0,0,0,0,-1,1623,1226,0,0
406,-202,0,0,0,0,0,0,0,0,0,-1,1630,1226,0,0
413,-202,0,0,0,0,0,0,0,0,0,-1,1637,1226,0,0
420,-202,0,0,0,0,0,0,0,0,0,-1,1644,1226,0,0
427,-202,0,0,0,0,0,0,0,0,0,-1,1651,1226,0,0
434,-202,0,0,0,0,0,0,0,0,0,-1,1658,1226,0,0
441,-202,0,0,0,0,0,0,0,0,0,-1,1665,1226,0,0
448,-202,0,0,0,0,0,0,0,0,0,-1,1672,1226,0,0
455,-202,0,0,0,0,0,0,0,0,0,-1,1679,1226,0,0
462,-202,0,0,0,0,0,0,0,0,0,-1,1686,1226,0,0
469,-202,0,0,0,0,0,0,0,0,0,-1,1693,1226,0,0
476,-202,0,0,0,0,0,0,0,0,0,-1,1700,1226,0,0
483,-202,0,0,0,0,0,0,0,0,0,-1,1707,1226,0,0
490,-202,0,0,0,0,0,0,0,0,0,-1,1714,1226,0,0
497,-202,0,0,0,0,0,0,0,0,0,-1,1721,1226,0,0
504,-202,0,0,0,0,0,0,0,0,0,-1,1728,1226,0,0
511,-202,0,0,0,0,0,0,0,0,0,-1,1735,1226,0,0
518,-202,0,0,0,0,0,0,0,0,0,-1,1742,1226,0,0
525,-202,0,0,0,0,0,0,0,0,0,-1,1749,1226,0,0
532,-202,0,0,0,0,0,0,0,0,0,-1,1756,1226,0,0
539,-202,0,0,0,0,0,0,0,0,0,-1,1763,1226,0,0
546,-202,0,0,0,0,0,0,0,0,0,-1,1770,1226,0,0
553,-202,0,0,0,0,0,0,0,0,0,-1,1777,1226,0,0
560,-202,0,0,0,0,0,0,0,0,0,-1,1784,1226,0,0
567,-202,0,0,0,0,0,0,0,0,0,-1,1791,1226,0,0
574,-202,0,0,0,0,0,0,0,0,0,-1,1798,1226,0,0
581,-202,0,0,0,0,0,0,0,0,0,-1,1805,1226,0,0
588,-202,0,0,0,0,0,0,0,0,0,-1,1812,1226,0,0
595,-202,0,0,0,0,0,0,0,0,0,-1,1819,1226,0,0
602,-202,0,0,0,0,0,0,0,0,0,-1,1826,1226,0,0
609,-202,0,0,0,0,0,0,0,0,0,-1,1833,1226,0,0
616,-202,0,0,0,0,0,0,0,0,0,-1,1840,1226,0,0
623,-202,0,0,0,0,0,0,0,0,0,-1,1847,1226,0,0
630,-202,43.9718,2.77307,0.00304854,-0.00279463,-0.00308892,0.00437867,-0.00412476,-0.406616,0.00491018,0.0379263,1854,1226,43.9718,-2.7731
637,-202,43.9802,2.76575,0.00213217,-0.0010105,-0.00241235,0.00343981,-0.00231814,-0.496729,0.00334532,0.0365889,1861,1226,43.9803,-2.76576
644,-202,43.9652,2.61621,0.00110873,0.00029658,-0.00168466,0.00243557,-0.00103026,-0.667133,0.00205509,0.033547,1868,1226,43.9652,-2.61623
651,-202,43.9832,2.58569,0.000632478,0.000839091,-0.00120652,0.00194672,-0.00047515,-0.828106,0.00148181,0.0267754,1875,1226,43.9832,-2.58572
658,-202,43.9525,2.60266,0.000724765,0.000770304,-0.000979798,0.0017276,-0.000232528,-0.797016,0.00123655,0.0226428,1882,1226,43.9525,-2.60262
665,-202,43.9796,2.57129,0.000862136,0.00040429,-0.000648277,0.00132072,-5.42953e-05,-0.61567,0.000899126,0.0204023,1889,1226,43.9797,-2.57134
672,-202,44.0869,2.52234,0.000839589,-9.84846e-05,-0.000269142,0.000911322,-0.000170218,-0.260473,0.000671518,0.0409906,1896,1226,44.087,-2.52233
679,-202,44.1501,2.45178,0,0,0,0,0,0,0,-1,1903,1226,44.1502,-2.45182
686,-202,44.2722,2.33875,0,0,0,0,0,0,0,-1,1910,1226,44.2722,-2.33878
693,-202,35.6848,8.9165,0,0,0,0,0,0,0,-1,1917,1226,35.6848,-8.91654
700,-202,35.8601,8.32849,0.000203845,-0.00124448,0.00104275,0.000749229,-0.00178986,0.481896,0.00150643,0.0442076,1924,1226,35.8601,-8.32847
707,-202,36.0144,7.70813,0.000140404,-0.00142581,0.00130697,0.000880921,-0.00216633,0.515491,0.00181075,0.0342733,1931,1226,36.0144,-7.70813
714,-202,36.0112,7.32532,-0.000161465,-0.00161906,0.00152909,0.00080363,-0.00258415,0.563013,0.002044,0.0230189,1938,1226,36.0113,-7.32526
721,-202,36.0275,7.05212,-0.000222193,-0.00162559,0.00203095,0.00122486,-0.00307264,0.619066,0.00255647,0.0138745,1945,1226,36.0275,-7.05207
728,-202,36.007,6.69824,-9.47477e-06,-0.0012773,0.00223858,0.00168321,-0.00296999,0.647422,0.00272055,0.0115539,1952,1226,36.007,-6.6982
735,-202,35.9924,6.30652,0.000455229,-0.000640554,0.00236722,0.00233713,-0.00252246,0.671676,0.00280637,0.0114021,1959,1226,35.9924,-6.30647
742,-202,35.9901,5.922,0.00158192,0.000260268,0.00240081,0.00341119,-0.001569,0.651098,0.00294015,0.01156,1966,1226,35.9901,-5.92204
749,-202,35.9674,5.54297,0.0033778,0.00126631,0.00246033,0.00499933,-0.000355223,0.582726,0.00345738,0.0121751,1973,1226,35.9674,-5.54301
756,-202,35.9595,5.1676,0.00593798,0.00241497,0.00255288,0.0072781,0.00107485,0.483404,0.00453643,0.0116258,1980,1226,35.9595,-5.16763
763,-202,36.0007,4.83704,0.00958048,0.00376895,0.00265741,0.0106124,0.00273704,0.370392,0.00636196,0.0184838,1987,1226,36.0008,-4.83705
770,-202,36.0706,4.59729,0.0141975,0.00539611,0.00313015,0.0151972,0.00439644,0.30913,0.00903006,0.0459879,1994,1226,36.0706,-4.59729
777,-202,36.1857,4.33423,0,0,0,0,0,0,0,-1,2001,1226,36.1857,-4.3342
784,-202,37.9491,-2.1272,0,0,0,0,0,0,0,-1,2008,1226,37.9491,2.12721
791,-202,41.6821,1.56946,0,0,0,0,0,0,0,-1,2015,1226,41.6821,-1.56946
798,-202,41.7263,3.20728,0,0,0,0,0,0,0,-1,2022,1226,41.7262,-3.20725
805,-202,0,0,0,0,0,0,0,0,0,-1,2029,1226,0,0
812,-202,0,0,0,0,0,0,0,0,0,-1,2036,1226,0,0
-700,-209,0,0,0,0,0,0,0,0,0,-1,524,1233,0,0
-693,-209,0,0,0,0,0,0,0,0,0,-1,531,1233,0,0
-686,-209,0,0,0,0,0,0,0,0,0,-1,538,1233,0,0
-679,-209,-20.0997,2.59814,0,0,0,0,0,0,0,-1,545,1233,-20.0997,-2.59818
-672,-209,-20.8846,2.65393,0,0,0,0,0,0,0,-1,552,1233,-20.8846,-2.65392
-665,-209,-21.6723,2.48669,0,0,0,0,0,0,0,-1,559,1233,-21.6723,-2.48672
-658,-209,-21.6251,1.48523,0,0,0,0,0,0,0,-1,566,1233,-21.625,-1.48522
-651,-209,-22.4146,1.37024,0,0,0,0,0,0,0,-1,573,1233,-22.4146,-1.3703
-644,-209,-22.7329,1.28662,0.0140187,0.0100993,-0.00608637,0.0184531,0.00566492,-0.629647,0.0109153,0.0482706,580,1233,-22.7329,-1.28663
-637,-209,-23.0461,1.33655,0.00684106,0.00891747,-0.0032095,0.0112525,0.00450602,-0.941826,0.00653943,0.0491599,587,1233,-23.0461,-1.33658
-630,-209,-23.069,2.05176,0.00246157,0.00625307,-0.00141127,0.0067207,0.00199395,-1.25083,0.00398569,0.0262967,594,1233,-23.069,-2.05178
-623,-209,-23.1282,2.5127,-0.00244258,0.0054125,0.000637354,0.00546388,-0.00249396,1.49036,0.00469991,0.0124633,601,1233,-23.1283,-2.51266
-616,-209,-23.1491,2.94849,-0.00336794,0.00435922,0.000432495,0.00438335,-0.00339208,1.51506,0.00450129,0.0123225,608,1233,-23.1491,-2.94846
-609,-209,-23.1565,3.3811,-0.00102922,0.00341389,0.000891617,0.00358613,-0.00120147,1.37996,0.00287615,0.0144479,615,1233,-23.1565,-3.38114
-602,-209,-23.1713,3.81494,0.000729388,0.00221955,0.000970651,0.00269812,0.000250824,1.11274,0.00172124,0.0162535,622,1233,-23.1713,-3.81497
-595,-209,-23.1829,4.24792,0.00203102,0.00149602,0.000894719,0.00269737,0.000829665,0.64014,0.0015953,0.0115205,629,1233,-23.1829,-4.24796
-588,-209,-23.1507,4.71045,0.00244813,0.0016854,0.00127874,0.00340117,0.000732369,0.64048,0.00206703,0.0152482,636,1233,-23.1507,-4.71042
-581,-209,-22.842,5.28613,0,0,0,0,0,0,0,-1,643,1233,-22.842,-5.28619
-574,-209,-23.1639,5.63599,0,0,0,0,0,0,0,-1,650,1233,-23.1639,-5.63605
-567,-209,-23.3654,5.85144,0,0,0,0,0,0,0,-1,657,1233,-23.3654,-5.85142
-560,-209,-13.9294,4.16626,0,0,0,0,0,0,0,-1,664,1233,-13.9294,-4.16621
-553,-209,-22.7542,0.748779,0,0,0,0,0,0,0,-1,671,1233,-22.7541,-0.748796
-546,-209,-31.8642,0.199097,0,0,0,0,0,0,0,-1,678,1233,-31.8642,-0.199157
-539,-209,-31.9048,0.498901,0.00215855,0.00618079,0.00246845,0.00735367,0.000985678,1.12723,0.00460915,0.0426397,685,1233,-31.9048,-0.49893
-532,-209,-31.9689,0.825439,0.00156282,0.00705636,0.00248488,0.00801356,0.000605626,1.20311,0.00515238,0.0314624,692,1233,-31.969,-0.825424
-525,-209,-32.0623,0.774536,0.000799545,0.00769574,0.00231176,0.00839898,9.63062e-05,1.27549,0.0055675,0.0341648,699,1233,-32.0623,-0.774547
-518,-209,-32.0515,0.696777,0.000325962,0.00819089,0.00248114,0.00890819,-0.000391343,1.28937,0.00607345,0.0429591,706,1233,-32.0514,-0.69679
-511,-209,-32.0858,0.790771,0.0019287,0.00884886,0.00385021,0.0105653,0.00021227,1.15144,0.00697385,0.044443,713,1233,-32.0858,-0.790714
-504,-209,0,0,0,0,0,0,0,0,0,-1,720,1233,0,0
-497,-209,0,0,0,0,0,0,0,0,0,-1,727,1233,0,0
-490,-209,0,0,0,0,0,0,0,0,0,-1,734,1233,0,0
-483,-209,0,0,0,0,0,0,0,0,0,-1,741,1233,0,0
-476,-209,0,0,0,0,0,0,0,0,0,-1,748,1233,0,0
-469,-209,0,0,0,0,0,0,0,0,0,-1,755,1233,0,0
-462,-209,0,0,0,0,0,0,0,0,0,-1,762,1233,0,0
-455,-209,0,0,0,0,0,0,0,0,0,-1,769,1233,0,0
-448,-209,0,0,0,0,0,0,0,0,0,-1,776,1233,0,0
-441,-209,0,0,0,0,0,0,0,0,0,-1,783,1233,0,0
-434,-209,0,0,0,0,0,0,0,0,0,-1,790,1233,0,0
-427,-209,0,0,0,0,0,0,0,0,0,-1,797,1233,0,0
-420,-209,0,0,0,0,0,0,0,0,0,-1,804,1233,0,0
-413,-209,0,0,0,0,0,0,0,0,0,-1,811,1233,0,0
-406,-209,0,0,0,0,0,0,0,0,0,-1,818,1233,0,0
-399,-209,0,0,0,0,0,0,0,0,0,-1,825,1233,0,0
-392,-209,0,0,0,0,0,0,0,0,0,-1,832,1233,0,0
-385,-209,0,0,0,0,0,0,0,0,0,-1,839,1233,0,0
-378,-209,0,0,0,0,0,0,0,0,0,-1,846,1233,0,0
-371,-209,0,0,0,0,0,0,0,0,0,-1,853,1233,0,0
-364,-209,0,0,0,0,0,0,0,0,0,-1,860,1233,0,0
-357,-209,0,0,0,0,0,0,0,0,0,-1,867,1233,0,0
-350,-209,0,0,0,0,0,0,0,0,0,-1,874,1233,0,0
-343,-209,0,0,0,0,0,0,0,0,0,-1,881,1233,0,0
-336,-209,0,0,0,0,0,0,0,0,0,-1,888,1233,0,0
-329,-209,0,0,0,0,0,0,0,0,0,-1,895,1233,0,0
-322,-209,0,0,0,0,0,0,0,0,0,-1,902,1233,0,0
-315,-209,0,0,0,0,0,0,0,0,0,-1,909,1233,0,0
-308,-209,0,0,0,0,0,0,0,0,0,-1,916,1233,0,0
-301,-209,0,0,0,0,0,0,0,0,0,-1,923,1233,0,0
-294,-209,0,0,0,0,0,0,0,0,0,-1,930,1233,0,0
-287,-209,0,0,0,0,0,0,0,0,0,-1,937,1233,0,0
-280,-209,0,0,0,0,0,0,0,0,0,-1,944,1233,0,0
-273,-209,0,0,0,0,0,0,0,0,0,-1,951,1233,0,0
-266,-209,0,0,0,0,0,0,0,0,0,-1,958,1233,0,0
-259,-209,0,0,0,0,0,0,0,0,0,-1,965,1233,0,0
-252,-209,0,0,0,0,0,0,0,0,0,-1,972,1233,0,0
-245,-209,0,0,0,0,0,0,0,0,0,-1,979,1233,0,0
-238,-209,0,0,0,0,0,0,0,0,0,-1,986,1233,0,0
-231,-209,0,0,0,0,0,0,0,0,0,-1,993,1233,0,0
-224,-209,0,0,0,0,0,0,0,0,0,-1,1000,1233,0,0
-217,-209,0,0,0,0,0,0,0,0,0,-1,1007,1233,0,0
-210,-209,0,0,0,0,0,0,0,0,0,-1,1014,1233,0,0
-203,-209,0,0,0,0,0,0,0,0,0,-1,1021,1233,0,0
-196,-209,0,0,0,0,0,0,0,0,0,-1,1028,1233,0,0
-189,-209,0,0,0,0,0,0,0,0,0,-1,1035,1233,0,0
-182,-209,0,0,0,0,0,0,0,0,0,-1,1042,1233,0,0
-175,-209,0,0,0,0,0,0,0,0,0,-1,1049,1233,0,0
-168,-209,0,0,0,0,0,0,0,0,0,-1,1056,1233,0,0
-161,-209,0,0,0,0,0,0,0,0,0,-1,1063,1233,0,0
-154,-209,0,0,0,0,0,0,0,0,0,-1,1070,1233,0,0
-147,-209,0,0,0,0,0,0,0,0,0,-1,1077,1233,0,0
-140,-209,0,0,0,0,0,0,0,0,0,-1,1084,1233,0,0
-133,-209,0,0,0,0,0,0,0,0,0,-1,1091,1233,0,0
-126,-209,0,0,0,0,0,0,0,0,0,-1,1098,1233,0,0
-119,-209,0,0,0,0,0,0,0,0,0,-1,1105,1233,0,0
-112,-209,0,0,0,0,0,0,0,0,0,-1,1112,1233,0,0
-105,-209,0,0,0,0,0,0,0,0,0,-1,1119,1233,0,0
-98,-209,0,0,0,0,0,0,0,0,0,-1,1126,1233,0,0
-91,-209,0,0,0,0,0,0,0,0,0,-1,1133,1233,0,0
-84,-209,0,0,0,0,0,0,0,0,0,-1,1140,1233,0,0
-77,-209,0,0,0,0,0,0,0,0,0,-1,1147,1233,0,0
-70,-209,0,0,0,0,0,0,0,0,0,-1,1154,1233,0,0
-63,-209,0,0,0,0,0,0,0,0,0,-1,1161,1233,0,0
-56,-209,0,0,0,0,0,0,0,0,0,-1,1168,1233,0,0
-49,-209,0,0,0,0,0,0,0,0,0,-1,1175,1233,0,0
-42,-209,0,0,0,0,0,0,0,0,0,-1,1182,1233,0,0
-35,-209,0,0,0,0,0,0,0,0,0,-1,1189,1233,0,0
-28,-209,0,0,0,0,0,0,0,0,0,-1,1196,1233,0,0
-21,-209,0,0,0,0,0,0,0,0,0,-1,1203,1233,0,0
-14,-209,0,0,0,0,0,0,0,0,0,-1,1210,1233,0,0
-7,-209,0,0,0,0,0,0,0,0,0,-1,1217,1233,0,0
0,-209,0,0,0,0,0,0,0,0,0,-1,1224,1233,0,0
7,-209,0,0,0,0,0,0,0,0,0,-1,1231,1233,0,0
14,-209,0,0,0,0,0,0,0,0,0,-1,1238,1233,0,0
21,-209,0,0,0,0,0,0,0,0,0,-1,1245,1233,0,0
28,-209,0,0,0,0,0,0,0,0,0,-1,1252,1233,0,0
35,-209,0,0,0,0,0,0,0,0,0,-1,1259,1233,0,0
42,-209,0,0,0,0,0,0,0,0,0,-1,1266,1233,0,0
49,-209,0,0,0,0,0,0,0,0,0,-1,1273,1233,0,0
56,-209,0,0,0,0,0,0,0,0,0,-1,1280,1233,0,0
63,-209,0,0,0,0,0,0,0,0,0,-1,1287,1233,0,0
70,-209,0,0,0,0,0,0,0,0,0,-1,1294,1233,0,0
77,-209,0,0,0,0,0,0,0,0,0,-1,1301,1233,0,0
84,-209,0,0,0,0,0,0,0,0,0,-1,1308,1233,0,0
91,-209,0,0,0,0,0,0,0,0,0,-1,1315,1233,0,0
98,-209,0,0,0,0,0,0,0,0,0,-1,1322,1233,0,0
105,-209,0,0,0,0,0,0,0,0,0,-1,1329,1233,0,0
112,-209,0,0,0,0,0,0,0,0,0,-1,1336,1233,0,0
119,-209,0,0,0,0,0,0,0,0,0,-1,1343,1233,0,0
126,-209,0,0,0,0,0,0,0,0,0,-1,1350,1233,0,0
133,-209,0,0,0,0,0,0,0,0,0,-1,1357,1233,0,0
140,-209,0,0,0,0,0,0,0,0,0,-1,1364,1233,0,0
147,-209,0,0,0,0,0,0,0,0,0,-1,1371,1233,0,0
154,-209,0,0,0,0,0,0,0,0,0,-1,1378,1233,0,0
161,-209,0,0,0,0,0,0,0,0,0,-1,1385,1233,0,0
168,-209,0,0,0,0,0,0,0,0,0,-1,1392,1233,0,0
175,-209,0,0,0,0,0,0,0,0,0,-1,1399,1233,0,0
182,-209,0,0,0,0,0,0,0,0,0,-1,1406,1233,0,0
189,-209,0,0,0,0,0,0,0,0,0,-1,1413,1233,0,0
196,-209,0,0,0,0,0,0,0,0,0,-1,1420,1233,0,0
203,-209,0,0,0,0,0,0,0,0,0,-1,1427,1233,0,0
210,-209,0,0,0,0,0,0,0,0,0,-1,1434,1233,0,0
217,-209,0,0,0,0,0,0,0,0,0,-1,1441,1233,0,0
224,-209,0,0,0,0,0,0,0,0,0,-1,1448,1233,0,0
231,-209,0,0,0,0,0,0,0,0,0,-1,1455,1233,0,0
238,-209,0,0,0,0,0,0,0,0,0,-1,1462,1233,0,0
245,-209,0,0,0,0,0,0,0,0,0,-1,1469,1233,0,0
252,-209,0,0,0,0,0,0,0,0,0,-1,1476,1233,0,0
259,-209,0,0,0,0,0,0,0,0,0,-1,1483,1233,0,0
266,-209,0,0,0,0,0,0,0,0,0,-1,1490,1233,0,0
273,-209,0,0,0,0,0,0,0,0,0,-1,1497,1233,0,0
280,-209,0,0,0,0,0,0,0,0,0,-1,1504,1233,0,0
287,-209,0,0,0,0,0,0,0,0,0,-1,1511,1233,0,0
294,-209,0,0,0,0,0,0,0,0,0,-1,1518,1233,0,0
301,-209,0,0,0,0,0,0,0,0,0,-1,1525,1233,0,0
308,-209,0,0,0,0,0,0,0,0,0,-1,1532,1233,0,0
315,-209,0,0,0,0,0,0,0,0,0,-1,1539,1233,0,0
322,-209,0,0,0,0,0,0,0,0,0,-1,1546,1233,0,0
329,-209,0,0,0,0,0,0,0,0,0,-1,1553,1233,0,0
336,-209,0,0,0,0,0,0,0,0,0,-1,1560,1233,0,0
343,-209,0,0,0,0,0,0,0,0,0,-1,1567,1233,0,0
350,-209,0,0,0,0,0,0,0,0,0,-1,1574,1233,0,0
357,-209,0,0,0,0,0,0,0,0,0,-1,1581,1233,0,0
364,-209,0,0,0,0,0,0,0,0,0,-1,1588,1233,0,0
371,-209,0,0,0,0,0,0,0,0,0,-1,1595,1233,0,0
378,-209,0,0,0,0,0,0,0,0,0,-1,1602,1233,0,0
385,-209,0,0,0,0,0,0,0,0,0,-1,1609,1233,0,0
392,-209,0,0,0,0,0,0,0,0,0,-1,1616,1233,0,0
399,-209,0,0,0,0,0,0,0,0,0,-1,1623,1233,0,0
406,-209,0,0,0,0,0,0,0,0,0,-1,1630,1233,0,0
413,-209,0,0,0,0,0,0,0,0,0,-1,1637,1233,0,0
420,-209,0,0,0,0,0,0,0,0,0,-1,1644,1233,0,0
427,-209,0,0,0,0,0,0,0,0,0,-1,1651,1233,0,0
434,-209,0,0,0,0,0,0,0,0,0,-1,1658,1233,0,0
441,-209,0,0,0,0,0,0,0,0,0,-1,1665,1233,0,0
448,-209,0,0,0,0,0,0,0,0,0,-1,1672,1233,0,0
455,-209,0,0,0,0,0,0,0,0,0,-1,1679,1233,0,0
462,-209,0,0,0,0,0,0,0,0,0,-1,1686,1233,0,0
469,-209,0,0,0,0,0,0,0,0,0,-1,1693,1233,0,0
476,-209,0,0,0,0,0,0,0,0,0,-1,1700,1233,0,0
483,-209,0,0,0,0,0,0,0,0,0,-1,1707,1233,0,0
490,-209,0,0,0,0,0,0,0,0,0,-1,1714,1233,0,0
497,-209,0,0,0,0,0,0,0,0,0,-1,1721,1233,0,0
504,-209,0,0,0,0,0,0,0,0,0,-1,1728,1233,0,0
511,-209,0,0,0,0,0,0,0,0,0,-1,1735,1233,0,0
518,-209,0,0,0,0,0,0,0,0,0,-1,1742,1233,0,0
525,-209,0,0,0,0,0,0,0,0,0,-1,1749,1233,0,0
532,-209,0,0,0,0,0,0,0,0,0,-1,1756,1233,0,0
539,-209,0,0,0,0,0,0,0,0,0,-1,1763,1233,0,0
546,-209,0,0,0,0,0,0,0,0,0,-1,1770,1233,0,0
553,-209,0,0,0,0,0,0,0,0,0,-1,1777,1233,0,0
560,-209,0,0,0,0,0,0,0,0,0,-1,1784,1233,0,0
567,-209,0,0,0,0,0,0,0,0,0,-1,1791,1233,0,0
574,-209,0,0,0,0,0,0,0,0,0,-1,1798,1233,0,0
581,-209,0,0,0,0,0,0,0,0,0,-1,1805,1233,0,0
588,-209,0,0,0,0,0,0,0,0,0,-1,1812,1233,0,0
595,-209,0,0,0,0,0,0,0,0,0,-1,1819,1233,0,0
602,-209,0,0,0,0,0,0,0,0,0,-1,1826,1233,0,0
609,-209,0,0,0,0,0,0,0,0,0,-1,1833,1233,0,0
616,-209,0,0,0,0,0,0,0,0,0,-1,1840,1233,0,0
623,-209,43.7721,2.49023,0.00324556,-0.00417717,-0.00382705,0.00486528,-0.00579689,-0.400372,0.00616364,0.0355766,1847,1233,43.7721,-2.49027
630,-209,43.7815,2.50684,0.00221553,-0.00183777,-0.00302703,0.00383171,-0.00345395,-0.490411,0.00420826,0.0365821,1854,1233,43.7815,-2.50685
637,-209,43.8998,2.73523,0.00105585,1.26248e-05,-0.00213151,0.00272865,-0.00166017,-0.665399,0.0025588,0.0364884,1861,1233,43.8998,-2.7352
644,-209,43.9473,2.62903,-0.000117445,0.00125599,-0.0011428,0.00190253,-0.000763981,-1.05594,0.0015856,0.0314603,1868,1233,43.9472,-2.62898
651,-209,43.9409,2.573,-0.00044426,0.00158642,-0.000642607,0.00177269,-0.000630527,-1.28867,0.00143878,0.0249271,1875,1233,43.941,-2.57295
658,-209,43.9551,2.57178,-0.000199475,0.00131848,-0.000434568,0.00143409,-0.000315081,-1.31079,0.00107657,0.0207642,1882,1233,43.955,-2.57175
665,-209,44.028,2.55798,6.35426e-05,0.000842685,-0.000169892,0.000878119,2.81089e-05,-1.36518,0.000576272,0.0328018,1889,1233,44.0279,-2.55793
672,-209,44.0544,2.52429,0.00018349,0.000302277,8.99641e-05,0.000350685,0.000135082,1.07715,0.000204239,0.0476775,1896,1233,44.0545,-2.52425
679,-209,44.1858,2.56445,0,0,0,0,0,0,0,-1,1903,1233,44.1858,-2.56442
686,-209,33.3711,3.89856,0,0,0,0,0,0,0,-1,1910,1233,33.3711,-3.89855
693,-209,35.26,9.04895,0,0,0,0,0,0,0,-1,1917,1233,35.2599,-9.04894
700,-209,35.4374,8.41064,0.00022623,-0.001216,0.00102959,0.000762119,-0.00175189,0.479903,0.00148849,0.0405737,1924,1233,35.4373,-8.41066
707,-209,35.592,7.85852,0.000243836,-0.00142755,0.00127264,0.000930637,-0.00211436,0.494875,0.00180176,0.0332793,1931,1233,35.5921,-7.8585
714,-209,35.6161,7.48267,3.61663e-05,-0.00160744,0.00143424,0.000867364,-0.00243864,0.525238,0.00197928,0.0175514,1938,1233,35.6161,-7.48264
721,-209,35.6211,7.0658,0.000120776,-0.00150996,0.00190263,0.00137539,-0.00276458,0.582962,0.00243465,0.0130179,1945,1233,35.6211,-7.06578
728,-209,35.6365,6.70837,0.000421885,-0.00108149,0.00207103,0.00187342,-0.00253303,0.611314,0.00255354,0.0128713,1952,1233,35.6364,-6.70832
735,-209,35.6261,6.32214,0.000968017,-0.000454727,0.00225971,0.00262568,-0.00211239,0.632906,0.00274087,0.0144613,1959,1233,35.6261,-6.32212
742,-209,35.6208,5.92517,0.00212911,0.000357526,0.00241627,0.00381683,-0.0013302,0.609707,0.00308507,0.0141421,1966,1233,35.6209,-5.92523
749,-209,35.5989,5.54639,0.00392963,0.00123097,0.00261794,0.00552552,-0.000364922,0.547445,0.00381115,0.0127146,1973,1233,35.5989,-5.54634
756,-209,35.579,5.18555,0.00662833,0.00221687,0.00281054,0.00799532,0.000849874,0.452695,0.00507072,0.0114141,1980,1233,35.579,-5.18553
763,-209,35.5608,4.89148,0.0105894,0.00333379,0.00300974,0.0116753,0.00224784,0.346275,0.00715299,0.0186691,1987,1233,35.5608,-4.89142
770,-209,35.8152,4.66858,0.0157946,0.00460744,0.00356042,0.0168316,0.00357042,0.283421,0.0102405,0.0457568,1994,1233,35.8152,-4.66853
777,-209,36.1195,4.42139,0,0,0,0,0,0,0,-1,2001,1233,36.1195,-4.42141
784,-209,40.3342,-2.14001,0,0,0,0,0,0,0,-1,2008,1233,40.3342,2.13997
791,-209,41.8398,1.573,0,0,0,0,0,0,0,-1,2015,1233,41.8399,-1.57295
798,-209,41.8267,2.67419,0,0,0,0,0,0,0,-1,2022,1233,41.8267,-2.67425
805,-209,0,0,0,0,0,0,0,0,0,-1,2029,1233,0,0
812,-209,0,0,0,0,0,0,0,0,0,-1,2036,1233,0,0
-700,-216,0,0,0,0,0,0,0,0,0,-1,524,1240,0,0
-693,-216,0,0,0,0,0,0,0,0,0,-1,531,1240,0,0
-686,-216,0,0,0,0,0,0,0,0,0,-1,538,1240,0,0
-679,-216,-33.0452,1.60876,0,0,0,0,0,0,0,-1,545,1240,-33.0452,-1.60881
-672,-216,-32.8809,1.6521,0,0,0,0,0,0,0,-1,552,1240,-32.8809,-1.65215
-665,-216,-32.7775,1.67993,0,0,0,0,0,0,0,-1,559,1240,-32.7775,-1.67995
-658,-216,-33.6852,0.574097,0,0,0,0,0,0,0,-1,566,1240,-33.6852,-0.574092
-651,-216,-22.613,0.765137,0,0,0,0,0,0,0,-1,573,1240,-22.613,-0.76512
-644,-216,-22.645,0.739868,0.0117625,0.00986083,-0.00259746,0.0135777,0.00804563,-0.609944,0.00788372,0.0496976,580,1240,-22.645,-0.739877
-637,-216,-22.8624,1.26453,0.00538592,0.0091576,-6.67767e-05,0.00915878,0.00538474,-1.5531,0.00531501,0.0498074,587,1240,-22.8624,-1.26448
-630,-216,-22.7096,1.99768,0.00169777,0.00684892,0.00127873,0.00714889,0.0013978,1.34038,0.00437507,0.0319494,594,1240,-22.7096,-1.99772
-623,-216,-22.6808,2.53918,-0.0023967,0.00608728,0.00271494,0.0068817,-0.00319112,1.28613,0.00594424,0.0143684,601,1240,-22.6809,-2.53917
-616,-216,-22.7308,2.95605,-0.00295017,0.00516985,0.00206862,0.00566647,-0.00344679,1.33518,0.00531331,0.013848,608,1240,-22.7307,-2.95602
-609,-216,-22.7495,3.39917,-0.000782131,0.00412412,0.00199801,0.00483483,-0.00149284,1.22904,0.00381935,0.013304,615,1240,-22.7495,-3.39913
-602,-216,-22.755,3.84021,0.000897019,0.00276325,0.00171481,0.00378238,-0.000122112,1.03457,0.00256326,0.0124596,622,1240,-22.755,-3.84026
-595,-216,-22.7318,4.25208,0.00232654,0.001857,0.00138473,0.00349626,0.000687278,0.701426,0.00213887,0.016822,629,1240,-22.7317,-4.25202
-588,-216,-22.7414,4.69983,0.00299177,0.00187029,0.0016886,0.0042103,0.000651764,0.62509,0.00261681,0.0192192,636,1240,-22.7414,-4.69984
-581,-216,-22.7102,5.19092,0.00310181,0.00195506,0.00191509,0.00452752,0.00052935,0.639945,0.00285828,0.0293232,643,1240,-22.7102,-5.19093
-574,-216,-22.6891,5.97156,0.00322613,0.00226912,0.00206711,0.00486939,0.000625858,0.671659,0.00305906,0.0479385,650,1240,-22.6891,-5.97151
-567,-216,-22.8082,6.4425,0,0,0,0,0,0,0,-1,657,1240,-22.8082,-6.44252
-560,-216,-16.5087,5.4574,0,0,0,0,0,0,0,-1,664,1240,-16.5087,-5.45746
-553,-216,-16.2355,1.22351,0,0,0,0,0,0,0,-1,671,1240,-16.2356,-1.22356
-546,-216,-32.0025,0.764771,0,0,0,0,0,0,0,-1,678,1240,-32.0025,-0.764774
-539,-216,-31.863,0.380981,0,0,0,0,0,0,0,-1,685,1240,-31.863,-0.380932
-532,-216,-31.7717,0.76709,0.00141794,0.00698036,0.00245307,0.00790761,0.000490688,1.2094,0.00511603,0.0457063,692,1240,-31.7717,-0.767063
-525,-216,-31.8761,0.678955,0.000413868,0.00754619,0.00214717,0.0081427,-0.000182643,1.29982,0.00549036,0.0451146,699,1240,-31.8761,-0.678943
-518,-216,-31.895,0.551147,-0.000620121,0.00781258,0.0020353,0.00827812,-0.00108566,1.34593,0.00591394,0.0436453,706,1240,-31.895,-0.551135
-511,-216,-31.9764,0.744751,-0.000393318,0.00801312,0.00281978,0.00887134,-0.00125154,1.27535,0.00637251,0.0440102,713,1240,-31.9765,-0.744714
-504,-216,-32.0349,0.950317,0.00583885,0.00755835,0.00713141,0.0138816,-0.000484446,0.845388,0.00942006,0.0449454,720,1240,-32.0349,-0.950333
-497,-216,0,0,0,0,0,0,0,0,0,-1,727,1240,0,0
-490,-216,0,0,0,0,0,0,0,0,0,-1,734,1240,0,0
-483,-216,0,0,0,0,0,0,0,0,0,-1,741,1240,0,0
-476,-216,0,0,0,0,0,0,0,0,0,-1,748,1240,0,0
-469,-216,0,0,0,0,0,0,0,0,0,-1,755,1240,0,0
-462,-216,0,0,0,0,0,0,0,0,0,-1,762,1240,0,0
-455,-216,0,0,0,0,0,0,0,0,0,-1,769,1240,0,0
-448,-216,0,0,0,0,0,0,0,0,0,-1,776,1240,0,0
-441,-216,0,0,0,0,0,0,0,0,0,-1,783,1240,0,0
-434,-216,0,0,0,0,0,0,0,0,0,-1,790,1240,0,0
-427,-216,0,0,0,0,0,0,0,0,0,-1,797,1240,0,0
-420,-216,0,0,0,0,0,0,0,0,0,-1,804,1240,0,0
-413,-216,0,0,0,0,0,0,0,0,0,-1,811,1240,0,0
-406,-216,0,0,0,0,0,0,0,0,0,-1,818,1240,0,0
-399,-216,0,0,0,0,0,0,0,0,0,-1,825,1240,0,0
-392,-216,0,0,0,0,0,0,0,0,0,-1,832,1240,0,0
-385,-216,0,0,0,0,0,0,0,0,0,-1,839,1240,0,0
-378,-216,0,0,0,0,0,0,0,0,0,-1,846,1240,0,0
-371,-216,0,0,0,0,0,0,0,0,0,-1,853,1240,0,0
-364,-216,0,0,0,0,0,0,0,0,0,-1,860,1240,0,0
-357,-216,0,0,0,0,0,0,0,0,0,-1,867,1240,0,0
-350,-216,0,0,0,0,0,0,0,0,0,-1,874,1240,0,0
-343,-216,0,0,0,0,0,0,0,0,0,-1,881,1240,0,0
-336,-216,0,0,0,0,0,0,0,0,0,-1,888,1240,0,0
-329,-216,0,0,0,0,0,0,0,0,0,-1,895,1240,0,0
-322,-216,0,0,0,0,0,0,0,0,0,-1,902,1240,0,0
-315,-216,0,0,0,0,0,0,0,0,0,-1,909,1240,0,0
-308,-216,0,0,0,0,0,0,0,0,0,-1,916,1240,0,0
-301,-216,0,0,0,0,0,0,0,0,0,-1,923,1240,0,0
-294,-216,0,0,0,0,0,0,0,0,0,-1,930,1240,0,0
-287,-216,0,0,0,0,0,0,0,0,0,-1,937,1240,0,0
-280,-216,0,0,0,0,0,0,0,0,0,-1,944,1240,0,0
-273,-216,0,0,0,0,0,0,0,0,0,-1,951,1240,0,0
-266,-216,0,0,0,0,0,0,0,0,0,-1,958,1240,0,0
-259,-216,0,0,0,0,0,0,0,0,0,-1,965,1240,0,0
-252,-216,0,0,0,0,0,0,0,0,0,-1,972,1240,0,0
-245,-216,0,0,0,0,0,0,0,0,0,-1,979,1240,0,0
-238,-216,0,0,0,0,0,0,0,0,0,-1,986,1240,0,0
-231,-216,0,0,0,0,0,0,0,0,0,-1,993,1240,0,0
-224,-216,0,0,0,0,0,0,0,0,0,-1,1000,1240,0,0
-217,-216,0,0,0,0,0,0,0,0,0,-1,1007,1240,0,0
-210,-216,0,0,0,0,0,0,0,0,0,-1,1014,1240,0,0
-203,-216,0,0,0,0,0,0,0,0,0,-1,1021,1240,0,0
-196,-216,0,0,0,0,0,0,0,0,0,-1,1028,1240,0,0
-189,-216,0,0,0,0,0,0,0,0,0,-1,1035,1240,0,0
-182,-216,0,0,0,0,0,0,0,0,0,-1,1042,1240,0,0
-175,-216,0,0,0,0,0,0,0,0,0,-1,1049,1240,0,0
-168,-216,0,0,0,0,0,0,0,0,0,-1,1056,1240,0,0
-161,-216,0,0,0,0,0,0,0,0,0,-1,1063,1240,0,0
-154,-216,0,0,0,0,0,0,0,0,0,-1,1070,1240,0,0
-147,-216,0,0,0,0,0,0,0,0,0,-1,1077,1240,0,0
-140,-216,0,0,0,0,0,0,0,0,0,-1,1084,1240,0,0
-133,-216,0,0,0,0,0,0,0,0,0,-1,1091,1240,0,0
-126,-216,0,0,0,0,0,0,0,0,0,-1,1098,1240,0,0
-119,-216,0,0,0,0,0,0,0,0,0,-1,1105,1240,0,0
-112,-216,0,0,0,0,0,0,0,0,0,-1,1112,1240,0,0
-105,-216,0,0,0,0,0,0,0,0,0,-1,1119,1240,0,0
-98,-216,0,0,0,0,0,0,0,0,0,-1,1126,1240,0,0
-91,-216,0,0,0,0,0,0,0,0,0,-1,1133,1240,0,0
-84,-216,0,0,0,0,0,0,0,0,0,-1,1140,1240,0,0
-77,-216,0,0,0,0,0,0,0,0,0,-1,1147,1240,0,0
-70,-216,0,0,0,0,0,0,0,0,0,-1,1154,1240,0,0
-63,-216,0,0,0,0,0,0,0,0,0,-1,1161,1240,0,0
-56,-216,0,0,0,0,0,0,0,0,0,-1,1168,1240,0,0
-49,-216,0,0,0,0,0,0,0,0,0,-1,1175,1240,0,0
-42,-216,0,0,0,0,0,0,0,0,0,-1,1182,1240,0,0
-35,-216,0,0,0,0,0,0,0,0,0,-1,1189,1240,0,0
-28,-216,0,0,0,0,0,0,0,0,0,-1,1196,1240,0,0
-21,-216,0,0,0,0,0,0,0,0,0,-1,1203,1240,0,0
-14,-216,0,0,0,0,0,0,0,0,0,-1,1210,1240,0,0
-7,-216,0,0,0,0,0,0,0,0,0,-1,1217,1240,0,0
0,-216,0,0,0,0,0,0,0,0,0,-1,1224,1240,0,0
7,-216,0,0,0,0,0,0,0,0,0,-1,1231,1240,0,0
14,-216,0,0,0,0,0,0,0,0,0,-1,1238,1240,0,0
21,-216,0,0,0,0,0,0,0,0,0,-1,1245,1240,0,0
28,-216,0,0,0,0,0,0,0,0,0,-1,1252,1240,0,0
35,-216,0,0,0,0,0,0,0,0,0,-1,1259,1240,0,0
42,-216,0,0,0,0,0,0,0,0,0,-1,1266,1240,0,0
49,-216,0,0,0,0,0,0,0,0,0,-1,1273,1240,0,0
56,-216,0,0,0,0,0,0,0,0,0,-1,1280,1240,0,0
63,-216,0,0,0,0,0,0,0,0,0,-1,1287,1240,0,0
70,-216,0,0,0,0,0,0,0,0,0,-1,1294,1240,0,0
77,-216,0,0,0,0,0,0,0,0,0,-1,1301,1240,0,0
84,-216,0,0,0,0,0,0,0,0,0,-1,1308,1240,0,0
91,-216,0,0,0,0,0,0,0,0,0,-1,1315,1240,0,0
98,-216,0,0,0,0,0,0,0,0,0,-1,1322,1240,0,0
105,-216,0,0,0,0,0,0,0,0,0,-1,1329,1240,0,0
112,-216,0,0,0,0,0,0,0,0,0,-1,1336,1240,0,0
119,-216,0,0,0,0,0,0,0,0,0,-1,1343,1240,0,0
126,-216,0,0,0,0,0,0,0,0,0,-1,1350,1240,0,0
133,-216,0,0,0,0,0,0,0,0,0,-1,1357,1240,0,0
140,-216,0,0,0,0,0,0,0,0,0,-1,1364,1240,0,0
147,-216,0,0,0,0,0,0,0,0,0,-1,1371,1240,0,0
154,-216,0,0,0,0,0,0,0,0,0,-1,1378,1240,0,0
161,-216,0,0,0,0,0,0,0,0,0,-1,1385,1240,0,0
168,-216,0,0,0,0,0,0,0,0,0,-1,1392,1240,0,0
175,-216,0,0,0,0,0,0,0,0,0,-1,1399,1240,0,0
182,-216,0,0,0,0,0,0,0,0,0,-1,1406,1240,0,0
189,-216,0,0,0,0,0,0,0,0,0,-1,1413,1240,0,0
196,-216,0,0,0,0,0,0,0,0,0,-1,1420,1240,0,0
203,-216,0,0,0,0,0,0,0,0,0,-1,1427,1240,0,0
210,-216,0,0,0,0,0,0,0,0,0,-1,1434,1240,0,0
217,-216,0,0,0,0,0,0,0,0,0,-1,1441,1240,0,0
224,-216,0,0,0,0,0,0,0,0,0,-1,1448,1240,0,0
231,-216,0,0,0,0,0,0,0,0,0,-1,1455,1240,0,0
238,-216,0,0,0,0,0,0,0,0,0,-1,1462,1240,0,0
245,-216,0,0,0,0,0,0,0,0,0,-1,1469,1240,0,0
252,-216,0,0,0,0,0,0,0,0,0,-1,1476,1240,0,0
259,-216,0,0,0,0,0,0,0,0,0,-1,1483,1240,0,0
266,-216,0,0,0,0,0,0,0,0,0,-1,1490,1240,0,0
273,-216,0,0,0,0,0,0,0,0,0,-1,1497,1240,0,0
280,-216,0,0,0,0,0,0,0,0,0,-1,1504,1240,0,0
287,-216,0,0,0,0,0,0,0,0,0,-1,1511,1240,0,0
294,-216,0,0,0,0,0,0,0,0,0,-1,1518,1240,0,0
301,-216,0,0,0,0,0,0,0,0,0,-1,1525,1240,0,0
308,-216,0,0,0,0,0,0,0,0,0,-1,1532,1240,0,0
315,-216,0,0,0,0,0,0,0,0,0,-1,1539,1240,0,0
322,-216,0,0,0,0,0,0,0,0,0,-1,1546,1240,0,0
329,-216,0,0,0,0,0,0,0,0,0,-1,1553,1240,0,0
336,-216,0,0,0,0,0,0,0,0,0,-1,1560,1240,0,0
343,-216,0,0,0,0,0,0,0,0,0,-1,1567,1240,0,0
350,-216,0,0,0,0,0,0,0,0,0,-1,1574,1240,0,0
357,-216,0,0,0,0,0,0,0,0,0,-1,1581,1240,0,0
364,-216,0,0,0,0,0,0,0,0,0,-1,1588,1240,0,0
371,-216,0,0,0,0,0,0,0,0,0,-1,1595,1240,0,0
378,-216,0,0,0,0,0,0,0,0,0,-1,1602,1240,0,0
385,-216,0,0,0,0,0,0,0,0,0,-1,1609,1240,0,0
392,-216,0,0,0,0,0,0,0,0,0,-1,1616,1240,0,0
399,-216,0,0,0,0,0,0,0,0,0,-1,1623,1240,0,0
406,-216,0,0,0,0,0,0,0,0,0,-1,1630,1240,0,0
413,-216,0,0,0,0,0,0,0,0,0,-1,1637,1240,0,0
420,-216,0,0,0,0,0,0,0,0,0,-1,1644,1240,0,0
427,-216,0,0,0,0,0,0,0,0,0,-1,1651,1240,0,0
434,-216,0,0,0,0,0,0,0,0,0,-1,1658,1240,0,0
441,-216,0,0,0,0,0,0,0,0,0,-1,1665,1240,0,0
448,-216,0,0,0,0,0,0,0,0,0,-1,1672,1240,0,0
455,-216,0,0,0,0,0,0,0,0,0,-1,1679,1240,0,0
462,-216,0,0,0,0,0,0,0,0,0,-1,1686,1240,0,0
469,-216,0,0,0,0,0,0,0,0,0,-1,1693,1240,0,0
476,-216,0,0,0,0,0,0,0,0,0,-1,1700,1240,0,0
483,-216,0,0,0,0,0,0,0,0,0,-1,1707,1240,0,0
490,-216,0,0,0,0,0,0,0,0,0,-1,1714,1240,0,0
497,-216,0,0,0,0,0,0,0,0,0,-1,1721,1240,0,0
504,-216,0,0,0,0,0,0,0,0,0,-1,1728,1240,0,0
511,-216,0,0,0,0,0,0,0,0,0,-1,1735,1240,0,0
518,-216,0,0,0,0,0,0,0,0,0,-1,1742,1240,0,0
525,-216,0,0,0,0,0,0,0,0,0,-1,1749,1240,0,0
532,-216,0,0,0,0,0,0,0,0,0,-1,1756,1240,0,0
539,-216,0,0,0,0,0,0,0,0,0,-1,1763,1240,0,0
546,-216,0,0,0,0,0,0,0,0,0,-1,1770,1240,0,0
553,-216,0,0,0,0,0,0,0,0,0,-1,1777,1240,0,0
560,-216,0,0,0,0,0,0,0,0,0,-1,1784,1240,0,0
567,-216,0,0,0,0,0,0,0,0,0,-1,1791,1240,0,0
574,-216,0,0,0,0,0,0,0,0,0,-1,1798,1240,0,0
581,-216,0,0,0,0,0,0,0,0,0,-1,1805,1240,0,0
588,-216,0,0,0,0,0,0,0,0,0,-1,1812,1240,0,0
595,-216,0,0,0,0,0,0,0,0,0,-1,1819,1240,0,0
602,-216,0,0,0,0,0,0,0,0,0,-1,1826,1240,0,0
609,-216,0,0,0,0,0,0,0,0,0,-1,1833,1240,0,0
616,-216,0,0,0,0,0,0,0,0,0,-1,1840,1240,0,0
623,-216,43.7734,2.75806,0.00226163,-0.00320262,-0.00314702,0.00369703,-0.00463801,-0.427926,0.00482245,0.0383673,1847,1240,43.7734,-2.75806
630,-216,43.7487,2.64429,0.00103684,-0.00122003,-0.00226096,0.00243532,-0.00261852,-0.553936,0.00291848,0.037267,1854,1240,43.7487,-2.64426
637,-216,43.9092,2.7157,-0.000339313,0.000425832,-0.0011946,0.00129763,-0.00121111,-0.940364,0.0014487,0.0335284,1861,1240,43.9092,-2.71575
644,-216,43.9402,2.6593,-0.00141481,0.00138251,-0.000142784,0.00138978,-0.00142208,-1.51993,0.00162346,0.0260175,1868,1240,43.9402,-2.65932
651,-216,43.9049,2.59131,-0.00146546,0.00155537,0.000205251,0.00156926,-0.00147934,1.50326,0.00176037,0.0219371,1875,1240,43.9049,-2.59127
658,-216,43.9752,2.60498,-0.00106303,0.00126107,0.000298424,0.00129878,-0.00110074,1.44511,0.00138693,0.0301181,1882,1240,43.9752,-2.605
665,-216,44.0695,2.58142,-0.000697099,0.000848323,0.000438262,0.000963956,-0.000812732,1.31283,0.00102701,0.0404697,1889,1240,44.0695,-2.58142
672,-216,43.9602,2.65405,-0.000469005,0.000404138,0.000554931,0.000673642,-0.00073851,1.11869,0.000815593,0.0460687,1896,1240,43.9602,-2.65411
679,-216,44.0298,2.86426,0,0,0,0,0,0,0,-1,1903,1240,44.0298,-2.86427
686,-216,21.5172,6.19458,0,0,0,0,0,0,0,-1,1910,1240,21.5172,-6.19453
693,-216,35.3232,8.71338,0,0,0,0,0,0,0,-1,1917,1240,35.3232,-8.71334
700,-216,35.1692,8.38379,0.000243389,-0.00108426,0.00104023,0.000813554,-0.00165443,0.501397,0.0014522,0.0390871,1924,1240,35.1692,-8.38373
707,-216,35.201,7.90283,0.000348011,-0.00129994,0.00123708,0.00101041,-0.00196233,0.491606,0.0017454,0.0308302,1931,1240,35.2011,-7.90287
714,-216,35.246,7.4751,0.00025241,-0.00146853,0.00131925,0.000967009,-0.00218312,0.496425,0.00186336,0.0151743,1938,1240,35.246,-7.4751
721,-216,35.2546,7.09375,0.000486986,-0.00128877,0.00175991,0.0015703,-0.00237208,0.551776,0.00229177,0.0140493,1945,1240,35.2547,-7.09377
728,-216,35.2732,6.71582,0.000837316,-0.000816851,0.00195109,0.00212939,-0.00210893,0.584926,0.002447,0.012824,1952,1240,35.2732,-6.71582
735,-216,35.2855,6.33826,0.00137071,-0.000252963,0.00226799,0.00296778,-0.00185004,0.613527,0.00280641,0.013038,1959,1240,35.2856,-6.33823
742,-216,35.2408,5.9696,0.00247715,0.000443291,0.00259508,0.00424744,-0.00132699,0.598659,0.0033624,0.0146992,1966,1240,35.2409,-5.96963
749,-216,35.2222,5.56348,0.00421941,0.00116948,0.00299293,0.00605348,-0.000664594,0.54978,0.00427444,0.0122686,1973,1240,35.2222,-5.56353
756,-216,35.1898,5.18188,0.00695833,0.00197526,0.00337576,0.00866245,0.000271142,0.467488,0.00568674,0.0112205,1980,1240,35.1898,-5.18186
763,-216,35.1698,4.87634,0.011045,0.002815,0.00383386,0.0125542,0.00130579,0.375022,0.00796994,0.0180373,1987,1240,35.1698,-4.87639
770,-216,35.3462,4.66968,0.0165153,0.00365246,0.00473696,0.0180715,0.00209627,0.317413,0.0114133,0.0396607,1994,1240,35.3462,-4.66972
777,-216,35.5751,4.44678,0,0,0,0,0,0,0,-1,2001,1240,35.5751,-4.44682
784,-216,42.4829,-1.97656,0,0,0,0,0,0,0,-1,2008,1240,42.4828,1.97653
791,-216,41.0908,0.603882,0,0,0,0,0,0,0,-1,2015,1240,41.0908,-0.603931
798,-216,0,0,0,0,0,0,0,0,0,-1,2022,1240,0,0
805,-216,0,0,0,0,0,0,0,0,0,-1,2029,1240,0,0
812,-216,0,0,0,0,0,0,0,0,0,-1,2036,1240,0,0
-700,-223,0,0,0,0,0,0,0,0,0,-1,524,1247,0,0
-693,-223,0,0,0,0,0,0,0,0,0,-1,531,1247,0,0
-686,-223,0,0,0,0,0,0,0,0,0,-1,538,1247,0,0
-679,-223,0,0,0,0,0,0,0,0,0,-1,545,1247,0,0
-672,-223,-34.089,1.81775,0,0,0,0,0,0,0,-1,552,1247,-34.089,-1.8177
-665,-223,-35.7889,0.571777,0,0,0,0,0,0,0,-1,559,1247,-35.7889,-0.57176
-658,-223,-35.0014,0.327881,0,0,0,0,0,0,0,-1,566,1247,-35.0014,-0.327897
-651,-223,-34.2438,-0.431519,0,0,0,0,0,0,0,-1,573,1247,-34.2438,0.431463
-644,-223,-22.5801,0.290527,0,0,0,0,0,0,0,-1,580,1247,-22.5801,-0.290517
-637,-223,-22.5998,1.43018,0,0,0,0,0,0,0,-1,587,1247,-22.5998,-1.43015
-630,-223,-22.4203,2.00354,0.0013347,0.00768946,0.00499095,0.0104286,-0.00140444,1.06886,0.00746473,0.0448067,594,1247,-22.4203,-2.00354
-623,-223,-22.2914,2.54529,-0.00192684,0.00714716,0.00545134,0.00970251,-0.00448219,1.13245,0.00837237,0.0227241,601,1247,-22.2914,-2.54527
-616,-223,-22.3052,2.97388,-0.00218601,0.00615209,0.00421948,0.00791473,-0.00394865,1.17509,0.00697575,0.0163922,608,1247,-22.3052,-2.97389
-609,-223,-22.2989,3.41345,-0.000301413,0.00485746,0.00347889,0.00660886,-0.00205281,1.1044,0.00522634,0.0121641,615,1247,-22.2989,-3.41346
-602,-223,-22.2938,3.83728,0.00120658,0.00334328,0.00270836,0.00518639,-0.000636527,0.97326,0.00368812,0.0134966,622,1247,-22.2938,-3.83726
-595,-223,-22.2769,4.26514,0.00262861,0.00228717,0.00201449,0.0044796,0.000436182,0.743125,0.00285215,0.0197668,629,1247,-22.2769,-4.26511
-588,-223,-22.3023,4.70593,0.00348555,0.00212922,0.00208764,0.00500242,0.000612353,0.628351,0.00315072,0.0224837,636,1247,-22.3023,-4.70592
-581,-223,-22.353,5.15002,0.00372647,0.00223643,0.00226847,0.00536913,0.000593766,0.626736,0.00339883,0.0204264,643,1247,-22.3529,-5.15
-574,-223,-22.292,5.60657,0.00389021,0.00260679,0.002405,0.00573765,0.000759357,0.655024,0.00359878,0.0226549,650,1247,-22.292,-5.60658
-567,-223,-22.1367,6.17175,0.00414994,0.00374907,0.00247654,0.00643414,0.00146487,0.74502,0.00389409,0.0373763,657,1247,-22.1366,-6.17173
-560,-223,-22.1555,6.74939,0,0,0,0,0,0,0,-1,664,1247,-22.1555,-6.7494
-553,-223,-11.4025,4.14722,0,0,0,0,0,0,0,-1,671,1247,-11.4025,-4.14719
-546,-223,-26.9034,-0.148682,0,0,0,0,0,0,0,-1,678,1247,-26.9034,0.14867
-539,-223,-31.3417,0.69519,0,0,0,0,0,0,0,-1,685,1247,-31.3418,-0.695224
-532,-223,-31.568,0.648315,0,0,0,0,0,0,0,-1,692,1247,-31.568,-0.648293
-525,-223,-31.7707,0.593262,0,0,0,0,0,0,0,-1,699,1247,-31.7707,-0.593228
-518,-223,-31.839,0.478394,0,0,0,0,0,0,0,-1,706,1247,-31.839,-0.478423
-511,-223,-32.0512,0.778442,-0.00245457,0.00653963,0.00171348,0.006855,-0.00276995,1.38878,0.00572137,0.0411043,713,1247,-32.0512,-0.778422
-504,-223,-32.0844,0.786621,0.000921546,0.0059524,0.0046272,0.00870369,-0.00182975,1.03436,0.00649881,0.0413589,720,1247,-32.0843,-0.786609
-497,-223,0,0,0,0,0,0,0,0,0,-1,727,1247,0,0
-490,-223,0,0,0,0,0,0,0,0,0,-1,734,1247,0,0
-483,-223,0,0,0,0,0,0,0,0,0,-1,741,1247,0,0
-476,-223,0,0,0,0,0,0,0,0,0,-1,748,1247,0,0
-469,-223,0,0,0,0,0,0,0,0,0,-1,755,1247,0,0
-462,-223,0,0,0,0,0,0,0,0,0,-1,762,1247,0,0
-455,-223,0,0,0,0,0,0,0,0,0,-1,769,1247,0,0
-448,-223,0,0,0,0,0,0,0,0,0,-1,776,1247,0,0
-441,-223,0,0,0,0,0,0,0,0,0,-1,783,1247,0,0
-434,-223,0,0,0,0,0,0,0,0,0,-1,790,1247,0,0
-427,-223,0,0,0,0,0,0,0,0,0,-1,797,1247,0,0
-420,-223,0,0,0,0,0,0,0,0,0,-1,804,1247,0,0
-413,-223,0,0,0,0,0,0,0,0,0,-1,811,1247,0,0
-406,-223,0,0,0,0,0,0,0,0,0,-1,818,1247,0,0
-399,-223,0,0,0,0,0,0,0,0,0,-1,825,1247,0,0
-392,-223,0,0,0,0,0,0,0,0,0,-1,832,1247,0,0
-385,-223,0,0,0,0,0,0,0,0,0,-1,839,1247,0,0
-378,-223,0,0,0,0,0,0,0,0,0,-1,846,1247,0,0
-371,-223,0,0,0,0,0,0,0,0,0,-1,853,1247,0,0
-364,-223,0,0,0,0,0,0,0,0,0,-1,860,1247,0,0
-357,-223,0,0,0,0,0,0,0,0,0,-1,867,1247,0,0
-350,-223,0,0,0,0,0,0,0,0,0,-1,874,1247,0,0
-343,-223,0,0,0,0,0,0,0,0,0,-1,881,1247,0,0
-336,-223,0,0,0,0,0,0,0,0,0,-1,888,1247,0,0
-329,-223,0,0,0,0,0,0,0,0,0,-1,895,1247,0,0
-322,-223,0,0,0,0,0,0,0,0,0,-1,902,1247,0,0
-315,-223,0,0,0,0,0,0,0,0,0,-1,909,1247,0,0
-308,-223,0,0,0,0,0,0,0,0,0,-1,916,1247,0,0
-301,-223,0,0,0,0,0,0,0,0,0,-1,923,1247,0,0
-294,-223,0,0,0,0,0,0,0,0,0,-1,930,1247,0,0
-287,-223,0,0,0,0,0,0,0,0,0,-1,937,1247,0,0
-280,-223,0,0,0,0,0,0,0,0,0,-1,944,1247,0,0
-273,-223,0,0,0,0,0,0,0,0,0,-1,951,1247,0,0
-266,-223,0,0,0,0,0,0,0,0,0,-1,958,1247,0,0
-259,-223,0,0,0,0,0,0,0,0,0,-1,965,1247,0,0
-252,-223,0,0,0,0,0,0,0,0,0,-1,972,1247,0,0
-245,-223,0,0,0,0,0,0,0,0,0,-1,979,1247,0,0
-238,-223,0,0,0,0,0,0,0,0,0,-1,986,1247,0,0
-231,-223,0,0,0,0,0,0,0,0,0,-1,993,1247,0,0
-224,-223,0,0,0,0,0,0,0,0,0,-1,1000,1247,0,0
-217,-223,0,0,0,0,0,0,0,0,0,-1,1007,1247,0,0
-210,-223,0,0,0,0,0,0,0,0,0,-1,1014,1247,0,0
-203,-223,0,0,0,0,0,0,0,0,0,-1,1021,1247,0,0
-196,-223,0,0,0,0,0,0,0,0,0,-1,1028,1247,0,0
-189,-223,0,0,0,0,0,0,0,0,0,-1,1035,1247,0,0
-182,-223,0,0,0,0,0,0,0,0,0,-1,1042,1247,0,0
-175,-223,0,0,0,0,0,0,0,0,0,-1,1049,1247,0,0
-168,-223,0,0,0,0,0,0,0,0,0,-1,1056,1247,0,0
-161,-223,0,0,0,0,0,0,0,0,0,-1,1063,1247,0,0
-154,-223,0,0,0,0,0,0,0,0,0,-1,1070,1247,0,0
-147,-223,0,0,0,0,0,0,0,0,0,-1,1077,1247,0,0
-140,-223,0,0,0,0,0,0,0,0,0,-1,1084,1247,0,0
-133,-223,0,0,0,0,0,0,0,0,0,-1,1091,1247,0,0
-126,-223,0,0,0,0,0,0,0,0,0,-1,1098,1247,0,0
-119,-223,0,0,0,0,0,0,0,0,0,-1,1105,1247,0,0
-112,-223,0,0,0,0,0,0,0,0,0,-1,1112,1247,0,0
-105,-223,0,0,0,0,0,0,0,0,0,-1,1119,1247,0,0
-98,-223,0,0,0,0,0,0,0,0,0,-1,1126,1247,0,0
-91,-223,0,0,0,0,0,0,0,0,0,-1,1133,1247,0,0
-84,-223,0,0,0,0,0,0,0,0,0,-1,1140,1247,0,0
-77,-223,0,0,0,0,0,0,0,0,0,-1,1147,1247,0,0
-70,-223,0,0,0,0,0,0,0,0,0,-1,1154,1247,0,0
-63,-223,0,0,0,0,0,0,0,0,0,-1,1161,1247,0,0
-56,-223,0,0,0,0,0,0,0,0,0,-1,1168,1247,0,0
-49,-223,0,0,0,0,0,0,0,0,0,-1,1175,1247,0,0
-42,-223,0,0,0,0,0,0,0,0,0,-1,1182,1247,0,0
-35,-223,0,0,0,0,0,0,0,0,0,-1,1189,1247,0,0
-28,-223,0,0,0,0,0,0,0,0,0,-1,1196,1247,0,0
-21,-223,0,0,0,0,0,0,0,0,0,-1,1203,1247,0,0
-14,-223,0,0,0,0,0,0,0,0,0,-1,1210,1247,0,0
-7,-223,0,0,0,0,0,0,0,0,0,-1,1217,1247,0,0
0,-223,0,0,0,0,0,0,0,0,0,-1,1224,1247,0,0
7,-223,0,0,0,0,0,0,0,0,0,-1,1231,1247,0,0
14,-223,0,0,0,0,0,0,0,0,0,-1,1238,1247,0,0
21,-223,0,0,0,0,0,0,0,0,0,-1,1245,1247,0,0
28,-223,0,0,0,0,0,0,0,0,0,-1,1252,1247,0,0
35,-223,0,0,0,0,0,0,0,0,0,-1,1259,1247,0,0
42,-223,0,0,0,0,0,0,0,0,0,-1,1266,1247,0,0
49,-223,0,0,0,0,0,0,0,0,0,-1,1273,1247,0,0
56,-223,0,0,0,0,0,0,0,0,0,-1,1280,1247,0,0
63,-223,0,0,0,0,0,0,0,0,0,-1,1287,1247,0,0
70,-223,0,0,0,0,0,0,0,0,0,-1,1294,1247,0,0
77,-223,0,0,0,0,0,0,0,0,0,-1,1301,1247,0,0
84,-223,0,0,0,0,0,0,0,0,0,-1,1308,1247,0,0
91,-223,0,0,0,0,0,0,0,0,0,-1,1315,1247,0,0
98,-223,0,0,0,0,0,0,0,0,0,-1,1322,1247,0,0
105,-223,0,0,0,0,0,0,0,0,0,-1,1329,1247,0,0
112,-223,0,0,0,0,0,0,0,0,0,-1,1336,1247,0,0
119,-223,0,0,0,0,0,0,0,0,0,-1,1343,1247,0,0
126,-223,0,0,0,0,0,0,0,0,0,-1,1350,1247,0,0
133,-223,0,0,0,0,0,0,0,0,0,-1,1357,1247,0,0
140,-223,0,0,0,0,0,0,0,0,0,-1,1364,1247,0,0
147,-223,0,0,0,0,0,0,0,0,0,-1,1371,1247,0,0
154,-223,0,0,0,0,0,0,0,0,0,-1,1378,1247,0,0
161,-223,0,0,0,0,0,0,0,0,0,-1,1385,1247,0,0
168,-223,0,0,0,0,0,0,0,0,0,-1,1392,1247,0,0
175,-223,0,0,0,0,0,0,0,0,0,-1,1399,1247,0,0
182,-223,0,0,0,0,0,0,0,0,0,-1,1406,1247,0,0
189,-223,0,0,0,0,0,0,0,0,0,-1,1413,1247,0,0
196,-223,0,0,0,0,0,0,0,0,0,-1,1420,1247,0,0
203,-223,0,0,0,0,0,0,0,0,0,-1,1427,1247,0,0
210,-223,0,0,0,0,0,0,0,0,0,-1,1434,1247,0,0
217,-223,0,0,0,0,0,0,0,0,0,-1,1441,1247,0,0
224,-223,0,0,0,0,0,0,0,0,0,-1,1448,1247,0,0
231,-223,0,0,0,0,0,0,0,0,0,-1,1455,1247,0,0
238,-223,0,0,0,0,0,0,0,0,0,-1,1462,1247,0,0
245,-223,0,0,0,0,0,0,0,0,0,-1,1469,1247,0,0
252,-223,0,0,0,0,0,0,0,0,0,-1,1476,1247,0,0
259,-223,0,0,0,0,0,0,0,0,0,-1,1483,1247,0,0
266,-223,0,0,0,0,0,0,0,0,0,-1,1490,1247,0,0
273,-223,0,0,0,0,0,0,0,0,0,-1,1497,1247,0,0
280,-223,0,0,0,0,0,0,0,0,0,-1,1504,1247,0,0
287,-223,0,0,0,0,0,0,0,0,0,-1,1511,1247,0,0
294,-223,0,0,0,0,0,0,0,0,0,-1,1518,1247,0,0
301,-223,0,0,0,0,0,0,0,0,0,-1,1525,1247,0,0
308,-223,0,0,0,0,0,0,0,0,0,-1,1532,1247,0,0
315,-223,0,0,0,0,0,0,0,0,0,-1,1539,1247,0,0
322,-223,0,0,0,0,0,0,0,0,0,-1,1546,1247,0,0
329,-223,0,0,0,0,0,0,0,0,0,-1,1553,1247,0,0
336,-223,0,0,0,0,0,0,0,0,0,-1,1560,1247,0,0
343,-223,0,0,0,0,0,0,0,0,0,-1,1567,1247,0,0
350,-223,0,0,0,0,0,0,0,0,0,-1,1574,1247,0,0
357,-223,0,0,0,0,0,0,0,0,0,-1,1581,1247,0,0
364,-223,0,0,0,0,0,0,0,0,0,-1,1588,1247,0,0
371,-223,0,0,0,0,0,0,0,0,0,-1,1595,1247,0,0
378,-223,0,0,0,0,0,0,0,0,0,-1,1602,1247,0,0
385,-223,0,0,0,0,0,0,0,0,0,-1,1609,1247,0,0
392,-223,0,0,0,0,0,0,0,0,0,-1,1616,1247,0,0
399,-223,0,0,0,0,0,0,0,0,0,-1,1623,1247,0,0
406,-223,0,0,0,0,0,0,0,0,0,-1,1630,1247,0,0
413,-223,0,0,0,0,0,0,0,0,0,-1,1637,1247,0,0
420,-223,0,0,0,0,0,0,0,0,0,-1,1644,1247,0,0
427,-223,0,0,0,0,0,0,0,0,0,-1,1651,1247,0,0
434,-223,0,0,0,0,0,0,0,0,0,-1,1658,1247,0,0
441,-223,0,0,0,0,0,0,0,0,0,-1,1665,1247,0,0
448,-223,0,0,0,0,0,0,0,0,0,-1,1672,1247,0,0
455,-223,0,0,0,0,0,0,0,0,0,-1,1679,1247,0,0
462,-223,0,0,0,0,0,0,0,0,0,-1,1686,1247,0,0
469,-223,0,0,0,0,0,0,0,0,0,-1,1693,1247,0,0
476,-223,0,0,0,0,0,0,0,0,0,-1,1700,1247,0,0
483,-223,0,0,0,0,0,0,0,0,0,-1,1707,1247,0,0
490,-223,0,0,0,0,0,0,0,0,0,-1,1714,1247,0,0
497,-223,0,0,0,0,0,0,0,0,0,-1,1721,1247,0,0
504,-223,0,0,0,0,0,0,0,0,0,-1,1728,1247,0,0
511,-223,0,0,0,0,0,0,0,0,0,-1,1735,1247,0,0
518,-223,0,0,0,0,0,0,0,0,0,-1,1742,1247,0,0
525,-223,0,0,0,0,0,0,0,0,0,-1,1749,1247,0,0
532,-223,0,0,0,0,0,0,0,0,0,-1,1756,1247,0,0
539,-223,0,0,0,0,0,0,0,0,0,-1,1763,1247,0,0
546,-223,0,0,0,0,0,0,0,0,0,-1,1770,1247,0,0
553,-223,0,0,0,0,0,0,0,0,0,-1,1777,1247,0,0
560,-223,0,0,0,0,0,0,0,0,0,-1,1784,1247,0,0
567,-223,0,0,0,0,0,0,0,0,0,-1,1791,1247,0,0
574,-223,0,0,0,0,0,0,0,0,0,-1,1798,1247,0,0
581,-223,0,0,0,0,0,0,0,0,0,-1,1805,1247,0,0
588,-223,0,0,0,0,0,0,0,0,0,-1,1812,1247,0,0
595,-223,0,0,0,0,0,0,0,0,0,-1,1819,1247,0,0
602,-223,0,0,0,0,0,0,0,0,0,-1,1826,1247,0,0
609,-223,0,0,0,0,0,0,0,0,0,-1,1833,1247,0,0
616,-223,0,0,0,0,0,0,0,0,0,-1,1840,1247,0,0
623,-223,43.7325,2.96765,0.00116391,-0.00229856,-0.00182906,0.00195113,-0.00308578,-0.406433,0.00293256,0.0364243,1847,1247,43.7326,-2.96768
630,-223,43.7474,2.89368,-0.000284876,-0.00087465,-0.0008038,0.000276422,-0.00143595,-0.609588,0.00106151,0.0354259,1854,1247,43.7474,-2.89369
637,-223,43.9006,2.68115,-0.00186087,0.000431715,0.000389925,0.00049622,-0.00192537,1.40685,0.00147704,0.0304442,1861,1247,43.9006,-2.68112
644,-223,43.9381,2.62207,-0.00268367,0.00107676,0.00130893,0.0014875,-0.00309441,1.26672,0.00269905,0.0228264,1868,1247,43.9381,-2.62211
651,-223,43.8912,2.56873,-0.00242624,0.00117026,0.00138459,0.00164155,-0.00289752,1.24272,0.00265386,0.0282664,1875,1247,43.8912,-2.5687
658,-223,44.0173,2.62317,0,0,0,0,0,0,0,-1,1882,1247,44.0174,-2.62312
665,-223,44.103,2.66492,-0.00141467,0.00060567,0.00126433,0.00121382,-0.00202282,1.12246,0.00188803,0.0469254,1889,1247,44.103,-2.66496
672,-223,43.6659,2.70203,-0.00109649,0.00028822,0.00119335,0.000975513,-0.00178379,1.04826,0.0016157,0.0492984,1896,1247,43.6658,-2.702
679,-223,43.2783,2.46973,0,0,0,0,0,0,0,-1,1903,1247,43.2784,-2.46978
686,-223,35.125,8.96899,0,0,0,0,0,0,0,-1,1910,1247,35.125,-8.96896
693,-223,35.0632,8.62378,-3.57552e-05,-0.000168632,0.00126113,0.00116069,-0.00136507,0.759082,0.00145984,0.0420179,1917,1247,35.0633,-8.62382
700,-223,34.9457,8.25208,0.000213339,-0.000979409,0.00113032,0.000894969,-0.00166104,0.542651,0.00149764,0.0218659,1924,1247,34.9457,-8.25203
707,-223,34.8638,7.87793,0.00037527,-0.00118172,0.00125881,0.00107686,-0.00188331,0.508464,0.00173007,0.0177891,1931,1247,34.8638,-7.87795
714,-223,34.8717,7.49487,0.000371289,-0.00132885,0.00125247,0.00103493,-0.00199249,0.48725,0.00177678,0.0120516,1938,1247,34.8717,-7.49488
721,-223,34.8667,7.11145,0.000702901,-0.00106724,0.00167716,0.0017142,-0.00207854,0.54261,0.0021931,0.0150125,1945,1247,34.8667,-7.11142
728,-223,34.8434,6.73206,0.00105883,-0.000589197,0.00193711,0.0023399,-0.00187027,0.5843,0.00243578,0.0180625,1952,1247,34.8434,-6.7321
735,-223,34.8456,6.36572,0.0015765,-4.83499e-05,0.00238382,0.00328253,-0.00175438,0.621167,0.00295234,0.0165265,1959,1247,34.8456,-6.36576
742,-223,34.801,6.00061,0.002646,0.000579411,0.00287125,0.00466422,-0.00143881,0.612675,0.00368397,0.0142788,1966,1247,34.801,-6.00061
749,-223,34.7932,5.55396,0.00437651,0.00124447,0.00345587,0.00660463,-0.000983651,0.572664,0.00476493,0.012715,1973,1247,34.7932,-5.55391
756,-223,34.7671,5.16431,0.00718896,0.00201085,0.00402211,0.00938327,-0.000183462,0.49943,0.00631755,0.0158389,1980,1247,34.7671,-5.16425
763,-223,34.7665,4.85229,0.011413,0.0028093,0.00473033,0.013505,0.000717243,0.416402,0.00877404,0.0201839,1987,1247,34.7665,-4.85232
770,-223,34.8927,4.62988,0.0171345,0.00361475,0.00596613,0.0193907,0.00135849,0.361554,0.012499,0.0426372,1994,1247,34.8927,-4.62989
777,-223,35.0094,4.39502,0,0,0,0,0,0,0,-1,2001,1247,35.0094,-4.39499
784,-223,35.1801,2.14172,0,0,0,0,0,0,0,-1,2008,1247,35.1801,-2.14178
791,-223,34.7136,2.92554,0,0,0,0,0,0,0,-1,2015,1247,34.7137,-2.92555
798,-223,0,0,0,0,0,0,0,0,0,-1,2022,1247,0,0
805,-223,0,0,0,0,0,0,0,0,0,-1,2029,1247,0,0
812,-223,0,0,0,0,0,0,0,0,0,-1,2036,1247,0,0
-700,-230,0,0,0,0,0,0,0,0,0,-1,524,1254,0,0
-693,-230,0,0,0,0,0,0,0,0,0,-1,531,1254,0,0
-686,-230,0,0,0,0,0,0,0,0,0,-1,538,1254,0,0
-679,-230,0,0,0,0,0,0,0,0,0,-1,545,1254,0,0
-672,-230,-38.958,-0.18689,0,0,0,0,0,0,0,-1,552,1254,-38.958,0.186881
-665,-230,-37.8358,0.191284,0,0,0,0,0,0,0,-1,559,1254,-37.8357,-0.191255
-658,-230,-36.7369,0.591431,0,0,0,0,0,0,0,-1,566,1254,-36.7369,-0.591385
-651,-230,-35.5125,1.14844,0,0,0,0,0,0,0,-1,573,1254,-35.5125,-1.14849
-644,-230,-22.1688,1.23816,0,0,0,0,0,0,0,-1,580,1254,-22.1688,-1.23818
-637,-230,-21.8264,1.5293,0,0,0,0,0,0,0,-1,587,1254,-21.8264,-1.52928
-630,-230,-21.8046,1.97961,0.00130017,0.00941776,0.00975388,0.0159236,-0.0052057,0.982561,0.0127114,0.0496204,594,1254,-21.8045,-1.97966
-623,-230,-21.8202,2.49243,-0.00122564,0.00861476,0.00879853,0.0137754,-0.00638624,1.04034,0.011898,0.027699,601,1254,-21.8202,-2.49238
-616,-230,-21.8384,2.96375,-0.00132607,0.00718503,0.00667735,0.0108476,-0.00498865,1.0691,0.00934932,0.0167266,608,1254,-21.8384,-2.96371
-609,-230,-21.8303,3.41479,0.000174166,0.00562233,0.00510838,0.00868756,-0.00289107,1.03035,0.00695855,0.0126714,615,1254,-21.8304,-3.41477
-602,-230,-21.8175,3.83411,0.00142052,0.00397877,0.00374542,0.00665746,-0.00125818,0.949947,0.00491171,0.0119307,622,1254,-21.8175,-3.83413
-595,-230,-21.835,4.25732,0.00272271,0.00279856,0.00262533,0.00538624,0.00013503,0.792621,0.00354667,0.0190576,629,1254,-21.835,-4.2573
-588,-230,-21.8516,4.65625,0.0037175,0.00243796,0.00236355,0.00552633,0.000629128,0.653224,0.00349345,0.0267279,636,1254,-21.8516,-4.65621
-581,-230,-21.9078,5.14893,0.00414726,0.00256257,0.00246458,0.00594373,0.0007661,0.62987,0.00373341,0.0251815,643,1254,-21.9078,-5.14891
-574,-230,-21.8795,5.59009,0.00440364,0.00297789,0.00259745,0.00638427,0.000997263,0.65147,0.00396578,0.0194778,650,1254,-21.8795,-5.59005
-567,-230,-21.7054,6.08154,0.00469344,0.00411254,0.00267616,0.00709487,0.00171112,0.731344,0.00427525,0.0348041,657,1254,-21.7054,-6.08156
-560,-230,-21.5106,6.60474,0,0,0,0,0,0,0,-1,664,1254,-21.5106,-6.60469
-553,-230,-13.1939,4.9718,0,0,0,0,0,0,0,-1,671,1254,-13.1939,-4.97175
-546,-230,-15.23,0.453979,0,0,0,0,0,0,0,-1,678,1254,-15.23,-0.453996
-539,-230,-25.8232,0.512817,0,0,0,0,0,0,0,-1,685,1254,-25.8232,-0.512878
-532,-230,-21.1644,1.52966,0,0,0,0,0,0,0,-1,692,1254,-21.1644,-1.52969
-525,-230,-29.4775,0.731445,0,0,0,0,0,0,0,-1,699,1254,-29.4775,-0.731432
-518,-230,-31.8907,0.791748,0,0,0,0,0,0,0,-1,706,1254,-31.8907,-0.791775
-511,-230,-32.0352,0.714722,-0.00365277,0.0035385,0.000942643,0.00366001,-0.00377428,1.4426,0.00429236,0.0402059,713,1254,-32.0352,-0.714745
-504,-230,-32.1264,0.69165,-0.00375874,0.00242088,0.00211431,0.00307504,-0.00441289,1.27075,0.0043461,0.0371138,720,1254,-32.1264,-0.691639
-497,-230,0,0,0,0,0,0,0,0,0,-1,727,1254,0,0
-490,-230,0,0,0,0,0,0,0,0,0,-1,734,1254,0,0
-483,-230,0,0,0,0,0,0,0,0,0,-1,741,1254,0,0
-476,-230,0,0,0,0,0,0,0,0,0,-1,748,1254,0,0
-469,-230,0,0,0,0,0,0,0,0,0,-1,755,1254,0,0
-462,-230,0,0,0,0,0,0,0,0,0,-1,762,1254,0,0
-455,-230,0,0,0,0,0,0,0,0,0,-1,769,1254,0,0
-448,-230,0,0,0,0,0,0,0,0,0,-1,776,1254,0,0
-441,-230,0,0,0,0,0,0,0,0,0,-1,783,1254,0,0
-434,-230,0,0,0,0,0,0,0,0,0,-1,790,1254,0,0
-427,-230,0,0,0,0,0,0,0,0,0,-1,797,1254,0,0
-420,-230,0,0,0,0,0,0,0,0,0,-1,804,1254,0,0
-413,-230,0,0,0,0,0,0,0,0,0,-1,811,1254,0,0
-406,-230,0,0,0,0,0,0,0,0,0,-1,818,1254,0,0
-399,-230,0,0,0,0,0,0,0,0,0,-1,825,1254,0,0
-392,-230,0,0,0,0,0,0,0,0,0,-1,832,1254,0,0
-385,-230,0,0,0,0,0,0,0,0,0,-1,839,1254,0,0
-378,-230,0,0,0,0,0,0,0,0,0,-1,846,1254,0,0
-371,-230,0,0,0,0,0,0,0,0,0,-1,853,1254,0,0
-364,-230,0,0,0,0,0,0,0,0,0,-1,860,1254,0,0
-357,-230,0,0,0,0,0,0,0,0,0,-1,867,1254,0,0
-350,-230,0,0,0,0,0,0,0,0,0,-1,874,1254,0,0
-343,-230,0,0,0,0,0,0,0,0,0,-1,881,1254,0,0
-336,-230,0,0,0,0,0,0,0,0,0,-1,888,1254,0,0
-329,-230,0,0,0,0,0,0,0,0,0,-1,895,1254,0,0
-322,-230,0,0,0,0,0,0,0,0,0,-1,902,1254,0,0
-315,-230,0,0,0,0,0,0,0,0,0,-1,909,1254,0,0
-308,-230,0,0,0,0,0,0,0,0,0,-1,916,1254,0,0
-301,-230,0,0,0,0,0,0,0,0,0,-1,923,1254,0,0
-294,-230,0,0,0,0,0,0,0,0,0,-1,930,1254,0,0
-287,-230,0,0,0,0,0,0,0,0,0,-1,937,1254,0,0
-280,-230,0,0,0,0,0,0,0,0,0,-1,944,1254,0,0
-273,-230,0,0,0,0,0,0,0,0,0,-1,951,1254,0,0
-266,-230,0,0,0,0,0,0,0,0,0,-1,958,1254,0,0
-259,-230,0,0,0,0,0,0,0,0,0,-1,965,1254,0,0
-252,-230,0,0,0,0,0,0,0,0,0,-1,972,1254,0,0
-245,-230,0,0,0,0,0,0,0,0,0,-1,979,1254,0,0
-238,-230,0,0,0,0,0,0,0,0,0,-1,986,1254,0,0
-231,-230,0,0,0,0,0,0,0,0,0,-1,993,1254,0,0
-224,-230,0,0,0,0,0,0,0,0,0,-1,1000,1254,0,0
-217,-230,0,0,0,0,0,0,0,0,0,-1,1007,1254,0,0
-210,-230,0,0,0,0,0,0,0,0,0,-1,1014,1254,0,0
-203,-230,0,0,0,0,0,0,0,0,0,-1,1021,1254,0,0
-196,-230,0,0,0,0,0,0,0,0,0,-1,1028,1254,0,0
-189,-230,0,0,0,0,0,0,0,0,0,-1,1035,1254,0,0
-182,-230,0,0,0,0,0,0,0,0,0,-1,1042,1254,0,0
-175,-230,0,0,0,0,0,0,0,0,0,-1,1049,1254,0,0
-168,-230,0,0,0,0,0,0,0,0,0,-1,1056,1254,0,0
-161,-230,0,0,0,0,0,0,0,0,0,-1,1063,1254,0,0
-154,-230,0,0,0,0,0,0,0,0,0,-1,1070,1254,0,0
-147,-230,0,0,0,0,0,0,0,0,0,-1,1077,1254,0,0
-140,-230,0,0,0,0,0,0,0,0,0,-1,1084,1254,0,0
-133,-230,0,0,0,0,0,0,0,0,0,-1,1091,1254,0,0
-126,-230,0,0,0,0,0,0,0,0,0,-1,1098,1254,0,0
-119,-230,0,0,0,0,0,0,0,0,0,-1,1105,1254,0,0
-112,-230,0,0,0,0,0,0,0,0,0,-1,1112,1254,0,0
-105,-230,0,0,0,0,0,0,0,0,0,-1,1119,1254,0,0
-98,-230,0,0,0,0,0,0,0,0,0,-1,1126,1254,0,0
-91,-230,0,0,0,0,0,0,0,0,0,-1,1133,1254,0,0
-84,-230,0,0,0,0,0,0,0,0,0,-1,1140,1254,0,0
-77,-230,0,0,0,0,0,0,0,0,0,-1,1147,1254,0,0
-70,-230,0,0,0,0,0,0,0,0,0,-1,1154,1254,0,0
-63,-230,0,0,0,0,0,0,0,0,0,-1,1161,1254,0,0
-56,-230,0,0,0,0,0,0,0,0,0,-1,1168,1254,0,0
-49,-230,0,0,0,0,0,0,0,0,0,-1,1175,1254,0,0
-42,-230,0,0,0,0,0,0,0,0,0,-1,1182,1254,0,0
-35,-230,0,0,0,0,0,0,0,0,0,-1,1189,1254,0,0
-28,-230,0,0,0,0,0,0,0,0,0,-1,1196,1254,0,0
-21,-230,0,0,0,0,0,0,0,0,0,-1,1203,1254,0,0
-14,-230,0,0,0,0,0,0,0,0,0,-1,1210,1254,0,0
-7,-230,0,0,0,0,0,0,0,0,0,-1,1217,1254,0,0
0,-230,0,0,0,0,0,0,0,0,0,-1,1224,1254,0,0
7,-230,0,0,0,0,0,0,0,0,0,-1,1231,1254,0,0
14,-230,0,0,0,0,0,0,0,0,0,-1,1238,1254,0,0
21,-230,0,0,0,0,0,0,0,0,0,-1,1245,1254,0,0
28,-230,0,0,0,0,0,0,0,0,0,-1,1252,1254,0,0
35,-230,0,0,0,0,0,0,0,0,0,-1,1259,1254,0,0
42,-230,0,0,0,0,0,0,0,0,0,-1,1266,1254,0,0
49,-230,0,0,0,0,0,0,0,0,0,-1,1273,1254,0,0
56,-230,0,0,0,0,0,0,0,0,0,-1,1280,1254,0,0
63,-230,0,0,0,0,0,0,0,0,0,-1,1287,1254,0,0
70,-230,0,0,0,0,0,0,0,0,0,-1,1294,1254,0,0
77,-230,0,0,0,0,0,0,0,0,0,-1,1301,1254,0,0
84,-230,0,0,0,0,0,0,0,0,0,-1,1308,1254,0,0
91,-230,0,0,0,0,0,0,0,0,0,-1,1315,1254,0,0
98,-230,0,0,0,0,0,0,0,0,0,-1,1322,1254,0,0
105,-230,0,0,0,0,0,0,0,0,0,-1,1329,1254,0,0
112,-230,0,0,0,0,0,0,0,0,0,-1,1336,1254,0,0
119,-230,0,0,0,0,0,0,0,0,0,-1,1343,1254,0,0
126,-230,0,0,0,0,0,0,0,0,0,-1,1350,1254,0,0
133,-230,0,0,0,0,0,0,0,0,0,-1,1357,1254,0,0
140,-230,0,0,0,0,0,0,0,0,0,-1,1364,1254,0,0
147,-230,0,0,0,0,0,0,0,0,0,-1,1371,1254,0,0
154,-230,0,0,0,0,0,0,0,0,0,-1,1378,1254,0,0
161,-230,0,0,0,0,0,0,0,0,0,-1,1385,1254,0,0
168,-230,0,0,0,0,0,0,0,0,0,-1,1392,1254,0,0
175,-230,0,0,0,0,0,0,0,0,0,-1,1399,1254,0,0
182,-230,0,0,0,0,0,0,0,0,0,-1,1406,1254,0,0
189,-230,0,0,0,0,0,0,0,0,0,-1,1413,1254,0,0
196,-230,0,0,0,0,0,0,0,0,0,-1,1420,1254,0,0
203,-230,0,0,0,0,0,0,0,0,0,-1,1427,1254,0,0
210,-230,0,0,0,0,0,0,0,0,0,-1,1434,1254,0,0
217,-230,0,0,0,0,0,0,0,0,0,-1,1441,1254,0,0
224,-230,0,0,0,0,0,0,0,0,0,-1,1448,1254,0,0
231,-230,0,0,0,0,0,0,0,0,0,-1,1455,1254,0,0
238,-230,0,0,0,0,0,0,0,0,0,-1,1462,1254,0,0
245,-230,0,0,0,0,0,0,0,0,0,-1,1469,1254,0,0
252,-230,0,0,0,0,0,0,0,0,0,-1,1476,1254,0,0
259,-230,0,0,0,0,0,0,0,0,0,-1,1483,1254,0,0
266,-230,0,0,0,0,0,0,0,0,0,-1,1490,1254,0,0
273,-230,0,0,0,0,0,0,0,0,0,-1,1497,1254,0,0
280,-230,0,0,0,0,0,0,0,0,0,-1,1504,1254,0,0
287,-230,0,0,0,0,0,0,0,0,0,-1,1511,1254,0,0
294,-230,0,0,0,0,0,0,0,0,0,-1,1518,1254,0,0
301,-230,0,0,0,0,0,0,0,0,0,-1,1525,1254,0,0
308,-230,0,0,0,0,0,0,0,0,0,-1,1532,1254,0,0
315,-230,0,0,0,0,0,0,0,0,0,-1,1539,1254,0,0
322,-230,0,0,0,0,0,0,0,0,0,-1,1546,1254,0,0
329,-230,0,0,0,0,0,0,0,0,0,-1,1553,1254,0,0
336,-230,0,0,0,0,0,0,0,0,0,-1,1560,1254,0,0
343,-230,0,0,0,0,0,0,0,0,0,-1,1567,1254,0,0
350,-230,0,0,0,0,0,0,0,0,0,-1,1574,1254,0,0
357,-230,0,0,0,0,0,0,0,0,0,-1,1581,1254,0,0
364,-230,0,0,0,0,0,0,0,0,0,-1,1588,1254,0,0
371,-230,0,0,0,0,0,0,0,0,0,-1,1595,1254,0,0
378,-230,0,0,0,0,0,0,0,0,0,-1,1602,1254,0,0
385,-230,0,0,0,0,0,0,0,0,0,-1,1609,1254,0,0
392,-230,0,0,0,0,0,0,0,0,0,-1,1616,1254,0,0
399,-230,0,0,0,0,0,0,0,0,0,-1,1623,1254,0,0
406,-230,0,0,0,0,0,0,0,0,0,-1,1630,1254,0,0
413,-230,0,0,0,0,0,0,0,0,0,-1,1637,1254,0,0
420,-230,0,0,0,0,0,0,0,0,0,-1,1644,1254,0,0
427,-230,0,0,0,0,0,0,0,0,0,-1,1651,1254,0,0
434,-230,0,0,0,0,0,0,0,0,0,-1,1658,1254,0,0
441,-230,0,0,0,0,0,0,0,0,0,-1,1665,1254,0,0
448,-230,0,0,0,0,0,0,0,0,0,-1,1672,1254,0,0
455,-230,0,0,0,0,0,0,0,0,0,-1,1679,1254,0,0
462,-230,0,0,0,0,0,0,0,0,0,-1,1686,1254,0,0
469,-230,0,0,0,0,0,0,0,0,0,-1,1693,1254,0,0
476,-230,0,0,0,0,0,0,0,0,0,-1,1700,1254,0,0
483,-230,0,0,0,0,0,0,0,0,0,-1,1707,1254,0,0
490,-230,0,0,0,0,0,0,0,0,0,-1,1714,1254,0,0
497,-230,0,0,0,0,0,0,0,0,0,-1,1721,1254,0,0
504,-230,0,0,0,0,0,0,0,0,0,-1,1728,1254,0,0
511,-230,0,0,0,0,0,0,0,0,0,-1,1735,1254,0,0
518,-230,0,0,0,0,0,0,0,0,0,-1,1742,1254,0,0
525,-230,0,0,0,0,0,0,0,0,0,-1,1749,1254,0,0
532,-230,0,0,0,0,0,0,0,0,0,-1,1756,1254,0,0
539,-230,0,0,0,0,0,0,0,0,0,-1,1763,1254,0,0
546,-230,0,0,0,0,0,0,0,0,0,-1,1770,1254,0,0
553,-230,0,0,0,0,0,0,0,0,0,-1,1777,1254,0,0
560,-230,0,0,0,0,0,0,0,0,0,-1,1784,1254,0,0
567,-230,0,0,0,0,0,0,0,0,0,-1,1791,1254,0,0
574,-230,0,0,0,0,0,0,0,0,0,-1,1798,1254,0,0
581,-230,0,0,0,0,0,0,0,0,0,-1,1805,1254,0,0
588,-230,0,0,0,0,0,0,0,0,0,-1,1812,1254,0,0
595,-230,0,0,0,0,0,0,0,0,0,-1,1819,1254,0,0
602,-230,0,0,0,0,0,0,0,0,0,-1,1826,1254,0,0
609,-230,0,0,0,0,0,0,0,0,0,-1,1833,1254,0,0
616,-230,43.998,2.60388,0.000851072,-0.00216502,-0.00172243,0.00163234,-0.00294629,-0.425832,0.00267951,0.0365337,1840,1254,43.9981,-2.60394
623,-230,43.9462,2.72876,-0.000199017,-0.000829816,-0.000787349,0.000333755,-0.00136259,-0.594893,0.00103769,0.036602,1847,1254,43.9462,-2.7288
630,-230,43.916,2.75061,-0.00187238,0.000173054,0.000501563,0.000289423,-0.00198874,1.34282,0.00143209,0.0320409,1854,1254,43.916,-2.75058
637,-230,43.8844,2.66113,-0.00354228,0.00115981,0.00183688,0.00179231,-0.00417478,1.23918,0.00353545,0.0263025,1861,1254,43.8844,-2.66108
644,-230,43.8784,2.578,-0.00390345,0.00141791,0.00252753,0.00242706,-0.0049126,1.19093,0.00431779,0.0207923,1868,1254,43.8785,-2.57794
651,-230,43.855,2.54395,-0.00330585,0.00134006,0.00235033,0.00232167,-0.00428746,1.17517,0.00387164,0.0447736,1875,1254,43.8549,-2.5439
658,-230,43.8428,2.52295,0,0,0,0,0,0,0,-1,1882,1254,43.8428,-2.52293
665,-230,44.1044,2.69873,0,0,0,0,0,0,0,-1,1889,1254,44.1044,-2.69871
672,-230,43.0962,2.78699,0,0,0,0,0,0,0,-1,1896,1254,43.0962,-2.78698
679,-230,27.9967,2.37708,0,0,0,0,0,0,0,-1,1903,1254,27.9967,-2.3771
686,-230,34.3641,8.84509,0,0,0,0,0,0,0,-1,1910,1254,34.3641,-8.84505
693,-230,34.4301,8.62988,-0.000150592,0.000183668,0.00152937,0.00155501,-0.00152193,0.839822,0.00177651,0.0443711,1917,1254,34.4301,-8.62991
700,-230,34.5103,8.33008,0.000207526,-0.00086797,0.00119422,0.000979483,-0.00163993,0.573849,0.00152826,0.0157849,1924,1254,34.5102,-8.33013
707,-230,34.4696,7.92749,0.000397701,-0.00107566,0.00123473,0.00109882,-0.00177677,0.516429,0.00167553,0.0107018,1931,1254,34.4696,-7.92749
714,-230,34.4518,7.52209,0.000410067,-0.00118072,0.00114299,0.00100718,-0.00177784,0.481418,0.00162832,0.0134222,1938,1254,34.4517,-7.52208
721,-230,34.4607,7.11658,0.000734893,-0.000852796,0.00157136,0.00170154,-0.00181945,0.5515,0.00203323,0.0134938,1945,1254,34.4607,-7.11657
728,-230,34.4298,6.75378,0.000992518,-0.000396533,0.00193928,0.00235789,-0.00176191,0.613446,0.00238685,0.0149467,1952,1254,34.4298,-6.75381
735,-230,34.4199,6.39026,0.0013906,0.000110045,0.00251753,0.003348,-0.00184736,0.660875,0.00304096,0.0151928,1959,1254,34.42,-6.39021
742,-230,34.4003,5.98083,0.00229981,0.000680997,0.00316355,0.00475586,-0.00177505,0.660158,0.00389933,0.0109871,1966,1254,34.4003,-5.98078
749,-230,34.3951,5.54907,0.00388183,0.00129496,0.00395723,0.00675165,-0.00157486,0.627445,0.00510763,0.0110845,1973,1254,34.3952,-5.54906
756,-230,34.3979,5.16553,0.00658871,0.00203246,0.00475729,0.00958521,-0.000964038,0.562097,0.00673453,0.017066,1980,1254,34.398,-5.16549
763,-230,34.4512,4.69214,0.0107309,0.00279975,0.00579991,0.0137913,-0.000260686,0.485538,0.00928231,0.0336818,1987,1254,34.4511,-4.6921
770,-230,34.7034,4.69177,0.016455,0.00358585,0.0075014,0.0199035,0.000137368,0.430901,0.0132234,0.0467897,1994,1254,34.7033,-4.69179
777,-230,35.0182,4.67529,0,0,0,0,0,0,0,-1,2001,1254,35.0182,-4.67525
784,-230,35.8896,1.80334,0,0,0,0,0,0,0,-1,2008,1254,35.8897,-1.80338
791,-230,35.6028,2.20642,0,0,0,0,0,0,0,-1,2015,1254,35.6027,-2.2064
798,-230,0,0,0,0,0,0,0,0,0,-1,2022,1254,0,0
805,-230,0,0,0,0,0,0,0,0,0,-1,2029,1254,0,0
812,-230,0,0,0,0,0,0,0,0,0,-1,2036,1254,0,0
-700,-237,0,0,0,0,0,0,0,0,0,-1,524,1261,0,0
-693,-237,0,0,0,0,0,0,0,0,0,-1,531,1261,0,0
-686,-237,0,0,0,0,0,0,0,0,0,-1,538,1261,0,0
-679,-237,0,0,0,0,0,0,0,0,0,-1,545,1261,0,0
-672,-237,-35.8743,2.56006,0,0,0,0,0,0,0,-1,552,1261,-35.8742,-2.56004
-665,-237,-39.7905,-0.0915527,0,0,0,0,0,0,0,-1,559,1261,-39.7904,0.0915105
-658,-237,-38.6876,0.333374,0,0,0,0,0,0,0,-1,566,1261,-38.6876,-0.333364
-651,-237,-37.2526,1.15991,0,0,0,0,0,0,0,-1,573,1261,-37.2526,-1.15996
-644,-237,-22.7836,6.22681,0,0,0,0,0,0,0,-1,580,1261,-22.7836,-6.22677
-637,-237,-21.0663,0.921509,0,0,0,0,0,0,0,-1,587,1261,-21.0663,-0.921479
-630,-237,-21.2017,1.67627,-0.00371654,0.0120627,0.0143349,0.0205358,-0.0121896,1.03697,0.0190977,0.0485122,594,1261,-21.2017,-1.67631
-623,-237,-21.3019,2.45752,-0.00197116,0.0102474,0.0120509,0.0176492,-0.00937292,1.02,0.0158432,0.0293998,601,1261,-21.3019,-2.45754
-616,-237,-21.3619,2.948,-0.000405705,0.00826946,0.00935366,0.0142423,-0.00637858,1.00251,0.0121906,0.013442,608,1261,-21.3619,-2.948
-609,-237,-21.3958,3.39905,0.000680632,0.00636194,0.00685415,0.0109408,-0.00389819,0.981846,0.00888308,0.0163221,615,1261,-21.3958,-3.39909
-602,-237,-21.3776,3.86304,0.00166244,0.00452426,0.00486718,0.00816651,-0.00197981,0.928366,0.00621037,0.0122768,622,1261,-21.3775,-3.86308
-595,-237,-21.438,4.27722,0.00281032,0.00315791,0.00331435,0.00630303,-0.000334789,0.811593,0.00431794,0.0158607,629,1261,-21.4381,-4.27725
-588,-237,-21.4441,4.69324,0.00386601,0.00245224,0.00261176,0.00586486,0.000453401,0.653237,0.00376787,0.0280588,636,1261,-21.4441,-4.69322
-581,-237,-21.4574,5.19861,0.00449888,0.00244693,0.00255572,0.00622687,0.000718941,0.594523,0.00393356,0.0260441,643,1261,-21.4574,-5.19866
-574,-237,-21.4644,5.64331,0.00488134,0.0028311,0.00266438,0.00671101,0.00100144,0.601752,0.00418037,0.0155392,650,1261,-21.4644,-5.64332
-567,-237,-21.4134,6.12512,0.00518632,0.00390622,0.00276656,0.0073859,0.00170664,0.671723,0.00446513,0.023158,657,1261,-21.4134,-6.12511
-560,-237,-21.0486,6.64124,0.0045696,0.00415099,0.00260197,0.00697067,0.00174992,0.745264,0.00418751,0.0494675,664,1261,-21.0486,-6.64127
-553,-237,-20.6102,6.92139,0,0,0,0,0,0,0,-1,671,1261,-20.6102,-6.92138
-546,-237,-11.192,1.14014,0,0,0,0,0,0,0,-1,678,1261,-11.192,-1.14011
-539,-237,-16.512,1.53455,0,0,0,0,0,0,0,-1,685,1261,-16.512,-1.53457
-532,-237,-29.7025,1.23621,0,0,0,0,0,0,0,-1,692,1261,-29.7025,-1.23618
-525,-237,-29.9117,0.259521,0,0,0,0,0,0,0,-1,699,1261,-29.9117,-0.259478
-518,-237,-31.7186,0.726685,0,0,0,0,0,0,0,-1,706,1261,-31.7186,-0.726652
-511,-237,-31.9614,0.841064,-0.00428456,8.81324e-05,0.000478168,0.000139811,-0.00433624,1.46314,0.00293854,0.0456128,713,1261,-31.9614,-0.841097
-504,-237,-32.0587,0.713623,-0.00522281,-0.00216708,0.00124619,-0.00172331,-0.00566658,1.22869,0.00335425,0.0426729,720,1261,-32.0586,-0.713605
-497,-237,-32.0436,0.803955,-0.00479201,-0.00458723,0.00348283,-0.00120528,-0.00817395,0.800093,0.00509528,0.0443319,727,1261,-32.0436,-0.80393
-490,-237,0,0,0,0,0,0,0,0,0,-1,734,1261,0,0
-483,-237,0,0,0,0,0,0,0,0,0,-1,741,1261,0,0
-476,-237,0,0,0,0,0,0,0,0,0,-1,748,1261,0,0
-469,-237,0,0,0,0,0,0,0,0,0,-1,755,1261,0,0
-462,-237,0,0,0,0,0,0,0,0,0,-1,762,1261,0,0
-455,-237,0,0,0,0,0,0,0,0,0,-1,769,1261,0,0
-448,-237,0,0,0,0,0,0,0,0,0,-1,776,1261,0,0
-441,-237,0,0,0,0,0,0,0,0,0,-1,783,1261,0,0
-434,-237,0,0,0,0,0,0,0,0,0,-1,790,1261,0,0
-427,-237,0,0,0,0,0,0,0,0,0,-1,797,1261,0,0
-420,-237,0,0,0,0,0,0,0,0,0,-1,804,1261,0,0
-413,-237,0,0,0,0,0,0,0,0,0,-1,811,1261,0,0
-406,-237,0,0,0,0,0,0,0,0,0,-1,818,1261,0,0
-399,-237,0,0,0,0,0,0,0,0,0,-1,825,1261,0,0
-392,-237,0,0,0,0,0,0,0,0,0,-1,832,1261,0,0
-385,-237,0,0,0,0,0,0,0,0,0,-1,839,1261,0,0
-378,-237,0,0,0,0,0,0,0,0,0,-1,846,1261,0,0
-371,-237,0,0,0,0,0,0,0,0,0,-1,853,1261,0,0
-364,-237,0,0,0,0,0,0,0,0,0,-1,860,1261,0,0
-357,-237,0,0,0,0,0,0,0,0,0,-1,867,1261,0,0
-350,-237,0,0,0,0,0,0,0,0,0,-1,874,1261,0,0
-343,-237,0,0,0,0,0,0,0,0,0,-1,881,1261,0,0
-336,-237,0,0,0,0,0,0,0,0,0,-1,888,1261,0,0
-329,-237,0,0,0,0,0,0,0,0,0,-1,895,1261,0,0
-322,-237,0,0,0,0,0,0,0,0,0,-1,902,1261,0,0
-315,-237,0,0,0,0,0,0,0,0,0,-1,909,1261,0,0
-308,-237,0,0,0,0,0,0,0,0,0,-1,916,1261,0,0
-301,-237,0,0,0,0,0,0,0,0,0,-1,923,1261,0,0
-294,-237,0,0,0,0,0,0,0,0,0,-1,930,1261,0,0
-287,-237,0,0,0,0,0,0,0,0,0,-1,937,1261,0,0
-280,-237,0,0,0,0,0,0,0,0,0,-1,944,1261,0,0
-273,-237,0,0,0,0,0,0,0,0,0,-1,951,1261,0,0
-266,-237,0,0,0,0,0,0,0,0,0,-1,958,1261,0,0
-259,-237,0,0,0,0,0,0,0,0,0,-1,965,1261,0,0
-252,-237,0,0,0,0,0,0,0,0,0,-1,972,1261,0,0
-245,-237,0,0,0,0,0,0,0,0,0,-1,979,1261,0,0
-238,-237,0,0,0,0,0,0,0,0,0,-1,986,1261,0,0
-231,-237,0,0,0,0,0,0,0,0,0,-1,993,1261,0,0
-224,-237,0,0,0,0,0,0,0,0,0,-1,1000,1261,0,0
-217,-237,0,0,0,0,0,0,0,0,0,-1,1007,1261,0,0
-210,-237,0,0,0,0,0,0,0,0,0,-1,1014,1261,0,0
-203,-237,0,0,0,0,0,0,0,0,0,-1,1021,1261,0,0
-196,-237,0,0,0,0,0,0,0,0,0,-1,1028,1261,0,0
-189,-237,0,0,0,0,0,0,0,0,0,-1,1035,1261,0,0
-182,-237,0,0,0,0,0,0,0,0,0,-1,1042,1261,0,0
-175,-237,0,0,0,0,0,0,0,0,0,-1,1049,1261,0,0
-168,-237,0,0,0,0,0,0,0,0,0,-1,1056,1261,0,0
-161,-237,0,0,0,0,0,0,0,0,0,-1,1063,1261,0,0
-154,-237,0,0,0,0,0,0,0,0,0,-1,1070,1261,0,0
-147,-237,0,0,0,0,0,0,0,0,0,-1,1077,1261,0,0
-140,-237,0,0,0,0,0,0,0,0,0,-1,1084,1261,0,0
-133,-237,0,0,0,0,0,0,0,0,0,-1,1091,1261,0,0
-126,-237,0,0,0,0,0,0,0,0,0,-1,1098,1261,0,0
-119,-237,0,0,0,0,0,0,0,0,0,-1,1105,1261,0,0
-112,-237,0,0,0,0,0,0,0,0,0,-1,1112,1261,0,0
-105,-237,0,0,0,0,0,0,0,0,0,-1,1119,1261,0,0
-98,-237,0,0,0,0,0,0,0,0,0,-1,1126,1261,0,0
-91,-237,0,0,0,0,0,0,0,0,0,-1,1133,1261,0,0
-84,-237,0,0,0,0,0,0,0,0,0,-1,1140,1261,0,0
-77,-237,0,0,0,0,0,0,0,0,0,-1,1147,1261,0,0
-70,-237,0,0,0,0,0,0,0,0,0,-1,1154,1261,0,0
-63,-237,0,0,0,0,0,0,0,0,0,-1,1161,1261,0,0
-56,-237,0,0,0,0,0,0,0,0,0,-1,1168,1261,0,0
-49,-237,0,0,0,0,0,0,0,0,0,-1,1175,1261,0,0
-42,-237,0,0,0,0,0,0,0,0,0,-1,1182,1261,0,0
-35,-237,0,0,0,0,0,0,0,0,0,-1,1189,1261,0,0
-28,-237,0,0,0,0,0,0,0,0,0,-1,1196,1261,0,0
-21,-237,0,0,0,0,0,0,0,0,0,-1,1203,1261,0,0
-14,-237,0,0,0,0,0,0,0,0,0,-1,1210,1261,0,0
-7,-237,0,0,0,0,0,0,0,0,0,-1,1217,1261,0,0
0,-237,0,0,0,0,0,0,0,0,0,-1,1224,1261,0,0
7,-237,0,0,0,0,0,0,0,0,0,-1,1231,1261,0,0
14,-237,0,0,0,0,0,0,0,0,0,-1,1238,1261,0,0
21,-237,0,0,0,0,0,0,0,0,0,-1,1245,1261,0,0
28,-237,0,0,0,0,0,0,0,0,0,-1,1252,1261,0,0
35,-237,0,0,0,0,0,0,0,0,0,-1,1259,1261,0,0
42,-237,0,0,0,0,0,0,0,0,0,-1,1266,1261,0,0
49,-237,0,0,0,0,0,0,0,0,0,-1,1273,1261,0,0
56,-237,0,0,0,0,0,0,0,0,0,-1,1280,1261,0,0
63,-237,0,0,0,0,0,0,0,0,0,-1,1287,1261,0,0
70,-237,0,0,0,0,0,0,0,0,0,-1,1294,1261,0,0
77,-237,0,0,0,0,0,0,0,0,0,-1,1301,1261,0,0
84,-237,0,0,0,0,0,0,0,0,0,-1,1308,1261,0,0
91,-237,0,0,0,0,0,0,0,0,0,-1,1315,1261,0,0
98,-237,0,0,0,0,0,0,0,0,0,-1,1322,1261,0,0
105,-237,0,0,0,0,0,0,0,0,0,-1,1329,1261,0,0
112,-237,0,0,0,0,0,0,0,0,0,-1,1336,1261,0,0
119,-237,0,0,0,0,0,0,0,0,0,-1,1343,1261,0,0
126,-237,0,0,0,0,0,0,0,0,0,-1,1350,1261,0,0
133,-237,0,0,0,0,0,0,0,0,0,-1,1357,1261,0,0
140,-237,0,0,0,0,0,0,0,0,0,-1,1364,1261,0,0
147,-237,0,0,0,0,0,0,0,0,0,-1,1371,1261,0,0
154,-237,0,0,0,0,0,0,0,0,0,-1,1378,1261,0,0
161,-237,0,0,0,0,0,0,0,0,0,-1,1385,1261,0,0
168,-237,0,0,0,0,0,0,0,0,0,-1,1392,1261,0,0
175,-237,0,0,0,0,0,0,0,0,0,-1,1399,1261,0,0
182,-237,0,0,0,0,0,0,0,0,0,-1,1406,1261,0,0
189,-237,0,0,0,0,0,0,0,0,0,-1,1413,1261,0,0
196,-237,0,0,0,0,0,0,0,0,0,-1,1420,1261,0,0
203,-237,0,0,0,0,0,0,0,0,0,-1,1427,1261,0,0
210,-237,0,0,0,0,0,0,0,0,0,-1,1434,1261,0,0
217,-237,0,0,0,0,0,0,0,0,0,-1,1441,1261,0,0
224,-237,0,0,0,0,0,0,0,0,0,-1,1448,1261,0,0
231,-237,0,0,0,0,0,0,0,0,0,-1,1455,1261,0,0
238,-237,0,0,0,0,0,0,0,0,0,-1,1462,1261,0,0
245,-237,0,0,0,0,0,0,0,0,0,-1,1469,1261,0,0
252,-237,0,0,0,0,0,0,0,0,0,-1,1476,1261,0,0
259,-237,0,0,0,0,0,0,0,0,0,-1,1483,1261,0,0
266,-237,0,0,0,0,0,0,0,0,0,-1,1490,1261,0,0
273,-237,0,0,0,0,0,0,0,0,0,-1,1497,1261,0,0
280,-237,0,0,0,0,0,0,0,0,0,-1,1504,1261,0,0
287,-237,0,0,0,0,0,0,0,0,0,-1,1511,1261,0,0
294,-237,0,0,0,0,0,0,0,0,0,-1,1518,1261,0,0
301,-237,0,0,0,0,0,0,0,0,0,-1,1525,1261,0,0
308,-237,0,0,0,0,0,0,0,0,0,-1,1532,1261,0,0
315,-237,0,0,0,0,0,0,0,0,0,-1,1539,1261,0,0
322,-237,0,0,0,0,0,0,0,0,0,-1,1546,1261,0,0
329,-237,0,0,0,0,0,0,0,0,0,-1,1553,1261,0,0
336,-237,0,0,0,0,0,0,0,0,0,-1,1560,1261,0,0
343,-237,0,0,0,0,0,0,0,0,0,-1,1567,1261,0,0
350,-237,0,0,0,0,0,0,0,0,0,-1,1574,1261,0,0
357,-237,0,0,0,0,0,0,0,0,0,-1,1581,1261,0,0
364,-237,0,0,0,0,0,0,0,0,0,-1,1588,1261,0,0
371,-237,0,0,0,0,0,0,0,0,0,-1,1595,1261,0,0
378,-237,0,0,0,0,0,0,0,0,0,-1,1602,1261,0,0
385,-237,0,0,0,0,0,0,0,0,0,-1,1609,1261,0,0
392,-237,0,0,0,0,0,0,0,0,0,-1,1616,1261,0,0
399,-237,0,0,0,0,0,0,0,0,0,-1,1623,1261,0,0
406,-237,0,0,0,0,0,0,0,0,0,-1,1630,1261,0,0
413,-237,0,0,0,0,0,0,0,0,0,-1,1637,1261,0,0
420,-237,0,0,0,0,0,0,0,0,0,-1,1644,1261,0,0
427,-237,0,0,0,0,0,0,0,0,0,-1,1651,1261,0,0
434,-237,0,0,0,0,0,0,0,0,0,-1,1658,1261,0,0
441,-237,0,0,0,0,0,0,0,0,0,-1,1665,1261,0,0
448,-237,0,0,0,0,0,0,0,0,0,-1,1672,1261,0,0
455,-237,0,0,0,0,0,0,0,0,0,-1,1679,1261,0,0
462,-237,0,0,0,0,0,0,0,0,0,-1,1686,1261,0,0
469,-237,0,0,0,0,0,0,0,0,0,-1,1693,1261,0,0
476,-237,0,0,0,0,0,0,0,0,0,-1,1700,1261,0,0
483,-237,0,0,0,0,0,0,0,0,0,-1,1707,1261,0,0
490,-237,0,0,0,0,0,0,0,0,0,-1,1714,1261,0,0
497,-237,0,0,0,0,0,0,0,0,0,-1,1721,1261,0,0
504,-237,0,0,0,0,0,0,0,0,0,-1,1728,1261,0,0
511,-237,0,0,0,0,0,0,0,0,0,-1,1735,1261,0,0
518,-237,0,0,0,0,0,0,0,0,0,-1,1742,1261,0,0
525,-237,0,0,0,0,0,0,0,0,0,-1,1749,1261,0,0
532,-237,0,0,0,0,0,0,0,0,0,-1,1756,1261,0,0
539,-237,0,0,0,0,0,0,0,0,0,-1,1763,1261,0,0
546,-237,0,0,0,0,0,0,0,0,0,-1,1770,1261,0,0
553,-237,0,0,0,0,0,0,0,0,0,-1,1777,1261,0,0
560,-237,0,0,0,0,0,0,0,0,0,-1,1784,1261,0,0
567,-237,0,0,0,0,0,0,0,0,0,-1,1791,1261,0,0
574,-237,0,0,0,0,0,0,0,0,0,-1,1798,1261,0,0
581,-237,0,0,0,0,0,0,0,0,0,-1,1805,1261,0,0
588,-237,0,0,0,0,0,0,0,0,0,-1,1812,1261,0,0
595,-237,0,0,0,0,0,0,0,0,0,-1,1819,1261,0,0
602,-237,0,0,0,0,0,0,0,0,0,-1,1826,1261,0,0
609,-237,0,0,0,0,0,0,0,0,0,-1,1833,1261,0,0
616,-237,43.9918,2.56726,-0.000559096,0.00109632,-0.00231941,0.00273129,-0.00219406,-0.956786,0.00284928,0.0390596,1840,1261,43.9918,-2.56724
623,-237,44.0009,2.62354,-0.00211067,0.00165337,-0.00015929,0.0016601,-0.0021174,-1.52858,0.00218626,0.0340506,1847,1261,44.0008,-2.62348
630,-237,43.955,2.6449,-0.00412968,0.00218658,0.00204897,0.00279303,-0.00473613,1.28303,0.00439495,0.0251465,1854,1261,43.9549,-2.64488
637,-237,43.8854,2.61108,-0.00554303,0.00265437,0.00365341,0.00404628,-0.00693494,1.20679,0.00641271,0.0201625,1861,1261,43.8853,-2.61111
644,-237,43.8489,2.55078,-0.00521651,0.00240486,0.00395778,0.00408829,-0.00689995,1.16863,0.00641292,0.0392222,1868,1261,43.8489,-2.55072
651,-237,43.8219,2.56152,0,0,0,0,0,0,0,-1,1875,1261,43.8218,-2.56149
658,-237,44.1733,3.74915,-0.0033108,0.00154697,0.00307511,0.00303673,-0.00480056,1.11966,0.0045629,0.0463915,1882,1261,44.1734,-3.74916
665,-237,44.104,4.79102,0,0,0,0,0,0,0,-1,1889,1261,44.104,-4.79105
672,-237,44.1165,5.77795,0,0,0,0,0,0,0,-1,1896,1261,44.1164,-5.778
679,-237,23.1501,7.37488,0,0,0,0,0,0,0,-1,1903,1261,23.1502,-7.37493
686,-237,33.8419,9.15723,0,0,0,0,0,0,0,-1,1910,1261,33.8419,-9.15726
693,-237,33.918,8.7312,-1.61302e-05,0.000647287,0.00158164,0.00193163,-0.00130047,0.888762,0.00187787,0.0486445,1917,1261,33.918,-8.73119
700,-237,34.0599,8.35266,0.000458727,-0.000635067,0.00106885,0.00111247,-0.00128881,0.548929,0.00138763,0.0125379,1924,1261,34.0599,-8.35261
707,-237,34.0608,7.94922,0.000659969,-0.000820169,0.00105087,0.00120522,-0.00136542,0.478615,0.00148511,0.0106279,1931,1261,34.0608,-7.94925
714,-237,34.0497,7.53833,0.000637172,-0.000869996,0.000929278,0.00108002,-0.00131284,0.444712,0.0013837,0.0148358,1938,1261,34.0497,-7.53839
721,-237,34.016,7.13574,0.000887257,-0.000517717,0.00138819,0.00174059,-0.00137105,0.551163,0.00180072,0.0165066,1945,1261,34.016,-7.13578
728,-237,34.0371,6.74231,0.0010372,-9.1561e-05,0.00184521,0.00240241,-0.00145677,0.636985,0.00225029,0.0150656,1952,1261,34.0372,-6.7423
735,-237,34.0386,6.35034,0.00131159,0.000363902,0.00251693,0.00339889,-0.0017234,0.692356,0.00300963,0.0199559,1959,1261,34.0385,-6.35038
742,-237,34.0121,5.97083,0.00209206,0.000892203,0.00325253,0.00479953,-0.00181526,0.694198,0.00394648,0.0153616,1966,1261,34.0121,-5.97078
749,-237,33.9607,5.60425,0.00358922,0.001485,0.00416166,0.0068297,-0.00175548,0.661587,0.0052373,0.0107659,1973,1261,33.9607,-5.60421
756,-237,33.9174,5.21399,0.00628089,0.00226039,0.00505758,0.00971308,-0.0011718,0.596235,0.00689924,0.0175129,1980,1261,33.9173,-5.21398
763,-237,33.9099,4.85559,0,0,0,0,0,0,0,-1,1987,1261,33.91,-4.85564
770,-237,34.2908,4.71606,0,0,0,0,0,0,0,-1,1994,1261,34.2908,-4.71601
777,-237,34.6716,4.57642,0,0,0,0,0,0,0,-1,2001,1261,34.6716,-4.57637
784,-237,36.3441,1.68591,0,0,0,0,0,0,0,-1,2008,1261,36.3441,-1.68592
791,-237,32.3025,6.03235,0,0,0,0,0,0,0,-1,2015,1261,32.3025,-6.03229
798,-237,0,0,0,0,0,0,0,0,0,-1,2022,1261,0,0
805,-237,0,0,0,0,0,0,0,0,0,-1,2029,1261,0,0
812,-237,0,0,0,0,0,0,0,0,0,-1,2036,1261,0,0
-700,-244,0,0,0,0,0,0,0,0,0,-1,524,1268,0,0
-693,-244,0,0,0,0,0,0,0,0,0,-1,531,1268,0,0
-686,-244,0,0,0,0,0,0,0,0,0,-1,538,1268,0,0
-679,-244,0,0,0,0,0,0,0,0,0,-1,545,1268,0,0
-672,-244,-20.2578,2.98242,0,0,0,0,0,0,0,-1,552,1268,-20.2577,-2.98243
-665,-244,-23.669,1.3938,0,0,0,0,0,0,0,-1,559,1268,-23.669,-1.39374
-658,-244,-23.6096,2.91895,0,0,0,0,0,0,0,-1,566,1268,-23.6096,-2.91896
-651,-244,-23.5394,4.41724,0,0,0,0,0,0,0,-1,573,1268,-23.5394,-4.41721
-644,-244,-20.4261,0.428345,0,0,0,0,0,0,0,-1,580,1268,-20.4261,-0.428352
-637,-244,-20.7246,0.899292,0,0,0,0,0,0,0,-1,587,1268,-20.7246,-0.899288
-630,-244,-20.9705,1.56897,-0.000897475,0.0158172,0.022469,0.0314327,-0.0165131,0.963445,0.0281247,0.0471274,594,1268,-20.9705,-1.56902
-623,-244,-21.1088,2.28796,-0.000205037,0.012153,0.0167814,0.0238569,-0.0119089,0.961799,0.0210299,0.0335006,601,1268,-21.1087,-2.28795
-616,-244,-20.9384,2.97913,0.000507206,0.009443,0.0123597,0.0181175,-0.00816733,0.958835,0.0155338,0.0165102,608,1268,-20.9383,-2.97918
-609,-244,-20.9464,3.41418,0.00102591,0.00705498,0.00872376,0.0132704,-0.00518948,0.951753,0.0109929,0.014713,615,1268,-20.9464,-3.41422
-602,-244,-20.976,3.87585,0.00167408,0.0049462,0.0060192,0.00954773,-0.00292745,0.918096,0.00753302,0.0149405,622,1268,-20.976,-3.87591
-595,-244,-21.0137,4.33862,0.0026115,0.00337456,0.00401426,0.00702538,-0.00103932,0.832778,0.00506569,0.0167309,629,1268,-21.0137,-4.3386
-588,-244,-20.9776,4.7843,0.00365041,0.00231063,0.00282961,0.00588835,7.26986e-05,0.669166,0.00390156,0.0217605,636,1268,-20.9776,-4.78425
-581,-244,-20.9813,5.24451,0.00451433,0.00210186,0.00255169,0.00613053,0.000485659,0.564605,0.00393513,0.0183322,643,1268,-20.9813,-5.24448
-574,-244,-21.0118,5.68896,0.00515829,0.00240863,0.00259563,0.00672071,0.000846208,0.541847,0.00422674,0.0125316,650,1268,-21.0118,-5.68895
-567,-244,-21.0009,6.14966,0.00561853,0.00339408,0.00269698,0.00742363,0.00158899,0.589824,0.00451364,0.0124711,657,1268,-21.0008,-6.14972
-560,-244,-20.8998,6.57239,0.00492175,0.00365792,0.00244455,0.00681474,0.00176494,0.658917,0.00408401,0.0342532,664,1268,-20.8998,-6.57244
-553,-244,-20.749,6.99756,0,0,0,0,0,0,0,-1,671,1268,-20.749,-6.99751
-546,-244,-11.2686,4.41772,0,0,0,0,0,0,0,-1,678,1268,-11.2686,-4.41767
-539,-244,-12.8706,0.3302,0,0,0,0,0,0,0,-1,685,1268,-12.8706,-0.330156
-532,-244,-18.1502,0.816528,0,0,0,0,0,0,0,-1,692,1268,-18.1502,-0.816514
-525,-244,-29.6356,-0.133789,0,0,0,0,0,0,0,-1,699,1268,-29.6356,0.133756
-518,-244,-29.9055,0.267944,0,0,0,0,0,0,0,-1,706,1268,-29.9055,-0.267898
-511,-244,-31.9884,1.02429,0,0,0,0,0,0,0,-1,713,1268,-31.9884,-1.02435
-504,-244,-31.9708,0.745483,0,0,0,0,0,0,0,-1,720,1268,-31.9708,-0.745424
-497,-244,-32.1738,1.03589,0,0,0,0,0,0,0,-1,727,1268,-32.1737,-1.03593
-490,-244,0,0,0,0,0,0,0,0,0,-1,734,1268,0,0
-483,-244,0,0,0,0,0,0,0,0,0,-1,741,1268,0,0
-476,-244,0,0,0,0,0,0,0,0,0,-1,748,1268,0,0
-469,-244,0,0,0,0,0,0,0,0,0,-1,755,1268,0,0
-462,-244,0,0,0,0,0,0,0,0,0,-1,762,1268,0,0
-455,-244,0,0,0,0,0,0,0,0,0,-1,769,1268,0,0
-448,-244,0,0,0,0,0,0,0,0,0,-1,776,1268,0,0
-441,-244,0,0,0,0,0,0,0,0,0,-1,783,1268,0,0
-434,-244,0,0,0,0,0,0,0,0,0,-1,790,1268,0,0
-427,-244,0,0,0,0,0,0,0,0,0,-1,797,1268,0,0
-420,-244,0,0,0,0,0,0,0,0,0,-1,804,1268,0,0
-413,-244,0,0,0,0,0,0,0,0,0,-1,811,1268,0,0
-406,-244,0,0,0,0,0,0,0,0,0,-1,818,1268,0,0
-399,-244,0,0,0,0,0,0,0,0,0,-1,825,1268,0,0
-392,-244,0,0,0,0,0,0,0,0,0,-1,832,1268,0,0
-385,-244,0,0,0,0,0,0,0,0,0,-1,839,1268,0,0
-378,-244,0,0,0,0,0,0,0,0,0,-1,846,1268,0,0
-371,-244,0,0,0,0,0,0,0,0,0,-1,853,1268,0,0
-364,-244,0,0,0,0,0,0,0,0,0,-1,860,1268,0,0
-357,-244,0,0,0,0,0,0,0,0,0,-1,867,1268,0,0
-350,-244,0,0,0,0,0,0,0,0,0,-1,874,1268,0,0
-343,-244,0,0,0,0,0,0,0,0,0,-1,881,1268,0,0
-336,-244,0,0,0,0,0,0,0,0,0,-1,888,1268,0,0
-329,-244,0,0,0,0,0,0,0,0,0,-1,895,1268,0,0
-322,-244,0,0,0,0,0,0,0,0,0,-1,902,1268,0,0
-315,-244,0,0,0,0,0,0,0,0,0,-1,909,1268,0,0
-308,-244,0,0,0,0,0,0,0,0,0,-1,916,1268,0,0
-301,-244,0,0,0,0,0,0,0,0,0,-1,923,1268,0,0
-294,-244,0,0,0,0,0,0,0,0,0,-1,930,1268,0,0
-287,-244,0,0,0,0,0,0,0,0,0,-1,937,1268,0,0
-280,-244,0,0,0,0,0,0,0,0,0,-1,944,1268,0,0
-273,-244,0,0,0,0,0,0,0,0,0,-1,951,1268,0,0
-266,-244,0,0,0,0,0,0,0,0,0,-1,958,1268,0,0
-259,-244,0,0,0,0,0,0,0,0,0,-1,965,1268,0,0
-252,-244,0,0,0,0,0,0,0,0,0,-1,972,1268,0,0
-245,-244,0,0,0,0,0,0,0,0,0,-1,979,1268,0,0
-238,-244,0,0,0,0,0,0,0,0,0,-1,986,1268,0,0
-231,-244,0,0,0,0,0,0,0,0,0,-1,993,1268,0,0
-224,-244,0,0,0,0,0,0,0,0,0,-1,1000,1268,0,0
-217,-244,0,0,0,0,0,0,0,0,0,-1,1007,1268,0,0
-210,-244,0,0,0,0,0,0,0,0,0,-1,1014,1268,0,0
-203,-244,0,0,0,0,0,0,0,0,0,-1,1021,1268,0,0
-196,-244,0,0,0,0,0,0,0,0,0,-1,1028,1268,0,0
-189,-244,0,0,0,0,0,0,0,0,0,-1,1035,1268,0,0
-182,-244,0,0,0,0,0,0,0,0,0,-1,1042,1268,0,0
-175,-244,0,0,0,0,0,0,0,0,0,-1,1049,1268,0,0
-168,-244,0,0,0,0,0,0,0,0,0,-1,1056,1268,0,0
-161,-244,0,0,0,0,0,0,0,0,0,-1,1063,1268,0,0
-154,-244,0,0,0,0,0,0,0,0,0,-1,1070,1268,0,0
-147,-244,0,0,0,0,0,0,0,0,0,-1,1077,1268,0,0
-140,-244,0,0,0,0,0,0,0,0,0,-1,1084,1268,0,0
-133,-244,0,0,0,0,0,0,0,0,0,-1,1091,1268,0,0
-126,-244,0,0,0,0,0,0,0,0,0,-1,1098,1268,0,0
-119,-244,0,0,0,0,0,0,0,0,0,-1,1105,1268,0,0
-112,-244,0,0,0,0,0,0,0,0,0,-1,1112,1268,0,0
-105,-244,0,0,0,0,0,0,0,0,0,-1,1119,1268,0,0
-98,-244,0,0,0,0,0,0,0,0,0,-1,1126,1268,0,0
-91,-244,0,0,0,0,0,0,0,0,0,-1,1133,1268,0,0
-84,-244,0,0,0,0,0,0,0,0,0,-1,1140,1268,0,0
-77,-244,0,0,0,0,0,0,0,0,0,-1,1147,1268,0,0
-70,-244,0,0,0,0,0,0,0,0,0,-1,1154,1268,0,0
-63,-244,0,0,0,0,0,0,0,0,0,-1,1161,1268,0,0
-56,-244,0,0,0,0,0,0,0,0,0,-1,1168,1268,0,0
-49,-244,0,0,0,0,0,0,0,0,0,-1,1175,1268,0,0
-42,-244,0,0,0,0,0,0,0,0,0,-1,1182,1268,0,0
-35,-244,0,0,0,0,0,0,0,0,0,-1,1189,1268,0,0
-28,-244,0,0,0,0,0,0,0,0,0,-1,1196,1268,0,0
-21,-244,0,0,0,0,0,0,0,0,0,-1,1203,1268,0,0
-14,-244,0,0,0,0,0,0,0,0,0,-1,1210,1268,0,0
-7,-244,0,0,0,0,0,0,0,0,0,-1,1217,1268,0,0
0,-244,0,0,0,0,0,0,0,0,0,-1,1224,1268,0,0
7,-244,0,0,0,0,0,0,0,0,0,-1,1231,1268,0,0
14,-244,0,0,0,0,0,0,0,0,0,-1,1238,1268,0,0
21,-244,0,0,0,0,0,0,0,0,0,-1,1245,1268,0,0
28,-244,0,0,0,0,0,0,0,0,0,-1,1252,1268,0,0
35,-244,0,0,0,0,0,0,0,0,0,-1,1259,1268,0,0
42,-244,0,0,0,0,0,0,0,0,0,-1,1266,1268,0,0
49,-244,0,0,0,0,0,0,0,0,0,-1,1273,1268,0,0
56,-244,0,0,0,0,0,0,0,0,0,-1,1280,1268,0,0
63,-244,0,0,0,0,0,0,0,0,0,-1,1287,1268,0,0
70,-244,0,0,0,0,0,0,0,0,0,-1,1294,1268,0,0
77,-244,0,0,0,0,0,0,0,0,0,-1,1301,1268,0,0
84,-244,0,0,0,0,0,0,0,0,0,-1,1308,1268,0,0
91,-244,0,0,0,0,0,0,0,0,0,-1,1315,1268,0,0
98,-244,0,0,0,0,0,0,0,0,0,-1,1322,1268,0,0
105,-244,0,0,0,0,0,0,0,0,0,-1,1329,1268,0,0
112,-244,0,0,0,0,0,0,0,0,0,-1,1336,1268,0,0
119,-244,0,0,0,0,0,0,0,0,0,-1,1343,1268,0,0
126,-244,0,0,0,0,0,0,0,0,0,-1,1350,1268,0,0
133,-244,0,0,0,0,0,0,0,0,0,-1,1357,1268,0,0
140,-244,0,0,0,0,0,0,0,0,0,-1,1364,1268,0,0
147,-244,0,0,0,0,0,0,0,0,0,-1,1371,1268,0,0
154,-244,0,0,0,0,0,0,0,0,0,-1,1378,1268,0,0
161,-244,0,0,0,0,0,0,0,0,0,-1,1385,1268,0,0
168,-244,0,0,0,0,0,0,0,0,0,-1,1392,1268,0,0
175,-244,0,0,0,0,0,0,0,0,0,-1,1399,1268,0,0
182,-244,0,0,0,0,0,0,0,0,0,-1,1406,1268,0,0
189,-244,0,0,0,0,0,0,0,0,0,-1,1413,1268,0,0
196,-244,0,0,0,0,0,0,0,0,0,-1,1420,1268,0,0
203,-244,0,0,0,0,0,0,0,0,0,-1,1427,1268,0,0
210,-244,0,0,0,0,0,0,0,0,0,-1,1434,1268,0,0
217,-244,0,0,0,0,0,0,0,0,0,-1,1441,1268,0,0
224,-244,0,0,0,0,0,0,0,0,0,-1,1448,1268,0,0
231,-244,0,0,0,0,0,0,0,0,0,-1,1455,1268,0,0
238,-244,0,0,0,0,0,0,0,0,0,-1,1462,1268,0,0
245,-244,0,0,0,0,0,0,0,0,0,-1,1469,1268,0,0
252,-244,0,0,0,0,0,0,0,0,0,-1,1476,1268,0,0
259,-244,0,0,0,0,0,0,0,0,0,-1,1483,1268,0,0
266,-244,0,0,0,0,0,0,0,0,0,-1,1490,1268,0,0
273,-244,0,0,0,0,0,0,0,0,0,-1,1497,1268,0,0
280,-244,0,0,0,0,0,0,0,0,0,-1,1504,1268,0,0
287,-244,0,0,0,0,0,0,0,0,0,-1,1511,1268,0,0
294,-244,0,0,0,0,0,0,0,0,0,-1,1518,1268,0,0
301,-244,0,0,0,0,0,0,0,0,0,-1,1525,1268,0,0
308,-244,0,0,0,0,0,0,0,0,0,-1,1532,1268,0,0
315,-244,0,0,0,0,0,0,0,0,0,-1,1539,1268,0,0
322,-244,0,0,0,0,0,0,0,0,0,-1,1546,1268,0,0
329,-244,0,0,0,0,0,0,0,0,0,-1,1553,1268,0,0
336,-244,0,0,0,0,0,0,0,0,0,-1,1560,1268,0,0
343,-244,0,0,0,0,0,0,0,0,0,-1,1567,1268,0,0
350,-244,0,0,0,0,0,0,0,0,0,-1,1574,1268,0,0
357,-244,0,0,0,0,0,0,0,0,0,-1,1581,1268,0,0
364,-244,0,0,0,0,0,0,0,0,0,-1,1588,1268,0,0
371,-244,0,0,0,0,0,0,0,0,0,-1,1595,1268,0,0
378,-244,0,0,0,0,0,0,0,0,0,-1,1602,1268,0,0
385,-244,0,0,0,0,0,0,0,0,0,-1,1609,1268,0,0
392,-244,0,0,0,0,0,0,0,0,0,-1,1616,1268,0,0
399,-244,0,0,0,0,0,0,0,0,0,-1,1623,1268,0,0
406,-244,0,0,0,0,0,0,0,0,0,-1,1630,1268,0,0
413,-244,0,0,0,0,0,0,0,0,0,-1,1637,1268,0,0
420,-244,0,0,0,0,0,0,0,0,0,-1,1644,1268,0,0
427,-244,0,0,0,0,0,0,0,0,0,-1,1651,1268,0,0
434,-244,0,0,0,0,0,0,0,0,0,-1,1658,1268,0,0
441,-244,0,0,0,0,0,0,0,0,0,-1,1665,1268,0,0
448,-244,0,0,0,0,0,0,0,0,0,-1,1672,1268,0,0
455,-244,0,0,0,0,0,0,0,0,0,-1,1679,1268,0,0
462,-244,0,0,0,0,0,0,0,0,0,-1,1686,1268,0,0
469,-244,0,0,0,0,0,0,0,0,0,-1,1693,1268,0,0
476,-244,0,0,0,0,0,0,0,0,0,-1,1700,1268,0,0
483,-244,0,0,0,0,0,0,0,0,0,-1,1707,1268,0,0
490,-244,0,0,0,0,0,0,0,0,0,-1,1714,1268,0,0
497,-244,0,0,0,0,0,0,0,0,0,-1,1721,1268,0,0
504,-244,0,0,0,0,0,0,0,0,0,-1,1728,1268,0,0
511,-244,0,0,0,0,0,0,0,0,0,-1,1735,1268,0,0
518,-244,0,0,0,0,0,0,0,0,0,-1,1742,1268,0,0
525,-244,0,0,0,0,0,0,0,0,0,-1,1749,1268,0,0
532,-244,0,0,0,0,0,0,0,0,0,-1,1756,1268,0,0
539,-244,0,0,0,0,0,0,0,0,0,-1,1763,1268,0,0
546,-244,0,0,0,0,0,0,0,0,0,-1,1770,1268,0,0
553,-244,0,0,0,0,0,0,0,0,0,-1,1777,1268,0,0
560,-244,0,0,0,0,0,0,0,0,0,-1,1784,1268,0,0
567,-244,0,0,0,0,0,0,0,0,0,-1,1791,1268,0,0
574,-244,0,0,0,0,0,0,0,0,0,-1,1798,1268,0,0
581,-244,0,0,0,0,0,0,0,0,0,-1,1805,1268,0,0
588,-244,0,0,0,0,0,0,0,0,0,-1,1812,1268,0,0
595,-244,0,0,0,0,0,0,0,0,0,-1,1819,1268,0,0
602,-244,0,0,0,0,0,0,0,0,0,-1,1826,1268,0,0
609,-244,0,0,0,0,0,0,0,0,0,-1,1833,1268,0,0
616,-244,43.9028,2.61646,-0.00189778,0.00371318,-0.00202782,0.00436931,-0.00255391,-1.25786,0.00404267,0.0346351,1840,1268,43.9028,-2.61648
623,-244,43.9095,2.61462,-0.00484639,0.00387125,0.00173056,0.00420222,-0.00517737,1.38183,0.00542505,0.0275352,1847,1268,43.9096,-2.61465
630,-244,43.9153,2.65503,-0.00755485,0.00399332,0.00490084,0.00579276,-0.00935429,1.21891,0.00882537,0.0245812,1854,1268,43.9152,-2.655
637,-244,43.8854,2.5957,-0.00855138,0.00387989,0.00635651,0.00655467,-0.0112262,1.17249,0.0103832,0.0392576,1861,1268,43.8854,-2.59569
644,-244,43.8604,2.58887,-0.00744049,0.00322181,0.0059792,0.0059014,-0.0101201,1.14948,0.00935629,0.0468755,1868,1268,43.8603,-2.58892
651,-244,44.1205,3.11401,0,0,0,0,0,0,0,-1,1875,1268,44.1205,-3.11397
658,-244,44.4458,3.44971,0,0,0,0,0,0,0,-1,1882,1268,44.4457,-3.44969
665,-244,44.809,3.75134,0,0,0,0,0,0,0,-1,1889,1268,44.809,-3.75139
672,-244,32.224,3.6123,0,0,0,0,0,0,0,-1,1896,1268,32.224,-3.6123
679,-244,27.2593,7.90649,0,0,0,0,0,0,0,-1,1903,1268,27.2592,-7.9065
686,-244,33.6248,9.39941,0,0,0,0,0,0,0,-1,1910,1268,33.6248,-9.39947
693,-244,33.6077,8.89148,-5.00684e-05,0.000911612,0.00159802,0.00209957,-0.00123803,0.931538,0.00194824,0.025068,1917,1268,33.6077,-8.89148
700,-244,33.6316,8.38245,0.000490027,-0.000513308,0.000904838,0.00102296,-0.00104624,0.53228,0.00119468,0.00917508,1924,1268,33.6316,-8.38245
707,-244,33.6433,7.96204,0.000652739,-0.00062638,0.000848457,0.00107568,-0.00104933,0.462437,0.00122691,0.0103771,1931,1268,33.6433,-7.9621
714,-244,33.6725,7.54626,0.000593003,-0.000612446,0.000754007,0.000955578,-0.000975021,0.448222,0.00111465,0.013182,1938,1268,33.6724,-7.54629
721,-244,33.6237,7.16138,0.000773668,-0.000239195,0.00125538,0.00162092,-0.00108644,0.593677,0.00157321,0.0169123,1945,1268,33.6237,-7.16135
728,-244,33.6201,6.75208,0.000851122,0.000177628,0.00179426,0.00233996,-0.00131121,0.692637,0.00213572,0.0215607,1952,1268,33.6201,-6.75206
735,-244,33.5997,6.29724,0.00108202,0.000616179,0.00252743,0.00338724,-0.00168904,0.739449,0.00298495,0.0257467,1959,1268,33.5998,-6.29721
742,-244,33.5551,5.99609,0.00181442,0.00114487,0.00331465,0.00481116,-0.00185187,0.735069,0.00397136,0.0167473,1966,1268,33.555,-5.99615
749,-244,33.4514,5.72009,0.00331197,0.00176117,0.00429863,0.00690457,-0.00183144,0.696166,0.00531967,0.0227738,1973,1268,33.4514,-5.72012
756,-244,33.158,5.32593,0,0,0,0,0,0,0,-1,1980,1268,33.158,-5.32591
763,-244,33.7507,4.77881,0.0104354,0.00371012,0.00637284,0.0142783,-0.000132838,0.542637,0.00956347,0.0420532,1987,1268,33.7507,-4.77882
770,-244,34.1359,4.53662,0,0,0,0,0,0,0,-1,1994,1268,34.1359,-4.53666
777,-244,34.4386,4.35889,0,0,0,0,0,0,0,-1,2001,1268,34.4386,-4.35888
784,-244,31.7908,5.20081,0,0,0,0,0,0,0,-1,2008,1268,31.7907,-5.20083
791,-244,0,0,0,0,0,0,0,0,0,-1,2015,1268,0,0
798,-244,0,0,0,0,0,0,0,0,0,-1,2022,1268,0,0
805,-244,0,0,0,0,0,0,0,0,0,-1,2029,1268,0,0
812,-244,0,0,0,0,0,0,0,0,0,-1,2036,1268,0,0
-700,-251,0,0,0,0,0,0,0,0,0,-1,524,1275,0,0
-693,-251,0,0,0,0,0,0,0,0,0,-1,531,1275,0,0
-686,-251,0,0,0,0,0,0,0,0,0,-1,538,1275,0,0
-679,-251,0,0,0,0,0,0,0,0,0,-1,545,1275,0,0
-672,-251,0,0,0,0,0,0,0,0,0,-1,552,1275,0,0
-665,-251,-20.993,4.27515,0,0,0,0,0,0,0,-1,559,1275,-20.993,-4.2752
-658,-251,-23.7194,2.79553,0,0,0,0,0,0,0,-1,566,1275,-23.7194,-2.79554
-651,-251,-20.6763,-0.483032,0,0,0,0,0,0,0,-1,573,1275,-20.6763,0.483012
-644,-251,-20.5963,0.301636,0.00214178,0.028984,0.0504209,0.0677395,-0.0366137,0.915473,0.0611352,0.0496766,580,1275,-20.5963,-0.30168
-637,-251,-20.5733,1.08154,0.00240239,0.0237861,0.0396812,0.0541907,-0.0280021,0.916995,0.0482503,0.0484121,587,1275,-20.5733,-1.08156
-630,-251,-20.8301,1.55872,0.00229263,0.0187707,0.0300345,0.0416757,-0.0206124,0.919265,0.036641,0.0492465,594,1275,-20.8301,-1.55869
-623,-251,-20.7686,2.25989,0.00181923,0.0139496,0.0216851,0.0304018,-0.0146329,0.921761,0.0265268,0.0414077,601,1275,-20.7686,-2.25987
-616,-251,-20.4769,3.00232,0.00151159,0.0103942,0.0152947,0.0218794,-0.0099736,0.926703,0.0188137,0.0221889,608,1275,-20.4768,-3.00231
-609,-251,-20.521,3.42444,0.00139239,0.00752881,0.0104323,0.0153347,-0.0064135,0.928419,0.0129037,0.0209023,615,1275,-20.521,-3.42448
-602,-251,-20.5358,3.88672,0.00165831,0.00521619,0.00698976,0.0106498,-0.00377533,0.910006,0.00863787,0.0143868,622,1275,-20.5358,-3.88667
-595,-251,-20.5155,4.32385,0.00228719,0.00349979,0.00454015,0.00747395,-0.00168697,0.851776,0.00562984,0.0134522,629,1275,-20.5155,-4.32381
-588,-251,-20.5047,4.75403,0.00315149,0.00214656,0.00287737,0.00556994,-0.000271887,0.698957,0.00380716,0.0161115,636,1275,-20.5047,-4.75399
-581,-251,-20.5129,5.2345,0.0041178,0.00171882,0.00235132,0.00555791,0.000278711,0.549537,0.00361595,0.0145955,643,1275,-20.5129,-5.23447
-574,-251,-20.5378,5.71741,0.00500277,0.00182324,0.00234064,0.00624248,0.000583523,0.487083,0.00398142,0.0123405,650,1275,-20.5378,-5.71742
-567,-251,-20.5544,6.17798,0.00567446,0.00257985,0.00249555,0.00706346,0.00119085,0.507891,0.0043665,0.0120458,657,1275,-20.5544,-6.178
-560,-251,-20.4793,6.70996,0.00502552,0.00291605,0.00226481,0.00646915,0.00147242,0.567479,0.00391536,0.0316108,664,1275,-20.4793,-6.70992
-553,-251,-20.3333,7.1731,0,0,0,0,0,0,0,-1,671,1275,-20.3333,-7.17307
-546,-251,-12.995,4.5675,0,0,0,0,0,0,0,-1,678,1275,-12.995,-4.56745
-539,-251,-10.7916,0.366333,0,0,0,0,0,0,0,-1,685,1275,-10.7916,-0.366282
-532,-251,-10.7391,-0.00769043,0,0,0,0,0,0,0,-1,692,1275,-10.7391,0.00773227
-525,-251,-29.4286,-0.250244,0,0,0,0,0,0,0,-1,699,1275,-29.4286,0.250266
-518,-251,-29.4509,0.193359,0,0,0,0,0,0,0,-1,706,1275,-29.4508,-0.193379
-511,-251,-29.4731,0.637085,0,0,0,0,0,0,0,-1,713,1275,-29.4731,-0.637025
-504,-251,-30.6428,0.792358,0,0,0,0,0,0,0,-1,720,1275,-30.6427,-0.792335
-497,-251,-32.2508,1.13354,0,0,0,0,0,0,0,-1,727,1275,-32.2508,-1.13355
-490,-251,0,0,0,0,0,0,0,0,0,-1,734,1275,0,0
-483,-251,0,0,0,0,0,0,0,0,0,-1,741,1275,0,0
-476,-251,0,0,0,0,0,0,0,0,0,-1,748,1275,0,0
-469,-251,0,0,0,0,0,0,0,0,0,-1,755,1275,0,0
-462,-251,0,0,0,0,0,0,0,0,0,-1,762,1275,0,0
-455,-251,0,0,0,0,0,0,0,0,0,-1,769,1275,0,0
-448,-251,0,0,0,0,0,0,0,0,0,-1,776,1275,0,0
-441,-251,0,0,0,0,0,0,0,0,0,-1,783,1275,0,0
-434,-251,0,0,0,0,0,0,0,0,0,-1,790,1275,0,0
-427,-251,0,0,0,0,0,0,0,0,0,-1,797,1275,0,0
-420,-251,0,0,0,0,0,0,0,0,0,-1,804,1275,0,0
-413,-251,0,0,0,0,0,0,0,0,0,-1,811,1275,0,0
-406,-251,0,0,0,0,0,0,0,0,0,-1,818,1275,0,0
-399,-251,0,0,0,0,0,0,0,0,0,-1,825,1275,0,0
-392,-251,0,0,0,0,0,0,0,0,0,-1,832,1275,0,0
-385,-251,0,0,0,0,0,0,0,0,0,-1,839,1275,0,0
-378,-251,0,0,0,0,0,0,0,0,0,-1,846,1275,0,0
-371,-251,0,0,0,0,0,0,0,0,0,-1,853,1275,0,0
-364,-251,0,0,0,0,0,0,0,0,0,-1,860,1275,0,0
-357,-251,0,0,0,0,0,0,0,0,0,-1,867,1275,0,0
-350,-251,0,0,0,0,0,0,0,0,0,-1,874,1275,0,0
-343,-251,0,0,0,0,0,0,0,0,0,-1,881,1275,0,0
-336,-251,0,0,0,0,0,0,0,0,0,-1,888,1275,0,0
-329,-251,0,0,0,0,0,0,0,0,0,-1,895,1275,0,0
-322,-251,0,0,0,0,0,0,0,0,0,-1,902,1275,0,0
-315,-251,0,0,0,0,0,0,0,0,0,-1,909,1275,0,0
-308,-251,0,0,0,0,0,0,0,0,0,-1,916,1275,0,0
-301,-251,0,0,0,0,0,0,0,0,0,-1,923,1275,0,0
-294,-251,0,0,0,0,0,0,0,0,0,-1,930,1275,0,0
-287,-251,0,0,0,0,0,0,0,0,0,-1,937,1275,0,0
-280,-251,0,0,0,0,0,0,0,0,0,-1,944,1275,0,0
-273,-251,0,0,0,0,0,0,0,0,0,-1,951,1275,0,0
-266,-251,0,0,0,0,0,0,0,0,0,-1,958,1275,0,0
-259,-251,0,0,0,0,0,0,0,0,0,-1,965,1275,0,0
-252,-251,0,0,0,0,0,0,0,0,0,-1,972,1275,0,0
-245,-251,0,0,0,0,0,0,0,0,0,-1,979,1275,0,0
-238,-251,0,0,0,0,0,0,0,0,0,-1,986,1275,0,0
-231,-251,0,0,0,0,0,0,0,0,0,-1,993,1275,0,0
-224,-251,0,0,0,0,0,0,0,0,0,-1,1000,1275,0,0
-217,-251,0,0,0,0,0,0,0,0,0,-1,1007,1275,0,0
-210,-251,0,0,0,0,0,0,0,0,0,-1,1014,1275,0,0
-203,-251,0,0,0,0,0,0,0,0,0,-1,1021,1275,0,0
-196,-251,0,0,0,0,0,0,0,0,0,-1,1028,1275,0,0
-189,-251,0,0,0,0,0,0,0,0,0,-1,1035,1275,0,0
-182,-251,0,0,0,0,0,0,0,0,0,-1,1042,1275,0,0
-175,-251,0,0,0,0,0,0,0,0,0,-1,1049,1275,0,0
-168,-251,0,0,0,0,0,0,0,0,0,-1,1056,1275,0,0
-161,-251,0,0,0,0,0,0,0,0,0,-1,1063,1275,0,0
-154,-251,0,0,0,0,0,0,0,0,0,-1,1070,1275,0,0
-147,-251,0,0,0,0,0,0,0,0,0,-1,1077,1275,0,0
-140,-251,0,0,0,0,0,0,0,0,0,-1,1084,1275,0,0
-133,-251,0,0,0,0,0,0,0,0,0,-1,1091,1275,0,0
-126,-251,0,0,0,0,0,0,0,0,0,-1,1098,1275,0,0
-119,-251,0,0,0,0,0,0,0,0,0,-1,1105,1275,0,0
-112,-251,0,0,0,0,0,0,0,0,0,-1,1112,1275,0,0
-105,-251,0,0,0,0,0,0,0,0,0,-1,1119,1275,0,0
-98,-251,0,0,0,0,0,0,0,0,0,-1,1126,1275,0,0
-91,-251,0,0,0,0,0,0,0,0,0,-1,1133,1275,0,0
-84,-251,0,0,0,0,0,0,0,0,0,-1,1140,1275,0,0
-77,-251,0,0,0,0,0,0,0,0,0,-1,1147,1275,0,0
-70,-251,0,0,0,0,0,0,0,0,0,-1,1154,1275,0,0
-63,-251,0,0,0,0,0,0,0,0,0,-1,1161,1275,0,0
-56,-251,0,0,0,0,0,0,0,0,0,-1,1168,1275,0,0
-49,-251,0,0,0,0,0,0,0,0,0,-1,1175,1275,0,0
-42,-251,0,0,0,0,0,0,0,0,0,-1,1182,1275,0,0
-35,-251,0,0,0,0,0,0,0,0,0,-1,1189,1275,0,0
-28,-251,0,0,0,0,0,0,0,0,0,-1,1196,1275,0,0
-21,-251,0,0,0,0,0,0,0,0,0,-1,1203,1275,0,0
-14,-251,0,0,0,0,0,0,0,0,0,-1,1210,1275,0,0
-7,-251,0,0,0,0,0,0,0,0,0,-1,1217,1275,0,0
0,-251,0,0,0,0,0,0,0,0,0,-1,1224,1275,0,0
7,-251,0,0,0,0,0,0,0,0,0,-1,1231,1275,0,0
14,-251,0,0,0,0,0,0,0,0,0,-1,1238,1275,0,0
21,-251,0,0,0,0,0,0,0,0,0,-1,1245,1275,0,0
28,-251,0,0,0,0,0,0,0,0,0,-1,1252,1275,0,0
35,-251,0,0,0,0,0,0,0,0,0,-1,1259,1275,0,0
42,-251,0,0,0,0,0,0,0,0,0,-1,1266,1275,0,0
49,-251,0,0,0,0,0,0,0,0,0,-1,1273,1275,0,0
56,-251,0,0,0,0,0,0,0,0,0,-1,1280,1275,0,0
63,-251,0,0,0,0,0,0,0,0,0,-1,1287,1275,0,0
70,-251,0,0,0,0,0,0,0,0,0,-1,1294,1275,0,0
77,-251,0,0,0,0,0,0,0,0,0,-1,1301,1275,0,0
84,-251,0,0,0,0,0,0,0,0,0,-1,1308,1275,0,0
91,-251,0,0,0,0,0,0,0,0,0,-1,1315,1275,0,0
98,-251,0,0,0,0,0,0,0,0,0,-1,1322,1275,0,0
105,-251,0,0,0,0,0,0,0,0,0,-1,1329,1275,0,0
112,-251,0,0,0,0,0,0,0,0,0,-1,1336,1275,0,0
119,-251,0,0,0,0,0,0,0,0,0,-1,1343,1275,0,0
126,-251,0,0,0,0,0,0,0,0,0,-1,1350,1275,0,0
133,-251,0,0,0,0,0,0,0,0,0,-1,1357,1275,0,0
140,-251,0,0,0,0,0,0,0,0,0,-1,1364,1275,0,0
147,-251,0,0,0,0,0,0,0,0,0,-1,1371,1275,0,0
154,-251,0,0,0,0,0,0,0,0,0,-1,1378,1275,0,0
161,-251,0,0,0,0,0,0,0,0,0,-1,1385,1275,0,0
168,-251,0,0,0,0,0,0,0,0,0,-1,1392,1275,0,0
175,-251,0,0,0,0,0,0,0,0,0,-1,1399,1275,0,0
182,-251,0,0,0,0,0,0,0,0,0,-1,1406,1275,0,0
189,-251,0,0,0,0,0,0,0,0,0,-1,1413,1275,0,0
196,-251,0,0,0,0,0,0,0,0,0,-1,1420,1275,0,0
203,-251,0,0,0,0,0,0,0,0,0,-1,1427,1275,0,0
210,-251,0,0,0,0,0,0,0,0,0,-1,1434,1275,0,0
217,-251,0,0,0,0,0,0,0,0,0,-1,1441,1275,0,0
224,-251,0,0,0,0,0,0,0,0,0,-1,1448,1275,0,0
231,-251,0,0,0,0,0,0,0,0,0,-1,1455,1275,0,0
238,-251,0,0,0,0,0,0,0,0,0,-1,1462,1275,0,0
245,-251,0,0,0,0,0,0,0,0,0,-1,1469,1275,0,0
252,-251,0,0,0,0,0,0,0,0,0,-1,1476,1275,0,0
259,-251,0,0,0,0,0,0,0,0,0,-1,1483,1275,0,0
266,-251,0,0,0,0,0,0,0,0,0,-1,1490,1275,0,0
273,-251,0,0,0,0,0,0,0,0,0,-1,1497,1275,0,0
280,-251,0,0,0,0,0,0,0,0,0,-1,1504,1275,0,0
287,-251,0,0,0,0,0,0,0,0,0,-1,1511,1275,0,0
294,-251,0,0,0,0,0,0,0,0,0,-1,1518,1275,0,0
301,-251,0,0,0,0,0,0,0,0,0,-1,1525,1275,0,0
308,-251,0,0,0,0,0,0,0,0,0,-1,1532,1275,0,0
315,-251,0,0,0,0,0,0,0,0,0,-1,1539,1275,0,0
322,-251,0,0,0,0,0,0,0,0,0,-1,1546,1275,0,0
329,-251,0,0,0,0,0,0,0,0,0,-1,1553,1275,0,0
336,-251,0,0,0,0,0,0,0,0,0,-1,1560,1275,0,0
343,-251,0,0,0,0,0,0,0,0,0,-1,1567,1275,0,0
350,-251,0,0,0,0,0,0,0,0,0,-1,1574,1275,0,0
357,-251,0,0,0,0,0,0,0,0,0,-1,1581,1275,0,0
364,-251,0,0,0,0,0,0,0,0,0,-1,1588,1275,0,0
371,-251,0,0,0,0,0,0,0,0,0,-1,1595,1275,0,0
378,-251,0,0,0,0,0,0,0,0,0,-1,1602,1275,0,0
385,-251,0,0,0,0,0,0,0,0,0,-1,1609,1275,0,0
392,-251,0,0,0,0,0,0,0,0,0,-1,1616,1275,0,0
399,-251,0,0,0,0,0,0,0,0,0,-1,1623,1275,0,0
406,-251,0,0,0,0,0,0,0,0,0,-1,1630,1275,0,0
413,-251,0,0,0,0,0,0,0,0,0,-1,1637,1275,0,0
420,-251,0,0,0,0,0,0,0,0,0,-1,1644,1275,0,0
427,-251,0,0,0,0,0,0,0,0,0,-1,1651,1275,0,0
434,-251,0,0,0,0,0,0,0,0,0,-1,1658,1275,0,0
441,-251,0,0,0,0,0,0,0,0,0,-1,1665,1275,0,0
448,-251,0,0,0,0,0,0,0,0,0,-1,1672,1275,0,0
455,-251,0,0,0,0,0,0,0,0,0,-1,1679,1275,0,0
462,-251,0,0,0,0,0,0,0,0,0,-1,1686,1275,0,0
469,-251,0,0,0,0,0,0,0,0,0,-1,1693,1275,0,0
476,-251,0,0,0,0,0,0,0,0,0,-1,1700,1275,0,0
483,-251,0,0,0,0,0,0,0,0,0,-1,1707,1275,0,0
490,-251,0,0,0,0,0,0,0,0,0,-1,1714,1275,0,0
497,-251,0,0,0,0,0,0,0,0,0,-1,1721,1275,0,0
504,-251,0,0,0,0,0,0,0,0,0,-1,1728,1275,0,0
511,-251,0,0,0,0,0,0,0,0,0,-1,1735,1275,0,0
518,-251,0,0,0,0,0,0,0,0,0,-1,1742,1275,0,0
525,-251,0,0,0,0,0,0,0,0,0,-1,1749,1275,0,0
532,-251,0,0,0,0,0,0,0,0,0,-1,1756,1275,0,0
539,-251,0,0,0,0,0,0,0,0,0,-1,1763,1275,0,0
546,-251,0,0,0,0,0,0,0,0,0,-1,1770,1275,0,0
553,-251,0,0,0,0,0,0,0,0,0,-1,1777,1275,0,0
560,-251,0,0,0,0,0,0,0,0,0,-1,1784,1275,0,0
567,-251,0,0,0,0,0,0,0,0,0,-1,1791,1275,0,0
574,-251,0,0,0,0,0,0,0,0,0,-1,1798,1275,0,0
581,-251,0,0,0,0,0,0,0,0,0,-1,1805,1275,0,0
588,-251,0,0,0,0,0,0,0,0,0,-1,1812,1275,0,0
595,-251,0,0,0,0,0,0,0,0,0,-1,1819,1275,0,0
602,-251,0,0,0,0,0,0,0,0,0,-1,1826,1275,0,0
609,-251,43.9564,2.53394,-0.0011306,0.0061892,-0.00640031,0.00990215,-0.00484355,-1.04512,0.00867881,0.0283663,1833,1275,43.9564,-2.5339
616,-251,43.9077,2.58179,-0.004628,0.00584794,-0.000714887,0.0058965,-0.00467656,-1.50297,0.00611789,0.0256127,1840,1275,43.9077,-2.58178
623,-251,43.8989,2.60242,-0.00825275,0.00556795,0.00428835,0.00679043,-0.00947523,1.29309,0.00943353,0.0226409,1847,1275,43.899,-2.60244
630,-251,43.9158,2.64612,-0.0106708,0.00513159,0.0076483,0.008227,-0.0137662,1.18623,0.0128313,0.0354334,1854,1275,43.9157,-2.64613
637,-251,43.79,2.44397,-0.010533,0.00442876,0.00828251,0.00810868,-0.0142129,1.15269,0.013047,0.0421986,1861,1275,43.7901,-2.44392
644,-251,43.6016,2.33667,-0.0087593,0.00356884,0.00730183,0.00696052,-0.012151,1.13595,0.0111689,0.0493857,1868,1275,43.6016,-2.33671
651,-251,43.6213,2.4209,0,0,0,0,0,0,0,-1,1875,1275,43.6213,-2.42093
658,-251,44.3906,3.4502,0,0,0,0,0,0,0,-1,1882,1275,44.3906,-3.45024
665,-251,32.9579,2.60229,0,0,0,0,0,0,0,-1,1889,1275,32.9579,-2.60231
672,-251,26.0721,4.53064,0,0,0,0,0,0,0,-1,1896,1275,26.0721,-4.53063
679,-251,29.1344,8.63782,0,0,0,0,0,0,0,-1,1903,1275,29.1344,-8.63778
686,-251,33.3142,9.2616,0,0,0,0,0,0,0,-1,1910,1275,33.3142,-9.26165
693,-251,33.2603,8.84277,4.0913e-05,0.00105266,0.00163021,0.00225368,-0.00116011,0.935843,0.00200438,0.0133516,1917,1275,33.2603,-8.84274
700,-251,33.2277,8.41321,0.000591204,-0.000485555,0.000813447,0.0010283,-0.000922649,0.493068,0.00112693,0.00927845,1924,1275,33.2277,-8.41319
707,-251,33.2374,7.98328,0.000652962,-0.000571169,0.000765545,0.00102104,-0.000939248,0.448175,0.0011321,0.0111825,1931,1275,33.2374,-7.98329
714,-251,33.2435,7.57031,0.000530328,-0.000517308,0.000731265,0.000906029,-0.000893009,0.474602,0.00103868,0.0130857,1938,1275,33.2436,-7.57026
721,-251,33.1836,7.18677,0.000613851,-0.00013968,0.00124879,0.00154148,-0.00106731,0.638889,0.00151445,0.0173552,1945,1275,33.1836,-7.18681
728,-251,33.177,6.80139,0.000608902,0.000280008,0.0018226,0.00227446,-0.00138555,0.740407,0.00213379,0.0200556,1952,1275,33.177,-6.80137
735,-251,33.1771,6.33838,0.000803188,0.000744979,0.00254736,0.00332161,-0.00177344,0.779686,0.00298655,0.0178942,1959,1275,33.1771,-6.3384
742,-251,33.1307,6.04907,0.00149684,0.00132628,0.00331846,0.00473111,-0.00190799,0.772552,0.00394691,0.0173661,1966,1275,33.1308,-6.04902
749,-251,32.95,5.83765,0.0030016,0.00203114,0.00430189,0.00684554,-0.0018128,0.729239,0.00527288,0.032974,1973,1275,32.95,-5.8377
756,-251,32.7385,5.10559,0,0,0,0,0,0,0,-1,1980,1275,32.7386,-5.1056
763,-251,33.6716,4.55603,0,0,0,0,0,0,0,-1,1987,1275,33.6717,-4.55605
770,-251,34.0652,4.21814,0,0,0,0,0,0,0,-1,1994,1275,34.0652,-4.21816
777,-251,31.5731,4.33252,0,0,0,0,0,0,0,-1,2001,1275,31.5731,-4.33251
784,-251,32.0776,5.78247,0,0,0,0,0,0,0,-1,2008,1275,32.0776,-5.78247
791,-251,0,0,0,0,0,0,0,0,0,-1,2015,1275,0,0
798,-251,0,0,0,0,0,0,0,0,0,-1,2022,1275,0,0
805,-251,0,0,0,0,0,0,0,0,0,-1,2029,1275,0,0
812,-251,0,0,0,0,0,0,0,0,0,-1,2036,1275,0,0
-700,-258,0,0,0,0,0,0,0,0,0,-1,524,1282,0,0
-693,-258,0,0,0,0,0,0,0,0,0,-1,531,1282,0,0
-686,-258,0,0,0,0,0,0,0,0,0,-1,538,1282,0,0
-679,-258,0,0,0,0,0,0,0,0,0,-1,545,1282,0,0
-672,-258,0,0,0,0,0,0,0,0,0,-1,552,1282,0,0
-665,-258,-20.7346,4.88318,0,0,0,0,0,0,0,-1,559,1282,-20.7345,-4.88316
-658,-258,-21.545,6.01331,0,0,0,0,0,0,0,-1,566,1282,-21.545,-6.01331
-651,-258,-21.2513,-0.901245,0,0,0,0,0,0,0,-1,573,1282,-21.2513,0.901221
-644,-258,-20.8941,-0.0340576,0.00911407,0.0372043,0.0688757,0.0934524,-0.047134,0.885979,0.0826229,0.0461259,580,1282,-20.8941,0.0340716
-637,-258,-20.7496,0.923828,0.00694104,0.0286993,0.0517174,0.0706695,-0.0350291,0.889066,0.0621707,0.044024,587,1282,-20.7496,-0.92382
-630,-258,-20.7354,1.57837,0,0,0,0,0,0,0,-1,594,1282,-20.7354,-1.57834
-623,-258,-19.8682,2.41919,0,0,0,0,0,0,0,-1,601,1282,-19.8682,-2.41917
-616,-258,-19.9918,2.922,0.00228244,0.0111713,0.0179117,0.0251817,-0.011728,0.907007,0.0217766,0.0369065,608,1282,-19.9918,-2.92194
-609,-258,-20.0168,3.41431,0.00161758,0.00785596,0.0118277,0.0169688,-0.0074953,0.914323,0.0144731,0.018403,615,1282,-20.0168,-3.41436
-602,-258,-20.0444,3.88293,0.00160374,0.00541706,0.00771278,0.0114553,-0.00443456,0.906573,0.00946783,0.014081,622,1282,-20.0444,-3.88297
-595,-258,-20.0331,4.32727,0.00196668,0.00360741,0.00493928,0.00779398,-0.00221989,0.867692,0.00607274,0.0116603,629,1282,-20.0331,-4.32724
-588,-258,-20.0406,4.77637,0.00258631,0.0020513,0.00287506,0.00520628,-0.000568674,0.73901,0.00367511,0.0124757,636,1282,-20.0406,-4.7764
-581,-258,-20.0524,5.24402,0.00353599,0.00140948,0.00211471,0.0048397,0.000105773,0.55246,0.00319179,0.0140513,643,1282,-20.0524,-5.24404
-574,-258,-20.0504,5.71643,0.00459298,0.00120776,0.00205317,0.00556128,0.000239463,0.44068,0.00363033,0.0138934,650,1282,-20.0504,-5.71647
-567,-258,-20.0989,6.18469,0.00554445,0.00150461,0.00222661,0.00653083,0.000518226,0.417017,0.00419184,0.0140894,657,1282,-20.0989,-6.18463
-560,-258,-20.0515,6.65674,0.00525733,0.00162781,0.00202239,0.00615982,0.000725326,0.419728,0.00388739,0.035327,664,1282,-20.0515,-6.65677
-553,-258,-19.9152,7.10254,0,0,0,0,0,0,0,-1,671,1282,-19.9151,-7.10252
-546,-258,-14.2231,5.92029,0,0,0,0,0,0,0,-1,678,1282,-14.2231,-5.92028
-539,-258,-10.2228,4.05823,0,0,0,0,0,0,0,-1,685,1282,-10.2228,-4.05823
-532,-258,-10.2173,-0.353882,0,0,0,0,0,0,0,-1,692,1282,-10.2173,0.353836
-525,-258,-21.8661,-1.5929,0,0,0,0,0,0,0,-1,699,1282,-21.8661,1.59285
-518,-258,-29.2484,0.123169,0,0,0,0,0,0,0,-1,706,1282,-29.2484,-0.123186
-511,-258,-23.5061,1.16833,0,0,0,0,0,0,0,-1,713,1282,-23.5061,-1.16833
-504,-258,-22.9178,0.484131,0,0,0,0,0,0,0,-1,720,1282,-22.9178,-0.484106
-497,-258,-17.8047,0.730469,0,0,0,0,0,0,0,-1,727,1282,-17.8048,-0.730489
-490,-258,-15.4346,0.632935,0,0,0,0,0,0,0,-1,734,1282,-15.4346,-0.632917
-483,-258,0,0,0,0,0,0,0,0,0,-1,741,1282,0,0
-476,-258,0,0,0,0,0,0,0,0,0,-1,748,1282,0,0
-469,-258,0,0,0,0,0,0,0,0,0,-1,755,1282,0,0
-462,-258,0,0,0,0,0,0,0,0,0,-1,762,1282,0,0
-455,-258,0,0,0,0,0,0,0,0,0,-1,769,1282,0,0
-448,-258,0,0,0,0,0,0,0,0,0,-1,776,1282,0,0
-441,-258,0,0,0,0,0,0,0,0,0,-1,783,1282,0,0
-434,-258,0,0,0,0,0,0,0,0,0,-1,790,1282,0,0
-427,-258,0,0,0,0,0,0,0,0,0,-1,797,1282,0,0
-420,-258,0,0,0,0,0,0,0,0,0,-1,804,1282,0,0
-413,-258,0,0,0,0,0,0,0,0,0,-1,811,1282,0,0
-406,-258,0,0,0,0,0,0,0,0,0,-1,818,1282,0,0
-399,-258,0,0,0,0,0,0,0,0,0,-1,825,1282,0,0
-392,-258,0,0,0,0,0,0,0,0,0,-1,832,1282,0,0
-385,-258,0,0,0,0,0,0,0,0,0,-1,839,1282,0,0
-378,-258,0,0,0,0,0,0,0,0,0,-1,846,1282,0,0
-371,-258,0,0,0,0,0,0,0,0,0,-1,853,1282,0,0
-364,-258,0,0,0,0,0,0,0,0,0,-1,860,1282,0,0
-357,-258,0,0,0,0,0,0,0,0,0,-1,867,1282,0,0
-350,-258,0,0,0,0,0,0,0,0,0,-1,874,1282,0,0
-343,-258,0,0,0,0,0,0,0,0,0,-1,881,1282,0,0
-336,-258,0,0,0,0,0,0,0,0,0,-1,888,1282,0,0
-329,-258,0,0,0,0,0,0,0,0,0,-1,895,1282,0,0
-322,-258,0,0,0,0,0,0,0,0,0,-1,902,1282,0,0
-315,-258,0,0,0,0,0,0,0,0,0,-1,909,1282,0,0
-308,-258,0,0,0,0,0,0,0,0,0,-1,916,1282,0,0
-301,-258,0,0,0,0,0,0,0,0,0,-1,923,1282,0,0
-294,-258,0,0,0,0,0,0,0,0,0,-1,930,1282,0,0
-287,-258,0,0,0,0,0,0,0,0,0,-1,937,1282,0,0
-280,-258,0,0,0,0,0,0,0,0,0,-1,944,1282,0,0
-273,-258,0,0,0,0,0,0,0,0,0,-1,951,1282,0,0
-266,-258,0,0,0,0,0,0,0,0,0,-1,958,1282,0,0
-259,-258,0,0,0,0,0,0,0,0,0,-1,965,1282,0,0
-252,-258,0,0,0,0,0,0,0,0,0,-1,972,1282,0,0
-245,-258,0,0,0,0,0,0,0,0,0,-1,979,1282,0,0
-238,-258,0,0,0,0,0,0,0,0,0,-1,986,1282,0,0
-231,-258,0,0,0,0,0,0,0,0,0,-1,993,1282,0,0
-224,-258,0,0,0,0,0,0,0,0,0,-1,1000,1282,0,0
-217,-258,0,0,0,0,0,0,0,0,0,-1,1007,1282,0,0
-210,-258,0,0,0,0,0,0,0,0,0,-1,1014,1282,0,0
-203,-258,0,0,0,0,0,0,0,0,0,-1,1021,1282,0,0
-196,-258,0,0,0,0,0,0,0,0,0,-1,1028,1282,0,0
-189,-258,0,0,0,0,0,0,0,0,0,-1,1035,1282,0,0
-182,-258,0,0,0,0,0,0,0,0,0,-1,1042,1282,0,0
-175,-258,0,0,0,0,0,0,0,0,0,-1,1049,1282,0,0
-168,-258,0,0,0,0,0,0,0,0,0,-1,1056,1282,0,0
-161,-258,0,0,0,0,0,0,0,0,0,-1,1063,1282,0,0
-154,-258,0,0,0,0,0,0,0,0,0,-1,1070,1282,0,0
-147,-258,0,0,0,0,0,0,0,0,0,-1,1077,1282,0,0
-140,-258,0,0,0,0,0,0,0,0,0,-1,1084,1282,0,0
-133,-258,0,0,0,0,0,0,0,0,0,-1,1091,1282,0,0
-126,-258,0,0,0,0,0,0,0,0,0,-1,1098,1282,0,0
-119,-258,0,0,0,0,0,0,0,0,0,-1,1105,1282,0,0
-112,-258,0,0,0,0,0,0,0,0,0,-1,1112,1282,0,0
-105,-258,0,0,0,0,0,0,0,0,0,-1,1119,1282,0,0
-98,-258,0,0,0,0,0,0,0,0,0,-1,1126,1282,0,0
-91,-258,0,0,0,0,0,0,0,0,0,-1,1133,1282,0,0
-84,-258,0,0,0,0,0,0,0,0,0,-1,1140,1282,0,0
-77,-258,0,0,0,0,0,0,0,0,0,-1,1147,1282,0,0
-70,-258,0,0,0,0,0,0,0,0,0,-1,1154,1282,0,0
-63,-258,0,0,0,0,0,0,0,0,0,-1,1161,1282,0,0
-56,-258,0,0,0,0,0,0,0,0,0,-1,1168,1282,0,0
-49,-258,0,0,0,0,0,0,0,0,0,-1,1175,1282,0,0
-42,-258,0,0,0,0,0,0,0,0,0,-1,1182,1282,0,0
-35,-258,0,0,0,0,0,0,0,0,0,-1,1189,1282,0,0
-28,-258,0,0,0,0,0,0,0,0,0,-1,1196,1282,0,0
-21,-258,0,0,0,0,0,0,0,0,0,-1,1203,1282,0,0
-14,-258,0,0,0,0,0,0,0,0,0,-1,1210,1282,0,0
-7,-258,0,0,0,0,0,0,0,0,0,-1,1217,1282,0,0
0,-258,0,0,0,0,0,0,0,0,0,-1,1224,1282,0,0
7,-258,0,0,0,0,0,0,0,0,0,-1,1231,1282,0,0
14,-258,0,0,0,0,0,0,0,0,0,-1,1238,1282,0,0
21,-258,0,0,0,0,0,0,0,0,0,-1,1245,1282,0,0
28,-258,0,0,0,0,0,0,0,0,0,-1,1252,1282,0,0
35,-258,0,0,0,0,0,0,0,0,0,-1,1259,1282,0,0
42,-258,0,0,0,0,0,0,0,0,0,-1,1266,1282,0,0
49,-258,0,0,0,0,0,0,0,0,0,-1,1273,1282,0,0
56,-258,0,0,0,0,0,0,0,0,0,-1,1280,1282,0,0
63,-258,0,0,0,0,0,0,0,0,0,-1,1287,1282,0,0
70,-258,0,0,0,0,0,0,0,0,0,-1,1294,1282,0,0
77,-258,0,0,0,0,0,0,0,0,0,-1,1301,1282,0,0
84,-258,0,0,0,0,0,0,0,0,0,-1,1308,1282,0,0
91,-258,0,0,0,0,0,0,0,0,0,-1,1315,1282,0,0
98,-258,0,0,0,0,0,0,0,0,0,-1,1322,1282,0,0
105,-258,0,0,0,0,0,0,0,0,0,-1,1329,1282,0,0
112,-258,0,0,0,0,0,0,0,0,0,-1,1336,1282,0,0
119,-258,0,0,0,0,0,0,0,0,0,-1,1343,1282,0,0
126,-258,0,0,0,0,0,0,0,0,0,-1,1350,1282,0,0
133,-258,0,0,0,0,0,0,0,0,0,-1,1357,1282,0,0
140,-258,0,0,0,0,0,0,0,0,0,-1,1364,1282,0,0
147,-258,0,0,0,0,0,0,0,0,0,-1,1371,1282,0,0
154,-258,0,0,0,0,0,0,0,0,0,-1,1378,1282,0,0
161,-258,0,0,0,0,0,0,0,0,0,-1,1385,1282,0,0
168,-258,0,0,0,0,0,0,0,0,0,-1,1392,1282,0,0
175,-258,0,0,0,0,0,0,0,0,0,-1,1399,1282,0,0
182,-258,0,0,0,0,0,0,0,0,0,-1,1406,1282,0,0
189,-258,0,0,0,0,0,0,0,0,0,-1,1413,1282,0,0
196,-258,0,0,0,0,0,0,0,0,0,-1,1420,1282,0,0
203,-258,0,0,0,0,0,0,0,0,0,-1,1427,1282,0,0
210,-258,0,0,0,0,0,0,0,0,0,-1,1434,1282,0,0
217,-258,0,0,0,0,0,0,0,0,0,-1,1441,1282,0,0
224,-258,0,0,0,0,0,0,0,0,0,-1,1448,1282,0,0
231,-258,0,0,0,0,0,0,0,0,0,-1,1455,1282,0,0
238,-258,0,0,0,0,0,0,0,0,0,-1,1462,1282,0,0
245,-258,0,0,0,0,0,0,0,0,0,-1,1469,1282,0,0
252,-258,0,0,0,0,0,0,0,0,0,-1,1476,1282,0,0
259,-258,0,0,0,0,0,0,0,0,0,-1,1483,1282,0,0
266,-258,0,0,0,0,0,0,0,0,0,-1,1490,1282,0,0
273,-258,0,0,0,0,0,0,0,0,0,-1,1497,1282,0,0
280,-258,0,0,0,0,0,0,0,0,0,-1,1504,1282,0,0
287,-258,0,0,0,0,0,0,0,0,0,-1,1511,1282,0,0
294,-258,0,0,0,0,0,0,0,0,0,-1,1518,1282,0,0
301,-258,0,0,0,0,0,0,0,0,0,-1,1525,1282,0,0
308,-258,0,0,0,0,0,0,0,0,0,-1,1532,1282,0,0
315,-258,0,0,0,0,0,0,0,0,0,-1,1539,1282,0,0
322,-258,0,0,0,0,0,0,0,0,0,-1,1546,1282,0,0
329,-258,0,0,0,0,0,0,0,0,0,-1,1553,1282,0,0
336,-258,0,0,0,0,0,0,0,0,0,-1,1560,1282,0,0
343,-258,0,0,0,0,0,0,0,0,0,-1,1567,1282,0,0
350,-258,0,0,0,0,0,0,0,0,0,-1,1574,1282,0,0
357,-258,0,0,0,0,0,0,0,0,0,-1,1581,1282,0,0
364,-258,0,0,0,0,0,0,0,0,0,-1,1588,1282,0,0
371,-258,0,0,0,0,0,0,0,0,0,-1,1595,1282,0,0
378,-258,0,0,0,0,0,0,0,0,0,-1,1602,1282,0,0
385,-258,0,0,0,0,0,0,0,0,0,-1,1609,1282,0,0
392,-258,0,0,0,0,0,0,0,0,0,-1,1616,1282,0,0
399,-258,0,0,0,0,0,0,0,0,0,-1,1623,1282,0,0
406,-258,0,0,0,0,0,0,0,0,0,-1,1630,1282,0,0
413,-258,0,0,0,0,0,0,0,0,0,-1,1637,1282,0,0
420,-258,0,0,0,0,0,0,0,0,0,-1,1644,1282,0,0
427,-258,0,0,0,0,0,0,0,0,0,-1,1651,1282,0,0
434,-258,0,0,0,0,0,0,0,0,0,-1,1658,1282,0,0
441,-258,0,0,0,0,0,0,0,0,0,-1,1665,1282,0,0
448,-258,0,0,0,0,0,0,0,0,0,-1,1672,1282,0,0
455,-258,0,0,0,0,0,0,0,0,0,-1,1679,1282,0,0
462,-258,0,0,0,0,0,0,0,0,0,-1,1686,1282,0,0
469,-258,0,0,0,0,0,0,0,0,0,-1,1693,1282,0,0
476,-258,0,0,0,0,0,0,0,0,0,-1,1700,1282,0,0
483,-258,0,0,0,0,0,0,0,0,0,-1,1707,1282,0,0
490,-258,0,0,0,0,0,0,0,0,0,-1,1714,1282,0,0
497,-258,0,0,0,0,0,0,0,0,0,-1,1721,1282,0,0
504,-258,0,0,0,0,0,0,0,0,0,-1,1728,1282,0,0
511,-258,0,0,0,0,0,0,0,0,0,-1,1735,1282,0,0
518,-258,0,0,0,0,0,0,0,0,0,-1,1742,1282,0,0
525,-258,0,0,0,0,0,0,0,0,0,-1,1749,1282,0,0
532,-258,0,0,0,0,0,0,0,0,0,-1,1756,1282,0,0
539,-258,0,0,0,0,0,0,0,0,0,-1,1763,1282,0,0
546,-258,0,0,0,0,0,0,0,0,0,-1,1770,1282,0,0
553,-258,0,0,0,0,0,0,0,0,0,-1,1777,1282,0,0
560,-258,0,0,0,0,0,0,0,0,0,-1,1784,1282,0,0
567,-258,0,0,0,0,0,0,0,0,0,-1,1791,1282,0,0
574,-258,0,0,0,0,0,0,0,0,0,-1,1798,1282,0,0
581,-258,0,0,0,0,0,0,0,0,0,-1,1805,1282,0,0
588,-258,0,0,0,0,0,0,0,0,0,-1,1812,1282,0,0
595,-258,0,0,0,0,0,0,0,0,0,-1,1819,1282,0,0
602,-258,0,0,0,0,0,0,0,0,0,-1,1826,1282,0,0
609,-258,43.9626,2.62744,-0.00444406,0.007866,-0.00556614,0.0100095,-0.0065876,-1.2032,0.00965002,0.0256007,1833,1282,43.9627,-2.62746
616,-258,43.933,2.61621,-0.00875856,0.00772372,0.00168746,0.00789471,-0.00892955,1.46981,0.00971961,0.0235976,1840,1282,43.9329,-2.61625
623,-258,43.9124,2.61389,-0.0123955,0.00707758,0.00742093,0.0095832,-0.0149012,1.24517,0.0142468,0.0331696,1847,1282,43.9123,-2.61393
630,-258,43.8772,2.55542,-0.0137201,0.00605641,0.0102135,0.0103841,-0.0180478,1.17001,0.0166127,0.0423236,1854,1282,43.8772,-2.55537
637,-258,43.2598,1.84045,-0.0123298,0.00484284,0.00984194,0.00931749,-0.0168044,1.14408,0.0152866,0.0436272,1861,1282,43.2598,-1.8404
644,-258,43.1689,1.90942,-0.0101086,0.00387433,0.00844966,0.00784996,-0.0140843,1.13102,0.0128331,0.0497534,1868,1282,43.169,-1.90946
651,-258,43.2292,2.00439,0,0,0,0,0,0,0,-1,1875,1282,43.2293,-2.00436
658,-258,37.3499,1.09253,0,0,0,0,0,0,0,-1,1882,1282,37.3498,-1.0925
665,-258,35.4747,1.1864,0,0,0,0,0,0,0,-1,1889,1282,35.4747,-1.18637
672,-258,22.703,2.80957,0,0,0,0,0,0,0,-1,1896,1282,22.703,-2.80962
679,-258,26.8693,8.19543,0,0,0,0,0,0,0,-1,1903,1282,26.8692,-8.19548
686,-258,32.9169,9.27966,0,0,0,0,0,0,0,-1,1910,1282,32.9168,-9.27961
693,-258,32.8663,8.83545,-7.21558e-05,0.00113245,0.0016696,0.00230506,-0.00124477,0.958507,0.00207975,0.0131591,1917,1282,32.8663,-8.83542
700,-258,32.8342,8.4043,0.000447112,-0.000424083,0.000793537,0.000916747,-0.000893719,0.534387,0.0010453,0.00964948,1924,1282,32.8343,-8.4043
707,-258,32.8339,8.00085,0.000450123,-0.000482683,0.000782615,0.000894773,-0.000927333,0.516678,0.00105205,0.0108557,1931,1282,32.8338,-8.00089
714,-258,32.8293,7.59863,0.000331894,-0.000407292,0.000820542,0.000862239,-0.000937637,0.573794,0.00103946,0.0104468,1938,1282,32.8294,-7.59859
721,-258,32.8066,7.18408,0.000372882,-7.22161e-05,0.00133013,0.00149896,-0.00119829,0.702509,0.00156048,0.0157237,1945,1282,32.8067,-7.18411
728,-258,32.7614,6.80847,0.00032834,0.000294062,0.00191089,0.00222216,-0.00159976,0.780914,0.00221632,0.0158263,1952,1282,32.7613,-6.80851
735,-258,32.7886,6.38782,0.000506968,0.000734672,0.00259299,0.00321631,-0.00197467,0.807338,0.00302546,0.0154295,1959,1282,32.7886,-6.38779
742,-258,32.7814,6.02429,0.00116986,0.00131944,0.00330927,0.00455476,-0.00206546,0.796696,0.00391122,0.0172089,1966,1282,32.7814,-6.0243
749,-258,32.6624,5.74805,0.00267641,0.00206317,0.00422945,0.00661034,-0.00187076,0.749213,0.00514513,0.037097,1973,1282,32.6624,-5.7481
756,-258,32.5498,5.3689,0,0,0,0,0,0,0,-1,1980,1282,32.5498,-5.36893
763,-258,33.6481,4.21362,0,0,0,0,0,0,0,-1,1987,1282,33.6481,-4.21358
770,-258,33.1395,3.90918,0,0,0,0,0,0,0,-1,1994,1282,33.1395,-3.90912
777,-258,31.912,4.83093,0,0,0,0,0,0,0,-1,2001,1282,31.912,-4.8309
784,-258,32.6525,6.43091,0,0,0,0,0,0,0,-1,2008,1282,32.6525,-6.43091
791,-258,0,0,0,0,0,0,0,0,0,-1,2015,1282,0,0
798,-258,0,0,0,0,0,0,0,0,0,-1,2022,1282,0,0
805,-258,0,0,0,0,0,0,0,0,0,-1,2029,1282,0,0
812,-258,0,0,0,0,0,0,0,0,0,-1,2036,1282,0,0
-700,-265,0,0,0,0,0,0,0,0,0,-1,524,1289,0,0
-693,-265,0,0,0,0,0,0,0,0,0,-1,531,1289,0,0
-686,-265,0,0,0,0,0,0,0,0,0,-1,538,1289,0,0
-679,-265,0,0,0,0,0,0,0,0,0,-1,545,1289,0,0
-672,-265,0,0,0,0,0,0,0,0,0,-1,552,1289,0,0
-665,-265,-21.8043,0.183594,0,0,0,0,0,0,0,-1,559,1289,-21.8042,-0.183562
-658,-265,-18.9856,-0.2948,0,0,0,0,0,0,0,-1,566,1289,-18.9856,0.294797
-651,-265,-18.8685,0.415161,0,0,0,0,0,0,0,-1,573,1289,-18.8685,-0.415106
-644,-265,-21.1107,-0.415527,0,0,0,0,0,0,0,-1,580,1289,-21.1106,0.415535
-637,-265,-20.9237,0.733765,0,0,0,0,0,0,0,-1,587,1289,-20.9237,-0.733739
-630,-265,-19.4874,2.06287,0,0,0,0,0,0,0,-1,594,1289,-19.4874,-2.06282
-623,-265,-19.402,2.66772,0,0,0,0,0,0,0,-1,601,1289,-19.402,-2.66778
-616,-265,-19.5352,2.81042,0,0,0,0,0,0,0,-1,608,1289,-19.5352,-2.81038
-609,-265,-19.5368,3.3717,0.00177771,0.00815285,0.0127376,0.0180957,-0.00816513,0.908004,0.0155188,0.0197333,615,1289,-19.5368,-3.37174
-602,-265,-19.563,3.89172,0.00150092,0.00564324,0.00822411,0.012053,-0.00490882,0.908753,0.0100783,0.0148027,622,1289,-19.563,-3.89168
-595,-265,-19.5744,4.36438,0.00163857,0.00376582,0.00518736,0.00799748,-0.00259308,0.886517,0.00637432,0.0125209,629,1289,-19.5744,-4.36441
-588,-265,-19.5825,4.81384,0.00200329,0.00209896,0.00281488,0.00486641,-0.000764161,0.793894,0.0035267,0.0114261,636,1289,-19.5825,-4.81379
-581,-265,-19.5947,5.26782,0.002828,0.00127311,0.00185279,0.00405984,4.12634e-05,0.58675,0.00269291,0.0131429,643,1289,-19.5947,-5.26778
-574,-265,-19.619,5.76062,0.00391121,0.000787079,0.00172727,0.00467799,2.03024e-05,0.41779,0.00311191,0.0139834,650,1289,-19.619,-5.7606
-567,-265,-19.6634,6.22693,0.00505395,0.000600502,0.0019041,0.00575706,-0.000102605,0.353728,0.0038727,0.0200201,657,1289,-19.6634,-6.22692
-560,-265,-19.6848,6.68518,0.00534359,0.000344203,0.0018105,0.00593038,-0.000242586,0.313421,0.00403688,0.0223148,664,1289,-19.6848,-6.68515
-553,-265,-19.6613,7.14148,0,0,0,0,0,0,0,-1,671,1289,-19.6612,-7.14143
-546,-265,-19.0402,7.96277,0,0,0,0,0,0,0,-1,678,1289,-19.0402,-7.96282
-539,-265,-13.7668,6.39917,0,0,0,0,0,0,0,-1,685,1289,-13.7668,-6.39915
-532,-265,-8.53998,3.41467,0,0,0,0,0,0,0,-1,692,1289,-8.53996,-3.41473
-525,-265,-12.1317,0.514648,0,0,0,0,0,0,0,-1,699,1289,-12.1317,-0.514634
-518,-265,-24.1604,0.712402,0,0,0,0,0,0,0,-1,706,1289,-24.1604,-0.712425
-511,-265,-23.233,0.791626,0,0,0,0,0,0,0,-1,713,1289,-23.233,-0.791617
-504,-265,-22.3056,0.87085,0,0,0,0,0,0,0,-1,720,1289,-22.3056,-0.87081
-497,-265,-18.689,-0.278442,0,0,0,0,0,0,0,-1,727,1289,-18.689,0.278423
-490,-265,-15.1696,0.492676,0,0,0,0,0,0,0,-1,734,1289,-15.1696,-0.492688
-483,-265,0,0,0,0,0,0,0,0,0,-1,741,1289,0,0
-476,-265,0,0,0,0,0,0,0,0,0,-1,748,1289,0,0
-469,-265,0,0,0,0,0,0,0,0,0,-1,755,1289,0,0
-462,-265,0,0,0,0,0,0,0,0,0,-1,762,1289,0,0
-455,-265,0,0,0,0,0,0,0,0,0,-1,769,1289,0,0
-448,-265,0,0,0,0,0,0,0,0,0,-1,776,1289,0,0
-441,-265,0,0,0,0,0,0,0,0,0,-1,783,1289,0,0
-434,-265,0,0,0,0,0,0,0,0,0,-1,790,1289,0,0
-427,-265,0,0,0,0,0,0,0,0,0,-1,797,1289,0,0
-420,-265,0,0,0,0,0,0,0,0,0,-1,804,1289,0,0
-413,-265,0,0,0,0,0,0,0,0,0,-1,811,1289,0,0
-406,-265,0,0,0,0,0,0,0,0,0,-1,818,1289,0,0
-399,-265,0,0,0,0,0,0,0,0,0,-1,825,1289,0,0
-392,-265,0,0,0,0,0,0,0,0,0,-1,832,1289,0,0
-385,-265,0,0,0,0,0,0,0,0,0,-1,839,1289,0,0
-378,-265,0,0,0,0,0,0,0,0,0,-1,846,1289,0,0
-371,-265,0,0,0,0,0,0,0,0,0,-1,853,1289,0,0
-364,-265,0,0,0,0,0,0,0,0,0,-1,860,1289,0,0
-357,-265,0,0,0,0,0,0,0,0,0,-1,867,1289,0,0
-350,-265,0,0,0,0,0,0,0,0,0,-1,874,1289,0,0
-343,-265,0,0,0,0,0,0,0,0,0,-1,881,1289,0,0
-336,-265,0,0,0,0,0,0,0,0,0,-1,888,1289,0,0
-329,-265,0,0,0,0,0,0,0,0,0,-1,895,1289,0,0
-322,-265,0,0,0,0,0,0,0,0,0,-1,902,1289,0,0
-315,-265,0,0,0,0,0,0,0,0,0,-1,909,1289,0,0
-308,-265,0,0,0,0,0,0,0,0,0,-1,916,1289,0,0
-301,-265,0,0,0,0,0,0,0,0,0,-1,923,1289,0,0
-294,-265,0,0,0,0,0,0,0,0,0,-1,930,1289,0,0
-287,-265,0,0,0,0,0,0,0,0,0,-1,937,1289,0,0
-280,-265,0,0,0,0,0,0,0,0,0,-1,944,1289,0,0
-273,-265,0,0,0,0,0,0,0,0,0,-1,951,1289,0,0
-266,-265,0,0,0,0,0,0,0,0,0,-1,958,1289,0,0
-259,-265,0,0,0,0,0,0,0,0,0,-1,965,1289,0,0
-252,-265,0,0,0,0,0,0,0,0,0,-1,972,1289,0,0
-245,-265,0,0,0,0,0,0,0,0,0,-1,979,1289,0,0
-238,-265,0,0,0,0,0,0,0,0,0,-1,986,1289,0,0
-231,-265,0,0,0,0,0,0,0,0,0,-1,993,1289,0,0
-224,-265,0,0,0,0,0,0,0,0,0,-1,1000,1289,0,0
-217,-265,0,0,0,0,0,0,0,0,0,-1,1007,1289,0,0
-210,-265,0,0,0,0,0,0,0,0,0,-1,1014,1289,0,0
-203,-265,0,0,0,0,0,0,0,0,0,-1,1021,1289,0,0
-196,-265,0,0,0,0,0,0,0,0,0,-1,1028,1289,0,0
-189,-265,0,0,0,0,0,0,0,0,0,-1,1035,1289,0,0
-182,-265,0,0,0,0,0,0,0,0,0,-1,1042,1289,0,0
-175,-265,0,0,0,0,0,0,0,0,0,-1,1049,1289,0,0
-168,-265,0,0,0,0,0,0,0,0,0,-1,1056,1289,0,0
-161,-265,0,0,0,0,0,0,0,0,0,-1,1063,1289,0,0
-154,-265,0,0,0,0,0,0,0,0,0,-1,1070,1289,0,0
-147,-265,0,0,0,0,0,0,0,0,0,-1,1077,1289,0,0
-140,-265,0,0,0,0,0,0,0,0,0,-1,1084,1289,0,0
-133,-265,0,0,0,0,0,0,0,0,0,-1,1091,1289,0,0
-126,-265,0,0,0,0,0,0,0,0,0,-1,1098,1289,0,0
-119,-265,0,0,0,0,0,0,0,0,0,-1,1105,1289,0,0
-112,-265,0,0,0,0,0,0,0,0,0,-1,1112,1289,0,0
-105,-265,0,0,0,0,0,0,0,0,0,-1,1119,1289,0,0
-98,-265,0,0,0,0,0,0,0,0,0,-1,1126,1289,0,0
-91,-265,0,0,0,0,0,0,0,0,0,-1,1133,1289,0,0
-84,-265,0,0,0,0,0,0,0,0,0,-1,1140,1289,0,0
-77,-265,0,0,0,0,0,0,0,0,0,-1,1147,1289,0,0
-70,-265,0,0,0,0,0,0,0,0,0,-1,1154,1289,0,0
-63,-265,0,0,0,0,0,0,0,0,0,-1,1161,1289,0,0
-56,-265,0,0,0,0,0,0,0,0,0,-1,1168,1289,0,0
-49,-265,0,0,0,0,0,0,0,0,0,-1,1175,1289,0,0
-42,-265,0,0,0,0,0,0,0,0,0,-1,1182,1289,0,0
-35,-265,0,0,0,0,0,0,0,0,0,-1,1189,1289,0,0
-28,-265,0,0,0,0,0,0,0,0,0,-1,1196,1289,0,0
-21,-265,0,0,0,0,0,0,0,0,0,-1,1203,1289,0,0
-14,-265,0,0,0,0,0,0,0,0,0,-1,1210,1289,0,0
-7,-265,0,0,0,0,0,0,0,0,0,-1,1217,1289,0,0
0,-265,0,0,0,0,0,0,0,0,0,-1,1224,1289,0,0
7,-265,0,0,0,0,0,0,0,0,0,-1,1231,1289,0,0
14,-265,0,0,0,0,0,0,0,0,0,-1,1238,1289,0,0
21,-265,0,0,0,0,0,0,0,0,0,-1,1245,1289,0,0
28,-265,0,0,0,0,0,0,0,0,0,-1,1252,1289,0,0
35,-265,0,0,0,0,0,0,0,0,0,-1,1259,1289,0,0
42,-265,0,0,0,0,0,0,0,0,0,-1,1266,1289,0,0
49,-265,0,0,0,0,0,0,0,0,0,-1,1273,1289,0,0
56,-265,0,0,0,0,0,0,0,0,0,-1,1280,1289,0,0
63,-265,0,0,0,0,0,0,0,0,0,-1,1287,1289,0,0
70,-265,0,0,0,0,0,0,0,0,0,-1,1294,1289,0,0
77,-265,0,0,0,0,0,0,0,0,0,-1,1301,1289,0,0
84,-265,0,0,0,0,0,0,0,0,0,-1,1308,1289,0,0
91,-265,0,0,0,0,0,0,0,0,0,-1,1315,1289,0,0
98,-265,0,0,0,0,0,0,0,0,0,-1,1322,1289,0,0
105,-265,0,0,0,0,0,0,0,0,0,-1,1329,1289,0,0
112,-265,0,0,0,0,0,0,0,0,0,-1,1336,1289,0,0
119,-265,0,0,0,0,0,0,0,0,0,-1,1343,1289,0,0
126,-265,0,0,0,0,0,0,0,0,0,-1,1350,1289,0,0
133,-265,0,0,0,0,0,0,0,0,0,-1,1357,1289,0,0
140,-265,0,0,0,0,0,0,0,0,0,-1,1364,1289,0,0
147,-265,0,0,0,0,0,0,0,0,0,-1,1371,1289,0,0
154,-265,0,0,0,0,0,0,0,0,0,-1,1378,1289,0,0
161,-265,0,0,0,0,0,0,0,0,0,-1,1385,1289,0,0
168,-265,0,0,0,0,0,0,0,0,0,-1,1392,1289,0,0
175,-265,0,0,0,0,0,0,0,0,0,-1,1399,1289,0,0
182,-265,0,0,0,0,0,0,0,0,0,-1,1406,1289,0,0
189,-265,0,0,0,0,0,0,0,0,0,-1,1413,1289,0,0
196,-265,0,0,0,0,0,0,0,0,0,-1,1420,1289,0,0
203,-265,0,0,0,0,0,0,0,0,0,-1,1427,1289,0,0
210,-265,0,0,0,0,0,0,0,0,0,-1,1434,1289,0,0
217,-265,0,0,0,0,0,0,0,0,0,-1,1441,1289,0,0
224,-265,0,0,0,0,0,0,0,0,0,-1,1448,1289,0,0
231,-265,0,0,0,0,0,0,0,0,0,-1,1455,1289,0,0
238,-265,0,0,0,0,0,0,0,0,0,-1,1462,1289,0,0
245,-265,0,0,0,0,0,0,0,0,0,-1,1469,1289,0,0
252,-265,0,0,0,0,0,0,0,0,0,-1,1476,1289,0,0
259,-265,0,0,0,0,0,0,0,0,0,-1,1483,1289,0,0
266,-265,0,0,0,0,0,0,0,0,0,-1,1490,1289,0,0
273,-265,0,0,0,0,0,0,0,0,0,-1,1497,1289,0,0
280,-265,0,0,0,0,0,0,0,0,0,-1,1504,1289,0,0
287,-265,0,0,0,0,0,0,0,0,0,-1,1511,1289,0,0
294,-265,0,0,0,0,0,0,0,0,0,-1,1518,1289,0,0
301,-265,0,0,0,0,0,0,0,0,0,-1,1525,1289,0,0
308,-265,0,0,0,0,0,0,0,0,0,-1,1532,1289,0,0
315,-265,0,0,0,0,0,0,0,0,0,-1,1539,1289,0,0
322,-265,0,0,0,0,0,0,0,0,0,-1,1546,1289,0,0
329,-265,0,0,0,0,0,0,0,0,0,-1,1553,1289,0,0
336,-265,0,0,0,0,0,0,0,0,0,-1,1560,1289,0,0
343,-265,0,0,0,0,0,0,0,0,0,-1,1567,1289,0,0
350,-265,0,0,0,0,0,0,0,0,0,-1,1574,1289,0,0
357,-265,0,0,0,0,0,0,0,0,0,-1,1581,1289,0,0
364,-265,0,0,0,0,0,0,0,0,0,-1,1588,1289,0,0
371,-265,0,0,0,0,0,0,0,0,0,-1,1595,1289,0,0
378,-265,0,0,0,0,0,0,0,0,0,-1,1602,1289,0,0
385,-265,0,0,0,0,0,0,0,0,0,-1,1609,1289,0,0
392,-265,0,0,0,0,0,0,0,0,0,-1,1616,1289,0,0
399,-265,0,0,0,0,0,0,0,0,0,-1,1623,1289,0,0
406,-265,0,0,0,0,0,0,0,0,0,-1,1630,1289,0,0
413,-265,0,0,0,0,0,0,0,0,0,-1,1637,1289,0,0
420,-265,0,0,0,0,0,0,0,0,0,-1,1644,1289,0,0
427,-265,0,0,0,0,0,0,0,0,0,-1,1651,1289,0,0
434,-265,0,0,0,0,0,0,0,0,0,-1,1658,1289,0,0
441,-265,0,0,0,0,0,0,0,0,0,-1,1665,1289,0,0
448,-265,0,0,0,0,0,0,0,0,0,-1,1672,1289,0,0
455,-265,0,0,0,0,0,0,0,0,0,-1,1679,1289,0,0
462,-265,0,0,0,0,0,0,0,0,0,-1,1686,1289,0,0
469,-265,0,0,0,0,0,0,0,0,0,-1,1693,1289,0,0
476,-265,0,0,0,0,0,0,0,0,0,-1,1700,1289,0,0
483,-265,0,0,0,0,0,0,0,0,0,-1,1707,1289,0,0
490,-265,0,0,0,0,0,0,0,0,0,-1,1714,1289,0,0
497,-265,0,0,0,0,0,0,0,0,0,-1,1721,1289,0,0
504,-265,0,0,0,0,0,0,0,0,0,-1,1728,1289,0,0
511,-265,0,0,0,0,0,0,0,0,0,-1,1735,1289,0,0
518,-265,0,0,0,0,0,0,0,0,0,-1,1742,1289,0,0
525,-265,0,0,0,0,0,0,0,0,0,-1,1749,1289,0,0
532,-265,0,0,0,0,0,0,0,0,0,-1,1756,1289,0,0
539,-265,0,0,0,0,0,0,0,0,0,-1,1763,1289,0,0
546,-265,0,0,0,0,0,0,0,0,0,-1,1770,1289,0,0
553,-265,0,0,0,0,0,0,0,0,0,-1,1777,1289,0,0
560,-265,0,0,0,0,0,0,0,0,0,-1,1784,1289,0,0
567,-265,0,0,0,0,0,0,0,0,0,-1,1791,1289,0,0
574,-265,0,0,0,0,0,0,0,0,0,-1,1798,1289,0,0
581,-265,0,0,0,0,0,0,0,0,0,-1,1805,1289,0,0
588,-265,0,0,0,0,0,0,0,0,0,-1,1812,1289,0,0
595,-265,0,0,0,0,0,0,0,0,0,-1,1819,1289,0,0
602,-265,43.9261,2.65771,-0.00248763,0.0089259,-0.0128497,0.0172791,-0.0108408,-0.994374,0.0163762,0.0288088,1826,1289,43.9261,-2.65771
609,-265,43.9246,2.60315,-0.00804848,0.00940916,-0.00387468,0.0102305,-0.00886981,-1.36191,0.0110369,0.0287934,1833,1289,43.9245,-2.60311
616,-265,43.9152,2.60535,-0.0132922,0.00953628,0.00490602,0.010546,-0.0143018,1.36782,0.0144004,0.0327098,1840,1289,43.9152,-2.60533
623,-265,43.9327,2.61792,-0.0163532,0.00850457,0.0106208,0.0124243,-0.020273,1.21724,0.0190582,0.0462281,1847,1289,43.9328,-2.61792
630,-265,43.7755,2.72498,-0.0162303,0.00697704,0.0122959,0.01228,-0.0215332,1.16362,0.0197642,0.0453726,1854,1289,43.7755,-2.72495
637,-265,43.715,2.89893,-0.0138619,0.00542016,0.0110484,0.0104426,-0.0188843,1.14414,0.0171642,0.0463471,1861,1289,43.715,-2.89889
644,-265,42.8014,1.46118,0,0,0,0,0,0,0,-1,1868,1289,42.8014,-1.46118
651,-265,38.2179,0.64856,0,0,0,0,0,0,0,-1,1875,1289,38.2179,-0.648555
658,-265,36.2434,1.67969,0,0,0,0,0,0,0,-1,1882,1289,36.2434,-1.67963
665,-265,34.7902,1.43164,0,0,0,0,0,0,0,-1,1889,1289,34.7901,-1.43162
672,-265,20.0045,6.62671,0,0,0,0,0,0,0,-1,1896,1289,20.0045,-6.62668
679,-265,32.3297,9.76233,0,0,0,0,0,0,0,-1,1903,1289,32.3297,-9.7623
686,-265,32.3945,9.28918,-0.00120479,0.000785803,0.0018188,0.00186382,-0.00228281,1.03575,0.00239813,0.0353277,1910,1289,32.3945,-9.28917
693,-265,32.4354,8.85352,-7.60859e-05,0.00123193,0.00155353,0.0022635,-0.00110766,0.984629,0.00198411,0.0107806,1917,1289,32.4354,-8.85349
700,-265,32.4414,8.42419,0.000379858,-0.000270613,0.000710485,0.00083601,-0.000726765,0.570752,0.000903004,0.0110143,1924,1289,32.4414,-8.42416
707,-265,32.4438,8.00208,0.000330153,-0.000314636,0.000771708,0.000844102,-0.000828585,0.587534,0.000965741,0.0100149,1931,1289,32.4438,-8.00211
714,-265,32.4159,7.61084,0.000219944,-0.000224649,0.000896853,0.00092164,-0.000926344,0.663915,0.00106694,0.0104222,1938,1289,32.4159,-7.6108
721,-265,32.3695,7.20313,0.00019233,5.01784e-05,0.0013835,0.00150658,-0.00126407,0.759734,0.00160168,0.0114926,1945,1289,32.3695,-7.20318
728,-265,32.3385,6.8103,9.67076e-05,0.00035267,0.00193708,0.00216599,-0.00171662,0.818385,0.00224662,0.0140912,1952,1289,32.3385,-6.81033
735,-265,32.3674,6.4104,0.00023249,0.000749147,0.00253381,0.00303776,-0.00205612,0.836199,0.0029591,0.0165056,1959,1289,32.3674,-6.41043
742,-265,32.3882,6.01807,0.000814446,0.00129562,0.00314306,0.00420729,-0.00209723,0.823596,0.00370725,0.0187468,1966,1289,32.3881,-6.01808
749,-265,32.3966,5.67749,0.00222769,0.00200369,0.0039119,0.00602919,-0.00179781,0.771087,0.00473393,0.044817,1973,1289,32.3966,-5.67749
756,-265,32.4694,5.31909,0,0,0,0,0,0,0,-1,1980,1289,32.4693,-5.31909
763,-265,31.6508,4.49072,0,0,0,0,0,0,0,-1,1987,1289,31.6508,-4.49077
770,-265,32.1581,1.84326,0,0,0,0,0,0,0,-1,1994,1289,32.158,-1.84325
777,-265,32.1664,5.3457,0,0,0,0,0,0,0,-1,2001,1289,32.1664,-5.34568
784,-265,0,0,0,0,0,0,0,0,0,-1,2008,1289,0,0
791,-265,0,0,0,0,0,0,0,0,0,-1,2015,1289,0,0
798,-265,0,0,0,0,0,0,0,0,0,-1,2022,1289,0,0
805,-265,0,0,0,0,0,0,0,0,0,-1,2029,1289,0,0
812,-265,0,0,0,0,0,0,0,0,0,-1,2036,1289,0,0
-700,-272,0,0,0,0,0,0,0,0,0,-1,524,1296,0,0
-693,-272,0,0,0,0,0,0,0,0,0,-1,531,1296,0,0
-686,-272,0,0,0,0,0,0,0,0,0,-1,538,1296,0,0
-679,-272,0,0,0,0,0,0,0,0,0,-1,545,1296,0,0
-672,-272,0,0,0,0,0,0,0,0,0,-1,552,1296,0,0
-665,-272,0,0,0,0,0,0,0,0,0,-1,559,1296,0,0
-658,-272,-18.6953,0.101318,0,0,0,0,0,0,0,-1,566,1296,-18.6953,-0.101268
-651,-272,-19.5643,1.76074,0,0,0,0,0,0,0,-1,573,1296,-19.5643,-1.76073
-644,-272,-19.5433,1.52747,0,0,0,0,0,0,0,-1,580,1296,-19.5433,-1.52742
-637,-272,-19.4523,1.22437,0,0,0,0,0,0,0,-1,587,1296,-19.4523,-1.22431
-630,-272,-19.5844,0.638184,0,0,0,0,0,0,0,-1,594,1296,-19.5844,-0.638227
-623,-272,-18.8593,2.74805,0,0,0,0,0,0,0,-1,601,1296,-18.8593,-2.74799
-616,-272,-18.8082,3.31018,0,0,0,0,0,0,0,-1,608,1296,-18.8082,-3.31022
-609,-272,-19.2452,3.68982,0,0,0,0,0,0,0,-1,615,1296,-19.2452,-3.6898
-602,-272,-19.0832,3.90747,0.00149774,0.00605608,0.00859888,0.0126727,-0.00511889,0.914946,0.0105761,0.0145924,622,1296,-19.0832,-3.90753
-595,-272,-19.1111,4.38306,0.0014517,0.0040276,0.00533769,0.00823053,-0.00275122,0.903782,0.00659814,0.0116045,629,1296,-19.1111,-4.38305
-588,-272,-19.1114,4.83521,0.00160209,0.00223301,0.00276105,0.00469656,-0.000861459,0.842278,0.00345419,0.0109185,636,1296,-19.1114,-4.8352
-581,-272,-19.1469,5.28577,0.00225603,0.00120956,0.0016382,0.00345252,1.30662e-05,0.630819,0.00229734,0.00997712,643,1296,-19.1468,-5.28579
-574,-272,-19.1783,5.76917,0.00322613,0.000492134,0.00141735,0.00382829,-0.000110022,0.40174,0.00258965,0.0146341,650,1296,-19.1783,-5.76918
-567,-272,-19.1898,6.2323,0.0043263,-1.58777e-05,0.00155954,0.00482837,-0.000517948,0.311458,0.00340472,0.0206238,657,1296,-19.1897,-6.23231
-560,-272,-19.2278,6.70837,0.00504215,-0.000461775,0.00162366,0.00548543,-0.000905055,0.266518,0.00399297,0.019238,664,1296,-19.2278,-6.70834
-553,-272,-19.1515,7.17542,0.00513334,-0.000580646,0.00151166,0.00550861,-0.000955916,0.243331,0.00402903,0.020707,671,1296,-19.1515,-7.17547
-546,-272,-19.0856,7.65076,0,0,0,0,0,0,0,-1,678,1296,-19.0857,-7.65074
-539,-272,-18.9283,8.57861,0,0,0,0,0,0,0,-1,685,1296,-18.9283,-8.57865
-532,-272,-10.5572,4.53943,0,0,0,0,0,0,0,-1,692,1296,-10.5572,-4.53943
-525,-272,-11.9599,0.0393066,0,0,0,0,0,0,0,-1,699,1296,-11.9599,-0.0393577
-518,-272,-21.1357,-1.41382,0,0,0,0,0,0,0,-1,706,1296,-21.1357,1.41379
-511,-272,-23.2565,0.226318,0,0,0,0,0,0,0,-1,713,1296,-23.2565,-0.22626
-504,-272,-19.7397,0.114746,0,0,0,0,0,0,0,-1,720,1296,-19.7397,-0.114701
-497,-272,-19.2225,1.71301,0,0,0,0,0,0,0,-1,727,1296,-19.2225,-1.71302
-490,-272,-20.1948,2.4032,0,0,0,0,0,0,0,-1,734,1296,-20.1948,-2.40322
-483,-272,-15.3736,0.792603,0,0,0,0,0,0,0,-1,741,1296,-15.3736,-0.79263
-476,-272,0,0,0,0,0,0,0,0,0,-1,748,1296,0,0
-469,-272,0,0,0,0,0,0,0,0,0,-1,755,1296,0,0
-462,-272,0,0,0,0,0,0,0,0,0,-1,762,1296,0,0
-455,-272,0,0,0,0,0,0,0,0,0,-1,769,1296,0,0
-448,-272,0,0,0,0,0,0,0,0,0,-1,776,1296,0,0
-441,-272,0,0,0,0,0,0,0,0,0,-1,783,1296,0,0
-434,-272,0,0,0,0,0,0,0,0,0,-1,790,1296,0,0
-427,-272,0,0,0,0,0,0,0,0,0,-1,797,1296,0,0
-420,-272,0,0,0,0,0,0,0,0,0,-1,804,1296,0,0
-413,-272,0,0,0,0,0,0,0,0,0,-1,811,1296,0,0
-406,-272,0,0,0,0,0,0,0,0,0,-1,818,1296,0,0
-399,-272,0,0,0,0,0,0,0,0,0,-1,825,1296,0,0
-392,-272,0,0,0,0,0,0,0,0,0,-1,832,1296,0,0
-385,-272,0,0,0,0,0,0,0,0,0,-1,839,1296,0,0
-378,-272,0,0,0,0,0,0,0,0,0,-1,846,1296,0,0
-371,-272,0,0,0,0,0,0,0,0,0,-1,853,1296,0,0
-364,-272,0,0,0,0,0,0,0,0,0,-1,860,1296,0,0
-357,-272,0,0,0,0,0,0,0,0,0,-1,867,1296,0,0
-350,-272,0,0,0,0,0,0,0,0,0,-1,874,1296,0,0
-343,-272,0,0,0,0,0,0,0,0,0,-1,881,1296,0,0
-336,-272,0,0,0,0,0,0,0,0,0,-1,888,1296,0,0
-329,-272,0,0,0,0,0,0,0,0,0,-1,895,1296,0,0
-322,-272,0,0,0,0,0,0,0,0,0,-1,902,1296,0,0
-315,-272,0,0,0,0,0,0,0,0,0,-1,909,1296,0,0
-308,-272,0,0,0,0,0,0,0,0,0,-1,916,1296,0,0
-301,-272,0,0,0,0,0,0,0,0,0,-1,923,1296,0,0
-294,-272,0,0,0,0,0,0,0,0,0,-1,930,1296,0,0
-287,-272,0,0,0,0,0,0,0,0,0,-1,937,1296,0,0
-280,-272,0,0,0,0,0,0,0,0,0,-1,944,1296,0,0
-273,-272,0,0,0,0,0,0,0,0,0,-1,951,1296,0,0
-266,-272,0,0,0,0,0,0,0,0,0,-1,958,1296,0,0
-259,-272,0,0,0,0,0,0,0,0,0,-1,965,1296,0,0
-252,-272,0,0,0,0,0,0,0,0,0,-1,972,1296,0,0
-245,-272,0,0,0,0,0,0,0,0,0,-1,979,1296,0,0
-238,-272,0,0,0,0,0,0,0,0,0,-1,986,1296,0,0
-231,-272,0,0,0,0,0,0,0,0,0,-1,993,1296,0,0
-224,-272,0,0,0,0,0,0,0,0,0,-1,1000,1296,0,0
-217,-272,0,0,0,0,0,0,0,0,0,-1,1007,1296,0,0
-210,-272,0,0,0,0,0,0,0,0,0,-1,1014,1296,0,0
-203,-272,0,0,0,0,0,0,0,0,0,-1,1021,1296,0,0
-196,-272,0,0,0,0,0,0,0,0,0,-1,1028,1296,0,0
-189,-272,0,0,0,0,0,0,0,0,0,-1,1035,1296,0,0
-182,-272,0,0,0,0,0,0,0,0,0,-1,1042,1296,0,0
-175,-272,0,0,0,0,0,0,0,0,0,-1,1049,1296,0,0
-168,-272,0,0,0,0,0,0,0,0,0,-1,1056,1296,0,0
-161,-272,0,0,0,0,0,0,0,0,0,-1,1063,1296,0,0
-154,-272,0,0,0,0,0,0,0,0,0,-1,1070,1296,0,0
-147,-272,0,0,0,0,0,0,0,0,0,-1,1077,1296,0,0
-140,-272,0,0,0,0,0,0,0,0,0,-1,1084,1296,0,0
-133,-272,0,0,0,0,0,0,0,0,0,-1,1091,1296,0,0
-126,-272,0,0,0,0,0,0,0,0,0,-1,1098,1296,0,0
-119,-272,0,0,0,0,0,0,0,0,0,-1,1105,1296,0,0
-112,-272,0,0,0,0,0,0,0,0,0,-1,1112,1296,0,0
-105,-272,0,0,0,0,0,0,0,0,0,-1,1119,1296,0,0
-98,-272,0,0,0,0,0,0,0,0,0,-1,1126,1296,0,0
-91,-272,0,0,0,0,0,0,0,0,0,-1,1133,1296,0,0
-84,-272,0,0,0,0,0,0,0,0,0,-1,1140,1296,0,0
-77,-272,0,0,0,0,0,0,0,0,0,-1,1147,1296,0,0
-70,-272,0,0,0,0,0,0,0,0,0,-1,1154,1296,0,0
-63,-272,0,0,0,0,0,0,0,0,0,-1,1161,1296,0,0
-56,-272,0,0,0,0,0,0,0,0,0,-1,1168,1296,0,0
-49,-272,0,0,0,0,0,0,0,0,0,-1,1175,1296,0,0
-42,-272,0,0,0,0,0,0,0,0,0,-1,1182,1296,0,0
-35,-272,0,0,0,0,0,0,0,0,0,-1,1189,1296,0,0
-28,-272,0,0,0,0,0,0,0,0,0,-1,1196,1296,0,0
-21,-272,0,0,0,0,0,0,0,0,0,-1,1203,1296,0,0
-14,-272,0,0,0,0,0,0,0,0,0,-1,1210,1296,0,0
-7,-272,0,0,0,0,0,0,0,0,0,-1,1217,1296,0,0
0,-272,0,0,0,0,0,0,0,0,0,-1,1224,1296,0,0
7,-272,0,0,0,0,0,0,0,0,0,-1,1231,1296,0,0
14,-272,0,0,0,0,0,0,0,0,0,-1,1238,1296,0,0
21,-272,0,0,0,0,0,0,0,0,0,-1,1245,1296,0,0
28,-272,0,0,0,0,0,0,0,0,0,-1,1252,1296,0,0
35,-272,0,0,0,0,0,0,0,0,0,-1,1259,1296,0,0
42,-272,0,0,0,0,0,0,0,0,0,-1,1266,1296,0,0
49,-272,0,0,0,0,0,0,0,0,0,-1,1273,1296,0,0
56,-272,0,0,0,0,0,0,0,0,0,-1,1280,1296,0,0
63,-272,0,0,0,0,0,0,0,0,0,-1,1287,1296,0,0
70,-272,0,0,0,0,0,0,0,0,0,-1,1294,1296,0,0
77,-272,0,0,0,0,0,0,0,0,0,-1,1301,1296,0,0
84,-272,0,0,0,0,0,0,0,0,0,-1,1308,1296,0,0
91,-272,0,0,0,0,0,0,0,0,0,-1,1315,1296,0,0
98,-272,0,0,0,0,0,0,0,0,0,-1,1322,1296,0,0
105,-272,0,0,0,0,0,0,0,0,0,-1,1329,1296,0,0
112,-272,0,0,0,0,0,0,0,0,0,-1,1336,1296,0,0
119,-272,0,0,0,0,0,0,0,0,0,-1,1343,1296,0,0
126,-272,0,0,0,0,0,0,0,0,0,-1,1350,1296,0,0
133,-272,0,0,0,0,0,0,0,0,0,-1,1357,1296,0,0
140,-272,0,0,0,0,0,0,0,0,0,-1,1364,1296,0,0
147,-272,0,0,0,0,0,0,0,0,0,-1,1371,1296,0,0
154,-272,0,0,0,0,0,0,0,0,0,-1,1378,1296,0,0
161,-272,0,0,0,0,0,0,0,0,0,-1,1385,1296,0,0
168,-272,0,0,0,0,0,0,0,0,0,-1,1392,1296,0,0
175,-272,0,0,0,0,0,0,0,0,0,-1,1399,1296,0,0
182,-272,0,0,0,0,0,0,0,0,0,-1,1406,1296,0,0
189,-272,0,0,0,0,0,0,0,0,0,-1,1413,1296,0,0
196,-272,0,0,0,0,0,0,0,0,0,-1,1420,1296,0,0
203,-272,0,0,0,0,0,0,0,0,0,-1,1427,1296,0,0
210,-272,0,0,0,0,0,0,0,0,0,-1,1434,1296,0,0
217,-272,0,0,0,0,0,0,0,0,0,-1,1441,1296,0,0
224,-272,0,0,0,0,0,0,0,0,0,-1,1448,1296,0,0
231,-272,0,0,0,0,0,0,0,0,0,-1,1455,1296,0,0
238,-272,0,0,0,0,0,0,0,0,0,-1,1462,1296,0,0
245,-272,0,0,0,0,0,0,0,0,0,-1,1469,1296,0,0
252,-272,0,0,0,0,0,0,0,0,0,-1,1476,1296,0,0
259,-272,0,0,0,0,0,0,0,0,0,-1,1483,1296,0,0
266,-272,0,0,0,0,0,0,0,0,0,-1,1490,1296,0,0
273,-272,0,0,0,0,0,0,0,0,0,-1,1497,1296,0,0
280,-272,0,0,0,0,0,0,0,0,0,-1,1504,1296,0,0
287,-272,0,0,0,0,0,0,0,0,0,-1,1511,1296,0,0
294,-272,0,0,0,0,0,0,0,0,0,-1,1518,1296,0,0
301,-272,0,0,0,0,0,0,0,0,0,-1,1525,1296,0,0
308,-272,0,0,0,0,0,0,0,0,0,-1,1532,1296,0,0
315,-272,0,0,0,0,0,0,0,0,0,-1,1539,1296,0,0
322,-272,0,0,0,0,0,0,0,0,0,-1,1546,1296,0,0
329,-272,0,0,0,0,0,0,0,0,0,-1,1553,1296,0,0
336,-272,0,0,0,0,0,0,0,0,0,-1,1560,1296,0,0
343,-272,0,0,0,0,0,0,0,0,0,-1,1567,1296,0,0
350,-272,0,0,0,0,0,0,0,0,0,-1,1574,1296,0,0
357,-272,0,0,0,0,0,0,0,0,0,-1,1581,1296,0,0
364,-272,0,0,0,0,0,0,0,0,0,-1,1588,1296,0,0
371,-272,0,0,0,0,0,0,0,0,0,-1,1595,1296,0,0
378,-272,0,0,0,0,0,0,0,0,0,-1,1602,1296,0,0
385,-272,0,0,0,0,0,0,0,0,0,-1,1609,1296,0,0
392,-272,0,0,0,0,0,0,0,0,0,-1,1616,1296,0,0
399,-272,0,0,0,0,0,0,0,0,0,-1,1623,1296,0,0
406,-272,0,0,0,0,0,0,0,0,0,-1,1630,1296,0,0
413,-272,0,0,0,0,0,0,0,0,0,-1,1637,1296,0,0
420,-272,0,0,0,0,0,0,0,0,0,-1,1644,1296,0,0
427,-272,0,0,0,0,0,0,0,0,0,-1,1651,1296,0,0
434,-272,0,0,0,0,0,0,0,0,0,-1,1658,1296,0,0
441,-272,0,0,0,0,0,0,0,0,0,-1,1665,1296,0,0
448,-272,0,0,0,0,0,0,0,0,0,-1,1672,1296,0,0
455,-272,0,0,0,0,0,0,0,0,0,-1,1679,1296,0,0
462,-272,0,0,0,0,0,0,0,0,0,-1,1686,1296,0,0
469,-272,0,0,0,0,0,0,0,0,0,-1,1693,1296,0,0
476,-272,0,0,0,0,0,0,0,0,0,-1,1700,1296,0,0
483,-272,0,0,0,0,0,0,0,0,0,-1,1707,1296,0,0
490,-272,0,0,0,0,0,0,0,0,0,-1,1714,1296,0,0
497,-272,0,0,0,0,0,0,0,0,0,-1,1721,1296,0,0
504,-272,0,0,0,0,0,0,0,0,0,-1,1728,1296,0,0
511,-272,0,0,0,0,0,0,0,0,0,-1,1735,1296,0,0
518,-272,0,0,0,0,0,0,0,0,0,-1,1742,1296,0,0
525,-272,0,0,0,0,0,0,0,0,0,-1,1749,1296,0,0
532,-272,0,0,0,0,0,0,0,0,0,-1,1756,1296,0,0
539,-272,0,0,0,0,0,0,0,0,0,-1,1763,1296,0,0
546,-272,0,0,0,0,0,0,0,0,0,-1,1770,1296,0,0
553,-272,0,0,0,0,0,0,0,0,0,-1,1777,1296,0,0
560,-272,0,0,0,0,0,0,0,0,0,-1,1784,1296,0,0
567,-272,0,0,0,0,0,0,0,0,0,-1,1791,1296,0,0
574,-272,0,0,0,0,0,0,0,0,0,-1,1798,1296,0,0
581,-272,0,0,0,0,0,0,0,0,0,-1,1805,1296,0,0
588,-272,0,0,0,0,0,0,0,0,0,-1,1812,1296,0,0
595,-272,0,0,0,0,0,0,0,0,0,-1,1819,1296,0,0
602,-272,43.8623,2.62195,-0.00423168,0.00894034,-0.0116026,0.0156959,-0.0109872,-1.04354,0.0154852,0.0303952,1826,1296,43.8624,-2.6219
609,-272,43.8162,2.50854,-0.0109018,0.0103799,-0.00104217,0.0104308,-0.0109527,-1.52198,0.012347,0.0361155,1833,1296,43.8161,-2.5086
616,-272,43.8806,2.51257,-0.0168258,0.0108434,0.00861316,0.0133055,-0.0192879,1.29237,0.0189232,0.0429688,1840,1296,43.8806,-2.5126
623,-272,43.7837,2.9502,-0.0188743,0.0096324,0.0132582,0.0148454,-0.0240873,1.19617,0.0226879,0.0451163,1847,1296,43.7837,-2.95024
630,-272,43.5774,3.27551,-0.0176355,0.00793479,0.0136633,0.0138618,-0.0235625,1.1615,0.0218476,0.0422225,1854,1296,43.5773,-3.27551
637,-272,43.5708,3.26453,-0.014877,0.00625497,0.0119317,0.0116266,-0.0202486,1.14778,0.0186262,0.0460003,1861,1296,43.5709,-3.2645
644,-272,43.7391,3.16553,0,0,0,0,0,0,0,-1,1868,1296,43.7391,-3.1655
651,-272,31.4108,2.48743,0,0,0,0,0,0,0,-1,1875,1296,31.4107,-2.48747
658,-272,35.1527,2.10571,0,0,0,0,0,0,0,-1,1882,1296,35.1527,-2.10573
665,-272,22.0238,4.14417,0,0,0,0,0,0,0,-1,1889,1296,22.0238,-4.14421
672,-272,22.661,7.21765,0,0,0,0,0,0,0,-1,1896,1296,22.661,-7.21761
679,-272,32.0009,9.77002,0,0,0,0,0,0,0,-1,1903,1296,32.0008,-9.76998
686,-272,31.9963,9.3125,-0.0010111,0.000622508,0.00155138,0.00155897,-0.00194757,1.02771,0.00202864,0.0220859,1910,1296,31.9964,-9.31249
693,-272,32.0127,8.86865,0.000153046,0.0011928,0.00125127,0.0020279,-0.000682053,0.982287,0.00162764,0.0124271,1917,1296,32.0127,-8.86865
700,-272,32.0281,8.44812,0.000489316,-0.000198705,0.000541257,0.000786634,-0.000496023,0.502314,0.000746852,0.0123277,1924,1296,32.028,-8.44812
707,-272,32.0247,8.0166,0.000346695,-0.000233605,0.000701443,0.000815629,-0.000702539,0.58929,0.000877325,0.011015,1931,1296,32.0247,-8.01664
714,-272,31.9938,7.60706,0.000195885,-0.000122312,0.000918581,0.000969044,-0.00089547,0.699648,0.00107676,0.011557,1938,1296,31.9938,-7.60704
721,-272,31.9565,7.23047,7.15391e-05,0.00011274,0.00137573,0.00146803,-0.00128375,0.792885,0.00158992,0.0141929,1945,1296,31.9566,-7.23042
728,-272,31.9524,6.79797,-8.05165e-05,0.000381435,0.00187705,0.00204167,-0.00174075,0.846617,0.00218608,0.0156845,1952,1296,31.9524,-6.79794
735,-272,31.9396,6.41028,5.26064e-06,0.000754282,0.00236806,0.00277726,-0.00201772,0.863824,0.00277994,0.0150167,1959,1296,31.9396,-6.41028
742,-272,31.8955,6.06104,0.000503701,0.00126055,0.00284869,0.00375584,-0.00199159,0.851432,0.00336999,0.0255847,1966,1296,31.8956,-6.061
749,-272,32.014,5.73047,0.00180409,0.00191592,0.00341881,0.00527927,-0.00155926,0.793575,0.00413837,0.0484914,1973,1296,32.014,-5.73043
756,-272,32.3713,5.49268,0,0,0,0,0,0,0,-1,1980,1296,32.3713,-5.49269
763,-272,31.1876,2.48035,0,0,0,0,0,0,0,-1,1987,1296,31.1877,-2.4804
770,-272,25.9485,3.67749,0,0,0,0,0,0,0,-1,1994,1296,25.9485,-3.67744
777,-272,32.3619,6.13257,0,0,0,0,0,0,0,-1,2001,1296,32.362,-6.1326
784,-272,0,0,0,0,0,0,0,0,0,-1,2008,1296,0,0
791,-272,0,0,0,0,0,0,0,0,0,-1,2015,1296,0,0
798,-272,0,0,0,0,0,0,0,0,0,-1,2022,1296,0,0
805,-272,0,0,0,0,0,0,0,0,0,-1,2029,1296,0,0
812,-272,0,0,0,0,0,0,0,0,0,-1,2036,1296,0,0
-700,-279,0,0,0,0,0,0,0,0,0,-1,524,1303,0,0
-693,-279,0,0,0,0,0,0,0,0,0,-1,531,1303,0,0
-686,-279,0,0,0,0,0,0,0,0,0,-1,538,1303,0,0
-679,-279,0,0,0,0,0,0,0,0,0,-1,545,1303,0,0
-672,-279,0,0,0,0,0,0,0,0,0,-1,552,1303,0,0
-665,-279,0,0,0,0,0,0,0,0,0,-1,559,1303,0,0
-658,-279,-18.0391,1.31946,0,0,0,0,0,0,0,-1,566,1303,-18.0391,-1.31942
-651,-279,-18.2878,1.5625,0,0,0,0,0,0,0,-1,573,1303,-18.2879,-1.56247
-644,-279,-19.7198,0.645874,0,0,0,0,0,0,0,-1,580,1303,-19.7198,-0.645909
-637,-279,-19.5298,0.346313,0,0,0,0,0,0,0,-1,587,1303,-19.5298,-0.346318
-630,-279,-19.8475,-0.60144,0,0,0,0,0,0,0,-1,594,1303,-19.8475,0.60148
-623,-279,-18.6263,2.42834,0,0,0,0,0,0,0,-1,601,1303,-18.6264,-2.4284
-616,-279,-19.1528,2.7085,0,0,0,0,0,0,0,-1,608,1303,-19.1528,-2.70852
-609,-279,-18.8528,3.3363,0,0,0,0,0,0,0,-1,615,1303,-18.8528,-3.33628
-602,-279,-18.6049,3.92065,0.00142578,0.00660797,0.00891744,0.0133031,-0.00526938,0.926787,0.0110522,0.0145476,622,1303,-18.6049,-3.92068
-595,-279,-18.6367,4.38672,0.00124817,0.00439678,0.00549541,0.00853894,-0.00289399,0.9249,0.00686376,0.0104299,629,1303,-18.6366,-4.38671
-588,-279,-18.6387,4.84937,0.0012551,0.00245036,0.00280317,0.0047189,-0.00101344,0.890425,0.00353254,0.0103811,636,1303,-18.6387,-4.84937
-581,-279,-18.6852,5.29004,0.00172965,0.00131335,0.00158003,0.00311518,-7.21834e-05,0.719907,0.00210126,0.011188,643,1303,-18.6852,-5.29003
-574,-279,-18.7182,5.74817,0.00250157,0.000498329,0.00124993,0.00310168,-0.000101789,0.447619,0.00210254,0.0121063,650,1303,-18.7182,-5.74814
-567,-279,-18.7086,6.22302,0.0033293,-0.000111642,0.00123243,0.00372517,-0.000507511,0.310801,0.00266875,0.01698,657,1303,-18.7086,-6.22304
-560,-279,-18.7172,6.72839,0.00405803,-0.000618985,0.00125373,0.00437291,-0.000933866,0.246065,0.0032713,0.0163975,664,1303,-18.7172,-6.72838
-553,-279,-18.7024,7.21289,0.00450897,-0.000925994,0.00119569,0.00476039,-0.00117741,0.207253,0.00363028,0.0126508,671,1303,-18.7024,-7.21283
-546,-279,-18.6536,7.68323,0.00454749,-0.00136401,0.00123356,0.00479457,-0.00161109,0.197683,0.00384754,0.0232096,678,1303,-18.6536,-7.68324
-539,-279,-18.8237,8.22266,0,0,0,0,0,0,0,-1,685,1303,-18.8237,-8.22268
-532,-279,-14.9813,7.89917,0,0,0,0,0,0,0,-1,692,1303,-14.9813,-7.89918
-525,-279,-11.7063,-0.539185,0,0,0,0,0,0,0,-1,699,1303,-11.7063,0.539166
-518,-279,-16.8138,1.11963,0,0,0,0,0,0,0,-1,706,1303,-16.8138,-1.11968
-511,-279,-20.1063,-1.37915,0,0,0,0,0,0,0,-1,713,1303,-20.1062,1.37918
-504,-279,-18.3766,1.04578,0,0,0,0,0,0,0,-1,720,1303,-18.3767,-1.04577
-497,-279,-19.0046,2.08911,0,0,0,0,0,0,0,-1,727,1303,-19.0046,-2.08905
-490,-279,-20.0176,2.55188,0,0,0,0,0,0,0,-1,734,1303,-20.0176,-2.55183
-483,-279,-20.8064,2.99792,0,0,0,0,0,0,0,-1,741,1303,-20.8064,-2.99797
-476,-279,0,0,0,0,0,0,0,0,0,-1,748,1303,0,0
-469,-279,0,0,0,0,0,0,0,0,0,-1,755,1303,0,0
-462,-279,0,0,0,0,0,0,0,0,0,-1,762,1303,0,0
-455,-279,0,0,0,0,0,0,0,0,0,-1,769,1303,0,0
-448,-279,0,0,0,0,0,0,0,0,0,-1,776,1303,0,0
-441,-279,0,0,0,0,0,0,0,0,0,-1,783,1303,0,0
-434,-279,0,0,0,0,0,0,0,0,0,-1,790,1303,0,0
-427,-279,0,0,0,0,0,0,0,0,0,-1,797,1303,0,0
-420,-279,0,0,0,0,0,0,0,0,0,-1,804,1303,0,0
-413,-279,0,0,0,0,0,0,0,0,0,-1,811,1303,0,0
-406,-279,0,0,0,0,0,0,0,0,0,-1,818,1303,0,0
-399,-279,0,0,0,0,0,0,0,0,0,-1,825,1303,0,0
-392,-279,0,0,0,0,0,0,0,0,0,-1,832,1303,0,0
-385,-279,0,0,0,0,0,0,0,0,0,-1,839,1303,0,0
-378,-279,0,0,0,0,0,0,0,0,0,-1,846,1303,0,0
-371,-279,0,0,0,0,0,0,0,0,0,-1,853,1303,0,0
-364,-279,0,0,0,0,0,0,0,0,0,-1,860,1303,0,0
-357,-279,0,0,0,0,0,0,0,0,0,-1,867,1303,0,0
-350,-279,0,0,0,0,0,0,0,0,0,-1,874,1303,0,0
-343,-279,0,0,0,0,0,0,0,0,0,-1,881,1303,0,0
-336,-279,0,0,0,0,0,0,0,0,0,-1,888,1303,0,0
-329,-279,0,0,0,0,0,0,0,0,0,-1,895,1303,0,0
-322,-279,0,0,0,0,0,0,0,0,0,-1,902,1303,0,0
-315,-279,0,0,0,0,0,0,0,0,0,-1,909,1303,0,0
-308,-279,0,0,0,0,0,0,0,0,0,-1,916,1303,0,0
-301,-279,0,0,0,0,0,0,0,0,0,-1,923,1303,0,0
-294,-279,0,0,0,0,0,0,0,0,0,-1,930,1303,0,0
-287,-279,0,0,0,0,0,0,0,0,0,-1,937,1303,0,0
-280,-279,0,0,0,0,0,0,0,0,0,-1,944,1303,0,0
-273,-279,0,0,0,0,0,0,0,0,0,-1,951,1303,0,0
-266,-279,0,0,0,0,0,0,0,0,0,-1,958,1303,0,0
-259,-279,0,0,0,0,0,0,0,0,0,-1,965,1303,0,0
-252,-279,0,0,0,0,0,0,0,0,0,-1,972,1303,0,0
-245,-279,0,0,0,0,0,0,0,0,0,-1,979,1303,0,0
-238,-279,0,0,0,0,0,0,0,0,0,-1,986,1303,0,0
-231,-279,0,0,0,0,0,0,0,0,0,-1,993,1303,0,0
-224,-279,0,0,0,0,0,0,0,0,0,-1,1000,1303,0,0
-217,-279,0,0,0,0,0,0,0,0,0,-1,1007,1303,0,0
-210,-279,0,0,0,0,0,0,0,0,0,-1,1014,1303,0,0
-203,-279,0,0,0,0,0,0,0,0,0,-1,1021,1303,0,0
-196,-279,0,0,0,0,0,0,0,0,0,-1,1028,1303,0,0
-189,-279,0,0,0,0,0,0,0,0,0,-1,1035,1303,0,0
-182,-279,0,0,0,0,0,0,0,0,0,-1,1042,1303,0,0
-175,-279,0,0,0,0,0,0,0,0,0,-1,1049,1303,0,0
-168,-279,0,0,0,0,0,0,0,0,0,-1,1056,1303,0,0
-161,-279,0,0,0,0,0,0,0,0,0,-1,1063,1303,0,0
-154,-279,0,0,0,0,0,0,0,0,0,-1,1070,1303,0,0
-147,-279,0,0,0,0,0,0,0,0,0,-1,1077,1303,0,0
-140,-279,0,0,0,0,0,0,0,0,0,-1,1084,1303,0,0
-133,-279,0,0,0,0,0,0,0,0,0,-1,1091,1303,0,0
-126,-279,0,0,0,0,0,0,0,0,0,-1,1098,1303,0,0
-119,-279,0,0,0,0,0,0,0,0,0,-1,1105,1303,0,0
-112,-279,0,0,0,0,0,0,0,0,0,-1,1112,1303,0,0
-105,-279,0,0,0,0,0,0,0,0,0,-1,1119,1303,0,0
-98,-279,0,0,0,0,0,0,0,0,0,-1,1126,1303,0,0
-91,-279,0,0,0,0,0,0,0,0,0,-1,1133,1303,0,0
-84,-279,0,0,0,0,0,0,0,0,0,-1,1140,1303,0,0
-77,-279,0,0,0,0,0,0,0,0,0,-1,1147,1303,0,0
-70,-279,0,0,0,0,0,0,0,0,0,-1,1154,1303,0,0
-63,-279,0,0,0,0,0,0,0,0,0,-1,1161,1303,0,0
-56,-279,0,0,0,0,0,0,0,0,0,-1,1168,1303,0,0
-49,-279,0,0,0,0,0,0,0,0,0,-1,1175,1303,0,0
-42,-279,0,0,0,0,0,0,0,0,0,-1,1182,1303,0,0
-35,-279,0,0,0,0,0,0,0,0,0,-1,1189,1303,0,0
-28,-279,0,0,0,0,0,0,0,0,0,-1,1196,1303,0,0
-21,-279,0,0,0,0,0,0,0,0,0,-1,1203,1303,0,0
-14,-279,0,0,0,0,0,0,0,0,0,-1,1210,1303,0,0
-7,-279,0,0,0,0,0,0,0,0,0,-1,1217,1303,0,0
0,-279,0,0,0,0,0,0,0,0,0,-1,1224,1303,0,0
7,-279,0,0,0,0,0,0,0,0,0,-1,1231,1303,0,0
14,-279,0,0,0,0,0,0,0,0,0,-1,1238,1303,0,0
21,-279,0,0,0,0,0,0,0,0,0,-1,1245,1303,0,0
28,-279,0,0,0,0,0,0,0,0,0,-1,1252,1303,0,0
35,-279,0,0,0,0,0,0,0,0,0,-1,1259,1303,0,0
42,-279,0,0,0,0,0,0,0,0,0,-1,1266,1303,0,0
49,-279,0,0,0,0,0,0,0,0,0,-1,1273,1303,0,0
56,-279,0,0,0,0,0,0,0,0,0,-1,1280,1303,0,0
63,-279,0,0,0,0,0,0,0,0,0,-1,1287,1303,0,0
70,-279,0,0,0,0,0,0,0,0,0,-1,1294,1303,0,0
77,-279,0,0,0,0,0,0,0,0,0,-1,1301,1303,0,0
84,-279,0,0,0,0,0,0,0,0,0,-1,1308,1303,0,0
91,-279,0,0,0,0,0,0,0,0,0,-1,1315,1303,0,0
98,-279,0,0,0,0,0,0,0,0,0,-1,1322,1303,0,0
105,-279,0,0,0,0,0,0,0,0,0,-1,1329,1303,0,0
112,-279,0,0,0,0,0,0,0,0,0,-1,1336,1303,0,0
119,-279,0,0,0,0,0,0,0,0,0,-1,1343,1303,0,0
126,-279,0,0,0,0,0,0,0,0,0,-1,1350,1303,0,0
133,-279,0,0,0,0,0,0,0,0,0,-1,1357,1303,0,0
140,-279,0,0,0,0,0,0,0,0,0,-1,1364,1303,0,0
147,-279,0,0,0,0,0,0,0,0,0,-1,1371,1303,0,0
154,-279,0,0,0,0,0,0,0,0,0,-1,1378,1303,0,0
161,-279,0,0,0,0,0,0,0,0,0,-1,1385,1303,0,0
168,-279,0,0,0,0,0,0,0,0,0,-1,1392,1303,0,0
175,-279,0,0,0,0,0,0,0,0,0,-1,1399,1303,0,0
182,-279,0,0,0,0,0,0,0,0,0,-1,1406,1303,0,0
189,-279,0,0,0,0,0,0,0,0,0,-1,1413,1303,0,0
196,-279,0,0,0,0,0,0,0,0,0,-1,1420,1303,0,0
203,-279,0,0,0,0,0,0,0,0,0,-1,1427,1303,0,0
210,-279,0,0,0,0,0,0,0,0,0,-1,1434,1303,0,0
217,-279,0,0,0,0,0,0,0,0,0,-1,1441,1303,0,0
224,-279,0,0,0,0,0,0,0,0,0,-1,1448,1303,0,0
231,-279,0,0,0,0,0,0,0,0,0,-1,1455,1303,0,0
238,-279,0,0,0,0,0,0,0,0,0,-1,1462,1303,0,0
245,-279,0,0,0,0,0,0,0,0,0,-1,1469,1303,0,0
252,-279,0,0,0,0,0,0,0,0,0,-1,1476,1303,0,0
259,-279,0,0,0,0,0,0,0,0,0,-1,1483,1303,0,0
266,-279,0,0,0,0,0,0,0,0,0,-1,1490,1303,0,0
273,-279,0,0,0,0,0,0,0,0,0,-1,1497,1303,0,0
280,-279,0,0,0,0,0,0,0,0,0,-1,1504,1303,0,0
287,-279,0,0,0,0,0,0,0,0,0,-1,1511,1303,0,0
294,-279,0,0,0,0,0,0,0,0,0,-1,1518,1303,0,0
301,-279,0,0,0,0,0,0,0,0,0,-1,1525,1303,0,0
308,-279,0,0,0,0,0,0,0,0,0,-1,1532,1303,0,0
315,-279,0,0,0,0,0,0,0,0,0,-1,1539,1303,0,0
322,-279,0,0,0,0,0,0,0,0,0,-1,1546,1303,0,0
329,-279,0,0,0,0,0,0,0,0,0,-1,1553,1303,0,0
336,-279,0,0,0,0,0,0,0,0,0,-1,1560,1303,0,0
343,-279,0,0,0,0,0,0,0,0,0,-1,1567,1303,0,0
350,-279,0,0,0,0,0,0,0,0,0,-1,1574,1303,0,0
357,-279,0,0,0,0,0,0,0,0,0,-1,1581,1303,0,0
364,-279,0,0,0,0,0,0,0,0,0,-1,1588,1303,0,0
371,-279,0,0,0,0,0,0,0,0,0,-1,1595,1303,0,0
378,-279,0,0,0,0,0,0,0,0,0,-1,1602,1303,0,0
385,-279,0,0,0,0,0,0,0,0,0,-1,1609,1303,0,0
392,-279,0,0,0,0,0,0,0,0,0,-1,1616,1303,0,0
399,-279,0,0,0,0,0,0,0,0,0,-1,1623,1303,0,0
406,-279,0,0,0,0,0,0,0,0,0,-1,1630,1303,0,0
413,-279,0,0,0,0,0,0,0,0,0,-1,1637,1303,0,0
420,-279,0,0,0,0,0,0,0,0,0,-1,1644,1303,0,0
427,-279,0,0,0,0,0,0,0,0,0,-1,1651,1303,0,0
434,-279,0,0,0,0,0,0,0,0,0,-1,1658,1303,0,0
441,-279,0,0,0,0,0,0,0,0,0,-1,1665,1303,0,0
448,-279,0,0,0,0,0,0,0,0,0,-1,1672,1303,0,0
455,-279,0,0,0,0,0,0,0,0,0,-1,1679,1303,0,0
462,-279,0,0,0,0,0,0,0,0,0,-1,1686,1303,0,0
469,-279,0,0,0,0,0,0,0,0,0,-1,1693,1303,0,0
476,-279,0,0,0,0,0,0,0,0,0,-1,1700,1303,0,0
483,-279,0,0,0,0,0,0,0,0,0,-1,1707,1303,0,0
490,-279,0,0,0,0,0,0,0,0,0,-1,1714,1303,0,0
497,-279,0,0,0,0,0,0,0,0,0,-1,1721,1303,0,0
504,-279,0,0,0,0,0,0,0,0,0,-1,1728,1303,0,0
511,-279,0,0,0,0,0,0,0,0,0,-1,1735,1303,0,0
518,-279,0,0,0,0,0,0,0,0,0,-1,1742,1303,0,0
525,-279,0,0,0,0,0,0,0,0,0,-1,1749,1303,0,0
532,-279,0,0,0,0,0,0,0,0,0,-1,1756,1303,0,0
539,-279,0,0,0,0,0,0,0,0,0,-1,1763,1303,0,0
546,-279,0,0,0,0,0,0,0,0,0,-1,1770,1303,0,0
553,-279,0,0,0,0,0,0,0,0,0,-1,1777,1303,0,0
560,-279,0,0,0,0,0,0,0,0,0,-1,1784,1303,0,0
567,-279,0,0,0,0,0,0,0,0,0,-1,1791,1303,0,0
574,-279,0,0,0,0,0,0,0,0,0,-1,1798,1303,0,0
581,-279,0,0,0,0,0,0,0,0,0,-1,1805,1303,0,0
588,-279,0,0,0,0,0,0,0,0,0,-1,1812,1303,0,0
595,-279,0,0,0,0,0,0,0,0,0,-1,1819,1303,0,0
602,-279,43.8134,2.49341,-0.00679049,0.00753875,-0.0105607,0.0131358,-0.0123875,-1.08345,0.014738,0.0404409,1826,1303,43.8133,-2.49336
609,-279,43.6755,2.18323,-0.0143627,0.0101764,0.00156852,0.0102762,-0.0144625,1.50722,0.0143509,0.0464527,1833,1303,43.6755,-2.18324
616,-279,43.5801,2.38513,-0.0193681,0.0110005,0.0105109,0.0142835,-0.0226511,1.26805,0.0215059,0.0472316,1840,1303,43.5801,-2.38517
623,-279,43.7548,3.22864,0,0,0,0,0,0,0,-1,1847,1303,43.7548,-3.22866
630,-279,43.3452,3.63123,0,0,0,0,0,0,0,-1,1854,1303,43.3452,-3.63125
637,-279,43.4884,3.44836,0,0,0,0,0,0,0,-1,1861,1303,43.4884,-3.44839
644,-279,33.5021,3.40234,0,0,0,0,0,0,0,-1,1868,1303,33.5021,-3.40237
651,-279,29.8456,2.3562,0,0,0,0,0,0,0,-1,1875,1303,29.8455,-2.35615
658,-279,21.5076,7.65649,0,0,0,0,0,0,0,-1,1882,1303,21.5076,-7.65648
665,-279,18.9794,6.09607,0,0,0,0,0,0,0,-1,1889,1303,18.9793,-6.09601
672,-279,23.5206,8.32507,0,0,0,0,0,0,0,-1,1896,1303,23.5206,-8.32512
679,-279,31.3824,9.90613,0,0,0,0,0,0,0,-1,1903,1303,31.3825,-9.90613
686,-279,31.5925,9.30994,0.000111053,0.000322429,0.00104472,0.00126679,-0.00083331,0.835809,0.00122107,0.0251829,1910,1303,31.5925,-9.30997
693,-279,31.58,8.88428,0.00110701,0.000980531,0.000723529,0.00177006,0.000317485,0.741806,0.00108974,0.0169779,1917,1303,31.5799,-8.88425
700,-279,31.589,8.47021,0.00109065,-0.000170291,0.000246741,0.00113721,-0.000216854,0.186518,0.000839811,0.0122181,1924,1303,31.589,-8.47017
707,-279,31.5815,8.04175,0.000651672,-0.000180872,0.000543682,0.000920143,-0.000449342,0.458676,0.000806096,0.00946318,1931,1303,31.5816,-8.04172
714,-279,31.5494,7.60986,0.000319565,-6.2962e-05,0.000884445,0.00103319,-0.000776588,0.678912,0.00104837,0.0103555,1938,1303,31.5494,-7.60985
721,-279,31.558,7.20386,4.19523e-05,0.000120252,0.00137109,0.00145276,-0.00129055,0.799671,0.00158477,0.0132526,1945,1303,31.558,-7.20388
728,-279,31.5791,6.81799,-0.00017482,0.000328701,0.00187081,0.00196461,-0.00181073,0.852283,0.0021803,0.0145581,1952,1303,31.5791,-6.81801
735,-279,31.5375,6.42834,-0.000177977,0.000651326,0.00232031,0.00259375,-0.0021204,0.873817,0.00272628,0.0147596,1959,1303,31.5375,-6.42833
742,-279,31.4237,6.02454,0.000182765,0.00107581,0.00275351,0.00341877,-0.00216019,0.865781,0.00324822,0.0320778,1966,1303,31.4237,-6.02457
749,-279,31.4994,5.54724,0,0,0,0,0,0,0,-1,1973,1303,31.4994,-5.5473
756,-279,23.2091,4.43433,0,0,0,0,0,0,0,-1,1980,1303,23.2092,-4.43432
763,-279,27.1613,3.46265,0,0,0,0,0,0,0,-1,1987,1303,27.1613,-3.4627
770,-279,21.5828,3.54199,0,0,0,0,0,0,0,-1,1994,1303,21.5827,-3.54198
777,-279,32.5369,6.99609,0,0,0,0,0,0,0,-1,2001,1303,32.5369,-6.99608
784,-279,0,0,0,0,0,0,0,0,0,-1,2008,1303,0,0
791,-279,0,0,0,0,0,0,0,0,0,-1,2015,1303,0,0
798,-279,0,0,0,0,0,0,0,0,0,-1,2022,1303,0,0
805,-279,0,0,0,0,0,0,0,0,0,-1,2029,1303,0,0
812,-279,0,0,0,0,0,0,0,0,0,-1,2036,1303,0,0
-700,-286,0,0,0,0,0,0,0,0,0,-1,524,1310,0,0
-693,-286,0,0,0,0,0,0,0,0,0,-1,531,1310,0,0
-686,-286,0,0,0,0,0,0,0,0,0,-1,538,1310,0,0
-679,-286,0,0,0,0,0,0,0,0,0,-1,545,1310,0,0
-672,-286,0,0,0,0,0,0,0,0,0,-1,552,1310,0,0
-665,-286,0,0,0,0,0,0,0,0,0,-1,559,1310,0,0
-658,-286,-18.8017,-0.794922,0,0,0,0,0,0,0,-1,566,1310,-18.8017,0.79496
-651,-286,-18.798,0.594727,0,0,0,0,0,0,0,-1,573,1310,-18.798,-0.594671
-644,-286,-19.1089,1.80017,0,0,0,0,0,0,0,-1,580,1310,-19.1089,-1.80021
-637,-286,-19.4593,2.65125,0,0,0,0,0,0,0,-1,587,1310,-19.4593,-2.65124
-630,-286,-19.6556,3.39246,0,0,0,0,0,0,0,-1,594,1310,-19.6556,-3.39242
-623,-286,-20.1415,-1.72998,0,0,0,0,0,0,0,-1,601,1310,-20.1415,1.72995
-616,-286,-18.5149,1.88867,0,0,0,0,0,0,0,-1,608,1310,-18.5149,-1.88872
-609,-286,-18.2808,3.20105,0,0,0,0,0,0,0,-1,615,1310,-18.2808,-3.20104
-602,-286,-18.1579,3.83264,0.00167987,0.0067892,0.00907958,0.0136667,-0.00519759,0.922535,0.0112512,0.0196361,622,1310,-18.1579,-3.83267
-595,-286,-18.1843,4.37634,0.00133399,0.00454297,0.00554311,0.00870913,-0.00283217,0.926276,0.00694537,0.0121593,629,1310,-18.1843,-4.37629
-588,-286,-18.1816,4.83972,0.00118381,0.00260328,0.00282341,0.00480479,-0.00101771,0.908534,0.00359083,0.0123254,636,1310,-18.1816,-4.83974
-581,-286,-18.1825,5.30005,0.00146767,0.00149403,0.0015671,0.003048,-8.63047e-05,0.789602,0.00206137,0.0136463,643,1310,-18.1825,-5.30004
-574,-286,-18.2195,5.76636,0.00203014,0.000715119,0.00116342,0.00270899,3.62663e-05,0.528197,0.00179403,0.0140608,650,1310,-18.2195,-5.7663
-567,-286,-18.2422,6.24841,0.0026305,8.93614e-05,0.00103167,0.0029966,-0.000276739,0.341,0.00209608,0.014349,657,1310,-18.2423,-6.24846
-560,-286,-18.2354,6.73889,0.00330148,-0.000427401,0.00100984,0.0035574,-0.000683316,0.248197,0.00262914,0.0143809,664,1310,-18.2354,-6.73886
-553,-286,-18.2415,7.21936,0.00397051,-0.000830172,0.000986981,0.00416551,-0.00102517,0.195055,0.0031744,0.0105612,671,1310,-18.2415,-7.21933
-546,-286,-18.2151,7.72131,0.00443256,-0.00125014,0.00107224,0.00462815,-0.00144572,0.180423,0.00366369,0.017923,678,1310,-18.2151,-7.72126
-539,-286,-18.2307,8.17737,0.00498178,-0.00188488,0.0011376,0.00516534,-0.00206844,0.159978,0.00430212,0.0422168,685,1310,-18.2307,-8.17742
-532,-286,-18.1465,8.61353,0,0,0,0,0,0,0,-1,692,1310,-18.1466,-8.61358
-525,-286,-11.4528,-1.11768,0,0,0,0,0,0,0,-1,699,1310,-11.4528,1.11769
-518,-286,-11.0701,1.37329,0,0,0,0,0,0,0,-1,706,1310,-11.0701,-1.37332
-511,-286,-17.7545,-0.0791016,0,0,0,0,0,0,0,-1,713,1310,-17.7544,0.0791606
-504,-286,-18.0455,1.29602,0,0,0,0,0,0,0,-1,720,1310,-18.0455,-1.29601
-497,-286,-18.3367,2.67114,0,0,0,0,0,0,0,-1,727,1310,-18.3366,-2.67118
-490,-286,-19.5795,2.47266,0,0,0,0,0,0,0,-1,734,1310,-19.5795,-2.4727
-483,-286,-19.7277,2.74744,0,0,0,0,0,0,0,-1,741,1310,-19.7277,-2.74747
-476,-286,-20.0391,3.06177,0,0,0,0,0,0,0,-1,748,1310,-20.0391,-3.06178
-469,-286,0,0,0,0,0,0,0,0,0,-1,755,1310,0,0
-462,-286,0,0,0,0,0,0,0,0,0,-1,762,1310,0,0
-455,-286,0,0,0,0,0,0,0,0,0,-1,769,1310,0,0
-448,-286,0,0,0,0,0,0,0,0,0,-1,776,1310,0,0
-441,-286,0,0,0,0,0,0,0,0,0,-1,783,1310,0,0
-434,-286,0,0,0,0,0,0,0,0,0,-1,790,1310,0,0
-427,-286,0,0,0,0,0,0,0,0,0,-1,797,1310,0,0
-420,-286,0,0,0,0,0,0,0,0,0,-1,804,1310,0,0
-413,-286,0,0,0,0,0,0,0,0,0,-1,811,1310,0,0
-406,-286,0,0,0,0,0,0,0,0,0,-1,818,1310,0,0
-399,-286,0,0,0,0,0,0,0,0,0,-1,825,1310,0,0
-392,-286,0,0,0,0,0,0,0,0,0,-1,832,1310,0,0
-385,-286,0,0,0,0,0,0,0,0,0,-1,839,1310,0,0
-378,-286,0,0,0,0,0,0,0,0,0,-1,846,1310,0,0
-371,-286,0,0,0,0,0,0,0,0,0,-1,853,1310,0,0
-364,-286,0,0,0,0,0,0,0,0,0,-1,860,1310,0,0
-357,-286,0,0,0,0,0,0,0,0,0,-1,867,1310,0,0
-350,-286,0,0,0,0,0,0,0,0,0,-1,874,1310,0,0
-343,-286,0,0,0,0,0,0,0,0,0,-1,881,1310,0,0
-336,-286,0,0,0,0,0,0,0,0,0,-1,888,1310,0,0
-329,-286,0,0,0,0,0,0,0,0,0,-1,895,1310,0,0
-322,-286,0,0,0,0,0,0,0,0,0,-1,902,1310,0,0
-315,-286,0,0,0,0,0,0,0,0,0,-1,909,1310,0,0
-308,-286,0,0,0,0,0,0,0,0,0,-1,916,1310,0,0
-301,-286,0,0,0,0,0,0,0,0,0,-1,923,1310,0,0
-294,-286,0,0,0,0,0,0,0,0,0,-1,930,1310,0,0
-287,-286,0,0,0,0,0,0,0,0,0,-1,937,1310,0,0
-280,-286,0,0,0,0,0,0,0,0,0,-1,944,1310,0,0
-273,-286,0,0,0,0,0,0,0,0,0,-1,951,1310,0,0
-266,-286,0,0,0,0,0,0,0,0,0,-1,958,1310,0,0
-259,-286,0,0,0,0,0,0,0,0,0,-1,965,1310,0,0
-252,-286,0,0,0,0,0,0,0,0,0,-1,972,1310,0,0
-245,-286,0,0,0,0,0,0,0,0,0,-1,979,1310,0,0
-238,-286,0,0,0,0,0,0,0,0,0,-1,986,1310,0,0
-231,-286,0,0,0,0,0,0,0,0,0,-1,993,1310,0,0
-224,-286,0,0,0,0,0,0,0,0,0,-1,1000,1310,0,0
-217,-286,0,0,0,0,0,0,0,0,0,-1,1007,1310,0,0
-210,-286,0,0,0,0,0,0,0,0,0,-1,1014,1310,0,0
-203,-286,0,0,0,0,0,0,0,0,0,-1,1021,1310,0,0
-196,-286,0,0,0,0,0,0,0,0,0,-1,1028,1310,0,0
-189,-286,0,0,0,0,0,0,0,0,0,-1,1035,1310,0,0
-182,-286,0,0,0,0,0,0,0,0,0,-1,1042,1310,0,0
-175,-286,0,0,0,0,0,0,0,0,0,-1,1049,1310,0,0
-168,-286,0,0,0,0,0,0,0,0,0,-1,1056,1310,0,0
-161,-286,0,0,0,0,0,0,0,0,0,-1,1063,1310,0,0
-154,-286,0,0,0,0,0,0,0,0,0,-1,1070,1310,0,0
-147,-286,0,0,0,0,0,0,0,0,0,-1,1077,1310,0,0
-140,-286,0,0,0,0,0,0,0,0,0,-1,1084,1310,0,0
-133,-286,0,0,0,0,0,0,0,0,0,-1,1091,1310,0,0
-126,-286,0,0,0,0,0,0,0,0,0,-1,1098,1310,0,0
-119,-286,0,0,0,0,0,0,0,0,0,-1,1105,1310,0,0
-112,-286,0,0,0,0,0,0,0,0,0,-1,1112,1310,0,0
-105,-286,0,0,0,0,0,0,0,0,0,-1,1119,1310,0,0
-98,-286,0,0,0,0,0,0,0,0,0,-1,1126,1310,0,0
-91,-286,0,0,0,0,0,0,0,0,0,-1,1133,1310,0,0
-84,-286,0,0,0,0,0,0,0,0,0,-1,1140,1310,0,0
-77,-286,0,0,0,0,0,0,0,0,0,-1,1147,1310,0,0
-70,-286,0,0,0,0,0,0,0,0,0,-1,1154,1310,0,0
-63,-286,0,0,0,0,0,0,0,0,0,-1,1161,1310,0,0
-56,-286,0,0,0,0,0,0,0,0,0,-1,1168,1310,0,0
-49,-286,0,0,0,0,0,0,0,0,0,-1,1175,1310,0,0
-42,-286,0,0,0,0,0,0,0,0,0,-1,1182,1310,0,0
-35,-286,0,0,0,0,0,0,0,0,0,-1,1189,1310,0,0
-28,-286,0,0,0,0,0,0,0,0,0,-1,1196,1310,0,0
-21,-286,0,0,0,0,0,0,0,0,0,-1,1203,1310,0,0
-14,-286,0,0,0,0,0,0,0,0,0,-1,1210,1310,0,0
-7,-286,0,0,0,0,0,0,0,0,0,-1,1217,1310,0,0
0,-286,0,0,0,0,0,0,0,0,0,-1,1224,1310,0,0
7,-286,0,0,0,0,0,0,0,0,0,-1,1231,1310,0,0
14,-286,0,0,0,0,0,0,0,0,0,-1,1238,1310,0,0
21,-286,0,0,0,0,0,0,0,0,0,-1,1245,1310,0,0
28,-286,0,0,0,0,0,0,0,0,0,-1,1252,1310,0,0
35,-286,0,0,0,0,0,0,0,0,0,-1,1259,1310,0,0
42,-286,0,0,0,0,0,0,0,0,0,-1,1266,1310,0,0
49,-286,0,0,0,0,0,0,0,0,0,-1,1273,1310,0,0
56,-286,0,0,0,0,0,0,0,0,0,-1,1280,1310,0,0
63,-286,0,0,0,0,0,0,0,0,0,-1,1287,1310,0,0
70,-286,0,0,0,0,0,0,0,0,0,-1,1294,1310,0,0
77,-286,0,0,0,0,0,0,0,0,0,-1,1301,1310,0,0
84,-286,0,0,0,0,0,0,0,0,0,-1,1308,1310,0,0
91,-286,0,0,0,0,0,0,0,0,0,-1,1315,1310,0,0
98,-286,0,0,0,0,0,0,0,0,0,-1,1322,1310,0,0
105,-286,0,0,0,0,0,0,0,0,0,-1,1329,1310,0,0
112,-286,0,0,0,0,0,0,0,0,0,-1,1336,1310,0,0
119,-286,0,0,0,0,0,0,0,0,0,-1,1343,1310,0,0
126,-286,0,0,0,0,0,0,0,0,0,-1,1350,1310,0,0
133,-286,0,0,0,0,0,0,0,0,0,-1,1357,1310,0,0
140,-286,0,0,0,0,0,0,0,0,0,-1,1364,1310,0,0
147,-286,0,0,0,0,0,0,0,0,0,-1,1371,1310,0,0
154,-286,0,0,0,0,0,0,0,0,0,-1,1378,1310,0,0
161,-286,0,0,0,0,0,0,0,0,0,-1,1385,1310,0,0
168,-286,0,0,0,0,0,0,0,0,0,-1,1392,1310,0,0
175,-286,0,0,0,0,0,0,0,0,0,-1,1399,1310,0,0
182,-286,0,0,0,0,0,0,0,0,0,-1,1406,1310,0,0
189,-286,0,0,0,0,0,0,0,0,0,-1,1413,1310,0,0
196,-286,0,0,0,0,0,0,0,0,0,-1,1420,1310,0,0
203,-286,0,0,0,0,0,0,0,0,0,-1,1427,1310,0,0
210,-286,0,0,0,0,0,0,0,0,0,-1,1434,1310,0,0
217,-286,0,0,0,0,0,0,0,0,0,-1,1441,1310,0,0
224,-286,0,0,0,0,0,0,0,0,0,-1,1448,1310,0,0
231,-286,0,0,0,0,0,0,0,0,0,-1,1455,1310,0,0
238,-286,0,0,0,0,0,0,0,0,0,-1,1462,1310,0,0
245,-286,0,0,0,0,0,0,0,0,0,-1,1469,1310,0,0
252,-286,0,0,0,0,0,0,0,0,0,-1,1476,1310,0,0
259,-286,0,0,0,0,0,0,0,0,0,-1,1483,1310,0,0
266,-286,0,0,0,0,0,0,0,0,0,-1,1490,1310,0,0
273,-286,0,0,0,0,0,0,0,0,0,-1,1497,1310,0,0
280,-286,0,0,0,0,0,0,0,0,0,-1,1504,1310,0,0
287,-286,0,0,0,0,0,0,0,0,0,-1,1511,1310,0,0
294,-286,0,0,0,0,0,0,0,0,0,-1,1518,1310,0,0
301,-286,0,0,0,0,0,0,0,0,0,-1,1525,1310,0,0
308,-286,0,0,0,0,0,0,0,0,0,-1,1532,1310,0,0
315,-286,0,0,0,0,0,0,0,0,0,-1,1539,1310,0,0
322,-286,0,0,0,0,0,0,0,0,0,-1,1546,1310,0,0
329,-286,0,0,0,0,0,0,0,0,0,-1,1553,1310,0,0
336,-286,0,0,0,0,0,0,0,0,0,-1,1560,1310,0,0
343,-286,0,0,0,0,0,0,0,0,0,-1,1567,1310,0,0
350,-286,0,0,0,0,0,0,0,0,0,-1,1574,1310,0,0
357,-286,0,0,0,0,0,0,0,0,0,-1,1581,1310,0,0
364,-286,0,0,0,0,0,0,0,0,0,-1,1588,1310,0,0
371,-286,0,0,0,0,0,0,0,0,0,-1,1595,1310,0,0
378,-286,0,0,0,0,0,0,0,0,0,-1,1602,1310,0,0
385,-286,0,0,0,0,0,0,0,0,0,-1,1609,1310,0,0
392,-286,0,0,0,0,0,0,0,0,0,-1,1616,1310,0,0
399,-286,0,0,0,0,0,0,0,0,0,-1,1623,1310,0,0
406,-286,0,0,0,0,0,0,0,0,0,-1,1630,1310,0,0
413,-286,0,0,0,0,0,0,0,0,0,-1,1637,1310,0,0
420,-286,0,0,0,0,0,0,0,0,0,-1,1644,1310,0,0
427,-286,0,0,0,0,0,0,0,0,0,-1,1651,1310,0,0
434,-286,0,0,0,0,0,0,0,0,0,-1,1658,1310,0,0
441,-286,0,0,0,0,0,0,0,0,0,-1,1665,1310,0,0
448,-286,0,0,0,0,0,0,0,0,0,-1,1672,1310,0,0
455,-286,0,0,0,0,0,0,0,0,0,-1,1679,1310,0,0
462,-286,0,0,0,0,0,0,0,0,0,-1,1686,1310,0,0
469,-286,0,0,0,0,0,0,0,0,0,-1,1693,1310,0,0
476,-286,0,0,0,0,0,0,0,0,0,-1,1700,1310,0,0
483,-286,0,0,0,0,0,0,0,0,0,-1,1707,1310,0,0
490,-286,0,0,0,0,0,0,0,0,0,-1,1714,1310,0,0
497,-286,0,0,0,0,0,0,0,0,0,-1,1721,1310,0,0
504,-286,0,0,0,0,0,0,0,0,0,-1,1728,1310,0,0
511,-286,0,0,0,0,0,0,0,0,0,-1,1735,1310,0,0
518,-286,0,0,0,0,0,0,0,0,0,-1,1742,1310,0,0
525,-286,0,0,0,0,0,0,0,0,0,-1,1749,1310,0,0
532,-286,0,0,0,0,0,0,0,0,0,-1,1756,1310,0,0
539,-286,0,0,0,0,0,0,0,0,0,-1,1763,1310,0,0
546,-286,0,0,0,0,0,0,0,0,0,-1,1770,1310,0,0
553,-286,0,0,0,0,0,0,0,0,0,-1,1777,1310,0,0
560,-286,0,0,0,0,0,0,0,0,0,-1,1784,1310,0,0
567,-286,0,0,0,0,0,0,0,0,0,-1,1791,1310,0,0
574,-286,0,0,0,0,0,0,0,0,0,-1,1798,1310,0,0
581,-286,0,0,0,0,0,0,0,0,0,-1,1805,1310,0,0
588,-286,0,0,0,0,0,0,0,0,0,-1,1812,1310,0,0
595,-286,43.9409,2.51599,-0.00201126,0.00139528,-0.0215003,0.0212596,-0.0218756,-0.824926,0.024905,0.0406466,1819,1310,43.9409,-2.51596
602,-286,43.8344,2.23499,-0.00974078,0.00632307,-0.00822966,0.00979067,-0.0132084,-1.17202,0.0133273,0.0465662,1826,1310,43.8344,-2.23497
609,-286,43.5812,1.83557,-0.0176134,0.0100109,0.00462896,0.0107659,-0.0183685,1.40911,0.0170106,0.0452331,1833,1310,43.5812,-1.83553
616,-286,43.5524,1.86829,-0.0207044,0.010979,0.0113999,0.0146544,-0.0243798,1.25891,0.0227684,0.0449748,1840,1310,43.5524,-1.8683
623,-286,43.2435,2.84534,-0.0200114,0.0101559,0.0130897,0.0150436,-0.0248991,1.21343,0.0232938,0.0464144,1847,1310,43.2435,-2.84531
630,-286,42.8484,3.86011,-0.0179529,0.0088953,0.0128177,0.0140319,-0.0230895,1.18965,0.0216437,0.0486425,1854,1310,42.8484,-3.86009
637,-286,42.5616,4.76367,0,0,0,0,0,0,0,-1,1861,1310,42.5616,-4.76365
644,-286,25.6433,1.33862,0,0,0,0,0,0,0,-1,1868,1310,25.6433,-1.33858
651,-286,25.2507,1.88245,0,0,0,0,0,0,0,-1,1875,1310,25.2508,-1.88245
658,-286,25.9475,9.43689,0,0,0,0,0,0,0,-1,1882,1310,25.9475,-9.43693
665,-286,24.9838,8.03101,0,0,0,0,0,0,0,-1,1889,1310,24.9837,-8.03104
672,-286,31.035,10.3912,0,0,0,0,0,0,0,-1,1896,1310,31.035,-10.3912
679,-286,31.0842,9.83252,-0.00296034,-0.0011632,0.00377089,0.0018147,-0.00593824,0.902362,0.00468244,0.0488235,1903,1310,31.0842,-9.83255
686,-286,31.1849,9.33057,0.000193059,-2.94983e-05,0.000604544,0.000696481,-0.00053292,0.694382,0.000711886,0.0222163,1910,1310,31.1849,-9.33054
693,-286,31.1487,8.90955,0.000943782,0.000660884,0.000340112,0.00117069,0.00043398,0.588334,0.000683387,0.016866,1917,1310,31.1487,-8.90959
700,-286,31.1396,8.4729,0.00087003,-0.000145712,0.000113077,0.000882467,-0.000158148,0.109538,0.000647497,0.0119974,1924,1310,31.1397,-8.47295
707,-286,31.1431,8.0719,0.00052365,-0.000119593,0.000477836,0.000778021,-0.000373964,0.489184,0.000678599,0.00890272,1931,1310,31.143,-8.07194
714,-286,31.1158,7.63538,0.000259487,-9.90491e-06,0.000882335,0.00101735,-0.000767766,0.709654,0.00103399,0.00913367,1938,1310,31.1158,-7.63535
721,-286,31.1259,7.22253,-2.04924e-05,0.000121993,0.00135602,0.00140864,-0.00130714,0.811643,0.00156833,0.0114275,1945,1310,31.1259,-7.22253
728,-286,31.1353,6.83398,-0.00028045,0.0002571,0.00184805,0.00185582,-0.00187917,0.85761,0.00215641,0.0139497,1952,1310,31.1352,-6.83398
735,-286,31.1426,6.41028,-0.000386991,0.000520339,0.0022326,0.0023449,-0.00221155,0.885634,0.00263104,0.018972,1959,1310,31.1426,-6.41033
742,-286,31.1282,6.05859,-0.000257234,0.000830913,0.00258514,0.00292861,-0.00235493,0.889116,0.00305644,0.0447021,1966,1310,31.1281,-6.05857
749,-286,31.3232,5.65271,0,0,0,0,0,0,0,-1,1973,1310,31.3232,-5.65267
756,-286,24.8226,4.43481,0,0,0,0,0,0,0,-1,1980,1310,24.8227,-4.43479
763,-286,20.6671,3.99683,0,0,0,0,0,0,0,-1,1987,1310,20.6671,-3.99683
770,-286,23.9147,4.45679,0,0,0,0,0,0,0,-1,1994,1310,23.9146,-4.45675
777,-286,0,0,0,0,0,0,0,0,0,-1,2001,1310,0,0
784,-286,0,0,0,0,0,0,0,0,0,-1,2008,1310,0,0
791,-286,0,0,0,0,0,0,0,0,0,-1,2015,1310,0,0
798,-286,0,0,0,0,0,0,0,0,0,-1,2022,1310,0,0
805,-286,0,0,0,0,0,0,0,0,0,-1,2029,1310,0,0
812,-286,0,0,0,0,0,0,0,0,0,-1,2036,1310,0,0
-700,-293,0,0,0,0,0,0,0,0,0,-1,524,1317,0,0
-693,-293,0,0,0,0,0,0,0,0,0,-1,531,1317,0,0
-686,-293,0,0,0,0,0,0,0,0,0,-1,538,1317,0,0
-679,-293,0,0,0,0,0,0,0,0,0,-1,545,1317,0,0
-672,-293,0,0,0,0,0,0,0,0,0,-1,552,1317,0,0
-665,-293,0,0,0,0,0,0,0,0,0,-1,559,1317,0,0
-658,-293,0,0,0,0,0,0,0,0,0,-1,566,1317,0,0
-651,-293,-19.3986,0.230591,0,0,0,0,0,0,0,-1,573,1317,-19.3986,-0.230615
-644,-293,-19.6501,1.56128,0,0,0,0,0,0,0,-1,580,1317,-19.6502,-1.56126
-637,-293,-19.9641,2.40369,0,0,0,0,0,0,0,-1,587,1317,-19.9641,-2.4037
-630,-293,-20.2918,3.08264,0,0,0,0,0,0,0,-1,594,1317,-20.2918,-3.08267
-623,-293,-15.6058,0.229614,0,0,0,0,0,0,0,-1,601,1317,-15.6058,-0.229666
-616,-293,-15.5056,2.17737,0,0,0,0,0,0,0,-1,608,1317,-15.5055,-2.17742
-609,-293,-17.5815,3.01453,0,0,0,0,0,0,0,-1,615,1317,-17.5815,-3.01452
-602,-293,-17.5684,3.71936,0.00251686,0.00686051,0.00893711,0.0138859,-0.00450853,0.904594,0.0110705,0.0459965,622,1317,-17.5684,-3.71942
-595,-293,-17.7446,4.37354,0.0018847,0.00464265,0.00539205,0.00882926,-0.00230191,0.910586,0.00678491,0.0194863,629,1317,-17.7446,-4.37357
-588,-293,-17.7234,4.83325,0.00148107,0.00276983,0.00274834,0.00494832,-0.000697415,0.900549,0.00355423,0.0158395,636,1317,-17.7234,-4.83323
-581,-293,-17.7093,5.29504,0.00148803,0.00171733,0.00152064,0.00312764,7.77178e-05,0.823025,0.00205967,0.0170256,643,1317,-17.7093,-5.29509
-574,-293,-17.74,5.81873,0.00175471,0.000984519,0.00108546,0.00252136,0.000217866,0.614937,0.0016132,0.0154723,650,1317,-17.74,-5.81875
-567,-293,-17.7829,6.3042,0.00208028,0.000352488,0.000862826,0.00243736,-4.59293e-06,0.392389,0.00162644,0.0157166,657,1317,-17.7829,-6.30423
-560,-293,-17.7885,6.78223,0.00256124,-0.000156056,0.000782745,0.00277059,-0.000365405,0.261338,0.00198013,0.0164755,664,1317,-17.7885,-6.78223
-553,-293,-17.776,7.2356,0.0031876,-0.000573105,0.000771978,0.0033399,-0.000725405,0.194784,0.00250368,0.0112211,671,1317,-17.776,-7.23555
-546,-293,-17.7607,7.72485,0.00384848,-0.000788475,0.000840214,0.00399603,-0.000936026,0.173839,0.0030247,0.010918,678,1317,-17.7607,-7.72488
-539,-293,-17.7368,8.18555,0.00491728,-0.00111653,0.00106123,0.00509849,-0.00129774,0.169121,0.00390414,0.0344155,685,1317,-17.7367,-8.18559
-532,-293,-17.7025,8.55615,0,0,0,0,0,0,0,-1,692,1317,-17.7025,-8.55614
-525,-293,-8.20642,3.62256,0,0,0,0,0,0,0,-1,699,1317,-8.20639,-3.6226
-518,-293,-10.1053,0.314209,0,0,0,0,0,0,0,-1,706,1317,-10.1053,-0.314234
-511,-293,-11.6276,0.235352,0,0,0,0,0,0,0,-1,713,1317,-11.6276,-0.235372
-504,-293,-17.9086,1.25427,0,0,0,0,0,0,0,-1,720,1317,-17.9086,-1.25423
-497,-293,-18.8006,1.62122,0,0,0,0,0,0,0,-1,727,1317,-18.8006,-1.62119
-490,-293,-18.8961,1.99255,0,0,0,0,0,0,0,-1,734,1317,-18.8961,-1.99251
-483,-293,-19.0831,2.35498,0,0,0,0,0,0,0,-1,741,1317,-19.0831,-2.35497
-476,-293,-19.5228,2.61243,0,0,0,0,0,0,0,-1,748,1317,-19.5228,-2.61237
-469,-293,0,0,0,0,0,0,0,0,0,-1,755,1317,0,0
-462,-293,0,0,0,0,0,0,0,0,0,-1,762,1317,0,0
-455,-293,0,0,0,0,0,0,0,0,0,-1,769,1317,0,0
-448,-293,0,0,0,0,0,0,0,0,0,-1,776,1317,0,0
-441,-293,0,0,0,0,0,0,0,0,0,-1,783,1317,0,0
-434,-293,0,0,0,0,0,0,0,0,0,-1,790,1317,0,0
-427,-293,0,0,0,0,0,0,0,0,0,-1,797,1317,0,0
-420,-293,0,0,0,0,0,0,0,0,0,-1,804,1317,0,0
-413,-293,0,0,0,0,0,0,0,0,0,-1,811,1317,0,0
-406,-293,0,0,0,0,0,0,0,0,0,-1,818,1317,0,0
-399,-293,0,0,0,0,0,0,0,0,0,-1,825,1317,0,0
-392,-293,0,0,0,0,0,0,0,0,0,-1,832,1317,0,0
-385,-293,0,0,0,0,0,0,0,0,0,-1,839,1317,0,0
-378,-293,0,0,0,0,0,0,0,0,0,-1,846,1317,0,0
-371,-293,0,0,0,0,0,0,0,0,0,-1,853,1317,0,0
-364,-293,0,0,0,0,0,0,0,0,0,-1,860,1317,0,0
-357,-293,0,0,0,0,0,0,0,0,0,-1,867,1317,0,0
-350,-293,0,0,0,0,0,0,0,0,0,-1,874,1317,0,0
-343,-293,0,0,0,0,0,0,0,0,0,-1,881,1317,0,0
-336,-293,0,0,0,0,0,0,0,0,0,-1,888,1317,0,0
-329,-293,0,0,0,0,0,0,0,0,0,-1,895,1317,0,0
-322,-293,0,0,0,0,0,0,0,0,0,-1,902,1317,0,0
-315,-293,0,0,0,0,0,0,0,0,0,-1,909,1317,0,0
-308,-293,0,0,0,0,0,0,0,0,0,-1,916,1317,0,0
-301,-293,0,0,0,0,0,0,0,0,0,-1,923,1317,0,0
-294,-293,0,0,0,0,0,0,0,0,0,-1,930,1317,0,0
-287,-293,0,0,0,0,0,0,0,0,0,-1,937,1317,0,0
-280,-293,0,0,0,0,0,0,0,0,0,-1,944,1317,0,0
-273,-293,0,0,0,0,0,0,0,0,0,-1,951,1317,0,0
-266,-293,0,0,0,0,0,0,0,0,0,-1,958,1317,0,0
-259,-293,0,0,0,0,0,0,0,0,0,-1,965,1317,0,0
-252,-293,0,0,0,0,0,0,0,0,0,-1,972,1317,0,0
-245,-293,0,0,0,0,0,0,0,0,0,-1,979,1317,0,0
-238,-293,0,0,0,0,0,0,0,0,0,-1,986,1317,0,0
-231,-293,0,0,0,0,0,0,0,0,0,-1,993,1317,0,0
-224,-293,0,0,0,0,0,0,0,0,0,-1,1000,1317,0,0
-217,-293,0,0,0,0,0,0,0,0,0,-1,1007,1317,0,0
-210,-293,0,0,0,0,0,0,0,0,0,-1,1014,1317,0,0
-203,-293,0,0,0,0,0,0,0,0,0,-1,1021,1317,0,0
-196,-293,0,0,0,0,0,0,0,0,0,-1,1028,1317,0,0
-189,-293,0,0,0,0,0,0,0,0,0,-1,1035,1317,0,0
-182,-293,0,0,0,0,0,0,0,0,0,-1,1042,1317,0,0
-175,-293,0,0,0,0,0,0,0,0,0,-1,1049,1317,0,0
-168,-293,0,0,0,0,0,0,0,0,0,-1,1056,1317,0,0
-161,-293,0,0,0,0,0,0,0,0,0,-1,1063,1317,0,0
-154,-293,0,0,0,0,0,0,0,0,0,-1,1070,1317,0,0
-147,-293,0,0,0,0,0,0,0,0,0,-1,1077,1317,0,0
-140,-293,0,0,0,0,0,0,0,0,0,-1,1084,1317,0,0
-133,-293,0,0,0,0,0,0,0,0,0,-1,1091,1317,0,0
-126,-293,0,0,0,0,0,0,0,0,0,-1,1098,1317,0,0
-119,-293,0,0,0,0,0,0,0,0,0,-1,1105,1317,0,0
-112,-293,0,0,0,0,0,0,0,0,0,-1,1112,1317,0,0
-105,-293,0,0,0,0,0,0,0,0,0,-1,1119,1317,0,0
-98,-293,0,0,0,0,0,0,0,0,0,-1,1126,1317,0,0
-91,-293,0,0,0,0,0,0,0,0,0,-1,1133,1317,0,0
-84,-293,0,0,0,0,0,0,0,0,0,-1,1140,1317,0,0
-77,-293,0,0,0,0,0,0,0,0,0,-1,1147,1317,0,0
-70,-293,0,0,0,0,0,0,0,0,0,-1,1154,1317,0,0
-63,-293,0,0,0,0,0,0,0,0,0,-1,1161,1317,0,0
-56,-293,0,0,0,0,0,0,0,0,0,-1,1168,1317,0,0
-49,-293,0,0,0,0,0,0,0,0,0,-1,1175,1317,0,0
-42,-293,0,0,0,0,0,0,0,0,0,-1,1182,1317,0,0
-35,-293,0,0,0,0,0,0,0,0,0,-1,1189,1317,0,0
-28,-293,0,0,0,0,0,0,0,0,0,-1,1196,1317,0,0
-21,-293,0,0,0,0,0,0,0,0,0,-1,1203,1317,0,0
-14,-293,0,0,0,0,0,0,0,0,0,-1,1210,1317,0,0
-7,-293,0,0,0,0,0,0,0,0,0,-1,1217,1317,0,0
0,-293,0,0,0,0,0,0,0,0,0,-1,1224,1317,0,0
7,-293,0,0,0,0,0,0,0,0,0,-1,1231,1317,0,0
14,-293,0,0,0,0,0,0,0,0,0,-1,1238,1317,0,0
21,-293,0,0,0,0,0,0,0,0,0,-1,1245,1317,0,0
28,-293,0,0,0,0,0,0,0,0,0,-1,1252,1317,0,0
35,-293,0,0,0,0,0,0,0,0,0,-1,1259,1317,0,0
42,-293,0,0,0,0,0,0,0,0,0,-1,1266,1317,0,0
49,-293,0,0,0,0,0,0,0,0,0,-1,1273,1317,0,0
56,-293,0,0,0,0,0,0,0,0,0,-1,1280,1317,0,0
63,-293,0,0,0,0,0,0,0,0,0,-1,1287,1317,0,0
70,-293,0,0,0,0,0,0,0,0,0,-1,1294,1317,0,0
77,-293,0,0,0,0,0,0,0,0,0,-1,1301,1317,0,0
84,-293,0,0,0,0,0,0,0,0,0,-1,1308,1317,0,0
91,-293,0,0,0,0,0,0,0,0,0,-1,1315,1317,0,0
98,-293,0,0,0,0,0,0,0,0,0,-1,1322,1317,0,0
105,-293,0,0,0,0,0,0,0,0,0,-1,1329,1317,0,0
112,-293,0,0,0,0,0,0,0,0,0,-1,1336,1317,0,0
119,-293,0,0,0,0,0,0,0,0,0,-1,1343,1317,0,0
126,-293,0,0,0,0,0,0,0,0,0,-1,1350,1317,0,0
133,-293,0,0,0,0,0,0,0,0,0,-1,1357,1317,0,0
140,-293,0,0,0,0,0,0,0,0,0,-1,1364,1317,0,0
147,-293,0,0,0,0,0,0,0,0,0,-1,1371,1317,0,0
154,-293,0,0,0,0,0,0,0,0,0,-1,1378,1317,0,0
161,-293,0,0,0,0,0,0,0,0,0,-1,1385,1317,0,0
168,-293,0,0,0,0,0,0,0,0,0,-1,1392,1317,0,0
175,-293,0,0,0,0,0,0,0,0,0,-1,1399,1317,0,0
182,-293,0,0,0,0,0,0,0,0,0,-1,1406,1317,0,0
189,-293,0,0,0,0,0,0,0,0,0,-1,1413,1317,0,0
196,-293,0,0,0,0,0,0,0,0,0,-1,1420,1317,0,0
203,-293,0,0,0,0,0,0,0,0,0,-1,1427,1317,0,0
210,-293,0,0,0,0,0,0,0,0,0,-1,1434,1317,0,0
217,-293,0,0,0,0,0,0,0,0,0,-1,1441,1317,0,0
224,-293,0,0,0,0,0,0,0,0,0,-1,1448,1317,0,0
231,-293,0,0,0,0,0,0,0,0,0,-1,1455,1317,0,0
238,-293,0,0,0,0,0,0,0,0,0,-1,1462,1317,0,0
245,-293,0,0,0,0,0,0,0,0,0,-1,1469,1317,0,0
252,-293,0,0,0,0,0,0,0,0,0,-1,1476,1317,0,0
259,-293,0,0,0,0,0,0,0,0,0,-1,1483,1317,0,0
266,-293,0,0,0,0,0,0,0,0,0,-1,1490,1317,0,0
273,-293,0,0,0,0,0,0,0,0,0,-1,1497,1317,0,0
280,-293,0,0,0,0,0,0,0,0,0,-1,1504,1317,0,0
287,-293,0,0,0,0,0,0,0,0,0,-1,1511,1317,0,0
294,-293,0,0,0,0,0,0,0,0,0,-1,1518,1317,0,0
301,-293,0,0,0,0,0,0,0,0,0,-1,1525,1317,0,0
308,-293,0,0,0,0,0,0,0,0,0,-1,1532,1317,0,0
315,-293,0,0,0,0,0,0,0,0,0,-1,1539,1317,0,0
322,-293,0,0,0,0,0,0,0,0,0,-1,1546,1317,0,0
329,-293,0,0,0,0,0,0,0,0,0,-1,1553,1317,0,0
336,-293,0,0,0,0,0,0,0,0,0,-1,1560,1317,0,0
343,-293,0,0,0,0,0,0,0,0,0,-1,1567,1317,0,0
350,-293,0,0,0,0,0,0,0,0,0,-1,1574,1317,0,0
357,-293,0,0,0,0,0,0,0,0,0,-1,1581,1317,0,0
364,-293,0,0,0,0,0,0,0,0,0,-1,1588,1317,0,0
371,-293,0,0,0,0,0,0,0,0,0,-1,1595,1317,0,0
378,-293,0,0,0,0,0,0,0,0,0,-1,1602,1317,0,0
385,-293,0,0,0,0,0,0,0,0,0,-1,1609,1317,0,0
392,-293,0,0,0,0,0,0,0,0,0,-1,1616,1317,0,0
399,-293,0,0,0,0,0,0,0,0,0,-1,1623,1317,0,0
406,-293,0,0,0,0,0,0,0,0,0,-1,1630,1317,0,0
413,-293,0,0,0,0,0,0,0,0,0,-1,1637,1317,0,0
420,-293,0,0,0,0,0,0,0,0,0,-1,1644,1317,0,0
427,-293,0,0,0,0,0,0,0,0,0,-1,1651,1317,0,0
434,-293,0,0,0,0,0,0,0,0,0,-1,1658,1317,0,0
441,-293,0,0,0,0,0,0,0,0,0,-1,1665,1317,0,0
448,-293,0,0,0,0,0,0,0,0,0,-1,1672,1317,0,0
455,-293,0,0,0,0,0,0,0,0,0,-1,1679,1317,0,0
462,-293,0,0,0,0,0,0,0,0,0,-1,1686,1317,0,0
469,-293,0,0,0,0,0,0,0,0,0,-1,1693,1317,0,0
476,-293,0,0,0,0,0,0,0,0,0,-1,1700,1317,0,0
483,-293,0,0,0,0,0,0,0,0,0,-1,1707,1317,0,0
490,-293,0,0,0,0,0,0,0,0,0,-1,1714,1317,0,0
497,-293,0,0,0,0,0,0,0,0,0,-1,1721,1317,0,0
504,-293,0,0,0,0,0,0,0,0,0,-1,1728,1317,0,0
511,-293,0,0,0,0,0,0,0,0,0,-1,1735,1317,0,0
518,-293,0,0,0,0,0,0,0,0,0,-1,1742,1317,0,0
525,-293,0,0,0,0,0,0,0,0,0,-1,1749,1317,0,0
532,-293,0,0,0,0,0,0,0,0,0,-1,1756,1317,0,0
539,-293,0,0,0,0,0,0,0,0,0,-1,1763,1317,0,0
546,-293,0,0,0,0,0,0,0,0,0,-1,1770,1317,0,0
553,-293,0,0,0,0,0,0,0,0,0,-1,1777,1317,0,0
560,-293,0,0,0,0,0,0,0,0,0,-1,1784,1317,0,0
567,-293,0,0,0,0,0,0,0,0,0,-1,1791,1317,0,0
574,-293,0,0,0,0,0,0,0,0,0,-1,1798,1317,0,0
581,-293,0,0,0,0,0,0,0,0,0,-1,1805,1317,0,0
588,-293,0,0,0,0,0,0,0,0,0,-1,1812,1317,0,0
595,-293,44.0476,2.32166,0,0,0,0,0,0,0,-1,1819,1317,44.0476,-2.32162
602,-293,43.8817,2.00586,0,0,0,0,0,0,0,-1,1826,1317,43.8817,-2.00588
609,-293,43.5004,1.495,0,0,0,0,0,0,0,-1,1833,1317,43.5004,-1.49505
616,-293,44.2566,1.27771,-0.0195587,0.00981509,0.00945574,0.0125958,-0.0223394,1.28479,0.0204296,0.0459849,1840,1317,44.2565,-1.27769
623,-293,43.6747,2.255,-0.0186058,0.00959314,0.010603,0.0131351,-0.0221477,1.2484,0.0205909,0.0483537,1847,1317,43.6747,-2.25499
630,-293,42.5516,3.80127,-0.0170124,0.0088945,0.0108269,0.0128234,-0.0209413,1.22269,0.019681,0.0481072,1854,1317,42.5516,-3.80122
637,-293,42.7729,4.95544,0,0,0,0,0,0,0,-1,1861,1317,42.773,-4.95546
644,-293,24.4565,0.520752,0,0,0,0,0,0,0,-1,1868,1317,24.4566,-0.520709
651,-293,25.8926,9.51245,0,0,0,0,0,0,0,-1,1875,1317,25.8926,-9.51246
658,-293,25.4904,9.10205,0,0,0,0,0,0,0,-1,1882,1317,25.4904,-9.10209
665,-293,31.0778,10.4154,0,0,0,0,0,0,0,-1,1889,1317,31.0777,-10.4154
672,-293,30.8408,10.1989,-0.00605968,-0.00043515,0.00634922,0.00369675,-0.0101916,0.993878,0.00830555,0.0349427,1896,1317,30.8409,-10.1989
679,-293,30.783,9.75354,-0.00284222,-0.00148416,0.00320298,0.00111097,-0.00543735,0.889852,0.00404639,0.0148357,1903,1317,30.783,-9.75357
686,-293,30.7676,9.33374,0.00018116,-0.00038547,4.36898e-05,0.000184509,-0.000388819,0.0765021,0.000337944,0.0172062,1910,1317,30.7676,-9.33369
693,-293,30.7539,8.91687,0.000699918,0.000298523,-9.21305e-06,0.000700129,0.000298311,-0.0229365,0.000405689,0.0129688,1917,1317,30.7539,-8.91683
700,-293,30.724,8.47864,0.000635127,-0.00017158,4.71449e-05,0.000637872,-0.000174325,0.0581772,0.000493724,0.011305,1924,1317,30.724,-8.47867
707,-293,30.7136,8.07593,0.000423281,-0.000106645,0.000475407,0.000702576,-0.00038594,0.531168,0.000637256,0.0112888,1931,1317,30.7136,-8.0759
714,-293,30.6925,7.65894,0.000271813,1.08545e-05,0.000889897,0.00104075,-0.000758078,0.712605,0.00104282,0.00832203,1938,1317,30.6925,-7.65895
721,-293,30.7015,7.23596,9.49322e-05,0.000106504,0.00132773,0.00142846,-0.00122703,0.787577,0.00153462,0.0095556,1945,1317,30.7015,-7.23595
728,-293,30.7054,6.80334,-7.70113e-05,0.000201686,0.0017906,0.00185835,-0.00173368,0.824231,0.00207428,0.0112043,1952,1317,30.7055,-6.80331
735,-293,30.7089,6.35522,-7.14048e-05,0.000459658,0.00210195,0.00231278,-0.00192453,0.848229,0.00244983,0.0242382,1959,1317,30.7089,-6.3552
742,-293,30.8701,5.99658,0,0,0,0,0,0,0,-1,1966,1317,30.8701,-5.99653
749,-293,29.439,5.35339,0,0,0,0,0,0,0,-1,1973,1317,29.4389,-5.35334
756,-293,24.978,3.9718,0,0,0,0,0,0,0,-1,1980,1317,24.978,-3.97186
763,-293,26.6713,4.74097,0,0,0,0,0,0,0,-1,1987,1317,26.6713,-4.74098
770,-293,24.1349,4.69153,0,0,0,0,0,0,0,-1,1994,1317,24.1348,-4.69159
777,-293,0,0,0,0,0,0,0,0,0,-1,2001,1317,0,0
784,-293,0,0,0,0,0,0,0,0,0,-1,2008,1317,0,0
791,-293,0,0,0,0,0,0,0,0,0,-1,2015,1317,0,0
798,-293,0,0,0,0,0,0,0,0,0,-1,2022,1317,0,0
805,-293,0,0,0,0,0,0,0,0,0,-1,2029,1317,0,0
812,-293,0,0,0,0,0,0,0,0,0,-1,2036,1317,0,0
-700,-300,0,0,0,0,0,0,0,0,0,-1,524,1324,0,0
-693,-300,0,0,0,0,0,0,0,0,0,-1,531,1324,0,0
-686,-300,0,0,0,0,0,0,0,0,0,-1,538,1324,0,0
-679,-300,0,0,0,0,0,0,0,0,0,-1,545,1324,0,0
-672,-300,0,0,0,0,0,0,0,0,0,-1,552,1324,0,0
-665,-300,0,0,0,0,0,0,0,0,0,-1,559,1324,0,0
-658,-300,0,0,0,0,0,0,0,0,0,-1,566,1324,0,0
-651,-300,-20.1143,0.203857,0,0,0,0,0,0,0,-1,573,1324,-20.1142,-0.203872
-644,-300,-20.4374,1.17224,0,0,0,0,0,0,0,-1,580,1324,-20.4375,-1.17226
-637,-300,-20.7362,1.82813,0,0,0,0,0,0,0,-1,587,1324,-20.7362,-1.8281
-630,-300,-21.1108,2.26306,0,0,0,0,0,0,0,-1,594,1324,-21.1109,-2.2631
-623,-300,-12.7067,1.48462,0,0,0,0,0,0,0,-1,601,1324,-12.7067,-1.48462
-616,-300,-14.9988,1.68628,0,0,0,0,0,0,0,-1,608,1324,-14.9988,-1.68627
-609,-300,-15.5027,3.29907,0,0,0,0,0,0,0,-1,615,1324,-15.5027,-3.29902
-602,-300,-17.1041,3.63684,0,0,0,0,0,0,0,-1,622,1324,-17.1041,-3.63683
-595,-300,-17.3026,4.37451,0.00222444,0.00479778,0.00497539,0.00865018,-0.00162796,0.91193,0.00637906,0.0323054,629,1324,-17.3026,-4.37453
-588,-300,-17.2574,4.86597,0.00169813,0.00295628,0.00258064,0.00498341,-0.000329004,0.90495,0.00343719,0.0206002,636,1324,-17.2574,-4.86598
-581,-300,-17.2661,5.33655,0.0015786,0.00193463,0.0014963,0.00326347,0.000249765,0.844606,0.00209735,0.0195243,643,1324,-17.2661,-5.33657
-574,-300,-17.2687,5.84241,0.00170261,0.00121863,0.00112116,0.0026076,0.000313636,0.67911,0.00164386,0.015082,650,1324,-17.2687,-5.84245
-567,-300,-17.2899,6.31641,0.00192791,0.000603601,0.000895231,0.00237926,0.000152254,0.466977,0.00153794,0.0161096,657,1324,-17.2898,-6.31643
-560,-300,-17.3216,6.80176,0.00230529,8.97863e-05,0.000779683,0.00255217,-0.000157091,0.30665,0.00175615,0.0152043,664,1324,-17.3216,-6.80181
-553,-300,-17.3027,7.26379,0.00283867,-0.000341374,0.000744335,0.00300427,-0.000506973,0.218913,0.00219148,0.0103252,671,1324,-17.3027,-7.26383
-546,-300,-17.296,7.72375,0.00346544,-0.000633915,0.000800221,0.00361611,-0.000784585,0.186107,0.00271039,0.00824027,678,1324,-17.296,-7.72374
-539,-300,-17.2773,8.20776,0.00445439,-0.000995827,0.00100952,0.00463537,-0.00117681,0.177389,0.00354818,0.0203712,685,1324,-17.2774,-8.20781
-532,-300,-17.2485,8.65442,0,0,0,0,0,0,0,-1,692,1324,-17.2486,-8.65448
-525,-300,-13.5115,6.27783,0,0,0,0,0,0,0,-1,699,1324,-13.5115,-6.2778
-518,-300,-9.8349,-0.537109,0,0,0,0,0,0,0,-1,706,1324,-9.83487,0.537068
-511,-300,-12.8644,0.081665,0,0,0,0,0,0,0,-1,713,1324,-12.8644,-0.0817016
-504,-300,-13.4829,-0.165527,0,0,0,0,0,0,0,-1,720,1324,-13.4829,0.165544
-497,-300,-18.1063,0.956543,0,0,0,0,0,0,0,-1,727,1324,-18.1063,-0.9565
-490,-300,-18.2293,1.53625,0,0,0,0,0,0,0,-1,734,1324,-18.2293,-1.53626
-483,-300,-18.3522,1.61084,0,0,0,0,0,0,0,-1,741,1324,-18.3522,-1.6108
-476,-300,-18.7489,1.96387,0,0,0,0,0,0,0,-1,748,1324,-18.7489,-1.96387
-469,-300,0,0,0,0,0,0,0,0,0,-1,755,1324,0,0
-462,-300,0,0,0,0,0,0,0,0,0,-1,762,1324,0,0
-455,-300,0,0,0,0,0,0,0,0,0,-1,769,1324,0,0
-448,-300,0,0,0,0,0,0,0,0,0,-1,776,1324,0,0
-441,-300,0,0,0,0,0,0,0,0,0,-1,783,1324,0,0
-434,-300,0,0,0,0,0,0,0,0,0,-1,790,1324,0,0
-427,-300,0,0,0,0,0,0,0,0,0,-1,797,1324,0,0
-420,-300,0,0,0,0,0,0,0,0,0,-1,804,1324,0,0
-413,-300,0,0,0,0,0,0,0,0,0,-1,811,1324,0,0
-406,-300,0,0,0,0,0,0,0,0,0,-1,818,1324,0,0
-399,-300,0,0,0,0,0,0,0,0,0,-1,825,1324,0,0
-392,-300,0,0,0,0,0,0,0,0,0,-1,832,1324,0,0
-385,-300,0,0,0,0,0,0,0,0,0,-1,839,1324,0,0
-378,-300,0,0,0,0,0,0,0,0,0,-1,846,1324,0,0
-371,-300,0,0,0,0,0,0,0,0,0,-1,853,1324,0,0
-364,-300,0,0,0,0,0,0,0,0,0,-1,860,1324,0,0
-357,-300,0,0,0,0,0,0,0,0,0,-1,867,1324,0,0
-350,-300,0,0,0,0,0,0,0,0,0,-1,874,1324,0,0
-343,-300,0,0,0,0,0,0,0,0,0,-1,881,1324,0,0
-336,-300,0,0,0,0,0,0,0,0,0,-1,888,1324,0,0
-329,-300,0,0,0,0,0,0,0,0,0,-1,895,1324,0,0
-322,-300,0,0,0,0,0,0,0,0,0,-1,902,1324,0,0
-315,-300,0,0,0,0,0,0,0,0,0,-1,909,1324,0,0
-308,-300,0,0,0,0,0,0,0,0,0,-1,916,1324,0,0
-301,-300,0,0,0,0,0,0,0,0,0,-1,923,1324,0,0
-294,-300,0,0,0,0,0,0,0,0,0,-1,930,1324,0,0
-287,-300,0,0,0,0,0,0,0,0,0,-1,937,1324,0,0
-280,-300,0,0,0,0,0,0,0,0,0,-1,944,1324,0,0
-273,-300,0,0,0,0,0,0,0,0,0,-1,951,1324,0,0
-266,-300,0,0,0,0,0,0,0,0,0,-1,958,1324,0,0
-259,-300,0,0,0,0,0,0,0,0,0,-1,965,1324,0,0
-252,-300,0,0,0,0,0,0,0,0,0,-1,972,1324,0,0
-245,-300,0,0,0,0,0,0,0,0,0,-1,979,1324,0,0
-238,-300,0,0,0,0,0,0,0,0,0,-1,986,1324,0,0
-231,-300,0,0,0,0,0,0,0,0,0,-1,993,1324,0,0
-224,-300,0,0,0,0,0,0,0,0,0,-1,1000,1324,0,0
-217,-300,0,0,0,0,0,0,0,0,0,-1,1007,1324,0,0
-210,-300,0,0,0,0,0,0,0,0,0,-1,1014,1324,0,0
-203,-300,0,0,0,0,0,0,0,0,0,-1,1021,1324,0,0
-196,-300,0,0,0,0,0,0,0,0,0,-1,1028,1324,0,0
-189,-300,0,0,0,0,0,0,0,0,0,-1,1035,1324,0,0
-182,-300,0,0,0,0,0,0,0,0,0,-1,1042,1324,0,0
-175,-300,0,0,0,0,0,0,0,0,0,-1,1049,1324,0,0
-168,-300,0,0,0,0,0,0,0,0,0,-1,1056,1324,0,0
-161,-300,0,0,0,0,0,0,0,0,0,-1,1063,1324,0,0
-154,-300,0,0,0,0,0,0,0,0,0,-1,1070,1324,0,0
-147,-300,0,0,0,0,0,0,0,0,0,-1,1077,1324,0,0
-140,-300,0,0,0,0,0,0,0,0,0,-1,1084,1324,0,0
-133,-300,0,0,0,0,0,0,0,0,0,-1,1091,1324,0,0
-126,-300,0,0,0,0,0,0,0,0,0,-1,1098,1324,0,0
-119,-300,0,0,0,0,0,0,0,0,0,-1,1105,1324,0,0
-112,-300,0,0,0,0,0,0,0,0,0,-1,1112,1324,0,0
-105,-300,0,0,0,0,0,0,0,0,0,-1,1119,1324,0,0
-98,-300,0,0,0,0,0,0,0,0,0,-1,1126,1324,0,0
-91,-300,0,0,0,0,0,0,0,0,0,-1,1133,1324,0,0
-84,-300,0,0,0,0,0,0,0,0,0,-1,1140,1324,0,0
-77,-300,0,0,0,0,0,0,0,0,0,-1,1147,1324,0,0
-70,-300,0,0,0,0,0,0,0,0,0,-1,1154,1324,0,0
-63,-300,0,0,0,0,0,0,0,0,0,-1,1161,1324,0,0
-56,-300,0,0,0,0,0,0,0,0,0,-1,1168,1324,0,0
-49,-300,0,0,0,0,0,0,0,0,0,-1,1175,1324,0,0
-42,-300,0,0,0,0,0,0,0,0,0,-1,1182,1324,0,0
-35,-300,0,0,0,0,0,0,0,0,0,-1,1189,1324,0,0
-28,-300,0,0,0,0,0,0,0,0,0,-1,1196,1324,0,0
-21,-300,0,0,0,0,0,0,0,0,0,-1,1203,1324,0,0
-14,-300,0,0,0,0,0,0,0,0,0,-1,1210,1324,0,0
-7,-300,0,0,0,0,0,0,0,0,0,-1,1217,1324,0,0
0,-300,0,0,0,0,0,0,0,0,0,-1,1224,1324,0,0
7,-300,0,0,0,0,0,0,0,0,0,-1,1231,1324,0,0
14,-300,0,0,0,0,0,0,0,0,0,-1,1238,1324,0,0
21,-300,0,0,0,0,0,0,0,0,0,-1,1245,1324,0,0
28,-300,0,0,0,0,0,0,0,0,0,-1,1252,1324,0,0
35,-300,0,0,0,0,0,0,0,0,0,-1,1259,1324,0,0
42,-300,0,0,0,0,0,0,0,0,0,-1,1266,1324,0,0
49,-300,0,0,0,0,0,0,0,0,0,-1,1273,1324,0,0
56,-300,0,0,0,0,0,0,0,0,0,-1,1280,1324,0,0
63,-300,0,0,0,0,0,0,0,0,0,-1,1287,1324,0,0
70,-300,0,0,0,0,0,0,0,0,0,-1,1294,1324,0,0
77,-300,0,0,0,0,0,0,0,0,0,-1,1301,1324,0,0
84,-300,0,0,0,0,0,0,0,0,0,-1,1308,1324,0,0
91,-300,0,0,0,0,0,0,0,0,0,-1,1315,1324,0,0
98,-300,0,0,0,0,0,0,0,0,0,-1,1322,1324,0,0
105,-300,0,0,0,0,0,0,0,0,0,-1,1329,1324,0,0
112,-300,0,0,0,0,0,0,0,0,0,-1,1336,1324,0,0
119,-300,0,0,0,0,0,0,0,0,0,-1,1343,1324,0,0
126,-300,0,0,0,0,0,0,0,0,0,-1,1350,1324,0,0
133,-300,0,0,0,0,0,0,0,0,0,-1,1357,1324,0,0
140,-300,0,0,0,0,0,0,0,0,0,-1,1364,1324,0,0
147,-300,0,0,0,0,0,0,0,0,0,-1,1371,1324,0,0
154,-300,0,0,0,0,0,0,0,0,0,-1,1378,1324,0,0
161,-300,0,0,0,0,0,0,0,0,0,-1,1385,1324,0,0
168,-300,0,0,0,0,0,0,0,0,0,-1,1392,1324,0,0
175,-300,0,0,0,0,0,0,0,0,0,-1,1399,1324,0,0
182,-300,0,0,0,0,0,0,0,0,0,-1,1406,1324,0,0
189,-300,0,0,0,0,0,0,0,0,0,-1,1413,1324,0,0
196,-300,0,0,0,0,0,0,0,0,0,-1,1420,1324,0,0
203,-300,0,0,0,0,0,0,0,0,0,-1,1427,1324,0,0
210,-300,0,0,0,0,0,0,0,0,0,-1,1434,1324,0,0
217,-300,0,0,0,0,0,0,0,0,0,-1,1441,1324,0,0
224,-300,0,0,0,0,0,0,0,0,0,-1,1448,1324,0,0
231,-300,0,0,0,0,0,0,0,0,0,-1,1455,1324,0,0
238,-300,0,0,0,0,0,0,0,0,0,-1,1462,1324,0,0
245,-300,0,0,0,0,0,0,0,0,0,-1,1469,1324,0,0
252,-300,0,0,0,0,0,0,0,0,0,-1,1476,1324,0,0
259,-300,0,0,0,0,0,0,0,0,0,-1,1483,1324,0,0
266,-300,0,0,0,0,0,0,0,0,0,-1,1490,1324,0,0
273,-300,0,0,0,0,0,0,0,0,0,-1,1497,1324,0,0
280,-300,0,0,0,0,0,0,0,0,0,-1,1504,1324,0,0
287,-300,0,0,0,0,0,0,0,0,0,-1,1511,1324,0,0
294,-300,0,0,0,0,0,0,0,0,0,-1,1518,1324,0,0
301,-300,0,0,0,0,0,0,0,0,0,-1,1525,1324,0,0
308,-300,0,0,0,0,0,0,0,0,0,-1,1532,1324,0,0
315,-300,0,0,0,0,0,0,0,0,0,-1,1539,1324,0,0
322,-300,0,0,0,0,0,0,0,0,0,-1,1546,1324,0,0
329,-300,0,0,0,0,0,0,0,0,0,-1,1553,1324,0,0
336,-300,0,0,0,0,0,0,0,0,0,-1,1560,1324,0,0
343,-300,0,0,0,0,0,0,0,0,0,-1,1567,1324,0,0
350,-300,0,0,0,0,0,0,0,0,0,-1,1574,1324,0,0
357,-300,0,0,0,0,0,0,0,0,0,-1,1581,1324,0,0
364,-300,0,0,0,0,0,0,0,0,0,-1,1588,1324,0,0
371,-300,0,0,0,0,0,0,0,0,0,-1,1595,1324,0,0
378,-300,0,0,0,0,0,0,0,0,0,-1,1602,1324,0,0
385,-300,0,0,0,0,0,0,0,0,0,-1,1609,1324,0,0
392,-300,0,0,0,0,0,0,0,0,0,-1,1616,1324,0,0
399,-300,0,0,0,0,0,0,0,0,0,-1,1623,1324,0,0
406,-300,0,0,0,0,0,0,0,0,0,-1,1630,1324,0,0
413,-300,0,0,0,0,0,0,0,0,0,-1,1637,1324,0,0
420,-300,0,0,0,0,0,0,0,0,0,-1,1644,1324,0,0
427,-300,0,0,0,0,0,0,0,0,0,-1,1651,1324,0,0
434,-300,0,0,0,0,0,0,0,0,0,-1,1658,1324,0,0
441,-300,0,0,0,0,0,0,0,0,0,-1,1665,1324,0,0
448,-300,0,0,0,0,0,0,0,0,0,-1,1672,1324,0,0
455,-300,0,0,0,0,0,0,0,0,0,-1,1679,1324,0,0
462,-300,0,0,0,0,0,0,0,0,0,-1,1686,1324,0,0
469,-300,0,0,0,0,0,0,0,0,0,-1,1693,1324,0,0
476,-300,0,0,0,0,0,0,0,0,0,-1,1700,1324,0,0
483,-300,0,0,0,0,0,0,0,0,0,-1,1707,1324,0,0
490,-300,0,0,0,0,0,0,0,0,0,-1,1714,1324,0,0
497,-300,0,0,0,0,0,0,0,0,0,-1,1721,1324,0,0
504,-300,0,0,0,0,0,0,0,0,0,-1,1728,1324,0,0
511,-300,0,0,0,0,0,0,0,0,0,-1,1735,1324,0,0
518,-300,0,0,0,0,0,0,0,0,0,-1,1742,1324,0,0
525,-300,0,0,0,0,0,0,0,0,0,-1,1749,1324,0,0
532,-300,0,0,0,0,0,0,0,0,0,-1,1756,1324,0,0
539,-300,0,0,0,0,0,0,0,0,0,-1,1763,1324,0,0
546,-300,0,0,0,0,0,0,0,0,0,-1,1770,1324,0,0
553,-300,0,0,0,0,0,0,0,0,0,-1,1777,1324,0,0
560,-300,0,0,0,0,0,0,0,0,0,-1,1784,1324,0,0
567,-300,0,0,0,0,0,0,0,0,0,-1,1791,1324,0,0
574,-300,0,0,0,0,0,0,0,0,0,-1,1798,1324,0,0
581,-300,0,0,0,0,0,0,0,0,0,-1,1805,1324,0,0
588,-300,44.2024,2.3866,0.00325912,-0.0132335,-0.0321872,0.0282396,-0.038214,-0.659996,0.0385108,0.0433393,1812,1324,44.2024,-2.38663
595,-300,43.993,2.27136,-0.00428765,-0.00553742,-0.0178334,0.0129318,-0.0227569,-0.767885,0.0208635,0.0433061,1819,1324,43.993,-2.27141
602,-300,43.8739,2.06702,0,0,0,0,0,0,0,-1,1826,1324,43.8739,-2.06702
609,-300,43.7938,1.83618,0,0,0,0,0,0,0,-1,1833,1324,43.7939,-1.83617
616,-300,44.7111,0.669434,0,0,0,0,0,0,0,-1,1840,1324,44.7111,-0.669409
623,-300,44.0474,1.59216,0,0,0,0,0,0,0,-1,1847,1324,44.0474,-1.59212
630,-300,42.4099,3.9165,0,0,0,0,0,0,0,-1,1854,1324,42.4099,-3.91649
637,-300,31.1719,4.6366,0,0,0,0,0,0,0,-1,1861,1324,31.1718,-4.63665
644,-300,22.9836,3.44934,0,0,0,0,0,0,0,-1,1868,1324,22.9836,-3.4493
651,-300,25.5004,9.11853,0,0,0,0,0,0,0,-1,1875,1324,25.5004,-9.11851
658,-300,25.4012,9.20032,0,0,0,0,0,0,0,-1,1882,1324,25.4012,-9.20036
665,-300,30.4393,10.6687,0,0,0,0,0,0,0,-1,1889,1324,30.4393,-10.6687
672,-300,30.3395,10.2551,-0.00600344,-0.000328223,0.00607412,0.00353842,-0.00987008,1.00392,0.00802395,0.020313,1896,1324,30.3395,-10.2551
679,-300,30.3531,9.7699,-0.00261118,-0.00142892,0.0028437,0.000884438,-0.00492454,0.887875,0.00361409,0.0128049,1903,1324,30.3531,-9.76995
686,-300,30.3367,9.34436,0.000171451,-0.000478813,-2.31261e-05,0.000172272,-0.000479634,-0.0355044,0.000390074,0.0134691,1910,1324,30.3367,-9.34434
693,-300,30.318,8.93604,0.000579602,0.000101809,2.5082e-05,0.000580915,0.000100496,0.0523039,0.000358504,0.0110156,1917,1324,30.318,-8.93609
700,-300,30.3,8.50061,0.000612143,-0.000120932,0.000167028,0.000648406,-0.000157195,0.213788,0.000493093,0.0121589,1924,1324,30.3,-8.50058
707,-300,30.2808,8.06067,0.000531604,-5.68399e-05,0.000488057,0.000807265,-0.000332501,0.514145,0.000676806,0.00909998,1931,1324,30.2808,-8.06063
714,-300,30.2839,7.66821,0.000411002,2.17832e-05,0.000818076,0.0010573,-0.000624512,0.668625,0.000981651,0.0106684,1938,1324,30.2839,-7.66818
721,-300,30.2861,7.25781,0.000249822,7.03626e-05,0.00119179,0.00135526,-0.00103507,0.747824,0.00138418,0.0115933,1945,1324,30.2861,-7.25787
728,-300,30.2939,6.80322,2.8007e-05,7.78812e-05,0.00160769,0.00166083,-0.00155494,0.793153,0.00185696,0.0151108,1952,1324,30.294,-6.80317
735,-300,30.3805,6.36572,0,0,0,0,0,0,0,-1,1959,1324,30.3805,-6.36578
742,-300,29.4758,6.09412,0,0,0,0,0,0,0,-1,1966,1324,29.4758,-6.09417
749,-300,27.4065,5.9718,0,0,0,0,0,0,0,-1,1973,1324,27.4065,-5.97181
756,-300,22.1423,3.45642,0,0,0,0,0,0,0,-1,1980,1324,22.1423,-3.45638
763,-300,22.6136,5.1571,0,0,0,0,0,0,0,-1,1987,1324,22.6136,-5.15706
770,-300,24.859,4.77979,0,0,0,0,0,0,0,-1,1994,1324,24.859,-4.77972
777,-300,0,0,0,0,0,0,0,0,0,-1,2001,1324,0,0
784,-300,0,0,0,0,0,0,0,0,0,-1,2008,1324,0,0
791,-300,0,0,0,0,0,0,0,0,0,-1,2015,1324,0,0
798,-300,0,0,0,0,0,0,0,0,0,-1,2022,1324,0,0
805,-300,0,0,0,0,0,0,0,0,0,-1,2029,1324,0,0
812,-300,0,0,0,0,0,0,0,0,0,-1,2036,1324,0,0
-700,-307,0,0,0,0,0,0,0,0,0,-1,524,1331,0,0
-693,-307,0,0,0,0,0,0,0,0,0,-1,531,1331,0,0
-686,-307,0,0,0,0,0,0,0,0,0,-1,538,1331,0,0
-679,-307,0,0,0,0,0,0,0,0,0,-1,545,1331,0,0
-672,-307,0,0,0,0,0,0,0,0,0,-1,552,1331,0,0
-665,-307,0,0,0,0,0,0,0,0,0,-1,559,1331,0,0
-658,-307,0,0,0,0,0,0,0,0,0,-1,566,1331,0,0
-651,-307,-20.2972,-0.0720215,0,0,0,0,0,0,0,-1,573,1331,-20.2973,0.0720287
-644,-307,-20.7615,0.556152,0,0,0,0,0,0,0,-1,580,1331,-20.7615,-0.556159
-637,-307,-21.0822,1.21277,0,0,0,0,0,0,0,-1,587,1331,-21.0821,-1.21273
-630,-307,-12.0005,0.767212,0,0,0,0,0,0,0,-1,594,1331,-12.0005,-0.767266
-623,-307,-12.2128,2.93811,0,0,0,0,0,0,0,-1,601,1331,-12.2128,-2.93813
-616,-307,-12.6612,2.08289,0,0,0,0,0,0,0,-1,608,1331,-12.6612,-2.08293
-609,-307,-12.2767,1.83228,0,0,0,0,0,0,0,-1,615,1331,-12.2768,-1.83224
-602,-307,-16.7452,3.77148,0,0,0,0,0,0,0,-1,622,1331,-16.7452,-3.77154
-595,-307,-16.8523,4.39636,0.00256684,0.0046271,0.00406493,0.00779039,-0.000596451,0.909495,0.0054034,0.039991,629,1331,-16.8523,-4.39632
-588,-307,-16.7722,4.90991,0.00198875,0.00299456,0.00237617,0.00492046,6.28547e-05,0.889682,0.00325956,0.0216178,636,1331,-16.7722,-4.90987
-581,-307,-16.7726,5.36389,0.0017519,0.00203669,0.00155307,0.00345387,0.000334712,0.831114,0.00219952,0.0170397,643,1331,-16.7726,-5.36394
-574,-307,-16.7966,5.83521,0.00175837,0.00133016,0.00120313,0.0027663,0.000322234,0.697341,0.00174672,0.0137481,650,1331,-16.7966,-5.83521
-567,-307,-16.8168,6.31311,0.0019207,0.000744825,0.000961346,0.00245964,0.000205884,0.510954,0.00157562,0.0135862,657,1331,-16.8167,-6.31311
-560,-307,-16.8157,6.8042,0.00225504,0.000264599,0.000834157,0.00255839,-3.87492e-05,0.348791,0.00171865,0.0139932,664,1331,-16.8158,-6.80423
-553,-307,-16.8195,7.27478,0.00275477,-0.00014361,0.00079704,0.00295949,-0.000348332,0.251418,0.00209876,0.0110092,671,1331,-16.8194,-7.2748
-546,-307,-16.8382,7.73303,0.00343342,-0.000452901,0.00087669,0.00362204,-0.000641513,0.211912,0.00265449,0.00994294,678,1331,-16.8382,-7.73299
-539,-307,-16.8289,8.22925,0.00448174,-0.000772464,0.00113012,0.00471451,-0.00100523,0.203124,0.00352617,0.0151142,685,1331,-16.8289,-8.22923
-532,-307,-16.8133,8.7262,0,0,0,0,0,0,0,-1,692,1331,-16.8133,-8.72625
-525,-307,-13.2009,6.91309,0,0,0,0,0,0,0,-1,699,1331,-13.2009,-6.9131
-518,-307,-9.77777,-1.56653,0,0,0,0,0,0,0,-1,706,1331,-9.77777,1.56651
-511,-307,-12.5226,0.26709,0,0,0,0,0,0,0,-1,713,1331,-12.5226,-0.267038
-504,-307,-12.5913,-0.308105,0,0,0,0,0,0,0,-1,720,1331,-12.5913,0.308124
-497,-307,-13.8586,-0.115845,0,0,0,0,0,0,0,-1,727,1331,-13.8587,0.115861
-490,-307,-17.9429,0.982178,0,0,0,0,0,0,0,-1,734,1331,-17.9429,-0.982198
-483,-307,-18.1066,0.927612,0,0,0,0,0,0,0,-1,741,1331,-18.1066,-0.927609
-476,-307,-18.1288,1.1228,0,0,0,0,0,0,0,-1,748,1331,-18.1289,-1.12286
-469,-307,-18.2028,0.798584,0,0,0,0,0,0,0,-1,755,1331,-18.2027,-0.798546
-462,-307,0,0,0,0,0,0,0,0,0,-1,762,1331,0,0
-455,-307,0,0,0,0,0,0,0,0,0,-1,769,1331,0,0
-448,-307,0,0,0,0,0,0,0,0,0,-1,776,1331,0,0
-441,-307,0,0,0,0,0,0,0,0,0,-1,783,1331,0,0
-434,-307,0,0,0,0,0,0,0,0,0,-1,790,1331,0,0
-427,-307,0,0,0,0,0,0,0,0,0,-1,797,1331,0,0
-420,-307,0,0,0,0,0,0,0,0,0,-1,804,1331,0,0
-413,-307,0,0,0,0,0,0,0,0,0,-1,811,1331,0,0
-406,-307,0,0,0,0,0,0,0,0,0,-1,818,1331,0,0
-399,-307,0,0,0,0,0,0,0,0,0,-1,825,1331,0,0
-392,-307,0,0,0,0,0,0,0,0,0,-1,832,1331,0,0
-385,-307,0,0,0,0,0,0,0,0,0,-1,839,1331,0,0
-378,-307,0,0,0,0,0,0,0,0,0,-1,846,1331,0,0
-371,-307,0,0,0,0,0,0,0,0,0,-1,853,1331,0,0
-364,-307,0,0,0,0,0,0,0,0,0,-1,860,1331,0,0
-357,-307,0,0,0,0,0,0,0,0,0,-1,867,1331,0,0
-350,-307,0,0,0,0,0,0,0,0,0,-1,874,1331,0,0
-343,-307,0,0,0,0,0,0,0,0,0,-1,881,1331,0,0
-336,-307,0,0,0,0,0,0,0,0,0,-1,888,1331,0,0
-329,-307,0,0,0,0,0,0,0,0,0,-1,895,1331,0,0
-322,-307,0,0,0,0,0,0,0,0,0,-1,902,1331,0,0
-315,-307,0,0,0,0,0,0,0,0,0,-1,909,1331,0,0
-308,-307,0,0,0,0,0,0,0,0,0,-1,916,1331,0,0
-301,-307,0,0,0,0,0,0,0,0,0,-1,923,1331,0,0
-294,-307,0,0,0,0,0,0,0,0,0,-1,930,1331,0,0
-287,-307,0,0,0,0,0,0,0,0,0,-1,937,1331,0,0
-280,-307,0,0,0,0,0,0,0,0,0,-1,944,1331,0,0
-273,-307,0,0,0,0,0,0,0,0,0,-1,951,1331,0,0
-266,-307,0,0,0,0,0,0,0,0,0,-1,958,1331,0,0
-259,-307,0,0,0,0,0,0,0,0,0,-1,965,1331,0,0
-252,-307,0,0,0,0,0,0,0,0,0,-1,972,1331,0,0
-245,-307,0,0,0,0,0,0,0,0,0,-1,979,1331,0,0
-238,-307,0,0,0,0,0,0,0,0,0,-1,986,1331,0,0
-231,-307,0,0,0,0,0,0,0,0,0,-1,993,1331,0,0
-224,-307,0,0,0,0,0,0,0,0,0,-1,1000,1331,0,0
-217,-307,0,0,0,0,0,0,0,0,0,-1,1007,1331,0,0
-210,-307,0,0,0,0,0,0,0,0,0,-1,1014,1331,0,0
-203,-307,0,0,0,0,0,0,0,0,0,-1,1021,1331,0,0
-196,-307,0,0,0,0,0,0,0,0,0,-1,1028,1331,0,0
-189,-307,0,0,0,0,0,0,0,0,0,-1,1035,1331,0,0
-182,-307,0,0,0,0,0,0,0,0,0,-1,1042,1331,0,0
-175,-307,0,0,0,0,0,0,0,0,0,-1,1049,1331,0,0
-168,-307,0,0,0,0,0,0,0,0,0,-1,1056,1331,0,0
-161,-307,0,0,0,0,0,0,0,0,0,-1,1063,1331,0,0
-154,-307,0,0,0,0,0,0,0,0,0,-1,1070,1331,0,0
-147,-307,0,0,0,0,0,0,0,0,0,-1,1077,1331,0,0
-140,-307,0,0,0,0,0,0,0,0,0,-1,1084,1331,0,0
-133,-307,0,0,0,0,0,0,0,0,0,-1,1091,1331,0,0
-126,-307,0,0,0,0,0,0,0,0,0,-1,1098,1331,0,0
-119,-307,0,0,0,0,0,0,0,0,0,-1,1105,1331,0,0
-112,-307,0,0,0,0,0,0,0,0,0,-1,1112,1331,0,0
-105,-307,0,0,0,0,0,0,0,0,0,-1,1119,1331,0,0
-98,-307,0,0,0,0,0,0,0,0,0,-1,1126,1331,0,0
-91,-307,0,0,0,0,0,0,0,0,0,-1,1133,1331,0,0
-84,-307,0,0,0,0,0,0,0,0,0,-1,1140,1331,0,0
-77,-307,0,0,0,0,0,0,0,0,0,-1,1147,1331,0,0
-70,-307,0,0,0,0,0,0,0,0,0,-1,1154,1331,0,0
-63,-307,0,0,0,0,0,0,0,0,0,-1,1161,1331,0,0
-56,-307,0,0,0,0,0,0,0,0,0,-1,1168,1331,0,0
-49,-307,0,0,0,0,0,0,0,0,0,-1,1175,1331,0,0
-42,-307,0,0,0,0,0,0,0,0,0,-1,1182,1331,0,0
-35,-307,0,0,0,0,0,0,0,0,0,-1,1189,1331,0,0
-28,-307,0,0,0,0,0,0,0,0,0,-1,1196,1331,0,0
-21,-307,0,0,0,0,0,0,0,0,0,-1,1203,1331,0,0
-14,-307,0,0,0,0,0,0,0,0,0,-1,1210,1331,0,0
-7,-307,0,0,0,0,0,0,0,0,0,-1,1217,1331,0,0
0,-307,0,0,0,0,0,0,0,0,0,-1,1224,1331,0,0
7,-307,0,0,0,0,0,0,0,0,0,-1,1231,1331,0,0
14,-307,0,0,0,0,0,0,0,0,0,-1,1238,1331,0,0
21,-307,0,0,0,0,0,0,0,0,0,-1,1245,1331,0,0
28,-307,0,0,0,0,0,0,0,0,0,-1,1252,1331,0,0
35,-307,0,0,0,0,0,0,0,0,0,-1,1259,1331,0,0
42,-307,0,0,0,0,0,0,0,0,0,-1,1266,1331,0,0
49,-307,0,0,0,0,0,0,0,0,0,-1,1273,1331,0,0
56,-307,0,0,0,0,0,0,0,0,0,-1,1280,1331,0,0
63,-307,0,0,0,0,0,0,0,0,0,-1,1287,1331,0,0
70,-307,0,0,0,0,0,0,0,0,0,-1,1294,1331,0,0
77,-307,0,0,0,0,0,0,0,0,0,-1,1301,1331,0,0
84,-307,0,0,0,0,0,0,0,0,0,-1,1308,1331,0,0
91,-307,0,0,0,0,0,0,0,0,0,-1,1315,1331,0,0
98,-307,0,0,0,0,0,0,0,0,0,-1,1322,1331,0,0
105,-307,0,0,0,0,0,0,0,0,0,-1,1329,1331,0,0
112,-307,0,0,0,0,0,0,0,0,0,-1,1336,1331,0,0
119,-307,0,0,0,0,0,0,0,0,0,-1,1343,1331,0,0
126,-307,0,0,0,0,0,0,0,0,0,-1,1350,1331,0,0
133,-307,0,0,0,0,0,0,0,0,0,-1,1357,1331,0,0
140,-307,0,0,0,0,0,0,0,0,0,-1,1364,1331,0,0
147,-307,0,0,0,0,0,0,0,0,0,-1,1371,1331,0,0
154,-307,0,0,0,0,0,0,0,0,0,-1,1378,1331,0,0
161,-307,0,0,0,0,0,0,0,0,0,-1,1385,1331,0,0
168,-307,0,0,0,0,0,0,0,0,0,-1,1392,1331,0,0
175,-307,0,0,0,0,0,0,0,0,0,-1,1399,1331,0,0
182,-307,0,0,0,0,0,0,0,0,0,-1,1406,1331,0,0
189,-307,0,0,0,0,0,0,0,0,0,-1,1413,1331,0,0
196,-307,0,0,0,0,0,0,0,0,0,-1,1420,1331,0,0
203,-307,0,0,0,0,0,0,0,0,0,-1,1427,1331,0,0
210,-307,0,0,0,0,0,0,0,0,0,-1,1434,1331,0,0
217,-307,0,0,0,0,0,0,0,0,0,-1,1441,1331,0,0
224,-307,0,0,0,0,0,0,0,0,0,-1,1448,1331,0,0
231,-307,0,0,0,0,0,0,0,0,0,-1,1455,1331,0,0
238,-307,0,0,0,0,0,0,0,0,0,-1,1462,1331,0,0
245,-307,0,0,0,0,0,0,0,0,0,-1,1469,1331,0,0
252,-307,0,0,0,0,0,0,0,0,0,-1,1476,1331,0,0
259,-307,0,0,0,0,0,0,0,0,0,-1,1483,1331,0,0
266,-307,0,0,0,0,0,0,0,0,0,-1,1490,1331,0,0
273,-307,0,0,0,0,0,0,0,0,0,-1,1497,1331,0,0
280,-307,0,0,0,0,0,0,0,0,0,-1,1504,1331,0,0
287,-307,0,0,0,0,0,0,0,0,0,-1,1511,1331,0,0
294,-307,0,0,0,0,0,0,0,0,0,-1,1518,1331,0,0
301,-307,0,0,0,0,0,0,0,0,0,-1,1525,1331,0,0
308,-307,0,0,0,0,0,0,0,0,0,-1,1532,1331,0,0
315,-307,0,0,0,0,0,0,0,0,0,-1,1539,1331,0,0
322,-307,0,0,0,0,0,0,0,0,0,-1,1546,1331,0,0
329,-307,0,0,0,0,0,0,0,0,0,-1,1553,1331,0,0
336,-307,0,0,0,0,0,0,0,0,0,-1,1560,1331,0,0
343,-307,0,0,0,0,0,0,0,0,0,-1,1567,1331,0,0
350,-307,0,0,0,0,0,0,0,0,0,-1,1574,1331,0,0
357,-307,0,0,0,0,0,0,0,0,0,-1,1581,1331,0,0
364,-307,0,0,0,0,0,0,0,0,0,-1,1588,1331,0,0
371,-307,0,0,0,0,0,0,0,0,0,-1,1595,1331,0,0
378,-307,0,0,0,0,0,0,0,0,0,-1,1602,1331,0,0
385,-307,0,0,0,0,0,0,0,0,0,-1,1609,1331,0,0
392,-307,0,0,0,0,0,0,0,0,0,-1,1616,1331,0,0
399,-307,0,0,0,0,0,0,0,0,0,-1,1623,1331,0,0
406,-307,0,0,0,0,0,0,0,0,0,-1,1630,1331,0,0
413,-307,0,0,0,0,0,0,0,0,0,-1,1637,1331,0,0
420,-307,0,0,0,0,0,0,0,0,0,-1,1644,1331,0,0
427,-307,0,0,0,0,0,0,0,0,0,-1,1651,1331,0,0
434,-307,0,0,0,0,0,0,0,0,0,-1,1658,1331,0,0
441,-307,0,0,0,0,0,0,0,0,0,-1,1665,1331,0,0
448,-307,0,0,0,0,0,0,0,0,0,-1,1672,1331,0,0
455,-307,0,0,0,0,0,0,0,0,0,-1,1679,1331,0,0
462,-307,0,0,0,0,0,0,0,0,0,-1,1686,1331,0,0
469,-307,0,0,0,0,0,0,0,0,0,-1,1693,1331,0,0
476,-307,0,0,0,0,0,0,0,0,0,-1,1700,1331,0,0
483,-307,0,0,0,0,0,0,0,0,0,-1,1707,1331,0,0
490,-307,0,0,0,0,0,0,0,0,0,-1,1714,1331,0,0
497,-307,0,0,0,0,0,0,0,0,0,-1,1721,1331,0,0
504,-307,0,0,0,0,0,0,0,0,0,-1,1728,1331,0,0
511,-307,0,0,0,0,0,0,0,0,0,-1,1735,1331,0,0
518,-307,0,0,0,0,0,0,0,0,0,-1,1742,1331,0,0
525,-307,0,0,0,0,0,0,0,0,0,-1,1749,1331,0,0
532,-307,0,0,0,0,0,0,0,0,0,-1,1756,1331,0,0
539,-307,0,0,0,0,0,0,0,0,0,-1,1763,1331,0,0
546,-307,0,0,0,0,0,0,0,0,0,-1,1770,1331,0,0
553,-307,0,0,0,0,0,0,0,0,0,-1,1777,1331,0,0
560,-307,0,0,0,0,0,0,0,0,0,-1,1784,1331,0,0
567,-307,0,0,0,0,0,0,0,0,0,-1,1791,1331,0,0
574,-307,0,0,0,0,0,0,0,0,0,-1,1798,1331,0,0
581,-307,0,0,0,0,0,0,0,0,0,-1,1805,1331,0,0
588,-307,44.4232,2.42419,0.00485185,-0.0192203,-0.031204,0.0262606,-0.040629,-0.601329,0.0389146,0.0434506,1812,1331,44.4233,-2.42414
595,-307,44.1626,2.40698,-0.00266623,-0.0107281,-0.0166471,0.010431,-0.0238253,-0.666615,0.0202756,0.0429303,1819,1331,44.1626,-2.40697
602,-307,43.9689,2.23523,0,0,0,0,0,0,0,-1,1826,1331,43.9688,-2.23528
609,-307,38.8503,1.69055,0,0,0,0,0,0,0,-1,1833,1331,38.8503,-1.69052
616,-307,39.2039,2.10315,0,0,0,0,0,0,0,-1,1840,1331,39.2038,-2.10315
623,-307,41.0299,3.89575,0,0,0,0,0,0,0,-1,1847,1331,41.0299,-3.89579
630,-307,29.8116,1.51184,0,0,0,0,0,0,0,-1,1854,1331,29.8116,-1.51188
637,-307,24.6407,4.09106,0,0,0,0,0,0,0,-1,1861,1331,24.6407,-4.09103
644,-307,22.6885,5.80408,0,0,0,0,0,0,0,-1,1868,1331,22.6884,-5.80408
651,-307,17.5013,5.80078,0,0,0,0,0,0,0,-1,1875,1331,17.5014,-5.80072
658,-307,30.2671,11.1371,0,0,0,0,0,0,0,-1,1882,1331,30.2671,-11.137
665,-307,30.007,10.6381,-0.0084003,0.00238062,0.00849304,0.00704942,-0.0130691,1.06817,0.0117875,0.0374866,1889,1331,30.0069,-10.6381
672,-307,29.9252,10.2446,-0.00516612,-0.000686096,0.00551882,0.00302999,-0.0088822,0.978183,0.00714881,0.0138924,1896,1331,29.9252,-10.2447
679,-307,29.9106,9.80615,-0.00187591,-0.00163571,0.00236878,0.000616014,-0.00412763,0.810727,0.0029784,0.0104601,1903,1331,29.9106,-9.80618
686,-307,29.8966,9.37891,0.000423755,-0.000713699,-5.93067e-05,0.000426839,-0.000716783,-0.0519521,0.000667306,0.0099471,1910,1331,29.8966,-9.37889
693,-307,29.8822,8.9574,0.00065241,-9.55416e-05,4.33264e-05,0.000654911,-9.8043e-05,0.0576696,0.00047269,0.0113689,1917,1331,29.8822,-8.95741
700,-307,29.8744,8.51025,0.000699101,-7.85262e-05,0.000196515,0.000745941,-0.000125366,0.233988,0.00054392,0.01258,1924,1331,29.8744,-8.5103
707,-307,29.8542,8.06836,0.00070074,3.27495e-05,0.000435107,0.000915261,-0.000181772,0.458058,0.000678925,0.0147509,1931,1331,29.8542,-8.06842
714,-307,29.8535,7.68933,0.000664176,0.000157145,0.000683701,0.00113985,-0.000318528,0.607857,0.000885386,0.0134946,1938,1331,29.8536,-7.68933
721,-307,29.8835,7.28455,0.000576062,0.000227673,0.00100212,0.00141902,-0.000615283,0.699345,0.00120467,0.0166394,1945,1331,29.8835,-7.28458
728,-307,29.8508,7.00659,0.000432193,0.000241501,0.00136242,0.0017026,-0.0010289,0.750464,0.00159294,0.0413438,1952,1331,29.8508,-7.00659
735,-307,29.9073,6.43506,0,0,0,0,0,0,0,-1,1959,1331,29.9073,-6.43504
742,-307,26.677,6.09192,0,0,0,0,0,0,0,-1,1966,1331,26.677,-6.0919
749,-307,26.7727,5.9032,0,0,0,0,0,0,0,-1,1973,1331,26.7727,-5.90323
756,-307,27.1556,5.74756,0,0,0,0,0,0,0,-1,1980,1331,27.1557,-5.7475
763,-307,18.7522,3.55298,0,0,0,0,0,0,0,-1,1987,1331,18.7522,-3.55301
770,-307,0,0,0,0,0,0,0,0,0,-1,1994,1331,0,0
777,-307,0,0,0,0,0,0,0,0,0,-1,2001,1331,0,0
784,-307,0,0,0,0,0,0,0,0,0,-1,2008,1331,0,0
791,-307,0,0,0,0,0,0,0,0,0,-1,2015,1331,0,0
798,-307,0,0,0,0,0,0,0,0,0,-1,2022,1331,0,0
805,-307,0,0,0,0,0,0,0,0,0,-1,2029,1331,0,0
812,-307,0,0,0,0,0,0,0,0,0,-1,2036,1331,0,0
-700,-314,0,0,0,0,0,0,0,0,0,-1,524,1338,0,0
-693,-314,0,0,0,0,0,0,0,0,0,-1,531,1338,0,0
-686,-314,0,0,0,0,0,0,0,0,0,-1,538,1338,0,0
-679,-314,0,0,0,0,0,0,0,0,0,-1,545,1338,0,0
-672,-314,0,0,0,0,0,0,0,0,0,-1,552,1338,0,0
-665,-314,0,0,0,0,0,0,0,0,0,-1,559,1338,0,0
-658,-314,0,0,0,0,0,0,0,0,0,-1,566,1338,0,0
-651,-314,0,0,0,0,0,0,0,0,0,-1,573,1338,0,0
-644,-314,-20.9896,-0.0299072,0,0,0,0,0,0,0,-1,580,1338,-20.9896,0.0299587
-637,-314,-18.8677,6.62646,0,0,0,0,0,0,0,-1,587,1338,-18.8677,-6.62651
-630,-314,-13.2771,2.98938,0,0,0,0,0,0,0,-1,594,1338,-13.2771,-2.98943
-623,-314,-13.3542,3.00903,0,0,0,0,0,0,0,-1,601,1338,-13.3542,-3.00907
-616,-314,-9.93311,1.15088,0,0,0,0,0,0,0,-1,608,1338,-9.93308,-1.15093
-609,-314,-9.4361,2.86292,0,0,0,0,0,0,0,-1,615,1338,-9.43612,-2.86286
-602,-314,-11.8027,2.42798,0,0,0,0,0,0,0,-1,622,1338,-11.8027,-2.42802
-595,-314,-16.4918,4.36865,0,0,0,0,0,0,0,-1,629,1338,-16.4918,-4.36869
-588,-314,-16.3344,4.87537,0.00245076,0.00284703,0.00221336,0.00487111,0.00042668,0.830038,0.00311493,0.0288437,636,1338,-16.3344,-4.87539
-581,-314,-16.2839,5.36853,0.00213065,0.00201731,0.00163462,0.00370958,0.000438377,0.768072,0.00234065,0.0129835,643,1338,-16.2839,-5.36856
-574,-314,-16.3362,5.81885,0.0019617,0.00135664,0.00122727,0.00292318,0.000395162,0.664555,0.00183133,0.0131165,650,1338,-16.3362,-5.81879
-567,-314,-16.3439,6.32458,0.00199445,0.000824514,0.000963288,0.00253648,0.00028249,0.512527,0.00160513,0.0142156,657,1338,-16.344,-6.32457
-560,-314,-16.3146,6.82642,0.00224553,0.000394749,0.00084887,0.0025759,6.43816e-05,0.371148,0.00169621,0.0145734,664,1338,-16.3146,-6.82636
-553,-314,-16.3275,7.30054,0.00268858,2.03958e-05,0.000841762,0.00293195,-0.000222967,0.281438,0.00203303,0.0180038,671,1338,-16.3275,-7.30051
-546,-314,-16.386,7.76526,0.00335776,-0.000288621,0.000967614,0.00359862,-0.00052948,0.243963,0.00259365,0.0178127,678,1338,-16.386,-7.76524
-539,-314,-16.3801,8.25073,0.00436433,-0.000568648,0.00127318,0.00467354,-0.000877866,0.238258,0.0034458,0.0164186,685,1338,-16.3801,-8.25068
-532,-314,-16.322,8.71838,0,0,0,0,0,0,0,-1,692,1338,-16.322,-8.71842
-525,-314,-13.3017,7.50671,0,0,0,0,0,0,0,-1,699,1338,-13.3017,-7.50669
-518,-314,-8.52753,4.70032,0,0,0,0,0,0,0,-1,706,1338,-8.52755,-4.70034
-511,-314,-11.8597,0.384888,0,0,0,0,0,0,0,-1,713,1338,-11.8597,-0.384927
-504,-314,-11.4322,-0.187378,0,0,0,0,0,0,0,-1,720,1338,-11.4322,0.187381
-497,-314,-11.0047,-0.759644,0,0,0,0,0,0,0,-1,727,1338,-11.0047,0.759689
-490,-314,-18.5143,0.471069,0,0,0,0,0,0,0,-1,734,1338,-18.5143,-0.47103
-483,-314,-17.8528,0.577271,0,0,0,0,0,0,0,-1,741,1338,-17.8528,-0.577327
-476,-314,-17.714,0.665405,0,0,0,0,0,0,0,-1,748,1338,-17.714,-0.665388
-469,-314,-17.7246,0.794678,0,0,0,0,0,0,0,-1,755,1338,-17.7246,-0.794645
-462,-314,0,0,0,0,0,0,0,0,0,-1,762,1338,0,0
-455,-314,0,0,0,0,0,0,0,0,0,-1,769,1338,0,0
-448,-314,0,0,0,0,0,0,0,0,0,-1,776,1338,0,0
-441,-314,0,0,0,0,0,0,0,0,0,-1,783,1338,0,0
-434,-314,0,0,0,0,0,0,0,0,0,-1,790,1338,0,0
-427,-314,0,0,0,0,0,0,0,0,0,-1,797,1338,0,0
-420,-314,0,0,0,0,0,0,0,0,0,-1,804,1338,0,0
-413,-314,0,0,0,0,0,0,0,0,0,-1,811,1338,0,0
-406,-314,0,0,0,0,0,0,0,0,0,-1,818,1338,0,0
-399,-314,0,0,0,0,0,0,0,0,0,-1,825,1338,0,0
-392,-314,0,0,0,0,0,0,0,0,0,-1,832,1338,0,0
-385,-314,0,0,0,0,0,0,0,0,0,-1,839,1338,0,0
-378,-314,0,0,0,0,0,0,0,0,0,-1,846,1338,0,0
-371,-314,0,0,0,0,0,0,0,0,0,-1,853,1338,0,0
-364,-314,0,0,0,0,0,0,0,0,0,-1,860,1338,0,0
-357,-314,0,0,0,0,0,0,0,0,0,-1,867,1338,0,0
-350,-314,0,0,0,0,0,0,0,0,0,-1,874,1338,0,0
-343,-314,0,0,0,0,0,0,0,0,0,-1,881,1338,0,0
-336,-314,0,0,0,0,0,0,0,0,0,-1,888,1338,0,0
-329,-314,0,0,0,0,0,0,0,0,0,-1,895,1338,0,0
-322,-314,0,0,0,0,0,0,0,0,0,-1,902,1338,0,0
-315,-314,0,0,0,0,0,0,0,0,0,-1,909,1338,0,0
-308,-314,0,0,0,0,0,0,0,0,0,-1,916,1338,0,0
-301,-314,0,0,0,0,0,0,0,0,0,-1,923,1338,0,0
-294,-314,0,0,0,0,0,0,0,0,0,-1,930,1338,0,0
-287,-314,0,0,0,0,0,0,0,0,0,-1,937,1338,0,0
-280,-314,0,0,0,0,0,0,0,0,0,-1,944,1338,0,0
-273,-314,0,0,0,0,0,0,0,0,0,-1,951,1338,0,0
-266,-314,0,0,0,0,0,0,0,0,0,-1,958,1338,0,0
-259,-314,0,0,0,0,0,0,0,0,0,-1,965,1338,0,0
-252,-314,0,0,0,0,0,0,0,0,0,-1,972,1338,0,0
-245,-314,0,0,0,0,0,0,0,0,0,-1,979,1338,0,0
-238,-314,0,0,0,0,0,0,0,0,0,-1,986,1338,0,0
-231,-314,0,0,0,0,0,0,0,0,0,-1,993,1338,0,0
-224,-314,0,0,0,0,0,0,0,0,0,-1,1000,1338,0,0
-217,-314,0,0,0,0,0,0,0,0,0,-1,1007,1338,0,0
-210,-314,0,0,0,0,0,0,0,0,0,-1,1014,1338,0,0
-203,-314,0,0,0,0,0,0,0,0,0,-1,1021,1338,0,0
-196,-314,0,0,0,0,0,0,0,0,0,-1,1028,1338,0,0
-189,-314,0,0,0,0,0,0,0,0,0,-1,1035,1338,0,0
-182,-314,0,0,0,0,0,0,0,0,0,-1,1042,1338,0,0
-175,-314,0,0,0,0,0,0,0,0,0,-1,1049,1338,0,0
-168,-314,0,0,0,0,0,0,0,0,0,-1,1056,1338,0,0
-161,-314,0,0,0,0,0,0,0,0,0,-1,1063,1338,0,0
-154,-314,0,0,0,0,0,0,0,0,0,-1,1070,1338,0,0
-147,-314,0,0,0,0,0,0,0,0,0,-1,1077,1338,0,0
-140,-314,0,0,0,0,0,0,0,0,0,-1,1084,1338,0,0
-133,-314,0,0,0,0,0,0,0,0,0,-1,1091,1338,0,0
-126,-314,0,0,0,0,0,0,0,0,0,-1,1098,1338,0,0
-119,-314,0,0,0,0,0,0,0,0,0,-1,1105,1338,0,0
-112,-314,0,0,0,0,0,0,0,0,0,-1,1112,1338,0,0
-105,-314,0,0,0,0,0,0,0,0,0,-1,1119,1338,0,0
-98,-314,0,0,0,0,0,0,0,0,0,-1,1126,1338,0,0
-91,-314,0,0,0,0,0,0,0,0,0,-1,1133,1338,0,0
-84,-314,0,0,0,0,0,0,0,0,0,-1,1140,1338,0,0
-77,-314,0,0,0,0,0,0,0,0,0,-1,1147,1338,0,0
-70,-314,0,0,0,0,0,0,0,0,0,-1,1154,1338,0,0
-63,-314,0,0,0,0,0,0,0,0,0,-1,1161,1338,0,0
-56,-314,0,0,0,0,0,0,0,0,0,-1,1168,1338,0,0
-49,-314,0,0,0,0,0,0,0,0,0,-1,1175,1338,0,0
-42,-314,0,0,0,0,0,0,0,0,0,-1,1182,1338,0,0
-35,-314,0,0,0,0,0,0,0,0,0,-1,1189,1338,0,0
-28,-314,0,0,0,0,0,0,0,0,0,-1,1196,1338,0,0
-21,-314,0,0,0,0,0,0,0,0,0,-1,1203,1338,0,0
-14,-314,0,0,0,0,0,0,0,0,0,-1,1210,1338,0,0
-7,-314,0,0,0,0,0,0,0,0,0,-1,1217,1338,0,0
0,-314,0,0,0,0,0,0,0,0,0,-1,1224,1338,0,0
7,-314,0,0,0,0,0,0,0,0,0,-1,1231,1338,0,0
14,-314,0,0,0,0,0,0,0,0,0,-1,1238,1338,0,0
21,-314,0,0,0,0,0,0,0,0,0,-1,1245,1338,0,0
28,-314,0,0,0,0,0,0,0,0,0,-1,1252,1338,0,0
35,-314,0,0,0,0,0,0,0,0,0,-1,1259,1338,0,0
42,-314,0,0,0,0,0,0,0,0,0,-1,1266,1338,0,0
49,-314,0,0,0,0,0,0,0,0,0,-1,1273,1338,0,0
56,-314,0,0,0,0,0,0,0,0,0,-1,1280,1338,0,0
63,-314,0,0,0,0,0,0,0,0,0,-1,1287,1338,0,0
70,-314,0,0,0,0,0,0,0,0,0,-1,1294,1338,0,0
77,-314,0,0,0,0,0,0,0,0,0,-1,1301,1338,0,0
84,-314,0,0,0,0,0,0,0,0,0,-1,1308,1338,0,0
91,-314,0,0,0,0,0,0,0,0,0,-1,1315,1338,0,0
98,-314,0,0,0,0,0,0,0,0,0,-1,1322,1338,0,0
105,-314,0,0,0,0,0,0,0,0,0,-1,1329,1338,0,0
112,-314,0,0,0,0,0,0,0,0,0,-1,1336,1338,0,0
119,-314,0,0,0,0,0,0,0,0,0,-1,1343,1338,0,0
126,-314,0,0,0,0,0,0,0,0,0,-1,1350,1338,0,0
133,-314,0,0,0,0,0,0,0,0,0,-1,1357,1338,0,0
140,-314,0,0,0,0,0,0,0,0,0,-1,1364,1338,0,0
147,-314,0,0,0,0,0,0,0,0,0,-1,1371,1338,0,0
154,-314,0,0,0,0,0,0,0,0,0,-1,1378,1338,0,0
161,-314,0,0,0,0,0,0,0,0,0,-1,1385,1338,0,0
168,-314,0,0,0,0,0,0,0,0,0,-1,1392,1338,0,0
175,-314,0,0,0,0,0,0,0,0,0,-1,1399,1338,0,0
182,-314,0,0,0,0,0,0,0,0,0,-1,1406,1338,0,0
189,-314,0,0,0,0,0,0,0,0,0,-1,1413,1338,0,0
196,-314,0,0,0,0,0,0,0,0,0,-1,1420,1338,0,0
203,-314,0,0,0,0,0,0,0,0,0,-1,1427,1338,0,0
210,-314,0,0,0,0,0,0,0,0,0,-1,1434,1338,0,0
217,-314,0,0,0,0,0,0,0,0,0,-1,1441,1338,0,0
224,-314,0,0,0,0,0,0,0,0,0,-1,1448,1338,0,0
231,-314,0,0,0,0,0,0,0,0,0,-1,1455,1338,0,0
238,-314,0,0,0,0,0,0,0,0,0,-1,1462,1338,0,0
245,-314,0,0,0,0,0,0,0,0,0,-1,1469,1338,0,0
252,-314,0,0,0,0,0,0,0,0,0,-1,1476,1338,0,0
259,-314,0,0,0,0,0,0,0,0,0,-1,1483,1338,0,0
266,-314,0,0,0,0,0,0,0,0,0,-1,1490,1338,0,0
273,-314,0,0,0,0,0,0,0,0,0,-1,1497,1338,0,0
280,-314,0,0,0,0,0,0,0,0,0,-1,1504,1338,0,0
287,-314,0,0,0,0,0,0,0,0,0,-1,1511,1338,0,0
294,-314,0,0,0,0,0,0,0,0,0,-1,1518,1338,0,0
301,-314,0,0,0,0,0,0,0,0,0,-1,1525,1338,0,0
308,-314,0,0,0,0,0,0,0,0,0,-1,1532,1338,0,0
315,-314,0,0,0,0,0,0,0,0,0,-1,1539,1338,0,0
322,-314,0,0,0,0,0,0,0,0,0,-1,1546,1338,0,0
329,-314,0,0,0,0,0,0,0,0,0,-1,1553,1338,0,0
336,-314,0,0,0,0,0,0,0,0,0,-1,1560,1338,0,0
343,-314,0,0,0,0,0,0,0,0,0,-1,1567,1338,0,0
350,-314,0,0,0,0,0,0,0,0,0,-1,1574,1338,0,0
357,-314,0,0,0,0,0,0,0,0,0,-1,1581,1338,0,0
364,-314,0,0,0,0,0,0,0,0,0,-1,1588,1338,0,0
371,-314,0,0,0,0,0,0,0,0,0,-1,1595,1338,0,0
378,-314,0,0,0,0,0,0,0,0,0,-1,1602,1338,0,0
385,-314,0,0,0,0,0,0,0,0,0,-1,1609,1338,0,0
392,-314,0,0,0,0,0,0,0,0,0,-1,1616,1338,0,0
399,-314,0,0,0,0,0,0,0,0,0,-1,1623,1338,0,0
406,-314,0,0,0,0,0,0,0,0,0,-1,1630,1338,0,0
413,-314,0,0,0,0,0,0,0,0,0,-1,1637,1338,0,0
420,-314,0,0,0,0,0,0,0,0,0,-1,1644,1338,0,0
427,-314,0,0,0,0,0,0,0,0,0,-1,1651,1338,0,0
434,-314,0,0,0,0,0,0,0,0,0,-1,1658,1338,0,0
441,-314,0,0,0,0,0,0,0,0,0,-1,1665,1338,0,0
448,-314,0,0,0,0,0,0,0,0,0,-1,1672,1338,0,0
455,-314,0,0,0,0,0,0,0,0,0,-1,1679,1338,0,0
462,-314,0,0,0,0,0,0,0,0,0,-1,1686,1338,0,0
469,-314,0,0,0,0,0,0,0,0,0,-1,1693,1338,0,0
476,-314,0,0,0,0,0,0,0,0,0,-1,1700,1338,0,0
483,-314,0,0,0,0,0,0,0,0,0,-1,1707,1338,0,0
490,-314,0,0,0,0,0,0,0,0,0,-1,1714,1338,0,0
497,-314,0,0,0,0,0,0,0,0,0,-1,1721,1338,0,0
504,-314,0,0,0,0,0,0,0,0,0,-1,1728,1338,0,0
511,-314,0,0,0,0,0,0,0,0,0,-1,1735,1338,0,0
518,-314,0,0,0,0,0,0,0,0,0,-1,1742,1338,0,0
525,-314,0,0,0,0,0,0,0,0,0,-1,1749,1338,0,0
532,-314,0,0,0,0,0,0,0,0,0,-1,1756,1338,0,0
539,-314,0,0,0,0,0,0,0,0,0,-1,1763,1338,0,0
546,-314,0,0,0,0,0,0,0,0,0,-1,1770,1338,0,0
553,-314,0,0,0,0,0,0,0,0,0,-1,1777,1338,0,0
560,-314,0,0,0,0,0,0,0,0,0,-1,1784,1338,0,0
567,-314,0,0,0,0,0,0,0,0,0,-1,1791,1338,0,0
574,-314,0,0,0,0,0,0,0,0,0,-1,1798,1338,0,0
581,-314,44.3008,2.47424,0,0,0,0,0,0,0,-1,1805,1338,44.3008,-2.47426
588,-314,44.4897,2.66602,0.00929152,-0.0276124,-0.0317853,0.0275926,-0.0459134,-0.522413,0.0428758,0.0448955,1812,1338,44.4898,-2.66602
595,-314,44.4178,2.65845,0.00232912,-0.0178791,-0.0183456,0.0131691,-0.0287191,-0.533684,0.0247334,0.0451781,1819,1338,44.4178,-2.65841
602,-314,44.3214,2.52222,0,0,0,0,0,0,0,-1,1826,1338,44.3214,-2.52221
609,-314,38.4099,2.00085,0,0,0,0,0,0,0,-1,1833,1338,38.41,-2.00087
616,-314,38.4862,2.3905,0,0,0,0,0,0,0,-1,1840,1338,38.4862,-2.39048
623,-314,38.7728,2.71741,0,0,0,0,0,0,0,-1,1847,1338,38.7728,-2.71737
630,-314,29.4308,6.23206,0,0,0,0,0,0,0,-1,1854,1338,29.4308,-6.23202
637,-314,22.1349,5.16418,0,0,0,0,0,0,0,-1,1861,1338,22.1349,-5.16414
644,-314,18.7517,6.2605,0,0,0,0,0,0,0,-1,1868,1338,18.7517,-6.26053
651,-314,23.1317,8.005,0,0,0,0,0,0,0,-1,1875,1338,23.1317,-8.00506
658,-314,29.5631,11.1566,0,0,0,0,0,0,0,-1,1882,1338,29.5631,-11.1566
665,-314,29.4819,10.7159,-0.00721483,0.0024304,0.00782325,0.00679804,-0.0115825,1.06161,0.0107312,0.0250702,1889,1338,29.4819,-10.716
672,-314,29.4696,10.2914,-0.00392527,-0.000515733,0.00467784,0.0027583,-0.0071993,0.960136,0.00593655,0.0129313,1896,1338,29.4696,-10.2913
679,-314,29.47,9.8418,-0.00105461,-0.00134181,0.00179978,0.00060729,-0.00300371,0.745588,0.0022326,0.0106123,1903,1338,29.47,-9.84175
686,-314,29.4541,9.40967,0.000639953,-0.000601933,-0.000120377,0.000651514,-0.000613493,-0.0957428,0.000730462,0.0127187,1910,1338,29.4541,-9.40967
693,-314,29.4353,8.97473,0.000792128,-0.000120816,-2.94178e-05,0.000793074,-0.000121763,-0.0321785,0.000573628,0.0122059,1917,1338,29.4353,-8.97471
700,-314,29.4272,8.53003,0.000922056,2.49222e-05,0.000113351,0.000936157,1.08221e-05,0.123758,0.000620528,0.0132384,1924,1338,29.4272,-8.53008
707,-314,29.425,8.10486,0.00101206,0.000180898,0.000274212,0.00109437,9.85842e-05,0.291626,0.000699043,0.0136599,1931,1338,29.425,-8.10483
714,-314,29.421,7.69421,0.00106463,0.00034516,0.000450208,0.00128117,0.000128616,0.448322,0.000814633,0.0124485,1938,1338,29.421,-7.69417
721,-314,29.4146,7.30933,0.00104359,0.000421965,0.000738098,0.00153364,-6.80937e-05,0.586119,0.00104587,0.024897,1945,1338,29.4145,-7.30932
728,-314,29.6407,7.19873,0,0,0,0,0,0,0,-1,1952,1338,29.6407,-7.19875
735,-314,26.3665,6.21582,0,0,0,0,0,0,0,-1,1959,1338,26.3664,-6.21581
742,-314,26.2235,6.0166,0,0,0,0,0,0,0,-1,1966,1338,26.2235,-6.01662
749,-314,26.2223,5.47046,0,0,0,0,0,0,0,-1,1973,1338,26.2223,-5.47041
756,-314,24.2521,5.93408,0,0,0,0,0,0,0,-1,1980,1338,24.252,-5.93413
763,-314,19.2207,4.07239,0,0,0,0,0,0,0,-1,1987,1338,19.2206,-4.07239
770,-314,0,0,0,0,0,0,0,0,0,-1,1994,1338,0,0
777,-314,0,0,0,0,0,0,0,0,0,-1,2001,1338,0,0
784,-314,0,0,0,0,0,0,0,0,0,-1,2008,1338,0,0
791,-314,0,0,0,0,0,0,0,0,0,-1,2015,1338,0,0
798,-314,0,0,0,0,0,0,0,0,0,-1,2022,1338,0,0
805,-314,0,0,0,0,0,0,0,0,0,-1,2029,1338,0,0
812,-314,0,0,0,0,0,0,0,0,0,-1,2036,1338,0,0
-700,-321,0,0,0,0,0,0,0,0,0,-1,524,1345,0,0
-693,-321,0,0,0,0,0,0,0,0,0,-1,531,1345,0,0
-686,-321,0,0,0,0,0,0,0,0,0,-1,538,1345,0,0
-679,-321,0,0,0,0,0,0,0,0,0,-1,545,1345,0,0
-672,-321,0,0,0,0,0,0,0,0,0,-1,552,1345,0,0
-665,-321,0,0,0,0,0,0,0,0,0,-1,559,1345,0,0
-658,-321,0,0,0,0,0,0,0,0,0,-1,566,1345,0,0
-651,-321,0,0,0,0,0,0,0,0,0,-1,573,1345,0,0
-644,-321,-17.2769,5.65454,0,0,0,0,0,0,0,-1,580,1345,-17.2768,-5.65454
-637,-321,-13.3991,3.59241,0,0,0,0,0,0,0,-1,587,1345,-13.3991,-3.59236
-630,-321,-13.2958,3.65039,0,0,0,0,0,0,0,-1,594,1345,-13.2958,-3.65042
-623,-321,-13.2242,3.14148,0,0,0,0,0,0,0,-1,601,1345,-13.2243,-3.14146
-616,-321,-11.6754,3.13794,0,0,0,0,0,0,0,-1,608,1345,-11.6754,-3.13789
-609,-321,-7.95209,1.14758,0,0,0,0,0,0,0,-1,615,1345,-7.95208,-1.14757
-602,-321,-8.85791,2.50049,0,0,0,0,0,0,0,-1,622,1345,-8.85791,-2.50048
-595,-321,-16.3354,4.24573,0,0,0,0,0,0,0,-1,629,1345,-16.3354,-4.24572
-588,-321,-15.9367,4.79675,0.00262605,0.00250578,0.00206195,0.00462874,0.000503093,0.77082,0.00293255,0.0427766,636,1345,-15.9367,-4.79677
-581,-321,-15.8383,5.39832,0.00215234,0.00176235,0.00143878,0.00340927,0.000505412,0.718045,0.00212451,0.0136084,643,1345,-15.8383,-5.39832
-574,-321,-15.8732,5.84741,0.00188088,0.00118068,0.00103235,0.00262088,0.000440678,0.621918,0.00162046,0.0151187,650,1345,-15.8732,-5.84747
-567,-321,-15.8733,6.32825,0.00186389,0.000749349,0.000802591,0.00228371,0.00032953,0.48194,0.00142538,0.0210979,657,1345,-15.8733,-6.32829
-560,-321,-15.8398,6.90149,0.0021237,0.000409314,0.000746252,0.00240303,0.00012999,0.358159,0.00156049,0.0257363,664,1345,-15.8398,-6.90152
-553,-321,-15.8675,7.33521,0.00262775,0.000135424,0.000832134,0.00288004,-0.000116868,0.294379,0.00196014,0.028429,671,1345,-15.8675,-7.33523
-546,-321,-15.9071,7.75256,0.00339,-0.000100057,0.00105275,0.00368296,-0.000393019,0.271416,0.00259625,0.0265855,678,1345,-15.9071,-7.75262
-539,-321,-15.9235,8.24097,0.00447617,-0.000277962,0.00145439,0.0048858,-0.000687596,0.274541,0.00350893,0.0230303,685,1345,-15.9235,-8.24096
-532,-321,-15.8752,8.72974,0.00613375,-0.000353313,0.00214011,0.00677616,-0.000995724,0.29162,0.0048833,0.0311512,692,1345,-15.8752,-8.72969
-525,-321,-15.8397,9.21387,0,0,0,0,0,0,0,-1,699,1345,-15.8397,-9.21389
-518,-321,-10.3564,6.75696,0,0,0,0,0,0,0,-1,706,1345,-10.3564,-6.75694
-511,-321,-9.3302,5.29297,0,0,0,0,0,0,0,-1,713,1345,-9.33023,-5.29294
-504,-321,-10.4713,0.0145264,0,0,0,0,0,0,0,-1,720,1345,-10.4713,-0.0145296
-497,-321,-9.96771,0.313599,0,0,0,0,0,0,0,-1,727,1345,-9.96769,-0.313618
-490,-321,-10.7631,0.973511,0,0,0,0,0,0,0,-1,734,1345,-10.7631,-0.97353
-483,-321,-17.5908,0.2323,0,0,0,0,0,0,0,-1,741,1345,-17.5908,-0.232355
-476,-321,-17.2915,0.297363,0,0,0,0,0,0,0,-1,748,1345,-17.2915,-0.297342
-469,-321,-17.2441,0.478027,0,0,0,0,0,0,0,-1,755,1345,-17.2441,-0.477994
-462,-321,-17.1672,0.526489,0,0,0,0,0,0,0,-1,762,1345,-17.1672,-0.526533
-455,-321,0,0,0,0,0,0,0,0,0,-1,769,1345,0,0
-448,-321,0,0,0,0,0,0,0,0,0,-1,776,1345,0,0
-441,-321,0,0,0,0,0,0,0,0,0,-1,783,1345,0,0
-434,-321,0,0,0,0,0,0,0,0,0,-1,790,1345,0,0
-427,-321,0,0,0,0,0,0,0,0,0,-1,797,1345,0,0
-420,-321,0,0,0,0,0,0,0,0,0,-1,804,1345,0,0
-413,-321,0,0,0,0,0,0,0,0,0,-1,811,1345,0,0
-406,-321,0,0,0,0,0,0,0,0,0,-1,818,1345,0,0
-399,-321,0,0,0,0,0,0,0,0,0,-1,825,1345,0,0
-392,-321,0,0,0,0,0,0,0,0,0,-1,832,1345,0,0
-385,-321,0,0,0,0,0,0,0,0,0,-1,839,1345,0,0
-378,-321,0,0,0,0,0,0,0,0,0,-1,846,1345,0,0
-371,-321,0,0,0,0,0,0,0,0,0,-1,853,1345,0,0
-364,-321,0,0,0,0,0,0,0,0,0,-1,860,1345,0,0
-357,-321,0,0,0,0,0,0,0,0,0,-1,867,1345,0,0
-350,-321,0,0,0,0,0,0,0,0,0,-1,874,1345,0,0
-343,-321,0,0,0,0,0,0,0,0,0,-1,881,1345,0,0
-336,-321,0,0,0,0,0,0,0,0,0,-1,888,1345,0,0
-329,-321,0,0,0,0,0,0,0,0,0,-1,895,1345,0,0
-322,-321,0,0,0,0,0,0,0,0,0,-1,902,1345,0,0
-315,-321,0,0,0,0,0,0,0,0,0,-1,909,1345,0,0
-308,-321,0,0,0,0,0,0,0,0,0,-1,916,1345,0,0
-301,-321,0,0,0,0,0,0,0,0,0,-1,923,1345,0,0
-294,-321,0,0,0,0,0,0,0,0,0,-1,930,1345,0,0
-287,-321,0,0,0,0,0,0,0,0,0,-1,937,1345,0,0
-280,-321,0,0,0,0,0,0,0,0,0,-1,944,1345,0,0
-273,-321,0,0,0,0,0,0,0,0,0,-1,951,1345,0,0
-266,-321,0,0,0,0,0,0,0,0,0,-1,958,1345,0,0
-259,-321,0,0,0,0,0,0,0,0,0,-1,965,1345,0,0
-252,-321,0,0,0,0,0,0,0,0,0,-1,972,1345,0,0
-245,-321,0,0,0,0,0,0,0,0,0,-1,979,1345,0,0
-238,-321,0,0,0,0,0,0,0,0,0,-1,986,1345,0,0
-231,-321,0,0,0,0,0,0,0,0,0,-1,993,1345,0,0
-224,-321,0,0,0,0,0,0,0,0,0,-1,1000,1345,0,0
-217,-321,0,0,0,0,0,0,0,0,0,-1,1007,1345,0,0
-210,-321,0,0,0,0,0,0,0,0,0,-1,1014,1345,0,0
-203,-321,0,0,0,0,0,0,0,0,0,-1,1021,1345,0,0
-196,-321,0,0,0,0,0,0,0,0,0,-1,1028,1345,0,0
-189,-321,0,0,0,0,0,0,0,0,0,-1,1035,1345,0,0
-182,-321,0,0,0,0,0,0,0,0,0,-1,1042,1345,0,0
-175,-321,0,0,0,0,0,0,0,0,0,-1,1049,1345,0,0
-168,-321,0,0,0,0,0,0,0,0,0,-1,1056,1345,0,0
-161,-321,0,0,0,0,0,0,0,0,0,-1,1063,1345,0,0
-154,-321,0,0,0,0,0,0,0,0,0,-1,1070,1345,0,0
-147,-321,0,0,0,0,0,0,0,0,0,-1,1077,1345,0,0
-140,-321,0,0,0,0,0,0,0,0,0,-1,1084,1345,0,0
-133,-321,0,0,0,0,0,0,0,0,0,-1,1091,1345,0,0
-126,-321,0,0,0,0,0,0,0,0,0,-1,1098,1345,0,0
-119,-321,0,0,0,0,0,0,0,0,0,-1,1105,1345,0,0
-112,-321,0,0,0,0,0,0,0,0,0,-1,1112,1345,0,0
-105,-321,0,0,0,0,0,0,0,0,0,-1,1119,1345,0,0
-98,-321,0,0,0,0,0,0,0,0,0,-1,1126,1345,0,0
-91,-321,0,0,0,0,0,0,0,0,0,-1,1133,1345,0,0
-84,-321,0,0,0,0,0,0,0,0,0,-1,1140,1345,0,0
-77,-321,0,0,0,0,0,0,0,0,0,-1,1147,1345,0,0
-70,-321,0,0,0,0,0,0,0,0,0,-1,1154,1345,0,0
-63,-321,0,0,0,0,0,0,0,0,0,-1,1161,1345,0,0
-56,-321,0,0,0,0,0,0,0,0,0,-1,1168,1345,0,0
-49,-321,0,0,0,0,0,0,0,0,0,-1,1175,1345,0,0
-42,-321,0,0,0,0,0,0,0,0,0,-1,1182,1345,0,0
-35,-321,0,0,0,0,0,0,0,0,0,-1,1189,1345,0,0
-28,-321,0,0,0,0,0,0,0,0,0,-1,1196,1345,0,0
-21,-321,0,0,0,0,0,0,0,0,0,-1,1203,1345,0,0
-14,-321,0,0,0,0,0,0,0,0,0,-1,1210,1345,0,0
-7,-321,0,0,0,0,0,0,0,0,0,-1,1217,1345,0,0
0,-321,0,0,0,0,0,0,0,0,0,-1,1224,1345,0,0
7,-321,0,0,0,0,0,0,0,0,0,-1,1231,1345,0,0
14,-321,0,0,0,0,0,0,0,0,0,-1,1238,1345,0,0
21,-321,0,0,0,0,0,0,0,0,0,-1,1245,1345,0,0
28,-321,0,0,0,0,0,0,0,0,0,-1,1252,1345,0,0
35,-321,0,0,0,0,0,0,0,0,0,-1,1259,1345,0,0
42,-321,0,0,0,0,0,0,0,0,0,-1,1266,1345,0,0
49,-321,0,0,0,0,0,0,0,0,0,-1,1273,1345,0,0
56,-321,0,0,0,0,0,0,0,0,0,-1,1280,1345,0,0
63,-321,0,0,0,0,0,0,0,0,0,-1,1287,1345,0,0
70,-321,0,0,0,0,0,0,0,0,0,-1,1294,1345,0,0
77,-321,0,0,0,0,0,0,0,0,0,-1,1301,1345,0,0
84,-321,0,0,0,0,0,0,0,0,0,-1,1308,1345,0,0
91,-321,0,0,0,0,0,0,0,0,0,-1,1315,1345,0,0
98,-321,0,0,0,0,0,0,0,0,0,-1,1322,1345,0,0
105,-321,0,0,0,0,0,0,0,0,0,-1,1329,1345,0,0
112,-321,0,0,0,0,0,0,0,0,0,-1,1336,1345,0,0
119,-321,0,0,0,0,0,0,0,0,0,-1,1343,1345,0,0
126,-321,0,0,0,0,0,0,0,0,0,-1,1350,1345,0,0
133,-321,0,0,0,0,0,0,0,0,0,-1,1357,1345,0,0
140,-321,0,0,0,0,0,0,0,0,0,-1,1364,1345,0,0
147,-321,0,0,0,0,0,0,0,0,0,-1,1371,1345,0,0
154,-321,0,0,0,0,0,0,0,0,0,-1,1378,1345,0,0
161,-321,0,0,0,0,0,0,0,0,0,-1,1385,1345,0,0
168,-321,0,0,0,0,0,0,0,0,0,-1,1392,1345,0,0
175,-321,0,0,0,0,0,0,0,0,0,-1,1399,1345,0,0
182,-321,0,0,0,0,0,0,0,0,0,-1,1406,1345,0,0
189,-321,0,0,0,0,0,0,0,0,0,-1,1413,1345,0,0
196,-321,0,0,0,0,0,0,0,0,0,-1,1420,1345,0,0
203,-321,0,0,0,0,0,0,0,0,0,-1,1427,1345,0,0
210,-321,0,0,0,0,0,0,0,0,0,-1,1434,1345,0,0
217,-321,0,0,0,0,0,0,0,0,0,-1,1441,1345,0,0
224,-321,0,0,0,0,0,0,0,0,0,-1,1448,1345,0,0
231,-321,0,0,0,0,0,0,0,0,0,-1,1455,1345,0,0
238,-321,0,0,0,0,0,0,0,0,0,-1,1462,1345,0,0
245,-321,0,0,0,0,0,0,0,0,0,-1,1469,1345,0,0
252,-321,0,0,0,0,0,0,0,0,0,-1,1476,1345,0,0
259,-321,0,0,0,0,0,0,0,0,0,-1,1483,1345,0,0
266,-321,0,0,0,0,0,0,0,0,0,-1,1490,1345,0,0
273,-321,0,0,0,0,0,0,0,0,0,-1,1497,1345,0,0
280,-321,0,0,0,0,0,0,0,0,0,-1,1504,1345,0,0
287,-321,0,0,0,0,0,0,0,0,0,-1,1511,1345,0,0
294,-321,0,0,0,0,0,0,0,0,0,-1,1518,1345,0,0
301,-321,0,0,0,0,0,0,0,0,0,-1,1525,1345,0,0
308,-321,0,0,0,0,0,0,0,0,0,-1,1532,1345,0,0
315,-321,0,0,0,0,0,0,0,0,0,-1,1539,1345,0,0
322,-321,0,0,0,0,0,0,0,0,0,-1,1546,1345,0,0
329,-321,0,0,0,0,0,0,0,0,0,-1,1553,1345,0,0
336,-321,0,0,0,0,0,0,0,0,0,-1,1560,1345,0,0
343,-321,0,0,0,0,0,0,0,0,0,-1,1567,1345,0,0
350,-321,0,0,0,0,0,0,0,0,0,-1,1574,1345,0,0
357,-321,0,0,0,0,0,0,0,0,0,-1,1581,1345,0,0
364,-321,0,0,0,0,0,0,0,0,0,-1,1588,1345,0,0
371,-321,0,0,0,0,0,0,0,0,0,-1,1595,1345,0,0
378,-321,0,0,0,0,0,0,0,0,0,-1,1602,1345,0,0
385,-321,0,0,0,0,0,0,0,0,0,-1,1609,1345,0,0
392,-321,0,0,0,0,0,0,0,0,0,-1,1616,1345,0,0
399,-321,0,0,0,0,0,0,0,0,0,-1,1623,1345,0,0
406,-321,0,0,0,0,0,0,0,0,0,-1,1630,1345,0,0
413,-321,0,0,0,0,0,0,0,0,0,-1,1637,1345,0,0
420,-321,0,0,0,0,0,0,0,0,0,-1,1644,1345,0,0
427,-321,0,0,0,0,0,0,0,0,0,-1,1651,1345,0,0
434,-321,0,0,0,0,0,0,0,0,0,-1,1658,1345,0,0
441,-321,0,0,0,0,0,0,0,0,0,-1,1665,1345,0,0
448,-321,0,0,0,0,0,0,0,0,0,-1,1672,1345,0,0
455,-321,0,0,0,0,0,0,0,0,0,-1,1679,1345,0,0
462,-321,0,0,0,0,0,0,0,0,0,-1,1686,1345,0,0
469,-321,0,0,0,0,0,0,0,0,0,-1,1693,1345,0,0
476,-321,0,0,0,0,0,0,0,0,0,-1,1700,1345,0,0
483,-321,0,0,0,0,0,0,0,0,0,-1,1707,1345,0,0
490,-321,0,0,0,0,0,0,0,0,0,-1,1714,1345,0,0
497,-321,0,0,0,0,0,0,0,0,0,-1,1721,1345,0,0
504,-321,0,0,0,0,0,0,0,0,0,-1,1728,1345,0,0
511,-321,0,0,0,0,0,0,0,0,0,-1,1735,1345,0,0
518,-321,0,0,0,0,0,0,0,0,0,-1,1742,1345,0,0
525,-321,0,0,0,0,0,0,0,0,0,-1,1749,1345,0,0
532,-321,0,0,0,0,0,0,0,0,0,-1,1756,1345,0,0
539,-321,0,0,0,0,0,0,0,0,0,-1,1763,1345,0,0
546,-321,0,0,0,0,0,0,0,0,0,-1,1770,1345,0,0
553,-321,0,0,0,0,0,0,0,0,0,-1,1777,1345,0,0
560,-321,0,0,0,0,0,0,0,0,0,-1,1784,1345,0,0
567,-321,0,0,0,0,0,0,0,0,0,-1,1791,1345,0,0
574,-321,0,0,0,0,0,0,0,0,0,-1,1798,1345,0,0
581,-321,44.1365,2.35864,0,0,0,0,0,0,0,-1,1805,1345,44.1365,-2.35869
588,-321,44.1265,2.85364,0.0184785,-0.0389721,-0.0344018,0.0345709,-0.0550645,-0.43754,0.0522,0.048512,1812,1345,44.1265,-2.85365
595,-321,44.6531,2.94153,0.0112361,-0.0271332,-0.0237732,0.0226,-0.0384971,-0.445905,0.0356703,0.0456419,1819,1345,44.653,-2.94148
602,-321,44.9022,2.41736,0,0,0,0,0,0,0,-1,1826,1345,44.9022,-2.41739
609,-321,45.0543,1.84351,0,0,0,0,0,0,0,-1,1833,1345,45.0544,-1.84348
616,-321,37.8107,2.58704,0,0,0,0,0,0,0,-1,1840,1345,37.8106,-2.58705
623,-321,37.6854,3.68933,0,0,0,0,0,0,0,-1,1847,1345,37.6854,-3.68931
630,-321,23.6674,4.34106,0,0,0,0,0,0,0,-1,1854,1345,23.6674,-4.34112
637,-321,21.7925,6.79224,0,0,0,0,0,0,0,-1,1861,1345,21.7925,-6.7922
644,-321,16.8844,6.71973,0,0,0,0,0,0,0,-1,1868,1345,16.8844,-6.71971
651,-321,27.4924,10.0319,0,0,0,0,0,0,0,-1,1875,1345,27.4924,-10.0319
658,-321,28.996,11.1646,0,0,0,0,0,0,0,-1,1882,1345,28.996,-11.1645
665,-321,29.0264,10.7507,-0.00621081,0.00352327,0.0064067,0.00670197,-0.00938951,1.11023,0.00933351,0.0206392,1889,1345,29.0263,-10.7507
672,-321,29.0402,10.3009,-0.00302511,0.000582342,0.00347103,0.00269032,-0.00513309,1.02502,0.00458966,0.0136698,1896,1345,29.0401,-10.3009
679,-321,29.0376,9.85706,-0.000594372,-0.000474384,0.00118016,0.000647305,-0.00171606,0.810794,0.00141023,0.0113017,1903,1345,29.0376,-9.85705
686,-321,29.0033,9.42944,0.000753239,-0.000214258,-0.000140946,0.000773354,-0.000234373,-0.141757,0.000608919,0.0120893,1910,1345,29.0033,-9.42942
693,-321,28.9889,9.01001,0.00103299,-7.02707e-06,-9.24264e-05,0.00104114,-1.51771e-05,-0.0879515,0.000699208,0.0125976,1917,1345,28.9889,-9.01001
700,-321,29,8.55322,0.00130393,0.000144854,-1.49847e-05,0.00130413,0.000144661,-0.0129252,0.000825435,0.0132665,1924,1345,29,-8.55327
707,-321,29.0057,8.11584,0.00151496,0.000336764,6.55226e-05,0.00151859,0.000333132,0.0553851,0.000921642,0.014873,1931,1345,29.0058,-8.1158
714,-321,28.9962,7.69385,0.00168335,0.00054254,0.000162205,0.00170597,0.000519925,0.138527,0.00100966,0.0141028,1938,1345,28.9963,-7.69385
721,-321,28.9192,7.23633,0.00174064,0.000644343,0.000412845,0.00187872,0.000506264,0.322762,0.00112245,0.0388297,1945,1345,28.9192,-7.23631
728,-321,28.9138,6.84985,0,0,0,0,0,0,0,-1,1952,1345,28.9138,-6.8498
735,-321,22.0081,5.65479,0,0,0,0,0,0,0,-1,1959,1345,22.008,-5.65481
742,-321,24.5398,5.05725,0,0,0,0,0,0,0,-1,1966,1345,24.5398,-5.05729
749,-321,24.0675,5.4458,0,0,0,0,0,0,0,-1,1973,1345,24.0675,-5.44581
756,-321,19.6251,4.98315,0,0,0,0,0,0,0,-1,1980,1345,19.6251,-4.98311
763,-321,19.6747,4.61438,0,0,0,0,0,0,0,-1,1987,1345,19.6747,-4.61436
770,-321,0,0,0,0,0,0,0,0,0,-1,1994,1345,0,0
777,-321,0,0,0,0,0,0,0,0,0,-1,2001,1345,0,0
784,-321,0,0,0,0,0,0,0,0,0,-1,2008,1345,0,0
791,-321,0,0,0,0,0,0,0,0,0,-1,2015,1345,0,0
798,-321,0,0,0,0,0,0,0,0,0,-1,2022,1345,0,0
805,-321,0,0,0,0,0,0,0,0,0,-1,2029,1345,0,0
812,-321,0,0,0,0,0,0,0,0,0,-1,2036,1345,0,0
-700,-328,0,0,0,0,0,0,0,0,0,-1,524,1352,0,0
-693,-328,0,0,0,0,0,0,0,0,0,-1,531,1352,0,0
-686,-328,0,0,0,0,0,0,0,0,0,-1,538,1352,0,0
-679,-328,0,0,0,0,0,0,0,0,0,-1,545,1352,0,0
-672,-328,0,0,0,0,0,0,0,0,0,-1,552,1352,0,0
-665,-328,0,0,0,0,0,0,0,0,0,-1,559,1352,0,0
-658,-328,0,0,0,0,0,0,0,0,0,-1,566,1352,0,0
-651,-328,0,0,0,0,0,0,0,0,0,-1,573,1352,0,0
-644,-328,0,0,0,0,0,0,0,0,0,-1,580,1352,0,0
-637,-328,-12.0695,1.02014,0,0,0,0,0,0,0,-1,587,1352,-12.0694,-1.02017
-630,-328,-13.3971,4.54578,0,0,0,0,0,0,0,-1,594,1352,-13.3971,-4.54572
-623,-328,-10.7739,4.55042,0,0,0,0,0,0,0,-1,601,1352,-10.7739,-4.55041
-616,-328,-8.22198,-0.25708,0,0,0,0,0,0,0,-1,608,1352,-8.22201,0.257067
-609,-328,-7.87439,0.192871,0,0,0,0,0,0,0,-1,615,1352,-7.87441,-0.192822
-602,-328,-7.63062,1.31665,0,0,0,0,0,0,0,-1,622,1352,-7.63064,-1.3166
-595,-328,-9.42639,2.93494,0,0,0,0,0,0,0,-1,629,1352,-9.42638,-2.93499
-588,-328,-15.4326,4.71106,0,0,0,0,0,0,0,-1,636,1352,-15.4326,-4.71103
-581,-328,-15.3564,5.36194,0.00170858,0.00123747,0.000980834,0.00248175,0.000464304,0.667552,0.0015235,0.0239234,643,1352,-15.3564,-5.36196
-574,-328,-15.3714,5.86633,0.00139389,0.000760484,0.000625117,0.00177795,0.000376422,0.550929,0.00108188,0.0152749,650,1352,-15.3714,-5.8663
-567,-328,-15.3864,6.35059,0.00138968,0.000466536,0.000473543,0.00158939,0.000266828,0.3991,0.000982798,0.0198633,657,1352,-15.3863,-6.35054
-560,-328,-15.3904,6.92017,0.00171457,0.00024665,0.00050749,0.00187293,8.82849e-05,0.30248,0.00122026,0.0288017,664,1352,-15.3904,-6.9202
-553,-328,-15.4372,7.37708,0.00231295,0.00010305,0.000709087,0.0025209,-0.000104905,0.285273,0.00171664,0.0310084,671,1352,-15.4372,-7.37711
-546,-328,-15.4248,7.76294,0.00318001,-1.60175e-05,0.00104359,0.00349059,-0.000326594,0.289258,0.00244321,0.0280425,678,1352,-15.4248,-7.76293
-539,-328,-15.4396,8.23779,0.00433594,-6.9322e-05,0.00154777,0.00482536,-0.000558747,0.306265,0.00341841,0.0230359,685,1352,-15.4396,-8.23781
-532,-328,-15.4287,8.74133,0.00596629,-4.77045e-05,0.00230461,0.00674787,-0.000829277,0.326962,0.00479895,0.0176705,692,1352,-15.4287,-8.74137
-525,-328,-15.3946,9.29041,0.0080682,-0.000110969,0.00326453,0.00921138,-0.00125415,0.336838,0.00659882,0.0271222,699,1352,-15.3946,-9.29035
-518,-328,-15.4618,9.87842,0,0,0,0,0,0,0,-1,706,1352,-15.4618,-9.87839
-511,-328,-9.39868,7.16113,0,0,0,0,0,0,0,-1,713,1352,-9.39869,-7.16113
-504,-328,-8.60626,-0.905762,0,0,0,0,0,0,0,-1,720,1352,-8.60623,0.905787
-497,-328,-9.29102,-0.0517578,0,0,0,0,0,0,0,-1,727,1352,-9.29104,0.0518175
-490,-328,-10.0663,0.882813,0,0,0,0,0,0,0,-1,734,1352,-10.0663,-0.882795
-483,-328,-10.8181,1.72375,0,0,0,0,0,0,0,-1,741,1352,-10.8181,-1.72374
-476,-328,-16.8951,-0.150757,0,0,0,0,0,0,0,-1,748,1352,-16.8951,0.150795
-469,-328,-16.8412,0.00158691,0,0,0,0,0,0,0,-1,755,1352,-16.8412,-0.00161515
-462,-328,-16.3546,-0.203491,0,0,0,0,0,0,0,-1,762,1352,-16.3545,0.203532
-455,-328,0,0,0,0,0,0,0,0,0,-1,769,1352,0,0
-448,-328,0,0,0,0,0,0,0,0,0,-1,776,1352,0,0
-441,-328,0,0,0,0,0,0,0,0,0,-1,783,1352,0,0
-434,-328,0,0,0,0,0,0,0,0,0,-1,790,1352,0,0
-427,-328,0,0,0,0,0,0,0,0,0,-1,797,1352,0,0
-420,-328,0,0,0,0,0,0,0,0,0,-1,804,1352,0,0
-413,-328,0,0,0,0,0,0,0,0,0,-1,811,1352,0,0
-406,-328,0,0,0,0,0,0,0,0,0,-1,818,1352,0,0
-399,-328,0,0,0,0,0,0,0,0,0,-1,825,1352,0,0
-392,-328,0,0,0,0,0,0,0,0,0,-1,832,1352,0,0
-385,-328,0,0,0,0,0,0,0,0,0,-1,839,1352,0,0
-378,-328,0,0,0,0,0,0,0,0,0,-1,846,1352,0,0
-371,-328,0,0,0,0,0,0,0,0,0,-1,853,1352,0,0
-364,-328,0,0,0,0,0,0,0,0,0,-1,860,1352,0,0
-357,-328,0,0,0,0,0,0,0,0,0,-1,867,1352,0,0
-350,-328,0,0,0,0,0,0,0,0,0,-1,874,1352,0,0
-343,-328,0,0,0,0,0,0,0,0,0,-1,881,1352,0,0
-336,-328,0,0,0,0,0,0,0,0,0,-1,888,1352,0,0
-329,-328,0,0,0,0,0,0,0,0,0,-1,895,1352,0,0
-322,-328,0,0,0,0,0,0,0,0,0,-1,902,1352,0,0
-315,-328,0,0,0,0,0,0,0,0,0,-1,909,1352,0,0
-308,-328,0,0,0,0,0,0,0,0,0,-1,916,1352,0,0
-301,-328,0,0,0,0,0,0,0,0,0,-1,923,1352,0,0
-294,-328,0,0,0,0,0,0,0,0,0,-1,930,1352,0,0
-287,-328,0,0,0,0,0,0,0,0,0,-1,937,1352,0,0
-280,-328,0,0,0,0,0,0,0,0,0,-1,944,1352,0,0
-273,-328,0,0,0,0,0,0,0,0,0,-1,951,1352,0,0
-266,-328,0,0,0,0,0,0,0,0,0,-1,958,1352,0,0
-259,-328,0,0,0,0,0,0,0,0,0,-1,965,1352,0,0
-252,-328,0,0,0,0,0,0,0,0,0,-1,972,1352,0,0
-245,-328,0,0,0,0,0,0,0,0,0,-1,979,1352,0,0
-238,-328,0,0,0,0,0,0,0,0,0,-1,986,1352,0,0
-231,-328,0,0,0,0,0,0,0,0,0,-1,993,1352,0,0
-224,-328,0,0,0,0,0,0,0,0,0,-1,1000,1352,0,0
-217,-328,0,0,0,0,0,0,0,0,0,-1,1007,1352,0,0
-210,-328,0,0,0,0,0,0,0,0,0,-1,1014,1352,0,0
-203,-328,0,0,0,0,0,0,0,0,0,-1,1021,1352,0,0
-196,-328,0,0,0,0,0,0,0,0,0,-1,1028,1352,0,0
-189,-328,0,0,0,0,0,0,0,0,0,-1,1035,1352,0,0
-182,-328,0,0,0,0,0,0,0,0,0,-1,1042,1352,0,0
-175,-328,0,0,0,0,0,0,0,0,0,-1,1049,1352,0,0
-168,-328,0,0,0,0,0,0,0,0,0,-1,1056,1352,0,0
-161,-328,0,0,0,0,0,0,0,0,0,-1,1063,1352,0,0
-154,-328,0,0,0,0,0,0,0,0,0,-1,1070,1352,0,0
-147,-328,0,0,0,0,0,0,0,0,0,-1,1077,1352,0,0
-140,-328,0,0,0,0,0,0,0,0,0,-1,1084,1352,0,0
-133,-328,0,0,0,0,0,0,0,0,0,-1,1091,1352,0,0
-126,-328,0,0,0,0,0,0,0,0,0,-1,1098,1352,0,0
-119,-328,0,0,0,0,0,0,0,0,0,-1,1105,1352,0,0
-112,-328,0,0,0,0,0,0,0,0,0,-1,1112,1352,0,0
-105,-328,0,0,0,0,0,0,0,0,0,-1,1119,1352,0,0
-98,-328,0,0,0,0,0,0,0,0,0,-1,1126,1352,0,0
-91,-328,0,0,0,0,0,0,0,0,0,-1,1133,1352,0,0
-84,-328,0,0,0,0,0,0,0,0,0,-1,1140,1352,0,0
-77,-328,0,0,0,0,0,0,0,0,0,-1,1147,1352,0,0
-70,-328,0,0,0,0,0,0,0,0,0,-1,1154,1352,0,0
-63,-328,0,0,0,0,0,0,0,0,0,-1,1161,1352,0,0
-56,-328,0,0,0,0,0,0,0,0,0,-1,1168,1352,0,0
-49,-328,0,0,0,0,0,0,0,0,0,-1,1175,1352,0,0
-42,-328,0,0,0,0,0,0,0,0,0,-1,1182,1352,0,0
-35,-328,0,0,0,0,0,0,0,0,0,-1,1189,1352,0,0
-28,-328,0,0,0,0,0,0,0,0,0,-1,1196,1352,0,0
-21,-328,0,0,0,0,0,0,0,0,0,-1,1203,1352,0,0
-14,-328,0,0,0,0,0,0,0,0,0,-1,1210,1352,0,0
-7,-328,0,0,0,0,0,0,0,0,0,-1,1217,1352,0,0
0,-328,0,0,0,0,0,0,0,0,0,-1,1224,1352,0,0
7,-328,0,0,0,0,0,0,0,0,0,-1,1231,1352,0,0
14,-328,0,0,0,0,0,0,0,0,0,-1,1238,1352,0,0
21,-328,0,0,0,0,0,0,0,0,0,-1,1245,1352,0,0
28,-328,0,0,0,0,0,0,0,0,0,-1,1252,1352,0,0
35,-328,0,0,0,0,0,0,0,0,0,-1,1259,1352,0,0
42,-328,0,0,0,0,0,0,0,0,0,-1,1266,1352,0,0
49,-328,0,0,0,0,0,0,0,0,0,-1,1273,1352,0,0
56,-328,0,0,0,0,0,0,0,0,0,-1,1280,1352,0,0
63,-328,0,0,0,0,0,0,0,0,0,-1,1287,1352,0,0
70,-328,0,0,0,0,0,0,0,0,0,-1,1294,1352,0,0
77,-328,0,0,0,0,0,0,0,0,0,-1,1301,1352,0,0
84,-328,0,0,0,0,0,0,0,0,0,-1,1308,1352,0,0
91,-328,0,0,0,0,0,0,0,0,0,-1,1315,1352,0,0
98,-328,0,0,0,0,0,0,0,0,0,-1,1322,1352,0,0
105,-328,0,0,0,0,0,0,0,0,0,-1,1329,1352,0,0
112,-328,0,0,0,0,0,0,0,0,0,-1,1336,1352,0,0
119,-328,0,0,0,0,0,0,0,0,0,-1,1343,1352,0,0
126,-328,0,0,0,0,0,0,0,0,0,-1,1350,1352,0,0
133,-328,0,0,0,0,0,0,0,0,0,-1,1357,1352,0,0
140,-328,0,0,0,0,0,0,0,0,0,-1,1364,1352,0,0
147,-328,0,0,0,0,0,0,0,0,0,-1,1371,1352,0,0
154,-328,0,0,0,0,0,0,0,0,0,-1,1378,1352,0,0
161,-328,0,0,0,0,0,0,0,0,0,-1,1385,1352,0,0
168,-328,0,0,0,0,0,0,0,0,0,-1,1392,1352,0,0
175,-328,0,0,0,0,0,0,0,0,0,-1,1399,1352,0,0
182,-328,0,0,0,0,0,0,0,0,0,-1,1406,1352,0,0
189,-328,0,0,0,0,0,0,0,0,0,-1,1413,1352,0,0
196,-328,0,0,0,0,0,0,0,0,0,-1,1420,1352,0,0
203,-328,0,0,0,0,0,0,0,0,0,-1,1427,1352,0,0
210,-328,0,0,0,0,0,0,0,0,0,-1,1434,1352,0,0
217,-328,0,0,0,0,0,0,0,0,0,-1,1441,1352,0,0
224,-328,0,0,0,0,0,0,0,0,0,-1,1448,1352,0,0
231,-328,0,0,0,0,0,0,0,0,0,-1,1455,1352,0,0
238,-328,0,0,0,0,0,0,0,0,0,-1,1462,1352,0,0
245,-328,0,0,0,0,0,0,0,0,0,-1,1469,1352,0,0
252,-328,0,0,0,0,0,0,0,0,0,-1,1476,1352,0,0
259,-328,0,0,0,0,0,0,0,0,0,-1,1483,1352,0,0
266,-328,0,0,0,0,0,0,0,0,0,-1,1490,1352,0,0
273,-328,0,0,0,0,0,0,0,0,0,-1,1497,1352,0,0
280,-328,0,0,0,0,0,0,0,0,0,-1,1504,1352,0,0
287,-328,0,0,0,0,0,0,0,0,0,-1,1511,1352,0,0
294,-328,0,0,0,0,0,0,0,0,0,-1,1518,1352,0,0
301,-328,0,0,0,0,0,0,0,0,0,-1,1525,1352,0,0
308,-328,0,0,0,0,0,0,0,0,0,-1,1532,1352,0,0
315,-328,0,0,0,0,0,0,0,0,0,-1,1539,1352,0,0
322,-328,0,0,0,0,0,0,0,0,0,-1,1546,1352,0,0
329,-328,0,0,0,0,0,0,0,0,0,-1,1553,1352,0,0
336,-328,0,0,0,0,0,0,0,0,0,-1,1560,1352,0,0
343,-328,0,0,0,0,0,0,0,0,0,-1,1567,1352,0,0
350,-328,0,0,0,0,0,0,0,0,0,-1,1574,1352,0,0
357,-328,0,0,0,0,0,0,0,0,0,-1,1581,1352,0,0
364,-328,0,0,0,0,0,0,0,0,0,-1,1588,1352,0,0
371,-328,0,0,0,0,0,0,0,0,0,-1,1595,1352,0,0
378,-328,0,0,0,0,0,0,0,0,0,-1,1602,1352,0,0
385,-328,0,0,0,0,0,0,0,0,0,-1,1609,1352,0,0
392,-328,0,0,0,0,0,0,0,0,0,-1,1616,1352,0,0
399,-328,0,0,0,0,0,0,0,0,0,-1,1623,1352,0,0
406,-328,0,0,0,0,0,0,0,0,0,-1,1630,1352,0,0
413,-328,0,0,0,0,0,0,0,0,0,-1,1637,1352,0,0
420,-328,0,0,0,0,0,0,0,0,0,-1,1644,1352,0,0
427,-328,0,0,0,0,0,0,0,0,0,-1,1651,1352,0,0
434,-328,0,0,0,0,0,0,0,0,0,-1,1658,1352,0,0
441,-328,0,0,0,0,0,0,0,0,0,-1,1665,1352,0,0
448,-328,0,0,0,0,0,0,0,0,0,-1,1672,1352,0,0
455,-328,0,0,0,0,0,0,0,0,0,-1,1679,1352,0,0
462,-328,0,0,0,0,0,0,0,0,0,-1,1686,1352,0,0
469,-328,0,0,0,0,0,0,0,0,0,-1,1693,1352,0,0
476,-328,0,0,0,0,0,0,0,0,0,-1,1700,1352,0,0
483,-328,0,0,0,0,0,0,0,0,0,-1,1707,1352,0,0
490,-328,0,0,0,0,0,0,0,0,0,-1,1714,1352,0,0
497,-328,0,0,0,0,0,0,0,0,0,-1,1721,1352,0,0
504,-328,0,0,0,0,0,0,0,0,0,-1,1728,1352,0,0
511,-328,0,0,0,0,0,0,0,0,0,-1,1735,1352,0,0
518,-328,0,0,0,0,0,0,0,0,0,-1,1742,1352,0,0
525,-328,0,0,0,0,0,0,0,0,0,-1,1749,1352,0,0
532,-328,0,0,0,0,0,0,0,0,0,-1,1756,1352,0,0
539,-328,0,0,0,0,0,0,0,0,0,-1,1763,1352,0,0
546,-328,0,0,0,0,0,0,0,0,0,-1,1770,1352,0,0
553,-328,0,0,0,0,0,0,0,0,0,-1,1777,1352,0,0
560,-328,0,0,0,0,0,0,0,0,0,-1,1784,1352,0,0
567,-328,0,0,0,0,0,0,0,0,0,-1,1791,1352,0,0
574,-328,43.9309,4.68762,0,0,0,0,0,0,0,-1,1798,1352,43.9309,-4.68761
581,-328,44.3026,4.21765,0,0,0,0,0,0,0,-1,1805,1352,44.3026,-4.21765
588,-328,44.615,3.5448,0.0328552,-0.0530929,-0.0412092,0.0494208,-0.0696585,-0.382219,0.0690806,0.0478104,1812,1352,44.6149,-3.5448
595,-328,44.7709,2.89233,0.0228261,-0.0385278,-0.0324393,0.0367964,-0.0524981,-0.406657,0.0518192,0.0461935,1819,1352,44.7709,-2.89234
602,-328,44.9438,2.34827,0,0,0,0,0,0,0,-1,1826,1352,44.9439,-2.34826
609,-328,37.0468,1.17407,0,0,0,0,0,0,0,-1,1833,1352,37.0468,-1.17407
616,-328,36.999,2.42859,0,0,0,0,0,0,0,-1,1840,1352,36.999,-2.42862
623,-328,34.345,5.14722,0,0,0,0,0,0,0,-1,1847,1352,34.3449,-5.14718
630,-328,22.0211,5.026,0,0,0,0,0,0,0,-1,1854,1352,22.0212,-5.02603
637,-328,21.15,5.53699,0,0,0,0,0,0,0,-1,1861,1352,21.15,-5.53704
644,-328,16.9579,6.3396,0,0,0,0,0,0,0,-1,1868,1352,16.9579,-6.33959
651,-328,28.8229,11.6461,0,0,0,0,0,0,0,-1,1875,1352,28.8229,-11.6462
658,-328,28.6257,11.2173,-0.00816846,0.00767718,0.00705937,0.0103659,-0.0108572,1.20688,0.0122543,0.0402614,1882,1352,28.6257,-11.2172
665,-328,28.6326,10.7493,-0.00475764,0.00394125,0.00436839,0.00575626,-0.00657265,1.17701,0.0071233,0.0146714,1889,1352,28.6325,-10.7493
672,-328,28.6105,10.3143,-0.00197328,0.00115143,0.00212771,0.00222879,-0.00305064,1.10208,0.00306036,0.0125245,1896,1352,28.6105,-10.3143
679,-328,28.6144,9.86206,-9.11341e-05,-2.15565e-05,0.000618228,0.000562861,-0.000675551,0.813504,0.000715984,0.0145908,1903,1352,28.6143,-9.86208
686,-328,28.5906,9.4198,0.000935451,-6.74936e-05,-0.000148631,0.000957014,-8.90564e-05,-0.144071,0.000669672,0.0148937,1910,1352,28.5905,-9.41979
693,-328,28.5713,9.00391,0.0012758,1.59115e-05,-9.46646e-05,0.00128287,8.83825e-06,-0.0745793,0.000852317,0.010446,1917,1352,28.5713,-9.00391
700,-328,28.5646,8.56189,0.00160197,0.000152958,-5.33714e-05,0.00160393,0.000150995,-0.0367666,0.00102268,0.0153324,1924,1352,28.5646,-8.56184
707,-328,28.5782,8.12988,0.00185538,0.000366948,-3.37903e-05,0.00185614,0.000366181,-0.0226864,0.00113523,0.0173307,1931,1352,28.5783,-8.12991
714,-328,28.5781,7.68982,0.00206463,0.000608715,-9.93214e-06,0.00206469,0.000608647,-0.00682152,0.00122506,0.0168465,1938,1352,28.5781,-7.68982
721,-328,28.5637,7.26318,0,0,0,0,0,0,0,-1,1945,1352,28.5637,-7.26321
728,-328,28.05,6.77795,0,0,0,0,0,0,0,-1,1952,1352,28.05,-6.77792
735,-328,20.8927,5.23523,0,0,0,0,0,0,0,-1,1959,1352,20.8927,-5.23528
742,-328,20.3547,4.11316,0,0,0,0,0,0,0,-1,1966,1352,20.3547,-4.11321
749,-328,20.0669,5.66321,0,0,0,0,0,0,0,-1,1973,1352,20.0669,-5.66319
756,-328,19.9543,5.50464,0,0,0,0,0,0,0,-1,1980,1352,19.9543,-5.50463
763,-328,0,0,0,0,0,0,0,0,0,-1,1987,1352,0,0
770,-328,0,0,0,0,0,0,0,0,0,-1,1994,1352,0,0
777,-328,0,0,0,0,0,0,0,0,0,-1,2001,1352,0,0
784,-328,0,0,0,0,0,0,0,0,0,-1,2008,1352,0,0
791,-328,0,0,0,0,0,0,0,0,0,-1,2015,1352,0,0
798,-328,0,0,0,0,0,0,0,0,0,-1,2022,1352,0,0
805,-328,0,0,0,0,0,0,0,0,0,-1,2029,1352,0,0
812,-328,0,0,0,0,0,0,0,0,0,-1,2036,1352,0,0
-700,-335,0,0,0,0,0,0,0,0,0,-1,524,1359,0,0
-693,-335,0,0,0,0,0,0,0,0,0,-1,531,1359,0,0
-686,-335,0,0,0,0,0,0,0,0,0,-1,538,1359,0,0
-679,-335,0,0,0,0,0,0,0,0,0,-1,545,1359,0,0
-672,-335,0,0,0,0,0,0,0,0,0,-1,552,1359,0,0
-665,-335,0,0,0,0,0,0,0,0,0,-1,559,1359,0,0
-658,-335,0,0,0,0,0,0,0,0,0,-1,566,1359,0,0
-651,-335,0,0,0,0,0,0,0,0,0,-1,573,1359,0,0
-644,-335,0,0,0,0,0,0,0,0,0,-1,580,1359,0,0
-637,-335,-9.64746,3.53809,0,0,0,0,0,0,0,-1,587,1359,-9.64744,-3.53803
-630,-335,-6.07397,-2.99902,0,0,0,0,0,0,0,-1,594,1359,-6.07397,2.99902
-623,-335,-8.43304,1.09509,0,0,0,0,0,0,0,-1,601,1359,-8.43301,-1.09507
-616,-335,-7.80927,-0.485352,0,0,0,0,0,0,0,-1,608,1359,-7.80926,0.485291
-609,-335,-7.12256,-2.03601,0,0,0,0,0,0,0,-1,615,1359,-7.12253,2.03601
-602,-335,-9.39935,2.25146,0,0,0,0,0,0,0,-1,622,1359,-9.39935,-2.25145
-595,-335,-9.54767,3.01917,0,0,0,0,0,0,0,-1,629,1359,-9.54768,-3.01911
-588,-335,-15.0002,4.73999,0,0,0,0,0,0,0,-1,636,1359,-15.0002,-4.73993
-581,-335,-14.8838,5.43774,0.00139364,0.000604603,0.000518375,0.00165055,0.000347694,0.460125,0.00100473,0.0386795,643,1359,-14.8838,-5.43772
-574,-335,-14.8858,5.85962,0.00100569,0.000268377,0.000220249,0.00106648,0.000207596,0.269266,0.000652881,0.0137026,650,1359,-14.8858,-5.85964
-567,-335,-14.8805,6.36816,0.000978466,0.000131803,0.000139229,0.00100077,0.000109495,0.158872,0.000633844,0.0175567,657,1359,-14.8805,-6.36812
-560,-335,-14.8906,6.83875,0.00132394,2.50785e-05,0.000237436,0.00136599,-1.69647e-05,0.175255,0.000916364,0.0253284,664,1359,-14.8906,-6.83869
-553,-335,-14.9553,7.34595,0.00197524,-4.30157e-06,0.00052307,0.00210496,-0.000134016,0.243083,0.00145004,0.0276648,671,1359,-14.9554,-7.34593
-546,-335,-14.9644,7.83533,0.00289998,-7.22487e-06,0.000945133,0.00318022,-0.000287473,0.288258,0.00222218,0.0253391,678,1359,-14.9644,-7.83529
-539,-335,-14.9644,8.27307,0.00408215,4.39276e-05,0.00151906,0.00458977,-0.00046369,0.322499,0.00322554,0.020532,685,1359,-14.9643,-8.27306
-532,-335,-14.9924,8.78601,0.00565537,0.000147516,0.00230938,0.00649552,-0.000692628,0.348912,0.00457872,0.0154813,692,1359,-14.9925,-8.78601
-525,-335,-14.9335,9.29297,0.00765537,0.000232379,0.00330773,0.00891542,-0.00102767,0.363969,0.00631411,0.0116942,699,1359,-14.9335,-9.293
-518,-335,-14.8751,9.72693,0.0102288,0.00050029,0.00461288,0.0120682,-0.00133916,0.379441,0.00852699,0.0425106,706,1359,-14.8751,-9.72688
-511,-335,-14.7919,10.1223,0,0,0,0,0,0,0,-1,713,1359,-14.792,-10.1223
-504,-335,-9.35767,5.99695,0,0,0,0,0,0,0,-1,720,1359,-9.35767,-5.99694
-497,-335,-8.75024,-0.650513,0,0,0,0,0,0,0,-1,727,1359,-8.75024,0.650521
-490,-335,-9.51971,0.417603,0,0,0,0,0,0,0,-1,734,1359,-9.51974,-0.41765
-483,-335,-10.2883,1.29224,0,0,0,0,0,0,0,-1,741,1359,-10.2883,-1.2922
-476,-335,-11.9938,-0.173462,0,0,0,0,0,0,0,-1,748,1359,-11.9938,0.173429
-469,-335,-12.8704,-0.204102,0,0,0,0,0,0,0,-1,755,1359,-12.8704,0.204117
-462,-335,-13.486,0.0218506,0,0,0,0,0,0,0,-1,762,1359,-13.4859,-0.0217908
-455,-335,-14.1504,0.549561,0,0,0,0,0,0,0,-1,769,1359,-14.1504,-0.549583
-448,-335,0,0,0,0,0,0,0,0,0,-1,776,1359,0,0
-441,-335,0,0,0,0,0,0,0,0,0,-1,783,1359,0,0
-434,-335,0,0,0,0,0,0,0,0,0,-1,790,1359,0,0
-427,-335,0,0,0,0,0,0,0,0,0,-1,797,1359,0,0
-420,-335,0,0,0,0,0,0,0,0,0,-1,804,1359,0,0
-413,-335,0,0,0,0,0,0,0,0,0,-1,811,1359,0,0
-406,-335,0,0,0,0,0,0,0,0,0,-1,818,1359,0,0
-399,-335,0,0,0,0,0,0,0,0,0,-1,825,1359,0,0
-392,-335,0,0,0,0,0,0,0,0,0,-1,832,1359,0,0
-385,-335,0,0,0,0,0,0,0,0,0,-1,839,1359,0,0
-378,-335,0,0,0,0,0,0,0,0,0,-1,846,1359,0,0
-371,-335,0,0,0,0,0,0,0,0,0,-1,853,1359,0,0
-364,-335,0,0,0,0,0,0,0,0,0,-1,860,1359,0,0
-357,-335,0,0,0,0,0,0,0,0,0,-1,867,1359,0,0
-350,-335,0,0,0,0,0,0,0,0,0,-1,874,1359,0,0
-343,-335,0,0,0,0,0,0,0,0,0,-1,881,1359,0,0
-336,-335,0,0,0,0,0,0,0,0,0,-1,888,1359,0,0
-329,-335,0,0,0,0,0,0,0,0,0,-1,895,1359,0,0
-322,-335,0,0,0,0,0,0,0,0,0,-1,902,1359,0,0
-315,-335,0,0,0,0,0,0,0,0,0,-1,909,1359,0,0
-308,-335,0,0,0,0,0,0,0,0,0,-1,916,1359,0,0
-301,-335,0,0,0,0,0,0,0,0,0,-1,923,1359,0,0
-294,-335,0,0,0,0,0,0,0,0,0,-1,930,1359,0,0
-287,-335,0,0,0,0,0,0,0,0,0,-1,937,1359,0,0
-280,-335,0,0,0,0,0,0,0,0,0,-1,944,1359,0,0
-273,-335,0,0,0,0,0,0,0,0,0,-1,951,1359,0,0
-266,-335,0,0,0,0,0,0,0,0,0,-1,958,1359,0,0
-259,-335,0,0,0,0,0,0,0,0,0,-1,965,1359,0,0
-252,-335,0,0,0,0,0,0,0,0,0,-1,972,1359,0,0
-245,-335,0,0,0,0,0,0,0,0,0,-1,979,1359,0,0
-238,-335,0,0,0,0,0,0,0,0,0,-1,986,1359,0,0
-231,-335,0,0,0,0,0,0,0,0,0,-1,993,1359,0,0
-224,-335,0,0,0,0,0,0,0,0,0,-1,1000,1359,0,0
-217,-335,0,0,0,0,0,0,0,0,0,-1,1007,1359,0,0
-210,-335,0,0,0,0,0,0,0,0,0,-1,1014,1359,0,0
-203,-335,0,0,0,0,0,0,0,0,0,-1,1021,1359,0,0
-196,-335,0,0,0,0,0,0,0,0,0,-1,1028,1359,0,0
-189,-335,0,0,0,0,0,0,0,0,0,-1,1035,1359,0,0
-182,-335,0,0,0,0,0,0,0,0,0,-1,1042,1359,0,0
-175,-335,0,0,0,0,0,0,0,0,0,-1,1049,1359,0,0
-168,-335,0,0,0,0,0,0,0,0,0,-1,1056,1359,0,0
-161,-335,0,0,0,0,0,0,0,0,0,-1,1063,1359,0,0
-154,-335,0,0,0,0,0,0,0,0,0,-1,1070,1359,0,0
-147,-335,0,0,0,0,0,0,0,0,0,-1,1077,1359,0,0
-140,-335,0,0,0,0,0,0,0,0,0,-1,1084,1359,0,0
-133,-335,0,0,0,0,0,0,0,0,0,-1,1091,1359,0,0
-126,-335,0,0,0,0,0,0,0,0,0,-1,1098,1359,0,0
-119,-335,0,0,0,0,0,0,0,0,0,-1,1105,1359,0,0
-112,-335,0,0,0,0,0,0,0,0,0,-1,1112,1359,0,0
-105,-335,0,0,0,0,0,0,0,0,0,-1,1119,1359,0,0
-98,-335,0,0,0,0,0,0,0,0,0,-1,1126,1359,0,0
-91,-335,0,0,0,0,0,0,0,0,0,-1,1133,1359,0,0
-84,-335,0,0,0,0,0,0,0,0,0,-1,1140,1359,0,0
-77,-335,0,0,0,0,0,0,0,0,0,-1,1147,1359,0,0
-70,-335,0,0,0,0,0,0,0,0,0,-1,1154,1359,0,0
-63,-335,0,0,0,0,0,0,0,0,0,-1,1161,1359,0,0
-56,-335,0,0,0,0,0,0,0,0,0,-1,1168,1359,0,0
-49,-335,0,0,0,0,0,0,0,0,0,-1,1175,1359,0,0
-42,-335,0,0,0,0,0,0,0,0,0,-1,1182,1359,0,0
-35,-335,0,0,0,0,0,0,0,0,0,-1,1189,1359,0,0
-28,-335,0,0,0,0,0,0,0,0,0,-1,1196,1359,0,0
-21,-335,0,0,0,0,0,0,0,0,0,-1,1203,1359,0,0
-14,-335,0,0,0,0,0,0,0,0,0,-1,1210,1359,0,0
-7,-335,0,0,0,0,0,0,0,0,0,-1,1217,1359,0,0
0,-335,0,0,0,0,0,0,0,0,0,-1,1224,1359,0,0
7,-335,0,0,0,0,0,0,0,0,0,-1,1231,1359,0,0
14,-335,0,0,0,0,0,0,0,0,0,-1,1238,1359,0,0
21,-335,0,0,0,0,0,0,0,0,0,-1,1245,1359,0,0
28,-335,0,0,0,0,0,0,0,0,0,-1,1252,1359,0,0
35,-335,0,0,0,0,0,0,0,0,0,-1,1259,1359,0,0
42,-335,0,0,0,0,0,0,0,0,0,-1,1266,1359,0,0
49,-335,0,0,0,0,0,0,0,0,0,-1,1273,1359,0,0
56,-335,0,0,0,0,0,0,0,0,0,-1,1280,1359,0,0
63,-335,0,0,0,0,0,0,0,0,0,-1,1287,1359,0,0
70,-335,0,0,0,0,0,0,0,0,0,-1,1294,1359,0,0
77,-335,0,0,0,0,0,0,0,0,0,-1,1301,1359,0,0
84,-335,0,0,0,0,0,0,0,0,0,-1,1308,1359,0,0
91,-335,0,0,0,0,0,0,0,0,0,-1,1315,1359,0,0
98,-335,0,0,0,0,0,0,0,0,0,-1,1322,1359,0,0
105,-335,0,0,0,0,0,0,0,0,0,-1,1329,1359,0,0
112,-335,0,0,0,0,0,0,0,0,0,-1,1336,1359,0,0
119,-335,0,0,0,0,0,0,0,0,0,-1,1343,1359,0,0
126,-335,0,0,0,0,0,0,0,0,0,-1,1350,1359,0,0
133,-335,0,0,0,0,0,0,0,0,0,-1,1357,1359,0,0
140,-335,0,0,0,0,0,0,0,0,0,-1,1364,1359,0,0
147,-335,0,0,0,0,0,0,0,0,0,-1,1371,1359,0,0
154,-335,0,0,0,0,0,0,0,0,0,-1,1378,1359,0,0
161,-335,0,0,0,0,0,0,0,0,0,-1,1385,1359,0,0
168,-335,0,0,0,0,0,0,0,0,0,-1,1392,1359,0,0
175,-335,0,0,0,0,0,0,0,0,0,-1,1399,1359,0,0
182,-335,0,0,0,0,0,0,0,0,0,-1,1406,1359,0,0
189,-335,0,0,0,0,0,0,0,0,0,-1,1413,1359,0,0
196,-335,0,0,0,0,0,0,0,0,0,-1,1420,1359,0,0
203,-335,0,0,0,0,0,0,0,0,0,-1,1427,1359,0,0
210,-335,0,0,0,0,0,0,0,0,0,-1,1434,1359,0,0
217,-335,0,0,0,0,0,0,0,0,0,-1,1441,1359,0,0
224,-335,0,0,0,0,0,0,0,0,0,-1,1448,1359,0,0
231,-335,0,0,0,0,0,0,0,0,0,-1,1455,1359,0,0
238,-335,0,0,0,0,0,0,0,0,0,-1,1462,1359,0,0
245,-335,0,0,0,0,0,0,0,0,0,-1,1469,1359,0,0
252,-335,0,0,0,0,0,0,0,0,0,-1,1476,1359,0,0
259,-335,0,0,0,0,0,0,0,0,0,-1,1483,1359,0,0
266,-335,0,0,0,0,0,0,0,0,0,-1,1490,1359,0,0
273,-335,0,0,0,0,0,0,0,0,0,-1,1497,1359,0,0
280,-335,0,0,0,0,0,0,0,0,0,-1,1504,1359,0,0
287,-335,0,0,0,0,0,0,0,0,0,-1,1511,1359,0,0
294,-335,0,0,0,0,0,0,0,0,0,-1,1518,1359,0,0
301,-335,0,0,0,0,0,0,0,0,0,-1,1525,1359,0,0
308,-335,0,0,0,0,0,0,0,0,0,-1,1532,1359,0,0
315,-335,0,0,0,0,0,0,0,0,0,-1,1539,1359,0,0
322,-335,0,0,0,0,0,0,0,0,0,-1,1546,1359,0,0
329,-335,0,0,0,0,0,0,0,0,0,-1,1553,1359,0,0
336,-335,0,0,0,0,0,0,0,0,0,-1,1560,1359,0,0
343,-335,0,0,0,0,0,0,0,0,0,-1,1567,1359,0,0
350,-335,0,0,0,0,0,0,0,0,0,-1,1574,1359,0,0
357,-335,0,0,0,0,0,0,0,0,0,-1,1581,1359,0,0
364,-335,0,0,0,0,0,0,0,0,0,-1,1588,1359,0,0
371,-335,0,0,0,0,0,0,0,0,0,-1,1595,1359,0,0
378,-335,0,0,0,0,0,0,0,0,0,-1,1602,1359,0,0
385,-335,0,0,0,0,0,0,0,0,0,-1,1609,1359,0,0
392,-335,0,0,0,0,0,0,0,0,0,-1,1616,1359,0,0
399,-335,0,0,0,0,0,0,0,0,0,-1,1623,1359,0,0
406,-335,0,0,0,0,0,0,0,0,0,-1,1630,1359,0,0
413,-335,0,0,0,0,0,0,0,0,0,-1,1637,1359,0,0
420,-335,0,0,0,0,0,0,0,0,0,-1,1644,1359,0,0
427,-335,0,0,0,0,0,0,0,0,0,-1,1651,1359,0,0
434,-335,0,0,0,0,0,0,0,0,0,-1,1658,1359,0,0
441,-335,0,0,0,0,0,0,0,0,0,-1,1665,1359,0,0
448,-335,0,0,0,0,0,0,0,0,0,-1,1672,1359,0,0
455,-335,0,0,0,0,0,0,0,0,0,-1,1679,1359,0,0
462,-335,0,0,0,0,0,0,0,0,0,-1,1686,1359,0,0
469,-335,0,0,0,0,0,0,0,0,0,-1,1693,1359,0,0
476,-335,0,0,0,0,0,0,0,0,0,-1,1700,1359,0,0
483,-335,0,0,0,0,0,0,0,0,0,-1,1707,1359,0,0
490,-335,0,0,0,0,0,0,0,0,0,-1,1714,1359,0,0
497,-335,0,0,0,0,0,0,0,0,0,-1,1721,1359,0,0
504,-335,0,0,0,0,0,0,0,0,0,-1,1728,1359,0,0
511,-335,0,0,0,0,0,0,0,0,0,-1,1735,1359,0,0
518,-335,0,0,0,0,0,0,0,0,0,-1,1742,1359,0,0
525,-335,0,0,0,0,0,0,0,0,0,-1,1749,1359,0,0
532,-335,0,0,0,0,0,0,0,0,0,-1,1756,1359,0,0
539,-335,0,0,0,0,0,0,0,0,0,-1,1763,1359,0,0
546,-335,0,0,0,0,0,0,0,0,0,-1,1770,1359,0,0
553,-335,0,0,0,0,0,0,0,0,0,-1,1777,1359,0,0
560,-335,0,0,0,0,0,0,0,0,0,-1,1784,1359,0,0
567,-335,0,0,0,0,0,0,0,0,0,-1,1791,1359,0,0
574,-335,44.2012,4.51257,0,0,0,0,0,0,0,-1,1798,1359,44.2012,-4.5126
581,-335,44.5885,3.96826,0,0,0,0,0,0,0,-1,1805,1359,44.5885,-3.9683
588,-335,44.9042,3.34509,0,0,0,0,0,0,0,-1,1812,1359,44.9042,-3.34512
595,-335,44.9557,2.82434,0,0,0,0,0,0,0,-1,1819,1359,44.9556,-2.82429
602,-335,36.5643,0.0861816,0,0,0,0,0,0,0,-1,1826,1359,36.5643,-0.0862283
609,-335,36.2933,0.993896,0,0,0,0,0,0,0,-1,1833,1359,36.2934,-0.993911
616,-335,34.6969,4.82666,0,0,0,0,0,0,0,-1,1840,1359,34.6969,-4.82667
623,-335,26.6051,6.54333,0,0,0,0,0,0,0,-1,1847,1359,26.6051,-6.54339
630,-335,19.1707,1.00952,0,0,0,0,0,0,0,-1,1854,1359,19.1707,-1.00953
637,-335,18.2009,6.65454,0,0,0,0,0,0,0,-1,1861,1359,18.2009,-6.6546
644,-335,28.1042,12.067,0,0,0,0,0,0,0,-1,1868,1359,28.1042,-12.067
651,-335,28.0845,11.8053,0,0,0,0,0,0,0,-1,1875,1359,28.0845,-11.8053
658,-335,28.1547,11.2656,-0.00597217,0.00530749,0.00466245,0.00698518,-0.00764987,1.22539,0.00845245,0.0255996,1882,1359,28.1546,-11.2656
665,-335,28.2106,10.7606,-0.00315846,0.00263747,0.00263898,0.003659,-0.00417998,1.20147,0.00452917,0.0149264,1889,1359,28.2106,-10.7606
672,-335,28.1835,10.3104,-0.00102264,0.000793553,0.00117638,0.00137156,-0.00160065,1.1141,0.0017177,0.0180092,1896,1359,28.1835,-10.3104
679,-335,28.1791,9.89185,0.000393926,-3.23578e-06,0.000251676,0.000515931,-0.000125241,0.451389,0.00039242,0.0158405,1903,1359,28.1791,-9.89186
686,-335,28.1871,9.43945,0.00123179,-5.5135e-05,-0.000159692,0.00125131,-7.46548e-05,-0.121631,0.00086017,0.013396,1910,1359,28.1871,-9.43945
693,-335,28.1504,9.0061,0.00169364,-6.72389e-06,-0.000130956,0.00170367,-1.67505e-05,-0.0764156,0.0011414,0.0111817,1917,1359,28.1503,-9.00614
700,-335,28.1188,8.59985,0.00215636,0.000113012,-0.000133939,0.00216511,0.000104269,-0.0651771,0.00140993,0.0119524,1924,1359,28.1188,-8.5998
707,-335,28.1152,8.15942,0.00254022,0.000353554,-0.000182079,0.00255528,0.000338496,-0.0825105,0.00160265,0.0152771,1931,1359,28.1153,-8.15942
714,-335,28.1372,7.62695,0.00293638,0.000626845,-0.000225334,0.00295816,0.000605065,-0.0963559,0.00180456,0.0346167,1938,1359,28.1372,-7.62696
721,-335,28.0884,7.02454,0,0,0,0,0,0,0,-1,1945,1359,28.0883,-7.02459
728,-335,20.8126,5.21167,0,0,0,0,0,0,0,-1,1952,1359,20.8127,-5.21172
735,-335,20.2725,5.34729,0,0,0,0,0,0,0,-1,1959,1359,20.2724,-5.34734
742,-335,19.8624,4.72229,0,0,0,0,0,0,0,-1,1966,1359,19.8624,-4.72225
749,-335,20.5887,6.05322,0,0,0,0,0,0,0,-1,1973,1359,20.5887,-6.05322
756,-335,20.7832,6.00452,0,0,0,0,0,0,0,-1,1980,1359,20.7832,-6.00447
763,-335,0,0,0,0,0,0,0,0,0,-1,1987,1359,0,0
770,-335,0,0,0,0,0,0,0,0,0,-1,1994,1359,0,0
777,-335,0,0,0,0,0,0,0,0,0,-1,2001,1359,0,0
784,-335,0,0,0,0,0,0,0,0,0,-1,2008,1359,0,0
791,-335,0,0,0,0,0,0,0,0,0,-1,2015,1359,0,0
798,-335,0,0,0,0,0,0,0,0,0,-1,2022,1359,0,0
805,-335,0,0,0,0,0,0,0,0,0,-1,2029,1359,0,0
812,-335,0,0,0,0,0,0,0,0,0,-1,2036,1359,0,0
-700,-342,0,0,0,0,0,0,0,0,0,-1,524,1366,0,0
-693,-342,0,0,0,0,0,0,0,0,0,-1,531,1366,0,0
-686,-342,0,0,0,0,0,0,0,0,0,-1,538,1366,0,0
-679,-342,0,0,0,0,0,0,0,0,0,-1,545,1366,0,0
-672,-342,0,0,0,0,0,0,0,0,0,-1,552,1366,0,0
-665,-342,0,0,0,0,0,0,0,0,0,-1,559,1366,0,0
-658,-342,0,0,0,0,0,0,0,0,0,-1,566,1366,0,0
-651,-342,0,0,0,0,0,0,0,0,0,-1,573,1366,0,0
-644,-342,0,0,0,0,0,0,0,0,0,-1,580,1366,0,0
-637,-342,-8.67786,-4.58557,0,0,0,0,0,0,0,-1,587,1366,-8.67788,4.5856
-630,-342,-8.60132,2.71777,0,0,0,0,0,0,0,-1,594,1366,-8.60135,-2.71779
-623,-342,-8.41168,0.662476,0,0,0,0,0,0,0,-1,601,1366,-8.41168,-0.662442
-616,-342,-6.625,-1.28015,0,0,0,0,0,0,0,-1,608,1366,-6.62499,1.28011
-609,-342,-7.83154,0.674561,0,0,0,0,0,0,0,-1,615,1366,-7.83155,-0.674598
-602,-342,-9.65765,2.25195,0,0,0,0,0,0,0,-1,622,1366,-9.65767,-2.25192
-595,-342,-9.47687,3.00671,0,0,0,0,0,0,0,-1,629,1366,-9.47686,-3.00668
-588,-342,-9.78467,3.57727,0,0,0,0,0,0,0,-1,636,1366,-9.78468,-3.57723
-581,-342,-14.4639,5.32227,0,0,0,0,0,0,0,-1,643,1366,-14.4639,-5.32221
-574,-342,-14.4415,5.90027,0.000283188,-0.000463594,-0.000418176,0.000470415,-0.000650821,-0.420958,0.000650133,0.0147924,650,1366,-14.4415,-5.90027
-567,-342,-14.3868,6.39648,0.000332901,-0.000374365,-0.000374181,0.000494115,-0.000535579,-0.406812,0.000594655,0.0174708,657,1366,-14.3869,-6.39651
-560,-342,-14.4261,6.84827,0.000768431,-0.000333776,-0.000183635,0.00079822,-0.000363565,-0.160821,0.000686227,0.0250498,664,1366,-14.4261,-6.84828
-553,-342,-14.4522,7.31519,0.0015262,-0.000222085,0.000209937,0.00155106,-0.000246941,0.11785,0.00112542,0.0262852,671,1366,-14.4522,-7.31514
-546,-342,-14.4647,7.78125,0.00253873,-8.38103e-05,0.000734677,0.00273052,-0.000275597,0.25535,0.00191882,0.0268456,678,1366,-14.4647,-7.78123
-539,-342,-14.4905,8.30701,0.00377308,9.35897e-05,0.00139404,0.00424158,-0.000374911,0.324216,0.00296061,0.0224074,685,1366,-14.4905,-8.30699
-532,-342,-14.5093,8.83191,0.00530964,0.000301815,0.00222379,0.00615458,-0.000543127,0.363108,0.00429556,0.0176378,692,1366,-14.5093,-8.83189
-525,-342,-14.459,9.32617,0.00720609,0.000541451,0.00324902,0.00852785,-0.000780314,0.386371,0.00596238,0.012686,699,1366,-14.459,-9.32614
-518,-342,-14.3804,9.84326,0.00956291,0.000953395,0.00453847,0.0115134,-0.000997136,0.40591,0.00802867,0.0274832,706,1366,-14.3804,-9.84321
-511,-342,-14.366,10.3461,0,0,0,0,0,0,0,-1,713,1366,-14.366,-10.3461
-504,-342,-8.95709,6.5719,0,0,0,0,0,0,0,-1,720,1366,-8.95707,-6.57192
-497,-342,-8.26587,-0.943604,0,0,0,0,0,0,0,-1,727,1366,-8.26586,0.943543
-490,-342,-9.07153,-0.0227051,0,0,0,0,0,0,0,-1,734,1366,-9.07155,0.0227087
-483,-342,-9.87726,0.898071,0,0,0,0,0,0,0,-1,741,1366,-9.87724,-0.898125
-476,-342,-11.6371,-0.736328,0,0,0,0,0,0,0,-1,748,1366,-11.6371,0.736281
-469,-342,-12.6245,-0.987549,0,0,0,0,0,0,0,-1,755,1366,-12.6245,0.987553
-462,-342,-13.0912,-0.533203,0,0,0,0,0,0,0,-1,762,1366,-13.0912,0.533224
-455,-342,-13.7612,0.122925,0,0,0,0,0,0,0,-1,769,1366,-13.7612,-0.122896
-448,-342,-14.5278,0.826904,0,0,0,0,0,0,0,-1,776,1366,-14.5277,-0.826861
-441,-342,0,0,0,0,0,0,0,0,0,-1,783,1366,0,0
-434,-342,0,0,0,0,0,0,0,0,0,-1,790,1366,0,0
-427,-342,0,0,0,0,0,0,0,0,0,-1,797,1366,0,0
-420,-342,0,0,0,0,0,0,0,0,0,-1,804,1366,0,0
-413,-342,0,0,0,0,0,0,0,0,0,-1,811,1366,0,0
-406,-342,0,0,0,0,0,0,0,0,0,-1,818,1366,0,0
-399,-342,0,0,0,0,0,0,0,0,0,-1,825,1366,0,0
-392,-342,0,0,0,0,0,0,0,0,0,-1,832,1366,0,0
-385,-342,0,0,0,0,0,0,0,0,0,-1,839,1366,0,0
-378,-342,0,0,0,0,0,0,0,0,0,-1,846,1366,0,0
-371,-342,0,0,0,0,0,0,0,0,0,-1,853,1366,0,0
-364,-342,0,0,0,0,0,0,0,0,0,-1,860,1366,0,0
-357,-342,0,0,0,0,0,0,0,0,0,-1,867,1366,0,0
-350,-342,0,0,0,0,0,0,0,0,0,-1,874,1366,0,0
-343,-342,0,0,0,0,0,0,0,0,0,-1,881,1366,0,0
-336,-342,0,0,0,0,0,0,0,0,0,-1,888,1366,0,0
-329,-342,0,0,0,0,0,0,0,0,0,-1,895,1366,0,0
-322,-342,0,0,0,0,0,0,0,0,0,-1,902,1366,0,0
-315,-342,0,0,0,0,0,0,0,0,0,-1,909,1366,0,0
-308,-342,0,0,0,0,0,0,0,0,0,-1,916,1366,0,0
-301,-342,0,0,0,0,0,0,0,0,0,-1,923,1366,0,0
-294,-342,0,0,0,0,0,0,0,0,0,-1,930,1366,0,0
-287,-342,0,0,0,0,0,0,0,0,0,-1,937,1366,0,0
-280,-342,0,0,0,0,0,0,0,0,0,-1,944,1366,0,0
-273,-342,0,0,0,0,0,0,0,0,0,-1,951,1366,0,0
-266,-342,0,0,0,0,0,0,0,0,0,-1,958,1366,0,0
-259,-342,0,0,0,0,0,0,0,0,0,-1,965,1366,0,0
-252,-342,0,0,0,0,0,0,0,0,0,-1,972,1366,0,0
-245,-342,0,0,0,0,0,0,0,0,0,-1,979,1366,0,0
-238,-342,0,0,0,0,0,0,0,0,0,-1,986,1366,0,0
-231,-342,0,0,0,0,0,0,0,0,0,-1,993,1366,0,0
-224,-342,0,0,0,0,0,0,0,0,0,-1,1000,1366,0,0
-217,-342,0,0,0,0,0,0,0,0,0,-1,1007,1366,0,0
-210,-342,0,0,0,0,0,0,0,0,0,-1,1014,1366,0,0
-203,-342,0,0,0,0,0,0,0,0,0,-1,1021,1366,0,0
-196,-342,0,0,0,0,0,0,0,0,0,-1,1028,1366,0,0
-189,-342,0,0,0,0,0,0,0,0,0,-1,1035,1366,0,0
-182,-342,0,0,0,0,0,0,0,0,0,-1,1042,1366,0,0
-175,-342,0,0,0,0,0,0,0,0,0,-1,1049,1366,0,0
-168,-342,0,0,0,0,0,0,0,0,0,-1,1056,1366,0,0
-161,-342,0,0,0,0,0,0,0,0,0,-1,1063,1366,0,0
-154,-342,0,0,0,0,0,0,0,0,0,-1,1070,1366,0,0
-147,-342,0,0,0,0,0,0,0,0,0,-1,1077,1366,0,0
-140,-342,0,0,0,0,0,0,0,0,0,-1,1084,1366,0,0
-133,-342,0,0,0,0,0,0,0,0,0,-1,1091,1366,0,0
-126,-342,0,0,0,0,0,0,0,0,0,-1,1098,1366,0,0
-119,-342,0,0,0,0,0,0,0,0,0,-1,1105,1366,0,0
-112,-342,0,0,0,0,0,0,0,0,0,-1,1112,1366,0,0
-105,-342,0,0,0,0,0,0,0,0,0,-1,1119,1366,0,0
-98,-342,0,0,0,0,0,0,0,0,0,-1,1126,1366,0,0
-91,-342,0,0,0,0,0,0,0,0,0,-1,1133,1366,0,0
-84,-342,0,0,0,0,0,0,0,0,0,-1,1140,1366,0,0
-77,-342,0,0,0,0,0,0,0,0,0,-1,1147,1366,0,0
-70,-342,0,0,0,0,0,0,0,0,0,-1,1154,1366,0,0
-63,-342,0,0,0,0,0,0,0,0,0,-1,1161,1366,0,0
-56,-342,0,0,0,0,0,0,0,0,0,-1,1168,1366,0,0
-49,-342,0,0,0,0,0,0,0,0,0,-1,1175,1366,0,0
-42,-342,0,0,0,0,0,0,0,0,0,-1,1182,1366,0,0
-35,-342,0,0,0,0,0,0,0,0,0,-1,1189,1366,0,0
-28,-342,0,0,0,0,0,0,0,0,0,-1,1196,1366,0,0
-21,-342,0,0,0,0,0,0,0,0,0,-1,1203,1366,0,0
-14,-342,0,0,0,0,0,0,0,0,0,-1,1210,1366,0,0
-7,-342,0,0,0,0,0,0,0,0,0,-1,1217,1366,0,0
0,-342,0,0,0,0,0,0,0,0,0,-1,1224,1366,0,0
7,-342,0,0,0,0,0,0,0,0,0,-1,1231,1366,0,0
14,-342,0,0,0,0,0,0,0,0,0,-1,1238,1366,0,0
21,-342,0,0,0,0,0,0,0,0,0,-1,1245,1366,0,0
28,-342,0,0,0,0,0,0,0,0,0,-1,1252,1366,0,0
35,-342,0,0,0,0,0,0,0,0,0,-1,1259,1366,0,0
42,-342,0,0,0,0,0,0,0,0,0,-1,1266,1366,0,0
49,-342,0,0,0,0,0,0,0,0,0,-1,1273,1366,0,0
56,-342,0,0,0,0,0,0,0,0,0,-1,1280,1366,0,0
63,-342,0,0,0,0,0,0,0,0,0,-1,1287,1366,0,0
70,-342,0,0,0,0,0,0,0,0,0,-1,1294,1366,0,0
77,-342,0,0,0,0,0,0,0,0,0,-1,1301,1366,0,0
84,-342,0,0,0,0,0,0,0,0,0,-1,1308,1366,0,0
91,-342,0,0,0,0,0,0,0,0,0,-1,1315,1366,0,0
98,-342,0,0,0,0,0,0,0,0,0,-1,1322,1366,0,0
105,-342,0,0,0,0,0,0,0,0,0,-1,1329,1366,0,0
112,-342,0,0,0,0,0,0,0,0,0,-1,1336,1366,0,0
119,-342,0,0,0,0,0,0,0,0,0,-1,1343,1366,0,0
126,-342,0,0,0,0,0,0,0,0,0,-1,1350,1366,0,0
133,-342,0,0,0,0,0,0,0,0,0,-1,1357,1366,0,0
140,-342,0,0,0,0,0,0,0,0,0,-1,1364,1366,0,0
147,-342,0,0,0,0,0,0,0,0,0,-1,1371,1366,0,0
154,-342,0,0,0,0,0,0,0,0,0,-1,1378,1366,0,0
161,-342,0,0,0,0,0,0,0,0,0,-1,1385,1366,0,0
168,-342,0,0,0,0,0,0,0,0,0,-1,1392,1366,0,0
175,-342,0,0,0,0,0,0,0,0,0,-1,1399,1366,0,0
182,-342,0,0,0,0,0,0,0,0,0,-1,1406,1366,0,0
189,-342,0,0,0,0,0,0,0,0,0,-1,1413,1366,0,0
196,-342,0,0,0,0,0,0,0,0,0,-1,1420,1366,0,0
203,-342,0,0,0,0,0,0,0,0,0,-1,1427,1366,0,0
210,-342,0,0,0,0,0,0,0,0,0,-1,1434,1366,0,0
217,-342,0,0,0,0,0,0,0,0,0,-1,1441,1366,0,0
224,-342,0,0,0,0,0,0,0,0,0,-1,1448,1366,0,0
231,-342,0,0,0,0,0,0,0,0,0,-1,1455,1366,0,0
238,-342,0,0,0,0,0,0,0,0,0,-1,1462,1366,0,0
245,-342,0,0,0,0,0,0,0,0,0,-1,1469,1366,0,0
252,-342,0,0,0,0,0,0,0,0,0,-1,1476,1366,0,0
259,-342,0,0,0,0,0,0,0,0,0,-1,1483,1366,0,0
266,-342,0,0,0,0,0,0,0,0,0,-1,1490,1366,0,0
273,-342,0,0,0,0,0,0,0,0,0,-1,1497,1366,0,0
280,-342,0,0,0,0,0,0,0,0,0,-1,1504,1366,0,0
287,-342,0,0,0,0,0,0,0,0,0,-1,1511,1366,0,0
294,-342,0,0,0,0,0,0,0,0,0,-1,1518,1366,0,0
301,-342,0,0,0,0,0,0,0,0,0,-1,1525,1366,0,0
308,-342,0,0,0,0,0,0,0,0,0,-1,1532,1366,0,0
315,-342,0,0,0,0,0,0,0,0,0,-1,1539,1366,0,0
322,-342,0,0,0,0,0,0,0,0,0,-1,1546,1366,0,0
329,-342,0,0,0,0,0,0,0,0,0,-1,1553,1366,0,0
336,-342,0,0,0,0,0,0,0,0,0,-1,1560,1366,0,0
343,-342,0,0,0,0,0,0,0,0,0,-1,1567,1366,0,0
350,-342,0,0,0,0,0,0,0,0,0,-1,1574,1366,0,0
357,-342,0,0,0,0,0,0,0,0,0,-1,1581,1366,0,0
364,-342,0,0,0,0,0,0,0,0,0,-1,1588,1366,0,0
371,-342,0,0,0,0,0,0,0,0,0,-1,1595,1366,0,0
378,-342,0,0,0,0,0,0,0,0,0,-1,1602,1366,0,0
385,-342,0,0,0,0,0,0,0,0,0,-1,1609,1366,0,0
392,-342,0,0,0,0,0,0,0,0,0,-1,1616,1366,0,0
399,-342,0,0,0,0,0,0,0,0,0,-1,1623,1366,0,0
406,-342,0,0,0,0,0,0,0,0,0,-1,1630,1366,0,0
413,-342,0,0,0,0,0,0,0,0,0,-1,1637,1366,0,0
420,-342,0,0,0,0,0,0,0,0,0,-1,1644,1366,0,0
427,-342,0,0,0,0,0,0,0,0,0,-1,1651,1366,0,0
434,-342,0,0,0,0,0,0,0,0,0,-1,1658,1366,0,0
441,-342,0,0,0,0,0,0,0,0,0,-1,1665,1366,0,0
448,-342,0,0,0,0,0,0,0,0,0,-1,1672,1366,0,0
455,-342,0,0,0,0,0,0,0,0,0,-1,1679,1366,0,0
462,-342,0,0,0,0,0,0,0,0,0,-1,1686,1366,0,0
469,-342,0,0,0,0,0,0,0,0,0,-1,1693,1366,0,0
476,-342,0,0,0,0,0,0,0,0,0,-1,1700,1366,0,0
483,-342,0,0,0,0,0,0,0,0,0,-1,1707,1366,0,0
490,-342,0,0,0,0,0,0,0,0,0,-1,1714,1366,0,0
497,-342,0,0,0,0,0,0,0,0,0,-1,1721,1366,0,0
504,-342,0,0,0,0,0,0,0,0,0,-1,1728,1366,0,0
511,-342,0,0,0,0,0,0,0,0,0,-1,1735,1366,0,0
518,-342,0,0,0,0,0,0,0,0,0,-1,1742,1366,0,0
525,-342,0,0,0,0,0,0,0,0,0,-1,1749,1366,0,0
532,-342,0,0,0,0,0,0,0,0,0,-1,1756,1366,0,0
539,-342,0,0,0,0,0,0,0,0,0,-1,1763,1366,0,0
546,-342,0,0,0,0,0,0,0,0,0,-1,1770,1366,0,0
553,-342,0,0,0,0,0,0,0,0,0,-1,1777,1366,0,0
560,-342,0,0,0,0,0,0,0,0,0,-1,1784,1366,0,0
567,-342,39.0701,1.72729,0,0,0,0,0,0,0,-1,1791,1366,39.0701,-1.72734
574,-342,39.0065,-4.18713,0,0,0,0,0,0,0,-1,1798,1366,39.0065,4.18708
581,-342,38.4872,-3.02197,0,0,0,0,0,0,0,-1,1805,1366,38.4872,3.02197
588,-342,36.3129,-0.883789,0,0,0,0,0,0,0,-1,1812,1366,36.3129,0.883753
595,-342,35.7993,0.709961,0,0,0,0,0,0,0,-1,1819,1366,35.7993,-0.709913
602,-342,36.3618,3.28723,0,0,0,0,0,0,0,-1,1826,1366,36.3619,-3.28719
609,-342,35.3777,4.14978,0,0,0,0,0,0,0,-1,1833,1366,35.3777,-4.14976
616,-342,34.199,5.8158,0,0,0,0,0,0,0,-1,1840,1366,34.199,-5.81579
623,-342,26.0299,6.86865,0,0,0,0,0,0,0,-1,1847,1366,26.0299,-6.86863
630,-342,17.3431,0.773071,0,0,0,0,0,0,0,-1,1854,1366,17.3432,-0.773095
637,-342,16.196,6.76172,0,0,0,0,0,0,0,-1,1861,1366,16.1961,-6.76174
644,-342,27.6296,12.1428,0,0,0,0,0,0,0,-1,1868,1366,27.6297,-12.1428
651,-342,27.7841,11.7339,-0.00654082,0.00457763,0.00338887,0.00552912,-0.00749231,1.29707,0.00754635,0.0408962,1875,1366,27.7841,-11.7338
658,-342,27.7466,11.2181,-0.00371057,0.00250093,0.00186773,0.00301928,-0.00422891,1.30008,0.00420413,0.0199825,1882,1366,27.7466,-11.2182
665,-342,27.7379,10.728,-0.00173671,0.00117953,0.000949237,0.00146129,-0.00201847,1.28226,0.00201761,0.0176715,1889,1366,27.7379,-10.728
672,-342,27.7314,10.3331,-0.000243369,0.000285657,0.000378186,0.000482654,-0.000440367,1.09057,0.000533093,0.0144226,1896,1366,27.7315,-10.3331
679,-342,27.7211,9.93054,0.000796472,-0.000117081,7.37589e-05,0.000802389,-0.000122998,0.0800475,0.000580287,0.0143917,1903,1366,27.721,-9.93055
686,-342,27.7513,9.50842,0.00154048,-0.000189381,-2.89654e-05,0.00154097,-0.000189865,-0.0167381,0.0010961,0.0123954,1910,1366,27.7513,-9.5084
693,-342,27.722,9.06091,0.00213656,-0.000186831,-1.28819e-05,0.00213663,-0.000186902,-0.00554422,0.00149063,0.0125031,1917,1366,27.722,-9.06087
700,-342,27.6906,8.61804,0.00275224,-0.000101418,-5.40856e-05,0.00275326,-0.000102442,-0.018944,0.00187059,0.0139294,1924,1366,27.6905,-8.61806
707,-342,27.6869,8.13794,0.00326756,0.000153198,-0.000178208,0.00327773,0.000143034,-0.0569733,0.00213907,0.0136942,1931,1366,27.6868,-8.138
714,-342,27.6995,7.651,0,0,0,0,0,0,0,-1,1938,1366,27.6995,-7.65094
721,-342,22.4666,6.08679,0,0,0,0,0,0,0,-1,1945,1366,22.4666,-6.08678
728,-342,19.8912,5.26636,0,0,0,0,0,0,0,-1,1952,1366,19.8913,-5.26636
735,-342,19.481,4.41968,0,0,0,0,0,0,0,-1,1959,1366,19.4809,-4.41962
742,-342,19.309,2.66943,0,0,0,0,0,0,0,-1,1966,1366,19.3089,-2.66948
749,-342,21.0934,6.47729,0,0,0,0,0,0,0,-1,1973,1366,21.0934,-6.4773
756,-342,0,0,0,0,0,0,0,0,0,-1,1980,1366,0,0
763,-342,0,0,0,0,0,0,0,0,0,-1,1987,1366,0,0
770,-342,0,0,0,0,0,0,0,0,0,-1,1994,1366,0,0
777,-342,0,0,0,0,0,0,0,0,0,-1,2001,1366,0,0
784,-342,0,0,0,0,0,0,0,0,0,-1,2008,1366,0,0
791,-342,0,0,0,0,0,0,0,0,0,-1,2015,1366,0,0
798,-342,0,0,0,0,0,0,0,0,0,-1,2022,1366,0,0
805,-342,0,0,0,0,0,0,0,0,0,-1,2029,1366,0,0
812,-342,0,0,0,0,0,0,0,0,0,-1,2036,1366,0,0
-700,-349,0,0,0,0,0,0,0,0,0,-1,524,1373,0,0
-693,-349,0,0,0,0,0,0,0,0,0,-1,531,1373,0,0
-686,-349,0,0,0,0,0,0,0,0,0,-1,538,1373,0,0
-679,-349,0,0,0,0,0,0,0,0,0,-1,545,1373,0,0
-672,-349,0,0,0,0,0,0,0,0,0,-1,552,1373,0,0
-665,-349,0,0,0,0,0,0,0,0,0,-1,559,1373,0,0
-658,-349,0,0,0,0,0,0,0,0,0,-1,566,1373,0,0
-651,-349,0,0,0,0,0,0,0,0,0,-1,573,1373,0,0
-644,-349,0,0,0,0,0,0,0,0,0,-1,580,1373,0,0
-637,-349,0,0,0,0,0,0,0,0,0,-1,587,1373,0,0
-630,-349,-7.64117,-5.06177,0,0,0,0,0,0,0,-1,594,1373,-7.64118,5.0618
-623,-349,-8.63507,0.51123,0,0,0,0,0,0,0,-1,601,1373,-8.63505,-0.511275
-616,-349,-5.2066,-0.188232,0,0,0,0,0,0,0,-1,608,1373,-5.20659,0.188211
-609,-349,-7.12073,1.37048,0,0,0,0,0,0,0,-1,615,1373,-7.12072,-1.37044
-602,-349,-9.00623,3.39587,0,0,0,0,0,0,0,-1,622,1373,-9.0062,-3.39591
-595,-349,-9.50568,2.96912,0,0,0,0,0,0,0,-1,629,1373,-9.50569,-2.96906
-588,-349,-8.60046,3.56042,0,0,0,0,0,0,0,-1,636,1373,-8.60046,-3.56047
-581,-349,-13.8605,5.41699,0,0,0,0,0,0,0,-1,643,1373,-13.8605,-5.41701
-574,-349,-13.9059,5.86658,-0.000476787,-0.00135648,-0.00126491,0.000422571,-0.00225584,-0.618073,0.00166274,0.0320961,650,1373,-13.9059,-5.86659
-567,-349,-13.9347,6.40601,-0.000346318,-0.00098222,-0.00101684,0.000401122,-0.00172966,-0.633871,0.00130749,0.0176311,657,1373,-13.9347,-6.406
-560,-349,-13.9359,6.89355,0.000160713,-0.000770347,-0.000704569,0.000539656,-0.00114929,-0.493458,0.000996063,0.0216264,664,1373,-13.9358,-6.89357
-553,-349,-13.9533,7.31799,0.00100107,-0.000503439,-0.000189119,0.00102448,-0.000526848,-0.123149,0.000910892,0.0266104,671,1373,-13.9533,-7.31798
-546,-349,-13.9804,7.77759,0.00205302,-0.00022017,0.000438527,0.00213468,-0.000301833,0.184114,0.00153367,0.0287985,678,1373,-13.9804,-7.77764
-539,-349,-14.0095,8.29797,0.00328595,7.00361e-05,0.00116654,0.00366453,-0.000308547,0.313811,0.0025521,0.0230391,685,1373,-14.0095,-8.29792
-532,-349,-14.015,8.83057,0.00474121,0.000365427,0.00201392,0.005527,-0.000420355,0.372009,0.00383248,0.0175717,692,1373,-14.015,-8.83056
-525,-349,-13.9858,9.34119,0.00647187,0.000706361,0.00302797,0.00776989,-0.000591661,0.404981,0.00538799,0.0142937,699,1373,-13.9858,-9.34118
-518,-349,-13.9634,9.88257,0.00853714,0.00117615,0.00424994,0.0104787,-0.000765465,0.42854,0.00725446,0.0190662,706,1373,-13.9634,-9.88254
-511,-349,-13.9183,10.4186,0,0,0,0,0,0,0,-1,713,1373,-13.9183,-10.4186
-504,-349,-9.60516,7.88831,0,0,0,0,0,0,0,-1,720,1373,-9.60519,-7.88825
-497,-349,-7.9339,5.58789,0,0,0,0,0,0,0,-1,727,1373,-7.93388,-5.58785
-490,-349,-8.73969,-0.503784,0,0,0,0,0,0,0,-1,734,1373,-8.73966,0.503752
-483,-349,-5.66974,3.7395,0,0,0,0,0,0,0,-1,741,1373,-5.66975,-3.73949
-476,-349,-10.8496,1.15759,0,0,0,0,0,0,0,-1,748,1373,-10.8496,-1.15756
-469,-349,-12.3314,-1.74878,0,0,0,0,0,0,0,-1,755,1373,-12.3314,1.74882
-462,-349,-12.6559,-0.995361,0,0,0,0,0,0,0,-1,762,1373,-12.656,0.995351
-455,-349,-13.2897,-0.234253,0,0,0,0,0,0,0,-1,769,1373,-13.2897,0.234261
-448,-349,-14.045,0.712891,0,0,0,0,0,0,0,-1,776,1373,-14.045,-0.712838
-441,-349,0,0,0,0,0,0,0,0,0,-1,783,1373,0,0
-434,-349,0,0,0,0,0,0,0,0,0,-1,790,1373,0,0
-427,-349,0,0,0,0,0,0,0,0,0,-1,797,1373,0,0
-420,-349,0,0,0,0,0,0,0,0,0,-1,804,1373,0,0
-413,-349,0,0,0,0,0,0,0,0,0,-1,811,1373,0,0
-406,-349,0,0,0,0,0,0,0,0,0,-1,818,1373,0,0
-399,-349,0,0,0,0,0,0,0,0,0,-1,825,1373,0,0
-392,-349,0,0,0,0,0,0,0,0,0,-1,832,1373,0,0
-385,-349,0,0,0,0,0,0,0,0,0,-1,839,1373,0,0
-378,-349,0,0,0,0,0,0,0,0,0,-1,846,1373,0,0
-371,-349,0,0,0,0,0,0,0,0,0,-1,853,1373,0,0
-364,-349,0,0,0,0,0,0,0,0,0,-1,860,1373,0,0
-357,-349,0,0,0,0,0,0,0,0,0,-1,867,1373,0,0
-350,-349,0,0,0,0,0,0,0,0,0,-1,874,1373,0,0
-343,-349,0,0,0,0,0,0,0,0,0,-1,881,1373,0,0
-336,-349,0,0,0,0,0,0,0,0,0,-1,888,1373,0,0
-329,-349,0,0,0,0,0,0,0,0,0,-1,895,1373,0,0
-322,-349,0,0,0,0,0,0,0,0,0,-1,902,1373,0,0
-315,-349,0,0,0,0,0,0,0,0,0,-1,909,1373,0,0
-308,-349,0,0,0,0,0,0,0,0,0,-1,916,1373,0,0
-301,-349,0,0,0,0,0,0,0,0,0,-1,923,1373,0,0
-294,-349,0,0,0,0,0,0,0,0,0,-1,930,1373,0,0
-287,-349,0,0,0,0,0,0,0,0,0,-1,937,1373,0,0
-280,-349,0,0,0,0,0,0,0,0,0,-1,944,1373,0,0
-273,-349,0,0,0,0,0,0,0,0,0,-1,951,1373,0,0
-266,-349,0,0,0,0,0,0,0,0,0,-1,958,1373,0,0
-259,-349,0,0,0,0,0,0,0,0,0,-1,965,1373,0,0
-252,-349,0,0,0,0,0,0,0,0,0,-1,972,1373,0,0
-245,-349,0,0,0,0,0,0,0,0,0,-1,979,1373,0,0
-238,-349,0,0,0,0,0,0,0,0,0,-1,986,1373,0,0
-231,-349,0,0,0,0,0,0,0,0,0,-1,993,1373,0,0
-224,-349,0,0,0,0,0,0,0,0,0,-1,1000,1373,0,0
-217,-349,0,0,0,0,0,0,0,0,0,-1,1007,1373,0,0
-210,-349,0,0,0,0,0,0,0,0,0,-1,1014,1373,0,0
-203,-349,0,0,0,0,0,0,0,0,0,-1,1021,1373,0,0
-196,-349,0,0,0,0,0,0,0,0,0,-1,1028,1373,0,0
-189,-349,0,0,0,0,0,0,0,0,0,-1,1035,1373,0,0
-182,-349,0,0,0,0,0,0,0,0,0,-1,1042,1373,0,0
-175,-349,0,0,0,0,0,0,0,0,0,-1,1049,1373,0,0
-168,-349,0,0,0,0,0,0,0,0,0,-1,1056,1373,0,0
-161,-349,0,0,0,0,0,0,0,0,0,-1,1063,1373,0,0
-154,-349,0,0,0,0,0,0,0,0,0,-1,1070,1373,0,0
-147,-349,0,0,0,0,0,0,0,0,0,-1,1077,1373,0,0
-140,-349,0,0,0,0,0,0,0,0,0,-1,1084,1373,0,0
-133,-349,0,0,0,0,0,0,0,0,0,-1,1091,1373,0,0
-126,-349,0,0,0,0,0,0,0,0,0,-1,1098,1373,0,0
-119,-349,0,0,0,0,0,0,0,0,0,-1,1105,1373,0,0
-112,-349,0,0,0,0,0,0,0,0,0,-1,1112,1373,0,0
-105,-349,0,0,0,0,0,0,0,0,0,-1,1119,1373,0,0
-98,-349,0,0,0,0,0,0,0,0,0,-1,1126,1373,0,0
-91,-349,0,0,0,0,0,0,0,0,0,-1,1133,1373,0,0
-84,-349,0,0,0,0,0,0,0,0,0,-1,1140,1373,0,0
-77,-349,0,0,0,0,0,0,0,0,0,-1,1147,1373,0,0
-70,-349,0,0,0,0,0,0,0,0,0,-1,1154,1373,0,0
-63,-349,0,0,0,0,0,0,0,0,0,-1,1161,1373,0,0
-56,-349,0,0,0,0,0,0,0,0,0,-1,1168,1373,0,0
-49,-349,0,0,0,0,0,0,0,0,0,-1,1175,1373,0,0
-42,-349,0,0,0,0,0,0,0,0,0,-1,1182,1373,0,0
-35,-349,0,0,0,0,0,0,0,0,0,-1,1189,1373,0,0
-28,-349,0,0,0,0,0,0,0,0,0,-1,1196,1373,0,0
-21,-349,0,0,0,0,0,0,0,0,0,-1,1203,1373,0,0
-14,-349,0,0,0,0,0,0,0,0,0,-1,1210,1373,0,0
-7,-349,0,0,0,0,0,0,0,0,0,-1,1217,1373,0,0
0,-349,0,0,0,0,0,0,0,0,0,-1,1224,1373,0,0
7,-349,0,0,0,0,0,0,0,0,0,-1,1231,1373,0,0
14,-349,0,0,0,0,0,0,0,0,0,-1,1238,1373,0,0
21,-349,0,0,0,0,0,0,0,0,0,-1,1245,1373,0,0
28,-349,0,0,0,0,0,0,0,0,0,-1,1252,1373,0,0
35,-349,0,0,0,0,0,0,0,0,0,-1,1259,1373,0,0
42,-349,0,0,0,0,0,0,0,0,0,-1,1266,1373,0,0
49,-349,0,0,0,0,0,0,0,0,0,-1,1273,1373,0,0
56,-349,0,0,0,0,0,0,0,0,0,-1,1280,1373,0,0
63,-349,0,0,0,0,0,0,0,0,0,-1,1287,1373,0,0
70,-349,0,0,0,0,0,0,0,0,0,-1,1294,1373,0,0
77,-349,0,0,0,0,0,0,0,0,0,-1,1301,1373,0,0
84,-349,0,0,0,0,0,0,0,0,0,-1,1308,1373,0,0
91,-349,0,0,0,0,0,0,0,0,0,-1,1315,1373,0,0
98,-349,0,0,0,0,0,0,0,0,0,-1,1322,1373,0,0
105,-349,0,0,0,0,0,0,0,0,0,-1,1329,1373,0,0
112,-349,0,0,0,0,0,0,0,0,0,-1,1336,1373,0,0
119,-349,0,0,0,0,0,0,0,0,0,-1,1343,1373,0,0
126,-349,0,0,0,0,0,0,0,0,0,-1,1350,1373,0,0
133,-349,0,0,0,0,0,0,0,0,0,-1,1357,1373,0,0
140,-349,0,0,0,0,0,0,0,0,0,-1,1364,1373,0,0
147,-349,0,0,0,0,0,0,0,0,0,-1,1371,1373,0,0
154,-349,0,0,0,0,0,0,0,0,0,-1,1378,1373,0,0
161,-349,0,0,0,0,0,0,0,0,0,-1,1385,1373,0,0
168,-349,0,0,0,0,0,0,0,0,0,-1,1392,1373,0,0
175,-349,0,0,0,0,0,0,0,0,0,-1,1399,1373,0,0
182,-349,0,0,0,0,0,0,0,0,0,-1,1406,1373,0,0
189,-349,0,0,0,0,0,0,0,0,0,-1,1413,1373,0,0
196,-349,0,0,0,0,0,0,0,0,0,-1,1420,1373,0,0
203,-349,0,0,0,0,0,0,0,0,0,-1,1427,1373,0,0
210,-349,0,0,0,0,0,0,0,0,0,-1,1434,1373,0,0
217,-349,0,0,0,0,0,0,0,0,0,-1,1441,1373,0,0
224,-349,0,0,0,0,0,0,0,0,0,-1,1448,1373,0,0
231,-349,0,0,0,0,0,0,0,0,0,-1,1455,1373,0,0
238,-349,0,0,0,0,0,0,0,0,0,-1,1462,1373,0,0
245,-349,0,0,0,0,0,0,0,0,0,-1,1469,1373,0,0
252,-349,0,0,0,0,0,0,0,0,0,-1,1476,1373,0,0
259,-349,0,0,0,0,0,0,0,0,0,-1,1483,1373,0,0
266,-349,0,0,0,0,0,0,0,0,0,-1,1490,1373,0,0
273,-349,0,0,0,0,0,0,0,0,0,-1,1497,1373,0,0
280,-349,0,0,0,0,0,0,0,0,0,-1,1504,1373,0,0
287,-349,0,0,0,0,0,0,0,0,0,-1,1511,1373,0,0
294,-349,0,0,0,0,0,0,0,0,0,-1,1518,1373,0,0
301,-349,0,0,0,0,0,0,0,0,0,-1,1525,1373,0,0
308,-349,0,0,0,0,0,0,0,0,0,-1,1532,1373,0,0
315,-349,0,0,0,0,0,0,0,0,0,-1,1539,1373,0,0
322,-349,0,0,0,0,0,0,0,0,0,-1,1546,1373,0,0
329,-349,0,0,0,0,0,0,0,0,0,-1,1553,1373,0,0
336,-349,0,0,0,0,0,0,0,0,0,-1,1560,1373,0,0
343,-349,0,0,0,0,0,0,0,0,0,-1,1567,1373,0,0
350,-349,0,0,0,0,0,0,0,0,0,-1,1574,1373,0,0
357,-349,0,0,0,0,0,0,0,0,0,-1,1581,1373,0,0
364,-349,0,0,0,0,0,0,0,0,0,-1,1588,1373,0,0
371,-349,0,0,0,0,0,0,0,0,0,-1,1595,1373,0,0
378,-349,0,0,0,0,0,0,0,0,0,-1,1602,1373,0,0
385,-349,0,0,0,0,0,0,0,0,0,-1,1609,1373,0,0
392,-349,0,0,0,0,0,0,0,0,0,-1,1616,1373,0,0
399,-349,0,0,0,0,0,0,0,0,0,-1,1623,1373,0,0
406,-349,0,0,0,0,0,0,0,0,0,-1,1630,1373,0,0
413,-349,0,0,0,0,0,0,0,0,0,-1,1637,1373,0,0
420,-349,0,0,0,0,0,0,0,0,0,-1,1644,1373,0,0
427,-349,0,0,0,0,0,0,0,0,0,-1,1651,1373,0,0
434,-349,0,0,0,0,0,0,0,0,0,-1,1658,1373,0,0
441,-349,0,0,0,0,0,0,0,0,0,-1,1665,1373,0,0
448,-349,0,0,0,0,0,0,0,0,0,-1,1672,1373,0,0
455,-349,0,0,0,0,0,0,0,0,0,-1,1679,1373,0,0
462,-349,0,0,0,0,0,0,0,0,0,-1,1686,1373,0,0
469,-349,0,0,0,0,0,0,0,0,0,-1,1693,1373,0,0
476,-349,0,0,0,0,0,0,0,0,0,-1,1700,1373,0,0
483,-349,0,0,0,0,0,0,0,0,0,-1,1707,1373,0,0
490,-349,0,0,0,0,0,0,0,0,0,-1,1714,1373,0,0
497,-349,0,0,0,0,0,0,0,0,0,-1,1721,1373,0,0
504,-349,0,0,0,0,0,0,0,0,0,-1,1728,1373,0,0
511,-349,0,0,0,0,0,0,0,0,0,-1,1735,1373,0,0
518,-349,0,0,0,0,0,0,0,0,0,-1,1742,1373,0,0
525,-349,0,0,0,0,0,0,0,0,0,-1,1749,1373,0,0
532,-349,0,0,0,0,0,0,0,0,0,-1,1756,1373,0,0
539,-349,0,0,0,0,0,0,0,0,0,-1,1763,1373,0,0
546,-349,0,0,0,0,0,0,0,0,0,-1,1770,1373,0,0
553,-349,0,0,0,0,0,0,0,0,0,-1,1777,1373,0,0
560,-349,37.8381,0.967773,0,0,0,0,0,0,0,-1,1784,1373,37.8381,-0.967745
567,-349,38.5023,1.45728,0,0,0,0,0,0,0,-1,1791,1373,38.5023,-1.45725
574,-349,39.009,2.12109,0,0,0,0,0,0,0,-1,1798,1373,39.009,-2.12105
581,-349,40.105,2.37793,0,0,0,0,0,0,0,-1,1805,1373,40.105,-2.37797
588,-349,40.871,2.63611,0,0,0,0,0,0,0,-1,1812,1373,40.871,-2.63607
595,-349,32.3793,4.93115,0,0,0,0,0,0,0,-1,1819,1373,32.3793,-4.9312
602,-349,35.6641,3.26465,0,0,0,0,0,0,0,-1,1826,1373,35.6641,-3.26468
609,-349,34.7175,4.401,0,0,0,0,0,0,0,-1,1833,1373,34.7175,-4.40096
616,-349,27.1451,6.68274,0,0,0,0,0,0,0,-1,1840,1373,27.1451,-6.6828
623,-349,18.8478,2.75769,0,0,0,0,0,0,0,-1,1847,1373,18.8478,-2.75774
630,-349,15.4948,6.47644,0,0,0,0,0,0,0,-1,1854,1373,15.4947,-6.4765
637,-349,16.5161,6.92639,0,0,0,0,0,0,0,-1,1861,1373,16.5161,-6.92636
644,-349,27.4424,12.1139,0,0,0,0,0,0,0,-1,1868,1373,27.4424,-12.1139
651,-349,27.4465,11.6409,-0.000719968,0.00102487,-0.00139924,0.00180139,-0.00149649,-1.06416,0.00190674,0.0321835,1875,1373,27.4466,-11.6408
658,-349,27.318,11.2021,-0.000364335,0.000600659,-0.000797985,0.00105068,-0.000814352,-1.05731,0.00107965,0.0256093,1882,1373,27.318,-11.2022
665,-349,27.2739,10.7671,0.000139381,0.000235049,-0.000420684,0.00061061,-0.00023618,-0.842008,0.000504574,0.0212426,1889,1373,27.2739,-10.7671
672,-349,27.2941,10.3403,0.000697769,1.63528e-06,-0.000165894,0.000735282,-3.58769e-05,-0.222382,0.000502574,0.0154366,1896,1373,27.2941,-10.3404
679,-349,27.2773,9.94629,0.00129554,-0.000189758,8.02682e-06,0.00129559,-0.000189802,0.00540396,0.000933446,0.0154904,1903,1373,27.2773,-9.94634
686,-349,27.3297,9.53186,0.00194611,-0.000306295,9.7107e-05,0.00195029,-0.000310473,0.0430063,0.00141508,0.0151512,1910,1373,27.3297,-9.53182
693,-349,27.2798,9.08044,0.00262861,-0.000368308,0.000124174,0.00263375,-0.000373444,0.0413396,0.00189263,0.0172096,1917,1373,27.2798,-9.08046
700,-349,27.2537,8.63586,0.00335581,-0.000348924,7.52704e-05,0.00335734,-0.000350452,0.0203062,0.00236372,0.0171274,1924,1373,27.2537,-8.63582
707,-349,27.3328,8.16809,0.00395811,-0.000138434,-8.72661e-05,0.00395997,-0.000140292,-0.0212895,0.00268796,0.0337242,1931,1373,27.3327,-8.16813
714,-349,27.4569,7.60718,0,0,0,0,0,0,0,-1,1938,1373,27.4569,-7.60722
721,-349,19.6688,5.93604,0,0,0,0,0,0,0,-1,1945,1373,19.6688,-5.93606
728,-349,18.6333,3.73218,0,0,0,0,0,0,0,-1,1952,1373,18.6333,-3.73214
735,-349,18.1918,3.39954,0,0,0,0,0,0,0,-1,1959,1373,18.1918,-3.3995
742,-349,20.7345,2.07483,0,0,0,0,0,0,0,-1,1966,1373,20.7345,-2.07485
749,-349,21.9037,1.45789,0,0,0,0,0,0,0,-1,1973,1373,21.9037,-1.45788
756,-349,0,0,0,0,0,0,0,0,0,-1,1980,1373,0,0
763,-349,0,0,0,0,0,0,0,0,0,-1,1987,1373,0,0
770,-349,0,0,0,0,0,0,0,0,0,-1,1994,1373,0,0
777,-349,0,0,0,0,0,0,0,0,0,-1,2001,1373,0,0
784,-349,0,0,0,0,0,0,0,0,0,-1,2008,1373,0,0
791,-349,0,0,0,0,0,0,0,0,0,-1,2015,1373,0,0
798,-349,0,0,0,0,0,0,0,0,0,-1,2022,1373,0,0
805,-349,0,0,0,0,0,0,0,0,0,-1,2029,1373,0,0
812,-349,0,0,0,0,0,0,0,0,0,-1,2036,1373,0,0
-700,-356,0,0,0,0,0,0,0,0,0,-1,524,1380,0,0
-693,-356,0,0,0,0,0,0,0,0,0,-1,531,1380,0,0
-686,-356,0,0,0,0,0,0,0,0,0,-1,538,1380,0,0
-679,-356,0,0,0,0,0,0,0,0,0,-1,545,1380,0,0
-672,-356,0,0,0,0,0,0,0,0,0,-1,552,1380,0,0
-665,-356,0,0,0,0,0,0,0,0,0,-1,559,1380,0,0
-658,-356,0,0,0,0,0,0,0,0,0,-1,566,1380,0,0
-651,-356,0,0,0,0,0,0,0,0,0,-1,573,1380,0,0
-644,-356,0,0,0,0,0,0,0,0,0,-1,580,1380,0,0
-637,-356,0,0,0,0,0,0,0,0,0,-1,587,1380,0,0
-630,-356,-8.23126,-5.01917,0,0,0,0,0,0,0,-1,594,1380,-8.23124,5.0192
-623,-356,-0.263855,-0.675781,0,0,0,0,0,0,0,-1,601,1380,-0.263835,0.675841
-616,-356,-8.26532,-3.43945,0,0,0,0,0,0,0,-1,608,1380,-8.2653,3.43948
-609,-356,-4.88483,0.734497,0,0,0,0,0,0,0,-1,615,1380,-4.88485,-0.734532
-602,-356,-9.06635,2.4021,0,0,0,0,0,0,0,-1,622,1380,-9.06634,-2.40206
-595,-356,-8.45703,3.61853,0,0,0,0,0,0,0,-1,629,1380,-8.45706,-3.61848
-588,-356,-9.31738,4.14258,0,0,0,0,0,0,0,-1,636,1380,-9.31736,-4.14255
-581,-356,-12.9227,5.63208,0,0,0,0,0,0,0,-1,643,1380,-12.9227,-5.63204
-574,-356,-13.4992,5.84595,0,0,0,0,0,0,0,-1,650,1380,-13.4992,-5.84591
-567,-356,-13.4905,6.36829,-0.00136917,-0.00156252,-0.00166846,0.000205419,-0.0031371,-0.756459,0.00216313,0.0188226,657,1380,-13.4904,-6.3683
-560,-356,-13.4485,6.90491,-0.000656583,-0.00120994,-0.00124115,0.000338356,-0.00220488,-0.675731,0.00159472,0.0184808,664,1380,-13.4486,-6.90488
-553,-356,-13.4553,7.37,0.000338816,-0.000812916,-0.00061803,0.000607688,-0.00108179,-0.41035,0.000988139,0.0215502,671,1380,-13.4552,-7.36994
-546,-356,-13.5178,7.83215,0.00147595,-0.0004203,9.14539e-05,0.00148035,-0.000424701,0.0480801,0.0011548,0.0230889,678,1380,-13.5178,-7.83215
-539,-356,-13.4957,8.3468,0.00272561,-3.77446e-05,0.000869553,0.00297646,-0.000288597,0.280859,0.00208717,0.01562,685,1380,-13.4957,-8.34686
-532,-356,-13.5117,8.86194,0.00411293,0.000340643,0.00173142,0.00478713,-0.000333553,0.371326,0.00330821,0.0150806,692,1380,-13.5116,-8.86193
-525,-356,-13.5199,9.34375,0.00569207,0.000759062,0.00272295,0.00689954,-0.000448412,0.417388,0.00475622,0.0135257,699,1380,-13.5199,-9.3438
-518,-356,-13.5002,9.85022,0.00750101,0.00126715,0.003872,0.00935475,-0.000586595,0.446509,0.00644094,0.0127244,706,1380,-13.5003,-9.85021
-511,-356,-13.2659,10.4336,0.00923799,0.00156752,0.00502313,0.0117226,-0.000917123,0.45935,0.00813804,0.0463939,713,1380,-13.2658,-10.4336
-504,-356,-13.0277,11.1421,0,0,0,0,0,0,0,-1,720,1380,-13.0277,-11.1421
-497,-356,-5.68604,4.96387,0,0,0,0,0,0,0,-1,727,1380,-5.68605,-4.96385
-490,-356,-7.95288,5.5625,0,0,0,0,0,0,0,-1,734,1380,-7.95285,-5.56246
-483,-356,-7.2627,4.07446,0,0,0,0,0,0,0,-1,741,1380,-7.2627,-4.07441
-476,-356,-5.1936,4.16016,0,0,0,0,0,0,0,-1,748,1380,-5.1936,-4.16012
-469,-356,-10.0883,0.536011,0,0,0,0,0,0,0,-1,755,1380,-10.0883,-0.535989
-462,-356,-12.3481,-0.215698,0,0,0,0,0,0,0,-1,762,1380,-12.3481,0.215641
-455,-356,-13.1367,-0.264648,0,0,0,0,0,0,0,-1,769,1380,-13.1367,0.264647
-448,-356,-13.9116,-0.310181,0,0,0,0,0,0,0,-1,776,1380,-13.9115,0.310207
-441,-356,-13.1602,3.05603,0,0,0,0,0,0,0,-1,783,1380,-13.1602,-3.05609
-434,-356,0,0,0,0,0,0,0,0,0,-1,790,1380,0,0
-427,-356,0,0,0,0,0,0,0,0,0,-1,797,1380,0,0
-420,-356,0,0,0,0,0,0,0,0,0,-1,804,1380,0,0
-413,-356,0,0,0,0,0,0,0,0,0,-1,811,1380,0,0
-406,-356,0,0,0,0,0,0,0,0,0,-1,818,1380,0,0
-399,-356,0,0,0,0,0,0,0,0,0,-1,825,1380,0,0
-392,-356,0,0,0,0,0,0,0,0,0,-1,832,1380,0,0
-385,-356,0,0,0,0,0,0,0,0,0,-1,839,1380,0,0
-378,-356,0,0,0,0,0,0,0,0,0,-1,846,1380,0,0
-371,-356,0,0,0,0,0,0,0,0,0,-1,853,1380,0,0
-364,-356,0,0,0,0,0,0,0,0,0,-1,860,1380,0,0
-357,-356,0,0,0,0,0,0,0,0,0,-1,867,1380,0,0
-350,-356,0,0,0,0,0,0,0,0,0,-1,874,1380,0,0
-343,-356,0,0,0,0,0,0,0,0,0,-1,881,1380,0,0
-336,-356,0,0,0,0,0,0,0,0,0,-1,888,1380,0,0
-329,-356,0,0,0,0,0,0,0,0,0,-1,895,1380,0,0
-322,-356,0,0,0,0,0,0,0,0,0,-1,902,1380,0,0
-315,-356,0,0,0,0,0,0,0,0,0,-1,909,1380,0,0
-308,-356,0,0,0,0,0,0,0,0,0,-1,916,1380,0,0
-301,-356,0,0,0,0,0,0,0,0,0,-1,923,1380,0,0
-294,-356,0,0,0,0,0,0,0,0,0,-1,930,1380,0,0
-287,-356,0,0,0,0,0,0,0,0,0,-1,937,1380,0,0
-280,-356,0,0,0,0,0,0,0,0,0,-1,944,1380,0,0
-273,-356,0,0,0,0,0,0,0,0,0,-1,951,1380,0,0
-266,-356,0,0,0,0,0,0,0,0,0,-1,958,1380,0,0
-259,-356,0,0,0,0,0,0,0,0,0,-1,965,1380,0,0
-252,-356,0,0,0,0,0,0,0,0,0,-1,972,1380,0,0
-245,-356,0,0,0,0,0,0,0,0,0,-1,979,1380,0,0
-238,-356,0,0,0,0,0,0,0,0,0,-1,986,1380,0,0
-231,-356,0,0,0,0,0,0,0,0,0,-1,993,1380,0,0
-224,-356,0,0,0,0,0,0,0,0,0,-1,1000,1380,0,0
-217,-356,0,0,0,0,0,0,0,0,0,-1,1007,1380,0,0
-210,-356,0,0,0,0,0,0,0,0,0,-1,1014,1380,0,0
-203,-356,0,0,0,0,0,0,0,0,0,-1,1021,1380,0,0
-196,-356,0,0,0,0,0,0,0,0,0,-1,1028,1380,0,0
-189,-356,0,0,0,0,0,0,0,0,0,-1,1035,1380,0,0
-182,-356,0,0,0,0,0,0,0,0,0,-1,1042,1380,0,0
-175,-356,0,0,0,0,0,0,0,0,0,-1,1049,1380,0,0
-168,-356,0,0,0,0,0,0,0,0,0,-1,1056,1380,0,0
-161,-356,0,0,0,0,0,0,0,0,0,-1,1063,1380,0,0
-154,-356,0,0,0,0,0,0,0,0,0,-1,1070,1380,0,0
-147,-356,0,0,0,0,0,0,0,0,0,-1,1077,1380,0,0
-140,-356,0,0,0,0,0,0,0,0,0,-1,1084,1380,0,0
-133,-356,0,0,0,0,0,0,0,0,0,-1,1091,1380,0,0
-126,-356,0,0,0,0,0,0,0,0,0,-1,1098,1380,0,0
-119,-356,0,0,0,0,0,0,0,0,0,-1,1105,1380,0,0
-112,-356,0,0,0,0,0,0,0,0,0,-1,1112,1380,0,0
-105,-356,0,0,0,0,0,0,0,0,0,-1,1119,1380,0,0
-98,-356,0,0,0,0,0,0,0,0,0,-1,1126,1380,0,0
-91,-356,0,0,0,0,0,0,0,0,0,-1,1133,1380,0,0
-84,-356,0,0,0,0,0,0,0,0,0,-1,1140,1380,0,0
-77,-356,0,0,0,0,0,0,0,0,0,-1,1147,1380,0,0
-70,-356,0,0,0,0,0,0,0,0,0,-1,1154,1380,0,0
-63,-356,0,0,0,0,0,0,0,0,0,-1,1161,1380,0,0
-56,-356,0,0,0,0,0,0,0,0,0,-1,1168,1380,0,0
-49,-356,0,0,0,0,0,0,0,0,0,-1,1175,1380,0,0
-42,-356,0,0,0,0,0,0,0,0,0,-1,1182,1380,0,0
-35,-356,0,0,0,0,0,0,0,0,0,-1,1189,1380,0,0
-28,-356,0,0,0,0,0,0,0,0,0,-1,1196,1380,0,0
-21,-356,0,0,0,0,0,0,0,0,0,-1,1203,1380,0,0
-14,-356,0,0,0,0,0,0,0,0,0,-1,1210,1380,0,0
-7,-356,0,0,0,0,0,0,0,0,0,-1,1217,1380,0,0
0,-356,0,0,0,0,0,0,0,0,0,-1,1224,1380,0,0
7,-356,0,0,0,0,0,0,0,0,0,-1,1231,1380,0,0
14,-356,0,0,0,0,0,0,0,0,0,-1,1238,1380,0,0
21,-356,0,0,0,0,0,0,0,0,0,-1,1245,1380,0,0
28,-356,0,0,0,0,0,0,0,0,0,-1,1252,1380,0,0
35,-356,0,0,0,0,0,0,0,0,0,-1,1259,1380,0,0
42,-356,0,0,0,0,0,0,0,0,0,-1,1266,1380,0,0
49,-356,0,0,0,0,0,0,0,0,0,-1,1273,1380,0,0
56,-356,0,0,0,0,0,0,0,0,0,-1,1280,1380,0,0
63,-356,0,0,0,0,0,0,0,0,0,-1,1287,1380,0,0
70,-356,0,0,0,0,0,0,0,0,0,-1,1294,1380,0,0
77,-356,0,0,0,0,0,0,0,0,0,-1,1301,1380,0,0
84,-356,0,0,0,0,0,0,0,0,0,-1,1308,1380,0,0
91,-356,0,0,0,0,0,0,0,0,0,-1,1315,1380,0,0
98,-356,0,0,0,0,0,0,0,0,0,-1,1322,1380,0,0
105,-356,0,0,0,0,0,0,0,0,0,-1,1329,1380,0,0
112,-356,0,0,0,0,0,0,0,0,0,-1,1336,1380,0,0
119,-356,0,0,0,0,0,0,0,0,0,-1,1343,1380,0,0
126,-356,0,0,0,0,0,0,0,0,0,-1,1350,1380,0,0
133,-356,0,0,0,0,0,0,0,0,0,-1,1357,1380,0,0
140,-356,0,0,0,0,0,0,0,0,0,-1,1364,1380,0,0
147,-356,0,0,0,0,0,0,0,0,0,-1,1371,1380,0,0
154,-356,0,0,0,0,0,0,0,0,0,-1,1378,1380,0,0
161,-356,0,0,0,0,0,0,0,0,0,-1,1385,1380,0,0
168,-356,0,0,0,0,0,0,0,0,0,-1,1392,1380,0,0
175,-356,0,0,0,0,0,0,0,0,0,-1,1399,1380,0,0
182,-356,0,0,0,0,0,0,0,0,0,-1,1406,1380,0,0
189,-356,0,0,0,0,0,0,0,0,0,-1,1413,1380,0,0
196,-356,0,0,0,0,0,0,0,0,0,-1,1420,1380,0,0
203,-356,0,0,0,0,0,0,0,0,0,-1,1427,1380,0,0
210,-356,0,0,0,0,0,0,0,0,0,-1,1434,1380,0,0
217,-356,0,0,0,0,0,0,0,0,0,-1,1441,1380,0,0
224,-356,0,0,0,0,0,0,0,0,0,-1,1448,1380,0,0
231,-356,0,0,0,0,0,0,0,0,0,-1,1455,1380,0,0
238,-356,0,0,0,0,0,0,0,0,0,-1,1462,1380,0,0
245,-356,0,0,0,0,0,0,0,0,0,-1,1469,1380,0,0
252,-356,0,0,0,0,0,0,0,0,0,-1,1476,1380,0,0
259,-356,0,0,0,0,0,0,0,0,0,-1,1483,1380,0,0
266,-356,0,0,0,0,0,0,0,0,0,-1,1490,1380,0,0
273,-356,0,0,0,0,0,0,0,0,0,-1,1497,1380,0,0
280,-356,0,0,0,0,0,0,0,0,0,-1,1504,1380,0,0
287,-356,0,0,0,0,0,0,0,0,0,-1,1511,1380,0,0
294,-356,0,0,0,0,0,0,0,0,0,-1,1518,1380,0,0
301,-356,0,0,0,0,0,0,0,0,0,-1,1525,1380,0,0
308,-356,0,0,0,0,0,0,0,0,0,-1,1532,1380,0,0
315,-356,0,0,0,0,0,0,0,0,0,-1,1539,1380,0,0
322,-356,0,0,0,0,0,0,0,0,0,-1,1546,1380,0,0
329,-356,0,0,0,0,0,0,0,0,0,-1,1553,1380,0,0
336,-356,0,0,0,0,0,0,0,0,0,-1,1560,1380,0,0
343,-356,0,0,0,0,0,0,0,0,0,-1,1567,1380,0,0
350,-356,0,0,0,0,0,0,0,0,0,-1,1574,1380,0,0
357,-356,0,0,0,0,0,0,0,0,0,-1,1581,1380,0,0
364,-356,0,0,0,0,0,0,0,0,0,-1,1588,1380,0,0
371,-356,0,0,0,0,0,0,0,0,0,-1,1595,1380,0,0
378,-356,0,0,0,0,0,0,0,0,0,-1,1602,1380,0,0
385,-356,0,0,0,0,0,0,0,0,0,-1,1609,1380,0,0
392,-356,0,0,0,0,0,0,0,0,0,-1,1616,1380,0,0
399,-356,0,0,0,0,0,0,0,0,0,-1,1623,1380,0,0
406,-356,0,0,0,0,0,0,0,0,0,-1,1630,1380,0,0
413,-356,0,0,0,0,0,0,0,0,0,-1,1637,1380,0,0
420,-356,0,0,0,0,0,0,0,0,0,-1,1644,1380,0,0
427,-356,0,0,0,0,0,0,0,0,0,-1,1651,1380,0,0
434,-356,0,0,0,0,0,0,0,0,0,-1,1658,1380,0,0
441,-356,0,0,0,0,0,0,0,0,0,-1,1665,1380,0,0
448,-356,0,0,0,0,0,0,0,0,0,-1,1672,1380,0,0
455,-356,0,0,0,0,0,0,0,0,0,-1,1679,1380,0,0
462,-356,0,0,0,0,0,0,0,0,0,-1,1686,1380,0,0
469,-356,0,0,0,0,0,0,0,0,0,-1,1693,1380,0,0
476,-356,0,0,0,0,0,0,0,0,0,-1,1700,1380,0,0
483,-356,0,0,0,0,0,0,0,0,0,-1,1707,1380,0,0
490,-356,0,0,0,0,0,0,0,0,0,-1,1714,1380,0,0
497,-356,0,0,0,0,0,0,0,0,0,-1,1721,1380,0,0
504,-356,0,0,0,0,0,0,0,0,0,-1,1728,1380,0,0
511,-356,0,0,0,0,0,0,0,0,0,-1,1735,1380,0,0
518,-356,0,0,0,0,0,0,0,0,0,-1,1742,1380,0,0
525,-356,0,0,0,0,0,0,0,0,0,-1,1749,1380,0,0
532,-356,0,0,0,0,0,0,0,0,0,-1,1756,1380,0,0
539,-356,0,0,0,0,0,0,0,0,0,-1,1763,1380,0,0
546,-356,0,0,0,0,0,0,0,0,0,-1,1770,1380,0,0
553,-356,0,0,0,0,0,0,0,0,0,-1,1777,1380,0,0
560,-356,37.795,0.818237,0,0,0,0,0,0,0,-1,1784,1380,37.7951,-0.818183
567,-356,38.3564,1.21667,0,0,0,0,0,0,0,-1,1791,1380,38.3565,-1.21665
574,-356,38.7457,1.6095,0,0,0,0,0,0,0,-1,1798,1380,38.7457,-1.60945
581,-356,38.8058,1.92627,0,0,0,0,0,0,0,-1,1805,1380,38.8058,-1.92624
588,-356,32.496,1.32678,0,0,0,0,0,0,0,-1,1812,1380,32.496,-1.32676
595,-356,32.0834,5.86084,0,0,0,0,0,0,0,-1,1819,1380,32.0834,-5.86079
602,-356,30.1604,6.07104,0,0,0,0,0,0,0,-1,1826,1380,30.1604,-6.07104
609,-356,28.3435,6.48901,0,0,0,0,0,0,0,-1,1833,1380,28.3435,-6.48899
616,-356,26.9358,6.80872,0,0,0,0,0,0,0,-1,1840,1380,26.9358,-6.80877
623,-356,16.1803,1.07532,0,0,0,0,0,0,0,-1,1847,1380,16.1803,-1.07529
630,-356,16.4138,6.91553,0,0,0,0,0,0,0,-1,1854,1380,16.4138,-6.9155
637,-356,24.8021,12.0151,0,0,0,0,0,0,0,-1,1861,1380,24.8022,-12.0151
644,-356,26.9443,12.1514,0,0,0,0,0,0,0,-1,1868,1380,26.9443,-12.1513
651,-356,26.9211,11.6389,-0.000281548,0.000928279,-0.00127787,0.00173718,-0.00109045,-1.00646,0.0016467,0.017756,1875,1380,26.9211,-11.639
658,-356,26.8838,11.1658,-2.5684e-05,0.000548469,-0.000722748,0.00103907,-0.000516282,-0.974444,0.000914734,0.0146073,1882,1380,26.8838,-11.1658
665,-356,26.8668,10.8055,0.000383221,0.000224078,-0.000342815,0.000655578,-4.82795e-05,-0.671361,0.000454002,0.014732,1889,1380,26.8668,-10.8055
672,-356,26.8276,10.4135,0.000866104,-2.50594e-05,-5.13216e-05,0.00086905,-2.80052e-05,-0.0573368,0.000588924,0.0152543,1896,1380,26.8277,-10.4135
679,-356,26.8306,9.96875,0.00143068,-0.000225966,0.000149573,0.00144408,-0.000239362,0.089324,0.00105163,0.017153,1903,1380,26.8305,-9.96879
686,-356,26.8403,9.51672,0.0020806,-0.000378664,0.00027069,0.00211004,-0.000408106,0.108341,0.00156062,0.0172618,1910,1380,26.8404,-9.51666
693,-356,26.8409,9.07483,0.00280451,-0.000485373,0.000323692,0.00283605,-0.000516919,0.0971489,0.00208448,0.0152357,1917,1380,26.841,-9.07489
700,-356,26.8474,8.63232,0.00361758,-0.00050713,0.000288647,0.00363768,-0.000527231,0.0695283,0.00261861,0.0208657,1924,1380,26.8474,-8.63236
707,-356,27.0028,8.04736,0,0,0,0,0,0,0,-1,1931,1380,27.0028,-8.04741
714,-356,19.6907,5.82129,0,0,0,0,0,0,0,-1,1938,1380,19.6907,-5.82132
721,-356,17.2948,4.1958,0,0,0,0,0,0,0,-1,1945,1380,17.2948,-4.19584
728,-356,19.1846,2.31519,0,0,0,0,0,0,0,-1,1952,1380,19.1846,-2.31514
735,-356,20.0731,2.50842,0,0,0,0,0,0,0,-1,1959,1380,20.0731,-2.50844
742,-356,21.0111,2.43762,0,0,0,0,0,0,0,-1,1966,1380,21.0112,-2.43762
749,-356,22.1411,1.83276,0,0,0,0,0,0,0,-1,1973,1380,22.1411,-1.83275
756,-356,0,0,0,0,0,0,0,0,0,-1,1980,1380,0,0
763,-356,0,0,0,0,0,0,0,0,0,-1,1987,1380,0,0
770,-356,0,0,0,0,0,0,0,0,0,-1,1994,1380,0,0
777,-356,0,0,0,0,0,0,0,0,0,-1,2001,1380,0,0
784,-356,0,0,0,0,0,0,0,0,0,-1,2008,1380,0,0
791,-356,0,0,0,0,0,0,0,0,0,-1,2015,1380,0,0
798,-356,0,0,0,0,0,0,0,0,0,-1,2022,1380,0,0
805,-356,0,0,0,0,0,0,0,0,0,-1,2029,1380,0,0
812,-356,0,0,0,0,0,0,0,0,0,-1,2036,1380,0,0
-700,-363,0,0,0,0,0,0,0,0,0,-1,524,1387,0,0
-693,-363,0,0,0,0,0,0,0,0,0,-1,531,1387,0,0
-686,-363,0,0,0,0,0,0,0,0,0,-1,538,1387,0,0
-679,-363,0,0,0,0,0,0,0,0,0,-1,545,1387,0,0
-672,-363,0,0,0,0,0,0,0,0,0,-1,552,1387,0,0
-665,-363,0,0,0,0,0,0,0,0,0,-1,559,1387,0,0
-658,-363,0,0,0,0,0,0,0,0,0,-1,566,1387,0,0
-651,-363,0,0,0,0,0,0,0,0,0,-1,573,1387,0,0
-644,-363,0,0,0,0,0,0,0,0,0,-1,580,1387,0,0
-637,-363,0,0,0,0,0,0,0,0,0,-1,587,1387,0,0
-630,-363,0,0,0,0,0,0,0,0,0,-1,594,1387,0,0
-623,-363,-9.67566,-5.91846,0,0,0,0,0,0,0,-1,601,1387,-9.67563,5.91847
-616,-363,-9.02985,-2.98083,0,0,0,0,0,0,0,-1,608,1387,-9.02987,2.98079
-609,-363,-4.90265,0.195679,0,0,0,0,0,0,0,-1,615,1387,-4.90263,-0.195721
-602,-363,-9.65009,3.5321,0,0,0,0,0,0,0,-1,622,1387,-9.65007,-3.53211
-595,-363,-8.00256,3.48853,0,0,0,0,0,0,0,-1,629,1387,-8.00256,-3.48855
-588,-363,-10.8846,4.49768,0,0,0,0,0,0,0,-1,636,1387,-10.8846,-4.49773
-581,-363,-11.7469,5.15161,0,0,0,0,0,0,0,-1,643,1387,-11.747,-5.15167
-574,-363,-12.9419,5.84961,0,0,0,0,0,0,0,-1,650,1387,-12.9419,-5.84961
-567,-363,-13.0095,6.45398,-0.00262536,-0.00231196,-0.00239397,-6.95691e-05,-0.00486776,-0.818079,0.00322223,0.0370219,657,1387,-13.0095,-6.45394
-560,-363,-12.9966,6.89417,-0.00161977,-0.00177064,-0.00183112,0.000137473,-0.00352788,-0.764812,0.00239906,0.0137815,664,1387,-12.9966,-6.89421
-553,-363,-12.984,7.38867,-0.000428777,-0.00121579,-0.00109859,0.000344661,-0.00198923,-0.613422,0.00145471,0.0136849,671,1387,-12.984,-7.38862
-546,-363,-12.9958,7.86755,0.000813371,-0.00069952,-0.000311986,0.000875183,-0.000761332,-0.195591,0.000945604,0.0135731,678,1387,-12.9958,-7.86753
-539,-363,-12.9736,8.3717,0.00208867,-0.000215163,0.000504822,0.00219443,-0.000320926,0.206518,0.00158083,0.0148414,685,1387,-12.9736,-8.37167
-532,-363,-13.0173,8.88062,0.00342418,0.000251999,0.00137192,0.00393519,-0.000259012,0.35656,0.00271392,0.0129257,692,1387,-13.0173,-8.88059
-525,-363,-13.0334,9.35144,0.00490448,0.00077685,0.00236051,0.00597617,-0.000294833,0.426179,0.00408594,0.0121081,699,1387,-13.0334,-9.35146
-518,-363,-13.0293,9.84216,0.00653318,0.00135521,0.00346228,0.00826741,-0.000379019,0.464363,0.00564219,0.0105018,706,1387,-13.0293,-9.8422
-511,-363,-12.992,10.3707,0.0080907,0.00183221,0.00457736,0.0105062,-0.000583308,0.485569,0.00720645,0.0234092,713,1387,-12.992,-10.3708
-504,-363,-12.9233,10.9271,0,0,0,0,0,0,0,-1,720,1387,-12.9233,-10.9271
-497,-363,-7.18842,7.29944,0,0,0,0,0,0,0,-1,727,1387,-7.18839,-7.29945
-490,-363,-5.42413,4.6958,0,0,0,0,0,0,0,-1,734,1387,-5.42412,-4.69583
-483,-363,-6.28375,4.1394,0,0,0,0,0,0,0,-1,741,1387,-6.28374,-4.13944
-476,-363,-5.83807,4.31018,0,0,0,0,0,0,0,-1,748,1387,-5.8381,-4.31013
-469,-363,-10.7125,0.697754,0,0,0,0,0,0,0,-1,755,1387,-10.7125,-0.697811
-462,-363,-9.55951,-0.0830078,0,0,0,0,0,0,0,-1,762,1387,-9.55949,0.0830163
-455,-363,-13.1008,-0.290894,0,0,0,0,0,0,0,-1,769,1387,-13.1008,0.290921
-448,-363,-11.7324,2.46606,0,0,0,0,0,0,0,-1,776,1387,-11.7324,-2.46605
-441,-363,-12.4464,2.5354,0,0,0,0,0,0,0,-1,783,1387,-12.4463,-2.53537
-434,-363,-13.6918,2.14661,0,0,0,0,0,0,0,-1,790,1387,-13.6918,-2.14662
-427,-363,0,0,0,0,0,0,0,0,0,-1,797,1387,0,0
-420,-363,0,0,0,0,0,0,0,0,0,-1,804,1387,0,0
-413,-363,0,0,0,0,0,0,0,0,0,-1,811,1387,0,0
-406,-363,0,0,0,0,0,0,0,0,0,-1,818,1387,0,0
-399,-363,0,0,0,0,0,0,0,0,0,-1,825,1387,0,0
-392,-363,0,0,0,0,0,0,0,0,0,-1,832,1387,0,0
-385,-363,0,0,0,0,0,0,0,0,0,-1,839,1387,0,0
-378,-363,0,0,0,0,0,0,0,0,0,-1,846,1387,0,0
-371,-363,0,0,0,0,0,0,0,0,0,-1,853,1387,0,0
-364,-363,0,0,0,0,0,0,0,0,0,-1,860,1387,0,0
-357,-363,0,0,0,0,0,0,0,0,0,-1,867,1387,0,0
-350,-363,0,0,0,0,0,0,0,0,0,-1,874,1387,0,0
-343,-363,0,0,0,0,0,0,0,0,0,-1,881,1387,0,0
-336,-363,0,0,0,0,0,0,0,0,0,-1,888,1387,0,0
-329,-363,0,0,0,0,0,0,0,0,0,-1,895,1387,0,0
-322,-363,0,0,0,0,0,0,0,0,0,-1,902,1387,0,0
-315,-363,0,0,0,0,0,0,0,0,0,-1,909,1387,0,0
-308,-363,0,0,0,0,0,0,0,0,0,-1,916,1387,0,0
-301,-363,0,0,0,0,0,0,0,0,0,-1,923,1387,0,0
-294,-363,0,0,0,0,0,0,0,0,0,-1,930,1387,0,0
-287,-363,0,0,0,0,0,0,0,0,0,-1,937,1387,0,0
-280,-363,0,0,0,0,0,0,0,0,0,-1,944,1387,0,0
-273,-363,0,0,0,0,0,0,0,0,0,-1,951,1387,0,0
-266,-363,0,0,0,0,0,0,0,0,0,-1,958,1387,0,0
-259,-363,0,0,0,0,0,0,0,0,0,-1,965,1387,0,0
-252,-363,0,0,0,0,0,0,0,0,0,-1,972,1387,0,0
-245,-363,0,0,0,0,0,0,0,0,0,-1,979,1387,0,0
-238,-363,0,0,0,0,0,0,0,0,0,-1,986,1387,0,0
-231,-363,0,0,0,0,0,0,0,0,0,-1,993,1387,0,0
-224,-363,0,0,0,0,0,0,0,0,0,-1,1000,1387,0,0
-217,-363,0,0,0,0,0,0,0,0,0,-1,1007,1387,0,0
-210,-363,0,0,0,0,0,0,0,0,0,-1,1014,1387,0,0
-203,-363,0,0,0,0,0,0,0,0,0,-1,1021,1387,0,0
-196,-363,0,0,0,0,0,0,0,0,0,-1,1028,1387,0,0
-189,-363,0,0,0,0,0,0,0,0,0,-1,1035,1387,0,0
-182,-363,0,0,0,0,0,0,0,0,0,-1,1042,1387,0,0
-175,-363,0,0,0,0,0,0,0,0,0,-1,1049,1387,0,0
-168,-363,0,0,0,0,0,0,0,0,0,-1,1056,1387,0,0
-161,-363,0,0,0,0,0,0,0,0,0,-1,1063,1387,0,0
-154,-363,0,0,0,0,0,0,0,0,0,-1,1070,1387,0,0
-147,-363,0,0,0,0,0,0,0,0,0,-1,1077,1387,0,0
-140,-363,0,0,0,0,0,0,0,0,0,-1,1084,1387,0,0
-133,-363,0,0,0,0,0,0,0,0,0,-1,1091,1387,0,0
-126,-363,0,0,0,0,0,0,0,0,0,-1,1098,1387,0,0
-119,-363,0,0,0,0,0,0,0,0,0,-1,1105,1387,0,0
-112,-363,0,0,0,0,0,0,0,0,0,-1,1112,1387,0,0
-105,-363,0,0,0,0,0,0,0,0,0,-1,1119,1387,0,0
-98,-363,0,0,0,0,0,0,0,0,0,-1,1126,1387,0,0
-91,-363,0,0,0,0,0,0,0,0,0,-1,1133,1387,0,0
-84,-363,0,0,0,0,0,0,0,0,0,-1,1140,1387,0,0
-77,-363,0,0,0,0,0,0,0,0,0,-1,1147,1387,0,0
-70,-363,0,0,0,0,0,0,0,0,0,-1,1154,1387,0,0
-63,-363,0,0,0,0,0,0,0,0,0,-1,1161,1387,0,0
-56,-363,0,0,0,0,0,0,0,0,0,-1,1168,1387,0,0
-49,-363,0,0,0,0,0,0,0,0,0,-1,1175,1387,0,0
-42,-363,0,0,0,0,0,0,0,0,0,-1,1182,1387,0,0
-35,-363,0,0,0,0,0,0,0,0,0,-1,1189,1387,0,0
-28,-363,0,0,0,0,0,0,0,0,0,-1,1196,1387,0,0
-21,-363,0,0,0,0,0,0,0,0,0,-1,1203,1387,0,0
-14,-363,0,0,0,0,0,0,0,0,0,-1,1210,1387,0,0
-7,-363,0,0,0,0,0,0,0,0,0,-1,1217,1387,0,0
0,-363,0,0,0,0,0,0,0,0,0,-1,1224,1387,0,0
7,-363,0,0,0,0,0,0,0,0,0,-1,1231,1387,0,0
14,-363,0,0,0,0,0,0,0,0,0,-1,1238,1387,0,0
21,-363,0,0,0,0,0,0,0,0,0,-1,1245,1387,0,0
28,-363,0,0,0,0,0,0,0,0,0,-1,1252,1387,0,0
35,-363,0,0,0,0,0,0,0,0,0,-1,1259,1387,0,0
42,-363,0,0,0,0,0,0,0,0,0,-1,1266,1387,0,0
49,-363,0,0,0,0,0,0,0,0,0,-1,1273,1387,0,0
56,-363,0,0,0,0,0,0,0,0,0,-1,1280,1387,0,0
63,-363,0,0,0,0,0,0,0,0,0,-1,1287,1387,0,0
70,-363,0,0,0,0,0,0,0,0,0,-1,1294,1387,0,0
77,-363,0,0,0,0,0,0,0,0,0,-1,1301,1387,0,0
84,-363,0,0,0,0,0,0,0,0,0,-1,1308,1387,0,0
91,-363,0,0,0,0,0,0,0,0,0,-1,1315,1387,0,0
98,-363,0,0,0,0,0,0,0,0,0,-1,1322,1387,0,0
105,-363,0,0,0,0,0,0,0,0,0,-1,1329,1387,0,0
112,-363,0,0,0,0,0,0,0,0,0,-1,1336,1387,0,0
119,-363,0,0,0,0,0,0,0,0,0,-1,1343,1387,0,0
126,-363,0,0,0,0,0,0,0,0,0,-1,1350,1387,0,0
133,-363,0,0,0,0,0,0,0,0,0,-1,1357,1387,0,0
140,-363,0,0,0,0,0,0,0,0,0,-1,1364,1387,0,0
147,-363,0,0,0,0,0,0,0,0,0,-1,1371,1387,0,0
154,-363,0,0,0,0,0,0,0,0,0,-1,1378,1387,0,0
161,-363,0,0,0,0,0,0,0,0,0,-1,1385,1387,0,0
168,-363,0,0,0,0,0,0,0,0,0,-1,1392,1387,0,0
175,-363,0,0,0,0,0,0,0,0,0,-1,1399,1387,0,0
182,-363,0,0,0,0,0,0,0,0,0,-1,1406,1387,0,0
189,-363,0,0,0,0,0,0,0,0,0,-1,1413,1387,0,0
196,-363,0,0,0,0,0,0,0,0,0,-1,1420,1387,0,0
203,-363,0,0,0,0,0,0,0,0,0,-1,1427,1387,0,0
210,-363,0,0,0,0,0,0,0,0,0,-1,1434,1387,0,0
217,-363,0,0,0,0,0,0,0,0,0,-1,1441,1387,0,0
224,-363,0,0,0,0,0,0,0,0,0,-1,1448,1387,0,0
231,-363,0,0,0,0,0,0,0,0,0,-1,1455,1387,0,0
238,-363,0,0,0,0,0,0,0,0,0,-1,1462,1387,0,0
245,-363,0,0,0,0,0,0,0,0,0,-1,1469,1387,0,0
252,-363,0,0,0,0,0,0,0,0,0,-1,1476,1387,0,0
259,-363,0,0,0,0,0,0,0,0,0,-1,1483,1387,0,0
266,-363,0,0,0,0,0,0,0,0,0,-1,1490,1387,0,0
273,-363,0,0,0,0,0,0,0,0,0,-1,1497,1387,0,0
280,-363,0,0,0,0,0,0,0,0,0,-1,1504,1387,0,0
287,-363,0,0,0,0,0,0,0,0,0,-1,1511,1387,0,0
294,-363,0,0,0,0,0,0,0,0,0,-1,1518,1387,0,0
301,-363,0,0,0,0,0,0,0,0,0,-1,1525,1387,0,0
308,-363,0,0,0,0,0,0,0,0,0,-1,1532,1387,0,0
315,-363,0,0,0,0,0,0,0,0,0,-1,1539,1387,0,0
322,-363,0,0,0,0,0,0,0,0,0,-1,1546,1387,0,0
329,-363,0,0,0,0,0,0,0,0,0,-1,1553,1387,0,0
336,-363,0,0,0,0,0,0,0,0,0,-1,1560,1387,0,0
343,-363,0,0,0,0,0,0,0,0,0,-1,1567,1387,0,0
350,-363,0,0,0,0,0,0,0,0,0,-1,1574,1387,0,0
357,-363,0,0,0,0,0,0,0,0,0,-1,1581,1387,0,0
364,-363,0,0,0,0,0,0,0,0,0,-1,1588,1387,0,0
371,-363,0,0,0,0,0,0,0,0,0,-1,1595,1387,0,0
378,-363,0,0,0,0,0,0,0,0,0,-1,1602,1387,0,0
385,-363,0,0,0,0,0,0,0,0,0,-1,1609,1387,0,0
392,-363,0,0,0,0,0,0,0,0,0,-1,1616,1387,0,0
399,-363,0,0,0,0,0,0,0,0,0,-1,1623,1387,0,0
406,-363,0,0,0,0,0,0,0,0,0,-1,1630,1387,0,0
413,-363,0,0,0,0,0,0,0,0,0,-1,1637,1387,0,0
420,-363,0,0,0,0,0,0,0,0,0,-1,1644,1387,0,0
427,-363,0,0,0,0,0,0,0,0,0,-1,1651,1387,0,0
434,-363,0,0,0,0,0,0,0,0,0,-1,1658,1387,0,0
441,-363,0,0,0,0,0,0,0,0,0,-1,1665,1387,0,0
448,-363,0,0,0,0,0,0,0,0,0,-1,1672,1387,0,0
455,-363,0,0,0,0,0,0,0,0,0,-1,1679,1387,0,0
462,-363,0,0,0,0,0,0,0,0,0,-1,1686,1387,0,0
469,-363,0,0,0,0,0,0,0,0,0,-1,1693,1387,0,0
476,-363,0,0,0,0,0,0,0,0,0,-1,1700,1387,0,0
483,-363,0,0,0,0,0,0,0,0,0,-1,1707,1387,0,0
490,-363,0,0,0,0,0,0,0,0,0,-1,1714,1387,0,0
497,-363,0,0,0,0,0,0,0,0,0,-1,1721,1387,0,0
504,-363,0,0,0,0,0,0,0,0,0,-1,1728,1387,0,0
511,-363,0,0,0,0,0,0,0,0,0,-1,1735,1387,0,0
518,-363,0,0,0,0,0,0,0,0,0,-1,1742,1387,0,0
525,-363,0,0,0,0,0,0,0,0,0,-1,1749,1387,0,0
532,-363,0,0,0,0,0,0,0,0,0,-1,1756,1387,0,0
539,-363,0,0,0,0,0,0,0,0,0,-1,1763,1387,0,0
546,-363,0,0,0,0,0,0,0,0,0,-1,1770,1387,0,0
553,-363,37.9039,5.52307,0,0,0,0,0,0,0,-1,1777,1387,37.9039,-5.52309
560,-363,37.8204,0.700439,0,0,0,0,0,0,0,-1,1784,1387,37.8204,-0.70038
567,-363,38.4568,1.03564,0,0,0,0,0,0,0,-1,1791,1387,38.4567,-1.03561
574,-363,38.9513,1.52612,0,0,0,0,0,0,0,-1,1798,1387,38.9513,-1.52612
581,-363,39.2413,1.97632,0,0,0,0,0,0,0,-1,1805,1387,39.2413,-1.97636
588,-363,32.5608,6.72131,0,0,0,0,0,0,0,-1,1812,1387,32.5608,-6.72131
595,-363,31.4688,6.95435,0,0,0,0,0,0,0,-1,1819,1387,31.4688,-6.95431
602,-363,25.7437,5.33667,0,0,0,0,0,0,0,-1,1826,1387,25.7437,-5.33667
609,-363,27.7048,7.06885,0,0,0,0,0,0,0,-1,1833,1387,27.7048,-7.06882
616,-363,16.229,1.08704,0,0,0,0,0,0,0,-1,1840,1387,16.229,-1.08706
623,-363,15.7283,7.16663,0,0,0,0,0,0,0,-1,1847,1387,15.7282,-7.16665
630,-363,18.3192,9.27844,0,0,0,0,0,0,0,-1,1854,1387,18.3192,-9.27843
637,-363,26.4181,12.7731,0,0,0,0,0,0,0,-1,1861,1387,26.418,-12.7731
644,-363,26.4456,12.1927,0.00129418,0.00063693,-0.00285853,0.00384291,-0.0019118,-0.728168,0.00338427,0.0153044,1868,1387,26.4456,-12.1928
651,-363,26.4463,11.6818,0.000116201,0.00084481,-0.00116417,0.00170035,-0.000739336,-0.937037,0.00144452,0.0115711,1875,1387,26.4463,-11.6817
658,-363,26.4348,11.2366,0.00033555,0.000484876,-0.000662653,0.00107706,-0.000256633,-0.841498,0.000817129,0.0118122,1882,1387,26.4348,-11.2365
665,-363,26.4172,10.8513,0.000685643,0.000173007,-0.000278138,0.000807558,5.10924e-05,-0.413101,0.000522175,0.0117207,1889,1387,26.4172,-10.8513
672,-363,26.3907,10.4333,0.00113524,-9.81257e-05,4.13902e-05,0.00113662,-9.95132e-05,0.0335086,0.000793004,0.0133066,1896,1387,26.3908,-10.4333
679,-363,26.3961,9.98486,0.00169745,-0.000310388,0.000269963,0.00173312,-0.000346052,0.131347,0.00128637,0.0143876,1903,1387,26.3962,-9.98489
686,-363,26.3895,9.53589,0.00236433,-0.000509397,0.000433886,0.00242841,-0.000573478,0.14663,0.00184013,0.0147626,1910,1387,26.3895,-9.53583
693,-363,26.3741,9.06604,0.00315416,-0.000666367,0.000513601,0.003222,-0.000734207,0.131326,0.00242999,0.0137328,1917,1387,26.3742,-9.06606
700,-363,26.4841,8.57129,0.00408966,-0.000735133,0.000480991,0.00413715,-0.000782617,0.0984011,0.0030526,0.024195,1924,1387,26.4841,-8.57132
707,-363,26.7,8.11914,0,0,0,0,0,0,0,-1,1931,1387,26.6999,-8.11918
714,-363,16.5782,5.3147,0,0,0,0,0,0,0,-1,1938,1387,16.5783,-5.31472
721,-363,14.4045,4.51685,0,0,0,0,0,0,0,-1,1945,1387,14.4045,-4.51685
728,-363,19.9756,0.853027,0,0,0,0,0,0,0,-1,1952,1387,19.9756,-0.853059
735,-363,21.4297,1.2981,0,0,0,0,0,0,0,-1,1959,1387,21.4297,-1.29811
742,-363,21.3621,2.79663,0,0,0,0,0,0,0,-1,1966,1387,21.362,-2.7966
749,-363,0,0,0,0,0,0,0,0,0,-1,1973,1387,0,0
756,-363,0,0,0,0,0,0,0,0,0,-1,1980,1387,0,0
763,-363,0,0,0,0,0,0,0,0,0,-1,1987,1387,0,0
770,-363,0,0,0,0,0,0,0,0,0,-1,1994,1387,0,0
777,-363,0,0,0,0,0,0,0,0,0,-1,2001,1387,0,0
784,-363,0,0,0,0,0,0,0,0,0,-1,2008,1387,0,0
791,-363,0,0,0,0,0,0,0,0,0,-1,2015,1387,0,0
798,-363,0,0,0,0,0,0,0,0,0,-1,2022,1387,0,0
805,-363,0,0,0,0,0,0,0,0,0,-1,2029,1387,0,0
812,-363,0,0,0,0,0,0,0,0,0,-1,2036,1387,0,0
-700,-370,0,0,0,0,0,0,0,0,0,-1,524,1394,0,0
-693,-370,0,0,0,0,0,0,0,0,0,-1,531,1394,0,0
-686,-370,0,0,0,0,0,0,0,0,0,-1,538,1394,0,0
-679,-370,0,0,0,0,0,0,0,0,0,-1,545,1394,0,0
-672,-370,0,0,0,0,0,0,0,0,0,-1,552,1394,0,0
-665,-370,0,0,0,0,0,0,0,0,0,-1,559,1394,0,0
-658,-370,0,0,0,0,0,0,0,0,0,-1,566,1394,0,0
-651,-370,0,0,0,0,0,0,0,0,0,-1,573,1394,0,0
-644,-370,0,0,0,0,0,0,0,0,0,-1,580,1394,0,0
-637,-370,0,0,0,0,0,0,0,0,0,-1,587,1394,0,0
-630,-370,0,0,0,0,0,0,0,0,0,-1,594,1394,0,0
-623,-370,-10.1758,-7.10486,0,0,0,0,0,0,0,-1,601,1394,-10.1758,7.10483
-616,-370,-8.85925,-1.61475,0,0,0,0,0,0,0,-1,608,1394,-8.85925,1.61476
-609,-370,-5.39325,0.0421143,0,0,0,0,0,0,0,-1,615,1394,-5.39328,-0.0421372
-602,-370,-12.3151,3.44592,0,0,0,0,0,0,0,-1,622,1394,-12.3151,-3.44595
-595,-370,-7.53284,5.44214,0,0,0,0,0,0,0,-1,629,1394,-7.53284,-5.44216
-588,-370,-11.2422,4.50598,0,0,0,0,0,0,0,-1,636,1394,-11.2422,-4.50596
-581,-370,-11.5608,5.52661,0,0,0,0,0,0,0,-1,643,1394,-11.5608,-5.52666
-574,-370,-12.1895,6.19751,0,0,0,0,0,0,0,-1,650,1394,-12.1895,-6.19757
-567,-370,-12.356,6.5907,-0.00425405,-0.00312421,-0.00325297,-0.00038747,-0.0069908,-0.871372,0.00453689,0.0481501,657,1394,-12.356,-6.59067
-560,-370,-12.5599,6.87451,-0.00291308,-0.00233932,-0.0025291,-8.08819e-05,-0.00517152,-0.841873,0.00342104,0.023289,664,1394,-12.5599,-6.87454
-553,-370,-12.507,7.39294,-0.00150158,-0.00161038,-0.00168097,0.00012587,-0.00323783,-0.769222,0.00220171,0.0113756,671,1394,-12.507,-7.39299
-546,-370,-12.4775,7.87573,-0.000121726,-0.000977992,-0.000812801,0.000368805,-0.00146852,-0.542994,0.00112233,0.0150006,678,1394,-12.4775,-7.87579
-539,-370,-12.4823,8.41052,0.0012172,-0.000408744,4.4238e-05,0.0012184,-0.000409947,0.0271809,0.000977987,0.0186695,685,1394,-12.4823,-8.41053
-532,-370,-12.5464,8.9187,0.00256495,0.000124679,0.000923543,0.00287506,-0.000185435,0.323957,0.00198142,0.0209188,692,1394,-12.5465,-8.91868
-525,-370,-12.5411,9.35706,0.0040087,0.000710891,0.0019055,0.00487968,-0.000160089,0.428732,0.00330777,0.0169307,699,1394,-12.5411,-9.35703
-518,-370,-12.5496,9.83447,0.00555614,0.00137157,0.00299673,0.00711872,-0.000191018,0.480644,0.00481075,0.0122807,706,1394,-12.5496,-9.83446
-511,-370,-12.574,10.3445,0.00706715,0.0020075,0.00411789,0.00937024,-0.000295589,0.509946,0.00634765,0.0151754,713,1394,-12.574,-10.3445
-504,-370,-12.4181,10.9041,0.00889451,0.00288742,0.00553034,0.0121843,-0.000402364,0.536632,0.00826025,0.0487692,720,1394,-12.4181,-10.904
-497,-370,-12.1785,11.412,0,0,0,0,0,0,0,-1,727,1394,-12.1785,-11.412
-490,-370,-5.30695,4.5271,0,0,0,0,0,0,0,-1,734,1394,-5.30698,-4.52704
-483,-370,-6.02997,4.59253,0,0,0,0,0,0,0,-1,741,1394,-6.02994,-4.5925
-476,-370,-6.75293,4.65796,0,0,0,0,0,0,0,-1,748,1394,-6.7529,-4.65795
-469,-370,-10.584,1.14294,0,0,0,0,0,0,0,-1,755,1394,-10.584,-1.14293
-462,-370,-9.54462,0.387207,0,0,0,0,0,0,0,-1,762,1394,-9.5446,-0.387176
-455,-370,-8.50525,-0.36853,0,0,0,0,0,0,0,-1,769,1394,-8.50523,0.368582
-448,-370,-10.9543,2.28833,0,0,0,0,0,0,0,-1,776,1394,-10.9543,-2.28835
-441,-370,-11.8699,1.8313,0,0,0,0,0,0,0,-1,783,1394,-11.8699,-1.83127
-434,-370,-12.7855,1.37415,0,0,0,0,0,0,0,-1,790,1394,-12.7855,-1.37419
-427,-370,0,0,0,0,0,0,0,0,0,-1,797,1394,0,0
-420,-370,0,0,0,0,0,0,0,0,0,-1,804,1394,0,0
-413,-370,0,0,0,0,0,0,0,0,0,-1,811,1394,0,0
-406,-370,0,0,0,0,0,0,0,0,0,-1,818,1394,0,0
-399,-370,0,0,0,0,0,0,0,0,0,-1,825,1394,0,0
-392,-370,0,0,0,0,0,0,0,0,0,-1,832,1394,0,0
-385,-370,0,0,0,0,0,0,0,0,0,-1,839,1394,0,0
-378,-370,0,0,0,0,0,0,0,0,0,-1,846,1394,0,0
-371,-370,0,0,0,0,0,0,0,0,0,-1,853,1394,0,0
-364,-370,0,0,0,0,0,0,0,0,0,-1,860,1394,0,0
-357,-370,0,0,0,0,0,0,0,0,0,-1,867,1394,0,0
-350,-370,0,0,0,0,0,0,0,0,0,-1,874,1394,0,0
-343,-370,0,0,0,0,0,0,0,0,0,-1,881,1394,0,0
-336,-370,0,0,0,0,0,0,0,0,0,-1,888,1394,0,0
-329,-370,0,0,0,0,0,0,0,0,0,-1,895,1394,0,0
-322,-370,0,0,0,0,0,0,0,0,0,-1,902,1394,0,0
-315,-370,0,0,0,0,0,0,0,0,0,-1,909,1394,0,0
-308,-370,0,0,0,0,0,0,0,0,0,-1,916,1394,0,0
-301,-370,0,0,0,0,0,0,0,0,0,-1,923,1394,0,0
-294,-370,0,0,0,0,0,0,0,0,0,-1,930,1394,0,0
-287,-370,0,0,0,0,0,0,0,0,0,-1,937,1394,0,0
-280,-370,0,0,0,0,0,0,0,0,0,-1,944,1394,0,0
-273,-370,0,0,0,0,0,0,0,0,0,-1,951,1394,0,0
-266,-370,0,0,0,0,0,0,0,0,0,-1,958,1394,0,0
-259,-370,0,0,0,0,0,0,0,0,0,-1,965,1394,0,0
-252,-370,0,0,0,0,0,0,0,0,0,-1,972,1394,0,0
-245,-370,0,0,0,0,0,0,0,0,0,-1,979,1394,0,0
-238,-370,0,0,0,0,0,0,0,0,0,-1,986,1394,0,0
-231,-370,0,0,0,0,0,0,0,0,0,-1,993,1394,0,0
-224,-370,0,0,0,0,0,0,0,0,0,-1,1000,1394,0,0
-217,-370,0,0,0,0,0,0,0,0,0,-1,1007,1394,0,0
-210,-370,0,0,0,0,0,0,0,0,0,-1,1014,1394,0,0
-203,-370,0,0,0,0,0,0,0,0,0,-1,1021,1394,0,0
-196,-370,0,0,0,0,0,0,0,0,0,-1,1028,1394,0,0
-189,-370,0,0,0,0,0,0,0,0,0,-1,1035,1394,0,0
-182,-370,0,0,0,0,0,0,0,0,0,-1,1042,1394,0,0
-175,-370,0,0,0,0,0,0,0,0,0,-1,1049,1394,0,0
-168,-370,0,0,0,0,0,0,0,0,0,-1,1056,1394,0,0
-161,-370,0,0,0,0,0,0,0,0,0,-1,1063,1394,0,0
-154,-370,0,0,0,0,0,0,0,0,0,-1,1070,1394,0,0
-147,-370,0,0,0,0,0,0,0,0,0,-1,1077,1394,0,0
-140,-370,0,0,0,0,0,0,0,0,0,-1,1084,1394,0,0
-133,-370,0,0,0,0,0,0,0,0,0,-1,1091,1394,0,0
-126,-370,0,0,0,0,0,0,0,0,0,-1,1098,1394,0,0
-119,-370,0,0,0,0,0,0,0,0,0,-1,1105,1394,0,0
-112,-370,0,0,0,0,0,0,0,0,0,-1,1112,1394,0,0
-105,-370,0,0,0,0,0,0,0,0,0,-1,1119,1394,0,0
-98,-370,0,0,0,0,0,0,0,0,0,-1,1126,1394,0,0
-91,-370,0,0,0,0,0,0,0,0,0,-1,1133,1394,0,0
-84,-370,0,0,0,0,0,0,0,0,0,-1,1140,1394,0,0
-77,-370,0,0,0,0,0,0,0,0,0,-1,1147,1394,0,0
-70,-370,0,0,0,0,0,0,0,0,0,-1,1154,1394,0,0
-63,-370,0,0,0,0,0,0,0,0,0,-1,1161,1394,0,0
-56,-370,0,0,0,0,0,0,0,0,0,-1,1168,1394,0,0
-49,-370,0,0,0,0,0,0,0,0,0,-1,1175,1394,0,0
-42,-370,0,0,0,0,0,0,0,0,0,-1,1182,1394,0,0
-35,-370,0,0,0,0,0,0,0,0,0,-1,1189,1394,0,0
-28,-370,0,0,0,0,0,0,0,0,0,-1,1196,1394,0,0
-21,-370,0,0,0,0,0,0,0,0,0,-1,1203,1394,0,0
-14,-370,0,0,0,0,0,0,0,0,0,-1,1210,1394,0,0
-7,-370,0,0,0,0,0,0,0,0,0,-1,1217,1394,0,0
0,-370,0,0,0,0,0,0,0,0,0,-1,1224,1394,0,0
7,-370,0,0,0,0,0,0,0,0,0,-1,1231,1394,0,0
14,-370,0,0,0,0,0,0,0,0,0,-1,1238,1394,0,0
21,-370,0,0,0,0,0,0,0,0,0,-1,1245,1394,0,0
28,-370,0,0,0,0,0,0,0,0,0,-1,1252,1394,0,0
35,-370,0,0,0,0,0,0,0,0,0,-1,1259,1394,0,0
42,-370,0,0,0,0,0,0,0,0,0,-1,1266,1394,0,0
49,-370,0,0,0,0,0,0,0,0,0,-1,1273,1394,0,0
56,-370,0,0,0,0,0,0,0,0,0,-1,1280,1394,0,0
63,-370,0,0,0,0,0,0,0,0,0,-1,1287,1394,0,0
70,-370,0,0,0,0,0,0,0,0,0,-1,1294,1394,0,0
77,-370,0,0,0,0,0,0,0,0,0,-1,1301,1394,0,0
84,-370,0,0,0,0,0,0,0,0,0,-1,1308,1394,0,0
91,-370,0,0,0,0,0,0,0,0,0,-1,1315,1394,0,0
98,-370,0,0,0,0,0,0,0,0,0,-1,1322,1394,0,0
105,-370,0,0,0,0,0,0,0,0,0,-1,1329,1394,0,0
112,-370,0,0,0,0,0,0,0,0,0,-1,1336,1394,0,0
119,-370,0,0,0,0,0,0,0,0,0,-1,1343,1394,0,0
126,-370,0,0,0,0,0,0,0,0,0,-1,1350,1394,0,0
133,-370,0,0,0,0,0,0,0,0,0,-1,1357,1394,0,0
140,-370,0,0,0,0,0,0,0,0,0,-1,1364,1394,0,0
147,-370,0,0,0,0,0,0,0,0,0,-1,1371,1394,0,0
154,-370,0,0,0,0,0,0,0,0,0,-1,1378,1394,0,0
161,-370,0,0,0,0,0,0,0,0,0,-1,1385,1394,0,0
168,-370,0,0,0,0,0,0,0,0,0,-1,1392,1394,0,0
175,-370,0,0,0,0,0,0,0,0,0,-1,1399,1394,0,0
182,-370,0,0,0,0,0,0,0,0,0,-1,1406,1394,0,0
189,-370,0,0,0,0,0,0,0,0,0,-1,1413,1394,0,0
196,-370,0,0,0,0,0,0,0,0,0,-1,1420,1394,0,0
203,-370,0,0,0,0,0,0,0,0,0,-1,1427,1394,0,0
210,-370,0,0,0,0,0,0,0,0,0,-1,1434,1394,0,0
217,-370,0,0,0,0,0,0,0,0,0,-1,1441,1394,0,0
224,-370,0,0,0,0,0,0,0,0,0,-1,1448,1394,0,0
231,-370,0,0,0,0,0,0,0,0,0,-1,1455,1394,0,0
238,-370,0,0,0,0,0,0,0,0,0,-1,1462,1394,0,0
245,-370,0,0,0,0,0,0,0,0,0,-1,1469,1394,0,0
252,-370,0,0,0,0,0,0,0,0,0,-1,1476,1394,0,0
259,-370,0,0,0,0,0,0,0,0,0,-1,1483,1394,0,0
266,-370,0,0,0,0,0,0,0,0,0,-1,1490,1394,0,0
273,-370,0,0,0,0,0,0,0,0,0,-1,1497,1394,0,0
280,-370,0,0,0,0,0,0,0,0,0,-1,1504,1394,0,0
287,-370,0,0,0,0,0,0,0,0,0,-1,1511,1394,0,0
294,-370,0,0,0,0,0,0,0,0,0,-1,1518,1394,0,0
301,-370,0,0,0,0,0,0,0,0,0,-1,1525,1394,0,0
308,-370,0,0,0,0,0,0,0,0,0,-1,1532,1394,0,0
315,-370,0,0,0,0,0,0,0,0,0,-1,1539,1394,0,0
322,-370,0,0,0,0,0,0,0,0,0,-1,1546,1394,0,0
329,-370,0,0,0,0,0,0,0,0,0,-1,1553,1394,0,0
336,-370,0,0,0,0,0,0,0,0,0,-1,1560,1394,0,0
343,-370,0,0,0,0,0,0,0,0,0,-1,1567,1394,0,0
350,-370,0,0,0,0,0,0,0,0,0,-1,1574,1394,0,0
357,-370,0,0,0,0,0,0,0,0,0,-1,1581,1394,0,0
364,-370,0,0,0,0,0,0,0,0,0,-1,1588,1394,0,0
371,-370,0,0,0,0,0,0,0,0,0,-1,1595,1394,0,0
378,-370,0,0,0,0,0,0,0,0,0,-1,1602,1394,0,0
385,-370,0,0,0,0,0,0,0,0,0,-1,1609,1394,0,0
392,-370,0,0,0,0,0,0,0,0,0,-1,1616,1394,0,0
399,-370,0,0,0,0,0,0,0,0,0,-1,1623,1394,0,0
406,-370,0,0,0,0,0,0,0,0,0,-1,1630,1394,0,0
413,-370,0,0,0,0,0,0,0,0,0,-1,1637,1394,0,0
420,-370,0,0,0,0,0,0,0,0,0,-1,1644,1394,0,0
427,-370,0,0,0,0,0,0,0,0,0,-1,1651,1394,0,0
434,-370,0,0,0,0,0,0,0,0,0,-1,1658,1394,0,0
441,-370,0,0,0,0,0,0,0,0,0,-1,1665,1394,0,0
448,-370,0,0,0,0,0,0,0,0,0,-1,1672,1394,0,0
455,-370,0,0,0,0,0,0,0,0,0,-1,1679,1394,0,0
462,-370,0,0,0,0,0,0,0,0,0,-1,1686,1394,0,0
469,-370,0,0,0,0,0,0,0,0,0,-1,1693,1394,0,0
476,-370,0,0,0,0,0,0,0,0,0,-1,1700,1394,0,0
483,-370,0,0,0,0,0,0,0,0,0,-1,1707,1394,0,0
490,-370,0,0,0,0,0,0,0,0,0,-1,1714,1394,0,0
497,-370,0,0,0,0,0,0,0,0,0,-1,1721,1394,0,0
504,-370,0,0,0,0,0,0,0,0,0,-1,1728,1394,0,0
511,-370,0,0,0,0,0,0,0,0,0,-1,1735,1394,0,0
518,-370,0,0,0,0,0,0,0,0,0,-1,1742,1394,0,0
525,-370,0,0,0,0,0,0,0,0,0,-1,1749,1394,0,0
532,-370,0,0,0,0,0,0,0,0,0,-1,1756,1394,0,0
539,-370,0,0,0,0,0,0,0,0,0,-1,1763,1394,0,0
546,-370,27.4949,2.81201,0,0,0,0,0,0,0,-1,1770,1394,27.4948,-2.81198
553,-370,26.5985,1.99329,0,0,0,0,0,0,0,-1,1777,1394,26.5985,-1.99327
560,-370,38.1403,3.45044,0,0,0,0,0,0,0,-1,1784,1394,38.1403,-3.45042
567,-370,38.4773,0.835205,0,0,0,0,0,0,0,-1,1791,1394,38.4773,-0.835145
574,-370,38.8953,1.49353,0,0,0,0,0,0,0,-1,1798,1394,38.8952,-1.49348
581,-370,39.178,2.86145,0,0,0,0,0,0,0,-1,1805,1394,39.1779,-2.86145
588,-370,39.2102,4.27661,0,0,0,0,0,0,0,-1,1812,1394,39.2102,-4.27657
595,-370,25.793,4.5271,0,0,0,0,0,0,0,-1,1819,1394,25.793,-4.52711
602,-370,25.1077,5.34937,0,0,0,0,0,0,0,-1,1826,1394,25.1077,-5.34932
609,-370,16.712,0.993286,0,0,0,0,0,0,0,-1,1833,1394,16.7121,-0.99323
616,-370,16.7764,7.23315,0,0,0,0,0,0,0,-1,1840,1394,16.7764,-7.23313
623,-370,17.6625,8.94263,0,0,0,0,0,0,0,-1,1847,1394,17.6624,-8.94258
630,-370,20.9681,11.1785,0,0,0,0,0,0,0,-1,1854,1394,20.9681,-11.1784
637,-370,25.9971,12.6426,0,0,0,0,0,0,0,-1,1861,1394,25.9971,-12.6426
644,-370,26.0282,12.1683,0.00106306,0.000792857,-0.00198828,0.00292082,-0.0010649,-0.751476,0.00238286,0.0132355,1868,1394,26.0282,-12.1683
651,-370,26.0221,11.7065,0.000335372,0.000621616,-0.000886835,0.0013768,-0.000419815,-0.865401,0.00108522,0.0120169,1875,1394,26.0221,-11.7065
658,-370,26.0027,11.291,0.000551918,0.000330256,-0.000481568,0.000935244,-5.307e-05,-0.672294,0.000641918,0.0121448,1882,1394,26.0027,-11.291
665,-370,25.9706,10.864,0.000881747,5.40671e-05,-0.000125356,0.000900317,3.54979e-05,-0.147062,0.000588735,0.0132932,1889,1394,25.9706,-10.8641
672,-370,25.9543,10.4067,0.00131805,-0.000216418,0.000193832,0.00134215,-0.000240525,0.12373,0.000984783,0.0135508,1896,1394,25.9543,-10.4068
679,-370,25.9836,9.95313,0.00187704,-0.000457341,0.000450228,0.00196087,-0.000541166,0.184075,0.00152009,0.0127315,1903,1394,25.9837,-9.9531
686,-370,25.9591,9.52307,0.00255493,-0.000736385,0.000671203,0.00268655,-0.000868001,0.193633,0.00213988,0.0134056,1910,1394,25.9591,-9.52307
693,-370,25.9258,9.05713,0.0034007,-0.00101582,0.000813438,0.00354575,-0.00116088,0.176469,0.00283127,0.012349,1917,1394,25.9257,-9.05718
700,-370,26.0901,8.58374,0.00444217,-0.0012791,0.000861268,0.00456901,-0.00140594,0.146222,0.00360717,0.0301201,1924,1394,26.0901,-8.58373
707,-370,26.3983,8.06543,0,0,0,0,0,0,0,-1,1931,1394,26.3983,-8.06539
714,-370,16.9116,5.93018,0,0,0,0,0,0,0,-1,1938,1394,16.9116,-5.93014
721,-370,17.2007,4.69153,0,0,0,0,0,0,0,-1,1945,1394,17.2007,-4.69158
728,-370,20.5315,-0.313354,0,0,0,0,0,0,0,-1,1952,1394,20.5315,0.313332
735,-370,22.3652,0.233398,0,0,0,0,0,0,0,-1,1959,1394,22.3652,-0.233355
742,-370,24.1989,0.780029,0,0,0,0,0,0,0,-1,1966,1394,24.1989,-0.780041
749,-370,0,0,0,0,0,0,0,0,0,-1,1973,1394,0,0
756,-370,0,0,0,0,0,0,0,0,0,-1,1980,1394,0,0
763,-370,0,0,0,0,0,0,0,0,0,-1,1987,1394,0,0
770,-370,0,0,0,0,0,0,0,0,0,-1,1994,1394,0,0
777,-370,0,0,0,0,0,0,0,0,0,-1,2001,1394,0,0
784,-370,0,0,0,0,0,0,0,0,0,-1,2008,1394,0,0
791,-370,0,0,0,0,0,0,0,0,0,-1,2015,1394,0,0
798,-370,0,0,0,0,0,0,0,0,0,-1,2022,1394,0,0
805,-370,0,0,0,0,0,0,0,0,0,-1,2029,1394,0,0
812,-370,0,0,0,0,0,0,0,0,0,-1,2036,1394,0,0
-700,-377,0,0,0,0,0,0,0,0,0,-1,524,1401,0,0
-693,-377,0,0,0,0,0,0,0,0,0,-1,531,1401,0,0
-686,-377,0,0,0,0,0,0,0,0,0,-1,538,1401,0,0
-679,-377,0,0,0,0,0,0,0,0,0,-1,545,1401,0,0
-672,-377,0,0,0,0,0,0,0,0,0,-1,552,1401,0,0
-665,-377,0,0,0,0,0,0,0,0,0,-1,559,1401,0,0
-658,-377,0,0,0,0,0,0,0,0,0,-1,566,1401,0,0
-651,-377,0,0,0,0,0,0,0,0,0,-1,573,1401,0,0
-644,-377,0,0,0,0,0,0,0,0,0,-1,580,1401,0,0
-637,-377,0,0,0,0,0,0,0,0,0,-1,587,1401,0,0
-630,-377,0,0,0,0,0,0,0,0,0,-1,594,1401,0,0
-623,-377,0,0,0,0,0,0,0,0,0,-1,601,1401,0,0
-616,-377,-9.43915,-2.4906,0,0,0,0,0,0,0,-1,608,1401,-9.43915,2.49062
-609,-377,-7.2821,-1.35278,0,0,0,0,0,0,0,-1,615,1401,-7.28208,1.35279
-602,-377,-14.9736,3.98279,0,0,0,0,0,0,0,-1,622,1401,-14.9737,-3.98276
-595,-377,-6.9082,1.18201,0,0,0,0,0,0,0,-1,629,1401,-6.90822,-1.18204
-588,-377,-11.5301,5.19727,0,0,0,0,0,0,0,-1,636,1401,-11.5301,-5.1973
-581,-377,-11.1068,6.05823,0,0,0,0,0,0,0,-1,643,1401,-11.1067,-6.05825
-574,-377,-11.8456,6.50696,0,0,0,0,0,0,0,-1,650,1401,-11.8456,-6.50692
-567,-377,-11.8124,6.8136,-0.00608566,-0.00395179,-0.00426697,-0.000620394,-0.00941706,-0.907909,0.0060818,0.0465718,657,1401,-11.8124,-6.81356
-560,-377,-12.1416,6.98389,-0.00428968,-0.00287554,-0.003299,-0.000208685,-0.00695654,-0.890966,0.00456972,0.0437663,664,1401,-12.1416,-6.98394
-553,-377,-12.0161,7.39868,-0.00261888,-0.00196341,-0.00230076,3.28384e-05,-0.00461513,-0.856146,0.00308776,0.0147411,671,1401,-12.0161,-7.39868
-546,-377,-12.0225,7.93823,-0.00109939,-0.00123097,-0.00133718,0.000173611,-0.00250398,-0.760818,0.00173009,0.0167463,678,1401,-12.0225,-7.93829
-539,-377,-12.0179,8.40808,0.000290038,-0.000599871,-0.000437957,0.000469416,-0.000779249,-0.388736,0.000728277,0.0215701,685,1401,-12.0179,-8.40814
-532,-377,-12.0548,8.89111,0.00163597,-2.58349e-05,0.000452888,0.00175138,-0.000141245,0.24952,0.0012174,0.0191071,692,1401,-12.0548,-8.89116
-525,-377,-11.9979,9.38025,0.0030217,0.000579541,0.00140932,0.00366535,-6.41068e-05,0.428419,0.00246521,0.0200299,699,1401,-11.9979,-9.38027
-518,-377,-12.0535,9.84485,0.00448387,0.00126446,0.0024664,0.00581938,-7.10438e-05,0.496279,0.00390348,0.0137788,706,1401,-12.0535,-9.8448
-511,-377,-12.0897,10.348,0.00600548,0.00203731,0.00363444,0.00816214,-0.000119343,0.535548,0.00548164,0.0124793,713,1401,-12.0896,-10.348
-504,-377,-12.095,10.86,0.00774877,0.00299137,0.00501434,0.01092,-0.000179871,0.563927,0.0073407,0.0146823,720,1401,-12.095,-10.86
-497,-377,-12.0764,11.3424,0,0,0,0,0,0,0,-1,727,1401,-12.0764,-11.3424
-490,-377,-8.88409,10.1245,0,0,0,0,0,0,0,-1,734,1401,-8.8841,-10.1245
-483,-377,-5.6524,5.07324,0,0,0,0,0,0,0,-1,741,1401,-5.6524,-5.07325
-476,-377,-6.11682,5.10535,0,0,0,0,0,0,0,-1,748,1401,-6.11681,-5.10537
-469,-377,-10.3211,1.9281,0,0,0,0,0,0,0,-1,755,1401,-10.3211,-1.92808
-462,-377,-9.2204,1.0022,0,0,0,0,0,0,0,-1,762,1401,-9.22039,-1.00218
-455,-377,-8.11969,0.0762939,0,0,0,0,0,0,0,-1,769,1401,-8.11968,-0.0762759
-448,-377,-9.05334,0.877319,0,0,0,0,0,0,0,-1,776,1401,-9.05332,-0.877324
-441,-377,-11.212,0.763428,0,0,0,0,0,0,0,-1,783,1401,-11.212,-0.763415
-434,-377,-11.0984,0.996216,0,0,0,0,0,0,0,-1,790,1401,-11.0984,-0.996265
-427,-377,-11.1733,1.25732,0,0,0,0,0,0,0,-1,797,1401,-11.1733,-1.25732
-420,-377,0,0,0,0,0,0,0,0,0,-1,804,1401,0,0
-413,-377,0,0,0,0,0,0,0,0,0,-1,811,1401,0,0
-406,-377,0,0,0,0,0,0,0,0,0,-1,818,1401,0,0
-399,-377,0,0,0,0,0,0,0,0,0,-1,825,1401,0,0
-392,-377,0,0,0,0,0,0,0,0,0,-1,832,1401,0,0
-385,-377,0,0,0,0,0,0,0,0,0,-1,839,1401,0,0
-378,-377,0,0,0,0,0,0,0,0,0,-1,846,1401,0,0
-371,-377,0,0,0,0,0,0,0,0,0,-1,853,1401,0,0
-364,-377,0,0,0,0,0,0,0,0,0,-1,860,1401,0,0
-357,-377,0,0,0,0,0,0,0,0,0,-1,867,1401,0,0
-350,-377,0,0,0,0,0,0,0,0,0,-1,874,1401,0,0
-343,-377,0,0,0,0,0,0,0,0,0,-1,881,1401,0,0
-336,-377,0,0,0,0,0,0,0,0,0,-1,888,1401,0,0
-329,-377,0,0,0,0,0,0,0,0,0,-1,895,1401,0,0
-322,-377,0,0,0,0,0,0,0,0,0,-1,902,1401,0,0
-315,-377,0,0,0,0,0,0,0,0,0,-1,909,1401,0,0
-308,-377,0,0,0,0,0,0,0,0,0,-1,916,1401,0,0
-301,-377,0,0,0,0,0,0,0,0,0,-1,923,1401,0,0
-294,-377,0,0,0,0,0,0,0,0,0,-1,930,1401,0,0
-287,-377,0,0,0,0,0,0,0,0,0,-1,937,1401,0,0
-280,-377,0,0,0,0,0,0,0,0,0,-1,944,1401,0,0
-273,-377,0,0,0,0,0,0,0,0,0,-1,951,1401,0,0
-266,-377,0,0,0,0,0,0,0,0,0,-1,958,1401,0,0
-259,-377,0,0,0,0,0,0,0,0,0,-1,965,1401,0,0
-252,-377,0,0,0,0,0,0,0,0,0,-1,972,1401,0,0
-245,-377,0,0,0,0,0,0,0,0,0,-1,979,1401,0,0
-238,-377,0,0,0,0,0,0,0,0,0,-1,986,1401,0,0
-231,-377,0,0,0,0,0,0,0,0,0,-1,993,1401,0,0
-224,-377,0,0,0,0,0,0,0,0,0,-1,1000,1401,0,0
-217,-377,0,0,0,0,0,0,0,0,0,-1,1007,1401,0,0
-210,-377,0,0,0,0,0,0,0,0,0,-1,1014,1401,0,0
-203,-377,0,0,0,0,0,0,0,0,0,-1,1021,1401,0,0
-196,-377,0,0,0,0,0,0,0,0,0,-1,1028,1401,0,0
-189,-377,0,0,0,0,0,0,0,0,0,-1,1035,1401,0,0
-182,-377,0,0,0,0,0,0,0,0,0,-1,1042,1401,0,0
-175,-377,0,0,0,0,0,0,0,0,0,-1,1049,1401,0,0
-168,-377,0,0,0,0,0,0,0,0,0,-1,1056,1401,0,0
-161,-377,0,0,0,0,0,0,0,0,0,-1,1063,1401,0,0
-154,-377,0,0,0,0,0,0,0,0,0,-1,1070,1401,0,0
-147,-377,0,0,0,0,0,0,0,0,0,-1,1077,1401,0,0
-140,-377,0,0,0,0,0,0,0,0,0,-1,1084,1401,0,0
-133,-377,0,0,0,0,0,0,0,0,0,-1,1091,1401,0,0
-126,-377,0,0,0,0,0,0,0,0,0,-1,1098,1401,0,0
-119,-377,0,0,0,0,0,0,0,0,0,-1,1105,1401,0,0
-112,-377,0,0,0,0,0,0,0,0,0,-1,1112,1401,0,0
-105,-377,0,0,0,0,0,0,0,0,0,-1,1119,1401,0,0
-98,-377,0,0,0,0,0,0,0,0,0,-1,1126,1401,0,0
-91,-377,0,0,0,0,0,0,0,0,0,-1,1133,1401,0,0
-84,-377,0,0,0,0,0,0,0,0,0,-1,1140,1401,0,0
-77,-377,0,0,0,0,0,0,0,0,0,-1,1147,1401,0,0
-70,-377,0,0,0,0,0,0,0,0,0,-1,1154,1401,0,0
-63,-377,0,0,0,0,0,0,0,0,0,-1,1161,1401,0,0
-56,-377,0,0,0,0,0,0,0,0,0,-1,1168,1401,0,0
-49,-377,0,0,0,0,0,0,0,0,0,-1,1175,1401,0,0
-42,-377,0,0,0,0,0,0,0,0,0,-1,1182,1401,0,0
-35,-377,0,0,0,0,0,0,0,0,0,-1,1189,1401,0,0
-28,-377,0,0,0,0,0,0,0,0,0,-1,1196,1401,0,0
-21,-377,0,0,0,0,0,0,0,0,0,-1,1203,1401,0,0
-14,-377,0,0,0,0,0,0,0,0,0,-1,1210,1401,0,0
-7,-377,0,0,0,0,0,0,0,0,0,-1,1217,1401,0,0
0,-377,0,0,0,0,0,0,0,0,0,-1,1224,1401,0,0
7,-377,0,0,0,0,0,0,0,0,0,-1,1231,1401,0,0
14,-377,0,0,0,0,0,0,0,0,0,-1,1238,1401,0,0
21,-377,0,0,0,0,0,0,0,0,0,-1,1245,1401,0,0
28,-377,0,0,0,0,0,0,0,0,0,-1,1252,1401,0,0
35,-377,0,0,0,0,0,0,0,0,0,-1,1259,1401,0,0
42,-377,0,0,0,0,0,0,0,0,0,-1,1266,1401,0,0
49,-377,0,0,0,0,0,0,0,0,0,-1,1273,1401,0,0
56,-377,0,0,0,0,0,0,0,0,0,-1,1280,1401,0,0
63,-377,0,0,0,0,0,0,0,0,0,-1,1287,1401,0,0
70,-377,0,0,0,0,0,0,0,0,0,-1,1294,1401,0,0
77,-377,0,0,0,0,0,0,0,0,0,-1,1301,1401,0,0
84,-377,0,0,0,0,0,0,0,0,0,-1,1308,1401,0,0
91,-377,0,0,0,0,0,0,0,0,0,-1,1315,1401,0,0
98,-377,0,0,0,0,0,0,0,0,0,-1,1322,1401,0,0
105,-377,0,0,0,0,0,0,0,0,0,-1,1329,1401,0,0
112,-377,0,0,0,0,0,0,0,0,0,-1,1336,1401,0,0
119,-377,0,0,0,0,0,0,0,0,0,-1,1343,1401,0,0
126,-377,0,0,0,0,0,0,0,0,0,-1,1350,1401,0,0
133,-377,0,0,0,0,0,0,0,0,0,-1,1357,1401,0,0
140,-377,0,0,0,0,0,0,0,0,0,-1,1364,1401,0,0
147,-377,0,0,0,0,0,0,0,0,0,-1,1371,1401,0,0
154,-377,0,0,0,0,0,0,0,0,0,-1,1378,1401,0,0
161,-377,0,0,0,0,0,0,0,0,0,-1,1385,1401,0,0
168,-377,0,0,0,0,0,0,0,0,0,-1,1392,1401,0,0
175,-377,0,0,0,0,0,0,0,0,0,-1,1399,1401,0,0
182,-377,0,0,0,0,0,0,0,0,0,-1,1406,1401,0,0
189,-377,0,0,0,0,0,0,0,0,0,-1,1413,1401,0,0
196,-377,0,0,0,0,0,0,0,0,0,-1,1420,1401,0,0
203,-377,0,0,0,0,0,0,0,0,0,-1,1427,1401,0,0
210,-377,0,0,0,0,0,0,0,0,0,-1,1434,1401,0,0
217,-377,0,0,0,0,0,0,0,0,0,-1,1441,1401,0,0
224,-377,0,0,0,0,0,0,0,0,0,-1,1448,1401,0,0
231,-377,0,0,0,0,0,0,0,0,0,-1,1455,1401,0,0
238,-377,0,0,0,0,0,0,0,0,0,-1,1462,1401,0,0
245,-377,0,0,0,0,0,0,0,0,0,-1,1469,1401,0,0
252,-377,0,0,0,0,0,0,0,0,0,-1,1476,1401,0,0
259,-377,0,0,0,0,0,0,0,0,0,-1,1483,1401,0,0
266,-377,0,0,0,0,0,0,0,0,0,-1,1490,1401,0,0
273,-377,0,0,0,0,0,0,0,0,0,-1,1497,1401,0,0
280,-377,0,0,0,0,0,0,0,0,0,-1,1504,1401,0,0
287,-377,0,0,0,0,0,0,0,0,0,-1,1511,1401,0,0
294,-377,0,0,0,0,0,0,0,0,0,-1,1518,1401,0,0
301,-377,0,0,0,0,0,0,0,0,0,-1,1525,1401,0,0
308,-377,0,0,0,0,0,0,0,0,0,-1,1532,1401,0,0
315,-377,0,0,0,0,0,0,0,0,0,-1,1539,1401,0,0
322,-377,0,0,0,0,0,0,0,0,0,-1,1546,1401,0,0
329,-377,0,0,0,0,0,0,0,0,0,-1,1553,1401,0,0
336,-377,0,0,0,0,0,0,0,0,0,-1,1560,1401,0,0
343,-377,0,0,0,0,0,0,0,0,0,-1,1567,1401,0,0
350,-377,0,0,0,0,0,0,0,0,0,-1,1574,1401,0,0
357,-377,0,0,0,0,0,0,0,0,0,-1,1581,1401,0,0
364,-377,0,0,0,0,0,0,0,0,0,-1,1588,1401,0,0
371,-377,0,0,0,0,0,0,0,0,0,-1,1595,1401,0,0
378,-377,0,0,0,0,0,0,0,0,0,-1,1602,1401,0,0
385,-377,0,0,0,0,0,0,0,0,0,-1,1609,1401,0,0
392,-377,0,0,0,0,0,0,0,0,0,-1,1616,1401,0,0
399,-377,0,0,0,0,0,0,0,0,0,-1,1623,1401,0,0
406,-377,0,0,0,0,0,0,0,0,0,-1,1630,1401,0,0
413,-377,0,0,0,0,0,0,0,0,0,-1,1637,1401,0,0
420,-377,0,0,0,0,0,0,0,0,0,-1,1644,1401,0,0
427,-377,0,0,0,0,0,0,0,0,0,-1,1651,1401,0,0
434,-377,0,0,0,0,0,0,0,0,0,-1,1658,1401,0,0
441,-377,0,0,0,0,0,0,0,0,0,-1,1665,1401,0,0
448,-377,0,0,0,0,0,0,0,0,0,-1,1672,1401,0,0
455,-377,0,0,0,0,0,0,0,0,0,-1,1679,1401,0,0
462,-377,0,0,0,0,0,0,0,0,0,-1,1686,1401,0,0
469,-377,0,0,0,0,0,0,0,0,0,-1,1693,1401,0,0
476,-377,0,0,0,0,0,0,0,0,0,-1,1700,1401,0,0
483,-377,0,0,0,0,0,0,0,0,0,-1,1707,1401,0,0
490,-377,0,0,0,0,0,0,0,0,0,-1,1714,1401,0,0
497,-377,0,0,0,0,0,0,0,0,0,-1,1721,1401,0,0
504,-377,0,0,0,0,0,0,0,0,0,-1,1728,1401,0,0
511,-377,0,0,0,0,0,0,0,0,0,-1,1735,1401,0,0
518,-377,0,0,0,0,0,0,0,0,0,-1,1742,1401,0,0
525,-377,0,0,0,0,0,0,0,0,0,-1,1749,1401,0,0
532,-377,0,0,0,0,0,0,0,0,0,-1,1756,1401,0,0
539,-377,0,0,0,0,0,0,0,0,0,-1,1763,1401,0,0
546,-377,27.8485,2.34094,0,0,0,0,0,0,0,-1,1770,1401,27.8486,-2.34091
553,-377,27.2189,2.42493,0,0,0,0,0,0,0,-1,1777,1401,27.2188,-2.42498
560,-377,38.3577,-2.15015,0,0,0,0,0,0,0,-1,1784,1401,38.3576,2.1501
567,-377,38.4889,-0.285645,0,0,0,0,0,0,0,-1,1791,1401,38.4889,0.2857
574,-377,38.6221,1.61694,0,0,0,0,0,0,0,-1,1798,1401,38.6221,-1.61689
581,-377,39.1818,3.76367,0,0,0,0,0,0,0,-1,1805,1401,39.1818,-3.76366
588,-377,25.882,4.35217,0,0,0,0,0,0,0,-1,1812,1401,25.8819,-4.3522
595,-377,25.5392,5.11804,0,0,0,0,0,0,0,-1,1819,1401,25.5392,-5.11808
602,-377,24.816,5.79126,0,0,0,0,0,0,0,-1,1826,1401,24.816,-5.79124
609,-377,15.0223,4.76135,0,0,0,0,0,0,0,-1,1833,1401,15.0224,-4.76129
616,-377,14.1842,5.78992,0,0,0,0,0,0,0,-1,1840,1401,14.1842,-5.78987
623,-377,15.8248,8.76721,0,0,0,0,0,0,0,-1,1847,1401,15.8248,-8.76725
630,-377,25.2107,13.3793,0,0,0,0,0,0,0,-1,1854,1401,25.2107,-13.3793
637,-377,25.4905,12.6859,0.00128308,-0.000110682,-0.00259856,0.00327658,-0.00210418,-0.65439,0.00313107,0.0295304,1861,1401,25.4905,-12.6859
644,-377,25.5814,12.1879,0.000694055,0.000595977,-0.00125961,0.00190558,-0.000615549,-0.765942,0.00151776,0.0128316,1868,1401,25.5814,-12.1878
651,-377,25.5798,11.7206,0.000545816,0.000378619,-0.000607855,0.00107579,-0.00015136,-0.717062,0.000772608,0.0135062,1875,1401,25.5798,-11.7206
658,-377,25.5612,11.2976,0.000730812,0.000177566,-0.000276347,0.000845198,6.318e-05,-0.39245,0.00054363,0.0141003,1882,1401,25.5611,-11.2976
665,-377,25.5393,10.8262,0.00103002,-4.12173e-05,4.91542e-05,0.00103227,-4.3468e-05,0.0457571,0.000703121,0.0178217,1889,1401,25.5394,-10.8262
672,-377,25.527,10.3667,0.00144846,-0.000295894,0.00036513,0.0015218,-0.000369239,0.198237,0.00115742,0.0170211,1896,1401,25.527,-10.3667
679,-377,25.5078,9.97119,0.00199378,-0.0005575,0.000652822,0.00215112,-0.000714841,0.236506,0.00172253,0.016164,1903,1401,25.5078,-9.97117
686,-377,25.5088,9.55969,0.00267233,-0.00092053,0.000950367,0.00290822,-0.00115643,0.243301,0.00241829,0.0148683,1910,1401,25.5088,-9.55972
693,-377,25.5309,9.08057,0.0035729,-0.00133951,0.00119151,0.00384665,-0.00161325,0.225829,0.00323899,0.0150491,1917,1401,25.5309,-9.08054
700,-377,25.4675,8.71985,0.00473334,-0.00185291,0.00139179,0.00501537,-0.00213494,0.199933,0.00423842,0.0448566,1924,1401,25.4676,-8.71983
707,-377,25.5997,8.29407,0,0,0,0,0,0,0,-1,1931,1401,25.5997,-8.29411
714,-377,16.5369,5.45959,0,0,0,0,0,0,0,-1,1938,1401,16.5369,-5.4596
721,-377,17.0913,5.42529,0,0,0,0,0,0,0,-1,1945,1401,17.0914,-5.42529
728,-377,14.5396,2.79724,0,0,0,0,0,0,0,-1,1952,1401,14.5396,-2.7972
735,-377,23.2977,-0.991089,0,0,0,0,0,0,0,-1,1959,1401,23.2978,0.991076
742,-377,0,0,0,0,0,0,0,0,0,-1,1966,1401,0,0
749,-377,0,0,0,0,0,0,0,0,0,-1,1973,1401,0,0
756,-377,0,0,0,0,0,0,0,0,0,-1,1980,1401,0,0
763,-377,0,0,0,0,0,0,0,0,0,-1,1987,1401,0,0
770,-377,0,0,0,0,0,0,0,0,0,-1,1994,1401,0,0
777,-377,0,0,0,0,0,0,0,0,0,-1,2001,1401,0,0
784,-377,0,0,0,0,0,0,0,0,0,-1,2008,1401,0,0
791,-377,0,0,0,0,0,0,0,0,0,-1,2015,1401,0,0
798,-377,0,0,0,0,0,0,0,0,0,-1,2022,1401,0,0
805,-377,0,0,0,0,0,0,0,0,0,-1,2029,1401,0,0
812,-377,0,0,0,0,0,0,0,0,0,-1,2036,1401,0,0
-700,-384,0,0,0,0,0,0,0,0,0,-1,524,1408,0,0
-693,-384,0,0,0,0,0,0,0,0,0,-1,531,1408,0,0
-686,-384,0,0,0,0,0,0,0,0,0,-1,538,1408,0,0
-679,-384,0,0,0,0,0,0,0,0,0,-1,545,1408,0,0
-672,-384,0,0,0,0,0,0,0,0,0,-1,552,1408,0,0
-665,-384,0,0,0,0,0,0,0,0,0,-1,559,1408,0,0
-658,-384,0,0,0,0,0,0,0,0,0,-1,566,1408,0,0
-651,-384,0,0,0,0,0,0,0,0,0,-1,573,1408,0,0
-644,-384,0,0,0,0,0,0,0,0,0,-1,580,1408,0,0
-637,-384,0,0,0,0,0,0,0,0,0,-1,587,1408,0,0
-630,-384,0,0,0,0,0,0,0,0,0,-1,594,1408,0,0
-623,-384,0,0,0,0,0,0,0,0,0,-1,601,1408,0,0
-616,-384,-10.019,-3.36646,0,0,0,0,0,0,0,-1,608,1408,-10.019,3.36648
-609,-384,-7.72357,-2.3418,0,0,0,0,0,0,0,-1,615,1408,-7.72358,2.34182
-602,-384,-11.7632,-2.85156,0,0,0,0,0,0,0,-1,622,1408,-11.7632,2.85157
-595,-384,-10.2217,2.8855,0,0,0,0,0,0,0,-1,629,1408,-10.2218,-2.88548
-588,-384,-9.71045,2.79968,0,0,0,0,0,0,0,-1,636,1408,-9.71046,-2.79971
-581,-384,-11.669,6.24902,0,0,0,0,0,0,0,-1,643,1408,-11.669,-6.24908
-574,-384,-11.6536,6.43018,0,0,0,0,0,0,0,-1,650,1408,-11.6536,-6.43021
-567,-384,-11.4898,6.83081,0,0,0,0,0,0,0,-1,657,1408,-11.4898,-6.83079
-560,-384,-11.5702,6.91211,0,0,0,0,0,0,0,-1,664,1408,-11.5702,-6.91213
-553,-384,-11.5295,7.41956,-0.0035689,-0.00223975,-0.00278278,-4.32923e-05,-0.00576536,-0.902612,0.00382923,0.0332116,671,1408,-11.5296,-7.41958
-546,-384,-11.5189,7.96802,-0.00195765,-0.00144784,-0.00177431,8.9788e-05,-0.00349527,-0.856742,0.00236068,0.0143045,678,1408,-11.5188,-7.96799
-539,-384,-11.5717,8.41907,-0.000555682,-0.000780529,-0.00087533,0.000214415,-0.00155063,-0.72153,0.00111213,0.0160366,685,1408,-11.5717,-8.41902
-532,-384,-11.5447,8.86743,0.000748041,-0.000191849,-1.83369e-05,0.000748399,-0.000192207,-0.0194998,0.000573834,0.0223484,692,1408,-11.5448,-8.86737
-525,-384,-11.5184,9.38367,0.00206135,0.000422474,0.000888844,0.00245084,3.29767e-05,0.413003,0.00162302,0.0219899,699,1408,-11.5184,-9.3837
-518,-384,-11.5618,9.87769,0.00342456,0.00111636,0.00188508,0.00448077,6.01525e-05,0.510717,0.00296733,0.0137142,706,1408,-11.5618,-9.87774
-511,-384,-11.6024,10.3867,0.00488705,0.0019716,0.00303322,0.00679465,6.39989e-05,0.5614,0.00450859,0.0114332,713,1408,-11.6024,-10.3867
-504,-384,-11.6057,10.8944,0.00647814,0.00295651,0.00432558,0.00938756,4.709e-05,0.592105,0.00624273,0.0119704,720,1408,-11.6057,-10.8944
-497,-384,-11.5466,11.4354,0.00849069,0.00431378,0.00596972,0.0127267,7.77366e-05,0.617132,0.00845869,0.0369919,727,1408,-11.5466,-11.4355
-490,-384,-11.2,12.1447,0,0,0,0,0,0,0,-1,734,1408,-11.2,-12.1447
-483,-384,-6.26471,7.61194,0,0,0,0,0,0,0,-1,741,1408,-6.26469,-7.61191
-476,-384,-6.02734,5.67761,0,0,0,0,0,0,0,-1,748,1408,-6.02736,-5.6776
-469,-384,-10.206,2.63721,0,0,0,0,0,0,0,-1,755,1408,-10.206,-2.6372
-462,-384,-9.04291,1.43542,0,0,0,0,0,0,0,-1,762,1408,-9.04293,-1.43545
-455,-384,-7.87988,0.233765,0,0,0,0,0,0,0,-1,769,1408,-7.87986,-0.233709
-448,-384,-9.35529,7.19226,0,0,0,0,0,0,0,-1,776,1408,-9.35531,-7.19226
-441,-384,-10.4697,1.79004,0,0,0,0,0,0,0,-1,783,1408,-10.4697,-1.79003
-434,-384,-10.6449,0.552246,0,0,0,0,0,0,0,-1,790,1408,-10.6449,-0.552216
-427,-384,-10.968,1.10583,0,0,0,0,0,0,0,-1,797,1408,-10.968,-1.10588
-420,-384,-12.5607,4.54858,0,0,0,0,0,0,0,-1,804,1408,-12.5607,-4.54859
-413,-384,0,0,0,0,0,0,0,0,0,-1,811,1408,0,0
-406,-384,0,0,0,0,0,0,0,0,0,-1,818,1408,0,0
-399,-384,0,0,0,0,0,0,0,0,0,-1,825,1408,0,0
-392,-384,0,0,0,0,0,0,0,0,0,-1,832,1408,0,0
-385,-384,0,0,0,0,0,0,0,0,0,-1,839,1408,0,0
-378,-384,0,0,0,0,0,0,0,0,0,-1,846,1408,0,0
-371,-384,0,0,0,0,0,0,0,0,0,-1,853,1408,0,0
-364,-384,0,0,0,0,0,0,0,0,0,-1,860,1408,0,0
-357,-384,0,0,0,0,0,0,0,0,0,-1,867,1408,0,0
-350,-384,0,0,0,0,0,0,0,0,0,-1,874,1408,0,0
-343,-384,0,0,0,0,0,0,0,0,0,-1,881,1408,0,0
-336,-384,0,0,0,0,0,0,0,0,0,-1,888,1408,0,0
-329,-384,0,0,0,0,0,0,0,0,0,-1,895,1408,0,0
-322,-384,0,0,0,0,0,0,0,0,0,-1,902,1408,0,0
-315,-384,0,0,0,0,0,0,0,0,0,-1,909,1408,0,0
-308,-384,0,0,0,0,0,0,0,0,0,-1,916,1408,0,0
-301,-384,0,0,0,0,0,0,0,0,0,-1,923,1408,0,0
-294,-384,0,0,0,0,0,0,0,0,0,-1,930,1408,0,0
-287,-384,0,0,0,0,0,0,0,0,0,-1,937,1408,0,0
-280,-384,0,0,0,0,0,0,0,0,0,-1,944,1408,0,0
-273,-384,0,0,0,0,0,0,0,0,0,-1,951,1408,0,0
-266,-384,0,0,0,0,0,0,0,0,0,-1,958,1408,0,0
-259,-384,0,0,0,0,0,0,0,0,0,-1,965,1408,0,0
-252,-384,0,0,0,0,0,0,0,0,0,-1,972,1408,0,0
-245,-384,0,0,0,0,0,0,0,0,0,-1,979,1408,0,0
-238,-384,0,0,0,0,0,0,0,0,0,-1,986,1408,0,0
-231,-384,0,0,0,0,0,0,0,0,0,-1,993,1408,0,0
-224,-384,0,0,0,0,0,0,0,0,0,-1,1000,1408,0,0
-217,-384,0,0,0,0,0,0,0,0,0,-1,1007,1408,0,0
-210,-384,0,0,0,0,0,0,0,0,0,-1,1014,1408,0,0
-203,-384,0,0,0,0,0,0,0,0,0,-1,1021,1408,0,0
-196,-384,0,0,0,0,0,0,0,0,0,-1,1028,1408,0,0
-189,-384,0,0,0,0,0,0,0,0,0,-1,1035,1408,0,0
-182,-384,0,0,0,0,0,0,0,0,0,-1,1042,1408,0,0
-175,-384,0,0,0,0,0,0,0,0,0,-1,1049,1408,0,0
-168,-384,0,0,0,0,0,0,0,0,0,-1,1056,1408,0,0
-161,-384,0,0,0,0,0,0,0,0,0,-1,1063,1408,0,0
-154,-384,0,0,0,0,0,0,0,0,0,-1,1070,1408,0,0
-147,-384,0,0,0,0,0,0,0,0,0,-1,1077,1408,0,0
-140,-384,0,0,0,0,0,0,0,0,0,-1,1084,1408,0,0
-133,-384,0,0,0,0,0,0,0,0,0,-1,1091,1408,0,0
-126,-384,0,0,0,0,0,0,0,0,0,-1,1098,1408,0,0
-119,-384,0,0,0,0,0,0,0,0,0,-1,1105,1408,0,0
-112,-384,0,0,0,0,0,0,0,0,0,-1,1112,1408,0,0
-105,-384,0,0,0,0,0,0,0,0,0,-1,1119,1408,0,0
-98,-384,0,0,0,0,0,0,0,0,0,-1,1126,1408,0,0
-91,-384,0,0,0,0,0,0,0,0,0,-1,1133,1408,0,0
-84,-384,0,0,0,0,0,0,0,0,0,-1,1140,1408,0,0
-77,-384,0,0,0,0,0,0,0,0,0,-1,1147,1408,0,0
-70,-384,0,0,0,0,0,0,0,0,0,-1,1154,1408,0,0
-63,-384,0,0,0,0,0,0,0,0,0,-1,1161,1408,0,0
-56,-384,0,0,0,0,0,0,0,0,0,-1,1168,1408,0,0
-49,-384,0,0,0,0,0,0,0,0,0,-1,1175,1408,0,0
-42,-384,0,0,0,0,0,0,0,0,0,-1,1182,1408,0,0
-35,-384,0,0,0,0,0,0,0,0,0,-1,1189,1408,0,0
-28,-384,0,0,0,0,0,0,0,0,0,-1,1196,1408,0,0
-21,-384,0,0,0,0,0,0,0,0,0,-1,1203,1408,0,0
-14,-384,0,0,0,0,0,0,0,0,0,-1,1210,1408,0,0
-7,-384,0,0,0,0,0,0,0,0,0,-1,1217,1408,0,0
0,-384,0,0,0,0,0,0,0,0,0,-1,1224,1408,0,0
7,-384,0,0,0,0,0,0,0,0,0,-1,1231,1408,0,0
14,-384,0,0,0,0,0,0,0,0,0,-1,1238,1408,0,0
21,-384,0,0,0,0,0,0,0,0,0,-1,1245,1408,0,0
28,-384,0,0,0,0,0,0,0,0,0,-1,1252,1408,0,0
35,-384,0,0,0,0,0,0,0,0,0,-1,1259,1408,0,0
42,-384,0,0,0,0,0,0,0,0,0,-1,1266,1408,0,0
49,-384,0,0,0,0,0,0,0,0,0,-1,1273,1408,0,0
56,-384,0,0,0,0,0,0,0,0,0,-1,1280,1408,0,0
63,-384,0,0,0,0,0,0,0,0,0,-1,1287,1408,0,0
70,-384,0,0,0,0,0,0,0,0,0,-1,1294,1408,0,0
77,-384,0,0,0,0,0,0,0,0,0,-1,1301,1408,0,0
84,-384,0,0,0,0,0,0,0,0,0,-1,1308,1408,0,0
91,-384,0,0,0,0,0,0,0,0,0,-1,1315,1408,0,0
98,-384,0,0,0,0,0,0,0,0,0,-1,1322,1408,0,0
105,-384,0,0,0,0,0,0,0,0,0,-1,1329,1408,0,0
112,-384,0,0,0,0,0,0,0,0,0,-1,1336,1408,0,0
119,-384,0,0,0,0,0,0,0,0,0,-1,1343,1408,0,0
126,-384,0,0,0,0,0,0,0,0,0,-1,1350,1408,0,0
133,-384,0,0,0,0,0,0,0,0,0,-1,1357,1408,0,0
140,-384,0,0,0,0,0,0,0,0,0,-1,1364,1408,0,0
147,-384,0,0,0,0,0,0,0,0,0,-1,1371,1408,0,0
154,-384,0,0,0,0,0,0,0,0,0,-1,1378,1408,0,0
161,-384,0,0,0,0,0,0,0,0,0,-1,1385,1408,0,0
168,-384,0,0,0,0,0,0,0,0,0,-1,1392,1408,0,0
175,-384,0,0,0,0,0,0,0,0,0,-1,1399,1408,0,0
182,-384,0,0,0,0,0,0,0,0,0,-1,1406,1408,0,0
189,-384,0,0,0,0,0,0,0,0,0,-1,1413,1408,0,0
196,-384,0,0,0,0,0,0,0,0,0,-1,1420,1408,0,0
203,-384,0,0,0,0,0,0,0,0,0,-1,1427,1408,0,0
210,-384,0,0,0,0,0,0,0,0,0,-1,1434,1408,0,0
217,-384,0,0,0,0,0,0,0,0,0,-1,1441,1408,0,0
224,-384,0,0,0,0,0,0,0,0,0,-1,1448,1408,0,0
231,-384,0,0,0,0,0,0,0,0,0,-1,1455,1408,0,0
238,-384,0,0,0,0,0,0,0,0,0,-1,1462,1408,0,0
245,-384,0,0,0,0,0,0,0,0,0,-1,1469,1408,0,0
252,-384,0,0,0,0,0,0,0,0,0,-1,1476,1408,0,0
259,-384,0,0,0,0,0,0,0,0,0,-1,1483,1408,0,0
266,-384,0,0,0,0,0,0,0,0,0,-1,1490,1408,0,0
273,-384,0,0,0,0,0,0,0,0,0,-1,1497,1408,0,0
280,-384,0,0,0,0,0,0,0,0,0,-1,1504,1408,0,0
287,-384,0,0,0,0,0,0,0,0,0,-1,1511,1408,0,0
294,-384,0,0,0,0,0,0,0,0,0,-1,1518,1408,0,0
301,-384,0,0,0,0,0,0,0,0,0,-1,1525,1408,0,0
308,-384,0,0,0,0,0,0,0,0,0,-1,1532,1408,0,0
315,-384,0,0,0,0,0,0,0,0,0,-1,1539,1408,0,0
322,-384,0,0,0,0,0,0,0,0,0,-1,1546,1408,0,0
329,-384,0,0,0,0,0,0,0,0,0,-1,1553,1408,0,0
336,-384,0,0,0,0,0,0,0,0,0,-1,1560,1408,0,0
343,-384,0,0,0,0,0,0,0,0,0,-1,1567,1408,0,0
350,-384,0,0,0,0,0,0,0,0,0,-1,1574,1408,0,0
357,-384,0,0,0,0,0,0,0,0,0,-1,1581,1408,0,0
364,-384,0,0,0,0,0,0,0,0,0,-1,1588,1408,0,0
371,-384,0,0,0,0,0,0,0,0,0,-1,1595,1408,0,0
378,-384,0,0,0,0,0,0,0,0,0,-1,1602,1408,0,0
385,-384,0,0,0,0,0,0,0,0,0,-1,1609,1408,0,0
392,-384,0,0,0,0,0,0,0,0,0,-1,1616,1408,0,0
399,-384,0,0,0,0,0,0,0,0,0,-1,1623,1408,0,0
406,-384,0,0,0,0,0,0,0,0,0,-1,1630,1408,0,0
413,-384,0,0,0,0,0,0,0,0,0,-1,1637,1408,0,0
420,-384,0,0,0,0,0,0,0,0,0,-1,1644,1408,0,0
427,-384,0,0,0,0,0,0,0,0,0,-1,1651,1408,0,0
434,-384,0,0,0,0,0,0,0,0,0,-1,1658,1408,0,0
441,-384,0,0,0,0,0,0,0,0,0,-1,1665,1408,0,0
448,-384,0,0,0,0,0,0,0,0,0,-1,1672,1408,0,0
455,-384,0,0,0,0,0,0,0,0,0,-1,1679,1408,0,0
462,-384,0,0,0,0,0,0,0,0,0,-1,1686,1408,0,0
469,-384,0,0,0,0,0,0,0,0,0,-1,1693,1408,0,0
476,-384,0,0,0,0,0,0,0,0,0,-1,1700,1408,0,0
483,-384,0,0,0,0,0,0,0,0,0,-1,1707,1408,0,0
490,-384,0,0,0,0,0,0,0,0,0,-1,1714,1408,0,0
497,-384,0,0,0,0,0,0,0,0,0,-1,1721,1408,0,0
504,-384,0,0,0,0,0,0,0,0,0,-1,1728,1408,0,0
511,-384,0,0,0,0,0,0,0,0,0,-1,1735,1408,0,0
518,-384,0,0,0,0,0,0,0,0,0,-1,1742,1408,0,0
525,-384,0,0,0,0,0,0,0,0,0,-1,1749,1408,0,0
532,-384,0,0,0,0,0,0,0,0,0,-1,1756,1408,0,0
539,-384,27.6886,2.85803,0,0,0,0,0,0,0,-1,1763,1408,27.6886,-2.85807
546,-384,27.5044,2.9425,0,0,0,0,0,0,0,-1,1770,1408,27.5044,-2.94255
553,-384,27.3052,2.78394,0,0,0,0,0,0,0,-1,1777,1408,27.3051,-2.78394
560,-384,26.833,3.19812,0,0,0,0,0,0,0,-1,1784,1408,26.833,-3.19816
567,-384,38.2566,0.109985,0,0,0,0,0,0,0,-1,1791,1408,38.2566,-0.110044
574,-384,38.4003,2.05945,0,0,0,0,0,0,0,-1,1798,1408,38.4003,-2.05949
581,-384,25.819,3.91846,0,0,0,0,0,0,0,-1,1805,1408,25.8189,-3.91848
588,-384,23.3721,4.25439,0,0,0,0,0,0,0,-1,1812,1408,23.3721,-4.25442
595,-384,24.981,5.59595,0,0,0,0,0,0,0,-1,1819,1408,24.981,-5.59598
602,-384,20.6605,4.17261,0,0,0,0,0,0,0,-1,1826,1408,20.6606,-4.17265
609,-384,14.158,5.49475,0,0,0,0,0,0,0,-1,1833,1408,14.158,-5.49474
616,-384,14.7997,7.6908,0,0,0,0,0,0,0,-1,1840,1408,14.7996,-7.69079
623,-384,16.4293,9.58899,0,0,0,0,0,0,0,-1,1847,1408,16.4294,-9.58901
630,-384,25.0858,13.1682,0,0,0,0,0,0,0,-1,1854,1408,25.0858,-13.1683
637,-384,25.139,12.6744,0.000897102,0.000490944,-0.00103155,0.00174538,-0.00035733,-0.688207,0.00129918,0.0202816,1861,1408,25.139,-12.6744
644,-384,25.1145,12.2378,0.000701599,0.000393953,-0.00070933,0.00127359,-0.000178041,-0.678623,0.000914206,0.0167089,1868,1408,25.1145,-12.2378
651,-384,25.1014,11.755,0.000706824,0.000219853,-0.000401145,0.000932596,-5.91972e-06,-0.512632,0.000623713,0.0164302,1875,1408,25.1015,-11.755
658,-384,25.0941,11.2906,0.000849073,6.0467e-05,-0.000114186,0.000865274,4.42663e-05,-0.140939,0.000562674,0.0159992,1882,1408,25.0941,-11.2906
665,-384,25.097,10.8518,0.00110375,-0.000131415,0.000191594,0.00113279,-0.000160452,0.150408,0.000813965,0.0180277,1889,1408,25.0971,-10.8518
672,-384,25.0859,10.4017,0.00147132,-0.000365579,0.000508317,0.0016026,-0.000496861,0.252744,0.00126693,0.0159103,1896,1408,25.0859,-10.4017
679,-384,25.0621,9.98572,0.00195862,-0.000641794,0.000830855,0.00220142,-0.00088459,0.284308,0.00183498,0.0154949,1903,1408,25.0622,-9.98567
686,-384,25.0602,9.57886,0.00256653,-0.00107061,0.0012159,0.00293557,-0.00143964,0.29467,0.00257477,0.0129687,1910,1408,25.0602,-9.57891
693,-384,25.0922,9.13696,0.00341308,-0.00159117,0.00157893,0.00386961,-0.0020477,0.281463,0.00346992,0.0221085,1917,1408,25.0922,-9.13696
700,-384,25.1312,8.72034,0,0,0,0,0,0,0,-1,1924,1408,25.1313,-8.7203
707,-384,17.0566,6.62842,0,0,0,0,0,0,0,-1,1931,1408,17.0567,-6.62848
714,-384,16.038,5.0282,0,0,0,0,0,0,0,-1,1938,1408,16.038,-5.02819
721,-384,13.8843,2.8717,0,0,0,0,0,0,0,-1,1945,1408,13.8843,-2.87171
728,-384,15.4409,6.25745,0,0,0,0,0,0,0,-1,1952,1408,15.4409,-6.2574
735,-384,16.7598,6.71289,0,0,0,0,0,0,0,-1,1959,1408,16.7598,-6.71287
742,-384,0,0,0,0,0,0,0,0,0,-1,1966,1408,0,0
749,-384,0,0,0,0,0,0,0,0,0,-1,1973,1408,0,0
756,-384,0,0,0,0,0,0,0,0,0,-1,1980,1408,0,0
763,-384,0,0,0,0,0,0,0,0,0,-1,1987,1408,0,0
770,-384,0,0,0,0,0,0,0,0,0,-1,1994,1408,0,0
777,-384,0,0,0,0,0,0,0,0,0,-1,2001,1408,0,0
784,-384,0,0,0,0,0,0,0,0,0,-1,2008,1408,0,0
791,-384,0,0,0,0,0,0,0,0,0,-1,2015,1408,0,0
798,-384,0,0,0,0,0,0,0,0,0,-1,2022,1408,0,0
805,-384,0,0,0,0,0,0,0,0,0,-1,2029,1408,0,0
812,-384,0,0,0,0,0,0,0,0,0,-1,2036,1408,0,0
-700,-391,0,0,0,0,0,0,0,0,0,-1,524,1415,0,0
-693,-391,0,0,0,0,0,0,0,0,0,-1,531,1415,0,0
-686,-391,0,0,0,0,0,0,0,0,0,-1,538,1415,0,0
-679,-391,0,0,0,0,0,0,0,0,0,-1,545,1415,0,0
-672,-391,0,0,0,0,0,0,0,0,0,-1,552,1415,0,0
-665,-391,0,0,0,0,0,0,0,0,0,-1,559,1415,0,0
-658,-391,0,0,0,0,0,0,0,0,0,-1,566,1415,0,0
-651,-391,0,0,0,0,0,0,0,0,0,-1,573,1415,0,0
-644,-391,0,0,0,0,0,0,0,0,0,-1,580,1415,0,0
-637,-391,0,0,0,0,0,0,0,0,0,-1,587,1415,0,0
-630,-391,0,0,0,0,0,0,0,0,0,-1,594,1415,0,0
-623,-391,0,0,0,0,0,0,0,0,0,-1,601,1415,0,0
-616,-391,0,0,0,0,0,0,0,0,0,-1,608,1415,0,0
-609,-391,-7.71753,-3.69763,0,0,0,0,0,0,0,-1,615,1415,-7.71751,3.69759
-602,-391,-13.9493,-4.12805,0,0,0,0,0,0,0,-1,622,1415,-13.9493,4.12803
-595,-391,-10.8315,1.76172,0,0,0,0,0,0,0,-1,629,1415,-10.8315,-1.76171
-588,-391,-10.265,2.16431,0,0,0,0,0,0,0,-1,636,1415,-10.265,-2.16431
-581,-391,-10.071,3.51843,0,0,0,0,0,0,0,-1,643,1415,-10.071,-3.51848
-574,-391,-11.6477,6.33447,0,0,0,0,0,0,0,-1,650,1415,-11.6477,-6.33449
-567,-391,-11.2931,6.77979,0,0,0,0,0,0,0,-1,657,1415,-11.2931,-6.77982
-560,-391,-10.9384,7.2251,0,0,0,0,0,0,0,-1,664,1415,-10.9384,-7.22514
-553,-391,-11.0821,7.31189,0,0,0,0,0,0,0,-1,671,1415,-11.0821,-7.31193
-546,-391,-11.0439,7.953,-0.00276881,-0.00154462,-0.00213294,6.23204e-05,-0.00437575,-0.92513,0.00293816,0.014497,678,1415,-11.0439,-7.95296
-539,-391,-11.027,8.45422,-0.00133701,-0.000858135,-0.00122739,0.000152947,-0.0023481,-0.881729,0.00161879,0.0136126,685,1415,-11.027,-8.45419
-532,-391,-11.0328,8.94165,-7.19689e-05,-0.000271749,-0.000402491,0.000242842,-0.00058656,-0.663766,0.000492372,0.0252438,692,1415,-11.0328,-8.94171
-525,-391,-11.0266,9.44275,0.00116733,0.000329934,0.00045033,0.00136353,0.000133728,0.410892,0.000867885,0.0238722,699,1415,-11.0265,-9.44273
-518,-391,-11.0726,9.91724,0.00243208,0.00102296,0.00138725,0.00328343,0.000171598,0.550432,0.00213406,0.0146558,706,1415,-11.0726,-9.91727
-511,-391,-11.0941,10.4022,0.00383763,0.00191184,0.00250042,0.00555415,0.000195323,0.601602,0.0036394,0.0135781,713,1415,-11.0941,-10.4022
-504,-391,-11.11,10.8967,0.0053222,0.00291293,0.0037353,0.0080423,0.000192823,0.629413,0.00529843,0.012291,720,1415,-11.11,-10.8968
-497,-391,-11.1227,11.3789,0.00710274,0.00422222,0.00526172,0.0111178,0.000207208,0.651808,0.00734374,0.0135317,727,1415,-11.1228,-11.3789
-490,-391,-11.0579,11.9055,0.00945205,0.00606185,0.00730956,0.0152605,0.000253414,0.671461,0.0100902,0.0494793,734,1415,-11.0579,-11.9055
-483,-391,-10.9333,12.5166,0,0,0,0,0,0,0,-1,741,1415,-10.9333,-12.5166
-476,-391,-6.05731,6.85303,0,0,0,0,0,0,0,-1,748,1415,-6.05728,-6.85304
-469,-391,-3.88953,5.0979,0,0,0,0,0,0,0,-1,755,1415,-3.88955,-5.09794
-462,-391,-8.67688,2.03125,0,0,0,0,0,0,0,-1,762,1415,-8.67685,-2.03121
-455,-391,-8.65576,6.46997,0,0,0,0,0,0,0,-1,769,1415,-8.65579,-6.46999
-448,-391,-8.39618,4.38403,0,0,0,0,0,0,0,-1,776,1415,-8.39617,-4.38405
-441,-391,-9.77704,2.5946,0,0,0,0,0,0,0,-1,783,1415,-9.77702,-2.5946
-434,-391,-11.5403,2.12878,0,0,0,0,0,0,0,-1,790,1415,-11.5403,-2.12881
-427,-391,-10.5311,2.50403,0,0,0,0,0,0,0,-1,797,1415,-10.5311,-2.504
-420,-391,-14.7087,1.24365,0,0,0,0,0,0,0,-1,804,1415,-14.7088,-1.24365
-413,-391,0,0,0,0,0,0,0,0,0,-1,811,1415,0,0
-406,-391,0,0,0,0,0,0,0,0,0,-1,818,1415,0,0
-399,-391,0,0,0,0,0,0,0,0,0,-1,825,1415,0,0
-392,-391,0,0,0,0,0,0,0,0,0,-1,832,1415,0,0
-385,-391,0,0,0,0,0,0,0,0,0,-1,839,1415,0,0
-378,-391,0,0,0,0,0,0,0,0,0,-1,846,1415,0,0
-371,-391,0,0,0,0,0,0,0,0,0,-1,853,1415,0,0
-364,-391,0,0,0,0,0,0,0,0,0,-1,860,1415,0,0
-357,-391,0,0,0,0,0,0,0,0,0,-1,867,1415,0,0
-350,-391,0,0,0,0,0,0,0,0,0,-1,874,1415,0,0
-343,-391,0,0,0,0,0,0,0,0,0,-1,881,1415,0,0
-336,-391,0,0,0,0,0,0,0,0,0,-1,888,1415,0,0
-329,-391,0,0,0,0,0,0,0,0,0,-1,895,1415,0,0
-322,-391,0,0,0,0,0,0,0,0,0,-1,902,1415,0,0
-315,-391,0,0,0,0,0,0,0,0,0,-1,909,1415,0,0
-308,-391,0,0,0,0,0,0,0,0,0,-1,916,1415,0,0
-301,-391,0,0,0,0,0,0,0,0,0,-1,923,1415,0,0
-294,-391,0,0,0,0,0,0,0,0,0,-1,930,1415,0,0
-287,-391,0,0,0,0,0,0,0,0,0,-1,937,1415,0,0
-280,-391,0,0,0,0,0,0,0,0,0,-1,944,1415,0,0
-273,-391,0,0,0,0,0,0,0,0,0,-1,951,1415,0,0
-266,-391,0,0,0,0,0,0,0,0,0,-1,958,1415,0,0
-259,-391,0,0,0,0,0,0,0,0,0,-1,965,1415,0,0
-252,-391,0,0,0,0,0,0,0,0,0,-1,972,1415,0,0
-245,-391,0,0,0,0,0,0,0,0,0,-1,979,1415,0,0
-238,-391,0,0,0,0,0,0,0,0,0,-1,986,1415,0,0
-231,-391,0,0,0,0,0,0,0,0,0,-1,993,1415,0,0
-224,-391,0,0,0,0,0,0,0,0,0,-1,1000,1415,0,0
-217,-391,0,0,0,0,0,0,0,0,0,-1,1007,1415,0,0
-210,-391,0,0,0,0,0,0,0,0,0,-1,1014,1415,0,0
-203,-391,0,0,0,0,0,0,0,0,0,-1,1021,1415,0,0
-196,-391,0,0,0,0,0,0,0,0,0,-1,1028,1415,0,0
-189,-391,0,0,0,0,0,0,0,0,0,-1,1035,1415,0,0
-182,-391,0,0,0,0,0,0,0,0,0,-1,1042,1415,0,0
-175,-391,0,0,0,0,0,0,0,0,0,-1,1049,1415,0,0
-168,-391,0,0,0,0,0,0,0,0,0,-1,1056,1415,0,0
-161,-391,0,0,0,0,0,0,0,0,0,-1,1063,1415,0,0
-154,-391,0,0,0,0,0,0,0,0,0,-1,1070,1415,0,0
-147,-391,0,0,0,0,0,0,0,0,0,-1,1077,1415,0,0
-140,-391,0,0,0,0,0,0,0,0,0,-1,1084,1415,0,0
-133,-391,0,0,0,0,0,0,0,0,0,-1,1091,1415,0,0
-126,-391,0,0,0,0,0,0,0,0,0,-1,1098,1415,0,0
-119,-391,0,0,0,0,0,0,0,0,0,-1,1105,1415,0,0
-112,-391,0,0,0,0,0,0,0,0,0,-1,1112,1415,0,0
-105,-391,0,0,0,0,0,0,0,0,0,-1,1119,1415,0,0
-98,-391,0,0,0,0,0,0,0,0,0,-1,1126,1415,0,0
-91,-391,0,0,0,0,0,0,0,0,0,-1,1133,1415,0,0
-84,-391,0,0,0,0,0,0,0,0,0,-1,1140,1415,0,0
-77,-391,0,0,0,0,0,0,0,0,0,-1,1147,1415,0,0
-70,-391,0,0,0,0,0,0,0,0,0,-1,1154,1415,0,0
-63,-391,0,0,0,0,0,0,0,0,0,-1,1161,1415,0,0
-56,-391,0,0,0,0,0,0,0,0,0,-1,1168,1415,0,0
-49,-391,0,0,0,0,0,0,0,0,0,-1,1175,1415,0,0
-42,-391,0,0,0,0,0,0,0,0,0,-1,1182,1415,0,0
-35,-391,0,0,0,0,0,0,0,0,0,-1,1189,1415,0,0
-28,-391,0,0,0,0,0,0,0,0,0,-1,1196,1415,0,0
-21,-391,0,0,0,0,0,0,0,0,0,-1,1203,1415,0,0
-14,-391,0,0,0,0,0,0,0,0,0,-1,1210,1415,0,0
-7,-391,0,0,0,0,0,0,0,0,0,-1,1217,1415,0,0
0,-391,0,0,0,0,0,0,0,0,0,-1,1224,1415,0,0
7,-391,0,0,0,0,0,0,0,0,0,-1,1231,1415,0,0
14,-391,0,0,0,0,0,0,0,0,0,-1,1238,1415,0,0
21,-391,0,0,0,0,0,0,0,0,0,-1,1245,1415,0,0
28,-391,0,0,0,0,0,0,0,0,0,-1,1252,1415,0,0
35,-391,0,0,0,0,0,0,0,0,0,-1,1259,1415,0,0
42,-391,0,0,0,0,0,0,0,0,0,-1,1266,1415,0,0
49,-391,0,0,0,0,0,0,0,0,0,-1,1273,1415,0,0
56,-391,0,0,0,0,0,0,0,0,0,-1,1280,1415,0,0
63,-391,0,0,0,0,0,0,0,0,0,-1,1287,1415,0,0
70,-391,0,0,0,0,0,0,0,0,0,-1,1294,1415,0,0
77,-391,0,0,0,0,0,0,0,0,0,-1,1301,1415,0,0
84,-391,0,0,0,0,0,0,0,0,0,-1,1308,1415,0,0
91,-391,0,0,0,0,0,0,0,0,0,-1,1315,1415,0,0
98,-391,0,0,0,0,0,0,0,0,0,-1,1322,1415,0,0
105,-391,0,0,0,0,0,0,0,0,0,-1,1329,1415,0,0
112,-391,0,0,0,0,0,0,0,0,0,-1,1336,1415,0,0
119,-391,0,0,0,0,0,0,0,0,0,-1,1343,1415,0,0
126,-391,0,0,0,0,0,0,0,0,0,-1,1350,1415,0,0
133,-391,0,0,0,0,0,0,0,0,0,-1,1357,1415,0,0
140,-391,0,0,0,0,0,0,0,0,0,-1,1364,1415,0,0
147,-391,0,0,0,0,0,0,0,0,0,-1,1371,1415,0,0
154,-391,0,0,0,0,0,0,0,0,0,-1,1378,1415,0,0
161,-391,0,0,0,0,0,0,0,0,0,-1,1385,1415,0,0
168,-391,0,0,0,0,0,0,0,0,0,-1,1392,1415,0,0
175,-391,0,0,0,0,0,0,0,0,0,-1,1399,1415,0,0
182,-391,0,0,0,0,0,0,0,0,0,-1,1406,1415,0,0
189,-391,0,0,0,0,0,0,0,0,0,-1,1413,1415,0,0
196,-391,0,0,0,0,0,0,0,0,0,-1,1420,1415,0,0
203,-391,0,0,0,0,0,0,0,0,0,-1,1427,1415,0,0
210,-391,0,0,0,0,0,0,0,0,0,-1,1434,1415,0,0
217,-391,0,0,0,0,0,0,0,0,0,-1,1441,1415,0,0
224,-391,0,0,0,0,0,0,0,0,0,-1,1448,1415,0,0
231,-391,0,0,0,0,0,0,0,0,0,-1,1455,1415,0,0
238,-391,0,0,0,0,0,0,0,0,0,-1,1462,1415,0,0
245,-391,0,0,0,0,0,0,0,0,0,-1,1469,1415,0,0
252,-391,0,0,0,0,0,0,0,0,0,-1,1476,1415,0,0
259,-391,0,0,0,0,0,0,0,0,0,-1,1483,1415,0,0
266,-391,0,0,0,0,0,0,0,0,0,-1,1490,1415,0,0
273,-391,0,0,0,0,0,0,0,0,0,-1,1497,1415,0,0
280,-391,0,0,0,0,0,0,0,0,0,-1,1504,1415,0,0
287,-391,0,0,0,0,0,0,0,0,0,-1,1511,1415,0,0
294,-391,0,0,0,0,0,0,0,0,0,-1,1518,1415,0,0
301,-391,0,0,0,0,0,0,0,0,0,-1,1525,1415,0,0
308,-391,0,0,0,0,0,0,0,0,0,-1,1532,1415,0,0
315,-391,0,0,0,0,0,0,0,0,0,-1,1539,1415,0,0
322,-391,0,0,0,0,0,0,0,0,0,-1,1546,1415,0,0
329,-391,0,0,0,0,0,0,0,0,0,-1,1553,1415,0,0
336,-391,0,0,0,0,0,0,0,0,0,-1,1560,1415,0,0
343,-391,0,0,0,0,0,0,0,0,0,-1,1567,1415,0,0
350,-391,0,0,0,0,0,0,0,0,0,-1,1574,1415,0,0
357,-391,0,0,0,0,0,0,0,0,0,-1,1581,1415,0,0
364,-391,0,0,0,0,0,0,0,0,0,-1,1588,1415,0,0
371,-391,0,0,0,0,0,0,0,0,0,-1,1595,1415,0,0
378,-391,0,0,0,0,0,0,0,0,0,-1,1602,1415,0,0
385,-391,0,0,0,0,0,0,0,0,0,-1,1609,1415,0,0
392,-391,0,0,0,0,0,0,0,0,0,-1,1616,1415,0,0
399,-391,0,0,0,0,0,0,0,0,0,-1,1623,1415,0,0
406,-391,0,0,0,0,0,0,0,0,0,-1,1630,1415,0,0
413,-391,0,0,0,0,0,0,0,0,0,-1,1637,1415,0,0
420,-391,0,0,0,0,0,0,0,0,0,-1,1644,1415,0,0
427,-391,0,0,0,0,0,0,0,0,0,-1,1651,1415,0,0
434,-391,0,0,0,0,0,0,0,0,0,-1,1658,1415,0,0
441,-391,0,0,0,0,0,0,0,0,0,-1,1665,1415,0,0
448,-391,0,0,0,0,0,0,0,0,0,-1,1672,1415,0,0
455,-391,0,0,0,0,0,0,0,0,0,-1,1679,1415,0,0
462,-391,0,0,0,0,0,0,0,0,0,-1,1686,1415,0,0
469,-391,0,0,0,0,0,0,0,0,0,-1,1693,1415,0,0
476,-391,0,0,0,0,0,0,0,0,0,-1,1700,1415,0,0
483,-391,0,0,0,0,0,0,0,0,0,-1,1707,1415,0,0
490,-391,0,0,0,0,0,0,0,0,0,-1,1714,1415,0,0
497,-391,0,0,0,0,0,0,0,0,0,-1,1721,1415,0,0
504,-391,0,0,0,0,0,0,0,0,0,-1,1728,1415,0,0
511,-391,0,0,0,0,0,0,0,0,0,-1,1735,1415,0,0
518,-391,0,0,0,0,0,0,0,0,0,-1,1742,1415,0,0
525,-391,0,0,0,0,0,0,0,0,0,-1,1749,1415,0,0
532,-391,28.5959,3.02356,0,0,0,0,0,0,0,-1,1756,1415,28.596,-3.02358
539,-391,27.5881,3.25012,0,0,0,0,0,0,0,-1,1763,1415,27.5882,-3.25016
546,-391,27.2837,3.28064,0,0,0,0,0,0,0,-1,1770,1415,27.2837,-3.28064
553,-391,32.5952,5.04553,0,0,0,0,0,0,0,-1,1777,1415,32.5952,-5.04551
560,-391,31.2947,5.67017,0,0,0,0,0,0,0,-1,1784,1415,31.2947,-5.67011
567,-391,30.1473,6.17603,0,0,0,0,0,0,0,-1,1791,1415,30.1473,-6.17602
574,-391,27.5656,5.6842,0,0,0,0,0,0,0,-1,1798,1415,27.5655,-5.68422
581,-391,25.8883,5.76123,0,0,0,0,0,0,0,-1,1805,1415,25.8883,-5.76124
588,-391,24.2717,5.47986,0,0,0,0,0,0,0,-1,1812,1415,24.2717,-5.47982
595,-391,22.8827,6.1991,0,0,0,0,0,0,0,-1,1819,1415,22.8827,-6.19909
602,-391,15.1635,5.69849,0,0,0,0,0,0,0,-1,1826,1415,15.1635,-5.69847
609,-391,14.8285,7.50476,0,0,0,0,0,0,0,-1,1833,1415,14.8285,-7.50479
616,-391,20.7952,12.0503,0,0,0,0,0,0,0,-1,1840,1415,20.7952,-12.0503
623,-391,24.5992,13.5649,0,0,0,0,0,0,0,-1,1847,1415,24.5993,-13.565
630,-391,24.733,13.0518,0.00135249,0.000819335,-0.00112134,0.0022385,-6.66744e-05,-0.668698,0.00151505,0.035247,1854,1415,24.733,-13.0518
637,-391,24.6763,12.6672,0.00105489,0.000435344,-0.000830217,0.00163124,-0.000141008,-0.606836,0.00113742,0.017025,1861,1415,24.6763,-12.6672
644,-391,24.6609,12.2308,0.000794518,0.000271058,-0.000521408,0.0011162,-5.06233e-05,-0.552788,0.000761569,0.0169704,1868,1415,24.6608,-12.2309
651,-391,24.6594,11.7999,0.00072694,8.8136e-05,-0.000230165,0.00080123,1.38455e-05,-0.312214,0.000529599,0.0181259,1875,1415,24.6594,-11.7999
658,-391,24.6342,11.3329,0.000783955,-4.98999e-05,3.30214e-05,0.000785261,-5.12055e-05,0.0395185,0.000541383,0.0190347,1882,1415,24.6341,-11.3328
665,-391,24.6522,10.8918,0.000964876,-0.000220765,0.000332006,0.00105151,-0.000307403,0.255261,0.000822845,0.0149092,1889,1415,24.6522,-10.8919
672,-391,24.6281,10.4482,0.00126274,-0.000418685,0.000652785,0.00148642,-0.000642363,0.330113,0.00126084,0.0123375,1896,1415,24.628,-10.4483
679,-391,24.6034,9.99023,0.00168161,-0.000694216,0.00101406,0.00205557,-0.00106818,0.353305,0.00183328,0.0119271,1903,1415,24.6034,-9.99018
686,-391,24.6178,9.55579,0.00220731,-0.00117484,0.00149799,0.00277537,-0.00174291,0.362462,0.00263123,0.0138667,1910,1415,24.6178,-9.5558
693,-391,24.6547,9.29285,0.00297853,-0.00178344,0.00200973,0.00371332,-0.00251823,0.350522,0.00361978,0.0342203,1917,1415,24.6547,-9.29282
700,-391,24.7606,9.05762,0,0,0,0,0,0,0,-1,1924,1415,24.7607,-9.05764
707,-391,12.9524,5.96851,0,0,0,0,0,0,0,-1,1931,1415,12.9524,-5.96849
714,-391,15.6875,7.67896,0,0,0,0,0,0,0,-1,1938,1415,15.6875,-7.67893
721,-391,14.1808,8.08435,0,0,0,0,0,0,0,-1,1945,1415,14.1808,-8.08439
728,-391,13.8102,7.28174,0,0,0,0,0,0,0,-1,1952,1415,13.8102,-7.28174
735,-391,0,0,0,0,0,0,0,0,0,-1,1959,1415,0,0
742,-391,0,0,0,0,0,0,0,0,0,-1,1966,1415,0,0
749,-391,0,0,0,0,0,0,0,0,0,-1,1973,1415,0,0
756,-391,0,0,0,0,0,0,0,0,0,-1,1980,1415,0,0
763,-391,0,0,0,0,0,0,0,0,0,-1,1987,1415,0,0
770,-391,0,0,0,0,0,0,0,0,0,-1,1994,1415,0,0
777,-391,0,0,0,0,0,0,0,0,0,-1,2001,1415,0,0
784,-391,0,0,0,0,0,0,0,0,0,-1,2008,1415,0,0
791,-391,0,0,0,0,0,0,0,0,0,-1,2015,1415,0,0
798,-391,0,0,0,0,0,0,0,0,0,-1,2022,1415,0,0
805,-391,0,0,0,0,0,0,0,0,0,-1,2029,1415,0,0
812,-391,0,0,0,0,0,0,0,0,0,-1,2036,1415,0,0
-700,-398,0,0,0,0,0,0,0,0,0,-1,524,1422,0,0
-693,-398,0,0,0,0,0,0,0,0,0,-1,531,1422,0,0
-686,-398,0,0,0,0,0,0,0,0,0,-1,538,1422,0,0
-679,-398,0,0,0,0,0,0,0,0,0,-1,545,1422,0,0
-672,-398,0,0,0,0,0,0,0,0,0,-1,552,1422,0,0
-665,-398,0,0,0,0,0,0,0,0,0,-1,559,1422,0,0
-658,-398,0,0,0,0,0,0,0,0,0,-1,566,1422,0,0
-651,-398,0,0,0,0,0,0,0,0,0,-1,573,1422,0,0
-644,-398,0,0,0,0,0,0,0,0,0,-1,580,1422,0,0
-637,-398,0,0,0,0,0,0,0,0,0,-1,587,1422,0,0
-630,-398,0,0,0,0,0,0,0,0,0,-1,594,1422,0,0
-623,-398,0,0,0,0,0,0,0,0,0,-1,601,1422,0,0
-616,-398,0,0,0,0,0,0,0,0,0,-1,608,1422,0,0
-609,-398,-7.47125,-4.05322,0,0,0,0,0,0,0,-1,615,1422,-7.47128,4.05317
-602,-398,-4.58868,-2.77026,0,0,0,0,0,0,0,-1,622,1422,-4.58869,2.77023
-595,-398,-12.2224,-1.82007,0,0,0,0,0,0,0,-1,629,1422,-12.2224,1.82006
-588,-398,-10.6939,1.32336,0,0,0,0,0,0,0,-1,636,1422,-10.6939,-1.32337
-581,-398,-10.433,3.1123,0,0,0,0,0,0,0,-1,643,1422,-10.433,-3.11233
-574,-398,-11.4554,6.24683,0,0,0,0,0,0,0,-1,650,1422,-11.4554,-6.24677
-567,-398,-10.9205,6.81201,0,0,0,0,0,0,0,-1,657,1422,-10.9204,-6.81202
-560,-398,-10.3855,7.37732,0,0,0,0,0,0,0,-1,664,1422,-10.3855,-7.37728
-553,-398,-10.627,7.34753,0,0,0,0,0,0,0,-1,671,1422,-10.627,-7.3475
-546,-398,-10.594,7.95239,-0.00361397,-0.00151509,-0.00240212,5.68209e-05,-0.00518588,-0.991343,0.00347635,0.0249175,678,1422,-10.594,-7.95238
-539,-398,-10.5361,8.4906,-0.00212822,-0.000859634,-0.00150763,0.000141698,-0.00312955,-0.984519,0.00213517,0.0120345,685,1422,-10.5361,-8.49059
-532,-398,-10.5409,8.98169,-0.000887545,-0.000329274,-0.000738418,0.000181006,-0.00139783,-0.966105,0.000997707,0.0201597,692,1422,-10.5409,-8.98167
-525,-398,-10.5408,9.45752,0.000291262,0.000207444,3.36881e-05,0.000303123,0.000195582,0.338539,0.000177452,0.0193821,699,1422,-10.5408,-9.45749
-518,-398,-10.559,9.92529,0.00148399,0.000848911,0.000888063,0.00210958,0.000223325,0.613699,0.00133817,0.01721,706,1422,-10.559,-9.92527
-511,-398,-10.5892,10.3883,0.00282252,0.00170943,0.00193206,0.0042766,0.000255354,0.645165,0.00276987,0.0137203,713,1422,-10.5892,-10.3883
-504,-398,-10.6167,10.8966,0.00419973,0.00267651,0.00308095,0.00661182,0.00026443,0.664228,0.00432243,0.0143115,720,1422,-10.6167,-10.8966
-497,-398,-10.636,11.3752,0.00583005,0.00394753,0.0045121,0.00949802,0.000279564,0.682568,0.00624091,0.0103342,727,1422,-10.636,-11.3752
-490,-398,-10.6396,11.8671,0.00789364,0.00566158,0.00636391,0.0132386,0.000316577,0.698596,0.00872215,0.0170731,734,1422,-10.6396,-11.8671
-483,-398,-10.6137,12.3922,0,0,0,0,0,0,0,-1,741,1422,-10.6137,-12.3922
-476,-398,-8.64392,11.9448,0,0,0,0,0,0,0,-1,748,1422,-8.6439,-11.9448
-469,-398,-8.91699,10.6276,0,0,0,0,0,0,0,-1,755,1422,-8.91697,-10.6275
-462,-398,-9.59753,9.32532,0,0,0,0,0,0,0,-1,762,1422,-9.59753,-9.32531
-455,-398,-8.08331,6.75024,0,0,0,0,0,0,0,-1,769,1422,-8.08333,-6.75022
-448,-398,-7.4505,5.25293,0,0,0,0,0,0,0,-1,776,1422,-7.4505,-5.25291
-441,-398,-7.61639,3.32141,0,0,0,0,0,0,0,-1,783,1422,-7.61637,-3.32145
-434,-398,-10.7618,3.297,0,0,0,0,0,0,0,-1,790,1422,-10.7618,-3.29704
-427,-398,-11.9061,2.24939,0,0,0,0,0,0,0,-1,797,1422,-11.9061,-2.24941
-420,-398,-13.467,2.32788,0,0,0,0,0,0,0,-1,804,1422,-13.467,-2.32787
-413,-398,-14.7983,2.15515,0,0,0,0,0,0,0,-1,811,1422,-14.7983,-2.15516
-406,-398,0,0,0,0,0,0,0,0,0,-1,818,1422,0,0
-399,-398,0,0,0,0,0,0,0,0,0,-1,825,1422,0,0
-392,-398,0,0,0,0,0,0,0,0,0,-1,832,1422,0,0
-385,-398,0,0,0,0,0,0,0,0,0,-1,839,1422,0,0
-378,-398,0,0,0,0,0,0,0,0,0,-1,846,1422,0,0
-371,-398,0,0,0,0,0,0,0,0,0,-1,853,1422,0,0
-364,-398,0,0,0,0,0,0,0,0,0,-1,860,1422,0,0
-357,-398,0,0,0,0,0,0,0,0,0,-1,867,1422,0,0
-350,-398,0,0,0,0,0,0,0,0,0,-1,874,1422,0,0
-343,-398,0,0,0,0,0,0,0,0,0,-1,881,1422,0,0
-336,-398,0,0,0,0,0,0,0,0,0,-1,888,1422,0,0
-329,-398,0,0,0,0,0,0,0,0,0,-1,895,1422,0,0
-322,-398,0,0,0,0,0,0,0,0,0,-1,902,1422,0,0
-315,-398,0,0,0,0,0,0,0,0,0,-1,909,1422,0,0
-308,-398,0,0,0,0,0,0,0,0,0,-1,916,1422,0,0
-301,-398,0,0,0,0,0,0,0,0,0,-1,923,1422,0,0
-294,-398,0,0,0,0,0,0,0,0,0,-1,930,1422,0,0
-287,-398,0,0,0,0,0,0,0,0,0,-1,937,1422,0,0
-280,-398,0,0,0,0,0,0,0,0,0,-1,944,1422,0,0
-273,-398,0,0,0,0,0,0,0,0,0,-1,951,1422,0,0
-266,-398,0,0,0,0,0,0,0,0,0,-1,958,1422,0,0
-259,-398,0,0,0,0,0,0,0,0,0,-1,965,1422,0,0
-252,-398,0,0,0,0,0,0,0,0,0,-1,972,1422,0,0
-245,-398,0,0,0,0,0,0,0,0,0,-1,979,1422,0,0
-238,-398,0,0,0,0,0,0,0,0,0,-1,986,1422,0,0
-231,-398,0,0,0,0,0,0,0,0,0,-1,993,1422,0,0
-224,-398,0,0,0,0,0,0,0,0,0,-1,1000,1422,0,0
-217,-398,0,0,0,0,0,0,0,0,0,-1,1007,1422,0,0
-210,-398,0,0,0,0,0,0,0,0,0,-1,1014,1422,0,0
-203,-398,0,0,0,0,0,0,0,0,0,-1,1021,1422,0,0
-196,-398,0,0,0,0,0,0,0,0,0,-1,1028,1422,0,0
-189,-398,0,0,0,0,0,0,0,0,0,-1,1035,1422,0,0
-182,-398,0,0,0,0,0,0,0,0,0,-1,1042,1422,0,0
-175,-398,0,0,0,0,0,0,0,0,0,-1,1049,1422,0,0
-168,-398,0,0,0,0,0,0,0,0,0,-1,1056,1422,0,0
-161,-398,0,0,0,0,0,0,0,0,0,-1,1063,1422,0,0
-154,-398,0,0,0,0,0,0,0,0,0,-1,1070,1422,0,0
-147,-398,0,0,0,0,0,0,0,0,0,-1,1077,1422,0,0
-140,-398,0,0,0,0,0,0,0,0,0,-1,1084,1422,0,0
-133,-398,0,0,0,0,0,0,0,0,0,-1,1091,1422,0,0
-126,-398,0,0,0,0,0,0,0,0,0,-1,1098,1422,0,0
-119,-398,0,0,0,0,0,0,0,0,0,-1,1105,1422,0,0
-112,-398,0,0,0,0,0,0,0,0,0,-1,1112,1422,0,0
-105,-398,0,0,0,0,0,0,0,0,0,-1,1119,1422,0,0
-98,-398,0,0,0,0,0,0,0,0,0,-1,1126,1422,0,0
-91,-398,0,0,0,0,0,0,0,0,0,-1,1133,1422,0,0
-84,-398,0,0,0,0,0,0,0,0,0,-1,1140,1422,0,0
-77,-398,0,0,0,0,0,0,0,0,0,-1,1147,1422,0,0
-70,-398,0,0,0,0,0,0,0,0,0,-1,1154,1422,0,0
-63,-398,0,0,0,0,0,0,0,0,0,-1,1161,1422,0,0
-56,-398,0,0,0,0,0,0,0,0,0,-1,1168,1422,0,0
-49,-398,0,0,0,0,0,0,0,0,0,-1,1175,1422,0,0
-42,-398,0,0,0,0,0,0,0,0,0,-1,1182,1422,0,0
-35,-398,0,0,0,0,0,0,0,0,0,-1,1189,1422,0,0
-28,-398,0,0,0,0,0,0,0,0,0,-1,1196,1422,0,0
-21,-398,0,0,0,0,0,0,0,0,0,-1,1203,1422,0,0
-14,-398,0,0,0,0,0,0,0,0,0,-1,1210,1422,0,0
-7,-398,0,0,0,0,0,0,0,0,0,-1,1217,1422,0,0
0,-398,0,0,0,0,0,0,0,0,0,-1,1224,1422,0,0
7,-398,0,0,0,0,0,0,0,0,0,-1,1231,1422,0,0
14,-398,0,0,0,0,0,0,0,0,0,-1,1238,1422,0,0
21,-398,0,0,0,0,0,0,0,0,0,-1,1245,1422,0,0
28,-398,0,0,0,0,0,0,0,0,0,-1,1252,1422,0,0
35,-398,0,0,0,0,0,0,0,0,0,-1,1259,1422,0,0
42,-398,0,0,0,0,0,0,0,0,0,-1,1266,1422,0,0
49,-398,0,0,0,0,0,0,0,0,0,-1,1273,1422,0,0
56,-398,0,0,0,0,0,0,0,0,0,-1,1280,1422,0,0
63,-398,0,0,0,0,0,0,0,0,0,-1,1287,1422,0,0
70,-398,0,0,0,0,0,0,0,0,0,-1,1294,1422,0,0
77,-398,0,0,0,0,0,0,0,0,0,-1,1301,1422,0,0
84,-398,0,0,0,0,0,0,0,0,0,-1,1308,1422,0,0
91,-398,0,0,0,0,0,0,0,0,0,-1,1315,1422,0,0
98,-398,0,0,0,0,0,0,0,0,0,-1,1322,1422,0,0
105,-398,0,0,0,0,0,0,0,0,0,-1,1329,1422,0,0
112,-398,0,0,0,0,0,0,0,0,0,-1,1336,1422,0,0
119,-398,0,0,0,0,0,0,0,0,0,-1,1343,1422,0,0
126,-398,0,0,0,0,0,0,0,0,0,-1,1350,1422,0,0
133,-398,0,0,0,0,0,0,0,0,0,-1,1357,1422,0,0
140,-398,0,0,0,0,0,0,0,0,0,-1,1364,1422,0,0
147,-398,0,0,0,0,0,0,0,0,0,-1,1371,1422,0,0
154,-398,0,0,0,0,0,0,0,0,0,-1,1378,1422,0,0
161,-398,0,0,0,0,0,0,0,0,0,-1,1385,1422,0,0
168,-398,0,0,0,0,0,0,0,0,0,-1,1392,1422,0,0
175,-398,0,0,0,0,0,0,0,0,0,-1,1399,1422,0,0
182,-398,0,0,0,0,0,0,0,0,0,-1,1406,1422,0,0
189,-398,0,0,0,0,0,0,0,0,0,-1,1413,1422,0,0
196,-398,0,0,0,0,0,0,0,0,0,-1,1420,1422,0,0
203,-398,0,0,0,0,0,0,0,0,0,-1,1427,1422,0,0
210,-398,0,0,0,0,0,0,0,0,0,-1,1434,1422,0,0
217,-398,0,0,0,0,0,0,0,0,0,-1,1441,1422,0,0
224,-398,0,0,0,0,0,0,0,0,0,-1,1448,1422,0,0
231,-398,0,0,0,0,0,0,0,0,0,-1,1455,1422,0,0
238,-398,0,0,0,0,0,0,0,0,0,-1,1462,1422,0,0
245,-398,0,0,0,0,0,0,0,0,0,-1,1469,1422,0,0
252,-398,0,0,0,0,0,0,0,0,0,-1,1476,1422,0,0
259,-398,0,0,0,0,0,0,0,0,0,-1,1483,1422,0,0
266,-398,0,0,0,0,0,0,0,0,0,-1,1490,1422,0,0
273,-398,0,0,0,0,0,0,0,0,0,-1,1497,1422,0,0
280,-398,0,0,0,0,0,0,0,0,0,-1,1504,1422,0,0
287,-398,0,0,0,0,0,0,0,0,0,-1,1511,1422,0,0
294,-398,0,0,0,0,0,0,0,0,0,-1,1518,1422,0,0
301,-398,0,0,0,0,0,0,0,0,0,-1,1525,1422,0,0
308,-398,0,0,0,0,0,0,0,0,0,-1,1532,1422,0,0
315,-398,0,0,0,0,0,0,0,0,0,-1,1539,1422,0,0
322,-398,0,0,0,0,0,0,0,0,0,-1,1546,1422,0,0
329,-398,0,0,0,0,0,0,0,0,0,-1,1553,1422,0,0
336,-398,0,0,0,0,0,0,0,0,0,-1,1560,1422,0,0
343,-398,0,0,0,0,0,0,0,0,0,-1,1567,1422,0,0
350,-398,0,0,0,0,0,0,0,0,0,-1,1574,1422,0,0
357,-398,0,0,0,0,0,0,0,0,0,-1,1581,1422,0,0
364,-398,0,0,0,0,0,0,0,0,0,-1,1588,1422,0,0
371,-398,0,0,0,0,0,0,0,0,0,-1,1595,1422,0,0
378,-398,0,0,0,0,0,0,0,0,0,-1,1602,1422,0,0
385,-398,0,0,0,0,0,0,0,0,0,-1,1609,1422,0,0
392,-398,0,0,0,0,0,0,0,0,0,-1,1616,1422,0,0
399,-398,0,0,0,0,0,0,0,0,0,-1,1623,1422,0,0
406,-398,0,0,0,0,0,0,0,0,0,-1,1630,1422,0,0
413,-398,0,0,0,0,0,0,0,0,0,-1,1637,1422,0,0
420,-398,0,0,0,0,0,0,0,0,0,-1,1644,1422,0,0
427,-398,0,0,0,0,0,0,0,0,0,-1,1651,1422,0,0
434,-398,0,0,0,0,0,0,0,0,0,-1,1658,1422,0,0
441,-398,0,0,0,0,0,0,0,0,0,-1,1665,1422,0,0
448,-398,0,0,0,0,0,0,0,0,0,-1,1672,1422,0,0
455,-398,0,0,0,0,0,0,0,0,0,-1,1679,1422,0,0
462,-398,0,0,0,0,0,0,0,0,0,-1,1686,1422,0,0
469,-398,0,0,0,0,0,0,0,0,0,-1,1693,1422,0,0
476,-398,0,0,0,0,0,0,0,0,0,-1,1700,1422,0,0
483,-398,0,0,0,0,0,0,0,0,0,-1,1707,1422,0,0
490,-398,0,0,0,0,0,0,0,0,0,-1,1714,1422,0,0
497,-398,0,0,0,0,0,0,0,0,0,-1,1721,1422,0,0
504,-398,0,0,0,0,0,0,0,0,0,-1,1728,1422,0,0
511,-398,0,0,0,0,0,0,0,0,0,-1,1735,1422,0,0
518,-398,0,0,0,0,0,0,0,0,0,-1,1742,1422,0,0
525,-398,0,0,0,0,0,0,0,0,0,-1,1749,1422,0,0
532,-398,28.4558,3.84094,0,0,0,0,0,0,0,-1,1756,1422,28.4558,-3.8409
539,-398,27.0594,3.33887,0,0,0,0,0,0,0,-1,1763,1422,27.0595,-3.3389
546,-398,31.6873,5.58582,0,0,0,0,0,0,0,-1,1770,1422,31.6872,-5.58585
553,-398,30.4392,5.92383,0,0,0,0,0,0,0,-1,1777,1422,30.4392,-5.92386
560,-398,29.1621,6.30469,0,0,0,0,0,0,0,-1,1784,1422,29.1621,-6.30469
567,-398,27.8411,6.55029,0,0,0,0,0,0,0,-1,1791,1422,27.8411,-6.55033
574,-398,26.411,6.8916,0,0,0,0,0,0,0,-1,1798,1422,26.411,-6.8916
581,-398,24.75,7.11145,0,0,0,0,0,0,0,-1,1805,1422,24.7499,-7.11142
588,-398,23.1649,7.67969,0,0,0,0,0,0,0,-1,1812,1422,23.1649,-7.67975
595,-398,21.4253,7.86023,0,0,0,0,0,0,0,-1,1819,1422,21.4253,-7.86029
602,-398,19.6857,8.04077,0,0,0,0,0,0,0,-1,1826,1422,19.6856,-8.04083
609,-398,21.1835,13.2628,0,0,0,0,0,0,0,-1,1833,1422,21.1835,-13.2628
616,-398,23.9712,14.3508,0,0,0,0,0,0,0,-1,1840,1422,23.9712,-14.3508
623,-398,24.2485,13.5868,0.00205804,0.00119247,-0.00139066,0.0030817,0.000168811,-0.634544,0.00200057,0.0290341,1847,1422,24.2486,-13.5867
630,-398,24.2656,13.1206,0.00150668,0.000686596,-0.000930341,0.00211333,7.99429e-05,-0.577833,0.00138301,0.0130165,1854,1422,24.2656,-13.1206
637,-398,24.2476,12.6891,0.0011417,0.000296279,-0.000625127,0.00147362,-3.56418e-05,-0.488111,0.000994508,0.0141933,1861,1422,24.2476,-12.689
644,-398,24.1912,12.2413,0.000877357,0.000112907,-0.000358177,0.00101895,-2.86874e-05,-0.376465,0.000689063,0.0208002,1868,1422,24.1911,-12.2414
651,-398,24.1833,11.8269,0.000777022,-3.72784e-05,-0.000120458,0.000794468,-5.47238e-05,-0.143825,0.000548797,0.0293235,1875,1422,24.1834,-11.827
658,-398,24.2015,11.3986,0.000776399,-0.000116343,8.86138e-05,0.00078511,-0.000125054,0.0979862,0.000569685,0.0253859,1882,1422,24.2016,-11.3985
665,-398,24.2006,10.9219,0.000890581,-0.000211769,0.000340295,0.000987167,-0.000308355,0.276557,0.000781446,0.0160494,1889,1422,24.2006,-10.9219
672,-398,24.1802,10.475,0.00110389,-0.000308837,0.000626821,0.0013419,-0.000546854,0.362903,0.00112222,0.0124958,1896,1422,24.1801,-10.475
679,-398,24.1476,10.0171,0.00141973,-0.000516131,0.000994547,0.00183961,-0.00093601,0.39948,0.00163056,0.0121081,1903,1422,24.1476,-10.0171
686,-398,24.157,9.56641,0.00179956,-0.000967537,0.00155478,0.00249725,-0.00166523,0.421805,0.00241916,0.0198438,1910,1422,24.157,-9.56643
693,-398,24.1688,9.14697,0,0,0,0,0,0,0,-1,1917,1422,24.1688,-9.14703
700,-398,23.662,9.57727,0,0,0,0,0,0,0,-1,1924,1422,23.662,-9.57733
707,-398,10.9731,5.479,0,0,0,0,0,0,0,-1,1931,1422,10.9732,-5.47896
714,-398,11.7313,6.17346,0,0,0,0,0,0,0,-1,1938,1422,11.7313,-6.17348
721,-398,13.9371,8.05103,0,0,0,0,0,0,0,-1,1945,1422,13.9372,-8.05102
728,-398,14.786,7.0282,0,0,0,0,0,0,0,-1,1952,1422,14.786,-7.0282
735,-398,0,0,0,0,0,0,0,0,0,-1,1959,1422,0,0
742,-398,0,0,0,0,0,0,0,0,0,-1,1966,1422,0,0
749,-398,0,0,0,0,0,0,0,0,0,-1,1973,1422,0,0
756,-398,0,0,0,0,0,0,0,0,0,-1,1980,1422,0,0
763,-398,0,0,0,0,0,0,0,0,0,-1,1987,1422,0,0
770,-398,0,0,0,0,0,0,0,0,0,-1,1994,1422,0,0
777,-398,0,0,0,0,0,0,0,0,0,-1,2001,1422,0,0
784,-398,0,0,0,0,0,0,0,0,0,-1,2008,1422,0,0
791,-398,0,0,0,0,0,0,0,0,0,-1,2015,1422,0,0
798,-398,0,0,0,0,0,0,0,0,0,-1,2022,1422,0,0
805,-398,0,0,0,0,0,0,0,0,0,-1,2029,1422,0,0
812,-398,0,0,0,0,0,0,0,0,0,-1,2036,1422,0,0
-700,-405,0,0,0,0,0,0,0,0,0,-1,524,1429,0,0
-693,-405,0,0,0,0,0,0,0,0,0,-1,531,1429,0,0
-686,-405,0,0,0,0,0,0,0,0,0,-1,538,1429,0,0
-679,-405,0,0,0,0,0,0,0,0,0,-1,545,1429,0,0
-672,-405,0,0,0,0,0,0,0,0,0,-1,552,1429,0,0
-665,-405,0,0,0,0,0,0,0,0,0,-1,559,1429,0,0
-658,-405,0,0,0,0,0,0,0,0,0,-1,566,1429,0,0
-651,-405,0,0,0,0,0,0,0,0,0,-1,573,1429,0,0
-644,-405,0,0,0,0,0,0,0,0,0,-1,580,1429,0,0
-637,-405,0,0,0,0,0,0,0,0,0,-1,587,1429,0,0
-630,-405,0,0,0,0,0,0,0,0,0,-1,594,1429,0,0
-623,-405,0,0,0,0,0,0,0,0,0,-1,601,1429,0,0
-616,-405,0,0,0,0,0,0,0,0,0,-1,608,1429,0,0
-609,-405,0,0,0,0,0,0,0,0,0,-1,615,1429,0,0
-602,-405,-5.80988,-3.46594,0,0,0,0,0,0,0,-1,622,1429,-5.80987,3.46592
-595,-405,-9.35413,2.01477,0,0,0,0,0,0,0,-1,629,1429,-9.35411,-2.01476
-588,-405,-7.35693,0.507202,0,0,0,0,0,0,0,-1,636,1429,-7.35696,-0.507187
-581,-405,-10.1284,1.62927,0,0,0,0,0,0,0,-1,643,1429,-10.1284,-1.62922
-574,-405,-9.32074,3.05896,0,0,0,0,0,0,0,-1,650,1429,-9.32077,-3.0589
-567,-405,-10.358,6.85962,0,0,0,0,0,0,0,-1,657,1429,-10.358,-6.85962
-560,-405,-9.28674,7.20886,0,0,0,0,0,0,0,-1,664,1429,-9.28675,-7.20885
-553,-405,-10.1167,7.43286,0,0,0,0,0,0,0,-1,671,1429,-10.1167,-7.43282
-546,-405,-10.1021,7.94519,-0.00441441,-0.00131681,-0.00255035,0.000118191,-0.00584941,-1.05828,0.00393959,0.0393565,678,1429,-10.1021,-7.94518
-539,-405,-10.0874,8.45837,-0.00282951,-0.000711242,-0.00164392,0.000185191,-0.00372595,-1.07157,0.00254794,0.0122758,685,1429,-10.0874,-8.45839
-532,-405,-10.0848,8.95361,-0.0015806,-0.00027261,-0.000929322,0.00020977,-0.00206298,-1.09201,0.00145031,0.0154558,692,1429,-10.0848,-8.95366
-525,-405,-10.0832,9.45935,-0.000437223,0.000148441,-0.000251477,0.000241603,-0.000530385,-1.21601,0.000455984,0.0148075,699,1429,-10.0832,-9.45939
-518,-405,-10.0738,9.948,0.000701356,0.000687758,0.000504783,0.00119939,0.000189728,0.778664,0.000744451,0.0156197,706,1429,-10.0738,-9.94799
-511,-405,-10.1031,10.4249,0.00196873,0.00145784,0.00144837,0.00318401,0.000242558,0.698113,0.00204662,0.0152787,713,1429,-10.1031,-10.4249
-504,-405,-10.1345,10.9335,0.00323674,0.00233749,0.00247758,0.00530517,0.000269065,0.695636,0.00345059,0.0162161,720,1429,-10.1345,-10.9335
-497,-405,-10.141,11.4257,0.00472599,0.00351099,0.00377242,0.00793951,0.000297467,0.705566,0.00519669,0.0138617,727,1429,-10.141,-11.4257
-490,-405,-10.1628,11.9012,0.0066193,0.00510851,0.00546036,0.0113763,0.000351543,0.716664,0.00746976,0.0120172,734,1429,-10.1628,-11.9012
-483,-405,-10.0996,12.4539,0.00875333,0.00721326,0.00753563,0.0155582,0.000408418,0.734482,0.0102387,0.0205782,741,1429,-10.0996,-12.4539
-476,-405,-9.92609,13.1371,0,0,0,0,0,0,0,-1,748,1429,-9.92611,-13.137
-469,-405,-9.65692,12.8171,0,0,0,0,0,0,0,-1,755,1429,-9.65691,-12.8172
-462,-405,-9.14862,11.3597,0,0,0,0,0,0,0,-1,762,1429,-9.14865,-11.3597
-455,-405,-9.021,9.51111,0,0,0,0,0,0,0,-1,769,1429,-9.021,-9.51109
-448,-405,-8.4649,6.82813,0,0,0,0,0,0,0,-1,776,1429,-8.46492,-6.82817
-441,-405,-6.6712,4.23767,0,0,0,0,0,0,0,-1,783,1429,-6.67121,-4.23764
-434,-405,-9.62549,3.94189,0,0,0,0,0,0,0,-1,790,1429,-9.62546,-3.94191
-427,-405,-10.9764,3.73926,0,0,0,0,0,0,0,-1,797,1429,-10.9764,-3.73923
-420,-405,-12.1187,3.68506,0,0,0,0,0,0,0,-1,804,1429,-12.1187,-3.68512
-413,-405,-13.5353,3.75659,0,0,0,0,0,0,0,-1,811,1429,-13.5353,-3.75655
-406,-405,-14.7374,3.99817,0,0,0,0,0,0,0,-1,818,1429,-14.7374,-3.99814
-399,-405,0,0,0,0,0,0,0,0,0,-1,825,1429,0,0
-392,-405,0,0,0,0,0,0,0,0,0,-1,832,1429,0,0
-385,-405,0,0,0,0,0,0,0,0,0,-1,839,1429,0,0
-378,-405,0,0,0,0,0,0,0,0,0,-1,846,1429,0,0
-371,-405,0,0,0,0,0,0,0,0,0,-1,853,1429,0,0
-364,-405,0,0,0,0,0,0,0,0,0,-1,860,1429,0,0
-357,-405,0,0,0,0,0,0,0,0,0,-1,867,1429,0,0
-350,-405,0,0,0,0,0,0,0,0,0,-1,874,1429,0,0
-343,-405,0,0,0,0,0,0,0,0,0,-1,881,1429,0,0
-336,-405,0,0,0,0,0,0,0,0,0,-1,888,1429,0,0
-329,-405,0,0,0,0,0,0,0,0,0,-1,895,1429,0,0
-322,-405,0,0,0,0,0,0,0,0,0,-1,902,1429,0,0
-315,-405,0,0,0,0,0,0,0,0,0,-1,909,1429,0,0
-308,-405,0,0,0,0,0,0,0,0,0,-1,916,1429,0,0
-301,-405,0,0,0,0,0,0,0,0,0,-1,923,1429,0,0
-294,-405,0,0,0,0,0,0,0,0,0,-1,930,1429,0,0
-287,-405,0,0,0,0,0,0,0,0,0,-1,937,1429,0,0
-280,-405,0,0,0,0,0,0,0,0,0,-1,944,1429,0,0
-273,-405,0,0,0,0,0,0,0,0,0,-1,951,1429,0,0
-266,-405,0,0,0,0,0,0,0,0,0,-1,958,1429,0,0
-259,-405,0,0,0,0,0,0,0,0,0,-1,965,1429,0,0
-252,-405,0,0,0,0,0,0,0,0,0,-1,972,1429,0,0
-245,-405,0,0,0,0,0,0,0,0,0,-1,979,1429,0,0
-238,-405,0,0,0,0,0,0,0,0,0,-1,986,1429,0,0
-231,-405,0,0,0,0,0,0,0,0,0,-1,993,1429,0,0
-224,-405,0,0,0,0,0,0,0,0,0,-1,1000,1429,0,0
-217,-405,0,0,0,0,0,0,0,0,0,-1,1007,1429,0,0
-210,-405,0,0,0,0,0,0,0,0,0,-1,1014,1429,0,0
-203,-405,0,0,0,0,0,0,0,0,0,-1,1021,1429,0,0
-196,-405,0,0,0,0,0,0,0,0,0,-1,1028,1429,0,0
-189,-405,0,0,0,0,0,0,0,0,0,-1,1035,1429,0,0
-182,-405,0,0,0,0,0,0,0,0,0,-1,1042,1429,0,0
-175,-405,0,0,0,0,0,0,0,0,0,-1,1049,1429,0,0
-168,-405,0,0,0,0,0,0,0,0,0,-1,1056,1429,0,0
-161,-405,0,0,0,0,0,0,0,0,0,-1,1063,1429,0,0
-154,-405,0,0,0,0,0,0,0,0,0,-1,1070,1429,0,0
-147,-405,0,0,0,0,0,0,0,0,0,-1,1077,1429,0,0
-140,-405,0,0,0,0,0,0,0,0,0,-1,1084,1429,0,0
-133,-405,0,0,0,0,0,0,0,0,0,-1,1091,1429,0,0
-126,-405,0,0,0,0,0,0,0,0,0,-1,1098,1429,0,0
-119,-405,0,0,0,0,0,0,0,0,0,-1,1105,1429,0,0
-112,-405,0,0,0,0,0,0,0,0,0,-1,1112,1429,0,0
-105,-405,0,0,0,0,0,0,0,0,0,-1,1119,1429,0,0
-98,-405,0,0,0,0,0,0,0,0,0,-1,1126,1429,0,0
-91,-405,0,0,0,0,0,0,0,0,0,-1,1133,1429,0,0
-84,-405,0,0,0,0,0,0,0,0,0,-1,1140,1429,0,0
-77,-405,0,0,0,0,0,0,0,0,0,-1,1147,1429,0,0
-70,-405,0,0,0,0,0,0,0,0,0,-1,1154,1429,0,0
-63,-405,0,0,0,0,0,0,0,0,0,-1,1161,1429,0,0
-56,-405,0,0,0,0,0,0,0,0,0,-1,1168,1429,0,0
-49,-405,0,0,0,0,0,0,0,0,0,-1,1175,1429,0,0
-42,-405,0,0,0,0,0,0,0,0,0,-1,1182,1429,0,0
-35,-405,0,0,0,0,0,0,0,0,0,-1,1189,1429,0,0
-28,-405,0,0,0,0,0,0,0,0,0,-1,1196,1429,0,0
-21,-405,0,0,0,0,0,0,0,0,0,-1,1203,1429,0,0
-14,-405,0,0,0,0,0,0,0,0,0,-1,1210,1429,0,0
-7,-405,0,0,0,0,0,0,0,0,0,-1,1217,1429,0,0
0,-405,0,0,0,0,0,0,0,0,0,-1,1224,1429,0,0
7,-405,0,0,0,0,0,0,0,0,0,-1,1231,1429,0,0
14,-405,0,0,0,0,0,0,0,0,0,-1,1238,1429,0,0
21,-405,0,0,0,0,0,0,0,0,0,-1,1245,1429,0,0
28,-405,0,0,0,0,0,0,0,0,0,-1,1252,1429,0,0
35,-405,0,0,0,0,0,0,0,0,0,-1,1259,1429,0,0
42,-405,0,0,0,0,0,0,0,0,0,-1,1266,1429,0,0
49,-405,0,0,0,0,0,0,0,0,0,-1,1273,1429,0,0
56,-405,0,0,0,0,0,0,0,0,0,-1,1280,1429,0,0
63,-405,0,0,0,0,0,0,0,0,0,-1,1287,1429,0,0
70,-405,0,0,0,0,0,0,0,0,0,-1,1294,1429,0,0
77,-405,0,0,0,0,0,0,0,0,0,-1,1301,1429,0,0
84,-405,0,0,0,0,0,0,0,0,0,-1,1308,1429,0,0
91,-405,0,0,0,0,0,0,0,0,0,-1,1315,1429,0,0
98,-405,0,0,0,0,0,0,0,0,0,-1,1322,1429,0,0
105,-405,0,0,0,0,0,0,0,0,0,-1,1329,1429,0,0
112,-405,0,0,0,0,0,0,0,0,0,-1,1336,1429,0,0
119,-405,0,0,0,0,0,0,0,0,0,-1,1343,1429,0,0
126,-405,0,0,0,0,0,0,0,0,0,-1,1350,1429,0,0
133,-405,0,0,0,0,0,0,0,0,0,-1,1357,1429,0,0
140,-405,0,0,0,0,0,0,0,0,0,-1,1364,1429,0,0
147,-405,0,0,0,0,0,0,0,0,0,-1,1371,1429,0,0
154,-405,0,0,0,0,0,0,0,0,0,-1,1378,1429,0,0
161,-405,0,0,0,0,0,0,0,0,0,-1,1385,1429,0,0
168,-405,0,0,0,0,0,0,0,0,0,-1,1392,1429,0,0
175,-405,0,0,0,0,0,0,0,0,0,-1,1399,1429,0,0
182,-405,0,0,0,0,0,0,0,0,0,-1,1406,1429,0,0
189,-405,0,0,0,0,0,0,0,0,0,-1,1413,1429,0,0
196,-405,0,0,0,0,0,0,0,0,0,-1,1420,1429,0,0
203,-405,0,0,0,0,0,0,0,0,0,-1,1427,1429,0,0
210,-405,0,0,0,0,0,0,0,0,0,-1,1434,1429,0,0
217,-405,0,0,0,0,0,0,0,0,0,-1,1441,1429,0,0
224,-405,0,0,0,0,0,0,0,0,0,-1,1448,1429,0,0
231,-405,0,0,0,0,0,0,0,0,0,-1,1455,1429,0,0
238,-405,0,0,0,0,0,0,0,0,0,-1,1462,1429,0,0
245,-405,0,0,0,0,0,0,0,0,0,-1,1469,1429,0,0
252,-405,0,0,0,0,0,0,0,0,0,-1,1476,1429,0,0
259,-405,0,0,0,0,0,0,0,0,0,-1,1483,1429,0,0
266,-405,0,0,0,0,0,0,0,0,0,-1,1490,1429,0,0
273,-405,0,0,0,0,0,0,0,0,0,-1,1497,1429,0,0
280,-405,0,0,0,0,0,0,0,0,0,-1,1504,1429,0,0
287,-405,0,0,0,0,0,0,0,0,0,-1,1511,1429,0,0
294,-405,0,0,0,0,0,0,0,0,0,-1,1518,1429,0,0
301,-405,0,0,0,0,0,0,0,0,0,-1,1525,1429,0,0
308,-405,0,0,0,0,0,0,0,0,0,-1,1532,1429,0,0
315,-405,0,0,0,0,0,0,0,0,0,-1,1539,1429,0,0
322,-405,0,0,0,0,0,0,0,0,0,-1,1546,1429,0,0
329,-405,0,0,0,0,0,0,0,0,0,-1,1553,1429,0,0
336,-405,0,0,0,0,0,0,0,0,0,-1,1560,1429,0,0
343,-405,0,0,0,0,0,0,0,0,0,-1,1567,1429,0,0
350,-405,0,0,0,0,0,0,0,0,0,-1,1574,1429,0,0
357,-405,0,0,0,0,0,0,0,0,0,-1,1581,1429,0,0
364,-405,0,0,0,0,0,0,0,0,0,-1,1588,1429,0,0
371,-405,0,0,0,0,0,0,0,0,0,-1,1595,1429,0,0
378,-405,0,0,0,0,0,0,0,0,0,-1,1602,1429,0,0
385,-405,0,0,0,0,0,0,0,0,0,-1,1609,1429,0,0
392,-405,0,0,0,0,0,0,0,0,0,-1,1616,1429,0,0
399,-405,0,0,0,0,0,0,0,0,0,-1,1623,1429,0,0
406,-405,0,0,0,0,0,0,0,0,0,-1,1630,1429,0,0
413,-405,0,0,0,0,0,0,0,0,0,-1,1637,1429,0,0
420,-405,0,0,0,0,0,0,0,0,0,-1,1644,1429,0,0
427,-405,0,0,0,0,0,0,0,0,0,-1,1651,1429,0,0
434,-405,0,0,0,0,0,0,0,0,0,-1,1658,1429,0,0
441,-405,0,0,0,0,0,0,0,0,0,-1,1665,1429,0,0
448,-405,0,0,0,0,0,0,0,0,0,-1,1672,1429,0,0
455,-405,0,0,0,0,0,0,0,0,0,-1,1679,1429,0,0
462,-405,0,0,0,0,0,0,0,0,0,-1,1686,1429,0,0
469,-405,0,0,0,0,0,0,0,0,0,-1,1693,1429,0,0
476,-405,0,0,0,0,0,0,0,0,0,-1,1700,1429,0,0
483,-405,0,0,0,0,0,0,0,0,0,-1,1707,1429,0,0
490,-405,0,0,0,0,0,0,0,0,0,-1,1714,1429,0,0
497,-405,0,0,0,0,0,0,0,0,0,-1,1721,1429,0,0
504,-405,0,0,0,0,0,0,0,0,0,-1,1728,1429,0,0
511,-405,0,0,0,0,0,0,0,0,0,-1,1735,1429,0,0
518,-405,0,0,0,0,0,0,0,0,0,-1,1742,1429,0,0
525,-405,31.1563,-1.40942,0,0,0,0,0,0,0,-1,1749,1429,31.1563,1.40937
532,-405,28.156,4.8783,0,0,0,0,0,0,0,-1,1756,1429,28.1561,-4.87833
539,-405,26.5133,3.02454,0,0,0,0,0,0,0,-1,1763,1429,26.5133,-3.0246
546,-405,29.5735,6.53052,0,0,0,0,0,0,0,-1,1770,1429,29.5735,-6.53049
553,-405,28.2911,6.70654,0,0,0,0,0,0,0,-1,1777,1429,28.2912,-6.70656
560,-405,26.9299,7.08472,0,0,0,0,0,0,0,-1,1784,1429,26.9299,-7.08469
567,-405,25.804,7.14661,0,0,0,0,0,0,0,-1,1791,1429,25.8039,-7.14665
574,-405,25.1151,8.07971,0,0,0,0,0,0,0,-1,1798,1429,25.1151,-8.07965
581,-405,23.5055,8.505,0,0,0,0,0,0,0,-1,1805,1429,23.5054,-8.50501
588,-405,21.7491,8.98254,0,0,0,0,0,0,0,-1,1812,1429,21.7491,-8.98254
595,-405,21.6327,10.7795,0,0,0,0,0,0,0,-1,1819,1429,21.6327,-10.7796
602,-405,21.6461,13.9199,0,0,0,0,0,0,0,-1,1826,1429,21.6461,-13.92
609,-405,23.5558,14.7239,0,0,0,0,0,0,0,-1,1833,1429,23.5558,-14.7239
616,-405,23.7603,14.1755,0.00288973,0.00206782,-0.00190467,0.00442728,0.000530281,-0.679146,0.0027916,0.0300201,1840,1429,23.7603,-14.1756
623,-405,23.7837,13.6417,0.00211298,0.00123958,-0.00130829,0.00305553,0.000297032,-0.624316,0.00194558,0.0121388,1847,1429,23.7837,-13.6417
630,-405,23.7974,13.1556,0.00161968,0.000664428,-0.000892728,0.00215452,0.000129586,-0.539765,0.00139516,0.010831,1854,1429,23.7974,-13.1556
637,-405,23.7986,12.6991,0.00123661,0.000246183,-0.00057761,0.00150223,-1.94387e-05,-0.431027,0.00100803,0.011419,1861,1429,23.7986,-12.699
644,-405,23.7415,12.2407,0.00097554,1.96429e-05,-0.000328781,0.0010777,-8.25219e-05,-0.301279,0.000747497,0.0298811,1868,1429,23.7414,-12.2407
651,-405,23.6371,11.8367,0.000831508,-0.00012687,-0.00011696,0.000845575,-0.000140937,-0.1197,0.000616093,0.0341004,1875,1429,23.6371,-11.8367
658,-405,23.7271,11.4001,0.00075186,-0.000176568,6.94402e-05,0.000757025,-0.000181733,0.0742428,0.000574917,0.0245035,1882,1429,23.727,-11.4001
665,-405,23.7324,10.9382,0.000765138,-0.000214913,0.000294377,0.000846762,-0.000296537,0.270481,0.000685091,0.0185056,1889,1429,23.7324,-10.9382
672,-405,23.7426,10.4813,0.000838146,-0.000207429,0.00055596,0.00107851,-0.000447792,0.40807,0.000905942,0.0216807,1896,1429,23.7426,-10.4813
679,-405,23.7576,10.0424,0.000973563,-0.000337801,0.000936438,0.00146105,-0.000825288,0.479972,0.00133692,0.0209534,1903,1429,23.7575,-10.0423
686,-405,23.5297,9.53284,0.00109782,-0.000735049,0.00158274,0.0020103,-0.00164752,0.522973,0.0021153,0.0398953,1910,1429,23.5296,-9.53286
693,-405,23.2067,9.06763,0,0,0,0,0,0,0,-1,1917,1429,23.2066,-9.06757
700,-405,9.1958,4.02026,0,0,0,0,0,0,0,-1,1924,1429,9.19579,-4.02025
707,-405,7.40308,3.83191,0,0,0,0,0,0,0,-1,1931,1429,7.40311,-3.83194
714,-405,7.33252,3.47388,0,0,0,0,0,0,0,-1,1938,1429,7.33255,-3.47383
721,-405,9.23523,0.993896,0,0,0,0,0,0,0,-1,1945,1429,9.23523,-0.993884
728,-405,0,0,0,0,0,0,0,0,0,-1,1952,1429,0,0
735,-405,0,0,0,0,0,0,0,0,0,-1,1959,1429,0,0
742,-405,0,0,0,0,0,0,0,0,0,-1,1966,1429,0,0
749,-405,0,0,0,0,0,0,0,0,0,-1,1973,1429,0,0
756,-405,0,0,0,0,0,0,0,0,0,-1,1980,1429,0,0
763,-405,0,0,0,0,0,0,0,0,0,-1,1987,1429,0,0
770,-405,0,0,0,0,0,0,0,0,0,-1,1994,1429,0,0
777,-405,0,0,0,0,0,0,0,0,0,-1,2001,1429,0,0
784,-405,0,0,0,0,0,0,0,0,0,-1,2008,1429,0,0
791,-405,0,0,0,0,0,0,0,0,0,-1,2015,1429,0,0
798,-405,0,0,0,0,0,0,0,0,0,-1,2022,1429,0,0
805,-405,0,0,0,0,0,0,0,0,0,-1,2029,1429,0,0
812,-405,0,0,0,0,0,0,0,0,0,-1,2036,1429,0,0
-700,-412,0,0,0,0,0,0,0,0,0,-1,524,1436,0,0
-693,-412,0,0,0,0,0,0,0,0,0,-1,531,1436,0,0
-686,-412,0,0,0,0,0,0,0,0,0,-1,538,1436,0,0
-679,-412,0,0,0,0,0,0,0,0,0,-1,545,1436,0,0
-672,-412,0,0,0,0,0,0,0,0,0,-1,552,1436,0,0
-665,-412,0,0,0,0,0,0,0,0,0,-1,559,1436,0,0
-658,-412,0,0,0,0,0,0,0,0,0,-1,566,1436,0,0
-651,-412,0,0,0,0,0,0,0,0,0,-1,573,1436,0,0
-644,-412,0,0,0,0,0,0,0,0,0,-1,580,1436,0,0
-637,-412,0,0,0,0,0,0,0,0,0,-1,587,1436,0,0
-630,-412,0,0,0,0,0,0,0,0,0,-1,594,1436,0,0
-623,-412,0,0,0,0,0,0,0,0,0,-1,601,1436,0,0
-616,-412,0,0,0,0,0,0,0,0,0,-1,608,1436,0,0
-609,-412,0,0,0,0,0,0,0,0,0,-1,615,1436,0,0
-602,-412,-3.72766,-3.50012,0,0,0,0,0,0,0,-1,622,1436,-3.72764,3.50017
-595,-412,-10.3706,0.65564,0,0,0,0,0,0,0,-1,629,1436,-10.3706,-0.655672
-588,-412,-8.17957,1.94934,0,0,0,0,0,0,0,-1,636,1436,-8.17956,-1.94939
-581,-412,-6.60065,-0.0554199,0,0,0,0,0,0,0,-1,643,1436,-6.60063,0.0554733
-574,-412,-8.34131,5.25012,0,0,0,0,0,0,0,-1,650,1436,-8.34129,-5.25012
-567,-412,-7.50354,3.65454,0,0,0,0,0,0,0,-1,657,1436,-7.50356,-3.65452
-560,-412,-8.52448,7.39014,0,0,0,0,0,0,0,-1,664,1436,-8.52447,-7.39019
-553,-412,-7.36761,6.54651,0,0,0,0,0,0,0,-1,671,1436,-7.36763,-6.54654
-546,-412,-9.60168,7.9917,0,0,0,0,0,0,0,-1,678,1436,-9.60169,-7.99175
-539,-412,-9.56317,8.41943,-0.00336641,-0.000388173,-0.00167708,0.000365489,-0.00412008,-1.14845,0.0028763,0.0233862,685,1436,-9.56318,-8.41938
-532,-412,-9.59338,8.99231,-0.00213549,-0.000105727,-0.00103107,0.000326144,-0.00256736,-1.17414,0.00183,0.0140395,692,1436,-9.59337,-8.99236
-525,-412,-9.60663,9.49548,-0.00106631,0.000144951,-0.000470118,0.000306002,-0.00122736,-1.24075,0.000937045,0.0153957,699,1436,-9.6066,-9.49549
-518,-412,-9.5993,9.96753,-1.81105e-05,0.000534431,0.000168025,0.000581514,-6.5194e-05,1.29759,0.000411134,0.0162677,706,1436,-9.59927,-9.96758
-511,-412,-9.62854,10.4476,0.00113109,0.0011784,0.000987585,0.00214261,0.000166873,0.797373,0.00137616,0.0184558,713,1436,-9.62857,-10.4477
-504,-412,-9.65851,10.9623,0.00226029,0.00196461,0.00189635,0.00401455,0.000210347,0.746496,0.00260908,0.017455,720,1436,-9.65849,-10.9623
-497,-412,-9.66589,11.4473,0.00358423,0.00303533,0.00305121,0.0063733,0.00024625,0.740545,0.00416921,0.0140801,727,1436,-9.66589,-11.4473
-490,-412,-9.67633,11.9221,0.00526375,0.00451193,0.00456238,0.00946568,0.000309994,0.744294,0.0062097,0.0126584,734,1436,-9.67633,-11.9222
-483,-412,-9.69025,12.3887,0.00718698,0.00642309,0.00642514,0.0132415,0.000368556,0.755711,0.00870743,0.00982344,741,1436,-9.69022,-12.3886
-476,-412,-9.53217,13.0656,0.00949906,0.00892178,0.00882331,0.0180384,0.000382388,0.769047,0.0119002,0.02818,748,1436,-9.53218,-13.0655
-469,-412,-9.42114,13.7614,0,0,0,0,0,0,0,-1,755,1436,-9.42115,-13.7614
-462,-412,-8.94659,13.3385,0,0,0,0,0,0,0,-1,762,1436,-8.94657,-13.3385
-455,-412,-8.25006,11.2572,0,0,0,0,0,0,0,-1,769,1436,-8.25007,-11.2572
-448,-412,-7.38086,8.78186,0,0,0,0,0,0,0,-1,776,1436,-7.38088,-8.78183
-441,-412,-8.79523,9.05286,0,0,0,0,0,0,0,-1,783,1436,-8.79521,-9.0529
-434,-412,-10.6305,8.03577,0,0,0,0,0,0,0,-1,790,1436,-10.6305,-8.0358
-427,-412,-10.0004,5.15271,0,0,0,0,0,0,0,-1,797,1436,-10.0004,-5.15266
-420,-412,-10.4468,4.9043,0,0,0,0,0,0,0,-1,804,1436,-10.4468,-4.90429
-413,-412,-11.5704,4.97766,0,0,0,0,0,0,0,-1,811,1436,-11.5704,-4.97771
-406,-412,-13.1968,5.70093,0,0,0,0,0,0,0,-1,818,1436,-13.1968,-5.70096
-399,-412,-10.5506,0.771973,0,0,0,0,0,0,0,-1,825,1436,-10.5506,-0.771954
-392,-412,0,0,0,0,0,0,0,0,0,-1,832,1436,0,0
-385,-412,0,0,0,0,0,0,0,0,0,-1,839,1436,0,0
-378,-412,0,0,0,0,0,0,0,0,0,-1,846,1436,0,0
-371,-412,0,0,0,0,0,0,0,0,0,-1,853,1436,0,0
-364,-412,0,0,0,0,0,0,0,0,0,-1,860,1436,0,0
-357,-412,0,0,0,0,0,0,0,0,0,-1,867,1436,0,0
-350,-412,0,0,0,0,0,0,0,0,0,-1,874,1436,0,0
-343,-412,0,0,0,0,0,0,0,0,0,-1,881,1436,0,0
-336,-412,0,0,0,0,0,0,0,0,0,-1,888,1436,0,0
-329,-412,0,0,0,0,0,0,0,0,0,-1,895,1436,0,0
-322,-412,0,0,0,0,0,0,0,0,0,-1,902,1436,0,0
-315,-412,0,0,0,0,0,0,0,0,0,-1,909,1436,0,0
-308,-412,0,0,0,0,0,0,0,0,0,-1,916,1436,0,0
-301,-412,0,0,0,0,0,0,0,0,0,-1,923,1436,0,0
-294,-412,0,0,0,0,0,0,0,0,0,-1,930,1436,0,0
-287,-412,0,0,0,0,0,0,0,0,0,-1,937,1436,0,0
-280,-412,0,0,0,0,0,0,0,0,0,-1,944,1436,0,0
-273,-412,0,0,0,0,0,0,0,0,0,-1,951,1436,0,0
-266,-412,0,0,0,0,0,0,0,0,0,-1,958,1436,0,0
-259,-412,0,0,0,0,0,0,0,0,0,-1,965,1436,0,0
-252,-412,0,0,0,0,0,0,0,0,0,-1,972,1436,0,0
-245,-412,0,0,0,0,0,0,0,0,0,-1,979,1436,0,0
-238,-412,0,0,0,0,0,0,0,0,0,-1,986,1436,0,0
-231,-412,0,0,0,0,0,0,0,0,0,-1,993,1436,0,0
-224,-412,0,0,0,0,0,0,0,0,0,-1,1000,1436,0,0
-217,-412,0,0,0,0,0,0,0,0,0,-1,1007,1436,0,0
-210,-412,0,0,0,0,0,0,0,0,0,-1,1014,1436,0,0
-203,-412,0,0,0,0,0,0,0,0,0,-1,1021,1436,0,0
-196,-412,0,0,0,0,0,0,0,0,0,-1,1028,1436,0,0
-189,-412,0,0,0,0,0,0,0,0,0,-1,1035,1436,0,0
-182,-412,0,0,0,0,0,0,0,0,0,-1,1042,1436,0,0
-175,-412,0,0,0,0,0,0,0,0,0,-1,1049,1436,0,0
-168,-412,0,0,0,0,0,0,0,0,0,-1,1056,1436,0,0
-161,-412,0,0,0,0,0,0,0,0,0,-1,1063,1436,0,0
-154,-412,0,0,0,0,0,0,0,0,0,-1,1070,1436,0,0
-147,-412,0,0,0,0,0,0,0,0,0,-1,1077,1436,0,0
-140,-412,0,0,0,0,0,0,0,0,0,-1,1084,1436,0,0
-133,-412,0,0,0,0,0,0,0,0,0,-1,1091,1436,0,0
-126,-412,0,0,0,0,0,0,0,0,0,-1,1098,1436,0,0
-119,-412,0,0,0,0,0,0,0,0,0,-1,1105,1436,0,0
-112,-412,0,0,0,0,0,0,0,0,0,-1,1112,1436,0,0
-105,-412,0,0,0,0,0,0,0,0,0,-1,1119,1436,0,0
-98,-412,0,0,0,0,0,0,0,0,0,-1,1126,1436,0,0
-91,-412,0,0,0,0,0,0,0,0,0,-1,1133,1436,0,0
-84,-412,0,0,0,0,0,0,0,0,0,-1,1140,1436,0,0
-77,-412,0,0,0,0,0,0,0,0,0,-1,1147,1436,0,0
-70,-412,0,0,0,0,0,0,0,0,0,-1,1154,1436,0,0
-63,-412,0,0,0,0,0,0,0,0,0,-1,1161,1436,0,0
-56,-412,0,0,0,0,0,0,0,0,0,-1,1168,1436,0,0
-49,-412,0,0,0,0,0,0,0,0,0,-1,1175,1436,0,0
-42,-412,0,0,0,0,0,0,0,0,0,-1,1182,1436,0,0
-35,-412,0,0,0,0,0,0,0,0,0,-1,1189,1436,0,0
-28,-412,0,0,0,0,0,0,0,0,0,-1,1196,1436,0,0
-21,-412,0,0,0,0,0,0,0,0,0,-1,1203,1436,0,0
-14,-412,0,0,0,0,0,0,0,0,0,-1,1210,1436,0,0
-7,-412,0,0,0,0,0,0,0,0,0,-1,1217,1436,0,0
0,-412,0,0,0,0,0,0,0,0,0,-1,1224,1436,0,0
7,-412,0,0,0,0,0,0,0,0,0,-1,1231,1436,0,0
14,-412,0,0,0,0,0,0,0,0,0,-1,1238,1436,0,0
21,-412,0,0,0,0,0,0,0,0,0,-1,1245,1436,0,0
28,-412,0,0,0,0,0,0,0,0,0,-1,1252,1436,0,0
35,-412,0,0,0,0,0,0,0,0,0,-1,1259,1436,0,0
42,-412,0,0,0,0,0,0,0,0,0,-1,1266,1436,0,0
49,-412,0,0,0,0,0,0,0,0,0,-1,1273,1436,0,0
56,-412,0,0,0,0,0,0,0,0,0,-1,1280,1436,0,0
63,-412,0,0,0,0,0,0,0,0,0,-1,1287,1436,0,0
70,-412,0,0,0,0,0,0,0,0,0,-1,1294,1436,0,0
77,-412,0,0,0,0,0,0,0,0,0,-1,1301,1436,0,0
84,-412,0,0,0,0,0,0,0,0,0,-1,1308,1436,0,0
91,-412,0,0,0,0,0,0,0,0,0,-1,1315,1436,0,0
98,-412,0,0,0,0,0,0,0,0,0,-1,1322,1436,0,0
105,-412,0,0,0,0,0,0,0,0,0,-1,1329,1436,0,0
112,-412,0,0,0,0,0,0,0,0,0,-1,1336,1436,0,0
119,-412,0,0,0,0,0,0,0,0,0,-1,1343,1436,0,0
126,-412,0,0,0,0,0,0,0,0,0,-1,1350,1436,0,0
133,-412,0,0,0,0,0,0,0,0,0,-1,1357,1436,0,0
140,-412,0,0,0,0,0,0,0,0,0,-1,1364,1436,0,0
147,-412,0,0,0,0,0,0,0,0,0,-1,1371,1436,0,0
154,-412,0,0,0,0,0,0,0,0,0,-1,1378,1436,0,0
161,-412,0,0,0,0,0,0,0,0,0,-1,1385,1436,0,0
168,-412,0,0,0,0,0,0,0,0,0,-1,1392,1436,0,0
175,-412,0,0,0,0,0,0,0,0,0,-1,1399,1436,0,0
182,-412,0,0,0,0,0,0,0,0,0,-1,1406,1436,0,0
189,-412,0,0,0,0,0,0,0,0,0,-1,1413,1436,0,0
196,-412,0,0,0,0,0,0,0,0,0,-1,1420,1436,0,0
203,-412,0,0,0,0,0,0,0,0,0,-1,1427,1436,0,0
210,-412,0,0,0,0,0,0,0,0,0,-1,1434,1436,0,0
217,-412,0,0,0,0,0,0,0,0,0,-1,1441,1436,0,0
224,-412,0,0,0,0,0,0,0,0,0,-1,1448,1436,0,0
231,-412,0,0,0,0,0,0,0,0,0,-1,1455,1436,0,0
238,-412,0,0,0,0,0,0,0,0,0,-1,1462,1436,0,0
245,-412,0,0,0,0,0,0,0,0,0,-1,1469,1436,0,0
252,-412,0,0,0,0,0,0,0,0,0,-1,1476,1436,0,0
259,-412,0,0,0,0,0,0,0,0,0,-1,1483,1436,0,0
266,-412,0,0,0,0,0,0,0,0,0,-1,1490,1436,0,0
273,-412,0,0,0,0,0,0,0,0,0,-1,1497,1436,0,0
280,-412,0,0,0,0,0,0,0,0,0,-1,1504,1436,0,0
287,-412,0,0,0,0,0,0,0,0,0,-1,1511,1436,0,0
294,-412,0,0,0,0,0,0,0,0,0,-1,1518,1436,0,0
301,-412,0,0,0,0,0,0,0,0,0,-1,1525,1436,0,0
308,-412,0,0,0,0,0,0,0,0,0,-1,1532,1436,0,0
315,-412,0,0,0,0,0,0,0,0,0,-1,1539,1436,0,0
322,-412,0,0,0,0,0,0,0,0,0,-1,1546,1436,0,0
329,-412,0,0,0,0,0,0,0,0,0,-1,1553,1436,0,0
336,-412,0,0,0,0,0,0,0,0,0,-1,1560,1436,0,0
343,-412,0,0,0,0,0,0,0,0,0,-1,1567,1436,0,0
350,-412,0,0,0,0,0,0,0,0,0,-1,1574,1436,0,0
357,-412,0,0,0,0,0,0,0,0,0,-1,1581,1436,0,0
364,-412,0,0,0,0,0,0,0,0,0,-1,1588,1436,0,0
371,-412,0,0,0,0,0,0,0,0,0,-1,1595,1436,0,0
378,-412,0,0,0,0,0,0,0,0,0,-1,1602,1436,0,0
385,-412,0,0,0,0,0,0,0,0,0,-1,1609,1436,0,0
392,-412,0,0,0,0,0,0,0,0,0,-1,1616,1436,0,0
399,-412,0,0,0,0,0,0,0,0,0,-1,1623,1436,0,0
406,-412,0,0,0,0,0,0,0,0,0,-1,1630,1436,0,0
413,-412,0,0,0,0,0,0,0,0,0,-1,1637,1436,0,0
420,-412,0,0,0,0,0,0,0,0,0,-1,1644,1436,0,0
427,-412,0,0,0,0,0,0,0,0,0,-1,1651,1436,0,0
434,-412,0,0,0,0,0,0,0,0,0,-1,1658,1436,0,0
441,-412,0,0,0,0,0,0,0,0,0,-1,1665,1436,0,0
448,-412,0,0,0,0,0,0,0,0,0,-1,1672,1436,0,0
455,-412,0,0,0,0,0,0,0,0,0,-1,1679,1436,0,0
462,-412,0,0,0,0,0,0,0,0,0,-1,1686,1436,0,0
469,-412,0,0,0,0,0,0,0,0,0,-1,1693,1436,0,0
476,-412,0,0,0,0,0,0,0,0,0,-1,1700,1436,0,0
483,-412,0,0,0,0,0,0,0,0,0,-1,1707,1436,0,0
490,-412,0,0,0,0,0,0,0,0,0,-1,1714,1436,0,0
497,-412,0,0,0,0,0,0,0,0,0,-1,1721,1436,0,0
504,-412,0,0,0,0,0,0,0,0,0,-1,1728,1436,0,0
511,-412,0,0,0,0,0,0,0,0,0,-1,1735,1436,0,0
518,-412,30.1038,-2.43384,0,0,0,0,0,0,0,-1,1742,1436,30.1038,2.43383
525,-412,29.5283,-1.42493,0,0,0,0,0,0,0,-1,1749,1436,29.5283,1.42495
532,-412,28.8533,-0.386597,0,0,0,0,0,0,0,-1,1756,1436,28.8533,0.386632
539,-412,25.8654,2.74683,0,0,0,0,0,0,0,-1,1763,1436,25.8654,-2.74685
546,-412,25.4265,2.4342,0,0,0,0,0,0,0,-1,1770,1436,25.4265,-2.4342
553,-412,26.3595,7.49255,0,0,0,0,0,0,0,-1,1777,1436,26.3595,-7.4925
560,-412,24.9116,7.94324,0,0,0,0,0,0,0,-1,1784,1436,24.9116,-7.94327
567,-412,23.668,7.94531,0,0,0,0,0,0,0,-1,1791,1436,23.6679,-7.94534
574,-412,23.0142,9.17236,0,0,0,0,0,0,0,-1,1798,1436,23.0141,-9.17235
581,-412,22.2615,10.0349,0,0,0,0,0,0,0,-1,1805,1436,22.2615,-10.0349
588,-412,21.6893,10.8069,0,0,0,0,0,0,0,-1,1812,1436,21.6893,-10.8069
595,-412,21.5137,14.3157,0,0,0,0,0,0,0,-1,1819,1436,21.5137,-14.3157
602,-412,23.2418,15.1727,0,0,0,0,0,0,0,-1,1826,1436,23.2418,-15.1727
609,-412,23.3568,14.5452,0.00339502,0.00306556,-0.00253128,0.00576692,0.000693647,-0.752905,0.00363553,0.0236508,1833,1436,23.3568,-14.5451
616,-412,23.3846,14.0703,0.00258315,0.00195806,-0.00179999,0.00409754,0.000443681,-0.699437,0.00259646,0.0103816,1840,1436,23.3846,-14.0704
623,-412,23.3353,13.6266,0.0019782,0.00122229,-0.00126637,0.00292181,0.00027868,-0.640379,0.00186195,0.00934434,1847,1436,23.3353,-13.6266
630,-412,23.329,13.1541,0.00156219,0.000638006,-0.000869323,0.00208461,0.000115594,-0.541112,0.00135285,0.0117904,1854,1436,23.329,-13.154
637,-412,23.3412,12.682,0.0012011,0.000218444,-0.00052902,0.00143176,-1.22144e-05,-0.41116,0.000958606,0.0140649,1861,1436,23.3412,-12.682
644,-412,23.3418,12.2629,0.000975848,-3.97142e-05,-0.000277747,0.00104685,-0.000110712,-0.250261,0.000737576,0.0154458,1868,1436,23.3418,-12.2629
651,-412,23.3229,11.813,0.000833644,-0.000195101,-7.16483e-05,0.00083861,-0.000200067,-0.0692011,0.000636334,0.0261808,1875,1436,23.3229,-11.813
658,-412,23.3026,11.3878,0.000737959,-0.000246217,0.000103049,0.000748633,-0.000256891,0.103215,0.000603236,0.0174976,1882,1436,23.3026,-11.3878
665,-412,23.2877,10.9454,0.000705422,-0.000257641,0.000301657,0.000792107,-0.000344325,0.279822,0.000672883,0.0218054,1889,1436,23.2877,-10.9454
672,-412,23.3135,10.4769,0.000688989,-0.000168049,0.000518886,0.000933427,-0.000412487,0.440247,0.000796229,0.026927,1896,1436,23.3134,-10.477
679,-412,23.3533,10.0441,0.000695781,-0.000249866,0.000875039,0.00121757,-0.000771656,0.537698,0.00115806,0.0399701,1903,1436,23.3532,-10.044
686,-412,22.9734,9.40869,0,0,0,0,0,0,0,-1,1910,1436,22.9734,-9.40867
693,-412,11.9346,6.02344,0,0,0,0,0,0,0,-1,1917,1436,11.9346,-6.02343
700,-412,8.82764,5.8844,0,0,0,0,0,0,0,-1,1924,1436,8.82761,-5.88444
707,-412,6.59998,1.68994,0,0,0,0,0,0,0,-1,1931,1436,6.60002,-1.68995
714,-412,4.77283,-2.39832,0,0,0,0,0,0,0,-1,1938,1436,4.77288,2.39835
721,-412,0,0,0,0,0,0,0,0,0,-1,1945,1436,0,0
728,-412,0,0,0,0,0,0,0,0,0,-1,1952,1436,0,0
735,-412,0,0,0,0,0,0,0,0,0,-1,1959,1436,0,0
742,-412,0,0,0,0,0,0,0,0,0,-1,1966,1436,0,0
749,-412,0,0,0,0,0,0,0,0,0,-1,1973,1436,0,0
756,-412,0,0,0,0,0,0,0,0,0,-1,1980,1436,0,0
763,-412,0,0,0,0,0,0,0,0,0,-1,1987,1436,0,0
770,-412,0,0,0,0,0,0,0,0,0,-1,1994,1436,0,0
777,-412,0,0,0,0,0,0,0,0,0,-1,2001,1436,0,0
784,-412,0,0,0,0,0,0,0,0,0,-1,2008,1436,0,0
791,-412,0,0,0,0,0,0,0,0,0,-1,2015,1436,0,0
798,-412,0,0,0,0,0,0,0,0,0,-1,2022,1436,0,0
805,-412,0,0,0,0,0,0,0,0,0,-1,2029,1436,0,0
812,-412,0,0,0,0,0,0,0,0,0,-1,2036,1436,0,0
-700,-419,0,0,0,0,0,0,0,0,0,-1,524,1443,0,0
-693,-419,0,0,0,0,0,0,0,0,0,-1,531,1443,0,0
-686,-419,0,0,0,0,0,0,0,0,0,-1,538,1443,0,0
-679,-419,0,0,0,0,0,0,0,0,0,-1,545,1443,0,0
-672,-419,0,0,0,0,0,0,0,0,0,-1,552,1443,0,0
-665,-419,0,0,0,0,0,0,0,0,0,-1,559,1443,0,0
-658,-419,0,0,0,0,0,0,0,0,0,-1,566,1443,0,0
-651,-419,0,0,0,0,0,0,0,0,0,-1,573,1443,0,0
-644,-419,0,0,0,0,0,0,0,0,0,-1,580,1443,0,0
-637,-419,0,0,0,0,0,0,0,0,0,-1,587,1443,0,0
-630,-419,0,0,0,0,0,0,0,0,0,-1,594,1443,0,0
-623,-419,0,0,0,0,0,0,0,0,0,-1,601,1443,0,0
-616,-419,0,0,0,0,0,0,0,0,0,-1,608,1443,0,0
-609,-419,0,0,0,0,0,0,0,0,0,-1,615,1443,0,0
-602,-419,0,0,0,0,0,0,0,0,0,-1,622,1443,0,0
-595,-419,-11.4904,-0.622681,0,0,0,0,0,0,0,-1,629,1443,-11.4903,0.622714
-588,-419,-9.09369,0.742432,0,0,0,0,0,0,0,-1,636,1443,-9.09366,-0.742482
-581,-419,-6.39172,2.14673,0,0,0,0,0,0,0,-1,643,1443,-6.39175,-2.14668
-574,-419,-4.09772,3.54773,0,0,0,0,0,0,0,-1,650,1443,-4.09772,-3.54767
-567,-419,-6.14038,3.22498,0,0,0,0,0,0,0,-1,657,1443,-6.14037,-3.22497
-560,-419,-4.52814,5.22253,0,0,0,0,0,0,0,-1,664,1443,-4.52816,-5.22251
-553,-419,-5.08331,6.11829,0,0,0,0,0,0,0,-1,671,1443,-5.08331,-6.1183
-546,-419,-8.69403,7.91052,0,0,0,0,0,0,0,-1,678,1443,-8.69402,-7.91053
-539,-419,-8.84778,8.48523,-0.00417193,-7.12235e-05,-0.00158432,0.000469564,-0.00471272,-1.24186,0.00330946,0.0480128,685,1443,-8.84778,-8.48523
-532,-419,-9.11932,8.98096,-0.00281189,2.66447e-05,-0.00100108,0.000344181,-0.00312943,-1.26364,0.00220997,0.0217262,692,1443,-9.11931,-8.98094
-525,-419,-9.12622,9.51074,-0.00170147,9.14703e-05,-0.000557291,0.000250572,-0.00186057,-1.2927,0.00133178,0.0133582,699,1443,-9.12622,-9.51075
-518,-419,-9.12549,9.99182,-0.000637516,0.000326973,-3.58984e-05,0.000328308,-0.00063885,-1.53364,0.000567903,0.0174033,706,1443,-9.12549,-9.99187
-511,-419,-9.11115,10.4976,0.000475437,0.000836498,0.000644193,0.00132498,-1.30426e-05,0.922015,0.000887699,0.0191059,713,1443,-9.11115,-10.4976
-504,-419,-9.15283,10.9856,0.0015477,0.00154471,0.00143737,0.00298357,0.000108839,0.784877,0.00195378,0.0181946,720,1443,-9.15285,-10.9856
-497,-419,-9.18213,11.4453,0.00278482,0.00253189,0.00245814,0.00511975,0.000196959,0.759696,0.00334944,0.0131834,727,1443,-9.18215,-11.4454
-490,-419,-9.18866,11.9191,0.00432584,0.00389346,0.00379743,0.00791323,0.000306072,0.756963,0.00517648,0.0115627,734,1443,-9.18867,-11.9191
-483,-419,-9.20074,12.402,0.00610734,0.00562122,0.00544997,0.0113197,0.000408889,0.763114,0.00741391,0.0101998,741,1443,-9.20076,-12.402
-476,-419,-9.17474,12.9254,0.00821917,0.00781261,0.0075259,0.0155445,0.000487252,0.771896,0.0102045,0.0132823,748,1443,-9.17472,-12.9254
-469,-419,-9.08594,13.5798,0.0109983,0.0105119,0.0101835,0.0209414,0.000568696,0.77346,0.0137753,0.0289435,755,1443,-9.08593,-13.5799
-462,-419,-8.89209,14.3706,0,0,0,0,0,0,0,-1,762,1443,-8.89208,-14.3706
-455,-419,-7.35645,11.9451,0,0,0,0,0,0,0,-1,769,1443,-7.35646,-11.9451
-448,-419,-7.49109,9.92444,0,0,0,0,0,0,0,-1,776,1443,-7.49109,-9.92442
-441,-419,-7.65527,8.75574,0,0,0,0,0,0,0,-1,783,1443,-7.65525,-8.75568
-434,-419,-11.3724,12.3643,0,0,0,0,0,0,0,-1,790,1443,-11.3724,-12.3643
-427,-419,-8.23193,7.89404,0,0,0,0,0,0,0,-1,797,1443,-8.23193,-7.89404
-420,-419,-8.74091,6.36597,0,0,0,0,0,0,0,-1,804,1443,-8.74089,-6.366
-413,-419,-9.88391,6.53955,0,0,0,0,0,0,0,-1,811,1443,-9.8839,-6.53955
-406,-419,-10.3372,2.75195,0,0,0,0,0,0,0,-1,818,1443,-10.3372,-2.75201
-399,-419,-11.5999,1.40002,0,0,0,0,0,0,0,-1,825,1443,-11.5999,-1.39998
-392,-419,0,0,0,0,0,0,0,0,0,-1,832,1443,0,0
-385,-419,0,0,0,0,0,0,0,0,0,-1,839,1443,0,0
-378,-419,0,0,0,0,0,0,0,0,0,-1,846,1443,0,0
-371,-419,0,0,0,0,0,0,0,0,0,-1,853,1443,0,0
-364,-419,0,0,0,0,0,0,0,0,0,-1,860,1443,0,0
-357,-419,0,0,0,0,0,0,0,0,0,-1,867,1443,0,0
-350,-419,0,0,0,0,0,0,0,0,0,-1,874,1443,0,0
-343,-419,0,0,0,0,0,0,0,0,0,-1,881,1443,0,0
-336,-419,0,0,0,0,0,0,0,0,0,-1,888,1443,0,0
-329,-419,0,0,0,0,0,0,0,0,0,-1,895,1443,0,0
-322,-419,0,0,0,0,0,0,0,0,0,-1,902,1443,0,0
-315,-419,0,0,0,0,0,0,0,0,0,-1,909,1443,0,0
-308,-419,0,0,0,0,0,0,0,0,0,-1,916,1443,0,0
-301,-419,0,0,0,0,0,0,0,0,0,-1,923,1443,0,0
-294,-419,0,0,0,0,0,0,0,0,0,-1,930,1443,0,0
-287,-419,0,0,0,0,0,0,0,0,0,-1,937,1443,0,0
-280,-419,0,0,0,0,0,0,0,0,0,-1,944,1443,0,0
-273,-419,0,0,0,0,0,0,0,0,0,-1,951,1443,0,0
-266,-419,0,0,0,0,0,0,0,0,0,-1,958,1443,0,0
-259,-419,0,0,0,0,0,0,0,0,0,-1,965,1443,0,0
-252,-419,0,0,0,0,0,0,0,0,0,-1,972,1443,0,0
-245,-419,0,0,0,0,0,0,0,0,0,-1,979,1443,0,0
-238,-419,0,0,0,0,0,0,0,0,0,-1,986,1443,0,0
-231,-419,0,0,0,0,0,0,0,0,0,-1,993,1443,0,0
-224,-419,0,0,0,0,0,0,0,0,0,-1,1000,1443,0,0
-217,-419,0,0,0,0,0,0,0,0,0,-1,1007,1443,0,0
-210,-419,0,0,0,0,0,0,0,0,0,-1,1014,1443,0,0
-203,-419,0,0,0,0,0,0,0,0,0,-1,1021,1443,0,0
-196,-419,0,0,0,0,0,0,0,0,0,-1,1028,1443,0,0
-189,-419,0,0,0,0,0,0,0,0,0,-1,1035,1443,0,0
-182,-419,0,0,0,0,0,0,0,0,0,-1,1042,1443,0,0
-175,-419,0,0,0,0,0,0,0,0,0,-1,1049,1443,0,0
-168,-419,0,0,0,0,0,0,0,0,0,-1,1056,1443,0,0
-161,-419,0,0,0,0,0,0,0,0,0,-1,1063,1443,0,0
-154,-419,0,0,0,0,0,0,0,0,0,-1,1070,1443,0,0
-147,-419,0,0,0,0,0,0,0,0,0,-1,1077,1443,0,0
-140,-419,0,0,0,0,0,0,0,0,0,-1,1084,1443,0,0
-133,-419,0,0,0,0,0,0,0,0,0,-1,1091,1443,0,0
-126,-419,0,0,0,0,0,0,0,0,0,-1,1098,1443,0,0
-119,-419,0,0,0,0,0,0,0,0,0,-1,1105,1443,0,0
-112,-419,0,0,0,0,0,0,0,0,0,-1,1112,1443,0,0
-105,-419,0,0,0,0,0,0,0,0,0,-1,1119,1443,0,0
-98,-419,0,0,0,0,0,0,0,0,0,-1,1126,1443,0,0
-91,-419,0,0,0,0,0,0,0,0,0,-1,1133,1443,0,0
-84,-419,0,0,0,0,0,0,0,0,0,-1,1140,1443,0,0
-77,-419,0,0,0,0,0,0,0,0,0,-1,1147,1443,0,0
-70,-419,0,0,0,0,0,0,0,0,0,-1,1154,1443,0,0
-63,-419,0,0,0,0,0,0,0,0,0,-1,1161,1443,0,0
-56,-419,0,0,0,0,0,0,0,0,0,-1,1168,1443,0,0
-49,-419,0,0,0,0,0,0,0,0,0,-1,1175,1443,0,0
-42,-419,0,0,0,0,0,0,0,0,0,-1,1182,1443,0,0
-35,-419,0,0,0,0,0,0,0,0,0,-1,1189,1443,0,0
-28,-419,0,0,0,0,0,0,0,0,0,-1,1196,1443,0,0
-21,-419,0,0,0,0,0,0,0,0,0,-1,1203,1443,0,0
-14,-419,0,0,0,0,0,0,0,0,0,-1,1210,1443,0,0
-7,-419,0,0,0,0,0,0,0,0,0,-1,1217,1443,0,0
0,-419,0,0,0,0,0,0,0,0,0,-1,1224,1443,0,0
7,-419,0,0,0,0,0,0,0,0,0,-1,1231,1443,0,0
14,-419,0,0,0,0,0,0,0,0,0,-1,1238,1443,0,0
21,-419,0,0,0,0,0,0,0,0,0,-1,1245,1443,0,0
28,-419,0,0,0,0,0,0,0,0,0,-1,1252,1443,0,0
35,-419,0,0,0,0,0,0,0,0,0,-1,1259,1443,0,0
42,-419,0,0,0,0,0,0,0,0,0,-1,1266,1443,0,0
49,-419,0,0,0,0,0,0,0,0,0,-1,1273,1443,0,0
56,-419,0,0,0,0,0,0,0,0,0,-1,1280,1443,0,0
63,-419,0,0,0,0,0,0,0,0,0,-1,1287,1443,0,0
70,-419,0,0,0,0,0,0,0,0,0,-1,1294,1443,0,0
77,-419,0,0,0,0,0,0,0,0,0,-1,1301,1443,0,0
84,-419,0,0,0,0,0,0,0,0,0,-1,1308,1443,0,0
91,-419,0,0,0,0,0,0,0,0,0,-1,1315,1443,0,0
98,-419,0,0,0,0,0,0,0,0,0,-1,1322,1443,0,0
105,-419,0,0,0,0,0,0,0,0,0,-1,1329,1443,0,0
112,-419,0,0,0,0,0,0,0,0,0,-1,1336,1443,0,0
119,-419,0,0,0,0,0,0,0,0,0,-1,1343,1443,0,0
126,-419,0,0,0,0,0,0,0,0,0,-1,1350,1443,0,0
133,-419,0,0,0,0,0,0,0,0,0,-1,1357,1443,0,0
140,-419,0,0,0,0,0,0,0,0,0,-1,1364,1443,0,0
147,-419,0,0,0,0,0,0,0,0,0,-1,1371,1443,0,0
154,-419,0,0,0,0,0,0,0,0,0,-1,1378,1443,0,0
161,-419,0,0,0,0,0,0,0,0,0,-1,1385,1443,0,0
168,-419,0,0,0,0,0,0,0,0,0,-1,1392,1443,0,0
175,-419,0,0,0,0,0,0,0,0,0,-1,1399,1443,0,0
182,-419,0,0,0,0,0,0,0,0,0,-1,1406,1443,0,0
189,-419,0,0,0,0,0,0,0,0,0,-1,1413,1443,0,0
196,-419,0,0,0,0,0,0,0,0,0,-1,1420,1443,0,0
203,-419,0,0,0,0,0,0,0,0,0,-1,1427,1443,0,0
210,-419,0,0,0,0,0,0,0,0,0,-1,1434,1443,0,0
217,-419,0,0,0,0,0,0,0,0,0,-1,1441,1443,0,0
224,-419,0,0,0,0,0,0,0,0,0,-1,1448,1443,0,0
231,-419,0,0,0,0,0,0,0,0,0,-1,1455,1443,0,0
238,-419,0,0,0,0,0,0,0,0,0,-1,1462,1443,0,0
245,-419,0,0,0,0,0,0,0,0,0,-1,1469,1443,0,0
252,-419,0,0,0,0,0,0,0,0,0,-1,1476,1443,0,0
259,-419,0,0,0,0,0,0,0,0,0,-1,1483,1443,0,0
266,-419,0,0,0,0,0,0,0,0,0,-1,1490,1443,0,0
273,-419,0,0,0,0,0,0,0,0,0,-1,1497,1443,0,0
280,-419,0,0,0,0,0,0,0,0,0,-1,1504,1443,0,0
287,-419,0,0,0,0,0,0,0,0,0,-1,1511,1443,0,0
294,-419,0,0,0,0,0,0,0,0,0,-1,1518,1443,0,0
301,-419,0,0,0,0,0,0,0,0,0,-1,1525,1443,0,0
308,-419,0,0,0,0,0,0,0,0,0,-1,1532,1443,0,0
315,-419,0,0,0,0,0,0,0,0,0,-1,1539,1443,0,0
322,-419,0,0,0,0,0,0,0,0,0,-1,1546,1443,0,0
329,-419,0,0,0,0,0,0,0,0,0,-1,1553,1443,0,0
336,-419,0,0,0,0,0,0,0,0,0,-1,1560,1443,0,0
343,-419,0,0,0,0,0,0,0,0,0,-1,1567,1443,0,0
350,-419,0,0,0,0,0,0,0,0,0,-1,1574,1443,0,0
357,-419,0,0,0,0,0,0,0,0,0,-1,1581,1443,0,0
364,-419,0,0,0,0,0,0,0,0,0,-1,1588,1443,0,0
371,-419,0,0,0,0,0,0,0,0,0,-1,1595,1443,0,0
378,-419,0,0,0,0,0,0,0,0,0,-1,1602,1443,0,0
385,-419,0,0,0,0,0,0,0,0,0,-1,1609,1443,0,0
392,-419,0,0,0,0,0,0,0,0,0,-1,1616,1443,0,0
399,-419,0,0,0,0,0,0,0,0,0,-1,1623,1443,0,0
406,-419,0,0,0,0,0,0,0,0,0,-1,1630,1443,0,0
413,-419,0,0,0,0,0,0,0,0,0,-1,1637,1443,0,0
420,-419,0,0,0,0,0,0,0,0,0,-1,1644,1443,0,0
427,-419,0,0,0,0,0,0,0,0,0,-1,1651,1443,0,0
434,-419,0,0,0,0,0,0,0,0,0,-1,1658,1443,0,0
441,-419,0,0,0,0,0,0,0,0,0,-1,1665,1443,0,0
448,-419,0,0,0,0,0,0,0,0,0,-1,1672,1443,0,0
455,-419,0,0,0,0,0,0,0,0,0,-1,1679,1443,0,0
462,-419,0,0,0,0,0,0,0,0,0,-1,1686,1443,0,0
469,-419,0,0,0,0,0,0,0,0,0,-1,1693,1443,0,0
476,-419,0,0,0,0,0,0,0,0,0,-1,1700,1443,0,0
483,-419,0,0,0,0,0,0,0,0,0,-1,1707,1443,0,0
490,-419,0,0,0,0,0,0,0,0,0,-1,1714,1443,0,0
497,-419,0,0,0,0,0,0,0,0,0,-1,1721,1443,0,0
504,-419,0,0,0,0,0,0,0,0,0,-1,1728,1443,0,0
511,-419,20.3005,3.7959,0,0,0,0,0,0,0,-1,1735,1443,20.3005,-3.79584
518,-419,21.3154,2.03027,0,0,0,0,0,0,0,-1,1742,1443,21.3155,-2.03029
525,-419,28.3439,-1.24475,0,0,0,0,0,0,0,-1,1749,1443,28.3438,1.24471
532,-419,27.5902,-0.272583,0,0,0,0,0,0,0,-1,1756,1443,27.5902,0.272526
539,-419,26.5278,1.60583,0,0,0,0,0,0,0,-1,1763,1443,26.5279,-1.60579
546,-419,24.9509,2.77539,0,0,0,0,0,0,0,-1,1770,1443,24.9509,-2.77537
553,-419,24.118,3.75525,0,0,0,0,0,0,0,-1,1777,1443,24.1181,-3.75526
560,-419,11.8199,8.26343,0,0,0,0,0,0,0,-1,1784,1443,11.82,-8.26341
567,-419,21.5143,8.74719,0,0,0,0,0,0,0,-1,1791,1443,21.5143,-8.74722
574,-419,19.5886,6.46155,0,0,0,0,0,0,0,-1,1798,1443,19.5886,-6.46157
581,-419,20.7926,11.4265,0,0,0,0,0,0,0,-1,1805,1443,20.7926,-11.4265
588,-419,19.4242,12.5363,0,0,0,0,0,0,0,-1,1812,1443,19.4242,-12.5362
595,-419,22.7056,15.629,0,0,0,0,0,0,0,-1,1819,1443,22.7055,-15.629
602,-419,22.9523,14.9528,0.00342601,0.00350287,-0.00287119,0.00633589,0.000592994,-0.79209,0.00404079,0.0297055,1826,1443,22.9523,-14.9527
609,-419,22.9463,14.5172,0.00290653,0.00259465,-0.00223831,0.00499433,0.000506856,-0.75062,0.00317412,0.0160078,1833,1443,22.9463,-14.5172
616,-419,22.9198,14.0834,0.00230805,0.0017191,-0.00163016,0.00367012,0.000357038,-0.69604,0.00233684,0.0124402,1840,1443,22.9198,-14.0834
623,-419,22.9011,13.6343,0.00185018,0.00107465,-0.00113309,0.00266002,0.000264804,-0.620535,0.001692,0.0101935,1847,1443,22.9012,-13.6343
630,-419,22.8938,13.1631,0.00151674,0.000519902,-0.000744819,0.00191452,0.00012212,-0.490527,0.00123765,0.0122143,1854,1443,22.8938,-13.163
637,-419,22.8923,12.724,0.00120168,0.000127321,-0.000387782,0.00132702,1.97801e-06,-0.312632,0.000884022,0.0131548,1861,1443,22.8923,-12.724
644,-419,22.8912,12.3026,0.00102394,-0.000127486,-0.000136291,0.00103985,-0.000143399,-0.116228,0.000745642,0.0116676,1868,1443,22.8912,-12.3026
651,-419,22.8792,11.8972,0.000897158,-0.00026874,6.36818e-05,0.000900626,-0.000272208,0.0544047,0.000708796,0.0114658,1875,1443,22.8792,-11.8973
658,-419,22.8496,11.4181,0.000811937,-0.000312579,0.000228203,0.000856483,-0.000357124,0.192778,0.000720176,0.0131062,1882,1443,22.8496,-11.4181
665,-419,22.8611,10.9689,0.000751247,-0.000285146,0.000394894,0.000884564,-0.000418462,0.325586,0.000768178,0.0198829,1889,1443,22.8611,-10.9689
672,-419,22.9088,10.4622,0.000646387,-8.91662e-05,0.000546488,0.000937328,-0.000380107,0.489217,0.000782972,0.0282725,1896,1443,22.9088,-10.4621
679,-419,22.8751,9.94836,0,0,0,0,0,0,0,-1,1903,1443,22.8751,-9.94834
686,-419,17.4127,8.03076,0,0,0,0,0,0,0,-1,1910,1443,17.4127,-8.03071
693,-419,8.76086,5.60535,0,0,0,0,0,0,0,-1,1917,1443,8.76091,-5.6054
700,-419,11.0498,4.85156,0,0,0,0,0,0,0,-1,1924,1443,11.0498,-4.85153
707,-419,9.5752,1.80042,0,0,0,0,0,0,0,-1,1931,1443,9.57523,-1.80037
714,-419,5.77576,-1.25061,0,0,0,0,0,0,0,-1,1938,1443,5.7757,1.25056
721,-419,0,0,0,0,0,0,0,0,0,-1,1945,1443,0,0
728,-419,0,0,0,0,0,0,0,0,0,-1,1952,1443,0,0
735,-419,0,0,0,0,0,0,0,0,0,-1,1959,1443,0,0
742,-419,0,0,0,0,0,0,0,0,0,-1,1966,1443,0,0
749,-419,0,0,0,0,0,0,0,0,0,-1,1973,1443,0,0
756,-419,0,0,0,0,0,0,0,0,0,-1,1980,1443,0,0
763,-419,0,0,0,0,0,0,0,0,0,-1,1987,1443,0,0
770,-419,0,0,0,0,0,0,0,0,0,-1,1994,1443,0,0
777,-419,0,0,0,0,0,0,0,0,0,-1,2001,1443,0,0
784,-419,0,0,0,0,0,0,0,0,0,-1,2008,1443,0,0
791,-419,0,0,0,0,0,0,0,0,0,-1,2015,1443,0,0
798,-419,0,0,0,0,0,0,0,0,0,-1,2022,1443,0,0
805,-419,0,0,0,0,0,0,0,0,0,-1,2029,1443,0,0
812,-419,0,0,0,0,0,0,0,0,0,-1,2036,1443,0,0
-700,-426,0,0,0,0,0,0,0,0,0,-1,524,1450,0,0
-693,-426,0,0,0,0,0,0,0,0,0,-1,531,1450,0,0
-686,-426,0,0,0,0,0,0,0,0,0,-1,538,1450,0,0
-679,-426,0,0,0,0,0,0,0,0,0,-1,545,1450,0,0
-672,-426,0,0,0,0,0,0,0,0,0,-1,552,1450,0,0
-665,-426,0,0,0,0,0,0,0,0,0,-1,559,1450,0,0
-658,-426,0,0,0,0,0,0,0,0,0,-1,566,1450,0,0
-651,-426,0,0,0,0,0,0,0,0,0,-1,573,1450,0,0
-644,-426,0,0,0,0,0,0,0,0,0,-1,580,1450,0,0
-637,-426,0,0,0,0,0,0,0,0,0,-1,587,1450,0,0
-630,-426,0,0,0,0,0,0,0,0,0,-1,594,1450,0,0
-623,-426,0,0,0,0,0,0,0,0,0,-1,601,1450,0,0
-616,-426,0,0,0,0,0,0,0,0,0,-1,608,1450,0,0
-609,-426,0,0,0,0,0,0,0,0,0,-1,615,1450,0,0
-602,-426,0,0,0,0,0,0,0,0,0,-1,622,1450,0,0
-595,-426,0,0,0,0,0,0,0,0,0,-1,629,1450,0,0
-588,-426,-10.184,-0.554321,0,0,0,0,0,0,0,-1,636,1450,-10.184,0.554321
-581,-426,-7.3349,1.48157,0,0,0,0,0,0,0,-1,643,1450,-7.33491,-1.48152
-574,-426,-5.02856,2.89319,0,0,0,0,0,0,0,-1,650,1450,-5.02858,-2.89319
-567,-426,-3.04797,1.72644,0,0,0,0,0,0,0,-1,657,1450,-3.04797,-1.72639
-560,-426,-5.55682,3.44397,0,0,0,0,0,0,0,-1,664,1450,-5.55684,-3.44399
-553,-426,-4.67017,6.66614,0,0,0,0,0,0,0,-1,671,1450,-4.67015,-6.66619
-546,-426,-7.58752,8.28882,0,0,0,0,0,0,0,-1,678,1450,-7.58752,-8.28878
-539,-426,-8.30664,8.59241,0,0,0,0,0,0,0,-1,685,1450,-8.30663,-8.59246
-532,-426,-8.47626,9.01025,-0.0030619,0.000399158,-0.000590366,0.000497088,-0.00315983,-1.40641,0.0022903,0.0438211,692,1450,-8.47627,-9.01022
-525,-426,-8.65002,9.46936,-0.00202179,0.000213332,-0.000328431,0.000260593,-0.00206905,-1.42788,0.00147393,0.0181828,699,1450,-8.65005,-9.46931
-518,-426,-8.62598,10.0123,-0.00102588,0.000246599,1.76493e-05,0.000246843,-0.00102612,1.55693,0.000779501,0.0163051,706,1450,-8.626,-10.0123
-511,-426,-8.62292,10.5267,-4.55181e-05,0.000569211,0.000494087,0.000843736,-0.000320043,1.06365,0.000694214,0.0159076,713,1450,-8.62292,-10.5268
-504,-426,-8.64777,10.9918,0.000912199,0.0011556,0.00112769,0.00216814,-0.000100335,0.839151,0.00148,0.0153994,720,1450,-8.64775,-10.9918
-497,-426,-8.68219,11.4519,0.00202287,0.00201418,0.00197418,0.00399271,4.43351e-05,0.784298,0.00264715,0.012824,727,1450,-8.68218,-11.4519
-490,-426,-8.7074,11.9315,0.00339757,0.00321582,0.00311046,0.00641848,0.000194906,0.770795,0.00421552,0.0127282,734,1450,-8.70737,-11.9316
-483,-426,-8.71674,12.4214,0.00500824,0.00472187,0.00452824,0.00939556,0.000334548,0.769593,0.00615522,0.0126681,741,1450,-8.71675,-12.4214
-476,-426,-8.71564,12.8988,0.00691876,0.00659572,0.00629213,0.0130514,0.000463034,0.772566,0.0085508,0.00993681,748,1450,-8.71566,-12.8988
-469,-426,-8.73602,13.3882,0.00934282,0.0087945,0.00848924,0.0175623,0.000574993,0.769256,0.0115213,0.00912276,755,1450,-8.73603,-13.3882
-462,-426,-8.57379,14.1152,0.012508,0.0115966,0.0113253,0.0233867,0.000717856,0.765291,0.0153575,0.0377383,762,1450,-8.57381,-14.1152
-455,-426,-8.38153,14.9296,0,0,0,0,0,0,0,-1,769,1450,-8.38154,-14.9296
-448,-426,-6.46545,10.1322,0,0,0,0,0,0,0,-1,776,1450,-6.46543,-10.1322
-441,-426,-10.9547,11.4747,0,0,0,0,0,0,0,-1,783,1450,-10.9546,-11.4748
-434,-426,-10.4998,13.6189,0,0,0,0,0,0,0,-1,790,1450,-10.4997,-13.6189
-427,-426,-9.36627,13.7396,0,0,0,0,0,0,0,-1,797,1450,-9.36628,-13.7396
-420,-426,-5.33765,7.95044,0,0,0,0,0,0,0,-1,804,1450,-5.33766,-7.95041
-413,-426,-10.1148,5.0415,0,0,0,0,0,0,0,-1,811,1450,-10.1148,-5.04152
-406,-426,-11.4199,3.6438,0,0,0,0,0,0,0,-1,818,1450,-11.4198,-3.64382
-399,-426,-12.7595,2.29004,0,0,0,0,0,0,0,-1,825,1450,-12.7595,-2.29003
-392,-426,-12.4147,0.537354,0,0,0,0,0,0,0,-1,832,1450,-12.4147,-0.53731
-385,-426,0,0,0,0,0,0,0,0,0,-1,839,1450,0,0
-378,-426,0,0,0,0,0,0,0,0,0,-1,846,1450,0,0
-371,-426,0,0,0,0,0,0,0,0,0,-1,853,1450,0,0
-364,-426,0,0,0,0,0,0,0,0,0,-1,860,1450,0,0
-357,-426,0,0,0,0,0,0,0,0,0,-1,867,1450,0,0
-350,-426,0,0,0,0,0,0,0,0,0,-1,874,1450,0,0
-343,-426,0,0,0,0,0,0,0,0,0,-1,881,1450,0,0
-336,-426,0,0,0,0,0,0,0,0,0,-1,888,1450,0,0
-329,-426,0,0,0,0,0,0,0,0,0,-1,895,1450,0,0
-322,-426,0,0,0,0,0,0,0,0,0,-1,902,1450,0,0
-315,-426,0,0,0,0,0,0,0,0,0,-1,909,1450,0,0
-308,-426,0,0,0,0,0,0,0,0,0,-1,916,1450,0,0
-301,-426,0,0,0,0,0,0,0,0,0,-1,923,1450,0,0
-294,-426,0,0,0,0,0,0,0,0,0,-1,930,1450,0,0
-287,-426,0,0,0,0,0,0,0,0,0,-1,937,1450,0,0
-280,-426,0,0,0,0,0,0,0,0,0,-1,944,1450,0,0
-273,-426,0,0,0,0,0,0,0,0,0,-1,951,1450,0,0
-266,-426,0,0,0,0,0,0,0,0,0,-1,958,1450,0,0
-259,-426,0,0,0,0,0,0,0,0,0,-1,965,1450,0,0
-252,-426,0,0,0,0,0,0,0,0,0,-1,972,1450,0,0
-245,-426,0,0,0,0,0,0,0,0,0,-1,979,1450,0,0
-238,-426,0,0,0,0,0,0,0,0,0,-1,986,1450,0,0
-231,-426,0,0,0,0,0,0,0,0,0,-1,993,1450,0,0
-224,-426,0,0,0,0,0,0,0,0,0,-1,1000,1450,0,0
-217,-426,0,0,0,0,0,0,0,0,0,-1,1007,1450,0,0
-210,-426,0,0,0,0,0,0,0,0,0,-1,1014,1450,0,0
-203,-426,0,0,0,0,0,0,0,0,0,-1,1021,1450,0,0
-196,-426,0,0,0,0,0,0,0,0,0,-1,1028,1450,0,0
-189,-426,0,0,0,0,0,0,0,0,0,-1,1035,1450,0,0
-182,-426,0,0,0,0,0,0,0,0,0,-1,1042,1450,0,0
-175,-426,0,0,0,0,0,0,0,0,0,-1,1049,1450,0,0
-168,-426,0,0,0,0,0,0,0,0,0,-1,1056,1450,0,0
-161,-426,0,0,0,0,0,0,0,0,0,-1,1063,1450,0,0
-154,-426,0,0,0,0,0,0,0,0,0,-1,1070,1450,0,0
-147,-426,0,0,0,0,0,0,0,0,0,-1,1077,1450,0,0
-140,-426,0,0,0,0,0,0,0,0,0,-1,1084,1450,0,0
-133,-426,0,0,0,0,0,0,0,0,0,-1,1091,1450,0,0
-126,-426,0,0,0,0,0,0,0,0,0,-1,1098,1450,0,0
-119,-426,0,0,0,0,0,0,0,0,0,-1,1105,1450,0,0
-112,-426,0,0,0,0,0,0,0,0,0,-1,1112,1450,0,0
-105,-426,0,0,0,0,0,0,0,0,0,-1,1119,1450,0,0
-98,-426,0,0,0,0,0,0,0,0,0,-1,1126,1450,0,0
-91,-426,0,0,0,0,0,0,0,0,0,-1,1133,1450,0,0
-84,-426,0,0,0,0,0,0,0,0,0,-1,1140,1450,0,0
-77,-426,0,0,0,0,0,0,0,0,0,-1,1147,1450,0,0
-70,-426,0,0,0,0,0,0,0,0,0,-1,1154,1450,0,0
-63,-426,0,0,0,0,0,0,0,0,0,-1,1161,1450,0,0
-56,-426,0,0,0,0,0,0,0,0,0,-1,1168,1450,0,0
-49,-426,0,0,0,0,0,0,0,0,0,-1,1175,1450,0,0
-42,-426,0,0,0,0,0,0,0,0,0,-1,1182,1450,0,0
-35,-426,0,0,0,0,0,0,0,0,0,-1,1189,1450,0,0
-28,-426,0,0,0,0,0,0,0,0,0,-1,1196,1450,0,0
-21,-426,0,0,0,0,0,0,0,0,0,-1,1203,1450,0,0
-14,-426,0,0,0,0,0,0,0,0,0,-1,1210,1450,0,0
-7,-426,0,0,0,0,0,0,0,0,0,-1,1217,1450,0,0
0,-426,0,0,0,0,0,0,0,0,0,-1,1224,1450,0,0
7,-426,0,0,0,0,0,0,0,0,0,-1,1231,1450,0,0
14,-426,0,0,0,0,0,0,0,0,0,-1,1238,1450,0,0
21,-426,0,0,0,0,0,0,0,0,0,-1,1245,1450,0,0
28,-426,0,0,0,0,0,0,0,0,0,-1,1252,1450,0,0
35,-426,0,0,0,0,0,0,0,0,0,-1,1259,1450,0,0
42,-426,0,0,0,0,0,0,0,0,0,-1,1266,1450,0,0
49,-426,0,0,0,0,0,0,0,0,0,-1,1273,1450,0,0
56,-426,0,0,0,0,0,0,0,0,0,-1,1280,1450,0,0
63,-426,0,0,0,0,0,0,0,0,0,-1,1287,1450,0,0
70,-426,0,0,0,0,0,0,0,0,0,-1,1294,1450,0,0
77,-426,0,0,0,0,0,0,0,0,0,-1,1301,1450,0,0
84,-426,0,0,0,0,0,0,0,0,0,-1,1308,1450,0,0
91,-426,0,0,0,0,0,0,0,0,0,-1,1315,1450,0,0
98,-426,0,0,0,0,0,0,0,0,0,-1,1322,1450,0,0
105,-426,0,0,0,0,0,0,0,0,0,-1,1329,1450,0,0
112,-426,0,0,0,0,0,0,0,0,0,-1,1336,1450,0,0
119,-426,0,0,0,0,0,0,0,0,0,-1,1343,1450,0,0
126,-426,0,0,0,0,0,0,0,0,0,-1,1350,1450,0,0
133,-426,0,0,0,0,0,0,0,0,0,-1,1357,1450,0,0
140,-426,0,0,0,0,0,0,0,0,0,-1,1364,1450,0,0
147,-426,0,0,0,0,0,0,0,0,0,-1,1371,1450,0,0
154,-426,0,0,0,0,0,0,0,0,0,-1,1378,1450,0,0
161,-426,0,0,0,0,0,0,0,0,0,-1,1385,1450,0,0
168,-426,0,0,0,0,0,0,0,0,0,-1,1392,1450,0,0
175,-426,0,0,0,0,0,0,0,0,0,-1,1399,1450,0,0
182,-426,0,0,0,0,0,0,0,0,0,-1,1406,1450,0,0
189,-426,0,0,0,0,0,0,0,0,0,-1,1413,1450,0,0
196,-426,0,0,0,0,0,0,0,0,0,-1,1420,1450,0,0
203,-426,0,0,0,0,0,0,0,0,0,-1,1427,1450,0,0
210,-426,0,0,0,0,0,0,0,0,0,-1,1434,1450,0,0
217,-426,0,0,0,0,0,0,0,0,0,-1,1441,1450,0,0
224,-426,0,0,0,0,0,0,0,0,0,-1,1448,1450,0,0
231,-426,0,0,0,0,0,0,0,0,0,-1,1455,1450,0,0
238,-426,0,0,0,0,0,0,0,0,0,-1,1462,1450,0,0
245,-426,0,0,0,0,0,0,0,0,0,-1,1469,1450,0,0
252,-426,0,0,0,0,0,0,0,0,0,-1,1476,1450,0,0
259,-426,0,0,0,0,0,0,0,0,0,-1,1483,1450,0,0
266,-426,0,0,0,0,0,0,0,0,0,-1,1490,1450,0,0
273,-426,0,0,0,0,0,0,0,0,0,-1,1497,1450,0,0
280,-426,0,0,0,0,0,0,0,0,0,-1,1504,1450,0,0
287,-426,0,0,0,0,0,0,0,0,0,-1,1511,1450,0,0
294,-426,0,0,0,0,0,0,0,0,0,-1,1518,1450,0,0
301,-426,0,0,0,0,0,0,0,0,0,-1,1525,1450,0,0
308,-426,0,0,0,0,0,0,0,0,0,-1,1532,1450,0,0
315,-426,0,0,0,0,0,0,0,0,0,-1,1539,1450,0,0
322,-426,0,0,0,0,0,0,0,0,0,-1,1546,1450,0,0
329,-426,0,0,0,0,0,0,0,0,0,-1,1553,1450,0,0
336,-426,0,0,0,0,0,0,0,0,0,-1,1560,1450,0,0
343,-426,0,0,0,0,0,0,0,0,0,-1,1567,1450,0,0
350,-426,0,0,0,0,0,0,0,0,0,-1,1574,1450,0,0
357,-426,0,0,0,0,0,0,0,0,0,-1,1581,1450,0,0
364,-426,0,0,0,0,0,0,0,0,0,-1,1588,1450,0,0
371,-426,0,0,0,0,0,0,0,0,0,-1,1595,1450,0,0
378,-426,0,0,0,0,0,0,0,0,0,-1,1602,1450,0,0
385,-426,0,0,0,0,0,0,0,0,0,-1,1609,1450,0,0
392,-426,0,0,0,0,0,0,0,0,0,-1,1616,1450,0,0
399,-426,0,0,0,0,0,0,0,0,0,-1,1623,1450,0,0
406,-426,0,0,0,0,0,0,0,0,0,-1,1630,1450,0,0
413,-426,0,0,0,0,0,0,0,0,0,-1,1637,1450,0,0
420,-426,0,0,0,0,0,0,0,0,0,-1,1644,1450,0,0
427,-426,0,0,0,0,0,0,0,0,0,-1,1651,1450,0,0
434,-426,0,0,0,0,0,0,0,0,0,-1,1658,1450,0,0
441,-426,0,0,0,0,0,0,0,0,0,-1,1665,1450,0,0
448,-426,0,0,0,0,0,0,0,0,0,-1,1672,1450,0,0
455,-426,0,0,0,0,0,0,0,0,0,-1,1679,1450,0,0
462,-426,0,0,0,0,0,0,0,0,0,-1,1686,1450,0,0
469,-426,0,0,0,0,0,0,0,0,0,-1,1693,1450,0,0
476,-426,0,0,0,0,0,0,0,0,0,-1,1700,1450,0,0
483,-426,0,0,0,0,0,0,0,0,0,-1,1707,1450,0,0
490,-426,0,0,0,0,0,0,0,0,0,-1,1714,1450,0,0
497,-426,0,0,0,0,0,0,0,0,0,-1,1721,1450,0,0
504,-426,20.6873,3.38367,0,0,0,0,0,0,0,-1,1728,1450,20.6873,-3.38361
511,-426,19.6676,3.53748,0,0,0,0,0,0,0,-1,1735,1450,19.6676,-3.53749
518,-426,18.6853,3.32288,0,0,0,0,0,0,0,-1,1742,1450,18.6853,-3.3229
525,-426,18.9552,2.71033,0,0,0,0,0,0,0,-1,1749,1450,18.9552,-2.71034
532,-426,19.4333,2.70764,0,0,0,0,0,0,0,-1,1756,1450,19.4334,-2.70764
539,-426,25.1482,2.56287,0,0,0,0,0,0,0,-1,1763,1450,25.1482,-2.56286
546,-426,24.1136,3.75659,0,0,0,0,0,0,0,-1,1770,1450,24.1136,-3.7566
553,-426,23.0791,4.95032,0,0,0,0,0,0,0,-1,1777,1450,23.0791,-4.95034
560,-426,12.9688,11.8289,0,0,0,0,0,0,0,-1,1784,1450,12.9688,-11.8288
567,-426,13.6388,11.5623,0,0,0,0,0,0,0,-1,1791,1450,13.6388,-11.5623
574,-426,14.3943,11.0286,0,0,0,0,0,0,0,-1,1798,1450,14.3942,-11.0285
581,-426,16.3879,11.4653,0,0,0,0,0,0,0,-1,1805,1450,16.3879,-11.4653
588,-426,18.1212,12.5547,0,0,0,0,0,0,0,-1,1812,1450,18.1212,-12.5547
595,-426,22.5078,15.6141,0,0,0,0,0,0,0,-1,1819,1450,22.5078,-15.6141
602,-426,22.4414,15.0044,0.00316778,0.00309745,-0.00252289,0.00565575,0.000609476,-0.77843,0.00358466,0.0281,1826,1450,22.4414,-15.0044
609,-426,22.4814,14.5233,0.00268585,0.00224719,-0.00194258,0.00442145,0.0005116,-0.729183,0.00279276,0.0129578,1833,1450,22.4815,-14.5233
616,-426,22.4606,14.0734,0.00217327,0.00147634,-0.0014139,0.00328101,0.000368594,-0.664576,0.00207542,0.0154925,1840,1450,22.4606,-14.0734
623,-426,22.4641,13.6344,0.00180859,0.000862109,-0.000963296,0.00240861,0.000262085,-0.557078,0.0015259,0.0123602,1847,1450,22.4641,-13.6344
630,-426,22.4823,13.1849,0.00154247,0.000308501,-0.000604947,0.00178956,6.14078e-05,-0.387774,0.00117311,0.012383,1854,1450,22.4823,-13.185
637,-426,22.4708,12.7526,0.00127031,-7.71345e-05,-0.000261942,0.00131944,-0.000126265,-0.185407,0.00092459,0.0122783,1861,1450,22.4708,-12.7525
644,-426,22.4279,12.3193,0.00112524,-0.000330649,-2.92895e-05,0.00112583,-0.000331238,-0.0201071,0.000881947,0.0119351,1868,1450,22.4279,-12.3194
651,-426,22.3903,11.892,0.00100034,-0.000445913,0.000141933,0.00101413,-0.000459711,0.0969068,0.000870762,0.011931,1875,1450,22.3903,-11.892
658,-426,22.3981,11.4115,0.000920692,-0.00047238,0.000288414,0.000978042,-0.00052973,0.196288,0.000883246,0.0122684,1882,1450,22.398,-11.4115
665,-426,22.4244,10.877,0.000818783,-0.000372058,0.000414882,0.000949071,-0.000502346,0.304284,0.000851104,0.0217751,1889,1450,22.4245,-10.8769
672,-426,22.5189,10.3361,0,0,0,0,0,0,0,-1,1896,1450,22.5189,-10.336
679,-426,17.1522,8.15784,0,0,0,0,0,0,0,-1,1903,1450,17.1522,-8.15784
686,-426,13.5326,8.03711,0,0,0,0,0,0,0,-1,1910,1450,13.5326,-8.03717
693,-426,11.8607,6.45215,0,0,0,0,0,0,0,-1,1917,1450,11.8607,-6.45215
700,-426,9.24304,2.95447,0,0,0,0,0,0,0,-1,1924,1450,9.24305,-2.95442
707,-426,8.44519,-1.21448,0,0,0,0,0,0,0,-1,1931,1450,8.44514,1.21454
714,-426,0,0,0,0,0,0,0,0,0,-1,1938,1450,0,0
721,-426,0,0,0,0,0,0,0,0,0,-1,1945,1450,0,0
728,-426,0,0,0,0,0,0,0,0,0,-1,1952,1450,0,0
735,-426,0,0,0,0,0,0,0,0,0,-1,1959,1450,0,0
742,-426,0,0,0,0,0,0,0,0,0,-1,1966,1450,0,0
749,-426,0,0,0,0,0,0,0,0,0,-1,1973,1450,0,0
756,-426,0,0,0,0,0,0,0,0,0,-1,1980,1450,0,0
763,-426,0,0,0,0,0,0,0,0,0,-1,1987,1450,0,0
770,-426,0,0,0,0,0,0,0,0,0,-1,1994,1450,0,0
777,-426,0,0,0,0,0,0,0,0,0,-1,2001,1450,0,0
784,-426,0,0,0,0,0,0,0,0,0,-1,2008,1450,0,0
791,-426,0,0,0,0,0,0,0,0,0,-1,2015,1450,0,0
798,-426,0,0,0,0,0,0,0,0,0,-1,2022,1450,0,0
805,-426,0,0,0,0,0,0,0,0,0,-1,2029,1450,0,0
812,-426,0,0,0,0,0,0,0,0,0,-1,2036,1450,0,0
-700,-433,0,0,0,0,0,0,0,0,0,-1,524,1457,0,0
-693,-433,0,0,0,0,0,0,0,0,0,-1,531,1457,0,0
-686,-433,0,0,0,0,0,0,0,0,0,-1,538,1457,0,0
-679,-433,0,0,0,0,0,0,0,0,0,-1,545,1457,0,0
-672,-433,0,0,0,0,0,0,0,0,0,-1,552,1457,0,0
-665,-433,0,0,0,0,0,0,0,0,0,-1,559,1457,0,0
-658,-433,0,0,0,0,0,0,0,0,0,-1,566,1457,0,0
-651,-433,0,0,0,0,0,0,0,0,0,-1,573,1457,0,0
-644,-433,0,0,0,0,0,0,0,0,0,-1,580,1457,0,0
-637,-433,0,0,0,0,0,0,0,0,0,-1,587,1457,0,0
-630,-433,0,0,0,0,0,0,0,0,0,-1,594,1457,0,0
-623,-433,0,0,0,0,0,0,0,0,0,-1,601,1457,0,0
-616,-433,0,0,0,0,0,0,0,0,0,-1,608,1457,0,0
-609,-433,0,0,0,0,0,0,0,0,0,-1,615,1457,0,0
-602,-433,0,0,0,0,0,0,0,0,0,-1,622,1457,0,0
-595,-433,0,0,0,0,0,0,0,0,0,-1,629,1457,0,0
-588,-433,-10.3756,-0.467041,0,0,0,0,0,0,0,-1,636,1457,-10.3756,0.467081
-581,-433,-8.12201,0.884033,0,0,0,0,0,0,0,-1,643,1457,-8.12204,-0.884056
-574,-433,-5.86847,2.23523,0,0,0,0,0,0,0,-1,650,1457,-5.86844,-2.23519
-567,-433,-5.42255,1.16833,0,0,0,0,0,0,0,-1,657,1457,-5.42254,-1.1683
-560,-433,-6.84027,1.86414,0,0,0,0,0,0,0,-1,664,1457,-6.84026,-1.86412
-553,-433,-5.74017,1.79163,0,0,0,0,0,0,0,-1,671,1457,-5.74015,-1.79166
-546,-433,-6.9668,8.25073,0,0,0,0,0,0,0,-1,678,1457,-6.96679,-8.25074
-539,-433,-7.3136,8.75659,0,0,0,0,0,0,0,-1,685,1457,-7.31362,-8.75659
-532,-433,-7.83655,9.06812,0,0,0,0,0,0,0,-1,692,1457,-7.83657,-9.06808
-525,-433,-8.10309,9.56287,-0.00104652,0.000876972,0.000560679,0.00102847,-0.00119802,1.30689,0.0012867,0.0358802,699,1457,-8.10311,-9.56281
-518,-433,-8.13397,10.0222,-0.0002389,0.000653756,0.000643138,0.000990266,-0.000575409,1.08874,0.00091446,0.0164615,706,1457,-8.13397,-10.0223
-511,-433,-8.15948,10.5172,0.000443475,0.000722417,0.000829378,0.00142397,-0.000258077,0.868701,0.00104601,0.0159335,713,1457,-8.1595,-10.5172
-504,-433,-8.177,10.9971,0.00111885,0.00109534,0.00120965,0.00231681,-0.000102615,0.780541,0.00157985,0.0135921,720,1457,-8.17702,-10.9971
-497,-433,-8.18976,11.4767,0.00191378,0.00172874,0.00179351,0.00361715,2.53605e-05,0.759629,0.00240303,0.0143839,727,1457,-8.18978,-11.4767
-490,-433,-8.22528,11.9491,0.00293257,0.00267518,0.00265128,0.00545828,0.000149471,0.761147,0.00359007,0.0156895,734,1457,-8.22525,-11.9491
-483,-433,-8.2287,12.4369,0.00417956,0.00387568,0.00376824,0.00779892,0.000256325,0.765248,0.00511598,0.0158372,741,1457,-8.22871,-12.4369
-476,-433,-8.237,12.9237,0.00570926,0.00537117,0.00519092,0.0107339,0.000346548,0.769121,0.00704325,0.0108558,748,1457,-8.23701,-12.9238
-469,-433,-8.25635,13.4093,0.00766203,0.00709211,0.00698992,0.0143728,0.000381348,0.765026,0.00945731,0.0104057,755,1457,-8.25636,-13.4093
-462,-433,-8.28503,13.9208,0.0101888,0.00925386,0.00927683,0.0190099,0.000432745,0.760223,0.0125315,0.0130449,762,1457,-8.28505,-13.9207
-455,-433,-8.04962,14.6602,0,0,0,0,0,0,0,-1,769,1457,-8.04962,-14.6602
-448,-433,-6.94812,14.5563,0,0,0,0,0,0,0,-1,776,1457,-6.94809,-14.5562
-441,-433,-9.97485,14.0258,0,0,0,0,0,0,0,-1,783,1457,-9.97488,-14.0257
-434,-433,-9.41205,14.2297,0,0,0,0,0,0,0,-1,790,1457,-9.41205,-14.2297
-427,-433,-8.67419,13.6827,0,0,0,0,0,0,0,-1,797,1457,-8.67422,-13.6827
-420,-433,-5.74658,9.49121,0,0,0,0,0,0,0,-1,804,1457,-5.7466,-9.49119
-413,-433,-3.63074,5.5813,0,0,0,0,0,0,0,-1,811,1457,-3.63072,-5.58129
-406,-433,-12.3472,4.69373,0,0,0,0,0,0,0,-1,818,1457,-12.3472,-4.69374
-399,-433,-12.055,2.83594,0,0,0,0,0,0,0,-1,825,1457,-12.055,-2.83594
-392,-433,-12.9772,1.6228,0,0,0,0,0,0,0,-1,832,1457,-12.9772,-1.62282
-385,-433,-13.7999,0.514771,0,0,0,0,0,0,0,-1,839,1457,-13.7999,-0.514788
-378,-433,0,0,0,0,0,0,0,0,0,-1,846,1457,0,0
-371,-433,0,0,0,0,0,0,0,0,0,-1,853,1457,0,0
-364,-433,0,0,0,0,0,0,0,0,0,-1,860,1457,0,0
-357,-433,0,0,0,0,0,0,0,0,0,-1,867,1457,0,0
-350,-433,0,0,0,0,0,0,0,0,0,-1,874,1457,0,0
-343,-433,0,0,0,0,0,0,0,0,0,-1,881,1457,0,0
-336,-433,0,0,0,0,0,0,0,0,0,-1,888,1457,0,0
-329,-433,0,0,0,0,0,0,0,0,0,-1,895,1457,0,0
-322,-433,0,0,0,0,0,0,0,0,0,-1,902,1457,0,0
-315,-433,0,0,0,0,0,0,0,0,0,-1,909,1457,0,0
-308,-433,0,0,0,0,0,0,0,0,0,-1,916,1457,0,0
-301,-433,0,0,0,0,0,0,0,0,0,-1,923,1457,0,0
-294,-433,0,0,0,0,0,0,0,0,0,-1,930,1457,0,0
-287,-433,0,0,0,0,0,0,0,0,0,-1,937,1457,0,0
-280,-433,0,0,0,0,0,0,0,0,0,-1,944,1457,0,0
-273,-433,0,0,0,0,0,0,0,0,0,-1,951,1457,0,0
-266,-433,0,0,0,0,0,0,0,0,0,-1,958,1457,0,0
-259,-433,0,0,0,0,0,0,0,0,0,-1,965,1457,0,0
-252,-433,0,0,0,0,0,0,0,0,0,-1,972,1457,0,0
-245,-433,0,0,0,0,0,0,0,0,0,-1,979,1457,0,0
-238,-433,0,0,0,0,0,0,0,0,0,-1,986,1457,0,0
-231,-433,0,0,0,0,0,0,0,0,0,-1,993,1457,0,0
-224,-433,0,0,0,0,0,0,0,0,0,-1,1000,1457,0,0
-217,-433,0,0,0,0,0,0,0,0,0,-1,1007,1457,0,0
-210,-433,0,0,0,0,0,0,0,0,0,-1,1014,1457,0,0
-203,-433,0,0,0,0,0,0,0,0,0,-1,1021,1457,0,0
-196,-433,0,0,0,0,0,0,0,0,0,-1,1028,1457,0,0
-189,-433,0,0,0,0,0,0,0,0,0,-1,1035,1457,0,0
-182,-433,0,0,0,0,0,0,0,0,0,-1,1042,1457,0,0
-175,-433,0,0,0,0,0,0,0,0,0,-1,1049,1457,0,0
-168,-433,0,0,0,0,0,0,0,0,0,-1,1056,1457,0,0
-161,-433,0,0,0,0,0,0,0,0,0,-1,1063,1457,0,0
-154,-433,0,0,0,0,0,0,0,0,0,-1,1070,1457,0,0
-147,-433,0,0,0,0,0,0,0,0,0,-1,1077,1457,0,0
-140,-433,0,0,0,0,0,0,0,0,0,-1,1084,1457,0,0
-133,-433,0,0,0,0,0,0,0,0,0,-1,1091,1457,0,0
-126,-433,0,0,0,0,0,0,0,0,0,-1,1098,1457,0,0
-119,-433,0,0,0,0,0,0,0,0,0,-1,1105,1457,0,0
-112,-433,0,0,0,0,0,0,0,0,0,-1,1112,1457,0,0
-105,-433,0,0,0,0,0,0,0,0,0,-1,1119,1457,0,0
-98,-433,0,0,0,0,0,0,0,0,0,-1,1126,1457,0,0
-91,-433,0,0,0,0,0,0,0,0,0,-1,1133,1457,0,0
-84,-433,0,0,0,0,0,0,0,0,0,-1,1140,1457,0,0
-77,-433,0,0,0,0,0,0,0,0,0,-1,1147,1457,0,0
-70,-433,0,0,0,0,0,0,0,0,0,-1,1154,1457,0,0
-63,-433,0,0,0,0,0,0,0,0,0,-1,1161,1457,0,0
-56,-433,0,0,0,0,0,0,0,0,0,-1,1168,1457,0,0
-49,-433,0,0,0,0,0,0,0,0,0,-1,1175,1457,0,0
-42,-433,0,0,0,0,0,0,0,0,0,-1,1182,1457,0,0
-35,-433,0,0,0,0,0,0,0,0,0,-1,1189,1457,0,0
-28,-433,0,0,0,0,0,0,0,0,0,-1,1196,1457,0,0
-21,-433,0,0,0,0,0,0,0,0,0,-1,1203,1457,0,0
-14,-433,0,0,0,0,0,0,0,0,0,-1,1210,1457,0,0
-7,-433,0,0,0,0,0,0,0,0,0,-1,1217,1457,0,0
0,-433,0,0,0,0,0,0,0,0,0,-1,1224,1457,0,0
7,-433,0,0,0,0,0,0,0,0,0,-1,1231,1457,0,0
14,-433,0,0,0,0,0,0,0,0,0,-1,1238,1457,0,0
21,-433,0,0,0,0,0,0,0,0,0,-1,1245,1457,0,0
28,-433,0,0,0,0,0,0,0,0,0,-1,1252,1457,0,0
35,-433,0,0,0,0,0,0,0,0,0,-1,1259,1457,0,0
42,-433,0,0,0,0,0,0,0,0,0,-1,1266,1457,0,0
49,-433,0,0,0,0,0,0,0,0,0,-1,1273,1457,0,0
56,-433,0,0,0,0,0,0,0,0,0,-1,1280,1457,0,0
63,-433,0,0,0,0,0,0,0,0,0,-1,1287,1457,0,0
70,-433,0,0,0,0,0,0,0,0,0,-1,1294,1457,0,0
77,-433,0,0,0,0,0,0,0,0,0,-1,1301,1457,0,0
84,-433,0,0,0,0,0,0,0,0,0,-1,1308,1457,0,0
91,-433,0,0,0,0,0,0,0,0,0,-1,1315,1457,0,0
98,-433,0,0,0,0,0,0,0,0,0,-1,1322,1457,0,0
105,-433,0,0,0,0,0,0,0,0,0,-1,1329,1457,0,0
112,-433,0,0,0,0,0,0,0,0,0,-1,1336,1457,0,0
119,-433,0,0,0,0,0,0,0,0,0,-1,1343,1457,0,0
126,-433,0,0,0,0,0,0,0,0,0,-1,1350,1457,0,0
133,-433,0,0,0,0,0,0,0,0,0,-1,1357,1457,0,0
140,-433,0,0,0,0,0,0,0,0,0,-1,1364,1457,0,0
147,-433,0,0,0,0,0,0,0,0,0,-1,1371,1457,0,0
154,-433,0,0,0,0,0,0,0,0,0,-1,1378,1457,0,0
161,-433,0,0,0,0,0,0,0,0,0,-1,1385,1457,0,0
168,-433,0,0,0,0,0,0,0,0,0,-1,1392,1457,0,0
175,-433,0,0,0,0,0,0,0,0,0,-1,1399,1457,0,0
182,-433,0,0,0,0,0,0,0,0,0,-1,1406,1457,0,0
189,-433,0,0,0,0,0,0,0,0,0,-1,1413,1457,0,0
196,-433,0,0,0,0,0,0,0,0,0,-1,1420,1457,0,0
203,-433,0,0,0,0,0,0,0,0,0,-1,1427,1457,0,0
210,-433,0,0,0,0,0,0,0,0,0,-1,1434,1457,0,0
217,-433,0,0,0,0,0,0,0,0,0,-1,1441,1457,0,0
224,-433,0,0,0,0,0,0,0,0,0,-1,1448,1457,0,0
231,-433,0,0,0,0,0,0,0,0,0,-1,1455,1457,0,0
238,-433,0,0,0,0,0,0,0,0,0,-1,1462,1457,0,0
245,-433,0,0,0,0,0,0,0,0,0,-1,1469,1457,0,0
252,-433,0,0,0,0,0,0,0,0,0,-1,1476,1457,0,0
259,-433,0,0,0,0,0,0,0,0,0,-1,1483,1457,0,0
266,-433,0,0,0,0,0,0,0,0,0,-1,1490,1457,0,0
273,-433,0,0,0,0,0,0,0,0,0,-1,1497,1457,0,0
280,-433,0,0,0,0,0,0,0,0,0,-1,1504,1457,0,0
287,-433,0,0,0,0,0,0,0,0,0,-1,1511,1457,0,0
294,-433,0,0,0,0,0,0,0,0,0,-1,1518,1457,0,0
301,-433,0,0,0,0,0,0,0,0,0,-1,1525,1457,0,0
308,-433,0,0,0,0,0,0,0,0,0,-1,1532,1457,0,0
315,-433,0,0,0,0,0,0,0,0,0,-1,1539,1457,0,0
322,-433,0,0,0,0,0,0,0,0,0,-1,1546,1457,0,0
329,-433,0,0,0,0,0,0,0,0,0,-1,1553,1457,0,0
336,-433,0,0,0,0,0,0,0,0,0,-1,1560,1457,0,0
343,-433,0,0,0,0,0,0,0,0,0,-1,1567,1457,0,0
350,-433,0,0,0,0,0,0,0,0,0,-1,1574,1457,0,0
357,-433,0,0,0,0,0,0,0,0,0,-1,1581,1457,0,0
364,-433,0,0,0,0,0,0,0,0,0,-1,1588,1457,0,0
371,-433,0,0,0,0,0,0,0,0,0,-1,1595,1457,0,0
378,-433,0,0,0,0,0,0,0,0,0,-1,1602,1457,0,0
385,-433,0,0,0,0,0,0,0,0,0,-1,1609,1457,0,0
392,-433,0,0,0,0,0,0,0,0,0,-1,1616,1457,0,0
399,-433,0,0,0,0,0,0,0,0,0,-1,1623,1457,0,0
406,-433,0,0,0,0,0,0,0,0,0,-1,1630,1457,0,0
413,-433,0,0,0,0,0,0,0,0,0,-1,1637,1457,0,0
420,-433,0,0,0,0,0,0,0,0,0,-1,1644,1457,0,0
427,-433,0,0,0,0,0,0,0,0,0,-1,1651,1457,0,0
434,-433,0,0,0,0,0,0,0,0,0,-1,1658,1457,0,0
441,-433,0,0,0,0,0,0,0,0,0,-1,1665,1457,0,0
448,-433,0,0,0,0,0,0,0,0,0,-1,1672,1457,0,0
455,-433,0,0,0,0,0,0,0,0,0,-1,1679,1457,0,0
462,-433,0,0,0,0,0,0,0,0,0,-1,1686,1457,0,0
469,-433,0,0,0,0,0,0,0,0,0,-1,1693,1457,0,0
476,-433,0,0,0,0,0,0,0,0,0,-1,1700,1457,0,0
483,-433,0,0,0,0,0,0,0,0,0,-1,1707,1457,0,0
490,-433,0,0,0,0,0,0,0,0,0,-1,1714,1457,0,0
497,-433,0,0,0,0,0,0,0,0,0,-1,1721,1457,0,0
504,-433,19.9058,3.03662,0,0,0,0,0,0,0,-1,1728,1457,19.9058,-3.03656
511,-433,19.0145,3.07837,0,0,0,0,0,0,0,-1,1735,1457,19.0146,-3.07834
518,-433,18.071,3.06433,0,0,0,0,0,0,0,-1,1742,1457,18.071,-3.06432
525,-433,17.2048,3.37085,0,0,0,0,0,0,0,-1,1749,1457,17.2049,-3.37083
532,-433,16.5637,3.36646,0,0,0,0,0,0,0,-1,1756,1457,16.5637,-3.36643
539,-433,15.9193,3.30396,0,0,0,0,0,0,0,-1,1763,1457,15.9193,-3.30394
546,-433,23.1903,4.81775,0,0,0,0,0,0,0,-1,1770,1457,23.1903,-4.81775
553,-433,13.9674,11.5781,0,0,0,0,0,0,0,-1,1777,1457,13.9674,-11.5781
560,-433,13.9855,11.7341,0,0,0,0,0,0,0,-1,1784,1457,13.9855,-11.7341
567,-433,13.9264,11.3364,0,0,0,0,0,0,0,-1,1791,1457,13.9263,-11.3364
574,-433,15.5305,12.3673,0,0,0,0,0,0,0,-1,1798,1457,15.5305,-12.3673
581,-433,16.6405,12.1898,0,0,0,0,0,0,0,-1,1805,1457,16.6405,-12.1898
588,-433,22.0216,16.2769,0,0,0,0,0,0,0,-1,1812,1457,22.0217,-16.2769
595,-433,21.9966,15.5182,0.00345124,0.00364122,-0.00286525,0.00641305,0.000679411,-0.801969,0.00406785,0.0372216,1819,1457,21.9966,-15.5182
602,-433,22.0472,15.03,0.00288436,0.00269696,-0.00218354,0.00497621,0.000605114,-0.763956,0.00313529,0.0226095,1826,1457,22.0473,-15.0301
609,-433,22.068,14.567,0.00243821,0.00188601,-0.00163141,0.00381671,0.000507507,-0.701573,0.00239331,0.0159627,1833,1457,22.068,-14.567
616,-433,22.0402,14.1034,0.00201099,0.00118434,-0.00114943,0.00281915,0.000376179,-0.612803,0.00176744,0.0141096,1840,1457,22.0401,-14.1034
623,-433,22.0275,13.6398,0.00174109,0.000591517,-0.000726938,0.00209303,0.000239579,-0.450878,0.00132274,0.011206,1847,1457,22.0275,-13.6397
630,-433,22.0287,13.1869,0.00156078,3.34223e-05,-0.000383894,0.00165184,-5.76383e-05,-0.232898,0.00112094,0.0138594,1854,1457,22.0287,-13.1869
637,-433,22.0104,12.7649,0.00136825,-0.000352481,-5.69132e-05,0.00137013,-0.000354362,-0.0330269,0.00105163,0.0141895,1861,1457,22.0103,-12.7649
644,-433,21.9805,12.351,0.00130803,-0.000609377,0.000151755,0.00131997,-0.000621314,0.0784948,0.00114474,0.0146473,1868,1457,21.9805,-12.351
651,-433,21.9556,11.8755,0.00129206,-0.000697582,0.000267731,0.00132746,-0.000732978,0.131448,0.00120599,0.0116171,1875,1457,21.9555,-11.8755
658,-433,21.9301,11.3915,0.00134193,-0.000710774,0.000368157,0.00140596,-0.000774806,0.172204,0.00127652,0.0238744,1882,1457,21.9301,-11.3914
665,-433,21.9907,10.8079,0,0,0,0,0,0,0,-1,1889,1457,21.9907,-10.8079
672,-433,18.115,8.7207,0,0,0,0,0,0,0,-1,1896,1457,18.115,-8.72074
679,-433,17.2969,9.6355,0,0,0,0,0,0,0,-1,1903,1457,17.2968,-9.63548
686,-433,13.6356,8.61694,0,0,0,0,0,0,0,-1,1910,1457,13.6356,-8.61694
693,-433,13.4081,8.39624,0,0,0,0,0,0,0,-1,1917,1457,13.4081,-8.39624
700,-433,7.16809,-1.5166,0,0,0,0,0,0,0,-1,1924,1457,7.16806,1.51656
707,-433,8.68359,-2.82202,0,0,0,0,0,0,0,-1,1931,1457,8.68359,2.82197
714,-433,0,0,0,0,0,0,0,0,0,-1,1938,1457,0,0
721,-433,0,0,0,0,0,0,0,0,0,-1,1945,1457,0,0
728,-433,0,0,0,0,0,0,0,0,0,-1,1952,1457,0,0
735,-433,0,0,0,0,0,0,0,0,0,-1,1959,1457,0,0
742,-433,0,0,0,0,0,0,0,0,0,-1,1966,1457,0,0
749,-433,0,0,0,0,0,0,0,0,0,-1,1973,1457,0,0
756,-433,0,0,0,0,0,0,0,0,0,-1,1980,1457,0,0
763,-433,0,0,0,0,0,0,0,0,0,-1,1987,1457,0,0
770,-433,0,0,0,0,0,0,0,0,0,-1,1994,1457,0,0
777,-433,0,0,0,0,0,0,0,0,0,-1,2001,1457,0,0
784,-433,0,0,0,0,0,0,0,0,0,-1,2008,1457,0,0
791,-433,0,0,0,0,0,0,0,0,0,-1,2015,1457,0,0
798,-433,0,0,0,0,0,0,0,0,0,-1,2022,1457,0,0
805,-433,0,0,0,0,0,0,0,0,0,-1,2029,1457,0,0
812,-433,0,0,0,0,0,0,0,0,0,-1,2036,1457,0,0
-700,-440,0,0,0,0,0,0,0,0,0,-1,524,1464,0,0
-693,-440,0,0,0,0,0,0,0,0,0,-1,531,1464,0,0
-686,-440,0,0,0,0,0,0,0,0,0,-1,538,1464,0,0
-679,-440,0,0,0,0,0,0,0,0,0,-1,545,1464,0,0
-672,-440,0,0,0,0,0,0,0,0,0,-1,552,1464,0,0
-665,-440,0,0,0,0,0,0,0,0,0,-1,559,1464,0,0
-658,-440,0,0,0,0,0,0,0,0,0,-1,566,1464,0,0
-651,-440,0,0,0,0,0,0,0,0,0,-1,573,1464,0,0
-644,-440,0,0,0,0,0,0,0,0,0,-1,580,1464,0,0
-637,-440,0,0,0,0,0,0,0,0,0,-1,587,1464,0,0
-630,-440,0,0,0,0,0,0,0,0,0,-1,594,1464,0,0
-623,-440,0,0,0,0,0,0,0,0,0,-1,601,1464,0,0
-616,-440,0,0,0,0,0,0,0,0,0,-1,608,1464,0,0
-609,-440,0,0,0,0,0,0,0,0,0,-1,615,1464,0,0
-602,-440,0,0,0,0,0,0,0,0,0,-1,622,1464,0,0
-595,-440,0,0,0,0,0,0,0,0,0,-1,629,1464,0,0
-588,-440,0,0,0,0,0,0,0,0,0,-1,636,1464,0,0
-581,-440,-8.97278,0.254517,0,0,0,0,0,0,0,-1,643,1464,-8.97276,-0.254526
-574,-440,-7.00818,-0.918579,0,0,0,0,0,0,0,-1,650,1464,-7.00817,0.918538
-567,-440,-6.12152,-0.0766602,0,0,0,0,0,0,0,-1,657,1464,-6.12151,0.0767097
-560,-440,-5.46747,0.82251,0,0,0,0,0,0,0,-1,664,1464,-5.46748,-0.822551
-553,-440,-6.84729,0.0831299,0,0,0,0,0,0,0,-1,671,1464,-6.84732,-0.083136
-546,-440,-5.63446,-0.153198,0,0,0,0,0,0,0,-1,678,1464,-5.63447,0.153147
-539,-440,-6.80017,8.58252,0,0,0,0,0,0,0,-1,685,1464,-6.80015,-8.58257
-532,-440,-7.1405,8.61316,0,0,0,0,0,0,0,-1,692,1464,-7.14052,-8.6131
-525,-440,-7.75708,9.41614,0,0,0,0,0,0,0,-1,699,1464,-7.75706,-9.41613
-518,-440,-7.72021,9.97449,2.48464e-05,0.00104424,0.00109254,0.00174013,-0.000671043,1.00365,0.00143698,0.0206802,706,1464,-7.72023,-9.9745
-511,-440,-7.68683,10.5066,0.000541018,0.000885139,0.00105014,0.00177722,-0.000351065,0.866599,0.00131752,0.0151058,713,1464,-7.68681,-10.5066
-504,-440,-7.65704,11.0096,0.00101967,0.00105295,0.00122422,0.00226064,-0.000188019,0.792194,0.00157352,0.0190314,720,1464,-7.65702,-11.0097
-497,-440,-7.66809,11.5408,0.00160211,0.00146286,0.0015973,0.0031313,-6.63318e-05,0.763617,0.00210999,0.023305,727,1464,-7.66808,-11.5408
-490,-440,-7.69904,11.9293,0.0024136,0.00217746,0.00223997,0.00453861,5.24512e-05,0.759068,0.00300841,0.0238477,734,1464,-7.69906,-11.9293
-483,-440,-7.73499,12.3911,0.00347409,0.00312634,0.00313559,0.00644062,0.000159812,0.7577,0.00424148,0.0203207,741,1464,-7.73499,-12.3912
-476,-440,-7.75311,12.9053,0.00481026,0.00432418,0.00431048,0.00888455,0.000249897,0.757236,0.00584152,0.0129226,748,1464,-7.7531,-12.9053
-469,-440,-7.7738,13.4128,0.00649256,0.00572283,0.00582003,0.0119404,0.000274951,0.752382,0.00787024,0.0124175,755,1464,-7.77382,-13.4128
-462,-440,-7.8111,13.8992,0.0086306,0.00745108,0.00770067,0.0157641,0.000317616,0.74718,0.0104051,0.0149103,762,1464,-7.81112,-13.8991
-455,-440,-7.67633,14.5256,0.0114198,0.0095197,0.0100866,0.020601,0.00033853,0.738441,0.0136226,0.032969,769,1464,-7.67631,-14.5256
-448,-440,-7.22266,15.252,0,0,0,0,0,0,0,-1,776,1464,-7.22267,-15.252
-441,-440,-7.28583,14.7465,0,0,0,0,0,0,0,-1,783,1464,-7.28584,-14.7464
-434,-440,-8.33636,14.5024,0,0,0,0,0,0,0,-1,790,1464,-8.33638,-14.5025
-427,-440,-8.28094,14.2512,0,0,0,0,0,0,0,-1,797,1464,-8.28094,-14.2512
-420,-440,-6.86603,8.09216,0,0,0,0,0,0,0,-1,804,1464,-6.86602,-8.09222
-413,-440,-3.46796,5.72278,0,0,0,0,0,0,0,-1,811,1464,-3.46797,-5.72276
-406,-440,-5.2887,5.20264,0,0,0,0,0,0,0,-1,818,1464,-5.2887,-5.20261
-399,-440,-12.7318,3.94421,0,0,0,0,0,0,0,-1,825,1464,-12.7318,-3.94419
-392,-440,-13.5565,2.51855,0,0,0,0,0,0,0,-1,832,1464,-13.5565,-2.51861
-385,-440,-14.6741,1.39795,0,0,0,0,0,0,0,-1,839,1464,-14.6741,-1.39801
-378,-440,-15.8063,0.293457,0,0,0,0,0,0,0,-1,846,1464,-15.8063,-0.293412
-371,-440,0,0,0,0,0,0,0,0,0,-1,853,1464,0,0
-364,-440,0,0,0,0,0,0,0,0,0,-1,860,1464,0,0
-357,-440,0,0,0,0,0,0,0,0,0,-1,867,1464,0,0
-350,-440,0,0,0,0,0,0,0,0,0,-1,874,1464,0,0
-343,-440,0,0,0,0,0,0,0,0,0,-1,881,1464,0,0
-336,-440,0,0,0,0,0,0,0,0,0,-1,888,1464,0,0
-329,-440,0,0,0,0,0,0,0,0,0,-1,895,1464,0,0
-322,-440,0,0,0,0,0,0,0,0,0,-1,902,1464,0,0
-315,-440,0,0,0,0,0,0,0,0,0,-1,909,1464,0,0
-308,-440,0,0,0,0,0,0,0,0,0,-1,916,1464,0,0
-301,-440,0,0,0,0,0,0,0,0,0,-1,923,1464,0,0
-294,-440,0,0,0,0,0,0,0,0,0,-1,930,1464,0,0
-287,-440,0,0,0,0,0,0,0,0,0,-1,937,1464,0,0
-280,-440,0,0,0,0,0,0,0,0,0,-1,944,1464,0,0
-273,-440,0,0,0,0,0,0,0,0,0,-1,951,1464,0,0
-266,-440,0,0,0,0,0,0,0,0,0,-1,958,1464,0,0
-259,-440,0,0,0,0,0,0,0,0,0,-1,965,1464,0,0
-252,-440,0,0,0,0,0,0,0,0,0,-1,972,1464,0,0
-245,-440,0,0,0,0,0,0,0,0,0,-1,979,1464,0,0
-238,-440,0,0,0,0,0,0,0,0,0,-1,986,1464,0,0
-231,-440,0,0,0,0,0,0,0,0,0,-1,993,1464,0,0
-224,-440,0,0,0,0,0,0,0,0,0,-1,1000,1464,0,0
-217,-440,0,0,0,0,0,0,0,0,0,-1,1007,1464,0,0
-210,-440,0,0,0,0,0,0,0,0,0,-1,1014,1464,0,0
-203,-440,0,0,0,0,0,0,0,0,0,-1,1021,1464,0,0
-196,-440,0,0,0,0,0,0,0,0,0,-1,1028,1464,0,0
-189,-440,0,0,0,0,0,0,0,0,0,-1,1035,1464,0,0
-182,-440,0,0,0,0,0,0,0,0,0,-1,1042,1464,0,0
-175,-440,0,0,0,0,0,0,0,0,0,-1,1049,1464,0,0
-168,-440,0,0,0,0,0,0,0,0,0,-1,1056,1464,0,0
-161,-440,0,0,0,0,0,0,0,0,0,-1,1063,1464,0,0
-154,-440,0,0,0,0,0,0,0,0,0,-1,1070,1464,0,0
-147,-440,0,0,0,0,0,0,0,0,0,-1,1077,1464,0,0
-140,-440,0,0,0,0,0,0,0,0,0,-1,1084,1464,0,0
-133,-440,0,0,0,0,0,0,0,0,0,-1,1091,1464,0,0
-126,-440,0,0,0,0,0,0,0,0,0,-1,1098,1464,0,0
-119,-440,0,0,0,0,0,0,0,0,0,-1,1105,1464,0,0
-112,-440,0,0,0,0,0,0,0,0,0,-1,1112,1464,0,0
-105,-440,0,0,0,0,0,0,0,0,0,-1,1119,1464,0,0
-98,-440,0,0,0,0,0,0,0,0,0,-1,1126,1464,0,0
-91,-440,0,0,0,0,0,0,0,0,0,-1,1133,1464,0,0
-84,-440,0,0,0,0,0,0,0,0,0,-1,1140,1464,0,0
-77,-440,0,0,0,0,0,0,0,0,0,-1,1147,1464,0,0
-70,-440,0,0,0,0,0,0,0,0,0,-1,1154,1464,0,0
-63,-440,0,0,0,0,0,0,0,0,0,-1,1161,1464,0,0
-56,-440,0,0,0,0,0,0,0,0,0,-1,1168,1464,0,0
-49,-440,0,0,0,0,0,0,0,0,0,-1,1175,1464,0,0
-42,-440,0,0,0,0,0,0,0,0,0,-1,1182,1464,0,0
-35,-440,0,0,0,0,0,0,0,0,0,-1,1189,1464,0,0
-28,-440,0,0,0,0,0,0,0,0,0,-1,1196,1464,0,0
-21,-440,0,0,0,0,0,0,0,0,0,-1,1203,1464,0,0
-14,-440,0,0,0,0,0,0,0,0,0,-1,1210,1464,0,0
-7,-440,0,0,0,0,0,0,0,0,0,-1,1217,1464,0,0
0,-440,0,0,0,0,0,0,0,0,0,-1,1224,1464,0,0
7,-440,0,0,0,0,0,0,0,0,0,-1,1231,1464,0,0
14,-440,0,0,0,0,0,0,0,0,0,-1,1238,1464,0,0
21,-440,0,0,0,0,0,0,0,0,0,-1,1245,1464,0,0
28,-440,0,0,0,0,0,0,0,0,0,-1,1252,1464,0,0
35,-440,0,0,0,0,0,0,0,0,0,-1,1259,1464,0,0
42,-440,0,0,0,0,0,0,0,0,0,-1,1266,1464,0,0
49,-440,0,0,0,0,0,0,0,0,0,-1,1273,1464,0,0
56,-440,0,0,0,0,0,0,0,0,0,-1,1280,1464,0,0
63,-440,0,0,0,0,0,0,0,0,0,-1,1287,1464,0,0
70,-440,0,0,0,0,0,0,0,0,0,-1,1294,1464,0,0
77,-440,0,0,0,0,0,0,0,0,0,-1,1301,1464,0,0
84,-440,0,0,0,0,0,0,0,0,0,-1,1308,1464,0,0
91,-440,0,0,0,0,0,0,0,0,0,-1,1315,1464,0,0
98,-440,0,0,0,0,0,0,0,0,0,-1,1322,1464,0,0
105,-440,0,0,0,0,0,0,0,0,0,-1,1329,1464,0,0
112,-440,0,0,0,0,0,0,0,0,0,-1,1336,1464,0,0
119,-440,0,0,0,0,0,0,0,0,0,-1,1343,1464,0,0
126,-440,0,0,0,0,0,0,0,0,0,-1,1350,1464,0,0
133,-440,0,0,0,0,0,0,0,0,0,-1,1357,1464,0,0
140,-440,0,0,0,0,0,0,0,0,0,-1,1364,1464,0,0
147,-440,0,0,0,0,0,0,0,0,0,-1,1371,1464,0,0
154,-440,0,0,0,0,0,0,0,0,0,-1,1378,1464,0,0
161,-440,0,0,0,0,0,0,0,0,0,-1,1385,1464,0,0
168,-440,0,0,0,0,0,0,0,0,0,-1,1392,1464,0,0
175,-440,0,0,0,0,0,0,0,0,0,-1,1399,1464,0,0
182,-440,0,0,0,0,0,0,0,0,0,-1,1406,1464,0,0
189,-440,0,0,0,0,0,0,0,0,0,-1,1413,1464,0,0
196,-440,0,0,0,0,0,0,0,0,0,-1,1420,1464,0,0
203,-440,0,0,0,0,0,0,0,0,0,-1,1427,1464,0,0
210,-440,0,0,0,0,0,0,0,0,0,-1,1434,1464,0,0
217,-440,0,0,0,0,0,0,0,0,0,-1,1441,1464,0,0
224,-440,0,0,0,0,0,0,0,0,0,-1,1448,1464,0,0
231,-440,0,0,0,0,0,0,0,0,0,-1,1455,1464,0,0
238,-440,0,0,0,0,0,0,0,0,0,-1,1462,1464,0,0
245,-440,0,0,0,0,0,0,0,0,0,-1,1469,1464,0,0
252,-440,0,0,0,0,0,0,0,0,0,-1,1476,1464,0,0
259,-440,0,0,0,0,0,0,0,0,0,-1,1483,1464,0,0
266,-440,0,0,0,0,0,0,0,0,0,-1,1490,1464,0,0
273,-440,0,0,0,0,0,0,0,0,0,-1,1497,1464,0,0
280,-440,0,0,0,0,0,0,0,0,0,-1,1504,1464,0,0
287,-440,0,0,0,0,0,0,0,0,0,-1,1511,1464,0,0
294,-440,0,0,0,0,0,0,0,0,0,-1,1518,1464,0,0
301,-440,0,0,0,0,0,0,0,0,0,-1,1525,1464,0,0
308,-440,0,0,0,0,0,0,0,0,0,-1,1532,1464,0,0
315,-440,0,0,0,0,0,0,0,0,0,-1,1539,1464,0,0
322,-440,0,0,0,0,0,0,0,0,0,-1,1546,1464,0,0
329,-440,0,0,0,0,0,0,0,0,0,-1,1553,1464,0,0
336,-440,0,0,0,0,0,0,0,0,0,-1,1560,1464,0,0
343,-440,0,0,0,0,0,0,0,0,0,-1,1567,1464,0,0
350,-440,0,0,0,0,0,0,0,0,0,-1,1574,1464,0,0
357,-440,0,0,0,0,0,0,0,0,0,-1,1581,1464,0,0
364,-440,0,0,0,0,0,0,0,0,0,-1,1588,1464,0,0
371,-440,0,0,0,0,0,0,0,0,0,-1,1595,1464,0,0
378,-440,0,0,0,0,0,0,0,0,0,-1,1602,1464,0,0
385,-440,0,0,0,0,0,0,0,0,0,-1,1609,1464,0,0
392,-440,0,0,0,0,0,0,0,0,0,-1,1616,1464,0,0
399,-440,0,0,0,0,0,0,0,0,0,-1,1623,1464,0,0
406,-440,0,0,0,0,0,0,0,0,0,-1,1630,1464,0,0
413,-440,0,0,0,0,0,0,0,0,0,-1,1637,1464,0,0
420,-440,0,0,0,0,0,0,0,0,0,-1,1644,1464,0,0
427,-440,0,0,0,0,0,0,0,0,0,-1,1651,1464,0,0
434,-440,0,0,0,0,0,0,0,0,0,-1,1658,1464,0,0
441,-440,0,0,0,0,0,0,0,0,0,-1,1665,1464,0,0
448,-440,0,0,0,0,0,0,0,0,0,-1,1672,1464,0,0
455,-440,0,0,0,0,0,0,0,0,0,-1,1679,1464,0,0
462,-440,0,0,0,0,0,0,0,0,0,-1,1686,1464,0,0
469,-440,0,0,0,0,0,0,0,0,0,-1,1693,1464,0,0
476,-440,0,0,0,0,0,0,0,0,0,-1,1700,1464,0,0
483,-440,0,0,0,0,0,0,0,0,0,-1,1707,1464,0,0
490,-440,0,0,0,0,0,0,0,0,0,-1,1714,1464,0,0
497,-440,16.965,-0.528442,0,0,0,0,0,0,0,-1,1721,1464,16.965,0.528492
504,-440,15.8052,0.670166,0,0,0,0,0,0,0,-1,1728,1464,15.8052,-0.670145
511,-440,17.5754,2.77832,0,0,0,0,0,0,0,-1,1735,1464,17.5754,-2.77826
518,-440,16.9017,3.07861,0,0,0,0,0,0,0,-1,1742,1464,16.9018,-3.07859
525,-440,18.4495,12.0867,0,0,0,0,0,0,0,-1,1749,1464,18.4495,-12.0867
532,-440,15.4319,3.64392,0,0,0,0,0,0,0,-1,1756,1464,15.4318,-3.64391
539,-440,14.8214,3.41321,0,0,0,0,0,0,0,-1,1763,1464,14.8214,-3.4132
546,-440,14.8651,10.7683,0,0,0,0,0,0,0,-1,1770,1464,14.8651,-10.7683
553,-440,15.1213,11.4121,0,0,0,0,0,0,0,-1,1777,1464,15.1213,-11.4121
560,-440,17.4325,12.5394,0,0,0,0,0,0,0,-1,1784,1464,17.4325,-12.5394
567,-440,16.9025,12.4249,0,0,0,0,0,0,0,-1,1791,1464,16.9025,-12.425
574,-440,19.2841,14.8679,0,0,0,0,0,0,0,-1,1798,1464,19.2841,-14.868
581,-440,21.4781,16.861,0,0,0,0,0,0,0,-1,1805,1464,21.4781,-16.8609
588,-440,21.517,15.9712,0.00381826,0.0037329,-0.0027837,0.0065596,0.000991559,-0.777732,0.00408288,0.048312,1812,1464,21.517,-15.9712
595,-440,21.5427,15.4889,0.00318537,0.00303686,-0.00241267,0.00552493,0.000697298,-0.770014,0.00347426,0.0225616,1819,1464,21.5427,-15.4889
602,-440,21.6237,15.0068,0.00271584,0.00221246,-0.00185389,0.00433505,0.000593257,-0.717928,0.00271398,0.0188045,1826,1464,21.6237,-15.0068
609,-440,21.6202,14.5811,0.00231723,0.00147015,-0.00133041,0.00328989,0.000497485,-0.631296,0.00204768,0.0161105,1833,1464,21.6202,-14.581
616,-440,21.6057,14.1467,0.00197311,0.000859844,-0.000890444,0.00246658,0.000366366,-0.506057,0.00153689,0.0170943,1840,1464,21.6057,-14.1468
623,-440,21.5879,13.6655,0.00178915,0.000311154,-0.000489335,0.00193648,0.000163831,-0.292437,0.00123999,0.0132581,1847,1464,21.5879,-13.6655
630,-440,21.5726,13.1841,0.00168461,-0.000226062,-0.000149059,0.00169617,-0.000237621,-0.0773896,0.00121774,0.0112651,1854,1464,21.5726,-13.1841
637,-440,21.5623,12.7919,0.00156537,-0.000588659,0.000166896,0.00157823,-0.000601513,0.0768692,0.00129991,0.0157511,1861,1464,21.5623,-12.7918
644,-440,21.558,12.3798,0.00156147,-0.000828106,0.000366425,0.00161639,-0.000883032,0.14879,0.0014636,0.0146194,1868,1464,21.558,-12.3798
651,-440,21.5736,11.8762,0.00161273,-0.000911711,0.000485022,0.00170271,-0.00100169,0.183433,0.00157877,0.0180933,1875,1464,21.5736,-11.8762
658,-440,21.377,11.5437,0.00174773,-0.000945312,0.000599858,0.0018753,-0.00107288,0.209547,0.00172302,0.0421083,1882,1464,21.377,-11.5436
665,-440,21.2595,10.9653,0,0,0,0,0,0,0,-1,1889,1464,21.2595,-10.9653
672,-440,18.9385,9.6394,0,0,0,0,0,0,0,-1,1896,1464,18.9384,-9.63939
679,-440,16.9508,10.2336,0,0,0,0,0,0,0,-1,1903,1464,16.9508,-10.2337
686,-440,15.2556,8.44177,0,0,0,0,0,0,0,-1,1910,1464,15.2556,-8.44177
693,-440,9.88635,2.89795,0,0,0,0,0,0,0,-1,1917,1464,9.88638,-2.89798
700,-440,7.07825,-2.62061,0,0,0,0,0,0,0,-1,1924,1464,7.07829,2.62057
707,-440,0,0,0,0,0,0,0,0,0,-1,1931,1464,0,0
714,-440,0,0,0,0,0,0,0,0,0,-1,1938,1464,0,0
721,-440,0,0,0,0,0,0,0,0,0,-1,1945,1464,0,0
728,-440,0,0,0,0,0,0,0,0,0,-1,1952,1464,0,0
735,-440,0,0,0,0,0,0,0,0,0,-1,1959,1464,0,0
742,-440,0,0,0,0,0,0,0,0,0,-1,1966,1464,0,0
749,-440,0,0,0,0,0,0,0,0,0,-1,1973,1464,0,0
756,-440,0,0,0,0,0,0,0,0,0,-1,1980,1464,0,0
763,-440,0,0,0,0,0,0,0,0,0,-1,1987,1464,0,0
770,-440,0,0,0,0,0,0,0,0,0,-1,1994,1464,0,0
777,-440,0,0,0,0,0,0,0,0,0,-1,2001,1464,0,0
784,-440,0,0,0,0,0,0,0,0,0,-1,2008,1464,0,0
791,-440,0,0,0,0,0,0,0,0,0,-1,2015,1464,0,0
798,-440,0,0,0,0,0,0,0,0,0,-1,2022,1464,0,0
805,-440,0,0,0,0,0,0,0,0,0,-1,2029,1464,0,0
812,-440,0,0,0,0,0,0,0,0,0,-1,2036,1464,0,0
-700,-447,0,0,0,0,0,0,0,0,0,-1,524,1471,0,0
-693,-447,0,0,0,0,0,0,0,0,0,-1,531,1471,0,0
-686,-447,0,0,0,0,0,0,0,0,0,-1,538,1471,0,0
-679,-447,0,0,0,0,0,0,0,0,0,-1,545,1471,0,0
-672,-447,0,0,0,0,0,0,0,0,0,-1,552,1471,0,0
-665,-447,0,0,0,0,0,0,0,0,0,-1,559,1471,0,0
-658,-447,0,0,0,0,0,0,0,0,0,-1,566,1471,0,0
-651,-447,0,0,0,0,0,0,0,0,0,-1,573,1471,0,0
-644,-447,0,0,0,0,0,0,0,0,0,-1,580,1471,0,0
-637,-447,0,0,0,0,0,0,0,0,0,-1,587,1471,0,0
-630,-447,0,0,0,0,0,0,0,0,0,-1,594,1471,0,0
-623,-447,0,0,0,0,0,0,0,0,0,-1,601,1471,0,0
-616,-447,0,0,0,0,0,0,0,0,0,-1,608,1471,0,0
-609,-447,0,0,0,0,0,0,0,0,0,-1,615,1471,0,0
-602,-447,0,0,0,0,0,0,0,0,0,-1,622,1471,0,0
-595,-447,0,0,0,0,0,0,0,0,0,-1,629,1471,0,0
-588,-447,0,0,0,0,0,0,0,0,0,-1,636,1471,0,0
-581,-447,-7.06482,-1.50476,0,0,0,0,0,0,0,-1,643,1471,-7.0648,1.50474
-574,-447,-6.88092,-0.00585938,0,0,0,0,0,0,0,-1,650,1471,-6.88095,0.00589852
-567,-447,-6.8205,-1.32178,0,0,0,0,0,0,0,-1,657,1471,-6.82047,1.32172
-560,-447,-8.85748,2.80774,0,0,0,0,0,0,0,-1,664,1471,-8.85748,-2.80775
-553,-447,-7.60486,3.26794,0,0,0,0,0,0,0,-1,671,1471,-7.60487,-3.26799
-546,-447,-3.94501,1.8656,0,0,0,0,0,0,0,-1,678,1471,-3.945,-1.86554
-539,-447,-5.35492,4.50024,0,0,0,0,0,0,0,-1,685,1471,-5.35492,-4.50018
-532,-447,-6.12781,8.81091,0,0,0,0,0,0,0,-1,692,1471,-6.12781,-8.81094
-525,-447,-7.02698,9.54944,0,0,0,0,0,0,0,-1,699,1471,-7.02696,-9.54944
-518,-447,-7.25885,9.87305,0,0,0,0,0,0,0,-1,706,1471,-7.25885,-9.87304
-511,-447,-7.21179,10.4806,0.000801881,0.000961583,0.00142305,0.00230702,-0.000543553,0.813425,0.0017476,0.0194015,713,1471,-7.21177,-10.4806
-504,-447,-7.17804,11.0385,0.001028,0.00090016,0.00134116,0.00230676,-0.000378598,0.761586,0.00167833,0.0206304,720,1471,-7.17807,-11.0385
-497,-447,-7.17725,11.5819,0.00134673,0.0010866,0.00146127,0.00268371,-0.000250383,0.74101,0.00187818,0.0260354,727,1471,-7.17723,-11.582
-490,-447,-7.14044,11.9613,0.00193123,0.00159319,0.0018715,0.00364133,-0.000116906,0.740365,0.00246744,0.0264117,734,1471,-7.14042,-11.9613
-483,-447,-7.25562,12.3781,0.00280652,0.00235007,0.00255226,0.00514074,1.58462e-05,0.740806,0.00342189,0.0235526,741,1471,-7.25563,-12.3781
-476,-447,-7.2666,12.8895,0.00396116,0.00334086,0.00350269,0.0071674,0.000134613,0.74124,0.00473404,0.0136205,748,1471,-7.26659,-12.8895
-469,-447,-7.2782,13.4069,0.0054296,0.00452814,0.0047586,0.00975878,0.00019897,0.73818,0.00644055,0.0130983,755,1471,-7.27819,-13.4068
-462,-447,-7.29327,13.9271,0.00727115,0.00597852,0.00630976,0.0129676,0.000282061,0.734361,0.0085526,0.0123626,762,1471,-7.29328,-13.9271
-455,-447,-7.33057,14.4374,0.00962645,0.00768831,0.00825229,0.0169664,0.000348384,0.72695,0.0111966,0.0180315,769,1471,-7.33058,-14.4374
-448,-447,-7.1488,15.0811,0.0130022,0.00988081,0.011101,0.0226517,0.000231285,0.715561,0.0150246,0.0395407,776,1471,-7.14882,-15.0811
-441,-447,-6.88989,15.8492,0,0,0,0,0,0,0,-1,783,1471,-6.88991,-15.8492
-434,-447,-7.43402,15.6273,0,0,0,0,0,0,0,-1,790,1471,-7.43404,-15.6274
-427,-447,-7.21832,14.691,0,0,0,0,0,0,0,-1,797,1471,-7.21834,-14.6911
-420,-447,-8.0545,12.8055,0,0,0,0,0,0,0,-1,804,1471,-8.05452,-12.8055
-413,-447,-4.27393,6.59705,0,0,0,0,0,0,0,-1,811,1471,-4.27392,-6.59707
-406,-447,-1.04279,6.18591,0,0,0,0,0,0,0,-1,818,1471,-1.04276,-6.18586
-399,-447,0.0134888,0.687622,0,0,0,0,0,0,0,-1,825,1471,0.0134841,-0.68767
-392,-447,-14.0646,3.76147,0,0,0,0,0,0,0,-1,832,1471,-14.0646,-3.7615
-385,-447,-15.1695,2.61865,0,0,0,0,0,0,0,-1,839,1471,-15.1695,-2.61871
-378,-447,-15.9424,1.49316,0,0,0,0,0,0,0,-1,846,1471,-15.9424,-1.49313
-371,-447,-17.3655,0.73291,0,0,0,0,0,0,0,-1,853,1471,-17.3655,-0.732946
-364,-447,0,0,0,0,0,0,0,0,0,-1,860,1471,0,0
-357,-447,0,0,0,0,0,0,0,0,0,-1,867,1471,0,0
-350,-447,0,0,0,0,0,0,0,0,0,-1,874,1471,0,0
-343,-447,0,0,0,0,0,0,0,0,0,-1,881,1471,0,0
-336,-447,0,0,0,0,0,0,0,0,0,-1,888,1471,0,0
-329,-447,0,0,0,0,0,0,0,0,0,-1,895,1471,0,0
-322,-447,0,0,0,0,0,0,0,0,0,-1,902,1471,0,0
-315,-447,0,0,0,0,0,0,0,0,0,-1,909,1471,0,0
-308,-447,0,0,0,0,0,0,0,0,0,-1,916,1471,0,0
-301,-447,0,0,0,0,0,0,0,0,0,-1,923,1471,0,0
-294,-447,0,0,0,0,0,0,0,0,0,-1,930,1471,0,0
-287,-447,0,0,0,0,0,0,0,0,0,-1,937,1471,0,0
-280,-447,0,0,0,0,0,0,0,0,0,-1,944,1471,0,0
-273,-447,0,0,0,0,0,0,0,0,0,-1,951,1471,0,0
-266,-447,0,0,0,0,0,0,0,0,0,-1,958,1471,0,0
-259,-447,0,0,0,0,0,0,0,0,0,-1,965,1471,0,0
-252,-447,0,0,0,0,0,0,0,0,0,-1,972,1471,0,0
-245,-447,0,0,0,0,0,0,0,0,0,-1,979,1471,0,0
-238,-447,0,0,0,0,0,0,0,0,0,-1,986,1471,0,0
-231,-447,0,0,0,0,0,0,0,0,0,-1,993,1471,0,0
-224,-447,0,0,0,0,0,0,0,0,0,-1,1000,1471,0,0
-217,-447,0,0,0,0,0,0,0,0,0,-1,1007,1471,0,0
-210,-447,0,0,0,0,0,0,0,0,0,-1,1014,1471,0,0
-203,-447,0,0,0,0,0,0,0,0,0,-1,1021,1471,0,0
-196,-447,0,0,0,0,0,0,0,0,0,-1,1028,1471,0,0
-189,-447,0,0,0,0,0,0,0,0,0,-1,1035,1471,0,0
-182,-447,0,0,0,0,0,0,0,0,0,-1,1042,1471,0,0
-175,-447,0,0,0,0,0,0,0,0,0,-1,1049,1471,0,0
-168,-447,0,0,0,0,0,0,0,0,0,-1,1056,1471,0,0
-161,-447,0,0,0,0,0,0,0,0,0,-1,1063,1471,0,0
-154,-447,0,0,0,0,0,0,0,0,0,-1,1070,1471,0,0
-147,-447,0,0,0,0,0,0,0,0,0,-1,1077,1471,0,0
-140,-447,0,0,0,0,0,0,0,0,0,-1,1084,1471,0,0
-133,-447,0,0,0,0,0,0,0,0,0,-1,1091,1471,0,0
-126,-447,0,0,0,0,0,0,0,0,0,-1,1098,1471,0,0
-119,-447,0,0,0,0,0,0,0,0,0,-1,1105,1471,0,0
-112,-447,0,0,0,0,0,0,0,0,0,-1,1112,1471,0,0
-105,-447,0,0,0,0,0,0,0,0,0,-1,1119,1471,0,0
-98,-447,0,0,0,0,0,0,0,0,0,-1,1126,1471,0,0
-91,-447,0,0,0,0,0,0,0,0,0,-1,1133,1471,0,0
-84,-447,0,0,0,0,0,0,0,0,0,-1,1140,1471,0,0
-77,-447,0,0,0,0,0,0,0,0,0,-1,1147,1471,0,0
-70,-447,0,0,0,0,0,0,0,0,0,-1,1154,1471,0,0
-63,-447,0,0,0,0,0,0,0,0,0,-1,1161,1471,0,0
-56,-447,0,0,0,0,0,0,0,0,0,-1,1168,1471,0,0
-49,-447,0,0,0,0,0,0,0,0,0,-1,1175,1471,0,0
-42,-447,0,0,0,0,0,0,0,0,0,-1,1182,1471,0,0
-35,-447,0,0,0,0,0,0,0,0,0,-1,1189,1471,0,0
-28,-447,0,0,0,0,0,0,0,0,0,-1,1196,1471,0,0
-21,-447,0,0,0,0,0,0,0,0,0,-1,1203,1471,0,0
-14,-447,0,0,0,0,0,0,0,0,0,-1,1210,1471,0,0
-7,-447,0,0,0,0,0,0,0,0,0,-1,1217,1471,0,0
0,-447,0,0,0,0,0,0,0,0,0,-1,1224,1471,0,0
7,-447,0,0,0,0,0,0,0,0,0,-1,1231,1471,0,0
14,-447,0,0,0,0,0,0,0,0,0,-1,1238,1471,0,0
21,-447,0,0,0,0,0,0,0,0,0,-1,1245,1471,0,0
28,-447,0,0,0,0,0,0,0,0,0,-1,1252,1471,0,0
35,-447,0,0,0,0,0,0,0,0,0,-1,1259,1471,0,0
42,-447,0,0,0,0,0,0,0,0,0,-1,1266,1471,0,0
49,-447,0,0,0,0,0,0,0,0,0,-1,1273,1471,0,0
56,-447,0,0,0,0,0,0,0,0,0,-1,1280,1471,0,0
63,-447,0,0,0,0,0,0,0,0,0,-1,1287,1471,0,0
70,-447,0,0,0,0,0,0,0,0,0,-1,1294,1471,0,0
77,-447,0,0,0,0,0,0,0,0,0,-1,1301,1471,0,0
84,-447,0,0,0,0,0,0,0,0,0,-1,1308,1471,0,0
91,-447,0,0,0,0,0,0,0,0,0,-1,1315,1471,0,0
98,-447,0,0,0,0,0,0,0,0,0,-1,1322,1471,0,0
105,-447,0,0,0,0,0,0,0,0,0,-1,1329,1471,0,0
112,-447,0,0,0,0,0,0,0,0,0,-1,1336,1471,0,0
119,-447,0,0,0,0,0,0,0,0,0,-1,1343,1471,0,0
126,-447,0,0,0,0,0,0,0,0,0,-1,1350,1471,0,0
133,-447,0,0,0,0,0,0,0,0,0,-1,1357,1471,0,0
140,-447,0,0,0,0,0,0,0,0,0,-1,1364,1471,0,0
147,-447,0,0,0,0,0,0,0,0,0,-1,1371,1471,0,0
154,-447,0,0,0,0,0,0,0,0,0,-1,1378,1471,0,0
161,-447,0,0,0,0,0,0,0,0,0,-1,1385,1471,0,0
168,-447,0,0,0,0,0,0,0,0,0,-1,1392,1471,0,0
175,-447,0,0,0,0,0,0,0,0,0,-1,1399,1471,0,0
182,-447,0,0,0,0,0,0,0,0,0,-1,1406,1471,0,0
189,-447,0,0,0,0,0,0,0,0,0,-1,1413,1471,0,0
196,-447,0,0,0,0,0,0,0,0,0,-1,1420,1471,0,0
203,-447,0,0,0,0,0,0,0,0,0,-1,1427,1471,0,0
210,-447,0,0,0,0,0,0,0,0,0,-1,1434,1471,0,0
217,-447,0,0,0,0,0,0,0,0,0,-1,1441,1471,0,0
224,-447,0,0,0,0,0,0,0,0,0,-1,1448,1471,0,0
231,-447,0,0,0,0,0,0,0,0,0,-1,1455,1471,0,0
238,-447,0,0,0,0,0,0,0,0,0,-1,1462,1471,0,0
245,-447,0,0,0,0,0,0,0,0,0,-1,1469,1471,0,0
252,-447,0,0,0,0,0,0,0,0,0,-1,1476,1471,0,0
259,-447,0,0,0,0,0,0,0,0,0,-1,1483,1471,0,0
266,-447,0,0,0,0,0,0,0,0,0,-1,1490,1471,0,0
273,-447,0,0,0,0,0,0,0,0,0,-1,1497,1471,0,0
280,-447,0,0,0,0,0,0,0,0,0,-1,1504,1471,0,0
287,-447,0,0,0,0,0,0,0,0,0,-1,1511,1471,0,0
294,-447,0,0,0,0,0,0,0,0,0,-1,1518,1471,0,0
301,-447,0,0,0,0,0,0,0,0,0,-1,1525,1471,0,0
308,-447,0,0,0,0,0,0,0,0,0,-1,1532,1471,0,0
315,-447,0,0,0,0,0,0,0,0,0,-1,1539,1471,0,0
322,-447,0,0,0,0,0,0,0,0,0,-1,1546,1471,0,0
329,-447,0,0,0,0,0,0,0,0,0,-1,1553,1471,0,0
336,-447,0,0,0,0,0,0,0,0,0,-1,1560,1471,0,0
343,-447,0,0,0,0,0,0,0,0,0,-1,1567,1471,0,0
350,-447,0,0,0,0,0,0,0,0,0,-1,1574,1471,0,0
357,-447,0,0,0,0,0,0,0,0,0,-1,1581,1471,0,0
364,-447,0,0,0,0,0,0,0,0,0,-1,1588,1471,0,0
371,-447,0,0,0,0,0,0,0,0,0,-1,1595,1471,0,0
378,-447,0,0,0,0,0,0,0,0,0,-1,1602,1471,0,0
385,-447,0,0,0,0,0,0,0,0,0,-1,1609,1471,0,0
392,-447,0,0,0,0,0,0,0,0,0,-1,1616,1471,0,0
399,-447,0,0,0,0,0,0,0,0,0,-1,1623,1471,0,0
406,-447,0,0,0,0,0,0,0,0,0,-1,1630,1471,0,0
413,-447,0,0,0,0,0,0,0,0,0,-1,1637,1471,0,0
420,-447,0,0,0,0,0,0,0,0,0,-1,1644,1471,0,0
427,-447,0,0,0,0,0,0,0,0,0,-1,1651,1471,0,0
434,-447,0,0,0,0,0,0,0,0,0,-1,1658,1471,0,0
441,-447,0,0,0,0,0,0,0,0,0,-1,1665,1471,0,0
448,-447,0,0,0,0,0,0,0,0,0,-1,1672,1471,0,0
455,-447,0,0,0,0,0,0,0,0,0,-1,1679,1471,0,0
462,-447,0,0,0,0,0,0,0,0,0,-1,1686,1471,0,0
469,-447,0,0,0,0,0,0,0,0,0,-1,1693,1471,0,0
476,-447,0,0,0,0,0,0,0,0,0,-1,1700,1471,0,0
483,-447,0,0,0,0,0,0,0,0,0,-1,1707,1471,0,0
490,-447,18.2214,-0.810303,0,0,0,0,0,0,0,-1,1714,1471,18.2215,0.810307
497,-447,17.0237,0.352417,0,0,0,0,0,0,0,-1,1721,1471,17.0237,-0.352442
504,-447,15.8998,1.53479,0,0,0,0,0,0,0,-1,1728,1471,15.8997,-1.53478
511,-447,14.7201,2.76111,0,0,0,0,0,0,0,-1,1735,1471,14.7201,-2.76107
518,-447,17.7618,13.2864,0,0,0,0,0,0,0,-1,1742,1471,17.7619,-13.2863
525,-447,17.1191,11.9014,0,0,0,0,0,0,0,-1,1749,1471,17.1191,-11.9013
532,-447,16.3959,10.0455,0,0,0,0,0,0,0,-1,1756,1471,16.3959,-10.0456
539,-447,14.1699,10.0204,0,0,0,0,0,0,0,-1,1763,1471,14.1699,-10.0204
546,-447,16.3715,11.8046,0,0,0,0,0,0,0,-1,1770,1471,16.3714,-11.8046
553,-447,17.5106,13.4012,0,0,0,0,0,0,0,-1,1777,1471,17.5107,-13.4012
560,-447,17.0187,13.168,0,0,0,0,0,0,0,-1,1784,1471,17.0187,-13.168
567,-447,18.9286,15.1703,0,0,0,0,0,0,0,-1,1791,1471,18.9286,-15.1703
574,-447,21.0109,17.1075,0,0,0,0,0,0,0,-1,1798,1471,21.0109,-17.1075
581,-447,21.0941,16.5728,0.00390976,0.00375939,-0.00246773,0.00630345,0.0013657,-0.77017,0.00382913,0.0355385,1805,1471,21.0941,-16.5728
588,-447,21.1555,15.9338,0.00336541,0.0030527,-0.00220714,0.00542173,0.000996381,-0.750037,0.00333239,0.0198506,1812,1471,21.1555,-15.9339
595,-447,21.1488,15.4629,0.00295604,0.00247948,-0.00196515,0.00469731,0.00073821,-0.725066,0.00291677,0.012593,1819,1471,21.1488,-15.4629
602,-447,21.157,14.9932,0.00256056,0.00175475,-0.00152061,0.00373074,0.000584579,-0.655892,0.00231701,0.0107837,1826,1471,21.157,-14.9931
609,-447,21.1687,14.5758,0.00220727,0.00108429,-0.00105325,0.00283935,0.000452215,-0.540508,0.00176162,0.0122982,1833,1471,21.1687,-14.5758
616,-447,21.1801,14.1429,0.00194263,0.000548858,-0.000665493,0.00220935,0.000282141,-0.38118,0.00138844,0.0149095,1840,1471,21.1801,-14.143
623,-447,21.1646,13.6885,0.0018407,3.55431e-05,-0.000288627,0.00188573,-9.48232e-06,-0.154752,0.00126032,0.0165101,1847,1471,21.1646,-13.6884
630,-447,21.1423,13.2322,0.00181121,-0.000476577,5.33126e-05,0.00181246,-0.000477818,0.0232863,0.00139512,0.00979303,1854,1471,21.1424,-13.2322
637,-447,21.139,12.7939,0.00177608,-0.000805963,0.000357104,0.00182455,-0.000854442,0.13493,0.00158016,0.010235,1861,1471,21.1391,-12.7939
644,-447,21.1436,12.3682,0.00183541,-0.00101898,0.000543345,0.00193534,-0.0011189,0.181883,0.00178425,0.0113908,1868,1471,21.1435,-12.3681
651,-447,21.1569,11.9025,0.00196408,-0.00109628,0.000674215,0.00210603,-0.00123823,0.20751,0.00195235,0.0450821,1875,1471,21.1569,-11.9025
658,-447,21.2869,11.3521,0,0,0,0,0,0,0,-1,1882,1471,21.2869,-11.3521
665,-447,18.4946,9.79919,0,0,0,0,0,0,0,-1,1889,1471,18.4946,-9.79922
672,-447,18.9784,9.66077,0,0,0,0,0,0,0,-1,1896,1471,18.9784,-9.66081
679,-447,14.844,7.4248,0,0,0,0,0,0,0,-1,1903,1471,14.844,-7.42477
686,-447,9.81079,4.30859,0,0,0,0,0,0,0,-1,1910,1471,9.8108,-4.30864
693,-447,10.48,2.08643,0,0,0,0,0,0,0,-1,1917,1471,10.48,-2.08642
700,-447,0,0,0,0,0,0,0,0,0,-1,1924,1471,0,0
707,-447,0,0,0,0,0,0,0,0,0,-1,1931,1471,0,0
714,-447,0,0,0,0,0,0,0,0,0,-1,1938,1471,0,0
721,-447,0,0,0,0,0,0,0,0,0,-1,1945,1471,0,0
728,-447,0,0,0,0,0,0,0,0,0,-1,1952,1471,0,0
735,-447,0,0,0,0,0,0,0,0,0,-1,1959,1471,0,0
742,-447,0,0,0,0,0,0,0,0,0,-1,1966,1471,0,0
749,-447,0,0,0,0,0,0,0,0,0,-1,1973,1471,0,0
756,-447,0,0,0,0,0,0,0,0,0,-1,1980,1471,0,0
763,-447,0,0,0,0,0,0,0,0,0,-1,1987,1471,0,0
770,-447,0,0,0,0,0,0,0,0,0,-1,1994,1471,0,0
777,-447,0,0,0,0,0,0,0,0,0,-1,2001,1471,0,0
784,-447,0,0,0,0,0,0,0,0,0,-1,2008,1471,0,0
791,-447,0,0,0,0,0,0,0,0,0,-1,2015,1471,0,0
798,-447,0,0,0,0,0,0,0,0,0,-1,2022,1471,0,0
805,-447,0,0,0,0,0,0,0,0,0,-1,2029,1471,0,0
812,-447,0,0,0,0,0,0,0,0,0,-1,2036,1471,0,0
-700,-454,0,0,0,0,0,0,0,0,0,-1,524,1478,0,0
-693,-454,0,0,0,0,0,0,0,0,0,-1,531,1478,0,0
-686,-454,0,0,0,0,0,0,0,0,0,-1,538,1478,0,0
-679,-454,0,0,0,0,0,0,0,0,0,-1,545,1478,0,0
-672,-454,0,0,0,0,0,0,0,0,0,-1,552,1478,0,0
-665,-454,0,0,0,0,0,0,0,0,0,-1,559,1478,0,0
-658,-454,0,0,0,0,0,0,0,0,0,-1,566,1478,0,0
-651,-454,0,0,0,0,0,0,0,0,0,-1,573,1478,0,0
-644,-454,0,0,0,0,0,0,0,0,0,-1,580,1478,0,0
-637,-454,0,0,0,0,0,0,0,0,0,-1,587,1478,0,0
-630,-454,0,0,0,0,0,0,0,0,0,-1,594,1478,0,0
-623,-454,0,0,0,0,0,0,0,0,0,-1,601,1478,0,0
-616,-454,0,0,0,0,0,0,0,0,0,-1,608,1478,0,0
-609,-454,0,0,0,0,0,0,0,0,0,-1,615,1478,0,0
-602,-454,0,0,0,0,0,0,0,0,0,-1,622,1478,0,0
-595,-454,0,0,0,0,0,0,0,0,0,-1,629,1478,0,0
-588,-454,0,0,0,0,0,0,0,0,0,-1,636,1478,0,0
-581,-454,0,0,0,0,0,0,0,0,0,-1,643,1478,0,0
-574,-454,-8.4881,-0.465942,0,0,0,0,0,0,0,-1,650,1478,-8.4881,0.465885
-567,-454,-8.10046,0.922974,0,0,0,0,0,0,0,-1,657,1478,-8.10047,-0.923034
-560,-454,-10.656,3.51172,0,0,0,0,0,0,0,-1,664,1478,-10.656,-3.51176
-553,-454,-9.01129,3.95251,0,0,0,0,0,0,0,-1,671,1478,-9.0113,-3.95256
-546,-454,-9.61896,6.05237,0,0,0,0,0,0,0,-1,678,1478,-9.61897,-6.05239
-539,-454,-7.72589,4.96533,0,0,0,0,0,0,0,-1,685,1478,-7.72592,-4.96532
-532,-454,-7.03931,7.59985,0,0,0,0,0,0,0,-1,692,1478,-7.03929,-7.59981
-525,-454,-5.78723,9.677,0,0,0,0,0,0,0,-1,699,1478,-5.78722,-9.67703
-518,-454,-6.67188,10.0168,0,0,0,0,0,0,0,-1,706,1478,-6.67185,-10.0168
-511,-454,-6.80786,10.4495,0.0031952,0.00140008,0.00274501,0.00518566,-0.000590382,0.627388,0.00366977,0.0367099,713,1478,-6.80785,-10.4494
-504,-454,-6.75861,10.9924,0.00280902,0.00110369,0.00223907,0.00435228,-0.000439575,0.60347,0.00305859,0.0170436,720,1478,-6.75862,-10.9924
-497,-454,-6.74841,11.5546,0.00249736,0.00104509,0.00194067,0.00384329,-0.000300845,0.606378,0.00266813,0.0199943,727,1478,-6.74841,-11.5546
-490,-454,-6.76337,12.0161,0.00249722,0.00130038,0.00195978,0.0039479,-0.000150306,0.637218,0.00268344,0.0190585,734,1478,-6.76336,-12.0161
-483,-454,-6.80054,12.465,0.00284423,0.00182294,0.00228652,0.00467643,-9.25595e-06,0.675537,0.00312071,0.0169161,741,1478,-6.80057,-12.465
-476,-454,-6.80792,12.9189,0.0034955,0.00256137,0.00288999,0.00595593,0.000100939,0.705283,0.0039374,0.0138375,748,1478,-6.80791,-12.919
-469,-454,-6.79919,13.4271,0.00447433,0.00347974,0.00379992,0.00780936,0.00014471,0.720333,0.00515868,0.0103685,755,1478,-6.79922,-13.4272
-462,-454,-6.83978,13.9376,0.00579449,0.00460585,0.00496627,0.0102019,0.00019846,0.725845,0.00673607,0.0103881,762,1478,-6.83976,-13.9376
-455,-454,-6.86743,14.4187,0.00756705,0.00592172,0.00646721,0.0132637,0.000225058,0.722135,0.00876842,0.0109759,769,1478,-6.86743,-14.4187
-448,-454,-6.85419,14.9213,0.010139,0.00764645,0.00868872,0.0176704,0.000115069,0.714167,0.0117421,0.0163382,776,1478,-6.85421,-14.9213
-441,-454,-6.55042,15.6438,0.0135917,0.00961354,0.01128,0.0230567,0.000148527,0.698128,0.0153219,0.0384711,783,1478,-6.55044,-15.6438
-434,-454,-6.10144,16.3953,0,0,0,0,0,0,0,-1,790,1478,-6.10142,-16.3953
-427,-454,-6.00183,15.8636,0,0,0,0,0,0,0,-1,797,1478,-6.00184,-15.8637
-420,-454,-6.28088,15.2135,0,0,0,0,0,0,0,-1,804,1478,-6.28087,-15.2135
-413,-454,-5.4408,13.674,0,0,0,0,0,0,0,-1,811,1478,-5.44079,-13.6739
-406,-454,-2.38208,10.0308,0,0,0,0,0,0,0,-1,818,1478,-2.38209,-10.0308
-399,-454,-1.21033,6.95447,0,0,0,0,0,0,0,-1,825,1478,-1.21035,-6.95452
-392,-454,0.0967407,0.985474,0,0,0,0,0,0,0,-1,832,1478,0.0967364,-0.985529
-385,-454,2.38629,3.297,0,0,0,0,0,0,0,-1,839,1478,2.38629,-3.29702
-378,-454,-15.9756,2.83997,0,0,0,0,0,0,0,-1,846,1478,-15.9756,-2.83994
-371,-454,-17.2753,2.01453,0,0,0,0,0,0,0,-1,853,1478,-17.2753,-2.01455
-364,-454,1.08124,0.819458,0,0,0,0,0,0,0,-1,860,1478,1.08124,-0.819513
-357,-454,0,0,0,0,0,0,0,0,0,-1,867,1478,0,0
-350,-454,0,0,0,0,0,0,0,0,0,-1,874,1478,0,0
-343,-454,0,0,0,0,0,0,0,0,0,-1,881,1478,0,0
-336,-454,0,0,0,0,0,0,0,0,0,-1,888,1478,0,0
-329,-454,0,0,0,0,0,0,0,0,0,-1,895,1478,0,0
-322,-454,0,0,0,0,0,0,0,0,0,-1,902,1478,0,0
-315,-454,0,0,0,0,0,0,0,0,0,-1,909,1478,0,0
-308,-454,0,0,0,0,0,0,0,0,0,-1,916,1478,0,0
-301,-454,0,0,0,0,0,0,0,0,0,-1,923,1478,0,0
-294,-454,0,0,0,0,0,0,0,0,0,-1,930,1478,0,0
-287,-454,0,0,0,0,0,0,0,0,0,-1,937,1478,0,0
-280,-454,0,0,0,0,0,0,0,0,0,-1,944,1478,0,0
-273,-454,0,0,0,0,0,0,0,0,0,-1,951,1478,0,0
-266,-454,0,0,0,0,0,0,0,0,0,-1,958,1478,0,0
-259,-454,0,0,0,0,0,0,0,0,0,-1,965,1478,0,0
-252,-454,0,0,0,0,0,0,0,0,0,-1,972,1478,0,0
-245,-454,0,0,0,0,0,0,0,0,0,-1,979,1478,0,0
-238,-454,0,0,0,0,0,0,0,0,0,-1,986,1478,0,0
-231,-454,0,0,0,0,0,0,0,0,0,-1,993,1478,0,0
-224,-454,0,0,0,0,0,0,0,0,0,-1,1000,1478,0,0
-217,-454,0,0,0,0,0,0,0,0,0,-1,1007,1478,0,0
-210,-454,0,0,0,0,0,0,0,0,0,-1,1014,1478,0,0
-203,-454,0,0,0,0,0,0,0,0,0,-1,1021,1478,0,0
-196,-454,0,0,0,0,0,0,0,0,0,-1,1028,1478,0,0
-189,-454,0,0,0,0,0,0,0,0,0,-1,1035,1478,0,0
-182,-454,0,0,0,0,0,0,0,0,0,-1,1042,1478,0,0
-175,-454,0,0,0,0,0,0,0,0,0,-1,1049,1478,0,0
-168,-454,0,0,0,0,0,0,0,0,0,-1,1056,1478,0,0
-161,-454,0,0,0,0,0,0,0,0,0,-1,1063,1478,0,0
-154,-454,0,0,0,0,0,0,0,0,0,-1,1070,1478,0,0
-147,-454,0,0,0,0,0,0,0,0,0,-1,1077,1478,0,0
-140,-454,0,0,0,0,0,0,0,0,0,-1,1084,1478,0,0
-133,-454,0,0,0,0,0,0,0,0,0,-1,1091,1478,0,0
-126,-454,0,0,0,0,0,0,0,0,0,-1,1098,1478,0,0
-119,-454,0,0,0,0,0,0,0,0,0,-1,1105,1478,0,0
-112,-454,0,0,0,0,0,0,0,0,0,-1,1112,1478,0,0
-105,-454,0,0,0,0,0,0,0,0,0,-1,1119,1478,0,0
-98,-454,0,0,0,0,0,0,0,0,0,-1,1126,1478,0,0
-91,-454,0,0,0,0,0,0,0,0,0,-1,1133,1478,0,0
-84,-454,0,0,0,0,0,0,0,0,0,-1,1140,1478,0,0
-77,-454,0,0,0,0,0,0,0,0,0,-1,1147,1478,0,0
-70,-454,0,0,0,0,0,0,0,0,0,-1,1154,1478,0,0
-63,-454,0,0,0,0,0,0,0,0,0,-1,1161,1478,0,0
-56,-454,0,0,0,0,0,0,0,0,0,-1,1168,1478,0,0
-49,-454,0,0,0,0,0,0,0,0,0,-1,1175,1478,0,0
-42,-454,0,0,0,0,0,0,0,0,0,-1,1182,1478,0,0
-35,-454,0,0,0,0,0,0,0,0,0,-1,1189,1478,0,0
-28,-454,0,0,0,0,0,0,0,0,0,-1,1196,1478,0,0
-21,-454,0,0,0,0,0,0,0,0,0,-1,1203,1478,0,0
-14,-454,0,0,0,0,0,0,0,0,0,-1,1210,1478,0,0
-7,-454,0,0,0,0,0,0,0,0,0,-1,1217,1478,0,0
0,-454,0,0,0,0,0,0,0,0,0,-1,1224,1478,0,0
7,-454,0,0,0,0,0,0,0,0,0,-1,1231,1478,0,0
14,-454,0,0,0,0,0,0,0,0,0,-1,1238,1478,0,0
21,-454,0,0,0,0,0,0,0,0,0,-1,1245,1478,0,0
28,-454,0,0,0,0,0,0,0,0,0,-1,1252,1478,0,0
35,-454,0,0,0,0,0,0,0,0,0,-1,1259,1478,0,0
42,-454,0,0,0,0,0,0,0,0,0,-1,1266,1478,0,0
49,-454,0,0,0,0,0,0,0,0,0,-1,1273,1478,0,0
56,-454,0,0,0,0,0,0,0,0,0,-1,1280,1478,0,0
63,-454,0,0,0,0,0,0,0,0,0,-1,1287,1478,0,0
70,-454,0,0,0,0,0,0,0,0,0,-1,1294,1478,0,0
77,-454,0,0,0,0,0,0,0,0,0,-1,1301,1478,0,0
84,-454,0,0,0,0,0,0,0,0,0,-1,1308,1478,0,0
91,-454,0,0,0,0,0,0,0,0,0,-1,1315,1478,0,0
98,-454,0,0,0,0,0,0,0,0,0,-1,1322,1478,0,0
105,-454,0,0,0,0,0,0,0,0,0,-1,1329,1478,0,0
112,-454,0,0,0,0,0,0,0,0,0,-1,1336,1478,0,0
119,-454,0,0,0,0,0,0,0,0,0,-1,1343,1478,0,0
126,-454,0,0,0,0,0,0,0,0,0,-1,1350,1478,0,0
133,-454,0,0,0,0,0,0,0,0,0,-1,1357,1478,0,0
140,-454,0,0,0,0,0,0,0,0,0,-1,1364,1478,0,0
147,-454,0,0,0,0,0,0,0,0,0,-1,1371,1478,0,0
154,-454,0,0,0,0,0,0,0,0,0,-1,1378,1478,0,0
161,-454,0,0,0,0,0,0,0,0,0,-1,1385,1478,0,0
168,-454,0,0,0,0,0,0,0,0,0,-1,1392,1478,0,0
175,-454,0,0,0,0,0,0,0,0,0,-1,1399,1478,0,0
182,-454,0,0,0,0,0,0,0,0,0,-1,1406,1478,0,0
189,-454,0,0,0,0,0,0,0,0,0,-1,1413,1478,0,0
196,-454,0,0,0,0,0,0,0,0,0,-1,1420,1478,0,0
203,-454,0,0,0,0,0,0,0,0,0,-1,1427,1478,0,0
210,-454,0,0,0,0,0,0,0,0,0,-1,1434,1478,0,0
217,-454,0,0,0,0,0,0,0,0,0,-1,1441,1478,0,0
224,-454,0,0,0,0,0,0,0,0,0,-1,1448,1478,0,0
231,-454,0,0,0,0,0,0,0,0,0,-1,1455,1478,0,0
238,-454,0,0,0,0,0,0,0,0,0,-1,1462,1478,0,0
245,-454,0,0,0,0,0,0,0,0,0,-1,1469,1478,0,0
252,-454,0,0,0,0,0,0,0,0,0,-1,1476,1478,0,0
259,-454,0,0,0,0,0,0,0,0,0,-1,1483,1478,0,0
266,-454,0,0,0,0,0,0,0,0,0,-1,1490,1478,0,0
273,-454,0,0,0,0,0,0,0,0,0,-1,1497,1478,0,0
280,-454,0,0,0,0,0,0,0,0,0,-1,1504,1478,0,0
287,-454,0,0,0,0,0,0,0,0,0,-1,1511,1478,0,0
294,-454,0,0,0,0,0,0,0,0,0,-1,1518,1478,0,0
301,-454,0,0,0,0,0,0,0,0,0,-1,1525,1478,0,0
308,-454,0,0,0,0,0,0,0,0,0,-1,1532,1478,0,0
315,-454,0,0,0,0,0,0,0,0,0,-1,1539,1478,0,0
322,-454,0,0,0,0,0,0,0,0,0,-1,1546,1478,0,0
329,-454,0,0,0,0,0,0,0,0,0,-1,1553,1478,0,0
336,-454,0,0,0,0,0,0,0,0,0,-1,1560,1478,0,0
343,-454,0,0,0,0,0,0,0,0,0,-1,1567,1478,0,0
350,-454,0,0,0,0,0,0,0,0,0,-1,1574,1478,0,0
357,-454,0,0,0,0,0,0,0,0,0,-1,1581,1478,0,0
364,-454,0,0,0,0,0,0,0,0,0,-1,1588,1478,0,0
371,-454,0,0,0,0,0,0,0,0,0,-1,1595,1478,0,0
378,-454,0,0,0,0,0,0,0,0,0,-1,1602,1478,0,0
385,-454,0,0,0,0,0,0,0,0,0,-1,1609,1478,0,0
392,-454,0,0,0,0,0,0,0,0,0,-1,1616,1478,0,0
399,-454,0,0,0,0,0,0,0,0,0,-1,1623,1478,0,0
406,-454,0,0,0,0,0,0,0,0,0,-1,1630,1478,0,0
413,-454,0,0,0,0,0,0,0,0,0,-1,1637,1478,0,0
420,-454,0,0,0,0,0,0,0,0,0,-1,1644,1478,0,0
427,-454,0,0,0,0,0,0,0,0,0,-1,1651,1478,0,0
434,-454,0,0,0,0,0,0,0,0,0,-1,1658,1478,0,0
441,-454,0,0,0,0,0,0,0,0,0,-1,1665,1478,0,0
448,-454,0,0,0,0,0,0,0,0,0,-1,1672,1478,0,0
455,-454,0,0,0,0,0,0,0,0,0,-1,1679,1478,0,0
462,-454,0,0,0,0,0,0,0,0,0,-1,1686,1478,0,0
469,-454,0,0,0,0,0,0,0,0,0,-1,1693,1478,0,0
476,-454,0,0,0,0,0,0,0,0,0,-1,1700,1478,0,0
483,-454,14.2399,3.97498,0,0,0,0,0,0,0,-1,1707,1478,14.2399,-3.97502
490,-454,18.1821,-0.175781,0,0,0,0,0,0,0,-1,1714,1478,18.1821,0.175822
497,-454,16.8854,1.01208,0,0,0,0,0,0,0,-1,1721,1478,16.8854,-1.01209
504,-454,15.587,2.05994,0,0,0,0,0,0,0,-1,1728,1478,15.5871,-2.05998
511,-454,17.0273,14.5258,0,0,0,0,0,0,0,-1,1735,1478,17.0273,-14.5258
518,-454,16.4158,13.1039,0,0,0,0,0,0,0,-1,1742,1478,16.4157,-13.1038
525,-454,15.7842,11.6628,0,0,0,0,0,0,0,-1,1749,1478,15.7841,-11.6629
532,-454,15.1094,10.2476,0,0,0,0,0,0,0,-1,1756,1478,15.1094,-10.2475
539,-454,13.7905,10.9373,0,0,0,0,0,0,0,-1,1763,1478,13.7906,-10.9372
546,-454,16.2002,13.2458,0,0,0,0,0,0,0,-1,1770,1478,16.2002,-13.2459
553,-454,15.6747,12.1868,0,0,0,0,0,0,0,-1,1777,1478,15.6747,-12.1868
560,-454,16.3895,14.0527,0,0,0,0,0,0,0,-1,1784,1478,16.3895,-14.0528
567,-454,20.807,17.201,0,0,0,0,0,0,0,-1,1791,1478,20.807,-17.2011
574,-454,20.7341,16.8462,0.00281174,0.00345338,-0.00157901,0.00474383,0.00152129,-0.885623,0.00279694,0.0308724,1798,1478,20.7341,-16.8462
581,-454,20.7113,16.3772,0.0026955,0.00303135,-0.00161778,0.0044899,0.00123695,-0.837113,0.00267793,0.0188831,1805,1478,20.7113,-16.3772
588,-454,20.7428,15.9095,0.00249275,0.00243897,-0.00151169,0.00397779,0.000953935,-0.776505,0.00239799,0.0127374,1812,1478,20.7428,-15.9096
595,-454,20.7112,15.4711,0.00250758,0.00194822,-0.00146343,0.00371782,0.000737979,-0.690982,0.00227285,0.0116723,1819,1478,20.7112,-15.471
602,-454,20.7073,15.0227,0.00247102,0.00131364,-0.00124081,0.00326146,0.000523207,-0.567202,0.00202259,0.00804552,1826,1478,20.7073,-15.0227
609,-454,20.7206,14.5953,0.00246419,0.000711408,-0.000963082,0.00288995,0.000285652,-0.416245,0.00183883,0.010311,1833,1478,20.7205,-14.5954
616,-454,20.7269,14.1522,0.0025633,0.000231152,-0.000749637,0.00278348,1.09778e-05,-0.285674,0.001852,0.0137782,1840,1478,20.727,-14.1522
623,-454,20.729,13.7097,0.0028063,-0.000257455,-0.000516536,0.00289104,-0.000342197,-0.16261,0.00205096,0.0133102,1847,1478,20.729,-13.7097
630,-454,20.7216,13.2704,0.00308873,-0.000739627,-0.000280721,0.00310921,-0.000760101,-0.0728077,0.0023672,0.0123724,1854,1478,20.7216,-13.2704
637,-454,20.6671,12.8429,0.00334868,-0.0010286,-8.13383e-05,0.00335019,-0.00103011,-0.0185734,0.00264457,0.0107958,1861,1478,20.6672,-12.8429
644,-454,20.7671,12.4052,0.00365083,-0.00125607,5.43401e-05,0.00365143,-0.00125667,0.0110724,0.00294399,0.0230778,1868,1478,20.7671,-12.4051
651,-454,20.9292,11.9323,0,0,0,0,0,0,0,-1,1875,1478,20.9292,-11.9322
658,-454,17.2583,10.0765,0,0,0,0,0,0,0,-1,1882,1478,17.2583,-10.0765
665,-454,17.683,9.67566,0,0,0,0,0,0,0,-1,1889,1478,17.683,-9.67572
672,-454,16.5476,6.41931,0,0,0,0,0,0,0,-1,1896,1478,16.5476,-6.41929
679,-454,14.2161,5.45007,0,0,0,0,0,0,0,-1,1903,1478,14.2161,-5.45013
686,-454,10.3767,2.12842,0,0,0,0,0,0,0,-1,1910,1478,10.3767,-2.12839
693,-454,11.1857,1.48486,0,0,0,0,0,0,0,-1,1917,1478,11.1857,-1.48487
700,-454,0,0,0,0,0,0,0,0,0,-1,1924,1478,0,0
707,-454,0,0,0,0,0,0,0,0,0,-1,1931,1478,0,0
714,-454,0,0,0,0,0,0,0,0,0,-1,1938,1478,0,0
721,-454,0,0,0,0,0,0,0,0,0,-1,1945,1478,0,0
728,-454,0,0,0,0,0,0,0,0,0,-1,1952,1478,0,0
735,-454,0,0,0,0,0,0,0,0,0,-1,1959,1478,0,0
742,-454,0,0,0,0,0,0,0,0,0,-1,1966,1478,0,0
749,-454,0,0,0,0,0,0,0,0,0,-1,1973,1478,0,0
756,-454,0,0,0,0,0,0,0,0,0,-1,1980,1478,0,0
763,-454,0,0,0,0,0,0,0,0,0,-1,1987,1478,0,0
770,-454,0,0,0,0,0,0,0,0,0,-1,1994,1478,0,0
777,-454,0,0,0,0,0,0,0,0,0,-1,2001,1478,0,0
784,-454,0,0,0,0,0,0,0,0,0,-1,2008,1478,0,0
791,-454,0,0,0,0,0,0,0,0,0,-1,2015,1478,0,0
798,-454,0,0,0,0,0,0,0,0,0,-1,2022,1478,0,0
805,-454,0,0,0,0,0,0,0,0,0,-1,2029,1478,0,0
812,-454,0,0,0,0,0,0,0,0,0,-1,2036,1478,0,0
-700,-461,0,0,0,0,0,0,0,0,0,-1,524,1485,0,0
-693,-461,0,0,0,0,0,0,0,0,0,-1,531,1485,0,0
-686,-461,0,0,0,0,0,0,0,0,0,-1,538,1485,0,0
-679,-461,0,0,0,0,0,0,0,0,0,-1,545,1485,0,0
-672,-461,0,0,0,0,0,0,0,0,0,-1,552,1485,0,0
-665,-461,0,0,0,0,0,0,0,0,0,-1,559,1485,0,0
-658,-461,0,0,0,0,0,0,0,0,0,-1,566,1485,0,0
-651,-461,0,0,0,0,0,0,0,0,0,-1,573,1485,0,0
-644,-461,0,0,0,0,0,0,0,0,0,-1,580,1485,0,0
-637,-461,0,0,0,0,0,0,0,0,0,-1,587,1485,0,0
-630,-461,0,0,0,0,0,0,0,0,0,-1,594,1485,0,0
-623,-461,0,0,0,0,0,0,0,0,0,-1,601,1485,0,0
-616,-461,0,0,0,0,0,0,0,0,0,-1,608,1485,0,0
-609,-461,0,0,0,0,0,0,0,0,0,-1,615,1485,0,0
-602,-461,0,0,0,0,0,0,0,0,0,-1,622,1485,0,0
-595,-461,0,0,0,0,0,0,0,0,0,-1,629,1485,0,0
-588,-461,0,0,0,0,0,0,0,0,0,-1,636,1485,0,0
-581,-461,0,0,0,0,0,0,0,0,0,-1,643,1485,0,0
-574,-461,0,0,0,0,0,0,0,0,0,-1,650,1485,0,0
-567,-461,-9.69031,0.513306,0,0,0,0,0,0,0,-1,657,1485,-9.69032,-0.513305
-560,-461,-7.28815,1.54004,0,0,0,0,0,0,0,-1,664,1485,-7.28817,-1.54005
-553,-461,-11.9607,5.27783,0,0,0,0,0,0,0,-1,671,1485,-11.9607,-5.27778
-546,-461,-11.4215,4.44666,0,0,0,0,0,0,0,-1,678,1485,-11.4215,-4.4467
-539,-461,-9.36493,5.23438,0,0,0,0,0,0,0,-1,685,1485,-9.3649,-5.23432
-532,-461,-7.82898,6.78357,0,0,0,0,0,0,0,-1,692,1485,-7.829,-6.78363
-525,-461,-6.03046,8.8761,0,0,0,0,0,0,0,-1,699,1485,-6.03049,-8.87606
-518,-461,-5.99774,9.72412,0,0,0,0,0,0,0,-1,706,1485,-5.99777,-9.72412
-511,-461,-6.41028,10.553,0,0,0,0,0,0,0,-1,713,1485,-6.41029,-10.553
-504,-461,-6.3172,10.9984,0.00661708,0.002064,0.00362775,0.00862343,5.7647e-05,0.505188,0.00572984,0.0221675,720,1485,-6.31722,-10.9984
-497,-461,-6.27277,11.5635,0.00521819,0.00167122,0.00280282,0.00676148,0.000127927,0.503322,0.00446562,0.010814,727,1485,-6.27275,-11.5635
-490,-461,-6.30505,12.0251,0.00425319,0.00157876,0.00235635,0.00562532,0.000206633,0.52731,0.00368327,0.0124212,734,1485,-6.30505,-12.0252
-483,-461,-6.31146,12.5071,0.00376708,0.00177734,0.00228644,0.00526572,0.000278699,0.580193,0.00342137,0.0126105,741,1485,-6.31149,-12.507
-476,-461,-6.32751,12.9952,0.00366909,0.00217201,0.00251905,0.00554846,0.000292635,0.640977,0.00360539,0.0114119,748,1485,-6.32749,-12.9953
-469,-461,-6.35059,13.4711,0.00397978,0.00273897,0.00308061,0.00650184,0.000216912,0.686033,0.00426409,0.0127486,755,1485,-6.35056,-13.471
-462,-461,-6.37775,13.9578,0.00466113,0.00347858,0.0038842,0.0079988,0.000140911,0.709865,0.00528619,0.0178012,762,1485,-6.37776,-13.9578
-455,-461,-6.40216,14.4188,0.005795,0.00437242,0.00498621,0.0101204,4.70276e-05,0.714551,0.00673131,0.0213978,769,1485,-6.40215,-14.4189
-448,-461,-6.42145,14.916,0.00760729,0.00561182,0.00665495,0.0133389,-0.000119771,0.71099,0.00893277,0.0175527,776,1485,-6.42143,-14.916
-441,-461,-6.30725,15.4254,0.010572,0.00710474,0.00884879,0.0178554,-0.00017863,0.688664,0.0119636,0.0204667,783,1485,-6.30727,-15.4255
-434,-461,-6.20654,15.9495,0,0,0,0,0,0,0,-1,790,1485,-6.20653,-15.9495
-427,-461,-5.99231,16.2018,0,0,0,0,0,0,0,-1,797,1485,-5.99231,-16.2017
-420,-461,-5.70355,16.6116,0,0,0,0,0,0,0,-1,804,1485,-5.70353,-16.6115
-413,-461,-5.98798,16.0605,0,0,0,0,0,0,0,-1,811,1485,-5.98796,-16.0605
-406,-461,-5.52667,14.839,0,0,0,0,0,0,0,-1,818,1485,-5.52666,-14.839
-399,-461,-1.93439,9.82849,0,0,0,0,0,0,0,-1,825,1485,-1.9344,-9.82846
-392,-461,-0.357544,5.55225,0,0,0,0,0,0,0,-1,832,1485,-0.357536,-5.55228
-385,-461,1.71509,3.35254,0,0,0,0,0,0,0,-1,839,1485,1.71511,-3.35255
-378,-461,1.95996,3.01111,0,0,0,0,0,0,0,-1,846,1485,1.95993,-3.01111
-371,-461,0.702881,2.33459,0,0,0,0,0,0,0,-1,853,1485,0.702859,-2.33459
-364,-461,-1.93097,2.56458,0,0,0,0,0,0,0,-1,860,1485,-1.93095,-2.56456
-357,-461,-2.41516,3.49487,0,0,0,0,0,0,0,-1,867,1485,-2.41517,-3.49487
-350,-461,0,0,0,0,0,0,0,0,0,-1,874,1485,0,0
-343,-461,0,0,0,0,0,0,0,0,0,-1,881,1485,0,0
-336,-461,0,0,0,0,0,0,0,0,0,-1,888,1485,0,0
-329,-461,0,0,0,0,0,0,0,0,0,-1,895,1485,0,0
-322,-461,0,0,0,0,0,0,0,0,0,-1,902,1485,0,0
-315,-461,0,0,0,0,0,0,0,0,0,-1,909,1485,0,0
-308,-461,0,0,0,0,0,0,0,0,0,-1,916,1485,0,0
-301,-461,0,0,0,0,0,0,0,0,0,-1,923,1485,0,0
-294,-461,0,0,0,0,0,0,0,0,0,-1,930,1485,0,0
-287,-461,0,0,0,0,0,0,0,0,0,-1,937,1485,0,0
-280,-461,0,0,0,0,0,0,0,0,0,-1,944,1485,0,0
-273,-461,0,0,0,0,0,0,0,0,0,-1,951,1485,0,0
-266,-461,0,0,0,0,0,0,0,0,0,-1,958,1485,0,0
-259,-461,0,0,0,0,0,0,0,0,0,-1,965,1485,0,0
-252,-461,0,0,0,0,0,0,0,0,0,-1,972,1485,0,0
-245,-461,0,0,0,0,0,0,0,0,0,-1,979,1485,0,0
-238,-461,0,0,0,0,0,0,0,0,0,-1,986,1485,0,0
-231,-461,0,0,0,0,0,0,0,0,0,-1,993,1485,0,0
-224,-461,0,0,0,0,0,0,0,0,0,-1,1000,1485,0,0
-217,-461,0,0,0,0,0,0,0,0,0,-1,1007,1485,0,0
-210,-461,0,0,0,0,0,0,0,0,0,-1,1014,1485,0,0
-203,-461,0,0,0,0,0,0,0,0,0,-1,1021,1485,0,0
-196,-461,0,0,0,0,0,0,0,0,0,-1,1028,1485,0,0
-189,-461,0,0,0,0,0,0,0,0,0,-1,1035,1485,0,0
-182,-461,0,0,0,0,0,0,0,0,0,-1,1042,1485,0,0
-175,-461,0,0,0,0,0,0,0,0,0,-1,1049,1485,0,0
-168,-461,0,0,0,0,0,0,0,0,0,-1,1056,1485,0,0
-161,-461,0,0,0,0,0,0,0,0,0,-1,1063,1485,0,0
-154,-461,0,0,0,0,0,0,0,0,0,-1,1070,1485,0,0
-147,-461,0,0,0,0,0,0,0,0,0,-1,1077,1485,0,0
-140,-461,0,0,0,0,0,0,0,0,0,-1,1084,1485,0,0
-133,-461,0,0,0,0,0,0,0,0,0,-1,1091,1485,0,0
-126,-461,0,0,0,0,0,0,0,0,0,-1,1098,1485,0,0
-119,-461,0,0,0,0,0,0,0,0,0,-1,1105,1485,0,0
-112,-461,0,0,0,0,0,0,0,0,0,-1,1112,1485,0,0
-105,-461,0,0,0,0,0,0,0,0,0,-1,1119,1485,0,0
-98,-461,0,0,0,0,0,0,0,0,0,-1,1126,1485,0,0
-91,-461,0,0,0,0,0,0,0,0,0,-1,1133,1485,0,0
-84,-461,0,0,0,0,0,0,0,0,0,-1,1140,1485,0,0
-77,-461,0,0,0,0,0,0,0,0,0,-1,1147,1485,0,0
-70,-461,0,0,0,0,0,0,0,0,0,-1,1154,1485,0,0
-63,-461,0,0,0,0,0,0,0,0,0,-1,1161,1485,0,0
-56,-461,0,0,0,0,0,0,0,0,0,-1,1168,1485,0,0
-49,-461,0,0,0,0,0,0,0,0,0,-1,1175,1485,0,0
-42,-461,0,0,0,0,0,0,0,0,0,-1,1182,1485,0,0
-35,-461,0,0,0,0,0,0,0,0,0,-1,1189,1485,0,0
-28,-461,0,0,0,0,0,0,0,0,0,-1,1196,1485,0,0
-21,-461,0,0,0,0,0,0,0,0,0,-1,1203,1485,0,0
-14,-461,0,0,0,0,0,0,0,0,0,-1,1210,1485,0,0
-7,-461,0,0,0,0,0,0,0,0,0,-1,1217,1485,0,0
0,-461,0,0,0,0,0,0,0,0,0,-1,1224,1485,0,0
7,-461,0,0,0,0,0,0,0,0,0,-1,1231,1485,0,0
14,-461,0,0,0,0,0,0,0,0,0,-1,1238,1485,0,0
21,-461,0,0,0,0,0,0,0,0,0,-1,1245,1485,0,0
28,-461,0,0,0,0,0,0,0,0,0,-1,1252,1485,0,0
35,-461,0,0,0,0,0,0,0,0,0,-1,1259,1485,0,0
42,-461,0,0,0,0,0,0,0,0,0,-1,1266,1485,0,0
49,-461,0,0,0,0,0,0,0,0,0,-1,1273,1485,0,0
56,-461,0,0,0,0,0,0,0,0,0,-1,1280,1485,0,0
63,-461,0,0,0,0,0,0,0,0,0,-1,1287,1485,0,0
70,-461,0,0,0,0,0,0,0,0,0,-1,1294,1485,0,0
77,-461,0,0,0,0,0,0,0,0,0,-1,1301,1485,0,0
84,-461,0,0,0,0,0,0,0,0,0,-1,1308,1485,0,0
91,-461,0,0,0,0,0,0,0,0,0,-1,1315,1485,0,0
98,-461,0,0,0,0,0,0,0,0,0,-1,1322,1485,0,0
105,-461,0,0,0,0,0,0,0,0,0,-1,1329,1485,0,0
112,-461,0,0,0,0,0,0,0,0,0,-1,1336,1485,0,0
119,-461,0,0,0,0,0,0,0,0,0,-1,1343,1485,0,0
126,-461,0,0,0,0,0,0,0,0,0,-1,1350,1485,0,0
133,-461,0,0,0,0,0,0,0,0,0,-1,1357,1485,0,0
140,-461,0,0,0,0,0,0,0,0,0,-1,1364,1485,0,0
147,-461,0,0,0,0,0,0,0,0,0,-1,1371,1485,0,0
154,-461,0,0,0,0,0,0,0,0,0,-1,1378,1485,0,0
161,-461,0,0,0,0,0,0,0,0,0,-1,1385,1485,0,0
168,-461,0,0,0,0,0,0,0,0,0,-1,1392,1485,0,0
175,-461,0,0,0,0,0,0,0,0,0,-1,1399,1485,0,0
182,-461,0,0,0,0,0,0,0,0,0,-1,1406,1485,0,0
189,-461,0,0,0,0,0,0,0,0,0,-1,1413,1485,0,0
196,-461,0,0,0,0,0,0,0,0,0,-1,1420,1485,0,0
203,-461,0,0,0,0,0,0,0,0,0,-1,1427,1485,0,0
210,-461,0,0,0,0,0,0,0,0,0,-1,1434,1485,0,0
217,-461,0,0,0,0,0,0,0,0,0,-1,1441,1485,0,0
224,-461,0,0,0,0,0,0,0,0,0,-1,1448,1485,0,0
231,-461,0,0,0,0,0,0,0,0,0,-1,1455,1485,0,0
238,-461,0,0,0,0,0,0,0,0,0,-1,1462,1485,0,0
245,-461,0,0,0,0,0,0,0,0,0,-1,1469,1485,0,0
252,-461,0,0,0,0,0,0,0,0,0,-1,1476,1485,0,0
259,-461,0,0,0,0,0,0,0,0,0,-1,1483,1485,0,0
266,-461,0,0,0,0,0,0,0,0,0,-1,1490,1485,0,0
273,-461,0,0,0,0,0,0,0,0,0,-1,1497,1485,0,0
280,-461,0,0,0,0,0,0,0,0,0,-1,1504,1485,0,0
287,-461,0,0,0,0,0,0,0,0,0,-1,1511,1485,0,0
294,-461,0,0,0,0,0,0,0,0,0,-1,1518,1485,0,0
301,-461,0,0,0,0,0,0,0,0,0,-1,1525,1485,0,0
308,-461,0,0,0,0,0,0,0,0,0,-1,1532,1485,0,0
315,-461,0,0,0,0,0,0,0,0,0,-1,1539,1485,0,0
322,-461,0,0,0,0,0,0,0,0,0,-1,1546,1485,0,0
329,-461,0,0,0,0,0,0,0,0,0,-1,1553,1485,0,0
336,-461,0,0,0,0,0,0,0,0,0,-1,1560,1485,0,0
343,-461,0,0,0,0,0,0,0,0,0,-1,1567,1485,0,0
350,-461,0,0,0,0,0,0,0,0,0,-1,1574,1485,0,0
357,-461,0,0,0,0,0,0,0,0,0,-1,1581,1485,0,0
364,-461,0,0,0,0,0,0,0,0,0,-1,1588,1485,0,0
371,-461,0,0,0,0,0,0,0,0,0,-1,1595,1485,0,0
378,-461,0,0,0,0,0,0,0,0,0,-1,1602,1485,0,0
385,-461,0,0,0,0,0,0,0,0,0,-1,1609,1485,0,0
392,-461,0,0,0,0,0,0,0,0,0,-1,1616,1485,0,0
399,-461,0,0,0,0,0,0,0,0,0,-1,1623,1485,0,0
406,-461,0,0,0,0,0,0,0,0,0,-1,1630,1485,0,0
413,-461,0,0,0,0,0,0,0,0,0,-1,1637,1485,0,0
420,-461,0,0,0,0,0,0,0,0,0,-1,1644,1485,0,0
427,-461,0,0,0,0,0,0,0,0,0,-1,1651,1485,0,0
434,-461,0,0,0,0,0,0,0,0,0,-1,1658,1485,0,0
441,-461,0,0,0,0,0,0,0,0,0,-1,1665,1485,0,0
448,-461,0,0,0,0,0,0,0,0,0,-1,1672,1485,0,0
455,-461,0,0,0,0,0,0,0,0,0,-1,1679,1485,0,0
462,-461,0,0,0,0,0,0,0,0,0,-1,1686,1485,0,0
469,-461,0,0,0,0,0,0,0,0,0,-1,1693,1485,0,0
476,-461,14.1906,0.690552,0,0,0,0,0,0,0,-1,1700,1485,14.1906,-0.690525
483,-461,10.6361,3.09106,0,0,0,0,0,0,0,-1,1707,1485,10.6361,-3.091
490,-461,17.9972,0.665894,0,0,0,0,0,0,0,-1,1714,1485,17.9972,-0.665876
497,-461,16.6829,1.87732,0,0,0,0,0,0,0,-1,1721,1485,16.6828,-1.87736
504,-461,15.3884,3.09216,0,0,0,0,0,0,0,-1,1728,1485,15.3885,-3.09212
511,-461,15.4292,14.3512,0,0,0,0,0,0,0,-1,1735,1485,15.4292,-14.3512
518,-461,14.8081,10.0085,0,0,0,0,0,0,0,-1,1742,1485,14.8081,-10.0086
525,-461,14.0022,10.8033,0,0,0,0,0,0,0,-1,1749,1485,14.0022,-10.8033
532,-461,17.1704,14.077,0,0,0,0,0,0,0,-1,1756,1485,17.1704,-14.077
539,-461,17.0229,14.7386,0,0,0,0,0,0,0,-1,1763,1485,17.0229,-14.7387
546,-461,16.2106,14.1372,0,0,0,0,0,0,0,-1,1770,1485,16.2106,-14.1372
553,-461,20.0396,18.0068,0,0,0,0,0,0,0,-1,1777,1485,20.0396,-18.0068
560,-461,20.2174,17.4191,0,0,0,0,0,0,0,-1,1784,1485,20.2174,-17.4191
567,-461,20.3206,17.1528,0.00261464,0.00325551,-0.00118842,0.00416594,0.0017042,-0.917082,0.00241842,0.0295138,1791,1485,20.3205,-17.1529
574,-461,20.3198,16.7694,0.00233856,0.00266896,-0.00109884,0.00361495,0.00139257,-0.860011,0.00210534,0.0239007,1798,1485,20.3198,-16.7694
581,-461,20.3264,16.3231,0.00229761,0.00226646,-0.00117775,0.00345989,0.00110418,-0.778785,0.00204067,0.0158526,1805,1485,20.3264,-16.3232
588,-461,20.3191,15.9192,0.00226178,0.00179784,-0.00115376,0.00320666,0.000852956,-0.686193,0.00191776,0.0115309,1812,1485,20.3191,-15.9191
595,-461,20.2771,15.5065,0.00250765,0.0014115,-0.00120995,0.00328788,0.000631278,-0.572736,0.00201473,0.00902241,1819,1485,20.2771,-15.5064
602,-461,20.2726,15.049,0.00266921,0.00088233,-0.00111861,0.00320738,0.000344154,-0.448423,0.00203327,0.00861927,1826,1485,20.2726,-15.0489
609,-461,20.274,14.5948,0.00285679,0.000367458,-0.000956097,0.00318162,4.26284e-05,-0.32751,0.00210701,0.0102743,1833,1485,20.2741,-14.5949
616,-461,20.2756,14.1583,0.00317766,-4.9228e-05,-0.000841266,0.00338381,-0.00025538,-0.240314,0.00234564,0.012841,1840,1485,20.2756,-14.1584
623,-461,20.2772,13.7476,0.0036474,-0.000501672,-0.000690837,0.0037594,-0.000613676,-0.160729,0.00273388,0.0147953,1847,1485,20.2773,-13.7475
630,-461,20.2614,13.3152,0.00417633,-0.000936074,-0.000511924,0.00422708,-0.000986831,-0.0988265,0.00319816,0.014353,1854,1485,20.2613,-13.3152
637,-461,20.2314,12.882,0.00476876,-0.00117048,-0.000385313,0.00479366,-0.00119538,-0.0645153,0.00365989,0.0137324,1861,1485,20.2315,-12.8819
644,-461,20.3499,12.5537,0.00539537,-0.00140457,-0.000280414,0.00540691,-0.00141611,-0.0411446,0.00415782,0.0318529,1868,1485,20.3499,-12.5537
651,-461,20.553,12.1866,0,0,0,0,0,0,0,-1,1875,1485,20.553,-12.1867
658,-461,16.8987,10.1084,0,0,0,0,0,0,0,-1,1882,1485,16.8986,-10.1084
665,-461,17.2638,9.81384,0,0,0,0,0,0,0,-1,1889,1485,17.2638,-9.81385
672,-461,14.4877,6.89429,0,0,0,0,0,0,0,-1,1896,1485,14.4876,-6.89431
679,-461,10.0535,2.16321,0,0,0,0,0,0,0,-1,1903,1485,10.0535,-2.16317
686,-461,10.8195,1.84192,0,0,0,0,0,0,0,-1,1910,1485,10.8194,-1.84195
693,-461,0,0,0,0,0,0,0,0,0,-1,1917,1485,0,0
700,-461,0,0,0,0,0,0,0,0,0,-1,1924,1485,0,0
707,-461,0,0,0,0,0,0,0,0,0,-1,1931,1485,0,0
714,-461,0,0,0,0,0,0,0,0,0,-1,1938,1485,0,0
721,-461,0,0,0,0,0,0,0,0,0,-1,1945,1485,0,0
728,-461,0,0,0,0,0,0,0,0,0,-1,1952,1485,0,0
735,-461,0,0,0,0,0,0,0,0,0,-1,1959,1485,0,0
742,-461,0,0,0,0,0,0,0,0,0,-1,1966,1485,0,0
749,-461,0,0,0,0,0,0,0,0,0,-1,1973,1485,0,0
756,-461,0,0,0,0,0,0,0,0,0,-1,1980,1485,0,0
763,-461,0,0,0,0,0,0,0,0,0,-1,1987,1485,0,0
770,-461,0,0,0,0,0,0,0,0,0,-1,1994,1485,0,0
777,-461,0,0,0,0,0,0,0,0,0,-1,2001,1485,0,0
784,-461,0,0,0,0,0,0,0,0,0,-1,2008,1485,0,0
791,-461,0,0,0,0,0,0,0,0,0,-1,2015,1485,0,0
798,-461,0,0,0,0,0,0,0,0,0,-1,2022,1485,0,0
805,-461,0,0,0,0,0,0,0,0,0,-1,2029,1485,0,0
812,-461,0,0,0,0,0,0,0,0,0,-1,2036,1485,0,0
-700,-468,0,0,0,0,0,0,0,0,0,-1,524,1492,0,0
-693,-468,0,0,0,0,0,0,0,0,0,-1,531,1492,0,0
-686,-468,0,0,0,0,0,0,0,0,0,-1,538,1492,0,0
-679,-468,0,0,0,0,0,0,0,0,0,-1,545,1492,0,0
-672,-468,0,0,0,0,0,0,0,0,0,-1,552,1492,0,0
-665,-468,0,0,0,0,0,0,0,0,0,-1,559,1492,0,0
-658,-468,0,0,0,0,0,0,0,0,0,-1,566,1492,0,0
-651,-468,0,0,0,0,0,0,0,0,0,-1,573,1492,0,0
-644,-468,0,0,0,0,0,0,0,0,0,-1,580,1492,0,0
-637,-468,0,0,0,0,0,0,0,0,0,-1,587,1492,0,0
-630,-468,0,0,0,0,0,0,0,0,0,-1,594,1492,0,0
-623,-468,0,0,0,0,0,0,0,0,0,-1,601,1492,0,0
-616,-468,0,0,0,0,0,0,0,0,0,-1,608,1492,0,0
-609,-468,0,0,0,0,0,0,0,0,0,-1,615,1492,0,0
-602,-468,0,0,0,0,0,0,0,0,0,-1,622,1492,0,0
-595,-468,0,0,0,0,0,0,0,0,0,-1,629,1492,0,0
-588,-468,0,0,0,0,0,0,0,0,0,-1,636,1492,0,0
-581,-468,0,0,0,0,0,0,0,0,0,-1,643,1492,0,0
-574,-468,0,0,0,0,0,0,0,0,0,-1,650,1492,0,0
-567,-468,-11.2603,1.8042,0,0,0,0,0,0,0,-1,657,1492,-11.2603,-1.80424
-560,-468,-8.77441,2.23694,0,0,0,0,0,0,0,-1,664,1492,-8.77443,-2.23692
-553,-468,-5.94061,9.26318,0,0,0,0,0,0,0,-1,671,1492,-5.94062,-9.26322
-546,-468,-10.47,5.43237,0,0,0,0,0,0,0,-1,678,1492,-10.47,-5.4324
-539,-468,-10.2468,5.45203,0,0,0,0,0,0,0,-1,685,1492,-10.2468,-5.45197
-532,-468,-8.39795,6.02783,0,0,0,0,0,0,0,-1,692,1492,-8.39793,-6.02789
-525,-468,-6.7265,7.66077,0,0,0,0,0,0,0,-1,699,1492,-6.72653,-7.6608
-518,-468,-6.27264,8.82202,0,0,0,0,0,0,0,-1,706,1492,-6.27266,-8.82205
-511,-468,-5.75824,10.5553,0,0,0,0,0,0,0,-1,713,1492,-5.75825,-10.5553
-504,-468,-5.71008,11.0507,0.0113428,0.00369538,0.00556315,0.0142696,0.000768587,0.484312,0.00926751,0.0340267,720,1492,-5.71008,-11.0507
-497,-468,-5.7984,11.5496,0.00863047,0.00276192,0.0041068,0.0107435,0.000648845,0.475205,0.00695618,0.0157967,727,1492,-5.79841,-11.5495
-490,-468,-5.79669,12.0687,0.00656849,0.00217423,0.00313332,0.00819825,0.000544469,0.479628,0.00529335,0.0077324,734,1492,-5.79668,-12.0687
-483,-468,-5.81848,12.5393,0.0051839,0.00195855,0.00262533,0.00665231,0.000490142,0.509974,0.00428086,0.00872654,741,1492,-5.8185,-12.5393
-476,-468,-5.841,13.022,0.00430458,0.00197291,0.00246137,0.00586226,0.000415235,0.564224,0.00377738,0.00934258,748,1492,-5.84102,-13.022
-469,-468,-5.86914,13.5035,0.00394547,0.00219645,0.00265335,0.0058647,0.000277214,0.626211,0.00382075,0.0127718,755,1492,-5.86911,-13.5036
-462,-468,-5.83215,13.9828,0.00401656,0.0026052,0.00308989,0.00648033,0.00014143,0.673132,0.00427386,0.0221328,762,1492,-5.83217,-13.9828
-455,-468,-5.84766,14.3882,0.00457088,0.00317776,0.00380556,0.00774311,5.53811e-06,0.694881,0.00516023,0.0233883,769,1492,-5.84764,-14.3881
-448,-468,-5.8952,14.8893,0.00574019,0.00407711,0.00496809,0.00994586,-0.00012855,0.702479,0.00667383,0.0143193,776,1492,-5.89521,-14.8893
-441,-468,-5.90778,15.3726,0.00794297,0.00525004,0.00666342,0.0133946,-0.000201595,0.685707,0.00899769,0.0135144,783,1492,-5.90778,-15.3725
-434,-468,-5.8526,15.8978,0.0108857,0.00684235,0.00878837,0.0178819,-0.000153895,0.672346,0.0119729,0.0182467,790,1492,-5.85261,-15.8979
-427,-468,-5.78223,16.4199,0.0140081,0.00877746,0.0111091,0.0228056,-1.99871e-05,0.669792,0.0152104,0.0334373,797,1492,-5.78223,-16.4199
-420,-468,-5.42633,16.9934,0,0,0,0,0,0,0,-1,804,1492,-5.4263,-16.9934
-413,-468,-5.30328,17.3519,0,0,0,0,0,0,0,-1,811,1492,-5.30329,-17.352
-406,-468,-2.2356,9.396,0,0,0,0,0,0,0,-1,818,1492,-2.2356,-9.396
-399,-468,-0.940369,8.1936,0,0,0,0,0,0,0,-1,825,1492,-0.940365,-8.19357
-392,-468,-0.35144,8.14673,0,0,0,0,0,0,0,-1,832,1492,-0.351449,-8.14674
-385,-468,0.465759,5.35864,0,0,0,0,0,0,0,-1,839,1492,0.465732,-5.35864
-378,-468,1.99835,3.25391,0,0,0,0,0,0,0,-1,846,1492,1.99837,-3.2539
-371,-468,-0.31842,3.1532,0,0,0,0,0,0,0,-1,853,1492,-0.318441,-3.15324
-364,-468,-0.966736,2.14563,0,0,0,0,0,0,0,-1,860,1492,-0.966735,-2.14557
-357,-468,-3.06787,3.22742,0,0,0,0,0,0,0,-1,867,1492,-3.06784,-3.2274
-350,-468,-3.18658,4.12659,0,0,0,0,0,0,0,-1,874,1492,-3.18659,-4.12658
-343,-468,0,0,0,0,0,0,0,0,0,-1,881,1492,0,0
-336,-468,0,0,0,0,0,0,0,0,0,-1,888,1492,0,0
-329,-468,0,0,0,0,0,0,0,0,0,-1,895,1492,0,0
-322,-468,0,0,0,0,0,0,0,0,0,-1,902,1492,0,0
-315,-468,0,0,0,0,0,0,0,0,0,-1,909,1492,0,0
-308,-468,0,0,0,0,0,0,0,0,0,-1,916,1492,0,0
-301,-468,0,0,0,0,0,0,0,0,0,-1,923,1492,0,0
-294,-468,0,0,0,0,0,0,0,0,0,-1,930,1492,0,0
-287,-468,0,0,0,0,0,0,0,0,0,-1,937,1492,0,0
-280,-468,0,0,0,0,0,0,0,0,0,-1,944,1492,0,0
-273,-468,0,0,0,0,0,0,0,0,0,-1,951,1492,0,0
-266,-468,0,0,0,0,0,0,0,0,0,-1,958,1492,0,0
-259,-468,0,0,0,0,0,0,0,0,0,-1,965,1492,0,0
-252,-468,0,0,0,0,0,0,0,0,0,-1,972,1492,0,0
-245,-468,0,0,0,0,0,0,0,0,0,-1,979,1492,0,0
-238,-468,0,0,0,0,0,0,0,0,0,-1,986,1492,0,0
-231,-468,0,0,0,0,0,0,0,0,0,-1,993,1492,0,0
-224,-468,0,0,0,0,0,0,0,0,0,-1,1000,1492,0,0
-217,-468,0,0,0,0,0,0,0,0,0,-1,1007,1492,0,0
-210,-468,0,0,0,0,0,0,0,0,0,-1,1014,1492,0,0
-203,-468,0,0,0,0,0,0,0,0,0,-1,1021,1492,0,0
-196,-468,0,0,0,0,0,0,0,0,0,-1,1028,1492,0,0
-189,-468,0,0,0,0,0,0,0,0,0,-1,1035,1492,0,0
-182,-468,0,0,0,0,0,0,0,0,0,-1,1042,1492,0,0
-175,-468,0,0,0,0,0,0,0,0,0,-1,1049,1492,0,0
-168,-468,0,0,0,0,0,0,0,0,0,-1,1056,1492,0,0
-161,-468,0,0,0,0,0,0,0,0,0,-1,1063,1492,0,0
-154,-468,0,0,0,0,0,0,0,0,0,-1,1070,1492,0,0
-147,-468,0,0,0,0,0,0,0,0,0,-1,1077,1492,0,0
-140,-468,0,0,0,0,0,0,0,0,0,-1,1084,1492,0,0
-133,-468,0,0,0,0,0,0,0,0,0,-1,1091,1492,0,0
-126,-468,0,0,0,0,0,0,0,0,0,-1,1098,1492,0,0
-119,-468,0,0,0,0,0,0,0,0,0,-1,1105,1492,0,0
-112,-468,0,0,0,0,0,0,0,0,0,-1,1112,1492,0,0
-105,-468,0,0,0,0,0,0,0,0,0,-1,1119,1492,0,0
-98,-468,0,0,0,0,0,0,0,0,0,-1,1126,1492,0,0
-91,-468,0,0,0,0,0,0,0,0,0,-1,1133,1492,0,0
-84,-468,0,0,0,0,0,0,0,0,0,-1,1140,1492,0,0
-77,-468,0,0,0,0,0,0,0,0,0,-1,1147,1492,0,0
-70,-468,0,0,0,0,0,0,0,0,0,-1,1154,1492,0,0
-63,-468,0,0,0,0,0,0,0,0,0,-1,1161,1492,0,0
-56,-468,0,0,0,0,0,0,0,0,0,-1,1168,1492,0,0
-49,-468,0,0,0,0,0,0,0,0,0,-1,1175,1492,0,0
-42,-468,0,0,0,0,0,0,0,0,0,-1,1182,1492,0,0
-35,-468,0,0,0,0,0,0,0,0,0,-1,1189,1492,0,0
-28,-468,0,0,0,0,0,0,0,0,0,-1,1196,1492,0,0
-21,-468,0,0,0,0,0,0,0,0,0,-1,1203,1492,0,0
-14,-468,0,0,0,0,0,0,0,0,0,-1,1210,1492,0,0
-7,-468,0,0,0,0,0,0,0,0,0,-1,1217,1492,0,0
0,-468,0,0,0,0,0,0,0,0,0,-1,1224,1492,0,0
7,-468,0,0,0,0,0,0,0,0,0,-1,1231,1492,0,0
14,-468,0,0,0,0,0,0,0,0,0,-1,1238,1492,0,0
21,-468,0,0,0,0,0,0,0,0,0,-1,1245,1492,0,0
28,-468,0,0,0,0,0,0,0,0,0,-1,1252,1492,0,0
35,-468,0,0,0,0,0,0,0,0,0,-1,1259,1492,0,0
42,-468,0,0,0,0,0,0,0,0,0,-1,1266,1492,0,0
49,-468,0,0,0,0,0,0,0,0,0,-1,1273,1492,0,0
56,-468,0,0,0,0,0,0,0,0,0,-1,1280,1492,0,0
63,-468,0,0,0,0,0,0,0,0,0,-1,1287,1492,0,0
70,-468,0,0,0,0,0,0,0,0,0,-1,1294,1492,0,0
77,-468,0,0,0,0,0,0,0,0,0,-1,1301,1492,0,0
84,-468,0,0,0,0,0,0,0,0,0,-1,1308,1492,0,0
91,-468,0,0,0,0,0,0,0,0,0,-1,1315,1492,0,0
98,-468,0,0,0,0,0,0,0,0,0,-1,1322,1492,0,0
105,-468,0,0,0,0,0,0,0,0,0,-1,1329,1492,0,0
112,-468,0,0,0,0,0,0,0,0,0,-1,1336,1492,0,0
119,-468,0,0,0,0,0,0,0,0,0,-1,1343,1492,0,0
126,-468,0,0,0,0,0,0,0,0,0,-1,1350,1492,0,0
133,-468,0,0,0,0,0,0,0,0,0,-1,1357,1492,0,0
140,-468,0,0,0,0,0,0,0,0,0,-1,1364,1492,0,0
147,-468,0,0,0,0,0,0,0,0,0,-1,1371,1492,0,0
154,-468,0,0,0,0,0,0,0,0,0,-1,1378,1492,0,0
161,-468,0,0,0,0,0,0,0,0,0,-1,1385,1492,0,0
168,-468,0,0,0,0,0,0,0,0,0,-1,1392,1492,0,0
175,-468,0,0,0,0,0,0,0,0,0,-1,1399,1492,0,0
182,-468,0,0,0,0,0,0,0,0,0,-1,1406,1492,0,0
189,-468,0,0,0,0,0,0,0,0,0,-1,1413,1492,0,0
196,-468,0,0,0,0,0,0,0,0,0,-1,1420,1492,0,0
203,-468,0,0,0,0,0,0,0,0,0,-1,1427,1492,0,0
210,-468,0,0,0,0,0,0,0,0,0,-1,1434,1492,0,0
217,-468,0,0,0,0,0,0,0,0,0,-1,1441,1492,0,0
224,-468,0,0,0,0,0,0,0,0,0,-1,1448,1492,0,0
231,-468,0,0,0,0,0,0,0,0,0,-1,1455,1492,0,0
238,-468,0,0,0,0,0,0,0,0,0,-1,1462,1492,0,0
245,-468,0,0,0,0,0,0,0,0,0,-1,1469,1492,0,0
252,-468,0,0,0,0,0,0,0,0,0,-1,1476,1492,0,0
259,-468,0,0,0,0,0,0,0,0,0,-1,1483,1492,0,0
266,-468,0,0,0,0,0,0,0,0,0,-1,1490,1492,0,0
273,-468,0,0,0,0,0,0,0,0,0,-1,1497,1492,0,0
280,-468,0,0,0,0,0,0,0,0,0,-1,1504,1492,0,0
287,-468,0,0,0,0,0,0,0,0,0,-1,1511,1492,0,0
294,-468,0,0,0,0,0,0,0,0,0,-1,1518,1492,0,0
301,-468,0,0,0,0,0,0,0,0,0,-1,1525,1492,0,0
308,-468,0,0,0,0,0,0,0,0,0,-1,1532,1492,0,0
315,-468,0,0,0,0,0,0,0,0,0,-1,1539,1492,0,0
322,-468,0,0,0,0,0,0,0,0,0,-1,1546,1492,0,0
329,-468,0,0,0,0,0,0,0,0,0,-1,1553,1492,0,0
336,-468,0,0,0,0,0,0,0,0,0,-1,1560,1492,0,0
343,-468,0,0,0,0,0,0,0,0,0,-1,1567,1492,0,0
350,-468,0,0,0,0,0,0,0,0,0,-1,1574,1492,0,0
357,-468,0,0,0,0,0,0,0,0,0,-1,1581,1492,0,0
364,-468,0,0,0,0,0,0,0,0,0,-1,1588,1492,0,0
371,-468,0,0,0,0,0,0,0,0,0,-1,1595,1492,0,0
378,-468,0,0,0,0,0,0,0,0,0,-1,1602,1492,0,0
385,-468,0,0,0,0,0,0,0,0,0,-1,1609,1492,0,0
392,-468,0,0,0,0,0,0,0,0,0,-1,1616,1492,0,0
399,-468,0,0,0,0,0,0,0,0,0,-1,1623,1492,0,0
406,-468,0,0,0,0,0,0,0,0,0,-1,1630,1492,0,0
413,-468,0,0,0,0,0,0,0,0,0,-1,1637,1492,0,0
420,-468,0,0,0,0,0,0,0,0,0,-1,1644,1492,0,0
427,-468,0,0,0,0,0,0,0,0,0,-1,1651,1492,0,0
434,-468,0,0,0,0,0,0,0,0,0,-1,1658,1492,0,0
441,-468,0,0,0,0,0,0,0,0,0,-1,1665,1492,0,0
448,-468,0,0,0,0,0,0,0,0,0,-1,1672,1492,0,0
455,-468,0,0,0,0,0,0,0,0,0,-1,1679,1492,0,0
462,-468,0,0,0,0,0,0,0,0,0,-1,1686,1492,0,0
469,-468,15.6879,1.2677,0,0,0,0,0,0,0,-1,1693,1492,15.6879,-1.26772
476,-468,14.9318,1.61865,0,0,0,0,0,0,0,-1,1700,1492,14.9318,-1.61869
483,-468,11.265,4.64795,0,0,0,0,0,0,0,-1,1707,1492,11.265,-4.64798
490,-468,12.1316,3.51624,0,0,0,0,0,0,0,-1,1714,1492,12.1316,-3.51628
497,-468,16.5355,3.14587,0,0,0,0,0,0,0,-1,1721,1492,16.5356,-3.14583
504,-468,15.0642,4.10437,0,0,0,0,0,0,0,-1,1728,1492,15.0643,-4.10431
511,-468,15.6877,9.4801,0,0,0,0,0,0,0,-1,1735,1492,15.6878,-9.48007
518,-468,13.759,11.0887,0,0,0,0,0,0,0,-1,1742,1492,13.759,-11.0887
525,-468,16.6531,14.2238,0,0,0,0,0,0,0,-1,1749,1492,16.653,-14.2237
532,-468,16.9696,15.9641,0,0,0,0,0,0,0,-1,1756,1492,16.9696,-15.9641
539,-468,20.2513,19.098,0,0,0,0,0,0,0,-1,1763,1492,20.2514,-19.0981
546,-468,19.9209,18.4849,0,0,0,0,0,0,0,-1,1770,1492,19.9209,-18.4848
553,-468,19.9993,18.0129,0,0,0,0,0,0,0,-1,1777,1492,19.9993,-18.013
560,-468,19.9067,17.6533,0.00285812,0.00271322,-0.000701612,0.00349101,0.00208032,-0.733949,0.00202786,0.0359442,1784,1492,19.9067,-17.6534
567,-468,19.8827,17.2673,0.00242679,0.00263808,-0.00090366,0.00344225,0.00162262,-0.843588,0.00198847,0.0202232,1791,1492,19.8827,-17.2673
574,-468,19.8866,16.7839,0.00217334,0.00210481,-0.000849792,0.00298956,0.00128859,-0.765247,0.00173149,0.0150796,1798,1492,19.8865,-16.784
581,-468,19.8787,16.3406,0.00215417,0.001699,-0.000951693,0.00290511,0.000948061,-0.668035,0.00171066,0.0158345,1805,1492,19.8787,-16.3406
588,-468,19.8636,15.924,0.00223947,0.0013126,-0.00100373,0.00288159,0.000670485,-0.569123,0.00174114,0.0134593,1812,1492,19.8637,-15.924
595,-468,19.8499,15.5023,0.0026699,0.00099687,-0.00114858,0.00325429,0.000412473,-0.470663,0.00204594,0.0105435,1819,1492,19.8498,-15.5023
602,-468,19.8492,15.054,0.00304084,0.000550193,-0.00118308,0.00351323,7.78092e-05,-0.379887,0.00231665,0.00850062,1826,1492,19.8492,-15.054
609,-468,19.8241,14.6006,0.00346789,0.00011868,-0.00115245,0.00382613,-0.000239556,-0.301378,0.00263424,0.008936,1833,1492,19.8241,-14.6006
616,-468,19.8173,14.1584,0.00406715,-0.000238591,-0.00115475,0.00435729,-0.000528729,-0.246162,0.00309619,0.00928653,1840,1492,19.8173,-14.1585
623,-468,19.8184,13.7341,0.00483459,-0.000651337,-0.00111298,0.00505179,-0.000868539,-0.192731,0.00369159,0.0110007,1847,1492,19.8183,-13.7342
630,-468,19.812,13.2906,0.00566609,-0.00102464,-0.001024,0.0058193,-0.00117785,-0.148519,0.00432594,0.0119056,1854,1492,19.8121,-13.2906
637,-468,19.8068,12.8534,0.00659713,-0.00116082,-0.000985786,0.00672043,-0.00128412,-0.124434,0.004964,0.0144732,1861,1492,19.8067,-12.8534
644,-468,19.9122,12.5486,0.00755464,-0.00136886,-0.000916173,0.00764774,-0.00146195,-0.101262,0.00564922,0.0422889,1868,1492,19.9123,-12.5486
651,-468,20.1742,12.2252,0,0,0,0,0,0,0,-1,1875,1492,20.1741,-12.2252
658,-468,16.4969,10.0774,0,0,0,0,0,0,0,-1,1882,1492,16.497,-10.0774
665,-468,15.4673,8.59546,0,0,0,0,0,0,0,-1,1889,1492,15.4672,-8.59548
672,-468,9.96814,3.61133,0,0,0,0,0,0,0,-1,1896,1492,9.96817,-3.61139
679,-468,11.2191,1.91968,0,0,0,0,0,0,0,-1,1903,1492,11.2191,-1.91965
686,-468,11.9252,1.42285,0,0,0,0,0,0,0,-1,1910,1492,11.9252,-1.42291
693,-468,0,0,0,0,0,0,0,0,0,-1,1917,1492,0,0
700,-468,0,0,0,0,0,0,0,0,0,-1,1924,1492,0,0
707,-468,0,0,0,0,0,0,0,0,0,-1,1931,1492,0,0
714,-468,0,0,0,0,0,0,0,0,0,-1,1938,1492,0,0
721,-468,0,0,0,0,0,0,0,0,0,-1,1945,1492,0,0
728,-468,0,0,0,0,0,0,0,0,0,-1,1952,1492,0,0
735,-468,0,0,0,0,0,0,0,0,0,-1,1959,1492,0,0
742,-468,0,0,0,0,0,0,0,0,0,-1,1966,1492,0,0
749,-468,0,0,0,0,0,0,0,0,0,-1,1973,1492,0,0
756,-468,0,0,0,0,0,0,0,0,0,-1,1980,1492,0,0
763,-468,0,0,0,0,0,0,0,0,0,-1,1987,1492,0,0
770,-468,0,0,0,0,0,0,0,0,0,-1,1994,1492,0,0
777,-468,0,0,0,0,0,0,0,0,0,-1,2001,1492,0,0
784,-468,0,0,0,0,0,0,0,0,0,-1,2008,1492,0,0
791,-468,0,0,0,0,0,0,0,0,0,-1,2015,1492,0,0
798,-468,0,0,0,0,0,0,0,0,0,-1,2022,1492,0,0
805,-468,0,0,0,0,0,0,0,0,0,-1,2029,1492,0,0
812,-468,0,0,0,0,0,0,0,0,0,-1,2036,1492,0,0
-700,-475,0,0,0,0,0,0,0,0,0,-1,524,1499,0,0
-693,-475,0,0,0,0,0,0,0,0,0,-1,531,1499,0,0
-686,-475,0,0,0,0,0,0,0,0,0,-1,538,1499,0,0
-679,-475,0,0,0,0,0,0,0,0,0,-1,545,1499,0,0
-672,-475,0,0,0,0,0,0,0,0,0,-1,552,1499,0,0
-665,-475,0,0,0,0,0,0,0,0,0,-1,559,1499,0,0
-658,-475,0,0,0,0,0,0,0,0,0,-1,566,1499,0,0
-651,-475,0,0,0,0,0,0,0,0,0,-1,573,1499,0,0
-644,-475,0,0,0,0,0,0,0,0,0,-1,580,1499,0,0
-637,-475,0,0,0,0,0,0,0,0,0,-1,587,1499,0,0
-630,-475,0,0,0,0,0,0,0,0,0,-1,594,1499,0,0
-623,-475,0,0,0,0,0,0,0,0,0,-1,601,1499,0,0
-616,-475,0,0,0,0,0,0,0,0,0,-1,608,1499,0,0
-609,-475,0,0,0,0,0,0,0,0,0,-1,615,1499,0,0
-602,-475,0,0,0,0,0,0,0,0,0,-1,622,1499,0,0
-595,-475,0,0,0,0,0,0,0,0,0,-1,629,1499,0,0
-588,-475,0,0,0,0,0,0,0,0,0,-1,636,1499,0,0
-581,-475,0,0,0,0,0,0,0,0,0,-1,643,1499,0,0
-574,-475,0,0,0,0,0,0,0,0,0,-1,650,1499,0,0
-567,-475,0,0,0,0,0,0,0,0,0,-1,657,1499,0,0
-560,-475,-9.42731,9.29517,0,0,0,0,0,0,0,-1,664,1499,-9.42731,-9.29519
-553,-475,-8.15131,8.78369,0,0,0,0,0,0,0,-1,671,1499,-8.15131,-8.78367
-546,-475,-8.41254,8.20654,0,0,0,0,0,0,0,-1,678,1499,-8.41251,-8.20655
-539,-475,-4.7345,4.17419,0,0,0,0,0,0,0,-1,685,1499,-4.73449,-4.17418
-532,-475,-7.07379,4.25024,0,0,0,0,0,0,0,-1,692,1499,-7.07378,-4.2503
-525,-475,-6.87811,6.83655,0,0,0,0,0,0,0,-1,699,1499,-6.87813,-6.83649
-518,-475,-6.52716,9.61328,0,0,0,0,0,0,0,-1,706,1499,-6.52719,-9.61333
-511,-475,-5.47119,10.387,0,0,0,0,0,0,0,-1,713,1499,-5.47118,-10.3869
-504,-475,-5.28033,11.1791,0.017119,0.00489485,0.0079051,0.0209993,0.00101453,0.456312,0.0136739,0.0412384,720,1499,-5.28032,-11.1791
-497,-475,-5.32751,11.6765,0.0126577,0.0033353,0.00561389,0.0152932,0.000699744,0.438927,0.00997042,0.0287413,727,1499,-5.32753,-11.6765
-490,-475,-5.33411,12.0566,0.00928702,0.00225163,0.00401553,0.0111077,0.000430909,0.425694,0.00726578,0.0103357,734,1499,-5.33413,-12.0566
-483,-475,-5.34375,12.5675,0.0069007,0.00168086,0.00303046,0.0082902,0.000291362,0.42991,0.00543228,0.00874111,741,1499,-5.34373,-12.5675
-476,-475,-5.36749,13.0403,0.00524234,0.00143307,0.00248432,0.00646811,0.000207291,0.458358,0.00424466,0.00980897,748,1499,-5.3675,-13.0403
-469,-475,-5.36493,13.5242,0.00426828,0.00147007,0.00235688,0.00561005,0.000128303,0.517539,0.00369801,0.0116406,755,1499,-5.36491,-13.5242
-462,-475,-5.33875,13.9915,0.00381238,0.00173172,0.00250679,0.00548613,5.79592e-05,0.588711,0.00363826,0.0168334,762,1499,-5.33873,-13.9915
-455,-475,-5.354,14.4297,0.00388359,0.00218466,0.00294048,0.00609484,-2.65965e-05,0.644783,0.00407212,0.0160586,769,1499,-5.35403,-14.4297
-448,-475,-5.39856,14.9149,0.00453789,0.00296549,0.00374955,0.00758278,-7.93894e-05,0.682056,0.00508186,0.013937,776,1499,-5.39856,-14.915
-441,-475,-5.42505,15.4158,0.00608959,0.00403531,0.00508598,0.0102511,-0.000126212,0.685761,0.00687653,0.0157726,783,1499,-5.42508,-15.4157
-434,-475,-5.43549,15.853,0.00840873,0.00558818,0.00686729,0.0140091,-1.215e-05,0.684125,0.00934343,0.0103481,790,1499,-5.43547,-15.853
-427,-475,-5.37903,16.4218,0.0109328,0.00763309,0.00888163,0.0183165,0.00024936,0.693566,0.0121287,0.0245203,797,1499,-5.37902,-16.4218
-420,-475,-5.27167,16.9377,0.0135806,0.00927029,0.0115091,0.0231346,-0.000283705,0.692842,0.0155185,0.0427508,804,1499,-5.27169,-16.9378
-413,-475,-4.99292,17.5469,0,0,0,0,0,0,0,-1,811,1499,-4.99292,-17.5469
-406,-475,-2.56116,12.4956,0,0,0,0,0,0,0,-1,818,1499,-2.56116,-12.4956
-399,-475,-1.39667,6.1615,0,0,0,0,0,0,0,-1,825,1499,-1.39664,-6.16155
-392,-475,0.217163,8.61389,0,0,0,0,0,0,0,-1,832,1499,0.217167,-8.6139
-385,-475,1.18372,2.73999,0,0,0,0,0,0,0,-1,839,1499,1.18372,-2.73995
-378,-475,1.31409,2.90149,0,0,0,0,0,0,0,-1,846,1499,1.31411,-2.90151
-371,-475,2.3476,3.31116,0,0,0,0,0,0,0,-1,853,1499,2.34761,-3.31121
-364,-475,1.04462,9.05823,0,0,0,0,0,0,0,-1,860,1499,1.04461,-9.05825
-357,-475,-0.262756,7.97205,0,0,0,0,0,0,0,-1,867,1499,-0.262784,-7.97205
-350,-475,-2.77173,4.35486,0,0,0,0,0,0,0,-1,874,1499,-2.77175,-4.35491
-343,-475,-6.81641,-1.95203,0,0,0,0,0,0,0,-1,881,1499,-6.81643,1.95198
-336,-475,0,0,0,0,0,0,0,0,0,-1,888,1499,0,0
-329,-475,0,0,0,0,0,0,0,0,0,-1,895,1499,0,0
-322,-475,0,0,0,0,0,0,0,0,0,-1,902,1499,0,0
-315,-475,0,0,0,0,0,0,0,0,0,-1,909,1499,0,0
-308,-475,0,0,0,0,0,0,0,0,0,-1,916,1499,0,0
-301,-475,0,0,0,0,0,0,0,0,0,-1,923,1499,0,0
-294,-475,0,0,0,0,0,0,0,0,0,-1,930,1499,0,0
-287,-475,0,0,0,0,0,0,0,0,0,-1,937,1499,0,0
-280,-475,0,0,0,0,0,0,0,0,0,-1,944,1499,0,0
-273,-475,0,0,0,0,0,0,0,0,0,-1,951,1499,0,0
-266,-475,0,0,0,0,0,0,0,0,0,-1,958,1499,0,0
-259,-475,0,0,0,0,0,0,0,0,0,-1,965,1499,0,0
-252,-475,0,0,0,0,0,0,0,0,0,-1,972,1499,0,0
-245,-475,0,0,0,0,0,0,0,0,0,-1,979,1499,0,0
-238,-475,0,0,0,0,0,0,0,0,0,-1,986,1499,0,0
-231,-475,0,0,0,0,0,0,0,0,0,-1,993,1499,0,0
-224,-475,0,0,0,0,0,0,0,0,0,-1,1000,1499,0,0
-217,-475,0,0,0,0,0,0,0,0,0,-1,1007,1499,0,0
-210,-475,0,0,0,0,0,0,0,0,0,-1,1014,1499,0,0
-203,-475,0,0,0,0,0,0,0,0,0,-1,1021,1499,0,0
-196,-475,0,0,0,0,0,0,0,0,0,-1,1028,1499,0,0
-189,-475,0,0,0,0,0,0,0,0,0,-1,1035,1499,0,0
-182,-475,0,0,0,0,0,0,0,0,0,-1,1042,1499,0,0
-175,-475,0,0,0,0,0,0,0,0,0,-1,1049,1499,0,0
-168,-475,0,0,0,0,0,0,0,0,0,-1,1056,1499,0,0
-161,-475,0,0,0,0,0,0,0,0,0,-1,1063,1499,0,0
-154,-475,0,0,0,0,0,0,0,0,0,-1,1070,1499,0,0
-147,-475,0,0,0,0,0,0,0,0,0,-1,1077,1499,0,0
-140,-475,0,0,0,0,0,0,0,0,0,-1,1084,1499,0,0
-133,-475,0,0,0,0,0,0,0,0,0,-1,1091,1499,0,0
-126,-475,0,0,0,0,0,0,0,0,0,-1,1098,1499,0,0
-119,-475,0,0,0,0,0,0,0,0,0,-1,1105,1499,0,0
-112,-475,0,0,0,0,0,0,0,0,0,-1,1112,1499,0,0
-105,-475,0,0,0,0,0,0,0,0,0,-1,1119,1499,0,0
-98,-475,0,0,0,0,0,0,0,0,0,-1,1126,1499,0,0
-91,-475,0,0,0,0,0,0,0,0,0,-1,1133,1499,0,0
-84,-475,0,0,0,0,0,0,0,0,0,-1,1140,1499,0,0
-77,-475,0,0,0,0,0,0,0,0,0,-1,1147,1499,0,0
-70,-475,0,0,0,0,0,0,0,0,0,-1,1154,1499,0,0
-63,-475,0,0,0,0,0,0,0,0,0,-1,1161,1499,0,0
-56,-475,0,0,0,0,0,0,0,0,0,-1,1168,1499,0,0
-49,-475,0,0,0,0,0,0,0,0,0,-1,1175,1499,0,0
-42,-475,0,0,0,0,0,0,0,0,0,-1,1182,1499,0,0
-35,-475,0,0,0,0,0,0,0,0,0,-1,1189,1499,0,0
-28,-475,0,0,0,0,0,0,0,0,0,-1,1196,1499,0,0
-21,-475,0,0,0,0,0,0,0,0,0,-1,1203,1499,0,0
-14,-475,0,0,0,0,0,0,0,0,0,-1,1210,1499,0,0
-7,-475,0,0,0,0,0,0,0,0,0,-1,1217,1499,0,0
0,-475,0,0,0,0,0,0,0,0,0,-1,1224,1499,0,0
7,-475,0,0,0,0,0,0,0,0,0,-1,1231,1499,0,0
14,-475,0,0,0,0,0,0,0,0,0,-1,1238,1499,0,0
21,-475,0,0,0,0,0,0,0,0,0,-1,1245,1499,0,0
28,-475,0,0,0,0,0,0,0,0,0,-1,1252,1499,0,0
35,-475,0,0,0,0,0,0,0,0,0,-1,1259,1499,0,0
42,-475,0,0,0,0,0,0,0,0,0,-1,1266,1499,0,0
49,-475,0,0,0,0,0,0,0,0,0,-1,1273,1499,0,0
56,-475,0,0,0,0,0,0,0,0,0,-1,1280,1499,0,0
63,-475,0,0,0,0,0,0,0,0,0,-1,1287,1499,0,0
70,-475,0,0,0,0,0,0,0,0,0,-1,1294,1499,0,0
77,-475,0,0,0,0,0,0,0,0,0,-1,1301,1499,0,0
84,-475,0,0,0,0,0,0,0,0,0,-1,1308,1499,0,0
91,-475,0,0,0,0,0,0,0,0,0,-1,1315,1499,0,0
98,-475,0,0,0,0,0,0,0,0,0,-1,1322,1499,0,0
105,-475,0,0,0,0,0,0,0,0,0,-1,1329,1499,0,0
112,-475,0,0,0,0,0,0,0,0,0,-1,1336,1499,0,0
119,-475,0,0,0,0,0,0,0,0,0,-1,1343,1499,0,0
126,-475,0,0,0,0,0,0,0,0,0,-1,1350,1499,0,0
133,-475,0,0,0,0,0,0,0,0,0,-1,1357,1499,0,0
140,-475,0,0,0,0,0,0,0,0,0,-1,1364,1499,0,0
147,-475,0,0,0,0,0,0,0,0,0,-1,1371,1499,0,0
154,-475,0,0,0,0,0,0,0,0,0,-1,1378,1499,0,0
161,-475,0,0,0,0,0,0,0,0,0,-1,1385,1499,0,0
168,-475,0,0,0,0,0,0,0,0,0,-1,1392,1499,0,0
175,-475,0,0,0,0,0,0,0,0,0,-1,1399,1499,0,0
182,-475,0,0,0,0,0,0,0,0,0,-1,1406,1499,0,0
189,-475,0,0,0,0,0,0,0,0,0,-1,1413,1499,0,0
196,-475,0,0,0,0,0,0,0,0,0,-1,1420,1499,0,0
203,-475,0,0,0,0,0,0,0,0,0,-1,1427,1499,0,0
210,-475,0,0,0,0,0,0,0,0,0,-1,1434,1499,0,0
217,-475,0,0,0,0,0,0,0,0,0,-1,1441,1499,0,0
224,-475,0,0,0,0,0,0,0,0,0,-1,1448,1499,0,0
231,-475,0,0,0,0,0,0,0,0,0,-1,1455,1499,0,0
238,-475,0,0,0,0,0,0,0,0,0,-1,1462,1499,0,0
245,-475,0,0,0,0,0,0,0,0,0,-1,1469,1499,0,0
252,-475,0,0,0,0,0,0,0,0,0,-1,1476,1499,0,0
259,-475,0,0,0,0,0,0,0,0,0,-1,1483,1499,0,0
266,-475,0,0,0,0,0,0,0,0,0,-1,1490,1499,0,0
273,-475,0,0,0,0,0,0,0,0,0,-1,1497,1499,0,0
280,-475,0,0,0,0,0,0,0,0,0,-1,1504,1499,0,0
287,-475,0,0,0,0,0,0,0,0,0,-1,1511,1499,0,0
294,-475,0,0,0,0,0,0,0,0,0,-1,1518,1499,0,0
301,-475,0,0,0,0,0,0,0,0,0,-1,1525,1499,0,0
308,-475,0,0,0,0,0,0,0,0,0,-1,1532,1499,0,0
315,-475,0,0,0,0,0,0,0,0,0,-1,1539,1499,0,0
322,-475,0,0,0,0,0,0,0,0,0,-1,1546,1499,0,0
329,-475,0,0,0,0,0,0,0,0,0,-1,1553,1499,0,0
336,-475,0,0,0,0,0,0,0,0,0,-1,1560,1499,0,0
343,-475,0,0,0,0,0,0,0,0,0,-1,1567,1499,0,0
350,-475,0,0,0,0,0,0,0,0,0,-1,1574,1499,0,0
357,-475,0,0,0,0,0,0,0,0,0,-1,1581,1499,0,0
364,-475,0,0,0,0,0,0,0,0,0,-1,1588,1499,0,0
371,-475,0,0,0,0,0,0,0,0,0,-1,1595,1499,0,0
378,-475,0,0,0,0,0,0,0,0,0,-1,1602,1499,0,0
385,-475,0,0,0,0,0,0,0,0,0,-1,1609,1499,0,0
392,-475,0,0,0,0,0,0,0,0,0,-1,1616,1499,0,0
399,-475,0,0,0,0,0,0,0,0,0,-1,1623,1499,0,0
406,-475,0,0,0,0,0,0,0,0,0,-1,1630,1499,0,0
413,-475,0,0,0,0,0,0,0,0,0,-1,1637,1499,0,0
420,-475,0,0,0,0,0,0,0,0,0,-1,1644,1499,0,0
427,-475,0,0,0,0,0,0,0,0,0,-1,1651,1499,0,0
434,-475,0,0,0,0,0,0,0,0,0,-1,1658,1499,0,0
441,-475,0,0,0,0,0,0,0,0,0,-1,1665,1499,0,0
448,-475,0,0,0,0,0,0,0,0,0,-1,1672,1499,0,0
455,-475,0,0,0,0,0,0,0,0,0,-1,1679,1499,0,0
462,-475,12.6372,0.275391,0,0,0,0,0,0,0,-1,1686,1499,12.6372,-0.27536
469,-475,15.6437,2.28296,0,0,0,0,0,0,0,-1,1693,1499,15.6437,-2.28293
476,-475,15.3302,2.71436,0,0,0,0,0,0,0,-1,1700,1499,15.3303,-2.7143
483,-475,10.7461,5.91479,0,0,0,0,0,0,0,-1,1707,1499,10.7461,-5.91476
490,-475,11.9305,4.4364,0,0,0,0,0,0,0,-1,1714,1499,11.9305,-4.43644
497,-475,15.3451,4.3479,0,0,0,0,0,0,0,-1,1721,1499,15.3451,-4.34789
504,-475,16.9646,7.71265,0,0,0,0,0,0,0,-1,1728,1499,16.9646,-7.71265
511,-475,18.941,12.7572,0,0,0,0,0,0,0,-1,1735,1499,18.941,-12.7572
518,-475,17.0021,13.8564,0,0,0,0,0,0,0,-1,1742,1499,17.0021,-13.8564
525,-475,17.5637,15.2103,0,0,0,0,0,0,0,-1,1749,1499,17.5637,-15.2103
532,-475,19.6923,19.2256,0,0,0,0,0,0,0,-1,1756,1499,19.6923,-19.2256
539,-475,19.6886,18.9662,0.00253088,0.00417243,-0.000540073,0.00433418,0.00236913,-1.27981,0.00250596,0.0455562,1763,1499,19.6886,-18.9662
546,-475,19.5729,18.5681,0,0,0,0,0,0,0,-1,1770,1499,19.5729,-18.5682
553,-475,19.1991,18.2737,0,0,0,0,0,0,0,-1,1777,1499,19.1992,-18.2737
560,-475,19.3311,17.7787,0.00259187,0.00229044,-0.00067473,0.00313252,0.0017498,-0.675516,0.00181269,0.0248271,1784,1499,19.331,-17.7786
567,-475,19.4802,17.2371,0.00223491,0.00213967,-0.000799958,0.00298867,0.00138592,-0.755669,0.00172702,0.0142427,1791,1499,19.4802,-17.237
574,-475,19.4503,16.7932,0.00211011,0.00169708,-0.000804392,0.00273407,0.00107312,-0.659746,0.00159063,0.0142901,1798,1499,19.4503,-16.7933
581,-475,19.4362,16.3749,0.00220023,0.0013095,-0.000935562,0.00279102,0.000718702,-0.56325,0.00167338,0.0125475,1805,1499,19.4361,-16.3749
588,-475,19.4193,15.9398,0.00245589,0.000999601,-0.00106831,0.0030206,0.000434887,-0.486269,0.00188556,0.0108597,1812,1499,19.4194,-15.9398
595,-475,19.4219,15.5104,0.00308972,0.000741161,-0.00130471,0.00367077,0.000160106,-0.418982,0.0023956,0.0112246,1819,1499,19.4219,-15.5104
602,-475,19.4263,15.0686,0.00371511,0.000368735,-0.00148339,0.00427799,-0.000194146,-0.362671,0.00291886,0.0122281,1826,1499,19.4262,-15.0686
609,-475,19.4133,14.626,0.00444231,1.52831e-05,-0.00161566,0.00496924,-0.000511642,-0.315259,0.00349588,0.0110628,1833,1499,19.4133,-14.626
616,-475,19.3776,14.2042,0.00539746,-0.000303254,-0.00177129,0.00590299,-0.000808787,-0.278013,0.00423077,0.0104167,1840,1499,19.3775,-14.2042
623,-475,19.3691,13.7531,0.00654522,-0.000698144,-0.00188166,0.00700486,-0.00115779,-0.239584,0.00509983,0.0111686,1847,1499,19.3692,-13.7531
630,-475,19.376,13.3098,0.00778255,-0.00102022,-0.00193921,0.00819081,-0.00142848,-0.207501,0.00599372,0.013792,1854,1499,19.376,-13.3098
637,-475,19.4075,12.8317,0.0091728,-0.00108144,-0.00203602,0.00956227,-0.00147091,-0.189005,0.00691747,0.0256834,1861,1499,19.4075,-12.8317
644,-475,19.4546,12.4015,0,0,0,0,0,0,0,-1,1868,1499,19.4546,-12.4015
651,-475,11.7965,7.57593,0,0,0,0,0,0,0,-1,1875,1499,11.7965,-7.5759
658,-475,14.6708,8.80322,0,0,0,0,0,0,0,-1,1882,1499,14.6708,-8.8032
665,-475,9.33435,5.43335,0,0,0,0,0,0,0,-1,1889,1499,9.33439,-5.43332
672,-475,9.38635,1.10474,0,0,0,0,0,0,0,-1,1896,1499,9.38629,-1.10475
679,-475,12.2594,1.31079,0,0,0,0,0,0,0,-1,1903,1499,12.2594,-1.31077
686,-475,0,0,0,0,0,0,0,0,0,-1,1910,1499,0,0
693,-475,0,0,0,0,0,0,0,0,0,-1,1917,1499,0,0
700,-475,0,0,0,0,0,0,0,0,0,-1,1924,1499,0,0
707,-475,0,0,0,0,0,0,0,0,0,-1,1931,1499,0,0
714,-475,0,0,0,0,0,0,0,0,0,-1,1938,1499,0,0
721,-475,0,0,0,0,0,0,0,0,0,-1,1945,1499,0,0
728,-475,0,0,0,0,0,0,0,0,0,-1,1952,1499,0,0
735,-475,0,0,0,0,0,0,0,0,0,-1,1959,1499,0,0
742,-475,0,0,0,0,0,0,0,0,0,-1,1966,1499,0,0
749,-475,0,0,0,0,0,0,0,0,0,-1,1973,1499,0,0
756,-475,0,0,0,0,0,0,0,0,0,-1,1980,1499,0,0
763,-475,0,0,0,0,0,0,0,0,0,-1,1987,1499,0,0
770,-475,0,0,0,0,0,0,0,0,0,-1,1994,1499,0,0
777,-475,0,0,0,0,0,0,0,0,0,-1,2001,1499,0,0
784,-475,0,0,0,0,0,0,0,0,0,-1,2008,1499,0,0
791,-475,0,0,0,0,0,0,0,0,0,-1,2015,1499,0,0
798,-475,0,0,0,0,0,0,0,0,0,-1,2022,1499,0,0
805,-475,0,0,0,0,0,0,0,0,0,-1,2029,1499,0,0
812,-475,0,0,0,0,0,0,0,0,0,-1,2036,1499,0,0
-700,-482,0,0,0,0,0,0,0,0,0,-1,524,1506,0,0
-693,-482,0,0,0,0,0,0,0,0,0,-1,531,1506,0,0
-686,-482,0,0,0,0,0,0,0,0,0,-1,538,1506,0,0
-679,-482,0,0,0,0,0,0,0,0,0,-1,545,1506,0,0
-672,-482,0,0,0,0,0,0,0,0,0,-1,552,1506,0,0
-665,-482,0,0,0,0,0,0,0,0,0,-1,559,1506,0,0
-658,-482,0,0,0,0,0,0,0,0,0,-1,566,1506,0,0
-651,-482,0,0,0,0,0,0,0,0,0,-1,573,1506,0,0
-644,-482,0,0,0,0,0,0,0,0,0,-1,580,1506,0,0
-637,-482,0,0,0,0,0,0,0,0,0,-1,587,1506,0,0
-630,-482,0,0,0,0,0,0,0,0,0,-1,594,1506,0,0
-623,-482,0,0,0,0,0,0,0,0,0,-1,601,1506,0,0
-616,-482,0,0,0,0,0,0,0,0,0,-1,608,1506,0,0
-609,-482,0,0,0,0,0,0,0,0,0,-1,615,1506,0,0
-602,-482,0,0,0,0,0,0,0,0,0,-1,622,1506,0,0
-595,-482,0,0,0,0,0,0,0,0,0,-1,629,1506,0,0
-588,-482,0,0,0,0,0,0,0,0,0,-1,636,1506,0,0
-581,-482,0,0,0,0,0,0,0,0,0,-1,643,1506,0,0
-574,-482,0,0,0,0,0,0,0,0,0,-1,650,1506,0,0
-567,-482,0,0,0,0,0,0,0,0,0,-1,657,1506,0,0
-560,-482,0,0,0,0,0,0,0,0,0,-1,664,1506,0,0
-553,-482,-9.06055,9.34314,0,0,0,0,0,0,0,-1,671,1506,-9.06056,-9.34312
-546,-482,-4.08624,8.34241,0,0,0,0,0,0,0,-1,678,1506,-4.08624,-8.3424
-539,-482,-4.29877,2.73499,0,0,0,0,0,0,0,-1,685,1506,-4.29879,-2.73494
-532,-482,-3.63611,4.23987,0,0,0,0,0,0,0,-1,692,1506,-3.63609,-4.23983
-525,-482,-6.19116,5.24927,0,0,0,0,0,0,0,-1,699,1506,-6.19117,-5.24927
-518,-482,-6.36865,6.89221,0,0,0,0,0,0,0,-1,706,1506,-6.36867,-6.89225
-511,-482,-5.64117,9.91162,0,0,0,0,0,0,0,-1,713,1506,-5.64117,-9.91157
-504,-482,-5.24438,10.9368,0.0247126,0.00681831,0.0108527,0.0298308,0.00170014,0.440672,0.0193454,0.0492561,720,1506,-5.2444,-10.9367
-497,-482,-4.76691,11.7228,0.0180346,0.0044677,0.0075894,0.0214302,0.00107204,0.420707,0.0139432,0.0410712,727,1506,-4.76693,-11.7228
-490,-482,-4.89252,12.0415,0.0130353,0.00276365,0.00528066,0.0152658,0.0005332,0.39965,0.0100042,0.0273495,734,1506,-4.89253,-12.0415
-483,-482,-4.87659,12.5597,0.00945657,0.00173826,0.00377924,0.0109989,0.00019596,0.387468,0.00726814,0.00918355,741,1506,-4.87661,-12.5596
-476,-482,-4.88782,13.0525,0.00682057,0.00113057,0.00279468,0.00796358,-1.24429e-05,0.388238,0.00531321,0.00943998,748,1506,-4.8878,-13.0524
-469,-482,-4.89435,13.5417,0.00509053,0.000903642,0.00231565,0.00611874,-0.000124569,0.417876,0.00412131,0.0110351,755,1506,-4.89435,-13.5417
-462,-482,-4.9035,13.9928,0.00402237,0.000966024,0.00216771,0.00514643,-0.000158027,0.478371,0.00348482,0.0122473,762,1506,-4.90347,-13.9928
-455,-482,-4.92468,14.4432,0.00355765,0.00126904,0.00231961,0.00499986,-0.000173162,0.556255,0.00339243,0.013448,769,1506,-4.92468,-14.4433
-448,-482,-4.92841,14.9534,0.00369253,0.0019182,0.00280709,0.0057493,-0.000138578,0.632343,0.00387989,0.0139611,776,1506,-4.9284,-14.9534
-441,-482,-4.93738,15.4215,0.00459304,0.00287779,0.00380395,0.00763485,-0.000164012,0.674524,0.00514544,0.0126075,783,1506,-4.93737,-15.4215
-434,-482,-4.95563,15.8784,0.00629267,0.00433995,0.00524218,0.0106486,-1.60253e-05,0.693328,0.00710444,0.0144947,790,1506,-4.95565,-15.8784
-427,-482,-4.97601,16.377,0.00828088,0.006354,0.00692954,0.0143136,0.000321243,0.716324,0.00943716,0.0179141,797,1506,-4.97602,-16.377
-420,-482,-4.86761,17.0594,0.0103785,0.00810807,0.00913443,0.018448,3.85707e-05,0.723577,0.0122858,0.0435943,804,1506,-4.86762,-17.0595
-413,-482,-4.5014,17.7321,0,0,0,0,0,0,0,-1,811,1506,-4.5014,-17.732
-406,-482,-2.51373,12.7556,0,0,0,0,0,0,0,-1,818,1506,-2.51376,-12.7556
-399,-482,-1.3822,9.22595,0,0,0,0,0,0,0,-1,825,1506,-1.38221,-9.22598
-392,-482,-1.06836,9.22729,0,0,0,0,0,0,0,-1,832,1506,-1.06835,-9.2273
-385,-482,0.0647583,8.90649,0,0,0,0,0,0,0,-1,839,1506,0.0647778,-8.90644
-378,-482,0.215698,5.96948,0,0,0,0,0,0,0,-1,846,1506,0.215681,-5.9695
-371,-482,-0.10907,8.10437,0,0,0,0,0,0,0,-1,853,1506,-0.109063,-8.10433
-364,-482,-0.154968,10.5032,0,0,0,0,0,0,0,-1,860,1506,-0.154976,-10.5032
-357,-482,2.14807,4.60144,0,0,0,0,0,0,0,-1,867,1506,2.14807,-4.60144
-350,-482,-7.5813,-1.45935,0,0,0,0,0,0,0,-1,874,1506,-7.58133,1.45937
-343,-482,-7.19983,-1.26416,0,0,0,0,0,0,0,-1,881,1506,-7.19981,1.26414
-336,-482,-6.78491,-1.18127,0,0,0,0,0,0,0,-1,888,1506,-6.78488,1.18125
-329,-482,0,0,0,0,0,0,0,0,0,-1,895,1506,0,0
-322,-482,0,0,0,0,0,0,0,0,0,-1,902,1506,0,0
-315,-482,0,0,0,0,0,0,0,0,0,-1,909,1506,0,0
-308,-482,0,0,0,0,0,0,0,0,0,-1,916,1506,0,0
-301,-482,0,0,0,0,0,0,0,0,0,-1,923,1506,0,0
-294,-482,0,0,0,0,0,0,0,0,0,-1,930,1506,0,0
-287,-482,0,0,0,0,0,0,0,0,0,-1,937,1506,0,0
-280,-482,0,0,0,0,0,0,0,0,0,-1,944,1506,0,0
-273,-482,0,0,0,0,0,0,0,0,0,-1,951,1506,0,0
-266,-482,0,0,0,0,0,0,0,0,0,-1,958,1506,0,0
-259,-482,0,0,0,0,0,0,0,0,0,-1,965,1506,0,0
-252,-482,0,0,0,0,0,0,0,0,0,-1,972,1506,0,0
-245,-482,0,0,0,0,0,0,0,0,0,-1,979,1506,0,0
-238,-482,0,0,0,0,0,0,0,0,0,-1,986,1506,0,0
-231,-482,0,0,0,0,0,0,0,0,0,-1,993,1506,0,0
-224,-482,0,0,0,0,0,0,0,0,0,-1,1000,1506,0,0
-217,-482,0,0,0,0,0,0,0,0,0,-1,1007,1506,0,0
-210,-482,0,0,0,0,0,0,0,0,0,-1,1014,1506,0,0
-203,-482,0,0,0,0,0,0,0,0,0,-1,1021,1506,0,0
-196,-482,0,0,0,0,0,0,0,0,0,-1,1028,1506,0,0
-189,-482,0,0,0,0,0,0,0,0,0,-1,1035,1506,0,0
-182,-482,0,0,0,0,0,0,0,0,0,-1,1042,1506,0,0
-175,-482,0,0,0,0,0,0,0,0,0,-1,1049,1506,0,0
-168,-482,0,0,0,0,0,0,0,0,0,-1,1056,1506,0,0
-161,-482,0,0,0,0,0,0,0,0,0,-1,1063,1506,0,0
-154,-482,0,0,0,0,0,0,0,0,0,-1,1070,1506,0,0
-147,-482,0,0,0,0,0,0,0,0,0,-1,1077,1506,0,0
-140,-482,0,0,0,0,0,0,0,0,0,-1,1084,1506,0,0
-133,-482,0,0,0,0,0,0,0,0,0,-1,1091,1506,0,0
-126,-482,0,0,0,0,0,0,0,0,0,-1,1098,1506,0,0
-119,-482,0,0,0,0,0,0,0,0,0,-1,1105,1506,0,0
-112,-482,0,0,0,0,0,0,0,0,0,-1,1112,1506,0,0
-105,-482,0,0,0,0,0,0,0,0,0,-1,1119,1506,0,0
-98,-482,0,0,0,0,0,0,0,0,0,-1,1126,1506,0,0
-91,-482,0,0,0,0,0,0,0,0,0,-1,1133,1506,0,0
-84,-482,0,0,0,0,0,0,0,0,0,-1,1140,1506,0,0
-77,-482,0,0,0,0,0,0,0,0,0,-1,1147,1506,0,0
-70,-482,0,0,0,0,0,0,0,0,0,-1,1154,1506,0,0
-63,-482,0,0,0,0,0,0,0,0,0,-1,1161,1506,0,0
-56,-482,0,0,0,0,0,0,0,0,0,-1,1168,1506,0,0
-49,-482,0,0,0,0,0,0,0,0,0,-1,1175,1506,0,0
-42,-482,0,0,0,0,0,0,0,0,0,-1,1182,1506,0,0
-35,-482,0,0,0,0,0,0,0,0,0,-1,1189,1506,0,0
-28,-482,0,0,0,0,0,0,0,0,0,-1,1196,1506,0,0
-21,-482,0,0,0,0,0,0,0,0,0,-1,1203,1506,0,0
-14,-482,0,0,0,0,0,0,0,0,0,-1,1210,1506,0,0
-7,-482,0,0,0,0,0,0,0,0,0,-1,1217,1506,0,0
0,-482,0,0,0,0,0,0,0,0,0,-1,1224,1506,0,0
7,-482,0,0,0,0,0,0,0,0,0,-1,1231,1506,0,0
14,-482,0,0,0,0,0,0,0,0,0,-1,1238,1506,0,0
21,-482,0,0,0,0,0,0,0,0,0,-1,1245,1506,0,0
28,-482,0,0,0,0,0,0,0,0,0,-1,1252,1506,0,0
35,-482,0,0,0,0,0,0,0,0,0,-1,1259,1506,0,0
42,-482,0,0,0,0,0,0,0,0,0,-1,1266,1506,0,0
49,-482,0,0,0,0,0,0,0,0,0,-1,1273,1506,0,0
56,-482,0,0,0,0,0,0,0,0,0,-1,1280,1506,0,0
63,-482,0,0,0,0,0,0,0,0,0,-1,1287,1506,0,0
70,-482,0,0,0,0,0,0,0,0,0,-1,1294,1506,0,0
77,-482,0,0,0,0,0,0,0,0,0,-1,1301,1506,0,0
84,-482,0,0,0,0,0,0,0,0,0,-1,1308,1506,0,0
91,-482,0,0,0,0,0,0,0,0,0,-1,1315,1506,0,0
98,-482,0,0,0,0,0,0,0,0,0,-1,1322,1506,0,0
105,-482,0,0,0,0,0,0,0,0,0,-1,1329,1506,0,0
112,-482,0,0,0,0,0,0,0,0,0,-1,1336,1506,0,0
119,-482,0,0,0,0,0,0,0,0,0,-1,1343,1506,0,0
126,-482,0,0,0,0,0,0,0,0,0,-1,1350,1506,0,0
133,-482,0,0,0,0,0,0,0,0,0,-1,1357,1506,0,0
140,-482,0,0,0,0,0,0,0,0,0,-1,1364,1506,0,0
147,-482,0,0,0,0,0,0,0,0,0,-1,1371,1506,0,0
154,-482,0,0,0,0,0,0,0,0,0,-1,1378,1506,0,0
161,-482,0,0,0,0,0,0,0,0,0,-1,1385,1506,0,0
168,-482,0,0,0,0,0,0,0,0,0,-1,1392,1506,0,0
175,-482,0,0,0,0,0,0,0,0,0,-1,1399,1506,0,0
182,-482,0,0,0,0,0,0,0,0,0,-1,1406,1506,0,0
189,-482,0,0,0,0,0,0,0,0,0,-1,1413,1506,0,0
196,-482,0,0,0,0,0,0,0,0,0,-1,1420,1506,0,0
203,-482,0,0,0,0,0,0,0,0,0,-1,1427,1506,0,0
210,-482,0,0,0,0,0,0,0,0,0,-1,1434,1506,0,0
217,-482,0,0,0,0,0,0,0,0,0,-1,1441,1506,0,0
224,-482,0,0,0,0,0,0,0,0,0,-1,1448,1506,0,0
231,-482,0,0,0,0,0,0,0,0,0,-1,1455,1506,0,0
238,-482,0,0,0,0,0,0,0,0,0,-1,1462,1506,0,0
245,-482,0,0,0,0,0,0,0,0,0,-1,1469,1506,0,0
252,-482,0,0,0,0,0,0,0,0,0,-1,1476,1506,0,0
259,-482,0,0,0,0,0,0,0,0,0,-1,1483,1506,0,0
266,-482,0,0,0,0,0,0,0,0,0,-1,1490,1506,0,0
273,-482,0,0,0,0,0,0,0,0,0,-1,1497,1506,0,0
280,-482,0,0,0,0,0,0,0,0,0,-1,1504,1506,0,0
287,-482,0,0,0,0,0,0,0,0,0,-1,1511,1506,0,0
294,-482,0,0,0,0,0,0,0,0,0,-1,1518,1506,0,0
301,-482,0,0,0,0,0,0,0,0,0,-1,1525,1506,0,0
308,-482,0,0,0,0,0,0,0,0,0,-1,1532,1506,0,0
315,-482,0,0,0,0,0,0,0,0,0,-1,1539,1506,0,0
322,-482,0,0,0,0,0,0,0,0,0,-1,1546,1506,0,0
329,-482,0,0,0,0,0,0,0,0,0,-1,1553,1506,0,0
336,-482,0,0,0,0,0,0,0,0,0,-1,1560,1506,0,0
343,-482,0,0,0,0,0,0,0,0,0,-1,1567,1506,0,0
350,-482,0,0,0,0,0,0,0,0,0,-1,1574,1506,0,0
357,-482,0,0,0,0,0,0,0,0,0,-1,1581,1506,0,0
364,-482,0,0,0,0,0,0,0,0,0,-1,1588,1506,0,0
371,-482,0,0,0,0,0,0,0,0,0,-1,1595,1506,0,0
378,-482,0,0,0,0,0,0,0,0,0,-1,1602,1506,0,0
385,-482,0,0,0,0,0,0,0,0,0,-1,1609,1506,0,0
392,-482,0,0,0,0,0,0,0,0,0,-1,1616,1506,0,0
399,-482,0,0,0,0,0,0,0,0,0,-1,1623,1506,0,0
406,-482,0,0,0,0,0,0,0,0,0,-1,1630,1506,0,0
413,-482,0,0,0,0,0,0,0,0,0,-1,1637,1506,0,0
420,-482,0,0,0,0,0,0,0,0,0,-1,1644,1506,0,0
427,-482,0,0,0,0,0,0,0,0,0,-1,1651,1506,0,0
434,-482,0,0,0,0,0,0,0,0,0,-1,1658,1506,0,0
441,-482,0,0,0,0,0,0,0,0,0,-1,1665,1506,0,0
448,-482,4.24146,1.55383,0,0,0,0,0,0,0,-1,1672,1506,4.24149,-1.55381
455,-482,12.4122,1.09729,0,0,0,0,0,0,0,-1,1679,1506,12.4122,-1.09734
462,-482,15.0673,3.13135,0,0,0,0,0,0,0,-1,1686,1506,15.0672,-3.13134
469,-482,15.3793,3.46301,0,0,0,0,0,0,0,-1,1693,1506,15.3793,-3.46307
476,-482,8.69751,9.18738,0,0,0,0,0,0,0,-1,1700,1506,8.69753,-9.18739
483,-482,10.0902,7.17432,0,0,0,0,0,0,0,-1,1707,1506,10.0902,-7.1743
490,-482,11.6289,5.4928,0,0,0,0,0,0,0,-1,1714,1506,11.6289,-5.49283
497,-482,15.9539,7.40222,0,0,0,0,0,0,0,-1,1721,1506,15.9538,-7.40219
504,-482,20.4233,12.006,0,0,0,0,0,0,0,-1,1728,1506,20.4233,-12.006
511,-482,18.4937,12.9175,0,0,0,0,0,0,0,-1,1735,1506,18.4936,-12.9174
518,-482,16.6002,13.9679,0,0,0,0,0,0,0,-1,1742,1506,16.6003,-13.9679
525,-482,18.495,15.9618,0,0,0,0,0,0,0,-1,1749,1506,18.495,-15.9618
532,-482,19.1189,19.319,0,0,0,0,0,0,0,-1,1756,1506,19.1189,-19.319
539,-482,19.2013,18.962,0,0,0,0,0,0,0,-1,1763,1506,19.2012,-18.9621
546,-482,18.957,18.8228,0,0,0,0,0,0,0,-1,1770,1506,18.9571,-18.8228
553,-482,18.8208,18.1821,0,0,0,0,0,0,0,-1,1777,1506,18.8208,-18.1822
560,-482,18.9631,17.6947,0.00241885,0.00207438,-0.000695325,0.00296295,0.00153028,-0.663991,0.00171097,0.0146189,1784,1506,18.9631,-17.6947
567,-482,19.0463,17.2479,0.00214511,0.00179712,-0.000761036,0.00275179,0.00119044,-0.673015,0.00159355,0.0147626,1791,1506,19.0463,-17.2479
574,-482,19.0367,16.8204,0.00217277,0.00141528,-0.000854529,0.00272872,0.000859319,-0.576797,0.00161101,0.0140085,1798,1506,19.0368,-16.8204
581,-482,19.0109,16.3951,0.00239712,0.0010276,-0.00103847,0.00295627,0.000468443,-0.493924,0.00183474,0.0101381,1805,1506,19.0109,-16.3952
588,-482,18.9781,15.9532,0.00285684,0.000769196,-0.0012767,0.00346212,0.000163919,-0.442709,0.00225543,0.0108793,1812,1506,18.9781,-15.9532
595,-482,18.9706,15.5107,0.00372806,0.000551218,-0.00162968,0.00441537,-0.000136088,-0.399109,0.00298998,0.01646,1819,1506,18.9705,-15.5107
602,-482,19.0026,15.0635,0.00467327,0.000247686,-0.00199342,0.00543876,-0.000517805,-0.366646,0.00381019,0.0201677,1826,1506,19.0026,-15.0635
609,-482,18.988,14.6471,0.00579055,-3.53127e-05,-0.00234751,0.00661874,-0.000863497,-0.339161,0.00472669,0.0157761,1833,1506,18.988,-14.6471
616,-482,18.9363,14.231,0.00724061,-0.000328095,-0.00272817,0.00812147,-0.00120896,-0.31231,0.00585902,0.0122137,1840,1506,18.9363,-14.2309
623,-482,18.9008,13.8063,0.00893716,-0.000701081,-0.0031021,0.00984926,-0.00161319,-0.285969,0.0071647,0.0151836,1847,1506,18.9008,-13.8063
630,-482,18.9432,13.3923,0.0107694,-0.000967135,-0.00344099,0.0117039,-0.00190158,-0.265169,0.00850758,0.0292297,1854,1506,18.9432,-13.3924
637,-482,19.0156,12.7903,0,0,0,0,0,0,0,-1,1861,1506,19.0157,-12.7903
644,-482,17.5909,11.6163,0,0,0,0,0,0,0,-1,1868,1506,17.5909,-11.6163
651,-482,4.03845,7.05273,0,0,0,0,0,0,0,-1,1875,1506,4.03843,-7.05279
658,-482,10.0278,5.87903,0,0,0,0,0,0,0,-1,1882,1506,10.0279,-5.87902
665,-482,8.15198,3.22229,0,0,0,0,0,0,0,-1,1889,1506,8.15199,-3.22232
672,-482,9.87415,1.3147,0,0,0,0,0,0,0,-1,1896,1506,9.87416,-1.31473
679,-482,0,0,0,0,0,0,0,0,0,-1,1903,1506,0,0
686,-482,0,0,0,0,0,0,0,0,0,-1,1910,1506,0,0
693,-482,0,0,0,0,0,0,0,0,0,-1,1917,1506,0,0
700,-482,0,0,0,0,0,0,0,0,0,-1,1924,1506,0,0
707,-482,0,0,0,0,0,0,0,0,0,-1,1931,1506,0,0
714,-482,0,0,0,0,0,0,0,0,0,-1,1938,1506,0,0
721,-482,0,0,0,0,0,0,0,0,0,-1,1945,1506,0,0
728,-482,0,0,0,0,0,0,0,0,0,-1,1952,1506,0,0
735,-482,0,0,0,0,0,0,0,0,0,-1,1959,1506,0,0
742,-482,0,0,0,0,0,0,0,0,0,-1,1966,1506,0,0
749,-482,0,0,0,0,0,0,0,0,0,-1,1973,1506,0,0
756,-482,0,0,0,0,0,0,0,0,0,-1,1980,1506,0,0
763,-482,0,0,0,0,0,0,0,0,0,-1,1987,1506,0,0
770,-482,0,0,0,0,0,0,0,0,0,-1,1994,1506,0,0
777,-482,0,0,0,0,0,0,0,0,0,-1,2001,1506,0,0
784,-482,0,0,0,0,0,0,0,0,0,-1,2008,1506,0,0
791,-482,0,0,0,0,0,0,0,0,0,-1,2015,1506,0,0
798,-482,0,0,0,0,0,0,0,0,0,-1,2022,1506,0,0
805,-482,0,0,0,0,0,0,0,0,0,-1,2029,1506,0,0
812,-482,0,0,0,0,0,0,0,0,0,-1,2036,1506,0,0
-700,-489,0,0,0,0,0,0,0,0,0,-1,524,1513,0,0
-693,-489,0,0,0,0,0,0,0,0,0,-1,531,1513,0,0
-686,-489,0,0,0,0,0,0,0,0,0,-1,538,1513,0,0
-679,-489,0,0,0,0,0,0,0,0,0,-1,545,1513,0,0
-672,-489,0,0,0,0,0,0,0,0,0,-1,552,1513,0,0
-665,-489,0,0,0,0,0,0,0,0,0,-1,559,1513,0,0
-658,-489,0,0,0,0,0,0,0,0,0,-1,566,1513,0,0
-651,-489,0,0,0,0,0,0,0,0,0,-1,573,1513,0,0
-644,-489,0,0,0,0,0,0,0,0,0,-1,580,1513,0,0
-637,-489,0,0,0,0,0,0,0,0,0,-1,587,1513,0,0
-630,-489,0,0,0,0,0,0,0,0,0,-1,594,1513,0,0
-623,-489,0,0,0,0,0,0,0,0,0,-1,601,1513,0,0
-616,-489,0,0,0,0,0,0,0,0,0,-1,608,1513,0,0
-609,-489,0,0,0,0,0,0,0,0,0,-1,615,1513,0,0
-602,-489,0,0,0,0,0,0,0,0,0,-1,622,1513,0,0
-595,-489,0,0,0,0,0,0,0,0,0,-1,629,1513,0,0
-588,-489,0,0,0,0,0,0,0,0,0,-1,636,1513,0,0
-581,-489,0,0,0,0,0,0,0,0,0,-1,643,1513,0,0
-574,-489,0,0,0,0,0,0,0,0,0,-1,650,1513,0,0
-567,-489,0,0,0,0,0,0,0,0,0,-1,657,1513,0,0
-560,-489,0,0,0,0,0,0,0,0,0,-1,664,1513,0,0
-553,-489,-9.42206,8.5116,0,0,0,0,0,0,0,-1,671,1513,-9.42205,-8.51158
-546,-489,-7.80951,8.18506,0,0,0,0,0,0,0,-1,678,1513,-7.8095,-8.18503
-539,-489,-3.06879,2.82349,0,0,0,0,0,0,0,-1,685,1513,-3.06881,-2.82354
-532,-489,-3.14215,2.5835,0,0,0,0,0,0,0,-1,692,1513,-3.14213,-2.58353
-525,-489,-2.604,4.06274,0,0,0,0,0,0,0,-1,699,1513,-2.60399,-4.06274
-518,-489,-5.43774,7.48059,0,0,0,0,0,0,0,-1,706,1513,-5.43777,-7.48058
-511,-489,-5.18207,8.84167,0,0,0,0,0,0,0,-1,713,1513,-5.18205,-8.84166
-504,-489,-4.1463,10.9572,0,0,0,0,0,0,0,-1,720,1513,-4.14632,-10.9572
-497,-489,-4.14673,11.5428,0.0244618,0.00568289,0.00980598,0.0286487,0.00149592,0.403547,0.0186206,0.049209,727,1513,-4.1467,-11.5429
-490,-489,-4.22327,12.0941,0.0176268,0.00325768,0.00679553,0.0203315,0.000552995,0.378789,0.0133738,0.0375931,734,1513,-4.22327,-12.0941
-483,-489,-4.42035,12.5286,0.0127074,0.00171975,0.00478139,0.0144967,-6.95493e-05,0.358087,0.00968772,0.0160188,741,1513,-4.42035,-12.5286
-476,-489,-4.4126,13.0555,0.0090156,0.000736246,0.00337879,0.0102194,-0.000467589,0.342269,0.00697404,0.0094518,748,1513,-4.4126,-13.0555
-469,-489,-4.41736,13.5388,0.00645172,0.000248596,0.002545,0.00736223,-0.00066191,0.343574,0.00514301,0.0106625,755,1513,-4.41735,-13.5388
-462,-489,-4.43018,13.9973,0.0047339,0.000154929,0.00211491,0.00556124,-0.000672412,0.372892,0.00395075,0.0154528,762,1513,-4.43018,-13.9973
-455,-489,-4.45728,14.4685,0.00372651,0.000368489,0.00200865,0.00466546,-0.000570468,0.437276,0.00331686,0.0189897,769,1513,-4.45727,-14.4685
-448,-489,-4.47913,14.9619,0.00336964,0.000953533,0.00222121,0.00469005,-0.000366881,0.536335,0.00325589,0.0172263,776,1513,-4.47915,-14.9619
-441,-489,-4.46436,15.4296,0.00365428,0.00186858,0.00291156,0.00580681,-0.000283947,0.636621,0.00396924,0.0150946,783,1513,-4.46434,-15.4296
-434,-489,-4.49548,15.897,0.00478789,0.00327457,0.00405319,0.00815444,-9.19853e-05,0.693119,0.00546722,0.0167121,790,1513,-4.49548,-15.8969
-427,-489,-4.53003,16.3811,0.00633751,0.00523176,0.00547904,0.0112915,0.000277767,0.735115,0.00743681,0.0182326,797,1513,-4.53004,-16.3811
-420,-489,-4.55188,16.9596,0.00802924,0.0070516,0.00733362,0.0148903,0.000190526,0.75212,0.00986398,0.0230903,804,1513,-4.55186,-16.9596
-413,-489,-4.51239,17.5989,0,0,0,0,0,0,0,-1,811,1513,-4.51241,-17.5989
-406,-489,-3.10559,15.8143,0,0,0,0,0,0,0,-1,818,1513,-3.10556,-15.8143
-399,-489,-1.41241,9.10718,0,0,0,0,0,0,0,-1,825,1513,-1.41244,-9.10722
-392,-489,-1.0368,9.30469,0,0,0,0,0,0,0,-1,832,1513,-1.03682,-9.30466
-385,-489,-1.75165,10.6559,0,0,0,0,0,0,0,-1,839,1513,-1.75165,-10.6559
-378,-489,-0.401428,9.87048,0,0,0,0,0,0,0,-1,846,1513,-0.401415,-9.87047
-371,-489,-1.11633,10.6606,0,0,0,0,0,0,0,-1,853,1513,-1.11633,-10.6606
-364,-489,-0.503113,8.98486,0,0,0,0,0,0,0,-1,860,1513,-0.503097,-8.98482
-357,-489,-0.609924,10.9606,0,0,0,0,0,0,0,-1,867,1513,-0.609947,-10.9605
-350,-489,-7.94659,-0.358887,0,0,0,0,0,0,0,-1,874,1513,-7.94657,0.358912
-343,-489,-7.49323,-0.437866,0,0,0,0,0,0,0,-1,881,1513,-7.49322,0.437823
-336,-489,-7.02332,-0.53125,0,0,0,0,0,0,0,-1,888,1513,-7.0233,0.531295
-329,-489,-6.67047,0.133301,0,0,0,0,0,0,0,-1,895,1513,-6.67045,-0.133334
-322,-489,0,0,0,0,0,0,0,0,0,-1,902,1513,0,0
-315,-489,0,0,0,0,0,0,0,0,0,-1,909,1513,0,0
-308,-489,0,0,0,0,0,0,0,0,0,-1,916,1513,0,0
-301,-489,0,0,0,0,0,0,0,0,0,-1,923,1513,0,0
-294,-489,0,0,0,0,0,0,0,0,0,-1,930,1513,0,0
-287,-489,0,0,0,0,0,0,0,0,0,-1,937,1513,0,0
-280,-489,0,0,0,0,0,0,0,0,0,-1,944,1513,0,0
-273,-489,0,0,0,0,0,0,0,0,0,-1,951,1513,0,0
-266,-489,0,0,0,0,0,0,0,0,0,-1,958,1513,0,0
-259,-489,0,0,0,0,0,0,0,0,0,-1,965,1513,0,0
-252,-489,0,0,0,0,0,0,0,0,0,-1,972,1513,0,0
-245,-489,0,0,0,0,0,0,0,0,0,-1,979,1513,0,0
-238,-489,0,0,0,0,0,0,0,0,0,-1,986,1513,0,0
-231,-489,0,0,0,0,0,0,0,0,0,-1,993,1513,0,0
-224,-489,0,0,0,0,0,0,0,0,0,-1,1000,1513,0,0
-217,-489,0,0,0,0,0,0,0,0,0,-1,1007,1513,0,0
-210,-489,0,0,0,0,0,0,0,0,0,-1,1014,1513,0,0
-203,-489,0,0,0,0,0,0,0,0,0,-1,1021,1513,0,0
-196,-489,0,0,0,0,0,0,0,0,0,-1,1028,1513,0,0
-189,-489,0,0,0,0,0,0,0,0,0,-1,1035,1513,0,0
-182,-489,0,0,0,0,0,0,0,0,0,-1,1042,1513,0,0
-175,-489,0,0,0,0,0,0,0,0,0,-1,1049,1513,0,0
-168,-489,0,0,0,0,0,0,0,0,0,-1,1056,1513,0,0
-161,-489,0,0,0,0,0,0,0,0,0,-1,1063,1513,0,0
-154,-489,0,0,0,0,0,0,0,0,0,-1,1070,1513,0,0
-147,-489,0,0,0,0,0,0,0,0,0,-1,1077,1513,0,0
-140,-489,0,0,0,0,0,0,0,0,0,-1,1084,1513,0,0
-133,-489,0,0,0,0,0,0,0,0,0,-1,1091,1513,0,0
-126,-489,0,0,0,0,0,0,0,0,0,-1,1098,1513,0,0
-119,-489,0,0,0,0,0,0,0,0,0,-1,1105,1513,0,0
-112,-489,0,0,0,0,0,0,0,0,0,-1,1112,1513,0,0
-105,-489,0,0,0,0,0,0,0,0,0,-1,1119,1513,0,0
-98,-489,0,0,0,0,0,0,0,0,0,-1,1126,1513,0,0
-91,-489,0,0,0,0,0,0,0,0,0,-1,1133,1513,0,0
-84,-489,0,0,0,0,0,0,0,0,0,-1,1140,1513,0,0
-77,-489,0,0,0,0,0,0,0,0,0,-1,1147,1513,0,0
-70,-489,0,0,0,0,0,0,0,0,0,-1,1154,1513,0,0
-63,-489,0,0,0,0,0,0,0,0,0,-1,1161,1513,0,0
-56,-489,0,0,0,0,0,0,0,0,0,-1,1168,1513,0,0
-49,-489,0,0,0,0,0,0,0,0,0,-1,1175,1513,0,0
-42,-489,0,0,0,0,0,0,0,0,0,-1,1182,1513,0,0
-35,-489,0,0,0,0,0,0,0,0,0,-1,1189,1513,0,0
-28,-489,0,0,0,0,0,0,0,0,0,-1,1196,1513,0,0
-21,-489,0,0,0,0,0,0,0,0,0,-1,1203,1513,0,0
-14,-489,0,0,0,0,0,0,0,0,0,-1,1210,1513,0,0
-7,-489,0,0,0,0,0,0,0,0,0,-1,1217,1513,0,0
0,-489,0,0,0,0,0,0,0,0,0,-1,1224,1513,0,0
7,-489,0,0,0,0,0,0,0,0,0,-1,1231,1513,0,0
14,-489,0,0,0,0,0,0,0,0,0,-1,1238,1513,0,0
21,-489,0,0,0,0,0,0,0,0,0,-1,1245,1513,0,0
28,-489,0,0,0,0,0,0,0,0,0,-1,1252,1513,0,0
35,-489,0,0,0,0,0,0,0,0,0,-1,1259,1513,0,0
42,-489,0,0,0,0,0,0,0,0,0,-1,1266,1513,0,0
49,-489,0,0,0,0,0,0,0,0,0,-1,1273,1513,0,0
56,-489,0,0,0,0,0,0,0,0,0,-1,1280,1513,0,0
63,-489,0,0,0,0,0,0,0,0,0,-1,1287,1513,0,0
70,-489,0,0,0,0,0,0,0,0,0,-1,1294,1513,0,0
77,-489,0,0,0,0,0,0,0,0,0,-1,1301,1513,0,0
84,-489,0,0,0,0,0,0,0,0,0,-1,1308,1513,0,0
91,-489,0,0,0,0,0,0,0,0,0,-1,1315,1513,0,0
98,-489,0,0,0,0,0,0,0,0,0,-1,1322,1513,0,0
105,-489,0,0,0,0,0,0,0,0,0,-1,1329,1513,0,0
112,-489,0,0,0,0,0,0,0,0,0,-1,1336,1513,0,0
119,-489,0,0,0,0,0,0,0,0,0,-1,1343,1513,0,0
126,-489,0,0,0,0,0,0,0,0,0,-1,1350,1513,0,0
133,-489,0,0,0,0,0,0,0,0,0,-1,1357,1513,0,0
140,-489,0,0,0,0,0,0,0,0,0,-1,1364,1513,0,0
147,-489,0,0,0,0,0,0,0,0,0,-1,1371,1513,0,0
154,-489,0,0,0,0,0,0,0,0,0,-1,1378,1513,0,0
161,-489,0,0,0,0,0,0,0,0,0,-1,1385,1513,0,0
168,-489,0,0,0,0,0,0,0,0,0,-1,1392,1513,0,0
175,-489,0,0,0,0,0,0,0,0,0,-1,1399,1513,0,0
182,-489,0,0,0,0,0,0,0,0,0,-1,1406,1513,0,0
189,-489,0,0,0,0,0,0,0,0,0,-1,1413,1513,0,0
196,-489,0,0,0,0,0,0,0,0,0,-1,1420,1513,0,0
203,-489,0,0,0,0,0,0,0,0,0,-1,1427,1513,0,0
210,-489,0,0,0,0,0,0,0,0,0,-1,1434,1513,0,0
217,-489,0,0,0,0,0,0,0,0,0,-1,1441,1513,0,0
224,-489,0,0,0,0,0,0,0,0,0,-1,1448,1513,0,0
231,-489,0,0,0,0,0,0,0,0,0,-1,1455,1513,0,0
238,-489,0,0,0,0,0,0,0,0,0,-1,1462,1513,0,0
245,-489,0,0,0,0,0,0,0,0,0,-1,1469,1513,0,0
252,-489,0,0,0,0,0,0,0,0,0,-1,1476,1513,0,0
259,-489,0,0,0,0,0,0,0,0,0,-1,1483,1513,0,0
266,-489,0,0,0,0,0,0,0,0,0,-1,1490,1513,0,0
273,-489,0,0,0,0,0,0,0,0,0,-1,1497,1513,0,0
280,-489,0,0,0,0,0,0,0,0,0,-1,1504,1513,0,0
287,-489,0,0,0,0,0,0,0,0,0,-1,1511,1513,0,0
294,-489,0,0,0,0,0,0,0,0,0,-1,1518,1513,0,0
301,-489,0,0,0,0,0,0,0,0,0,-1,1525,1513,0,0
308,-489,0,0,0,0,0,0,0,0,0,-1,1532,1513,0,0
315,-489,0,0,0,0,0,0,0,0,0,-1,1539,1513,0,0
322,-489,0,0,0,0,0,0,0,0,0,-1,1546,1513,0,0
329,-489,0,0,0,0,0,0,0,0,0,-1,1553,1513,0,0
336,-489,0,0,0,0,0,0,0,0,0,-1,1560,1513,0,0
343,-489,0,0,0,0,0,0,0,0,0,-1,1567,1513,0,0
350,-489,0,0,0,0,0,0,0,0,0,-1,1574,1513,0,0
357,-489,0,0,0,0,0,0,0,0,0,-1,1581,1513,0,0
364,-489,0,0,0,0,0,0,0,0,0,-1,1588,1513,0,0
371,-489,0,0,0,0,0,0,0,0,0,-1,1595,1513,0,0
378,-489,0,0,0,0,0,0,0,0,0,-1,1602,1513,0,0
385,-489,0,0,0,0,0,0,0,0,0,-1,1609,1513,0,0
392,-489,0,0,0,0,0,0,0,0,0,-1,1616,1513,0,0
399,-489,0,0,0,0,0,0,0,0,0,-1,1623,1513,0,0
406,-489,0,0,0,0,0,0,0,0,0,-1,1630,1513,0,0
413,-489,0,0,0,0,0,0,0,0,0,-1,1637,1513,0,0
420,-489,0,0,0,0,0,0,0,0,0,-1,1644,1513,0,0
427,-489,0,0,0,0,0,0,0,0,0,-1,1651,1513,0,0
434,-489,0,0,0,0,0,0,0,0,0,-1,1658,1513,0,0
441,-489,11.4602,2.56787,0,0,0,0,0,0,0,-1,1665,1513,11.4602,-2.56786
448,-489,12.4425,1.72351,0,0,0,0,0,0,0,-1,1672,1513,12.4425,-1.72349
455,-489,12.5575,1.37463,0,0,0,0,0,0,0,-1,1679,1513,12.5575,-1.37469
462,-489,14.9784,3.84888,0,0,0,0,0,0,0,-1,1686,1513,14.9784,-3.84892
469,-489,15.1367,4.53101,0,0,0,0,0,0,0,-1,1693,1513,15.1368,-4.531
476,-489,15.5536,5.09338,0,0,0,0,0,0,0,-1,1700,1513,15.5536,-5.09339
483,-489,8.96912,8.37805,0,0,0,0,0,0,0,-1,1707,1513,8.96909,-8.37809
490,-489,10.5366,7.49561,0,0,0,0,0,0,0,-1,1714,1513,10.5367,-7.49558
497,-489,14.6051,11.8397,0,0,0,0,0,0,0,-1,1721,1513,14.6051,-11.8397
504,-489,16.7527,14.1735,0,0,0,0,0,0,0,-1,1728,1513,16.7527,-14.1735
511,-489,17.83,17.7993,0,0,0,0,0,0,0,-1,1735,1513,17.83,-17.7993
518,-489,16.4751,14.3682,0,0,0,0,0,0,0,-1,1742,1513,16.4751,-14.3682
525,-489,17.2606,17.4949,0,0,0,0,0,0,0,-1,1749,1513,17.2606,-17.4949
532,-489,18.4741,19.4532,0,0,0,0,0,0,0,-1,1756,1513,18.4742,-19.4533
539,-489,18.6969,18.9331,0.00339686,0.00446732,-0.0016492,0.00566597,0.00219821,-0.942306,0.00329851,0.0286369,1763,1513,18.6969,-18.9331
546,-489,18.5757,18.7129,0.00280527,0.00331122,-0.00111818,0.00420468,0.00191181,-0.896644,0.00243089,0.0196976,1770,1513,18.5757,-18.7129
553,-489,18.5837,18.161,0.00249409,0.00255358,-0.000890304,0.00341464,0.00163303,-0.802099,0.00197206,0.0175572,1777,1513,18.5837,-18.1611
560,-489,18.5955,17.6931,0.0022891,0.00195137,-0.000782278,0.00292053,0.00131994,-0.679096,0.00168876,0.0134826,1784,1513,18.5955,-17.6931
567,-489,18.6252,17.2745,0.00215561,0.00154418,-0.000794777,0.00270144,0.000998352,-0.601795,0.00157727,0.0153517,1791,1513,18.6252,-17.2746
574,-489,18.5754,16.8744,0.00237524,0.00120236,-0.000973757,0.00292551,0.00065209,-0.514366,0.0017734,0.0152915,1798,1513,18.5754,-16.8745
581,-489,18.5769,16.421,0.00277291,0.000802475,-0.0012119,0.00334953,0.00022585,-0.444103,0.00216168,0.0104718,1805,1513,18.5769,-16.421
588,-489,18.5585,15.9745,0.00347778,0.000574902,-0.00156809,0.00416306,-0.000110384,-0.412006,0.00281289,0.0129123,1812,1513,18.5585,-15.9744
595,-489,18.5442,15.5306,0.00462729,0.000379322,-0.00205452,0.00545837,-0.000451754,-0.384388,0.00379846,0.0196423,1819,1513,18.5442,-15.5307
602,-489,18.5659,15.0765,0.00596083,0.000148507,-0.00263327,0.00697639,-0.000867053,-0.368087,0.00496525,0.0246494,1826,1513,18.5659,-15.0765
609,-489,18.5381,14.6528,0.00757465,-5.42985e-05,-0.0032758,0.00878821,-0.00126785,-0.354785,0.00632393,0.0171415,1833,1513,18.5381,-14.6528
616,-489,18.5192,14.2128,0.00969582,-0.00028323,-0.0039957,0.0110986,-0.00168596,-0.33762,0.00802031,0.0154423,1840,1513,18.5192,-14.2128
623,-489,18.5026,13.8291,0.0121683,-0.000574014,-0.0047939,0.0137704,-0.00217613,-0.32253,0.00998502,0.0314511,1847,1513,18.5026,-13.8291
630,-489,18.5162,13.3489,0,0,0,0,0,0,0,-1,1854,1513,18.5163,-13.3488
637,-489,17.2048,11.8091,0,0,0,0,0,0,0,-1,1861,1513,17.2048,-11.8091
644,-489,9.67578,8.45874,0,0,0,0,0,0,0,-1,1868,1513,9.67576,-8.45879
651,-489,6.13818,6.85095,0,0,0,0,0,0,0,-1,1875,1513,6.13823,-6.85097
658,-489,5.43848,7.75513,0,0,0,0,0,0,0,-1,1882,1513,5.43844,-7.75509
665,-489,5.48438,8.59912,0,0,0,0,0,0,0,-1,1889,1513,5.48434,-8.59907
672,-489,0,0,0,0,0,0,0,0,0,-1,1896,1513,0,0
679,-489,0,0,0,0,0,0,0,0,0,-1,1903,1513,0,0
686,-489,0,0,0,0,0,0,0,0,0,-1,1910,1513,0,0
693,-489,0,0,0,0,0,0,0,0,0,-1,1917,1513,0,0
700,-489,0,0,0,0,0,0,0,0,0,-1,1924,1513,0,0
707,-489,0,0,0,0,0,0,0,0,0,-1,1931,1513,0,0
714,-489,0,0,0,0,0,0,0,0,0,-1,1938,1513,0,0
721,-489,0,0,0,0,0,0,0,0,0,-1,1945,1513,0,0
728,-489,0,0,0,0,0,0,0,0,0,-1,1952,1513,0,0
735,-489,0,0,0,0,0,0,0,0,0,-1,1959,1513,0,0
742,-489,0,0,0,0,0,0,0,0,0,-1,1966,1513,0,0
749,-489,0,0,0,0,0,0,0,0,0,-1,1973,1513,0,0
756,-489,0,0,0,0,0,0,0,0,0,-1,1980,1513,0,0
763,-489,0,0,0,0,0,0,0,0,0,-1,1987,1513,0,0
770,-489,0,0,0,0,0,0,0,0,0,-1,1994,1513,0,0
777,-489,0,0,0,0,0,0,0,0,0,-1,2001,1513,0,0
784,-489,0,0,0,0,0,0,0,0,0,-1,2008,1513,0,0
791,-489,0,0,0,0,0,0,0,0,0,-1,2015,1513,0,0
798,-489,0,0,0,0,0,0,0,0,0,-1,2022,1513,0,0
805,-489,0,0,0,0,0,0,0,0,0,-1,2029,1513,0,0
812,-489,0,0,0,0,0,0,0,0,0,-1,2036,1513,0,0
-700,-496,0,0,0,0,0,0,0,0,0,-1,524,1520,0,0
-693,-496,0,0,0,0,0,0,0,0,0,-1,531,1520,0,0
-686,-496,0,0,0,0,0,0,0,0,0,-1,538,1520,0,0
-679,-496,0,0,0,0,0,0,0,0,0,-1,545,1520,0,0
-672,-496,0,0,0,0,0,0,0,0,0,-1,552,1520,0,0
-665,-496,0,0,0,0,0,0,0,0,0,-1,559,1520,0,0
-658,-496,0,0,0,0,0,0,0,0,0,-1,566,1520,0,0
-651,-496,0,0,0,0,0,0,0,0,0,-1,573,1520,0,0
-644,-496,0,0,0,0,0,0,0,0,0,-1,580,1520,0,0
-637,-496,0,0,0,0,0,0,0,0,0,-1,587,1520,0,0
-630,-496,0,0,0,0,0,0,0,0,0,-1,594,1520,0,0
-623,-496,0,0,0,0,0,0,0,0,0,-1,601,1520,0,0
-616,-496,0,0,0,0,0,0,0,0,0,-1,608,1520,0,0
-609,-496,0,0,0,0,0,0,0,0,0,-1,615,1520,0,0
-602,-496,0,0,0,0,0,0,0,0,0,-1,622,1520,0,0
-595,-496,0,0,0,0,0,0,0,0,0,-1,629,1520,0,0
-588,-496,0,0,0,0,0,0,0,0,0,-1,636,1520,0,0
-581,-496,0,0,0,0,0,0,0,0,0,-1,643,1520,0,0
-574,-496,0,0,0,0,0,0,0,0,0,-1,650,1520,0,0
-567,-496,0,0,0,0,0,0,0,0,0,-1,657,1520,0,0
-560,-496,0,0,0,0,0,0,0,0,0,-1,664,1520,0,0
-553,-496,0,0,0,0,0,0,0,0,0,-1,671,1520,0,0
-546,-496,-8.09711,7.94836,0,0,0,0,0,0,0,-1,678,1520,-8.09712,-7.94842
-539,-496,-3.20129,1.16052,0,0,0,0,0,0,0,-1,685,1520,-3.20131,-1.16054
-532,-496,-2.98279,2.62146,0,0,0,0,0,0,0,-1,692,1520,-2.98278,-2.62151
-525,-496,-2.75201,4.08032,0,0,0,0,0,0,0,-1,699,1520,-2.75201,-4.08031
-518,-496,-2.6333,5.36072,0,0,0,0,0,0,0,-1,706,1520,-2.63328,-5.36077
-511,-496,-5.7644,7.94397,0,0,0,0,0,0,0,-1,713,1520,-5.76442,-7.94396
-504,-496,-4.51697,11.2133,0,0,0,0,0,0,0,-1,720,1520,-4.51698,-11.2133
-497,-496,-4.08777,11.5168,0,0,0,0,0,0,0,-1,727,1520,-4.08778,-11.5168
-490,-496,-3.69281,12.3051,0.0231692,0.00383508,0.00856638,0.0264186,0.000585679,0.362553,0.0174204,0.0453395,734,1520,-3.69282,-12.3051
-483,-496,-3.86652,12.694,0.0165704,0.00178351,0.0059805,0.0186864,-0.000332484,0.340069,0.0125699,0.0289892,741,1520,-3.8665,-12.6939
-476,-496,-3.95642,13.0687,0.0115763,0.000439881,0.00410902,0.0129283,-0.0009121,0.31787,0.0089384,0.014476,748,1520,-3.9564,-13.0687
-469,-496,-3.95734,13.5663,0.00801577,-0.000282715,0.00288492,0.00892014,-0.00118709,0.303779,0.00637938,0.0102196,755,1520,-3.95736,-13.5663
-462,-496,-3.96478,14.0289,0.00555381,-0.000519488,0.00214865,0.0062371,-0.00120278,0.307895,0.00461157,0.0145023,762,1520,-3.96477,-14.029
-455,-496,-3.97137,14.5082,0.00396467,-0.000390999,0.00177706,0.00459769,-0.00102402,0.342202,0.00345739,0.0188461,769,1520,-3.97135,-14.5082
-448,-496,-3.98804,14.9963,0.00313183,0.000117489,0.00173665,0.00392412,-0.000674798,0.428011,0.0028676,0.0185009,776,1520,-3.98802,-14.9963
-441,-496,-4.01733,15.4528,0.00286008,0.000953917,0.0021447,0.00425393,-0.000439937,0.57631,0.00299339,0.0150835,783,1520,-4.01733,-15.4527
-434,-496,-4.03229,15.9159,0.0035228,0.00221346,0.00303126,0.00596928,-0.000233019,0.679045,0.00405942,0.0136566,790,1520,-4.03228,-15.9159
-427,-496,-4.04077,16.4034,0.00478479,0.00400752,0.0042705,0.00868431,0.000108008,0.740021,0.00575387,0.0170558,797,1520,-4.0408,-16.4035
-420,-496,-4.04462,16.8407,0.00626971,0.00577052,0.00586888,0.0118943,0.000145926,0.764146,0.00788134,0.0181718,804,1520,-4.0446,-16.8407
-413,-496,-3.99182,17.3431,0.00815473,0.00793466,0.00789847,0.0159439,0.00014546,0.778433,0.0105811,0.0265248,811,1520,-3.9918,-17.3431
-406,-496,-3.86072,18.0127,0,0,0,0,0,0,0,-1,818,1520,-3.86072,-18.0127
-399,-496,-3.59052,18.7744,0,0,0,0,0,0,0,-1,825,1520,-3.59049,-18.7744
-392,-496,-1.49786,12.387,0,0,0,0,0,0,0,-1,832,1520,-1.49788,-12.387
-385,-496,-1.72437,11.4985,0,0,0,0,0,0,0,-1,839,1520,-1.72436,-11.4985
-378,-496,-1.45532,14.0719,0,0,0,0,0,0,0,-1,846,1520,-1.45533,-14.0719
-371,-496,0.0877075,12.5299,0,0,0,0,0,0,0,-1,853,1520,0.0876896,-12.5299
-364,-496,0.0881348,10.6422,0,0,0,0,0,0,0,-1,860,1520,0.0881368,-10.6423
-357,-496,0.323792,7.56812,0,0,0,0,0,0,0,-1,867,1520,0.323782,-7.56806
-350,-496,2.1535,7.18945,0,0,0,0,0,0,0,-1,874,1520,2.15348,-7.1894
-343,-496,-7.56244,0.335327,0,0,0,0,0,0,0,-1,881,1520,-7.56242,-0.335322
-336,-496,-3.99249,6.02222,0,0,0,0,0,0,0,-1,888,1520,-3.99246,-6.0222
-329,-496,-6.93689,-0.100342,0,0,0,0,0,0,0,-1,895,1520,-6.93686,0.1003
-322,-496,-6.17505,0.494385,0,0,0,0,0,0,0,-1,902,1520,-6.17507,-0.49437
-315,-496,-7.2262,5.40344,0,0,0,0,0,0,0,-1,909,1520,-7.22621,-5.4035
-308,-496,0,0,0,0,0,0,0,0,0,-1,916,1520,0,0
-301,-496,0,0,0,0,0,0,0,0,0,-1,923,1520,0,0
-294,-496,0,0,0,0,0,0,0,0,0,-1,930,1520,0,0
-287,-496,0,0,0,0,0,0,0,0,0,-1,937,1520,0,0
-280,-496,0,0,0,0,0,0,0,0,0,-1,944,1520,0,0
-273,-496,0,0,0,0,0,0,0,0,0,-1,951,1520,0,0
-266,-496,0,0,0,0,0,0,0,0,0,-1,958,1520,0,0
-259,-496,0,0,0,0,0,0,0,0,0,-1,965,1520,0,0
-252,-496,0,0,0,0,0,0,0,0,0,-1,972,1520,0,0
-245,-496,0,0,0,0,0,0,0,0,0,-1,979,1520,0,0
-238,-496,0,0,0,0,0,0,0,0,0,-1,986,1520,0,0
-231,-496,0,0,0,0,0,0,0,0,0,-1,993,1520,0,0
-224,-496,0,0,0,0,0,0,0,0,0,-1,1000,1520,0,0
-217,-496,0,0,0,0,0,0,0,0,0,-1,1007,1520,0,0
-210,-496,0,0,0,0,0,0,0,0,0,-1,1014,1520,0,0
-203,-496,0,0,0,0,0,0,0,0,0,-1,1021,1520,0,0
-196,-496,0,0,0,0,0,0,0,0,0,-1,1028,1520,0,0
-189,-496,0,0,0,0,0,0,0,0,0,-1,1035,1520,0,0
-182,-496,0,0,0,0,0,0,0,0,0,-1,1042,1520,0,0
-175,-496,0,0,0,0,0,0,0,0,0,-1,1049,1520,0,0
-168,-496,0,0,0,0,0,0,0,0,0,-1,1056,1520,0,0
-161,-496,0,0,0,0,0,0,0,0,0,-1,1063,1520,0,0
-154,-496,0,0,0,0,0,0,0,0,0,-1,1070,1520,0,0
-147,-496,0,0,0,0,0,0,0,0,0,-1,1077,1520,0,0
-140,-496,0,0,0,0,0,0,0,0,0,-1,1084,1520,0,0
-133,-496,0,0,0,0,0,0,0,0,0,-1,1091,1520,0,0
-126,-496,0,0,0,0,0,0,0,0,0,-1,1098,1520,0,0
-119,-496,0,0,0,0,0,0,0,0,0,-1,1105,1520,0,0
-112,-496,0,0,0,0,0,0,0,0,0,-1,1112,1520,0,0
-105,-496,0,0,0,0,0,0,0,0,0,-1,1119,1520,0,0
-98,-496,0,0,0,0,0,0,0,0,0,-1,1126,1520,0,0
-91,-496,0,0,0,0,0,0,0,0,0,-1,1133,1520,0,0
-84,-496,0,0,0,0,0,0,0,0,0,-1,1140,1520,0,0
-77,-496,0,0,0,0,0,0,0,0,0,-1,1147,1520,0,0
-70,-496,0,0,0,0,0,0,0,0,0,-1,1154,1520,0,0
-63,-496,0,0,0,0,0,0,0,0,0,-1,1161,1520,0,0
-56,-496,0,0,0,0,0,0,0,0,0,-1,1168,1520,0,0
-49,-496,0,0,0,0,0,0,0,0,0,-1,1175,1520,0,0
-42,-496,0,0,0,0,0,0,0,0,0,-1,1182,1520,0,0
-35,-496,0,0,0,0,0,0,0,0,0,-1,1189,1520,0,0
-28,-496,0,0,0,0,0,0,0,0,0,-1,1196,1520,0,0
-21,-496,0,0,0,0,0,0,0,0,0,-1,1203,1520,0,0
-14,-496,0,0,0,0,0,0,0,0,0,-1,1210,1520,0,0
-7,-496,0,0,0,0,0,0,0,0,0,-1,1217,1520,0,0
0,-496,0,0,0,0,0,0,0,0,0,-1,1224,1520,0,0
7,-496,0,0,0,0,0,0,0,0,0,-1,1231,1520,0,0
14,-496,0,0,0,0,0,0,0,0,0,-1,1238,1520,0,0
21,-496,0,0,0,0,0,0,0,0,0,-1,1245,1520,0,0
28,-496,0,0,0,0,0,0,0,0,0,-1,1252,1520,0,0
35,-496,0,0,0,0,0,0,0,0,0,-1,1259,1520,0,0
42,-496,0,0,0,0,0,0,0,0,0,-1,1266,1520,0,0
49,-496,0,0,0,0,0,0,0,0,0,-1,1273,1520,0,0
56,-496,0,0,0,0,0,0,0,0,0,-1,1280,1520,0,0
63,-496,0,0,0,0,0,0,0,0,0,-1,1287,1520,0,0
70,-496,0,0,0,0,0,0,0,0,0,-1,1294,1520,0,0
77,-496,0,0,0,0,0,0,0,0,0,-1,1301,1520,0,0
84,-496,0,0,0,0,0,0,0,0,0,-1,1308,1520,0,0
91,-496,0,0,0,0,0,0,0,0,0,-1,1315,1520,0,0
98,-496,0,0,0,0,0,0,0,0,0,-1,1322,1520,0,0
105,-496,0,0,0,0,0,0,0,0,0,-1,1329,1520,0,0
112,-496,0,0,0,0,0,0,0,0,0,-1,1336,1520,0,0
119,-496,0,0,0,0,0,0,0,0,0,-1,1343,1520,0,0
126,-496,0,0,0,0,0,0,0,0,0,-1,1350,1520,0,0
133,-496,0,0,0,0,0,0,0,0,0,-1,1357,1520,0,0
140,-496,0,0,0,0,0,0,0,0,0,-1,1364,1520,0,0
147,-496,0,0,0,0,0,0,0,0,0,-1,1371,1520,0,0
154,-496,0,0,0,0,0,0,0,0,0,-1,1378,1520,0,0
161,-496,0,0,0,0,0,0,0,0,0,-1,1385,1520,0,0
168,-496,0,0,0,0,0,0,0,0,0,-1,1392,1520,0,0
175,-496,0,0,0,0,0,0,0,0,0,-1,1399,1520,0,0
182,-496,0,0,0,0,0,0,0,0,0,-1,1406,1520,0,0
189,-496,0,0,0,0,0,0,0,0,0,-1,1413,1520,0,0
196,-496,0,0,0,0,0,0,0,0,0,-1,1420,1520,0,0
203,-496,0,0,0,0,0,0,0,0,0,-1,1427,1520,0,0
210,-496,0,0,0,0,0,0,0,0,0,-1,1434,1520,0,0
217,-496,0,0,0,0,0,0,0,0,0,-1,1441,1520,0,0
224,-496,0,0,0,0,0,0,0,0,0,-1,1448,1520,0,0
231,-496,0,0,0,0,0,0,0,0,0,-1,1455,1520,0,0
238,-496,0,0,0,0,0,0,0,0,0,-1,1462,1520,0,0
245,-496,0,0,0,0,0,0,0,0,0,-1,1469,1520,0,0
252,-496,0,0,0,0,0,0,0,0,0,-1,1476,1520,0,0
259,-496,0,0,0,0,0,0,0,0,0,-1,1483,1520,0,0
266,-496,0,0,0,0,0,0,0,0,0,-1,1490,1520,0,0
273,-496,0,0,0,0,0,0,0,0,0,-1,1497,1520,0,0
280,-496,0,0,0,0,0,0,0,0,0,-1,1504,1520,0,0
287,-496,0,0,0,0,0,0,0,0,0,-1,1511,1520,0,0
294,-496,0,0,0,0,0,0,0,0,0,-1,1518,1520,0,0
301,-496,0,0,0,0,0,0,0,0,0,-1,1525,1520,0,0
308,-496,0,0,0,0,0,0,0,0,0,-1,1532,1520,0,0
315,-496,0,0,0,0,0,0,0,0,0,-1,1539,1520,0,0
322,-496,0,0,0,0,0,0,0,0,0,-1,1546,1520,0,0
329,-496,0,0,0,0,0,0,0,0,0,-1,1553,1520,0,0
336,-496,0,0,0,0,0,0,0,0,0,-1,1560,1520,0,0
343,-496,0,0,0,0,0,0,0,0,0,-1,1567,1520,0,0
350,-496,0,0,0,0,0,0,0,0,0,-1,1574,1520,0,0
357,-496,0,0,0,0,0,0,0,0,0,-1,1581,1520,0,0
364,-496,0,0,0,0,0,0,0,0,0,-1,1588,1520,0,0
371,-496,0,0,0,0,0,0,0,0,0,-1,1595,1520,0,0
378,-496,0,0,0,0,0,0,0,0,0,-1,1602,1520,0,0
385,-496,0,0,0,0,0,0,0,0,0,-1,1609,1520,0,0
392,-496,0,0,0,0,0,0,0,0,0,-1,1616,1520,0,0
399,-496,0,0,0,0,0,0,0,0,0,-1,1623,1520,0,0
406,-496,0,0,0,0,0,0,0,0,0,-1,1630,1520,0,0
413,-496,0,0,0,0,0,0,0,0,0,-1,1637,1520,0,0
420,-496,0,0,0,0,0,0,0,0,0,-1,1644,1520,0,0
427,-496,0,0,0,0,0,0,0,0,0,-1,1651,1520,0,0
434,-496,11.0457,3.37732,0,0,0,0,0,0,0,-1,1658,1520,11.0456,-3.37736
441,-496,11.788,2.75488,0,0,0,0,0,0,0,-1,1665,1520,11.7879,-2.75485
448,-496,12.2146,2.18494,0,0,0,0,0,0,0,-1,1672,1520,12.2146,-2.18489
455,-496,12.3489,1.65173,0,0,0,0,0,0,0,-1,1679,1520,12.3489,-1.65178
462,-496,12.1912,1.32361,0,0,0,0,0,0,0,-1,1686,1520,12.1911,-1.32357
469,-496,14.8138,5.77954,0,0,0,0,0,0,0,-1,1693,1520,14.8138,-5.77958
476,-496,15.2449,6.27942,0,0,0,0,0,0,0,-1,1700,1520,15.2449,-6.27936
483,-496,9.19812,6.88367,0,0,0,0,0,0,0,-1,1707,1520,9.19812,-6.88361
490,-496,10.2123,7.97144,0,0,0,0,0,0,0,-1,1714,1520,10.2122,-7.97145
497,-496,13.9297,12.2981,0,0,0,0,0,0,0,-1,1721,1520,13.9297,-12.2982
504,-496,16.3271,16.6501,0,0,0,0,0,0,0,-1,1728,1520,16.3272,-16.6502
511,-496,17.6753,18.0685,0,0,0,0,0,0,0,-1,1735,1520,17.6753,-18.0685
518,-496,17.0537,17.3118,0,0,0,0,0,0,0,-1,1742,1520,17.0538,-17.3118
525,-496,16.4733,18.4662,0,0,0,0,0,0,0,-1,1749,1520,16.4733,-18.4662
532,-496,17.9996,19.7406,0,0,0,0,0,0,0,-1,1756,1520,17.9997,-19.7407
539,-496,18.1678,19.0991,0.00339463,0.0043213,-0.00191335,0.00582661,0.00188931,-0.904191,0.00343257,0.025811,1763,1520,18.1679,-19.0991
546,-496,18.0962,18.6171,0.00281133,0.00320197,-0.00132002,0.00434104,0.00167226,-0.858849,0.00252822,0.0131784,1770,1520,18.0962,-18.6171
553,-496,18.1833,18.1139,0.00246025,0.00242072,-0.00101162,0.00345229,0.00142867,-0.775631,0.00200302,0.0160422,1777,1520,18.1833,-18.1138
560,-496,18.2015,17.7035,0.00224479,0.00179765,-0.00085196,0.00290203,0.00114041,-0.657082,0.00168823,0.0149363,1784,1520,18.2016,-17.7035
567,-496,18.1779,17.2747,0.00228093,0.00129657,-0.000857195,0.00277719,0.000800303,-0.524791,0.00165068,0.0120928,1791,1520,18.1778,-17.2747
574,-496,18.1613,16.8486,0.00272385,0.00101636,-0.0011575,0.0033084,0.000431811,-0.467647,0.00207668,0.0125296,1798,1520,18.1613,-16.8486
581,-496,18.1377,16.4487,0.0033354,0.00064059,-0.00149141,0.00399792,-2.19306e-05,-0.418041,0.00267262,0.0130064,1805,1520,18.1377,-16.4488
588,-496,18.1318,16.0214,0.00433338,0.000465034,-0.00201377,0.00519139,-0.00039298,-0.402779,0.00359908,0.0151774,1812,1520,18.1318,-16.0214
595,-496,18.1267,15.5746,0.00581946,0.000305792,-0.00268781,0.00691288,-0.000787627,-0.386361,0.00489231,0.0168007,1819,1520,18.1267,-15.5746
602,-496,18.115,15.1036,0.0076397,0.000184772,-0.00355453,0.00906283,-0.00123836,-0.380827,0.00649415,0.0173974,1826,1520,18.115,-15.1036
609,-496,18.1064,14.6492,0.00991647,0.000108447,-0.00459682,0.0117341,-0.00170916,-0.376538,0.00845025,0.0155474,1833,1520,18.1065,-14.6491
616,-496,18.1418,14.1348,0.012963,-8.12333e-07,-0.0058095,0.0151855,-0.00222323,-0.365373,0.0109403,0.0294715,1840,1520,18.1418,-14.1347
623,-496,18.0808,13.8292,0.0165575,-0.000148241,-0.00723718,0.0192567,-0.0028474,-0.356978,0.0138846,0.0467925,1847,1520,18.0808,-13.8293
630,-496,18.2258,13.4855,0,0,0,0,0,0,0,-1,1854,1520,18.2258,-13.4855
637,-496,14.6411,10.1016,0,0,0,0,0,0,0,-1,1861,1520,14.6411,-10.1016
644,-496,12.4537,10.087,0,0,0,0,0,0,0,-1,1868,1520,12.4537,-10.0871
651,-496,8.18506,5.47803,0,0,0,0,0,0,0,-1,1875,1520,8.18505,-5.47806
658,-496,7.79993,4.02563,0,0,0,0,0,0,0,-1,1882,1520,7.79997,-4.02568
665,-496,5.47583,7.90625,0,0,0,0,0,0,0,-1,1889,1520,5.47581,-7.90628
672,-496,0,0,0,0,0,0,0,0,0,-1,1896,1520,0,0
679,-496,0,0,0,0,0,0,0,0,0,-1,1903,1520,0,0
686,-496,0,0,0,0,0,0,0,0,0,-1,1910,1520,0,0
693,-496,0,0,0,0,0,0,0,0,0,-1,1917,1520,0,0
700,-496,0,0,0,0,0,0,0,0,0,-1,1924,1520,0,0
707,-496,0,0,0,0,0,0,0,0,0,-1,1931,1520,0,0
714,-496,0,0,0,0,0,0,0,0,0,-1,1938,1520,0,0
721,-496,0,0,0,0,0,0,0,0,0,-1,1945,1520,0,0
728,-496,0,0,0,0,0,0,0,0,0,-1,1952,1520,0,0
735,-496,0,0,0,0,0,0,0,0,0,-1,1959,1520,0,0
742,-496,0,0,0,0,0,0,0,0,0,-1,1966,1520,0,0
749,-496,0,0,0,0,0,0,0,0,0,-1,1973,1520,0,0
756,-496,0,0,0,0,0,0,0,0,0,-1,1980,1520,0,0
763,-496,0,0,0,0,0,0,0,0,0,-1,1987,1520,0,0
770,-496,0,0,0,0,0,0,0,0,0,-1,1994,1520,0,0
777,-496,0,0,0,0,0,0,0,0,0,-1,2001,1520,0,0
784,-496,0,0,0,0,0,0,0,0,0,-1,2008,1520,0,0
791,-496,0,0,0,0,0,0,0,0,0,-1,2015,1520,0,0
798,-496,0,0,0,0,0,0,0,0,0,-1,2022,1520,0,0
805,-496,0,0,0,0,0,0,0,0,0,-1,2029,1520,0,0
812,-496,0,0,0,0,0,0,0,0,0,-1,2036,1520,0,0
-700,-503,0,0,0,0,0,0,0,0,0,-1,524,1527,0,0
-693,-503,0,0,0,0,0,0,0,0,0,-1,531,1527,0,0
-686,-503,0,0,0,0,0,0,0,0,0,-1,538,1527,0,0
-679,-503,0,0,0,0,0,0,0,0,0,-1,545,1527,0,0
-672,-503,0,0,0,0,0,0,0,0,0,-1,552,1527,0,0
-665,-503,0,0,0,0,0,0,0,0,0,-1,559,1527,0,0
-658,-503,0,0,0,0,0,0,0,0,0,-1,566,1527,0,0
-651,-503,0,0,0,0,0,0,0,0,0,-1,573,1527,0,0
-644,-503,0,0,0,0,0,0,0,0,0,-1,580,1527,0,0
-637,-503,0,0,0,0,0,0,0,0,0,-1,587,1527,0,0
-630,-503,0,0,0,0,0,0,0,0,0,-1,594,1527,0,0
-623,-503,0,0,0,0,0,0,0,0,0,-1,601,1527,0,0
-616,-503,0,0,0,0,0,0,0,0,0,-1,608,1527,0,0
-609,-503,0,0,0,0,0,0,0,0,0,-1,615,1527,0,0
-602,-503,0,0,0,0,0,0,0,0,0,-1,622,1527,0,0
-595,-503,0,0,0,0,0,0,0,0,0,-1,629,1527,0,0
-588,-503,0,0,0,0,0,0,0,0,0,-1,636,1527,0,0
-581,-503,0,0,0,0,0,0,0,0,0,-1,643,1527,0,0
-574,-503,0,0,0,0,0,0,0,0,0,-1,650,1527,0,0
-567,-503,0,0,0,0,0,0,0,0,0,-1,657,1527,0,0
-560,-503,0,0,0,0,0,0,0,0,0,-1,664,1527,0,0
-553,-503,0,0,0,0,0,0,0,0,0,-1,671,1527,0,0
-546,-503,0,0,0,0,0,0,0,0,0,-1,678,1527,0,0
-539,-503,3.50177,4.26428,0,0,0,0,0,0,0,-1,685,1527,3.50177,-4.26424
-532,-503,-3.13196,1.05298,0,0,0,0,0,0,0,-1,692,1527,-3.13194,-1.05299
-525,-503,-2.94293,2.59314,0,0,0,0,0,0,0,-1,699,1527,-2.94296,-2.59314
-518,-503,-2.7395,4.05872,0,0,0,0,0,0,0,-1,706,1527,-2.73948,-4.05871
-511,-503,-1.60022,7.23877,0,0,0,0,0,0,0,-1,713,1527,-1.60023,-7.23872
-504,-503,-4.64294,10.7301,0,0,0,0,0,0,0,-1,720,1527,-4.64292,-10.7301
-497,-503,-4.0116,11.5967,0.0417514,0.00833989,0.0153531,0.0477349,0.00235642,0.371616,0.0310676,0.049353,727,1527,-4.01158,-11.5967
-490,-503,-3.30493,12.3444,0.0298154,0.00437337,0.0107263,0.033734,0.000454765,0.350264,0.0223393,0.0498176,734,1527,-3.30492,-12.3444
-483,-503,-3.26917,12.785,0.0211791,0.00180506,0.00749828,0.0237421,-0.000757922,0.32936,0.0160866,0.048474,741,1527,-3.26919,-12.785
-476,-503,-3.39044,13.1676,0.0146354,0.0001418,0.00511279,0.0162575,-0.00148026,0.307211,0.0113639,0.0262233,748,1527,-3.39043,-13.1676
-469,-503,-3.4964,13.5846,0.0099226,-0.000767006,0.00347163,0.0109511,-0.00179552,0.288024,0.00796698,0.011314,755,1527,-3.49637,-13.5846
-462,-503,-3.51447,14.0831,0.00663466,-0.00109631,0.00241737,0.0073283,-0.00178995,0.279434,0.00557874,0.0106245,762,1527,-3.51449,-14.0831
-455,-503,-3.4881,14.5615,0.00441365,-0.00100924,0.00177873,0.00494502,-0.0015406,0.290293,0.00391265,0.0158304,769,1527,-3.48811,-14.5616
-448,-503,-3.49921,15.0266,0.00308195,-0.00055677,0.00148592,0.00361163,-0.00108646,0.342428,0.00284004,0.0161062,776,1527,-3.49922,-15.0266
-441,-503,-3.51862,15.4604,0.00226052,0.00020158,0.00160119,0.00313464,-0.000672532,0.4997,0.00234629,0.0136058,783,1527,-3.51862,-15.4604
-434,-503,-3.55371,15.9166,0.00245091,0.00126948,0.00221074,0.00414849,-0.0004281,0.654846,0.00291885,0.0110529,790,1527,-3.55369,-15.9166
-427,-503,-3.57654,16.3556,0.003432,0.0028376,0.00322554,0.006374,-0.000104404,0.739458,0.00428456,0.0167967,797,1527,-3.57651,-16.3556
-420,-503,-3.57782,16.8077,0.00473824,0.00450199,0.00452652,0.00914818,9.20533e-05,0.772353,0.00606834,0.0186373,804,1527,-3.57781,-16.8077
-413,-503,-3.60718,17.2856,0.00635262,0.0063825,0.0061702,0.0125378,0.000197346,0.786609,0.00829352,0.0157236,811,1527,-3.60715,-17.2856
-406,-503,-3.5791,17.7611,0.00826722,0.00831753,0.00823312,0.0165255,5.92191e-05,0.786926,0.0109973,0.0223831,818,1527,-3.57909,-17.7611
-399,-503,-3.44739,18.4126,0.0102994,0.0105985,0.0103569,0.020807,9.09334e-05,0.792615,0.0138411,0.0370748,825,1527,-3.4474,-18.4126
-392,-503,-3.1676,19.2285,0,0,0,0,0,0,0,-1,832,1527,-3.1676,-19.2285
-385,-503,-2.00403,14.1218,0,0,0,0,0,0,0,-1,839,1527,-2.00403,-14.1218
-378,-503,-2.07043,13.8632,0,0,0,0,0,0,0,-1,846,1527,-2.07043,-13.8631
-371,-503,-1.67285,13.8081,0,0,0,0,0,0,0,-1,853,1527,-1.67285,-13.8081
-364,-503,0.181396,12.3768,0,0,0,0,0,0,0,-1,860,1527,0.18138,-12.3768
-357,-503,0.558533,9.25452,0,0,0,0,0,0,0,-1,867,1527,0.558542,-9.25446
-350,-503,0.219971,6.84827,0,0,0,0,0,0,0,-1,874,1527,0.21996,-6.84831
-343,-503,-3.5802,4.43274,0,0,0,0,0,0,0,-1,881,1527,-3.58018,-4.43276
-336,-503,-3.2384,6.40637,0,0,0,0,0,0,0,-1,888,1527,-3.2384,-6.40643
-329,-503,-1.70691,11.886,0,0,0,0,0,0,0,-1,895,1527,-1.70689,-11.886
-322,-503,-3.31317,8.81519,0,0,0,0,0,0,0,-1,902,1527,-3.31315,-8.81524
-315,-503,-3.90265,7.73853,0,0,0,0,0,0,0,-1,909,1527,-3.90264,-7.73854
-308,-503,-1.70264,7.35413,0,0,0,0,0,0,0,-1,916,1527,-1.70262,-7.35416
-301,-503,0,0,0,0,0,0,0,0,0,-1,923,1527,0,0
-294,-503,0,0,0,0,0,0,0,0,0,-1,930,1527,0,0
-287,-503,0,0,0,0,0,0,0,0,0,-1,937,1527,0,0
-280,-503,0,0,0,0,0,0,0,0,0,-1,944,1527,0,0
-273,-503,0,0,0,0,0,0,0,0,0,-1,951,1527,0,0
-266,-503,0,0,0,0,0,0,0,0,0,-1,958,1527,0,0
-259,-503,0,0,0,0,0,0,0,0,0,-1,965,1527,0,0
-252,-503,0,0,0,0,0,0,0,0,0,-1,972,1527,0,0
-245,-503,0,0,0,0,0,0,0,0,0,-1,979,1527,0,0
-238,-503,0,0,0,0,0,0,0,0,0,-1,986,1527,0,0
-231,-503,0,0,0,0,0,0,0,0,0,-1,993,1527,0,0
-224,-503,0,0,0,0,0,0,0,0,0,-1,1000,1527,0,0
-217,-503,0,0,0,0,0,0,0,0,0,-1,1007,1527,0,0
-210,-503,0,0,0,0,0,0,0,0,0,-1,1014,1527,0,0
-203,-503,0,0,0,0,0,0,0,0,0,-1,1021,1527,0,0
-196,-503,0,0,0,0,0,0,0,0,0,-1,1028,1527,0,0
-189,-503,0,0,0,0,0,0,0,0,0,-1,1035,1527,0,0
-182,-503,0,0,0,0,0,0,0,0,0,-1,1042,1527,0,0
-175,-503,0,0,0,0,0,0,0,0,0,-1,1049,1527,0,0
-168,-503,0,0,0,0,0,0,0,0,0,-1,1056,1527,0,0
-161,-503,0,0,0,0,0,0,0,0,0,-1,1063,1527,0,0
-154,-503,0,0,0,0,0,0,0,0,0,-1,1070,1527,0,0
-147,-503,0,0,0,0,0,0,0,0,0,-1,1077,1527,0,0
-140,-503,0,0,0,0,0,0,0,0,0,-1,1084,1527,0,0
-133,-503,0,0,0,0,0,0,0,0,0,-1,1091,1527,0,0
-126,-503,0,0,0,0,0,0,0,0,0,-1,1098,1527,0,0
-119,-503,0,0,0,0,0,0,0,0,0,-1,1105,1527,0,0
-112,-503,0,0,0,0,0,0,0,0,0,-1,1112,1527,0,0
-105,-503,0,0,0,0,0,0,0,0,0,-1,1119,1527,0,0
-98,-503,0,0,0,0,0,0,0,0,0,-1,1126,1527,0,0
-91,-503,0,0,0,0,0,0,0,0,0,-1,1133,1527,0,0
-84,-503,0,0,0,0,0,0,0,0,0,-1,1140,1527,0,0
-77,-503,0,0,0,0,0,0,0,0,0,-1,1147,1527,0,0
-70,-503,0,0,0,0,0,0,0,0,0,-1,1154,1527,0,0
-63,-503,0,0,0,0,0,0,0,0,0,-1,1161,1527,0,0
-56,-503,0,0,0,0,0,0,0,0,0,-1,1168,1527,0,0
-49,-503,0,0,0,0,0,0,0,0,0,-1,1175,1527,0,0
-42,-503,0,0,0,0,0,0,0,0,0,-1,1182,1527,0,0
-35,-503,0,0,0,0,0,0,0,0,0,-1,1189,1527,0,0
-28,-503,0,0,0,0,0,0,0,0,0,-1,1196,1527,0,0
-21,-503,0,0,0,0,0,0,0,0,0,-1,1203,1527,0,0
-14,-503,0,0,0,0,0,0,0,0,0,-1,1210,1527,0,0
-7,-503,0,0,0,0,0,0,0,0,0,-1,1217,1527,0,0
0,-503,0,0,0,0,0,0,0,0,0,-1,1224,1527,0,0
7,-503,0,0,0,0,0,0,0,0,0,-1,1231,1527,0,0
14,-503,0,0,0,0,0,0,0,0,0,-1,1238,1527,0,0
21,-503,0,0,0,0,0,0,0,0,0,-1,1245,1527,0,0
28,-503,0,0,0,0,0,0,0,0,0,-1,1252,1527,0,0
35,-503,0,0,0,0,0,0,0,0,0,-1,1259,1527,0,0
42,-503,0,0,0,0,0,0,0,0,0,-1,1266,1527,0,0
49,-503,0,0,0,0,0,0,0,0,0,-1,1273,1527,0,0
56,-503,0,0,0,0,0,0,0,0,0,-1,1280,1527,0,0
63,-503,0,0,0,0,0,0,0,0,0,-1,1287,1527,0,0
70,-503,0,0,0,0,0,0,0,0,0,-1,1294,1527,0,0
77,-503,0,0,0,0,0,0,0,0,0,-1,1301,1527,0,0
84,-503,0,0,0,0,0,0,0,0,0,-1,1308,1527,0,0
91,-503,0,0,0,0,0,0,0,0,0,-1,1315,1527,0,0
98,-503,0,0,0,0,0,0,0,0,0,-1,1322,1527,0,0
105,-503,0,0,0,0,0,0,0,0,0,-1,1329,1527,0,0
112,-503,0,0,0,0,0,0,0,0,0,-1,1336,1527,0,0
119,-503,0,0,0,0,0,0,0,0,0,-1,1343,1527,0,0
126,-503,0,0,0,0,0,0,0,0,0,-1,1350,1527,0,0
133,-503,0,0,0,0,0,0,0,0,0,-1,1357,1527,0,0
140,-503,0,0,0,0,0,0,0,0,0,-1,1364,1527,0,0
147,-503,0,0,0,0,0,0,0,0,0,-1,1371,1527,0,0
154,-503,0,0,0,0,0,0,0,0,0,-1,1378,1527,0,0
161,-503,0,0,0,0,0,0,0,0,0,-1,1385,1527,0,0
168,-503,0,0,0,0,0,0,0,0,0,-1,1392,1527,0,0
175,-503,0,0,0,0,0,0,0,0,0,-1,1399,1527,0,0
182,-503,0,0,0,0,0,0,0,0,0,-1,1406,1527,0,0
189,-503,0,0,0,0,0,0,0,0,0,-1,1413,1527,0,0
196,-503,0,0,0,0,0,0,0,0,0,-1,1420,1527,0,0
203,-503,0,0,0,0,0,0,0,0,0,-1,1427,1527,0,0
210,-503,0,0,0,0,0,0,0,0,0,-1,1434,1527,0,0
217,-503,0,0,0,0,0,0,0,0,0,-1,1441,1527,0,0
224,-503,0,0,0,0,0,0,0,0,0,-1,1448,1527,0,0
231,-503,0,0,0,0,0,0,0,0,0,-1,1455,1527,0,0
238,-503,0,0,0,0,0,0,0,0,0,-1,1462,1527,0,0
245,-503,0,0,0,0,0,0,0,0,0,-1,1469,1527,0,0
252,-503,0,0,0,0,0,0,0,0,0,-1,1476,1527,0,0
259,-503,0,0,0,0,0,0,0,0,0,-1,1483,1527,0,0
266,-503,0,0,0,0,0,0,0,0,0,-1,1490,1527,0,0
273,-503,0,0,0,0,0,0,0,0,0,-1,1497,1527,0,0
280,-503,0,0,0,0,0,0,0,0,0,-1,1504,1527,0,0
287,-503,0,0,0,0,0,0,0,0,0,-1,1511,1527,0,0
294,-503,0,0,0,0,0,0,0,0,0,-1,1518,1527,0,0
301,-503,0,0,0,0,0,0,0,0,0,-1,1525,1527,0,0
308,-503,0,0,0,0,0,0,0,0,0,-1,1532,1527,0,0
315,-503,0,0,0,0,0,0,0,0,0,-1,1539,1527,0,0
322,-503,0,0,0,0,0,0,0,0,0,-1,1546,1527,0,0
329,-503,0,0,0,0,0,0,0,0,0,-1,1553,1527,0,0
336,-503,0,0,0,0,0,0,0,0,0,-1,1560,1527,0,0
343,-503,0,0,0,0,0,0,0,0,0,-1,1567,1527,0,0
350,-503,0,0,0,0,0,0,0,0,0,-1,1574,1527,0,0
357,-503,0,0,0,0,0,0,0,0,0,-1,1581,1527,0,0
364,-503,0,0,0,0,0,0,0,0,0,-1,1588,1527,0,0
371,-503,0,0,0,0,0,0,0,0,0,-1,1595,1527,0,0
378,-503,0,0,0,0,0,0,0,0,0,-1,1602,1527,0,0
385,-503,0,0,0,0,0,0,0,0,0,-1,1609,1527,0,0
392,-503,0,0,0,0,0,0,0,0,0,-1,1616,1527,0,0
399,-503,0,0,0,0,0,0,0,0,0,-1,1623,1527,0,0
406,-503,0,0,0,0,0,0,0,0,0,-1,1630,1527,0,0
413,-503,0,0,0,0,0,0,0,0,0,-1,1637,1527,0,0
420,-503,0,0,0,0,0,0,0,0,0,-1,1644,1527,0,0
427,-503,10.5968,4.9856,0,0,0,0,0,0,0,-1,1651,1527,10.5969,-4.98563
434,-503,11.4329,3.97217,0,0,0,0,0,0,0,-1,1658,1527,11.4328,-3.97222
441,-503,12.0957,2.96509,0,0,0,0,0,0,0,-1,1665,1527,12.0957,-2.96512
448,-503,12.3259,2.53894,0,0,0,0,0,0,0,-1,1672,1527,12.326,-2.53895
455,-503,12.1669,2.18762,0,0,0,0,0,0,0,-1,1679,1527,12.1668,-2.18767
462,-503,11.59,2.60791,0,0,0,0,0,0,0,-1,1686,1527,11.5899,-2.60794
469,-503,11.1625,1.61853,0,0,0,0,0,0,0,-1,1693,1527,11.1625,-1.61856
476,-503,9.07703,5.81042,0,0,0,0,0,0,0,-1,1700,1527,9.07699,-5.81047
483,-503,9.74414,6.92432,0,0,0,0,0,0,0,-1,1707,1527,9.74417,-6.9243
490,-503,10.5033,10.1071,0,0,0,0,0,0,0,-1,1714,1527,10.5032,-10.107
497,-503,15.0057,17.9476,0,0,0,0,0,0,0,-1,1721,1527,15.0058,-17.9476
504,-503,16.4764,18.4486,0,0,0,0,0,0,0,-1,1728,1527,16.4764,-18.4486
511,-503,16.8276,18.3271,0,0,0,0,0,0,0,-1,1735,1527,16.8276,-18.3272
518,-503,17.2533,18.2738,0,0,0,0,0,0,0,-1,1742,1527,17.2533,-18.2738
525,-503,17.4714,20.0486,0,0,0,0,0,0,0,-1,1749,1527,17.4715,-20.0486
532,-503,17.5999,19.5568,0.00407049,0.00531682,-0.0027658,0.00752879,0.00185852,-0.896203,0.00452864,0.0300842,1756,1527,17.5999,-19.5568
539,-503,17.7145,19.0521,0.00328032,0.00398726,-0.00194977,0.00561535,0.00165224,-0.875069,0.00333227,0.0162591,1763,1527,17.7145,-19.0521
546,-503,17.7167,18.5652,0.00274017,0.00293505,-0.0013681,0.00420918,0.00146605,-0.820949,0.00246717,0.0118208,1770,1527,17.7167,-18.5651
553,-503,17.7577,18.1411,0.00240049,0.00216085,-0.0010295,0.00331712,0.00124423,-0.727464,0.00193496,0.0141518,1777,1527,17.7577,-18.1411
560,-503,17.7462,17.7302,0.00221788,0.00154381,-0.000850549,0.00279574,0.000965956,-0.596761,0.0016396,0.0140984,1784,1527,17.7462,-17.7302
567,-503,17.7264,17.2843,0.00243859,0.000985978,-0.000876692,0.00285075,0.000573816,-0.43947,0.00174104,0.0123305,1791,1527,17.7264,-17.2843
574,-503,17.7362,16.8608,0.00312542,0.000787797,-0.00131923,0.00371913,0.000194088,-0.42289,0.00241732,0.0123055,1798,1527,17.7362,-16.8608
581,-503,17.7057,16.4656,0.0039973,0.0004845,-0.00178784,0.00474716,-0.000265357,-0.397135,0.00325683,0.0133996,1805,1527,17.7057,-16.4656
588,-503,17.6846,16.0642,0.0053506,0.000401103,-0.00252728,0.00641302,-0.000661311,-0.39795,0.00451196,0.0158047,1812,1527,17.6846,-16.0642
595,-503,17.6847,15.6053,0.00725479,0.000315822,-0.00345485,0.00868156,-0.00111095,-0.391642,0.00619134,0.0126728,1819,1527,17.6846,-15.6053
602,-503,17.728,15.1089,0.00965928,0.000360153,-0.00469611,0.0116182,-0.00159875,-0.395189,0.00832968,0.0245315,1826,1527,17.7281,-15.1089
609,-503,17.7876,14.5129,0,0,0,0,0,0,0,-1,1833,1527,17.7876,-14.5129
616,-503,17.5757,14.4773,0.0169306,0.000501017,-0.00812769,0.0202718,-0.00284024,-0.390035,0.014554,0.0436183,1840,1527,17.5757,-14.4773
623,-503,18.1377,13.6029,0.0219624,0.000528249,-0.0104142,0.026189,-0.00369826,-0.385532,0.0188136,0.0463421,1847,1527,18.1378,-13.6029
630,-503,18.9418,12.7748,0,0,0,0,0,0,0,-1,1854,1527,18.9418,-12.7747
637,-503,14.5564,9.20496,0,0,0,0,0,0,0,-1,1861,1527,14.5564,-9.2049
644,-503,11.4802,7.57214,0,0,0,0,0,0,0,-1,1868,1527,11.4802,-7.57215
651,-503,11.5718,6.5448,0,0,0,0,0,0,0,-1,1875,1527,11.5718,-6.54476
658,-503,8.25635,3.10498,0,0,0,0,0,0,0,-1,1882,1527,8.2563,-3.10493
665,-503,0,0,0,0,0,0,0,0,0,-1,1889,1527,0,0
672,-503,0,0,0,0,0,0,0,0,0,-1,1896,1527,0,0
679,-503,0,0,0,0,0,0,0,0,0,-1,1903,1527,0,0
686,-503,0,0,0,0,0,0,0,0,0,-1,1910,1527,0,0
693,-503,0,0,0,0,0,0,0,0,0,-1,1917,1527,0,0
700,-503,0,0,0,0,0,0,0,0,0,-1,1924,1527,0,0
707,-503,0,0,0,0,0,0,0,0,0,-1,1931,1527,0,0
714,-503,0,0,0,0,0,0,0,0,0,-1,1938,1527,0,0
721,-503,0,0,0,0,0,0,0,0,0,-1,1945,1527,0,0
728,-503,0,0,0,0,0,0,0,0,0,-1,1952,1527,0,0
735,-503,0,0,0,0,0,0,0,0,0,-1,1959,1527,0,0
742,-503,0,0,0,0,0,0,0,0,0,-1,1966,1527,0,0
749,-503,0,0,0,0,0,0,0,0,0,-1,1973,1527,0,0
756,-503,0,0,0,0,0,0,0,0,0,-1,1980,1527,0,0
763,-503,0,0,0,0,0,0,0,0,0,-1,1987,1527,0,0
770,-503,0,0,0,0,0,0,0,0,0,-1,1994,1527,0,0
777,-503,0,0,0,0,0,0,0,0,0,-1,2001,1527,0,0
784,-503,0,0,0,0,0,0,0,0,0,-1,2008,1527,0,0
791,-503,0,0,0,0,0,0,0,0,0,-1,2015,1527,0,0
798,-503,0,0,0,0,0,0,0,0,0,-1,2022,1527,0,0
805,-503,0,0,0,0,0,0,0,0,0,-1,2029,1527,0,0
812,-503,0,0,0,0,0,0,0,0,0,-1,2036,1527,0,0
-700,-510,0,0,0,0,0,0,0,0,0,-1,524,1534,0,0
-693,-510,0,0,0,0,0,0,0,0,0,-1,531,1534,0,0
-686,-510,0,0,0,0,0,0,0,0,0,-1,538,1534,0,0
-679,-510,0,0,0,0,0,0,0,0,0,-1,545,1534,0,0
-672,-510,0,0,0,0,0,0,0,0,0,-1,552,1534,0,0
-665,-510,0,0,0,0,0,0,0,0,0,-1,559,1534,0,0
-658,-510,0,0,0,0,0,0,0,0,0,-1,566,1534,0,0
-651,-510,0,0,0,0,0,0,0,0,0,-1,573,1534,0,0
-644,-510,0,0,0,0,0,0,0,0,0,-1,580,1534,0,0
-637,-510,0,0,0,0,0,0,0,0,0,-1,587,1534,0,0
-630,-510,0,0,0,0,0,0,0,0,0,-1,594,1534,0,0
-623,-510,0,0,0,0,0,0,0,0,0,-1,601,1534,0,0
-616,-510,0,0,0,0,0,0,0,0,0,-1,608,1534,0,0
-609,-510,0,0,0,0,0,0,0,0,0,-1,615,1534,0,0
-602,-510,0,0,0,0,0,0,0,0,0,-1,622,1534,0,0
-595,-510,0,0,0,0,0,0,0,0,0,-1,629,1534,0,0
-588,-510,0,0,0,0,0,0,0,0,0,-1,636,1534,0,0
-581,-510,0,0,0,0,0,0,0,0,0,-1,643,1534,0,0
-574,-510,0,0,0,0,0,0,0,0,0,-1,650,1534,0,0
-567,-510,0,0,0,0,0,0,0,0,0,-1,657,1534,0,0
-560,-510,0,0,0,0,0,0,0,0,0,-1,664,1534,0,0
-553,-510,0,0,0,0,0,0,0,0,0,-1,671,1534,0,0
-546,-510,0,0,0,0,0,0,0,0,0,-1,678,1534,0,0
-539,-510,0,0,0,0,0,0,0,0,0,-1,685,1534,0,0
-532,-510,-3.95129,4.52014,0,0,0,0,0,0,0,-1,692,1534,-3.95131,-4.5202
-525,-510,-2.77411,0.316772,0,0,0,0,0,0,0,-1,699,1534,-2.77409,-0.3168
-518,-510,-2.86847,2.71423,0,0,0,0,0,0,0,-1,706,1534,-2.86849,-2.71424
-511,-510,-2.28571,4.48083,0,0,0,0,0,0,0,-1,713,1534,-2.28571,-4.48086
-504,-510,-4.86731,10.8224,0,0,0,0,0,0,0,-1,720,1534,-4.8673,-10.8224
-497,-510,-4.03186,11.6189,0.0527289,0.00931164,0.0188002,0.0597381,0.00230249,0.356861,0.0390805,0.0462905,727,1534,-4.03183,-11.6189
-490,-510,-3.12384,12.1345,0.0377799,0.00463542,0.0133787,0.0425062,-9.08729e-05,0.339586,0.0283678,0.0459466,734,1534,-3.12384,-12.1346
-483,-510,-2.75043,12.6398,0.0266792,0.00149978,0.00937723,0.0297877,-0.0016087,0.320093,0.0204158,0.0442171,741,1534,-2.75043,-12.6398
-476,-510,-2.78308,13.1174,0.0183154,-0.000486541,0.00638503,0.0202787,-0.00244985,0.298311,0.0144054,0.0355908,748,1534,-2.78308,-13.1175
-469,-510,-3.02228,13.6124,0.0122866,-0.00154971,0.00426424,0.0134952,-0.00275834,0.27619,0.0100433,0.0148007,755,1534,-3.02228,-13.6125
-462,-510,-3.04657,14.0873,0.00808707,-0.00192532,0.00285651,0.0088447,-0.00268294,0.259259,0.0069652,0.0111238,762,1534,-3.04656,-14.0873
-455,-510,-3.04108,14.5819,0.00517797,-0.0018248,0.00193035,0.00567483,-0.00232166,0.251925,0.00475015,0.0128997,769,1534,-3.04108,-14.5819
-448,-510,-3.02771,15.0393,0.0033009,-0.00137327,0.00137733,0.00367656,-0.00174893,0.266272,0.00319764,0.0124265,776,1534,-3.02772,-15.0393
-441,-510,-3.0434,15.4696,0.00190458,-0.000634153,0.00119831,0.00238085,-0.00111042,0.378305,0.00205969,0.0136433,783,1534,-3.04339,-15.4696
-434,-510,-3.11487,15.9249,0.0015935,0.000298672,0.00153776,0.00261457,-0.000722398,0.586154,0.00202721,0.0142376,790,1534,-3.11487,-15.9249
-427,-510,-3.15948,16.3407,0.00226961,0.00171744,0.00234262,0.00435236,-0.000365308,0.726742,0.00303069,0.0218591,797,1534,-3.15947,-16.3407
-420,-510,-3.14606,16.79,0.00337189,0.00338962,0.00338609,0.00676686,-5.34696e-06,0.786707,0.00451302,0.0219503,804,1534,-3.14603,-16.79
-413,-510,-3.14569,17.3049,0.00469969,0.00511882,0.00472679,0.00964069,0.000177827,0.807551,0.00636868,0.0113353,811,1534,-3.14566,-17.3049
-406,-510,-3.159,17.7599,0.00622915,0.00692286,0.0064029,0.0129883,0.000163713,0.812457,0.00860481,0.00983565,818,1534,-3.159,-17.7598
-399,-510,-3.15338,18.2053,0.0078038,0.00899275,0.00807531,0.0164954,0.000301111,0.82214,0.010898,0.0127531,825,1534,-3.15341,-18.2053
-392,-510,-2.99066,18.8678,0.00945743,0.0122194,0.00908921,0.020032,0.0016449,0.86079,0.0128415,0.0394714,832,1534,-2.99066,-18.8678
-385,-510,-2.70923,19.5848,0,0,0,0,0,0,0,-1,839,1534,-2.70922,-19.5849
-378,-510,-1.78308,13.8044,0,0,0,0,0,0,0,-1,846,1534,-1.78309,-13.8044
-371,-510,-1.74982,13.8027,0,0,0,0,0,0,0,-1,853,1534,-1.74981,-13.8028
-364,-510,-1.3479,13.7771,0,0,0,0,0,0,0,-1,860,1534,-1.34791,-13.7771
-357,-510,-0.254395,8.89575,0,0,0,0,0,0,0,-1,867,1534,-0.254397,-8.89569
-350,-510,0.471191,6.06458,0,0,0,0,0,0,0,-1,874,1534,0.47118,-6.06453
-343,-510,-2.94617,5.00989,0,0,0,0,0,0,0,-1,881,1534,-2.94615,-5.00992
-336,-510,-1.85938,19.839,0,0,0,0,0,0,0,-1,888,1534,-1.85937,-19.839
-329,-510,-4.87781,20.6893,0,0,0,0,0,0,0,-1,895,1534,-4.87782,-20.6894
-322,-510,-0.251526,11.973,0,0,0,0,0,0,0,-1,902,1534,-0.251497,-11.9731
-315,-510,-1.73047,10.9796,0,0,0,0,0,0,0,-1,909,1534,-1.73049,-10.9796
-308,-510,-2.05328,9.72034,0,0,0,0,0,0,0,-1,916,1534,-2.05327,-9.72036
-301,-510,-1.85437,11.5869,0,0,0,0,0,0,0,-1,923,1534,-1.85437,-11.5869
-294,-510,0,0,0,0,0,0,0,0,0,-1,930,1534,0,0
-287,-510,0,0,0,0,0,0,0,0,0,-1,937,1534,0,0
-280,-510,0,0,0,0,0,0,0,0,0,-1,944,1534,0,0
-273,-510,0,0,0,0,0,0,0,0,0,-1,951,1534,0,0
-266,-510,0,0,0,0,0,0,0,0,0,-1,958,1534,0,0
-259,-510,0,0,0,0,0,0,0,0,0,-1,965,1534,0,0
-252,-510,0,0,0,0,0,0,0,0,0,-1,972,1534,0,0
-245,-510,0,0,0,0,0,0,0,0,0,-1,979,1534,0,0
-238,-510,0,0,0,0,0,0,0,0,0,-1,986,1534,0,0
-231,-510,0,0,0,0,0,0,0,0,0,-1,993,1534,0,0
-224,-510,0,0,0,0,0,0,0,0,0,-1,1000,1534,0,0
-217,-510,0,0,0,0,0,0,0,0,0,-1,1007,1534,0,0
-210,-510,0,0,0,0,0,0,0,0,0,-1,1014,1534,0,0
-203,-510,0,0,0,0,0,0,0,0,0,-1,1021,1534,0,0
-196,-510,0,0,0,0,0,0,0,0,0,-1,1028,1534,0,0
-189,-510,0,0,0,0,0,0,0,0,0,-1,1035,1534,0,0
-182,-510,0,0,0,0,0,0,0,0,0,-1,1042,1534,0,0
-175,-510,0,0,0,0,0,0,0,0,0,-1,1049,1534,0,0
-168,-510,0,0,0,0,0,0,0,0,0,-1,1056,1534,0,0
-161,-510,0,0,0,0,0,0,0,0,0,-1,1063,1534,0,0
-154,-510,0,0,0,0,0,0,0,0,0,-1,1070,1534,0,0
-147,-510,0,0,0,0,0,0,0,0,0,-1,1077,1534,0,0
-140,-510,0,0,0,0,0,0,0,0,0,-1,1084,1534,0,0
-133,-510,0,0,0,0,0,0,0,0,0,-1,1091,1534,0,0
-126,-510,0,0,0,0,0,0,0,0,0,-1,1098,1534,0,0
-119,-510,0,0,0,0,0,0,0,0,0,-1,1105,1534,0,0
-112,-510,0,0,0,0,0,0,0,0,0,-1,1112,1534,0,0
-105,-510,0,0,0,0,0,0,0,0,0,-1,1119,1534,0,0
-98,-510,0,0,0,0,0,0,0,0,0,-1,1126,1534,0,0
-91,-510,0,0,0,0,0,0,0,0,0,-1,1133,1534,0,0
-84,-510,0,0,0,0,0,0,0,0,0,-1,1140,1534,0,0
-77,-510,0,0,0,0,0,0,0,0,0,-1,1147,1534,0,0
-70,-510,0,0,0,0,0,0,0,0,0,-1,1154,1534,0,0
-63,-510,0,0,0,0,0,0,0,0,0,-1,1161,1534,0,0
-56,-510,0,0,0,0,0,0,0,0,0,-1,1168,1534,0,0
-49,-510,0,0,0,0,0,0,0,0,0,-1,1175,1534,0,0
-42,-510,0,0,0,0,0,0,0,0,0,-1,1182,1534,0,0
-35,-510,0,0,0,0,0,0,0,0,0,-1,1189,1534,0,0
-28,-510,0,0,0,0,0,0,0,0,0,-1,1196,1534,0,0
-21,-510,0,0,0,0,0,0,0,0,0,-1,1203,1534,0,0
-14,-510,0,0,0,0,0,0,0,0,0,-1,1210,1534,0,0
-7,-510,0,0,0,0,0,0,0,0,0,-1,1217,1534,0,0
0,-510,0,0,0,0,0,0,0,0,0,-1,1224,1534,0,0
7,-510,0,0,0,0,0,0,0,0,0,-1,1231,1534,0,0
14,-510,0,0,0,0,0,0,0,0,0,-1,1238,1534,0,0
21,-510,0,0,0,0,0,0,0,0,0,-1,1245,1534,0,0
28,-510,0,0,0,0,0,0,0,0,0,-1,1252,1534,0,0
35,-510,0,0,0,0,0,0,0,0,0,-1,1259,1534,0,0
42,-510,0,0,0,0,0,0,0,0,0,-1,1266,1534,0,0
49,-510,0,0,0,0,0,0,0,0,0,-1,1273,1534,0,0
56,-510,0,0,0,0,0,0,0,0,0,-1,1280,1534,0,0
63,-510,0,0,0,0,0,0,0,0,0,-1,1287,1534,0,0
70,-510,0,0,0,0,0,0,0,0,0,-1,1294,1534,0,0
77,-510,0,0,0,0,0,0,0,0,0,-1,1301,1534,0,0
84,-510,0,0,0,0,0,0,0,0,0,-1,1308,1534,0,0
91,-510,0,0,0,0,0,0,0,0,0,-1,1315,1534,0,0
98,-510,0,0,0,0,0,0,0,0,0,-1,1322,1534,0,0
105,-510,0,0,0,0,0,0,0,0,0,-1,1329,1534,0,0
112,-510,0,0,0,0,0,0,0,0,0,-1,1336,1534,0,0
119,-510,0,0,0,0,0,0,0,0,0,-1,1343,1534,0,0
126,-510,0,0,0,0,0,0,0,0,0,-1,1350,1534,0,0
133,-510,0,0,0,0,0,0,0,0,0,-1,1357,1534,0,0
140,-510,0,0,0,0,0,0,0,0,0,-1,1364,1534,0,0
147,-510,0,0,0,0,0,0,0,0,0,-1,1371,1534,0,0
154,-510,0,0,0,0,0,0,0,0,0,-1,1378,1534,0,0
161,-510,0,0,0,0,0,0,0,0,0,-1,1385,1534,0,0
168,-510,0,0,0,0,0,0,0,0,0,-1,1392,1534,0,0
175,-510,0,0,0,0,0,0,0,0,0,-1,1399,1534,0,0
182,-510,0,0,0,0,0,0,0,0,0,-1,1406,1534,0,0
189,-510,0,0,0,0,0,0,0,0,0,-1,1413,1534,0,0
196,-510,0,0,0,0,0,0,0,0,0,-1,1420,1534,0,0
203,-510,0,0,0,0,0,0,0,0,0,-1,1427,1534,0,0
210,-510,0,0,0,0,0,0,0,0,0,-1,1434,1534,0,0
217,-510,0,0,0,0,0,0,0,0,0,-1,1441,1534,0,0
224,-510,0,0,0,0,0,0,0,0,0,-1,1448,1534,0,0
231,-510,0,0,0,0,0,0,0,0,0,-1,1455,1534,0,0
238,-510,0,0,0,0,0,0,0,0,0,-1,1462,1534,0,0
245,-510,0,0,0,0,0,0,0,0,0,-1,1469,1534,0,0
252,-510,0,0,0,0,0,0,0,0,0,-1,1476,1534,0,0
259,-510,0,0,0,0,0,0,0,0,0,-1,1483,1534,0,0
266,-510,0,0,0,0,0,0,0,0,0,-1,1490,1534,0,0
273,-510,0,0,0,0,0,0,0,0,0,-1,1497,1534,0,0
280,-510,0,0,0,0,0,0,0,0,0,-1,1504,1534,0,0
287,-510,0,0,0,0,0,0,0,0,0,-1,1511,1534,0,0
294,-510,0,0,0,0,0,0,0,0,0,-1,1518,1534,0,0
301,-510,0,0,0,0,0,0,0,0,0,-1,1525,1534,0,0
308,-510,0,0,0,0,0,0,0,0,0,-1,1532,1534,0,0
315,-510,0,0,0,0,0,0,0,0,0,-1,1539,1534,0,0
322,-510,0,0,0,0,0,0,0,0,0,-1,1546,1534,0,0
329,-510,0,0,0,0,0,0,0,0,0,-1,1553,1534,0,0
336,-510,0,0,0,0,0,0,0,0,0,-1,1560,1534,0,0
343,-510,0,0,0,0,0,0,0,0,0,-1,1567,1534,0,0
350,-510,0,0,0,0,0,0,0,0,0,-1,1574,1534,0,0
357,-510,0,0,0,0,0,0,0,0,0,-1,1581,1534,0,0
364,-510,0,0,0,0,0,0,0,0,0,-1,1588,1534,0,0
371,-510,0,0,0,0,0,0,0,0,0,-1,1595,1534,0,0
378,-510,0,0,0,0,0,0,0,0,0,-1,1602,1534,0,0
385,-510,0,0,0,0,0,0,0,0,0,-1,1609,1534,0,0
392,-510,0,0,0,0,0,0,0,0,0,-1,1616,1534,0,0
399,-510,0,0,0,0,0,0,0,0,0,-1,1623,1534,0,0
406,-510,0,0,0,0,0,0,0,0,0,-1,1630,1534,0,0
413,-510,0,0,0,0,0,0,0,0,0,-1,1637,1534,0,0
420,-510,14.1888,6.71936,0,0,0,0,0,0,0,-1,1644,1534,14.1889,-6.71939
427,-510,10.2134,5.59485,0,0,0,0,0,0,0,-1,1651,1534,10.2134,-5.59485
434,-510,11.8219,4.07898,0,0,0,0,0,0,0,-1,1658,1534,11.8219,-4.07895
441,-510,12.6812,3.02991,0,0,0,0,0,0,0,-1,1665,1534,12.6811,-3.0299
448,-510,13.2379,2.2804,0,0,0,0,0,0,0,-1,1672,1534,13.2379,-2.28037
455,-510,9.76892,2.20642,0,0,0,0,0,0,0,-1,1679,1534,9.76894,-2.20647
462,-510,9.84692,2.49182,0,0,0,0,0,0,0,-1,1686,1534,9.84695,-2.49185
469,-510,16.6072,7.26941,0,0,0,0,0,0,0,-1,1693,1534,16.6072,-7.26945
476,-510,15.9199,7.8645,0,0,0,0,0,0,0,-1,1700,1534,15.9199,-7.86455
483,-510,13.0833,8.10938,0,0,0,0,0,0,0,-1,1707,1534,13.0833,-8.10932
490,-510,13.0841,15.3286,0,0,0,0,0,0,0,-1,1714,1534,13.0841,-15.3286
497,-510,15.5652,18.823,0,0,0,0,0,0,0,-1,1721,1534,15.5652,-18.823
504,-510,15.998,18.7478,0,0,0,0,0,0,0,-1,1728,1534,15.998,-18.7478
511,-510,15.9443,18.0476,0,0,0,0,0,0,0,-1,1735,1534,15.9443,-18.0476
518,-510,17.3417,20.8621,0,0,0,0,0,0,0,-1,1742,1534,17.3417,-20.862
525,-510,17.2111,20.0864,0.00463184,0.0064346,-0.00359186,0.00923645,0.00182999,-0.908335,0.00564735,0.0482932,1749,1534,17.2111,-20.0864
532,-510,17.2971,19.4749,0.00373418,0.00487322,-0.00266375,0.00702765,0.00157975,-0.890715,0.00425736,0.0195532,1756,1534,17.2972,-19.4748
539,-510,17.3585,18.9836,0.00309098,0.00359222,-0.00191615,0.00527407,0.00140914,-0.850425,0.0031531,0.0130313,1763,1534,17.3585,-18.9837
546,-510,17.325,18.5947,0.00265852,0.00258892,-0.0013747,0.00399886,0.00124858,-0.772744,0.00236238,0.0123729,1770,1534,17.325,-18.5948
553,-510,17.3114,18.161,0.00238939,0.00180982,-0.00102717,0.00316687,0.00103235,-0.64791,0.00186494,0.0132325,1777,1534,17.3113,-18.161
560,-510,17.3064,17.7208,0.0022849,0.00118719,-0.000838722,0.00273839,0.000733702,-0.495671,0.00163679,0.013954,1784,1534,17.3064,-17.7208
567,-510,17.2985,17.301,0.00269297,0.000578311,-0.000884064,0.00301387,0.000257413,-0.348192,0.00192918,0.0139227,1791,1534,17.2985,-17.3011
574,-510,17.2864,16.8906,0.00361702,0.000440454,-0.00144668,0.00417711,-0.000119642,-0.369388,0.00282547,0.0145604,1798,1534,17.2864,-16.8906
581,-510,17.256,16.5023,0.00477105,0.000219326,-0.0020502,0.00555833,-0.000567958,-0.366641,0.00390865,0.0122027,1805,1534,17.256,-16.5023
588,-510,17.2413,16.0648,0.00651087,0.000230889,-0.00301054,0.00772092,-0.000979165,-0.382177,0.00550279,0.0121323,1812,1534,17.2413,-16.0648
595,-510,17.371,15.4668,0.00886819,0.000230415,-0.00420041,0.0105739,-0.00147534,-0.385746,0.00758903,0.0244703,1819,1534,17.371,-15.4668
602,-510,17.4164,14.9244,0,0,0,0,0,0,0,-1,1826,1534,17.4164,-14.9244
609,-510,17.2866,14.8556,0,0,0,0,0,0,0,-1,1833,1534,17.2866,-14.8556
616,-510,17.13,14.6091,0,0,0,0,0,0,0,-1,1840,1534,17.1301,-14.6091
623,-510,17.946,13.3448,0,0,0,0,0,0,0,-1,1847,1534,17.9461,-13.3449
630,-510,13.7461,9.30334,0,0,0,0,0,0,0,-1,1854,1534,13.7461,-9.30335
637,-510,11.0155,7.38464,0,0,0,0,0,0,0,-1,1861,1534,11.0155,-7.38463
644,-510,11.5809,7.17126,0,0,0,0,0,0,0,-1,1868,1534,11.5809,-7.17123
651,-510,8.70471,3.5061,0,0,0,0,0,0,0,-1,1875,1534,8.70475,-3.50611
658,-510,0,0,0,0,0,0,0,0,0,-1,1882,1534,0,0
665,-510,0,0,0,0,0,0,0,0,0,-1,1889,1534,0,0
672,-510,0,0,0,0,0,0,0,0,0,-1,1896,1534,0,0
679,-510,0,0,0,0,0,0,0,0,0,-1,1903,1534,0,0
686,-510,0,0,0,0,0,0,0,0,0,-1,1910,1534,0,0
693,-510,0,0,0,0,0,0,0,0,0,-1,1917,1534,0,0
700,-510,0,0,0,0,0,0,0,0,0,-1,1924,1534,0,0
707,-510,0,0,0,0,0,0,0,0,0,-1,1931,1534,0,0
714,-510,0,0,0,0,0,0,0,0,0,-1,1938,1534,0,0
721,-510,0,0,0,0,0,0,0,0,0,-1,1945,1534,0,0
728,-510,0,0,0,0,0,0,0,0,0,-1,1952,1534,0,0
735,-510,0,0,0,0,0,0,0,0,0,-1,1959,1534,0,0
742,-510,0,0,0,0,0,0,0,0,0,-1,1966,1534,0,0
749,-510,0,0,0,0,0,0,0,0,0,-1,1973,1534,0,0
756,-510,0,0,0,0,0,0,0,0,0,-1,1980,1534,0,0
763,-510,0,0,0,0,0,0,0,0,0,-1,1987,1534,0,0
770,-510,0,0,0,0,0,0,0,0,0,-1,1994,1534,0,0
777,-510,0,0,0,0,0,0,0,0,0,-1,2001,1534,0,0
784,-510,0,0,0,0,0,0,0,0,0,-1,2008,1534,0,0
791,-510,0,0,0,0,0,0,0,0,0,-1,2015,1534,0,0
798,-510,0,0,0,0,0,0,0,0,0,-1,2022,1534,0,0
805,-510,0,0,0,0,0,0,0,0,0,-1,2029,1534,0,0
812,-510,0,0,0,0,0,0,0,0,0,-1,2036,1534,0,0
-700,-517,0,0,0,0,0,0,0,0,0,-1,524,1541,0,0
-693,-517,0,0,0,0,0,0,0,0,0,-1,531,1541,0,0
-686,-517,0,0,0,0,0,0,0,0,0,-1,538,1541,0,0
-679,-517,0,0,0,0,0,0,0,0,0,-1,545,1541,0,0
-672,-517,0,0,0,0,0,0,0,0,0,-1,552,1541,0,0
-665,-517,0,0,0,0,0,0,0,0,0,-1,559,1541,0,0
-658,-517,0,0,0,0,0,0,0,0,0,-1,566,1541,0,0
-651,-517,0,0,0,0,0,0,0,0,0,-1,573,1541,0,0
-644,-517,0,0,0,0,0,0,0,0,0,-1,580,1541,0,0
-637,-517,0,0,0,0,0,0,0,0,0,-1,587,1541,0,0
-630,-517,0,0,0,0,0,0,0,0,0,-1,594,1541,0,0
-623,-517,0,0,0,0,0,0,0,0,0,-1,601,1541,0,0
-616,-517,0,0,0,0,0,0,0,0,0,-1,608,1541,0,0
-609,-517,0,0,0,0,0,0,0,0,0,-1,615,1541,0,0
-602,-517,0,0,0,0,0,0,0,0,0,-1,622,1541,0,0
-595,-517,0,0,0,0,0,0,0,0,0,-1,629,1541,0,0
-588,-517,0,0,0,0,0,0,0,0,0,-1,636,1541,0,0
-581,-517,0,0,0,0,0,0,0,0,0,-1,643,1541,0,0
-574,-517,0,0,0,0,0,0,0,0,0,-1,650,1541,0,0
-567,-517,0,0,0,0,0,0,0,0,0,-1,657,1541,0,0
-560,-517,0,0,0,0,0,0,0,0,0,-1,664,1541,0,0
-553,-517,0,0,0,0,0,0,0,0,0,-1,671,1541,0,0
-546,-517,0,0,0,0,0,0,0,0,0,-1,678,1541,0,0
-539,-517,0,0,0,0,0,0,0,0,0,-1,685,1541,0,0
-532,-517,0,0,0,0,0,0,0,0,0,-1,692,1541,0,0
-525,-517,-3.62903,4.3606,0,0,0,0,0,0,0,-1,699,1541,-3.62904,-4.36056
-518,-517,-1.664,2.27209,0,0,0,0,0,0,0,-1,706,1541,-1.66399,-2.27207
-511,-517,-0.999146,5.52063,0,0,0,0,0,0,0,-1,713,1541,-0.999126,-5.52059
-504,-517,-1.06946,8.67432,0,0,0,0,0,0,0,-1,720,1541,-1.06947,-8.6743
-497,-517,-3.83923,11.231,0,0,0,0,0,0,0,-1,727,1541,-3.83926,-11.2309
-490,-517,-3.00574,11.7502,0.0464908,0.00433304,0.0163182,0.0520691,-0.00124523,0.32939,0.0351352,0.0463965,734,1541,-3.00574,-11.7502
-483,-517,-2.26068,12.2758,0.032604,0.00070797,0.0114675,0.0362989,-0.00298692,0.311701,0.0252538,0.0424894,741,1541,-2.26069,-12.2758
-476,-517,-2.25757,13.0789,0.0222551,-0.00147998,0.0078383,0.02461,-0.00383486,0.291854,0.017823,0.0432623,748,1541,-2.25756,-13.0789
-469,-517,-2.48517,13.6512,0.0148337,-0.00257996,0.00522549,0.0162814,-0.00402767,0.270269,0.0124165,0.0198797,755,1541,-2.48517,-13.6512
-462,-517,-2.59558,14.079,0.0097125,-0.00288141,0.00347469,0.0106076,-0.00377648,0.252114,0.00861114,0.0183526,762,1541,-2.59557,-14.079
-455,-517,-2.58466,14.5831,0.00613347,-0.00265876,0.00227951,0.00668933,-0.00321461,0.23918,0.00583417,0.0137999,769,1541,-2.58468,-14.5831
-448,-517,-2.57275,15.0631,0.00373053,-0.00213275,0.00148697,0.00408608,-0.00248829,0.234702,0.0038329,0.0129358,776,1541,-2.57276,-15.0631
-441,-517,-2.60712,15.4912,0.00181521,-0.00135752,0.00103766,0.00212445,-0.00166676,0.289631,0.00219416,0.0117759,783,1541,-2.60709,-15.4912
-434,-517,-2.6358,15.9496,0.00104955,-0.000526776,0.00112431,0.00163444,-0.00111167,0.479693,0.00159502,0.0140506,790,1541,-2.63582,-15.9495
-427,-517,-2.66168,16.3964,0.00145372,0.000763294,0.00173104,0.00287364,-0.000656621,0.686976,0.00216803,0.0142454,797,1541,-2.66167,-16.3964
-420,-517,-2.72491,16.8346,0.00237783,0.00244576,0.00253547,0.00494749,-0.000123899,0.792096,0.00334039,0.0219603,804,1541,-2.72491,-16.8346
-413,-517,-2.69434,17.3229,0.00345578,0.00401254,0.00360429,0.00734918,0.000119139,0.82394,0.00486023,0.0117591,811,1541,-2.69434,-17.3229
-406,-517,-2.70544,17.7777,0.00467885,0.00568525,0.00493903,0.0101466,0.000217457,0.836165,0.00669312,0.0106496,818,1541,-2.70546,-17.7777
-399,-517,-2.70007,18.24,0.00591406,0.00751818,0.00624986,0.0130172,0.000415002,0.849216,0.00854318,0.0103617,825,1541,-2.70004,-18.24
-392,-517,-2.67908,18.7104,0.00722287,0.0102767,0.00696648,0.0158816,0.00161794,0.893282,0.0100918,0.0153138,832,1541,-2.67908,-18.7105
-385,-517,-2.58496,19.4211,0.00871325,0.0129786,0.00710816,0.0182671,0.00342472,0.931141,0.0112122,0.0351331,839,1541,-2.58498,-19.4212
-378,-517,-2.44476,20.2606,0,0,0,0,0,0,0,-1,846,1541,-2.44479,-20.2606
-371,-517,-1.37585,13.2646,0,0,0,0,0,0,0,-1,853,1541,-1.37586,-13.2647
-364,-517,-1.26245,12.6289,0,0,0,0,0,0,0,-1,860,1541,-1.26243,-12.6289
-357,-517,-1.23889,12.979,0,0,0,0,0,0,0,-1,867,1541,-1.23891,-12.979
-350,-517,0.722412,10.0829,0,0,0,0,0,0,0,-1,874,1541,0.722399,-10.0828
-343,-517,-2.89331,17.5468,0,0,0,0,0,0,0,-1,881,1541,-2.89334,-17.5468
-336,-517,-4.72076,24.3307,0,0,0,0,0,0,0,-1,888,1541,-4.72079,-24.3307
-329,-517,-0.463623,21.0862,0,0,0,0,0,0,0,-1,895,1541,-0.463643,-21.0862
-322,-517,-4.21246,19.5819,0,0,0,0,0,0,0,-1,902,1541,-4.21244,-19.5819
-315,-517,-0.987976,7.29749,0,0,0,0,0,0,0,-1,909,1541,-0.987993,-7.29743
-308,-517,3.27911,17.621,0,0,0,0,0,0,0,-1,916,1541,3.27913,-17.621
-301,-517,-1.69141,8.87488,0,0,0,0,0,0,0,-1,923,1541,-1.69141,-8.87485
-294,-517,-1.72583,9.92566,0,0,0,0,0,0,0,-1,930,1541,-1.72584,-9.92571
-287,-517,-3.09045,12.1472,0,0,0,0,0,0,0,-1,937,1541,-3.09043,-12.1472
-280,-517,0,0,0,0,0,0,0,0,0,-1,944,1541,0,0
-273,-517,0,0,0,0,0,0,0,0,0,-1,951,1541,0,0
-266,-517,0,0,0,0,0,0,0,0,0,-1,958,1541,0,0
-259,-517,0,0,0,0,0,0,0,0,0,-1,965,1541,0,0
-252,-517,0,0,0,0,0,0,0,0,0,-1,972,1541,0,0
-245,-517,0,0,0,0,0,0,0,0,0,-1,979,1541,0,0
-238,-517,0,0,0,0,0,0,0,0,0,-1,986,1541,0,0
-231,-517,0,0,0,0,0,0,0,0,0,-1,993,1541,0,0
-224,-517,0,0,0,0,0,0,0,0,0,-1,1000,1541,0,0
-217,-517,0,0,0,0,0,0,0,0,0,-1,1007,1541,0,0
-210,-517,0,0,0,0,0,0,0,0,0,-1,1014,1541,0,0
-203,-517,0,0,0,0,0,0,0,0,0,-1,1021,1541,0,0
-196,-517,0,0,0,0,0,0,0,0,0,-1,1028,1541,0,0
-189,-517,0,0,0,0,0,0,0,0,0,-1,1035,1541,0,0
-182,-517,0,0,0,0,0,0,0,0,0,-1,1042,1541,0,0
-175,-517,0,0,0,0,0,0,0,0,0,-1,1049,1541,0,0
-168,-517,0,0,0,0,0,0,0,0,0,-1,1056,1541,0,0
-161,-517,0,0,0,0,0,0,0,0,0,-1,1063,1541,0,0
-154,-517,0,0,0,0,0,0,0,0,0,-1,1070,1541,0,0
-147,-517,0,0,0,0,0,0,0,0,0,-1,1077,1541,0,0
-140,-517,0,0,0,0,0,0,0,0,0,-1,1084,1541,0,0
-133,-517,0,0,0,0,0,0,0,0,0,-1,1091,1541,0,0
-126,-517,0,0,0,0,0,0,0,0,0,-1,1098,1541,0,0
-119,-517,0,0,0,0,0,0,0,0,0,-1,1105,1541,0,0
-112,-517,0,0,0,0,0,0,0,0,0,-1,1112,1541,0,0
-105,-517,0,0,0,0,0,0,0,0,0,-1,1119,1541,0,0
-98,-517,0,0,0,0,0,0,0,0,0,-1,1126,1541,0,0
-91,-517,0,0,0,0,0,0,0,0,0,-1,1133,1541,0,0
-84,-517,0,0,0,0,0,0,0,0,0,-1,1140,1541,0,0
-77,-517,0,0,0,0,0,0,0,0,0,-1,1147,1541,0,0
-70,-517,0,0,0,0,0,0,0,0,0,-1,1154,1541,0,0
-63,-517,0,0,0,0,0,0,0,0,0,-1,1161,1541,0,0
-56,-517,0,0,0,0,0,0,0,0,0,-1,1168,1541,0,0
-49,-517,0,0,0,0,0,0,0,0,0,-1,1175,1541,0,0
-42,-517,0,0,0,0,0,0,0,0,0,-1,1182,1541,0,0
-35,-517,0,0,0,0,0,0,0,0,0,-1,1189,1541,0,0
-28,-517,0,0,0,0,0,0,0,0,0,-1,1196,1541,0,0
-21,-517,0,0,0,0,0,0,0,0,0,-1,1203,1541,0,0
-14,-517,0,0,0,0,0,0,0,0,0,-1,1210,1541,0,0
-7,-517,0,0,0,0,0,0,0,0,0,-1,1217,1541,0,0
0,-517,0,0,0,0,0,0,0,0,0,-1,1224,1541,0,0
7,-517,0,0,0,0,0,0,0,0,0,-1,1231,1541,0,0
14,-517,0,0,0,0,0,0,0,0,0,-1,1238,1541,0,0
21,-517,0,0,0,0,0,0,0,0,0,-1,1245,1541,0,0
28,-517,0,0,0,0,0,0,0,0,0,-1,1252,1541,0,0
35,-517,0,0,0,0,0,0,0,0,0,-1,1259,1541,0,0
42,-517,0,0,0,0,0,0,0,0,0,-1,1266,1541,0,0
49,-517,0,0,0,0,0,0,0,0,0,-1,1273,1541,0,0
56,-517,0,0,0,0,0,0,0,0,0,-1,1280,1541,0,0
63,-517,0,0,0,0,0,0,0,0,0,-1,1287,1541,0,0
70,-517,0,0,0,0,0,0,0,0,0,-1,1294,1541,0,0
77,-517,0,0,0,0,0,0,0,0,0,-1,1301,1541,0,0
84,-517,0,0,0,0,0,0,0,0,0,-1,1308,1541,0,0
91,-517,0,0,0,0,0,0,0,0,0,-1,1315,1541,0,0
98,-517,0,0,0,0,0,0,0,0,0,-1,1322,1541,0,0
105,-517,0,0,0,0,0,0,0,0,0,-1,1329,1541,0,0
112,-517,0,0,0,0,0,0,0,0,0,-1,1336,1541,0,0
119,-517,0,0,0,0,0,0,0,0,0,-1,1343,1541,0,0
126,-517,0,0,0,0,0,0,0,0,0,-1,1350,1541,0,0
133,-517,0,0,0,0,0,0,0,0,0,-1,1357,1541,0,0
140,-517,0,0,0,0,0,0,0,0,0,-1,1364,1541,0,0
147,-517,0,0,0,0,0,0,0,0,0,-1,1371,1541,0,0
154,-517,0,0,0,0,0,0,0,0,0,-1,1378,1541,0,0
161,-517,0,0,0,0,0,0,0,0,0,-1,1385,1541,0,0
168,-517,0,0,0,0,0,0,0,0,0,-1,1392,1541,0,0
175,-517,0,0,0,0,0,0,0,0,0,-1,1399,1541,0,0
182,-517,0,0,0,0,0,0,0,0,0,-1,1406,1541,0,0
189,-517,0,0,0,0,0,0,0,0,0,-1,1413,1541,0,0
196,-517,0,0,0,0,0,0,0,0,0,-1,1420,1541,0,0
203,-517,0,0,0,0,0,0,0,0,0,-1,1427,1541,0,0
210,-517,0,0,0,0,0,0,0,0,0,-1,1434,1541,0,0
217,-517,0,0,0,0,0,0,0,0,0,-1,1441,1541,0,0
224,-517,0,0,0,0,0,0,0,0,0,-1,1448,1541,0,0
231,-517,0,0,0,0,0,0,0,0,0,-1,1455,1541,0,0
238,-517,0,0,0,0,0,0,0,0,0,-1,1462,1541,0,0
245,-517,0,0,0,0,0,0,0,0,0,-1,1469,1541,0,0
252,-517,0,0,0,0,0,0,0,0,0,-1,1476,1541,0,0
259,-517,0,0,0,0,0,0,0,0,0,-1,1483,1541,0,0
266,-517,0,0,0,0,0,0,0,0,0,-1,1490,1541,0,0
273,-517,0,0,0,0,0,0,0,0,0,-1,1497,1541,0,0
280,-517,0,0,0,0,0,0,0,0,0,-1,1504,1541,0,0
287,-517,0,0,0,0,0,0,0,0,0,-1,1511,1541,0,0
294,-517,0,0,0,0,0,0,0,0,0,-1,1518,1541,0,0
301,-517,0,0,0,0,0,0,0,0,0,-1,1525,1541,0,0
308,-517,0,0,0,0,0,0,0,0,0,-1,1532,1541,0,0
315,-517,0,0,0,0,0,0,0,0,0,-1,1539,1541,0,0
322,-517,0,0,0,0,0,0,0,0,0,-1,1546,1541,0,0
329,-517,0,0,0,0,0,0,0,0,0,-1,1553,1541,0,0
336,-517,0,0,0,0,0,0,0,0,0,-1,1560,1541,0,0
343,-517,0,0,0,0,0,0,0,0,0,-1,1567,1541,0,0
350,-517,0,0,0,0,0,0,0,0,0,-1,1574,1541,0,0
357,-517,0,0,0,0,0,0,0,0,0,-1,1581,1541,0,0
364,-517,0,0,0,0,0,0,0,0,0,-1,1588,1541,0,0
371,-517,0,0,0,0,0,0,0,0,0,-1,1595,1541,0,0
378,-517,0,0,0,0,0,0,0,0,0,-1,1602,1541,0,0
385,-517,0,0,0,0,0,0,0,0,0,-1,1609,1541,0,0
392,-517,0,0,0,0,0,0,0,0,0,-1,1616,1541,0,0
399,-517,0,0,0,0,0,0,0,0,0,-1,1623,1541,0,0
406,-517,13.1395,7.01978,0,0,0,0,0,0,0,-1,1630,1541,13.1396,-7.01981
413,-517,12.8859,6.31592,0,0,0,0,0,0,0,-1,1637,1541,12.8858,-6.31588
420,-517,12.4789,6.20337,0,0,0,0,0,0,0,-1,1644,1541,12.4789,-6.20333
427,-517,11.647,4.66516,0,0,0,0,0,0,0,-1,1651,1541,11.647,-4.66519
434,-517,12.3719,3.92773,0,0,0,0,0,0,0,-1,1658,1541,12.3719,-3.92776
441,-517,13.146,3.14124,0,0,0,0,0,0,0,-1,1665,1541,13.146,-3.14121
448,-517,13.8861,2.36682,0,0,0,0,0,0,0,-1,1672,1541,13.8861,-2.36684
455,-517,13.6012,4.06335,0,0,0,0,0,0,0,-1,1679,1541,13.6012,-4.06335
462,-517,14.8956,7.0752,0,0,0,0,0,0,0,-1,1686,1541,14.8956,-7.07525
469,-517,13.6292,6.87744,0,0,0,0,0,0,0,-1,1693,1541,13.6292,-6.87739
476,-517,17.1632,14.1487,0,0,0,0,0,0,0,-1,1700,1541,17.1632,-14.1487
483,-517,16.5157,15.0776,0,0,0,0,0,0,0,-1,1707,1541,16.5157,-15.0777
490,-517,15.5439,18.0258,0,0,0,0,0,0,0,-1,1714,1541,15.5439,-18.0258
497,-517,16.0292,18.7786,0,0,0,0,0,0,0,-1,1721,1541,16.0291,-18.7786
504,-517,16.5513,21.1796,0,0,0,0,0,0,0,-1,1728,1541,16.5513,-21.1795
511,-517,17.1635,21.3101,0,0,0,0,0,0,0,-1,1735,1541,17.1635,-21.3101
518,-517,16.6267,20.3546,0,0,0,0,0,0,0,-1,1742,1541,16.6267,-20.3546
525,-517,16.7906,19.8882,0.00419959,0.00596502,-0.00346196,0.00865503,0.00150958,-0.910226,0.00533845,0.0207625,1749,1541,16.7907,-19.8882
532,-517,16.9209,19.3862,0.00339017,0.00445152,-0.00254966,0.00652515,0.00131654,-0.888001,0.00398443,0.0120472,1756,1541,16.921,-19.3862
539,-517,16.9408,18.9778,0.00286626,0.00316227,-0.00181721,0.00483749,0.00119104,-0.826032,0.00291038,0.0126063,1763,1541,16.9408,-18.9778
546,-517,16.9275,18.5863,0.00249399,0.00212699,-0.00124382,0.00356777,0.00105321,-0.712162,0.00211667,0.0133715,1770,1541,16.9275,-18.5862
553,-517,16.8815,18.166,0.00226112,0.00126353,-0.000820493,0.00272254,0.000802116,-0.512286,0.00161545,0.0169312,1777,1541,16.8815,-18.166
560,-517,16.8783,17.7444,0.00221223,0.000555245,-0.000560331,0.00238392,0.000383553,-0.29733,0.00147811,0.0180065,1784,1541,16.8783,-17.7444
567,-517,16.8846,17.3348,0.00276285,-0.000170463,-0.000562583,0.00286704,-0.00027466,-0.183137,0.00200918,0.0153633,1791,1541,16.8846,-17.3348
574,-517,16.8669,16.8988,0.00389022,-0.000346746,-0.00117189,0.00419275,-0.000649273,-0.252638,0.00303483,0.0160223,1798,1541,16.867,-16.8988
581,-517,16.8402,16.4755,0.00533687,-0.000548285,-0.00187656,0.00588431,-0.00109573,-0.28385,0.00433453,0.0158438,1805,1541,16.8403,-16.4754
588,-517,16.8301,16.0356,0.00750208,-0.000514815,-0.00304255,0.008526,-0.00153874,-0.324629,0.00626027,0.0159299,1812,1541,16.83,-16.0356
595,-517,16.837,15.5367,0,0,0,0,0,0,0,-1,1819,1541,16.837,-15.5368
602,-517,15.8027,13.5498,0,0,0,0,0,0,0,-1,1826,1541,15.8027,-13.5498
609,-517,12.6417,10.8751,0,0,0,0,0,0,0,-1,1833,1541,12.6417,-10.8751
616,-517,14.205,10.3193,0,0,0,0,0,0,0,-1,1840,1541,14.205,-10.3194
623,-517,12.578,10.0779,0,0,0,0,0,0,0,-1,1847,1541,12.578,-10.0779
630,-517,11.7035,7.47815,0,0,0,0,0,0,0,-1,1854,1541,11.7035,-7.47812
637,-517,11.5172,5.79822,0,0,0,0,0,0,0,-1,1861,1541,11.5173,-5.79825
644,-517,11.4232,3.30579,0,0,0,0,0,0,0,-1,1868,1541,11.4232,-3.30574
651,-517,0,0,0,0,0,0,0,0,0,-1,1875,1541,0,0
658,-517,0,0,0,0,0,0,0,0,0,-1,1882,1541,0,0
665,-517,0,0,0,0,0,0,0,0,0,-1,1889,1541,0,0
672,-517,0,0,0,0,0,0,0,0,0,-1,1896,1541,0,0
679,-517,0,0,0,0,0,0,0,0,0,-1,1903,1541,0,0
686,-517,0,0,0,0,0,0,0,0,0,-1,1910,1541,0,0
693,-517,0,0,0,0,0,0,0,0,0,-1,1917,1541,0,0
700,-517,0,0,0,0,0,0,0,0,0,-1,1924,1541,0,0
707,-517,0,0,0,0,0,0,0,0,0,-1,1931,1541,0,0
714,-517,0,0,0,0,0,0,0,0,0,-1,1938,1541,0,0
721,-517,0,0,0,0,0,0,0,0,0,-1,1945,1541,0,0
728,-517,0,0,0,0,0,0,0,0,0,-1,1952,1541,0,0
735,-517,0,0,0,0,0,0,0,0,0,-1,1959,1541,0,0
742,-517,0,0,0,0,0,0,0,0,0,-1,1966,1541,0,0
749,-517,0,0,0,0,0,0,0,0,0,-1,1973,1541,0,0
756,-517,0,0,0,0,0,0,0,0,0,-1,1980,1541,0,0
763,-517,0,0,0,0,0,0,0,0,0,-1,1987,1541,0,0
770,-517,0,0,0,0,0,0,0,0,0,-1,1994,1541,0,0
777,-517,0,0,0,0,0,0,0,0,0,-1,2001,1541,0,0
784,-517,0,0,0,0,0,0,0,0,0,-1,2008,1541,0,0
791,-517,0,0,0,0,0,0,0,0,0,-1,2015,1541,0,0
798,-517,0,0,0,0,0,0,0,0,0,-1,2022,1541,0,0
805,-517,0,0,0,0,0,0,0,0,0,-1,2029,1541,0,0
812,-517,0,0,0,0,0,0,0,0,0,-1,2036,1541,0,0
-700,-524,0,0,0,0,0,0,0,0,0,-1,524,1548,0,0
-693,-524,0,0,0,0,0,0,0,0,0,-1,531,1548,0,0
-686,-524,0,0,0,0,0,0,0,0,0,-1,538,1548,0,0
-679,-524,0,0,0,0,0,0,0,0,0,-1,545,1548,0,0
-672,-524,0,0,0,0,0,0,0,0,0,-1,552,1548,0,0
-665,-524,0,0,0,0,0,0,0,0,0,-1,559,1548,0,0
-658,-524,0,0,0,0,0,0,0,0,0,-1,566,1548,0,0
-651,-524,0,0,0,0,0,0,0,0,0,-1,573,1548,0,0
-644,-524,0,0,0,0,0,0,0,0,0,-1,580,1548,0,0
-637,-524,0,0,0,0,0,0,0,0,0,-1,587,1548,0,0
-630,-524,0,0,0,0,0,0,0,0,0,-1,594,1548,0,0
-623,-524,0,0,0,0,0,0,0,0,0,-1,601,1548,0,0
-616,-524,0,0,0,0,0,0,0,0,0,-1,608,1548,0,0
-609,-524,0,0,0,0,0,0,0,0,0,-1,615,1548,0,0
-602,-524,0,0,0,0,0,0,0,0,0,-1,622,1548,0,0
-595,-524,0,0,0,0,0,0,0,0,0,-1,629,1548,0,0
-588,-524,0,0,0,0,0,0,0,0,0,-1,636,1548,0,0
-581,-524,0,0,0,0,0,0,0,0,0,-1,643,1548,0,0
-574,-524,0,0,0,0,0,0,0,0,0,-1,650,1548,0,0
-567,-524,0,0,0,0,0,0,0,0,0,-1,657,1548,0,0
-560,-524,0,0,0,0,0,0,0,0,0,-1,664,1548,0,0
-553,-524,0,0,0,0,0,0,0,0,0,-1,671,1548,0,0
-546,-524,0,0,0,0,0,0,0,0,0,-1,678,1548,0,0
-539,-524,0,0,0,0,0,0,0,0,0,-1,685,1548,0,0
-532,-524,0,0,0,0,0,0,0,0,0,-1,692,1548,0,0
-525,-524,-0.215515,3.97131,0,0,0,0,0,0,0,-1,699,1548,-0.215501,-3.97136
-518,-524,-0.806274,4.35632,0,0,0,0,0,0,0,-1,706,1548,-0.806259,-4.35633
-511,-524,-1.08301,4.29004,0,0,0,0,0,0,0,-1,713,1548,-1.08301,-4.29006
-504,-524,-1.28821,3.98145,0,0,0,0,0,0,0,-1,720,1548,-1.28822,-3.98151
-497,-524,-0.328491,8.63416,0,0,0,0,0,0,0,-1,727,1548,-0.328487,-8.63411
-490,-524,-2.97247,11.2207,0,0,0,0,0,0,0,-1,734,1548,-2.97245,-11.2208
-483,-524,-1.92444,13.0676,0,0,0,0,0,0,0,-1,741,1548,-1.92445,-13.0677
-476,-524,-2.19177,13.6792,0.0266963,-0.00288135,0.00953456,0.0295034,-0.00568847,0.286325,0.0218138,0.0465746,748,1548,-2.19179,-13.6792
-469,-524,-2.14447,13.8993,0.0176426,-0.00386626,0.0063591,0.019382,-0.00560566,0.266999,0.0151399,0.0379589,755,1548,-2.14446,-13.8993
-462,-524,-2.065,14.2334,0.0114774,-0.00396561,0.00422841,0.0125594,-0.00504758,0.250505,0.0104692,0.029834,762,1548,-2.06499,-14.2334
-455,-524,-2.16528,14.6069,0.00716133,-0.00348625,0.00275822,0.00783341,-0.00415833,0.239009,0.00703098,0.0223412,769,1548,-2.16526,-14.607
-448,-524,-2.13318,15.0741,0.00418684,-0.00280803,0.0017161,0.00458517,-0.00320637,0.22808,0.00452187,0.0129962,776,1548,-2.13319,-15.0742
-441,-524,-2.14893,15.5042,0.0017762,-0.00195181,0.0010007,0.00202783,-0.00220344,0.246348,0.00244363,0.0109644,783,1548,-2.14895,-15.5042
-434,-524,-2.14624,15.9507,0.000587225,-0.00119164,0.000838778,0.000920347,-0.00152476,0.378048,0.00142599,0.0121203,790,1548,-2.14626,-15.9507
-427,-524,-2.16693,16.4167,0.000733161,-1.57842e-05,0.00124465,0.00165845,-0.000941073,0.639273,0.00151977,0.0127062,797,1548,-2.16693,-16.4168
-420,-524,-2.20917,16.8934,0.00148716,0.00166501,0.00182371,0.00340196,-0.000249794,0.809758,0.00235566,0.0116689,804,1548,-2.20915,-16.8934
-413,-524,-2.21545,17.3459,0.00234411,0.00306287,0.00264554,0.00537333,3.36457e-05,0.852907,0.00357106,0.0114364,811,1548,-2.21545,-17.346
-406,-524,-2.22571,17.802,0.00332883,0.00460254,0.00367966,0.00770005,0.000231319,0.871086,0.00505802,0.0119991,818,1548,-2.2257,-17.802
-399,-524,-2.23334,18.2551,0.00432324,0.00618651,0.00470371,0.01005,0.000459789,0.883165,0.00655209,0.00992368,825,1548,-2.23331,-18.2552
-392,-524,-2.24207,18.6926,0.00538457,0.00847743,0.00520492,0.0123608,0.00150121,0.929799,0.0077885,0.0104717,832,1548,-2.24208,-18.6926
-385,-524,-2.25739,19.1726,0.00663735,0.0105691,0.00515296,0.0141184,0.00308801,0.967628,0.00857045,0.0144597,839,1548,-2.25738,-19.1725
-378,-524,-2.18311,19.8973,0.0078614,0.0131283,0.00513872,0.0162691,0.00472064,1.02219,0.00966474,0.0441903,846,1548,-2.18308,-19.8974
-371,-524,-2.08472,20.5948,0,0,0,0,0,0,0,-1,853,1548,-2.08473,-20.5948
-364,-524,-0.712097,14.9871,0,0,0,0,0,0,0,-1,860,1548,-0.712116,-14.9871
-357,-524,-1.34052,14.7448,0,0,0,0,0,0,0,-1,867,1548,-1.34054,-14.7447
-350,-524,-2.63245,12.7522,0,0,0,0,0,0,0,-1,874,1548,-2.63245,-12.7522
-343,-524,-4.02026,22.6028,0,0,0,0,0,0,0,-1,881,1548,-4.02028,-22.6028
-336,-524,-3.68628,23.8445,0,0,0,0,0,0,0,-1,888,1548,-3.68626,-23.8445
-329,-524,-3.63446,24.5438,0,0,0,0,0,0,0,-1,895,1548,-3.63446,-24.5438
-322,-524,-3.79669,23.8302,0,0,0,0,0,0,0,-1,902,1548,-3.7967,-23.8303
-315,-524,-1.90839,19.4824,0,0,0,0,0,0,0,-1,909,1548,-1.90838,-19.4824
-308,-524,-2.36938,19.3059,0,0,0,0,0,0,0,-1,916,1548,-2.3694,-19.3058
-301,-524,2.72394,17.7618,0,0,0,0,0,0,0,-1,923,1548,2.72396,-17.7619
-294,-524,-1.52515,9.05408,0,0,0,0,0,0,0,-1,930,1548,-1.52512,-9.05411
-287,-524,-0.962219,10.3199,0,0,0,0,0,0,0,-1,937,1548,-0.962241,-10.32
-280,-524,-1.36255,10.3859,0,0,0,0,0,0,0,-1,944,1548,-1.36253,-10.3859
-273,-524,0,0,0,0,0,0,0,0,0,-1,951,1548,0,0
-266,-524,0,0,0,0,0,0,0,0,0,-1,958,1548,0,0
-259,-524,0,0,0,0,0,0,0,0,0,-1,965,1548,0,0
-252,-524,0,0,0,0,0,0,0,0,0,-1,972,1548,0,0
-245,-524,0,0,0,0,0,0,0,0,0,-1,979,1548,0,0
-238,-524,0,0,0,0,0,0,0,0,0,-1,986,1548,0,0
-231,-524,0,0,0,0,0,0,0,0,0,-1,993,1548,0,0
-224,-524,0,0,0,0,0,0,0,0,0,-1,1000,1548,0,0
-217,-524,0,0,0,0,0,0,0,0,0,-1,1007,1548,0,0
-210,-524,0,0,0,0,0,0,0,0,0,-1,1014,1548,0,0
-203,-524,0,0,0,0,0,0,0,0,0,-1,1021,1548,0,0
-196,-524,0,0,0,0,0,0,0,0,0,-1,1028,1548,0,0
-189,-524,0,0,0,0,0,0,0,0,0,-1,1035,1548,0,0
-182,-524,0,0,0,0,0,0,0,0,0,-1,1042,1548,0,0
-175,-524,0,0,0,0,0,0,0,0,0,-1,1049,1548,0,0
-168,-524,0,0,0,0,0,0,0,0,0,-1,1056,1548,0,0
-161,-524,0,0,0,0,0,0,0,0,0,-1,1063,1548,0,0
-154,-524,0,0,0,0,0,0,0,0,0,-1,1070,1548,0,0
-147,-524,0,0,0,0,0,0,0,0,0,-1,1077,1548,0,0
-140,-524,0,0,0,0,0,0,0,0,0,-1,1084,1548,0,0
-133,-524,0,0,0,0,0,0,0,0,0,-1,1091,1548,0,0
-126,-524,0,0,0,0,0,0,0,0,0,-1,1098,1548,0,0
-119,-524,0,0,0,0,0,0,0,0,0,-1,1105,1548,0,0
-112,-524,0,0,0,0,0,0,0,0,0,-1,1112,1548,0,0
-105,-524,0,0,0,0,0,0,0,0,0,-1,1119,1548,0,0
-98,-524,0,0,0,0,0,0,0,0,0,-1,1126,1548,0,0
-91,-524,0,0,0,0,0,0,0,0,0,-1,1133,1548,0,0
-84,-524,0,0,0,0,0,0,0,0,0,-1,1140,1548,0,0
-77,-524,0,0,0,0,0,0,0,0,0,-1,1147,1548,0,0
-70,-524,0,0,0,0,0,0,0,0,0,-1,1154,1548,0,0
-63,-524,0,0,0,0,0,0,0,0,0,-1,1161,1548,0,0
-56,-524,0,0,0,0,0,0,0,0,0,-1,1168,1548,0,0
-49,-524,0,0,0,0,0,0,0,0,0,-1,1175,1548,0,0
-42,-524,0,0,0,0,0,0,0,0,0,-1,1182,1548,0,0
-35,-524,0,0,0,0,0,0,0,0,0,-1,1189,1548,0,0
-28,-524,0,0,0,0,0,0,0,0,0,-1,1196,1548,0,0
-21,-524,0,0,0,0,0,0,0,0,0,-1,1203,1548,0,0
-14,-524,0,0,0,0,0,0,0,0,0,-1,1210,1548,0,0
-7,-524,0,0,0,0,0,0,0,0,0,-1,1217,1548,0,0
0,-524,0,0,0,0,0,0,0,0,0,-1,1224,1548,0,0
7,-524,0,0,0,0,0,0,0,0,0,-1,1231,1548,0,0
14,-524,0,0,0,0,0,0,0,0,0,-1,1238,1548,0,0
21,-524,0,0,0,0,0,0,0,0,0,-1,1245,1548,0,0
28,-524,0,0,0,0,0,0,0,0,0,-1,1252,1548,0,0
35,-524,0,0,0,0,0,0,0,0,0,-1,1259,1548,0,0
42,-524,0,0,0,0,0,0,0,0,0,-1,1266,1548,0,0
49,-524,0,0,0,0,0,0,0,0,0,-1,1273,1548,0,0
56,-524,0,0,0,0,0,0,0,0,0,-1,1280,1548,0,0
63,-524,0,0,0,0,0,0,0,0,0,-1,1287,1548,0,0
70,-524,0,0,0,0,0,0,0,0,0,-1,1294,1548,0,0
77,-524,0,0,0,0,0,0,0,0,0,-1,1301,1548,0,0
84,-524,0,0,0,0,0,0,0,0,0,-1,1308,1548,0,0
91,-524,0,0,0,0,0,0,0,0,0,-1,1315,1548,0,0
98,-524,0,0,0,0,0,0,0,0,0,-1,1322,1548,0,0
105,-524,0,0,0,0,0,0,0,0,0,-1,1329,1548,0,0
112,-524,0,0,0,0,0,0,0,0,0,-1,1336,1548,0,0
119,-524,0,0,0,0,0,0,0,0,0,-1,1343,1548,0,0
126,-524,0,0,0,0,0,0,0,0,0,-1,1350,1548,0,0
133,-524,0,0,0,0,0,0,0,0,0,-1,1357,1548,0,0
140,-524,0,0,0,0,0,0,0,0,0,-1,1364,1548,0,0
147,-524,0,0,0,0,0,0,0,0,0,-1,1371,1548,0,0
154,-524,0,0,0,0,0,0,0,0,0,-1,1378,1548,0,0
161,-524,0,0,0,0,0,0,0,0,0,-1,1385,1548,0,0
168,-524,0,0,0,0,0,0,0,0,0,-1,1392,1548,0,0
175,-524,0,0,0,0,0,0,0,0,0,-1,1399,1548,0,0
182,-524,0,0,0,0,0,0,0,0,0,-1,1406,1548,0,0
189,-524,0,0,0,0,0,0,0,0,0,-1,1413,1548,0,0
196,-524,0,0,0,0,0,0,0,0,0,-1,1420,1548,0,0
203,-524,0,0,0,0,0,0,0,0,0,-1,1427,1548,0,0
210,-524,0,0,0,0,0,0,0,0,0,-1,1434,1548,0,0
217,-524,0,0,0,0,0,0,0,0,0,-1,1441,1548,0,0
224,-524,0,0,0,0,0,0,0,0,0,-1,1448,1548,0,0
231,-524,0,0,0,0,0,0,0,0,0,-1,1455,1548,0,0
238,-524,0,0,0,0,0,0,0,0,0,-1,1462,1548,0,0
245,-524,0,0,0,0,0,0,0,0,0,-1,1469,1548,0,0
252,-524,0,0,0,0,0,0,0,0,0,-1,1476,1548,0,0
259,-524,0,0,0,0,0,0,0,0,0,-1,1483,1548,0,0
266,-524,0,0,0,0,0,0,0,0,0,-1,1490,1548,0,0
273,-524,0,0,0,0,0,0,0,0,0,-1,1497,1548,0,0
280,-524,0,0,0,0,0,0,0,0,0,-1,1504,1548,0,0
287,-524,0,0,0,0,0,0,0,0,0,-1,1511,1548,0,0
294,-524,0,0,0,0,0,0,0,0,0,-1,1518,1548,0,0
301,-524,0,0,0,0,0,0,0,0,0,-1,1525,1548,0,0
308,-524,0,0,0,0,0,0,0,0,0,-1,1532,1548,0,0
315,-524,0,0,0,0,0,0,0,0,0,-1,1539,1548,0,0
322,-524,0,0,0,0,0,0,0,0,0,-1,1546,1548,0,0
329,-524,0,0,0,0,0,0,0,0,0,-1,1553,1548,0,0
336,-524,0,0,0,0,0,0,0,0,0,-1,1560,1548,0,0
343,-524,0,0,0,0,0,0,0,0,0,-1,1567,1548,0,0
350,-524,0,0,0,0,0,0,0,0,0,-1,1574,1548,0,0
357,-524,0,0,0,0,0,0,0,0,0,-1,1581,1548,0,0
364,-524,0,0,0,0,0,0,0,0,0,-1,1588,1548,0,0
371,-524,0,0,0,0,0,0,0,0,0,-1,1595,1548,0,0
378,-524,0,0,0,0,0,0,0,0,0,-1,1602,1548,0,0
385,-524,0,0,0,0,0,0,0,0,0,-1,1609,1548,0,0
392,-524,0,0,0,0,0,0,0,0,0,-1,1616,1548,0,0
399,-524,8.81848,5.05774,0,0,0,0,0,0,0,-1,1623,1548,8.81843,-5.05769
406,-524,8.64294,6.06799,0,0,0,0,0,0,0,-1,1630,1548,8.6429,-6.06805
413,-524,11.677,6.41858,0,0,0,0,0,0,0,-1,1637,1548,11.677,-6.41864
420,-524,11.4913,6.36401,0,0,0,0,0,0,0,-1,1644,1548,11.4913,-6.36402
427,-524,7.68335,6.17249,0,0,0,0,0,0,0,-1,1651,1548,7.68341,-6.17245
434,-524,10.432,11.6801,0,0,0,0,0,0,0,-1,1658,1548,10.432,-11.68
441,-524,8.78552,4.12305,0,0,0,0,0,0,0,-1,1665,1548,8.78553,-4.12301
448,-524,14.1854,4.78674,0,0,0,0,0,0,0,-1,1672,1548,14.1854,-4.78674
455,-524,12.4784,3.65576,0,0,0,0,0,0,0,-1,1679,1548,12.4784,-3.65572
462,-524,14.7551,9.29395,0,0,0,0,0,0,0,-1,1686,1548,14.7552,-9.29397
469,-524,16.3314,14.3779,0,0,0,0,0,0,0,-1,1693,1548,16.3314,-14.3779
476,-524,15.9106,15.1875,0,0,0,0,0,0,0,-1,1700,1548,15.9107,-15.1876
483,-524,15.2776,16.2268,0,0,0,0,0,0,0,-1,1707,1548,15.2776,-16.2269
490,-524,15.2563,18.5848,0,0,0,0,0,0,0,-1,1714,1548,15.2564,-18.5848
497,-524,16.7089,21.35,0,0,0,0,0,0,0,-1,1721,1548,16.7089,-21.35
504,-524,16.3804,21.0341,0,0,0,0,0,0,0,-1,1728,1548,16.3804,-21.0341
511,-524,16.4785,20.7816,0,0,0,0,0,0,0,-1,1735,1548,16.4785,-20.7816
518,-524,16.5146,20.2594,0.0043804,0.00677176,-0.00390123,0.00965644,0.00149573,-0.934097,0.0060015,0.0241468,1742,1548,16.5147,-20.2594
525,-524,16.5212,19.8481,0.00355166,0.00508108,-0.00293972,0.00735393,0.00127881,-0.912644,0.00453683,0.0145171,1749,1548,16.5212,-19.8482
532,-524,16.5056,19.4141,0.00289318,0.00366601,-0.00211513,0.00542973,0.00112946,-0.875748,0.00330824,0.0104815,1756,1548,16.5057,-19.4141
539,-524,16.4949,18.9869,0.00252874,0.0024172,-0.00146176,0.0039358,0.00101014,-0.766331,0.00236034,0.0110393,1763,1548,16.4949,-18.9869
546,-524,16.4893,18.5708,0.00225904,0.00138121,-0.00091155,0.00283184,0.000808411,-0.561029,0.00168438,0.0143748,1770,1548,16.4893,-18.5709
553,-524,16.4833,18.1659,0.00211408,0.000468812,-0.000470893,0.00223932,0.000343571,-0.259947,0.00139256,0.0238668,1777,1548,16.4833,-18.1659
560,-524,16.442,17.7686,0.00216994,-0.000294645,-0.000187203,0.00218407,-0.000308783,-0.0753809,0.00156914,0.0340305,1784,1548,16.442,-17.7686
567,-524,16.4258,17.3346,0.00287601,-0.00110702,-0.000168637,0.00288314,-0.00111414,-0.042238,0.00238197,0.0200841,1791,1548,16.4258,-17.3346
574,-524,16.4349,16.8895,0.0042122,-0.00134609,-0.000809033,0.00432757,-0.00146145,-0.14164,0.00347615,0.014506,1798,1548,16.4349,-16.8896
581,-524,16.4453,16.4546,0.00598466,-0.00153521,-0.00161651,0.00631743,-0.00186798,-0.20302,0.00495311,0.014865,1805,1548,16.4453,-16.4546
588,-524,16.5077,16.0204,0.0086307,-0.00151802,-0.00298785,0.00944501,-0.00233233,-0.266077,0.00720113,0.0271464,1812,1548,16.5077,-16.0204
595,-524,16.5883,15.3944,0,0,0,0,0,0,0,-1,1819,1548,16.5883,-15.3944
602,-524,13.837,12.0682,0,0,0,0,0,0,0,-1,1826,1548,13.837,-12.0683
609,-524,13.0056,10.5138,0,0,0,0,0,0,0,-1,1833,1548,13.0056,-10.5138
616,-524,11.6941,8.65515,0,0,0,0,0,0,0,-1,1840,1548,11.6941,-8.65514
623,-524,9.38452,5.15356,0,0,0,0,0,0,0,-1,1847,1548,9.38456,-5.15359
630,-524,11.0541,3.57434,0,0,0,0,0,0,0,-1,1854,1548,11.0541,-3.57438
637,-524,11.6067,3.20728,0,0,0,0,0,0,0,-1,1861,1548,11.6067,-3.20724
644,-524,12.2134,0.727173,0,0,0,0,0,0,0,-1,1868,1548,12.2134,-0.727222
651,-524,0,0,0,0,0,0,0,0,0,-1,1875,1548,0,0
658,-524,0,0,0,0,0,0,0,0,0,-1,1882,1548,0,0
665,-524,0,0,0,0,0,0,0,0,0,-1,1889,1548,0,0
672,-524,0,0,0,0,0,0,0,0,0,-1,1896,1548,0,0
679,-524,0,0,0,0,0,0,0,0,0,-1,1903,1548,0,0
686,-524,0,0,0,0,0,0,0,0,0,-1,1910,1548,0,0
693,-524,0,0,0,0,0,0,0,0,0,-1,1917,1548,0,0
700,-524,0,0,0,0,0,0,0,0,0,-1,1924,1548,0,0
707,-524,0,0,0,0,0,0,0,0,0,-1,1931,1548,0,0
714,-524,0,0,0,0,0,0,0,0,0,-1,1938,1548,0,0
721,-524,0,0,0,0,0,0,0,0,0,-1,1945,1548,0,0
728,-524,0,0,0,0,0,0,0,0,0,-1,1952,1548,0,0
735,-524,0,0,0,0,0,0,0,0,0,-1,1959,1548,0,0
742,-524,0,0,0,0,0,0,0,0,0,-1,1966,1548,0,0
749,-524,0,0,0,0,0,0,0,0,0,-1,1973,1548,0,0
756,-524,0,0,0,0,0,0,0,0,0,-1,1980,1548,0,0
763,-524,0,0,0,0,0,0,0,0,0,-1,1987,1548,0,0
770,-524,0,0,0,0,0,0,0,0,0,-1,1994,1548,0,0
777,-524,0,0,0,0,0,0,0,0,0,-1,2001,1548,0,0
784,-524,0,0,0,0,0,0,0,0,0,-1,2008,1548,0,0
791,-524,0,0,0,0,0,0,0,0,0,-1,2015,1548,0,0
798,-524,0,0,0,0,0,0,0,0,0,-1,2022,1548,0,0
805,-524,0,0,0,0,0,0,0,0,0,-1,2029,1548,0,0
812,-524,0,0,0,0,0,0,0,0,0,-1,2036,1548,0,0
-700,-531,0,0,0,0,0,0,0,0,0,-1,524,1555,0,0
-693,-531,0,0,0,0,0,0,0,0,0,-1,531,1555,0,0
-686,-531,0,0,0,0,0,0,0,0,0,-1,538,1555,0,0
-679,-531,0,0,0,0,0,0,0,0,0,-1,545,1555,0,0
-672,-531,0,0,0,0,0,0,0,0,0,-1,552,1555,0,0
-665,-531,0,0,0,0,0,0,0,0,0,-1,559,1555,0,0
-658,-531,0,0,0,0,0,0,0,0,0,-1,566,1555,0,0
-651,-531,0,0,0,0,0,0,0,0,0,-1,573,1555,0,0
-644,-531,0,0,0,0,0,0,0,0,0,-1,580,1555,0,0
-637,-531,0,0,0,0,0,0,0,0,0,-1,587,1555,0,0
-630,-531,0,0,0,0,0,0,0,0,0,-1,594,1555,0,0
-623,-531,0,0,0,0,0,0,0,0,0,-1,601,1555,0,0
-616,-531,0,0,0,0,0,0,0,0,0,-1,608,1555,0,0
-609,-531,0,0,0,0,0,0,0,0,0,-1,615,1555,0,0
-602,-531,0,0,0,0,0,0,0,0,0,-1,622,1555,0,0
-595,-531,0,0,0,0,0,0,0,0,0,-1,629,1555,0,0
-588,-531,0,0,0,0,0,0,0,0,0,-1,636,1555,0,0
-581,-531,0,0,0,0,0,0,0,0,0,-1,643,1555,0,0
-574,-531,0,0,0,0,0,0,0,0,0,-1,650,1555,0,0
-567,-531,0,0,0,0,0,0,0,0,0,-1,657,1555,0,0
-560,-531,0,0,0,0,0,0,0,0,0,-1,664,1555,0,0
-553,-531,0,0,0,0,0,0,0,0,0,-1,671,1555,0,0
-546,-531,0,0,0,0,0,0,0,0,0,-1,678,1555,0,0
-539,-531,0,0,0,0,0,0,0,0,0,-1,685,1555,0,0
-532,-531,0,0,0,0,0,0,0,0,0,-1,692,1555,0,0
-525,-531,0,0,0,0,0,0,0,0,0,-1,699,1555,0,0
-518,-531,-1.63983,4.03821,0,0,0,0,0,0,0,-1,706,1555,-1.63982,-4.03821
-511,-531,-2.9682,8.07483,0,0,0,0,0,0,0,-1,713,1555,-2.9682,-8.07479
-504,-531,-2.95978,0.557861,0,0,0,0,0,0,0,-1,720,1555,-2.95978,-0.557917
-497,-531,-2.46039,8.07422,0,0,0,0,0,0,0,-1,727,1555,-2.46039,-8.07423
-490,-531,-0.423462,7.92065,0,0,0,0,0,0,0,-1,734,1555,-0.42344,-7.92066
-483,-531,-1.30933,11.4504,0,0,0,0,0,0,0,-1,741,1555,-1.30932,-11.4504
-476,-531,-2.14667,14.3279,0,0,0,0,0,0,0,-1,748,1555,-2.14669,-14.3279
-469,-531,-1.86902,13.8787,0.0206108,-0.00547846,0.00773933,0.0227339,-0.00760154,0.267737,0.0182261,0.0448921,755,1555,-1.86899,-13.8787
-462,-531,-1.59344,14.3661,0.0133126,-0.00519361,0.00517167,0.0146598,-0.00654079,0.25483,0.0125358,0.041448,762,1555,-1.59346,-14.3661
-455,-531,-1.78345,14.8564,0.00821634,-0.00432815,0.00339201,0.00907479,-0.0051866,0.247875,0.0083352,0.0353313,769,1555,-1.78344,-14.8564
-448,-531,-1.65033,15.0675,0.00464541,-0.00339917,0.00206183,0.00514307,-0.00389682,0.236838,0.00523569,0.016998,776,1555,-1.65033,-15.0675
-441,-531,-1.7049,15.4994,0.00176535,-0.00240707,0.00105342,0.00201622,-0.00265795,0.233797,0.0027071,0.0121603,783,1555,-1.70492,-15.4994
-434,-531,-1.70978,15.9894,0.000183568,-0.00168333,0.000630927,0.000376794,-0.00187655,0.297187,0.00139372,0.0108914,790,1555,-1.70979,-15.9894
-427,-531,-1.71582,16.4589,7.71544e-05,-0.000610314,0.000824459,0.000626665,-0.00115982,0.587894,0.00104663,0.0127039,797,1555,-1.71584,-16.4589
-420,-531,-1.7467,16.9152,0.000656619,0.00105405,0.00118983,0.00206164,-0.000350973,0.86814,0.00150512,0.0117585,804,1555,-1.74671,-16.9152
-413,-531,-1.76324,17.3684,0.00130757,0.00228674,0.00179492,0.00365764,-6.33353e-05,0.91854,0.00245981,0.0104037,811,1555,-1.76322,-17.3685
-406,-531,-1.77533,17.8245,0.0020975,0.0037007,0.00258266,0.00560331,0.0001949,0.935873,0.00367229,0.0119282,818,1555,-1.77531,-17.8245
-399,-531,-1.7843,18.2693,0.00292047,0.00504237,0.00340454,0.00754744,0.0004154,0.936444,0.00489903,0.0134409,825,1555,-1.78433,-18.2693
-392,-531,-1.79803,18.7104,0.00380734,0.00688457,0.00377895,0.00942612,0.00126578,0.978728,0.00590753,0.0170687,832,1555,-1.79804,-18.7105
-385,-531,-1.83899,19.1563,0.00489112,0.00843568,0.00363534,0.0107077,0.00261907,1.0122,0.00644535,0.0143434,839,1555,-1.839,-19.1563
-378,-531,-1.85004,19.5193,0.00592608,0.0104641,0.00353466,0.0123954,0.00399482,1.07074,0.00730559,0.0152471,846,1555,-1.85005,-19.5193
-371,-531,-1.74866,20.1368,0.00692826,0.0125814,0.00296974,0.0138547,0.00565498,1.16575,0.00804387,0.0313826,853,1555,-1.74865,-20.1369
-364,-531,-1.51062,21.0216,0,0,0,0,0,0,0,-1,860,1555,-1.51059,-21.0216
-357,-531,-1.72174,21.1567,0,0,0,0,0,0,0,-1,867,1555,-1.72176,-21.1568
-350,-531,-2.22375,21.9497,0,0,0,0,0,0,0,-1,874,1555,-2.22373,-21.9498
-343,-531,-2.29999,22.7129,0,0,0,0,0,0,0,-1,881,1555,-2.29999,-22.7128
-336,-531,-1.62244,22.0107,0,0,0,0,0,0,0,-1,888,1555,-1.62245,-22.0107
-329,-531,-2.69495,23.4913,0,0,0,0,0,0,0,-1,895,1555,-2.69492,-23.4914
-322,-531,-3.13885,23.1285,0,0,0,0,0,0,0,-1,902,1555,-3.13885,-23.1285
-315,-531,-3.1756,23.0961,0,0,0,0,0,0,0,-1,909,1555,-3.17559,-23.096
-308,-531,-1.66455,19.0624,0,0,0,0,0,0,0,-1,916,1555,-1.66455,-19.0623
-301,-531,-2.02405,18.8912,0,0,0,0,0,0,0,-1,923,1555,-2.02407,-18.8913
-294,-531,-1.3244,8.1825,0,0,0,0,0,0,0,-1,930,1555,-1.3244,-8.18251
-287,-531,-1.78192,10.1661,0,0,0,0,0,0,0,-1,937,1555,-1.78192,-10.1661
-280,-531,-2.14508,10.3945,0,0,0,0,0,0,0,-1,944,1555,-2.14506,-10.3945
-273,-531,-2.50818,10.6229,0,0,0,0,0,0,0,-1,951,1555,-2.5082,-10.6229
-266,-531,-4.97742,17.9215,0,0,0,0,0,0,0,-1,958,1555,-4.97744,-17.9215
-259,-531,0,0,0,0,0,0,0,0,0,-1,965,1555,0,0
-252,-531,0,0,0,0,0,0,0,0,0,-1,972,1555,0,0
-245,-531,0,0,0,0,0,0,0,0,0,-1,979,1555,0,0
-238,-531,0,0,0,0,0,0,0,0,0,-1,986,1555,0,0
-231,-531,0,0,0,0,0,0,0,0,0,-1,993,1555,0,0
-224,-531,0,0,0,0,0,0,0,0,0,-1,1000,1555,0,0
-217,-531,0,0,0,0,0,0,0,0,0,-1,1007,1555,0,0
-210,-531,0,0,0,0,0,0,0,0,0,-1,1014,1555,0,0
-203,-531,0,0,0,0,0,0,0,0,0,-1,1021,1555,0,0
-196,-531,0,0,0,0,0,0,0,0,0,-1,1028,1555,0,0
-189,-531,0,0,0,0,0,0,0,0,0,-1,1035,1555,0,0
-182,-531,0,0,0,0,0,0,0,0,0,-1,1042,1555,0,0
-175,-531,0,0,0,0,0,0,0,0,0,-1,1049,1555,0,0
-168,-531,0,0,0,0,0,0,0,0,0,-1,1056,1555,0,0
-161,-531,0,0,0,0,0,0,0,0,0,-1,1063,1555,0,0
-154,-531,0,0,0,0,0,0,0,0,0,-1,1070,1555,0,0
-147,-531,0,0,0,0,0,0,0,0,0,-1,1077,1555,0,0
-140,-531,0,0,0,0,0,0,0,0,0,-1,1084,1555,0,0
-133,-531,0,0,0,0,0,0,0,0,0,-1,1091,1555,0,0
-126,-531,0,0,0,0,0,0,0,0,0,-1,1098,1555,0,0
-119,-531,0,0,0,0,0,0,0,0,0,-1,1105,1555,0,0
-112,-531,0,0,0,0,0,0,0,0,0,-1,1112,1555,0,0
-105,-531,0,0,0,0,0,0,0,0,0,-1,1119,1555,0,0
-98,-531,0,0,0,0,0,0,0,0,0,-1,1126,1555,0,0
-91,-531,0,0,0,0,0,0,0,0,0,-1,1133,1555,0,0
-84,-531,0,0,0,0,0,0,0,0,0,-1,1140,1555,0,0
-77,-531,0,0,0,0,0,0,0,0,0,-1,1147,1555,0,0
-70,-531,0,0,0,0,0,0,0,0,0,-1,1154,1555,0,0
-63,-531,0,0,0,0,0,0,0,0,0,-1,1161,1555,0,0
-56,-531,0,0,0,0,0,0,0,0,0,-1,1168,1555,0,0
-49,-531,0,0,0,0,0,0,0,0,0,-1,1175,1555,0,0
-42,-531,0,0,0,0,0,0,0,0,0,-1,1182,1555,0,0
-35,-531,0,0,0,0,0,0,0,0,0,-1,1189,1555,0,0
-28,-531,0,0,0,0,0,0,0,0,0,-1,1196,1555,0,0
-21,-531,0,0,0,0,0,0,0,0,0,-1,1203,1555,0,0
-14,-531,0,0,0,0,0,0,0,0,0,-1,1210,1555,0,0
-7,-531,0,0,0,0,0,0,0,0,0,-1,1217,1555,0,0
0,-531,0,0,0,0,0,0,0,0,0,-1,1224,1555,0,0
7,-531,0,0,0,0,0,0,0,0,0,-1,1231,1555,0,0
14,-531,0,0,0,0,0,0,0,0,0,-1,1238,1555,0,0
21,-531,0,0,0,0,0,0,0,0,0,-1,1245,1555,0,0
28,-531,0,0,0,0,0,0,0,0,0,-1,1252,1555,0,0
35,-531,0,0,0,0,0,0,0,0,0,-1,1259,1555,0,0
42,-531,0,0,0,0,0,0,0,0,0,-1,1266,1555,0,0
49,-531,0,0,0,0,0,0,0,0,0,-1,1273,1555,0,0
56,-531,0,0,0,0,0,0,0,0,0,-1,1280,1555,0,0
63,-531,0,0,0,0,0,0,0,0,0,-1,1287,1555,0,0
70,-531,0,0,0,0,0,0,0,0,0,-1,1294,1555,0,0
77,-531,0,0,0,0,0,0,0,0,0,-1,1301,1555,0,0
84,-531,0,0,0,0,0,0,0,0,0,-1,1308,1555,0,0
91,-531,0,0,0,0,0,0,0,0,0,-1,1315,1555,0,0
98,-531,0,0,0,0,0,0,0,0,0,-1,1322,1555,0,0
105,-531,0,0,0,0,0,0,0,0,0,-1,1329,1555,0,0
112,-531,0,0,0,0,0,0,0,0,0,-1,1336,1555,0,0
119,-531,0,0,0,0,0,0,0,0,0,-1,1343,1555,0,0
126,-531,0,0,0,0,0,0,0,0,0,-1,1350,1555,0,0
133,-531,0,0,0,0,0,0,0,0,0,-1,1357,1555,0,0
140,-531,0,0,0,0,0,0,0,0,0,-1,1364,1555,0,0
147,-531,0,0,0,0,0,0,0,0,0,-1,1371,1555,0,0
154,-531,0,0,0,0,0,0,0,0,0,-1,1378,1555,0,0
161,-531,0,0,0,0,0,0,0,0,0,-1,1385,1555,0,0
168,-531,0,0,0,0,0,0,0,0,0,-1,1392,1555,0,0
175,-531,0,0,0,0,0,0,0,0,0,-1,1399,1555,0,0
182,-531,0,0,0,0,0,0,0,0,0,-1,1406,1555,0,0
189,-531,0,0,0,0,0,0,0,0,0,-1,1413,1555,0,0
196,-531,0,0,0,0,0,0,0,0,0,-1,1420,1555,0,0
203,-531,0,0,0,0,0,0,0,0,0,-1,1427,1555,0,0
210,-531,0,0,0,0,0,0,0,0,0,-1,1434,1555,0,0
217,-531,0,0,0,0,0,0,0,0,0,-1,1441,1555,0,0
224,-531,0,0,0,0,0,0,0,0,0,-1,1448,1555,0,0
231,-531,0,0,0,0,0,0,0,0,0,-1,1455,1555,0,0
238,-531,0,0,0,0,0,0,0,0,0,-1,1462,1555,0,0
245,-531,0,0,0,0,0,0,0,0,0,-1,1469,1555,0,0
252,-531,0,0,0,0,0,0,0,0,0,-1,1476,1555,0,0
259,-531,0,0,0,0,0,0,0,0,0,-1,1483,1555,0,0
266,-531,0,0,0,0,0,0,0,0,0,-1,1490,1555,0,0
273,-531,0,0,0,0,0,0,0,0,0,-1,1497,1555,0,0
280,-531,0,0,0,0,0,0,0,0,0,-1,1504,1555,0,0
287,-531,0,0,0,0,0,0,0,0,0,-1,1511,1555,0,0
294,-531,0,0,0,0,0,0,0,0,0,-1,1518,1555,0,0
301,-531,0,0,0,0,0,0,0,0,0,-1,1525,1555,0,0
308,-531,0,0,0,0,0,0,0,0,0,-1,1532,1555,0,0
315,-531,0,0,0,0,0,0,0,0,0,-1,1539,1555,0,0
322,-531,0,0,0,0,0,0,0,0,0,-1,1546,1555,0,0
329,-531,0,0,0,0,0,0,0,0,0,-1,1553,1555,0,0
336,-531,0,0,0,0,0,0,0,0,0,-1,1560,1555,0,0
343,-531,0,0,0,0,0,0,0,0,0,-1,1567,1555,0,0
350,-531,0,0,0,0,0,0,0,0,0,-1,1574,1555,0,0
357,-531,0,0,0,0,0,0,0,0,0,-1,1581,1555,0,0
364,-531,0,0,0,0,0,0,0,0,0,-1,1588,1555,0,0
371,-531,0,0,0,0,0,0,0,0,0,-1,1595,1555,0,0
378,-531,0,0,0,0,0,0,0,0,0,-1,1602,1555,0,0
385,-531,3.48169,1.78625,0,0,0,0,0,0,0,-1,1609,1555,3.48165,-1.78624
392,-531,10.8781,9.09204,0,0,0,0,0,0,0,-1,1616,1555,10.8781,-9.09205
399,-531,8.26306,5.29602,0,0,0,0,0,0,0,-1,1623,1555,8.26302,-5.29607
406,-531,8.26147,5.42712,0,0,0,0,0,0,0,-1,1630,1555,8.26145,-5.42716
413,-531,8.20618,5.75012,0,0,0,0,0,0,0,-1,1637,1555,8.20619,-5.75017
420,-531,7.64868,7.09558,0,0,0,0,0,0,0,-1,1644,1555,7.64867,-7.09564
427,-531,9.93054,11.8412,0,0,0,0,0,0,0,-1,1651,1555,9.93059,-11.8412
434,-531,10.244,11.7072,0,0,0,0,0,0,0,-1,1658,1555,10.244,-11.7071
441,-531,11.4528,12.9397,0,0,0,0,0,0,0,-1,1665,1555,11.4528,-12.9397
448,-531,11.928,18.8029,0,0,0,0,0,0,0,-1,1672,1555,11.928,-18.8028
455,-531,14.4877,9.67065,0,0,0,0,0,0,0,-1,1679,1555,14.4876,-9.67066
462,-531,13.5253,12.2002,0,0,0,0,0,0,0,-1,1686,1555,13.5252,-12.2002
469,-531,15.5087,15.7894,0,0,0,0,0,0,0,-1,1693,1555,15.5086,-15.7895
476,-531,14.6582,16.2264,0,0,0,0,0,0,0,-1,1700,1555,14.6582,-16.2264
483,-531,14.755,18.5994,0,0,0,0,0,0,0,-1,1707,1555,14.7551,-18.5994
490,-531,15.4741,22.5215,0,0,0,0,0,0,0,-1,1714,1555,15.4741,-22.5214
497,-531,15.9063,21.7985,0,0,0,0,0,0,0,-1,1721,1555,15.9062,-21.7984
504,-531,15.9945,21.1929,0.00488827,0.00903879,-0.00505952,0.0124321,0.00149494,-0.980019,0.00783743,0.0295718,1728,1555,15.9946,-21.1928
511,-531,16.0662,20.7158,0.00428826,0.00741374,-0.00419724,0.0103297,0.00137228,-0.96361,0.00647769,0.0158188,1735,1555,16.0661,-20.7159
518,-531,16.0963,20.3057,0.00362217,0.00558022,-0.00319551,0.00794332,0.00125907,-0.934045,0.00492975,0.0146243,1742,1555,16.0963,-20.3057
525,-531,16.1069,19.8857,0.00290595,0.00395316,-0.00228666,0.0057754,0.00108371,-0.89795,0.00354469,0.0132746,1749,1555,16.1069,-19.8858
532,-531,16.1199,19.4388,0.00237777,0.00258432,-0.00151828,0.00400283,0.00095926,-0.819357,0.00241321,0.0105914,1756,1555,16.1199,-19.4388
539,-531,16.099,19.0088,0.00214184,0.00134031,-0.000909625,0.00273507,0.000747079,-0.5779,0.00163237,0.0123793,1763,1555,16.0989,-19.0088
546,-531,16.0702,18.5702,0.00195688,0.000265904,-0.000354483,0.00202819,0.0001946,-0.198501,0.00129215,0.0163911,1770,1555,16.0702,-18.5701
553,-531,16.1228,18.2159,0.00189813,-0.000718142,0.000119872,0.00190361,-0.000723623,0.0456903,0.001567,0.0318881,1777,1555,16.1228,-18.2159
560,-531,16.0726,17.8008,0.00207041,-0.00154829,0.000434645,0.00212188,-0.00159976,0.117877,0.00215573,0.0340111,1784,1555,16.0726,-17.8008
567,-531,15.9683,17.3429,0.00293251,-0.0024396,0.000483442,0.00297567,-0.00248276,0.0890377,0.00315571,0.0194183,1791,1555,15.9682,-17.3429
574,-531,15.9897,16.9163,0.00449433,-0.00276114,-0.000160574,0.00449788,-0.00276469,-0.022117,0.00423266,0.0137818,1798,1555,15.9898,-16.9163
581,-531,16.0319,16.4591,0.00665898,-0.00291922,-0.00107693,0.00677858,-0.00303881,-0.110595,0.00580353,0.0175848,1805,1555,16.0319,-16.4591
588,-531,16.1052,15.9421,0.00989934,-0.00290818,-0.00265719,0.0104287,-0.00343759,-0.196661,0.00833801,0.0333446,1812,1555,16.1052,-15.9422
595,-531,16.1637,15.3561,0,0,0,0,0,0,0,-1,1819,1555,16.1637,-15.3561
602,-531,13.701,11.8346,0,0,0,0,0,0,0,-1,1826,1555,13.701,-11.8347
609,-531,10.9072,8.50903,0,0,0,0,0,0,0,-1,1833,1555,10.9073,-8.50902
616,-531,10.5723,7.17859,0,0,0,0,0,0,0,-1,1840,1555,10.5723,-7.17855
623,-531,10.0674,5.08984,0,0,0,0,0,0,0,-1,1847,1555,10.0674,-5.08981
630,-531,11.672,3.18909,0,0,0,0,0,0,0,-1,1854,1555,11.672,-3.18904
637,-531,13.2546,1.38965,0,0,0,0,0,0,0,-1,1861,1555,13.2547,-1.3896
644,-531,0,0,0,0,0,0,0,0,0,-1,1868,1555,0,0
651,-531,0,0,0,0,0,0,0,0,0,-1,1875,1555,0,0
658,-531,0,0,0,0,0,0,0,0,0,-1,1882,1555,0,0
665,-531,0,0,0,0,0,0,0,0,0,-1,1889,1555,0,0
672,-531,0,0,0,0,0,0,0,0,0,-1,1896,1555,0,0
679,-531,0,0,0,0,0,0,0,0,0,-1,1903,1555,0,0
686,-531,0,0,0,0,0,0,0,0,0,-1,1910,1555,0,0
693,-531,0,0,0,0,0,0,0,0,0,-1,1917,1555,0,0
700,-531,0,0,0,0,0,0,0,0,0,-1,1924,1555,0,0
707,-531,0,0,0,0,0,0,0,0,0,-1,1931,1555,0,0
714,-531,0,0,0,0,0,0,0,0,0,-1,1938,1555,0,0
721,-531,0,0,0,0,0,0,0,0,0,-1,1945,1555,0,0
728,-531,0,0,0,0,0,0,0,0,0,-1,1952,1555,0,0
735,-531,0,0,0,0,0,0,0,0,0,-1,1959,1555,0,0
742,-531,0,0,0,0,0,0,0,0,0,-1,1966,1555,0,0
749,-531,0,0,0,0,0,0,0,0,0,-1,1973,1555,0,0
756,-531,0,0,0,0,0,0,0,0,0,-1,1980,1555,0,0
763,-531,0,0,0,0,0,0,0,0,0,-1,1987,1555,0,0
770,-531,0,0,0,0,0,0,0,0,0,-1,1994,1555,0,0
777,-531,0,0,0,0,0,0,0,0,0,-1,2001,1555,0,0
784,-531,0,0,0,0,0,0,0,0,0,-1,2008,1555,0,0
791,-531,0,0,0,0,0,0,0,0,0,-1,2015,1555,0,0
798,-531,0,0,0,0,0,0,0,0,0,-1,2022,1555,0,0
805,-531,0,0,0,0,0,0,0,0,0,-1,2029,1555,0,0
812,-531,0,0,0,0,0,0,0,0,0,-1,2036,1555,0,0
-700,-538,0,0,0,0,0,0,0,0,0,-1,524,1562,0,0
-693,-538,0,0,0,0,0,0,0,0,0,-1,531,1562,0,0
-686,-538,0,0,0,0,0,0,0,0,0,-1,538,1562,0,0
-679,-538,0,0,0,0,0,0,0,0,0,-1,545,1562,0,0
-672,-538,0,0,0,0,0,0,0,0,0,-1,552,1562,0,0
-665,-538,0,0,0,0,0,0,0,0,0,-1,559,1562,0,0
-658,-538,0,0,0,0,0,0,0,0,0,-1,566,1562,0,0
-651,-538,0,0,0,0,0,0,0,0,0,-1,573,1562,0,0
-644,-538,0,0,0,0,0,0,0,0,0,-1,580,1562,0,0
-637,-538,0,0,0,0,0,0,0,0,0,-1,587,1562,0,0
-630,-538,0,0,0,0,0,0,0,0,0,-1,594,1562,0,0
-623,-538,0,0,0,0,0,0,0,0,0,-1,601,1562,0,0
-616,-538,0,0,0,0,0,0,0,0,0,-1,608,1562,0,0
-609,-538,0,0,0,0,0,0,0,0,0,-1,615,1562,0,0
-602,-538,0,0,0,0,0,0,0,0,0,-1,622,1562,0,0
-595,-538,0,0,0,0,0,0,0,0,0,-1,629,1562,0,0
-588,-538,0,0,0,0,0,0,0,0,0,-1,636,1562,0,0
-581,-538,0,0,0,0,0,0,0,0,0,-1,643,1562,0,0
-574,-538,0,0,0,0,0,0,0,0,0,-1,650,1562,0,0
-567,-538,0,0,0,0,0,0,0,0,0,-1,657,1562,0,0
-560,-538,0,0,0,0,0,0,0,0,0,-1,664,1562,0,0
-553,-538,0,0,0,0,0,0,0,0,0,-1,671,1562,0,0
-546,-538,0,0,0,0,0,0,0,0,0,-1,678,1562,0,0
-539,-538,0,0,0,0,0,0,0,0,0,-1,685,1562,0,0
-532,-538,0,0,0,0,0,0,0,0,0,-1,692,1562,0,0
-525,-538,0,0,0,0,0,0,0,0,0,-1,699,1562,0,0
-518,-538,0,0,0,0,0,0,0,0,0,-1,706,1562,0,0
-511,-538,-2.6582,-1.54321,0,0,0,0,0,0,0,-1,713,1562,-2.65821,1.54327
-504,-538,-2.66455,-0.71167,0,0,0,0,0,0,0,-1,720,1562,-2.66456,0.711667
-497,-538,-0.763855,6.77747,0,0,0,0,0,0,0,-1,727,1562,-0.76385,-6.77743
-490,-538,-2.70453,8.01465,0,0,0,0,0,0,0,-1,734,1562,-2.70451,-8.0147
-483,-538,-0.933533,7.84644,0,0,0,0,0,0,0,-1,741,1562,-0.933548,-7.84638
-476,-538,-1.89648,11.1104,0,0,0,0,0,0,0,-1,748,1562,-1.89646,-11.1104
-469,-538,-1.73743,13.8096,0,0,0,0,0,0,0,-1,755,1562,-1.7374,-13.8096
-462,-538,-1.52167,14.7488,0.0149864,-0.00621974,0.00645042,0.0167943,-0.00802767,0.27327,0.0146259,0.0464536,762,1562,-1.52169,-14.7488
-455,-538,-1.36536,15.0951,0.00911965,-0.00487942,0.00432055,0.0103457,-0.00610549,0.276508,0.0096027,0.0402032,769,1562,-1.36537,-15.0951
-448,-538,-1.16357,15.1631,0,0,0,0,0,0,0,-1,776,1562,-1.1636,-15.1631
-441,-538,-1.22046,15.6276,0.00164647,-0.00252903,0.00124864,0.00199138,-0.00287393,0.269503,0.00282435,0.0207355,783,1562,-1.22049,-15.6276
-434,-538,-1.28625,16.0183,-0.000306564,-0.0018899,0.000523758,-0.00014899,-0.00204747,0.292239,0.00131813,0.0124531,790,1562,-1.28626,-16.0184
-427,-538,-1.29236,16.4944,-0.000646495,-0.00096978,0.000474038,-0.000307298,-0.00130898,0.621085,0.000790389,0.0133976,797,1562,-1.29238,-16.4944
-420,-538,-1.31659,16.9274,-0.000232985,0.000609868,0.000615713,0.000934567,-0.000557684,1.08551,0.000870662,0.0176457,804,1562,-1.31658,-16.9274
-413,-538,-1.33997,17.3794,0.000246129,0.00164416,0.00101277,0.00217572,-0.000285434,1.08746,0.00155439,0.0175959,811,1562,-1.33999,-17.3794
-406,-538,-1.32471,17.8167,0.000904384,0.00289881,0.0015834,0.00377285,3.03444e-05,1.06642,0.00250518,0.0132783,818,1562,-1.32473,-17.8167
-399,-538,-1.33911,18.2799,0.00164613,0.00397893,0.00225514,0.00535145,0.00027361,1.02406,0.00348002,0.0116647,825,1562,-1.33914,-18.28
-392,-538,-1.35144,18.7229,0.00245366,0.00537045,0.00256651,0.00686399,0.000960119,1.04377,0.0042919,0.0139262,832,1562,-1.35145,-18.7229
-385,-538,-1.38086,19.1547,0.00345438,0.00644064,0.0024139,0.00778588,0.00210914,1.06237,0.00464982,0.0127096,839,1562,-1.38084,-19.1547
-378,-538,-1.38336,19.5823,0.00440315,0.0080121,0.00231173,0.00914023,0.00327501,1.11679,0.00534728,0.00971519,846,1562,-1.38337,-19.5823
-371,-538,-1.40472,20.0007,0.00526799,0.00960113,0.00184054,0.0102774,0.00459174,1.21869,0.00594484,0.0118684,853,1562,-1.40469,-20.0007
-364,-538,-1.33978,20.5358,0.00627195,0.0111601,0.00093149,0.0113316,0.00610046,1.38873,0.00654871,0.016764,860,1562,-1.33979,-20.5358
-357,-538,-1.31592,21.0494,0.00732684,0.0128651,-0.000517122,0.012913,0.00727897,-1.47849,0.00747544,0.0376729,867,1562,-1.31595,-21.0494
-350,-538,-1.52179,21.498,0.008459,0.014621,-0.00246036,0.0154828,0.00759717,-1.23386,0.00893952,0.0441203,874,1562,-1.52178,-21.498
-343,-538,-1.60767,22.1992,0.00957053,0.016115,-0.00520839,0.0189938,0.00669176,-1.06587,0.0111244,0.0458527,881,1562,-1.60765,-22.1992
-336,-538,-1.24609,21.9496,0.010934,0.0177014,-0.00810131,0.0230972,0.00553812,-0.983222,0.0139242,0.0459571,888,1562,-1.24612,-21.9496
-329,-538,-1.27258,22.0734,0,0,0,0,0,0,0,-1,895,1562,-1.2726,-22.0733
-322,-538,-1.9845,22.4153,0,0,0,0,0,0,0,-1,902,1562,-1.98452,-22.4153
-315,-538,-2.25354,22.3262,0,0,0,0,0,0,0,-1,909,1562,-2.25351,-22.3262
-308,-538,-2.52136,21.9954,0,0,0,0,0,0,0,-1,916,1562,-2.52134,-21.9954
-301,-538,-0.452393,18.5101,0,0,0,0,0,0,0,-1,923,1562,-0.452367,-18.5102
-294,-538,1.23138,14.0757,0,0,0,0,0,0,0,-1,930,1562,1.23137,-14.0757
-287,-538,-2.60419,10.2361,0,0,0,0,0,0,0,-1,937,1562,-2.6042,-10.2361
-280,-538,-2.93475,10.5106,0,0,0,0,0,0,0,-1,944,1562,-2.93475,-10.5106
-273,-538,-3.26532,10.785,0,0,0,0,0,0,0,-1,951,1562,-3.26531,-10.785
-266,-538,-5.03412,15.9951,0,0,0,0,0,0,0,-1,958,1562,-5.03409,-15.9951
-259,-538,-5.89642,16.5184,0,0,0,0,0,0,0,-1,965,1562,-5.89644,-16.5184
-252,-538,0,0,0,0,0,0,0,0,0,-1,972,1562,0,0
-245,-538,0,0,0,0,0,0,0,0,0,-1,979,1562,0,0
-238,-538,0,0,0,0,0,0,0,0,0,-1,986,1562,0,0
-231,-538,0,0,0,0,0,0,0,0,0,-1,993,1562,0,0
-224,-538,0,0,0,0,0,0,0,0,0,-1,1000,1562,0,0
-217,-538,0,0,0,0,0,0,0,0,0,-1,1007,1562,0,0
-210,-538,0,0,0,0,0,0,0,0,0,-1,1014,1562,0,0
-203,-538,0,0,0,0,0,0,0,0,0,-1,1021,1562,0,0
-196,-538,0,0,0,0,0,0,0,0,0,-1,1028,1562,0,0
-189,-538,0,0,0,0,0,0,0,0,0,-1,1035,1562,0,0
-182,-538,0,0,0,0,0,0,0,0,0,-1,1042,1562,0,0
-175,-538,0,0,0,0,0,0,0,0,0,-1,1049,1562,0,0
-168,-538,0,0,0,0,0,0,0,0,0,-1,1056,1562,0,0
-161,-538,0,0,0,0,0,0,0,0,0,-1,1063,1562,0,0
-154,-538,0,0,0,0,0,0,0,0,0,-1,1070,1562,0,0
-147,-538,0,0,0,0,0,0,0,0,0,-1,1077,1562,0,0
-140,-538,0,0,0,0,0,0,0,0,0,-1,1084,1562,0,0
-133,-538,0,0,0,0,0,0,0,0,0,-1,1091,1562,0,0
-126,-538,0,0,0,0,0,0,0,0,0,-1,1098,1562,0,0
-119,-538,0,0,0,0,0,0,0,0,0,-1,1105,1562,0,0
-112,-538,0,0,0,0,0,0,0,0,0,-1,1112,1562,0,0
-105,-538,0,0,0,0,0,0,0,0,0,-1,1119,1562,0,0
-98,-538,0,0,0,0,0,0,0,0,0,-1,1126,1562,0,0
-91,-538,0,0,0,0,0,0,0,0,0,-1,1133,1562,0,0
-84,-538,0,0,0,0,0,0,0,0,0,-1,1140,1562,0,0
-77,-538,0,0,0,0,0,0,0,0,0,-1,1147,1562,0,0
-70,-538,0,0,0,0,0,0,0,0,0,-1,1154,1562,0,0
-63,-538,0,0,0,0,0,0,0,0,0,-1,1161,1562,0,0
-56,-538,0,0,0,0,0,0,0,0,0,-1,1168,1562,0,0
-49,-538,0,0,0,0,0,0,0,0,0,-1,1175,1562,0,0
-42,-538,0,0,0,0,0,0,0,0,0,-1,1182,1562,0,0
-35,-538,0,0,0,0,0,0,0,0,0,-1,1189,1562,0,0
-28,-538,0,0,0,0,0,0,0,0,0,-1,1196,1562,0,0
-21,-538,0,0,0,0,0,0,0,0,0,-1,1203,1562,0,0
-14,-538,0,0,0,0,0,0,0,0,0,-1,1210,1562,0,0
-7,-538,0,0,0,0,0,0,0,0,0,-1,1217,1562,0,0
0,-538,0,0,0,0,0,0,0,0,0,-1,1224,1562,0,0
7,-538,0,0,0,0,0,0,0,0,0,-1,1231,1562,0,0
14,-538,0,0,0,0,0,0,0,0,0,-1,1238,1562,0,0
21,-538,0,0,0,0,0,0,0,0,0,-1,1245,1562,0,0
28,-538,0,0,0,0,0,0,0,0,0,-1,1252,1562,0,0
35,-538,0,0,0,0,0,0,0,0,0,-1,1259,1562,0,0
42,-538,0,0,0,0,0,0,0,0,0,-1,1266,1562,0,0
49,-538,0,0,0,0,0,0,0,0,0,-1,1273,1562,0,0
56,-538,0,0,0,0,0,0,0,0,0,-1,1280,1562,0,0
63,-538,0,0,0,0,0,0,0,0,0,-1,1287,1562,0,0
70,-538,0,0,0,0,0,0,0,0,0,-1,1294,1562,0,0
77,-538,0,0,0,0,0,0,0,0,0,-1,1301,1562,0,0
84,-538,0,0,0,0,0,0,0,0,0,-1,1308,1562,0,0
91,-538,0,0,0,0,0,0,0,0,0,-1,1315,1562,0,0
98,-538,0,0,0,0,0,0,0,0,0,-1,1322,1562,0,0
105,-538,0,0,0,0,0,0,0,0,0,-1,1329,1562,0,0
112,-538,0,0,0,0,0,0,0,0,0,-1,1336,1562,0,0
119,-538,0,0,0,0,0,0,0,0,0,-1,1343,1562,0,0
126,-538,0,0,0,0,0,0,0,0,0,-1,1350,1562,0,0
133,-538,0,0,0,0,0,0,0,0,0,-1,1357,1562,0,0
140,-538,0,0,0,0,0,0,0,0,0,-1,1364,1562,0,0
147,-538,0,0,0,0,0,0,0,0,0,-1,1371,1562,0,0
154,-538,0,0,0,0,0,0,0,0,0,-1,1378,1562,0,0
161,-538,0,0,0,0,0,0,0,0,0,-1,1385,1562,0,0
168,-538,0,0,0,0,0,0,0,0,0,-1,1392,1562,0,0
175,-538,0,0,0,0,0,0,0,0,0,-1,1399,1562,0,0
182,-538,0,0,0,0,0,0,0,0,0,-1,1406,1562,0,0
189,-538,0,0,0,0,0,0,0,0,0,-1,1413,1562,0,0
196,-538,0,0,0,0,0,0,0,0,0,-1,1420,1562,0,0
203,-538,0,0,0,0,0,0,0,0,0,-1,1427,1562,0,0
210,-538,0,0,0,0,0,0,0,0,0,-1,1434,1562,0,0
217,-538,0,0,0,0,0,0,0,0,0,-1,1441,1562,0,0
224,-538,0,0,0,0,0,0,0,0,0,-1,1448,1562,0,0
231,-538,0,0,0,0,0,0,0,0,0,-1,1455,1562,0,0
238,-538,0,0,0,0,0,0,0,0,0,-1,1462,1562,0,0
245,-538,0,0,0,0,0,0,0,0,0,-1,1469,1562,0,0
252,-538,0,0,0,0,0,0,0,0,0,-1,1476,1562,0,0
259,-538,0,0,0,0,0,0,0,0,0,-1,1483,1562,0,0
266,-538,0,0,0,0,0,0,0,0,0,-1,1490,1562,0,0
273,-538,0,0,0,0,0,0,0,0,0,-1,1497,1562,0,0
280,-538,0,0,0,0,0,0,0,0,0,-1,1504,1562,0,0
287,-538,0,0,0,0,0,0,0,0,0,-1,1511,1562,0,0
294,-538,0,0,0,0,0,0,0,0,0,-1,1518,1562,0,0
301,-538,0,0,0,0,0,0,0,0,0,-1,1525,1562,0,0
308,-538,0,0,0,0,0,0,0,0,0,-1,1532,1562,0,0
315,-538,0,0,0,0,0,0,0,0,0,-1,1539,1562,0,0
322,-538,0,0,0,0,0,0,0,0,0,-1,1546,1562,0,0
329,-538,0,0,0,0,0,0,0,0,0,-1,1553,1562,0,0
336,-538,0,0,0,0,0,0,0,0,0,-1,1560,1562,0,0
343,-538,0,0,0,0,0,0,0,0,0,-1,1567,1562,0,0
350,-538,0,0,0,0,0,0,0,0,0,-1,1574,1562,0,0
357,-538,0,0,0,0,0,0,0,0,0,-1,1581,1562,0,0
364,-538,0,0,0,0,0,0,0,0,0,-1,1588,1562,0,0
371,-538,0,0,0,0,0,0,0,0,0,-1,1595,1562,0,0
378,-538,9.65479,5.82434,0,0,0,0,0,0,0,-1,1602,1562,9.6548,-5.82439
385,-538,10.5449,7.9502,0,0,0,0,0,0,0,-1,1609,1562,10.5449,-7.95014
392,-538,8.20361,7.07214,0,0,0,0,0,0,0,-1,1616,1562,8.20362,-7.07211
399,-538,7.85425,4.70508,0,0,0,0,0,0,0,-1,1623,1562,7.85425,-4.70512
406,-538,7.77734,4.96094,0,0,0,0,0,0,0,-1,1630,1562,7.77729,-4.96097
413,-538,13.0446,13.1765,0,0,0,0,0,0,0,-1,1637,1562,13.0446,-13.1765
420,-538,9.96216,12.7653,0,0,0,0,0,0,0,-1,1644,1562,9.96221,-12.7653
427,-538,10.1732,14.5863,0,0,0,0,0,0,0,-1,1651,1562,10.1732,-14.5863
434,-538,9.64331,14.7745,0,0,0,0,0,0,0,-1,1658,1562,9.64326,-14.7746
441,-538,11.5039,20.5195,0,0,0,0,0,0,0,-1,1665,1562,11.5039,-20.5195
448,-538,12.8766,22.4932,0,0,0,0,0,0,0,-1,1672,1562,12.8766,-22.4932
455,-538,12.5693,17.4128,0,0,0,0,0,0,0,-1,1679,1562,12.5694,-17.4128
462,-538,12.1389,17.017,0,0,0,0,0,0,0,-1,1686,1562,12.1389,-17.017
469,-538,14.3802,16.6945,0,0,0,0,0,0,0,-1,1693,1562,14.3803,-16.6945
476,-538,13.724,19.0608,0,0,0,0,0,0,0,-1,1700,1562,13.724,-19.0608
483,-538,15.5009,22.6149,0,0,0,0,0,0,0,-1,1707,1562,15.5009,-22.6149
490,-538,15.5004,22.0745,0,0,0,0,0,0,0,-1,1714,1562,15.5003,-22.0744
497,-538,15.6747,21.5134,0,0,0,0,0,0,0,-1,1721,1562,15.6747,-21.5135
504,-538,15.6877,21.0848,0.00388515,0.00731105,-0.00405779,0.0100026,0.00119357,-0.985121,0.00630831,0.0142049,1728,1562,15.6877,-21.0849
511,-538,15.6707,20.6866,0.00335551,0.00580117,-0.00325579,0.0080562,0.00110048,-0.96504,0.00504415,0.0105018,1735,1562,15.6707,-20.6866
518,-538,15.6707,20.2832,0.00278916,0.00413992,-0.00235023,0.00590989,0.0010192,-0.925313,0.00364796,0.0106953,1742,1562,15.6706,-20.2833
525,-538,15.6617,19.8552,0.00222252,0.00265158,-0.00151705,0.00396919,0.000904906,-0.855639,0.002402,0.0114854,1749,1562,15.6617,-19.8552
532,-538,15.6798,19.442,0.00185655,0.00137447,-0.000811963,0.00246249,0.000768521,-0.641111,0.0014548,0.013585,1756,1562,15.6798,-19.4421
539,-538,15.662,19.0551,0.0017629,0.000160854,-0.000238336,0.0017976,0.000126149,-0.144599,0.00115864,0.0169437,1763,1562,15.6619,-19.0551
546,-538,15.6252,18.6155,0.00168379,-0.000957335,0.000331321,0.00172472,-0.000998264,0.12291,0.00159065,0.0185131,1770,1562,15.6252,-18.6154
553,-538,15.7059,18.1978,0.00173053,-0.00203605,0.000847167,0.0019123,-0.00221782,0.211358,0.0023867,0.028329,1777,1562,15.706,-18.1978
560,-538,15.6484,17.8073,0.00202421,-0.00297641,0.00121078,0.00230195,-0.00325414,0.225485,0.00322348,0.0304847,1784,1562,15.6485,-17.8072
567,-538,15.538,17.3716,0.00300993,-0.00400193,0.00132834,0.00325314,-0.00424514,0.181086,0.00434174,0.0224594,1791,1562,15.538,-17.3716
574,-538,15.5063,16.931,0.00474481,-0.00450207,0.000750831,0.00480538,-0.00456264,0.0804956,0.00540923,0.0211394,1798,1562,15.5063,-16.931
581,-538,15.6068,16.4662,0.00724946,-0.00472818,-0.0002182,0.00725343,-0.00473215,-0.0182092,0.00697073,0.0282247,1805,1562,15.6068,-16.4662
588,-538,15.6953,16.0594,0.0109887,-0.00488276,-0.00190058,0.0112131,-0.00510718,-0.117534,0.00963985,0.0496262,1812,1562,15.6953,-16.0595
595,-538,15.8472,15.5171,0,0,0,0,0,0,0,-1,1819,1562,15.8472,-15.5171
602,-538,10.314,8.94238,0,0,0,0,0,0,0,-1,1826,1562,10.314,-8.94238
609,-538,10.1046,7.05713,0,0,0,0,0,0,0,-1,1833,1562,10.1046,-7.05719
616,-538,9.92249,5.43506,0,0,0,0,0,0,0,-1,1840,1562,9.92254,-5.43507
623,-538,11.1711,4.31604,0,0,0,0,0,0,0,-1,1847,1562,11.1711,-4.316
630,-538,12.6112,2.61633,0,0,0,0,0,0,0,-1,1854,1562,12.6112,-2.61637
637,-538,0,0,0,0,0,0,0,0,0,-1,1861,1562,0,0
644,-538,0,0,0,0,0,0,0,0,0,-1,1868,1562,0,0
651,-538,0,0,0,0,0,0,0,0,0,-1,1875,1562,0,0
658,-538,0,0,0,0,0,0,0,0,0,-1,1882,1562,0,0
665,-538,0,0,0,0,0,0,0,0,0,-1,1889,1562,0,0
672,-538,0,0,0,0,0,0,0,0,0,-1,1896,1562,0,0
679,-538,0,0,0,0,0,0,0,0,0,-1,1903,1562,0,0
686,-538,0,0,0,0,0,0,0,0,0,-1,1910,1562,0,0
693,-538,0,0,0,0,0,0,0,0,0,-1,1917,1562,0,0
700,-538,0,0,0,0,0,0,0,0,0,-1,1924,1562,0,0
707,-538,0,0,0,0,0,0,0,0,0,-1,1931,1562,0,0
714,-538,0,0,0,0,0,0,0,0,0,-1,1938,1562,0,0
721,-538,0,0,0,0,0,0,0,0,0,-1,1945,1562,0,0
728,-538,0,0,0,0,0,0,0,0,0,-1,1952,1562,0,0
735,-538,0,0,0,0,0,0,0,0,0,-1,1959,1562,0,0
742,-538,0,0,0,0,0,0,0,0,0,-1,1966,1562,0,0
749,-538,0,0,0,0,0,0,0,0,0,-1,1973,1562,0,0
756,-538,0,0,0,0,0,0,0,0,0,-1,1980,1562,0,0
763,-538,0,0,0,0,0,0,0,0,0,-1,1987,1562,0,0
770,-538,0,0,0,0,0,0,0,0,0,-1,1994,1562,0,0
777,-538,0,0,0,0,0,0,0,0,0,-1,2001,1562,0,0
784,-538,0,0,0,0,0,0,0,0,0,-1,2008,1562,0,0
791,-538,0,0,0,0,0,0,0,0,0,-1,2015,1562,0,0
798,-538,0,0,0,0,0,0,0,0,0,-1,2022,1562,0,0
805,-538,0,0,0,0,0,0,0,0,0,-1,2029,1562,0,0
812,-538,0,0,0,0,0,0,0,0,0,-1,2036,1562,0,0
-700,-545,0,0,0,0,0,0,0,0,0,-1,524,1569,0,0
-693,-545,0,0,0,0,0,0,0,0,0,-1,531,1569,0,0
-686,-545,0,0,0,0,0,0,0,0,0,-1,538,1569,0,0
-679,-545,0,0,0,0,0,0,0,0,0,-1,545,1569,0,0
-672,-545,0,0,0,0,0,0,0,0,0,-1,552,1569,0,0
-665,-545,0,0,0,0,0,0,0,0,0,-1,559,1569,0,0
-658,-545,0,0,0,0,0,0,0,0,0,-1,566,1569,0,0
-651,-545,0,0,0,0,0,0,0,0,0,-1,573,1569,0,0
-644,-545,0,0,0,0,0,0,0,0,0,-1,580,1569,0,0
-637,-545,0,0,0,0,0,0,0,0,0,-1,587,1569,0,0
-630,-545,0,0,0,0,0,0,0,0,0,-1,594,1569,0,0
-623,-545,0,0,0,0,0,0,0,0,0,-1,601,1569,0,0
-616,-545,0,0,0,0,0,0,0,0,0,-1,608,1569,0,0
-609,-545,0,0,0,0,0,0,0,0,0,-1,615,1569,0,0
-602,-545,0,0,0,0,0,0,0,0,0,-1,622,1569,0,0
-595,-545,0,0,0,0,0,0,0,0,0,-1,629,1569,0,0
-588,-545,0,0,0,0,0,0,0,0,0,-1,636,1569,0,0
-581,-545,0,0,0,0,0,0,0,0,0,-1,643,1569,0,0
-574,-545,0,0,0,0,0,0,0,0,0,-1,650,1569,0,0
-567,-545,0,0,0,0,0,0,0,0,0,-1,657,1569,0,0
-560,-545,0,0,0,0,0,0,0,0,0,-1,664,1569,0,0
-553,-545,0,0,0,0,0,0,0,0,0,-1,671,1569,0,0
-546,-545,0,0,0,0,0,0,0,0,0,-1,678,1569,0,0
-539,-545,0,0,0,0,0,0,0,0,0,-1,685,1569,0,0
-532,-545,0,0,0,0,0,0,0,0,0,-1,692,1569,0,0
-525,-545,0,0,0,0,0,0,0,0,0,-1,699,1569,0,0
-518,-545,0,0,0,0,0,0,0,0,0,-1,706,1569,0,0
-511,-545,0,0,0,0,0,0,0,0,0,-1,713,1569,0,0
-504,-545,-3.55237,-2.5354,0,0,0,0,0,0,0,-1,720,1569,-3.55236,2.53545
-497,-545,2.26575,5.69214,0,0,0,0,0,0,0,-1,727,1569,2.26573,-5.6922
-490,-545,-2.17334,7.81396,0,0,0,0,0,0,0,-1,734,1569,-2.17334,-7.81399
-483,-545,-1.88336,5.8446,0,0,0,0,0,0,0,-1,741,1569,-1.88334,-5.84466
-476,-545,-1.13147,6.5741,0,0,0,0,0,0,0,-1,748,1569,-1.13149,-6.57405
-469,-545,-1.47662,10.9404,0,0,0,0,0,0,0,-1,755,1569,-1.47659,-10.9405
-462,-545,-1.23969,15.0509,0,0,0,0,0,0,0,-1,762,1569,-1.23969,-15.0509
-455,-545,-1.0011,15.156,0,0,0,0,0,0,0,-1,769,1569,-1.0011,-15.156
-448,-545,-0.762512,15.2612,0,0,0,0,0,0,0,-1,776,1569,-0.762501,-15.2612
-441,-545,-0.652649,15.6531,0.00134753,-0.00216678,0.00160703,0.00197158,-0.00279083,0.370402,0.0027631,0.0255045,783,1569,-0.652672,-15.6531
-434,-545,-0.878967,16.072,-0.00089369,-0.00170256,0.000571398,-0.000598079,-0.00199817,0.477429,0.00118421,0.0226411,790,1569,-0.878937,-16.0721
-427,-545,-0.856995,16.5083,-0.0014108,-0.00103908,0.000274578,-0.00089337,-0.0015565,1.08292,0.000901919,0.0195134,797,1569,-0.856972,-16.5083
-420,-545,-0.838135,16.9254,-0.00111071,0.000368626,0.000211688,0.000398322,-0.00114041,1.43143,0.000922181,0.0242337,804,1569,-0.838159,-16.9254
-413,-545,-0.860107,17.3606,-0.000752486,0.00116655,0.000423781,0.00125597,-0.000841903,1.36285,0.00121904,0.0229458,811,1569,-0.860124,-17.3606
-406,-545,-0.85321,17.8127,-0.00017789,0.00223308,0.000805615,0.00247749,-0.000422306,1.27623,0.00180894,0.0165545,818,1569,-0.85319,-17.8127
-399,-545,-0.876404,18.2772,0.000522587,0.00305235,0.00135928,0.00364423,-6.92958e-05,1.16012,0.00245291,0.0104042,825,1569,-0.876395,-18.2773
-392,-545,-0.908813,18.7231,0.00127563,0.00403034,0.00164619,0.00479939,0.000506581,1.13376,0.00304481,0.0109033,832,1569,-0.908819,-18.7231
-385,-545,-0.916382,19.1608,0.00220264,0.00473018,0.00152818,0.00544945,0.00148337,1.13089,0.00325326,0.009782,839,1569,-0.916403,-19.1607
-378,-545,-0.927979,19.6066,0.00308539,0.00596595,0.001456,0.00657368,0.00247766,1.17538,0.00383346,0.0114236,846,1569,-0.927953,-19.6066
-371,-545,-0.940918,20.0592,0.0038482,0.00718123,0.00108826,0.00750508,0.00352435,1.28155,0.00433573,0.013872,853,1569,-0.940926,-20.0592
-364,-545,-0.938293,20.4806,0.00470393,0.00838889,0.000409592,0.00843387,0.00465895,1.46142,0.00487821,0.00945689,860,1569,-0.938309,-20.4806
-357,-545,-0.887634,20.9996,0.00562267,0.00970816,-0.000622138,0.0098008,0.00553003,-1.42298,0.00567404,0.0157415,867,1569,-0.887657,-20.9996
-350,-545,-0.847778,21.4711,0.00661466,0.0110272,-0.00193375,0.0117547,0.00588715,-1.21096,0.00678659,0.0233678,874,1569,-0.847791,-21.4711
-343,-545,-0.861511,21.8337,0.00759689,0.0121521,-0.00364469,0.0141723,0.00557667,-1.06466,0.00824402,0.035575,881,1569,-0.861483,-21.8338
-336,-545,-0.940247,21.8861,0.00876843,0.0135019,-0.00518337,0.0168333,0.00543703,-0.999564,0.00991965,0.0487576,888,1569,-0.940254,-21.8861
-329,-545,-1.01599,21.9828,0,0,0,0,0,0,0,-1,895,1569,-1.01602,-21.9828
-322,-545,-0.992737,21.5034,0,0,0,0,0,0,0,-1,902,1569,-0.992735,-21.5034
-315,-545,-1.29688,21.5935,0,0,0,0,0,0,0,-1,909,1569,-1.2969,-21.5935
-308,-545,-1.54358,21.4457,0,0,0,0,0,0,0,-1,916,1569,-1.54357,-21.4457
-301,-545,1.52191,17.5009,0,0,0,0,0,0,0,-1,923,1569,1.52192,-17.5008
-294,-545,-2.69287,8.42102,0,0,0,0,0,0,0,-1,930,1569,-2.69287,-8.42097
-287,-545,-3.47784,9.96021,0,0,0,0,0,0,0,-1,937,1569,-3.47785,-9.96021
-280,-545,-3.7879,10.5448,0,0,0,0,0,0,0,-1,944,1569,-3.78793,-10.5448
-273,-545,-5.10333,12.864,0,0,0,0,0,0,0,-1,951,1569,-5.10331,-12.864
-266,-545,-5.78955,13.3704,0,0,0,0,0,0,0,-1,958,1569,-5.78952,-13.3703
-259,-545,-6.32184,13.8101,0,0,0,0,0,0,0,-1,965,1569,-6.32182,-13.81
-252,-545,0.369263,7.54053,0,0,0,0,0,0,0,-1,972,1569,0.369276,-7.54056
-245,-545,-0.236633,6.65564,0,0,0,0,0,0,0,-1,979,1569,-0.236605,-6.65566
-238,-545,0,0,0,0,0,0,0,0,0,-1,986,1569,0,0
-231,-545,0,0,0,0,0,0,0,0,0,-1,993,1569,0,0
-224,-545,0,0,0,0,0,0,0,0,0,-1,1000,1569,0,0
-217,-545,0,0,0,0,0,0,0,0,0,-1,1007,1569,0,0
-210,-545,0,0,0,0,0,0,0,0,0,-1,1014,1569,0,0
-203,-545,0,0,0,0,0,0,0,0,0,-1,1021,1569,0,0
-196,-545,0,0,0,0,0,0,0,0,0,-1,1028,1569,0,0
-189,-545,0,0,0,0,0,0,0,0,0,-1,1035,1569,0,0
-182,-545,0,0,0,0,0,0,0,0,0,-1,1042,1569,0,0
-175,-545,0,0,0,0,0,0,0,0,0,-1,1049,1569,0,0
-168,-545,0,0,0,0,0,0,0,0,0,-1,1056,1569,0,0
-161,-545,0,0,0,0,0,0,0,0,0,-1,1063,1569,0,0
-154,-545,0,0,0,0,0,0,0,0,0,-1,1070,1569,0,0
-147,-545,0,0,0,0,0,0,0,0,0,-1,1077,1569,0,0
-140,-545,0,0,0,0,0,0,0,0,0,-1,1084,1569,0,0
-133,-545,0,0,0,0,0,0,0,0,0,-1,1091,1569,0,0
-126,-545,0,0,0,0,0,0,0,0,0,-1,1098,1569,0,0
-119,-545,0,0,0,0,0,0,0,0,0,-1,1105,1569,0,0
-112,-545,0,0,0,0,0,0,0,0,0,-1,1112,1569,0,0
-105,-545,0,0,0,0,0,0,0,0,0,-1,1119,1569,0,0
-98,-545,0,0,0,0,0,0,0,0,0,-1,1126,1569,0,0
-91,-545,0,0,0,0,0,0,0,0,0,-1,1133,1569,0,0
-84,-545,0,0,0,0,0,0,0,0,0,-1,1140,1569,0,0
-77,-545,0,0,0,0,0,0,0,0,0,-1,1147,1569,0,0
-70,-545,0,0,0,0,0,0,0,0,0,-1,1154,1569,0,0
-63,-545,0,0,0,0,0,0,0,0,0,-1,1161,1569,0,0
-56,-545,0,0,0,0,0,0,0,0,0,-1,1168,1569,0,0
-49,-545,0,0,0,0,0,0,0,0,0,-1,1175,1569,0,0
-42,-545,0,0,0,0,0,0,0,0,0,-1,1182,1569,0,0
-35,-545,0,0,0,0,0,0,0,0,0,-1,1189,1569,0,0
-28,-545,0,0,0,0,0,0,0,0,0,-1,1196,1569,0,0
-21,-545,0,0,0,0,0,0,0,0,0,-1,1203,1569,0,0
-14,-545,0,0,0,0,0,0,0,0,0,-1,1210,1569,0,0
-7,-545,0,0,0,0,0,0,0,0,0,-1,1217,1569,0,0
0,-545,0,0,0,0,0,0,0,0,0,-1,1224,1569,0,0
7,-545,0,0,0,0,0,0,0,0,0,-1,1231,1569,0,0
14,-545,0,0,0,0,0,0,0,0,0,-1,1238,1569,0,0
21,-545,0,0,0,0,0,0,0,0,0,-1,1245,1569,0,0
28,-545,0,0,0,0,0,0,0,0,0,-1,1252,1569,0,0
35,-545,0,0,0,0,0,0,0,0,0,-1,1259,1569,0,0
42,-545,0,0,0,0,0,0,0,0,0,-1,1266,1569,0,0
49,-545,0,0,0,0,0,0,0,0,0,-1,1273,1569,0,0
56,-545,0,0,0,0,0,0,0,0,0,-1,1280,1569,0,0
63,-545,0,0,0,0,0,0,0,0,0,-1,1287,1569,0,0
70,-545,0,0,0,0,0,0,0,0,0,-1,1294,1569,0,0
77,-545,0,0,0,0,0,0,0,0,0,-1,1301,1569,0,0
84,-545,0,0,0,0,0,0,0,0,0,-1,1308,1569,0,0
91,-545,0,0,0,0,0,0,0,0,0,-1,1315,1569,0,0
98,-545,0,0,0,0,0,0,0,0,0,-1,1322,1569,0,0
105,-545,0,0,0,0,0,0,0,0,0,-1,1329,1569,0,0
112,-545,0,0,0,0,0,0,0,0,0,-1,1336,1569,0,0
119,-545,0,0,0,0,0,0,0,0,0,-1,1343,1569,0,0
126,-545,0,0,0,0,0,0,0,0,0,-1,1350,1569,0,0
133,-545,0,0,0,0,0,0,0,0,0,-1,1357,1569,0,0
140,-545,0,0,0,0,0,0,0,0,0,-1,1364,1569,0,0
147,-545,0,0,0,0,0,0,0,0,0,-1,1371,1569,0,0
154,-545,0,0,0,0,0,0,0,0,0,-1,1378,1569,0,0
161,-545,0,0,0,0,0,0,0,0,0,-1,1385,1569,0,0
168,-545,0,0,0,0,0,0,0,0,0,-1,1392,1569,0,0
175,-545,0,0,0,0,0,0,0,0,0,-1,1399,1569,0,0
182,-545,0,0,0,0,0,0,0,0,0,-1,1406,1569,0,0
189,-545,0,0,0,0,0,0,0,0,0,-1,1413,1569,0,0
196,-545,0,0,0,0,0,0,0,0,0,-1,1420,1569,0,0
203,-545,0,0,0,0,0,0,0,0,0,-1,1427,1569,0,0
210,-545,0,0,0,0,0,0,0,0,0,-1,1434,1569,0,0
217,-545,0,0,0,0,0,0,0,0,0,-1,1441,1569,0,0
224,-545,0,0,0,0,0,0,0,0,0,-1,1448,1569,0,0
231,-545,0,0,0,0,0,0,0,0,0,-1,1455,1569,0,0
238,-545,0,0,0,0,0,0,0,0,0,-1,1462,1569,0,0
245,-545,0,0,0,0,0,0,0,0,0,-1,1469,1569,0,0
252,-545,0,0,0,0,0,0,0,0,0,-1,1476,1569,0,0
259,-545,0,0,0,0,0,0,0,0,0,-1,1483,1569,0,0
266,-545,0,0,0,0,0,0,0,0,0,-1,1490,1569,0,0
273,-545,0,0,0,0,0,0,0,0,0,-1,1497,1569,0,0
280,-545,0,0,0,0,0,0,0,0,0,-1,1504,1569,0,0
287,-545,0,0,0,0,0,0,0,0,0,-1,1511,1569,0,0
294,-545,0,0,0,0,0,0,0,0,0,-1,1518,1569,0,0
301,-545,0,0,0,0,0,0,0,0,0,-1,1525,1569,0,0
308,-545,0,0,0,0,0,0,0,0,0,-1,1532,1569,0,0
315,-545,0,0,0,0,0,0,0,0,0,-1,1539,1569,0,0
322,-545,0,0,0,0,0,0,0,0,0,-1,1546,1569,0,0
329,-545,0,0,0,0,0,0,0,0,0,-1,1553,1569,0,0
336,-545,0,0,0,0,0,0,0,0,0,-1,1560,1569,0,0
343,-545,0,0,0,0,0,0,0,0,0,-1,1567,1569,0,0
350,-545,0,0,0,0,0,0,0,0,0,-1,1574,1569,0,0
357,-545,0,0,0,0,0,0,0,0,0,-1,1581,1569,0,0
364,-545,7.19495,4.88098,0,0,0,0,0,0,0,-1,1588,1569,7.19497,-4.88095
371,-545,7.82324,3.84302,0,0,0,0,0,0,0,-1,1595,1569,7.82324,-3.84307
378,-545,7.65674,5.52673,0,0,0,0,0,0,0,-1,1602,1569,7.6567,-5.52667
385,-545,8.58447,1.16125,0,0,0,0,0,0,0,-1,1609,1569,8.5845,-1.1612
392,-545,12.5654,3.89526,0,0,0,0,0,0,0,-1,1616,1569,12.5655,-3.89532
399,-545,11.5869,5.6333,0,0,0,0,0,0,0,-1,1623,1569,11.5869,-5.63326
406,-545,11.234,6.36414,0,0,0,0,0,0,0,-1,1630,1569,11.234,-6.3641
413,-545,12.1521,13.4817,0,0,0,0,0,0,0,-1,1637,1569,12.1521,-13.4817
420,-545,11.1954,13.6047,0,0,0,0,0,0,0,-1,1644,1569,11.1954,-13.6047
427,-545,9.61072,14.9135,0,0,0,0,0,0,0,-1,1651,1569,9.61076,-14.9134
434,-545,13.1598,23.9921,0,0,0,0,0,0,0,-1,1658,1569,13.1598,-23.992
441,-545,12.2833,22.2238,0,0,0,0,0,0,0,-1,1665,1569,12.2833,-22.2237
448,-545,13.0082,21.941,0,0,0,0,0,0,0,-1,1672,1569,13.0082,-21.941
455,-545,13.733,21.6583,0,0,0,0,0,0,0,-1,1679,1569,13.733,-21.6583
462,-545,12.449,20.7413,0,0,0,0,0,0,0,-1,1686,1569,12.4489,-20.7413
469,-545,12.7837,17.7919,0,0,0,0,0,0,0,-1,1693,1569,12.7837,-17.7919
476,-545,15.1815,23.1965,0,0,0,0,0,0,0,-1,1700,1569,15.1815,-23.1966
483,-545,15.3358,22.3781,0.00423645,0.0130903,-0.00586318,0.0160101,0.00131664,-1.10876,0.0102627,0.0443514,1707,1569,15.3358,-22.378
490,-545,15.2329,21.9521,0.00382368,0.0100993,-0.00472093,0.0126301,0.00129288,-1.0787,0.00802387,0.0231677,1714,1569,15.2329,-21.9521
497,-545,15.236,21.5319,0.00350885,0.00766668,-0.00399524,0.0100915,0.00108401,-1.0253,0.00639703,0.0202141,1721,1569,15.236,-21.5319
504,-545,15.323,21.0946,0.00310336,0.00573614,-0.00320981,0.00788901,0.000950493,-0.979996,0.00497288,0.0158765,1728,1569,15.323,-21.0946
511,-545,15.3025,20.6802,0.00268916,0.00436891,-0.00249227,0.00615902,0.000899049,-0.947918,0.00384156,0.0122828,1735,1569,15.3025,-20.6802
518,-545,15.286,20.2626,0.00226207,0.00291188,-0.00170768,0.00432529,0.000848663,-0.879405,0.00264639,0.0136347,1742,1569,15.286,-20.2626
525,-545,15.2562,19.8412,0.00186469,0.00158283,-0.00096051,0.00269455,0.000752966,-0.712555,0.00160536,0.0136895,1749,1569,15.2562,-19.8412
532,-545,15.2306,19.4343,0.00165648,0.000395838,-0.000300024,0.00172424,0.000328077,-0.222126,0.00105724,0.0145721,1756,1569,15.2306,-19.4343
539,-545,15.2096,19.0499,0.00167126,-0.000809755,0.000288478,0.00170436,-0.000842856,0.114243,0.00149841,0.0174626,1763,1569,15.2097,-19.05
546,-545,15.1652,18.6342,0.00166344,-0.00202229,0.000940671,0.00188963,-0.00224849,0.235982,0.00239214,0.0188038,1770,1569,15.1652,-18.6342
553,-545,15.2539,18.2186,0.00176791,-0.00327918,0.00158351,0.00222359,-0.00373486,0.280195,0.0034768,0.0254586,1777,1569,15.2539,-18.2186
560,-545,15.283,17.7771,0.00210661,-0.00445819,0.00211019,0.0027264,-0.00507797,0.285677,0.00457353,0.0273794,1784,1569,15.283,-17.7772
567,-545,15.2742,17.2064,0,0,0,0,0,0,0,-1,1791,1569,15.2741,-17.2065
574,-545,15.1904,16.799,0,0,0,0,0,0,0,-1,1798,1569,15.1904,-16.799
581,-545,15.2833,16.3521,0,0,0,0,0,0,0,-1,1805,1569,15.2833,-16.352
588,-545,15.4125,16.0459,0,0,0,0,0,0,0,-1,1812,1569,15.4124,-16.0459
595,-545,10.2859,9.11218,0,0,0,0,0,0,0,-1,1819,1569,10.2858,-9.11215
602,-545,8.82117,6.32214,0,0,0,0,0,0,0,-1,1826,1569,8.82121,-6.32217
609,-545,10.2406,5.22351,0,0,0,0,0,0,0,-1,1833,1569,10.2406,-5.22353
616,-545,11.701,3.93188,0,0,0,0,0,0,0,-1,1840,1569,11.701,-3.93191
623,-545,13.2139,2.32043,0,0,0,0,0,0,0,-1,1847,1569,13.2139,-2.32042
630,-545,0,0,0,0,0,0,0,0,0,-1,1854,1569,0,0
637,-545,0,0,0,0,0,0,0,0,0,-1,1861,1569,0,0
644,-545,0,0,0,0,0,0,0,0,0,-1,1868,1569,0,0
651,-545,0,0,0,0,0,0,0,0,0,-1,1875,1569,0,0
658,-545,0,0,0,0,0,0,0,0,0,-1,1882,1569,0,0
665,-545,0,0,0,0,0,0,0,0,0,-1,1889,1569,0,0
672,-545,0,0,0,0,0,0,0,0,0,-1,1896,1569,0,0
679,-545,0,0,0,0,0,0,0,0,0,-1,1903,1569,0,0
686,-545,0,0,0,0,0,0,0,0,0,-1,1910,1569,0,0
693,-545,0,0,0,0,0,0,0,0,0,-1,1917,1569,0,0
700,-545,0,0,0,0,0,0,0,0,0,-1,1924,1569,0,0
707,-545,0,0,0,0,0,0,0,0,0,-1,1931,1569,0,0
714,-545,0,0,0,0,0,0,0,0,0,-1,1938,1569,0,0
721,-545,0,0,0,0,0,0,0,0,0,-1,1945,1569,0,0
728,-545,0,0,0,0,0,0,0,0,0,-1,1952,1569,0,0
735,-545,0,0,0,0,0,0,0,0,0,-1,1959,1569,0,0
742,-545,0,0,0,0,0,0,0,0,0,-1,1966,1569,0,0
749,-545,0,0,0,0,0,0,0,0,0,-1,1973,1569,0,0
756,-545,0,0,0,0,0,0,0,0,0,-1,1980,1569,0,0
763,-545,0,0,0,0,0,0,0,0,0,-1,1987,1569,0,0
770,-545,0,0,0,0,0,0,0,0,0,-1,1994,1569,0,0
777,-545,0,0,0,0,0,0,0,0,0,-1,2001,1569,0,0
784,-545,0,0,0,0,0,0,0,0,0,-1,2008,1569,0,0
791,-545,0,0,0,0,0,0,0,0,0,-1,2015,1569,0,0
798,-545,0,0,0,0,0,0,0,0,0,-1,2022,1569,0,0
805,-545,0,0,0,0,0,0,0,0,0,-1,2029,1569,0,0
812,-545,0,0,0,0,0,0,0,0,0,-1,2036,1569,0,0
-700,-552,0,0,0,0,0,0,0,0,0,-1,524,1576,0,0
-693,-552,0,0,0,0,0,0,0,0,0,-1,531,1576,0,0
-686,-552,0,0,0,0,0,0,0,0,0,-1,538,1576,0,0
-679,-552,0,0,0,0,0,0,0,0,0,-1,545,1576,0,0
-672,-552,0,0,0,0,0,0,0,0,0,-1,552,1576,0,0
-665,-552,0,0,0,0,0,0,0,0,0,-1,559,1576,0,0
-658,-552,0,0,0,0,0,0,0,0,0,-1,566,1576,0,0
-651,-552,0,0,0,0,0,0,0,0,0,-1,573,1576,0,0
-644,-552,0,0,0,0,0,0,0,0,0,-1,580,1576,0,0
-637,-552,0,0,0,0,0,0,0,0,0,-1,587,1576,0,0
-630,-552,0,0,0,0,0,0,0,0,0,-1,594,1576,0,0
-623,-552,0,0,0,0,0,0,0,0,0,-1,601,1576,0,0
-616,-552,0,0,0,0,0,0,0,0,0,-1,608,1576,0,0
-609,-552,0,0,0,0,0,0,0,0,0,-1,615,1576,0,0
-602,-552,0,0,0,0,0,0,0,0,0,-1,622,1576,0,0
-595,-552,0,0,0,0,0,0,0,0,0,-1,629,1576,0,0
-588,-552,0,0,0,0,0,0,0,0,0,-1,636,1576,0,0
-581,-552,0,0,0,0,0,0,0,0,0,-1,643,1576,0,0
-574,-552,0,0,0,0,0,0,0,0,0,-1,650,1576,0,0
-567,-552,0,0,0,0,0,0,0,0,0,-1,657,1576,0,0
-560,-552,0,0,0,0,0,0,0,0,0,-1,664,1576,0,0
-553,-552,0,0,0,0,0,0,0,0,0,-1,671,1576,0,0
-546,-552,0,0,0,0,0,0,0,0,0,-1,678,1576,0,0
-539,-552,0,0,0,0,0,0,0,0,0,-1,685,1576,0,0
-532,-552,0,0,0,0,0,0,0,0,0,-1,692,1576,0,0
-525,-552,0,0,0,0,0,0,0,0,0,-1,699,1576,0,0
-518,-552,0,0,0,0,0,0,0,0,0,-1,706,1576,0,0
-511,-552,0,0,0,0,0,0,0,0,0,-1,713,1576,0,0
-504,-552,0,0,0,0,0,0,0,0,0,-1,720,1576,0,0
-497,-552,1.51282,3.96924,0,0,0,0,0,0,0,-1,727,1576,1.5128,-3.96924
-490,-552,-3.82312,6.32104,0,0,0,0,0,0,0,-1,734,1576,-3.82314,-6.3211
-483,-552,-3.50586,6.47986,0,0,0,0,0,0,0,-1,741,1576,-3.50587,-6.47983
-476,-552,-1.95129,4.43054,0,0,0,0,0,0,0,-1,748,1576,-1.95128,-4.43054
-469,-552,-1.40491,7.9895,0,0,0,0,0,0,0,-1,755,1576,-1.40491,-7.98947
-462,-552,-1.99573,11.4446,0,0,0,0,0,0,0,-1,762,1576,-1.99571,-11.4445
-455,-552,-0.612793,15.2394,0,0,0,0,0,0,0,-1,769,1576,-0.612791,-15.2393
-448,-552,-0.0919189,14.2559,0,0,0,0,0,0,0,-1,776,1576,-0.0918959,-14.2559
-441,-552,-0.11554,15.2765,0.000976455,-0.00113718,0.00202393,0.00220287,-0.0023636,0.544789,0.002637,0.0445599,783,1576,-0.11553,-15.2765
-434,-552,-0.213196,16.1154,-0.00151378,-0.000937089,0.000764206,-0.000408641,-0.00204223,0.965798,0.00124778,0.0326051,790,1576,-0.213166,-16.1153
-427,-552,-0.444641,16.4375,-0.00219278,-0.000676743,0.00024194,-0.000639069,-0.00223046,1.41632,0.0013263,0.0271615,797,1576,-0.444627,-16.4375
-420,-552,-0.394836,16.9404,-0.00199849,0.000477296,9.3335e-06,0.000477331,-0.00199852,1.56703,0.00151671,0.0211673,804,1576,-0.39481,-16.9405
-413,-552,-0.394287,17.3724,-0.00173058,0.00102212,8.13355e-05,0.00102452,-0.00173298,1.54128,0.00160946,0.0168036,811,1576,-0.394284,-17.3724
-406,-552,-0.408875,17.8258,-0.00120182,0.0018741,0.000318384,0.00190671,-0.00123443,1.46873,0.00182733,0.0134066,818,1576,-0.408845,-17.8258
-399,-552,-0.445679,18.2625,-0.000508194,0.00242579,0.000786181,0.00262317,-0.000705578,1.32481,0.00202536,0.0136529,825,1576,-0.445653,-18.2625
-392,-552,-0.490417,18.7067,0.000214234,0.00301243,0.00106761,0.00337324,-0.000146573,1.24489,0.00229924,0.0147121,832,1576,-0.490416,-18.7067
-385,-552,-0.492798,19.1686,0.00108015,0.00340714,0.000989546,0.00377104,0.000716255,1.21841,0.00231255,0.013668,839,1576,-0.492792,-19.1686
-378,-552,-0.501648,19.6072,0.00191201,0.00434537,0.000933791,0.0046624,0.00159497,1.2435,0.00273622,0.0156471,846,1576,-0.501663,-19.6072
-371,-552,-0.506226,20.0459,0.0026058,0.00524381,0.000642018,0.00539176,0.00245785,1.3443,0.00311698,0.0194147,853,1576,-0.506214,-20.0459
-364,-552,-0.501831,20.4783,0.0033608,0.0061466,0.000131738,0.00615282,0.00335459,1.52365,0.00355717,0.0144527,860,1576,-0.501821,-20.4782
-357,-552,-0.493347,20.9033,0.00418076,0.00713995,-0.000577583,0.00724869,0.00407202,-1.38471,0.00419566,0.0097558,867,1576,-0.493317,-20.9033
-350,-552,-0.47821,21.3699,0.00506455,0.00810365,-0.00143139,0.00867167,0.00449654,-1.19303,0.00500773,0.0114231,874,1576,-0.478189,-21.3698
-343,-552,-0.477295,21.7651,0.0059366,0.00891458,-0.00243897,0.0102831,0.00456803,-1.05945,0.00594928,0.0146504,881,1576,-0.47732,-21.7651
-336,-552,-0.447021,22.0741,0.00694788,0.0100123,-0.00313669,0.011971,0.00498918,-1.01259,0.00694332,0.0281057,888,1576,-0.446999,-22.0741
-329,-552,-0.338257,22.5287,0,0,0,0,0,0,0,-1,895,1576,-0.338245,-22.5287
-322,-552,-0.241272,23.2867,0,0,0,0,0,0,0,-1,902,1576,-0.241261,-23.2868
-315,-552,0.682861,24.5743,0,0,0,0,0,0,0,-1,909,1576,0.682856,-24.5743
-308,-552,1.48743,24.9044,0,0,0,0,0,0,0,-1,916,1576,1.48745,-24.9045
-301,-552,1.39453,18.4995,0,0,0,0,0,0,0,-1,923,1576,1.3945,-18.4995
-294,-552,0.842163,13.7863,0,0,0,0,0,0,0,-1,930,1576,0.842149,-13.7863
-287,-552,-0.663757,13.3474,0,0,0,0,0,0,0,-1,937,1576,-0.663744,-13.3474
-280,-552,-5.47241,8.96765,0,0,0,0,0,0,0,-1,944,1576,-5.47239,-8.96766
-273,-552,1.64587,10.6685,0,0,0,0,0,0,0,-1,951,1576,1.6459,-10.6685
-266,-552,-1.32678,8.05688,0,0,0,0,0,0,0,-1,958,1576,-1.32677,-8.05683
-259,-552,-5.54321,8.31213,0,0,0,0,0,0,0,-1,965,1576,-5.54324,-8.31214
-252,-552,-1.93445,7.81543,0,0,0,0,0,0,0,-1,972,1576,-1.93445,-7.81546
-245,-552,-2.53613,6.92212,0,0,0,0,0,0,0,-1,979,1576,-2.53614,-6.92216
-238,-552,-6.5365,2.81885,0,0,0,0,0,0,0,-1,986,1576,-6.53649,-2.8188
-231,-552,-4.32239,4.34583,0,0,0,0,0,0,0,-1,993,1576,-4.32239,-4.34587
-224,-552,0,0,0,0,0,0,0,0,0,-1,1000,1576,0,0
-217,-552,0,0,0,0,0,0,0,0,0,-1,1007,1576,0,0
-210,-552,0,0,0,0,0,0,0,0,0,-1,1014,1576,0,0
-203,-552,0,0,0,0,0,0,0,0,0,-1,1021,1576,0,0
-196,-552,0,0,0,0,0,0,0,0,0,-1,1028,1576,0,0
-189,-552,0,0,0,0,0,0,0,0,0,-1,1035,1576,0,0
-182,-552,0,0,0,0,0,0,0,0,0,-1,1042,1576,0,0
-175,-552,0,0,0,0,0,0,0,0,0,-1,1049,1576,0,0
-168,-552,0,0,0,0,0,0,0,0,0,-1,1056,1576,0,0
-161,-552,0,0,0,0,0,0,0,0,0,-1,1063,1576,0,0
-154,-552,0,0,0,0,0,0,0,0,0,-1,1070,1576,0,0
-147,-552,0,0,0,0,0,0,0,0,0,-1,1077,1576,0,0
-140,-552,0,0,0,0,0,0,0,0,0,-1,1084,1576,0,0
-133,-552,0,0,0,0,0,0,0,0,0,-1,1091,1576,0,0
-126,-552,0,0,0,0,0,0,0,0,0,-1,1098,1576,0,0
-119,-552,0,0,0,0,0,0,0,0,0,-1,1105,1576,0,0
-112,-552,0,0,0,0,0,0,0,0,0,-1,1112,1576,0,0
-105,-552,0,0,0,0,0,0,0,0,0,-1,1119,1576,0,0
-98,-552,0,0,0,0,0,0,0,0,0,-1,1126,1576,0,0
-91,-552,0,0,0,0,0,0,0,0,0,-1,1133,1576,0,0
-84,-552,0,0,0,0,0,0,0,0,0,-1,1140,1576,0,0
-77,-552,0,0,0,0,0,0,0,0,0,-1,1147,1576,0,0
-70,-552,0,0,0,0,0,0,0,0,0,-1,1154,1576,0,0
-63,-552,0,0,0,0,0,0,0,0,0,-1,1161,1576,0,0
-56,-552,0,0,0,0,0,0,0,0,0,-1,1168,1576,0,0
-49,-552,0,0,0,0,0,0,0,0,0,-1,1175,1576,0,0
-42,-552,0,0,0,0,0,0,0,0,0,-1,1182,1576,0,0
-35,-552,0,0,0,0,0,0,0,0,0,-1,1189,1576,0,0
-28,-552,0,0,0,0,0,0,0,0,0,-1,1196,1576,0,0
-21,-552,0,0,0,0,0,0,0,0,0,-1,1203,1576,0,0
-14,-552,0,0,0,0,0,0,0,0,0,-1,1210,1576,0,0
-7,-552,0,0,0,0,0,0,0,0,0,-1,1217,1576,0,0
0,-552,0,0,0,0,0,0,0,0,0,-1,1224,1576,0,0
7,-552,0,0,0,0,0,0,0,0,0,-1,1231,1576,0,0
14,-552,0,0,0,0,0,0,0,0,0,-1,1238,1576,0,0
21,-552,0,0,0,0,0,0,0,0,0,-1,1245,1576,0,0
28,-552,0,0,0,0,0,0,0,0,0,-1,1252,1576,0,0
35,-552,0,0,0,0,0,0,0,0,0,-1,1259,1576,0,0
42,-552,0,0,0,0,0,0,0,0,0,-1,1266,1576,0,0
49,-552,0,0,0,0,0,0,0,0,0,-1,1273,1576,0,0
56,-552,0,0,0,0,0,0,0,0,0,-1,1280,1576,0,0
63,-552,0,0,0,0,0,0,0,0,0,-1,1287,1576,0,0
70,-552,0,0,0,0,0,0,0,0,0,-1,1294,1576,0,0
77,-552,0,0,0,0,0,0,0,0,0,-1,1301,1576,0,0
84,-552,0,0,0,0,0,0,0,0,0,-1,1308,1576,0,0
91,-552,0,0,0,0,0,0,0,0,0,-1,1315,1576,0,0
98,-552,0,0,0,0,0,0,0,0,0,-1,1322,1576,0,0
105,-552,0,0,0,0,0,0,0,0,0,-1,1329,1576,0,0
112,-552,0,0,0,0,0,0,0,0,0,-1,1336,1576,0,0
119,-552,0,0,0,0,0,0,0,0,0,-1,1343,1576,0,0
126,-552,0,0,0,0,0,0,0,0,0,-1,1350,1576,0,0
133,-552,0,0,0,0,0,0,0,0,0,-1,1357,1576,0,0
140,-552,0,0,0,0,0,0,0,0,0,-1,1364,1576,0,0
147,-552,0,0,0,0,0,0,0,0,0,-1,1371,1576,0,0
154,-552,0,0,0,0,0,0,0,0,0,-1,1378,1576,0,0
161,-552,0,0,0,0,0,0,0,0,0,-1,1385,1576,0,0
168,-552,0,0,0,0,0,0,0,0,0,-1,1392,1576,0,0
175,-552,0,0,0,0,0,0,0,0,0,-1,1399,1576,0,0
182,-552,0,0,0,0,0,0,0,0,0,-1,1406,1576,0,0
189,-552,0,0,0,0,0,0,0,0,0,-1,1413,1576,0,0
196,-552,0,0,0,0,0,0,0,0,0,-1,1420,1576,0,0
203,-552,0,0,0,0,0,0,0,0,0,-1,1427,1576,0,0
210,-552,0,0,0,0,0,0,0,0,0,-1,1434,1576,0,0
217,-552,0,0,0,0,0,0,0,0,0,-1,1441,1576,0,0
224,-552,0,0,0,0,0,0,0,0,0,-1,1448,1576,0,0
231,-552,0,0,0,0,0,0,0,0,0,-1,1455,1576,0,0
238,-552,0,0,0,0,0,0,0,0,0,-1,1462,1576,0,0
245,-552,0,0,0,0,0,0,0,0,0,-1,1469,1576,0,0
252,-552,0,0,0,0,0,0,0,0,0,-1,1476,1576,0,0
259,-552,0,0,0,0,0,0,0,0,0,-1,1483,1576,0,0
266,-552,0,0,0,0,0,0,0,0,0,-1,1490,1576,0,0
273,-552,0,0,0,0,0,0,0,0,0,-1,1497,1576,0,0
280,-552,0,0,0,0,0,0,0,0,0,-1,1504,1576,0,0
287,-552,0,0,0,0,0,0,0,0,0,-1,1511,1576,0,0
294,-552,0,0,0,0,0,0,0,0,0,-1,1518,1576,0,0
301,-552,0,0,0,0,0,0,0,0,0,-1,1525,1576,0,0
308,-552,0,0,0,0,0,0,0,0,0,-1,1532,1576,0,0
315,-552,0,0,0,0,0,0,0,0,0,-1,1539,1576,0,0
322,-552,0,0,0,0,0,0,0,0,0,-1,1546,1576,0,0
329,-552,0,0,0,0,0,0,0,0,0,-1,1553,1576,0,0
336,-552,0,0,0,0,0,0,0,0,0,-1,1560,1576,0,0
343,-552,0,0,0,0,0,0,0,0,0,-1,1567,1576,0,0
350,-552,4.97876,4.09888,0,0,0,0,0,0,0,-1,1574,1576,4.97875,-4.09883
357,-552,5.18469,4.10706,0,0,0,0,0,0,0,-1,1581,1576,5.1847,-4.10702
364,-552,5.80872,5.07031,0,0,0,0,0,0,0,-1,1588,1576,5.80874,-5.07037
371,-552,7.10657,5.64783,0,0,0,0,0,0,0,-1,1595,1576,7.10651,-5.64786
378,-552,6.44446,4.91492,0,0,0,0,0,0,0,-1,1602,1576,6.44448,-4.91496
385,-552,12.8276,3.16504,0,0,0,0,0,0,0,-1,1609,1576,12.8276,-3.16503
392,-552,12.1301,4.3363,0,0,0,0,0,0,0,-1,1616,1576,12.1302,-4.33631
399,-552,11.3486,5.6012,0,0,0,0,0,0,0,-1,1623,1576,11.3486,-5.60115
406,-552,10.7863,6.42542,0,0,0,0,0,0,0,-1,1630,1576,10.7863,-6.42536
413,-552,8.39307,10.365,0,0,0,0,0,0,0,-1,1637,1576,8.3931,-10.365
420,-552,10.2306,12.7225,0,0,0,0,0,0,0,-1,1644,1576,10.2305,-12.7226
427,-552,9.73267,14.783,0,0,0,0,0,0,0,-1,1651,1576,9.73269,-14.783
434,-552,12.0377,20.1364,0,0,0,0,0,0,0,-1,1658,1576,12.0377,-20.1364
441,-552,12.4963,21.5277,0,0,0,0,0,0,0,-1,1665,1576,12.4964,-21.5277
448,-552,12.9141,21.5482,0,0,0,0,0,0,0,-1,1672,1576,12.9141,-21.5482
455,-552,13.3318,21.5687,0,0,0,0,0,0,0,-1,1679,1576,13.3317,-21.5687
462,-552,12.745,20.5947,0,0,0,0,0,0,0,-1,1686,1576,12.745,-20.5947
469,-552,14.3102,23.5758,0,0,0,0,0,0,0,-1,1693,1576,14.3102,-23.5758
476,-552,14.7433,22.931,0,0,0,0,0,0,0,-1,1700,1576,14.7433,-22.931
483,-552,14.9156,22.2582,0.00346939,0.0109322,-0.00459642,0.0131211,0.00128045,-1.12635,0.00835339,0.0287663,1707,1576,14.9157,-22.2581
490,-552,14.8728,21.9066,0.0031172,0.00837504,-0.0037011,0.0102859,0.00120636,-1.0942,0.00649259,0.0147867,1714,1576,14.8728,-21.9066
497,-552,14.9437,21.5217,0.00287817,0.00622123,-0.00313816,0.00810526,0.00099413,-1.03011,0.0051045,0.0210059,1721,1576,14.9437,-21.5217
504,-552,14.9258,21.1011,0.00253284,0.00449856,-0.00245772,0.00616266,0.00086874,-0.975611,0.00385166,0.0225174,1728,1576,14.9258,-21.1011
511,-552,14.8778,20.6614,0.00214737,0.00315635,-0.00176942,0.00449179,0.000811923,-0.924272,0.00276393,0.0174418,1735,1576,14.8778,-20.6614
518,-552,14.8865,20.2563,0.00178364,0.00179623,-0.00106162,0.00285157,0.000728301,-0.788364,0.00171076,0.0156526,1742,1576,14.8865,-20.2564
525,-552,14.8502,19.8521,0.00148506,0.000526664,-0.000368766,0.00161052,0.000401197,-0.327949,0.00096807,0.0147514,1749,1576,14.8503,-19.852
532,-552,14.8163,19.4509,0.00137994,-0.000664601,0.00027724,0.00141687,-0.000701528,0.132415,0.00124608,0.0151502,1756,1576,14.8163,-19.451
539,-552,14.8112,19.0378,0.00145809,-0.00194152,0.000913313,0.00168792,-0.00217135,0.246522,0.00223397,0.0181663,1763,1576,14.8112,-19.0378
546,-552,14.777,18.6465,0.00151164,-0.00332224,0.00167141,0.00203327,-0.00384387,0.302513,0.00344643,0.0211896,1770,1576,14.777,-18.6464
553,-552,14.8409,18.2335,0.00168691,-0.00483235,0.00246689,0.00251515,-0.0056606,0.32392,0.00483532,0.0241829,1777,1576,14.8409,-18.2335
560,-552,14.8296,17.8864,0.00208378,-0.00634453,0.00320126,0.00316181,-0.00742256,0.324823,0.00627376,0.044642,1784,1576,14.8296,-17.8863
567,-552,14.8202,17.2324,0,0,0,0,0,0,0,-1,1791,1576,14.8202,-17.2324
574,-552,12.8835,14.8463,0,0,0,0,0,0,0,-1,1798,1576,12.8836,-14.8463
581,-552,9.74841,9.98645,0,0,0,0,0,0,0,-1,1805,1576,9.74847,-9.9864
588,-552,10.5619,9.34924,0,0,0,0,0,0,0,-1,1812,1576,10.5619,-9.34921
595,-552,5.36194,6.62744,0,0,0,0,0,0,0,-1,1819,1576,5.36193,-6.62742
602,-552,10.6863,4.31616,0,0,0,0,0,0,0,-1,1826,1576,10.6862,-4.31619
609,-552,12.146,3.18286,0,0,0,0,0,0,0,-1,1833,1576,12.1459,-3.18281
616,-552,13.8762,2.08167,0,0,0,0,0,0,0,-1,1840,1576,13.8763,-2.08167
623,-552,0,0,0,0,0,0,0,0,0,-1,1847,1576,0,0
630,-552,0,0,0,0,0,0,0,0,0,-1,1854,1576,0,0
637,-552,0,0,0,0,0,0,0,0,0,-1,1861,1576,0,0
644,-552,0,0,0,0,0,0,0,0,0,-1,1868,1576,0,0
651,-552,0,0,0,0,0,0,0,0,0,-1,1875,1576,0,0
658,-552,0,0,0,0,0,0,0,0,0,-1,1882,1576,0,0
665,-552,0,0,0,0,0,0,0,0,0,-1,1889,1576,0,0
672,-552,0,0,0,0,0,0,0,0,0,-1,1896,1576,0,0
679,-552,0,0,0,0,0,0,0,0,0,-1,1903,1576,0,0
686,-552,0,0,0,0,0,0,0,0,0,-1,1910,1576,0,0
693,-552,0,0,0,0,0,0,0,0,0,-1,1917,1576,0,0
700,-552,0,0,0,0,0,0,0,0,0,-1,1924,1576,0,0
707,-552,0,0,0,0,0,0,0,0,0,-1,1931,1576,0,0
714,-552,0,0,0,0,0,0,0,0,0,-1,1938,1576,0,0
721,-552,0,0,0,0,0,0,0,0,0,-1,1945,1576,0,0
728,-552,0,0,0,0,0,0,0,0,0,-1,1952,1576,0,0
735,-552,0,0,0,0,0,0,0,0,0,-1,1959,1576,0,0
742,-552,0,0,0,0,0,0,0,0,0,-1,1966,1576,0,0
749,-552,0,0,0,0,0,0,0,0,0,-1,1973,1576,0,0
756,-552,0,0,0,0,0,0,0,0,0,-1,1980,1576,0,0
763,-552,0,0,0,0,0,0,0,0,0,-1,1987,1576,0,0
770,-552,0,0,0,0,0,0,0,0,0,-1,1994,1576,0,0
777,-552,0,0,0,0,0,0,0,0,0,-1,2001,1576,0,0
784,-552,0,0,0,0,0,0,0,0,0,-1,2008,1576,0,0
791,-552,0,0,0,0,0,0,0,0,0,-1,2015,1576,0,0
798,-552,0,0,0,0,0,0,0,0,0,-1,2022,1576,0,0
805,-552,0,0,0,0,0,0,0,0,0,-1,2029,1576,0,0
812,-552,0,0,0,0,0,0,0,0,0,-1,2036,1576,0,0
-700,-559,0,0,0,0,0,0,0,0,0,-1,524,1583,0,0
-693,-559,0,0,0,0,0,0,0,0,0,-1,531,1583,0,0
-686,-559,0,0,0,0,0,0,0,0,0,-1,538,1583,0,0
-679,-559,0,0,0,0,0,0,0,0,0,-1,545,1583,0,0
-672,-559,0,0,0,0,0,0,0,0,0,-1,552,1583,0,0
-665,-559,0,0,0,0,0,0,0,0,0,-1,559,1583,0,0
-658,-559,0,0,0,0,0,0,0,0,0,-1,566,1583,0,0
-651,-559,0,0,0,0,0,0,0,0,0,-1,573,1583,0,0
-644,-559,0,0,0,0,0,0,0,0,0,-1,580,1583,0,0
-637,-559,0,0,0,0,0,0,0,0,0,-1,587,1583,0,0
-630,-559,0,0,0,0,0,0,0,0,0,-1,594,1583,0,0
-623,-559,0,0,0,0,0,0,0,0,0,-1,601,1583,0,0
-616,-559,0,0,0,0,0,0,0,0,0,-1,608,1583,0,0
-609,-559,0,0,0,0,0,0,0,0,0,-1,615,1583,0,0
-602,-559,0,0,0,0,0,0,0,0,0,-1,622,1583,0,0
-595,-559,0,0,0,0,0,0,0,0,0,-1,629,1583,0,0
-588,-559,0,0,0,0,0,0,0,0,0,-1,636,1583,0,0
-581,-559,0,0,0,0,0,0,0,0,0,-1,643,1583,0,0
-574,-559,0,0,0,0,0,0,0,0,0,-1,650,1583,0,0
-567,-559,0,0,0,0,0,0,0,0,0,-1,657,1583,0,0
-560,-559,0,0,0,0,0,0,0,0,0,-1,664,1583,0,0
-553,-559,0,0,0,0,0,0,0,0,0,-1,671,1583,0,0
-546,-559,0,0,0,0,0,0,0,0,0,-1,678,1583,0,0
-539,-559,0,0,0,0,0,0,0,0,0,-1,685,1583,0,0
-532,-559,0,0,0,0,0,0,0,0,0,-1,692,1583,0,0
-525,-559,0,0,0,0,0,0,0,0,0,-1,699,1583,0,0
-518,-559,0,0,0,0,0,0,0,0,0,-1,706,1583,0,0
-511,-559,0,0,0,0,0,0,0,0,0,-1,713,1583,0,0
-504,-559,0,0,0,0,0,0,0,0,0,-1,720,1583,0,0
-497,-559,0,0,0,0,0,0,0,0,0,-1,727,1583,0,0
-490,-559,-5.49835,4.47424,0,0,0,0,0,0,0,-1,734,1583,-5.49833,-4.4743
-483,-559,-5.24078,4.74561,0,0,0,0,0,0,0,-1,741,1583,-5.24079,-4.74563
-476,-559,-4.98022,4.99316,0,0,0,0,0,0,0,-1,748,1583,-4.98024,-4.99321
-469,-559,-4.6424,5.38062,0,0,0,0,0,0,0,-1,755,1583,-4.64237,-5.38058
-462,-559,-0.161865,6.49438,0,0,0,0,0,0,0,-1,762,1583,-0.161835,-6.49444
-455,-559,1.08826,7.02527,0,0,0,0,0,0,0,-1,769,1583,1.08823,-7.02529
-448,-559,0.359863,13.7379,0,0,0,0,0,0,0,-1,776,1583,0.359867,-13.738
-441,-559,0.371399,14.8352,0,0,0,0,0,0,0,-1,783,1583,0.371374,-14.8352
-434,-559,0.431824,16.0507,0,0,0,0,0,0,0,-1,790,1583,0.431804,-16.0507
-427,-559,-0.149353,16.5537,0,0,0,0,0,0,0,-1,797,1583,-0.149348,-16.5537
-420,-559,-0.0383911,16.9402,-0.00289687,0.00100595,-2.88861e-05,0.00100616,-0.00289708,-1.5634,0.00234003,0.0394557,804,1583,-0.0383999,-16.9401
-413,-559,0.022644,17.4023,-0.00271796,0.00124956,-0.000124823,0.00125349,-0.00272189,-1.53938,0.00234679,0.0158081,811,1583,0.0226179,-17.4024
-406,-559,0.0195313,17.8634,-0.00221839,0.00182458,-4.12266e-05,0.001825,-0.00221881,-1.5606,0.00233838,0.00926867,818,1583,0.0195318,-17.8634
-399,-559,0.00476074,18.3052,-0.00151457,0.00207211,0.00034258,0.00210454,-0.001547,1.47642,0.00211639,0.0123006,825,1583,0.00477489,-18.3051
-392,-559,-0.050354,18.7391,-0.000801119,0.00228272,0.000636798,0.00240904,-0.00092744,1.37497,0.00198862,0.0169794,832,1583,-0.0503495,-18.7391
-385,-559,-0.0580444,19.1853,2.16884e-05,0.00243032,0.000621461,0.00258121,-0.000129204,1.3326,0.00176545,0.0166077,839,1583,-0.0580413,-19.1853
-378,-559,-0.0627441,19.6151,0.000823898,0.00311961,0.000604813,0.0032692,0.000674305,1.32833,0.00199309,0.0148921,846,1583,-0.0627214,-19.6151
-371,-559,-0.0690918,20.0356,0.00149479,0.00377375,0.000405376,0.00384371,0.00142483,1.3999,0.00224377,0.0224729,853,1583,-0.0691125,-20.0357
-364,-559,-0.0678101,20.4515,0.00220119,0.00444525,5.26366e-05,0.00444649,0.00219996,1.54736,0.00256723,0.019858,860,1583,-0.0677819,-20.4515
-357,-559,-0.0814209,20.8895,0.00297431,0.00520105,-0.000408861,0.00527375,0.00290161,-1.39483,0.00304991,0.0121299,867,1583,-0.0814258,-20.8896
-350,-559,-0.0789185,21.3158,0.00381304,0.00589962,-0.000935857,0.00625786,0.0034548,-1.20521,0.0036195,0.0105998,874,1583,-0.0789143,-21.3158
-343,-559,-0.0789185,21.7389,0.00463793,0.0064949,-0.00147131,0.00730619,0.00382663,-1.06687,0.00421982,0.0110589,881,1583,-0.0789455,-21.7389
-336,-559,-0.133545,22.1095,0.0055446,0.00738766,-0.00168806,0.00838934,0.00454292,-1.03525,0.00484915,0.0197703,888,1583,-0.13354,-22.1095
-329,-559,-0.0175171,22.6958,0.00648126,0.00809203,-0.00178334,0.00924341,0.00532988,-0.997497,0.00535753,0.0333846,895,1583,-0.0175427,-22.6958
-322,-559,0.1604,23.4341,0,0,0,0,0,0,0,-1,902,1583,0.160396,-23.4341
-315,-559,0.383057,23.8851,0,0,0,0,0,0,0,-1,909,1583,0.383082,-23.8852
-308,-559,0.258118,24.6794,0,0,0,0,0,0,0,-1,916,1583,0.258135,-24.6795
-301,-559,1.97064,24.717,0,0,0,0,0,0,0,-1,923,1583,1.97066,-24.717
-294,-559,0.945129,18.5165,0,0,0,0,0,0,0,-1,930,1583,0.945117,-18.5165
-287,-559,-0.11792,15.4912,0,0,0,0,0,0,0,-1,937,1583,-0.117939,-15.4912
-280,-559,0.191467,13.5093,0,0,0,0,0,0,0,-1,944,1583,0.191441,-13.5093
-273,-559,2.12836,10.3059,0,0,0,0,0,0,0,-1,951,1583,2.12839,-10.3059
-266,-559,-0.597046,6.68933,0,0,0,0,0,0,0,-1,958,1583,-0.597031,-6.68937
-259,-559,-7.00311,8.62756,0,0,0,0,0,0,0,-1,965,1583,-7.00312,-8.6275
-252,-559,-9.4483,2.87805,0,0,0,0,0,0,0,-1,972,1583,-9.44829,-2.87805
-245,-559,-4.80804,7.1803,0,0,0,0,0,0,0,-1,979,1583,-4.80804,-7.18027
-238,-559,-8.45764,2.54858,0,0,0,0,0,0,0,-1,986,1583,-8.45763,-2.54862
-231,-559,-5.86914,4.34021,0,0,0,0,0,0,0,-1,993,1583,-5.86914,-4.34019
-224,-559,-3.30505,6.22864,0,0,0,0,0,0,0,-1,1000,1583,-3.30505,-6.22859
-217,-559,0,0,0,0,0,0,0,0,0,-1,1007,1583,0,0
-210,-559,0,0,0,0,0,0,0,0,0,-1,1014,1583,0,0
-203,-559,0,0,0,0,0,0,0,0,0,-1,1021,1583,0,0
-196,-559,0,0,0,0,0,0,0,0,0,-1,1028,1583,0,0
-189,-559,0,0,0,0,0,0,0,0,0,-1,1035,1583,0,0
-182,-559,0,0,0,0,0,0,0,0,0,-1,1042,1583,0,0
-175,-559,0,0,0,0,0,0,0,0,0,-1,1049,1583,0,0
-168,-559,0,0,0,0,0,0,0,0,0,-1,1056,1583,0,0
-161,-559,0,0,0,0,0,0,0,0,0,-1,1063,1583,0,0
-154,-559,0,0,0,0,0,0,0,0,0,-1,1070,1583,0,0
-147,-559,0,0,0,0,0,0,0,0,0,-1,1077,1583,0,0
-140,-559,0,0,0,0,0,0,0,0,0,-1,1084,1583,0,0
-133,-559,0,0,0,0,0,0,0,0,0,-1,1091,1583,0,0
-126,-559,0,0,0,0,0,0,0,0,0,-1,1098,1583,0,0
-119,-559,0,0,0,0,0,0,0,0,0,-1,1105,1583,0,0
-112,-559,0,0,0,0,0,0,0,0,0,-1,1112,1583,0,0
-105,-559,0,0,0,0,0,0,0,0,0,-1,1119,1583,0,0
-98,-559,0,0,0,0,0,0,0,0,0,-1,1126,1583,0,0
-91,-559,0,0,0,0,0,0,0,0,0,-1,1133,1583,0,0
-84,-559,0,0,0,0,0,0,0,0,0,-1,1140,1583,0,0
-77,-559,0,0,0,0,0,0,0,0,0,-1,1147,1583,0,0
-70,-559,0,0,0,0,0,0,0,0,0,-1,1154,1583,0,0
-63,-559,0,0,0,0,0,0,0,0,0,-1,1161,1583,0,0
-56,-559,0,0,0,0,0,0,0,0,0,-1,1168,1583,0,0
-49,-559,0,0,0,0,0,0,0,0,0,-1,1175,1583,0,0
-42,-559,0,0,0,0,0,0,0,0,0,-1,1182,1583,0,0
-35,-559,0,0,0,0,0,0,0,0,0,-1,1189,1583,0,0
-28,-559,0,0,0,0,0,0,0,0,0,-1,1196,1583,0,0
-21,-559,0,0,0,0,0,0,0,0,0,-1,1203,1583,0,0
-14,-559,0,0,0,0,0,0,0,0,0,-1,1210,1583,0,0
-7,-559,0,0,0,0,0,0,0,0,0,-1,1217,1583,0,0
0,-559,0,0,0,0,0,0,0,0,0,-1,1224,1583,0,0
7,-559,0,0,0,0,0,0,0,0,0,-1,1231,1583,0,0
14,-559,0,0,0,0,0,0,0,0,0,-1,1238,1583,0,0
21,-559,0,0,0,0,0,0,0,0,0,-1,1245,1583,0,0
28,-559,0,0,0,0,0,0,0,0,0,-1,1252,1583,0,0
35,-559,0,0,0,0,0,0,0,0,0,-1,1259,1583,0,0
42,-559,0,0,0,0,0,0,0,0,0,-1,1266,1583,0,0
49,-559,0,0,0,0,0,0,0,0,0,-1,1273,1583,0,0
56,-559,0,0,0,0,0,0,0,0,0,-1,1280,1583,0,0
63,-559,0,0,0,0,0,0,0,0,0,-1,1287,1583,0,0
70,-559,0,0,0,0,0,0,0,0,0,-1,1294,1583,0,0
77,-559,0,0,0,0,0,0,0,0,0,-1,1301,1583,0,0
84,-559,0,0,0,0,0,0,0,0,0,-1,1308,1583,0,0
91,-559,0,0,0,0,0,0,0,0,0,-1,1315,1583,0,0
98,-559,0,0,0,0,0,0,0,0,0,-1,1322,1583,0,0
105,-559,0,0,0,0,0,0,0,0,0,-1,1329,1583,0,0
112,-559,0,0,0,0,0,0,0,0,0,-1,1336,1583,0,0
119,-559,0,0,0,0,0,0,0,0,0,-1,1343,1583,0,0
126,-559,0,0,0,0,0,0,0,0,0,-1,1350,1583,0,0
133,-559,0,0,0,0,0,0,0,0,0,-1,1357,1583,0,0
140,-559,0,0,0,0,0,0,0,0,0,-1,1364,1583,0,0
147,-559,0,0,0,0,0,0,0,0,0,-1,1371,1583,0,0
154,-559,0,0,0,0,0,0,0,0,0,-1,1378,1583,0,0
161,-559,0,0,0,0,0,0,0,0,0,-1,1385,1583,0,0
168,-559,0,0,0,0,0,0,0,0,0,-1,1392,1583,0,0
175,-559,0,0,0,0,0,0,0,0,0,-1,1399,1583,0,0
182,-559,0,0,0,0,0,0,0,0,0,-1,1406,1583,0,0
189,-559,0,0,0,0,0,0,0,0,0,-1,1413,1583,0,0
196,-559,0,0,0,0,0,0,0,0,0,-1,1420,1583,0,0
203,-559,0,0,0,0,0,0,0,0,0,-1,1427,1583,0,0
210,-559,0,0,0,0,0,0,0,0,0,-1,1434,1583,0,0
217,-559,0,0,0,0,0,0,0,0,0,-1,1441,1583,0,0
224,-559,0,0,0,0,0,0,0,0,0,-1,1448,1583,0,0
231,-559,0,0,0,0,0,0,0,0,0,-1,1455,1583,0,0
238,-559,0,0,0,0,0,0,0,0,0,-1,1462,1583,0,0
245,-559,0,0,0,0,0,0,0,0,0,-1,1469,1583,0,0
252,-559,0,0,0,0,0,0,0,0,0,-1,1476,1583,0,0
259,-559,0,0,0,0,0,0,0,0,0,-1,1483,1583,0,0
266,-559,0,0,0,0,0,0,0,0,0,-1,1490,1583,0,0
273,-559,0,0,0,0,0,0,0,0,0,-1,1497,1583,0,0
280,-559,0,0,0,0,0,0,0,0,0,-1,1504,1583,0,0
287,-559,0,0,0,0,0,0,0,0,0,-1,1511,1583,0,0
294,-559,0,0,0,0,0,0,0,0,0,-1,1518,1583,0,0
301,-559,0,0,0,0,0,0,0,0,0,-1,1525,1583,0,0
308,-559,0,0,0,0,0,0,0,0,0,-1,1532,1583,0,0
315,-559,0,0,0,0,0,0,0,0,0,-1,1539,1583,0,0
322,-559,0,0,0,0,0,0,0,0,0,-1,1546,1583,0,0
329,-559,0,0,0,0,0,0,0,0,0,-1,1553,1583,0,0
336,-559,5.97668,3.09827,0,0,0,0,0,0,0,-1,1560,1583,5.97667,-3.09824
343,-559,5.44824,2.88696,0,0,0,0,0,0,0,-1,1567,1583,5.44819,-2.88693
350,-559,4.69775,3.27051,0,0,0,0,0,0,0,-1,1574,1583,4.69771,-3.27048
357,-559,3.88025,3.60999,0,0,0,0,0,0,0,-1,1581,1583,3.88027,-3.60998
364,-559,5.00928,5.32605,0,0,0,0,0,0,0,-1,1588,1583,5.00928,-5.32607
371,-559,1.84436,2.52441,0,0,0,0,0,0,0,-1,1595,1583,1.84441,-2.52447
378,-559,6.34753,1.53137,0,0,0,0,0,0,0,-1,1602,1583,6.34752,-1.53139
385,-559,6.95911,1.48181,0,0,0,0,0,0,0,-1,1609,1583,6.95916,-1.48175
392,-559,11.6949,4.77734,0,0,0,0,0,0,0,-1,1616,1583,11.6949,-4.77731
399,-559,11.1104,5.56909,0,0,0,0,0,0,0,-1,1623,1583,11.1103,-5.56905
406,-559,10.3385,6.48657,0,0,0,0,0,0,0,-1,1630,1583,10.3385,-6.48661
413,-559,9.76147,6.97571,0,0,0,0,0,0,0,-1,1637,1583,9.76143,-6.97574
420,-559,7.77124,10.5851,0,0,0,0,0,0,0,-1,1644,1583,7.77128,-10.585
427,-559,10.1022,12.5565,0,0,0,0,0,0,0,-1,1651,1583,10.1021,-12.5565
434,-559,9.62769,14.6309,0,0,0,0,0,0,0,-1,1658,1583,9.62771,-14.6309
441,-559,12.6149,21.3678,0,0,0,0,0,0,0,-1,1665,1583,12.6149,-21.3678
448,-559,13.7046,22.6677,0,0,0,0,0,0,0,-1,1672,1583,13.7046,-22.6677
455,-559,13.9427,23.0509,0,0,0,0,0,0,0,-1,1679,1583,13.9427,-23.0509
462,-559,14.2679,23.9377,0,0,0,0,0,0,0,-1,1686,1583,14.2679,-23.9378
469,-559,14.2618,23.3295,0.00334681,0.0149697,-0.00515289,0.0169252,0.00139133,-1.20809,0.0108495,0.0392329,1693,1583,14.2618,-23.3295
476,-559,14.4329,22.7703,0.00322921,0.011843,-0.00449585,0.013762,0.00131018,-1.16736,0.00877061,0.0178796,1700,1583,14.4328,-22.7703
483,-559,14.4985,22.2898,0.00282143,0.00901631,-0.00366414,0.0107168,0.00112095,-1.13629,0.00680174,0.0128402,1707,1583,14.4985,-22.2898
490,-559,14.4919,21.9045,0.00247259,0.00679585,-0.00291149,0.00826043,0.00100801,-1.10472,0.0052036,0.0151766,1714,1583,14.4919,-21.9046
497,-559,14.5164,21.5183,0.00226292,0.00490294,-0.00243807,0.0063554,0.000810455,-1.03351,0.00399429,0.0182792,1721,1583,14.5164,-21.5183
504,-559,14.4751,21.099,0.00195423,0.00336684,-0.00181659,0.0046096,0.000711469,-0.970808,0.0028655,0.0227505,1728,1583,14.4751,-21.099
511,-559,14.4396,20.6866,0.00159798,0.00204452,-0.00112413,0.00296734,0.000675157,-0.883431,0.00179599,0.020735,1735,1583,14.4396,-20.6866
518,-559,14.4716,20.2781,0.00130791,0.000774397,-0.000465675,0.00157782,0.000504486,-0.525293,0.000930482,0.0142001,1742,1583,14.4715,-20.278
525,-559,14.4578,19.8779,0.00112589,-0.000441025,0.000186532,0.00114779,-0.000462924,0.116868,0.00095756,0.012789,1749,1583,14.4578,-19.8779
532,-559,14.4285,19.4868,0.00114662,-0.00165166,0.000831869,0.00137524,-0.00188028,0.268205,0.00188709,0.0148188,1756,1583,14.4285,-19.4868
539,-559,14.4127,19.0737,0.00131322,-0.00302517,0.00153572,0.00180181,-0.00351377,0.308027,0.00312156,0.018805,1763,1583,14.4127,-19.0737
546,-559,14.3845,18.6431,0.00146994,-0.00462583,0.00242454,0.00231666,-0.00547256,0.33599,0.00461851,0.0158165,1770,1583,14.3845,-18.643
553,-559,14.4664,18.1903,0.00176041,-0.00646122,0.00340908,0.00299006,-0.00769087,0.346175,0.00636261,0.0203283,1777,1583,14.4665,-18.1904
560,-559,14.4775,17.9629,0.00226262,-0.00841521,0.00440403,0.00384465,-0.00999724,0.344868,0.00825057,0.0425943,1784,1583,14.4775,-17.9628
567,-559,14.4012,17.5684,0,0,0,0,0,0,0,-1,1791,1583,14.4012,-17.5684
574,-559,10.5109,10.7317,0,0,0,0,0,0,0,-1,1798,1583,10.5108,-10.7317
581,-559,5.97095,5.96179,0,0,0,0,0,0,0,-1,1805,1583,5.97093,-5.96181
588,-559,5.79102,5.89954,0,0,0,0,0,0,0,-1,1812,1583,5.79098,-5.89949
595,-559,5.79089,6.24231,0,0,0,0,0,0,0,-1,1819,1583,5.7909,-6.24227
602,-559,12.478,2.35669,0,0,0,0,0,0,0,-1,1826,1583,12.4781,-2.35675
609,-559,14.0479,1.22681,0,0,0,0,0,0,0,-1,1833,1583,14.0479,-1.22681
616,-559,0,0,0,0,0,0,0,0,0,-1,1840,1583,0,0
623,-559,0,0,0,0,0,0,0,0,0,-1,1847,1583,0,0
630,-559,0,0,0,0,0,0,0,0,0,-1,1854,1583,0,0
637,-559,0,0,0,0,0,0,0,0,0,-1,1861,1583,0,0
644,-559,0,0,0,0,0,0,0,0,0,-1,1868,1583,0,0
651,-559,0,0,0,0,0,0,0,0,0,-1,1875,1583,0,0
658,-559,0,0,0,0,0,0,0,0,0,-1,1882,1583,0,0
665,-559,0,0,0,0,0,0,0,0,0,-1,1889,1583,0,0
672,-559,0,0,0,0,0,0,0,0,0,-1,1896,1583,0,0
679,-559,0,0,0,0,0,0,0,0,0,-1,1903,1583,0,0
686,-559,0,0,0,0,0,0,0,0,0,-1,1910,1583,0,0
693,-559,0,0,0,0,0,0,0,0,0,-1,1917,1583,0,0
700,-559,0,0,0,0,0,0,0,0,0,-1,1924,1583,0,0
707,-559,0,0,0,0,0,0,0,0,0,-1,1931,1583,0,0
714,-559,0,0,0,0,0,0,0,0,0,-1,1938,1583,0,0
721,-559,0,0,0,0,0,0,0,0,0,-1,1945,1583,0,0
728,-559,0,0,0,0,0,0,0,0,0,-1,1952,1583,0,0
735,-559,0,0,0,0,0,0,0,0,0,-1,1959,1583,0,0
742,-559,0,0,0,0,0,0,0,0,0,-1,1966,1583,0,0
749,-559,0,0,0,0,0,0,0,0,0,-1,1973,1583,0,0
756,-559,0,0,0,0,0,0,0,0,0,-1,1980,1583,0,0
763,-559,0,0,0,0,0,0,0,0,0,-1,1987,1583,0,0
770,-559,0,0,0,0,0,0,0,0,0,-1,1994,1583,0,0
777,-559,0,0,0,0,0,0,0,0,0,-1,2001,1583,0,0
784,-559,0,0,0,0,0,0,0,0,0,-1,2008,1583,0,0
791,-559,0,0,0,0,0,0,0,0,0,-1,2015,1583,0,0
798,-559,0,0,0,0,0,0,0,0,0,-1,2022,1583,0,0
805,-559,0,0,0,0,0,0,0,0,0,-1,2029,1583,0,0
812,-559,0,0,0,0,0,0,0,0,0,-1,2036,1583,0,0
-700,-566,0,0,0,0,0,0,0,0,0,-1,524,1590,0,0
-693,-566,0,0,0,0,0,0,0,0,0,-1,531,1590,0,0
-686,-566,0,0,0,0,0,0,0,0,0,-1,538,1590,0,0
-679,-566,0,0,0,0,0,0,0,0,0,-1,545,1590,0,0
-672,-566,0,0,0,0,0,0,0,0,0,-1,552,1590,0,0
-665,-566,0,0,0,0,0,0,0,0,0,-1,559,1590,0,0
-658,-566,0,0,0,0,0,0,0,0,0,-1,566,1590,0,0
-651,-566,0,0,0,0,0,0,0,0,0,-1,573,1590,0,0
-644,-566,0,0,0,0,0,0,0,0,0,-1,580,1590,0,0
-637,-566,0,0,0,0,0,0,0,0,0,-1,587,1590,0,0
-630,-566,0,0,0,0,0,0,0,0,0,-1,594,1590,0,0
-623,-566,0,0,0,0,0,0,0,0,0,-1,601,1590,0,0
-616,-566,0,0,0,0,0,0,0,0,0,-1,608,1590,0,0
-609,-566,0,0,0,0,0,0,0,0,0,-1,615,1590,0,0
-602,-566,0,0,0,0,0,0,0,0,0,-1,622,1590,0,0
-595,-566,0,0,0,0,0,0,0,0,0,-1,629,1590,0,0
-588,-566,0,0,0,0,0,0,0,0,0,-1,636,1590,0,0
-581,-566,0,0,0,0,0,0,0,0,0,-1,643,1590,0,0
-574,-566,0,0,0,0,0,0,0,0,0,-1,650,1590,0,0
-567,-566,0,0,0,0,0,0,0,0,0,-1,657,1590,0,0
-560,-566,0,0,0,0,0,0,0,0,0,-1,664,1590,0,0
-553,-566,0,0,0,0,0,0,0,0,0,-1,671,1590,0,0
-546,-566,0,0,0,0,0,0,0,0,0,-1,678,1590,0,0
-539,-566,0,0,0,0,0,0,0,0,0,-1,685,1590,0,0
-532,-566,0,0,0,0,0,0,0,0,0,-1,692,1590,0,0
-525,-566,0,0,0,0,0,0,0,0,0,-1,699,1590,0,0
-518,-566,0,0,0,0,0,0,0,0,0,-1,706,1590,0,0
-511,-566,0,0,0,0,0,0,0,0,0,-1,713,1590,0,0
-504,-566,0,0,0,0,0,0,0,0,0,-1,720,1590,0,0
-497,-566,0,0,0,0,0,0,0,0,0,-1,727,1590,0,0
-490,-566,0,0,0,0,0,0,0,0,0,-1,734,1590,0,0
-483,-566,-7.17084,2.78613,0,0,0,0,0,0,0,-1,741,1590,-7.17083,-2.78618
-476,-566,-7.13971,2.87183,0,0,0,0,0,0,0,-1,748,1590,-7.13971,-2.87184
-469,-566,-6.43829,3.2998,0,0,0,0,0,0,0,-1,755,1590,-6.43829,-3.2998
-462,-566,-0.459106,3.89343,0,0,0,0,0,0,0,-1,762,1590,-0.459095,-3.89341
-455,-566,0.280212,4.74023,0,0,0,0,0,0,0,-1,769,1590,0.280207,-4.74023
-448,-566,0.436951,5.51306,0,0,0,0,0,0,0,-1,776,1590,0.436971,-5.51301
-441,-566,-0.440735,12.4063,0,0,0,0,0,0,0,-1,783,1590,-0.440753,-12.4062
-434,-566,0.785339,16.1506,0,0,0,0,0,0,0,-1,790,1590,0.785324,-16.1507
-427,-566,-0.0559082,16.3832,0,0,0,0,0,0,0,-1,797,1590,-0.0559087,-16.3831
-420,-566,0.322327,16.8878,0,0,0,0,0,0,0,-1,804,1590,0.322311,-16.8878
-413,-566,0.445435,17.4204,-0.00370882,0.00182867,-0.000141576,0.00183229,-0.00371244,-1.54525,0.00326202,0.0249774,811,1590,0.445428,-17.4204
-406,-566,0.449768,17.8781,-0.00321171,0.00207987,-0.000204203,0.00208773,-0.00321958,-1.53228,0.00308732,0.0105914,818,1590,0.449783,-17.8781
-399,-566,0.42749,18.33,-0.00247719,0.00198411,9.37293e-05,0.00198607,-0.00247916,1.5498,0.00258324,0.00900911,825,1590,0.427471,-18.3299
-392,-566,0.401367,18.7576,-0.00174846,0.00181452,0.000401667,0.00185924,-0.00179318,1.45992,0.00210884,0.0130866,832,1590,0.401338,-18.7576
-385,-566,0.404968,19.2075,-0.000956987,0.00174124,0.00044465,0.00181263,-0.00102837,1.41161,0.00166095,0.0155338,839,1590,0.40499,-19.2075
-378,-566,0.387146,19.6632,-0.000177037,0.00219417,0.000455255,0.00227857,-0.000261439,1.38748,0.00161327,0.0152838,846,1590,0.387171,-19.6632
-371,-566,0.36792,20.074,0.000495268,0.00263937,0.000331627,0.00268949,0.000445147,1.4208,0.00166457,0.0216294,853,1590,0.367942,-20.074
-364,-566,0.368103,20.4786,0.00117931,0.00313261,0.000107785,0.00313854,0.00117338,1.51584,0.00183116,0.0217142,860,1590,0.368082,-20.4787
-357,-566,0.337097,20.8936,0.0019267,0.00372109,-0.000167965,0.00373668,0.00191111,-1.47826,0.00215756,0.0182247,867,1590,0.3371,-20.8936
-350,-566,0.348145,21.3042,0.00272858,0.00425785,-0.000471741,0.00439166,0.00259477,-1.2944,0.00254944,0.0224759,874,1590,0.348131,-21.3042
-343,-566,0.355835,21.719,0.00351169,0.00472463,-0.000712263,0.00505364,0.00318268,-1.13807,0.0029503,0.0266011,881,1590,0.355844,-21.719
-336,-566,0.243225,22.177,0.0043609,0.00551468,-0.000625583,0.00578877,0.00408682,-1.15786,0.00343539,0.0271371,888,1590,0.243195,-22.177
-329,-566,0.333191,22.4874,0.00518179,0.00614782,-0.000458076,0.00633049,0.00499912,-1.19135,0.00385397,0.0224585,895,1590,0.333184,-22.4874
-322,-566,0.423096,23.0426,0.00598003,0.00676141,2.02561e-05,0.00676193,0.0059795,1.5449,0.0042711,0.0299552,902,1590,0.423116,-23.0427
-315,-566,0.24054,23.4952,0.00681311,0.00754094,0.000736599,0.00799862,0.00635543,1.01484,0.00487783,0.0471882,909,1590,0.240562,-23.4953
-308,-566,0.44989,24.2964,0,0,0,0,0,0,0,-1,916,1590,0.449906,-24.2963
-301,-566,0.883789,25.1019,0,0,0,0,0,0,0,-1,923,1590,0.883768,-25.102
-294,-566,0.741455,25.3229,0,0,0,0,0,0,0,-1,930,1590,0.741475,-25.3229
-287,-566,1.25391,23.4589,0,0,0,0,0,0,0,-1,937,1590,1.2539,-23.4589
-280,-566,1.59406,17.8762,0,0,0,0,0,0,0,-1,944,1590,1.59405,-17.8762
-273,-566,0.49762,11.2427,0,0,0,0,0,0,0,-1,951,1590,0.497591,-11.2426
-266,-566,0.392151,6.90295,0,0,0,0,0,0,0,-1,958,1590,0.392151,-6.90294
-259,-566,0.343628,6.47437,0,0,0,0,0,0,0,-1,965,1590,0.34363,-6.47438
-252,-566,-7.68311,1.01343,0,0,0,0,0,0,0,-1,972,1590,-7.68308,-1.01348
-245,-566,-11.1835,1.97522,0,0,0,0,0,0,0,-1,979,1590,-11.1835,-1.97527
-238,-566,-10.4883,2.40491,0,0,0,0,0,0,0,-1,986,1590,-10.4883,-2.40487
-231,-566,-7.41827,4.22803,0,0,0,0,0,0,0,-1,993,1590,-7.41827,-4.22803
-224,-566,-4.67188,6.30859,0,0,0,0,0,0,0,-1,1000,1590,-4.67185,-6.30853
-217,-566,-2.82867,7.52527,0,0,0,0,0,0,0,-1,1007,1590,-2.82869,-7.52531
-210,-566,-1.03436,8.67737,0,0,0,0,0,0,0,-1,1014,1590,-1.03439,-8.67733
-203,-566,0,0,0,0,0,0,0,0,0,-1,1021,1590,0,0
-196,-566,0,0,0,0,0,0,0,0,0,-1,1028,1590,0,0
-189,-566,0,0,0,0,0,0,0,0,0,-1,1035,1590,0,0
-182,-566,0,0,0,0,0,0,0,0,0,-1,1042,1590,0,0
-175,-566,0,0,0,0,0,0,0,0,0,-1,1049,1590,0,0
-168,-566,0,0,0,0,0,0,0,0,0,-1,1056,1590,0,0
-161,-566,0,0,0,0,0,0,0,0,0,-1,1063,1590,0,0
-154,-566,0,0,0,0,0,0,0,0,0,-1,1070,1590,0,0
-147,-566,0,0,0,0,0,0,0,0,0,-1,1077,1590,0,0
-140,-566,0,0,0,0,0,0,0,0,0,-1,1084,1590,0,0
-133,-566,0,0,0,0,0,0,0,0,0,-1,1091,1590,0,0
-126,-566,0,0,0,0,0,0,0,0,0,-1,1098,1590,0,0
-119,-566,0,0,0,0,0,0,0,0,0,-1,1105,1590,0,0
-112,-566,0,0,0,0,0,0,0,0,0,-1,1112,1590,0,0
-105,-566,0,0,0,0,0,0,0,0,0,-1,1119,1590,0,0
-98,-566,0,0,0,0,0,0,0,0,0,-1,1126,1590,0,0
-91,-566,0,0,0,0,0,0,0,0,0,-1,1133,1590,0,0
-84,-566,0,0,0,0,0,0,0,0,0,-1,1140,1590,0,0
-77,-566,0,0,0,0,0,0,0,0,0,-1,1147,1590,0,0
-70,-566,0,0,0,0,0,0,0,0,0,-1,1154,1590,0,0
-63,-566,0,0,0,0,0,0,0,0,0,-1,1161,1590,0,0
-56,-566,0,0,0,0,0,0,0,0,0,-1,1168,1590,0,0
-49,-566,0,0,0,0,0,0,0,0,0,-1,1175,1590,0,0
-42,-566,0,0,0,0,0,0,0,0,0,-1,1182,1590,0,0
-35,-566,0,0,0,0,0,0,0,0,0,-1,1189,1590,0,0
-28,-566,0,0,0,0,0,0,0,0,0,-1,1196,1590,0,0
-21,-566,0,0,0,0,0,0,0,0,0,-1,1203,1590,0,0
-14,-566,0,0,0,0,0,0,0,0,0,-1,1210,1590,0,0
-7,-566,0,0,0,0,0,0,0,0,0,-1,1217,1590,0,0
0,-566,0,0,0,0,0,0,0,0,0,-1,1224,1590,0,0
7,-566,0,0,0,0,0,0,0,0,0,-1,1231,1590,0,0
14,-566,0,0,0,0,0,0,0,0,0,-1,1238,1590,0,0
21,-566,0,0,0,0,0,0,0,0,0,-1,1245,1590,0,0
28,-566,0,0,0,0,0,0,0,0,0,-1,1252,1590,0,0
35,-566,0,0,0,0,0,0,0,0,0,-1,1259,1590,0,0
42,-566,0,0,0,0,0,0,0,0,0,-1,1266,1590,0,0
49,-566,0,0,0,0,0,0,0,0,0,-1,1273,1590,0,0
56,-566,0,0,0,0,0,0,0,0,0,-1,1280,1590,0,0
63,-566,0,0,0,0,0,0,0,0,0,-1,1287,1590,0,0
70,-566,0,0,0,0,0,0,0,0,0,-1,1294,1590,0,0
77,-566,0,0,0,0,0,0,0,0,0,-1,1301,1590,0,0
84,-566,0,0,0,0,0,0,0,0,0,-1,1308,1590,0,0
91,-566,0,0,0,0,0,0,0,0,0,-1,1315,1590,0,0
98,-566,0,0,0,0,0,0,0,0,0,-1,1322,1590,0,0
105,-566,0,0,0,0,0,0,0,0,0,-1,1329,1590,0,0
112,-566,0,0,0,0,0,0,0,0,0,-1,1336,1590,0,0
119,-566,0,0,0,0,0,0,0,0,0,-1,1343,1590,0,0
126,-566,0,0,0,0,0,0,0,0,0,-1,1350,1590,0,0
133,-566,0,0,0,0,0,0,0,0,0,-1,1357,1590,0,0
140,-566,0,0,0,0,0,0,0,0,0,-1,1364,1590,0,0
147,-566,0,0,0,0,0,0,0,0,0,-1,1371,1590,0,0
154,-566,0,0,0,0,0,0,0,0,0,-1,1378,1590,0,0
161,-566,0,0,0,0,0,0,0,0,0,-1,1385,1590,0,0
168,-566,0,0,0,0,0,0,0,0,0,-1,1392,1590,0,0
175,-566,0,0,0,0,0,0,0,0,0,-1,1399,1590,0,0
182,-566,0,0,0,0,0,0,0,0,0,-1,1406,1590,0,0
189,-566,0,0,0,0,0,0,0,0,0,-1,1413,1590,0,0
196,-566,0,0,0,0,0,0,0,0,0,-1,1420,1590,0,0
203,-566,0,0,0,0,0,0,0,0,0,-1,1427,1590,0,0
210,-566,0,0,0,0,0,0,0,0,0,-1,1434,1590,0,0
217,-566,0,0,0,0,0,0,0,0,0,-1,1441,1590,0,0
224,-566,0,0,0,0,0,0,0,0,0,-1,1448,1590,0,0
231,-566,0,0,0,0,0,0,0,0,0,-1,1455,1590,0,0
238,-566,0,0,0,0,0,0,0,0,0,-1,1462,1590,0,0
245,-566,0,0,0,0,0,0,0,0,0,-1,1469,1590,0,0
252,-566,0,0,0,0,0,0,0,0,0,-1,1476,1590,0,0
259,-566,0,0,0,0,0,0,0,0,0,-1,1483,1590,0,0
266,-566,0,0,0,0,0,0,0,0,0,-1,1490,1590,0,0
273,-566,0,0,0,0,0,0,0,0,0,-1,1497,1590,0,0
280,-566,0,0,0,0,0,0,0,0,0,-1,1504,1590,0,0
287,-566,0,0,0,0,0,0,0,0,0,-1,1511,1590,0,0
294,-566,0,0,0,0,0,0,0,0,0,-1,1518,1590,0,0
301,-566,0,0,0,0,0,0,0,0,0,-1,1525,1590,0,0
308,-566,0,0,0,0,0,0,0,0,0,-1,1532,1590,0,0
315,-566,0,0,0,0,0,0,0,0,0,-1,1539,1590,0,0
322,-566,6.07983,4.44873,0,0,0,0,0,0,0,-1,1546,1590,6.07983,-4.44873
329,-566,5.77026,3.47534,0,0,0,0,0,0,0,-1,1553,1590,5.77026,-3.47535
336,-566,5.41138,2.62915,0,0,0,0,0,0,0,-1,1560,1590,5.41138,-2.62909
343,-566,4.81873,1.79089,0,0,0,0,0,0,0,-1,1567,1590,4.81878,-1.79095
350,-566,4.41663,2.44214,0,0,0,0,0,0,0,-1,1574,1590,4.41666,-2.44214
357,-566,6.34058,5.18579,0,0,0,0,0,0,0,-1,1581,1590,6.34059,-5.1858
364,-566,6.06262,4.20251,0,0,0,0,0,0,0,-1,1588,1590,6.06259,-4.20246
371,-566,5.78455,3.21912,0,0,0,0,0,0,0,-1,1595,1590,5.7846,-3.21912
378,-566,5.7439,0.695557,0,0,0,0,0,0,0,-1,1602,1590,5.74392,-0.695531
385,-566,5.67615,-0.573975,0,0,0,0,0,0,0,-1,1609,1590,5.67612,0.573956
392,-566,5.78638,1.82434,0,0,0,0,0,0,0,-1,1616,1590,5.78637,-1.82439
399,-566,5.36621,1.7373,0,0,0,0,0,0,0,-1,1623,1590,5.36627,-1.7373
406,-566,4.30359,5.26868,0,0,0,0,0,0,0,-1,1630,1590,4.30364,-5.26867
413,-566,4.27124,5.79492,0,0,0,0,0,0,0,-1,1637,1590,4.27123,-5.7949
420,-566,7.19812,8.25146,0,0,0,0,0,0,0,-1,1644,1590,7.19817,-8.25149
427,-566,10.455,10.6842,0,0,0,0,0,0,0,-1,1651,1590,10.455,-10.6842
434,-566,9.18567,14.3304,0,0,0,0,0,0,0,-1,1658,1590,9.18571,-14.3305
441,-566,14.7065,25.228,0,0,0,0,0,0,0,-1,1665,1590,14.7065,-25.2281
448,-566,14.3947,24.9817,0,0,0,0,0,0,0,-1,1672,1590,14.3946,-24.9816
455,-566,13.8735,24.2009,0,0,0,0,0,0,0,-1,1679,1590,13.8735,-24.2009
462,-566,13.9287,23.6836,0.00281402,0.014501,-0.00437894,0.0159596,0.00135535,-1.24925,0.010218,0.0307163,1686,1590,13.9288,-23.6836
469,-566,14.0116,23.0929,0.00271529,0.0119948,-0.00405643,0.013518,0.0011921,-1.21159,0.00864208,0.0151212,1693,1590,14.0116,-23.0929
476,-566,14.0907,22.6591,0.00254031,0.00945571,-0.00352001,0.0109322,0.00106382,-1.17363,0.00696068,0.0106209,1700,1590,14.0907,-22.6591
483,-566,14.0908,22.2627,0.00217108,0.00717427,-0.0028428,0.00845943,0.000885925,-1.14622,0.00536873,0.0106905,1707,1590,14.0908,-22.2626
490,-566,14.0841,21.8751,0.00185675,0.00527914,-0.00220787,0.00636131,0.000774589,-1.11507,0.00400771,0.0119288,1714,1590,14.0841,-21.8751
497,-566,14.1268,21.5098,0.0016868,0.0036537,-0.00180673,0.0047273,0.000613202,-1.03464,0.00296832,0.0155235,1721,1590,14.1268,-21.5098
504,-566,14.1073,21.1229,0.00143762,0.0023252,-0.00124939,0.00320727,0.000555544,-0.956052,0.00197916,0.0201859,1728,1590,14.1073,-21.1229
511,-566,14.077,20.7209,0.0011481,0.00106997,-0.000575195,0.00168556,0.000532519,-0.751491,0.000994896,0.0197263,1735,1590,14.077,-20.7209
518,-566,14.0682,20.3242,0.000972432,-6.83525e-05,1.55811e-05,0.000972666,-6.85857e-05,0.014966,0.000672473,0.0124743,1742,1590,14.0683,-20.3242
525,-566,14.0492,19.9071,0.000946251,-0.0011913,0.000607689,0.00110693,-0.00135198,0.258499,0.001422,0.0120256,1749,1590,14.0492,-19.907
532,-566,14.0366,19.4901,0.00111682,-0.00239583,0.00124617,0.00151401,-0.00279302,0.308549,0.00252295,0.0148859,1756,1590,14.0367,-19.4901
539,-566,14.0304,19.0562,0.0013726,-0.00385304,0.00203109,0.00206918,-0.00454963,0.330391,0.0039098,0.018592,1763,1590,14.0304,-19.0561
546,-566,14.0725,18.5813,0.00161874,-0.00571314,0.00308827,0.00274619,-0.00684059,0.350039,0.00570071,0.0205978,1770,1590,14.0724,-18.5812
553,-566,14.0717,18.3362,0.00201641,-0.00791888,0.00429847,0.00361796,-0.00952043,0.356653,0.00783646,0.0351904,1777,1590,14.0717,-18.3361
560,-566,13.9158,18.4019,0.00253634,-0.0104455,0.00566731,0.00466229,-0.0125715,0.35888,0.0102933,0.0434075,1784,1590,13.9158,-18.4019
567,-566,13.9286,18.3999,0,0,0,0,0,0,0,-1,1791,1590,13.9285,-18.3999
574,-566,7.99548,3.14514,0,0,0,0,0,0,0,-1,1798,1590,7.99543,-3.14511
581,-566,2.54102,5.1311,0,0,0,0,0,0,0,-1,1805,1590,2.54099,-5.13111
588,-566,-1.91321,8.39197,0,0,0,0,0,0,0,-1,1812,1590,-1.91316,-8.39199
595,-566,9.0271,4.66467,0,0,0,0,0,0,0,-1,1819,1590,9.02705,-4.66468
602,-566,9.953,3.54895,0,0,0,0,0,0,0,-1,1826,1590,9.953,-3.54898
609,-566,0,0,0,0,0,0,0,0,0,-1,1833,1590,0,0
616,-566,0,0,0,0,0,0,0,0,0,-1,1840,1590,0,0
623,-566,0,0,0,0,0,0,0,0,0,-1,1847,1590,0,0
630,-566,0,0,0,0,0,0,0,0,0,-1,1854,1590,0,0
637,-566,0,0,0,0,0,0,0,0,0,-1,1861,1590,0,0
644,-566,0,0,0,0,0,0,0,0,0,-1,1868,1590,0,0
651,-566,0,0,0,0,0,0,0,0,0,-1,1875,1590,0,0
658,-566,0,0,0,0,0,0,0,0,0,-1,1882,1590,0,0
665,-566,0,0,0,0,0,0,0,0,0,-1,1889,1590,0,0
672,-566,0,0,0,0,0,0,0,0,0,-1,1896,1590,0,0
679,-566,0,0,0,0,0,0,0,0,0,-1,1903,1590,0,0
686,-566,0,0,0,0,0,0,0,0,0,-1,1910,1590,0,0
693,-566,0,0,0,0,0,0,0,0,0,-1,1917,1590,0,0
700,-566,0,0,0,0,0,0,0,0,0,-1,1924,1590,0,0
707,-566,0,0,0,0,0,0,0,0,0,-1,1931,1590,0,0
714,-566,0,0,0,0,0,0,0,0,0,-1,1938,1590,0,0
721,-566,0,0,0,0,0,0,0,0,0,-1,1945,1590,0,0
728,-566,0,0,0,0,0,0,0,0,0,-1,1952,1590,0,0
735,-566,0,0,0,0,0,0,0,0,0,-1,1959,1590,0,0
742,-566,0,0,0,0,0,0,0,0,0,-1,1966,1590,0,0
749,-566,0,0,0,0,0,0,0,0,0,-1,1973,1590,0,0
756,-566,0,0,0,0,0,0,0,0,0,-1,1980,1590,0,0
763,-566,0,0,0,0,0,0,0,0,0,-1,1987,1590,0,0
770,-566,0,0,0,0,0,0,0,0,0,-1,1994,1590,0,0
777,-566,0,0,0,0,0,0,0,0,0,-1,2001,1590,0,0
784,-566,0,0,0,0,0,0,0,0,0,-1,2008,1590,0,0
791,-566,0,0,0,0,0,0,0,0,0,-1,2015,1590,0,0
798,-566,0,0,0,0,0,0,0,0,0,-1,2022,1590,0,0
805,-566,0,0,0,0,0,0,0,0,0,-1,2029,1590,0,0
812,-566,0,0,0,0,0,0,0,0,0,-1,2036,1590,0,0
-700,-573,0,0,0,0,0,0,0,0,0,-1,524,1597,0,0
-693,-573,0,0,0,0,0,0,0,0,0,-1,531,1597,0,0
-686,-573,0,0,0,0,0,0,0,0,0,-1,538,1597,0,0
-679,-573,0,0,0,0,0,0,0,0,0,-1,545,1597,0,0
-672,-573,0,0,0,0,0,0,0,0,0,-1,552,1597,0,0
-665,-573,0,0,0,0,0,0,0,0,0,-1,559,1597,0,0
-658,-573,0,0,0,0,0,0,0,0,0,-1,566,1597,0,0
-651,-573,0,0,0,0,0,0,0,0,0,-1,573,1597,0,0
-644,-573,0,0,0,0,0,0,0,0,0,-1,580,1597,0,0
-637,-573,0,0,0,0,0,0,0,0,0,-1,587,1597,0,0
-630,-573,0,0,0,0,0,0,0,0,0,-1,594,1597,0,0
-623,-573,0,0,0,0,0,0,0,0,0,-1,601,1597,0,0
-616,-573,0,0,0,0,0,0,0,0,0,-1,608,1597,0,0
-609,-573,0,0,0,0,0,0,0,0,0,-1,615,1597,0,0
-602,-573,0,0,0,0,0,0,0,0,0,-1,622,1597,0,0
-595,-573,0,0,0,0,0,0,0,0,0,-1,629,1597,0,0
-588,-573,0,0,0,0,0,0,0,0,0,-1,636,1597,0,0
-581,-573,0,0,0,0,0,0,0,0,0,-1,643,1597,0,0
-574,-573,0,0,0,0,0,0,0,0,0,-1,650,1597,0,0
-567,-573,0,0,0,0,0,0,0,0,0,-1,657,1597,0,0
-560,-573,0,0,0,0,0,0,0,0,0,-1,664,1597,0,0
-553,-573,0,0,0,0,0,0,0,0,0,-1,671,1597,0,0
-546,-573,0,0,0,0,0,0,0,0,0,-1,678,1597,0,0
-539,-573,0,0,0,0,0,0,0,0,0,-1,685,1597,0,0
-532,-573,0,0,0,0,0,0,0,0,0,-1,692,1597,0,0
-525,-573,0,0,0,0,0,0,0,0,0,-1,699,1597,0,0
-518,-573,0,0,0,0,0,0,0,0,0,-1,706,1597,0,0
-511,-573,0,0,0,0,0,0,0,0,0,-1,713,1597,0,0
-504,-573,0,0,0,0,0,0,0,0,0,-1,720,1597,0,0
-497,-573,0,0,0,0,0,0,0,0,0,-1,727,1597,0,0
-490,-573,0,0,0,0,0,0,0,0,0,-1,734,1597,0,0
-483,-573,0,0,0,0,0,0,0,0,0,-1,741,1597,0,0
-476,-573,-9.3327,0.972778,0,0,0,0,0,0,0,-1,748,1597,-9.33268,-0.972776
-469,-573,-1.41681,1.13379,0,0,0,0,0,0,0,-1,755,1597,-1.41681,-1.13382
-462,-573,-0.748535,2.02588,0,0,0,0,0,0,0,-1,762,1597,-0.748533,-2.02584
-455,-573,-0.112976,2.70703,0,0,0,0,0,0,0,-1,769,1597,-0.112988,-2.70697
-448,-573,-1.26172,3.33252,0,0,0,0,0,0,0,-1,776,1597,-1.26173,-3.33248
-441,-573,0.108582,5.06726,0,0,0,0,0,0,0,-1,783,1597,0.108584,-5.06721
-434,-573,1.61768,7.05444,0,0,0,0,0,0,0,-1,790,1597,1.61767,-7.05446
-427,-573,-0.425781,16.5232,0,0,0,0,0,0,0,-1,797,1597,-0.425804,-16.5231
-420,-573,1.23413,16.411,0,0,0,0,0,0,0,-1,804,1597,1.23413,-16.411
-413,-573,0.82019,17.2229,0,0,0,0,0,0,0,-1,811,1597,0.820173,-17.2229
-406,-573,0.903137,17.8163,-0.00429366,0.00272496,-0.00015047,0.00272819,-0.00429688,-1.54937,0.00408949,0.0259175,818,1597,0.903165,-17.8163
-399,-573,0.857056,18.3391,-0.00347111,0.00224052,7.17499e-05,0.00224142,-0.00347201,1.55824,0.00332405,0.0119588,825,1597,0.857045,-18.3391
-392,-573,0.858093,18.7886,-0.0026658,0.00167496,0.000390159,0.00170975,-0.00270058,1.48186,0.00256764,0.0117632,832,1597,0.85811,-18.7886
-385,-573,0.839111,19.2202,-0.00186564,0.00138868,0.000474543,0.00145647,-0.00193343,1.42891,0.0019636,0.0143258,839,1597,0.839124,-19.2202
-378,-573,0.806213,19.6511,-0.00108637,0.00159546,0.000484621,0.00168035,-0.00117126,1.39739,0.0016551,0.0156886,846,1597,0.80623,-19.6511
-371,-573,0.803162,20.0925,-0.000390173,0.00184013,0.000401618,0.00191024,-0.00046029,1.39795,0.00145146,0.0164055,853,1597,0.803152,-20.0926
-364,-573,0.789612,20.4929,0.000288796,0.00216668,0.000255975,0.00220095,0.000254529,1.43772,0.00139024,0.0190482,860,1597,0.789604,-20.493
-357,-573,0.776184,20.8872,0.00102352,0.00260212,9.39427e-05,0.00260769,0.00101795,1.51156,0.00151757,0.0225779,867,1597,0.776205,-20.8872
-350,-573,0.797852,21.3407,0.00179708,0.00300103,-7.68931e-05,0.00300592,0.00179219,-1.50727,0.00174615,0.0184675,874,1597,0.797836,-21.3407
-343,-573,0.7901,21.7721,0.00253843,0.00335845,-0.000151747,0.00338563,0.00251125,-1.39356,0.00202942,0.0220013,881,1597,0.790091,-21.7721
-336,-573,0.740112,22.2007,0.00332086,0.00404002,6.3413e-05,0.00404557,0.00331531,1.48352,0.00248959,0.0172592,888,1597,0.740138,-22.2007
-329,-573,0.760254,22.5813,0.0040692,0.0046218,0.000356247,0.00479634,0.00389466,1.11524,0.0029434,0.0180575,895,1597,0.760274,-22.5812
-322,-573,0.765564,23.012,0.00474079,0.00523183,0.000878211,0.0058982,0.00407443,0.921703,0.00348699,0.0155576,902,1597,0.765568,-23.012
-315,-573,0.877991,23.6024,0.00541826,0.00594143,0.00157063,0.00727211,0.00408758,0.867915,0.00420933,0.0350835,909,1597,0.877968,-23.6024
-308,-573,1.1546,24.2305,0,0,0,0,0,0,0,-1,916,1597,1.15462,-24.2304
-301,-573,1.00067,24.4498,0,0,0,0,0,0,0,-1,923,1597,1.00069,-24.4498
-294,-573,1.00702,24.802,0,0,0,0,0,0,0,-1,930,1597,1.00701,-24.802
-287,-573,1.09583,25.6085,0,0,0,0,0,0,0,-1,937,1597,1.09582,-25.6086
-280,-573,1.19684,26.4906,0,0,0,0,0,0,0,-1,944,1597,1.19685,-26.4906
-273,-573,2.24805,25.4375,0,0,0,0,0,0,0,-1,951,1597,2.24803,-25.4374
-266,-573,1.31116,7.1814,0,0,0,0,0,0,0,-1,958,1597,1.31118,-7.18142
-259,-573,1.2514,6.70959,0,0,0,0,0,0,0,-1,965,1597,1.25137,-6.70965
-252,-573,2.07874,5.27161,0,0,0,0,0,0,0,-1,972,1597,2.07875,-5.27157
-245,-573,-10.2592,1.09827,0,0,0,0,0,0,0,-1,979,1597,-10.2592,-1.09823
-238,-573,-11.5463,4.44141,0,0,0,0,0,0,0,-1,986,1597,-11.5463,-4.44146
-231,-573,-9.23431,4.14539,0,0,0,0,0,0,0,-1,993,1597,-9.23431,-4.14534
-224,-573,-6.70044,7.40857,0,0,0,0,0,0,0,-1,1000,1597,-6.70045,-7.40851
-217,-573,-4.25824,8.59119,0,0,0,0,0,0,0,-1,1007,1597,-4.25824,-8.59122
-210,-573,-2.39661,9.73914,0,0,0,0,0,0,0,-1,1014,1597,-2.39658,-9.73915
-203,-573,-0.557373,10.9005,0,0,0,0,0,0,0,-1,1021,1597,-0.557387,-10.9006
-196,-573,-1.65344,9.02246,0,0,0,0,0,0,0,-1,1028,1597,-1.65349,-9.02241
-189,-573,-6.12915,6.66882,0,0,0,0,0,0,0,-1,1035,1597,-6.12913,-6.66884
-182,-573,0,0,0,0,0,0,0,0,0,-1,1042,1597,0,0
-175,-573,0,0,0,0,0,0,0,0,0,-1,1049,1597,0,0
-168,-573,0,0,0,0,0,0,0,0,0,-1,1056,1597,0,0
-161,-573,0,0,0,0,0,0,0,0,0,-1,1063,1597,0,0
-154,-573,0,0,0,0,0,0,0,0,0,-1,1070,1597,0,0
-147,-573,0,0,0,0,0,0,0,0,0,-1,1077,1597,0,0
-140,-573,0,0,0,0,0,0,0,0,0,-1,1084,1597,0,0
-133,-573,0,0,0,0,0,0,0,0,0,-1,1091,1597,0,0
-126,-573,0,0,0,0,0,0,0,0,0,-1,1098,1597,0,0
-119,-573,0,0,0,0,0,0,0,0,0,-1,1105,1597,0,0
-112,-573,0,0,0,0,0,0,0,0,0,-1,1112,1597,0,0
-105,-573,0,0,0,0,0,0,0,0,0,-1,1119,1597,0,0
-98,-573,0,0,0,0,0,0,0,0,0,-1,1126,1597,0,0
-91,-573,0,0,0,0,0,0,0,0,0,-1,1133,1597,0,0
-84,-573,0,0,0,0,0,0,0,0,0,-1,1140,1597,0,0
-77,-573,0,0,0,0,0,0,0,0,0,-1,1147,1597,0,0
-70,-573,0,0,0,0,0,0,0,0,0,-1,1154,1597,0,0
-63,-573,0,0,0,0,0,0,0,0,0,-1,1161,1597,0,0
-56,-573,0,0,0,0,0,0,0,0,0,-1,1168,1597,0,0
-49,-573,0,0,0,0,0,0,0,0,0,-1,1175,1597,0,0
-42,-573,0,0,0,0,0,0,0,0,0,-1,1182,1597,0,0
-35,-573,0,0,0,0,0,0,0,0,0,-1,1189,1597,0,0
-28,-573,0,0,0,0,0,0,0,0,0,-1,1196,1597,0,0
-21,-573,0,0,0,0,0,0,0,0,0,-1,1203,1597,0,0
-14,-573,0,0,0,0,0,0,0,0,0,-1,1210,1597,0,0
-7,-573,0,0,0,0,0,0,0,0,0,-1,1217,1597,0,0
0,-573,0,0,0,0,0,0,0,0,0,-1,1224,1597,0,0
7,-573,0,0,0,0,0,0,0,0,0,-1,1231,1597,0,0
14,-573,0,0,0,0,0,0,0,0,0,-1,1238,1597,0,0
21,-573,0,0,0,0,0,0,0,0,0,-1,1245,1597,0,0
28,-573,0,0,0,0,0,0,0,0,0,-1,1252,1597,0,0
35,-573,0,0,0,0,0,0,0,0,0,-1,1259,1597,0,0
42,-573,0,0,0,0,0,0,0,0,0,-1,1266,1597,0,0
49,-573,0,0,0,0,0,0,0,0,0,-1,1273,1597,0,0
56,-573,0,0,0,0,0,0,0,0,0,-1,1280,1597,0,0
63,-573,0,0,0,0,0,0,0,0,0,-1,1287,1597,0,0
70,-573,0,0,0,0,0,0,0,0,0,-1,1294,1597,0,0
77,-573,0,0,0,0,0,0,0,0,0,-1,1301,1597,0,0
84,-573,0,0,0,0,0,0,0,0,0,-1,1308,1597,0,0
91,-573,0,0,0,0,0,0,0,0,0,-1,1315,1597,0,0
98,-573,0,0,0,0,0,0,0,0,0,-1,1322,1597,0,0
105,-573,0,0,0,0,0,0,0,0,0,-1,1329,1597,0,0
112,-573,0,0,0,0,0,0,0,0,0,-1,1336,1597,0,0
119,-573,0,0,0,0,0,0,0,0,0,-1,1343,1597,0,0
126,-573,0,0,0,0,0,0,0,0,0,-1,1350,1597,0,0
133,-573,0,0,0,0,0,0,0,0,0,-1,1357,1597,0,0
140,-573,0,0,0,0,0,0,0,0,0,-1,1364,1597,0,0
147,-573,0,0,0,0,0,0,0,0,0,-1,1371,1597,0,0
154,-573,0,0,0,0,0,0,0,0,0,-1,1378,1597,0,0
161,-573,0,0,0,0,0,0,0,0,0,-1,1385,1597,0,0
168,-573,0,0,0,0,0,0,0,0,0,-1,1392,1597,0,0
175,-573,0,0,0,0,0,0,0,0,0,-1,1399,1597,0,0
182,-573,0,0,0,0,0,0,0,0,0,-1,1406,1597,0,0
189,-573,0,0,0,0,0,0,0,0,0,-1,1413,1597,0,0
196,-573,0,0,0,0,0,0,0,0,0,-1,1420,1597,0,0
203,-573,0,0,0,0,0,0,0,0,0,-1,1427,1597,0,0
210,-573,0,0,0,0,0,0,0,0,0,-1,1434,1597,0,0
217,-573,0,0,0,0,0,0,0,0,0,-1,1441,1597,0,0
224,-573,0,0,0,0,0,0,0,0,0,-1,1448,1597,0,0
231,-573,0,0,0,0,0,0,0,0,0,-1,1455,1597,0,0
238,-573,0,0,0,0,0,0,0,0,0,-1,1462,1597,0,0
245,-573,0,0,0,0,0,0,0,0,0,-1,1469,1597,0,0
252,-573,0,0,0,0,0,0,0,0,0,-1,1476,1597,0,0
259,-573,0,0,0,0,0,0,0,0,0,-1,1483,1597,0,0
266,-573,0,0,0,0,0,0,0,0,0,-1,1490,1597,0,0
273,-573,0,0,0,0,0,0,0,0,0,-1,1497,1597,0,0
280,-573,0,0,0,0,0,0,0,0,0,-1,1504,1597,0,0
287,-573,0,0,0,0,0,0,0,0,0,-1,1511,1597,0,0
294,-573,0,0,0,0,0,0,0,0,0,-1,1518,1597,0,0
301,-573,0,0,0,0,0,0,0,0,0,-1,1525,1597,0,0
308,-573,5.93042,9.71143,0,0,0,0,0,0,0,-1,1532,1597,5.93046,-9.71144
315,-573,4.34204,11.719,0,0,0,0,0,0,0,-1,1539,1597,4.34205,-11.719
322,-573,10.3269,7.77563,0,0,0,0,0,0,0,-1,1546,1597,10.327,-7.77565
329,-573,4.99573,3.80273,0,0,0,0,0,0,0,-1,1553,1597,4.9957,-3.80273
336,-573,4.85693,2.53455,0,0,0,0,0,0,0,-1,1560,1597,4.8569,-2.53459
343,-573,5.5946,2.15894,0,0,0,0,0,0,0,-1,1567,1597,5.59456,-2.1589
350,-573,2.53748,1.56433,0,0,0,0,0,0,0,-1,1574,1597,2.53753,-1.5643
357,-573,7.40247,4.03613,0,0,0,0,0,0,0,-1,1581,1597,7.40244,-4.03614
364,-573,7.14551,3.02087,0,0,0,0,0,0,0,-1,1588,1597,7.14556,-3.02084
371,-573,6.88867,2.00549,0,0,0,0,0,0,0,-1,1595,1597,6.88868,-2.00553
378,-573,8.62012,6.09106,0,0,0,0,0,0,0,-1,1602,1597,8.62012,-6.09103
385,-573,6.54346,-0.951904,0,0,0,0,0,0,0,-1,1609,1597,6.54349,0.951901
392,-573,6.41833,-2.18225,0,0,0,0,0,0,0,-1,1616,1597,6.41831,2.18228
399,-573,4.26282,4.73657,0,0,0,0,0,0,0,-1,1623,1597,4.26285,-4.73652
406,-573,6.82715,10.823,0,0,0,0,0,0,0,-1,1630,1597,6.82719,-10.823
413,-573,8.90552,13.1737,0,0,0,0,0,0,0,-1,1637,1597,8.90553,-13.1737
420,-573,13.7928,23.4659,0,0,0,0,0,0,0,-1,1644,1597,13.7928,-23.466
427,-573,14.465,25.6603,0,0,0,0,0,0,0,-1,1651,1597,14.4649,-25.6602
434,-573,13.6283,25.4196,0,0,0,0,0,0,0,-1,1658,1597,13.6284,-25.4196
441,-573,13.963,24.8088,0.00367948,0.0138454,-0.00494974,0.0158573,0.00166764,-1.18474,0.0100618,0.0494471,1665,1597,13.963,-24.8089
448,-573,13.7156,24.4772,0.00316667,0.0131304,-0.00438292,0.0147839,0.0015131,-1.21003,0.00939231,0.0397627,1672,1597,13.7156,-24.4771
455,-573,13.6532,23.932,0.00256906,0.0123428,-0.00356184,0.0135031,0.00140877,-1.25588,0.00857117,0.0279184,1679,1597,13.6532,-23.932
462,-573,13.701,23.4032,0.00223723,0.011168,-0.00321224,0.0122033,0.00120188,-1.25899,0.007766,0.0209109,1686,1597,13.7011,-23.4031
469,-573,13.7129,23.0397,0.00206935,0.00929938,-0.00303912,0.0104071,0.00096159,-1.22126,0.00664081,0.0154775,1693,1597,13.7128,-23.0396
476,-573,13.7228,22.6509,0.00184383,0.00729516,-0.00264217,0.00836559,0.000773398,-1.18587,0.00533797,0.0146604,1700,1597,13.7228,-22.6508
483,-573,13.7191,22.2705,0.00151408,0.00552052,-0.0021478,0.0064543,0.000580306,-1.16069,0.00412306,0.0122674,1707,1597,13.7192,-22.2706
490,-573,13.7079,21.895,0.00122788,0.00395449,-0.00165038,0.00473182,0.000450539,-1.13061,0.00301561,0.0125681,1714,1597,13.7079,-21.8951
497,-573,13.7261,21.5095,0.0010839,0.00261061,-0.00133237,0.00338281,0.000311706,-1.04554,0.00215882,0.0192842,1721,1597,13.7261,-21.5095
504,-573,13.7172,21.1071,0.000899474,0.00151422,-0.000861509,0.00212155,0.000292148,-0.956752,0.00132774,0.0187135,1728,1597,13.7172,-21.107
511,-573,13.7153,20.6771,0.000701233,0.000368096,-0.000235265,0.000822926,0.000246403,-0.477359,0.000487693,0.0194735,1735,1597,13.7153,-20.6771
518,-573,13.6693,20.2996,0.000673066,-0.000611128,0.000274834,0.000729412,-0.000667474,0.202215,0.000806756,0.0149344,1742,1597,13.6693,-20.2995
525,-573,13.6512,19.9191,0.000842007,-0.00162552,0.000806545,0.00108225,-0.00186576,0.289496,0.00172195,0.017707,1749,1597,13.6513,-19.9191
532,-573,13.6531,19.5049,0.00120313,-0.00282497,0.00145901,0.00167607,-0.00329791,0.313464,0.00292217,0.0159845,1756,1597,13.6531,-19.5049
539,-573,13.6332,19.0825,0.00161294,-0.00438594,0.0023756,0.00243974,-0.00521274,0.334926,0.00451382,0.0228328,1763,1597,13.6332,-19.0826
546,-573,13.6511,18.7388,0.00205496,-0.00651735,0.00362809,0.00338434,-0.00784672,0.35122,0.00665268,0.0410181,1770,1597,13.6512,-18.7388
553,-573,13.8342,18.4696,0,0,0,0,0,0,0,-1,1777,1597,13.8342,-18.4696
560,-573,13.2074,18.7369,0,0,0,0,0,0,0,-1,1784,1597,13.2074,-18.7369
567,-573,11.6273,18.1356,0,0,0,0,0,0,0,-1,1791,1597,11.6274,-18.1356
574,-573,0.83374,5.7041,0,0,0,0,0,0,0,-1,1798,1597,0.833718,-5.70405
581,-573,-0.224854,7.41602,0,0,0,0,0,0,0,-1,1805,1597,-0.224904,-7.41596
588,-573,-0.134033,7.67065,0,0,0,0,0,0,0,-1,1812,1597,-0.134037,-7.67063
595,-573,-0.0825195,8.35083,0,0,0,0,0,0,0,-1,1819,1597,-0.0824684,-8.35088
602,-573,0,0,0,0,0,0,0,0,0,-1,1826,1597,0,0
609,-573,0,0,0,0,0,0,0,0,0,-1,1833,1597,0,0
616,-573,0,0,0,0,0,0,0,0,0,-1,1840,1597,0,0
623,-573,0,0,0,0,0,0,0,0,0,-1,1847,1597,0,0
630,-573,0,0,0,0,0,0,0,0,0,-1,1854,1597,0,0
637,-573,0,0,0,0,0,0,0,0,0,-1,1861,1597,0,0
644,-573,0,0,0,0,0,0,0,0,0,-1,1868,1597,0,0
651,-573,0,0,0,0,0,0,0,0,0,-1,1875,1597,0,0
658,-573,0,0,0,0,0,0,0,0,0,-1,1882,1597,0,0
665,-573,0,0,0,0,0,0,0,0,0,-1,1889,1597,0,0
672,-573,0,0,0,0,0,0,0,0,0,-1,1896,1597,0,0
679,-573,0,0,0,0,0,0,0,0,0,-1,1903,1597,0,0
686,-573,0,0,0,0,0,0,0,0,0,-1,1910,1597,0,0
693,-573,0,0,0,0,0,0,0,0,0,-1,1917,1597,0,0
700,-573,0,0,0,0,0,0,0,0,0,-1,1924,1597,0,0
707,-573,0,0,0,0,0,0,0,0,0,-1,1931,1597,0,0
714,-573,0,0,0,0,0,0,0,0,0,-1,1938,1597,0,0
721,-573,0,0,0,0,0,0,0,0,0,-1,1945,1597,0,0
728,-573,0,0,0,0,0,0,0,0,0,-1,1952,1597,0,0
735,-573,0,0,0,0,0,0,0,0,0,-1,1959,1597,0,0
742,-573,0,0,0,0,0,0,0,0,0,-1,1966,1597,0,0
749,-573,0,0,0,0,0,0,0,0,0,-1,1973,1597,0,0
756,-573,0,0,0,0,0,0,0,0,0,-1,1980,1597,0,0
763,-573,0,0,0,0,0,0,0,0,0,-1,1987,1597,0,0
770,-573,0,0,0,0,0,0,0,0,0,-1,1994,1597,0,0
777,-573,0,0,0,0,0,0,0,0,0,-1,2001,1597,0,0
784,-573,0,0,0,0,0,0,0,0,0,-1,2008,1597,0,0
791,-573,0,0,0,0,0,0,0,0,0,-1,2015,1597,0,0
798,-573,0,0,0,0,0,0,0,0,0,-1,2022,1597,0,0
805,-573,0,0,0,0,0,0,0,0,0,-1,2029,1597,0,0
812,-573,0,0,0,0,0,0,0,0,0,-1,2036,1597,0,0
-700,-580,0,0,0,0,0,0,0,0,0,-1,524,1604,0,0
-693,-580,0,0,0,0,0,0,0,0,0,-1,531,1604,0,0
-686,-580,0,0,0,0,0,0,0,0,0,-1,538,1604,0,0
-679,-580,0,0,0,0,0,0,0,0,0,-1,545,1604,0,0
-672,-580,0,0,0,0,0,0,0,0,0,-1,552,1604,0,0
-665,-580,0,0,0,0,0,0,0,0,0,-1,559,1604,0,0
-658,-580,0,0,0,0,0,0,0,0,0,-1,566,1604,0,0
-651,-580,0,0,0,0,0,0,0,0,0,-1,573,1604,0,0
-644,-580,0,0,0,0,0,0,0,0,0,-1,580,1604,0,0
-637,-580,0,0,0,0,0,0,0,0,0,-1,587,1604,0,0
-630,-580,0,0,0,0,0,0,0,0,0,-1,594,1604,0,0
-623,-580,0,0,0,0,0,0,0,0,0,-1,601,1604,0,0
-616,-580,0,0,0,0,0,0,0,0,0,-1,608,1604,0,0
-609,-580,0,0,0,0,0,0,0,0,0,-1,615,1604,0,0
-602,-580,0,0,0,0,0,0,0,0,0,-1,622,1604,0,0
-595,-580,0,0,0,0,0,0,0,0,0,-1,629,1604,0,0
-588,-580,0,0,0,0,0,0,0,0,0,-1,636,1604,0,0
-581,-580,0,0,0,0,0,0,0,0,0,-1,643,1604,0,0
-574,-580,0,0,0,0,0,0,0,0,0,-1,650,1604,0,0
-567,-580,0,0,0,0,0,0,0,0,0,-1,657,1604,0,0
-560,-580,0,0,0,0,0,0,0,0,0,-1,664,1604,0,0
-553,-580,0,0,0,0,0,0,0,0,0,-1,671,1604,0,0
-546,-580,0,0,0,0,0,0,0,0,0,-1,678,1604,0,0
-539,-580,0,0,0,0,0,0,0,0,0,-1,685,1604,0,0
-532,-580,0,0,0,0,0,0,0,0,0,-1,692,1604,0,0
-525,-580,0,0,0,0,0,0,0,0,0,-1,699,1604,0,0
-518,-580,0,0,0,0,0,0,0,0,0,-1,706,1604,0,0
-511,-580,0,0,0,0,0,0,0,0,0,-1,713,1604,0,0
-504,-580,0,0,0,0,0,0,0,0,0,-1,720,1604,0,0
-497,-580,0,0,0,0,0,0,0,0,0,-1,727,1604,0,0
-490,-580,0,0,0,0,0,0,0,0,0,-1,734,1604,0,0
-483,-580,0,0,0,0,0,0,0,0,0,-1,741,1604,0,0
-476,-580,0,0,0,0,0,0,0,0,0,-1,748,1604,0,0
-469,-580,-1.69189,-0.38916,0,0,0,0,0,0,0,-1,755,1604,-1.69192,0.389188
-462,-580,-0.859863,0.675293,0,0,0,0,0,0,0,-1,762,1604,-0.859834,-0.675245
-455,-580,-0.730164,0.651978,0,0,0,0,0,0,0,-1,769,1604,-0.730153,-0.651957
-448,-580,-3.31891,2.07544,0,0,0,0,0,0,0,-1,776,1604,-3.3189,-2.07539
-441,-580,-1.63843,3.9469,0,0,0,0,0,0,0,-1,783,1604,-1.63842,-3.94695
-434,-580,0.23291,5.97876,0,0,0,0,0,0,0,-1,790,1604,0.232901,-5.97878
-427,-580,1.62756,8.05493,0,0,0,0,0,0,0,-1,797,1604,1.62758,-8.05488
-420,-580,0.986572,11.2383,0,0,0,0,0,0,0,-1,804,1604,0.986544,-11.2382
-413,-580,1.45398,16.9237,0,0,0,0,0,0,0,-1,811,1604,1.45398,-16.9238
-406,-580,1.36041,17.8398,0,0,0,0,0,0,0,-1,818,1604,1.36041,-17.8398
-399,-580,1.33594,18.342,-0.00460373,0.00298027,0.000273475,0.00299011,-0.00461358,1.5348,0.00442322,0.0271544,825,1604,1.33596,-18.342
-392,-580,1.29242,18.8175,-0.00364354,0.00196139,0.000583476,0.00202149,-0.00370364,1.46816,0.00335262,0.0151452,832,1604,1.2924,-18.8175
-385,-580,1.27209,19.2371,-0.0027797,0.00144172,0.00069327,0.00155266,-0.00289064,1.41212,0.00260382,0.0122771,839,1604,1.2721,-19.237
-378,-580,1.24188,19.6566,-0.00197459,0.00137188,0.000673745,0.00150243,-0.00210515,1.3794,0.0020925,0.0156567,846,1604,1.24187,-19.6566
-371,-580,1.21423,20.1132,-0.00123019,0.00140517,0.000592386,0.00153221,-0.00135722,1.35955,0.00166923,0.0143742,853,1604,1.21424,-20.1132
-364,-580,1.21899,20.5258,-0.000540877,0.00155971,0.000474495,0.00166192,-0.000643086,1.35863,0.00137344,0.020137,860,1604,1.21898,-20.5258
-357,-580,1.22235,20.9279,0.000189847,0.00183444,0.000362728,0.00191088,0.000113399,1.36308,0.00123786,0.0135408,867,1604,1.22236,-20.9279
-350,-580,1.22552,21.3893,0.000945785,0.00209983,0.000254069,0.00215328,0.000892327,1.36341,0.00124926,0.010904,874,1604,1.22555,-21.3893
-343,-580,1.20197,21.8021,0.00166287,0.00235857,0.000259829,0.0024449,0.00157654,1.25002,0.00143116,0.0120719,881,1604,1.20194,-21.8021
-336,-580,1.16901,22.1656,0.00239526,0.00290914,0.000492247,0.00320747,0.00209693,1.02593,0.0018808,0.0208384,888,1604,1.16901,-22.1657
-329,-580,1.19342,22.5989,0.00309498,0.00339986,0.000785224,0.0040473,0.00244754,0.881273,0.00235374,0.0186223,895,1604,1.19342,-22.5989
-322,-580,1.19391,23.0388,0.00369444,0.00400636,0.00128517,0.005145,0.0025558,0.84578,0.00297049,0.0200775,902,1604,1.19389,-23.0389
-315,-580,1.21173,23.4154,0.00426773,0.00462411,0.00187409,0.00632846,0.00256337,0.832796,0.00367563,0.0198807,909,1604,1.21175,-23.4154
-308,-580,1.26447,23.9346,0.00489834,0.00521733,0.00262628,0.00768895,0.00242672,0.815727,0.00453872,0.0290979,916,1604,1.26449,-23.9345
-301,-580,1.34222,24.2206,0.00556395,0.00562074,0.00367377,0.00926623,0.00191846,0.789262,0.00564767,0.0277134,923,1604,1.34222,-24.2206
-294,-580,1.24182,24.5366,0.00624271,0.00603532,0.00506658,0.0112067,0.00107137,0.775166,0.00714082,0.0328086,930,1604,1.24184,-24.5367
-287,-580,1.28595,25.2925,0.00689845,0.00620771,0.00705994,0.0136215,-0.000515304,0.760958,0.00925753,0.0460545,937,1604,1.28592,-25.2925
-280,-580,1.43347,26.1888,0,0,0,0,0,0,0,-1,944,1604,1.43345,-26.1888
-273,-580,1.60565,27.0695,0,0,0,0,0,0,0,-1,951,1604,1.60563,-27.0695
-266,-580,1.71777,25.6515,0,0,0,0,0,0,0,-1,958,1604,1.71775,-25.6515
-259,-580,1.31091,9.11536,0,0,0,0,0,0,0,-1,965,1604,1.31092,-9.11539
-252,-580,1.07629,7.74097,0,0,0,0,0,0,0,-1,972,1604,1.07627,-7.74101
-245,-580,3.80304,9.16028,0,0,0,0,0,0,0,-1,979,1604,3.80306,-9.16034
-238,-580,-10.3588,1.57556,0,0,0,0,0,0,0,-1,986,1604,-10.3588,-1.5755
-231,-580,-10.576,6.43787,0,0,0,0,0,0,0,-1,993,1604,-10.576,-6.43783
-224,-580,-8.27435,7.58972,0,0,0,0,0,0,0,-1,1000,1604,-8.27435,-7.5897
-217,-580,-5.85632,9.51221,0,0,0,0,0,0,0,-1,1007,1604,-5.85632,-9.5122
-210,-580,-3.6684,11.1569,0,0,0,0,0,0,0,-1,1014,1604,-3.66839,-11.1569
-203,-580,-1.92474,12.7845,0,0,0,0,0,0,0,-1,1021,1604,-1.92477,-12.7845
-196,-580,-2.28552,10.3289,0,0,0,0,0,0,0,-1,1028,1604,-2.28552,-10.3288
-189,-580,-4.58252,7.59058,0,0,0,0,0,0,0,-1,1035,1604,-4.58256,-7.59057
-182,-580,-5.45874,7.65942,0,0,0,0,0,0,0,-1,1042,1604,-5.45876,-7.65939
-175,-580,-6.38977,7.55005,0,0,0,0,0,0,0,-1,1049,1604,-6.38981,-7.5501
-168,-580,0,0,0,0,0,0,0,0,0,-1,1056,1604,0,0
-161,-580,0,0,0,0,0,0,0,0,0,-1,1063,1604,0,0
-154,-580,0,0,0,0,0,0,0,0,0,-1,1070,1604,0,0
-147,-580,0,0,0,0,0,0,0,0,0,-1,1077,1604,0,0
-140,-580,0,0,0,0,0,0,0,0,0,-1,1084,1604,0,0
-133,-580,0,0,0,0,0,0,0,0,0,-1,1091,1604,0,0
-126,-580,0,0,0,0,0,0,0,0,0,-1,1098,1604,0,0
-119,-580,0,0,0,0,0,0,0,0,0,-1,1105,1604,0,0
-112,-580,0,0,0,0,0,0,0,0,0,-1,1112,1604,0,0
-105,-580,0,0,0,0,0,0,0,0,0,-1,1119,1604,0,0
-98,-580,0,0,0,0,0,0,0,0,0,-1,1126,1604,0,0
-91,-580,0,0,0,0,0,0,0,0,0,-1,1133,1604,0,0
-84,-580,0,0,0,0,0,0,0,0,0,-1,1140,1604,0,0
-77,-580,0,0,0,0,0,0,0,0,0,-1,1147,1604,0,0
-70,-580,0,0,0,0,0,0,0,0,0,-1,1154,1604,0,0
-63,-580,0,0,0,0,0,0,0,0,0,-1,1161,1604,0,0
-56,-580,0,0,0,0,0,0,0,0,0,-1,1168,1604,0,0
-49,-580,0,0,0,0,0,0,0,0,0,-1,1175,1604,0,0
-42,-580,0,0,0,0,0,0,0,0,0,-1,1182,1604,0,0
-35,-580,0,0,0,0,0,0,0,0,0,-1,1189,1604,0,0
-28,-580,0,0,0,0,0,0,0,0,0,-1,1196,1604,0,0
-21,-580,0,0,0,0,0,0,0,0,0,-1,1203,1604,0,0
-14,-580,0,0,0,0,0,0,0,0,0,-1,1210,1604,0,0
-7,-580,0,0,0,0,0,0,0,0,0,-1,1217,1604,0,0
0,-580,0,0,0,0,0,0,0,0,0,-1,1224,1604,0,0
7,-580,0,0,0,0,0,0,0,0,0,-1,1231,1604,0,0
14,-580,0,0,0,0,0,0,0,0,0,-1,1238,1604,0,0
21,-580,0,0,0,0,0,0,0,0,0,-1,1245,1604,0,0
28,-580,0,0,0,0,0,0,0,0,0,-1,1252,1604,0,0
35,-580,0,0,0,0,0,0,0,0,0,-1,1259,1604,0,0
42,-580,0,0,0,0,0,0,0,0,0,-1,1266,1604,0,0
49,-580,0,0,0,0,0,0,0,0,0,-1,1273,1604,0,0
56,-580,0,0,0,0,0,0,0,0,0,-1,1280,1604,0,0
63,-580,0,0,0,0,0,0,0,0,0,-1,1287,1604,0,0
70,-580,0,0,0,0,0,0,0,0,0,-1,1294,1604,0,0
77,-580,0,0,0,0,0,0,0,0,0,-1,1301,1604,0,0
84,-580,0,0,0,0,0,0,0,0,0,-1,1308,1604,0,0
91,-580,0,0,0,0,0,0,0,0,0,-1,1315,1604,0,0
98,-580,0,0,0,0,0,0,0,0,0,-1,1322,1604,0,0
105,-580,0,0,0,0,0,0,0,0,0,-1,1329,1604,0,0
112,-580,0,0,0,0,0,0,0,0,0,-1,1336,1604,0,0
119,-580,0,0,0,0,0,0,0,0,0,-1,1343,1604,0,0
126,-580,0,0,0,0,0,0,0,0,0,-1,1350,1604,0,0
133,-580,0,0,0,0,0,0,0,0,0,-1,1357,1604,0,0
140,-580,0,0,0,0,0,0,0,0,0,-1,1364,1604,0,0
147,-580,0,0,0,0,0,0,0,0,0,-1,1371,1604,0,0
154,-580,0,0,0,0,0,0,0,0,0,-1,1378,1604,0,0
161,-580,0,0,0,0,0,0,0,0,0,-1,1385,1604,0,0
168,-580,0,0,0,0,0,0,0,0,0,-1,1392,1604,0,0
175,-580,0,0,0,0,0,0,0,0,0,-1,1399,1604,0,0
182,-580,0,0,0,0,0,0,0,0,0,-1,1406,1604,0,0
189,-580,0,0,0,0,0,0,0,0,0,-1,1413,1604,0,0
196,-580,0,0,0,0,0,0,0,0,0,-1,1420,1604,0,0
203,-580,0,0,0,0,0,0,0,0,0,-1,1427,1604,0,0
210,-580,0,0,0,0,0,0,0,0,0,-1,1434,1604,0,0
217,-580,0,0,0,0,0,0,0,0,0,-1,1441,1604,0,0
224,-580,0,0,0,0,0,0,0,0,0,-1,1448,1604,0,0
231,-580,0,0,0,0,0,0,0,0,0,-1,1455,1604,0,0
238,-580,0,0,0,0,0,0,0,0,0,-1,1462,1604,0,0
245,-580,0,0,0,0,0,0,0,0,0,-1,1469,1604,0,0
252,-580,0,0,0,0,0,0,0,0,0,-1,1476,1604,0,0
259,-580,0,0,0,0,0,0,0,0,0,-1,1483,1604,0,0
266,-580,0,0,0,0,0,0,0,0,0,-1,1490,1604,0,0
273,-580,0,0,0,0,0,0,0,0,0,-1,1497,1604,0,0
280,-580,0,0,0,0,0,0,0,0,0,-1,1504,1604,0,0
287,-580,0,0,0,0,0,0,0,0,0,-1,1511,1604,0,0
294,-580,4.0437,0.177368,0,0,0,0,0,0,0,-1,1518,1604,4.04369,-0.177371
301,-580,7.55164,8.05798,0,0,0,0,0,0,0,-1,1525,1604,7.55158,-8.05802
308,-580,5.9126,9.99341,0,0,0,0,0,0,0,-1,1532,1604,5.91255,-9.99337
315,-580,4.27356,11.9287,0,0,0,0,0,0,0,-1,1539,1604,4.27352,-11.9287
322,-580,10.2366,7.50281,0,0,0,0,0,0,0,-1,1546,1604,10.2366,-7.50282
329,-580,10.5962,8.69641,0,0,0,0,0,0,0,-1,1553,1604,10.5962,-8.69642
336,-580,3.66431,1.58862,0,0,0,0,0,0,0,-1,1560,1604,3.6643,-1.58864
343,-580,3.32227,1.39636,0,0,0,0,0,0,0,-1,1567,1604,3.32222,-1.39633
350,-580,8.71277,4.0564,0,0,0,0,0,0,0,-1,1574,1604,8.71271,-4.05638
357,-580,8.52332,3.08154,0,0,0,0,0,0,0,-1,1581,1604,8.52332,-3.08157
364,-580,8.25818,2.07605,0,0,0,0,0,0,0,-1,1588,1604,8.25812,-2.07608
371,-580,7.42114,7.14282,0,0,0,0,0,0,0,-1,1595,1604,7.42119,-7.14281
378,-580,7.9718,6.6731,0,0,0,0,0,0,0,-1,1602,1604,7.9718,-6.67307
385,-580,8.52246,6.20337,0,0,0,0,0,0,0,-1,1609,1604,8.52241,-6.20334
392,-580,11.9287,23.7726,0,0,0,0,0,0,0,-1,1616,1604,11.9287,-23.7725
399,-580,12.5529,26.4512,0,0,0,0,0,0,0,-1,1623,1604,12.5528,-26.4512
406,-580,12.8792,25.8265,0,0,0,0,0,0,0,-1,1630,1604,12.8792,-25.8266
413,-580,13.4022,25.6857,0,0,0,0,0,0,0,-1,1637,1604,13.4022,-25.6856
420,-580,13.2467,25.7825,0,0,0,0,0,0,0,-1,1644,1604,13.2467,-25.7824
427,-580,13.4279,25.5659,0,0,0,0,0,0,0,-1,1651,1604,13.4279,-25.566
434,-580,13.3215,25.0747,0.00376091,0.0102961,-0.00432177,0.0124465,0.00161049,-1.10909,0.00781636,0.0308196,1658,1604,13.3216,-25.0747
441,-580,13.2418,24.573,0.00300011,0.010177,-0.00361855,0.0116847,0.0014924,-1.17601,0.00734307,0.0166016,1665,1604,13.2418,-24.573
448,-580,13.3069,24.1575,0.00247117,0.00971265,-0.00318438,0.0109137,0.00127008,-1.21011,0.00689159,0.0146961,1672,1604,13.3069,-24.1575
455,-580,13.3684,23.8013,0.00190576,0.00919119,-0.00255668,0.00999887,0.00109809,-1.26481,0.0063317,0.0195922,1679,1604,13.3684,-23.8013
462,-580,13.3215,23.3975,0.00156084,0.00834143,-0.00231509,0.00905646,0.000845807,-1.27123,0.00577638,0.0234083,1686,1604,13.3215,-23.3974
469,-580,13.3314,23.0179,0.00136808,0.0069541,-0.00224332,0.00774347,0.00057872,-1.23245,0.00498062,0.0211624,1693,1604,13.3314,-23.018
476,-580,13.3364,22.6367,0.00116175,0.00539604,-0.00195973,0.00616383,0.000393965,-1.19739,0.0039844,0.0155186,1700,1604,13.3364,-22.6367
483,-580,13.3162,22.2629,0.000918029,0.00405874,-0.00161682,0.00474229,0.000234475,-1.17081,0.00308634,0.0129105,1707,1604,13.3161,-22.2629
490,-580,13.2892,21.9235,0.000686,0.00279723,-0.00123327,0.00336497,0.000118264,-1.13937,0.00220495,0.0165349,1714,1604,13.2892,-21.9235
497,-580,13.2777,21.5356,0.000576459,0.00173019,-0.000976114,0.00228715,1.94934e-05,-1.05228,0.00151831,0.0135933,1721,1604,13.2777,-21.5356
504,-580,13.2683,21.1094,0.000464657,0.000875816,-0.000586252,0.00129149,4.89844e-05,-0.954033,0.000845138,0.017589,1728,1604,13.2683,-21.1094
511,-580,13.2711,20.7145,0.000365486,-0.0001303,-2.24095e-05,0.000366497,-0.000131311,-0.0450774,0.00029791,0.0182908,1735,1604,13.2712,-20.7145
518,-580,13.2649,20.313,0.000483971,-0.000928728,0.000399012,0.00058888,-0.00103364,0.257103,0.00094842,0.0171973,1742,1604,13.2649,-20.313
525,-580,13.2294,19.931,0.000838404,-0.00181359,0.000860924,0.00109337,-0.00206856,0.28793,0.00185426,0.0179402,1749,1604,13.2294,-19.931
532,-580,13.2365,19.5527,0.00135636,-0.00300119,0.00152116,0.00183483,-0.00347967,0.304749,0.00311693,0.0195122,1756,1604,13.2364,-19.5527
539,-580,13.265,19.236,0.00185638,-0.00469762,0.00259324,0.00275834,-0.00559957,0.334721,0.0049175,0.0315024,1763,1604,13.265,-19.2359
546,-580,13.5284,18.7706,0,0,0,0,0,0,0,-1,1770,1604,13.5284,-18.7706
553,-580,11.7383,18.7018,0,0,0,0,0,0,0,-1,1777,1604,11.7383,-18.7018
560,-580,10.9452,18.1364,0,0,0,0,0,0,0,-1,1784,1604,10.9452,-18.1363
567,-580,3.87708,4.0647,0,0,0,0,0,0,0,-1,1791,1604,3.87711,-4.06471
574,-580,2.31653,5.62952,0,0,0,0,0,0,0,-1,1798,1604,2.31654,-5.62947
581,-580,1.60876,6.67664,0,0,0,0,0,0,0,-1,1805,1604,1.60873,-6.67667
588,-580,1.38684,7.14441,0,0,0,0,0,0,0,-1,1812,1604,1.38689,-7.14443
595,-580,0,0,0,0,0,0,0,0,0,-1,1819,1604,0,0
602,-580,0,0,0,0,0,0,0,0,0,-1,1826,1604,0,0
609,-580,0,0,0,0,0,0,0,0,0,-1,1833,1604,0,0
616,-580,0,0,0,0,0,0,0,0,0,-1,1840,1604,0,0
623,-580,0,0,0,0,0,0,0,0,0,-1,1847,1604,0,0
630,-580,0,0,0,0,0,0,0,0,0,-1,1854,1604,0,0
637,-580,0,0,0,0,0,0,0,0,0,-1,1861,1604,0,0
644,-580,0,0,0,0,0,0,0,0,0,-1,1868,1604,0,0
651,-580,0,0,0,0,0,0,0,0,0,-1,1875,1604,0,0
658,-580,0,0,0,0,0,0,0,0,0,-1,1882,1604,0,0
665,-580,0,0,0,0,0,0,0,0,0,-1,1889,1604,0,0
672,-580,0,0,0,0,0,0,0,0,0,-1,1896,1604,0,0
679,-580,0,0,0,0,0,0,0,0,0,-1,1903,1604,0,0
686,-580,0,0,0,0,0,0,0,0,0,-1,1910,1604,0,0
693,-580,0,0,0,0,0,0,0,0,0,-1,1917,1604,0,0
700,-580,0,0,0,0,0,0,0,0,0,-1,1924,1604,0,0
707,-580,0,0,0,0,0,0,0,0,0,-1,1931,1604,0,0
714,-580,0,0,0,0,0,0,0,0,0,-1,1938,1604,0,0
721,-580,0,0,0,0,0,0,0,0,0,-1,1945,1604,0,0
728,-580,0,0,0,0,0,0,0,0,0,-1,1952,1604,0,0
735,-580,0,0,0,0,0,0,0,0,0,-1,1959,1604,0,0
742,-580,0,0,0,0,0,0,0,0,0,-1,1966,1604,0,0
749,-580,0,0,0,0,0,0,0,0,0,-1,1973,1604,0,0
756,-580,0,0,0,0,0,0,0,0,0,-1,1980,1604,0,0
763,-580,0,0,0,0,0,0,0,0,0,-1,1987,1604,0,0
770,-580,0,0,0,0,0,0,0,0,0,-1,1994,1604,0,0
777,-580,0,0,0,0,0,0,0,0,0,-1,2001,1604,0,0
784,-580,0,0,0,0,0,0,0,0,0,-1,2008,1604,0,0
791,-580,0,0,0,0,0,0,0,0,0,-1,2015,1604,0,0
798,-580,0,0,0,0,0,0,0,0,0,-1,2022,1604,0,0
805,-580,0,0,0,0,0,0,0,0,0,-1,2029,1604,0,0
812,-580,0,0,0,0,0,0,0,0,0,-1,2036,1604,0,0
-700,-587,0,0,0,0,0,0,0,0,0,-1,524,1611,0,0
-693,-587,0,0,0,0,0,0,0,0,0,-1,531,1611,0,0
-686,-587,0,0,0,0,0,0,0,0,0,-1,538,1611,0,0
-679,-587,0,0,0,0,0,0,0,0,0,-1,545,1611,0,0
-672,-587,0,0,0,0,0,0,0,0,0,-1,552,1611,0,0
-665,-587,0,0,0,0,0,0,0,0,0,-1,559,1611,0,0
-658,-587,0,0,0,0,0,0,0,0,0,-1,566,1611,0,0
-651,-587,0,0,0,0,0,0,0,0,0,-1,573,1611,0,0
-644,-587,0,0,0,0,0,0,0,0,0,-1,580,1611,0,0
-637,-587,0,0,0,0,0,0,0,0,0,-1,587,1611,0,0
-630,-587,0,0,0,0,0,0,0,0,0,-1,594,1611,0,0
-623,-587,0,0,0,0,0,0,0,0,0,-1,601,1611,0,0
-616,-587,0,0,0,0,0,0,0,0,0,-1,608,1611,0,0
-609,-587,0,0,0,0,0,0,0,0,0,-1,615,1611,0,0
-602,-587,0,0,0,0,0,0,0,0,0,-1,622,1611,0,0
-595,-587,0,0,0,0,0,0,0,0,0,-1,629,1611,0,0
-588,-587,0,0,0,0,0,0,0,0,0,-1,636,1611,0,0
-581,-587,0,0,0,0,0,0,0,0,0,-1,643,1611,0,0
-574,-587,0,0,0,0,0,0,0,0,0,-1,650,1611,0,0
-567,-587,0,0,0,0,0,0,0,0,0,-1,657,1611,0,0
-560,-587,0,0,0,0,0,0,0,0,0,-1,664,1611,0,0
-553,-587,0,0,0,0,0,0,0,0,0,-1,671,1611,0,0
-546,-587,0,0,0,0,0,0,0,0,0,-1,678,1611,0,0
-539,-587,0,0,0,0,0,0,0,0,0,-1,685,1611,0,0
-532,-587,0,0,0,0,0,0,0,0,0,-1,692,1611,0,0
-525,-587,0,0,0,0,0,0,0,0,0,-1,699,1611,0,0
-518,-587,0,0,0,0,0,0,0,0,0,-1,706,1611,0,0
-511,-587,0,0,0,0,0,0,0,0,0,-1,713,1611,0,0
-504,-587,0,0,0,0,0,0,0,0,0,-1,720,1611,0,0
-497,-587,0,0,0,0,0,0,0,0,0,-1,727,1611,0,0
-490,-587,0,0,0,0,0,0,0,0,0,-1,734,1611,0,0
-483,-587,0,0,0,0,0,0,0,0,0,-1,741,1611,0,0
-476,-587,0,0,0,0,0,0,0,0,0,-1,748,1611,0,0
-469,-587,0,0,0,0,0,0,0,0,0,-1,755,1611,0,0
-462,-587,-0.714355,-0.418457,0,0,0,0,0,0,0,-1,762,1611,-0.714359,0.418483
-455,-587,-0.619812,-0.522461,0,0,0,0,0,0,0,-1,769,1611,-0.619802,0.522515
-448,-587,-0.461731,-0.686523,0,0,0,0,0,0,0,-1,776,1611,-0.461739,0.686559
-441,-587,-3.56555,2.72253,0,0,0,0,0,0,0,-1,783,1611,-3.56555,-2.72259
-434,-587,-1.77319,4.76318,0,0,0,0,0,0,0,-1,790,1611,-1.77318,-4.76323
-427,-587,0.0346069,6.92944,0,0,0,0,0,0,0,-1,797,1611,0.034587,-6.92941
-420,-587,-0.647156,10.1157,0,0,0,0,0,0,0,-1,804,1611,-0.647128,-10.1158
-413,-587,2.13971,10.3901,0,0,0,0,0,0,0,-1,811,1611,2.13971,-10.3902
-406,-587,2.20508,17.7585,0,0,0,0,0,0,0,-1,818,1611,2.20508,-17.7585
-399,-587,1.96802,18.3173,-0.00591391,0.0040018,0.000544367,0.00403159,-0.00594371,1.51612,0.0057944,0.04691,825,1611,1.96805,-18.3173
-392,-587,1.84485,18.7244,-0.00469044,0.00255213,0.000876276,0.00265664,-0.00479496,1.45209,0.00436083,0.038552,832,1611,1.84484,-18.7243
-385,-587,1.63477,19.2092,-0.00366105,0.00185555,0.00106971,0.00205571,-0.00386121,1.38582,0.00346874,0.019913,839,1611,1.63477,-19.2092
-378,-587,1.62909,19.6818,-0.0027793,0.00154268,0.0010436,0.00178148,-0.00301809,1.34585,0.00280153,0.0138027,846,1611,1.62907,-19.6817
-371,-587,1.60345,20.1461,-0.00195093,0.00138988,0.00095635,0.00164427,-0.00220533,1.31081,0.00223042,0.0140579,853,1611,1.60348,-20.1461
-364,-587,1.62726,20.5557,-0.00122763,0.00138058,0.000841243,0.00162837,-0.00147542,1.28434,0.0017927,0.0174839,860,1611,1.62724,-20.5557
-357,-587,1.63293,20.9376,-0.000489809,0.00149387,0.00073617,0.00173722,-0.000733158,1.25154,0.00146502,0.0160933,867,1611,1.63292,-20.9376
-350,-587,1.60803,21.3789,0.000251101,0.00162896,0.000633239,0.00187577,4.2874e-06,1.19915,0.00124909,0.00952828,874,1611,1.60804,-21.3789
-343,-587,1.59497,21.7751,0.000945231,0.00178888,0.000648585,0.00214075,0.000593365,1.07372,0.00127622,0.0130199,881,1611,1.59496,-21.7752
-336,-587,1.57013,22.1644,0.00162143,0.00218757,0.000815289,0.00276753,0.00104147,0.952488,0.00161405,0.0133514,888,1611,1.57015,-22.1644
-329,-587,1.57141,22.6021,0.00225841,0.00255883,0.00101636,0.00343603,0.00138122,0.858762,0.00199646,0.0157371,895,1611,1.5714,-22.6021
-322,-587,1.60376,23.0299,0.00277179,0.00308761,0.00139887,0.00433745,0.00152194,0.841602,0.00254108,0.0191992,902,1611,1.60375,-23.03
-315,-587,1.57385,23.394,0.00324929,0.00360508,0.00185623,0.00529192,0.00156245,0.833171,0.00313952,0.014618,909,1611,1.57388,-23.394
-308,-587,1.56537,23.7915,0.00376755,0.00405583,0.00240361,0.00631961,0.00150376,0.815346,0.003812,0.0135615,916,1611,1.56536,-23.7915
-301,-587,1.63232,24.1991,0.0043163,0.00438494,0.00318068,0.00753148,0.00116976,0.790793,0.00468005,0.0139447,923,1611,1.63231,-24.199
-294,-587,1.69952,24.6505,0.00487188,0.00479518,0.00420347,0.00903718,0.000629885,0.780837,0.00582619,0.0253353,930,1611,1.69952,-24.6505
-287,-587,1.63373,25.1849,0.00545691,0.00515404,0.00553529,0.0108428,-0.000231883,0.771722,0.00730708,0.0426133,937,1611,1.63373,-25.185
-280,-587,1.91418,26.0704,0,0,0,0,0,0,0,-1,944,1611,1.91417,-26.0705
-273,-587,1.85138,26.2593,0,0,0,0,0,0,0,-1,951,1611,1.8514,-26.2592
-266,-587,1.84033,26.3601,0,0,0,0,0,0,0,-1,958,1611,1.84031,-26.3601
-259,-587,0.317444,23.6786,0,0,0,0,0,0,0,-1,965,1611,0.317428,-23.6785
-252,-587,1.30188,10.3103,0,0,0,0,0,0,0,-1,972,1611,1.30188,-10.3104
-245,-587,1.9494,25.2325,0,0,0,0,0,0,0,-1,979,1611,1.94942,-25.2326
-238,-587,2.87799,9.53821,0,0,0,0,0,0,0,-1,986,1611,2.87797,-9.53823
-231,-587,2.49548,9.14465,0,0,0,0,0,0,0,-1,993,1611,2.49551,-9.14468
-224,-587,-9.72528,9.21069,0,0,0,0,0,0,0,-1,1000,1611,-9.72529,-9.21072
-217,-587,-7.07495,10.7847,0,0,0,0,0,0,0,-1,1007,1611,-7.07495,-10.7847
-210,-587,-4.72308,12.5889,0,0,0,0,0,0,0,-1,1014,1611,-4.72307,-12.5888
-203,-587,-3.2583,13.7289,0,0,0,0,0,0,0,-1,1021,1611,-3.25828,-13.7289
-196,-587,-1.953,14.8145,0,0,0,0,0,0,0,-1,1028,1611,-1.95302,-14.8144
-189,-587,-3.04138,8.66638,0,0,0,0,0,0,0,-1,1035,1611,-3.04136,-8.66635
-182,-587,-3.97095,9.7146,0,0,0,0,0,0,0,-1,1042,1611,-3.97093,-9.71461
-175,-587,-4.80969,8.37878,0,0,0,0,0,0,0,-1,1049,1611,-4.80964,-8.37883
-168,-587,-5.91394,8.72546,0,0,0,0,0,0,0,-1,1056,1611,-5.91398,-8.72542
-161,-587,-7.06946,8.88501,0,0,0,0,0,0,0,-1,1063,1611,-7.06947,-8.885
-154,-587,-2.24731,6.56519,0,0,0,0,0,0,0,-1,1070,1611,-2.24728,-6.56517
-147,-587,0,0,0,0,0,0,0,0,0,-1,1077,1611,0,0
-140,-587,0,0,0,0,0,0,0,0,0,-1,1084,1611,0,0
-133,-587,0,0,0,0,0,0,0,0,0,-1,1091,1611,0,0
-126,-587,0,0,0,0,0,0,0,0,0,-1,1098,1611,0,0
-119,-587,0,0,0,0,0,0,0,0,0,-1,1105,1611,0,0
-112,-587,0,0,0,0,0,0,0,0,0,-1,1112,1611,0,0
-105,-587,0,0,0,0,0,0,0,0,0,-1,1119,1611,0,0
-98,-587,0,0,0,0,0,0,0,0,0,-1,1126,1611,0,0
-91,-587,0,0,0,0,0,0,0,0,0,-1,1133,1611,0,0
-84,-587,0,0,0,0,0,0,0,0,0,-1,1140,1611,0,0
-77,-587,0,0,0,0,0,0,0,0,0,-1,1147,1611,0,0
-70,-587,0,0,0,0,0,0,0,0,0,-1,1154,1611,0,0
-63,-587,0,0,0,0,0,0,0,0,0,-1,1161,1611,0,0
-56,-587,0,0,0,0,0,0,0,0,0,-1,1168,1611,0,0
-49,-587,0,0,0,0,0,0,0,0,0,-1,1175,1611,0,0
-42,-587,0,0,0,0,0,0,0,0,0,-1,1182,1611,0,0
-35,-587,0,0,0,0,0,0,0,0,0,-1,1189,1611,0,0
-28,-587,0,0,0,0,0,0,0,0,0,-1,1196,1611,0,0
-21,-587,0,0,0,0,0,0,0,0,0,-1,1203,1611,0,0
-14,-587,0,0,0,0,0,0,0,0,0,-1,1210,1611,0,0
-7,-587,0,0,0,0,0,0,0,0,0,-1,1217,1611,0,0
0,-587,0,0,0,0,0,0,0,0,0,-1,1224,1611,0,0
7,-587,0,0,0,0,0,0,0,0,0,-1,1231,1611,0,0
14,-587,0,0,0,0,0,0,0,0,0,-1,1238,1611,0,0
21,-587,0,0,0,0,0,0,0,0,0,-1,1245,1611,0,0
28,-587,0,0,0,0,0,0,0,0,0,-1,1252,1611,0,0
35,-587,0,0,0,0,0,0,0,0,0,-1,1259,1611,0,0
42,-587,0,0,0,0,0,0,0,0,0,-1,1266,1611,0,0
49,-587,0,0,0,0,0,0,0,0,0,-1,1273,1611,0,0
56,-587,0,0,0,0,0,0,0,0,0,-1,1280,1611,0,0
63,-587,0,0,0,0,0,0,0,0,0,-1,1287,1611,0,0
70,-587,0,0,0,0,0,0,0,0,0,-1,1294,1611,0,0
77,-587,0,0,0,0,0,0,0,0,0,-1,1301,1611,0,0
84,-587,0,0,0,0,0,0,0,0,0,-1,1308,1611,0,0
91,-587,0,0,0,0,0,0,0,0,0,-1,1315,1611,0,0
98,-587,0,0,0,0,0,0,0,0,0,-1,1322,1611,0,0
105,-587,0,0,0,0,0,0,0,0,0,-1,1329,1611,0,0
112,-587,0,0,0,0,0,0,0,0,0,-1,1336,1611,0,0
119,-587,0,0,0,0,0,0,0,0,0,-1,1343,1611,0,0
126,-587,0,0,0,0,0,0,0,0,0,-1,1350,1611,0,0
133,-587,0,0,0,0,0,0,0,0,0,-1,1357,1611,0,0
140,-587,0,0,0,0,0,0,0,0,0,-1,1364,1611,0,0
147,-587,0,0,0,0,0,0,0,0,0,-1,1371,1611,0,0
154,-587,0,0,0,0,0,0,0,0,0,-1,1378,1611,0,0
161,-587,0,0,0,0,0,0,0,0,0,-1,1385,1611,0,0
168,-587,0,0,0,0,0,0,0,0,0,-1,1392,1611,0,0
175,-587,0,0,0,0,0,0,0,0,0,-1,1399,1611,0,0
182,-587,0,0,0,0,0,0,0,0,0,-1,1406,1611,0,0
189,-587,0,0,0,0,0,0,0,0,0,-1,1413,1611,0,0
196,-587,0,0,0,0,0,0,0,0,0,-1,1420,1611,0,0
203,-587,0,0,0,0,0,0,0,0,0,-1,1427,1611,0,0
210,-587,0,0,0,0,0,0,0,0,0,-1,1434,1611,0,0
217,-587,0,0,0,0,0,0,0,0,0,-1,1441,1611,0,0
224,-587,0,0,0,0,0,0,0,0,0,-1,1448,1611,0,0
231,-587,0,0,0,0,0,0,0,0,0,-1,1455,1611,0,0
238,-587,0,0,0,0,0,0,0,0,0,-1,1462,1611,0,0
245,-587,0,0,0,0,0,0,0,0,0,-1,1469,1611,0,0
252,-587,0,0,0,0,0,0,0,0,0,-1,1476,1611,0,0
259,-587,0,0,0,0,0,0,0,0,0,-1,1483,1611,0,0
266,-587,0,0,0,0,0,0,0,0,0,-1,1490,1611,0,0
273,-587,10.2936,6.35083,0,0,0,0,0,0,0,-1,1497,1611,10.2936,-6.35087
280,-587,2.09204,1.1217,0,0,0,0,0,0,0,-1,1504,1611,2.092,-1.12176
287,-587,3.2865,0.671509,0,0,0,0,0,0,0,-1,1511,1611,3.28656,-0.671538
294,-587,4.24646,1.58765,0,0,0,0,0,0,0,-1,1518,1611,4.24648,-1.58761
301,-587,7.60474,8.37085,0,0,0,0,0,0,0,-1,1525,1611,7.60478,-8.37084
308,-587,5.99316,10.2291,0,0,0,0,0,0,0,-1,1532,1611,5.99315,-10.2291
315,-587,4.34558,12.3289,0,0,0,0,0,0,0,-1,1539,1611,4.34556,-12.3288
322,-587,10.4526,6.38245,0,0,0,0,0,0,0,-1,1546,1611,10.4526,-6.38245
329,-587,10.7738,8.42444,0,0,0,0,0,0,0,-1,1553,1611,10.7738,-8.42438
336,-587,7.5531,5.96619,0,0,0,0,0,0,0,-1,1560,1611,7.55311,-5.96617
343,-587,9.57495,4.38391,0,0,0,0,0,0,0,-1,1567,1611,9.57494,-4.38397
350,-587,9.50378,3.45093,0,0,0,0,0,0,0,-1,1574,1611,9.50376,-3.4509
357,-587,9.40027,2.50806,0,0,0,0,0,0,0,-1,1581,1611,9.40022,-2.50803
364,-587,9.26477,1.34131,0,0,0,0,0,0,0,-1,1588,1611,9.26479,-1.34126
371,-587,6.98926,7.87561,0,0,0,0,0,0,0,-1,1595,1611,6.98928,-7.87564
378,-587,9.25146,13.8358,0,0,0,0,0,0,0,-1,1602,1611,9.2515,-13.8359
385,-587,11.6848,24.6086,0,0,0,0,0,0,0,-1,1609,1611,11.6848,-24.6087
392,-587,12.4243,27.0996,0,0,0,0,0,0,0,-1,1616,1611,12.4243,-27.0997
399,-587,12.4456,26.6024,0.012229,0.0011175,-0.0100785,0.0181816,-0.0048351,-0.533497,0.0140136,0.0474276,1623,1611,12.4456,-26.6025
406,-587,12.6704,26.0751,0.00938173,0.00245359,-0.00782394,0.0144742,-0.00263885,-0.576993,0.0106387,0.0407537,1630,1611,12.6704,-26.0751
413,-587,13.0095,25.8951,0.00717859,0.00429547,-0.00614118,0.0120451,-0.000571073,-0.670117,0.00822706,0.0355586,1637,1611,13.0095,-25.8952
420,-587,12.9293,25.7113,0.00554629,0.0057605,-0.0048922,0.0105468,0.000760026,-0.796343,0.00679203,0.0296099,1644,1611,12.9294,-25.7113
427,-587,12.9493,25.3555,0.00424476,0.00686255,-0.00396274,0.00972696,0.00138035,-0.944907,0.00607701,0.0216472,1651,1611,12.9493,-25.3555
434,-587,12.9503,24.8754,0.00316458,0.00739592,-0.00319017,0.0091082,0.0014523,-1.07819,0.00565059,0.0161121,1658,1611,12.9503,-24.8754
441,-587,12.9554,24.4595,0.00245573,0.00731563,-0.00266537,0.00849246,0.0012789,-1.15501,0.00528715,0.0186964,1665,1611,12.9554,-24.4594
448,-587,12.9602,24.1765,0.00191561,0.0069913,-0.00232718,0.00789677,0.00101014,-1.19973,0.00496219,0.0141944,1672,1611,12.9602,-24.1766
455,-587,12.9711,23.8254,0.00135877,0.00662573,-0.00184049,0.00720513,0.000779368,-1.26581,0.00456586,0.0140119,1679,1611,12.971,-23.8254
462,-587,12.9465,23.4181,0.000976274,0.00599025,-0.00166249,0.00649139,0.000475131,-1.27802,0.00417823,0.0194141,1686,1611,12.9465,-23.4181
469,-587,12.9451,23.045,0.00072693,0.00494289,-0.00163168,0.00550061,0.000169213,-1.24144,0.00361199,0.0174777,1693,1611,12.9451,-23.045
476,-587,12.9377,22.668,0.000497557,0.00373603,-0.00141921,0.00426995,-3.63598e-05,-1.21097,0.00285883,0.010652,1700,1611,12.9378,-22.668
483,-587,12.9194,22.2668,0.000295129,0.002755,-0.00118493,0.00323293,-0.0001828,-1.18741,0.00221873,0.0126053,1707,1611,12.9195,-22.2668
490,-587,12.882,21.8995,8.06254e-05,0.0017632,-0.000888174,0.00214527,-0.000301451,-1.16454,0.00154053,0.015784,1714,1611,12.8819,-21.8995
497,-587,12.8612,21.535,-2.40817e-05,0.000960699,-0.000672514,0.00130181,-0.000365192,-1.10139,0.00101181,0.0130317,1721,1611,12.8612,-21.535
504,-587,12.8475,21.1722,-7.35943e-05,0.000358012,-0.000367216,0.000568141,-0.000283723,-1.05105,0.000500879,0.0121057,1728,1611,12.8475,-21.1722
511,-587,12.8535,20.7849,-5.70704e-05,-0.000464422,0.000104607,-3.17781e-05,-0.000489714,0.237232,0.000316416,0.0140689,1735,1611,12.8535,-20.7849
518,-587,12.8776,20.3658,0.000244414,-0.00101914,0.000411115,0.0003664,-0.00114112,0.288444,0.000907871,0.0142799,1742,1611,12.8776,-20.3658
525,-587,12.8488,19.9769,0.000855443,-0.00167277,0.000764101,0.00106843,-0.00188576,0.271846,0.00172723,0.0168628,1749,1611,12.8487,-19.977
532,-587,12.9152,19.6233,0.00163496,-0.0027417,0.00138688,0.00203743,-0.00314417,0.282438,0.00301426,0.0298066,1756,1611,12.9151,-19.6233
539,-587,13.0306,19.2377,0,0,0,0,0,0,0,-1,1763,1611,13.0306,-19.2377
546,-587,14.3149,19.1855,0,0,0,0,0,0,0,-1,1770,1611,14.3149,-19.1855
553,-587,7.5813,8.45068,0,0,0,0,0,0,0,-1,1777,1611,7.58125,-8.45068
560,-587,4.21179,5.23547,0,0,0,0,0,0,0,-1,1784,1611,4.21185,-5.23553
567,-587,4.03711,5.46387,0,0,0,0,0,0,0,-1,1791,1611,4.03715,-5.46382
574,-587,3.83142,5.68884,0,0,0,0,0,0,0,-1,1798,1611,3.83141,-5.68881
581,-587,3.47168,6.00977,0,0,0,0,0,0,0,-1,1805,1611,3.47167,-6.00983
588,-587,0,0,0,0,0,0,0,0,0,-1,1812,1611,0,0
595,-587,0,0,0,0,0,0,0,0,0,-1,1819,1611,0,0
602,-587,0,0,0,0,0,0,0,0,0,-1,1826,1611,0,0
609,-587,0,0,0,0,0,0,0,0,0,-1,1833,1611,0,0
616,-587,0,0,0,0,0,0,0,0,0,-1,1840,1611,0,0
623,-587,0,0,0,0,0,0,0,0,0,-1,1847,1611,0,0
630,-587,0,0,0,0,0,0,0,0,0,-1,1854,1611,0,0
637,-587,0,0,0,0,0,0,0,0,0,-1,1861,1611,0,0
644,-587,0,0,0,0,0,0,0,0,0,-1,1868,1611,0,0
651,-587,0,0,0,0,0,0,0,0,0,-1,1875,1611,0,0
658,-587,0,0,0,0,0,0,0,0,0,-1,1882,1611,0,0
665,-587,0,0,0,0,0,0,0,0,0,-1,1889,1611,0,0
672,-587,0,0,0,0,0,0,0,0,0,-1,1896,1611,0,0
679,-587,0,0,0,0,0,0,0,0,0,-1,1903,1611,0,0
686,-587,0,0,0,0,0,0,0,0,0,-1,1910,1611,0,0
693,-587,0,0,0,0,0,0,0,0,0,-1,1917,1611,0,0
700,-587,0,0,0,0,0,0,0,0,0,-1,1924,1611,0,0
707,-587,0,0,0,0,0,0,0,0,0,-1,1931,1611,0,0
714,-587,0,0,0,0,0,0,0,0,0,-1,1938,1611,0,0
721,-587,0,0,0,0,0,0,0,0,0,-1,1945,1611,0,0
728,-587,0,0,0,0,0,0,0,0,0,-1,1952,1611,0,0
735,-587,0,0,0,0,0,0,0,0,0,-1,1959,1611,0,0
742,-587,0,0,0,0,0,0,0,0,0,-1,1966,1611,0,0
749,-587,0,0,0,0,0,0,0,0,0,-1,1973,1611,0,0
756,-587,0,0,0,0,0,0,0,0,0,-1,1980,1611,0,0
763,-587,0,0,0,0,0,0,0,0,0,-1,1987,1611,0,0
770,-587,0,0,0,0,0,0,0,0,0,-1,1994,1611,0,0
777,-587,0,0,0,0,0,0,0,0,0,-1,2001,1611,0,0
784,-587,0,0,0,0,0,0,0,0,0,-1,2008,1611,0,0
791,-587,0,0,0,0,0,0,0,0,0,-1,2015,1611,0,0
798,-587,0,0,0,0,0,0,0,0,0,-1,2022,1611,0,0
805,-587,0,0,0,0,0,0,0,0,0,-1,2029,1611,0,0
812,-587,0,0,0,0,0,0,0,0,0,-1,2036,1611,0,0
-700,-594,0,0,0,0,0,0,0,0,0,-1,524,1618,0,0
-693,-594,0,0,0,0,0,0,0,0,0,-1,531,1618,0,0
-686,-594,0,0,0,0,0,0,0,0,0,-1,538,1618,0,0
-679,-594,0,0,0,0,0,0,0,0,0,-1,545,1618,0,0
-672,-594,0,0,0,0,0,0,0,0,0,-1,552,1618,0,0
-665,-594,0,0,0,0,0,0,0,0,0,-1,559,1618,0,0
-658,-594,0,0,0,0,0,0,0,0,0,-1,566,1618,0,0
-651,-594,0,0,0,0,0,0,0,0,0,-1,573,1618,0,0
-644,-594,0,0,0,0,0,0,0,0,0,-1,580,1618,0,0
-637,-594,0,0,0,0,0,0,0,0,0,-1,587,1618,0,0
-630,-594,0,0,0,0,0,0,0,0,0,-1,594,1618,0,0
-623,-594,0,0,0,0,0,0,0,0,0,-1,601,1618,0,0
-616,-594,0,0,0,0,0,0,0,0,0,-1,608,1618,0,0
-609,-594,0,0,0,0,0,0,0,0,0,-1,615,1618,0,0
-602,-594,0,0,0,0,0,0,0,0,0,-1,622,1618,0,0
-595,-594,0,0,0,0,0,0,0,0,0,-1,629,1618,0,0
-588,-594,0,0,0,0,0,0,0,0,0,-1,636,1618,0,0
-581,-594,0,0,0,0,0,0,0,0,0,-1,643,1618,0,0
-574,-594,0,0,0,0,0,0,0,0,0,-1,650,1618,0,0
-567,-594,0,0,0,0,0,0,0,0,0,-1,657,1618,0,0
-560,-594,0,0,0,0,0,0,0,0,0,-1,664,1618,0,0
-553,-594,0,0,0,0,0,0,0,0,0,-1,671,1618,0,0
-546,-594,0,0,0,0,0,0,0,0,0,-1,678,1618,0,0
-539,-594,0,0,0,0,0,0,0,0,0,-1,685,1618,0,0
-532,-594,0,0,0,0,0,0,0,0,0,-1,692,1618,0,0
-525,-594,0,0,0,0,0,0,0,0,0,-1,699,1618,0,0
-518,-594,0,0,0,0,0,0,0,0,0,-1,706,1618,0,0
-511,-594,0,0,0,0,0,0,0,0,0,-1,713,1618,0,0
-504,-594,0,0,0,0,0,0,0,0,0,-1,720,1618,0,0
-497,-594,0,0,0,0,0,0,0,0,0,-1,727,1618,0,0
-490,-594,0,0,0,0,0,0,0,0,0,-1,734,1618,0,0
-483,-594,0,0,0,0,0,0,0,0,0,-1,741,1618,0,0
-476,-594,0,0,0,0,0,0,0,0,0,-1,748,1618,0,0
-469,-594,0,0,0,0,0,0,0,0,0,-1,755,1618,0,0
-462,-594,0,0,0,0,0,0,0,0,0,-1,762,1618,0,0
-455,-594,-0.509216,-1.58411,0,0,0,0,0,0,0,-1,769,1618,-0.509245,1.58415
-448,-594,-7.71887,-0.0559082,0,0,0,0,0,0,0,-1,776,1618,-7.71885,0.055939
-441,-594,-5.78473,1.18298,0,0,0,0,0,0,0,-1,783,1618,-5.78474,-1.18295
-434,-594,-3.93628,3.06213,0,0,0,0,0,0,0,-1,790,1618,-3.93631,-3.06208
-427,-594,-3.97693,6.77759,0,0,0,0,0,0,0,-1,797,1618,-3.97695,-6.77764
-420,-594,-2.53046,7.71606,0,0,0,0,0,0,0,-1,804,1618,-2.53047,-7.71609
-413,-594,-0.860413,8.00391,0,0,0,0,0,0,0,-1,811,1618,-0.860423,-8.00389
-406,-594,2.45746,13.6218,0,0,0,0,0,0,0,-1,818,1618,2.45747,-13.6218
-399,-594,2.51904,18.2828,0,0,0,0,0,0,0,-1,825,1618,2.51904,-18.2829
-392,-594,2.49896,18.6316,0,0,0,0,0,0,0,-1,832,1618,2.49897,-18.6316
-385,-594,2.18347,19.3271,-0.00461622,0.00282228,0.0012848,0.00303795,-0.00483188,1.40449,0.00458283,0.034289,839,1618,2.18346,-19.3271
-378,-594,2.03241,19.6829,-0.00356127,0.00223345,0.00129472,0.00250957,-0.0038374,1.36068,0.00369106,0.0151107,846,1618,2.03242,-19.6829
-371,-594,2.04205,20.1501,-0.00258392,0.00186723,0.00122942,0.00218423,-0.00290091,1.31845,0.00294561,0.0120608,853,1618,2.04203,-20.1502
-364,-594,2.05634,20.558,-0.00179897,0.00164779,0.00113972,0.00199057,-0.00214175,1.27865,0.00238633,0.0105809,860,1618,2.05632,-20.558
-357,-594,2.04407,20.9691,-0.00104704,0.00154235,0.00106945,0.00192692,-0.00143162,1.22559,0.00194607,0.0104672,867,1618,2.04406,-20.9691
-350,-594,2.02087,21.3801,-0.000332322,0.0014936,0.00100565,0.00193889,-0.000777605,1.15396,0.00161543,0.0143391,874,1618,2.02085,-21.3801
-343,-594,2.00122,21.8127,0.000323591,0.00150904,0.00105786,0.00212891,-0.00029628,1.04076,0.00152764,0.0164961,881,1618,2.00121,-21.8127
-336,-594,1.96838,22.2062,0.00092765,0.00171168,0.00118331,0.00256622,7.31058e-05,0.945351,0.00168697,0.0145884,888,1618,1.96839,-22.2062
-329,-594,1.97363,22.6212,0.00149347,0.00194003,0.00132079,0.00305628,0.000377227,0.869132,0.00192414,0.0146227,895,1618,1.97365,-22.6212
-322,-594,2.00635,23.0411,0.00192007,0.00235085,0.00160516,0.003755,0.000515912,0.852093,0.00235032,0.0169754,902,1618,2.00635,-23.0412
-315,-594,1.98364,23.4121,0.00230672,0.00274609,0.0019381,0.00447692,0.000575893,0.841832,0.00281237,0.0165256,909,1618,1.98361,-23.4121
-308,-594,1.979,23.7937,0.00274403,0.00306502,0.00232009,0.00523016,0.000578885,0.819931,0.00331073,0.0142734,916,1618,1.97899,-23.7937
-301,-594,1.97491,24.1659,0.0032038,0.00331684,0.00286331,0.00612419,0.000396456,0.795267,0.00395727,0.0110937,923,1618,1.97492,-24.1659
-294,-594,2.00684,24.5417,0.00367581,0.00369263,0.00357015,0.00725438,0.000114063,0.786576,0.00479869,0.0130428,930,1618,2.00681,-24.5417
-287,-594,1.96924,24.9039,0.00425209,0.00415353,0.00438228,0.00858537,-0.000179754,0.779776,0.00578443,0.0241332,937,1618,1.96924,-24.904
-280,-594,2.0946,25.3125,0.00483064,0.00476178,0.00532824,0.0101246,-0.000532139,0.782167,0.0069339,0.0303916,944,1618,2.0946,-25.3125
-273,-594,2.0766,25.7917,0.00524475,0.00493626,0.00608875,0.0111812,-0.0010002,0.772734,0.00780892,0.0376612,951,1618,2.07659,-25.7918
-266,-594,2.05804,26.1222,0.00580481,0.00519837,0.00686024,0.0123685,-0.00136535,0.763313,0.00873644,0.0434338,958,1618,2.05803,-26.1222
-259,-594,2.08057,26.4111,0,0,0,0,0,0,0,-1,965,1618,2.08057,-26.4111
-252,-594,2.23694,26.5854,0,0,0,0,0,0,0,-1,972,1618,2.23697,-26.5855
-245,-594,2.12567,27.0638,0,0,0,0,0,0,0,-1,979,1618,2.12566,-27.0638
-238,-594,2.10962,25.5623,0,0,0,0,0,0,0,-1,986,1618,2.10965,-25.5622
-231,-594,1.93774,9.35388,0,0,0,0,0,0,0,-1,993,1618,1.93776,-9.35393
-224,-594,1.81824,8.62744,0,0,0,0,0,0,0,-1,1000,1618,1.81822,-8.62745
-217,-594,-8.24066,12.0752,0,0,0,0,0,0,0,-1,1007,1618,-8.24068,-12.0751
-210,-594,-5.61438,14.2119,0,0,0,0,0,0,0,-1,1014,1618,-5.6144,-14.212
-203,-594,-3.94507,15.5768,0,0,0,0,0,0,0,-1,1021,1618,-3.94506,-15.5768
-196,-594,2.78613,10.5815,0,0,0,0,0,0,0,-1,1028,1618,2.78612,-10.5815
-189,-594,2.60913,9.48865,0,0,0,0,0,0,0,-1,1035,1618,2.6091,-9.48871
-182,-594,1.2395,9.38806,0,0,0,0,0,0,0,-1,1042,1618,1.23951,-9.38804
-175,-594,0.234863,8.73792,0,0,0,0,0,0,0,-1,1049,1618,0.234812,-8.73786
-168,-594,-0.495483,8.46289,0,0,0,0,0,0,0,-1,1056,1618,-0.495513,-8.46285
-161,-594,-1.39734,8.28699,0,0,0,0,0,0,0,-1,1063,1618,-1.39729,-8.28699
-154,-594,-0.000854492,7.68445,0,0,0,0,0,0,0,-1,1070,1618,-0.000805755,-7.6845
-147,-594,0.348267,9.3385,0,0,0,0,0,0,0,-1,1077,1618,0.348237,-9.33849
-140,-594,0.675171,11.5884,0,0,0,0,0,0,0,-1,1084,1618,0.675204,-11.5884
-133,-594,0,0,0,0,0,0,0,0,0,-1,1091,1618,0,0
-126,-594,0,0,0,0,0,0,0,0,0,-1,1098,1618,0,0
-119,-594,0,0,0,0,0,0,0,0,0,-1,1105,1618,0,0
-112,-594,0,0,0,0,0,0,0,0,0,-1,1112,1618,0,0
-105,-594,0,0,0,0,0,0,0,0,0,-1,1119,1618,0,0
-98,-594,0,0,0,0,0,0,0,0,0,-1,1126,1618,0,0
-91,-594,0,0,0,0,0,0,0,0,0,-1,1133,1618,0,0
-84,-594,0,0,0,0,0,0,0,0,0,-1,1140,1618,0,0
-77,-594,0,0,0,0,0,0,0,0,0,-1,1147,1618,0,0
-70,-594,0,0,0,0,0,0,0,0,0,-1,1154,1618,0,0
-63,-594,0,0,0,0,0,0,0,0,0,-1,1161,1618,0,0
-56,-594,0,0,0,0,0,0,0,0,0,-1,1168,1618,0,0
-49,-594,0,0,0,0,0,0,0,0,0,-1,1175,1618,0,0
-42,-594,0,0,0,0,0,0,0,0,0,-1,1182,1618,0,0
-35,-594,0,0,0,0,0,0,0,0,0,-1,1189,1618,0,0
-28,-594,0,0,0,0,0,0,0,0,0,-1,1196,1618,0,0
-21,-594,0,0,0,0,0,0,0,0,0,-1,1203,1618,0,0
-14,-594,0,0,0,0,0,0,0,0,0,-1,1210,1618,0,0
-7,-594,0,0,0,0,0,0,0,0,0,-1,1217,1618,0,0
0,-594,0,0,0,0,0,0,0,0,0,-1,1224,1618,0,0
7,-594,0,0,0,0,0,0,0,0,0,-1,1231,1618,0,0
14,-594,0,0,0,0,0,0,0,0,0,-1,1238,1618,0,0
21,-594,0,0,0,0,0,0,0,0,0,-1,1245,1618,0,0
28,-594,0,0,0,0,0,0,0,0,0,-1,1252,1618,0,0
35,-594,0,0,0,0,0,0,0,0,0,-1,1259,1618,0,0
42,-594,0,0,0,0,0,0,0,0,0,-1,1266,1618,0,0
49,-594,0,0,0,0,0,0,0,0,0,-1,1273,1618,0,0
56,-594,0,0,0,0,0,0,0,0,0,-1,1280,1618,0,0
63,-594,0,0,0,0,0,0,0,0,0,-1,1287,1618,0,0
70,-594,0,0,0,0,0,0,0,0,0,-1,1294,1618,0,0
77,-594,0,0,0,0,0,0,0,0,0,-1,1301,1618,0,0
84,-594,0,0,0,0,0,0,0,0,0,-1,1308,1618,0,0
91,-594,0,0,0,0,0,0,0,0,0,-1,1315,1618,0,0
98,-594,0,0,0,0,0,0,0,0,0,-1,1322,1618,0,0
105,-594,0,0,0,0,0,0,0,0,0,-1,1329,1618,0,0
112,-594,0,0,0,0,0,0,0,0,0,-1,1336,1618,0,0
119,-594,0,0,0,0,0,0,0,0,0,-1,1343,1618,0,0
126,-594,0,0,0,0,0,0,0,0,0,-1,1350,1618,0,0
133,-594,0,0,0,0,0,0,0,0,0,-1,1357,1618,0,0
140,-594,0,0,0,0,0,0,0,0,0,-1,1364,1618,0,0
147,-594,0,0,0,0,0,0,0,0,0,-1,1371,1618,0,0
154,-594,0,0,0,0,0,0,0,0,0,-1,1378,1618,0,0
161,-594,0,0,0,0,0,0,0,0,0,-1,1385,1618,0,0
168,-594,0,0,0,0,0,0,0,0,0,-1,1392,1618,0,0
175,-594,0,0,0,0,0,0,0,0,0,-1,1399,1618,0,0
182,-594,0,0,0,0,0,0,0,0,0,-1,1406,1618,0,0
189,-594,0,0,0,0,0,0,0,0,0,-1,1413,1618,0,0
196,-594,0,0,0,0,0,0,0,0,0,-1,1420,1618,0,0
203,-594,0,0,0,0,0,0,0,0,0,-1,1427,1618,0,0
210,-594,0,0,0,0,0,0,0,0,0,-1,1434,1618,0,0
217,-594,0,0,0,0,0,0,0,0,0,-1,1441,1618,0,0
224,-594,0,0,0,0,0,0,0,0,0,-1,1448,1618,0,0
231,-594,0,0,0,0,0,0,0,0,0,-1,1455,1618,0,0
238,-594,0,0,0,0,0,0,0,0,0,-1,1462,1618,0,0
245,-594,0,0,0,0,0,0,0,0,0,-1,1469,1618,0,0
252,-594,3.03674,1.20996,0,0,0,0,0,0,0,-1,1476,1618,3.0368,-1.20999
259,-594,4.79834,1.53113,0,0,0,0,0,0,0,-1,1483,1618,4.79837,-1.53118
266,-594,3.71606,2.68152,0,0,0,0,0,0,0,-1,1490,1618,3.71609,-2.68149
273,-594,9.7655,6.33557,0,0,0,0,0,0,0,-1,1497,1618,9.76555,-6.33554
280,-594,3.13281,0.911255,0,0,0,0,0,0,0,-1,1504,1618,3.13277,-0.911207
287,-594,4.42749,1.51563,0,0,0,0,0,0,0,-1,1511,1618,4.42747,-1.51564
294,-594,5.36475,3.34937,0,0,0,0,0,0,0,-1,1518,1618,5.36475,-3.3494
301,-594,7.97144,9.04333,0,0,0,0,0,0,0,-1,1525,1618,7.9714,-9.04328
308,-594,6.30347,10.4633,0,0,0,0,0,0,0,-1,1532,1618,6.30351,-10.4633
315,-594,4.62012,11.934,0,0,0,0,0,0,0,-1,1539,1618,4.62006,-11.934
322,-594,2.91528,13.3134,0,0,0,0,0,0,0,-1,1546,1618,2.91523,-13.3133
329,-594,4.19861,9.77258,0,0,0,0,0,0,0,-1,1553,1618,4.19865,-9.77264
336,-594,10.1353,4.66528,0,0,0,0,0,0,0,-1,1560,1618,10.1353,-4.66533
343,-594,10.5729,3.71228,0,0,0,0,0,0,0,-1,1567,1618,10.5729,-3.71232
350,-594,10.219,2.98792,0,0,0,0,0,0,0,-1,1574,1618,10.219,-2.98797
357,-594,9.83154,1.96326,0,0,0,0,0,0,0,-1,1581,1618,9.8315,-1.96321
364,-594,9.74939,0.700562,0,0,0,0,0,0,0,-1,1588,1618,9.74939,-0.700615
371,-594,8.54297,14.3988,0,0,0,0,0,0,0,-1,1595,1618,8.54296,-14.3989
378,-594,8.9137,16.3073,0,0,0,0,0,0,0,-1,1602,1618,8.91369,-16.3072
385,-594,11.3333,26.4623,0,0,0,0,0,0,0,-1,1609,1618,11.3333,-26.4623
392,-594,12.4899,27.3231,0,0,0,0,0,0,0,-1,1616,1618,12.4899,-27.3231
399,-594,12.6073,26.824,0.00974111,0.00262019,-0.00742808,0.014418,-0.00205666,-0.561913,0.0103658,0.0405808,1623,1618,12.6073,-26.8239
406,-594,12.6304,26.4082,0.00759772,0.00301056,-0.00585248,0.01159,-0.000981717,-0.598647,0.00807382,0.0254451,1630,1618,12.6304,-26.4082
413,-594,12.5923,26.0502,0.00588258,0.00381019,-0.00460048,0.00956212,0.00013066,-0.674628,0.00633164,0.0187667,1637,1618,12.5923,-26.0501
420,-594,12.5865,25.6609,0.00456818,0.00442975,-0.00361887,0.0081185,0.000879437,-0.775836,0.0051443,0.0149099,1644,1618,12.5866,-25.6609
427,-594,12.6022,25.3032,0.00349505,0.0050172,-0.00291621,0.00727001,0.00124225,-0.913041,0.00449024,0.0116432,1651,1618,12.6021,-25.3032
434,-594,12.5918,24.9325,0.00260133,0.00530807,-0.0023678,0.00668199,0.00122741,-1.04503,0.00410712,0.0164571,1658,1618,12.5918,-24.9325
441,-594,12.5955,24.5469,0.00195156,0.005192,-0.00196918,0.00612183,0.00102172,-1.12964,0.00378687,0.0155133,1665,1618,12.5954,-24.5469
448,-594,12.611,24.194,0.00142655,0.0049113,-0.00169881,0.00560241,0.00073544,-1.18443,0.00351553,0.0148079,1672,1618,12.6109,-24.1939
455,-594,12.5861,23.8213,0.000912378,0.0046026,-0.00133277,0.0050336,0.000481371,-1.25802,0.00320734,0.0119427,1679,1618,12.5861,-23.8213
462,-594,12.5892,23.4343,0.000521297,0.00406504,-0.00119486,0.00443028,0.000156064,-1.27415,0.00290289,0.0141155,1686,1618,12.5892,-23.4343
469,-594,12.5784,23.0771,0.000232547,0.00324067,-0.00117593,0.0036458,-0.000172582,-1.23901,0.00249006,0.0123024,1693,1618,12.5783,-23.0772
476,-594,12.5582,22.7122,-2.34555e-05,0.00230065,-0.00100888,0.0026775,-0.000400299,-1.21332,0.0019323,0.0121896,1700,1618,12.5582,-22.7121
483,-594,12.5519,22.3208,-0.000207406,0.00160878,-0.000858099,0.00195007,-0.0005487,-1.19225,0.00151641,0.0147206,1707,1618,12.5519,-22.3208
490,-594,12.5299,21.9186,-0.00043605,0.000858838,-0.000633994,0.00111756,-0.00069477,-1.18335,0.0010558,0.013524,1714,1618,12.5299,-21.9185
497,-594,12.4999,21.537,-0.000573998,0.000313467,-0.000443982,0.000497443,-0.000757974,-1.17796,0.00073,0.0106229,1721,1618,12.4998,-21.537
504,-594,12.4913,21.1534,-0.000603833,-2.56987e-05,-0.000216261,4.6245e-05,-0.000675777,-1.24964,0.000466697,0.0103209,1728,1618,12.4913,-21.1534
511,-594,12.4966,20.7396,-0.000536671,-0.000621396,0.000145647,-0.000427351,-0.000730716,0.643873,0.000423899,0.0147687,1735,1618,12.4965,-20.7396
518,-594,12.4552,20.3113,-0.000139333,-0.000895543,0.000332339,-1.40367e-05,-0.00102084,0.360535,0.000675929,0.0198172,1742,1618,12.4552,-20.3113
525,-594,12.4495,19.8878,0.000704209,-0.00123196,0.000566682,0.000857871,-0.00138562,0.264795,0.00130717,0.0302725,1749,1618,12.4494,-19.8879
532,-594,12.6462,19.3748,0.00173179,-0.00204653,0.00112552,0.00204166,-0.0023564,0.268655,0.00254138,0.0494292,1756,1618,12.6463,-19.3748
539,-594,12.7561,18.8943,0,0,0,0,0,0,0,-1,1763,1618,12.7561,-18.8943
546,-594,7.48645,8.54785,0,0,0,0,0,0,0,-1,1770,1618,7.48639,-8.54789
553,-594,3.69714,5.68762,0,0,0,0,0,0,0,-1,1777,1618,3.69715,-5.68764
560,-594,6.06616,4.44482,0,0,0,0,0,0,0,-1,1784,1618,6.06621,-4.44477
567,-594,5.97266,4.73303,0,0,0,0,0,0,0,-1,1791,1618,5.97271,-4.73309
574,-594,5.9906,4.96326,0,0,0,0,0,0,0,-1,1798,1618,5.99065,-4.96326
581,-594,0,0,0,0,0,0,0,0,0,-1,1805,1618,0,0
588,-594,0,0,0,0,0,0,0,0,0,-1,1812,1618,0,0
595,-594,0,0,0,0,0,0,0,0,0,-1,1819,1618,0,0
602,-594,0,0,0,0,0,0,0,0,0,-1,1826,1618,0,0
609,-594,0,0,0,0,0,0,0,0,0,-1,1833,1618,0,0
616,-594,0,0,0,0,0,0,0,0,0,-1,1840,1618,0,0
623,-594,0,0,0,0,0,0,0,0,0,-1,1847,1618,0,0
630,-594,0,0,0,0,0,0,0,0,0,-1,1854,1618,0,0
637,-594,0,0,0,0,0,0,0,0,0,-1,1861,1618,0,0
644,-594,0,0,0,0,0,0,0,0,0,-1,1868,1618,0,0
651,-594,0,0,0,0,0,0,0,0,0,-1,1875,1618,0,0
658,-594,0,0,0,0,0,0,0,0,0,-1,1882,1618,0,0
665,-594,0,0,0,0,0,0,0,0,0,-1,1889,1618,0,0
672,-594,0,0,0,0,0,0,0,0,0,-1,1896,1618,0,0
679,-594,0,0,0,0,0,0,0,0,0,-1,1903,1618,0,0
686,-594,0,0,0,0,0,0,0,0,0,-1,1910,1618,0,0
693,-594,0,0,0,0,0,0,0,0,0,-1,1917,1618,0,0
700,-594,0,0,0,0,0,0,0,0,0,-1,1924,1618,0,0
707,-594,0,0,0,0,0,0,0,0,0,-1,1931,1618,0,0
714,-594,0,0,0,0,0,0,0,0,0,-1,1938,1618,0,0
721,-594,0,0,0,0,0,0,0,0,0,-1,1945,1618,0,0
728,-594,0,0,0,0,0,0,0,0,0,-1,1952,1618,0,0
735,-594,0,0,0,0,0,0,0,0,0,-1,1959,1618,0,0
742,-594,0,0,0,0,0,0,0,0,0,-1,1966,1618,0,0
749,-594,0,0,0,0,0,0,0,0,0,-1,1973,1618,0,0
756,-594,0,0,0,0,0,0,0,0,0,-1,1980,1618,0,0
763,-594,0,0,0,0,0,0,0,0,0,-1,1987,1618,0,0
770,-594,0,0,0,0,0,0,0,0,0,-1,1994,1618,0,0
777,-594,0,0,0,0,0,0,0,0,0,-1,2001,1618,0,0
784,-594,0,0,0,0,0,0,0,0,0,-1,2008,1618,0,0
791,-594,0,0,0,0,0,0,0,0,0,-1,2015,1618,0,0
798,-594,0,0,0,0,0,0,0,0,0,-1,2022,1618,0,0
805,-594,0,0,0,0,0,0,0,0,0,-1,2029,1618,0,0
812,-594,0,0,0,0,0,0,0,0,0,-1,2036,1618,0,0
-700,-601,0,0,0,0,0,0,0,0,0,-1,524,1625,0,0
-693,-601,0,0,0,0,0,0,0,0,0,-1,531,1625,0,0
-686,-601,0,0,0,0,0,0,0,0,0,-1,538,1625,0,0
-679,-601,0,0,0,0,0,0,0,0,0,-1,545,1625,0,0
-672,-601,0,0,0,0,0,0,0,0,0,-1,552,1625,0,0
-665,-601,0,0,0,0,0,0,0,0,0,-1,559,1625,0,0
-658,-601,0,0,0,0,0,0,0,0,0,-1,566,1625,0,0
-651,-601,0,0,0,0,0,0,0,0,0,-1,573,1625,0,0
-644,-601,0,0,0,0,0,0,0,0,0,-1,580,1625,0,0
-637,-601,0,0,0,0,0,0,0,0,0,-1,587,1625,0,0
-630,-601,0,0,0,0,0,0,0,0,0,-1,594,1625,0,0
-623,-601,0,0,0,0,0,0,0,0,0,-1,601,1625,0,0
-616,-601,0,0,0,0,0,0,0,0,0,-1,608,1625,0,0
-609,-601,0,0,0,0,0,0,0,0,0,-1,615,1625,0,0
-602,-601,0,0,0,0,0,0,0,0,0,-1,622,1625,0,0
-595,-601,0,0,0,0,0,0,0,0,0,-1,629,1625,0,0
-588,-601,0,0,0,0,0,0,0,0,0,-1,636,1625,0,0
-581,-601,0,0,0,0,0,0,0,0,0,-1,643,1625,0,0
-574,-601,0,0,0,0,0,0,0,0,0,-1,650,1625,0,0
-567,-601,0,0,0,0,0,0,0,0,0,-1,657,1625,0,0
-560,-601,0,0,0,0,0,0,0,0,0,-1,664,1625,0,0
-553,-601,0,0,0,0,0,0,0,0,0,-1,671,1625,0,0
-546,-601,0,0,0,0,0,0,0,0,0,-1,678,1625,0,0
-539,-601,0,0,0,0,0,0,0,0,0,-1,685,1625,0,0
-532,-601,0,0,0,0,0,0,0,0,0,-1,692,1625,0,0
-525,-601,0,0,0,0,0,0,0,0,0,-1,699,1625,0,0
-518,-601,0,0,0,0,0,0,0,0,0,-1,706,1625,0,0
-511,-601,0,0,0,0,0,0,0,0,0,-1,713,1625,0,0
-504,-601,0,0,0,0,0,0,0,0,0,-1,720,1625,0,0
-497,-601,0,0,0,0,0,0,0,0,0,-1,727,1625,0,0
-490,-601,0,0,0,0,0,0,0,0,0,-1,734,1625,0,0
-483,-601,0,0,0,0,0,0,0,0,0,-1,741,1625,0,0
-476,-601,0,0,0,0,0,0,0,0,0,-1,748,1625,0,0
-469,-601,0,0,0,0,0,0,0,0,0,-1,755,1625,0,0
-462,-601,0,0,0,0,0,0,0,0,0,-1,762,1625,0,0
-455,-601,0,0,0,0,0,0,0,0,0,-1,769,1625,0,0
-448,-601,-7.07623,2.7616,0,0,0,0,0,0,0,-1,776,1625,-7.07626,-2.76161
-441,-601,-6.06689,3.33447,0,0,0,0,0,0,0,-1,783,1625,-6.06691,-3.33448
-434,-601,-5.02655,3.8468,0,0,0,0,0,0,0,-1,790,1625,-5.02657,-3.84674
-427,-601,-5.78601,4.2406,0,0,0,0,0,0,0,-1,797,1625,-5.786,-4.24058
-420,-601,-5.5191,5.60364,0,0,0,0,0,0,0,-1,804,1625,-5.51907,-5.60368
-413,-601,-4.30756,5.86047,0,0,0,0,0,0,0,-1,811,1625,-4.30757,-5.86046
-406,-601,-1.67493,7.20422,0,0,0,0,0,0,0,-1,818,1625,-1.67493,-7.20428
-399,-601,1.40094,15.3108,0,0,0,0,0,0,0,-1,825,1625,1.40096,-15.3107
-392,-601,2.47028,18.5907,0,0,0,0,0,0,0,-1,832,1625,2.47028,-18.5907
-385,-601,2.50671,19.2208,-0.00578493,0.00417449,0.00159308,0.00442311,-0.00603355,1.41598,0.00606097,0.046904,839,1625,2.50671,-19.2208
-378,-601,2.45721,19.7878,-0.00451697,0.00326312,0.00158939,0.00357529,-0.00482914,1.37686,0.00487027,0.0384765,846,1625,2.45721,-19.7878
-371,-601,2.41943,20.1301,-0.0033053,0.00271178,0.00148088,0.00305649,-0.00365001,1.34209,0.00387705,0.0213675,853,1625,2.41945,-20.1302
-364,-601,2.44653,20.5596,-0.00240933,0.0023176,0.00134984,0.00267591,-0.00276764,1.31134,0.00314298,0.0123717,860,1625,2.44653,-20.5596
-357,-601,2.42432,20.9705,-0.00160027,0.0019765,0.00126893,0.00238095,-0.00200471,1.26225,0.00253517,0.0101267,867,1625,2.42433,-20.9705
-350,-601,2.44934,21.4121,-0.000849193,0.0017531,0.00120439,0.00222495,-0.00132105,1.1974,0.00206933,0.0202108,874,1625,2.44936,-21.4121
-343,-601,2.40295,21.8655,-0.000159489,0.00163805,0.00124975,0.00227865,-0.000800086,1.09713,0.00184457,0.0220007,881,1625,2.40298,-21.8655
-336,-601,2.35065,22.2556,0.00043959,0.0016471,0.00129671,0.00247372,-0.00038703,1.00328,0.00179214,0.0186872,888,1625,2.35065,-22.2556
-329,-601,2.36407,22.6416,0.00099329,0.00174372,0.00135132,0.00277095,-3.39351e-05,0.92082,0.00185871,0.0152324,895,1625,2.36407,-22.6416
-322,-601,2.37299,23.0352,0.00138607,0.00203734,0.00153768,0.00328349,0.000139922,0.889743,0.00214388,0.0127757,902,1625,2.37297,-23.0351
-315,-601,2.36383,23.4083,0.00171964,0.00230079,0.0017583,0.00379237,0.000228068,0.867288,0.00245576,0.0129187,909,1625,2.36383,-23.4083
-308,-601,2.3609,23.7898,0.0021012,0.00249124,0.00200339,0.00430908,0.000283357,0.833918,0.00278308,0.0116369,916,1625,2.36093,-23.7899
-301,-601,2.36804,24.1741,0.00251148,0.00266651,0.00236668,0.00495695,0.00022104,0.801769,0.00323347,0.00978417,923,1625,2.36807,-24.1741
-294,-601,2.36523,24.5563,0.00294291,0.00299392,0.00284995,0.00581848,0.000118352,0.789873,0.00384014,0.0094665,930,1625,2.36523,-24.5562
-287,-601,2.35217,24.9393,0.00345015,0.00341919,0.00336835,0.00680306,6.62794e-05,0.7831,0.00451344,0.0103956,937,1625,2.35216,-24.9394
-280,-601,2.36957,25.3201,0.00395388,0.00385268,0.00395253,0.00785614,-4.95762e-05,0.778997,0.00525403,0.0152178,944,1625,2.36958,-25.3201
-273,-601,2.35254,25.7355,0.00440234,0.00405563,0.00448082,0.00871315,-0.000255188,0.766064,0.00589567,0.0167742,951,1625,2.35254,-25.7355
-266,-601,2.38733,26.1172,0.00495163,0.00438603,0.00502834,0.00970512,-0.000367457,0.757307,0.00659598,0.0195557,958,1625,2.38732,-26.1171
-259,-601,2.43011,26.3474,0.00545938,0.00475723,0.00565168,0.0107709,-0.00055427,0.754379,0.00737229,0.0284532,965,1625,2.43011,-26.3474
-252,-601,2.5025,26.691,0.00601432,0.00489368,0.00627869,0.0117576,-0.000849637,0.740895,0.00813644,0.0417844,972,1625,2.50252,-26.691
-245,-601,2.43787,27.3323,0.00656312,0.0051552,0.00703152,0.0129258,-0.00120751,0.735507,0.00904662,0.0438062,979,1625,2.43789,-27.3323
-238,-601,2.48907,28.1077,0,0,0,0,0,0,0,-1,986,1625,2.4891,-28.1077
-231,-601,2.66772,13.7051,0,0,0,0,0,0,0,-1,993,1625,2.6677,-13.7051
-224,-601,-0.0305176,9.13684,0,0,0,0,0,0,0,-1,1000,1625,-0.030498,-9.13681
-217,-601,3.39429,10.3898,0,0,0,0,0,0,0,-1,1007,1625,3.39431,-10.3898
-210,-601,-6.53699,15.7931,0,0,0,0,0,0,0,-1,1014,1625,-6.53697,-15.7931
-203,-601,2.69348,15.9099,0,0,0,0,0,0,0,-1,1021,1625,2.69351,-15.91
-196,-601,2.66992,16.1815,0,0,0,0,0,0,0,-1,1028,1625,2.66995,-16.1815
-189,-601,2.849,16.6105,0,0,0,0,0,0,0,-1,1035,1625,2.84902,-16.6104
-182,-601,1.82153,13.9752,0,0,0,0,0,0,0,-1,1042,1625,1.82155,-13.9752
-175,-601,0.544922,9.28687,0,0,0,0,0,0,0,-1,1049,1625,0.544879,-9.28685
-168,-601,-0.247559,8.97461,0,0,0,0,0,0,0,-1,1056,1625,-0.247598,-8.97466
-161,-601,-1.16833,8.80078,0,0,0,0,0,0,0,-1,1063,1625,-1.16837,-8.80081
-154,-601,1.12756,7.94861,0,0,0,0,0,0,0,-1,1070,1625,1.12762,-7.94855
-147,-601,1.35352,9.55432,0,0,0,0,0,0,0,-1,1077,1625,1.35351,-9.55429
-140,-601,1.72437,11.1498,0,0,0,0,0,0,0,-1,1084,1625,1.72432,-11.1498
-133,-601,2.13281,12.8347,0,0,0,0,0,0,0,-1,1091,1625,2.13287,-12.8348
-126,-601,3.09534,15.427,0,0,0,0,0,0,0,-1,1098,1625,3.0953,-15.4271
-119,-601,1.22485,9.43457,0,0,0,0,0,0,0,-1,1105,1625,1.22489,-9.43456
-112,-601,0,0,0,0,0,0,0,0,0,-1,1112,1625,0,0
-105,-601,0,0,0,0,0,0,0,0,0,-1,1119,1625,0,0
-98,-601,0,0,0,0,0,0,0,0,0,-1,1126,1625,0,0
-91,-601,0,0,0,0,0,0,0,0,0,-1,1133,1625,0,0
-84,-601,0,0,0,0,0,0,0,0,0,-1,1140,1625,0,0
-77,-601,0,0,0,0,0,0,0,0,0,-1,1147,1625,0,0
-70,-601,0,0,0,0,0,0,0,0,0,-1,1154,1625,0,0
-63,-601,0,0,0,0,0,0,0,0,0,-1,1161,1625,0,0
-56,-601,0,0,0,0,0,0,0,0,0,-1,1168,1625,0,0
-49,-601,0,0,0,0,0,0,0,0,0,-1,1175,1625,0,0
-42,-601,0,0,0,0,0,0,0,0,0,-1,1182,1625,0,0
-35,-601,0,0,0,0,0,0,0,0,0,-1,1189,1625,0,0
-28,-601,0,0,0,0,0,0,0,0,0,-1,1196,1625,0,0
-21,-601,0,0,0,0,0,0,0,0,0,-1,1203,1625,0,0
-14,-601,0,0,0,0,0,0,0,0,0,-1,1210,1625,0,0
-7,-601,0,0,0,0,0,0,0,0,0,-1,1217,1625,0,0
0,-601,0,0,0,0,0,0,0,0,0,-1,1224,1625,0,0
7,-601,0,0,0,0,0,0,0,0,0,-1,1231,1625,0,0
14,-601,0,0,0,0,0,0,0,0,0,-1,1238,1625,0,0
21,-601,0,0,0,0,0,0,0,0,0,-1,1245,1625,0,0
28,-601,0,0,0,0,0,0,0,0,0,-1,1252,1625,0,0
35,-601,0,0,0,0,0,0,0,0,0,-1,1259,1625,0,0
42,-601,0,0,0,0,0,0,0,0,0,-1,1266,1625,0,0
49,-601,0,0,0,0,0,0,0,0,0,-1,1273,1625,0,0
56,-601,0,0,0,0,0,0,0,0,0,-1,1280,1625,0,0
63,-601,0,0,0,0,0,0,0,0,0,-1,1287,1625,0,0
70,-601,0,0,0,0,0,0,0,0,0,-1,1294,1625,0,0
77,-601,0,0,0,0,0,0,0,0,0,-1,1301,1625,0,0
84,-601,0,0,0,0,0,0,0,0,0,-1,1308,1625,0,0
91,-601,0,0,0,0,0,0,0,0,0,-1,1315,1625,0,0
98,-601,0,0,0,0,0,0,0,0,0,-1,1322,1625,0,0
105,-601,0,0,0,0,0,0,0,0,0,-1,1329,1625,0,0
112,-601,0,0,0,0,0,0,0,0,0,-1,1336,1625,0,0
119,-601,0,0,0,0,0,0,0,0,0,-1,1343,1625,0,0
126,-601,0,0,0,0,0,0,0,0,0,-1,1350,1625,0,0
133,-601,0,0,0,0,0,0,0,0,0,-1,1357,1625,0,0
140,-601,0,0,0,0,0,0,0,0,0,-1,1364,1625,0,0
147,-601,0,0,0,0,0,0,0,0,0,-1,1371,1625,0,0
154,-601,0,0,0,0,0,0,0,0,0,-1,1378,1625,0,0
161,-601,0,0,0,0,0,0,0,0,0,-1,1385,1625,0,0
168,-601,0,0,0,0,0,0,0,0,0,-1,1392,1625,0,0
175,-601,0,0,0,0,0,0,0,0,0,-1,1399,1625,0,0
182,-601,0,0,0,0,0,0,0,0,0,-1,1406,1625,0,0
189,-601,0,0,0,0,0,0,0,0,0,-1,1413,1625,0,0
196,-601,0,0,0,0,0,0,0,0,0,-1,1420,1625,0,0
203,-601,0,0,0,0,0,0,0,0,0,-1,1427,1625,0,0
210,-601,0,0,0,0,0,0,0,0,0,-1,1434,1625,0,0
217,-601,0,0,0,0,0,0,0,0,0,-1,1441,1625,0,0
224,-601,0,0,0,0,0,0,0,0,0,-1,1448,1625,0,0
231,-601,-0.0371094,0.525879,0,0,0,0,0,0,0,-1,1455,1625,-0.0371518,-0.525824
238,-601,2.03369,-1.32861,0,0,0,0,0,0,0,-1,1462,1625,2.03364,1.32858
245,-601,2.71375,2.44983,0,0,0,0,0,0,0,-1,1469,1625,2.71371,-2.44979
252,-601,4.66943,2.28381,0,0,0,0,0,0,0,-1,1476,1625,4.66947,-2.28376
259,-601,6.42712,2.61987,0,0,0,0,0,0,0,-1,1483,1625,6.42711,-2.61985
266,-601,6.75317,1.68701,0,0,0,0,0,0,0,-1,1490,1625,6.75323,-1.687
273,-601,5.4314,2.92053,0,0,0,0,0,0,0,-1,1497,1625,5.43144,-2.92051
280,-601,4.64722,1.17786,0,0,0,0,0,0,0,-1,1504,1625,4.64722,-1.1779
287,-601,5.32532,2.6217,0,0,0,0,0,0,0,-1,1511,1625,5.32535,-2.62171
294,-601,5.97693,4.22693,0,0,0,0,0,0,0,-1,1518,1625,5.97697,-4.22694
301,-601,7.28162,9.50024,0,0,0,0,0,0,0,-1,1525,1625,7.28162,-9.50025
308,-601,6.53528,10.3927,0,0,0,0,0,0,0,-1,1532,1625,6.53529,-10.3927
315,-601,4.88013,11.7184,0,0,0,0,0,0,0,-1,1539,1625,4.88015,-11.7184
322,-601,3.38098,12.7864,0,0,0,0,0,0,0,-1,1546,1625,3.38104,-12.7864
329,-601,1.8772,13.8768,0,0,0,0,0,0,0,-1,1553,1625,1.87716,-13.8768
336,-601,4.67847,9.53308,0,0,0,0,0,0,0,-1,1560,1625,4.67848,-9.53309
343,-601,11.1404,3.14575,0,0,0,0,0,0,0,-1,1567,1625,11.1404,-3.1458
350,-601,10.9462,2.37769,0,0,0,0,0,0,0,-1,1574,1625,10.9461,-2.37764
357,-601,10.7518,1.6095,0,0,0,0,0,0,0,-1,1581,1625,10.7518,-1.60948
364,-601,5.33643,9.74426,0,0,0,0,0,0,0,-1,1588,1625,5.33637,-9.74429
371,-601,8.46387,16.2725,0,0,0,0,0,0,0,-1,1595,1625,8.46385,-16.2725
378,-601,11.918,28.8202,0,0,0,0,0,0,0,-1,1602,1625,11.9179,-28.8202
385,-601,11.9557,27.4518,0,0,0,0,0,0,0,-1,1609,1625,11.9557,-27.4518
392,-601,12.0748,27.0948,0.0097525,0.00340426,-0.00700171,0.014266,-0.0011092,-0.572586,0.00990111,0.0420133,1616,1625,12.0748,-27.0948
399,-601,12.2017,26.6987,0.0077127,0.0031874,-0.00541571,0.0113194,-0.000419319,-0.587523,0.00768987,0.0212228,1623,1625,12.2017,-26.6988
406,-601,12.2333,26.3413,0.00612413,0.00311504,-0.0043272,0.00920088,3.82857e-05,-0.618088,0.0061212,0.0118184,1630,1625,12.2332,-26.3414
413,-601,12.2178,25.9771,0.00483705,0.00332482,-0.00342075,0.00758425,0.000577611,-0.676628,0.00487505,0.0110049,1637,1625,12.2177,-25.977
420,-601,12.2244,25.6078,0.00376954,0.00341609,-0.00265108,0.00624978,0.000935846,-0.752117,0.00389226,0.0100328,1644,1625,12.2243,-25.6078
427,-601,12.2378,25.2803,0.00287083,0.00364469,-0.00211773,0.00541055,0.00110498,-0.875757,0.00330094,0.0135163,1651,1625,12.2378,-25.2802
434,-601,12.2355,24.9282,0.00211659,0.0037197,-0.00173073,0.00482548,0.00101082,-1.00226,0.00293858,0.0146342,1658,1625,12.2355,-24.9283
441,-601,12.2628,24.5492,0.00150229,0.00354351,-0.00142289,0.00427397,0.000771824,-1.09651,0.00263007,0.0169608,1665,1625,12.2628,-24.5492
448,-601,12.2511,24.1915,0.000971163,0.00325618,-0.00119798,0.00376911,0.000458228,-1.16625,0.00237478,0.0143108,1672,1625,12.2511,-24.1915
455,-601,12.2369,23.8202,0.000466488,0.00293955,-0.000928218,0.00324918,0.000156864,-1.24883,0.00211577,0.0126788,1679,1625,12.2369,-23.8202
462,-601,12.2139,23.4457,4.04978e-05,0.00242317,-0.000814899,0.00267521,-0.000211545,-1.27084,0.00185801,0.0112624,1686,1625,12.2138,-23.4457
469,-601,12.207,23.0896,-0.000310838,0.0017419,-0.000794275,0.00201334,-0.000582277,-1.24149,0.00157267,0.0111346,1693,1625,12.207,-23.0896
476,-601,12.1876,22.7217,-0.000619779,0.00100585,-0.000660239,0.00124022,-0.000854142,-1.2297,0.00121601,0.0137049,1700,1625,12.1876,-22.7217
483,-601,12.1632,22.3384,-0.000817685,0.000549735,-0.000578642,0.000761729,-0.00102968,-1.21962,0.00103812,0.0170688,1707,1625,12.1632,-22.3384
490,-601,12.1576,21.9526,-0.00109152,2.41409e-05,-0.000425964,0.000168179,-0.00123556,-1.24472,0.000885108,0.0129823,1714,1625,12.1576,-21.9527
497,-601,12.1504,21.5605,-0.00129154,-0.00024827,-0.000270733,-0.000182197,-0.00135761,-1.33143,0.000850867,0.0106743,1721,1625,12.1504,-21.5605
504,-601,12.1724,21.136,-0.00133186,-0.000268923,-0.000137035,-0.00025154,-0.00134925,-1.44462,0.000828478,0.0187913,1728,1625,12.1723,-21.1359
511,-601,12.0863,20.8029,-0.00124585,-0.000522051,6.32537e-05,-0.000516565,-0.00125134,1.48428,0.000726111,0.0325025,1735,1625,12.0863,-20.8029
518,-601,12.0105,20.2683,-0.000811152,-0.000432816,8.28078e-05,-0.000415485,-0.000828483,1.36449,0.000478325,0.0442526,1742,1625,12.0105,-20.2683
525,-601,11.9988,19.7157,0,0,0,0,0,0,0,-1,1749,1625,11.9988,-19.7157
532,-601,12.4133,19.2037,0,0,0,0,0,0,0,-1,1756,1625,12.4133,-19.2038
539,-601,7.77112,11.4299,0,0,0,0,0,0,0,-1,1763,1625,7.77116,-11.4299
546,-601,6.56873,3.62354,0,0,0,0,0,0,0,-1,1770,1625,6.56867,-3.62352
553,-601,7.03015,4.25049,0,0,0,0,0,0,0,-1,1777,1625,7.03011,-4.25048
560,-601,7.50745,4.83374,0,0,0,0,0,0,0,-1,1784,1625,7.50744,-4.83376
567,-601,7.82043,3.83301,0,0,0,0,0,0,0,-1,1791,1625,7.82041,-3.83303
574,-601,0,0,0,0,0,0,0,0,0,-1,1798,1625,0,0
581,-601,0,0,0,0,0,0,0,0,0,-1,1805,1625,0,0
588,-601,0,0,0,0,0,0,0,0,0,-1,1812,1625,0,0
595,-601,0,0,0,0,0,0,0,0,0,-1,1819,1625,0,0
602,-601,0,0,0,0,0,0,0,0,0,-1,1826,1625,0,0
609,-601,0,0,0,0,0,0,0,0,0,-1,1833,1625,0,0
616,-601,0,0,0,0,0,0,0,0,0,-1,1840,1625,0,0
623,-601,0,0,0,0,0,0,0,0,0,-1,1847,1625,0,0
630,-601,0,0,0,0,0,0,0,0,0,-1,1854,1625,0,0
637,-601,0,0,0,0,0,0,0,0,0,-1,1861,1625,0,0
644,-601,0,0,0,0,0,0,0,0,0,-1,1868,1625,0,0
651,-601,0,0,0,0,0,0,0,0,0,-1,1875,1625,0,0
658,-601,0,0,0,0,0,0,0,0,0,-1,1882,1625,0,0
665,-601,0,0,0,0,0,0,0,0,0,-1,1889,1625,0,0
672,-601,0,0,0,0,0,0,0,0,0,-1,1896,1625,0,0
679,-601,0,0,0,0,0,0,0,0,0,-1,1903,1625,0,0
686,-601,0,0,0,0,0,0,0,0,0,-1,1910,1625,0,0
693,-601,0,0,0,0,0,0,0,0,0,-1,1917,1625,0,0
700,-601,0,0,0,0,0,0,0,0,0,-1,1924,1625,0,0
707,-601,0,0,0,0,0,0,0,0,0,-1,1931,1625,0,0
714,-601,0,0,0,0,0,0,0,0,0,-1,1938,1625,0,0
721,-601,0,0,0,0,0,0,0,0,0,-1,1945,1625,0,0
728,-601,0,0,0,0,0,0,0,0,0,-1,1952,1625,0,0
735,-601,0,0,0,0,0,0,0,0,0,-1,1959,1625,0,0
742,-601,0,0,0,0,0,0,0,0,0,-1,1966,1625,0,0
749,-601,0,0,0,0,0,0,0,0,0,-1,1973,1625,0,0
756,-601,0,0,0,0,0,0,0,0,0,-1,1980,1625,0,0
763,-601,0,0,0,0,0,0,0,0,0,-1,1987,1625,0,0
770,-601,0,0,0,0,0,0,0,0,0,-1,1994,1625,0,0
777,-601,0,0,0,0,0,0,0,0,0,-1,2001,1625,0,0
784,-601,0,0,0,0,0,0,0,0,0,-1,2008,1625,0,0
791,-601,0,0,0,0,0,0,0,0,0,-1,2015,1625,0,0
798,-601,0,0,0,0,0,0,0,0,0,-1,2022,1625,0,0
805,-601,0,0,0,0,0,0,0,0,0,-1,2029,1625,0,0
812,-601,0,0,0,0,0,0,0,0,0,-1,2036,1625,0,0
-700,-608,0,0,0,0,0,0,0,0,0,-1,524,1632,0,0
-693,-608,0,0,0,0,0,0,0,0,0,-1,531,1632,0,0
-686,-608,0,0,0,0,0,0,0,0,0,-1,538,1632,0,0
-679,-608,0,0,0,0,0,0,0,0,0,-1,545,1632,0,0
-672,-608,0,0,0,0,0,0,0,0,0,-1,552,1632,0,0
-665,-608,0,0,0,0,0,0,0,0,0,-1,559,1632,0,0
-658,-608,0,0,0,0,0,0,0,0,0,-1,566,1632,0,0
-651,-608,0,0,0,0,0,0,0,0,0,-1,573,1632,0,0
-644,-608,0,0,0,0,0,0,0,0,0,-1,580,1632,0,0
-637,-608,0,0,0,0,0,0,0,0,0,-1,587,1632,0,0
-630,-608,0,0,0,0,0,0,0,0,0,-1,594,1632,0,0
-623,-608,0,0,0,0,0,0,0,0,0,-1,601,1632,0,0
-616,-608,0,0,0,0,0,0,0,0,0,-1,608,1632,0,0
-609,-608,0,0,0,0,0,0,0,0,0,-1,615,1632,0,0
-602,-608,0,0,0,0,0,0,0,0,0,-1,622,1632,0,0
-595,-608,0,0,0,0,0,0,0,0,0,-1,629,1632,0,0
-588,-608,0,0,0,0,0,0,0,0,0,-1,636,1632,0,0
-581,-608,0,0,0,0,0,0,0,0,0,-1,643,1632,0,0
-574,-608,0,0,0,0,0,0,0,0,0,-1,650,1632,0,0
-567,-608,0,0,0,0,0,0,0,0,0,-1,657,1632,0,0
-560,-608,0,0,0,0,0,0,0,0,0,-1,664,1632,0,0
-553,-608,0,0,0,0,0,0,0,0,0,-1,671,1632,0,0
-546,-608,0,0,0,0,0,0,0,0,0,-1,678,1632,0,0
-539,-608,0,0,0,0,0,0,0,0,0,-1,685,1632,0,0
-532,-608,0,0,0,0,0,0,0,0,0,-1,692,1632,0,0
-525,-608,0,0,0,0,0,0,0,0,0,-1,699,1632,0,0
-518,-608,0,0,0,0,0,0,0,0,0,-1,706,1632,0,0
-511,-608,0,0,0,0,0,0,0,0,0,-1,713,1632,0,0
-504,-608,0,0,0,0,0,0,0,0,0,-1,720,1632,0,0
-497,-608,0,0,0,0,0,0,0,0,0,-1,727,1632,0,0
-490,-608,0,0,0,0,0,0,0,0,0,-1,734,1632,0,0
-483,-608,0,0,0,0,0,0,0,0,0,-1,741,1632,0,0
-476,-608,0,0,0,0,0,0,0,0,0,-1,748,1632,0,0
-469,-608,0,0,0,0,0,0,0,0,0,-1,755,1632,0,0
-462,-608,0,0,0,0,0,0,0,0,0,-1,762,1632,0,0
-455,-608,0,0,0,0,0,0,0,0,0,-1,769,1632,0,0
-448,-608,0,0,0,0,0,0,0,0,0,-1,776,1632,0,0
-441,-608,-7.34601,2.78052,0,0,0,0,0,0,0,-1,783,1632,-7.346,-2.78056
-434,-608,-6.34558,3.27405,0,0,0,0,0,0,0,-1,790,1632,-6.34555,-3.27406
-427,-608,-7.74335,4.17688,0,0,0,0,0,0,0,-1,797,1632,-7.74334,-4.17693
-420,-608,-6.82794,4.34839,0,0,0,0,0,0,0,-1,804,1632,-6.82794,-4.34838
-413,-608,-5.41919,5.66138,0,0,0,0,0,0,0,-1,811,1632,-5.41917,-5.66133
-406,-608,-4.79681,4.98999,0,0,0,0,0,0,0,-1,818,1632,-4.79684,-4.98997
-399,-608,-2.60645,6.34167,0,0,0,0,0,0,0,-1,825,1632,-2.60643,-6.34169
-392,-608,2.08356,15.437,0,0,0,0,0,0,0,-1,832,1632,2.08354,-15.437
-385,-608,2.8299,19.1305,0,0,0,0,0,0,0,-1,839,1632,2.82987,-19.1305
-378,-608,2.83704,19.8074,0,0,0,0,0,0,0,-1,846,1632,2.83706,-19.8074
-371,-608,2.73389,19.9937,0,0,0,0,0,0,0,-1,853,1632,2.73391,-19.9936
-364,-608,2.87274,20.4362,-0.00298368,0.00325717,0.00180576,0.00374199,-0.00346851,1.30849,0.00416398,0.0290652,860,1632,2.87273,-20.4361
-357,-608,2.81342,20.9199,-0.00220528,0.00258999,0.00166594,0.00311195,-0.00272723,1.26717,0.00337369,0.0198265,867,1632,2.81339,-20.9199
-350,-608,2.83783,21.3955,-0.00148126,0.00217224,0.00153594,0.00273215,-0.00204117,1.22123,0.00276548,0.0194712,874,1632,2.83783,-21.3955
-343,-608,2.82837,21.8289,-0.000799861,0.00192384,0.00150987,0.0025953,-0.00147132,1.15235,0.00237757,0.0229503,881,1632,2.82837,-21.8288
-336,-608,2.78772,22.2552,-0.000238669,0.00173246,0.00142882,0.00248265,-0.000988861,1.08731,0.0020652,0.0154949,888,1632,2.78773,-22.2553
-329,-608,2.76416,22.6642,0.000285693,0.00169882,0.00137149,0.00253505,-0.000550534,1.02326,0.00190032,0.0137067,895,1632,2.76418,-22.6642
-322,-608,2.74365,23.0428,0.000653446,0.00186891,0.00144244,0.00282642,-0.000304054,0.984775,0.00199337,0.0150389,902,1632,2.74367,-23.0429
-315,-608,2.74634,23.4142,0.000963969,0.00200345,0.00154829,0.0031169,-0.000149486,0.947331,0.00212951,0.0141237,909,1632,2.74632,-23.4142
-308,-608,2.74121,23.8024,0.00133172,0.00207864,0.00166689,0.0034134,-3.03797e-06,0.895601,0.00227661,0.014349,916,1632,2.74123,-23.8024
-301,-608,2.73645,24.1837,0.00174054,0.00218324,0.00187757,0.00385246,7.13154e-05,0.844073,0.00254487,0.0111412,923,1632,2.73644,-24.1837
-294,-608,2.74188,24.5476,0.00218658,0.00245646,0.00220208,0.00452773,0.00011531,0.815999,0.0029808,0.0105159,930,1632,2.74185,-24.5476
-287,-608,2.73096,24.9286,0.0026986,0.00281267,0.00254721,0.00530348,0.000207791,0.796592,0.00346847,0.0097581,937,1632,2.73096,-24.9286
-280,-608,2.7381,25.2925,0.00320532,0.00314371,0.0029212,0.00609587,0.000253149,0.780126,0.00398221,0.00787823,944,1632,2.73808,-25.2925
-273,-608,2.7157,25.6714,0.00368195,0.00336274,0.00328267,0.00680889,0.000235798,0.761108,0.00446274,0.00928499,951,1632,2.71568,-25.6714
-266,-608,2.7359,26.0707,0.00420244,0.0036992,0.00366559,0.00762504,0.000276597,0.75113,0.00499371,0.00997191,958,1632,2.73591,-26.0706
-259,-608,2.80023,26.4276,0.00467663,0.00414888,0.0041342,0.00855537,0.000270148,0.753528,0.00561569,0.0133558,965,1632,2.80021,-26.4276
-252,-608,2.85785,26.8022,0.00515758,0.00438758,0.00460328,0.00939193,0.000153229,0.743678,0.00621084,0.0255875,972,1632,2.85782,-26.8022
-245,-608,2.92957,27.4248,0.00562968,0.00474258,0.00513239,0.0103376,3.46107e-05,0.742294,0.00688026,0.0356676,979,1632,2.92958,-27.4248
-238,-608,3.10602,27.976,0,0,0,0,0,0,0,-1,986,1632,3.10601,-27.9759
-231,-608,3.26025,27.5262,0,0,0,0,0,0,0,-1,993,1632,3.26023,-27.5263
-224,-608,2.51642,15.3452,0,0,0,0,0,0,0,-1,1000,1632,2.5164,-15.3452
-217,-608,1.04419,12.8451,0,0,0,0,0,0,0,-1,1007,1632,1.04418,-12.8451
-210,-608,2.75903,15.9414,0,0,0,0,0,0,0,-1,1014,1632,2.75903,-15.9414
-203,-608,2.76776,16.217,0,0,0,0,0,0,0,-1,1021,1632,2.76773,-16.217
-196,-608,1.53955,18.6058,0,0,0,0,0,0,0,-1,1028,1632,1.53959,-18.6058
-189,-608,1.37634,19.119,0,0,0,0,0,0,0,-1,1035,1632,1.37634,-19.1191
-182,-608,2.89221,16.7092,0,0,0,0,0,0,0,-1,1042,1632,2.89224,-16.7093
-175,-608,0.219116,15.1643,0,0,0,0,0,0,0,-1,1049,1632,0.219173,-15.1644
-168,-608,0.000366211,9.48645,0,0,0,0,0,0,0,-1,1056,1632,0.000317105,-9.48648
-161,-608,2.27832,15.4423,0,0,0,0,0,0,0,-1,1063,1632,2.27826,-15.4423
-154,-608,1.3999,16.4037,0,0,0,0,0,0,0,-1,1070,1632,1.39987,-16.4037
-147,-608,2.4386,9.50317,0,0,0,0,0,0,0,-1,1077,1632,2.43858,-9.50313
-140,-608,2.60132,10.8401,0,0,0,0,0,0,0,-1,1084,1632,2.60134,-10.8401
-133,-608,3.2312,12.4738,0,0,0,0,0,0,0,-1,1091,1632,3.23116,-12.4738
-126,-608,3.76465,13.9644,0,0,0,0,0,0,0,-1,1098,1632,3.76466,-13.9644
-119,-608,4.28906,15.4196,0,0,0,0,0,0,0,-1,1105,1632,4.28911,-15.4195
-112,-608,0.745117,10.5587,0,0,0,0,0,0,0,-1,1112,1632,0.745145,-10.5587
-105,-608,-0.252319,1.42419,0,0,0,0,0,0,0,-1,1119,1632,-0.252331,-1.42418
-98,-608,-2.8595,3.0863,0,0,0,0,0,0,0,-1,1126,1632,-2.85948,-3.08625
-91,-608,-3.71948,1.73608,0,0,0,0,0,0,0,-1,1133,1632,-3.7195,-1.73607
-84,-608,0,0,0,0,0,0,0,0,0,-1,1140,1632,0,0
-77,-608,0,0,0,0,0,0,0,0,0,-1,1147,1632,0,0
-70,-608,0,0,0,0,0,0,0,0,0,-1,1154,1632,0,0
-63,-608,0,0,0,0,0,0,0,0,0,-1,1161,1632,0,0
-56,-608,0,0,0,0,0,0,0,0,0,-1,1168,1632,0,0
-49,-608,0,0,0,0,0,0,0,0,0,-1,1175,1632,0,0
-42,-608,0,0,0,0,0,0,0,0,0,-1,1182,1632,0,0
-35,-608,0,0,0,0,0,0,0,0,0,-1,1189,1632,0,0
-28,-608,0,0,0,0,0,0,0,0,0,-1,1196,1632,0,0
-21,-608,0,0,0,0,0,0,0,0,0,-1,1203,1632,0,0
-14,-608,0,0,0,0,0,0,0,0,0,-1,1210,1632,0,0
-7,-608,0,0,0,0,0,0,0,0,0,-1,1217,1632,0,0
0,-608,0,0,0,0,0,0,0,0,0,-1,1224,1632,0,0
7,-608,0,0,0,0,0,0,0,0,0,-1,1231,1632,0,0
14,-608,0,0,0,0,0,0,0,0,0,-1,1238,1632,0,0
21,-608,0,0,0,0,0,0,0,0,0,-1,1245,1632,0,0
28,-608,0,0,0,0,0,0,0,0,0,-1,1252,1632,0,0
35,-608,0,0,0,0,0,0,0,0,0,-1,1259,1632,0,0
42,-608,0,0,0,0,0,0,0,0,0,-1,1266,1632,0,0
49,-608,0,0,0,0,0,0,0,0,0,-1,1273,1632,0,0
56,-608,0,0,0,0,0,0,0,0,0,-1,1280,1632,0,0
63,-608,0,0,0,0,0,0,0,0,0,-1,1287,1632,0,0
70,-608,0,0,0,0,0,0,0,0,0,-1,1294,1632,0,0
77,-608,0,0,0,0,0,0,0,0,0,-1,1301,1632,0,0
84,-608,0,0,0,0,0,0,0,0,0,-1,1308,1632,0,0
91,-608,0,0,0,0,0,0,0,0,0,-1,1315,1632,0,0
98,-608,0,0,0,0,0,0,0,0,0,-1,1322,1632,0,0
105,-608,0,0,0,0,0,0,0,0,0,-1,1329,1632,0,0
112,-608,0,0,0,0,0,0,0,0,0,-1,1336,1632,0,0
119,-608,0,0,0,0,0,0,0,0,0,-1,1343,1632,0,0
126,-608,0,0,0,0,0,0,0,0,0,-1,1350,1632,0,0
133,-608,0,0,0,0,0,0,0,0,0,-1,1357,1632,0,0
140,-608,0,0,0,0,0,0,0,0,0,-1,1364,1632,0,0
147,-608,0,0,0,0,0,0,0,0,0,-1,1371,1632,0,0
154,-608,0,0,0,0,0,0,0,0,0,-1,1378,1632,0,0
161,-608,0,0,0,0,0,0,0,0,0,-1,1385,1632,0,0
168,-608,0,0,0,0,0,0,0,0,0,-1,1392,1632,0,0
175,-608,0,0,0,0,0,0,0,0,0,-1,1399,1632,0,0
182,-608,0,0,0,0,0,0,0,0,0,-1,1406,1632,0,0
189,-608,0,0,0,0,0,0,0,0,0,-1,1413,1632,0,0
196,-608,0,0,0,0,0,0,0,0,0,-1,1420,1632,0,0
203,-608,0,0,0,0,0,0,0,0,0,-1,1427,1632,0,0
210,-608,5.7157,-0.333008,0,0,0,0,0,0,0,-1,1434,1632,5.71566,0.333004
217,-608,4.49402,-0.831787,0,0,0,0,0,0,0,-1,1441,1632,4.49396,0.831738
224,-608,4.18018,-1.11792,0,0,0,0,0,0,0,-1,1448,1632,4.1802,1.11796
231,-608,0.361816,0.825195,0,0,0,0,0,0,0,-1,1455,1632,0.36185,-0.825226
238,-608,2.85388,-0.28833,0,0,0,0,0,0,0,-1,1462,1632,2.85391,0.288282
245,-608,3.87537,4.02173,0,0,0,0,0,0,0,-1,1469,1632,3.87538,-4.02168
252,-608,5.66956,3.5282,0,0,0,0,0,0,0,-1,1476,1632,5.6696,-3.52815
259,-608,7.47437,3.07178,0,0,0,0,0,0,0,-1,1483,1632,7.4744,-3.07172
266,-608,9.46936,2.34766,0,0,0,0,0,0,0,-1,1490,1632,9.46932,-2.34764
273,-608,6.03003,3.34241,0,0,0,0,0,0,0,-1,1497,1632,6.02997,-3.34245
280,-608,5.72461,2.0769,0,0,0,0,0,0,0,-1,1504,1632,5.72457,-2.07688
287,-608,6.20581,3.59338,0,0,0,0,0,0,0,-1,1511,1632,6.20585,-3.59341
294,-608,6.94922,5.17151,0,0,0,0,0,0,0,-1,1518,1632,6.94925,-5.17151
301,-608,7.60083,6.68018,0,0,0,0,0,0,0,-1,1525,1632,7.60086,-6.68013
308,-608,7.64746,9.93848,0,0,0,0,0,0,0,-1,1532,1632,7.64745,-9.93842
315,-608,5.30688,11.2054,0,0,0,0,0,0,0,-1,1539,1632,5.30694,-11.2054
322,-608,5.32617,13.7581,0,0,0,0,0,0,0,-1,1546,1632,5.32613,-13.758
329,-608,7.12231,13.9607,0,0,0,0,0,0,0,-1,1553,1632,7.12231,-13.9607
336,-608,5.48633,7.82446,0,0,0,0,0,0,0,-1,1560,1632,5.48634,-7.82446
343,-608,5.47192,5.61047,0,0,0,0,0,0,0,-1,1567,1632,5.47192,-5.61045
350,-608,11.6957,1.71387,0,0,0,0,0,0,0,-1,1574,1632,11.6957,-1.71388
357,-608,3.77002,5.10046,0,0,0,0,0,0,0,-1,1581,1632,3.77002,-5.10043
364,-608,5.6925,11.2163,0,0,0,0,0,0,0,-1,1588,1632,5.69255,-11.2163
371,-608,11.4393,29.1786,0,0,0,0,0,0,0,-1,1595,1632,11.4394,-29.1785
378,-608,11.6959,28.2496,0,0,0,0,0,0,0,-1,1602,1632,11.6959,-28.2496
385,-608,11.7595,27.4609,0.00912484,0.00423048,-0.00599022,0.0131485,0.000206848,-0.591479,0.00869752,0.0375849,1609,1632,11.7595,-27.461
392,-608,11.7922,26.9911,0.00753908,0.00363029,-0.00495385,0.0109101,0.000259252,-0.597511,0.00718856,0.0212527,1616,1632,11.7923,-26.9911
399,-608,11.8542,26.6248,0.00596082,0.00315714,-0.00383911,0.00864602,0.000471938,-0.610346,0.00561332,0.0108161,1623,1632,11.8543,-26.6248
406,-608,11.8787,26.2703,0.00475304,0.00283163,-0.00310593,0.00704345,0.000541224,-0.635409,0.00452602,0.00885034,1630,1632,11.8787,-26.2703
413,-608,11.864,25.9207,0.00378718,0.0027403,-0.00246853,0.00578715,0.00074033,-0.680923,0.00363653,0.00962755,1637,1632,11.864,-25.9207
420,-608,11.8375,25.5902,0.00293129,0.00254565,-0.00188329,0.00463161,0.000845329,-0.734383,0.00284809,0.0166819,1644,1632,11.8376,-25.5902
427,-608,11.8678,25.2668,0.00220036,0.00256613,-0.00149414,0.00388854,0.000877961,-0.846296,0.0023549,0.0173789,1651,1632,11.8678,-25.2669
434,-608,11.8831,24.9323,0.00157311,0.00251048,-0.00124355,0.00337074,0.000712857,-0.965612,0.00205125,0.0139197,1658,1632,11.8831,-24.9322
441,-608,11.8579,24.5771,0.00101069,0.00230513,-0.00102429,0.00286955,0.000446271,-1.06716,0.00178299,0.0133654,1665,1632,11.8579,-24.5771
448,-608,11.8695,24.224,0.000509754,0.00201329,-0.000856586,0.00240122,0.000121831,-1.14556,0.00156179,0.0152631,1672,1632,11.8695,-24.224
455,-608,11.8855,23.8414,4.39137e-05,0.00168302,-0.000683319,0.00193051,-0.000203582,-1.2233,0.00135996,0.0116413,1679,1632,11.8855,-23.8414
462,-608,11.8511,23.474,-0.000395297,0.00117379,-0.000599288,0.00137649,-0.000598,-1.24464,0.00116914,0.0105796,1686,1632,11.8511,-23.4739
469,-608,11.8201,23.1111,-0.00079659,0.000602797,-0.000575475,0.000809052,-0.00100285,-1.22665,0.00104809,0.00839355,1693,1632,11.8201,-23.1111
476,-608,11.811,22.7295,-0.00115868,3.37235e-05,-0.000464082,0.000193054,-0.00131801,-1.24008,0.000949588,0.00937995,1700,1632,11.811,-22.7295
483,-608,11.8046,22.3462,-0.00138758,-0.000244873,-0.000426701,-0.000103122,-0.00152934,-1.25006,0.00098698,0.00927084,1707,1632,11.8045,-22.3462
490,-608,11.8021,21.9646,-0.00173649,-0.000587401,-0.000318956,-0.000504804,-0.00181909,-1.3174,0.00108436,0.0095442,1714,1632,11.8021,-21.9646
497,-608,11.7872,21.5673,-0.00202896,-0.00061341,-0.000164417,-0.000594564,-0.00204781,-1.45667,0.00121646,0.019516,1721,1632,11.7872,-21.5672
504,-608,11.7462,21.2148,-0.00211477,-0.00033873,-8.15102e-05,-0.000334997,-0.00211851,-1.52503,0.00131497,0.0446719,1728,1632,11.7462,-21.2148
511,-608,11.6161,20.8936,-0.00206295,-0.000239455,-2.11074e-05,-0.00023921,-0.00206319,-1.55922,0.00130306,0.0497141,1735,1632,11.6161,-20.8935
518,-608,11.4943,20.5057,0,0,0,0,0,0,0,-1,1742,1632,11.4942,-20.5057
525,-608,11.2109,16.2579,0,0,0,0,0,0,0,-1,1749,1632,11.2109,-16.2579
532,-608,8.27917,11.6693,0,0,0,0,0,0,0,-1,1756,1632,8.27919,-11.6694
539,-608,9.40796,1.43457,0,0,0,0,0,0,0,-1,1763,1632,9.40801,-1.43463
546,-608,9.94031,2.1134,0,0,0,0,0,0,0,-1,1770,1632,9.94031,-2.11346
553,-608,10.363,2.81335,0,0,0,0,0,0,0,-1,1777,1632,10.3631,-2.81333
560,-608,9.23999,4.5636,0,0,0,0,0,0,0,-1,1784,1632,9.24,-4.56354
567,-608,0,0,0,0,0,0,0,0,0,-1,1791,1632,0,0
574,-608,0,0,0,0,0,0,0,0,0,-1,1798,1632,0,0
581,-608,0,0,0,0,0,0,0,0,0,-1,1805,1632,0,0
588,-608,0,0,0,0,0,0,0,0,0,-1,1812,1632,0,0
595,-608,0,0,0,0,0,0,0,0,0,-1,1819,1632,0,0
602,-608,0,0,0,0,0,0,0,0,0,-1,1826,1632,0,0
609,-608,0,0,0,0,0,0,0,0,0,-1,1833,1632,0,0
616,-608,0,0,0,0,0,0,0,0,0,-1,1840,1632,0,0
623,-608,0,0,0,0,0,0,0,0,0,-1,1847,1632,0,0
630,-608,0,0,0,0,0,0,0,0,0,-1,1854,1632,0,0
637,-608,0,0,0,0,0,0,0,0,0,-1,1861,1632,0,0
644,-608,0,0,0,0,0,0,0,0,0,-1,1868,1632,0,0
651,-608,0,0,0,0,0,0,0,0,0,-1,1875,1632,0,0
658,-608,0,0,0,0,0,0,0,0,0,-1,1882,1632,0,0
665,-608,0,0,0,0,0,0,0,0,0,-1,1889,1632,0,0
672,-608,0,0,0,0,0,0,0,0,0,-1,1896,1632,0,0
679,-608,0,0,0,0,0,0,0,0,0,-1,1903,1632,0,0
686,-608,0,0,0,0,0,0,0,0,0,-1,1910,1632,0,0
693,-608,0,0,0,0,0,0,0,0,0,-1,1917,1632,0,0
700,-608,0,0,0,0,0,0,0,0,0,-1,1924,1632,0,0
707,-608,0,0,0,0,0,0,0,0,0,-1,1931,1632,0,0
714,-608,0,0,0,0,0,0,0,0,0,-1,1938,1632,0,0
721,-608,0,0,0,0,0,0,0,0,0,-1,1945,1632,0,0
728,-608,0,0,0,0,0,0,0,0,0,-1,1952,1632,0,0
735,-608,0,0,0,0,0,0,0,0,0,-1,1959,1632,0,0
742,-608,0,0,0,0,0,0,0,0,0,-1,1966,1632,0,0
749,-608,0,0,0,0,0,0,0,0,0,-1,1973,1632,0,0
756,-608,0,0,0,0,0,0,0,0,0,-1,1980,1632,0,0
763,-608,0,0,0,0,0,0,0,0,0,-1,1987,1632,0,0
770,-608,0,0,0,0,0,0,0,0,0,-1,1994,1632,0,0
777,-608,0,0,0,0,0,0,0,0,0,-1,2001,1632,0,0
784,-608,0,0,0,0,0,0,0,0,0,-1,2008,1632,0,0
791,-608,0,0,0,0,0,0,0,0,0,-1,2015,1632,0,0
798,-608,0,0,0,0,0,0,0,0,0,-1,2022,1632,0,0
805,-608,0,0,0,0,0,0,0,0,0,-1,2029,1632,0,0
812,-608,0,0,0,0,0,0,0,0,0,-1,2036,1632,0,0
-700,-615,0,0,0,0,0,0,0,0,0,-1,524,1639,0,0
-693,-615,0,0,0,0,0,0,0,0,0,-1,531,1639,0,0
-686,-615,0,0,0,0,0,0,0,0,0,-1,538,1639,0,0
-679,-615,0,0,0,0,0,0,0,0,0,-1,545,1639,0,0
-672,-615,0,0,0,0,0,0,0,0,0,-1,552,1639,0,0
-665,-615,0,0,0,0,0,0,0,0,0,-1,559,1639,0,0
-658,-615,0,0,0,0,0,0,0,0,0,-1,566,1639,0,0
-651,-615,0,0,0,0,0,0,0,0,0,-1,573,1639,0,0
-644,-615,0,0,0,0,0,0,0,0,0,-1,580,1639,0,0
-637,-615,0,0,0,0,0,0,0,0,0,-1,587,1639,0,0
-630,-615,0,0,0,0,0,0,0,0,0,-1,594,1639,0,0
-623,-615,0,0,0,0,0,0,0,0,0,-1,601,1639,0,0
-616,-615,0,0,0,0,0,0,0,0,0,-1,608,1639,0,0
-609,-615,0,0,0,0,0,0,0,0,0,-1,615,1639,0,0
-602,-615,0,0,0,0,0,0,0,0,0,-1,622,1639,0,0
-595,-615,0,0,0,0,0,0,0,0,0,-1,629,1639,0,0
-588,-615,0,0,0,0,0,0,0,0,0,-1,636,1639,0,0
-581,-615,0,0,0,0,0,0,0,0,0,-1,643,1639,0,0
-574,-615,0,0,0,0,0,0,0,0,0,-1,650,1639,0,0
-567,-615,0,0,0,0,0,0,0,0,0,-1,657,1639,0,0
-560,-615,0,0,0,0,0,0,0,0,0,-1,664,1639,0,0
-553,-615,0,0,0,0,0,0,0,0,0,-1,671,1639,0,0
-546,-615,0,0,0,0,0,0,0,0,0,-1,678,1639,0,0
-539,-615,0,0,0,0,0,0,0,0,0,-1,685,1639,0,0
-532,-615,0,0,0,0,0,0,0,0,0,-1,692,1639,0,0
-525,-615,0,0,0,0,0,0,0,0,0,-1,699,1639,0,0
-518,-615,0,0,0,0,0,0,0,0,0,-1,706,1639,0,0
-511,-615,0,0,0,0,0,0,0,0,0,-1,713,1639,0,0
-504,-615,0,0,0,0,0,0,0,0,0,-1,720,1639,0,0
-497,-615,0,0,0,0,0,0,0,0,0,-1,727,1639,0,0
-490,-615,0,0,0,0,0,0,0,0,0,-1,734,1639,0,0
-483,-615,0,0,0,0,0,0,0,0,0,-1,741,1639,0,0
-476,-615,0,0,0,0,0,0,0,0,0,-1,748,1639,0,0
-469,-615,0,0,0,0,0,0,0,0,0,-1,755,1639,0,0
-462,-615,0,0,0,0,0,0,0,0,0,-1,762,1639,0,0
-455,-615,0,0,0,0,0,0,0,0,0,-1,769,1639,0,0
-448,-615,0,0,0,0,0,0,0,0,0,-1,776,1639,0,0
-441,-615,0,0,0,0,0,0,0,0,0,-1,783,1639,0,0
-434,-615,-7.64508,2.98596,0,0,0,0,0,0,0,-1,790,1639,-7.64505,-2.98594
-427,-615,-9.0011,2.89404,0,0,0,0,0,0,0,-1,797,1639,-9.00107,-2.89399
-420,-615,-8.07568,3.0752,0,0,0,0,0,0,0,-1,804,1639,-8.07569,-3.07514
-413,-615,-7.09149,3.396,0,0,0,0,0,0,0,-1,811,1639,-7.09147,-3.39599
-406,-615,-6.21368,3.7312,0,0,0,0,0,0,0,-1,818,1639,-6.21366,-3.73114
-399,-615,-4.84875,3.91907,0,0,0,0,0,0,0,-1,825,1639,-4.84877,-3.91901
-392,-615,1.7395,13.3127,0,0,0,0,0,0,0,-1,832,1639,1.73953,-13.3128
-385,-615,3.42297,14.9401,0,0,0,0,0,0,0,-1,839,1639,3.42296,-14.94
-378,-615,2.54102,17.2609,0,0,0,0,0,0,0,-1,846,1639,2.54099,-17.2608
-371,-615,3.18335,20.0781,0,0,0,0,0,0,0,-1,853,1639,3.18334,-20.0782
-364,-615,3.11859,20.5623,0,0,0,0,0,0,0,-1,860,1639,3.11857,-20.5623
-357,-615,3.30554,20.9775,0,0,0,0,0,0,0,-1,867,1639,3.30555,-20.9775
-350,-615,3.22089,21.4536,-0.00189672,0.00296825,0.00204887,0.00371615,-0.00264461,1.22079,0.00368972,0.0342388,874,1639,3.22089,-21.4536
-343,-615,3.20239,21.7948,-0.00124194,0.00251715,0.00187647,0.0032935,-0.00201829,1.17851,0.00309609,0.0186155,881,1639,3.20238,-21.7948
-336,-615,3.18524,22.2389,-0.000757978,0.00205714,0.00160934,0.00278762,-0.00148845,1.14471,0.00250648,0.0102881,888,1639,3.18523,-22.2388
-329,-615,3.16083,22.6492,-0.000303421,0.00183667,0.0014019,0.00253023,-0.000996983,1.11137,0.00209959,0.0103037,895,1639,3.16082,-22.6492
-322,-615,3.14624,23.0586,8.80718e-06,0.0018275,0.00134095,0.00253836,-0.000702051,1.08335,0.00196844,0.011681,902,1639,3.14626,-23.0586
-315,-615,3.14655,23.4576,0.000265639,0.00178799,0.00133206,0.00256101,-0.000507383,1.04497,0.0018992,0.0139106,909,1639,3.14656,-23.4577
-308,-615,3.11432,23.8314,0.000588826,0.00172502,0.00134722,0.00261902,-0.000305176,0.984926,0.00185612,0.0207363,916,1639,3.11432,-23.8314
-301,-615,3.11646,24.1904,0.000965497,0.00173457,0.00144205,0.00284248,-0.00014241,0.915696,0.0019442,0.013551,923,1639,3.11643,-24.1905
-294,-615,3.11859,24.5574,0.00140137,0.0019253,0.00165504,0.00333898,-1.23089e-05,0.863888,0.0022301,0.0104596,930,1639,3.11862,-24.5574
-287,-615,3.09338,24.9382,0.00189887,0.00220074,0.00189694,0.00395274,0.000146871,0.825099,0.0025876,0.00755637,937,1639,3.09339,-24.9383
-280,-615,3.10223,25.2969,0.00239393,0.00245526,0.00215728,0.00458209,0.000267096,0.792505,0.0029697,0.0082881,944,1639,3.10224,-25.2968
-273,-615,3.09045,25.6648,0.00288575,0.00268402,0.00242841,0.00521538,0.000354383,0.764642,0.00336502,0.00981892,951,1639,3.09047,-25.6648
-266,-615,3.08899,26.0262,0.00337833,0.00300681,0.00271699,0.0059159,0.000469238,0.751266,0.0037972,0.0102464,958,1639,3.08896,-26.0263
-259,-615,3.12018,26.3752,0.00385402,0.00345015,0.00306897,0.00672769,0.000576483,0.752546,0.00430585,0.0118357,965,1639,3.12019,-26.3752
-252,-615,3.12952,26.7643,0.00431022,0.00379953,0.00341463,0.00747904,0.000630708,0.748078,0.00478966,0.0141115,972,1639,3.12954,-26.7643
-245,-615,3.21704,27.1989,0.00473511,0.00420909,0.00379408,0.00827529,0.000668911,0.750793,0.00530796,0.0206983,979,1639,3.21701,-27.1988
-238,-615,3.27545,27.6027,0.00529273,0.00463121,0.00407037,0.00904575,0.000878185,0.744857,0.00576013,0.0332243,986,1639,3.27547,-27.6027
-231,-615,3.3045,28.0966,0,0,0,0,0,0,0,-1,993,1639,3.30448,-28.0966
-224,-615,3.349,28.1373,0,0,0,0,0,0,0,-1,1000,1639,3.34903,-28.1373
-217,-615,3.99097,27.3737,0,0,0,0,0,0,0,-1,1007,1639,3.99096,-27.3736
-210,-615,2.48901,18.9324,0,0,0,0,0,0,0,-1,1014,1639,2.48902,-18.9323
-203,-615,2.13684,18.6173,0,0,0,0,0,0,0,-1,1021,1639,2.13683,-18.6173
-196,-615,4.27161,21.3264,0,0,0,0,0,0,0,-1,1028,1639,4.27165,-21.3264
-189,-615,1.8269,19.6761,0,0,0,0,0,0,0,-1,1035,1639,1.82691,-19.6761
-182,-615,1.63489,20.2278,0,0,0,0,0,0,0,-1,1042,1639,1.63492,-20.2277
-175,-615,-0.609985,13.8434,0,0,0,0,0,0,0,-1,1049,1639,-0.610016,-13.8434
-168,-615,3.85754,15.472,0,0,0,0,0,0,0,-1,1056,1639,3.85757,-15.472
-161,-615,2.44141,28.2932,0,0,0,0,0,0,0,-1,1063,1639,2.44135,-28.2933
-154,-615,2.42737,24.3593,0,0,0,0,0,0,0,-1,1070,1639,2.42742,-24.3593
-147,-615,1.52502,17.3442,0,0,0,0,0,0,0,-1,1077,1639,1.52501,-17.3442
-140,-615,3.73401,10.2349,0,0,0,0,0,0,0,-1,1084,1639,3.73402,-10.2348
-133,-615,2.6178,17.45,0,0,0,0,0,0,0,-1,1091,1639,2.61776,-17.4499
-126,-615,4.43408,12.5017,0,0,0,0,0,0,0,-1,1098,1639,4.43403,-12.5018
-119,-615,4.82983,13.9279,0,0,0,0,0,0,0,-1,1105,1639,4.82986,-13.9278
-112,-615,3.65698,14.4874,0,0,0,0,0,0,0,-1,1112,1639,3.65695,-14.4875
-105,-615,0.958496,2.45398,0,0,0,0,0,0,0,-1,1119,1639,0.958452,-2.45398
-98,-615,-0.647705,2.12109,0,0,0,0,0,0,0,-1,1126,1639,-0.647756,-2.12105
-91,-615,-3.07983,2.97375,0,0,0,0,0,0,0,-1,1133,1639,-3.07989,-2.97376
-84,-615,-2.46509,0.703247,0,0,0,0,0,0,0,-1,1140,1639,-2.46505,-0.703273
-77,-615,-3.17859,1.23755,0,0,0,0,0,0,0,-1,1147,1639,-3.17865,-1.23752
-70,-615,-4.03943,1.43335,0,0,0,0,0,0,0,-1,1154,1639,-4.03942,-1.43339
-63,-615,-4.8877,1.45544,0,0,0,0,0,0,0,-1,1161,1639,-4.88766,-1.45549
-56,-615,0,0,0,0,0,0,0,0,0,-1,1168,1639,0,0
-49,-615,0,0,0,0,0,0,0,0,0,-1,1175,1639,0,0
-42,-615,0,0,0,0,0,0,0,0,0,-1,1182,1639,0,0
-35,-615,0,0,0,0,0,0,0,0,0,-1,1189,1639,0,0
-28,-615,0,0,0,0,0,0,0,0,0,-1,1196,1639,0,0
-21,-615,0,0,0,0,0,0,0,0,0,-1,1203,1639,0,0
-14,-615,0,0,0,0,0,0,0,0,0,-1,1210,1639,0,0
-7,-615,0,0,0,0,0,0,0,0,0,-1,1217,1639,0,0
0,-615,0,0,0,0,0,0,0,0,0,-1,1224,1639,0,0
7,-615,0,0,0,0,0,0,0,0,0,-1,1231,1639,0,0
14,-615,0,0,0,0,0,0,0,0,0,-1,1238,1639,0,0
21,-615,0,0,0,0,0,0,0,0,0,-1,1245,1639,0,0
28,-615,0,0,0,0,0,0,0,0,0,-1,1252,1639,0,0
35,-615,0,0,0,0,0,0,0,0,0,-1,1259,1639,0,0
42,-615,0,0,0,0,0,0,0,0,0,-1,1266,1639,0,0
49,-615,0,0,0,0,0,0,0,0,0,-1,1273,1639,0,0
56,-615,0,0,0,0,0,0,0,0,0,-1,1280,1639,0,0
63,-615,0,0,0,0,0,0,0,0,0,-1,1287,1639,0,0
70,-615,0,0,0,0,0,0,0,0,0,-1,1294,1639,0,0
77,-615,0,0,0,0,0,0,0,0,0,-1,1301,1639,0,0
84,-615,0,0,0,0,0,0,0,0,0,-1,1308,1639,0,0
91,-615,0,0,0,0,0,0,0,0,0,-1,1315,1639,0,0
98,-615,0,0,0,0,0,0,0,0,0,-1,1322,1639,0,0
105,-615,0,0,0,0,0,0,0,0,0,-1,1329,1639,0,0
112,-615,0,0,0,0,0,0,0,0,0,-1,1336,1639,0,0
119,-615,0,0,0,0,0,0,0,0,0,-1,1343,1639,0,0
126,-615,0,0,0,0,0,0,0,0,0,-1,1350,1639,0,0
133,-615,0,0,0,0,0,0,0,0,0,-1,1357,1639,0,0
140,-615,0,0,0,0,0,0,0,0,0,-1,1364,1639,0,0
147,-615,0,0,0,0,0,0,0,0,0,-1,1371,1639,0,0
154,-615,0,0,0,0,0,0,0,0,0,-1,1378,1639,0,0
161,-615,0,0,0,0,0,0,0,0,0,-1,1385,1639,0,0
168,-615,0,0,0,0,0,0,0,0,0,-1,1392,1639,0,0
175,-615,5.39648,-2.00879,0,0,0,0,0,0,0,-1,1399,1639,5.3965,2.00881
182,-615,5.65393,-1.51025,0,0,0,0,0,0,0,-1,1406,1639,5.65388,1.51028
189,-615,5.58972,-1.35608,0,0,0,0,0,0,0,-1,1413,1639,5.58967,1.35607
196,-615,5.49915,-0.693604,0,0,0,0,0,0,0,-1,1420,1639,5.4991,0.693602
203,-615,5.33411,-0.226685,0,0,0,0,0,0,0,-1,1427,1639,5.33414,0.226689
210,-615,5.60278,0.108276,0,0,0,0,0,0,0,-1,1434,1639,5.60284,-0.10831
217,-615,6.26331,-0.307373,0,0,0,0,0,0,0,-1,1441,1639,6.26331,0.307372
224,-615,5.45422,-0.333984,0,0,0,0,0,0,0,-1,1448,1639,5.45422,0.333992
231,-615,4.92542,1.80298,0,0,0,0,0,0,0,-1,1455,1639,4.92537,-1.80297
238,-615,4.76355,1.96729,0,0,0,0,0,0,0,-1,1462,1639,4.76357,-1.96734
245,-615,4.08643,3.15906,0,0,0,0,0,0,0,-1,1469,1639,4.08638,-3.159
252,-615,6.37805,3.73889,0,0,0,0,0,0,0,-1,1476,1639,6.37806,-3.73891
259,-615,8.35974,3.16443,0,0,0,0,0,0,0,-1,1483,1639,8.35975,-3.16444
266,-615,10.3414,2.58997,0,0,0,0,0,0,0,-1,1490,1639,10.3414,-2.58996
273,-615,6.57043,1.84766,0,0,0,0,0,0,0,-1,1497,1639,6.5704,-1.84771
280,-615,7.10449,3.23438,0,0,0,0,0,0,0,-1,1504,1639,7.10447,-3.23435
287,-615,7.35779,4.68542,0,0,0,0,0,0,0,-1,1511,1639,7.35776,-4.68546
294,-615,7.63733,6.29114,0,0,0,0,0,0,0,-1,1518,1639,7.63735,-6.29109
301,-615,8.47925,11.452,0,0,0,0,0,0,0,-1,1525,1639,8.47922,-11.452
308,-615,6.8114,10.9059,0,0,0,0,0,0,0,-1,1532,1639,6.81137,-10.9058
315,-615,5.1427,14.7251,0,0,0,0,0,0,0,-1,1539,1639,5.14269,-14.7251
322,-615,7.17981,17.6864,0,0,0,0,0,0,0,-1,1546,1639,7.17985,-17.6864
329,-615,7.62134,20.4354,0,0,0,0,0,0,0,-1,1553,1639,7.62139,-20.4354
336,-615,6.45007,14.1138,0,0,0,0,0,0,0,-1,1560,1639,6.45011,-14.1138
343,-615,2.40491,6.50134,0,0,0,0,0,0,0,-1,1567,1639,2.40489,-6.50137
350,-615,6.4458,15.4594,0,0,0,0,0,0,0,-1,1574,1639,6.44578,-15.4593
357,-615,10.077,27.4594,0,0,0,0,0,0,0,-1,1581,1639,10.0771,-27.4594
364,-615,11.3157,28.9631,0,0,0,0,0,0,0,-1,1588,1639,11.3157,-28.9632
371,-615,11.3027,28.6,0,0,0,0,0,0,0,-1,1595,1639,11.3028,-28.5999
378,-615,11.6218,27.9958,0,0,0,0,0,0,0,-1,1602,1639,11.6219,-27.9958
385,-615,11.4811,27.27,0.00694887,0.00420897,-0.00416091,0.00995954,0.00119829,-0.626366,0.0062785,0.0117062,1609,1639,11.481,-27.2701
392,-615,11.512,26.936,0.0057805,0.00354467,-0.00351978,0.00835563,0.000969533,-0.631632,0.00527702,0.00952597,1616,1639,11.5119,-26.936
399,-615,11.5272,26.6045,0.00452987,0.00293946,-0.00271737,0.006566,0.00090333,-0.643054,0.00410945,0.0106076,1623,1639,11.5272,-26.6044
406,-615,11.5239,26.2825,0.0035912,0.00246479,-0.00221157,0.00531016,0.000745834,-0.660718,0.00331954,0.010537,1630,1639,11.5239,-26.2825
413,-615,11.5205,25.9604,0.00286145,0.00218891,-0.00176003,0.00431705,0.000733316,-0.691007,0.00266741,0.0115925,1637,1639,11.5205,-25.9605
420,-615,11.5227,25.616,0.00215352,0.0017927,-0.00129957,0.00328514,0.000661072,-0.716428,0.00200637,0.0132747,1644,1639,11.5227,-25.616
427,-615,11.5354,25.259,0.00154308,0.00164789,-0.00100235,0.0025992,0.000591766,-0.811518,0.0015731,0.0142738,1651,1639,11.5354,-25.259
434,-615,11.5411,24.9137,0.00100431,0.00147635,-0.000837622,0.00211057,0.00037009,-0.922726,0.00130135,0.0131704,1658,1639,11.5411,-24.9137
441,-615,11.5157,24.5504,0.00048311,0.0012371,-0.000677251,0.00163521,8.49954e-05,-1.03937,0.00106294,0.01356,1665,1639,11.5157,-24.5504
448,-615,11.5079,24.209,1.6034e-05,0.000930757,-0.000551611,0.00118995,-0.000243162,-1.13153,0.000885555,0.0152493,1672,1639,11.5079,-24.2089
455,-615,11.4948,23.8698,-0.000408262,0.000588524,-0.000460777,0.000768888,-0.000588626,-1.1977,0.000786061,0.0146343,1679,1639,11.4947,-23.8697
462,-615,11.4844,23.5094,-0.00084169,9.74099e-05,-0.000411397,0.00025214,-0.00099642,-1.21106,0.000762354,0.0142196,1686,1639,11.4843,-23.5094
469,-615,11.4602,23.1323,-0.00125711,-0.000340589,-0.000407463,-0.000185637,-0.00141206,-1.2074,0.000886,0.0119961,1693,1639,11.4603,-23.1323
476,-615,11.4564,22.7386,-0.00162987,-0.000727102,-0.000351409,-0.000606441,-0.00175053,-1.24004,0.00102643,0.0115485,1700,1639,11.4564,-22.7386
483,-615,11.464,22.3195,-0.00184318,-0.000808999,-0.000395005,-0.000675388,-0.00197679,-1.24463,0.00116022,0.0183986,1707,1639,11.464,-22.3194
490,-615,11.4279,21.9305,-0.00221182,-0.000922569,-0.000383287,-0.000817227,-0.00231716,-1.30258,0.00135703,0.0245022,1714,1639,11.4278,-21.9306
497,-615,11.3273,21.6338,-0.00254307,-0.000648373,-0.000283383,-0.000606896,-0.00258455,-1.42547,0.00156058,0.0363156,1721,1639,11.3272,-21.6337
504,-615,11.3273,21.2625,0,0,0,0,0,0,0,-1,1728,1639,11.3273,-21.2625
511,-615,11.184,20.9259,0,0,0,0,0,0,0,-1,1735,1639,11.1839,-20.9259
518,-615,13.2416,9.81812,0,0,0,0,0,0,0,-1,1742,1639,13.2416,-9.81813
525,-615,4.37524,3.90491,0,0,0,0,0,0,0,-1,1749,1639,4.37518,-3.90495
532,-615,7.3645,0.848145,0,0,0,0,0,0,0,-1,1756,1639,7.36451,-0.848093
539,-615,12.8112,-0.0476074,0,0,0,0,0,0,0,-1,1763,1639,12.8111,0.0475553
546,-615,8.33813,2.94556,0,0,0,0,0,0,0,-1,1770,1639,8.33813,-2.9455
553,-615,5.82532,-2.04199,0,0,0,0,0,0,0,-1,1777,1639,5.82534,2.04195
560,-615,0,0,0,0,0,0,0,0,0,-1,1784,1639,0,0
567,-615,0,0,0,0,0,0,0,0,0,-1,1791,1639,0,0
574,-615,0,0,0,0,0,0,0,0,0,-1,1798,1639,0,0
581,-615,0,0,0,0,0,0,0,0,0,-1,1805,1639,0,0
588,-615,0,0,0,0,0,0,0,0,0,-1,1812,1639,0,0
595,-615,0,0,0,0,0,0,0,0,0,-1,1819,1639,0,0
602,-615,0,0,0,0,0,0,0,0,0,-1,1826,1639,0,0
609,-615,0,0,0,0,0,0,0,0,0,-1,1833,1639,0,0
616,-615,0,0,0,0,0,0,0,0,0,-1,1840,1639,0,0
623,-615,0,0,0,0,0,0,0,0,0,-1,1847,1639,0,0
630,-615,0,0,0,0,0,0,0,0,0,-1,1854,1639,0,0
637,-615,0,0,0,0,0,0,0,0,0,-1,1861,1639,0,0
644,-615,0,0,0,0,0,0,0,0,0,-1,1868,1639,0,0
651,-615,0,0,0,0,0,0,0,0,0,-1,1875,1639,0,0
658,-615,0,0,0,0,0,0,0,0,0,-1,1882,1639,0,0
665,-615,0,0,0,0,0,0,0,0,0,-1,1889,1639,0,0
672,-615,0,0,0,0,0,0,0,0,0,-1,1896,1639,0,0
679,-615,0,0,0,0,0,0,0,0,0,-1,1903,1639,0,0
686,-615,0,0,0,0,0,0,0,0,0,-1,1910,1639,0,0
693,-615,0,0,0,0,0,0,0,0,0,-1,1917,1639,0,0
700,-615,0,0,0,0,0,0,0,0,0,-1,1924,1639,0,0
707,-615,0,0,0,0,0,0,0,0,0,-1,1931,1639,0,0
714,-615,0,0,0,0,0,0,0,0,0,-1,1938,1639,0,0
721,-615,0,0,0,0,0,0,0,0,0,-1,1945,1639,0,0
728,-615,0,0,0,0,0,0,0,0,0,-1,1952,1639,0,0
735,-615,0,0,0,0,0,0,0,0,0,-1,1959,1639,0,0
742,-615,0,0,0,0,0,0,0,0,0,-1,1966,1639,0,0
749,-615,0,0,0,0,0,0,0,0,0,-1,1973,1639,0,0
756,-615,0,0,0,0,0,0,0,0,0,-1,1980,1639,0,0
763,-615,0,0,0,0,0,0,0,0,0,-1,1987,1639,0,0
770,-615,0,0,0,0,0,0,0,0,0,-1,1994,1639,0,0
777,-615,0,0,0,0,0,0,0,0,0,-1,2001,1639,0,0
784,-615,0,0,0,0,0,0,0,0,0,-1,2008,1639,0,0
791,-615,0,0,0,0,0,0,0,0,0,-1,2015,1639,0,0
798,-615,0,0,0,0,0,0,0,0,0,-1,2022,1639,0,0
805,-615,0,0,0,0,0,0,0,0,0,-1,2029,1639,0,0
812,-615,0,0,0,0,0,0,0,0,0,-1,2036,1639,0,0
-700,-622,0,0,0,0,0,0,0,0,0,-1,524,1646,0,0
-693,-622,0,0,0,0,0,0,0,0,0,-1,531,1646,0,0
-686,-622,0,0,0,0,0,0,0,0,0,-1,538,1646,0,0
-679,-622,0,0,0,0,0,0,0,0,0,-1,545,1646,0,0
-672,-622,0,0,0,0,0,0,0,0,0,-1,552,1646,0,0
-665,-622,0,0,0,0,0,0,0,0,0,-1,559,1646,0,0
-658,-622,0,0,0,0,0,0,0,0,0,-1,566,1646,0,0
-651,-622,0,0,0,0,0,0,0,0,0,-1,573,1646,0,0
-644,-622,0,0,0,0,0,0,0,0,0,-1,580,1646,0,0
-637,-622,0,0,0,0,0,0,0,0,0,-1,587,1646,0,0
-630,-622,0,0,0,0,0,0,0,0,0,-1,594,1646,0,0
-623,-622,0,0,0,0,0,0,0,0,0,-1,601,1646,0,0
-616,-622,0,0,0,0,0,0,0,0,0,-1,608,1646,0,0
-609,-622,0,0,0,0,0,0,0,0,0,-1,615,1646,0,0
-602,-622,0,0,0,0,0,0,0,0,0,-1,622,1646,0,0
-595,-622,0,0,0,0,0,0,0,0,0,-1,629,1646,0,0
-588,-622,0,0,0,0,0,0,0,0,0,-1,636,1646,0,0
-581,-622,0,0,0,0,0,0,0,0,0,-1,643,1646,0,0
-574,-622,0,0,0,0,0,0,0,0,0,-1,650,1646,0,0
-567,-622,0,0,0,0,0,0,0,0,0,-1,657,1646,0,0
-560,-622,0,0,0,0,0,0,0,0,0,-1,664,1646,0,0
-553,-622,0,0,0,0,0,0,0,0,0,-1,671,1646,0,0
-546,-622,0,0,0,0,0,0,0,0,0,-1,678,1646,0,0
-539,-622,0,0,0,0,0,0,0,0,0,-1,685,1646,0,0
-532,-622,0,0,0,0,0,0,0,0,0,-1,692,1646,0,0
-525,-622,0,0,0,0,0,0,0,0,0,-1,699,1646,0,0
-518,-622,0,0,0,0,0,0,0,0,0,-1,706,1646,0,0
-511,-622,0,0,0,0,0,0,0,0,0,-1,713,1646,0,0
-504,-622,0,0,0,0,0,0,0,0,0,-1,720,1646,0,0
-497,-622,0,0,0,0,0,0,0,0,0,-1,727,1646,0,0
-490,-622,0,0,0,0,0,0,0,0,0,-1,734,1646,0,0
-483,-622,0,0,0,0,0,0,0,0,0,-1,741,1646,0,0
-476,-622,0,0,0,0,0,0,0,0,0,-1,748,1646,0,0
-469,-622,0,0,0,0,0,0,0,0,0,-1,755,1646,0,0
-462,-622,0,0,0,0,0,0,0,0,0,-1,762,1646,0,0
-455,-622,0,0,0,0,0,0,0,0,0,-1,769,1646,0,0
-448,-622,0,0,0,0,0,0,0,0,0,-1,776,1646,0,0
-441,-622,0,0,0,0,0,0,0,0,0,-1,783,1646,0,0
-434,-622,0,0,0,0,0,0,0,0,0,-1,790,1646,0,0
-427,-622,-7.62891,3.48096,0,0,0,0,0,0,0,-1,797,1646,-7.62892,-3.48092
-420,-622,-9.35791,1.77185,0,0,0,0,0,0,0,-1,804,1646,-9.35789,-1.77183
-413,-622,-8.46075,1.96777,0,0,0,0,0,0,0,-1,811,1646,-8.46074,-1.96774
-406,-622,-4.44318,2.16858,0,0,0,0,0,0,0,-1,818,1646,-4.44315,-2.16859
-399,-622,-7.06976,1.51001,0,0,0,0,0,0,0,-1,825,1646,-7.06976,-1.51005
-392,-622,3.89551,5.85376,0,0,0,0,0,0,0,-1,832,1646,3.8955,-5.85379
-385,-622,2.00543,14.0448,0,0,0,0,0,0,0,-1,839,1646,2.00544,-14.0448
-378,-622,1.49036,15.3436,0,0,0,0,0,0,0,-1,846,1646,1.49033,-15.3436
-371,-622,3.3562,19.241,0,0,0,0,0,0,0,-1,853,1646,3.35619,-19.241
-364,-622,3.22522,20.5151,0,0,0,0,0,0,0,-1,860,1646,3.22521,-20.5151
-357,-622,3.60913,21.0435,0,0,0,0,0,0,0,-1,867,1646,3.60911,-21.0435
-350,-622,3.61829,21.5199,0,0,0,0,0,0,0,-1,874,1646,3.61827,-21.52
-343,-622,3.57556,21.8557,-0.0016688,0.00330594,0.0023709,0.00425487,-0.00261773,1.19008,0.00400525,0.0243479,881,1646,3.57554,-21.8557
-336,-622,3.57043,22.2717,-0.00126237,0.00256261,0.00192326,0.00336242,-0.00206217,1.17669,0.00316174,0.00963308,888,1646,3.57044,-22.2717
-329,-622,3.54126,22.6537,-0.000889637,0.0021511,0.00156436,0.00281218,-0.00155072,1.17097,0.00255378,0.00894772,895,1646,3.54125,-22.6537
-322,-622,3.51929,23.0505,-0.000633497,0.00195821,0.00138173,0.00255667,-0.00123196,1.16207,0.00223149,0.0102556,902,1646,3.51931,-23.0505
-315,-622,3.51733,23.4556,-0.000430908,0.00172986,0.00125774,0.00230753,-0.00100857,1.14024,0.0019629,0.0135329,909,1646,3.51732,-23.4556
-308,-622,3.51251,23.8184,-0.000159174,0.00151753,0.00116906,0.00211777,-0.000759409,1.09646,0.00172174,0.0144369,916,1646,3.5125,-23.8184
-301,-622,3.50989,24.1823,0.000180376,0.00141756,0.0011498,0.00210461,-0.000506674,1.03219,0.00159895,0.0140319,923,1646,3.50988,-24.1823
-294,-622,3.49133,24.574,0.000599648,0.0015013,0.001254,0.00238305,-0.0002821,0.957959,0.0016906,0.0102835,930,1646,3.49134,-24.5739
-287,-622,3.47205,24.9424,0.00108277,0.00168061,0.00140642,0.00281952,-5.61459e-05,0.890111,0.00189867,0.00780311,937,1646,3.47208,-24.9424
-280,-622,3.47125,25.2941,0.00156085,0.00185775,0.00156448,0.00328081,0.000137794,0.8327,0.00214276,0.00834524,944,1646,3.47128,-25.294
-273,-622,3.48047,25.634,0.00205362,0.00205896,0.0017537,0.00380999,0.000302594,0.78616,0.00244538,0.012409,951,1646,3.48047,-25.6341
-266,-622,3.46472,26.006,0.00253092,0.00235873,0.00197962,0.00442632,0.000463326,0.763667,0.0028092,0.012632,958,1646,3.4647,-26.006
-259,-622,3.46796,26.4063,0.00302251,0.00276397,0.00224318,0.00514014,0.000646336,0.756617,0.00323292,0.0119077,965,1646,3.46795,-26.4062
-252,-622,3.46783,26.7297,0.00347711,0.00318569,0.00249676,0.0058324,0.000830397,0.756252,0.00364315,0.0123066,972,1646,3.46782,-26.7297
-245,-622,3.51501,27.0602,0.00388908,0.00361703,0.00277072,0.00652711,0.000979001,0.760871,0.00406456,0.010213,979,1646,3.51504,-27.0602
-238,-622,3.52197,27.4124,0.00440423,0.00401951,0.00294807,0.00716621,0.00125753,0.75282,0.00441836,0.0127905,986,1646,3.522,-27.4123
-231,-622,3.57587,27.8082,0.00500438,0.00379394,0.00309427,0.00755207,0.00124626,0.68882,0.00467499,0.0222874,993,1646,3.57589,-27.8082
-224,-622,3.62036,28.0685,0.00553148,0.00417587,0.00337861,0.00829961,0.00140775,0.686404,0.00512863,0.0366935,1000,1646,3.62034,-28.0685
-217,-622,3.69208,28.3639,0,0,0,0,0,0,0,-1,1007,1646,3.69207,-28.3639
-210,-622,3.87927,28.0903,0,0,0,0,0,0,0,-1,1014,1646,3.87925,-28.0903
-203,-622,4.21375,20.9574,0,0,0,0,0,0,0,-1,1021,1646,4.21375,-20.9574
-196,-622,4.18518,21.2491,0,0,0,0,0,0,0,-1,1028,1646,4.18521,-21.2491
-189,-622,4.98254,25.8979,0,0,0,0,0,0,0,-1,1035,1646,4.98255,-25.8979
-182,-622,2.21411,20.6752,0,0,0,0,0,0,0,-1,1042,1646,2.21416,-20.6751
-175,-622,2.56091,11.0195,0,0,0,0,0,0,0,-1,1049,1646,2.56095,-11.0195
-168,-622,3.31055,28.6663,0,0,0,0,0,0,0,-1,1056,1646,3.31055,-28.6663
-161,-622,3.16541,29.0825,0,0,0,0,0,0,0,-1,1063,1646,3.16545,-29.0825
-154,-622,3.02039,29.4987,0,0,0,0,0,0,0,-1,1070,1646,3.02035,-29.4986
-147,-622,3.7146,25.5477,0,0,0,0,0,0,0,-1,1077,1646,3.71464,-25.5478
-140,-622,3.27515,16.0353,0,0,0,0,0,0,0,-1,1084,1646,3.27519,-16.0353
-133,-622,3.09644,17.677,0,0,0,0,0,0,0,-1,1091,1646,3.09638,-17.677
-126,-622,3.5061,19.5251,0,0,0,0,0,0,0,-1,1098,1646,3.50616,-19.5252
-119,-622,4.06384,13.1715,0,0,0,0,0,0,0,-1,1105,1646,4.06379,-13.1716
-112,-622,4.33276,14.6605,0,0,0,0,0,0,0,-1,1112,1646,4.33281,-14.6605
-105,-622,0.306519,4.38159,0,0,0,0,0,0,0,-1,1119,1646,0.306536,-4.38159
-98,-622,-0.510376,3.5033,0,0,0,0,0,0,0,-1,1126,1646,-0.510393,-3.50324
-91,-622,-1.146,0.975952,0,0,0,0,0,0,0,-1,1133,1646,-1.14599,-0.97597
-84,-622,-2.04895,1.31787,0,0,0,0,0,0,0,-1,1140,1646,-2.0489,-1.31781
-77,-622,-1.80627,0.332275,0,0,0,0,0,0,0,-1,1147,1646,-1.80622,-0.33223
-70,-622,-3.65588,2.28149,0,0,0,0,0,0,0,-1,1154,1646,-3.65589,-2.28155
-63,-622,-2.49683,1.27087,0,0,0,0,0,0,0,-1,1161,1646,-2.49679,-1.27093
-56,-622,-2.44238,-0.575562,0,0,0,0,0,0,0,-1,1168,1646,-2.44242,0.575508
-49,-622,-2.41089,1.38818,0,0,0,0,0,0,0,-1,1175,1646,-2.41088,-1.38815
-42,-622,-2.71497,2.85242,0,0,0,0,0,0,0,-1,1182,1646,-2.71491,-2.85247
-35,-622,-3.0177,4.25842,0,0,0,0,0,0,0,-1,1189,1646,-3.01773,-4.25838
-28,-622,-0.896606,0.678833,0,0,0,0,0,0,0,-1,1196,1646,-0.89661,-0.678835
-21,-622,3.69312,26.7708,0,0,0,0,0,0,0,-1,1203,1646,3.69309,-26.7708
-14,-622,14.3806,35.9073,0,0,0,0,0,0,0,-1,1210,1646,14.3806,-35.9073
-7,-622,0.769043,32.1705,0,0,0,0,0,0,0,-1,1217,1646,0.769028,-32.1705
0,-622,0,0,0,0,0,0,0,0,0,-1,1224,1646,0,0
7,-622,0,0,0,0,0,0,0,0,0,-1,1231,1646,0,0
14,-622,0,0,0,0,0,0,0,0,0,-1,1238,1646,0,0
21,-622,0,0,0,0,0,0,0,0,0,-1,1245,1646,0,0
28,-622,0,0,0,0,0,0,0,0,0,-1,1252,1646,0,0
35,-622,0,0,0,0,0,0,0,0,0,-1,1259,1646,0,0
42,-622,0,0,0,0,0,0,0,0,0,-1,1266,1646,0,0
49,-622,0,0,0,0,0,0,0,0,0,-1,1273,1646,0,0
56,-622,0,0,0,0,0,0,0,0,0,-1,1280,1646,0,0
63,-622,0,0,0,0,0,0,0,0,0,-1,1287,1646,0,0
70,-622,0,0,0,0,0,0,0,0,0,-1,1294,1646,0,0
77,-622,0,0,0,0,0,0,0,0,0,-1,1301,1646,0,0
84,-622,0,0,0,0,0,0,0,0,0,-1,1308,1646,0,0
91,-622,0,0,0,0,0,0,0,0,0,-1,1315,1646,0,0
98,-622,0,0,0,0,0,0,0,0,0,-1,1322,1646,0,0
105,-622,0,0,0,0,0,0,0,0,0,-1,1329,1646,0,0
112,-622,0,0,0,0,0,0,0,0,0,-1,1336,1646,0,0
119,-622,0,0,0,0,0,0,0,0,0,-1,1343,1646,0,0
126,-622,2.93127,41.8004,0,0,0,0,0,0,0,-1,1350,1646,2.93128,-41.8004
133,-622,2.8363,41.7854,0,0,0,0,0,0,0,-1,1357,1646,2.83628,-41.7855
140,-622,3.28247,42.6232,-0.00645604,0.184513,0.0250551,0.187745,-0.00968856,1.44249,0.128515,0.0455134,1364,1646,3.28253,-42.6231
147,-622,3.25427,44.0051,0,0,0,0,0,0,0,-1,1371,1646,3.25426,-44.0051
154,-622,3.51294,45.2302,0,0,0,0,0,0,0,-1,1378,1646,3.51298,-45.2303
161,-622,10.6884,6.46448,0,0,0,0,0,0,0,-1,1385,1646,10.6883,-6.46442
168,-622,12.2402,5.18091,0,0,0,0,0,0,0,-1,1392,1646,12.2403,-5.1809
175,-622,5.64355,-1.77075,0,0,0,0,0,0,0,-1,1399,1646,5.64351,1.77077
182,-622,5.88586,-1.32251,0,0,0,0,0,0,0,-1,1406,1646,5.88587,1.32256
189,-622,5.97986,-1.18005,0,0,0,0,0,0,0,-1,1413,1646,5.97986,1.18003
196,-622,5.85022,-0.244507,0,0,0,0,0,0,0,-1,1420,1646,5.85026,0.244478
203,-622,5.25159,0.138794,0,0,0,0,0,0,0,-1,1427,1646,5.25162,-0.138822
210,-622,6.66833,0.0397949,0,0,0,0,0,0,0,-1,1434,1646,6.6684,-0.0398278
217,-622,6.12061,0.0506592,0,0,0,0,0,0,0,-1,1441,1646,6.12058,-0.0507181
224,-622,5.57275,0.0616455,0,0,0,0,0,0,0,-1,1448,1646,5.57276,-0.0616084
231,-622,5.31348,1.3949,0,0,0,0,0,0,0,-1,1455,1646,5.31342,-1.39495
238,-622,3.76477,2.90686,0,0,0,0,0,0,0,-1,1462,1646,3.7648,-2.90686
245,-622,5.13794,2.67993,0,0,0,0,0,0,0,-1,1469,1646,5.13796,-2.67992
252,-622,6.66528,2.53992,0,0,0,0,0,0,0,-1,1476,1646,6.66522,-2.53991
259,-622,8.93787,3.31458,0,0,0,0,0,0,0,-1,1483,1646,8.93791,-3.31454
266,-622,5.72644,3.11926,0,0,0,0,0,0,0,-1,1490,1646,5.72647,-3.1192
273,-622,7.28076,3.61218,0,0,0,0,0,0,0,-1,1497,1646,7.28071,-3.61212
280,-622,8.43127,4.4447,0,0,0,0,0,0,0,-1,1504,1646,8.43123,-4.44467
287,-622,8.60315,5.94617,0,0,0,0,0,0,0,-1,1511,1646,8.60319,-5.94622
294,-622,7.62756,11.5143,0,0,0,0,0,0,0,-1,1518,1646,7.62762,-11.5143
301,-622,7.36548,11.6569,0,0,0,0,0,0,0,-1,1525,1646,7.36549,-11.6569
308,-622,7.10339,11.7994,0,0,0,0,0,0,0,-1,1532,1646,7.10335,-11.7995
315,-622,8.28687,16.5842,0,0,0,0,0,0,0,-1,1539,1646,8.28689,-16.5843
322,-622,7.43689,20.5786,0,0,0,0,0,0,0,-1,1546,1646,7.43685,-20.5786
329,-622,9.76477,26.4202,0,0,0,0,0,0,0,-1,1553,1646,9.7648,-26.4202
336,-622,10.4526,28.8552,0,0,0,0,0,0,0,-1,1560,1646,10.4526,-28.8552
343,-622,10.282,29.2583,0,0,0,0,0,0,0,-1,1567,1646,10.282,-29.2583
350,-622,11.1786,28.9281,0,0,0,0,0,0,0,-1,1574,1646,11.1786,-28.9281
357,-622,11.2363,28.4963,0,0,0,0,0,0,0,-1,1581,1646,11.2364,-28.4963
364,-622,11.0734,28.5087,0.00907714,0.00622092,-0.0043405,0.0122184,0.00307963,-0.626466,0.00733776,0.0385361,1588,1646,11.0733,-28.5087
371,-622,11.179,27.9524,0.00757049,0.00535038,-0.00373473,0.0103566,0.00256424,-0.640944,0.0062282,0.0221883,1595,1646,11.179,-27.9524
378,-622,11.1691,27.5867,0.00632204,0.00460197,-0.00330903,0.00888097,0.00204304,-0.658259,0.00537076,0.0104968,1602,1646,11.1691,-27.5867
385,-622,11.1628,27.2594,0.00528311,0.00385577,-0.00293663,0.00759155,0.00154733,-0.666197,0.00463222,0.00927679,1609,1646,11.1628,-27.2594
392,-622,11.1602,26.9551,0.00438346,0.00313721,-0.00251495,0.00635133,0.00116934,-0.66396,0.00390327,0.0107823,1616,1646,11.1601,-26.9551
399,-622,11.1608,26.6289,0.00335608,0.00242552,-0.00189738,0.0048444,0.000937199,-0.66516,0.00296696,0.0109975,1623,1646,11.1608,-26.629
406,-622,11.1606,26.277,0.00259729,0.00182992,-0.00150791,0.00376956,0.000657646,-0.660818,0.00232504,0.0125985,1630,1646,11.1606,-26.277
413,-622,11.163,25.9331,0.00202299,0.00140772,-0.00114823,0.00290408,0.000526629,-0.654511,0.00178657,0.0139219,1637,1646,11.163,-25.9331
420,-622,11.1757,25.6193,0.00143165,0.000904161,-0.000775982,0.00198748,0.000348327,-0.621581,0.00122549,0.015384,1644,1646,11.1757,-25.6193
427,-622,11.1842,25.2625,0.000923495,0.00066312,-0.000545169,0.00135381,0.000232809,-0.668192,0.000835813,0.0132644,1651,1646,11.1842,-25.2624
434,-622,11.1825,24.9092,0.000464921,0.000427392,-0.000446642,0.000893192,-8.79256e-07,-0.764404,0.000595755,0.013603,1658,1646,11.1826,-24.9092
441,-622,11.1711,24.5472,-7.00233e-06,0.000202242,-0.000344188,0.000457357,-0.000262118,-0.932945,0.000420456,0.0143055,1665,1646,11.1711,-24.5472
448,-622,11.1559,24.2156,-0.00042411,-6.97543e-05,-0.000271816,7.75305e-05,-0.000571394,-1.07423,0.000409228,0.0135251,1672,1646,11.1559,-24.2155
455,-622,11.1302,23.8673,-0.000793966,-0.000360817,-0.00027518,-0.000227208,-0.000927575,-1.11879,0.000558278,0.0162009,1679,1646,11.1302,-23.8673
462,-622,11.13,23.5118,-0.00119691,-0.000753409,-0.000300455,-0.000601733,-0.00134858,-1.1033,0.000780106,0.0169463,1686,1646,11.13,-23.5119
469,-622,11.0962,23.1289,-0.00159492,-0.000994905,-0.00037507,-0.000814618,-0.0017752,-1.12273,0.00102607,0.0175046,1693,1646,11.0962,-23.1289
476,-622,11.1276,22.7543,-0.00196607,-0.00118002,-0.000399833,-0.00101239,-0.0021337,-1.1738,0.00123243,0.021063,1700,1646,11.1276,-22.7543
483,-622,11.0458,22.3995,-0.0021714,-0.00105072,-0.000545479,-0.000829055,-0.00239306,-1.18482,0.00140319,0.0315134,1707,1646,11.0458,-22.3995
490,-622,10.9146,21.8669,-0.00257925,-0.000894206,-0.000661338,-0.000665648,-0.00280781,-1.23805,0.00169415,0.0385194,1714,1646,10.9145,-21.8669
497,-622,10.9888,21.834,0,0,0,0,0,0,0,-1,1721,1646,10.9888,-21.834
504,-622,10.8306,19.8021,0,0,0,0,0,0,0,-1,1728,1646,10.8306,-19.8022
511,-622,5.29004,4.14587,0,0,0,0,0,0,0,-1,1735,1646,5.29008,-4.14589
518,-622,5.6001,1.55359,0,0,0,0,0,0,0,-1,1742,1646,5.60015,-1.5536
525,-622,5.83093,2.01807,0,0,0,0,0,0,0,-1,1749,1646,5.83097,-2.01802
532,-622,5.44202,0.57373,0,0,0,0,0,0,0,-1,1756,1646,5.44196,-0.573705
539,-622,9.32129,1.06116,0,0,0,0,0,0,0,-1,1763,1646,9.32131,-1.0612
546,-622,6.50977,-3.45618,0,0,0,0,0,0,0,-1,1770,1646,6.50981,3.4562
553,-622,0,0,0,0,0,0,0,0,0,-1,1777,1646,0,0
560,-622,0,0,0,0,0,0,0,0,0,-1,1784,1646,0,0
567,-622,0,0,0,0,0,0,0,0,0,-1,1791,1646,0,0
574,-622,0,0,0,0,0,0,0,0,0,-1,1798,1646,0,0
581,-622,0,0,0,0,0,0,0,0,0,-1,1805,1646,0,0
588,-622,0,0,0,0,0,0,0,0,0,-1,1812,1646,0,0
595,-622,0,0,0,0,0,0,0,0,0,-1,1819,1646,0,0
602,-622,0,0,0,0,0,0,0,0,0,-1,1826,1646,0,0
609,-622,0,0,0,0,0,0,0,0,0,-1,1833,1646,0,0
616,-622,0,0,0,0,0,0,0,0,0,-1,1840,1646,0,0
623,-622,0,0,0,0,0,0,0,0,0,-1,1847,1646,0,0
630,-622,0,0,0,0,0,0,0,0,0,-1,1854,1646,0,0
637,-622,0,0,0,0,0,0,0,0,0,-1,1861,1646,0,0
644,-622,0,0,0,0,0,0,0,0,0,-1,1868,1646,0,0
651,-622,0,0,0,0,0,0,0,0,0,-1,1875,1646,0,0
658,-622,0,0,0,0,0,0,0,0,0,-1,1882,1646,0,0
665,-622,0,0,0,0,0,0,0,0,0,-1,1889,1646,0,0
672,-622,0,0,0,0,0,0,0,0,0,-1,1896,1646,0,0
679,-622,0,0,0,0,0,0,0,0,0,-1,1903,1646,0,0
686,-622,0,0,0,0,0,0,0,0,0,-1,1910,1646,0,0
693,-622,0,0,0,0,0,0,0,0,0,-1,1917,1646,0,0
700,-622,0,0,0,0,0,0,0,0,0,-1,1924,1646,0,0
707,-622,0,0,0,0,0,0,0,0,0,-1,1931,1646,0,0
714,-622,0,0,0,0,0,0,0,0,0,-1,1938,1646,0,0
721,-622,0,0,0,0,0,0,0,0,0,-1,1945,1646,0,0
728,-622,0,0,0,0,0,0,0,0,0,-1,1952,1646,0,0
735,-622,0,0,0,0,0,0,0,0,0,-1,1959,1646,0,0
742,-622,0,0,0,0,0,0,0,0,0,-1,1966,1646,0,0
749,-622,0,0,0,0,0,0,0,0,0,-1,1973,1646,0,0
756,-622,0,0,0,0,0,0,0,0,0,-1,1980,1646,0,0
763,-622,0,0,0,0,0,0,0,0,0,-1,1987,1646,0,0
770,-622,0,0,0,0,0,0,0,0,0,-1,1994,1646,0,0
777,-622,0,0,0,0,0,0,0,0,0,-1,2001,1646,0,0
784,-622,0,0,0,0,0,0,0,0,0,-1,2008,1646,0,0
791,-622,0,0,0,0,0,0,0,0,0,-1,2015,1646,0,0
798,-622,0,0,0,0,0,0,0,0,0,-1,2022,1646,0,0
805,-622,0,0,0,0,0,0,0,0,0,-1,2029,1646,0,0
812,-622,0,0,0,0,0,0,0,0,0,-1,2036,1646,0,0
-700,-629,0,0,0,0,0,0,0,0,0,-1,524,1653,0,0
-693,-629,0,0,0,0,0,0,0,0,0,-1,531,1653,0,0
-686,-629,0,0,0,0,0,0,0,0,0,-1,538,1653,0,0
-679,-629,0,0,0,0,0,0,0,0,0,-1,545,1653,0,0
-672,-629,0,0,0,0,0,0,0,0,0,-1,552,1653,0,0
-665,-629,0,0,0,0,0,0,0,0,0,-1,559,1653,0,0
-658,-629,0,0,0,0,0,0,0,0,0,-1,566,1653,0,0
-651,-629,0,0,0,0,0,0,0,0,0,-1,573,1653,0,0
-644,-629,0,0,0,0,0,0,0,0,0,-1,580,1653,0,0
-637,-629,0,0,0,0,0,0,0,0,0,-1,587,1653,0,0
-630,-629,0,0,0,0,0,0,0,0,0,-1,594,1653,0,0
-623,-629,0,0,0,0,0,0,0,0,0,-1,601,1653,0,0
-616,-629,0,0,0,0,0,0,0,0,0,-1,608,1653,0,0
-609,-629,0,0,0,0,0,0,0,0,0,-1,615,1653,0,0
-602,-629,0,0,0,0,0,0,0,0,0,-1,622,1653,0,0
-595,-629,0,0,0,0,0,0,0,0,0,-1,629,1653,0,0
-588,-629,0,0,0,0,0,0,0,0,0,-1,636,1653,0,0
-581,-629,0,0,0,0,0,0,0,0,0,-1,643,1653,0,0
-574,-629,0,0,0,0,0,0,0,0,0,-1,650,1653,0,0
-567,-629,0,0,0,0,0,0,0,0,0,-1,657,1653,0,0
-560,-629,0,0,0,0,0,0,0,0,0,-1,664,1653,0,0
-553,-629,0,0,0,0,0,0,0,0,0,-1,671,1653,0,0
-546,-629,0,0,0,0,0,0,0,0,0,-1,678,1653,0,0
-539,-629,0,0,0,0,0,0,0,0,0,-1,685,1653,0,0
-532,-629,0,0,0,0,0,0,0,0,0,-1,692,1653,0,0
-525,-629,0,0,0,0,0,0,0,0,0,-1,699,1653,0,0
-518,-629,0,0,0,0,0,0,0,0,0,-1,706,1653,0,0
-511,-629,0,0,0,0,0,0,0,0,0,-1,713,1653,0,0
-504,-629,0,0,0,0,0,0,0,0,0,-1,720,1653,0,0
-497,-629,0,0,0,0,0,0,0,0,0,-1,727,1653,0,0
-490,-629,0,0,0,0,0,0,0,0,0,-1,734,1653,0,0
-483,-629,0,0,0,0,0,0,0,0,0,-1,741,1653,0,0
-476,-629,0,0,0,0,0,0,0,0,0,-1,748,1653,0,0
-469,-629,0,0,0,0,0,0,0,0,0,-1,755,1653,0,0
-462,-629,0,0,0,0,0,0,0,0,0,-1,762,1653,0,0
-455,-629,0,0,0,0,0,0,0,0,0,-1,769,1653,0,0
-448,-629,0,0,0,0,0,0,0,0,0,-1,776,1653,0,0
-441,-629,0,0,0,0,0,0,0,0,0,-1,783,1653,0,0
-434,-629,0,0,0,0,0,0,0,0,0,-1,790,1653,0,0
-427,-629,0,0,0,0,0,0,0,0,0,-1,797,1653,0,0
-420,-629,-3.87103,3.37634,0,0,0,0,0,0,0,-1,804,1653,-3.87101,-3.37633
-413,-629,-5.69751,1.33582,0,0,0,0,0,0,0,-1,811,1653,-5.69754,-1.3358
-406,-629,2.85406,6.01501,0,0,0,0,0,0,0,-1,818,1653,2.85405,-6.01507
-399,-629,-0.455627,10.8687,0,0,0,0,0,0,0,-1,825,1653,-0.455625,-10.8687
-392,-629,1.15369,11.1295,0,0,0,0,0,0,0,-1,832,1653,1.1537,-11.1295
-385,-629,1.81976,11.6935,0,0,0,0,0,0,0,-1,839,1653,1.81975,-11.6935
-378,-629,2.19452,14.7941,0,0,0,0,0,0,0,-1,846,1653,2.19451,-14.7941
-371,-629,3.60114,14.7299,0,0,0,0,0,0,0,-1,853,1653,3.60113,-14.7299
-364,-629,3.34198,19.8982,0,0,0,0,0,0,0,-1,860,1653,3.34201,-19.8981
-357,-629,4.38782,16.3444,0,0,0,0,0,0,0,-1,867,1653,4.38783,-16.3443
-350,-629,4.0296,21.4346,0,0,0,0,0,0,0,-1,874,1653,4.02958,-21.4346
-343,-629,4.00647,21.8665,-0.00196868,0.0043455,0.00301197,0.0055518,-0.00317498,1.18986,0.00510032,0.0409721,881,1653,4.00647,-21.8664
-336,-629,3.93475,22.2566,-0.00170573,0.00329269,0.00237386,0.0042404,-0.00265344,1.19096,0.00401516,0.0189691,888,1653,3.93473,-22.2566
-329,-629,3.93457,22.6674,-0.00147003,0.0026545,0.00185706,0.00336741,-0.00218294,1.20425,0.00322873,0.0121666,895,1653,3.93457,-22.6674
-322,-629,3.90576,23.0497,-0.00125491,0.00226361,0.00157424,0.00286512,-0.00185642,1.20582,0.00274664,0.011928,902,1653,3.90579,-23.0497
-315,-629,3.89606,23.4459,-0.00109283,0.00184435,0.00135168,0.0023717,-0.00162018,1.19881,0.00231829,0.0145939,909,1653,3.89604,-23.4459
-308,-629,3.88568,23.8348,-0.000859729,0.00147743,0.00116123,0.00195629,-0.00133858,1.17967,0.0019134,0.012544,916,1653,3.8857,-23.8349
-301,-629,3.8772,24.2275,-0.000539106,0.00125866,0.00103767,0.00173264,-0.00101309,1.14232,0.00160329,0.0115854,923,1653,3.87721,-24.2275
-294,-629,3.85278,24.5994,-0.000123731,0.00122154,0.00104222,0.00178933,-0.000691524,1.07196,0.00147833,0.0120667,930,1653,3.85277,-24.5993
-287,-629,3.83527,24.9548,0.000355787,0.00129555,0.00111118,0.00203212,-0.000380778,0.98543,0.00149789,0.00949302,937,1653,3.83528,-24.9549
-280,-629,3.84656,25.3185,0.000814102,0.00139033,0.0011758,0.0023128,-0.000108368,0.905549,0.00157923,0.00980075,944,1653,3.84655,-25.3185
-273,-629,3.85297,25.6564,0.00128403,0.00153665,0.00128352,0.00270006,0.000120621,0.834443,0.00176121,0.0131782,951,1653,3.85296,-25.6564
-266,-629,3.84137,26.0338,0.00173574,0.0017778,0.0014431,0.00320003,0.000313517,0.792683,0.00203691,0.013852,958,1653,3.84137,-26.0338
-259,-629,3.83105,26.4264,0.00221032,0.00211394,0.00162676,0.0037896,0.000534659,0.770592,0.00236838,0.0148277,965,1653,3.83106,-26.4264
-252,-629,3.82819,26.7426,0.00261807,0.00253713,0.00178588,0.00436394,0.000791264,0.774069,0.00268469,0.0115462,972,1653,3.82819,-26.7426
-245,-629,3.85028,27.0594,0.00297501,0.00293544,0.00196559,0.00492091,0.000989539,0.780366,0.00300556,0.00860732,979,1653,3.85028,-27.0594
-238,-629,3.85388,27.4054,0.00341388,0.0032968,0.00207373,0.00542989,0.00128078,0.771287,0.00327751,0.0108775,986,1653,3.85389,-27.4054
-231,-629,3.83826,27.7418,0.00393501,0.00321166,0.00219921,0.00580209,0.00134459,0.7039,0.00350686,0.0143662,993,1653,3.83826,-27.7418
-224,-629,3.93066,28.1652,0.00438818,0.00361296,0.00241312,0.00644462,0.00155652,0.705766,0.003883,0.0177561,1000,1653,3.93069,-28.1651
-217,-629,3.88446,28.4353,0.00488432,0.00442281,0.0026475,0.0073111,0.00199603,0.741929,0.00436365,0.0314415,1007,1653,3.88443,-28.4354
-210,-629,4.07269,28.9019,0,0,0,0,0,0,0,-1,1014,1653,4.0727,-28.9019
-203,-629,4.2052,29.5886,0,0,0,0,0,0,0,-1,1021,1653,4.20514,-29.5886
-196,-629,4.3916,29.5573,0,0,0,0,0,0,0,-1,1028,1653,4.39155,-29.5573
-189,-629,4.27051,29.7069,0,0,0,0,0,0,0,-1,1035,1653,4.27053,-29.7069
-182,-629,4.46484,29.9214,0,0,0,0,0,0,0,-1,1042,1653,4.4648,-29.9214
-175,-629,3.29102,19.1411,0,0,0,0,0,0,0,-1,1049,1653,3.29096,-19.1411
-168,-629,3.95996,29.6101,0,0,0,0,0,0,0,-1,1056,1653,3.95997,-29.6101
-161,-629,3.84326,29.9125,0,0,0,0,0,0,0,-1,1063,1653,3.8432,-29.9125
-154,-629,4.25391,30.4781,0,0,0,0,0,0,0,-1,1070,1653,4.25388,-30.4781
-147,-629,4.46606,30.7166,0,0,0,0,0,0,0,-1,1077,1653,4.46604,-30.7166
-140,-629,2.34851,19.2911,0,0,0,0,0,0,0,-1,1084,1653,2.34853,-19.2911
-133,-629,3.41248,17.6686,0,0,0,0,0,0,0,-1,1091,1653,3.41243,-17.6686
-126,-629,4.01025,19.5328,0,0,0,0,0,0,0,-1,1098,1653,4.01022,-19.5328
-119,-629,4.94177,13.5525,0,0,0,0,0,0,0,-1,1105,1653,4.94172,-13.5525
-112,-629,5.63123,15.9187,0,0,0,0,0,0,0,-1,1112,1653,5.63118,-15.9187
-105,-629,2.15881,4.38342,0,0,0,0,0,0,0,-1,1119,1653,2.15878,-4.38347
-98,-629,0.825806,4.19385,0,0,0,0,0,0,0,-1,1126,1653,0.825779,-4.1939
-91,-629,-0.452271,3.64465,0,0,0,0,0,0,0,-1,1133,1653,-0.452278,-3.6446
-84,-629,-2.6084,0.466797,0,0,0,0,0,0,0,-1,1140,1653,-2.6084,-0.466786
-77,-629,-3.50903,2.10706,0,0,0,0,0,0,0,-1,1147,1653,-3.509,-2.10707
-70,-629,-1.20886,2.52502,0,0,0,0,0,0,0,-1,1154,1653,-1.20886,-2.525
-63,-629,-0.960693,4.30212,0,0,0,0,0,0,0,-1,1161,1653,-0.960691,-4.30215
-56,-629,-1.31934,5.64343,0,0,0,0,0,0,0,-1,1168,1653,-1.31928,-5.6434
-49,-629,-2.15662,2.57458,0,0,0,0,0,0,0,-1,1175,1653,-2.15656,-2.57459
-42,-629,-2.46326,3.91467,0,0,0,0,0,0,0,-1,1182,1653,-2.4633,-3.91466
-35,-629,-2.67261,5.24292,0,0,0,0,0,0,0,-1,1189,1653,-2.67257,-5.24298
-28,-629,-0.402954,-0.866577,0,0,0,0,0,0,0,-1,1196,1653,-0.402943,0.866612
-21,-629,3.45508,27.0596,0,0,0,0,0,0,0,-1,1203,1653,3.45508,-27.0596
-14,-629,1.64307,33.6444,0,0,0,0,0,0,0,-1,1210,1653,1.64304,-33.6444
-7,-629,1.97632,33.1558,0.0791221,-0.0820717,-0.122634,0.145273,-0.148223,-0.494683,0.169453,0.0496934,1217,1653,1.97631,-33.1558
0,-629,2.27869,32.6593,0,0,0,0,0,0,0,-1,1224,1653,2.27875,-32.6594
7,-629,2.6261,32.3273,0.0662945,-0.0919251,-0.0989663,0.113884,-0.139515,-0.448223,0.146549,0.0462368,1231,1653,2.6261,-32.3273
14,-629,3.13965,32.324,0.0578558,-0.0762698,-0.0889595,0.102199,-0.120613,-0.462415,0.128786,0.0440443,1238,1653,3.13963,-32.324
21,-629,4.07568,32.2312,0.0494858,-0.0523437,-0.0824068,0.0954379,-0.0982959,-0.508679,0.111856,0.0432485,1245,1653,4.07567,-32.2312
28,-629,3.95374,31.9911,0.0427637,-0.0275434,-0.0770445,0.0922957,-0.0770753,-0.571368,0.0979179,0.0463142,1252,1653,3.9537,-31.9911
35,-629,4.09631,31.8652,0.0369045,-0.0080868,-0.0741013,0.0918495,-0.0630318,-0.638029,0.0899353,0.0458533,1259,1653,4.09637,-31.8653
42,-629,4.37756,31.9637,0,0,0,0,0,0,0,-1,1266,1653,4.37755,-31.9637
49,-629,4.6571,31.7676,0,0,0,0,0,0,0,-1,1273,1653,4.65712,-31.7676
56,-629,8.22473,40.1505,0.0173339,0.0610865,-0.0668932,0.10959,-0.0311693,-0.943433,0.0853678,0.0447657,1280,1653,8.22473,-40.1505
63,-629,7.72961,39.9293,0.00946991,0.0785733,-0.0662402,0.118732,-0.0306884,-1.02579,0.091123,0.0422276,1287,1653,7.72964,-39.9294
70,-629,7.53662,39.2245,0.00395255,0.0917472,-0.0656835,0.126852,-0.031152,-1.07997,0.0966402,0.0439547,1294,1653,7.53665,-39.2245
77,-629,7.78906,38.5748,0.0010583,0.103884,-0.0648235,0.135208,-0.0302656,-1.12066,0.101739,0.0457296,1301,1653,7.78903,-38.5748
84,-629,7.92188,37.9498,-0.00104156,0.114882,-0.0615179,0.141443,-0.0276021,-1.16322,0.104716,0.045379,1308,1653,7.92184,-37.9498
91,-629,10.8735,41.1284,0,0,0,0,0,0,0,-1,1315,1653,10.8735,-41.1284
98,-629,2.12561,34.955,0,0,0,0,0,0,0,-1,1322,1653,2.12566,-34.9549
105,-629,2.36975,34.745,0,0,0,0,0,0,0,-1,1329,1653,2.36975,-34.7449
112,-629,4.10742,40.5895,0,0,0,0,0,0,0,-1,1336,1653,4.10743,-40.5895
119,-629,3.85864,40.5632,-0.0124137,0.144838,-0.0163667,0.146523,-0.0140991,-1.46818,0.102705,0.0455078,1343,1653,3.8586,-40.5633
126,-629,3.73376,40.6111,-0.0141337,0.153228,-0.00559432,0.153414,-0.0143205,-1.53742,0.107369,0.0424211,1350,1653,3.73373,-40.6111
133,-629,3.74023,40.8973,-0.0146527,0.165364,0.00292493,0.165412,-0.0147003,1.55455,0.115487,0.0437351,1357,1653,3.74029,-40.8973
140,-629,3.65662,41.6177,-0.00948324,0.178405,0.0147139,0.17955,-0.0106285,1.49312,0.123396,0.0449487,1364,1653,3.65663,-41.6177
147,-629,3.47681,42.7367,0,0,0,0,0,0,0,-1,1371,1653,3.47686,-42.7367
154,-629,10.6113,33.5126,0,0,0,0,0,0,0,-1,1378,1653,10.6113,-33.5126
161,-629,10.5461,6.83752,0,0,0,0,0,0,0,-1,1385,1653,10.5461,-6.83758
168,-629,12.0059,5.56348,0,0,0,0,0,0,0,-1,1392,1653,12.0059,-5.56352
175,-629,5.84485,-1.78845,0,0,0,0,0,0,0,-1,1399,1653,5.84479,1.7884
182,-629,5.99036,-1.27783,0,0,0,0,0,0,0,-1,1406,1653,5.99041,1.27778
189,-629,5.97668,-0.748535,0,0,0,0,0,0,0,-1,1413,1653,5.97671,0.748544
196,-629,4.52869,9.24695,0,0,0,0,0,0,0,-1,1420,1653,4.52869,-9.2469
203,-629,3.75085,6.88037,0,0,0,0,0,0,0,-1,1427,1653,3.75087,-6.88032
210,-629,3.5907,6.52637,0,0,0,0,0,0,0,-1,1434,1653,3.59067,-6.52642
217,-629,2.4585,4.84448,0,0,0,0,0,0,0,-1,1441,1653,2.45855,-4.84448
224,-629,1.31982,3.68481,0,0,0,0,0,0,0,-1,1448,1653,1.31986,-3.68487
231,-629,3.63025,1.73499,0,0,0,0,0,0,0,-1,1455,1653,3.6303,-1.735
238,-629,4.26428,2.11255,0,0,0,0,0,0,0,-1,1462,1653,4.26429,-2.11253
245,-629,5.61816,1.95361,0,0,0,0,0,0,0,-1,1469,1653,5.61815,-1.95359
252,-629,7.27136,2.18982,0,0,0,0,0,0,0,-1,1476,1653,7.27131,-2.18985
259,-629,8.67334,2.18628,0,0,0,0,0,0,0,-1,1483,1653,8.6733,-2.18633
266,-629,6.86475,3.72058,0,0,0,0,0,0,0,-1,1490,1653,6.86479,-3.72063
273,-629,7.9021,3.8717,0,0,0,0,0,0,0,-1,1497,1653,7.90205,-3.87171
280,-629,9.70837,4.39087,0,0,0,0,0,0,0,-1,1504,1653,9.7084,-4.39082
287,-629,9.82947,7.19348,0,0,0,0,0,0,0,-1,1511,1653,9.8295,-7.19347
294,-629,6.56555,11.6359,0,0,0,0,0,0,0,-1,1518,1653,6.5656,-11.6358
301,-629,6.93835,15.6102,0,0,0,0,0,0,0,-1,1525,1653,6.93835,-15.6103
308,-629,6.08264,12.1423,0,0,0,0,0,0,0,-1,1532,1653,6.08263,-12.1423
315,-629,6.82043,18.2764,0,0,0,0,0,0,0,-1,1539,1653,6.82049,-18.2764
322,-629,10.3922,29.9829,0,0,0,0,0,0,0,-1,1546,1653,10.3922,-29.9829
329,-629,10.6393,29.7083,0,0,0,0,0,0,0,-1,1553,1653,10.6393,-29.7082
336,-629,10.8723,29.4052,0,0,0,0,0,0,0,-1,1560,1653,10.8723,-29.4051
343,-629,10.3995,29.2103,0.0109007,0.00714128,-0.00388568,0.0133375,0.00470455,-0.560113,0.00781094,0.0448326,1567,1653,10.3995,-29.2103
350,-629,10.8154,28.8926,0.00941938,0.00651446,-0.00374591,0.0119846,0.00394927,-0.600449,0.00705207,0.0294468,1574,1653,10.8154,-28.8926
357,-629,10.8628,28.5079,0.00811157,0.00603437,-0.00351786,0.0107409,0.003405,-0.641858,0.0063382,0.0172394,1581,1653,10.8627,-28.5079
364,-629,10.8141,28.1846,0.00691499,0.00527503,-0.0030613,0.00926422,0.00292579,-0.654543,0.00546833,0.0137122,1588,1653,10.8141,-28.1845
371,-629,10.8252,27.8907,0.00575504,0.00452132,-0.00262622,0.00783587,0.00244049,-0.670047,0.00463002,0.0111573,1595,1653,10.8252,-27.8907
378,-629,10.8357,27.5731,0.00476588,0.00382457,-0.00230432,0.00664712,0.00194333,-0.68466,0.00394649,0.0106115,1602,1653,10.8357,-27.5731
385,-629,10.8486,27.2728,0.00394507,0.00305998,-0.00201124,0.00556188,0.00144317,-0.677106,0.0033327,0.0120703,1609,1653,10.8487,-27.2729
392,-629,10.8297,26.9712,0.00324057,0.00220748,-0.00169945,0.00450024,0.000947805,-0.637861,0.00273943,0.0107922,1616,1653,10.8297,-26.9712
399,-629,10.8151,26.6444,0.00238288,0.00133034,-0.00118377,0.00315209,0.000561133,-0.576232,0.00194157,0.0108911,1623,1653,10.8151,-26.6444
406,-629,10.8226,26.2867,0.00174531,0.000585517,-0.000837434,0.00218403,0.000146799,-0.482572,0.00140963,0.012669,1630,1653,10.8226,-26.2868
413,-629,10.8228,25.9364,0.00128215,5.9092e-05,-0.000543743,0.00148892,-0.000147685,-0.363395,0.00104533,0.0204411,1637,1653,10.8228,-25.9364
420,-629,10.8069,25.6198,0.000777244,-0.000478431,-0.000253894,0.000826638,-0.000527825,-0.192144,0.000788317,0.02129,1644,1653,10.8069,-25.6198
427,-629,10.8184,25.2964,0.00034253,-0.000734399,-8.37431e-05,0.000349003,-0.000740872,-0.0771431,0.000642655,0.0143463,1651,1653,10.8184,-25.2964
434,-629,10.8195,24.9434,-6.63724e-05,-0.000938061,-4.8746e-05,-6.3655e-05,-0.000940779,-0.0556899,0.000607081,0.0109497,1658,1653,10.8195,-24.9434
441,-629,10.8397,24.5747,-0.000516461,-0.00103172,-1.0584e-05,-0.000516244,-0.00103193,-0.0205298,0.000595786,0.0147142,1665,1653,10.8398,-24.5748
448,-629,10.8275,24.2078,-0.000911696,-0.00113432,-9.21135e-06,-0.000911316,-0.0011347,-0.0412831,0.000694091,0.0146958,1672,1653,10.8276,-24.2078
455,-629,10.79,23.8555,-0.00125891,-0.00119599,-0.000124309,-0.00109922,-0.00135568,-0.909337,0.000831588,0.0146704,1679,1653,10.7901,-23.8555
462,-629,10.7892,23.5293,-0.00166276,-0.00128113,-0.000229886,-0.00117319,-0.00177071,-1.13179,0.00104017,0.0172167,1686,1653,10.7891,-23.5293
469,-629,10.7361,23.1411,-0.00207807,-0.00118102,-0.000372681,-0.00104639,-0.00221269,-1.22414,0.00127812,0.0194844,1693,1653,10.736,-23.1412
476,-629,10.7689,22.8185,-0.00251158,-0.00110511,-0.000451025,-0.000972899,-0.00264379,-1.28566,0.00154402,0.0318596,1700,1653,10.769,-22.8185
483,-629,10.8057,22.3796,-0.00277355,-0.000721709,-0.000670343,-0.000522121,-0.00297314,-1.28141,0.00183301,0.0490918,1707,1653,10.8057,-22.3796
490,-629,10.8619,21.8436,0,0,0,0,0,0,0,-1,1714,1653,10.8619,-21.8436
497,-629,10.3662,19.8605,0,0,0,0,0,0,0,-1,1721,1653,10.3662,-19.8605
504,-629,7.89453,15.5316,0,0,0,0,0,0,0,-1,1728,1653,7.89447,-15.5316
511,-629,6.29138,3.40295,0,0,0,0,0,0,0,-1,1735,1653,6.29137,-3.403
518,-629,5.84387,1.41858,0,0,0,0,0,0,0,-1,1742,1653,5.84391,-1.4186
525,-629,6.4729,1.02319,0,0,0,0,0,0,0,-1,1749,1653,6.47284,-1.02316
532,-629,6.86511,0.903687,0,0,0,0,0,0,0,-1,1756,1653,6.86514,-0.903691
539,-629,6.60803,0.746704,0,0,0,0,0,0,0,-1,1763,1653,6.60809,-0.746691
546,-629,0,0,0,0,0,0,0,0,0,-1,1770,1653,0,0
553,-629,0,0,0,0,0,0,0,0,0,-1,1777,1653,0,0
560,-629,0,0,0,0,0,0,0,0,0,-1,1784,1653,0,0
567,-629,0,0,0,0,0,0,0,0,0,-1,1791,1653,0,0
574,-629,0,0,0,0,0,0,0,0,0,-1,1798,1653,0,0
581,-629,0,0,0,0,0,0,0,0,0,-1,1805,1653,0,0
588,-629,0,0,0,0,0,0,0,0,0,-1,1812,1653,0,0
595,-629,0,0,0,0,0,0,0,0,0,-1,1819,1653,0,0
602,-629,0,0,0,0,0,0,0,0,0,-1,1826,1653,0,0
609,-629,0,0,0,0,0,0,0,0,0,-1,1833,1653,0,0
616,-629,0,0,0,0,0,0,0,0,0,-1,1840,1653,0,0
623,-629,0,0,0,0,0,0,0,0,0,-1,1847,1653,0,0
630,-629,0,0,0,0,0,0,0,0,0,-1,1854,1653,0,0
637,-629,0,0,0,0,0,0,0,0,0,-1,1861,1653,0,0
644,-629,0,0,0,0,0,0,0,0,0,-1,1868,1653,0,0
651,-629,0,0,0,0,0,0,0,0,0,-1,1875,1653,0,0
658,-629,0,0,0,0,0,0,0,0,0,-1,1882,1653,0,0
665,-629,0,0,0,0,0,0,0,0,0,-1,1889,1653,0,0
672,-629,0,0,0,0,0,0,0,0,0,-1,1896,1653,0,0
679,-629,0,0,0,0,0,0,0,0,0,-1,1903,1653,0,0
686,-629,0,0,0,0,0,0,0,0,0,-1,1910,1653,0,0
693,-629,0,0,0,0,0,0,0,0,0,-1,1917,1653,0,0
700,-629,0,0,0,0,0,0,0,0,0,-1,1924,1653,0,0
707,-629,0,0,0,0,0,0,0,0,0,-1,1931,1653,0,0
714,-629,0,0,0,0,0,0,0,0,0,-1,1938,1653,0,0
721,-629,0,0,0,0,0,0,0,0,0,-1,1945,1653,0,0
728,-629,0,0,0,0,0,0,0,0,0,-1,1952,1653,0,0
735,-629,0,0,0,0,0,0,0,0,0,-1,1959,1653,0,0
742,-629,0,0,0,0,0,0,0,0,0,-1,1966,1653,0,0
749,-629,0,0,0,0,0,0,0,0,0,-1,1973,1653,0,0
756,-629,0,0,0,0,0,0,0,0,0,-1,1980,1653,0,0
763,-629,0,0,0,0,0,0,0,0,0,-1,1987,1653,0,0
770,-629,0,0,0,0,0,0,0,0,0,-1,1994,1653,0,0
777,-629,0,0,0,0,0,0,0,0,0,-1,2001,1653,0,0
784,-629,0,0,0,0,0,0,0,0,0,-1,2008,1653,0,0
791,-629,0,0,0,0,0,0,0,0,0,-1,2015,1653,0,0
798,-629,0,0,0,0,0,0,0,0,0,-1,2022,1653,0,0
805,-629,0,0,0,0,0,0,0,0,0,-1,2029,1653,0,0
812,-629,0,0,0,0,0,0,0,0,0,-1,2036,1653,0,0
-700,-636,0,0,0,0,0,0,0,0,0,-1,524,1660,0,0
-693,-636,0,0,0,0,0,0,0,0,0,-1,531,1660,0,0
-686,-636,0,0,0,0,0,0,0,0,0,-1,538,1660,0,0
-679,-636,0,0,0,0,0,0,0,0,0,-1,545,1660,0,0
-672,-636,0,0,0,0,0,0,0,0,0,-1,552,1660,0,0
-665,-636,0,0,0,0,0,0,0,0,0,-1,559,1660,0,0
-658,-636,0,0,0,0,0,0,0,0,0,-1,566,1660,0,0
-651,-636,0,0,0,0,0,0,0,0,0,-1,573,1660,0,0
-644,-636,0,0,0,0,0,0,0,0,0,-1,580,1660,0,0
-637,-636,0,0,0,0,0,0,0,0,0,-1,587,1660,0,0
-630,-636,0,0,0,0,0,0,0,0,0,-1,594,1660,0,0
-623,-636,0,0,0,0,0,0,0,0,0,-1,601,1660,0,0
-616,-636,0,0,0,0,0,0,0,0,0,-1,608,1660,0,0
-609,-636,0,0,0,0,0,0,0,0,0,-1,615,1660,0,0
-602,-636,0,0,0,0,0,0,0,0,0,-1,622,1660,0,0
-595,-636,0,0,0,0,0,0,0,0,0,-1,629,1660,0,0
-588,-636,0,0,0,0,0,0,0,0,0,-1,636,1660,0,0
-581,-636,0,0,0,0,0,0,0,0,0,-1,643,1660,0,0
-574,-636,0,0,0,0,0,0,0,0,0,-1,650,1660,0,0
-567,-636,0,0,0,0,0,0,0,0,0,-1,657,1660,0,0
-560,-636,0,0,0,0,0,0,0,0,0,-1,664,1660,0,0
-553,-636,0,0,0,0,0,0,0,0,0,-1,671,1660,0,0
-546,-636,0,0,0,0,0,0,0,0,0,-1,678,1660,0,0
-539,-636,0,0,0,0,0,0,0,0,0,-1,685,1660,0,0
-532,-636,0,0,0,0,0,0,0,0,0,-1,692,1660,0,0
-525,-636,0,0,0,0,0,0,0,0,0,-1,699,1660,0,0
-518,-636,0,0,0,0,0,0,0,0,0,-1,706,1660,0,0
-511,-636,0,0,0,0,0,0,0,0,0,-1,713,1660,0,0
-504,-636,0,0,0,0,0,0,0,0,0,-1,720,1660,0,0
-497,-636,0,0,0,0,0,0,0,0,0,-1,727,1660,0,0
-490,-636,0,0,0,0,0,0,0,0,0,-1,734,1660,0,0
-483,-636,0,0,0,0,0,0,0,0,0,-1,741,1660,0,0
-476,-636,0,0,0,0,0,0,0,0,0,-1,748,1660,0,0
-469,-636,0,0,0,0,0,0,0,0,0,-1,755,1660,0,0
-462,-636,0,0,0,0,0,0,0,0,0,-1,762,1660,0,0
-455,-636,0,0,0,0,0,0,0,0,0,-1,769,1660,0,0
-448,-636,0,0,0,0,0,0,0,0,0,-1,776,1660,0,0
-441,-636,0,0,0,0,0,0,0,0,0,-1,783,1660,0,0
-434,-636,0,0,0,0,0,0,0,0,0,-1,790,1660,0,0
-427,-636,0,0,0,0,0,0,0,0,0,-1,797,1660,0,0
-420,-636,0,0,0,0,0,0,0,0,0,-1,804,1660,0,0
-413,-636,0,0,0,0,0,0,0,0,0,-1,811,1660,0,0
-406,-636,-0.591125,10.6943,0,0,0,0,0,0,0,-1,818,1660,-0.59115,-10.6943
-399,-636,0.0766602,11.2408,0,0,0,0,0,0,0,-1,825,1660,0.076685,-11.2409
-392,-636,0.75946,11.9233,0,0,0,0,0,0,0,-1,832,1660,0.759481,-11.9233
-385,-636,1.68878,12.517,0,0,0,0,0,0,0,-1,839,1660,1.6888,-12.5169
-378,-636,2.22107,13.0013,0,0,0,0,0,0,0,-1,846,1660,2.22107,-13.0014
-371,-636,2.52185,11.9684,0,0,0,0,0,0,0,-1,853,1660,2.52184,-11.9684
-364,-636,4.51947,14.8503,0,0,0,0,0,0,0,-1,860,1660,4.51949,-14.8504
-357,-636,4.55682,15.8809,0,0,0,0,0,0,0,-1,867,1660,4.55681,-15.8808
-350,-636,2.63104,14.4946,0,0,0,0,0,0,0,-1,874,1660,2.63102,-14.4946
-343,-636,4.46808,21.9329,0,0,0,0,0,0,0,-1,881,1660,4.46808,-21.9329
-336,-636,4.22778,22.1598,-0.00219523,0.00451878,0.00314854,0.00576425,-0.00344071,1.19411,0.00537062,0.0342541,888,1660,4.22776,-22.1598
-329,-636,4.29517,22.6434,-0.00212074,0.00347689,0.00239742,0.00436331,-0.00300716,1.21664,0.00427929,0.0192794,895,1660,4.29516,-22.6434
-322,-636,4.27496,23.0767,-0.00189177,0.00280946,0.0019749,0.00352897,-0.00261127,1.22142,0.00355824,0.0120472,902,1660,4.27498,-23.0767
-315,-636,4.25806,23.4497,-0.00169886,0.0021859,0.00163501,0.00278244,-0.00229539,1.22095,0.00293618,0.0122627,909,1660,4.25807,-23.4497
-308,-636,4.25574,23.8414,-0.00146329,0.00165668,0.00131314,0.00213578,-0.0019424,1.22095,0.00235542,0.0113148,916,1660,4.25575,-23.8415
-301,-636,4.23596,24.2228,-0.00114845,0.00132169,0.00107183,0.00172192,-0.00154868,1.21342,0.00188917,0.0115908,923,1660,4.23595,-24.2228
-294,-636,4.21136,24.6097,-0.000721002,0.00117518,0.000966567,0.00158102,-0.00112684,1.17327,0.0015707,0.0141044,930,1660,4.21135,-24.6098
-287,-636,4.19354,24.9703,-0.000232014,0.00115772,0.000946211,0.0016368,-0.000711095,1.10211,0.00139024,0.0125348,937,1660,4.19354,-24.9704
-280,-636,4.20209,25.3456,0.000210699,0.00117704,0.000918805,0.00173197,-0.000344233,1.02746,0.00128486,0.0122525,944,1660,4.20208,-25.3455
-273,-636,4.20538,25.7037,0.000654995,0.00126656,0.000953039,0.00196167,-4.01149e-05,0.940635,0.00132135,0.0122668,951,1660,4.20538,-25.7038
-266,-636,4.20337,26.0574,0.00107424,0.00142687,0.00105252,0.00231774,0.000183368,0.868386,0.00148781,0.013678,958,1660,4.20337,-26.0574
-259,-636,4.19727,26.41,0.00152067,0.00165806,0.00117007,0.00276145,0.000417279,0.814719,0.00171884,0.0152383,965,1660,4.19727,-26.41
-252,-636,4.18494,26.7393,0.00188246,0.00203783,0.00125764,0.00322019,0.000700104,0.816245,0.00195565,0.0116555,972,1660,4.18492,-26.7392
-245,-636,4.20105,27.0879,0.00217948,0.00235242,0.00136817,0.00363685,0.000895047,0.816957,0.00218811,0.0105563,979,1660,4.20103,-27.0879
-238,-636,4.21716,27.42,0.00254091,0.00262238,0.00144042,0.00402264,0.00114065,0.799534,0.00239391,0.011581,986,1660,4.21714,-27.42
-231,-636,4.21912,27.7424,0.00299956,0.00261372,0.0015833,0.00440165,0.00121163,0.724775,0.00262547,0.010755,993,1660,4.21909,-27.7424
-224,-636,4.22754,28.0587,0.00339217,0.00298583,0.0017615,0.00496217,0.00141582,0.727982,0.00295162,0.00921508,1000,1660,4.22756,-28.0587
-217,-636,4.21094,28.4385,0.00382695,0.00374288,0.0019562,0.00574156,0.00182827,0.774657,0.00338697,0.0165215,1007,1660,4.21093,-28.4384
-210,-636,4.20599,28.7686,0.00449238,0.00383358,0.0016234,0.00581946,0.0025065,0.685304,0.0033706,0.0284334,1014,1660,4.20597,-28.7686
-203,-636,4.19238,29.1084,0,0,0,0,0,0,0,-1,1021,1660,4.1924,-29.1084
-196,-636,4.40527,29.3533,0.00578445,0.00342569,0.00053754,0.00590118,0.00330897,0.213826,0.00341541,0.0334197,1028,1660,4.40529,-29.3533
-189,-636,4.40759,29.6129,0.00637292,0.00307427,-0.000295852,0.00639924,0.00304795,-0.088745,0.00369599,0.0313932,1035,1660,4.40762,-29.6129
-182,-636,4.57397,29.7874,0.00716934,0.00266458,-0.00124589,0.00749095,0.00234297,-0.252627,0.00442482,0.0464957,1042,1660,4.57394,-29.7873
-175,-636,4.64966,29.8621,0,0,0,0,0,0,0,-1,1049,1660,4.64961,-29.8621
-168,-636,4.57861,31.0427,0,0,0,0,0,0,0,-1,1056,1660,4.5786,-31.0427
-161,-636,4.28857,30.5522,0.0102521,0.00289049,-0.00425343,0.0121963,0.000946357,-0.428721,0.00783447,0.047024,1063,1660,4.28862,-30.5523
-154,-636,4.45251,30.6161,0.0111961,0.00361239,-0.0052845,0.0139084,0.000900088,-0.474196,0.00898729,0.0479667,1070,1660,4.45255,-30.6161
-147,-636,4.62854,30.7314,0,0,0,0,0,0,0,-1,1077,1660,4.62857,-30.7314
-140,-636,3.4729,27.1271,0,0,0,0,0,0,0,-1,1084,1660,3.47287,-27.1271
-133,-636,4.68311,18.0922,0,0,0,0,0,0,0,-1,1091,1660,4.68316,-18.0921
-126,-636,3.79028,18.2225,0,0,0,0,0,0,0,-1,1098,1660,3.79025,-18.2226
-119,-636,1.8667,13.8916,0,0,0,0,0,0,0,-1,1105,1660,1.86668,-13.8916
-112,-636,-1.24963,9.7998,0,0,0,0,0,0,0,-1,1112,1660,-1.24968,-9.79978
-105,-636,3.51624,4.72791,0,0,0,0,0,0,0,-1,1119,1660,3.51618,-4.7279
-98,-636,1.54504,5.11914,0,0,0,0,0,0,0,-1,1126,1660,1.54503,-5.11912
-91,-636,-1.87964,-2.25012,0,0,0,0,0,0,0,-1,1133,1660,-1.87966,2.25016
-84,-636,-2.84143,0.133667,0,0,0,0,0,0,0,-1,1140,1660,-2.84144,-0.133701
-77,-636,-3.57349,2.45935,0,0,0,0,0,0,0,-1,1147,1660,-3.57345,-2.45939
-70,-636,-4.23682,4.82312,0,0,0,0,0,0,0,-1,1154,1660,-4.23681,-4.82307
-63,-636,-2.21033,6.97168,0,0,0,0,0,0,0,-1,1161,1660,-2.21034,-6.97165
-56,-636,-2.51917,8.80359,0,0,0,0,0,0,0,-1,1168,1660,-2.51916,-8.80361
-49,-636,-3.13,10.4113,0,0,0,0,0,0,0,-1,1175,1660,-3.12996,-10.4112
-42,-636,-2.27771,4.90173,0,0,0,0,0,0,0,-1,1182,1660,-2.27775,-4.90173
-35,-636,-2.27698,5.89685,0,0,0,0,0,0,0,-1,1189,1660,-2.27695,-5.89686
-28,-636,-1.70654,4.83936,0,0,0,0,0,0,0,-1,1196,1660,-1.70656,-4.8393
-21,-636,4.24683,27.7834,0,0,0,0,0,0,0,-1,1203,1660,4.24687,-27.7835
-14,-636,2.81531,34.6171,0,0,0,0,0,0,0,-1,1210,1660,2.81525,-34.617
-7,-636,3.22998,34.1047,0,0,0,0,0,0,0,-1,1217,1660,3.22994,-34.1047
0,-636,3.10583,33.0811,0,0,0,0,0,0,0,-1,1224,1660,3.10583,-33.081
7,-636,3.62915,32.8859,0.0593528,-0.0825417,-0.0833194,0.0978388,-0.121028,-0.432713,0.126599,0.0438937,1231,1660,3.62917,-32.8858
14,-636,4.8877,32.2208,0.0527602,-0.0693193,-0.0742522,0.0878414,-0.104401,-0.441374,0.111128,0.0409978,1238,1660,4.88774,-32.2209
21,-636,4.67773,32.4216,0.0460825,-0.0490281,-0.0674356,0.0810443,-0.0839899,-0.478296,0.0952876,0.0429351,1245,1660,4.67776,-32.4216
28,-636,4.57971,32.519,0.0404074,-0.0272311,-0.0615878,0.0768505,-0.0636742,-0.534314,0.0812508,0.0460202,1252,1660,4.57974,-32.519
35,-636,4.71301,32.6249,0.0351125,-0.00715267,-0.0571087,0.0748732,-0.0469133,-0.60819,0.0709285,0.0443314,1259,1660,4.71299,-32.6249
42,-636,4.98718,32.571,0,0,0,0,0,0,0,-1,1266,1660,4.98713,-32.5711
49,-636,8.58752,39.3712,0.0223537,0.0394316,-0.048173,0.0798166,-0.0180313,-0.873115,0.0601295,0.0482453,1273,1660,8.58755,-39.3712
56,-636,8.8103,39.0781,0.0158494,0.0589488,-0.0447975,0.0871103,-0.0123121,-1.00958,0.0625826,0.046082,1280,1660,8.81033,-39.0781
63,-636,8.73401,38.6332,0.00802385,0.0758428,-0.0426749,0.0964402,-0.0125736,-1.12112,0.0688683,0.0433974,1287,1660,8.73405,-38.6332
70,-636,8.45386,37.8894,0.00202061,0.0901597,-0.0415991,0.106692,-0.0145119,-1.19251,0.0764261,0.046418,1294,1660,8.45381,-37.8894
77,-636,8.78186,37.2393,-0.00214913,0.103479,-0.0404705,0.117202,-0.0158721,-1.24388,0.0839274,0.0467411,1301,1660,8.78189,-37.2392
84,-636,10.0667,40.8076,-0.00586338,0.115434,-0.0383996,0.126568,-0.0169977,-1.28858,0.0905777,0.0460473,1308,1660,10.0666,-40.8076
91,-636,9.55444,40.3342,-0.0106692,0.125342,-0.0331703,0.133,-0.0183276,-1.34389,0.0953647,0.0415201,1315,1660,9.5545,-40.3342
98,-636,8.13098,39.798,0,0,0,0,0,0,0,-1,1322,1660,8.13095,-39.7979
105,-636,4.52405,39.4493,0,0,0,0,0,0,0,-1,1329,1660,4.5241,-39.4493
112,-636,4.29651,39.4937,-0.0200689,0.139115,-0.0198182,0.141545,-0.0224991,-1.44878,0.102688,0.0492657,1336,1660,4.29645,-39.4937
119,-636,4.36572,39.531,-0.0207018,0.145122,-0.0138054,0.146264,-0.0218433,-1.4883,0.105546,0.0490225,1343,1660,4.36577,-39.531
126,-636,4.15356,39.5458,-0.0201619,0.152434,-0.00766562,0.152774,-0.0205017,-1.5265,0.109326,0.0470494,1350,1660,4.1536,-39.5458
133,-636,4.30457,39.8149,-0.0162207,0.159305,-0.00175099,0.159322,-0.0162382,-1.56082,0.11202,0.0437996,1357,1660,4.30458,-39.8149
140,-636,3.88977,40.3942,-0.00625346,0.163044,0.00850044,0.16347,-0.0066792,1.52075,0.111273,0.042736,1364,1660,3.88979,-40.3942
147,-636,3.71484,41.1423,0.00229338,0.172088,0.0348482,0.178962,-0.00458051,1.37604,0.120864,0.0465495,1371,1660,3.71482,-41.1424
154,-636,3.57092,41.527,0,0,0,0,0,0,0,-1,1378,1660,3.5709,-41.527
161,-636,10.2961,7.13025,0,0,0,0,0,0,0,-1,1385,1660,10.2961,-7.13021
168,-636,11.7659,5.83899,0,0,0,0,0,0,0,-1,1392,1660,11.7658,-5.83899
175,-636,5.94592,-1.72888,0,0,0,0,0,0,0,-1,1399,1660,5.94598,1.72886
182,-636,5.93994,-1.11938,0,0,0,0,0,0,0,-1,1406,1660,5.93998,1.11936
189,-636,5.32544,11.9595,0,0,0,0,0,0,0,-1,1413,1660,5.32542,-11.9595
196,-636,5.3623,9.38025,0,0,0,0,0,0,0,-1,1420,1660,5.36225,-9.38027
203,-636,5.18542,9.02429,0,0,0,0,0,0,0,-1,1427,1660,5.18547,-9.0243
210,-636,4.09167,7.17041,0,0,0,0,0,0,0,-1,1434,1660,4.09173,-7.17041
217,-636,2.94897,5.28992,0,0,0,0,0,0,0,-1,1441,1660,2.94899,-5.28991
224,-636,1.49194,3.63916,0,0,0,0,0,0,0,-1,1448,1660,1.49197,-3.63918
231,-636,0.17749,2.24854,0,0,0,0,0,0,0,-1,1455,1660,0.177501,-2.24855
238,-636,-0.764648,1.00598,0,0,0,0,0,0,0,-1,1462,1660,-0.764704,-1.00595
245,-636,6.21204,1.18005,0,0,0,0,0,0,0,-1,1469,1660,6.21206,-1.18001
252,-636,7.70251,0.865723,0,0,0,0,0,0,0,-1,1476,1660,7.7025,-0.865692
259,-636,9.03601,0.787231,0,0,0,0,0,0,0,-1,1483,1660,9.03598,-0.787243
266,-636,10.1071,3.24109,0,0,0,0,0,0,0,-1,1490,1660,10.1071,-3.24103
273,-636,8.48535,5.02466,0,0,0,0,0,0,0,-1,1497,1660,8.48533,-5.02472
280,-636,11.908,32.0698,0,0,0,0,0,0,0,-1,1504,1660,11.9079,-32.0698
287,-636,6.08606,11.49,0,0,0,0,0,0,0,-1,1511,1660,6.08606,-11.49
294,-636,6.69592,15.9669,0,0,0,0,0,0,0,-1,1518,1660,6.69595,-15.9669
301,-636,8.25903,23.0582,0,0,0,0,0,0,0,-1,1525,1660,8.25903,-23.0583
308,-636,10.0813,31.1921,0,0,0,0,0,0,0,-1,1532,1660,10.0813,-31.1921
315,-636,10.1106,30.7267,0,0,0,0,0,0,0,-1,1539,1660,10.1106,-30.7267
322,-636,10.2479,29.84,0,0,0,0,0,0,0,-1,1546,1660,10.2479,-29.8399
329,-636,10.4409,29.5667,0.0105445,0.00542041,-0.00346623,0.0122927,0.00367213,-0.467141,0.00728638,0.0339169,1553,1660,10.441,-29.5666
336,-636,10.5145,29.3389,0.00944709,0.00532275,-0.00297783,0.0110071,0.00376276,-0.482558,0.00646003,0.0253418,1560,1660,10.5146,-29.3388
343,-636,10.4664,29.1696,0.00831315,0.00514186,-0.00273048,0.009885,0.00357001,-0.522337,0.00577999,0.0217093,1567,1660,10.4665,-29.1695
350,-636,10.4698,28.8495,0.00718144,0.00486031,-0.00265513,0.00891857,0.00312319,-0.57936,0.00522562,0.0118824,1574,1660,10.4699,-28.8495
357,-636,10.5043,28.5016,0.00616974,0.00456149,-0.00248571,0.00797816,0.00275308,-0.628961,0.00467931,0.0100925,1581,1660,10.5042,-28.5016
364,-636,10.5076,28.1893,0.00522268,0.0039035,-0.00213265,0.00679541,0.00233077,-0.635423,0.00398729,0.0104743,1588,1660,10.5076,-28.1893
371,-636,10.5072,27.8954,0.00426728,0.00319978,-0.0017516,0.00556465,0.00190242,-0.637507,0.00326586,0.00977856,1595,1660,10.5072,-27.8953
378,-636,10.5233,27.583,0.00342339,0.00251191,-0.00143006,0.00446857,0.00146673,-0.631142,0.00263019,0.0104852,1602,1660,10.5234,-27.583
385,-636,10.5405,27.2681,0.00273166,0.00171245,-0.00111612,0.00344901,0.000995102,-0.57124,0.0020498,0.0141186,1609,1660,10.5405,-27.268
392,-636,10.5259,26.9565,0.00209684,0.0007856,-0.0007832,0.00246261,0.000419829,-0.436919,0.00152123,0.0145795,1616,1660,10.5258,-26.9565
399,-636,10.4977,26.6205,0.00132268,-0.000161211,-0.000298324,0.00138041,-0.00021894,-0.19115,0.00100127,0.0118627,1623,1660,10.4977,-26.6205
406,-636,10.5088,26.3031,0.000750893,-0.00096711,4.36824e-05,0.000752003,-0.00096822,0.0254044,0.000995783,0.013292,1630,1660,10.5088,-26.3032
413,-636,10.5186,25.9565,0.000359655,-0.00150406,0.000293415,0.000404757,-0.00154917,0.152522,0.00119085,0.0214263,1637,1660,10.5186,-25.9565
420,-636,10.5026,25.6086,-8.48698e-05,-0.00198635,0.000502484,3.97493e-05,-0.00211097,0.243101,0.00142075,0.0239669,1644,1660,10.5026,-25.6086
427,-636,10.4664,25.301,-0.000457491,-0.00218551,0.00060096,-0.000269043,-0.00237395,0.303866,0.00150101,0.0150727,1651,1660,10.4664,-25.301
434,-636,10.4642,24.9572,-0.000807571,-0.00230148,0.000550977,-0.000626346,-0.00248271,0.317769,0.00149088,0.0115432,1658,1660,10.4643,-24.9572
441,-636,10.4929,24.5831,-0.00119195,-0.00221369,0.000485324,-0.000998172,-0.00240747,0.37988,0.00139669,0.0113635,1665,1660,10.493,-24.5831
448,-636,10.4886,24.2319,-0.00150271,-0.00209437,0.000340635,-0.00134737,-0.0022497,0.427839,0.00130731,0.0142561,1672,1660,10.4886,-24.2319
455,-636,10.4291,23.907,-0.00176459,-0.00181924,2.89487e-05,-0.00175211,-0.00183172,0.407099,0.00119549,0.0160704,1679,1660,10.4291,-23.907
462,-636,10.4343,23.5469,-0.00211541,-0.0016064,-0.00014812,-0.00156643,-0.00215537,-1.30726,0.00128636,0.0209006,1686,1660,10.4343,-23.5468
469,-636,10.4211,23.1588,-0.0024788,-0.00116358,-0.000353756,-0.00107447,-0.00256791,-1.32403,0.00148915,0.0310778,1693,1660,10.4212,-23.1588
476,-636,10.4055,22.7699,-0.00290486,-0.000877068,-0.000445384,-0.000783556,-0.00299837,-1.36384,0.00179565,0.0485593,1700,1660,10.4055,-22.7699
483,-636,10.5068,22.3878,0,0,0,0,0,0,0,-1,1707,1660,10.5068,-22.3878
490,-636,11.0208,21.9213,0,0,0,0,0,0,0,-1,1714,1660,11.0208,-21.9213
497,-636,9.55579,18.0111,0,0,0,0,0,0,0,-1,1721,1660,9.55574,-18.0111
504,-636,6.26428,19.4268,0,0,0,0,0,0,0,-1,1728,1660,6.26433,-19.4268
511,-636,5.65466,9.23218,0,0,0,0,0,0,0,-1,1735,1660,5.65461,-9.23216
518,-636,6.72791,1.07605,0,0,0,0,0,0,0,-1,1742,1660,6.7279,-1.0761
525,-636,7.04309,0.93335,0,0,0,0,0,0,0,-1,1749,1660,7.04308,-0.933298
532,-636,0,0,0,0,0,0,0,0,0,-1,1756,1660,0,0
539,-636,0,0,0,0,0,0,0,0,0,-1,1763,1660,0,0
546,-636,0,0,0,0,0,0,0,0,0,-1,1770,1660,0,0
553,-636,0,0,0,0,0,0,0,0,0,-1,1777,1660,0,0
560,-636,0,0,0,0,0,0,0,0,0,-1,1784,1660,0,0
567,-636,0,0,0,0,0,0,0,0,0,-1,1791,1660,0,0
574,-636,0,0,0,0,0,0,0,0,0,-1,1798,1660,0,0
581,-636,0,0,0,0,0,0,0,0,0,-1,1805,1660,0,0
588,-636,0,0,0,0,0,0,0,0,0,-1,1812,1660,0,0
595,-636,0,0,0,0,0,0,0,0,0,-1,1819,1660,0,0
602,-636,0,0,0,0,0,0,0,0,0,-1,1826,1660,0,0
609,-636,0,0,0,0,0,0,0,0,0,-1,1833,1660,0,0
616,-636,0,0,0,0,0,0,0,0,0,-1,1840,1660,0,0
623,-636,0,0,0,0,0,0,0,0,0,-1,1847,1660,0,0
630,-636,0,0,0,0,0,0,0,0,0,-1,1854,1660,0,0
637,-636,0,0,0,0,0,0,0,0,0,-1,1861,1660,0,0
644,-636,0,0,0,0,0,0,0,0,0,-1,1868,1660,0,0
651,-636,0,0,0,0,0,0,0,0,0,-1,1875,1660,0,0
658,-636,0,0,0,0,0,0,0,0,0,-1,1882,1660,0,0
665,-636,0,0,0,0,0,0,0,0,0,-1,1889,1660,0,0
672,-636,0,0,0,0,0,0,0,0,0,-1,1896,1660,0,0
679,-636,0,0,0,0,0,0,0,0,0,-1,1903,1660,0,0
686,-636,0,0,0,0,0,0,0,0,0,-1,1910,1660,0,0
693,-636,0,0,0,0,0,0,0,0,0,-1,1917,1660,0,0
700,-636,0,0,0,0,0,0,0,0,0,-1,1924,1660,0,0
707,-636,0,0,0,0,0,0,0,0,0,-1,1931,1660,0,0
714,-636,0,0,0,0,0,0,0,0,0,-1,1938,1660,0,0
721,-636,0,0,0,0,0,0,0,0,0,-1,1945,1660,0,0
728,-636,0,0,0,0,0,0,0,0,0,-1,1952,1660,0,0
735,-636,0,0,0,0,0,0,0,0,0,-1,1959,1660,0,0
742,-636,0,0,0,0,0,0,0,0,0,-1,1966,1660,0,0
749,-636,0,0,0,0,0,0,0,0,0,-1,1973,1660,0,0
756,-636,0,0,0,0,0,0,0,0,0,-1,1980,1660,0,0
763,-636,0,0,0,0,0,0,0,0,0,-1,1987,1660,0,0
770,-636,0,0,0,0,0,0,0,0,0,-1,1994,1660,0,0
777,-636,0,0,0,0,0,0,0,0,0,-1,2001,1660,0,0
784,-636,0,0,0,0,0,0,0,0,0,-1,2008,1660,0,0
791,-636,0,0,0,0,0,0,0,0,0,-1,2015,1660,0,0
798,-636,0,0,0,0,0,0,0,0,0,-1,2022,1660,0,0
805,-636,0,0,0,0,0,0,0,0,0,-1,2029,1660,0,0
812,-636,0,0,0,0,0,0,0,0,0,-1,2036,1660,0,0
-700,-643,0,0,0,0,0,0,0,0,0,-1,524,1667,0,0
-693,-643,0,0,0,0,0,0,0,0,0,-1,531,1667,0,0
-686,-643,0,0,0,0,0,0,0,0,0,-1,538,1667,0,0
-679,-643,0,0,0,0,0,0,0,0,0,-1,545,1667,0,0
-672,-643,0,0,0,0,0,0,0,0,0,-1,552,1667,0,0
-665,-643,0,0,0,0,0,0,0,0,0,-1,559,1667,0,0
-658,-643,0,0,0,0,0,0,0,0,0,-1,566,1667,0,0
-651,-643,0,0,0,0,0,0,0,0,0,-1,573,1667,0,0
-644,-643,0,0,0,0,0,0,0,0,0,-1,580,1667,0,0
-637,-643,0,0,0,0,0,0,0,0,0,-1,587,1667,0,0
-630,-643,0,0,0,0,0,0,0,0,0,-1,594,1667,0,0
-623,-643,0,0,0,0,0,0,0,0,0,-1,601,1667,0,0
-616,-643,0,0,0,0,0,0,0,0,0,-1,608,1667,0,0
-609,-643,0,0,0,0,0,0,0,0,0,-1,615,1667,0,0
-602,-643,0,0,0,0,0,0,0,0,0,-1,622,1667,0,0
-595,-643,0,0,0,0,0,0,0,0,0,-1,629,1667,0,0
-588,-643,0,0,0,0,0,0,0,0,0,-1,636,1667,0,0
-581,-643,0,0,0,0,0,0,0,0,0,-1,643,1667,0,0
-574,-643,0,0,0,0,0,0,0,0,0,-1,650,1667,0,0
-567,-643,0,0,0,0,0,0,0,0,0,-1,657,1667,0,0
-560,-643,0,0,0,0,0,0,0,0,0,-1,664,1667,0,0
-553,-643,0,0,0,0,0,0,0,0,0,-1,671,1667,0,0
-546,-643,0,0,0,0,0,0,0,0,0,-1,678,1667,0,0
-539,-643,0,0,0,0,0,0,0,0,0,-1,685,1667,0,0
-532,-643,0,0,0,0,0,0,0,0,0,-1,692,1667,0,0
-525,-643,0,0,0,0,0,0,0,0,0,-1,699,1667,0,0
-518,-643,0,0,0,0,0,0,0,0,0,-1,706,1667,0,0
-511,-643,0,0,0,0,0,0,0,0,0,-1,713,1667,0,0
-504,-643,0,0,0,0,0,0,0,0,0,-1,720,1667,0,0
-497,-643,0,0,0,0,0,0,0,0,0,-1,727,1667,0,0
-490,-643,0,0,0,0,0,0,0,0,0,-1,734,1667,0,0
-483,-643,0,0,0,0,0,0,0,0,0,-1,741,1667,0,0
-476,-643,0,0,0,0,0,0,0,0,0,-1,748,1667,0,0
-469,-643,0,0,0,0,0,0,0,0,0,-1,755,1667,0,0
-462,-643,0,0,0,0,0,0,0,0,0,-1,762,1667,0,0
-455,-643,0,0,0,0,0,0,0,0,0,-1,769,1667,0,0
-448,-643,0,0,0,0,0,0,0,0,0,-1,776,1667,0,0
-441,-643,0,0,0,0,0,0,0,0,0,-1,783,1667,0,0
-434,-643,0,0,0,0,0,0,0,0,0,-1,790,1667,0,0
-427,-643,0,0,0,0,0,0,0,0,0,-1,797,1667,0,0
-420,-643,0,0,0,0,0,0,0,0,0,-1,804,1667,0,0
-413,-643,0,0,0,0,0,0,0,0,0,-1,811,1667,0,0
-406,-643,0,0,0,0,0,0,0,0,0,-1,818,1667,0,0
-399,-643,0.589417,11.6465,0,0,0,0,0,0,0,-1,825,1667,0.58939,-11.6465
-392,-643,0.865295,12.6523,0,0,0,0,0,0,0,-1,832,1667,0.865315,-12.6523
-385,-643,1.72968,13.2692,0,0,0,0,0,0,0,-1,839,1667,1.72967,-13.2692
-378,-643,2.66522,13.8193,0,0,0,0,0,0,0,-1,846,1667,2.66524,-13.8193
-371,-643,0.466125,3.35095,0,0,0,0,0,0,0,-1,853,1667,0.466148,-3.351
-364,-643,1.69513,9.922,0,0,0,0,0,0,0,-1,860,1667,1.69511,-9.92205
-357,-643,1.14227,10.8429,0,0,0,0,0,0,0,-1,867,1667,1.14228,-10.8429
-350,-643,2.50061,9.96948,0,0,0,0,0,0,0,-1,874,1667,2.50059,-9.96954
-343,-643,2.61505,6.17407,0,0,0,0,0,0,0,-1,881,1667,2.61504,-6.17412
-336,-643,4.46692,22.0953,0,0,0,0,0,0,0,-1,888,1667,4.46692,-22.0953
-329,-643,4.62207,22.5771,-0.00302725,0.00460231,0.00307741,0.00568886,-0.0041138,1.23139,0.00568387,0.0390497,895,1667,4.62208,-22.5771
-322,-643,4.65784,23.0525,-0.00273611,0.00359147,0.00250596,0.0044637,-0.00360834,1.23585,0.0046691,0.026694,902,1667,4.65781,-23.0525
-315,-643,4.61591,23.4779,-0.00247281,0.0027042,0.00203476,0.0034082,-0.00317681,1.2377,0.00380264,0.0167603,909,1667,4.61591,-23.4779
-308,-643,4.62311,23.8251,-0.0022004,0.0019618,0.00157539,0.00249084,-0.00272944,1.24681,0.00301498,0.0125116,916,1667,4.62312,-23.8251
-301,-643,4.61823,24.2094,-0.00184655,0.0014672,0.00121697,0.00186611,-0.00224546,1.25404,0.00237719,0.0141837,923,1667,4.61822,-24.2093
-294,-643,4.59082,24.598,-0.0013689,0.001176,0.00100135,0.00152276,-0.00171566,1.23743,0.0018708,0.0125148,930,1667,4.59084,-24.5981
-287,-643,4.57306,24.9677,-0.000825986,0.00104031,0.000893466,0.00139908,-0.00118475,1.18896,0.00149349,0.0107324,937,1667,4.57304,-24.9676
-280,-643,4.56549,25.3541,-0.000369605,0.000990086,0.000780105,0.00134501,-0.000724532,1.14381,0.00121262,0.0144067,944,1667,4.56552,-25.3541
-273,-643,4.55725,25.7269,6.84161e-05,0.00103881,0.000745763,0.00144332,-0.000336094,1.0738,0.00109163,0.0123171,951,1667,4.55723,-25.7269
-266,-643,4.54297,26.0597,0.0004834,0.00114528,0.000794782,0.00167527,-4.65912e-05,0.982675,0.00113269,0.0122569,958,1667,4.54296,-26.0597
-259,-643,4.53326,26.4011,0.000927976,0.00129609,0.000854231,0.00198587,0.000238198,0.891508,0.00125209,0.0120129,965,1667,4.53326,-26.4011
-252,-643,4.52887,26.7523,0.00126483,0.00166573,0.000888598,0.0023762,0.00055435,0.896332,0.00143549,0.0129671,972,1667,4.52888,-26.7523
-245,-643,4.54517,27.1115,0.00152554,0.00193765,0.000957323,0.00271084,0.000752346,0.891402,0.00161592,0.012151,979,1667,4.54518,-27.1115
-238,-643,4.58722,27.4348,0.00182334,0.00215579,0.00101451,0.0030176,0.000961527,0.866599,0.00178001,0.0155516,986,1667,4.58724,-27.4348
-231,-643,4.54932,27.7523,0.00220277,0.00218892,0.00115048,0.00334635,0.00104535,0.782389,0.00197683,0.0112143,993,1667,4.54932,-27.7523
-224,-643,4.54242,28.0399,0.00254608,0.00248921,0.00131061,0.00382856,0.00120672,0.774551,0.00226019,0.00951808,1000,1667,4.5424,-28.0399
-217,-643,4.54028,28.3248,0.00289215,0.00307409,0.00145446,0.00444042,0.00152583,0.816631,0.00260514,0.00930357,1007,1667,4.54028,-28.3249
-210,-643,4.53119,28.6776,0.00344285,0.00316637,0.00120752,0.00452002,0.0020892,0.728405,0.00261212,0.0120818,1014,1667,4.53119,-28.6776
-203,-643,4.53906,29.0596,0.00409322,0.00292725,0.000833587,0.00452746,0.00249302,0.480248,0.00261839,0.0149934,1021,1667,4.53904,-29.0596
-196,-643,4.54785,29.3704,0.00453924,0.00292554,0.000478695,0.00467055,0.00279422,0.267735,0.00271385,0.014847,1028,1667,4.54786,-29.3703
-189,-643,4.65723,29.6346,0.00498253,0.00284038,-6.16089e-05,0.00498431,0.00283861,-0.0287286,0.00288694,0.0148198,1035,1667,4.65727,-29.6346
-182,-643,4.70911,29.9426,0.00560944,0.00282941,-0.000725844,0.00578754,0.00265131,-0.240619,0.00334535,0.0220885,1042,1667,4.70909,-29.9427
-175,-643,4.74414,30.3491,0.00647452,0.00300224,-0.00131307,0.00691515,0.00256161,-0.323765,0.0040369,0.033743,1049,1667,4.74419,-30.3491
-168,-643,4.76538,30.7543,0.00717788,0.00358277,-0.00197472,0.00805066,0.00270999,-0.416164,0.00473005,0.0402583,1056,1667,4.76539,-30.7542
-161,-643,4.61743,30.667,0.00805199,0.00419991,-0.00263006,0.00938583,0.00286607,-0.469354,0.00555409,0.0449682,1063,1667,4.61739,-30.667
-154,-643,4.71106,30.72,0.00884759,0.00533971,-0.00321261,0.0107539,0.00343344,-0.535532,0.0063425,0.046027,1070,1667,4.71112,-30.7199
-147,-643,4.65295,30.915,0,0,0,0,0,0,0,-1,1077,1667,4.65291,-30.9151
-140,-643,4.30322,22.9166,0,0,0,0,0,0,0,-1,1084,1667,4.30327,-22.9167
-133,-643,3.66748,21.6034,0,0,0,0,0,0,0,-1,1091,1667,3.66743,-21.6034
-126,-643,3.13904,17.689,0,0,0,0,0,0,0,-1,1098,1667,3.13909,-17.689
-119,-643,3.76282,14.1458,0,0,0,0,0,0,0,-1,1105,1667,3.76283,-14.1458
-112,-643,3.81458,16.2069,0,0,0,0,0,0,0,-1,1112,1667,3.81463,-16.2069
-105,-643,-2.23413,10.0996,0,0,0,0,0,0,0,-1,1119,1667,-2.23415,-10.0996
-98,-643,3.11035,4.68066,0,0,0,0,0,0,0,-1,1126,1667,3.11041,-4.68071
-91,-643,-1.74146,-2.5885,0,0,0,0,0,0,0,-1,1133,1667,-1.74146,2.58856
-84,-643,-3.07446,-0.199341,0,0,0,0,0,0,0,-1,1140,1667,-3.07449,0.199383
-77,-643,-3.63794,2.81165,0,0,0,0,0,0,0,-1,1147,1667,-3.63791,-2.8117
-70,-643,-3.36938,4.45203,0,0,0,0,0,0,0,-1,1154,1667,-3.36941,-4.452
-63,-643,-3.67822,6.26855,0,0,0,0,0,0,0,-1,1161,1667,-3.67823,-6.26856
-56,-643,-3.95142,8.1073,0,0,0,0,0,0,0,-1,1168,1667,-3.95139,-8.10732
-49,-643,-4.23535,9.90552,0,0,0,0,0,0,0,-1,1175,1667,-4.23537,-9.90557
-42,-643,-4.25195,10.7059,0,0,0,0,0,0,0,-1,1182,1667,-4.25192,-10.706
-35,-643,-4.10986,11.6588,0,0,0,0,0,0,0,-1,1189,1667,-4.10982,-11.6589
-28,-643,-1.38513,5.604,0,0,0,0,0,0,0,-1,1196,1667,-1.3851,-5.60403
-21,-643,1.61011,23.1276,0,0,0,0,0,0,0,-1,1203,1667,1.61011,-23.1275
-14,-643,13.8832,38.4816,0,0,0,0,0,0,0,-1,1210,1667,13.8832,-38.4816
-7,-643,4.0791,33.6842,0,0,0,0,0,0,0,-1,1217,1667,4.07912,-33.6842
0,-643,4.37329,33.5631,0.056275,-0.0723612,-0.0755257,0.0911584,-0.107245,-0.432685,0.114674,0.0483645,1224,1667,4.37333,-33.5631
7,-643,4.69592,33.4296,0.0518435,-0.0685093,-0.0673396,0.0819767,-0.0986425,-0.420757,0.104428,0.041237,1231,1667,4.69587,-33.4295
14,-643,5.13989,33.2386,0.0466531,-0.0569721,-0.0597147,0.0739,-0.0842189,-0.428067,0.0913548,0.0396482,1238,1667,5.13985,-33.2387
21,-643,5.27051,33.0535,0.0413863,-0.0399267,-0.0534873,0.067915,-0.0664554,-0.460427,0.0775803,0.0434861,1245,1667,5.27048,-33.0534
28,-643,5.27478,33.0342,0.0366854,-0.0213155,-0.047974,0.0637432,-0.0483733,-0.513536,0.0649329,0.0452206,1252,1667,5.27475,-33.0341
35,-643,5.3606,32.9178,0,0,0,0,0,0,0,-1,1259,1667,5.36063,-32.9179
42,-643,8.43689,39.0143,0.0258575,0.0189113,-0.0376866,0.0602307,-0.0154619,-0.73945,0.0461788,0.0474547,1266,1667,8.43688,-39.0143
49,-643,8.37378,38.6279,0.0201493,0.0392437,-0.0333428,0.0643792,-0.00498624,-0.924835,0.0446744,0.0490671,1273,1667,8.37381,-38.6279
56,-643,8.69409,38.322,0,0,0,0,0,0,0,-1,1280,1667,8.69406,-38.322
63,-643,9.0658,37.0043,0,0,0,0,0,0,0,-1,1287,1667,9.06578,-37.0043
70,-643,9.31653,36.5171,0,0,0,0,0,0,0,-1,1294,1667,9.31649,-36.517
77,-643,9.66016,39.5431,-0.00429793,0.100166,-0.0244279,0.105596,-0.00972795,-1.35207,0.0738536,0.041664,1301,1667,9.66021,-39.5431
84,-643,8.46899,40,-0.00889915,0.111826,-0.0230451,0.116075,-0.0131486,-1.38845,0.0821181,0.0446271,1308,1667,8.46897,-40
91,-643,8.14807,39.6366,-0.014154,0.120757,-0.0200811,0.123683,-0.0170796,-1.42613,0.0886983,0.0444028,1315,1667,8.14809,-39.6366
98,-643,7.93848,39.0072,-0.0185506,0.124131,-0.0187355,0.12655,-0.0209698,-1.44239,0.0921556,0.0494114,1322,1667,7.93843,-39.0072
105,-643,8.24597,38.4424,-0.0212939,0.128082,-0.0172251,0.130043,-0.0232544,-1.45746,0.0953963,0.0480928,1329,1667,8.24597,-38.4423
112,-643,5.43518,38.9025,-0.0224015,0.132023,-0.0150851,0.133483,-0.0238613,-1.47433,0.0979165,0.0457249,1336,1667,5.43524,-38.9025
119,-643,5.2998,38.4871,-0.0219033,0.135922,-0.0123887,0.136889,-0.0228699,-1.49294,0.0997603,0.0483817,1343,1667,5.29985,-38.4871
126,-643,5.02625,38.0753,0,0,0,0,0,0,0,-1,1350,1667,5.02619,-38.0754
133,-643,4.58447,38.6451,0,0,0,0,0,0,0,-1,1357,1667,4.58442,-38.6451
140,-643,4.39661,38.9741,0,0,0,0,0,0,0,-1,1364,1667,4.39664,-38.9741
147,-643,3.7179,39.8988,0,0,0,0,0,0,0,-1,1371,1667,3.71789,-39.8988
154,-643,3.57751,40.3458,0,0,0,0,0,0,0,-1,1378,1667,3.57755,-40.3458
161,-643,5.57935,26.2754,0,0,0,0,0,0,0,-1,1385,1667,5.57931,-26.2754
168,-643,10.5563,10.9818,0,0,0,0,0,0,0,-1,1392,1667,10.5562,-10.9819
175,-643,5.88525,-1.1698,0,0,0,0,0,0,0,-1,1399,1667,5.88526,1.16977
182,-643,5.80945,-0.418701,0,0,0,0,0,0,0,-1,1406,1667,5.80949,0.418712
189,-643,5.42297,12.9208,0,0,0,0,0,0,0,-1,1413,1667,5.42298,-12.9208
196,-643,5.51953,11.2415,0,0,0,0,0,0,0,-1,1420,1667,5.51948,-11.2414
203,-643,5.60828,9.82153,0,0,0,0,0,0,0,-1,1427,1667,5.60833,-9.82148
210,-643,4.73218,7.58728,0,0,0,0,0,0,0,-1,1434,1667,4.73222,-7.58728
217,-643,3.8031,5.28955,0,0,0,0,0,0,0,-1,1441,1667,3.80305,-5.28955
224,-643,2.96436,2.97095,0,0,0,0,0,0,0,-1,1448,1667,2.96432,-2.97095
231,-643,2.13403,1.08472,0,0,0,0,0,0,0,-1,1455,1667,2.13403,-1.08467
238,-643,1.18152,-0.261963,0,0,0,0,0,0,0,-1,1462,1667,1.18152,0.26192
245,-643,-0.157471,-1.79016,0,0,0,0,0,0,0,-1,1469,1667,-0.157517,1.7901
252,-643,8.08789,0.0202637,0,0,0,0,0,0,0,-1,1476,1667,8.08791,-0.0203056
259,-643,9.02979,-0.46936,0,0,0,0,0,0,0,-1,1483,1667,9.02974,0.46933
266,-643,4.55066,5.17554,0,0,0,0,0,0,0,-1,1490,1667,4.55063,-5.17556
273,-643,10.74,31.432,0,0,0,0,0,0,0,-1,1497,1667,10.7399,-31.4319
280,-643,9.64575,31.249,0,0,0,0,0,0,0,-1,1504,1667,9.64576,-31.2491
287,-643,9.47559,31.0104,0,0,0,0,0,0,0,-1,1511,1667,9.47554,-31.0104
294,-643,9.86963,31.0291,0,0,0,0,0,0,0,-1,1518,1667,9.86962,-31.0291
301,-643,9.99097,30.7719,0,0,0,0,0,0,0,-1,1525,1667,9.99099,-30.7719
308,-643,9.94678,30.6409,0.0105141,0.00536633,-0.00403046,0.0127224,0.00315801,-0.501234,0.00764942,0.0492726,1532,1667,9.94676,-30.6408
315,-643,9.97144,30.3201,0.00964174,0.00510984,-0.00345226,0.0115053,0.00324631,-0.494979,0.00684949,0.0420869,1539,1667,9.97143,-30.3201
322,-643,10.1421,29.8789,0.00876744,0.00459758,-0.00286276,0.010224,0.003141,-0.470666,0.00604733,0.0277172,1546,1667,10.142,-29.8789
329,-643,10.1941,29.5948,0.00791693,0.00410246,-0.00237349,0.00905452,0.00296487,-0.446945,0.00533039,0.0170201,1553,1667,10.1942,-29.5949
336,-643,10.119,29.4034,0.00708039,0.00391998,-0.00199978,0.00804895,0.00295143,-0.451034,0.0047018,0.0130367,1560,1667,10.119,-29.4034
343,-643,10.1388,29.1393,0.00617443,0.00367464,-0.00179659,0.00711314,0.00273593,-0.481479,0.00414305,0.0134628,1567,1667,10.1388,-29.1393
350,-643,10.184,28.8169,0.00522202,0.00343854,-0.0016155,0.00617556,0.00248501,-0.533213,0.00358803,0.0125657,1574,1667,10.184,-28.8168
357,-643,10.1885,28.5123,0.00436299,0.00320187,-0.00143722,0.00533248,0.00223238,-0.593447,0.00309226,0.010306,1581,1667,10.1885,-28.5124
364,-643,10.1907,28.196,0.00356432,0.00258053,-0.00114552,0.00431908,0.00182576,-0.5826,0.00250353,0.00908043,1588,1667,10.1907,-28.1961
371,-643,10.1865,27.913,0.00276318,0.00189173,-0.000809847,0.00324708,0.00140783,-0.538594,0.00188021,0.00797183,1595,1667,10.1865,-27.913
378,-643,10.1857,27.6168,0.00204341,0.00119038,-0.000499622,0.00227381,0.00095998,-0.432088,0.00131807,0.0100313,1602,1667,10.1857,-27.6169
385,-643,10.1956,27.3066,0.00145585,0.000371546,-0.00019547,0.00149001,0.000337384,-0.173018,0.000902161,0.0149846,1609,1667,10.1956,-27.3066
392,-643,10.1973,26.9783,0.000895345,-0.000610501,0.000132486,0.000906912,-0.000622068,0.0870894,0.000887849,0.016078,1616,1667,10.1972,-26.9783
399,-643,10.1904,26.6536,0.000230681,-0.0016214,0.000557555,0.000385575,-0.00177629,0.270975,0.00133146,0.0139003,1623,1667,10.1905,-26.6536
406,-643,10.1937,26.3082,-0.000249655,-0.00252106,0.000877322,4.9744e-05,-0.00282046,0.328871,0.0018971,0.0126767,1630,1667,10.1937,-26.3082
413,-643,10.2059,25.9723,-0.000544411,-0.00313727,0.00108223,-0.000152067,-0.00352961,0.347796,0.00230406,0.0183899,1637,1667,10.206,-25.9723
420,-643,10.1714,25.6456,-0.00090094,-0.00364271,0.0012113,-0.000442462,-0.00410119,0.361836,0.00259922,0.0186527,1644,1667,10.1714,-25.6457
427,-643,10.1569,25.3181,-0.00119061,-0.00389213,0.00125189,-0.000699686,-0.00438305,0.373714,0.00271898,0.0159939,1651,1667,10.1568,-25.3182
434,-643,10.156,24.975,-0.00146995,-0.00401692,0.0011441,-0.0010315,-0.00445538,0.365966,0.00269309,0.0155751,1658,1667,10.156,-24.975
441,-643,10.1505,24.6035,-0.00178146,-0.00384799,0.00100305,-0.00137467,-0.00425478,0.385282,0.00250723,0.0156469,1665,1667,10.1505,-24.6035
448,-643,10.0483,24.2402,-0.00200434,-0.00360167,0.000736151,-0.00171682,-0.00388918,0.372345,0.00225055,0.0211597,1672,1667,10.0483,-24.2402
455,-643,9.97607,23.8118,-0.0022275,-0.00299689,0.00031679,-0.00211385,-0.00311054,0.34445,0.00183407,0.0287542,1679,1667,9.97612,-23.8118
462,-643,10.1254,23.4879,-0.00260519,-0.00236439,0.000111845,-0.00232046,-0.00264912,1.1965,0.00166736,0.0427321,1686,1667,10.1253,-23.488
469,-643,10.3101,23.1277,0,0,0,0,0,0,0,-1,1693,1667,10.31,-23.1277
476,-643,9.98694,22.7018,0,0,0,0,0,0,0,-1,1700,1667,9.98694,-22.7018
483,-643,10.0189,22.4143,0,0,0,0,0,0,0,-1,1707,1667,10.019,-22.4143
490,-643,10.6475,22.152,0,0,0,0,0,0,0,-1,1714,1667,10.6475,-22.1519
497,-643,11.2279,21.8638,0,0,0,0,0,0,0,-1,1721,1667,11.2279,-21.8637
504,-643,8.05591,19.0656,0,0,0,0,0,0,0,-1,1728,1667,8.0559,-19.0655
511,-643,7.74719,18.1564,0,0,0,0,0,0,0,-1,1735,1667,7.74724,-18.1563
518,-643,7.40564,0.922607,0,0,0,0,0,0,0,-1,1742,1667,7.4057,-0.922598
525,-643,0,0,0,0,0,0,0,0,0,-1,1749,1667,0,0
532,-643,0,0,0,0,0,0,0,0,0,-1,1756,1667,0,0
539,-643,0,0,0,0,0,0,0,0,0,-1,1763,1667,0,0
546,-643,0,0,0,0,0,0,0,0,0,-1,1770,1667,0,0
553,-643,0,0,0,0,0,0,0,0,0,-1,1777,1667,0,0
560,-643,0,0,0,0,0,0,0,0,0,-1,1784,1667,0,0
567,-643,0,0,0,0,0,0,0,0,0,-1,1791,1667,0,0
574,-643,0,0,0,0,0,0,0,0,0,-1,1798,1667,0,0
581,-643,0,0,0,0,0,0,0,0,0,-1,1805,1667,0,0
588,-643,0,0,0,0,0,0,0,0,0,-1,1812,1667,0,0
595,-643,0,0,0,0,0,0,0,0,0,-1,1819,1667,0,0
602,-643,0,0,0,0,0,0,0,0,0,-1,1826,1667,0,0
609,-643,0,0,0,0,0,0,0,0,0,-1,1833,1667,0,0
616,-643,0,0,0,0,0,0,0,0,0,-1,1840,1667,0,0
623,-643,0,0,0,0,0,0,0,0,0,-1,1847,1667,0,0
630,-643,0,0,0,0,0,0,0,0,0,-1,1854,1667,0,0
637,-643,0,0,0,0,0,0,0,0,0,-1,1861,1667,0,0
644,-643,0,0,0,0,0,0,0,0,0,-1,1868,1667,0,0
651,-643,0,0,0,0,0,0,0,0,0,-1,1875,1667,0,0
658,-643,0,0,0,0,0,0,0,0,0,-1,1882,1667,0,0
665,-643,0,0,0,0,0,0,0,0,0,-1,1889,1667,0,0
672,-643,0,0,0,0,0,0,0,0,0,-1,1896,1667,0,0
679,-643,0,0,0,0,0,0,0,0,0,-1,1903,1667,0,0
686,-643,0,0,0,0,0,0,0,0,0,-1,1910,1667,0,0
693,-643,0,0,0,0,0,0,0,0,0,-1,1917,1667,0,0
700,-643,0,0,0,0,0,0,0,0,0,-1,1924,1667,0,0
707,-643,0,0,0,0,0,0,0,0,0,-1,1931,1667,0,0
714,-643,0,0,0,0,0,0,0,0,0,-1,1938,1667,0,0
721,-643,0,0,0,0,0,0,0,0,0,-1,1945,1667,0,0
728,-643,0,0,0,0,0,0,0,0,0,-1,1952,1667,0,0
735,-643,0,0,0,0,0,0,0,0,0,-1,1959,1667,0,0
742,-643,0,0,0,0,0,0,0,0,0,-1,1966,1667,0,0
749,-643,0,0,0,0,0,0,0,0,0,-1,1973,1667,0,0
756,-643,0,0,0,0,0,0,0,0,0,-1,1980,1667,0,0
763,-643,0,0,0,0,0,0,0,0,0,-1,1987,1667,0,0
770,-643,0,0,0,0,0,0,0,0,0,-1,1994,1667,0,0
777,-643,0,0,0,0,0,0,0,0,0,-1,2001,1667,0,0
784,-643,0,0,0,0,0,0,0,0,0,-1,2008,1667,0,0
791,-643,0,0,0,0,0,0,0,0,0,-1,2015,1667,0,0
798,-643,0,0,0,0,0,0,0,0,0,-1,2022,1667,0,0
805,-643,0,0,0,0,0,0,0,0,0,-1,2029,1667,0,0
812,-643,0,0,0,0,0,0,0,0,0,-1,2036,1667,0,0
-700,-650,0,0,0,0,0,0,0,0,0,-1,524,1674,0,0
-693,-650,0,0,0,0,0,0,0,0,0,-1,531,1674,0,0
-686,-650,0,0,0,0,0,0,0,0,0,-1,538,1674,0,0
-679,-650,0,0,0,0,0,0,0,0,0,-1,545,1674,0,0
-672,-650,0,0,0,0,0,0,0,0,0,-1,552,1674,0,0
-665,-650,0,0,0,0,0,0,0,0,0,-1,559,1674,0,0
-658,-650,0,0,0,0,0,0,0,0,0,-1,566,1674,0,0
-651,-650,0,0,0,0,0,0,0,0,0,-1,573,1674,0,0
-644,-650,0,0,0,0,0,0,0,0,0,-1,580,1674,0,0
-637,-650,0,0,0,0,0,0,0,0,0,-1,587,1674,0,0
-630,-650,0,0,0,0,0,0,0,0,0,-1,594,1674,0,0
-623,-650,0,0,0,0,0,0,0,0,0,-1,601,1674,0,0
-616,-650,0,0,0,0,0,0,0,0,0,-1,608,1674,0,0
-609,-650,0,0,0,0,0,0,0,0,0,-1,615,1674,0,0
-602,-650,0,0,0,0,0,0,0,0,0,-1,622,1674,0,0
-595,-650,0,0,0,0,0,0,0,0,0,-1,629,1674,0,0
-588,-650,0,0,0,0,0,0,0,0,0,-1,636,1674,0,0
-581,-650,0,0,0,0,0,0,0,0,0,-1,643,1674,0,0
-574,-650,0,0,0,0,0,0,0,0,0,-1,650,1674,0,0
-567,-650,0,0,0,0,0,0,0,0,0,-1,657,1674,0,0
-560,-650,0,0,0,0,0,0,0,0,0,-1,664,1674,0,0
-553,-650,0,0,0,0,0,0,0,0,0,-1,671,1674,0,0
-546,-650,0,0,0,0,0,0,0,0,0,-1,678,1674,0,0
-539,-650,0,0,0,0,0,0,0,0,0,-1,685,1674,0,0
-532,-650,0,0,0,0,0,0,0,0,0,-1,692,1674,0,0
-525,-650,0,0,0,0,0,0,0,0,0,-1,699,1674,0,0
-518,-650,0,0,0,0,0,0,0,0,0,-1,706,1674,0,0
-511,-650,0,0,0,0,0,0,0,0,0,-1,713,1674,0,0
-504,-650,0,0,0,0,0,0,0,0,0,-1,720,1674,0,0
-497,-650,0,0,0,0,0,0,0,0,0,-1,727,1674,0,0
-490,-650,0,0,0,0,0,0,0,0,0,-1,734,1674,0,0
-483,-650,0,0,0,0,0,0,0,0,0,-1,741,1674,0,0
-476,-650,0,0,0,0,0,0,0,0,0,-1,748,1674,0,0
-469,-650,0,0,0,0,0,0,0,0,0,-1,755,1674,0,0
-462,-650,0,0,0,0,0,0,0,0,0,-1,762,1674,0,0
-455,-650,0,0,0,0,0,0,0,0,0,-1,769,1674,0,0
-448,-650,0,0,0,0,0,0,0,0,0,-1,776,1674,0,0
-441,-650,0,0,0,0,0,0,0,0,0,-1,783,1674,0,0
-434,-650,0,0,0,0,0,0,0,0,0,-1,790,1674,0,0
-427,-650,0,0,0,0,0,0,0,0,0,-1,797,1674,0,0
-420,-650,0,0,0,0,0,0,0,0,0,-1,804,1674,0,0
-413,-650,0,0,0,0,0,0,0,0,0,-1,811,1674,0,0
-406,-650,0,0,0,0,0,0,0,0,0,-1,818,1674,0,0
-399,-650,0,0,0,0,0,0,0,0,0,-1,825,1674,0,0
-392,-650,5.44415,6.85669,0,0,0,0,0,0,0,-1,832,1674,5.44414,-6.85674
-385,-650,1.74451,14.0183,0,0,0,0,0,0,0,-1,839,1674,1.74453,-14.0183
-378,-650,0.997986,4.11108,0,0,0,0,0,0,0,-1,846,1674,0.998006,-4.11113
-371,-650,-1.80096,3.78625,0,0,0,0,0,0,0,-1,853,1674,-1.80094,-3.78625
-364,-650,-2.95679,2.57507,0,0,0,0,0,0,0,-1,860,1674,-2.95681,-2.57506
-357,-650,1.97833,10.8362,0,0,0,0,0,0,0,-1,867,1674,1.97835,-10.8362
-350,-650,-5.30243,0.159912,0,0,0,0,0,0,0,-1,874,1674,-5.30244,-0.159866
-343,-650,-6.21338,-1.4425,0,0,0,0,0,0,0,-1,881,1674,-6.21341,1.44248
-336,-650,5.54797,19.9131,0,0,0,0,0,0,0,-1,888,1674,5.54798,-19.9131
-329,-650,4.94171,22.5175,0,0,0,0,0,0,0,-1,895,1674,4.9417,-22.5174
-322,-650,5.09534,22.9324,-0.00375819,0.00461386,0.00314716,0.00566496,-0.00480929,1.24846,0.00605403,0.0424482,902,1674,5.09537,-22.9324
-315,-650,5.13843,23.3307,-0.00333682,0.00350246,0.00258096,0.00436712,-0.00420148,1.24753,0.0049474,0.0369518,909,1674,5.13842,-23.3306
-308,-650,4.99756,23.7745,-0.00297227,0.0025341,0.00198299,0.00317389,-0.00361207,1.2587,0.0039206,0.022777,916,1674,4.99757,-23.7745
-301,-650,4.97736,24.2281,-0.00254351,0.00186582,0.00151267,0.00233486,-0.00301255,1.27012,0.00309558,0.0138118,923,1674,4.97737,-24.2282
-294,-650,4.94208,24.6144,-0.00198731,0.0014146,0.00118705,0.00178786,-0.00236057,1.26615,0.00240269,0.0111158,930,1674,4.9421,-24.6143
-287,-650,4.94427,24.9816,-0.00137039,0.00115146,0.000993032,0.00149554,-0.00171447,1.23725,0.00185474,0.0131927,937,1674,4.94427,-24.9815
-280,-650,4.91931,25.3335,-0.000904302,0.00105702,0.000803267,0.00134401,-0.00119129,1.22765,0.00146464,0.0150024,944,1674,4.91932,-25.3335
-273,-650,4.90668,25.7174,-0.000480879,0.00107246,0.000697079,0.0013394,-0.000747826,1.20507,0.00122109,0.0138606,951,1674,4.90665,-25.7175
-266,-650,4.86847,26.0729,-8.08668e-05,0.00112072,0.000694204,0.001438,-0.000398154,1.14209,0.00111533,0.011734,958,1674,4.86848,-26.0729
-259,-650,4.87598,26.4036,0.000352513,0.001193,0.000686599,0.00157776,-3.2241e-05,1.06002,0.00106275,0.0149122,965,1674,4.87601,-26.4035
-252,-650,4.88281,26.7433,0.000651918,0.00154009,0.000659306,0.00189092,0.000301085,1.08178,0.0011732,0.0131965,972,1674,4.88283,-26.7432
-245,-650,4.88574,27.0818,0.000864223,0.00175948,0.000675766,0.00212243,0.000501278,1.07792,0.00128098,0.0124976,979,1674,4.88574,-27.0817
-238,-650,4.88873,27.4426,0.00110017,0.00191701,0.000705793,0.00232403,0.000693146,1.04769,0.00137771,0.0143427,986,1674,4.88873,-27.4426
-231,-650,4.85504,27.7783,0.00142367,0.00194823,0.000810706,0.00253803,0.000833877,0.941844,0.00149377,0.0187884,993,1674,4.85506,-27.7783
-224,-650,4.84558,28.0806,0.00173407,0.00215128,0.000943059,0.00290853,0.000976822,0.894246,0.00170914,0.0148274,1000,1674,4.84557,-28.0806
-217,-650,4.85284,28.3556,0.00200955,0.0025414,0.00102647,0.00333583,0.00121512,0.912145,0.00194946,0.0103855,1007,1674,4.85286,-28.3555
-210,-650,4.85956,28.6704,0.00247494,0.00259052,0.000838478,0.00337319,0.00169226,0.819806,0.00194752,0.00965083,1014,1674,4.85957,-28.6704
-203,-650,4.87903,28.9862,0.00304792,0.00242158,0.000592769,0.00340516,0.00206434,0.542374,0.00198071,0.0138168,1021,1674,4.87899,-28.9862
-196,-650,4.88892,29.2703,0.00345287,0.00244307,0.000368685,0.00357315,0.00232278,0.315358,0.0020937,0.0131139,1028,1674,4.88897,-29.2703
-189,-650,4.89026,29.5757,0.00381395,0.00249669,2.42854e-05,0.0038144,0.00249624,0.0184279,0.00223698,0.0106457,1035,1674,4.89025,-29.5757
-182,-650,4.92126,29.925,0.00432328,0.002689,-0.000427363,0.00442829,0.00258399,-0.240938,0.00256853,0.00968144,1042,1674,4.92126,-29.9251
-175,-650,4.96228,30.1943,0.00506605,0.00304337,-0.000769235,0.00532535,0.00278407,-0.325128,0.00307566,0.0141696,1049,1674,4.96225,-30.1943
-168,-650,4.97119,30.465,0.00566272,0.00377457,-0.00117102,0.00622282,0.00321446,-0.446143,0.00359341,0.0198681,1056,1674,4.97115,-30.465
-161,-650,4.9646,30.7195,0.00637008,0.00459865,-0.00155693,0.0072756,0.00369313,-0.526785,0.00420073,0.0301717,1063,1674,4.96456,-30.7195
-154,-650,5.02014,30.9291,0.00705096,0.00590973,-0.00187131,0.00843672,0.00452397,-0.637413,0.0048752,0.0325499,1070,1674,5.02015,-30.9291
-147,-650,4.98413,31.2269,0.00773312,0.00775986,-0.00211863,0.00986516,0.00562781,-0.788553,0.00571448,0.0492133,1077,1674,4.98416,-31.2269
-140,-650,5.05029,31.683,0,0,0,0,0,0,0,-1,1084,1674,5.05026,-31.683
-133,-650,4.64197,32.249,0,0,0,0,0,0,0,-1,1091,1674,4.64197,-32.249
-126,-650,5.01685,32.3108,0,0,0,0,0,0,0,-1,1098,1674,5.01681,-32.3108
-119,-650,5.16663,20.6232,0,0,0,0,0,0,0,-1,1105,1674,5.16665,-20.6232
-112,-650,3.86292,14.4513,0,0,0,0,0,0,0,-1,1112,1674,3.8629,-14.4513
-105,-650,4.9259,12.0626,0,0,0,0,0,0,0,-1,1119,1674,4.92591,-12.0626
-98,-650,3.3761,6.78003,0,0,0,0,0,0,0,-1,1126,1674,3.37611,-6.78009
-91,-650,3.66809,7.04443,0,0,0,0,0,0,0,-1,1133,1674,3.66806,-7.04439
-84,-650,-3.82666,-1.59521,0,0,0,0,0,0,0,-1,1140,1674,-3.82661,1.59517
-77,-650,-4.70557,1.90198,0,0,0,0,0,0,0,-1,1147,1674,-4.7056,-1.90194
-70,-650,-4.88171,3.81653,0,0,0,0,0,0,0,-1,1154,1674,-4.88176,-3.81651
-63,-650,-5.14612,5.56543,0,0,0,0,0,0,0,-1,1161,1674,-5.14612,-5.56547
-56,-650,-5.38367,7.41101,0,0,0,0,0,0,0,-1,1168,1674,-5.38361,-7.41102
-49,-650,-5.11316,8.23706,0,0,0,0,0,0,0,-1,1175,1674,-5.11317,-8.23708
-42,-650,-4.99487,9.6792,0,0,0,0,0,0,0,-1,1182,1674,-4.99484,-9.67921
-35,-650,-4.77771,11.3369,0,0,0,0,0,0,0,-1,1189,1674,-4.77769,-11.3369
-28,-650,-4.1936,13.1501,0,0,0,0,0,0,0,-1,1196,1674,-4.19358,-13.1501
-21,-650,14.001,37.6479,0,0,0,0,0,0,0,-1,1203,1674,14.0009,-37.6479
-14,-650,4.703,33.8167,0,0,0,0,0,0,0,-1,1210,1674,4.70294,-33.8167
-7,-650,4.87195,34.0038,0,0,0,0,0,0,0,-1,1217,1674,4.87197,-34.0038
0,-650,5.37891,34.1636,0.0477841,-0.0577142,-0.059052,0.0742158,-0.084146,-0.420857,0.0914901,0.0450114,1224,1674,5.37896,-34.1636
7,-650,5.6803,34.0209,0.0443949,-0.0531813,-0.0527905,0.0674894,-0.0762759,-0.41239,0.0830546,0.0383388,1231,1674,5.68033,-34.0209
14,-650,5.86096,33.9344,0.040369,-0.0431336,-0.0467223,0.0612766,-0.0640412,-0.420763,0.0723582,0.0384048,1238,1674,5.8609,-33.9344
21,-650,6.00793,34.1302,0.0362779,-0.0290152,-0.0414148,0.0563664,-0.0491037,-0.451621,0.0609413,0.0446005,1245,1674,6.00791,-34.1303
28,-650,5.98584,34.47,0.0324673,-0.0135602,-0.0366002,0.0526879,-0.0337808,-0.504739,0.050319,0.0454556,1252,1674,5.98588,-34.47
35,-650,5.99207,34.8118,0.0284036,0.00319572,-0.0320465,0.0502356,-0.0186363,-0.598039,0.0411347,0.0458829,1259,1674,5.9921,-34.8118
42,-650,8.23047,38.2467,0.0230234,0.021414,-0.0267779,0.0490087,-0.00457135,-0.770377,0.0342979,0.0462018,1266,1674,8.23041,-38.2467
49,-650,8.29395,38.0325,0.0177796,0.0391295,-0.0225233,0.0533795,0.00352959,-1.0067,0.0344701,0.0478579,1273,1674,8.2939,-38.0325
56,-650,8.48291,37.9177,0.0120001,0.0554492,-0.0185639,0.0623004,0.00514892,-1.21724,0.0399281,0.0480609,1280,1674,8.48288,-37.9178
63,-650,8.70056,37.8387,0,0,0,0,0,0,0,-1,1287,1674,8.70062,-37.8388
70,-650,8.67493,38.0232,0,0,0,0,0,0,0,-1,1294,1674,8.67495,-38.0232
77,-650,9.11816,38.7921,-0.00517622,0.0937059,-0.013877,0.0956165,-0.00708678,-1.43398,0.0662331,0.0456915,1301,1674,9.11819,-38.7922
84,-650,9.20813,37.269,-0.00987244,0.103987,-0.0131181,0.105478,-0.0113643,-1.45756,0.0743969,0.0476791,1308,1674,9.20813,-37.269
91,-650,9.16833,37.7167,-0.0147665,0.111338,-0.0117435,0.112422,-0.0158508,-1.47873,0.0807521,0.0489841,1315,1674,9.16836,-37.7167
98,-650,7.77271,38.2113,-0.0185031,0.11387,-0.0119675,0.114943,-0.0195763,-1.48136,0.083919,0.0481868,1322,1674,7.77267,-38.2113
105,-650,7.7511,37.9714,-0.0206225,0.116603,-0.0122157,0.117682,-0.0217015,-1.4827,0.0865998,0.0479624,1329,1674,7.75115,-37.9714
112,-650,7.30933,37.603,0,0,0,0,0,0,0,-1,1336,1674,7.30931,-37.603
119,-650,6.19067,37.3468,-0.0200801,0.121081,-0.0112592,0.121974,-0.0209725,-1.4917,0.0891329,0.0436734,1343,1674,6.19063,-37.3468
126,-650,5.57739,37.3751,0,0,0,0,0,0,0,-1,1350,1674,5.57745,-37.3751
133,-650,5.22815,37.6768,-0.0132915,0.123407,-0.00633114,0.1237,-0.0135841,-1.52461,0.0873473,0.0484419,1357,1674,5.22819,-37.6768
140,-650,5.0177,38.0099,0,0,0,0,0,0,0,-1,1364,1674,5.01767,-38.0098
147,-650,4.73206,38.3254,0,0,0,0,0,0,0,-1,1371,1674,4.732,-38.3255
154,-650,8.03918,37.9056,0,0,0,0,0,0,0,-1,1378,1674,8.03922,-37.9056
161,-650,4.09106,30.3021,0,0,0,0,0,0,0,-1,1385,1674,4.09104,-30.3021
168,-650,11.2113,7.87231,0,0,0,0,0,0,0,-1,1392,1674,11.2113,-7.87236
175,-650,5.62537,-0.230713,0,0,0,0,0,0,0,-1,1399,1674,5.62538,0.230745
182,-650,5.56006,0.421631,0,0,0,0,0,0,0,-1,1406,1674,5.56,-0.421652
189,-650,4.81543,11.0654,0,0,0,0,0,0,0,-1,1413,1674,4.81542,-11.0654
196,-650,5.39575,11.9077,0,0,0,0,0,0,0,-1,1420,1674,5.39575,-11.9078
203,-650,3.93628,11.8215,0,0,0,0,0,0,0,-1,1427,1674,3.93624,-11.8216
210,-650,5.40955,8.08594,0,0,0,0,0,0,0,-1,1434,1674,5.40958,-8.086
217,-650,5.12451,4.69739,0,0,0,0,0,0,0,-1,1441,1674,5.12451,-4.69738
224,-650,4.79041,1.45813,0,0,0,0,0,0,0,-1,1448,1674,4.79046,-1.45816
231,-650,4.04102,-0.642212,0,0,0,0,0,0,0,-1,1455,1674,4.04101,0.642209
238,-650,3.23022,-1.43396,0,0,0,0,0,0,0,-1,1462,1674,3.23023,1.43394
245,-650,1.65894,-2.55042,0,0,0,0,0,0,0,-1,1469,1674,1.65889,2.55036
252,-650,8.75342,0.355103,0,0,0,0,0,0,0,-1,1476,1674,8.75337,-0.355147
259,-650,5.61255,3.17566,0,0,0,0,0,0,0,-1,1483,1674,5.61257,-3.17572
266,-650,4.00403,6.10229,0,0,0,0,0,0,0,-1,1490,1674,4.00401,-6.10225
273,-650,9.53101,31.2404,0,0,0,0,0,0,0,-1,1497,1674,9.53106,-31.2404
280,-650,9.43494,31.3071,0,0,0,0,0,0,0,-1,1504,1674,9.4349,-31.3071
287,-650,9.33875,31.3739,0,0,0,0,0,0,0,-1,1511,1674,9.33875,-31.3738
294,-650,9.64587,31.0721,0.00927962,0.00518243,-0.00402621,0.0117484,0.0027136,-0.550061,0.00710271,0.0442213,1518,1674,9.64588,-31.0721
301,-650,9.75549,30.6772,0.00872103,0.00463373,-0.00337914,0.0106264,0.00272832,-0.513434,0.00637261,0.0333349,1525,1674,9.75543,-30.6773
308,-650,9.80969,30.4297,0.00800663,0.004022,-0.00277022,0.00942656,0.00260207,-0.473653,0.00562148,0.0229737,1532,1674,9.80968,-30.4297
315,-650,9.81689,30.1971,0.00734181,0.0038375,-0.00239388,0.00855626,0.00262305,-0.46948,0.00506168,0.0178087,1539,1674,9.81686,-30.1971
322,-650,9.83606,29.9633,0.00661966,0.00346191,-0.00199759,0.007587,0.00249457,-0.450972,0.00446513,0.0138395,1546,1674,9.83604,-29.9633
329,-650,9.8446,29.6603,0.00591655,0.00305501,-0.00167457,0.00668835,0.00228322,-0.431873,0.00392576,0.0154555,1553,1674,9.84455,-29.6602
336,-650,9.84448,29.386,0.00522878,0.00282232,-0.0013874,0.00586202,0.00218907,-0.428184,0.00342039,0.0130771,1560,1674,9.84445,-29.386
343,-650,9.88,29.0941,0.00445107,0.00251214,-0.00119409,0.00501969,0.00194352,-0.444424,0.00292261,0.0136691,1567,1674,9.88004,-29.0942
350,-650,9.89771,28.8259,0.0036442,0.00215182,-0.000973188,0.00412434,0.00167168,-0.458332,0.00239538,0.0163348,1574,1674,9.89776,-28.8259
357,-650,9.87878,28.531,0.00292667,0.00176201,-0.000771651,0.00331107,0.00137762,-0.462162,0.0019206,0.0128189,1581,1674,9.87875,-28.531
364,-650,9.87109,28.2083,0.00224028,0.00100852,-0.000452222,0.00238847,0.000860327,-0.31668,0.00139684,0.00828938,1588,1674,9.87106,-28.2083
371,-650,9.86853,27.896,0.00154363,0.000206789,-9.1245e-05,0.00154983,0.00020059,-0.067835,0.00097327,0.0101971,1595,1674,9.86853,-27.896
378,-650,9.86426,27.588,0.000915939,-0.000629854,0.000269769,0.000961666,-0.000675581,0.167908,0.000950063,0.0117859,1602,1674,9.86421,-27.5881
385,-650,9.84949,27.2754,0.000398621,-0.00156936,0.000629119,0.000582546,-0.00175329,0.284428,0.00140392,0.0132929,1609,1674,9.84952,-27.2754
392,-650,9.87256,26.9965,-0.000128522,-0.00269032,0.0010204,0.000228233,-0.00304707,0.33634,0.00211158,0.0179233,1616,1674,9.87262,-26.9965
399,-650,9.86267,26.6882,-0.000727478,-0.00382249,0.00145225,-0.000152767,-0.0043972,0.376827,0.00288189,0.0165811,1623,1674,9.86263,-26.6882
406,-650,9.85034,26.3225,-0.00117461,-0.00484282,0.00181703,-0.00042694,-0.00559049,0.390361,0.00359314,0.0144853,1630,1674,9.85032,-26.3225
413,-650,9.85925,25.9681,-0.00143297,-0.00554634,0.00203948,-0.000593202,-0.0063861,0.390598,0.00407409,0.0148091,1637,1674,9.85931,-25.9681
420,-650,9.84204,25.6624,-0.00175187,-0.00605138,0.00212487,-0.000878955,-0.0069243,0.389788,0.00435289,0.0151385,1644,1674,9.84204,-25.6624
427,-650,9.83032,25.342,-0.00204901,-0.00634967,0.00214367,-0.00116302,-0.00723566,0.391923,0.00448663,0.0143306,1651,1674,9.83029,-25.342
434,-650,9.82056,25.0012,-0.00233826,-0.00648419,0.00200583,-0.00152669,-0.00729576,0.38447,0.00444325,0.0169463,1658,1674,9.82058,-25.0012
441,-650,9.74866,24.6815,-0.00263568,-0.00623884,0.00180269,-0.00188866,-0.00698587,0.392853,0.00417269,0.0294404,1665,1674,9.74861,-24.6815
448,-650,9.62854,24.3708,-0.00280638,-0.0058637,0.00138194,-0.00227432,-0.00639575,0.367516,0.00374357,0.0448674,1672,1674,9.6285,-24.3709
455,-650,9.50269,24.014,-0.00296978,-0.00483261,0.000760535,-0.00269872,-0.00510367,0.342371,0.00294823,0.0459211,1679,1674,9.50271,-24.014
462,-650,9.51807,23.7491,0,0,0,0,0,0,0,-1,1686,1674,9.51803,-23.7491
469,-650,9.52747,23.5498,0,0,0,0,0,0,0,-1,1693,1674,9.52744,-23.5498
476,-650,8.80078,22.457,0,0,0,0,0,0,0,-1,1700,1674,8.80079,-22.457
483,-650,9.58289,22.5995,0,0,0,0,0,0,0,-1,1707,1674,9.58287,-22.5995
490,-650,10.2742,22.3826,0,0,0,0,0,0,0,-1,1714,1674,10.2742,-22.3826
497,-650,10.4985,20.1362,0,0,0,0,0,0,0,-1,1721,1674,10.4986,-20.1362
504,-650,9.69458,18.7721,0,0,0,0,0,0,0,-1,1728,1674,9.6946,-18.772
511,-650,9.37158,17.7506,0,0,0,0,0,0,0,-1,1735,1674,9.37159,-17.7506
518,-650,0,0,0,0,0,0,0,0,0,-1,1742,1674,0,0
525,-650,0,0,0,0,0,0,0,0,0,-1,1749,1674,0,0
532,-650,0,0,0,0,0,0,0,0,0,-1,1756,1674,0,0
539,-650,0,0,0,0,0,0,0,0,0,-1,1763,1674,0,0
546,-650,0,0,0,0,0,0,0,0,0,-1,1770,1674,0,0
553,-650,0,0,0,0,0,0,0,0,0,-1,1777,1674,0,0
560,-650,0,0,0,0,0,0,0,0,0,-1,1784,1674,0,0
567,-650,0,0,0,0,0,0,0,0,0,-1,1791,1674,0,0
574,-650,0,0,0,0,0,0,0,0,0,-1,1798,1674,0,0
581,-650,0,0,0,0,0,0,0,0,0,-1,1805,1674,0,0
588,-650,0,0,0,0,0,0,0,0,0,-1,1812,1674,0,0
595,-650,0,0,0,0,0,0,0,0,0,-1,1819,1674,0,0
602,-650,0,0,0,0,0,0,0,0,0,-1,1826,1674,0,0
609,-650,0,0,0,0,0,0,0,0,0,-1,1833,1674,0,0
616,-650,0,0,0,0,0,0,0,0,0,-1,1840,1674,0,0
623,-650,0,0,0,0,0,0,0,0,0,-1,1847,1674,0,0
630,-650,0,0,0,0,0,0,0,0,0,-1,1854,1674,0,0
637,-650,0,0,0,0,0,0,0,0,0,-1,1861,1674,0,0
644,-650,0,0,0,0,0,0,0,0,0,-1,1868,1674,0,0
651,-650,0,0,0,0,0,0,0,0,0,-1,1875,1674,0,0
658,-650,0,0,0,0,0,0,0,0,0,-1,1882,1674,0,0
665,-650,0,0,0,0,0,0,0,0,0,-1,1889,1674,0,0
672,-650,0,0,0,0,0,0,0,0,0,-1,1896,1674,0,0
679,-650,0,0,0,0,0,0,0,0,0,-1,1903,1674,0,0
686,-650,0,0,0,0,0,0,0,0,0,-1,1910,1674,0,0
693,-650,0,0,0,0,0,0,0,0,0,-1,1917,1674,0,0
700,-650,0,0,0,0,0,0,0,0,0,-1,1924,1674,0,0
707,-650,0,0,0,0,0,0,0,0,0,-1,1931,1674,0,0
714,-650,0,0,0,0,0,0,0,0,0,-1,1938,1674,0,0
721,-650,0,0,0,0,0,0,0,0,0,-1,1945,1674,0,0
728,-650,0,0,0,0,0,0,0,0,0,-1,1952,1674,0,0
735,-650,0,0,0,0,0,0,0,0,0,-1,1959,1674,0,0
742,-650,0,0,0,0,0,0,0,0,0,-1,1966,1674,0,0
749,-650,0,0,0,0,0,0,0,0,0,-1,1973,1674,0,0
756,-650,0,0,0,0,0,0,0,0,0,-1,1980,1674,0,0
763,-650,0,0,0,0,0,0,0,0,0,-1,1987,1674,0,0
770,-650,0,0,0,0,0,0,0,0,0,-1,1994,1674,0,0
777,-650,0,0,0,0,0,0,0,0,0,-1,2001,1674,0,0
784,-650,0,0,0,0,0,0,0,0,0,-1,2008,1674,0,0
791,-650,0,0,0,0,0,0,0,0,0,-1,2015,1674,0,0
798,-650,0,0,0,0,0,0,0,0,0,-1,2022,1674,0,0
805,-650,0,0,0,0,0,0,0,0,0,-1,2029,1674,0,0
812,-650,0,0,0,0,0,0,0,0,0,-1,2036,1674,0,0
-700,-657,0,0,0,0,0,0,0,0,0,-1,524,1681,0,0
-693,-657,0,0,0,0,0,0,0,0,0,-1,531,1681,0,0
-686,-657,0,0,0,0,0,0,0,0,0,-1,538,1681,0,0
-679,-657,0,0,0,0,0,0,0,0,0,-1,545,1681,0,0
-672,-657,0,0,0,0,0,0,0,0,0,-1,552,1681,0,0
-665,-657,0,0,0,0,0,0,0,0,0,-1,559,1681,0,0
-658,-657,0,0,0,0,0,0,0,0,0,-1,566,1681,0,0
-651,-657,0,0,0,0,0,0,0,0,0,-1,573,1681,0,0
-644,-657,0,0,0,0,0,0,0,0,0,-1,580,1681,0,0
-637,-657,0,0,0,0,0,0,0,0,0,-1,587,1681,0,0
-630,-657,0,0,0,0,0,0,0,0,0,-1,594,1681,0,0
-623,-657,0,0,0,0,0,0,0,0,0,-1,601,1681,0,0
-616,-657,0,0,0,0,0,0,0,0,0,-1,608,1681,0,0
-609,-657,0,0,0,0,0,0,0,0,0,-1,615,1681,0,0
-602,-657,0,0,0,0,0,0,0,0,0,-1,622,1681,0,0
-595,-657,0,0,0,0,0,0,0,0,0,-1,629,1681,0,0
-588,-657,0,0,0,0,0,0,0,0,0,-1,636,1681,0,0
-581,-657,0,0,0,0,0,0,0,0,0,-1,643,1681,0,0
-574,-657,0,0,0,0,0,0,0,0,0,-1,650,1681,0,0
-567,-657,0,0,0,0,0,0,0,0,0,-1,657,1681,0,0
-560,-657,0,0,0,0,0,0,0,0,0,-1,664,1681,0,0
-553,-657,0,0,0,0,0,0,0,0,0,-1,671,1681,0,0
-546,-657,0,0,0,0,0,0,0,0,0,-1,678,1681,0,0
-539,-657,0,0,0,0,0,0,0,0,0,-1,685,1681,0,0
-532,-657,0,0,0,0,0,0,0,0,0,-1,692,1681,0,0
-525,-657,0,0,0,0,0,0,0,0,0,-1,699,1681,0,0
-518,-657,0,0,0,0,0,0,0,0,0,-1,706,1681,0,0
-511,-657,0,0,0,0,0,0,0,0,0,-1,713,1681,0,0
-504,-657,0,0,0,0,0,0,0,0,0,-1,720,1681,0,0
-497,-657,0,0,0,0,0,0,0,0,0,-1,727,1681,0,0
-490,-657,0,0,0,0,0,0,0,0,0,-1,734,1681,0,0
-483,-657,0,0,0,0,0,0,0,0,0,-1,741,1681,0,0
-476,-657,0,0,0,0,0,0,0,0,0,-1,748,1681,0,0
-469,-657,0,0,0,0,0,0,0,0,0,-1,755,1681,0,0
-462,-657,0,0,0,0,0,0,0,0,0,-1,762,1681,0,0
-455,-657,0,0,0,0,0,0,0,0,0,-1,769,1681,0,0
-448,-657,0,0,0,0,0,0,0,0,0,-1,776,1681,0,0
-441,-657,0,0,0,0,0,0,0,0,0,-1,783,1681,0,0
-434,-657,0,0,0,0,0,0,0,0,0,-1,790,1681,0,0
-427,-657,0,0,0,0,0,0,0,0,0,-1,797,1681,0,0
-420,-657,0,0,0,0,0,0,0,0,0,-1,804,1681,0,0
-413,-657,0,0,0,0,0,0,0,0,0,-1,811,1681,0,0
-406,-657,0,0,0,0,0,0,0,0,0,-1,818,1681,0,0
-399,-657,0,0,0,0,0,0,0,0,0,-1,825,1681,0,0
-392,-657,0,0,0,0,0,0,0,0,0,-1,832,1681,0,0
-385,-657,1.09814,6.18896,0,0,0,0,0,0,0,-1,839,1681,1.09814,-6.18894
-378,-657,0.31488,4.46753,0,0,0,0,0,0,0,-1,846,1681,0.31487,-4.46755
-371,-657,-0.519043,2.69421,0,0,0,0,0,0,0,-1,853,1681,-0.519064,-2.69422
-364,-657,-3.42017,4.18323,0,0,0,0,0,0,0,-1,860,1681,-3.42019,-4.18319
-357,-657,-4.41913,2.97168,0,0,0,0,0,0,0,-1,867,1681,-4.41913,-2.97165
-350,-657,-5.42291,1.70276,0,0,0,0,0,0,0,-1,874,1681,-5.42291,-1.70277
-343,-657,-6.51294,0.397339,0,0,0,0,0,0,0,-1,881,1681,-6.51295,-0.397335
-336,-657,4.4566,20.7173,0,0,0,0,0,0,0,-1,888,1681,4.45662,-20.7173
-329,-657,5.44714,22.7966,0,0,0,0,0,0,0,-1,895,1681,5.44713,-22.7966
-322,-657,5.54523,22.8405,0,0,0,0,0,0,0,-1,902,1681,5.54524,-22.8404
-315,-657,5.70679,23.1799,-0.00431697,0.00446867,0.00323629,0.00553208,-0.00538039,1.25332,0.00630052,0.0423168,909,1681,5.70679,-23.1799
-308,-657,5.43964,24.0087,-0.00374046,0.00329654,0.00247965,0.00408251,-0.00452644,1.26384,0.00497258,0.0385799,916,1681,5.43963,-24.0087
-301,-657,5.32764,24.3118,-0.00317485,0.0024562,0.00192758,0.00305283,-0.00377147,1.27063,0.00394729,0.0337291,923,1681,5.32762,-24.3118
-294,-657,5.29144,24.682,-0.0025107,0.0018534,0.00150971,0.00232476,-0.00298206,1.26817,0.00307171,0.0202498,930,1681,5.29142,-24.682
-287,-657,5.26666,25.0195,-0.00178562,0.00147902,0.00122696,0.00188874,-0.00219533,1.24851,0.00236015,0.0137912,937,1681,5.26666,-25.0196
-280,-657,5.237,25.3425,-0.00129089,0.00135313,0.000957702,0.00166358,-0.00160134,1.25733,0.00188511,0.0145174,944,1681,5.23703,-25.3426
-273,-657,5.23291,25.7156,-0.000879091,0.00133533,0.000776442,0.00158045,-0.0011242,1.26501,0.00156892,0.0106799,951,1681,5.23291,-25.7155
-266,-657,5.18396,26.0625,-0.000483195,0.00131649,0.00070165,0.00155771,-0.000724418,1.23966,0.00134655,0.014905,958,1681,5.18394,-26.0625
-259,-657,5.19226,26.3948,-7.09923e-05,0.00132963,0.000608412,0.001557,-0.000298368,1.21315,0.00115043,0.0195903,965,1681,5.19226,-26.3948
-252,-657,5.19232,26.7296,0.000167039,0.00166124,0.000507346,0.00181722,1.10563e-05,1.27252,0.00120781,0.0130947,972,1681,5.19231,-26.7296
-245,-657,5.19415,27.0911,0.000305097,0.00182296,0.000459306,0.00195113,0.000176932,1.29868,0.00124597,0.0158045,979,1681,5.19418,-27.0911
-238,-657,5.20282,27.4515,0.000455235,0.00192463,0.000453063,0.0020531,0.000326772,1.2945,0.00127385,0.0217493,986,1681,5.20282,-27.4516
-231,-657,5.19104,27.7783,0.000698392,0.00195158,0.000524008,0.00214181,0.00050816,1.22256,0.00129223,0.0222868,993,1681,5.19102,-27.7784
-224,-657,5.16327,28.1012,0.000947407,0.00207516,0.000623803,0.00235217,0.000670398,1.15289,0.00139924,0.0163725,1000,1681,5.16325,-28.1012
-217,-657,5.16705,28.4,0.00113262,0.00227912,0.0006488,0.00257164,0.000840104,1.14723,0.00151418,0.00999679,1007,1681,5.16707,-28.4
-210,-657,5.17151,28.7052,0.00151142,0.00227349,0.000516831,0.00253457,0.00125035,1.10304,0.00146338,0.0110555,1014,1681,5.1715,-28.7052
-203,-657,5.17261,29.0028,0.00201591,0.00213283,0.000380755,0.00245959,0.00168915,0.861568,0.00145269,0.0134081,1021,1681,5.17263,-29.0028
-196,-657,5.2019,29.2769,0.00239211,0.00212749,0.000259533,0.00255111,0.00196849,0.549666,0.00154363,0.0130713,1028,1681,5.20188,-29.2768
-189,-657,5.20923,29.5708,0.00270404,0.00220245,5.62004e-05,0.00271026,0.00219623,0.110224,0.00166221,0.0093707,1035,1681,5.20919,-29.5708
-182,-657,5.19324,29.8721,0.00315205,0.00244949,-0.000245354,0.00322925,0.00237229,-0.304847,0.00193162,0.00810324,1042,1681,5.1932,-29.8721
-175,-657,5.21301,30.1555,0.00383451,0.00281589,-0.000425688,0.00398898,0.00266141,-0.348099,0.00234556,0.0102551,1049,1681,5.21306,-30.1556
-168,-657,5.20825,30.4332,0.0043889,0.00354616,-0.000645898,0.00473872,0.00319634,-0.496377,0.0027909,0.0124068,1056,1681,5.20827,-30.4332
-161,-657,5.23889,30.6984,0.00500311,0.00440873,-0.000863682,0.0056193,0.00379254,-0.619693,0.00330982,0.0126008,1063,1681,5.23887,-30.6983
-154,-657,5.30054,30.9387,0.00560321,0.00572725,-0.00101303,0.00668016,0.00465031,-0.815971,0.00395447,0.0122742,1070,1681,5.30048,-30.9387
-147,-657,5.29321,31.2141,0.00616345,0.00744452,-0.0011327,0.00810525,0.00550272,-1.04273,0.00477838,0.0200106,1077,1681,5.2932,-31.2141
-140,-657,5.24109,31.6394,0.00684318,0.00950551,-0.00114905,0.00993284,0.00641585,-1.21474,0.00581557,0.0407378,1084,1681,5.24112,-31.6394
-133,-657,5.08154,32.002,0.00750352,0.0118533,-0.00101067,0.0120767,0.00728016,-1.35329,0.00702146,0.0495802,1091,1681,5.08159,-32.0019
-126,-657,5.39404,32.2815,0.00817416,0.0147272,-0.000861115,0.0148385,0.00806289,-1.4423,0.00857776,0.0472694,1098,1681,5.39404,-32.2815
-119,-657,5.30396,33.1792,0,0,0,0,0,0,0,-1,1105,1681,5.30396,-33.1792
-112,-657,4.6051,21.3439,0,0,0,0,0,0,0,-1,1112,1681,4.60512,-21.3438
-105,-657,3.82434,14.4906,0,0,0,0,0,0,0,-1,1119,1681,3.8244,-14.4906
-98,-657,3.78662,8.16785,0,0,0,0,0,0,0,-1,1126,1681,3.78663,-8.16786
-91,-657,3.6521,16.6017,0,0,0,0,0,0,0,-1,1133,1681,3.65215,-16.6017
-84,-657,4.08008,10.4579,0,0,0,0,0,0,0,-1,1140,1681,4.08006,-10.4579
-77,-657,-5.29846,0.396606,0,0,0,0,0,0,0,-1,1147,1681,-5.29842,-0.396573
-70,-657,-4.14893,2.14575,0,0,0,0,0,0,0,-1,1154,1681,-4.14893,-2.1458
-63,-657,-4.1239,3.177,0,0,0,0,0,0,0,-1,1161,1681,-4.12391,-3.17698
-56,-657,-6.40576,5.73987,0,0,0,0,0,0,0,-1,1168,1681,-6.40577,-5.7399
-49,-657,-5.98462,7.54053,0,0,0,0,0,0,0,-1,1175,1681,-5.98466,-7.5405
-42,-657,-5.71948,9.28955,0,0,0,0,0,0,0,-1,1182,1681,-5.71951,-9.2895
-35,-657,-5.44556,11.015,0,0,0,0,0,0,0,-1,1189,1681,-5.44555,-11.015
-28,-657,-1.3446,8.92847,0,0,0,0,0,0,0,-1,1196,1681,-1.34459,-8.92848
-21,-657,13.9696,36.5872,0,0,0,0,0,0,0,-1,1203,1681,13.9696,-36.5872
-14,-657,13.3602,36.6177,0,0,0,0,0,0,0,-1,1210,1681,13.3602,-36.6177
-7,-657,6.71399,35.3578,0,0,0,0,0,0,0,-1,1217,1681,6.71403,-35.3578
0,-657,6.25562,35.053,0,0,0,0,0,0,0,-1,1224,1681,6.25565,-35.0529
7,-657,7.11987,35.1089,0,0,0,0,0,0,0,-1,1231,1681,7.11985,-35.1089
14,-657,6.92004,34.7444,0.0343759,-0.0301108,-0.0354717,0.0500687,-0.0458036,-0.416518,0.0553701,0.0380413,1238,1681,6.92004,-34.7444
21,-657,7.03149,35.201,0.0312132,-0.0186092,-0.0311686,0.0462025,-0.0335985,-0.44826,0.0462643,0.0427377,1245,1681,7.03145,-35.2011
28,-657,7.00293,35.8329,0.0281661,-0.00609775,-0.0272054,0.0431844,-0.0211161,-0.504404,0.0378457,0.0452395,1252,1681,7.00297,-35.8329
35,-657,7.05762,36.6674,0.0247297,0.00814097,-0.0232019,0.0410753,-0.00820462,-0.613734,0.0304886,0.0413585,1259,1681,7.05757,-36.6673
42,-657,8.11475,37.4781,0,0,0,0,0,0,0,-1,1266,1681,8.11474,-37.4781
49,-657,8.12854,37.4747,0.0154602,0.0380933,-0.0146559,0.0452933,0.00826026,-1.11416,0.0278534,0.0440709,1273,1681,8.12851,-37.4747
56,-657,8.24744,37.4697,0.0103091,0.0522199,-0.0109966,0.05493,0.00759908,-1.32917,0.0343682,0.0456529,1280,1681,8.24743,-37.4697
63,-657,8.20203,37.4919,0.00452201,0.0639126,-0.00866731,0.0651517,0.00328298,-1.4288,0.0423825,0.048046,1287,1681,8.20197,-37.4919
70,-657,8.26477,37.7257,-0.000588131,0.0751075,-0.00795981,0.0759355,-0.00141609,-1.46715,0.0511022,0.0490695,1294,1681,8.2648,-37.7258
77,-657,8.58679,38.3688,-0.00514725,0.0848977,-0.00706055,0.0854479,-0.00569751,-1.49302,0.0589563,0.0455898,1301,1681,8.58675,-38.3687
84,-657,8.11292,36.4543,-0.0095023,0.0934799,-0.00680192,0.0939272,-0.00994962,-1.50513,0.0661844,0.04607,1308,1681,8.1129,-36.4544
91,-657,7.91199,36.9712,-0.0137415,0.0993001,-0.00644557,0.0996664,-0.0141078,-1.51402,0.0716116,0.0466424,1315,1681,7.912,-36.9712
98,-657,7.66565,37.3337,-0.0167724,0.101058,-0.00753875,0.101538,-0.0172528,-1.50716,0.0741153,0.0467448,1322,1681,7.66569,-37.3338
105,-657,7.53882,37.1743,-0.0183743,0.102832,-0.00874278,0.103459,-0.0190017,-1.49916,0.0761017,0.0477191,1329,1681,7.53879,-37.1743
112,-657,7.44849,36.9054,-0.0185573,0.104198,-0.00961963,0.104947,-0.0193066,-1.49306,0.0772093,0.0464966,1336,1681,7.44849,-36.9053
119,-657,6.97119,36.3802,-0.0173969,0.105177,-0.00988707,0.105969,-0.0181893,-1.49082,0.0774246,0.0480609,1343,1681,6.9712,-36.3802
126,-657,6.54614,36.2349,0,0,0,0,0,0,0,-1,1350,1681,6.54615,-36.2349
133,-657,5.84692,36.5847,0,0,0,0,0,0,0,-1,1357,1681,5.84693,-36.5847
140,-657,5.6864,37.1167,0,0,0,0,0,0,0,-1,1364,1681,5.68639,-37.1167
147,-657,7.29395,33.9133,0,0,0,0,0,0,0,-1,1371,1681,7.294,-33.9133
154,-657,7.35938,36.8209,0,0,0,0,0,0,0,-1,1378,1681,7.35935,-36.821
161,-657,4.2926,24.9226,0,0,0,0,0,0,0,-1,1385,1681,4.29264,-24.9226
168,-657,5.21643,0.70105,0,0,0,0,0,0,0,-1,1392,1681,5.21648,-0.7011
175,-657,5.52771,0.649048,0,0,0,0,0,0,0,-1,1399,1681,5.52774,-0.649019
182,-657,5.73999,1.02612,0,0,0,0,0,0,0,-1,1406,1681,5.73995,-1.02611
189,-657,5.92126,1.44116,0,0,0,0,0,0,0,-1,1413,1681,5.92126,-1.44115
196,-657,4.92834,9.59021,0,0,0,0,0,0,0,-1,1420,1681,4.9284,-9.59018
203,-657,6.26343,5.16492,0,0,0,0,0,0,0,-1,1427,1681,6.26345,-5.16488
210,-657,3.9856,5.28088,0,0,0,0,0,0,0,-1,1434,1681,3.98555,-5.28084
217,-657,3.95178,5.2843,0,0,0,0,0,0,0,-1,1441,1681,3.95174,-5.28431
224,-657,6.66736,-0.250244,0,0,0,0,0,0,0,-1,1448,1681,6.66737,0.250229
231,-657,6.85498,-1.70752,0,0,0,0,0,0,0,-1,1455,1681,6.855,1.70758
238,-657,5.34143,-2.89819,0,0,0,0,0,0,0,-1,1462,1681,5.34143,2.89813
245,-657,8.66003,-0.102783,0,0,0,0,0,0,0,-1,1469,1681,8.66,0.102824
252,-657,4.78955,0.623779,0,0,0,0,0,0,0,-1,1476,1681,4.7895,-0.623826
259,-657,2.61523,4.31909,0,0,0,0,0,0,0,-1,1483,1681,2.61523,-4.31908
266,-657,5.35437,11.4742,0,0,0,0,0,0,0,-1,1490,1681,5.35441,-11.4742
273,-657,9.25793,31.4861,0,0,0,0,0,0,0,-1,1497,1681,9.25795,-31.4861
280,-657,9.20789,31.432,0.00822575,0.00432338,-0.00324777,0.0100634,0.00248575,-0.514903,0.00605293,0.0468671,1504,1681,9.20793,-31.432
287,-657,9.28101,31.2551,0.00748326,0.0037902,-0.00278095,0.00897489,0.00229856,-0.492324,0.00538322,0.0361671,1511,1681,9.28096,-31.2552
294,-657,9.48938,30.9596,0.00707471,0.0034688,-0.00264919,0.00847626,0.00206725,-0.486615,0.00510329,0.0284214,1518,1681,9.48941,-30.9596
301,-657,9.51343,30.7355,0.00655458,0.0031636,-0.0022898,0.00770828,0.0020099,-0.466717,0.00461709,0.0186841,1525,1681,9.51344,-30.7355
308,-657,9.52856,30.4712,0.0059847,0.00281272,-0.00195438,0.00691564,0.00188177,-0.44454,0.00412868,0.0134828,1532,1681,9.52858,-30.4712
315,-657,9.53955,30.1918,0.0054395,0.00267906,-0.00172645,0.00626963,0.00184893,-0.448195,0.0037199,0.0116396,1539,1681,9.53956,-30.1918
322,-657,9.55139,29.9365,0.00484628,0.00244115,-0.00147665,0.00554809,0.00173934,-0.443671,0.00327662,0.0133253,1546,1681,9.55139,-29.9365
329,-657,9.56433,29.6917,0.00426833,0.0021439,-0.00127648,0.00486675,0.00154548,-0.43838,0.00287149,0.0183931,1553,1681,9.56437,-29.6916
336,-657,9.57385,29.3995,0.00369256,0.00192134,-0.00105523,0.00418457,0.00142934,-0.436287,0.00245605,0.0162148,1560,1681,9.57382,-29.3996
343,-657,9.60828,29.0824,0.00300736,0.00158363,-0.000842434,0.00339842,0.00119257,-0.434604,0.00199094,0.0132078,1567,1681,9.60825,-29.0824
350,-657,9.59998,28.816,0.00229756,0.0010816,-0.000566808,0.00252079,0.000858369,-0.375182,0.00147985,0.0146839,1574,1681,9.60003,-28.816
357,-657,9.58398,28.5269,0.00166829,0.000471658,-0.000307147,0.00174252,0.000397426,-0.237136,0.00105447,0.0132956,1581,1681,9.58398,-28.5269
364,-657,9.59326,28.2258,0.00104027,-0.000496074,9.49274e-05,0.00104611,-0.000501917,0.0614763,0.000911976,0.00969461,1588,1681,9.59329,-28.2259
371,-657,9.5874,27.9164,0.000405248,-0.00150269,0.000534207,0.000544638,-0.00164208,0.255238,0.00131443,0.0139956,1595,1681,9.58739,-27.9164
378,-657,9.56714,27.5973,-0.000174834,-0.0025951,0.0010119,0.000192485,-0.00296242,0.34821,0.00204213,0.0138716,1602,1681,9.56709,-27.5973
385,-657,9.53979,27.2709,-0.000668459,-0.00378137,0.00150425,-6.03518e-05,-0.00438948,0.384172,0.00290641,0.0122157,1609,1681,9.53982,-27.2709
392,-657,9.53735,27.0012,-0.00119972,-0.00517939,0.00203364,-0.000344362,-0.00603475,0.398143,0.00391343,0.0137998,1616,1681,9.53734,-27.0012
399,-657,9.55615,26.6855,-0.00176952,-0.00655153,0.00254497,-0.000668561,-0.00765249,0.40829,0.00489405,0.0137981,1623,1681,9.55613,-26.6855
406,-657,9.54309,26.3398,-0.00221809,-0.00778072,0.00303347,-0.000883874,-0.00911495,0.414367,0.00580448,0.0142724,1630,1681,9.54311,-26.3399
413,-657,9.54126,25.9795,-0.00244498,-0.00863012,0.00335078,-0.000977755,-0.0100973,0.412725,0.00643047,0.0140684,1637,1681,9.54131,-25.9795
420,-657,9.55566,25.6256,-0.00272915,-0.00917441,0.0034722,-0.00121454,-0.010689,0.411329,0.00675765,0.0163324,1644,1681,9.55563,-25.6256
427,-657,9.5177,25.2518,-0.00303253,-0.0095551,0.00354075,-0.00147999,-0.0111076,0.41323,0.00696438,0.0216076,1651,1681,9.51773,-25.2518
434,-657,9.51721,24.91,-0.00333494,-0.00971279,0.0034337,-0.00183776,-0.01121,0.411171,0.00694228,0.030433,1658,1681,9.51719,-24.91
441,-657,9.61243,24.6008,0,0,0,0,0,0,0,-1,1665,1681,9.61246,-24.6008
448,-657,9.21753,24.5103,0,0,0,0,0,0,0,-1,1672,1681,9.21756,-24.5103
455,-657,9.04114,24.1781,0,0,0,0,0,0,0,-1,1679,1681,9.04115,-24.1781
462,-657,6.51733,15.4801,0,0,0,0,0,0,0,-1,1686,1681,6.51737,-15.4801
469,-657,9.70483,21.9269,0,0,0,0,0,0,0,-1,1693,1681,9.70488,-21.9269
476,-657,8.9519,20.5712,0,0,0,0,0,0,0,-1,1700,1681,8.95194,-20.5712
483,-657,10.0663,21.8628,0,0,0,0,0,0,0,-1,1707,1681,10.0663,-21.8628
490,-657,11.6039,21.2185,0,0,0,0,0,0,0,-1,1714,1681,11.6038,-21.2185
497,-657,9.20862,17.8127,0,0,0,0,0,0,0,-1,1721,1681,9.2086,-17.8127
504,-657,0,0,0,0,0,0,0,0,0,-1,1728,1681,0,0
511,-657,0,0,0,0,0,0,0,0,0,-1,1735,1681,0,0
518,-657,0,0,0,0,0,0,0,0,0,-1,1742,1681,0,0
525,-657,0,0,0,0,0,0,0,0,0,-1,1749,1681,0,0
532,-657,0,0,0,0,0,0,0,0,0,-1,1756,1681,0,0
539,-657,0,0,0,0,0,0,0,0,0,-1,1763,1681,0,0
546,-657,0,0,0,0,0,0,0,0,0,-1,1770,1681,0,0
553,-657,0,0,0,0,0,0,0,0,0,-1,1777,1681,0,0
560,-657,0,0,0,0,0,0,0,0,0,-1,1784,1681,0,0
567,-657,0,0,0,0,0,0,0,0,0,-1,1791,1681,0,0
574,-657,0,0,0,0,0,0,0,0,0,-1,1798,1681,0,0
581,-657,0,0,0,0,0,0,0,0,0,-1,1805,1681,0,0
588,-657,0,0,0,0,0,0,0,0,0,-1,1812,1681,0,0
595,-657,0,0,0,0,0,0,0,0,0,-1,1819,1681,0,0
602,-657,0,0,0,0,0,0,0,0,0,-1,1826,1681,0,0
609,-657,0,0,0,0,0,0,0,0,0,-1,1833,1681,0,0
616,-657,0,0,0,0,0,0,0,0,0,-1,1840,1681,0,0
623,-657,0,0,0,0,0,0,0,0,0,-1,1847,1681,0,0
630,-657,0,0,0,0,0,0,0,0,0,-1,1854,1681,0,0
637,-657,0,0,0,0,0,0,0,0,0,-1,1861,1681,0,0
644,-657,0,0,0,0,0,0,0,0,0,-1,1868,1681,0,0
651,-657,0,0,0,0,0,0,0,0,0,-1,1875,1681,0,0
658,-657,0,0,0,0,0,0,0,0,0,-1,1882,1681,0,0
665,-657,0,0,0,0,0,0,0,0,0,-1,1889,1681,0,0
672,-657,0,0,0,0,0,0,0,0,0,-1,1896,1681,0,0
679,-657,0,0,0,0,0,0,0,0,0,-1,1903,1681,0,0
686,-657,0,0,0,0,0,0,0,0,0,-1,1910,1681,0,0
693,-657,0,0,0,0,0,0,0,0,0,-1,1917,1681,0,0
700,-657,0,0,0,0,0,0,0,0,0,-1,1924,1681,0,0
707,-657,0,0,0,0,0,0,0,0,0,-1,1931,1681,0,0
714,-657,0,0,0,0,0,0,0,0,0,-1,1938,1681,0,0
721,-657,0,0,0,0,0,0,0,0,0,-1,1945,1681,0,0
728,-657,0,0,0,0,0,0,0,0,0,-1,1952,1681,0,0
735,-657,0,0,0,0,0,0,0,0,0,-1,1959,1681,0,0
742,-657,0,0,0,0,0,0,0,0,0,-1,1966,1681,0,0
749,-657,0,0,0,0,0,0,0,0,0,-1,1973,1681,0,0
756,-657,0,0,0,0,0,0,0,0,0,-1,1980,1681,0,0
763,-657,0,0,0,0,0,0,0,0,0,-1,1987,1681,0,0
770,-657,0,0,0,0,0,0,0,0,0,-1,1994,1681,0,0
777,-657,0,0,0,0,0,0,0,0,0,-1,2001,1681,0,0
784,-657,0,0,0,0,0,0,0,0,0,-1,2008,1681,0,0
791,-657,0,0,0,0,0,0,0,0,0,-1,2015,1681,0,0
798,-657,0,0,0,0,0,0,0,0,0,-1,2022,1681,0,0
805,-657,0,0,0,0,0,0,0,0,0,-1,2029,1681,0,0
812,-657,0,0,0,0,0,0,0,0,0,-1,2036,1681,0,0
-700,-664,0,0,0,0,0,0,0,0,0,-1,524,1688,0,0
-693,-664,0,0,0,0,0,0,0,0,0,-1,531,1688,0,0
-686,-664,0,0,0,0,0,0,0,0,0,-1,538,1688,0,0
-679,-664,0,0,0,0,0,0,0,0,0,-1,545,1688,0,0
-672,-664,0,0,0,0,0,0,0,0,0,-1,552,1688,0,0
-665,-664,0,0,0,0,0,0,0,0,0,-1,559,1688,0,0
-658,-664,0,0,0,0,0,0,0,0,0,-1,566,1688,0,0
-651,-664,0,0,0,0,0,0,0,0,0,-1,573,1688,0,0
-644,-664,0,0,0,0,0,0,0,0,0,-1,580,1688,0,0
-637,-664,0,0,0,0,0,0,0,0,0,-1,587,1688,0,0
-630,-664,0,0,0,0,0,0,0,0,0,-1,594,1688,0,0
-623,-664,0,0,0,0,0,0,0,0,0,-1,601,1688,0,0
-616,-664,0,0,0,0,0,0,0,0,0,-1,608,1688,0,0
-609,-664,0,0,0,0,0,0,0,0,0,-1,615,1688,0,0
-602,-664,0,0,0,0,0,0,0,0,0,-1,622,1688,0,0
-595,-664,0,0,0,0,0,0,0,0,0,-1,629,1688,0,0
-588,-664,0,0,0,0,0,0,0,0,0,-1,636,1688,0,0
-581,-664,0,0,0,0,0,0,0,0,0,-1,643,1688,0,0
-574,-664,0,0,0,0,0,0,0,0,0,-1,650,1688,0,0
-567,-664,0,0,0,0,0,0,0,0,0,-1,657,1688,0,0
-560,-664,0,0,0,0,0,0,0,0,0,-1,664,1688,0,0
-553,-664,0,0,0,0,0,0,0,0,0,-1,671,1688,0,0
-546,-664,0,0,0,0,0,0,0,0,0,-1,678,1688,0,0
-539,-664,0,0,0,0,0,0,0,0,0,-1,685,1688,0,0
-532,-664,0,0,0,0,0,0,0,0,0,-1,692,1688,0,0
-525,-664,0,0,0,0,0,0,0,0,0,-1,699,1688,0,0
-518,-664,0,0,0,0,0,0,0,0,0,-1,706,1688,0,0
-511,-664,0,0,0,0,0,0,0,0,0,-1,713,1688,0,0
-504,-664,0,0,0,0,0,0,0,0,0,-1,720,1688,0,0
-497,-664,0,0,0,0,0,0,0,0,0,-1,727,1688,0,0
-490,-664,0,0,0,0,0,0,0,0,0,-1,734,1688,0,0
-483,-664,0,0,0,0,0,0,0,0,0,-1,741,1688,0,0
-476,-664,0,0,0,0,0,0,0,0,0,-1,748,1688,0,0
-469,-664,0,0,0,0,0,0,0,0,0,-1,755,1688,0,0
-462,-664,0,0,0,0,0,0,0,0,0,-1,762,1688,0,0
-455,-664,0,0,0,0,0,0,0,0,0,-1,769,1688,0,0
-448,-664,0,0,0,0,0,0,0,0,0,-1,776,1688,0,0
-441,-664,0,0,0,0,0,0,0,0,0,-1,783,1688,0,0
-434,-664,0,0,0,0,0,0,0,0,0,-1,790,1688,0,0
-427,-664,0,0,0,0,0,0,0,0,0,-1,797,1688,0,0
-420,-664,0,0,0,0,0,0,0,0,0,-1,804,1688,0,0
-413,-664,0,0,0,0,0,0,0,0,0,-1,811,1688,0,0
-406,-664,0,0,0,0,0,0,0,0,0,-1,818,1688,0,0
-399,-664,0,0,0,0,0,0,0,0,0,-1,825,1688,0,0
-392,-664,0,0,0,0,0,0,0,0,0,-1,832,1688,0,0
-385,-664,0,0,0,0,0,0,0,0,0,-1,839,1688,0,0
-378,-664,0,0,0,0,0,0,0,0,0,-1,846,1688,0,0
-371,-664,-1.61676,5.92737,0,0,0,0,0,0,0,-1,853,1688,-1.61675,-5.92735
-364,-664,-3.901,5.87024,0,0,0,0,0,0,0,-1,860,1688,-3.90097,-5.87027
-357,-664,-4.81012,4.53479,0,0,0,0,0,0,0,-1,867,1688,-4.81012,-4.5348
-350,-664,-5.7193,3.19934,0,0,0,0,0,0,0,-1,874,1688,-5.71927,-3.19932
-343,-664,2.96515,14.8083,0,0,0,0,0,0,0,-1,881,1688,2.96517,-14.8083
-336,-664,2.79852,15.5814,0,0,0,0,0,0,0,-1,888,1688,2.79853,-15.5814
-329,-664,6.211,21.8523,0,0,0,0,0,0,0,-1,895,1688,6.21101,-21.8523
-322,-664,6.43463,22.4335,0,0,0,0,0,0,0,-1,902,1688,6.43463,-22.4335
-315,-664,6.38354,23.0529,0,0,0,0,0,0,0,-1,909,1688,6.38353,-23.0529
-308,-664,5.79779,24.2468,0,0,0,0,0,0,0,-1,916,1688,5.79777,-24.2468
-301,-664,5.65778,24.3325,0,0,0,0,0,0,0,-1,923,1688,5.65778,-24.3326
-294,-664,5.7193,24.6965,-0.00274476,0.00276073,0.00204853,0.00343933,-0.00342335,1.25091,0.00396217,0.0461252,930,1688,5.71929,-24.6966
-287,-664,5.68817,25.0859,-0.00189182,0.00222688,0.00165956,0.00281235,-0.00247729,1.23164,0.00305601,0.0342954,937,1688,5.68815,-25.0859
-280,-664,5.54517,25.3921,-0.00139369,0.00203835,0.00129486,0.00247207,-0.00182741,1.24759,0.00249159,0.0232455,944,1688,5.54515,-25.3921
-273,-664,5.55908,25.7122,-0.00104143,0.00192955,0.00101325,0.00224222,-0.00135409,1.27149,0.00209733,0.017084,951,1688,5.5591,-25.7122
-266,-664,5.52606,26.0555,-0.000704105,0.00177851,0.00084045,0.00203627,-0.000961865,1.27321,0.00176763,0.0220996,958,1688,5.52604,-26.0555
-259,-664,5.52936,26.3951,-0.000384596,0.00171341,0.000646049,0.00189639,-0.000567578,1.29479,0.00148993,0.0191008,965,1688,5.52937,-26.3952
-252,-664,5.52368,26.7405,-0.000283301,0.00200874,0.00046647,0.00210004,-0.000374599,1.37752,0.00154015,0.0159952,972,1688,5.5237,-26.7405
-245,-664,5.50891,27.1107,-0.000294929,0.00207476,0.000352869,0.00212619,-0.000346359,1.42607,0.0015459,0.0209064,979,1688,5.50892,-27.1107
-238,-664,5.52887,27.4481,-0.000286515,0.00210552,0.000304517,0.00214367,-0.000324673,1.44614,0.00154873,0.0254013,986,1688,5.52884,-27.4481
-231,-664,5.51477,27.7603,-0.000160208,0.00211784,0.000336677,0.00216655,-0.000208925,1.4271,0.00151881,0.0214825,993,1688,5.51475,-27.7603
-224,-664,5.50018,28.0968,6.87161e-06,0.00216183,0.000400118,0.00223372,-6.50211e-05,1.39301,0.00151129,0.014479,1000,1688,5.50016,-28.0968
-217,-664,5.48676,28.403,9.57067e-05,0.00218631,0.000364921,0.00224818,3.38396e-05,1.40286,0.00148764,0.0107068,1007,1688,5.48676,-28.403
-210,-664,5.47211,28.7104,0.000398278,0.00212502,0.000288196,0.00217185,0.000351448,1.40971,0.00134613,0.011897,1014,1688,5.47208,-28.7105
-203,-664,5.45911,28.999,0.000864208,0.00200827,0.000254111,0.00206217,0.000810306,1.36177,0.00119966,0.0138134,1021,1688,5.45913,-28.999
-196,-664,5.47693,29.2554,0.00125662,0.00196823,0.00020516,0.00202314,0.00120171,1.30928,0.00117492,0.0127163,1028,1688,5.47689,-29.2553
-189,-664,5.48572,29.5692,0.00158928,0.00201528,9.48213e-05,0.00203543,0.00156912,1.36138,0.00123131,0.00874217,1035,1688,5.48568,-29.5692
-182,-664,5.48572,29.8556,0.00202557,0.00221474,-0.000104013,0.00226074,0.00197957,-1.15438,0.00142273,0.00912783,1042,1688,5.4857,-29.8556
-175,-664,5.50647,30.1173,0.00269231,0.00250055,-0.000185113,0.0028049,0.00238796,-0.546443,0.00174761,0.0124101,1049,1688,5.50652,-30.1173
-168,-664,5.50244,30.403,0.0032535,0.00313951,-0.000294703,0.00349667,0.00289634,-0.689877,0.002159,0.0135141,1056,1688,5.5025,-30.4029
-161,-664,5.49854,30.6576,0.00381751,0.00393045,-0.000409881,0.00428773,0.00346023,-0.853848,0.00262647,0.0100203,1063,1688,5.49849,-30.6575
-154,-664,5.54871,30.9086,0.0043881,0.00512897,-0.00047024,0.00535716,0.00415992,-1.11901,0.00324679,0.00957361,1070,1688,5.54874,-30.9086
-147,-664,5.55408,31.1683,0.00490267,0.00665727,-0.000533867,0.00680694,0.004753,-1.29746,0.00403165,0.0132303,1077,1688,5.55406,-31.1684
-140,-664,5.5752,31.4528,0.00546546,0.00841321,-0.00052352,0.00850343,0.00537524,-1.40015,0.00496627,0.0175304,1084,1688,5.57525,-31.4527
-133,-664,5.5238,31.7776,0.00600155,0.0103606,-0.00043235,0.0104031,0.00595908,-1.47288,0.00602741,0.0215876,1091,1688,5.52374,-31.7776
-126,-664,5.61255,32.2733,0.00654911,0.012653,-0.000335421,0.0126713,0.00653073,-1.51606,0.00731696,0.0337944,1098,1688,5.61253,-32.2733
-119,-664,5.60254,32.6083,0.00718686,0.0146012,-0.000243364,0.0146092,0.00717888,-1.53802,0.00843503,0.0445174,1105,1688,5.6025,-32.6082
-112,-664,5.5249,32.9895,0,0,0,0,0,0,0,-1,1112,1688,5.52487,-32.9895
-105,-664,4.48108,21.4276,0,0,0,0,0,0,0,-1,1119,1688,4.48104,-21.4276
-98,-664,4.98584,19.8645,0,0,0,0,0,0,0,-1,1126,1688,4.98586,-19.8645
-91,-664,5.41931,25.6302,0,0,0,0,0,0,0,-1,1133,1688,5.41932,-25.6302
-84,-664,3.48389,16.6913,0,0,0,0,0,0,0,-1,1140,1688,3.4839,-16.6913
-77,-664,4.52014,11.2122,0,0,0,0,0,0,0,-1,1147,1688,4.5202,-11.2122
-70,-664,4.20374,8.24524,0,0,0,0,0,0,0,-1,1154,1688,4.20379,-8.24519
-63,-664,-4.677,2.40503,0,0,0,0,0,0,0,-1,1161,1688,-4.67702,-2.40498
-56,-664,-4.66504,3.32727,0,0,0,0,0,0,0,-1,1168,1688,-4.6651,-3.32724
-49,-664,-2.54297,3.31848,0,0,0,0,0,0,0,-1,1175,1688,-2.54297,-3.31852
-42,-664,-0.359253,4.38684,0,0,0,0,0,0,0,-1,1182,1688,-0.359261,-4.38685
-35,-664,-0.705566,3.55017,0,0,0,0,0,0,0,-1,1189,1688,-0.705567,-3.55023
-28,-664,-1.54236,10.2538,0,0,0,0,0,0,0,-1,1196,1688,-1.54236,-10.2538
-21,-664,13.6136,35.1345,0,0,0,0,0,0,0,-1,1203,1688,13.6136,-35.1345
-14,-664,6.62012,35.0447,0,0,0,0,0,0,0,-1,1210,1688,6.62013,-35.0447
-7,-664,6.80359,35.174,0,0,0,0,0,0,0,-1,1217,1688,6.80356,-35.174
0,-664,7.07471,35.1985,0,0,0,0,0,0,0,-1,1224,1688,7.07466,-35.1985
7,-664,7.35132,35.2147,0.0312504,-0.0259791,-0.0293515,0.0436273,-0.038356,-0.399054,0.0473657,0.0481779,1231,1688,7.35132,-35.2147
14,-664,7.62231,35.4703,0.0288164,-0.018721,-0.0259273,0.0402212,-0.0301258,-0.414403,0.0407541,0.0415682,1238,1688,7.62235,-35.4704
21,-664,7.61377,35.7869,0.0263896,-0.00956003,-0.0225958,0.037288,-0.0204585,-0.449405,0.0338086,0.0428296,1245,1688,7.61374,-35.7869
28,-664,8.06812,36.2826,0,0,0,0,0,0,0,-1,1252,1688,8.06812,-36.2826
35,-664,8.00305,37.8698,0.0211426,0.0119711,-0.0162036,0.0333968,-0.000283154,-0.6475,0.0223595,0.0436316,1259,1688,8.00308,-37.8697
42,-664,7.96814,36.8529,0.0172629,0.0240525,-0.0122122,0.033333,0.0079824,-0.920968,0.0200968,0.0427821,1266,1688,7.96809,-36.853
49,-664,7.92542,36.8575,0.0132692,0.0361583,-0.00897207,0.039256,0.0101715,-1.23836,0.0235249,0.0413821,1273,1688,7.92539,-36.8576
56,-664,8.01892,36.9834,0.00883176,0.0479652,-0.00579892,0.0488065,0.00799054,-1.42674,0.0302282,0.0456635,1280,1688,8.01887,-36.9834
63,-664,7.92212,37.3119,0.00391526,0.0576118,-0.00383892,0.0578849,0.0036422,-1.49978,0.037435,0.0487266,1287,1688,7.9221,-37.3119
70,-664,7.84778,37.5707,-0.000540915,0.0669584,-0.00337458,0.0671267,-0.000709202,-1.52097,0.0449894,0.0462838,1294,1688,7.84775,-37.5707
77,-664,7.74951,37.8358,0,0,0,0,0,0,0,-1,1301,1688,7.74947,-37.8358
84,-664,7.23535,35.4351,-0.00839591,0.0817721,-0.00278319,0.0818579,-0.00848174,-1.53997,0.0576077,0.0460751,1308,1688,7.2354,-35.4351
91,-664,6.78345,36.231,-0.0119155,0.0862712,-0.00300919,0.0863633,-0.0120076,-1.54019,0.0619671,0.042833,1315,1688,6.78339,-36.2309
98,-664,7.40491,36.6683,0,0,0,0,0,0,0,-1,1322,1688,7.40496,-36.6683
105,-664,7.4928,36.4801,-0.0155298,0.0885046,-0.00608155,0.0888589,-0.0158841,-1.5126,0.0651824,0.0480628,1329,1688,7.49279,-36.4801
112,-664,7.57068,36.2968,-0.0155573,0.0891967,-0.00741515,0.089719,-0.0160795,-1.50048,0.0658304,0.0435519,1336,1688,7.57073,-36.2968
119,-664,7.92297,36.0479,-0.0145161,0.0895392,-0.00821203,0.0901833,-0.0151602,-1.49252,0.0657607,0.0480042,1343,1688,7.92298,-36.0478
126,-664,8.30579,35.5182,0,0,0,0,0,0,0,-1,1350,1688,8.30582,-35.5182
133,-664,6.14026,35.4369,0,0,0,0,0,0,0,-1,1357,1688,6.14025,-35.4369
140,-664,7.36548,33.4298,0,0,0,0,0,0,0,-1,1364,1688,7.3655,-33.4298
147,-664,7.43823,34.1497,0,0,0,0,0,0,0,-1,1371,1688,7.43821,-34.1496
154,-664,4.76721,26.2594,0,0,0,0,0,0,0,-1,1378,1688,4.76723,-26.2594
161,-664,4.60132,1.56238,0,0,0,0,0,0,0,-1,1385,1688,4.60134,-1.56233
168,-664,5.172,1.25488,0,0,0,0,0,0,0,-1,1392,1688,5.17203,-1.25484
175,-664,5.58313,1.16467,0,0,0,0,0,0,0,-1,1399,1688,5.58317,-1.16466
182,-664,5.74268,1.41113,0,0,0,0,0,0,0,-1,1406,1688,5.74263,-1.41115
189,-664,5.87744,1.87061,0,0,0,0,0,0,0,-1,1413,1688,5.87745,-1.87065
196,-664,6.7594,5.97473,0,0,0,0,0,0,0,-1,1420,1688,6.75943,-5.97478
203,-664,5.38452,5.22034,0,0,0,0,0,0,0,-1,1427,1688,5.38453,-5.2203
210,-664,5.25549,6.45715,0,0,0,0,0,0,0,-1,1434,1688,5.25549,-6.45721
217,-664,5.72009,6.73975,0,0,0,0,0,0,0,-1,1441,1688,5.72014,-6.73972
224,-664,5.05725,7.42908,0,0,0,0,0,0,0,-1,1448,1688,5.05723,-7.42912
231,-664,5.13318,7.60864,0,0,0,0,0,0,0,-1,1455,1688,5.13313,-7.60862
238,-664,4.23193,6.45471,0,0,0,0,0,0,0,-1,1462,1688,4.23197,-6.45476
245,-664,4.42004,6.80896,0,0,0,0,0,0,0,-1,1469,1688,4.4201,-6.80901
252,-664,3.67346,6.85461,0,0,0,0,0,0,0,-1,1476,1688,3.6734,-6.85462
259,-664,4.55823,11.7435,0,0,0,0,0,0,0,-1,1483,1688,4.55826,-11.7435
266,-664,8.94861,31.441,0,0,0,0,0,0,0,-1,1490,1688,8.94864,-31.441
273,-664,9.16907,31.5437,0,0,0,0,0,0,0,-1,1497,1688,9.16912,-31.5438
280,-664,9.15137,31.3877,0.00612422,0.00248996,-0.00182689,0.00688381,0.00173037,-0.394038,0.00413492,0.029431,1504,1688,9.15133,-31.3877
287,-664,9.12537,31.1426,0.00562936,0.00226467,-0.00166078,0.00631102,0.00158301,-0.389474,0.00379148,0.0213,1511,1688,9.12542,-31.1426
294,-664,9.2113,30.9432,0.00533079,0.0021969,-0.00170051,0.00607621,0.00145147,-0.413127,0.0036641,0.0152438,1518,1688,9.21136,-30.9432
301,-664,9.26294,30.7073,0.00493279,0.00212462,-0.00159242,0.00565174,0.00140568,-0.424083,0.00339762,0.0111208,1525,1688,9.263,-30.7072
308,-664,9.28809,30.4346,0.00448355,0.00199456,-0.00148562,0.00517705,0.00130106,-0.436744,0.00310977,0.0110358,1532,1688,9.2881,-30.4346
315,-664,9.29077,30.1681,0.00402737,0.00192987,-0.00139373,0.00472285,0.00123439,-0.462855,0.00282837,0.0126845,1539,1688,9.29082,-30.1681
322,-664,9.30347,29.9438,0.00352616,0.00180138,-0.0012673,0.00419666,0.00113088,-0.486641,0.00250732,0.015886,1546,1688,9.30343,-29.9439
329,-664,9.3114,29.7148,0.00302633,0.00158164,-0.00116206,0.00367226,0.000935713,-0.50732,0.00220352,0.0165287,1553,1688,9.31137,-29.7149
336,-664,9.3092,29.4066,0.00249938,0.0013306,-0.000979375,0.00305547,0.000774512,-0.516404,0.00183415,0.0138242,1560,1688,9.30917,-29.4066
343,-664,9.31042,29.0975,0.00185102,0.000927099,-0.000722108,0.00224629,0.000531827,-0.500834,0.00135549,0.011431,1567,1688,9.31039,-29.0976
350,-664,9.29272,28.8271,0.00117327,0.000228976,-0.00033269,0.00127871,0.000123537,-0.306913,0.000814423,0.0125307,1574,1688,9.29273,-28.8271
357,-664,9.28088,28.5267,0.000559799,-0.00066357,5.21233e-05,0.000562015,-0.000665787,0.0425037,0.000709715,0.0124955,1581,1688,9.28089,-28.5268
364,-664,9.28992,28.2365,-7.42251e-05,-0.00191208,0.00060165,0.000105214,-0.00209152,0.289846,0.00143071,0.0110834,1588,1688,9.28988,-28.2364
371,-664,9.29443,27.9492,-0.000708508,-0.00319974,0.00119112,-0.000230661,-0.00367759,0.381519,0.00237857,0.0134256,1595,1688,9.29439,-27.9492
378,-664,9.27014,27.6322,-0.00130351,-0.00466841,0.00187155,-0.000469345,-0.00550258,0.419278,0.00352238,0.0119396,1602,1688,9.27019,-27.6322
385,-664,9.24451,27.3262,-0.00181893,-0.00620671,0.00256543,-0.000637233,-0.0073884,0.431653,0.00472753,0.0127005,1609,1688,9.24446,-27.3262
392,-664,9.21558,27.0262,-0.00239404,-0.00800084,0.00330594,-0.000862893,-0.00953199,0.433736,0.00608745,0.0172852,1616,1688,9.21552,-27.0262
399,-664,9.22205,26.693,-0.00297187,-0.00975458,0.0039775,-0.0011362,-0.0115903,0.432387,0.00737733,0.0148243,1623,1688,9.22206,-26.693
406,-664,9.24048,26.3416,-0.00346106,-0.0113569,0.00466961,-0.00129414,-0.0135238,0.434475,0.00861697,0.0142386,1630,1688,9.24046,-26.3416
413,-664,9.26453,25.9596,-0.00369471,-0.0125389,0.00516553,-0.00131697,-0.0149166,0.431394,0.00953577,0.0168048,1637,1688,9.26453,-25.9596
420,-664,9.27368,25.6514,-0.0039696,-0.0133059,0.00539824,-0.00150105,-0.0157745,0.428898,0.0100534,0.0381963,1644,1688,9.2737,-25.6514
427,-664,9.28857,25.0948,0,0,0,0,0,0,0,-1,1651,1688,9.28863,-25.0948
434,-664,9.18311,24.7107,0,0,0,0,0,0,0,-1,1658,1688,9.18308,-24.7107
441,-664,9.12744,25.0005,0,0,0,0,0,0,0,-1,1665,1688,9.12741,-25.0005
448,-664,7.27502,19.7417,0,0,0,0,0,0,0,-1,1672,1688,7.27505,-19.7417
455,-664,7.53198,11.3838,0,0,0,0,0,0,0,-1,1679,1688,7.53195,-11.3838
462,-664,4.3147,4.25439,0,0,0,0,0,0,0,-1,1686,1688,4.31467,-4.25435
469,-664,6.05469,7.49341,0,0,0,0,0,0,0,-1,1693,1688,6.05474,-7.49339
476,-664,10.2377,22.7128,0,0,0,0,0,0,0,-1,1700,1688,10.2377,-22.7128
483,-664,8.41895,10.9768,0,0,0,0,0,0,0,-1,1707,1688,8.41897,-10.9769
490,-664,3.90771,13.2842,0,0,0,0,0,0,0,-1,1714,1688,3.90776,-13.2841
497,-664,0,0,0,0,0,0,0,0,0,-1,1721,1688,0,0
504,-664,0,0,0,0,0,0,0,0,0,-1,1728,1688,0,0
511,-664,0,0,0,0,0,0,0,0,0,-1,1735,1688,0,0
518,-664,0,0,0,0,0,0,0,0,0,-1,1742,1688,0,0
525,-664,0,0,0,0,0,0,0,0,0,-1,1749,1688,0,0
532,-664,0,0,0,0,0,0,0,0,0,-1,1756,1688,0,0
539,-664,0,0,0,0,0,0,0,0,0,-1,1763,1688,0,0
546,-664,0,0,0,0,0,0,0,0,0,-1,1770,1688,0,0
553,-664,0,0,0,0,0,0,0,0,0,-1,1777,1688,0,0
560,-664,0,0,0,0,0,0,0,0,0,-1,1784,1688,0,0
567,-664,0,0,0,0,0,0,0,0,0,-1,1791,1688,0,0
574,-664,0,0,0,0,0,0,0,0,0,-1,1798,1688,0,0
581,-664,0,0,0,0,0,0,0,0,0,-1,1805,1688,0,0
588,-664,0,0,0,0,0,0,0,0,0,-1,1812,1688,0,0
595,-664,0,0,0,0,0,0,0,0,0,-1,1819,1688,0,0
602,-664,0,0,0,0,0,0,0,0,0,-1,1826,1688,0,0
609,-664,0,0,0,0,0,0,0,0,0,-1,1833,1688,0,0
616,-664,0,0,0,0,0,0,0,0,0,-1,1840,1688,0,0
623,-664,0,0,0,0,0,0,0,0,0,-1,1847,1688,0,0
630,-664,0,0,0,0,0,0,0,0,0,-1,1854,1688,0,0
637,-664,0,0,0,0,0,0,0,0,0,-1,1861,1688,0,0
644,-664,0,0,0,0,0,0,0,0,0,-1,1868,1688,0,0
651,-664,0,0,0,0,0,0,0,0,0,-1,1875,1688,0,0
658,-664,0,0,0,0,0,0,0,0,0,-1,1882,1688,0,0
665,-664,0,0,0,0,0,0,0,0,0,-1,1889,1688,0,0
672,-664,0,0,0,0,0,0,0,0,0,-1,1896,1688,0,0
679,-664,0,0,0,0,0,0,0,0,0,-1,1903,1688,0,0
686,-664,0,0,0,0,0,0,0,0,0,-1,1910,1688,0,0
693,-664,0,0,0,0,0,0,0,0,0,-1,1917,1688,0,0
700,-664,0,0,0,0,0,0,0,0,0,-1,1924,1688,0,0
707,-664,0,0,0,0,0,0,0,0,0,-1,1931,1688,0,0
714,-664,0,0,0,0,0,0,0,0,0,-1,1938,1688,0,0
721,-664,0,0,0,0,0,0,0,0,0,-1,1945,1688,0,0
728,-664,0,0,0,0,0,0,0,0,0,-1,1952,1688,0,0
735,-664,0,0,0,0,0,0,0,0,0,-1,1959,1688,0,0
742,-664,0,0,0,0,0,0,0,0,0,-1,1966,1688,0,0
749,-664,0,0,0,0,0,0,0,0,0,-1,1973,1688,0,0
756,-664,0,0,0,0,0,0,0,0,0,-1,1980,1688,0,0
763,-664,0,0,0,0,0,0,0,0,0,-1,1987,1688,0,0
770,-664,0,0,0,0,0,0,0,0,0,-1,1994,1688,0,0
777,-664,0,0,0,0,0,0,0,0,0,-1,2001,1688,0,0
784,-664,0,0,0,0,0,0,0,0,0,-1,2008,1688,0,0
791,-664,0,0,0,0,0,0,0,0,0,-1,2015,1688,0,0
798,-664,0,0,0,0,0,0,0,0,0,-1,2022,1688,0,0
805,-664,0,0,0,0,0,0,0,0,0,-1,2029,1688,0,0
812,-664,0,0,0,0,0,0,0,0,0,-1,2036,1688,0,0
-700,-671,0,0,0,0,0,0,0,0,0,-1,524,1695,0,0
-693,-671,0,0,0,0,0,0,0,0,0,-1,531,1695,0,0
-686,-671,0,0,0,0,0,0,0,0,0,-1,538,1695,0,0
-679,-671,0,0,0,0,0,0,0,0,0,-1,545,1695,0,0
-672,-671,0,0,0,0,0,0,0,0,0,-1,552,1695,0,0
-665,-671,0,0,0,0,0,0,0,0,0,-1,559,1695,0,0
-658,-671,0,0,0,0,0,0,0,0,0,-1,566,1695,0,0
-651,-671,0,0,0,0,0,0,0,0,0,-1,573,1695,0,0
-644,-671,0,0,0,0,0,0,0,0,0,-1,580,1695,0,0
-637,-671,0,0,0,0,0,0,0,0,0,-1,587,1695,0,0
-630,-671,0,0,0,0,0,0,0,0,0,-1,594,1695,0,0
-623,-671,0,0,0,0,0,0,0,0,0,-1,601,1695,0,0
-616,-671,0,0,0,0,0,0,0,0,0,-1,608,1695,0,0
-609,-671,0,0,0,0,0,0,0,0,0,-1,615,1695,0,0
-602,-671,0,0,0,0,0,0,0,0,0,-1,622,1695,0,0
-595,-671,0,0,0,0,0,0,0,0,0,-1,629,1695,0,0
-588,-671,0,0,0,0,0,0,0,0,0,-1,636,1695,0,0
-581,-671,0,0,0,0,0,0,0,0,0,-1,643,1695,0,0
-574,-671,0,0,0,0,0,0,0,0,0,-1,650,1695,0,0
-567,-671,0,0,0,0,0,0,0,0,0,-1,657,1695,0,0
-560,-671,0,0,0,0,0,0,0,0,0,-1,664,1695,0,0
-553,-671,0,0,0,0,0,0,0,0,0,-1,671,1695,0,0
-546,-671,0,0,0,0,0,0,0,0,0,-1,678,1695,0,0
-539,-671,0,0,0,0,0,0,0,0,0,-1,685,1695,0,0
-532,-671,0,0,0,0,0,0,0,0,0,-1,692,1695,0,0
-525,-671,0,0,0,0,0,0,0,0,0,-1,699,1695,0,0
-518,-671,0,0,0,0,0,0,0,0,0,-1,706,1695,0,0
-511,-671,0,0,0,0,0,0,0,0,0,-1,713,1695,0,0
-504,-671,0,0,0,0,0,0,0,0,0,-1,720,1695,0,0
-497,-671,0,0,0,0,0,0,0,0,0,-1,727,1695,0,0
-490,-671,0,0,0,0,0,0,0,0,0,-1,734,1695,0,0
-483,-671,0,0,0,0,0,0,0,0,0,-1,741,1695,0,0
-476,-671,0,0,0,0,0,0,0,0,0,-1,748,1695,0,0
-469,-671,0,0,0,0,0,0,0,0,0,-1,755,1695,0,0
-462,-671,0,0,0,0,0,0,0,0,0,-1,762,1695,0,0
-455,-671,0,0,0,0,0,0,0,0,0,-1,769,1695,0,0
-448,-671,0,0,0,0,0,0,0,0,0,-1,776,1695,0,0
-441,-671,0,0,0,0,0,0,0,0,0,-1,783,1695,0,0
-434,-671,0,0,0,0,0,0,0,0,0,-1,790,1695,0,0
-427,-671,0,0,0,0,0,0,0,0,0,-1,797,1695,0,0
-420,-671,0,0,0,0,0,0,0,0,0,-1,804,1695,0,0
-413,-671,0,0,0,0,0,0,0,0,0,-1,811,1695,0,0
-406,-671,0,0,0,0,0,0,0,0,0,-1,818,1695,0,0
-399,-671,0,0,0,0,0,0,0,0,0,-1,825,1695,0,0
-392,-671,0,0,0,0,0,0,0,0,0,-1,832,1695,0,0
-385,-671,0,0,0,0,0,0,0,0,0,-1,839,1695,0,0
-378,-671,0,0,0,0,0,0,0,0,0,-1,846,1695,0,0
-371,-671,0,0,0,0,0,0,0,0,0,-1,853,1695,0,0
-364,-671,-4.18738,7.51416,0,0,0,0,0,0,0,-1,860,1695,-4.18739,-7.51419
-357,-671,-5.02393,6.07129,0,0,0,0,0,0,0,-1,867,1695,-5.0239,-6.07135
-350,-671,-5.72333,4.58386,0,0,0,0,0,0,0,-1,874,1695,-5.72333,-4.58386
-343,-671,-6.4884,3.11353,0,0,0,0,0,0,0,-1,881,1695,-6.48839,-3.11349
-336,-671,2.55884,15.6338,0,0,0,0,0,0,0,-1,888,1695,2.55886,-15.6338
-329,-671,2.71729,16.1058,0,0,0,0,0,0,0,-1,895,1695,2.71729,-16.1058
-322,-671,7.14117,22.0459,0,0,0,0,0,0,0,-1,902,1695,7.1412,-22.0459
-315,-671,6.96118,22.7941,0,0,0,0,0,0,0,-1,909,1695,6.96119,-22.7941
-308,-671,5.76251,23.4701,0,0,0,0,0,0,0,-1,916,1695,5.76252,-23.4701
-301,-671,6.5365,22.9943,0,0,0,0,0,0,0,-1,923,1695,6.53648,-22.9943
-294,-671,6.12097,24.663,0,0,0,0,0,0,0,-1,930,1695,6.121,-24.6629
-287,-671,6.12915,25.1144,-0.00159852,0.00376088,0.00230729,0.00461734,-0.00245497,1.21537,0.00414633,0.0495105,937,1695,6.12915,-25.1144
-280,-671,6.03448,25.4574,-0.00112526,0.00345029,0.00183354,0.00409437,-0.00176934,1.23298,0.00347299,0.0429227,944,1695,6.03449,-25.4574
-273,-671,5.91754,25.7104,-0.00088235,0.00315843,0.00142841,0.00361237,-0.00133629,1.26309,0.00295613,0.035999,951,1695,5.91754,-25.7105
-266,-671,5.97803,26.1357,-0.000650269,0.00277334,0.00112519,0.00311003,-0.000986961,1.28005,0.00246899,0.0255214,958,1695,5.97805,-26.1357
-259,-671,5.862,26.4204,-0.000480168,0.00254864,0.000799051,0.00274652,-0.000678043,1.32804,0.00209394,0.0227583,965,1695,5.86203,-26.4205
-252,-671,5.85455,26.7506,-0.000570127,0.00270996,0.00051783,0.00278977,-0.000649936,1.41788,0.00211012,0.0173096,972,1695,5.85456,-26.7506
-245,-671,5.82977,27.0918,-0.000776521,0.0025977,0.000314642,0.00262679,-0.00080561,1.47861,0.00207259,0.0206824,979,1695,5.82976,-27.0918
-238,-671,5.82983,27.4241,-0.000943246,0.0024931,0.000204331,0.00250521,-0.000955354,1.51161,0.00206367,0.0221102,986,1695,5.82983,-27.424
-231,-671,5.83759,27.7629,-0.000953625,0.00242329,0.000187374,0.00243365,-0.00096399,1.51554,0.00202188,0.016653,993,1695,5.83759,-27.763
-224,-671,5.79669,28.0592,-0.000886931,0.00235665,0.000210442,0.00237024,-0.000900527,1.50628,0.00195089,0.0122845,1000,1695,5.79672,-28.0592
-217,-671,5.78577,28.3694,-0.000912283,0.00219258,0.000117877,0.00219705,-0.000916752,1.5329,0.00184772,0.0123313,1007,1695,5.78576,-28.3694
-210,-671,5.77252,28.7065,-0.000672329,0.00206732,0.000119029,0.00207248,-0.00067749,1.52746,0.00165439,0.0122036,1014,1695,5.77251,-28.7066
-203,-671,5.7356,28.9642,-0.000231063,0.00197861,0.000199528,0.00199648,-0.000248935,1.48146,0.00142125,0.0188384,1021,1695,5.73562,-28.9643
-196,-671,5.73816,29.2556,0.000182001,0.00191716,0.000226996,0.00194637,0.000152797,1.44284,0.00124976,0.0140561,1028,1695,5.73811,-29.2556
-189,-671,5.77588,29.6046,0.000543707,0.00192554,0.00020192,0.00195444,0.000514806,1.42863,0.00116975,0.011347,1035,1695,5.77585,-29.6046
-182,-671,5.75659,29.8759,0.000984713,0.0020642,0.000103452,0.00207402,0.000974888,1.47611,0.00119815,0.0097673,1042,1695,5.75653,-29.8758
-175,-671,5.76453,30.1377,0.0016413,0.00223679,9.48742e-05,0.00225154,0.00162655,1.41656,0.00134211,0.0122787,1049,1695,5.76448,-30.1378
-168,-671,5.75928,30.405,0.00220571,0.00274495,5.63962e-05,0.00275079,0.00219988,1.4677,0.00168059,0.0135731,1056,1695,5.75932,-30.4051
-161,-671,5.7627,30.6755,0.00271355,0.00341229,-7.20041e-06,0.00341237,0.00271348,-1.56049,0.00208143,0.00961552,1063,1695,5.76272,-30.6755
-154,-671,5.78223,30.9225,0.00323589,0.0043856,-4.64896e-05,0.00438747,0.00323401,-1.53045,0.00262633,0.00846519,1070,1695,5.7822,-30.9224
-147,-671,5.79565,31.1807,0.00369172,0.00561157,-0.000123513,0.00561949,0.00368381,-1.50681,0.00329633,0.00965661,1077,1695,5.79561,-31.1806
-140,-671,5.828,31.4187,0.0041436,0.00699447,-0.000159339,0.00700335,0.00413472,-1.51514,0.00406535,0.012445,1084,1695,5.82798,-31.4187
-133,-671,5.83704,31.6398,0.00455941,0.00844972,-0.000154075,0.00845582,0.00455332,-1.53127,0.00488679,0.0170033,1091,1695,5.83706,-31.6398
-126,-671,5.86707,31.916,0.00498689,0.010104,-0.000134119,0.0101075,0.00498338,-1.54461,0.00583574,0.0231644,1098,1695,5.86704,-31.9161
-119,-671,5.99365,32.3523,0.00546713,0.0114942,-0.000106115,0.0114961,0.00546526,-1.5532,0.00663993,0.0405915,1105,1695,5.99362,-32.3523
-112,-671,6.05786,32.821,0,0,0,0,0,0,0,-1,1112,1695,6.05782,-32.821
-105,-671,6.13147,32.9213,0,0,0,0,0,0,0,-1,1119,1695,6.13153,-32.9212
-98,-671,5.87439,32.9735,0,0,0,0,0,0,0,-1,1126,1695,5.87434,-32.9736
-91,-671,5.89795,31.6277,0,0,0,0,0,0,0,-1,1133,1695,5.89796,-31.6277
-84,-671,5.4209,26.2415,0,0,0,0,0,0,0,-1,1140,1695,5.42096,-26.2414
-77,-671,4.31763,16.489,0,0,0,0,0,0,0,-1,1147,1695,4.31757,-16.489
-70,-671,3.06067,10.7737,0,0,0,0,0,0,0,-1,1154,1695,3.0607,-10.7737
-63,-671,2.94592,6.90198,0,0,0,0,0,0,0,-1,1161,1695,2.94594,-6.90198
-56,-671,-3.07678,2.87976,0,0,0,0,0,0,0,-1,1168,1695,-3.07675,-2.87979
-49,-671,-1.05957,4.76917,0,0,0,0,0,0,0,-1,1175,1695,-1.05958,-4.76921
-42,-671,0.539307,3.7865,0,0,0,0,0,0,0,-1,1182,1695,0.539266,-3.78648
-35,-671,-0.272461,0.347534,0,0,0,0,0,0,0,-1,1189,1695,-0.272434,-0.347569
-28,-671,-10.4878,17.2009,0,0,0,0,0,0,0,-1,1196,1695,-10.4878,-17.2009
-21,-671,6.56897,34.7374,0,0,0,0,0,0,0,-1,1203,1695,6.56896,-34.7374
-14,-671,6.72913,34.8505,0.028688,-0.0224914,-0.0276222,0.0407522,-0.0345556,-0.411788,0.043528,0.042447,1210,1695,6.72912,-34.8505
-7,-671,6.89624,34.9861,0.0281965,-0.0215799,-0.0253218,0.0388135,-0.0321969,-0.397016,0.0410571,0.0485234,1217,1695,6.89626,-34.9861
0,-671,7.21204,35.099,0,0,0,0,0,0,0,-1,1224,1695,7.21199,-35.099
7,-671,7.44312,35.2142,0.025596,-0.015224,-0.0204479,0.0340769,-0.0237049,-0.393163,0.033539,0.047588,1231,1695,7.4431,-35.2142
14,-671,7.72327,35.1516,0.0237453,-0.00933895,-0.0180432,0.0316817,-0.0172753,-0.414386,0.0286704,0.0463595,1238,1695,7.7233,-35.1516
21,-671,7.98328,34.9745,0.0219137,-0.00225167,-0.0155822,0.029549,-0.00988694,-0.455614,0.0236929,0.0442667,1245,1695,7.98334,-34.9745
28,-671,8.19971,35.156,0,0,0,0,0,0,0,-1,1252,1695,8.19976,-35.156
35,-671,7.81873,37.1187,0.0177545,0.0145361,-0.0107368,0.027002,0.00528866,-0.711014,0.016523,0.0467087,1259,1695,7.81869,-37.1187
42,-671,7.61572,36.2017,0.0145706,0.0239409,-0.00752022,0.028116,0.0103955,-1.06398,0.0164154,0.0460132,1266,1695,7.61571,-36.2017
49,-671,7.74707,36.3428,0.0112406,0.0334632,-0.00493007,0.0345078,0.010196,-1.362,0.0204712,0.042094,1273,1695,7.74701,-36.3428
56,-671,7.80432,36.4061,0.00754529,0.0429802,-0.0023284,0.0431326,0.00739295,-1.50546,0.026635,0.0442396,1280,1695,7.80434,-36.4062
63,-671,8.11145,36.5404,0.00348114,0.050697,-0.000764299,0.0507094,0.00346877,-1.55461,0.0327113,0.0491446,1287,1695,8.11142,-36.5404
70,-671,7.62292,35.3152,0,0,0,0,0,0,0,-1,1294,1695,7.62287,-35.3152
77,-671,6.43188,34.0143,0,0,0,0,0,0,0,-1,1301,1695,6.4319,-34.0142
84,-671,6.22253,34.5292,0,0,0,0,0,0,0,-1,1308,1695,6.22249,-34.5291
91,-671,7.46069,36.1838,0,0,0,0,0,0,0,-1,1315,1695,7.46071,-36.1838
98,-671,7.08423,36.8082,0,0,0,0,0,0,0,-1,1322,1695,7.08425,-36.8082
105,-671,7.63049,35.6219,-0.0125241,0.0743841,-0.0039493,0.0745632,-0.0127032,-1.52548,0.0544395,0.0458184,1329,1695,7.63045,-35.6219
112,-671,7.375,35.6875,-0.0124802,0.0746152,-0.00537957,0.0749462,-0.0128112,-1.50934,0.0547366,0.043717,1336,1695,7.37504,-35.6875
119,-671,7.32849,35.5345,0,0,0,0,0,0,0,-1,1343,1695,7.32843,-35.5346
126,-671,4.68188,36.7737,0,0,0,0,0,0,0,-1,1350,1695,4.68184,-36.7736
133,-671,7.48486,32.9463,0,0,0,0,0,0,0,-1,1357,1695,7.48485,-32.9463
140,-671,7.51196,33.6567,0,0,0,0,0,0,0,-1,1364,1695,7.51193,-33.6568
147,-671,7.65125,34.3972,0,0,0,0,0,0,0,-1,1371,1695,7.6513,-34.3972
154,-671,7.66968,35.1843,0,0,0,0,0,0,0,-1,1378,1695,7.66973,-35.1843
161,-671,4.49292,4.91272,0,0,0,0,0,0,0,-1,1385,1695,4.49297,-4.91273
168,-671,5.17639,6.1416,0,0,0,0,0,0,0,-1,1392,1695,5.1764,-6.14164
175,-671,5.6731,1.64685,0,0,0,0,0,0,0,-1,1399,1695,5.67313,-1.64691
182,-671,5.56812,1.71692,0,0,0,0,0,0,0,-1,1406,1695,5.56809,-1.71686
189,-671,6.98315,6.36169,0,0,0,0,0,0,0,-1,1413,1695,6.98312,-6.36175
196,-671,5.38123,5.69775,0,0,0,0,0,0,0,-1,1420,1695,5.38125,-5.69769
203,-671,5.95117,8.11658,0,0,0,0,0,0,0,-1,1427,1695,5.9512,-8.11662
210,-671,4.73596,8.39624,0,0,0,0,0,0,0,-1,1434,1695,4.736,-8.39618
217,-671,5.37097,11.863,0,0,0,0,0,0,0,-1,1441,1695,5.37094,-11.863
224,-671,5.08167,13.6694,0,0,0,0,0,0,0,-1,1448,1695,5.08165,-13.6695
231,-671,5.66663,15.3348,0,0,0,0,0,0,0,-1,1455,1695,5.66667,-15.3349
238,-671,6.32959,16.2036,0,0,0,0,0,0,0,-1,1462,1695,6.32961,-16.2037
245,-671,9.09692,31.6698,0,0,0,0,0,0,0,-1,1469,1695,9.09694,-31.6698
252,-671,8.85083,32.0117,0,0,0,0,0,0,0,-1,1476,1695,8.85079,-32.0117
259,-671,8.77966,31.7726,0,0,0,0,0,0,0,-1,1483,1695,8.77972,-31.7726
266,-671,8.89307,31.8073,0.0047343,0.00111492,-0.000856451,0.00492673,0.000922485,-0.221013,0.00302426,0.0358527,1490,1695,8.89303,-31.8073
273,-671,8.97131,31.6418,0.00471361,0.00115882,-0.000966369,0.00495933,0.000913099,-0.248997,0.00304779,0.012184,1497,1695,8.97135,-31.6419
280,-671,8.97803,31.4303,0.00451388,0.00129483,-0.00107512,0.00483993,0.000968773,-0.294454,0.00295707,0.00894388,1504,1695,8.978,-31.4303
287,-671,8.96155,31.1411,0.00419882,0.00132615,-0.0011233,0.00458591,0.000939059,-0.331854,0.0027973,0.0101994,1511,1695,8.96158,-31.1411
294,-671,8.95776,30.8948,0.00399249,0.00146703,-0.00129046,0.00453525,0.000924275,-0.39813,0.00276734,0.0104123,1518,1695,8.95771,-30.8948
301,-671,8.98438,30.6908,0.00368387,0.00157188,-0.00135921,0.00434909,0.000906662,-0.455146,0.0026494,0.00981686,1525,1695,8.98439,-30.6908
308,-671,9.0083,30.4508,0.0033011,0.00159534,-0.00141019,0.00409626,0.000800184,-0.513428,0.00250705,0.0112773,1532,1695,9.00829,-30.4508
315,-671,9.02417,30.1752,0.00288132,0.00156573,-0.00140301,0.00377309,0.000673966,-0.566191,0.00232355,0.013453,1539,1695,9.02418,-30.1751
322,-671,9.03381,29.943,0.00242979,0.00149408,-0.00134933,0.00339008,0.000533798,-0.618518,0.0021048,0.0151838,1546,1695,9.03378,-29.9431
329,-671,9.01367,29.693,0.0019733,0.00130667,-0.00129205,0.00297434,0.000305639,-0.659163,0.00188927,0.0133956,1553,1695,9.0137,-29.693
336,-671,9.02527,29.3835,0.00146498,0.00101312,-0.00113093,0.00239232,8.57788e-05,-0.686808,0.00156707,0.0107492,1560,1695,9.02525,-29.3836
343,-671,9.05664,29.0774,0.00081429,0.000505307,-0.00081238,0.00148674,-0.000167141,-0.691435,0.00105131,0.0103982,1567,1695,9.05662,-29.0773
350,-671,9.03259,28.819,0.000124156,-0.000424573,-0.000266019,0.000231946,-0.000532363,-0.384978,0.000452494,0.0104603,1574,1695,9.03262,-28.8189
357,-671,8.99646,28.5181,-0.000496699,-0.00163587,0.00029342,-0.000425563,-0.001707,0.237847,0.001026,0.0104867,1581,1695,8.99642,-28.518
364,-671,8.98291,28.2277,-0.00115143,-0.00321382,0.00103598,-0.000720907,-0.00364434,0.393857,0.00222847,0.0126627,1588,1695,8.98289,-28.2276
371,-671,8.97949,27.9684,-0.00180828,-0.00484993,0.00183339,-0.000947041,-0.00571117,0.439159,0.00353432,0.0139506,1595,1695,8.97944,-27.9684
378,-671,8.97852,27.6545,-0.0024719,-0.00679744,0.00279806,-0.00109819,-0.00817115,0.456383,0.00512078,0.0120199,1602,1695,8.97848,-27.6545
385,-671,8.95288,27.3101,-0.00307463,-0.00884108,0.00380597,-0.00118309,-0.0107326,0.461239,0.00679513,0.0138862,1609,1695,8.95283,-27.3101
392,-671,8.90979,27.0472,-0.0037585,-0.0112326,0.00488559,-0.00134458,-0.0136466,0.458908,0.00868428,0.0190446,1616,1695,8.90976,-27.0472
399,-671,8.88855,26.7002,-0.00441616,-0.0136112,0.00586906,-0.00155827,-0.0164691,0.453147,0.0104986,0.0165699,1623,1695,8.88859,-26.7002
406,-671,8.93604,26.3387,-0.00502444,-0.0158605,0.00693328,-0.0016433,-0.0192416,0.453734,0.0123166,0.028213,1630,1695,8.93603,-26.3388
413,-671,8.89587,26.244,-0.00531288,-0.0176725,0.00777777,-0.00155872,-0.0214267,0.449694,0.0137943,0.0443323,1637,1695,8.89592,-26.244
420,-671,8.96509,25.8553,0,0,0,0,0,0,0,-1,1644,1695,8.96512,-25.8553
427,-671,9.31738,21.7188,0,0,0,0,0,0,0,-1,1651,1695,9.31735,-21.7187
434,-671,9.66528,26.177,0,0,0,0,0,0,0,-1,1658,1695,9.66528,-26.177
441,-671,8.34961,20.6522,0,0,0,0,0,0,0,-1,1665,1695,8.34964,-20.6522
448,-671,7.44873,20.2306,0,0,0,0,0,0,0,-1,1672,1695,7.44872,-20.2306
455,-671,6.62805,19.8612,0,0,0,0,0,0,0,-1,1679,1695,6.62811,-19.8612
462,-671,5.86255,4.47961,0,0,0,0,0,0,0,-1,1686,1695,5.8625,-4.4796
469,-671,3.71301,3.76978,0,0,0,0,0,0,0,-1,1693,1695,3.71297,-3.76974
476,-671,3.75574,3.18848,0,0,0,0,0,0,0,-1,1700,1695,3.7558,-3.18847
483,-671,7.81824,12.1041,0,0,0,0,0,0,0,-1,1707,1695,7.81826,-12.1041
490,-671,0,0,0,0,0,0,0,0,0,-1,1714,1695,0,0
497,-671,0,0,0,0,0,0,0,0,0,-1,1721,1695,0,0
504,-671,0,0,0,0,0,0,0,0,0,-1,1728,1695,0,0
511,-671,0,0,0,0,0,0,0,0,0,-1,1735,1695,0,0
518,-671,0,0,0,0,0,0,0,0,0,-1,1742,1695,0,0
525,-671,0,0,0,0,0,0,0,0,0,-1,1749,1695,0,0
532,-671,0,0,0,0,0,0,0,0,0,-1,1756,1695,0,0
539,-671,0,0,0,0,0,0,0,0,0,-1,1763,1695,0,0
546,-671,0,0,0,0,0,0,0,0,0,-1,1770,1695,0,0
553,-671,0,0,0,0,0,0,0,0,0,-1,1777,1695,0,0
560,-671,0,0,0,0,0,0,0,0,0,-1,1784,1695,0,0
567,-671,0,0,0,0,0,0,0,0,0,-1,1791,1695,0,0
574,-671,0,0,0,0,0,0,0,0,0,-1,1798,1695,0,0
581,-671,0,0,0,0,0,0,0,0,0,-1,1805,1695,0,0
588,-671,0,0,0,0,0,0,0,0,0,-1,1812,1695,0,0
595,-671,0,0,0,0,0,0,0,0,0,-1,1819,1695,0,0
602,-671,0,0,0,0,0,0,0,0,0,-1,1826,1695,0,0
609,-671,0,0,0,0,0,0,0,0,0,-1,1833,1695,0,0
616,-671,0,0,0,0,0,0,0,0,0,-1,1840,1695,0,0
623,-671,0,0,0,0,0,0,0,0,0,-1,1847,1695,0,0
630,-671,0,0,0,0,0,0,0,0,0,-1,1854,1695,0,0
637,-671,0,0,0,0,0,0,0,0,0,-1,1861,1695,0,0
644,-671,0,0,0,0,0,0,0,0,0,-1,1868,1695,0,0
651,-671,0,0,0,0,0,0,0,0,0,-1,1875,1695,0,0
658,-671,0,0,0,0,0,0,0,0,0,-1,1882,1695,0,0
665,-671,0,0,0,0,0,0,0,0,0,-1,1889,1695,0,0
672,-671,0,0,0,0,0,0,0,0,0,-1,1896,1695,0,0
679,-671,0,0,0,0,0,0,0,0,0,-1,1903,1695,0,0
686,-671,0,0,0,0,0,0,0,0,0,-1,1910,1695,0,0
693,-671,0,0,0,0,0,0,0,0,0,-1,1917,1695,0,0
700,-671,0,0,0,0,0,0,0,0,0,-1,1924,1695,0,0
707,-671,0,0,0,0,0,0,0,0,0,-1,1931,1695,0,0
714,-671,0,0,0,0,0,0,0,0,0,-1,1938,1695,0,0
721,-671,0,0,0,0,0,0,0,0,0,-1,1945,1695,0,0
728,-671,0,0,0,0,0,0,0,0,0,-1,1952,1695,0,0
735,-671,0,0,0,0,0,0,0,0,0,-1,1959,1695,0,0
742,-671,0,0,0,0,0,0,0,0,0,-1,1966,1695,0,0
749,-671,0,0,0,0,0,0,0,0,0,-1,1973,1695,0,0
756,-671,0,0,0,0,0,0,0,0,0,-1,1980,1695,0,0
763,-671,0,0,0,0,0,0,0,0,0,-1,1987,1695,0,0
770,-671,0,0,0,0,0,0,0,0,0,-1,1994,1695,0,0
777,-671,0,0,0,0,0,0,0,0,0,-1,2001,1695,0,0
784,-671,0,0,0,0,0,0,0,0,0,-1,2008,1695,0,0
791,-671,0,0,0,0,0,0,0,0,0,-1,2015,1695,0,0
798,-671,0,0,0,0,0,0,0,0,0,-1,2022,1695,0,0
805,-671,0,0,0,0,0,0,0,0,0,-1,2029,1695,0,0
812,-671,0,0,0,0,0,0,0,0,0,-1,2036,1695,0,0
-700,-678,0,0,0,0,0,0,0,0,0,-1,524,1702,0,0
-693,-678,0,0,0,0,0,0,0,0,0,-1,531,1702,0,0
-686,-678,0,0,0,0,0,0,0,0,0,-1,538,1702,0,0
-679,-678,0,0,0,0,0,0,0,0,0,-1,545,1702,0,0
-672,-678,0,0,0,0,0,0,0,0,0,-1,552,1702,0,0
-665,-678,0,0,0,0,0,0,0,0,0,-1,559,1702,0,0
-658,-678,0,0,0,0,0,0,0,0,0,-1,566,1702,0,0
-651,-678,0,0,0,0,0,0,0,0,0,-1,573,1702,0,0
-644,-678,0,0,0,0,0,0,0,0,0,-1,580,1702,0,0
-637,-678,0,0,0,0,0,0,0,0,0,-1,587,1702,0,0
-630,-678,0,0,0,0,0,0,0,0,0,-1,594,1702,0,0
-623,-678,0,0,0,0,0,0,0,0,0,-1,601,1702,0,0
-616,-678,0,0,0,0,0,0,0,0,0,-1,608,1702,0,0
-609,-678,0,0,0,0,0,0,0,0,0,-1,615,1702,0,0
-602,-678,0,0,0,0,0,0,0,0,0,-1,622,1702,0,0
-595,-678,0,0,0,0,0,0,0,0,0,-1,629,1702,0,0
-588,-678,0,0,0,0,0,0,0,0,0,-1,636,1702,0,0
-581,-678,0,0,0,0,0,0,0,0,0,-1,643,1702,0,0
-574,-678,0,0,0,0,0,0,0,0,0,-1,650,1702,0,0
-567,-678,0,0,0,0,0,0,0,0,0,-1,657,1702,0,0
-560,-678,0,0,0,0,0,0,0,0,0,-1,664,1702,0,0
-553,-678,0,0,0,0,0,0,0,0,0,-1,671,1702,0,0
-546,-678,0,0,0,0,0,0,0,0,0,-1,678,1702,0,0
-539,-678,0,0,0,0,0,0,0,0,0,-1,685,1702,0,0
-532,-678,0,0,0,0,0,0,0,0,0,-1,692,1702,0,0
-525,-678,0,0,0,0,0,0,0,0,0,-1,699,1702,0,0
-518,-678,0,0,0,0,0,0,0,0,0,-1,706,1702,0,0
-511,-678,0,0,0,0,0,0,0,0,0,-1,713,1702,0,0
-504,-678,0,0,0,0,0,0,0,0,0,-1,720,1702,0,0
-497,-678,0,0,0,0,0,0,0,0,0,-1,727,1702,0,0
-490,-678,0,0,0,0,0,0,0,0,0,-1,734,1702,0,0
-483,-678,0,0,0,0,0,0,0,0,0,-1,741,1702,0,0
-476,-678,0,0,0,0,0,0,0,0,0,-1,748,1702,0,0
-469,-678,0,0,0,0,0,0,0,0,0,-1,755,1702,0,0
-462,-678,0,0,0,0,0,0,0,0,0,-1,762,1702,0,0
-455,-678,0,0,0,0,0,0,0,0,0,-1,769,1702,0,0
-448,-678,0,0,0,0,0,0,0,0,0,-1,776,1702,0,0
-441,-678,0,0,0,0,0,0,0,0,0,-1,783,1702,0,0
-434,-678,0,0,0,0,0,0,0,0,0,-1,790,1702,0,0
-427,-678,0,0,0,0,0,0,0,0,0,-1,797,1702,0,0
-420,-678,0,0,0,0,0,0,0,0,0,-1,804,1702,0,0
-413,-678,0,0,0,0,0,0,0,0,0,-1,811,1702,0,0
-406,-678,0,0,0,0,0,0,0,0,0,-1,818,1702,0,0
-399,-678,0,0,0,0,0,0,0,0,0,-1,825,1702,0,0
-392,-678,0,0,0,0,0,0,0,0,0,-1,832,1702,0,0
-385,-678,0,0,0,0,0,0,0,0,0,-1,839,1702,0,0
-378,-678,0,0,0,0,0,0,0,0,0,-1,846,1702,0,0
-371,-678,0,0,0,0,0,0,0,0,0,-1,853,1702,0,0
-364,-678,0,0,0,0,0,0,0,0,0,-1,860,1702,0,0
-357,-678,0,0,0,0,0,0,0,0,0,-1,867,1702,0,0
-350,-678,-5.79944,6.11865,0,0,0,0,0,0,0,-1,874,1702,-5.79942,-6.11864
-343,-678,-6.44891,4.52759,0,0,0,0,0,0,0,-1,881,1702,-6.4489,-4.52758
-336,-678,-6.91888,2.99438,0,0,0,0,0,0,0,-1,888,1702,-6.9189,-2.99435
-329,-678,-7.14575,1.29761,0,0,0,0,0,0,0,-1,895,1702,-7.14577,-1.29755
-322,-678,3.78455,20.3917,0,0,0,0,0,0,0,-1,902,1702,3.78457,-20.3917
-315,-678,4.74176,22.3245,0,0,0,0,0,0,0,-1,909,1702,4.74178,-22.3244
-308,-678,6.20105,22.7914,0,0,0,0,0,0,0,-1,916,1702,6.20108,-22.7914
-301,-678,5.29895,22.3046,0,0,0,0,0,0,0,-1,923,1702,5.29895,-22.3045
-294,-678,6.65289,25.1428,0,0,0,0,0,0,0,-1,930,1702,6.65288,-25.1428
-287,-678,6.55615,25.2877,0,0,0,0,0,0,0,-1,937,1702,6.55614,-25.2877
-280,-678,6.4848,25.5181,0,0,0,0,0,0,0,-1,944,1702,6.48483,-25.5181
-273,-678,6.07745,25.5898,-0.000328706,0.00500594,0.00196495,0.00565157,-0.000974334,1.25334,0.00413097,0.046666,951,1702,6.07746,-25.5898
-266,-678,6.258,26.139,-0.000285571,0.00430225,0.00148472,0.00474081,-0.000724133,1.28358,0.00342751,0.0375991,958,1702,6.25799,-26.139
-259,-678,6.18732,26.4996,-0.000362585,0.00391364,0.00100257,0.00413703,-0.000585971,1.35156,0.00297266,0.023752,965,1702,6.18731,-26.4997
-252,-678,6.17188,26.776,-0.000734727,0.00392404,0.000616317,0.0040042,-0.000814882,1.44147,0.00297849,0.0177172,972,1702,6.17188,-26.776
-245,-678,6.14862,27.1145,-0.00121267,0.00359482,0.000324297,0.0036166,-0.00123445,1.50374,0.00291114,0.0186281,979,1702,6.1486,-27.1145
-238,-678,6.12476,27.4355,-0.00160409,0.00332977,0.000152554,0.00333448,-0.0016088,1.53992,0.0029114,0.0161142,986,1702,6.12477,-27.4355
-231,-678,6.10852,27.7408,-0.00177922,0.00314549,9.00919e-05,0.00314714,-0.00178086,1.55251,0.0028814,0.0131481,993,1702,6.10853,-27.7409
-224,-678,6.07538,28.0342,-0.00183175,0.00294132,7.85934e-05,0.00294262,-0.00183304,1.55434,0.00278192,0.0126298,1000,1702,6.07536,-28.0342
-217,-678,6.08447,28.3546,-0.00197864,0.00256768,-6.11137e-05,0.0025685,-0.00197946,-1.55736,0.0026331,0.0140799,1007,1702,6.08447,-28.3546
-210,-678,6.06525,28.7268,-0.00171349,0.00234352,4.05363e-05,0.00234392,-0.0017139,1.56081,0.00235218,0.0149762,1014,1702,6.06522,-28.7268
-203,-678,6.03906,29.0006,-0.00121831,0.00226423,0.000238317,0.00228047,-0.00123455,1.50279,0.00205912,0.018629,1021,1702,6.0391,-29.0006
-196,-678,6.03308,29.283,-0.00073569,0.00213074,0.000331504,0.00216858,-0.000773529,1.45714,0.00176113,0.0174915,1028,1702,6.03314,-29.283
-189,-678,6.04187,29.5916,-0.000285179,0.0020721,0.000388759,0.00213456,-0.000347638,1.4115,0.00155195,0.0104791,1035,1702,6.0419,-29.5916
-182,-678,6.04126,29.8943,0.00022047,0.00211988,0.000377277,0.00219207,0.000148276,1.38173,0.00141455,0.00978817,1042,1702,6.04128,-29.8943
-175,-678,6.03162,30.1666,0.00090981,0.00217237,0.000435584,0.00230806,0.000774117,1.2688,0.00135642,0.0107019,1049,1702,6.03158,-30.1667
-168,-678,6.03113,30.4358,0.00150192,0.00252787,0.000455128,0.00270067,0.00132913,1.20794,0.0015593,0.0106683,1056,1702,6.03117,-30.4358
-161,-678,6.03992,30.6931,0.00195982,0.00305161,0.000424856,0.00319745,0.00181398,1.24012,0.00185162,0.00904158,1063,1702,6.03988,-30.6931
-154,-678,6.04456,30.9452,0.00241755,0.00377286,0.000388004,0.00387608,0.00231433,1.31079,0.00225187,0.00787584,1070,1702,6.04456,-30.9452
-147,-678,6.04272,31.1848,0.00278699,0.00469771,0.000287537,0.00474005,0.00274466,1.42462,0.00274804,0.00965607,1077,1702,6.04276,-31.1848
-140,-678,6.06885,31.4205,0.00309458,0.005741,0.000197895,0.00575572,0.00307986,1.49657,0.0033258,0.0113143,1084,1702,6.06886,-31.4205
-133,-678,6.09241,31.645,0.00335305,0.00676155,0.000121373,0.00676587,0.00334873,1.53525,0.00390634,0.0114218,1091,1702,6.09238,-31.645
-126,-678,6.10242,31.8945,0.00361818,0.00786573,5.86553e-05,0.00786654,0.00361737,1.55699,0.00454663,0.01081,1098,1702,6.10245,-31.8945
-119,-678,6.14905,32.2959,0.00393672,0.00878134,1.02492e-05,0.00878136,0.0039367,1.56868,0.00507894,0.0283419,1105,1702,6.14907,-32.2959
-112,-678,6.20825,32.5662,0.00421099,0.00935056,-8.07445e-05,0.00935183,0.00420973,-1.55509,0.00540822,0.0440532,1112,1702,6.20831,-32.5662
-105,-678,6.255,32.7773,0.00450463,0.0101186,9.64536e-05,0.0101203,0.00450297,1.55362,0.00585475,0.0428652,1119,1702,6.25496,-32.7773
-98,-678,6.16858,32.8219,0.00463105,0.0108853,9.84617e-05,0.0108869,0.0046295,1.55506,0.00630892,0.0242945,1126,1702,6.16857,-32.8219
-91,-678,6.24072,32.903,0,0,0,0,0,0,0,-1,1133,1702,6.24067,-32.903
-84,-678,6.34985,33.2407,0,0,0,0,0,0,0,-1,1140,1702,6.34983,-33.2407
-77,-678,5.95154,29.1879,0,0,0,0,0,0,0,-1,1147,1702,5.95156,-29.1878
-70,-678,4.75891,19.6552,0,0,0,0,0,0,0,-1,1154,1702,4.75895,-19.6551
-63,-678,3.41687,11.0365,0,0,0,0,0,0,0,-1,1161,1702,3.41682,-11.0365
-56,-678,1.72388,6.13159,0,0,0,0,0,0,0,-1,1168,1702,1.72388,-6.13157
-49,-678,-0.241699,5.29895,0,0,0,0,0,0,0,-1,1175,1702,-0.241682,-5.29897
-42,-678,0.297119,3.90649,0,0,0,0,0,0,0,-1,1182,1702,0.297139,-3.90655
-35,-678,0.498413,3.64038,0,0,0,0,0,0,0,-1,1189,1702,0.498471,-3.64038
-28,-678,0.132446,3.55994,0,0,0,0,0,0,0,-1,1196,1702,0.132432,-3.55993
-21,-678,6.75366,34.5208,0,0,0,0,0,0,0,-1,1203,1702,6.75362,-34.5208
-14,-678,6.8623,34.6384,0.0225286,-0.0135362,-0.0182227,0.0301328,-0.0211404,-0.395323,0.029754,0.0401008,1210,1702,6.86234,-34.6385
-7,-678,7.12549,34.726,0.0224573,-0.0124584,-0.0166819,0.0291461,-0.0191472,-0.381337,0.0280807,0.0422244,1217,1702,7.12548,-34.726
0,-678,7.4248,35.0303,0,0,0,0,0,0,0,-1,1224,1702,7.42481,-35.0302
7,-678,7.97302,34.7329,0.0205552,-0.00677797,-0.0133678,0.026006,-0.0122288,-0.387174,0.0225475,0.0450923,1231,1702,7.97305,-34.7329
14,-678,8.09863,34.7003,0.0191883,-0.00217505,-0.0117647,0.024397,-0.00738382,-0.416805,0.0192051,0.0438825,1238,1702,8.09857,-34.7003
21,-678,7.27197,35.8992,0,0,0,0,0,0,0,-1,1245,1702,7.27197,-35.8992
28,-678,7.65686,35.7435,0,0,0,0,0,0,0,-1,1252,1702,7.65684,-35.7436
35,-678,7.62476,36.1438,0,0,0,0,0,0,0,-1,1259,1702,7.62471,-36.1438
42,-678,7.59253,36.5441,0,0,0,0,0,0,0,-1,1266,1702,7.59258,-36.544
49,-678,7.60461,35.876,0.00939118,0.0301162,-0.00212404,0.0303316,0.00917573,-1.46971,0.0179615,0.042729,1273,1702,7.60462,-35.876
56,-678,7.59521,35.8906,0.00642656,0.0374852,-0.00010746,0.0374855,0.00642618,-1.56734,0.0231476,0.0463016,1280,1702,7.59517,-35.8907
63,-678,7.56006,35.8594,0,0,0,0,0,0,0,-1,1287,1702,7.56008,-35.8594
70,-678,7.59216,35.105,0,0,0,0,0,0,0,-1,1294,1702,7.5922,-35.105
77,-678,7.79883,35.8757,0,0,0,0,0,0,0,-1,1301,1702,7.79878,-35.8757
84,-678,7.57776,35.8601,0,0,0,0,0,0,0,-1,1308,1702,7.57773,-35.8601
91,-678,7.58521,35.6707,-0.00755691,0.0603097,0.000535819,0.0603139,-0.00756114,1.5629,0.0429521,0.044712,1315,1702,7.58525,-35.6706
98,-678,7.17651,36.0125,-0.0089859,0.0606123,-0.000918248,0.0606244,-0.00899802,-1.55761,0.0437253,0.0423245,1322,1702,7.17653,-36.0124
105,-678,7.12817,36.0297,0,0,0,0,0,0,0,-1,1329,1702,7.12815,-36.0297
112,-678,7.55847,35.2786,-0.00966586,0.0607344,-0.00394098,0.0609543,-0.00988578,-1.51505,0.0443007,0.0442708,1336,1702,7.55849,-35.2786
119,-678,7.51685,35.1462,0,0,0,0,0,0,0,-1,1343,1702,7.51689,-35.1462
126,-678,8.11975,34.5948,0,0,0,0,0,0,0,-1,1350,1702,8.1197,-34.5948
133,-678,7.97192,33.2997,0,0,0,0,0,0,0,-1,1357,1702,7.97189,-33.2996
140,-678,7.50305,34.4908,0,0,0,0,0,0,0,-1,1364,1702,7.50301,-34.4908
147,-678,8.22095,34.9579,0,0,0,0,0,0,0,-1,1371,1702,8.22092,-34.9579
154,-678,7.24976,35.3761,0,0,0,0,0,0,0,-1,1378,1702,7.2498,-35.3761
161,-678,8.81226,34.8624,0,0,0,0,0,0,0,-1,1385,1702,8.81229,-34.8624
168,-678,4.21863,5.25781,0,0,0,0,0,0,0,-1,1392,1702,4.21865,-5.25781
175,-678,5.21899,5.9635,0,0,0,0,0,0,0,-1,1399,1702,5.21894,-5.96346
182,-678,7.31262,6.75122,0,0,0,0,0,0,0,-1,1406,1702,7.3126,-6.75123
189,-678,5.96021,6.36853,0,0,0,0,0,0,0,-1,1413,1702,5.96018,-6.36851
196,-678,5.01599,8.15771,0,0,0,0,0,0,0,-1,1420,1702,5.01596,-8.15767
203,-678,4.64771,13.0559,0,0,0,0,0,0,0,-1,1427,1702,4.64766,-13.0559
210,-678,5.6532,18.5957,0,0,0,0,0,0,0,-1,1434,1702,5.65318,-18.5958
217,-678,6.88049,23.4835,0,0,0,0,0,0,0,-1,1441,1702,6.88047,-23.4835
224,-678,8.521,32.0977,0,0,0,0,0,0,0,-1,1448,1702,8.52098,-32.0977
231,-678,8.47668,32.9656,0,0,0,0,0,0,0,-1,1455,1702,8.47671,-32.9655
238,-678,8.59009,32.7365,0,0,0,0,0,0,0,-1,1462,1702,8.59004,-32.7364
245,-678,8.6532,32.5,0,0,0,0,0,0,0,-1,1469,1702,8.65325,-32.5
252,-678,8.68604,32.2651,0.00242586,-9.55029e-05,-4.36092e-05,0.00242662,-9.6257e-05,-0.017289,0.00165077,0.029068,1476,1702,8.68607,-32.2652
259,-678,8.68201,32.1007,0.00246361,0.000119946,-0.000282063,0.00249708,8.64776e-05,-0.118104,0.00163666,0.0163222,1483,1702,8.68205,-32.1007
266,-678,8.71997,31.8848,0.00269422,0.00035981,-0.000602231,0.00284043,0.000213604,-0.238167,0.00182658,0.0110319,1490,1702,8.72,-31.8848
273,-678,8.73413,31.6636,0.00292952,0.000528977,-0.00075163,0.00314544,0.000313057,-0.279737,0.00200079,0.0110423,1497,1702,8.73412,-31.6635
280,-678,8.72668,31.4474,0.0030389,0.000780778,-0.000916846,0.00336428,0.000455403,-0.34102,0.00210752,0.0114082,1504,1702,8.72673,-31.4474
287,-678,8.74524,31.1953,0.00305073,0.000977479,-0.00104116,0.00348332,0.000544886,-0.39379,0.00216358,0.0108317,1511,1702,8.74528,-31.1954
294,-678,8.74573,30.9275,0.00308927,0.0012531,-0.00124144,0.00371522,0.000627143,-0.467014,0.00229649,0.0114225,1518,1702,8.74576,-30.9275
301,-678,8.73279,30.6937,0.00297356,0.00146047,-0.00139483,0.00380381,0.000630224,-0.536907,0.00235409,0.0114749,1525,1702,8.73273,-30.6937
308,-678,8.73975,30.4631,0.00269784,0.00156704,-0.00153591,0.00376911,0.000495764,-0.609035,0.00236487,0.013623,1532,1702,8.7397,-30.4632
315,-678,8.74512,30.1984,0.0023011,0.00150946,-0.00156446,0.00351903,0.000291518,-0.661495,0.00225514,0.0148338,1539,1702,8.74514,-30.1983
322,-678,8.74292,29.9565,0.00186166,0.00144554,-0.00155632,0.00322377,8.34356e-05,-0.718948,0.00212192,0.0168636,1546,1702,8.74297,-29.9566
329,-678,8.7207,29.6786,0.0013918,0.00125186,-0.0015264,0.00284984,-0.000206176,-0.762496,0.00197221,0.0150096,1553,1702,8.72075,-29.6786
336,-678,8.724,29.3846,0.000839819,0.000888464,-0.00137976,0.00224412,-0.000515834,-0.794211,0.0016944,0.0129555,1560,1702,8.72397,-29.3846
343,-678,8.75146,29.0978,5.4216e-05,0.00021851,-0.00101938,0.00115905,-0.000886325,-0.825604,0.00118439,0.0118245,1567,1702,8.75145,-29.0977
350,-678,8.74817,28.8198,-0.000771221,-0.000963695,-0.000297075,-0.000555184,-0.00117973,-0.628757,0.000681511,0.011514,1574,1702,8.74823,-28.8199
357,-678,8.72485,28.5352,-0.00142904,-0.00248842,0.000454368,-0.00126086,-0.0026566,0.354503,0.00153445,0.00936959,1581,1702,8.72481,-28.5351
364,-678,8.71301,28.2454,-0.0021468,-0.00440787,0.00141479,-0.00146633,-0.00508835,0.448308,0.00302436,0.0112451,1588,1702,8.71296,-28.2454
371,-678,8.68518,27.9678,-0.00288132,-0.0064422,0.00246709,-0.00161931,-0.00770421,0.472835,0.00469049,0.0120892,1595,1702,8.68512,-27.9677
378,-678,8.66858,27.6398,-0.00368361,-0.00898883,0.00380435,-0.0016984,-0.010974,0.480957,0.00682075,0.0129265,1602,1702,8.66854,-27.6398
385,-678,8.65503,27.3206,-0.00445402,-0.0117047,0.00524725,-0.00170152,-0.0144572,0.483102,0.00912397,0.0147058,1609,1702,8.65509,-27.3206
392,-678,8.66772,27.083,-0.00533631,-0.0149501,0.00681845,-0.0018007,-0.0184857,0.478366,0.0117696,0.0274759,1616,1702,8.66774,-27.083
399,-678,8.60059,26.9084,-0.00618277,-0.0182959,0.00831348,-0.00195361,-0.022525,0.470592,0.0144097,0.0379296,1623,1702,8.6006,-26.9085
406,-678,8.53589,26.891,-0.00703916,-0.0216045,0.0100035,-0.00194819,-0.0266955,0.470758,0.0171844,0.0451808,1630,1702,8.53587,-26.8909
413,-678,8.43933,26.5408,-0.00745326,-0.0245016,0.0114606,-0.00169437,-0.0302605,0.465643,0.0196333,0.0436595,1637,1702,8.43938,-26.5408
420,-678,8.29578,26.1649,0,0,0,0,0,0,0,-1,1644,1702,8.29572,-26.1649
427,-678,4.57483,10.1555,0,0,0,0,0,0,0,-1,1651,1702,4.57485,-10.1555
434,-678,9.48169,21.6665,0,0,0,0,0,0,0,-1,1658,1702,9.48169,-21.6665
441,-678,8.64539,21.1864,0,0,0,0,0,0,0,-1,1665,1702,8.64536,-21.1865
448,-678,7.62244,20.7195,0,0,0,0,0,0,0,-1,1672,1702,7.6224,-20.7195
455,-678,5.44678,5.54297,0,0,0,0,0,0,0,-1,1679,1702,5.44676,-5.54294
462,-678,3.86792,2.87402,0,0,0,0,0,0,0,-1,1686,1702,3.86796,-2.87406
469,-678,2.26587,1.98755,0,0,0,0,0,0,0,-1,1693,1702,2.26592,-1.98755
476,-678,0,0,0,0,0,0,0,0,0,-1,1700,1702,0,0
483,-678,0,0,0,0,0,0,0,0,0,-1,1707,1702,0,0
490,-678,0,0,0,0,0,0,0,0,0,-1,1714,1702,0,0
497,-678,0,0,0,0,0,0,0,0,0,-1,1721,1702,0,0
504,-678,0,0,0,0,0,0,0,0,0,-1,1728,1702,0,0
511,-678,0,0,0,0,0,0,0,0,0,-1,1735,1702,0,0
518,-678,0,0,0,0,0,0,0,0,0,-1,1742,1702,0,0
525,-678,0,0,0,0,0,0,0,0,0,-1,1749,1702,0,0
532,-678,0,0,0,0,0,0,0,0,0,-1,1756,1702,0,0
539,-678,0,0,0,0,0,0,0,0,0,-1,1763,1702,0,0
546,-678,0,0,0,0,0,0,0,0,0,-1,1770,1702,0,0
553,-678,0,0,0,0,0,0,0,0,0,-1,1777,1702,0,0
560,-678,0,0,0,0,0,0,0,0,0,-1,1784,1702,0,0
567,-678,0,0,0,0,0,0,0,0,0,-1,1791,1702,0,0
574,-678,0,0,0,0,0,0,0,0,0,-1,1798,1702,0,0
581,-678,0,0,0,0,0,0,0,0,0,-1,1805,1702,0,0
588,-678,0,0,0,0,0,0,0,0,0,-1,1812,1702,0,0
595,-678,0,0,0,0,0,0,0,0,0,-1,1819,1702,0,0
602,-678,0,0,0,0,0,0,0,0,0,-1,1826,1702,0,0
609,-678,0,0,0,0,0,0,0,0,0,-1,1833,1702,0,0
616,-678,0,0,0,0,0,0,0,0,0,-1,1840,1702,0,0
623,-678,0,0,0,0,0,0,0,0,0,-1,1847,1702,0,0
630,-678,0,0,0,0,0,0,0,0,0,-1,1854,1702,0,0
637,-678,0,0,0,0,0,0,0,0,0,-1,1861,1702,0,0
644,-678,0,0,0,0,0,0,0,0,0,-1,1868,1702,0,0
651,-678,0,0,0,0,0,0,0,0,0,-1,1875,1702,0,0
658,-678,0,0,0,0,0,0,0,0,0,-1,1882,1702,0,0
665,-678,0,0,0,0,0,0,0,0,0,-1,1889,1702,0,0
672,-678,0,0,0,0,0,0,0,0,0,-1,1896,1702,0,0
679,-678,0,0,0,0,0,0,0,0,0,-1,1903,1702,0,0
686,-678,0,0,0,0,0,0,0,0,0,-1,1910,1702,0,0
693,-678,0,0,0,0,0,0,0,0,0,-1,1917,1702,0,0
700,-678,0,0,0,0,0,0,0,0,0,-1,1924,1702,0,0
707,-678,0,0,0,0,0,0,0,0,0,-1,1931,1702,0,0
714,-678,0,0,0,0,0,0,0,0,0,-1,1938,1702,0,0
721,-678,0,0,0,0,0,0,0,0,0,-1,1945,1702,0,0
728,-678,0,0,0,0,0,0,0,0,0,-1,1952,1702,0,0
735,-678,0,0,0,0,0,0,0,0,0,-1,1959,1702,0,0
742,-678,0,0,0,0,0,0,0,0,0,-1,1966,1702,0,0
749,-678,0,0,0,0,0,0,0,0,0,-1,1973,1702,0,0
756,-678,0,0,0,0,0,0,0,0,0,-1,1980,1702,0,0
763,-678,0,0,0,0,0,0,0,0,0,-1,1987,1702,0,0
770,-678,0,0,0,0,0,0,0,0,0,-1,1994,1702,0,0
777,-678,0,0,0,0,0,0,0,0,0,-1,2001,1702,0,0
784,-678,0,0,0,0,0,0,0,0,0,-1,2008,1702,0,0
791,-678,0,0,0,0,0,0,0,0,0,-1,2015,1702,0,0
798,-678,0,0,0,0,0,0,0,0,0,-1,2022,1702,0,0
805,-678,0,0,0,0,0,0,0,0,0,-1,2029,1702,0,0
812,-678,0,0,0,0,0,0,0,0,0,-1,2036,1702,0,0
-700,-685,0,0,0,0,0,0,0,0,0,-1,524,1709,0,0
-693,-685,0,0,0,0,0,0,0,0,0,-1,531,1709,0,0
-686,-685,0,0,0,0,0,0,0,0,0,-1,538,1709,0,0
-679,-685,0,0,0,0,0,0,0,0,0,-1,545,1709,0,0
-672,-685,0,0,0,0,0,0,0,0,0,-1,552,1709,0,0
-665,-685,0,0,0,0,0,0,0,0,0,-1,559,1709,0,0
-658,-685,0,0,0,0,0,0,0,0,0,-1,566,1709,0,0
-651,-685,0,0,0,0,0,0,0,0,0,-1,573,1709,0,0
-644,-685,0,0,0,0,0,0,0,0,0,-1,580,1709,0,0
-637,-685,0,0,0,0,0,0,0,0,0,-1,587,1709,0,0
-630,-685,0,0,0,0,0,0,0,0,0,-1,594,1709,0,0
-623,-685,0,0,0,0,0,0,0,0,0,-1,601,1709,0,0
-616,-685,0,0,0,0,0,0,0,0,0,-1,608,1709,0,0
-609,-685,0,0,0,0,0,0,0,0,0,-1,615,1709,0,0
-602,-685,0,0,0,0,0,0,0,0,0,-1,622,1709,0,0
-595,-685,0,0,0,0,0,0,0,0,0,-1,629,1709,0,0
-588,-685,0,0,0,0,0,0,0,0,0,-1,636,1709,0,0
-581,-685,0,0,0,0,0,0,0,0,0,-1,643,1709,0,0
-574,-685,0,0,0,0,0,0,0,0,0,-1,650,1709,0,0
-567,-685,0,0,0,0,0,0,0,0,0,-1,657,1709,0,0
-560,-685,0,0,0,0,0,0,0,0,0,-1,664,1709,0,0
-553,-685,0,0,0,0,0,0,0,0,0,-1,671,1709,0,0
-546,-685,0,0,0,0,0,0,0,0,0,-1,678,1709,0,0
-539,-685,0,0,0,0,0,0,0,0,0,-1,685,1709,0,0
-532,-685,0,0,0,0,0,0,0,0,0,-1,692,1709,0,0
-525,-685,0,0,0,0,0,0,0,0,0,-1,699,1709,0,0
-518,-685,0,0,0,0,0,0,0,0,0,-1,706,1709,0,0
-511,-685,0,0,0,0,0,0,0,0,0,-1,713,1709,0,0
-504,-685,0,0,0,0,0,0,0,0,0,-1,720,1709,0,0
-497,-685,0,0,0,0,0,0,0,0,0,-1,727,1709,0,0
-490,-685,0,0,0,0,0,0,0,0,0,-1,734,1709,0,0
-483,-685,0,0,0,0,0,0,0,0,0,-1,741,1709,0,0
-476,-685,0,0,0,0,0,0,0,0,0,-1,748,1709,0,0
-469,-685,0,0,0,0,0,0,0,0,0,-1,755,1709,0,0
-462,-685,0,0,0,0,0,0,0,0,0,-1,762,1709,0,0
-455,-685,0,0,0,0,0,0,0,0,0,-1,769,1709,0,0
-448,-685,0,0,0,0,0,0,0,0,0,-1,776,1709,0,0
-441,-685,0,0,0,0,0,0,0,0,0,-1,783,1709,0,0
-434,-685,0,0,0,0,0,0,0,0,0,-1,790,1709,0,0
-427,-685,0,0,0,0,0,0,0,0,0,-1,797,1709,0,0
-420,-685,0,0,0,0,0,0,0,0,0,-1,804,1709,0,0
-413,-685,0,0,0,0,0,0,0,0,0,-1,811,1709,0,0
-406,-685,0,0,0,0,0,0,0,0,0,-1,818,1709,0,0
-399,-685,0,0,0,0,0,0,0,0,0,-1,825,1709,0,0
-392,-685,0,0,0,0,0,0,0,0,0,-1,832,1709,0,0
-385,-685,0,0,0,0,0,0,0,0,0,-1,839,1709,0,0
-378,-685,0,0,0,0,0,0,0,0,0,-1,846,1709,0,0
-371,-685,0,0,0,0,0,0,0,0,0,-1,853,1709,0,0
-364,-685,0,0,0,0,0,0,0,0,0,-1,860,1709,0,0
-357,-685,0,0,0,0,0,0,0,0,0,-1,867,1709,0,0
-350,-685,0,0,0,0,0,0,0,0,0,-1,874,1709,0,0
-343,-685,-5.98505,6.56335,0,0,0,0,0,0,0,-1,881,1709,-5.98505,-6.56329
-336,-685,-6.51312,5.10571,0,0,0,0,0,0,0,-1,888,1709,-6.51311,-5.10575
-329,-685,-6.81384,3.34106,0,0,0,0,0,0,0,-1,895,1709,-6.81385,-3.341
-322,-685,3.83191,16.7219,0,0,0,0,0,0,0,-1,902,1709,3.8319,-16.7219
-315,-685,5.15784,21.4388,0,0,0,0,0,0,0,-1,909,1709,5.15783,-21.4389
-308,-685,6.36969,21.0303,0,0,0,0,0,0,0,-1,916,1709,6.36968,-21.0302
-301,-685,7.71271,20.1454,0,0,0,0,0,0,0,-1,923,1709,7.71272,-20.1454
-294,-685,6.82275,25.5354,0,0,0,0,0,0,0,-1,930,1709,6.82275,-25.5354
-287,-685,6.74359,25.6511,0,0,0,0,0,0,0,-1,937,1709,6.74362,-25.6511
-280,-685,6.30353,24.8969,0,0,0,0,0,0,0,-1,944,1709,6.30353,-24.8969
-273,-685,6.37646,25.3661,0.000738255,0.0075514,0.0026809,0.0084798,-0.000190143,1.23742,0.00571763,0.0488355,951,1709,6.37647,-25.3661
-266,-685,6.53375,25.8538,0.000419833,0.0064143,0.00191699,0.00697491,-0.000140779,1.28629,0.00469757,0.0472736,958,1709,6.53376,-25.8538
-259,-685,6.73712,26.4705,-6.72821e-05,0.00584601,0.00122362,0.0060892,-0.000310479,1.3746,0.00416682,0.0431704,965,1709,6.73714,-26.4705
-252,-685,6.50201,26.8467,-0.000852187,0.00567741,0.00071482,0.00575475,-0.000929525,1.46302,0.00418092,0.0351332,972,1709,6.50199,-26.8467
-245,-685,6.46246,27.1831,-0.00169512,0.00507011,0.000327693,0.00508594,-0.00171096,1.52251,0.00408227,0.033843,979,1709,6.46248,-27.1831
-238,-685,6.47046,27.4951,-0.00236097,0.00460395,9.22936e-05,0.00460517,-0.0023622,1.55755,0.0040915,0.0261691,986,1709,6.47045,-27.4952
-231,-685,6.44135,27.7947,-0.0027154,0.00424746,-7.29009e-06,0.00424747,-0.00271541,-1.56975,0.00405233,0.0169137,993,1709,6.44133,-27.7947
-224,-685,6.39117,28.0586,-0.00289393,0.00386759,-4.15677e-05,0.00386784,-0.00289419,-1.56465,0.00391753,0.0150695,1000,1709,6.39116,-28.0586
-217,-685,6.38947,28.3857,-0.00315437,0.0032575,-0.000208597,0.00326428,-0.00316115,-1.53831,0.00370988,0.011428,1007,1709,6.38949,-28.3858
-210,-685,6.38574,28.7134,-0.00284883,0.00289101,9.49353e-06,0.00289102,-0.00284885,1.56914,0.00331394,0.0142321,1014,1709,6.38575,-28.7134
-203,-685,6.36353,29.0321,-0.00228141,0.00276466,0.000326341,0.00278568,-0.00230242,1.50648,0.00294203,0.0148727,1021,1709,6.36347,-29.0321
-196,-685,6.34082,29.3217,-0.00171148,0.00251394,0.000491551,0.00257037,-0.00176791,1.4565,0.00251895,0.0131884,1028,1709,6.34079,-29.3216
-189,-685,6.33142,29.5917,-0.00115244,0.00233839,0.00062763,0.00244781,-0.00126186,1.3982,0.00217795,0.00893277,1035,1709,6.33148,-29.5917
-182,-685,6.31812,29.8773,-0.000610118,0.00226275,0.000683672,0.00241715,-0.000764518,1.34868,0.00191776,0.0129162,1042,1709,6.31813,-29.8773
-175,-685,6.30469,30.1494,9.03808e-05,0.0021842,0.000805601,0.00245828,-0.000183699,1.24286,0.00170339,0.0140334,1049,1709,6.30467,-30.1495
-168,-685,6.3103,30.4231,0.000720136,0.00238867,0.000892847,0.00277636,0.000332446,1.16114,0.00175064,0.0110793,1056,1709,6.31027,-30.4231
-161,-685,6.31616,30.6963,0.001158,0.00276763,0.000891663,0.00316397,0.000761653,1.15252,0.00190683,0.0109443,1063,1709,6.31617,-30.6963
-154,-685,6.33142,30.9697,0.00159946,0.0032454,0.000853455,0.00360804,0.00123683,1.169,0.00211714,0.00987758,1070,1709,6.33141,-30.9698
-147,-685,6.31909,31.1919,0.00196469,0.00393044,0.000732094,0.00417313,0.001722,1.2507,0.00242158,0.00934127,1077,1709,6.31915,-31.1919
-140,-685,6.30518,31.4038,0.00224069,0.00476132,0.000598466,0.00489619,0.00210581,1.34913,0.00283601,0.0119885,1084,1709,6.30519,-31.4038
-133,-685,6.33801,31.6475,0.00246307,0.00551553,0.000465533,0.00558495,0.00239365,1.42277,0.00323542,0.0109585,1091,1709,6.33805,-31.6474
-126,-685,6.35535,31.8827,0.00269889,0.00628737,0.000340432,0.00631938,0.00266688,1.47704,0.00366326,0.00906166,1098,1709,6.35533,-31.8827
-119,-685,6.37146,32.1014,0.00297043,0.00690796,0.000227902,0.00692111,0.00295728,1.51317,0.00400996,0.0126446,1105,1709,6.37142,-32.1014
-112,-685,6.37036,32.3162,0.00320083,0.00722733,7.78449e-05,0.00722883,0.00319932,1.55147,0.00418273,0.0128567,1112,1709,6.37042,-32.3161
-105,-685,6.3584,32.533,0.00343624,0.00753046,5.53238e-05,0.00753121,0.00343549,1.55729,0.00435371,0.0130126,1119,1709,6.35841,-32.533
-98,-685,6.42065,32.7168,0.00358091,0.00772298,-7.03289e-05,0.00772417,0.00357972,-1.55382,0.00446352,0.0171286,1126,1709,6.42067,-32.7168
-91,-685,6.41895,32.8547,0.00378182,0.00733504,-0.000372998,0.00737378,0.00374309,-1.46732,0.00425742,0.0245559,1133,1709,6.41892,-32.8547
-84,-685,6.43005,32.9926,0.00406153,0.0066782,-0.000705763,0.00685642,0.00388331,-1.32345,0.00397017,0.0412629,1140,1709,6.4301,-32.9925
-77,-685,6.46533,33.3184,0,0,0,0,0,0,0,-1,1147,1709,6.46538,-33.3183
-70,-685,6.55933,33.661,0,0,0,0,0,0,0,-1,1154,1709,6.55935,-33.6611
-63,-685,6.03015,29.7728,0,0,0,0,0,0,0,-1,1161,1709,6.0302,-29.7728
-56,-685,3.93909,15.8704,0,0,0,0,0,0,0,-1,1168,1709,3.93905,-15.8704
-49,-685,3.07471,9.86011,0,0,0,0,0,0,0,-1,1175,1709,3.07467,-9.86009
-42,-685,2.70618,7.54504,0,0,0,0,0,0,0,-1,1182,1709,2.7062,-7.54504
-35,-685,2.95264,7.91516,0,0,0,0,0,0,0,-1,1189,1709,2.95262,-7.91517
-28,-685,6.7666,34.4521,0,0,0,0,0,0,0,-1,1196,1709,6.76656,-34.4521
-21,-685,6.95435,34.3364,0,0,0,0,0,0,0,-1,1203,1709,6.95438,-34.3364
-14,-685,6.95483,34.4937,0.0169419,-0.00583901,-0.0094757,0.020368,-0.00926515,-0.346946,0.0175044,0.0289318,1210,1709,6.95488,-34.4936
-7,-685,6.99561,34.6412,0.0171399,-0.00494034,-0.00869471,0.0201526,-0.00795306,-0.333554,0.0167286,0.0398682,1217,1709,6.99556,-34.6413
0,-685,7.22668,34.6687,0.0166485,-0.00303978,-0.00782046,0.0193768,-0.0057681,-0.335668,0.0152096,0.0454567,1224,1709,7.22669,-34.6687
7,-685,7.37256,34.6504,0.0159183,-0.000336486,-0.00685766,0.0184249,-0.00284309,-0.350433,0.0133324,0.0409277,1231,1709,7.37258,-34.6504
14,-685,6.92175,35.4818,0.0150479,0.0030163,-0.00593155,0.0174803,0.000583826,-0.389174,0.0114639,0.0439039,1238,1709,6.92172,-35.4818
21,-685,7.29077,35.3802,0.0141901,0.00670109,-0.00477731,0.0165155,0.00437566,-0.453003,0.00988022,0.0422883,1245,1709,7.29075,-35.3802
28,-685,7.34583,35.4565,0.01325,0.0105394,-0.00370443,0.0158393,0.00795012,-0.610032,0.00914483,0.0411723,1252,1709,7.34586,-35.4565
35,-685,7.49072,35.4176,0.0119459,0.0158469,-0.00224246,0.0168685,0.0109244,-1.14334,0.0098795,0.0420169,1259,1709,7.49068,-35.4176
42,-685,7.59509,35.506,0.00998758,0.021057,-0.000297042,0.021065,0.00997962,-1.54399,0.0121675,0.0471213,1266,1709,7.59513,-35.5059
49,-685,7.47595,35.3724,0.00789341,0.0263522,0.00120655,0.0264307,0.00781488,1.5058,0.0156787,0.0495257,1273,1709,7.47591,-35.3725
56,-685,7.38586,35.3142,0.0055792,0.031928,0.00284023,0.0322306,0.00527652,1.46463,0.0199621,0.0477645,1280,1709,7.38586,-35.3142
63,-685,7.3717,35.1882,0.0029969,0.0364328,0.00375975,0.0368504,0.00257935,1.46019,0.0237539,0.0462832,1287,1709,7.37174,-35.1882
70,-685,7.51074,35.1731,0.000519112,0.0408937,0.00378559,0.0412456,0.000167234,1.47811,0.0274415,0.0456283,1294,1709,7.51077,-35.173
77,-685,7.67432,35.3898,-0.00178634,0.0442168,0.00405298,0.0445712,-0.00214069,1.48359,0.0304528,0.0484389,1301,1709,7.67435,-35.3897
84,-685,7.49939,35.3141,-0.00391573,0.0471189,0.00365777,0.0473797,-0.00417656,1.49961,0.0330667,0.0483928,1308,1709,7.49941,-35.3141
91,-685,7.47461,35.3198,-0.00572653,0.0487991,0.00290865,0.0489538,-0.00588125,1.51765,0.0347625,0.0435653,1315,1709,7.47465,-35.3199
98,-685,7.44751,35.3796,-0.00686457,0.0487953,0.00149695,0.0488356,-0.0069048,1.54393,0.0350859,0.0387956,1322,1709,7.44753,-35.3797
105,-685,7.51135,35.2202,0,0,0,0,0,0,0,-1,1329,1709,7.51134,-35.2203
112,-685,7.66406,34.9344,0,0,0,0,0,0,0,-1,1336,1709,7.66409,-34.9344
119,-685,7.66077,34.8976,0,0,0,0,0,0,0,-1,1343,1709,7.66074,-34.8976
126,-685,8.0238,34.5297,0,0,0,0,0,0,0,-1,1350,1709,8.02381,-34.5296
133,-685,8.13232,34.4504,0,0,0,0,0,0,0,-1,1357,1709,8.13231,-34.4504
140,-685,7.67102,34.6157,-0.00344479,0.043427,-0.00472448,0.0438985,-0.00391625,-1.47133,0.0306546,0.0465495,1364,1709,7.67097,-34.6157
147,-685,8.07446,34.7656,-0.00146785,0.0409218,-0.00552075,0.0416291,-0.00217507,-1.44339,0.0285054,0.0482135,1371,1709,8.07449,-34.7656
154,-685,7.97034,34.6243,0,0,0,0,0,0,0,-1,1378,1709,7.97029,-34.6242
161,-685,8.23816,34.5524,0,0,0,0,0,0,0,-1,1385,1709,8.23814,-34.5523
168,-685,4.37524,10.8778,0,0,0,0,0,0,0,-1,1392,1709,4.37525,-10.8778
175,-685,3.97522,8.94324,0,0,0,0,0,0,0,-1,1399,1709,3.97519,-8.94328
182,-685,3.98218,9.19739,0,0,0,0,0,0,0,-1,1406,1709,3.98221,-9.1974
189,-685,4.53479,15.2343,0,0,0,0,0,0,0,-1,1413,1709,4.53474,-15.2343
196,-685,8.25488,33.9495,0,0,0,0,0,0,0,-1,1420,1709,8.25492,-33.9495
203,-685,8.29651,33.6504,0,0,0,0,0,0,0,-1,1427,1709,8.29651,-33.6504
210,-685,8.52844,33.4479,0,0,0,0,0,0,0,-1,1434,1709,8.5284,-33.4479
217,-685,8.4093,33.1597,0,0,0,0,0,0,0,-1,1441,1709,8.40934,-33.1597
224,-685,8.34167,33.0085,0,0,0,0,0,0,0,-1,1448,1709,8.34167,-33.0086
231,-685,8.43079,32.9237,0.00271249,0.000329081,0.00107644,0.00312668,-8.5104e-05,0.367311,0.00211339,0.0301044,1455,1709,8.43075,-32.9237
238,-685,8.46167,32.6667,0.00226517,0.000139107,0.000561199,0.00240421,6.49597e-08,0.242868,0.00160279,0.0182495,1462,1709,8.46164,-32.6668
245,-685,8.42493,32.4626,0.00190175,0.000115517,0.000233473,0.00193176,8.55045e-05,0.127846,0.00126031,0.0206756,1469,1709,8.42497,-32.4627
252,-685,8.46021,32.2822,0.00181984,-1.32683e-05,6.06653e-05,0.00182185,-1.52738e-05,0.033046,0.00121969,0.0144977,1476,1709,8.46022,-32.2822
259,-685,8.47388,32.1061,0.00187368,0.000118203,-0.000219167,0.00190063,9.1254e-05,-0.122346,0.00123779,0.00977094,1483,1709,8.47389,-32.1061
266,-685,8.48633,31.8994,0.00207716,0.000279015,-0.000546835,0.0022304,0.000125775,-0.273221,0.00144683,0.0115024,1490,1709,8.48631,-31.8994
273,-685,8.47388,31.6445,0.00229754,0.000476069,-0.000757892,0.00257164,0.000201967,-0.347028,0.00165123,0.0146801,1497,1709,8.47392,-31.6445
280,-685,8.46887,31.4153,0.00242978,0.000736117,-0.00098664,0.00288317,0.000282725,-0.430752,0.00183515,0.0163713,1504,1709,8.46889,-31.4153
287,-685,8.49951,31.2178,0.0025048,0.00100912,-0.00118485,0.00315808,0.000355842,-0.503888,0.00199737,0.0117329,1511,1709,8.49947,-31.2178
294,-685,8.50623,30.974,0.00255258,0.00135228,-0.00141078,0.00348556,0.000419306,-0.584291,0.00219731,0.010476,1518,1709,8.50627,-30.974
301,-685,8.4978,30.7194,0.00246245,0.00159646,-0.00162437,0.00371054,0.000348367,-0.655145,0.00236614,0.0124743,1525,1709,8.4978,-30.7193
308,-685,8.49353,30.4629,0.00218942,0.00173786,-0.00183904,0.00381649,0.000110792,-0.724318,0.00250821,0.0138674,1532,1709,8.49356,-30.4629
315,-685,8.5199,30.2136,0.00177549,0.00169282,-0.00191812,0.00365272,-0.000184413,-0.774625,0.00249888,0.0129792,1539,1709,8.51985,-30.2136
322,-685,8.5094,29.9478,0.00134848,0.00165249,-0.00197669,0.00348301,-0.000482049,-0.823772,0.00249824,0.0205111,1546,1709,8.50934,-29.9478
329,-685,8.47205,29.6792,0.000875791,0.00145241,-0.00197699,0.00316201,-0.000833805,-0.857804,0.00243402,0.0192712,1553,1709,8.47204,-29.6792
336,-685,8.45752,29.387,0.000312155,0.00102386,-0.00185168,0.00255357,-0.00121755,-0.880331,0.00222234,0.0136471,1560,1709,8.45754,-29.387
343,-685,8.46082,29.0946,-0.000555154,0.000196035,-0.0014546,0.00132275,-0.00168187,-0.911744,0.00173885,0.0125086,1567,1709,8.46084,-29.0946
350,-685,8.45447,28.8147,-0.0014761,-0.00124885,-0.000545187,-0.000805574,-0.00191938,-0.888138,0.00111291,0.012445,1574,1709,8.45452,-28.8147
357,-685,8.44653,28.5509,-0.00214823,-0.00311882,0.000438511,-0.00197946,-0.00328759,0.367399,0.00191124,0.0100632,1581,1709,8.44652,-28.5509
364,-685,8.42102,28.271,-0.00291596,-0.00544739,0.00167737,-0.00208034,-0.00628301,0.462184,0.00369584,0.0100569,1588,1709,8.42105,-28.271
371,-685,8.41602,27.9597,-0.00374956,-0.00800335,0.00308459,-0.00212968,-0.00962324,0.483568,0.00583658,0.0148509,1595,1709,8.41598,-27.9598
378,-685,8.37854,27.6521,-0.0047811,-0.0113805,0.00496625,-0.00211828,-0.0140433,0.492173,0.0087421,0.0196943,1602,1709,8.37857,-27.652
385,-685,8.31799,27.4373,-0.00583987,-0.015049,0.00706381,-0.0020124,-0.0188765,0.496559,0.0119701,0.035368,1609,1709,8.31804,-27.4372
392,-685,8.07947,27.3092,-0.00707038,-0.0195442,0.00938821,-0.00203621,-0.0245784,0.492204,0.0157508,0.041245,1616,1709,8.07947,-27.3092
399,-685,7.95361,27.4286,-0.00846542,-0.0242827,0.0117503,-0.00221016,-0.030538,0.48919,0.0196634,0.0461914,1623,1709,7.95355,-27.4285
406,-685,8.24463,27.4958,0,0,0,0,0,0,0,-1,1630,1709,8.24465,-27.4958
413,-685,8.25598,27.0946,0,0,0,0,0,0,0,-1,1637,1709,8.25599,-27.0946
420,-685,4.84631,10.3781,0,0,0,0,0,0,0,-1,1644,1709,4.84634,-10.378
427,-685,6.05151,9.21155,0,0,0,0,0,0,0,-1,1651,1709,6.05156,-9.21156
434,-685,4.87769,8.91418,0,0,0,0,0,0,0,-1,1658,1709,4.87768,-8.91413
441,-685,5.62,8.75549,0,0,0,0,0,0,0,-1,1665,1709,5.61996,-8.75545
448,-685,6.4043,8.58972,0,0,0,0,0,0,0,-1,1672,1709,6.40435,-8.58971
455,-685,2.31958,4.09802,0,0,0,0,0,0,0,-1,1679,1709,2.31957,-4.09803
462,-685,0,0,0,0,0,0,0,0,0,-1,1686,1709,0,0
469,-685,0,0,0,0,0,0,0,0,0,-1,1693,1709,0,0
476,-685,0,0,0,0,0,0,0,0,0,-1,1700,1709,0,0
483,-685,0,0,0,0,0,0,0,0,0,-1,1707,1709,0,0
490,-685,0,0,0,0,0,0,0,0,0,-1,1714,1709,0,0
497,-685,0,0,0,0,0,0,0,0,0,-1,1721,1709,0,0
504,-685,0,0,0,0,0,0,0,0,0,-1,1728,1709,0,0
511,-685,0,0,0,0,0,0,0,0,0,-1,1735,1709,0,0
518,-685,0,0,0,0,0,0,0,0,0,-1,1742,1709,0,0
525,-685,0,0,0,0,0,0,0,0,0,-1,1749,1709,0,0
532,-685,0,0,0,0,0,0,0,0,0,-1,1756,1709,0,0
539,-685,0,0,0,0,0,0,0,0,0,-1,1763,1709,0,0
546,-685,0,0,0,0,0,0,0,0,0,-1,1770,1709,0,0
553,-685,0,0,0,0,0,0,0,0,0,-1,1777,1709,0,0
560,-685,0,0,0,0,0,0,0,0,0,-1,1784,1709,0,0
567,-685,0,0,0,0,0,0,0,0,0,-1,1791,1709,0,0
574,-685,0,0,0,0,0,0,0,0,0,-1,1798,1709,0,0
581,-685,0,0,0,0,0,0,0,0,0,-1,1805,1709,0,0
588,-685,0,0,0,0,0,0,0,0,0,-1,1812,1709,0,0
595,-685,0,0,0,0,0,0,0,0,0,-1,1819,1709,0,0
602,-685,0,0,0,0,0,0,0,0,0,-1,1826,1709,0,0
609,-685,0,0,0,0,0,0,0,0,0,-1,1833,1709,0,0
616,-685,0,0,0,0,0,0,0,0,0,-1,1840,1709,0,0
623,-685,0,0,0,0,0,0,0,0,0,-1,1847,1709,0,0
630,-685,0,0,0,0,0,0,0,0,0,-1,1854,1709,0,0
637,-685,0,0,0,0,0,0,0,0,0,-1,1861,1709,0,0
644,-685,0,0,0,0,0,0,0,0,0,-1,1868,1709,0,0
651,-685,0,0,0,0,0,0,0,0,0,-1,1875,1709,0,0
658,-685,0,0,0,0,0,0,0,0,0,-1,1882,1709,0,0
665,-685,0,0,0,0,0,0,0,0,0,-1,1889,1709,0,0
672,-685,0,0,0,0,0,0,0,0,0,-1,1896,1709,0,0
679,-685,0,0,0,0,0,0,0,0,0,-1,1903,1709,0,0
686,-685,0,0,0,0,0,0,0,0,0,-1,1910,1709,0,0
693,-685,0,0,0,0,0,0,0,0,0,-1,1917,1709,0,0
700,-685,0,0,0,0,0,0,0,0,0,-1,1924,1709,0,0
707,-685,0,0,0,0,0,0,0,0,0,-1,1931,1709,0,0
714,-685,0,0,0,0,0,0,0,0,0,-1,1938,1709,0,0
721,-685,0,0,0,0,0,0,0,0,0,-1,1945,1709,0,0
728,-685,0,0,0,0,0,0,0,0,0,-1,1952,1709,0,0
735,-685,0,0,0,0,0,0,0,0,0,-1,1959,1709,0,0
742,-685,0,0,0,0,0,0,0,0,0,-1,1966,1709,0,0
749,-685,0,0,0,0,0,0,0,0,0,-1,1973,1709,0,0
756,-685,0,0,0,0,0,0,0,0,0,-1,1980,1709,0,0
763,-685,0,0,0,0,0,0,0,0,0,-1,1987,1709,0,0
770,-685,0,0,0,0,0,0,0,0,0,-1,1994,1709,0,0
777,-685,0,0,0,0,0,0,0,0,0,-1,2001,1709,0,0
784,-685,0,0,0,0,0,0,0,0,0,-1,2008,1709,0,0
791,-685,0,0,0,0,0,0,0,0,0,-1,2015,1709,0,0
798,-685,0,0,0,0,0,0,0,0,0,-1,2022,1709,0,0
805,-685,0,0,0,0,0,0,0,0,0,-1,2029,1709,0,0
812,-685,0,0,0,0,0,0,0,0,0,-1,2036,1709,0,0
-700,-692,0,0,0,0,0,0,0,0,0,-1,524,1716,0,0
-693,-692,0,0,0,0,0,0,0,0,0,-1,531,1716,0,0
-686,-692,0,0,0,0,0,0,0,0,0,-1,538,1716,0,0
-679,-692,0,0,0,0,0,0,0,0,0,-1,545,1716,0,0
-672,-692,0,0,0,0,0,0,0,0,0,-1,552,1716,0,0
-665,-692,0,0,0,0,0,0,0,0,0,-1,559,1716,0,0
-658,-692,0,0,0,0,0,0,0,0,0,-1,566,1716,0,0
-651,-692,0,0,0,0,0,0,0,0,0,-1,573,1716,0,0
-644,-692,0,0,0,0,0,0,0,0,0,-1,580,1716,0,0
-637,-692,0,0,0,0,0,0,0,0,0,-1,587,1716,0,0
-630,-692,0,0,0,0,0,0,0,0,0,-1,594,1716,0,0
-623,-692,0,0,0,0,0,0,0,0,0,-1,601,1716,0,0
-616,-692,0,0,0,0,0,0,0,0,0,-1,608,1716,0,0
-609,-692,0,0,0,0,0,0,0,0,0,-1,615,1716,0,0
-602,-692,0,0,0,0,0,0,0,0,0,-1,622,1716,0,0
-595,-692,0,0,0,0,0,0,0,0,0,-1,629,1716,0,0
-588,-692,0,0,0,0,0,0,0,0,0,-1,636,1716,0,0
-581,-692,0,0,0,0,0,0,0,0,0,-1,643,1716,0,0
-574,-692,0,0,0,0,0,0,0,0,0,-1,650,1716,0,0
-567,-692,0,0,0,0,0,0,0,0,0,-1,657,1716,0,0
-560,-692,0,0,0,0,0,0,0,0,0,-1,664,1716,0,0
-553,-692,0,0,0,0,0,0,0,0,0,-1,671,1716,0,0
-546,-692,0,0,0,0,0,0,0,0,0,-1,678,1716,0,0
-539,-692,0,0,0,0,0,0,0,0,0,-1,685,1716,0,0
-532,-692,0,0,0,0,0,0,0,0,0,-1,692,1716,0,0
-525,-692,0,0,0,0,0,0,0,0,0,-1,699,1716,0,0
-518,-692,0,0,0,0,0,0,0,0,0,-1,706,1716,0,0
-511,-692,0,0,0,0,0,0,0,0,0,-1,713,1716,0,0
-504,-692,0,0,0,0,0,0,0,0,0,-1,720,1716,0,0
-497,-692,0,0,0,0,0,0,0,0,0,-1,727,1716,0,0
-490,-692,0,0,0,0,0,0,0,0,0,-1,734,1716,0,0
-483,-692,0,0,0,0,0,0,0,0,0,-1,741,1716,0,0
-476,-692,0,0,0,0,0,0,0,0,0,-1,748,1716,0,0
-469,-692,0,0,0,0,0,0,0,0,0,-1,755,1716,0,0
-462,-692,0,0,0,0,0,0,0,0,0,-1,762,1716,0,0
-455,-692,0,0,0,0,0,0,0,0,0,-1,769,1716,0,0
-448,-692,0,0,0,0,0,0,0,0,0,-1,776,1716,0,0
-441,-692,0,0,0,0,0,0,0,0,0,-1,783,1716,0,0
-434,-692,0,0,0,0,0,0,0,0,0,-1,790,1716,0,0
-427,-692,0,0,0,0,0,0,0,0,0,-1,797,1716,0,0
-420,-692,0,0,0,0,0,0,0,0,0,-1,804,1716,0,0
-413,-692,0,0,0,0,0,0,0,0,0,-1,811,1716,0,0
-406,-692,0,0,0,0,0,0,0,0,0,-1,818,1716,0,0
-399,-692,0,0,0,0,0,0,0,0,0,-1,825,1716,0,0
-392,-692,0,0,0,0,0,0,0,0,0,-1,832,1716,0,0
-385,-692,0,0,0,0,0,0,0,0,0,-1,839,1716,0,0
-378,-692,0,0,0,0,0,0,0,0,0,-1,846,1716,0,0
-371,-692,0,0,0,0,0,0,0,0,0,-1,853,1716,0,0
-364,-692,0,0,0,0,0,0,0,0,0,-1,860,1716,0,0
-357,-692,0,0,0,0,0,0,0,0,0,-1,867,1716,0,0
-350,-692,0,0,0,0,0,0,0,0,0,-1,874,1716,0,0
-343,-692,0,0,0,0,0,0,0,0,0,-1,881,1716,0,0
-336,-692,0,0,0,0,0,0,0,0,0,-1,888,1716,0,0
-329,-692,3.03107,4.10266,0,0,0,0,0,0,0,-1,895,1716,3.03105,-4.10267
-322,-692,4.43713,18.5242,0,0,0,0,0,0,0,-1,902,1716,4.43711,-18.5241
-315,-692,5.38965,17.975,0,0,0,0,0,0,0,-1,909,1716,5.38963,-17.975
-308,-692,5.86938,17.4392,0,0,0,0,0,0,0,-1,916,1716,5.86937,-17.4392
-301,-692,8.65558,20.7662,0,0,0,0,0,0,0,-1,923,1716,8.65556,-20.7663
-294,-692,6.66138,19.0796,0,0,0,0,0,0,0,-1,930,1716,6.66141,-19.0796
-287,-692,6.93219,25.9443,0,0,0,0,0,0,0,-1,937,1716,6.93219,-25.9443
-280,-692,7.08832,26.5676,0,0,0,0,0,0,0,-1,944,1716,7.08832,-26.5677
-273,-692,6.69946,25.2336,0,0,0,0,0,0,0,-1,951,1716,6.69944,-25.2336
-266,-692,6.93152,25.7115,0,0,0,0,0,0,0,-1,958,1716,6.93153,-25.7115
-259,-692,7.28607,26.4822,0,0,0,0,0,0,0,-1,965,1716,7.28608,-26.4822
-252,-692,6.84589,26.8423,-0.000905873,0.00832083,0.000819675,0.00839308,-0.000978124,1.48288,0.0059483,0.0497622,972,1716,6.84591,-26.8423
-245,-692,6.84344,27.1759,-0.00225283,0.00731001,0.000353981,0.0073231,-0.00226591,1.53385,0.00578718,0.0483552,979,1716,6.84344,-27.176
-238,-692,6.85883,27.5344,-0.00325329,0.00654931,4.51241e-05,0.00654952,-0.0032535,1.56619,0.00576543,0.0440933,986,1716,6.85882,-27.5344
-231,-692,6.93243,27.8201,-0.00378806,0.00587695,-8.38759e-05,0.00587767,-0.00378879,-1.56212,0.0056242,0.0367589,993,1716,6.93246,-27.8201
-224,-692,6.70624,28.1182,-0.00411605,0.00523746,-0.000132159,0.00523933,-0.00411792,-1.55667,0.00541533,0.0188104,1000,1716,6.70625,-28.1182
-217,-692,6.67249,28.3956,-0.00448982,0.00432668,-0.000307596,0.0043374,-0.00450054,-1.53596,0.00510287,0.0119372,1007,1716,6.67246,-28.3957
-210,-692,6.67841,28.7078,-0.00404665,0.00375105,6.07823e-05,0.00375152,-0.00404713,1.563,0.00450363,0.0120767,1014,1716,6.67838,-28.7078
-203,-692,6.66064,29.0314,-0.00333366,0.00353068,0.000505388,0.00356769,-0.00337067,1.4977,0.0040064,0.0147526,1021,1716,6.66064,-29.0314
-196,-692,6.63855,29.3229,-0.00263659,0.00311578,0.000750258,0.00321203,-0.00273283,1.44321,0.00343598,0.0172715,1028,1716,6.63854,-29.3229
-189,-692,6.60132,29.5768,-0.00193207,0.00281235,0.000971387,0.00300353,-0.00212325,1.37647,0.00297446,0.0088826,1035,1716,6.60127,-29.5768
-182,-692,6.58057,29.8668,-0.00132005,0.00261105,0.0010909,0.00289349,-0.00160249,1.31746,0.00263119,0.0130229,1042,1716,6.58052,-29.8668
-175,-692,6.55933,30.163,-0.000591034,0.00240032,0.00126546,0.00286384,-0.00105455,1.21969,0.00234129,0.0148995,1049,1716,6.55927,-30.1629
-168,-692,6.56567,30.4116,7.60582e-05,0.00246156,0.00140902,0.00311488,-0.000577267,1.13663,0.00229336,0.0118197,1056,1716,6.56567,-30.4116
-161,-692,6.58923,30.677,0.000493222,0.00271014,0.00143431,0.0034144,-0.000211034,1.11437,0.00234977,0.0137416,1063,1716,6.58929,-30.677
-154,-692,6.58289,30.9791,0.000908651,0.00295542,0.00139138,0.00365925,0.000204827,1.10248,0.00237417,0.0147207,1070,1716,6.58292,-30.9791
-147,-692,6.56995,31.2141,0.00125222,0.00342254,0.00125063,0.00399318,0.000681586,1.14274,0.00246652,0.0141048,1077,1716,6.56997,-31.2141
-140,-692,6.55908,31.4291,0.00147176,0.00408595,0.00108232,0.00447589,0.00108183,1.22499,0.00269665,0.0108584,1084,1716,6.55914,-31.4291
-133,-692,6.57068,31.6592,0.00162563,0.00463267,0.000905831,0.00488445,0.00137384,1.29968,0.0029086,0.0101503,1091,1716,6.57067,-31.6592
-126,-692,6.57959,31.8828,0.00179386,0.00515487,0.000739145,0.00531024,0.00163849,1.36361,0.00313989,0.00783896,1098,1716,6.57954,-31.8828
-119,-692,6.59167,32.1117,0.00197984,0.00557621,0.000583619,0.00566855,0.0018875,1.41388,0.00333305,0.0108179,1105,1716,6.59168,-32.1116
-112,-692,6.59509,32.3293,0.00214828,0.00576304,0.000402509,0.00580732,0.00210401,1.46123,0.00339497,0.011044,1112,1716,6.5951,-32.3294
-105,-692,6.60547,32.5354,0.00231683,0.00582688,0.000239915,0.00584321,0.0023005,1.50287,0.00339889,0.0162585,1119,1716,6.60547,-32.5354
-98,-692,6.65234,32.7349,0.00248729,0.00577483,6.1426e-05,0.00577598,0.00248614,1.55212,0.00334551,0.0178917,1126,1716,6.65228,-32.7349
-91,-692,6.63293,32.8979,0.00269876,0.00543051,-0.000176182,0.00544182,0.00268744,-1.50666,0.00314192,0.0193687,1133,1716,6.63297,-32.898
-84,-692,6.63879,33.035,0.00295064,0.00491291,-0.000441796,0.00500779,0.00285576,-1.35925,0.00290075,0.0203549,1140,1716,6.63885,-33.035
-77,-692,6.64563,33.2806,0.00309005,0.00446168,-0.00088748,0.00489746,0.00265428,-1.11436,0.00283087,0.0173245,1147,1716,6.64561,-33.2806
-70,-692,6.71411,33.5396,0.00295495,0.00375429,-0.00134374,0.00475654,0.0019527,-0.929947,0.00276081,0.0331911,1154,1716,6.71411,-33.5396
-63,-692,6.78821,33.7747,0,0,0,0,0,0,0,-1,1161,1716,6.78822,-33.7747
-56,-692,6.70654,33.6844,0,0,0,0,0,0,0,-1,1168,1716,6.70656,-33.6845
-49,-692,6.71838,33.8389,0,0,0,0,0,0,0,-1,1175,1716,6.71835,-33.8389
-42,-692,6.7832,34.1654,0,0,0,0,0,0,0,-1,1182,1716,6.7832,-34.1654
-35,-692,6.82019,34.2908,0,0,0,0,0,0,0,-1,1189,1716,6.82024,-34.2907
-28,-692,6.84692,34.3906,0.0111354,0.0019524,-0.00328978,0.0121923,0.000895484,-0.310856,0.00784675,0.0483604,1196,1716,6.84698,-34.3906
-21,-692,6.95496,34.3303,0.0113808,0.000547553,-0.00370072,0.0125243,-0.000595939,-0.299686,0.00855508,0.0334284,1203,1716,6.95495,-34.3304
-14,-692,6.97607,34.4229,0.0119211,-0.000398858,-0.0040913,0.013156,-0.00163375,-0.293138,0.00936286,0.0164538,1210,1716,6.97612,-34.4228
-7,-692,7.00635,34.5862,0.0122758,0.000464166,-0.00365884,0.0133174,-0.000577375,-0.277328,0.00907681,0.014946,1217,1716,7.00631,-34.5862
0,-692,7.04944,34.6593,0.0120737,0.00199328,-0.00318247,0.0129944,0.00107263,-0.2816,0.00832841,0.0185973,1224,1716,7.04942,-34.6593
7,-692,7.09241,34.6989,0.0116804,0.00404774,-0.00259924,0.0124815,0.00324667,-0.298959,0.00747752,0.0219492,1231,1716,7.09239,-34.6988
14,-692,7.15649,34.9091,0.011211,0.0063724,-0.00205327,0.0119648,0.00561854,-0.351871,0.00691216,0.0254254,1238,1716,7.15655,-34.909
21,-692,7.25513,35.0378,0.0107325,0.00876241,-0.00124794,0.0113373,0.00815759,-0.451293,0.00675265,0.027181,1245,1716,7.25507,-35.0379
28,-692,7.2876,35.0104,0.0100395,0.0113512,-0.000582755,0.0115727,0.00981797,-1.20757,0.00720183,0.0279668,1252,1716,7.28756,-35.0104
35,-692,7.30957,35.0367,0.00901434,0.0150763,0.000337994,0.0150951,0.00899556,1.51527,0.00876846,0.0266901,1259,1716,7.30961,-35.0367
42,-692,7.36938,35.135,0.00751825,0.0186578,0.00168622,0.0189074,0.0072686,1.42381,0.011013,0.023387,1266,1716,7.36935,-35.135
49,-692,7.43665,35.1854,0.00584291,0.0223495,0.00268504,0.0227753,0.00541713,1.41353,0.0137386,0.0282494,1273,1716,7.43664,-35.1855
56,-692,7.39954,35.1285,0.00402186,0.0263,0.00377155,0.0269211,0.00340068,1.40756,0.0169281,0.0374229,1280,1716,7.3996,-35.1285
63,-692,7.39063,35.0793,0.00202942,0.029477,0.00432486,0.0301423,0.00136409,1.41815,0.019656,0.0368004,1287,1716,7.39057,-35.0793
70,-692,7.50732,35.1853,3.11321e-05,0.0326146,0.00421768,0.0331517,-0.00050596,1.44414,0.0222717,0.0312722,1294,1716,7.50735,-35.1853
77,-692,7.59326,35.2408,-0.00186357,0.0347947,0.0043688,0.0353081,-0.00237703,1.4538,0.0243698,0.0351403,1301,1716,7.59327,-35.2409
84,-692,7.60193,35.1306,-0.00351604,0.0366959,0.0039776,0.0370856,-0.00390571,1.47314,0.0261231,0.0422563,1308,1716,7.60192,-35.1306
91,-692,7.64758,35.0646,-0.0048275,0.0375958,0.003309,0.0378523,-0.00508405,1.49342,0.0270891,0.03846,1315,1716,7.64764,-35.0645
98,-692,7.65552,34.8431,0,0,0,0,0,0,0,-1,1322,1716,7.65558,-34.8432
105,-692,7.77466,34.6312,0,0,0,0,0,0,0,-1,1329,1716,7.7746,-34.6312
112,-692,7.77344,34.806,-0.00564466,0.0354678,-0.000496434,0.0354738,-0.00565065,-1.55872,0.0257403,0.0427686,1336,1716,7.7734,-34.806
119,-692,7.80432,34.7255,-0.00501799,0.0340561,-0.00165276,0.0341259,-0.00508777,-1.5286,0.0246224,0.0345448,1343,1716,7.80431,-34.7255
126,-692,7.86157,34.6746,-0.00392643,0.0324105,-0.00274713,0.032617,-0.00413295,-1.49576,0.0232451,0.0343363,1350,1716,7.86161,-34.6746
133,-692,7.92737,34.6422,-0.00242649,0.0303465,-0.00316347,0.0306491,-0.00272906,-1.47544,0.0214005,0.0271143,1357,1716,7.92738,-34.6422
140,-692,7.89294,34.668,-0.000625289,0.0265462,-0.00377817,0.0270617,-0.00114086,-1.43517,0.0184332,0.0300651,1364,1716,7.89295,-34.668
147,-692,7.94043,34.6169,0.00149949,0.0228572,-0.00480962,0.0238903,0.000466367,-1.35921,0.0157737,0.0335196,1371,1716,7.94037,-34.617
154,-692,7.89209,34.4872,0.00334966,0.0191668,-0.0042089,0.0202171,0.00229942,-1.32626,0.0127807,0.0279762,1378,1716,7.89204,-34.4872
161,-692,8.06238,34.4293,0.0051621,0.0150971,-0.00338565,0.0161412,0.00411805,-1.27168,0.00968449,0.0375239,1385,1716,8.06232,-34.4293
168,-692,8.0448,34.254,0,0,0,0,0,0,0,-1,1392,1716,8.04483,-34.254
175,-692,8.13245,34.1116,0,0,0,0,0,0,0,-1,1399,1716,8.1325,-34.1116
182,-692,8.1189,33.9408,0,0,0,0,0,0,0,-1,1406,1716,8.11887,-33.9408
189,-692,8.13293,33.8529,0,0,0,0,0,0,0,-1,1413,1716,8.13299,-33.8529
196,-692,8.12341,33.714,0.00506769,0.002646,0.00187415,0.00608812,0.00162558,0.498592,0.00363996,0.0370737,1420,1716,8.12339,-33.714
203,-692,8.15173,33.5594,0.00361476,0.00121982,0.00166019,0.00446428,0.0003703,0.472964,0.00286075,0.0237024,1427,1716,8.15168,-33.5595
210,-692,8.24805,33.4276,0.00309925,0.000951932,0.0016395,0.00398536,6.58236e-05,0.495502,0.00263524,0.019156,1434,1716,8.2481,-33.4276
217,-692,8.20886,33.2173,0.00256237,0.000451962,0.00132247,0.00319903,-0.000184692,0.448667,0.00219684,0.017087,1441,1716,8.2089,-33.2172
224,-692,8.21008,33.0481,0.00226472,0.00037311,0.00116527,0.00281972,-0.000181885,0.444493,0.00194328,0.0128807,1448,1716,8.21013,-33.0481
231,-692,8.24048,32.8949,0.00200543,0.000328708,0.00078183,0.00231341,2.07239e-05,0.375261,0.00153541,0.0111049,1455,1716,8.24042,-32.8949
238,-692,8.24451,32.6348,0.00167964,0.000229693,0.000374139,0.00177049,0.000138844,0.238212,0.00113687,0.0167689,1462,1716,8.24456,-32.6348
245,-692,8.20361,32.4302,0.00145349,0.00021713,6.2794e-05,0.00145667,0.000213949,0.0506157,0.000908239,0.0197025,1469,1716,8.20359,-32.4301
252,-692,8.23755,32.2955,0.00140861,0.000156184,-0.000160534,0.00142886,0.000135934,-0.125476,0.000910649,0.0174858,1476,1716,8.2375,-32.2955
259,-692,8.25476,32.1061,0.00149315,0.00025557,-0.000435559,0.00163107,0.000117649,-0.306665,0.00105037,0.00910634,1483,1716,8.25481,-32.106
266,-692,8.25745,31.9043,0.00169653,0.00038395,-0.000736213,0.00202651,5.39719e-05,-0.421365,0.00133338,0.00949493,1490,1716,8.25749,-31.9043
273,-692,8.24768,31.6478,0.00194234,0.000639289,-0.000984123,0.00247106,0.000110566,-0.493004,0.00161178,0.0144196,1497,1716,8.24772,-31.6478
280,-692,8.25171,31.4081,0.00212093,0.000934455,-0.00125995,0.00292031,0.000135069,-0.565373,0.00190345,0.0144036,1504,1716,8.25174,-31.4081
287,-692,8.26428,31.2178,0.00226698,0.00131187,-0.00152614,0.00338853,0.000190315,-0.633766,0.00219833,0.0115932,1511,1716,8.26425,-31.2178
294,-692,8.25891,30.979,0.00239298,0.00174597,-0.00180345,0.00390171,0.000237237,-0.696652,0.00252578,0.0106913,1518,1716,8.25889,-30.979
301,-692,8.25427,30.7252,0.0023852,0.00202753,-0.00205546,0.00426959,0.000143144,-0.742006,0.0027999,0.012197,1525,1716,8.25431,-30.7252
308,-692,8.23315,30.475,0.00213771,0.00219881,-0.00235302,0.00452148,-0.000184957,-0.791889,0.00307782,0.0152485,1532,1716,8.23313,-30.475
315,-692,8.25854,30.235,0.00171089,0.00223579,-0.00251786,0.00450484,-0.000558155,-0.837328,0.00320552,0.0147706,1539,1716,8.25852,-30.235
322,-692,8.2179,29.9406,0.00127386,0.00221259,-0.00264088,0.00442549,-0.000939038,-0.873345,0.00330807,0.0201153,1546,1716,8.21796,-29.9405
329,-692,8.17834,29.6396,0.000763399,0.00199665,-0.00266131,0.00411184,-0.00135179,-0.899239,0.00328586,0.017863,1553,1716,8.17841,-29.6397
336,-692,8.18396,29.3761,0.000142347,0.00147929,-0.0025441,0.00344127,-0.00181963,-0.913871,0.00308511,0.0126587,1560,1716,8.18398,-29.376
343,-692,8.19727,29.1261,-0.000917959,0.000429838,-0.00210491,0.00196609,-0.00245422,-0.94032,0.00255725,0.013295,1567,1716,8.19723,-29.1261
350,-692,8.19788,28.8524,-0.00207624,-0.00133991,-0.000955238,-0.000684346,-0.00273181,-0.969334,0.00164136,0.0142214,1574,1716,8.19792,-28.8525
357,-692,8.17542,28.5377,-0.00284259,-0.00363936,0.000348398,-0.00271174,-0.00377022,0.359281,0.00224541,0.0182786,1581,1716,8.17547,-28.5378
364,-692,8.14368,28.223,-0.00373689,-0.00650846,0.00196479,-0.00271834,-0.007527,0.478257,0.00440122,0.0243827,1588,1716,8.14371,-28.223
371,-692,8.10168,27.9557,-0.00477564,-0.00977705,0.00385704,-0.00267958,-0.0118731,0.497792,0.00719061,0.0360485,1595,1716,8.10164,-27.9556
378,-692,8.11511,27.6343,0,0,0,0,0,0,0,-1,1602,1716,8.11515,-27.6343
385,-692,7.97961,27.5813,0,0,0,0,0,0,0,-1,1609,1716,7.97963,-27.5812
392,-692,7.35962,27.4194,0,0,0,0,0,0,0,-1,1616,1716,7.35966,-27.4195
399,-692,7.33923,27.7915,0,0,0,0,0,0,0,-1,1623,1716,7.3392,-27.7915
406,-692,7.84009,28.0695,0,0,0,0,0,0,0,-1,1630,1716,7.8401,-28.0694
413,-692,4.25085,10.5685,0,0,0,0,0,0,0,-1,1637,1716,4.2508,-10.5685
420,-692,5.48901,10.4845,0,0,0,0,0,0,0,-1,1644,1716,5.48906,-10.4845
427,-692,3.79578,8.60339,0,0,0,0,0,0,0,-1,1651,1716,3.79577,-8.6034
434,-692,4.78516,8.64636,0,0,0,0,0,0,0,-1,1658,1716,4.78512,-8.64634
441,-692,5.8208,8.74036,0,0,0,0,0,0,0,-1,1665,1716,5.82084,-8.7404
448,-692,6.73792,8.51013,0,0,0,0,0,0,0,-1,1672,1716,6.73793,-8.5101
455,-692,0,0,0,0,0,0,0,0,0,-1,1679,1716,0,0
462,-692,0,0,0,0,0,0,0,0,0,-1,1686,1716,0,0
469,-692,0,0,0,0,0,0,0,0,0,-1,1693,1716,0,0
476,-692,0,0,0,0,0,0,0,0,0,-1,1700,1716,0,0
483,-692,0,0,0,0,0,0,0,0,0,-1,1707,1716,0,0
490,-692,0,0,0,0,0,0,0,0,0,-1,1714,1716,0,0
497,-692,0,0,0,0,0,0,0,0,0,-1,1721,1716,0,0
504,-692,0,0,0,0,0,0,0,0,0,-1,1728,1716,0,0
511,-692,0,0,0,0,0,0,0,0,0,-1,1735,1716,0,0
518,-692,0,0,0,0,0,0,0,0,0,-1,1742,1716,0,0
525,-692,0,0,0,0,0,0,0,0,0,-1,1749,1716,0,0
532,-692,0,0,0,0,0,0,0,0,0,-1,1756,1716,0,0
539,-692,0,0,0,0,0,0,0,0,0,-1,1763,1716,0,0
546,-692,0,0,0,0,0,0,0,0,0,-1,1770,1716,0,0
553,-692,0,0,0,0,0,0,0,0,0,-1,1777,1716,0,0
560,-692,0,0,0,0,0,0,0,0,0,-1,1784,1716,0,0
567,-692,0,0,0,0,0,0,0,0,0,-1,1791,1716,0,0
574,-692,0,0,0,0,0,0,0,0,0,-1,1798,1716,0,0
581,-692,0,0,0,0,0,0,0,0,0,-1,1805,1716,0,0
588,-692,0,0,0,0,0,0,0,0,0,-1,1812,1716,0,0
595,-692,0,0,0,0,0,0,0,0,0,-1,1819,1716,0,0
602,-692,0,0,0,0,0,0,0,0,0,-1,1826,1716,0,0
609,-692,0,0,0,0,0,0,0,0,0,-1,1833,1716,0,0
616,-692,0,0,0,0,0,0,0,0,0,-1,1840,1716,0,0
623,-692,0,0,0,0,0,0,0,0,0,-1,1847,1716,0,0
630,-692,0,0,0,0,0,0,0,0,0,-1,1854,1716,0,0
637,-692,0,0,0,0,0,0,0,0,0,-1,1861,1716,0,0
644,-692,0,0,0,0,0,0,0,0,0,-1,1868,1716,0,0
651,-692,0,0,0,0,0,0,0,0,0,-1,1875,1716,0,0
658,-692,0,0,0,0,0,0,0,0,0,-1,1882,1716,0,0
665,-692,0,0,0,0,0,0,0,0,0,-1,1889,1716,0,0
672,-692,0,0,0,0,0,0,0,0,0,-1,1896,1716,0,0
679,-692,0,0,0,0,0,0,0,0,0,-1,1903,1716,0,0
686,-692,0,0,0,0,0,0,0,0,0,-1,1910,1716,0,0
693,-692,0,0,0,0,0,0,0,0,0,-1,1917,1716,0,0
700,-692,0,0,0,0,0,0,0,0,0,-1,1924,1716,0,0
707,-692,0,0,0,0,0,0,0,0,0,-1,1931,1716,0,0
714,-692,0,0,0,0,0,0,0,0,0,-1,1938,1716,0,0
721,-692,0,0,0,0,0,0,0,0,0,-1,1945,1716,0,0
728,-692,0,0,0,0,0,0,0,0,0,-1,1952,1716,0,0
735,-692,0,0,0,0,0,0,0,0,0,-1,1959,1716,0,0
742,-692,0,0,0,0,0,0,0,0,0,-1,1966,1716,0,0
749,-692,0,0,0,0,0,0,0,0,0,-1,1973,1716,0,0
756,-692,0,0,0,0,0,0,0,0,0,-1,1980,1716,0,0
763,-692,0,0,0,0,0,0,0,0,0,-1,1987,1716,0,0
770,-692,0,0,0,0,0,0,0,0,0,-1,1994,1716,0,0
777,-692,0,0,0,0,0,0,0,0,0,-1,2001,1716,0,0
784,-692,0,0,0,0,0,0,0,0,0,-1,2008,1716,0,0
791,-692,0,0,0,0,0,0,0,0,0,-1,2015,1716,0,0
798,-692,0,0,0,0,0,0,0,0,0,-1,2022,1716,0,0
805,-692,0,0,0,0,0,0,0,0,0,-1,2029,1716,0,0
812,-692,0,0,0,0,0,0,0,0,0,-1,2036,1716,0,0
-700,-699,0,0,0,0,0,0,0,0,0,-1,524,1723,0,0
-693,-699,0,0,0,0,0,0,0,0,0,-1,531,1723,0,0
-686,-699,0,0,0,0,0,0,0,0,0,-1,538,1723,0,0
-679,-699,0,0,0,0,0,0,0,0,0,-1,545,1723,0,0
-672,-699,0,0,0,0,0,0,0,0,0,-1,552,1723,0,0
-665,-699,0,0,0,0,0,0,0,0,0,-1,559,1723,0,0
-658,-699,0,0,0,0,0,0,0,0,0,-1,566,1723,0,0
-651,-699,0,0,0,0,0,0,0,0,0,-1,573,1723,0,0
-644,-699,0,0,0,0,0,0,0,0,0,-1,580,1723,0,0
-637,-699,0,0,0,0,0,0,0,0,0,-1,587,1723,0,0
-630,-699,0,0,0,0,0,0,0,0,0,-1,594,1723,0,0
-623,-699,0,0,0,0,0,0,0,0,0,-1,601,1723,0,0
-616,-699,0,0,0,0,0,0,0,0,0,-1,608,1723,0,0
-609,-699,0,0,0,0,0,0,0,0,0,-1,615,1723,0,0
-602,-699,0,0,0,0,0,0,0,0,0,-1,622,1723,0,0
-595,-699,0,0,0,0,0,0,0,0,0,-1,629,1723,0,0
-588,-699,0,0,0,0,0,0,0,0,0,-1,636,1723,0,0
-581,-699,0,0,0,0,0,0,0,0,0,-1,643,1723,0,0
-574,-699,0,0,0,0,0,0,0,0,0,-1,650,1723,0,0
-567,-699,0,0,0,0,0,0,0,0,0,-1,657,1723,0,0
-560,-699,0,0,0,0,0,0,0,0,0,-1,664,1723,0,0
-553,-699,0,0,0,0,0,0,0,0,0,-1,671,1723,0,0
-546,-699,0,0,0,0,0,0,0,0,0,-1,678,1723,0,0
-539,-699,0,0,0,0,0,0,0,0,0,-1,685,1723,0,0
-532,-699,0,0,0,0,0,0,0,0,0,-1,692,1723,0,0
-525,-699,0,0,0,0,0,0,0,0,0,-1,699,1723,0,0
-518,-699,0,0,0,0,0,0,0,0,0,-1,706,1723,0,0
-511,-699,0,0,0,0,0,0,0,0,0,-1,713,1723,0,0
-504,-699,0,0,0,0,0,0,0,0,0,-1,720,1723,0,0
-497,-699,0,0,0,0,0,0,0,0,0,-1,727,1723,0,0
-490,-699,0,0,0,0,0,0,0,0,0,-1,734,1723,0,0
-483,-699,0,0,0,0,0,0,0,0,0,-1,741,1723,0,0
-476,-699,0,0,0,0,0,0,0,0,0,-1,748,1723,0,0
-469,-699,0,0,0,0,0,0,0,0,0,-1,755,1723,0,0
-462,-699,0,0,0,0,0,0,0,0,0,-1,762,1723,0,0
-455,-699,0,0,0,0,0,0,0,0,0,-1,769,1723,0,0
-448,-699,0,0,0,0,0,0,0,0,0,-1,776,1723,0,0
-441,-699,0,0,0,0,0,0,0,0,0,-1,783,1723,0,0
-434,-699,0,0,0,0,0,0,0,0,0,-1,790,1723,0,0
-427,-699,0,0,0,0,0,0,0,0,0,-1,797,1723,0,0
-420,-699,0,0,0,0,0,0,0,0,0,-1,804,1723,0,0
-413,-699,0,0,0,0,0,0,0,0,0,-1,811,1723,0,0
-406,-699,0,0,0,0,0,0,0,0,0,-1,818,1723,0,0
-399,-699,0,0,0,0,0,0,0,0,0,-1,825,1723,0,0
-392,-699,0,0,0,0,0,0,0,0,0,-1,832,1723,0,0
-385,-699,0,0,0,0,0,0,0,0,0,-1,839,1723,0,0
-378,-699,0,0,0,0,0,0,0,0,0,-1,846,1723,0,0
-371,-699,0,0,0,0,0,0,0,0,0,-1,853,1723,0,0
-364,-699,0,0,0,0,0,0,0,0,0,-1,860,1723,0,0
-357,-699,0,0,0,0,0,0,0,0,0,-1,867,1723,0,0
-350,-699,0,0,0,0,0,0,0,0,0,-1,874,1723,0,0
-343,-699,0,0,0,0,0,0,0,0,0,-1,881,1723,0,0
-336,-699,0,0,0,0,0,0,0,0,0,-1,888,1723,0,0
-329,-699,0,0,0,0,0,0,0,0,0,-1,895,1723,0,0
-322,-699,0,0,0,0,0,0,0,0,0,-1,902,1723,0,0
-315,-699,6.20001,19.5193,0,0,0,0,0,0,0,-1,909,1723,6.20001,-19.5193
-308,-699,6.98151,18.9218,0,0,0,0,0,0,0,-1,916,1723,6.98151,-18.9217
-301,-699,4.72729,12.8752,0,0,0,0,0,0,0,-1,923,1723,4.72732,-12.8752
-294,-699,6.90332,19.8601,0,0,0,0,0,0,0,-1,930,1723,6.90332,-19.8601
-287,-699,7.09802,22.7235,0,0,0,0,0,0,0,-1,937,1723,7.09805,-22.7235
-280,-699,7.50189,27.2051,0,0,0,0,0,0,0,-1,944,1723,7.50189,-27.2051
-273,-699,8.39404,27.785,0,0,0,0,0,0,0,-1,951,1723,8.39406,-27.785
-266,-699,6.81915,20.8951,0,0,0,0,0,0,0,-1,958,1723,6.81914,-20.8952
-259,-699,5.39758,14.5466,0,0,0,0,0,0,0,-1,965,1723,5.39759,-14.5466
-252,-699,7.30695,26.8383,0,0,0,0,0,0,0,-1,972,1723,7.30697,-26.8382
-245,-699,7.30707,27.2363,0,0,0,0,0,0,0,-1,979,1723,7.30708,-27.2363
-238,-699,7.23126,27.6458,0,0,0,0,0,0,0,-1,986,1723,7.23127,-27.6457
-231,-699,7.28638,27.6179,-0.00504691,0.0083026,-8.23732e-05,0.00830311,-0.00504741,-1.56463,0.00778395,0.0417714,993,1723,7.28637,-27.6179
-224,-699,7.14453,28.0353,-0.00554943,0.00736017,-0.000104631,0.00736102,-0.00555028,-1.56269,0.00747874,0.0376814,1000,1723,7.14454,-28.0353
-217,-699,7.05383,28.368,-0.00606245,0.00613274,-0.00027023,0.00613873,-0.00606843,-1.54865,0.00704785,0.0269584,1007,1723,7.05381,-28.3681
-210,-699,7.01263,28.7345,-0.00535917,0.00524606,0.000292029,0.00525409,-0.0053672,1.54329,0.00613232,0.0181738,1014,1723,7.01265,-28.7345
-203,-699,6.9657,29.011,-0.00438304,0.00483152,0.000866704,0.00491233,-0.00446385,1.47782,0.0054154,0.0222451,1021,1723,6.96566,-29.011
-196,-699,6.92566,29.277,-0.0034762,0.0041338,0.00118617,0.00431441,-0.0036568,1.4197,0.0046074,0.017683,1028,1723,6.9257,-29.277
-189,-699,6.87793,29.5898,-0.00253945,0.00362435,0.00148476,0.00396336,-0.00287846,1.34632,0.00396664,0.00892195,1035,1723,6.87797,-29.5899
-182,-699,6.85083,29.8789,-0.00181603,0.00322589,0.00163636,0.00371041,-0.00230055,1.28292,0.0035021,0.0114503,1042,1723,6.85089,-29.879
-175,-699,6.83167,30.1676,-0.00103545,0.00283032,0.00184078,0.00356662,-0.00177174,1.1903,0.00313964,0.0133755,1049,1723,6.83161,-30.1676
-168,-699,6.84497,30.4156,-0.000307732,0.00269415,0.00201894,0.00370894,-0.00132253,1.10504,0.00301187,0.0144734,1056,1723,6.84497,-30.4157
-161,-699,6.84863,30.6788,0.000107052,0.00278005,0.00204717,0.00388836,-0.00100127,1.07459,0.00298256,0.0136647,1063,1723,6.84859,-30.6788
-154,-699,6.82397,30.9774,0.000502331,0.00276955,0.00198229,0.00391947,-0.000647594,1.04514,0.00285345,0.0139861,1070,1723,6.82402,-30.9774
-147,-699,6.80298,31.2123,0.000818465,0.00303572,0.00181264,0.00405188,-0.000197698,1.05985,0.00276951,0.0150959,1077,1723,6.80299,-31.2122
-140,-699,6.79016,31.4381,0.000969874,0.00358215,0.00160156,0.00434265,0.000209377,1.12747,0.00282789,0.0104128,1084,1723,6.79015,-31.4381
-133,-699,6.79358,31.6757,0.00102433,0.00397863,0.0013894,0.00452939,0.000473568,1.1934,0.00287477,0.00964948,1091,1723,6.79352,-31.6756
-126,-699,6.80432,31.8882,0.00108293,0.00433127,0.00118811,0.00471945,0.000694755,1.25501,0.00294218,0.011169,1098,1723,6.8043,-31.8882
-119,-699,6.82202,32.1194,0.00115719,0.00459223,0.000994093,0.00485918,0.000890247,1.30846,0.00298725,0.0155666,1105,1723,6.82202,-32.1194
-112,-699,6.80103,32.3442,0.00124402,0.00469406,0.00078417,0.00486393,0.00107415,1.35747,0.00295048,0.0113907,1112,1723,6.80108,-32.3442
-105,-699,6.79309,32.5536,0.00128552,0.00461233,0.000507731,0.00468809,0.00120976,1.42267,0.00281032,0.0121687,1119,1723,6.79311,-32.5536
-98,-699,6.83582,32.7407,0.00143974,0.00441741,0.0003074,0.00444881,0.00140834,1.46899,0.00262551,0.0138191,1126,1723,6.83583,-32.7407
-91,-699,6.84521,32.8973,0.00167743,0.00413794,0.000125204,0.0041443,0.00167107,1.52009,0.00240761,0.0187153,1133,1723,6.84527,-32.8974
-84,-699,6.83179,33.0691,0.00192135,0.00372831,-9.12016e-05,0.00373291,0.00191676,-1.52049,0.00215545,0.0219613,1140,1723,6.83176,-33.0691
-77,-699,6.83948,33.2604,0.0021095,0.00339646,-0.000433368,0.00352879,0.00197718,-1.27445,0.00204228,0.0164012,1147,1723,6.83947,-33.2604
-70,-699,6.87305,33.4219,0.00214108,0.00287203,-0.000778135,0.00336624,0.00164686,-1.00495,0.00194365,0.0170505,1154,1723,6.87302,-33.4219
-63,-699,6.89478,33.597,0.00296811,0.00293154,-0.000762494,0.00371254,0.00218711,-0.773413,0.00215475,0.0137216,1161,1723,6.89473,-33.5971
-56,-699,6.86804,33.7344,0.00422649,0.00349837,-0.000598096,0.00456261,0.00316224,-0.512002,0.0026989,0.0102499,1168,1723,6.86809,-33.7344
-49,-699,6.87512,33.8811,0.00529298,0.00323913,-0.000649129,0.00548094,0.00305117,-0.281848,0.00317119,0.0229248,1175,1723,6.87506,-33.8811
-42,-699,6.92126,34.0784,0.00634333,0.00363078,-0.000269783,0.00636991,0.00360421,-0.0981757,0.00368827,0.0270945,1182,1723,6.92129,-34.0783
-35,-699,6.93616,34.1899,0.00716264,0.00356295,-0.000154367,0.00716925,0.00355634,-0.0427787,0.00413921,0.0248982,1189,1723,6.93615,-34.19
-28,-699,6.99976,34.2821,0.00780484,0.00397901,-0.000383227,0.00784285,0.003941,-0.0988595,0.00452809,0.020512,1196,1723,6.99979,-34.2821
-21,-699,6.99866,34.3313,0.00812965,0.00358811,-0.000471125,0.00817801,0.00353975,-0.102286,0.00473575,0.01398,1203,1723,6.99868,-34.3312
-14,-699,7.01892,34.444,0.00858193,0.00325112,-0.000735391,0.00868152,0.00315153,-0.134602,0.00507459,0.0115622,1210,1723,7.01889,-34.444
-7,-699,7.0509,34.5629,0.00895479,0.00399627,-0.000450701,0.00899542,0.00395564,-0.0899125,0.00520607,0.00814741,1217,1723,7.05092,-34.5628
0,-699,7.08423,34.6598,0.00891699,0.00520168,-0.000162275,0.00892407,0.00519461,-0.0435668,0.00517541,0.00987845,1224,1723,7.08417,-34.6598
7,-699,7.12915,34.7119,0.00869176,0.00679016,0.000154415,0.00870422,0.0067777,0.0804997,0.00527914,0.0149449,1231,1723,7.1291,-34.7119
14,-699,7.17932,34.7906,0.00840964,0.00844505,0.000394811,0.00882255,0.00803214,0.807808,0.00563673,0.0162961,1238,1723,7.17932,-34.7907
21,-699,7.2301,34.8318,0.00811904,0.01003,0.000825988,0.0103376,0.00781151,1.21438,0.006223,0.016881,1245,1723,7.23006,-34.8318
28,-699,7.2688,34.8495,0.00777675,0.0117952,0.00112945,0.0120909,0.00748106,1.31474,0.00704597,0.0161514,1252,1723,7.26884,-34.8495
35,-699,7.2854,34.9216,0.00719292,0.0140826,0.00156916,0.0144231,0.00685237,1.35708,0.00833064,0.0139406,1259,1723,7.28541,-34.9216
42,-699,7.34277,34.9907,0.00622348,0.0162538,0.00237692,0.0167885,0.00568872,1.3495,0.00985924,0.0123897,1266,1723,7.34274,-34.9908
49,-699,7.38232,35.0408,0.00511778,0.018498,0.00293147,0.0191121,0.00450371,1.36431,0.011537,0.0143268,1273,1723,7.38236,-35.0407
56,-699,7.41919,35.0549,0.00406129,0.0208525,0.00350422,0.0215545,0.00335933,1.37309,0.0133911,0.0159413,1280,1723,7.41924,-35.0549
63,-699,7.44678,35.0332,0.00290129,0.0226867,0.00379278,0.0233889,0.00219915,1.38774,0.0149137,0.013589,1287,1723,7.44677,-35.0333
70,-699,7.48547,35.0311,0.00164575,0.0243928,0.00371248,0.0249834,0.00105518,1.41304,0.0163152,0.0112684,1294,1723,7.48548,-35.0311
77,-699,7.5033,35.0304,0.000471426,0.0253857,0.00383579,0.0259629,-0.000105758,1.42144,0.0173439,0.0108388,1301,1723,7.50325,-35.0304
84,-699,7.52246,35.0073,-0.000543863,0.0262616,0.00360711,0.0267385,-0.00102077,1.43934,0.0181755,0.0133263,1308,1723,7.52245,-35.0074
91,-699,7.56775,34.9865,-0.00129662,0.0265469,0.00323346,0.0269175,-0.00166718,1.45669,0.0185257,0.0133239,1315,1723,7.56781,-34.9864
98,-699,7.60986,34.9766,-0.00168597,0.0258757,0.0024301,0.0260884,-0.00189859,1.48352,0.0180584,0.0120619,1322,1723,7.60991,-34.9766
105,-699,7.66089,34.9738,-0.00172946,0.0249775,0.00158749,0.0250715,-0.0018235,1.51163,0.0173541,0.0160117,1329,1723,7.66094,-34.9737
112,-699,7.7002,34.9017,-0.00141911,0.0237686,0.00076844,0.023792,-0.00144253,1.54033,0.0163634,0.020919,1336,1723,7.70023,-34.9017
119,-699,7.69714,34.8198,-0.000884687,0.0223344,6.00598e-05,0.0223346,-0.000884843,1.56821,0.0151933,0.0162706,1343,1723,7.6972,-34.8198
126,-699,7.72083,34.7375,-2.67387e-05,0.0207663,-0.000658668,0.0207871,-4.75822e-05,-1.53916,0.013874,0.0186047,1350,1723,7.72084,-34.7375
133,-699,7.76965,34.6862,0.00100988,0.0186459,-0.000852912,0.018687,0.000968733,-1.52258,0.012148,0.0165866,1357,1723,7.76966,-34.6861
140,-699,7.82874,34.6331,0.00231533,0.0157928,-0.00118046,0.0158954,0.00221272,-1.48409,0.00994176,0.0169027,1364,1723,7.82876,-34.6331
147,-699,7.83386,34.5413,0.00382667,0.013062,-0.00190455,0.0134394,0.00344932,-1.3752,0.0080597,0.0135285,1371,1723,7.8339,-34.5413
154,-699,7.83118,34.4323,0.00497557,0.0103967,-0.00148881,0.0107787,0.00459361,-1.31966,0.00624564,0.0128535,1378,1723,7.83118,-34.4322
161,-699,7.88586,34.3214,0.00556551,0.00780249,-0.000854126,0.00809132,0.00527668,-1.24471,0.00474307,0.00926333,1385,1723,7.88584,-34.3214
168,-699,7.92126,34.2297,0.00602187,0.00574092,-7.41594e-05,0.00604024,0.00572254,-0.242869,0.00392522,0.0111152,1392,1723,7.92124,-34.2298
175,-699,7.97241,34.124,0.00625726,0.00390181,0.00146627,0.00696023,0.00319885,0.44705,0.00402286,0.0135624,1399,1723,7.97242,-34.124
182,-699,7.96985,33.9738,0.00555257,0.00355131,0.00126315,0.0061634,0.00294048,0.450425,0.00355969,0.0140237,1406,1723,7.96982,-33.9738
189,-699,7.97498,33.8466,0.00489321,0.00238992,0.00110761,0.00531292,0.00197021,0.362212,0.00310134,0.0165531,1413,1723,7.97494,-33.8466
196,-699,7.98206,33.6858,0.00359998,0.00199152,0.00125387,0.00428537,0.00130613,0.500246,0.00253623,0.0158997,1420,1723,7.98204,-33.6857
203,-699,7.98376,33.5391,0.00259439,0.00105029,0.00107225,0.00314362,0.000501057,0.473379,0.0019503,0.0127335,1427,1723,7.98381,-33.5391
210,-699,8.00989,33.3861,0.00217182,0.000873893,0.000994884,0.00271069,0.000335024,0.496402,0.00170645,0.0128216,1434,1723,8.00984,-33.3862
217,-699,8.03064,33.2395,0.00172672,0.000553108,0.000710979,0.00206177,0.00021805,0.440395,0.00130791,0.0137319,1441,1723,8.03059,-33.2395
224,-699,8.03857,33.0701,0.00145447,0.000497396,0.00051406,0.00167825,0.000273611,0.410586,0.0010397,0.0150751,1448,1723,8.03857,-33.07
231,-699,8.0625,32.8917,0.00118818,0.000433559,0.000203917,0.00123976,0.000381981,0.24774,0.000733135,0.0117879,1455,1723,8.06246,-32.8918
238,-699,8.04248,32.6771,0.00101937,0.000399527,-7.98007e-05,0.00102948,0.000389418,-0.126007,0.000600212,0.0106885,1462,1723,8.0425,-32.6771
245,-699,8.03552,32.4877,0.00101468,0.000401315,-0.000343046,0.00116814,0.000247851,-0.420653,0.000710701,0.0124696,1469,1723,8.03555,-32.4877
252,-699,8.03625,32.3171,0.00109286,0.000394883,-0.000573144,0.00141491,7.28366e-05,-0.511929,0.000919953,0.0104836,1476,1723,8.03623,-32.3171
259,-699,8.03467,32.1115,0.00128906,0.00048115,-0.000808469,0.00178888,-1.86655e-05,-0.553712,0.00119885,0.0107726,1483,1723,8.03472,-32.1115
266,-699,8.04248,31.9095,0.00156216,0.00061014,-0.00105681,0.00224522,-7.29158e-05,-0.573796,0.0015217,0.0119543,1490,1723,8.04246,-31.9096
273,-699,8.03979,31.6848,0.00189724,0.000966106,-0.00133124,0.00284198,2.13692e-05,-0.617184,0.00188757,0.0112643,1497,1723,8.03981,-31.6849
280,-699,8.04211,31.4368,0.00217857,0.00133075,-0.00165272,0.00346088,4.84351e-05,-0.659859,0.00229128,0.0122865,1504,1723,8.04215,-31.4367
287,-699,8.03723,31.1831,0.00242394,0.00184643,-0.00198438,0.00414046,0.000129909,-0.713148,0.00271804,0.0111166,1511,1723,8.03719,-31.1831
294,-699,8.02759,30.9355,0.00263293,0.00241626,-0.00233283,0.00485994,0.000189255,-0.762195,0.00317875,0.0113112,1518,1723,8.02763,-30.9356
301,-699,8.01831,30.7106,0.00270913,0.00277582,-0.00264046,0.00538315,0.000101804,-0.791711,0.00355532,0.0116355,1525,1723,8.01831,-30.7106
308,-699,8.01794,30.4878,0.00248663,0.00301537,-0.00303929,0.00580177,-0.000299769,-0.828781,0.00397154,0.0157059,1532,1723,8.01793,-30.4878
315,-699,8.03455,30.2444,0.00203886,0.00317778,-0.00331463,0.00597152,-0.000754873,-0.870468,0.00425501,0.0185861,1539,1723,8.0345,-30.2444
322,-699,7.97766,29.9475,0.00158113,0.00321292,-0.00354327,0.00603302,-0.00123897,-0.898558,0.00449232,0.0197414,1546,1723,7.97771,-29.9475
329,-699,7.9165,29.6584,0.00100576,0.00299721,-0.00360763,0.005744,-0.00174103,-0.920049,0.0045228,0.0168716,1553,1723,7.91649,-29.6585
336,-699,7.93103,29.4296,0.000302819,0.00238242,-0.00351896,0.00501199,-0.00232675,-0.929053,0.00433053,0.0185345,1560,1723,7.93104,-29.4295
343,-699,7.99451,29.183,-0.00105009,0.00104093,-0.00306944,0.00323804,-0.0032472,-0.949545,0.00374425,0.0252942,1567,1723,7.99449,-29.183
350,-699,8.06628,28.8956,-0.00257769,-0.00112643,-0.0016317,-6.62797e-05,-0.00363783,-0.99462,0.00240343,0.0331043,1574,1723,8.06626,-28.8956
357,-699,8.0553,28.6105,-0.00345023,-0.00395796,9.90093e-05,-0.00343161,-0.00397659,0.185931,0.00248936,0.0385094,1581,1723,8.05526,-28.6104
364,-699,7.81824,28.4392,-0.00446255,-0.00755533,0.0022379,-0.00328874,-0.00872915,0.483068,0.00509056,0.0421337,1588,1723,7.81827,-28.4392
371,-699,7.81421,28.1998,0,0,0,0,0,0,0,-1,1595,1723,7.81426,-28.1999
378,-699,7.3009,26.9484,0,0,0,0,0,0,0,-1,1602,1723,7.30092,-26.9483
385,-699,6.32727,24.7136,0,0,0,0,0,0,0,-1,1609,1723,6.32725,-24.7136
392,-699,7.7124,26.755,0,0,0,0,0,0,0,-1,1616,1723,7.7124,-26.7551
399,-699,7.28809,29.0607,0,0,0,0,0,0,0,-1,1623,1723,7.28812,-29.0606
406,-699,5.50757,21.6672,0,0,0,0,0,0,0,-1,1630,1723,5.50755,-21.6672
413,-699,9.31396,23.2781,0,0,0,0,0,0,0,-1,1637,1723,9.31396,-23.278
420,-699,2.15076,7.65527,0,0,0,0,0,0,0,-1,1644,1723,2.15079,-7.65522
427,-699,3.36328,8.2428,0,0,0,0,0,0,0,-1,1651,1723,3.36332,-8.24283
434,-699,4.66455,8.90222,0,0,0,0,0,0,0,-1,1658,1723,4.66456,-8.90223
441,-699,0,0,0,0,0,0,0,0,0,-1,1665,1723,0,0
448,-699,0,0,0,0,0,0,0,0,0,-1,1672,1723,0,0
455,-699,0,0,0,0,0,0,0,0,0,-1,1679,1723,0,0
462,-699,0,0,0,0,0,0,0,0,0,-1,1686,1723,0,0
469,-699,0,0,0,0,0,0,0,0,0,-1,1693,1723,0,0
476,-699,0,0,0,0,0,0,0,0,0,-1,1700,1723,0,0
483,-699,0,0,0,0,0,0,0,0,0,-1,1707,1723,0,0
490,-699,0,0,0,0,0,0,0,0,0,-1,1714,1723,0,0
497,-699,0,0,0,0,0,0,0,0,0,-1,1721,1723,0,0
504,-699,0,0,0,0,0,0,0,0,0,-1,1728,1723,0,0
511,-699,0,0,0,0,0,0,0,0,0,-1,1735,1723,0,0
518,-699,0,0,0,0,0,0,0,0,0,-1,1742,1723,0,0
525,-699,0,0,0,0,0,0,0,0,0,-1,1749,1723,0,0
532,-699,0,0,0,0,0,0,0,0,0,-1,1756,1723,0,0
539,-699,0,0,0,0,0,0,0,0,0,-1,1763,1723,0,0
546,-699,0,0,0,0,0,0,0,0,0,-1,1770,1723,0,0
553,-699,0,0,0,0,0,0,0,0,0,-1,1777,1723,0,0
560,-699,0,0,0,0,0,0,0,0,0,-1,1784,1723,0,0
567,-699,0,0,0,0,0,0,0,0,0,-1,1791,1723,0,0
574,-699,0,0,0,0,0,0,0,0,0,-1,1798,1723,0,0
581,-699,0,0,0,0,0,0,0,0,0,-1,1805,1723,0,0
588,-699,0,0,0,0,0,0,0,0,0,-1,1812,1723,0,0
595,-699,0,0,0,0,0,0,0,0,0,-1,1819,1723,0,0
602,-699,0,0,0,0,0,0,0,0,0,-1,1826,1723,0,0
609,-699,0,0,0,0,0,0,0,0,0,-1,1833,1723,0,0
616,-699,0,0,0,0,0,0,0,0,0,-1,1840,1723,0,0
623,-699,0,0,0,0,0,0,0,0,0,-1,1847,1723,0,0
630,-699,0,0,0,0,0,0,0,0,0,-1,1854,1723,0,0
637,-699,0,0,0,0,0,0,0,0,0,-1,1861,1723,0,0
644,-699,0,0,0,0,0,0,0,0,0,-1,1868,1723,0,0
651,-699,0,0,0,0,0,0,0,0,0,-1,1875,1723,0,0
658,-699,0,0,0,0,0,0,0,0,0,-1,1882,1723,0,0
665,-699,0,0,0,0,0,0,0,0,0,-1,1889,1723,0,0
672,-699,0,0,0,0,0,0,0,0,0,-1,1896,1723,0,0
679,-699,0,0,0,0,0,0,0,0,0,-1,1903,1723,0,0
686,-699,0,0,0,0,0,0,0,0,0,-1,1910,1723,0,0
693,-699,0,0,0,0,0,0,0,0,0,-1,1917,1723,0,0
700,-699,0,0,0,0,0,0,0,0,0,-1,1924,1723,0,0
707,-699,0,0,0,0,0,0,0,0,0,-1,1931,1723,0,0
714,-699,0,0,0,0,0,0,0,0,0,-1,1938,1723,0,0
721,-699,0,0,0,0,0,0,0,0,0,-1,1945,1723,0,0
728,-699,0,0,0,0,0,0,0,0,0,-1,1952,1723,0,0
735,-699,0,0,0,0,0,0,0,0,0,-1,1959,1723,0,0
742,-699,0,0,0,0,0,0,0,0,0,-1,1966,1723,0,0
749,-699,0,0,0,0,0,0,0,0,0,-1,1973,1723,0,0
756,-699,0,0,0,0,0,0,0,0,0,-1,1980,1723,0,0
763,-699,0,0,0,0,0,0,0,0,0,-1,1987,1723,0,0
770,-699,0,0,0,0,0,0,0,0,0,-1,1994,1723,0,0
777,-699,0,0,0,0,0,0,0,0,0,-1,2001,1723,0,0
784,-699,0,0,0,0,0,0,0,0,0,-1,2008,1723,0,0
791,-699,0,0,0,0,0,0,0,0,0,-1,2015,1723,0,0
798,-699,0,0,0,0,0,0,0,0,0,-1,2022,1723,0,0
805,-699,0,0,0,0,0,0,0,0,0,-1,2029,1723,0,0
812,-699,0,0,0,0,0,0,0,0,0,-1,2036,1723,0,0
-700,-706,0,0,0,0,0,0,0,0,0,-1,524,1730,0,0
-693,-706,0,0,0,0,0,0,0,0,0,-1,531,1730,0,0
-686,-706,0,0,0,0,0,0,0,0,0,-1,538,1730,0,0
-679,-706,0,0,0,0,0,0,0,0,0,-1,545,1730,0,0
-672,-706,0,0,0,0,0,0,0,0,0,-1,552,1730,0,0
-665,-706,0,0,0,0,0,0,0,0,0,-1,559,1730,0,0
-658,-706,0,0,0,0,0,0,0,0,0,-1,566,1730,0,0
-651,-706,0,0,0,0,0,0,0,0,0,-1,573,1730,0,0
-644,-706,0,0,0,0,0,0,0,0,0,-1,580,1730,0,0
-637,-706,0,0,0,0,0,0,0,0,0,-1,587,1730,0,0
-630,-706,0,0,0,0,0,0,0,0,0,-1,594,1730,0,0
-623,-706,0,0,0,0,0,0,0,0,0,-1,601,1730,0,0
-616,-706,0,0,0,0,0,0,0,0,0,-1,608,1730,0,0
-609,-706,0,0,0,0,0,0,0,0,0,-1,615,1730,0,0
-602,-706,0,0,0,0,0,0,0,0,0,-1,622,1730,0,0
-595,-706,0,0,0,0,0,0,0,0,0,-1,629,1730,0,0
-588,-706,0,0,0,0,0,0,0,0,0,-1,636,1730,0,0
-581,-706,0,0,0,0,0,0,0,0,0,-1,643,1730,0,0
-574,-706,0,0,0,0,0,0,0,0,0,-1,650,1730,0,0
-567,-706,0,0,0,0,0,0,0,0,0,-1,657,1730,0,0
-560,-706,0,0,0,0,0,0,0,0,0,-1,664,1730,0,0
-553,-706,0,0,0,0,0,0,0,0,0,-1,671,1730,0,0
-546,-706,0,0,0,0,0,0,0,0,0,-1,678,1730,0,0
-539,-706,0,0,0,0,0,0,0,0,0,-1,685,1730,0,0
-532,-706,0,0,0,0,0,0,0,0,0,-1,692,1730,0,0
-525,-706,0,0,0,0,0,0,0,0,0,-1,699,1730,0,0
-518,-706,0,0,0,0,0,0,0,0,0,-1,706,1730,0,0
-511,-706,0,0,0,0,0,0,0,0,0,-1,713,1730,0,0
-504,-706,0,0,0,0,0,0,0,0,0,-1,720,1730,0,0
-497,-706,0,0,0,0,0,0,0,0,0,-1,727,1730,0,0
-490,-706,0,0,0,0,0,0,0,0,0,-1,734,1730,0,0
-483,-706,0,0,0,0,0,0,0,0,0,-1,741,1730,0,0
-476,-706,0,0,0,0,0,0,0,0,0,-1,748,1730,0,0
-469,-706,0,0,0,0,0,0,0,0,0,-1,755,1730,0,0
-462,-706,0,0,0,0,0,0,0,0,0,-1,762,1730,0,0
-455,-706,0,0,0,0,0,0,0,0,0,-1,769,1730,0,0
-448,-706,0,0,0,0,0,0,0,0,0,-1,776,1730,0,0
-441,-706,0,0,0,0,0,0,0,0,0,-1,783,1730,0,0
-434,-706,0,0,0,0,0,0,0,0,0,-1,790,1730,0,0
-427,-706,0,0,0,0,0,0,0,0,0,-1,797,1730,0,0
-420,-706,0,0,0,0,0,0,0,0,0,-1,804,1730,0,0
-413,-706,0,0,0,0,0,0,0,0,0,-1,811,1730,0,0
-406,-706,0,0,0,0,0,0,0,0,0,-1,818,1730,0,0
-399,-706,0,0,0,0,0,0,0,0,0,-1,825,1730,0,0
-392,-706,0,0,0,0,0,0,0,0,0,-1,832,1730,0,0
-385,-706,0,0,0,0,0,0,0,0,0,-1,839,1730,0,0
-378,-706,0,0,0,0,0,0,0,0,0,-1,846,1730,0,0
-371,-706,0,0,0,0,0,0,0,0,0,-1,853,1730,0,0
-364,-706,0,0,0,0,0,0,0,0,0,-1,860,1730,0,0
-357,-706,0,0,0,0,0,0,0,0,0,-1,867,1730,0,0
-350,-706,0,0,0,0,0,0,0,0,0,-1,874,1730,0,0
-343,-706,0,0,0,0,0,0,0,0,0,-1,881,1730,0,0
-336,-706,0,0,0,0,0,0,0,0,0,-1,888,1730,0,0
-329,-706,0,0,0,0,0,0,0,0,0,-1,895,1730,0,0
-322,-706,0,0,0,0,0,0,0,0,0,-1,902,1730,0,0
-315,-706,0,0,0,0,0,0,0,0,0,-1,909,1730,0,0
-308,-706,5.08191,14.6245,0,0,0,0,0,0,0,-1,916,1730,5.08188,-14.6245
-301,-706,7.45007,21.1975,0,0,0,0,0,0,0,-1,923,1730,7.45005,-21.1976
-294,-706,11.8603,21.026,0,0,0,0,0,0,0,-1,930,1730,11.8603,-21.026
-287,-706,10.3292,20.8425,0,0,0,0,0,0,0,-1,937,1730,10.3292,-20.8425
-280,-706,7.9162,21.8951,0,0,0,0,0,0,0,-1,944,1730,7.9162,-21.8952
-273,-706,7.38953,20.6355,0,0,0,0,0,0,0,-1,951,1730,7.38955,-20.6355
-266,-706,9.66724,22.8231,0,0,0,0,0,0,0,-1,958,1730,9.66722,-22.8231
-259,-706,3.47852,20.7363,0,0,0,0,0,0,0,-1,965,1730,3.47851,-20.7364
-252,-706,3.84259,20.1979,0,0,0,0,0,0,0,-1,972,1730,3.84256,-20.1979
-245,-706,4.698,19.2992,0,0,0,0,0,0,0,-1,979,1730,4.69799,-19.2991
-238,-706,7.07745,28.6687,0,0,0,0,0,0,0,-1,986,1730,7.07745,-28.6687
-231,-706,7.75305,27.4143,0,0,0,0,0,0,0,-1,993,1730,7.75308,-27.4143
-224,-706,7.38202,28.3046,0,0,0,0,0,0,0,-1,1000,1730,7.382,-28.3045
-217,-706,7.39703,28.3794,-0.00796267,0.00868692,-0.000141429,0.00868812,-0.00796387,-1.5623,0.00961706,0.0467512,1007,1730,7.39706,-28.3794
-210,-706,7.46777,28.5875,-0.00676869,0.00743427,0.000732717,0.00747197,-0.00680639,1.51939,0.0082466,0.0377146,1014,1730,7.46778,-28.5876
-203,-706,7.28516,28.9872,-0.00538558,0.00678631,0.00148262,0.0069643,-0.00556357,1.45132,0.00724802,0.0311868,1021,1730,7.28518,-28.9872
-196,-706,7.20557,29.2957,-0.00419327,0.00572947,0.00188997,0.00607726,-0.00454106,1.38881,0.00615184,0.0235241,1028,1730,7.20561,-29.2956
-189,-706,7.11926,29.6151,-0.00293402,0.00498026,0.00228071,0.00559046,-0.00354422,1.30937,0.00531784,0.0168525,1035,1730,7.11927,-29.6152
-182,-706,7.09497,29.9148,-0.00208866,0.00434948,0.0024386,0.00516887,-0.00290805,1.24664,0.00472371,0.0128251,1042,1730,7.09495,-29.9149
-175,-706,7.10913,30.1896,-0.00126993,0.00374651,0.00265803,0.00489292,-0.00241633,1.1636,0.00429999,0.0142715,1049,1730,7.10908,-30.1896
-168,-706,7.12048,30.4395,-0.000490964,0.00337564,0.00285159,0.00488751,-0.00200284,1.08329,0.00409271,0.0157214,1056,1730,7.12054,-30.4395
-161,-706,7.09131,30.705,-9.06948e-05,0.0032698,0.00284927,0.00489735,-0.00171825,1.05181,0.0039638,0.0123848,1063,1730,7.09129,-30.705
-154,-706,7.05969,30.9739,0.000260923,0.00297645,0.00272744,0.00466539,-0.00142802,1.01635,0.00367982,0.0125393,1070,1730,7.05973,-30.9739
-147,-706,7.03613,31.2057,0.000521305,0.00303535,0.00249734,0.00457418,-0.00101753,1.01856,0.00343917,0.0122489,1077,1730,7.03609,-31.2056
-140,-706,7.03662,31.4485,0.000573411,0.00348292,0.00221889,0.00468142,-0.00062509,1.07556,0.00334881,0.0113123,1084,1730,7.03657,-31.4485
-133,-706,7.03052,31.6616,0.000496913,0.00374826,0.00195919,0.00466841,-0.000423239,1.13171,0.00326251,0.00928594,1091,1730,7.03048,-31.6616
-126,-706,7.03186,31.8871,0.00042839,0.00396535,0.00171263,0.00465871,-0.000264962,1.18612,0.00319779,0.0135187,1098,1730,7.03181,-31.8871
-119,-706,7.03064,32.1589,0.000380512,0.0040639,0.00146732,0.00457696,-0.000132549,1.23443,0.00309643,0.0179869,1105,1730,7.03059,-32.1589
-112,-706,7.02136,32.3788,0.000398435,0.00407885,0.00123491,0.0044548,2.24824e-05,1.27527,0.0029624,0.0126954,1112,1730,7.02138,-32.3788
-105,-706,6.99451,32.5607,0.000302169,0.0039113,0.000872187,0.00411102,0.000102447,1.34569,0.00270718,0.00927168,1119,1730,6.99446,-32.5607
-98,-706,7.01416,32.7257,0.00042225,0.00363621,0.000671086,0.00377071,0.000287753,1.373,0.00242359,0.0102797,1126,1730,7.01415,-32.7257
-91,-706,7.02258,32.9102,0.000694299,0.00342657,0.000533866,0.00352718,0.00059369,1.38453,0.00218066,0.0132128,1133,1730,7.02261,-32.9102
-84,-706,7.01904,33.1025,0.000945893,0.00308766,0.000347848,0.00314274,0.000890814,1.41376,0.00187033,0.0162467,1140,1730,7.01906,-33.1025
-77,-706,7.0332,33.2687,0.0012001,0.00282929,9.54748e-05,0.00283487,0.00119452,1.51246,0.00164344,0.0168519,1147,1730,7.03319,-33.2687
-70,-706,7.03943,33.4641,0.00133436,0.0024279,-0.000204048,0.00246473,0.00129753,-1.3922,0.00142368,0.0185664,1154,1730,7.0394,-33.4641
-63,-706,7.0304,33.6212,0.00184038,0.00239353,-0.000295789,0.00252191,0.00171201,-1.16132,0.00148675,0.0125574,1161,1730,7.03041,-33.6212
-56,-706,7.02014,33.7549,0.00263037,0.00264788,-0.000228014,0.00286731,0.00241094,-0.804594,0.00177904,0.0119367,1168,1730,7.0202,-33.7549
-49,-706,7.01807,33.9006,0.00328232,0.00271887,-7.08422e-05,0.00329109,0.0027101,-0.123176,0.00202833,0.0124524,1175,1730,7.01808,-33.9006
-42,-706,7.0498,34.0404,0.00394997,0.00315015,0.000414699,0.00412617,0.00297395,0.401775,0.00245842,0.0162568,1182,1730,7.04983,-34.0404
-35,-706,7.0791,34.1499,0.00457323,0.00344648,0.000746351,0.00494497,0.00307475,0.462103,0.00288307,0.0154775,1189,1730,7.07907,-34.1499
-28,-706,7.1073,34.2583,0.00512678,0.00414704,0.000804357,0.00557869,0.00369512,0.511887,0.00327698,0.0098695,1196,1730,7.10728,-34.2583
-21,-706,7.11877,34.3596,0.00546335,0.00443102,0.000947401,0.00602607,0.0038683,0.53597,0.00352557,0.0101709,1203,1730,7.11876,-34.3597
-14,-706,7.14856,34.4531,0.00565809,0.00477101,0.000888638,0.00620773,0.00422137,0.553924,0.00366065,0.0100836,1210,1730,7.14857,-34.4531
-7,-706,7.16895,34.557,0.00575027,0.00555493,0.00104006,0.00669723,0.00460797,0.738583,0.00395675,0.00853077,1217,1730,7.16898,-34.5571
0,-706,7.18982,34.6479,0.00566854,0.00666452,0.00123242,0.00749576,0.0048373,0.977405,0.0043882,0.0116155,1224,1730,7.18982,-34.6479
7,-706,7.20471,34.7104,0.00541602,0.00800414,0.00137451,0.0085979,0.00482226,1.16303,0.00497625,0.0135959,1231,1730,7.2047,-34.7104
14,-706,7.23413,34.7793,0.00511472,0.00929034,0.00140454,0.00971881,0.00468624,1.2747,0.00561234,0.0138757,1238,1730,7.23413,-34.7793
21,-706,7.26965,34.8308,0.00482489,0.010398,0.00155308,0.0108016,0.00442131,1.31656,0.00627038,0.0119549,1245,1730,7.26967,-34.8308
28,-706,7.28467,34.8909,0.00449474,0.0115289,0.00165646,0.0118995,0.00412419,1.35072,0.00697715,0.0121406,1252,1730,7.28462,-34.8908
35,-706,7.29895,34.949,0.00404488,0.0127738,0.00182384,0.0131396,0.00367913,1.37288,0.00782708,0.013715,1259,1730,7.29891,-34.9489
42,-706,7.33972,34.9988,0.00340535,0.0138639,0.00223895,0.0143231,0.0029462,1.36853,0.00873389,0.011897,1266,1730,7.33968,-34.9988
49,-706,7.36682,35.0283,0.00273983,0.0149411,0.00249194,0.0154304,0.00225051,1.3769,0.0096249,0.0138181,1273,1730,7.3668,-35.0283
56,-706,7.40454,35.0338,0.0021933,0.0159429,0.00276498,0.0164781,0.0016581,1.3796,0.0104765,0.0131358,1280,1730,7.40453,-35.0338
63,-706,7.43579,35.0309,0.00157554,0.0166301,0.00287021,0.0171588,0.00104689,1.38865,0.0111067,0.0109179,1287,1730,7.43582,-35.0308
70,-706,7.45496,35.0298,0.0009666,0.0171004,0.00280773,0.0175751,0.000491944,1.40333,0.0115562,0.0115496,1294,1730,7.4549,-35.0298
77,-706,7.46619,35.0302,0.000402365,0.0170543,0.00290729,0.0175473,-9.06289e-05,1.40282,0.0117285,0.0103152,1301,1730,7.46622,-35.0302
84,-706,7.49109,35.0132,-2.39065e-05,0.0169363,0.00279659,0.0173855,-0.000473143,1.41152,0.0117512,0.00919641,1308,1730,7.49107,-35.0132
91,-706,7.5343,34.9996,-0.000164046,0.0165038,0.0025865,0.0168959,-0.00055619,1.42033,0.0114538,0.0105061,1315,1730,7.53432,-34.9996
98,-706,7.54016,34.9875,-0.000101268,0.0156818,0.00213971,0.0159668,-0.000386205,1.43841,0.0107756,0.0148273,1322,1730,7.54022,-34.9876
105,-706,7.58264,34.9813,3.20996e-05,0.0146476,0.00156019,0.0148123,-0.000132593,1.46563,0.00991938,0.0169377,1329,1730,7.58263,-34.9813
112,-706,7.61633,34.9371,0.000414535,0.0134276,0.00101978,0.0135071,0.000335103,1.49306,0.0088951,0.0155785,1336,1730,7.61635,-34.9371
119,-706,7.62134,34.8781,0.000874299,0.0121584,0.000573833,0.0121876,0.000845192,1.52012,0.00785847,0.0132271,1343,1730,7.62131,-34.878
126,-706,7.62976,34.7958,0.00153356,0.0108988,0.000103247,0.0109,0.00153242,1.55977,0.00681353,0.0146667,1350,1730,7.62981,-34.7958
133,-706,7.66028,34.7052,0.00231998,0.00933201,-6.67205e-05,0.00933265,0.00231935,-1.56128,0.00561079,0.012261,1357,1730,7.66033,-34.7052
140,-706,7.70972,34.608,0.00321409,0.00756985,-0.000252685,0.00758446,0.00319948,-1.51304,0.00439668,0.0115194,1364,1730,7.70967,-34.608
147,-706,7.7428,34.507,0.00404497,0.00591509,-0.000612819,0.00609801,0.00386205,-1.28072,0.00356217,0.021128,1371,1730,7.74275,-34.5069
154,-706,7.7594,34.4277,0.00450384,0.00438423,-0.000316155,0.00476579,0.00412227,-0.691922,0.00298589,0.0192433,1378,1730,7.75945,-34.4277
161,-706,7.76062,34.3365,0.00463674,0.00312791,4.24071e-05,0.00463793,0.00312672,0.0280764,0.00273132,0.00978886,1385,1730,7.76056,-34.3365
168,-706,7.77673,34.2238,0.00468303,0.0021805,0.000419952,0.00475163,0.00211191,0.161904,0.00274899,0.0101139,1392,1730,7.77675,-34.2238
175,-706,7.80823,34.1035,0.00433686,0.00181319,0.000998063,0.00468386,0.00146619,0.334603,0.00276653,0.0102584,1399,1730,7.80817,-34.1035
182,-706,7.81628,33.9695,0.00375888,0.00182492,0.000831048,0.00406693,0.00151687,0.354971,0.00237316,0.0105836,1406,1730,7.81631,-33.9695
189,-706,7.82068,33.8237,0.00308783,0.00169397,0.000634217,0.00333321,0.00144859,0.369161,0.00192991,0.013858,1413,1730,7.82066,-33.8237
196,-706,7.83411,33.6787,0.0022402,0.00150608,0.000626984,0.00259966,0.00114661,0.520578,0.00150439,0.0123565,1420,1730,7.83414,-33.6788
203,-706,7.84607,33.5365,0.00158729,0.00103789,0.000425006,0.00181865,0.00080654,0.498497,0.00105223,0.0131544,1427,1730,7.84608,-33.5365
210,-706,7.84424,33.3752,0.0012545,0.00092995,0.000279263,0.00141521,0.000769238,0.522201,0.000818106,0.0125036,1434,1730,7.84422,-33.3752
217,-706,7.84326,33.2245,0.000898239,0.000745148,7.16348e-06,0.000898574,0.000744813,0.0466563,0.000554942,0.0137385,1441,1730,7.84328,-33.2245
224,-706,7.8324,33.0669,0.000652112,0.000695737,-0.000230633,0.000905587,0.000442262,-0.832547,0.000522888,0.0184423,1448,1730,7.83237,-33.0668
231,-706,7.86511,32.8708,0.000375472,0.000602677,-0.00049976,0.00100158,-2.34352e-05,-0.897156,0.00067567,0.0135965,1455,1730,7.86511,-32.8708
238,-706,7.86255,32.6907,0.000391761,0.000638258,-0.000673957,0.00120014,-0.000170124,-0.875835,0.000862415,0.0091965,1462,1730,7.86251,-32.6907
245,-706,7.84912,32.5007,0.000657152,0.0006556,-0.000883982,0.00154036,-0.000227606,-0.784959,0.00111058,0.0119796,1469,1730,7.84914,-32.5008
252,-706,7.84326,32.3154,0.000901606,0.000700923,-0.00110741,0.00191321,-0.000310681,-0.740217,0.00139065,0.0115274,1476,1730,7.84331,-32.3155
259,-706,7.83643,32.1101,0.00125469,0.000834529,-0.00131728,0.00237853,-0.000289316,-0.706324,0.0016904,0.0127427,1483,1730,7.83646,-32.1101
266,-706,7.83655,31.8995,0.00166374,0.00101859,-0.00153146,0.00290623,-0.000223902,-0.6816,0.00201627,0.0122298,1490,1730,7.83655,-31.8995
273,-706,7.83691,31.6819,0.00217146,0.00150817,-0.00184022,0.00370968,-3.00504e-05,-0.696245,0.00248319,0.0120502,1497,1730,7.83692,-31.6818
280,-706,7.81982,31.4539,0.0026264,0.00198548,-0.00221474,0.00454375,6.81358e-05,-0.71355,0.00300671,0.0107876,1504,1730,7.81978,-31.4538
287,-706,7.78943,31.2092,0.00303207,0.00269111,-0.00262735,0.00549446,0.000228717,-0.753,0.00358917,0.0117391,1511,1730,7.78942,-31.2093
294,-706,7.80627,30.9736,0.003374,0.00345854,-0.00307058,0.00648714,0.000345404,-0.792281,0.00421435,0.0117162,1518,1730,7.80629,-30.9736
301,-706,7.79309,30.7324,0.00357981,0.00393809,-0.00343421,0.00719783,0.000320069,-0.811457,0.0046955,0.0103665,1525,1730,7.79309,-30.7325
308,-706,7.78735,30.4823,0.00341796,0.00428526,-0.00395597,0.00783128,-0.000128059,-0.83999,0.00526406,0.0121404,1532,1730,7.7873,-30.4823
315,-706,7.79529,30.2574,0.00296536,0.00468086,-0.00438893,0.00829507,-0.00064885,-0.881899,0.00575853,0.019987,1539,1730,7.79535,-30.2575
322,-706,7.73438,30.0369,0.00246743,0.00481801,-0.00476144,0.00854707,-0.00126163,-0.906397,0.0061618,0.0276639,1546,1730,7.73432,-30.0369
329,-706,7.7572,29.6742,0.00176541,0.00460337,-0.004877,0.00826363,-0.00189485,-0.926967,0.00623739,0.0278178,1553,1730,7.75725,-29.6742
336,-706,7.69409,29.2714,0.000916964,0.00386075,-0.00482096,0.00742951,-0.00265179,-0.933559,0.00603439,0.0389936,1560,1730,7.69405,-29.2714
343,-706,7.77563,29.0614,-0.000905158,0.00211789,-0.00439713,0.00525604,-0.00404331,-0.950947,0.00538418,0.040218,1567,1730,7.77558,-29.0614
350,-706,7.91345,28.902,-0.00306553,-0.00056267,-0.00257929,0.00105275,-0.00468095,-1.01126,0.00352436,0.0459168,1574,1730,7.91341,-28.902
357,-706,7.96777,28.7904,0,0,0,0,0,0,0,-1,1581,1730,7.96778,-28.7904
364,-706,7.46558,28.6716,0,0,0,0,0,0,0,-1,1588,1730,7.46552,-28.6716
371,-706,6.27881,24.0759,0,0,0,0,0,0,0,-1,1595,1730,6.27883,-24.0759
378,-706,4.80444,25.0989,0,0,0,0,0,0,0,-1,1602,1730,4.80445,-25.0989
385,-706,5.55212,24.9753,0,0,0,0,0,0,0,-1,1609,1730,5.55214,-24.9753
392,-706,6.2998,24.8518,0,0,0,0,0,0,0,-1,1616,1730,6.29983,-24.8518
399,-706,3.9502,25.5428,0,0,0,0,0,0,0,-1,1623,1730,3.95019,-25.5428
406,-706,6.04211,18.8085,0,0,0,0,0,0,0,-1,1630,1730,6.04216,-18.8085
413,-706,6.23413,20.7725,0,0,0,0,0,0,0,-1,1637,1730,6.23413,-20.7725
420,-706,6.51294,21.9171,0,0,0,0,0,0,0,-1,1644,1730,6.51292,-21.9171
427,-706,0,0,0,0,0,0,0,0,0,-1,1651,1730,0,0
434,-706,0,0,0,0,0,0,0,0,0,-1,1658,1730,0,0
441,-706,0,0,0,0,0,0,0,0,0,-1,1665,1730,0,0
448,-706,0,0,0,0,0,0,0,0,0,-1,1672,1730,0,0
455,-706,0,0,0,0,0,0,0,0,0,-1,1679,1730,0,0
462,-706,0,0,0,0,0,0,0,0,0,-1,1686,1730,0,0
469,-706,0,0,0,0,0,0,0,0,0,-1,1693,1730,0,0
476,-706,0,0,0,0,0,0,0,0,0,-1,1700,1730,0,0
483,-706,0,0,0,0,0,0,0,0,0,-1,1707,1730,0,0
490,-706,0,0,0,0,0,0,0,0,0,-1,1714,1730,0,0
497,-706,0,0,0,0,0,0,0,0,0,-1,1721,1730,0,0
504,-706,0,0,0,0,0,0,0,0,0,-1,1728,1730,0,0
511,-706,0,0,0,0,0,0,0,0,0,-1,1735,1730,0,0
518,-706,0,0,0,0,0,0,0,0,0,-1,1742,1730,0,0
525,-706,0,0,0,0,0,0,0,0,0,-1,1749,1730,0,0
532,-706,0,0,0,0,0,0,0,0,0,-1,1756,1730,0,0
539,-706,0,0,0,0,0,0,0,0,0,-1,1763,1730,0,0
546,-706,0,0,0,0,0,0,0,0,0,-1,1770,1730,0,0
553,-706,0,0,0,0,0,0,0,0,0,-1,1777,1730,0,0
560,-706,0,0,0,0,0,0,0,0,0,-1,1784,1730,0,0
567,-706,0,0,0,0,0,0,0,0,0,-1,1791,1730,0,0
574,-706,0,0,0,0,0,0,0,0,0,-1,1798,1730,0,0
581,-706,0,0,0,0,0,0,0,0,0,-1,1805,1730,0,0
588,-706,0,0,0,0,0,0,0,0,0,-1,1812,1730,0,0
595,-706,0,0,0,0,0,0,0,0,0,-1,1819,1730,0,0
602,-706,0,0,0,0,0,0,0,0,0,-1,1826,1730,0,0
609,-706,0,0,0,0,0,0,0,0,0,-1,1833,1730,0,0
616,-706,0,0,0,0,0,0,0,0,0,-1,1840,1730,0,0
623,-706,0,0,0,0,0,0,0,0,0,-1,1847,1730,0,0
630,-706,0,0,0,0,0,0,0,0,0,-1,1854,1730,0,0
637,-706,0,0,0,0,0,0,0,0,0,-1,1861,1730,0,0
644,-706,0,0,0,0,0,0,0,0,0,-1,1868,1730,0,0
651,-706,0,0,0,0,0,0,0,0,0,-1,1875,1730,0,0
658,-706,0,0,0,0,0,0,0,0,0,-1,1882,1730,0,0
665,-706,0,0,0,0,0,0,0,0,0,-1,1889,1730,0,0
672,-706,0,0,0,0,0,0,0,0,0,-1,1896,1730,0,0
679,-706,0,0,0,0,0,0,0,0,0,-1,1903,1730,0,0
686,-706,0,0,0,0,0,0,0,0,0,-1,1910,1730,0,0
693,-706,0,0,0,0,0,0,0,0,0,-1,1917,1730,0,0
700,-706,0,0,0,0,0,0,0,0,0,-1,1924,1730,0,0
707,-706,0,0,0,0,0,0,0,0,0,-1,1931,1730,0,0
714,-706,0,0,0,0,0,0,0,0,0,-1,1938,1730,0,0
721,-706,0,0,0,0,0,0,0,0,0,-1,1945,1730,0,0
728,-706,0,0,0,0,0,0,0,0,0,-1,1952,1730,0,0
735,-706,0,0,0,0,0,0,0,0,0,-1,1959,1730,0,0
742,-706,0,0,0,0,0,0,0,0,0,-1,1966,1730,0,0
749,-706,0,0,0,0,0,0,0,0,0,-1,1973,1730,0,0
756,-706,0,0,0,0,0,0,0,0,0,-1,1980,1730,0,0
763,-706,0,0,0,0,0,0,0,0,0,-1,1987,1730,0,0
770,-706,0,0,0,0,0,0,0,0,0,-1,1994,1730,0,0
777,-706,0,0,0,0,0,0,0,0,0,-1,2001,1730,0,0
784,-706,0,0,0,0,0,0,0,0,0,-1,2008,1730,0,0
791,-706,0,0,0,0,0,0,0,0,0,-1,2015,1730,0,0
798,-706,0,0,0,0,0,0,0,0,0,-1,2022,1730,0,0
805,-706,0,0,0,0,0,0,0,0,0,-1,2029,1730,0,0
812,-706,0,0,0,0,0,0,0,0,0,-1,2036,1730,0,0
-700,-713,0,0,0,0,0,0,0,0,0,-1,524,1737,0,0
-693,-713,0,0,0,0,0,0,0,0,0,-1,531,1737,0,0
-686,-713,0,0,0,0,0,0,0,0,0,-1,538,1737,0,0
-679,-713,0,0,0,0,0,0,0,0,0,-1,545,1737,0,0
-672,-713,0,0,0,0,0,0,0,0,0,-1,552,1737,0,0
-665,-713,0,0,0,0,0,0,0,0,0,-1,559,1737,0,0
-658,-713,0,0,0,0,0,0,0,0,0,-1,566,1737,0,0
-651,-713,0,0,0,0,0,0,0,0,0,-1,573,1737,0,0
-644,-713,0,0,0,0,0,0,0,0,0,-1,580,1737,0,0
-637,-713,0,0,0,0,0,0,0,0,0,-1,587,1737,0,0
-630,-713,0,0,0,0,0,0,0,0,0,-1,594,1737,0,0
-623,-713,0,0,0,0,0,0,0,0,0,-1,601,1737,0,0
-616,-713,0,0,0,0,0,0,0,0,0,-1,608,1737,0,0
-609,-713,0,0,0,0,0,0,0,0,0,-1,615,1737,0,0
-602,-713,0,0,0,0,0,0,0,0,0,-1,622,1737,0,0
-595,-713,0,0,0,0,0,0,0,0,0,-1,629,1737,0,0
-588,-713,0,0,0,0,0,0,0,0,0,-1,636,1737,0,0
-581,-713,0,0,0,0,0,0,0,0,0,-1,643,1737,0,0
-574,-713,0,0,0,0,0,0,0,0,0,-1,650,1737,0,0
-567,-713,0,0,0,0,0,0,0,0,0,-1,657,1737,0,0
-560,-713,0,0,0,0,0,0,0,0,0,-1,664,1737,0,0
-553,-713,0,0,0,0,0,0,0,0,0,-1,671,1737,0,0
-546,-713,0,0,0,0,0,0,0,0,0,-1,678,1737,0,0
-539,-713,0,0,0,0,0,0,0,0,0,-1,685,1737,0,0
-532,-713,0,0,0,0,0,0,0,0,0,-1,692,1737,0,0
-525,-713,0,0,0,0,0,0,0,0,0,-1,699,1737,0,0
-518,-713,0,0,0,0,0,0,0,0,0,-1,706,1737,0,0
-511,-713,0,0,0,0,0,0,0,0,0,-1,713,1737,0,0
-504,-713,0,0,0,0,0,0,0,0,0,-1,720,1737,0,0
-497,-713,0,0,0,0,0,0,0,0,0,-1,727,1737,0,0
-490,-713,0,0,0,0,0,0,0,0,0,-1,734,1737,0,0
-483,-713,0,0,0,0,0,0,0,0,0,-1,741,1737,0,0
-476,-713,0,0,0,0,0,0,0,0,0,-1,748,1737,0,0
-469,-713,0,0,0,0,0,0,0,0,0,-1,755,1737,0,0
-462,-713,0,0,0,0,0,0,0,0,0,-1,762,1737,0,0
-455,-713,0,0,0,0,0,0,0,0,0,-1,769,1737,0,0
-448,-713,0,0,0,0,0,0,0,0,0,-1,776,1737,0,0
-441,-713,0,0,0,0,0,0,0,0,0,-1,783,1737,0,0
-434,-713,0,0,0,0,0,0,0,0,0,-1,790,1737,0,0
-427,-713,0,0,0,0,0,0,0,0,0,-1,797,1737,0,0
-420,-713,0,0,0,0,0,0,0,0,0,-1,804,1737,0,0
-413,-713,0,0,0,0,0,0,0,0,0,-1,811,1737,0,0
-406,-713,0,0,0,0,0,0,0,0,0,-1,818,1737,0,0
-399,-713,0,0,0,0,0,0,0,0,0,-1,825,1737,0,0
-392,-713,0,0,0,0,0,0,0,0,0,-1,832,1737,0,0
-385,-713,0,0,0,0,0,0,0,0,0,-1,839,1737,0,0
-378,-713,0,0,0,0,0,0,0,0,0,-1,846,1737,0,0
-371,-713,0,0,0,0,0,0,0,0,0,-1,853,1737,0,0
-364,-713,0,0,0,0,0,0,0,0,0,-1,860,1737,0,0
-357,-713,0,0,0,0,0,0,0,0,0,-1,867,1737,0,0
-350,-713,0,0,0,0,0,0,0,0,0,-1,874,1737,0,0
-343,-713,0,0,0,0,0,0,0,0,0,-1,881,1737,0,0
-336,-713,0,0,0,0,0,0,0,0,0,-1,888,1737,0,0
-329,-713,0,0,0,0,0,0,0,0,0,-1,895,1737,0,0
-322,-713,0,0,0,0,0,0,0,0,0,-1,902,1737,0,0
-315,-713,0,0,0,0,0,0,0,0,0,-1,909,1737,0,0
-308,-713,0,0,0,0,0,0,0,0,0,-1,916,1737,0,0
-301,-713,0,0,0,0,0,0,0,0,0,-1,923,1737,0,0
-294,-713,7.17883,22.0453,0,0,0,0,0,0,0,-1,930,1737,7.17881,-22.0453
-287,-713,11.8916,21.5834,0,0,0,0,0,0,0,-1,937,1737,11.8916,-21.5833
-280,-713,10.2786,21.3551,0,0,0,0,0,0,0,-1,944,1737,10.2787,-21.3551
-273,-713,11.1981,23.8683,0,0,0,0,0,0,0,-1,951,1737,11.198,-23.8683
-266,-713,3.17981,19.8851,0,0,0,0,0,0,0,-1,958,1737,3.17983,-19.8851
-259,-713,3.5921,19.6868,0,0,0,0,0,0,0,-1,965,1737,3.59207,-19.6868
-252,-713,4.55469,20.5758,0,0,0,0,0,0,0,-1,972,1737,4.55466,-20.5758
-245,-713,3.89014,25.9825,0,0,0,0,0,0,0,-1,979,1737,3.89013,-25.9826
-238,-713,6.62506,30.5463,0,0,0,0,0,0,0,-1,986,1737,6.62509,-30.5462
-231,-713,7.10999,28.2686,0,0,0,0,0,0,0,-1,993,1737,7.10999,-28.2685
-224,-713,7.59491,25.9907,0,0,0,0,0,0,0,-1,1000,1737,7.59488,-25.9908
-217,-713,7.79651,28.2466,0,0,0,0,0,0,0,-1,1007,1737,7.79654,-28.2466
-210,-713,7.79901,28.3405,-0.00822499,0.0103295,0.00147905,0.0104467,-0.00834215,1.49175,0.0108704,0.0458245,1014,1737,7.79902,-28.3405
-203,-713,7.69702,28.7592,-0.00620825,0.00943859,0.00243625,0.00980914,-0.00657881,1.41985,0.00952266,0.047554,1021,1737,7.69705,-28.7592
-196,-713,7.50354,29.3657,-0.00462495,0.00793351,0.00294288,0.00858893,-0.00528037,1.35166,0.00808303,0.0485469,1028,1737,7.50356,-29.3658
-189,-713,7.34839,29.6093,-0.00297471,0.00701002,0.0034534,0.00808805,-0.00405274,1.26822,0.00713738,0.0403411,1035,1737,7.34835,-29.6093
-182,-713,7.29089,29.8652,-0.00201641,0.00620952,0.00357319,0.00754487,-0.00335177,1.21315,0.00644457,0.0266657,1042,1737,7.29088,-29.8652
-175,-713,7.38135,30.2445,0,0,0,0,0,0,0,-1,1049,1737,7.38131,-30.2445
-168,-713,7.40955,30.478,0,0,0,0,0,0,0,-1,1056,1737,7.40951,-30.4781
-161,-713,7.37354,30.6862,3.80395e-05,0.00444437,0.00395557,0.00676895,-0.00228654,1.03949,0.0054375,0.0181612,1063,1737,7.3735,-30.6861
-154,-713,7.2821,30.9769,0.000298453,0.00381925,0.00374739,0.00619914,-0.00208143,1.00498,0.00497392,0.0128648,1070,1737,7.28212,-30.977
-147,-713,7.26721,31.2595,0.00043919,0.00362896,0.0034239,0.00581121,-0.00174306,1.00336,0.00456741,0.0190595,1077,1737,7.2672,-31.2595
-140,-713,7.28308,31.4783,0.000324402,0.00394878,0.00304855,0.0056831,-0.00140992,1.05356,0.0043358,0.0186839,1084,1737,7.28308,-31.4783
-133,-713,7.24524,31.6755,5.20008e-05,0.00405278,0.00271675,0.00542616,-0.00132138,1.10274,0.00412899,0.0124596,1091,1737,7.24525,-31.6756
-126,-713,7.23792,31.8767,-0.000187389,0.00411973,0.00240497,0.00519443,-0.00126209,1.15055,0.00395142,0.0181683,1098,1737,7.23796,-31.8767
-119,-713,7.24805,32.1104,-0.000383879,0.00403353,0.00208714,0.00486367,-0.00121401,1.19224,0.00371386,0.025591,1105,1737,7.24801,-32.1103
-112,-713,7.2124,32.3671,-0.00043921,0.00395906,0.00181757,0.00461295,-0.0010931,1.22545,0.00349708,0.0131201,1112,1737,7.21241,-32.3671
-105,-713,7.20386,32.5493,-0.000691275,0.00372773,0.0013626,0.0041141,-0.00107765,1.29449,0.00316373,0.0106434,1119,1737,7.20388,-32.5493
-98,-713,7.19861,32.7218,-0.000605226,0.00339173,0.00115385,0.00370091,-0.000914407,1.30899,0.0028219,0.00951412,1126,1737,7.19859,-32.7217
-91,-713,7.19067,32.9038,-0.000277109,0.00325334,0.00104885,0.00354143,-0.000565198,1.30273,0.00257015,0.009183,1133,1737,7.19063,-32.9038
-84,-713,7.19507,33.0922,-8.52354e-06,0.00294457,0.000874592,0.00318416,-0.000248106,1.30342,0.00221012,0.00935243,1140,1737,7.19503,-33.0921
-77,-713,7.21594,33.2922,0.000333297,0.00271502,0.000693859,0.00290242,0.000145902,1.30701,0.00188819,0.0128559,1147,1737,7.21588,-33.2922
-70,-713,7.21411,33.4885,0.000549449,0.00236182,0.000387827,0.00244133,0.000469946,1.3686,0.00149572,0.0148581,1154,1737,7.21415,-33.4885
-63,-713,7.20105,33.6318,0.000774068,0.00221005,0.000166739,0.00222916,0.000754961,1.4567,0.00130914,0.0126188,1161,1737,7.201,-33.6318
-56,-713,7.20154,33.7633,0.00117343,0.00216406,0.000140669,0.00218365,0.00115385,1.43244,0.00126141,0.0120561,1168,1737,7.2015,-33.7634
-49,-713,7.15515,33.8822,0.00157544,0.00207326,0.000168687,0.00212504,0.00152367,1.273,0.00126482,0.0152432,1175,1737,7.15515,-33.8822
-42,-713,7.17712,34.0321,0.00200587,0.00215524,0.000402063,0.00248949,0.00167161,0.877227,0.00146521,0.0178328,1182,1737,7.17717,-34.0321
-35,-713,7.21692,34.1372,0.002483,0.00235128,0.000615904,0.00303656,0.00179773,0.732134,0.00176303,0.0143626,1189,1737,7.21693,-34.1372
-28,-713,7.23206,34.2717,0.00294365,0.00286322,0.000675036,0.00357967,0.0022272,0.755649,0.00208719,0.0119918,1196,1737,7.23204,-34.2717
-21,-713,7.23523,34.3777,0.00326943,0.00331131,0.000824058,0.00411469,0.00246605,0.798099,0.00239119,0.00878568,1203,1737,7.23527,-34.3777
-14,-713,7.24304,34.4608,0.00352771,0.00387361,0.000893108,0.00461036,0.00279096,0.881039,0.00268142,0.0103049,1210,1737,7.24308,-34.4608
-7,-713,7.26611,34.5621,0.00369739,0.00464577,0.00105202,0.00532553,0.00301763,0.997135,0.00308378,0.00966201,1217,1737,7.26614,-34.5621
0,-713,7.28491,34.6511,0.00373646,0.00567635,0.00123738,0.00627864,0.00313418,1.11781,0.00362498,0.0142313,1224,1737,7.28494,-34.6511
7,-713,7.29932,34.6993,0.00363709,0.00687512,0.00136354,0.00737281,0.00313939,1.22082,0.00427229,0.0172908,1231,1737,7.29935,-34.6993
14,-713,7.31934,34.7721,0.00348132,0.00800119,0.00137674,0.00838752,0.00309499,1.29722,0.00489762,0.0119492,1238,1737,7.31936,-34.7721
21,-713,7.31384,34.8478,0.00331237,0.00892643,0.00143244,0.0092708,0.00296801,1.33487,0.00546671,0.0103215,1245,1737,7.31386,-34.8477
28,-713,7.31238,34.9131,0.003102,0.00976492,0.00147674,0.0100776,0.00278938,1.36217,0.00600842,0.0110285,1252,1737,7.31242,-34.9131
35,-713,7.33325,34.9469,0.00282754,0.010503,0.00151031,0.0107895,0.00254105,1.38333,0.00651335,0.0107419,1259,1737,7.3333,-34.9469
42,-713,7.3606,35.0009,0.00240876,0.011045,0.00164183,0.0113466,0.00210716,1.38913,0.006969,0.0108734,1266,1737,7.36058,-35.0008
49,-713,7.3772,35.0176,0.00196803,0.0114766,0.00167967,0.0117645,0.00168004,1.40099,0.00734732,0.0109038,1273,1737,7.37718,-35.0176
56,-713,7.39648,35.0236,0.00163169,0.0117614,0.00175083,0.0120555,0.00133761,1.40439,0.00763031,0.0110168,1280,1737,7.3965,-35.0235
63,-713,7.41052,35.0341,0.00125528,0.0118154,0.00174291,0.0120957,0.000975052,1.41138,0.00775921,0.0113987,1287,1737,7.41055,-35.0341
70,-713,7.43811,35.0472,0.000928397,0.0115548,0.0016845,0.0118155,0.000667762,1.41729,0.00766408,0.011432,1294,1737,7.43805,-35.0472
77,-713,7.46106,35.0513,0.000628487,0.0109292,0.00175538,0.0112201,0.000337561,1.40656,0.00737013,0.0114758,1301,1737,7.46106,-35.0512
84,-713,7.49023,35.0406,0.000427114,0.0102923,0.0017113,0.0105807,0.000138689,1.40382,0.00700803,0.0122272,1308,1737,7.49023,-35.0407
91,-713,7.51038,35.0171,0.000411629,0.00952144,0.001627,0.0098033,0.000129771,1.39926,0.00649271,0.012575,1315,1737,7.51043,-35.0171
98,-713,7.5127,34.9875,0.000515052,0.00871567,0.00145055,0.00896469,0.000266036,1.40078,0.00588978,0.0125862,1322,1737,7.51269,-34.9875
105,-713,7.54553,34.9625,0.000684874,0.0077777,0.00118003,0.00796887,0.000493706,1.41019,0.00515589,0.0144774,1329,1737,7.54559,-34.9625
112,-713,7.56714,34.9423,0.000986891,0.00678322,0.000955404,0.00693664,0.000833474,1.41158,0.00437316,0.0143243,1336,1737,7.56719,-34.9423
119,-713,7.56372,34.8912,0.00128021,0.00583994,0.000803822,0.00597749,0.00114265,1.40131,0.00366399,0.0147682,1343,1737,7.56376,-34.8913
126,-713,7.5509,34.8251,0.0016872,0.00501455,0.000627224,0.00512885,0.00157289,1.39053,0.00303403,0.0137428,1350,1737,7.55095,-34.8251
133,-713,7.56519,34.7289,0.00212376,0.00410064,0.000560204,0.00424835,0.00197605,1.31299,0.00245477,0.0117221,1357,1737,7.56515,-34.7289
140,-713,7.60901,34.6226,0.00255811,0.00320463,0.000497858,0.00347497,0.00228777,1.07334,0.00203954,0.012248,1364,1737,7.60906,-34.6226
147,-713,7.6322,34.5038,0.00291043,0.00239328,0.000376533,0.00310862,0.00219508,0.484516,0.0018449,0.0141424,1371,1737,7.63223,-34.5038
154,-713,7.62085,34.433,0.00297716,0.00173676,0.00048382,0.00314356,0.00157036,0.331244,0.00181493,0.0141256,1378,1737,7.62087,-34.4329
161,-713,7.63892,34.3397,0.00282923,0.00131147,0.000573629,0.00302164,0.00111906,0.323629,0.00176399,0.00995011,1385,1737,7.63894,-34.3397
168,-713,7.64233,34.2217,0.00262878,0.00103856,0.00061487,0.00283879,0.00082855,0.329127,0.00168565,0.00993122,1392,1737,7.6423,-34.2216
175,-713,7.66272,34.099,0.00223993,0.00109234,0.000649963,0.00253314,0.000799132,0.423779,0.00149534,0.0132134,1399,1737,7.66272,-34.0989
182,-713,7.67957,33.9808,0.00183718,0.00118101,0.000491049,0.00209966,0.000918527,0.490888,0.0012154,0.0119742,1406,1737,7.6796,-33.9809
189,-713,7.67798,33.8425,0.00140434,0.00114584,0.0003069,0.0016081,0.000942087,0.586095,0.000932986,0.0115998,1413,1737,7.67802,-33.8425
196,-713,7.69897,33.6995,0.000938209,0.00119529,6.15102e-05,0.00120925,0.00092425,1.34764,0.000729955,0.0131587,1420,1737,7.69899,-33.6995
203,-713,7.70801,33.5601,0.000592854,0.00117841,-0.000283195,0.00129296,0.000478301,-1.18642,0.000754866,0.0183239,1427,1737,7.70802,-33.5601
210,-713,7.6897,33.3816,0.000346042,0.00111942,-0.000519279,0.00138017,8.52906e-05,-1.10544,0.000893042,0.0153414,1434,1737,7.68971,-33.3816
217,-713,7.68884,33.2252,6.76505e-05,0.00103294,-0.000797814,0.00148274,-0.00038215,-1.05743,0.00113748,0.0117623,1441,1737,7.68884,-33.2252
224,-713,7.68579,33.0691,-0.000154593,0.000976917,-0.00108056,0.00163087,-0.000808551,-1.02656,0.00143483,0.0117521,1448,1737,7.68584,-33.069
231,-713,7.68958,32.8871,-0.000447664,0.000839239,-0.00133003,0.00167329,-0.00128172,-1.01069,0.00171106,0.0108391,1455,1737,7.68957,-32.8871
238,-713,7.67834,32.6979,-0.000237184,0.000928932,-0.00140511,0.00186716,-0.00117541,-0.982064,0.00177169,0.00835274,1462,1737,7.67833,-32.6978
245,-713,7.67822,32.5078,0.000346732,0.000977731,-0.00158651,0.00227981,-0.000955349,-0.883549,0.00191929,0.011197,1469,1737,7.67823,-32.5078
252,-713,7.66333,32.3153,0.000813747,0.00106188,-0.00180256,0.00274464,-0.000869007,-0.819758,0.002178,0.0118314,1476,1737,7.66339,-32.3153
259,-713,7.64429,32.095,0.0013898,0.00126457,-0.00198475,0.00331292,-0.000658551,-0.76963,0.00245772,0.0122531,1483,1737,7.64429,-32.095
266,-713,7.62341,31.8833,0.00201564,0.00154136,-0.00216222,0.00395369,-0.00039669,-0.73078,0.00277748,0.0104937,1490,1737,7.62335,-31.8833
273,-713,7.6228,31.6841,0.0028004,0.00220819,-0.00249917,0.00502094,-1.2351e-05,-0.726433,0.00335142,0.00871097,1497,1737,7.62274,-31.6841
280,-713,7.59607,31.47,0.00354634,0.00286093,-0.00292606,0.00614969,0.000257575,-0.727103,0.00401669,0.0103125,1504,1737,7.59612,-31.47
287,-713,7.56677,31.2526,0.00423084,0.00384085,-0.00343466,0.00747603,0.000595657,-0.757042,0.00479781,0.012059,1511,1737,7.56681,-31.2525
294,-713,7.60266,31.0425,0.00480502,0.00490766,-0.00399501,0.00885168,0.000861002,-0.79182,0.00563608,0.0189658,1518,1737,7.6026,-31.0425
301,-713,7.60986,30.7997,0.00523207,0.00558576,-0.00440073,0.0098132,0.00100464,-0.80548,0.00623429,0.0214151,1525,1737,7.6099,-30.7997
308,-713,7.59937,30.5049,0.0052109,0.00612007,-0.005071,0.0107568,0.000574154,-0.830101,0.0069877,0.022708,1532,1737,7.59932,-30.5048
315,-713,7.53638,30.2101,0.00480781,0.00694599,-0.00573765,0.0117133,4.05028e-05,-0.877506,0.0077954,0.0287912,1539,1737,7.53639,-30.2101
322,-713,7.59949,29.7904,0.0042615,0.00727103,-0.00631923,0.0122622,-0.000729657,-0.902284,0.00842854,0.0398885,1546,1737,7.59954,-29.7904
329,-713,7.70227,29.6162,0,0,0,0,0,0,0,-1,1553,1737,7.70229,-29.6162
336,-713,7.67249,29.24,0,0,0,0,0,0,0,-1,1560,1737,7.6725,-29.2399
343,-713,7.42322,29.0983,0,0,0,0,0,0,0,-1,1567,1737,7.42319,-29.0982
350,-713,7.64038,28.9797,0,0,0,0,0,0,0,-1,1574,1737,7.64034,-28.9798
357,-713,6.8197,26.0476,0,0,0,0,0,0,0,-1,1581,1737,6.81968,-26.0477
364,-713,7.35474,20.9537,0,0,0,0,0,0,0,-1,1588,1737,7.35472,-20.9537
371,-713,3.07507,25.4108,0,0,0,0,0,0,0,-1,1595,1737,3.07502,-25.4107
378,-713,4.21838,25.306,0,0,0,0,0,0,0,-1,1602,1737,4.21837,-25.306
385,-713,5.078,25.3104,0,0,0,0,0,0,0,-1,1609,1737,5.07795,-25.3104
392,-713,5.92114,25.3118,0,0,0,0,0,0,0,-1,1616,1737,5.92112,-25.3118
399,-713,3.14368,25.2808,0,0,0,0,0,0,0,-1,1623,1737,3.14369,-25.2808
406,-713,1.82678,26.7354,0,0,0,0,0,0,0,-1,1630,1737,1.82679,-26.7354
413,-713,3.24731,18.2787,0,0,0,0,0,0,0,-1,1637,1737,3.24726,-18.2787
420,-713,0,0,0,0,0,0,0,0,0,-1,1644,1737,0,0
427,-713,0,0,0,0,0,0,0,0,0,-1,1651,1737,0,0
434,-713,0,0,0,0,0,0,0,0,0,-1,1658,1737,0,0
441,-713,0,0,0,0,0,0,0,0,0,-1,1665,1737,0,0
448,-713,0,0,0,0,0,0,0,0,0,-1,1672,1737,0,0
455,-713,0,0,0,0,0,0,0,0,0,-1,1679,1737,0,0
462,-713,0,0,0,0,0,0,0,0,0,-1,1686,1737,0,0
469,-713,0,0,0,0,0,0,0,0,0,-1,1693,1737,0,0
476,-713,0,0,0,0,0,0,0,0,0,-1,1700,1737,0,0
483,-713,0,0,0,0,0,0,0,0,0,-1,1707,1737,0,0
490,-713,0,0,0,0,0,0,0,0,0,-1,1714,1737,0,0
497,-713,0,0,0,0,0,0,0,0,0,-1,1721,1737,0,0
504,-713,0,0,0,0,0,0,0,0,0,-1,1728,1737,0,0
511,-713,0,0,0,0,0,0,0,0,0,-1,1735,1737,0,0
518,-713,0,0,0,0,0,0,0,0,0,-1,1742,1737,0,0
525,-713,0,0,0,0,0,0,0,0,0,-1,1749,1737,0,0
532,-713,0,0,0,0,0,0,0,0,0,-1,1756,1737,0,0
539,-713,0,0,0,0,0,0,0,0,0,-1,1763,1737,0,0
546,-713,0,0,0,0,0,0,0,0,0,-1,1770,1737,0,0
553,-713,0,0,0,0,0,0,0,0,0,-1,1777,1737,0,0
560,-713,0,0,0,0,0,0,0,0,0,-1,1784,1737,0,0
567,-713,0,0,0,0,0,0,0,0,0,-1,1791,1737,0,0
574,-713,0,0,0,0,0,0,0,0,0,-1,1798,1737,0,0
581,-713,0,0,0,0,0,0,0,0,0,-1,1805,1737,0,0
588,-713,0,0,0,0,0,0,0,0,0,-1,1812,1737,0,0
595,-713,0,0,0,0,0,0,0,0,0,-1,1819,1737,0,0
602,-713,0,0,0,0,0,0,0,0,0,-1,1826,1737,0,0
609,-713,0,0,0,0,0,0,0,0,0,-1,1833,1737,0,0
616,-713,0,0,0,0,0,0,0,0,0,-1,1840,1737,0,0
623,-713,0,0,0,0,0,0,0,0,0,-1,1847,1737,0,0
630,-713,0,0,0,0,0,0,0,0,0,-1,1854,1737,0,0
637,-713,0,0,0,0,0,0,0,0,0,-1,1861,1737,0,0
644,-713,0,0,0,0,0,0,0,0,0,-1,1868,1737,0,0
651,-713,0,0,0,0,0,0,0,0,0,-1,1875,1737,0,0
658,-713,0,0,0,0,0,0,0,0,0,-1,1882,1737,0,0
665,-713,0,0,0,0,0,0,0,0,0,-1,1889,1737,0,0
672,-713,0,0,0,0,0,0,0,0,0,-1,1896,1737,0,0
679,-713,0,0,0,0,0,0,0,0,0,-1,1903,1737,0,0
686,-713,0,0,0,0,0,0,0,0,0,-1,1910,1737,0,0
693,-713,0,0,0,0,0,0,0,0,0,-1,1917,1737,0,0
700,-713,0,0,0,0,0,0,0,0,0,-1,1924,1737,0,0
707,-713,0,0,0,0,0,0,0,0,0,-1,1931,1737,0,0
714,-713,0,0,0,0,0,0,0,0,0,-1,1938,1737,0,0
721,-713,0,0,0,0,0,0,0,0,0,-1,1945,1737,0,0
728,-713,0,0,0,0,0,0,0,0,0,-1,1952,1737,0,0
735,-713,0,0,0,0,0,0,0,0,0,-1,1959,1737,0,0
742,-713,0,0,0,0,0,0,0,0,0,-1,1966,1737,0,0
749,-713,0,0,0,0,0,0,0,0,0,-1,1973,1737,0,0
756,-713,0,0,0,0,0,0,0,0,0,-1,1980,1737,0,0
763,-713,0,0,0,0,0,0,0,0,0,-1,1987,1737,0,0
770,-713,0,0,0,0,0,0,0,0,0,-1,1994,1737,0,0
777,-713,0,0,0,0,0,0,0,0,0,-1,2001,1737,0,0
784,-713,0,0,0,0,0,0,0,0,0,-1,2008,1737,0,0
791,-713,0,0,0,0,0,0,0,0,0,-1,2015,1737,0,0
798,-713,0,0,0,0,0,0,0,0,0,-1,2022,1737,0,0
805,-713,0,0,0,0,0,0,0,0,0,-1,2029,1737,0,0
812,-713,0,0,0,0,0,0,0,0,0,-1,2036,1737,0,0
-700,-720,0,0,0,0,0,0,0,0,0,-1,524,1744,0,0
-693,-720,0,0,0,0,0,0,0,0,0,-1,531,1744,0,0
-686,-720,0,0,0,0,0,0,0,0,0,-1,538,1744,0,0
-679,-720,0,0,0,0,0,0,0,0,0,-1,545,1744,0,0
-672,-720,0,0,0,0,0,0,0,0,0,-1,552,1744,0,0
-665,-720,0,0,0,0,0,0,0,0,0,-1,559,1744,0,0
-658,-720,0,0,0,0,0,0,0,0,0,-1,566,1744,0,0
-651,-720,0,0,0,0,0,0,0,0,0,-1,573,1744,0,0
-644,-720,0,0,0,0,0,0,0,0,0,-1,580,1744,0,0
-637,-720,0,0,0,0,0,0,0,0,0,-1,587,1744,0,0
-630,-720,0,0,0,0,0,0,0,0,0,-1,594,1744,0,0
-623,-720,0,0,0,0,0,0,0,0,0,-1,601,1744,0,0
-616,-720,0,0,0,0,0,0,0,0,0,-1,608,1744,0,0
-609,-720,0,0,0,0,0,0,0,0,0,-1,615,1744,0,0
-602,-720,0,0,0,0,0,0,0,0,0,-1,622,1744,0,0
-595,-720,0,0,0,0,0,0,0,0,0,-1,629,1744,0,0
-588,-720,0,0,0,0,0,0,0,0,0,-1,636,1744,0,0
-581,-720,0,0,0,0,0,0,0,0,0,-1,643,1744,0,0
-574,-720,0,0,0,0,0,0,0,0,0,-1,650,1744,0,0
-567,-720,0,0,0,0,0,0,0,0,0,-1,657,1744,0,0
-560,-720,0,0,0,0,0,0,0,0,0,-1,664,1744,0,0
-553,-720,0,0,0,0,0,0,0,0,0,-1,671,1744,0,0
-546,-720,0,0,0,0,0,0,0,0,0,-1,678,1744,0,0
-539,-720,0,0,0,0,0,0,0,0,0,-1,685,1744,0,0
-532,-720,0,0,0,0,0,0,0,0,0,-1,692,1744,0,0
-525,-720,0,0,0,0,0,0,0,0,0,-1,699,1744,0,0
-518,-720,0,0,0,0,0,0,0,0,0,-1,706,1744,0,0
-511,-720,0,0,0,0,0,0,0,0,0,-1,713,1744,0,0
-504,-720,0,0,0,0,0,0,0,0,0,-1,720,1744,0,0
-497,-720,0,0,0,0,0,0,0,0,0,-1,727,1744,0,0
-490,-720,0,0,0,0,0,0,0,0,0,-1,734,1744,0,0
-483,-720,0,0,0,0,0,0,0,0,0,-1,741,1744,0,0
-476,-720,0,0,0,0,0,0,0,0,0,-1,748,1744,0,0
-469,-720,0,0,0,0,0,0,0,0,0,-1,755,1744,0,0
-462,-720,0,0,0,0,0,0,0,0,0,-1,762,1744,0,0
-455,-720,0,0,0,0,0,0,0,0,0,-1,769,1744,0,0
-448,-720,0,0,0,0,0,0,0,0,0,-1,776,1744,0,0
-441,-720,0,0,0,0,0,0,0,0,0,-1,783,1744,0,0
-434,-720,0,0,0,0,0,0,0,0,0,-1,790,1744,0,0
-427,-720,0,0,0,0,0,0,0,0,0,-1,797,1744,0,0
-420,-720,0,0,0,0,0,0,0,0,0,-1,804,1744,0,0
-413,-720,0,0,0,0,0,0,0,0,0,-1,811,1744,0,0
-406,-720,0,0,0,0,0,0,0,0,0,-1,818,1744,0,0
-399,-720,0,0,0,0,0,0,0,0,0,-1,825,1744,0,0
-392,-720,0,0,0,0,0,0,0,0,0,-1,832,1744,0,0
-385,-720,0,0,0,0,0,0,0,0,0,-1,839,1744,0,0
-378,-720,0,0,0,0,0,0,0,0,0,-1,846,1744,0,0
-371,-720,0,0,0,0,0,0,0,0,0,-1,853,1744,0,0
-364,-720,0,0,0,0,0,0,0,0,0,-1,860,1744,0,0
-357,-720,0,0,0,0,0,0,0,0,0,-1,867,1744,0,0
-350,-720,0,0,0,0,0,0,0,0,0,-1,874,1744,0,0
-343,-720,0,0,0,0,0,0,0,0,0,-1,881,1744,0,0
-336,-720,0,0,0,0,0,0,0,0,0,-1,888,1744,0,0
-329,-720,0,0,0,0,0,0,0,0,0,-1,895,1744,0,0
-322,-720,0,0,0,0,0,0,0,0,0,-1,902,1744,0,0
-315,-720,0,0,0,0,0,0,0,0,0,-1,909,1744,0,0
-308,-720,0,0,0,0,0,0,0,0,0,-1,916,1744,0,0
-301,-720,0,0,0,0,0,0,0,0,0,-1,923,1744,0,0
-294,-720,0,0,0,0,0,0,0,0,0,-1,930,1744,0,0
-287,-720,0,0,0,0,0,0,0,0,0,-1,937,1744,0,0
-280,-720,6.46796,22.6417,0,0,0,0,0,0,0,-1,944,1744,6.46793,-22.6417
-273,-720,8.54633,13.262,0,0,0,0,0,0,0,-1,951,1744,8.54636,-13.2619
-266,-720,7.28027,13.3165,0,0,0,0,0,0,0,-1,958,1744,7.28026,-13.3166
-259,-720,3.70563,18.6372,0,0,0,0,0,0,0,-1,965,1744,3.70564,-18.6372
-252,-720,4.00989,18.5059,0,0,0,0,0,0,0,-1,972,1744,4.00988,-18.5058
-245,-720,4.63318,20.3199,0,0,0,0,0,0,0,-1,979,1744,4.6332,-20.32
-238,-720,5.02216,24.1455,0,0,0,0,0,0,0,-1,986,1744,5.02217,-24.1455
-231,-720,7.35455,28.3225,0,0,0,0,0,0,0,-1,993,1744,7.35453,-28.3225
-224,-720,7.65991,19.4061,0,0,0,0,0,0,0,-1,1000,1744,7.6599,-19.4061
-217,-720,6.90515,29.4521,0,0,0,0,0,0,0,-1,1007,1744,6.90515,-29.4521
-210,-720,7.95215,28.3104,0,0,0,0,0,0,0,-1,1014,1744,7.95217,-28.3105
-203,-720,7.99146,28.7675,0,0,0,0,0,0,0,-1,1021,1744,7.99151,-28.7675
-196,-720,7.80017,29.4915,0,0,0,0,0,0,0,-1,1028,1744,7.80015,-29.4914
-189,-720,7.59021,29.4871,0,0,0,0,0,0,0,-1,1035,1744,7.59025,-29.4871
-182,-720,7.64819,29.9451,-0.00131929,0.00887231,0.00516002,0.0110286,-0.00347559,1.17497,0.00874429,0.0455351,1042,1744,7.64816,-29.9451
-175,-720,7.61719,30.3262,0,0,0,0,0,0,0,-1,1049,1744,7.61723,-30.3262
-168,-720,7.7959,30.5873,0,0,0,0,0,0,0,-1,1056,1744,7.79588,-30.5873
-161,-720,7.3894,30.6372,0.000532743,0.00658118,0.00549219,0.00982673,-0.00271281,1.03707,0.00761817,0.0414491,1063,1744,7.38939,-30.6373
-154,-720,7.55554,31.0559,0.000616597,0.00560743,0.00516352,0.00884691,-0.00262288,1.01049,0.00693947,0.0323911,1070,1744,7.5556,-31.056
-147,-720,7.49316,31.3678,0.000547643,0.00514936,0.00470555,0.00808645,-0.00238945,1.01279,0.00633937,0.0280125,1077,1744,7.49319,-31.3678
-140,-720,7.5022,31.5624,0.000188272,0.00532119,0.00419303,0.00767085,-0.00216139,1.06002,0.00596632,0.0216103,1084,1744,7.50226,-31.5624
-133,-720,7.45435,31.6989,-0.000339197,0.00522129,0.00375415,0.0071126,-0.0022305,1.10412,0.00563438,0.0143997,1091,1744,7.4544,-31.6988
-126,-720,7.43787,31.8983,-0.000779196,0.00509618,0.00334553,0.00661075,-0.00229377,1.14569,0.00533862,0.0129206,1098,1744,7.43792,-31.8983
-119,-720,7.42712,32.1216,-0.00113204,0.00476959,0.00292053,0.00597049,-0.00233295,1.18068,0.00494495,0.0143805,1105,1744,7.42717,-32.1216
-112,-720,7.40405,32.3285,-0.00124845,0.00457763,0.00259009,0.00556258,-0.00223341,1.20741,0.0046358,0.0134518,1112,1744,7.40399,-32.3285
-105,-720,7.40039,32.5282,-0.0016628,0.00425787,0.00202699,0.00488533,-0.00229026,1.2706,0.00423218,0.014153,1119,1744,7.40041,-32.5282
-98,-720,7.3811,32.7091,-0.00160479,0.00382037,0.00179203,0.00435886,-0.00214329,1.27889,0.00382597,0.011267,1126,1744,7.38115,-32.7091
-91,-720,7.3595,32.8898,-0.0012028,0.00370663,0.00169576,0.00423541,-0.00173158,1.26853,0.0035447,0.00937464,1133,1744,7.35947,-32.8898
-84,-720,7.35791,33.0811,-0.000891577,0.00333783,0.00150304,0.00381757,-0.00137131,1.26184,0.00310479,0.00985871,1140,1744,7.35787,-33.081
-77,-720,7.36768,33.2866,-0.000445963,0.00303402,0.00137351,0.00351081,-0.000922749,1.23668,0.00270118,0.0127389,1147,1744,7.36764,-33.2866
-70,-720,7.36768,33.455,-0.000207931,0.00262826,0.00100044,0.00294564,-0.000525311,1.2636,0.00216026,0.0120433,1154,1744,7.36767,-33.455
-63,-720,7.34436,33.6201,-0.000237454,0.00231897,0.000628186,0.002465,-0.000383477,1.3424,0.00178494,0.0117581,1161,1744,7.34436,-33.6201
-56,-720,7.35645,33.7596,-0.00016458,0.00198315,0.000516436,0.00210088,-0.000282307,1.34667,0.00150355,0.0132098,1168,1744,7.35641,-33.7597
-49,-720,7.31335,33.8455,4.77318e-05,0.0017032,0.000432518,0.00180939,-5.84589e-05,1.33004,0.00122621,0.020119,1175,1744,7.31337,-33.8455
-42,-720,7.31421,33.9728,0.000389484,0.00143827,0.000437057,0.00159652,0.00023123,1.22339,0.000996256,0.0217145,1182,1744,7.31416,-33.9728
-35,-720,7.36987,34.1272,0.000831645,0.00136474,0.000427249,0.00160177,0.000594615,1.06429,0.000934948,0.0184899,1189,1744,7.36987,-34.1271
-28,-720,7.34753,34.2623,0.00122955,0.00156769,0.000318692,0.00175938,0.00103786,1.02927,0.00102124,0.0106297,1196,1744,7.34759,-34.2623
-21,-720,7.32959,34.386,0.00152935,0.00189584,0.00033853,0.00209754,0.00132765,1.03346,0.0012252,0.00880036,1203,1744,7.32961,-34.3859
-14,-720,7.33118,34.4689,0.00183201,0.00233225,0.000409605,0.00256206,0.00160219,1.0595,0.00149462,0.0110423,1210,1744,7.33114,-34.4688
-7,-720,7.34875,34.576,0.00204804,0.00284878,0.000520243,0.00310488,0.00179194,1.11336,0.0017997,0.012143,1217,1744,7.34869,-34.576
0,-720,7.35828,34.6687,0.0021597,0.00360656,0.000683069,0.00387809,0.00188818,1.19244,0.00223927,0.013299,1224,1744,7.35833,-34.6687
7,-720,7.36304,34.7273,0.00215036,0.00448701,0.000807612,0.00473897,0.0018984,1.26838,0.00275401,0.0157014,1231,1744,7.36307,-34.7273
14,-720,7.38782,34.7882,0.00207542,0.00531357,0.000855188,0.00552554,0.00186344,1.32782,0.00324602,0.0135038,1238,1744,7.38788,-34.7883
21,-720,7.38538,34.8677,0.0019886,0.00601094,0.000923421,0.0062128,0.00178674,1.35558,0.00369328,0.0104256,1245,1744,7.38535,-34.8677
28,-720,7.38306,34.9314,0.00186137,0.006576,0.0010105,0.00678345,0.00165391,1.36831,0.00408419,0.0112195,1252,1744,7.3831,-34.9314
35,-720,7.396,34.9594,0.0017391,0.00692792,0.000978554,0.00710633,0.00156069,1.39046,0.00431251,0.0112534,1259,1744,7.39606,-34.9593
42,-720,7.39331,34.9924,0.00152112,0.00710055,0.00094816,0.00725728,0.0013644,1.40698,0.0044536,0.0113425,1266,1744,7.39329,-34.9924
49,-720,7.40503,35.0088,0.00124829,0.00718853,0.000860938,0.00731079,0.00112603,1.42973,0.00454525,0.0116416,1273,1744,7.40506,-35.0088
56,-720,7.41541,35.0366,0.00104106,0.0071138,0.000798582,0.00721706,0.000937797,1.44221,0.00453124,0.010619,1280,1744,7.41545,-35.0367
63,-720,7.41736,35.0459,0.000799731,0.00687415,0.000685682,0.00695058,0.000723293,1.45978,0.00441243,0.0124863,1287,1744,7.41732,-35.0459
70,-720,7.44824,35.0581,0.000572795,0.00635736,0.000600125,0.00641897,0.000511191,1.4685,0.0041195,0.0125671,1294,1744,7.44819,-35.0581
77,-720,7.47253,35.0485,0.000381723,0.00560167,0.000627476,0.00567604,0.000307356,1.45283,0.00368585,0.0138622,1301,1744,7.47249,-35.0484
84,-720,7.47778,35.0161,0.000210904,0.00487793,0.000615692,0.00495779,0.000131047,1.44181,0.00326239,0.0141587,1308,1744,7.47784,-35.0161
91,-720,7.47559,35.0177,0.000125997,0.00413101,0.000562623,0.00420855,4.84607e-05,1.43385,0.00278969,0.0136889,1315,1744,7.47561,-35.0177
98,-720,7.46301,34.9927,0.00010339,0.00352245,0.000573174,0.00361598,9.86131e-06,1.40904,0.00240737,0.0126839,1322,1744,7.46306,-34.9927
105,-720,7.47571,34.9596,0.000124371,0.00283466,0.000564231,0.00294743,1.16013e-05,1.37353,0.0019611,0.0121836,1329,1744,7.47577,-34.9596
112,-720,7.49597,34.9307,0.000205381,0.00217979,0.000621405,0.00235908,2.6088e-05,1.2899,0.0015641,0.0112654,1336,1744,7.49592,-34.9307
119,-720,7.50842,34.8779,0.000254756,0.00160743,0.000721097,0.00191973,-5.75496e-05,1.16209,0.00129943,0.0114208,1343,1744,7.50838,-34.8779
126,-720,7.50745,34.7999,0.000395759,0.00114456,0.000793373,0.00164744,-0.000107119,1.00586,0.00113568,0.0110066,1350,1744,7.50746,-34.7999
133,-720,7.50842,34.7202,0.000577396,0.000729049,0.000862557,0.00151911,-0.000212661,0.82924,0.00109056,0.0119595,1357,1744,7.5084,-34.7202
140,-720,7.52356,34.6389,0.000717924,0.000474359,0.000974688,0.00157841,-0.000386126,0.723248,0.00120184,0.0177596,1364,1744,7.52351,-34.6389
147,-720,7.51917,34.5236,0.000810843,0.000243749,0.000985864,0.00155313,-0.000498534,0.645371,0.00123559,0.018668,1371,1744,7.51915,-34.5235
154,-720,7.51904,34.4227,0.000762613,8.20962e-05,0.000975249,0.00145526,-0.000610548,0.617554,0.00122548,0.0126904,1378,1744,7.51906,-34.4227
161,-720,7.54443,34.3243,0.000598158,9.86385e-05,0.000914804,0.00129668,-0.000599888,0.652136,0.00111935,0.00939217,1385,1744,7.54445,-34.3243
168,-720,7.53137,34.2219,0.000399158,0.000143409,0.000779265,0.00106097,-0.000518404,0.704075,0.000929615,0.0100522,1392,1744,7.53135,-34.2219
175,-720,7.52966,34.1006,0.000139698,0.000371276,0.000580165,0.000847093,-0.00033612,0.883894,0.000704042,0.0160628,1399,1744,7.52971,-34.1005
182,-720,7.55676,33.9863,-0.000114866,0.000631349,0.00034685,0.000767667,-0.000251184,1.19632,0.00061291,0.0161005,1406,1744,7.55679,-33.9863
189,-720,7.55713,33.8528,-0.000267911,0.000759818,9.32455e-05,0.00076821,-0.000276303,1.48104,0.000624944,0.013769,1413,1744,7.55718,-33.8528
196,-720,7.5575,33.7095,-0.000350332,0.00106175,-0.000469617,0.00120367,-0.00049225,-1.27732,0.00100745,0.0146804,1420,1744,7.55744,-33.7095
203,-720,7.53625,33.556,-0.000393779,0.00147668,-0.00106848,0.00196142,-0.000878519,-1.14489,0.0016789,0.0173757,1427,1744,7.53625,-33.5561
210,-720,7.52356,33.4045,-0.000562385,0.00143661,-0.00140893,0.00216456,-0.00129034,-1.0939,0.00201586,0.0148431,1434,1744,7.52352,-33.4045
217,-720,7.52478,33.2356,-0.000774316,0.00142064,-0.001714,0.00235841,-0.00171209,-1.07016,0.00235996,0.0131958,1441,1744,7.52475,-33.2356
224,-720,7.5144,33.0543,-0.00097799,0.0013495,-0.00204865,0.00254187,-0.00217036,-1.0437,0.00272343,0.009435,1448,1744,7.51446,-33.0543
231,-720,7.50269,32.8782,-0.00128896,0.00116275,-0.00231489,0.00255634,-0.00268254,-1.0289,0.00302496,0.00939615,1455,1744,7.50274,-32.8782
238,-720,7.49072,32.6853,-0.000874401,0.0013011,-0.002319,0.00277479,-0.00234809,-1.00469,0.00296112,0.00839439,1462,1744,7.49075,-32.6853
245,-720,7.48132,32.511,5.27893e-05,0.00137187,-0.00247251,0.00327129,-0.00184663,-0.915738,0.00299275,0.0112238,1469,1744,7.48127,-32.511
252,-720,7.47437,32.312,0.00078406,0.00148039,-0.00266514,0.00382001,-0.00155556,-0.850349,0.00319406,0.0115871,1476,1744,7.47436,-32.312
259,-720,7.4585,32.0946,0.00164774,0.00174837,-0.00280253,0.00450104,-0.00110493,-0.794374,0.00342886,0.0101859,1483,1744,7.45852,-32.0947
266,-720,7.42419,31.881,0.00257275,0.00213361,-0.00292488,0.00528629,-0.000579934,-0.747934,0.00373255,0.00779865,1490,1744,7.4242,-31.8809
273,-720,7.41064,31.6738,0.00373709,0.00300545,-0.00326516,0.00665686,8.5678e-05,-0.729612,0.00440962,0.0139868,1497,1744,7.41066,-31.6738
280,-720,7.32715,31.4777,0.00489153,0.0038879,-0.00372563,0.00814898,0.000630445,-0.718454,0.00523518,0.0223284,1504,1744,7.32713,-31.4776
287,-720,7.26245,31.1908,0.00597868,0.00522108,-0.00432949,0.00994591,0.00125385,-0.741763,0.00625469,0.0384724,1511,1744,7.26239,-31.1908
294,-720,7.5752,30.894,0.00689324,0.00669552,-0.005017,0.0118124,0.00177641,-0.775547,0.00735463,0.0384094,1518,1744,7.57521,-30.894
301,-720,7.73914,30.6646,0.00765912,0.00767063,-0.00542476,0.0130896,0.00224011,-0.785928,0.00808385,0.0388739,1525,1744,7.73917,-30.6646
308,-720,7.55298,30.4076,0.00790834,0.00851658,-0.00626475,0.0144846,0.00194033,-0.809652,0.009079,0.0385243,1532,1744,7.55304,-30.4075
315,-720,7.3623,30.2233,0.00768647,0.0101407,-0.00728009,0.0162963,0.00153079,-0.868891,0.0103916,0.0417472,1539,1744,7.36231,-30.2233
322,-720,7.35095,30.0389,0,0,0,0,0,0,0,-1,1546,1744,7.35098,-30.0389
329,-720,7.79773,28.8168,0,0,0,0,0,0,0,-1,1553,1744,7.79771,-28.8167
336,-720,6.14148,26.5682,0,0,0,0,0,0,0,-1,1560,1744,6.14151,-26.5683
343,-720,6.78552,21.3625,0,0,0,0,0,0,0,-1,1567,1744,6.78551,-21.3625
350,-720,4.0741,11.1836,0,0,0,0,0,0,0,-1,1574,1744,4.07412,-11.1836
357,-720,6.90833,21.4504,0,0,0,0,0,0,0,-1,1581,1744,6.90827,-21.4505
364,-720,5.83777,24.1599,0,0,0,0,0,0,0,-1,1588,1744,5.83773,-24.1599
371,-720,5.46997,23.6176,0,0,0,0,0,0,0,-1,1595,1744,5.47001,-23.6176
378,-720,3.88257,25.5404,0,0,0,0,0,0,0,-1,1602,1744,3.88262,-25.5404
385,-720,4.63611,25.6746,0,0,0,0,0,0,0,-1,1609,1744,4.63612,-25.6746
392,-720,3.49377,23.5042,0,0,0,0,0,0,0,-1,1616,1744,3.4938,-23.5042
399,-720,2.37317,24.7166,0,0,0,0,0,0,0,-1,1623,1744,2.37317,-24.7166
406,-720,0,0,0,0,0,0,0,0,0,-1,1630,1744,0,0
413,-720,0,0,0,0,0,0,0,0,0,-1,1637,1744,0,0
420,-720,0,0,0,0,0,0,0,0,0,-1,1644,1744,0,0
427,-720,0,0,0,0,0,0,0,0,0,-1,1651,1744,0,0
434,-720,0,0,0,0,0,0,0,0,0,-1,1658,1744,0,0
441,-720,0,0,0,0,0,0,0,0,0,-1,1665,1744,0,0
448,-720,0,0,0,0,0,0,0,0,0,-1,1672,1744,0,0
455,-720,0,0,0,0,0,0,0,0,0,-1,1679,1744,0,0
462,-720,0,0,0,0,0,0,0,0,0,-1,1686,1744,0,0
469,-720,0,0,0,0,0,0,0,0,0,-1,1693,1744,0,0
476,-720,0,0,0,0,0,0,0,0,0,-1,1700,1744,0,0
483,-720,0,0,0,0,0,0,0,0,0,-1,1707,1744,0,0
490,-720,0,0,0,0,0,0,0,0,0,-1,1714,1744,0,0
497,-720,0,0,0,0,0,0,0,0,0,-1,1721,1744,0,0
504,-720,0,0,0,0,0,0,0,0,0,-1,1728,1744,0,0
511,-720,0,0,0,0,0,0,0,0,0,-1,1735,1744,0,0
518,-720,0,0,0,0,0,0,0,0,0,-1,1742,1744,0,0
525,-720,0,0,0,0,0,0,0,0,0,-1,1749,1744,0,0
532,-720,0,0,0,0,0,0,0,0,0,-1,1756,1744,0,0
539,-720,0,0,0,0,0,0,0,0,0,-1,1763,1744,0,0
546,-720,0,0,0,0,0,0,0,0,0,-1,1770,1744,0,0
553,-720,0,0,0,0,0,0,0,0,0,-1,1777,1744,0,0
560,-720,0,0,0,0,0,0,0,0,0,-1,1784,1744,0,0
567,-720,0,0,0,0,0,0,0,0,0,-1,1791,1744,0,0
574,-720,0,0,0,0,0,0,0,0,0,-1,1798,1744,0,0
581,-720,0,0,0,0,0,0,0,0,0,-1,1805,1744,0,0
588,-720,0,0,0,0,0,0,0,0,0,-1,1812,1744,0,0
595,-720,0,0,0,0,0,0,0,0,0,-1,1819,1744,0,0
602,-720,0,0,0,0,0,0,0,0,0,-1,1826,1744,0,0
609,-720,0,0,0,0,0,0,0,0,0,-1,1833,1744,0,0
616,-720,0,0,0,0,0,0,0,0,0,-1,1840,1744,0,0
623,-720,0,0,0,0,0,0,0,0,0,-1,1847,1744,0,0
630,-720,0,0,0,0,0,0,0,0,0,-1,1854,1744,0,0
637,-720,0,0,0,0,0,0,0,0,0,-1,1861,1744,0,0
644,-720,0,0,0,0,0,0,0,0,0,-1,1868,1744,0,0
651,-720,0,0,0,0,0,0,0,0,0,-1,1875,1744,0,0
658,-720,0,0,0,0,0,0,0,0,0,-1,1882,1744,0,0
665,-720,0,0,0,0,0,0,0,0,0,-1,1889,1744,0,0
672,-720,0,0,0,0,0,0,0,0,0,-1,1896,1744,0,0
679,-720,0,0,0,0,0,0,0,0,0,-1,1903,1744,0,0
686,-720,0,0,0,0,0,0,0,0,0,-1,1910,1744,0,0
693,-720,0,0,0,0,0,0,0,0,0,-1,1917,1744,0,0
700,-720,0,0,0,0,0,0,0,0,0,-1,1924,1744,0,0
707,-720,0,0,0,0,0,0,0,0,0,-1,1931,1744,0,0
714,-720,0,0,0,0,0,0,0,0,0,-1,1938,1744,0,0
721,-720,0,0,0,0,0,0,0,0,0,-1,1945,1744,0,0
728,-720,0,0,0,0,0,0,0,0,0,-1,1952,1744,0,0
735,-720,0,0,0,0,0,0,0,0,0,-1,1959,1744,0,0
742,-720,0,0,0,0,0,0,0,0,0,-1,1966,1744,0,0
749,-720,0,0,0,0,0,0,0,0,0,-1,1973,1744,0,0
756,-720,0,0,0,0,0,0,0,0,0,-1,1980,1744,0,0
763,-720,0,0,0,0,0,0,0,0,0,-1,1987,1744,0,0
770,-720,0,0,0,0,0,0,0,0,0,-1,1994,1744,0,0
777,-720,0,0,0,0,0,0,0,0,0,-1,2001,1744,0,0
784,-720,0,0,0,0,0,0,0,0,0,-1,2008,1744,0,0
791,-720,0,0,0,0,0,0,0,0,0,-1,2015,1744,0,0
798,-720,0,0,0,0,0,0,0,0,0,-1,2022,1744,0,0
805,-720,0,0,0,0,0,0,0,0,0,-1,2029,1744,0,0
812,-720,0,0,0,0,0,0,0,0,0,-1,2036,1744,0,0
-700,-727,0,0,0,0,0,0,0,0,0,-1,524,1751,0,0
-693,-727,0,0,0,0,0,0,0,0,0,-1,531,1751,0,0
-686,-727,0,0,0,0,0,0,0,0,0,-1,538,1751,0,0
-679,-727,0,0,0,0,0,0,0,0,0,-1,545,1751,0,0
-672,-727,0,0,0,0,0,0,0,0,0,-1,552,1751,0,0
-665,-727,0,0,0,0,0,0,0,0,0,-1,559,1751,0,0
-658,-727,0,0,0,0,0,0,0,0,0,-1,566,1751,0,0
-651,-727,0,0,0,0,0,0,0,0,0,-1,573,1751,0,0
-644,-727,0,0,0,0,0,0,0,0,0,-1,580,1751,0,0
-637,-727,0,0,0,0,0,0,0,0,0,-1,587,1751,0,0
-630,-727,0,0,0,0,0,0,0,0,0,-1,594,1751,0,0
-623,-727,0,0,0,0,0,0,0,0,0,-1,601,1751,0,0
-616,-727,0,0,0,0,0,0,0,0,0,-1,608,1751,0,0
-609,-727,0,0,0,0,0,0,0,0,0,-1,615,1751,0,0
-602,-727,0,0,0,0,0,0,0,0,0,-1,622,1751,0,0
-595,-727,0,0,0,0,0,0,0,0,0,-1,629,1751,0,0
-588,-727,0,0,0,0,0,0,0,0,0,-1,636,1751,0,0
-581,-727,0,0,0,0,0,0,0,0,0,-1,643,1751,0,0
-574,-727,0,0,0,0,0,0,0,0,0,-1,650,1751,0,0
-567,-727,0,0,0,0,0,0,0,0,0,-1,657,1751,0,0
-560,-727,0,0,0,0,0,0,0,0,0,-1,664,1751,0,0
-553,-727,0,0,0,0,0,0,0,0,0,-1,671,1751,0,0
-546,-727,0,0,0,0,0,0,0,0,0,-1,678,1751,0,0
-539,-727,0,0,0,0,0,0,0,0,0,-1,685,1751,0,0
-532,-727,0,0,0,0,0,0,0,0,0,-1,692,1751,0,0
-525,-727,0,0,0,0,0,0,0,0,0,-1,699,1751,0,0
-518,-727,0,0,0,0,0,0,0,0,0,-1,706,1751,0,0
-511,-727,0,0,0,0,0,0,0,0,0,-1,713,1751,0,0
-504,-727,0,0,0,0,0,0,0,0,0,-1,720,1751,0,0
-497,-727,0,0,0,0,0,0,0,0,0,-1,727,1751,0,0
-490,-727,0,0,0,0,0,0,0,0,0,-1,734,1751,0,0
-483,-727,0,0,0,0,0,0,0,0,0,-1,741,1751,0,0
-476,-727,0,0,0,0,0,0,0,0,0,-1,748,1751,0,0
-469,-727,0,0,0,0,0,0,0,0,0,-1,755,1751,0,0
-462,-727,0,0,0,0,0,0,0,0,0,-1,762,1751,0,0
-455,-727,0,0,0,0,0,0,0,0,0,-1,769,1751,0,0
-448,-727,0,0,0,0,0,0,0,0,0,-1,776,1751,0,0
-441,-727,0,0,0,0,0,0,0,0,0,-1,783,1751,0,0
-434,-727,0,0,0,0,0,0,0,0,0,-1,790,1751,0,0
-427,-727,0,0,0,0,0,0,0,0,0,-1,797,1751,0,0
-420,-727,0,0,0,0,0,0,0,0,0,-1,804,1751,0,0
-413,-727,0,0,0,0,0,0,0,0,0,-1,811,1751,0,0
-406,-727,0,0,0,0,0,0,0,0,0,-1,818,1751,0,0
-399,-727,0,0,0,0,0,0,0,0,0,-1,825,1751,0,0
-392,-727,0,0,0,0,0,0,0,0,0,-1,832,1751,0,0
-385,-727,0,0,0,0,0,0,0,0,0,-1,839,1751,0,0
-378,-727,0,0,0,0,0,0,0,0,0,-1,846,1751,0,0
-371,-727,0,0,0,0,0,0,0,0,0,-1,853,1751,0,0
-364,-727,0,0,0,0,0,0,0,0,0,-1,860,1751,0,0
-357,-727,0,0,0,0,0,0,0,0,0,-1,867,1751,0,0
-350,-727,0,0,0,0,0,0,0,0,0,-1,874,1751,0,0
-343,-727,0,0,0,0,0,0,0,0,0,-1,881,1751,0,0
-336,-727,0,0,0,0,0,0,0,0,0,-1,888,1751,0,0
-329,-727,0,0,0,0,0,0,0,0,0,-1,895,1751,0,0
-322,-727,0,0,0,0,0,0,0,0,0,-1,902,1751,0,0
-315,-727,0,0,0,0,0,0,0,0,0,-1,909,1751,0,0
-308,-727,0,0,0,0,0,0,0,0,0,-1,916,1751,0,0
-301,-727,0,0,0,0,0,0,0,0,0,-1,923,1751,0,0
-294,-727,0,0,0,0,0,0,0,0,0,-1,930,1751,0,0
-287,-727,0,0,0,0,0,0,0,0,0,-1,937,1751,0,0
-280,-727,0,0,0,0,0,0,0,0,0,-1,944,1751,0,0
-273,-727,0,0,0,0,0,0,0,0,0,-1,951,1751,0,0
-266,-727,4.24805,7.61145,0,0,0,0,0,0,0,-1,958,1751,4.24802,-7.6115
-259,-727,3.65228,5.4082,0,0,0,0,0,0,0,-1,965,1751,3.65229,-5.40818
-252,-727,6.35193,19.5046,0,0,0,0,0,0,0,-1,972,1751,6.35193,-19.5046
-245,-727,6.6543,20.9005,0,0,0,0,0,0,0,-1,979,1751,6.65433,-20.9005
-238,-727,4.31769,18.0181,0,0,0,0,0,0,0,-1,986,1751,4.31766,-18.018
-231,-727,6.50403,21.7985,0,0,0,0,0,0,0,-1,993,1751,6.50403,-21.7985
-224,-727,7.89355,29.2025,0,0,0,0,0,0,0,-1,1000,1751,7.89356,-29.2026
-217,-727,6.96588,30.0333,0,0,0,0,0,0,0,-1,1007,1751,6.96586,-30.0333
-210,-727,6.24988,30.1333,0,0,0,0,0,0,0,-1,1014,1751,6.24989,-30.1333
-203,-727,4.43604,24.287,0,0,0,0,0,0,0,-1,1021,1751,4.43608,-24.287
-196,-727,5.16003,26.0752,0,0,0,0,0,0,0,-1,1028,1751,5.16001,-26.0752
-189,-727,6.14868,28.0311,0,0,0,0,0,0,0,-1,1035,1751,6.14867,-28.0311
-182,-727,8.01184,30.2452,0,0,0,0,0,0,0,-1,1042,1751,8.01188,-30.2452
-175,-727,7.89246,30.723,0,0,0,0,0,0,0,-1,1049,1751,7.89241,-30.7231
-168,-727,6.83337,30.252,0,0,0,0,0,0,0,-1,1056,1751,6.83335,-30.252
-161,-727,7.24902,30.5298,0.00175862,0.00948317,0.0075318,0.0140852,-0.00284346,1.02231,0.0104675,0.0455744,1063,1751,7.249,-30.5298
-154,-727,7.7699,30.7804,0.00152194,0.00815302,0.00703204,0.0126119,-0.00293698,1.00569,0.00953889,0.0498878,1070,1751,7.76987,-30.7804
-147,-727,7.69971,31.1523,0.00108116,0.0074308,0.00638965,0.0113909,-0.00287894,1.01597,0.00871358,0.0480639,1077,1751,7.69976,-31.1524
-140,-727,7.60266,31.3267,0.000328483,0.00745766,0.00569579,0.0106123,-0.00282618,1.065,0.00818131,0.0332972,1084,1751,7.60267,-31.3266
-133,-727,7.70264,31.54,-0.000573635,0.00713945,0.00511496,0.00968882,-0.00312301,1.10842,0.0077139,0.0241458,1091,1751,7.70269,-31.54
-126,-727,7.61121,31.8451,-0.001283,0.00680446,0.00457839,0.0088692,-0.00334774,1.14713,0.00728962,0.0158155,1098,1751,7.61117,-31.8451
-119,-727,7.59534,32.1216,-0.00182549,0.00620873,0.00401104,0.00786839,-0.00348514,1.17848,0.00671582,0.012126,1105,1751,7.59531,-32.1216
-112,-727,7.5979,32.3105,-0.00200549,0.00589487,0.00359618,0.00728664,-0.00339726,1.20154,0.00630313,0.0138504,1112,1751,7.59794,-32.3105
-105,-727,7.56812,32.5217,-0.00258759,0.00547357,0.00291335,0.00641624,-0.00353026,1.25786,0.00582263,0.014905,1119,1751,7.56813,-32.5218
-98,-727,7.56897,32.7177,-0.0025573,0.00489902,0.00262817,0.00573227,-0.00339056,1.26378,0.00532459,0.0124207,1126,1751,7.56895,-32.7176
-91,-727,7.55872,32.8898,-0.00208013,0.00475762,0.00251276,0.0055817,-0.00290421,1.25389,0.00497997,0.0109048,1133,1751,7.55868,-32.8897
-84,-727,7.52917,33.0841,-0.00172771,0.00425638,0.00226908,0.00501947,-0.0024908,1.24638,0.00441722,0.0115735,1140,1751,7.52916,-33.0841
-77,-727,7.5116,33.2664,-0.00115777,0.00379225,0.00215584,0.00459952,-0.00196504,1.2125,0.00389045,0.0129,1147,1751,7.51155,-33.2664
-70,-727,7.49829,33.4349,-0.000913724,0.00319729,0.00165065,0.00377801,-0.00149445,1.2325,0.00313779,0.013941,1154,1751,7.4983,-33.4349
-63,-727,7.49023,33.6221,-0.00118566,0.00270874,0.00109033,0.00299323,-0.00147014,1.31557,0.00262646,0.0114461,1161,1751,7.49019,-33.6221
-56,-727,7.47131,33.7592,-0.00136626,0.00214325,0.000895837,0.00235869,-0.00158171,1.33478,0.00228969,0.0108582,1168,1751,7.47126,-33.7592
-49,-727,7.43701,33.8693,-0.00129095,0.00165473,0.000716363,0.00181971,-0.00145592,1.34445,0.00189507,0.0140409,1175,1751,7.43697,-33.8693
-42,-727,7.46167,34.0055,-0.000922455,0.0010547,0.000508654,0.00117788,-0.00104564,1.33319,0.00128451,0.0169137,1182,1751,7.46162,-34.0055
-35,-727,7.46814,34.1273,-0.00044551,0.000698236,0.000250482,0.000750686,-0.00049796,1.36438,0.000725812,0.0148513,1189,1751,7.46817,-34.1273
-28,-727,7.43982,34.2384,-0.000109884,0.000648152,-8.90979e-05,0.000658484,-0.000120216,-1.45535,0.000484063,0.00892484,1196,1751,7.43982,-34.2384
-21,-727,7.43005,34.3584,0.000111635,0.000793565,-0.00018734,0.000841642,6.35581e-05,-1.31959,0.000541154,0.0101092,1203,1751,7.4301,-34.3583
-14,-727,7.44006,34.4529,0.000374511,0.00100062,-0.000174584,0.00104601,0.00032912,-1.31644,0.000617592,0.0115782,1210,1751,7.44005,-34.4529
-7,-727,7.4552,34.5692,0.000505507,0.00139351,-1.25596e-05,0.00139369,0.000505329,-1.55666,0.000814713,0.015122,1217,1751,7.45516,-34.5693
0,-727,7.44507,34.686,0.000565991,0.00184686,0.000203479,0.00187841,0.000534443,1.41698,0.00111757,0.0155819,1224,1751,7.44501,-34.686
7,-727,7.41479,34.7399,0.00053352,0.00257804,0.000417947,0.00266018,0.000451382,1.37674,0.00164378,0.0148915,1231,1751,7.41481,-34.7399
14,-727,7.42249,34.8,0.000429564,0.00320802,0.000573585,0.00332177,0.000315811,1.37502,0.00211711,0.0135199,1238,1751,7.4225,-34.8001
21,-727,7.42468,34.8817,0.000324573,0.00380442,0.000737379,0.00395423,0.000174772,1.37037,0.00257987,0.0113972,1245,1751,7.42463,-34.8818
28,-727,7.44446,34.9233,0.000204146,0.0042606,0.000916333,0.00445799,6.75581e-06,1.35863,0.00296975,0.0112738,1252,1751,7.44442,-34.9233
35,-727,7.45972,34.9459,0.000115295,0.00450955,0.000969449,0.00471392,-8.90775e-05,1.36303,0.00317272,0.0122114,1259,1751,7.45976,-34.946
42,-727,7.43225,34.9707,-2.19203e-05,0.00459271,0.000972937,0.00478945,-0.000218664,1.37127,0.00326829,0.0127446,1266,1751,7.43226,-34.9706
49,-727,7.41809,34.9875,-0.000228146,0.00457771,0.000898426,0.00474017,-0.000390609,1.3919,0.00329804,0.0117699,1273,1751,7.41815,-34.9875
56,-727,7.41833,35.0521,-0.000379619,0.00435285,0.000825752,0.00449279,-0.000519563,1.40292,0.00318255,0.0104369,1280,1751,7.41832,-35.0521
63,-727,7.43591,35.0605,-0.000501231,0.00403686,0.000697247,0.00414157,-0.000605942,1.42173,0.00298361,0.0119964,1287,1751,7.43596,-35.0605
70,-727,7.4624,35.046,-0.000599592,0.00344387,0.000601205,0.00353137,-0.000687089,1.42627,0.00261355,0.013455,1294,1751,7.46245,-35.046
77,-727,7.47424,35.0505,-0.000651185,0.00264757,0.000622523,0.00276114,-0.000764754,1.39035,0.00214168,0.0157023,1301,1751,7.47428,-35.0505
84,-727,7.45557,35.0186,-0.000744602,0.00179683,0.000610427,0.00193585,-0.000883616,1.34688,0.00166518,0.0165221,1308,1751,7.45559,-35.0186
91,-727,7.45361,34.9827,-0.000840377,0.00103251,0.00055212,0.00118316,-0.000991023,1.30443,0.0012569,0.0170202,1315,1751,7.45358,-34.9827
98,-727,7.44507,34.9889,-0.000872884,0.000354634,0.000566791,0.00057631,-0.00109456,1.19798,0.000980023,0.0144667,1322,1751,7.44505,-34.9889
105,-727,7.46118,34.944,-0.000893738,-0.00023701,0.000638492,0.000152606,-0.00128335,1.0229,0.00091071,0.013613,1329,1751,7.46117,-34.944
112,-727,7.46362,34.9071,-0.000932216,-0.000856743,0.000775626,-0.000117936,-0.00167102,0.809705,0.00107686,0.0114733,1336,1751,7.46366,-34.9071
119,-727,7.47119,34.8607,-0.00102761,-0.00128952,0.000950154,-0.00019943,-0.0021177,0.716918,0.00135024,0.00890124,1343,1751,7.47119,-34.8607
126,-727,7.47913,34.7738,-0.00108415,-0.00166497,0.00111507,-0.000222292,-0.00252683,0.658009,0.00161556,0.0100887,1350,1751,7.47916,-34.7738
133,-727,7.47131,34.7056,-0.00112674,-0.00188493,0.00126334,-0.00018685,-0.00282483,0.639636,0.00182413,0.0147264,1357,1751,7.4713,-34.7055
140,-727,7.45825,34.6278,-0.00120962,-0.00189688,0.00143152,-8.10659e-05,-0.00302543,0.667603,0.00199048,0.0217201,1364,1751,7.4582,-34.6278
147,-727,7.44177,34.5239,-0.00132216,-0.00186275,0.00151588,-5.26692e-05,-0.00313224,0.697171,0.00207083,0.0180751,1371,1751,7.44178,-34.5239
154,-727,7.42993,34.4255,-0.00148469,-0.00173687,0.00151342,-9.21154e-05,-0.00312944,0.743836,0.00205628,0.0109585,1378,1751,7.4299,-34.4256
161,-727,7.42847,34.3331,-0.00165413,-0.00152755,0.00143379,-0.000155657,-0.00302603,0.807456,0.00196752,0.00897087,1385,1751,7.42843,-34.3332
168,-727,7.39856,34.2372,-0.00187441,-0.00133041,0.00121147,-0.000360782,-0.00284404,0.895829,0.00178794,0.0127795,1392,1751,7.39858,-34.2372
175,-727,7.4115,34.1057,-0.00208627,-0.000901041,0.000884957,-0.0004286,-0.00255871,1.08043,0.00158241,0.018914,1399,1751,7.41155,-34.1058
182,-727,7.43848,33.9858,-0.00218791,-0.00031609,0.000482434,-0.000199066,-0.00230494,1.33282,0.00147475,0.0200055,1406,1751,7.43849,-33.9859
189,-727,7.4071,33.8541,-0.00199599,0.000232823,5.1004e-05,0.000233989,-0.00199715,1.54793,0.00141589,0.012515,1413,1751,7.40706,-33.8541
196,-727,7.40845,33.7235,-0.00165003,0.00109208,-0.000961622,0.00139569,-0.00195364,-1.26497,0.00194266,0.0142334,1420,1751,7.40842,-33.7235
203,-727,7.36426,33.5719,-0.00138464,0.00192633,-0.00193495,0.00281734,-0.00227566,-1.13926,0.00294598,0.017148,1427,1751,7.36427,-33.5719
210,-727,7.34094,33.4047,-0.00148047,0.00187563,-0.00239843,0.00312475,-0.00272959,-1.09064,0.00338257,0.0156873,1434,1751,7.34095,-33.4047
217,-727,7.35278,33.2306,-0.00162868,0.00190255,-0.00275505,0.0034092,-0.00313533,-1.07036,0.00377959,0.0121119,1441,1751,7.35277,-33.2306
224,-727,7.33459,33.0366,-0.00181587,0.00181061,-0.00315246,0.0036341,-0.00363937,-1.04638,0.00419934,0.0124222,1448,1751,7.33454,-33.0367
231,-727,7.32422,32.8663,-0.00215385,0.00155647,-0.00346095,0.00362812,-0.00422549,-1.03142,0.00453866,0.00988466,1455,1751,7.32418,-32.8663
238,-727,7.32568,32.6835,-0.0015645,0.00169602,-0.00342221,0.00385645,-0.00372492,-1.00768,0.00437733,0.0101691,1462,1751,7.32567,-32.6834
245,-727,7.30725,32.507,-0.000311346,0.00174333,-0.00354163,0.00440361,-0.00297163,-0.926561,0.00428477,0.0100901,1469,1751,7.30722,-32.5069
252,-727,7.27966,32.302,0.00071396,0.00183063,-0.00368248,0.00499687,-0.00245228,-0.860635,0.00438361,0.0110825,1476,1751,7.27972,-32.302
259,-727,7.27991,32.0808,0.00193828,0.00212291,-0.00374277,0.00577451,-0.00171332,-0.797728,0.00453009,0.0139997,1483,1751,7.27988,-32.0808
266,-727,7.2926,31.9187,0.00327564,0.00259551,-0.00377514,0.006726,-0.000854845,-0.74048,0.00479442,0.0191314,1490,1751,7.29257,-31.9187
273,-727,7.3407,31.7698,0.00497585,0.00366604,-0.00407357,0.00844683,0.000195061,-0.705696,0.00556734,0.0383116,1497,1751,7.34071,-31.7698
280,-727,7.1759,31.6445,0,0,0,0,0,0,0,-1,1504,1751,7.17595,-31.6445
287,-727,6.93103,30.8719,0.00846224,0.00658562,-0.00521612,0.0128238,0.00222409,-0.696407,0.0079127,0.0486114,1511,1751,6.93106,-30.872
294,-727,7.56409,30.7448,0.00993839,0.00859456,-0.00603405,0.0153378,0.00319513,-0.72995,0.00934407,0.0496782,1518,1751,7.5641,-30.7447
301,-727,8.0387,30.4606,0,0,0,0,0,0,0,-1,1525,1751,8.03873,-30.4606
308,-727,7.6145,30.5444,0,0,0,0,0,0,0,-1,1532,1751,7.61448,-30.5444
315,-727,7.15601,30.2866,0,0,0,0,0,0,0,-1,1539,1751,7.15605,-30.2866
322,-727,5.75818,18.2477,0,0,0,0,0,0,0,-1,1546,1751,5.75815,-18.2477
329,-727,6.61853,11.6267,0,0,0,0,0,0,0,-1,1553,1751,6.61859,-11.6267
336,-727,5.55823,20.2439,0,0,0,0,0,0,0,-1,1560,1751,5.55829,-20.2438
343,-727,2.41699,8.72095,0,0,0,0,0,0,0,-1,1567,1751,2.41702,-8.72098
350,-727,3.89783,7.50195,0,0,0,0,0,0,0,-1,1574,1751,3.89782,-7.50193
357,-727,4.48462,10.2948,0,0,0,0,0,0,0,-1,1581,1751,4.48464,-10.2948
364,-727,6.96729,17.2365,0,0,0,0,0,0,0,-1,1588,1751,6.96732,-17.2365
371,-727,5.04565,23.2227,0,0,0,0,0,0,0,-1,1595,1751,5.04564,-23.2227
378,-727,4.56726,23.0574,0,0,0,0,0,0,0,-1,1602,1751,4.56727,-23.0574
385,-727,3.52307,22.6431,0,0,0,0,0,0,0,-1,1609,1751,3.52303,-22.643
392,-727,0,0,0,0,0,0,0,0,0,-1,1616,1751,0,0
399,-727,0,0,0,0,0,0,0,0,0,-1,1623,1751,0,0
406,-727,0,0,0,0,0,0,0,0,0,-1,1630,1751,0,0
413,-727,0,0,0,0,0,0,0,0,0,-1,1637,1751,0,0
420,-727,0,0,0,0,0,0,0,0,0,-1,1644,1751,0,0
427,-727,0,0,0,0,0,0,0,0,0,-1,1651,1751,0,0
434,-727,0,0,0,0,0,0,0,0,0,-1,1658,1751,0,0
441,-727,0,0,0,0,0,0,0,0,0,-1,1665,1751,0,0
448,-727,0,0,0,0,0,0,0,0,0,-1,1672,1751,0,0
455,-727,0,0,0,0,0,0,0,0,0,-1,1679,1751,0,0
462,-727,0,0,0,0,0,0,0,0,0,-1,1686,1751,0,0
469,-727,0,0,0,0,0,0,0,0,0,-1,1693,1751,0,0
476,-727,0,0,0,0,0,0,0,0,0,-1,1700,1751,0,0
483,-727,0,0,0,0,0,0,0,0,0,-1,1707,1751,0,0
490,-727,0,0,0,0,0,0,0,0,0,-1,1714,1751,0,0
497,-727,0,0,0,0,0,0,0,0,0,-1,1721,1751,0,0
504,-727,0,0,0,0,0,0,0,0,0,-1,1728,1751,0,0
511,-727,0,0,0,0,0,0,0,0,0,-1,1735,1751,0,0
518,-727,0,0,0,0,0,0,0,0,0,-1,1742,1751,0,0
525,-727,0,0,0,0,0,0,0,0,0,-1,1749,1751,0,0
532,-727,0,0,0,0,0,0,0,0,0,-1,1756,1751,0,0
539,-727,0,0,0,0,0,0,0,0,0,-1,1763,1751,0,0
546,-727,0,0,0,0,0,0,0,0,0,-1,1770,1751,0,0
553,-727,0,0,0,0,0,0,0,0,0,-1,1777,1751,0,0
560,-727,0,0,0,0,0,0,0,0,0,-1,1784,1751,0,0
567,-727,0,0,0,0,0,0,0,0,0,-1,1791,1751,0,0
574,-727,0,0,0,0,0,0,0,0,0,-1,1798,1751,0,0
581,-727,0,0,0,0,0,0,0,0,0,-1,1805,1751,0,0
588,-727,0,0,0,0,0,0,0,0,0,-1,1812,1751,0,0
595,-727,0,0,0,0,0,0,0,0,0,-1,1819,1751,0,0
602,-727,0,0,0,0,0,0,0,0,0,-1,1826,1751,0,0
609,-727,0,0,0,0,0,0,0,0,0,-1,1833,1751,0,0
616,-727,0,0,0,0,0,0,0,0,0,-1,1840,1751,0,0
623,-727,0,0,0,0,0,0,0,0,0,-1,1847,1751,0,0
630,-727,0,0,0,0,0,0,0,0,0,-1,1854,1751,0,0
637,-727,0,0,0,0,0,0,0,0,0,-1,1861,1751,0,0
644,-727,0,0,0,0,0,0,0,0,0,-1,1868,1751,0,0
651,-727,0,0,0,0,0,0,0,0,0,-1,1875,1751,0,0
658,-727,0,0,0,0,0,0,0,0,0,-1,1882,1751,0,0
665,-727,0,0,0,0,0,0,0,0,0,-1,1889,1751,0,0
672,-727,0,0,0,0,0,0,0,0,0,-1,1896,1751,0,0
679,-727,0,0,0,0,0,0,0,0,0,-1,1903,1751,0,0
686,-727,0,0,0,0,0,0,0,0,0,-1,1910,1751,0,0
693,-727,0,0,0,0,0,0,0,0,0,-1,1917,1751,0,0
700,-727,0,0,0,0,0,0,0,0,0,-1,1924,1751,0,0
707,-727,0,0,0,0,0,0,0,0,0,-1,1931,1751,0,0
714,-727,0,0,0,0,0,0,0,0,0,-1,1938,1751,0,0
721,-727,0,0,0,0,0,0,0,0,0,-1,1945,1751,0,0
728,-727,0,0,0,0,0,0,0,0,0,-1,1952,1751,0,0
735,-727,0,0,0,0,0,0,0,0,0,-1,1959,1751,0,0
742,-727,0,0,0,0,0,0,0,0,0,-1,1966,1751,0,0
749,-727,0,0,0,0,0,0,0,0,0,-1,1973,1751,0,0
756,-727,0,0,0,0,0,0,0,0,0,-1,1980,1751,0,0
763,-727,0,0,0,0,0,0,0,0,0,-1,1987,1751,0,0
770,-727,0,0,0,0,0,0,0,0,0,-1,1994,1751,0,0
777,-727,0,0,0,0,0,0,0,0,0,-1,2001,1751,0,0
784,-727,0,0,0,0,0,0,0,0,0,-1,2008,1751,0,0
791,-727,0,0,0,0,0,0,0,0,0,-1,2015,1751,0,0
798,-727,0,0,0,0,0,0,0,0,0,-1,2022,1751,0,0
805,-727,0,0,0,0,0,0,0,0,0,-1,2029,1751,0,0
812,-727,0,0,0,0,0,0,0,0,0,-1,2036,1751,0,0
-700,-734,0,0,0,0,0,0,0,0,0,-1,524,1758,0,0
-693,-734,0,0,0,0,0,0,0,0,0,-1,531,1758,0,0
-686,-734,0,0,0,0,0,0,0,0,0,-1,538,1758,0,0
-679,-734,0,0,0,0,0,0,0,0,0,-1,545,1758,0,0
-672,-734,0,0,0,0,0,0,0,0,0,-1,552,1758,0,0
-665,-734,0,0,0,0,0,0,0,0,0,-1,559,1758,0,0
-658,-734,0,0,0,0,0,0,0,0,0,-1,566,1758,0,0
-651,-734,0,0,0,0,0,0,0,0,0,-1,573,1758,0,0
-644,-734,0,0,0,0,0,0,0,0,0,-1,580,1758,0,0
-637,-734,0,0,0,0,0,0,0,0,0,-1,587,1758,0,0
-630,-734,0,0,0,0,0,0,0,0,0,-1,594,1758,0,0
-623,-734,0,0,0,0,0,0,0,0,0,-1,601,1758,0,0
-616,-734,0,0,0,0,0,0,0,0,0,-1,608,1758,0,0
-609,-734,0,0,0,0,0,0,0,0,0,-1,615,1758,0,0
-602,-734,0,0,0,0,0,0,0,0,0,-1,622,1758,0,0
-595,-734,0,0,0,0,0,0,0,0,0,-1,629,1758,0,0
-588,-734,0,0,0,0,0,0,0,0,0,-1,636,1758,0,0
-581,-734,0,0,0,0,0,0,0,0,0,-1,643,1758,0,0
-574,-734,0,0,0,0,0,0,0,0,0,-1,650,1758,0,0
-567,-734,0,0,0,0,0,0,0,0,0,-1,657,1758,0,0
-560,-734,0,0,0,0,0,0,0,0,0,-1,664,1758,0,0
-553,-734,0,0,0,0,0,0,0,0,0,-1,671,1758,0,0
-546,-734,0,0,0,0,0,0,0,0,0,-1,678,1758,0,0
-539,-734,0,0,0,0,0,0,0,0,0,-1,685,1758,0,0
-532,-734,0,0,0,0,0,0,0,0,0,-1,692,1758,0,0
-525,-734,0,0,0,0,0,0,0,0,0,-1,699,1758,0,0
-518,-734,0,0,0,0,0,0,0,0,0,-1,706,1758,0,0
-511,-734,0,0,0,0,0,0,0,0,0,-1,713,1758,0,0
-504,-734,0,0,0,0,0,0,0,0,0,-1,720,1758,0,0
-497,-734,0,0,0,0,0,0,0,0,0,-1,727,1758,0,0
-490,-734,0,0,0,0,0,0,0,0,0,-1,734,1758,0,0
-483,-734,0,0,0,0,0,0,0,0,0,-1,741,1758,0,0
-476,-734,0,0,0,0,0,0,0,0,0,-1,748,1758,0,0
-469,-734,0,0,0,0,0,0,0,0,0,-1,755,1758,0,0
-462,-734,0,0,0,0,0,0,0,0,0,-1,762,1758,0,0
-455,-734,0,0,0,0,0,0,0,0,0,-1,769,1758,0,0
-448,-734,0,0,0,0,0,0,0,0,0,-1,776,1758,0,0
-441,-734,0,0,0,0,0,0,0,0,0,-1,783,1758,0,0
-434,-734,0,0,0,0,0,0,0,0,0,-1,790,1758,0,0
-427,-734,0,0,0,0,0,0,0,0,0,-1,797,1758,0,0
-420,-734,0,0,0,0,0,0,0,0,0,-1,804,1758,0,0
-413,-734,0,0,0,0,0,0,0,0,0,-1,811,1758,0,0
-406,-734,0,0,0,0,0,0,0,0,0,-1,818,1758,0,0
-399,-734,0,0,0,0,0,0,0,0,0,-1,825,1758,0,0
-392,-734,0,0,0,0,0,0,0,0,0,-1,832,1758,0,0
-385,-734,0,0,0,0,0,0,0,0,0,-1,839,1758,0,0
-378,-734,0,0,0,0,0,0,0,0,0,-1,846,1758,0,0
-371,-734,0,0,0,0,0,0,0,0,0,-1,853,1758,0,0
-364,-734,0,0,0,0,0,0,0,0,0,-1,860,1758,0,0
-357,-734,0,0,0,0,0,0,0,0,0,-1,867,1758,0,0
-350,-734,0,0,0,0,0,0,0,0,0,-1,874,1758,0,0
-343,-734,0,0,0,0,0,0,0,0,0,-1,881,1758,0,0
-336,-734,0,0,0,0,0,0,0,0,0,-1,888,1758,0,0
-329,-734,0,0,0,0,0,0,0,0,0,-1,895,1758,0,0
-322,-734,0,0,0,0,0,0,0,0,0,-1,902,1758,0,0
-315,-734,0,0,0,0,0,0,0,0,0,-1,909,1758,0,0
-308,-734,0,0,0,0,0,0,0,0,0,-1,916,1758,0,0
-301,-734,0,0,0,0,0,0,0,0,0,-1,923,1758,0,0
-294,-734,0,0,0,0,0,0,0,0,0,-1,930,1758,0,0
-287,-734,0,0,0,0,0,0,0,0,0,-1,937,1758,0,0
-280,-734,0,0,0,0,0,0,0,0,0,-1,944,1758,0,0
-273,-734,0,0,0,0,0,0,0,0,0,-1,951,1758,0,0
-266,-734,0,0,0,0,0,0,0,0,0,-1,958,1758,0,0
-259,-734,0,0,0,0,0,0,0,0,0,-1,965,1758,0,0
-252,-734,6.93439,18.351,0,0,0,0,0,0,0,-1,972,1758,6.93438,-18.3509
-245,-734,6.95746,19.5341,0,0,0,0,0,0,0,-1,979,1758,6.95746,-19.5341
-238,-734,6.216,17.1718,0,0,0,0,0,0,0,-1,986,1758,6.216,-17.1717
-231,-734,7.25604,16.8156,0,0,0,0,0,0,0,-1,993,1758,7.25602,-16.8156
-224,-734,7.80121,16.9666,0,0,0,0,0,0,0,-1,1000,1758,7.8012,-16.9666
-217,-734,6.38855,30.5729,0,0,0,0,0,0,0,-1,1007,1758,6.38854,-30.5729
-210,-734,7.38232,31.0132,0,0,0,0,0,0,0,-1,1014,1758,7.38233,-31.0132
-203,-734,8.3761,31.4535,0,0,0,0,0,0,0,-1,1021,1758,8.37611,-31.4535
-196,-734,4.22339,27.3916,0,0,0,0,0,0,0,-1,1028,1758,4.22341,-27.3916
-189,-734,5.65881,28.0665,0,0,0,0,0,0,0,-1,1035,1758,5.65876,-28.0665
-182,-734,6.72888,29.6884,0,0,0,0,0,0,0,-1,1042,1758,6.72887,-29.6884
-175,-734,7.3667,26.2832,0,0,0,0,0,0,0,-1,1049,1758,7.3667,-26.2832
-168,-734,7.76843,29.7156,0,0,0,0,0,0,0,-1,1056,1758,7.76848,-29.7156
-161,-734,7.35229,30.6122,0,0,0,0,0,0,0,-1,1063,1758,7.3523,-30.6122
-154,-734,7.94983,30.8252,0,0,0,0,0,0,0,-1,1070,1758,7.94983,-30.8253
-147,-734,8.33984,31.6097,0,0,0,0,0,0,0,-1,1077,1758,8.33981,-31.6097
-140,-734,7.86267,31.3296,0,0,0,0,0,0,0,-1,1084,1758,7.86268,-31.3295
-133,-734,8.0094,31.4797,-0.000894265,0.0104153,0.00688289,0.0136684,-0.00414739,1.12928,0.0107644,0.0460117,1091,1758,8.00936,-31.4798
-126,-734,7.65979,31.6995,-0.0019724,0.00983016,0.00616148,0.0124605,-0.00460277,1.16731,0.0101937,0.0405616,1098,1758,7.65981,-31.6995
-119,-734,7.54688,32.0927,-0.00274432,0.00890697,0.00539207,0.0110194,-0.00485672,1.19741,0.00939343,0.0379728,1105,1758,7.54685,-32.0926
-112,-734,7.78296,32.2916,-0.00298396,0.00846938,0.0048552,0.0102505,-0.00476513,1.21918,0.00886003,0.0341459,1112,1758,7.783,-32.2916
-105,-734,7.74573,32.5055,-0.00372723,0.00793975,0.00403236,0.00919777,-0.00498525,1.26838,0.00830809,0.027209,1119,1758,7.74575,-32.5055
-98,-734,7.77234,32.6449,-0.00370356,0.00718228,0.00366122,0.00829907,-0.00482036,1.27473,0.00766275,0.0280786,1126,1758,7.77235,-32.6449
-91,-734,7.7771,32.7723,-0.00312993,0.0069188,0.00348481,0.00800902,-0.00422015,1.26759,0.00717258,0.0348127,1133,1758,7.77709,-32.7723
-84,-734,7.68701,33.0345,-0.00270781,0.00613602,0.0031432,0.00713933,-0.00371111,1.26182,0.00636788,0.0358995,1140,1758,7.68702,-33.0345
-77,-734,7.66296,33.2633,0,0,0,0,0,0,0,-1,1147,1758,7.66297,-33.2633
-70,-734,7.6543,33.433,0,0,0,0,0,0,0,-1,1154,1758,7.65436,-33.433
-63,-734,7.58496,33.4535,-0.00210839,0.00351535,0.00151595,0.00389797,-0.002491,1.32357,0.00371837,0.0262995,1161,1758,7.58491,-33.4535
-56,-734,7.604,33.6967,-0.00231626,0.00315313,0.000633657,0.00322559,-0.00238871,1.45695,0.0032534,0.0161915,1168,1758,7.60406,-33.6967
-49,-734,7.58203,33.8917,-0.00214162,0.00286192,-0.00016727,0.0028675,-0.0021472,-1.53742,0.00290518,0.0126162,1175,1758,7.582,-33.8917
-42,-734,7.56262,34.0424,-0.00153736,0.00235597,-0.000895541,0.00255209,-0.00173347,-1.35521,0.00248927,0.0135287,1182,1758,7.56265,-34.0424
-35,-734,7.58447,34.142,-0.000909826,0.00202856,-0.00153193,0.00268195,-0.00156321,-1.16765,0.00247915,0.0135763,1189,1758,7.58444,-34.142
-28,-734,7.56177,34.2333,-0.000589933,0.00189814,-0.00219494,0.00317707,-0.00186887,-1.04321,0.00294573,0.00981081,1196,1758,7.56177,-34.2333
-21,-734,7.5802,34.3419,-0.000447675,0.0019703,-0.00244641,0.00349015,-0.00196753,-1.01489,0.00319161,0.0151828,1203,1758,7.58023,-34.3419
-14,-734,7.52808,34.4801,-0.000246617,0.0020747,-0.00251462,0.0036836,-0.00185551,-1.00161,0.00325555,0.0152639,1210,1758,7.52806,-34.4801
-7,-734,7.55017,34.5778,0.000232221,0.00263778,-0.00191611,0.00369733,-0.000827337,-1.06567,0.00278198,0.0177713,1217,1758,7.55019,-34.5778
0,-734,7.53564,34.6661,0.000564187,0.00307762,-0.00141072,0.00371021,-6.84028e-05,-1.14926,0.00249659,0.0178008,1224,1758,7.53563,-34.6662
7,-734,7.4856,34.7444,0.000736605,0.00391111,-0.00103279,0.00421754,0.000430179,-1.28237,0.00267983,0.0133848,1231,1758,7.48554,-34.7444
14,-734,7.48083,34.8347,0.000845448,0.00453902,-0.000559637,0.00462195,0.000762515,-1.42368,0.0028612,0.0129649,1238,1758,7.4808,-34.8347
21,-734,7.45618,34.8879,0.000989199,0.00513537,-8.21347e-05,0.005137,0.000987573,-1.551,0.00314755,0.0114417,1245,1758,7.45615,-34.888
28,-734,7.47009,34.9305,0.00111221,0.00547749,0.00039048,0.00551215,0.00107756,1.48228,0.00337344,0.0115302,1252,1758,7.4701,-34.9305
35,-734,7.48816,34.9655,0.00120884,0.00558568,0.000702933,0.0056958,0.00109871,1.4154,0.00348911,0.0148275,1259,1758,7.48815,-34.9654
42,-734,7.4812,34.9852,0.00117184,0.00545503,0.000842532,0.0056148,0.00101207,1.38339,0.00345561,0.0127839,1266,1758,7.48114,-34.9852
49,-734,7.44702,35.0012,0.00095427,0.00507992,0.000899077,0.00526734,0.000766854,1.36529,0.00328591,0.0106827,1273,1758,7.44702,-35.0013
56,-734,7.42493,35.0433,0.000665586,0.00449586,0.000857258,0.00467897,0.000482476,1.36036,0.00297157,0.0096844,1280,1758,7.42488,-35.0434
63,-734,7.43591,35.0536,0.000371885,0.00383032,0.000728188,0.00397739,0.000224816,1.37151,0.00257992,0.0119561,1287,1758,7.43595,-35.0536
70,-734,7.41772,35.0592,4.09847e-05,0.00279783,0.000597322,0.00292169,-8.28718e-05,1.36634,0.001976,0.0127772,1294,1758,7.41774,-35.0592
77,-734,7.42859,35.1127,-0.000280103,0.00156459,0.000600771,0.00174299,-0.000458506,1.28213,0.00134121,0.0171997,1301,1758,7.42864,-35.1127
84,-734,7.41638,35.0652,-0.000688911,0.000264452,0.00058521,0.000542552,-0.000967011,1.12717,0.000882957,0.0164233,1308,1758,7.41632,-35.0652
91,-734,7.42444,35.0001,-0.00113033,-0.000891678,0.000568504,-0.000430113,-0.0015919,0.888845,0.000950892,0.0182562,1315,1758,7.42443,-35.0002
98,-734,7.43921,34.9796,-0.00165996,-0.00199498,0.000480703,-0.00131842,-0.00233652,0.617747,0.0013527,0.0136871,1322,1758,7.43918,-34.9796
105,-734,7.45313,34.9388,-0.00202102,-0.00278571,0.000704895,-0.00160145,-0.00320528,0.536898,0.00185057,0.0144217,1329,1758,7.45312,-34.9388
112,-734,7.45435,34.9032,-0.00231935,-0.00364106,0.00113096,-0.00167032,-0.00429009,0.520989,0.00249702,0.0126255,1336,1758,7.45433,-34.9031
119,-734,7.43201,34.8376,-0.00264931,-0.00416985,0.0014764,-0.00174893,-0.00507024,0.54763,0.00297385,0.01337,1343,1758,7.43203,-34.8377
126,-734,7.42358,34.7407,-0.00297599,-0.00463524,0.00183004,-0.00179631,-0.00581493,0.572586,0.003438,0.0157371,1350,1758,7.42363,-34.7407
133,-734,7.39136,34.6882,-0.00327744,-0.00483541,0.0021483,-0.00177126,-0.00634159,0.611468,0.00377833,0.0145986,1357,1758,7.39139,-34.6883
140,-734,7.38318,34.6217,-0.00354948,-0.00481158,0.00244071,-0.00165956,-0.0067015,0.658892,0.00403004,0.0194411,1364,1758,7.38312,-34.6217
147,-734,7.36267,34.5126,-0.00377668,-0.00473795,0.00265117,-0.00156293,-0.0069517,0.695727,0.0042113,0.0137552,1371,1758,7.36261,-34.5126
154,-734,7.34766,34.4404,-0.00397399,-0.00455317,0.00268068,-0.00156731,-0.00695985,0.731593,0.00421573,0.00937914,1378,1758,7.3477,-34.4404
161,-734,7.32043,34.359,-0.00414106,-0.00427182,0.00259445,-0.00161117,-0.00680171,0.772801,0.00410422,0.00871638,1385,1758,7.32042,-34.359
168,-734,7.28809,34.2411,-0.00438201,-0.00396287,0.00230472,-0.00185821,-0.00648667,0.830738,0.00385725,0.0146119,1392,1758,7.28806,-34.241
175,-734,7.28723,34.1058,-0.00456485,-0.00318659,0.00183418,-0.00191636,-0.00583509,0.965096,0.00343437,0.0187173,1399,1758,7.28721,-34.1058
182,-734,7.29602,33.9696,-0.00448552,-0.0019853,0.00109636,-0.00157265,-0.00489817,1.21081,0.00288769,0.0154604,1406,1758,7.29598,-33.9696
189,-734,7.26941,33.8385,-0.00385779,-0.00061163,0.000266196,-0.000589946,-0.00387948,1.48952,0.00241382,0.011291,1413,1758,7.26946,-33.8385
196,-734,7.26904,33.7163,-0.00301016,0.00128235,-0.00138866,0.00169242,-0.00342023,-1.28366,0.00300745,0.0138599,1420,1758,7.26908,-33.7163
203,-734,7.26514,33.5505,-0.00240056,0.0025144,-0.00288012,0.00384298,-0.00372914,-1.13859,0.00437193,0.0183741,1427,1758,7.26516,-33.5505
210,-734,7.2052,33.3837,-0.00243031,0.00242513,-0.00349126,0.00424979,-0.00425496,-1.0892,0.00491022,0.0235945,1434,1758,7.20519,-33.3836
217,-734,7.2196,33.194,-0.00252958,0.00249054,-0.00393466,0.0046476,-0.00468663,-1.06932,0.00538913,0.0236674,1441,1758,7.21966,-33.194
224,-734,7.23962,32.9597,-0.00272126,0.00239407,-0.00441604,0.00493965,-0.00526684,-1.04788,0.00589373,0.0246682,1448,1758,7.23959,-32.9597
231,-734,7.21509,32.837,-0.00309944,0.00207122,-0.0047906,0.00492958,-0.0059578,-1.03284,0.00629517,0.0210257,1455,1758,7.21514,-32.8371
238,-734,7.13586,32.7115,-0.00239606,0.00214431,-0.00474366,0.00513303,-0.00538478,-1.00858,0.00607304,0.0206497,1462,1758,7.13592,-32.7115
245,-734,7.1543,32.4331,-0.000879137,0.00209399,-0.00482255,0.0056539,-0.00443905,-0.934903,0.00584122,0.0254315,1469,1758,7.1543,-32.4331
252,-734,7.18225,32.2015,0.000450598,0.0020874,-0.00487103,0.0062083,-0.0036703,-0.868628,0.00576582,0.0285885,1476,1758,7.18229,-32.2015
259,-734,7.18042,32.1256,0.0021111,0.00234205,-0.00480257,0.00703054,-0.00257739,-0.797418,0.00574231,0.0370843,1483,1758,7.18047,-32.1257
266,-734,7.07861,32.0603,0.00399537,0.0028711,-0.0046892,0.00815601,-0.00128953,-0.725743,0.00591423,0.0479112,1490,1758,7.07863,-32.0603
273,-734,7.01697,32.0538,0,0,0,0,0,0,0,-1,1497,1758,7.01694,-32.0538
280,-734,5.85168,30.6813,0,0,0,0,0,0,0,-1,1504,1758,5.85173,-30.6813
287,-734,6.38562,30.4581,0,0,0,0,0,0,0,-1,1511,1758,6.38562,-30.4581
294,-734,7.51013,30.6859,0,0,0,0,0,0,0,-1,1518,1758,7.51015,-30.6859
301,-734,5.44165,27.9336,0,0,0,0,0,0,0,-1,1525,1758,5.44169,-27.9335
308,-734,9.00854,5.43774,0,0,0,0,0,0,0,-1,1532,1758,9.00857,-5.4377
315,-734,5.3158,17.4298,0,0,0,0,0,0,0,-1,1539,1758,5.31581,-17.4299
322,-734,9.85913,7.48096,0,0,0,0,0,0,0,-1,1546,1758,9.85916,-7.48098
329,-734,5.45972,12.4125,0,0,0,0,0,0,0,-1,1553,1758,5.45969,-12.4125
336,-734,5.92188,13.8751,0,0,0,0,0,0,0,-1,1560,1758,5.92183,-13.8751
343,-734,5.54968,5.14221,0,0,0,0,0,0,0,-1,1567,1758,5.54973,-5.14225
350,-734,5.07397,6.73242,0,0,0,0,0,0,0,-1,1574,1758,5.07402,-6.73243
357,-734,5.05542,7.19189,0,0,0,0,0,0,0,-1,1581,1758,5.05541,-7.19184
364,-734,4.43896,10.4904,0,0,0,0,0,0,0,-1,1588,1758,4.43893,-10.4904
371,-734,7.36975,17.4751,0,0,0,0,0,0,0,-1,1595,1758,7.36972,-17.4752
378,-734,0,0,0,0,0,0,0,0,0,-1,1602,1758,0,0
385,-734,0,0,0,0,0,0,0,0,0,-1,1609,1758,0,0
392,-734,0,0,0,0,0,0,0,0,0,-1,1616,1758,0,0
399,-734,0,0,0,0,0,0,0,0,0,-1,1623,1758,0,0
406,-734,0,0,0,0,0,0,0,0,0,-1,1630,1758,0,0
413,-734,0,0,0,0,0,0,0,0,0,-1,1637,1758,0,0
420,-734,0,0,0,0,0,0,0,0,0,-1,1644,1758,0,0
427,-734,0,0,0,0,0,0,0,0,0,-1,1651,1758,0,0
434,-734,0,0,0,0,0,0,0,0,0,-1,1658,1758,0,0
441,-734,0,0,0,0,0,0,0,0,0,-1,1665,1758,0,0
448,-734,0,0,0,0,0,0,0,0,0,-1,1672,1758,0,0
455,-734,0,0,0,0,0,0,0,0,0,-1,1679,1758,0,0
462,-734,0,0,0,0,0,0,0,0,0,-1,1686,1758,0,0
469,-734,0,0,0,0,0,0,0,0,0,-1,1693,1758,0,0
476,-734,0,0,0,0,0,0,0,0,0,-1,1700,1758,0,0
483,-734,0,0,0,0,0,0,0,0,0,-1,1707,1758,0,0
490,-734,0,0,0,0,0,0,0,0,0,-1,1714,1758,0,0
497,-734,0,0,0,0,0,0,0,0,0,-1,1721,1758,0,0
504,-734,0,0,0,0,0,0,0,0,0,-1,1728,1758,0,0
511,-734,0,0,0,0,0,0,0,0,0,-1,1735,1758,0,0
518,-734,0,0,0,0,0,0,0,0,0,-1,1742,1758,0,0
525,-734,0,0,0,0,0,0,0,0,0,-1,1749,1758,0,0
532,-734,0,0,0,0,0,0,0,0,0,-1,1756,1758,0,0
539,-734,0,0,0,0,0,0,0,0,0,-1,1763,1758,0,0
546,-734,0,0,0,0,0,0,0,0,0,-1,1770,1758,0,0
553,-734,0,0,0,0,0,0,0,0,0,-1,1777,1758,0,0
560,-734,0,0,0,0,0,0,0,0,0,-1,1784,1758,0,0
567,-734,0,0,0,0,0,0,0,0,0,-1,1791,1758,0,0
574,-734,0,0,0,0,0,0,0,0,0,-1,1798,1758,0,0
581,-734,0,0,0,0,0,0,0,0,0,-1,1805,1758,0,0
588,-734,0,0,0,0,0,0,0,0,0,-1,1812,1758,0,0
595,-734,0,0,0,0,0,0,0,0,0,-1,1819,1758,0,0
602,-734,0,0,0,0,0,0,0,0,0,-1,1826,1758,0,0
609,-734,0,0,0,0,0,0,0,0,0,-1,1833,1758,0,0
616,-734,0,0,0,0,0,0,0,0,0,-1,1840,1758,0,0
623,-734,0,0,0,0,0,0,0,0,0,-1,1847,1758,0,0
630,-734,0,0,0,0,0,0,0,0,0,-1,1854,1758,0,0
637,-734,0,0,0,0,0,0,0,0,0,-1,1861,1758,0,0
644,-734,0,0,0,0,0,0,0,0,0,-1,1868,1758,0,0
651,-734,0,0,0,0,0,0,0,0,0,-1,1875,1758,0,0
658,-734,0,0,0,0,0,0,0,0,0,-1,1882,1758,0,0
665,-734,0,0,0,0,0,0,0,0,0,-1,1889,1758,0,0
672,-734,0,0,0,0,0,0,0,0,0,-1,1896,1758,0,0
679,-734,0,0,0,0,0,0,0,0,0,-1,1903,1758,0,0
686,-734,0,0,0,0,0,0,0,0,0,-1,1910,1758,0,0
693,-734,0,0,0,0,0,0,0,0,0,-1,1917,1758,0,0
700,-734,0,0,0,0,0,0,0,0,0,-1,1924,1758,0,0
707,-734,0,0,0,0,0,0,0,0,0,-1,1931,1758,0,0
714,-734,0,0,0,0,0,0,0,0,0,-1,1938,1758,0,0
721,-734,0,0,0,0,0,0,0,0,0,-1,1945,1758,0,0
728,-734,0,0,0,0,0,0,0,0,0,-1,1952,1758,0,0
735,-734,0,0,0,0,0,0,0,0,0,-1,1959,1758,0,0
742,-734,0,0,0,0,0,0,0,0,0,-1,1966,1758,0,0
749,-734,0,0,0,0,0,0,0,0,0,-1,1973,1758,0,0
756,-734,0,0,0,0,0,0,0,0,0,-1,1980,1758,0,0
763,-734,0,0,0,0,0,0,0,0,0,-1,1987,1758,0,0
770,-734,0,0,0,0,0,0,0,0,0,-1,1994,1758,0,0
777,-734,0,0,0,0,0,0,0,0,0,-1,2001,1758,0,0
784,-734,0,0,0,0,0,0,0,0,0,-1,2008,1758,0,0
791,-734,0,0,0,0,0,0,0,0,0,-1,2015,1758,0,0
798,-734,0,0,0,0,0,0,0,0,0,-1,2022,1758,0,0
805,-734,0,0,0,0,0,0,0,0,0,-1,2029,1758,0,0
812,-734,0,0,0,0,0,0,0,0,0,-1,2036,1758,0,0
-700,-741,0,0,0,0,0,0,0,0,0,-1,524,1765,0,0
-693,-741,0,0,0,0,0,0,0,0,0,-1,531,1765,0,0
-686,-741,0,0,0,0,0,0,0,0,0,-1,538,1765,0,0
-679,-741,0,0,0,0,0,0,0,0,0,-1,545,1765,0,0
-672,-741,0,0,0,0,0,0,0,0,0,-1,552,1765,0,0
-665,-741,0,0,0,0,0,0,0,0,0,-1,559,1765,0,0
-658,-741,0,0,0,0,0,0,0,0,0,-1,566,1765,0,0
-651,-741,0,0,0,0,0,0,0,0,0,-1,573,1765,0,0
-644,-741,0,0,0,0,0,0,0,0,0,-1,580,1765,0,0
-637,-741,0,0,0,0,0,0,0,0,0,-1,587,1765,0,0
-630,-741,0,0,0,0,0,0,0,0,0,-1,594,1765,0,0
-623,-741,0,0,0,0,0,0,0,0,0,-1,601,1765,0,0
-616,-741,0,0,0,0,0,0,0,0,0,-1,608,1765,0,0
-609,-741,0,0,0,0,0,0,0,0,0,-1,615,1765,0,0
-602,-741,0,0,0,0,0,0,0,0,0,-1,622,1765,0,0
-595,-741,0,0,0,0,0,0,0,0,0,-1,629,1765,0,0
-588,-741,0,0,0,0,0,0,0,0,0,-1,636,1765,0,0
-581,-741,0,0,0,0,0,0,0,0,0,-1,643,1765,0,0
-574,-741,0,0,0,0,0,0,0,0,0,-1,650,1765,0,0
-567,-741,0,0,0,0,0,0,0,0,0,-1,657,1765,0,0
-560,-741,0,0,0,0,0,0,0,0,0,-1,664,1765,0,0
-553,-741,0,0,0,0,0,0,0,0,0,-1,671,1765,0,0
-546,-741,0,0,0,0,0,0,0,0,0,-1,678,1765,0,0
-539,-741,0,0,0,0,0,0,0,0,0,-1,685,1765,0,0
-532,-741,0,0,0,0,0,0,0,0,0,-1,692,1765,0,0
-525,-741,0,0,0,0,0,0,0,0,0,-1,699,1765,0,0
-518,-741,0,0,0,0,0,0,0,0,0,-1,706,1765,0,0
-511,-741,0,0,0,0,0,0,0,0,0,-1,713,1765,0,0
-504,-741,0,0,0,0,0,0,0,0,0,-1,720,1765,0,0
-497,-741,0,0,0,0,0,0,0,0,0,-1,727,1765,0,0
-490,-741,0,0,0,0,0,0,0,0,0,-1,734,1765,0,0
-483,-741,0,0,0,0,0,0,0,0,0,-1,741,1765,0,0
-476,-741,0,0,0,0,0,0,0,0,0,-1,748,1765,0,0
-469,-741,0,0,0,0,0,0,0,0,0,-1,755,1765,0,0
-462,-741,0,0,0,0,0,0,0,0,0,-1,762,1765,0,0
-455,-741,0,0,0,0,0,0,0,0,0,-1,769,1765,0,0
-448,-741,0,0,0,0,0,0,0,0,0,-1,776,1765,0,0
-441,-741,0,0,0,0,0,0,0,0,0,-1,783,1765,0,0
-434,-741,0,0,0,0,0,0,0,0,0,-1,790,1765,0,0
-427,-741,0,0,0,0,0,0,0,0,0,-1,797,1765,0,0
-420,-741,0,0,0,0,0,0,0,0,0,-1,804,1765,0,0
-413,-741,0,0,0,0,0,0,0,0,0,-1,811,1765,0,0
-406,-741,0,0,0,0,0,0,0,0,0,-1,818,1765,0,0
-399,-741,0,0,0,0,0,0,0,0,0,-1,825,1765,0,0
-392,-741,0,0,0,0,0,0,0,0,0,-1,832,1765,0,0
-385,-741,0,0,0,0,0,0,0,0,0,-1,839,1765,0,0
-378,-741,0,0,0,0,0,0,0,0,0,-1,846,1765,0,0
-371,-741,0,0,0,0,0,0,0,0,0,-1,853,1765,0,0
-364,-741,0,0,0,0,0,0,0,0,0,-1,860,1765,0,0
-357,-741,0,0,0,0,0,0,0,0,0,-1,867,1765,0,0
-350,-741,0,0,0,0,0,0,0,0,0,-1,874,1765,0,0
-343,-741,0,0,0,0,0,0,0,0,0,-1,881,1765,0,0
-336,-741,0,0,0,0,0,0,0,0,0,-1,888,1765,0,0
-329,-741,0,0,0,0,0,0,0,0,0,-1,895,1765,0,0
-322,-741,0,0,0,0,0,0,0,0,0,-1,902,1765,0,0
-315,-741,0,0,0,0,0,0,0,0,0,-1,909,1765,0,0
-308,-741,0,0,0,0,0,0,0,0,0,-1,916,1765,0,0
-301,-741,0,0,0,0,0,0,0,0,0,-1,923,1765,0,0
-294,-741,0,0,0,0,0,0,0,0,0,-1,930,1765,0,0
-287,-741,0,0,0,0,0,0,0,0,0,-1,937,1765,0,0
-280,-741,0,0,0,0,0,0,0,0,0,-1,944,1765,0,0
-273,-741,0,0,0,0,0,0,0,0,0,-1,951,1765,0,0
-266,-741,0,0,0,0,0,0,0,0,0,-1,958,1765,0,0
-259,-741,0,0,0,0,0,0,0,0,0,-1,965,1765,0,0
-252,-741,0,0,0,0,0,0,0,0,0,-1,972,1765,0,0
-245,-741,0,0,0,0,0,0,0,0,0,-1,979,1765,0,0
-238,-741,4.71777,14.9655,0,0,0,0,0,0,0,-1,986,1765,4.71776,-14.9654
-231,-741,6.00446,15.8785,0,0,0,0,0,0,0,-1,993,1765,6.00443,-15.8785
-224,-741,6.57977,16.5416,0,0,0,0,0,0,0,-1,1000,1765,6.57975,-16.5416
-217,-741,8.46582,30.9797,0,0,0,0,0,0,0,-1,1007,1765,8.4658,-30.9797
-210,-741,7.27338,32.062,0,0,0,0,0,0,0,-1,1014,1765,7.27339,-32.062
-203,-741,7.27783,31.1265,0,0,0,0,0,0,0,-1,1021,1765,7.27788,-31.1264
-196,-741,6.77002,31.2357,0,0,0,0,0,0,0,-1,1028,1765,6.76996,-31.2357
-189,-741,7.14319,22.3441,0,0,0,0,0,0,0,-1,1035,1765,7.1432,-22.3441
-182,-741,7.4458,23.6536,0,0,0,0,0,0,0,-1,1042,1765,7.44582,-23.6536
-175,-741,7.26477,24.616,0,0,0,0,0,0,0,-1,1049,1765,7.26471,-24.616
-168,-741,5.4801,16.3933,0,0,0,0,0,0,0,-1,1056,1765,5.4801,-16.3933
-161,-741,3.73047,14.4974,0,0,0,0,0,0,0,-1,1063,1765,3.73043,-14.4974
-154,-741,2.46143,9.75415,0,0,0,0,0,0,0,-1,1070,1765,2.46145,-9.75416
-147,-741,8.89307,32.2736,0,0,0,0,0,0,0,-1,1077,1765,8.8931,-32.2735
-140,-741,8.3584,31.1451,0,0,0,0,0,0,0,-1,1084,1765,8.35843,-31.1451
-133,-741,8.40808,31.5753,0,0,0,0,0,0,0,-1,1091,1765,8.40807,-31.5753
-126,-741,7.69983,31.6563,0,0,0,0,0,0,0,-1,1098,1765,7.69987,-31.6563
-119,-741,7.47107,32.0763,0,0,0,0,0,0,0,-1,1105,1765,7.47106,-32.0762
-112,-741,7.96875,32.2394,0,0,0,0,0,0,0,-1,1112,1765,7.96881,-32.2394
-105,-741,7.94421,32.4476,0,0,0,0,0,0,0,-1,1119,1765,7.94424,-32.4476
-98,-741,7.95752,32.6115,0,0,0,0,0,0,0,-1,1126,1765,7.95754,-32.6114
-91,-741,7.87866,32.6221,0,0,0,0,0,0,0,-1,1133,1765,7.87864,-32.6221
-84,-741,7.7179,32.7054,0,0,0,0,0,0,0,-1,1140,1765,7.71785,-32.7055
-77,-741,7.66589,31.6727,0,0,0,0,0,0,0,-1,1147,1765,7.66584,-31.6727
-70,-741,7.5437,32.0275,0,0,0,0,0,0,0,-1,1154,1765,7.5437,-32.0275
-63,-741,7.57385,33.1731,0,0,0,0,0,0,0,-1,1161,1765,7.57385,-33.1731
-56,-741,7.79785,33.5684,0,0,0,0,0,0,0,-1,1168,1765,7.79783,-33.5684
-49,-741,7.7511,33.9158,0,0,0,0,0,0,0,-1,1175,1765,7.75115,-33.9158
-42,-741,7.66211,34.094,0,0,0,0,0,0,0,-1,1182,1765,7.66207,-34.094
-35,-741,7.68323,34.1421,-0.00191241,0.0054597,-0.00478718,0.00781551,-0.00426821,-1.11348,0.00707603,0.0238712,1189,1765,7.68327,-34.142
-28,-741,7.69336,34.2627,-0.00169237,0.00548238,-0.00577898,0.00869691,-0.00490689,-1.06317,0.00795511,0.0145949,1196,1765,7.6934,-34.2627
-21,-741,7.68982,34.371,-0.0017145,0.00563411,-0.00613294,0.00910917,-0.00518957,-1.05528,0.00835813,0.0181454,1203,1765,7.68979,-34.3709
-14,-741,7.62805,34.4746,-0.00194749,0.00569704,-0.00583276,0.00884835,-0.00509881,-1.07545,0.00814882,0.0171144,1210,1765,7.62806,-34.4746
-7,-741,7.62048,34.5524,-0.00165727,0.00607508,-0.00480082,0.00837293,-0.00395512,-1.12439,0.00726834,0.0153779,1217,1765,7.62045,-34.5523
0,-741,7.59143,34.6359,-0.00132569,0.00632545,-0.00384943,0.00792696,-0.00292719,-1.17654,0.00648447,0.0156659,1224,1765,7.59144,-34.6359
7,-741,7.55078,34.7338,-0.00115048,0.00683153,-0.0030396,0.00785723,-0.00217618,-1.24535,0.00609446,0.0173171,1231,1765,7.55081,-34.7337
14,-741,7.55151,34.8229,-0.000978465,0.00707019,-0.00204792,0.0075613,-0.00146958,-1.33543,0.00559543,0.0153348,1238,1765,7.55151,-34.8229
21,-741,7.5238,34.8729,-0.000670379,0.00727613,-0.00105348,0.00741342,-0.000807669,-1.44121,0.00523232,0.0121936,1245,1765,7.52378,-34.873
28,-741,7.50403,34.9362,-0.000302075,0.00713383,-7.83845e-05,0.00713466,-0.000302901,-1.56026,0.00486055,0.0134557,1252,1765,7.50402,-34.9362
35,-741,7.52246,34.9688,7.88451e-05,0.00674225,0.000698151,0.00681461,6.48317e-06,1.46752,0.00454092,0.0155327,1259,1765,7.52249,-34.9688
42,-741,7.5271,34.9874,0.000313636,0.00613559,0.00115462,0.00635621,9.30119e-05,1.38199,0.00420681,0.015103,1266,1765,7.52706,-34.9874
49,-741,7.47583,35.0171,0.000324577,0.00518415,0.00151507,0.00561781,-0.000109078,1.29202,0.00378209,0.00971467,1273,1765,7.47578,-35.0171
56,-741,7.44031,35.0225,0.00024009,0.00407254,0.00164491,0.00468171,-0.000369086,1.21612,0.00325116,0.00961888,1280,1765,7.44034,-35.0225
63,-741,7.42273,35.0337,0.000113314,0.00292534,0.00162749,0.00367005,-0.000631396,1.14166,0.00268206,0.0139574,1287,1765,7.4227,-35.0336
70,-741,7.39954,35.0663,-0.000156552,0.00138908,0.00155784,0.00235525,-0.00112273,1.01565,0.00204961,0.0167792,1294,1765,7.39955,-35.0663
77,-741,7.38672,35.0986,-0.00051586,-0.000336728,0.00160204,0.00117825,-0.00203084,0.813323,0.00187444,0.0143588,1301,1765,7.38669,-35.0986
84,-741,7.38623,35.0729,-0.00106918,-0.00211843,0.00160521,9.49572e-05,-0.00328257,0.627456,0.00222071,0.0159572,1308,1765,7.38619,-35.0729
91,-741,7.38794,35.0341,-0.00169153,-0.00370402,0.0015204,-0.000874548,-0.004521,0.493077,0.00276891,0.0127264,1315,1765,7.38793,-35.0341
98,-741,7.37659,34.9836,-0.00258903,-0.00517975,0.00141747,-0.00196419,-0.00580459,0.41519,0.00340914,0.00980075,1322,1765,7.37659,-34.9837
105,-741,7.37866,34.906,-0.00339009,-0.0063089,0.00175763,-0.00256496,-0.00713404,0.438917,0.00417266,0.0103234,1329,1765,7.37866,-34.906
112,-741,7.39624,34.8826,-0.00406725,-0.00744279,0.00240469,-0.00281715,-0.0086929,0.47941,0.00512135,0.0107825,1336,1765,7.39626,-34.8825
119,-741,7.37634,34.8143,-0.00473618,-0.0081703,0.00293523,-0.00305267,-0.00985381,0.520746,0.00582469,0.0136014,1343,1765,7.3764,-34.8143
126,-741,7.35925,34.7235,-0.0053732,-0.0088425,0.00348561,-0.00321446,-0.0110012,0.554511,0.00653187,0.018655,1350,1765,7.35928,-34.7236
133,-741,7.33679,34.6691,-0.00590856,-0.00914244,0.00397557,-0.00323369,-0.0118173,0.592255,0.00705194,0.0140694,1357,1765,7.33683,-34.669
140,-741,7.29517,34.625,-0.00630486,-0.00919132,0.00439646,-0.00312081,-0.0123754,0.626804,0.00743171,0.0108741,1364,1765,7.29512,-34.625
147,-741,7.29102,34.5331,-0.00654899,-0.00922402,0.00475374,-0.00294818,-0.0128248,0.648263,0.00775623,0.00998889,1371,1765,7.29099,-34.5331
154,-741,7.26868,34.4476,-0.00667344,-0.0090758,0.00486903,-0.00285961,-0.0128896,0.664464,0.00781624,0.00831041,1378,1765,7.26866,-34.4476
161,-741,7.23584,34.3485,-0.00676871,-0.00868272,0.00480471,-0.00282662,-0.0126248,0.687094,0.00765041,0.010281,1385,1765,7.23579,-34.3485
168,-741,7.22034,34.2465,-0.00699613,-0.00812162,0.00441215,-0.00311099,-0.0120068,0.721968,0.0071953,0.0251835,1392,1765,7.22031,-34.2465
175,-741,7.19873,34.1678,0,0,0,0,0,0,0,-1,1399,1765,7.19873,-34.1679
182,-741,7.15173,33.9772,0,0,0,0,0,0,0,-1,1406,1765,7.15179,-33.9771
189,-741,7.12073,33.8643,0,0,0,0,0,0,0,-1,1413,1765,7.12073,-33.8642
196,-741,7.11243,33.7074,0,0,0,0,0,0,0,-1,1420,1765,7.11239,-33.7074
203,-741,7.11938,33.4697,0,0,0,0,0,0,0,-1,1427,1765,7.11938,-33.4697
210,-741,7.09277,33.3142,0,0,0,0,0,0,0,-1,1434,1765,7.09279,-33.3142
217,-741,7.30029,33.0139,0,0,0,0,0,0,0,-1,1441,1765,7.30026,-33.0139
224,-741,7.28503,32.7479,0,0,0,0,0,0,0,-1,1448,1765,7.28498,-32.7479
231,-741,7.10498,32.8051,0,0,0,0,0,0,0,-1,1455,1765,7.10493,-32.8051
238,-741,6.93188,32.7234,0,0,0,0,0,0,0,-1,1462,1765,6.93185,-32.7234
245,-741,7.49243,32.2719,-0.00174414,0.00266108,-0.00650144,0.00732288,-0.00640595,-0.948724,0.00793223,0.0475044,1469,1765,7.49246,-32.2719
252,-741,7.42212,32.0244,-7.82559e-05,0.00245409,-0.0063841,0.00769637,-0.00532054,-0.883294,0.00755693,0.0449291,1476,1765,7.42213,-32.0244
259,-741,7.31897,32.4899,0.00215643,0.00258448,-0.00609088,0.00846509,-0.00372418,-0.80296,0.00721273,0.047967,1483,1765,7.31901,-32.4899
266,-741,6.78235,32.3285,0,0,0,0,0,0,0,-1,1490,1765,6.78231,-32.3284
273,-741,17.0328,7.54468,0,0,0,0,0,0,0,-1,1497,1765,17.0328,-7.54474
280,-741,16.2363,9.84546,0,0,0,0,0,0,0,-1,1504,1765,16.2363,-9.84547
287,-741,5.63147,30.2782,0,0,0,0,0,0,0,-1,1511,1765,5.63153,-30.2782
294,-741,4.56812,29.4258,0,0,0,0,0,0,0,-1,1518,1765,4.56806,-29.4258
301,-741,11.036,7.02612,0,0,0,0,0,0,0,-1,1525,1765,11.036,-7.02617
308,-741,10.4718,6.09814,0,0,0,0,0,0,0,-1,1532,1765,10.4718,-6.0981
315,-741,9.70715,6.86963,0,0,0,0,0,0,0,-1,1539,1765,9.70712,-6.86963
322,-741,9.21252,8.54858,0,0,0,0,0,0,0,-1,1546,1765,9.21251,-8.54858
329,-741,8.5603,10.1146,0,0,0,0,0,0,0,-1,1553,1765,8.56033,-10.1146
336,-741,4.74475,14.6453,0,0,0,0,0,0,0,-1,1560,1765,4.7447,-14.6452
343,-741,5.42297,5.93701,0,0,0,0,0,0,0,-1,1567,1765,5.42296,-5.937
350,-741,4.90369,5.44666,0,0,0,0,0,0,0,-1,1574,1765,4.90368,-5.44664
357,-741,4.02063,5.16626,0,0,0,0,0,0,0,-1,1581,1765,4.02058,-5.1662
364,-741,0,0,0,0,0,0,0,0,0,-1,1588,1765,0,0
371,-741,0,0,0,0,0,0,0,0,0,-1,1595,1765,0,0
378,-741,0,0,0,0,0,0,0,0,0,-1,1602,1765,0,0
385,-741,0,0,0,0,0,0,0,0,0,-1,1609,1765,0,0
392,-741,0,0,0,0,0,0,0,0,0,-1,1616,1765,0,0
399,-741,0,0,0,0,0,0,0,0,0,-1,1623,1765,0,0
406,-741,0,0,0,0,0,0,0,0,0,-1,1630,1765,0,0
413,-741,0,0,0,0,0,0,0,0,0,-1,1637,1765,0,0
420,-741,0,0,0,0,0,0,0,0,0,-1,1644,1765,0,0
427,-741,0,0,0,0,0,0,0,0,0,-1,1651,1765,0,0
434,-741,0,0,0,0,0,0,0,0,0,-1,1658,1765,0,0
441,-741,0,0,0,0,0,0,0,0,0,-1,1665,1765,0,0
448,-741,0,0,0,0,0,0,0,0,0,-1,1672,1765,0,0
455,-741,0,0,0,0,0,0,0,0,0,-1,1679,1765,0,0
462,-741,0,0,0,0,0,0,0,0,0,-1,1686,1765,0,0
469,-741,0,0,0,0,0,0,0,0,0,-1,1693,1765,0,0
476,-741,0,0,0,0,0,0,0,0,0,-1,1700,1765,0,0
483,-741,0,0,0,0,0,0,0,0,0,-1,1707,1765,0,0
490,-741,0,0,0,0,0,0,0,0,0,-1,1714,1765,0,0
497,-741,0,0,0,0,0,0,0,0,0,-1,1721,1765,0,0
504,-741,0,0,0,0,0,0,0,0,0,-1,1728,1765,0,0
511,-741,0,0,0,0,0,0,0,0,0,-1,1735,1765,0,0
518,-741,0,0,0,0,0,0,0,0,0,-1,1742,1765,0,0
525,-741,0,0,0,0,0,0,0,0,0,-1,1749,1765,0,0
532,-741,0,0,0,0,0,0,0,0,0,-1,1756,1765,0,0
539,-741,0,0,0,0,0,0,0,0,0,-1,1763,1765,0,0
546,-741,0,0,0,0,0,0,0,0,0,-1,1770,1765,0,0
553,-741,0,0,0,0,0,0,0,0,0,-1,1777,1765,0,0
560,-741,0,0,0,0,0,0,0,0,0,-1,1784,1765,0,0
567,-741,0,0,0,0,0,0,0,0,0,-1,1791,1765,0,0
574,-741,0,0,0,0,0,0,0,0,0,-1,1798,1765,0,0
581,-741,0,0,0,0,0,0,0,0,0,-1,1805,1765,0,0
588,-741,0,0,0,0,0,0,0,0,0,-1,1812,1765,0,0
595,-741,0,0,0,0,0,0,0,0,0,-1,1819,1765,0,0
602,-741,0,0,0,0,0,0,0,0,0,-1,1826,1765,0,0
609,-741,0,0,0,0,0,0,0,0,0,-1,1833,1765,0,0
616,-741,0,0,0,0,0,0,0,0,0,-1,1840,1765,0,0
623,-741,0,0,0,0,0,0,0,0,0,-1,1847,1765,0,0
630,-741,0,0,0,0,0,0,0,0,0,-1,1854,1765,0,0
637,-741,0,0,0,0,0,0,0,0,0,-1,1861,1765,0,0
644,-741,0,0,0,0,0,0,0,0,0,-1,1868,1765,0,0
651,-741,0,0,0,0,0,0,0,0,0,-1,1875,1765,0,0
658,-741,0,0,0,0,0,0,0,0,0,-1,1882,1765,0,0
665,-741,0,0,0,0,0,0,0,0,0,-1,1889,1765,0,0
672,-741,0,0,0,0,0,0,0,0,0,-1,1896,1765,0,0
679,-741,0,0,0,0,0,0,0,0,0,-1,1903,1765,0,0
686,-741,0,0,0,0,0,0,0,0,0,-1,1910,1765,0,0
693,-741,0,0,0,0,0,0,0,0,0,-1,1917,1765,0,0
700,-741,0,0,0,0,0,0,0,0,0,-1,1924,1765,0,0
707,-741,0,0,0,0,0,0,0,0,0,-1,1931,1765,0,0
714,-741,0,0,0,0,0,0,0,0,0,-1,1938,1765,0,0
721,-741,0,0,0,0,0,0,0,0,0,-1,1945,1765,0,0
728,-741,0,0,0,0,0,0,0,0,0,-1,1952,1765,0,0
735,-741,0,0,0,0,0,0,0,0,0,-1,1959,1765,0,0
742,-741,0,0,0,0,0,0,0,0,0,-1,1966,1765,0,0
749,-741,0,0,0,0,0,0,0,0,0,-1,1973,1765,0,0
756,-741,0,0,0,0,0,0,0,0,0,-1,1980,1765,0,0
763,-741,0,0,0,0,0,0,0,0,0,-1,1987,1765,0,0
770,-741,0,0,0,0,0,0,0,0,0,-1,1994,1765,0,0
777,-741,0,0,0,0,0,0,0,0,0,-1,2001,1765,0,0
784,-741,0,0,0,0,0,0,0,0,0,-1,2008,1765,0,0
791,-741,0,0,0,0,0,0,0,0,0,-1,2015,1765,0,0
798,-741,0,0,0,0,0,0,0,0,0,-1,2022,1765,0,0
805,-741,0,0,0,0,0,0,0,0,0,-1,2029,1765,0,0
812,-741,0,0,0,0,0,0,0,0,0,-1,2036,1765,0,0
-700,-748,0,0,0,0,0,0,0,0,0,-1,524,1772,0,0
-693,-748,0,0,0,0,0,0,0,0,0,-1,531,1772,0,0
-686,-748,0,0,0,0,0,0,0,0,0,-1,538,1772,0,0
-679,-748,0,0,0,0,0,0,0,0,0,-1,545,1772,0,0
-672,-748,0,0,0,0,0,0,0,0,0,-1,552,1772,0,0
-665,-748,0,0,0,0,0,0,0,0,0,-1,559,1772,0,0
-658,-748,0,0,0,0,0,0,0,0,0,-1,566,1772,0,0
-651,-748,0,0,0,0,0,0,0,0,0,-1,573,1772,0,0
-644,-748,0,0,0,0,0,0,0,0,0,-1,580,1772,0,0
-637,-748,0,0,0,0,0,0,0,0,0,-1,587,1772,0,0
-630,-748,0,0,0,0,0,0,0,0,0,-1,594,1772,0,0
-623,-748,0,0,0,0,0,0,0,0,0,-1,601,1772,0,0
-616,-748,0,0,0,0,0,0,0,0,0,-1,608,1772,0,0
-609,-748,0,0,0,0,0,0,0,0,0,-1,615,1772,0,0
-602,-748,0,0,0,0,0,0,0,0,0,-1,622,1772,0,0
-595,-748,0,0,0,0,0,0,0,0,0,-1,629,1772,0,0
-588,-748,0,0,0,0,0,0,0,0,0,-1,636,1772,0,0
-581,-748,0,0,0,0,0,0,0,0,0,-1,643,1772,0,0
-574,-748,0,0,0,0,0,0,0,0,0,-1,650,1772,0,0
-567,-748,0,0,0,0,0,0,0,0,0,-1,657,1772,0,0
-560,-748,0,0,0,0,0,0,0,0,0,-1,664,1772,0,0
-553,-748,0,0,0,0,0,0,0,0,0,-1,671,1772,0,0
-546,-748,0,0,0,0,0,0,0,0,0,-1,678,1772,0,0
-539,-748,0,0,0,0,0,0,0,0,0,-1,685,1772,0,0
-532,-748,0,0,0,0,0,0,0,0,0,-1,692,1772,0,0
-525,-748,0,0,0,0,0,0,0,0,0,-1,699,1772,0,0
-518,-748,0,0,0,0,0,0,0,0,0,-1,706,1772,0,0
-511,-748,0,0,0,0,0,0,0,0,0,-1,713,1772,0,0
-504,-748,0,0,0,0,0,0,0,0,0,-1,720,1772,0,0
-497,-748,0,0,0,0,0,0,0,0,0,-1,727,1772,0,0
-490,-748,0,0,0,0,0,0,0,0,0,-1,734,1772,0,0
-483,-748,0,0,0,0,0,0,0,0,0,-1,741,1772,0,0
-476,-748,0,0,0,0,0,0,0,0,0,-1,748,1772,0,0
-469,-748,0,0,0,0,0,0,0,0,0,-1,755,1772,0,0
-462,-748,0,0,0,0,0,0,0,0,0,-1,762,1772,0,0
-455,-748,0,0,0,0,0,0,0,0,0,-1,769,1772,0,0
-448,-748,0,0,0,0,0,0,0,0,0,-1,776,1772,0,0
-441,-748,0,0,0,0,0,0,0,0,0,-1,783,1772,0,0
-434,-748,0,0,0,0,0,0,0,0,0,-1,790,1772,0,0
-427,-748,0,0,0,0,0,0,0,0,0,-1,797,1772,0,0
-420,-748,0,0,0,0,0,0,0,0,0,-1,804,1772,0,0
-413,-748,0,0,0,0,0,0,0,0,0,-1,811,1772,0,0
-406,-748,0,0,0,0,0,0,0,0,0,-1,818,1772,0,0
-399,-748,0,0,0,0,0,0,0,0,0,-1,825,1772,0,0
-392,-748,0,0,0,0,0,0,0,0,0,-1,832,1772,0,0
-385,-748,0,0,0,0,0,0,0,0,0,-1,839,1772,0,0
-378,-748,0,0,0,0,0,0,0,0,0,-1,846,1772,0,0
-371,-748,0,0,0,0,0,0,0,0,0,-1,853,1772,0,0
-364,-748,0,0,0,0,0,0,0,0,0,-1,860,1772,0,0
-357,-748,0,0,0,0,0,0,0,0,0,-1,867,1772,0,0
-350,-748,0,0,0,0,0,0,0,0,0,-1,874,1772,0,0
-343,-748,0,0,0,0,0,0,0,0,0,-1,881,1772,0,0
-336,-748,0,0,0,0,0,0,0,0,0,-1,888,1772,0,0
-329,-748,0,0,0,0,0,0,0,0,0,-1,895,1772,0,0
-322,-748,0,0,0,0,0,0,0,0,0,-1,902,1772,0,0
-315,-748,0,0,0,0,0,0,0,0,0,-1,909,1772,0,0
-308,-748,0,0,0,0,0,0,0,0,0,-1,916,1772,0,0
-301,-748,0,0,0,0,0,0,0,0,0,-1,923,1772,0,0
-294,-748,0,0,0,0,0,0,0,0,0,-1,930,1772,0,0
-287,-748,0,0,0,0,0,0,0,0,0,-1,937,1772,0,0
-280,-748,0,0,0,0,0,0,0,0,0,-1,944,1772,0,0
-273,-748,0,0,0,0,0,0,0,0,0,-1,951,1772,0,0
-266,-748,0,0,0,0,0,0,0,0,0,-1,958,1772,0,0
-259,-748,0,0,0,0,0,0,0,0,0,-1,965,1772,0,0
-252,-748,0,0,0,0,0,0,0,0,0,-1,972,1772,0,0
-245,-748,0,0,0,0,0,0,0,0,0,-1,979,1772,0,0
-238,-748,0,0,0,0,0,0,0,0,0,-1,986,1772,0,0
-231,-748,0,0,0,0,0,0,0,0,0,-1,993,1772,0,0
-224,-748,0,0,0,0,0,0,0,0,0,-1,1000,1772,0,0
-217,-748,6.45807,16.5496,0,0,0,0,0,0,0,-1,1007,1772,6.45805,-16.5495
-210,-748,8.08215,31.9536,0,0,0,0,0,0,0,-1,1014,1772,8.08215,-31.9537
-203,-748,7.7262,31.4922,0,0,0,0,0,0,0,-1,1021,1772,7.72624,-31.4922
-196,-748,5.15344,22.8755,0,0,0,0,0,0,0,-1,1028,1772,5.15342,-22.8754
-189,-748,7.13208,21.4095,0,0,0,0,0,0,0,-1,1035,1772,7.13211,-21.4095
-182,-748,3.94958,20.8662,0,0,0,0,0,0,0,-1,1042,1772,3.94959,-20.8662
-175,-748,3.56726,19.4518,0,0,0,0,0,0,0,-1,1049,1772,3.5673,-19.4518
-168,-748,3.04858,18.0109,0,0,0,0,0,0,0,-1,1056,1772,3.04853,-18.0108
-161,-748,3.50562,13.2729,0,0,0,0,0,0,0,-1,1063,1772,3.5056,-13.2729
-154,-748,-3.38562,10.6989,0,0,0,0,0,0,0,-1,1070,1772,-3.38564,-10.6989
-147,-748,-6.38733,11.0702,0,0,0,0,0,0,0,-1,1077,1772,-6.38731,-11.0702
-140,-748,7.42126,23.8113,0,0,0,0,0,0,0,-1,1084,1772,7.42133,-23.8113
-133,-748,7.44727,22.0308,0,0,0,0,0,0,0,-1,1091,1772,7.44728,-22.0308
-126,-748,5.98035,22.6067,0,0,0,0,0,0,0,-1,1098,1772,5.9803,-22.6067
-119,-748,6.63342,26.309,0,0,0,0,0,0,0,-1,1105,1772,6.6334,-26.3089
-112,-748,6.91333,24.923,0,0,0,0,0,0,0,-1,1112,1772,6.91339,-24.923
-105,-748,6.83313,25.0537,0,0,0,0,0,0,0,-1,1119,1772,6.83311,-25.0537
-98,-748,8.13623,30.8743,0,0,0,0,0,0,0,-1,1126,1772,8.13628,-30.8742
-91,-748,4.85352,15.3033,0,0,0,0,0,0,0,-1,1133,1772,4.85351,-15.3033
-84,-748,-0.192017,7.26196,0,0,0,0,0,0,0,-1,1140,1772,-0.192047,-7.26201
-77,-748,4.42615,13.5537,0,0,0,0,0,0,0,-1,1147,1772,4.4261,-13.5538
-70,-748,4.46191,13.7446,0,0,0,0,0,0,0,-1,1154,1772,4.4619,-13.7446
-63,-748,4.49768,13.9355,0,0,0,0,0,0,0,-1,1161,1772,4.49769,-13.9355
-56,-748,3.05762,7.87817,0,0,0,0,0,0,0,-1,1168,1772,3.05768,-7.87822
-49,-748,3.04102,7.82471,0,0,0,0,0,0,0,-1,1175,1772,3.04096,-7.82468
-42,-748,0.793457,14.9474,0,0,0,0,0,0,0,-1,1182,1772,0.793413,-14.9474
-35,-748,7.83142,34.0778,0,0,0,0,0,0,0,-1,1189,1772,7.83145,-34.0778
-28,-748,7.79553,34.3774,0,0,0,0,0,0,0,-1,1196,1772,7.79552,-34.3775
-21,-748,7.78125,34.3959,-0.00409425,0.0110181,-0.0103117,0.0162458,-0.00932193,-1.10159,0.0149409,0.0239831,1203,1772,7.78129,-34.3959
-14,-748,7.72522,34.4449,-0.00503231,0.0107379,-0.00923273,0.0149944,-0.0092888,-1.13881,0.0141483,0.0163989,1210,1772,7.72522,-34.4449
-7,-748,7.69714,34.5342,-0.0047772,0.0106065,-0.00753542,0.0136825,-0.00785323,-1.18323,0.0125846,0.0149427,1217,1772,7.6972,-34.5341
0,-748,7.65063,34.6226,-0.00444605,0.0103225,-0.00598851,0.0124455,-0.00656913,-1.2301,0.0111515,0.0154721,1224,1772,7.65066,-34.6225
7,-748,7.63806,34.7057,-0.00420336,0.0102636,-0.0046187,0.0116124,-0.00555216,-1.28667,0.0101138,0.0146606,1231,1772,7.63803,-34.7057
14,-748,7.60754,34.8064,-0.0038406,0.00991477,-0.0030387,0.0105561,-0.00448197,-1.36278,0.00891522,0.0146262,1238,1772,7.6076,-34.8064
21,-748,7.5907,34.8688,-0.00319266,0.00953288,-0.00149769,0.00970677,-0.00336655,-1.45521,0.00783818,0.0106278,1245,1772,7.59073,-34.8688
28,-748,7.54712,34.9211,-0.00236345,0.00876079,-2.83103e-05,0.00876086,-0.00236353,-1.56825,0.00676742,0.011141,1252,1772,7.54712,-34.9211
35,-748,7.5415,34.9541,-0.00148977,0.00771954,0.00119516,0.00787211,-0.00164234,1.44382,0.00587258,0.012486,1259,1772,7.54151,-34.9541
42,-748,7.53369,34.9789,-0.000774963,0.00654707,0.00192093,0.00702042,-0.00124832,1.32919,0.0051471,0.0129736,1266,1772,7.53367,-34.9789
49,-748,7.51123,34.9973,-0.000355096,0.00499306,0.00254823,0.00601278,-0.00137482,1.19014,0.00453677,0.0100648,1273,1772,7.51126,-34.9973
56,-748,7.46729,35.0255,-9.64825e-05,0.00327053,0.00284327,0.00489132,-0.00171727,1.05269,0.00395944,0.0102102,1280,1772,7.46724,-35.0255
63,-748,7.44348,35.025,9.97693e-05,0.00147782,0.00297267,0.00384028,-0.00226269,0.89928,0.00356257,0.0122,1287,1772,7.44346,-35.0251
70,-748,7.42029,35.0398,-1.71144e-05,-0.000664489,0.00301516,0.00269169,-0.00337329,0.731926,0.00350898,0.0144895,1294,1772,7.42031,-35.0398
77,-748,7.40393,35.036,-0.000402694,-0.0029579,0.00317208,0.00173941,-0.0051,0.593955,0.00410455,0.0138858,1301,1772,7.4039,-35.036
84,-748,7.38208,35.0356,-0.00101693,-0.00531867,0.00324051,0.000721563,-0.00705716,0.49241,0.00496281,0.0151179,1308,1772,7.38207,-35.0357
91,-748,7.37097,35.0287,-0.00183025,-0.00736113,0.00312671,-0.000421483,-0.0087699,0.423318,0.00571129,0.011393,1315,1772,7.37095,-35.0287
98,-748,7.33264,34.976,-0.00320564,-0.00928698,0.003082,-0.00191683,-0.0105758,0.396074,0.00650639,0.010268,1322,1772,7.33259,-34.976
105,-748,7.31433,34.8997,-0.00444893,-0.010807,0.0036316,-0.0028015,-0.0124545,0.425875,0.00754456,0.0113496,1329,1772,7.31428,-34.8996
112,-748,7.3335,34.8762,-0.00552624,-0.0123484,0.00455193,-0.00324912,-0.0146255,0.46385,0.00886797,0.0141473,1336,1772,7.33344,-34.8762
119,-748,7.31116,34.8201,-0.00655916,-0.0133797,0.00530242,-0.00366503,-0.0162739,0.499623,0.00985736,0.0129285,1343,1772,7.31116,-34.8201
126,-748,7.29126,34.7568,-0.00751589,-0.0143619,0.00606704,-0.00397283,-0.0179049,0.528561,0.0108574,0.0147106,1350,1772,7.29125,-34.7568
133,-748,7.2467,34.7079,-0.00830022,-0.014918,0.00675874,-0.00408388,-0.0191344,0.557762,0.0116363,0.00849538,1357,1772,7.24665,-34.7079
140,-748,7.21643,34.6544,-0.00887078,-0.0152174,0.00734417,-0.00404369,-0.0200445,0.581468,0.0122398,0.0112873,1364,1772,7.21642,-34.6544
147,-748,7.22485,34.5482,-0.00924051,-0.0154877,0.00788851,-0.00387967,-0.0208485,0.596887,0.0128032,0.0138193,1371,1772,7.22484,-34.5482
154,-748,7.18311,34.4515,-0.00949593,-0.0154524,0.00807189,-0.00387036,-0.0210779,0.608665,0.012956,0.0118676,1378,1772,7.18308,-34.4516
161,-748,7.13403,34.3627,-0.00971203,-0.0149445,0.00803304,-0.00387994,-0.0207766,0.627972,0.012756,0.0174604,1385,1772,7.13398,-34.3627
168,-748,7.10791,34.2964,0,0,0,0,0,0,0,-1,1392,1772,7.1079,-34.2963
175,-748,11.6235,16.8242,0,0,0,0,0,0,0,-1,1399,1772,11.6236,-16.8242
182,-748,7.62476,10.3058,0,0,0,0,0,0,0,-1,1406,1772,7.62476,-10.3058
189,-748,6.15857,6.95898,0,0,0,0,0,0,0,-1,1413,1772,6.15862,-6.95896
196,-748,3.9425,8.46021,0,0,0,0,0,0,0,-1,1420,1772,3.9425,-8.46026
203,-748,3.9668,12.9835,0,0,0,0,0,0,0,-1,1427,1772,3.96678,-12.9836
210,-748,4.71472,16.8318,0,0,0,0,0,0,0,-1,1434,1772,4.71471,-16.8317
217,-748,5.38452,21.5551,0,0,0,0,0,0,0,-1,1441,1772,5.38455,-21.555
224,-748,6.14258,25.2345,0,0,0,0,0,0,0,-1,1448,1772,6.14263,-25.2345
231,-748,6.46045,29.7867,0,0,0,0,0,0,0,-1,1455,1772,6.46049,-29.7867
238,-748,7.41565,32.8574,0,0,0,0,0,0,0,-1,1462,1772,7.41562,-32.8574
245,-748,7.84912,32.0914,0,0,0,0,0,0,0,-1,1469,1772,7.84914,-32.0914
252,-748,7.67285,31.8486,0,0,0,0,0,0,0,-1,1476,1772,7.67285,-31.8486
259,-748,7.38623,32.6207,0,0,0,0,0,0,0,-1,1483,1772,7.38628,-32.6208
266,-748,17.9011,7.59448,0,0,0,0,0,0,0,-1,1490,1772,17.9011,-7.59452
273,-748,16.4131,7.57129,0,0,0,0,0,0,0,-1,1497,1772,16.413,-7.57125
280,-748,15.2177,7.24829,0,0,0,0,0,0,0,-1,1504,1772,15.2176,-7.24833
287,-748,14.161,8.32813,0,0,0,0,0,0,0,-1,1511,1772,14.161,-8.32808
294,-748,12.2117,7.453,0,0,0,0,0,0,0,-1,1518,1772,12.2116,-7.45297
301,-748,11.7134,7.3595,0,0,0,0,0,0,0,-1,1525,1772,11.7133,-7.35949
308,-748,9.92456,7.80225,0,0,0,0,0,0,0,-1,1532,1772,9.92453,-7.80224
315,-748,8.91541,8.29773,0,0,0,0,0,0,0,-1,1539,1772,8.91544,-8.29773
322,-748,7.83618,8.87122,0,0,0,0,0,0,0,-1,1546,1772,7.83613,-8.87124
329,-748,3.48315,14.6533,0,0,0,0,0,0,0,-1,1553,1772,3.48316,-14.6534
336,-748,3.76001,15.8163,0,0,0,0,0,0,0,-1,1560,1772,3.75995,-15.8163
343,-748,0,0,0,0,0,0,0,0,0,-1,1567,1772,0,0
350,-748,0,0,0,0,0,0,0,0,0,-1,1574,1772,0,0
357,-748,0,0,0,0,0,0,0,0,0,-1,1581,1772,0,0
364,-748,0,0,0,0,0,0,0,0,0,-1,1588,1772,0,0
371,-748,0,0,0,0,0,0,0,0,0,-1,1595,1772,0,0
378,-748,0,0,0,0,0,0,0,0,0,-1,1602,1772,0,0
385,-748,0,0,0,0,0,0,0,0,0,-1,1609,1772,0,0
392,-748,0,0,0,0,0,0,0,0,0,-1,1616,1772,0,0
399,-748,0,0,0,0,0,0,0,0,0,-1,1623,1772,0,0
406,-748,0,0,0,0,0,0,0,0,0,-1,1630,1772,0,0
413,-748,0,0,0,0,0,0,0,0,0,-1,1637,1772,0,0
420,-748,0,0,0,0,0,0,0,0,0,-1,1644,1772,0,0
427,-748,0,0,0,0,0,0,0,0,0,-1,1651,1772,0,0
434,-748,0,0,0,0,0,0,0,0,0,-1,1658,1772,0,0
441,-748,0,0,0,0,0,0,0,0,0,-1,1665,1772,0,0
448,-748,0,0,0,0,0,0,0,0,0,-1,1672,1772,0,0
455,-748,0,0,0,0,0,0,0,0,0,-1,1679,1772,0,0
462,-748,0,0,0,0,0,0,0,0,0,-1,1686,1772,0,0
469,-748,0,0,0,0,0,0,0,0,0,-1,1693,1772,0,0
476,-748,0,0,0,0,0,0,0,0,0,-1,1700,1772,0,0
483,-748,0,0,0,0,0,0,0,0,0,-1,1707,1772,0,0
490,-748,0,0,0,0,0,0,0,0,0,-1,1714,1772,0,0
497,-748,0,0,0,0,0,0,0,0,0,-1,1721,1772,0,0
504,-748,0,0,0,0,0,0,0,0,0,-1,1728,1772,0,0
511,-748,0,0,0,0,0,0,0,0,0,-1,1735,1772,0,0
518,-748,0,0,0,0,0,0,0,0,0,-1,1742,1772,0,0
525,-748,0,0,0,0,0,0,0,0,0,-1,1749,1772,0,0
532,-748,0,0,0,0,0,0,0,0,0,-1,1756,1772,0,0
539,-748,0,0,0,0,0,0,0,0,0,-1,1763,1772,0,0
546,-748,0,0,0,0,0,0,0,0,0,-1,1770,1772,0,0
553,-748,0,0,0,0,0,0,0,0,0,-1,1777,1772,0,0
560,-748,0,0,0,0,0,0,0,0,0,-1,1784,1772,0,0
567,-748,0,0,0,0,0,0,0,0,0,-1,1791,1772,0,0
574,-748,0,0,0,0,0,0,0,0,0,-1,1798,1772,0,0
581,-748,0,0,0,0,0,0,0,0,0,-1,1805,1772,0,0
588,-748,0,0,0,0,0,0,0,0,0,-1,1812,1772,0,0
595,-748,0,0,0,0,0,0,0,0,0,-1,1819,1772,0,0
602,-748,0,0,0,0,0,0,0,0,0,-1,1826,1772,0,0
609,-748,0,0,0,0,0,0,0,0,0,-1,1833,1772,0,0
616,-748,0,0,0,0,0,0,0,0,0,-1,1840,1772,0,0
623,-748,0,0,0,0,0,0,0,0,0,-1,1847,1772,0,0
630,-748,0,0,0,0,0,0,0,0,0,-1,1854,1772,0,0
637,-748,0,0,0,0,0,0,0,0,0,-1,1861,1772,0,0
644,-748,0,0,0,0,0,0,0,0,0,-1,1868,1772,0,0
651,-748,0,0,0,0,0,0,0,0,0,-1,1875,1772,0,0
658,-748,0,0,0,0,0,0,0,0,0,-1,1882,1772,0,0
665,-748,0,0,0,0,0,0,0,0,0,-1,1889,1772,0,0
672,-748,0,0,0,0,0,0,0,0,0,-1,1896,1772,0,0
679,-748,0,0,0,0,0,0,0,0,0,-1,1903,1772,0,0
686,-748,0,0,0,0,0,0,0,0,0,-1,1910,1772,0,0
693,-748,0,0,0,0,0,0,0,0,0,-1,1917,1772,0,0
700,-748,0,0,0,0,0,0,0,0,0,-1,1924,1772,0,0
707,-748,0,0,0,0,0,0,0,0,0,-1,1931,1772,0,0
714,-748,0,0,0,0,0,0,0,0,0,-1,1938,1772,0,0
721,-748,0,0,0,0,0,0,0,0,0,-1,1945,1772,0,0
728,-748,0,0,0,0,0,0,0,0,0,-1,1952,1772,0,0
735,-748,0,0,0,0,0,0,0,0,0,-1,1959,1772,0,0
742,-748,0,0,0,0,0,0,0,0,0,-1,1966,1772,0,0
749,-748,0,0,0,0,0,0,0,0,0,-1,1973,1772,0,0
756,-748,0,0,0,0,0,0,0,0,0,-1,1980,1772,0,0
763,-748,0,0,0,0,0,0,0,0,0,-1,1987,1772,0,0
770,-748,0,0,0,0,0,0,0,0,0,-1,1994,1772,0,0
777,-748,0,0,0,0,0,0,0,0,0,-1,2001,1772,0,0
784,-748,0,0,0,0,0,0,0,0,0,-1,2008,1772,0,0
791,-748,0,0,0,0,0,0,0,0,0,-1,2015,1772,0,0
798,-748,0,0,0,0,0,0,0,0,0,-1,2022,1772,0,0
805,-748,0,0,0,0,0,0,0,0,0,-1,2029,1772,0,0
812,-748,0,0,0,0,0,0,0,0,0,-1,2036,1772,0,0
-700,-755,0,0,0,0,0,0,0,0,0,-1,524,1779,0,0
-693,-755,0,0,0,0,0,0,0,0,0,-1,531,1779,0,0
-686,-755,0,0,0,0,0,0,0,0,0,-1,538,1779,0,0
-679,-755,0,0,0,0,0,0,0,0,0,-1,545,1779,0,0
-672,-755,0,0,0,0,0,0,0,0,0,-1,552,1779,0,0
-665,-755,0,0,0,0,0,0,0,0,0,-1,559,1779,0,0
-658,-755,0,0,0,0,0,0,0,0,0,-1,566,1779,0,0
-651,-755,0,0,0,0,0,0,0,0,0,-1,573,1779,0,0
-644,-755,0,0,0,0,0,0,0,0,0,-1,580,1779,0,0
-637,-755,0,0,0,0,0,0,0,0,0,-1,587,1779,0,0
-630,-755,0,0,0,0,0,0,0,0,0,-1,594,1779,0,0
-623,-755,0,0,0,0,0,0,0,0,0,-1,601,1779,0,0
-616,-755,0,0,0,0,0,0,0,0,0,-1,608,1779,0,0
-609,-755,0,0,0,0,0,0,0,0,0,-1,615,1779,0,0
-602,-755,0,0,0,0,0,0,0,0,0,-1,622,1779,0,0
-595,-755,0,0,0,0,0,0,0,0,0,-1,629,1779,0,0
-588,-755,0,0,0,0,0,0,0,0,0,-1,636,1779,0,0
-581,-755,0,0,0,0,0,0,0,0,0,-1,643,1779,0,0
-574,-755,0,0,0,0,0,0,0,0,0,-1,650,1779,0,0
-567,-755,0,0,0,0,0,0,0,0,0,-1,657,1779,0,0
-560,-755,0,0,0,0,0,0,0,0,0,-1,664,1779,0,0
-553,-755,0,0,0,0,0,0,0,0,0,-1,671,1779,0,0
-546,-755,0,0,0,0,0,0,0,0,0,-1,678,1779,0,0
-539,-755,0,0,0,0,0,0,0,0,0,-1,685,1779,0,0
-532,-755,0,0,0,0,0,0,0,0,0,-1,692,1779,0,0
-525,-755,0,0,0,0,0,0,0,0,0,-1,699,1779,0,0
-518,-755,0,0,0,0,0,0,0,0,0,-1,706,1779,0,0
-511,-755,0,0,0,0,0,0,0,0,0,-1,713,1779,0,0
-504,-755,0,0,0,0,0,0,0,0,0,-1,720,1779,0,0
-497,-755,0,0,0,0,0,0,0,0,0,-1,727,1779,0,0
-490,-755,0,0,0,0,0,0,0,0,0,-1,734,1779,0,0
-483,-755,0,0,0,0,0,0,0,0,0,-1,741,1779,0,0
-476,-755,0,0,0,0,0,0,0,0,0,-1,748,1779,0,0
-469,-755,0,0,0,0,0,0,0,0,0,-1,755,1779,0,0
-462,-755,0,0,0,0,0,0,0,0,0,-1,762,1779,0,0
-455,-755,0,0,0,0,0,0,0,0,0,-1,769,1779,0,0
-448,-755,0,0,0,0,0,0,0,0,0,-1,776,1779,0,0
-441,-755,0,0,0,0,0,0,0,0,0,-1,783,1779,0,0
-434,-755,0,0,0,0,0,0,0,0,0,-1,790,1779,0,0
-427,-755,0,0,0,0,0,0,0,0,0,-1,797,1779,0,0
-420,-755,0,0,0,0,0,0,0,0,0,-1,804,1779,0,0
-413,-755,0,0,0,0,0,0,0,0,0,-1,811,1779,0,0
-406,-755,0,0,0,0,0,0,0,0,0,-1,818,1779,0,0
-399,-755,0,0,0,0,0,0,0,0,0,-1,825,1779,0,0
-392,-755,0,0,0,0,0,0,0,0,0,-1,832,1779,0,0
-385,-755,0,0,0,0,0,0,0,0,0,-1,839,1779,0,0
-378,-755,0,0,0,0,0,0,0,0,0,-1,846,1779,0,0
-371,-755,0,0,0,0,0,0,0,0,0,-1,853,1779,0,0
-364,-755,0,0,0,0,0,0,0,0,0,-1,860,1779,0,0
-357,-755,0,0,0,0,0,0,0,0,0,-1,867,1779,0,0
-350,-755,0,0,0,0,0,0,0,0,0,-1,874,1779,0,0
-343,-755,0,0,0,0,0,0,0,0,0,-1,881,1779,0,0
-336,-755,0,0,0,0,0,0,0,0,0,-1,888,1779,0,0
-329,-755,0,0,0,0,0,0,0,0,0,-1,895,1779,0,0
-322,-755,0,0,0,0,0,0,0,0,0,-1,902,1779,0,0
-315,-755,0,0,0,0,0,0,0,0,0,-1,909,1779,0,0
-308,-755,0,0,0,0,0,0,0,0,0,-1,916,1779,0,0
-301,-755,0,0,0,0,0,0,0,0,0,-1,923,1779,0,0
-294,-755,0,0,0,0,0,0,0,0,0,-1,930,1779,0,0
-287,-755,0,0,0,0,0,0,0,0,0,-1,937,1779,0,0
-280,-755,0,0,0,0,0,0,0,0,0,-1,944,1779,0,0
-273,-755,0,0,0,0,0,0,0,0,0,-1,951,1779,0,0
-266,-755,0,0,0,0,0,0,0,0,0,-1,958,1779,0,0
-259,-755,0,0,0,0,0,0,0,0,0,-1,965,1779,0,0
-252,-755,0,0,0,0,0,0,0,0,0,-1,972,1779,0,0
-245,-755,0,0,0,0,0,0,0,0,0,-1,979,1779,0,0
-238,-755,0,0,0,0,0,0,0,0,0,-1,986,1779,0,0
-231,-755,0,0,0,0,0,0,0,0,0,-1,993,1779,0,0
-224,-755,0,0,0,0,0,0,0,0,0,-1,1000,1779,0,0
-217,-755,0,0,0,0,0,0,0,0,0,-1,1007,1779,0,0
-210,-755,0,0,0,0,0,0,0,0,0,-1,1014,1779,0,0
-203,-755,5.47998,25.527,0,0,0,0,0,0,0,-1,1021,1779,5.47993,-25.527
-196,-755,5.18445,23.9307,0,0,0,0,0,0,0,-1,1028,1779,5.1844,-23.9306
-189,-755,4.8175,22.4788,0,0,0,0,0,0,0,-1,1035,1779,4.81745,-22.4788
-182,-755,4.021,20.8032,0,0,0,0,0,0,0,-1,1042,1779,4.02094,-20.8032
-175,-755,3.79993,18.8242,0,0,0,0,0,0,0,-1,1049,1779,3.79995,-18.8242
-168,-755,3.14294,16.9865,0,0,0,0,0,0,0,-1,1056,1779,3.14291,-16.9864
-161,-755,-2.85889,11.5868,0,0,0,0,0,0,0,-1,1063,1779,-2.85887,-11.5868
-154,-755,-5.39026,8.51416,0,0,0,0,0,0,0,-1,1070,1779,-5.3903,-8.51417
-147,-755,-6.45593,10.2422,0,0,0,0,0,0,0,-1,1077,1779,-6.45594,-10.2422
-140,-755,1.33521,21.3856,0,0,0,0,0,0,0,-1,1084,1779,1.33522,-21.3857
-133,-755,2.89417,21.0964,0,0,0,0,0,0,0,-1,1091,1779,2.89422,-21.0964
-126,-755,3.26404,20.9304,0,0,0,0,0,0,0,-1,1098,1779,3.26399,-20.9305
-119,-755,5.17761,21.9325,0,0,0,0,0,0,0,-1,1105,1779,5.17761,-21.9325
-112,-755,5.40247,24.5646,0,0,0,0,0,0,0,-1,1112,1779,5.40244,-24.5646
-105,-755,7.01294,20.1539,0,0,0,0,0,0,0,-1,1119,1779,7.01295,-20.154
-98,-755,6.39063,16.4839,0,0,0,0,0,0,0,-1,1126,1779,6.39058,-16.4839
-91,-755,5.51025,12.0438,0,0,0,0,0,0,0,-1,1133,1779,5.51022,-12.0439
-84,-755,0.169312,8.66443,0,0,0,0,0,0,0,-1,1140,1779,0.16932,-8.66446
-77,-755,-0.0491943,6.87439,0,0,0,0,0,0,0,-1,1147,1779,-0.0491385,-6.87443
-70,-755,4.5686,13.2169,0,0,0,0,0,0,0,-1,1154,1779,4.56865,-13.2169
-63,-755,-1.36316,7.3147,0,0,0,0,0,0,0,-1,1161,1779,-1.36312,-7.31473
-56,-755,0.0483398,5.06079,0,0,0,0,0,0,0,-1,1168,1779,0.0483138,-5.06084
-49,-755,-1.32263,5.33716,0,0,0,0,0,0,0,-1,1175,1779,-1.32264,-5.33718
-42,-755,-2.03613,4.01672,0,0,0,0,0,0,0,-1,1182,1779,-2.0361,-4.01671
-35,-755,-2.72498,2.37476,0,0,0,0,0,0,0,-1,1189,1779,-2.72502,-2.37473
-28,-755,7.66675,34.3018,0,0,0,0,0,0,0,-1,1196,1779,7.66676,-34.3018
-21,-755,7.7738,34.4845,0,0,0,0,0,0,0,-1,1203,1779,7.77385,-34.4845
-14,-755,7.84998,34.4673,-0.0073226,0.0165497,-0.0142411,0.0231953,-0.0139682,-1.13418,0.0216757,0.0347572,1210,1779,7.85002,-34.4673
-7,-755,7.7533,34.5525,-0.00695118,0.0154652,-0.0116417,0.0204172,-0.0119032,-1.16861,0.0188748,0.0229115,1217,1779,7.75331,-34.5525
0,-755,7.71472,34.621,-0.00646979,0.0144437,-0.00920778,0.0179199,-0.00994598,-1.20981,0.0163065,0.0141277,1224,1779,7.71471,-34.621
7,-755,7.7196,34.6976,-0.0060776,0.0137651,-0.00697481,0.0159715,-0.00828395,-1.26443,0.0142364,0.0121104,1231,1779,7.71961,-34.6976
14,-755,7.69897,34.7985,-0.00546884,0.0127938,-0.00452985,0.0138556,-0.00653068,-1.34054,0.0120206,0.0106116,1238,1779,7.69892,-34.7985
21,-755,7.66431,34.8647,-0.004327,0.0117427,-0.00220565,0.0120399,-0.00462424,-1.43684,0.00993354,0.0143095,1245,1779,7.66435,-34.8648
28,-755,7.62024,34.8757,-0.00288555,0.0102664,-7.3784e-05,0.0102668,-0.00288597,-1.56519,0.00798238,0.0173851,1252,1779,7.62021,-34.8757
35,-755,7.58984,34.9706,-0.00144571,0.00857305,0.00169509,0.00885207,-0.00172474,1.40765,0.0065524,0.0191768,1259,1779,7.58985,-34.9706
42,-755,7.56458,34.9652,-0.000226229,0.00684067,0.00274454,0.00778134,-0.0011669,1.2406,0.00561707,0.0143391,1266,1779,7.56455,-34.9653
49,-755,7.5448,34.9636,0.000576802,0.00471127,0.00365255,0.00684101,-0.00155294,1.04291,0.00515686,0.0100526,1273,1779,7.54479,-34.9637
56,-755,7.49097,35.0093,0.00111433,0.00244068,0.00407953,0.00591058,-0.00235558,0.865974,0.00491739,0.00968816,1280,1779,7.49091,-35.0093
63,-755,7.48059,35.028,0.00153376,0.000100679,0.00427558,0.00515243,-0.00351799,0.702375,0.00503543,0.00993499,1287,1779,7.48055,-35.028
70,-755,7.46973,35.0233,0.00143224,-0.00258144,0.00435492,0.00422047,-0.00536967,0.56949,0.00555011,0.0131324,1294,1779,7.46967,-35.0233
77,-755,7.43079,34.996,0.000851151,-0.00539186,0.00456832,0.00326258,-0.00780328,0.485685,0.00656572,0.0125297,1301,1779,7.43075,-34.9959
84,-755,7.3988,34.9991,-5.97341e-05,-0.00830555,0.00468053,0.0020548,-0.0104201,0.424327,0.00772331,0.0125369,1308,1779,7.39883,-34.9991
91,-755,7.37756,34.984,-0.00128063,-0.0107748,0.00453002,0.00053399,-0.0125894,0.381003,0.00857648,0.0119079,1315,1779,7.37758,-34.984
98,-755,7.32703,34.9628,-0.00331168,-0.0132018,0.00450744,-0.00156566,-0.0149478,0.369567,0.0094865,0.012813,1322,1779,7.32707,-34.9628
105,-755,7.30505,34.9392,-0.00519618,-0.0152209,0.00530145,-0.0029127,-0.0175043,0.406711,0.01083,0.0158045,1329,1779,7.3051,-34.9393
112,-755,7.27368,34.8945,-0.00682288,-0.0173274,0.00657546,-0.0036595,-0.0204907,0.448404,0.0126188,0.0213787,1336,1779,7.27368,-34.8946
119,-755,7.24634,34.8453,-0.0083713,-0.0187924,0.00762348,-0.00434782,-0.0228159,0.485619,0.0139884,0.0228312,1343,1779,7.24637,-34.8454
126,-755,7.22522,34.8536,-0.00985073,-0.0202259,0.00869751,-0.00491123,-0.0251654,0.516498,0.0154031,0.0251455,1350,1779,7.22521,-34.8536
133,-755,7.16577,34.7648,-0.0110214,-0.0211843,0.00971306,-0.00514091,-0.0270648,0.544398,0.0165971,0.0241888,1357,1779,7.16574,-34.7648
140,-755,7.0376,34.712,-0.0117801,-0.0218866,0.0105753,-0.0051127,-0.028554,0.562519,0.0175813,0.0313855,1364,1779,7.03763,-34.7121
147,-755,7.05933,34.5779,-0.0123119,-0.0225213,0.0113638,-0.00495888,-0.0298743,0.5743,0.0184863,0.0355088,1371,1779,7.05936,-34.5779
154,-755,6.99292,34.522,-0.0127521,-0.0227513,0.0116895,-0.00503787,-0.0304655,0.583322,0.0188567,0.0356271,1378,1779,6.99292,-34.5219
161,-755,6.83118,34.4589,0,0,0,0,0,0,0,-1,1385,1779,6.83124,-34.4589
168,-755,3.98181,7.35901,0,0,0,0,0,0,0,-1,1392,1779,3.98184,-7.35904
175,-755,8.17065,1.34363,0,0,0,0,0,0,0,-1,1399,1779,8.1706,-1.34368
182,-755,8.09216,2.96924,0,0,0,0,0,0,0,-1,1406,1779,8.09213,-2.9693
189,-755,8.04419,4.68042,0,0,0,0,0,0,0,-1,1413,1779,8.04419,-4.68046
196,-755,7.74841,7.4541,0,0,0,0,0,0,0,-1,1420,1779,7.74842,-7.45405
203,-755,4.80554,6.88696,0,0,0,0,0,0,0,-1,1427,1779,4.80554,-6.88697
210,-755,25.1694,7.35693,0,0,0,0,0,0,0,-1,1434,1779,25.1694,-7.35688
217,-755,5.01648,16.411,0,0,0,0,0,0,0,-1,1441,1779,5.01646,-16.411
224,-755,5.18103,22.6283,0,0,0,0,0,0,0,-1,1448,1779,5.18101,-22.6283
231,-755,5.7489,30.15,0,0,0,0,0,0,0,-1,1455,1779,5.74885,-30.15
238,-755,6.56323,29.2726,0,0,0,0,0,0,0,-1,1462,1779,6.56327,-29.2726
245,-755,5.76453,29.2085,0,0,0,0,0,0,0,-1,1469,1779,5.76455,-29.2085
252,-755,5.57678,29.0841,0,0,0,0,0,0,0,-1,1476,1779,5.57682,-29.0841
259,-755,5.37292,29.1577,0,0,0,0,0,0,0,-1,1483,1779,5.37293,-29.1577
266,-755,17.255,7.86096,0,0,0,0,0,0,0,-1,1490,1779,17.255,-7.86092
273,-755,15.7932,7.59778,0,0,0,0,0,0,0,-1,1497,1779,15.7932,-7.59777
280,-755,14.6255,7.34802,0,0,0,0,0,0,0,-1,1504,1779,14.6254,-7.34806
287,-755,13.8279,7.83105,0,0,0,0,0,0,0,-1,1511,1779,13.8279,-7.83104
294,-755,12.5695,7.96814,0,0,0,0,0,0,0,-1,1518,1779,12.5694,-7.9682
301,-755,11.2659,8.27087,0,0,0,0,0,0,0,-1,1525,1779,11.2658,-8.27087
308,-755,9.94434,8.55811,0,0,0,0,0,0,0,-1,1532,1779,9.94428,-8.55806
315,-755,8.64502,9.04492,0,0,0,0,0,0,0,-1,1539,1779,8.64497,-9.04488
322,-755,0,0,0,0,0,0,0,0,0,-1,1546,1779,0,0
329,-755,0,0,0,0,0,0,0,0,0,-1,1553,1779,0,0
336,-755,0,0,0,0,0,0,0,0,0,-1,1560,1779,0,0
343,-755,0,0,0,0,0,0,0,0,0,-1,1567,1779,0,0
350,-755,0,0,0,0,0,0,0,0,0,-1,1574,1779,0,0
357,-755,0,0,0,0,0,0,0,0,0,-1,1581,1779,0,0
364,-755,0,0,0,0,0,0,0,0,0,-1,1588,1779,0,0
371,-755,0,0,0,0,0,0,0,0,0,-1,1595,1779,0,0
378,-755,0,0,0,0,0,0,0,0,0,-1,1602,1779,0,0
385,-755,0,0,0,0,0,0,0,0,0,-1,1609,1779,0,0
392,-755,0,0,0,0,0,0,0,0,0,-1,1616,1779,0,0
399,-755,0,0,0,0,0,0,0,0,0,-1,1623,1779,0,0
406,-755,0,0,0,0,0,0,0,0,0,-1,1630,1779,0,0
413,-755,0,0,0,0,0,0,0,0,0,-1,1637,1779,0,0
420,-755,0,0,0,0,0,0,0,0,0,-1,1644,1779,0,0
427,-755,0,0,0,0,0,0,0,0,0,-1,1651,1779,0,0
434,-755,0,0,0,0,0,0,0,0,0,-1,1658,1779,0,0
441,-755,0,0,0,0,0,0,0,0,0,-1,1665,1779,0,0
448,-755,0,0,0,0,0,0,0,0,0,-1,1672,1779,0,0
455,-755,0,0,0,0,0,0,0,0,0,-1,1679,1779,0,0
462,-755,0,0,0,0,0,0,0,0,0,-1,1686,1779,0,0
469,-755,0,0,0,0,0,0,0,0,0,-1,1693,1779,0,0
476,-755,0,0,0,0,0,0,0,0,0,-1,1700,1779,0,0
483,-755,0,0,0,0,0,0,0,0,0,-1,1707,1779,0,0
490,-755,0,0,0,0,0,0,0,0,0,-1,1714,1779,0,0
497,-755,0,0,0,0,0,0,0,0,0,-1,1721,1779,0,0
504,-755,0,0,0,0,0,0,0,0,0,-1,1728,1779,0,0
511,-755,0,0,0,0,0,0,0,0,0,-1,1735,1779,0,0
518,-755,0,0,0,0,0,0,0,0,0,-1,1742,1779,0,0
525,-755,0,0,0,0,0,0,0,0,0,-1,1749,1779,0,0
532,-755,0,0,0,0,0,0,0,0,0,-1,1756,1779,0,0
539,-755,0,0,0,0,0,0,0,0,0,-1,1763,1779,0,0
546,-755,0,0,0,0,0,0,0,0,0,-1,1770,1779,0,0
553,-755,0,0,0,0,0,0,0,0,0,-1,1777,1779,0,0
560,-755,0,0,0,0,0,0,0,0,0,-1,1784,1779,0,0
567,-755,0,0,0,0,0,0,0,0,0,-1,1791,1779,0,0
574,-755,0,0,0,0,0,0,0,0,0,-1,1798,1779,0,0
581,-755,0,0,0,0,0,0,0,0,0,-1,1805,1779,0,0
588,-755,0,0,0,0,0,0,0,0,0,-1,1812,1779,0,0
595,-755,0,0,0,0,0,0,0,0,0,-1,1819,1779,0,0
602,-755,0,0,0,0,0,0,0,0,0,-1,1826,1779,0,0
609,-755,0,0,0,0,0,0,0,0,0,-1,1833,1779,0,0
616,-755,0,0,0,0,0,0,0,0,0,-1,1840,1779,0,0
623,-755,0,0,0,0,0,0,0,0,0,-1,1847,1779,0,0
630,-755,0,0,0,0,0,0,0,0,0,-1,1854,1779,0,0
637,-755,0,0,0,0,0,0,0,0,0,-1,1861,1779,0,0
644,-755,0,0,0,0,0,0,0,0,0,-1,1868,1779,0,0
651,-755,0,0,0,0,0,0,0,0,0,-1,1875,1779,0,0
658,-755,0,0,0,0,0,0,0,0,0,-1,1882,1779,0,0
665,-755,0,0,0,0,0,0,0,0,0,-1,1889,1779,0,0
672,-755,0,0,0,0,0,0,0,0,0,-1,1896,1779,0,0
679,-755,0,0,0,0,0,0,0,0,0,-1,1903,1779,0,0
686,-755,0,0,0,0,0,0,0,0,0,-1,1910,1779,0,0
693,-755,0,0,0,0,0,0,0,0,0,-1,1917,1779,0,0
700,-755,0,0,0,0,0,0,0,0,0,-1,1924,1779,0,0
707,-755,0,0,0,0,0,0,0,0,0,-1,1931,1779,0,0
714,-755,0,0,0,0,0,0,0,0,0,-1,1938,1779,0,0
721,-755,0,0,0,0,0,0,0,0,0,-1,1945,1779,0,0
728,-755,0,0,0,0,0,0,0,0,0,-1,1952,1779,0,0
735,-755,0,0,0,0,0,0,0,0,0,-1,1959,1779,0,0
742,-755,0,0,0,0,0,0,0,0,0,-1,1966,1779,0,0
749,-755,0,0,0,0,0,0,0,0,0,-1,1973,1779,0,0
756,-755,0,0,0,0,0,0,0,0,0,-1,1980,1779,0,0
763,-755,0,0,0,0,0,0,0,0,0,-1,1987,1779,0,0
770,-755,0,0,0,0,0,0,0,0,0,-1,1994,1779,0,0
777,-755,0,0,0,0,0,0,0,0,0,-1,2001,1779,0,0
784,-755,0,0,0,0,0,0,0,0,0,-1,2008,1779,0,0
791,-755,0,0,0,0,0,0,0,0,0,-1,2015,1779,0,0
798,-755,0,0,0,0,0,0,0,0,0,-1,2022,1779,0,0
805,-755,0,0,0,0,0,0,0,0,0,-1,2029,1779,0,0
812,-755,0,0,0,0,0,0,0,0,0,-1,2036,1779,0,0
-700,-762,0,0,0,0,0,0,0,0,0,-1,524,1786,0,0
-693,-762,0,0,0,0,0,0,0,0,0,-1,531,1786,0,0
-686,-762,0,0,0,0,0,0,0,0,0,-1,538,1786,0,0
-679,-762,0,0,0,0,0,0,0,0,0,-1,545,1786,0,0
-672,-762,0,0,0,0,0,0,0,0,0,-1,552,1786,0,0
-665,-762,0,0,0,0,0,0,0,0,0,-1,559,1786,0,0
-658,-762,0,0,0,0,0,0,0,0,0,-1,566,1786,0,0
-651,-762,0,0,0,0,0,0,0,0,0,-1,573,1786,0,0
-644,-762,0,0,0,0,0,0,0,0,0,-1,580,1786,0,0
-637,-762,0,0,0,0,0,0,0,0,0,-1,587,1786,0,0
-630,-762,0,0,0,0,0,0,0,0,0,-1,594,1786,0,0
-623,-762,0,0,0,0,0,0,0,0,0,-1,601,1786,0,0
-616,-762,0,0,0,0,0,0,0,0,0,-1,608,1786,0,0
-609,-762,0,0,0,0,0,0,0,0,0,-1,615,1786,0,0
-602,-762,0,0,0,0,0,0,0,0,0,-1,622,1786,0,0
-595,-762,0,0,0,0,0,0,0,0,0,-1,629,1786,0,0
-588,-762,0,0,0,0,0,0,0,0,0,-1,636,1786,0,0
-581,-762,0,0,0,0,0,0,0,0,0,-1,643,1786,0,0
-574,-762,0,0,0,0,0,0,0,0,0,-1,650,1786,0,0
-567,-762,0,0,0,0,0,0,0,0,0,-1,657,1786,0,0
-560,-762,0,0,0,0,0,0,0,0,0,-1,664,1786,0,0
-553,-762,0,0,0,0,0,0,0,0,0,-1,671,1786,0,0
-546,-762,0,0,0,0,0,0,0,0,0,-1,678,1786,0,0
-539,-762,0,0,0,0,0,0,0,0,0,-1,685,1786,0,0
-532,-762,0,0,0,0,0,0,0,0,0,-1,692,1786,0,0
-525,-762,0,0,0,0,0,0,0,0,0,-1,699,1786,0,0
-518,-762,0,0,0,0,0,0,0,0,0,-1,706,1786,0,0
-511,-762,0,0,0,0,0,0,0,0,0,-1,713,1786,0,0
-504,-762,0,0,0,0,0,0,0,0,0,-1,720,1786,0,0
-497,-762,0,0,0,0,0,0,0,0,0,-1,727,1786,0,0
-490,-762,0,0,0,0,0,0,0,0,0,-1,734,1786,0,0
-483,-762,0,0,0,0,0,0,0,0,0,-1,741,1786,0,0
-476,-762,0,0,0,0,0,0,0,0,0,-1,748,1786,0,0
-469,-762,0,0,0,0,0,0,0,0,0,-1,755,1786,0,0
-462,-762,0,0,0,0,0,0,0,0,0,-1,762,1786,0,0
-455,-762,0,0,0,0,0,0,0,0,0,-1,769,1786,0,0
-448,-762,0,0,0,0,0,0,0,0,0,-1,776,1786,0,0
-441,-762,0,0,0,0,0,0,0,0,0,-1,783,1786,0,0
-434,-762,0,0,0,0,0,0,0,0,0,-1,790,1786,0,0
-427,-762,0,0,0,0,0,0,0,0,0,-1,797,1786,0,0
-420,-762,0,0,0,0,0,0,0,0,0,-1,804,1786,0,0
-413,-762,0,0,0,0,0,0,0,0,0,-1,811,1786,0,0
-406,-762,0,0,0,0,0,0,0,0,0,-1,818,1786,0,0
-399,-762,0,0,0,0,0,0,0,0,0,-1,825,1786,0,0
-392,-762,0,0,0,0,0,0,0,0,0,-1,832,1786,0,0
-385,-762,0,0,0,0,0,0,0,0,0,-1,839,1786,0,0
-378,-762,0,0,0,0,0,0,0,0,0,-1,846,1786,0,0
-371,-762,0,0,0,0,0,0,0,0,0,-1,853,1786,0,0
-364,-762,0,0,0,0,0,0,0,0,0,-1,860,1786,0,0
-357,-762,0,0,0,0,0,0,0,0,0,-1,867,1786,0,0
-350,-762,0,0,0,0,0,0,0,0,0,-1,874,1786,0,0
-343,-762,0,0,0,0,0,0,0,0,0,-1,881,1786,0,0
-336,-762,0,0,0,0,0,0,0,0,0,-1,888,1786,0,0
-329,-762,0,0,0,0,0,0,0,0,0,-1,895,1786,0,0
-322,-762,0,0,0,0,0,0,0,0,0,-1,902,1786,0,0
-315,-762,0,0,0,0,0,0,0,0,0,-1,909,1786,0,0
-308,-762,0,0,0,0,0,0,0,0,0,-1,916,1786,0,0
-301,-762,0,0,0,0,0,0,0,0,0,-1,923,1786,0,0
-294,-762,0,0,0,0,0,0,0,0,0,-1,930,1786,0,0
-287,-762,0,0,0,0,0,0,0,0,0,-1,937,1786,0,0
-280,-762,0,0,0,0,0,0,0,0,0,-1,944,1786,0,0
-273,-762,0,0,0,0,0,0,0,0,0,-1,951,1786,0,0
-266,-762,0,0,0,0,0,0,0,0,0,-1,958,1786,0,0
-259,-762,0,0,0,0,0,0,0,0,0,-1,965,1786,0,0
-252,-762,0,0,0,0,0,0,0,0,0,-1,972,1786,0,0
-245,-762,0,0,0,0,0,0,0,0,0,-1,979,1786,0,0
-238,-762,0,0,0,0,0,0,0,0,0,-1,986,1786,0,0
-231,-762,0,0,0,0,0,0,0,0,0,-1,993,1786,0,0
-224,-762,0,0,0,0,0,0,0,0,0,-1,1000,1786,0,0
-217,-762,0,0,0,0,0,0,0,0,0,-1,1007,1786,0,0
-210,-762,0,0,0,0,0,0,0,0,0,-1,1014,1786,0,0
-203,-762,0,0,0,0,0,0,0,0,0,-1,1021,1786,0,0
-196,-762,0,0,0,0,0,0,0,0,0,-1,1028,1786,0,0
-189,-762,0,0,0,0,0,0,0,0,0,-1,1035,1786,0,0
-182,-762,4.44226,13.2462,0,0,0,0,0,0,0,-1,1042,1786,4.44227,-13.2462
-175,-762,4.3219,18.3975,0,0,0,0,0,0,0,-1,1049,1786,4.32192,-18.3974
-168,-762,-2.08618,13.0768,0,0,0,0,0,0,0,-1,1056,1786,-2.08623,-13.0768
-161,-762,-3.29077,11.9508,0,0,0,0,0,0,0,-1,1063,1786,-3.29076,-11.9508
-154,-762,-4.55823,11.1176,0,0,0,0,0,0,0,-1,1070,1786,-4.55828,-11.1175
-147,-762,-6.52454,9.41418,0,0,0,0,0,0,0,-1,1077,1786,-6.52458,-9.41419
-140,-762,4.99792,5.28589,0,0,0,0,0,0,0,-1,1084,1786,4.99793,-5.28587
-133,-762,0.689819,19.2172,0,0,0,0,0,0,0,-1,1091,1786,0.689867,-19.2171
-126,-762,1.48743,19.9288,0,0,0,0,0,0,0,-1,1098,1786,1.48738,-19.9289
-119,-762,2.65637,20.208,0,0,0,0,0,0,0,-1,1105,1786,2.65632,-20.208
-112,-762,6.84705,25.5554,0,0,0,0,0,0,0,-1,1112,1786,6.84706,-25.5554
-105,-762,6.14661,21.8407,0,0,0,0,0,0,0,-1,1119,1786,6.14664,-21.8407
-98,-762,5.55115,18.0452,0,0,0,0,0,0,0,-1,1126,1786,5.5511,-18.0451
-91,-762,5.00549,14.2571,0,0,0,0,0,0,0,-1,1133,1786,5.00554,-14.257
-84,-762,3.96375,10.4547,0,0,0,0,0,0,0,-1,1140,1786,3.96371,-10.4548
-77,-762,0.305054,8.49365,0,0,0,0,0,0,0,-1,1147,1786,0.305008,-8.49362
-70,-762,0.183716,6.74622,0,0,0,0,0,0,0,-1,1154,1786,0.183696,-6.74621
-63,-762,-0.883057,9.08813,0,0,0,0,0,0,0,-1,1161,1786,-0.88311,-9.08808
-56,-762,-0.578979,5.10254,0,0,0,0,0,0,0,-1,1168,1786,-0.578951,-5.10249
-49,-762,-2.04541,3.66321,0,0,0,0,0,0,0,-1,1175,1786,-2.0454,-3.66319
-42,-762,-2.23462,3.474,0,0,0,0,0,0,0,-1,1182,1786,-2.23459,-3.47399
-35,-762,-3.28992,1.68164,0,0,0,0,0,0,0,-1,1189,1786,-3.28998,-1.68164
-28,-762,-3.75378,1.37769,0,0,0,0,0,0,0,-1,1196,1786,-3.75373,-1.37767
-21,-762,8.27515,33.7308,0,0,0,0,0,0,0,-1,1203,1786,8.27517,-33.7308
-14,-762,7.96777,34.5288,0,0,0,0,0,0,0,-1,1210,1786,7.96783,-34.5287
-7,-762,7.78137,34.587,0,0,0,0,0,0,0,-1,1217,1786,7.78141,-34.587
0,-762,7.75549,34.6515,-0.00950931,0.0205029,-0.0137012,0.0258168,-0.0148233,-1.20081,0.023748,0.0363983,1224,1786,7.75554,-34.6515
7,-762,7.78491,34.7526,-0.00898018,0.0190935,-0.0101723,0.0223918,-0.0122785,-1.25725,0.0202988,0.0210106,1231,1786,7.78489,-34.7525
14,-762,7.81067,34.9285,-0.00807068,0.0174149,-0.00648496,0.0189701,-0.00962591,-1.33542,0.0168012,0.0345551,1238,1786,7.81071,-34.9285
21,-762,7.83655,34.9417,-0.00635542,0.0156005,-0.00306512,0.0160203,-0.00677529,-1.43466,0.013517,0.0417245,1245,1786,7.83651,-34.9417
28,-762,7.74854,34.8539,-0.00416765,0.0132956,-1.54814e-05,0.0132956,-0.00416766,-1.56991,0.0105315,0.0411278,1252,1786,7.74859,-34.8539
35,-762,7.69714,34.9626,-0.00196604,0.0107771,0.0025056,0.011252,-0.002441,1.38346,0.00843359,0.0453282,1259,1786,7.69719,-34.9627
42,-762,7.68213,34.9855,-4.83683e-05,0.00829677,0.00399857,0.00990338,-0.00165498,1.18874,0.00721744,0.0479983,1266,1786,7.68214,-34.9855
49,-762,7.57776,34.9792,0.00129631,0.00536037,0.00528785,0.00899319,-0.00233651,0.96884,0.00690731,0.0383621,1273,1786,7.57771,-34.9793
56,-762,7.54871,35.0066,0.00226013,0.00228243,0.00589442,0.00816571,-0.00362315,0.786344,0.0069727,0.0265591,1280,1786,7.54867,-35.0066
63,-762,7.54883,35.0288,0.00303356,-0.000899995,0.00618119,0.00755333,-0.00541976,0.631369,0.0075237,0.0240415,1287,1786,7.54884,-35.0288
70,-762,7.54309,35.0566,0.0030211,-0.00441848,0.00630816,0.00662454,-0.00802193,0.519,0.00846896,0.0246439,1294,1786,7.54314,-35.0567
77,-762,7.4447,35.0216,0.00226299,-0.0080223,0.00658387,0.00547463,-0.0112339,0.453844,0.00983587,0.030329,1301,1786,7.4447,-35.0217
84,-762,7.41211,35.0173,0.00107954,-0.0117442,0.00674439,0.00397352,-0.0146382,0.405334,0.0113182,0.0370396,1308,1786,7.4121,-35.0174
91,-762,7.42151,35.0078,-0.000523177,-0.0148755,0.00651499,0.00199305,-0.0173917,0.368572,0.0123127,0.0447652,1315,1786,7.42151,-35.0078
98,-762,7.39978,35.0099,-0.00331279,-0.0180265,0.00651677,-0.000841543,-0.0204978,0.362459,0.0133935,0.0451901,1322,1786,7.39981,-35.0099
105,-762,7.31177,34.9409,-0.00595368,-0.020748,0.00760109,-0.00274451,-0.0239572,0.399496,0.0151398,0.042305,1329,1786,7.31174,-34.941
112,-762,7.10071,34.8757,-0.00822926,-0.0235542,0.00930253,-0.00383973,-0.0279437,0.440886,0.0174903,0.0440496,1336,1786,7.10068,-34.8758
119,-762,7.04553,35.1118,-0.0103785,-0.0255709,0.0107017,-0.00485113,-0.0310983,0.476756,0.0193192,0.0458876,1343,1786,7.04552,-35.1119
126,-762,7.16724,35.2095,-0.0124007,-0.0275487,0.012133,-0.00567175,-0.0342777,0.50637,0.0212155,0.0478473,1350,1786,7.1672,-35.2094
133,-762,7.26208,35.1782,0,0,0,0,0,0,0,-1,1357,1786,7.2621,-35.1782
140,-762,6.82043,34.6565,-0.0149253,-0.0302146,0.0147161,-0.00598671,-0.0391531,0.545844,0.0243531,0.0450252,1364,1786,6.82038,-34.6565
147,-762,6.44373,34.502,-0.0156735,-0.0312567,0.0157478,-0.00589516,-0.041035,0.555669,0.0256187,0.0437974,1371,1786,6.44374,-34.502
154,-762,6.38416,34.3374,0,0,0,0,0,0,0,-1,1378,1786,6.38419,-34.3374
161,-762,7.45508,33.2467,0,0,0,0,0,0,0,-1,1385,1786,7.45514,-33.2467
168,-762,8.19287,0.880615,0,0,0,0,0,0,0,-1,1392,1786,8.19291,-0.880603
175,-762,8.33997,1.95947,0,0,0,0,0,0,0,-1,1399,1786,8.33997,-1.95942
182,-762,8.28418,3.56482,0,0,0,0,0,0,0,-1,1406,1786,8.28415,-3.56485
189,-762,8.21179,5.23389,0,0,0,0,0,0,0,-1,1413,1786,8.21183,-5.23383
196,-762,8.05969,6.95483,0,0,0,0,0,0,0,-1,1420,1786,8.05972,-6.9548
203,-762,24.0077,7.10425,0,0,0,0,0,0,0,-1,1427,1786,24.0077,-7.10426
210,-762,23.8073,7.6499,0,0,0,0,0,0,0,-1,1434,1786,23.8073,-7.64987
217,-762,23.3193,8.24426,0,0,0,0,0,0,0,-1,1441,1786,23.3194,-8.2442
224,-762,2.65149,20.6106,0,0,0,0,0,0,0,-1,1448,1786,2.65153,-20.6106
231,-762,5.46655,23.521,0,0,0,0,0,0,0,-1,1455,1786,5.46653,-23.521
238,-762,5.35632,29.7203,0,0,0,0,0,0,0,-1,1462,1786,5.35629,-29.7203
245,-762,5.84509,28.6954,0,0,0,0,0,0,0,-1,1469,1786,5.84509,-28.6954
252,-762,5.82837,27.7246,0,0,0,0,0,0,0,-1,1476,1786,5.82839,-27.7247
259,-762,10.7311,18.3031,0,0,0,0,0,0,0,-1,1483,1786,10.7311,-18.3031
266,-762,16.451,7.67773,0,0,0,0,0,0,0,-1,1490,1786,16.4511,-7.67773
273,-762,15.287,7.5304,0,0,0,0,0,0,0,-1,1497,1786,15.2869,-7.53044
280,-762,14.1501,7.38379,0,0,0,0,0,0,0,-1,1504,1786,14.1502,-7.38376
287,-762,12.6891,7.99133,0,0,0,0,0,0,0,-1,1511,1786,12.6891,-7.99135
294,-762,12.6959,8.30371,0,0,0,0,0,0,0,-1,1518,1786,12.6959,-8.30368
301,-762,11.4222,8.84143,0,0,0,0,0,0,0,-1,1525,1786,11.4223,-8.84149
308,-762,0,0,0,0,0,0,0,0,0,-1,1532,1786,0,0
315,-762,0,0,0,0,0,0,0,0,0,-1,1539,1786,0,0
322,-762,0,0,0,0,0,0,0,0,0,-1,1546,1786,0,0
329,-762,0,0,0,0,0,0,0,0,0,-1,1553,1786,0,0
336,-762,0,0,0,0,0,0,0,0,0,-1,1560,1786,0,0
343,-762,0,0,0,0,0,0,0,0,0,-1,1567,1786,0,0
350,-762,0,0,0,0,0,0,0,0,0,-1,1574,1786,0,0
357,-762,0,0,0,0,0,0,0,0,0,-1,1581,1786,0,0
364,-762,0,0,0,0,0,0,0,0,0,-1,1588,1786,0,0
371,-762,0,0,0,0,0,0,0,0,0,-1,1595,1786,0,0
378,-762,0,0,0,0,0,0,0,0,0,-1,1602,1786,0,0
385,-762,0,0,0,0,0,0,0,0,0,-1,1609,1786,0,0
392,-762,0,0,0,0,0,0,0,0,0,-1,1616,1786,0,0
399,-762,0,0,0,0,0,0,0,0,0,-1,1623,1786,0,0
406,-762,0,0,0,0,0,0,0,0,0,-1,1630,1786,0,0
413,-762,0,0,0,0,0,0,0,0,0,-1,1637,1786,0,0
420,-762,0,0,0,0,0,0,0,0,0,-1,1644,1786,0,0
427,-762,0,0,0,0,0,0,0,0,0,-1,1651,1786,0,0
434,-762,0,0,0,0,0,0,0,0,0,-1,1658,1786,0,0
441,-762,0,0,0,0,0,0,0,0,0,-1,1665,1786,0,0
448,-762,0,0,0,0,0,0,0,0,0,-1,1672,1786,0,0
455,-762,0,0,0,0,0,0,0,0,0,-1,1679,1786,0,0
462,-762,0,0,0,0,0,0,0,0,0,-1,1686,1786,0,0
469,-762,0,0,0,0,0,0,0,0,0,-1,1693,1786,0,0
476,-762,0,0,0,0,0,0,0,0,0,-1,1700,1786,0,0
483,-762,0,0,0,0,0,0,0,0,0,-1,1707,1786,0,0
490,-762,0,0,0,0,0,0,0,0,0,-1,1714,1786,0,0
497,-762,0,0,0,0,0,0,0,0,0,-1,1721,1786,0,0
504,-762,0,0,0,0,0,0,0,0,0,-1,1728,1786,0,0
511,-762,0,0,0,0,0,0,0,0,0,-1,1735,1786,0,0
518,-762,0,0,0,0,0,0,0,0,0,-1,1742,1786,0,0
525,-762,0,0,0,0,0,0,0,0,0,-1,1749,1786,0,0
532,-762,0,0,0,0,0,0,0,0,0,-1,1756,1786,0,0
539,-762,0,0,0,0,0,0,0,0,0,-1,1763,1786,0,0
546,-762,0,0,0,0,0,0,0,0,0,-1,1770,1786,0,0
553,-762,0,0,0,0,0,0,0,0,0,-1,1777,1786,0,0
560,-762,0,0,0,0,0,0,0,0,0,-1,1784,1786,0,0
567,-762,0,0,0,0,0,0,0,0,0,-1,1791,1786,0,0
574,-762,0,0,0,0,0,0,0,0,0,-1,1798,1786,0,0
581,-762,0,0,0,0,0,0,0,0,0,-1,1805,1786,0,0
588,-762,0,0,0,0,0,0,0,0,0,-1,1812,1786,0,0
595,-762,0,0,0,0,0,0,0,0,0,-1,1819,1786,0,0
602,-762,0,0,0,0,0,0,0,0,0,-1,1826,1786,0,0
609,-762,0,0,0,0,0,0,0,0,0,-1,1833,1786,0,0
616,-762,0,0,0,0,0,0,0,0,0,-1,1840,1786,0,0
623,-762,0,0,0,0,0,0,0,0,0,-1,1847,1786,0,0
630,-762,0,0,0,0,0,0,0,0,0,-1,1854,1786,0,0
637,-762,0,0,0,0,0,0,0,0,0,-1,1861,1786,0,0
644,-762,0,0,0,0,0,0,0,0,0,-1,1868,1786,0,0
651,-762,0,0,0,0,0,0,0,0,0,-1,1875,1786,0,0
658,-762,0,0,0,0,0,0,0,0,0,-1,1882,1786,0,0
665,-762,0,0,0,0,0,0,0,0,0,-1,1889,1786,0,0
672,-762,0,0,0,0,0,0,0,0,0,-1,1896,1786,0,0
679,-762,0,0,0,0,0,0,0,0,0,-1,1903,1786,0,0
686,-762,0,0,0,0,0,0,0,0,0,-1,1910,1786,0,0
693,-762,0,0,0,0,0,0,0,0,0,-1,1917,1786,0,0
700,-762,0,0,0,0,0,0,0,0,0,-1,1924,1786,0,0
707,-762,0,0,0,0,0,0,0,0,0,-1,1931,1786,0,0
714,-762,0,0,0,0,0,0,0,0,0,-1,1938,1786,0,0
721,-762,0,0,0,0,0,0,0,0,0,-1,1945,1786,0,0
728,-762,0,0,0,0,0,0,0,0,0,-1,1952,1786,0,0
735,-762,0,0,0,0,0,0,0,0,0,-1,1959,1786,0,0
742,-762,0,0,0,0,0,0,0,0,0,-1,1966,1786,0,0
749,-762,0,0,0,0,0,0,0,0,0,-1,1973,1786,0,0
756,-762,0,0,0,0,0,0,0,0,0,-1,1980,1786,0,0
763,-762,0,0,0,0,0,0,0,0,0,-1,1987,1786,0,0
770,-762,0,0,0,0,0,0,0,0,0,-1,1994,1786,0,0
777,-762,0,0,0,0,0,0,0,0,0,-1,2001,1786,0,0
784,-762,0,0,0,0,0,0,0,0,0,-1,2008,1786,0,0
791,-762,0,0,0,0,0,0,0,0,0,-1,2015,1786,0,0
798,-762,0,0,0,0,0,0,0,0,0,-1,2022,1786,0,0
805,-762,0,0,0,0,0,0,0,0,0,-1,2029,1786,0,0
812,-762,0,0,0,0,0,0,0,0,0,-1,2036,1786,0,0
-700,-769,0,0,0,0,0,0,0,0,0,-1,524,1793,0,0
-693,-769,0,0,0,0,0,0,0,0,0,-1,531,1793,0,0
-686,-769,0,0,0,0,0,0,0,0,0,-1,538,1793,0,0
-679,-769,0,0,0,0,0,0,0,0,0,-1,545,1793,0,0
-672,-769,0,0,0,0,0,0,0,0,0,-1,552,1793,0,0
-665,-769,0,0,0,0,0,0,0,0,0,-1,559,1793,0,0
-658,-769,0,0,0,0,0,0,0,0,0,-1,566,1793,0,0
-651,-769,0,0,0,0,0,0,0,0,0,-1,573,1793,0,0
-644,-769,0,0,0,0,0,0,0,0,0,-1,580,1793,0,0
-637,-769,0,0,0,0,0,0,0,0,0,-1,587,1793,0,0
-630,-769,0,0,0,0,0,0,0,0,0,-1,594,1793,0,0
-623,-769,0,0,0,0,0,0,0,0,0,-1,601,1793,0,0
-616,-769,0,0,0,0,0,0,0,0,0,-1,608,1793,0,0
-609,-769,0,0,0,0,0,0,0,0,0,-1,615,1793,0,0
-602,-769,0,0,0,0,0,0,0,0,0,-1,622,1793,0,0
-595,-769,0,0,0,0,0,0,0,0,0,-1,629,1793,0,0
-588,-769,0,0,0,0,0,0,0,0,0,-1,636,1793,0,0
-581,-769,0,0,0,0,0,0,0,0,0,-1,643,1793,0,0
-574,-769,0,0,0,0,0,0,0,0,0,-1,650,1793,0,0
-567,-769,0,0,0,0,0,0,0,0,0,-1,657,1793,0,0
-560,-769,0,0,0,0,0,0,0,0,0,-1,664,1793,0,0
-553,-769,0,0,0,0,0,0,0,0,0,-1,671,1793,0,0
-546,-769,0,0,0,0,0,0,0,0,0,-1,678,1793,0,0
-539,-769,0,0,0,0,0,0,0,0,0,-1,685,1793,0,0
-532,-769,0,0,0,0,0,0,0,0,0,-1,692,1793,0,0
-525,-769,0,0,0,0,0,0,0,0,0,-1,699,1793,0,0
-518,-769,0,0,0,0,0,0,0,0,0,-1,706,1793,0,0
-511,-769,0,0,0,0,0,0,0,0,0,-1,713,1793,0,0
-504,-769,0,0,0,0,0,0,0,0,0,-1,720,1793,0,0
-497,-769,0,0,0,0,0,0,0,0,0,-1,727,1793,0,0
-490,-769,0,0,0,0,0,0,0,0,0,-1,734,1793,0,0
-483,-769,0,0,0,0,0,0,0,0,0,-1,741,1793,0,0
-476,-769,0,0,0,0,0,0,0,0,0,-1,748,1793,0,0
-469,-769,0,0,0,0,0,0,0,0,0,-1,755,1793,0,0
-462,-769,0,0,0,0,0,0,0,0,0,-1,762,1793,0,0
-455,-769,0,0,0,0,0,0,0,0,0,-1,769,1793,0,0
-448,-769,0,0,0,0,0,0,0,0,0,-1,776,1793,0,0
-441,-769,0,0,0,0,0,0,0,0,0,-1,783,1793,0,0
-434,-769,0,0,0,0,0,0,0,0,0,-1,790,1793,0,0
-427,-769,0,0,0,0,0,0,0,0,0,-1,797,1793,0,0
-420,-769,0,0,0,0,0,0,0,0,0,-1,804,1793,0,0
-413,-769,0,0,0,0,0,0,0,0,0,-1,811,1793,0,0
-406,-769,0,0,0,0,0,0,0,0,0,-1,818,1793,0,0
-399,-769,0,0,0,0,0,0,0,0,0,-1,825,1793,0,0
-392,-769,0,0,0,0,0,0,0,0,0,-1,832,1793,0,0
-385,-769,0,0,0,0,0,0,0,0,0,-1,839,1793,0,0
-378,-769,0,0,0,0,0,0,0,0,0,-1,846,1793,0,0
-371,-769,0,0,0,0,0,0,0,0,0,-1,853,1793,0,0
-364,-769,0,0,0,0,0,0,0,0,0,-1,860,1793,0,0
-357,-769,0,0,0,0,0,0,0,0,0,-1,867,1793,0,0
-350,-769,0,0,0,0,0,0,0,0,0,-1,874,1793,0,0
-343,-769,0,0,0,0,0,0,0,0,0,-1,881,1793,0,0
-336,-769,0,0,0,0,0,0,0,0,0,-1,888,1793,0,0
-329,-769,0,0,0,0,0,0,0,0,0,-1,895,1793,0,0
-322,-769,0,0,0,0,0,0,0,0,0,-1,902,1793,0,0
-315,-769,0,0,0,0,0,0,0,0,0,-1,909,1793,0,0
-308,-769,0,0,0,0,0,0,0,0,0,-1,916,1793,0,0
-301,-769,0,0,0,0,0,0,0,0,0,-1,923,1793,0,0
-294,-769,0,0,0,0,0,0,0,0,0,-1,930,1793,0,0
-287,-769,0,0,0,0,0,0,0,0,0,-1,937,1793,0,0
-280,-769,0,0,0,0,0,0,0,0,0,-1,944,1793,0,0
-273,-769,0,0,0,0,0,0,0,0,0,-1,951,1793,0,0
-266,-769,0,0,0,0,0,0,0,0,0,-1,958,1793,0,0
-259,-769,0,0,0,0,0,0,0,0,0,-1,965,1793,0,0
-252,-769,0,0,0,0,0,0,0,0,0,-1,972,1793,0,0
-245,-769,0,0,0,0,0,0,0,0,0,-1,979,1793,0,0
-238,-769,0,0,0,0,0,0,0,0,0,-1,986,1793,0,0
-231,-769,0,0,0,0,0,0,0,0,0,-1,993,1793,0,0
-224,-769,0,0,0,0,0,0,0,0,0,-1,1000,1793,0,0
-217,-769,0,0,0,0,0,0,0,0,0,-1,1007,1793,0,0
-210,-769,0,0,0,0,0,0,0,0,0,-1,1014,1793,0,0
-203,-769,0,0,0,0,0,0,0,0,0,-1,1021,1793,0,0
-196,-769,0,0,0,0,0,0,0,0,0,-1,1028,1793,0,0
-189,-769,0,0,0,0,0,0,0,0,0,-1,1035,1793,0,0
-182,-769,0,0,0,0,0,0,0,0,0,-1,1042,1793,0,0
-175,-769,0,0,0,0,0,0,0,0,0,-1,1049,1793,0,0
-168,-769,0,0,0,0,0,0,0,0,0,-1,1056,1793,0,0
-161,-769,-3.61145,12.4761,0,0,0,0,0,0,0,-1,1063,1793,-3.6114,-12.476
-154,-769,-0.813232,5.32874,0,0,0,0,0,0,0,-1,1070,1793,-0.813269,-5.32872
-147,-769,4.26587,4.7002,0,0,0,0,0,0,0,-1,1077,1793,4.26593,-4.70022
-140,-769,4.10376,5.28589,0,0,0,0,0,0,0,-1,1084,1793,4.10371,-5.28584
-133,-769,6.422,8.21777,0,0,0,0,0,0,0,-1,1091,1793,6.42198,-8.21773
-126,-769,-0.352295,19.326,0,0,0,0,0,0,0,-1,1098,1793,-0.352235,-19.326
-119,-769,6.01685,16.2577,0,0,0,0,0,0,0,-1,1105,1793,6.01689,-16.2576
-112,-769,5.76416,27.2615,0,0,0,0,0,0,0,-1,1112,1793,5.7642,-27.2615
-105,-769,5.27551,23.3029,0,0,0,0,0,0,0,-1,1119,1793,5.27548,-23.3029
-98,-769,4.7771,19.2936,0,0,0,0,0,0,0,-1,1126,1793,4.77706,-19.2936
-91,-769,4.32886,15.3048,0,0,0,0,0,0,0,-1,1133,1793,4.32881,-15.3048
-84,-769,3.2207,12.4565,0,0,0,0,0,0,0,-1,1140,1793,3.22066,-12.4565
-77,-769,2.48816,8.98486,0,0,0,0,0,0,0,-1,1147,1793,2.48815,-8.98489
-70,-769,1.04944,11.9852,0,0,0,0,0,0,0,-1,1154,1793,1.04947,-11.9852
-63,-769,-2.39709,9.60339,0,0,0,0,0,0,0,-1,1161,1793,-2.39706,-9.6034
-56,-769,-5.84363,7.22156,0,0,0,0,0,0,0,-1,1168,1793,-5.84359,-7.22157
-49,-769,-2.41443,3.95471,0,0,0,0,0,0,0,-1,1175,1793,-2.41446,-3.95471
-42,-769,-3.1991,2.64941,0,0,0,0,0,0,0,-1,1182,1793,-3.19914,-2.64944
-35,-769,-3.50183,1.73389,0,0,0,0,0,0,0,-1,1189,1793,-3.50189,-1.7339
-28,-769,-3.96985,1.14075,0,0,0,0,0,0,0,-1,1196,1793,-3.96985,-1.14078
-21,-769,7.97278,33.8591,0,0,0,0,0,0,0,-1,1203,1793,7.97275,-33.8592
-14,-769,7.97534,33.5166,0,0,0,0,0,0,0,-1,1210,1793,7.97537,-33.5166
-7,-769,4.73779,36.8745,0,0,0,0,0,0,0,-1,1217,1793,4.73781,-36.8745
0,-769,7.77856,34.683,0,0,0,0,0,0,0,-1,1224,1793,7.77861,-34.683
7,-769,7.83594,34.8883,-0.0128778,0.0252311,-0.0143368,0.0300223,-0.017669,-1.24828,0.0278408,0.0465654,1231,1793,7.83597,-34.8883
14,-769,8.16052,34.8062,-0.0115961,0.0225516,-0.00901204,0.0247841,-0.0138286,-1.32797,0.0225902,0.0431225,1238,1793,8.16048,-34.8062
21,-769,8.55237,34.7222,-0.009132,0.0196549,-0.00418032,0.0202497,-0.00972676,-1.42947,0.0176588,0.0436331,1245,1793,8.55235,-34.7221
28,-769,8.04565,34.6088,-0.00594311,0.0162334,1.69107e-05,0.0162334,-0.00594313,1.57003,0.0132551,0.0423566,1252,1793,8.04568,-34.6088
35,-769,7.98413,34.7887,-0.00269757,0.01263,0.00347572,0.0133813,-0.0034489,1.35791,0.0102655,0.0442267,1259,1793,7.98408,-34.7887
42,-769,7.81995,35.285,0.000208187,0.00919351,0.00553627,0.0118307,-0.00242896,1.12625,0.0088091,0.0438426,1266,1793,7.81995,-35.2851
49,-769,7.48682,35.3929,0.00234062,0.00528553,0.00730543,0.0112654,-0.00363927,0.884844,0.00897284,0.042487,1273,1793,7.4868,-35.393
56,-769,7.39624,35.3344,0.00395547,0.00126702,0.008154,0.0108753,-0.00565281,0.703705,0.0097,0.0430052,1280,1793,7.39624,-35.3344
63,-769,7.31628,34.9635,0.0052669,-0.00289297,0.00858288,0.0106902,-0.00831629,0.563528,0.0110019,0.0444291,1287,1793,7.31628,-34.9635
70,-769,7.44897,34.7866,0.00544283,-0.00733607,0.00880495,0.00993236,-0.0118256,0.471526,0.0125778,0.0418053,1294,1793,7.44896,-34.7866
77,-769,7.39502,35.0825,0.00451796,-0.0117864,0.00918177,0.00864434,-0.0159127,0.422363,0.0143836,0.0472538,1301,1793,7.39504,-35.0825
84,-769,7.55896,35.4774,0.00305776,-0.0163529,0.00943426,0.00688752,-0.0201827,0.385618,0.0162452,0.0484334,1308,1793,7.55896,-35.4774
91,-769,7.53906,35.2933,0.00103933,-0.0201499,0.00912977,0.00443037,-0.023541,0.355634,0.0173602,0.0451047,1315,1793,7.53906,-35.2933
98,-769,7.40247,35.2601,-0.00266351,-0.0240559,0.00921328,0.000757412,-0.0274769,0.355526,0.0185755,0.0451062,1322,1793,7.40241,-35.2601
105,-769,6.87122,35.036,-0.00625515,-0.0275831,0.0106519,-0.00184651,-0.0319918,0.392416,0.0207398,0.0477013,1329,1793,6.87124,-35.036
112,-769,6.83105,35.214,0,0,0,0,0,0,0,-1,1336,1793,6.8311,-35.214
119,-769,6.92578,35.2987,-0.012307,-0.0338243,0.0146164,-0.0049166,-0.0412147,0.468136,0.025993,0.0464679,1343,1793,6.92577,-35.2987
126,-769,7.01379,35.3862,-0.0150143,-0.0364082,0.0164308,-0.00610523,-0.0453173,0.496847,0.0283961,0.0476853,1350,1793,7.0138,-35.3862
133,-769,6.71069,35.7297,-0.0170046,-0.0384234,0.0182298,-0.00657125,-0.0488567,0.519821,0.0306167,0.049851,1357,1793,6.71073,-35.7297
140,-769,6.81909,34.6183,0,0,0,0,0,0,0,-1,1364,1793,6.81913,-34.6183
147,-769,6.0741,34.4004,0,0,0,0,0,0,0,-1,1371,1793,6.07407,-34.4004
154,-769,7.4093,33.5405,0,0,0,0,0,0,0,-1,1378,1793,7.40928,-33.5405
161,-769,6.57019,1.53223,0,0,0,0,0,0,0,-1,1385,1793,6.57019,-1.53226
168,-769,8.27637,0.756958,0,0,0,0,0,0,0,-1,1392,1793,8.27639,-0.756944
175,-769,8.47144,2.41174,0,0,0,0,0,0,0,-1,1399,1793,8.47147,-2.4118
182,-769,8.41479,4.05994,0,0,0,0,0,0,0,-1,1406,1793,8.41479,-4.05997
189,-769,8.25049,5.68433,0,0,0,0,0,0,0,-1,1413,1793,8.25054,-5.68428
196,-769,7.97729,7.42847,0,0,0,0,0,0,0,-1,1420,1793,7.9773,-7.42848
203,-769,22.0977,6.73889,0,0,0,0,0,0,0,-1,1427,1793,22.0977,-6.7389
210,-769,22.1115,7.77246,0,0,0,0,0,0,0,-1,1434,1793,22.1115,-7.77248
217,-769,22.4723,8.79102,0,0,0,0,0,0,0,-1,1441,1793,22.4723,-8.79099
224,-769,22.1348,9.35278,0,0,0,0,0,0,0,-1,1448,1793,22.1348,-9.35283
231,-769,3.13318,19.7184,0,0,0,0,0,0,0,-1,1455,1793,3.13323,-19.7184
238,-769,5.74512,18.6597,0,0,0,0,0,0,0,-1,1462,1793,5.74512,-18.6596
245,-769,5.80798,22.87,0,0,0,0,0,0,0,-1,1469,1793,5.80796,-22.87
252,-769,8.39099,20.3199,0,0,0,0,0,0,0,-1,1476,1793,8.39098,-20.3199
259,-769,10.974,17.7698,0,0,0,0,0,0,0,-1,1483,1793,10.974,-17.7698
266,-769,15.8488,7.3905,0,0,0,0,0,0,0,-1,1490,1793,15.8488,-7.39046
273,-769,14.8075,7.56152,0,0,0,0,0,0,0,-1,1497,1793,14.8075,-7.56152
280,-769,13.6519,7.43054,0,0,0,0,0,0,0,-1,1504,1793,13.6518,-7.43058
287,-769,0,0,0,0,0,0,0,0,0,-1,1511,1793,0,0
294,-769,0,0,0,0,0,0,0,0,0,-1,1518,1793,0,0
301,-769,0,0,0,0,0,0,0,0,0,-1,1525,1793,0,0
308,-769,0,0,0,0,0,0,0,0,0,-1,1532,1793,0,0
315,-769,0,0,0,0,0,0,0,0,0,-1,1539,1793,0,0
322,-769,0,0,0,0,0,0,0,0,0,-1,1546,1793,0,0
329,-769,0,0,0,0,0,0,0,0,0,-1,1553,1793,0,0
336,-769,0,0,0,0,0,0,0,0,0,-1,1560,1793,0,0
343,-769,0,0,0,0,0,0,0,0,0,-1,1567,1793,0,0
350,-769,0,0,0,0,0,0,0,0,0,-1,1574,1793,0,0
357,-769,0,0,0,0,0,0,0,0,0,-1,1581,1793,0,0
364,-769,0,0,0,0,0,0,0,0,0,-1,1588,1793,0,0
371,-769,0,0,0,0,0,0,0,0,0,-1,1595,1793,0,0
378,-769,0,0,0,0,0,0,0,0,0,-1,1602,1793,0,0
385,-769,0,0,0,0,0,0,0,0,0,-1,1609,1793,0,0
392,-769,0,0,0,0,0,0,0,0,0,-1,1616,1793,0,0
399,-769,0,0,0,0,0,0,0,0,0,-1,1623,1793,0,0
406,-769,0,0,0,0,0,0,0,0,0,-1,1630,1793,0,0
413,-769,0,0,0,0,0,0,0,0,0,-1,1637,1793,0,0
420,-769,0,0,0,0,0,0,0,0,0,-1,1644,1793,0,0
427,-769,0,0,0,0,0,0,0,0,0,-1,1651,1793,0,0
434,-769,0,0,0,0,0,0,0,0,0,-1,1658,1793,0,0
441,-769,0,0,0,0,0,0,0,0,0,-1,1665,1793,0,0
448,-769,0,0,0,0,0,0,0,0,0,-1,1672,1793,0,0
455,-769,0,0,0,0,0,0,0,0,0,-1,1679,1793,0,0
462,-769,0,0,0,0,0,0,0,0,0,-1,1686,1793,0,0
469,-769,0,0,0,0,0,0,0,0,0,-1,1693,1793,0,0
476,-769,0,0,0,0,0,0,0,0,0,-1,1700,1793,0,0
483,-769,0,0,0,0,0,0,0,0,0,-1,1707,1793,0,0
490,-769,0,0,0,0,0,0,0,0,0,-1,1714,1793,0,0
497,-769,0,0,0,0,0,0,0,0,0,-1,1721,1793,0,0
504,-769,0,0,0,0,0,0,0,0,0,-1,1728,1793,0,0
511,-769,0,0,0,0,0,0,0,0,0,-1,1735,1793,0,0
518,-769,0,0,0,0,0,0,0,0,0,-1,1742,1793,0,0
525,-769,0,0,0,0,0,0,0,0,0,-1,1749,1793,0,0
532,-769,0,0,0,0,0,0,0,0,0,-1,1756,1793,0,0
539,-769,0,0,0,0,0,0,0,0,0,-1,1763,1793,0,0
546,-769,0,0,0,0,0,0,0,0,0,-1,1770,1793,0,0
553,-769,0,0,0,0,0,0,0,0,0,-1,1777,1793,0,0
560,-769,0,0,0,0,0,0,0,0,0,-1,1784,1793,0,0
567,-769,0,0,0,0,0,0,0,0,0,-1,1791,1793,0,0
574,-769,0,0,0,0,0,0,0,0,0,-1,1798,1793,0,0
581,-769,0,0,0,0,0,0,0,0,0,-1,1805,1793,0,0
588,-769,0,0,0,0,0,0,0,0,0,-1,1812,1793,0,0
595,-769,0,0,0,0,0,0,0,0,0,-1,1819,1793,0,0
602,-769,0,0,0,0,0,0,0,0,0,-1,1826,1793,0,0
609,-769,0,0,0,0,0,0,0,0,0,-1,1833,1793,0,0
616,-769,0,0,0,0,0,0,0,0,0,-1,1840,1793,0,0
623,-769,0,0,0,0,0,0,0,0,0,-1,1847,1793,0,0
630,-769,0,0,0,0,0,0,0,0,0,-1,1854,1793,0,0
637,-769,0,0,0,0,0,0,0,0,0,-1,1861,1793,0,0
644,-769,0,0,0,0,0,0,0,0,0,-1,1868,1793,0,0
651,-769,0,0,0,0,0,0,0,0,0,-1,1875,1793,0,0
658,-769,0,0,0,0,0,0,0,0,0,-1,1882,1793,0,0
665,-769,0,0,0,0,0,0,0,0,0,-1,1889,1793,0,0
672,-769,0,0,0,0,0,0,0,0,0,-1,1896,1793,0,0
679,-769,0,0,0,0,0,0,0,0,0,-1,1903,1793,0,0
686,-769,0,0,0,0,0,0,0,0,0,-1,1910,1793,0,0
693,-769,0,0,0,0,0,0,0,0,0,-1,1917,1793,0,0
700,-769,0,0,0,0,0,0,0,0,0,-1,1924,1793,0,0
707,-769,0,0,0,0,0,0,0,0,0,-1,1931,1793,0,0
714,-769,0,0,0,0,0,0,0,0,0,-1,1938,1793,0,0
721,-769,0,0,0,0,0,0,0,0,0,-1,1945,1793,0,0
728,-769,0,0,0,0,0,0,0,0,0,-1,1952,1793,0,0
735,-769,0,0,0,0,0,0,0,0,0,-1,1959,1793,0,0
742,-769,0,0,0,0,0,0,0,0,0,-1,1966,1793,0,0
749,-769,0,0,0,0,0,0,0,0,0,-1,1973,1793,0,0
756,-769,0,0,0,0,0,0,0,0,0,-1,1980,1793,0,0
763,-769,0,0,0,0,0,0,0,0,0,-1,1987,1793,0,0
770,-769,0,0,0,0,0,0,0,0,0,-1,1994,1793,0,0
777,-769,0,0,0,0,0,0,0,0,0,-1,2001,1793,0,0
784,-769,0,0,0,0,0,0,0,0,0,-1,2008,1793,0,0
791,-769,0,0,0,0,0,0,0,0,0,-1,2015,1793,0,0
798,-769,0,0,0,0,0,0,0,0,0,-1,2022,1793,0,0
805,-769,0,0,0,0,0,0,0,0,0,-1,2029,1793,0,0
812,-769,0,0,0,0,0,0,0,0,0,-1,2036,1793,0,0
-700,-776,0,0,0,0,0,0,0,0,0,-1,524,1800,0,0
-693,-776,0,0,0,0,0,0,0,0,0,-1,531,1800,0,0
-686,-776,0,0,0,0,0,0,0,0,0,-1,538,1800,0,0
-679,-776,0,0,0,0,0,0,0,0,0,-1,545,1800,0,0
-672,-776,0,0,0,0,0,0,0,0,0,-1,552,1800,0,0
-665,-776,0,0,0,0,0,0,0,0,0,-1,559,1800,0,0
-658,-776,0,0,0,0,0,0,0,0,0,-1,566,1800,0,0
-651,-776,0,0,0,0,0,0,0,0,0,-1,573,1800,0,0
-644,-776,0,0,0,0,0,0,0,0,0,-1,580,1800,0,0
-637,-776,0,0,0,0,0,0,0,0,0,-1,587,1800,0,0
-630,-776,0,0,0,0,0,0,0,0,0,-1,594,1800,0,0
-623,-776,0,0,0,0,0,0,0,0,0,-1,601,1800,0,0
-616,-776,0,0,0,0,0,0,0,0,0,-1,608,1800,0,0
-609,-776,0,0,0,0,0,0,0,0,0,-1,615,1800,0,0
-602,-776,0,0,0,0,0,0,0,0,0,-1,622,1800,0,0
-595,-776,0,0,0,0,0,0,0,0,0,-1,629,1800,0,0
-588,-776,0,0,0,0,0,0,0,0,0,-1,636,1800,0,0
-581,-776,0,0,0,0,0,0,0,0,0,-1,643,1800,0,0
-574,-776,0,0,0,0,0,0,0,0,0,-1,650,1800,0,0
-567,-776,0,0,0,0,0,0,0,0,0,-1,657,1800,0,0
-560,-776,0,0,0,0,0,0,0,0,0,-1,664,1800,0,0
-553,-776,0,0,0,0,0,0,0,0,0,-1,671,1800,0,0
-546,-776,0,0,0,0,0,0,0,0,0,-1,678,1800,0,0
-539,-776,0,0,0,0,0,0,0,0,0,-1,685,1800,0,0
-532,-776,0,0,0,0,0,0,0,0,0,-1,692,1800,0,0
-525,-776,0,0,0,0,0,0,0,0,0,-1,699,1800,0,0
-518,-776,0,0,0,0,0,0,0,0,0,-1,706,1800,0,0
-511,-776,0,0,0,0,0,0,0,0,0,-1,713,1800,0,0
-504,-776,0,0,0,0,0,0,0,0,0,-1,720,1800,0,0
-497,-776,0,0,0,0,0,0,0,0,0,-1,727,1800,0,0
-490,-776,0,0,0,0,0,0,0,0,0,-1,734,1800,0,0
-483,-776,0,0,0,0,0,0,0,0,0,-1,741,1800,0,0
-476,-776,0,0,0,0,0,0,0,0,0,-1,748,1800,0,0
-469,-776,0,0,0,0,0,0,0,0,0,-1,755,1800,0,0
-462,-776,0,0,0,0,0,0,0,0,0,-1,762,1800,0,0
-455,-776,0,0,0,0,0,0,0,0,0,-1,769,1800,0,0
-448,-776,0,0,0,0,0,0,0,0,0,-1,776,1800,0,0
-441,-776,0,0,0,0,0,0,0,0,0,-1,783,1800,0,0
-434,-776,0,0,0,0,0,0,0,0,0,-1,790,1800,0,0
-427,-776,0,0,0,0,0,0,0,0,0,-1,797,1800,0,0
-420,-776,0,0,0,0,0,0,0,0,0,-1,804,1800,0,0
-413,-776,0,0,0,0,0,0,0,0,0,-1,811,1800,0,0
-406,-776,0,0,0,0,0,0,0,0,0,-1,818,1800,0,0
-399,-776,0,0,0,0,0,0,0,0,0,-1,825,1800,0,0
-392,-776,0,0,0,0,0,0,0,0,0,-1,832,1800,0,0
-385,-776,0,0,0,0,0,0,0,0,0,-1,839,1800,0,0
-378,-776,0,0,0,0,0,0,0,0,0,-1,846,1800,0,0
-371,-776,0,0,0,0,0,0,0,0,0,-1,853,1800,0,0
-364,-776,0,0,0,0,0,0,0,0,0,-1,860,1800,0,0
-357,-776,0,0,0,0,0,0,0,0,0,-1,867,1800,0,0
-350,-776,0,0,0,0,0,0,0,0,0,-1,874,1800,0,0
-343,-776,0,0,0,0,0,0,0,0,0,-1,881,1800,0,0
-336,-776,0,0,0,0,0,0,0,0,0,-1,888,1800,0,0
-329,-776,0,0,0,0,0,0,0,0,0,-1,895,1800,0,0
-322,-776,0,0,0,0,0,0,0,0,0,-1,902,1800,0,0
-315,-776,0,0,0,0,0,0,0,0,0,-1,909,1800,0,0
-308,-776,0,0,0,0,0,0,0,0,0,-1,916,1800,0,0
-301,-776,0,0,0,0,0,0,0,0,0,-1,923,1800,0,0
-294,-776,0,0,0,0,0,0,0,0,0,-1,930,1800,0,0
-287,-776,0,0,0,0,0,0,0,0,0,-1,937,1800,0,0
-280,-776,0,0,0,0,0,0,0,0,0,-1,944,1800,0,0
-273,-776,0,0,0,0,0,0,0,0,0,-1,951,1800,0,0
-266,-776,0,0,0,0,0,0,0,0,0,-1,958,1800,0,0
-259,-776,0,0,0,0,0,0,0,0,0,-1,965,1800,0,0
-252,-776,0,0,0,0,0,0,0,0,0,-1,972,1800,0,0
-245,-776,0,0,0,0,0,0,0,0,0,-1,979,1800,0,0
-238,-776,0,0,0,0,0,0,0,0,0,-1,986,1800,0,0
-231,-776,0,0,0,0,0,0,0,0,0,-1,993,1800,0,0
-224,-776,0,0,0,0,0,0,0,0,0,-1,1000,1800,0,0
-217,-776,0,0,0,0,0,0,0,0,0,-1,1007,1800,0,0
-210,-776,0,0,0,0,0,0,0,0,0,-1,1014,1800,0,0
-203,-776,0,0,0,0,0,0,0,0,0,-1,1021,1800,0,0
-196,-776,0,0,0,0,0,0,0,0,0,-1,1028,1800,0,0
-189,-776,0,0,0,0,0,0,0,0,0,-1,1035,1800,0,0
-182,-776,0,0,0,0,0,0,0,0,0,-1,1042,1800,0,0
-175,-776,0,0,0,0,0,0,0,0,0,-1,1049,1800,0,0
-168,-776,0,0,0,0,0,0,0,0,0,-1,1056,1800,0,0
-161,-776,0,0,0,0,0,0,0,0,0,-1,1063,1800,0,0
-154,-776,0,0,0,0,0,0,0,0,0,-1,1070,1800,0,0
-147,-776,0,0,0,0,0,0,0,0,0,-1,1077,1800,0,0
-140,-776,2.98499,5.20911,0,0,0,0,0,0,0,-1,1084,1800,2.98493,-5.2091
-133,-776,6.72363,9.35828,0,0,0,0,0,0,0,-1,1091,1800,6.72358,-9.35824
-126,-776,6.55029,13.7832,0,0,0,0,0,0,0,-1,1098,1800,6.55029,-13.7832
-119,-776,5.72107,13.7787,0,0,0,0,0,0,0,-1,1105,1800,5.72106,-13.7787
-112,-776,6.84998,20.4421,0,0,0,0,0,0,0,-1,1112,1800,6.84993,-20.4421
-105,-776,4.46863,24.6742,0,0,0,0,0,0,0,-1,1119,1800,4.46868,-24.6742
-98,-776,3.99658,20.5574,0,0,0,0,0,0,0,-1,1126,1800,3.99662,-20.5574
-91,-776,3.30225,18.134,0,0,0,0,0,0,0,-1,1133,1800,3.30222,-18.134
-84,-776,2.67932,14.3162,0,0,0,0,0,0,0,-1,1140,1800,2.67926,-14.3161
-77,-776,0.580078,11.1272,0,0,0,0,0,0,0,-1,1147,1800,0.58002,-11.1272
-70,-776,-0.562866,12.3163,0,0,0,0,0,0,0,-1,1154,1800,-0.562897,-12.3163
-63,-776,-3.96106,9.97656,0,0,0,0,0,0,0,-1,1161,1800,-3.961,-9.97654
-56,-776,-7.35913,7.63672,0,0,0,0,0,0,0,-1,1168,1800,-7.3591,-7.63676
-49,-776,-7.62952,3.1908,0,0,0,0,0,0,0,-1,1175,1800,-7.62955,-3.19076
-42,-776,-3.41272,3.0249,0,0,0,0,0,0,0,-1,1182,1800,-3.41269,-3.02488
-35,-776,-3.71753,1.63635,0,0,0,0,0,0,0,-1,1189,1800,-3.71755,-1.63631
-28,-776,-4.03979,0.716064,0,0,0,0,0,0,0,-1,1196,1800,-4.03977,-0.716055
-21,-776,3.09473,39.1016,0,0,0,0,0,0,0,-1,1203,1800,3.09474,-39.1015
-14,-776,3.87598,38.4272,0,0,0,0,0,0,0,-1,1210,1800,3.87594,-38.4272
-7,-776,8.08972,32.4189,0,0,0,0,0,0,0,-1,1217,1800,8.08978,-32.419
0,-776,8.07568,32.8873,0,0,0,0,0,0,0,-1,1224,1800,8.07573,-32.8873
7,-776,7.8833,34.9963,0,0,0,0,0,0,0,-1,1231,1800,7.88328,-34.9964
14,-776,8.23718,34.6556,0,0,0,0,0,0,0,-1,1238,1800,8.23715,-34.6556
21,-776,8.64355,34.1715,0,0,0,0,0,0,0,-1,1245,1800,8.64352,-34.1715
28,-776,8.42358,34.2417,0,0,0,0,0,0,0,-1,1252,1800,8.42364,-34.2417
35,-776,8.20374,34.3119,0,0,0,0,0,0,0,-1,1259,1800,8.20376,-34.3119
42,-776,7.64783,35.489,0.000435514,0.00898727,0.00728003,0.0131543,-0.00373147,1.05093,0.0102425,0.0425174,1266,1800,7.64788,-35.4891
49,-776,7.26514,35.6515,0.00365864,0.00395107,0.00962168,0.0134276,-0.00581793,0.792996,0.0113973,0.0435464,1273,1800,7.26513,-35.6515
56,-776,7.09241,35.6522,0.00621032,-0.00111803,0.0107828,0.0139345,-0.00884224,0.621611,0.0132593,0.0446927,1280,1800,7.09236,-35.6522
63,-776,7.1759,34.7482,0,0,0,0,0,0,0,-1,1287,1800,7.17594,-34.7481
70,-776,7.42554,34.3165,0,0,0,0,0,0,0,-1,1294,1800,7.42556,-34.3165
77,-776,7.67175,34.175,0,0,0,0,0,0,0,-1,1301,1800,7.67178,-34.175
84,-776,7.71912,35.7883,0,0,0,0,0,0,0,-1,1308,1800,7.71917,-35.7883
91,-776,7.64246,35.6716,0.0035968,-0.0268266,0.0124552,0.00804538,-0.0312752,0.343046,0.023986,0.0447361,1315,1800,7.64242,-35.6716
98,-776,7.58911,35.5986,-0.00115854,-0.0314357,0.01273,0.00348239,-0.0360767,0.349593,0.0252919,0.0435847,1322,1800,7.5891,-35.5987
105,-776,6.96802,35.3546,-0.00589974,-0.0358297,0.0145991,4.18089e-05,-0.0417713,0.386511,0.0278614,0.0451259,1329,1800,6.96805,-35.3546
112,-776,7.1637,35.3215,-0.0100948,-0.0402169,0.0172826,-0.00223151,-0.0480801,0.426988,0.0313361,0.0477571,1336,1800,7.16373,-35.3215
119,-776,7.14343,35.3701,-0.0140208,-0.0435885,0.0194675,-0.0043599,-0.0532495,0.460649,0.0341393,0.0463207,1343,1800,7.14343,-35.3702
126,-776,7.04919,35.7654,-0.0175856,-0.0468152,0.0216574,-0.00607313,-0.0583277,0.488586,0.0370272,0.0457751,1350,1800,7.04922,-35.7654
133,-776,6.68079,36.1538,-0.0200969,-0.0494286,0.0238623,-0.00675393,-0.0627716,0.509854,0.039788,0.0488178,1357,1800,6.68076,-36.1539
140,-776,6.48035,36.4244,-0.0216114,-0.0518187,0.0258099,-0.00681071,-0.0666194,0.520669,0.0423257,0.0495415,1364,1800,6.48033,-36.4244
147,-776,6.18823,36.438,0,0,0,0,0,0,0,-1,1371,1800,6.18828,-36.438
154,-776,38.4338,21.854,0,0,0,0,0,0,0,-1,1378,1800,38.4339,-21.854
161,-776,6.50293,1.1731,0,0,0,0,0,0,0,-1,1385,1800,6.5029,-1.17313
168,-776,8.44971,1.22913,0,0,0,0,0,0,0,-1,1392,1800,8.44974,-1.22915
175,-776,8.61523,2.87061,0,0,0,0,0,0,0,-1,1399,1800,8.6152,-2.87063
182,-776,8.54065,4.60645,0,0,0,0,0,0,0,-1,1406,1800,8.5407,-4.60643
189,-776,8.35303,6.28223,0,0,0,0,0,0,0,-1,1413,1800,8.35297,-6.28225
196,-776,8.0387,8.21704,0,0,0,0,0,0,0,-1,1420,1800,8.03865,-8.217
203,-776,7.91736,9.79919,0,0,0,0,0,0,0,-1,1427,1800,7.91735,-9.79922
210,-776,20.2479,7.85718,0,0,0,0,0,0,0,-1,1434,1800,20.248,-7.85719
217,-776,21.5171,9.3418,0,0,0,0,0,0,0,-1,1441,1800,21.5171,-9.34182
224,-776,3.09253,14.9313,0,0,0,0,0,0,0,-1,1448,1800,3.09254,-14.9313
231,-776,20.8671,9.21057,0,0,0,0,0,0,0,-1,1455,1800,20.867,-9.21054
238,-776,20.7511,9.05847,0,0,0,0,0,0,0,-1,1462,1800,20.7511,-9.05848
245,-776,3.80823,15.4108,0,0,0,0,0,0,0,-1,1469,1800,3.80826,-15.4108
252,-776,8.57837,20.2009,0,0,0,0,0,0,0,-1,1476,1800,8.57841,-20.2009
259,-776,14.1882,7.69055,0,0,0,0,0,0,0,-1,1483,1800,14.1882,-7.69061
266,-776,0,0,0,0,0,0,0,0,0,-1,1490,1800,0,0
273,-776,0,0,0,0,0,0,0,0,0,-1,1497,1800,0,0
280,-776,0,0,0,0,0,0,0,0,0,-1,1504,1800,0,0
287,-776,0,0,0,0,0,0,0,0,0,-1,1511,1800,0,0
294,-776,0,0,0,0,0,0,0,0,0,-1,1518,1800,0,0
301,-776,0,0,0,0,0,0,0,0,0,-1,1525,1800,0,0
308,-776,0,0,0,0,0,0,0,0,0,-1,1532,1800,0,0
315,-776,0,0,0,0,0,0,0,0,0,-1,1539,1800,0,0
322,-776,0,0,0,0,0,0,0,0,0,-1,1546,1800,0,0
329,-776,0,0,0,0,0,0,0,0,0,-1,1553,1800,0,0
336,-776,0,0,0,0,0,0,0,0,0,-1,1560,1800,0,0
343,-776,0,0,0,0,0,0,0,0,0,-1,1567,1800,0,0
350,-776,0,0,0,0,0,0,0,0,0,-1,1574,1800,0,0
357,-776,0,0,0,0,0,0,0,0,0,-1,1581,1800,0,0
364,-776,0,0,0,0,0,0,0,0,0,-1,1588,1800,0,0
371,-776,0,0,0,0,0,0,0,0,0,-1,1595,1800,0,0
378,-776,0,0,0,0,0,0,0,0,0,-1,1602,1800,0,0
385,-776,0,0,0,0,0,0,0,0,0,-1,1609,1800,0,0
392,-776,0,0,0,0,0,0,0,0,0,-1,1616,1800,0,0
399,-776,0,0,0,0,0,0,0,0,0,-1,1623,1800,0,0
406,-776,0,0,0,0,0,0,0,0,0,-1,1630,1800,0,0
413,-776,0,0,0,0,0,0,0,0,0,-1,1637,1800,0,0
420,-776,0,0,0,0,0,0,0,0,0,-1,1644,1800,0,0
427,-776,0,0,0,0,0,0,0,0,0,-1,1651,1800,0,0
434,-776,0,0,0,0,0,0,0,0,0,-1,1658,1800,0,0
441,-776,0,0,0,0,0,0,0,0,0,-1,1665,1800,0,0
448,-776,0,0,0,0,0,0,0,0,0,-1,1672,1800,0,0
455,-776,0,0,0,0,0,0,0,0,0,-1,1679,1800,0,0
462,-776,0,0,0,0,0,0,0,0,0,-1,1686,1800,0,0
469,-776,0,0,0,0,0,0,0,0,0,-1,1693,1800,0,0
476,-776,0,0,0,0,0,0,0,0,0,-1,1700,1800,0,0
483,-776,0,0,0,0,0,0,0,0,0,-1,1707,1800,0,0
490,-776,0,0,0,0,0,0,0,0,0,-1,1714,1800,0,0
497,-776,0,0,0,0,0,0,0,0,0,-1,1721,1800,0,0
504,-776,0,0,0,0,0,0,0,0,0,-1,1728,1800,0,0
511,-776,0,0,0,0,0,0,0,0,0,-1,1735,1800,0,0
518,-776,0,0,0,0,0,0,0,0,0,-1,1742,1800,0,0
525,-776,0,0,0,0,0,0,0,0,0,-1,1749,1800,0,0
532,-776,0,0,0,0,0,0,0,0,0,-1,1756,1800,0,0
539,-776,0,0,0,0,0,0,0,0,0,-1,1763,1800,0,0
546,-776,0,0,0,0,0,0,0,0,0,-1,1770,1800,0,0
553,-776,0,0,0,0,0,0,0,0,0,-1,1777,1800,0,0
560,-776,0,0,0,0,0,0,0,0,0,-1,1784,1800,0,0
567,-776,0,0,0,0,0,0,0,0,0,-1,1791,1800,0,0
574,-776,0,0,0,0,0,0,0,0,0,-1,1798,1800,0,0
581,-776,0,0,0,0,0,0,0,0,0,-1,1805,1800,0,0
588,-776,0,0,0,0,0,0,0,0,0,-1,1812,1800,0,0
595,-776,0,0,0,0,0,0,0,0,0,-1,1819,1800,0,0
602,-776,0,0,0,0,0,0,0,0,0,-1,1826,1800,0,0
609,-776,0,0,0,0,0,0,0,0,0,-1,1833,1800,0,0
616,-776,0,0,0,0,0,0,0,0,0,-1,1840,1800,0,0
623,-776,0,0,0,0,0,0,0,0,0,-1,1847,1800,0,0
630,-776,0,0,0,0,0,0,0,0,0,-1,1854,1800,0,0
637,-776,0,0,0,0,0,0,0,0,0,-1,1861,1800,0,0
644,-776,0,0,0,0,0,0,0,0,0,-1,1868,1800,0,0
651,-776,0,0,0,0,0,0,0,0,0,-1,1875,1800,0,0
658,-776,0,0,0,0,0,0,0,0,0,-1,1882,1800,0,0
665,-776,0,0,0,0,0,0,0,0,0,-1,1889,1800,0,0
672,-776,0,0,0,0,0,0,0,0,0,-1,1896,1800,0,0
679,-776,0,0,0,0,0,0,0,0,0,-1,1903,1800,0,0
686,-776,0,0,0,0,0,0,0,0,0,-1,1910,1800,0,0
693,-776,0,0,0,0,0,0,0,0,0,-1,1917,1800,0,0
700,-776,0,0,0,0,0,0,0,0,0,-1,1924,1800,0,0
707,-776,0,0,0,0,0,0,0,0,0,-1,1931,1800,0,0
714,-776,0,0,0,0,0,0,0,0,0,-1,1938,1800,0,0
721,-776,0,0,0,0,0,0,0,0,0,-1,1945,1800,0,0
728,-776,0,0,0,0,0,0,0,0,0,-1,1952,1800,0,0
735,-776,0,0,0,0,0,0,0,0,0,-1,1959,1800,0,0
742,-776,0,0,0,0,0,0,0,0,0,-1,1966,1800,0,0
749,-776,0,0,0,0,0,0,0,0,0,-1,1973,1800,0,0
756,-776,0,0,0,0,0,0,0,0,0,-1,1980,1800,0,0
763,-776,0,0,0,0,0,0,0,0,0,-1,1987,1800,0,0
770,-776,0,0,0,0,0,0,0,0,0,-1,1994,1800,0,0
777,-776,0,0,0,0,0,0,0,0,0,-1,2001,1800,0,0
784,-776,0,0,0,0,0,0,0,0,0,-1,2008,1800,0,0
791,-776,0,0,0,0,0,0,0,0,0,-1,2015,1800,0,0
798,-776,0,0,0,0,0,0,0,0,0,-1,2022,1800,0,0
805,-776,0,0,0,0,0,0,0,0,0,-1,2029,1800,0,0
812,-776,0,0,0,0,0,0,0,0,0,-1,2036,1800,0,0
-700,-783,0,0,0,0,0,0,0,0,0,-1,524,1807,0,0
-693,-783,0,0,0,0,0,0,0,0,0,-1,531,1807,0,0
-686,-783,0,0,0,0,0,0,0,0,0,-1,538,1807,0,0
-679,-783,0,0,0,0,0,0,0,0,0,-1,545,1807,0,0
-672,-783,0,0,0,0,0,0,0,0,0,-1,552,1807,0,0
-665,-783,0,0,0,0,0,0,0,0,0,-1,559,1807,0,0
-658,-783,0,0,0,0,0,0,0,0,0,-1,566,1807,0,0
-651,-783,0,0,0,0,0,0,0,0,0,-1,573,1807,0,0
-644,-783,0,0,0,0,0,0,0,0,0,-1,580,1807,0,0
-637,-783,0,0,0,0,0,0,0,0,0,-1,587,1807,0,0
-630,-783,0,0,0,0,0,0,0,0,0,-1,594,1807,0,0
-623,-783,0,0,0,0,0,0,0,0,0,-1,601,1807,0,0
-616,-783,0,0,0,0,0,0,0,0,0,-1,608,1807,0,0
-609,-783,0,0,0,0,0,0,0,0,0,-1,615,1807,0,0
-602,-783,0,0,0,0,0,0,0,0,0,-1,622,1807,0,0
-595,-783,0,0,0,0,0,0,0,0,0,-1,629,1807,0,0
-588,-783,0,0,0,0,0,0,0,0,0,-1,636,1807,0,0
-581,-783,0,0,0,0,0,0,0,0,0,-1,643,1807,0,0
-574,-783,0,0,0,0,0,0,0,0,0,-1,650,1807,0,0
-567,-783,0,0,0,0,0,0,0,0,0,-1,657,1807,0,0
-560,-783,0,0,0,0,0,0,0,0,0,-1,664,1807,0,0
-553,-783,0,0,0,0,0,0,0,0,0,-1,671,1807,0,0
-546,-783,0,0,0,0,0,0,0,0,0,-1,678,1807,0,0
-539,-783,0,0,0,0,0,0,0,0,0,-1,685,1807,0,0
-532,-783,0,0,0,0,0,0,0,0,0,-1,692,1807,0,0
-525,-783,0,0,0,0,0,0,0,0,0,-1,699,1807,0,0
-518,-783,0,0,0,0,0,0,0,0,0,-1,706,1807,0,0
-511,-783,0,0,0,0,0,0,0,0,0,-1,713,1807,0,0
-504,-783,0,0,0,0,0,0,0,0,0,-1,720,1807,0,0
-497,-783,0,0,0,0,0,0,0,0,0,-1,727,1807,0,0
-490,-783,0,0,0,0,0,0,0,0,0,-1,734,1807,0,0
-483,-783,0,0,0,0,0,0,0,0,0,-1,741,1807,0,0
-476,-783,0,0,0,0,0,0,0,0,0,-1,748,1807,0,0
-469,-783,0,0,0,0,0,0,0,0,0,-1,755,1807,0,0
-462,-783,0,0,0,0,0,0,0,0,0,-1,762,1807,0,0
-455,-783,0,0,0,0,0,0,0,0,0,-1,769,1807,0,0
-448,-783,0,0,0,0,0,0,0,0,0,-1,776,1807,0,0
-441,-783,0,0,0,0,0,0,0,0,0,-1,783,1807,0,0
-434,-783,0,0,0,0,0,0,0,0,0,-1,790,1807,0,0
-427,-783,0,0,0,0,0,0,0,0,0,-1,797,1807,0,0
-420,-783,0,0,0,0,0,0,0,0,0,-1,804,1807,0,0
-413,-783,0,0,0,0,0,0,0,0,0,-1,811,1807,0,0
-406,-783,0,0,0,0,0,0,0,0,0,-1,818,1807,0,0
-399,-783,0,0,0,0,0,0,0,0,0,-1,825,1807,0,0
-392,-783,0,0,0,0,0,0,0,0,0,-1,832,1807,0,0
-385,-783,0,0,0,0,0,0,0,0,0,-1,839,1807,0,0
-378,-783,0,0,0,0,0,0,0,0,0,-1,846,1807,0,0
-371,-783,0,0,0,0,0,0,0,0,0,-1,853,1807,0,0
-364,-783,0,0,0,0,0,0,0,0,0,-1,860,1807,0,0
-357,-783,0,0,0,0,0,0,0,0,0,-1,867,1807,0,0
-350,-783,0,0,0,0,0,0,0,0,0,-1,874,1807,0,0
-343,-783,0,0,0,0,0,0,0,0,0,-1,881,1807,0,0
-336,-783,0,0,0,0,0,0,0,0,0,-1,888,1807,0,0
-329,-783,0,0,0,0,0,0,0,0,0,-1,895,1807,0,0
-322,-783,0,0,0,0,0,0,0,0,0,-1,902,1807,0,0
-315,-783,0,0,0,0,0,0,0,0,0,-1,909,1807,0,0
-308,-783,0,0,0,0,0,0,0,0,0,-1,916,1807,0,0
-301,-783,0,0,0,0,0,0,0,0,0,-1,923,1807,0,0
-294,-783,0,0,0,0,0,0,0,0,0,-1,930,1807,0,0
-287,-783,0,0,0,0,0,0,0,0,0,-1,937,1807,0,0
-280,-783,0,0,0,0,0,0,0,0,0,-1,944,1807,0,0
-273,-783,0,0,0,0,0,0,0,0,0,-1,951,1807,0,0
-266,-783,0,0,0,0,0,0,0,0,0,-1,958,1807,0,0
-259,-783,0,0,0,0,0,0,0,0,0,-1,965,1807,0,0
-252,-783,0,0,0,0,0,0,0,0,0,-1,972,1807,0,0
-245,-783,0,0,0,0,0,0,0,0,0,-1,979,1807,0,0
-238,-783,0,0,0,0,0,0,0,0,0,-1,986,1807,0,0
-231,-783,0,0,0,0,0,0,0,0,0,-1,993,1807,0,0
-224,-783,0,0,0,0,0,0,0,0,0,-1,1000,1807,0,0
-217,-783,0,0,0,0,0,0,0,0,0,-1,1007,1807,0,0
-210,-783,0,0,0,0,0,0,0,0,0,-1,1014,1807,0,0
-203,-783,0,0,0,0,0,0,0,0,0,-1,1021,1807,0,0
-196,-783,0,0,0,0,0,0,0,0,0,-1,1028,1807,0,0
-189,-783,0,0,0,0,0,0,0,0,0,-1,1035,1807,0,0
-182,-783,0,0,0,0,0,0,0,0,0,-1,1042,1807,0,0
-175,-783,0,0,0,0,0,0,0,0,0,-1,1049,1807,0,0
-168,-783,0,0,0,0,0,0,0,0,0,-1,1056,1807,0,0
-161,-783,0,0,0,0,0,0,0,0,0,-1,1063,1807,0,0
-154,-783,0,0,0,0,0,0,0,0,0,-1,1070,1807,0,0
-147,-783,0,0,0,0,0,0,0,0,0,-1,1077,1807,0,0
-140,-783,0,0,0,0,0,0,0,0,0,-1,1084,1807,0,0
-133,-783,0,0,0,0,0,0,0,0,0,-1,1091,1807,0,0
-126,-783,0,0,0,0,0,0,0,0,0,-1,1098,1807,0,0
-119,-783,0,0,0,0,0,0,0,0,0,-1,1105,1807,0,0
-112,-783,5.33936,14.7699,0,0,0,0,0,0,0,-1,1112,1807,5.33931,-14.7699
-105,-783,6.44263,21.2224,0,0,0,0,0,0,0,-1,1119,1807,6.44263,-21.2224
-98,-783,5.54773,20.5695,0,0,0,0,0,0,0,-1,1126,1807,5.54772,-20.5695
-91,-783,2.6106,20.2491,0,0,0,0,0,0,0,-1,1133,1807,2.61056,-20.2492
-84,-783,-0.0491943,14.5743,0,0,0,0,0,0,0,-1,1140,1807,-0.0491562,-14.5743
-77,-783,0.332764,12.7788,0,0,0,0,0,0,0,-1,1147,1807,0.332743,-12.7788
-70,-783,-1.93176,5.12817,0,0,0,0,0,0,0,-1,1154,1807,-1.93171,-5.12813
-63,-783,-5.31702,10.54,0,0,0,0,0,0,0,-1,1161,1807,-5.31703,-10.54
-56,-783,-6.26135,6.9679,0,0,0,0,0,0,0,-1,1168,1807,-6.26136,-6.96785
-49,-783,-3.17688,4.59705,0,0,0,0,0,0,0,-1,1175,1807,-3.17685,-4.5971
-42,-783,-3.72876,3.1405,0,0,0,0,0,0,0,-1,1182,1807,-3.72874,-3.14055
-35,-783,-3.97046,1.59399,0,0,0,0,0,0,0,-1,1189,1807,-3.97041,-1.59401
-28,-783,-4.12195,0.270386,0,0,0,0,0,0,0,-1,1196,1807,-4.12197,-0.270408
-21,-783,2.88953,39.3629,0,0,0,0,0,0,0,-1,1203,1807,2.88947,-39.363
-14,-783,9.44006,31.5226,0,0,0,0,0,0,0,-1,1210,1807,9.44002,-31.5226
-7,-783,9.47278,31.9089,-0.0233057,0.0507016,-0.047395,0.0738274,-0.0464316,-1.11684,0.0700295,0.0475408,1217,1807,9.47281,-31.9089
0,-783,9.51196,32.3468,-0.0249721,0.045149,-0.0367222,0.0608601,-0.0406832,-1.16653,0.0590106,0.0453697,1224,1807,9.51194,-32.3468
7,-783,9.61816,32.7279,-0.0245144,0.0388741,-0.0256121,0.0479292,-0.0335695,-1.23097,0.0472961,0.0467714,1231,1807,9.61821,-32.728
14,-783,9.61902,33.0289,-0.0223617,0.0328622,-0.0157716,0.037049,-0.0265486,-1.31131,0.0368846,0.0494528,1238,1807,9.61904,-33.0289
21,-783,9.27795,33.4236,0,0,0,0,0,0,0,-1,1245,1807,9.27801,-33.4236
28,-783,8.96069,33.7416,0,0,0,0,0,0,0,-1,1252,1807,8.96072,-33.7415
35,-783,8.64343,34.0594,0,0,0,0,0,0,0,-1,1259,1807,8.64342,-34.0595
42,-783,4.99609,32.8663,0.000525619,0.00695733,0.00913497,0.013426,-0.00594301,0.954643,0.0114575,0.0439419,1266,1807,4.99614,-32.8664
49,-783,6.91077,35.7021,0.00519947,0.000657242,0.0121269,0.0152661,-0.00940942,0.692831,0.0143796,0.0476887,1273,1807,6.91074,-35.7022
56,-783,6.6499,33.0216,0.00903574,-0.0055355,0.0136752,0.017245,-0.0137447,0.540642,0.0179299,0.0458968,1280,1807,6.64988,-33.0216
63,-783,6.97314,34.092,0,0,0,0,0,0,0,-1,1287,1807,6.9731,-34.0921
70,-783,7.33435,33.9283,0.0131873,-0.0182561,0.0153121,0.0194117,-0.0244805,0.386101,0.0253975,0.0465846,1294,1807,7.3344,-33.9283
77,-783,7.72937,33.6829,0.0120847,-0.0243139,0.0161473,0.0182155,-0.0304447,0.362863,0.0283881,0.049271,1301,1807,7.72939,-33.6828
84,-783,8.01062,33.3119,0,0,0,0,0,0,0,-1,1308,1807,8.01062,-33.3119
91,-783,7.66809,35.4696,0.00735832,-0.035214,0.0165899,0.0130596,-0.0409153,0.331019,0.0325164,0.0438414,1315,1807,7.66812,-35.4696
98,-783,7.1394,35.1414,0.00145262,-0.0403623,0.0172392,0.00764335,-0.046553,0.344765,0.0338718,0.0434684,1322,1807,7.13939,-35.1414
105,-783,7.08484,35.3491,-0.00461449,-0.0456234,0.0196271,0.00326513,-0.0535031,0.38177,0.0368054,0.046641,1329,1807,7.08479,-35.3491
112,-783,7.38525,35.4318,-0.0101313,-0.0507807,0.0228092,9.48329e-05,-0.0610068,0.421468,0.0407029,0.0451978,1336,1807,7.38523,-35.4318
119,-783,7.32446,35.6259,-0.0152911,-0.0549124,0.0253741,-0.00290995,-0.0672935,0.453954,0.0439245,0.0439775,1343,1807,7.32442,-35.6258
126,-783,7.11707,35.7589,-0.0199288,-0.0587891,0.0278808,-0.00537555,-0.0733423,0.481077,0.0472052,0.0491755,1350,1807,7.11701,-35.7589
133,-783,6.65808,36.8105,-0.0230687,-0.0619933,0.0304221,-0.00641611,-0.0786459,0.500833,0.0504281,0.0490351,1357,1807,6.65809,-36.8106
140,-783,6.48169,37.1166,-0.0249096,-0.0649043,0.0326993,-0.00657758,-0.0832363,0.510963,0.0534335,0.0476923,1364,1807,6.48172,-37.1166
147,-783,6.06201,37.2321,0,0,0,0,0,0,0,-1,1371,1807,6.06205,-37.2321
154,-783,38.2109,17.545,0,0,0,0,0,0,0,-1,1378,1807,38.2109,-17.545
161,-783,39.5087,17.5449,0,0,0,0,0,0,0,-1,1385,1807,39.5087,-17.545
168,-783,8.62561,1.79944,0,0,0,0,0,0,0,-1,1392,1807,8.62561,-1.79946
175,-783,8.78699,3.40857,0,0,0,0,0,0,0,-1,1399,1807,8.78697,-3.40854
182,-783,8.70984,5.14661,0,0,0,0,0,0,0,-1,1406,1807,8.70989,-5.14666
189,-783,8.55762,6.79871,0,0,0,0,0,0,0,-1,1413,1807,8.55766,-6.79872
196,-783,8.25488,8.66626,0,0,0,0,0,0,0,-1,1420,1807,8.25492,-8.66628
203,-783,7.86755,10.5735,0,0,0,0,0,0,0,-1,1427,1807,7.8676,-10.5734
210,-783,5.6969,8.99231,0,0,0,0,0,0,0,-1,1434,1807,5.69693,-8.99234
217,-783,5.28503,3.80872,0,0,0,0,0,0,0,-1,1441,1807,5.285,-3.80868
224,-783,3.22571,6.62903,0,0,0,0,0,0,0,-1,1448,1807,3.2257,-6.62907
231,-783,4.27942,4.56262,0,0,0,0,0,0,0,-1,1455,1807,4.27948,-4.56267
238,-783,0,0,0,0,0,0,0,0,0,-1,1462,1807,0,0
245,-783,0,0,0,0,0,0,0,0,0,-1,1469,1807,0,0
252,-783,0,0,0,0,0,0,0,0,0,-1,1476,1807,0,0
259,-783,0,0,0,0,0,0,0,0,0,-1,1483,1807,0,0
266,-783,0,0,0,0,0,0,0,0,0,-1,1490,1807,0,0
273,-783,0,0,0,0,0,0,0,0,0,-1,1497,1807,0,0
280,-783,0,0,0,0,0,0,0,0,0,-1,1504,1807,0,0
287,-783,0,0,0,0,0,0,0,0,0,-1,1511,1807,0,0
294,-783,0,0,0,0,0,0,0,0,0,-1,1518,1807,0,0
301,-783,0,0,0,0,0,0,0,0,0,-1,1525,1807,0,0
308,-783,0,0,0,0,0,0,0,0,0,-1,1532,1807,0,0
315,-783,0,0,0,0,0,0,0,0,0,-1,1539,1807,0,0
322,-783,0,0,0,0,0,0,0,0,0,-1,1546,1807,0,0
329,-783,0,0,0,0,0,0,0,0,0,-1,1553,1807,0,0
336,-783,0,0,0,0,0,0,0,0,0,-1,1560,1807,0,0
343,-783,0,0,0,0,0,0,0,0,0,-1,1567,1807,0,0
350,-783,0,0,0,0,0,0,0,0,0,-1,1574,1807,0,0
357,-783,0,0,0,0,0,0,0,0,0,-1,1581,1807,0,0
364,-783,0,0,0,0,0,0,0,0,0,-1,1588,1807,0,0
371,-783,0,0,0,0,0,0,0,0,0,-1,1595,1807,0,0
378,-783,0,0,0,0,0,0,0,0,0,-1,1602,1807,0,0
385,-783,0,0,0,0,0,0,0,0,0,-1,1609,1807,0,0
392,-783,0,0,0,0,0,0,0,0,0,-1,1616,1807,0,0
399,-783,0,0,0,0,0,0,0,0,0,-1,1623,1807,0,0
406,-783,0,0,0,0,0,0,0,0,0,-1,1630,1807,0,0
413,-783,0,0,0,0,0,0,0,0,0,-1,1637,1807,0,0
420,-783,0,0,0,0,0,0,0,0,0,-1,1644,1807,0,0
427,-783,0,0,0,0,0,0,0,0,0,-1,1651,1807,0,0
434,-783,0,0,0,0,0,0,0,0,0,-1,1658,1807,0,0
441,-783,0,0,0,0,0,0,0,0,0,-1,1665,1807,0,0
448,-783,0,0,0,0,0,0,0,0,0,-1,1672,1807,0,0
455,-783,0,0,0,0,0,0,0,0,0,-1,1679,1807,0,0
462,-783,0,0,0,0,0,0,0,0,0,-1,1686,1807,0,0
469,-783,0,0,0,0,0,0,0,0,0,-1,1693,1807,0,0
476,-783,0,0,0,0,0,0,0,0,0,-1,1700,1807,0,0
483,-783,0,0,0,0,0,0,0,0,0,-1,1707,1807,0,0
490,-783,0,0,0,0,0,0,0,0,0,-1,1714,1807,0,0
497,-783,0,0,0,0,0,0,0,0,0,-1,1721,1807,0,0
504,-783,0,0,0,0,0,0,0,0,0,-1,1728,1807,0,0
511,-783,0,0,0,0,0,0,0,0,0,-1,1735,1807,0,0
518,-783,0,0,0,0,0,0,0,0,0,-1,1742,1807,0,0
525,-783,0,0,0,0,0,0,0,0,0,-1,1749,1807,0,0
532,-783,0,0,0,0,0,0,0,0,0,-1,1756,1807,0,0
539,-783,0,0,0,0,0,0,0,0,0,-1,1763,1807,0,0
546,-783,0,0,0,0,0,0,0,0,0,-1,1770,1807,0,0
553,-783,0,0,0,0,0,0,0,0,0,-1,1777,1807,0,0
560,-783,0,0,0,0,0,0,0,0,0,-1,1784,1807,0,0
567,-783,0,0,0,0,0,0,0,0,0,-1,1791,1807,0,0
574,-783,0,0,0,0,0,0,0,0,0,-1,1798,1807,0,0
581,-783,0,0,0,0,0,0,0,0,0,-1,1805,1807,0,0
588,-783,0,0,0,0,0,0,0,0,0,-1,1812,1807,0,0
595,-783,0,0,0,0,0,0,0,0,0,-1,1819,1807,0,0
602,-783,0,0,0,0,0,0,0,0,0,-1,1826,1807,0,0
609,-783,0,0,0,0,0,0,0,0,0,-1,1833,1807,0,0
616,-783,0,0,0,0,0,0,0,0,0,-1,1840,1807,0,0
623,-783,0,0,0,0,0,0,0,0,0,-1,1847,1807,0,0
630,-783,0,0,0,0,0,0,0,0,0,-1,1854,1807,0,0
637,-783,0,0,0,0,0,0,0,0,0,-1,1861,1807,0,0
644,-783,0,0,0,0,0,0,0,0,0,-1,1868,1807,0,0
651,-783,0,0,0,0,0,0,0,0,0,-1,1875,1807,0,0
658,-783,0,0,0,0,0,0,0,0,0,-1,1882,1807,0,0
665,-783,0,0,0,0,0,0,0,0,0,-1,1889,1807,0,0
672,-783,0,0,0,0,0,0,0,0,0,-1,1896,1807,0,0
679,-783,0,0,0,0,0,0,0,0,0,-1,1903,1807,0,0
686,-783,0,0,0,0,0,0,0,0,0,-1,1910,1807,0,0
693,-783,0,0,0,0,0,0,0,0,0,-1,1917,1807,0,0
700,-783,0,0,0,0,0,0,0,0,0,-1,1924,1807,0,0
707,-783,0,0,0,0,0,0,0,0,0,-1,1931,1807,0,0
714,-783,0,0,0,0,0,0,0,0,0,-1,1938,1807,0,0
721,-783,0,0,0,0,0,0,0,0,0,-1,1945,1807,0,0
728,-783,0,0,0,0,0,0,0,0,0,-1,1952,1807,0,0
735,-783,0,0,0,0,0,0,0,0,0,-1,1959,1807,0,0
742,-783,0,0,0,0,0,0,0,0,0,-1,1966,1807,0,0
749,-783,0,0,0,0,0,0,0,0,0,-1,1973,1807,0,0
756,-783,0,0,0,0,0,0,0,0,0,-1,1980,1807,0,0
763,-783,0,0,0,0,0,0,0,0,0,-1,1987,1807,0,0
770,-783,0,0,0,0,0,0,0,0,0,-1,1994,1807,0,0
777,-783,0,0,0,0,0,0,0,0,0,-1,2001,1807,0,0
784,-783,0,0,0,0,0,0,0,0,0,-1,2008,1807,0,0
791,-783,0,0,0,0,0,0,0,0,0,-1,2015,1807,0,0
798,-783,0,0,0,0,0,0,0,0,0,-1,2022,1807,0,0
805,-783,0,0,0,0,0,0,0,0,0,-1,2029,1807,0,0
812,-783,0,0,0,0,0,0,0,0,0,-1,2036,1807,0,0
-700,-790,0,0,0,0,0,0,0,0,0,-1,524,1814,0,0
-693,-790,0,0,0,0,0,0,0,0,0,-1,531,1814,0,0
-686,-790,0,0,0,0,0,0,0,0,0,-1,538,1814,0,0
-679,-790,0,0,0,0,0,0,0,0,0,-1,545,1814,0,0
-672,-790,0,0,0,0,0,0,0,0,0,-1,552,1814,0,0
-665,-790,0,0,0,0,0,0,0,0,0,-1,559,1814,0,0
-658,-790,0,0,0,0,0,0,0,0,0,-1,566,1814,0,0
-651,-790,0,0,0,0,0,0,0,0,0,-1,573,1814,0,0
-644,-790,0,0,0,0,0,0,0,0,0,-1,580,1814,0,0
-637,-790,0,0,0,0,0,0,0,0,0,-1,587,1814,0,0
-630,-790,0,0,0,0,0,0,0,0,0,-1,594,1814,0,0
-623,-790,0,0,0,0,0,0,0,0,0,-1,601,1814,0,0
-616,-790,0,0,0,0,0,0,0,0,0,-1,608,1814,0,0
-609,-790,0,0,0,0,0,0,0,0,0,-1,615,1814,0,0
-602,-790,0,0,0,0,0,0,0,0,0,-1,622,1814,0,0
-595,-790,0,0,0,0,0,0,0,0,0,-1,629,1814,0,0
-588,-790,0,0,0,0,0,0,0,0,0,-1,636,1814,0,0
-581,-790,0,0,0,0,0,0,0,0,0,-1,643,1814,0,0
-574,-790,0,0,0,0,0,0,0,0,0,-1,650,1814,0,0
-567,-790,0,0,0,0,0,0,0,0,0,-1,657,1814,0,0
-560,-790,0,0,0,0,0,0,0,0,0,-1,664,1814,0,0
-553,-790,0,0,0,0,0,0,0,0,0,-1,671,1814,0,0
-546,-790,0,0,0,0,0,0,0,0,0,-1,678,1814,0,0
-539,-790,0,0,0,0,0,0,0,0,0,-1,685,1814,0,0
-532,-790,0,0,0,0,0,0,0,0,0,-1,692,1814,0,0
-525,-790,0,0,0,0,0,0,0,0,0,-1,699,1814,0,0
-518,-790,0,0,0,0,0,0,0,0,0,-1,706,1814,0,0
-511,-790,0,0,0,0,0,0,0,0,0,-1,713,1814,0,0
-504,-790,0,0,0,0,0,0,0,0,0,-1,720,1814,0,0
-497,-790,0,0,0,0,0,0,0,0,0,-1,727,1814,0,0
-490,-790,0,0,0,0,0,0,0,0,0,-1,734,1814,0,0
-483,-790,0,0,0,0,0,0,0,0,0,-1,741,1814,0,0
-476,-790,0,0,0,0,0,0,0,0,0,-1,748,1814,0,0
-469,-790,0,0,0,0,0,0,0,0,0,-1,755,1814,0,0
-462,-790,0,0,0,0,0,0,0,0,0,-1,762,1814,0,0
-455,-790,0,0,0,0,0,0,0,0,0,-1,769,1814,0,0
-448,-790,0,0,0,0,0,0,0,0,0,-1,776,1814,0,0
-441,-790,0,0,0,0,0,0,0,0,0,-1,783,1814,0,0
-434,-790,0,0,0,0,0,0,0,0,0,-1,790,1814,0,0
-427,-790,0,0,0,0,0,0,0,0,0,-1,797,1814,0,0
-420,-790,0,0,0,0,0,0,0,0,0,-1,804,1814,0,0
-413,-790,0,0,0,0,0,0,0,0,0,-1,811,1814,0,0
-406,-790,0,0,0,0,0,0,0,0,0,-1,818,1814,0,0
-399,-790,0,0,0,0,0,0,0,0,0,-1,825,1814,0,0
-392,-790,0,0,0,0,0,0,0,0,0,-1,832,1814,0,0
-385,-790,0,0,0,0,0,0,0,0,0,-1,839,1814,0,0
-378,-790,0,0,0,0,0,0,0,0,0,-1,846,1814,0,0
-371,-790,0,0,0,0,0,0,0,0,0,-1,853,1814,0,0
-364,-790,0,0,0,0,0,0,0,0,0,-1,860,1814,0,0
-357,-790,0,0,0,0,0,0,0,0,0,-1,867,1814,0,0
-350,-790,0,0,0,0,0,0,0,0,0,-1,874,1814,0,0
-343,-790,0,0,0,0,0,0,0,0,0,-1,881,1814,0,0
-336,-790,0,0,0,0,0,0,0,0,0,-1,888,1814,0,0
-329,-790,0,0,0,0,0,0,0,0,0,-1,895,1814,0,0
-322,-790,0,0,0,0,0,0,0,0,0,-1,902,1814,0,0
-315,-790,0,0,0,0,0,0,0,0,0,-1,909,1814,0,0
-308,-790,0,0,0,0,0,0,0,0,0,-1,916,1814,0,0
-301,-790,0,0,0,0,0,0,0,0,0,-1,923,1814,0,0
-294,-790,0,0,0,0,0,0,0,0,0,-1,930,1814,0,0
-287,-790,0,0,0,0,0,0,0,0,0,-1,937,1814,0,0
-280,-790,0,0,0,0,0,0,0,0,0,-1,944,1814,0,0
-273,-790,0,0,0,0,0,0,0,0,0,-1,951,1814,0,0
-266,-790,0,0,0,0,0,0,0,0,0,-1,958,1814,0,0
-259,-790,0,0,0,0,0,0,0,0,0,-1,965,1814,0,0
-252,-790,0,0,0,0,0,0,0,0,0,-1,972,1814,0,0
-245,-790,0,0,0,0,0,0,0,0,0,-1,979,1814,0,0
-238,-790,0,0,0,0,0,0,0,0,0,-1,986,1814,0,0
-231,-790,0,0,0,0,0,0,0,0,0,-1,993,1814,0,0
-224,-790,0,0,0,0,0,0,0,0,0,-1,1000,1814,0,0
-217,-790,0,0,0,0,0,0,0,0,0,-1,1007,1814,0,0
-210,-790,0,0,0,0,0,0,0,0,0,-1,1014,1814,0,0
-203,-790,0,0,0,0,0,0,0,0,0,-1,1021,1814,0,0
-196,-790,0,0,0,0,0,0,0,0,0,-1,1028,1814,0,0
-189,-790,0,0,0,0,0,0,0,0,0,-1,1035,1814,0,0
-182,-790,0,0,0,0,0,0,0,0,0,-1,1042,1814,0,0
-175,-790,0,0,0,0,0,0,0,0,0,-1,1049,1814,0,0
-168,-790,0,0,0,0,0,0,0,0,0,-1,1056,1814,0,0
-161,-790,0,0,0,0,0,0,0,0,0,-1,1063,1814,0,0
-154,-790,0,0,0,0,0,0,0,0,0,-1,1070,1814,0,0
-147,-790,0,0,0,0,0,0,0,0,0,-1,1077,1814,0,0
-140,-790,0,0,0,0,0,0,0,0,0,-1,1084,1814,0,0
-133,-790,0,0,0,0,0,0,0,0,0,-1,1091,1814,0,0
-126,-790,0,0,0,0,0,0,0,0,0,-1,1098,1814,0,0
-119,-790,0,0,0,0,0,0,0,0,0,-1,1105,1814,0,0
-112,-790,0,0,0,0,0,0,0,0,0,-1,1112,1814,0,0
-105,-790,0,0,0,0,0,0,0,0,0,-1,1119,1814,0,0
-98,-790,0,0,0,0,0,0,0,0,0,-1,1126,1814,0,0
-91,-790,0,0,0,0,0,0,0,0,0,-1,1133,1814,0,0
-84,-790,0,0,0,0,0,0,0,0,0,-1,1140,1814,0,0
-77,-790,-0.969238,5.30847,0,0,0,0,0,0,0,-1,1147,1814,-0.969277,-5.3085
-70,-790,-1.23169,4.98914,0,0,0,0,0,0,0,-1,1154,1814,-1.23163,-4.98916
-63,-790,-1.69128,4.32263,0,0,0,0,0,0,0,-1,1161,1814,-1.69128,-4.32258
-56,-790,-2.24756,3.75305,0,0,0,0,0,0,0,-1,1168,1814,-2.24758,-3.75302
-49,-790,-3.11011,3.35779,0,0,0,0,0,0,0,-1,1175,1814,-3.11006,-3.35781
-42,-790,0.593262,1.19165,0,0,0,0,0,0,0,-1,1182,1814,0.593225,-1.19165
-35,-790,0.307129,-0.20105,0,0,0,0,0,0,0,-1,1189,1814,0.307178,0.201006
-28,-790,-2.78467,0.785156,0,0,0,0,0,0,0,-1,1196,1814,-2.78471,-0.785183
-21,-790,11.6506,31.1411,0,0,0,0,0,0,0,-1,1203,1814,11.6507,-31.1412
-14,-790,11.4469,31.3623,0,0,0,0,0,0,0,-1,1210,1814,11.4469,-31.3624
-7,-790,11.229,31.5906,-0.0286188,0.0634982,-0.0636543,0.0960098,-0.0611304,-1.09858,0.0914668,0.047167,1217,1814,11.229,-31.5906
0,-790,11.1498,32.0502,-0.0328674,0.0550935,-0.0478967,0.076139,-0.0539129,-1.1568,0.0754502,0.0462274,1224,1814,11.1498,-32.0502
7,-790,10.9034,32.4059,-0.0327906,0.0454644,-0.0324449,0.0571664,-0.0444925,-1.22465,0.0588446,0.0443176,1231,1814,10.9035,-32.4059
14,-790,10.4055,32.639,-0.0301296,0.0367512,-0.0197758,0.0421611,-0.0355394,-1.30377,0.0449147,0.0466557,1238,1814,10.4056,-32.639
21,-790,10.0658,32.9059,-0.0242442,0.027692,-0.00906244,0.0292279,-0.0257801,-1.40291,0.0317797,0.0456485,1245,1814,10.0658,-32.9059
28,-790,9.7135,33.2134,-0.0162664,0.0186133,-0.000472521,0.0186197,-0.0162728,-1.55725,0.0201604,0.0456483,1252,1814,9.71351,-33.2134
35,-790,9.39539,33.5079,-0.00786612,0.00986476,0.00655704,0.0120261,-0.0100275,1.25238,0.0127501,0.0477512,1259,1814,9.39543,-33.5079
42,-790,5.47241,33.5237,0.000366886,0.00206981,0.0109809,0.0122322,-0.00979547,0.824091,0.0127436,0.0441064,1266,1814,5.47243,-33.5237
49,-790,5.82959,33.9381,0.00693035,-0.00559265,0.0146821,0.0166304,-0.0152927,0.58384,0.0184362,0.0468024,1273,1814,5.82953,-33.9381
56,-790,6.28198,33.8145,0.0124798,-0.0129289,0.0166977,0.0207567,-0.0212058,0.460196,0.0242275,0.0484652,1280,1814,6.28195,-33.8145
63,-790,6.67395,33.8624,0.0170035,-0.0204231,0.0180862,0.0243151,-0.0277347,0.384179,0.0300726,0.0466714,1287,1814,6.67395,-33.8624
70,-790,7.18005,34.0394,0.0187642,-0.0276108,0.0192232,0.0256963,-0.0345429,0.346098,0.0349039,0.0413892,1294,1814,7.18004,-34.0395
77,-790,7.69971,34.1891,0.0177195,-0.0342686,0.0205168,0.0248409,-0.04139,0.334088,0.0386343,0.0450904,1301,1814,7.69974,-34.1891
84,-790,7.68396,35.0099,0.0157353,-0.0408343,0.0217444,0.0231276,-0.0482265,0.327702,0.0420372,0.0443283,1308,1814,7.68402,-35.0098
91,-790,7.73169,35.4142,0.0125966,-0.0457826,0.0216869,0.0197712,-0.0529572,0.319492,0.0434224,0.0418183,1315,1814,7.73169,-35.4142
98,-790,7.47559,35.2148,0.00551238,-0.051148,0.0230042,0.0136759,-0.0593116,0.341008,0.0448009,0.0453482,1322,1814,7.47553,-35.2148
105,-790,7.28992,35.3041,-0.00200383,-0.0571797,0.0260277,0.00833624,-0.0675198,0.378153,0.0480337,0.0480615,1329,1814,7.28991,-35.3041
112,-790,7.50659,35.4879,-0.00909976,-0.0629744,0.0296623,0.00403125,-0.0761054,0.416753,0.0521327,0.0448923,1336,1814,7.50654,-35.4879
119,-790,7.44775,36.1187,-0.0157381,-0.0678606,0.0325545,-9.8221e-05,-0.0835005,0.447863,0.0556343,0.0428351,1343,1814,7.44771,-36.1187
126,-790,6.78821,37.0029,-0.0217209,-0.0723389,0.0352659,-0.00362214,-0.0904376,0.474157,0.0591213,0.0479903,1350,1814,6.7882,-37.0029
133,-790,6.61206,37.3618,-0.0256914,-0.0760842,0.0380124,-0.00528293,-0.0964926,0.492722,0.0626418,0.0485275,1357,1814,6.61208,-37.3618
140,-790,6.43494,37.7007,-0.0279841,-0.0793756,0.0405247,-0.00569528,-0.101664,0.502848,0.0659599,0.0479707,1364,1814,6.43497,-37.7007
147,-790,6.26111,38.0739,0,0,0,0,0,0,0,-1,1371,1814,6.26106,-38.0739
154,-790,40.215,13.2396,0,0,0,0,0,0,0,-1,1378,1814,40.2149,-13.2396
161,-790,39.3429,13.0336,0,0,0,0,0,0,0,-1,1385,1814,39.3429,-13.0336
168,-790,7.04077,2.23279,0,0,0,0,0,0,0,-1,1392,1814,7.04082,-2.23275
175,-790,9.03918,3.98535,0,0,0,0,0,0,0,-1,1399,1814,9.0392,-3.98535
182,-790,8.96997,5.67896,0,0,0,0,0,0,0,-1,1406,1814,8.97001,-5.6789
189,-790,8.59729,6.86975,0,0,0,0,0,0,0,-1,1413,1814,8.59728,-6.86972
196,-790,8.21924,9.29053,0,0,0,0,0,0,0,-1,1420,1814,8.21924,-9.29048
203,-790,0,0,0,0,0,0,0,0,0,-1,1427,1814,0,0
210,-790,0,0,0,0,0,0,0,0,0,-1,1434,1814,0,0
217,-790,0,0,0,0,0,0,0,0,0,-1,1441,1814,0,0
224,-790,0,0,0,0,0,0,0,0,0,-1,1448,1814,0,0
231,-790,0,0,0,0,0,0,0,0,0,-1,1455,1814,0,0
238,-790,0,0,0,0,0,0,0,0,0,-1,1462,1814,0,0
245,-790,0,0,0,0,0,0,0,0,0,-1,1469,1814,0,0
252,-790,0,0,0,0,0,0,0,0,0,-1,1476,1814,0,0
259,-790,0,0,0,0,0,0,0,0,0,-1,1483,1814,0,0
266,-790,0,0,0,0,0,0,0,0,0,-1,1490,1814,0,0
273,-790,0,0,0,0,0,0,0,0,0,-1,1497,1814,0,0
280,-790,0,0,0,0,0,0,0,0,0,-1,1504,1814,0,0
287,-790,0,0,0,0,0,0,0,0,0,-1,1511,1814,0,0
294,-790,0,0,0,0,0,0,0,0,0,-1,1518,1814,0,0
301,-790,0,0,0,0,0,0,0,0,0,-1,1525,1814,0,0
308,-790,0,0,0,0,0,0,0,0,0,-1,1532,1814,0,0
315,-790,0,0,0,0,0,0,0,0,0,-1,1539,1814,0,0
322,-790,0,0,0,0,0,0,0,0,0,-1,1546,1814,0,0
329,-790,0,0,0,0,0,0,0,0,0,-1,1553,1814,0,0
336,-790,0,0,0,0,0,0,0,0,0,-1,1560,1814,0,0
343,-790,0,0,0,0,0,0,0,0,0,-1,1567,1814,0,0
350,-790,0,0,0,0,0,0,0,0,0,-1,1574,1814,0,0
357,-790,0,0,0,0,0,0,0,0,0,-1,1581,1814,0,0
364,-790,0,0,0,0,0,0,0,0,0,-1,1588,1814,0,0
371,-790,0,0,0,0,0,0,0,0,0,-1,1595,1814,0,0
378,-790,0,0,0,0,0,0,0,0,0,-1,1602,1814,0,0
385,-790,0,0,0,0,0,0,0,0,0,-1,1609,1814,0,0
392,-790,0,0,0,0,0,0,0,0,0,-1,1616,1814,0,0
399,-790,0,0,0,0,0,0,0,0,0,-1,1623,1814,0,0
406,-790,0,0,0,0,0,0,0,0,0,-1,1630,1814,0,0
413,-790,0,0,0,0,0,0,0,0,0,-1,1637,1814,0,0
420,-790,0,0,0,0,0,0,0,0,0,-1,1644,1814,0,0
427,-790,0,0,0,0,0,0,0,0,0,-1,1651,1814,0,0
434,-790,0,0,0,0,0,0,0,0,0,-1,1658,1814,0,0
441,-790,0,0,0,0,0,0,0,0,0,-1,1665,1814,0,0
448,-790,0,0,0,0,0,0,0,0,0,-1,1672,1814,0,0
455,-790,0,0,0,0,0,0,0,0,0,-1,1679,1814,0,0
462,-790,0,0,0,0,0,0,0,0,0,-1,1686,1814,0,0
469,-790,0,0,0,0,0,0,0,0,0,-1,1693,1814,0,0
476,-790,0,0,0,0,0,0,0,0,0,-1,1700,1814,0,0
483,-790,0,0,0,0,0,0,0,0,0,-1,1707,1814,0,0
490,-790,0,0,0,0,0,0,0,0,0,-1,1714,1814,0,0
497,-790,0,0,0,0,0,0,0,0,0,-1,1721,1814,0,0
504,-790,0,0,0,0,0,0,0,0,0,-1,1728,1814,0,0
511,-790,0,0,0,0,0,0,0,0,0,-1,1735,1814,0,0
518,-790,0,0,0,0,0,0,0,0,0,-1,1742,1814,0,0
525,-790,0,0,0,0,0,0,0,0,0,-1,1749,1814,0,0
532,-790,0,0,0,0,0,0,0,0,0,-1,1756,1814,0,0
539,-790,0,0,0,0,0,0,0,0,0,-1,1763,1814,0,0
546,-790,0,0,0,0,0,0,0,0,0,-1,1770,1814,0,0
553,-790,0,0,0,0,0,0,0,0,0,-1,1777,1814,0,0
560,-790,0,0,0,0,0,0,0,0,0,-1,1784,1814,0,0
567,-790,0,0,0,0,0,0,0,0,0,-1,1791,1814,0,0
574,-790,0,0,0,0,0,0,0,0,0,-1,1798,1814,0,0
581,-790,0,0,0,0,0,0,0,0,0,-1,1805,1814,0,0
588,-790,0,0,0,0,0,0,0,0,0,-1,1812,1814,0,0
595,-790,0,0,0,0,0,0,0,0,0,-1,1819,1814,0,0
602,-790,0,0,0,0,0,0,0,0,0,-1,1826,1814,0,0
609,-790,0,0,0,0,0,0,0,0,0,-1,1833,1814,0,0
616,-790,0,0,0,0,0,0,0,0,0,-1,1840,1814,0,0
623,-790,0,0,0,0,0,0,0,0,0,-1,1847,1814,0,0
630,-790,0,0,0,0,0,0,0,0,0,-1,1854,1814,0,0
637,-790,0,0,0,0,0,0,0,0,0,-1,1861,1814,0,0
644,-790,0,0,0,0,0,0,0,0,0,-1,1868,1814,0,0
651,-790,0,0,0,0,0,0,0,0,0,-1,1875,1814,0,0
658,-790,0,0,0,0,0,0,0,0,0,-1,1882,1814,0,0
665,-790,0,0,0,0,0,0,0,0,0,-1,1889,1814,0,0
672,-790,0,0,0,0,0,0,0,0,0,-1,1896,1814,0,0
679,-790,0,0,0,0,0,0,0,0,0,-1,1903,1814,0,0
686,-790,0,0,0,0,0,0,0,0,0,-1,1910,1814,0,0
693,-790,0,0,0,0,0,0,0,0,0,-1,1917,1814,0,0
700,-790,0,0,0,0,0,0,0,0,0,-1,1924,1814,0,0
707,-790,0,0,0,0,0,0,0,0,0,-1,1931,1814,0,0
714,-790,0,0,0,0,0,0,0,0,0,-1,1938,1814,0,0
721,-790,0,0,0,0,0,0,0,0,0,-1,1945,1814,0,0
728,-790,0,0,0,0,0,0,0,0,0,-1,1952,1814,0,0
735,-790,0,0,0,0,0,0,0,0,0,-1,1959,1814,0,0
742,-790,0,0,0,0,0,0,0,0,0,-1,1966,1814,0,0
749,-790,0,0,0,0,0,0,0,0,0,-1,1973,1814,0,0
756,-790,0,0,0,0,0,0,0,0,0,-1,1980,1814,0,0
763,-790,0,0,0,0,0,0,0,0,0,-1,1987,1814,0,0
770,-790,0,0,0,0,0,0,0,0,0,-1,1994,1814,0,0
777,-790,0,0,0,0,0,0,0,0,0,-1,2001,1814,0,0
784,-790,0,0,0,0,0,0,0,0,0,-1,2008,1814,0,0
791,-790,0,0,0,0,0,0,0,0,0,-1,2015,1814,0,0
798,-790,0,0,0,0,0,0,0,0,0,-1,2022,1814,0,0
805,-790,0,0,0,0,0,0,0,0,0,-1,2029,1814,0,0
812,-790,0,0,0,0,0,0,0,0,0,-1,2036,1814,0,0
-700,-797,0,0,0,0,0,0,0,0,0,-1,524,1821,0,0
-693,-797,0,0,0,0,0,0,0,0,0,-1,531,1821,0,0
-686,-797,0,0,0,0,0,0,0,0,0,-1,538,1821,0,0
-679,-797,0,0,0,0,0,0,0,0,0,-1,545,1821,0,0
-672,-797,0,0,0,0,0,0,0,0,0,-1,552,1821,0,0
-665,-797,0,0,0,0,0,0,0,0,0,-1,559,1821,0,0
-658,-797,0,0,0,0,0,0,0,0,0,-1,566,1821,0,0
-651,-797,0,0,0,0,0,0,0,0,0,-1,573,1821,0,0
-644,-797,0,0,0,0,0,0,0,0,0,-1,580,1821,0,0
-637,-797,0,0,0,0,0,0,0,0,0,-1,587,1821,0,0
-630,-797,0,0,0,0,0,0,0,0,0,-1,594,1821,0,0
-623,-797,0,0,0,0,0,0,0,0,0,-1,601,1821,0,0
-616,-797,0,0,0,0,0,0,0,0,0,-1,608,1821,0,0
-609,-797,0,0,0,0,0,0,0,0,0,-1,615,1821,0,0
-602,-797,0,0,0,0,0,0,0,0,0,-1,622,1821,0,0
-595,-797,0,0,0,0,0,0,0,0,0,-1,629,1821,0,0
-588,-797,0,0,0,0,0,0,0,0,0,-1,636,1821,0,0
-581,-797,0,0,0,0,0,0,0,0,0,-1,643,1821,0,0
-574,-797,0,0,0,0,0,0,0,0,0,-1,650,1821,0,0
-567,-797,0,0,0,0,0,0,0,0,0,-1,657,1821,0,0
-560,-797,0,0,0,0,0,0,0,0,0,-1,664,1821,0,0
-553,-797,0,0,0,0,0,0,0,0,0,-1,671,1821,0,0
-546,-797,0,0,0,0,0,0,0,0,0,-1,678,1821,0,0
-539,-797,0,0,0,0,0,0,0,0,0,-1,685,1821,0,0
-532,-797,0,0,0,0,0,0,0,0,0,-1,692,1821,0,0
-525,-797,0,0,0,0,0,0,0,0,0,-1,699,1821,0,0
-518,-797,0,0,0,0,0,0,0,0,0,-1,706,1821,0,0
-511,-797,0,0,0,0,0,0,0,0,0,-1,713,1821,0,0
-504,-797,0,0,0,0,0,0,0,0,0,-1,720,1821,0,0
-497,-797,0,0,0,0,0,0,0,0,0,-1,727,1821,0,0
-490,-797,0,0,0,0,0,0,0,0,0,-1,734,1821,0,0
-483,-797,0,0,0,0,0,0,0,0,0,-1,741,1821,0,0
-476,-797,0,0,0,0,0,0,0,0,0,-1,748,1821,0,0
-469,-797,0,0,0,0,0,0,0,0,0,-1,755,1821,0,0
-462,-797,0,0,0,0,0,0,0,0,0,-1,762,1821,0,0
-455,-797,0,0,0,0,0,0,0,0,0,-1,769,1821,0,0
-448,-797,0,0,0,0,0,0,0,0,0,-1,776,1821,0,0
-441,-797,0,0,0,0,0,0,0,0,0,-1,783,1821,0,0
-434,-797,0,0,0,0,0,0,0,0,0,-1,790,1821,0,0
-427,-797,0,0,0,0,0,0,0,0,0,-1,797,1821,0,0
-420,-797,0,0,0,0,0,0,0,0,0,-1,804,1821,0,0
-413,-797,0,0,0,0,0,0,0,0,0,-1,811,1821,0,0
-406,-797,0,0,0,0,0,0,0,0,0,-1,818,1821,0,0
-399,-797,0,0,0,0,0,0,0,0,0,-1,825,1821,0,0
-392,-797,0,0,0,0,0,0,0,0,0,-1,832,1821,0,0
-385,-797,0,0,0,0,0,0,0,0,0,-1,839,1821,0,0
-378,-797,0,0,0,0,0,0,0,0,0,-1,846,1821,0,0
-371,-797,0,0,0,0,0,0,0,0,0,-1,853,1821,0,0
-364,-797,0,0,0,0,0,0,0,0,0,-1,860,1821,0,0
-357,-797,0,0,0,0,0,0,0,0,0,-1,867,1821,0,0
-350,-797,0,0,0,0,0,0,0,0,0,-1,874,1821,0,0
-343,-797,0,0,0,0,0,0,0,0,0,-1,881,1821,0,0
-336,-797,0,0,0,0,0,0,0,0,0,-1,888,1821,0,0
-329,-797,0,0,0,0,0,0,0,0,0,-1,895,1821,0,0
-322,-797,0,0,0,0,0,0,0,0,0,-1,902,1821,0,0
-315,-797,0,0,0,0,0,0,0,0,0,-1,909,1821,0,0
-308,-797,0,0,0,0,0,0,0,0,0,-1,916,1821,0,0
-301,-797,0,0,0,0,0,0,0,0,0,-1,923,1821,0,0
-294,-797,0,0,0,0,0,0,0,0,0,-1,930,1821,0,0
-287,-797,0,0,0,0,0,0,0,0,0,-1,937,1821,0,0
-280,-797,0,0,0,0,0,0,0,0,0,-1,944,1821,0,0
-273,-797,0,0,0,0,0,0,0,0,0,-1,951,1821,0,0
-266,-797,0,0,0,0,0,0,0,0,0,-1,958,1821,0,0
-259,-797,0,0,0,0,0,0,0,0,0,-1,965,1821,0,0
-252,-797,0,0,0,0,0,0,0,0,0,-1,972,1821,0,0
-245,-797,0,0,0,0,0,0,0,0,0,-1,979,1821,0,0
-238,-797,0,0,0,0,0,0,0,0,0,-1,986,1821,0,0
-231,-797,0,0,0,0,0,0,0,0,0,-1,993,1821,0,0
-224,-797,0,0,0,0,0,0,0,0,0,-1,1000,1821,0,0
-217,-797,0,0,0,0,0,0,0,0,0,-1,1007,1821,0,0
-210,-797,0,0,0,0,0,0,0,0,0,-1,1014,1821,0,0
-203,-797,0,0,0,0,0,0,0,0,0,-1,1021,1821,0,0
-196,-797,0,0,0,0,0,0,0,0,0,-1,1028,1821,0,0
-189,-797,0,0,0,0,0,0,0,0,0,-1,1035,1821,0,0
-182,-797,0,0,0,0,0,0,0,0,0,-1,1042,1821,0,0
-175,-797,0,0,0,0,0,0,0,0,0,-1,1049,1821,0,0
-168,-797,0,0,0,0,0,0,0,0,0,-1,1056,1821,0,0
-161,-797,0,0,0,0,0,0,0,0,0,-1,1063,1821,0,0
-154,-797,0,0,0,0,0,0,0,0,0,-1,1070,1821,0,0
-147,-797,0,0,0,0,0,0,0,0,0,-1,1077,1821,0,0
-140,-797,0,0,0,0,0,0,0,0,0,-1,1084,1821,0,0
-133,-797,0,0,0,0,0,0,0,0,0,-1,1091,1821,0,0
-126,-797,0,0,0,0,0,0,0,0,0,-1,1098,1821,0,0
-119,-797,0,0,0,0,0,0,0,0,0,-1,1105,1821,0,0
-112,-797,0,0,0,0,0,0,0,0,0,-1,1112,1821,0,0
-105,-797,0,0,0,0,0,0,0,0,0,-1,1119,1821,0,0
-98,-797,0,0,0,0,0,0,0,0,0,-1,1126,1821,0,0
-91,-797,0,0,0,0,0,0,0,0,0,-1,1133,1821,0,0
-84,-797,0,0,0,0,0,0,0,0,0,-1,1140,1821,0,0
-77,-797,0,0,0,0,0,0,0,0,0,-1,1147,1821,0,0
-70,-797,0,0,0,0,0,0,0,0,0,-1,1154,1821,0,0
-63,-797,0,0,0,0,0,0,0,0,0,-1,1161,1821,0,0
-56,-797,0,0,0,0,0,0,0,0,0,-1,1168,1821,0,0
-49,-797,0,0,0,0,0,0,0,0,0,-1,1175,1821,0,0
-42,-797,0.579834,0.692871,0,0,0,0,0,0,0,-1,1182,1821,0.579856,-0.692816
-35,-797,-0.185425,5.55396,0,0,0,0,0,0,0,-1,1189,1821,-0.18542,-5.55396
-28,-797,-0.310181,4.71509,0,0,0,0,0,0,0,-1,1196,1821,-0.310228,-4.71503
-21,-797,6.22522,29.062,0,0,0,0,0,0,0,-1,1203,1821,6.22523,-29.062
-14,-797,13.1533,31.1989,0,0,0,0,0,0,0,-1,1210,1821,13.1533,-31.1988
-7,-797,12.9459,31.397,0,0,0,0,0,0,0,-1,1217,1821,12.9459,-31.397
0,-797,12.0735,31.4399,0,0,0,0,0,0,0,-1,1224,1821,12.0734,-31.44
7,-797,11.7013,31.8511,-0.0433261,0.0502791,-0.0393031,0.0645929,-0.0576399,-1.22154,0.0706092,0.0475749,1231,1821,11.7012,-31.8511
14,-797,11.2133,32.2858,-0.0400042,0.0379832,-0.0238149,0.0446804,-0.0467014,-1.29666,0.0527636,0.0458948,1238,1821,11.2133,-32.2857
21,-797,10.8721,32.5748,-0.0323927,0.0254656,-0.0109606,0.0274724,-0.0343994,-1.38971,0.0357963,0.0438382,1245,1821,10.8721,-32.5749
28,-797,10.4581,32.7393,-0.0220909,0.013633,-0.000956521,0.0136586,-0.0221165,-1.54405,0.0208463,0.0435833,1252,1821,10.4581,-32.7393
35,-797,5.63574,34.0165,-0.0112237,0.00256271,0.00724789,0.0056719,-0.0143329,1.16556,0.0119051,0.0497657,1259,1821,5.63577,-34.0164
42,-797,6.03052,34.3422,-0.000176316,-0.0071843,0.012593,0.00939113,-0.0167517,0.649706,0.0152917,0.0455666,1266,1821,6.03054,-34.3422
49,-797,6.12244,34.6836,0.0088298,-0.0162098,0.0170314,0.017448,-0.024828,0.468449,0.0245317,0.0449538,1273,1821,6.12249,-34.6836
56,-797,6.00708,34.5026,0.0166317,-0.0245953,0.019599,0.0244618,-0.0324254,0.380088,0.0329509,0.0487078,1280,1821,6.00708,-34.5026
63,-797,6.67627,34.1979,0.0229594,-0.0330886,0.0215892,0.0303111,-0.0404403,0.32821,0.0409876,0.0440489,1287,1821,6.67632,-34.1979
70,-797,7.05396,34.3757,0.0257529,-0.0408704,0.0234192,0.0331613,-0.0482789,0.30638,0.0472888,0.0417072,1294,1821,7.054,-34.3758
77,-797,7.6322,34.559,0.0249197,-0.0478097,0.0254285,0.0329284,-0.0558185,0.305116,0.051803,0.044353,1301,1821,7.63218,-34.559
84,-797,7.59412,35.3916,0.0229971,-0.0544799,0.0274532,0.0317386,-0.0632213,0.308264,0.0558205,0.0462247,1308,1821,7.59417,-35.3915
91,-797,6.82031,35.2018,0,0,0,0,0,0,0,-1,1315,1821,6.82028,-35.2018
98,-797,6.92029,35.7612,0.0115189,-0.0641326,0.0303819,0.0222096,-0.0748233,0.338346,0.058703,0.0460104,1322,1821,6.92026,-35.7612
105,-797,6.86121,36.2688,0.00255433,-0.0707072,0.0342128,0.0160467,-0.0841996,0.37564,0.0621761,0.0441415,1329,1821,6.86117,-36.2689
112,-797,6.86426,36.7395,-0.00633941,-0.0768594,0.0381995,0.0103859,-0.0935847,0.412696,0.0661242,0.0416049,1336,1821,6.86428,-36.7395
119,-797,6.87939,37.201,-0.0146525,-0.0824133,0.0413233,0.00490398,-0.10197,0.442024,0.0696721,0.0425195,1343,1821,6.87941,-37.2011
126,-797,6.62354,37.5284,-0.0223124,-0.0873799,0.044066,-7.15554e-05,-0.109621,0.467414,0.0730567,0.0486949,1350,1821,6.6235,-37.5284
133,-797,6.28687,37.8093,-0.0274026,-0.0915792,0.0467859,-0.00275833,-0.116223,0.484814,0.0765794,0.0475253,1357,1821,6.28692,-37.8093
140,-797,6.18567,38.0259,-0.0301155,-0.0950144,0.0491475,-0.00367146,-0.121459,0.493626,0.0797767,0.0461035,1364,1821,6.1857,-38.0259
147,-797,6.09399,38.4407,0,0,0,0,0,0,0,-1,1371,1821,6.09405,-38.4407
154,-797,40.2623,8.88733,0,0,0,0,0,0,0,-1,1378,1821,40.2623,-8.88731
161,-797,42.2798,8.17371,0,0,0,0,0,0,0,-1,1385,1821,42.2798,-8.17367
168,-797,0,0,0,0,0,0,0,0,0,-1,1392,1821,0,0
175,-797,0,0,0,0,0,0,0,0,0,-1,1399,1821,0,0
182,-797,0,0,0,0,0,0,0,0,0,-1,1406,1821,0,0
189,-797,0,0,0,0,0,0,0,0,0,-1,1413,1821,0,0
196,-797,0,0,0,0,0,0,0,0,0,-1,1420,1821,0,0
203,-797,0,0,0,0,0,0,0,0,0,-1,1427,1821,0,0
210,-797,0,0,0,0,0,0,0,0,0,-1,1434,1821,0,0
217,-797,0,0,0,0,0,0,0,0,0,-1,1441,1821,0,0
224,-797,0,0,0,0,0,0,0,0,0,-1,1448,1821,0,0
231,-797,0,0,0,0,0,0,0,0,0,-1,1455,1821,0,0
238,-797,0,0,0,0,0,0,0,0,0,-1,1462,1821,0,0
245,-797,0,0,0,0,0,0,0,0,0,-1,1469,1821,0,0
252,-797,0,0,0,0,0,0,0,0,0,-1,1476,1821,0,0
259,-797,0,0,0,0,0,0,0,0,0,-1,1483,1821,0,0
266,-797,0,0,0,0,0,0,0,0,0,-1,1490,1821,0,0
273,-797,0,0,0,0,0,0,0,0,0,-1,1497,1821,0,0
280,-797,0,0,0,0,0,0,0,0,0,-1,1504,1821,0,0
287,-797,0,0,0,0,0,0,0,0,0,-1,1511,1821,0,0
294,-797,0,0,0,0,0,0,0,0,0,-1,1518,1821,0,0
301,-797,0,0,0,0,0,0,0,0,0,-1,1525,1821,0,0
308,-797,0,0,0,0,0,0,0,0,0,-1,1532,1821,0,0
315,-797,0,0,0,0,0,0,0,0,0,-1,1539,1821,0,0
322,-797,0,0,0,0,0,0,0,0,0,-1,1546,1821,0,0
329,-797,0,0,0,0,0,0,0,0,0,-1,1553,1821,0,0
336,-797,0,0,0,0,0,0,0,0,0,-1,1560,1821,0,0
343,-797,0,0,0,0,0,0,0,0,0,-1,1567,1821,0,0
350,-797,0,0,0,0,0,0,0,0,0,-1,1574,1821,0,0
357,-797,0,0,0,0,0,0,0,0,0,-1,1581,1821,0,0
364,-797,0,0,0,0,0,0,0,0,0,-1,1588,1821,0,0
371,-797,0,0,0,0,0,0,0,0,0,-1,1595,1821,0,0
378,-797,0,0,0,0,0,0,0,0,0,-1,1602,1821,0,0
385,-797,0,0,0,0,0,0,0,0,0,-1,1609,1821,0,0
392,-797,0,0,0,0,0,0,0,0,0,-1,1616,1821,0,0
399,-797,0,0,0,0,0,0,0,0,0,-1,1623,1821,0,0
406,-797,0,0,0,0,0,0,0,0,0,-1,1630,1821,0,0
413,-797,0,0,0,0,0,0,0,0,0,-1,1637,1821,0,0
420,-797,0,0,0,0,0,0,0,0,0,-1,1644,1821,0,0
427,-797,0,0,0,0,0,0,0,0,0,-1,1651,1821,0,0
434,-797,0,0,0,0,0,0,0,0,0,-1,1658,1821,0,0
441,-797,0,0,0,0,0,0,0,0,0,-1,1665,1821,0,0
448,-797,0,0,0,0,0,0,0,0,0,-1,1672,1821,0,0
455,-797,0,0,0,0,0,0,0,0,0,-1,1679,1821,0,0
462,-797,0,0,0,0,0,0,0,0,0,-1,1686,1821,0,0
469,-797,0,0,0,0,0,0,0,0,0,-1,1693,1821,0,0
476,-797,0,0,0,0,0,0,0,0,0,-1,1700,1821,0,0
483,-797,0,0,0,0,0,0,0,0,0,-1,1707,1821,0,0
490,-797,0,0,0,0,0,0,0,0,0,-1,1714,1821,0,0
497,-797,0,0,0,0,0,0,0,0,0,-1,1721,1821,0,0
504,-797,0,0,0,0,0,0,0,0,0,-1,1728,1821,0,0
511,-797,0,0,0,0,0,0,0,0,0,-1,1735,1821,0,0
518,-797,0,0,0,0,0,0,0,0,0,-1,1742,1821,0,0
525,-797,0,0,0,0,0,0,0,0,0,-1,1749,1821,0,0
532,-797,0,0,0,0,0,0,0,0,0,-1,1756,1821,0,0
539,-797,0,0,0,0,0,0,0,0,0,-1,1763,1821,0,0
546,-797,0,0,0,0,0,0,0,0,0,-1,1770,1821,0,0
553,-797,0,0,0,0,0,0,0,0,0,-1,1777,1821,0,0
560,-797,0,0,0,0,0,0,0,0,0,-1,1784,1821,0,0
567,-797,0,0,0,0,0,0,0,0,0,-1,1791,1821,0,0
574,-797,0,0,0,0,0,0,0,0,0,-1,1798,1821,0,0
581,-797,0,0,0,0,0,0,0,0,0,-1,1805,1821,0,0
588,-797,0,0,0,0,0,0,0,0,0,-1,1812,1821,0,0
595,-797,0,0,0,0,0,0,0,0,0,-1,1819,1821,0,0
602,-797,0,0,0,0,0,0,0,0,0,-1,1826,1821,0,0
609,-797,0,0,0,0,0,0,0,0,0,-1,1833,1821,0,0
616,-797,0,0,0,0,0,0,0,0,0,-1,1840,1821,0,0
623,-797,0,0,0,0,0,0,0,0,0,-1,1847,1821,0,0
630,-797,0,0,0,0,0,0,0,0,0,-1,1854,1821,0,0
637,-797,0,0,0,0,0,0,0,0,0,-1,1861,1821,0,0
644,-797,0,0,0,0,0,0,0,0,0,-1,1868,1821,0,0
651,-797,0,0,0,0,0,0,0,0,0,-1,1875,1821,0,0
658,-797,0,0,0,0,0,0,0,0,0,-1,1882,1821,0,0
665,-797,0,0,0,0,0,0,0,0,0,-1,1889,1821,0,0
672,-797,0,0,0,0,0,0,0,0,0,-1,1896,1821,0,0
679,-797,0,0,0,0,0,0,0,0,0,-1,1903,1821,0,0
686,-797,0,0,0,0,0,0,0,0,0,-1,1910,1821,0,0
693,-797,0,0,0,0,0,0,0,0,0,-1,1917,1821,0,0
700,-797,0,0,0,0,0,0,0,0,0,-1,1924,1821,0,0
707,-797,0,0,0,0,0,0,0,0,0,-1,1931,1821,0,0
714,-797,0,0,0,0,0,0,0,0,0,-1,1938,1821,0,0
721,-797,0,0,0,0,0,0,0,0,0,-1,1945,1821,0,0
728,-797,0,0,0,0,0,0,0,0,0,-1,1952,1821,0,0
735,-797,0,0,0,0,0,0,0,0,0,-1,1959,1821,0,0
742,-797,0,0,0,0,0,0,0,0,0,-1,1966,1821,0,0
749,-797,0,0,0,0,0,0,0,0,0,-1,1973,1821,0,0
756,-797,0,0,0,0,0,0,0,0,0,-1,1980,1821,0,0
763,-797,0,0,0,0,0,0,0,0,0,-1,1987,1821,0,0
770,-797,0,0,0,0,0,0,0,0,0,-1,1994,1821,0,0
777,-797,0,0,0,0,0,0,0,0,0,-1,2001,1821,0,0
784,-797,0,0,0,0,0,0,0,0,0,-1,2008,1821,0,0
791,-797,0,0,0,0,0,0,0,0,0,-1,2015,1821,0,0
798,-797,0,0,0,0,0,0,0,0,0,-1,2022,1821,0,0
805,-797,0,0,0,0,0,0,0,0,0,-1,2029,1821,0,0
812,-797,0,0,0,0,0,0,0,0,0,-1,2036,1821,0,0
-700,-804,0,0,0,0,0,0,0,0,0,-1,524,1828,0,0
-693,-804,0,0,0,0,0,0,0,0,0,-1,531,1828,0,0
-686,-804,0,0,0,0,0,0,0,0,0,-1,538,1828,0,0
-679,-804,0,0,0,0,0,0,0,0,0,-1,545,1828,0,0
-672,-804,0,0,0,0,0,0,0,0,0,-1,552,1828,0,0
-665,-804,0,0,0,0,0,0,0,0,0,-1,559,1828,0,0
-658,-804,0,0,0,0,0,0,0,0,0,-1,566,1828,0,0
-651,-804,0,0,0,0,0,0,0,0,0,-1,573,1828,0,0
-644,-804,0,0,0,0,0,0,0,0,0,-1,580,1828,0,0
-637,-804,0,0,0,0,0,0,0,0,0,-1,587,1828,0,0
-630,-804,0,0,0,0,0,0,0,0,0,-1,594,1828,0,0
-623,-804,0,0,0,0,0,0,0,0,0,-1,601,1828,0,0
-616,-804,0,0,0,0,0,0,0,0,0,-1,608,1828,0,0
-609,-804,0,0,0,0,0,0,0,0,0,-1,615,1828,0,0
-602,-804,0,0,0,0,0,0,0,0,0,-1,622,1828,0,0
-595,-804,0,0,0,0,0,0,0,0,0,-1,629,1828,0,0
-588,-804,0,0,0,0,0,0,0,0,0,-1,636,1828,0,0
-581,-804,0,0,0,0,0,0,0,0,0,-1,643,1828,0,0
-574,-804,0,0,0,0,0,0,0,0,0,-1,650,1828,0,0
-567,-804,0,0,0,0,0,0,0,0,0,-1,657,1828,0,0
-560,-804,0,0,0,0,0,0,0,0,0,-1,664,1828,0,0
-553,-804,0,0,0,0,0,0,0,0,0,-1,671,1828,0,0
-546,-804,0,0,0,0,0,0,0,0,0,-1,678,1828,0,0
-539,-804,0,0,0,0,0,0,0,0,0,-1,685,1828,0,0
-532,-804,0,0,0,0,0,0,0,0,0,-1,692,1828,0,0
-525,-804,0,0,0,0,0,0,0,0,0,-1,699,1828,0,0
-518,-804,0,0,0,0,0,0,0,0,0,-1,706,1828,0,0
-511,-804,0,0,0,0,0,0,0,0,0,-1,713,1828,0,0
-504,-804,0,0,0,0,0,0,0,0,0,-1,720,1828,0,0
-497,-804,0,0,0,0,0,0,0,0,0,-1,727,1828,0,0
-490,-804,0,0,0,0,0,0,0,0,0,-1,734,1828,0,0
-483,-804,0,0,0,0,0,0,0,0,0,-1,741,1828,0,0
-476,-804,0,0,0,0,0,0,0,0,0,-1,748,1828,0,0
-469,-804,0,0,0,0,0,0,0,0,0,-1,755,1828,0,0
-462,-804,0,0,0,0,0,0,0,0,0,-1,762,1828,0,0
-455,-804,0,0,0,0,0,0,0,0,0,-1,769,1828,0,0
-448,-804,0,0,0,0,0,0,0,0,0,-1,776,1828,0,0
-441,-804,0,0,0,0,0,0,0,0,0,-1,783,1828,0,0
-434,-804,0,0,0,0,0,0,0,0,0,-1,790,1828,0,0
-427,-804,0,0,0,0,0,0,0,0,0,-1,797,1828,0,0
-420,-804,0,0,0,0,0,0,0,0,0,-1,804,1828,0,0
-413,-804,0,0,0,0,0,0,0,0,0,-1,811,1828,0,0
-406,-804,0,0,0,0,0,0,0,0,0,-1,818,1828,0,0
-399,-804,0,0,0,0,0,0,0,0,0,-1,825,1828,0,0
-392,-804,0,0,0,0,0,0,0,0,0,-1,832,1828,0,0
-385,-804,0,0,0,0,0,0,0,0,0,-1,839,1828,0,0
-378,-804,0,0,0,0,0,0,0,0,0,-1,846,1828,0,0
-371,-804,0,0,0,0,0,0,0,0,0,-1,853,1828,0,0
-364,-804,0,0,0,0,0,0,0,0,0,-1,860,1828,0,0
-357,-804,0,0,0,0,0,0,0,0,0,-1,867,1828,0,0
-350,-804,0,0,0,0,0,0,0,0,0,-1,874,1828,0,0
-343,-804,0,0,0,0,0,0,0,0,0,-1,881,1828,0,0
-336,-804,0,0,0,0,0,0,0,0,0,-1,888,1828,0,0
-329,-804,0,0,0,0,0,0,0,0,0,-1,895,1828,0,0
-322,-804,0,0,0,0,0,0,0,0,0,-1,902,1828,0,0
-315,-804,0,0,0,0,0,0,0,0,0,-1,909,1828,0,0
-308,-804,0,0,0,0,0,0,0,0,0,-1,916,1828,0,0
-301,-804,0,0,0,0,0,0,0,0,0,-1,923,1828,0,0
-294,-804,0,0,0,0,0,0,0,0,0,-1,930,1828,0,0
-287,-804,0,0,0,0,0,0,0,0,0,-1,937,1828,0,0
-280,-804,0,0,0,0,0,0,0,0,0,-1,944,1828,0,0
-273,-804,0,0,0,0,0,0,0,0,0,-1,951,1828,0,0
-266,-804,0,0,0,0,0,0,0,0,0,-1,958,1828,0,0
-259,-804,0,0,0,0,0,0,0,0,0,-1,965,1828,0,0
-252,-804,0,0,0,0,0,0,0,0,0,-1,972,1828,0,0
-245,-804,0,0,0,0,0,0,0,0,0,-1,979,1828,0,0
-238,-804,0,0,0,0,0,0,0,0,0,-1,986,1828,0,0
-231,-804,0,0,0,0,0,0,0,0,0,-1,993,1828,0,0
-224,-804,0,0,0,0,0,0,0,0,0,-1,1000,1828,0,0
-217,-804,0,0,0,0,0,0,0,0,0,-1,1007,1828,0,0
-210,-804,0,0,0,0,0,0,0,0,0,-1,1014,1828,0,0
-203,-804,0,0,0,0,0,0,0,0,0,-1,1021,1828,0,0
-196,-804,0,0,0,0,0,0,0,0,0,-1,1028,1828,0,0
-189,-804,0,0,0,0,0,0,0,0,0,-1,1035,1828,0,0
-182,-804,0,0,0,0,0,0,0,0,0,-1,1042,1828,0,0
-175,-804,0,0,0,0,0,0,0,0,0,-1,1049,1828,0,0
-168,-804,0,0,0,0,0,0,0,0,0,-1,1056,1828,0,0
-161,-804,0,0,0,0,0,0,0,0,0,-1,1063,1828,0,0
-154,-804,0,0,0,0,0,0,0,0,0,-1,1070,1828,0,0
-147,-804,0,0,0,0,0,0,0,0,0,-1,1077,1828,0,0
-140,-804,0,0,0,0,0,0,0,0,0,-1,1084,1828,0,0
-133,-804,0,0,0,0,0,0,0,0,0,-1,1091,1828,0,0
-126,-804,0,0,0,0,0,0,0,0,0,-1,1098,1828,0,0
-119,-804,0,0,0,0,0,0,0,0,0,-1,1105,1828,0,0
-112,-804,0,0,0,0,0,0,0,0,0,-1,1112,1828,0,0
-105,-804,0,0,0,0,0,0,0,0,0,-1,1119,1828,0,0
-98,-804,0,0,0,0,0,0,0,0,0,-1,1126,1828,0,0
-91,-804,0,0,0,0,0,0,0,0,0,-1,1133,1828,0,0
-84,-804,0,0,0,0,0,0,0,0,0,-1,1140,1828,0,0
-77,-804,0,0,0,0,0,0,0,0,0,-1,1147,1828,0,0
-70,-804,0,0,0,0,0,0,0,0,0,-1,1154,1828,0,0
-63,-804,0,0,0,0,0,0,0,0,0,-1,1161,1828,0,0
-56,-804,0,0,0,0,0,0,0,0,0,-1,1168,1828,0,0
-49,-804,0,0,0,0,0,0,0,0,0,-1,1175,1828,0,0
-42,-804,0,0,0,0,0,0,0,0,0,-1,1182,1828,0,0
-35,-804,0,0,0,0,0,0,0,0,0,-1,1189,1828,0,0
-28,-804,0,0,0,0,0,0,0,0,0,-1,1196,1828,0,0
-21,-804,0,0,0,0,0,0,0,0,0,-1,1203,1828,0,0
-14,-804,0,0,0,0,0,0,0,0,0,-1,1210,1828,0,0
-7,-804,0,0,0,0,0,0,0,0,0,-1,1217,1828,0,0
0,-804,0,0,0,0,0,0,0,0,0,-1,1224,1828,0,0
7,-804,0,0,0,0,0,0,0,0,0,-1,1231,1828,0,0
14,-804,0,0,0,0,0,0,0,0,0,-1,1238,1828,0,0
21,-804,0,0,0,0,0,0,0,0,0,-1,1245,1828,0,0
28,-804,0,0,0,0,0,0,0,0,0,-1,1252,1828,0,0
35,-804,5.90906,35.04,-0.0158579,-0.0118491,0.00725525,-0.00632646,-0.0213805,0.92017,0.0126822,0.0440747,1259,1828,5.90909,-35.0401
42,-804,6.27832,35.4105,-0.00127045,-0.023551,0.0134951,0.00508852,-0.02991,0.440348,0.0218347,0.0439803,1266,1828,6.27838,-35.4105
49,-804,6.39478,35.4373,0.0109234,-0.0336617,0.0186371,0.0176877,-0.0404259,0.348162,0.0343974,0.0428342,1273,1828,6.39478,-35.4372
56,-804,5.7074,35.1448,0,0,0,0,0,0,0,-1,1280,1828,5.70746,-35.1447
63,-804,6.54443,34.5598,0,0,0,0,0,0,0,-1,1287,1828,6.54446,-34.5598
70,-804,6.89856,34.6742,0.0345447,-0.0597657,0.0275249,0.0419902,-0.0672112,0.264177,0.0636055,0.0459202,1294,1828,6.89853,-34.6742
77,-804,7.67627,34.8566,0.0341187,-0.0663959,0.0306324,0.0427184,-0.0749956,0.273692,0.0688085,0.0442361,1301,1828,7.67631,-34.8565
84,-804,8.28076,35.0223,0,0,0,0,0,0,0,-1,1308,1828,8.28073,-35.0224
91,-804,0,0,0,0,0,0,0,0,0,-1,1315,1828,0,0
98,-804,0,0,0,0,0,0,0,0,0,-1,1322,1828,0,0
105,-804,0,0,0,0,0,0,0,0,0,-1,1329,1828,0,0
112,-804,0,0,0,0,0,0,0,0,0,-1,1336,1828,0,0
119,-804,0,0,0,0,0,0,0,0,0,-1,1343,1828,0,0
126,-804,0,0,0,0,0,0,0,0,0,-1,1350,1828,0,0
133,-804,0,0,0,0,0,0,0,0,0,-1,1357,1828,0,0
140,-804,0,0,0,0,0,0,0,0,0,-1,1364,1828,0,0
147,-804,0,0,0,0,0,0,0,0,0,-1,1371,1828,0,0
154,-804,0,0,0,0,0,0,0,0,0,-1,1378,1828,0,0
161,-804,0,0,0,0,0,0,0,0,0,-1,1385,1828,0,0
168,-804,0,0,0,0,0,0,0,0,0,-1,1392,1828,0,0
175,-804,0,0,0,0,0,0,0,0,0,-1,1399,1828,0,0
182,-804,0,0,0,0,0,0,0,0,0,-1,1406,1828,0,0
189,-804,0,0,0,0,0,0,0,0,0,-1,1413,1828,0,0
196,-804,0,0,0,0,0,0,0,0,0,-1,1420,1828,0,0
203,-804,0,0,0,0,0,0,0,0,0,-1,1427,1828,0,0
210,-804,0,0,0,0,0,0,0,0,0,-1,1434,1828,0,0
217,-804,0,0,0,0,0,0,0,0,0,-1,1441,1828,0,0
224,-804,0,0,0,0,0,0,0,0,0,-1,1448,1828,0,0
231,-804,0,0,0,0,0,0,0,0,0,-1,1455,1828,0,0
238,-804,0,0,0,0,0,0,0,0,0,-1,1462,1828,0,0
245,-804,0,0,0,0,0,0,0,0,0,-1,1469,1828,0,0
252,-804,0,0,0,0,0,0,0,0,0,-1,1476,1828,0,0
259,-804,0,0,0,0,0,0,0,0,0,-1,1483,1828,0,0
266,-804,0,0,0,0,0,0,0,0,0,-1,1490,1828,0,0
273,-804,0,0,0,0,0,0,0,0,0,-1,1497,1828,0,0
280,-804,0,0,0,0,0,0,0,0,0,-1,1504,1828,0,0
287,-804,0,0,0,0,0,0,0,0,0,-1,1511,1828,0,0
294,-804,0,0,0,0,0,0,0,0,0,-1,1518,1828,0,0
301,-804,0,0,0,0,0,0,0,0,0,-1,1525,1828,0,0
308,-804,0,0,0,0,0,0,0,0,0,-1,1532,1828,0,0
315,-804,0,0,0,0,0,0,0,0,0,-1,1539,1828,0,0
322,-804,0,0,0,0,0,0,0,0,0,-1,1546,1828,0,0
329,-804,0,0,0,0,0,0,0,0,0,-1,1553,1828,0,0
336,-804,0,0,0,0,0,0,0,0,0,-1,1560,1828,0,0
343,-804,0,0,0,0,0,0,0,0,0,-1,1567,1828,0,0
350,-804,0,0,0,0,0,0,0,0,0,-1,1574,1828,0,0
357,-804,0,0,0,0,0,0,0,0,0,-1,1581,1828,0,0
364,-804,0,0,0,0,0,0,0,0,0,-1,1588,1828,0,0
371,-804,0,0,0,0,0,0,0,0,0,-1,1595,1828,0,0
378,-804,0,0,0,0,0,0,0,0,0,-1,1602,1828,0,0
385,-804,0,0,0,0,0,0,0,0,0,-1,1609,1828,0,0
392,-804,0,0,0,0,0,0,0,0,0,-1,1616,1828,0,0
399,-804,0,0,0,0,0,0,0,0,0,-1,1623,1828,0,0
406,-804,0,0,0,0,0,0,0,0,0,-1,1630,1828,0,0
413,-804,0,0,0,0,0,0,0,0,0,-1,1637,1828,0,0
420,-804,0,0,0,0,0,0,0,0,0,-1,1644,1828,0,0
427,-804,0,0,0,0,0,0,0,0,0,-1,1651,1828,0,0
434,-804,0,0,0,0,0,0,0,0,0,-1,1658,1828,0,0
441,-804,0,0,0,0,0,0,0,0,0,-1,1665,1828,0,0
448,-804,0,0,0,0,0,0,0,0,0,-1,1672,1828,0,0
455,-804,0,0,0,0,0,0,0,0,0,-1,1679,1828,0,0
462,-804,0,0,0,0,0,0,0,0,0,-1,1686,1828,0,0
469,-804,0,0,0,0,0,0,0,0,0,-1,1693,1828,0,0
476,-804,0,0,0,0,0,0,0,0,0,-1,1700,1828,0,0
483,-804,0,0,0,0,0,0,0,0,0,-1,1707,1828,0,0
490,-804,0,0,0,0,0,0,0,0,0,-1,1714,1828,0,0
497,-804,0,0,0,0,0,0,0,0,0,-1,1721,1828,0,0
504,-804,0,0,0,0,0,0,0,0,0,-1,1728,1828,0,0
511,-804,0,0,0,0,0,0,0,0,0,-1,1735,1828,0,0
518,-804,0,0,0,0,0,0,0,0,0,-1,1742,1828,0,0
525,-804,0,0,0,0,0,0,0,0,0,-1,1749,1828,0,0
532,-804,0,0,0,0,0,0,0,0,0,-1,1756,1828,0,0
539,-804,0,0,0,0,0,0,0,0,0,-1,1763,1828,0,0
546,-804,0,0,0,0,0,0,0,0,0,-1,1770,1828,0,0
553,-804,0,0,0,0,0,0,0,0,0,-1,1777,1828,0,0
560,-804,0,0,0,0,0,0,0,0,0,-1,1784,1828,0,0
567,-804,0,0,0,0,0,0,0,0,0,-1,1791,1828,0,0
574,-804,0,0,0,0,0,0,0,0,0,-1,1798,1828,0,0
581,-804,0,0,0,0,0,0,0,0,0,-1,1805,1828,0,0
588,-804,0,0,0,0,0,0,0,0,0,-1,1812,1828,0,0
595,-804,0,0,0,0,0,0,0,0,0,-1,1819,1828,0,0
602,-804,0,0,0,0,0,0,0,0,0,-1,1826,1828,0,0
609,-804,0,0,0,0,0,0,0,0,0,-1,1833,1828,0,0
616,-804,0,0,0,0,0,0,0,0,0,-1,1840,1828,0,0
623,-804,0,0,0,0,0,0,0,0,0,-1,1847,1828,0,0
630,-804,0,0,0,0,0,0,0,0,0,-1,1854,1828,0,0
637,-804,0,0,0,0,0,0,0,0,0,-1,1861,1828,0,0
644,-804,0,0,0,0,0,0,0,0,0,-1,1868,1828,0,0
651,-804,0,0,0,0,0,0,0,0,0,-1,1875,1828,0,0
658,-804,0,0,0,0,0,0,0,0,0,-1,1882,1828,0,0
665,-804,0,0,0,0,0,0,0,0,0,-1,1889,1828,0,0
672,-804,0,0,0,0,0,0,0,0,0,-1,1896,1828,0,0
679,-804,0,0,0,0,0,0,0,0,0,-1,1903,1828,0,0
686,-804,0,0,0,0,0,0,0,0,0,-1,1910,1828,0,0
693,-804,0,0,0,0,0,0,0,0,0,-1,1917,1828,0,0
700,-804,0,0,0,0,0,0,0,0,0,-1,1924,1828,0,0
707,-804,0,0,0,0,0,0,0,0,0,-1,1931,1828,0,0
714,-804,0,0,0,0,0,0,0,0,0,-1,1938,1828,0,0
721,-804,0,0,0,0,0,0,0,0,0,-1,1945,1828,0,0
728,-804,0,0,0,0,0,0,0,0,0,-1,1952,1828,0,0
735,-804,0,0,0,0,0,0,0,0,0,-1,1959,1828,0,0
742,-804,0,0,0,0,0,0,0,0,0,-1,1966,1828,0,0
749,-804,0,0,0,0,0,0,0,0,0,-1,1973,1828,0,0
756,-804,0,0,0,0,0,0,0,0,0,-1,1980,1828,0,0
763,-804,0,0,0,0,0,0,0,0,0,-1,1987,1828,0,0
770,-804,0,0,0,0,0,0,0,0,0,-1,1994,1828,0,0
777,-804,0,0,0,0,0,0,0,0,0,-1,2001,1828,0,0
784,-804,0,0,0,0,0,0,0,0,0,-1,2008,1828,0,0
791,-804,0,0,0,0,0,0,0,0,0,-1,2015,1828,0,0
798,-804,0,0,0,0,0,0,0,0,0,-1,2022,1828,0,0
805,-804,0,0,0,0,0,0,0,0,0,-1,2029,1828,0,0
812,-804,0,0,0,0,0,0,0,0,0,-1,2036,1828,0,0

