 "x_c",  "y_c",  "u_c",  "v_c",  "exx",  "eyy",  "exy",  "e1",  "e2",  "gamma",  "e_vonmises",  "sigma",  "x",  "y",  "u",  "v"
-700,715,0,0,0,0,0,0,0,0,0,-1,524,309,0,0
-693,715,0,0,0,0,0,0,0,0,0,-1,531,309,0,0
-686,715,0,0,0,0,0,0,0,0,0,-1,538,309,0,0
-679,715,0,0,0,0,0,0,0,0,0,-1,545,309,0,0
-672,715,0,0,0,0,0,0,0,0,0,-1,552,309,0,0
-665,715,0,0,0,0,0,0,0,0,0,-1,559,309,0,0
-658,715,0,0,0,0,0,0,0,0,0,-1,566,309,0,0
-651,715,0,0,0,0,0,0,0,0,0,-1,573,309,0,0
-644,715,0,0,0,0,0,0,0,0,0,-1,580,309,0,0
-637,715,0,0,0,0,0,0,0,0,0,-1,587,309,0,0
-630,715,0,0,0,0,0,0,0,0,0,-1,594,309,0,0
-623,715,0,0,0,0,0,0,0,0,0,-1,601,309,0,0
-616,715,0,0,0,0,0,0,0,0,0,-1,608,309,0,0
-609,715,0,0,0,0,0,0,0,0,0,-1,615,309,0,0
-602,715,0,0,0,0,0,0,0,0,0,-1,622,309,0,0
-595,715,0,0,0,0,0,0,0,0,0,-1,629,309,0,0
-588,715,0,0,0,0,0,0,0,0,0,-1,636,309,0,0
-581,715,0,0,0,0,0,0,0,0,0,-1,643,309,0,0
-574,715,0,0,0,0,0,0,0,0,0,-1,650,309,0,0
-567,715,0,0,0,0,0,0,0,0,0,-1,657,309,0,0
-560,715,0,0,0,0,0,0,0,0,0,-1,664,309,0,0
-553,715,0,0,0,0,0,0,0,0,0,-1,671,309,0,0
-546,715,0,0,0,0,0,0,0,0,0,-1,678,309,0,0
-539,715,0,0,0,0,0,0,0,0,0,-1,685,309,0,0
-532,715,0,0,0,0,0,0,0,0,0,-1,692,309,0,0
-525,715,0,0,0,0,0,0,0,0,0,-1,699,309,0,0
-518,715,0,0,0,0,0,0,0,0,0,-1,706,309,0,0
-511,715,0,0,0,0,0,0,0,0,0,-1,713,309,0,0
-504,715,0,0,0,0,0,0,0,0,0,-1,720,309,0,0
-497,715,0,0,0,0,0,0,0,0,0,-1,727,309,0,0
-490,715,0,0,0,0,0,0,0,0,0,-1,734,309,0,0
-483,715,0,0,0,0,0,0,0,0,0,-1,741,309,0,0
-476,715,0,0,0,0,0,0,0,0,0,-1,748,309,0,0
-469,715,0,0,0,0,0,0,0,0,0,-1,755,309,0,0
-462,715,0,0,0,0,0,0,0,0,0,-1,762,309,0,0
-455,715,0,0,0,0,0,0,0,0,0,-1,769,309,0,0
-448,715,0,0,0,0,0,0,0,0,0,-1,776,309,0,0
-441,715,0,0,0,0,0,0,0,0,0,-1,783,309,0,0
-434,715,0,0,0,0,0,0,0,0,0,-1,790,309,0,0
-427,715,0,0,0,0,0,0,0,0,0,-1,797,309,0,0
-420,715,0,0,0,0,0,0,0,0,0,-1,804,309,0,0
-413,715,0,0,0,0,0,0,0,0,0,-1,811,309,0,0
-406,715,0,0,0,0,0,0,0,0,0,-1,818,309,0,0
-399,715,0,0,0,0,0,0,0,0,0,-1,825,309,0,0
-392,715,0,0,0,0,0,0,0,0,0,-1,832,309,0,0
-385,715,0,0,0,0,0,0,0,0,0,-1,839,309,0,0
-378,715,0,0,0,0,0,0,0,0,0,-1,846,309,0,0
-371,715,0,0,0,0,0,0,0,0,0,-1,853,309,0,0
-364,715,0,0,0,0,0,0,0,0,0,-1,860,309,0,0
-357,715,0,0,0,0,0,0,0,0,0,-1,867,309,0,0
-350,715,0,0,0,0,0,0,0,0,0,-1,874,309,0,0
-343,715,0,0,0,0,0,0,0,0,0,-1,881,309,0,0
-336,715,0,0,0,0,0,0,0,0,0,-1,888,309,0,0
-329,715,0,0,0,0,0,0,0,0,0,-1,895,309,0,0
-322,715,0,0,0,0,0,0,0,0,0,-1,902,309,0,0
-315,715,0,0,0,0,0,0,0,0,0,-1,909,309,0,0
-308,715,0,0,0,0,0,0,0,0,0,-1,916,309,0,0
-301,715,0,0,0,0,0,0,0,0,0,-1,923,309,0,0
-294,715,0,0,0,0,0,0,0,0,0,-1,930,309,0,0
-287,715,0,0,0,0,0,0,0,0,0,-1,937,309,0,0
-280,715,0,0,0,0,0,0,0,0,0,-1,944,309,0,0
-273,715,0,0,0,0,0,0,0,0,0,-1,951,309,0,0
-266,715,0,0,0,0,0,0,0,0,0,-1,958,309,0,0
-259,715,0,0,0,0,0,0,0,0,0,-1,965,309,0,0
-252,715,0,0,0,0,0,0,0,0,0,-1,972,309,0,0
-245,715,0,0,0,0,0,0,0,0,0,-1,979,309,0,0
-238,715,0,0,0,0,0,0,0,0,0,-1,986,309,0,0
-231,715,0,0,0,0,0,0,0,0,0,-1,993,309,0,0
-224,715,0,0,0,0,0,0,0,0,0,-1,1000,309,0,0
-217,715,0,0,0,0,0,0,0,0,0,-1,1007,309,0,0
-210,715,0,0,0,0,0,0,0,0,0,-1,1014,309,0,0
-203,715,0,0,0,0,0,0,0,0,0,-1,1021,309,0,0
-196,715,0,0,0,0,0,0,0,0,0,-1,1028,309,0,0
-189,715,0,0,0,0,0,0,0,0,0,-1,1035,309,0,0
-182,715,0,0,0,0,0,0,0,0,0,-1,1042,309,0,0
-175,715,0,0,0,0,0,0,0,0,0,-1,1049,309,0,0
-168,715,0,0,0,0,0,0,0,0,0,-1,1056,309,0,0
-161,715,0,0,0,0,0,0,0,0,0,-1,1063,309,0,0
-154,715,0,0,0,0,0,0,0,0,0,-1,1070,309,0,0
-147,715,0,0,0,0,0,0,0,0,0,-1,1077,309,0,0
-140,715,0,0,0,0,0,0,0,0,0,-1,1084,309,0,0
-133,715,0,0,0,0,0,0,0,0,0,-1,1091,309,0,0
-126,715,0,0,0,0,0,0,0,0,0,-1,1098,309,0,0
-119,715,0,0,0,0,0,0,0,0,0,-1,1105,309,0,0
-112,715,0,0,0,0,0,0,0,0,0,-1,1112,309,0,0
-105,715,0,0,0,0,0,0,0,0,0,-1,1119,309,0,0
-98,715,0,0,0,0,0,0,0,0,0,-1,1126,309,0,0
-91,715,0,0,0,0,0,0,0,0,0,-1,1133,309,0,0
-84,715,0,0,0,0,0,0,0,0,0,-1,1140,309,0,0
-77,715,0,0,0,0,0,0,0,0,0,-1,1147,309,0,0
-70,715,0,0,0,0,0,0,0,0,0,-1,1154,309,0,0
-63,715,0,0,0,0,0,0,0,0,0,-1,1161,309,0,0
-56,715,0,0,0,0,0,0,0,0,0,-1,1168,309,0,0
-49,715,0,0,0,0,0,0,0,0,0,-1,1175,309,0,0
-42,715,0,0,0,0,0,0,0,0,0,-1,1182,309,0,0
-35,715,0,0,0,0,0,0,0,0,0,-1,1189,309,0,0
-28,715,0,0,0,0,0,0,0,0,0,-1,1196,309,0,0
-21,715,0,0,0,0,0,0,0,0,0,-1,1203,309,0,0
-14,715,0,0,0,0,0,0,0,0,0,-1,1210,309,0,0
-7,715,0,0,0,0,0,0,0,0,0,-1,1217,309,0,0
0,715,0,0,0,0,0,0,0,0,0,-1,1224,309,0,0
7,715,0,0,0,0,0,0,0,0,0,-1,1231,309,0,0
14,715,0,0,0,0,0,0,0,0,0,-1,1238,309,0,0
21,715,0,0,0,0,0,0,0,0,0,-1,1245,309,0,0
28,715,0,0,0,0,0,0,0,0,0,-1,1252,309,0,0
35,715,0,0,0,0,0,0,0,0,0,-1,1259,309,0,0
42,715,0,0,0,0,0,0,0,0,0,-1,1266,309,0,0
49,715,0,0,0,0,0,0,0,0,0,-1,1273,309,0,0
56,715,0,0,0,0,0,0,0,0,0,-1,1280,309,0,0
63,715,1.22192,0.274811,0,0,0,0,0,0,0,-1,1287,309,1.22197,-0.274806
70,715,1.86646,-0.115387,0,0,0,0,0,0,0,-1,1294,309,1.86645,0.115375
77,715,0,0,0,0,0,0,0,0,0,-1,1301,309,0,0
84,715,0,0,0,0,0,0,0,0,0,-1,1308,309,0,0
91,715,0,0,0,0,0,0,0,0,0,-1,1315,309,0,0
98,715,0,0,0,0,0,0,0,0,0,-1,1322,309,0,0
105,715,0,0,0,0,0,0,0,0,0,-1,1329,309,0,0
112,715,0,0,0,0,0,0,0,0,0,-1,1336,309,0,0
119,715,0,0,0,0,0,0,0,0,0,-1,1343,309,0,0
126,715,0,0,0,0,0,0,0,0,0,-1,1350,309,0,0
133,715,0,0,0,0,0,0,0,0,0,-1,1357,309,0,0
140,715,0,0,0,0,0,0,0,0,0,-1,1364,309,0,0
147,715,0,0,0,0,0,0,0,0,0,-1,1371,309,0,0
154,715,0,0,0,0,0,0,0,0,0,-1,1378,309,0,0
161,715,0,0,0,0,0,0,0,0,0,-1,1385,309,0,0
168,715,0,0,0,0,0,0,0,0,0,-1,1392,309,0,0
175,715,0,0,0,0,0,0,0,0,0,-1,1399,309,0,0
182,715,0,0,0,0,0,0,0,0,0,-1,1406,309,0,0
189,715,0,0,0,0,0,0,0,0,0,-1,1413,309,0,0
196,715,0,0,0,0,0,0,0,0,0,-1,1420,309,0,0
203,715,0,0,0,0,0,0,0,0,0,-1,1427,309,0,0
210,715,0,0,0,0,0,0,0,0,0,-1,1434,309,0,0
217,715,0,0,0,0,0,0,0,0,0,-1,1441,309,0,0
224,715,0,0,0,0,0,0,0,0,0,-1,1448,309,0,0
231,715,0,0,0,0,0,0,0,0,0,-1,1455,309,0,0
238,715,0,0,0,0,0,0,0,0,0,-1,1462,309,0,0
245,715,0,0,0,0,0,0,0,0,0,-1,1469,309,0,0
252,715,0,0,0,0,0,0,0,0,0,-1,1476,309,0,0
259,715,0,0,0,0,0,0,0,0,0,-1,1483,309,0,0
266,715,0,0,0,0,0,0,0,0,0,-1,1490,309,0,0
273,715,0,0,0,0,0,0,0,0,0,-1,1497,309,0,0
280,715,0,0,0,0,0,0,0,0,0,-1,1504,309,0,0
287,715,0,0,0,0,0,0,0,0,0,-1,1511,309,0,0
294,715,0,0,0,0,0,0,0,0,0,-1,1518,309,0,0
301,715,0,0,0,0,0,0,0,0,0,-1,1525,309,0,0
308,715,0,0,0,0,0,0,0,0,0,-1,1532,309,0,0
315,715,0,0,0,0,0,0,0,0,0,-1,1539,309,0,0
322,715,0,0,0,0,0,0,0,0,0,-1,1546,309,0,0
329,715,0,0,0,0,0,0,0,0,0,-1,1553,309,0,0
336,715,0,0,0,0,0,0,0,0,0,-1,1560,309,0,0
343,715,0,0,0,0,0,0,0,0,0,-1,1567,309,0,0
350,715,0,0,0,0,0,0,0,0,0,-1,1574,309,0,0
357,715,0,0,0,0,0,0,0,0,0,-1,1581,309,0,0
364,715,0,0,0,0,0,0,0,0,0,-1,1588,309,0,0
371,715,0,0,0,0,0,0,0,0,0,-1,1595,309,0,0
378,715,0,0,0,0,0,0,0,0,0,-1,1602,309,0,0
385,715,0,0,0,0,0,0,0,0,0,-1,1609,309,0,0
392,715,0,0,0,0,0,0,0,0,0,-1,1616,309,0,0
399,715,0,0,0,0,0,0,0,0,0,-1,1623,309,0,0
406,715,0,0,0,0,0,0,0,0,0,-1,1630,309,0,0
413,715,0,0,0,0,0,0,0,0,0,-1,1637,309,0,0
420,715,0,0,0,0,0,0,0,0,0,-1,1644,309,0,0
427,715,0,0,0,0,0,0,0,0,0,-1,1651,309,0,0
434,715,0,0,0,0,0,0,0,0,0,-1,1658,309,0,0
441,715,0,0,0,0,0,0,0,0,0,-1,1665,309,0,0
448,715,0,0,0,0,0,0,0,0,0,-1,1672,309,0,0
455,715,0,0,0,0,0,0,0,0,0,-1,1679,309,0,0
462,715,0,0,0,0,0,0,0,0,0,-1,1686,309,0,0
469,715,0,0,0,0,0,0,0,0,0,-1,1693,309,0,0
476,715,0,0,0,0,0,0,0,0,0,-1,1700,309,0,0
483,715,0,0,0,0,0,0,0,0,0,-1,1707,309,0,0
490,715,0,0,0,0,0,0,0,0,0,-1,1714,309,0,0
497,715,0,0,0,0,0,0,0,0,0,-1,1721,309,0,0
504,715,0,0,0,0,0,0,0,0,0,-1,1728,309,0,0
511,715,0,0,0,0,0,0,0,0,0,-1,1735,309,0,0
518,715,0,0,0,0,0,0,0,0,0,-1,1742,309,0,0
525,715,0,0,0,0,0,0,0,0,0,-1,1749,309,0,0
532,715,0,0,0,0,0,0,0,0,0,-1,1756,309,0,0
539,715,0,0,0,0,0,0,0,0,0,-1,1763,309,0,0
546,715,0,0,0,0,0,0,0,0,0,-1,1770,309,0,0
553,715,0,0,0,0,0,0,0,0,0,-1,1777,309,0,0
560,715,0,0,0,0,0,0,0,0,0,-1,1784,309,0,0
567,715,0,0,0,0,0,0,0,0,0,-1,1791,309,0,0
574,715,0,0,0,0,0,0,0,0,0,-1,1798,309,0,0
581,715,0,0,0,0,0,0,0,0,0,-1,1805,309,0,0
588,715,0,0,0,0,0,0,0,0,0,-1,1812,309,0,0
595,715,0,0,0,0,0,0,0,0,0,-1,1819,309,0,0
602,715,0,0,0,0,0,0,0,0,0,-1,1826,309,0,0
609,715,0,0,0,0,0,0,0,0,0,-1,1833,309,0,0
616,715,0,0,0,0,0,0,0,0,0,-1,1840,309,0,0
623,715,0,0,0,0,0,0,0,0,0,-1,1847,309,0,0
630,715,0,0,0,0,0,0,0,0,0,-1,1854,309,0,0
637,715,0,0,0,0,0,0,0,0,0,-1,1861,309,0,0
644,715,0,0,0,0,0,0,0,0,0,-1,1868,309,0,0
651,715,0,0,0,0,0,0,0,0,0,-1,1875,309,0,0
658,715,0,0,0,0,0,0,0,0,0,-1,1882,309,0,0
665,715,0,0,0,0,0,0,0,0,0,-1,1889,309,0,0
672,715,0,0,0,0,0,0,0,0,0,-1,1896,309,0,0
679,715,0,0,0,0,0,0,0,0,0,-1,1903,309,0,0
686,715,0,0,0,0,0,0,0,0,0,-1,1910,309,0,0
693,715,0,0,0,0,0,0,0,0,0,-1,1917,309,0,0
700,715,0,0,0,0,0,0,0,0,0,-1,1924,309,0,0
707,715,0,0,0,0,0,0,0,0,0,-1,1931,309,0,0
714,715,0,0,0,0,0,0,0,0,0,-1,1938,309,0,0
721,715,0,0,0,0,0,0,0,0,0,-1,1945,309,0,0
728,715,0,0,0,0,0,0,0,0,0,-1,1952,309,0,0
735,715,0,0,0,0,0,0,0,0,0,-1,1959,309,0,0
742,715,0,0,0,0,0,0,0,0,0,-1,1966,309,0,0
749,715,0,0,0,0,0,0,0,0,0,-1,1973,309,0,0
756,715,0,0,0,0,0,0,0,0,0,-1,1980,309,0,0
763,715,0,0,0,0,0,0,0,0,0,-1,1987,309,0,0
770,715,0,0,0,0,0,0,0,0,0,-1,1994,309,0,0
777,715,0,0,0,0,0,0,0,0,0,-1,2001,309,0,0
784,715,0,0,0,0,0,0,0,0,0,-1,2008,309,0,0
791,715,0,0,0,0,0,0,0,0,0,-1,2015,309,0,0
798,715,0,0,0,0,0,0,0,0,0,-1,2022,309,0,0
805,715,0,0,0,0,0,0,0,0,0,-1,2029,309,0,0
812,715,0,0,0,0,0,0,0,0,0,-1,2036,309,0,0
-700,708,0,0,0,0,0,0,0,0,0,-1,524,316,0,0
-693,708,0,0,0,0,0,0,0,0,0,-1,531,316,0,0
-686,708,0,0,0,0,0,0,0,0,0,-1,538,316,0,0
-679,708,0,0,0,0,0,0,0,0,0,-1,545,316,0,0
-672,708,0,0,0,0,0,0,0,0,0,-1,552,316,0,0
-665,708,0,0,0,0,0,0,0,0,0,-1,559,316,0,0
-658,708,0,0,0,0,0,0,0,0,0,-1,566,316,0,0
-651,708,0,0,0,0,0,0,0,0,0,-1,573,316,0,0
-644,708,0,0,0,0,0,0,0,0,0,-1,580,316,0,0
-637,708,0,0,0,0,0,0,0,0,0,-1,587,316,0,0
-630,708,0,0,0,0,0,0,0,0,0,-1,594,316,0,0
-623,708,0,0,0,0,0,0,0,0,0,-1,601,316,0,0
-616,708,0,0,0,0,0,0,0,0,0,-1,608,316,0,0
-609,708,0,0,0,0,0,0,0,0,0,-1,615,316,0,0
-602,708,0,0,0,0,0,0,0,0,0,-1,622,316,0,0
-595,708,0,0,0,0,0,0,0,0,0,-1,629,316,0,0
-588,708,0,0,0,0,0,0,0,0,0,-1,636,316,0,0
-581,708,0,0,0,0,0,0,0,0,0,-1,643,316,0,0
-574,708,0,0,0,0,0,0,0,0,0,-1,650,316,0,0
-567,708,0,0,0,0,0,0,0,0,0,-1,657,316,0,0
-560,708,0,0,0,0,0,0,0,0,0,-1,664,316,0,0
-553,708,0,0,0,0,0,0,0,0,0,-1,671,316,0,0
-546,708,0,0,0,0,0,0,0,0,0,-1,678,316,0,0
-539,708,0,0,0,0,0,0,0,0,0,-1,685,316,0,0
-532,708,0,0,0,0,0,0,0,0,0,-1,692,316,0,0
-525,708,0,0,0,0,0,0,0,0,0,-1,699,316,0,0
-518,708,0,0,0,0,0,0,0,0,0,-1,706,316,0,0
-511,708,0,0,0,0,0,0,0,0,0,-1,713,316,0,0
-504,708,0,0,0,0,0,0,0,0,0,-1,720,316,0,0
-497,708,0,0,0,0,0,0,0,0,0,-1,727,316,0,0
-490,708,0,0,0,0,0,0,0,0,0,-1,734,316,0,0
-483,708,0,0,0,0,0,0,0,0,0,-1,741,316,0,0
-476,708,0,0,0,0,0,0,0,0,0,-1,748,316,0,0
-469,708,0,0,0,0,0,0,0,0,0,-1,755,316,0,0
-462,708,0,0,0,0,0,0,0,0,0,-1,762,316,0,0
-455,708,0,0,0,0,0,0,0,0,0,-1,769,316,0,0
-448,708,0,0,0,0,0,0,0,0,0,-1,776,316,0,0
-441,708,0,0,0,0,0,0,0,0,0,-1,783,316,0,0
-434,708,0,0,0,0,0,0,0,0,0,-1,790,316,0,0
-427,708,0,0,0,0,0,0,0,0,0,-1,797,316,0,0
-420,708,0,0,0,0,0,0,0,0,0,-1,804,316,0,0
-413,708,0,0,0,0,0,0,0,0,0,-1,811,316,0,0
-406,708,0,0,0,0,0,0,0,0,0,-1,818,316,0,0
-399,708,0,0,0,0,0,0,0,0,0,-1,825,316,0,0
-392,708,0,0,0,0,0,0,0,0,0,-1,832,316,0,0
-385,708,0,0,0,0,0,0,0,0,0,-1,839,316,0,0
-378,708,0,0,0,0,0,0,0,0,0,-1,846,316,0,0
-371,708,0,0,0,0,0,0,0,0,0,-1,853,316,0,0
-364,708,0,0,0,0,0,0,0,0,0,-1,860,316,0,0
-357,708,0,0,0,0,0,0,0,0,0,-1,867,316,0,0
-350,708,0,0,0,0,0,0,0,0,0,-1,874,316,0,0
-343,708,0,0,0,0,0,0,0,0,0,-1,881,316,0,0
-336,708,0,0,0,0,0,0,0,0,0,-1,888,316,0,0
-329,708,0,0,0,0,0,0,0,0,0,-1,895,316,0,0
-322,708,0,0,0,0,0,0,0,0,0,-1,902,316,0,0
-315,708,0,0,0,0,0,0,0,0,0,-1,909,316,0,0
-308,708,0,0,0,0,0,0,0,0,0,-1,916,316,0,0
-301,708,0,0,0,0,0,0,0,0,0,-1,923,316,0,0
-294,708,0,0,0,0,0,0,0,0,0,-1,930,316,0,0
-287,708,0,0,0,0,0,0,0,0,0,-1,937,316,0,0
-280,708,0,0,0,0,0,0,0,0,0,-1,944,316,0,0
-273,708,0,0,0,0,0,0,0,0,0,-1,951,316,0,0
-266,708,0,0,0,0,0,0,0,0,0,-1,958,316,0,0
-259,708,0,0,0,0,0,0,0,0,0,-1,965,316,0,0
-252,708,0,0,0,0,0,0,0,0,0,-1,972,316,0,0
-245,708,0,0,0,0,0,0,0,0,0,-1,979,316,0,0
-238,708,0,0,0,0,0,0,0,0,0,-1,986,316,0,0
-231,708,0,0,0,0,0,0,0,0,0,-1,993,316,0,0
-224,708,0,0,0,0,0,0,0,0,0,-1,1000,316,0,0
-217,708,0,0,0,0,0,0,0,0,0,-1,1007,316,0,0
-210,708,0,0,0,0,0,0,0,0,0,-1,1014,316,0,0
-203,708,0,0,0,0,0,0,0,0,0,-1,1021,316,0,0
-196,708,0,0,0,0,0,0,0,0,0,-1,1028,316,0,0
-189,708,0,0,0,0,0,0,0,0,0,-1,1035,316,0,0
-182,708,0,0,0,0,0,0,0,0,0,-1,1042,316,0,0
-175,708,0,0,0,0,0,0,0,0,0,-1,1049,316,0,0
-168,708,0,0,0,0,0,0,0,0,0,-1,1056,316,0,0
-161,708,0,0,0,0,0,0,0,0,0,-1,1063,316,0,0
-154,708,0,0,0,0,0,0,0,0,0,-1,1070,316,0,0
-147,708,0,0,0,0,0,0,0,0,0,-1,1077,316,0,0
-140,708,0,0,0,0,0,0,0,0,0,-1,1084,316,0,0
-133,708,0,0,0,0,0,0,0,0,0,-1,1091,316,0,0
-126,708,0,0,0,0,0,0,0,0,0,-1,1098,316,0,0
-119,708,0,0,0,0,0,0,0,0,0,-1,1105,316,0,0
-112,708,0,0,0,0,0,0,0,0,0,-1,1112,316,0,0
-105,708,0,0,0,0,0,0,0,0,0,-1,1119,316,0,0
-98,708,0,0,0,0,0,0,0,0,0,-1,1126,316,0,0
-91,708,0,0,0,0,0,0,0,0,0,-1,1133,316,0,0
-84,708,0,0,0,0,0,0,0,0,0,-1,1140,316,0,0
-77,708,0,0,0,0,0,0,0,0,0,-1,1147,316,0,0
-70,708,0,0,0,0,0,0,0,0,0,-1,1154,316,0,0
-63,708,0,0,0,0,0,0,0,0,0,-1,1161,316,0,0
-56,708,0,0,0,0,0,0,0,0,0,-1,1168,316,0,0
-49,708,0,0,0,0,0,0,0,0,0,-1,1175,316,0,0
-42,708,0,0,0,0,0,0,0,0,0,-1,1182,316,0,0
-35,708,-0.11377,-0.185242,0,0,0,0,0,0,0,-1,1189,316,-0.113713,0.18523
-28,708,0.10791,2.38235,0,0,0,0,0,0,0,-1,1196,316,0.107911,-2.38236
-21,708,-0.374878,1.76514,-0.00809512,0.0331611,0.0353182,0.053434,-0.0283681,1.04971,0.0479619,0.0419689,1203,316,-0.374821,-1.76514
-14,708,-0.45459,2.6149,-0.00956542,0.037548,0.0377818,0.0585153,-0.0305327,1.06416,0.0522511,0.0443762,1210,316,-0.454647,-2.6149
-7,708,-0.592651,3.80969,0,0,0,0,0,0,0,-1,1217,316,-0.592614,-3.80968
0,708,3.15881,0.638885,0,0,0,0,0,0,0,-1,1224,316,3.15886,-0.638884
7,708,2.84875,-0.405304,0,0,0,0,0,0,0,-1,1231,316,2.84879,0.405317
14,708,2.43567,-0.984192,-0.00128214,0.0369524,0.0311619,0.0543937,-0.0187235,1.06054,0.0438568,0.0440307,1238,316,2.43568,0.984193
21,708,2.82581,-2.39194,0.00291579,0.0355432,0.0282552,0.051856,-0.0133971,1.0472,0.0397953,0.045292,1245,316,2.82583,2.39193
28,708,2.63892,-3.51202,0.00793234,0.0325181,0.0244309,0.0475745,-0.00712407,1.01849,0.0343382,0.0472201,1252,316,2.63893,3.51204
35,708,-1.61584,1.7543,0,0,0,0,0,0,0,-1,1259,316,-1.61583,-1.75429
42,708,-0.942627,1.01501,0.0172554,0.0357313,0.0143088,0.0435252,0.00946154,1.07204,0.0264335,0.0437621,1266,316,-0.942615,-1.01502
49,708,-0.182251,0.545654,0.0207111,0.0383604,0.0092154,0.042295,0.0167765,1.16727,0.0245923,0.0431068,1273,316,-0.182294,-0.545659
56,708,0.568726,0.0782471,0,0,0,0,0,0,0,-1,1280,316,0.568727,-0.0782457
63,708,1.04785,0.115234,0.00700219,0.0342441,-0.00180171,0.0343628,0.00688354,-1.50504,0.0209936,0.0421396,1287,316,1.04783,-0.115238
70,708,1.92664,-0.19986,0,0,0,0,0,0,0,-1,1294,316,1.92663,0.199865
77,708,-2.09229,0.750885,0,0,0,0,0,0,0,-1,1301,316,-2.09226,-0.750881
84,708,-2.72803,1.06924,-0.0244041,0.0172088,-0.0236899,0.027932,-0.0351273,-1.14574,0.0364863,0.04467,1308,316,-2.72797,-1.06923
91,708,-3.00134,1.185,-0.0439176,0.00949088,-0.0242442,0.0188546,-0.0532813,-1.20222,0.0431997,0.0435513,1315,316,-3.00135,-1.185
98,708,0.305542,1.66156,0,0,0,0,0,0,0,-1,1322,316,0.30557,-1.66155
105,708,-0.574829,1.28418,-0.0701829,-0.00761257,-0.0305764,0.00484785,-0.0826433,-1.18383,0.0567805,0.048033,1329,316,-0.574833,-1.28417
112,708,-1.46362,0.892242,-0.0740067,-0.017053,-0.0329805,-0.00195639,-0.0891033,-1.14152,0.0587609,0.0454993,1336,316,-1.4636,-0.892239
119,708,-2.50146,0.709656,-0.0744044,-0.0234555,-0.0317351,-0.0082352,-0.0896247,-1.1236,0.0572027,0.0443658,1343,316,-2.50146,-0.709645
126,708,-3.50671,0.531342,-0.0659227,-0.0300657,-0.0305625,-0.0125612,-0.0834271,-1.05066,0.0519398,0.0451163,1350,316,-3.5067,-0.531351
133,708,-4.505,0.403351,0,0,0,0,0,0,0,-1,1357,316,-4.50499,-0.40336
140,708,0.138672,0.682739,0,0,0,0,0,0,0,-1,1364,316,0.13865,-0.682733
147,708,-1.2334,1.50082,0,0,0,0,0,0,0,-1,1371,316,-1.23337,-1.50081
154,708,0,0,0,0,0,0,0,0,0,-1,1378,316,0,0
161,708,0,0,0,0,0,0,0,0,0,-1,1385,316,0,0
168,708,0,0,0,0,0,0,0,0,0,-1,1392,316,0,0
175,708,0,0,0,0,0,0,0,0,0,-1,1399,316,0,0
182,708,0,0,0,0,0,0,0,0,0,-1,1406,316,0,0
189,708,0,0,0,0,0,0,0,0,0,-1,1413,316,0,0
196,708,0,0,0,0,0,0,0,0,0,-1,1420,316,0,0
203,708,0,0,0,0,0,0,0,0,0,-1,1427,316,0,0
210,708,0,0,0,0,0,0,0,0,0,-1,1434,316,0,0
217,708,0,0,0,0,0,0,0,0,0,-1,1441,316,0,0
224,708,0,0,0,0,0,0,0,0,0,-1,1448,316,0,0
231,708,0,0,0,0,0,0,0,0,0,-1,1455,316,0,0
238,708,0,0,0,0,0,0,0,0,0,-1,1462,316,0,0
245,708,0,0,0,0,0,0,0,0,0,-1,1469,316,0,0
252,708,0,0,0,0,0,0,0,0,0,-1,1476,316,0,0
259,708,0,0,0,0,0,0,0,0,0,-1,1483,316,0,0
266,708,0,0,0,0,0,0,0,0,0,-1,1490,316,0,0
273,708,0,0,0,0,0,0,0,0,0,-1,1497,316,0,0
280,708,0,0,0,0,0,0,0,0,0,-1,1504,316,0,0
287,708,0,0,0,0,0,0,0,0,0,-1,1511,316,0,0
294,708,0,0,0,0,0,0,0,0,0,-1,1518,316,0,0
301,708,0,0,0,0,0,0,0,0,0,-1,1525,316,0,0
308,708,0,0,0,0,0,0,0,0,0,-1,1532,316,0,0
315,708,0,0,0,0,0,0,0,0,0,-1,1539,316,0,0
322,708,0,0,0,0,0,0,0,0,0,-1,1546,316,0,0
329,708,0,0,0,0,0,0,0,0,0,-1,1553,316,0,0
336,708,0,0,0,0,0,0,0,0,0,-1,1560,316,0,0
343,708,0,0,0,0,0,0,0,0,0,-1,1567,316,0,0
350,708,0,0,0,0,0,0,0,0,0,-1,1574,316,0,0
357,708,0,0,0,0,0,0,0,0,0,-1,1581,316,0,0
364,708,0,0,0,0,0,0,0,0,0,-1,1588,316,0,0
371,708,0,0,0,0,0,0,0,0,0,-1,1595,316,0,0
378,708,0,0,0,0,0,0,0,0,0,-1,1602,316,0,0
385,708,0,0,0,0,0,0,0,0,0,-1,1609,316,0,0
392,708,0,0,0,0,0,0,0,0,0,-1,1616,316,0,0
399,708,0,0,0,0,0,0,0,0,0,-1,1623,316,0,0
406,708,0,0,0,0,0,0,0,0,0,-1,1630,316,0,0
413,708,0,0,0,0,0,0,0,0,0,-1,1637,316,0,0
420,708,0,0,0,0,0,0,0,0,0,-1,1644,316,0,0
427,708,0,0,0,0,0,0,0,0,0,-1,1651,316,0,0
434,708,0,0,0,0,0,0,0,0,0,-1,1658,316,0,0
441,708,0,0,0,0,0,0,0,0,0,-1,1665,316,0,0
448,708,0,0,0,0,0,0,0,0,0,-1,1672,316,0,0
455,708,0,0,0,0,0,0,0,0,0,-1,1679,316,0,0
462,708,0,0,0,0,0,0,0,0,0,-1,1686,316,0,0
469,708,0,0,0,0,0,0,0,0,0,-1,1693,316,0,0
476,708,0,0,0,0,0,0,0,0,0,-1,1700,316,0,0
483,708,0,0,0,0,0,0,0,0,0,-1,1707,316,0,0
490,708,0,0,0,0,0,0,0,0,0,-1,1714,316,0,0
497,708,0,0,0,0,0,0,0,0,0,-1,1721,316,0,0
504,708,0,0,0,0,0,0,0,0,0,-1,1728,316,0,0
511,708,0,0,0,0,0,0,0,0,0,-1,1735,316,0,0
518,708,0,0,0,0,0,0,0,0,0,-1,1742,316,0,0
525,708,0,0,0,0,0,0,0,0,0,-1,1749,316,0,0
532,708,0,0,0,0,0,0,0,0,0,-1,1756,316,0,0
539,708,0,0,0,0,0,0,0,0,0,-1,1763,316,0,0
546,708,0,0,0,0,0,0,0,0,0,-1,1770,316,0,0
553,708,0,0,0,0,0,0,0,0,0,-1,1777,316,0,0
560,708,0,0,0,0,0,0,0,0,0,-1,1784,316,0,0
567,708,0,0,0,0,0,0,0,0,0,-1,1791,316,0,0
574,708,0,0,0,0,0,0,0,0,0,-1,1798,316,0,0
581,708,0,0,0,0,0,0,0,0,0,-1,1805,316,0,0
588,708,0,0,0,0,0,0,0,0,0,-1,1812,316,0,0
595,708,0,0,0,0,0,0,0,0,0,-1,1819,316,0,0
602,708,0,0,0,0,0,0,0,0,0,-1,1826,316,0,0
609,708,0,0,0,0,0,0,0,0,0,-1,1833,316,0,0
616,708,0,0,0,0,0,0,0,0,0,-1,1840,316,0,0
623,708,0,0,0,0,0,0,0,0,0,-1,1847,316,0,0
630,708,0,0,0,0,0,0,0,0,0,-1,1854,316,0,0
637,708,0,0,0,0,0,0,0,0,0,-1,1861,316,0,0
644,708,0,0,0,0,0,0,0,0,0,-1,1868,316,0,0
651,708,0,0,0,0,0,0,0,0,0,-1,1875,316,0,0
658,708,0,0,0,0,0,0,0,0,0,-1,1882,316,0,0
665,708,0,0,0,0,0,0,0,0,0,-1,1889,316,0,0
672,708,0,0,0,0,0,0,0,0,0,-1,1896,316,0,0
679,708,0,0,0,0,0,0,0,0,0,-1,1903,316,0,0
686,708,0,0,0,0,0,0,0,0,0,-1,1910,316,0,0
693,708,0,0,0,0,0,0,0,0,0,-1,1917,316,0,0
700,708,0,0,0,0,0,0,0,0,0,-1,1924,316,0,0
707,708,0,0,0,0,0,0,0,0,0,-1,1931,316,0,0
714,708,0,0,0,0,0,0,0,0,0,-1,1938,316,0,0
721,708,0,0,0,0,0,0,0,0,0,-1,1945,316,0,0
728,708,0,0,0,0,0,0,0,0,0,-1,1952,316,0,0
735,708,0,0,0,0,0,0,0,0,0,-1,1959,316,0,0
742,708,0,0,0,0,0,0,0,0,0,-1,1966,316,0,0
749,708,0,0,0,0,0,0,0,0,0,-1,1973,316,0,0
756,708,0,0,0,0,0,0,0,0,0,-1,1980,316,0,0
763,708,0,0,0,0,0,0,0,0,0,-1,1987,316,0,0
770,708,0,0,0,0,0,0,0,0,0,-1,1994,316,0,0
777,708,0,0,0,0,0,0,0,0,0,-1,2001,316,0,0
784,708,0,0,0,0,0,0,0,0,0,-1,2008,316,0,0
791,708,0,0,0,0,0,0,0,0,0,-1,2015,316,0,0
798,708,0,0,0,0,0,0,0,0,0,-1,2022,316,0,0
805,708,0,0,0,0,0,0,0,0,0,-1,2029,316,0,0
812,708,0,0,0,0,0,0,0,0,0,-1,2036,316,0,0
-700,701,0,0,0,0,0,0,0,0,0,-1,524,323,0,0
-693,701,0,0,0,0,0,0,0,0,0,-1,531,323,0,0
-686,701,0,0,0,0,0,0,0,0,0,-1,538,323,0,0
-679,701,0,0,0,0,0,0,0,0,0,-1,545,323,0,0
-672,701,0,0,0,0,0,0,0,0,0,-1,552,323,0,0
-665,701,0,0,0,0,0,0,0,0,0,-1,559,323,0,0
-658,701,0,0,0,0,0,0,0,0,0,-1,566,323,0,0
-651,701,0,0,0,0,0,0,0,0,0,-1,573,323,0,0
-644,701,0,0,0,0,0,0,0,0,0,-1,580,323,0,0
-637,701,0,0,0,0,0,0,0,0,0,-1,587,323,0,0
-630,701,0,0,0,0,0,0,0,0,0,-1,594,323,0,0
-623,701,0,0,0,0,0,0,0,0,0,-1,601,323,0,0
-616,701,0,0,0,0,0,0,0,0,0,-1,608,323,0,0
-609,701,0,0,0,0,0,0,0,0,0,-1,615,323,0,0
-602,701,0,0,0,0,0,0,0,0,0,-1,622,323,0,0
-595,701,0,0,0,0,0,0,0,0,0,-1,629,323,0,0
-588,701,0,0,0,0,0,0,0,0,0,-1,636,323,0,0
-581,701,0,0,0,0,0,0,0,0,0,-1,643,323,0,0
-574,701,0,0,0,0,0,0,0,0,0,-1,650,323,0,0
-567,701,0,0,0,0,0,0,0,0,0,-1,657,323,0,0
-560,701,0,0,0,0,0,0,0,0,0,-1,664,323,0,0
-553,701,0,0,0,0,0,0,0,0,0,-1,671,323,0,0
-546,701,0,0,0,0,0,0,0,0,0,-1,678,323,0,0
-539,701,0,0,0,0,0,0,0,0,0,-1,685,323,0,0
-532,701,0,0,0,0,0,0,0,0,0,-1,692,323,0,0
-525,701,0,0,0,0,0,0,0,0,0,-1,699,323,0,0
-518,701,0,0,0,0,0,0,0,0,0,-1,706,323,0,0
-511,701,0,0,0,0,0,0,0,0,0,-1,713,323,0,0
-504,701,0,0,0,0,0,0,0,0,0,-1,720,323,0,0
-497,701,0,0,0,0,0,0,0,0,0,-1,727,323,0,0
-490,701,0,0,0,0,0,0,0,0,0,-1,734,323,0,0
-483,701,0,0,0,0,0,0,0,0,0,-1,741,323,0,0
-476,701,0,0,0,0,0,0,0,0,0,-1,748,323,0,0
-469,701,0,0,0,0,0,0,0,0,0,-1,755,323,0,0
-462,701,0,0,0,0,0,0,0,0,0,-1,762,323,0,0
-455,701,0,0,0,0,0,0,0,0,0,-1,769,323,0,0
-448,701,0,0,0,0,0,0,0,0,0,-1,776,323,0,0
-441,701,0,0,0,0,0,0,0,0,0,-1,783,323,0,0
-434,701,0,0,0,0,0,0,0,0,0,-1,790,323,0,0
-427,701,0,0,0,0,0,0,0,0,0,-1,797,323,0,0
-420,701,0,0,0,0,0,0,0,0,0,-1,804,323,0,0
-413,701,0,0,0,0,0,0,0,0,0,-1,811,323,0,0
-406,701,0,0,0,0,0,0,0,0,0,-1,818,323,0,0
-399,701,0,0,0,0,0,0,0,0,0,-1,825,323,0,0
-392,701,0,0,0,0,0,0,0,0,0,-1,832,323,0,0
-385,701,0,0,0,0,0,0,0,0,0,-1,839,323,0,0
-378,701,0,0,0,0,0,0,0,0,0,-1,846,323,0,0
-371,701,0,0,0,0,0,0,0,0,0,-1,853,323,0,0
-364,701,0,0,0,0,0,0,0,0,0,-1,860,323,0,0
-357,701,0,0,0,0,0,0,0,0,0,-1,867,323,0,0
-350,701,0,0,0,0,0,0,0,0,0,-1,874,323,0,0
-343,701,0,0,0,0,0,0,0,0,0,-1,881,323,0,0
-336,701,0,0,0,0,0,0,0,0,0,-1,888,323,0,0
-329,701,0,0,0,0,0,0,0,0,0,-1,895,323,0,0
-322,701,0,0,0,0,0,0,0,0,0,-1,902,323,0,0
-315,701,0,0,0,0,0,0,0,0,0,-1,909,323,0,0
-308,701,0,0,0,0,0,0,0,0,0,-1,916,323,0,0
-301,701,0,0,0,0,0,0,0,0,0,-1,923,323,0,0
-294,701,0,0,0,0,0,0,0,0,0,-1,930,323,0,0
-287,701,0,0,0,0,0,0,0,0,0,-1,937,323,0,0
-280,701,0,0,0,0,0,0,0,0,0,-1,944,323,0,0
-273,701,0,0,0,0,0,0,0,0,0,-1,951,323,0,0
-266,701,0,0,0,0,0,0,0,0,0,-1,958,323,0,0
-259,701,0,0,0,0,0,0,0,0,0,-1,965,323,0,0
-252,701,0,0,0,0,0,0,0,0,0,-1,972,323,0,0
-245,701,0,0,0,0,0,0,0,0,0,-1,979,323,0,0
-238,701,0,0,0,0,0,0,0,0,0,-1,986,323,0,0
-231,701,0,0,0,0,0,0,0,0,0,-1,993,323,0,0
-224,701,0,0,0,0,0,0,0,0,0,-1,1000,323,0,0
-217,701,0,0,0,0,0,0,0,0,0,-1,1007,323,0,0
-210,701,0,0,0,0,0,0,0,0,0,-1,1014,323,0,0
-203,701,0,0,0,0,0,0,0,0,0,-1,1021,323,0,0
-196,701,0,0,0,0,0,0,0,0,0,-1,1028,323,0,0
-189,701,0,0,0,0,0,0,0,0,0,-1,1035,323,0,0
-182,701,0,0,0,0,0,0,0,0,0,-1,1042,323,0,0
-175,701,0,0,0,0,0,0,0,0,0,-1,1049,323,0,0
-168,701,0,0,0,0,0,0,0,0,0,-1,1056,323,0,0
-161,701,0,0,0,0,0,0,0,0,0,-1,1063,323,0,0
-154,701,0,0,0,0,0,0,0,0,0,-1,1070,323,0,0
-147,701,0,0,0,0,0,0,0,0,0,-1,1077,323,0,0
-140,701,0,0,0,0,0,0,0,0,0,-1,1084,323,0,0
-133,701,0,0,0,0,0,0,0,0,0,-1,1091,323,0,0
-126,701,0,0,0,0,0,0,0,0,0,-1,1098,323,0,0
-119,701,0,0,0,0,0,0,0,0,0,-1,1105,323,0,0
-112,701,0,0,0,0,0,0,0,0,0,-1,1112,323,0,0
-105,701,0,0,0,0,0,0,0,0,0,-1,1119,323,0,0
-98,701,0,0,0,0,0,0,0,0,0,-1,1126,323,0,0
-91,701,0,0,0,0,0,0,0,0,0,-1,1133,323,0,0
-84,701,0,0,0,0,0,0,0,0,0,-1,1140,323,0,0
-77,701,0,0,0,0,0,0,0,0,0,-1,1147,323,0,0
-70,701,-0.827271,-1.11841,-0.0162278,-0.00289341,0.000432706,-0.00287938,-0.0162419,1.53839,0.0100072,0.0439548,1154,323,-0.827239,1.11842
-63,701,-0.923218,-1.19907,0,0,0,0,0,0,0,-1,1161,323,-0.923273,1.19906
-56,701,0.0759277,-0.118225,-0.0106348,0.00880954,0.0109509,0.0137312,-0.0155565,1.14841,0.0169202,0.0451425,1168,323,0.0758731,0.118234
-49,701,-0.0523682,-0.220459,-0.00571688,0.0145821,0.0158773,0.0232768,-0.0144115,1.06979,0.0219591,0.043577,1175,323,-0.0524208,0.220452
-42,701,-0.0700684,-0.304138,-0.0022639,0.0201187,0.0191067,0.0310704,-0.0132156,1.05033,0.026252,0.0433483,1182,323,-0.0700801,0.304147
-35,701,-0.111572,-0.176575,0.00105132,0.0253449,0.0191476,0.0358736,-0.00947731,1.06806,0.0276222,0.0465717,1189,323,-0.111525,0.176587
-28,701,-0.0323486,1.75296,0.000386467,0.0294473,0.0209851,0.0404415,-0.0106077,1.08821,0.0311058,0.0496761,1196,323,-0.032353,-1.75296
-21,701,-0.338623,1.56314,-0.00432567,0.0312723,0.0277289,0.0464232,-0.0194765,1.07073,0.0390931,0.0419097,1203,323,-0.338622,-1.56313
-14,701,-0.597778,2.45242,-0.0053892,0.0344415,0.0296208,0.0502195,-0.0211672,1.08136,0.0423376,0.0443048,1210,323,-0.597722,-2.45243
-7,701,-0.879639,3.45618,0,0,0,0,0,0,0,-1,1217,323,-0.879692,-3.45616
0,701,2.59314,0.756989,-0.0038458,0.0330138,0.0266369,0.0469751,-0.0178071,1.08803,0.0386451,0.045265,1224,323,2.59316,-0.756982
7,701,2.34656,-0.356659,-0.00337694,0.0316396,0.0254161,0.0449942,-0.0167316,1.087,0.0368616,0.0435452,1231,323,2.34656,0.356664
14,701,2.14746,-1.46606,-0.000363648,0.0304361,0.0236743,0.0432786,-0.0132061,1.07376,0.0341173,0.045575,1238,323,2.14743,1.46607
21,701,2.00171,-2.7117,0.00234635,0.0285908,0.021129,0.0403408,-0.00940364,1.06328,0.0305153,0.0441463,1245,323,2.00168,2.7117
28,701,-3.61218,-0.175354,0.00557437,0.0255468,0.0179442,0.0360963,-0.00497519,1.03931,0.0258825,0.0441078,1252,323,-3.61213,0.175359
35,701,-1.58667,1.18787,0,0,0,0,0,0,0,-1,1259,323,-1.58666,-1.18786
42,701,-0.89978,0.889862,0.0123369,0.0279726,0.00989609,0.0327663,0.0075432,1.1197,0.0198143,0.0442967,1266,323,-0.899835,-0.889874
49,701,-0.139893,0.442444,0.0145335,0.030455,0.00593061,0.0324212,0.0125672,1.25065,0.0188753,0.0421495,1273,323,-0.13995,-0.442448
56,701,0.448364,0.102753,0.0112714,0.029799,0.000942737,0.0298469,0.0112235,1.52009,0.0174077,0.0414972,1280,323,0.448338,-0.102742
63,701,0.88501,-0.102356,0.0042035,0.0287805,-0.00246164,0.0290246,0.00395937,-1.47194,0.0181743,0.0414514,1287,323,0.885007,0.102362
70,701,1.35925,-0.234772,0,0,0,0,0,0,0,-1,1294,323,1.35919,0.234777
77,701,-1.62939,0.556885,-0.0126532,0.0201616,-0.0107941,0.0233938,-0.0158854,-1.27985,0.0228155,0.0472233,1301,323,-1.62942,-0.556872
84,701,-2.31628,0.605621,-0.0203447,0.0168654,-0.0195769,0.0252678,-0.0287471,-1.16537,0.0312071,0.0456601,1308,323,-2.31624,-0.605628
91,701,-2.72546,0.504486,-0.0350668,0.0110964,-0.0200046,0.0185589,-0.0425293,-1.21374,0.036163,0.042573,1315,323,-2.72546,-0.504494
98,701,-3.29321,0.584106,0,0,0,0,0,0,0,-1,1322,323,-3.29326,-0.584105
105,701,-0.208618,1.89532,-0.0533385,-0.00210365,-0.0255982,0.00849382,-0.063936,-1.17829,0.045719,0.0498522,1329,323,-0.208633,-1.89533
112,701,-1.1261,1.34882,-0.0557646,-0.00910612,-0.0273678,0.00352642,-0.0683972,-1.13835,0.0468179,0.0464238,1336,323,-1.12612,-1.34882
119,701,-2.27368,1.19287,-0.0553714,-0.014034,-0.0262741,-0.00127327,-0.0681321,-1.11867,0.045003,0.042834,1343,323,-2.27373,-1.19287
126,701,-2.29736,1.33472,-0.0482476,-0.0190348,-0.0252121,-0.00450362,-0.0627787,-1.04794,0.040435,0.0480391,1350,323,-2.29734,-1.33471
133,701,-2.21411,1.21432,0,0,0,0,0,0,0,-1,1357,323,-2.21414,-1.21432
140,701,-0.287476,0.0588989,0,0,0,0,0,0,0,-1,1364,323,-0.287488,-0.0588913
147,701,0.296631,-1.73102,0,0,0,0,0,0,0,-1,1371,323,0.296611,1.73102
154,701,-0.0784912,-1.09464,0,0,0,0,0,0,0,-1,1378,323,-0.0785426,1.09464
161,701,-0.209473,-0.915955,0,0,0,0,0,0,0,-1,1385,323,-0.209501,0.91594
168,701,-0.177856,0.326172,0.00377822,-0.0153813,-0.00269927,0.00415124,-0.0157543,-0.137324,0.0121258,0.0454781,1392,323,-0.177845,-0.326158
175,701,-0.111084,1.6662,0,0,0,0,0,0,0,-1,1399,323,-0.111126,-1.66619
182,701,0.0140381,0.649078,0,0,0,0,0,0,0,-1,1406,323,0.0140229,-0.649067
189,701,-0.0268555,0.408051,0,0,0,0,0,0,0,-1,1413,323,-0.0268942,-0.40806
196,701,0,0,0,0,0,0,0,0,0,-1,1420,323,0,0
203,701,0,0,0,0,0,0,0,0,0,-1,1427,323,0,0
210,701,0,0,0,0,0,0,0,0,0,-1,1434,323,0,0
217,701,0,0,0,0,0,0,0,0,0,-1,1441,323,0,0
224,701,0,0,0,0,0,0,0,0,0,-1,1448,323,0,0
231,701,0,0,0,0,0,0,0,0,0,-1,1455,323,0,0
238,701,0,0,0,0,0,0,0,0,0,-1,1462,323,0,0
245,701,0,0,0,0,0,0,0,0,0,-1,1469,323,0,0
252,701,0,0,0,0,0,0,0,0,0,-1,1476,323,0,0
259,701,0,0,0,0,0,0,0,0,0,-1,1483,323,0,0
266,701,0,0,0,0,0,0,0,0,0,-1,1490,323,0,0
273,701,0,0,0,0,0,0,0,0,0,-1,1497,323,0,0
280,701,0,0,0,0,0,0,0,0,0,-1,1504,323,0,0
287,701,0,0,0,0,0,0,0,0,0,-1,1511,323,0,0
294,701,0,0,0,0,0,0,0,0,0,-1,1518,323,0,0
301,701,0,0,0,0,0,0,0,0,0,-1,1525,323,0,0
308,701,0,0,0,0,0,0,0,0,0,-1,1532,323,0,0
315,701,0,0,0,0,0,0,0,0,0,-1,1539,323,0,0
322,701,0,0,0,0,0,0,0,0,0,-1,1546,323,0,0
329,701,0,0,0,0,0,0,0,0,0,-1,1553,323,0,0
336,701,0,0,0,0,0,0,0,0,0,-1,1560,323,0,0
343,701,0,0,0,0,0,0,0,0,0,-1,1567,323,0,0
350,701,0,0,0,0,0,0,0,0,0,-1,1574,323,0,0
357,701,0,0,0,0,0,0,0,0,0,-1,1581,323,0,0
364,701,0,0,0,0,0,0,0,0,0,-1,1588,323,0,0
371,701,0,0,0,0,0,0,0,0,0,-1,1595,323,0,0
378,701,0,0,0,0,0,0,0,0,0,-1,1602,323,0,0
385,701,0,0,0,0,0,0,0,0,0,-1,1609,323,0,0
392,701,0,0,0,0,0,0,0,0,0,-1,1616,323,0,0
399,701,0,0,0,0,0,0,0,0,0,-1,1623,323,0,0
406,701,0,0,0,0,0,0,0,0,0,-1,1630,323,0,0
413,701,0,0,0,0,0,0,0,0,0,-1,1637,323,0,0
420,701,0,0,0,0,0,0,0,0,0,-1,1644,323,0,0
427,701,0,0,0,0,0,0,0,0,0,-1,1651,323,0,0
434,701,0,0,0,0,0,0,0,0,0,-1,1658,323,0,0
441,701,0,0,0,0,0,0,0,0,0,-1,1665,323,0,0
448,701,0,0,0,0,0,0,0,0,0,-1,1672,323,0,0
455,701,0,0,0,0,0,0,0,0,0,-1,1679,323,0,0
462,701,0,0,0,0,0,0,0,0,0,-1,1686,323,0,0
469,701,0,0,0,0,0,0,0,0,0,-1,1693,323,0,0
476,701,0,0,0,0,0,0,0,0,0,-1,1700,323,0,0
483,701,0,0,0,0,0,0,0,0,0,-1,1707,323,0,0
490,701,0,0,0,0,0,0,0,0,0,-1,1714,323,0,0
497,701,0,0,0,0,0,0,0,0,0,-1,1721,323,0,0
504,701,0,0,0,0,0,0,0,0,0,-1,1728,323,0,0
511,701,0,0,0,0,0,0,0,0,0,-1,1735,323,0,0
518,701,0,0,0,0,0,0,0,0,0,-1,1742,323,0,0
525,701,0,0,0,0,0,0,0,0,0,-1,1749,323,0,0
532,701,0,0,0,0,0,0,0,0,0,-1,1756,323,0,0
539,701,0,0,0,0,0,0,0,0,0,-1,1763,323,0,0
546,701,0,0,0,0,0,0,0,0,0,-1,1770,323,0,0
553,701,0,0,0,0,0,0,0,0,0,-1,1777,323,0,0
560,701,0,0,0,0,0,0,0,0,0,-1,1784,323,0,0
567,701,0,0,0,0,0,0,0,0,0,-1,1791,323,0,0
574,701,0,0,0,0,0,0,0,0,0,-1,1798,323,0,0
581,701,0,0,0,0,0,0,0,0,0,-1,1805,323,0,0
588,701,0,0,0,0,0,0,0,0,0,-1,1812,323,0,0
595,701,0,0,0,0,0,0,0,0,0,-1,1819,323,0,0
602,701,0,0,0,0,0,0,0,0,0,-1,1826,323,0,0
609,701,0,0,0,0,0,0,0,0,0,-1,1833,323,0,0
616,701,0,0,0,0,0,0,0,0,0,-1,1840,323,0,0
623,701,0,0,0,0,0,0,0,0,0,-1,1847,323,0,0
630,701,0,0,0,0,0,0,0,0,0,-1,1854,323,0,0
637,701,0,0,0,0,0,0,0,0,0,-1,1861,323,0,0
644,701,0,0,0,0,0,0,0,0,0,-1,1868,323,0,0
651,701,0,0,0,0,0,0,0,0,0,-1,1875,323,0,0
658,701,0,0,0,0,0,0,0,0,0,-1,1882,323,0,0
665,701,0,0,0,0,0,0,0,0,0,-1,1889,323,0,0
672,701,0,0,0,0,0,0,0,0,0,-1,1896,323,0,0
679,701,0,0,0,0,0,0,0,0,0,-1,1903,323,0,0
686,701,0,0,0,0,0,0,0,0,0,-1,1910,323,0,0
693,701,0,0,0,0,0,0,0,0,0,-1,1917,323,0,0
700,701,0,0,0,0,0,0,0,0,0,-1,1924,323,0,0
707,701,0,0,0,0,0,0,0,0,0,-1,1931,323,0,0
714,701,0,0,0,0,0,0,0,0,0,-1,1938,323,0,0
721,701,0,0,0,0,0,0,0,0,0,-1,1945,323,0,0
728,701,0,0,0,0,0,0,0,0,0,-1,1952,323,0,0
735,701,0,0,0,0,0,0,0,0,0,-1,1959,323,0,0
742,701,0,0,0,0,0,0,0,0,0,-1,1966,323,0,0
749,701,0,0,0,0,0,0,0,0,0,-1,1973,323,0,0
756,701,0,0,0,0,0,0,0,0,0,-1,1980,323,0,0
763,701,0,0,0,0,0,0,0,0,0,-1,1987,323,0,0
770,701,0,0,0,0,0,0,0,0,0,-1,1994,323,0,0
777,701,0,0,0,0,0,0,0,0,0,-1,2001,323,0,0
784,701,0,0,0,0,0,0,0,0,0,-1,2008,323,0,0
791,701,0,0,0,0,0,0,0,0,0,-1,2015,323,0,0
798,701,0,0,0,0,0,0,0,0,0,-1,2022,323,0,0
805,701,0,0,0,0,0,0,0,0,0,-1,2029,323,0,0
812,701,0,0,0,0,0,0,0,0,0,-1,2036,323,0,0
-700,694,0,0,0,0,0,0,0,0,0,-1,524,330,0,0
-693,694,0,0,0,0,0,0,0,0,0,-1,531,330,0,0
-686,694,0,0,0,0,0,0,0,0,0,-1,538,330,0,0
-679,694,0,0,0,0,0,0,0,0,0,-1,545,330,0,0
-672,694,0,0,0,0,0,0,0,0,0,-1,552,330,0,0
-665,694,0,0,0,0,0,0,0,0,0,-1,559,330,0,0
-658,694,0,0,0,0,0,0,0,0,0,-1,566,330,0,0
-651,694,0,0,0,0,0,0,0,0,0,-1,573,330,0,0
-644,694,0,0,0,0,0,0,0,0,0,-1,580,330,0,0
-637,694,0,0,0,0,0,0,0,0,0,-1,587,330,0,0
-630,694,0,0,0,0,0,0,0,0,0,-1,594,330,0,0
-623,694,0,0,0,0,0,0,0,0,0,-1,601,330,0,0
-616,694,0,0,0,0,0,0,0,0,0,-1,608,330,0,0
-609,694,0,0,0,0,0,0,0,0,0,-1,615,330,0,0
-602,694,0,0,0,0,0,0,0,0,0,-1,622,330,0,0
-595,694,0,0,0,0,0,0,0,0,0,-1,629,330,0,0
-588,694,0,0,0,0,0,0,0,0,0,-1,636,330,0,0
-581,694,0,0,0,0,0,0,0,0,0,-1,643,330,0,0
-574,694,0,0,0,0,0,0,0,0,0,-1,650,330,0,0
-567,694,0,0,0,0,0,0,0,0,0,-1,657,330,0,0
-560,694,0,0,0,0,0,0,0,0,0,-1,664,330,0,0
-553,694,0,0,0,0,0,0,0,0,0,-1,671,330,0,0
-546,694,0,0,0,0,0,0,0,0,0,-1,678,330,0,0
-539,694,0,0,0,0,0,0,0,0,0,-1,685,330,0,0
-532,694,0,0,0,0,0,0,0,0,0,-1,692,330,0,0
-525,694,0,0,0,0,0,0,0,0,0,-1,699,330,0,0
-518,694,0,0,0,0,0,0,0,0,0,-1,706,330,0,0
-511,694,0,0,0,0,0,0,0,0,0,-1,713,330,0,0
-504,694,0,0,0,0,0,0,0,0,0,-1,720,330,0,0
-497,694,0,0,0,0,0,0,0,0,0,-1,727,330,0,0
-490,694,0,0,0,0,0,0,0,0,0,-1,734,330,0,0
-483,694,0,0,0,0,0,0,0,0,0,-1,741,330,0,0
-476,694,0,0,0,0,0,0,0,0,0,-1,748,330,0,0
-469,694,0,0,0,0,0,0,0,0,0,-1,755,330,0,0
-462,694,0,0,0,0,0,0,0,0,0,-1,762,330,0,0
-455,694,0,0,0,0,0,0,0,0,0,-1,769,330,0,0
-448,694,0,0,0,0,0,0,0,0,0,-1,776,330,0,0
-441,694,0,0,0,0,0,0,0,0,0,-1,783,330,0,0
-434,694,0,0,0,0,0,0,0,0,0,-1,790,330,0,0
-427,694,0,0,0,0,0,0,0,0,0,-1,797,330,0,0
-420,694,0,0,0,0,0,0,0,0,0,-1,804,330,0,0
-413,694,0,0,0,0,0,0,0,0,0,-1,811,330,0,0
-406,694,0,0,0,0,0,0,0,0,0,-1,818,330,0,0
-399,694,0,0,0,0,0,0,0,0,0,-1,825,330,0,0
-392,694,0,0,0,0,0,0,0,0,0,-1,832,330,0,0
-385,694,0,0,0,0,0,0,0,0,0,-1,839,330,0,0
-378,694,0,0,0,0,0,0,0,0,0,-1,846,330,0,0
-371,694,0,0,0,0,0,0,0,0,0,-1,853,330,0,0
-364,694,0,0,0,0,0,0,0,0,0,-1,860,330,0,0
-357,694,0,0,0,0,0,0,0,0,0,-1,867,330,0,0
-350,694,0,0,0,0,0,0,0,0,0,-1,874,330,0,0
-343,694,0,0,0,0,0,0,0,0,0,-1,881,330,0,0
-336,694,0,0,0,0,0,0,0,0,0,-1,888,330,0,0
-329,694,0,0,0,0,0,0,0,0,0,-1,895,330,0,0
-322,694,0,0,0,0,0,0,0,0,0,-1,902,330,0,0
-315,694,0,0,0,0,0,0,0,0,0,-1,909,330,0,0
-308,694,0,0,0,0,0,0,0,0,0,-1,916,330,0,0
-301,694,0,0,0,0,0,0,0,0,0,-1,923,330,0,0
-294,694,0,0,0,0,0,0,0,0,0,-1,930,330,0,0
-287,694,0,0,0,0,0,0,0,0,0,-1,937,330,0,0
-280,694,0,0,0,0,0,0,0,0,0,-1,944,330,0,0
-273,694,0,0,0,0,0,0,0,0,0,-1,951,330,0,0
-266,694,0,0,0,0,0,0,0,0,0,-1,958,330,0,0
-259,694,0,0,0,0,0,0,0,0,0,-1,965,330,0,0
-252,694,0,0,0,0,0,0,0,0,0,-1,972,330,0,0
-245,694,0,0,0,0,0,0,0,0,0,-1,979,330,0,0
-238,694,0,0,0,0,0,0,0,0,0,-1,986,330,0,0
-231,694,0,0,0,0,0,0,0,0,0,-1,993,330,0,0
-224,694,0,0,0,0,0,0,0,0,0,-1,1000,330,0,0
-217,694,0,0,0,0,0,0,0,0,0,-1,1007,330,0,0
-210,694,0,0,0,0,0,0,0,0,0,-1,1014,330,0,0
-203,694,0,0,0,0,0,0,0,0,0,-1,1021,330,0,0
-196,694,0,0,0,0,0,0,0,0,0,-1,1028,330,0,0
-189,694,0,0,0,0,0,0,0,0,0,-1,1035,330,0,0
-182,694,0,0,0,0,0,0,0,0,0,-1,1042,330,0,0
-175,694,0,0,0,0,0,0,0,0,0,-1,1049,330,0,0
-168,694,0,0,0,0,0,0,0,0,0,-1,1056,330,0,0
-161,694,0,0,0,0,0,0,0,0,0,-1,1063,330,0,0
-154,694,0,0,0,0,0,0,0,0,0,-1,1070,330,0,0
-147,694,0,0,0,0,0,0,0,0,0,-1,1077,330,0,0
-140,694,0,0,0,0,0,0,0,0,0,-1,1084,330,0,0
-133,694,0,0,0,0,0,0,0,0,0,-1,1091,330,0,0
-126,694,0,0,0,0,0,0,0,0,0,-1,1098,330,0,0
-119,694,0,0,0,0,0,0,0,0,0,-1,1105,330,0,0
-112,694,0,0,0,0,0,0,0,0,0,-1,1112,330,0,0
-105,694,0.129272,-0.0530396,0,0,0,0,0,0,0,-1,1119,330,0.129262,0.053032
-98,694,0.115479,-0.433899,0,0,0,0,0,0,0,-1,1126,330,0.115513,0.433903
-91,694,0.0567627,0.0188599,-0.00608057,-0.01106,-0.00724829,-0.000906301,-0.0162342,-0.619968,0.0105337,0.0374956,1133,330,0.0568158,-0.018853
-84,694,-0.0302734,0.332764,-0.00936425,-0.010048,-0.00521809,-0.00447683,-0.0149354,-0.752688,0.00885047,0.0403665,1140,330,-0.0302417,-0.332766
-77,694,0.0174561,0.114624,-0.0118323,-0.0052958,-0.00304008,-0.00410047,-0.0130276,-1.19617,0.00769166,0.0400471,1147,330,0.017517,-0.114615
-70,694,-0.690063,-0.844482,-0.0119073,0.000195394,-0.000518382,0.000217556,-0.0119295,-1.52807,0.0080265,0.0417105,1154,330,-0.690101,0.84448
-63,694,-0.480469,-0.616302,0,0,0,0,0,0,0,-1,1161,330,-0.480524,0.616314
-56,694,-0.0762939,-0.121429,-0.00748364,0.0101612,0.00813294,0.0133379,-0.0106604,1.19842,0.0138841,0.0466421,1168,330,-0.0762706,0.121415
-49,694,-0.0965576,-0.230743,-0.00306465,0.0151524,0.0120729,0.0211674,-0.0090796,1.10857,0.0179219,0.0470151,1175,330,-0.0965357,0.230735
-42,694,-0.0512695,-0.243835,-0.000363814,0.0194968,0.0145961,0.0272203,-0.00808729,1.0841,0.0213592,0.0452158,1182,330,-0.0512853,0.243834
-35,694,-0.083252,-0.154785,0.00210159,0.023573,0.0149075,0.0312081,-0.00553359,1.09746,0.0228742,0.0450849,1189,330,-0.0832137,0.154789
-28,694,-0.179443,0.953827,0.00152826,0.026758,0.0167256,0.0350926,-0.00680634,1.1085,0.0259629,0.0468344,1196,330,-0.179436,-0.953835
-21,694,-0.184448,1.22614,-0.00201152,0.0280262,0.0217542,0.0394424,-0.0134277,1.08752,0.0317324,0.0449512,1203,330,-0.184478,-1.22615
-14,694,-0.231812,1.45383,0,0,0,0,0,0,0,-1,1210,330,-0.231838,-1.45383
-7,694,0.562378,1.14426,-0.00274171,0.0289729,0.0219815,0.0402199,-0.0139887,1.09787,0.0324958,0.0442538,1217,330,0.562424,-1.14427
0,694,1.25623,1.15851,-0.00190753,0.0278324,0.0207388,0.0384813,-0.0125564,1.09642,0.0307077,0.0458776,1224,330,1.2562,-1.15852
7,694,1.79419,-0.357483,-0.00174063,0.0260356,0.0195101,0.0360959,-0.0118008,1.09471,0.0288146,0.0416165,1231,330,1.79414,0.357492
14,694,1.51587,-1.63754,0.000240289,0.0245503,0.0179384,0.0340639,-0.00927336,1.08316,0.0263501,0.0445781,1238,330,1.51592,1.63755
21,694,1.0675,-2.95343,0.00193913,0.0225385,0.0157529,0.03106,-0.00658234,1.07493,0.023214,0.0464442,1245,330,1.06748,2.95343
28,694,-3.02405,0.0740356,0.0039407,0.0196805,0.0131344,0.0271223,-0.00350106,1.05531,0.0193544,0.0456668,1252,330,-3.02406,-0.0740454
35,694,-1.85425,0.172546,0.00645603,0.019115,0.0104608,0.0250122,0.000558863,1.05747,0.0164916,0.0427448,1259,330,-1.8542,-0.172542
42,694,-0.788208,0.297638,0.00866472,0.0214636,0.00677974,0.0243871,0.00574118,1.16367,0.0147223,0.0454884,1266,330,-0.788216,-0.297634
49,694,-0.10083,0.335907,0.00996331,0.0236743,0.0037016,0.0246098,0.0090278,1.32325,0.0143754,0.0461427,1273,330,-0.100852,-0.335895
56,694,0.317749,0.0469666,0.00751657,0.0236839,-6.74958e-05,0.0236841,0.00751629,-1.56662,0.0139748,0.0449158,1280,330,0.317801,-0.0469585
63,694,0.572876,-0.0584717,0.00233558,0.0235695,-0.00268322,0.0239033,0.00200177,-1.44702,0.0153119,0.0444029,1287,330,0.572908,0.0584679
70,694,-0.42334,0.165131,0,0,0,0,0,0,0,-1,1294,330,-0.423321,-0.165121
77,694,-1.12378,0.336792,0,0,0,0,0,0,0,-1,1301,330,-1.1238,-0.336797
84,694,-1.73157,0.513092,0,0,0,0,0,0,0,-1,1308,330,-1.7316,-0.513089
91,694,-2.18323,-0.0410156,0,0,0,0,0,0,0,-1,1315,330,-2.18322,0.0410072
98,694,-2.16528,0.828308,0,0,0,0,0,0,0,-1,1322,330,-2.16524,-0.828306
105,694,-2.07397,1.21356,0,0,0,0,0,0,0,-1,1329,330,-2.07401,-1.21355
112,694,-1.67285,1.02231,-0.04129,-0.00387682,-0.0223995,0.00660006,-0.0517669,-1.1333,0.0369085,0.0427369,1336,330,-1.67289,-1.02231
119,694,-2.11792,1.36517,-0.0404887,-0.00765641,-0.0214502,0.00293854,-0.0510836,-1.11201,0.0350763,0.0404531,1343,330,-2.1179,-1.36518
126,694,-2.47253,1.28519,-0.034709,-0.0114367,-0.0204939,0.000494054,-0.0466397,-1.0436,0.0312592,0.0434101,1350,330,-2.47252,-1.28518
133,694,-2.79346,1.14093,0,0,0,0,0,0,0,-1,1357,330,-2.79347,-1.14094
140,694,-0.981201,2.13651,0,0,0,0,0,0,0,-1,1364,330,-0.981157,-2.1365
147,694,-0.296265,0.76358,-0.0145976,-0.0164831,-0.0143877,-0.0011218,-0.0299589,-0.752683,0.0196093,0.0437545,1371,330,-0.296291,-0.763572
154,694,0.599731,-1.77905,-0.00939924,-0.0143577,-0.0105235,-0.00106683,-0.0226901,-0.669714,0.0147839,0.0472017,1378,330,0.599705,1.77905
161,694,0.197388,-0.954773,-0.0028481,-0.0111899,-0.00596592,0.000260333,-0.0142983,-0.480331,0.00962016,0.0458649,1385,330,0.197332,0.95477
168,694,-0.0512695,0.0210571,0.00391893,-0.00900824,-0.00260826,0.00442535,-0.00951466,-0.191773,0.00822512,0.0473629,1392,330,-0.051279,-0.0210475
175,694,-0.158569,0.524475,0,0,0,0,0,0,0,-1,1399,330,-0.158578,-0.524489
182,694,-0.114014,0.636322,0,0,0,0,0,0,0,-1,1406,330,-0.11396,-0.63633
189,694,-0.0576172,0.439362,0.00845187,-0.00253804,0.00631039,0.0113244,-0.00541061,0.427181,0.00986103,0.0426381,1413,330,-0.0576143,-0.439352
196,694,-0.02771,0.185822,0.00697027,-0.00269056,0.00743377,0.0110052,-0.00672546,0.497283,0.0103357,0.03933,1420,330,-0.02773,-0.185831
203,694,0.302734,0.0679626,0.00447525,-0.00432881,0.0106882,0.0116324,-0.011486,0.590054,0.0133475,0.0392176,1427,330,0.302733,-0.0679749
210,694,0.376343,-0.129822,0.00482519,-0.00310759,0.0109203,0.0124772,-0.0107595,0.6112,0.0134279,0.0440353,1434,330,0.376313,0.129818
217,694,0.319702,-0.280548,0.00730023,-0.00538579,0.0101299,0.0129091,-0.0109947,0.505679,0.0138156,0.0437565,1441,330,0.319659,0.280544
224,694,0.2323,-0.448547,0.00927611,-0.00799035,0.00859351,0.0128241,-0.0115383,0.391546,0.0140721,0.042977,1448,330,0.232347,0.448558
231,694,0,0,0,0,0,0,0,0,0,-1,1455,330,0,0
238,694,0,0,0,0,0,0,0,0,0,-1,1462,330,0,0
245,694,0,0,0,0,0,0,0,0,0,-1,1469,330,0,0
252,694,0,0,0,0,0,0,0,0,0,-1,1476,330,0,0
259,694,0,0,0,0,0,0,0,0,0,-1,1483,330,0,0
266,694,0,0,0,0,0,0,0,0,0,-1,1490,330,0,0
273,694,0,0,0,0,0,0,0,0,0,-1,1497,330,0,0
280,694,0,0,0,0,0,0,0,0,0,-1,1504,330,0,0
287,694,0,0,0,0,0,0,0,0,0,-1,1511,330,0,0
294,694,0,0,0,0,0,0,0,0,0,-1,1518,330,0,0
301,694,0,0,0,0,0,0,0,0,0,-1,1525,330,0,0
308,694,0,0,0,0,0,0,0,0,0,-1,1532,330,0,0
315,694,0,0,0,0,0,0,0,0,0,-1,1539,330,0,0
322,694,0,0,0,0,0,0,0,0,0,-1,1546,330,0,0
329,694,0,0,0,0,0,0,0,0,0,-1,1553,330,0,0
336,694,0,0,0,0,0,0,0,0,0,-1,1560,330,0,0
343,694,0,0,0,0,0,0,0,0,0,-1,1567,330,0,0
350,694,0,0,0,0,0,0,0,0,0,-1,1574,330,0,0
357,694,0,0,0,0,0,0,0,0,0,-1,1581,330,0,0
364,694,0,0,0,0,0,0,0,0,0,-1,1588,330,0,0
371,694,0,0,0,0,0,0,0,0,0,-1,1595,330,0,0
378,694,0,0,0,0,0,0,0,0,0,-1,1602,330,0,0
385,694,0,0,0,0,0,0,0,0,0,-1,1609,330,0,0
392,694,0,0,0,0,0,0,0,0,0,-1,1616,330,0,0
399,694,0,0,0,0,0,0,0,0,0,-1,1623,330,0,0
406,694,0,0,0,0,0,0,0,0,0,-1,1630,330,0,0
413,694,0,0,0,0,0,0,0,0,0,-1,1637,330,0,0
420,694,0,0,0,0,0,0,0,0,0,-1,1644,330,0,0
427,694,0,0,0,0,0,0,0,0,0,-1,1651,330,0,0
434,694,0,0,0,0,0,0,0,0,0,-1,1658,330,0,0
441,694,0,0,0,0,0,0,0,0,0,-1,1665,330,0,0
448,694,0,0,0,0,0,0,0,0,0,-1,1672,330,0,0
455,694,0,0,0,0,0,0,0,0,0,-1,1679,330,0,0
462,694,0,0,0,0,0,0,0,0,0,-1,1686,330,0,0
469,694,0,0,0,0,0,0,0,0,0,-1,1693,330,0,0
476,694,0,0,0,0,0,0,0,0,0,-1,1700,330,0,0
483,694,0,0,0,0,0,0,0,0,0,-1,1707,330,0,0
490,694,0,0,0,0,0,0,0,0,0,-1,1714,330,0,0
497,694,0,0,0,0,0,0,0,0,0,-1,1721,330,0,0
504,694,0,0,0,0,0,0,0,0,0,-1,1728,330,0,0
511,694,0,0,0,0,0,0,0,0,0,-1,1735,330,0,0
518,694,0,0,0,0,0,0,0,0,0,-1,1742,330,0,0
525,694,0,0,0,0,0,0,0,0,0,-1,1749,330,0,0
532,694,0,0,0,0,0,0,0,0,0,-1,1756,330,0,0
539,694,0,0,0,0,0,0,0,0,0,-1,1763,330,0,0
546,694,0,0,0,0,0,0,0,0,0,-1,1770,330,0,0
553,694,0,0,0,0,0,0,0,0,0,-1,1777,330,0,0
560,694,0,0,0,0,0,0,0,0,0,-1,1784,330,0,0
567,694,0,0,0,0,0,0,0,0,0,-1,1791,330,0,0
574,694,0,0,0,0,0,0,0,0,0,-1,1798,330,0,0
581,694,0,0,0,0,0,0,0,0,0,-1,1805,330,0,0
588,694,0,0,0,0,0,0,0,0,0,-1,1812,330,0,0
595,694,0,0,0,0,0,0,0,0,0,-1,1819,330,0,0
602,694,0,0,0,0,0,0,0,0,0,-1,1826,330,0,0
609,694,0,0,0,0,0,0,0,0,0,-1,1833,330,0,0
616,694,0,0,0,0,0,0,0,0,0,-1,1840,330,0,0
623,694,0,0,0,0,0,0,0,0,0,-1,1847,330,0,0
630,694,0,0,0,0,0,0,0,0,0,-1,1854,330,0,0
637,694,0,0,0,0,0,0,0,0,0,-1,1861,330,0,0
644,694,0,0,0,0,0,0,0,0,0,-1,1868,330,0,0
651,694,0,0,0,0,0,0,0,0,0,-1,1875,330,0,0
658,694,0,0,0,0,0,0,0,0,0,-1,1882,330,0,0
665,694,0,0,0,0,0,0,0,0,0,-1,1889,330,0,0
672,694,0,0,0,0,0,0,0,0,0,-1,1896,330,0,0
679,694,0,0,0,0,0,0,0,0,0,-1,1903,330,0,0
686,694,0,0,0,0,0,0,0,0,0,-1,1910,330,0,0
693,694,0,0,0,0,0,0,0,0,0,-1,1917,330,0,0
700,694,0,0,0,0,0,0,0,0,0,-1,1924,330,0,0
707,694,0,0,0,0,0,0,0,0,0,-1,1931,330,0,0
714,694,0,0,0,0,0,0,0,0,0,-1,1938,330,0,0
721,694,0,0,0,0,0,0,0,0,0,-1,1945,330,0,0
728,694,0,0,0,0,0,0,0,0,0,-1,1952,330,0,0
735,694,0,0,0,0,0,0,0,0,0,-1,1959,330,0,0
742,694,0,0,0,0,0,0,0,0,0,-1,1966,330,0,0
749,694,0,0,0,0,0,0,0,0,0,-1,1973,330,0,0
756,694,0,0,0,0,0,0,0,0,0,-1,1980,330,0,0
763,694,0,0,0,0,0,0,0,0,0,-1,1987,330,0,0
770,694,0,0,0,0,0,0,0,0,0,-1,1994,330,0,0
777,694,0,0,0,0,0,0,0,0,0,-1,2001,330,0,0
784,694,0,0,0,0,0,0,0,0,0,-1,2008,330,0,0
791,694,0,0,0,0,0,0,0,0,0,-1,2015,330,0,0
798,694,0,0,0,0,0,0,0,0,0,-1,2022,330,0,0
805,694,0,0,0,0,0,0,0,0,0,-1,2029,330,0,0
812,694,0,0,0,0,0,0,0,0,0,-1,2036,330,0,0
-700,687,0,0,0,0,0,0,0,0,0,-1,524,337,0,0
-693,687,0,0,0,0,0,0,0,0,0,-1,531,337,0,0
-686,687,0,0,0,0,0,0,0,0,0,-1,538,337,0,0
-679,687,0,0,0,0,0,0,0,0,0,-1,545,337,0,0
-672,687,0,0,0,0,0,0,0,0,0,-1,552,337,0,0
-665,687,0,0,0,0,0,0,0,0,0,-1,559,337,0,0
-658,687,0,0,0,0,0,0,0,0,0,-1,566,337,0,0
-651,687,0,0,0,0,0,0,0,0,0,-1,573,337,0,0
-644,687,0,0,0,0,0,0,0,0,0,-1,580,337,0,0
-637,687,0,0,0,0,0,0,0,0,0,-1,587,337,0,0
-630,687,0,0,0,0,0,0,0,0,0,-1,594,337,0,0
-623,687,0,0,0,0,0,0,0,0,0,-1,601,337,0,0
-616,687,0,0,0,0,0,0,0,0,0,-1,608,337,0,0
-609,687,0,0,0,0,0,0,0,0,0,-1,615,337,0,0
-602,687,0,0,0,0,0,0,0,0,0,-1,622,337,0,0
-595,687,0,0,0,0,0,0,0,0,0,-1,629,337,0,0
-588,687,0,0,0,0,0,0,0,0,0,-1,636,337,0,0
-581,687,0,0,0,0,0,0,0,0,0,-1,643,337,0,0
-574,687,0,0,0,0,0,0,0,0,0,-1,650,337,0,0
-567,687,0,0,0,0,0,0,0,0,0,-1,657,337,0,0
-560,687,0,0,0,0,0,0,0,0,0,-1,664,337,0,0
-553,687,0,0,0,0,0,0,0,0,0,-1,671,337,0,0
-546,687,0,0,0,0,0,0,0,0,0,-1,678,337,0,0
-539,687,0,0,0,0,0,0,0,0,0,-1,685,337,0,0
-532,687,0,0,0,0,0,0,0,0,0,-1,692,337,0,0
-525,687,0,0,0,0,0,0,0,0,0,-1,699,337,0,0
-518,687,0,0,0,0,0,0,0,0,0,-1,706,337,0,0
-511,687,0,0,0,0,0,0,0,0,0,-1,713,337,0,0
-504,687,0,0,0,0,0,0,0,0,0,-1,720,337,0,0
-497,687,0,0,0,0,0,0,0,0,0,-1,727,337,0,0
-490,687,0,0,0,0,0,0,0,0,0,-1,734,337,0,0
-483,687,0,0,0,0,0,0,0,0,0,-1,741,337,0,0
-476,687,0,0,0,0,0,0,0,0,0,-1,748,337,0,0
-469,687,0,0,0,0,0,0,0,0,0,-1,755,337,0,0
-462,687,0,0,0,0,0,0,0,0,0,-1,762,337,0,0
-455,687,0,0,0,0,0,0,0,0,0,-1,769,337,0,0
-448,687,0,0,0,0,0,0,0,0,0,-1,776,337,0,0
-441,687,0,0,0,0,0,0,0,0,0,-1,783,337,0,0
-434,687,0,0,0,0,0,0,0,0,0,-1,790,337,0,0
-427,687,0,0,0,0,0,0,0,0,0,-1,797,337,0,0
-420,687,0,0,0,0,0,0,0,0,0,-1,804,337,0,0
-413,687,0,0,0,0,0,0,0,0,0,-1,811,337,0,0
-406,687,0,0,0,0,0,0,0,0,0,-1,818,337,0,0
-399,687,0,0,0,0,0,0,0,0,0,-1,825,337,0,0
-392,687,0,0,0,0,0,0,0,0,0,-1,832,337,0,0
-385,687,0,0,0,0,0,0,0,0,0,-1,839,337,0,0
-378,687,0,0,0,0,0,0,0,0,0,-1,846,337,0,0
-371,687,0,0,0,0,0,0,0,0,0,-1,853,337,0,0
-364,687,0,0,0,0,0,0,0,0,0,-1,860,337,0,0
-357,687,0,0,0,0,0,0,0,0,0,-1,867,337,0,0
-350,687,0,0,0,0,0,0,0,0,0,-1,874,337,0,0
-343,687,0,0,0,0,0,0,0,0,0,-1,881,337,0,0
-336,687,0,0,0,0,0,0,0,0,0,-1,888,337,0,0
-329,687,0,0,0,0,0,0,0,0,0,-1,895,337,0,0
-322,687,0,0,0,0,0,0,0,0,0,-1,902,337,0,0
-315,687,0,0,0,0,0,0,0,0,0,-1,909,337,0,0
-308,687,0,0,0,0,0,0,0,0,0,-1,916,337,0,0
-301,687,0,0,0,0,0,0,0,0,0,-1,923,337,0,0
-294,687,0,0,0,0,0,0,0,0,0,-1,930,337,0,0
-287,687,0,0,0,0,0,0,0,0,0,-1,937,337,0,0
-280,687,0,0,0,0,0,0,0,0,0,-1,944,337,0,0
-273,687,0,0,0,0,0,0,0,0,0,-1,951,337,0,0
-266,687,0,0,0,0,0,0,0,0,0,-1,958,337,0,0
-259,687,0,0,0,0,0,0,0,0,0,-1,965,337,0,0
-252,687,0,0,0,0,0,0,0,0,0,-1,972,337,0,0
-245,687,0,0,0,0,0,0,0,0,0,-1,979,337,0,0
-238,687,0,0,0,0,0,0,0,0,0,-1,986,337,0,0
-231,687,0,0,0,0,0,0,0,0,0,-1,993,337,0,0
-224,687,0,0,0,0,0,0,0,0,0,-1,1000,337,0,0
-217,687,0,0,0,0,0,0,0,0,0,-1,1007,337,0,0
-210,687,0,0,0,0,0,0,0,0,0,-1,1014,337,0,0
-203,687,0,0,0,0,0,0,0,0,0,-1,1021,337,0,0
-196,687,0,0,0,0,0,0,0,0,0,-1,1028,337,0,0
-189,687,0,0,0,0,0,0,0,0,0,-1,1035,337,0,0
-182,687,0,0,0,0,0,0,0,0,0,-1,1042,337,0,0
-175,687,0,0,0,0,0,0,0,0,0,-1,1049,337,0,0
-168,687,0,0,0,0,0,0,0,0,0,-1,1056,337,0,0
-161,687,0,0,0,0,0,0,0,0,0,-1,1063,337,0,0
-154,687,0,0,0,0,0,0,0,0,0,-1,1070,337,0,0
-147,687,0,0,0,0,0,0,0,0,0,-1,1077,337,0,0
-140,687,0,0,0,0,0,0,0,0,0,-1,1084,337,0,0
-133,687,-0.158203,-0.218262,0.0313245,-0.0143988,-0.0101599,0.0334804,-0.0165547,-0.209097,0.0294335,0.0416853,1091,337,-0.158197,0.218274
-126,687,0.442383,-0.0463867,0.0252261,-0.0121376,-0.00870407,0.0271543,-0.0140658,-0.218003,0.024195,0.0405467,1098,337,0.442331,0.0463806
-119,687,0.559937,-0.025177,0.0182576,-0.0122902,-0.00885657,0.0206396,-0.0146722,-0.262736,0.0204841,0.0415025,1105,337,0.559949,0.0251703
-112,687,1.46106,-0.197845,0,0,0,0,0,0,0,-1,1112,337,1.46103,0.19784
-105,687,0.209717,-0.00985718,0.00557877,-0.00956661,-0.0072219,0.00847038,-0.0124582,-0.380846,0.012156,0.0420327,1119,337,0.209744,0.00985819
-98,687,0.0443115,0.0487366,0.00036095,-0.00867359,-0.00683172,0.0040338,-0.0123464,-0.493287,0.00985471,0.0414236,1126,337,0.0443195,-0.0487393
-91,687,-0.102295,0.114014,-0.00396547,-0.00850039,-0.00618875,0.000358121,-0.012824,-0.6098,0.00867116,0.0388746,1133,337,-0.102303,-0.114012
-84,687,-0.216064,0.175751,-0.00672216,-0.00732909,-0.00462935,-0.00238634,-0.0116649,-0.752668,0.00711581,0.038306,1140,337,-0.216056,-0.175753
-77,687,-0.3479,-0.0791931,-0.00868552,-0.0031406,-0.00298579,-0.00183857,-0.00998755,-1.15958,0.006138,0.038888,1147,337,-0.34784,0.0791814
-70,687,-0.321411,-0.360931,-0.00866679,0.00189023,-0.00103541,0.00199083,-0.00876738,-1.47395,0.00660924,0.0387031,1154,337,-0.321359,0.360929
-63,687,-0.0667725,-0.306244,0,0,0,0,0,0,0,-1,1161,337,-0.0667519,0.306255
-56,687,-0.115356,-0.0647583,-0.00522386,0.0101665,0.00594704,0.0121967,-0.00725406,1.24182,0.0113501,0.0451705,1168,337,-0.115414,0.0647443
-49,687,-0.221802,-0.0658264,-0.00140786,0.0144007,0.00910787,0.0185559,-0.00556306,1.14278,0.014583,0.0458363,1175,337,-0.221831,0.0658324
-42,687,-0.0928955,-0.045105,0.000658477,0.0178026,0.011116,0.0232678,-0.00480679,1.11385,0.0173377,0.047259,1182,337,-0.0928445,0.0450956
-35,687,-0.136719,-0.0180359,0.00248028,0.0209675,0.0115572,0.026523,-0.00307516,1.12271,0.0187911,0.0440825,1189,337,-0.13667,0.0180251
-28,687,-0.165039,-0.0118713,0.00202393,0.0234119,0.0132022,0.0297079,-0.00427205,1.12581,0.0213721,0.0417644,1196,337,-0.16504,0.0118839
-21,687,-0.0983887,0.0758057,-0.000616024,0.0242685,0.016942,0.0328462,-0.00919377,1.10212,0.0255202,0.0443171,1203,337,-0.0984155,-0.075804
-14,687,-0.0216064,0.127106,-0.00123012,0.0258017,0.018018,0.0348098,-0.0102382,1.10719,0.0272676,0.0463836,1210,337,-0.0216442,-0.127116
-7,687,0.0593262,1.26706,-0.00123724,0.0242589,0.0170444,0.0327952,-0.00977359,1.10649,0.0257473,0.0438458,1217,337,0.059372,-1.26705
0,687,0.960205,0.855408,-0.000683721,0.0228995,0.0160158,0.0309963,-0.00878052,1.10272,0.0241296,0.045674,1224,337,0.960246,-0.855411
7,687,1.21423,-0.306366,-0.000684887,0.0209517,0.0148555,0.0285106,-0.00824377,1.10011,0.0222695,0.0438247,1231,337,1.21425,0.306372
14,687,0.830933,-1.1828,0.000585168,0.0193875,0.0134766,0.026418,-0.00644534,1.08995,0.0201078,0.0442682,1238,337,0.830893,1.18279
21,687,0.00256348,-0.0104675,0,0,0,0,0,0,0,-1,1245,337,0.00254978,0.0104712
28,687,-0.263428,-0.211456,0,0,0,0,0,0,0,-1,1252,337,-0.263429,0.211444
35,687,-0.376953,-0.636597,0.00443688,0.0141971,0.00742375,0.0182011,0.000432869,1.07616,0.0119924,0.0462721,1259,337,-0.376985,0.636611
42,687,-0.357056,0.190186,0.00593335,0.0161145,0.00454837,0.0178505,0.00419738,1.20619,0.0107772,0.0463211,1266,337,-0.3571,-0.190175
49,687,-0.193726,0.203705,0.00661385,0.0180018,0.00217144,0.0184018,0.00621385,1.38863,0.0108093,0.0468827,1273,337,-0.193775,-0.20372
56,687,-0.0615234,0.194977,0.0047973,0.0183919,-0.000655387,0.0184234,0.00476578,-1.52274,0.011042,0.0475307,1280,337,-0.0615715,-0.194968
63,687,0.0629883,0.186859,0,0,0,0,0,0,0,-1,1287,337,0.063023,-0.186851
70,687,-0.0646973,0.312286,-0.00397421,0.0178745,-0.00449814,0.0187643,-0.00486404,-1.3755,0.0144072,0.0430714,1294,337,-0.0646409,-0.3123
77,687,-0.526611,0.325256,-0.00827249,0.015275,-0.00815562,0.0178238,-0.0108213,-1.26789,0.0167022,0.0443094,1301,337,-0.526587,-0.325247
84,687,-0.990601,0.372375,0,0,0,0,0,0,0,-1,1308,337,-0.990637,-0.372376
91,687,-1.58752,-0.109619,0,0,0,0,0,0,0,-1,1315,337,-1.58748,0.109622
98,687,-1.60779,0.486572,-0.0255557,0.00830765,-0.0156204,0.0144124,-0.0316605,-1.19823,0.0272144,0.0496793,1322,337,-1.60782,-0.486567
105,687,-1.51245,0.874847,-0.0289919,0.00329342,-0.0171303,0.0106887,-0.0363872,-1.16326,0.0284972,0.0482576,1329,337,-1.51242,-0.874851
112,687,-1.55469,0.927673,-0.0298385,-0.000514098,-0.0180611,0.00808707,-0.0384397,-1.12635,0.0287044,0.0428924,1336,337,-1.55469,-0.927686
119,687,-1.77283,1.21588,-0.0288735,-0.00338084,-0.0172497,0.00532094,-0.0375753,-1.10359,0.0269992,0.041262,1343,337,-1.77285,-1.21587
126,687,-2.04968,1.48553,-0.0243269,-0.006213,-0.0163989,0.0034638,-0.0340037,-1.0377,0.0239075,0.0428121,1350,337,-2.04973,-1.48552
133,687,-2.27039,1.76193,0,0,0,0,0,0,0,-1,1357,337,-2.27039,-1.76193
140,687,-0.785889,1.31448,0,0,0,0,0,0,0,-1,1364,337,-0.785911,-1.31448
147,687,-0.0828857,0.566772,-0.00885534,-0.00995743,-0.0112849,0.00189201,-0.0207048,-0.761002,0.0144751,0.043312,1371,337,-0.0829296,-0.566758
154,687,0.363647,-0.495758,-0.00543127,-0.00849256,-0.00825696,0.00143572,-0.0153596,-0.69375,0.0107503,0.0475853,1378,337,0.363635,0.495772
161,687,0.237915,-0.803101,-0.00103995,-0.00630949,-0.00480178,0.00180242,-0.00915187,-0.534473,0.00678236,0.047647,1385,337,0.237868,0.803115
168,687,0.0311279,-0.101074,0.00349138,-0.00462097,-0.0022894,0.00409287,-0.00522247,-0.256925,0.00539138,0.0458999,1392,337,0.0311771,0.101069
175,687,-0.0859375,0.31369,0.00645612,-0.00255523,0.000294754,0.00646575,-0.00256486,0.0326627,0.00537352,0.0491242,1399,337,-0.0859051,-0.313694
182,687,-0.0844727,0.465363,0.00764996,-0.000402536,0.00318023,0.00875446,-0.00150703,0.334268,0.00639809,0.0492206,1406,337,-0.084452,-0.465347
189,687,-0.0394287,0.426239,0.00541375,-0.000459638,0.00393666,0.00738842,-0.0024343,0.464934,0.00590669,0.0435769,1413,337,-0.0393718,-0.42625
196,687,0.0144043,0.25058,0.00431948,-0.000838813,0.00478573,0.0071768,-0.00369614,0.538248,0.00638381,0.0398106,1420,337,0.0144592,-0.250579
203,687,-0.0172119,0.0935364,0.00263601,-0.00239752,0.00725092,0.00779452,-0.00755604,0.618355,0.00886301,0.0398938,1427,337,-0.0172011,-0.093539
210,687,-0.0283203,-0.0458069,0.00312301,-0.0017642,0.00753186,0.00859775,-0.00723894,0.628538,0.00915453,0.0442216,1434,337,-0.0282839,0.0458125
217,687,-0.0534668,-0.156891,0.00531822,-0.00380505,0.00708032,0.00917914,-0.00766598,0.49923,0.0097386,0.0438619,1441,337,-0.0534513,0.156899
224,687,-0.172241,-0.303741,0.00717932,-0.00585522,0.00620682,0.00966202,-0.00833791,0.380502,0.0104016,0.0437541,1448,337,-0.172208,0.303732
231,687,0.282471,-0.254211,0.00889898,-0.00715844,0.00727092,0.011702,-0.00996146,0.367954,0.0125209,0.0411876,1455,337,0.282521,0.254215
238,687,0.271484,-0.0516968,0,0,0,0,0,0,0,-1,1462,337,0.271498,0.0516832
245,687,0.0512695,-0.134949,0.0110799,-0.00798724,0.00829219,0.0141816,-0.0110889,0.357935,0.0146263,0.0462981,1469,337,0.0512356,0.134943
252,687,0.102295,-0.217529,0.0114761,-0.00859765,0.00769407,0.0140859,-0.0112074,0.327014,0.0146346,0.0476567,1476,337,0.102301,0.217528
259,687,0,0,0,0,0,0,0,0,0,-1,1483,337,0,0
266,687,0,0,0,0,0,0,0,0,0,-1,1490,337,0,0
273,687,0,0,0,0,0,0,0,0,0,-1,1497,337,0,0
280,687,0,0,0,0,0,0,0,0,0,-1,1504,337,0,0
287,687,0,0,0,0,0,0,0,0,0,-1,1511,337,0,0
294,687,0,0,0,0,0,0,0,0,0,-1,1518,337,0,0
301,687,0,0,0,0,0,0,0,0,0,-1,1525,337,0,0
308,687,0,0,0,0,0,0,0,0,0,-1,1532,337,0,0
315,687,0,0,0,0,0,0,0,0,0,-1,1539,337,0,0
322,687,0,0,0,0,0,0,0,0,0,-1,1546,337,0,0
329,687,0,0,0,0,0,0,0,0,0,-1,1553,337,0,0
336,687,0,0,0,0,0,0,0,0,0,-1,1560,337,0,0
343,687,0,0,0,0,0,0,0,0,0,-1,1567,337,0,0
350,687,0,0,0,0,0,0,0,0,0,-1,1574,337,0,0
357,687,0,0,0,0,0,0,0,0,0,-1,1581,337,0,0
364,687,0,0,0,0,0,0,0,0,0,-1,1588,337,0,0
371,687,0,0,0,0,0,0,0,0,0,-1,1595,337,0,0
378,687,0,0,0,0,0,0,0,0,0,-1,1602,337,0,0
385,687,0,0,0,0,0,0,0,0,0,-1,1609,337,0,0
392,687,0,0,0,0,0,0,0,0,0,-1,1616,337,0,0
399,687,0,0,0,0,0,0,0,0,0,-1,1623,337,0,0
406,687,0,0,0,0,0,0,0,0,0,-1,1630,337,0,0
413,687,0,0,0,0,0,0,0,0,0,-1,1637,337,0,0
420,687,0,0,0,0,0,0,0,0,0,-1,1644,337,0,0
427,687,0,0,0,0,0,0,0,0,0,-1,1651,337,0,0
434,687,0,0,0,0,0,0,0,0,0,-1,1658,337,0,0
441,687,0,0,0,0,0,0,0,0,0,-1,1665,337,0,0
448,687,0,0,0,0,0,0,0,0,0,-1,1672,337,0,0
455,687,0,0,0,0,0,0,0,0,0,-1,1679,337,0,0
462,687,0,0,0,0,0,0,0,0,0,-1,1686,337,0,0
469,687,0,0,0,0,0,0,0,0,0,-1,1693,337,0,0
476,687,0,0,0,0,0,0,0,0,0,-1,1700,337,0,0
483,687,0,0,0,0,0,0,0,0,0,-1,1707,337,0,0
490,687,0,0,0,0,0,0,0,0,0,-1,1714,337,0,0
497,687,0,0,0,0,0,0,0,0,0,-1,1721,337,0,0
504,687,0,0,0,0,0,0,0,0,0,-1,1728,337,0,0
511,687,0,0,0,0,0,0,0,0,0,-1,1735,337,0,0
518,687,0,0,0,0,0,0,0,0,0,-1,1742,337,0,0
525,687,0,0,0,0,0,0,0,0,0,-1,1749,337,0,0
532,687,0,0,0,0,0,0,0,0,0,-1,1756,337,0,0
539,687,0,0,0,0,0,0,0,0,0,-1,1763,337,0,0
546,687,0,0,0,0,0,0,0,0,0,-1,1770,337,0,0
553,687,0,0,0,0,0,0,0,0,0,-1,1777,337,0,0
560,687,0,0,0,0,0,0,0,0,0,-1,1784,337,0,0
567,687,0,0,0,0,0,0,0,0,0,-1,1791,337,0,0
574,687,0,0,0,0,0,0,0,0,0,-1,1798,337,0,0
581,687,0,0,0,0,0,0,0,0,0,-1,1805,337,0,0
588,687,0,0,0,0,0,0,0,0,0,-1,1812,337,0,0
595,687,0,0,0,0,0,0,0,0,0,-1,1819,337,0,0
602,687,0,0,0,0,0,0,0,0,0,-1,1826,337,0,0
609,687,0,0,0,0,0,0,0,0,0,-1,1833,337,0,0
616,687,0,0,0,0,0,0,0,0,0,-1,1840,337,0,0
623,687,0,0,0,0,0,0,0,0,0,-1,1847,337,0,0
630,687,0,0,0,0,0,0,0,0,0,-1,1854,337,0,0
637,687,0,0,0,0,0,0,0,0,0,-1,1861,337,0,0
644,687,0,0,0,0,0,0,0,0,0,-1,1868,337,0,0
651,687,0,0,0,0,0,0,0,0,0,-1,1875,337,0,0
658,687,0,0,0,0,0,0,0,0,0,-1,1882,337,0,0
665,687,0,0,0,0,0,0,0,0,0,-1,1889,337,0,0
672,687,0,0,0,0,0,0,0,0,0,-1,1896,337,0,0
679,687,0,0,0,0,0,0,0,0,0,-1,1903,337,0,0
686,687,0,0,0,0,0,0,0,0,0,-1,1910,337,0,0
693,687,0,0,0,0,0,0,0,0,0,-1,1917,337,0,0
700,687,0,0,0,0,0,0,0,0,0,-1,1924,337,0,0
707,687,0,0,0,0,0,0,0,0,0,-1,1931,337,0,0
714,687,0,0,0,0,0,0,0,0,0,-1,1938,337,0,0
721,687,0,0,0,0,0,0,0,0,0,-1,1945,337,0,0
728,687,0,0,0,0,0,0,0,0,0,-1,1952,337,0,0
735,687,0,0,0,0,0,0,0,0,0,-1,1959,337,0,0
742,687,0,0,0,0,0,0,0,0,0,-1,1966,337,0,0
749,687,0,0,0,0,0,0,0,0,0,-1,1973,337,0,0
756,687,0,0,0,0,0,0,0,0,0,-1,1980,337,0,0
763,687,0,0,0,0,0,0,0,0,0,-1,1987,337,0,0
770,687,0,0,0,0,0,0,0,0,0,-1,1994,337,0,0
777,687,0,0,0,0,0,0,0,0,0,-1,2001,337,0,0
784,687,0,0,0,0,0,0,0,0,0,-1,2008,337,0,0
791,687,0,0,0,0,0,0,0,0,0,-1,2015,337,0,0
798,687,0,0,0,0,0,0,0,0,0,-1,2022,337,0,0
805,687,0,0,0,0,0,0,0,0,0,-1,2029,337,0,0
812,687,0,0,0,0,0,0,0,0,0,-1,2036,337,0,0
-700,680,0,0,0,0,0,0,0,0,0,-1,524,344,0,0
-693,680,0,0,0,0,0,0,0,0,0,-1,531,344,0,0
-686,680,0,0,0,0,0,0,0,0,0,-1,538,344,0,0
-679,680,0,0,0,0,0,0,0,0,0,-1,545,344,0,0
-672,680,0,0,0,0,0,0,0,0,0,-1,552,344,0,0
-665,680,0,0,0,0,0,0,0,0,0,-1,559,344,0,0
-658,680,0,0,0,0,0,0,0,0,0,-1,566,344,0,0
-651,680,0,0,0,0,0,0,0,0,0,-1,573,344,0,0
-644,680,0,0,0,0,0,0,0,0,0,-1,580,344,0,0
-637,680,0,0,0,0,0,0,0,0,0,-1,587,344,0,0
-630,680,0,0,0,0,0,0,0,0,0,-1,594,344,0,0
-623,680,0,0,0,0,0,0,0,0,0,-1,601,344,0,0
-616,680,0,0,0,0,0,0,0,0,0,-1,608,344,0,0
-609,680,0,0,0,0,0,0,0,0,0,-1,615,344,0,0
-602,680,0,0,0,0,0,0,0,0,0,-1,622,344,0,0
-595,680,0,0,0,0,0,0,0,0,0,-1,629,344,0,0
-588,680,0,0,0,0,0,0,0,0,0,-1,636,344,0,0
-581,680,0,0,0,0,0,0,0,0,0,-1,643,344,0,0
-574,680,0,0,0,0,0,0,0,0,0,-1,650,344,0,0
-567,680,0,0,0,0,0,0,0,0,0,-1,657,344,0,0
-560,680,0,0,0,0,0,0,0,0,0,-1,664,344,0,0
-553,680,0,0,0,0,0,0,0,0,0,-1,671,344,0,0
-546,680,0,0,0,0,0,0,0,0,0,-1,678,344,0,0
-539,680,0,0,0,0,0,0,0,0,0,-1,685,344,0,0
-532,680,0,0,0,0,0,0,0,0,0,-1,692,344,0,0
-525,680,0,0,0,0,0,0,0,0,0,-1,699,344,0,0
-518,680,0,0,0,0,0,0,0,0,0,-1,706,344,0,0
-511,680,0,0,0,0,0,0,0,0,0,-1,713,344,0,0
-504,680,0,0,0,0,0,0,0,0,0,-1,720,344,0,0
-497,680,0,0,0,0,0,0,0,0,0,-1,727,344,0,0
-490,680,0,0,0,0,0,0,0,0,0,-1,734,344,0,0
-483,680,0,0,0,0,0,0,0,0,0,-1,741,344,0,0
-476,680,0,0,0,0,0,0,0,0,0,-1,748,344,0,0
-469,680,0,0,0,0,0,0,0,0,0,-1,755,344,0,0
-462,680,0,0,0,0,0,0,0,0,0,-1,762,344,0,0
-455,680,0,0,0,0,0,0,0,0,0,-1,769,344,0,0
-448,680,0,0,0,0,0,0,0,0,0,-1,776,344,0,0
-441,680,0,0,0,0,0,0,0,0,0,-1,783,344,0,0
-434,680,0,0,0,0,0,0,0,0,0,-1,790,344,0,0
-427,680,0,0,0,0,0,0,0,0,0,-1,797,344,0,0
-420,680,0,0,0,0,0,0,0,0,0,-1,804,344,0,0
-413,680,0,0,0,0,0,0,0,0,0,-1,811,344,0,0
-406,680,0,0,0,0,0,0,0,0,0,-1,818,344,0,0
-399,680,0,0,0,0,0,0,0,0,0,-1,825,344,0,0
-392,680,0,0,0,0,0,0,0,0,0,-1,832,344,0,0
-385,680,0,0,0,0,0,0,0,0,0,-1,839,344,0,0
-378,680,0,0,0,0,0,0,0,0,0,-1,846,344,0,0
-371,680,0,0,0,0,0,0,0,0,0,-1,853,344,0,0
-364,680,0,0,0,0,0,0,0,0,0,-1,860,344,0,0
-357,680,0,0,0,0,0,0,0,0,0,-1,867,344,0,0
-350,680,0,0,0,0,0,0,0,0,0,-1,874,344,0,0
-343,680,0,0,0,0,0,0,0,0,0,-1,881,344,0,0
-336,680,0,0,0,0,0,0,0,0,0,-1,888,344,0,0
-329,680,0,0,0,0,0,0,0,0,0,-1,895,344,0,0
-322,680,0,0,0,0,0,0,0,0,0,-1,902,344,0,0
-315,680,0,0,0,0,0,0,0,0,0,-1,909,344,0,0
-308,680,0,0,0,0,0,0,0,0,0,-1,916,344,0,0
-301,680,0,0,0,0,0,0,0,0,0,-1,923,344,0,0
-294,680,0,0,0,0,0,0,0,0,0,-1,930,344,0,0
-287,680,0,0,0,0,0,0,0,0,0,-1,937,344,0,0
-280,680,0,0,0,0,0,0,0,0,0,-1,944,344,0,0
-273,680,0,0,0,0,0,0,0,0,0,-1,951,344,0,0
-266,680,0,0,0,0,0,0,0,0,0,-1,958,344,0,0
-259,680,0,0,0,0,0,0,0,0,0,-1,965,344,0,0
-252,680,0,0,0,0,0,0,0,0,0,-1,972,344,0,0
-245,680,0,0,0,0,0,0,0,0,0,-1,979,344,0,0
-238,680,0,0,0,0,0,0,0,0,0,-1,986,344,0,0
-231,680,0,0,0,0,0,0,0,0,0,-1,993,344,0,0
-224,680,0,0,0,0,0,0,0,0,0,-1,1000,344,0,0
-217,680,0,0,0,0,0,0,0,0,0,-1,1007,344,0,0
-210,680,0,0,0,0,0,0,0,0,0,-1,1014,344,0,0
-203,680,0,0,0,0,0,0,0,0,0,-1,1021,344,0,0
-196,680,0,0,0,0,0,0,0,0,0,-1,1028,344,0,0
-189,680,0,0,0,0,0,0,0,0,0,-1,1035,344,0,0
-182,680,0,0,0,0,0,0,0,0,0,-1,1042,344,0,0
-175,680,0,0,0,0,0,0,0,0,0,-1,1049,344,0,0
-168,680,0,0,0,0,0,0,0,0,0,-1,1056,344,0,0
-161,680,0,0,0,0,0,0,0,0,0,-1,1063,344,0,0
-154,680,-0.965942,-0.230469,0,0,0,0,0,0,0,-1,1070,344,-0.965899,0.230463
-147,680,-0.776611,-0.128357,0.0296781,-0.0102313,-0.0102473,0.0321554,-0.0127087,-0.237205,0.0267011,0.0417815,1077,344,-0.776633,0.128351
-140,680,-0.581299,-0.195068,0.0277831,-0.0109453,-0.0089113,0.0297352,-0.0128974,-0.21565,0.0252457,0.0420269,1084,344,-0.5813,0.195069
-133,680,-0.0498047,-0.108948,0.0244644,-0.0102999,-0.00788828,0.0261706,-0.012006,-0.213011,0.0225413,0.042254,1091,344,-0.0498131,0.10896
-126,680,0.619019,0.0818176,0.0199314,-0.00895004,-0.00691202,0.0215004,-0.010519,-0.22321,0.0188453,0.038019,1098,344,0.618965,-0.0818048
-119,680,1.17297,0.052002,0.0150175,-0.00929228,-0.00714929,0.0169642,-0.0112389,-0.265843,0.0163945,0.0412077,1105,344,1.17296,-0.0520169
-112,680,1.61584,0.0310059,0.00979813,-0.00830879,-0.00672621,0.0120233,-0.0105339,-0.319485,0.0130329,0.044193,1112,344,1.6159,-0.0310191
-105,680,0.528809,-0.189789,0.00532845,-0.00721429,-0.00594229,0.00769658,-0.00958242,-0.379231,0.00999582,0.0400969,1119,344,0.528845,0.189792
-98,680,0.176025,0.00448608,0.00107127,-0.00641813,-0.00561719,0.00407754,-0.00942439,-0.491402,0.0079965,0.0402163,1126,344,0.175996,-0.00447865
-91,680,-0.244385,0.202148,-0.00245324,-0.00622787,-0.00510265,0.00109994,-0.00978106,-0.608266,0.00691657,0.0404442,1133,344,-0.24442,-0.202163
-84,680,-0.359253,0.210663,-0.00471997,-0.00508299,-0.00394717,-0.000950143,-0.00885282,-0.762422,0.00561204,0.0382517,1140,344,-0.359239,-0.210653
-77,680,-0.368896,0.152313,-0.00627749,-0.00159769,-0.00275388,-0.000323869,-0.00755131,-1.13755,0.0049298,0.0386738,1147,344,-0.368851,-0.152326
-70,680,-0.135254,0.0563049,-0.00620288,0.00271574,-0.00127624,0.00289477,-0.00638192,-1.43142,0.00548058,0.0405684,1154,344,-0.135211,-0.0562994
-63,680,0.0955811,-0.0686646,0,0,0,0,0,0,0,-1,1161,344,0.0955355,0.06866
-56,680,-0.131958,0.0872803,0,0,0,0,0,0,0,-1,1168,344,-0.131966,-0.0872723
-49,680,-0.0601807,0.311768,0,0,0,0,0,0,0,-1,1175,344,-0.0602075,-0.311765
-42,680,-0.222534,-0.676392,0,0,0,0,0,0,0,-1,1182,344,-0.222528,0.676396
-35,680,-0.226074,-0.783844,0.00246878,0.0179846,0.00887091,0.0220113,-0.00155797,1.14468,0.0152201,0.0456094,1189,344,-0.22603,0.783855
-28,680,-0.148315,-0.797455,0.0021241,0.0198167,0.0102785,0.0245315,-0.00259072,1.14072,0.0172827,0.0378645,1196,344,-0.148376,0.797444
-21,680,0.15564,-0.92868,0.000172524,0.020352,0.0130315,0.0267432,-0.0062187,1.11482,0.020223,0.0397871,1203,344,0.15565,0.928674
-14,680,-0.22644,0.251312,-0.000326969,0.0213135,0.0138138,0.0280403,-0.00705375,1.11763,0.0214352,0.0423411,1210,344,-0.22638,-0.251318
-7,680,0.0872803,0.104645,0,0,0,0,0,0,0,-1,1217,344,0.0873142,-0.104651
0,680,0.598633,0.234772,3.08741e-05,0.0183229,0.012211,0.0244333,-0.00607953,1.10683,0.0186486,0.0474221,1224,344,0.598655,-0.234769
7,680,0.602173,-0.0432739,-5.62828e-05,0.0164133,0.0111705,0.0220562,-0.00569924,1.10302,0.0169268,0.044481,1231,344,0.602138,0.0432756
14,680,0.626099,-0.738647,0,0,0,0,0,0,0,-1,1238,344,0.62615,0.738646
21,680,0.0515137,0.0614929,0.00129797,0.0130638,0.00848936,0.0175094,-0.0031476,1.0884,0.0128513,0.0429801,1245,344,0.0514575,-0.0614873
28,680,-0.148193,-0.0735779,0.00193007,0.0108826,0.00680675,0.014553,-0.00174037,1.07626,0.0103311,0.0410371,1252,344,-0.14824,0.0735671
35,680,-0.242554,-0.259949,0.00297063,0.0102485,0.00517745,0.0129379,0.000281233,1.09172,0.00853309,0.0411025,1259,344,-0.242612,0.259962
42,680,-0.430542,-0.254333,0.00393097,0.0117695,0.00296259,0.0127632,0.00293723,1.24716,0.00771833,0.0418483,1266,344,-0.430566,0.254339
49,680,-0.151489,0.141663,0.00420722,0.0133282,0.00114307,0.0134693,0.00406615,1.448,0.00797739,0.0396374,1273,344,-0.151525,-0.141673
56,680,-0.119629,0.229309,0.00287202,0.0139031,-0.000958681,0.0139858,0.00278932,-1.48475,0.00854719,0.039688,1280,344,-0.119639,-0.2293
63,680,-0.0325928,0.316162,0.000299278,0.014629,-0.0025093,0.0150557,-0.000127422,-1.40236,0.0100799,0.0427032,1287,344,-0.0326334,-0.316149
70,680,-0.0275879,0.288971,-0.0032774,0.0143258,-0.00400384,0.0151937,-0.00414529,-1.35734,0.0117571,0.041799,1294,344,-0.0275582,-0.288971
77,680,-0.269287,0.306671,-0.00634968,0.0126573,-0.00683849,0.014862,-0.00855436,-1.25892,0.0136819,0.0438745,1301,344,-0.269271,-0.30666
84,680,-0.504639,0.533508,-0.00944812,0.0118291,-0.0102963,0.0159957,-0.0136147,-1.18627,0.017114,0.0465458,1308,344,-0.504689,-0.533519
91,680,-0.390869,0.855591,0,0,0,0,0,0,0,-1,1315,344,-0.390839,-0.855601
98,680,-1.01697,0.159515,-0.0183201,0.00803394,-0.0124928,0.0130147,-0.0233008,-1.19142,0.0212453,0.0450406,1322,344,-1.01698,-0.159505
105,680,-0.94519,0.582703,-0.0205014,0.00424214,-0.0136521,0.0102943,-0.0265535,-1.15352,0.0219536,0.0434194,1329,344,-0.945213,-0.582693
112,680,-0.917847,0.199463,0,0,0,0,0,0,0,-1,1336,344,-0.917864,-0.199466
119,680,-0.792114,0.0395203,0,0,0,0,0,0,0,-1,1343,344,-0.792112,-0.0395343
126,680,-0.599365,-0.119049,0,0,0,0,0,0,0,-1,1350,344,-0.599423,0.119045
133,680,-0.0976563,-0.0239563,0,0,0,0,0,0,0,-1,1357,344,-0.0977141,0.0239449
140,680,0.155762,0.102661,-0.00855114,-0.00512419,-0.010317,0.00362067,-0.017296,-0.867688,0.0129079,0.0438224,1364,344,0.155749,-0.102672
147,680,0.180908,0.267242,-0.00503829,-0.00542874,-0.00866179,0.00343048,-0.0138975,-0.774131,0.0105953,0.043762,1371,344,0.180954,-0.267244
154,680,0.173584,0.293457,0,0,0,0,0,0,0,-1,1378,344,0.173629,-0.293446
161,680,-0.280762,0.748322,0,0,0,0,0,0,0,-1,1385,344,-0.280765,-0.748319
168,680,0.000488281,0.748596,0,0,0,0,0,0,0,-1,1392,344,0.000484255,-0.748604
175,680,-0.00268555,0.313019,0.00461311,-0.000351014,-7.92984e-05,0.00461437,-0.00035228,-0.0159689,0.00320014,0.044535,1399,344,-0.00269405,-0.313023
182,680,-0.0362549,0.359161,0.00506049,0.000950623,0.00186069,0.00577772,0.000233388,0.367916,0.00377642,0.0478861,1406,344,-0.0362777,-0.359165
189,680,-0.0540771,0.377747,0.00331988,0.000695989,0.00235075,0.0047,-0.000684129,0.530878,0.0033845,0.0466381,1413,344,-0.0540344,-0.377745
196,680,0.0640869,0.00640869,0.00252355,0.000187763,0.00297633,0.00455293,-0.00184161,0.598432,0.0038009,0.0460424,1420,344,0.0640367,-0.00641585
203,680,-0.546143,0.517365,0.0014107,-0.00123356,0.00481188,0.00507879,-0.00490164,0.651325,0.0057625,0.0440343,1427,344,-0.546168,-0.517376
210,680,-0.670288,0.302216,0,0,0,0,0,0,0,-1,1434,344,-0.670295,-0.30223
217,680,-0.352295,0.0638123,0.00383854,-0.00277279,0.00486616,0.00641564,-0.00534989,0.487043,0.00680211,0.0444767,1441,344,-0.352284,-0.0638042
224,680,0.15918,0.0057373,0.00550382,-0.00438487,0.00442303,0.00719346,-0.00607451,0.364902,0.00766934,0.0430884,1448,344,0.159169,-0.00572244
231,680,0.196533,0.0582886,0.00700836,-0.00554174,0.00530469,0.00895012,-0.0074835,0.350898,0.00950054,0.0398931,1455,344,0.196502,-0.0582936
238,680,-0.180664,-0.0570068,0.0082481,-0.00632814,0.00582299,0.0102886,-0.00836868,0.337056,0.0107908,0.0396734,1462,344,-0.180661,0.0570061
245,680,-0.49292,-0.227753,0.00904902,-0.00643117,0.00605467,0.0111358,-0.00851798,0.331911,0.0113806,0.0465519,1469,344,-0.492931,0.227767
252,680,0.0767822,-0.15097,0.00959856,-0.0071334,0.00550589,0.0112478,-0.00878263,0.291034,0.0115937,0.0475041,1476,344,0.0768056,0.150975
259,680,-0.0175781,-0.0252075,0.0105908,-0.00720458,0.00396567,0.0114345,-0.00804832,0.209635,0.0113049,0.045117,1483,344,-0.01753,0.0252156
266,680,0.148682,-0.174408,0.0111236,-0.00831998,0.00208585,0.0113448,-0.00854123,0.105675,0.0115192,0.0415,1490,344,0.148646,0.174421
273,680,0.274536,-0.196899,0.0109407,-0.0107718,5.05942e-07,0.0109407,-0.0107718,2.33019e-05,0.0125359,0.0405855,1497,344,0.274481,0.196894
280,680,0,0,0,0,0,0,0,0,0,-1,1504,344,0,0
287,680,0,0,0,0,0,0,0,0,0,-1,1511,344,0,0
294,680,0,0,0,0,0,0,0,0,0,-1,1518,344,0,0
301,680,0,0,0,0,0,0,0,0,0,-1,1525,344,0,0
308,680,0,0,0,0,0,0,0,0,0,-1,1532,344,0,0
315,680,0,0,0,0,0,0,0,0,0,-1,1539,344,0,0
322,680,0,0,0,0,0,0,0,0,0,-1,1546,344,0,0
329,680,0,0,0,0,0,0,0,0,0,-1,1553,344,0,0
336,680,0,0,0,0,0,0,0,0,0,-1,1560,344,0,0
343,680,0,0,0,0,0,0,0,0,0,-1,1567,344,0,0
350,680,0,0,0,0,0,0,0,0,0,-1,1574,344,0,0
357,680,0,0,0,0,0,0,0,0,0,-1,1581,344,0,0
364,680,0,0,0,0,0,0,0,0,0,-1,1588,344,0,0
371,680,0,0,0,0,0,0,0,0,0,-1,1595,344,0,0
378,680,0,0,0,0,0,0,0,0,0,-1,1602,344,0,0
385,680,0,0,0,0,0,0,0,0,0,-1,1609,344,0,0
392,680,0,0,0,0,0,0,0,0,0,-1,1616,344,0,0
399,680,0,0,0,0,0,0,0,0,0,-1,1623,344,0,0
406,680,0,0,0,0,0,0,0,0,0,-1,1630,344,0,0
413,680,0,0,0,0,0,0,0,0,0,-1,1637,344,0,0
420,680,0,0,0,0,0,0,0,0,0,-1,1644,344,0,0
427,680,0,0,0,0,0,0,0,0,0,-1,1651,344,0,0
434,680,0,0,0,0,0,0,0,0,0,-1,1658,344,0,0
441,680,0,0,0,0,0,0,0,0,0,-1,1665,344,0,0
448,680,0,0,0,0,0,0,0,0,0,-1,1672,344,0,0
455,680,0,0,0,0,0,0,0,0,0,-1,1679,344,0,0
462,680,0,0,0,0,0,0,0,0,0,-1,1686,344,0,0
469,680,0,0,0,0,0,0,0,0,0,-1,1693,344,0,0
476,680,0,0,0,0,0,0,0,0,0,-1,1700,344,0,0
483,680,0,0,0,0,0,0,0,0,0,-1,1707,344,0,0
490,680,0,0,0,0,0,0,0,0,0,-1,1714,344,0,0
497,680,0,0,0,0,0,0,0,0,0,-1,1721,344,0,0
504,680,0,0,0,0,0,0,0,0,0,-1,1728,344,0,0
511,680,0,0,0,0,0,0,0,0,0,-1,1735,344,0,0
518,680,0,0,0,0,0,0,0,0,0,-1,1742,344,0,0
525,680,0,0,0,0,0,0,0,0,0,-1,1749,344,0,0
532,680,0,0,0,0,0,0,0,0,0,-1,1756,344,0,0
539,680,0,0,0,0,0,0,0,0,0,-1,1763,344,0,0
546,680,0,0,0,0,0,0,0,0,0,-1,1770,344,0,0
553,680,0,0,0,0,0,0,0,0,0,-1,1777,344,0,0
560,680,0,0,0,0,0,0,0,0,0,-1,1784,344,0,0
567,680,0,0,0,0,0,0,0,0,0,-1,1791,344,0,0
574,680,0,0,0,0,0,0,0,0,0,-1,1798,344,0,0
581,680,0,0,0,0,0,0,0,0,0,-1,1805,344,0,0
588,680,0,0,0,0,0,0,0,0,0,-1,1812,344,0,0
595,680,0,0,0,0,0,0,0,0,0,-1,1819,344,0,0
602,680,0,0,0,0,0,0,0,0,0,-1,1826,344,0,0
609,680,0,0,0,0,0,0,0,0,0,-1,1833,344,0,0
616,680,0,0,0,0,0,0,0,0,0,-1,1840,344,0,0
623,680,0,0,0,0,0,0,0,0,0,-1,1847,344,0,0
630,680,0,0,0,0,0,0,0,0,0,-1,1854,344,0,0
637,680,0,0,0,0,0,0,0,0,0,-1,1861,344,0,0
644,680,0,0,0,0,0,0,0,0,0,-1,1868,344,0,0
651,680,0,0,0,0,0,0,0,0,0,-1,1875,344,0,0
658,680,0,0,0,0,0,0,0,0,0,-1,1882,344,0,0
665,680,0,0,0,0,0,0,0,0,0,-1,1889,344,0,0
672,680,0,0,0,0,0,0,0,0,0,-1,1896,344,0,0
679,680,0,0,0,0,0,0,0,0,0,-1,1903,344,0,0
686,680,0,0,0,0,0,0,0,0,0,-1,1910,344,0,0
693,680,0,0,0,0,0,0,0,0,0,-1,1917,344,0,0
700,680,0,0,0,0,0,0,0,0,0,-1,1924,344,0,0
707,680,0,0,0,0,0,0,0,0,0,-1,1931,344,0,0
714,680,0,0,0,0,0,0,0,0,0,-1,1938,344,0,0
721,680,0,0,0,0,0,0,0,0,0,-1,1945,344,0,0
728,680,0,0,0,0,0,0,0,0,0,-1,1952,344,0,0
735,680,0,0,0,0,0,0,0,0,0,-1,1959,344,0,0
742,680,0,0,0,0,0,0,0,0,0,-1,1966,344,0,0
749,680,0,0,0,0,0,0,0,0,0,-1,1973,344,0,0
756,680,0,0,0,0,0,0,0,0,0,-1,1980,344,0,0
763,680,0,0,0,0,0,0,0,0,0,-1,1987,344,0,0
770,680,0,0,0,0,0,0,0,0,0,-1,1994,344,0,0
777,680,0,0,0,0,0,0,0,0,0,-1,2001,344,0,0
784,680,0,0,0,0,0,0,0,0,0,-1,2008,344,0,0
791,680,0,0,0,0,0,0,0,0,0,-1,2015,344,0,0
798,680,0,0,0,0,0,0,0,0,0,-1,2022,344,0,0
805,680,0,0,0,0,0,0,0,0,0,-1,2029,344,0,0
812,680,0,0,0,0,0,0,0,0,0,-1,2036,344,0,0
-700,673,0,0,0,0,0,0,0,0,0,-1,524,351,0,0
-693,673,0,0,0,0,0,0,0,0,0,-1,531,351,0,0
-686,673,0,0,0,0,0,0,0,0,0,-1,538,351,0,0
-679,673,0,0,0,0,0,0,0,0,0,-1,545,351,0,0
-672,673,0,0,0,0,0,0,0,0,0,-1,552,351,0,0
-665,673,0,0,0,0,0,0,0,0,0,-1,559,351,0,0
-658,673,0,0,0,0,0,0,0,0,0,-1,566,351,0,0
-651,673,0,0,0,0,0,0,0,0,0,-1,573,351,0,0
-644,673,0,0,0,0,0,0,0,0,0,-1,580,351,0,0
-637,673,0,0,0,0,0,0,0,0,0,-1,587,351,0,0
-630,673,0,0,0,0,0,0,0,0,0,-1,594,351,0,0
-623,673,0,0,0,0,0,0,0,0,0,-1,601,351,0,0
-616,673,0,0,0,0,0,0,0,0,0,-1,608,351,0,0
-609,673,0,0,0,0,0,0,0,0,0,-1,615,351,0,0
-602,673,0,0,0,0,0,0,0,0,0,-1,622,351,0,0
-595,673,0,0,0,0,0,0,0,0,0,-1,629,351,0,0
-588,673,0,0,0,0,0,0,0,0,0,-1,636,351,0,0
-581,673,0,0,0,0,0,0,0,0,0,-1,643,351,0,0
-574,673,0,0,0,0,0,0,0,0,0,-1,650,351,0,0
-567,673,0,0,0,0,0,0,0,0,0,-1,657,351,0,0
-560,673,0,0,0,0,0,0,0,0,0,-1,664,351,0,0
-553,673,0,0,0,0,0,0,0,0,0,-1,671,351,0,0
-546,673,0,0,0,0,0,0,0,0,0,-1,678,351,0,0
-539,673,0,0,0,0,0,0,0,0,0,-1,685,351,0,0
-532,673,0,0,0,0,0,0,0,0,0,-1,692,351,0,0
-525,673,0,0,0,0,0,0,0,0,0,-1,699,351,0,0
-518,673,0,0,0,0,0,0,0,0,0,-1,706,351,0,0
-511,673,0,0,0,0,0,0,0,0,0,-1,713,351,0,0
-504,673,0,0,0,0,0,0,0,0,0,-1,720,351,0,0
-497,673,0,0,0,0,0,0,0,0,0,-1,727,351,0,0
-490,673,0,0,0,0,0,0,0,0,0,-1,734,351,0,0
-483,673,0,0,0,0,0,0,0,0,0,-1,741,351,0,0
-476,673,0,0,0,0,0,0,0,0,0,-1,748,351,0,0
-469,673,0,0,0,0,0,0,0,0,0,-1,755,351,0,0
-462,673,0,0,0,0,0,0,0,0,0,-1,762,351,0,0
-455,673,0,0,0,0,0,0,0,0,0,-1,769,351,0,0
-448,673,0,0,0,0,0,0,0,0,0,-1,776,351,0,0
-441,673,0,0,0,0,0,0,0,0,0,-1,783,351,0,0
-434,673,0,0,0,0,0,0,0,0,0,-1,790,351,0,0
-427,673,0,0,0,0,0,0,0,0,0,-1,797,351,0,0
-420,673,0,0,0,0,0,0,0,0,0,-1,804,351,0,0
-413,673,0,0,0,0,0,0,0,0,0,-1,811,351,0,0
-406,673,0,0,0,0,0,0,0,0,0,-1,818,351,0,0
-399,673,0,0,0,0,0,0,0,0,0,-1,825,351,0,0
-392,673,0,0,0,0,0,0,0,0,0,-1,832,351,0,0
-385,673,0,0,0,0,0,0,0,0,0,-1,839,351,0,0
-378,673,0,0,0,0,0,0,0,0,0,-1,846,351,0,0
-371,673,0,0,0,0,0,0,0,0,0,-1,853,351,0,0
-364,673,0,0,0,0,0,0,0,0,0,-1,860,351,0,0
-357,673,0,0,0,0,0,0,0,0,0,-1,867,351,0,0
-350,673,0,0,0,0,0,0,0,0,0,-1,874,351,0,0
-343,673,0,0,0,0,0,0,0,0,0,-1,881,351,0,0
-336,673,0,0,0,0,0,0,0,0,0,-1,888,351,0,0
-329,673,0,0,0,0,0,0,0,0,0,-1,895,351,0,0
-322,673,0,0,0,0,0,0,0,0,0,-1,902,351,0,0
-315,673,0,0,0,0,0,0,0,0,0,-1,909,351,0,0
-308,673,0,0,0,0,0,0,0,0,0,-1,916,351,0,0
-301,673,0,0,0,0,0,0,0,0,0,-1,923,351,0,0
-294,673,0,0,0,0,0,0,0,0,0,-1,930,351,0,0
-287,673,0,0,0,0,0,0,0,0,0,-1,937,351,0,0
-280,673,0,0,0,0,0,0,0,0,0,-1,944,351,0,0
-273,673,0,0,0,0,0,0,0,0,0,-1,951,351,0,0
-266,673,0,0,0,0,0,0,0,0,0,-1,958,351,0,0
-259,673,0,0,0,0,0,0,0,0,0,-1,965,351,0,0
-252,673,0,0,0,0,0,0,0,0,0,-1,972,351,0,0
-245,673,0,0,0,0,0,0,0,0,0,-1,979,351,0,0
-238,673,0,0,0,0,0,0,0,0,0,-1,986,351,0,0
-231,673,0,0,0,0,0,0,0,0,0,-1,993,351,0,0
-224,673,0,0,0,0,0,0,0,0,0,-1,1000,351,0,0
-217,673,0,0,0,0,0,0,0,0,0,-1,1007,351,0,0
-210,673,0,0,0,0,0,0,0,0,0,-1,1014,351,0,0
-203,673,0,0,0,0,0,0,0,0,0,-1,1021,351,0,0
-196,673,0,0,0,0,0,0,0,0,0,-1,1028,351,0,0
-189,673,0,0,0,0,0,0,0,0,0,-1,1035,351,0,0
-182,673,0,0,0,0,0,0,0,0,0,-1,1042,351,0,0
-175,673,-0.0563965,0.541931,0,0,0,0,0,0,0,-1,1049,351,-0.056348,-0.54192
-168,673,-0.0715332,0.190277,0,0,0,0,0,0,0,-1,1056,351,-0.0715807,-0.190265
-161,673,-0.1073,-0.0421753,0.0222778,-0.000365965,-0.00589136,0.0237189,-0.00180704,-0.239898,0.0164481,0.0421601,1063,351,-0.107353,0.0421773
-154,673,-0.316895,-0.170654,0.0225014,-0.00342279,-0.00701608,0.0242784,-0.0051998,-0.248061,0.0181686,0.0405191,1070,351,-0.31695,0.170649
-147,673,-0.524414,-0.0492859,0.0230094,-0.00589199,-0.00730357,0.0247502,-0.0076328,-0.233984,0.0195476,0.0407967,1077,351,-0.524456,0.0492722
-140,673,-0.212402,-0.096283,0.021518,-0.00695047,-0.00649612,0.0229302,-0.00836274,-0.214071,0.0187082,0.0437751,1084,351,-0.212413,0.0962896
-133,673,0.16333,-0.0901489,0.0188949,-0.00691256,-0.0059247,0.0201901,-0.00820772,-0.215217,0.016875,0.0443202,1091,351,0.163281,0.0901553
-126,673,0.735962,0.0420227,0.0155273,-0.00621427,-0.00528953,0.0167459,-0.00743286,-0.226428,0.0143006,0.0424357,1098,351,0.73602,-0.042017
-119,673,0.0982666,0.247711,0.0121004,-0.0066863,-0.00557892,0.0136322,-0.00821812,-0.267969,0.0127437,0.0378041,1105,351,0.0982571,-0.247705
-112,673,1.73218,0.277588,0.00824549,-0.00602494,-0.0053446,0.0100252,-0.00780466,-0.321445,0.0103207,0.0431658,1112,351,1.73213,-0.277577
-105,673,0.760986,0.0802307,0.00479972,-0.00520256,-0.0047088,0.00666765,-0.0070705,-0.37765,0.00793286,0.0392318,1119,351,0.76098,-0.0802268
-98,673,-0.331543,0.17868,0,0,0,0,0,0,0,-1,1126,351,-0.331571,-0.178695
-91,673,-0.0734863,0.177582,-0.00140254,-0.00431657,-0.0040547,0.00144898,-0.0071681,-0.612913,0.00532782,0.0433756,1133,351,-0.0734268,-0.177568
-84,673,-0.301025,0.307831,-0.00321664,-0.00328767,-0.0032333,-1.86593e-05,-0.00648565,-0.779906,0.00431756,0.0412411,1140,351,-0.300988,-0.307845
-77,673,-0.283081,0.319946,-0.00443659,-0.000514685,-0.00240786,0.000629702,-0.00558098,-1.12713,0.00394733,0.0404139,1147,351,-0.283077,-0.319946
-70,673,0.0769043,0.499542,-0.00433168,0.0029957,-0.00132214,0.00322697,-0.00456294,-1.39763,0.0045195,0.0414057,1154,351,0.0769438,-0.499552
-63,673,0.296753,0.47403,-0.00414267,0.00548143,0.000719684,0.00553495,-0.00419619,1.49657,0.00563597,0.0412535,1161,351,0.296694,-0.474028
-56,673,-0.0755615,0.157104,-0.00237962,0.00827129,0.00293183,0.00902498,-0.00313332,1.31917,0.00728914,0.0435306,1168,351,-0.0755377,-0.157098
-49,673,-0.0897217,0.289398,0,0,0,0,0,0,0,-1,1175,351,-0.0896772,-0.289402
-42,673,0.026001,0.37439,0,0,0,0,0,0,0,-1,1182,351,0.0259909,-0.374392
-35,673,-0.354614,-1.52847,0,0,0,0,0,0,0,-1,1189,351,-0.354672,1.52847
-28,673,-0.215088,-1.31076,0,0,0,0,0,0,0,-1,1196,351,-0.215141,1.31075
-21,673,-0.130615,0.0322571,0,0,0,0,0,0,0,-1,1203,351,-0.130662,-0.0322544
-14,673,-0.0585938,0.0687256,0.000138412,0.0170335,0.0104041,0.0219877,-0.00481576,1.12639,0.0164997,0.0426274,1210,351,-0.0585559,-0.0687251
-7,673,0.0158691,0.0964661,0.000123045,0.0155454,0.00981622,0.020317,-0.00464858,1.11833,0.015331,0.0389171,1217,351,0.0158673,-0.0964812
0,673,0.169189,0.0722046,0.00038979,0.0142099,0.00915517,0.0187701,-0.00417037,1.10867,0.0141105,0.0406806,1224,351,0.169168,-0.0722166
7,673,0.151978,0.0444641,0.000268373,0.0124737,0.00826762,0.016647,-0.00390496,1.10333,0.012603,0.0417707,1231,351,0.151917,-0.0444672
14,673,0.0113525,-0.00256348,0.000730518,0.0111322,0.00730018,0.0148947,-0.00303198,1.09491,0.0110796,0.0362381,1238,351,0.0114043,0.00257575
21,673,0.0273438,0.0291138,0.00101473,0.00951476,0.00609832,0.0126979,-0.00216843,1.08972,0.00927299,0.0219946,1245,351,0.0273184,-0.0291207
28,673,-0.0352783,0.0578003,0.00131056,0.0077294,0.0047927,0.010288,-0.00124807,1.08043,0.0073103,0.0149033,1252,351,-0.0353393,-0.0578079
35,673,-0.0574951,0.0323792,0.00192331,0.00716426,0.00354349,0.00895096,0.000136611,1.10378,0.00592229,0.0208605,1259,351,-0.057524,-0.0323833
42,673,-0.0622559,0.0780945,0.00249868,0.00833777,0.00186433,0.00888225,0.0019542,1.28665,0.00538952,0.0239837,1266,351,-0.0622284,-0.0780965
49,673,-0.0621338,0.0966492,0.00253078,0.00958744,0.000487557,0.00962097,0.00249725,1.50214,0.00576477,0.0148522,1273,351,-0.0621885,-0.0966563
56,673,-0.0733643,0.0926819,0.00156057,0.0102143,-0.00106141,0.0103426,0.00143229,-1.45052,0.0064707,0.0128981,1280,351,-0.0734126,-0.0926964
63,673,-0.0615234,0.0684814,-0.000176962,0.0110416,-0.00225166,0.0114766,-0.000612021,-1.37993,0.00786303,0.0175819,1287,351,-0.0615268,-0.0684689
70,673,-0.0787354,0.0595703,-0.00261105,0.0111298,-0.00344492,0.0119451,-0.00342633,-1.33841,0.00931792,0.0271225,1294,351,-0.0787612,-0.0595605
77,673,-0.0802002,0.0296631,-0.00471875,0.0101395,-0.00559325,0.0120097,-0.00658888,-1.24813,0.0108889,0.0370391,1301,351,-0.0801716,-0.0296748
84,673,-0.274414,0.197205,-0.00682175,0.00972104,-0.00805261,0.0129935,-0.0100942,-1.1848,0.0133647,0.038816,1308,351,-0.274453,-0.197208
91,673,-0.346436,0.1716,-0.0106276,0.00838603,-0.0082884,0.0114918,-0.0137334,-1.21228,0.0145829,0.0391485,1315,351,-0.346406,-0.171598
98,673,-0.459351,0.052002,-0.0127018,0.00721997,-0.00978608,0.0112228,-0.0167046,-1.18252,0.0162272,0.0412547,1322,351,-0.459333,-0.0520083
105,673,-0.462402,0.143829,-0.0140069,0.00444012,-0.0106446,0.00930137,-0.0188681,-1.1424,0.0165734,0.0400625,1329,351,-0.462439,-0.14383
112,673,-0.516968,0.134613,-0.0141499,0.0025109,-0.0110801,0.0080428,-0.0196818,-1.10774,0.0164703,0.0405418,1336,351,-0.516957,-0.134603
119,673,-0.414917,0.0510864,-0.0132829,0.00096555,-0.0105279,0.00655322,-0.0188705,-1.08285,0.0152418,0.0385434,1343,351,-0.414868,-0.0510975
126,673,-0.334351,0.00543213,-0.0107271,-0.000537349,-0.00989821,0.00550025,-0.0167647,-1.02308,0.0133919,0.0371109,1350,351,-0.334378,-0.00543827
133,673,-0.0723877,0.0677185,-0.00776926,-0.00151087,-0.00890466,0.00479841,-0.0140785,-0.954364,0.0113291,0.0403393,1357,351,-0.0723588,-0.0677188
140,673,-0.0860596,0.114563,-0.00496985,-0.0022677,-0.00780789,0.00430514,-0.0115427,-0.87107,0.00946246,0.0412175,1364,351,-0.0861069,-0.114572
147,673,0.00244141,0.138184,-0.00260033,-0.00243119,-0.006493,0.00397779,-0.00900931,-0.79191,0.00768339,0.0398706,1371,351,0.00245796,-0.138175
154,673,0.0695801,0.203705,-0.00136929,-0.00177277,-0.00472333,0.0031566,-0.00629866,-0.764055,0.00555856,0.0392445,1378,351,0.0696406,-0.203716
161,673,-0.176514,0.436066,0.000317678,-0.000864021,-0.00288102,0.00266781,-0.00321416,-0.684259,0.00340084,0.041928,1385,351,-0.176565,-0.436069
168,673,-0.0617676,0.415955,0.00215474,-9.4813e-06,-0.00157558,0.00298402,-0.000838761,-0.484492,0.00232004,0.0383381,1392,351,-0.0618092,-0.415955
175,673,-0.0351563,0.321503,0.00318016,0.00088974,-0.000304673,0.00321999,0.000849905,-0.130009,0.00192688,0.0381175,1399,351,-0.0351502,-0.321494
182,673,-0.0501709,0.183868,0.00323235,0.00160727,0.000983309,0.0036954,0.00114422,0.440101,0.00218448,0.0410849,1406,351,-0.0501321,-0.183873
189,673,-0.0397949,0.10144,0.00189568,0.00124763,0.00128522,0.0028971,0.000246219,0.661914,0.00185478,0.0409017,1413,351,-0.0397804,-0.101427
196,673,-0.0495605,-0.0558167,0.00132166,0.000689709,0.00173099,0.00276527,-0.000753908,0.695123,0.00213956,0.0416491,1420,351,-0.0496077,0.0558162
203,673,0.0213623,-0.287262,0.000604396,-0.000561184,0.00306973,0.00314617,-0.00310295,0.691589,0.00360796,0.0463736,1427,351,0.0214169,0.28726
210,673,-0.322754,-0.0269775,0.00112544,-0.000591637,0.00332888,0.00370471,-0.00317091,0.659196,0.00397363,0.0468215,1434,351,-0.322714,0.0269792
217,673,0.0887451,-0.317902,0.00272682,-0.00208316,0.00324384,0.00435996,-0.0037163,0.46641,0.00466777,0.0428461,1441,351,0.0887059,0.317898
224,673,0.217773,-0.0950012,0.0041686,-0.00333516,0.0030796,0.00527064,-0.0044372,0.343652,0.0056117,0.0398601,1448,351,0.2178,0.0950133
231,673,0.178955,0.0101929,0.00546048,-0.00432017,0.00380854,0.00676856,-0.00562825,0.330837,0.00716739,0.0382269,1455,351,0.179014,-0.0102062
238,673,-0.0683594,-0.0233765,0.00655785,-0.00499968,0.00420863,0.00792798,-0.00636981,0.314731,0.00827115,0.0412922,1462,351,-0.0684055,0.0233865
245,673,-0.341919,-0.156189,0,0,0,0,0,0,0,-1,1469,351,-0.341893,0.156174
252,673,-0.394897,0.103546,0.00792018,-0.00587631,0.00390962,0.00895105,-0.00690718,0.257808,0.00918107,0.046428,1476,351,-0.394923,-0.103557
259,673,-0.186768,0.0591125,0.00902205,-0.00609661,0.00268489,0.00948469,-0.00655926,0.170639,0.00931417,0.0415756,1483,351,-0.186827,-0.05911
266,673,0.0865479,-0.100708,0.00980847,-0.00740548,0.00123692,0.0098969,-0.0074939,0.0713671,0.0100725,0.0407961,1490,351,0.0865138,0.100699
273,673,0.276489,-0.310913,0.00992084,-0.00996458,-0.000278779,0.00992475,-0.00996849,-0.0140156,0.0114854,0.0408065,1497,351,0.276496,0.3109
280,673,0.394043,-0.28595,0.00997026,-0.0135823,-0.00174925,0.0100995,-0.0137115,-0.0737309,0.0137999,0.0404843,1504,351,0.394081,0.285961
287,673,0.101318,-0.0440063,0.00996104,-0.0162519,-0.00385165,0.0105153,-0.0168062,-0.142913,0.0159128,0.0415616,1511,351,0.101286,0.0440093
294,673,-0.0352783,-0.0739746,0.0100566,-0.0196812,-0.00630638,0.0113387,-0.0209633,-0.200568,0.0189235,0.0430587,1518,351,-0.0352303,0.0739636
301,673,0,0,0,0,0,0,0,0,0,-1,1525,351,0,0
308,673,0,0,0,0,0,0,0,0,0,-1,1532,351,0,0
315,673,0,0,0,0,0,0,0,0,0,-1,1539,351,0,0
322,673,0,0,0,0,0,0,0,0,0,-1,1546,351,0,0
329,673,0,0,0,0,0,0,0,0,0,-1,1553,351,0,0
336,673,0,0,0,0,0,0,0,0,0,-1,1560,351,0,0
343,673,0,0,0,0,0,0,0,0,0,-1,1567,351,0,0
350,673,0,0,0,0,0,0,0,0,0,-1,1574,351,0,0
357,673,0,0,0,0,0,0,0,0,0,-1,1581,351,0,0
364,673,0,0,0,0,0,0,0,0,0,-1,1588,351,0,0
371,673,0,0,0,0,0,0,0,0,0,-1,1595,351,0,0
378,673,0,0,0,0,0,0,0,0,0,-1,1602,351,0,0
385,673,0,0,0,0,0,0,0,0,0,-1,1609,351,0,0
392,673,0,0,0,0,0,0,0,0,0,-1,1616,351,0,0
399,673,0,0,0,0,0,0,0,0,0,-1,1623,351,0,0
406,673,0,0,0,0,0,0,0,0,0,-1,1630,351,0,0
413,673,0,0,0,0,0,0,0,0,0,-1,1637,351,0,0
420,673,0,0,0,0,0,0,0,0,0,-1,1644,351,0,0
427,673,0,0,0,0,0,0,0,0,0,-1,1651,351,0,0
434,673,0,0,0,0,0,0,0,0,0,-1,1658,351,0,0
441,673,0,0,0,0,0,0,0,0,0,-1,1665,351,0,0
448,673,0,0,0,0,0,0,0,0,0,-1,1672,351,0,0
455,673,0,0,0,0,0,0,0,0,0,-1,1679,351,0,0
462,673,0,0,0,0,0,0,0,0,0,-1,1686,351,0,0
469,673,0,0,0,0,0,0,0,0,0,-1,1693,351,0,0
476,673,0,0,0,0,0,0,0,0,0,-1,1700,351,0,0
483,673,0,0,0,0,0,0,0,0,0,-1,1707,351,0,0
490,673,0,0,0,0,0,0,0,0,0,-1,1714,351,0,0
497,673,0,0,0,0,0,0,0,0,0,-1,1721,351,0,0
504,673,0,0,0,0,0,0,0,0,0,-1,1728,351,0,0
511,673,0,0,0,0,0,0,0,0,0,-1,1735,351,0,0
518,673,0,0,0,0,0,0,0,0,0,-1,1742,351,0,0
525,673,0,0,0,0,0,0,0,0,0,-1,1749,351,0,0
532,673,0,0,0,0,0,0,0,0,0,-1,1756,351,0,0
539,673,0,0,0,0,0,0,0,0,0,-1,1763,351,0,0
546,673,0,0,0,0,0,0,0,0,0,-1,1770,351,0,0
553,673,0,0,0,0,0,0,0,0,0,-1,1777,351,0,0
560,673,0,0,0,0,0,0,0,0,0,-1,1784,351,0,0
567,673,0,0,0,0,0,0,0,0,0,-1,1791,351,0,0
574,673,0,0,0,0,0,0,0,0,0,-1,1798,351,0,0
581,673,0,0,0,0,0,0,0,0,0,-1,1805,351,0,0
588,673,0,0,0,0,0,0,0,0,0,-1,1812,351,0,0
595,673,0,0,0,0,0,0,0,0,0,-1,1819,351,0,0
602,673,0,0,0,0,0,0,0,0,0,-1,1826,351,0,0
609,673,0,0,0,0,0,0,0,0,0,-1,1833,351,0,0
616,673,0,0,0,0,0,0,0,0,0,-1,1840,351,0,0
623,673,0,0,0,0,0,0,0,0,0,-1,1847,351,0,0
630,673,0,0,0,0,0,0,0,0,0,-1,1854,351,0,0
637,673,0,0,0,0,0,0,0,0,0,-1,1861,351,0,0
644,673,0,0,0,0,0,0,0,0,0,-1,1868,351,0,0
651,673,0,0,0,0,0,0,0,0,0,-1,1875,351,0,0
658,673,0,0,0,0,0,0,0,0,0,-1,1882,351,0,0
665,673,0,0,0,0,0,0,0,0,0,-1,1889,351,0,0
672,673,0,0,0,0,0,0,0,0,0,-1,1896,351,0,0
679,673,0,0,0,0,0,0,0,0,0,-1,1903,351,0,0
686,673,0,0,0,0,0,0,0,0,0,-1,1910,351,0,0
693,673,0,0,0,0,0,0,0,0,0,-1,1917,351,0,0
700,673,0,0,0,0,0,0,0,0,0,-1,1924,351,0,0
707,673,0,0,0,0,0,0,0,0,0,-1,1931,351,0,0
714,673,0,0,0,0,0,0,0,0,0,-1,1938,351,0,0
721,673,0,0,0,0,0,0,0,0,0,-1,1945,351,0,0
728,673,0,0,0,0,0,0,0,0,0,-1,1952,351,0,0
735,673,0,0,0,0,0,0,0,0,0,-1,1959,351,0,0
742,673,0,0,0,0,0,0,0,0,0,-1,1966,351,0,0
749,673,0,0,0,0,0,0,0,0,0,-1,1973,351,0,0
756,673,0,0,0,0,0,0,0,0,0,-1,1980,351,0,0
763,673,0,0,0,0,0,0,0,0,0,-1,1987,351,0,0
770,673,0,0,0,0,0,0,0,0,0,-1,1994,351,0,0
777,673,0,0,0,0,0,0,0,0,0,-1,2001,351,0,0
784,673,0,0,0,0,0,0,0,0,0,-1,2008,351,0,0
791,673,0,0,0,0,0,0,0,0,0,-1,2015,351,0,0
798,673,0,0,0,0,0,0,0,0,0,-1,2022,351,0,0
805,673,0,0,0,0,0,0,0,0,0,-1,2029,351,0,0
812,673,0,0,0,0,0,0,0,0,0,-1,2036,351,0,0
-700,666,0,0,0,0,0,0,0,0,0,-1,524,358,0,0
-693,666,0,0,0,0,0,0,0,0,0,-1,531,358,0,0
-686,666,0,0,0,0,0,0,0,0,0,-1,538,358,0,0
-679,666,0,0,0,0,0,0,0,0,0,-1,545,358,0,0
-672,666,0,0,0,0,0,0,0,0,0,-1,552,358,0,0
-665,666,0,0,0,0,0,0,0,0,0,-1,559,358,0,0
-658,666,0,0,0,0,0,0,0,0,0,-1,566,358,0,0
-651,666,0,0,0,0,0,0,0,0,0,-1,573,358,0,0
-644,666,0,0,0,0,0,0,0,0,0,-1,580,358,0,0
-637,666,0,0,0,0,0,0,0,0,0,-1,587,358,0,0
-630,666,0,0,0,0,0,0,0,0,0,-1,594,358,0,0
-623,666,0,0,0,0,0,0,0,0,0,-1,601,358,0,0
-616,666,0,0,0,0,0,0,0,0,0,-1,608,358,0,0
-609,666,0,0,0,0,0,0,0,0,0,-1,615,358,0,0
-602,666,0,0,0,0,0,0,0,0,0,-1,622,358,0,0
-595,666,0,0,0,0,0,0,0,0,0,-1,629,358,0,0
-588,666,0,0,0,0,0,0,0,0,0,-1,636,358,0,0
-581,666,0,0,0,0,0,0,0,0,0,-1,643,358,0,0
-574,666,0,0,0,0,0,0,0,0,0,-1,650,358,0,0
-567,666,0,0,0,0,0,0,0,0,0,-1,657,358,0,0
-560,666,0,0,0,0,0,0,0,0,0,-1,664,358,0,0
-553,666,0,0,0,0,0,0,0,0,0,-1,671,358,0,0
-546,666,0,0,0,0,0,0,0,0,0,-1,678,358,0,0
-539,666,0,0,0,0,0,0,0,0,0,-1,685,358,0,0
-532,666,0,0,0,0,0,0,0,0,0,-1,692,358,0,0
-525,666,0,0,0,0,0,0,0,0,0,-1,699,358,0,0
-518,666,0,0,0,0,0,0,0,0,0,-1,706,358,0,0
-511,666,0,0,0,0,0,0,0,0,0,-1,713,358,0,0
-504,666,0,0,0,0,0,0,0,0,0,-1,720,358,0,0
-497,666,0,0,0,0,0,0,0,0,0,-1,727,358,0,0
-490,666,0,0,0,0,0,0,0,0,0,-1,734,358,0,0
-483,666,0,0,0,0,0,0,0,0,0,-1,741,358,0,0
-476,666,0,0,0,0,0,0,0,0,0,-1,748,358,0,0
-469,666,0,0,0,0,0,0,0,0,0,-1,755,358,0,0
-462,666,0,0,0,0,0,0,0,0,0,-1,762,358,0,0
-455,666,0,0,0,0,0,0,0,0,0,-1,769,358,0,0
-448,666,0,0,0,0,0,0,0,0,0,-1,776,358,0,0
-441,666,0,0,0,0,0,0,0,0,0,-1,783,358,0,0
-434,666,0,0,0,0,0,0,0,0,0,-1,790,358,0,0
-427,666,0,0,0,0,0,0,0,0,0,-1,797,358,0,0
-420,666,0,0,0,0,0,0,0,0,0,-1,804,358,0,0
-413,666,0,0,0,0,0,0,0,0,0,-1,811,358,0,0
-406,666,0,0,0,0,0,0,0,0,0,-1,818,358,0,0
-399,666,0,0,0,0,0,0,0,0,0,-1,825,358,0,0
-392,666,0,0,0,0,0,0,0,0,0,-1,832,358,0,0
-385,666,0,0,0,0,0,0,0,0,0,-1,839,358,0,0
-378,666,0,0,0,0,0,0,0,0,0,-1,846,358,0,0
-371,666,0,0,0,0,0,0,0,0,0,-1,853,358,0,0
-364,666,0,0,0,0,0,0,0,0,0,-1,860,358,0,0
-357,666,0,0,0,0,0,0,0,0,0,-1,867,358,0,0
-350,666,0,0,0,0,0,0,0,0,0,-1,874,358,0,0
-343,666,0,0,0,0,0,0,0,0,0,-1,881,358,0,0
-336,666,0,0,0,0,0,0,0,0,0,-1,888,358,0,0
-329,666,0,0,0,0,0,0,0,0,0,-1,895,358,0,0
-322,666,0,0,0,0,0,0,0,0,0,-1,902,358,0,0
-315,666,0,0,0,0,0,0,0,0,0,-1,909,358,0,0
-308,666,0,0,0,0,0,0,0,0,0,-1,916,358,0,0
-301,666,0,0,0,0,0,0,0,0,0,-1,923,358,0,0
-294,666,0,0,0,0,0,0,0,0,0,-1,930,358,0,0
-287,666,0,0,0,0,0,0,0,0,0,-1,937,358,0,0
-280,666,0,0,0,0,0,0,0,0,0,-1,944,358,0,0
-273,666,0,0,0,0,0,0,0,0,0,-1,951,358,0,0
-266,666,0,0,0,0,0,0,0,0,0,-1,958,358,0,0
-259,666,0,0,0,0,0,0,0,0,0,-1,965,358,0,0
-252,666,0,0,0,0,0,0,0,0,0,-1,972,358,0,0
-245,666,0,0,0,0,0,0,0,0,0,-1,979,358,0,0
-238,666,0,0,0,0,0,0,0,0,0,-1,986,358,0,0
-231,666,0,0,0,0,0,0,0,0,0,-1,993,358,0,0
-224,666,0,0,0,0,0,0,0,0,0,-1,1000,358,0,0
-217,666,0,0,0,0,0,0,0,0,0,-1,1007,358,0,0
-210,666,0,0,0,0,0,0,0,0,0,-1,1014,358,0,0
-203,666,0,0,0,0,0,0,0,0,0,-1,1021,358,0,0
-196,666,-0.267944,0.37326,0,0,0,0,0,0,0,-1,1028,358,-0.267995,-0.373248
-189,666,0.522461,0.644073,0,0,0,0,0,0,0,-1,1035,358,0.522444,-0.644081
-182,666,0.812378,0.718811,0,0,0,0,0,0,0,-1,1042,358,0.812386,-0.71882
-175,666,0.572998,1.03009,0,0,0,0,0,0,0,-1,1049,358,0.573012,-1.03009
-168,666,0.356934,1.03342,0,0,0,0,0,0,0,-1,1056,358,0.356953,-1.03341
-161,666,0.186646,0.199921,0.0175006,0.00288553,-0.00332372,0.018221,0.00216516,-0.213433,0.0114938,0.0442037,1063,358,0.186587,-0.199908
-154,666,-0.619263,0.104797,0.0173634,-0.000213664,-0.00449178,0.0184447,-0.001295,-0.236242,0.0127501,0.0463508,1070,358,-0.619217,-0.10481
-147,666,-0.276978,0.0604553,0.0176609,-0.00274172,-0.00498553,0.018814,-0.0038948,-0.227289,0.0140224,0.0430238,1077,358,-0.277015,-0.0604525
-140,666,0.216675,0.0421143,0.0164589,-0.00390308,-0.00453315,0.0174225,-0.00486669,-0.209451,0.0135321,0.0460444,1084,358,0.216716,-0.0421171
-133,666,0.572266,0.198822,0.0143743,-0.00422387,-0.00426428,0.0153054,-0.00515499,-0.214979,0.0122878,0.0424989,1091,358,0.572206,-0.198832
-126,666,0.766968,0.409515,0,0,0,0,0,0,0,-1,1098,358,0.767023,-0.409512
-119,666,-0.0496826,0.255463,0,0,0,0,0,0,0,-1,1105,358,-0.0496618,-0.255453
-112,666,-0.0219727,0.240479,0,0,0,0,0,0,0,-1,1112,358,-0.0219913,-0.240478
-105,666,-0.426025,0.178131,0,0,0,0,0,0,0,-1,1119,358,-0.426031,-0.178144
-98,666,-0.276733,0.156525,0.00146085,-0.0029661,-0.00339836,0.00330303,-0.00480828,-0.496741,0.00470987,0.0449223,1126,358,-0.276742,-0.156515
-91,666,-0.0283203,0.0992432,-0.000704245,-0.00277083,-0.00311634,0.00154564,-0.00502072,-0.625316,0.00396411,0.045191,1133,358,-0.028263,-0.0992314
-84,666,0.24585,-0.0730286,-0.00211033,-0.00189914,-0.00255979,0.000557224,-0.0045667,-0.806012,0.00324619,0.0437629,1140,358,0.245892,0.0730433
-77,666,-0.131714,0.325287,-0.00304481,0.000217498,-0.00202057,0.00118315,-0.00401046,-1.12498,0.00314314,0.0405237,1147,358,-0.131769,-0.325279
-70,666,0.196167,0.253174,-0.00292654,0.00293827,-0.00124954,0.0031934,-0.00318167,-1.36939,0.00368065,0.0365637,1154,358,0.196158,-0.253181
-63,666,0.331055,0.332672,-0.00282452,0.00483585,0.000268685,0.00484526,-0.00283393,1.53578,0.00448399,0.0373582,1161,358,0.33106,-0.332685
-56,666,0.185303,0.2659,-0.00151986,0.00694765,0.00194291,0.00737217,-0.00194438,1.35568,0.00567505,0.0378646,1168,358,0.18531,-0.265912
-49,666,-0.147827,-0.0326538,0,0,0,0,0,0,0,-1,1175,358,-0.147817,0.0326688
-42,666,-0.0322266,0.0390015,0.00123661,0.0106149,0.00453121,0.0124465,-0.000594973,1.18666,0.00850292,0.0295189,1182,358,-0.0322742,-0.0389877
-35,666,0.0214844,0.135925,0.00186965,0.0119256,0.00497138,0.0139684,-0.000173096,1.18093,0.00937049,0.0297021,1189,358,0.0214786,-0.135922
-28,666,0.00305176,0.133881,0.00169537,0.0128457,0.00587744,0.0153716,-0.000830492,1.1649,0.0105355,0.0277352,1196,358,0.00303195,-0.13389
-21,666,0.00622559,0.129974,0.000675205,0.012948,0.00728914,0.0163398,-0.00271663,1.13527,0.0119025,0.0305498,1203,358,0.00628589,-0.129972
-14,666,-0.0361328,0.122467,0.000323994,0.013145,0.00765826,0.0167217,-0.00325267,1.13387,0.0123753,0.024746,1210,358,-0.0360851,-0.122464
-7,666,-0.0313721,0.103851,0.000318176,0.0118352,0.0072228,0.015314,-0.00316071,1.12193,0.0114098,0.0156633,1217,358,-0.0313889,-0.103859
0,666,-0.0197754,0.0951233,0.00050984,0.0106523,0.0067167,0.0139972,-0.00283508,1.10875,0.010406,0.0106083,1224,358,-0.0198304,-0.0951278
7,666,-0.0255127,0.059021,0.000386184,0.00917044,0.00599634,0.0122111,-0.00265452,1.10149,0.00915479,0.0137792,1231,358,-0.0254612,-0.0590167
14,666,-0.0269775,0.0410767,0.000640291,0.00804137,0.00522769,0.0107457,-0.00206407,1.09339,0.00794176,0.0137718,1238,358,-0.0270261,-0.0410698
21,666,-0.0354004,0.0697632,0.000755938,0.0066958,0.00429719,0.0089495,-0.00149776,1.08777,0.00652316,0.0100796,1245,358,-0.0353689,-0.0697776
28,666,-0.0362549,0.0887756,0.00085997,0.00529505,0.00330954,0.00706129,-0.000906276,1.08057,0.00503687,0.0101531,1252,358,-0.0362656,-0.0887887
35,666,-0.0308838,0.08078,0.00119437,0.00482901,0.00236844,0.00599701,2.63716e-05,1.11264,0.00398925,0.00882793,1259,358,-0.0308505,-0.0807845
42,666,-0.0270996,0.0654602,0.00151006,0.00570821,0.00111929,0.00598798,0.00123028,1.32586,0.00365164,0.0103274,1266,358,-0.0270445,-0.0654571
49,666,-0.0389404,0.081604,0.00141307,0.00668115,9.41391e-05,0.00668283,0.00141139,1.55293,0.00406722,0.00933781,1273,358,-0.0388848,-0.0816151
56,666,-0.0354004,0.0794067,0.000718051,0.0072759,-0.00103483,0.00743532,0.00055863,-1.41794,0.00478156,0.0108847,1280,358,-0.0353644,-0.0794097
63,666,-0.029541,0.075592,-0.000419853,0.00807664,-0.00194094,0.00849904,-0.000842245,-1.35652,0.00596662,0.0130744,1287,358,-0.029562,-0.0755858
70,666,-0.0533447,0.0572815,-0.00201373,0.00836255,-0.00286813,0.00910256,-0.00275374,-1.31829,0.00716491,0.0127107,1294,358,-0.0533384,-0.0572776
77,666,-0.0413818,0.0519409,-0.00339827,0.00783295,-0.00445517,0.00938558,-0.0049509,-1.23546,0.00840813,0.0160463,1301,358,-0.0414104,-0.0519501
84,666,-0.0285645,0.0726318,-0.00476109,0.00767197,-0.00616583,0.0102112,-0.00730028,-1.18014,0.0101567,0.0210472,1308,358,-0.0285696,-0.0726328
91,666,-0.0739746,0.076416,-0.00725666,0.00684159,-0.00637095,0.009294,-0.00970907,-1.20334,0.0109723,0.0193609,1315,358,-0.0740152,-0.0764102
98,666,-0.0726318,0.0861206,-0.00849709,0.00609489,-0.00748593,0.00925216,-0.0116544,-1.17167,0.0120969,0.017336,1322,358,-0.0725806,-0.0861283
105,666,-0.06604,0.115356,-0.00921429,0.00412765,-0.00809488,0.00794614,-0.0130328,-1.13003,0.0122303,0.0182024,1329,358,-0.0660752,-0.115342
112,666,-0.0526123,0.100952,-0.0091947,0.00281425,-0.00836737,0.00710864,-0.0134891,-1.09662,0.0120808,0.0215452,1336,358,-0.0525874,-0.100965
119,666,-0.0255127,0.104584,-0.00847595,0.00173523,-0.00792892,0.00606016,-0.0128009,-1.07144,0.0111188,0.022923,1343,358,-0.0254859,-0.10457
126,666,-0.0799561,0.137421,-0.00665638,0.0006903,-0.00740985,0.00528734,-0.0112534,-1.01551,0.00975469,0.0229384,1350,358,-0.0800129,-0.137412
133,666,-0.0395508,0.145508,-0.00456517,2.74541e-05,-0.0066136,0.00473205,-0.00926976,-0.952492,0.00822424,0.0210202,1357,358,-0.0396076,-0.145508
140,666,-0.0305176,0.0870361,-0.0026491,-0.000495678,-0.00574899,0.00427656,-0.00742134,-0.877969,0.00683465,0.0196757,1364,358,-0.0305521,-0.0870293
147,666,-0.0496826,0.0908813,-0.00113401,-0.000564623,-0.00473782,0.00389705,-0.00559568,-0.815407,0.0055098,0.0198257,1371,358,-0.0496386,-0.09088
154,666,-0.0584717,0.10141,-0.000498763,-0.000126577,-0.00343528,0.00312765,-0.00375299,-0.812457,0.003978,0.0178219,1378,358,-0.0584521,-0.101417
161,666,-0.0583496,0.0874939,0.000437945,0.00041767,-0.00215439,0.00258222,-0.0017266,-0.783045,0.00250399,0.0206417,1385,358,-0.0583264,-0.0874817
168,666,-0.0648193,0.0553589,0.00154093,0.000972256,-0.00125993,0.00254821,-3.50198e-05,-0.674418,0.0017106,0.0225518,1392,358,-0.0648105,-0.0553489
175,666,-0.105225,0.0604858,0.00211171,0.00150419,-0.000412738,0.00232042,0.00129548,-0.468172,0.00134272,0.0200524,1399,358,-0.105192,-0.0604959
182,666,-0.0467529,0.0909424,0.00197465,0.00183831,0.000428359,0.00234023,0.00147273,0.706491,0.00136611,0.0215613,1406,358,-0.046769,-0.0909403
189,666,-0.0352783,0.0901794,0.000963586,0.00143907,0.000601581,0.00184819,0.000554475,0.973579,0.00109513,0.0211145,1413,358,-0.0352301,-0.090178
196,666,-0.0931396,0.0474854,0.000553089,0.000885986,0.000905765,0.00164047,-0.000201395,0.876267,0.00116659,0.0267086,1420,358,-0.0931753,-0.0474826
203,666,-0.1698,-0.0133362,0.000100906,-0.000183654,0.00185884,0.0018229,-0.00190565,0.747201,0.00215286,0.039618,1427,358,-0.169828,0.0133457
210,666,-0.20874,0.0205994,0.000572801,-0.000367891,0.00207802,0.00223304,-0.00202813,0.674102,0.00246114,0.0412556,1434,358,-0.208778,-0.0205877
217,666,-0.186035,-0.0123901,0.00189622,-0.00159659,0.00207711,0.00286354,-0.00256391,0.435838,0.00313513,0.0418488,1441,358,-0.185995,0.0123956
224,666,0.442139,-0.107513,0,0,0,0,0,0,0,-1,1448,358,0.442137,0.107512
231,666,0.0302734,-0.0834351,0.00420111,-0.00336524,0.00267937,0.00505383,-0.00421795,0.308115,0.00536031,0.0411095,1455,358,0.0302597,0.0834214
238,666,-0.462524,-0.0940857,0.00515316,-0.00392735,0.00298719,0.00604772,-0.00482191,0.290966,0.00628887,0.0449064,1462,358,-0.462548,0.0940739
245,666,-0.902832,-0.169342,0,0,0,0,0,0,0,-1,1469,358,-0.902795,0.169337
252,666,-0.648926,0.0652466,0.00644243,-0.00478093,0.00273663,0.00707416,-0.00541265,0.226866,0.0072305,0.0488657,1476,358,-0.648936,-0.0652515
259,666,-0.264526,0.145569,0.007526,-0.00506213,0.00179976,0.00777827,-0.00531439,0.139257,0.00760354,0.0439866,1483,358,-0.264529,-0.145568
266,666,-0.00854492,0.0466614,0.0084351,-0.0064057,0.000716794,0.00846964,-0.00644024,0.0481495,0.00863476,0.0427328,1490,358,-0.00860099,-0.0466737
273,666,0.357422,-0.137512,0,0,0,0,0,0,0,-1,1497,358,0.357441,0.137515
280,666,0.108276,-0.0888367,0.00907683,-0.0122542,-0.00128726,0.00915423,-0.0123316,-0.0600562,0.01245,0.0385164,1504,358,0.108242,0.0888448
287,666,0.102173,0.0163879,0.009492,-0.014422,-0.00274236,0.00980246,-0.0147325,-0.112726,0.0142602,0.041874,1511,358,0.10219,-0.0163985
294,666,-0.0151367,-0.296997,0.00977006,-0.0171477,-0.00442004,0.0104773,-0.0178549,-0.158657,0.0165414,0.0404568,1518,358,-0.0151396,0.296987
301,666,-0.333008,-0.69455,0.00923749,-0.0199498,-0.00661265,0.0106658,-0.021378,-0.212722,0.0188419,0.041066,1525,358,-0.332969,0.694562
308,666,-0.702759,-1.11484,0,0,0,0,0,0,0,-1,1532,358,-0.702773,1.11485
315,666,0.860718,-2.13364,0,0,0,0,0,0,0,-1,1539,358,0.860727,2.13365
322,666,0,0,0,0,0,0,0,0,0,-1,1546,358,0,0
329,666,0,0,0,0,0,0,0,0,0,-1,1553,358,0,0
336,666,0,0,0,0,0,0,0,0,0,-1,1560,358,0,0
343,666,0,0,0,0,0,0,0,0,0,-1,1567,358,0,0
350,666,0,0,0,0,0,0,0,0,0,-1,1574,358,0,0
357,666,0,0,0,0,0,0,0,0,0,-1,1581,358,0,0
364,666,0,0,0,0,0,0,0,0,0,-1,1588,358,0,0
371,666,0,0,0,0,0,0,0,0,0,-1,1595,358,0,0
378,666,0,0,0,0,0,0,0,0,0,-1,1602,358,0,0
385,666,0,0,0,0,0,0,0,0,0,-1,1609,358,0,0
392,666,0,0,0,0,0,0,0,0,0,-1,1616,358,0,0
399,666,0,0,0,0,0,0,0,0,0,-1,1623,358,0,0
406,666,0,0,0,0,0,0,0,0,0,-1,1630,358,0,0
413,666,0,0,0,0,0,0,0,0,0,-1,1637,358,0,0
420,666,0,0,0,0,0,0,0,0,0,-1,1644,358,0,0
427,666,0,0,0,0,0,0,0,0,0,-1,1651,358,0,0
434,666,0,0,0,0,0,0,0,0,0,-1,1658,358,0,0
441,666,0,0,0,0,0,0,0,0,0,-1,1665,358,0,0
448,666,0,0,0,0,0,0,0,0,0,-1,1672,358,0,0
455,666,0,0,0,0,0,0,0,0,0,-1,1679,358,0,0
462,666,0,0,0,0,0,0,0,0,0,-1,1686,358,0,0
469,666,0,0,0,0,0,0,0,0,0,-1,1693,358,0,0
476,666,0,0,0,0,0,0,0,0,0,-1,1700,358,0,0
483,666,0,0,0,0,0,0,0,0,0,-1,1707,358,0,0
490,666,0,0,0,0,0,0,0,0,0,-1,1714,358,0,0
497,666,0,0,0,0,0,0,0,0,0,-1,1721,358,0,0
504,666,0,0,0,0,0,0,0,0,0,-1,1728,358,0,0
511,666,0,0,0,0,0,0,0,0,0,-1,1735,358,0,0
518,666,0,0,0,0,0,0,0,0,0,-1,1742,358,0,0
525,666,0,0,0,0,0,0,0,0,0,-1,1749,358,0,0
532,666,0,0,0,0,0,0,0,0,0,-1,1756,358,0,0
539,666,0,0,0,0,0,0,0,0,0,-1,1763,358,0,0
546,666,0,0,0,0,0,0,0,0,0,-1,1770,358,0,0
553,666,0,0,0,0,0,0,0,0,0,-1,1777,358,0,0
560,666,0,0,0,0,0,0,0,0,0,-1,1784,358,0,0
567,666,0,0,0,0,0,0,0,0,0,-1,1791,358,0,0
574,666,0,0,0,0,0,0,0,0,0,-1,1798,358,0,0
581,666,0,0,0,0,0,0,0,0,0,-1,1805,358,0,0
588,666,0,0,0,0,0,0,0,0,0,-1,1812,358,0,0
595,666,0,0,0,0,0,0,0,0,0,-1,1819,358,0,0
602,666,0,0,0,0,0,0,0,0,0,-1,1826,358,0,0
609,666,0,0,0,0,0,0,0,0,0,-1,1833,358,0,0
616,666,0,0,0,0,0,0,0,0,0,-1,1840,358,0,0
623,666,0,0,0,0,0,0,0,0,0,-1,1847,358,0,0
630,666,0,0,0,0,0,0,0,0,0,-1,1854,358,0,0
637,666,0,0,0,0,0,0,0,0,0,-1,1861,358,0,0
644,666,0,0,0,0,0,0,0,0,0,-1,1868,358,0,0
651,666,0,0,0,0,0,0,0,0,0,-1,1875,358,0,0
658,666,0,0,0,0,0,0,0,0,0,-1,1882,358,0,0
665,666,0,0,0,0,0,0,0,0,0,-1,1889,358,0,0
672,666,0,0,0,0,0,0,0,0,0,-1,1896,358,0,0
679,666,0,0,0,0,0,0,0,0,0,-1,1903,358,0,0
686,666,0,0,0,0,0,0,0,0,0,-1,1910,358,0,0
693,666,0,0,0,0,0,0,0,0,0,-1,1917,358,0,0
700,666,0,0,0,0,0,0,0,0,0,-1,1924,358,0,0
707,666,0,0,0,0,0,0,0,0,0,-1,1931,358,0,0
714,666,0,0,0,0,0,0,0,0,0,-1,1938,358,0,0
721,666,0,0,0,0,0,0,0,0,0,-1,1945,358,0,0
728,666,0,0,0,0,0,0,0,0,0,-1,1952,358,0,0
735,666,0,0,0,0,0,0,0,0,0,-1,1959,358,0,0
742,666,0,0,0,0,0,0,0,0,0,-1,1966,358,0,0
749,666,0,0,0,0,0,0,0,0,0,-1,1973,358,0,0
756,666,0,0,0,0,0,0,0,0,0,-1,1980,358,0,0
763,666,0,0,0,0,0,0,0,0,0,-1,1987,358,0,0
770,666,0,0,0,0,0,0,0,0,0,-1,1994,358,0,0
777,666,0,0,0,0,0,0,0,0,0,-1,2001,358,0,0
784,666,0,0,0,0,0,0,0,0,0,-1,2008,358,0,0
791,666,0,0,0,0,0,0,0,0,0,-1,2015,358,0,0
798,666,0,0,0,0,0,0,0,0,0,-1,2022,358,0,0
805,666,0,0,0,0,0,0,0,0,0,-1,2029,358,0,0
812,666,0,0,0,0,0,0,0,0,0,-1,2036,358,0,0
-700,659,0,0,0,0,0,0,0,0,0,-1,524,365,0,0
-693,659,0,0,0,0,0,0,0,0,0,-1,531,365,0,0
-686,659,0,0,0,0,0,0,0,0,0,-1,538,365,0,0
-679,659,0,0,0,0,0,0,0,0,0,-1,545,365,0,0
-672,659,0,0,0,0,0,0,0,0,0,-1,552,365,0,0
-665,659,0,0,0,0,0,0,0,0,0,-1,559,365,0,0
-658,659,0,0,0,0,0,0,0,0,0,-1,566,365,0,0
-651,659,0,0,0,0,0,0,0,0,0,-1,573,365,0,0
-644,659,0,0,0,0,0,0,0,0,0,-1,580,365,0,0
-637,659,0,0,0,0,0,0,0,0,0,-1,587,365,0,0
-630,659,0,0,0,0,0,0,0,0,0,-1,594,365,0,0
-623,659,0,0,0,0,0,0,0,0,0,-1,601,365,0,0
-616,659,0,0,0,0,0,0,0,0,0,-1,608,365,0,0
-609,659,0,0,0,0,0,0,0,0,0,-1,615,365,0,0
-602,659,0,0,0,0,0,0,0,0,0,-1,622,365,0,0
-595,659,0,0,0,0,0,0,0,0,0,-1,629,365,0,0
-588,659,0,0,0,0,0,0,0,0,0,-1,636,365,0,0
-581,659,0,0,0,0,0,0,0,0,0,-1,643,365,0,0
-574,659,0,0,0,0,0,0,0,0,0,-1,650,365,0,0
-567,659,0,0,0,0,0,0,0,0,0,-1,657,365,0,0
-560,659,0,0,0,0,0,0,0,0,0,-1,664,365,0,0
-553,659,0,0,0,0,0,0,0,0,0,-1,671,365,0,0
-546,659,0,0,0,0,0,0,0,0,0,-1,678,365,0,0
-539,659,0,0,0,0,0,0,0,0,0,-1,685,365,0,0
-532,659,0,0,0,0,0,0,0,0,0,-1,692,365,0,0
-525,659,0,0,0,0,0,0,0,0,0,-1,699,365,0,0
-518,659,0,0,0,0,0,0,0,0,0,-1,706,365,0,0
-511,659,0,0,0,0,0,0,0,0,0,-1,713,365,0,0
-504,659,0,0,0,0,0,0,0,0,0,-1,720,365,0,0
-497,659,0,0,0,0,0,0,0,0,0,-1,727,365,0,0
-490,659,0,0,0,0,0,0,0,0,0,-1,734,365,0,0
-483,659,0,0,0,0,0,0,0,0,0,-1,741,365,0,0
-476,659,0,0,0,0,0,0,0,0,0,-1,748,365,0,0
-469,659,0,0,0,0,0,0,0,0,0,-1,755,365,0,0
-462,659,0,0,0,0,0,0,0,0,0,-1,762,365,0,0
-455,659,0,0,0,0,0,0,0,0,0,-1,769,365,0,0
-448,659,0,0,0,0,0,0,0,0,0,-1,776,365,0,0
-441,659,0,0,0,0,0,0,0,0,0,-1,783,365,0,0
-434,659,0,0,0,0,0,0,0,0,0,-1,790,365,0,0
-427,659,0,0,0,0,0,0,0,0,0,-1,797,365,0,0
-420,659,0,0,0,0,0,0,0,0,0,-1,804,365,0,0
-413,659,0,0,0,0,0,0,0,0,0,-1,811,365,0,0
-406,659,0,0,0,0,0,0,0,0,0,-1,818,365,0,0
-399,659,0,0,0,0,0,0,0,0,0,-1,825,365,0,0
-392,659,0,0,0,0,0,0,0,0,0,-1,832,365,0,0
-385,659,0,0,0,0,0,0,0,0,0,-1,839,365,0,0
-378,659,0,0,0,0,0,0,0,0,0,-1,846,365,0,0
-371,659,0,0,0,0,0,0,0,0,0,-1,853,365,0,0
-364,659,0,0,0,0,0,0,0,0,0,-1,860,365,0,0
-357,659,0,0,0,0,0,0,0,0,0,-1,867,365,0,0
-350,659,0,0,0,0,0,0,0,0,0,-1,874,365,0,0
-343,659,0,0,0,0,0,0,0,0,0,-1,881,365,0,0
-336,659,0,0,0,0,0,0,0,0,0,-1,888,365,0,0
-329,659,0,0,0,0,0,0,0,0,0,-1,895,365,0,0
-322,659,0,0,0,0,0,0,0,0,0,-1,902,365,0,0
-315,659,0,0,0,0,0,0,0,0,0,-1,909,365,0,0
-308,659,0,0,0,0,0,0,0,0,0,-1,916,365,0,0
-301,659,0,0,0,0,0,0,0,0,0,-1,923,365,0,0
-294,659,0,0,0,0,0,0,0,0,0,-1,930,365,0,0
-287,659,0,0,0,0,0,0,0,0,0,-1,937,365,0,0
-280,659,0,0,0,0,0,0,0,0,0,-1,944,365,0,0
-273,659,0,0,0,0,0,0,0,0,0,-1,951,365,0,0
-266,659,0,0,0,0,0,0,0,0,0,-1,958,365,0,0
-259,659,0,0,0,0,0,0,0,0,0,-1,965,365,0,0
-252,659,0,0,0,0,0,0,0,0,0,-1,972,365,0,0
-245,659,0,0,0,0,0,0,0,0,0,-1,979,365,0,0
-238,659,0,0,0,0,0,0,0,0,0,-1,986,365,0,0
-231,659,0,0,0,0,0,0,0,0,0,-1,993,365,0,0
-224,659,0,0,0,0,0,0,0,0,0,-1,1000,365,0,0
-217,659,-0.500977,-0.151672,0.00845174,0.0194088,0.00497373,0.0213298,0.00653079,1.20223,0.0126194,0.0409165,1007,365,-0.500963,0.151684
-210,659,-0.337585,0.0605469,0.00682449,0.0213172,0.00486354,0.022798,0.00534366,1.27524,0.0137676,0.0418918,1014,365,-0.337581,-0.0605552
-203,659,-0.379883,0.327881,0,0,0,0,0,0,0,-1,1021,365,-0.379891,-0.327892
-196,659,-0.557129,0.0456238,0.00726277,0.0201662,0.00380508,0.0212047,0.00622427,1.30436,0.0125856,0.0466412,1028,365,-0.557156,-0.0456331
-189,659,-0.173096,0.0950623,0.00848925,0.0180843,0.00262649,0.0187562,0.00781735,1.32035,0.0108788,0.0435172,1035,365,-0.173057,-0.0950608
-182,659,0.246216,0.25647,0,0,0,0,0,0,0,-1,1042,365,0.246255,-0.256465
-175,659,0.371094,0.544556,0.011816,0.0114823,0.000593209,0.0122654,0.0110329,0.648319,0.00779863,0.0394708,1049,365,0.371106,-0.54457
-168,659,0.110229,0.682892,0.0130636,0.00801963,-0.000308909,0.0130824,0.00800078,-0.0609402,0.00761555,0.0396847,1056,365,0.110257,-0.682898
-161,659,-0.809814,0.221558,0,0,0,0,0,0,0,-1,1063,365,-0.809812,-0.221554
-154,659,-0.488525,0.263092,0.0132599,0.00181027,-0.0026558,0.013846,0.00122424,-0.21718,0.00885083,0.0454544,1070,365,-0.488528,-0.263092
-147,659,-0.0587158,0.254059,0.0133828,-0.000566989,-0.0032429,0.0140999,-0.00128401,-0.217603,0.00985582,0.0442146,1077,365,-0.0586886,-0.254045
-140,659,0.318481,0.165558,0.0123949,-0.00167867,-0.00301972,0.0130155,-0.00229924,-0.202683,0.00953624,0.0449391,1084,365,0.318494,-0.165549
-133,659,0.450806,0.121582,0.0107366,-0.00217868,-0.00294033,0.0113745,-0.00281657,-0.213636,0.00867565,0.0418814,1091,365,0.450859,-0.121579
-126,659,0.379395,0.160431,0.00891678,-0.00221769,-0.002732,0.00955099,-0.0028519,-0.228101,0.00750091,0.0404167,1098,365,0.379396,-0.160417
-119,659,-0.0404053,0.199646,0.00732662,-0.00277805,-0.00306389,0.00818305,-0.00363448,-0.272567,0.00698929,0.0381845,1105,365,-0.0403809,-0.199633
-112,659,0.00012207,0.141571,0.00534008,-0.00259987,-0.00306279,0.00638423,-0.00364401,-0.328557,0.00586142,0.0353114,1112,365,0.000124897,-0.141583
-105,659,-0.250977,0.13739,0.00339144,-0.00222966,-0.0026612,0.00445144,-0.00328966,-0.379055,0.00448608,0.0372588,1119,365,-0.251022,-0.137379
-98,659,-0.180176,0.136597,0.00134913,-0.00177144,-0.00250359,0.00273884,-0.00316114,-0.506739,0.00340926,0.039272,1126,365,-0.180134,-0.136611
-91,659,0.107544,-0.0104065,-0.000276023,-0.00159412,-0.00231236,0.00146937,-0.00333952,-0.646573,0.00284554,0.0378934,1133,365,0.107499,0.0103922
-84,659,0.0849609,0.085144,-0.00132499,-0.000894962,-0.00195588,0.000857686,-0.00307764,-0.840145,0.00238953,0.03803,1140,365,0.084985,-0.0851305
-77,659,0.00463867,0.0888672,-0.0020184,0.000653967,-0.00162608,0.00142243,-0.00278686,-1.12932,0.00247243,0.0337425,1147,365,0.00466586,-0.0888642
-70,659,-0.0592041,0.0931091,-0.00189939,0.0026626,-0.00109574,0.00291214,-0.00214893,-1.34688,0.00293306,0.0237222,1154,365,-0.0592249,-0.0931092
-63,659,0.0233154,0.105042,0,0,0,0,0,0,0,-1,1161,365,0.0233633,-0.105055
-56,659,-0.0488281,0.0839233,-0.000922414,0.00559084,0.00123103,0.00581575,-0.00114732,1.39009,0.0043108,0.019148,1168,365,-0.0487913,-0.0839147
-49,659,-0.0339355,0.0809631,0.000592073,0.00723272,0.00241299,0.00801691,-0.000192118,1.25658,0.00540979,0.0133126,1175,365,-0.0338896,-0.0809509
-42,659,-0.0270996,0.0932312,0.00105852,0.00827792,0.00322162,0.00950648,-0.000170043,1.20647,0.00639509,0.0102646,1182,365,-0.0271345,-0.0932435
-35,659,-0.0124512,0.0988159,0.00146124,0.00918962,0.00359823,0.0106055,4.53521e-05,1.19591,0.00705527,0.00933822,1189,365,-0.0123928,-0.0988196
-28,659,-0.024292,0.0805054,0.00134411,0.00979189,0.00428127,0.0115822,-0.000446196,1.17472,0.00787441,0.010399,1196,365,-0.0243043,-0.080502
-21,659,-0.0385742,0.0793762,0.00063268,0.00976994,0.00525133,0.0121618,-0.00175921,1.14339,0.00875341,0.0117508,1203,365,-0.0386083,-0.0793613
-14,659,-0.0341797,0.0874939,0.000343654,0.00975599,0.00548628,0.012278,-0.0021784,1.1399,0.00899981,0.00897356,1210,365,-0.0341967,-0.0875017
-7,659,-0.0270996,0.0827332,0.000346059,0.00866782,0.00517454,0.0111469,-0.002133,1.12402,0.00823486,0.00835708,1217,365,-0.0271513,-0.0827285
0,659,-0.0344238,0.0920715,0.000486486,0.00767852,0.00479947,0.0100797,-0.00191468,1.10691,0.00744059,0.00733314,1224,365,-0.034439,-0.0920823
7,659,-0.0393066,0.0990295,0.00037982,0.00648219,0.00424007,0.00865479,-0.00179278,1.09728,0.00645103,0.0068734,1231,365,-0.039345,-0.0990254
14,659,-0.0413818,0.0777893,0.000509997,0.00557776,0.00364783,0.00748542,-0.00139766,1.08895,0.00551551,0.00953949,1238,365,-0.0414187,-0.077789
21,659,-0.0357666,0.0796204,0.000537494,0.00450667,0.00294429,0.00607277,-0.00102861,1.08195,0.00443136,0.0102837,1245,365,-0.0357328,-0.0796224
28,659,-0.0322266,0.0919189,0.000544733,0.00345987,0.0022048,0.00464534,-0.000640734,1.07746,0.00333108,0.00942399,1252,365,-0.0322098,-0.0919129
35,659,-0.0324707,0.0924988,0.000708764,0.0031027,0.00150335,0.00382739,-1.59312e-05,1.12161,0.00255692,0.00936316,1259,365,-0.0324896,-0.0924983
42,659,-0.0374756,0.0820923,0.000858908,0.00374532,0.00058842,0.00386067,0.000743563,1.37723,0.00236521,0.0102936,1266,365,-0.0375345,-0.0820898
49,659,-0.0426025,0.0779114,0.00070827,0.00448688,-0.000164755,0.00449405,0.0007011,-1.5273,0.00279183,0.0107215,1273,365,-0.0425451,-0.0779126
56,659,-0.055542,0.0943604,0.000218177,0.00500987,-0.000979974,0.00520255,2.55047e-05,-1.37666,0.00345989,0.0137282,1280,365,-0.0555028,-0.094375
63,659,-0.041626,0.0862122,-0.00050446,0.00571752,-0.0016624,0.00613383,-0.000920768,-1.32542,0.00442817,0.0154398,1287,365,-0.0416,-0.0861991
70,659,-0.0189209,0.0673218,-0.00150813,0.00607699,-0.00235997,0.00675131,-0.00218245,-1.29248,0.00537805,0.0163955,1294,365,-0.0189456,-0.0673177
77,659,-0.0408936,0.0840759,-0.00237848,0.00584313,-0.00349654,0.00712904,-0.00366439,-1.21838,0.0063377,0.0161105,1301,365,-0.0408628,-0.0840625
84,659,-0.0341797,0.0855103,-0.00322247,0.00583134,-0.00465101,0.00779479,-0.00518592,-1.17134,0.0075447,0.0117196,1308,365,-0.0341473,-0.0854998
91,659,-0.0462646,0.0819397,-0.00479296,0.00534528,-0.00481855,0.00727004,-0.00671772,-1.19077,0.00807793,0.0101641,1315,365,-0.0462528,-0.0819419
98,659,-0.0540771,0.0799255,-0.00548393,0.00488528,-0.00560901,0.00733881,-0.00793746,-1.15845,0.00882202,0.00742479,1322,365,-0.0540975,-0.0799242
105,659,-0.0566406,0.0891418,-0.00582674,0.00354192,-0.00601509,0.00648152,-0.00876634,-1.11623,0.00883624,0.00861432,1329,365,-0.056696,-0.0891354
112,659,-0.0548096,0.0909729,-0.00572287,0.00267743,-0.00616505,0.00593711,-0.00898255,-1.08443,0.00867348,0.00985402,1336,365,-0.0548653,-0.0909856
119,659,-0.0352783,0.094574,-0.00516392,0.00195243,-0.00582365,0.00521887,-0.00843037,-1.05963,0.00795277,0.010771,1343,365,-0.0353205,-0.0945865
126,659,-0.0394287,0.113861,-0.00391401,0.00124946,-0.00540771,0.00466011,-0.00732466,-1.00811,0.00697618,0.0115692,1350,365,-0.0394675,-0.113869
133,659,-0.0400391,0.113068,-0.00249169,0.000811549,-0.00478437,0.00422136,-0.0059015,-0.951599,0.00587121,0.0102062,1357,365,-0.0400813,-0.113081
140,659,-0.0571289,0.0895691,-0.00123676,0.000469553,-0.00412638,0.00383005,-0.00459726,-0.88734,0.00487222,0.00836534,1364,365,-0.0571451,-0.0895596
147,659,-0.0621338,0.0913086,-0.000321285,0.000456454,-0.00337684,0.00346675,-0.00333158,-0.842725,0.00392527,0.00792761,1371,365,-0.0621063,-0.0913214
154,659,-0.045166,0.103302,-5.1603e-05,0.000744618,-0.00244708,0.00282576,-0.00213274,-0.866036,0.0028721,0.0087708,1378,365,-0.045133,-0.103291
161,659,-0.0373535,0.0895996,0.000413577,0.00104869,-0.00158795,0.00235053,-0.00088826,-0.884085,0.0019324,0.00913672,1385,365,-0.0373213,-0.0896132
168,659,-0.055542,0.0844116,0.00104641,0.00138122,-0.000997122,0.0022249,0.000202743,-0.868567,0.00142051,0.0103988,1392,365,-0.0555872,-0.0844109
175,659,-0.0596924,0.0913696,0.0013477,0.00166242,-0.000451376,0.00198308,0.00102704,-0.953124,0.00114518,0.00939204,1399,365,-0.0597013,-0.0913716
182,659,-0.0410156,0.088501,0.00113775,0.00176232,9.16678e-05,0.0017755,0.00112457,1.42804,0.00103717,0.0104837,1406,365,-0.0410445,-0.0885119
189,659,-0.0355225,0.0922241,0.000385349,0.00137345,0.000184987,0.00140695,0.000351853,1.39166,0.000845449,0.0102986,1413,365,-0.0355825,-0.0922125
196,659,-0.0556641,0.102112,9.24972e-05,0.000869209,0.000385119,0.00102779,-6.60807e-05,1.18019,0.000708246,0.0117877,1420,365,-0.055623,-0.102113
203,659,-0.0917969,0.0741882,-0.000187079,-1.2886e-05,0.00104753,0.000951166,-0.00115113,0.826875,0.00121559,0.0182184,1427,365,-0.0918376,-0.0742009
210,659,-0.0997314,0.0491333,0.000216261,-0.000265122,0.00122328,0.0012223,-0.00127116,0.688259,0.00143969,0.0249376,1434,365,-0.0996976,-0.0491233
217,659,-0.181885,0.032196,0.00128404,-0.00124561,0.00126827,0.00181039,-0.00177196,0.39338,0.00206831,0.0314332,1441,365,-0.181844,-0.0321942
224,659,-0.0126953,0.0148926,0.00228226,-0.00196348,0.00136944,0.00268564,-0.00236686,0.286457,0.002919,0.0387378,1448,365,-0.0126507,-0.0148781
231,659,0.0195313,0.0293579,0.00318552,-0.00260335,0.00185382,0.0037283,-0.00314613,0.284826,0.00397369,0.0412386,1455,365,0.0195775,-0.0293579
238,659,0.164795,0.183868,0.00399637,-0.00304928,0.00208974,0.00456956,-0.00362246,0.267702,0.00474019,0.0446074,1462,365,0.16485,-0.183858
245,659,0.323608,0.234741,0,0,0,0,0,0,0,-1,1469,365,0.323617,-0.234744
252,659,-0.130737,-0.131378,0.0051591,-0.00382756,0.00190215,0.00554513,-0.00421359,0.200227,0.00565166,0.0417706,1476,365,-0.130788,0.131386
259,659,-0.306885,0.228699,0.0061483,-0.00411896,0.00121382,0.00628985,-0.00426051,0.11609,0.0061287,0.0445506,1483,365,-0.306894,-0.228704
266,659,-0.0296631,0.229645,0.00708543,-0.00539845,0.000427456,0.00710005,-0.00541307,0.0341873,0.0072463,0.0426103,1490,365,-0.0296706,-0.229636
273,659,0.341431,0.159668,0.00749569,-0.00762781,-0.000254116,0.00749996,-0.00763208,-0.0167964,0.0087366,0.0399791,1497,365,0.341423,-0.15967
280,659,0.287354,0.161865,0.00797085,-0.0106432,-0.000813623,0.00800635,-0.0106787,-0.0435993,0.0108245,0.0401794,1504,365,0.287327,-0.161858
287,659,0.297119,-0.0588989,0.00853382,-0.0123267,-0.00177826,0.00868432,-0.0124772,-0.0844333,0.0122828,0.0446381,1511,365,0.297105,0.0589114
294,659,0.30188,-0.303711,0.00880054,-0.0144519,-0.00289767,0.00915621,-0.0148075,-0.12213,0.0139631,0.0454662,1518,365,0.30189,0.303703
301,659,0.331909,-0.225647,0.00841697,-0.0165384,-0.00426683,0.00912634,-0.0172478,-0.164745,0.0154659,0.0436295,1525,365,0.331928,0.225633
308,659,0.200317,-0.136902,0.0079047,-0.018849,-0.00493368,0.00878552,-0.0197299,-0.176672,0.0168627,0.0426512,1532,365,0.200349,0.136912
315,659,0.841797,-1.30063,0.00741598,-0.0200454,-0.00538199,0.00843309,-0.0210625,-0.186782,0.0175419,0.0403773,1539,365,0.841832,1.30063
322,659,1.12354,-1.62659,0.00748645,-0.0200806,-0.00657087,0.00897257,-0.0215667,-0.222425,0.0181247,0.0433945,1546,365,1.12348,1.62658
329,659,1.41577,-1.74094,0,0,0,0,0,0,0,-1,1553,365,1.41575,1.74095
336,659,-0.257202,0.309357,0,0,0,0,0,0,0,-1,1560,365,-0.257262,-0.309352
343,659,0,0,0,0,0,0,0,0,0,-1,1567,365,0,0
350,659,0,0,0,0,0,0,0,0,0,-1,1574,365,0,0
357,659,0,0,0,0,0,0,0,0,0,-1,1581,365,0,0
364,659,0,0,0,0,0,0,0,0,0,-1,1588,365,0,0
371,659,0,0,0,0,0,0,0,0,0,-1,1595,365,0,0
378,659,0,0,0,0,0,0,0,0,0,-1,1602,365,0,0
385,659,0,0,0,0,0,0,0,0,0,-1,1609,365,0,0
392,659,0,0,0,0,0,0,0,0,0,-1,1616,365,0,0
399,659,0,0,0,0,0,0,0,0,0,-1,1623,365,0,0
406,659,0,0,0,0,0,0,0,0,0,-1,1630,365,0,0
413,659,0,0,0,0,0,0,0,0,0,-1,1637,365,0,0
420,659,0,0,0,0,0,0,0,0,0,-1,1644,365,0,0
427,659,0,0,0,0,0,0,0,0,0,-1,1651,365,0,0
434,659,0,0,0,0,0,0,0,0,0,-1,1658,365,0,0
441,659,0,0,0,0,0,0,0,0,0,-1,1665,365,0,0
448,659,0,0,0,0,0,0,0,0,0,-1,1672,365,0,0
455,659,0,0,0,0,0,0,0,0,0,-1,1679,365,0,0
462,659,0,0,0,0,0,0,0,0,0,-1,1686,365,0,0
469,659,0,0,0,0,0,0,0,0,0,-1,1693,365,0,0
476,659,0,0,0,0,0,0,0,0,0,-1,1700,365,0,0
483,659,0,0,0,0,0,0,0,0,0,-1,1707,365,0,0
490,659,0,0,0,0,0,0,0,0,0,-1,1714,365,0,0
497,659,0,0,0,0,0,0,0,0,0,-1,1721,365,0,0
504,659,0,0,0,0,0,0,0,0,0,-1,1728,365,0,0
511,659,0,0,0,0,0,0,0,0,0,-1,1735,365,0,0
518,659,0,0,0,0,0,0,0,0,0,-1,1742,365,0,0
525,659,0,0,0,0,0,0,0,0,0,-1,1749,365,0,0
532,659,0,0,0,0,0,0,0,0,0,-1,1756,365,0,0
539,659,0,0,0,0,0,0,0,0,0,-1,1763,365,0,0
546,659,0,0,0,0,0,0,0,0,0,-1,1770,365,0,0
553,659,0,0,0,0,0,0,0,0,0,-1,1777,365,0,0
560,659,0,0,0,0,0,0,0,0,0,-1,1784,365,0,0
567,659,0,0,0,0,0,0,0,0,0,-1,1791,365,0,0
574,659,0,0,0,0,0,0,0,0,0,-1,1798,365,0,0
581,659,0,0,0,0,0,0,0,0,0,-1,1805,365,0,0
588,659,0,0,0,0,0,0,0,0,0,-1,1812,365,0,0
595,659,0,0,0,0,0,0,0,0,0,-1,1819,365,0,0
602,659,0,0,0,0,0,0,0,0,0,-1,1826,365,0,0
609,659,0,0,0,0,0,0,0,0,0,-1,1833,365,0,0
616,659,0,0,0,0,0,0,0,0,0,-1,1840,365,0,0
623,659,0,0,0,0,0,0,0,0,0,-1,1847,365,0,0
630,659,0,0,0,0,0,0,0,0,0,-1,1854,365,0,0
637,659,0,0,0,0,0,0,0,0,0,-1,1861,365,0,0
644,659,0,0,0,0,0,0,0,0,0,-1,1868,365,0,0
651,659,0,0,0,0,0,0,0,0,0,-1,1875,365,0,0
658,659,0,0,0,0,0,0,0,0,0,-1,1882,365,0,0
665,659,0,0,0,0,0,0,0,0,0,-1,1889,365,0,0
672,659,0,0,0,0,0,0,0,0,0,-1,1896,365,0,0
679,659,0,0,0,0,0,0,0,0,0,-1,1903,365,0,0
686,659,0,0,0,0,0,0,0,0,0,-1,1910,365,0,0
693,659,0,0,0,0,0,0,0,0,0,-1,1917,365,0,0
700,659,0,0,0,0,0,0,0,0,0,-1,1924,365,0,0
707,659,0,0,0,0,0,0,0,0,0,-1,1931,365,0,0
714,659,0,0,0,0,0,0,0,0,0,-1,1938,365,0,0
721,659,0,0,0,0,0,0,0,0,0,-1,1945,365,0,0
728,659,0,0,0,0,0,0,0,0,0,-1,1952,365,0,0
735,659,0,0,0,0,0,0,0,0,0,-1,1959,365,0,0
742,659,0,0,0,0,0,0,0,0,0,-1,1966,365,0,0
749,659,0,0,0,0,0,0,0,0,0,-1,1973,365,0,0
756,659,0,0,0,0,0,0,0,0,0,-1,1980,365,0,0
763,659,0,0,0,0,0,0,0,0,0,-1,1987,365,0,0
770,659,0,0,0,0,0,0,0,0,0,-1,1994,365,0,0
777,659,0,0,0,0,0,0,0,0,0,-1,2001,365,0,0
784,659,0,0,0,0,0,0,0,0,0,-1,2008,365,0,0
791,659,0,0,0,0,0,0,0,0,0,-1,2015,365,0,0
798,659,0,0,0,0,0,0,0,0,0,-1,2022,365,0,0
805,659,0,0,0,0,0,0,0,0,0,-1,2029,365,0,0
812,659,0,0,0,0,0,0,0,0,0,-1,2036,365,0,0
-700,652,0,0,0,0,0,0,0,0,0,-1,524,372,0,0
-693,652,0,0,0,0,0,0,0,0,0,-1,531,372,0,0
-686,652,0,0,0,0,0,0,0,0,0,-1,538,372,0,0
-679,652,0,0,0,0,0,0,0,0,0,-1,545,372,0,0
-672,652,0,0,0,0,0,0,0,0,0,-1,552,372,0,0
-665,652,0,0,0,0,0,0,0,0,0,-1,559,372,0,0
-658,652,0,0,0,0,0,0,0,0,0,-1,566,372,0,0
-651,652,0,0,0,0,0,0,0,0,0,-1,573,372,0,0
-644,652,0,0,0,0,0,0,0,0,0,-1,580,372,0,0
-637,652,0,0,0,0,0,0,0,0,0,-1,587,372,0,0
-630,652,0,0,0,0,0,0,0,0,0,-1,594,372,0,0
-623,652,0,0,0,0,0,0,0,0,0,-1,601,372,0,0
-616,652,0,0,0,0,0,0,0,0,0,-1,608,372,0,0
-609,652,0,0,0,0,0,0,0,0,0,-1,615,372,0,0
-602,652,0,0,0,0,0,0,0,0,0,-1,622,372,0,0
-595,652,0,0,0,0,0,0,0,0,0,-1,629,372,0,0
-588,652,0,0,0,0,0,0,0,0,0,-1,636,372,0,0
-581,652,0,0,0,0,0,0,0,0,0,-1,643,372,0,0
-574,652,0,0,0,0,0,0,0,0,0,-1,650,372,0,0
-567,652,0,0,0,0,0,0,0,0,0,-1,657,372,0,0
-560,652,0,0,0,0,0,0,0,0,0,-1,664,372,0,0
-553,652,0,0,0,0,0,0,0,0,0,-1,671,372,0,0
-546,652,0,0,0,0,0,0,0,0,0,-1,678,372,0,0
-539,652,0,0,0,0,0,0,0,0,0,-1,685,372,0,0
-532,652,0,0,0,0,0,0,0,0,0,-1,692,372,0,0
-525,652,0,0,0,0,0,0,0,0,0,-1,699,372,0,0
-518,652,0,0,0,0,0,0,0,0,0,-1,706,372,0,0
-511,652,0,0,0,0,0,0,0,0,0,-1,713,372,0,0
-504,652,0,0,0,0,0,0,0,0,0,-1,720,372,0,0
-497,652,0,0,0,0,0,0,0,0,0,-1,727,372,0,0
-490,652,0,0,0,0,0,0,0,0,0,-1,734,372,0,0
-483,652,0,0,0,0,0,0,0,0,0,-1,741,372,0,0
-476,652,0,0,0,0,0,0,0,0,0,-1,748,372,0,0
-469,652,0,0,0,0,0,0,0,0,0,-1,755,372,0,0
-462,652,0,0,0,0,0,0,0,0,0,-1,762,372,0,0
-455,652,0,0,0,0,0,0,0,0,0,-1,769,372,0,0
-448,652,0,0,0,0,0,0,0,0,0,-1,776,372,0,0
-441,652,0,0,0,0,0,0,0,0,0,-1,783,372,0,0
-434,652,0,0,0,0,0,0,0,0,0,-1,790,372,0,0
-427,652,0,0,0,0,0,0,0,0,0,-1,797,372,0,0
-420,652,0,0,0,0,0,0,0,0,0,-1,804,372,0,0
-413,652,0,0,0,0,0,0,0,0,0,-1,811,372,0,0
-406,652,0,0,0,0,0,0,0,0,0,-1,818,372,0,0
-399,652,0,0,0,0,0,0,0,0,0,-1,825,372,0,0
-392,652,0,0,0,0,0,0,0,0,0,-1,832,372,0,0
-385,652,0,0,0,0,0,0,0,0,0,-1,839,372,0,0
-378,652,0,0,0,0,0,0,0,0,0,-1,846,372,0,0
-371,652,0,0,0,0,0,0,0,0,0,-1,853,372,0,0
-364,652,0,0,0,0,0,0,0,0,0,-1,860,372,0,0
-357,652,0,0,0,0,0,0,0,0,0,-1,867,372,0,0
-350,652,0,0,0,0,0,0,0,0,0,-1,874,372,0,0
-343,652,0,0,0,0,0,0,0,0,0,-1,881,372,0,0
-336,652,0,0,0,0,0,0,0,0,0,-1,888,372,0,0
-329,652,0,0,0,0,0,0,0,0,0,-1,895,372,0,0
-322,652,0,0,0,0,0,0,0,0,0,-1,902,372,0,0
-315,652,0,0,0,0,0,0,0,0,0,-1,909,372,0,0
-308,652,0,0,0,0,0,0,0,0,0,-1,916,372,0,0
-301,652,0,0,0,0,0,0,0,0,0,-1,923,372,0,0
-294,652,0,0,0,0,0,0,0,0,0,-1,930,372,0,0
-287,652,0,0,0,0,0,0,0,0,0,-1,937,372,0,0
-280,652,0,0,0,0,0,0,0,0,0,-1,944,372,0,0
-273,652,0,0,0,0,0,0,0,0,0,-1,951,372,0,0
-266,652,0,0,0,0,0,0,0,0,0,-1,958,372,0,0
-259,652,0,0,0,0,0,0,0,0,0,-1,965,372,0,0
-252,652,0,0,0,0,0,0,0,0,0,-1,972,372,0,0
-245,652,0,0,0,0,0,0,0,0,0,-1,979,372,0,0
-238,652,0,0,0,0,0,0,0,0,0,-1,986,372,0,0
-231,652,-0.409119,-0.621796,0.00499027,0.00554004,-0.000179847,0.00559365,0.00493666,-1.28112,0.00353054,0.0410001,993,372,-0.409098,0.62181
-224,652,-0.485535,-0.473938,0.00721352,0.0113451,0.00255493,0.0125649,0.00599372,1.12537,0.00725691,0.0392755,1000,372,-0.485552,0.473934
-217,652,-0.439758,-0.171326,0.008153,0.0157746,0.00477708,0.0180747,0.00585293,1.12207,0.0106492,0.0404616,1007,372,-0.43975,0.171316
-210,652,-0.304932,-0.00827026,0.0067688,0.0179221,0.00471667,0.0196493,0.00504161,1.21977,0.0117841,0.0411692,1014,372,-0.304946,0.00826639
-203,652,-0.186462,0.172424,0.00626769,0.0185753,0.00462426,0.0201191,0.00472389,1.24858,0.0121482,0.0414296,1021,372,-0.186461,-0.172422
-196,652,-0.239502,-0.130554,0.00690685,0.0181609,0.0040127,0.0194451,0.00562264,1.26106,0.0115546,0.043755,1028,372,-0.239463,0.13054
-189,652,-0.0629883,-0.0931091,0.0076769,0.0166847,0.00323181,0.0177243,0.00663736,1.25959,0.01034,0.0390667,1035,372,-0.0629406,0.0930996
-182,652,-0.300293,-0.179352,0,0,0,0,0,0,0,-1,1042,372,-0.300306,0.179341
-175,652,0.0159912,0.0132446,0.00957489,0.0111098,0.00141315,0.0119505,0.00873426,1.03416,0.00714057,0.0391315,1049,372,0.015993,-0.0132408
-168,652,-0.242065,0.448517,0.0102442,0.00816783,0.000668151,0.0104407,0.00797141,0.285918,0.00630076,0.0381226,1056,372,-0.24207,-0.448524
-161,652,-0.339844,0.685699,0.0104199,0.00537049,-0.000398226,0.0104511,0.00533927,-0.0782216,0.00603442,0.0411828,1063,372,-0.339902,-0.685707
-154,652,0.328369,0.0124207,0.010006,0.00291401,-0.00136123,0.0102583,0.00266171,-0.183267,0.00614682,0.0454038,1070,372,0.32838,-0.0124337
-147,652,0.349365,-0.0188599,0.00998988,0.000808776,-0.00196289,0.0103919,0.000406722,-0.202033,0.00679644,0.0426271,1077,372,0.349323,0.0188491
-140,652,0.251221,0.116241,0.00916564,-0.000162285,-0.00187792,0.00952951,-0.000526156,-0.191392,0.00653546,0.0426252,1084,372,0.251259,-0.116253
-133,652,0.324707,0.247559,0.00784842,-0.000714849,-0.00190742,0.00825408,-0.0011205,-0.209548,0.00591172,0.0395281,1091,372,0.324654,-0.247563
-126,652,0.160767,0.277191,0.0065317,-0.000924958,-0.00181429,0.00694971,-0.00134296,-0.226445,0.00513961,0.0358607,1098,372,0.160781,-0.277186
-119,652,0.0130615,0.195038,0.00547773,-0.00146813,-0.00213427,0.00608111,-0.00207151,-0.275522,0.004893,0.0300373,1105,372,0.0131037,-0.195051
-112,652,-0.00646973,0.125854,0.0040975,-0.00145066,-0.00218902,0.00485717,-0.00221032,-0.334029,0.00417471,0.0222244,1112,372,-0.00646239,-0.125856
-105,652,-0.0852051,0.108124,0.00267181,-0.00125296,-0.00187479,0.00342343,-0.00200457,-0.381286,0.00316934,0.0189381,1119,372,-0.0852286,-0.108131
-98,652,-0.0841064,0.100861,0.00113888,-0.000905112,-0.00175542,0.00214813,-0.00191436,-0.521785,0.00234678,0.0223619,1126,372,-0.084052,-0.100855
-91,652,-0.0186768,0.100952,-4.12804e-05,-0.000755954,-0.00163619,0.00127614,-0.00207337,-0.677888,0.00195201,0.0215935,1133,372,-0.0187122,-0.10095
-84,652,-0.0216064,0.0976868,-0.000789678,-0.000225806,-0.0014242,0.000944095,-0.00195958,-0.883115,0.00171027,0.017857,1140,372,-0.0216088,-0.0976799
-77,652,-0.0493164,0.0931396,-0.00128571,0.000854104,-0.00123893,0.00142116,-0.00185277,-1.14156,0.00189567,0.0140249,1147,372,-0.049358,-0.093152
-70,652,-0.0548096,0.0845337,-0.00117478,0.0022495,-0.000923522,0.00248269,-0.00140797,-1.32346,0.00227466,0.0101141,1154,372,-0.0547499,-0.0845353
-63,652,-0.0245361,0.0922852,-0.00115694,0.00320836,-0.000207409,0.0032182,-0.00116678,-1.52343,0.00262239,0.00986698,1161,372,-0.0245505,-0.0922947
-56,652,-0.0268555,0.101837,-0.000512408,0.00428454,0.000638844,0.00436816,-0.00059603,1.44064,0.00312976,0.00942085,1168,372,-0.026857,-0.101837
-49,652,-0.0305176,0.101257,0.000589079,0.00545892,0.00147587,0.00587129,0.000176714,1.29834,0.00385664,0.00790307,1175,372,-0.0304773,-0.101245
-42,652,-0.0388184,0.106201,0.000858765,0.00616025,0.00205625,0.0068643,0.000154721,1.24091,0.00452551,0.00791379,1182,372,-0.0388251,-0.106199
-35,652,-0.036499,0.0901184,0.00105868,0.00672956,0.0023835,0.00759828,0.000189963,1.22129,0.0050034,0.00689118,1189,372,-0.0365079,-0.0901334
-28,652,-0.0332031,0.0823669,0.000949383,0.00705933,0.0029,0.00821659,-0.000207872,1.19111,0.00554832,0.00680922,1196,372,-0.0332468,-0.0823644
-21,652,-0.041748,0.0876465,0.000470374,0.00692189,0.00337642,0.00836579,-0.000973526,1.16669,0.00592841,0.00757529,1203,372,-0.0417706,-0.0876526
-14,652,-0.0327148,0.0935669,0.000224467,0.00675122,0.00346478,0.0082475,-0.00127181,1.16313,0.00596762,0.00953514,1210,372,-0.0326922,-0.0935754
-7,652,-0.024292,0.0816345,0.000162482,0.00585253,0.0032139,0.00729974,-0.00128473,1.14769,0.00534644,0.0119009,1217,372,-0.0242844,-0.0816365
0,652,-0.039917,0.0702515,0.00018094,0.00503421,0.0029185,0.00640312,-0.00118797,1.13222,0.00471489,0.010694,1224,372,-0.0398676,-0.070237
7,652,-0.048584,0.103241,4.99489e-05,0.00409829,0.00246893,0.00526675,-0.00111851,1.12876,0.00393732,0.0113594,1231,372,-0.0485732,-0.103241
14,652,-0.0601807,0.101898,3.07108e-06,0.00338243,0.00200357,0.00431369,-0.000928189,1.1357,0.00322996,0.0104487,1238,372,-0.0601671,-0.10191
21,652,-0.0561523,0.0863342,-6.9794e-05,0.00255018,0.00145918,0.00320112,-0.000720742,1.15119,0.00241052,0.00946772,1245,372,-0.0561401,-0.0863246
28,652,-0.0482178,0.0838013,-0.000142239,0.0018277,0.000929965,0.00219736,-0.000511891,1.19246,0.00166202,0.0086312,1252,372,-0.0481628,-0.0838023
35,652,-0.0458984,0.10376,-9.61625e-05,0.00158364,0.000466862,0.00170468,-0.000217195,1.31713,0.00121534,0.00953338,1259,372,-0.0458816,-0.103761
42,652,-0.0537109,0.096283,-3.87822e-05,0.00206009,-0.000122948,0.00206726,-4.59597e-05,-1.51248,0.00139375,0.010495,1266,372,-0.0537707,-0.0962741
49,652,-0.0515137,0.0770264,-0.000178028,0.00264362,-0.000606218,0.00276835,-0.000302758,-1.36788,0.00195432,0.0124575,1273,372,-0.0515136,-0.0770372
56,652,-0.0604248,0.0868225,-0.000420583,0.00314112,-0.00107216,0.00343896,-0.000718424,-1.29983,0.00256586,0.0145585,1280,372,-0.0604826,-0.0868245
63,652,-0.0511475,0.106049,-0.000715454,0.00381321,-0.00146699,0.00424688,-0.00114913,-1.28336,0.00328206,0.0178837,1287,372,-0.0511946,-0.106056
70,652,-0.0240479,0.0864258,-0.00109042,0.00428327,-0.00191132,0.00489374,-0.00170089,-1.26164,0.00395337,0.0155531,1294,372,-0.0240811,-0.0864208
77,652,-0.041626,0.100861,-0.00135779,0.00434553,-0.00259209,0.00534756,-0.00235982,-1.20192,0.00455994,0.0148516,1301,372,-0.0416722,-0.100874
84,652,-0.0439453,0.0864868,-0.00166487,0.004505,-0.00312907,0.00581414,-0.00297401,-1.17455,0.00516141,0.0123628,1308,372,-0.0439985,-0.0864897
91,652,-0.059082,0.0678101,-0.00241461,0.00433299,-0.00322279,0.0056249,-0.00370652,-1.18954,0.00542532,0.0144551,1315,372,-0.0590484,-0.0678149
98,652,-0.0596924,0.0883484,-0.00252633,0.00415616,-0.0037644,0.00584826,-0.00421843,-1.14836,0.00583735,0.0113859,1322,372,-0.059659,-0.0883487
105,652,-0.0441895,0.104645,-0.00246046,0.00333808,-0.0040206,0.00539572,-0.0045181,-1.09777,0.00573122,0.00974587,1329,372,-0.0441621,-0.104642
112,652,-0.036377,0.0960693,-0.00225843,0.00285534,-0.00408524,0.00511788,-0.00452097,-1.06502,0.00556855,0.00858383,1336,372,-0.0364268,-0.0960693
119,652,-0.0404053,0.0998535,-0.00177018,0.00244207,-0.00381988,0.00469797,-0.00402608,-1.03734,0.00504181,0.00939989,1343,372,-0.0404365,-0.0998431
126,652,-0.0493164,0.0984192,-0.000998853,0.00198975,-0.0035094,0.00430974,-0.00331885,-0.986672,0.00441674,0.010921,1350,372,-0.049259,-0.0984224
133,652,-0.0533447,0.104553,-0.000164612,0.00165822,-0.00307174,0.00395091,-0.0024573,-0.929616,0.00373313,0.0113623,1357,372,-0.0533762,-0.104544
140,652,-0.0515137,0.0967102,0.000477765,0.00141184,-0.0026264,0.00361241,-0.0017228,-0.873391,0.00314402,0.009075,1364,372,-0.0515295,-0.0967135
147,652,-0.0424805,0.0897522,0.000816809,0.00137994,-0.00213413,0.003251,-0.00105425,-0.850986,0.00259125,0.00859247,1371,372,-0.0425188,-0.0897632
154,652,-0.0424805,0.0908203,0.00072017,0.00146882,-0.00153346,0.00267298,-0.000483992,-0.90511,0.00196331,0.00919506,1378,372,-0.0424941,-0.0908286
161,652,-0.0455322,0.091095,0.000714425,0.00150481,-0.00104809,0.00222974,-1.05052e-05,-0.965685,0.00149001,0.0104413,1385,372,-0.0455747,-0.0910898
168,652,-0.0517578,0.0823364,0.000891478,0.00159326,-0.000717554,0.00204112,0.000443615,-1.01281,0.00123962,0.010718,1392,372,-0.0517936,-0.0823486
175,652,-0.0498047,0.0915527,0.000903829,0.00164347,-0.000402404,0.00182018,0.000727119,-1.15701,0.00105794,0.00880879,1399,372,-0.049856,-0.0915537
182,652,-0.0450439,0.0924377,0.000593726,0.0015498,-0.00010096,0.00156035,0.000583181,-1.46673,0.000910388,0.00965014,1406,372,-0.0450186,-0.0924509
189,652,-0.0334473,0.0950928,4.63477e-05,0.00119749,-5.11129e-05,0.00119975,4.40826e-05,-1.52651,0.000785554,0.0100702,1413,372,-0.0333906,-0.0950928
196,652,-0.0391846,0.11673,-0.000159166,0.000760266,7.63124e-05,0.000766556,-0.000165457,1.48855,0.000574192,0.00875578,1420,372,-0.0391295,-0.116717
203,652,-0.0517578,0.104767,-0.000328474,5.0637e-05,0.000524155,0.000418459,-0.000696296,0.958902,0.000650233,0.0100977,1427,372,-0.0518063,-0.104782
210,652,-0.0229492,0.0812073,-2.65227e-06,-0.000220202,0.000656775,0.000554294,-0.000777148,0.703333,0.00077229,0.0132303,1434,372,-0.0228896,-0.0811973
217,652,-0.0198975,0.0604553,0.000834858,-0.000981322,0.000721452,0.00108656,-0.00123303,0.335681,0.0013401,0.0134873,1441,372,-0.0199461,-0.0604506
224,652,-0.0119629,0.0621033,0.00163605,-0.00150685,0.000868128,0.0018599,-0.0017307,0.252357,0.00207348,0.017107,1448,372,-0.0119751,-0.0620988
231,652,-0.012085,0.0910645,0.00237261,-0.00199222,0.00125615,0.0027083,-0.00232791,0.261133,0.00291042,0.0228292,1455,372,-0.0121287,-0.0910597
238,652,-0.0493164,0.146942,0.0030491,-0.00233061,0.00143781,0.00340927,-0.00269077,0.245445,0.00353,0.0248976,1462,372,-0.04932,-0.146954
245,652,-0.0803223,0.0506287,0.00358206,-0.00250777,0.00150699,0.00393457,-0.00286028,0.229788,0.00393932,0.0228812,1469,372,-0.0803692,-0.0506169
252,652,-0.0755615,-0.0325928,0.00405805,-0.00300408,0.00132138,0.00429719,-0.00324323,0.179042,0.00436762,0.0269843,1476,372,-0.0755207,0.0325884
259,652,-0.102783,-0.0339355,0.0049168,-0.00327674,0.000842703,0.00500258,-0.00336251,0.101435,0.00486043,0.0383026,1483,372,-0.102831,0.0339348
266,652,0.00756836,0.0795288,0.00581862,-0.00443195,0.000295366,0.00582712,-0.00444045,0.0287827,0.00594598,0.0377913,1490,372,0.0075339,-0.0795241
273,652,0.122925,0.0910645,0.00627079,-0.00638172,-0.000101037,0.0062716,-0.00638252,-0.00798486,0.00730595,0.0345953,1497,372,0.122982,-0.0910645
280,652,0.189575,0.144226,0.00678691,-0.00894369,-0.000377579,0.00679596,-0.00895275,-0.0239844,0.0091209,0.0362874,1504,372,0.189558,-0.144233
287,652,0.226074,0.0228271,0.00734426,-0.0101962,-0.000985172,0.00739942,-0.0102514,-0.0559311,0.010235,0.0423268,1511,372,0.226087,-0.0228311
294,652,0.202393,-0.177368,0.00752374,-0.0118196,-0.00171339,0.00767434,-0.0119702,-0.0876679,0.0114318,0.0433374,1518,372,0.202371,0.177374
301,652,0.213013,-0.189484,0.00721613,-0.0133438,-0.00253708,0.00752458,-0.0136523,-0.120982,0.0123959,0.0431318,1525,372,0.213068,0.189481
308,652,0.459229,-0.320831,0.00675236,-0.0150586,-0.00276112,0.00709647,-0.0154027,-0.123988,0.0132817,0.0417832,1532,372,0.459176,0.320832
315,652,0.543823,-0.586609,0.00617268,-0.0157251,-0.00284451,0.00653615,-0.0160885,-0.12709,0.0134449,0.0398513,1539,372,0.543775,0.586621
322,652,0.838867,-0.755737,0.00602116,-0.0154716,-0.00368466,0.0066353,-0.0160857,-0.165157,0.0134909,0.0389956,1546,372,0.838865,0.755737
329,652,1.13562,-0.873474,0.00624107,-0.0148336,-0.00458037,0.00719352,-0.0157861,-0.205021,0.0135729,0.0421737,1553,372,1.1356,0.873475
336,652,1.47705,-0.861847,0,0,0,0,0,0,0,-1,1560,372,1.47708,0.861839
343,652,-0.203857,0.266022,0.00711817,-0.00958488,-0.0078209,0.0102084,-0.0126751,-0.3763,0.0132374,0.0424864,1567,372,-0.203915,-0.26601
350,652,-0.297241,-0.0308533,0.00826572,-0.00679927,-0.00985826,0.0131398,-0.0116734,-0.459173,0.0143343,0.0423976,1574,372,-0.297192,0.0308589
357,652,0,0,0,0,0,0,0,0,0,-1,1581,372,0,0
364,652,0,0,0,0,0,0,0,0,0,-1,1588,372,0,0
371,652,0,0,0,0,0,0,0,0,0,-1,1595,372,0,0
378,652,0,0,0,0,0,0,0,0,0,-1,1602,372,0,0
385,652,0,0,0,0,0,0,0,0,0,-1,1609,372,0,0
392,652,0,0,0,0,0,0,0,0,0,-1,1616,372,0,0
399,652,0,0,0,0,0,0,0,0,0,-1,1623,372,0,0
406,652,0,0,0,0,0,0,0,0,0,-1,1630,372,0,0
413,652,0,0,0,0,0,0,0,0,0,-1,1637,372,0,0
420,652,0,0,0,0,0,0,0,0,0,-1,1644,372,0,0
427,652,0,0,0,0,0,0,0,0,0,-1,1651,372,0,0
434,652,0,0,0,0,0,0,0,0,0,-1,1658,372,0,0
441,652,0,0,0,0,0,0,0,0,0,-1,1665,372,0,0
448,652,0,0,0,0,0,0,0,0,0,-1,1672,372,0,0
455,652,0,0,0,0,0,0,0,0,0,-1,1679,372,0,0
462,652,0,0,0,0,0,0,0,0,0,-1,1686,372,0,0
469,652,0,0,0,0,0,0,0,0,0,-1,1693,372,0,0
476,652,0,0,0,0,0,0,0,0,0,-1,1700,372,0,0
483,652,0,0,0,0,0,0,0,0,0,-1,1707,372,0,0
490,652,0,0,0,0,0,0,0,0,0,-1,1714,372,0,0
497,652,0,0,0,0,0,0,0,0,0,-1,1721,372,0,0
504,652,0,0,0,0,0,0,0,0,0,-1,1728,372,0,0
511,652,0,0,0,0,0,0,0,0,0,-1,1735,372,0,0
518,652,0,0,0,0,0,0,0,0,0,-1,1742,372,0,0
525,652,0,0,0,0,0,0,0,0,0,-1,1749,372,0,0
532,652,0,0,0,0,0,0,0,0,0,-1,1756,372,0,0
539,652,0,0,0,0,0,0,0,0,0,-1,1763,372,0,0
546,652,0,0,0,0,0,0,0,0,0,-1,1770,372,0,0
553,652,0,0,0,0,0,0,0,0,0,-1,1777,372,0,0
560,652,0,0,0,0,0,0,0,0,0,-1,1784,372,0,0
567,652,0,0,0,0,0,0,0,0,0,-1,1791,372,0,0
574,652,0,0,0,0,0,0,0,0,0,-1,1798,372,0,0
581,652,0,0,0,0,0,0,0,0,0,-1,1805,372,0,0
588,652,0,0,0,0,0,0,0,0,0,-1,1812,372,0,0
595,652,0,0,0,0,0,0,0,0,0,-1,1819,372,0,0
602,652,0,0,0,0,0,0,0,0,0,-1,1826,372,0,0
609,652,0,0,0,0,0,0,0,0,0,-1,1833,372,0,0
616,652,0,0,0,0,0,0,0,0,0,-1,1840,372,0,0
623,652,0,0,0,0,0,0,0,0,0,-1,1847,372,0,0
630,652,0,0,0,0,0,0,0,0,0,-1,1854,372,0,0
637,652,0,0,0,0,0,0,0,0,0,-1,1861,372,0,0
644,652,0,0,0,0,0,0,0,0,0,-1,1868,372,0,0
651,652,0,0,0,0,0,0,0,0,0,-1,1875,372,0,0
658,652,0,0,0,0,0,0,0,0,0,-1,1882,372,0,0
665,652,0,0,0,0,0,0,0,0,0,-1,1889,372,0,0
672,652,0,0,0,0,0,0,0,0,0,-1,1896,372,0,0
679,652,0,0,0,0,0,0,0,0,0,-1,1903,372,0,0
686,652,0,0,0,0,0,0,0,0,0,-1,1910,372,0,0
693,652,0,0,0,0,0,0,0,0,0,-1,1917,372,0,0
700,652,0,0,0,0,0,0,0,0,0,-1,1924,372,0,0
707,652,0,0,0,0,0,0,0,0,0,-1,1931,372,0,0
714,652,0,0,0,0,0,0,0,0,0,-1,1938,372,0,0
721,652,0,0,0,0,0,0,0,0,0,-1,1945,372,0,0
728,652,0,0,0,0,0,0,0,0,0,-1,1952,372,0,0
735,652,0,0,0,0,0,0,0,0,0,-1,1959,372,0,0
742,652,0,0,0,0,0,0,0,0,0,-1,1966,372,0,0
749,652,0,0,0,0,0,0,0,0,0,-1,1973,372,0,0
756,652,0,0,0,0,0,0,0,0,0,-1,1980,372,0,0
763,652,0,0,0,0,0,0,0,0,0,-1,1987,372,0,0
770,652,0,0,0,0,0,0,0,0,0,-1,1994,372,0,0
777,652,0,0,0,0,0,0,0,0,0,-1,2001,372,0,0
784,652,0,0,0,0,0,0,0,0,0,-1,2008,372,0,0
791,652,0,0,0,0,0,0,0,0,0,-1,2015,372,0,0
798,652,0,0,0,0,0,0,0,0,0,-1,2022,372,0,0
805,652,0,0,0,0,0,0,0,0,0,-1,2029,372,0,0
812,652,0,0,0,0,0,0,0,0,0,-1,2036,372,0,0
-700,645,0,0,0,0,0,0,0,0,0,-1,524,379,0,0
-693,645,0,0,0,0,0,0,0,0,0,-1,531,379,0,0
-686,645,0,0,0,0,0,0,0,0,0,-1,538,379,0,0
-679,645,0,0,0,0,0,0,0,0,0,-1,545,379,0,0
-672,645,0,0,0,0,0,0,0,0,0,-1,552,379,0,0
-665,645,0,0,0,0,0,0,0,0,0,-1,559,379,0,0
-658,645,0,0,0,0,0,0,0,0,0,-1,566,379,0,0
-651,645,0,0,0,0,0,0,0,0,0,-1,573,379,0,0
-644,645,0,0,0,0,0,0,0,0,0,-1,580,379,0,0
-637,645,0,0,0,0,0,0,0,0,0,-1,587,379,0,0
-630,645,0,0,0,0,0,0,0,0,0,-1,594,379,0,0
-623,645,0,0,0,0,0,0,0,0,0,-1,601,379,0,0
-616,645,0,0,0,0,0,0,0,0,0,-1,608,379,0,0
-609,645,0,0,0,0,0,0,0,0,0,-1,615,379,0,0
-602,645,0,0,0,0,0,0,0,0,0,-1,622,379,0,0
-595,645,0,0,0,0,0,0,0,0,0,-1,629,379,0,0
-588,645,0,0,0,0,0,0,0,0,0,-1,636,379,0,0
-581,645,0,0,0,0,0,0,0,0,0,-1,643,379,0,0
-574,645,0,0,0,0,0,0,0,0,0,-1,650,379,0,0
-567,645,0,0,0,0,0,0,0,0,0,-1,657,379,0,0
-560,645,0,0,0,0,0,0,0,0,0,-1,664,379,0,0
-553,645,0,0,0,0,0,0,0,0,0,-1,671,379,0,0
-546,645,0,0,0,0,0,0,0,0,0,-1,678,379,0,0
-539,645,0,0,0,0,0,0,0,0,0,-1,685,379,0,0
-532,645,0,0,0,0,0,0,0,0,0,-1,692,379,0,0
-525,645,0,0,0,0,0,0,0,0,0,-1,699,379,0,0
-518,645,0,0,0,0,0,0,0,0,0,-1,706,379,0,0
-511,645,0,0,0,0,0,0,0,0,0,-1,713,379,0,0
-504,645,0,0,0,0,0,0,0,0,0,-1,720,379,0,0
-497,645,0,0,0,0,0,0,0,0,0,-1,727,379,0,0
-490,645,0,0,0,0,0,0,0,0,0,-1,734,379,0,0
-483,645,0,0,0,0,0,0,0,0,0,-1,741,379,0,0
-476,645,0,0,0,0,0,0,0,0,0,-1,748,379,0,0
-469,645,0,0,0,0,0,0,0,0,0,-1,755,379,0,0
-462,645,0,0,0,0,0,0,0,0,0,-1,762,379,0,0
-455,645,0,0,0,0,0,0,0,0,0,-1,769,379,0,0
-448,645,0,0,0,0,0,0,0,0,0,-1,776,379,0,0
-441,645,0,0,0,0,0,0,0,0,0,-1,783,379,0,0
-434,645,0,0,0,0,0,0,0,0,0,-1,790,379,0,0
-427,645,0,0,0,0,0,0,0,0,0,-1,797,379,0,0
-420,645,0,0,0,0,0,0,0,0,0,-1,804,379,0,0
-413,645,0,0,0,0,0,0,0,0,0,-1,811,379,0,0
-406,645,0,0,0,0,0,0,0,0,0,-1,818,379,0,0
-399,645,0,0,0,0,0,0,0,0,0,-1,825,379,0,0
-392,645,0,0,0,0,0,0,0,0,0,-1,832,379,0,0
-385,645,0,0,0,0,0,0,0,0,0,-1,839,379,0,0
-378,645,0,0,0,0,0,0,0,0,0,-1,846,379,0,0
-371,645,0,0,0,0,0,0,0,0,0,-1,853,379,0,0
-364,645,0,0,0,0,0,0,0,0,0,-1,860,379,0,0
-357,645,0,0,0,0,0,0,0,0,0,-1,867,379,0,0
-350,645,0,0,0,0,0,0,0,0,0,-1,874,379,0,0
-343,645,0,0,0,0,0,0,0,0,0,-1,881,379,0,0
-336,645,0,0,0,0,0,0,0,0,0,-1,888,379,0,0
-329,645,0,0,0,0,0,0,0,0,0,-1,895,379,0,0
-322,645,0,0,0,0,0,0,0,0,0,-1,902,379,0,0
-315,645,0,0,0,0,0,0,0,0,0,-1,909,379,0,0
-308,645,0,0,0,0,0,0,0,0,0,-1,916,379,0,0
-301,645,0,0,0,0,0,0,0,0,0,-1,923,379,0,0
-294,645,0,0,0,0,0,0,0,0,0,-1,930,379,0,0
-287,645,0,0,0,0,0,0,0,0,0,-1,937,379,0,0
-280,645,0,0,0,0,0,0,0,0,0,-1,944,379,0,0
-273,645,0,0,0,0,0,0,0,0,0,-1,951,379,0,0
-266,645,0,0,0,0,0,0,0,0,0,-1,958,379,0,0
-259,645,0,0,0,0,0,0,0,0,0,-1,965,379,0,0
-252,645,-0.168457,-0.853027,-0.00348156,-0.0148412,-0.00816574,0.000785461,-0.0191082,-0.481526,0.0130085,0.0439834,972,379,-0.16845,0.85302
-245,645,-0.226318,-0.642426,0.00110897,-0.00735663,-0.0046273,0.00314741,-0.00939507,-0.414947,0.00753492,0.0382663,979,379,-0.226317,0.642413
-238,645,-0.149597,-0.365906,0.00475709,-0.000587945,-0.00149549,0.00514707,-0.000977918,-0.255085,0.00379953,0.0376855,986,379,-0.149574,0.365898
-231,645,0.0759277,-0.283813,0.00626663,0.00468046,0.000383663,0.00635456,0.00459253,0.225285,0.00378818,0.0385396,993,379,0.075926,0.283806
-224,645,-0.711731,-0.566223,0.00754847,0.00912617,0.00256927,0.011025,0.00564967,0.934346,0.00636592,0.0410232,1000,379,-0.711712,0.566217
-217,645,-0.420044,-0.462677,0.00791144,0.0125482,0.00430936,0.0151233,0.00533642,1.03219,0.00885654,0.0415402,1007,379,-0.420069,0.462664
-210,645,-0.279114,-0.280548,0.00649924,0.014531,0.00427547,0.0163809,0.00464938,1.16245,0.00974769,0.0434315,1014,379,-0.279139,0.280563
-203,645,-0.298462,-0.184906,0.00573252,0.015435,0.00408981,0.016929,0.00423861,1.22058,0.0101719,0.0438519,1021,379,-0.298452,0.184896
-196,645,-0.398438,-0.266083,0.00619594,0.015497,0.00380944,0.0168581,0.00483488,1.22765,0.0100236,0.0429269,1028,379,-0.398436,0.266075
-189,645,-0.145508,-0.32608,0.00667355,0.014487,0.00330516,0.0156975,0.00546299,1.21971,0.00920148,0.0405418,1035,379,-0.145478,0.326071
-182,645,-0.109131,-0.0900269,0,0,0,0,0,0,0,-1,1042,379,-0.109114,0.0900276
-175,645,-0.225098,0.0431519,0.0076843,0.00995243,0.00176596,0.0109171,0.00671963,1.07083,0.00635881,0.0411429,1049,379,-0.225079,-0.0431516
-168,645,-0.247681,0.232513,0.00794729,0.00755873,0.00118366,0.00895251,0.00655351,0.704057,0.00535104,0.0378647,1056,379,-0.247667,-0.232524
-161,645,-0.226929,0.309174,0.00788365,0.00533299,0.000310057,0.0079208,0.00529584,0.119246,0.00465893,0.037443,1063,379,-0.226914,-0.30918
-154,645,-0.010376,0.150909,0.00744665,0.00332351,-0.000499823,0.00750637,0.00326378,-0.118929,0.00434607,0.0378038,1070,379,-0.0103281,-0.150912
-147,645,0.241943,0.0494385,0.00733027,0.0015462,-0.00106793,0.00752114,0.00135532,-0.176867,0.00462894,0.0351734,1077,379,0.24192,-0.0494242
-140,645,0.097168,0.115967,0.00663846,0.000761502,-0.00106267,0.00682471,0.000575253,-0.173503,0.00437069,0.0330377,1084,379,0.0972073,-0.11598
-133,645,0.00219727,0.142609,0.00559929,0.000239253,-0.00115049,0.00583579,2.74624e-06,-0.202746,0.00388961,0.0270152,1091,379,0.00225306,-0.142597
-126,645,-0.0238037,0.113647,0.00465901,-5.4151e-05,-0.00113253,0.00491702,-0.000312163,-0.223996,0.00338687,0.0196785,1098,379,-0.0237978,-0.113651
-119,645,-0.0428467,0.107025,0.00398349,-0.000537258,-0.00142346,0.00439435,-0.000948125,-0.281003,0.00329145,0.0143499,1105,379,-0.042898,-0.107025
-112,645,-0.036499,0.0909119,0.00304959,-0.000626144,-0.00150684,0.00358834,-0.00116489,-0.343374,0.00286071,0.0104577,1112,379,-0.0364404,-0.090927
-105,645,-0.0272217,0.0847473,0.00203956,-0.000551007,-0.00127052,0.00255866,-0.0010701,-0.387872,0.00215302,0.0104717,1119,379,-0.0272324,-0.0847438
-98,645,-0.0378418,0.082489,0.000923746,-0.000275152,-0.00118468,0.001652,-0.00100341,-0.551179,0.00154827,0.012481,1126,379,-0.0378652,-0.0824982
-91,645,-0.0373535,0.0935669,0.000103792,-0.000117666,-0.0011178,0.00111634,-0.00113021,-0.73603,0.00129705,0.0128611,1133,379,-0.0373597,-0.093552
-84,645,-0.0477295,0.0906677,-0.000410282,0.000293137,-0.00104179,0.00104099,-0.00115813,-0.948191,0.00127026,0.0124564,1140,379,-0.047745,-0.0906809
-77,645,-0.0566406,0.0712891,-0.000754718,0.000993131,-0.00100718,0.00145268,-0.00121427,-1.14274,0.00154181,0.0112679,1147,379,-0.0566668,-0.0712754
-70,645,-0.0441895,0.06604,-0.000646686,0.00195068,-0.000841212,0.00219932,-0.000895328,-1.2834,0.00183881,0.0100015,1154,379,-0.0442386,-0.0660412
-63,645,-0.0319824,0.0787354,-0.000624332,0.00261514,-0.000409419,0.00266609,-0.000675275,-1.447,0.00204008,0.0103665,1161,379,-0.0319868,-0.0787257
-56,645,-0.0352783,0.0932007,-0.000143171,0.00334823,0.000135678,0.0033535,-0.000148436,1.53201,0.00228675,0.0114977,1168,379,-0.035222,-0.0932053
-49,645,-0.0450439,0.0974121,0.00069523,0.00418968,0.000680101,0.00431738,0.000567533,1.3852,0.00270896,0.00957755,1175,379,-0.0449885,-0.0974144
-42,645,-0.0371094,0.0890808,0.000854481,0.0046071,0.00109392,0.0049027,0.000558877,1.30688,0.00309902,0.00889489,1182,379,-0.037112,-0.0890678
-35,645,-0.0268555,0.0862732,0.001002,0.00491036,0.00133845,0.00532478,0.000587584,1.27053,0.0033711,0.00884802,1189,379,-0.0269017,-0.0862611
-28,645,-0.0327148,0.0852356,0.00110381,0.00501636,0.00164364,0.00561519,0.000504981,1.22141,0.003587,0.00704956,1196,379,-0.0326905,-0.0852422
-21,645,-0.0438232,0.0983582,0.00107453,0.00478935,0.0018785,0.00557367,0.000290215,1.17528,0.00362292,0.0085748,1203,379,-0.0437838,-0.0983612
-14,645,-0.0375977,0.0989685,0.00105072,0.00447542,0.00188355,0.00530863,0.00021751,1.15431,0.00346886,0.00965721,1210,379,-0.0376431,-0.0989818
-7,645,-0.032959,0.0727234,0.00111533,0.00371438,0.0017027,0.00455681,0.000272901,1.11135,0.00295111,0.0125583,1217,379,-0.0329775,-0.07273
0,645,-0.0380859,0.0419312,0.00120528,0.00302642,0.0014955,0.00386674,0.000364947,1.05886,0.0024652,0.0209647,1224,379,-0.0380321,-0.0419305
7,645,-0.0592041,0.0633545,0.0011568,0.00231361,0.00120103,0.00306825,0.000402153,1.0098,0.0019255,0.0143487,1231,379,-0.0592521,-0.0633513
14,645,-0.0666504,0.0912781,0.00112104,0.00175762,0.000888876,0.00238347,0.000495186,0.957325,0.00145234,0.0139714,1238,379,-0.0666011,-0.0912783
21,645,-0.0633545,0.0830994,0.000975031,0.00116074,0.000534561,0.00161045,0.000525319,0.871391,0.000948335,0.0093519,1245,379,-0.0633995,-0.0831071
28,645,-0.0559082,0.0832825,0.000812818,0.000794296,0.00028602,0.00108973,0.000517387,0.769214,0.00062942,0.0080005,1252,379,-0.0559669,-0.0832926
35,645,-0.0465088,0.0965271,0.000709899,0.000653907,7.15045e-05,0.000758693,0.000605113,0.598809,0.000463169,0.00832083,1259,379,-0.0465505,-0.0965384
42,645,-0.0534668,0.0812378,0.000602707,0.00102319,-0.000142202,0.00106676,0.000559132,-1.27345,0.000616136,0.0085445,1266,379,-0.0534308,-0.0812377
49,645,-0.0484619,0.0773621,0.00032507,0.00149851,-0.00034161,0.00159072,0.000232866,-1.30717,0.00099201,0.0107643,1273,379,-0.0485162,-0.0773572
56,645,-0.0408936,0.0914001,0.000192633,0.00195397,-0.000458247,0.00206606,8.05438e-05,-1.3309,0.00135133,0.0111471,1280,379,-0.040945,-0.0914098
63,645,-0.0369873,0.0854797,0.000167476,0.00257133,-0.000615498,0.00271976,1.90453e-05,-1.33416,0.00180686,0.0112063,1287,379,-0.037028,-0.085474
70,645,-0.0327148,0.109406,0.000108517,0.00303928,-0.000832603,0.0032593,-0.000111501,-1.31245,0.00221097,0.0145863,1294,379,-0.0326752,-0.109411
77,645,-0.0421143,0.0915222,3.51806e-05,0.00317994,-0.00116004,0.00356155,-0.00034643,-1.25298,0.00249786,0.0174062,1301,379,-0.042104,-0.0915132
84,645,-0.0400391,0.0765381,-5.47259e-05,0.00332062,-0.0014322,0.00384641,-0.000580521,-1.21895,0.00277807,0.012722,1308,379,-0.0400356,-0.0765243
91,645,-0.0517578,0.0790405,-0.000273095,0.00325596,-0.00153934,0.00383304,-0.000850172,-1.21212,0.00288087,0.0131479,1315,379,-0.0517496,-0.0790255
98,645,-0.0489502,0.0897827,-7.6158e-05,0.00317584,-0.00197961,0.00411162,-0.00101194,-1.12922,0.00313334,0.011808,1322,379,-0.0488943,-0.0897907
105,645,-0.0327148,0.102142,0.00012702,0.00266626,-0.00224643,0.00397703,-0.00118375,-1.04261,0.00312166,0.00914289,1329,379,-0.0326638,-0.102136
112,645,-0.0395508,0.100769,0.000271979,0.00239186,-0.0023904,0.00394678,-0.00128294,-0.99408,0.00314724,0.00797929,1336,379,-0.0395206,-0.100774
119,645,-0.0533447,0.112396,0.000463069,0.00217824,-0.0023659,0.00383719,-0.00119588,-0.959272,0.0030363,0.00835002,1343,379,-0.0533788,-0.112399
126,645,-0.0423584,0.110138,0.000793275,0.00193003,-0.00225511,0.00368729,-0.000963984,-0.908847,0.0028347,0.0112254,1350,379,-0.0423205,-0.110127
133,645,-0.0366211,0.109955,0.00106915,0.00169405,-0.00211137,0.00351596,-0.000752767,-0.858857,0.00263104,0.0123028,1357,379,-0.0365773,-0.10997
140,645,-0.0463867,0.09375,0.00118457,0.0015898,-0.00192149,0.00331932,-0.000544954,-0.837928,0.00241512,0.0112585,1364,379,-0.0464201,-0.0937384
147,645,-0.0466309,0.0870361,0.00111891,0.00158945,-0.0017,0.00307038,-0.000362021,-0.854158,0.00217765,0.0113769,1371,379,-0.0466592,-0.0870419
154,645,-0.0291748,0.0708618,0.000835599,0.00163313,-0.00132286,0.00261602,-0.000147292,-0.931788,0.00179513,0.0112548,1378,379,-0.0291884,-0.0708679
161,645,-0.0362549,0.0870972,0.00054619,0.00157807,-0.00106865,0.0022488,-0.000124549,-1.01029,0.0015424,0.0144439,1385,379,-0.0362797,-0.087087
168,645,-0.0378418,0.0895386,0.000480796,0.00158338,-0.000845189,0.00204118,2.29959e-05,-1.07438,0.00135319,0.0162067,1392,379,-0.0378121,-0.0895317
175,645,-0.032959,0.0880432,0.000418393,0.001539,-0.000611207,0.00180786,0.000149532,-1.15639,0.00115862,0.0130167,1399,379,-0.0329434,-0.0880461
182,645,-0.0311279,0.0936584,0.000185066,0.00140442,-0.000384866,0.00151574,7.37518e-05,-1.28925,0.000986827,0.00902622,1406,379,-0.0310735,-0.0936439
189,645,-0.0341797,0.10556,-0.000187287,0.00109263,-0.000314768,0.00116585,-0.000260509,-1.34224,0.000877061,0.0099696,1413,379,-0.0341487,-0.105573
196,645,-0.0487061,0.0961609,-0.000312495,0.000690473,-0.000193844,0.000726634,-0.000348656,-1.38637,0.000633474,0.011293,1420,379,-0.0487077,-0.0961597
203,645,-0.0706787,0.0961914,-0.000400264,9.8097e-05,0.000142729,0.000136079,-0.000438247,1.31071,0.000346548,0.0112587,1427,379,-0.0706366,-0.0961882
210,645,-0.043335,0.0766602,-0.000142921,-0.000195862,0.000265498,9.74227e-05,-0.000436206,0.735712,0.000328135,0.0128137,1434,379,-0.0433741,-0.0766679
217,645,-0.0302734,0.072876,0.000498489,-0.000798416,0.000346907,0.000585451,-0.000885378,0.245618,0.000855049,0.0110038,1441,379,-0.030244,-0.0728877
224,645,-0.0435791,0.0767517,0.00114081,-0.001172,0.000545225,0.0012629,-0.00129408,0.220287,0.00147631,0.00967051,1448,379,-0.0435832,-0.076744
231,645,-0.0638428,0.0978088,0.00172967,-0.00152522,0.000847354,0.00193705,-0.0017326,0.240021,0.00211977,0.0105946,1455,379,-0.0638317,-0.0978051
238,645,-0.0668945,0.111603,0.00228045,-0.00176564,0.000982969,0.00250662,-0.0019918,0.226146,0.00260283,0.00856712,1462,379,-0.0669314,-0.111606
245,645,-0.0443115,0.0914001,0.00272507,-0.00191318,0.00103771,0.00294665,-0.00213476,0.210368,0.00294621,0.00967717,1469,379,-0.044365,-0.0913994
252,645,-0.0490723,0.0873718,0.0031222,-0.00231446,0.000923062,0.00327465,-0.00246691,0.163676,0.00332581,0.0140164,1476,379,-0.0491157,-0.0873666
259,645,-0.0441895,0.0650024,0.0038385,-0.00254694,0.000610044,0.00389626,-0.0026047,0.0943989,0.00377794,0.02253,1483,379,-0.0442497,-0.0650084
266,645,-0.0178223,0.078949,0.00466271,-0.00353837,0.000247208,0.00467015,-0.00354581,0.0301069,0.00475827,0.0211925,1490,379,-0.0177617,-0.0789375
273,645,-0.0321045,0.0603027,0.00511007,-0.00517994,5.99204e-05,0.00511042,-0.00518029,0.0058229,0.00594139,0.0176366,1497,379,-0.0320477,-0.0603089
280,645,0.0144043,0.144623,0.00560626,-0.00727227,-2.68917e-05,0.00560632,-0.00727232,-0.00208809,0.0074562,0.0273808,1504,379,0.0143545,-0.14463
287,645,0.114746,0.0441895,0.00608237,-0.00816944,-0.000383142,0.00609266,-0.00817973,-0.0268579,0.00826948,0.0370239,1511,379,0.114688,-0.04419
294,645,0.133545,-0.0335083,0.00616099,-0.0093943,-0.000839546,0.00620617,-0.00943948,-0.0537636,0.00909709,0.0422412,1518,379,0.133558,0.033495
301,645,0.102051,-0.0810852,0.00590213,-0.0105066,-0.0013079,0.00600573,-0.0106102,-0.0790421,0.00971524,0.0463229,1525,379,0.102021,0.0810914
308,645,0.112915,-0.00695801,0.00547247,-0.0117817,-0.00127667,0.00556642,-0.0118756,-0.073459,0.0102874,0.0432709,1532,379,0.112925,0.00696174
315,645,0.367798,0.0513,0.00486057,-0.0121171,-0.00117075,0.00494092,-0.0121975,-0.0685261,0.0101862,0.039396,1539,379,0.367799,-0.0513066
322,645,0.606567,0.000793457,0.00457776,-0.0117742,-0.00181026,0.00477577,-0.0119722,-0.108948,0.00996255,0.0408548,1546,379,0.606523,-0.000781881
329,645,0.56543,0.394287,0.00450491,-0.0111192,-0.00251557,0.00489994,-0.0115142,-0.155763,0.00972979,0.0424074,1553,379,0.565464,-0.394274
336,645,0.640991,0.832062,0.00430636,-0.00942559,-0.0037532,0.00526522,-0.0103845,-0.250129,0.00919507,0.0448079,1560,379,0.640948,-0.832049
343,645,-0.0585938,-0.034729,0.00482624,-0.00699848,-0.00520261,0.00678936,-0.0089616,-0.360815,0.0091226,0.0426025,1567,379,-0.0586203,0.0347175
350,645,-0.255859,-0.213226,0.00553303,-0.00469796,-0.00702008,0.00910372,-0.00826865,-0.470535,0.0100338,0.0413537,1574,379,-0.255898,0.213232
357,645,0.129517,-0.690643,0,0,0,0,0,0,0,-1,1581,379,0.12948,0.690653
364,645,-0.241333,-0.300323,0,0,0,0,0,0,0,-1,1588,379,-0.24132,0.300333
371,645,0,0,0,0,0,0,0,0,0,-1,1595,379,0,0
378,645,0,0,0,0,0,0,0,0,0,-1,1602,379,0,0
385,645,0,0,0,0,0,0,0,0,0,-1,1609,379,0,0
392,645,0,0,0,0,0,0,0,0,0,-1,1616,379,0,0
399,645,0,0,0,0,0,0,0,0,0,-1,1623,379,0,0
406,645,0,0,0,0,0,0,0,0,0,-1,1630,379,0,0
413,645,0,0,0,0,0,0,0,0,0,-1,1637,379,0,0
420,645,0,0,0,0,0,0,0,0,0,-1,1644,379,0,0
427,645,0,0,0,0,0,0,0,0,0,-1,1651,379,0,0
434,645,0,0,0,0,0,0,0,0,0,-1,1658,379,0,0
441,645,0,0,0,0,0,0,0,0,0,-1,1665,379,0,0
448,645,0,0,0,0,0,0,0,0,0,-1,1672,379,0,0
455,645,0,0,0,0,0,0,0,0,0,-1,1679,379,0,0
462,645,0,0,0,0,0,0,0,0,0,-1,1686,379,0,0
469,645,0,0,0,0,0,0,0,0,0,-1,1693,379,0,0
476,645,0,0,0,0,0,0,0,0,0,-1,1700,379,0,0
483,645,0,0,0,0,0,0,0,0,0,-1,1707,379,0,0
490,645,0,0,0,0,0,0,0,0,0,-1,1714,379,0,0
497,645,0,0,0,0,0,0,0,0,0,-1,1721,379,0,0
504,645,0,0,0,0,0,0,0,0,0,-1,1728,379,0,0
511,645,0,0,0,0,0,0,0,0,0,-1,1735,379,0,0
518,645,0,0,0,0,0,0,0,0,0,-1,1742,379,0,0
525,645,0,0,0,0,0,0,0,0,0,-1,1749,379,0,0
532,645,0,0,0,0,0,0,0,0,0,-1,1756,379,0,0
539,645,0,0,0,0,0,0,0,0,0,-1,1763,379,0,0
546,645,0,0,0,0,0,0,0,0,0,-1,1770,379,0,0
553,645,0,0,0,0,0,0,0,0,0,-1,1777,379,0,0
560,645,0,0,0,0,0,0,0,0,0,-1,1784,379,0,0
567,645,0,0,0,0,0,0,0,0,0,-1,1791,379,0,0
574,645,0,0,0,0,0,0,0,0,0,-1,1798,379,0,0
581,645,0,0,0,0,0,0,0,0,0,-1,1805,379,0,0
588,645,0,0,0,0,0,0,0,0,0,-1,1812,379,0,0
595,645,0,0,0,0,0,0,0,0,0,-1,1819,379,0,0
602,645,0,0,0,0,0,0,0,0,0,-1,1826,379,0,0
609,645,0,0,0,0,0,0,0,0,0,-1,1833,379,0,0
616,645,0,0,0,0,0,0,0,0,0,-1,1840,379,0,0
623,645,0,0,0,0,0,0,0,0,0,-1,1847,379,0,0
630,645,0,0,0,0,0,0,0,0,0,-1,1854,379,0,0
637,645,0,0,0,0,0,0,0,0,0,-1,1861,379,0,0
644,645,0,0,0,0,0,0,0,0,0,-1,1868,379,0,0
651,645,0,0,0,0,0,0,0,0,0,-1,1875,379,0,0
658,645,0,0,0,0,0,0,0,0,0,-1,1882,379,0,0
665,645,0,0,0,0,0,0,0,0,0,-1,1889,379,0,0
672,645,0,0,0,0,0,0,0,0,0,-1,1896,379,0,0
679,645,0,0,0,0,0,0,0,0,0,-1,1903,379,0,0
686,645,0,0,0,0,0,0,0,0,0,-1,1910,379,0,0
693,645,0,0,0,0,0,0,0,0,0,-1,1917,379,0,0
700,645,0,0,0,0,0,0,0,0,0,-1,1924,379,0,0
707,645,0,0,0,0,0,0,0,0,0,-1,1931,379,0,0
714,645,0,0,0,0,0,0,0,0,0,-1,1938,379,0,0
721,645,0,0,0,0,0,0,0,0,0,-1,1945,379,0,0
728,645,0,0,0,0,0,0,0,0,0,-1,1952,379,0,0
735,645,0,0,0,0,0,0,0,0,0,-1,1959,379,0,0
742,645,0,0,0,0,0,0,0,0,0,-1,1966,379,0,0
749,645,0,0,0,0,0,0,0,0,0,-1,1973,379,0,0
756,645,0,0,0,0,0,0,0,0,0,-1,1980,379,0,0
763,645,0,0,0,0,0,0,0,0,0,-1,1987,379,0,0
770,645,0,0,0,0,0,0,0,0,0,-1,1994,379,0,0
777,645,0,0,0,0,0,0,0,0,0,-1,2001,379,0,0
784,645,0,0,0,0,0,0,0,0,0,-1,2008,379,0,0
791,645,0,0,0,0,0,0,0,0,0,-1,2015,379,0,0
798,645,0,0,0,0,0,0,0,0,0,-1,2022,379,0,0
805,645,0,0,0,0,0,0,0,0,0,-1,2029,379,0,0
812,645,0,0,0,0,0,0,0,0,0,-1,2036,379,0,0
-700,638,0,0,0,0,0,0,0,0,0,-1,524,386,0,0
-693,638,0,0,0,0,0,0,0,0,0,-1,531,386,0,0
-686,638,0,0,0,0,0,0,0,0,0,-1,538,386,0,0
-679,638,0,0,0,0,0,0,0,0,0,-1,545,386,0,0
-672,638,0,0,0,0,0,0,0,0,0,-1,552,386,0,0
-665,638,0,0,0,0,0,0,0,0,0,-1,559,386,0,0
-658,638,0,0,0,0,0,0,0,0,0,-1,566,386,0,0
-651,638,0,0,0,0,0,0,0,0,0,-1,573,386,0,0
-644,638,0,0,0,0,0,0,0,0,0,-1,580,386,0,0
-637,638,0,0,0,0,0,0,0,0,0,-1,587,386,0,0
-630,638,0,0,0,0,0,0,0,0,0,-1,594,386,0,0
-623,638,0,0,0,0,0,0,0,0,0,-1,601,386,0,0
-616,638,0,0,0,0,0,0,0,0,0,-1,608,386,0,0
-609,638,0,0,0,0,0,0,0,0,0,-1,615,386,0,0
-602,638,0,0,0,0,0,0,0,0,0,-1,622,386,0,0
-595,638,0,0,0,0,0,0,0,0,0,-1,629,386,0,0
-588,638,0,0,0,0,0,0,0,0,0,-1,636,386,0,0
-581,638,0,0,0,0,0,0,0,0,0,-1,643,386,0,0
-574,638,0,0,0,0,0,0,0,0,0,-1,650,386,0,0
-567,638,0,0,0,0,0,0,0,0,0,-1,657,386,0,0
-560,638,0,0,0,0,0,0,0,0,0,-1,664,386,0,0
-553,638,0,0,0,0,0,0,0,0,0,-1,671,386,0,0
-546,638,0,0,0,0,0,0,0,0,0,-1,678,386,0,0
-539,638,0,0,0,0,0,0,0,0,0,-1,685,386,0,0
-532,638,0,0,0,0,0,0,0,0,0,-1,692,386,0,0
-525,638,0,0,0,0,0,0,0,0,0,-1,699,386,0,0
-518,638,0,0,0,0,0,0,0,0,0,-1,706,386,0,0
-511,638,0,0,0,0,0,0,0,0,0,-1,713,386,0,0
-504,638,0,0,0,0,0,0,0,0,0,-1,720,386,0,0
-497,638,0,0,0,0,0,0,0,0,0,-1,727,386,0,0
-490,638,0,0,0,0,0,0,0,0,0,-1,734,386,0,0
-483,638,0,0,0,0,0,0,0,0,0,-1,741,386,0,0
-476,638,0,0,0,0,0,0,0,0,0,-1,748,386,0,0
-469,638,0,0,0,0,0,0,0,0,0,-1,755,386,0,0
-462,638,0,0,0,0,0,0,0,0,0,-1,762,386,0,0
-455,638,0,0,0,0,0,0,0,0,0,-1,769,386,0,0
-448,638,0,0,0,0,0,0,0,0,0,-1,776,386,0,0
-441,638,0,0,0,0,0,0,0,0,0,-1,783,386,0,0
-434,638,0,0,0,0,0,0,0,0,0,-1,790,386,0,0
-427,638,0,0,0,0,0,0,0,0,0,-1,797,386,0,0
-420,638,0,0,0,0,0,0,0,0,0,-1,804,386,0,0
-413,638,0,0,0,0,0,0,0,0,0,-1,811,386,0,0
-406,638,0,0,0,0,0,0,0,0,0,-1,818,386,0,0
-399,638,0,0,0,0,0,0,0,0,0,-1,825,386,0,0
-392,638,0,0,0,0,0,0,0,0,0,-1,832,386,0,0
-385,638,0,0,0,0,0,0,0,0,0,-1,839,386,0,0
-378,638,0,0,0,0,0,0,0,0,0,-1,846,386,0,0
-371,638,0,0,0,0,0,0,0,0,0,-1,853,386,0,0
-364,638,0,0,0,0,0,0,0,0,0,-1,860,386,0,0
-357,638,0,0,0,0,0,0,0,0,0,-1,867,386,0,0
-350,638,0,0,0,0,0,0,0,0,0,-1,874,386,0,0
-343,638,0,0,0,0,0,0,0,0,0,-1,881,386,0,0
-336,638,0,0,0,0,0,0,0,0,0,-1,888,386,0,0
-329,638,0,0,0,0,0,0,0,0,0,-1,895,386,0,0
-322,638,0,0,0,0,0,0,0,0,0,-1,902,386,0,0
-315,638,0,0,0,0,0,0,0,0,0,-1,909,386,0,0
-308,638,0,0,0,0,0,0,0,0,0,-1,916,386,0,0
-301,638,0,0,0,0,0,0,0,0,0,-1,923,386,0,0
-294,638,0,0,0,0,0,0,0,0,0,-1,930,386,0,0
-287,638,0,0,0,0,0,0,0,0,0,-1,937,386,0,0
-280,638,0,0,0,0,0,0,0,0,0,-1,944,386,0,0
-273,638,0,0,0,0,0,0,0,0,0,-1,951,386,0,0
-266,638,0.267944,-0.761475,0,0,0,0,0,0,0,-1,958,386,0.267932,0.761477
-259,638,0.248657,-0.683716,-0.00441946,-0.0191163,-0.0120558,0.00235098,-0.0258868,-0.511698,0.0180925,0.0463793,965,386,0.248682,0.683704
-252,638,0.184692,-0.649017,0.000313654,-0.012326,-0.0074521,0.0037649,-0.0157773,-0.433714,0.0119721,0.0458343,972,386,0.184664,0.649013
-245,638,0.233337,-0.376038,0.00385661,-0.00595296,-0.00407589,0.00532912,-0.00742546,-0.346681,0.00739694,0.0417998,979,386,0.233329,0.376048
-238,638,-0.279785,-0.460022,0.00652769,-0.000331708,-0.00107501,0.00669222,-0.00049624,-0.151872,0.00463575,0.0427497,986,386,-0.279803,0.460031
-231,638,-0.424316,-0.603027,0.007042,0.00374744,0.000586058,0.00714314,0.0036463,0.170905,0.0041244,0.0416661,993,386,-0.424322,0.603042
-224,638,-0.584473,-0.697266,0.00761832,0.00713622,0.00237293,0.00976241,0.00499213,0.734779,0.00563682,0.0420823,1000,386,-0.584496,0.697253
-217,638,-0.170532,-0.78302,0,0,0,0,0,0,0,-1,1007,386,-0.170521,0.783033
-210,638,-0.255066,-0.573517,0.00606123,0.0114197,0.00371958,0.0133245,0.0041564,1.09751,0.0078722,0.0464646,1014,386,-0.255045,0.573527
-203,638,-0.389832,-0.379242,0.00502982,0.0123504,0.00346829,0.0137326,0.00364762,1.19156,0.00821378,0.0472872,1021,386,-0.389803,0.37925
-196,638,-0.400635,-0.315857,0.00532786,0.012656,0.00338075,0.0139774,0.00400647,1.1982,0.00831118,0.0434391,1028,386,-0.40063,0.315848
-189,638,-0.309204,-0.242676,0.0056103,0.0119699,0.00305642,0.0132007,0.00437957,1.18799,0.00776388,0.0451323,1035,386,-0.309168,0.242662
-182,638,-0.210571,-0.179291,0,0,0,0,0,0,0,-1,1042,386,-0.210517,0.179289
-175,638,-0.121826,0.0795593,0.00608364,0.00837933,0.00179177,0.0093594,0.00510358,1.07027,0.00541104,0.0373436,1049,386,-0.121769,-0.0795534
-168,638,-0.0856934,0.150299,0.00608383,0.00650562,0.00135927,0.00767026,0.0049192,0.862361,0.00448701,0.0276047,1056,386,-0.0857476,-0.150302
-161,638,-0.111816,0.0983276,0.00587633,0.00481235,0.000669165,0.0061992,0.00448947,0.449555,0.0036971,0.0242962,1063,386,-0.111789,-0.0983241
-154,638,-0.0716553,0.0748596,0.00545866,0.00324322,1.3491e-05,0.00545874,0.00324314,0.00608923,0.00317016,0.020159,1070,386,-0.0716571,-0.0748714
-147,638,-0.026123,0.0843506,0.00528075,0.00180455,-0.000491831,0.00534899,0.00173631,-0.137881,0.00315094,0.0164579,1077,386,-0.0261687,-0.0843478
-140,638,-0.0339355,0.0950317,0.0047205,0.00121464,-0.00054876,0.00480439,0.00113075,-0.151694,0.00290044,0.0132283,1084,386,-0.0339421,-0.0950245
-133,638,-0.0496826,0.0801392,0.00392508,0.000740901,-0.00068156,0.00406483,0.00060115,-0.202243,0.00253339,0.0103808,1091,386,-0.0497109,-0.0801414
-126,638,-0.0391846,0.0777893,0.00329851,0.000383853,-0.000717393,0.00346552,0.000216848,-0.228721,0.00224156,0.0116552,1098,386,-0.0391856,-0.0777911
-119,638,-0.0354004,0.0771179,0.00292616,-5.70264e-05,-0.000954698,0.00320553,-0.000336393,-0.284675,0.00225752,0.0135274,1105,386,-0.0354508,-0.0771157
-112,638,-0.0407715,0.0823669,0.00233568,-0.000238636,-0.00105672,0.00271389,-0.000616839,-0.343699,0.0020461,0.0121891,1112,386,-0.0407786,-0.0823604
-105,638,-0.0211182,0.0864868,0.00165273,-0.000276856,-0.000894006,0.00200326,-0.000627385,-0.373667,0.00158654,0.0141165,1119,386,-0.0211134,-0.0864883
-98,638,-0.0125732,0.0795288,0.0008724,-3.76962e-05,-0.000838471,0.00137135,-0.000536641,-0.536783,0.00113617,0.0144802,1126,386,-0.012591,-0.0795293
-91,638,-0.0380859,0.0854187,0.000345836,0.00016397,-0.00078192,0.00104209,-0.000532287,-0.727511,0.000924717,0.0115432,1133,386,-0.0380754,-0.0854229
-84,638,-0.0541992,0.0760803,4.39506e-05,0.000508944,-0.000741524,0.00105357,-0.000500671,-0.937314,0.000916069,0.0139435,1140,386,-0.0541819,-0.0760838
-77,638,-0.0495605,0.068573,-0.000181127,0.00097636,-0.00075864,0.00135181,-0.000556574,-1.11124,0.00113324,0.0109634,1147,386,-0.0495158,-0.0685584
-70,638,-0.0374756,0.0811157,-0.000112573,0.00162011,-0.000667505,0.00184744,-0.0003399,-1.24255,0.00135917,0.00929231,1154,386,-0.0375088,-0.0811059
-63,638,-0.0423584,0.0762939,-0.000139073,0.0021499,-0.000382901,0.00221225,-0.000201427,-1.40937,0.00154636,0.00995594,1161,386,-0.0424042,-0.0762961
-56,638,-0.0480957,0.0724182,0.000106722,0.00268852,-4.63972e-05,0.00268935,0.000105889,-1.55283,0.00175867,0.0138381,1168,386,-0.0481481,-0.0724073
-49,638,-0.0531006,0.0796814,0.000567724,0.00327135,0.000291886,0.0033025,0.000536571,1.46447,0.00204639,0.0118412,1175,386,-0.0530402,-0.0796835
-42,638,-0.0371094,0.0808411,0.000494438,0.003491,0.000576173,0.00359796,0.000387471,1.38724,0.00228048,0.0100962,1182,386,-0.0370785,-0.0808295
-35,638,-0.0203857,0.0816956,0.000465754,0.00361937,0.000748004,0.00378779,0.00029733,1.34933,0.00243215,0.00910741,1189,386,-0.0204005,-0.0816929
-28,638,-0.00952148,0.0756836,0.000553484,0.00357339,0.00085784,0.00380005,0.000326817,1.31247,0.00243176,0.00840365,1196,386,-0.00946756,-0.0756731
-21,638,-0.038208,0.0963745,0.000502763,0.00329706,0.000876718,0.00354935,0.000250469,1.2906,0.00228732,0.00997661,1203,386,-0.0382003,-0.0963754
-14,638,-0.0501709,0.104919,0.000360005,0.00279962,0.000786958,0.00303144,0.000128181,1.28432,0.00197962,0.0109856,1210,386,-0.0501696,-0.104922
-7,638,-0.0571289,0.0571899,0.000344398,0.00212461,0.000613085,0.00231532,0.000153689,1.26922,0.00149495,0.015789,1217,386,-0.0571283,-0.0572
0,638,-0.0213623,0.0399475,0.000314088,0.00152869,0.000434635,0.0016682,0.000174581,1.26021,0.00105875,0.0278888,1224,386,-0.0213165,-0.0399492
7,638,-0.0515137,0.0591736,0.000262646,0.000956325,0.000254653,0.00103977,0.0001792,1.25414,0.000641841,0.0209661,1231,386,-0.0515033,-0.0591669
14,638,-0.0491943,0.0986938,0.00024222,0.000465896,4.53736e-05,0.00047475,0.000233366,1.37809,0.00027411,0.0110332,1238,386,-0.0491552,-0.0987016
21,638,-0.0539551,0.0907288,9.85545e-05,0.000183855,-3.44142e-05,0.000196008,8.64017e-05,-1.23133,0.000113429,0.00995351,1245,386,-0.0539723,-0.0907398
28,638,-0.0570068,0.0964355,-1.51751e-05,0.000151801,-1.85314e-05,0.000153833,-1.7207e-05,-1.46158,0.000108746,0.00818094,1252,386,-0.0570553,-0.0964465
35,638,-0.0516357,0.0783081,-0.000211371,0.000237181,8.71332e-05,0.000253512,-0.000227702,1.38552,0.000277963,0.00963498,1259,386,-0.0516456,-0.0783166
42,638,-0.0352783,0.0655823,-0.00047723,0.000671194,0.000263292,0.00072868,-0.000534716,1.35583,0.000732282,0.00920904,1266,386,-0.0352955,-0.0655924
49,638,-0.0361328,0.103699,-0.000770046,0.00124861,0.000413318,0.00132995,-0.000851394,1.37646,0.00126946,0.00760291,1273,386,-0.0361222,-0.103686
56,638,-0.041748,0.108521,-0.000755801,0.00184394,0.000619806,0.00198415,-0.000896008,1.34833,0.00170196,0.00983384,1280,386,-0.0417393,-0.108526
63,638,-0.0386963,0.0712891,-0.000553191,0.00255726,0.000660686,0.00269178,-0.000687708,1.36994,0.00206234,0.0133674,1287,386,-0.0387267,-0.0712807
70,638,-0.0317383,0.0892944,-0.00043139,0.0030714,0.000637467,0.00318381,-0.000543794,1.39626,0.0023251,0.0172951,1294,386,-0.0316844,-0.0893018
77,638,-0.046875,0.0802307,-0.000306887,0.00324765,0.000510475,0.00331951,-0.000378745,1.43095,0.00234945,0.01647,1301,386,-0.0468282,-0.0802321
84,638,-0.0389404,0.0861206,-5.38588e-05,0.00330301,0.000297116,0.0033291,-7.99538e-05,1.48319,0.00224653,0.0120137,1308,386,-0.0389436,-0.08611
91,638,-0.0340576,0.0970459,0.000204351,0.00324674,4.34681e-05,0.00324737,0.00020373,1.55651,0.0021003,0.0127008,1315,386,-0.0340668,-0.0970395
98,638,-0.0316162,0.0952454,0.000551941,0.0030275,-0.00040541,0.0030922,0.00048724,-1.41254,0.00191978,0.0118754,1322,386,-0.0316127,-0.0952391
105,638,-0.0357666,0.0953979,0.000859836,0.00264085,-0.000826734,0.00296545,0.000535233,-1.19666,0.00182491,0.00911904,1329,386,-0.0357388,-0.0954132
112,638,-0.0494385,0.0932617,0.00099307,0.00240618,-0.00123412,0.00312169,0.000277559,-1.04538,0.00199505,0.00868411,1336,386,-0.049446,-0.0932619
119,638,-0.0501709,0.0904846,0.0010478,0.00232375,-0.00146485,0.00328353,8.80249e-05,-0.990773,0.00216027,0.0112564,1343,386,-0.0502043,-0.0904708
126,638,-0.0335693,0.0884705,0.00116198,0.0021525,-0.00163558,0.00336616,-5.1684e-05,-0.932412,0.00226153,0.0160969,1350,386,-0.0335126,-0.0884855
133,638,-0.0314941,0.0982056,0.00116645,0.00205549,-0.00167949,0.00334829,-0.000126345,-0.91477,0.00227548,0.0161912,1357,386,-0.0315125,-0.0981921
140,638,-0.0435791,0.0944519,0.00111654,0.00212415,-0.00165521,0.00335053,-0.000109834,-0.933132,0.00227118,0.014875,1364,386,-0.0436277,-0.0944593
147,638,-0.0400391,0.083252,0.000921334,0.00221656,-0.00157736,0.00327407,-0.000136185,-0.980189,0.0022295,0.0158318,1371,386,-0.0400247,-0.0832612
154,638,-0.0228271,0.0705566,0.000483237,0.00236082,-0.0012877,0.00301561,-0.000171556,-1.10037,0.00206996,0.0149224,1378,386,-0.0228825,-0.0705622
161,638,-0.0482178,0.129547,9.02303e-06,0.00235573,-0.00110366,0.00279323,-0.000428472,-1.1934,0.00202018,0.0172779,1385,386,-0.0482023,-0.129544
168,638,-0.0427246,0.119598,-0.00020221,0.00233815,-0.000884454,0.00261575,-0.000479807,-1.26667,0.00192382,0.0215495,1392,386,-0.0426917,-0.119596
175,638,-0.0350342,0.0884094,-0.000236007,0.00223452,-0.000684197,0.00241134,-0.000412835,-1.31788,0.00176138,0.0172758,1399,386,-0.0350102,-0.0884206
182,638,-0.0292969,0.102783,-0.000379789,0.00204383,-0.000473261,0.00213296,-0.000468925,-1.38463,0.00160134,0.0119411,1406,386,-0.0292583,-0.102772
189,638,-0.0402832,0.0957947,-0.000577409,0.00166484,-0.000371928,0.00172492,-0.000637491,-1.41064,0.00141128,0.0105534,1413,386,-0.0403194,-0.0957888
196,638,-0.0354004,0.0995483,-0.000583914,0.00116699,-0.000265234,0.00120629,-0.00062321,-1.42371,0.00107399,0.0133464,1420,386,-0.0353661,-0.0995526
203,638,-0.0623779,0.0975037,-0.000496017,0.000549991,-5.38614e-05,0.000552757,-0.000498783,-1.51948,0.000607374,0.021034,1427,386,-0.0624187,-0.097505
210,638,-0.0581055,0.0775757,-0.000235423,8.79585e-05,6.60632e-05,0.000100934,-0.000248398,1.37686,0.000207591,0.0167073,1434,386,-0.0581034,-0.0775749
217,638,-0.038208,0.0670776,0.000257792,-0.000491771,0.000168691,0.000294007,-0.000527985,0.21147,0.000480943,0.0111208,1441,386,-0.0381994,-0.0670748
224,638,-0.0456543,0.0734863,0.000754733,-0.00082462,0.000339973,0.000824807,-0.000894694,0.203269,0.000993027,0.00932175,1448,386,-0.045684,-0.0734743
231,638,-0.0670166,0.103333,0.00123283,-0.00110249,0.000556065,0.00135848,-0.00122814,0.222222,0.00149402,0.0102171,1455,386,-0.067,-0.103321
238,638,-0.0644531,0.104736,0.00168868,-0.00128137,0.000650926,0.00182508,-0.00141777,0.206552,0.00187717,0.0110288,1462,386,-0.0645135,-0.104751
245,638,-0.0460205,0.102905,0.00206022,-0.00140104,0.000685701,0.00219111,-0.00153193,0.18862,0.0021607,0.0122359,1469,386,-0.046004,-0.102915
252,638,-0.0571289,0.112152,0.00239083,-0.00171687,0.000617409,0.00248162,-0.00180767,0.146009,0.00248659,0.0140687,1476,386,-0.0571104,-0.112148
259,638,-0.0447998,0.110443,0.00297394,-0.00190276,0.000435617,0.00301254,-0.00194136,0.0883937,0.00288234,0.0143877,1483,386,-0.0448304,-0.110438
266,638,-0.0308838,0.0960693,0.00367924,-0.00272017,0.000219158,0.00368674,-0.00272767,0.0341931,0.00371713,0.0103374,1490,386,-0.030865,-0.0960804
273,638,-0.0299072,0.0853882,0.00407057,-0.00406022,0.000181102,0.0040746,-0.00406425,0.0222589,0.00469897,0.00889391,1497,386,-0.0299664,-0.085387
280,638,-0.0168457,0.0952759,0.00449556,-0.00571609,0.000214174,0.00450005,-0.00572058,0.0209612,0.00591489,0.0133711,1504,386,-0.016885,-0.095265
287,638,0.0388184,0.0922852,0.0048582,-0.00633975,1.99752e-05,0.00485824,-0.00633978,0.00178382,0.00648401,0.0239631,1511,386,0.0388673,-0.0922866
294,638,0.0622559,0.0426025,0.0048463,-0.00725809,-0.00025795,0.0048518,-0.00726358,-0.0212976,0.00704087,0.0330993,1518,386,0.0623156,-0.0426103
301,638,0.0192871,0.0627747,0.00462295,-0.0080769,-0.000506346,0.00464311,-0.00809705,-0.0397861,0.00744509,0.0415099,1525,386,0.0192464,-0.0627839
308,638,-0.0114746,0.102722,0,0,0,0,0,0,0,-1,1532,386,-0.0114972,-0.102731
315,638,0.341553,0.181,0.0036365,-0.0091796,-0.000155668,0.00363839,-0.00918149,-0.0121439,0.0076287,0.0396834,1539,386,0.341544,-0.181009
322,638,0.692505,-0.249054,0.00329594,-0.0088592,-0.000668024,0.00333254,-0.0088958,-0.0547384,0.00729952,0.0436164,1546,386,0.69253,0.249063
329,638,-0.393188,0.573547,0.00305445,-0.00831495,-0.0012507,0.00319041,-0.00845091,-0.108281,0.00694609,0.0457483,1553,386,-0.393183,-0.573559
336,638,0.0894775,-0.537689,0.00278176,-0.00711616,-0.0022876,0.00328489,-0.00761929,-0.216492,0.00645919,0.0433118,1560,386,0.0895356,0.537694
343,638,0.105103,-0.402008,0.00313584,-0.00526633,-0.00354489,0.0044316,-0.00656209,-0.350443,0.00638681,0.041973,1567,386,0.105086,0.402005
350,638,-0.0970459,-0.437286,0.00360198,-0.00350697,-0.00514669,0.00630232,-0.00620731,-0.483192,0.00722251,0.0430959,1574,386,-0.0970827,0.43728
357,638,-0.0189209,-0.389465,0.00409801,-0.00140604,-0.00685362,0.0087315,-0.00603953,-0.59448,0.00857513,0.0458899,1581,386,-0.0188848,0.38947
364,638,-0.350342,-0.0193176,0,0,0,0,0,0,0,-1,1588,386,-0.350299,0.0193294
371,638,-0.714233,0.331116,0.0039114,0.00282646,-0.0113318,0.0147137,-0.00797582,-0.761481,0.0132909,0.0412927,1595,386,-0.714234,-0.331125
378,638,-0.108643,-0.18869,0.00616325,0.00408046,-0.0131452,0.0183083,-0.00806455,-0.74587,0.0156045,0.0415291,1602,386,-0.108632,0.18869
385,638,0,0,0,0,0,0,0,0,0,-1,1609,386,0,0
392,638,0,0,0,0,0,0,0,0,0,-1,1616,386,0,0
399,638,0,0,0,0,0,0,0,0,0,-1,1623,386,0,0
406,638,0,0,0,0,0,0,0,0,0,-1,1630,386,0,0
413,638,0,0,0,0,0,0,0,0,0,-1,1637,386,0,0
420,638,0,0,0,0,0,0,0,0,0,-1,1644,386,0,0
427,638,0,0,0,0,0,0,0,0,0,-1,1651,386,0,0
434,638,0,0,0,0,0,0,0,0,0,-1,1658,386,0,0
441,638,0,0,0,0,0,0,0,0,0,-1,1665,386,0,0
448,638,0,0,0,0,0,0,0,0,0,-1,1672,386,0,0
455,638,0,0,0,0,0,0,0,0,0,-1,1679,386,0,0
462,638,0,0,0,0,0,0,0,0,0,-1,1686,386,0,0
469,638,0,0,0,0,0,0,0,0,0,-1,1693,386,0,0
476,638,0,0,0,0,0,0,0,0,0,-1,1700,386,0,0
483,638,0,0,0,0,0,0,0,0,0,-1,1707,386,0,0
490,638,0,0,0,0,0,0,0,0,0,-1,1714,386,0,0
497,638,0,0,0,0,0,0,0,0,0,-1,1721,386,0,0
504,638,0,0,0,0,0,0,0,0,0,-1,1728,386,0,0
511,638,0,0,0,0,0,0,0,0,0,-1,1735,386,0,0
518,638,0,0,0,0,0,0,0,0,0,-1,1742,386,0,0
525,638,0,0,0,0,0,0,0,0,0,-1,1749,386,0,0
532,638,0,0,0,0,0,0,0,0,0,-1,1756,386,0,0
539,638,0,0,0,0,0,0,0,0,0,-1,1763,386,0,0
546,638,0,0,0,0,0,0,0,0,0,-1,1770,386,0,0
553,638,0,0,0,0,0,0,0,0,0,-1,1777,386,0,0
560,638,0,0,0,0,0,0,0,0,0,-1,1784,386,0,0
567,638,0,0,0,0,0,0,0,0,0,-1,1791,386,0,0
574,638,0,0,0,0,0,0,0,0,0,-1,1798,386,0,0
581,638,0,0,0,0,0,0,0,0,0,-1,1805,386,0,0
588,638,0,0,0,0,0,0,0,0,0,-1,1812,386,0,0
595,638,0,0,0,0,0,0,0,0,0,-1,1819,386,0,0
602,638,0,0,0,0,0,0,0,0,0,-1,1826,386,0,0
609,638,0,0,0,0,0,0,0,0,0,-1,1833,386,0,0
616,638,0,0,0,0,0,0,0,0,0,-1,1840,386,0,0
623,638,0,0,0,0,0,0,0,0,0,-1,1847,386,0,0
630,638,0,0,0,0,0,0,0,0,0,-1,1854,386,0,0
637,638,0,0,0,0,0,0,0,0,0,-1,1861,386,0,0
644,638,0,0,0,0,0,0,0,0,0,-1,1868,386,0,0
651,638,0,0,0,0,0,0,0,0,0,-1,1875,386,0,0
658,638,0,0,0,0,0,0,0,0,0,-1,1882,386,0,0
665,638,0,0,0,0,0,0,0,0,0,-1,1889,386,0,0
672,638,0,0,0,0,0,0,0,0,0,-1,1896,386,0,0
679,638,0,0,0,0,0,0,0,0,0,-1,1903,386,0,0
686,638,0,0,0,0,0,0,0,0,0,-1,1910,386,0,0
693,638,0,0,0,0,0,0,0,0,0,-1,1917,386,0,0
700,638,0,0,0,0,0,0,0,0,0,-1,1924,386,0,0
707,638,0,0,0,0,0,0,0,0,0,-1,1931,386,0,0
714,638,0,0,0,0,0,0,0,0,0,-1,1938,386,0,0
721,638,0,0,0,0,0,0,0,0,0,-1,1945,386,0,0
728,638,0,0,0,0,0,0,0,0,0,-1,1952,386,0,0
735,638,0,0,0,0,0,0,0,0,0,-1,1959,386,0,0
742,638,0,0,0,0,0,0,0,0,0,-1,1966,386,0,0
749,638,0,0,0,0,0,0,0,0,0,-1,1973,386,0,0
756,638,0,0,0,0,0,0,0,0,0,-1,1980,386,0,0
763,638,0,0,0,0,0,0,0,0,0,-1,1987,386,0,0
770,638,0,0,0,0,0,0,0,0,0,-1,1994,386,0,0
777,638,0,0,0,0,0,0,0,0,0,-1,2001,386,0,0
784,638,0,0,0,0,0,0,0,0,0,-1,2008,386,0,0
791,638,0,0,0,0,0,0,0,0,0,-1,2015,386,0,0
798,638,0,0,0,0,0,0,0,0,0,-1,2022,386,0,0
805,638,0,0,0,0,0,0,0,0,0,-1,2029,386,0,0
812,638,0,0,0,0,0,0,0,0,0,-1,2036,386,0,0
-700,631,0,0,0,0,0,0,0,0,0,-1,524,393,0,0
-693,631,0,0,0,0,0,0,0,0,0,-1,531,393,0,0
-686,631,0,0,0,0,0,0,0,0,0,-1,538,393,0,0
-679,631,0,0,0,0,0,0,0,0,0,-1,545,393,0,0
-672,631,0,0,0,0,0,0,0,0,0,-1,552,393,0,0
-665,631,0,0,0,0,0,0,0,0,0,-1,559,393,0,0
-658,631,0,0,0,0,0,0,0,0,0,-1,566,393,0,0
-651,631,0,0,0,0,0,0,0,0,0,-1,573,393,0,0
-644,631,0,0,0,0,0,0,0,0,0,-1,580,393,0,0
-637,631,0,0,0,0,0,0,0,0,0,-1,587,393,0,0
-630,631,0,0,0,0,0,0,0,0,0,-1,594,393,0,0
-623,631,0,0,0,0,0,0,0,0,0,-1,601,393,0,0
-616,631,0,0,0,0,0,0,0,0,0,-1,608,393,0,0
-609,631,0,0,0,0,0,0,0,0,0,-1,615,393,0,0
-602,631,0,0,0,0,0,0,0,0,0,-1,622,393,0,0
-595,631,0,0,0,0,0,0,0,0,0,-1,629,393,0,0
-588,631,0,0,0,0,0,0,0,0,0,-1,636,393,0,0
-581,631,0,0,0,0,0,0,0,0,0,-1,643,393,0,0
-574,631,0,0,0,0,0,0,0,0,0,-1,650,393,0,0
-567,631,0,0,0,0,0,0,0,0,0,-1,657,393,0,0
-560,631,0,0,0,0,0,0,0,0,0,-1,664,393,0,0
-553,631,0,0,0,0,0,0,0,0,0,-1,671,393,0,0
-546,631,0,0,0,0,0,0,0,0,0,-1,678,393,0,0
-539,631,0,0,0,0,0,0,0,0,0,-1,685,393,0,0
-532,631,0,0,0,0,0,0,0,0,0,-1,692,393,0,0
-525,631,0,0,0,0,0,0,0,0,0,-1,699,393,0,0
-518,631,0,0,0,0,0,0,0,0,0,-1,706,393,0,0
-511,631,0,0,0,0,0,0,0,0,0,-1,713,393,0,0
-504,631,0,0,0,0,0,0,0,0,0,-1,720,393,0,0
-497,631,0,0,0,0,0,0,0,0,0,-1,727,393,0,0
-490,631,0,0,0,0,0,0,0,0,0,-1,734,393,0,0
-483,631,0,0,0,0,0,0,0,0,0,-1,741,393,0,0
-476,631,0,0,0,0,0,0,0,0,0,-1,748,393,0,0
-469,631,0,0,0,0,0,0,0,0,0,-1,755,393,0,0
-462,631,0,0,0,0,0,0,0,0,0,-1,762,393,0,0
-455,631,0,0,0,0,0,0,0,0,0,-1,769,393,0,0
-448,631,0,0,0,0,0,0,0,0,0,-1,776,393,0,0
-441,631,0,0,0,0,0,0,0,0,0,-1,783,393,0,0
-434,631,0,0,0,0,0,0,0,0,0,-1,790,393,0,0
-427,631,0,0,0,0,0,0,0,0,0,-1,797,393,0,0
-420,631,0,0,0,0,0,0,0,0,0,-1,804,393,0,0
-413,631,0,0,0,0,0,0,0,0,0,-1,811,393,0,0
-406,631,0,0,0,0,0,0,0,0,0,-1,818,393,0,0
-399,631,0,0,0,0,0,0,0,0,0,-1,825,393,0,0
-392,631,0,0,0,0,0,0,0,0,0,-1,832,393,0,0
-385,631,0,0,0,0,0,0,0,0,0,-1,839,393,0,0
-378,631,0,0,0,0,0,0,0,0,0,-1,846,393,0,0
-371,631,0,0,0,0,0,0,0,0,0,-1,853,393,0,0
-364,631,0,0,0,0,0,0,0,0,0,-1,860,393,0,0
-357,631,0,0,0,0,0,0,0,0,0,-1,867,393,0,0
-350,631,0,0,0,0,0,0,0,0,0,-1,874,393,0,0
-343,631,0,0,0,0,0,0,0,0,0,-1,881,393,0,0
-336,631,0,0,0,0,0,0,0,0,0,-1,888,393,0,0
-329,631,0,0,0,0,0,0,0,0,0,-1,895,393,0,0
-322,631,0,0,0,0,0,0,0,0,0,-1,902,393,0,0
-315,631,0,0,0,0,0,0,0,0,0,-1,909,393,0,0
-308,631,0,0,0,0,0,0,0,0,0,-1,916,393,0,0
-301,631,0,0,0,0,0,0,0,0,0,-1,923,393,0,0
-294,631,0,0,0,0,0,0,0,0,0,-1,930,393,0,0
-287,631,0,0,0,0,0,0,0,0,0,-1,937,393,0,0
-280,631,-0.28479,-0.21875,-0.0284158,-0.0362163,-0.0308944,-0.00117646,-0.0634557,-0.722608,0.0419171,0.0419503,944,393,-0.284817,0.218756
-273,631,-0.823242,-0.260376,-0.0168572,-0.0292621,-0.0234963,0.00124143,-0.0473608,-0.656354,0.0319957,0.0441526,951,393,-0.823258,0.260381
-266,631,0.673767,-0.397614,0,0,0,0,0,0,0,-1,958,393,0.673767,0.397608
-259,631,0.715088,-0.0977783,-0.00113931,-0.0165247,-0.0115162,0.00501719,-0.0226812,-0.49094,0.0170412,0.0439402,965,393,0.715117,0.0977923
-252,631,0.469666,-0.192383,0.00266007,-0.0105136,-0.00708192,0.00574485,-0.0135983,-0.410802,0.0114705,0.0469574,972,393,0.469685,0.192375
-245,631,0.55249,-0.0586243,0.00549984,-0.00499821,-0.0037728,0.00671505,-0.00621342,-0.311604,0.00746613,0.0477887,979,393,0.552465,0.0586123
-238,631,-1.40723,-0.90799,0,0,0,0,0,0,0,-1,986,393,-1.4072,0.907988
-231,631,-0.727112,-1.03009,0.00733501,0.00281145,0.000617325,0.00741774,0.00272872,0.133224,0.0043322,0.0497013,993,393,-0.727112,1.03009
-224,631,-0.308228,-1.00461,0.00740077,0.00536965,0.00208256,0.00870219,0.00406822,0.558538,0.00502775,0.0483154,1000,393,-0.308241,1.0046
-217,631,0.57428,-1.31509,0,0,0,0,0,0,0,-1,1007,393,0.574267,1.31509
-210,631,-0.00341797,0.0492859,0,0,0,0,0,0,0,-1,1014,393,-0.00338838,-0.0492807
-203,631,-0.388123,-0.83606,0.00427188,0.0095148,0.00283855,0.0107572,0.00302949,1.15823,0.00640508,0.0407772,1021,393,-0.388136,0.836067
-196,631,-0.238647,-0.189514,0.00441891,0.00992314,0.00285001,0.0111329,0.00320912,1.16936,0.00661694,0.0452324,1028,393,-0.23866,0.189513
-189,631,-0.11145,0.00765991,0.00456637,0.00945702,0.00263463,0.0106063,0.00341713,1.15947,0.00625128,0.0443112,1035,393,-0.111503,-0.00766552
-182,631,0.0880127,0.120422,0,0,0,0,0,0,0,-1,1042,393,0.0879933,-0.120423
-175,631,-0.0124512,0.106323,0.00461817,0.00673416,0.00161916,0.00761034,0.00374199,1.07479,0.00439403,0.0303164,1049,393,-0.0124314,-0.106319
-168,631,-0.0235596,0.115021,0.00443942,0.0053337,0.0013406,0.00629976,0.00347336,0.946365,0.00364356,0.0153197,1056,393,-0.0235492,-0.115034
-161,631,-0.0423584,0.0902405,0.00413619,0.00409544,0.000815199,0.00493127,0.00330036,0.772906,0.00290094,0.00826735,1063,393,-0.0423483,-0.0902526
-154,631,-0.0383301,0.0869751,0.00374878,0.00290591,0.000308985,0.00384992,0.00280478,0.316323,0.00229884,0.00820118,1070,393,-0.0382877,-0.0869639
-147,631,-0.0310059,0.0957336,0.00354948,0.0017683,-0.000114813,0.00355685,0.00176093,-0.0641055,0.00205358,0.00928714,1077,393,-0.0310365,-0.0957441
-140,631,-0.0422363,0.0743103,0.00310517,0.00133594,-0.000176832,0.00312267,0.00131844,-0.0986483,0.00181013,0.00919719,1084,393,-0.0421968,-0.074303
-133,631,-0.0493164,0.059082,0.00252101,0.000901899,-0.000305216,0.00257663,0.000846274,-0.180269,0.00151653,0.00800634,1091,393,-0.049316,-0.0590769
-126,631,-0.0233154,0.0779114,0.00212971,0.000505396,-0.000357608,0.00220496,0.000430151,-0.207386,0.00134963,0.0117392,1098,393,-0.0233062,-0.0779053
-119,631,-0.0281982,0.0866394,0.00192643,0.000155426,-0.000562591,0.00209004,-8.17783e-06,-0.282998,0.00139609,0.0145911,1105,393,-0.0282266,-0.0866264
-112,631,-0.0505371,0.0850525,0.00157569,-5.32135e-06,-0.000667913,0.00182008,-0.00024971,-0.350768,0.00130461,0.0126175,1112,393,-0.050477,-0.0850488
-105,631,-0.0377197,0.0846252,0.00113027,-8.58716e-05,-0.000592177,0.00137098,-0.000326579,-0.386078,0.00104008,0.0161097,1119,393,-0.0377024,-0.08463
-98,631,-0.0306396,0.0769653,0.00057665,0.000237066,-0.000606081,0.00103627,-0.000222557,-0.648826,0.00077575,0.0142341,1126,393,-0.0306263,-0.0769686
-91,631,-0.0483398,0.0638733,0.000250316,0.000581225,-0.000566091,0.00100555,-0.000174004,-0.927576,0.00073526,0.0154459,1133,393,-0.0482846,-0.0638598
-84,631,-0.0491943,0.0576782,0.000100091,0.000945519,-0.000541549,0.0012098,-0.00016419,-1.11679,0.000866465,0.0154653,1140,393,-0.0492293,-0.0576847
-77,631,-0.0432129,0.0697937,-1.03953e-05,0.00133239,-0.000576266,0.00154579,-0.000223791,-1.21615,0.00111265,0.0096862,1147,393,-0.0431867,-0.0698051
-70,631,-0.0297852,0.0982971,3.34056e-05,0.00178645,-0.000517972,0.00192805,-0.000108201,-1.30393,0.00132291,0.0094919,1154,393,-0.0298028,-0.0983093
-63,631,-0.0270996,0.0855103,-2.29866e-05,0.00226469,-0.000354431,0.00231835,-7.66404e-05,-1.42056,0.00157173,0.00873242,1161,393,-0.0271143,-0.0855252
-56,631,-0.041626,0.0531921,9.98673e-05,0.00266651,-0.000138371,0.00267395,9.24291e-05,-1.51709,0.00175264,0.0102097,1168,393,-0.0416434,-0.0531818
-49,631,-0.0465088,0.0655212,0.000326102,0.00297654,9.64681e-05,0.00298004,0.000322596,1.53446,0.00188837,0.00979878,1175,393,-0.0465452,-0.0655244
-42,631,-0.0484619,0.088562,0.000165512,0.00297801,0.000293426,0.0030083,0.000135225,1.46794,0.00196201,0.0077102,1182,393,-0.0484958,-0.0885559
-35,631,-0.0321045,0.0911865,7.98961e-05,0.00289682,0.00035771,0.00294154,3.51816e-05,1.44644,0.0019494,0.00860662,1189,393,-0.0321145,-0.0912006
-28,631,-0.0169678,0.0879517,0.000129821,0.00267351,0.000320804,0.00271334,8.9986e-05,1.44726,0.00177966,0.0112252,1196,393,-0.0169578,-0.0879608
-21,631,-0.0432129,0.0891724,7.16369e-05,0.00223958,0.000166071,0.00225223,5.89892e-05,1.49478,0.00148221,0.0103799,1203,393,-0.0432242,-0.0891654
-14,631,-0.0712891,0.0848999,-4.53623e-05,0.00150916,-0.000106059,0.00151637,-5.25649e-05,-1.50299,0.00102888,0.0128826,1210,393,-0.0712457,-0.0848944
-7,631,-0.0518799,0.072937,-9.54787e-05,0.00080867,-0.000416071,0.000970995,-0.000257804,-1.19882,0.000748218,0.0192101,1217,393,-0.0518662,-0.072927
0,631,-0.0361328,0.0541687,-0.000197648,0.000272167,-0.000690268,0.000766403,-0.000691885,-0.949408,0.000842309,0.0201072,1224,393,-0.0361003,-0.05417
7,631,-0.0303955,0.0888062,-0.000229347,-0.00026609,-0.000916581,0.000669047,-0.00116448,-0.775378,0.00107139,0.0161443,1231,393,-0.0303567,-0.0888162
14,631,-0.0419922,0.092926,-0.000590735,-0.000556658,-0.00122589,0.000652314,-0.00179971,-0.792347,0.00146643,0.00924874,1238,393,-0.0420194,-0.0929149
21,631,-0.0477295,0.0922546,-0.000990994,-0.000208743,-0.0012336,0.000694257,-0.00189399,-0.938915,0.00154691,0.0115019,1245,393,-0.0476971,-0.0922463
28,631,-0.0531006,0.110565,-0.00113258,0.000454255,-0.00121845,0.00111484,-0.00179316,-1.074,0.00169409,0.0134431,1252,393,-0.0530862,-0.110577
35,631,-0.0380859,0.105347,-0.00139812,0.00118774,-0.00091309,0.00147766,-0.00168804,-1.26335,0.00182906,0.0124399,1259,393,-0.0380652,-0.105333
42,631,-0.0115967,0.0882874,-0.00168335,0.00211545,-0.00044728,0.0021674,-0.0017353,-1.45516,0.00225783,0.0108156,1266,393,-0.0116214,-0.0882747
49,631,-0.0279541,0.0978699,-0.00188651,0.00322428,-4.81679e-05,0.00322474,-0.00188696,-1.56137,0.00298474,0.00988673,1273,393,-0.0279339,-0.0978769
56,631,-0.0450439,0.100281,-0.00152553,0.00431888,0.000428594,0.00435015,-0.00155679,1.49798,0.0035352,0.0114111,1280,393,-0.0449867,-0.100284
63,631,-0.0583496,0.0707092,-0.000801677,0.00531924,0.000737868,0.00540693,-0.000889369,1.45251,0.00393472,0.014587,1287,393,-0.0583583,-0.0707063
70,631,-0.0581055,0.0900574,-0.00017809,0.00609034,0.00106704,0.006267,-0.000354746,1.40673,0.00430113,0.0144063,1294,393,-0.0581146,-0.0900526
77,631,-0.0511475,0.0924072,0.00046615,0.00632907,0.00118536,0.00655966,0.000235565,1.37867,0.00429674,0.0129762,1301,393,-0.0512035,-0.0924121
84,631,-0.0233154,0.0946045,0.00128572,0.00624585,0.00111608,0.00648541,0.00104616,1.35936,0.00402051,0.0111557,1308,393,-0.0232615,-0.0946003
91,631,-0.0303955,0.0878601,0.00205192,0.00597778,0.000966358,0.00620276,0.00182694,1.34206,0.00368057,0.0141661,1315,393,-0.0304526,-0.0878586
98,631,-0.0449219,0.0759888,0.00270056,0.00537503,0.000505024,0.00546722,0.00260837,1.39024,0.0031576,0.0122222,1322,393,-0.0448769,-0.0760024
105,631,-0.046875,0.0804749,0.00316736,0.00475804,-5.24298e-05,0.00475976,0.00316564,-1.53788,0.00279753,0.00988928,1329,393,-0.0468446,-0.0804755
112,631,-0.0438232,0.0828857,0.00321927,0.00432555,-0.000640387,0.00461862,0.00292621,-1.14161,0.00269809,0.0104317,1336,393,-0.0437964,-0.0828843
119,631,-0.0439453,0.0713196,0.00324251,0.00405414,-0.0010477,0.00477187,0.00252478,-0.970171,0.0027566,0.0116884,1343,393,-0.0438931,-0.0713271
126,631,-0.0367432,0.0693359,0.0030131,0.00366125,-0.00146578,0.00483835,0.001836,-0.894195,0.00282035,0.0167366,1350,393,-0.0367664,-0.0693494
133,631,-0.03479,0.101837,0.00241836,0.0035087,-0.00162116,0.0046739,0.00125315,-0.9476,0.00279354,0.017185,1357,393,-0.0347366,-0.101851
140,631,-0.0280762,0.11554,0.00187555,0.00367687,-0.00180531,0.00479372,0.000758699,-1.01678,0.00297533,0.017304,1364,393,-0.0280182,-0.115532
147,631,-0.0201416,0.0900574,0.00129067,0.00383839,-0.00185234,0.00481261,0.000316448,-1.08661,0.0031083,0.0196062,1371,393,-0.0201352,-0.0900455
154,631,-0.0163574,0.0845032,0.000555066,0.00403904,-0.00160633,0.00466661,-7.25042e-05,-1.19834,0.00313552,0.0193706,1378,393,-0.0163811,-0.0845054
161,631,-0.00634766,0.147369,-0.000208568,0.00403996,-0.00144026,0.00448218,-0.000650787,-1.27289,0.003227,0.0212611,1385,393,-0.0064022,-0.147372
168,631,-0.0203857,0.141083,-0.000646876,0.00396225,-0.00117921,0.00424642,-0.000931046,-1.33432,0.00318696,0.0244196,1392,393,-0.0203898,-0.14109
175,631,-0.036499,0.087738,-0.000718431,0.00366513,-0.000963491,0.00386755,-0.000920856,-1.36371,0.00293389,0.0184426,1399,393,-0.0365398,-0.0877408
182,631,-0.0444336,0.0916443,-0.000818568,0.00335825,-0.000687645,0.00346854,-0.000928865,-1.41175,0.00267627,0.0106677,1406,393,-0.04439,-0.0916389
189,631,-0.0340576,0.0999756,-0.000921188,0.00285571,-0.000484252,0.00291681,-0.000982287,-1.44529,0.00234168,0.00978255,1413,393,-0.0340038,-0.0999728
196,631,-0.0288086,0.0986633,-0.000852626,0.00218437,-0.000383397,0.00223202,-0.000900279,-1.44714,0.00186212,0.0110117,1420,393,-0.0288014,-0.0986521
203,631,-0.0327148,0.0820923,-0.000707064,0.00145706,-0.000206252,0.00147654,-0.000726546,-1.47662,0.00129629,0.0137707,1427,393,-0.0326665,-0.082099
210,631,-0.0566406,0.0667419,-0.000462298,0.000792599,-0.000100286,0.000800562,-0.000470262,-1.49155,0.000741926,0.014814,1434,393,-0.056643,-0.0667513
217,631,-0.0526123,0.0649414,-4.67101e-05,0.000109547,-5.37619e-05,0.000126257,-6.34204e-05,-1.26944,0.000111496,0.014226,1441,393,-0.0525945,-0.0649296
224,631,-0.0476074,0.0736084,0.000354092,-0.00027809,3.71096e-05,0.000356263,-0.000280261,0.0584332,0.00036837,0.0110003,1448,393,-0.0475919,-0.0735971
231,631,-0.059082,0.104126,0.000728253,-0.000547705,0.000170888,0.000750743,-0.000570195,0.130857,0.000765015,0.0104074,1455,393,-0.0590504,-0.10412
238,631,-0.0629883,0.114624,0.00110698,-0.00071621,0.000231164,0.00113584,-0.000745063,0.124173,0.00109372,0.0151852,1462,393,-0.0629471,-0.114631
245,631,-0.0576172,0.111572,0.00142363,-0.000849183,0.000264888,0.00145409,-0.000879646,0.114502,0.00136092,0.0158243,1469,393,-0.0575861,-0.111567
252,631,-0.0532227,0.092926,0.0016905,-0.00110965,0.000249888,0.00171263,-0.00113177,0.0883109,0.00165359,0.0151876,1476,393,-0.0532833,-0.0929288
259,631,-0.0389404,0.0941467,0.00215543,-0.00127617,0.000188991,0.0021658,-0.00128654,0.0548526,0.00201465,0.0115879,1483,393,-0.0389768,-0.0941527
266,631,-0.0244141,0.102386,0.00276123,-0.00195007,0.000107963,0.0027637,-0.00195254,0.0228998,0.00273632,0.0105512,1490,393,-0.0243848,-0.102395
273,631,-0.019043,0.111969,0.00310788,-0.0030351,0.000192196,0.00311389,-0.00304111,0.0312464,0.00355368,0.0124047,1497,393,-0.018995,-0.111981
280,631,-0.0123291,0.0882263,0.00348565,-0.00432478,0.000314204,0.00349827,-0.0043374,0.0401423,0.00453257,0.0106114,1504,393,-0.0122934,-0.0882268
287,631,-0.0167236,0.0771484,0.00376385,-0.00478151,0.000246245,0.00377094,-0.0047886,0.0287843,0.00495348,0.0102208,1511,393,-0.0166723,-0.0771434
294,631,-0.0113525,0.0733032,0.00368012,-0.00547035,7.82345e-05,0.00368079,-0.00547101,0.00854894,0.00531739,0.0128212,1518,393,-0.0113022,-0.0733048
301,631,-0.034668,0.103699,0.00347895,-0.00607121,-2.89064e-05,0.00347903,-0.00607129,-0.00302677,0.00558118,0.021357,1525,393,-0.03465,-0.103703
308,631,-0.0419922,0.157196,0.00312142,-0.00679923,0.000174418,0.00312448,-0.00680229,0.017574,0.00586088,0.0307545,1532,393,-0.0420161,-0.157202
315,631,0.0472412,0.0759888,0.00258032,-0.00685317,0.000380428,0.00259563,-0.00686849,0.0402403,0.00564669,0.0356325,1539,393,0.0472367,-0.0759972
322,631,-0.026001,0.0202332,0.00222873,-0.00660948,-4.73729e-05,0.00222899,-0.00660973,-0.00535981,0.00530785,0.0402991,1546,393,-0.025993,-0.0202373
329,631,0.178345,-0.235016,0.00190281,-0.00622257,-0.000543301,0.00193898,-0.00625873,-0.0664704,0.00494714,0.0444107,1553,393,0.178335,0.23502
336,631,0.17334,-0.580322,0.0016408,-0.00543819,-0.00142983,0.0019187,-0.00571608,-0.19196,0.00458609,0.0412691,1560,393,0.173298,0.58032
343,631,-0.359741,-0.651337,0.0019243,-0.00409673,-0.00251444,0.00283623,-0.00500866,-0.347925,0.00458678,0.0428273,1567,393,-0.359739,0.651322
350,631,-0.0645752,-0.541626,0.0022646,-0.00282465,-0.00389294,0.00437079,-0.00493085,-0.49593,0.00537355,0.0452482,1574,393,-0.0646157,0.541621
357,631,-0.161255,-0.0872803,0.00253654,-0.00145065,-0.0052429,0.00615208,-0.00506619,-0.603717,0.00648698,0.0436968,1581,393,-0.161259,0.0872937
364,631,-0.494385,0.243774,0,0,0,0,0,0,0,-1,1588,393,-0.494382,-0.24377
371,631,-0.395752,0.427734,0.00212262,0.0013845,-0.00834881,0.0101105,-0.0066034,-0.76331,0.00972034,0.0394618,1595,393,-0.395722,-0.427726
378,631,-0.325562,0.0228882,0.00400284,0.00207544,-0.00931215,0.012401,-0.00632274,-0.733838,0.0109984,0.0420261,1602,393,-0.325601,-0.0229027
385,631,-0.636963,-0.177124,0.00765939,0.00118856,-0.0099557,0.0148922,-0.00604425,-0.628291,0.0124423,0.0438363,1609,393,-0.63691,0.177123
392,631,-0.591919,0.0533752,0,0,0,0,0,0,0,-1,1616,393,-0.591898,-0.053369
399,631,0,0,0,0,0,0,0,0,0,-1,1623,393,0,0
406,631,0,0,0,0,0,0,0,0,0,-1,1630,393,0,0
413,631,0,0,0,0,0,0,0,0,0,-1,1637,393,0,0
420,631,0,0,0,0,0,0,0,0,0,-1,1644,393,0,0
427,631,0,0,0,0,0,0,0,0,0,-1,1651,393,0,0
434,631,0,0,0,0,0,0,0,0,0,-1,1658,393,0,0
441,631,0,0,0,0,0,0,0,0,0,-1,1665,393,0,0
448,631,0,0,0,0,0,0,0,0,0,-1,1672,393,0,0
455,631,0,0,0,0,0,0,0,0,0,-1,1679,393,0,0
462,631,0,0,0,0,0,0,0,0,0,-1,1686,393,0,0
469,631,0,0,0,0,0,0,0,0,0,-1,1693,393,0,0
476,631,0,0,0,0,0,0,0,0,0,-1,1700,393,0,0
483,631,0,0,0,0,0,0,0,0,0,-1,1707,393,0,0
490,631,0,0,0,0,0,0,0,0,0,-1,1714,393,0,0
497,631,0,0,0,0,0,0,0,0,0,-1,1721,393,0,0
504,631,0,0,0,0,0,0,0,0,0,-1,1728,393,0,0
511,631,0,0,0,0,0,0,0,0,0,-1,1735,393,0,0
518,631,0,0,0,0,0,0,0,0,0,-1,1742,393,0,0
525,631,0,0,0,0,0,0,0,0,0,-1,1749,393,0,0
532,631,0,0,0,0,0,0,0,0,0,-1,1756,393,0,0
539,631,0,0,0,0,0,0,0,0,0,-1,1763,393,0,0
546,631,0,0,0,0,0,0,0,0,0,-1,1770,393,0,0
553,631,0,0,0,0,0,0,0,0,0,-1,1777,393,0,0
560,631,0,0,0,0,0,0,0,0,0,-1,1784,393,0,0
567,631,0,0,0,0,0,0,0,0,0,-1,1791,393,0,0
574,631,0,0,0,0,0,0,0,0,0,-1,1798,393,0,0
581,631,0,0,0,0,0,0,0,0,0,-1,1805,393,0,0
588,631,0,0,0,0,0,0,0,0,0,-1,1812,393,0,0
595,631,0,0,0,0,0,0,0,0,0,-1,1819,393,0,0
602,631,0,0,0,0,0,0,0,0,0,-1,1826,393,0,0
609,631,0,0,0,0,0,0,0,0,0,-1,1833,393,0,0
616,631,0,0,0,0,0,0,0,0,0,-1,1840,393,0,0
623,631,0,0,0,0,0,0,0,0,0,-1,1847,393,0,0
630,631,0,0,0,0,0,0,0,0,0,-1,1854,393,0,0
637,631,0,0,0,0,0,0,0,0,0,-1,1861,393,0,0
644,631,0,0,0,0,0,0,0,0,0,-1,1868,393,0,0
651,631,0,0,0,0,0,0,0,0,0,-1,1875,393,0,0
658,631,0,0,0,0,0,0,0,0,0,-1,1882,393,0,0
665,631,0,0,0,0,0,0,0,0,0,-1,1889,393,0,0
672,631,0,0,0,0,0,0,0,0,0,-1,1896,393,0,0
679,631,0,0,0,0,0,0,0,0,0,-1,1903,393,0,0
686,631,0,0,0,0,0,0,0,0,0,-1,1910,393,0,0
693,631,0,0,0,0,0,0,0,0,0,-1,1917,393,0,0
700,631,0,0,0,0,0,0,0,0,0,-1,1924,393,0,0
707,631,0,0,0,0,0,0,0,0,0,-1,1931,393,0,0
714,631,0,0,0,0,0,0,0,0,0,-1,1938,393,0,0
721,631,0,0,0,0,0,0,0,0,0,-1,1945,393,0,0
728,631,0,0,0,0,0,0,0,0,0,-1,1952,393,0,0
735,631,0,0,0,0,0,0,0,0,0,-1,1959,393,0,0
742,631,0,0,0,0,0,0,0,0,0,-1,1966,393,0,0
749,631,0,0,0,0,0,0,0,0,0,-1,1973,393,0,0
756,631,0,0,0,0,0,0,0,0,0,-1,1980,393,0,0
763,631,0,0,0,0,0,0,0,0,0,-1,1987,393,0,0
770,631,0,0,0,0,0,0,0,0,0,-1,1994,393,0,0
777,631,0,0,0,0,0,0,0,0,0,-1,2001,393,0,0
784,631,0,0,0,0,0,0,0,0,0,-1,2008,393,0,0
791,631,0,0,0,0,0,0,0,0,0,-1,2015,393,0,0
798,631,0,0,0,0,0,0,0,0,0,-1,2022,393,0,0
805,631,0,0,0,0,0,0,0,0,0,-1,2029,393,0,0
812,631,0,0,0,0,0,0,0,0,0,-1,2036,393,0,0
-700,624,0,0,0,0,0,0,0,0,0,-1,524,400,0,0
-693,624,0,0,0,0,0,0,0,0,0,-1,531,400,0,0
-686,624,0,0,0,0,0,0,0,0,0,-1,538,400,0,0
-679,624,0,0,0,0,0,0,0,0,0,-1,545,400,0,0
-672,624,0,0,0,0,0,0,0,0,0,-1,552,400,0,0
-665,624,0,0,0,0,0,0,0,0,0,-1,559,400,0,0
-658,624,0,0,0,0,0,0,0,0,0,-1,566,400,0,0
-651,624,0,0,0,0,0,0,0,0,0,-1,573,400,0,0
-644,624,0,0,0,0,0,0,0,0,0,-1,580,400,0,0
-637,624,0,0,0,0,0,0,0,0,0,-1,587,400,0,0
-630,624,0,0,0,0,0,0,0,0,0,-1,594,400,0,0
-623,624,0,0,0,0,0,0,0,0,0,-1,601,400,0,0
-616,624,0,0,0,0,0,0,0,0,0,-1,608,400,0,0
-609,624,0,0,0,0,0,0,0,0,0,-1,615,400,0,0
-602,624,0,0,0,0,0,0,0,0,0,-1,622,400,0,0
-595,624,0,0,0,0,0,0,0,0,0,-1,629,400,0,0
-588,624,0,0,0,0,0,0,0,0,0,-1,636,400,0,0
-581,624,0,0,0,0,0,0,0,0,0,-1,643,400,0,0
-574,624,0,0,0,0,0,0,0,0,0,-1,650,400,0,0
-567,624,0,0,0,0,0,0,0,0,0,-1,657,400,0,0
-560,624,0,0,0,0,0,0,0,0,0,-1,664,400,0,0
-553,624,0,0,0,0,0,0,0,0,0,-1,671,400,0,0
-546,624,0,0,0,0,0,0,0,0,0,-1,678,400,0,0
-539,624,0,0,0,0,0,0,0,0,0,-1,685,400,0,0
-532,624,0,0,0,0,0,0,0,0,0,-1,692,400,0,0
-525,624,0,0,0,0,0,0,0,0,0,-1,699,400,0,0
-518,624,0,0,0,0,0,0,0,0,0,-1,706,400,0,0
-511,624,0,0,0,0,0,0,0,0,0,-1,713,400,0,0
-504,624,0,0,0,0,0,0,0,0,0,-1,720,400,0,0
-497,624,0,0,0,0,0,0,0,0,0,-1,727,400,0,0
-490,624,0,0,0,0,0,0,0,0,0,-1,734,400,0,0
-483,624,0,0,0,0,0,0,0,0,0,-1,741,400,0,0
-476,624,0,0,0,0,0,0,0,0,0,-1,748,400,0,0
-469,624,0,0,0,0,0,0,0,0,0,-1,755,400,0,0
-462,624,0,0,0,0,0,0,0,0,0,-1,762,400,0,0
-455,624,0,0,0,0,0,0,0,0,0,-1,769,400,0,0
-448,624,0,0,0,0,0,0,0,0,0,-1,776,400,0,0
-441,624,0,0,0,0,0,0,0,0,0,-1,783,400,0,0
-434,624,0,0,0,0,0,0,0,0,0,-1,790,400,0,0
-427,624,0,0,0,0,0,0,0,0,0,-1,797,400,0,0
-420,624,0,0,0,0,0,0,0,0,0,-1,804,400,0,0
-413,624,0,0,0,0,0,0,0,0,0,-1,811,400,0,0
-406,624,0,0,0,0,0,0,0,0,0,-1,818,400,0,0
-399,624,0,0,0,0,0,0,0,0,0,-1,825,400,0,0
-392,624,0,0,0,0,0,0,0,0,0,-1,832,400,0,0
-385,624,0,0,0,0,0,0,0,0,0,-1,839,400,0,0
-378,624,0,0,0,0,0,0,0,0,0,-1,846,400,0,0
-371,624,0,0,0,0,0,0,0,0,0,-1,853,400,0,0
-364,624,0,0,0,0,0,0,0,0,0,-1,860,400,0,0
-357,624,0,0,0,0,0,0,0,0,0,-1,867,400,0,0
-350,624,0,0,0,0,0,0,0,0,0,-1,874,400,0,0
-343,624,0,0,0,0,0,0,0,0,0,-1,881,400,0,0
-336,624,0,0,0,0,0,0,0,0,0,-1,888,400,0,0
-329,624,0,0,0,0,0,0,0,0,0,-1,895,400,0,0
-322,624,0,0,0,0,0,0,0,0,0,-1,902,400,0,0
-315,624,0,0,0,0,0,0,0,0,0,-1,909,400,0,0
-308,624,0,0,0,0,0,0,0,0,0,-1,916,400,0,0
-301,624,0,0,0,0,0,0,0,0,0,-1,923,400,0,0
-294,624,0.826111,0.465637,-0.0431448,-0.0442181,-0.0405403,-0.00313762,-0.0842252,-0.77878,0.055134,0.0425969,930,400,0.826091,-0.465628
-287,624,0.426331,0.152313,0,0,0,0,0,0,0,-1,937,400,0.426308,-0.152323
-280,624,0.0734863,-0.195404,-0.0212703,-0.0313311,-0.0282117,0.00235596,-0.0549574,-0.697171,0.0374483,0.041969,944,400,0.0734843,0.195403
-273,624,-0.347778,-0.324219,-0.0122034,-0.025426,-0.0220412,0.00419669,-0.0418261,-0.639693,0.029383,0.0447021,951,400,-0.347751,0.324214
-266,624,-0.645386,-0.340149,-0.00463709,-0.0198525,-0.0161526,0.00560975,-0.0300994,-0.565313,0.022174,0.0449812,958,400,-0.645375,0.340141
-259,624,1.19617,0.2966,0.000771756,-0.0142786,-0.011019,0.00659001,-0.0200969,-0.485811,0.016052,0.0409039,965,400,1.19618,-0.296605
-252,624,0.840332,0.168762,0,0,0,0,0,0,0,-1,972,400,0.84031,-0.168758
-245,624,0.868652,0.237915,0,0,0,0,0,0,0,-1,979,400,0.868657,-0.237924
-238,624,0.0934448,0.0575256,0,0,0,0,0,0,0,-1,986,400,0.0934243,-0.05752
-231,624,-0.464172,-1.3837,0,0,0,0,0,0,0,-1,993,400,-0.464166,1.38371
-224,624,-0.0921021,-0.0153503,0,0,0,0,0,0,0,-1,1000,400,-0.0921214,0.015338
-217,624,-0.00189209,0.115753,0,0,0,0,0,0,0,-1,1007,400,-0.00186405,-0.11576
-210,624,-0.0386353,0.0559387,0,0,0,0,0,0,0,-1,1014,400,-0.0386408,-0.0559392
-203,624,-0.0754395,-0.00387573,0,0,0,0,0,0,0,-1,1021,400,-0.0754176,0.0038817
-196,624,-0.104126,0.0475769,0.00352625,0.00747708,0.00231794,0.00854717,0.00245616,1.13829,0.00508128,0.0338152,1028,400,-0.104153,-0.0475776
-189,624,-0.0969238,0.0996704,0.00354556,0.00718485,0.00219376,0.00821542,0.00251499,1.13162,0.00486057,0.0309227,1035,400,-0.0969389,-0.0996717
-182,624,-0.0756836,0.0769653,0.00351819,0.00614352,0.00181033,0.00706701,0.0025947,1.09908,0.00412787,0.0246644,1042,400,-0.0756925,-0.0769503
-175,624,-0.0393066,0.0785522,0.00333206,0.00517987,0.00142842,0.00595713,0.00255479,1.07246,0.00345093,0.0160552,1049,400,-0.0393175,-0.0785436
-168,624,-0.0162354,0.0771484,0.0030311,0.00417767,0.00124692,0.00497678,0.00223199,1.00087,0.00287843,0.0103624,1056,400,-0.016237,-0.0771503
-161,624,-0.0393066,0.0731812,0.00270998,0.00331988,0.00084784,0.00391594,0.00211391,0.958032,0.00226326,0.00944798,1063,400,-0.039324,-0.0731811
-154,624,-0.0428467,0.0848389,0.00238087,0.00249514,0.000439018,0.00288073,0.00199529,0.850104,0.00170384,0.00912437,1070,400,-0.0428492,-0.0848276
-147,624,-0.0377197,0.0959778,0.00219674,0.00165965,6.12459e-05,0.00220364,0.00165275,0.112115,0.00132423,0.00982185,1077,400,-0.0377269,-0.0959846
-140,624,-0.0489502,0.0748901,0.00188403,0.00140147,-1.41426e-05,0.00188444,0.00140105,-0.0292739,0.00113017,0.00916608,1084,400,-0.0489258,-0.0748784
-133,624,-0.0535889,0.0618591,0.00148267,0.0011001,-0.000146263,0.00153218,0.00105059,-0.326399,0.00090471,0.0101178,1091,400,-0.0536015,-0.0618523
-126,624,-0.0543213,0.0934753,0.00127536,0.00082913,-0.000270634,0.00140299,0.000701498,-0.440672,0.000810017,0.0116134,1098,400,-0.0542893,-0.0934817
-119,624,-0.0533447,0.0963745,0.00122211,0.000692549,-0.000514626,0.00153607,0.000378582,-0.547805,0.000924077,0.013803,1105,400,-0.0533304,-0.0963688
-112,624,-0.0606689,0.0971069,0.00108053,0.000717211,-0.000659938,0.00158335,0.000214387,-0.651091,0.000991861,0.0152713,1112,400,-0.0606923,-0.0970934
-105,624,-0.0507813,0.0931702,0.000825002,0.000735104,-0.000681187,0.00146272,9.73843e-05,-0.752453,0.000944361,0.0112362,1119,400,-0.0508334,-0.0931807
-98,624,-0.0541992,0.0690308,0.000442231,0.00125796,-0.000736775,0.00169223,7.95984e-06,-1.03819,0.00112551,0.0123131,1126,400,-0.0542571,-0.0690382
-91,624,-0.0714111,0.0591736,0.000299172,0.00180704,-0.000664361,0.00205799,4.82223e-05,-1.20963,0.00135621,0.0173196,1133,400,-0.0713604,-0.0591705
-84,624,-0.055542,0.0679016,0.000306936,0.00222536,-0.000594765,0.00239479,0.000137506,-1.29328,0.00155272,0.0154077,1140,400,-0.0555723,-0.0679069
-77,624,-0.0361328,0.0628052,0.000269435,0.00260753,-0.000569097,0.00273869,0.000138273,-1.34428,0.00178149,0.0114514,1147,400,-0.0361087,-0.0628064
-70,624,-0.0394287,0.0681152,0.000300385,0.00295906,-0.000469515,0.00303954,0.000219906,-1.40104,0.00195718,0.0113802,1154,400,-0.0393844,-0.0681135
-63,624,-0.0303955,0.0739136,0.000254758,0.00340056,-0.000308329,0.0034305,0.000224823,-1.47401,0.00221586,0.00924946,1161,400,-0.0303755,-0.0739128
-56,624,-0.0283203,0.0667114,0.000340971,0.00365513,-6.11836e-05,0.00365626,0.000339842,-1.55234,0.0023325,0.00766994,1168,400,-0.0283707,-0.0666989
-49,624,-0.0401611,0.0709229,0.000487659,0.00367079,0.000155413,0.00367836,0.000480089,1.52213,0.00230891,0.00839722,1175,400,-0.0401147,-0.0709358
-42,624,-0.0461426,0.085083,0.000333237,0.00339714,0.000264687,0.00341984,0.00031054,1.48525,0.00218375,0.00900602,1182,400,-0.0461315,-0.0850881
-35,624,-0.0394287,0.0950317,0.000228045,0.00300311,0.000179351,0.00301465,0.000216502,1.50652,0.00194163,0.0137309,1189,400,-0.0393758,-0.0950208
-28,624,-0.0450439,0.085907,0.000310953,0.00246497,-6.63683e-05,0.00246701,0.000308911,-1.54002,0.00155199,0.0171898,1196,400,-0.0449941,-0.0859202
-21,624,-0.0554199,0.0806274,0.000254215,0.00170116,-0.000438505,0.00182368,0.000131698,-1.29835,0.00117435,0.0118622,1203,400,-0.0554417,-0.0806147
-14,624,-0.0543213,0.0843201,9.36528e-05,0.00063943,-0.00097884,0.00138271,-0.000649626,-0.92134,0.00119854,0.0129825,1210,400,-0.054316,-0.0843311
-7,624,-0.052002,0.111237,-9.45584e-05,-0.000266489,-0.00158592,0.00140773,-0.00176877,-0.758322,0.0018379,0.0172233,1217,400,-0.0519975,-0.111241
0,624,-0.0377197,0.107605,-0.0003531,-0.000864029,-0.00211261,0.00151944,-0.00273656,-0.725228,0.00249047,0.0176269,1224,400,-0.03769,-0.107614
7,624,-0.0380859,0.106293,-0.00043793,-0.00175354,-0.00262765,0.001613,-0.00380447,-0.662749,0.00321195,0.0131077,1231,400,-0.0380695,-0.106288
14,624,-0.0489502,0.0724792,-0.00107981,-0.0017402,-0.00301344,0.00162147,-0.00444148,-0.730829,0.00362446,0.0106927,1238,400,-0.048967,-0.0724856
21,624,-0.0544434,0.0775757,-0.0017345,-0.000677529,-0.00313926,0.00197742,-0.00438944,-0.86879,0.00376281,0.0107359,1245,400,-0.0544428,-0.0775809
28,624,-0.0653076,0.0916748,-0.00193259,0.000770065,-0.00322036,0.00291113,-0.00407366,-0.984051,0.00405125,0.0100722,1252,400,-0.0652724,-0.0916682
35,624,-0.0491943,0.104004,-0.00230385,0.00228094,-0.00278,0.0035918,-0.00361471,-1.13018,0.00416069,0.013787,1259,400,-0.0491539,-0.103997
42,624,-0.013916,0.0970459,-0.00261389,0.0039721,-0.00207377,0.00457068,-0.00321246,-1.28979,0.00451635,0.0155552,1266,400,-0.0138656,-0.0970563
49,624,-0.0302734,0.087616,-0.00264532,0.0059117,-0.00152353,0.00617486,-0.00290848,-1.39975,0.0053561,0.0172811,1273,400,-0.0302335,-0.0876123
56,624,-0.0423584,0.092041,-0.0020036,0.00778531,-0.000801902,0.00785057,-0.00206886,-1.4896,0.00604256,0.0175962,1280,400,-0.0423009,-0.0920397
63,624,-0.0472412,0.0869751,-0.000844833,0.00937663,-0.000188639,0.00938011,-0.000848314,-1.55235,0.0065545,0.0132293,1287,400,-0.0471956,-0.0869713
70,624,-0.0635986,0.0822449,0.000172701,0.0107087,0.000489135,0.0107314,0.000150041,1.5245,0.00710475,0.0116017,1294,400,-0.0636419,-0.0822415
77,624,-0.0495605,0.0818481,0.00118267,0.0112468,0.000905147,0.0113276,0.00110191,1.48181,0.00721251,0.0119616,1301,400,-0.0495522,-0.081835
84,624,-0.0203857,0.0877686,0.00244722,0.0111801,0.00106611,0.0113084,0.00231896,1.45106,0.00689712,0.011131,1308,400,-0.0204309,-0.0877597
91,624,-0.027832,0.0741272,0.0036357,0.0107603,0.00109941,0.0109261,0.00346991,1.42112,0.0064466,0.0119583,1315,400,-0.0278259,-0.0741176
98,624,-0.0546875,0.0704346,0.00459165,0.00976396,0.000697507,0.00985637,0.00449924,1.43908,0.00569776,0.0113752,1322,400,-0.0547034,-0.0704366
105,624,-0.0581055,0.079834,0.00523143,0.00869418,9.30729e-05,0.00869668,0.00522893,1.54394,0.00505524,0.0119372,1329,400,-0.058117,-0.0798218
112,624,-0.0488281,0.0799561,0.00523553,0.0080485,-0.00049836,0.00813418,0.00514985,-1.40053,0.00475142,0.0122727,1336,400,-0.0487806,-0.0799417
119,624,-0.0422363,0.0728149,0.00522336,0.00715456,-0.00107157,0.0076314,0.00474652,-1.15211,0.00444948,0.0129745,1343,400,-0.0421795,-0.072815
126,624,-0.0332031,0.0758057,0.00476466,0.0062141,-0.00148967,0.00714598,0.00383277,-1.01179,0.00412937,0.016218,1350,400,-0.033143,-0.0758022
133,624,-0.0423584,0.112244,0.00370243,0.00575887,-0.00162646,0.00665487,0.00280643,-1.06727,0.00385786,0.0163444,1357,400,-0.0423465,-0.112234
140,624,-0.0466309,0.135498,0.00275913,0.00586341,-0.00192093,0.00678091,0.00184164,-1.1252,0.00404884,0.0162732,1364,400,-0.0466027,-0.135494
147,624,-0.0585938,0.109192,0.00181901,0.0059158,-0.00200451,0.00673341,0.0010014,-1.18351,0.00419517,0.0193056,1371,400,-0.0586085,-0.109196
154,624,-0.010376,0.0822449,0.000746025,0.00600264,-0.00168915,0.00649862,0.000250038,-1.28519,0.00425152,0.0213981,1378,400,-0.0104067,-0.0822326
161,624,0.019165,0.105286,-0.000232846,0.00589626,-0.00142904,0.00621307,-0.000549661,-1.35263,0.00433689,0.0203061,1385,400,0.019194,-0.105299
168,624,0.00195313,0.143799,-0.00080315,0.00563119,-0.00106123,0.00580171,-0.000973662,-1.41148,0.00422988,0.0196154,1392,400,0.00193222,-0.143793
175,624,-0.0397949,0.0982971,-0.000795488,0.0050305,-0.000837267,0.00514843,-0.000913427,-1.43086,0.00377379,0.0158502,1399,400,-0.0398393,-0.0983057
182,624,-0.0473633,0.0716248,-0.000790993,0.00451316,-0.000503414,0.00456051,-0.000838349,-1.477,0.00335489,0.00988275,1406,400,-0.0473151,-0.0716195
189,624,-0.032959,0.0893555,-0.000802515,0.00385212,-0.000222554,0.00386274,-0.000813132,-1.52313,0.00288466,0.00941325,1413,400,-0.0329192,-0.0893451
196,624,-0.0362549,0.0806274,-0.000652273,0.0029507,-0.000152196,0.00295712,-0.000658691,-1.52865,0.00222373,0.0107322,1420,400,-0.0361959,-0.0806311
203,624,-0.0249023,0.072998,-0.000481162,0.00206529,-2.3296e-05,0.00206551,-0.000481375,-1.56165,0.00156238,0.0136559,1427,400,-0.0248822,-0.0729934
210,624,-0.0375977,0.0765076,-0.000258766,0.00124767,-4.96792e-06,0.00124768,-0.000258782,-1.5675,0.000930128,0.0164682,1434,400,-0.0375442,-0.0765197
217,624,-0.0457764,0.108246,4.8776e-05,0.000421963,-9.3103e-05,0.000443901,2.68383e-05,-1.33939,0.000287406,0.0176182,1441,400,-0.0458245,-0.108254
224,624,-0.0456543,0.100922,0.000311393,-6.77092e-05,-0.000143162,0.000359381,-0.000115697,-0.323432,0.000286061,0.0135108,1448,400,-0.0456804,-0.100917
231,624,-0.0513916,0.0841064,0.000547085,-0.00034437,-0.000119361,0.00056279,-0.000360076,-0.130825,0.000537085,0.0112758,1455,400,-0.0513715,-0.0840973
238,624,-0.0627441,0.0928955,0.000805622,-0.00049584,-9.92655e-05,0.00081315,-0.000503367,-0.0756888,0.000767073,0.0160727,1462,400,-0.0627825,-0.0928963
245,624,-0.0540771,0.0894165,0.00101721,-0.000606414,-8.05359e-05,0.0010212,-0.000610399,-0.0494407,0.000951904,0.01615,1469,400,-0.0540175,-0.0894037
252,624,-0.041626,0.0926208,0.00116643,-0.000777836,-6.12267e-05,0.00116835,-0.000779763,-0.0314494,0.00113218,0.0115936,1476,400,-0.0416265,-0.0926152
259,624,-0.0391846,0.0862427,0.00146264,-0.000859489,-3.15173e-05,0.00146307,-0.000859917,-0.0135693,0.00135616,0.00811543,1483,400,-0.0392084,-0.0862536
266,624,-0.0168457,0.104858,0.00194387,-0.0013662,-2.30319e-05,0.00194403,-0.00136636,-0.00695767,0.00192093,0.0117992,1490,400,-0.0168393,-0.104847
273,624,-0.0185547,0.115356,0.0022305,-0.00219287,0.0001478,0.00223544,-0.0021978,0.0333637,0.00255956,0.0144385,1497,400,-0.0185319,-0.115357
280,624,-0.0257568,0.0869446,0.00253398,-0.00317054,0.000349533,0.00255532,-0.00319188,0.0609689,0.00332493,0.0133146,1504,400,-0.0258027,-0.0869529
287,624,-0.0487061,0.0774841,0.00275492,-0.00349563,0.000348744,0.00277432,-0.00351503,0.0555642,0.00363954,0.00992929,1511,400,-0.048662,-0.0774912
294,624,-0.0333252,0.0791016,0.00265584,-0.00401769,0.000230341,0.00266378,-0.00402563,0.034461,0.00388872,0.00760356,1518,400,-0.0333352,-0.0791148
301,624,-0.0262451,0.0776062,0.00249183,-0.00447121,0.000196077,0.00249734,-0.00447673,0.0281299,0.00408018,0.00961464,1525,400,-0.0262617,-0.0776162
308,624,-0.0404053,0.0899353,0.0021909,-0.00504631,0.000403278,0.0022133,-0.00506871,0.0554939,0.00431066,0.0140035,1532,400,-0.0403675,-0.0899252
315,624,-0.0529785,0.0924683,0.001716,-0.00506758,0.00060012,0.00176868,-0.00512026,0.0875602,0.00413126,0.0161947,1539,400,-0.053013,-0.0924627
322,624,-0.0285645,0.0619507,0.00139238,-0.00491089,0.000238993,0.00140143,-0.00491994,0.0378433,0.00383346,0.0223812,1546,400,-0.0285191,-0.0619399
329,624,0.0999756,-0.0384521,0.00104524,-0.0046601,-0.000188714,0.00105148,-0.00466633,-0.0330286,0.00351422,0.0330904,1553,400,0.100001,0.0384585
336,624,-0.0616455,-0.204559,0.000831755,-0.00419973,-0.000953596,0.00100642,-0.0043744,-0.181159,0.00330325,0.0341782,1560,400,-0.0616207,0.204556
343,624,-0.276855,-0.280884,0.00108526,-0.00327497,-0.00187628,0.00178148,-0.00397119,-0.355318,0.00340057,0.0390298,1567,400,-0.276856,0.280887
350,624,-0.257324,-0.160065,0.001352,-0.00239815,-0.00303189,0.00304179,-0.00408793,-0.50846,0.00413109,0.0417258,1574,400,-0.25732,0.160067
357,624,-0.168091,-0.0774536,0.00147038,-0.00152862,-0.00404819,0.00428786,-0.00434611,-0.608027,0.00498486,0.0400292,1581,400,-0.16813,0.0774501
364,624,-0.21106,0.348267,0.00129443,-0.000566042,-0.00522863,0.00567493,-0.00494654,-0.697363,0.00613711,0.0411395,1588,400,-0.211061,-0.348272
371,624,-0.00402832,0.745697,0,0,0,0,0,0,0,-1,1595,400,-0.00406075,-0.745708
378,624,-0.24292,0.0655518,0.00250629,0.000712473,-0.00641892,0.00809066,-0.0048719,-0.715983,0.00756045,0.0428194,1602,400,-0.24287,-0.0655542
385,624,-0.472046,-0.0022583,0.00553097,-0.000283403,-0.0063066,0.0095682,-0.00432064,-0.569427,0.00820729,0.042918,1609,400,-0.472096,0.00227256
392,624,-0.432861,0.0289612,0.00830428,-0.00380386,-0.00561185,0.0105052,-0.00600477,-0.373755,0.00964935,0.0468537,1616,400,-0.432858,-0.0289761
399,624,-0.341797,0.0762329,0,0,0,0,0,0,0,-1,1623,400,-0.341789,-0.0762367
406,624,-0.405273,0.0602722,0,0,0,0,0,0,0,-1,1630,400,-0.405242,-0.0602603
413,624,0,0,0,0,0,0,0,0,0,-1,1637,400,0,0
420,624,0,0,0,0,0,0,0,0,0,-1,1644,400,0,0
427,624,0,0,0,0,0,0,0,0,0,-1,1651,400,0,0
434,624,0,0,0,0,0,0,0,0,0,-1,1658,400,0,0
441,624,0,0,0,0,0,0,0,0,0,-1,1665,400,0,0
448,624,0,0,0,0,0,0,0,0,0,-1,1672,400,0,0
455,624,0,0,0,0,0,0,0,0,0,-1,1679,400,0,0
462,624,0,0,0,0,0,0,0,0,0,-1,1686,400,0,0
469,624,0,0,0,0,0,0,0,0,0,-1,1693,400,0,0
476,624,0,0,0,0,0,0,0,0,0,-1,1700,400,0,0
483,624,0,0,0,0,0,0,0,0,0,-1,1707,400,0,0
490,624,0,0,0,0,0,0,0,0,0,-1,1714,400,0,0
497,624,0,0,0,0,0,0,0,0,0,-1,1721,400,0,0
504,624,0,0,0,0,0,0,0,0,0,-1,1728,400,0,0
511,624,0,0,0,0,0,0,0,0,0,-1,1735,400,0,0
518,624,0,0,0,0,0,0,0,0,0,-1,1742,400,0,0
525,624,0,0,0,0,0,0,0,0,0,-1,1749,400,0,0
532,624,0,0,0,0,0,0,0,0,0,-1,1756,400,0,0
539,624,0,0,0,0,0,0,0,0,0,-1,1763,400,0,0
546,624,0,0,0,0,0,0,0,0,0,-1,1770,400,0,0
553,624,0,0,0,0,0,0,0,0,0,-1,1777,400,0,0
560,624,0,0,0,0,0,0,0,0,0,-1,1784,400,0,0
567,624,0,0,0,0,0,0,0,0,0,-1,1791,400,0,0
574,624,0,0,0,0,0,0,0,0,0,-1,1798,400,0,0
581,624,0,0,0,0,0,0,0,0,0,-1,1805,400,0,0
588,624,0,0,0,0,0,0,0,0,0,-1,1812,400,0,0
595,624,0,0,0,0,0,0,0,0,0,-1,1819,400,0,0
602,624,0,0,0,0,0,0,0,0,0,-1,1826,400,0,0
609,624,0,0,0,0,0,0,0,0,0,-1,1833,400,0,0
616,624,0,0,0,0,0,0,0,0,0,-1,1840,400,0,0
623,624,0,0,0,0,0,0,0,0,0,-1,1847,400,0,0
630,624,0,0,0,0,0,0,0,0,0,-1,1854,400,0,0
637,624,0,0,0,0,0,0,0,0,0,-1,1861,400,0,0
644,624,0,0,0,0,0,0,0,0,0,-1,1868,400,0,0
651,624,0,0,0,0,0,0,0,0,0,-1,1875,400,0,0
658,624,0,0,0,0,0,0,0,0,0,-1,1882,400,0,0
665,624,0,0,0,0,0,0,0,0,0,-1,1889,400,0,0
672,624,0,0,0,0,0,0,0,0,0,-1,1896,400,0,0
679,624,0,0,0,0,0,0,0,0,0,-1,1903,400,0,0
686,624,0,0,0,0,0,0,0,0,0,-1,1910,400,0,0
693,624,0,0,0,0,0,0,0,0,0,-1,1917,400,0,0
700,624,0,0,0,0,0,0,0,0,0,-1,1924,400,0,0
707,624,0,0,0,0,0,0,0,0,0,-1,1931,400,0,0
714,624,0,0,0,0,0,0,0,0,0,-1,1938,400,0,0
721,624,0,0,0,0,0,0,0,0,0,-1,1945,400,0,0
728,624,0,0,0,0,0,0,0,0,0,-1,1952,400,0,0
735,624,0,0,0,0,0,0,0,0,0,-1,1959,400,0,0
742,624,0,0,0,0,0,0,0,0,0,-1,1966,400,0,0
749,624,0,0,0,0,0,0,0,0,0,-1,1973,400,0,0
756,624,0,0,0,0,0,0,0,0,0,-1,1980,400,0,0
763,624,0,0,0,0,0,0,0,0,0,-1,1987,400,0,0
770,624,0,0,0,0,0,0,0,0,0,-1,1994,400,0,0
777,624,0,0,0,0,0,0,0,0,0,-1,2001,400,0,0
784,624,0,0,0,0,0,0,0,0,0,-1,2008,400,0,0
791,624,0,0,0,0,0,0,0,0,0,-1,2015,400,0,0
798,624,0,0,0,0,0,0,0,0,0,-1,2022,400,0,0
805,624,0,0,0,0,0,0,0,0,0,-1,2029,400,0,0
812,624,0,0,0,0,0,0,0,0,0,-1,2036,400,0,0
-700,617,0,0,0,0,0,0,0,0,0,-1,524,407,0,0
-693,617,0,0,0,0,0,0,0,0,0,-1,531,407,0,0
-686,617,0,0,0,0,0,0,0,0,0,-1,538,407,0,0
-679,617,0,0,0,0,0,0,0,0,0,-1,545,407,0,0
-672,617,0,0,0,0,0,0,0,0,0,-1,552,407,0,0
-665,617,0,0,0,0,0,0,0,0,0,-1,559,407,0,0
-658,617,0,0,0,0,0,0,0,0,0,-1,566,407,0,0
-651,617,0,0,0,0,0,0,0,0,0,-1,573,407,0,0
-644,617,0,0,0,0,0,0,0,0,0,-1,580,407,0,0
-637,617,0,0,0,0,0,0,0,0,0,-1,587,407,0,0
-630,617,0,0,0,0,0,0,0,0,0,-1,594,407,0,0
-623,617,0,0,0,0,0,0,0,0,0,-1,601,407,0,0
-616,617,0,0,0,0,0,0,0,0,0,-1,608,407,0,0
-609,617,0,0,0,0,0,0,0,0,0,-1,615,407,0,0
-602,617,0,0,0,0,0,0,0,0,0,-1,622,407,0,0
-595,617,0,0,0,0,0,0,0,0,0,-1,629,407,0,0
-588,617,0,0,0,0,0,0,0,0,0,-1,636,407,0,0
-581,617,0,0,0,0,0,0,0,0,0,-1,643,407,0,0
-574,617,0,0,0,0,0,0,0,0,0,-1,650,407,0,0
-567,617,0,0,0,0,0,0,0,0,0,-1,657,407,0,0
-560,617,0,0,0,0,0,0,0,0,0,-1,664,407,0,0
-553,617,0,0,0,0,0,0,0,0,0,-1,671,407,0,0
-546,617,0,0,0,0,0,0,0,0,0,-1,678,407,0,0
-539,617,0,0,0,0,0,0,0,0,0,-1,685,407,0,0
-532,617,0,0,0,0,0,0,0,0,0,-1,692,407,0,0
-525,617,0,0,0,0,0,0,0,0,0,-1,699,407,0,0
-518,617,0,0,0,0,0,0,0,0,0,-1,706,407,0,0
-511,617,0,0,0,0,0,0,0,0,0,-1,713,407,0,0
-504,617,0,0,0,0,0,0,0,0,0,-1,720,407,0,0
-497,617,0,0,0,0,0,0,0,0,0,-1,727,407,0,0
-490,617,0,0,0,0,0,0,0,0,0,-1,734,407,0,0
-483,617,0,0,0,0,0,0,0,0,0,-1,741,407,0,0
-476,617,0,0,0,0,0,0,0,0,0,-1,748,407,0,0
-469,617,0,0,0,0,0,0,0,0,0,-1,755,407,0,0
-462,617,0,0,0,0,0,0,0,0,0,-1,762,407,0,0
-455,617,0,0,0,0,0,0,0,0,0,-1,769,407,0,0
-448,617,0,0,0,0,0,0,0,0,0,-1,776,407,0,0
-441,617,0,0,0,0,0,0,0,0,0,-1,783,407,0,0
-434,617,0,0,0,0,0,0,0,0,0,-1,790,407,0,0
-427,617,0,0,0,0,0,0,0,0,0,-1,797,407,0,0
-420,617,0,0,0,0,0,0,0,0,0,-1,804,407,0,0
-413,617,0,0,0,0,0,0,0,0,0,-1,811,407,0,0
-406,617,0,0,0,0,0,0,0,0,0,-1,818,407,0,0
-399,617,0,0,0,0,0,0,0,0,0,-1,825,407,0,0
-392,617,0,0,0,0,0,0,0,0,0,-1,832,407,0,0
-385,617,0,0,0,0,0,0,0,0,0,-1,839,407,0,0
-378,617,0,0,0,0,0,0,0,0,0,-1,846,407,0,0
-371,617,0,0,0,0,0,0,0,0,0,-1,853,407,0,0
-364,617,0,0,0,0,0,0,0,0,0,-1,860,407,0,0
-357,617,0,0,0,0,0,0,0,0,0,-1,867,407,0,0
-350,617,0,0,0,0,0,0,0,0,0,-1,874,407,0,0
-343,617,0,0,0,0,0,0,0,0,0,-1,881,407,0,0
-336,617,0,0,0,0,0,0,0,0,0,-1,888,407,0,0
-329,617,0,0,0,0,0,0,0,0,0,-1,895,407,0,0
-322,617,0,0,0,0,0,0,0,0,0,-1,902,407,0,0
-315,617,0,0,0,0,0,0,0,0,0,-1,909,407,0,0
-308,617,0,0,0,0,0,0,0,0,0,-1,916,407,0,0
-301,617,1.82635,1.4494,0,0,0,0,0,0,0,-1,923,407,1.82636,-1.44939
-294,617,1.42651,1.12018,0,0,0,0,0,0,0,-1,930,407,1.4265,-1.12018
-287,617,0.781189,-0.014801,0,0,0,0,0,0,0,-1,937,407,0.781209,0.014794
-280,617,0.536011,-0.15686,0,0,0,0,0,0,0,-1,944,407,0.536026,0.156874
-273,617,-0.747437,-0.433563,0,0,0,0,0,0,0,-1,951,407,-0.747439,0.433552
-266,617,-0.718384,-0.342255,-0.00269625,-0.0171377,-0.0152431,0.00694987,-0.0267838,-0.564202,0.0205677,0.0462864,958,407,-0.718407,0.342264
-259,617,-0.649536,-0.221985,0.00175286,-0.0123338,-0.0105426,0.00738844,-0.0179694,-0.490907,0.0150592,0.0455579,965,407,-0.649559,0.221995
-252,617,0.193542,-0.173492,0,0,0,0,0,0,0,-1,972,407,0.193557,0.173484
-245,617,-0.122681,0.0559082,0,0,0,0,0,0,0,-1,979,407,-0.12267,-0.055896
-238,617,-0.103394,0.169373,0,0,0,0,0,0,0,-1,986,407,-0.103405,-0.169367
-231,617,0.17627,-0.0295105,0.00679257,0.00121292,0.000392384,0.00682002,0.00118546,0.0698659,0.00420757,0.0422262,993,407,0.176251,0.029501
-224,617,-0.0463867,0.0577698,0.00626198,0.00258104,0.00136913,0.00671538,0.00212764,0.319793,0.0039629,0.0411794,1000,407,-0.0463766,-0.0577575
-217,617,-0.100708,0.0211487,0.00557707,0.00361266,0.00203934,0.00685841,0.00233132,0.560977,0.00402678,0.0332083,1007,407,-0.100687,-0.0211501
-210,617,-0.0489502,0.0533142,0.00417099,0.00439514,0.00203478,0.00632093,0.0022452,0.81291,0.00370005,0.0218135,1014,407,-0.0489676,-0.0533118
-203,617,-0.0466309,0.0593872,0.00287372,0.00502055,0.00173618,0.00598834,0.00190593,1.06227,0.00353267,0.0174779,1021,407,-0.0466554,-0.0593821
-196,617,-0.0511475,0.0822754,0.00281126,0.00548033,0.00183425,0.00641416,0.00187744,1.09989,0.00380783,0.0140064,1028,407,-0.0511069,-0.0822631
-189,617,-0.0632324,0.0732117,0.0027857,0.00534764,0.00176829,0.00625018,0.00188316,1.09886,0.00370231,0.0115389,1035,407,-0.0631769,-0.073217
-182,617,-0.0672607,0.0699768,0.00272483,0.00465784,0.00150955,0.00548378,0.00189889,1.07015,0.00321556,0.0118781,1042,407,-0.0672259,-0.069971
-175,617,-0.0429688,0.0845032,0.00258473,0.00402668,0.00122185,0.00472441,0.001887,1.05194,0.00274597,0.0102744,1049,407,-0.0429828,-0.0845073
-168,617,-0.0274658,0.0767212,0.00231443,0.00338966,0.00111092,0.00408621,0.00161787,1.01075,0.00237615,0.00863845,1056,407,-0.0275092,-0.0767138
-161,617,-0.0306396,0.0635071,0.00202705,0.00290142,0.000806972,0.00338202,0.00154645,1.03365,0.00195499,0.00984508,1063,407,-0.0306682,-0.0634964
-154,617,-0.046875,0.0691528,0.00179005,0.00247186,0.000467172,0.00270929,0.00155262,1.1006,0.00156977,0.0097696,1070,407,-0.0468776,-0.0691427
-147,617,-0.0488281,0.0897827,0.00160844,0.001975,0.000130977,0.00201699,0.00156645,1.26056,0.00122248,0.013468,1077,407,-0.0487855,-0.0897857
-140,617,-0.0250244,0.08255,0.00137159,0.00194006,3.38974e-05,0.00194208,0.00136958,1.51145,0.00115231,0.0106676,1084,407,-0.0250848,-0.0825368
-133,617,-0.0467529,0.0741272,0.00105816,0.00184388,-0.000110188,0.00185904,0.001043,-1.43407,0.00107598,0.0117435,1091,407,-0.0467816,-0.0741389
-126,617,-0.0655518,0.0947266,0.000891692,0.00177211,-0.000316159,0.00187388,0.000789923,-1.25938,0.00108632,0.0112575,1098,407,-0.065515,-0.0947394
-119,617,-0.0339355,0.101044,0.000850051,0.00180339,-0.000622993,0.00211115,0.000542289,-1.11196,0.001266,0.0117508,1105,407,-0.0339484,-0.101038
-112,617,-0.0361328,0.101105,0.000759812,0.00194406,-0.00083883,0.0023787,0.000325171,-1.09273,0.00148929,0.0137261,1112,407,-0.0360851,-0.101102
-105,617,-0.0532227,0.0735779,0.000552772,0.00200005,-0.000999845,0.00251065,4.21724e-05,-1.09864,0.00165989,0.0147284,1119,407,-0.0532211,-0.0735909
-98,617,-0.0322266,0.0631409,0.000220682,0.0026243,-0.0011582,0.00309155,-0.000246571,-1.18734,0.00214794,0.0122408,1126,407,-0.0322475,-0.0631391
-91,617,-0.0477295,0.0600891,0.000151077,0.00326911,-0.00111584,0.00362728,-0.000207098,-1.26019,0.00249009,0.0167592,1133,407,-0.0477505,-0.0601016
-84,617,-0.0427246,0.0682983,0.000241734,0.00370254,-0.00104732,0.0039948,-5.05273e-05,-1.29866,0.0026802,0.0160246,1140,407,-0.0427839,-0.0683106
-77,617,-0.0256348,0.0610962,0.000258846,0.00410894,-0.00100856,0.00435714,1.06457e-05,-1.3295,0.00290122,0.0124787,1147,407,-0.0256089,-0.0610924
-70,617,-0.0328369,0.0505066,0.00028106,0.00450257,-0.000887097,0.00468141,0.000102224,-1.37187,0.00308743,0.0125549,1154,407,-0.0328019,-0.0504968
-63,617,-0.0358887,0.0492554,0.000268729,0.0050107,-0.000679363,0.00510611,0.000173319,-1.43127,0.0033478,0.0112699,1161,407,-0.0358368,-0.0492542
-56,617,-0.0292969,0.0767822,0.000427018,0.00524109,-0.000363383,0.00526836,0.000399743,-1.49588,0.00338687,0.00870149,1168,407,-0.0293251,-0.0767793
-49,617,-0.0336914,0.0849915,0.000584319,0.00517536,-9.19932e-05,0.0051772,0.000582477,-1.55077,0.00327462,0.00863652,1175,407,-0.0336843,-0.0849892
-42,617,-0.0369873,0.0764465,0.000512803,0.00480559,3.78129e-05,0.00480592,0.00051247,1.56199,0.00304752,0.0109304,1182,407,-0.0370176,-0.0764499
-35,617,-0.0230713,0.0769958,0.000437728,0.00424809,-7.40544e-05,0.00424953,0.000436289,-1.55137,0.00269937,0.0158356,1189,407,-0.0230822,-0.0769899
-28,617,-0.0383301,0.0831604,0.0005651,0.00345691,-0.000428556,0.00351908,0.000502926,-1.42672,0.00219768,0.0172023,1196,407,-0.0383164,-0.083156
-21,617,-0.041748,0.0859375,0.000505692,0.00235454,-0.000953436,0.00275813,0.000102111,-1.17037,0.00180568,0.0120678,1203,407,-0.0417395,-0.0859496
-14,617,-0.0668945,0.100555,0.000277914,0.000922725,-0.00172326,0.00235348,-0.00115285,-0.877874,0.00206356,0.0138843,1210,407,-0.0668423,-0.100561
-7,617,-0.0750732,0.115021,-5.72973e-05,-0.000329139,-0.00262342,0.00243373,-0.00282016,-0.759516,0.00303607,0.0161878,1217,407,-0.0750823,-0.115035
0,617,-0.039917,0.116577,-0.000493679,-0.00121231,-0.00344026,0.00260598,-0.00431197,-0.733365,0.00403436,0.0140161,1224,407,-0.0398648,-0.116568
7,617,-0.0264893,0.107178,-0.000646958,-0.00285336,-0.0043265,0.00271478,-0.0062151,-0.660565,0.00528605,0.0104439,1231,407,-0.026522,-0.107163
14,617,-0.0509033,0.0723572,-0.00165447,-0.00290232,-0.00493179,0.00269271,-0.00724949,-0.722477,0.00593769,0.0113259,1238,407,-0.0509342,-0.0723538
21,617,-0.067749,0.063446,-0.00265574,-0.00151378,-0.00522773,0.00317406,-0.00734359,-0.839793,0.00622939,0.0100681,1245,407,-0.0677176,-0.0634557
28,617,-0.0671387,0.0693054,-0.00300093,0.00031625,-0.00551269,0.00441446,-0.00709914,-0.931524,0.00670734,0.00976357,1252,407,-0.0671857,-0.0693079
35,617,-0.0367432,0.0881653,-0.00354575,0.00231531,-0.00498782,0.00516979,-0.00640023,-1.051,0.00669253,0.0129607,1259,407,-0.0367338,-0.0881658
42,617,-0.0236816,0.101196,-0.00391513,0.00463481,-0.0040766,0.00626696,-0.00554727,-1.18997,0.00682517,0.0185336,1266,407,-0.0237192,-0.101195
49,617,-0.0510254,0.100983,-0.00383151,0.00734954,-0.00329306,0.00824733,-0.0047293,-1.30463,0.00758328,0.0185366,1273,407,-0.0510334,-0.100995
56,617,-0.0515137,0.0974121,-0.00287851,0.0100161,-0.0022183,0.010387,-0.00324946,-1.40511,0.00822465,0.0138387,1280,407,-0.0515018,-0.0974171
63,617,-0.0550537,0.0799255,-0.00122425,0.012394,-0.00114701,0.0124899,-0.00132018,-1.48735,0.00879977,0.00963169,1287,407,-0.0550551,-0.0799176
70,617,-0.0715332,0.0653381,0.000246971,0.0145377,5.19958e-05,0.0145379,0.000246782,1.56716,0.00961072,0.0130214,1294,407,-0.0715242,-0.06533
77,617,-0.0379639,0.0736694,0.00169464,0.0157052,0.00090733,0.0157637,0.00163613,1.50639,0.0100085,0.0123896,1301,407,-0.0379941,-0.0736704
84,617,-0.0467529,0.0834351,0.00347897,0.0160093,0.0014032,0.0161645,0.00332375,1.46063,0.00985704,0.0102816,1308,407,-0.0467328,-0.0834455
91,617,-0.0406494,0.0771179,0.00516203,0.0158345,0.00171528,0.0161035,0.00489313,1.41529,0.00953281,0.0094814,1315,407,-0.0406124,-0.0771146
98,617,-0.0482178,0.0787964,0.00647885,0.0148731,0.00142921,0.0151098,0.00624218,1.40669,0.00876741,0.00991603,1322,407,-0.0482124,-0.0787978
105,617,-0.0537109,0.089325,0.007274,0.0137679,0.000805701,0.0138664,0.00717552,1.44918,0.00800737,0.0108995,1329,407,-0.0536824,-0.0893142
112,617,-0.0517578,0.0858154,0.00717435,0.0131673,0.000162933,0.0131718,0.00716992,1.54364,0.00761468,0.0140885,1336,407,-0.0517786,-0.0858025
119,617,-0.0328369,0.103607,0.00703367,0.0117733,-0.000612417,0.0118511,0.00695581,-1.44435,0.00687663,0.0177546,1343,407,-0.0327862,-0.103601
126,617,-0.041748,0.0906372,0.00625266,0.0102919,-0.00117513,0.0106089,0.00593566,-1.30731,0.00613951,0.0191929,1350,407,-0.0417415,-0.0906494
133,617,-0.0794678,0.0960388,0.00463348,0.00943094,-0.00137888,0.00979901,0.0042654,-1.30994,0.00567324,0.0159641,1357,407,-0.0795267,-0.0960505
140,617,-0.0665283,0.0987549,0.00322389,0.00922376,-0.00184511,0.00974577,0.00270189,-1.29509,0.00580988,0.0143063,1364,407,-0.0665884,-0.0987681
147,617,-0.0638428,0.0791016,0.00183052,0.00892836,-0.00202495,0.00946542,0.00129346,-1.31154,0.00592637,0.0169901,1371,407,-0.0638406,-0.0790867
154,617,-0.0511475,0.0566101,0.000269924,0.00865449,-0.00169283,0.00898337,-5.89564e-05,-1.37891,0.00600866,0.0188949,1378,407,-0.0511059,-0.0566162
161,617,-0.0334473,0.061554,-0.000993659,0.00820863,-0.00134899,0.00840231,-0.00118734,-1.4282,0.00603637,0.0196165,1385,407,-0.0334058,-0.0615404
168,617,-0.026001,0.0742798,-0.00158656,0.0075374,-0.000863538,0.00761841,-0.00166757,-1.47726,0.00571646,0.0187665,1392,407,-0.0259432,-0.0742889
175,617,-0.0401611,0.0516968,-0.00143855,0.00649008,-0.00057484,0.00653154,-0.00148001,-1.4988,0.00492243,0.0159588,1399,407,-0.0401318,-0.0517104
182,617,-0.0351563,0.051239,-0.00120934,0.00564391,-0.000102449,0.00564544,-0.00121087,-1.55585,0.00422548,0.0101263,1406,407,-0.0351728,-0.0512418
189,617,-0.0509033,0.0714417,-0.000966318,0.00478028,0.000327621,0.0047989,-0.000984936,1.51403,0.00357312,0.0100822,1413,407,-0.0509523,-0.0714355
196,617,-0.052002,0.0600281,-0.000573008,0.00365691,0.000440787,0.00370236,-0.000618452,1.46806,0.00269812,0.0139551,1420,407,-0.0519682,-0.0600176
203,617,-0.0289307,0.0723877,-0.000183237,0.00258213,0.000579999,0.00269885,-0.000299957,1.37221,0.0019071,0.0143743,1427,407,-0.028978,-0.0723753
210,617,-0.0246582,0.0937805,0.000214374,0.00155441,0.000554555,0.00175414,1.46485e-05,1.2251,0.00116457,0.0138106,1434,407,-0.0247042,-0.0937818
217,617,-0.0407715,0.116516,0.000584702,0.000630015,0.0003667,0.000974757,0.000239959,0.816252,0.000586451,0.0166168,1441,407,-0.0408163,-0.116517
224,617,-0.0471191,0.0994568,0.000825083,4.29398e-05,0.000119729,0.000843,2.50222e-05,0.148548,0.000553848,0.015443,1448,407,-0.0470858,-0.0994628
231,617,-0.0479736,0.0705872,0.00096818,-0.000257474,-5.66891e-05,0.000970796,-0.00026009,-0.0461209,0.000749099,0.0128645,1455,407,-0.048015,-0.0705945
238,617,-0.0509033,0.0753174,0.00111326,-0.000395211,-0.000162264,0.00113051,-0.000412468,-0.105954,0.000922434,0.0139749,1462,407,-0.0509031,-0.0753119
245,617,-0.0371094,0.0752563,0.00119231,-0.000477107,-0.000237071,0.00122532,-0.00051012,-0.138365,0.00102993,0.0117245,1469,407,-0.0370486,-0.0752669
252,617,-0.029541,0.0892639,0.0011954,-0.000546768,-0.000268023,0.00123571,-0.00058707,-0.149248,0.00107436,0.0126166,1476,407,-0.029524,-0.0892658
259,617,-0.0335693,0.0906677,0.0013196,-0.000523553,-0.000244428,0.00135146,-0.000555417,-0.12963,0.00113246,0.0103157,1483,407,-0.0335834,-0.0906559
266,617,-0.0335693,0.107422,0.00157914,-0.000847039,-0.000215671,0.00159817,-0.000866061,-0.087974,0.0014435,0.0127861,1490,407,-0.0336053,-0.107419
273,617,-0.0324707,0.0968628,0.00166064,-0.00143251,-3.44491e-05,0.00166103,-0.00143289,-0.0111354,0.00178789,0.0136098,1497,407,-0.0325101,-0.0968547
280,617,-0.0438232,0.0785828,0.00189813,-0.0021634,0.000213947,0.00190937,-0.00217464,0.0524828,0.00235956,0.0119907,1504,407,-0.0438719,-0.0785727
287,617,-0.0568848,0.078064,0.00207811,-0.00241641,0.000259197,0.002093,-0.0024313,0.0574159,0.00261454,0.0109104,1511,407,-0.0568373,-0.0780711
294,617,-0.0360107,0.0757446,0.00198356,-0.00283539,0.00018078,0.00199034,-0.00284216,0.0374443,0.00280445,0.0092579,1518,407,-0.036062,-0.0757563
301,617,-0.0274658,0.0805054,0.00185616,-0.00321693,0.000177761,0.00186238,-0.00322315,0.0349828,0.00297097,0.0076535,1525,407,-0.0274367,-0.0805169
308,617,-0.0374756,0.0734558,0.00158296,-0.00368967,0.000376959,0.00160978,-0.00371649,0.0710122,0.00315428,0.00777291,1532,407,-0.0374296,-0.0734649
315,617,-0.0491943,0.0817871,0.00116219,-0.00371661,0.000561754,0.00122604,-0.00378045,0.113169,0.0030133,0.0086756,1539,407,-0.049254,-0.0817899
322,617,-0.0445557,0.0846863,0.000869279,-0.00365283,0.000278839,0.000886408,-0.00366996,0.0613514,0.00278946,0.0115809,1546,407,-0.0445389,-0.084694
329,617,-0.0373535,0.0774231,0.000524362,-0.00352606,-6.61015e-05,0.000525441,-0.00352714,-0.0163139,0.00254472,0.011507,1553,407,-0.0373168,-0.0774275
336,617,-0.0323486,0.100494,0.000346483,-0.00330023,-0.000695943,0.000474783,-0.00342853,-0.182308,0.00245927,0.0194951,1560,407,-0.0323539,-0.100488
343,617,-0.116821,0.0647278,0.00055153,-0.00268877,-0.00146185,0.00111355,-0.00325079,-0.36704,0.00261853,0.0294722,1567,407,-0.116874,-0.0647429
350,617,-0.157104,0.0259705,0.00074966,-0.00207677,-0.00240882,0.00212922,-0.00345633,-0.520114,0.00325502,0.0347459,1574,407,-0.157139,-0.0259632
357,617,-0.16272,-0.0406494,0.000763279,-0.00154384,-0.00313818,0.0029532,-0.00373376,-0.60927,0.00386948,0.0355767,1581,407,-0.16273,0.0406624
364,617,-0.156128,-0.0188904,0.000559617,-0.000835599,-0.00393341,0.0038568,-0.00413278,-0.697634,0.0046137,0.038888,1588,407,-0.156074,0.0188977
371,617,-0.236694,0.17572,0.000208467,-0.000426513,-0.00430837,0.00421103,-0.00442908,-0.748619,0.0049889,0.0415561,1595,407,-0.236696,-0.175715
378,617,-0.430908,-0.0662537,0.001481,-0.000122368,-0.00428128,0.00503501,-0.00367638,-0.692843,0.00504987,0.0431194,1602,407,-0.430924,0.0662537
385,617,-0.308472,0.0231018,0.00394873,-0.00106846,-0.00371804,0.00592532,-0.00304505,-0.488623,0.00526728,0.0415628,1609,407,-0.308419,-0.023089
392,617,-0.120972,-0.0227051,0.0060894,-0.00346917,-0.00277888,0.00683856,-0.00421833,-0.263331,0.00644318,0.0434246,1616,407,-0.121032,0.0227174
399,617,0.225098,0.357361,0,0,0,0,0,0,0,-1,1623,407,0.225158,-0.357361
406,617,0.0770264,0.0209351,0,0,0,0,0,0,0,-1,1630,407,0.0770662,-0.0209276
413,617,-0.665161,0.630432,0.0168844,-0.0126699,0.00140939,0.0169514,-0.012737,0.0475442,0.0171981,0.0406962,1637,407,-0.665163,-0.630433
420,617,-0.786743,0.705688,0.0209456,-0.0186508,0.00317959,0.0211993,-0.0189045,0.0796201,0.0231666,0.0430413,1644,407,-0.786706,-0.705684
427,617,0,0,0,0,0,0,0,0,0,-1,1651,407,0,0
434,617,0,0,0,0,0,0,0,0,0,-1,1658,407,0,0
441,617,0,0,0,0,0,0,0,0,0,-1,1665,407,0,0
448,617,0,0,0,0,0,0,0,0,0,-1,1672,407,0,0
455,617,0,0,0,0,0,0,0,0,0,-1,1679,407,0,0
462,617,0,0,0,0,0,0,0,0,0,-1,1686,407,0,0
469,617,0,0,0,0,0,0,0,0,0,-1,1693,407,0,0
476,617,0,0,0,0,0,0,0,0,0,-1,1700,407,0,0
483,617,0,0,0,0,0,0,0,0,0,-1,1707,407,0,0
490,617,0,0,0,0,0,0,0,0,0,-1,1714,407,0,0
497,617,0,0,0,0,0,0,0,0,0,-1,1721,407,0,0
504,617,0,0,0,0,0,0,0,0,0,-1,1728,407,0,0
511,617,0,0,0,0,0,0,0,0,0,-1,1735,407,0,0
518,617,0,0,0,0,0,0,0,0,0,-1,1742,407,0,0
525,617,0,0,0,0,0,0,0,0,0,-1,1749,407,0,0
532,617,0,0,0,0,0,0,0,0,0,-1,1756,407,0,0
539,617,0,0,0,0,0,0,0,0,0,-1,1763,407,0,0
546,617,0,0,0,0,0,0,0,0,0,-1,1770,407,0,0
553,617,0,0,0,0,0,0,0,0,0,-1,1777,407,0,0
560,617,0,0,0,0,0,0,0,0,0,-1,1784,407,0,0
567,617,0,0,0,0,0,0,0,0,0,-1,1791,407,0,0
574,617,0,0,0,0,0,0,0,0,0,-1,1798,407,0,0
581,617,0,0,0,0,0,0,0,0,0,-1,1805,407,0,0
588,617,0,0,0,0,0,0,0,0,0,-1,1812,407,0,0
595,617,0,0,0,0,0,0,0,0,0,-1,1819,407,0,0
602,617,0,0,0,0,0,0,0,0,0,-1,1826,407,0,0
609,617,0,0,0,0,0,0,0,0,0,-1,1833,407,0,0
616,617,0,0,0,0,0,0,0,0,0,-1,1840,407,0,0
623,617,0,0,0,0,0,0,0,0,0,-1,1847,407,0,0
630,617,0,0,0,0,0,0,0,0,0,-1,1854,407,0,0
637,617,0,0,0,0,0,0,0,0,0,-1,1861,407,0,0
644,617,0,0,0,0,0,0,0,0,0,-1,1868,407,0,0
651,617,0,0,0,0,0,0,0,0,0,-1,1875,407,0,0
658,617,0,0,0,0,0,0,0,0,0,-1,1882,407,0,0
665,617,0,0,0,0,0,0,0,0,0,-1,1889,407,0,0
672,617,0,0,0,0,0,0,0,0,0,-1,1896,407,0,0
679,617,0,0,0,0,0,0,0,0,0,-1,1903,407,0,0
686,617,0,0,0,0,0,0,0,0,0,-1,1910,407,0,0
693,617,0,0,0,0,0,0,0,0,0,-1,1917,407,0,0
700,617,0,0,0,0,0,0,0,0,0,-1,1924,407,0,0
707,617,0,0,0,0,0,0,0,0,0,-1,1931,407,0,0
714,617,0,0,0,0,0,0,0,0,0,-1,1938,407,0,0
721,617,0,0,0,0,0,0,0,0,0,-1,1945,407,0,0
728,617,0,0,0,0,0,0,0,0,0,-1,1952,407,0,0
735,617,0,0,0,0,0,0,0,0,0,-1,1959,407,0,0
742,617,0,0,0,0,0,0,0,0,0,-1,1966,407,0,0
749,617,0,0,0,0,0,0,0,0,0,-1,1973,407,0,0
756,617,0,0,0,0,0,0,0,0,0,-1,1980,407,0,0
763,617,0,0,0,0,0,0,0,0,0,-1,1987,407,0,0
770,617,0,0,0,0,0,0,0,0,0,-1,1994,407,0,0
777,617,0,0,0,0,0,0,0,0,0,-1,2001,407,0,0
784,617,0,0,0,0,0,0,0,0,0,-1,2008,407,0,0
791,617,0,0,0,0,0,0,0,0,0,-1,2015,407,0,0
798,617,0,0,0,0,0,0,0,0,0,-1,2022,407,0,0
805,617,0,0,0,0,0,0,0,0,0,-1,2029,407,0,0
812,617,0,0,0,0,0,0,0,0,0,-1,2036,407,0,0
-700,610,0,0,0,0,0,0,0,0,0,-1,524,414,0,0
-693,610,0,0,0,0,0,0,0,0,0,-1,531,414,0,0
-686,610,0,0,0,0,0,0,0,0,0,-1,538,414,0,0
-679,610,0,0,0,0,0,0,0,0,0,-1,545,414,0,0
-672,610,0,0,0,0,0,0,0,0,0,-1,552,414,0,0
-665,610,0,0,0,0,0,0,0,0,0,-1,559,414,0,0
-658,610,0,0,0,0,0,0,0,0,0,-1,566,414,0,0
-651,610,0,0,0,0,0,0,0,0,0,-1,573,414,0,0
-644,610,0,0,0,0,0,0,0,0,0,-1,580,414,0,0
-637,610,0,0,0,0,0,0,0,0,0,-1,587,414,0,0
-630,610,0,0,0,0,0,0,0,0,0,-1,594,414,0,0
-623,610,0,0,0,0,0,0,0,0,0,-1,601,414,0,0
-616,610,0,0,0,0,0,0,0,0,0,-1,608,414,0,0
-609,610,0,0,0,0,0,0,0,0,0,-1,615,414,0,0
-602,610,0,0,0,0,0,0,0,0,0,-1,622,414,0,0
-595,610,0,0,0,0,0,0,0,0,0,-1,629,414,0,0
-588,610,0,0,0,0,0,0,0,0,0,-1,636,414,0,0
-581,610,0,0,0,0,0,0,0,0,0,-1,643,414,0,0
-574,610,0,0,0,0,0,0,0,0,0,-1,650,414,0,0
-567,610,0,0,0,0,0,0,0,0,0,-1,657,414,0,0
-560,610,0,0,0,0,0,0,0,0,0,-1,664,414,0,0
-553,610,0,0,0,0,0,0,0,0,0,-1,671,414,0,0
-546,610,0,0,0,0,0,0,0,0,0,-1,678,414,0,0
-539,610,0,0,0,0,0,0,0,0,0,-1,685,414,0,0
-532,610,0,0,0,0,0,0,0,0,0,-1,692,414,0,0
-525,610,0,0,0,0,0,0,0,0,0,-1,699,414,0,0
-518,610,0,0,0,0,0,0,0,0,0,-1,706,414,0,0
-511,610,0,0,0,0,0,0,0,0,0,-1,713,414,0,0
-504,610,0,0,0,0,0,0,0,0,0,-1,720,414,0,0
-497,610,0,0,0,0,0,0,0,0,0,-1,727,414,0,0
-490,610,0,0,0,0,0,0,0,0,0,-1,734,414,0,0
-483,610,0,0,0,0,0,0,0,0,0,-1,741,414,0,0
-476,610,0,0,0,0,0,0,0,0,0,-1,748,414,0,0
-469,610,0,0,0,0,0,0,0,0,0,-1,755,414,0,0
-462,610,0,0,0,0,0,0,0,0,0,-1,762,414,0,0
-455,610,0,0,0,0,0,0,0,0,0,-1,769,414,0,0
-448,610,0,0,0,0,0,0,0,0,0,-1,776,414,0,0
-441,610,0,0,0,0,0,0,0,0,0,-1,783,414,0,0
-434,610,0,0,0,0,0,0,0,0,0,-1,790,414,0,0
-427,610,0,0,0,0,0,0,0,0,0,-1,797,414,0,0
-420,610,0,0,0,0,0,0,0,0,0,-1,804,414,0,0
-413,610,0,0,0,0,0,0,0,0,0,-1,811,414,0,0
-406,610,0,0,0,0,0,0,0,0,0,-1,818,414,0,0
-399,610,0,0,0,0,0,0,0,0,0,-1,825,414,0,0
-392,610,0,0,0,0,0,0,0,0,0,-1,832,414,0,0
-385,610,0,0,0,0,0,0,0,0,0,-1,839,414,0,0
-378,610,0,0,0,0,0,0,0,0,0,-1,846,414,0,0
-371,610,0,0,0,0,0,0,0,0,0,-1,853,414,0,0
-364,610,0,0,0,0,0,0,0,0,0,-1,860,414,0,0
-357,610,0,0,0,0,0,0,0,0,0,-1,867,414,0,0
-350,610,0,0,0,0,0,0,0,0,0,-1,874,414,0,0
-343,610,0,0,0,0,0,0,0,0,0,-1,881,414,0,0
-336,610,0,0,0,0,0,0,0,0,0,-1,888,414,0,0
-329,610,0,0,0,0,0,0,0,0,0,-1,895,414,0,0
-322,610,0,0,0,0,0,0,0,0,0,-1,902,414,0,0
-315,610,0.587463,2.35367,0,0,0,0,0,0,0,-1,909,414,0.587438,-2.35368
-308,610,3.14227,2.77158,0,0,0,0,0,0,0,-1,916,414,3.14228,-2.77157
-301,610,2.42328,1.9845,0,0,0,0,0,0,0,-1,923,414,2.42325,-1.98449
-294,610,1.84418,1.9321,0,0,0,0,0,0,0,-1,930,414,1.84416,-1.93209
-287,610,1.17719,0.0609436,0,0,0,0,0,0,0,-1,937,414,1.17721,-0.0609468
-280,610,0.944153,-0.0773926,0,0,0,0,0,0,0,-1,944,414,0.944152,0.0773846
-273,610,0.664124,-0.214752,0,0,0,0,0,0,0,-1,951,414,0.664118,0.214741
-266,610,-0.780579,-0.348541,0,0,0,0,0,0,0,-1,958,414,-0.780587,0.348549
-259,610,-0.69873,-0.244415,0.00206406,-0.010593,-0.0100095,0.0075778,-0.0161068,-0.503498,0.0139667,0.0439764,965,414,-0.698736,0.244407
-252,610,-0.311157,-0.245239,0.00417533,-0.00688211,-0.00646881,0.00715615,-0.00986292,-0.431798,0.0098673,0.0442671,972,414,-0.311154,0.245235
-245,610,-0.078125,0.0320435,0.0059501,-0.00328218,-0.00354228,0.00715259,-0.00448467,-0.327262,0.00677738,0.0442087,979,414,-0.0780969,-0.032057
-238,610,-0.055542,0.132965,0.00694094,-0.000516265,-0.000993982,0.00707115,-0.000646481,-0.130262,0.00494371,0.0372761,986,414,-0.0555339,-0.132963
-231,610,-0.0284424,0.12674,0.00611038,0.000601565,0.000207535,0.00611818,0.000593758,0.0376022,0.00389598,0.0290941,993,414,-0.0284698,-0.126753
-224,610,-0.0426025,0.0917969,0.00544186,0.00156427,0.00100074,0.00568491,0.00132122,0.238248,0.00343529,0.02179,1000,414,-0.0426067,-0.0918085
-217,610,-0.0344238,0.0925598,0.0047178,0.0022947,0.00152342,0.0054527,0.0015598,0.449468,0.00324275,0.0139374,1007,414,-0.0343959,-0.0925582
-210,610,-0.043396,0.087677,0.00349916,0.00288596,0.0015491,0.00477171,0.00161341,0.6877,0.00280266,0.00918091,1014,414,-0.0433756,-0.0876767
-203,610,-0.0512695,0.0851746,0.00229769,0.00340806,0.00128958,0.00425689,0.00144886,0.988664,0.00249912,0.0115521,1021,414,-0.0512822,-0.0851671
-196,610,-0.0316162,0.074585,0.00217408,0.00384619,0.00137604,0.00462026,0.00140001,1.05839,0.00273564,0.0120719,1028,414,-0.0316389,-0.0745867
-189,610,-0.0307617,0.0748596,0.00213319,0.00386771,0.00132567,0.0045846,0.0014163,1.07506,0.00271058,0.0100965,1035,414,-0.030787,-0.0748671
-182,610,-0.0393066,0.0788574,0.00207551,0.00349772,0.00114554,0.00413493,0.00143831,1.06317,0.00242387,0.01073,1042,414,-0.03925,-0.078862
-175,610,-0.0357666,0.0935364,0.00199138,0.00317773,0.000930427,0.00368798,0.00148113,1.06918,0.00214295,0.0104315,1049,414,-0.0358042,-0.0935428
-168,610,-0.0356445,0.0997009,0.00183446,0.00286512,0.000888804,0.00337718,0.00132239,1.04812,0.00196504,0.00944063,1056,414,-0.0356425,-0.0997021
-161,610,-0.029541,0.0671997,0.00165548,0.00270612,0.000653037,0.00301891,0.0013427,1.12411,0.00174651,0.00931303,1063,414,-0.0294836,-0.0671964
-154,610,-0.0374756,0.0716553,0.00148853,0.00260042,0.000385061,0.00272075,0.0013682,1.26792,0.00157083,0.0123702,1070,414,-0.0374933,-0.0716576
-147,610,-0.0268555,0.0805054,0.00137888,0.00241176,0.000140017,0.0024304,0.00136023,1.43842,0.00140652,0.0143772,1077,414,-0.0268776,-0.0804919
-140,610,-0.026001,0.089325,0.00121765,0.00255811,8.11436e-05,0.002563,0.00121276,1.51056,0.00148046,0.0113927,1084,414,-0.0259556,-0.0893228
-133,610,-0.0465088,0.0843506,0.00101393,0.00261585,3.02689e-06,0.00261586,0.00101392,1.56891,0.00152293,0.0117203,1091,414,-0.0465351,-0.0843633
-126,610,-0.0516357,0.0872192,0.000918938,0.00265553,-0.000192179,0.00267654,0.000897924,-1.46189,0.00157294,0.00992503,1098,414,-0.051586,-0.0872215
-119,610,-0.0203857,0.0967102,0.000900421,0.00275872,-0.000509992,0.00288948,0.000769661,-1.31981,0.00172788,0.00898245,1105,414,-0.020402,-0.096714
-112,610,-0.0112305,0.0992126,0.000829954,0.00294685,-0.000768348,0.00319633,0.000580476,-1.25684,0.00196617,0.0161395,1112,414,-0.0112686,-0.099222
-105,610,-0.0163574,0.0753784,0.000626693,0.00296044,-0.00108438,0.00338651,0.000200622,-1.19641,0.00219386,0.0158761,1119,414,-0.016412,-0.0753742
-98,610,-0.0177002,0.0594482,0.000339808,0.00364574,-0.00138578,0.00414978,-0.000164236,-1.22195,0.00282286,0.010838,1126,414,-0.017653,-0.0594614
-91,610,-0.020752,0.0765076,0.000311059,0.00436408,-0.00139512,0.00479788,-0.000122737,-1.26934,0.00324027,0.0117771,1133,414,-0.0207644,-0.0765009
-84,610,-0.0268555,0.0778809,0.000429875,0.00476853,-0.00139151,0.00517646,2.19413e-05,-1.28563,0.00344368,0.0125605,1140,414,-0.0268125,-0.0778801
-77,610,-0.0366211,0.071991,0.000457553,0.00519513,-0.00144207,0.00559956,5.31266e-05,-1.29737,0.00371545,0.00992418,1147,414,-0.036619,-0.0719893
-70,610,-0.0268555,0.0482483,0.000455916,0.0056476,-0.00140129,0.00600167,0.00010184,-1.3233,0.00396761,0.0119459,1154,414,-0.0268177,-0.0482421
-63,610,-0.0189209,0.0487366,0.00043443,0.0062962,-0.00125199,0.00655241,0.000178219,-1.36894,0.0043101,0.0110549,1161,414,-0.0189392,-0.0487343
-56,610,-0.0274658,0.0788574,0.00065146,0.00657938,-0.000913928,0.00671708,0.000513756,-1.42125,0.00431701,0.0089851,1168,414,-0.0274476,-0.0788453
-49,610,-0.0153809,0.0887756,0.000866831,0.00697094,-0.000379266,0.00699441,0.000843356,-1.50898,0.00440879,0.00957286,1175,414,-0.0153595,-0.0887756
-42,610,-0.00842285,0.0933228,0.000810674,0.0067243,-9.78514e-05,0.00672592,0.000809056,-1.55426,0.00424007,0.0130531,1182,414,-0.00846985,-0.0933123
-35,610,-0.0338135,0.0726624,0.000758612,0.00622275,-6.14712e-05,0.00622344,0.000757921,-1.55955,0.00392081,0.0131273,1189,414,-0.0337689,-0.0726488
-28,610,-0.0415039,0.0626831,0.000889237,0.00548684,-0.000327352,0.00551003,0.000866047,-1.50007,0.00342141,0.0111758,1196,414,-0.0415105,-0.0626853
-21,610,-0.0460205,0.0802917,0.000735376,0.00425918,-0.000770299,0.0044202,0.000574348,-1.36472,0.00277524,0.0100572,1203,414,-0.0460363,-0.0802999
-14,610,-0.0582275,0.0977478,0.000349522,0.00252979,-0.00153043,0.00331865,-0.000439339,-1.09487,0.00237248,0.0122887,1210,414,-0.0581842,-0.0977343
-7,610,-0.0527344,0.102936,-0.000162055,0.000943398,-0.00252029,0.00297086,-0.00218951,-0.893345,0.0029907,0.0136762,1217,414,-0.0527324,-0.102942
0,610,-0.0379639,0.0877991,-0.000816799,-0.000281455,-0.00348139,0.00294253,-0.00404079,-0.823766,0.00404841,0.00924892,1224,414,-0.0380076,-0.0878007
7,610,-0.0333252,0.0956116,-0.00110634,-0.00278023,-0.00468884,0.00281967,-0.00670624,-0.69708,0.00565031,0.00932045,1231,414,-0.0332729,-0.0956155
14,610,-0.0570068,0.085907,-0.00251247,-0.00299404,-0.00553348,0.00278546,-0.00829197,-0.763655,0.00665374,0.010707,1238,414,-0.0570037,-0.085898
21,610,-0.0645752,0.0827332,-0.00381399,-0.00135745,-0.00608568,0.00362267,-0.00879411,-0.884975,0.00737317,0.0101451,1245,414,-0.0645256,-0.0827285
28,610,-0.0439453,0.0773926,-0.00417958,0.000778493,-0.00669719,0.00544074,-0.00884183,-0.962659,0.00832361,0.0111408,1252,414,-0.0439978,-0.0773957
35,610,-0.00671387,0.0832825,-0.00478205,0.00326469,-0.00622949,0.00665712,-0.00817448,-1.07213,0.00857795,0.0153882,1259,414,-0.00666971,-0.0832971
42,610,-0.0272217,0.107971,-0.00511084,0.00618964,-0.00526276,0.00826093,-0.00718212,-1.19584,0.00892329,0.0142074,1266,414,-0.0272482,-0.107974
49,610,-0.0559082,0.109833,-0.00475503,0.00978011,-0.00442439,0.0110209,-0.00599585,-1.29737,0.00996641,0.0139456,1273,414,-0.0559309,-0.109827
56,610,-0.0330811,0.098175,-0.003367,0.0130585,-0.00343086,0.0137463,-0.00405482,-1.37294,0.0107733,0.013135,1280,414,-0.033065,-0.0981716
63,610,-0.026123,0.0932617,-0.00115142,0.0165828,-0.00200304,0.0168062,-0.00137485,-1.45971,0.0116894,0.015595,1287,414,-0.0261252,-0.0932588
70,610,-0.0158691,0.0621948,0.000810215,0.0198141,-0.000357674,0.0198209,0.000803486,-1.55198,0.0129544,0.0207086,1294,414,-0.0159155,-0.0622074
77,610,-0.0169678,0.0484009,0.00274945,0.0216732,0.000852216,0.0217115,0.00271115,1.52588,0.0136606,0.0278637,1301,414,-0.0169224,-0.0483883
84,610,-0.0604248,0.0886536,0.00510821,0.0224881,0.00159305,0.0226329,0.00496339,1.48014,0.0137364,0.0303767,1308,414,-0.0604462,-0.088654
91,610,-0.0723877,0.104218,0.00733244,0.0226282,0.00211932,0.0229164,0.00704423,1.43563,0.0135541,0.0237623,1315,414,-0.0724158,-0.104225
98,610,-0.0582275,0.0812683,0.00899459,0.0215788,0.00187554,0.0218523,0.00872101,1.42595,0.0127018,0.0215338,1322,414,-0.0581751,-0.081273
105,610,-0.0505371,0.098175,0.00992162,0.0202872,0.00117349,0.0204184,0.00979043,1.45946,0.0117919,0.0162919,1329,414,-0.0505385,-0.0981756
112,610,-0.0461426,0.0906677,0.00969918,0.0196387,0.000456129,0.0196596,0.00967829,1.52503,0.0113509,0.0117456,1336,414,-0.0460925,-0.0906622
119,610,-0.0462646,0.104218,0.00939594,0.0177654,-0.000473559,0.0177921,0.00936923,-1.51445,0.0102771,0.0176894,1343,414,-0.0462655,-0.104222
126,610,-0.0438232,0.108093,0.00823196,0.0157241,-0.00108571,0.0158782,0.00807779,-1.42975,0.00916776,0.0237767,1350,414,-0.0438381,-0.108107
133,610,-0.0546875,0.0964355,0.0059648,0.0144139,-0.00124126,0.0145925,0.00578622,-1.42791,0.0084849,0.0177073,1357,414,-0.0546517,-0.0964487
140,610,-0.0582275,0.081543,0.00406468,0.0138025,-0.0017935,0.0141223,0.00374486,-1.39433,0.00844795,0.0141568,1364,414,-0.0582252,-0.0815567
147,610,-0.0760498,0.0830383,0.00219648,0.0130976,-0.00199504,0.0134513,0.00184283,-1.39536,0.00842073,0.0146571,1371,414,-0.0760449,-0.0830508
154,610,-0.0921631,0.0810547,3.4654e-06,0.0123499,-0.00155713,0.0125433,-0.000189891,-1.44725,0.00842619,0.0191273,1378,414,-0.0921268,-0.0810611
161,610,-0.0250244,0.0737,-0.00173019,0.0114207,-0.00106764,0.0115068,-0.0018163,-1.49031,0.00834278,0.0231569,1385,414,-0.0250015,-0.0736916
168,610,-0.000610352,0.0766602,-0.002553,0.0103607,-0.000477731,0.0103783,-0.00257065,-1.53387,0.00791615,0.0230382,1392,414,-0.000663809,-0.076666
175,610,-0.0233154,0.0703125,-0.0023565,0.00882318,-0.000144156,0.00882504,-0.00235836,-1.5579,0.00680705,0.0185645,1399,414,-0.0233184,-0.0703169
182,610,-0.0291748,0.0625916,-0.0020225,0.00768691,0.000471721,0.00770978,-0.00204537,1.52236,0.0059402,0.0130921,1406,414,-0.0291862,-0.0625982
189,610,-0.0372314,0.0764465,-0.00165835,0.00663337,0.00102224,0.00675754,-0.00178252,1.44992,0.00520202,0.0121123,1413,414,-0.0371925,-0.0764489
196,610,-0.0513916,0.0773926,-0.00112513,0.00530657,0.0011311,0.00549969,-0.00131825,1.40169,0.00417582,0.0126817,1420,414,-0.0513724,-0.0774
203,610,-0.0361328,0.10202,-0.000616402,0.00403105,0.00126134,0.00435131,-0.000936667,1.32214,0.00325829,0.0139583,1427,414,-0.0361211,-0.102021
210,610,-0.0404053,0.0996704,-9.62998e-05,0.00279781,0.001185,0.0032211,-0.000519592,1.22771,0.00233991,0.00980448,1434,414,-0.0403547,-0.0996769
217,610,-0.0623779,0.0838318,0.000317205,0.00171779,0.000878323,0.00214082,-0.000105829,1.12195,0.00146377,0.0135267,1441,414,-0.0624116,-0.08382
224,610,-0.0706787,0.0830078,0.000570303,0.000987723,0.000421351,0.00124922,0.000308804,1.01535,0.00075134,0.0167514,1448,414,-0.0707373,-0.0830183
231,610,-0.0598145,0.0757751,0.000667032,0.000628605,6.52563e-05,0.000715845,0.000579793,0.642228,0.000438964,0.0140111,1455,414,-0.0597672,-0.0757611
238,610,-0.0456543,0.0785217,0.000748398,0.00045435,-0.000149548,0.000811089,0.000391659,-0.396954,0.000468374,0.0104782,1462,414,-0.045642,-0.0785075
245,610,-0.0397949,0.0865173,0.000757387,0.000338596,-0.000304567,0.000917595,0.000178388,-0.484248,0.000561789,0.0112348,1469,414,-0.0398139,-0.0865207
252,610,-0.0523682,0.081604,0.000704323,0.000296084,-0.00036551,0.000918847,8.15603e-05,-0.530744,0.000587269,0.0128088,1476,414,-0.0523419,-0.0816162
259,610,-0.0389404,0.0866394,0.000766372,0.000320823,-0.000332019,0.000943429,0.000143766,-0.48991,0.000586929,0.0111315,1483,414,-0.038972,-0.0866545
266,610,-0.0413818,0.101898,0.000916525,9.42111e-05,-0.000269951,0.000997225,1.3511e-05,-0.290488,0.000660359,0.0114885,1490,414,-0.0413212,-0.101899
273,610,-0.0546875,0.084259,0.000898611,-0.000413739,-7.27806e-05,0.000902635,-0.000417763,-0.0552325,0.000779277,0.00959194,1497,414,-0.054683,-0.0842553
280,610,-0.0615234,0.0846558,0.001098,-0.000991418,0.000226731,0.00112232,-0.00101574,0.106856,0.00123492,0.00913349,1504,414,-0.0614711,-0.0846488
287,610,-0.0543213,0.0914307,0.00129555,-0.00124613,0.000313077,0.00133355,-0.00128413,0.120772,0.00151141,0.0114073,1511,414,-0.0543052,-0.0914159
294,610,-0.0340576,0.0851135,0.00127093,-0.00163717,0.000257622,0.00129358,-0.00165981,0.087678,0.00170951,0.0106363,1518,414,-0.0340988,-0.0851103
301,610,-0.0275879,0.0686951,0.00122536,-0.00200834,0.000262608,0.00124655,-0.00202953,0.0805067,0.00190937,0.0104201,1525,414,-0.0276157,-0.0687097
308,610,-0.0275879,0.0600281,0.00102786,-0.0024195,0.000421574,0.00107866,-0.0024703,0.119935,0.00210085,0.011552,1532,414,-0.0275968,-0.0600354
315,610,-0.0285645,0.0794067,0.00068628,-0.00248591,0.000572628,0.000786483,-0.00258611,0.173234,0.00203748,0.0115078,1539,414,-0.0285799,-0.0794148
322,610,-0.0423584,0.0829163,0.000463124,-0.0025309,0.000353685,0.000504337,-0.00257212,0.116003,0.00190524,0.011859,1546,414,-0.0423038,-0.0829205
329,610,-0.0494385,0.0869751,0.000164932,-0.00253363,8.57246e-05,0.000167652,-0.00253635,0.0317242,0.00174946,0.0103957,1553,414,-0.0494953,-0.0869885
336,610,-0.0340576,0.0954895,6.2368e-05,-0.00250617,-0.00045198,0.000139581,-0.00258338,-0.169199,0.00177062,0.00832642,1560,414,-0.0339994,-0.095486
343,610,-0.0523682,0.102203,0.000255996,-0.00215349,-0.00110295,0.000684627,-0.00258213,-0.370659,0.00198929,0.011251,1567,414,-0.0524071,-0.102214
350,610,-0.071167,0.084259,0.000394325,-0.00175773,-0.00189026,0.00149337,-0.00285677,-0.526648,0.00255234,0.0165639,1574,414,-0.0711863,-0.0842588
357,610,-0.0640869,0.072937,0.000315913,-0.00147589,-0.00242862,0.00200861,-0.00316859,-0.608695,0.00301396,0.0229587,1581,414,-0.0640506,-0.0729413
364,610,-0.0513916,0.130707,0.000110435,-0.000962163,-0.00292782,0.00255067,-0.00340239,-0.694816,0.00344871,0.0247362,1588,414,-0.0514027,-0.130698
371,610,-0.141113,0.114136,-0.000216008,-0.00085076,-0.00298856,0.00247198,-0.00353875,-0.732498,0.00348847,0.0372336,1595,414,-0.141116,-0.114137
378,610,-0.220337,0.0570679,0.000801477,-0.000580324,-0.0027235,0.00292034,-0.00269919,-0.661178,0.00324528,0.0410128,1602,414,-0.220319,-0.0570747
385,610,-0.244751,-0.000274658,0.00277469,-0.00138907,-0.00192365,0.00352735,-0.00214173,-0.372958,0.00330548,0.0445072,1609,414,-0.244806,0.000280572
392,610,0.950806,-0.959839,0.00438785,-0.00295907,-0.000885558,0.00449309,-0.0030643,-0.118278,0.00438918,0.0471013,1616,414,0.950851,0.959825
399,610,0.616211,-0.369141,0,0,0,0,0,0,0,-1,1623,414,0.61619,0.369152
406,610,0.0942383,-0.0404968,0.00941738,-0.00709216,0.00190204,0.00963367,-0.00730845,0.113232,0.0098122,0.0447778,1630,414,0.0942177,0.0404968
413,610,-0.165161,0.169128,0.0121645,-0.00999391,0.00323722,0.0126278,-0.0104572,0.142137,0.0133477,0.0405253,1637,414,-0.165172,-0.169136
420,610,-0.156128,0.24646,0.0148297,-0.0146453,0.00460463,0.0155323,-0.0153479,0.151416,0.0178288,0.0418418,1644,414,-0.156074,-0.246466
427,610,0.225952,-0.19339,0.0172974,-0.0194114,0.00601357,0.0182574,-0.0203714,0.158308,0.0223135,0.039028,1651,414,0.22594,0.193378
434,610,0.939209,-0.515167,0.0208946,-0.0256475,0.00607234,0.0216739,-0.0264267,0.127624,0.027816,0.0402542,1658,414,0.939263,0.515167
441,610,0,0,0,0,0,0,0,0,0,-1,1665,414,0,0
448,610,0,0,0,0,0,0,0,0,0,-1,1672,414,0,0
455,610,0,0,0,0,0,0,0,0,0,-1,1679,414,0,0
462,610,0,0,0,0,0,0,0,0,0,-1,1686,414,0,0
469,610,0,0,0,0,0,0,0,0,0,-1,1693,414,0,0
476,610,0,0,0,0,0,0,0,0,0,-1,1700,414,0,0
483,610,0,0,0,0,0,0,0,0,0,-1,1707,414,0,0
490,610,0,0,0,0,0,0,0,0,0,-1,1714,414,0,0
497,610,0,0,0,0,0,0,0,0,0,-1,1721,414,0,0
504,610,0,0,0,0,0,0,0,0,0,-1,1728,414,0,0
511,610,0,0,0,0,0,0,0,0,0,-1,1735,414,0,0
518,610,0,0,0,0,0,0,0,0,0,-1,1742,414,0,0
525,610,0,0,0,0,0,0,0,0,0,-1,1749,414,0,0
532,610,0,0,0,0,0,0,0,0,0,-1,1756,414,0,0
539,610,0,0,0,0,0,0,0,0,0,-1,1763,414,0,0
546,610,0,0,0,0,0,0,0,0,0,-1,1770,414,0,0
553,610,0,0,0,0,0,0,0,0,0,-1,1777,414,0,0
560,610,0,0,0,0,0,0,0,0,0,-1,1784,414,0,0
567,610,0,0,0,0,0,0,0,0,0,-1,1791,414,0,0
574,610,0,0,0,0,0,0,0,0,0,-1,1798,414,0,0
581,610,0,0,0,0,0,0,0,0,0,-1,1805,414,0,0
588,610,0,0,0,0,0,0,0,0,0,-1,1812,414,0,0
595,610,0,0,0,0,0,0,0,0,0,-1,1819,414,0,0
602,610,0,0,0,0,0,0,0,0,0,-1,1826,414,0,0
609,610,0,0,0,0,0,0,0,0,0,-1,1833,414,0,0
616,610,0,0,0,0,0,0,0,0,0,-1,1840,414,0,0
623,610,0,0,0,0,0,0,0,0,0,-1,1847,414,0,0
630,610,0,0,0,0,0,0,0,0,0,-1,1854,414,0,0
637,610,0,0,0,0,0,0,0,0,0,-1,1861,414,0,0
644,610,0,0,0,0,0,0,0,0,0,-1,1868,414,0,0
651,610,0,0,0,0,0,0,0,0,0,-1,1875,414,0,0
658,610,0,0,0,0,0,0,0,0,0,-1,1882,414,0,0
665,610,0,0,0,0,0,0,0,0,0,-1,1889,414,0,0
672,610,0,0,0,0,0,0,0,0,0,-1,1896,414,0,0
679,610,0,0,0,0,0,0,0,0,0,-1,1903,414,0,0
686,610,0,0,0,0,0,0,0,0,0,-1,1910,414,0,0
693,610,0,0,0,0,0,0,0,0,0,-1,1917,414,0,0
700,610,0,0,0,0,0,0,0,0,0,-1,1924,414,0,0
707,610,0,0,0,0,0,0,0,0,0,-1,1931,414,0,0
714,610,0,0,0,0,0,0,0,0,0,-1,1938,414,0,0
721,610,0,0,0,0,0,0,0,0,0,-1,1945,414,0,0
728,610,0,0,0,0,0,0,0,0,0,-1,1952,414,0,0
735,610,0,0,0,0,0,0,0,0,0,-1,1959,414,0,0
742,610,0,0,0,0,0,0,0,0,0,-1,1966,414,0,0
749,610,0,0,0,0,0,0,0,0,0,-1,1973,414,0,0
756,610,0,0,0,0,0,0,0,0,0,-1,1980,414,0,0
763,610,0,0,0,0,0,0,0,0,0,-1,1987,414,0,0
770,610,0,0,0,0,0,0,0,0,0,-1,1994,414,0,0
777,610,0,0,0,0,0,0,0,0,0,-1,2001,414,0,0
784,610,0,0,0,0,0,0,0,0,0,-1,2008,414,0,0
791,610,0,0,0,0,0,0,0,0,0,-1,2015,414,0,0
798,610,0,0,0,0,0,0,0,0,0,-1,2022,414,0,0
805,610,0,0,0,0,0,0,0,0,0,-1,2029,414,0,0
812,610,0,0,0,0,0,0,0,0,0,-1,2036,414,0,0
-700,603,0,0,0,0,0,0,0,0,0,-1,524,421,0,0
-693,603,0,0,0,0,0,0,0,0,0,-1,531,421,0,0
-686,603,0,0,0,0,0,0,0,0,0,-1,538,421,0,0
-679,603,0,0,0,0,0,0,0,0,0,-1,545,421,0,0
-672,603,0,0,0,0,0,0,0,0,0,-1,552,421,0,0
-665,603,0,0,0,0,0,0,0,0,0,-1,559,421,0,0
-658,603,0,0,0,0,0,0,0,0,0,-1,566,421,0,0
-651,603,0,0,0,0,0,0,0,0,0,-1,573,421,0,0
-644,603,0,0,0,0,0,0,0,0,0,-1,580,421,0,0
-637,603,0,0,0,0,0,0,0,0,0,-1,587,421,0,0
-630,603,0,0,0,0,0,0,0,0,0,-1,594,421,0,0
-623,603,0,0,0,0,0,0,0,0,0,-1,601,421,0,0
-616,603,0,0,0,0,0,0,0,0,0,-1,608,421,0,0
-609,603,0,0,0,0,0,0,0,0,0,-1,615,421,0,0
-602,603,0,0,0,0,0,0,0,0,0,-1,622,421,0,0
-595,603,0,0,0,0,0,0,0,0,0,-1,629,421,0,0
-588,603,0,0,0,0,0,0,0,0,0,-1,636,421,0,0
-581,603,0,0,0,0,0,0,0,0,0,-1,643,421,0,0
-574,603,0,0,0,0,0,0,0,0,0,-1,650,421,0,0
-567,603,0,0,0,0,0,0,0,0,0,-1,657,421,0,0
-560,603,0,0,0,0,0,0,0,0,0,-1,664,421,0,0
-553,603,0,0,0,0,0,0,0,0,0,-1,671,421,0,0
-546,603,0,0,0,0,0,0,0,0,0,-1,678,421,0,0
-539,603,0,0,0,0,0,0,0,0,0,-1,685,421,0,0
-532,603,0,0,0,0,0,0,0,0,0,-1,692,421,0,0
-525,603,0,0,0,0,0,0,0,0,0,-1,699,421,0,0
-518,603,0,0,0,0,0,0,0,0,0,-1,706,421,0,0
-511,603,0,0,0,0,0,0,0,0,0,-1,713,421,0,0
-504,603,0,0,0,0,0,0,0,0,0,-1,720,421,0,0
-497,603,0,0,0,0,0,0,0,0,0,-1,727,421,0,0
-490,603,0,0,0,0,0,0,0,0,0,-1,734,421,0,0
-483,603,0,0,0,0,0,0,0,0,0,-1,741,421,0,0
-476,603,0,0,0,0,0,0,0,0,0,-1,748,421,0,0
-469,603,0,0,0,0,0,0,0,0,0,-1,755,421,0,0
-462,603,0,0,0,0,0,0,0,0,0,-1,762,421,0,0
-455,603,0,0,0,0,0,0,0,0,0,-1,769,421,0,0
-448,603,0,0,0,0,0,0,0,0,0,-1,776,421,0,0
-441,603,0,0,0,0,0,0,0,0,0,-1,783,421,0,0
-434,603,0,0,0,0,0,0,0,0,0,-1,790,421,0,0
-427,603,0,0,0,0,0,0,0,0,0,-1,797,421,0,0
-420,603,0,0,0,0,0,0,0,0,0,-1,804,421,0,0
-413,603,0,0,0,0,0,0,0,0,0,-1,811,421,0,0
-406,603,0,0,0,0,0,0,0,0,0,-1,818,421,0,0
-399,603,0,0,0,0,0,0,0,0,0,-1,825,421,0,0
-392,603,0,0,0,0,0,0,0,0,0,-1,832,421,0,0
-385,603,0,0,0,0,0,0,0,0,0,-1,839,421,0,0
-378,603,0,0,0,0,0,0,0,0,0,-1,846,421,0,0
-371,603,0,0,0,0,0,0,0,0,0,-1,853,421,0,0
-364,603,0,0,0,0,0,0,0,0,0,-1,860,421,0,0
-357,603,0,0,0,0,0,0,0,0,0,-1,867,421,0,0
-350,603,0,0,0,0,0,0,0,0,0,-1,874,421,0,0
-343,603,0,0,0,0,0,0,0,0,0,-1,881,421,0,0
-336,603,0,0,0,0,0,0,0,0,0,-1,888,421,0,0
-329,603,0.3349,0.987427,0,0,0,0,0,0,0,-1,895,421,0.334895,-0.987426
-322,603,0.490784,0.358948,0,0,0,0,0,0,0,-1,902,421,0.490763,-0.358939
-315,603,0.384705,-0.0802002,0,0,0,0,0,0,0,-1,909,421,0.384722,0.0802142
-308,603,3.13916,3.72449,0,0,0,0,0,0,0,-1,916,421,3.13918,-3.7245
-301,603,2.63367,3.32913,-0.0229243,-0.0293262,-0.0339506,0.00797591,-0.0602264,-0.738396,0.0430565,0.0435825,923,421,2.63367,-3.32914
-294,603,2.03033,2.892,-0.0184713,-0.0262693,-0.0300017,0.00788365,-0.0526243,-0.720781,0.0379844,0.0455545,930,421,2.03033,-2.89199
-287,603,1.56506,2.46701,0,0,0,0,0,0,0,-1,937,421,1.56505,-2.46702
-280,603,1.36115,-0.0368958,0,0,0,0,0,0,0,-1,944,421,1.36115,0.0368822
-273,603,0.93103,-0.142395,0,0,0,0,0,0,0,-1,951,421,0.931053,0.142385
-266,603,-0.485779,0.195801,-0.00099846,-0.0123006,-0.0130711,0.0075908,-0.0208899,-0.581365,0.0170304,0.042089,958,421,-0.485774,-0.195805
-259,603,-0.358276,-0.142273,0.00191864,-0.00899691,-0.00935822,0.00729431,-0.0143726,-0.521408,0.01273,0.0408322,965,421,-0.358251,0.142261
-252,603,-0.0631714,-0.0121155,0.00363878,-0.00596875,-0.00620786,0.00668446,-0.00901442,-0.456112,0.00909697,0.036957,972,421,-0.0632004,0.0121216
-245,603,-0.0148315,0.0428162,0.00514669,-0.00290673,-0.00348258,0.00644377,-0.00420381,-0.356532,0.00619256,0.0292285,979,421,-0.0148493,-0.0428125
-238,603,-0.0166626,0.107452,0.00591558,-0.000644049,-0.00111347,0.00609943,-0.000827904,-0.163642,0.00436848,0.0168877,986,421,-0.0166664,-0.107464
-231,603,-0.0368652,0.10022,0.00507232,0.000100042,1.00557e-05,0.00507234,0.000100021,0.00202234,0.00334872,0.0108846,993,421,-0.0368874,-0.100228
-224,603,-0.0663452,0.0867615,0.00434406,0.000727145,0.000634944,0.00445228,0.00061892,0.168826,0.0027849,0.0119109,1000,421,-0.066343,-0.0867464
-217,603,-0.0596313,0.0933228,0.00364963,0.00123985,0.00101698,0.00402145,0.000868028,0.350513,0.00244357,0.0110096,1007,421,-0.0596488,-0.0933175
-210,603,-0.0487671,0.0947266,0.00256731,0.00167137,0.00104012,0.00325182,0.000986852,0.582059,0.00192518,0.00903862,1014,421,-0.0487491,-0.0947374
-203,603,-0.055542,0.111816,0.00145294,0.00209133,0.000818333,0.00265051,0.000893751,0.971349,0.00155708,0.0147522,1021,421,-0.0555206,-0.111813
-196,603,-0.0300293,0.0769043,0.0012827,0.00250173,0.000832419,0.00292393,0.000860506,1.10141,0.0017351,0.0155863,1028,421,-0.0299882,-0.0769089
-189,603,-0.0239258,0.0777893,0.00123227,0.00263469,0.000714406,0.00293451,0.000932447,1.17344,0.00173135,0.0131471,1035,421,-0.0238772,-0.0777912
-182,603,-0.0393066,0.0647278,0.0012183,0.00253828,0.000545925,0.0027348,0.00102177,1.22525,0.00159566,0.0103561,1042,421,-0.0393389,-0.0647251
-175,603,-0.0456543,0.0603943,0.00122205,0.00250144,0.000341002,0.00258665,0.00113684,1.32592,0.00149704,0.0103472,1049,421,-0.0457137,-0.0603822
-168,603,-0.0593262,0.0944824,0.00120233,0.00249408,0.000327653,0.00257244,0.00112398,1.33606,0.00148913,0.0121696,1056,421,-0.0592784,-0.0944956
-161,603,-0.0577393,0.0786133,0.00116386,0.0026167,0.00014543,0.00263112,0.00114944,1.472,0.00152311,0.0117484,1063,421,-0.0577938,-0.0786163
-154,603,-0.0428467,0.0656738,0.00110013,0.00278789,-5.20689e-05,0.00278949,0.00109852,-1.53998,0.00162258,0.0121349,1070,421,-0.0428966,-0.0656843
-147,603,-0.0159912,0.0689392,0.00108652,0.00286804,-0.000199257,0.00289005,0.0010645,-1.46076,0.00168775,0.0132487,1077,421,-0.0159565,-0.0689417
-140,603,-0.0344238,0.0828552,0.00102966,0.00317303,-0.000222542,0.00319589,0.0010068,-1.46842,0.00188677,0.0111753,1084,421,-0.0344468,-0.0828697
-133,603,-0.0563965,0.0899048,0.000925834,0.00334484,-0.000233603,0.00336719,0.000903481,-1.4754,0.00201241,0.0107323,1091,421,-0.0564086,-0.0899022
-126,603,-0.0537109,0.101776,0.000911057,0.00345435,-0.000401115,0.00351611,0.000849295,-1.41802,0.0021185,0.00930727,1098,421,-0.0537621,-0.101781
-119,603,-0.03125,0.103271,0.000959293,0.00359933,-0.000717856,0.0037819,0.000776725,-1.32175,0.00230637,0.00978563,1105,421,-0.0312265,-0.103286
-112,603,-0.0385742,0.0984192,0.000917749,0.00384574,-0.00103199,0.00417291,0.000590578,-1.26379,0.00260747,0.0135509,1112,421,-0.0386326,-0.0984332
-105,603,-0.0419922,0.0610046,0.000775689,0.00381232,-0.00154431,0.00445969,0.000128322,-1.17385,0.00293129,0.0129503,1119,421,-0.0419654,-0.0610163
-98,603,-0.0369873,0.0721436,0.000555533,0.00456895,-0.00204766,0.00542926,-0.000304779,-1.17305,0.00372526,0.0107668,1126,421,-0.0369636,-0.072152
-91,603,-0.0418701,0.089386,0.00058475,0.00534133,-0.00212887,0.00615496,-0.00022888,-1.20574,0.00418169,0.00801072,1133,421,-0.0418842,-0.0893751
-84,603,-0.0388184,0.0721741,0.000751093,0.00572574,-0.00221079,0.00656623,-8.93977e-05,-1.20749,0.00440759,0.00797184,1140,421,-0.0387985,-0.0721862
-77,603,-0.0352783,0.0697937,0.000789554,0.00617727,-0.00241222,0.00709944,-0.000132616,-1.20565,0.00477778,0.00803536,1147,421,-0.0352188,-0.0697842
-70,603,-0.0319824,0.0812378,0.000750566,0.006664,-0.00252092,0.0075928,-0.00017823,-1.21779,0.00512231,0.00991326,1154,421,-0.0319666,-0.0812512
-63,603,-0.0328369,0.0864868,0.000687439,0.00737077,-0.00252153,0.00821538,-0.000157165,-1.24759,0.00553005,0.00955111,1161,421,-0.0327934,-0.0864846
-56,603,-0.0358887,0.0856628,0.000867949,0.00760337,-0.0022534,0.00828773,0.00018359,-1.27595,0.00546498,0.00962082,1168,421,-0.0358316,-0.0856544
-49,603,-0.00402832,0.0882263,0.0013374,0.00833464,-0.00137522,0.00859522,0.00107683,-1.38354,0.00540707,0.0104376,1175,421,-0.00398926,-0.0882364
-42,603,-0.00854492,0.103729,0.0016811,0.00803713,-0.00080228,0.00813684,0.0015814,-1.44716,0.0049818,0.0136159,1182,421,-0.0085547,-0.103718
-35,603,-0.0385742,0.0900574,0.00189863,0.00743409,-0.00050463,0.00747971,0.001853,-1.48062,0.00449789,0.0139235,1189,421,-0.0385272,-0.0900643
-28,603,-0.0975342,0.061615,0.00235248,0.00664266,-0.000550495,0.00671217,0.00228297,-1.44519,0.00394075,0.015231,1196,421,-0.0975857,-0.0616283
-21,603,-0.097168,0.0743408,0.00244007,0.00516461,-0.000753757,0.00535924,0.00224544,-1.31811,0.00310767,0.0178713,1203,421,-0.0971948,-0.0743465
-14,603,-0.0460205,0.0964355,0.00227358,0.00305108,-0.00130749,0.00402639,0.00129827,-0.929898,0.00237299,0.0212245,1210,421,-0.0460776,-0.0964487
-7,603,-0.00427246,0.0732727,0.00200046,0.00104155,-0.00217374,0.00374699,-0.000704979,-0.676852,0.00276313,0.0233089,1217,421,-0.00421913,-0.0732705
0,603,0.00219727,0.0682373,0.00144031,-0.000540616,-0.00308264,0.0036877,-0.00278801,-0.629956,0.00375076,0.0226189,1224,421,0.00220327,-0.0682363
7,603,-0.0338135,0.10495,0.00117966,-0.00389132,-0.00448032,0.00379218,-0.00650383,-0.527907,0.00601273,0.025906,1231,421,-0.0338105,-0.104953
14,603,-0.081665,0.120056,-0.000584716,-0.00415745,-0.00545239,0.00336648,-0.00810865,-0.627094,0.00681114,0.0240588,1238,421,-0.0817208,-0.120044
21,603,-0.0567627,0.11673,-0.00225582,-0.00217456,-0.0062529,0.00403785,-0.00846822,-0.788647,0.00736986,0.0195172,1245,421,-0.0568123,-0.116739
28,603,0.0308838,0.117706,-0.00285106,0.000321605,-0.00725846,0.00616505,-0.00869451,-0.892981,0.00862051,0.0221534,1252,421,0.0309447,-0.11772
35,603,0.0115967,0.132874,-0.00384468,0.00341708,-0.0069253,0.00760561,-0.00803321,-1.02684,0.0090302,0.030401,1259,421,0.0115633,-0.132862
42,603,-0.0318604,0.0895691,-0.00446969,0.00707361,-0.00602962,0.00964872,-0.00704479,-1.16717,0.00967701,0.0278444,1266,421,-0.0318801,-0.0895713
49,603,-0.0535889,0.0883484,-0.0040415,0.0117495,-0.00533502,0.013383,-0.00567497,-1.27368,0.0112991,0.0157636,1273,421,-0.0536265,-0.0883554
56,603,0.0108643,0.114502,-0.00282433,0.0158024,-0.00476225,0.0169493,-0.00397126,-1.33446,0.0128298,0.0290985,1280,421,0.0108631,-0.114488
63,603,0.0620117,0.157623,-0.000609236,0.0207046,-0.00318358,0.02117,-0.0010746,-1.42565,0.0144848,0.037316,1287,421,0.0619785,-0.157638
70,603,0.098999,0.118622,0.00174935,0.0252639,-0.00115327,0.0253204,0.00169293,-1.52191,0.0163452,0.0415075,1294,421,0.098957,-0.118614
77,603,0.363281,-0.161133,0.00409873,0.0280726,0.000412982,0.0280797,0.00409161,1.55358,0.017516,0.0466906,1301,421,0.363229,0.161135
84,603,-0.0894775,0.14035,0,0,0,0,0,0,0,-1,1308,421,-0.0895003,-0.140343
91,603,-0.104736,0.119812,0.00962917,0.0303687,0.00214588,0.0305884,0.00940947,1.46877,0.0180907,0.0448849,1315,421,-0.104743,-0.119814
98,603,-0.0501709,0.071991,0.0115582,0.0293905,0.00199461,0.0296109,0.0113378,1.46075,0.0172514,0.0460923,1322,421,-0.0501682,-0.0719884
105,603,-0.048584,0.0970764,0.0124669,0.0281149,0.00132635,0.0282265,0.0123553,1.48683,0.0163387,0.039031,1329,421,-0.04853,-0.097062
112,603,-0.0715332,0.0838013,0.0120196,0.0276081,0.000621243,0.0276328,0.0119949,1.53103,0.016,0.031625,1336,421,-0.0715689,-0.0837965
119,603,-0.0828857,0.0739746,0.0114123,0.0255035,-0.000331782,0.0255113,0.0114044,-1.54727,0.0147565,0.0341741,1343,421,-0.0828262,-0.073962
126,603,0.012085,0.0741577,0.00980393,0.0231304,-0.000815206,0.0231801,0.00975425,-1.50993,0.0134389,0.0388763,1350,421,0.0121452,-0.0741549
133,603,0.0098877,0.0590515,0.00691526,0.021456,-0.000745004,0.021494,0.00687719,-1.51974,0.0126749,0.0333001,1357,421,0.00989152,-0.0590372
140,603,0.00854492,0.0845947,0.00460914,0.0203642,-0.00123819,0.0204609,0.00451242,-1.49284,0.0124129,0.0212293,1364,421,0.00850521,-0.0846023
147,603,-0.0712891,0.101624,0.00230661,0.0191447,-0.0013677,0.019255,0.00219624,-1.49027,0.0121709,0.0148592,1371,421,-0.0712953,-0.101609
154,603,-0.072876,0.100342,-0.000570243,0.0177014,-0.000755101,0.0177325,-0.000601396,-1.52956,0.0120272,0.0236958,1378,421,-0.0728751,-0.100357
161,603,-0.0157471,0.0836792,-0.00261298,0.016125,-0.000187145,0.0161269,-0.00261485,-1.56081,0.0117205,0.0271662,1385,421,-0.0157715,-0.0836747
168,603,0.00012207,0.085083,-0.00348461,0.0145072,0.000333013,0.0145133,-0.00349077,1.5523,0.0110249,0.0232114,1392,421,9.17547e-05,-0.0850956
175,603,-0.0603027,0.11377,-0.00318697,0.0122304,0.000596712,0.0122535,-0.00321003,1.53217,0.00942306,0.0192092,1399,421,-0.0602538,-0.113762
182,603,-0.0496826,0.0809021,-0.00270017,0.0105723,0.00122112,0.0106837,-0.00281158,1.47981,0.0082215,0.0156576,1406,421,-0.0497288,-0.0808885
189,603,-0.0349121,0.0812378,-0.00216864,0.00924666,0.00171128,0.00949768,-0.00241966,1.42515,0.00727375,0.0121291,1413,421,-0.0349352,-0.081233
196,603,-0.0375977,0.0888062,-0.00144219,0.00760675,0.00165033,0.00789834,-0.00173378,1.39592,0.0059286,0.0126041,1420,421,-0.0376167,-0.088804
203,603,-0.0367432,0.0968323,-0.000742811,0.00607314,0.00160955,0.00643411,-0.00110378,1.35018,0.00470073,0.00886115,1427,421,-0.036792,-0.0968181
210,603,-0.0427246,0.0838318,-5.60128e-05,0.00454931,0.00132388,0.00490275,-0.000409459,1.3099,0.00341319,0.00869913,1434,421,-0.0427091,-0.0838198
217,603,-0.0517578,0.071228,0.000423125,0.00329554,0.000820126,0.00351321,0.000205459,1.31137,0.00227674,0.0115745,1441,421,-0.0518106,-0.0712169
224,603,-0.06604,0.0783691,0.000685415,0.00237113,0.000113633,0.00237875,0.000677789,1.50379,0.00141509,0.0148478,1448,421,-0.066026,-0.0783726
231,603,-0.0581055,0.092926,0.000725795,0.00193428,-0.000390531,0.0020495,0.000610577,-1.28391,0.00121507,0.0132434,1455,421,-0.0580925,-0.0929205
238,603,-0.0424805,0.0883484,0.000731029,0.00171108,-0.000651553,0.00203631,0.000405794,-1.10782,0.00124453,0.0102059,1462,421,-0.0424719,-0.0883489
245,603,-0.0460205,0.0780029,0.000649401,0.00151496,-0.000822041,0.00201119,0.000153176,-1.0277,0.00129276,0.0104203,1469,421,-0.0460721,-0.0780042
252,603,-0.0612793,0.0784607,0.000481521,0.00140281,-0.000878731,0.00193432,-4.99838e-05,-1.02681,0.00130652,0.00935758,1476,421,-0.0612466,-0.0784717
259,603,-0.0526123,0.0728455,0.000412486,0.00133969,-0.000746217,0.00175459,-2.4155e-06,-1.06335,0.00117053,0.00939175,1483,421,-0.0525843,-0.072842
266,603,-0.0653076,0.0762024,0.000320239,0.00110976,-0.000519142,0.00136718,6.28146e-05,-1.11046,0.000891255,0.0104229,1490,421,-0.0653104,-0.0761988
273,603,-0.0743408,0.0812988,7.35834e-05,0.00062476,-0.00021392,0.000698043,3.01166e-07,-1.24076,0.000465261,0.00993705,1497,421,-0.0744004,-0.0813037
280,603,-0.0604248,0.0935059,0.000197781,0.000157944,0.000143998,0.000323231,3.24937e-05,0.716671,0.000205514,0.0114909,1504,421,-0.0604464,-0.0934954
287,603,-0.0397949,0.0978394,0.000394559,-0.00012147,0.000266784,0.000507685,-0.000234595,0.401053,0.000438117,0.0112252,1511,421,-0.0398549,-0.0978421
294,603,-0.0471191,0.0899353,0.000403886,-0.000511007,0.000243736,0.000464768,-0.000571889,0.244778,0.000599579,0.00948828,1518,421,-0.0471014,-0.0899452
301,603,-0.0523682,0.0792542,0.000365592,-0.000833328,0.000241768,0.00041251,-0.000880246,0.191678,0.000762483,0.0107687,1525,421,-0.0523782,-0.0792542
308,603,-0.039917,0.0814819,0.000163082,-0.00116917,0.00035531,0.000251919,-0.00125801,0.245004,0.00093404,0.0153565,1532,421,-0.0399588,-0.0814924
315,603,-0.032959,0.0822144,-0.000135275,-0.0012374,0.000471322,3.87939e-05,-0.00141147,0.353781,0.000954171,0.014391,1539,421,-0.0330027,-0.082217
322,603,-0.0390625,0.098175,-0.000271183,-0.00133937,0.000305384,-0.000190041,-0.00142051,0.259706,0.000890448,0.0135937,1546,421,-0.0391103,-0.0981889
329,603,-0.0413818,0.104218,-0.000465023,-0.00142787,0.000110031,-0.000452609,-0.00144028,0.112348,0.00085046,0.0102083,1553,421,-0.0414421,-0.104227
336,603,-0.041748,0.0823669,-0.000451359,-0.00157713,-0.000352396,-0.000350149,-0.00167834,-0.279679,0.00102236,0.00842925,1560,421,-0.0417163,-0.0823778
343,603,-0.0427246,0.0805359,-0.000207053,-0.00144225,-0.000888031,0.000257027,-0.00190633,-0.481559,0.00136465,0.00990666,1567,421,-0.0426862,-0.0805246
350,603,-0.0241699,0.0845032,-4.26059e-05,-0.00121862,-0.00149815,0.000978804,-0.00224003,-0.598392,0.00190535,0.0115877,1574,421,-0.02418,-0.0845049
357,603,-0.0270996,0.0884705,-0.00010065,-0.00111383,-0.00184064,0.00130184,-0.00251632,-0.651111,0.00224128,0.0113263,1581,421,-0.0270433,-0.0884693
364,603,-0.0474854,0.094574,-0.000231529,-0.000791698,-0.00215304,0.00165957,-0.0026828,-0.720718,0.00253016,0.0121241,1588,421,-0.047486,-0.0945718
371,603,-0.067749,0.104889,-0.00045946,-0.000954539,-0.00202259,0.00133068,-0.00274468,-0.724507,0.00239966,0.0172832,1595,421,-0.0677391,-0.104888
378,603,-0.0924072,0.0716858,0.000365733,-0.000771621,-0.00162673,0.00152032,-0.00192621,-0.617246,0.00199444,0.027796,1602,421,-0.0924385,-0.0716711
385,603,-0.157593,-0.0489197,0.0019041,-0.00141365,-0.000740634,0.00206193,-0.00157147,-0.209956,0.00210411,0.0419503,1609,421,-0.157552,0.0489229
392,603,-0.16748,-0.0933533,0.00308384,-0.0023847,0.000296272,0.00309985,-0.00240071,0.0539669,0.00318429,0.0490291,1616,421,-0.167429,0.0933579
399,603,-0.262451,0.196716,0,0,0,0,0,0,0,-1,1623,421,-0.262392,-0.196731
406,603,-0.0297852,-0.018158,0.00666012,-0.00530196,0.00283347,0.00729734,-0.00593919,0.221211,0.00765551,0.0445342,1630,421,-0.0298046,0.0181659
413,603,-0.56311,0.556396,0.00847577,-0.00753283,0.00402628,0.00943137,-0.00848843,0.233028,0.0103508,0.0424573,1637,421,-0.56308,-0.556393
420,603,-1.22473,1.31027,0.0100718,-0.0109875,0.00501568,0.0112053,-0.012121,0.222271,0.0134709,0.0426877,1644,421,-1.22473,-1.31028
427,603,-1.75708,2.13779,0.0113797,-0.0144081,0.00559822,0.0125425,-0.0155709,0.204809,0.0162627,0.0435499,1651,421,-1.7571,-2.13778
434,603,-0.0656738,0.18158,0.0132679,-0.0190504,0.00497229,0.0140156,-0.0197981,0.149256,0.0196173,0.0399398,1658,421,-0.0656999,-0.181594
441,603,-0.0888672,0.270508,0.0144745,-0.0250956,0.00292653,0.0146898,-0.0253108,0.0734257,0.0233642,0.0424283,1665,421,-0.0888081,-0.270504
448,603,0.475464,-0.0787659,0.0140273,-0.0334748,-0.00059825,0.0140348,-0.0334823,-0.0125915,0.0281895,0.0442914,1672,421,0.475418,0.0787524
455,603,0,0,0,0,0,0,0,0,0,-1,1679,421,0,0
462,603,0,0,0,0,0,0,0,0,0,-1,1686,421,0,0
469,603,0,0,0,0,0,0,0,0,0,-1,1693,421,0,0
476,603,0,0,0,0,0,0,0,0,0,-1,1700,421,0,0
483,603,0,0,0,0,0,0,0,0,0,-1,1707,421,0,0
490,603,0,0,0,0,0,0,0,0,0,-1,1714,421,0,0
497,603,0,0,0,0,0,0,0,0,0,-1,1721,421,0,0
504,603,0,0,0,0,0,0,0,0,0,-1,1728,421,0,0
511,603,0,0,0,0,0,0,0,0,0,-1,1735,421,0,0
518,603,0,0,0,0,0,0,0,0,0,-1,1742,421,0,0
525,603,0,0,0,0,0,0,0,0,0,-1,1749,421,0,0
532,603,0,0,0,0,0,0,0,0,0,-1,1756,421,0,0
539,603,0,0,0,0,0,0,0,0,0,-1,1763,421,0,0
546,603,0,0,0,0,0,0,0,0,0,-1,1770,421,0,0
553,603,0,0,0,0,0,0,0,0,0,-1,1777,421,0,0
560,603,0,0,0,0,0,0,0,0,0,-1,1784,421,0,0
567,603,0,0,0,0,0,0,0,0,0,-1,1791,421,0,0
574,603,0,0,0,0,0,0,0,0,0,-1,1798,421,0,0
581,603,0,0,0,0,0,0,0,0,0,-1,1805,421,0,0
588,603,0,0,0,0,0,0,0,0,0,-1,1812,421,0,0
595,603,0,0,0,0,0,0,0,0,0,-1,1819,421,0,0
602,603,0,0,0,0,0,0,0,0,0,-1,1826,421,0,0
609,603,0,0,0,0,0,0,0,0,0,-1,1833,421,0,0
616,603,0,0,0,0,0,0,0,0,0,-1,1840,421,0,0
623,603,0,0,0,0,0,0,0,0,0,-1,1847,421,0,0
630,603,0,0,0,0,0,0,0,0,0,-1,1854,421,0,0
637,603,0,0,0,0,0,0,0,0,0,-1,1861,421,0,0
644,603,0,0,0,0,0,0,0,0,0,-1,1868,421,0,0
651,603,0,0,0,0,0,0,0,0,0,-1,1875,421,0,0
658,603,0,0,0,0,0,0,0,0,0,-1,1882,421,0,0
665,603,0,0,0,0,0,0,0,0,0,-1,1889,421,0,0
672,603,0,0,0,0,0,0,0,0,0,-1,1896,421,0,0
679,603,0,0,0,0,0,0,0,0,0,-1,1903,421,0,0
686,603,0,0,0,0,0,0,0,0,0,-1,1910,421,0,0
693,603,0,0,0,0,0,0,0,0,0,-1,1917,421,0,0
700,603,0,0,0,0,0,0,0,0,0,-1,1924,421,0,0
707,603,0,0,0,0,0,0,0,0,0,-1,1931,421,0,0
714,603,0,0,0,0,0,0,0,0,0,-1,1938,421,0,0
721,603,0,0,0,0,0,0,0,0,0,-1,1945,421,0,0
728,603,0,0,0,0,0,0,0,0,0,-1,1952,421,0,0
735,603,0,0,0,0,0,0,0,0,0,-1,1959,421,0,0
742,603,0,0,0,0,0,0,0,0,0,-1,1966,421,0,0
749,603,0,0,0,0,0,0,0,0,0,-1,1973,421,0,0
756,603,0,0,0,0,0,0,0,0,0,-1,1980,421,0,0
763,603,0,0,0,0,0,0,0,0,0,-1,1987,421,0,0
770,603,0,0,0,0,0,0,0,0,0,-1,1994,421,0,0
777,603,0,0,0,0,0,0,0,0,0,-1,2001,421,0,0
784,603,0,0,0,0,0,0,0,0,0,-1,2008,421,0,0
791,603,0,0,0,0,0,0,0,0,0,-1,2015,421,0,0
798,603,0,0,0,0,0,0,0,0,0,-1,2022,421,0,0
805,603,0,0,0,0,0,0,0,0,0,-1,2029,421,0,0
812,603,0,0,0,0,0,0,0,0,0,-1,2036,421,0,0
-700,596,0,0,0,0,0,0,0,0,0,-1,524,428,0,0
-693,596,0,0,0,0,0,0,0,0,0,-1,531,428,0,0
-686,596,0,0,0,0,0,0,0,0,0,-1,538,428,0,0
-679,596,0,0,0,0,0,0,0,0,0,-1,545,428,0,0
-672,596,0,0,0,0,0,0,0,0,0,-1,552,428,0,0
-665,596,0,0,0,0,0,0,0,0,0,-1,559,428,0,0
-658,596,0,0,0,0,0,0,0,0,0,-1,566,428,0,0
-651,596,0,0,0,0,0,0,0,0,0,-1,573,428,0,0
-644,596,0,0,0,0,0,0,0,0,0,-1,580,428,0,0
-637,596,0,0,0,0,0,0,0,0,0,-1,587,428,0,0
-630,596,0,0,0,0,0,0,0,0,0,-1,594,428,0,0
-623,596,0,0,0,0,0,0,0,0,0,-1,601,428,0,0
-616,596,0,0,0,0,0,0,0,0,0,-1,608,428,0,0
-609,596,0,0,0,0,0,0,0,0,0,-1,615,428,0,0
-602,596,0,0,0,0,0,0,0,0,0,-1,622,428,0,0
-595,596,0,0,0,0,0,0,0,0,0,-1,629,428,0,0
-588,596,0,0,0,0,0,0,0,0,0,-1,636,428,0,0
-581,596,0,0,0,0,0,0,0,0,0,-1,643,428,0,0
-574,596,0,0,0,0,0,0,0,0,0,-1,650,428,0,0
-567,596,0,0,0,0,0,0,0,0,0,-1,657,428,0,0
-560,596,0,0,0,0,0,0,0,0,0,-1,664,428,0,0
-553,596,0,0,0,0,0,0,0,0,0,-1,671,428,0,0
-546,596,0,0,0,0,0,0,0,0,0,-1,678,428,0,0
-539,596,0,0,0,0,0,0,0,0,0,-1,685,428,0,0
-532,596,0,0,0,0,0,0,0,0,0,-1,692,428,0,0
-525,596,0,0,0,0,0,0,0,0,0,-1,699,428,0,0
-518,596,0,0,0,0,0,0,0,0,0,-1,706,428,0,0
-511,596,0,0,0,0,0,0,0,0,0,-1,713,428,0,0
-504,596,0,0,0,0,0,0,0,0,0,-1,720,428,0,0
-497,596,0,0,0,0,0,0,0,0,0,-1,727,428,0,0
-490,596,0,0,0,0,0,0,0,0,0,-1,734,428,0,0
-483,596,0,0,0,0,0,0,0,0,0,-1,741,428,0,0
-476,596,0,0,0,0,0,0,0,0,0,-1,748,428,0,0
-469,596,0,0,0,0,0,0,0,0,0,-1,755,428,0,0
-462,596,0,0,0,0,0,0,0,0,0,-1,762,428,0,0
-455,596,0,0,0,0,0,0,0,0,0,-1,769,428,0,0
-448,596,0,0,0,0,0,0,0,0,0,-1,776,428,0,0
-441,596,0,0,0,0,0,0,0,0,0,-1,783,428,0,0
-434,596,0,0,0,0,0,0,0,0,0,-1,790,428,0,0
-427,596,0,0,0,0,0,0,0,0,0,-1,797,428,0,0
-420,596,0,0,0,0,0,0,0,0,0,-1,804,428,0,0
-413,596,0,0,0,0,0,0,0,0,0,-1,811,428,0,0
-406,596,0,0,0,0,0,0,0,0,0,-1,818,428,0,0
-399,596,0,0,0,0,0,0,0,0,0,-1,825,428,0,0
-392,596,0,0,0,0,0,0,0,0,0,-1,832,428,0,0
-385,596,0,0,0,0,0,0,0,0,0,-1,839,428,0,0
-378,596,0,0,0,0,0,0,0,0,0,-1,846,428,0,0
-371,596,0,0,0,0,0,0,0,0,0,-1,853,428,0,0
-364,596,0,0,0,0,0,0,0,0,0,-1,860,428,0,0
-357,596,0,0,0,0,0,0,0,0,0,-1,867,428,0,0
-350,596,0,0,0,0,0,0,0,0,0,-1,874,428,0,0
-343,596,0,0,0,0,0,0,0,0,0,-1,881,428,0,0
-336,596,0.937866,1.0686,0,0,0,0,0,0,0,-1,888,428,0.937864,-1.06859
-329,596,0.530396,0.896515,0,0,0,0,0,0,0,-1,895,428,0.530425,-0.896523
-322,596,0.451111,0.345093,-0.0258272,-0.0333478,-0.0401562,0.0107444,-0.0699194,-0.738713,0.0505762,0.04506,902,428,0.451124,-0.345095
-315,596,0.355408,-0.192566,0,0,0,0,0,0,0,-1,909,428,0.355411,0.192552
-308,596,0.254272,-0.716156,0,0,0,0,0,0,0,-1,916,428,0.254297,0.716163
-301,596,2.94299,4.05215,-0.017003,-0.0230378,-0.0293856,0.00951974,-0.0495606,-0.734236,0.0366283,0.0422829,923,428,2.94301,-4.05216
-294,596,2.41412,3.58838,-0.0137611,-0.020718,-0.0259899,0.00898213,-0.0434612,-0.718875,0.0323861,0.0447723,930,428,2.41413,-3.58838
-287,596,1.96399,3.15405,0,0,0,0,0,0,0,-1,937,428,1.96402,-3.15405
-280,596,-0.456604,0.0658875,-0.00693633,-0.0148414,-0.0184937,0.00802255,-0.0298002,-0.680121,0.023012,0.048867,944,428,-0.456589,-0.0658818
-273,596,-0.328125,0.116364,-0.00372589,-0.0125293,-0.0151752,0.00767313,-0.0239283,-0.644243,0.0190327,0.0403882,951,428,-0.328127,-0.11635
-266,596,-0.329163,0.0125427,-0.000693441,-0.0100634,-0.0117094,0.00723349,-0.0179903,-0.595101,0.0149979,0.0366413,958,428,-0.329191,-0.0125568
-259,596,-0.17572,0.0477905,0.00162165,-0.00745678,-0.00854349,0.00675693,-0.0125921,-0.541209,0.0113392,0.0300278,965,428,-0.175724,-0.04778
-252,596,-0.0197144,0.0857544,0.0030314,-0.00508137,-0.0058183,0.00606775,-0.00811772,-0.480984,0.00821844,0.0141619,972,428,-0.0197225,-0.0857426
-245,596,-0.022644,0.0908508,0.0043599,-0.00251416,-0.00337099,0.0057371,-0.00389135,-0.387849,0.00559293,0.010907,979,428,-0.0226661,-0.0908554
-238,596,-0.0261841,0.0911865,0.005022,-0.000676416,-0.00123231,0.00527708,-0.00093149,-0.204107,0.00386613,0.0101678,986,428,-0.0261575,-0.0911848
-231,596,-0.0367432,0.0803833,0.00428262,-0.000186671,-0.000208545,0.00429233,-0.000196381,-0.046527,0.00292921,0.0113427,993,428,-0.0367179,-0.0803913
-224,596,-0.0371094,0.0738525,0.00359695,0.000258948,0.000242836,0.00361452,0.000241374,0.0722422,0.00233339,0.0125866,1000,428,-0.0370996,-0.0738418
-217,596,-0.0390625,0.0610352,0.00297885,0.00068848,0.000475335,0.00307358,0.000593749,0.196716,0.00188261,0.0130226,1007,428,-0.03905,-0.0610302
-210,596,-0.0355225,0.0763245,0.00204313,0.00104754,0.000493465,0.00224627,0.000844399,0.390514,0.00131013,0.0102367,1014,428,-0.0355273,-0.0763101
-203,596,-0.0599976,0.098053,0.00108604,0.00146095,0.000289915,0.00161873,0.000928253,1.07239,0.000937931,0.0130752,1021,428,-0.0600026,-0.0980632
-196,596,-0.0491943,0.0742188,0.000955133,0.00195564,0.000214406,0.00199965,0.000911122,1.36834,0.00115601,0.0128081,1028,428,-0.0492128,-0.0742227
-189,596,-0.0490723,0.0773621,0.000954506,0.00231068,5.20463e-05,0.00231267,0.000952511,1.53249,0.00134212,0.0103154,1035,428,-0.0491144,-0.0773532
-182,596,-0.0482178,0.0785828,0.00101504,0.00253434,-0.000112068,0.00254256,0.00100682,-1.49756,0.0014785,0.01031,1042,428,-0.0482129,-0.0785676
-175,596,-0.0385742,0.0875549,0.00107453,0.00278304,-0.000294864,0.00283249,0.00102507,-1.40461,0.001656,0.0119191,1049,428,-0.0386307,-0.0875648
-168,596,-0.0406494,0.0860596,0.00114433,0.00311873,-0.00024125,0.00314778,0.00111528,-1.45096,0.00184291,0.0142842,1056,428,-0.0406036,-0.0860509
-161,596,-0.0443115,0.0765991,0.00120045,0.0035398,-0.000352671,0.00359181,0.00114844,-1.42437,0.00211818,0.013694,1063,428,-0.0443571,-0.0765997
-154,596,-0.0452881,0.0665588,0.00119888,0.00398081,-0.000455935,0.00405362,0.00112606,-1.41242,0.00241617,0.0118256,1070,428,-0.0452285,-0.0665552
-147,596,-0.0391846,0.0705261,0.00124145,0.004307,-0.00048538,0.00438202,0.00116643,-1.41746,0.00262054,0.012181,1077,428,-0.0392185,-0.070535
-140,596,-0.0378418,0.0769958,0.00124736,0.00470378,-0.000441034,0.00475916,0.00119197,-1.44586,0.0028595,0.0122131,1084,428,-0.0379003,-0.0769894
-133,596,-0.0401611,0.0750122,0.00120243,0.0049229,-0.000383996,0.00496211,0.00116321,-1.46901,0.00299657,0.0125529,1091,428,-0.0401468,-0.075023
-126,596,-0.0439453,0.0952454,0.00123971,0.00504333,-0.000554094,0.0051224,0.00116063,-1.42904,0.00310131,0.0104004,1098,428,-0.0439749,-0.0952373
-119,596,-0.0350342,0.0868835,0.00133509,0.00515291,-0.00087692,0.0053447,0.0011433,-1.35548,0.00324978,0.0127311,1105,428,-0.0350863,-0.0868952
-112,596,-0.0579834,0.0802612,0.00134491,0.0053695,-0.00126278,0.00573291,0.000981507,-1.29059,0.00354041,0.0129519,1112,428,-0.0580129,-0.0802739
-105,596,-0.0411377,0.0813293,0.00126624,0.00524527,-0.0020295,0.00609777,0.000413745,-1.17312,0.00393452,0.013081,1119,428,-0.0410886,-0.0813246
-98,596,-0.0379639,0.0904846,0.00105842,0.00596938,-0.00276134,0.00720909,-0.000181285,-1.14882,0.00486761,0.0093373,1126,428,-0.0380243,-0.0904978
-91,596,-0.0374756,0.091156,0.00109497,0.00664991,-0.0029349,0.00791323,-0.000168351,-1.16432,0.00533249,0.00879366,1133,428,-0.0374503,-0.0911676
-84,596,-0.0297852,0.0629578,0.00128299,0.00686931,-0.00313848,0.00827756,-0.000125255,-1.14902,0.00556059,0.0125738,1140,428,-0.029767,-0.0629527
-77,596,-0.0253906,0.0593872,0.00132129,0.00727907,-0.00347514,0.00887734,-0.00027698,-1.13973,0.00601268,0.0130991,1147,428,-0.0254159,-0.0594015
-70,596,-0.0469971,0.081604,0.00122742,0.00771273,-0.00375028,0.00942783,-0.000487685,-1.14187,0.00645393,0.0133491,1154,428,-0.0470435,-0.0815964
-63,596,-0.0684814,0.10202,0.00102853,0.00832851,-0.00391529,0.0100313,-0.000674228,-1.16057,0.00692321,0.0161738,1161,428,-0.0684496,-0.102028
-56,596,-0.0585938,0.117462,0.000975319,0.00835543,-0.00372042,0.00990541,-0.000574665,-1.17605,0.00680326,0.0172768,1168,428,-0.0585816,-0.117469
-49,596,-0.0529785,0.0873413,0.00174795,0.00919969,-0.00247498,0.0099468,0.00100083,-1.27763,0.00632404,0.0198934,1175,428,-0.053017,-0.0873268
-42,596,-0.0601807,0.0666199,0.00314052,0.00869054,-0.00144129,0.00904251,0.00278855,-1.33128,0.00534697,0.0237424,1182,428,-0.0601719,-0.0666057
-35,596,-0.0617676,0.115265,0.00392804,0.00789254,-0.000826953,0.00805812,0.00376246,-1.37318,0.00465575,0.0287531,1189,428,-0.0617442,-0.115276
-28,596,-0.0556641,0.156891,0.00516427,0.00693343,-0.000548982,0.00708994,0.00500776,-1.29308,0.00420794,0.03636,1196,428,-0.0556901,-0.156887
-21,596,-0.115356,0.148743,0.00603612,0.00516411,-0.000398737,0.00619095,0.00500927,-0.370391,0.00379523,0.0396456,1203,428,-0.115358,-0.148745
-14,596,-0.184937,0.0829468,0.00664546,0.00265007,-0.000675831,0.00675668,0.00253885,-0.163109,0.00394091,0.0447473,1210,428,-0.184982,-0.0829496
-7,596,0.0107422,0.0314331,0.00715045,0.000224576,-0.00135004,0.0074043,-2.92805e-05,-0.185865,0.00494599,0.0498291,1217,428,0.0106877,-0.0314252
0,596,0.396973,0.0856934,0.00717086,-0.00169018,-0.00211754,0.00765089,-0.0021702,-0.222924,0.00595725,0.0458815,1224,428,0.397018,-0.0856921
7,596,0.122925,0.356232,0.00724801,-0.00588634,-0.00368926,0.00821333,-0.00685166,-0.255919,0.00870961,0.0433518,1231,428,0.122966,-0.35622
14,596,-0.142456,0.250519,0.0050803,-0.00605218,-0.0047926,0.00685926,-0.00783114,-0.355426,0.00848769,0.0419454,1238,428,-0.142514,-0.250512
21,596,0.268677,0.28717,0.0028046,-0.00353286,-0.00593104,0.0063603,-0.00708857,-0.540058,0.00776851,0.0418703,1245,428,0.268729,-0.287158
28,596,-2.43408,-0.807953,0,0,0,0,0,0,0,-1,1252,428,-2.43407,0.807964
35,596,-2.58643,-0.870941,0,0,0,0,0,0,0,-1,1259,428,-2.58648,0.870954
42,596,0.209351,-0.148651,-0.00187024,0.00794095,-0.00686912,0.0114763,-0.0054056,-1.09548,0.00995462,0.0419439,1266,428,0.209384,0.148642
49,596,-0.110962,-0.0972595,-0.00190349,0.0138969,-0.00652145,0.0162408,-0.00424743,-1.22575,0.0124862,0.0423735,1273,428,-0.110916,0.0972712
56,596,-0.216187,-0.188721,-0.00166479,0.0189339,-0.00670345,0.0209233,-0.00365417,-1.28231,0.015313,0.0423762,1280,428,-0.216154,0.188708
63,596,0.164917,0.296265,-0.000415848,0.025517,-0.00521757,0.0265274,-0.00142623,-1.37951,0.018179,0.0466042,1287,428,0.164856,-0.29625
70,596,0.251709,0.402435,0.00239217,0.0317096,-0.00266901,0.0319506,0.00215117,-1.48074,0.0206208,0.0476908,1294,428,0.251707,-0.40245
77,596,-1.10083,-0.385376,0.00521088,0.0357583,-0.000597307,0.03577,0.0051992,-1.55125,0.0223164,0.0457365,1301,428,-1.10088,0.385391
84,596,-0.59375,-0.198181,0.00866243,0.0383773,0.00075817,0.0383966,0.00864309,1.5453,0.0232584,0.0449119,1308,428,-0.593758,0.198182
91,596,-0.341064,-0.0697327,0.0118973,0.0397776,0.00188773,0.0399049,0.01177,1.5035,0.0236761,0.0433055,1315,428,-0.34111,0.0697328
98,596,-0.03479,0.06604,0,0,0,0,0,0,0,-1,1322,428,-0.0347414,-0.0660384
105,596,-0.949585,0.252411,0.0150438,0.0377346,0.00140262,0.037821,0.0149574,1.50929,0.0219944,0.0474023,1329,428,-0.949542,-0.252397
112,596,-0.148438,0.00750732,0.014299,0.0374285,0.000788083,0.0374553,0.0142721,1.53678,0.0218279,0.0405524,1336,428,-0.14838,-0.00751972
119,596,0.248169,0.0493164,0.0133024,0.0350013,-9.02979e-05,0.0350017,0.013302,-1.56664,0.0204012,0.0449142,1343,428,0.248139,-0.0493163
126,596,0.220337,0.0959167,0.0112049,0.0322304,-0.000271524,0.0322339,0.0112014,-1.55789,0.0188966,0.0458425,1350,428,0.220334,-0.0959246
133,596,0.180786,0.0873718,0.0077299,0.0300502,0.000227998,0.0300525,0.00772758,1.56058,0.0180202,0.0444035,1357,428,0.180816,-0.0873657
140,596,0.13208,0.109772,0.00505488,0.0284222,-9.18999e-05,0.0284226,0.00505452,-1.56686,0.0175085,0.0415533,1364,428,0.132022,-0.109786
147,596,0.00585938,0.0741577,0.00244136,0.0265128,-6.25166e-05,0.026513,0.0024412,-1.5682,0.0169204,0.0361376,1371,428,0.00579969,-0.0741683
154,596,-0.0994873,0.0402832,-0.000946857,0.0242245,0.000685251,0.0242432,-0.000965498,1.5436,0.0164934,0.0405765,1378,428,-0.0995264,-0.0402921
161,596,-0.0341797,0.0357056,-0.00319886,0.0218563,0.00128379,0.0219219,-0.00326447,1.51974,0.0158155,0.0427696,1385,428,-0.0342228,-0.0357008
168,596,-0.0341797,0.0322571,-0.00411871,0.0194774,0.00171615,0.0196016,-0.00424287,1.49857,0.0146877,0.0373161,1392,428,-0.0341425,-0.0322618
175,596,-0.0721436,0.0505371,-0.00369923,0.0162048,0.0018506,0.0163754,-0.00386982,1.47887,0.0124097,0.025305,1399,428,-0.0721086,-0.0505375
182,596,-0.0532227,0.0378418,-0.00302439,0.0138277,0.00243524,0.0141726,-0.00336924,1.43012,0.0107489,0.0222346,1406,428,-0.0531746,-0.0378526
189,596,-0.0568848,0.0702209,-0.00231315,0.0120778,0.00279402,0.0126012,-0.00283658,1.38561,0.00948873,0.021117,1413,428,-0.0568716,-0.0702174
196,596,-0.0268555,0.121368,-0.00141898,0.00999838,0.00246668,0.0105085,-0.00192911,1.36686,0.00772937,0.0198087,1420,428,-0.0269052,-0.121367
203,596,-0.00878906,0.118195,-0.000594907,0.00812294,0.00216997,0.0086332,-0.00110517,1.33984,0.00615701,0.0129969,1427,428,-0.0088001,-0.11819
210,596,-0.0427246,0.0982361,0.000197635,0.00627358,0.00162648,0.00668158,-0.000210364,1.32502,0.00452614,0.0102602,1434,428,-0.0427293,-0.0982268
217,596,-0.0511475,0.07901,0.00076066,0.00480164,0.000809642,0.00495782,0.000604478,1.38023,0.00312328,0.00947331,1441,428,-0.0511829,-0.079021
224,596,-0.0515137,0.0805054,0.00108298,0.00357787,-0.000272296,0.00360725,0.00105361,-1.46334,0.00214183,0.0103322,1448,428,-0.0515694,-0.0805178
231,596,-0.0415039,0.0890503,0.00108343,0.00297195,-0.00104989,0.00343975,0.000615631,-1.15164,0.00211799,0.0112106,1455,428,-0.0414534,-0.0890506
238,596,-0.0432129,0.0831604,0.00112736,0.00267549,-0.00141773,0.0035167,0.000286143,-1.03528,0.00225515,0.0138533,1462,428,-0.0431536,-0.0831594
245,596,-0.0522461,0.0839233,0.00108981,0.00230964,-0.0016593,0.00346758,-6.81219e-05,-0.96152,0.00233476,0.0127959,1469,428,-0.0522013,-0.0839358
252,596,-0.0600586,0.0930176,0.000873607,0.00210458,-0.00179487,0.00338657,-0.000408378,-0.950572,0.00240542,0.00970942,1476,428,-0.0601059,-0.0930305
259,596,-0.057373,0.0857849,0.000750303,0.00196387,-0.00163159,0.00309785,-0.000383681,-0.963422,0.00220429,0.00787613,1483,428,-0.0574214,-0.0857953
266,596,-0.0614014,0.0702515,0.000542244,0.00167492,-0.00128872,0.00251625,-0.000299087,-0.992425,0.00178557,0.00927631,1490,428,-0.0614577,-0.0702604
273,596,-0.060791,0.0885315,0.000167583,0.00120557,-0.000943751,0.00176362,-0.000390466,-1.03679,0.00132522,0.0117024,1497,428,-0.0607915,-0.0885423
280,596,-0.0603027,0.0861206,0.000228914,0.000895305,-0.000547955,0.00120342,-7.91972e-05,-1.05856,0.000829937,0.0126171,1504,428,-0.0603469,-0.0861096
287,596,-0.0407715,0.0766296,0.000370437,0.000648289,-0.000391779,0.000925045,9.36822e-05,-0.955783,0.000587962,0.0114857,1511,428,-0.0408051,-0.0766367
294,596,-0.0549316,0.07901,0.000323265,0.000334001,-0.000361593,0.000690266,-3.2999e-05,-0.79282,0.000471562,0.00831408,1518,428,-0.0549641,-0.0790187
301,596,-0.0679932,0.0893555,0.000194332,0.000115184,-0.000326995,0.000484139,-0.000174623,-0.725179,0.000394082,0.00890531,1525,428,-0.0680473,-0.089345
308,596,-0.0609131,0.0927429,-0.000107736,-9.62679e-05,-0.00020258,0.000100659,-0.000304664,-0.799547,0.000243693,0.0149936,1532,428,-0.0609479,-0.0927349
315,596,-0.0463867,0.0961609,-0.000472612,-0.000107879,-5.83587e-05,-9.87686e-05,-0.000481722,-1.41594,0.000293812,0.0156576,1539,428,-0.0464304,-0.0961716
322,596,-0.0500488,0.109863,-0.000657523,-0.000209989,-6.97008e-05,-0.000199384,-0.000668127,-1.41981,0.000396055,0.0123295,1546,428,-0.0501069,-0.109855
329,596,-0.0515137,0.0999756,-0.000832843,-0.000330914,-0.000116987,-0.000304987,-0.00085877,-1.3527,0.000502699,0.00951524,1553,428,-0.0515536,-0.0999733
336,596,-0.0599365,0.0731506,-0.000736646,-0.000625828,-0.000456195,-0.00022169,-0.00114078,-0.845832,0.000698454,0.00917831,1560,428,-0.0599482,-0.0731539
343,596,-0.0394287,0.0675354,-0.000501239,-0.000699936,-0.000875466,0.000280497,-0.00148167,-0.728899,0.00109334,0.0109938,1567,428,-0.0394668,-0.0675215
350,596,-0.013916,0.0840454,-0.000320166,-0.000619242,-0.0012746,0.000813641,-0.00175305,-0.727004,0.0015146,0.0110507,1574,428,-0.0138572,-0.0840485
357,596,-0.0252686,0.0834656,-0.000316979,-0.000680099,-0.00141686,0.000929909,-0.00192699,-0.721674,0.00168258,0.00894585,1581,428,-0.0252112,-0.0834705
364,596,-0.0397949,0.0780029,-0.000384478,-0.000571644,-0.00154784,0.0010726,-0.00202873,-0.755205,0.0018187,0.00799427,1588,428,-0.0398298,-0.077994
371,596,-0.0374756,0.0779114,-0.000553796,-0.000916247,-0.00129849,0.000576055,-0.0020461,-0.716063,0.00159123,0.00844613,1595,428,-0.0374968,-0.0779117
378,596,-0.0418701,0.085968,0.000108017,-0.000784692,-0.000856662,0.000627635,-0.00130431,-0.54523,0.00113799,0.0125183,1602,428,-0.0418392,-0.0859664
385,596,-0.053833,0.0808411,0.00130432,-0.00135258,3.15673e-05,0.00130469,-0.00135296,0.011879,0.00153448,0.0224971,1609,428,-0.0538366,-0.0808372
392,596,-0.145264,0.134338,0.00213393,-0.00189317,0.00098652,0.00236262,-0.00212185,0.227784,0.00259035,0.0327369,1616,428,-0.145297,-0.134345
399,596,-0.178101,0.137909,0.00350303,-0.00266689,0.00202359,0.0041075,-0.00327136,0.290274,0.0042693,0.0370581,1623,428,-0.178043,-0.137906
406,596,-0.270264,0.302032,0.00453619,-0.00378574,0.00312897,0.00558139,-0.00483094,0.322384,0.00601676,0.0419962,1630,428,-0.270301,-0.302035
413,596,-0.402466,0.486969,0,0,0,0,0,0,0,-1,1637,428,-0.40246,-0.486963
420,596,-2.0387,1.58502,0,0,0,0,0,0,0,-1,1644,428,-2.03866,-1.58502
427,596,0.413086,-0.021698,0.00693911,-0.010265,0.00476896,0.00817262,-0.0114985,0.253106,0.0114111,0.0428615,1651,428,0.413058,0.0217
434,596,0.237915,0.30542,0.0077021,-0.0136829,0.00368114,0.00831802,-0.0142988,0.165782,0.0132091,0.0427194,1658,428,0.237935,-0.305423
441,596,0.214111,0.543732,0.00770087,-0.0183768,0.00130609,0.00776612,-0.018442,0.0499181,0.0155441,0.0434196,1665,428,0.21411,-0.543727
448,596,0.450928,0.35965,0.00661036,-0.0250693,-0.00210163,0.00674918,-0.0252081,-0.0659547,0.0194495,0.0456545,1672,428,0.450885,-0.359635
455,596,0.787842,0.214264,0,0,0,0,0,0,0,-1,1679,428,0.787836,-0.214251
462,596,0,0,0,0,0,0,0,0,0,-1,1686,428,0,0
469,596,0,0,0,0,0,0,0,0,0,-1,1693,428,0,0
476,596,0,0,0,0,0,0,0,0,0,-1,1700,428,0,0
483,596,0,0,0,0,0,0,0,0,0,-1,1707,428,0,0
490,596,0,0,0,0,0,0,0,0,0,-1,1714,428,0,0
497,596,0,0,0,0,0,0,0,0,0,-1,1721,428,0,0
504,596,0,0,0,0,0,0,0,0,0,-1,1728,428,0,0
511,596,0,0,0,0,0,0,0,0,0,-1,1735,428,0,0
518,596,0,0,0,0,0,0,0,0,0,-1,1742,428,0,0
525,596,0,0,0,0,0,0,0,0,0,-1,1749,428,0,0
532,596,0,0,0,0,0,0,0,0,0,-1,1756,428,0,0
539,596,0,0,0,0,0,0,0,0,0,-1,1763,428,0,0
546,596,0,0,0,0,0,0,0,0,0,-1,1770,428,0,0
553,596,0,0,0,0,0,0,0,0,0,-1,1777,428,0,0
560,596,0,0,0,0,0,0,0,0,0,-1,1784,428,0,0
567,596,0,0,0,0,0,0,0,0,0,-1,1791,428,0,0
574,596,0,0,0,0,0,0,0,0,0,-1,1798,428,0,0
581,596,0,0,0,0,0,0,0,0,0,-1,1805,428,0,0
588,596,0,0,0,0,0,0,0,0,0,-1,1812,428,0,0
595,596,0,0,0,0,0,0,0,0,0,-1,1819,428,0,0
602,596,0,0,0,0,0,0,0,0,0,-1,1826,428,0,0
609,596,0,0,0,0,0,0,0,0,0,-1,1833,428,0,0
616,596,0,0,0,0,0,0,0,0,0,-1,1840,428,0,0
623,596,0,0,0,0,0,0,0,0,0,-1,1847,428,0,0
630,596,0,0,0,0,0,0,0,0,0,-1,1854,428,0,0
637,596,0,0,0,0,0,0,0,0,0,-1,1861,428,0,0
644,596,0,0,0,0,0,0,0,0,0,-1,1868,428,0,0
651,596,0,0,0,0,0,0,0,0,0,-1,1875,428,0,0
658,596,0,0,0,0,0,0,0,0,0,-1,1882,428,0,0
665,596,0,0,0,0,0,0,0,0,0,-1,1889,428,0,0
672,596,0,0,0,0,0,0,0,0,0,-1,1896,428,0,0
679,596,0,0,0,0,0,0,0,0,0,-1,1903,428,0,0
686,596,0,0,0,0,0,0,0,0,0,-1,1910,428,0,0
693,596,0,0,0,0,0,0,0,0,0,-1,1917,428,0,0
700,596,0,0,0,0,0,0,0,0,0,-1,1924,428,0,0
707,596,0,0,0,0,0,0,0,0,0,-1,1931,428,0,0
714,596,0,0,0,0,0,0,0,0,0,-1,1938,428,0,0
721,596,0,0,0,0,0,0,0,0,0,-1,1945,428,0,0
728,596,0,0,0,0,0,0,0,0,0,-1,1952,428,0,0
735,596,0,0,0,0,0,0,0,0,0,-1,1959,428,0,0
742,596,0,0,0,0,0,0,0,0,0,-1,1966,428,0,0
749,596,0,0,0,0,0,0,0,0,0,-1,1973,428,0,0
756,596,0,0,0,0,0,0,0,0,0,-1,1980,428,0,0
763,596,0,0,0,0,0,0,0,0,0,-1,1987,428,0,0
770,596,0,0,0,0,0,0,0,0,0,-1,1994,428,0,0
777,596,0,0,0,0,0,0,0,0,0,-1,2001,428,0,0
784,596,0,0,0,0,0,0,0,0,0,-1,2008,428,0,0
791,596,0,0,0,0,0,0,0,0,0,-1,2015,428,0,0
798,596,0,0,0,0,0,0,0,0,0,-1,2022,428,0,0
805,596,0,0,0,0,0,0,0,0,0,-1,2029,428,0,0
812,596,0,0,0,0,0,0,0,0,0,-1,2036,428,0,0
-700,589,0,0,0,0,0,0,0,0,0,-1,524,435,0,0
-693,589,0,0,0,0,0,0,0,0,0,-1,531,435,0,0
-686,589,0,0,0,0,0,0,0,0,0,-1,538,435,0,0
-679,589,0,0,0,0,0,0,0,0,0,-1,545,435,0,0
-672,589,0,0,0,0,0,0,0,0,0,-1,552,435,0,0
-665,589,0,0,0,0,0,0,0,0,0,-1,559,435,0,0
-658,589,0,0,0,0,0,0,0,0,0,-1,566,435,0,0
-651,589,0,0,0,0,0,0,0,0,0,-1,573,435,0,0
-644,589,0,0,0,0,0,0,0,0,0,-1,580,435,0,0
-637,589,0,0,0,0,0,0,0,0,0,-1,587,435,0,0
-630,589,0,0,0,0,0,0,0,0,0,-1,594,435,0,0
-623,589,0,0,0,0,0,0,0,0,0,-1,601,435,0,0
-616,589,0,0,0,0,0,0,0,0,0,-1,608,435,0,0
-609,589,0,0,0,0,0,0,0,0,0,-1,615,435,0,0
-602,589,0,0,0,0,0,0,0,0,0,-1,622,435,0,0
-595,589,0,0,0,0,0,0,0,0,0,-1,629,435,0,0
-588,589,0,0,0,0,0,0,0,0,0,-1,636,435,0,0
-581,589,0,0,0,0,0,0,0,0,0,-1,643,435,0,0
-574,589,0,0,0,0,0,0,0,0,0,-1,650,435,0,0
-567,589,0,0,0,0,0,0,0,0,0,-1,657,435,0,0
-560,589,0,0,0,0,0,0,0,0,0,-1,664,435,0,0
-553,589,0,0,0,0,0,0,0,0,0,-1,671,435,0,0
-546,589,0,0,0,0,0,0,0,0,0,-1,678,435,0,0
-539,589,0,0,0,0,0,0,0,0,0,-1,685,435,0,0
-532,589,0,0,0,0,0,0,0,0,0,-1,692,435,0,0
-525,589,0,0,0,0,0,0,0,0,0,-1,699,435,0,0
-518,589,0,0,0,0,0,0,0,0,0,-1,706,435,0,0
-511,589,0,0,0,0,0,0,0,0,0,-1,713,435,0,0
-504,589,0,0,0,0,0,0,0,0,0,-1,720,435,0,0
-497,589,0,0,0,0,0,0,0,0,0,-1,727,435,0,0
-490,589,0,0,0,0,0,0,0,0,0,-1,734,435,0,0
-483,589,0,0,0,0,0,0,0,0,0,-1,741,435,0,0
-476,589,0,0,0,0,0,0,0,0,0,-1,748,435,0,0
-469,589,0,0,0,0,0,0,0,0,0,-1,755,435,0,0
-462,589,0,0,0,0,0,0,0,0,0,-1,762,435,0,0
-455,589,0,0,0,0,0,0,0,0,0,-1,769,435,0,0
-448,589,0,0,0,0,0,0,0,0,0,-1,776,435,0,0
-441,589,0,0,0,0,0,0,0,0,0,-1,783,435,0,0
-434,589,0,0,0,0,0,0,0,0,0,-1,790,435,0,0
-427,589,0,0,0,0,0,0,0,0,0,-1,797,435,0,0
-420,589,0,0,0,0,0,0,0,0,0,-1,804,435,0,0
-413,589,0,0,0,0,0,0,0,0,0,-1,811,435,0,0
-406,589,0,0,0,0,0,0,0,0,0,-1,818,435,0,0
-399,589,0,0,0,0,0,0,0,0,0,-1,825,435,0,0
-392,589,0,0,0,0,0,0,0,0,0,-1,832,435,0,0
-385,589,0,0,0,0,0,0,0,0,0,-1,839,435,0,0
-378,589,0,0,0,0,0,0,0,0,0,-1,846,435,0,0
-371,589,0,0,0,0,0,0,0,0,0,-1,853,435,0,0
-364,589,0,0,0,0,0,0,0,0,0,-1,860,435,0,0
-357,589,0,0,0,0,0,0,0,0,0,-1,867,435,0,0
-350,589,-1.89771,0.335236,0,0,0,0,0,0,0,-1,874,435,-1.89773,-0.335225
-343,589,-0.24176,0.275421,0,0,0,0,0,0,0,-1,881,435,-0.241774,-0.275427
-336,589,1.15222,0.932983,0,0,0,0,0,0,0,-1,888,435,1.15223,-0.932988
-329,589,0.233398,0.680023,0,0,0,0,0,0,0,-1,895,435,0.233428,-0.680012
-322,589,0.399597,0.355621,0,0,0,0,0,0,0,-1,902,435,0.399577,-0.355626
-315,589,0.364441,0.344269,0,0,0,0,0,0,0,-1,909,435,0.36443,-0.344263
-308,589,3.87854,5.73694,0,0,0,0,0,0,0,-1,916,435,3.87853,-5.73695
-301,589,3.44037,5.00479,-0.0122181,-0.0172147,-0.024546,0.00995637,-0.0393892,-0.734682,0.0301316,0.0459063,923,435,3.4404,-5.00479
-294,589,2.81049,4.33908,-0.0100346,-0.0156078,-0.0218342,0.00919008,-0.0348325,-0.721928,0.0268152,0.0491818,930,435,2.81048,-4.33907
-287,589,-0.294678,0.0867004,-0.00766908,-0.0139376,-0.0189327,0.008387,-0.0299937,-0.703368,0.0233002,0.0407839,937,435,-0.294677,-0.0867044
-280,589,-0.0951538,0.0463867,-0.00521739,-0.0114401,-0.0158002,0.00777492,-0.0244324,-0.688183,0.0194062,0.0313549,944,435,-0.0951719,-0.0463737
-273,589,-0.0458984,0.0446472,-0.00283629,-0.00985869,-0.0130901,0.00720532,-0.0199003,-0.654366,0.0162115,0.0186062,951,435,-0.0459257,-0.0446402
-266,589,-0.0548096,0.067749,-0.000520646,-0.00804951,-0.0102296,0.00661515,-0.0151853,-0.60909,0.0129066,0.01545,958,435,-0.0548219,-0.0677624
-259,589,-0.0455933,0.0877686,0.00130164,-0.00609232,-0.00760064,0.00605673,-0.0108474,-0.559042,0.00988938,0.012748,965,435,-0.0455639,-0.0877683
-252,589,-0.0288086,0.0968628,0.0024648,-0.0042751,-0.00531694,0.00538981,-0.00720011,-0.502942,0.0072938,0.00858364,972,435,-0.0287935,-0.0968521
-245,589,-0.0227661,0.0980835,0.00364381,-0.00212038,-0.00319933,0.00506777,-0.00354435,-0.418758,0.00499807,0.00942788,979,435,-0.022742,-0.0980987
-238,589,-0.0200806,0.0523071,0.00424163,-0.000606454,-0.0013274,0.00458128,-0.000946102,-0.250499,0.00341354,0.0126042,986,435,-0.0200919,-0.0523132
-231,589,-0.0306396,0.0786743,0.00364317,-0.000254521,-0.000456758,0.00369598,-0.000307331,-0.115109,0.00257256,0.0131316,993,435,-0.0306337,-0.0786861
-224,589,-0.0314331,0.0749512,0.00304762,0.000129205,-0.000190595,0.00306001,0.000116811,-0.0649401,0.00200221,0.01291,1000,435,-0.0314038,-0.0749603
-217,589,-0.0222778,0.0491638,0.00251374,0.00057649,-8.97394e-05,0.00251788,0.000572342,-0.0461913,0.00152406,0.0135999,1007,435,-0.022251,-0.0491718
-210,589,-0.0356445,0.0632019,0.00173859,0.000963463,-0.000101969,0.00175178,0.000950273,-0.128636,0.00101261,0.0127503,1014,435,-0.0356143,-0.0631882
-203,589,-0.0456543,0.0857544,0.000994947,0.00143716,-0.000337068,0.00161917,0.000812937,-1.07568,0.000934832,0.00978727,1021,435,-0.0456595,-0.0857466
-196,589,-0.0452881,0.0905762,0.000852542,0.00202284,-0.00054797,0.00223935,0.000636023,-1.1945,0.00133249,0.0115116,1028,435,-0.045235,-0.0905806
-189,589,-0.0585938,0.0843506,0.000809817,0.0027007,-0.000719576,0.00294338,0.00056713,-1.24551,0.00180319,0.0144539,1035,435,-0.0585461,-0.0843601
-182,589,-0.0478516,0.0911865,0.00091679,0.00327255,-0.000811953,0.00352529,0.000664052,-1.26903,0.00216309,0.0108486,1042,435,-0.0478579,-0.0911842
-175,589,-0.0350342,0.116699,0.000980694,0.00388381,-0.000866189,0.00412261,0.000741896,-1.30179,0.00253752,0.0136372,1049,435,-0.0350237,-0.116704
-168,589,-0.0100098,0.0996704,0.00107572,0.00459764,-0.000688598,0.00472749,0.000945872,-1.38442,0.00288846,0.0119615,1056,435,-0.00996254,-0.0996622
-161,589,-0.0220947,0.0808105,0.00116523,0.00536,-0.000629055,0.0054523,0.00107293,-1.4251,0.00333525,0.011207,1063,435,-0.0220864,-0.0808016
-154,589,-0.0395508,0.0843506,0.00117037,0.00610653,-0.00053877,0.00616465,0.00111225,-1.46333,0.00379376,0.0109816,1070,435,-0.0395638,-0.0843446
-147,589,-0.0356445,0.0767822,0.0012553,0.00671469,-0.000351795,0.00673727,0.00123273,-1.50671,0.0041422,0.0113731,1077,435,-0.0356039,-0.0767772
-140,589,-0.0340576,0.0649109,0.00134004,0.00723168,-0.000165403,0.00723632,0.0013354,-1.54275,0.00444643,0.012499,1084,435,-0.0341139,-0.0649051
-133,589,-0.0291748,0.0775146,0.00139734,0.00754889,4.87256e-06,0.0075489,0.00139733,1.57,0.00463753,0.0122649,1091,435,-0.0291371,-0.0775118
-126,589,-0.024292,0.0738525,0.00153636,0.00770153,-0.000137343,0.00770458,0.0015333,-1.54853,0.00470924,0.0103213,1098,435,-0.0242592,-0.0738472
-119,589,-0.0336914,0.0698547,0.00173655,0.00775163,-0.000497352,0.00779248,0.0016957,-1.48885,0.00473213,0.0152722,1105,435,-0.0336877,-0.0698415
-112,589,-0.0517578,0.084259,0.00187572,0.00788306,-0.00104469,0.00805955,0.00169923,-1.40344,0.00490572,0.0151051,1112,435,-0.0517074,-0.0842541
-105,589,-0.0249023,0.09021,0.00190666,0.00753539,-0.00213916,0.00825609,0.00118597,-1.24583,0.00515442,0.0152397,1119,435,-0.0248665,-0.0902072
-98,589,-0.0131836,0.091217,0.0017095,0.00806104,-0.00316863,0.00937144,0.000399096,-1.17866,0.00611893,0.0167359,1126,435,-0.0132343,-0.0912044
-91,589,0.0155029,0.107574,0.00185012,0.00850338,-0.00354276,0.0100365,0.000316951,-1.16237,0.00658792,0.0199553,1133,435,0.0155147,-0.107569
-84,589,0.0466309,0.154388,0.00211313,0.00829861,-0.00405487,0.0103056,0.000106165,-1.1112,0.00683527,0.0263992,1140,435,0.0466734,-0.154402
-77,589,0.0356445,0.155243,0.00207416,0.0085466,-0.00467006,0.0109922,-0.000371398,-1.08839,0.00745499,0.0309803,1147,435,0.03562,-0.155247
-70,589,0.0528564,0.172943,0.00188927,0.00879461,-0.00522306,0.011603,-0.000919155,-1.07745,0.00805923,0.0374783,1154,435,0.0528101,-0.172935
-63,589,0.00292969,0.143555,0.00155943,0.00923545,-0.00559864,0.0121853,-0.00139042,-1.08587,0.00862445,0.0382374,1161,435,0.0029176,-0.143545
-56,589,-0.15271,-0.11615,0.00130324,0.00904698,-0.00550385,0.0119044,-0.00155421,-1.09193,0.00850184,0.0359492,1168,435,-0.152687,0.116139
-49,589,-0.171631,-0.412476,0.00233364,0.0101987,-0.00381656,0.0117462,0.000786121,-1.18558,0.00758238,0.03642,1175,435,-0.171589,0.412486
-42,589,-0.253296,-0.417816,0.00451955,0.00959243,-0.00230885,0.0104859,0.00362608,-1.20157,0.00614925,0.0371604,1182,435,-0.253349,0.417826
-35,589,0.0722656,0.322723,0.00574228,0.00870032,-0.00132709,0.00920842,0.00523417,-1.20514,0.00533305,0.0413496,1189,435,0.0722273,-0.322729
-28,589,0.000732422,0.237152,0.00759118,0.007704,-0.000673288,0.00832324,0.00697194,-0.82719,0.00515774,0.0425993,1196,435,0.000777837,-0.237152
-21,589,-0.0744629,0.0473633,0.00903882,0.00572715,-8.92684e-05,0.00904122,0.00572475,-0.0269297,0.00528132,0.0410367,1203,435,-0.0744103,-0.0473648
-14,589,-0.296997,-0.465912,0.0101842,0.00286538,-3.86303e-06,0.0101842,0.00286538,-0.000527823,0.00606433,0.0436764,1210,435,-0.297046,0.465912
-7,589,-0.53064,-0.966827,0,0,0,0,0,0,0,-1,1217,435,-0.530638,0.966814
0,589,0.77356,0.103241,0,0,0,0,0,0,0,-1,1224,435,0.773502,-0.103232
7,589,0.0708008,1.03351,0,0,0,0,0,0,0,-1,1231,435,0.0707641,-1.03351
14,589,-0.178101,0.373962,0,0,0,0,0,0,0,-1,1238,435,-0.178046,-0.373958
21,589,-1.56165,-0.447327,0,0,0,0,0,0,0,-1,1245,435,-1.56161,0.447322
28,589,-1.69604,-0.512177,0.00503691,-0.00138074,-0.00777194,0.0102364,-0.00658023,-0.589621,0.00978527,0.0484795,1252,435,-1.69599,0.512185
35,589,-1.84229,-0.575317,0.00255188,0.00313648,-0.00808133,0.0109308,-0.00524243,-0.803475,0.00952819,0.0485087,1259,435,-1.84234,0.575321
42,589,-1.96838,-0.612244,0,0,0,0,0,0,0,-1,1266,435,-1.96844,0.612246
49,589,-0.159546,-0.273376,0.000373935,0.0155833,-0.00792143,0.0189596,-0.00300228,-1.1679,0.0137502,0.0475282,1273,435,-0.159503,0.273388
56,589,-0.585938,-0.457764,-0.000193125,0.0213632,-0.0091064,0.0246952,-0.00352507,-1.22004,0.0177555,0.0450117,1280,435,-0.585989,0.457765
63,589,0.185059,0.437073,0.000183813,0.029818,-0.00773652,0.0317161,-0.00171436,-1.3302,0.0217381,0.0482847,1287,435,0.185089,-0.437059
70,589,0.316895,0.503754,0.00337757,0.0379094,-0.00469841,0.0385372,0.00274971,-1.43795,0.0248257,0.0480185,1294,435,0.316932,-0.503747
77,589,-0.81543,-0.449738,0,0,0,0,0,0,0,-1,1301,435,-0.815463,0.449737
84,589,-1.11804,0.0145264,0.0106989,0.0475157,-0.000277175,0.0475178,0.0106968,-1.56327,0.0287833,0.0403736,1308,435,-1.1181,-0.0145162
91,589,-2.86792,-0.066803,0.0144659,0.0499208,0.00131945,0.0499698,0.0144168,1.53365,0.0296979,0.044748,1315,435,-2.86788,0.0668181
98,589,-1.73279,0.0522156,0,0,0,0,0,0,0,-1,1322,435,-1.73277,-0.0522275
105,589,-0.933594,-0.043457,0.0177694,0.0484613,0.00142546,0.0485274,0.0177034,1.52449,0.0283566,0.0458774,1329,435,-0.933653,0.0434618
112,589,0.032959,-0.241302,0.0166039,0.0484863,0.00100193,0.0485177,0.0165725,1.53941,0.0284766,0.0407764,1336,435,0.0330101,0.241314
119,589,0.839478,-0.498962,0,0,0,0,0,0,0,-1,1343,435,0.839508,0.498951
126,589,0.0228271,0.874847,0.0123469,0.0427035,0.000513251,0.0427121,0.0123382,1.5539,0.0253821,0.0465399,1350,435,0.0228426,-0.874861
133,589,0.223999,0.586884,0.00824612,0.0399989,0.0015043,0.04007,0.00817502,1.52356,0.0244483,0.0469637,1357,435,0.224033,-0.586872
140,589,0.230591,0.141693,0,0,0,0,0,0,0,-1,1364,435,0.230545,-0.141679
147,589,0.514282,0.0232544,0.00229343,0.0349787,0.00163318,0.0350601,0.00221203,1.52099,0.0226721,0.0432128,1371,435,0.51433,-0.0232421
154,589,0.305176,-0.391479,-0.0017425,0.0316818,0.00251503,0.03187,-0.00193069,1.49611,0.0219186,0.0413682,1378,435,0.305216,0.391464
161,589,-0.134033,-0.497864,-0.00423624,0.0283218,0.00313445,0.0286208,-0.00453526,1.47569,0.0207581,0.0421363,1385,435,-0.134059,0.497865
168,589,-0.136597,-0.431824,-0.00519499,0.0250418,0.00338709,0.0254166,-0.00556976,1.4606,0.019074,0.0386085,1392,435,-0.136557,0.431809
175,589,-0.00756836,-0.0354309,-0.00465061,0.0205959,0.00334451,0.0210314,-0.00508616,1.4413,0.0159883,0.0409067,1399,435,-0.00753694,0.0354207
182,589,-0.0114746,0.0793457,-0.00375565,0.0173535,0.00388253,0.018045,-0.0044471,1.39455,0.0137541,0.0402706,1406,435,-0.0114246,-0.0793437
189,589,-0.0958252,0.083374,-0.00278724,0.0151319,0.00407113,0.0160134,-0.00366881,1.35755,0.0120856,0.0408869,1413,435,-0.0958075,-0.0833875
196,589,-0.0551758,0.126434,-0.00165058,0.012594,0.00342182,0.0133734,-0.00242992,1.34686,0.00982622,0.0384849,1420,435,-0.0551543,-0.126426
203,589,-0.0501709,0.167328,-0.000864439,0.0104587,0.00266929,0.0110564,-0.00146214,1.35051,0.00790353,0.0320428,1427,435,-0.0501824,-0.167339
210,589,-0.10437,0.168518,-8.6673e-05,0.00824803,0.00157704,0.00853645,-0.000375091,1.38991,0.00582003,0.0234554,1434,435,-0.104401,-0.168529
217,589,-0.0837402,0.137512,0.000482599,0.00657969,0.000216416,0.00658736,0.000474927,1.53536,0.00424213,0.0196059,1441,435,-0.0837403,-0.137499
224,589,-0.0814209,0.0835266,0.000739368,0.00503481,-0.00146658,0.00548777,0.000286404,-1.27123,0.00356688,0.0169395,1448,435,-0.0814603,-0.0835216
231,589,-0.0626221,0.0585938,0.000540463,0.00418721,-0.00271614,0.00563525,-0.000907568,-1.081,0.00409303,0.0145496,1455,435,-0.0626581,-0.0585917
238,589,-0.0556641,0.0624084,0.00042789,0.00374108,-0.00338918,0.00585687,-0.00168789,-1.01272,0.00457227,0.0154673,1462,435,-0.0556598,-0.0624095
245,589,-0.0667725,0.110107,0.00029942,0.0031481,-0.00386062,0.00583874,-0.00239123,-0.962122,0.00488856,0.0155402,1469,435,-0.0667848,-0.110108
252,589,-0.0626221,0.10907,-5.75791e-05,0.00279649,-0.00416903,0.00577596,-0.00303705,-0.950294,0.00516945,0.011519,1476,435,-0.0625696,-0.10906
259,589,-0.0489502,0.0841675,-0.000253673,0.00255709,-0.00398238,0.00537479,-0.00307138,-0.955026,0.00493647,0.00839045,1483,435,-0.0489317,-0.0841589
266,589,-0.0501709,0.0898743,-0.000513186,0.00214909,-0.00342031,0.00448817,-0.00285226,-0.970973,0.00427294,0.00911657,1490,435,-0.0502312,-0.0898815
273,589,-0.0474854,0.0928345,-0.000883338,0.00159385,-0.00286914,0.00348033,-0.00276981,-0.989162,0.00361628,0.0116707,1497,435,-0.0475296,-0.0928352
280,589,-0.0397949,0.0759888,-0.000692628,0.00136309,-0.00223841,0.00279835,-0.00212789,-1.00063,0.00285293,0.0123852,1504,435,-0.039788,-0.0759853
287,589,-0.0284424,0.0578613,-0.000385826,0.00107593,-0.00185797,0.0023416,-0.0016515,-0.972789,0.00231687,0.0109094,1511,435,-0.0284841,-0.0578545
294,589,-0.0413818,0.0729065,-0.000264179,0.000792064,-0.00160358,0.00195225,-0.00142436,-0.944474,0.00195741,0.00876633,1518,435,-0.0413289,-0.0729204
301,589,-0.0446777,0.0824585,-0.000270127,0.000635483,-0.00139714,0.00165136,-0.00128601,-0.942104,0.00170026,0.00908839,1525,435,-0.0446488,-0.0824623
308,589,-0.0405273,0.0895996,-0.000363532,0.000436597,-0.00107863,0.00118696,-0.0011139,-0.962985,0.00132862,0.00983826,1532,435,-0.0405013,-0.0896
315,589,-0.0455322,0.0920715,-0.000637431,0.00046113,-0.000775448,0.000862128,-0.00103843,-1.09355,0.00109886,0.0101081,1539,435,-0.0455742,-0.0920839
322,589,-0.0430908,0.0886536,-0.000795915,0.000314912,-0.000633314,0.000601859,-0.00108286,-1.14538,0.0009858,0.0106687,1546,435,-0.0430645,-0.0886404
329,589,-0.0441895,0.0979614,-0.000885636,0.000159085,-0.000546202,0.0003925,-0.00111905,-1.16694,0.000905676,0.0096153,1553,435,-0.0441525,-0.0979484
336,589,-0.0457764,0.0796204,-0.000679049,-0.00024517,-0.000775385,0.000343052,-0.00126727,-0.921802,0.000979433,0.00929331,1560,435,-0.0458153,-0.0796316
343,589,-0.0534668,0.0671082,-0.00042621,-0.000475111,-0.00107929,0.000628904,-0.00153022,-0.774073,0.00128227,0.0104512,1567,435,-0.0535116,-0.0671134
350,589,-0.0594482,0.0829773,-0.000256544,-0.000471337,-0.00130076,0.000941242,-0.00166912,-0.744209,0.0015265,0.0154064,1574,435,-0.0594986,-0.0829838
357,589,-0.0598145,0.0879517,-0.000217154,-0.000617606,-0.0012637,0.000862079,-0.00169684,-0.706829,0.00150337,0.01297,1581,435,-0.0598743,-0.0879567
364,589,-0.0330811,0.0895081,-0.000253919,-0.000634099,-0.00123368,0.000804228,-0.00169225,-0.708957,0.00147142,0.0103285,1588,435,-0.0330578,-0.0895044
371,589,-0.0170898,0.0912781,-0.000415468,-0.00100158,-0.000918634,0.000255722,-0.00167277,-0.630994,0.00120947,0.0103561,1595,435,-0.017108,-0.091278
378,589,-0.0371094,0.0851746,5.05846e-05,-0.000827486,-0.000451696,0.000241455,-0.00101836,-0.399805,0.000772079,0.0110935,1602,435,-0.0371416,-0.0851761
385,589,-0.0413818,0.076355,0.000923219,-0.00122813,0.000414357,0.00100027,-0.00130518,0.183844,0.00133492,0.0127136,1609,435,-0.0414029,-0.0763433
392,589,-0.0537109,0.0803528,0.00145612,-0.00136148,0.0012803,0.00195097,-0.00185633,0.368823,0.00219837,0.0141204,1616,435,-0.0537632,-0.0803377
399,589,-0.0944824,0.0917969,0.00234934,-0.00179484,0.00213963,0.00325576,-0.00270127,0.400716,0.00344426,0.0177391,1623,435,-0.0944243,-0.0918049
406,589,-0.128906,0.158386,0.00293613,-0.00252439,0.00302387,0.00427995,-0.0038682,0.41819,0.00470634,0.0327812,1630,435,-0.128847,-0.158373
413,589,0.0703125,0.239288,0.003513,-0.00368296,0.00379177,0.00514216,-0.00531212,0.405808,0.00603605,0.0389436,1637,435,0.0703306,-0.239301
420,589,0.275635,-0.013855,0.00378873,-0.00539544,0.00418984,0.00541291,-0.00701963,0.369813,0.00719789,0.0413856,1644,435,0.27566,0.0138409
427,589,0.333374,0.00146484,0.00374007,-0.00696249,0.00378385,0.0049427,-0.00816512,0.307735,0.00764365,0.0434093,1651,435,0.333372,-0.00145539
434,589,0.237915,0.248566,0.0038131,-0.00947779,0.00243204,0.00424415,-0.00990884,0.175415,0.00838656,0.0423386,1658,435,0.237948,-0.248551
441,589,0.243774,0.5401,0.00321499,-0.0131814,-3.21634e-05,0.00321505,-0.0131815,-0.0019616,0.0100326,0.0422571,1665,435,0.243795,-0.540108
448,589,0.0478516,0.46524,0.00194218,-0.0186597,-0.00313322,0.00240816,-0.0191257,-0.147638,0.0136243,0.0465369,1672,435,0.047862,-0.465252
455,589,-0.0821533,-0.197205,0.000391391,-0.0238021,-0.00669448,0.00212025,-0.0255309,-0.25273,0.0177696,0.0454593,1679,435,-0.0821063,0.197215
462,589,-0.351929,-0.324921,-0.00118635,-0.0301576,-0.0119333,0.00309601,-0.03444,-0.344544,0.0240585,0.0420878,1686,435,-0.351899,0.324906
469,589,-0.80542,-0.237152,-0.00213545,-0.0382943,-0.0171755,0.00472233,-0.0451521,-0.379882,0.0317926,0.0441859,1693,435,-0.805423,0.237148
476,589,0,0,0,0,0,0,0,0,0,-1,1700,435,0,0
483,589,0,0,0,0,0,0,0,0,0,-1,1707,435,0,0
490,589,0,0,0,0,0,0,0,0,0,-1,1714,435,0,0
497,589,0,0,0,0,0,0,0,0,0,-1,1721,435,0,0
504,589,0,0,0,0,0,0,0,0,0,-1,1728,435,0,0
511,589,0,0,0,0,0,0,0,0,0,-1,1735,435,0,0
518,589,0,0,0,0,0,0,0,0,0,-1,1742,435,0,0
525,589,0,0,0,0,0,0,0,0,0,-1,1749,435,0,0
532,589,0,0,0,0,0,0,0,0,0,-1,1756,435,0,0
539,589,0,0,0,0,0,0,0,0,0,-1,1763,435,0,0
546,589,0,0,0,0,0,0,0,0,0,-1,1770,435,0,0
553,589,0,0,0,0,0,0,0,0,0,-1,1777,435,0,0
560,589,0,0,0,0,0,0,0,0,0,-1,1784,435,0,0
567,589,0,0,0,0,0,0,0,0,0,-1,1791,435,0,0
574,589,0,0,0,0,0,0,0,0,0,-1,1798,435,0,0
581,589,0,0,0,0,0,0,0,0,0,-1,1805,435,0,0
588,589,0,0,0,0,0,0,0,0,0,-1,1812,435,0,0
595,589,0,0,0,0,0,0,0,0,0,-1,1819,435,0,0
602,589,0,0,0,0,0,0,0,0,0,-1,1826,435,0,0
609,589,0,0,0,0,0,0,0,0,0,-1,1833,435,0,0
616,589,0,0,0,0,0,0,0,0,0,-1,1840,435,0,0
623,589,0,0,0,0,0,0,0,0,0,-1,1847,435,0,0
630,589,0,0,0,0,0,0,0,0,0,-1,1854,435,0,0
637,589,0,0,0,0,0,0,0,0,0,-1,1861,435,0,0
644,589,0,0,0,0,0,0,0,0,0,-1,1868,435,0,0
651,589,0,0,0,0,0,0,0,0,0,-1,1875,435,0,0
658,589,0,0,0,0,0,0,0,0,0,-1,1882,435,0,0
665,589,0,0,0,0,0,0,0,0,0,-1,1889,435,0,0
672,589,0,0,0,0,0,0,0,0,0,-1,1896,435,0,0
679,589,0,0,0,0,0,0,0,0,0,-1,1903,435,0,0
686,589,0,0,0,0,0,0,0,0,0,-1,1910,435,0,0
693,589,0,0,0,0,0,0,0,0,0,-1,1917,435,0,0
700,589,0,0,0,0,0,0,0,0,0,-1,1924,435,0,0
707,589,0,0,0,0,0,0,0,0,0,-1,1931,435,0,0
714,589,0,0,0,0,0,0,0,0,0,-1,1938,435,0,0
721,589,0,0,0,0,0,0,0,0,0,-1,1945,435,0,0
728,589,0,0,0,0,0,0,0,0,0,-1,1952,435,0,0
735,589,0,0,0,0,0,0,0,0,0,-1,1959,435,0,0
742,589,0,0,0,0,0,0,0,0,0,-1,1966,435,0,0
749,589,0,0,0,0,0,0,0,0,0,-1,1973,435,0,0
756,589,0,0,0,0,0,0,0,0,0,-1,1980,435,0,0
763,589,0,0,0,0,0,0,0,0,0,-1,1987,435,0,0
770,589,0,0,0,0,0,0,0,0,0,-1,1994,435,0,0
777,589,0,0,0,0,0,0,0,0,0,-1,2001,435,0,0
784,589,0,0,0,0,0,0,0,0,0,-1,2008,435,0,0
791,589,0,0,0,0,0,0,0,0,0,-1,2015,435,0,0
798,589,0,0,0,0,0,0,0,0,0,-1,2022,435,0,0
805,589,0,0,0,0,0,0,0,0,0,-1,2029,435,0,0
812,589,0,0,0,0,0,0,0,0,0,-1,2036,435,0,0
-700,582,0,0,0,0,0,0,0,0,0,-1,524,442,0,0
-693,582,0,0,0,0,0,0,0,0,0,-1,531,442,0,0
-686,582,0,0,0,0,0,0,0,0,0,-1,538,442,0,0
-679,582,0,0,0,0,0,0,0,0,0,-1,545,442,0,0
-672,582,0,0,0,0,0,0,0,0,0,-1,552,442,0,0
-665,582,0,0,0,0,0,0,0,0,0,-1,559,442,0,0
-658,582,0,0,0,0,0,0,0,0,0,-1,566,442,0,0
-651,582,0,0,0,0,0,0,0,0,0,-1,573,442,0,0
-644,582,0,0,0,0,0,0,0,0,0,-1,580,442,0,0
-637,582,0,0,0,0,0,0,0,0,0,-1,587,442,0,0
-630,582,0,0,0,0,0,0,0,0,0,-1,594,442,0,0
-623,582,0,0,0,0,0,0,0,0,0,-1,601,442,0,0
-616,582,0,0,0,0,0,0,0,0,0,-1,608,442,0,0
-609,582,0,0,0,0,0,0,0,0,0,-1,615,442,0,0
-602,582,0,0,0,0,0,0,0,0,0,-1,622,442,0,0
-595,582,0,0,0,0,0,0,0,0,0,-1,629,442,0,0
-588,582,0,0,0,0,0,0,0,0,0,-1,636,442,0,0
-581,582,0,0,0,0,0,0,0,0,0,-1,643,442,0,0
-574,582,0,0,0,0,0,0,0,0,0,-1,650,442,0,0
-567,582,0,0,0,0,0,0,0,0,0,-1,657,442,0,0
-560,582,0,0,0,0,0,0,0,0,0,-1,664,442,0,0
-553,582,0,0,0,0,0,0,0,0,0,-1,671,442,0,0
-546,582,0,0,0,0,0,0,0,0,0,-1,678,442,0,0
-539,582,0,0,0,0,0,0,0,0,0,-1,685,442,0,0
-532,582,0,0,0,0,0,0,0,0,0,-1,692,442,0,0
-525,582,0,0,0,0,0,0,0,0,0,-1,699,442,0,0
-518,582,0,0,0,0,0,0,0,0,0,-1,706,442,0,0
-511,582,0,0,0,0,0,0,0,0,0,-1,713,442,0,0
-504,582,0,0,0,0,0,0,0,0,0,-1,720,442,0,0
-497,582,0,0,0,0,0,0,0,0,0,-1,727,442,0,0
-490,582,0,0,0,0,0,0,0,0,0,-1,734,442,0,0
-483,582,0,0,0,0,0,0,0,0,0,-1,741,442,0,0
-476,582,0,0,0,0,0,0,0,0,0,-1,748,442,0,0
-469,582,0,0,0,0,0,0,0,0,0,-1,755,442,0,0
-462,582,0,0,0,0,0,0,0,0,0,-1,762,442,0,0
-455,582,0,0,0,0,0,0,0,0,0,-1,769,442,0,0
-448,582,0,0,0,0,0,0,0,0,0,-1,776,442,0,0
-441,582,0,0,0,0,0,0,0,0,0,-1,783,442,0,0
-434,582,0,0,0,0,0,0,0,0,0,-1,790,442,0,0
-427,582,0,0,0,0,0,0,0,0,0,-1,797,442,0,0
-420,582,0,0,0,0,0,0,0,0,0,-1,804,442,0,0
-413,582,0,0,0,0,0,0,0,0,0,-1,811,442,0,0
-406,582,0,0,0,0,0,0,0,0,0,-1,818,442,0,0
-399,582,0,0,0,0,0,0,0,0,0,-1,825,442,0,0
-392,582,0,0,0,0,0,0,0,0,0,-1,832,442,0,0
-385,582,0,0,0,0,0,0,0,0,0,-1,839,442,0,0
-378,582,0,0,0,0,0,0,0,0,0,-1,846,442,0,0
-371,582,0,0,0,0,0,0,0,0,0,-1,853,442,0,0
-364,582,0,0,0,0,0,0,0,0,0,-1,860,442,0,0
-357,582,-1.98853,-0.279266,0,0,0,0,0,0,0,-1,867,442,-1.98852,0.279262
-350,582,-0.482178,0.835907,0,0,0,0,0,0,0,-1,874,442,-0.482208,-0.835906
-343,582,-0.38385,0.296906,0,0,0,0,0,0,0,-1,881,442,-0.383844,-0.296897
-336,582,-0.161194,1.16916,0,0,0,0,0,0,0,-1,888,442,-0.161164,-1.16916
-329,582,-0.00604248,0.878479,-0.00981801,-0.0210824,-0.0275997,0.0127183,-0.0436187,-0.684747,0.0341181,0.0481648,895,442,-0.00602279,-0.878474
-322,582,0.119385,0.539093,-0.0107431,-0.0172505,-0.0254523,0.0116626,-0.0396562,-0.721826,0.0310636,0.0423467,902,442,0.119362,-0.5391
-315,582,0.17749,0.373566,-0.0106129,-0.0156555,-0.0238318,0.0108306,-0.037099,-0.732696,0.0290245,0.0428515,909,442,0.177496,-0.373577
-308,582,0.248047,0.224945,-0.00937302,-0.0133997,-0.0216397,0.0103468,-0.0331195,-0.739012,0.0262182,0.046652,916,442,0.248073,-0.224931
-301,582,3.46423,5.55759,0,0,0,0,0,0,0,-1,923,442,3.46423,-5.55757
-294,582,3.08575,5.11249,0,0,0,0,0,0,0,-1,930,442,3.08573,-5.11248
-287,582,-0.175476,0.0969849,-0.00540194,-0.00991315,-0.0153261,0.00783362,-0.0231487,-0.712335,0.0186019,0.028194,937,442,-0.175501,-0.0969856
-280,582,-0.0513306,0.0967102,-0.00372624,-0.00819819,-0.0129078,0.0071378,-0.0190622,-0.699636,0.0156401,0.0136037,944,442,-0.0513161,-0.0967035
-273,582,-0.0360718,0.0920105,-0.00202521,-0.0072583,-0.0107703,0.00644182,-0.0157253,-0.666236,0.013167,0.00975895,951,442,-0.0360768,-0.0919998
-266,582,-0.0279541,0.0932312,-0.000276362,-0.00600981,-0.00847691,0.00580543,-0.0120916,-0.622345,0.0105432,0.00961052,958,442,-0.0279304,-0.0932446
-259,582,-0.0319214,0.0969543,0.0011606,-0.00465114,-0.00637881,0.00526425,-0.00875479,-0.571668,0.0081771,0.00826578,965,442,-0.0318995,-0.0969396
-252,582,-0.0324707,0.0973206,0.00212267,-0.00335713,-0.00454083,0.00468618,-0.00592064,-0.513943,0.00613766,0.00761378,972,442,-0.0324703,-0.097306
-245,582,-0.0130615,0.0957642,0.00315914,-0.00161204,-0.00278014,0.00443691,-0.00288981,-0.430814,0.0042614,0.0106829,979,442,-0.0130352,-0.0957561
-238,582,-0.0201416,0.0918274,0.00370065,-0.000387386,-0.00120355,0.00402867,-0.000715403,-0.266078,0.00295328,0.0149676,986,442,-0.0201721,-0.0918397
-231,582,-0.0234375,0.0866394,0.00324176,-0.000134103,-0.000500717,0.00331446,-0.000206805,-0.144188,0.0022817,0.0119994,993,442,-0.0234325,-0.0866429
-224,582,-0.0264893,0.0853882,0.00269546,0.00019475,-0.000414571,0.0027624,0.000127813,-0.160078,0.00180051,0.00918432,1000,442,-0.0265167,-0.0853811
-217,582,-0.0359497,0.0770264,0.00220394,0.00068454,-0.000427763,0.00231609,0.000572388,-0.256411,0.00139303,0.0110145,1007,442,-0.0359451,-0.0770176
-210,582,-0.0390015,0.0841064,0.00158112,0.00114432,-0.000471747,0.00188257,0.000842873,-0.568611,0.00108888,0.0121001,1014,442,-0.0389963,-0.0841107
-203,582,-0.0284424,0.0823059,0.00104579,0.00165113,-0.000728861,0.00213767,0.000559254,-0.982197,0.00128009,0.0100157,1021,442,-0.0284689,-0.0822918
-196,582,-0.029541,0.0746765,0.000897423,0.00226803,-0.00103742,0.00282607,0.000339389,-1.07729,0.00178172,0.0138179,1028,442,-0.0294882,-0.0746619
-189,582,-0.0413818,0.0697021,0.00079735,0.0031784,-0.00121473,0.00368873,0.00028702,-1.17307,0.00236928,0.0187526,1035,442,-0.0413435,-0.0696881
-182,582,-0.0343018,0.0818787,0.00094643,0.00399654,-0.00123943,0.00443668,0.000506294,-1.22957,0.0028043,0.01266,1042,442,-0.0343309,-0.0818676
-175,582,-0.0361328,0.105652,0.00106813,0.00497776,-0.00114298,0.00528739,0.000758507,-1.30625,0.00330127,0.0121508,1049,442,-0.0361148,-0.105664
-168,582,-0.0147705,0.102478,0.00123193,0.00606196,-0.000843994,0.00620519,0.0010887,-1.40269,0.00382588,0.0106124,1056,442,-0.0147132,-0.102481
-161,582,-0.0351563,0.0862732,0.00138824,0.00712686,-0.000610878,0.00719117,0.00132393,-1.46591,0.00441941,0.0113095,1063,442,-0.0351605,-0.0862767
-154,582,-0.0526123,0.0838623,0.00145471,0.00820491,-0.000319239,0.00821997,0.00143964,-1.52364,0.00506871,0.0110657,1070,442,-0.0526613,-0.0838569
-147,582,-0.0366211,0.0777283,0.00163799,0.00918143,7.94513e-05,0.00918227,0.00163715,1.56027,0.00565534,0.0107223,1077,442,-0.0366008,-0.0777154
-140,582,-0.0354004,0.0924988,0.00183317,0.00992913,0.000394882,0.00994835,0.00181395,1.52218,0.00611789,0.0106982,1084,442,-0.0354262,-0.0924917
-133,582,-0.0343018,0.0966492,0.00200143,0.0104302,0.000670046,0.0104832,0.0019485,1.49196,0.00643833,0.0108641,1091,442,-0.034282,-0.0966578
-126,582,-0.0344238,0.0708313,0.00224312,0.0107235,0.000541025,0.0107578,0.00220875,1.50734,0.00656077,0.010648,1098,442,-0.0344118,-0.0708311
-119,582,-0.0131836,0.0875244,0.0025956,0.0108383,0.000145135,0.0108409,0.00259304,1.5532,0.00653666,0.015163,1105,442,-0.0131997,-0.087533
-112,582,0.0211182,0.110565,0.00282917,0.0109324,-0.00058426,0.0109743,0.00278726,-1.49919,0.0065867,0.0230681,1112,442,0.0210954,-0.110551
-105,582,0.0101318,0.0911865,0.00289518,0.010342,-0.00202073,0.010855,0.00238218,-1.32218,0.00658777,0.0310855,1119,442,0.0101191,-0.0911917
-98,582,0.0045166,0.0683594,0.00268281,0.0106291,-0.00339678,0.0118832,0.00142872,-1.21712,0.00749146,0.033854,1126,442,0.00450628,-0.0683599
-91,582,0.0599365,0.187195,0.00288776,0.0107511,-0.00404576,0.0124609,0.00117796,-1.17095,0.00794379,0.0353396,1133,442,0.0599347,-0.187202
-84,582,0.15918,0.39563,0.0031973,0.00999264,-0.0049063,0.0125629,0.000627062,-1.08824,0.00817425,0.0369143,1140,442,0.159164,-0.395627
-77,582,0.0474854,0.38855,0.00307603,0.0098895,-0.00588756,0.0132849,-0.000319384,-1.04768,0.00896496,0.0399618,1147,442,0.0474667,-0.388552
-70,582,0.123779,0.299438,0.00277291,0.00968712,-0.00683967,0.0138937,-0.00143371,-1.0194,0.0097755,0.0452635,1154,442,0.123783,-0.299449
-63,582,0.0629883,0.156525,0.00225968,0.00976293,-0.00754419,0.0144368,-0.00241422,-1.01614,0.010522,0.0452395,1161,442,0.0629845,-0.156528
-56,582,0.0592041,0.163757,0.00167497,0.00923936,-0.00763772,0.0139801,-0.00306574,-1.0153,0.0104923,0.046978,1168,442,0.059235,-0.163756
-49,582,-0.26416,-0.977753,0.00305057,0.0107856,-0.00539903,0.0135594,0.000276757,-1.0962,0.00894878,0.041788,1175,442,-0.264133,0.97775
-42,582,-0.266479,-0.869934,0.00639269,0.0100705,-0.00326571,0.0119795,0.00448374,-1.04182,0.00698884,0.0420891,1182,442,-0.266474,0.869928
-35,582,-0.0168457,0.292633,0.00822597,0.00909502,-0.00181176,0.0105236,0.00679736,-0.903093,0.00616146,0.0437651,1189,442,-0.0168565,-0.292643
-28,582,0.0268555,0.283844,0.0109328,0.00812617,-0.000617991,0.0110628,0.00799612,-0.207413,0.0065951,0.0441632,1196,442,0.0268812,-0.283855
-21,582,0.00317383,0.266907,0,0,0,0,0,0,0,-1,1203,442,0.00315638,-0.266919
-14,582,0.297119,-0.421417,0,0,0,0,0,0,0,-1,1210,442,0.297114,0.421431
-7,582,0.546631,-0.0357361,0.0171462,-0.000352567,0.00133623,0.0172477,-0.000454015,0.0757757,0.0116527,0.0477237,1217,442,0.546663,0.0357275
0,582,0.591309,0.033905,0.0184143,-0.00305515,0.00119145,0.0184802,-0.00312107,0.055269,0.0134815,0.0484756,1224,442,0.591357,-0.0339018
7,582,0.568237,0.231873,0,0,0,0,0,0,0,-1,1231,442,0.568274,-0.231872
14,582,-0.657349,0.0941162,0.0163901,-0.00967544,-0.00193519,0.016533,-0.00981833,-0.0737047,0.0153777,0.0481917,1238,442,-0.657323,-0.094117
21,582,-0.810547,-0.071228,0.0132535,-0.00642866,-0.00388857,0.0139939,-0.00716906,-0.188153,0.0124284,0.0449644,1245,442,-0.810573,0.0712189
28,582,-0.815308,-0.225616,0.0109177,-0.00271967,-0.00694024,0.0138284,-0.0056304,-0.397117,0.0115621,0.0459833,1252,442,-0.815258,0.225606
35,582,-0.990967,-0.134003,0.0077896,0.00233803,-0.00769597,0.0132282,-0.00310061,-0.6152,0.0100137,0.0495099,1259,442,-0.990951,0.133995
42,582,-1.16309,-0.0594788,0,0,0,0,0,0,0,-1,1266,442,-1.16304,0.0594939
49,582,-0.195557,-0.421204,0,0,0,0,0,0,0,-1,1273,442,-0.195591,0.421197
56,582,-0.916748,-0.75592,0,0,0,0,0,0,0,-1,1280,442,-0.916772,0.755915
63,582,0.131104,0.603821,0.00141957,0.0329357,-0.0105858,0.0361612,-0.00180596,-1.27503,0.0247314,0.0452372,1287,442,0.13114,-0.603819
70,582,-5.37891,0.0359497,0.0048121,0.0431815,-0.00715898,0.0444737,0.0035199,-1.39222,0.0285483,0.0457268,1294,442,-5.37895,-0.0359464
77,582,-4.48901,-0.154907,0.00843844,0.050751,-0.0039405,0.0511149,0.0080746,-1.47872,0.0317294,0.049326,1301,442,-4.489,0.154894
84,582,-3.57788,-0.310577,0.0128934,0.0565949,-0.00167378,0.0566589,0.0128294,-1.53257,0.0343053,0.0483104,1308,442,-3.5779,0.310578
91,582,-2.61072,-0.44693,0.0170089,0.06043,0.000479006,0.0604353,0.0170036,1.55977,0.0359872,0.046363,1315,442,-2.61077,0.446942
98,582,-1.55432,-0.56189,0.0196692,0.0607236,0.00143011,0.0607734,0.0196194,1.53602,0.0358142,0.0454374,1322,442,-1.55436,0.561878
105,582,-0.952637,-0.361176,0.0200737,0.0602017,0.00152449,0.0602595,0.0200159,1.53288,0.0354382,0.0440793,1329,442,-0.952647,0.361161
112,582,0.235474,-0.425049,0.018306,0.0607309,0.0014164,0.0607781,0.0182587,1.53746,0.0360101,0.0444867,1336,442,0.235416,0.42505
119,582,1.20068,1.12692,0.0159479,0.0580188,0.00104631,0.0580448,0.0159219,1.54595,0.0346316,0.044699,1343,442,1.20073,-1.12693
126,582,0.510376,0.882111,0.0126009,0.0547642,0.00187168,0.0548472,0.0125179,1.52652,0.0331886,0.0471581,1350,442,0.510416,-0.882103
133,582,0.706665,0.506287,0.0080134,0.0514944,0.00350252,0.0517748,0.00773307,1.49093,0.0322494,0.0488723,1357,442,0.706715,-0.506288
140,582,0.874878,0.152252,0,0,0,0,0,0,0,-1,1364,442,0.874878,-0.152252
147,582,0.956665,-0.18811,0.00175947,0.0446928,0.00427957,0.0451152,0.00133704,1.47241,0.0296412,0.0473095,1371,442,0.956726,0.188116
154,582,1.04919,-0.597321,-0.00279595,0.0402029,0.00528758,0.0408436,-0.00343661,1.45022,0.0284439,0.0462452,1378,442,1.04916,0.597308
161,582,0.884521,-1.09836,-0.00536211,0.0356714,0.00586946,0.0364944,-0.00618517,1.43148,0.0266318,0.0457054,1385,442,0.884556,1.09836
168,582,0.0443115,-0.95578,-0.00627129,0.0313201,0.00579666,0.0321936,-0.00714485,1.42122,0.0241982,0.0449319,1392,442,0.0443438,0.955792
175,582,0.125,-0.444031,-0.00561812,0.02548,0.00547986,0.0264174,-0.00655549,1.40138,0.0201553,0.0448094,1399,442,0.125047,0.444024
182,582,0.0223389,-0.203369,-0.00448172,0.0211768,0.00586254,0.0224528,-0.00575775,1.35648,0.0172119,0.0469165,1406,442,0.0223937,0.203368
189,582,-0.136597,0.0434875,-0.00320627,0.0184337,0.00570832,0.0198471,-0.00461972,1.32807,0.0150102,0.0464913,1413,442,-0.136594,-0.0434738
196,582,-0.282349,0.192871,-0.00181774,0.0154432,0.00457685,0.0165817,-0.00295623,1.32699,0.0121602,0.0474709,1420,442,-0.282362,-0.192859
203,582,-0.1604,0.260864,-0.00105965,0.0131564,0.00321643,0.0138502,-0.00175352,1.35833,0.00987006,0.0423589,1427,442,-0.160446,-0.26085
210,582,-0.141724,0.202301,-0.000325958,0.0106768,0.00141635,0.0108562,-0.000505356,1.44481,0.00741167,0.0364351,1434,442,-0.141741,-0.202315
217,582,-0.0927734,0.173187,0.00018664,0.00895295,-0.000613801,0.00899572,0.000143871,-1.50123,0.00594977,0.0334644,1441,442,-0.0928058,-0.173182
224,582,-0.0942383,0.0700989,0.000318993,0.00712787,-0.00295757,0.00823314,-0.000786274,-1.21316,0.00576874,0.033532,1448,442,-0.0941815,-0.0700936
231,582,-0.157349,0.00357056,-0.000162893,0.00607685,-0.00468672,0.00858716,-0.0026732,-1.07906,0.00679348,0.0319758,1455,442,-0.15739,-0.00358424
238,582,-0.124878,0.0558777,-0.000442023,0.00552891,-0.00566272,0.00894496,-0.00385807,-1.02799,0.00758382,0.0282101,1462,442,-0.124828,-0.0558807
245,582,-0.0777588,0.123688,-0.00069231,0.00470833,-0.00635054,0.00890881,-0.00489279,-0.986423,0.00808003,0.023382,1469,442,-0.0777856,-0.123693
252,582,-0.0355225,0.124939,-0.00121518,0.00417525,-0.00680594,0.00880021,-0.00584014,-0.973929,0.00851001,0.0151819,1476,442,-0.0355196,-0.124934
259,582,-0.0352783,0.0845947,-0.00148442,0.00376324,-0.00648384,0.00813403,-0.0058552,-0.977662,0.00811233,0.0117994,1483,442,-0.0353007,-0.0845883
266,582,-0.0455322,0.0807495,-0.0018001,0.00310842,-0.0055916,0.00676066,-0.00545234,-0.992199,0.00706466,0.0093554,1490,442,-0.0455146,-0.0807366
273,582,-0.0440674,0.0830383,-0.00214552,0.00231427,-0.0047638,0.00534424,-0.00517549,-1.0043,0.00607383,0.0097711,1497,442,-0.0440781,-0.0830429
280,582,-0.0446777,0.0736389,-0.00178099,0.00197047,-0.00379609,0.00432897,-0.00413949,-1.01486,0.00488967,0.010684,1504,442,-0.0447117,-0.0736282
287,582,-0.0333252,0.07901,-0.00129647,0.00159609,-0.00308486,0.00355687,-0.00325726,-1.0046,0.00393541,0.0103222,1511,442,-0.0332913,-0.0790189
294,582,-0.0321045,0.0803833,-0.000995134,0.0012642,-0.00254032,0.00291471,-0.00264564,-0.994615,0.00321152,0.00811976,1518,442,-0.0321505,-0.0803959
301,582,-0.0234375,0.0878601,-0.000891391,0.0010997,-0.00209689,0.00242537,-0.00221707,-1.00703,0.00268121,0.00879748,1525,442,-0.0234916,-0.0878623
308,582,-0.0153809,0.0852051,-0.000844059,0.000881636,-0.00156211,0.00180336,-0.00176578,-1.03772,0.00206068,0.0114912,1532,442,-0.0153216,-0.0851987
315,582,-0.0310059,0.0774231,-0.00104851,0.000958486,-0.00108312,0.00143152,-0.00152155,-1.15903,0.00170522,0.0121471,1539,442,-0.0309959,-0.0774139
322,582,-0.0357666,0.086792,-0.00122544,0.000821823,-0.000771192,0.00107981,-0.00148343,-1.24796,0.001486,0.00984918,1546,442,-0.0357279,-0.0867871
329,582,-0.0316162,0.0966492,-0.00131364,0.000727601,-0.000585205,0.000883472,-0.00146951,-1.31049,0.00137247,0.00998051,1553,442,-0.0316521,-0.0966642
336,582,-0.0336914,0.0775452,-0.00107569,0.000299185,-0.000770728,0.000644507,-0.00142101,-1.14957,0.0012203,0.0102459,1560,442,-0.0336628,-0.077549
343,582,-0.0593262,0.0849304,-0.000908989,8.07818e-06,-0.00103968,0.000685853,-0.00158676,-0.993084,0.00134602,0.0125573,1567,442,-0.0593498,-0.0849432
350,582,-0.0805664,0.0980225,-0.000817183,1.7466e-05,-0.00116091,0.000833783,-0.0016335,-0.957946,0.00144921,0.0156287,1574,442,-0.0805934,-0.0980354
357,582,-0.0584717,0.0909119,-0.000779607,-0.000162184,-0.00102664,0.00060115,-0.00154294,-0.931449,0.00127708,0.0132167,1581,442,-0.0584312,-0.0909063
364,582,-0.0291748,0.0939331,-0.000804219,-0.000270547,-0.000942135,0.00044181,-0.00151658,-0.923397,0.00118607,0.0104435,1588,442,-0.0291849,-0.0939239
371,582,-0.0192871,0.0889282,-0.000934339,-0.000641472,-0.000631811,-0.000139347,-0.00143646,-0.899271,0.000914739,0.0134958,1595,442,-0.0193277,-0.0889171
378,582,-0.0510254,0.0835571,-0.000603128,-0.000472591,-0.00015819,-0.000366734,-0.000708985,-0.981058,0.000409414,0.0136582,1602,442,-0.0509976,-0.0835596
385,582,-0.0585938,0.0804749,7.85068e-05,-0.000738727,0.000621471,0.00041366,-0.00107388,0.494583,0.00088658,0.0103248,1609,442,-0.0586262,-0.080467
392,582,-0.0528564,0.0849915,0.000505061,-0.000741011,0.00137422,0.00139088,-0.00162683,0.57257,0.00174405,0.00906266,1616,442,-0.0528342,-0.0849778
399,582,-0.0512695,0.0812683,0.00113945,-0.000976928,0.00211231,0.0024438,-0.00228128,0.55319,0.00272857,0.0101431,1623,442,-0.0512908,-0.081262
406,582,-0.0314941,0.0787048,0.0014925,-0.00143671,0.00279641,0.00318464,-0.00312884,0.544167,0.00364514,0.0141459,1630,442,-0.0314862,-0.0786963
413,582,0.000610352,0.0934143,0.00175953,-0.00224176,0.00335573,0.00366574,-0.00414797,0.516592,0.00451411,0.0237143,1637,442,0.000584617,-0.0934164
420,582,0.0385742,0.0747375,0.001753,-0.0033829,0.00353453,0.00355395,-0.00518385,0.471243,0.00507394,0.0299311,1644,442,0.0385571,-0.0747489
427,582,0.0499268,0.0350952,0.00149194,-0.00437963,0.00284073,0.00264132,-0.00552901,0.384472,0.00481435,0.0330142,1651,442,0.0499764,-0.0350921
434,582,0.0725098,0.143372,0.00125959,-0.00624337,0.00135636,0.00149725,-0.00648104,0.173465,0.00489668,0.0372026,1658,442,0.0725283,-0.143387
441,582,-0.0391846,0.399323,0.000435491,-0.00920279,-0.00102373,0.000543028,-0.00931032,-0.10466,0.00639558,0.0401738,1665,442,-0.0391831,-0.399323
448,582,-0.323364,0.326294,-0.000762368,-0.0137625,-0.00371444,0.000224081,-0.014749,-0.259579,0.0099082,0.0453953,1672,442,-0.323395,-0.32629
455,582,-0.244995,0.0622559,-0.00203609,-0.017876,-0.00639514,0.000223518,-0.0201356,-0.33964,0.0134989,0.046301,1679,442,-0.245007,-0.0622606
462,582,-0.484863,0.04776,-0.00321686,-0.0230633,-0.0106042,0.00138296,-0.0276631,-0.409279,0.0189199,0.0423629,1686,442,-0.484828,-0.0477604
469,582,-0.718384,0.0551147,-0.00357986,-0.0296874,-0.0147698,0.00307797,-0.0363452,-0.423498,0.0253186,0.0446789,1693,442,-0.718354,-0.0551119
476,582,-1.48608,0.0184326,-0.00394232,-0.0367957,-0.0191322,0.0048476,-0.0455856,-0.430668,0.0321284,0.0423846,1700,442,-1.48607,-0.0184224
483,582,0,0,0,0,0,0,0,0,0,-1,1707,442,0,0
490,582,0,0,0,0,0,0,0,0,0,-1,1714,442,0,0
497,582,0,0,0,0,0,0,0,0,0,-1,1721,442,0,0
504,582,0,0,0,0,0,0,0,0,0,-1,1728,442,0,0
511,582,0,0,0,0,0,0,0,0,0,-1,1735,442,0,0
518,582,0,0,0,0,0,0,0,0,0,-1,1742,442,0,0
525,582,0,0,0,0,0,0,0,0,0,-1,1749,442,0,0
532,582,0,0,0,0,0,0,0,0,0,-1,1756,442,0,0
539,582,0,0,0,0,0,0,0,0,0,-1,1763,442,0,0
546,582,0,0,0,0,0,0,0,0,0,-1,1770,442,0,0
553,582,0,0,0,0,0,0,0,0,0,-1,1777,442,0,0
560,582,0,0,0,0,0,0,0,0,0,-1,1784,442,0,0
567,582,0,0,0,0,0,0,0,0,0,-1,1791,442,0,0
574,582,0,0,0,0,0,0,0,0,0,-1,1798,442,0,0
581,582,0,0,0,0,0,0,0,0,0,-1,1805,442,0,0
588,582,0,0,0,0,0,0,0,0,0,-1,1812,442,0,0
595,582,0,0,0,0,0,0,0,0,0,-1,1819,442,0,0
602,582,0,0,0,0,0,0,0,0,0,-1,1826,442,0,0
609,582,0,0,0,0,0,0,0,0,0,-1,1833,442,0,0
616,582,0,0,0,0,0,0,0,0,0,-1,1840,442,0,0
623,582,0,0,0,0,0,0,0,0,0,-1,1847,442,0,0
630,582,0,0,0,0,0,0,0,0,0,-1,1854,442,0,0
637,582,0,0,0,0,0,0,0,0,0,-1,1861,442,0,0
644,582,0,0,0,0,0,0,0,0,0,-1,1868,442,0,0
651,582,0,0,0,0,0,0,0,0,0,-1,1875,442,0,0
658,582,0,0,0,0,0,0,0,0,0,-1,1882,442,0,0
665,582,0,0,0,0,0,0,0,0,0,-1,1889,442,0,0
672,582,0,0,0,0,0,0,0,0,0,-1,1896,442,0,0
679,582,0,0,0,0,0,0,0,0,0,-1,1903,442,0,0
686,582,0,0,0,0,0,0,0,0,0,-1,1910,442,0,0
693,582,0,0,0,0,0,0,0,0,0,-1,1917,442,0,0
700,582,0,0,0,0,0,0,0,0,0,-1,1924,442,0,0
707,582,0,0,0,0,0,0,0,0,0,-1,1931,442,0,0
714,582,0,0,0,0,0,0,0,0,0,-1,1938,442,0,0
721,582,0,0,0,0,0,0,0,0,0,-1,1945,442,0,0
728,582,0,0,0,0,0,0,0,0,0,-1,1952,442,0,0
735,582,0,0,0,0,0,0,0,0,0,-1,1959,442,0,0
742,582,0,0,0,0,0,0,0,0,0,-1,1966,442,0,0
749,582,0,0,0,0,0,0,0,0,0,-1,1973,442,0,0
756,582,0,0,0,0,0,0,0,0,0,-1,1980,442,0,0
763,582,0,0,0,0,0,0,0,0,0,-1,1987,442,0,0
770,582,0,0,0,0,0,0,0,0,0,-1,1994,442,0,0
777,582,0,0,0,0,0,0,0,0,0,-1,2001,442,0,0
784,582,0,0,0,0,0,0,0,0,0,-1,2008,442,0,0
791,582,0,0,0,0,0,0,0,0,0,-1,2015,442,0,0
798,582,0,0,0,0,0,0,0,0,0,-1,2022,442,0,0
805,582,0,0,0,0,0,0,0,0,0,-1,2029,442,0,0
812,582,0,0,0,0,0,0,0,0,0,-1,2036,442,0,0
-700,575,0,0,0,0,0,0,0,0,0,-1,524,449,0,0
-693,575,0,0,0,0,0,0,0,0,0,-1,531,449,0,0
-686,575,0,0,0,0,0,0,0,0,0,-1,538,449,0,0
-679,575,0,0,0,0,0,0,0,0,0,-1,545,449,0,0
-672,575,0,0,0,0,0,0,0,0,0,-1,552,449,0,0
-665,575,0,0,0,0,0,0,0,0,0,-1,559,449,0,0
-658,575,0,0,0,0,0,0,0,0,0,-1,566,449,0,0
-651,575,0,0,0,0,0,0,0,0,0,-1,573,449,0,0
-644,575,0,0,0,0,0,0,0,0,0,-1,580,449,0,0
-637,575,0,0,0,0,0,0,0,0,0,-1,587,449,0,0
-630,575,0,0,0,0,0,0,0,0,0,-1,594,449,0,0
-623,575,0,0,0,0,0,0,0,0,0,-1,601,449,0,0
-616,575,0,0,0,0,0,0,0,0,0,-1,608,449,0,0
-609,575,0,0,0,0,0,0,0,0,0,-1,615,449,0,0
-602,575,0,0,0,0,0,0,0,0,0,-1,622,449,0,0
-595,575,0,0,0,0,0,0,0,0,0,-1,629,449,0,0
-588,575,0,0,0,0,0,0,0,0,0,-1,636,449,0,0
-581,575,0,0,0,0,0,0,0,0,0,-1,643,449,0,0
-574,575,0,0,0,0,0,0,0,0,0,-1,650,449,0,0
-567,575,0,0,0,0,0,0,0,0,0,-1,657,449,0,0
-560,575,0,0,0,0,0,0,0,0,0,-1,664,449,0,0
-553,575,0,0,0,0,0,0,0,0,0,-1,671,449,0,0
-546,575,0,0,0,0,0,0,0,0,0,-1,678,449,0,0
-539,575,0,0,0,0,0,0,0,0,0,-1,685,449,0,0
-532,575,0,0,0,0,0,0,0,0,0,-1,692,449,0,0
-525,575,0,0,0,0,0,0,0,0,0,-1,699,449,0,0
-518,575,0,0,0,0,0,0,0,0,0,-1,706,449,0,0
-511,575,0,0,0,0,0,0,0,0,0,-1,713,449,0,0
-504,575,0,0,0,0,0,0,0,0,0,-1,720,449,0,0
-497,575,0,0,0,0,0,0,0,0,0,-1,727,449,0,0
-490,575,0,0,0,0,0,0,0,0,0,-1,734,449,0,0
-483,575,0,0,0,0,0,0,0,0,0,-1,741,449,0,0
-476,575,0,0,0,0,0,0,0,0,0,-1,748,449,0,0
-469,575,0,0,0,0,0,0,0,0,0,-1,755,449,0,0
-462,575,0,0,0,0,0,0,0,0,0,-1,762,449,0,0
-455,575,0,0,0,0,0,0,0,0,0,-1,769,449,0,0
-448,575,0,0,0,0,0,0,0,0,0,-1,776,449,0,0
-441,575,0,0,0,0,0,0,0,0,0,-1,783,449,0,0
-434,575,0,0,0,0,0,0,0,0,0,-1,790,449,0,0
-427,575,0,0,0,0,0,0,0,0,0,-1,797,449,0,0
-420,575,0,0,0,0,0,0,0,0,0,-1,804,449,0,0
-413,575,0,0,0,0,0,0,0,0,0,-1,811,449,0,0
-406,575,0,0,0,0,0,0,0,0,0,-1,818,449,0,0
-399,575,0,0,0,0,0,0,0,0,0,-1,825,449,0,0
-392,575,0,0,0,0,0,0,0,0,0,-1,832,449,0,0
-385,575,0,0,0,0,0,0,0,0,0,-1,839,449,0,0
-378,575,0,0,0,0,0,0,0,0,0,-1,846,449,0,0
-371,575,-3.27509,-1.75272,0,0,0,0,0,0,0,-1,853,449,-3.2751,1.75271
-364,575,-2.54102,-0.996704,0,0,0,0,0,0,0,-1,860,449,-2.54101,0.996719
-357,575,-1.63721,0.152618,0,0,0,0,0,0,0,-1,867,449,-1.63722,-0.152614
-350,575,-0.851563,0.253662,0,0,0,0,0,0,0,-1,874,449,-0.851552,-0.253672
-343,575,-0.612549,0.233948,-0.00739375,-0.0286878,-0.0254116,0.00951116,-0.0455927,-0.587017,0.0340117,0.0471197,881,449,-0.612559,-0.233943
-336,575,-0.70459,-0.361176,-0.00613264,-0.0195269,-0.0236233,0.0117245,-0.037384,-0.647274,0.0296149,0.0447064,888,449,-0.70461,0.361172
-329,575,-0.173462,0.562256,-0.00604302,-0.0153866,-0.0213517,0.011142,-0.0325716,-0.677694,0.0262295,0.0468445,895,449,-0.173457,-0.562266
-322,575,-0.0179443,0.36969,-0.0060487,-0.0120775,-0.0193617,0.0105318,-0.0286581,-0.708173,0.0234191,0.043362,902,449,-0.0179396,-0.369691
-315,575,-0.059082,0.279236,-0.00596991,-0.0111487,-0.0181129,0.00973772,-0.0268563,-0.7144,0.0218846,0.041401,909,449,-0.0590644,-0.279251
-308,575,0.0405884,0.141663,-0.00546206,-0.00920523,-0.0166015,0.00937302,-0.0240403,-0.729267,0.0199011,0.0397414,916,449,0.0406078,-0.141678
-301,575,0.0245972,0.14328,-0.00498796,-0.00805252,-0.0150469,0.00860452,-0.021645,-0.734656,0.0179974,0.0289157,923,449,0.0245754,-0.143277
-294,575,-0.0335083,0.123444,-0.00415902,-0.00738712,-0.0135296,0.00785251,-0.0193987,-0.72603,0.0161974,0.0196449,930,449,-0.0334897,-0.123452
-287,575,-0.022583,0.0858459,-0.00314538,-0.00682623,-0.0118165,0.00697313,-0.0169447,-0.708144,0.0142034,0.0130966,937,449,-0.0225544,-0.0858493
-280,575,-0.0188599,0.0853882,-0.00219087,-0.00570938,-0.0100037,0.00620711,-0.0141074,-0.698358,0.0120206,0.010417,944,449,-0.0188431,-0.085389
-273,575,-0.0255127,0.0907288,-0.00122845,-0.00528241,-0.00835244,0.00533945,-0.0118503,-0.666359,0.010159,0.0100453,951,449,-0.0255207,-0.0907247
-266,575,-0.0211792,0.0837402,-0.000105946,-0.00450805,-0.0065575,0.00461004,-0.00922403,-0.623479,0.00813384,0.0114958,958,449,-0.0211921,-0.0837444
-259,575,-0.0264893,0.0892334,0.000776054,-0.00362318,-0.00492539,0.00397068,-0.0068178,-0.575392,0.00630062,0.0119894,965,449,-0.0264708,-0.0892311
-252,575,-0.0388794,0.0950928,0.00130747,-0.00276752,-0.00353214,0.00334764,-0.00480769,-0.523789,0.00473357,0.0102078,972,449,-0.0388759,-0.095103
-245,575,-0.0316162,0.0793457,0.00198083,-0.00136907,-0.00216555,0.00304359,-0.00243183,-0.456226,0.00316781,0.0125681,979,449,-0.0316425,-0.0793594
-238,575,-0.0286865,0.0695496,0.00223356,-0.000355233,-0.000917442,0.00252572,-0.000647393,-0.308297,0.00193603,0.0131815,986,449,-0.0286644,-0.0695558
-231,575,-0.0333252,0.0759888,0.00163798,-8.70212e-05,-0.000429379,0.00173895,-0.00018799,-0.230954,0.00122678,0.0113872,993,449,-0.0333132,-0.0759845
-224,575,-0.0510864,0.10321,0.00100804,0.000304567,-0.000565044,0.00132188,-9.27504e-06,-0.507002,0.00088436,0.0107565,1000,449,-0.0510616,-0.103218
-217,575,-0.0510864,0.105927,0.000459258,0.000973207,-0.000745706,0.00150497,-7.25099e-05,-0.951329,0.00102834,0.00975589,1007,449,-0.0510764,-0.105931
-210,575,-0.0344849,0.0784912,-6.05404e-05,0.00163518,-0.000864981,0.00199854,-0.000423903,-1.1731,0.00149384,0.00892323,1014,449,-0.0344963,-0.0785017
-203,575,-0.0255737,0.0628662,-0.000369486,0.00229856,-0.00116491,0.00273559,-0.000806516,-1.21188,0.00214375,0.0107341,1021,449,-0.0255913,-0.0628671
-196,575,-0.0114746,0.0594788,-0.000433569,0.00302395,-0.00157661,0.00363492,-0.00104453,-1.2011,0.00283631,0.0116274,1028,449,-0.0115113,-0.0594671
-189,575,-0.0175781,0.0585632,-0.000404474,0.00427708,-0.00171088,0.00483568,-0.000963067,-1.25521,0.00358815,0.0124236,1035,449,-0.0176143,-0.0585772
-182,575,-0.0220947,0.0874023,-2.11253e-05,0.00539193,-0.00164738,0.00585386,-0.000483059,-1.29741,0.00407315,0.0117425,1042,449,-0.0220671,-0.0874138
-175,575,-0.0262451,0.108032,0.000378214,0.00673013,-0.00138911,0.00702063,8.77131e-05,-1.36464,0.00465146,0.0110769,1049,449,-0.0262852,-0.10803
-168,575,-0.027832,0.100647,0.000841934,0.00818251,-0.000950855,0.00830368,0.000720766,-1.44405,0.00531185,0.00982352,1056,449,-0.0278015,-0.100633
-161,575,-0.0491943,0.0801392,0.00124688,0.00951745,-0.00047033,0.00954411,0.00122022,-1.51417,0.00599752,0.0126173,1063,449,-0.0491844,-0.0801318
-154,575,-0.0546875,0.0720215,0.00158217,0.0108638,9.00247e-05,0.0108647,0.00158129,1.5611,0.0067778,0.0134163,1070,449,-0.0547473,-0.0720248
-147,575,-0.0452881,0.0805969,0.00204611,0.0121761,0.000802166,0.0122393,0.00198298,1.49226,0.00758541,0.0115235,1077,449,-0.0452553,-0.0805867
-140,575,-0.029541,0.108002,0.00244622,0.0130966,0.00129393,0.0132516,0.00229127,1.45161,0.00817831,0.0159671,1084,449,-0.0295671,-0.107992
-133,575,-0.0341797,0.116516,0.00284209,0.0137041,0.00166611,0.0139539,0.00259227,1.42196,0.00857021,0.0255552,1091,449,-0.0341788,-0.11652
-126,575,-0.0194092,0.112854,0.00335551,0.0140473,0.00154886,0.0142672,0.00313565,1.42979,0.00865764,0.0316317,1098,449,-0.0194363,-0.112847
-119,575,0.0545654,0.227844,0.00379828,0.0141092,0.00109363,0.0142239,0.00368355,1.46628,0.00852429,0.0358711,1105,449,0.0546057,-0.227833
-112,575,0.599609,0.493561,0.0041,0.0140618,0.000141032,0.0140638,0.004098,1.55664,0.008352,0.0373947,1112,449,0.599604,-0.493548
-105,575,0.278931,-0.125427,0.00418991,0.0131266,-0.00172803,0.0134491,0.00386741,-1.38629,0.00799504,0.0389251,1119,449,0.278944,0.125436
-98,575,0.0250244,0.0275879,0.00392393,0.0130774,-0.00354148,0.0142876,0.00271374,-1.24152,0.00876173,0.0406459,1126,449,0.0249956,-0.0275809
-91,575,0.0115967,0.0672913,0.0041543,0.0127309,-0.0045684,0.0147083,0.00217682,-1.16229,0.00916652,0.0415362,1133,449,0.0115685,-0.067286
-84,575,0.121216,0.887848,0.00444326,0.0111826,-0.00594105,0.014643,0.000982784,-1.04337,0.00945148,0.040914,1140,449,0.121245,-0.887857
-77,575,-0.372314,0.732819,0.00422982,0.0105782,-0.00739006,0.0154469,-0.0006389,-0.988246,0.0105174,0.038093,1147,449,-0.372335,-0.732822
-70,575,-0.270142,-1.0329,0.0037664,0.00980963,-0.00884041,0.0161305,-0.00255452,-0.950072,0.0116985,0.0426975,1154,449,-0.270195,1.0329
-63,575,-0.0273438,-1.07538,0.00299689,0.00935857,-0.00996808,0.016641,-0.00428555,-0.939843,0.0127646,0.0436114,1161,449,-0.027303,1.07538
-56,575,0.108154,-1.30542,0,0,0,0,0,0,0,-1,1168,449,0.108194,1.30543
-49,575,-0.196533,-1.68579,0.00375266,0.0104012,-0.0074716,0.0152547,-0.00110083,-0.994709,0.0105559,0.0416774,1175,449,-0.196587,1.6858
-42,575,-0.431641,-1.11041,0.0086813,0.00960014,-0.00454102,0.0137049,0.00457652,-0.835812,0.0080567,0.0464344,1182,449,-0.431601,1.11042
-35,575,0.19458,0.165039,0.0113496,0.00858913,-0.00247689,0.0128048,0.00713386,-0.531205,0.00740895,0.0462449,1189,449,0.194582,-0.165052
-28,575,0.294312,0.114044,0.0152246,0.00774803,-0.000531907,0.0152623,0.00771037,-0.0706684,0.00881185,0.047621,1196,449,0.294325,-0.114042
-21,575,0.311401,0.115448,0.0186792,0.00561742,0.00159683,0.0188716,0.00542504,0.1199,0.0112188,0.0461219,1203,449,0.311434,-0.115447
-14,575,0.360596,0.0990601,0,0,0,0,0,0,0,-1,1210,449,0.360537,-0.0990545
-7,575,0.529053,0.0272522,0.025189,-0.00111629,0.00399398,0.0257821,-0.00170933,0.147407,0.0177852,0.0421129,1217,449,0.529019,-0.027249
0,575,0.468018,0.194794,0.0277143,-0.00418773,0.00458044,0.0283589,-0.00483236,0.139816,0.0207055,0.0426204,1224,449,0.468032,-0.194785
7,575,0.356445,0.398712,0.0293686,-0.0117217,0.00290881,0.0295735,-0.0119266,0.0703231,0.0246716,0.0435934,1231,449,0.356463,-0.398717
14,575,0.199097,0.295868,0.0264671,-0.0119615,0.0017305,0.0265448,-0.0120393,0.0449104,0.0227953,0.0452532,1238,449,0.199078,-0.295854
21,575,0.0670166,0.141296,0.0230675,-0.00852233,-0.000615891,0.0230795,-0.00853433,-0.0194867,0.0188852,0.0422459,1245,449,0.0670071,-0.141299
28,575,-0.0612793,0.183075,0.0200354,-0.00466801,-0.0045467,0.0208456,-0.00547826,-0.176355,0.0160381,0.0432885,1252,449,-0.0613271,-0.183067
35,575,-0.256226,0.231995,0.0162404,0.000780097,-0.00580155,0.0181753,-0.00115481,-0.321914,0.0125196,0.045707,1259,449,-0.256247,-0.232009
42,575,-0.444336,0.261536,0.0128816,0.00701662,-0.00674664,0.0173055,0.00259273,-0.580385,0.0107772,0.0478037,1266,449,-0.444317,-0.261549
49,575,-0.616577,0.271271,0,0,0,0,0,0,0,-1,1273,449,-0.616544,-0.271282
56,575,-1.96692,-2.36621,0.00799342,0.0216054,-0.0134033,0.0298317,-0.000232887,-1.02033,0.0199659,0.0438853,1280,449,-1.96697,2.3662
63,575,-1.87817,-1.93408,0.00358226,0.0340495,-0.0134742,0.0391535,-0.00152173,-1.2087,0.026624,0.0450503,1287,449,-1.87815,1.93407
70,575,-2.13953,-1.54529,0.00687919,0.0466372,-0.00985351,0.0489453,0.00457111,-1.34071,0.0312182,0.0459326,1294,449,-2.13951,1.5453
77,575,-2.08154,-1.28922,0.0106112,0.05661,-0.00606928,0.0573974,0.0098239,-1.44179,0.035447,0.0479235,1301,449,-2.08156,1.2892
84,575,-2.1405,-1.08136,0.0152043,0.0648457,-0.00332497,0.0650674,0.0149826,-1.50421,0.0393467,0.0484845,1308,449,-2.14044,1.08136
91,575,-2.52429,-0.556305,0.0193509,0.0706485,-0.000557545,0.0706546,0.0193448,-1.55993,0.042161,0.0468074,1315,449,-2.52429,0.556307
98,575,-1.32861,-0.876373,0.0218341,0.0721324,0.00110193,0.0721565,0.0218099,1.5489,0.0427318,0.0430919,1322,449,-1.32856,0.876385
105,575,-0.700073,-0.754883,0,0,0,0,0,0,0,-1,1329,449,-0.700086,0.754869
112,575,0.467529,0.226746,0.0189989,0.0737659,0.00216371,0.0738513,0.0189136,1.53137,0.0442967,0.0439156,1336,449,0.46754,-0.226736
119,575,0.472656,0.0982056,0.015601,0.071321,0.00234949,0.0714198,0.0155022,1.52873,0.0433792,0.0457505,1343,449,0.472695,-0.0982156
126,575,0.372925,0.0289001,0.0116108,0.0681671,0.00397224,0.0684447,0.0113331,1.50102,0.0423605,0.0481299,1350,449,0.372978,-0.028891
133,575,1.1604,0.402069,0,0,0,0,0,0,0,-1,1357,449,1.16037,-0.402066
140,575,1.32446,0.0299072,0,0,0,0,0,0,0,-1,1364,449,1.32442,-0.0299191
147,575,1.39758,-0.337769,0,0,0,0,0,0,0,-1,1371,449,1.39753,0.337767
154,575,1.51672,-0.844543,0,0,0,0,0,0,0,-1,1378,449,1.51678,0.844549
161,575,0.0228271,-2.30035,-0.00647792,0.0437555,0.00963713,0.0455409,-0.00826332,1.38761,0.0334569,0.0460999,1385,449,0.0228581,2.30035
168,575,0.123535,-1.71179,-0.00721286,0.0381812,0.0090752,0.0399283,-0.00895994,1.38061,0.030054,0.0466417,1392,449,0.123537,1.7118
175,575,0.163208,-0.868988,-0.00648636,0.030754,0.00838425,0.0325546,-0.00828692,1.35925,0.0249288,0.0434075,1399,449,0.163199,0.869002
182,575,0.0397949,-0.591003,-0.00509871,0.0251857,0.0084594,0.0273884,-0.00730148,1.31606,0.0211178,0.0479581,1406,449,0.0397607,0.59101
189,575,-0.173462,-0.422089,-0.00347407,0.0218834,0.00771729,0.0240474,-0.00563807,1.29741,0.0182044,0.0470722,1413,449,-0.17351,0.422077
196,575,-0.283691,0.0360107,-0.00184908,0.0184841,0.00589599,0.02007,-0.00343503,1.30803,0.0146598,0.0434853,1420,449,-0.283705,-0.0360206
203,575,-0.388062,0.535706,-0.00136489,0.0161973,0.00377704,0.0169752,-0.00214275,1.36769,0.0120945,0.0447634,1427,449,-0.38803,-0.53572
210,575,-0.181885,0.190216,-0.000891923,0.0135134,0.00122131,0.0136163,-0.000994734,1.48681,0.00942659,0.0421288,1434,449,-0.181854,-0.190222
217,575,0.0898438,0.0661621,-0.000567381,0.0117936,-0.00136022,0.0119415,-0.000715291,-1.46248,0.00820984,0.0391654,1441,449,0.0898181,-0.0661677
224,575,0.990356,0.0160217,-0.00068882,0.0096213,-0.004132,0.0110729,-0.00214043,-1.23296,0.00818919,0.0433142,1448,449,0.990368,-0.0160161
231,575,1.12451,-0.188232,-0.00164015,0.00828977,-0.0060429,0.0111458,-0.00449615,-1.12929,0.00929891,0.0446514,1455,449,1.1245,0.188236
238,575,-0.197266,0.0567017,-0.00232779,0.0076964,-0.0070398,0.0113261,-0.00595745,-1.09475,0.0101378,0.0444585,1462,449,-0.197259,-0.0566873
245,575,-0.152466,0.126282,-0.00281453,0.00664315,-0.0077158,0.0109639,-0.0071353,-1.06032,0.0105272,0.0384034,1469,449,-0.152511,-0.126272
252,575,-0.210083,0.127014,-0.00375777,0.00608381,-0.00821558,0.0107395,-0.00841351,-1.05522,0.0110852,0.0345966,1476,449,-0.210119,-0.127007
259,575,-0.00964355,0.0751648,-0.00425208,0.00554085,-0.00774534,0.00980766,-0.0085189,-1.06727,0.0105896,0.0312615,1483,449,-0.00969881,-0.0751509
266,575,0.00756836,0.0692139,-0.00455914,0.00471762,-0.00656998,0.00812158,-0.0079631,-1.09277,0.00928664,0.022788,1490,449,0.00761776,-0.0691992
273,575,-0.0499268,0.0746765,-0.00488007,0.00376376,-0.00559292,0.00651007,-0.00762637,-1.11435,0.00817015,0.0153555,1497,449,-0.0499773,-0.074685
280,575,-0.0881348,0.0571899,-0.00430971,0.00339627,-0.00454624,0.00550263,-0.00641607,-1.13692,0.00688799,0.0123862,1504,449,-0.0881848,-0.0571845
287,575,-0.0460205,0.0792236,-0.00355927,0.00307812,-0.00377435,0.0047853,-0.00526645,-1.14602,0.0058056,0.010325,1511,449,-0.0459605,-0.0792204
294,575,-0.0311279,0.0871582,-0.00297397,0.00281347,-0.00314405,0.00419276,-0.00435326,-1.15738,0.00493434,0.00894489,1518,449,-0.0311259,-0.0871729
301,575,-0.0240479,0.0785522,-0.00262136,0.00271459,-0.00263446,0.00379607,-0.00370285,-1.18126,0.00432961,0.00889888,1525,449,-0.0240596,-0.0785545
308,575,-0.0201416,0.0836182,-0.00223983,0.00250275,-0.00206078,0.00327309,-0.00301017,-1.21307,0.0036287,0.00983071,1532,449,-0.0201941,-0.0836122
315,575,-0.0450439,0.0788879,-0.00220846,0.00265857,-0.00152876,0.00309892,-0.00264881,-1.29034,0.00332184,0.00979785,1539,449,-0.0450598,-0.0788983
322,575,-0.0407715,0.0925293,-0.00221746,0.002511,-0.00113724,0.0027703,-0.00247676,-1.34662,0.00303097,0.00909394,1546,449,-0.0408195,-0.0925152
329,575,-0.0402832,0.0786438,-0.00208657,0.00241387,-0.000883077,0.00258094,-0.00225364,-1.38381,0.00279338,0.0101317,1553,449,-0.0402404,-0.0786325
336,575,-0.0471191,0.0748291,-0.00161123,0.00187253,-0.00101607,0.00214722,-0.00188592,-1.30677,0.00233016,0.0112794,1560,449,-0.0470853,-0.0748209
343,575,-0.0360107,0.10257,-0.00132492,0.00137225,-0.00122825,0.00184775,-0.00180042,-1.20143,0.00210633,0.0114583,1567,449,-0.0359769,-0.102558
350,575,-0.0611572,0.0926819,-0.00117702,0.00126306,-0.0012215,0.00176945,-0.00168341,-1.1778,0.00199372,0.0107504,1574,449,-0.061202,-0.0926681
357,575,-0.0571289,0.0831604,-0.000950246,0.000855246,-0.00094859,0.00126199,-0.00135699,-1.16572,0.0015124,0.0104357,1581,449,-0.0571775,-0.0831576
364,575,-0.0375977,0.0964355,-0.000855795,0.00054301,-0.000810294,0.000914,-0.00122679,-1.14144,0.00124037,0.0101231,1588,449,-0.0375762,-0.096445
371,575,-0.0441895,0.074646,-0.00096706,4.58002e-05,-0.00054185,0.000281039,-0.0012023,-1.16121,0.000909798,0.0177348,1595,449,-0.0441988,-0.0746426
378,575,-0.0339355,0.075592,-0.000650703,8.81302e-05,-9.62465e-05,0.000100462,-0.000663035,-1.44336,0.000479035,0.0165732,1602,449,-0.0339678,-0.0756059
385,575,-0.0535889,0.0959778,-5.36148e-05,-0.000171085,0.00059161,0.000482169,-0.000706869,0.73592,0.000690565,0.0104961,1609,449,-0.0535423,-0.0959766
392,575,-0.0556641,0.09375,0.000269066,-0.000227572,0.001248,0.00129321,-0.00125172,0.687194,0.00146938,0.0084798,1616,449,-0.0557123,-0.0937625
399,575,-0.0463867,0.0834656,0.000699142,-0.00038621,0.00185889,0.00209295,-0.00178002,0.643377,0.00223849,0.00856478,1623,449,-0.0463618,-0.0834586
406,575,-0.0435791,0.0869751,0.000882008,-0.000653329,0.00237846,0.00261361,-0.00238493,0.629296,0.00288692,0.00893364,1630,449,-0.0435773,-0.0869662
413,575,-0.0462646,0.0939941,0.000907584,-0.00116239,0.00277463,0.00283397,-0.00308878,0.606882,0.00342056,0.00976707,1637,449,-0.0462131,-0.094006
420,575,-0.0611572,0.0910034,0.000679484,-0.00187658,0.00281226,0.00249049,-0.00368759,0.572124,0.00358917,0.0101464,1644,449,-0.0611748,-0.091011
427,575,-0.0507813,0.0657043,0.000227674,-0.00246582,0.00200733,0.00129817,-0.00353633,0.489929,0.00288918,0.0132875,1651,449,-0.0507349,-0.0657137
434,575,-0.0239258,0.0934448,-0.000229052,-0.00384058,0.000538341,-0.000150514,-0.00391912,0.144867,0.00256405,0.0190911,1658,449,-0.0239862,-0.0934464
441,575,-0.199951,0.289307,-0.00110749,-0.00623415,-0.00166562,-0.000613863,-0.00672777,-0.288114,0.00429521,0.0344526,1665,449,-0.199939,-0.289292
448,575,-0.237061,0.4953,-0.00210993,-0.0100546,-0.00389185,-0.000521148,-0.0116434,-0.387583,0.00759448,0.0442538,1672,449,-0.237013,-0.495287
455,575,-0.390869,0.505859,-0.00306792,-0.0133027,-0.00579425,-0.000454779,-0.0159158,-0.423676,0.0104622,0.0454941,1679,449,-0.390883,-0.505868
462,575,-0.518188,0.422546,-0.00384299,-0.0174902,-0.00906808,0.00068204,-0.0220152,-0.462853,0.0149094,0.0445888,1686,449,-0.518189,-0.422539
469,575,-0.467896,0.342194,-0.00374164,-0.0228365,-0.0122418,0.00223556,-0.0288137,-0.454214,0.019996,0.0447696,1693,449,-0.467925,-0.3422
476,575,-0.690552,-0.182587,-0.00349288,-0.0285537,-0.0154264,0.00385093,-0.0358976,-0.444309,0.0253132,0.0492028,1700,449,-0.690516,0.182602
483,575,-0.692505,-1.03479,-0.0029279,-0.035445,-0.0179262,0.00501459,-0.0433875,-0.417072,0.0307332,0.0480143,1707,449,-0.692539,1.03478
490,575,-0.620483,-1.94968,-0.00143449,-0.0415014,-0.0197485,0.00666283,-0.0495987,-0.389117,0.0354958,0.044898,1714,449,-0.620515,1.94968
497,575,0,0,0,0,0,0,0,0,0,-1,1721,449,0,0
504,575,0,0,0,0,0,0,0,0,0,-1,1728,449,0,0
511,575,0,0,0,0,0,0,0,0,0,-1,1735,449,0,0
518,575,0,0,0,0,0,0,0,0,0,-1,1742,449,0,0
525,575,0,0,0,0,0,0,0,0,0,-1,1749,449,0,0
532,575,0,0,0,0,0,0,0,0,0,-1,1756,449,0,0
539,575,0,0,0,0,0,0,0,0,0,-1,1763,449,0,0
546,575,0,0,0,0,0,0,0,0,0,-1,1770,449,0,0
553,575,0,0,0,0,0,0,0,0,0,-1,1777,449,0,0
560,575,0,0,0,0,0,0,0,0,0,-1,1784,449,0,0
567,575,0,0,0,0,0,0,0,0,0,-1,1791,449,0,0
574,575,0,0,0,0,0,0,0,0,0,-1,1798,449,0,0
581,575,0,0,0,0,0,0,0,0,0,-1,1805,449,0,0
588,575,0,0,0,0,0,0,0,0,0,-1,1812,449,0,0
595,575,0,0,0,0,0,0,0,0,0,-1,1819,449,0,0
602,575,0,0,0,0,0,0,0,0,0,-1,1826,449,0,0
609,575,0,0,0,0,0,0,0,0,0,-1,1833,449,0,0
616,575,0,0,0,0,0,0,0,0,0,-1,1840,449,0,0
623,575,0,0,0,0,0,0,0,0,0,-1,1847,449,0,0
630,575,0,0,0,0,0,0,0,0,0,-1,1854,449,0,0
637,575,0,0,0,0,0,0,0,0,0,-1,1861,449,0,0
644,575,0,0,0,0,0,0,0,0,0,-1,1868,449,0,0
651,575,0,0,0,0,0,0,0,0,0,-1,1875,449,0,0
658,575,0,0,0,0,0,0,0,0,0,-1,1882,449,0,0
665,575,0,0,0,0,0,0,0,0,0,-1,1889,449,0,0
672,575,0,0,0,0,0,0,0,0,0,-1,1896,449,0,0
679,575,0,0,0,0,0,0,0,0,0,-1,1903,449,0,0
686,575,0,0,0,0,0,0,0,0,0,-1,1910,449,0,0
693,575,0,0,0,0,0,0,0,0,0,-1,1917,449,0,0
700,575,0,0,0,0,0,0,0,0,0,-1,1924,449,0,0
707,575,0,0,0,0,0,0,0,0,0,-1,1931,449,0,0
714,575,0,0,0,0,0,0,0,0,0,-1,1938,449,0,0
721,575,0,0,0,0,0,0,0,0,0,-1,1945,449,0,0
728,575,0,0,0,0,0,0,0,0,0,-1,1952,449,0,0
735,575,0,0,0,0,0,0,0,0,0,-1,1959,449,0,0
742,575,0,0,0,0,0,0,0,0,0,-1,1966,449,0,0
749,575,0,0,0,0,0,0,0,0,0,-1,1973,449,0,0
756,575,0,0,0,0,0,0,0,0,0,-1,1980,449,0,0
763,575,0,0,0,0,0,0,0,0,0,-1,1987,449,0,0
770,575,0,0,0,0,0,0,0,0,0,-1,1994,449,0,0
777,575,0,0,0,0,0,0,0,0,0,-1,2001,449,0,0
784,575,0,0,0,0,0,0,0,0,0,-1,2008,449,0,0
791,575,0,0,0,0,0,0,0,0,0,-1,2015,449,0,0
798,575,0,0,0,0,0,0,0,0,0,-1,2022,449,0,0
805,575,0,0,0,0,0,0,0,0,0,-1,2029,449,0,0
812,575,0,0,0,0,0,0,0,0,0,-1,2036,449,0,0
-700,568,0,0,0,0,0,0,0,0,0,-1,524,456,0,0
-693,568,0,0,0,0,0,0,0,0,0,-1,531,456,0,0
-686,568,0,0,0,0,0,0,0,0,0,-1,538,456,0,0
-679,568,0,0,0,0,0,0,0,0,0,-1,545,456,0,0
-672,568,0,0,0,0,0,0,0,0,0,-1,552,456,0,0
-665,568,0,0,0,0,0,0,0,0,0,-1,559,456,0,0
-658,568,0,0,0,0,0,0,0,0,0,-1,566,456,0,0
-651,568,0,0,0,0,0,0,0,0,0,-1,573,456,0,0
-644,568,0,0,0,0,0,0,0,0,0,-1,580,456,0,0
-637,568,0,0,0,0,0,0,0,0,0,-1,587,456,0,0
-630,568,0,0,0,0,0,0,0,0,0,-1,594,456,0,0
-623,568,0,0,0,0,0,0,0,0,0,-1,601,456,0,0
-616,568,0,0,0,0,0,0,0,0,0,-1,608,456,0,0
-609,568,0,0,0,0,0,0,0,0,0,-1,615,456,0,0
-602,568,0,0,0,0,0,0,0,0,0,-1,622,456,0,0
-595,568,0,0,0,0,0,0,0,0,0,-1,629,456,0,0
-588,568,0,0,0,0,0,0,0,0,0,-1,636,456,0,0
-581,568,0,0,0,0,0,0,0,0,0,-1,643,456,0,0
-574,568,0,0,0,0,0,0,0,0,0,-1,650,456,0,0
-567,568,0,0,0,0,0,0,0,0,0,-1,657,456,0,0
-560,568,0,0,0,0,0,0,0,0,0,-1,664,456,0,0
-553,568,0,0,0,0,0,0,0,0,0,-1,671,456,0,0
-546,568,0,0,0,0,0,0,0,0,0,-1,678,456,0,0
-539,568,0,0,0,0,0,0,0,0,0,-1,685,456,0,0
-532,568,0,0,0,0,0,0,0,0,0,-1,692,456,0,0
-525,568,0,0,0,0,0,0,0,0,0,-1,699,456,0,0
-518,568,0,0,0,0,0,0,0,0,0,-1,706,456,0,0
-511,568,0,0,0,0,0,0,0,0,0,-1,713,456,0,0
-504,568,0,0,0,0,0,0,0,0,0,-1,720,456,0,0
-497,568,0,0,0,0,0,0,0,0,0,-1,727,456,0,0
-490,568,0,0,0,0,0,0,0,0,0,-1,734,456,0,0
-483,568,0,0,0,0,0,0,0,0,0,-1,741,456,0,0
-476,568,0,0,0,0,0,0,0,0,0,-1,748,456,0,0
-469,568,0,0,0,0,0,0,0,0,0,-1,755,456,0,0
-462,568,0,0,0,0,0,0,0,0,0,-1,762,456,0,0
-455,568,0,0,0,0,0,0,0,0,0,-1,769,456,0,0
-448,568,0,0,0,0,0,0,0,0,0,-1,776,456,0,0
-441,568,0,0,0,0,0,0,0,0,0,-1,783,456,0,0
-434,568,0,0,0,0,0,0,0,0,0,-1,790,456,0,0
-427,568,0,0,0,0,0,0,0,0,0,-1,797,456,0,0
-420,568,0,0,0,0,0,0,0,0,0,-1,804,456,0,0
-413,568,0,0,0,0,0,0,0,0,0,-1,811,456,0,0
-406,568,0,0,0,0,0,0,0,0,0,-1,818,456,0,0
-399,568,0,0,0,0,0,0,0,0,0,-1,825,456,0,0
-392,568,0,0,0,0,0,0,0,0,0,-1,832,456,0,0
-385,568,0,0,0,0,0,0,0,0,0,-1,839,456,0,0
-378,568,1.35419,2.75244,0,0,0,0,0,0,0,-1,846,456,1.35421,-2.75243
-371,568,0.98175,1.64761,0,0,0,0,0,0,0,-1,853,456,0.981734,-1.64762
-364,568,-1.79425,-1.02972,0,0,0,0,0,0,0,-1,860,456,-1.79424,1.02972
-357,568,-0.645081,0.402039,0,0,0,0,0,0,0,-1,867,456,-0.64506,-0.402027
-350,568,-0.519775,0.325348,-0.00820459,-0.0334798,-0.0201951,0.00298116,-0.0446655,-0.50582,0.0308188,0.0493406,874,456,-0.519771,-0.325363
-343,568,-0.503723,0.236267,-0.0066221,-0.0222245,-0.0198082,0.00686571,-0.0357123,-0.597807,0.0263961,0.044065,881,456,-0.503745,-0.236265
-336,568,-0.479065,-0.0117798,-0.00465341,-0.0143181,-0.0182259,0.00936983,-0.0283414,-0.655811,0.0226724,0.0438872,888,456,-0.479063,0.0117885
-329,568,-0.353882,0.0115356,-0.00375273,-0.0108282,-0.0160932,0.00918697,-0.0237679,-0.677205,0.0196375,0.0451526,895,456,-0.353872,-0.0115335
-322,568,-0.217163,0.0406189,-0.00308582,-0.00785586,-0.0141542,0.00888292,-0.0198246,-0.701931,0.0169708,0.041571,902,456,-0.217141,-0.0406179
-315,568,-0.086731,0.130524,-0.00306932,-0.00748005,-0.013198,0.00810633,-0.0186557,-0.702614,0.0158462,0.0367836,909,456,-0.0867605,-0.130537
-308,568,-0.0432129,0.0985718,-0.00337335,-0.00578568,-0.012294,0.0077735,-0.0169325,-0.7365,0.0145871,0.0249877,916,456,-0.0431868,-0.0985804
-301,568,-0.0101929,0.092804,-0.00335713,-0.00488995,-0.011134,0.00703684,-0.0152839,-0.751035,0.0131768,0.0130756,923,456,-0.0102134,-0.0927998
-294,568,-0.00952148,0.103271,-0.0030555,-0.00458943,-0.0101095,0.00631612,-0.0139611,-0.747538,0.0119812,0.00971065,930,456,-0.00950838,-0.103277
-287,568,-0.0159302,0.0823059,-0.00263505,-0.00449281,-0.00891823,0.00540255,-0.0125304,-0.733508,0.0106227,0.00899943,937,456,-0.0159488,-0.0823173
-280,568,-0.0142212,0.0725098,-0.00227919,-0.00390731,-0.00762814,0.00457821,-0.0107647,-0.73224,0.0090951,0.00978996,944,456,-0.0142241,-0.0725065
-273,568,-0.0188599,0.0706177,-0.00183247,-0.00394188,-0.00643547,0.00363415,-0.0094085,-0.704176,0.00777228,0.0102679,951,456,-0.0188718,-0.0706144
-266,568,-0.0247192,0.0813904,-0.00112615,-0.00364677,-0.00510973,0.00287639,-0.00764932,-0.664487,0.00628183,0.0101635,958,456,-0.0247083,-0.0813891
-259,568,-0.0224609,0.0882874,-0.000540252,-0.00322441,-0.00389502,0.00223742,-0.00600209,-0.619487,0.00491982,0.0110934,965,456,-0.0224823,-0.0882945
-252,568,-0.0445557,0.0932617,-0.000163721,-0.00272667,-0.00286995,0.00169786,-0.00458825,-0.575422,0.003755,0.010834,972,456,-0.0445786,-0.0932527
-245,568,-0.0459595,0.0862732,0.000343961,-0.00160894,-0.00184429,0.00145434,-0.00271932,-0.541936,0.00244628,0.0128997,979,456,-0.0459411,-0.086288
-238,568,-0.0330811,0.0771179,0.000464489,-0.000719471,-0.00087075,0.000925431,-0.00118041,-0.486861,0.00121878,0.011897,986,456,-0.033091,-0.0771292
-231,568,-0.0331421,0.0858459,0.000124638,-0.000271316,-0.000445893,0.000414529,-0.000561208,-0.576471,0.00056546,0.00955225,993,456,-0.0331239,-0.0858497
-224,568,-0.0476685,0.109497,-0.000142833,0.000299945,-0.000648518,0.000763822,-0.00060671,-0.949884,0.000793008,0.0109396,1000,456,-0.0476989,-0.109488
-217,568,-0.0426636,0.109528,-0.0004788,0.00121753,-0.000864471,0.00158044,-0.000841706,-1.17334,0.00141994,0.0104501,1007,456,-0.0426862,-0.109514
-210,568,-0.0253906,0.0986023,-0.000639541,0.00214169,-0.000934449,0.00242649,-0.000924338,-1.27496,0.00199835,0.0109863,1014,456,-0.0254133,-0.0986157
-203,568,-0.0336914,0.0765991,-0.000417154,0.00302594,-0.00112197,0.00335928,-0.000750491,-1.282,0.0025271,0.00961004,1021,456,-0.0336859,-0.0766072
-196,568,-0.0328369,0.0741882,-0.000197017,0.00385189,-0.00153214,0.00436631,-0.000711437,-1.24687,0.0031747,0.0106861,1028,456,-0.0328893,-0.0741993
-189,568,-0.00927734,0.0863037,0.000140369,0.00540569,-0.0015487,0.00582743,-0.00028137,-1.30492,0.00398206,0.0104761,1035,456,-0.00922762,-0.086302
-182,568,-0.0142822,0.101196,0.000901395,0.00674303,-0.00136586,0.00704661,0.000597814,-1.35209,0.00451169,0.0125285,1042,456,-0.0142231,-0.1012
-175,568,-0.0134277,0.103119,0.00162437,0.0083196,-0.000965611,0.00845608,0.00148789,-1.43038,0.00521269,0.0112852,1049,456,-0.0133908,-0.103117
-168,568,-0.0153809,0.109497,0.00226762,0.0100753,-0.000383014,0.0100941,0.00224888,-1.5219,0.00611908,0.0138932,1056,456,-0.0153618,-0.109485
-161,568,-0.034668,0.130585,0.00283511,0.0117021,0.000312202,0.0117131,0.00282413,1.53564,0.00705824,0.018927,1063,456,-0.0346392,-0.130573
-154,568,-0.0944824,0.108704,0.00334808,0.0133551,0.0011036,0.0134754,0.00322782,1.46225,0.00812426,0.0247425,1070,456,-0.0944574,-0.108719
-147,568,-0.0654297,0.0845032,0.00395858,0.0150577,0.00211051,0.0154455,0.00357081,1.38909,0.00933714,0.0295745,1077,456,-0.0653859,-0.0845131
-140,568,-0.0257568,0.0274048,0.0044443,0.0162297,0.00275626,0.0168424,0.00383155,1.35204,0.010194,0.0330663,1084,456,-0.0257136,-0.0273897
-133,568,0.0537109,-0.0177307,0.00489314,0.017008,0.00317299,0.0177887,0.00411241,1.32954,0.0107537,0.0373472,1091,456,0.0537607,0.0177306
-126,568,0.148804,-0.0578003,0.00527335,0.0174525,0.00296787,0.0181373,0.00458863,1.34405,0.0108891,0.0414475,1098,456,0.148751,0.0578089
-119,568,0.225586,0.163605,0.00555137,0.0175353,0.00243226,0.0180101,0.00507654,1.378,0.0107229,0.0439492,1105,456,0.225545,-0.163602
-112,568,0.78064,0.676483,0.00594278,0.0173897,0.00126591,0.017528,0.00580446,1.46196,0.0103103,0.0444689,1112,456,0.780668,-0.676486
-105,568,0.474243,-0.321625,0.00602144,0.0160674,-0.00108227,0.0161827,0.00590617,-1.46469,0.00945598,0.0448368,1119,456,0.474231,0.321616
-98,568,0.313477,-0.244873,0.00563987,0.0155313,-0.00339302,0.0165833,0.00458786,-1.27014,0.00988765,0.0408088,1126,456,0.313425,0.244859
-91,568,0.22876,-0.204865,0.00585244,0.0145242,-0.00487878,0.0167153,0.00366126,-1.14867,0.0101458,0.0413087,1133,456,0.228812,0.204865
-84,568,0.108521,-0.305115,0.00606208,0.0118625,-0.00691216,0.0164583,0.00146636,-0.984035,0.0105175,0.0402181,1140,456,0.108473,0.305124
-77,568,-0.116333,-0.667938,0.00569725,0.0104991,-0.00896187,0.0173761,-0.00117974,-0.916277,0.0119966,0.0381702,1147,456,-0.116302,0.667942
-70,568,-0.124512,-0.924866,0.00499052,0.00888591,-0.0110661,0.0181745,-0.00429801,-0.872508,0.0137743,0.0405091,1154,456,-0.124528,0.924874
-63,568,0.0568848,-1.22073,0.00386317,0.00767176,-0.0127554,0.0186642,-0.00712928,-0.859498,0.0153802,0.0445638,1161,456,0.0569366,1.22074
-56,568,-0.0700684,-1.72006,0.00211426,0.00612329,-0.0135807,0.0178466,-0.00960901,-0.85867,0.0160875,0.0455758,1168,456,-0.0700271,1.72006
-49,568,-0.117432,-2.09396,0.00446002,0.00866846,-0.0100123,0.0167952,-0.00366675,-0.888973,0.0125982,0.0467427,1175,456,-0.117408,2.09398
-42,568,-0.053833,0.284943,0,0,0,0,0,0,0,-1,1182,456,-0.0538502,-0.284954
-35,568,0.195923,0.0405273,0.0151769,0.00680391,-0.00337109,0.0163654,0.00561537,-0.338962,0.00960234,0.0483011,1189,456,0.195866,-0.0405326
-28,568,0.219971,0.0415955,0.0205713,0.0062018,-0.000473466,0.0205869,0.00618621,-0.0329018,0.0121972,0.0436181,1196,456,0.219959,-0.0415868
-21,568,0.338379,0.0742493,0.0256473,0.00423365,0.0028403,0.0260176,0.00386332,0.129653,0.0162115,0.0457751,1203,456,0.338392,-0.0742374
-14,568,0.432495,0.0710144,0.0306178,0.00110015,0.00564572,0.0316608,5.71664e-05,0.182679,0.0210881,0.0423946,1210,456,0.432537,-0.0710257
-7,568,0.511108,0.0735168,0.0359578,-0.00251649,0.00769019,0.0374379,-0.00399665,0.190149,0.0263919,0.043871,1217,456,0.511098,-0.073528
0,568,0.609253,0.111786,0,0,0,0,0,0,0,-1,1224,456,0.609216,-0.111781
7,568,1.18896,0.621338,0,0,0,0,0,0,0,-1,1231,456,1.18897,-0.621332
14,568,1.00635,0.570923,0,0,0,0,0,0,0,-1,1238,456,1.00641,-0.570936
21,568,0.874512,0.424377,0,0,0,0,0,0,0,-1,1245,456,0.874484,-0.424372
28,568,0.66333,0.608154,0,0,0,0,0,0,0,-1,1252,456,0.663291,-0.608154
35,568,0.421021,0.646667,0,0,0,0,0,0,0,-1,1259,456,0.421055,-0.646682
42,568,0.249878,0.653229,0.0250051,0.00438007,-0.00339709,0.0255502,0.00383495,-0.15911,0.0159099,0.045768,1266,456,0.249893,-0.653226
49,568,0.105835,0.675934,0.0239118,0.0132293,-0.00613961,0.0267084,0.0104327,-0.427411,0.0155426,0.0467887,1273,456,0.10581,-0.675931
56,568,0.0482178,0.617859,0.0163286,0.017987,-0.0141939,0.0313759,0.00293967,-0.814575,0.0200095,0.0465653,1280,456,0.0482075,-0.617873
63,568,-0.546631,-2.35367,0,0,0,0,0,0,0,-1,1287,456,-0.546643,2.35367
70,568,-1.21997,-2.08743,0,0,0,0,0,0,0,-1,1294,456,-1.21992,2.08743
77,568,-1.70435,-1.69067,0,0,0,0,0,0,0,-1,1301,456,-1.70439,1.69068
84,568,-1.71643,-1.51007,0.0175633,0.0712534,-0.00504257,0.0717228,0.0170938,-1.47796,0.0432581,0.0474163,1308,456,-1.71647,1.51007
91,568,-1.71655,-1.32477,0.0212609,0.0796836,-0.00166084,0.0797307,0.0212137,-1.5424,0.0476824,0.0408834,1315,456,-1.7165,1.32478
98,568,-1.42017,-1.09879,0.0231373,0.0829862,0.00089343,0.0829995,0.023124,1.55587,0.0494609,0.0412718,1322,456,-1.42015,1.09878
105,568,-0.966553,-0.924652,0,0,0,0,0,0,0,-1,1329,456,-0.966522,0.924652
112,568,-0.321655,-0.70874,0.0182041,0.0870381,0.00340246,0.0872059,0.0180363,1.52153,0.0531551,0.0471203,1336,456,-0.321651,0.708728
119,568,-0.363403,-0.786774,0.0135474,0.0852778,0.00438321,0.0855447,0.0132806,1.50999,0.0531588,0.0456283,1343,456,-0.36346,0.786781
126,568,-0.314819,-1.1073,0.00901737,0.0825574,0.00699328,0.0832165,0.00835826,1.47682,0.0529121,0.0484518,1350,456,-0.314834,1.10729
133,568,-0.400024,-1.16086,0,0,0,0,0,0,0,-1,1357,456,-0.40002,1.16085
140,568,-0.276001,2.03394,0,0,0,0,0,0,0,-1,1364,456,-0.276045,-2.03393
147,568,1.49268,-1.93347,0,0,0,0,0,0,0,-1,1371,456,1.4927,1.93347
154,568,1.25293,-1.82828,-0.00554071,0.0596022,0.0142691,0.0625906,-0.00852915,1.36435,0.0448413,0.0458082,1378,456,1.25295,1.82829
161,568,0.96814,-1.75708,-0.00742269,0.0523994,0.0145723,0.0557603,-0.0107836,1.34412,0.0412407,0.0489374,1385,456,0.968183,1.75709
168,568,0.543945,-1.58691,-0.00782199,0.0454807,0.0133441,0.0486347,-0.010976,1.3387,0.0366341,0.0462249,1392,456,0.543981,1.58693
175,568,0.180908,-1.12692,-0.00707889,0.0363298,0.0121861,0.0395168,-0.0102659,1.315,0.0303509,0.0424774,1399,456,0.180879,1.12693
182,568,-0.029541,-0.883179,-0.00544864,0.0292918,0.0117538,0.0328948,-0.00905163,1.27335,0.0254886,0.0477399,1406,456,-0.0295234,0.88318
189,568,-0.21582,-0.607117,-0.00345505,0.0254047,0.0100952,0.0285854,-0.00663578,1.26557,0.0216112,0.0467953,1413,456,-0.215785,0.607124
196,568,-0.291626,0.000762939,-0.00164437,0.0216728,0.00732322,0.023782,-0.00375358,1.29037,0.0172426,0.0399286,1420,456,-0.291619,-0.000762842
203,568,-0.328125,0.232727,-0.00164575,0.0195718,0.0045607,0.0205105,-0.00258453,1.36779,0.0146116,0.0461911,1427,456,-0.328131,-0.232713
210,568,-0.739868,0.439667,-0.00153993,0.0165347,0.00146871,0.0166532,-0.00165849,1.49024,0.0116943,0.0474772,1434,456,-0.739888,-0.43967
217,568,0.640991,0.326965,-0.00130682,0.0145638,-0.00124312,0.0146606,-0.00140361,-1.4931,0.0102736,0.0427683,1441,456,0.641047,-0.32697
224,568,1.34021,0.190063,0,0,0,0,0,0,0,-1,1448,456,1.34018,-0.190075
231,568,0.193604,0.24884,0,0,0,0,0,0,0,-1,1455,456,0.193648,-0.248828
238,568,-0.254395,0.0652771,0,0,0,0,0,0,0,-1,1462,456,-0.254435,-0.0652739
245,568,-0.278809,0.267242,-0.00395281,0.00782281,-0.00716148,0.0112061,-0.00733609,-1.12945,0.0107828,0.0445199,1469,456,-0.278863,-0.267253
252,568,-0.61792,0.228851,-0.00509726,0.00728752,-0.00765797,0.0109435,-0.00875323,-1.12539,0.0113953,0.04166,1476,456,-0.617953,-0.22886
259,568,-0.0932617,0.0786743,-0.00570674,0.00665025,-0.00718713,0.00994955,-0.00900604,-1.14044,0.0109485,0.0414458,1483,456,-0.0932949,-0.0786896
266,568,0.0706787,0.0742188,-0.00607443,0.00578179,-0.00597441,0.0082701,-0.00856274,-1.17615,0.00971893,0.0429775,1490,456,0.0706712,-0.0742175
273,568,0.083374,0.0249329,-0.00640429,0.00483031,-0.0051185,0.00681256,-0.00838654,-1.20131,0.00879087,0.0415592,1497,456,0.0833205,-0.0249412
280,568,0.0164795,-0.0299683,-0.00579082,0.00467904,-0.00434239,0.00624565,-0.00735742,-1.22456,0.00786248,0.0313452,1504,456,0.0164491,0.0299683
287,568,-0.0413818,0.0383301,-0.0050366,0.00463056,-0.00381656,0.00595568,-0.00636172,-1.23661,0.00711275,0.0207284,1511,456,-0.0414273,-0.0383383
294,568,-0.0441895,0.0621948,-0.00452222,0.00465916,-0.00330324,0.00572407,-0.00558713,-1.25893,0.00653068,0.015275,1518,456,-0.0442317,-0.0621903
301,568,-0.0463867,0.0614319,-0.0042036,0.00482859,-0.00287245,0.0056647,-0.00503971,-1.28754,0.0061837,0.0116286,1525,456,-0.0463462,-0.0614303
308,568,-0.046875,0.0721741,-0.00371448,0.00476234,-0.00244052,0.00541477,-0.0043669,-1.30957,0.00565824,0.00925336,1532,456,-0.0469254,-0.0721858
315,568,-0.0450439,0.0941162,-0.00362643,0.0051159,-0.00192989,0.00552297,-0.0040335,-1.36291,0.00553972,0.00694607,1539,456,-0.0450861,-0.0941096
322,568,-0.0361328,0.0870667,-0.00362653,0.00499818,-0.00150779,0.00525417,-0.00388252,-1.40262,0.00529485,0.00874587,1546,456,-0.0361418,-0.0870616
329,568,-0.032959,0.0839233,-0.00335534,0.00484469,-0.00120076,0.00501691,-0.00352755,-1.42835,0.00495807,0.00996213,1553,456,-0.0330036,-0.0839254
336,568,-0.0388184,0.0904846,-0.00268512,0.00405549,-0.0012671,0.00428581,-0.00291544,-1.39099,0.00418266,0.0101778,1560,456,-0.0388407,-0.0904751
343,568,-0.0281982,0.0956421,-0.00227894,0.00319854,-0.001396,0.00353381,-0.00261421,-1.3351,0.00356277,0.0103875,1567,456,-0.0281954,-0.0956337
350,568,-0.0429688,0.0679626,-0.00199278,0.00283248,-0.00131067,0.00316551,-0.00232581,-1.32197,0.00318275,0.00951617,1574,456,-0.0429999,-0.0679594
357,568,-0.0526123,0.0770264,-0.00151338,0.00202869,-0.000970104,0.00227698,-0.00176167,-1.32023,0.00233803,0.00885761,1581,456,-0.0525705,-0.0770323
364,568,-0.0419922,0.0875549,-0.00123556,0.001402,-0.000826818,0.00163976,-0.00147332,-1.29079,0.00179819,0.0110097,1588,456,-0.0420178,-0.0875565
371,568,-0.0180664,0.0634766,-0.00125283,0.000668745,-0.000668878,0.000878645,-0.00146273,-1.26672,0.00136574,0.0206311,1595,456,-0.0180669,-0.0634658
378,568,-0.0174561,0.0696106,-0.000932085,0.000522391,-0.000304564,0.000583591,-0.000993285,-1.37249,0.000920595,0.0182947,1602,456,-0.0174156,-0.0696086
385,568,-0.0482178,0.0883484,-0.000382717,0.000177702,0.000291772,0.000302027,-0.000507042,1.16799,0.000472089,0.00825854,1609,456,-0.0481612,-0.0883375
392,568,-0.0585938,0.0890503,-9.81101e-05,3.22436e-05,0.000853065,0.000822618,-0.000888485,0.823526,0.00098815,0.00944714,1616,456,-0.0586052,-0.0890498
399,568,-0.053833,0.0854797,0.000255686,-0.000119757,0.00132524,0.00140644,-0.00127051,0.715041,0.0015462,0.0155213,1623,456,-0.053801,-0.0854862
406,568,-0.0396729,0.0899353,0.000352858,-0.000251655,0.00171523,0.00179226,-0.00169106,0.698184,0.00201137,0.0135959,1630,456,-0.0396674,-0.0899201
413,568,-0.034668,0.0854492,0.000241434,-0.000519318,0.0020206,0.00191715,-0.00219503,0.692362,0.00237597,0.0109007,1637,456,-0.0346406,-0.0854644
420,568,-0.0456543,0.0817566,-7.68858e-05,-0.000883105,0.002026,0.00158572,-0.00254571,0.687196,0.00240665,0.00940628,1644,456,-0.0456197,-0.0817602
427,568,-0.0577393,0.0878906,-0.000549515,-0.00116497,0.00127413,0.000453518,-0.002168,0.666907,0.00161784,0.00981284,1651,456,-0.0577017,-0.0878999
434,568,-0.0477295,0.0894165,-0.00104649,-0.00215892,-5.56518e-05,-0.00104371,-0.00216169,-0.0498612,0.0012483,0.0121427,1658,456,-0.0477019,-0.0894224
441,568,-0.0467529,0.0922241,-0.00181113,-0.00409662,-0.00197307,-0.000673772,-0.00523398,-0.522917,0.00328782,0.0190089,1665,456,-0.0467384,-0.0922348
448,568,-0.104858,0.31601,-0.00258203,-0.00728598,-0.00375505,-0.000503186,-0.00936482,-0.505613,0.00608243,0.0344465,1672,456,-0.104872,-0.316012
455,568,-0.276123,0.489349,-0.00325799,-0.00980353,-0.00500372,-0.000551777,-0.0125097,-0.495784,0.00816213,0.0422198,1679,456,-0.27611,-0.489355
462,568,-0.397095,0.378845,-0.00370731,-0.0131168,-0.00746141,0.000408788,-0.0172329,-0.504111,0.0116273,0.0422726,1686,456,-0.397089,-0.378848
469,568,-0.355225,0.25589,-0.00329313,-0.0173657,-0.00977407,0.0017139,-0.0223728,-0.473421,0.0155181,0.0379359,1693,456,-0.35521,-0.255885
476,568,-0.221802,0.0834351,-0.00267467,-0.0218731,-0.0120076,0.00309904,-0.0276468,-0.448201,0.0195463,0.0434834,1700,456,-0.221764,-0.083425
483,568,-0.409912,-0.686035,-0.0015529,-0.0272589,-0.0135873,0.0042974,-0.0331092,-0.406581,0.0236359,0.0458231,1707,456,-0.409913,0.686027
490,568,-0.517212,-1.32892,0.000411049,-0.0317443,-0.0146058,0.00605483,-0.0373881,-0.368733,0.0271695,0.0470519,1714,456,-0.517188,1.32891
497,568,-0.4823,-2.02344,0,0,0,0,0,0,0,-1,1721,456,-0.482335,2.02343
504,568,0,0,0,0,0,0,0,0,0,-1,1728,456,0,0
511,568,0,0,0,0,0,0,0,0,0,-1,1735,456,0,0
518,568,0,0,0,0,0,0,0,0,0,-1,1742,456,0,0
525,568,0,0,0,0,0,0,0,0,0,-1,1749,456,0,0
532,568,0,0,0,0,0,0,0,0,0,-1,1756,456,0,0
539,568,0,0,0,0,0,0,0,0,0,-1,1763,456,0,0
546,568,0,0,0,0,0,0,0,0,0,-1,1770,456,0,0
553,568,0,0,0,0,0,0,0,0,0,-1,1777,456,0,0
560,568,0,0,0,0,0,0,0,0,0,-1,1784,456,0,0
567,568,0,0,0,0,0,0,0,0,0,-1,1791,456,0,0
574,568,0,0,0,0,0,0,0,0,0,-1,1798,456,0,0
581,568,0,0,0,0,0,0,0,0,0,-1,1805,456,0,0
588,568,0,0,0,0,0,0,0,0,0,-1,1812,456,0,0
595,568,0,0,0,0,0,0,0,0,0,-1,1819,456,0,0
602,568,0,0,0,0,0,0,0,0,0,-1,1826,456,0,0
609,568,0,0,0,0,0,0,0,0,0,-1,1833,456,0,0
616,568,0,0,0,0,0,0,0,0,0,-1,1840,456,0,0
623,568,0,0,0,0,0,0,0,0,0,-1,1847,456,0,0
630,568,0,0,0,0,0,0,0,0,0,-1,1854,456,0,0
637,568,0,0,0,0,0,0,0,0,0,-1,1861,456,0,0
644,568,0,0,0,0,0,0,0,0,0,-1,1868,456,0,0
651,568,0,0,0,0,0,0,0,0,0,-1,1875,456,0,0
658,568,0,0,0,0,0,0,0,0,0,-1,1882,456,0,0
665,568,0,0,0,0,0,0,0,0,0,-1,1889,456,0,0
672,568,0,0,0,0,0,0,0,0,0,-1,1896,456,0,0
679,568,0,0,0,0,0,0,0,0,0,-1,1903,456,0,0
686,568,0,0,0,0,0,0,0,0,0,-1,1910,456,0,0
693,568,0,0,0,0,0,0,0,0,0,-1,1917,456,0,0
700,568,0,0,0,0,0,0,0,0,0,-1,1924,456,0,0
707,568,0,0,0,0,0,0,0,0,0,-1,1931,456,0,0
714,568,0,0,0,0,0,0,0,0,0,-1,1938,456,0,0
721,568,0,0,0,0,0,0,0,0,0,-1,1945,456,0,0
728,568,0,0,0,0,0,0,0,0,0,-1,1952,456,0,0
735,568,0,0,0,0,0,0,0,0,0,-1,1959,456,0,0
742,568,0,0,0,0,0,0,0,0,0,-1,1966,456,0,0
749,568,0,0,0,0,0,0,0,0,0,-1,1973,456,0,0
756,568,0,0,0,0,0,0,0,0,0,-1,1980,456,0,0
763,568,0,0,0,0,0,0,0,0,0,-1,1987,456,0,0
770,568,0,0,0,0,0,0,0,0,0,-1,1994,456,0,0
777,568,0,0,0,0,0,0,0,0,0,-1,2001,456,0,0
784,568,0,0,0,0,0,0,0,0,0,-1,2008,456,0,0
791,568,0,0,0,0,0,0,0,0,0,-1,2015,456,0,0
798,568,0,0,0,0,0,0,0,0,0,-1,2022,456,0,0
805,568,0,0,0,0,0,0,0,0,0,-1,2029,456,0,0
812,568,0,0,0,0,0,0,0,0,0,-1,2036,456,0,0
-700,561,0,0,0,0,0,0,0,0,0,-1,524,463,0,0
-693,561,0,0,0,0,0,0,0,0,0,-1,531,463,0,0
-686,561,0,0,0,0,0,0,0,0,0,-1,538,463,0,0
-679,561,0,0,0,0,0,0,0,0,0,-1,545,463,0,0
-672,561,0,0,0,0,0,0,0,0,0,-1,552,463,0,0
-665,561,0,0,0,0,0,0,0,0,0,-1,559,463,0,0
-658,561,0,0,0,0,0,0,0,0,0,-1,566,463,0,0
-651,561,0,0,0,0,0,0,0,0,0,-1,573,463,0,0
-644,561,0,0,0,0,0,0,0,0,0,-1,580,463,0,0
-637,561,0,0,0,0,0,0,0,0,0,-1,587,463,0,0
-630,561,0,0,0,0,0,0,0,0,0,-1,594,463,0,0
-623,561,0,0,0,0,0,0,0,0,0,-1,601,463,0,0
-616,561,0,0,0,0,0,0,0,0,0,-1,608,463,0,0
-609,561,0,0,0,0,0,0,0,0,0,-1,615,463,0,0
-602,561,0,0,0,0,0,0,0,0,0,-1,622,463,0,0
-595,561,0,0,0,0,0,0,0,0,0,-1,629,463,0,0
-588,561,0,0,0,0,0,0,0,0,0,-1,636,463,0,0
-581,561,0,0,0,0,0,0,0,0,0,-1,643,463,0,0
-574,561,0,0,0,0,0,0,0,0,0,-1,650,463,0,0
-567,561,0,0,0,0,0,0,0,0,0,-1,657,463,0,0
-560,561,0,0,0,0,0,0,0,0,0,-1,664,463,0,0
-553,561,0,0,0,0,0,0,0,0,0,-1,671,463,0,0
-546,561,0,0,0,0,0,0,0,0,0,-1,678,463,0,0
-539,561,0,0,0,0,0,0,0,0,0,-1,685,463,0,0
-532,561,0,0,0,0,0,0,0,0,0,-1,692,463,0,0
-525,561,0,0,0,0,0,0,0,0,0,-1,699,463,0,0
-518,561,0,0,0,0,0,0,0,0,0,-1,706,463,0,0
-511,561,0,0,0,0,0,0,0,0,0,-1,713,463,0,0
-504,561,0,0,0,0,0,0,0,0,0,-1,720,463,0,0
-497,561,0,0,0,0,0,0,0,0,0,-1,727,463,0,0
-490,561,0,0,0,0,0,0,0,0,0,-1,734,463,0,0
-483,561,0,0,0,0,0,0,0,0,0,-1,741,463,0,0
-476,561,0,0,0,0,0,0,0,0,0,-1,748,463,0,0
-469,561,0,0,0,0,0,0,0,0,0,-1,755,463,0,0
-462,561,0,0,0,0,0,0,0,0,0,-1,762,463,0,0
-455,561,0,0,0,0,0,0,0,0,0,-1,769,463,0,0
-448,561,0,0,0,0,0,0,0,0,0,-1,776,463,0,0
-441,561,0,0,0,0,0,0,0,0,0,-1,783,463,0,0
-434,561,0,0,0,0,0,0,0,0,0,-1,790,463,0,0
-427,561,0,0,0,0,0,0,0,0,0,-1,797,463,0,0
-420,561,0,0,0,0,0,0,0,0,0,-1,804,463,0,0
-413,561,0,0,0,0,0,0,0,0,0,-1,811,463,0,0
-406,561,0,0,0,0,0,0,0,0,0,-1,818,463,0,0
-399,561,0,0,0,0,0,0,0,0,0,-1,825,463,0,0
-392,561,1.25293,3.02188,0,0,0,0,0,0,0,-1,832,463,1.25295,-3.02189
-385,561,1.39221,4.4552,0,0,0,0,0,0,0,-1,839,463,1.39224,-4.45519
-378,561,1.00879,3.30954,0,0,0,0,0,0,0,-1,846,463,1.0088,-3.30954
-371,561,0.928284,1.98447,0,0,0,0,0,0,0,-1,853,463,0.928287,-1.98446
-364,561,0.535217,1.08728,0,0,0,0,0,0,0,-1,860,463,0.535228,-1.08729
-357,561,0.189697,0.689484,-0.00932194,-0.0388538,-0.0149579,-0.00306948,-0.0451063,-0.395929,0.0291017,0.0434752,867,463,0.189703,-0.68948
-350,561,-0.0654907,0.559235,-0.00868144,-0.0262746,-0.0155757,0.000410037,-0.0353661,-0.528344,0.0237153,0.046898,874,463,-0.0654707,-0.559229
-343,561,-0.233826,0.521149,-0.0064362,-0.0167559,-0.0153126,0.00456255,-0.0277546,-0.622889,0.0201965,0.0434708,881,463,-0.233845,-0.521156
-336,561,-0.0627441,0.407013,-0.00409874,-0.0103381,-0.0139719,0.00709754,-0.0215344,-0.675558,0.0172169,0.0408646,888,463,-0.0627185,-0.407019
-329,561,-0.113098,0.0464783,-0.00281178,-0.00763065,-0.0120533,0.00707054,-0.017513,-0.686749,0.0146139,0.033485,895,463,-0.113083,-0.0464853
-322,561,-0.0985718,0.0508423,-0.00173439,-0.00503763,-0.0102146,0.0069613,-0.0137333,-0.705246,0.0121594,0.025595,902,463,-0.098543,-0.0508548
-315,561,-0.0386353,0.0831604,-0.00144605,-0.00517901,-0.00939257,0.0062637,-0.0128888,-0.687317,0.011276,0.0181111,909,463,-0.0386649,-0.0831533
-308,561,-0.0189209,0.0847473,-0.00176003,-0.00358107,-0.00876894,0.00614553,-0.0114866,-0.733666,0.0103344,0.0129104,916,463,-0.0189146,-0.0847371
-301,561,-0.0206299,0.0831909,-0.00185386,-0.00281873,-0.00787944,0.0055579,-0.0102305,-0.754823,0.00924753,0.0102592,923,463,-0.0206368,-0.0832052
-294,561,-0.0272827,0.0936279,-0.00173442,-0.00275316,-0.00720237,0.00497657,-0.00946414,-0.750096,0.00847048,0.00986895,930,463,-0.027259,-0.0936279
-287,561,-0.0391235,0.0816956,-0.00160767,-0.00301352,-0.00640509,0.00413295,-0.00875414,-0.730745,0.00759815,0.0084649,937,463,-0.0391264,-0.0816915
-280,561,-0.0289917,0.0726013,-0.00158502,-0.00285635,-0.00551469,0.00333051,-0.00777189,-0.728018,0.00657872,0.0108627,944,463,-0.028981,-0.0725897
-273,561,-0.0271606,0.0691223,-0.00138887,-0.00324616,-0.00465081,0.00242511,-0.00706013,-0.686857,0.00569007,0.0132381,951,463,-0.0271714,-0.0691372
-266,561,-0.0309448,0.0735779,-0.000923186,-0.00336183,-0.00369287,0.00174645,-0.00603147,-0.625942,0.00471227,0.00869458,958,463,-0.0309437,-0.0735786
-259,561,-0.0244141,0.0927124,-0.000575367,-0.00333574,-0.00282264,0.00118645,-0.00509756,-0.558006,0.0038552,0.00928728,965,463,-0.0244202,-0.0927273
-252,561,-0.0603638,0.0998535,-0.000421068,-0.00309759,-0.00214141,0.000765861,-0.00428452,-0.506119,0.00314289,0.0130499,972,463,-0.060364,-0.0998679
-245,561,-0.0629883,0.0931091,-0.000256989,-0.00217869,-0.00148548,0.000551307,-0.00298699,-0.498327,0.00219826,0.0159703,979,463,-0.0629684,-0.0931033
-238,561,-0.0421753,0.0820007,-0.000482301,-0.00125041,-0.000805786,2.62733e-05,-0.00175899,-0.563012,0.00118151,0.0127628,986,463,-0.0421914,-0.0819997
-231,561,-0.0234375,0.0815125,-0.00093643,-0.000571947,-0.000550232,-0.000174562,-0.00133382,-0.945317,0.000837112,0.00975799,993,463,-0.023434,-0.0815175
-224,561,-0.0179443,0.0845337,-0.00122613,0.000223743,-0.000904522,0.000657984,-0.00166037,-1.12321,0.00137958,0.00989681,1000,463,-0.01796,-0.0845213
-217,561,-0.0164795,0.0908813,-0.00171049,0.00140934,-0.00125171,0.00184946,-0.00215061,-1.23269,0.00231162,0.0104462,1007,463,-0.0164871,-0.0908733
-210,561,-0.022522,0.0965576,-0.00195113,0.00262122,-0.00140523,0.00301856,-0.00234847,-1.29523,0.0031067,0.0115921,1014,463,-0.0225276,-0.0965694
-203,561,-0.0324707,0.0849915,-0.00165739,0.00374656,-0.00160194,0.00418575,-0.00209658,-1.30321,0.00369335,0.0130542,1021,463,-0.0324447,-0.0849927
-196,561,-0.0509033,0.0777588,-0.00137801,0.0046878,-0.00205565,0.0053188,-0.00200901,-1.27297,0.0043722,0.0120947,1028,463,-0.050894,-0.0777592
-189,561,-0.0380859,0.0963745,-0.000902577,0.00653561,-0.00200045,0.00703948,-0.00140645,-1.32405,0.00522528,0.0136521,1035,463,-0.0381344,-0.0963781
-182,561,-0.0332031,0.0911865,0.000162097,0.00806918,-0.00169573,0.00841749,-0.000186222,-1.36821,0.00567476,0.0154925,1042,463,-0.0332263,-0.0911724
-175,561,-0.0366211,0.0791321,0.00120442,0.00986478,-0.00110494,0.0100035,0.00106566,-1.44588,0.00634371,0.0235438,1049,463,-0.0366246,-0.0791462
-168,561,-0.0445557,0.097168,0.00205879,0.0119008,-0.000301751,0.01191,0.00204955,-1.54018,0.00735267,0.0345206,1056,463,-0.0446111,-0.0971828
-161,561,-0.0512695,0.133026,0.0029293,0.0138145,0.000738302,0.0138644,0.00287945,1.50338,0.00844828,0.0364968,1063,463,-0.0512212,-0.13302
-154,561,-0.236816,0.168091,0.00382748,0.0157857,0.00192468,0.0160878,0.00352534,1.41508,0.00976457,0.0386974,1070,463,-0.236857,-0.168096
-147,561,-0.427124,0.00973511,0.00485772,0.0178969,0.00341876,0.0187389,0.00401572,1.32931,0.0113924,0.042392,1077,463,-0.427087,-0.00972378
-140,561,0.0128174,-0.468353,0.00575062,0.0193818,0.00439088,0.0206737,0.00445868,1.28464,0.0125628,0.042876,1084,463,0.0128036,0.46834
-133,561,0.0296631,-0.349792,0.00657504,0.0203436,0.00497043,0.0219504,0.00496824,1.25813,0.0132908,0.0429713,1091,463,0.0296759,0.349783
-126,561,0.0655518,-0.143555,0.00710433,0.0208994,0.00475093,0.0223773,0.00562647,1.26922,0.0134411,0.0431626,1098,463,0.0655268,0.143557
-119,561,0.167114,-0.101593,0.00746082,0.0210521,0.00419088,0.0222405,0.00627246,1.29449,0.013241,0.0425888,1105,463,0.16706,0.101597
-112,561,0.119507,-0.45166,0.00807767,0.0208364,0.00283444,0.0214377,0.00747632,1.36174,0.0125644,0.0468043,1112,463,0.119538,0.451664
-105,561,-0.0422363,-0.930573,0.00824084,0.0190819,-4.82641e-06,0.0190819,0.00824084,-1.57035,0.011051,0.0480838,1119,463,-0.0422287,0.930583
-98,561,0.434814,-0.344421,0.00778399,0.0179268,-0.0028476,0.0186716,0.00703922,-1.31498,0.0108882,0.0434855,1126,463,0.434824,0.344427
-91,561,0.384033,-0.334869,0,0,0,0,0,0,0,-1,1133,463,0.383995,0.334864
-84,561,-0.0714111,-0.395782,0.0081368,0.0118838,-0.00771629,0.0179508,0.00206984,-0.904494,0.0113404,0.0392869,1140,463,-0.0714155,0.395781
-77,561,0.147827,-0.308228,0.00753838,0.00945425,-0.0105031,0.019043,-0.00205036,-0.830875,0.013431,0.038099,1147,463,0.147829,0.308236
-70,561,0.175781,-0.63269,0.00648386,0.00664991,-0.0134296,0.0199968,-0.00686301,-0.788489,0.0161136,0.0387792,1154,463,0.175768,0.632695
-63,561,0.0965576,-0.707947,0.0048784,0.00439537,-0.0158294,0.0204681,-0.0111943,-0.77777,0.0185398,0.0419174,1161,463,0.096555,0.707938
-56,561,-0.169189,-1.71408,0.00219701,0.002165,-0.0172606,0.0194416,-0.0150796,-0.784934,0.0199838,0.0429664,1168,463,-0.169158,1.71408
-49,561,-0.0501709,-2.16101,0.00513971,0.00522191,-0.0130249,0.0182058,-0.00784414,-0.786976,0.0154314,0.0475022,1175,463,-0.0501355,2.16102
-42,561,0.05896,-2.5983,0,0,0,0,0,0,0,-1,1182,463,0.0589104,2.5983
-35,561,0.194092,-0.10144,0,0,0,0,0,0,0,-1,1189,463,0.194151,0.101452
-28,561,-0.0611572,-0.259979,0,0,0,0,0,0,0,-1,1196,463,-0.0611604,0.259975
-21,561,0.384155,0.0781555,0,0,0,0,0,0,0,-1,1203,463,0.384199,-0.0781661
-14,561,0.444214,0.0979919,0,0,0,0,0,0,0,-1,1210,463,0.444231,-0.0979932
-7,561,0.512939,0.0831604,0,0,0,0,0,0,0,-1,1217,463,0.512971,-0.083151
0,561,2.25049,0.160461,0.0576915,-0.00841222,0.0161312,0.0614179,-0.0121386,0.227024,0.045534,0.0466641,1224,463,2.25053,-0.160475
7,561,2.17786,1.10571,0.0629725,-0.0175792,0.0161886,0.0661042,-0.020711,0.191091,0.0523568,0.0418424,1231,463,2.17792,-1.10572
14,561,2.12146,2.15292,0.0615084,-0.0180947,0.0161797,0.0646714,-0.0212577,0.193053,0.0516787,0.0393272,1238,463,2.12152,-2.15294
21,561,2.13049,3.02954,0,0,0,0,0,0,0,-1,1245,463,2.1305,-3.02955
28,561,1.90051,3.9444,0.0535495,-0.0112551,0.00770468,0.0544529,-0.0121585,0.116723,0.0409608,0.0440982,1252,463,1.90057,-3.94441
35,561,1.60645,4.89273,0.0484067,-0.00562532,0.00556427,0.0489738,-0.00619238,0.101561,0.034897,0.0406469,1259,463,1.60639,-4.89272
42,561,0.977295,1.03564,0,0,0,0,0,0,0,-1,1266,463,0.977291,-1.03565
49,561,0.81604,1.05444,0,0,0,0,0,0,0,-1,1273,463,0.816006,-1.05445
56,561,0.684326,1.07565,0,0,0,0,0,0,0,-1,1280,463,0.684348,-1.07566
63,561,-2.76294,-3.04135,0.0123496,0.0258231,-0.0173272,0.0376771,0.000495588,-0.970804,0.0249545,0.047182,1287,463,-2.76295,3.04134
70,561,-2.53687,-2.66098,0.013931,0.0431492,-0.0144323,0.0490759,0.00800439,-1.18114,0.0304024,0.0482391,1294,463,-2.53681,2.66097
77,561,-1.96448,-2.45941,0.016516,0.0594074,-0.00993748,0.0615979,0.0143255,-1.35383,0.0372207,0.0471635,1301,463,-1.96449,2.45941
84,561,-1.38123,-2.0141,0.0198355,0.0743593,-0.00654184,0.0751332,0.0190615,-1.45304,0.0450984,0.0448293,1308,463,-1.38121,2.01408
91,561,-1.68079,-1.57083,0.0223936,0.0862171,-0.00265138,0.0863271,0.0222837,-1.52935,0.0517483,0.0397243,1315,463,-1.68074,1.57084
98,561,-1.57617,-1.54376,0.0230589,0.0921893,0.000956409,0.0922026,0.0230456,1.55696,0.0554078,0.0436506,1322,463,-1.57623,1.54376
105,561,-1.08398,-1.61203,0.020321,0.0963205,0.0036323,0.0964937,0.0201478,1.52315,0.0587758,0.0470423,1329,463,-1.08404,1.61204
112,561,-0.938965,-1.6405,0.0152967,0.0997481,0.00529431,0.100079,0.0149661,1.50843,0.0623322,0.0450235,1336,463,-0.938967,1.6405
119,561,-1.07996,-1.73993,0.00922269,0.0992651,0.00733187,0.0998582,0.00862959,1.49008,0.0638902,0.0419911,1343,463,-1.07993,1.73994
126,561,-1.12427,-2.04037,0,0,0,0,0,0,0,-1,1350,463,-1.12425,2.04038
133,561,-1.39685,-1.76758,0,0,0,0,0,0,0,-1,1357,463,-1.39681,1.76757
140,561,-0.475586,-4.55618,0,0,0,0,0,0,0,-1,1364,463,-0.475564,4.55619
147,561,1.27869,-2.51361,0,0,0,0,0,0,0,-1,1371,463,1.27868,2.51361
154,561,1.15393,-2.48181,0,0,0,0,0,0,0,-1,1378,463,1.15395,2.48181
161,561,0.580688,-1.73953,0,0,0,0,0,0,0,-1,1385,463,0.580694,1.73952
168,561,0.358276,-1.52377,-0.00780419,0.0529916,0.0187078,0.0582871,-0.0130996,1.29495,0.0438813,0.0471212,1392,463,0.358331,1.52379
175,561,0.171143,-1.35675,-0.00712391,0.042095,0.0170201,0.0474072,-0.0124362,1.26826,0.0364641,0.0439143,1399,463,0.171095,1.35675
182,561,-0.053833,-1.17029,-0.00528286,0.033412,0.0158387,0.0390683,-0.0109392,1.22779,0.0303562,0.0451702,1406,463,-0.0538743,1.17028
189,561,-0.201538,-0.705841,-0.00293679,0.0289257,0.0128394,0.0334555,-0.00746663,1.23162,0.0251646,0.0459045,1413,463,-0.201563,0.705826
196,561,-0.0407715,0.00830078,-0.0010406,0.0249583,0.0087943,0.0276536,-0.00373591,1.2734,0.0197989,0.0427271,1420,463,-0.0407509,-0.00831571
203,561,-0.221313,0.428009,-0.00201915,0.0233749,0.00508496,0.0243552,-0.00299953,1.38033,0.0173235,0.0468472,1427,463,-0.22136,-0.428022
210,561,-0.589844,0.632172,-0.00265783,0.0200594,0.00114694,0.0201172,-0.00271559,1.52048,0.0144022,0.047246,1434,463,-0.589786,-0.632182
217,561,-1.11633,0.890594,-0.00269492,0.0179383,-0.0018852,0.0181092,-0.00286575,-1.48043,0.0131327,0.045276,1441,463,-1.11634,-0.890582
224,561,0.505371,-0.189117,0,0,0,0,0,0,0,-1,1448,463,0.505349,0.189107
231,561,0.307617,-0.11554,-0.00447202,0.0122659,-0.00649217,0.0144889,-0.00669493,-1.24091,0.0125033,0.0429559,1455,463,0.307667,0.115544
238,561,0.0690918,-0.216919,-0.00531335,0.0115949,-0.00750175,0.0144434,-0.00816181,-1.20791,0.013218,0.0430577,1462,463,0.0691482,0.216918
245,561,-0.199585,-0.104462,-0.00585234,0.0100556,-0.00803426,0.0134072,-0.0092039,-1.17559,0.0131295,0.0469616,1469,463,-0.199636,0.104466
252,561,-0.49939,0.100311,-0.00719015,0.00957516,-0.00861768,0.0132147,-0.0108297,-1.17119,0.0139048,0.0471358,1476,463,-0.499389,-0.100317
259,561,-0.284912,0.267426,-0.00784388,0.00881982,-0.0080943,0.0121042,-0.0111283,-1.18533,0.0134172,0.0450079,1483,463,-0.284901,-0.267434
266,561,0.12793,0.0891418,0,0,0,0,0,0,0,-1,1490,463,0.127899,-0.0891279
273,561,0.541992,0.128906,-0.00830551,0.00678158,-0.00581466,0.0087625,-0.0102864,-1.24245,0.0110096,0.0493465,1497,463,0.541948,-0.128907
280,561,0.502686,-0.0229797,-0.00751238,0.00676962,-0.00510205,0.008405,-0.00914776,-1.26061,0.0101371,0.0461312,1504,463,0.502733,0.0229889
287,561,0.0718994,-0.20285,-0.00667269,0.0069024,-0.00459678,0.00831249,-0.00808278,-1.27315,0.00946612,0.0385372,1511,463,0.0718482,0.202835
294,561,-0.0563965,0.0259705,-0.00612982,0.00711739,-0.00401507,0.00823929,-0.00725172,-1.29832,0.0089498,0.0301433,1518,463,-0.056451,-0.0259755
301,561,-0.060791,0.0734863,-0.00569846,0.00742164,-0.00350781,0.00830061,-0.00657742,-1.32528,0.00860902,0.0237911,1525,463,-0.0608114,-0.0735009
308,561,-0.0355225,0.0698853,-0.00492306,0.00738126,-0.00304947,0.00809556,-0.00563736,-1.34071,0.00797094,0.0162074,1532,463,-0.0355518,-0.0698769
315,561,-0.0294189,0.0786743,-0.0046839,0.00785539,-0.00244065,0.00831368,-0.0051422,-1.38518,0.00784035,0.0115263,1539,463,-0.0294752,-0.0786747
322,561,-0.0410156,0.0863342,-0.00461657,0.00764149,-0.00197077,0.00795054,-0.00492562,-1.41524,0.00750213,0.0126409,1546,463,-0.0410457,-0.0863211
329,561,-0.0301514,0.0943604,-0.00418061,0.00736169,-0.00162489,0.00758608,-0.00440499,-1.43357,0.00700378,0.0110377,1553,463,-0.0301519,-0.0943622
336,561,-0.0251465,0.112885,-0.00333407,0.00623331,-0.00166055,0.00651333,-0.00361408,-1.40374,0.00592639,0.0102605,1560,463,-0.0251125,-0.112891
343,561,-0.034668,0.0935059,-0.00282995,0.00495513,-0.0017274,0.0053212,-0.00319602,-1.36196,0.00496818,0.00947954,1567,463,-0.0346702,-0.0934965
350,561,-0.0463867,0.0805969,-0.002443,0.00432469,-0.00156446,0.00466884,-0.00278715,-1.35426,0.00435018,0.00877863,1574,463,-0.0464246,-0.0806063
357,561,-0.0550537,0.0964661,-0.00175999,0.00312545,-0.00114917,0.00338227,-0.0020168,-1.35093,0.00315021,0.00905121,1581,463,-0.0550405,-0.0964669
364,561,-0.0478516,0.0752869,-0.00138257,0.00214945,-0.000997323,0.00241161,-0.00164472,-1.31375,0.00235583,0.00906727,1588,463,-0.0478451,-0.0752785
371,561,-0.0609131,0.0761719,-0.00141223,0.00114214,-0.000913219,0.00143504,-0.00170514,-1.26043,0.00181521,0.0160196,1595,463,-0.0609289,-0.076157
378,561,-0.0635986,0.0752258,-0.00114658,0.000756876,-0.000566967,0.000912955,-0.00130266,-1.30216,0.00128577,0.0113563,1602,463,-0.063582,-0.0752136
385,561,-0.0462646,0.0712585,-0.000656235,0.000270202,-1.11261e-07,0.000270202,-0.000656235,-1.57068,0.000550139,0.0090072,1609,463,-0.0462866,-0.0712627
392,561,-0.0471191,0.0800171,-0.000404024,-2.30557e-05,0.000519963,0.000340216,-0.000767296,0.960978,0.000655078,0.0128138,1616,463,-0.0471215,-0.0800076
399,561,-0.0718994,0.0941772,-0.000106696,-0.000237028,0.000917737,0.000748186,-0.00109191,0.749954,0.00106854,0.0199369,1623,463,-0.0718524,-0.0941858
406,561,-0.0478516,0.108978,-7.02678e-05,-0.000323222,0.00123081,0.00104054,-0.00143403,0.734198,0.0014347,0.0175856,1630,463,-0.0479124,-0.108988
413,561,-0.0266113,0.0893555,-0.00024303,-0.000475799,0.0014918,0.00113692,-0.00185574,0.746469,0.00174435,0.0150929,1637,463,-0.0265529,-0.0893473
420,561,-0.0563965,0.0740662,-0.000536457,-0.000621716,0.00150144,0.00092296,-0.00208113,0.771206,0.00177686,0.0118473,1644,463,-0.0563693,-0.0740747
427,561,-0.0598145,0.0878906,-0.000927567,-0.000664636,0.000863432,7.72816e-05,-0.00166948,0.860947,0.00113962,0.00931782,1651,463,-0.0598406,-0.0879
434,561,-0.0570068,0.0854187,-0.00134025,-0.00135537,-0.000275773,-0.00107194,-0.00162369,-0.7717,0.000953338,0.0097763,1658,463,-0.0570394,-0.0854239
441,561,-0.0582275,0.0775452,-0.00193166,-0.00288346,-0.00187745,-0.000470739,-0.00434439,-0.661271,0.0027528,0.0117568,1665,463,-0.0582407,-0.0775465
448,561,-0.0367432,0.0665588,-0.00249131,-0.00545764,-0.00328317,-0.000371843,-0.00757711,-0.573245,0.00493214,0.0162056,1672,463,-0.0368022,-0.0665565
455,561,-0.124512,0.114075,-0.00295665,-0.00732582,-0.00404372,-0.000545141,-0.00973733,-0.537738,0.00631768,0.031869,1679,463,-0.124506,-0.114076
462,561,-0.197021,0.125702,-0.00317995,-0.00984065,-0.00584775,0.000219293,-0.0132399,-0.526549,0.0089006,0.0309855,1686,463,-0.19706,-0.125691
469,561,-0.128296,0.104614,-0.00261702,-0.0130548,-0.00749516,0.00129723,-0.0169691,-0.481279,0.011769,0.0211723,1693,463,-0.128316,-0.104617
476,561,-0.0244141,0.157135,-0.00185329,-0.016441,-0.00901588,0.00244969,-0.0207439,-0.445296,0.014714,0.0372732,1700,463,-0.0244588,-0.157127
483,561,-0.036377,-0.299469,-0.000577355,-0.0205018,-0.00997194,0.00355601,-0.0246351,-0.392943,0.017728,0.043143,1707,463,-0.0364195,0.299468
490,561,0.0273438,-1.09836,0.001361,-0.0236824,-0.0104954,0.00517777,-0.0274992,-0.348794,0.0202802,0.0434789,1714,463,0.0272836,1.09835
497,561,0.114502,-1.84497,0.00454771,-0.0261762,-0.0104339,0.00775607,-0.0293846,-0.298317,0.0226227,0.0456347,1721,463,0.114467,1.84498
504,561,0.136108,1.04929,0.00860083,-0.0269772,-0.00976353,0.0111041,-0.0294804,-0.250981,0.0242189,0.0492038,1728,463,0.136125,-1.04928
511,561,0,0,0,0,0,0,0,0,0,-1,1735,463,0,0
518,561,0,0,0,0,0,0,0,0,0,-1,1742,463,0,0
525,561,0,0,0,0,0,0,0,0,0,-1,1749,463,0,0
532,561,0,0,0,0,0,0,0,0,0,-1,1756,463,0,0
539,561,0,0,0,0,0,0,0,0,0,-1,1763,463,0,0
546,561,0,0,0,0,0,0,0,0,0,-1,1770,463,0,0
553,561,0,0,0,0,0,0,0,0,0,-1,1777,463,0,0
560,561,0,0,0,0,0,0,0,0,0,-1,1784,463,0,0
567,561,0,0,0,0,0,0,0,0,0,-1,1791,463,0,0
574,561,0,0,0,0,0,0,0,0,0,-1,1798,463,0,0
581,561,0,0,0,0,0,0,0,0,0,-1,1805,463,0,0
588,561,0,0,0,0,0,0,0,0,0,-1,1812,463,0,0
595,561,0,0,0,0,0,0,0,0,0,-1,1819,463,0,0
602,561,0,0,0,0,0,0,0,0,0,-1,1826,463,0,0
609,561,0,0,0,0,0,0,0,0,0,-1,1833,463,0,0
616,561,0,0,0,0,0,0,0,0,0,-1,1840,463,0,0
623,561,0,0,0,0,0,0,0,0,0,-1,1847,463,0,0
630,561,0,0,0,0,0,0,0,0,0,-1,1854,463,0,0
637,561,0,0,0,0,0,0,0,0,0,-1,1861,463,0,0
644,561,0,0,0,0,0,0,0,0,0,-1,1868,463,0,0
651,561,0,0,0,0,0,0,0,0,0,-1,1875,463,0,0
658,561,0,0,0,0,0,0,0,0,0,-1,1882,463,0,0
665,561,0,0,0,0,0,0,0,0,0,-1,1889,463,0,0
672,561,0,0,0,0,0,0,0,0,0,-1,1896,463,0,0
679,561,0,0,0,0,0,0,0,0,0,-1,1903,463,0,0
686,561,0,0,0,0,0,0,0,0,0,-1,1910,463,0,0
693,561,0,0,0,0,0,0,0,0,0,-1,1917,463,0,0
700,561,0,0,0,0,0,0,0,0,0,-1,1924,463,0,0
707,561,0,0,0,0,0,0,0,0,0,-1,1931,463,0,0
714,561,0,0,0,0,0,0,0,0,0,-1,1938,463,0,0
721,561,0,0,0,0,0,0,0,0,0,-1,1945,463,0,0
728,561,0,0,0,0,0,0,0,0,0,-1,1952,463,0,0
735,561,0,0,0,0,0,0,0,0,0,-1,1959,463,0,0
742,561,0,0,0,0,0,0,0,0,0,-1,1966,463,0,0
749,561,0,0,0,0,0,0,0,0,0,-1,1973,463,0,0
756,561,0,0,0,0,0,0,0,0,0,-1,1980,463,0,0
763,561,0,0,0,0,0,0,0,0,0,-1,1987,463,0,0
770,561,0,0,0,0,0,0,0,0,0,-1,1994,463,0,0
777,561,0,0,0,0,0,0,0,0,0,-1,2001,463,0,0
784,561,0,0,0,0,0,0,0,0,0,-1,2008,463,0,0
791,561,0,0,0,0,0,0,0,0,0,-1,2015,463,0,0
798,561,0,0,0,0,0,0,0,0,0,-1,2022,463,0,0
805,561,0,0,0,0,0,0,0,0,0,-1,2029,463,0,0
812,561,0,0,0,0,0,0,0,0,0,-1,2036,463,0,0
-700,554,0,0,0,0,0,0,0,0,0,-1,524,470,0,0
-693,554,0,0,0,0,0,0,0,0,0,-1,531,470,0,0
-686,554,0,0,0,0,0,0,0,0,0,-1,538,470,0,0
-679,554,0,0,0,0,0,0,0,0,0,-1,545,470,0,0
-672,554,0,0,0,0,0,0,0,0,0,-1,552,470,0,0
-665,554,0,0,0,0,0,0,0,0,0,-1,559,470,0,0
-658,554,0,0,0,0,0,0,0,0,0,-1,566,470,0,0
-651,554,0,0,0,0,0,0,0,0,0,-1,573,470,0,0
-644,554,0,0,0,0,0,0,0,0,0,-1,580,470,0,0
-637,554,0,0,0,0,0,0,0,0,0,-1,587,470,0,0
-630,554,0,0,0,0,0,0,0,0,0,-1,594,470,0,0
-623,554,0,0,0,0,0,0,0,0,0,-1,601,470,0,0
-616,554,0,0,0,0,0,0,0,0,0,-1,608,470,0,0
-609,554,0,0,0,0,0,0,0,0,0,-1,615,470,0,0
-602,554,0,0,0,0,0,0,0,0,0,-1,622,470,0,0
-595,554,0,0,0,0,0,0,0,0,0,-1,629,470,0,0
-588,554,0,0,0,0,0,0,0,0,0,-1,636,470,0,0
-581,554,0,0,0,0,0,0,0,0,0,-1,643,470,0,0
-574,554,0,0,0,0,0,0,0,0,0,-1,650,470,0,0
-567,554,0,0,0,0,0,0,0,0,0,-1,657,470,0,0
-560,554,0,0,0,0,0,0,0,0,0,-1,664,470,0,0
-553,554,0,0,0,0,0,0,0,0,0,-1,671,470,0,0
-546,554,0,0,0,0,0,0,0,0,0,-1,678,470,0,0
-539,554,0,0,0,0,0,0,0,0,0,-1,685,470,0,0
-532,554,0,0,0,0,0,0,0,0,0,-1,692,470,0,0
-525,554,0,0,0,0,0,0,0,0,0,-1,699,470,0,0
-518,554,0,0,0,0,0,0,0,0,0,-1,706,470,0,0
-511,554,0,0,0,0,0,0,0,0,0,-1,713,470,0,0
-504,554,0,0,0,0,0,0,0,0,0,-1,720,470,0,0
-497,554,0,0,0,0,0,0,0,0,0,-1,727,470,0,0
-490,554,0,0,0,0,0,0,0,0,0,-1,734,470,0,0
-483,554,0,0,0,0,0,0,0,0,0,-1,741,470,0,0
-476,554,0,0,0,0,0,0,0,0,0,-1,748,470,0,0
-469,554,0,0,0,0,0,0,0,0,0,-1,755,470,0,0
-462,554,0,0,0,0,0,0,0,0,0,-1,762,470,0,0
-455,554,0,0,0,0,0,0,0,0,0,-1,769,470,0,0
-448,554,0,0,0,0,0,0,0,0,0,-1,776,470,0,0
-441,554,0,0,0,0,0,0,0,0,0,-1,783,470,0,0
-434,554,0,0,0,0,0,0,0,0,0,-1,790,470,0,0
-427,554,0,0,0,0,0,0,0,0,0,-1,797,470,0,0
-420,554,0,0,0,0,0,0,0,0,0,-1,804,470,0,0
-413,554,0,0,0,0,0,0,0,0,0,-1,811,470,0,0
-406,554,0,0,0,0,0,0,0,0,0,-1,818,470,0,0
-399,554,1.66437,4.35025,0,0,0,0,0,0,0,-1,825,470,1.66435,-4.35026
-392,554,1.31555,4.27994,0,0,0,0,0,0,0,-1,832,470,1.31553,-4.27994
-385,554,0.953308,4.79266,0,0,0,0,0,0,0,-1,839,470,0.953302,-4.79265
-378,554,0.843872,3.90213,-0.00986633,-0.0717361,-0.00756154,-0.00895559,-0.0726469,-0.119867,0.0457392,0.0448081,846,470,0.843843,-3.90213
-371,554,0.67749,2.92325,-0.00843903,-0.0523996,-0.012332,-0.00521592,-0.0556227,-0.255643,0.0354712,0.0431619,853,470,0.677512,-2.92326
-364,554,0.660767,2.21887,-0.00775516,-0.0379092,-0.013154,-0.0028236,-0.0428408,-0.358692,0.0276674,0.0429757,860,470,0.660787,-2.21888
-357,554,0.686951,1.64545,-0.00914353,-0.0298156,-0.011248,-0.00420373,-0.0347554,-0.413812,0.0219039,0.0452681,867,470,0.686953,-1.64545
-350,554,0.104431,1.03415,0,0,0,0,0,0,0,-1,874,470,0.104439,-1.03415
-343,554,-0.0610962,0.00372314,-0.00620405,-0.011969,-0.011627,0.00289245,-0.0210655,-0.663892,0.0151004,0.0418779,881,470,-0.0611194,-0.00373817
-336,554,-0.0603027,0.0330811,-0.00378964,-0.00704852,-0.0105522,0.00525815,-0.0160963,-0.708794,0.0128474,0.0299622,888,470,-0.0603042,-0.0330699
-329,554,-0.0404663,0.0541992,-0.00234166,-0.00516294,-0.0089086,0.00526729,-0.0127719,-0.706877,0.0107111,0.0149493,895,470,-0.0404884,-0.0541989
-322,554,-0.0314941,0.0765076,-0.00103832,-0.00305861,-0.00724321,0.00526484,-0.00936178,-0.716114,0.0085544,0.00902468,902,470,-0.0315095,-0.0765166
-315,554,-0.0279541,0.0785217,-0.000520026,-0.0036572,-0.00649656,0.00459463,-0.00877186,-0.666941,0.00784176,0.00915377,909,470,-0.027958,-0.0785227
-308,554,-0.0340576,0.0776367,-0.000778533,-0.00209867,-0.00593645,0.00453444,-0.00741164,-0.730031,0.00696343,0.0107513,916,470,-0.0340735,-0.0776307
-301,554,-0.0297852,0.0821533,-0.000923363,-0.00139303,-0.00519723,0.00404434,-0.00636073,-0.762821,0.00605678,0.0114466,923,470,-0.0297691,-0.0821599
-294,554,-0.0424805,0.0837402,-0.000920421,-0.00144276,-0.00470629,0.00353194,-0.00589512,-0.75768,0.00549942,0.0110063,930,470,-0.0424606,-0.0837371
-287,554,-0.057373,0.0838928,-0.00100571,-0.00191001,-0.00413679,0.00270357,-0.00561929,-0.730965,0.00490251,0.010455,937,470,-0.0573782,-0.0838966
-280,554,-0.0392456,0.0884094,-0.00125235,-0.00208678,-0.00345066,0.00180623,-0.00514536,-0.725236,0.00416498,0.00991735,944,470,-0.0392336,-0.0884111
-273,554,-0.0397949,0.0786133,-0.0012476,-0.00268538,-0.00282179,0.000945435,-0.00487842,-0.66067,0.00360894,0.0138596,951,470,-0.0398092,-0.0786076
-266,554,-0.0343628,0.0689697,-0.000967993,-0.00311895,-0.00213832,0.000350075,-0.00443702,-0.552393,0.00308134,0.0116758,958,470,-0.0343763,-0.06897
-259,554,-0.0354004,0.0917358,-0.00091206,-0.00337671,-0.00163404,-9.77486e-05,-0.00419103,-0.46232,0.00276201,0.0113178,965,470,-0.0353726,-0.0917322
-252,554,-0.0621948,0.12149,-0.00110467,-0.00327222,-0.00137034,-0.000441338,-0.00393556,-0.450819,0.00248967,0.0132987,972,470,-0.0621742,-0.121493
-245,554,-0.0630493,0.127258,-0.00143679,-0.00244602,-0.0011812,-0.000656936,-0.00322588,-0.583529,0.00196849,0.0151789,979,470,-0.0630436,-0.127243
-238,554,-0.0363159,0.0933228,-0.00212837,-0.00142509,-0.000898276,-0.000812079,-0.00274138,-0.971961,0.00162596,0.0112099,986,470,-0.0363328,-0.0933305
-231,554,-0.03125,0.0829468,-0.00284457,-0.000478479,-0.000931847,-0.000155558,-0.00316749,-1.23721,0.00206176,0.00900301,993,470,-0.0312786,-0.08295
-224,554,-0.031311,0.0864868,-0.00326617,0.000572365,-0.00153657,0.00111168,-0.00380549,-1.23324,0.00297755,0.00946042,1000,470,-0.0313096,-0.0864847
-217,554,-0.0230103,0.09375,-0.00398885,0.00206558,-0.0020748,0.00270835,-0.00463163,-1.27037,0.00428596,0.00974276,1007,470,-0.0229843,-0.0937513
-210,554,-0.0187988,0.0947571,-0.00435203,0.00360287,-0.00234593,0.00424316,-0.00499232,-1.30435,0.00533795,0.0116202,1014,470,-0.0188124,-0.0947708
-203,554,-0.0318604,0.0882263,-0.00395778,0.00495071,-0.00256846,0.00563818,-0.00464525,-1.30927,0.00594636,0.0159552,1021,470,-0.0318726,-0.0882407
-196,554,-0.0394287,0.0892029,-0.00350663,0.00600043,-0.00297169,0.00685287,-0.00435908,-1.29144,0.00652638,0.0228512,1028,470,-0.0393905,-0.0891991
-189,554,-0.0308838,0.0671692,-0.00273138,0.00811787,-0.00271168,0.00875787,-0.00337139,-1.33902,0.00722935,0.0300101,1035,470,-0.0308628,-0.0671659
-182,554,0.0045166,0.0837097,-0.00117205,0.00979064,-0.00215656,0.0101996,-0.00158102,-1.38338,0.00738339,0.0341568,1042,470,0.00453011,-0.0837077
-175,554,-0.0494385,0.0463562,0.000419271,0.0118379,-0.00123897,0.0119708,0.000286384,-1.46395,0.0078868,0.038955,1049,470,-0.0494948,-0.0463583
-168,554,-0.0933838,-0.299316,0.00172277,0.0140566,-1.29363e-05,0.0140566,0.00172276,-1.56975,0.00885286,0.0420493,1056,470,-0.0933981,0.299308
-161,554,0.0183105,-0.115601,0.00312648,0.0161859,0.00150425,0.0163569,0.00295546,1.45759,0.0100651,0.0415508,1063,470,0.0183024,0.115586
-154,554,0.192627,0.243073,0.00469451,0.0184009,0.00325978,0.0191367,0.00395874,1.3488,0.0116643,0.0413715,1070,470,0.192627,-0.24306
-147,554,0.348755,0.47345,0.00637351,0.0208762,0.00536359,0.0226443,0.00460543,1.25237,0.0138193,0.0431142,1077,470,0.348699,-0.473448
-140,554,-0.264526,-0.931458,0.00783409,0.0226639,0.00671051,0.0252496,0.00524841,1.20301,0.0153849,0.0474611,1084,470,-0.264475,0.931472
-133,554,-0.205688,-0.727112,0.00905886,0.023778,0.00741608,0.0268665,0.0059704,1.17619,0.0162898,0.0474925,1091,470,-0.205654,0.727122
-126,554,-0.102173,-0.506226,0.00973728,0.0243894,0.00713633,0.0272907,0.00683601,1.18466,0.0163972,0.0448468,1098,470,-0.102126,0.506212
-119,554,-0.144409,-0.185242,0.0101141,0.0245692,0.00652924,0.0270817,0.00760163,1.20346,0.0161292,0.0409065,1105,470,-0.144372,0.185237
-112,554,-0.508057,-0.24353,0.0109956,0.024224,0.0049569,0.0258753,0.00934429,1.24923,0.01513,0.0433799,1112,470,-0.508084,0.243544
-105,554,-0.581299,-0.228333,0.0112296,0.0219569,0.00160237,0.0221911,0.0109953,1.42564,0.0128122,0.0438773,1119,470,-0.581336,0.228338
-98,554,0.50769,-0.564026,0,0,0,0,0,0,0,-1,1126,470,0.507667,0.564017
-91,554,-0.312378,0.11203,0.0108453,0.0171702,-0.00440957,0.0194341,0.00858135,-1.09648,0.0112458,0.0404936,1133,470,-0.312376,-0.112026
-84,554,-0.573242,-0.375854,0.0107584,0.011143,-0.00820963,0.0191626,0.00273879,-0.797109,0.011967,0.0424049,1140,470,-0.573248,0.375852
-77,554,-0.453125,-0.375244,0.00981741,0.00728804,-0.0118544,0.0204744,-0.00336898,-0.732257,0.0149001,0.0431519,1147,470,-0.453149,0.375244
-70,554,0.299683,-0.256866,0.00828696,0.00285773,-0.0157707,0.021575,-0.0104303,-0.700168,0.018848,0.0412141,1154,470,0.299708,0.256869
-63,554,-0.0817871,-1.02045,0.00606998,-0.000772959,-0.0190315,0.0219851,-0.0166881,-0.696459,0.0223977,0.0426531,1161,470,-0.0818076,1.02043
-56,554,0.00866699,-1.66785,0.00216133,-0.00380351,-0.0212634,0.0206504,-0.0222926,-0.715722,0.0247992,0.0440752,1168,470,0.00866425,1.66786
-49,554,0.140259,-2.20053,0.00575477,-0.0003546,-0.0164586,0.0194398,-0.0140396,-0.693643,0.019413,0.0463434,1175,470,0.140262,2.20055
-42,554,0.0628662,-2.60992,0.0185425,-0.00139181,-0.0103963,0.0229777,-0.00582701,-0.403235,0.0175856,0.0451302,1182,470,0.0628726,2.60993
-35,554,-0.0371094,-2.99698,0.0250925,-0.00244792,-0.00618858,0.0264193,-0.00377464,-0.211185,0.0189965,0.0453484,1189,470,-0.0371258,2.99697
-28,554,-0.174683,-0.600952,0,0,0,0,0,0,0,-1,1196,470,-0.174698,0.60094
-21,554,1.03052,0.48587,0.0451156,-0.00348208,0.00571455,0.0457785,-0.004145,0.11549,0.0319903,0.0445458,1203,470,1.03057,-0.485861
-14,554,0.647705,-0.256073,0.0564933,-0.00564604,0.0125014,0.0589141,-0.0080668,0.191272,0.0422226,0.0438715,1210,470,0.64766,0.256063
-7,554,0.286621,-1.38828,0.0692201,-0.0087877,0.0188301,0.0735276,-0.0130952,0.224886,0.0539162,0.0435461,1217,470,0.286612,1.38828
0,554,-0.332642,-2.53085,0.0812535,-0.0123275,0.0250776,0.0875501,-0.0186241,0.245998,0.0654638,0.0451753,1224,470,-0.332647,2.53086
7,554,2.80298,1.55945,0.0903627,-0.0217001,0.0273374,0.0966759,-0.0280133,0.226958,0.0755401,0.0467487,1231,470,2.80303,-1.55944
14,554,2.88696,2.64227,0.0912031,-0.0224911,0.0288444,0.0981024,-0.0293904,0.234776,0.0770891,0.0447078,1238,470,2.88691,-2.64227
21,554,2.93481,3.71707,0,0,0,0,0,0,0,-1,1245,470,2.93487,-3.71707
28,554,2.62256,4.50354,0.0832103,-0.0167961,0.0200031,0.0870629,-0.0206487,0.190269,0.0660103,0.0435133,1252,470,2.62253,-4.50355
35,554,2.5293,5.63702,0.0773646,-0.0115464,0.0176423,0.0807374,-0.0149191,0.188895,0.0594255,0.0403908,1259,470,2.52928,-5.63703
42,554,2.44397,6.86148,0,0,0,0,0,0,0,-1,1266,470,2.44391,-6.86147
49,554,1.52942,1.39764,0,0,0,0,0,0,0,-1,1273,470,1.52937,-1.39764
56,554,-3.00061,-3.48947,0,0,0,0,0,0,0,-1,1280,470,-3.00058,3.48947
63,554,-2.65503,-3.21683,0.0202961,0.0126543,-0.0167222,0.0336284,-0.000678014,-0.673079,0.0226483,0.0467344,1287,470,-2.65503,3.21682
70,554,-2.22937,-2.8584,0.0196343,0.0320166,-0.0151797,0.0422192,0.00943177,-0.979029,0.0255883,0.0459311,1294,470,-2.22934,2.85841
77,554,-1.6936,-2.62979,0.0203587,0.052342,-0.0108427,0.0556713,0.0170294,-1.27289,0.0329393,0.0469589,1301,470,-1.69355,2.62978
84,554,-1.29272,-2.5217,0.0216986,0.0718532,-0.00754268,0.072963,0.0205888,-1.42471,0.0434372,0.0465441,1308,470,-1.29267,2.52169
91,554,-2.21912,-1.67502,0.02212,0.0881151,-0.00341609,0.0882915,0.0219436,-1.51922,0.0530806,0.0415853,1315,470,-2.21916,1.67501
98,554,-1.32971,-2.26218,0.0207351,0.0979467,0.0013476,0.0979702,0.0207116,1.55335,0.0596211,0.0435421,1322,470,-1.32967,2.26218
105,554,-0.441284,-2.20496,0.0159861,0.105377,0.00535363,0.105696,0.0156666,1.51119,0.065866,0.0480546,1329,470,-0.441303,2.20496
112,554,-1.53064,-2.30801,0.00931647,0.110599,0.00789478,0.11121,0.00870477,1.49347,0.0714158,0.0412181,1336,470,-1.53065,2.30802
119,554,-1.59778,-2.32321,0.00177485,0.112278,0.0113007,0.113422,0.000631019,1.46992,0.075405,0.0370445,1343,470,-1.59778,2.32321
126,554,-1.64282,-2.48587,-0.00291477,0.112006,0.0164183,0.114306,-0.00521438,1.43164,0.078,0.0406423,1350,470,-1.64287,2.48589
133,554,-1.64832,-2.55621,0,0,0,0,0,0,0,-1,1357,470,-1.64832,2.55621
140,554,0.0679932,-5.16714,0,0,0,0,0,0,0,-1,1364,470,0.0679773,5.16715
147,554,0.588135,-3.92654,0,0,0,0,0,0,0,-1,1371,470,0.588112,3.92654
154,554,0.452148,-3.22867,-0.00823529,0.0795455,0.0286608,0.0880747,-0.0167645,1.28155,0.0650289,0.0449614,1378,470,0.452091,3.22867
161,554,0.365967,-2.4743,0,0,0,0,0,0,0,-1,1385,470,0.365909,2.47431
168,554,0.334595,-1.93927,-0.00674482,0.0602084,0.0251793,0.0686207,-0.0151571,1.24836,0.0515478,0.0487396,1392,470,0.33456,1.93927
175,554,0.207031,-1.68216,-0.00624259,0.0477226,0.0229429,0.0561581,-0.014678,1.21847,0.0431713,0.0466897,1399,470,0.207046,1.68216
182,554,0.185547,-1.15005,-0.00424849,0.0372957,0.0207397,0.0458769,-0.0128297,1.17849,0.0356394,0.0453471,1406,470,0.185495,1.15004
189,554,-0.0936279,-0.413971,-0.00161964,0.0322297,0.0158818,0.0385145,-0.0079044,1.19399,0.0286766,0.0491625,1413,470,-0.0936024,0.413985
196,554,-0.0881348,0.0947876,0.00019248,0.0281678,0.0101823,0.0314814,-0.00312111,1.25618,0.0221015,0.0458853,1420,470,-0.0881294,-0.0947851
203,554,-0.060791,0.484711,-0.00246796,0.0275709,0.00566701,0.0286045,-0.00350151,1.3904,0.0203375,0.0448282,1427,470,-0.0608272,-0.484712
210,554,-0.243164,0.692078,-0.00422567,0.0238559,0.00105369,0.0238954,-0.00426515,1.53334,0.0175258,0.0446221,1434,470,-0.243126,-0.692074
217,554,0.569946,-0.526154,-0.00457289,0.0214297,-0.00193557,0.021573,-0.00471618,-1.4969,0.0161847,0.0407269,1441,470,0.569962,0.526155
224,554,0.287598,-0.423981,-0.00516586,0.0170199,-0.00453181,0.0179099,-0.00605586,-1.37688,0.0143897,0.0459425,1448,470,0.28759,0.423978
231,554,0.254639,-0.283234,-0.00679187,0.0144256,-0.00623788,0.0161236,-0.0084899,-1.30502,0.0144367,0.0479817,1455,470,0.254677,0.283237
238,554,0.252563,-0.526276,-0.00778396,0.0138257,-0.00741687,0.0161263,-0.0100846,-1.27001,0.0152663,0.0430135,1462,470,0.252535,0.526274
245,554,-0.064209,-0.362976,0,0,0,0,0,0,0,-1,1469,470,-0.0641758,0.362966
252,554,-0.397827,-0.0175781,0,0,0,0,0,0,0,-1,1476,470,-0.39787,0.0175914
259,554,-0.524048,0.254059,0,0,0,0,0,0,0,-1,1483,470,-0.524081,-0.254068
266,554,-0.277222,0.790588,0,0,0,0,0,0,0,-1,1490,470,-0.277253,-0.790578
273,554,0.912354,0.447876,0,0,0,0,0,0,0,-1,1497,470,0.912329,-0.447887
280,554,0.230103,-0.576233,-0.0102757,0.00955027,-0.00568993,0.0110672,-0.0117926,-1.31026,0.0132003,0.0496677,1504,470,0.230143,0.576222
287,554,0.186035,-0.433075,-0.00964283,0.0101631,-0.00548935,0.0115827,-0.0110625,-1.31772,0.0130754,0.046079,1511,470,0.186092,0.433072
294,554,0.101196,0.27124,-0.00926807,0.0108479,-0.00505981,0.0120489,-0.0104691,-1.33775,0.0130114,0.0410896,1518,470,0.101209,-0.271251
301,554,0.233521,0.346588,-0.00884667,0.0114609,-0.00460479,0.0124563,-0.00984203,-1.35791,0.0129034,0.0384986,1525,470,0.233534,-0.346597
308,554,-0.00976563,0.039093,-0.00786921,0.0115235,-0.00428301,0.0124273,-0.00877303,-1.36283,0.0123005,0.0352402,1532,470,-0.00975328,-0.0390868
315,554,0.0273438,0.0544739,-0.00754915,0.0121829,-0.00366571,0.0128419,-0.00820814,-1.39293,0.012251,0.0320728,1539,470,0.0272981,-0.0544702
322,554,-0.00964355,0.0897827,-0.00742036,0.011865,-0.00317459,0.0123741,-0.00792949,-1.41177,0.0118156,0.0268355,1546,470,-0.00965827,-0.0897722
329,554,-0.0296631,0.0932922,-0.00677123,0.0113157,-0.00276894,0.0117301,-0.00718564,-1.42224,0.0110255,0.0156757,1553,470,-0.0296771,-0.0933009
336,554,-0.0397949,0.0852966,-0.00564555,0.00968318,-0.00268227,0.010139,-0.00610134,-1.40247,0.00947245,0.00965267,1560,470,-0.0397493,-0.0853033
343,554,-0.0449219,0.0703735,-0.00486496,0.00780301,-0.00258445,0.00830998,-0.00537193,-1.37709,0.00795974,0.00866829,1567,470,-0.0448672,-0.0703672
350,554,-0.0357666,0.0682373,-0.00413896,0.00662804,-0.00218757,0.00705553,-0.00456645,-1.37781,0.00676105,0.00855334,1574,470,-0.0358097,-0.0682253
357,554,-0.0310059,0.0716248,-0.00304472,0.00482117,-0.00155869,0.00511878,-0.00334233,-1.38213,0.00492078,0.01012,1581,470,-0.0310585,-0.0716231
364,554,-0.0456543,0.0742798,-0.00237368,0.00334681,-0.00126118,0.00361252,-0.00263939,-1.36315,0.00362409,0.00844401,1588,470,-0.0456443,-0.0742904
371,554,-0.0531006,0.078064,-0.00224997,0.00199016,-0.00117387,0.00229344,-0.00255325,-1.31796,0.00279958,0.00798507,1595,470,-0.0530714,-0.0780715
378,554,-0.0493164,0.0883179,-0.0018966,0.00140386,-0.0008485,0.00160922,-0.00210196,-1.33334,0.00214894,0.00915877,1602,470,-0.0493089,-0.0883131
385,554,-0.0307617,0.0797729,-0.00135407,0.000824768,-0.000328694,0.000873274,-0.00140258,-1.42428,0.00132576,0.00889372,1609,470,-0.030818,-0.0797814
392,554,-0.0327148,0.0719299,-0.00101907,0.000503015,0.000141469,0.000516052,-0.0010321,1.4789,0.00091023,0.0126225,1616,470,-0.0326737,-0.071919
399,554,-0.0523682,0.0949097,-0.00076255,0.000340934,0.000401714,0.000471682,-0.000893298,1.25613,0.000800505,0.0173298,1623,470,-0.0523396,-0.0949016
406,554,-0.0457764,0.10141,-0.000787044,0.000393489,0.000553143,0.000612161,-0.00100572,1.19432,0.000943249,0.0152719,1630,470,-0.0458155,-0.101417
413,554,-0.03479,0.101501,-0.00102081,0.000408449,0.000733777,0.000718088,-0.00133045,1.17149,0.00120021,0.0129266,1637,470,-0.0347384,-0.101509
420,554,-0.045166,0.0907593,-0.00126616,0.000456889,0.000707955,0.000710454,-0.00151972,1.22687,0.00131555,0.013854,1644,470,-0.0451196,-0.0907681
427,554,-0.050415,0.0866394,-0.00154343,0.000589869,0.00015453,0.000601005,-0.00155457,1.49886,0.00128447,0.0106168,1651,470,-0.0503874,-0.0866283
434,554,-0.0579834,0.0867004,-0.00182487,0.000107966,-0.000800555,0.00039648,-0.00211338,-1.22489,0.00155799,0.00964187,1658,470,-0.0580057,-0.0866973
441,554,-0.0648193,0.0718079,-0.0021992,-0.00113689,-0.00209913,0.000497239,-0.00383333,-0.909315,0.0027364,0.0105578,1665,470,-0.0647811,-0.0718043
448,554,-0.0621338,0.0604553,-0.00256307,-0.00329653,-0.00314355,0.00023507,-0.00609467,-0.72733,0.0041437,0.0113039,1672,470,-0.0621901,-0.06045
455,554,-0.0606689,0.0569763,-0.00285109,-0.00475022,-0.00351704,-0.000157681,-0.00744362,-0.653547,0.0049107,0.0126558,1679,470,-0.0606424,-0.0569628
462,554,-0.0570068,0.0632019,-0.00289401,-0.006705,-0.00474556,0.000314329,-0.00991334,-0.594485,0.00671612,0.0146626,1686,470,-0.0569755,-0.0632126
469,554,-0.0577393,0.0841675,-0.00223406,-0.00920842,-0.0057985,0.00104508,-0.0124876,-0.514677,0.00869436,0.0198852,1693,470,-0.0576929,-0.0841592
476,554,-0.0223389,0.119446,-0.00137901,-0.0118246,-0.00671316,0.00190374,-0.0151073,-0.45481,0.0107624,0.0365671,1700,470,-0.0223151,-0.119436
483,554,0.032959,-0.114655,-7.80942e-05,-0.0149357,-0.00714262,0.00279865,-0.0178124,-0.382881,0.0129093,0.0440528,1707,470,0.0329381,0.114663
490,554,-0.21167,-0.0184937,0.00168398,-0.0171248,-0.00734841,0.00421448,-0.0196553,-0.331642,0.014711,0.0422388,1714,470,-0.211651,0.0184972
497,554,-0.00585938,0.604675,0.00416538,-0.0185445,-0.0072649,0.00629055,-0.0206697,-0.284586,0.0162868,0.0440249,1721,470,-0.0059053,-0.604679
504,554,0.0997314,0.886078,0.00735489,-0.0183981,-0.00667068,0.0089802,-0.0200234,-0.238992,0.0171451,0.0493626,1728,470,0.0997716,-0.886074
511,554,-0.744263,0.412964,0.0114932,-0.0167879,-0.00569059,0.0125953,-0.01789,-0.1913,0.017689,0.044997,1735,470,-0.744207,-0.412953
518,554,-0.0125732,0.422668,0.0163199,-0.0135338,-0.00486025,0.0170912,-0.0143051,-0.15739,0.0181504,0.0429008,1742,470,-0.0126189,-0.42268
525,554,0,0,0,0,0,0,0,0,0,-1,1749,470,0,0
532,554,0,0,0,0,0,0,0,0,0,-1,1756,470,0,0
539,554,0,0,0,0,0,0,0,0,0,-1,1763,470,0,0
546,554,0,0,0,0,0,0,0,0,0,-1,1770,470,0,0
553,554,0,0,0,0,0,0,0,0,0,-1,1777,470,0,0
560,554,0,0,0,0,0,0,0,0,0,-1,1784,470,0,0
567,554,0,0,0,0,0,0,0,0,0,-1,1791,470,0,0
574,554,0,0,0,0,0,0,0,0,0,-1,1798,470,0,0
581,554,0,0,0,0,0,0,0,0,0,-1,1805,470,0,0
588,554,0,0,0,0,0,0,0,0,0,-1,1812,470,0,0
595,554,0,0,0,0,0,0,0,0,0,-1,1819,470,0,0
602,554,0,0,0,0,0,0,0,0,0,-1,1826,470,0,0
609,554,0,0,0,0,0,0,0,0,0,-1,1833,470,0,0
616,554,0,0,0,0,0,0,0,0,0,-1,1840,470,0,0
623,554,0,0,0,0,0,0,0,0,0,-1,1847,470,0,0
630,554,0,0,0,0,0,0,0,0,0,-1,1854,470,0,0
637,554,0,0,0,0,0,0,0,0,0,-1,1861,470,0,0
644,554,0,0,0,0,0,0,0,0,0,-1,1868,470,0,0
651,554,0,0,0,0,0,0,0,0,0,-1,1875,470,0,0
658,554,0,0,0,0,0,0,0,0,0,-1,1882,470,0,0
665,554,0,0,0,0,0,0,0,0,0,-1,1889,470,0,0
672,554,0,0,0,0,0,0,0,0,0,-1,1896,470,0,0
679,554,0,0,0,0,0,0,0,0,0,-1,1903,470,0,0
686,554,0,0,0,0,0,0,0,0,0,-1,1910,470,0,0
693,554,0,0,0,0,0,0,0,0,0,-1,1917,470,0,0
700,554,0,0,0,0,0,0,0,0,0,-1,1924,470,0,0
707,554,0,0,0,0,0,0,0,0,0,-1,1931,470,0,0
714,554,0,0,0,0,0,0,0,0,0,-1,1938,470,0,0
721,554,0,0,0,0,0,0,0,0,0,-1,1945,470,0,0
728,554,0,0,0,0,0,0,0,0,0,-1,1952,470,0,0
735,554,0,0,0,0,0,0,0,0,0,-1,1959,470,0,0
742,554,0,0,0,0,0,0,0,0,0,-1,1966,470,0,0
749,554,0,0,0,0,0,0,0,0,0,-1,1973,470,0,0
756,554,0,0,0,0,0,0,0,0,0,-1,1980,470,0,0
763,554,0,0,0,0,0,0,0,0,0,-1,1987,470,0,0
770,554,0,0,0,0,0,0,0,0,0,-1,1994,470,0,0
777,554,0,0,0,0,0,0,0,0,0,-1,2001,470,0,0
784,554,0,0,0,0,0,0,0,0,0,-1,2008,470,0,0
791,554,0,0,0,0,0,0,0,0,0,-1,2015,470,0,0
798,554,0,0,0,0,0,0,0,0,0,-1,2022,470,0,0
805,554,0,0,0,0,0,0,0,0,0,-1,2029,470,0,0
812,554,0,0,0,0,0,0,0,0,0,-1,2036,470,0,0
-700,547,0,0,0,0,0,0,0,0,0,-1,524,477,0,0
-693,547,0,0,0,0,0,0,0,0,0,-1,531,477,0,0
-686,547,0,0,0,0,0,0,0,0,0,-1,538,477,0,0
-679,547,0,0,0,0,0,0,0,0,0,-1,545,477,0,0
-672,547,0,0,0,0,0,0,0,0,0,-1,552,477,0,0
-665,547,0,0,0,0,0,0,0,0,0,-1,559,477,0,0
-658,547,0,0,0,0,0,0,0,0,0,-1,566,477,0,0
-651,547,0,0,0,0,0,0,0,0,0,-1,573,477,0,0
-644,547,0,0,0,0,0,0,0,0,0,-1,580,477,0,0
-637,547,0,0,0,0,0,0,0,0,0,-1,587,477,0,0
-630,547,0,0,0,0,0,0,0,0,0,-1,594,477,0,0
-623,547,0,0,0,0,0,0,0,0,0,-1,601,477,0,0
-616,547,0,0,0,0,0,0,0,0,0,-1,608,477,0,0
-609,547,0,0,0,0,0,0,0,0,0,-1,615,477,0,0
-602,547,0,0,0,0,0,0,0,0,0,-1,622,477,0,0
-595,547,0,0,0,0,0,0,0,0,0,-1,629,477,0,0
-588,547,0,0,0,0,0,0,0,0,0,-1,636,477,0,0
-581,547,0,0,0,0,0,0,0,0,0,-1,643,477,0,0
-574,547,0,0,0,0,0,0,0,0,0,-1,650,477,0,0
-567,547,0,0,0,0,0,0,0,0,0,-1,657,477,0,0
-560,547,0,0,0,0,0,0,0,0,0,-1,664,477,0,0
-553,547,0,0,0,0,0,0,0,0,0,-1,671,477,0,0
-546,547,0,0,0,0,0,0,0,0,0,-1,678,477,0,0
-539,547,0,0,0,0,0,0,0,0,0,-1,685,477,0,0
-532,547,0,0,0,0,0,0,0,0,0,-1,692,477,0,0
-525,547,0,0,0,0,0,0,0,0,0,-1,699,477,0,0
-518,547,0,0,0,0,0,0,0,0,0,-1,706,477,0,0
-511,547,0,0,0,0,0,0,0,0,0,-1,713,477,0,0
-504,547,0,0,0,0,0,0,0,0,0,-1,720,477,0,0
-497,547,0,0,0,0,0,0,0,0,0,-1,727,477,0,0
-490,547,0,0,0,0,0,0,0,0,0,-1,734,477,0,0
-483,547,0,0,0,0,0,0,0,0,0,-1,741,477,0,0
-476,547,0,0,0,0,0,0,0,0,0,-1,748,477,0,0
-469,547,0,0,0,0,0,0,0,0,0,-1,755,477,0,0
-462,547,0,0,0,0,0,0,0,0,0,-1,762,477,0,0
-455,547,0,0,0,0,0,0,0,0,0,-1,769,477,0,0
-448,547,0,0,0,0,0,0,0,0,0,-1,776,477,0,0
-441,547,0,0,0,0,0,0,0,0,0,-1,783,477,0,0
-434,547,0,0,0,0,0,0,0,0,0,-1,790,477,0,0
-427,547,0,0,0,0,0,0,0,0,0,-1,797,477,0,0
-420,547,0,0,0,0,0,0,0,0,0,-1,804,477,0,0
-413,547,0,0,0,0,0,0,0,0,0,-1,811,477,0,0
-406,547,1.61823,5.2475,0.00578994,-0.116726,0.0221852,0.0096835,-0.12062,0.173733,0.0838278,0.0453081,818,477,1.61824,-5.24748
-399,547,1.51807,5.41693,0.00164899,-0.0952783,0.0110246,0.00288713,-0.0965164,0.111838,0.0653279,0.0454019,825,477,1.51806,-5.41692
-392,547,1.29285,5.56503,-0.00128524,-0.0757648,0.00167177,-0.00124773,-0.0758023,0.0224309,0.0501241,0.0439047,832,477,1.29286,-5.56503
-385,547,1.1051,5.24713,0,0,0,0,0,0,0,-1,839,477,1.10512,-5.24713
-378,547,0.91925,4.66287,-0.00424832,-0.0451544,-0.00906335,-0.00233015,-0.0470726,-0.208563,0.0306346,0.0463735,846,477,0.919266,-4.66288
-371,547,0.404846,3.96417,-0.00494449,-0.0332676,-0.0117291,-0.000717979,-0.0374941,-0.345861,0.0247602,0.0426983,853,477,0.404842,-3.96417
-364,547,0.225342,3.3721,-0.00562551,-0.0243687,-0.011426,-0.000219394,-0.0297748,-0.44193,0.0197771,0.0444116,860,477,0.225339,-3.37209
-357,547,0.839966,2.6037,0,0,0,0,0,0,0,-1,867,477,0.839973,-2.6037
-350,547,0.126587,-0.154205,-0.00810164,-0.0137301,-0.00858099,-0.00188519,-0.0199466,-0.626944,0.012716,0.0439032,874,477,0.126583,0.154215
-343,547,-0.0342407,-0.00927734,-0.00563959,-0.00776876,-0.00856449,0.00192622,-0.0153346,-0.723564,0.0109219,0.0343324,881,477,-0.0342657,0.00928254
-336,547,-0.0511475,0.0549011,-0.00330734,-0.00417788,-0.00773787,0.0040075,-0.0114927,-0.757302,0.00929037,0.014486,888,477,-0.0511514,-0.0549152
-329,547,-0.0328979,0.0698853,-0.00181517,-0.00300291,-0.00636397,0.00398258,-0.00880066,-0.738874,0.00755313,0.00857021,895,477,-0.0328843,-0.069878
-322,547,-0.0296631,0.078064,-0.000403025,-0.00138347,-0.00488536,0.00401665,-0.00580315,-0.735393,0.00570065,0.00974713,902,477,-0.0296595,-0.0780735
-315,547,-0.02948,0.0782471,0.000262741,-0.00234304,-0.00419442,0.00335197,-0.00543227,-0.63481,0.00511876,0.00952129,909,477,-0.0294649,-0.0782379
-308,547,-0.0310669,0.0801392,0.000136153,-0.000874574,-0.00365606,0.00332161,-0.00406003,-0.71672,0.00426889,0.0103788,916,477,-0.0310661,-0.0801258
-301,547,-0.0372925,0.0782776,5.57085e-05,-0.000253602,-0.0030285,0.0029335,-0.00313139,-0.759887,0.00350219,0.00958072,923,477,-0.0373083,-0.0782701
-294,547,-0.0559082,0.0837097,3.68929e-05,-0.000394616,-0.00263859,0.00246853,-0.00282626,-0.744604,0.00305927,0.0086748,930,477,-0.055902,-0.0837075
-287,547,-0.0567627,0.0939026,-0.000170234,-0.00102574,-0.00221811,0.00166099,-0.00285696,-0.690144,0.00263873,0.0102182,937,477,-0.056779,-0.0939044
-280,547,-0.0379028,0.0895691,-0.000602475,-0.00147775,-0.00165722,0.000673917,-0.00275414,-0.656305,0.00209714,0.0118349,944,477,-0.0378772,-0.0895627
-273,547,-0.0365601,0.0767822,-0.000820894,-0.00219171,-0.0012701,-6.30646e-05,-0.00294954,-0.537968,0.00194568,0.0122565,951,477,-0.0365753,-0.0767923
-266,547,-0.0424194,0.0744629,-0.000830687,-0.00279279,-0.00086884,-0.000501263,-0.00312221,-0.362407,0.00193614,0.0119808,958,477,-0.0424084,-0.0744627
-259,547,-0.0524292,0.0935059,-0.0012237,-0.00314926,-0.000736581,-0.000974255,-0.00339871,-0.326534,0.00202091,0.010452,965,477,-0.0524082,-0.0934968
-252,547,-0.0509644,0.10611,-0.00201402,-0.00303056,-0.000936974,-0.00145633,-0.00358825,-0.53688,0.00208388,0.0098986,972,477,-0.0509745,-0.106121
-245,547,-0.0383911,0.105408,-0.00316713,-0.00214688,-0.00126261,-0.00129523,-0.00401877,-0.977383,0.00236858,0.0114411,979,477,-0.0384168,-0.105423
-238,547,-0.0289917,0.0871887,-0.00465667,-0.00088714,-0.00143189,-0.000404917,-0.00513889,-1.24595,0.00329925,0.00795761,986,477,-0.0289987,-0.0871756
-231,547,-0.0429077,0.0797424,-0.00595116,0.000458074,-0.00179879,0.000928402,-0.00642148,-1.31505,0.00462165,0.00678264,993,477,-0.0429026,-0.0797545
-224,547,-0.0495605,0.0923462,-0.00679588,0.00185034,-0.00269651,0.00262237,-0.00756791,-1.29195,0.00610995,0.00896778,1000,477,-0.04957,-0.0923445
-217,547,-0.0350342,0.0977783,-0.00798559,0.00366118,-0.00345753,0.00461027,-0.00893467,-1.3029,0.00795191,0.0122746,1007,477,-0.0350214,-0.0977837
-210,547,-0.0160522,0.0888672,-0.00862316,0.00551201,-0.00385601,0.00649549,-0.00960663,-1.32107,0.00935423,0.0193075,1014,477,-0.0160643,-0.0888761
-203,547,0.00201416,0.1008,-0.00821442,0.00698904,-0.00405164,0.00800137,-0.00922675,-1.32595,0.00995504,0.0301977,1021,477,0.00199686,-0.100797
-196,547,0.0229492,0.0662842,-0.00756301,0.00804493,-0.00431168,0.00915682,-0.0086749,-1.31842,0.0102964,0.038574,1028,477,0.0229749,-0.0662779
-189,547,-0.0625,-0.12265,-0.00628662,0.0102498,-0.00375409,0.0110621,-0.00709896,-1.35769,0.0105682,0.0431315,1035,477,-0.0624482,0.122646
-182,547,0.0340576,0.0681458,-0.00398054,0.0118519,-0.00283685,0.0123449,-0.0044735,-1.39875,0.0100583,0.0471527,1042,477,0.0341087,-0.068148
-175,547,0.14624,-0.22934,-0.0015478,0.0139191,-0.00146804,0.0140572,-0.0016859,-1.477,0.00998103,0.0456422,1049,477,0.146291,0.229335
-168,547,0.202515,-0.650574,0.000604802,0.0160767,0.000366836,0.0160854,0.000596109,1.5471,0.0105305,0.0464284,1056,477,0.202562,0.65057
-161,547,-0.0675049,-0.397522,0.00297821,0.0181704,0.00251912,0.0185772,0.00257139,1.41069,0.0116229,0.0415895,1063,477,-0.0675326,0.39751
-154,547,0.43689,-0.283813,0.00559339,0.0204659,0.00497864,0.0219786,0.00408064,1.27581,0.0134994,0.0394556,1070,477,0.436906,0.283801
-147,547,0.911987,-0.31485,0.00830887,0.0232877,0.00787021,0.0266625,0.00493406,1.1657,0.01638,0.0421004,1077,477,0.912031,0.314857
-140,547,0.939575,-0.239502,0.0106984,0.0253472,0.0096884,0.0301683,0.00587735,1.10906,0.0184675,0.0439765,1084,477,0.939612,0.239507
-133,547,-0.428223,-1.06436,0,0,0,0,0,0,0,-1,1091,477,-0.428199,1.06437
-126,547,0.0323486,-0.560486,0.0133263,0.027234,0.0101022,0.0325443,0.00801597,1.08683,0.0195791,0.0423054,1098,477,0.032382,0.560474
-119,547,-0.466064,-0.633636,0.0137072,0.0275039,0.00942089,0.032282,0.00892906,1.10142,0.0192482,0.0406472,1105,477,-0.466121,0.633647
-112,547,-0.865723,-0.71463,0,0,0,0,0,0,0,-1,1112,477,-0.865734,0.714618
-105,547,-0.379761,-0.372253,0.0152457,0.0243911,0.00382869,0.0257824,0.0138545,1.22226,0.0148993,0.0413727,1119,477,-0.379752,0.372248
-98,547,-0.14209,-0.0706787,0,0,0,0,0,0,0,-1,1126,477,-0.142067,0.0706769
-91,547,-0.106079,0.241058,0.014523,0.0179124,-0.00329525,0.0199232,0.0125122,-1.02291,0.0116277,0.0400533,1133,477,-0.106028,-0.241061
-84,547,0.185791,0.246796,0.0140394,0.00961737,-0.00816205,0.0202846,0.00337218,-0.653126,0.012551,0.0398364,1140,477,0.185737,-0.246792
-77,547,0.491699,0.291992,0.0126138,0.003919,-0.0127502,0.0217374,-0.00520462,-0.621096,0.0165024,0.0405225,1147,477,0.491719,-0.291996
-70,547,0.742798,0.337799,0,0,0,0,0,0,0,-1,1154,477,0.742806,-0.337813
-63,547,-0.171631,-0.697601,0,0,0,0,0,0,0,-1,1161,477,-0.171584,0.697611
-56,547,0.0539551,-1.61218,0.00201667,-0.0121376,-0.0253075,0.0212179,-0.0313388,-0.649058,0.0305306,0.048045,1168,477,0.0539904,1.61217
-49,547,0.00439453,-2.2677,0.0062758,-0.0086236,-0.0201537,0.0203126,-0.0226604,-0.608365,0.0248229,0.0484919,1175,477,0.00439876,2.26771
-42,547,-0.208252,-2.45016,0.0229399,-0.0099947,-0.0129764,0.0274382,-0.014493,-0.333693,0.0245906,0.0426943,1182,477,-0.208198,2.45017
-35,547,-0.324341,-2.58783,0.0312556,-0.0114697,-0.00828272,0.0328051,-0.0130192,-0.184938,0.0272663,0.0393091,1189,477,-0.324333,2.58783
-28,547,1.29785,1.30258,0,0,0,0,0,0,0,-1,1196,477,1.29791,-1.30259
-21,547,1.26843,0.562775,0.058403,-0.0118747,0.00693605,0.059081,-0.0125527,0.0974423,0.0441702,0.0440597,1203,477,1.26838,-0.562763
-14,547,0.841675,-0.0892334,0.0755052,-0.0131663,0.0167503,0.0785638,-0.016225,0.180614,0.0585386,0.0457281,1210,477,0.841618,0.0892466
-7,547,0.217407,-0.830933,0.0950276,-0.0156339,0.0266755,0.101122,-0.0217285,0.224617,0.0757043,0.0417385,1217,477,0.217414,0.830921
0,547,-0.631104,-2.03421,0.114363,-0.019013,0.0369427,0.123912,-0.0285618,0.25294,0.0935928,0.042553,1224,477,-0.631124,2.0342
7,547,3.22083,1.88705,0.130324,-0.0277228,0.0432158,0.141369,-0.0387677,0.250219,0.109481,0.0487607,1231,477,3.22079,-1.88705
14,547,0,0,0,0,0,0,0,0,0,-1,1238,477,0,0
21,547,0,0,0,0,0,0,0,0,0,-1,1245,477,0,0
28,547,0,0,0,0,0,0,0,0,0,-1,1252,477,0,0
35,547,0,0,0,0,0,0,0,0,0,-1,1259,477,0,0
42,547,0,0,0,0,0,0,0,0,0,-1,1266,477,0,0
49,547,0,0,0,0,0,0,0,0,0,-1,1273,477,0,0
56,547,0,0,0,0,0,0,0,0,0,-1,1280,477,0,0
63,547,0,0,0,0,0,0,0,0,0,-1,1287,477,0,0
70,547,0,0,0,0,0,0,0,0,0,-1,1294,477,0,0
77,547,0,0,0,0,0,0,0,0,0,-1,1301,477,0,0
84,547,0,0,0,0,0,0,0,0,0,-1,1308,477,0,0
91,547,0,0,0,0,0,0,0,0,0,-1,1315,477,0,0
98,547,0,0,0,0,0,0,0,0,0,-1,1322,477,0,0
105,547,-0.353027,-2.93036,0,0,0,0,0,0,0,-1,1329,477,-0.353062,2.93035
112,547,-1.92761,-2.93732,0,0,0,0,0,0,0,-1,1336,477,-1.92764,2.93732
119,547,-1.86194,-3.2749,-0.00920163,0.122525,0.0166375,0.124593,-0.0112705,1.44708,0.0870626,0.039177,1343,477,-1.86191,3.27492
126,547,-2.03638,-3.42087,-0.0133896,0.124905,0.0232376,0.128705,-0.0171898,1.40869,0.0920697,0.0431765,1350,477,-2.0364,3.42086
133,547,0.83606,-6.36932,0,0,0,0,0,0,0,-1,1357,477,0.836117,6.36933
140,547,0.699219,-5.64334,0,0,0,0,0,0,0,-1,1364,477,0.699169,5.64335
147,547,0.613159,-4.77951,0,0,0,0,0,0,0,-1,1371,477,0.613118,4.77952
154,547,0.537476,-4.00696,0,0,0,0,0,0,0,-1,1378,477,0.537471,4.00694
161,547,0.369629,-2.77368,0,0,0,0,0,0,0,-1,1385,477,0.369595,2.77368
168,547,-0.0310059,-2.68604,-0.00394283,0.066552,0.0327033,0.0793867,-0.0167775,1.19681,0.0593133,0.0492978,1392,477,-0.0310659,2.68604
175,547,-0.0374756,-2.33807,-0.00380876,0.0528791,0.0299552,0.0657746,-0.0167043,1.16428,0.0503501,0.0439774,1399,477,-0.0374473,2.33808
182,547,0.120605,-1.13034,-0.00177344,0.0407113,0.0264169,0.0533671,-0.0144293,1.12402,0.0412381,0.0487194,1406,477,0.120634,1.13035
189,547,-0.0671387,-0.3396,0,0,0,0,0,0,0,-1,1413,477,-0.0671247,0.339595
196,547,-0.0153809,0.211578,0.00242789,0.0311698,0.0112645,0.0350584,-0.00146079,1.23839,0.0238741,0.0460589,1420,477,-0.0153719,-0.211577
203,547,0.300659,0.393616,-0.00297143,0.0321869,0.00659837,0.0333845,-0.004169,1.39126,0.0237682,0.0428958,1427,477,0.300617,-0.393631
210,547,0.981201,-0.385071,-0.00621732,0.0277378,0.00181904,0.027835,-0.00631449,1.51743,0.0209806,0.0449763,1434,477,0.981252,0.385072
217,547,0.778687,-0.447327,-0.00683269,0.024729,-0.000530532,0.0247379,-0.00684161,-1.55399,0.0191835,0.0457647,1441,477,0.778727,0.447324
224,547,0.262695,-0.376434,-0.00759929,0.0193006,-0.00250742,0.0195324,-0.00783102,-1.47864,0.0162726,0.0481938,1448,477,0.262689,0.376446
231,547,0.144653,-0.419189,0,0,0,0,0,0,0,-1,1455,477,0.144655,0.419191
238,547,0.781006,-1.34445,0,0,0,0,0,0,0,-1,1462,477,0.780978,1.34446
245,547,0.0246582,-1.7196,0,0,0,0,0,0,0,-1,1469,477,0.0246609,1.7196
252,547,2.48267,2.18115,0,0,0,0,0,0,0,-1,1476,477,2.4827,-2.18116
259,547,-0.664063,0.281677,0,0,0,0,0,0,0,-1,1483,477,-0.66402,-0.281677
266,547,-0.147095,-0.615906,-0.0141622,0.0123664,-0.00601081,0.0136647,-0.0154605,-1.35806,0.0168261,0.0405768,1490,477,-0.147065,0.615919
273,547,0.415527,-1.10291,-0.0141923,0.0119972,-0.00571889,0.0131915,-0.0153867,-1.36491,0.0165158,0.0467504,1497,477,0.415563,1.1029
280,547,0.189819,-0.730469,0,0,0,0,0,0,0,-1,1504,477,0.189854,0.730468
287,547,0.283936,-0.454865,-0.0131982,0.0145017,-0.00617367,0.0158153,-0.0145119,-1.36114,0.0175148,0.0456902,1511,477,0.283901,0.454857
294,547,0.763062,0.839844,-0.0131176,0.015857,-0.00602456,0.0170597,-0.0143203,-1.37375,0.0181403,0.0476318,1518,477,0.76305,-0.839857
301,547,0.429688,0.401642,-0.0125937,0.0168081,-0.00552859,0.0178133,-0.013599,-1.39094,0.0181902,0.0484598,1525,477,0.429696,-0.401645
308,547,0.0699463,-0.0878296,-0.0110313,0.0169138,-0.0053442,0.017901,-0.0120184,-1.38814,0.0173849,0.042743,1532,477,0.0700071,0.0878417
315,547,0.00720215,-0.195251,-0.0104379,0.0177326,-0.00465347,0.0184814,-0.0111867,-1.41125,0.0173006,0.0424289,1539,477,0.00721371,0.195241
322,547,0.12854,0.0738831,-0.010026,0.0171233,-0.00400171,0.0177008,-0.0106036,-1.42746,0.0165119,0.0404729,1546,477,0.128536,-0.073889
329,547,0.103394,0.0736694,-0.00893603,0.0160922,-0.00338884,0.0165429,-0.00938676,-1.43857,0.0151594,0.033382,1553,477,0.103401,-0.0736598
336,547,0.00439453,0.0901794,-0.00730129,0.0137298,-0.00304385,0.0141615,-0.00773297,-1.42992,0.0128211,0.0242323,1560,477,0.00444626,-0.0901864
343,547,-0.0269775,0.0708618,-0.00602173,0.0109603,-0.00266308,0.0113681,-0.00642955,-1.41884,0.0104065,0.0172835,1567,477,-0.0269769,-0.0708513
350,547,-0.0158691,0.0540771,-0.00484142,0.00891029,-0.00201351,0.00919904,-0.00513017,-1.42836,0.00838341,0.0125796,1574,477,-0.015865,-0.0540621
357,547,-0.0233154,0.0659485,-0.00327458,0.00627013,-0.00116167,0.00640948,-0.00341393,-1.45141,0.00575877,0.0101053,1581,477,-0.0232896,-0.0659476
364,547,-0.0410156,0.0858154,-0.00225096,0.00411062,-0.000734591,0.00419434,-0.00233468,-1.45731,0.00382016,0.0086578,1588,477,-0.0410648,-0.0858004
371,547,-0.0510254,0.0886536,-0.00193618,0.00226986,-0.000717982,0.00238904,-0.00205536,-1.4063,0.00256839,0.00791921,1595,477,-0.0509822,-0.0886635
378,547,-0.034668,0.0957642,-0.00150933,0.00123828,-0.000435074,0.00130552,-0.00157657,-1.41745,0.00166643,0.00865333,1602,477,-0.034704,-0.0957666
385,547,-0.0279541,0.0895691,-0.000941431,0.000428225,5.31253e-06,0.000428245,-0.000941452,1.56692,0.000809087,0.00967675,1609,477,-0.0280069,-0.089566
392,547,-0.0330811,0.0758667,-0.000597631,4.385e-05,0.000387623,0.000226226,-0.000780007,1.13103,0.000609571,0.011373,1616,477,-0.0330615,-0.0758566
399,547,-0.041748,0.0933533,-0.000432441,-0.000113832,0.000505359,0.000256737,-0.00080301,0.938083,0.000638366,0.0129412,1623,477,-0.041809,-0.0933391
406,547,-0.0334473,0.1008,-0.000641568,6.52619e-05,0.000468669,0.000298833,-0.000875139,1.10845,0.00070449,0.0118344,1630,477,-0.0334968,-0.100812
413,547,-0.0274658,0.118744,-0.00113199,0.000250596,0.000653738,0.000510755,-0.00139214,1.19205,0.00113724,0.0112539,1637,477,-0.0274701,-0.118754
420,547,-0.03479,0.111847,-0.00134534,0.000488119,0.000655038,0.000698096,-0.00155532,1.26059,0.00133202,0.0130522,1644,477,-0.0347821,-0.111844
427,547,-0.03479,0.107483,-0.00154298,0.000826463,0.000213382,0.000845526,-0.00156204,1.4817,0.00141038,0.0113239,1651,477,-0.0347582,-0.107474
434,547,-0.0461426,0.0999146,-0.00177152,0.000558182,-0.000544849,0.000679308,-0.00189265,-1.35204,0.00153901,0.00814459,1658,477,-0.0461671,-0.0999085
441,547,-0.0548096,0.0795898,-0.00208785,-0.000389578,-0.00155816,0.000535803,-0.00301323,-1.03488,0.00220919,0.00917754,1665,477,-0.0548602,-0.07958
448,547,-0.0509033,0.0625305,-0.00241226,-0.00211987,-0.00232243,6.0962e-05,-0.00459309,-0.816832,0.00308258,0.0101102,1672,477,-0.050885,-0.0625373
455,547,-0.0428467,0.0536194,-0.00264469,-0.00315722,-0.0024897,-0.000398099,-0.00540381,-0.734114,0.00347745,0.0101466,1679,477,-0.0428799,-0.0536163
462,547,-0.0533447,0.0643311,-0.00265262,-0.00460097,-0.00335645,-0.000131831,-0.00712177,-0.644159,0.00470452,0.00982237,1686,477,-0.0533065,-0.0643386
469,547,-0.072998,0.070343,-0.00204597,-0.00646372,-0.00402783,0.000338901,-0.00884859,-0.53459,0.00601521,0.0160248,1693,477,-0.0729965,-0.0703561
476,547,-0.0567627,0.066925,-0.00124895,-0.00840415,-0.00455244,0.000963435,-0.0106165,-0.452367,0.00741971,0.029772,1700,477,-0.0567903,-0.0669292
483,547,0.0626221,0.0734863,-1.72902e-05,-0.0104884,-0.00483722,0.00187524,-0.012381,-0.372935,0.00894483,0.0429976,1707,477,0.0625859,-0.0734742
490,547,0.122192,0.123505,0.00149304,-0.0119011,-0.00498648,0.00314557,-0.0135536,-0.320011,0.0102465,0.0419163,1714,477,0.122132,-0.12349
497,547,-0.0576172,0.358917,0.0033946,-0.0125953,-0.00497975,0.00481863,-0.0140193,-0.27853,0.0113002,0.0429755,1721,477,-0.0575684,-0.35893
504,547,0.0413818,0.668365,0.00591679,-0.0119041,-0.00454395,0.00700852,-0.0129959,-0.235791,0.0117207,0.0476691,1728,477,0.0414076,-0.668378
511,547,-0.487549,0.403107,0.00903076,-0.0100809,-0.00378847,0.00975435,-0.0108044,-0.188724,0.0118748,0.0466365,1735,477,-0.487552,-0.403097
518,547,0.133789,0.608032,0.0125041,-0.00683882,-0.00315747,0.0130065,-0.00734119,-0.157782,0.0118985,0.0431516,1742,477,0.133781,-0.608025
525,547,0.132446,-0.0400391,0.0164601,-0.00195348,-0.0023121,0.016746,-0.00223936,-0.123021,0.0119804,0.0434145,1749,477,0.132483,0.0400533
532,547,0,0,0,0,0,0,0,0,0,-1,1756,477,0,0
539,547,0,0,0,0,0,0,0,0,0,-1,1763,477,0,0
546,547,0,0,0,0,0,0,0,0,0,-1,1770,477,0,0
553,547,0,0,0,0,0,0,0,0,0,-1,1777,477,0,0
560,547,0,0,0,0,0,0,0,0,0,-1,1784,477,0,0
567,547,0,0,0,0,0,0,0,0,0,-1,1791,477,0,0
574,547,0,0,0,0,0,0,0,0,0,-1,1798,477,0,0
581,547,0,0,0,0,0,0,0,0,0,-1,1805,477,0,0
588,547,0,0,0,0,0,0,0,0,0,-1,1812,477,0,0
595,547,0,0,0,0,0,0,0,0,0,-1,1819,477,0,0
602,547,0,0,0,0,0,0,0,0,0,-1,1826,477,0,0
609,547,0,0,0,0,0,0,0,0,0,-1,1833,477,0,0
616,547,0,0,0,0,0,0,0,0,0,-1,1840,477,0,0
623,547,0,0,0,0,0,0,0,0,0,-1,1847,477,0,0
630,547,0,0,0,0,0,0,0,0,0,-1,1854,477,0,0
637,547,0,0,0,0,0,0,0,0,0,-1,1861,477,0,0
644,547,0,0,0,0,0,0,0,0,0,-1,1868,477,0,0
651,547,0,0,0,0,0,0,0,0,0,-1,1875,477,0,0
658,547,0,0,0,0,0,0,0,0,0,-1,1882,477,0,0
665,547,0,0,0,0,0,0,0,0,0,-1,1889,477,0,0
672,547,0,0,0,0,0,0,0,0,0,-1,1896,477,0,0
679,547,0,0,0,0,0,0,0,0,0,-1,1903,477,0,0
686,547,0,0,0,0,0,0,0,0,0,-1,1910,477,0,0
693,547,0,0,0,0,0,0,0,0,0,-1,1917,477,0,0
700,547,0,0,0,0,0,0,0,0,0,-1,1924,477,0,0
707,547,0,0,0,0,0,0,0,0,0,-1,1931,477,0,0
714,547,0,0,0,0,0,0,0,0,0,-1,1938,477,0,0
721,547,0,0,0,0,0,0,0,0,0,-1,1945,477,0,0
728,547,0,0,0,0,0,0,0,0,0,-1,1952,477,0,0
735,547,0,0,0,0,0,0,0,0,0,-1,1959,477,0,0
742,547,0,0,0,0,0,0,0,0,0,-1,1966,477,0,0
749,547,0,0,0,0,0,0,0,0,0,-1,1973,477,0,0
756,547,0,0,0,0,0,0,0,0,0,-1,1980,477,0,0
763,547,0,0,0,0,0,0,0,0,0,-1,1987,477,0,0
770,547,0,0,0,0,0,0,0,0,0,-1,1994,477,0,0
777,547,0,0,0,0,0,0,0,0,0,-1,2001,477,0,0
784,547,0,0,0,0,0,0,0,0,0,-1,2008,477,0,0
791,547,0,0,0,0,0,0,0,0,0,-1,2015,477,0,0
798,547,0,0,0,0,0,0,0,0,0,-1,2022,477,0,0
805,547,0,0,0,0,0,0,0,0,0,-1,2029,477,0,0
812,547,0,0,0,0,0,0,0,0,0,-1,2036,477,0,0
-700,540,0,0,0,0,0,0,0,0,0,-1,524,484,0,0
-693,540,0,0,0,0,0,0,0,0,0,-1,531,484,0,0
-686,540,0,0,0,0,0,0,0,0,0,-1,538,484,0,0
-679,540,0,0,0,0,0,0,0,0,0,-1,545,484,0,0
-672,540,0,0,0,0,0,0,0,0,0,-1,552,484,0,0
-665,540,0,0,0,0,0,0,0,0,0,-1,559,484,0,0
-658,540,0,0,0,0,0,0,0,0,0,-1,566,484,0,0
-651,540,0,0,0,0,0,0,0,0,0,-1,573,484,0,0
-644,540,0,0,0,0,0,0,0,0,0,-1,580,484,0,0
-637,540,0,0,0,0,0,0,0,0,0,-1,587,484,0,0
-630,540,0,0,0,0,0,0,0,0,0,-1,594,484,0,0
-623,540,0,0,0,0,0,0,0,0,0,-1,601,484,0,0
-616,540,0,0,0,0,0,0,0,0,0,-1,608,484,0,0
-609,540,0,0,0,0,0,0,0,0,0,-1,615,484,0,0
-602,540,0,0,0,0,0,0,0,0,0,-1,622,484,0,0
-595,540,0,0,0,0,0,0,0,0,0,-1,629,484,0,0
-588,540,0,0,0,0,0,0,0,0,0,-1,636,484,0,0
-581,540,0,0,0,0,0,0,0,0,0,-1,643,484,0,0
-574,540,0,0,0,0,0,0,0,0,0,-1,650,484,0,0
-567,540,0,0,0,0,0,0,0,0,0,-1,657,484,0,0
-560,540,0,0,0,0,0,0,0,0,0,-1,664,484,0,0
-553,540,0,0,0,0,0,0,0,0,0,-1,671,484,0,0
-546,540,0,0,0,0,0,0,0,0,0,-1,678,484,0,0
-539,540,0,0,0,0,0,0,0,0,0,-1,685,484,0,0
-532,540,0,0,0,0,0,0,0,0,0,-1,692,484,0,0
-525,540,0,0,0,0,0,0,0,0,0,-1,699,484,0,0
-518,540,0,0,0,0,0,0,0,0,0,-1,706,484,0,0
-511,540,0,0,0,0,0,0,0,0,0,-1,713,484,0,0
-504,540,0,0,0,0,0,0,0,0,0,-1,720,484,0,0
-497,540,0,0,0,0,0,0,0,0,0,-1,727,484,0,0
-490,540,0,0,0,0,0,0,0,0,0,-1,734,484,0,0
-483,540,0,0,0,0,0,0,0,0,0,-1,741,484,0,0
-476,540,0,0,0,0,0,0,0,0,0,-1,748,484,0,0
-469,540,0,0,0,0,0,0,0,0,0,-1,755,484,0,0
-462,540,0,0,0,0,0,0,0,0,0,-1,762,484,0,0
-455,540,0,0,0,0,0,0,0,0,0,-1,769,484,0,0
-448,540,0,0,0,0,0,0,0,0,0,-1,776,484,0,0
-441,540,0,0,0,0,0,0,0,0,0,-1,783,484,0,0
-434,540,0,0,0,0,0,0,0,0,0,-1,790,484,0,0
-427,540,0,0,0,0,0,0,0,0,0,-1,797,484,0,0
-420,540,0.61792,5.37955,0,0,0,0,0,0,0,-1,804,484,0.617905,-5.37955
-413,540,0.872742,5.70224,0.027009,-0.075328,0.0113432,0.0282512,-0.0765702,0.109077,0.0626253,0.0487775,811,484,0.872735,-5.70223
-406,540,1.13287,6.03207,0.0224562,-0.0620548,0.00249939,0.0225301,-0.0621287,0.0295403,0.0506287,0.0442496,818,484,1.13286,-6.03206
-399,540,1.34296,6.55408,0.0154176,-0.0487063,-0.00280308,0.0155399,-0.0488286,-0.0436026,0.0387844,0.043674,825,484,1.34295,-6.55409
-392,540,1.01819,7.02399,0.00890115,-0.0391407,-0.00664674,0.00980378,-0.0400433,-0.134976,0.0304934,0.0460007,832,484,1.01821,-7.02398
-385,540,1.46643,6.0433,0,0,0,0,0,0,0,-1,839,484,1.46642,-6.04331
-378,540,1.30206,5.21628,0.000859731,-0.023462,-0.0108458,0.00499357,-0.0275959,-0.364149,0.0202679,0.048256,846,484,1.30207,-5.21628
-371,540,0.125122,4.96826,-0.00149012,-0.0174785,-0.0115523,0.00456428,-0.0235329,-0.48273,0.0174106,0.0464162,853,484,0.125115,-4.96825
-364,540,-0.385559,4.63205,0,0,0,0,0,0,0,-1,860,484,-0.385559,-4.63204
-357,540,-0.0930176,0.0662231,-0.00695308,-0.015086,-0.00597105,-0.00379531,-0.0182438,-0.486458,0.0111155,0.0368762,867,484,-0.0930117,-0.0662381
-350,540,-0.0692139,0.0512695,-0.00728026,-0.00898351,-0.00603361,-0.00203847,-0.0142253,-0.715288,0.00888236,0.0246033,874,484,-0.0692011,-0.0512802
-343,540,-0.0532227,0.068512,-0.00504448,-0.00455773,-0.00610066,0.0013044,-0.0109066,-0.805334,0.00774259,0.0128467,881,484,-0.0531986,-0.0685085
-336,540,-0.0421143,0.0664673,-0.00293379,-0.0021164,-0.00548153,0.00297165,-0.00802184,-0.822609,0.00656653,0.0112586,888,484,-0.0421424,-0.066482
-329,540,-0.0338745,0.0696411,-0.00155101,-0.00158917,-0.00435291,0.00278286,-0.00592305,-0.783207,0.00513419,0.00928716,895,484,-0.0338938,-0.0696307
-322,540,-0.0307007,0.0704041,-0.000184249,-0.000467036,-0.00306379,0.00274141,-0.0033927,-0.76234,0.00354818,0.0124394,902,484,-0.0307073,-0.0704018
-315,540,-0.0455322,0.0758667,0.000529078,-0.00168897,-0.00244876,0.00210824,-0.00326813,-0.57277,0.00312804,0.0120347,909,484,-0.0455363,-0.0758607
-308,540,-0.048584,0.0838013,0.000499436,-0.000396238,-0.00194972,0.00205209,-0.00194889,-0.67251,0.00231022,0.0112679,916,484,-0.048577,-0.0837861
-301,540,-0.0667725,0.0856628,0.00100376,9.56448e-05,-0.00124745,0.00187722,-0.000777816,-0.610858,0.00157608,0.0102211,923,484,-0.0667705,-0.0856646
-294,540,-0.0614014,0.0762329,0.00152077,-5.33253e-05,-0.000760982,0.0018285,-0.000361055,-0.384281,0.00135548,0.00977997,930,484,-0.0614127,-0.0762368
-287,540,-0.0376587,0.0727539,0.00165938,-0.000667113,-0.000348235,0.00171038,-0.000718119,-0.145437,0.00144058,0.00758488,937,484,-0.0376351,-0.0727647
-280,540,-0.0309448,0.0761108,0.00163578,-0.00123236,0.000286344,0.00166409,-0.00126066,0.0985403,0.00169395,0.00852537,944,484,-0.0309228,-0.0761108
-273,540,-0.0409546,0.0729065,0.00175321,-0.00181882,0.000611642,0.00185503,-0.00192065,0.164972,0.00218,0.0110848,951,484,-0.0409792,-0.0729163
-266,540,-0.0425415,0.0784302,0.00199071,-0.00227982,0.000898181,0.00217193,-0.00246104,0.199087,0.00267658,0.0121414,958,484,-0.0425559,-0.0784446
-259,540,-0.046875,0.0796814,0.0014953,-0.00239328,0.000798514,0.00165289,-0.00255087,0.194847,0.00244543,0.0102439,965,484,-0.0468917,-0.0796837
-252,540,-0.0377197,0.0768738,0.000244953,-0.00196169,0.000236338,0.000269982,-0.00198672,0.105508,0.00142304,0.00992428,972,484,-0.0377322,-0.0768852
-245,540,-0.0256348,0.0792236,-0.00172451,-0.000803312,-0.000562895,-0.000536585,-0.00199124,-1.12829,0.00118967,0.0116512,979,484,-0.0256564,-0.0792186
-238,540,-0.0324707,0.0727234,-0.00425768,0.000897187,-0.00122764,0.00117462,-0.00453511,-1.34854,0.00348164,0.00885372,986,484,-0.0324666,-0.072709
-231,540,-0.0512085,0.0765076,-0.00660422,0.00273888,-0.00203569,0.00316315,-0.0070285,-1.36532,0.00602356,0.0103645,993,484,-0.0511807,-0.0765094
-224,540,-0.0560913,0.114258,-0.00847747,0.00452854,-0.00335392,0.00534249,-0.00929143,-1.33271,0.00855082,0.0145108,1000,484,-0.0560854,-0.114272
-217,540,-0.0321655,0.119812,-0.0108101,0.00661895,-0.00450858,0.00771616,-0.0119073,-1.33208,0.0114154,0.0239628,1007,484,-0.0321957,-0.119816
-210,540,0.0200806,0.0195007,-0.0123598,0.00868685,-0.00518201,0.00989355,-0.0135665,-1.34201,0.0135999,0.0350903,1014,484,0.0200909,-0.0194875
-203,540,0.0215454,-0.328339,-0.0124239,0.0101748,-0.0054454,0.0114185,-0.0136676,-1.34626,0.0145028,0.0397386,1021,484,0.0215486,0.328351
-196,540,0.0787354,-0.637238,-0.0124764,0.0110589,-0.00581104,0.0124155,-0.013833,-1.34145,0.0151619,0.0421386,1028,484,0.0787062,0.637237
-189,540,0.100708,-0.766205,0,0,0,0,0,0,0,-1,1035,484,0.100718,0.766193
-182,540,0.134277,-0.00274658,-0.00775906,0.0142126,-0.00355436,0.0147733,-0.00831974,-1.41434,0.0135052,0.0471022,1042,484,0.134292,0.00275303
-175,540,0.278931,-0.596619,-0.0042871,0.0160851,-0.00162722,0.0162142,-0.00441626,-1.49159,0.0125434,0.0466973,1049,484,0.278916,0.596615
-168,540,0.909424,-1.21365,-0.0010366,0.0178665,0.000949885,0.0179141,-0.00108421,1.52071,0.01232,0.0445644,1056,484,0.909446,1.21365
-161,540,-0.0550537,-0.395569,0.00267585,0.0195867,0.00389038,0.0204388,0.00182379,1.35518,0.0130605,0.0410665,1063,484,-0.0550992,0.39556
-154,540,0.359741,-0.421936,0.00677421,0.021666,0.00719236,0.0245725,0.00386775,1.18676,0.0152567,0.0427503,1070,484,0.359706,0.421935
-147,540,0.793579,-0.927734,0.0110186,0.0246778,0.0110061,0.0308011,0.0048953,1.06309,0.0191124,0.0450723,1077,484,0.793613,0.927745
-140,540,-1.39026,-1.4277,0.0145778,0.0269894,0.0133361,0.035493,0.00607433,1.00317,0.0219196,0.0477969,1084,484,-1.3902,1.42769
-133,540,-1.31445,-1.57458,0.0171082,0.0282924,0.014235,0.0379943,0.0074062,0.972558,0.0232573,0.0448634,1091,484,-1.31443,1.5746
-126,540,-0.457642,-0.609344,0.0181381,0.0289371,0.013605,0.038175,0.00890028,0.974303,0.023063,0.0428481,1098,484,-0.457697,0.609348
-119,540,-0.804932,-1.07004,0.018519,0.0293583,0.012785,0.0378249,0.0100524,0.985871,0.0226229,0.0443479,1105,484,-0.804904,1.07003
-112,540,-0.350098,-1.0881,0,0,0,0,0,0,0,-1,1112,484,-0.350063,1.0881
-105,540,-0.236328,-0.427307,0,0,0,0,0,0,0,-1,1119,484,-0.236289,0.42732
-98,540,-0.0419922,0.154114,0,0,0,0,0,0,0,-1,1126,484,-0.0420179,-0.154113
-91,540,-0.0786133,0.293335,0.0192909,0.018301,-0.00141142,0.0202916,0.0173002,-0.616756,0.0126491,0.0393859,1133,484,-0.0785716,-0.293322
-84,540,0.19812,0.229797,0.0180922,0.00746582,-0.00736663,0.0218618,0.0036962,-0.472976,0.013512,0.0400501,1140,484,0.198086,-0.229795
-77,540,0.49353,0.259918,0.015999,-0.000488637,-0.0129079,0.023071,-0.00756064,-0.501216,0.0184254,0.0402874,1147,484,0.493474,-0.259916
-70,540,0.358276,-0.0588074,0,0,0,0,0,0,0,-1,1154,484,0.358333,0.0588069
-63,540,0.0426025,-0.620544,0,0,0,0,0,0,0,-1,1161,484,0.0425667,0.620539
-56,540,-0.00488281,-1.51312,0.00179611,-0.0226688,-0.0289833,0.0210226,-0.0418953,-0.585713,0.0369859,0.0488712,1168,484,-0.00493159,1.51312
-49,540,-0.0843506,-2.13007,0.0067262,-0.0196107,-0.0238611,0.0208113,-0.0336959,-0.533255,0.0317615,0.049759,1175,484,-0.084371,2.13007
-42,540,0,0,0,0,0,0,0,0,0,-1,1182,484,0,0
-35,540,0,0,0,0,0,0,0,0,0,-1,1189,484,0,0
-28,540,0,0,0,0,0,0,0,0,0,-1,1196,484,0,0
-21,540,0,0,0,0,0,0,0,0,0,-1,1203,484,0,0
-14,540,0,0,0,0,0,0,0,0,0,-1,1210,484,0,0
-7,540,0,0,0,0,0,0,0,0,0,-1,1217,484,0,0
0,540,0,0,0,0,0,0,0,0,0,-1,1224,484,0,0
7,540,0,0,0,0,0,0,0,0,0,-1,1231,484,0,0
14,540,0,0,0,0,0,0,0,0,0,-1,1238,484,0,0
21,540,0,0,0,0,0,0,0,0,0,-1,1245,484,0,0
28,540,0,0,0,0,0,0,0,0,0,-1,1252,484,0,0
35,540,0,0,0,0,0,0,0,0,0,-1,1259,484,0,0
42,540,0,0,0,0,0,0,0,0,0,-1,1266,484,0,0
49,540,0,0,0,0,0,0,0,0,0,-1,1273,484,0,0
56,540,0,0,0,0,0,0,0,0,0,-1,1280,484,0,0
63,540,0,0,0,0,0,0,0,0,0,-1,1287,484,0,0
70,540,0,0,0,0,0,0,0,0,0,-1,1294,484,0,0
77,540,0,0,0,0,0,0,0,0,0,-1,1301,484,0,0
84,540,0,0,0,0,0,0,0,0,0,-1,1308,484,0,0
91,540,0,0,0,0,0,0,0,0,0,-1,1315,484,0,0
98,540,0,0,0,0,0,0,0,0,0,-1,1322,484,0,0
105,540,0,0,0,0,0,0,0,0,0,-1,1329,484,0,0
112,540,0,0,0,0,0,0,0,0,0,-1,1336,484,0,0
119,540,0,0,0,0,0,0,0,0,0,-1,1343,484,0,0
126,540,0,0,0,0,0,0,0,0,0,-1,1350,484,0,0
133,540,0,0,0,0,0,0,0,0,0,-1,1357,484,0,0
140,540,0,0,0,0,0,0,0,0,0,-1,1364,484,0,0
147,540,0,0,0,0,0,0,0,0,0,-1,1371,484,0,0
154,540,0,0,0,0,0,0,0,0,0,-1,1378,484,0,0
161,540,0,0,0,0,0,0,0,0,0,-1,1385,484,0,0
168,540,-0.40979,-3.53748,0,0,0,0,0,0,0,-1,1392,484,-0.409826,3.53747
175,540,-0.333984,-2.95642,0,0,0,0,0,0,0,-1,1399,484,-0.334002,2.95641
182,540,-0.0432129,-1.25928,0,0,0,0,0,0,0,-1,1406,484,-0.0431598,1.25929
189,540,0.114624,-0.633667,0,0,0,0,0,0,0,-1,1413,484,0.114628,0.633655
196,540,-0.105835,0.249023,0,0,0,0,0,0,0,-1,1420,484,-0.105877,-0.249032
203,540,0.90271,-0.213623,0,0,0,0,0,0,0,-1,1427,484,0.902673,0.213637
210,540,0.698364,-0.350952,0,0,0,0,0,0,0,-1,1434,484,0.698337,0.350958
217,540,0.865723,-0.407074,0,0,0,0,0,0,0,-1,1441,484,0.865748,0.407074
224,540,0.325928,-0.411377,0,0,0,0,0,0,0,-1,1448,484,0.325917,0.411368
231,540,0.0900879,-0.0558472,0,0,0,0,0,0,0,-1,1455,484,0.0900443,0.0558479
238,540,1.18823,-1.85944,0,0,0,0,0,0,0,-1,1462,484,1.18819,1.85945
245,540,2.74976,1.56183,0,0,0,0,0,0,0,-1,1469,484,2.74973,-1.56182
252,540,2.37183,1.43335,-0.016054,0.016298,-0.00336794,0.0166449,-0.0164009,-1.46816,0.0190791,0.0443448,1476,484,2.37188,-1.43334
259,540,0.0524902,-0.574463,-0.0170045,0.0157399,-0.00397709,0.016216,-0.0174806,-1.45165,0.0194593,0.0366607,1483,484,0.0524373,0.574475
266,540,0.535034,-0.564545,-0.0173116,0.0150135,-0.00363338,0.0154168,-0.017715,-1.46023,0.019144,0.042574,1490,484,0.535037,0.564531
273,540,0.841675,-0.694824,-0.0173009,0.0153015,-0.00413454,0.0158177,-0.0178171,-1.4466,0.0194305,0.0470514,1497,484,0.841718,0.694828
280,540,0.795776,-0.651031,-0.0168525,0.0174497,-0.0051804,0.0182149,-0.0176178,-1.42413,0.020689,0.0441544,1504,484,0.795829,0.651034
287,540,0.494995,-0.485321,-0.0170202,0.0194963,-0.00629171,0.02055,-0.0180738,-1.40487,0.0223147,0.0450368,1511,484,0.494961,0.485306
294,540,0.856079,0.864288,0,0,0,0,0,0,0,-1,1518,484,0.856128,-0.864278
301,540,0.239136,0.101288,-0.0168597,0.0228833,-0.00632955,0.023867,-0.0178435,-1.41661,0.0241651,0.0472614,1525,484,0.239174,-0.101281
308,540,-0.140625,-0.468719,-0.0148863,0.0230104,-0.0064776,0.024087,-0.0159629,-1.4061,0.0232809,0.0420769,1532,484,-0.140602,0.468716
315,540,-0.313354,-0.358948,-0.0141363,0.0239901,-0.00584818,0.024867,-0.0150132,-1.42196,0.0232579,0.0443698,1539,484,-0.313319,0.358961
322,540,0.247803,0.00521851,-0.0135288,0.0229819,-0.00513343,0.0236899,-0.0142368,-1.43373,0.0221225,0.0451892,1546,484,0.247837,-0.00522271
329,540,0.284912,-0.0484619,-0.0120691,0.0213286,-0.00438121,0.0218938,-0.0126343,-1.4425,0.0201723,0.0424956,1553,484,0.284919,0.048458
336,540,0.108276,0.087677,-0.0100089,0.018095,-0.0037902,0.0185971,-0.0105111,-1.43907,0.0170204,0.0421193,1560,484,0.108257,-0.0876854
343,540,0.0383301,0.032135,-0.00826394,0.0142136,-0.00307467,0.0146266,-0.00867693,-1.43728,0.0135997,0.0393707,1567,484,0.0382972,-0.0321223
350,540,0.0109863,0.0446167,-0.00658455,0.0110351,-0.00213107,0.0112892,-0.00683864,-1.45213,0.0105708,0.0284436,1574,484,0.0110007,-0.0446267
357,540,-0.0180664,0.0796814,-0.00453728,0.00736479,-0.001019,0.00745141,-0.00462389,-1.486,0.0070351,0.016678,1581,484,-0.0180356,-0.0796699
364,540,-0.0444336,0.10199,-0.00312968,0.00435326,-0.00037768,0.00437227,-0.0031487,-1.52049,0.00436135,0.0102734,1588,484,-0.0444721,-0.102003
371,540,-0.0456543,0.0892944,-0.00256899,0.00180537,-0.000288244,0.00182428,-0.0025879,-1.50528,0.00256006,0.00942717,1595,484,-0.0456923,-0.089305
378,540,-0.0369873,0.089447,-0.00188794,0.000161344,5.10642e-05,0.000162616,-0.00188922,1.5459,0.00131703,0.0100542,1602,484,-0.0370317,-0.0894617
385,540,-0.0241699,0.0916443,-0.00107728,-0.0010397,0.000494098,-0.000564034,-0.00155294,0.804402,0.000907709,0.0122976,1609,484,-0.0241715,-0.0916384
392,540,-0.0452881,0.0888672,-0.000495155,-0.00164852,0.00086882,-2.90478e-05,-0.00211463,0.492406,0.00140017,0.0119056,1616,484,-0.0452348,-0.0888679
399,540,-0.0581055,0.0780029,-0.000161301,-0.00193902,0.000894162,0.000210632,-0.00231096,0.394186,0.00161543,0.0158984,1623,484,-0.0580649,-0.0779951
406,540,-0.0290527,0.0707092,-0.000325641,-0.00168149,0.000729231,-7.8954e-06,-0.00199924,0.410922,0.0013302,0.0151218,1630,484,-0.0290379,-0.0707242
413,540,-0.0212402,0.0843811,-0.000811289,-0.00134256,0.000905275,-0.000133482,-0.00202037,0.642688,0.0013047,0.0113901,1637,484,-0.021271,-0.0843745
420,540,-0.0411377,0.1185,-0.000831261,-0.000876978,0.000889351,3.55248e-05,-0.00174376,0.77255,0.00117453,0.0101818,1644,484,-0.0411046,-0.118502
427,540,-0.0422363,0.120209,-0.000818696,-0.000251987,0.00050195,4.10645e-05,-0.00111175,1.04235,0.000755226,0.00969498,1651,484,-0.0422037,-0.120203
434,540,-0.0244141,0.111877,-0.000894662,-0.00019305,-0.00012657,-0.000170915,-0.000916797,-1.39767,0.000562942,0.0122436,1658,484,-0.0244058,-0.111872
441,540,-0.0344238,0.101563,-0.00110405,-0.000724075,-0.0009512,5.59267e-05,-0.00188405,-0.883967,0.00127508,0.0161668,1665,484,-0.034471,-0.101577
448,540,-0.0454102,0.0646362,-0.00140326,-0.00187652,-0.00157743,-4.48106e-05,-0.00323497,-0.710948,0.00214187,0.0103242,1672,484,-0.0454573,-0.0646256
455,540,-0.0373535,0.0745239,-0.00165535,-0.00243694,-0.00166584,-0.000335083,-0.00375721,-0.670185,0.00240092,0.00938632,1679,484,-0.037297,-0.0745241
462,540,-0.067749,0.0884399,-0.00172638,-0.00337461,-0.00230461,-0.000102961,-0.00499802,-0.613686,0.00329823,0.00912422,1686,484,-0.0677575,-0.088447
469,540,-0.0836182,0.0749207,-0.0013233,-0.00459649,-0.00274914,0.000239517,-0.0061593,-0.516916,0.00418833,0.0115654,1693,484,-0.083586,-0.0749241
476,540,-0.0505371,0.067688,-0.000722451,-0.00587425,-0.00305551,0.000698073,-0.00729477,-0.43518,0.00511179,0.0155863,1700,484,-0.0505725,-0.0676987
483,540,0.00512695,0.0960693,0.000194498,-0.00712744,-0.00322878,0.00141489,-0.00834784,-0.361375,0.00609187,0.0240589,1707,484,0.00514503,-0.0960812
490,540,-0.0883789,0.144928,0.00128233,-0.00793806,-0.00332868,0.00235844,-0.00901417,-0.312678,0.00693067,0.0375519,1714,484,-0.0883826,-0.144921
497,540,-0.359863,0.237671,0.00267248,-0.00814733,-0.00338414,0.00364375,-0.00911861,-0.279495,0.00759099,0.0461968,1721,484,-0.35992,-0.237671
504,540,-0.80896,0.292786,0.00457754,-0.00719241,-0.0030973,0.00534284,-0.00795771,-0.242235,0.00772839,0.0459239,1728,484,-0.809004,-0.292798
511,540,-0.192627,0.291138,0.00692312,-0.00538435,-0.00256956,0.00743805,-0.00589928,-0.197776,0.00771738,0.0460827,1735,484,-0.192629,-0.291152
518,540,-0.0670166,0.109344,0,0,0,0,0,0,0,-1,1742,484,-0.0670566,-0.109349
525,540,0.211304,0.0378113,0,0,0,0,0,0,0,-1,1749,484,0.21135,-0.0378072
532,540,0.45459,-0.295746,0,0,0,0,0,0,0,-1,1756,484,0.454572,0.295732
539,540,0,0,0,0,0,0,0,0,0,-1,1763,484,0,0
546,540,0,0,0,0,0,0,0,0,0,-1,1770,484,0,0
553,540,0,0,0,0,0,0,0,0,0,-1,1777,484,0,0
560,540,0,0,0,0,0,0,0,0,0,-1,1784,484,0,0
567,540,0,0,0,0,0,0,0,0,0,-1,1791,484,0,0
574,540,0,0,0,0,0,0,0,0,0,-1,1798,484,0,0
581,540,0,0,0,0,0,0,0,0,0,-1,1805,484,0,0
588,540,0,0,0,0,0,0,0,0,0,-1,1812,484,0,0
595,540,0,0,0,0,0,0,0,0,0,-1,1819,484,0,0
602,540,0,0,0,0,0,0,0,0,0,-1,1826,484,0,0
609,540,0,0,0,0,0,0,0,0,0,-1,1833,484,0,0
616,540,0,0,0,0,0,0,0,0,0,-1,1840,484,0,0
623,540,0,0,0,0,0,0,0,0,0,-1,1847,484,0,0
630,540,0,0,0,0,0,0,0,0,0,-1,1854,484,0,0
637,540,0,0,0,0,0,0,0,0,0,-1,1861,484,0,0
644,540,0,0,0,0,0,0,0,0,0,-1,1868,484,0,0
651,540,0,0,0,0,0,0,0,0,0,-1,1875,484,0,0
658,540,0,0,0,0,0,0,0,0,0,-1,1882,484,0,0
665,540,0,0,0,0,0,0,0,0,0,-1,1889,484,0,0
672,540,0,0,0,0,0,0,0,0,0,-1,1896,484,0,0
679,540,0,0,0,0,0,0,0,0,0,-1,1903,484,0,0
686,540,0,0,0,0,0,0,0,0,0,-1,1910,484,0,0
693,540,0,0,0,0,0,0,0,0,0,-1,1917,484,0,0
700,540,0,0,0,0,0,0,0,0,0,-1,1924,484,0,0
707,540,0,0,0,0,0,0,0,0,0,-1,1931,484,0,0
714,540,0,0,0,0,0,0,0,0,0,-1,1938,484,0,0
721,540,0,0,0,0,0,0,0,0,0,-1,1945,484,0,0
728,540,0,0,0,0,0,0,0,0,0,-1,1952,484,0,0
735,540,0,0,0,0,0,0,0,0,0,-1,1959,484,0,0
742,540,0,0,0,0,0,0,0,0,0,-1,1966,484,0,0
749,540,0,0,0,0,0,0,0,0,0,-1,1973,484,0,0
756,540,0,0,0,0,0,0,0,0,0,-1,1980,484,0,0
763,540,0,0,0,0,0,0,0,0,0,-1,1987,484,0,0
770,540,0,0,0,0,0,0,0,0,0,-1,1994,484,0,0
777,540,0,0,0,0,0,0,0,0,0,-1,2001,484,0,0
784,540,0,0,0,0,0,0,0,0,0,-1,2008,484,0,0
791,540,0,0,0,0,0,0,0,0,0,-1,2015,484,0,0
798,540,0,0,0,0,0,0,0,0,0,-1,2022,484,0,0
805,540,0,0,0,0,0,0,0,0,0,-1,2029,484,0,0
812,540,0,0,0,0,0,0,0,0,0,-1,2036,484,0,0
-700,533,0,0,0,0,0,0,0,0,0,-1,524,491,0,0
-693,533,0,0,0,0,0,0,0,0,0,-1,531,491,0,0
-686,533,0,0,0,0,0,0,0,0,0,-1,538,491,0,0
-679,533,0,0,0,0,0,0,0,0,0,-1,545,491,0,0
-672,533,0,0,0,0,0,0,0,0,0,-1,552,491,0,0
-665,533,0,0,0,0,0,0,0,0,0,-1,559,491,0,0
-658,533,0,0,0,0,0,0,0,0,0,-1,566,491,0,0
-651,533,0,0,0,0,0,0,0,0,0,-1,573,491,0,0
-644,533,0,0,0,0,0,0,0,0,0,-1,580,491,0,0
-637,533,0,0,0,0,0,0,0,0,0,-1,587,491,0,0
-630,533,0,0,0,0,0,0,0,0,0,-1,594,491,0,0
-623,533,0,0,0,0,0,0,0,0,0,-1,601,491,0,0
-616,533,0,0,0,0,0,0,0,0,0,-1,608,491,0,0
-609,533,0,0,0,0,0,0,0,0,0,-1,615,491,0,0
-602,533,0,0,0,0,0,0,0,0,0,-1,622,491,0,0
-595,533,0,0,0,0,0,0,0,0,0,-1,629,491,0,0
-588,533,0,0,0,0,0,0,0,0,0,-1,636,491,0,0
-581,533,0,0,0,0,0,0,0,0,0,-1,643,491,0,0
-574,533,0,0,0,0,0,0,0,0,0,-1,650,491,0,0
-567,533,0,0,0,0,0,0,0,0,0,-1,657,491,0,0
-560,533,0,0,0,0,0,0,0,0,0,-1,664,491,0,0
-553,533,0,0,0,0,0,0,0,0,0,-1,671,491,0,0
-546,533,0,0,0,0,0,0,0,0,0,-1,678,491,0,0
-539,533,0,0,0,0,0,0,0,0,0,-1,685,491,0,0
-532,533,0,0,0,0,0,0,0,0,0,-1,692,491,0,0
-525,533,0,0,0,0,0,0,0,0,0,-1,699,491,0,0
-518,533,0,0,0,0,0,0,0,0,0,-1,706,491,0,0
-511,533,0,0,0,0,0,0,0,0,0,-1,713,491,0,0
-504,533,0,0,0,0,0,0,0,0,0,-1,720,491,0,0
-497,533,0,0,0,0,0,0,0,0,0,-1,727,491,0,0
-490,533,0,0,0,0,0,0,0,0,0,-1,734,491,0,0
-483,533,0,0,0,0,0,0,0,0,0,-1,741,491,0,0
-476,533,0,0,0,0,0,0,0,0,0,-1,748,491,0,0
-469,533,0,0,0,0,0,0,0,0,0,-1,755,491,0,0
-462,533,0,0,0,0,0,0,0,0,0,-1,762,491,0,0
-455,533,0,0,0,0,0,0,0,0,0,-1,769,491,0,0
-448,533,0,0,0,0,0,0,0,0,0,-1,776,491,0,0
-441,533,0,0,0,0,0,0,0,0,0,-1,783,491,0,0
-434,533,0,0,0,0,0,0,0,0,0,-1,790,491,0,0
-427,533,-0.186218,6.11469,0.0383828,-0.0677652,0.013729,0.0401298,-0.0695122,0.126564,0.064055,0.0452614,797,491,-0.186243,-6.11467
-420,533,-0.26123,6.37518,0,0,0,0,0,0,0,-1,804,491,-0.261239,-6.37519
-413,533,0.270386,6.75403,0.0380985,-0.0309029,-0.00664027,0.0387317,-0.0315361,-0.0950713,0.04064,0.0472693,811,491,0.270409,-6.75402
-406,533,0.790649,6.92825,0.0327997,-0.0227469,-0.0116496,0.035144,-0.0250912,-0.198582,0.0349379,0.0459077,818,491,0.790639,-6.92827
-399,533,0.7948,7.75623,0.024329,-0.0146359,-0.012991,0.0282631,-0.01857,-0.29405,0.0272314,0.0454462,825,491,0.794794,-7.75622
-392,533,0.795593,8.63095,0,0,0,0,0,0,0,-1,832,491,0.795609,-8.63095
-385,533,0.227661,0.740753,0,0,0,0,0,0,0,-1,839,491,0.227662,-0.740745
-378,533,1.5603,5.44366,0,0,0,0,0,0,0,-1,846,491,1.56028,-5.44368
-371,533,-0.102417,-0.299011,0.00164195,-0.00481978,-0.0116195,0.0104714,-0.0136493,-0.649796,0.0139663,0.043858,853,491,-0.102413,0.299015
-364,533,-0.21936,-0.0442505,-0.000989219,-0.00404169,-0.00941887,0.00702627,-0.0120572,-0.705076,0.0111447,0.0353743,860,491,-0.219331,0.0442639
-357,533,-0.0516357,0.0937805,-0.00546066,-0.00967777,-0.00426845,-0.00280837,-0.0123301,-0.555986,0.0074622,0.018491,867,491,-0.0516486,-0.093795
-350,533,-0.045105,0.0913086,-0.00627102,-0.00522781,-0.00410081,-0.00161556,-0.00988326,-0.848656,0.0061218,0.0092672,874,491,-0.0451182,-0.0912954
-343,533,-0.0323486,0.0788879,-0.00433679,-0.00213979,-0.00415529,0.00105975,-0.00753633,-0.914623,0.00541216,0.00949755,881,491,-0.0323289,-0.078881
-336,533,-0.0405273,0.0540161,-0.00249464,-0.000652775,-0.0036246,0.00216606,-0.00531348,-0.909805,0.00444393,0.0137829,888,491,-0.0405015,-0.054006
-329,533,-0.0251465,0.0606689,-0.00127713,-0.000618394,-0.00270197,0.00177421,-0.00366974,-0.846049,0.00320594,0.0122339,895,491,-0.0251474,-0.0606664
-322,533,-0.041626,0.0611267,-9.40715e-06,8.77392e-05,-0.00158907,0.00162898,-0.00155065,-0.800677,0.00183595,0.0101982,902,491,-0.0416557,-0.061134
-315,533,-0.0534058,0.0548401,0.000719742,-0.0012231,-0.00101287,0.00115173,-0.00165509,-0.403142,0.00162918,0.0121347,909,491,-0.0533838,-0.0548268
-308,533,-0.0552979,0.0843811,0.000810048,-4.7972e-05,-0.000512434,0.00104935,-0.000287272,-0.43689,0.000812433,0.0114053,916,491,-0.0553156,-0.0843681
-301,533,-0.0640259,0.107483,0.00173979,0.00037554,0.000229543,0.00177738,0.000337954,0.162304,0.00108988,0.0111862,923,491,-0.0640287,-0.107477
-294,533,-0.0559082,0.0883789,0.00248701,0.000362408,0.000744148,0.00272172,0.000127697,0.305533,0.00177345,0.0106155,930,491,-0.0558879,-0.0883913
-287,533,-0.0301514,0.0810547,0.00265283,-3.97074e-05,0.00105669,0.00301801,-0.000404882,0.332734,0.00215965,0.00844257,937,491,-0.0301782,-0.0810462
-280,533,-0.0339966,0.09021,0.00270622,-0.000562014,0.00165474,0.00339772,-0.00125352,0.395834,0.00277888,0.00761562,944,491,-0.0339692,-0.090202
-273,533,-0.0549927,0.0788269,0.00270601,-0.000783331,0.00173457,0.00342155,-0.00149887,0.391247,0.0029122,0.0108708,951,491,-0.0549749,-0.0788314
-266,533,-0.0422363,0.0806274,0.00266295,-0.000828407,0.00172803,0.00337359,-0.00153905,0.39016,0.00290148,0.0105676,958,491,-0.0422202,-0.0806207
-259,533,-0.0380859,0.0778503,0.00170352,-0.000540596,0.00127576,0.00228045,-0.00111753,0.424705,0.00199975,0.0100522,965,491,-0.0380577,-0.0778485
-252,533,-0.0244751,0.0682373,-0.000272107,0.000341579,0.000265789,0.000440687,-0.000371215,1.21388,0.000469324,0.0113647,972,491,-0.0244652,-0.0682503
-245,533,0.00134277,0.0677795,-0.00321192,0.00189224,-0.00105819,0.00210292,-0.00342261,-1.37427,0.00322035,0.0154514,979,491,0.00135207,-0.0677727
-238,533,-0.0177002,0.0594482,-0.00685289,0.00409387,-0.002268,0.00454516,-0.00730418,-1.37438,0.00690276,0.0172506,986,491,-0.0176793,-0.0594441
-231,533,-0.0545044,0.0844116,-0.0102281,0.00646529,-0.0035257,0.00717939,-0.0109422,-1.37096,0.0105374,0.0262318,993,491,-0.0545285,-0.0843996
-224,533,-0.0713501,0.208496,-0.0130146,0.0086492,-0.00518643,0.00982685,-0.0141922,-1.34752,0.0139436,0.0347009,1000,491,-0.0713645,-0.208501
-217,533,0.00598145,0.299316,-0.0163287,0.0109653,-0.00665426,0.0125011,-0.0178645,-1.34396,0.0176226,0.0373548,1007,491,0.00599127,-0.299302
-210,533,0.0427246,-0.0415649,-0.0185934,0.0131514,-0.00753449,0.0148489,-0.0202909,-1.3492,0.020369,0.0406167,1014,491,0.0427492,0.0415645
-203,533,-0.0424194,-0.717285,0,0,0,0,0,0,0,-1,1021,491,-0.0424338,0.717291
-196,533,-0.0911865,-1.24786,-0.0191554,0.0149927,-0.00796439,0.0167589,-0.0209216,-1.35257,0.021799,0.0455486,1028,491,-0.0911982,1.24785
-189,533,-0.0997314,-1.45065,-0.0170532,0.0164232,-0.00666317,0.0177007,-0.0183307,-1.38137,0.0208038,0.0477431,1035,491,-0.0996739,1.45066
-182,533,-0.0439453,0.358917,0,0,0,0,0,0,0,-1,1042,491,-0.0438861,-0.358916
-175,533,0.359985,-0.089447,-0.00793838,0.0182726,-0.00191654,0.018412,-0.00807778,-1.49819,0.015677,0.0441865,1049,491,0.359999,0.0894499
-168,533,-0.301514,-0.470001,-0.00324139,0.0192226,0.00165033,0.0193432,-0.00336198,1.49785,0.0141499,0.0432209,1056,491,-0.30156,0.470001
-161,533,0.0317383,-0.380127,0.00230203,0.0200918,0.00556647,0.02169,0.000703844,1.29121,0.0142312,0.0401044,1063,491,0.0317974,0.38014
-154,533,0.31543,-0.162201,0.00828092,0.0216894,0.00982818,0.0268822,0.0030881,1.08472,0.0169859,0.0431987,1070,491,0.315373,0.162192
-147,533,0.407837,-0.0325317,0.0145118,0.0246422,0.0146731,0.0350998,0.00405426,0.951596,0.0221723,0.0432084,1077,491,0.407838,0.0325224
-140,533,-1.69714,-1.92719,0,0,0,0,0,0,0,-1,1084,491,-1.69712,1.92717
-133,533,-1.52026,-1.80005,0.0232296,0.0283261,0.0185213,0.0444736,0.00708207,0.853761,0.027593,0.0468239,1091,491,-1.5203,1.80006
-126,533,-1.14978,-1.85059,0.0244687,0.0288375,0.0175247,0.0443134,0.00899278,0.847402,0.0270477,0.0463417,1098,491,-1.14974,1.85057
-119,533,-1.09729,-1.76862,0.024889,0.0293619,0.0164495,0.0437263,0.0105246,0.852964,0.0263528,0.0489455,1105,491,-1.09734,1.7686
-112,533,-1.03247,-1.70715,0,0,0,0,0,0,0,-1,1112,491,-1.03248,1.70714
-105,533,0.293091,0.154785,0,0,0,0,0,0,0,-1,1119,491,0.293054,-0.154771
-98,533,-0.106079,0.108032,0,0,0,0,0,0,0,-1,1126,491,-0.10612,-0.108019
-91,533,-0.123657,0.199524,0.0255032,0.017811,0.0012354,0.0256968,0.0176175,0.155399,0.0151729,0.0395553,1133,491,-0.123654,-0.199532
-84,533,0.102173,0.140533,0.0230869,0.00432801,-0.00568226,0.0246739,0.00274105,-0.272344,0.015616,0.0409113,1140,491,0.102125,-0.140526
-77,533,0,0,0,0,0,0,0,0,0,-1,1147,491,0,0
-70,533,0,0,0,0,0,0,0,0,0,-1,1154,491,0,0
-63,533,0,0,0,0,0,0,0,0,0,-1,1161,491,0,0
-56,533,0,0,0,0,0,0,0,0,0,-1,1168,491,0,0
-49,533,0,0,0,0,0,0,0,0,0,-1,1175,491,0,0
-42,533,0,0,0,0,0,0,0,0,0,-1,1182,491,0,0
-35,533,0,0,0,0,0,0,0,0,0,-1,1189,491,0,0
-28,533,0,0,0,0,0,0,0,0,0,-1,1196,491,0,0
-21,533,0,0,0,0,0,0,0,0,0,-1,1203,491,0,0
-14,533,0,0,0,0,0,0,0,0,0,-1,1210,491,0,0
-7,533,0,0,0,0,0,0,0,0,0,-1,1217,491,0,0
0,533,0,0,0,0,0,0,0,0,0,-1,1224,491,0,0
7,533,0,0,0,0,0,0,0,0,0,-1,1231,491,0,0
14,533,0,0,0,0,0,0,0,0,0,-1,1238,491,0,0
21,533,0,0,0,0,0,0,0,0,0,-1,1245,491,0,0
28,533,0,0,0,0,0,0,0,0,0,-1,1252,491,0,0
35,533,0,0,0,0,0,0,0,0,0,-1,1259,491,0,0
42,533,0,0,0,0,0,0,0,0,0,-1,1266,491,0,0
49,533,0,0,0,0,0,0,0,0,0,-1,1273,491,0,0
56,533,0,0,0,0,0,0,0,0,0,-1,1280,491,0,0
63,533,0,0,0,0,0,0,0,0,0,-1,1287,491,0,0
70,533,0,0,0,0,0,0,0,0,0,-1,1294,491,0,0
77,533,0,0,0,0,0,0,0,0,0,-1,1301,491,0,0
84,533,0,0,0,0,0,0,0,0,0,-1,1308,491,0,0
91,533,0,0,0,0,0,0,0,0,0,-1,1315,491,0,0
98,533,0,0,0,0,0,0,0,0,0,-1,1322,491,0,0
105,533,0,0,0,0,0,0,0,0,0,-1,1329,491,0,0
112,533,0,0,0,0,0,0,0,0,0,-1,1336,491,0,0
119,533,0,0,0,0,0,0,0,0,0,-1,1343,491,0,0
126,533,0,0,0,0,0,0,0,0,0,-1,1350,491,0,0
133,533,0,0,0,0,0,0,0,0,0,-1,1357,491,0,0
140,533,0,0,0,0,0,0,0,0,0,-1,1364,491,0,0
147,533,0,0,0,0,0,0,0,0,0,-1,1371,491,0,0
154,533,0,0,0,0,0,0,0,0,0,-1,1378,491,0,0
161,533,0,0,0,0,0,0,0,0,0,-1,1385,491,0,0
168,533,0,0,0,0,0,0,0,0,0,-1,1392,491,0,0
175,533,0,0,0,0,0,0,0,0,0,-1,1399,491,0,0
182,533,0,0,0,0,0,0,0,0,0,-1,1406,491,0,0
189,533,0,0,0,0,0,0,0,0,0,-1,1413,491,0,0
196,533,0,0,0,0,0,0,0,0,0,-1,1420,491,0,0
203,533,0.262695,-0.496307,0,0,0,0,0,0,0,-1,1427,491,0.262745,0.496304
210,533,0.0319824,-0.434357,0,0,0,0,0,0,0,-1,1434,491,0.0319596,0.434363
217,533,-0.166016,-0.359161,0,0,0,0,0,0,0,-1,1441,491,-0.166063,0.359154
224,533,-0.202271,-0.152649,0,0,0,0,0,0,0,-1,1448,491,-0.202315,0.152648
231,533,-0.25415,0.17337,0,0,0,0,0,0,0,-1,1455,491,-0.254171,-0.173381
238,533,-0.323608,0.0575256,0,0,0,0,0,0,0,-1,1462,491,-0.323586,-0.05753
245,533,2.4574,1.0376,0,0,0,0,0,0,0,-1,1469,491,2.45743,-1.03761
252,533,2.16235,0.795624,-0.0185429,0.0185625,0.00375348,0.0189384,-0.0189188,1.47099,0.0218569,0.0440765,1476,491,2.16234,-0.795625
259,533,1.98035,0.304657,-0.0196581,0.0183128,0.0017917,0.0183971,-0.0197425,1.52375,0.0220245,0.0422199,1483,491,1.98039,-0.304647
266,533,1.65674,-0.0944214,-0.0201696,0.0181066,0.000702689,0.0181195,-0.0201825,1.55245,0.0221243,0.0477386,1490,491,1.65668,0.094417
273,533,1.36011,-0.258392,-0.020294,0.0194915,-0.00122951,0.0195294,-0.020332,-1.53993,0.0230156,0.0437918,1497,491,1.36009,0.258398
280,533,0.887451,-0.270325,-0.0203504,0.0229142,-0.00369268,0.0232272,-0.0206633,-1.48626,0.0253546,0.0426616,1504,491,0.887394,0.270312
287,533,0.628174,-0.425385,0,0,0,0,0,0,0,-1,1511,491,0.628129,0.425371
294,533,0.0759277,-0.477966,0,0,0,0,0,0,0,-1,1518,491,0.0759578,0.477981
301,533,-0.445435,-1.06512,0,0,0,0,0,0,0,-1,1525,491,-0.445447,1.06513
308,533,-0.596191,-0.741943,-0.018951,0.0303259,-0.00794843,0.0315762,-0.0202013,-1.41477,0.0301333,0.044078,1532,491,-0.596208,0.74195
315,533,-0.609619,-0.338348,-0.017923,0.0313662,-0.00748013,0.0324764,-0.0190332,-1.42345,0.0300748,0.0471373,1539,491,-0.609583,0.338337
322,533,-0.538452,0.0690613,0,0,0,0,0,0,0,-1,1546,491,-0.538422,-0.0690542
329,533,0.53772,-0.237946,-0.0148881,0.0271154,-0.00578482,0.0278975,-0.0156702,-1.43641,0.0254819,0.0412516,1553,491,0.537781,0.237949
336,533,0.365356,-0.174805,-0.0122999,0.0227318,-0.00485869,0.0233932,-0.0129612,-1.4355,0.0212753,0.0423055,1560,491,0.365379,0.174811
343,533,0.496948,-0.144806,-0.00994864,0.0175267,-0.00371718,0.0180207,-0.0104427,-1.43867,0.0166263,0.0430856,1567,491,0.496976,0.144805
350,533,0.460327,-0.221039,-0.00768585,0.0130199,-0.00241191,0.0132971,-0.00796309,-1.45635,0.0124027,0.0414537,1574,491,0.460357,0.221032
357,533,-0.0152588,0.0610657,-0.00516145,0.00816046,-0.000979407,0.00823208,-0.00523306,-1.4978,0.00783811,0.033173,1581,491,-0.015311,-0.0610604
364,533,-0.00866699,0.0552979,-0.00334921,0.00419781,-9.40806e-05,0.00419899,-0.00335038,-1.55833,0.0043678,0.0231793,1588,491,-0.00867349,-0.055296
371,533,-0.0115967,0.0436401,-0.00252863,0.000893137,8.85414e-05,0.000895427,-0.00253092,1.54494,0.00205195,0.017035,1595,491,-0.0115931,-0.0436332
378,533,-0.0311279,0.0748901,-0.00164183,-0.00125741,0.000451522,-0.000958887,-0.00194035,0.986631,0.00112029,0.0129275,1602,491,-0.0310826,-0.0748757
385,533,-0.0170898,0.0763855,-0.000666362,-0.0027635,0.000851309,-0.000364292,-0.00306557,0.340971,0.00193375,0.014882,1609,491,-0.0170484,-0.0763734
392,533,-0.0512695,0.0937195,7.25874e-05,-0.00345728,0.00115816,0.000418655,-0.00380335,0.290363,0.00268602,0.0122789,1616,491,-0.0512814,-0.0937291
399,533,-0.0534668,0.06073,0.000514859,-0.00373871,0.00103252,0.000752248,-0.0039761,0.225984,0.00293381,0.011617,1623,491,-0.053422,-0.0607205
406,533,-0.0202637,0.0492249,0.00029263,-0.00330326,0.00070813,0.000427055,-0.00343768,0.187599,0.0024466,0.0135882,1630,491,-0.02027,-0.049213
413,533,-0.0393066,0.0671997,-0.000201086,-0.0026893,0.000826782,4.85843e-05,-0.00293897,0.293271,0.00197571,0.0114404,1637,491,-0.0392836,-0.0672053
420,533,-0.0554199,0.104553,-5.57097e-06,-0.00189641,0.000754109,0.000258347,-0.00216033,0.336651,0.00153361,0.0110046,1644,491,-0.0554069,-0.104544
427,533,-0.0268555,0.107788,0.000196477,-0.000932766,0.000391638,0.000319007,-0.0010553,0.303219,0.000830546,0.0115461,1651,491,-0.0268216,-0.107776
434,533,-0.0266113,0.0875549,0.000261463,-0.000536695,-0.000126224,0.000280949,-0.000556181,-0.153166,0.000491948,0.0118994,1658,491,-0.0265544,-0.0875481
441,533,-0.0220947,0.0799561,0.00014685,-0.00067988,-0.000786996,0.000622435,-0.00115547,-0.543579,0.00104174,0.0137981,1665,491,-0.0220682,-0.0799464
448,533,-0.0305176,0.0692444,-0.000173916,-0.00137,-0.00128836,0.000648438,-0.00219236,-0.568103,0.00171898,0.0141644,1672,491,-0.0305282,-0.0692456
455,533,-0.0465088,0.0716553,-0.000483305,-0.00160933,-0.00131712,0.00038609,-0.00247872,-0.583423,0.00179507,0.0139842,1679,491,-0.0465108,-0.071646
462,533,-0.086792,0.1091,-0.000642442,-0.00218509,-0.00176611,0.000513434,-0.00334096,-0.579514,0.0024167,0.0133593,1686,491,-0.0867587,-0.109099
469,533,-0.0782471,0.0788574,-0.000474227,-0.00294652,-0.0019984,0.000639447,-0.0040602,-0.508417,0.00294319,0.00918899,1693,491,-0.0782757,-0.0788498
476,533,-0.0422363,0.0590515,-8.97851e-05,-0.00376732,-0.00211599,0.000874743,-0.00473185,-0.427691,0.00348295,0.00934909,1700,491,-0.0422188,-0.0590378
483,533,-0.0300293,0.0830383,0.000539357,-0.0045455,-0.0021758,0.00134327,-0.00534942,-0.353924,0.00408827,0.0108406,1707,491,-0.0300372,-0.0830483
490,533,-0.0506592,0.111786,0.00127361,-0.00496198,-0.00224441,0.00199744,-0.0056858,-0.311969,0.00460315,0.0238276,1714,491,-0.0506571,-0.11178
497,533,-0.125244,0.0875854,0.00222312,-0.0048989,-0.0023391,0.00292265,-0.00559843,-0.290593,0.00499984,0.0388765,1721,491,-0.125281,-0.0875808
504,533,-0.175537,0.07547,0,0,0,0,0,0,0,-1,1728,491,-0.175534,-0.0754782
511,533,0.226685,-0.0220642,0.00534902,-0.00228117,-0.00178215,0.00574474,-0.0026769,-0.218505,0.00496861,0.0456355,1735,491,0.226707,0.0220791
518,533,-0.30188,0.0526733,0.00712091,0.000201363,-0.00153458,0.00744597,-0.000123698,-0.208739,0.00500572,0.0482893,1742,491,-0.301937,-0.052687
525,533,-0.0653076,0.0879211,0.00888456,0.00373728,-0.0012762,0.0091836,0.00343823,-0.230171,0.00535764,0.047114,1749,491,-0.065301,-0.0879265
532,533,0.191162,0.131714,0,0,0,0,0,0,0,-1,1756,491,0.191157,-0.131728
539,533,-0.171509,0.0720825,0.0125194,0.0152635,0.000710895,0.0154368,0.0123462,1.33178,0.00943131,0.0479316,1763,491,-0.171553,-0.0720808
546,533,-0.27771,0.206635,0.0140109,0.0244186,0.00239486,0.0249433,0.0134863,1.35514,0.0144169,0.0428932,1770,491,-0.277654,-0.20664
553,533,0,0,0,0,0,0,0,0,0,-1,1777,491,0,0
560,533,0,0,0,0,0,0,0,0,0,-1,1784,491,0,0
567,533,0,0,0,0,0,0,0,0,0,-1,1791,491,0,0
574,533,0,0,0,0,0,0,0,0,0,-1,1798,491,0,0
581,533,0,0,0,0,0,0,0,0,0,-1,1805,491,0,0
588,533,0,0,0,0,0,0,0,0,0,-1,1812,491,0,0
595,533,0,0,0,0,0,0,0,0,0,-1,1819,491,0,0
602,533,0,0,0,0,0,0,0,0,0,-1,1826,491,0,0
609,533,0,0,0,0,0,0,0,0,0,-1,1833,491,0,0
616,533,0,0,0,0,0,0,0,0,0,-1,1840,491,0,0
623,533,0,0,0,0,0,0,0,0,0,-1,1847,491,0,0
630,533,0,0,0,0,0,0,0,0,0,-1,1854,491,0,0
637,533,0,0,0,0,0,0,0,0,0,-1,1861,491,0,0
644,533,0,0,0,0,0,0,0,0,0,-1,1868,491,0,0
651,533,0,0,0,0,0,0,0,0,0,-1,1875,491,0,0
658,533,0,0,0,0,0,0,0,0,0,-1,1882,491,0,0
665,533,0,0,0,0,0,0,0,0,0,-1,1889,491,0,0
672,533,0,0,0,0,0,0,0,0,0,-1,1896,491,0,0
679,533,0,0,0,0,0,0,0,0,0,-1,1903,491,0,0
686,533,0,0,0,0,0,0,0,0,0,-1,1910,491,0,0
693,533,0,0,0,0,0,0,0,0,0,-1,1917,491,0,0
700,533,0,0,0,0,0,0,0,0,0,-1,1924,491,0,0
707,533,0,0,0,0,0,0,0,0,0,-1,1931,491,0,0
714,533,0,0,0,0,0,0,0,0,0,-1,1938,491,0,0
721,533,0,0,0,0,0,0,0,0,0,-1,1945,491,0,0
728,533,0,0,0,0,0,0,0,0,0,-1,1952,491,0,0
735,533,0,0,0,0,0,0,0,0,0,-1,1959,491,0,0
742,533,0,0,0,0,0,0,0,0,0,-1,1966,491,0,0
749,533,0,0,0,0,0,0,0,0,0,-1,1973,491,0,0
756,533,0,0,0,0,0,0,0,0,0,-1,1980,491,0,0
763,533,0,0,0,0,0,0,0,0,0,-1,1987,491,0,0
770,533,0,0,0,0,0,0,0,0,0,-1,1994,491,0,0
777,533,0,0,0,0,0,0,0,0,0,-1,2001,491,0,0
784,533,0,0,0,0,0,0,0,0,0,-1,2008,491,0,0
791,533,0,0,0,0,0,0,0,0,0,-1,2015,491,0,0
798,533,0,0,0,0,0,0,0,0,0,-1,2022,491,0,0
805,533,0,0,0,0,0,0,0,0,0,-1,2029,491,0,0
812,533,0,0,0,0,0,0,0,0,0,-1,2036,491,0,0
-700,526,0,0,0,0,0,0,0,0,0,-1,524,498,0,0
-693,526,0,0,0,0,0,0,0,0,0,-1,531,498,0,0
-686,526,0,0,0,0,0,0,0,0,0,-1,538,498,0,0
-679,526,0,0,0,0,0,0,0,0,0,-1,545,498,0,0
-672,526,0,0,0,0,0,0,0,0,0,-1,552,498,0,0
-665,526,0,0,0,0,0,0,0,0,0,-1,559,498,0,0
-658,526,0,0,0,0,0,0,0,0,0,-1,566,498,0,0
-651,526,0,0,0,0,0,0,0,0,0,-1,573,498,0,0
-644,526,0,0,0,0,0,0,0,0,0,-1,580,498,0,0
-637,526,0,0,0,0,0,0,0,0,0,-1,587,498,0,0
-630,526,0,0,0,0,0,0,0,0,0,-1,594,498,0,0
-623,526,0,0,0,0,0,0,0,0,0,-1,601,498,0,0
-616,526,0,0,0,0,0,0,0,0,0,-1,608,498,0,0
-609,526,0,0,0,0,0,0,0,0,0,-1,615,498,0,0
-602,526,0,0,0,0,0,0,0,0,0,-1,622,498,0,0
-595,526,0,0,0,0,0,0,0,0,0,-1,629,498,0,0
-588,526,0,0,0,0,0,0,0,0,0,-1,636,498,0,0
-581,526,0,0,0,0,0,0,0,0,0,-1,643,498,0,0
-574,526,0,0,0,0,0,0,0,0,0,-1,650,498,0,0
-567,526,0,0,0,0,0,0,0,0,0,-1,657,498,0,0
-560,526,0,0,0,0,0,0,0,0,0,-1,664,498,0,0
-553,526,0,0,0,0,0,0,0,0,0,-1,671,498,0,0
-546,526,0,0,0,0,0,0,0,0,0,-1,678,498,0,0
-539,526,0,0,0,0,0,0,0,0,0,-1,685,498,0,0
-532,526,0,0,0,0,0,0,0,0,0,-1,692,498,0,0
-525,526,0,0,0,0,0,0,0,0,0,-1,699,498,0,0
-518,526,0,0,0,0,0,0,0,0,0,-1,706,498,0,0
-511,526,0,0,0,0,0,0,0,0,0,-1,713,498,0,0
-504,526,0,0,0,0,0,0,0,0,0,-1,720,498,0,0
-497,526,0,0,0,0,0,0,0,0,0,-1,727,498,0,0
-490,526,0,0,0,0,0,0,0,0,0,-1,734,498,0,0
-483,526,0,0,0,0,0,0,0,0,0,-1,741,498,0,0
-476,526,0,0,0,0,0,0,0,0,0,-1,748,498,0,0
-469,526,0,0,0,0,0,0,0,0,0,-1,755,498,0,0
-462,526,0,0,0,0,0,0,0,0,0,-1,762,498,0,0
-455,526,0,0,0,0,0,0,0,0,0,-1,769,498,0,0
-448,526,0,0,0,0,0,0,0,0,0,-1,776,498,0,0
-441,526,0,0,0,0,0,0,0,0,0,-1,783,498,0,0
-434,526,-0.599854,6.46103,0.0410767,-0.0470368,0.0104246,0.0422932,-0.0482533,0.116173,0.0523148,0.0448425,790,498,-0.599865,-6.46103
-427,526,-0.906128,6.42203,0.0457376,-0.0266582,-0.00382073,0.0459387,-0.0268593,-0.0525809,0.0425084,0.043423,797,498,-0.906115,-6.42202
-420,526,-0.577393,7.37177,0,0,0,0,0,0,0,-1,804,498,-0.577402,-7.37176
-413,526,-0.260742,7.73849,0.0435547,0.000299794,-0.0183524,0.050292,-0.00643748,-0.351832,0.0358669,0.0472939,811,498,-0.260758,-7.7385
-406,526,0.202698,7.84952,0.0382581,0.00475219,-0.0209552,0.0483339,-0.0053236,-0.448191,0.0341358,0.0455955,818,498,0.202678,-7.84953
-399,526,0.188904,8.77502,0,0,0,0,0,0,0,-1,825,498,0.188897,-8.77502
-392,526,0.350525,0.495636,0.0204029,0.00826827,-0.017411,0.0327734,-0.0041023,-0.617741,0.0233369,0.0465485,832,498,0.350511,-0.495623
-385,526,0.227905,0.609894,0.0134245,0.00706809,-0.0155775,0.0261447,-0.00565212,-0.684766,0.0195876,0.0435356,839,498,0.227934,-0.609902
-378,526,0.0335083,0.246948,0.00807256,0.00571035,-0.0134618,0.020405,-0.00662206,-0.741641,0.0162664,0.038809,846,498,0.033489,-0.24696
-371,526,-0.0744019,0.0383301,0.00398943,0.00421281,-0.0115253,0.015627,-0.00742476,-0.790244,0.0135869,0.0291811,853,498,-0.0744008,-0.0383389
-364,526,-0.0553589,0.0675659,0.000828022,0.00235513,-0.00873996,0.0103648,-0.00718168,-0.828969,0.0101859,0.0150836,860,498,-0.0553539,-0.0675614
-357,526,-0.0391846,0.0875854,-0.00407885,-0.00585798,-0.00304936,-0.00179195,-0.00814488,-0.643476,0.00494211,0.010722,867,498,-0.0391881,-0.0875745
-350,526,-0.0304565,0.0977478,-0.00528037,-0.00282164,-0.00271739,-0.00106847,-0.00703355,-0.997824,0.00437657,0.010593,874,498,-0.0304573,-0.0977619
-343,526,-0.0305176,0.0861511,-0.00375785,-0.000870051,-0.00285272,0.000883371,-0.00551128,-1.01968,0.00400128,0.0140687,881,498,-0.030502,-0.086136
-336,526,-0.0421753,0.071167,-0.00230475,-0.000125419,-0.00254284,0.00155139,-0.00398157,-0.987824,0.00329557,0.0132928,888,498,-0.042184,-0.07117
-329,526,-0.0291748,0.0703125,-0.00132041,-0.000451798,-0.00191614,0.00107863,-0.00285084,-0.896844,0.00234433,0.0130772,895,498,-0.0292009,-0.0703264
-322,526,-0.0288696,0.0766296,-0.000232348,-9.26926e-05,-0.00109446,0.000934162,-0.0012592,-0.817256,0.00127097,0.00880651,902,498,-0.0288463,-0.076639
-315,526,-0.0435181,0.0722656,0.000433563,-0.00140326,-0.000682486,0.000659384,-0.00162908,-0.319541,0.00136021,0.00840788,909,498,-0.0435237,-0.0722663
-308,526,-0.0505981,0.0779114,0.000596327,-0.000284298,-0.000306524,0.000692514,-0.000380486,-0.304069,0.000628167,0.00819748,916,498,-0.0506198,-0.0779255
-301,526,-0.0452881,0.0970154,0.00198311,0.000135729,0.000412899,0.00207119,4.76432e-05,0.210183,0.00136519,0.00864953,923,498,-0.0452806,-0.0970216
-294,526,-0.0409546,0.0974731,0.00314062,0.000413005,0.000927474,0.00342611,0.000127516,0.298609,0.00224278,0.00857165,930,498,-0.0409603,-0.0974752
-287,526,-0.0335083,0.0952454,0.00359924,0.00044886,0.00112531,0.00395991,8.81905e-05,0.310162,0.00261104,0.00889234,937,498,-0.0334995,-0.0952552
-280,526,-0.0437622,0.101685,0.00402918,0.000197042,0.00174164,0.00470244,-0.000476223,0.368874,0.00330516,0.0111026,944,498,-0.0437912,-0.101671
-273,526,-0.0565796,0.0864258,0.0042458,0.000526813,0.00167087,0.00488621,-0.000113597,0.36601,0.00329599,0.00977072,951,498,-0.0565728,-0.0864181
-266,526,-0.0477295,0.077301,0.00428587,0.00108871,0.00151974,0.00489298,0.000481605,0.38006,0.00311389,0.00860999,958,498,-0.0477334,-0.0773096
-259,526,-0.0427856,0.086731,0.00310915,0.00199669,0.00084232,0.00356233,0.00154351,0.493586,0.0020628,0.0124834,965,498,-0.0427574,-0.086742
-252,526,-0.00463867,0.088623,0.000555293,0.00351947,-0.000494052,0.00359965,0.000475115,-1.40991,0.00225811,0.0222288,972,498,-0.00466303,-0.0886196
-245,526,0.0192261,0.0959167,-0.00327079,0.00561585,-0.00220926,0.00613478,-0.00378972,-1.34009,0.00578299,0.029069,979,498,0.0192238,-0.0959239
-238,526,-0.026123,0.141602,-0.00800491,0.0084199,-0.00383607,0.00927165,-0.00885667,-1.3523,0.0104673,0.0331812,986,498,-0.0261245,-0.141606
-231,526,-0.238647,0.141174,-0.0126336,0.0113808,-0.00548379,0.0125738,-0.0138266,-1.35659,0.015248,0.040438,993,498,-0.23865,-0.141174
-224,526,-0.481689,0.566742,-0.0167392,0.0140236,-0.00749095,0.0157507,-0.0184664,-1.34419,0.0197759,0.0456382,1000,498,-0.481664,-0.566752
-217,526,0.193298,0.310242,0,0,0,0,0,0,0,-1,1007,498,0.193297,-0.310249
-210,526,-0.003479,0.0408325,-0.0250188,0.0188765,-0.010439,0.0212326,-0.0273749,-1.34882,0.0281382,0.046841,1014,498,-0.00345528,-0.0408403
-203,526,-0.220032,-0.213409,-0.0261039,0.01986,-0.010627,0.0221981,-0.028442,-1.35423,0.0293111,0.0451959,1021,498,-0.220009,0.213408
-196,526,-0.548096,-1.06958,-0.0269464,0.0199447,-0.0106678,0.0222576,-0.0292593,-1.35729,0.0298347,0.0481143,1028,498,-0.548075,1.06957
-189,526,-0.250488,-1.78195,-0.0246024,0.0205284,-0.0088483,0.0222012,-0.0262752,-1.38395,0.0280207,0.0497234,1035,498,-0.250449,1.78196
-182,526,-2.26172,-2.35406,-0.0192316,0.0198326,-0.00588909,0.0207011,-0.0201001,-1.42438,0.0235574,0.0458227,1042,498,-2.26174,2.35407
-175,526,0.531494,0.087616,0,0,0,0,0,0,0,-1,1049,498,0.531551,-0.0876063
-168,526,-0.239868,-0.509155,0,0,0,0,0,0,0,-1,1056,498,-0.239824,0.509148
-161,526,0.0446777,-0.289581,0,0,0,0,0,0,0,-1,1063,498,0.0446188,0.289583
-154,526,0.259277,0.175385,0.00991069,0.0202701,0.0127565,0.0288584,0.00132239,0.978252,0.0188137,0.0417515,1070,498,0.259232,-0.175373
-147,526,0.398071,0.453674,0.0188993,0.0226779,0.0187432,0.0396268,0.00195041,0.835628,0.0257924,0.0435711,1077,498,0.398071,-0.453688
-140,526,1.06543,1.07013,0.0264441,0.0249573,0.0222971,0.0480102,0.0033912,0.768733,0.0309384,0.0492544,1084,498,1.06545,-1.07014
-133,526,-1.77405,-1.88287,0,0,0,0,0,0,0,-1,1091,498,-1.77404,1.88288
-126,526,-1.40332,-2.21426,0,0,0,0,0,0,0,-1,1098,498,-1.40327,2.21425
-119,526,-1.46826,-2.31094,0,0,0,0,0,0,0,-1,1105,498,-1.46828,2.31095
-112,526,-0.681274,0.372498,0,0,0,0,0,0,0,-1,1112,498,-0.681306,-0.372494
-105,526,0,0,0,0,0,0,0,0,0,-1,1119,498,0,0
-98,526,0,0,0,0,0,0,0,0,0,-1,1126,498,0,0
-91,526,0,0,0,0,0,0,0,0,0,-1,1133,498,0,0
-84,526,0,0,0,0,0,0,0,0,0,-1,1140,498,0,0
-77,526,0,0,0,0,0,0,0,0,0,-1,1147,498,0,0
-70,526,0,0,0,0,0,0,0,0,0,-1,1154,498,0,0
-63,526,0,0,0,0,0,0,0,0,0,-1,1161,498,0,0
-56,526,0,0,0,0,0,0,0,0,0,-1,1168,498,0,0
-49,526,0,0,0,0,0,0,0,0,0,-1,1175,498,0,0
-42,526,0,0,0,0,0,0,0,0,0,-1,1182,498,0,0
-35,526,0,0,0,0,0,0,0,0,0,-1,1189,498,0,0
-28,526,0,0,0,0,0,0,0,0,0,-1,1196,498,0,0
-21,526,0,0,0,0,0,0,0,0,0,-1,1203,498,0,0
-14,526,0,0,0,0,0,0,0,0,0,-1,1210,498,0,0
-7,526,0,0,0,0,0,0,0,0,0,-1,1217,498,0,0
0,526,0,0,0,0,0,0,0,0,0,-1,1224,498,0,0
7,526,0,0,0,0,0,0,0,0,0,-1,1231,498,0,0
14,526,0,0,0,0,0,0,0,0,0,-1,1238,498,0,0
21,526,0,0,0,0,0,0,0,0,0,-1,1245,498,0,0
28,526,0,0,0,0,0,0,0,0,0,-1,1252,498,0,0
35,526,0,0,0,0,0,0,0,0,0,-1,1259,498,0,0
42,526,0,0,0,0,0,0,0,0,0,-1,1266,498,0,0
49,526,0,0,0,0,0,0,0,0,0,-1,1273,498,0,0
56,526,0,0,0,0,0,0,0,0,0,-1,1280,498,0,0
63,526,0,0,0,0,0,0,0,0,0,-1,1287,498,0,0
70,526,0,0,0,0,0,0,0,0,0,-1,1294,498,0,0
77,526,0,0,0,0,0,0,0,0,0,-1,1301,498,0,0
84,526,0,0,0,0,0,0,0,0,0,-1,1308,498,0,0
91,526,0,0,0,0,0,0,0,0,0,-1,1315,498,0,0
98,526,0,0,0,0,0,0,0,0,0,-1,1322,498,0,0
105,526,0,0,0,0,0,0,0,0,0,-1,1329,498,0,0
112,526,0,0,0,0,0,0,0,0,0,-1,1336,498,0,0
119,526,0,0,0,0,0,0,0,0,0,-1,1343,498,0,0
126,526,0,0,0,0,0,0,0,0,0,-1,1350,498,0,0
133,526,0,0,0,0,0,0,0,0,0,-1,1357,498,0,0
140,526,0,0,0,0,0,0,0,0,0,-1,1364,498,0,0
147,526,0,0,0,0,0,0,0,0,0,-1,1371,498,0,0
154,526,0,0,0,0,0,0,0,0,0,-1,1378,498,0,0
161,526,0,0,0,0,0,0,0,0,0,-1,1385,498,0,0
168,526,0,0,0,0,0,0,0,0,0,-1,1392,498,0,0
175,526,0,0,0,0,0,0,0,0,0,-1,1399,498,0,0
182,526,0,0,0,0,0,0,0,0,0,-1,1406,498,0,0
189,526,0,0,0,0,0,0,0,0,0,-1,1413,498,0,0
196,526,0,0,0,0,0,0,0,0,0,-1,1420,498,0,0
203,526,0,0,0,0,0,0,0,0,0,-1,1427,498,0,0
210,526,0,0,0,0,0,0,0,0,0,-1,1434,498,0,0
217,526,0,0,0,0,0,0,0,0,0,-1,1441,498,0,0
224,526,0,0,0,0,0,0,0,0,0,-1,1448,498,0,0
231,526,-0.613892,0.453857,0,0,0,0,0,0,0,-1,1455,498,-0.61385,-0.453863
238,526,0.457153,0.0899048,0,0,0,0,0,0,0,-1,1462,498,0.457182,-0.0899107
245,526,2.77783,0.433014,0,0,0,0,0,0,0,-1,1469,498,2.77787,-0.433011
252,526,2.17932,0.158783,-0.0196917,0.0206645,0.0159561,0.0262109,-0.0252382,1.23625,0.0297059,0.0446535,1476,498,2.17931,-0.158775
259,526,1.74353,-0.389404,-0.0211432,0.0210498,0.0114807,0.0239713,-0.0240648,1.32161,0.0277337,0.0418941,1483,498,1.7435,0.389415
266,526,1.68359,-0.806244,-0.0222007,0.0218583,0.00774111,0.0231788,-0.0235213,1.40184,0.0269626,0.0457027,1490,498,1.68357,0.806253
273,526,1.38867,-0.44931,-0.0228169,0.0249119,0.00335835,0.0251471,-0.0230521,1.50089,0.0278366,0.0426987,1497,498,1.38863,0.449308
280,526,0.845459,-0.410278,-0.0238002,0.0299929,-0.00129184,0.0300239,-0.0238312,-1.5468,0.0311617,0.0405815,1504,498,0.845463,0.410291
287,526,-0.255737,0.289856,-0.0258933,0.0339434,-0.00552629,0.0344495,-0.0263995,-1.47947,0.0352335,0.0448251,1511,498,-0.255715,-0.289864
294,526,0.298462,0.240295,0,0,0,0,0,0,0,-1,1518,498,0.298498,-0.24028
301,526,0.231323,0.187744,-0.0268155,0.0392037,-0.00838257,0.0402514,-0.0278632,-1.44645,0.0395422,0.0426478,1525,498,0.231325,-0.187737
308,526,-0.962891,-0.799652,-0.02371,0.0390506,-0.00969398,0.0405139,-0.0251732,-1.42099,0.0382676,0.0454996,1532,498,-0.962863,0.79966
315,526,-0.656738,-0.541718,-0.0224581,0.0400666,-0.00943123,0.0414583,-0.0238497,-1.4243,0.0381597,0.0471533,1539,498,-0.656766,0.541725
322,526,0.604736,-0.272339,0,0,0,0,0,0,0,-1,1546,498,0.60479,0.272338
329,526,0.837646,-0.309357,-0.0182697,0.0335364,-0.00736084,0.0345619,-0.0192953,-1.43236,0.0315081,0.0446187,1553,498,0.837639,0.309359
336,526,0.591553,-0.567169,-0.0151035,0.0278344,-0.00599045,0.0286545,-0.0159236,-1.43474,0.0260847,0.0421391,1560,498,0.59161,0.567154
343,526,0.677002,-0.573273,-0.0120225,0.0210596,-0.0043032,0.0216102,-0.012573,-1.44354,0.0199643,0.0414178,1567,498,0.676972,0.57328
350,526,0.279419,0.312592,-0.00902182,0.0149365,-0.00256429,0.0152079,-0.00929321,-1.46536,0.0142824,0.042787,1574,498,0.279427,-0.312592
357,526,-0.010376,0.0439453,-0.00592319,0.00870053,-0.000775323,0.00874152,-0.00596418,-1.51798,0.00854066,0.0423356,1581,498,-0.0103473,-0.0439424
364,526,0.0518799,0.103455,-0.00357432,0.00366596,0.000355642,0.00368338,-0.00359175,1.52183,0.00420041,0.0399497,1588,498,0.0519208,-0.103468
371,526,0.039917,0.0618286,-0.00234584,-0.000467692,0.000628516,-0.00027677,-0.00253676,1.27589,0.00160688,0.0367941,1595,498,0.0398715,-0.0618134
378,526,-0.0283203,0.078064,-0.00113139,-0.00315626,0.000991388,-0.000726835,-0.00356082,0.387448,0.00217252,0.0302037,1602,498,-0.0283308,-0.0780689
385,526,-0.0203857,0.0729065,8.39873e-05,-0.00495067,0.00131949,0.000408842,-0.00527552,0.241396,0.00366091,0.0226943,1609,498,-0.0203826,-0.0728955
392,526,-0.0379639,0.0931396,0.00102207,-0.00568241,0.00154203,0.00135973,-0.00602007,0.215569,0.00453508,0.0144929,1616,498,-0.0379371,-0.0931412
399,526,-0.0373535,0.0664978,0.00156672,-0.00589865,0.00124529,0.00176897,-0.0061009,0.161004,0.0047676,0.0119696,1623,498,-0.0373122,-0.0665112
406,526,-0.0235596,0.0667419,0.00126238,-0.00522526,0.000719943,0.00134131,-0.00530419,0.109201,0.00405781,0.0114379,1630,498,-0.0236025,-0.066736
413,526,-0.0361328,0.0965271,0.000676377,-0.00429668,0.000796739,0.000800905,-0.00442121,0.155043,0.00324753,0.0112903,1637,498,-0.036168,-0.096536
420,526,-0.0559082,0.0960388,0.00102452,-0.00315043,0.000680643,0.00113268,-0.0032586,0.157595,0.00263248,0.0120455,1644,498,-0.0559116,-0.0960474
427,526,-0.036377,0.0885315,0.00137508,-0.00182997,0.000362758,0.00141562,-0.00187052,0.111307,0.0019033,0.0122972,1651,498,-0.0363581,-0.0885213
434,526,-0.027832,0.085968,0.00150455,-0.00111612,-3.87476e-05,0.00150513,-0.00111669,-0.0147811,0.00151923,0.0114382,1658,498,-0.0278015,-0.0859786
441,526,-0.0357666,0.0814514,0.00140112,-0.000923609,-0.00055893,0.00152852,-0.00105101,-0.224108,0.00149778,0.00983671,1665,498,-0.0357594,-0.0814659
448,526,-0.0397949,0.06604,0.000997426,-0.00120133,-0.000958477,0.00135658,-0.00156048,-0.358518,0.00168554,0.00911111,1672,498,-0.0398307,-0.0660411
455,526,-0.0579834,0.0559082,0.000586784,-0.00118795,-0.000965379,0.00101067,-0.00161183,-0.41374,0.0015273,0.012797,1679,498,-0.0579715,-0.0559029
462,526,-0.065918,0.0787048,0.000301963,-0.00149138,-0.00127189,0.000961479,-0.00215089,-0.478364,0.00184015,0.0106134,1686,498,-0.0659389,-0.0787088
469,526,-0.05896,0.0751038,0.000212918,-0.00189794,-0.00133512,0.000859392,-0.00254442,-0.450933,0.00204388,0.0076138,1693,498,-0.058899,-0.0751182
476,526,-0.0512695,0.0654297,0.000381021,-0.00237229,-0.00132726,0.000916641,-0.00290791,-0.383566,0.00230571,0.00869946,1700,498,-0.0512614,-0.065416
483,526,-0.0388184,0.0783081,0.000772837,-0.0028118,-0.00132994,0.00121237,-0.00325133,-0.319189,0.00266523,0.00926793,1707,498,-0.0387848,-0.0783174
490,526,-0.0335693,0.098053,0.00125328,-0.00297156,-0.00139877,0.00167442,-0.0033927,-0.29244,0.00298104,0.0127805,1714,498,-0.0335253,-0.0980644
497,526,-0.0427246,0.107483,0.00189434,-0.00276969,-0.00153952,0.00235668,-0.00323203,-0.291746,0.00323981,0.0192928,1721,498,-0.0426695,-0.10749
504,526,-0.0483398,0.112457,0.00287694,-0.00182623,-0.00147468,0.00330108,-0.00225036,-0.280054,0.00322421,0.0264302,1728,498,-0.0483807,-0.112466
511,526,0.0997314,0.00479126,0.00421358,-0.000522417,-0.001213,0.00450618,-0.000815019,-0.236699,0.00330942,0.0356114,1735,498,0.099709,-0.00477755
518,526,0.181763,-0.211578,0.00550464,0.00142915,-0.00109209,0.00577884,0.00115495,-0.245989,0.0035311,0.0406633,1742,498,0.181726,0.211584
525,526,-0.192627,0.13031,0.00671349,0.00416375,-0.00103205,0.00707887,0.00379837,-0.340264,0.00409063,0.0457014,1749,498,-0.192635,-0.130324
532,526,0.0969238,-0.0717468,0.00797659,0.00776263,-0.000721609,0.0085991,0.00714011,-0.71181,0.0053136,0.0470598,1756,498,0.0968927,0.0717343
539,526,0.138428,-0.189026,0.00940889,0.0128186,6.78945e-05,0.0128199,0.00940754,1.55089,0.00766661,0.0447457,1763,498,0.138395,0.189038
546,526,0.0803223,0.0563049,0.0107341,0.0192718,0.00118617,0.0194335,0.0105723,1.43528,0.0112344,0.0426449,1770,498,0.0803602,-0.0563176
553,526,0.250244,0.371552,0.0114722,0.0271626,0.00190617,0.0273908,0.011244,1.45162,0.0158983,0.0479575,1777,498,0.250192,-0.371541
560,526,0,0,0,0,0,0,0,0,0,-1,1784,498,0,0
567,526,0,0,0,0,0,0,0,0,0,-1,1791,498,0,0
574,526,0,0,0,0,0,0,0,0,0,-1,1798,498,0,0
581,526,0,0,0,0,0,0,0,0,0,-1,1805,498,0,0
588,526,0,0,0,0,0,0,0,0,0,-1,1812,498,0,0
595,526,0,0,0,0,0,0,0,0,0,-1,1819,498,0,0
602,526,0,0,0,0,0,0,0,0,0,-1,1826,498,0,0
609,526,0,0,0,0,0,0,0,0,0,-1,1833,498,0,0
616,526,0,0,0,0,0,0,0,0,0,-1,1840,498,0,0
623,526,0,0,0,0,0,0,0,0,0,-1,1847,498,0,0
630,526,0,0,0,0,0,0,0,0,0,-1,1854,498,0,0
637,526,0,0,0,0,0,0,0,0,0,-1,1861,498,0,0
644,526,0,0,0,0,0,0,0,0,0,-1,1868,498,0,0
651,526,0,0,0,0,0,0,0,0,0,-1,1875,498,0,0
658,526,0,0,0,0,0,0,0,0,0,-1,1882,498,0,0
665,526,0,0,0,0,0,0,0,0,0,-1,1889,498,0,0
672,526,0,0,0,0,0,0,0,0,0,-1,1896,498,0,0
679,526,0,0,0,0,0,0,0,0,0,-1,1903,498,0,0
686,526,0,0,0,0,0,0,0,0,0,-1,1910,498,0,0
693,526,0,0,0,0,0,0,0,0,0,-1,1917,498,0,0
700,526,0,0,0,0,0,0,0,0,0,-1,1924,498,0,0
707,526,0,0,0,0,0,0,0,0,0,-1,1931,498,0,0
714,526,0,0,0,0,0,0,0,0,0,-1,1938,498,0,0
721,526,0,0,0,0,0,0,0,0,0,-1,1945,498,0,0
728,526,0,0,0,0,0,0,0,0,0,-1,1952,498,0,0
735,526,0,0,0,0,0,0,0,0,0,-1,1959,498,0,0
742,526,0,0,0,0,0,0,0,0,0,-1,1966,498,0,0
749,526,0,0,0,0,0,0,0,0,0,-1,1973,498,0,0
756,526,0,0,0,0,0,0,0,0,0,-1,1980,498,0,0
763,526,0,0,0,0,0,0,0,0,0,-1,1987,498,0,0
770,526,0,0,0,0,0,0,0,0,0,-1,1994,498,0,0
777,526,0,0,0,0,0,0,0,0,0,-1,2001,498,0,0
784,526,0,0,0,0,0,0,0,0,0,-1,2008,498,0,0
791,526,0,0,0,0,0,0,0,0,0,-1,2015,498,0,0
798,526,0,0,0,0,0,0,0,0,0,-1,2022,498,0,0
805,526,0,0,0,0,0,0,0,0,0,-1,2029,498,0,0
812,526,0,0,0,0,0,0,0,0,0,-1,2036,498,0,0
-700,519,0,0,0,0,0,0,0,0,0,-1,524,505,0,0
-693,519,0,0,0,0,0,0,0,0,0,-1,531,505,0,0
-686,519,0,0,0,0,0,0,0,0,0,-1,538,505,0,0
-679,519,0,0,0,0,0,0,0,0,0,-1,545,505,0,0
-672,519,0,0,0,0,0,0,0,0,0,-1,552,505,0,0
-665,519,0,0,0,0,0,0,0,0,0,-1,559,505,0,0
-658,519,0,0,0,0,0,0,0,0,0,-1,566,505,0,0
-651,519,0,0,0,0,0,0,0,0,0,-1,573,505,0,0
-644,519,0,0,0,0,0,0,0,0,0,-1,580,505,0,0
-637,519,0,0,0,0,0,0,0,0,0,-1,587,505,0,0
-630,519,0,0,0,0,0,0,0,0,0,-1,594,505,0,0
-623,519,0,0,0,0,0,0,0,0,0,-1,601,505,0,0
-616,519,0,0,0,0,0,0,0,0,0,-1,608,505,0,0
-609,519,0,0,0,0,0,0,0,0,0,-1,615,505,0,0
-602,519,0,0,0,0,0,0,0,0,0,-1,622,505,0,0
-595,519,0,0,0,0,0,0,0,0,0,-1,629,505,0,0
-588,519,0,0,0,0,0,0,0,0,0,-1,636,505,0,0
-581,519,0,0,0,0,0,0,0,0,0,-1,643,505,0,0
-574,519,0,0,0,0,0,0,0,0,0,-1,650,505,0,0
-567,519,0,0,0,0,0,0,0,0,0,-1,657,505,0,0
-560,519,0,0,0,0,0,0,0,0,0,-1,664,505,0,0
-553,519,0,0,0,0,0,0,0,0,0,-1,671,505,0,0
-546,519,0,0,0,0,0,0,0,0,0,-1,678,505,0,0
-539,519,0,0,0,0,0,0,0,0,0,-1,685,505,0,0
-532,519,0,0,0,0,0,0,0,0,0,-1,692,505,0,0
-525,519,0,0,0,0,0,0,0,0,0,-1,699,505,0,0
-518,519,0,0,0,0,0,0,0,0,0,-1,706,505,0,0
-511,519,0,0,0,0,0,0,0,0,0,-1,713,505,0,0
-504,519,0,0,0,0,0,0,0,0,0,-1,720,505,0,0
-497,519,0,0,0,0,0,0,0,0,0,-1,727,505,0,0
-490,519,0,0,0,0,0,0,0,0,0,-1,734,505,0,0
-483,519,0,0,0,0,0,0,0,0,0,-1,741,505,0,0
-476,519,0,0,0,0,0,0,0,0,0,-1,748,505,0,0
-469,519,0,0,0,0,0,0,0,0,0,-1,755,505,0,0
-462,519,0,0,0,0,0,0,0,0,0,-1,762,505,0,0
-455,519,0,0,0,0,0,0,0,0,0,-1,769,505,0,0
-448,519,0,0,0,0,0,0,0,0,0,-1,776,505,0,0
-441,519,-1.37659,7.11926,0,0,0,0,0,0,0,-1,783,505,-1.3766,-7.11927
-434,519,-1.08466,6.85477,0,0,0,0,0,0,0,-1,790,505,-1.08465,-6.85478
-427,519,-1.62677,6.75778,0,0,0,0,0,0,0,-1,797,505,-1.62678,-6.75778
-420,519,-0.840027,8.63651,0,0,0,0,0,0,0,-1,804,505,-0.839997,-8.63651
-413,519,-0.776672,8.80957,0,0,0,0,0,0,0,-1,811,505,-0.776693,-8.80958
-406,519,-0.665222,8.79852,0,0,0,0,0,0,0,-1,818,505,-0.665222,-8.79853
-399,519,0.236328,0.0703125,0,0,0,0,0,0,0,-1,825,505,0.236317,-0.0703184
-392,519,0.178284,0.269928,0.0222905,0.0208865,-0.0196221,0.0412231,0.0019539,-0.767519,0.0268545,0.0459475,832,505,0.178264,-0.269933
-385,519,0.1026,0.393677,0.0152842,0.0173736,-0.0166877,0.0330493,-0.000391463,-0.816659,0.0221645,0.0372358,839,505,0.102574,-0.393688
-378,519,0.0120239,0.151703,0.00973379,0.0136533,-0.013743,0.0255756,-0.00218852,-0.856221,0.0178248,0.0266929,846,505,0.0120305,-0.151713
-371,519,-0.0466919,0.0836182,0.00543518,0.0101265,-0.0111249,0.0191503,-0.00358864,-0.889301,0.014116,0.0144015,853,505,-0.0466691,-0.0836167
-364,519,-0.0452271,0.0803528,0.00208208,0.00661129,-0.008047,0.0127063,-0.0040129,-0.922562,0.0100784,0.0082399,860,505,-0.0452351,-0.0803394
-357,519,-0.0290527,0.0832214,-0.00293609,-0.00311746,-0.00215672,-0.00086815,-0.00518541,-0.764387,0.00320697,0.00868735,867,505,-0.0290395,-0.0832125
-350,519,-0.0177612,0.0770569,-0.00440375,-0.0011466,-0.00169186,-0.000426851,-0.0051235,-1.16857,0.00328265,0.0112009,874,505,-0.0177473,-0.0770489
-343,519,-0.0248413,0.076416,-0.00326165,-2.65702e-05,-0.00184747,0.000811407,-0.00409963,-1.14497,0.00303987,0.0139948,881,505,-0.0248175,-0.0764031
-336,519,-0.0465088,0.0848083,-0.00216676,0.000230429,-0.00170185,0.0011134,-0.00304973,-1.0922,0.00248874,0.0124037,888,505,-0.0465268,-0.084808
-329,519,-0.0403442,0.0820313,-0.00139824,-0.000301321,-0.00131619,0.000576111,-0.00227568,-0.982809,0.00174122,0.0102828,895,505,-0.0403595,-0.0820273
-322,519,-0.0250854,0.0733948,-0.000475622,-0.000177343,-0.000747041,0.0004353,-0.00108827,-0.883923,0.000906159,0.00908899,902,505,-0.0250994,-0.0734003
-315,519,-0.0286865,0.0769653,0.000139439,-0.00139959,-0.000483576,0.000278769,-0.00153892,-0.280527,0.00113039,0.00811293,909,505,-0.0286866,-0.076968
-308,519,-0.0465088,0.0770569,0.000378401,-0.000347982,-0.000222658,0.000441219,-0.000410801,-0.274983,0.000492019,0.00708118,916,505,-0.0465102,-0.077056
-301,519,-0.0292969,0.074646,0.00225334,6.15286e-05,0.000480508,0.00235406,-3.91847e-05,0.206607,0.0015826,0.0106048,923,505,-0.0292937,-0.0746369
-294,519,-0.0305176,0.0874023,0.00384079,0.000571585,0.000998559,0.00412166,0.000290712,0.274194,0.00265618,0.0137058,930,505,-0.0305279,-0.0874054
-287,519,-0.0455933,0.0781555,0.00462579,0.000987793,0.00109654,0.00493074,0.000682842,0.271248,0.00308484,0.00977715,937,505,-0.0455738,-0.0781512
-280,519,-0.0564575,0.0721741,0.00552292,0.000977705,0.00173933,0.00611213,0.000388494,0.326625,0.00395163,0.0111211,944,505,-0.0564403,-0.0721876
-273,519,-0.0562744,0.0679932,0.00596635,0.00188729,0.00150444,0.00646119,0.00139245,0.317772,0.00392649,0.0128213,951,505,-0.0562697,-0.0679874
-266,519,0.00958252,0.0934448,0.00604881,0.00316817,0.00118682,0.00647478,0.0027422,0.344602,0.00375277,0.0149651,958,505,0.00959147,-0.0934373
-259,519,0.0175171,0.137329,0.00458788,0.00485161,0.000232058,0.00498665,0.00445284,1.04377,0.00316155,0.0289953,965,505,0.0174977,-0.137317
-252,519,0.098999,0.267853,0.0013312,0.00721084,-0.00148372,0.00756404,0.000977998,-1.3371,0.00475037,0.0392061,972,505,0.0990243,-0.267846
-245,519,0.0576172,0.391876,-0.00357547,0.0100903,-0.00365642,0.0110071,-0.00449228,-1.32512,0.00920831,0.0379824,979,505,0.0575959,-0.391888
-238,519,-0.0754395,0.647461,-0.00966804,0.0137719,-0.00580319,0.0151299,-0.0110261,-1.34091,0.015163,0.0385044,986,505,-0.0754628,-0.647473
-231,519,-0.450439,0.396698,-0.0158684,0.0175787,-0.00792974,0.0193634,-0.0176532,-1.34941,0.0213792,0.0443208,993,505,-0.450435,-0.3967
-224,519,-1.00317,0.754089,-0.0216614,0.020953,-0.0103743,0.0233444,-0.0240528,-1.34424,0.0273658,0.0472693,1000,505,-1.0032,-0.754089
-217,519,0.177429,-0.0275879,-0.0283228,0.0239824,-0.0126649,0.0268877,-0.0312281,-1.3453,0.0335843,0.0450936,1007,505,0.177455,0.0275899
-210,519,-0.157715,0.192413,-0.0334789,0.0265115,-0.0141677,0.0296892,-0.0366565,-1.35016,0.038375,0.0455704,1014,505,-0.157732,-0.192426
-203,519,-0.184204,-0.0932922,-0.0355787,0.027168,-0.0143727,0.0303035,-0.0387142,-1.356,0.0399459,0.0418367,1021,505,-0.184194,0.0933039
-196,519,-1.28784,-1.24686,-0.0373108,0.0266877,-0.0142769,0.0297282,-0.0403512,-1.36097,0.040615,0.044907,1028,505,-1.2878,1.24684
-189,519,-2.39136,-1.94598,-0.0346901,0.0261082,-0.0118941,0.0283523,-0.0369341,-1.38432,0.0378015,0.0476392,1035,505,-2.39136,1.94599
-182,519,-3.09106,-2.64011,-0.0281566,0.0238465,-0.00794461,0.0250331,-0.0293433,-1.42253,0.0314271,0.0445148,1042,505,-3.09107,2.64011
-175,519,0.0905762,-0.545593,-0.0200446,0.0232583,-0.00336996,0.023519,-0.0203053,-1.49359,0.0253247,0.0450349,1049,505,0.0906013,0.54558
-168,519,-0.185303,-0.602386,-0.0112868,0.0210568,0.00285317,0.0213065,-0.0115366,1.48348,0.0192396,0.0447405,1056,505,-0.185246,0.602399
-161,519,-0.158569,-0.272522,-0.000351617,0.0183444,0.00913415,0.0220661,-0.00407334,1.18388,0.0162397,0.0427503,1063,505,-0.158521,0.272509
-154,519,0.14978,0.174835,0.011539,0.0170432,0.0157685,0.030298,-0.00171573,0.871793,0.0207942,0.0458512,1070,505,0.149787,-0.174849
-147,519,0.545288,0.515472,0.0243308,0.0181492,0.0229363,0.0443836,-0.00190361,0.718423,0.0302436,0.0477492,1077,505,0.545258,-0.515474
-140,519,1.11682,0.875031,0.0351729,0.0198397,0.0271302,0.0556989,-0.000686364,0.647696,0.0373635,0.049526,1084,505,1.11682,-0.875018
-133,519,1.69031,1.21954,0,0,0,0,0,0,0,-1,1091,505,1.69027,-1.21954
-126,519,0,0,0,0,0,0,0,0,0,-1,1098,505,0,0
-119,519,0,0,0,0,0,0,0,0,0,-1,1105,505,0,0
-112,519,0,0,0,0,0,0,0,0,0,-1,1112,505,0,0
-105,519,0,0,0,0,0,0,0,0,0,-1,1119,505,0,0
-98,519,0,0,0,0,0,0,0,0,0,-1,1126,505,0,0
-91,519,0,0,0,0,0,0,0,0,0,-1,1133,505,0,0
-84,519,0,0,0,0,0,0,0,0,0,-1,1140,505,0,0
-77,519,0,0,0,0,0,0,0,0,0,-1,1147,505,0,0
-70,519,0,0,0,0,0,0,0,0,0,-1,1154,505,0,0
-63,519,0,0,0,0,0,0,0,0,0,-1,1161,505,0,0
-56,519,0,0,0,0,0,0,0,0,0,-1,1168,505,0,0
-49,519,0,0,0,0,0,0,0,0,0,-1,1175,505,0,0
-42,519,0,0,0,0,0,0,0,0,0,-1,1182,505,0,0
-35,519,0,0,0,0,0,0,0,0,0,-1,1189,505,0,0
-28,519,0,0,0,0,0,0,0,0,0,-1,1196,505,0,0
-21,519,0,0,0,0,0,0,0,0,0,-1,1203,505,0,0
-14,519,0,0,0,0,0,0,0,0,0,-1,1210,505,0,0
-7,519,0,0,0,0,0,0,0,0,0,-1,1217,505,0,0
0,519,0,0,0,0,0,0,0,0,0,-1,1224,505,0,0
7,519,0,0,0,0,0,0,0,0,0,-1,1231,505,0,0
14,519,0,0,0,0,0,0,0,0,0,-1,1238,505,0,0
21,519,0,0,0,0,0,0,0,0,0,-1,1245,505,0,0
28,519,0,0,0,0,0,0,0,0,0,-1,1252,505,0,0
35,519,0,0,0,0,0,0,0,0,0,-1,1259,505,0,0
42,519,0,0,0,0,0,0,0,0,0,-1,1266,505,0,0
49,519,0,0,0,0,0,0,0,0,0,-1,1273,505,0,0
56,519,0,0,0,0,0,0,0,0,0,-1,1280,505,0,0
63,519,0,0,0,0,0,0,0,0,0,-1,1287,505,0,0
70,519,0,0,0,0,0,0,0,0,0,-1,1294,505,0,0
77,519,0,0,0,0,0,0,0,0,0,-1,1301,505,0,0
84,519,0,0,0,0,0,0,0,0,0,-1,1308,505,0,0
91,519,0,0,0,0,0,0,0,0,0,-1,1315,505,0,0
98,519,0,0,0,0,0,0,0,0,0,-1,1322,505,0,0
105,519,0,0,0,0,0,0,0,0,0,-1,1329,505,0,0
112,519,0,0,0,0,0,0,0,0,0,-1,1336,505,0,0
119,519,0,0,0,0,0,0,0,0,0,-1,1343,505,0,0
126,519,0,0,0,0,0,0,0,0,0,-1,1350,505,0,0
133,519,0,0,0,0,0,0,0,0,0,-1,1357,505,0,0
140,519,0,0,0,0,0,0,0,0,0,-1,1364,505,0,0
147,519,0,0,0,0,0,0,0,0,0,-1,1371,505,0,0
154,519,0,0,0,0,0,0,0,0,0,-1,1378,505,0,0
161,519,0,0,0,0,0,0,0,0,0,-1,1385,505,0,0
168,519,0,0,0,0,0,0,0,0,0,-1,1392,505,0,0
175,519,0,0,0,0,0,0,0,0,0,-1,1399,505,0,0
182,519,0,0,0,0,0,0,0,0,0,-1,1406,505,0,0
189,519,0,0,0,0,0,0,0,0,0,-1,1413,505,0,0
196,519,0,0,0,0,0,0,0,0,0,-1,1420,505,0,0
203,519,0,0,0,0,0,0,0,0,0,-1,1427,505,0,0
210,519,0,0,0,0,0,0,0,0,0,-1,1434,505,0,0
217,519,0,0,0,0,0,0,0,0,0,-1,1441,505,0,0
224,519,0,0,0,0,0,0,0,0,0,-1,1448,505,0,0
231,519,0,0,0,0,0,0,0,0,0,-1,1455,505,0,0
238,519,0,0,0,0,0,0,0,0,0,-1,1462,505,0,0
245,519,0,0,0,0,0,0,0,0,0,-1,1469,505,0,0
252,519,-0.561279,0.60965,-0.018414,0.0222542,0.0363141,0.0435397,-0.0396994,1.04062,0.0480752,0.044484,1476,505,-0.561235,-0.609638
259,519,-0.393188,0.432404,-0.0204789,0.0241866,0.0268787,0.0367997,-0.0330921,1.13204,0.0403709,0.0403975,1483,505,-0.393142,-0.432414
266,519,-0.141724,0.0203552,-0.0226559,0.0268257,0.0183348,0.032879,-0.0287091,1.25191,0.035585,0.0398748,1490,505,-0.141667,-0.0203468
273,519,0.14917,-0.0866089,-0.0243646,0.032187,0.00994863,0.0338861,-0.0260637,1.40164,0.0347101,0.0432694,1497,505,0.149213,0.0866039
280,519,0.149048,-0.206573,-0.0268977,0.0392107,0.00210866,0.0392779,-0.0269649,1.53894,0.0384649,0.0437018,1504,505,0.149043,0.206576
287,519,0.329956,-0.292664,-0.0306533,0.043843,-0.0046434,0.0441313,-0.0309416,-1.50879,0.0435658,0.0439956,1511,505,0.329901,0.292664
294,519,0.321411,-0.614441,0,0,0,0,0,0,0,-1,1518,505,0.32137,0.614442
301,519,0.316772,-0.745453,-0.0324938,0.049497,-0.00972955,0.0506358,-0.0336325,-1.45429,0.0489813,0.0461813,1525,505,0.316742,0.745438
308,519,-0.0622559,-0.93811,-0.0288501,0.0490138,-0.0118474,0.0507765,-0.0306129,-1.42309,0.0474684,0.040808,1532,505,-0.0622659,0.938113
315,519,-0.57959,-1.10895,-0.0273915,0.0498593,-0.011829,0.05163,-0.0291622,-1.42221,0.0472428,0.0442695,1539,505,-0.579559,1.10895
322,519,0.469849,-0.0977173,0,0,0,0,0,0,0,-1,1546,505,0.469804,0.0977088
329,519,1.03308,-0.224609,0,0,0,0,0,0,0,-1,1553,505,1.0331,0.224599
336,519,0.788696,-0.904724,0,0,0,0,0,0,0,-1,1560,505,0.788728,0.904728
343,519,0.647095,-0.843567,-0.0137786,0.024746,-0.00507608,0.0254036,-0.0144362,-1.44196,0.0232902,0.0477401,1567,505,0.647112,0.84357
350,519,-0.329712,0.102661,-0.00985625,0.0167489,-0.00285241,0.0170512,-0.0101586,-1.46518,0.0158767,0.0472069,1574,505,-0.32967,-0.102654
357,519,-0.0238037,0.0282898,-0.0060827,0.00896176,-0.000686494,0.00899302,-0.00611396,-1.52529,0.00877466,0.0478978,1581,505,-0.0238113,-0.0282806
364,519,0.423218,0.0331116,-0.00312229,0.00274436,0.000655276,0.00281666,-0.00319459,1.46091,0.00347289,0.043713,1588,505,0.423259,-0.0331144
371,519,0.218506,0.270203,-0.00140634,-0.00226949,0.000999568,-0.000749161,-0.00292668,0.581606,0.00175551,0.0410031,1595,505,0.218479,-0.270216
378,519,0.168701,0.179382,0.000145801,-0.00551116,0.00134545,0.000449499,-0.00581485,0.222002,0.00403476,0.0364681,1602,505,0.168678,-0.179388
385,519,0.121826,0.0145264,0.00152278,-0.00750424,0.0015926,0.00179552,-0.00777697,0.169607,0.00587533,0.0343195,1609,505,0.121781,-0.0145268
392,519,-0.00622559,0.0476685,0.00255006,-0.00820557,0.00175266,0.00282846,-0.00848396,0.157525,0.00679785,0.0266054,1616,505,-0.00625412,-0.0476615
399,519,-0.0333252,0.0973206,0.00306446,-0.00824243,0.00127586,0.00320664,-0.00838461,0.11098,0.0069112,0.0187508,1623,505,-0.0333785,-0.0973318
406,519,-0.00793457,0.0838318,0.00252418,-0.00723419,0.00054771,0.00255483,-0.00726483,0.0558932,0.00588275,0.0154836,1630,505,-0.00790519,-0.0838257
413,519,-0.0168457,0.0791016,0.00171104,-0.00590177,0.000609394,0.00175951,-0.00595024,0.079375,0.00466527,0.0114382,1637,505,-0.016811,-0.0790893
420,519,-0.0483398,0.0726318,0.0020912,-0.00434355,0.0004805,0.00212688,-0.00437923,0.0741249,0.0038306,0.0135242,1644,505,-0.0483028,-0.0726465
427,519,-0.0411377,0.0726624,0.00243836,-0.00261809,0.000211961,0.00244723,-0.00262696,0.0418212,0.00293019,0.0127324,1651,505,-0.041171,-0.0726529
434,519,-0.0283203,0.082428,0.00246415,-0.00155579,-1.23693e-05,0.00246418,-0.00155583,-0.00307695,0.00234062,0.0116079,1658,505,-0.0282965,-0.0824241
441,519,-0.0394287,0.0823059,0.00227608,-0.00100329,-0.000376366,0.00231872,-0.00104593,-0.112813,0.00198837,0.0106897,1665,505,-0.0393993,-0.0823147
448,519,-0.0477295,0.0653381,0.00170119,-0.000911806,-0.000647345,0.00185277,-0.00106339,-0.230013,0.00170408,0.00853921,1672,505,-0.0477625,-0.0653326
455,519,-0.0557861,0.0568848,0.00111808,-0.000692696,-0.000600825,0.0012993,-0.000873917,-0.292942,0.00126269,0.0105945,1679,505,-0.0558169,-0.0568892
462,519,-0.0528564,0.0742188,0.000650429,-0.000792659,-0.000742714,0.00096438,-0.00110661,-0.399928,0.00119663,0.0106684,1686,505,-0.0529022,-0.0742043
469,519,-0.0396729,0.0824585,0.000291914,-0.000928575,-0.000613711,0.000547141,-0.0011838,-0.394115,0.00102164,0.0100709,1693,505,-0.0396991,-0.0824609
476,519,-0.0430908,0.0766296,0.000234035,-0.00115301,-0.000473444,0.000380228,-0.0012992,-0.299499,0.00101686,0.0113109,1700,505,-0.0430878,-0.0766144
483,519,-0.0495605,0.0810242,0.000413508,-0.00137021,-0.000411825,0.000504,-0.0014607,-0.216295,0.0011783,0.0124811,1707,505,-0.0495288,-0.0810288
490,519,-0.0461426,0.117004,0.00072534,-0.00139543,-0.000470169,0.000824901,-0.00149499,-0.208674,0.00135789,0.0109187,1714,505,-0.0461714,-0.117005
497,519,-0.043335,0.103455,0.0011983,-0.00112815,-0.000644117,0.00136473,-0.00129457,-0.252853,0.00153553,0.012409,1721,505,-0.0432876,-0.10344
504,519,-0.0471191,0.0934448,0.00194417,-0.000347053,-0.00066691,0.00212415,-0.000527034,-0.263593,0.0016206,0.0117759,1728,505,-0.0470758,-0.093434
511,519,-0.0112305,0.0751953,0.00301275,0.000633584,-0.000528756,0.00312497,0.000521364,-0.209131,0.0019331,0.0159458,1735,505,-0.0112063,-0.0752014
518,519,-0.0201416,0.0580444,0.00403994,0.00204982,-0.000553565,0.00418355,0.00190621,-0.253839,0.00241854,0.03087,1742,505,-0.0201419,-0.0580325
525,519,-0.103271,0.104309,0.00498722,0.00399622,-0.000690889,0.00534192,0.00364152,-0.474314,0.0031513,0.040131,1749,505,-0.103298,-0.104296
532,519,0.122559,-0.331604,0.00601976,0.00648054,-0.000686993,0.00697475,0.00552556,-0.947185,0.00424994,0.044062,1756,505,0.122593,0.331601
539,519,0.157471,-0.447906,0.0072979,0.00987801,-0.000270258,0.00990602,0.0072699,-1.46754,0.00592414,0.0434303,1763,505,0.157446,0.447898
546,519,0.341431,-0.30545,0.00858657,0.0141187,0.000410738,0.0141491,0.00855625,1.49709,0.00822848,0.0442679,1770,505,0.341396,0.305452
553,519,0.239624,-0.264526,0.00955505,0.0195902,0.000993588,0.0196877,0.00945762,1.47305,0.0113696,0.0472386,1777,505,0.239582,0.264512
560,519,0.44751,-0.0620728,0.0102138,0.0245463,0.00141862,0.0246854,0.0100747,1.47308,0.0143321,0.0494484,1784,505,0.447451,0.0620864
567,519,0,0,0,0,0,0,0,0,0,-1,1791,505,0,0
574,519,0,0,0,0,0,0,0,0,0,-1,1798,505,0,0
581,519,0,0,0,0,0,0,0,0,0,-1,1805,505,0,0
588,519,0,0,0,0,0,0,0,0,0,-1,1812,505,0,0
595,519,0,0,0,0,0,0,0,0,0,-1,1819,505,0,0
602,519,0,0,0,0,0,0,0,0,0,-1,1826,505,0,0
609,519,0,0,0,0,0,0,0,0,0,-1,1833,505,0,0
616,519,0,0,0,0,0,0,0,0,0,-1,1840,505,0,0
623,519,0,0,0,0,0,0,0,0,0,-1,1847,505,0,0
630,519,0,0,0,0,0,0,0,0,0,-1,1854,505,0,0
637,519,0,0,0,0,0,0,0,0,0,-1,1861,505,0,0
644,519,0,0,0,0,0,0,0,0,0,-1,1868,505,0,0
651,519,0,0,0,0,0,0,0,0,0,-1,1875,505,0,0
658,519,0,0,0,0,0,0,0,0,0,-1,1882,505,0,0
665,519,0,0,0,0,0,0,0,0,0,-1,1889,505,0,0
672,519,0,0,0,0,0,0,0,0,0,-1,1896,505,0,0
679,519,0,0,0,0,0,0,0,0,0,-1,1903,505,0,0
686,519,0,0,0,0,0,0,0,0,0,-1,1910,505,0,0
693,519,0,0,0,0,0,0,0,0,0,-1,1917,505,0,0
700,519,0,0,0,0,0,0,0,0,0,-1,1924,505,0,0
707,519,0,0,0,0,0,0,0,0,0,-1,1931,505,0,0
714,519,0,0,0,0,0,0,0,0,0,-1,1938,505,0,0
721,519,0,0,0,0,0,0,0,0,0,-1,1945,505,0,0
728,519,0,0,0,0,0,0,0,0,0,-1,1952,505,0,0
735,519,0,0,0,0,0,0,0,0,0,-1,1959,505,0,0
742,519,0,0,0,0,0,0,0,0,0,-1,1966,505,0,0
749,519,0,0,0,0,0,0,0,0,0,-1,1973,505,0,0
756,519,0,0,0,0,0,0,0,0,0,-1,1980,505,0,0
763,519,0,0,0,0,0,0,0,0,0,-1,1987,505,0,0
770,519,0,0,0,0,0,0,0,0,0,-1,1994,505,0,0
777,519,0,0,0,0,0,0,0,0,0,-1,2001,505,0,0
784,519,0,0,0,0,0,0,0,0,0,-1,2008,505,0,0
791,519,0,0,0,0,0,0,0,0,0,-1,2015,505,0,0
798,519,0,0,0,0,0,0,0,0,0,-1,2022,505,0,0
805,519,0,0,0,0,0,0,0,0,0,-1,2029,505,0,0
812,519,0,0,0,0,0,0,0,0,0,-1,2036,505,0,0
-700,512,0,0,0,0,0,0,0,0,0,-1,524,512,0,0
-693,512,0,0,0,0,0,0,0,0,0,-1,531,512,0,0
-686,512,0,0,0,0,0,0,0,0,0,-1,538,512,0,0
-679,512,0,0,0,0,0,0,0,0,0,-1,545,512,0,0
-672,512,0,0,0,0,0,0,0,0,0,-1,552,512,0,0
-665,512,0,0,0,0,0,0,0,0,0,-1,559,512,0,0
-658,512,0,0,0,0,0,0,0,0,0,-1,566,512,0,0
-651,512,0,0,0,0,0,0,0,0,0,-1,573,512,0,0
-644,512,0,0,0,0,0,0,0,0,0,-1,580,512,0,0
-637,512,0,0,0,0,0,0,0,0,0,-1,587,512,0,0
-630,512,0,0,0,0,0,0,0,0,0,-1,594,512,0,0
-623,512,0,0,0,0,0,0,0,0,0,-1,601,512,0,0
-616,512,0,0,0,0,0,0,0,0,0,-1,608,512,0,0
-609,512,0,0,0,0,0,0,0,0,0,-1,615,512,0,0
-602,512,0,0,0,0,0,0,0,0,0,-1,622,512,0,0
-595,512,0,0,0,0,0,0,0,0,0,-1,629,512,0,0
-588,512,0,0,0,0,0,0,0,0,0,-1,636,512,0,0
-581,512,0,0,0,0,0,0,0,0,0,-1,643,512,0,0
-574,512,0,0,0,0,0,0,0,0,0,-1,650,512,0,0
-567,512,0,0,0,0,0,0,0,0,0,-1,657,512,0,0
-560,512,0,0,0,0,0,0,0,0,0,-1,664,512,0,0
-553,512,0,0,0,0,0,0,0,0,0,-1,671,512,0,0
-546,512,0,0,0,0,0,0,0,0,0,-1,678,512,0,0
-539,512,0,0,0,0,0,0,0,0,0,-1,685,512,0,0
-532,512,0,0,0,0,0,0,0,0,0,-1,692,512,0,0
-525,512,0,0,0,0,0,0,0,0,0,-1,699,512,0,0
-518,512,0,0,0,0,0,0,0,0,0,-1,706,512,0,0
-511,512,0,0,0,0,0,0,0,0,0,-1,713,512,0,0
-504,512,0,0,0,0,0,0,0,0,0,-1,720,512,0,0
-497,512,0,0,0,0,0,0,0,0,0,-1,727,512,0,0
-490,512,0,0,0,0,0,0,0,0,0,-1,734,512,0,0
-483,512,0,0,0,0,0,0,0,0,0,-1,741,512,0,0
-476,512,0,0,0,0,0,0,0,0,0,-1,748,512,0,0
-469,512,0,0,0,0,0,0,0,0,0,-1,755,512,0,0
-462,512,0,0,0,0,0,0,0,0,0,-1,762,512,0,0
-455,512,0,0,0,0,0,0,0,0,0,-1,769,512,0,0
-448,512,-0.516541,-2.82288,0,0,0,0,0,0,0,-1,776,512,-0.516538,2.82289
-441,512,-1.3233,7.4603,0,0,0,0,0,0,0,-1,783,512,-1.32333,-7.46031
-434,512,-1.43201,7.19617,0,0,0,0,0,0,0,-1,790,512,-1.43202,-7.19616
-427,512,-0.251343,-0.508301,0,0,0,0,0,0,0,-1,797,512,-0.251368,0.508272
-420,512,-0.374695,0.159546,0,0,0,0,0,0,0,-1,804,512,-0.374689,-0.159549
-413,512,-1.42694,9.96567,0.0428203,0.0317258,-0.0276334,0.0654577,0.00908832,-0.686342,0.0409466,0.0466641,811,512,-1.42692,-9.96565
-406,512,-0.079834,0.367584,0.0384249,0.0318605,-0.0278039,0.0631396,0.00714575,-0.726645,0.0399249,0.0432006,818,512,-0.0798579,-0.367584
-399,512,0.132263,0.0888672,0.0303423,0.032427,-0.0243968,0.0558037,0.00696561,-0.806747,0.0351117,0.0426688,825,512,0.132249,-0.0888668
-392,512,0.0299072,0.0727844,0.022092,0.0275927,-0.0199269,0.0449582,0.00472651,-0.853976,0.0285274,0.0315145,832,512,0.0298959,-0.0727996
-385,512,-0.0183716,0.0851746,0.0155832,0.0229716,-0.0165364,0.0362214,0.00233339,-0.895291,0.0234086,0.015959,839,512,-0.0183444,-0.0851785
-378,512,-0.0286255,0.0857849,0.010331,0.0180737,-0.013233,0.02799,0.000414668,-0.927702,0.0185234,0.0127084,846,512,-0.028597,-0.0857706
-371,512,-0.0362549,0.0810242,0.00618914,0.0134891,-0.010317,0.0207827,-0.00110447,-0.955419,0.0142376,0.0100925,853,512,-0.0362582,-0.0810182
-364,512,-0.0294189,0.0848083,0.00293367,0.00915045,-0.00719738,0.013882,-0.00179786,-0.989239,0.00990846,0.00798178,860,512,-0.0293914,-0.0848003
-357,512,-0.020813,0.0791016,-0.00189016,-0.00113739,-0.00140466,-5.95551e-05,-0.00296799,-0.9163,0.00195911,0.00994562,867,512,-0.0208023,-0.0790977
-350,512,-0.0166016,0.0535583,-0.00347767,8.95488e-05,-0.000823927,0.000270658,-0.00365878,-1.35443,0.00253423,0.0111262,874,512,-0.0166072,-0.0535451
-343,512,-0.026123,0.0389099,-0.00266683,0.00065588,-0.000945079,0.000905879,-0.00291683,-1.31219,0.00230659,0.0112883,881,512,-0.0261409,-0.0388997
-336,512,-0.0390015,0.0580444,-0.00190247,0.000622883,-0.00090147,0.000911658,-0.00219124,-1.26079,0.00184154,0.0101547,888,512,-0.0390203,-0.0580572
-329,512,-0.0400391,0.0635986,-0.00134829,4.73907e-06,-0.000695839,0.000298722,-0.00164227,-1.17106,0.00120681,0.00984675,895,512,-0.0400652,-0.0636054
-322,512,-0.0267334,0.0631409,-0.000611462,-2.89452e-05,-0.000330655,0.000120437,-0.000760845,-1.14647,0.000551774,0.0089397,902,512,-0.0267354,-0.0631445
-315,512,-0.0205078,0.0731201,-9.0159e-05,-0.0010766,-0.000178102,-5.89878e-05,-0.00110777,-0.173264,0.000719659,0.00952289,909,512,-0.0205015,-0.0731078
-308,512,-0.0323486,0.0636597,0.000184568,-7.72371e-05,-9.85613e-06,0.000184939,-7.76077e-05,-0.0375759,0.000155746,0.00936816,916,512,-0.0323591,-0.0636493
-301,512,-0.0331421,0.0498047,0.00259893,0.000316986,0.000721469,0.0028079,0.000108019,0.281926,0.00183699,0.0130558,923,512,-0.0331499,-0.0498042
-294,512,-0.0422363,0.0640869,0.00469647,0.00110939,0.00126526,0.00509785,0.000708004,0.307189,0.00318887,0.0140066,930,512,-0.0422063,-0.0640947
-287,512,-0.0478516,0.0705261,0.00588231,0.00203864,0.00126844,0.00626317,0.00165778,0.291691,0.00374715,0.0145206,937,512,-0.047837,-0.0705356
-280,512,-0.0730591,0.0511169,0.00737952,0.00241302,0.00192807,0.00804015,0.00175239,0.330101,0.00488196,0.0142191,944,512,-0.0730516,-0.0511171
-273,512,-0.0313721,0.0650024,0.00806857,0.00410671,0.00142084,0.00852544,0.00364984,0.311107,0.00493909,0.0247468,951,512,-0.0313769,-0.0650128
-266,512,0.113953,0.116699,0.00819726,0.00640609,0.000850956,0.00853707,0.00606628,0.379927,0.0050725,0.0325087,958,512,0.113955,-0.116698
-259,512,0.174194,0.258972,0.00643793,0.00918968,-0.000489856,0.00927428,0.00635333,-1.39978,0.00547538,0.0401795,965,512,0.174204,-0.258979
-252,512,0.407288,0.259155,0.00238243,0.0126856,-0.00270086,0.0133506,0.00171736,-1.32936,0.00838679,0.0430288,972,512,0.407265,-0.259145
-245,512,0.215454,0.692932,-0.00372555,0.0166314,-0.00546452,0.0180055,-0.00509966,-1.32444,0.0140163,0.043357,979,512,0.215427,-0.692944
-238,512,-0.103882,1.18954,-0.0113343,0.0214629,-0.00830163,0.0234445,-0.0133158,-1.33648,0.0214904,0.0452508,986,512,-0.103868,-1.18955
-231,512,-1.21698,0.160797,-0.0194228,0.0263378,-0.0110757,0.0288776,-0.0219626,-1.34538,0.0294429,0.0425304,993,512,-1.21701,-0.160801
-224,512,-1.22614,0.770233,-0.0273457,0.0306433,-0.0140973,0.0338888,-0.0305912,-1.34452,0.0372437,0.0456575,1000,512,-1.22616,-0.770232
-217,512,-0.18158,0.0991821,-0.0363614,0.0342601,-0.0170138,0.0381453,-0.0402466,-1.34629,0.045265,0.0458278,1007,512,-0.181581,-0.0991887
-210,512,-0.410706,0.390961,-0.0436767,0.0370715,-0.0190334,0.041333,-0.0479382,-1.35053,0.0515877,0.0425017,1014,512,-0.410732,-0.39096
-203,512,0.0614624,0.330627,-0.0472544,0.0372922,-0.0193303,0.0415022,-0.0514643,-1.35635,0.0537768,0.0398324,1021,512,0.0614895,-0.330618
-196,512,-1.77466,-1.48376,-0.0502833,0.0360831,-0.0191283,0.04013,-0.0543302,-1.36231,0.0547417,0.0451489,1028,512,-1.77466,1.48375
-189,512,-2.96802,-2.42371,-0.047672,0.0339064,-0.0161551,0.0369891,-0.0507548,-1.38224,0.0508663,0.0452713,1035,512,-2.96799,2.4237
-182,512,0.352539,-0.343323,0,0,0,0,0,0,0,-1,1042,512,0.352526,0.34334
-175,512,0.347046,-0.371033,-0.0298443,0.0270645,-0.00512982,0.0275232,-0.030303,-1.48161,0.0333988,0.0445034,1049,512,0.347078,0.371041
-168,512,0.209839,-0.28241,-0.0181987,0.0221582,0.00291055,0.022367,-0.0184075,1.49917,0.0235782,0.0439807,1056,512,0.209806,0.282424
-161,512,0.0372314,-0.201599,-0.00336848,0.0162007,0.010669,0.0208924,-0.00806026,1.15649,0.0172544,0.042694,1063,512,0.037241,0.201569
-154,512,0.161987,0.110718,0.0129602,0.0121045,0.0187436,0.0312808,-0.00621609,0.773987,0.0232051,0.0454324,1070,512,0.162034,-0.110719
-147,512,0,0,0,0,0,0,0,0,0,-1,1077,512,0,0
-140,512,0,0,0,0,0,0,0,0,0,-1,1084,512,0,0
-133,512,0,0,0,0,0,0,0,0,0,-1,1091,512,0,0
-126,512,0,0,0,0,0,0,0,0,0,-1,1098,512,0,0
-119,512,0,0,0,0,0,0,0,0,0,-1,1105,512,0,0
-112,512,0,0,0,0,0,0,0,0,0,-1,1112,512,0,0
-105,512,0,0,0,0,0,0,0,0,0,-1,1119,512,0,0
-98,512,0,0,0,0,0,0,0,0,0,-1,1126,512,0,0
-91,512,0,0,0,0,0,0,0,0,0,-1,1133,512,0,0
-84,512,0,0,0,0,0,0,0,0,0,-1,1140,512,0,0
-77,512,0,0,0,0,0,0,0,0,0,-1,1147,512,0,0
-70,512,0,0,0,0,0,0,0,0,0,-1,1154,512,0,0
-63,512,0,0,0,0,0,0,0,0,0,-1,1161,512,0,0
-56,512,0,0,0,0,0,0,0,0,0,-1,1168,512,0,0
-49,512,0,0,0,0,0,0,0,0,0,-1,1175,512,0,0
-42,512,0,0,0,0,0,0,0,0,0,-1,1182,512,0,0
-35,512,0,0,0,0,0,0,0,0,0,-1,1189,512,0,0
-28,512,0,0,0,0,0,0,0,0,0,-1,1196,512,0,0
-21,512,0,0,0,0,0,0,0,0,0,-1,1203,512,0,0
-14,512,0,0,0,0,0,0,0,0,0,-1,1210,512,0,0
-7,512,0,0,0,0,0,0,0,0,0,-1,1217,512,0,0
0,512,0,0,0,0,0,0,0,0,0,-1,1224,512,0,0
7,512,0,0,0,0,0,0,0,0,0,-1,1231,512,0,0
14,512,0,0,0,0,0,0,0,0,0,-1,1238,512,0,0
21,512,0,0,0,0,0,0,0,0,0,-1,1245,512,0,0
28,512,0,0,0,0,0,0,0,0,0,-1,1252,512,0,0
35,512,0,0,0,0,0,0,0,0,0,-1,1259,512,0,0
42,512,0,0,0,0,0,0,0,0,0,-1,1266,512,0,0
49,512,0,0,0,0,0,0,0,0,0,-1,1273,512,0,0
56,512,0,0,0,0,0,0,0,0,0,-1,1280,512,0,0
63,512,0,0,0,0,0,0,0,0,0,-1,1287,512,0,0
70,512,0,0,0,0,0,0,0,0,0,-1,1294,512,0,0
77,512,0,0,0,0,0,0,0,0,0,-1,1301,512,0,0
84,512,0,0,0,0,0,0,0,0,0,-1,1308,512,0,0
91,512,0,0,0,0,0,0,0,0,0,-1,1315,512,0,0
98,512,0,0,0,0,0,0,0,0,0,-1,1322,512,0,0
105,512,0,0,0,0,0,0,0,0,0,-1,1329,512,0,0
112,512,0,0,0,0,0,0,0,0,0,-1,1336,512,0,0
119,512,0,0,0,0,0,0,0,0,0,-1,1343,512,0,0
126,512,0,0,0,0,0,0,0,0,0,-1,1350,512,0,0
133,512,0,0,0,0,0,0,0,0,0,-1,1357,512,0,0
140,512,0,0,0,0,0,0,0,0,0,-1,1364,512,0,0
147,512,0,0,0,0,0,0,0,0,0,-1,1371,512,0,0
154,512,0,0,0,0,0,0,0,0,0,-1,1378,512,0,0
161,512,0,0,0,0,0,0,0,0,0,-1,1385,512,0,0
168,512,0,0,0,0,0,0,0,0,0,-1,1392,512,0,0
175,512,0,0,0,0,0,0,0,0,0,-1,1399,512,0,0
182,512,0,0,0,0,0,0,0,0,0,-1,1406,512,0,0
189,512,0,0,0,0,0,0,0,0,0,-1,1413,512,0,0
196,512,0,0,0,0,0,0,0,0,0,-1,1420,512,0,0
203,512,0,0,0,0,0,0,0,0,0,-1,1427,512,0,0
210,512,0,0,0,0,0,0,0,0,0,-1,1434,512,0,0
217,512,0,0,0,0,0,0,0,0,0,-1,1441,512,0,0
224,512,0,0,0,0,0,0,0,0,0,-1,1448,512,0,0
231,512,0,0,0,0,0,0,0,0,0,-1,1455,512,0,0
238,512,0,0,0,0,0,0,0,0,0,-1,1462,512,0,0
245,512,0,0,0,0,0,0,0,0,0,-1,1469,512,0,0
252,512,0,0,0,0,0,0,0,0,0,-1,1476,512,0,0
259,512,0,0,0,0,0,0,0,0,0,-1,1483,512,0,0
266,512,0,0,0,0,0,0,0,0,0,-1,1490,512,0,0
273,512,0.535889,-0.802795,0,0,0,0,0,0,0,-1,1497,512,0.535932,0.802805
280,512,0.555542,-0.927063,-0.0289932,0.0510862,0.00637639,0.0515908,-0.0294978,1.49183,0.0473921,0.0429059,1504,512,0.555513,0.927035
287,512,0.875854,-0.81488,-0.0351443,0.0557597,-0.00358421,0.0559008,-0.0352854,-1.53145,0.053093,0.0431639,1511,512,0.875838,0.814888
294,512,0.75293,-1.14667,0,0,0,0,0,0,0,-1,1518,512,0.752988,1.14664
301,512,0.361694,-1.742,0,0,0,0,0,0,0,-1,1525,512,0.361663,1.74199
308,512,-0.0216064,-1.97205,0,0,0,0,0,0,0,-1,1532,512,-0.0215731,1.97203
315,512,-0.291016,-1.74268,0,0,0,0,0,0,0,-1,1539,512,-0.290977,1.74268
322,512,-0.854004,-1.74109,0,0,0,0,0,0,0,-1,1546,512,-0.853954,1.7411
329,512,-1.11707,-1.93091,0,0,0,0,0,0,0,-1,1553,512,-1.11706,1.93092
336,512,-3.10608,-2.21149,0,0,0,0,0,0,0,-1,1560,512,-3.10609,2.21146
343,512,-3.69458,-1.54395,0,0,0,0,0,0,0,-1,1567,512,-3.69458,1.54396
350,512,-0.264648,-0.185974,-0.0105919,0.0180679,-0.00295481,0.0183693,-0.0108934,-1.46912,0.0170776,0.0493107,1574,512,-0.264659,0.185971
357,512,0.226074,-0.361694,-0.00615421,0.00853422,-0.00034492,0.00854231,-0.0061623,-1.54733,0.0085267,0.0466751,1581,512,0.226058,0.361716
364,512,0.709106,0.59201,0,0,0,0,0,0,0,-1,1588,512,0.709144,-0.592011
371,512,0.653809,0.519348,-0.000367173,-0.00466142,0.00152357,0.000118457,-0.00514705,0.308565,0.00347153,0.0416195,1595,512,0.653824,-0.519349
378,512,0.526733,0.329529,0.00157055,-0.00838174,0.00175163,0.00186984,-0.00868103,0.16923,0.0065009,0.0402764,1602,512,0.526776,-0.329522
385,512,0.397827,0.0771484,0.00315896,-0.0104221,0.00177844,0.00338798,-0.0106512,0.128073,0.00845936,0.0412896,1609,512,0.397803,-0.0771555
392,512,0.288208,-0.142273,0,0,0,0,0,0,0,-1,1616,512,0.288152,0.142276
399,512,-0.0323486,0.0638428,0.00481615,-0.0106359,0.00100292,0.00488097,-0.0107007,0.0645445,0.00920287,0.0332476,1623,512,-0.0323615,-0.0638517
406,512,-0.00915527,0.0704956,0.00398582,-0.00917396,-5.07355e-06,0.00398582,-0.00917396,-0.000385535,0.00779214,0.0254101,1630,512,-0.00914302,-0.070503
413,512,-0.00610352,0.0732117,0.00293096,-0.00733331,-1.1451e-05,0.00293097,-0.00733332,-0.00111562,0.00610508,0.0193818,1637,512,-0.00614895,-0.0732212
420,512,-0.0239258,0.0493164,0.00334126,-0.00531144,-0.000189674,0.00334541,-0.0053156,-0.0219068,0.00504338,0.0154072,1644,512,-0.0239209,-0.0493051
427,512,-0.0327148,0.0489197,0.00365316,-0.00315408,-0.000462605,0.00368445,-0.00318537,-0.067544,0.00396978,0.0136339,1651,512,-0.0327341,-0.0489103
434,512,-0.0373535,0.0751038,0.00356384,-0.00177786,-0.000564885,0.00362292,-0.00183694,-0.104214,0.00320798,0.0104442,1658,512,-0.0373656,-0.0751063
441,512,-0.0454102,0.0786438,0.00323703,-0.00096529,-0.000784329,0.00337864,-0.00110691,-0.178633,0.00269817,0.0122758,1665,512,-0.0453916,-0.0786389
448,512,-0.0523682,0.0753479,0.00242907,-0.000632089,-0.000909943,0.00267913,-0.000882147,-0.268186,0.00214158,0.0084775,1672,512,-0.0524267,-0.0753582
455,512,-0.0429688,0.0740356,0.001631,-0.000329266,-0.000793462,0.00191192,-0.000610181,-0.340267,0.00151941,0.00798059,1679,512,-0.042958,-0.0740224
462,512,-0.0384521,0.0763855,0.000955719,-0.000355143,-0.000766821,0.00130905,-0.000708476,-0.431779,0.0011819,0.00913324,1686,512,-0.0383924,-0.076381
469,512,-0.0421143,0.0910034,0.000346878,-0.000368363,-0.000443203,0.000558749,-0.000580235,-0.445931,0.000657632,0.010508,1693,512,-0.0420715,-0.0910145
476,512,-0.0458984,0.0848999,7.91594e-05,-0.00046029,-0.000172496,0.000129601,-0.000510732,-0.284489,0.000390916,0.0126346,1700,512,-0.0458439,-0.0849088
483,512,-0.0466309,0.0876465,8.02963e-05,-0.00057223,-4.08638e-05,8.28454e-05,-0.000574779,-0.0622996,0.000413577,0.011501,1707,512,-0.0466293,-0.0876505
490,512,-0.0391846,0.113098,0.000294585,-0.000576547,-7.20232e-05,0.0003005,-0.000582461,-0.0819363,0.00051837,0.00929319,1714,512,-0.03924,-0.113092
497,512,-0.0268555,0.103241,0.000713675,-0.000310987,-0.000267143,0.00077914,-0.000376452,-0.240321,0.00068055,0.0104539,1721,512,-0.0268629,-0.10325
504,512,-0.0457764,0.105774,0.00133268,0.000265255,-0.000332449,0.00142776,0.000170182,-0.278543,0.000900488,0.0112663,1728,512,-0.0457556,-0.105772
511,512,-0.0413818,0.112518,0.00223373,0.000957099,-0.000278557,0.00229186,0.000898966,-0.205741,0.00133341,0.0122599,1735,512,-0.0414057,-0.112519
518,512,-0.0323486,0.122772,0.00308438,0.00191199,-0.000387067,0.00320065,0.00179572,-0.29179,0.00185248,0.0137144,1742,512,-0.0323137,-0.122761
525,512,-0.0386963,0.119781,0.00385421,0.00319281,-0.000623466,0.00422925,0.00281776,-0.541554,0.00248635,0.0309761,1749,512,-0.0386621,-0.119773
532,512,-0.0682373,-0.0354004,0.00472158,0.0047557,-0.000758104,0.00549694,0.00398034,-0.796646,0.00327819,0.0433705,1756,512,-0.0682778,0.0353814
539,512,-0.218262,-0.341797,0.00586625,0.00691055,-0.000554235,0.00714986,0.00562694,-1.1632,0.00434875,0.0443202,1763,512,-0.218266,0.34179
546,512,-0.095459,-0.419067,0.00715512,0.00964717,-0.000159903,0.00965739,0.0071449,-1.50698,0.00578557,0.043356,1770,512,-0.0954161,0.419048
553,512,0.057373,-0.539978,0.00841924,0.0133213,0.00021862,0.013331,0.00840951,1.52632,0.00778399,0.0459081,1777,512,0.0573495,0.539967
560,512,0.101074,-0.580933,0.0094598,0.0167518,0.000440798,0.0167783,0.00943325,1.51064,0.00971194,0.0480144,1784,512,0.101019,0.580934
567,512,0.151489,-0.612122,0,0,0,0,0,0,0,-1,1791,512,0.15155,0.612148
574,512,0,0,0,0,0,0,0,0,0,-1,1798,512,0,0
581,512,0,0,0,0,0,0,0,0,0,-1,1805,512,0,0
588,512,0,0,0,0,0,0,0,0,0,-1,1812,512,0,0
595,512,0,0,0,0,0,0,0,0,0,-1,1819,512,0,0
602,512,0,0,0,0,0,0,0,0,0,-1,1826,512,0,0
609,512,0,0,0,0,0,0,0,0,0,-1,1833,512,0,0
616,512,0,0,0,0,0,0,0,0,0,-1,1840,512,0,0
623,512,0,0,0,0,0,0,0,0,0,-1,1847,512,0,0
630,512,0,0,0,0,0,0,0,0,0,-1,1854,512,0,0
637,512,0,0,0,0,0,0,0,0,0,-1,1861,512,0,0
644,512,0,0,0,0,0,0,0,0,0,-1,1868,512,0,0
651,512,0,0,0,0,0,0,0,0,0,-1,1875,512,0,0
658,512,0,0,0,0,0,0,0,0,0,-1,1882,512,0,0
665,512,0,0,0,0,0,0,0,0,0,-1,1889,512,0,0
672,512,0,0,0,0,0,0,0,0,0,-1,1896,512,0,0
679,512,0,0,0,0,0,0,0,0,0,-1,1903,512,0,0
686,512,0,0,0,0,0,0,0,0,0,-1,1910,512,0,0
693,512,0,0,0,0,0,0,0,0,0,-1,1917,512,0,0
700,512,0,0,0,0,0,0,0,0,0,-1,1924,512,0,0
707,512,0,0,0,0,0,0,0,0,0,-1,1931,512,0,0
714,512,0,0,0,0,0,0,0,0,0,-1,1938,512,0,0
721,512,0,0,0,0,0,0,0,0,0,-1,1945,512,0,0
728,512,0,0,0,0,0,0,0,0,0,-1,1952,512,0,0
735,512,0,0,0,0,0,0,0,0,0,-1,1959,512,0,0
742,512,0,0,0,0,0,0,0,0,0,-1,1966,512,0,0
749,512,0,0,0,0,0,0,0,0,0,-1,1973,512,0,0
756,512,0,0,0,0,0,0,0,0,0,-1,1980,512,0,0
763,512,0,0,0,0,0,0,0,0,0,-1,1987,512,0,0
770,512,0,0,0,0,0,0,0,0,0,-1,1994,512,0,0
777,512,0,0,0,0,0,0,0,0,0,-1,2001,512,0,0
784,512,0,0,0,0,0,0,0,0,0,-1,2008,512,0,0
791,512,0,0,0,0,0,0,0,0,0,-1,2015,512,0,0
798,512,0,0,0,0,0,0,0,0,0,-1,2022,512,0,0
805,512,0,0,0,0,0,0,0,0,0,-1,2029,512,0,0
812,512,0,0,0,0,0,0,0,0,0,-1,2036,512,0,0
-700,505,0,0,0,0,0,0,0,0,0,-1,524,519,0,0
-693,505,0,0,0,0,0,0,0,0,0,-1,531,519,0,0
-686,505,0,0,0,0,0,0,0,0,0,-1,538,519,0,0
-679,505,0,0,0,0,0,0,0,0,0,-1,545,519,0,0
-672,505,0,0,0,0,0,0,0,0,0,-1,552,519,0,0
-665,505,0,0,0,0,0,0,0,0,0,-1,559,519,0,0
-658,505,0,0,0,0,0,0,0,0,0,-1,566,519,0,0
-651,505,0,0,0,0,0,0,0,0,0,-1,573,519,0,0
-644,505,0,0,0,0,0,0,0,0,0,-1,580,519,0,0
-637,505,0,0,0,0,0,0,0,0,0,-1,587,519,0,0
-630,505,0,0,0,0,0,0,0,0,0,-1,594,519,0,0
-623,505,0,0,0,0,0,0,0,0,0,-1,601,519,0,0
-616,505,0,0,0,0,0,0,0,0,0,-1,608,519,0,0
-609,505,0,0,0,0,0,0,0,0,0,-1,615,519,0,0
-602,505,0,0,0,0,0,0,0,0,0,-1,622,519,0,0
-595,505,0,0,0,0,0,0,0,0,0,-1,629,519,0,0
-588,505,0,0,0,0,0,0,0,0,0,-1,636,519,0,0
-581,505,0,0,0,0,0,0,0,0,0,-1,643,519,0,0
-574,505,0,0,0,0,0,0,0,0,0,-1,650,519,0,0
-567,505,0,0,0,0,0,0,0,0,0,-1,657,519,0,0
-560,505,0,0,0,0,0,0,0,0,0,-1,664,519,0,0
-553,505,0,0,0,0,0,0,0,0,0,-1,671,519,0,0
-546,505,0,0,0,0,0,0,0,0,0,-1,678,519,0,0
-539,505,0,0,0,0,0,0,0,0,0,-1,685,519,0,0
-532,505,0,0,0,0,0,0,0,0,0,-1,692,519,0,0
-525,505,0,0,0,0,0,0,0,0,0,-1,699,519,0,0
-518,505,0,0,0,0,0,0,0,0,0,-1,706,519,0,0
-511,505,0,0,0,0,0,0,0,0,0,-1,713,519,0,0
-504,505,0,0,0,0,0,0,0,0,0,-1,720,519,0,0
-497,505,0,0,0,0,0,0,0,0,0,-1,727,519,0,0
-490,505,0,0,0,0,0,0,0,0,0,-1,734,519,0,0
-483,505,0,0,0,0,0,0,0,0,0,-1,741,519,0,0
-476,505,0,0,0,0,0,0,0,0,0,-1,748,519,0,0
-469,505,0,0,0,0,0,0,0,0,0,-1,755,519,0,0
-462,505,0,0,0,0,0,0,0,0,0,-1,762,519,0,0
-455,505,-0.618835,-3.37042,0.0157063,-0.0133207,0.0277692,0.032526,-0.0301404,0.544597,0.0361892,0.0462995,769,519,-0.618834,3.37041
-448,505,-0.527466,-2.91736,0.0259809,-0.00285911,0.0123395,0.0305398,-0.00741804,0.353903,0.0232307,0.0445437,776,519,-0.527436,2.91737
-441,505,-0.354248,-2.2771,0.0328972,0.0077096,-0.000324248,0.0329014,0.00770543,-0.0128705,0.0198702,0.0468145,783,519,-0.354263,2.27709
-434,505,-0.338379,-1.31476,0.0379684,0.0186576,-0.0107668,0.042775,0.013851,-0.419883,0.0252021,0.0471014,790,519,-0.338386,1.31475
-427,505,-0.298645,-0.581665,0.0398211,0.0268256,-0.0192443,0.053635,0.0130117,-0.622585,0.032305,0.0474408,797,519,-0.298619,0.581685
-420,505,-0.292603,-0.135559,0.0397141,0.0336641,-0.0243152,0.0611917,0.0121865,-0.723512,0.0374001,0.0473962,804,519,-0.292617,0.135539
-413,505,-0.339722,0.0805054,0.0381641,0.0355659,-0.0267454,0.063642,0.0100881,-0.761131,0.0394971,0.0460936,811,519,-0.339731,-0.0805108
-406,505,-0.232849,0.236755,0.0346715,0.0349112,-0.0266029,0.0613945,0.00818821,-0.787651,0.0384917,0.0428187,818,519,-0.23286,-0.236768
-399,505,-0.0810547,0.145325,0.0276632,0.0347353,-0.0231038,0.0545721,0.00782648,-0.861334,0.0340735,0.0371859,825,519,-0.0810273,-0.14534
-392,505,-0.0252686,0.0568848,0.0204188,0.0296394,-0.0186315,0.0442225,0.00583571,-0.906685,0.0277418,0.0180535,832,519,-0.025267,-0.0568986
-385,505,-0.034668,0.0722656,0.0147387,0.0247925,-0.0152795,0.0358508,0.00368047,-0.944319,0.022773,0.00817313,839,519,-0.0346526,-0.0722496
-378,505,-0.039917,0.079895,0.0101304,0.0196259,-0.012011,0.0277935,0.00196281,-0.973616,0.0179106,0.00961882,846,519,-0.039906,-0.0799187
-371,505,-0.0169678,0.0725098,0.00647453,0.0147878,-0.00909118,0.0206275,0.000634799,-0.999817,0.013545,0.0119907,853,519,-0.016954,-0.0725194
-364,505,-0.00476074,0.0827026,0.00357597,0.0102794,-0.00611333,0.0138995,-4.41703e-05,-1.03615,0.00928112,0.0130891,860,519,-0.00477392,-0.0826972
-357,505,-0.0322876,0.0984497,-0.000752809,0.000263393,-0.000666267,0.000593193,-0.00108261,-1.11116,0.000981182,0.0113794,867,519,-0.0322703,-0.0984744
-350,505,-0.0391235,0.085144,-0.00227202,0.00100688,3.12909e-05,0.00100718,-0.00227232,1.56125,0.00193981,0.0109398,874,519,-0.0391509,-0.0851305
-343,505,-0.0352173,0.0585327,-0.00168047,0.00123697,1.39098e-05,0.00123704,-0.00168053,1.56603,0.00169094,0.00855702,881,519,-0.0352032,-0.058506
-336,505,-0.0325928,0.0621948,-0.00116625,0.00108294,2.9159e-05,0.00108331,-0.00116663,1.55783,0.0012993,0.00958792,888,519,-0.0325669,-0.0621961
-329,505,-0.0402222,0.0678711,-0.000784361,0.000489762,0.000107964,0.000498846,-0.000793445,1.48686,0.000752539,0.01139,895,519,-0.040226,-0.0678451
-322,505,-0.0415039,0.0669556,-0.000221867,0.00038666,0.000291764,0.000503944,-0.000339151,1.18858,0.000489851,0.0120967,902,519,-0.0415154,-0.066986
-315,505,-0.034729,0.0674438,0.000184136,-0.000408879,0.000327242,0.000329221,-0.000553964,0.417316,0.000515381,0.0116519,909,519,-0.0347375,-0.0674387
-308,505,-0.0300293,0.055603,0.000446066,0.0005912,0.000374561,0.000900159,0.000137107,0.881082,0.000560026,0.010901,916,519,-0.0300558,-0.055586
-301,505,-0.0462036,0.0498047,0.0033795,0.000978166,0.00109925,0.0038067,0.000550969,0.370664,0.00237554,0.0126049,923,519,-0.0462046,-0.0498243
-294,505,-0.0591431,0.0527954,0.00596931,0.00214972,0.00162176,0.00656499,0.00155404,0.352008,0.00396159,0.014846,930,519,-0.0591583,-0.0528196
-287,505,-0.0983276,0.0342407,0.00755031,0.00374558,0.00144325,0.00803583,0.00326007,0.324511,0.00466691,0.0202046,937,519,-0.0983328,-0.0342522
-280,505,-0.115845,0.0327759,0.00972032,0.00467321,0.00204404,0.0104443,0.00394924,0.3404,0.00608944,0.0314569,944,519,-0.115866,-0.0327826
-273,505,-0.0507202,0.13446,0.0106049,0.00733914,0.00113641,0.0109614,0.00698262,0.304002,0.00640731,0.0358201,951,519,-0.0507332,-0.134489
-266,505,-0.0228882,0.14563,0.0106518,0.0108885,0.000147298,0.0109591,0.0105812,1.12391,0.00718341,0.0404288,958,519,-0.0229097,-0.145656
-259,505,0.0166016,0.326294,0.00852836,0.0150958,-0.00168223,0.0155017,0.00812254,-1.33408,0.00895331,0.044663,965,519,0.016631,-0.32628
-252,505,0.83551,1.12579,0,0,0,0,0,0,0,-1,972,519,0.83554,-1.12577
-245,505,0.572693,1.34082,0,0,0,0,0,0,0,-1,979,519,0.572678,-1.34079
-238,505,0.309814,1.55579,0,0,0,0,0,0,0,-1,986,519,0.309816,-1.55581
-231,505,-1.28949,0.994019,-0.0232372,0.0379672,-0.015128,0.0415023,-0.0267722,-1.34124,0.0397229,0.0487306,993,519,-1.28951,-0.993989
-224,505,-1.3479,0.899109,-0.0337365,0.0435326,-0.0188451,0.0478837,-0.0380876,-1.34389,0.0497429,0.0475265,1000,519,-1.34789,-0.899112
-217,505,1.02032,1.10468,0,0,0,0,0,0,0,-1,1007,519,1.0203,-1.10465
-210,505,-0.0973511,0.196045,-0.055752,0.0512958,-0.02525,0.0569528,-0.061409,-1.3504,0.0683523,0.0475467,1014,519,-0.0973292,-0.19603
-203,505,-1.11957,-0.923584,-0.0613978,0.0510427,-0.0257554,0.0566614,-0.0670165,-1.356,0.0714889,0.0455686,1021,519,-1.1196,0.923584
-196,505,-2.24133,-1.74341,-0.0661852,0.0490051,-0.0254873,0.0543925,-0.0715726,-1.36249,0.0729511,0.04842,1028,519,-2.24132,1.74341
-189,505,-3.35889,-2.55481,0,0,0,0,0,0,0,-1,1035,519,-3.35889,2.55479
-182,505,0.353027,-0.119934,0,0,0,0,0,0,0,-1,1042,519,0.352992,0.11996
-175,505,0.349731,-0.153564,0,0,0,0,0,0,0,-1,1049,519,0.34977,0.153546
-168,505,0,0,0,0,0,0,0,0,0,-1,1056,519,0,0
-161,505,0,0,0,0,0,0,0,0,0,-1,1063,519,0,0
-154,505,0,0,0,0,0,0,0,0,0,-1,1070,519,0,0
-147,505,0,0,0,0,0,0,0,0,0,-1,1077,519,0,0
-140,505,0,0,0,0,0,0,0,0,0,-1,1084,519,0,0
-133,505,0,0,0,0,0,0,0,0,0,-1,1091,519,0,0
-126,505,0,0,0,0,0,0,0,0,0,-1,1098,519,0,0
-119,505,0,0,0,0,0,0,0,0,0,-1,1105,519,0,0
-112,505,0,0,0,0,0,0,0,0,0,-1,1112,519,0,0
-105,505,0,0,0,0,0,0,0,0,0,-1,1119,519,0,0
-98,505,0,0,0,0,0,0,0,0,0,-1,1126,519,0,0
-91,505,0,0,0,0,0,0,0,0,0,-1,1133,519,0,0
-84,505,0,0,0,0,0,0,0,0,0,-1,1140,519,0,0
-77,505,0,0,0,0,0,0,0,0,0,-1,1147,519,0,0
-70,505,0,0,0,0,0,0,0,0,0,-1,1154,519,0,0
-63,505,0,0,0,0,0,0,0,0,0,-1,1161,519,0,0
-56,505,0,0,0,0,0,0,0,0,0,-1,1168,519,0,0
-49,505,0,0,0,0,0,0,0,0,0,-1,1175,519,0,0
-42,505,0,0,0,0,0,0,0,0,0,-1,1182,519,0,0
-35,505,0,0,0,0,0,0,0,0,0,-1,1189,519,0,0
-28,505,0,0,0,0,0,0,0,0,0,-1,1196,519,0,0
-21,505,0,0,0,0,0,0,0,0,0,-1,1203,519,0,0
-14,505,0,0,0,0,0,0,0,0,0,-1,1210,519,0,0
-7,505,0,0,0,0,0,0,0,0,0,-1,1217,519,0,0
0,505,0,0,0,0,0,0,0,0,0,-1,1224,519,0,0
7,505,0,0,0,0,0,0,0,0,0,-1,1231,519,0,0
14,505,0,0,0,0,0,0,0,0,0,-1,1238,519,0,0
21,505,0,0,0,0,0,0,0,0,0,-1,1245,519,0,0
28,505,0,0,0,0,0,0,0,0,0,-1,1252,519,0,0
35,505,0,0,0,0,0,0,0,0,0,-1,1259,519,0,0
42,505,0,0,0,0,0,0,0,0,0,-1,1266,519,0,0
49,505,0,0,0,0,0,0,0,0,0,-1,1273,519,0,0
56,505,0,0,0,0,0,0,0,0,0,-1,1280,519,0,0
63,505,0,0,0,0,0,0,0,0,0,-1,1287,519,0,0
70,505,0,0,0,0,0,0,0,0,0,-1,1294,519,0,0
77,505,0,0,0,0,0,0,0,0,0,-1,1301,519,0,0
84,505,0,0,0,0,0,0,0,0,0,-1,1308,519,0,0
91,505,0,0,0,0,0,0,0,0,0,-1,1315,519,0,0
98,505,0,0,0,0,0,0,0,0,0,-1,1322,519,0,0
105,505,0,0,0,0,0,0,0,0,0,-1,1329,519,0,0
112,505,0,0,0,0,0,0,0,0,0,-1,1336,519,0,0
119,505,0,0,0,0,0,0,0,0,0,-1,1343,519,0,0
126,505,0,0,0,0,0,0,0,0,0,-1,1350,519,0,0
133,505,0,0,0,0,0,0,0,0,0,-1,1357,519,0,0
140,505,0,0,0,0,0,0,0,0,0,-1,1364,519,0,0
147,505,0,0,0,0,0,0,0,0,0,-1,1371,519,0,0
154,505,0,0,0,0,0,0,0,0,0,-1,1378,519,0,0
161,505,0,0,0,0,0,0,0,0,0,-1,1385,519,0,0
168,505,0,0,0,0,0,0,0,0,0,-1,1392,519,0,0
175,505,0,0,0,0,0,0,0,0,0,-1,1399,519,0,0
182,505,0,0,0,0,0,0,0,0,0,-1,1406,519,0,0
189,505,0,0,0,0,0,0,0,0,0,-1,1413,519,0,0
196,505,0,0,0,0,0,0,0,0,0,-1,1420,519,0,0
203,505,0,0,0,0,0,0,0,0,0,-1,1427,519,0,0
210,505,0,0,0,0,0,0,0,0,0,-1,1434,519,0,0
217,505,0,0,0,0,0,0,0,0,0,-1,1441,519,0,0
224,505,0,0,0,0,0,0,0,0,0,-1,1448,519,0,0
231,505,0,0,0,0,0,0,0,0,0,-1,1455,519,0,0
238,505,0,0,0,0,0,0,0,0,0,-1,1462,519,0,0
245,505,0,0,0,0,0,0,0,0,0,-1,1469,519,0,0
252,505,0,0,0,0,0,0,0,0,0,-1,1476,519,0,0
259,505,0,0,0,0,0,0,0,0,0,-1,1483,519,0,0
266,505,0,0,0,0,0,0,0,0,0,-1,1490,519,0,0
273,505,0,0,0,0,0,0,0,0,0,-1,1497,519,0,0
280,505,0,0,0,0,0,0,0,0,0,-1,1504,519,0,0
287,505,1.46533,-1.22882,0,0,0,0,0,0,0,-1,1511,519,1.46529,1.22885
294,505,0.640869,-0.835083,0,0,0,0,0,0,0,-1,1518,519,0.640875,0.835056
301,505,0.558716,-1.36743,0,0,0,0,0,0,0,-1,1525,519,0.558708,1.36741
308,505,0.517822,-2.00464,-0.0397423,0.0719914,-0.0180257,0.0748274,-0.0425784,-1.41474,0.0686313,0.0421713,1532,519,0.517873,2.00463
315,505,0.252563,-2.26581,-0.0379809,0.0719081,-0.0183859,0.0749027,-0.0409755,-1.40934,0.0678514,0.0412192,1539,519,0.252517,2.26581
322,505,-0.31665,-2.27948,-0.0341179,0.0641318,-0.0162893,0.0667621,-0.0367482,-1.41071,0.0605933,0.0418946,1546,519,-0.31663,2.27945
329,505,-0.776611,-2.20593,-0.0282058,0.0546162,-0.0138727,0.0568781,-0.0304677,-1.40917,0.0511918,0.0446529,1553,519,-0.77657,2.20594
336,505,-2.1759,-2.43237,-0.0228083,0.0436658,-0.0104266,0.0452628,-0.0244053,-1.41881,0.0408194,0.046615,1560,519,-2.17592,2.4324
343,505,-2.74329,-1.75891,0,0,0,0,0,0,0,-1,1567,519,-2.74327,1.7589
350,505,-0.357788,-0.339417,-0.0105187,0.0191892,-0.00332193,0.0195561,-0.0108856,-1.46079,0.0178116,0.0474811,1574,519,-0.357749,0.339395
357,505,-0.00671387,-0.660828,-0.00538019,0.00818587,-0.000402285,0.00819779,-0.00539211,-1.54118,0.00790168,0.0419664,1581,519,-0.00673695,0.660809
364,505,0.42041,-0.9776,0,0,0,0,0,0,0,-1,1588,519,0.42047,0.977609
371,505,0.912354,0.614563,0,0,0,0,0,0,0,-1,1595,519,0.91238,-0.614546
378,505,0.503418,0.373901,0.00373021,-0.0100544,0.00153176,0.00389837,-0.0102226,0.109344,0.00842088,0.0410764,1602,519,0.503451,-0.373931
385,505,0.183838,-0.0866089,0.00542364,-0.0120643,0.00135397,0.00552785,-0.0121685,0.0768134,0.010454,0.0426356,1609,519,0.183876,0.0866283
392,505,-0.188354,-0.57605,0,0,0,0,0,0,0,-1,1616,519,-0.188404,0.576052
399,505,-0.215332,-0.177429,0.00700697,-0.0118196,0.000295422,0.0070116,-0.0118243,0.0156866,0.0109926,0.0428774,1623,519,-0.215334,0.177401
406,505,-0.0194092,0.0581665,0.00580145,-0.0100691,-0.000852847,0.00584715,-0.0101148,-0.0535324,0.00932476,0.038978,1630,519,-0.0193687,-0.058145
413,505,-0.0461426,0.141663,0.00446816,-0.007918,-0.000860038,0.00452759,-0.00797743,-0.0689942,0.00731078,0.0331296,1637,519,-0.0460935,-0.141643
420,505,0.000732422,0.0546875,0.00478839,-0.00566579,-0.00102243,0.00488745,-0.00576485,-0.0965819,0.00615706,0.0241358,1644,519,0.000698348,-0.0546835
427,505,-0.0318604,0.0427856,0.00495256,-0.00330185,-0.00126481,0.00514202,-0.00349131,-0.148685,0.00501473,0.0127935,1651,519,-0.0318213,-0.0427793
434,505,-0.0444336,0.0668945,0.00463673,-0.00180759,-0.00123398,0.00486493,-0.00203579,-0.182869,0.00409422,0.00894146,1658,519,-0.0444406,-0.0668664
441,505,-0.0435791,0.0950317,0.00407251,-0.000902786,-0.0013194,0.00440075,-0.00123102,-0.243828,0.00341887,0.009261,1665,519,-0.0436116,-0.0950604
448,505,-0.039917,0.0993042,0.00292522,-0.000398,-0.0013228,0.00338747,-0.000860242,-0.336178,0.00259307,0.00896124,1672,519,-0.0398781,-0.0992802
455,505,-0.0303955,0.0928955,0.00182224,-3.98035e-05,-0.00123471,0.00243761,-0.000655166,-0.462356,0.00188187,0.00916338,1679,519,-0.0303742,-0.0929199
462,505,-0.0599365,0.0894775,0.000906082,3.56763e-05,-0.00114431,0.00169516,-0.000753399,-0.603686,0.00144811,0.0101421,1686,519,-0.0598945,-0.0894921
469,505,-0.0743408,0.0849609,3.8e-05,0.000142056,-0.000752111,0.000843937,-0.000663881,-0.819931,0.000872605,0.0106362,1693,519,-0.07431,-0.0849559
476,505,-0.053833,0.0750732,-0.000455544,0.000227795,-0.000466766,0.000464579,-0.000692328,-1.10134,0.000672241,0.0100403,1700,519,-0.053806,-0.0750499
483,505,-0.050293,0.0751953,-0.000639264,0.000270076,-0.000367793,0.000400211,-0.000769399,-1.23072,0.000686396,0.0104124,1707,519,-0.0503528,-0.0752086
490,505,-0.0400391,0.0963745,-0.00050013,0.000334676,-0.000451264,0.00053198,-0.000697434,-1.15862,0.000711942,0.0103757,1714,519,-0.0400354,-0.0963921
497,505,-0.026001,0.0993652,-9.39406e-05,0.000615244,-0.000719271,0.00106258,-0.000541275,-1.01441,0.000942149,0.0107201,1721,519,-0.0260092,-0.0993493
504,505,-0.0463867,0.101501,0.000468649,0.00099847,-0.000835524,0.00161007,-0.000142956,-0.938915,0.00112407,0.0122002,1728,519,-0.0464064,-0.101509
511,505,-0.0458984,0.085022,0.00128933,0.00143242,-0.00083337,0.00219731,0.000524437,-0.828219,0.00132512,0.0141494,1735,519,-0.0458617,-0.0850451
518,505,-0.0419922,0.0925293,0.00205687,0.00197402,-0.000950623,0.00296697,0.00106392,-0.763621,0.00173567,0.0177382,1742,519,-0.0419992,-0.0925112
525,505,-0.00524902,0.0874023,0.00274128,0.00266703,-0.00117911,0.00388386,0.00152446,-0.76966,0.00225955,0.024144,1749,519,-0.00520139,-0.0873959
532,505,0.0147705,0.146912,0.00353947,0.00348374,-0.00129929,0.00481119,0.00221202,-0.774676,0.00278074,0.0396493,1756,519,0.0147425,-0.146928
539,505,-0.299194,-0.244629,0.00463523,0.00468379,-0.00113384,0.00579361,0.00352541,-0.796104,0.00337109,0.0438283,1763,519,-0.299224,0.244616
546,505,-0.377319,-0.509277,0.00594015,0.00629929,-0.000799929,0.00693955,0.00529988,-0.895807,0.0041882,0.0427663,1770,519,-0.377349,0.509264
553,505,-0.431885,-0.510437,0.00728305,0.00850151,-0.000340389,0.00859015,0.00719441,-1.31604,0.00532287,0.0441766,1777,519,-0.431937,0.510446
560,505,-0.398315,-0.515259,0.00828843,0.0109238,0.000167031,0.0109344,0.00827788,1.50775,0.00658518,0.0488362,1784,519,-0.39829,0.515281
567,505,-0.8396,-1.24188,0,0,0,0,0,0,0,-1,1791,519,-0.839539,1.24189
574,505,-0.634399,-1.03534,0,0,0,0,0,0,0,-1,1798,519,-0.634457,1.03532
581,505,0,0,0,0,0,0,0,0,0,-1,1805,519,0,0
588,505,0,0,0,0,0,0,0,0,0,-1,1812,519,0,0
595,505,0,0,0,0,0,0,0,0,0,-1,1819,519,0,0
602,505,0,0,0,0,0,0,0,0,0,-1,1826,519,0,0
609,505,0,0,0,0,0,0,0,0,0,-1,1833,519,0,0
616,505,0,0,0,0,0,0,0,0,0,-1,1840,519,0,0
623,505,0,0,0,0,0,0,0,0,0,-1,1847,519,0,0
630,505,0,0,0,0,0,0,0,0,0,-1,1854,519,0,0
637,505,0,0,0,0,0,0,0,0,0,-1,1861,519,0,0
644,505,0,0,0,0,0,0,0,0,0,-1,1868,519,0,0
651,505,0,0,0,0,0,0,0,0,0,-1,1875,519,0,0
658,505,0,0,0,0,0,0,0,0,0,-1,1882,519,0,0
665,505,0,0,0,0,0,0,0,0,0,-1,1889,519,0,0
672,505,0,0,0,0,0,0,0,0,0,-1,1896,519,0,0
679,505,0,0,0,0,0,0,0,0,0,-1,1903,519,0,0
686,505,0,0,0,0,0,0,0,0,0,-1,1910,519,0,0
693,505,0,0,0,0,0,0,0,0,0,-1,1917,519,0,0
700,505,0,0,0,0,0,0,0,0,0,-1,1924,519,0,0
707,505,0,0,0,0,0,0,0,0,0,-1,1931,519,0,0
714,505,0,0,0,0,0,0,0,0,0,-1,1938,519,0,0
721,505,0,0,0,0,0,0,0,0,0,-1,1945,519,0,0
728,505,0,0,0,0,0,0,0,0,0,-1,1952,519,0,0
735,505,0,0,0,0,0,0,0,0,0,-1,1959,519,0,0
742,505,0,0,0,0,0,0,0,0,0,-1,1966,519,0,0
749,505,0,0,0,0,0,0,0,0,0,-1,1973,519,0,0
756,505,0,0,0,0,0,0,0,0,0,-1,1980,519,0,0
763,505,0,0,0,0,0,0,0,0,0,-1,1987,519,0,0
770,505,0,0,0,0,0,0,0,0,0,-1,1994,519,0,0
777,505,0,0,0,0,0,0,0,0,0,-1,2001,519,0,0
784,505,0,0,0,0,0,0,0,0,0,-1,2008,519,0,0
791,505,0,0,0,0,0,0,0,0,0,-1,2015,519,0,0
798,505,0,0,0,0,0,0,0,0,0,-1,2022,519,0,0
805,505,0,0,0,0,0,0,0,0,0,-1,2029,519,0,0
812,505,0,0,0,0,0,0,0,0,0,-1,2036,519,0,0
-700,498,0,0,0,0,0,0,0,0,0,-1,524,526,0,0
-693,498,0,0,0,0,0,0,0,0,0,-1,531,526,0,0
-686,498,0,0,0,0,0,0,0,0,0,-1,538,526,0,0
-679,498,0,0,0,0,0,0,0,0,0,-1,545,526,0,0
-672,498,0,0,0,0,0,0,0,0,0,-1,552,526,0,0
-665,498,0,0,0,0,0,0,0,0,0,-1,559,526,0,0
-658,498,0,0,0,0,0,0,0,0,0,-1,566,526,0,0
-651,498,0,0,0,0,0,0,0,0,0,-1,573,526,0,0
-644,498,0,0,0,0,0,0,0,0,0,-1,580,526,0,0
-637,498,0,0,0,0,0,0,0,0,0,-1,587,526,0,0
-630,498,0,0,0,0,0,0,0,0,0,-1,594,526,0,0
-623,498,0,0,0,0,0,0,0,0,0,-1,601,526,0,0
-616,498,0,0,0,0,0,0,0,0,0,-1,608,526,0,0
-609,498,0,0,0,0,0,0,0,0,0,-1,615,526,0,0
-602,498,0,0,0,0,0,0,0,0,0,-1,622,526,0,0
-595,498,0,0,0,0,0,0,0,0,0,-1,629,526,0,0
-588,498,0,0,0,0,0,0,0,0,0,-1,636,526,0,0
-581,498,0,0,0,0,0,0,0,0,0,-1,643,526,0,0
-574,498,0,0,0,0,0,0,0,0,0,-1,650,526,0,0
-567,498,0,0,0,0,0,0,0,0,0,-1,657,526,0,0
-560,498,0,0,0,0,0,0,0,0,0,-1,664,526,0,0
-553,498,0,0,0,0,0,0,0,0,0,-1,671,526,0,0
-546,498,0,0,0,0,0,0,0,0,0,-1,678,526,0,0
-539,498,0,0,0,0,0,0,0,0,0,-1,685,526,0,0
-532,498,0,0,0,0,0,0,0,0,0,-1,692,526,0,0
-525,498,0,0,0,0,0,0,0,0,0,-1,699,526,0,0
-518,498,0,0,0,0,0,0,0,0,0,-1,706,526,0,0
-511,498,0,0,0,0,0,0,0,0,0,-1,713,526,0,0
-504,498,0,0,0,0,0,0,0,0,0,-1,720,526,0,0
-497,498,0,0,0,0,0,0,0,0,0,-1,727,526,0,0
-490,498,0,0,0,0,0,0,0,0,0,-1,734,526,0,0
-483,498,0,0,0,0,0,0,0,0,0,-1,741,526,0,0
-476,498,0,0,0,0,0,0,0,0,0,-1,748,526,0,0
-469,498,0,0,0,0,0,0,0,0,0,-1,755,526,0,0
-462,498,0.58844,4.2998,-0.00227404,-0.00444982,0.0447242,0.0413755,-0.0480993,0.773238,0.0517069,0.0432656,762,526,0.588439,-4.2998
-455,498,-0.180481,5.29553,0.0108111,0.000679118,0.0271598,0.0333733,-0.0218831,0.693195,0.0321314,0.0425365,769,526,-0.180471,-5.29554
-448,498,-0.48645,-3.04535,0.020052,0.00753232,0.0123987,0.0276815,-9.72077e-05,0.551628,0.0184868,0.0430614,776,526,-0.48644,3.04534
-441,498,-0.505005,-2.10394,0.0261823,0.0147141,0.000626447,0.0262164,0.01468,0.054409,0.0151723,0.0465686,783,526,-0.505023,2.10392
-434,498,-0.53064,-1.23535,0.030385,0.0221853,-0.00871231,0.0359139,0.0166564,-0.565482,0.020753,0.0456479,790,526,-0.530631,1.23533
-427,498,-0.221924,-0.594971,0.0325695,0.0285663,-0.0165328,0.0472214,0.0139144,-0.725157,0.0280191,0.047673,797,526,-0.221935,0.594979
-420,498,0.395264,0.0141602,0.0330853,0.0336127,-0.0212838,0.0546344,0.0120636,-0.791593,0.0331418,0.042544,804,526,0.395293,-0.0141741
-413,498,-0.022583,-0.00201416,0.0322796,0.0348319,-0.0235988,0.057189,0.0099225,-0.812411,0.0352866,0.0423148,811,526,-0.0225651,0.00200819
-406,498,-0.0779419,0.0645142,0.0297041,0.0340229,-0.0234486,0.0554113,0.00831571,-0.831315,0.0345046,0.0356593,818,526,-0.0779369,-0.0645315
-399,498,-0.0401001,0.0718994,0.0238702,0.0336736,-0.0202359,0.049593,0.00795075,-0.904223,0.0307563,0.0220281,825,526,-0.0400705,-0.0719072
-392,498,-0.0294189,0.0684814,0.0177715,0.029064,-0.0161537,0.0405298,0.00630567,-0.953527,0.0251826,0.0117589,832,526,-0.0294149,-0.0684728
-385,498,-0.0316162,0.0780029,0.0130113,0.0246617,-0.0131632,0.0332311,0.004442,-0.993714,0.0208318,0.00866587,839,526,-0.0316171,-0.0780252
-378,498,-0.0217285,0.0841064,0.00913112,0.0198663,-0.0102289,0.0260504,0.00294704,-1.02702,0.0164727,0.00914363,846,526,-0.0217569,-0.0841101
-371,498,0.0185547,0.0865479,0.00602334,0.0153177,-0.0075542,0.0195397,0.00180134,-1.06115,0.0124694,0.0136164,853,526,0.0185647,-0.0865432
-364,498,0.022522,0.0914917,0.00351306,0.0110074,-0.00488408,0.0134162,0.00110429,-1.11261,0.00859968,0.0143154,860,526,0.0225055,-0.0914731
-357,498,-0.0422974,0.098938,-0.00023956,0.00174083,1.60396e-05,0.00174096,-0.00023969,1.5627,0.00124823,0.0106193,867,526,-0.0422987,-0.0989364
-350,498,-0.0463257,0.0940552,-0.00163189,0.00211178,0.000765426,0.00226223,-0.00178234,1.37671,0.00234061,0.0106919,874,526,-0.046318,-0.0940527
-343,498,-0.026062,0.0742798,-0.00123001,0.00208094,0.000845912,0.00228454,-0.00143361,1.3346,0.00216534,0.0109113,881,526,-0.0260695,-0.0742721
-336,498,-0.0313721,0.0717773,-0.000928635,0.00179235,0.000803198,0.00201175,-0.00114804,1.30414,0.00184688,0.0139489,888,526,-0.0313535,-0.0717775
-329,498,-0.0542603,0.0784302,-0.00067311,0.00119298,0.00077231,0.00147115,-0.000951278,1.22508,0.00140928,0.0176312,895,526,-0.0542877,-0.0784326
-322,498,-0.0526733,0.0678711,-0.000229909,0.000982621,0.000779178,0.00136361,-0.000610901,1.11601,0.00116727,0.015601,902,526,-0.0527018,-0.0678781
-315,498,-0.0540161,0.0639038,0.000116178,0.000373984,0.000699294,0.000956156,-0.000465994,0.876541,0.000837177,0.0141762,909,526,-0.0540168,-0.0639054
-308,498,-0.0430298,0.065918,0.000404808,0.00136172,0.00062501,0.00167038,9.6143e-05,1.11208,0.00108296,0.010688,916,526,-0.0430407,-0.0659396
-301,498,-0.010437,0.0505371,0.00382843,0.00177958,0.00131562,0.00447143,0.00113658,0.454602,0.00268356,0.0126057,923,526,-0.0104674,-0.0505141
-294,498,-0.0289917,0.0519409,0.00691598,0.00334224,0.00176904,0.00764355,0.00261467,0.390192,0.00448578,0.0247933,930,526,-0.0289783,-0.0519397
-287,498,0.0944214,0.330811,0,0,0,0,0,0,0,-1,937,526,0.0944111,-0.330782
-280,498,-0.247864,-0.0718994,0.0118249,0.00723922,0.00179486,0.0124439,0.00662026,0.332083,0.0071894,0.0419991,944,526,-0.24787,0.0718883
-273,498,-0.136902,0.151489,0.0129291,0.011037,0.000411162,0.0130146,0.0109515,0.204984,0.00807702,0.0425535,951,526,-0.136888,-0.151504
-266,498,-0.261902,0.188599,0.0128754,0.0160655,-0.0011292,0.0164247,0.0125161,-1.26278,0.00990738,0.0410261,958,526,-0.261918,-0.188578
-259,498,-0.221436,-0.0153809,0.0103403,0.022012,-0.00355929,0.0230118,0.00934052,-1.29696,0.013364,0.04407,965,526,-0.221453,0.0153794
-252,498,0.0529785,-0.403442,0.00457043,0.0288199,-0.00708528,0.0307383,0.002652,-1.30637,0.0196679,0.0463498,972,526,0.052994,0.403452
-245,498,0.896362,2.03986,0,0,0,0,0,0,0,-1,979,526,0.896389,-2.03985
-238,498,2.99689,3.44641,0,0,0,0,0,0,0,-1,986,526,2.99689,-3.44641
-231,498,2.27466,2.28192,0,0,0,0,0,0,0,-1,993,526,2.27467,-2.28193
-224,498,1.91736,0.784546,-0.0408833,0.0601133,-0.0248055,0.0658768,-0.0466468,-1.3425,0.065281,0.0484425,1000,526,1.91739,-0.784533
-217,498,0.679382,0.21228,-0.0562435,0.0659272,-0.0294489,0.0726552,-0.0629716,-1.34619,0.0783707,0.0479626,1007,526,0.67941,-0.212258
-210,498,-0.37677,-0.42804,-0.0698753,0.0700727,-0.0330776,0.077497,-0.0772996,-1.35001,0.0893719,0.0454449,1014,526,-0.376793,0.428043
-203,498,-1.52435,-1.28894,-0.0783136,0.0694745,-0.0340003,0.0769214,-0.0857605,-1.35518,0.0939707,0.042292,1021,526,-1.52434,1.28893
-196,498,-2.73706,-2.13525,-0.0852312,0.0666483,-0.0337759,0.0738209,-0.0924037,-1.36155,0.0961695,0.045063,1028,526,-2.7371,2.13527
-189,498,-3.9884,-2.91302,0,0,0,0,0,0,0,-1,1035,526,-3.98836,2.91303
-182,498,0,0,0,0,0,0,0,0,0,-1,1042,526,0,0
-175,498,0,0,0,0,0,0,0,0,0,-1,1049,526,0,0
-168,498,0,0,0,0,0,0,0,0,0,-1,1056,526,0,0
-161,498,0,0,0,0,0,0,0,0,0,-1,1063,526,0,0
-154,498,0,0,0,0,0,0,0,0,0,-1,1070,526,0,0
-147,498,0,0,0,0,0,0,0,0,0,-1,1077,526,0,0
-140,498,0,0,0,0,0,0,0,0,0,-1,1084,526,0,0
-133,498,0,0,0,0,0,0,0,0,0,-1,1091,526,0,0
-126,498,0,0,0,0,0,0,0,0,0,-1,1098,526,0,0
-119,498,0,0,0,0,0,0,0,0,0,-1,1105,526,0,0
-112,498,0,0,0,0,0,0,0,0,0,-1,1112,526,0,0
-105,498,0,0,0,0,0,0,0,0,0,-1,1119,526,0,0
-98,498,0,0,0,0,0,0,0,0,0,-1,1126,526,0,0
-91,498,0,0,0,0,0,0,0,0,0,-1,1133,526,0,0
-84,498,0,0,0,0,0,0,0,0,0,-1,1140,526,0,0
-77,498,0,0,0,0,0,0,0,0,0,-1,1147,526,0,0
-70,498,0,0,0,0,0,0,0,0,0,-1,1154,526,0,0
-63,498,0,0,0,0,0,0,0,0,0,-1,1161,526,0,0
-56,498,0,0,0,0,0,0,0,0,0,-1,1168,526,0,0
-49,498,0,0,0,0,0,0,0,0,0,-1,1175,526,0,0
-42,498,0,0,0,0,0,0,0,0,0,-1,1182,526,0,0
-35,498,0,0,0,0,0,0,0,0,0,-1,1189,526,0,0
-28,498,0,0,0,0,0,0,0,0,0,-1,1196,526,0,0
-21,498,0,0,0,0,0,0,0,0,0,-1,1203,526,0,0
-14,498,0,0,0,0,0,0,0,0,0,-1,1210,526,0,0
-7,498,0,0,0,0,0,0,0,0,0,-1,1217,526,0,0
0,498,0,0,0,0,0,0,0,0,0,-1,1224,526,0,0
7,498,0,0,0,0,0,0,0,0,0,-1,1231,526,0,0
14,498,0,0,0,0,0,0,0,0,0,-1,1238,526,0,0
21,498,0,0,0,0,0,0,0,0,0,-1,1245,526,0,0
28,498,0,0,0,0,0,0,0,0,0,-1,1252,526,0,0
35,498,0,0,0,0,0,0,0,0,0,-1,1259,526,0,0
42,498,0,0,0,0,0,0,0,0,0,-1,1266,526,0,0
49,498,0,0,0,0,0,0,0,0,0,-1,1273,526,0,0
56,498,0,0,0,0,0,0,0,0,0,-1,1280,526,0,0
63,498,0,0,0,0,0,0,0,0,0,-1,1287,526,0,0
70,498,0,0,0,0,0,0,0,0,0,-1,1294,526,0,0
77,498,0,0,0,0,0,0,0,0,0,-1,1301,526,0,0
84,498,0,0,0,0,0,0,0,0,0,-1,1308,526,0,0
91,498,0,0,0,0,0,0,0,0,0,-1,1315,526,0,0
98,498,0,0,0,0,0,0,0,0,0,-1,1322,526,0,0
105,498,0,0,0,0,0,0,0,0,0,-1,1329,526,0,0
112,498,0,0,0,0,0,0,0,0,0,-1,1336,526,0,0
119,498,0,0,0,0,0,0,0,0,0,-1,1343,526,0,0
126,498,0,0,0,0,0,0,0,0,0,-1,1350,526,0,0
133,498,0,0,0,0,0,0,0,0,0,-1,1357,526,0,0
140,498,0,0,0,0,0,0,0,0,0,-1,1364,526,0,0
147,498,0,0,0,0,0,0,0,0,0,-1,1371,526,0,0
154,498,0,0,0,0,0,0,0,0,0,-1,1378,526,0,0
161,498,0,0,0,0,0,0,0,0,0,-1,1385,526,0,0
168,498,0,0,0,0,0,0,0,0,0,-1,1392,526,0,0
175,498,0,0,0,0,0,0,0,0,0,-1,1399,526,0,0
182,498,0,0,0,0,0,0,0,0,0,-1,1406,526,0,0
189,498,0,0,0,0,0,0,0,0,0,-1,1413,526,0,0
196,498,0,0,0,0,0,0,0,0,0,-1,1420,526,0,0
203,498,0,0,0,0,0,0,0,0,0,-1,1427,526,0,0
210,498,0,0,0,0,0,0,0,0,0,-1,1434,526,0,0
217,498,0,0,0,0,0,0,0,0,0,-1,1441,526,0,0
224,498,0,0,0,0,0,0,0,0,0,-1,1448,526,0,0
231,498,0,0,0,0,0,0,0,0,0,-1,1455,526,0,0
238,498,0,0,0,0,0,0,0,0,0,-1,1462,526,0,0
245,498,0,0,0,0,0,0,0,0,0,-1,1469,526,0,0
252,498,0,0,0,0,0,0,0,0,0,-1,1476,526,0,0
259,498,0,0,0,0,0,0,0,0,0,-1,1483,526,0,0
266,498,0,0,0,0,0,0,0,0,0,-1,1490,526,0,0
273,498,0,0,0,0,0,0,0,0,0,-1,1497,526,0,0
280,498,0,0,0,0,0,0,0,0,0,-1,1504,526,0,0
287,498,0,0,0,0,0,0,0,0,0,-1,1511,526,0,0
294,498,0,0,0,0,0,0,0,0,0,-1,1518,526,0,0
301,498,0,0,0,0,0,0,0,0,0,-1,1525,526,0,0
308,498,1.13184,-2.71466,-0.0451387,0.0843342,-0.0225393,0.0881457,-0.0489502,-1.40327,0.0802234,0.0437487,1532,526,1.13185,2.71467
315,498,0.757202,-2.8656,-0.0433726,0.0834723,-0.0229674,0.0875028,-0.0474032,-1.39707,0.0790266,0.0426076,1539,526,0.757213,2.86561
322,498,0.216675,-2.99268,-0.0383092,0.0729669,-0.0199059,0.0764206,-0.0417629,-1.399,0.0692044,0.0442565,1546,526,0.216637,2.99266
329,498,-0.336792,-3.03833,-0.0308001,0.0607818,-0.0167867,0.0637617,-0.0337801,-1.39511,0.0571957,0.0480232,1553,526,-0.336819,3.03831
336,498,-1.14624,-2.55841,-0.0244146,0.0476229,-0.0123025,0.049666,-0.0264576,-1.40623,0.0446257,0.0469978,1560,526,-1.1462,2.55838
343,498,-1.65588,-1.34167,-0.0167027,0.0338809,-0.00773868,0.0350383,-0.0178601,-1.42233,0.0310731,0.047132,1567,526,-1.65586,1.34165
350,498,-2.07471,-0.111694,-0.00940264,0.0202625,-0.00407153,0.0208112,-0.00995131,-1.43685,0.0181259,0.0449324,1574,526,-2.0747,0.111673
357,498,-0.0432129,-0.283875,-0.00363511,0.00825963,-0.00099034,0.00834152,-0.003717,-1.48829,0.00713061,0.043591,1581,526,-0.0432015,0.283885
364,498,0.645874,0.76593,0,0,0,0,0,0,0,-1,1588,526,0.645819,-0.765941
371,498,0.293945,0.63855,0.0041118,-0.00671015,0.000772888,0.00416672,-0.00676507,0.0709387,0.00637062,0.0448882,1595,526,0.294,-0.638529
378,498,-0.00231934,0.503174,0.00660566,-0.0108431,0.000668054,0.0066312,-0.0108686,0.0382121,0.0102018,0.0429656,1602,526,-0.00230771,-0.503155
385,498,-0.317871,0.3703,0.00827595,-0.0129196,0.000320322,0.00828079,-0.0129245,0.0151081,0.0123403,0.0446985,1609,526,-0.317829,-0.37032
392,498,-0.581909,0.0479736,0.00941085,-0.0132096,0.000172169,0.00941216,-0.0132109,0.00761061,0.0131227,0.0427968,1616,526,-0.581867,-0.0479615
399,498,-0.775879,-0.116333,0.00957287,-0.012439,-0.000812333,0.00960281,-0.0124689,-0.0368376,0.0127789,0.0431053,1623,526,-0.775895,0.116355
406,498,-0.863403,0.105896,0.00794088,-0.0105122,-0.00197969,0.00815088,-0.0107222,-0.10568,0.01093,0.0444094,1630,526,-0.863383,-0.10591
413,498,-0.35437,0.192261,0.00633861,-0.00812863,-0.00193404,0.00659269,-0.00838272,-0.130628,0.00866662,0.0412094,1637,526,-0.354384,-0.192268
420,498,-0.19397,0.183655,0.00647418,-0.00571623,-0.00201019,0.00679711,-0.00603915,-0.159283,0.00741532,0.0362813,1644,526,-0.193913,-0.183658
427,498,-0.109375,0.0983887,0.0064039,-0.00322333,-0.00215779,0.00686541,-0.00368484,-0.210707,0.00618277,0.0271419,1651,526,-0.10937,-0.0983788
434,498,-0.0571289,0.0792236,0.00579132,-0.00163829,-0.00197175,0.00628217,-0.00212915,-0.243984,0.00504974,0.0127912,1658,526,-0.0571213,-0.0791936
441,498,-0.0527344,0.105225,0.00494359,-0.000673327,-0.00193617,0.00554632,-0.00127606,-0.301791,0.00418821,0.00721024,1665,526,-0.0527565,-0.105203
448,498,-0.0214844,0.0988159,0.0034515,-0.000165289,-0.001811,0.0042024,-0.000916194,-0.393059,0.00315171,0.00821586,1672,526,-0.0214241,-0.0988055
455,498,-0.0317383,0.0925293,0.00213896,0.000178551,-0.00163267,0.00306307,-0.000745557,-0.515052,0.00233066,0.0114452,1679,526,-0.0317859,-0.0925294
462,498,-0.0526123,0.0761108,0.00106326,0.000269744,-0.00143181,0.00215226,-0.00081926,-0.650238,0.00177222,0.013499,1686,526,-0.0525741,-0.076099
469,498,-0.079834,0.0724487,-8.64454e-06,0.000416063,-0.000926353,0.00115409,-0.000746672,-0.89807,0.00110578,0.0123635,1693,526,-0.079795,-0.0724723
476,498,-0.0643311,0.0797729,-0.00066098,0.000553083,-0.000572146,0.000780221,-0.000888118,-1.19289,0.000963887,0.00900638,1700,526,-0.0643796,-0.079789
483,498,-0.0482178,0.0900879,-0.00096068,0.000618249,-0.000429736,0.000727632,-0.00107006,-1.32155,0.00104416,0.00748081,1707,526,-0.0482374,-0.0900842
490,498,-0.0461426,0.0896606,-0.00083132,0.00066004,-0.000473211,0.000797517,-0.000968797,-1.28806,0.00102138,0.00967143,1714,526,-0.0461744,-0.0896794
497,498,-0.0383301,0.0865479,-0.00039071,0.000901367,-0.000727845,0.00122853,-0.000717875,-1.14836,0.00113658,0.0113346,1721,526,-0.0383663,-0.086524
504,498,-0.0411377,0.0878296,0.00013708,0.00104258,-0.000812637,0.00152008,-0.000340418,-1.03955,0.00114387,0.0138478,1728,526,-0.0410812,-0.087834
511,498,-0.0537109,0.0947876,0.000883523,0.00125444,-0.000772518,0.00186345,0.000274513,-0.903203,0.00116166,0.0141545,1735,526,-0.0536594,-0.0947978
518,498,-0.0496826,0.0841064,0.00154835,0.00149888,-0.000814977,0.00233897,0.000708264,-0.770227,0.00138497,0.0141306,1742,526,-0.0496551,-0.0841344
525,498,-0.0141602,0.0567627,0.00211538,0.00179604,-0.000990881,0.00295937,0.000952047,-0.705517,0.00174443,0.0170786,1749,526,-0.014175,-0.0567641
532,498,-0.0305176,0.0613403,0.00279867,0.00213833,-0.00108621,0.00360378,0.00133321,-0.637854,0.00210397,0.0254738,1756,526,-0.030497,-0.0613284
539,498,0.0275879,0.131287,0.0037672,0.0027427,-0.000962707,0.00434546,0.00216444,-0.540902,0.00250886,0.0347901,1763,526,0.0275557,-0.131261
546,498,-0.138794,-0.251282,0.00498122,0.00366605,-0.000711585,0.00529253,0.00335473,-0.412409,0.00309193,0.0428999,1770,526,-0.138818,0.251301
553,498,-0.347778,-0.600708,0.00624186,0.00509902,-0.000312542,0.00632175,0.00501913,-0.250251,0.00385438,0.0458011,1777,526,-0.347741,0.600734
560,498,0.0161133,0.0800171,0.00702802,0.00686122,0.000128742,0.00709801,0.00679122,0.497981,0.00463313,0.0457039,1784,526,0.0161325,-0.0800393
567,498,-0.227905,-0.460205,0,0,0,0,0,0,0,-1,1791,526,-0.227933,0.460236
574,498,-0.0947266,-0.679749,0.00807326,0.0118602,0.000798002,0.0120215,0.00791198,1.37137,0.00705541,0.0427529,1798,526,-0.0947577,0.679758
581,498,-0.212524,-0.520508,0.00759144,0.0149317,0.000559757,0.0149741,0.007549,1.49512,0.0086454,0.0429336,1805,526,-0.21255,0.520512
588,498,0,0,0,0,0,0,0,0,0,-1,1812,526,0,0
595,498,0,0,0,0,0,0,0,0,0,-1,1819,526,0,0
602,498,0,0,0,0,0,0,0,0,0,-1,1826,526,0,0
609,498,0,0,0,0,0,0,0,0,0,-1,1833,526,0,0
616,498,0,0,0,0,0,0,0,0,0,-1,1840,526,0,0
623,498,0,0,0,0,0,0,0,0,0,-1,1847,526,0,0
630,498,0,0,0,0,0,0,0,0,0,-1,1854,526,0,0
637,498,0,0,0,0,0,0,0,0,0,-1,1861,526,0,0
644,498,0,0,0,0,0,0,0,0,0,-1,1868,526,0,0
651,498,0,0,0,0,0,0,0,0,0,-1,1875,526,0,0
658,498,0,0,0,0,0,0,0,0,0,-1,1882,526,0,0
665,498,0,0,0,0,0,0,0,0,0,-1,1889,526,0,0
672,498,0,0,0,0,0,0,0,0,0,-1,1896,526,0,0
679,498,0,0,0,0,0,0,0,0,0,-1,1903,526,0,0
686,498,0,0,0,0,0,0,0,0,0,-1,1910,526,0,0
693,498,0,0,0,0,0,0,0,0,0,-1,1917,526,0,0
700,498,0,0,0,0,0,0,0,0,0,-1,1924,526,0,0
707,498,0,0,0,0,0,0,0,0,0,-1,1931,526,0,0
714,498,0,0,0,0,0,0,0,0,0,-1,1938,526,0,0
721,498,0,0,0,0,0,0,0,0,0,-1,1945,526,0,0
728,498,0,0,0,0,0,0,0,0,0,-1,1952,526,0,0
735,498,0,0,0,0,0,0,0,0,0,-1,1959,526,0,0
742,498,0,0,0,0,0,0,0,0,0,-1,1966,526,0,0
749,498,0,0,0,0,0,0,0,0,0,-1,1973,526,0,0
756,498,0,0,0,0,0,0,0,0,0,-1,1980,526,0,0
763,498,0,0,0,0,0,0,0,0,0,-1,1987,526,0,0
770,498,0,0,0,0,0,0,0,0,0,-1,1994,526,0,0
777,498,0,0,0,0,0,0,0,0,0,-1,2001,526,0,0
784,498,0,0,0,0,0,0,0,0,0,-1,2008,526,0,0
791,498,0,0,0,0,0,0,0,0,0,-1,2015,526,0,0
798,498,0,0,0,0,0,0,0,0,0,-1,2022,526,0,0
805,498,0,0,0,0,0,0,0,0,0,-1,2029,526,0,0
812,498,0,0,0,0,0,0,0,0,0,-1,2036,526,0,0
-700,491,0,0,0,0,0,0,0,0,0,-1,524,533,0,0
-693,491,0,0,0,0,0,0,0,0,0,-1,531,533,0,0
-686,491,0,0,0,0,0,0,0,0,0,-1,538,533,0,0
-679,491,0,0,0,0,0,0,0,0,0,-1,545,533,0,0
-672,491,0,0,0,0,0,0,0,0,0,-1,552,533,0,0
-665,491,0,0,0,0,0,0,0,0,0,-1,559,533,0,0
-658,491,0,0,0,0,0,0,0,0,0,-1,566,533,0,0
-651,491,0,0,0,0,0,0,0,0,0,-1,573,533,0,0
-644,491,0,0,0,0,0,0,0,0,0,-1,580,533,0,0
-637,491,0,0,0,0,0,0,0,0,0,-1,587,533,0,0
-630,491,0,0,0,0,0,0,0,0,0,-1,594,533,0,0
-623,491,0,0,0,0,0,0,0,0,0,-1,601,533,0,0
-616,491,0,0,0,0,0,0,0,0,0,-1,608,533,0,0
-609,491,0,0,0,0,0,0,0,0,0,-1,615,533,0,0
-602,491,0,0,0,0,0,0,0,0,0,-1,622,533,0,0
-595,491,0,0,0,0,0,0,0,0,0,-1,629,533,0,0
-588,491,0,0,0,0,0,0,0,0,0,-1,636,533,0,0
-581,491,0,0,0,0,0,0,0,0,0,-1,643,533,0,0
-574,491,0,0,0,0,0,0,0,0,0,-1,650,533,0,0
-567,491,0,0,0,0,0,0,0,0,0,-1,657,533,0,0
-560,491,0,0,0,0,0,0,0,0,0,-1,664,533,0,0
-553,491,0,0,0,0,0,0,0,0,0,-1,671,533,0,0
-546,491,0,0,0,0,0,0,0,0,0,-1,678,533,0,0
-539,491,0,0,0,0,0,0,0,0,0,-1,685,533,0,0
-532,491,0,0,0,0,0,0,0,0,0,-1,692,533,0,0
-525,491,0,0,0,0,0,0,0,0,0,-1,699,533,0,0
-518,491,0,0,0,0,0,0,0,0,0,-1,706,533,0,0
-511,491,0,0,0,0,0,0,0,0,0,-1,713,533,0,0
-504,491,0,0,0,0,0,0,0,0,0,-1,720,533,0,0
-497,491,0,0,0,0,0,0,0,0,0,-1,727,533,0,0
-490,491,0,0,0,0,0,0,0,0,0,-1,734,533,0,0
-483,491,0,0,0,0,0,0,0,0,0,-1,741,533,0,0
-476,491,0,0,0,0,0,0,0,0,0,-1,748,533,0,0
-469,491,1.61792,2.46814,-0.0191474,-0.00227464,0.0669744,0.0567926,-0.0782146,0.84805,0.0782729,0.0443469,755,533,1.61793,-2.46816
-462,491,0.533936,3.81683,-0.00566212,0.00628812,0.0442544,0.044969,-0.044343,0.852501,0.0515647,0.0462831,762,533,0.53394,-3.81685
-455,491,-0.40741,5.06494,0.00559795,0.00847776,0.0274893,0.0345648,-0.0204891,0.811565,0.0321298,0.0479426,769,533,-0.407438,-5.06497
-448,491,-1.30017,6.25977,0,0,0,0,0,0,0,-1,776,533,-1.30015,-6.25975
-441,491,0.00531006,-0.0200195,0.0195545,0.0177323,0.00252452,0.0213273,0.0159595,0.612224,0.0128095,0.0456702,783,533,0.00528931,0.0200055
-434,491,0.716797,0.164551,0.0232329,0.0227841,-0.00592613,0.0289389,0.0170781,-0.766475,0.0167981,0.0434647,790,533,0.71678,-0.164581
-427,491,0.404114,0.123718,0.0256728,0.0278215,-0.0131488,0.0399398,0.0135545,-0.826162,0.0234525,0.044649,797,533,0.404106,-0.123723
-420,491,0.095459,0.0707397,0.0267657,0.0316007,-0.0176895,0.0470371,0.0113293,-0.853309,0.0283466,0.0417717,804,533,0.0954453,-0.0707612
-413,491,-0.0310059,0.117798,0.0266661,0.0324471,-0.0200116,0.0497759,0.00933733,-0.857123,0.0305509,0.0332965,811,533,-0.0310186,-0.11781
-406,491,0.000366211,0.0994873,0.0249257,0.0315921,-0.0200348,0.0485692,0.00794871,-0.867828,0.030082,0.0174627,818,533,0.000390749,-0.0994782
-399,491,-0.00646973,0.0933838,0.0202569,0.0312847,-0.0173045,0.0439325,0.00760899,-0.939632,0.0271103,0.0102025,825,533,-0.00646519,-0.0933971
-392,491,-0.0320435,0.090332,0.0152502,0.0273408,-0.0137684,0.0363326,0.00625843,-0.992263,0.0224286,0.00958209,832,533,-0.0320705,-0.090348
-385,491,-0.0428467,0.0907593,0.0113373,0.023532,-0.0112313,0.0302143,0.00465499,-1.03408,0.0187845,0.00869712,839,533,-0.0428329,-0.0907848
-378,491,-0.0285034,0.101318,0.00812736,0.0192647,-0.00870862,0.0240328,0.00335918,-1.06986,0.0150278,0.0114263,846,533,-0.0284745,-0.1013
-371,491,-0.0125732,0.10083,0.00551996,0.0151471,-0.00633093,0.0182866,0.00238046,-1.11044,0.0114801,0.0120101,853,533,-0.0125503,-0.100821
-364,491,0.00286865,0.101257,0.00333068,0.0111575,-0.00395639,0.012809,0.00167922,-1.17537,0.00803826,0.0117211,860,533,0.00286438,-0.101275
-357,491,-0.0291748,0.106873,0.000139418,0.00295363,0.000336367,0.00299327,9.97726e-05,1.45347,0.0019631,0.0110572,867,533,-0.0291522,-0.106871
-350,491,-0.0408325,0.0991211,-0.00111106,0.00302139,0.00119965,0.0033444,-0.00143407,1.30778,0.00283138,0.0141895,874,533,-0.0408085,-0.099102
-343,491,-0.0198364,0.10791,-0.000857699,0.00282023,0.00149541,0.0033515,-0.00138898,1.22943,0.00281401,0.0215316,881,533,-0.0198625,-0.107888
-336,491,-0.0146484,0.130554,-0.000643195,0.00243575,0.001501,0.00304639,-0.00125383,1.18442,0.00255363,0.0222345,888,533,-0.0146243,-0.130531
-329,491,-0.076355,0.0876465,-0.000420273,0.00191385,0.0014697,0.0026235,-0.00112992,1.12096,0.00222349,0.0238324,895,533,-0.0763333,-0.0876423
-322,491,-0.0801392,0.074707,2.60403e-05,0.00167691,0.00140967,0.00248503,-0.000782085,1.05026,0.00196983,0.0198408,902,533,-0.0801195,-0.0747272
-315,491,-0.0622559,0.0845337,0.00046599,0.0012646,0.00128635,0.0022122,-0.000481608,0.935891,0.0016588,0.0120203,909,533,-0.0622587,-0.0845533
-308,491,-0.0126953,0.0858154,0.0009495,0.00227678,0.00113858,0.00293101,0.000295272,1.04926,0.0018634,0.0179544,916,533,-0.0127187,-0.0857867
-301,491,0.0254517,0.0873413,0.00496494,0.00273515,0.00181238,0.00597788,0.0017222,0.509654,0.00355315,0.030613,923,533,0.0254733,-0.0873146
-294,491,0.0679321,0.502136,0.0086784,0.00465599,0.00214044,0.00960428,0.00373012,0.408259,0.0055909,0.0375911,930,533,0.0679398,-0.502112
-287,491,0.0122681,0.839539,0.0112251,0.00767408,0.0013752,0.0116954,0.00720379,0.32951,0.00681259,0.044174,937,533,0.012277,-0.839567
-280,491,-0.486389,0.2052,0.0149556,0.0100445,0.00157142,0.0154154,0.00958477,0.284641,0.00898761,0.0435678,944,533,-0.486389,-0.205226
-273,491,-0.429321,-0.00256348,0.0162605,0.0151059,-0.000395589,0.0163831,0.0149834,-0.300379,0.0104867,0.0438235,951,533,-0.429309,0.00254568
-266,491,-0.309814,-0.00726318,0.0159505,0.0218473,-0.0026712,0.0228774,0.0149204,-1.20274,0.0134107,0.04345,958,533,-0.30979,0.0072618
-259,491,-0.627747,1.30145,0,0,0,0,0,0,0,-1,965,533,-0.627735,-1.30145
-252,491,-0.0682983,-0.339966,0.00590786,0.0387482,-0.0102889,0.0417055,0.00295064,-1.29092,0.0268741,0.0446575,972,533,-0.0683204,0.339947
-245,491,3.69122,3.73596,-0.00399843,0.04856,-0.0156414,0.0528626,-0.00830108,-1.30235,0.0383098,0.0475117,979,533,3.69121,-3.73599
-238,491,3.05774,2.68512,-0.0166476,0.0596948,-0.0215026,0.0653346,-0.0222874,-1.31429,0.0525842,0.0468855,986,533,3.05776,-2.68511
-231,491,2.43195,1.47235,0,0,0,0,0,0,0,-1,993,533,2.43197,-1.47235
-224,491,1.52155,0.297546,-0.0488763,0.0810824,-0.0322635,0.0886514,-0.0564453,-1.34037,0.0844567,0.047602,1000,533,1.52152,-0.297569
-217,491,0.562012,-0.586609,-0.06825,0.0890645,-0.0380875,0.0978007,-0.0769862,-1.34532,0.101151,0.0488609,1007,533,0.561986,0.58659
-210,491,-0.407043,-1.29022,-0.0861517,0.0949665,-0.0429459,0.104634,-0.0958189,-1.34939,0.115769,0.0446487,1014,533,-0.40702,1.2902
-203,491,-1.53717,-1.62262,-0.098155,0.0946911,-0.0446278,0.104518,-0.107982,-1.35406,0.122692,0.0437061,1021,533,-1.53718,1.6226
-196,491,0,0,0,0,0,0,0,0,0,-1,1028,533,0,0
-189,491,0,0,0,0,0,0,0,0,0,-1,1035,533,0,0
-182,491,0,0,0,0,0,0,0,0,0,-1,1042,533,0,0
-175,491,0,0,0,0,0,0,0,0,0,-1,1049,533,0,0
-168,491,0,0,0,0,0,0,0,0,0,-1,1056,533,0,0
-161,491,0,0,0,0,0,0,0,0,0,-1,1063,533,0,0
-154,491,0,0,0,0,0,0,0,0,0,-1,1070,533,0,0
-147,491,0,0,0,0,0,0,0,0,0,-1,1077,533,0,0
-140,491,0,0,0,0,0,0,0,0,0,-1,1084,533,0,0
-133,491,0,0,0,0,0,0,0,0,0,-1,1091,533,0,0
-126,491,0,0,0,0,0,0,0,0,0,-1,1098,533,0,0
-119,491,0,0,0,0,0,0,0,0,0,-1,1105,533,0,0
-112,491,0,0,0,0,0,0,0,0,0,-1,1112,533,0,0
-105,491,0,0,0,0,0,0,0,0,0,-1,1119,533,0,0
-98,491,0,0,0,0,0,0,0,0,0,-1,1126,533,0,0
-91,491,0,0,0,0,0,0,0,0,0,-1,1133,533,0,0
-84,491,0,0,0,0,0,0,0,0,0,-1,1140,533,0,0
-77,491,0,0,0,0,0,0,0,0,0,-1,1147,533,0,0
-70,491,0,0,0,0,0,0,0,0,0,-1,1154,533,0,0
-63,491,0,0,0,0,0,0,0,0,0,-1,1161,533,0,0
-56,491,0,0,0,0,0,0,0,0,0,-1,1168,533,0,0
-49,491,0,0,0,0,0,0,0,0,0,-1,1175,533,0,0
-42,491,0,0,0,0,0,0,0,0,0,-1,1182,533,0,0
-35,491,0,0,0,0,0,0,0,0,0,-1,1189,533,0,0
-28,491,0,0,0,0,0,0,0,0,0,-1,1196,533,0,0
-21,491,0,0,0,0,0,0,0,0,0,-1,1203,533,0,0
-14,491,0,0,0,0,0,0,0,0,0,-1,1210,533,0,0
-7,491,0,0,0,0,0,0,0,0,0,-1,1217,533,0,0
0,491,0,0,0,0,0,0,0,0,0,-1,1224,533,0,0
7,491,0,0,0,0,0,0,0,0,0,-1,1231,533,0,0
14,491,0,0,0,0,0,0,0,0,0,-1,1238,533,0,0
21,491,0,0,0,0,0,0,0,0,0,-1,1245,533,0,0
28,491,0,0,0,0,0,0,0,0,0,-1,1252,533,0,0
35,491,0,0,0,0,0,0,0,0,0,-1,1259,533,0,0
42,491,0,0,0,0,0,0,0,0,0,-1,1266,533,0,0
49,491,0,0,0,0,0,0,0,0,0,-1,1273,533,0,0
56,491,0,0,0,0,0,0,0,0,0,-1,1280,533,0,0
63,491,0,0,0,0,0,0,0,0,0,-1,1287,533,0,0
70,491,0,0,0,0,0,0,0,0,0,-1,1294,533,0,0
77,491,0,0,0,0,0,0,0,0,0,-1,1301,533,0,0
84,491,0,0,0,0,0,0,0,0,0,-1,1308,533,0,0
91,491,0,0,0,0,0,0,0,0,0,-1,1315,533,0,0
98,491,0,0,0,0,0,0,0,0,0,-1,1322,533,0,0
105,491,0,0,0,0,0,0,0,0,0,-1,1329,533,0,0
112,491,0,0,0,0,0,0,0,0,0,-1,1336,533,0,0
119,491,0,0,0,0,0,0,0,0,0,-1,1343,533,0,0
126,491,0,0,0,0,0,0,0,0,0,-1,1350,533,0,0
133,491,0,0,0,0,0,0,0,0,0,-1,1357,533,0,0
140,491,0,0,0,0,0,0,0,0,0,-1,1364,533,0,0
147,491,0,0,0,0,0,0,0,0,0,-1,1371,533,0,0
154,491,0,0,0,0,0,0,0,0,0,-1,1378,533,0,0
161,491,0,0,0,0,0,0,0,0,0,-1,1385,533,0,0
168,491,0,0,0,0,0,0,0,0,0,-1,1392,533,0,0
175,491,0,0,0,0,0,0,0,0,0,-1,1399,533,0,0
182,491,0,0,0,0,0,0,0,0,0,-1,1406,533,0,0
189,491,0,0,0,0,0,0,0,0,0,-1,1413,533,0,0
196,491,0,0,0,0,0,0,0,0,0,-1,1420,533,0,0
203,491,0,0,0,0,0,0,0,0,0,-1,1427,533,0,0
210,491,0,0,0,0,0,0,0,0,0,-1,1434,533,0,0
217,491,0,0,0,0,0,0,0,0,0,-1,1441,533,0,0
224,491,0,0,0,0,0,0,0,0,0,-1,1448,533,0,0
231,491,0,0,0,0,0,0,0,0,0,-1,1455,533,0,0
238,491,0,0,0,0,0,0,0,0,0,-1,1462,533,0,0
245,491,0,0,0,0,0,0,0,0,0,-1,1469,533,0,0
252,491,0,0,0,0,0,0,0,0,0,-1,1476,533,0,0
259,491,0,0,0,0,0,0,0,0,0,-1,1483,533,0,0
266,491,0,0,0,0,0,0,0,0,0,-1,1490,533,0,0
273,491,0,0,0,0,0,0,0,0,0,-1,1497,533,0,0
280,491,0,0,0,0,0,0,0,0,0,-1,1504,533,0,0
287,491,0,0,0,0,0,0,0,0,0,-1,1511,533,0,0
294,491,0,0,0,0,0,0,0,0,0,-1,1518,533,0,0
301,491,0,0,0,0,0,0,0,0,0,-1,1525,533,0,0
308,491,0,0,0,0,0,0,0,0,0,-1,1532,533,0,0
315,491,0,0,0,0,0,0,0,0,0,-1,1539,533,0,0
322,491,0.752441,-3.83777,0,0,0,0,0,0,0,-1,1546,533,0.752448,3.83777
329,491,0.193481,-3.93567,0,0,0,0,0,0,0,-1,1553,533,0.193528,3.93566
336,491,-0.174316,-2.58325,-0.0247729,0.0498275,-0.0146476,0.0526005,-0.0275458,-1.3837,0.0470201,0.0456022,1560,533,-0.174261,2.58326
343,491,-0.67981,-1.85138,-0.0156042,0.0354255,-0.00943972,0.0371157,-0.0172944,-1.39362,0.032101,0.0483415,1567,533,-0.679766,1.85139
350,491,-1.16064,-1.12988,0,0,0,0,0,0,0,-1,1574,533,-1.1606,1.12988
357,491,-0.121948,-0.108032,0,0,0,0,0,0,0,-1,1581,533,-0.121892,0.108035
364,491,-0.19751,1.61462,0,0,0,0,0,0,0,-1,1588,533,-0.197536,-1.61463
371,491,-0.470459,1.30286,0.00717738,-0.00639331,-0.000710771,0.0072145,-0.00643044,-0.0521851,0.00788224,0.0437549,1595,533,-0.47047,-1.30285
378,491,-0.544434,0.973755,0.0097307,-0.0106966,-0.000866877,0.00976742,-0.0107333,-0.0423358,0.0118405,0.0397739,1602,533,-0.544403,-0.97375
385,491,-0.665039,0.739014,0.0112406,-0.0129093,-0.00124311,0.0113044,-0.0129731,-0.0512943,0.0140276,0.044451,1609,533,-0.665018,-0.739014
392,491,-0.9729,0.664063,0.0121929,-0.0132031,-0.00134682,0.0122642,-0.0132743,-0.0528352,0.0147485,0.0448504,1616,533,-0.972927,-0.664059
399,491,-1.17358,0.575806,0.0120337,-0.0122767,-0.00227251,0.0122443,-0.0124873,-0.0924124,0.014279,0.0440687,1623,533,-1.17355,-0.57579
406,491,-1.39185,0.750977,0,0,0,0,0,0,0,-1,1630,533,-1.39184,-0.750993
413,491,-0.902588,0.419739,0.0080861,-0.00753883,-0.00321122,0.00872033,-0.00817305,-0.194993,0.0097551,0.0426042,1637,533,-0.902626,-0.419745
420,491,-0.432983,0.236938,0.00799303,-0.00499648,-0.00313039,0.00870808,-0.00571153,-0.224567,0.00838487,0.0407852,1644,533,-0.432979,-0.236962
427,491,-0.127319,0.153687,0.00767981,-0.00242683,-0.00312737,0.00856926,-0.00331627,-0.277091,0.00708199,0.0397277,1651,533,-0.127321,-0.153705
434,491,-0.0168457,0.0814819,0.00675085,-0.000843721,-0.00273233,0.00763171,-0.00172458,-0.311862,0.00574953,0.0281826,1658,533,-0.0168736,-0.0814832
441,491,-0.0424805,0.0766602,0.00558771,5.95499e-05,-0.00250942,0.0065569,-0.000909645,-0.368573,0.00470389,0.0151762,1665,533,-0.0425322,-0.0766434
448,491,-0.0373535,0.0903931,0.00379675,0.00039974,-0.00219135,0.00487077,-0.000674286,-0.455713,0.0034937,0.0100392,1672,533,-0.0373926,-0.0904059
455,491,-0.0498047,0.0869751,0.00230597,0.000586759,-0.00188642,0.00351941,-0.000626678,-0.571614,0.00258066,0.0101519,1679,533,-0.0497567,-0.0869805
462,491,-0.0423584,0.0707397,0.00111002,0.000537715,-0.00156754,0.00241731,-0.000769579,-0.695118,0.00192018,0.0130386,1686,533,-0.0423109,-0.0707482
469,491,-0.0675049,0.0647583,-6.26566e-05,0.000554032,-0.000948837,0.00124337,-0.000751994,-0.942501,0.00116361,0.0128991,1693,533,-0.0675236,-0.0647291
476,491,-0.0389404,0.0703125,-0.000824978,0.000591976,-0.000520121,0.000762399,-0.000995402,-1.25416,0.00101783,0.00991645,1700,533,-0.0389509,-0.0702904
483,491,-0.0333252,0.0969238,-0.00119736,0.000560885,-0.000344831,0.000626095,-0.00126257,-1.3839,0.00111087,0.0112068,1707,533,-0.0333843,-0.0969178
490,491,-0.0339355,0.0845947,-0.00104357,0.000506389,-0.000369019,0.000589761,-0.00112694,-1.3486,0.00100718,0.00975712,1714,533,-0.0339936,-0.0845907
497,491,-0.0412598,0.0688477,-0.000526929,0.000683721,-0.000620422,0.000945196,-0.000788404,-1.17194,0.00100226,0.0106742,1721,533,-0.041237,-0.0688223
504,491,-0.0478516,0.0723877,1.27536e-05,0.000601312,-0.000696305,0.00106297,-0.000448904,-0.985329,0.000896559,0.0121198,1728,533,-0.0478086,-0.0723955
511,491,-0.0557861,0.0974121,0.000705865,0.000655191,-0.000637308,0.00131834,4.27168e-05,-0.76553,0.000865005,0.0103753,1735,533,-0.0558417,-0.0974247
518,491,-0.0362549,0.0735474,0.0012867,0.000721559,-0.00061978,0.00168529,0.000322974,-0.571514,0.00103284,0.00808832,1742,533,-0.0362138,-0.0735657
525,491,-0.026001,0.055481,0.00176847,0.000805442,-0.000747433,0.00217606,0.000397848,-0.499247,0.00133796,0.00797857,1749,533,-0.0259577,-0.0554678
532,491,-0.0418701,0.0662842,0.00235845,0.000896433,-0.000798492,0.00271002,0.00054487,-0.414745,0.00165522,0.0117624,1756,533,-0.0418195,-0.0662812
539,491,-0.0401611,0.0785522,0.00322822,0.00116569,-0.000678064,0.00343117,0.000962744,-0.290817,0.00204358,0.019158,1763,533,-0.0401851,-0.0785258
546,491,0.0441895,-0.0133057,0.0043367,0.00169893,-0.000465323,0.00441638,0.00161925,-0.169591,0.00257985,0.0329508,1770,533,0.0441608,0.0133115
553,491,0.249634,-0.148926,0.00548689,0.00269898,-9.14691e-05,0.00548989,0.00269598,-0.0327622,0.00316976,0.0414921,1777,533,0.249604,0.148896
560,491,0.426392,-0.288757,0.00615986,0.00406338,0.00032432,0.00620888,0.00401436,0.150027,0.00363566,0.0436763,1784,533,0.426333,0.288743
567,491,0.611084,-0.509277,0,0,0,0,0,0,0,-1,1791,533,0.611054,0.509304
574,491,0.583374,-0.665955,0.0073513,0.00783207,0.000899254,0.00852251,0.00666085,0.916002,0.00517399,0.0438984,1798,533,0.583345,0.665972
581,491,0.392212,-0.464417,0.00707254,0.00993339,0.000690773,0.0100914,0.00691448,1.34585,0.00595801,0.0419707,1805,533,0.392218,0.464444
588,491,0.486084,0.026062,0,0,0,0,0,0,0,-1,1812,533,0.486044,-0.0260893
595,491,0,0,0,0,0,0,0,0,0,-1,1819,533,0,0
602,491,0,0,0,0,0,0,0,0,0,-1,1826,533,0,0
609,491,0,0,0,0,0,0,0,0,0,-1,1833,533,0,0
616,491,0,0,0,0,0,0,0,0,0,-1,1840,533,0,0
623,491,0,0,0,0,0,0,0,0,0,-1,1847,533,0,0
630,491,0,0,0,0,0,0,0,0,0,-1,1854,533,0,0
637,491,0,0,0,0,0,0,0,0,0,-1,1861,533,0,0
644,491,0,0,0,0,0,0,0,0,0,-1,1868,533,0,0
651,491,0,0,0,0,0,0,0,0,0,-1,1875,533,0,0
658,491,0,0,0,0,0,0,0,0,0,-1,1882,533,0,0
665,491,0,0,0,0,0,0,0,0,0,-1,1889,533,0,0
672,491,0,0,0,0,0,0,0,0,0,-1,1896,533,0,0
679,491,0,0,0,0,0,0,0,0,0,-1,1903,533,0,0
686,491,0,0,0,0,0,0,0,0,0,-1,1910,533,0,0
693,491,0,0,0,0,0,0,0,0,0,-1,1917,533,0,0
700,491,0,0,0,0,0,0,0,0,0,-1,1924,533,0,0
707,491,0,0,0,0,0,0,0,0,0,-1,1931,533,0,0
714,491,0,0,0,0,0,0,0,0,0,-1,1938,533,0,0
721,491,0,0,0,0,0,0,0,0,0,-1,1945,533,0,0
728,491,0,0,0,0,0,0,0,0,0,-1,1952,533,0,0
735,491,0,0,0,0,0,0,0,0,0,-1,1959,533,0,0
742,491,0,0,0,0,0,0,0,0,0,-1,1966,533,0,0
749,491,0,0,0,0,0,0,0,0,0,-1,1973,533,0,0
756,491,0,0,0,0,0,0,0,0,0,-1,1980,533,0,0
763,491,0,0,0,0,0,0,0,0,0,-1,1987,533,0,0
770,491,0,0,0,0,0,0,0,0,0,-1,1994,533,0,0
777,491,0,0,0,0,0,0,0,0,0,-1,2001,533,0,0
784,491,0,0,0,0,0,0,0,0,0,-1,2008,533,0,0
791,491,0,0,0,0,0,0,0,0,0,-1,2015,533,0,0
798,491,0,0,0,0,0,0,0,0,0,-1,2022,533,0,0
805,491,0,0,0,0,0,0,0,0,0,-1,2029,533,0,0
812,491,0,0,0,0,0,0,0,0,0,-1,2036,533,0,0
-700,484,0,0,0,0,0,0,0,0,0,-1,524,540,0,0
-693,484,0,0,0,0,0,0,0,0,0,-1,531,540,0,0
-686,484,0,0,0,0,0,0,0,0,0,-1,538,540,0,0
-679,484,0,0,0,0,0,0,0,0,0,-1,545,540,0,0
-672,484,0,0,0,0,0,0,0,0,0,-1,552,540,0,0
-665,484,0,0,0,0,0,0,0,0,0,-1,559,540,0,0
-658,484,0,0,0,0,0,0,0,0,0,-1,566,540,0,0
-651,484,0,0,0,0,0,0,0,0,0,-1,573,540,0,0
-644,484,0,0,0,0,0,0,0,0,0,-1,580,540,0,0
-637,484,0,0,0,0,0,0,0,0,0,-1,587,540,0,0
-630,484,0,0,0,0,0,0,0,0,0,-1,594,540,0,0
-623,484,0,0,0,0,0,0,0,0,0,-1,601,540,0,0
-616,484,0,0,0,0,0,0,0,0,0,-1,608,540,0,0
-609,484,0,0,0,0,0,0,0,0,0,-1,615,540,0,0
-602,484,0,0,0,0,0,0,0,0,0,-1,622,540,0,0
-595,484,0,0,0,0,0,0,0,0,0,-1,629,540,0,0
-588,484,0,0,0,0,0,0,0,0,0,-1,636,540,0,0
-581,484,0,0,0,0,0,0,0,0,0,-1,643,540,0,0
-574,484,0,0,0,0,0,0,0,0,0,-1,650,540,0,0
-567,484,0,0,0,0,0,0,0,0,0,-1,657,540,0,0
-560,484,0,0,0,0,0,0,0,0,0,-1,664,540,0,0
-553,484,0,0,0,0,0,0,0,0,0,-1,671,540,0,0
-546,484,0,0,0,0,0,0,0,0,0,-1,678,540,0,0
-539,484,0,0,0,0,0,0,0,0,0,-1,685,540,0,0
-532,484,0,0,0,0,0,0,0,0,0,-1,692,540,0,0
-525,484,0,0,0,0,0,0,0,0,0,-1,699,540,0,0
-518,484,0,0,0,0,0,0,0,0,0,-1,706,540,0,0
-511,484,0,0,0,0,0,0,0,0,0,-1,713,540,0,0
-504,484,0,0,0,0,0,0,0,0,0,-1,720,540,0,0
-497,484,0,0,0,0,0,0,0,0,0,-1,727,540,0,0
-490,484,0,0,0,0,0,0,0,0,0,-1,734,540,0,0
-483,484,0,0,0,0,0,0,0,0,0,-1,741,540,0,0
-476,484,2.35773,0.756714,-0.0227671,0.0190353,0.0762079,0.0771562,-0.080888,0.91924,0.0912554,0.0489196,748,540,2.35773,-0.756722
-469,484,1.34265,2.06042,-0.0172436,0.00838359,0.0613793,0.0582725,-0.0671326,0.888301,0.0724629,0.0445029,755,540,1.34265,-2.06042
-462,484,0.338318,3.46283,-0.00739236,0.0127271,0.0420259,0.0458805,-0.0405458,0.902873,0.0499299,0.0460381,762,540,0.33833,-3.46284
-455,484,-0.635925,4.85547,0,0,0,0,0,0,0,-1,769,540,-0.635926,-4.85545
-448,484,-0.0960083,-0.158142,0.00806355,0.0146997,0.0146864,0.0264382,-0.00367498,0.896496,0.0189695,0.0446354,776,540,-0.0959862,0.158159
-441,484,0.0901489,-0.0668945,0.0130008,0.0176933,0.00461649,0.0205255,0.0101685,1.0205,0.0118506,0.0449601,783,540,0.0901531,0.0668973
-434,484,0.320251,-0.0229492,0.0160916,0.0207411,-0.00292639,0.0221537,0.014679,-1.12106,0.0130139,0.0401082,790,540,0.32026,0.0229757
-427,484,0.296265,0.0635986,0.0186298,0.0245614,-0.00953392,0.0315802,0.011611,-0.936194,0.0184445,0.0350028,797,540,0.296236,-0.0636139
-420,484,0.0349731,0.0626831,0.0202211,0.0269132,-0.0138608,0.0378261,0.0093082,-0.903833,0.0227583,0.0271423,804,540,0.0349572,-0.0626877
-413,484,-0.0305176,0.111023,0.0206983,0.0271932,-0.01618,0.0404484,0.00744306,-0.884436,0.0248588,0.0161945,811,540,-0.0305378,-0.111033
-406,484,0.00518799,0.0819702,0.0197698,0.026272,-0.016432,0.0397714,0.00627037,-0.883064,0.024691,0.010315,818,540,0.00517946,-0.0819581
-399,484,-0.0150757,0.0645142,0.0162559,0.0258426,-0.0142156,0.0360512,0.00604725,-0.948007,0.0222935,0.0144322,825,540,-0.0150978,-0.0645414
-392,484,-0.0200806,0.0831909,0.0123593,0.0225054,-0.0112828,0.0298032,0.00506146,-0.996671,0.018415,0.0163459,832,540,-0.0200772,-0.0832076
-385,484,-0.0411377,0.074585,0.00931217,0.0192829,-0.00921745,0.0247768,0.00381827,-1.0333,0.0154037,0.0108703,839,540,-0.0411147,-0.0745768
-378,484,-0.0483398,0.0806885,0.00682085,0.0156757,-0.00714269,0.0196518,0.0028447,-1.06284,0.0122635,0.0109306,846,540,-0.0483529,-0.0806914
-371,484,-0.0392456,0.100403,0.00475487,0.0122057,-0.00508781,0.0147862,0.00217436,-1.10141,0.00921854,0.0133885,853,540,-0.0392692,-0.100405
-364,484,-0.0219116,0.118713,0.00292171,0.00887677,-0.0030283,0.0101462,0.00165232,-1.17387,0.00628614,0.0105313,860,540,-0.0218876,-0.118736
-357,484,-0.0131836,0.109253,0.000343258,0.00229689,0.000590589,0.00246155,0.000178599,1.2989,0.00158486,0.0113508,867,540,-0.0131964,-0.109228
-350,484,-0.0302734,0.101379,-0.00075068,0.00246403,0.00157224,0.00310512,-0.00139177,1.18362,0.00265836,0.0147311,874,540,-0.0302819,-0.101383
-343,484,-0.034729,0.101868,-0.000664085,0.0025468,0.00212869,0.00360759,-0.00172487,1.10849,0.00314201,0.0220011,881,540,-0.0347271,-0.10186
-336,484,-0.0123291,0.110718,-0.000597076,0.00247412,0.00224174,0.00365577,-0.00177873,1.08569,0.00319939,0.0247633,888,540,-0.0123187,-0.110696
-329,484,-0.083374,0.0987549,-0.000458772,0.00235599,0.0022679,0.00361772,-0.00172049,1.0631,0.00314623,0.025676,895,540,-0.0834003,-0.0987542
-322,484,-0.0543213,0.0817261,-7.03224e-05,0.00239869,0.00221432,0.00369939,-0.00137101,1.03969,0.00302853,0.0192021,902,540,-0.0543181,-0.081715
-315,484,-0.0369263,0.0726318,0.000407122,0.00246533,0.0020943,0.00376971,-0.000897259,1.01376,0.00285954,0.0183919,909,540,-0.0369453,-0.0726126
-308,484,0.0197144,0.0587158,0.00103696,0.00365517,0.00190376,0.00465649,3.56454e-05,1.08659,0.00309251,0.0321094,916,540,0.0197377,-0.0587451
-301,484,0.0258789,0.119873,0.0054604,0.00422995,0.00253089,0.00744977,0.00224058,0.666167,0.00441348,0.0413113,923,540,0.025869,-0.119889
-294,484,-0.0687256,0.165649,0,0,0,0,0,0,0,-1,930,540,-0.0687352,-0.165624
-287,484,-0.181091,1.0556,0.0127568,0.010331,0.00157289,0.0135301,0.0095577,0.456962,0.00803041,0.0402188,937,540,-0.181067,-1.05561
-280,484,-0.50769,0.39093,0.0172803,0.0135661,0.001426,0.0177646,0.0130818,0.327419,0.0106317,0.042261,944,540,-0.50766,-0.390903
-273,484,-0.441284,-0.0837402,0.0187262,0.0199482,-0.0011834,0.020669,0.0180053,-1.02371,0.0129829,0.0418154,951,540,-0.441307,0.0837689
-266,484,-0.308899,-0.0374146,0.0180174,0.0284823,-0.00435355,0.0300566,0.0164431,-1.22381,0.0173788,0.0418404,958,540,-0.308878,0.0374218
-259,484,-0.341248,0.650757,0.0141389,0.0386473,-0.00852153,0.0413189,0.0114673,-1.26698,0.02463,0.0458005,965,540,-0.341278,-0.650732
-252,484,0.0552368,0.847351,0,0,0,0,0,0,0,-1,972,540,0.0552388,-0.847369
-245,484,3.75006,2.92578,-0.00485603,0.0629917,-0.0210316,0.0689822,-0.0108466,-1.29331,0.0499974,0.0461113,979,540,3.75009,-2.92578
-238,484,2.67542,1.771,-0.0190936,0.0779247,-0.028738,0.0857982,-0.0269671,-1.30338,0.0679944,0.0423161,986,540,2.67541,-1.77098
-231,484,2.5965,0.298279,0,0,0,0,0,0,0,-1,993,540,2.5965,-0.298256
-224,484,1.63025,-0.619019,-0.0578934,0.107138,-0.041927,0.117179,-0.0679343,-1.33574,0.108128,0.0478036,1000,540,1.63025,0.619032
-217,484,0.537048,-1.45374,-0.0818003,0.118371,-0.0493474,0.129876,-0.0933046,-1.34176,0.129429,0.047445,1007,540,0.537039,1.45376
-210,484,0,0,0,0,0,0,0,0,0,-1,1014,540,0,0
-203,484,0,0,0,0,0,0,0,0,0,-1,1021,540,0,0
-196,484,0,0,0,0,0,0,0,0,0,-1,1028,540,0,0
-189,484,0,0,0,0,0,0,0,0,0,-1,1035,540,0,0
-182,484,0,0,0,0,0,0,0,0,0,-1,1042,540,0,0
-175,484,0,0,0,0,0,0,0,0,0,-1,1049,540,0,0
-168,484,0,0,0,0,0,0,0,0,0,-1,1056,540,0,0
-161,484,0,0,0,0,0,0,0,0,0,-1,1063,540,0,0
-154,484,0,0,0,0,0,0,0,0,0,-1,1070,540,0,0
-147,484,0,0,0,0,0,0,0,0,0,-1,1077,540,0,0
-140,484,0,0,0,0,0,0,0,0,0,-1,1084,540,0,0
-133,484,0,0,0,0,0,0,0,0,0,-1,1091,540,0,0
-126,484,0,0,0,0,0,0,0,0,0,-1,1098,540,0,0
-119,484,0,0,0,0,0,0,0,0,0,-1,1105,540,0,0
-112,484,0,0,0,0,0,0,0,0,0,-1,1112,540,0,0
-105,484,0,0,0,0,0,0,0,0,0,-1,1119,540,0,0
-98,484,0,0,0,0,0,0,0,0,0,-1,1126,540,0,0
-91,484,0,0,0,0,0,0,0,0,0,-1,1133,540,0,0
-84,484,0,0,0,0,0,0,0,0,0,-1,1140,540,0,0
-77,484,0,0,0,0,0,0,0,0,0,-1,1147,540,0,0
-70,484,0,0,0,0,0,0,0,0,0,-1,1154,540,0,0
-63,484,0,0,0,0,0,0,0,0,0,-1,1161,540,0,0
-56,484,0,0,0,0,0,0,0,0,0,-1,1168,540,0,0
-49,484,0,0,0,0,0,0,0,0,0,-1,1175,540,0,0
-42,484,0,0,0,0,0,0,0,0,0,-1,1182,540,0,0
-35,484,0,0,0,0,0,0,0,0,0,-1,1189,540,0,0
-28,484,0,0,0,0,0,0,0,0,0,-1,1196,540,0,0
-21,484,0,0,0,0,0,0,0,0,0,-1,1203,540,0,0
-14,484,0,0,0,0,0,0,0,0,0,-1,1210,540,0,0
-7,484,0,0,0,0,0,0,0,0,0,-1,1217,540,0,0
0,484,0,0,0,0,0,0,0,0,0,-1,1224,540,0,0
7,484,0,0,0,0,0,0,0,0,0,-1,1231,540,0,0
14,484,0,0,0,0,0,0,0,0,0,-1,1238,540,0,0
21,484,0,0,0,0,0,0,0,0,0,-1,1245,540,0,0
28,484,0,0,0,0,0,0,0,0,0,-1,1252,540,0,0
35,484,0,0,0,0,0,0,0,0,0,-1,1259,540,0,0
42,484,0,0,0,0,0,0,0,0,0,-1,1266,540,0,0
49,484,0,0,0,0,0,0,0,0,0,-1,1273,540,0,0
56,484,0,0,0,0,0,0,0,0,0,-1,1280,540,0,0
63,484,0,0,0,0,0,0,0,0,0,-1,1287,540,0,0
70,484,0,0,0,0,0,0,0,0,0,-1,1294,540,0,0
77,484,0,0,0,0,0,0,0,0,0,-1,1301,540,0,0
84,484,0,0,0,0,0,0,0,0,0,-1,1308,540,0,0
91,484,0,0,0,0,0,0,0,0,0,-1,1315,540,0,0
98,484,0,0,0,0,0,0,0,0,0,-1,1322,540,0,0
105,484,0,0,0,0,0,0,0,0,0,-1,1329,540,0,0
112,484,0,0,0,0,0,0,0,0,0,-1,1336,540,0,0
119,484,0,0,0,0,0,0,0,0,0,-1,1343,540,0,0
126,484,0,0,0,0,0,0,0,0,0,-1,1350,540,0,0
133,484,0,0,0,0,0,0,0,0,0,-1,1357,540,0,0
140,484,0,0,0,0,0,0,0,0,0,-1,1364,540,0,0
147,484,0,0,0,0,0,0,0,0,0,-1,1371,540,0,0
154,484,0,0,0,0,0,0,0,0,0,-1,1378,540,0,0
161,484,0,0,0,0,0,0,0,0,0,-1,1385,540,0,0
168,484,0,0,0,0,0,0,0,0,0,-1,1392,540,0,0
175,484,0,0,0,0,0,0,0,0,0,-1,1399,540,0,0
182,484,0,0,0,0,0,0,0,0,0,-1,1406,540,0,0
189,484,0,0,0,0,0,0,0,0,0,-1,1413,540,0,0
196,484,0,0,0,0,0,0,0,0,0,-1,1420,540,0,0
203,484,0,0,0,0,0,0,0,0,0,-1,1427,540,0,0
210,484,0,0,0,0,0,0,0,0,0,-1,1434,540,0,0
217,484,0,0,0,0,0,0,0,0,0,-1,1441,540,0,0
224,484,0,0,0,0,0,0,0,0,0,-1,1448,540,0,0
231,484,0,0,0,0,0,0,0,0,0,-1,1455,540,0,0
238,484,0,0,0,0,0,0,0,0,0,-1,1462,540,0,0
245,484,0,0,0,0,0,0,0,0,0,-1,1469,540,0,0
252,484,0,0,0,0,0,0,0,0,0,-1,1476,540,0,0
259,484,0,0,0,0,0,0,0,0,0,-1,1483,540,0,0
266,484,0,0,0,0,0,0,0,0,0,-1,1490,540,0,0
273,484,0,0,0,0,0,0,0,0,0,-1,1497,540,0,0
280,484,0,0,0,0,0,0,0,0,0,-1,1504,540,0,0
287,484,0,0,0,0,0,0,0,0,0,-1,1511,540,0,0
294,484,0,0,0,0,0,0,0,0,0,-1,1518,540,0,0
301,484,0,0,0,0,0,0,0,0,0,-1,1525,540,0,0
308,484,0,0,0,0,0,0,0,0,0,-1,1532,540,0,0
315,484,0,0,0,0,0,0,0,0,0,-1,1539,540,0,0
322,484,0,0,0,0,0,0,0,0,0,-1,1546,540,0,0
329,484,0,0,0,0,0,0,0,0,0,-1,1553,540,0,0
336,484,0.562256,-2.99243,0,0,0,0,0,0,0,-1,1560,540,0.562284,2.99242
343,484,0.348267,-2.20715,0,0,0,0,0,0,0,-1,1567,540,0.34828,2.20715
350,484,-0.784424,0.155273,-0.00314119,0.0225499,-0.00839745,0.0250512,-0.00564248,-1.2813,0.018865,0.0461595,1574,540,-0.784438,-0.155303
357,484,-0.134155,-0.22583,0,0,0,0,0,0,0,-1,1581,540,-0.134186,0.225834
364,484,-0.973877,1.83746,0,0,0,0,0,0,0,-1,1588,540,-0.97383,-1.83748
371,484,-0.919922,1.71259,0.0108781,-0.00384918,-0.00326604,0.0115699,-0.00454099,-0.208733,0.00959216,0.0420039,1595,540,-0.919958,-1.71258
378,484,-0.841675,1.47998,0.013217,-0.00859325,-0.00321181,0.0136802,-0.00905639,-0.143212,0.0132171,0.0401195,1602,540,-0.841693,-1.47998
385,484,-1.08521,1.2724,0.0143722,-0.0111838,-0.00339802,0.0148163,-0.0116279,-0.129956,0.0153045,0.0437041,1609,540,-1.08519,-1.27241
392,484,-1.28284,1.18262,0,0,0,0,0,0,0,-1,1616,540,-1.28288,-1.18264
399,484,-1.51477,1.26251,0,0,0,0,0,0,0,-1,1623,540,-1.51474,-1.26251
406,484,-1.64929,1.18329,0,0,0,0,0,0,0,-1,1630,540,-1.64933,-1.18328
413,484,-0.977417,0.601501,0.00994943,-0.0056837,-0.00480344,0.0113074,-0.00704165,-0.275514,0.0106888,0.0466482,1637,540,-0.977441,-0.601493
420,484,-0.375244,0.241577,0.00953665,-0.00315205,-0.00450911,0.0109758,-0.0045912,-0.308945,0.00923614,0.041423,1644,540,-0.375293,-0.241597
427,484,0.213379,0.115906,0.00888575,-0.000637055,-0.00428319,0.0105288,-0.00228008,-0.366287,0.0078898,0.0431964,1651,540,0.213412,-0.115876
434,484,0.366699,0.126892,0.00760336,0.000748286,-0.00357084,0.00912546,-0.000773812,-0.402936,0.0063573,0.0445771,1658,540,0.366721,-0.126864
441,484,0.168945,-0.0258179,0.00614376,0.0014123,-0.00308092,0.00766245,-0.000106389,-0.45798,0.00514413,0.040381,1665,540,0.16898,0.0257874
448,484,-0.0300293,0.0658569,0.00409922,0.00143233,-0.00247002,0.00557274,-4.1194e-05,-0.537888,0.00372896,0.0288744,1672,540,-0.0300251,-0.065877
455,484,-0.0506592,0.0880737,0.00247065,0.00133213,-0.0019596,0.003942,-0.000139218,-0.644039,0.00267561,0.0158326,1679,540,-0.0506537,-0.088062
462,484,-0.0454102,0.0766602,0.00119738,0.00103689,-0.0014662,0.00258553,-0.00035126,-0.75806,0.00185191,0.0119486,1686,540,-0.0454347,-0.0766484
469,484,-0.0419922,0.0646973,3.90055e-06,0.000811148,-0.000718305,0.00123146,-0.000416414,-1.04137,0.000989433,0.0146118,1693,540,-0.0420527,-0.0646775
476,484,-0.0408936,0.0657349,-0.000821096,0.0006365,-0.000227791,0.00067127,-0.000855865,-1.41933,0.000883836,0.0143506,1700,540,-0.0408798,-0.0657434
483,484,-0.0374756,0.0720825,-0.00123237,0.000449676,-4.11028e-05,0.00045068,-0.00123337,-1.54638,0.00100668,0.0108791,1707,540,-0.0374742,-0.0720533
490,484,-0.0283203,0.071167,-0.00104016,0.000264576,-8.89323e-05,0.00027061,-0.00104619,-1.50305,0.00080301,0.0108262,1714,540,-0.0283465,-0.0711415
497,484,-0.0383301,0.0608521,-0.000462698,0.00036886,-0.000391861,0.00052442,-0.000618257,-1.1929,0.000660466,0.012405,1721,540,-0.0383371,-0.0608374
504,484,-0.0559082,0.0563965,5.15926e-05,0.000105764,-0.000513843,0.000593235,-0.000435878,-0.81173,0.000596469,0.0138281,1728,540,-0.0559452,-0.0563948
511,484,-0.0494385,0.0894775,0.00067579,4.05771e-05,-0.000502159,0.000952353,-0.000235986,-0.503417,0.000726454,0.0157254,1735,540,-0.0494633,-0.0894978
518,484,-0.0336914,0.0736084,0.00114223,6.31124e-07,-0.000511255,0.00133772,-0.000194855,-0.365212,0.000963356,0.0136561,1742,540,-0.0337421,-0.0735878
525,484,-0.0310059,0.0541382,0.00150443,-2.80782e-05,-0.000642942,0.00173843,-0.000262084,-0.349058,0.00125547,0.0122575,1749,540,-0.0309969,-0.0541398
532,484,-0.0471191,0.071106,0.00196644,-7.21222e-05,-0.000681725,0.00217341,-0.000279089,-0.294749,0.00155036,0.0141055,1756,540,-0.0470717,-0.0710858
539,484,-0.065918,0.0955811,0.00268323,3.92523e-05,-0.000576831,0.0028036,-8.11141e-05,-0.205716,0.00189668,0.018035,1763,540,-0.0659319,-0.0955557
546,484,-0.0440674,0.0825195,0.003688,0.000322544,-0.000370478,0.0037283,0.000282243,-0.108354,0.002397,0.0208304,1770,540,-0.0440706,-0.0825349
553,484,0.0394287,0.0352783,0.00472797,0.00103763,-1.17038e-05,0.00472801,0.00103759,-0.00317143,0.00286937,0.0331386,1777,540,0.0393796,-0.0352494
560,484,0.243774,0.0862427,0.00529676,0.00216753,0.000407487,0.00534895,0.00211534,0.12739,0.00311063,0.0404924,1784,540,0.243812,-0.0862243
567,484,1.45007,-0.55835,0,0,0,0,0,0,0,-1,1791,540,1.45004,0.558373
574,484,0.980469,-0.675293,0,0,0,0,0,0,0,-1,1798,540,0.980498,0.675308
581,484,1.12659,-0.482788,0,0,0,0,0,0,0,-1,1805,540,1.12657,0.482763
588,484,1.50183,0.180359,0,0,0,0,0,0,0,-1,1812,540,1.50178,-0.180369
595,484,0.62561,0.58728,0,0,0,0,0,0,0,-1,1819,540,0.625651,-0.58729
602,484,0,0,0,0,0,0,0,0,0,-1,1826,540,0,0
609,484,0,0,0,0,0,0,0,0,0,-1,1833,540,0,0
616,484,0,0,0,0,0,0,0,0,0,-1,1840,540,0,0
623,484,0,0,0,0,0,0,0,0,0,-1,1847,540,0,0
630,484,0,0,0,0,0,0,0,0,0,-1,1854,540,0,0
637,484,0,0,0,0,0,0,0,0,0,-1,1861,540,0,0
644,484,0,0,0,0,0,0,0,0,0,-1,1868,540,0,0
651,484,0,0,0,0,0,0,0,0,0,-1,1875,540,0,0
658,484,0,0,0,0,0,0,0,0,0,-1,1882,540,0,0
665,484,0,0,0,0,0,0,0,0,0,-1,1889,540,0,0
672,484,0,0,0,0,0,0,0,0,0,-1,1896,540,0,0
679,484,0,0,0,0,0,0,0,0,0,-1,1903,540,0,0
686,484,0,0,0,0,0,0,0,0,0,-1,1910,540,0,0
693,484,0,0,0,0,0,0,0,0,0,-1,1917,540,0,0
700,484,0,0,0,0,0,0,0,0,0,-1,1924,540,0,0
707,484,0,0,0,0,0,0,0,0,0,-1,1931,540,0,0
714,484,0,0,0,0,0,0,0,0,0,-1,1938,540,0,0
721,484,0,0,0,0,0,0,0,0,0,-1,1945,540,0,0
728,484,0,0,0,0,0,0,0,0,0,-1,1952,540,0,0
735,484,0,0,0,0,0,0,0,0,0,-1,1959,540,0,0
742,484,0,0,0,0,0,0,0,0,0,-1,1966,540,0,0
749,484,0,0,0,0,0,0,0,0,0,-1,1973,540,0,0
756,484,0,0,0,0,0,0,0,0,0,-1,1980,540,0,0
763,484,0,0,0,0,0,0,0,0,0,-1,1987,540,0,0
770,484,0,0,0,0,0,0,0,0,0,-1,1994,540,0,0
777,484,0,0,0,0,0,0,0,0,0,-1,2001,540,0,0
784,484,0,0,0,0,0,0,0,0,0,-1,2008,540,0,0
791,484,0,0,0,0,0,0,0,0,0,-1,2015,540,0,0
798,484,0,0,0,0,0,0,0,0,0,-1,2022,540,0,0
805,484,0,0,0,0,0,0,0,0,0,-1,2029,540,0,0
812,484,0,0,0,0,0,0,0,0,0,-1,2036,540,0,0
-700,477,0,0,0,0,0,0,0,0,0,-1,524,547,0,0
-693,477,0,0,0,0,0,0,0,0,0,-1,531,547,0,0
-686,477,0,0,0,0,0,0,0,0,0,-1,538,547,0,0
-679,477,0,0,0,0,0,0,0,0,0,-1,545,547,0,0
-672,477,0,0,0,0,0,0,0,0,0,-1,552,547,0,0
-665,477,0,0,0,0,0,0,0,0,0,-1,559,547,0,0
-658,477,0,0,0,0,0,0,0,0,0,-1,566,547,0,0
-651,477,0,0,0,0,0,0,0,0,0,-1,573,547,0,0
-644,477,0,0,0,0,0,0,0,0,0,-1,580,547,0,0
-637,477,0,0,0,0,0,0,0,0,0,-1,587,547,0,0
-630,477,0,0,0,0,0,0,0,0,0,-1,594,547,0,0
-623,477,0,0,0,0,0,0,0,0,0,-1,601,547,0,0
-616,477,0,0,0,0,0,0,0,0,0,-1,608,547,0,0
-609,477,0,0,0,0,0,0,0,0,0,-1,615,547,0,0
-602,477,0,0,0,0,0,0,0,0,0,-1,622,547,0,0
-595,477,0,0,0,0,0,0,0,0,0,-1,629,547,0,0
-588,477,0,0,0,0,0,0,0,0,0,-1,636,547,0,0
-581,477,0,0,0,0,0,0,0,0,0,-1,643,547,0,0
-574,477,0,0,0,0,0,0,0,0,0,-1,650,547,0,0
-567,477,0,0,0,0,0,0,0,0,0,-1,657,547,0,0
-560,477,0,0,0,0,0,0,0,0,0,-1,664,547,0,0
-553,477,0,0,0,0,0,0,0,0,0,-1,671,547,0,0
-546,477,0,0,0,0,0,0,0,0,0,-1,678,547,0,0
-539,477,0,0,0,0,0,0,0,0,0,-1,685,547,0,0
-532,477,0,0,0,0,0,0,0,0,0,-1,692,547,0,0
-525,477,0,0,0,0,0,0,0,0,0,-1,699,547,0,0
-518,477,0,0,0,0,0,0,0,0,0,-1,706,547,0,0
-511,477,0,0,0,0,0,0,0,0,0,-1,713,547,0,0
-504,477,0,0,0,0,0,0,0,0,0,-1,720,547,0,0
-497,477,0,0,0,0,0,0,0,0,0,-1,727,547,0,0
-490,477,0,0,0,0,0,0,0,0,0,-1,734,547,0,0
-483,477,2.99994,-1.46075,-0.0207577,0.0351213,0.0799421,0.0918657,-0.077502,0.953511,0.0979016,0.0447254,741,547,2.99993,1.46072
-476,477,2.12262,0.280884,-0.018365,0.0240722,0.0669206,0.0730576,-0.0673504,0.93892,0.0810869,0.0429391,748,547,2.12262,-0.280881
-469,477,1.13959,1.61554,-0.0147588,0.0145925,0.0542345,0.0561019,-0.0562681,0.917532,0.0648769,0.0411851,755,547,1.13956,-1.61551
-462,477,0.184082,3.05945,-0.00795609,0.0160318,0.0384629,0.0443275,-0.0362517,0.936536,0.0466002,0.0444431,762,547,0.184086,-3.05945
-455,477,-0.712646,4.34668,0,0,0,0,0,0,0,-1,769,547,-0.71263,-4.34667
-448,477,0.0758057,0.0263062,0.00369788,0.0147489,0.0150143,0.0252221,-0.00677536,0.961715,0.0194702,0.0450729,776,547,0.0758172,-0.0263199
-441,477,0.0646362,-0.00360107,0.0076203,0.0158737,0.00623499,0.0192239,0.00427005,1.07773,0.0116563,0.0423891,783,547,0.0646559,0.00362626
-434,477,0.0136719,0.00323486,0.0100134,0.017211,-0.000292619,0.0172229,0.0100016,-1.53023,0.00998674,0.0327924,790,547,0.0136649,-0.0032105
-427,477,-0.0284424,0.0113525,0.0122066,0.0196973,-0.00610112,0.0231109,0.00879296,-1.06068,0.0134696,0.0165499,797,547,-0.0284305,-0.0113283
-420,477,-0.0531006,0.0474243,0.0138588,0.0208266,-0.0100807,0.0280084,0.00667697,-0.951775,0.0168924,0.0149885,804,547,-0.0530785,-0.0474144
-413,477,-0.0466919,0.0911255,0.0146444,0.0206333,-0.0123371,0.0303341,0.00494355,-0.904455,0.0187929,0.0140378,811,547,-0.0467131,-0.0911471
-406,477,-0.0289917,0.0725708,0.0142451,0.0196658,-0.0127591,0.0299992,0.00391165,-0.890055,0.0188315,0.00948371,818,547,-0.0290026,-0.0726005
-399,477,-0.0151978,0.0487061,0.0116771,0.0191695,-0.0110416,0.0270831,0.00376357,-0.948945,0.0169408,0.015875,825,547,-0.0152095,-0.0486769
-392,477,-0.022583,0.06073,0.00873894,0.01651,-0.00873062,0.0221807,0.00306825,-0.994761,0.0138779,0.016806,832,547,-0.0225669,-0.0607559
-385,477,-0.0318604,0.0864868,0.0064445,0.013956,-0.0071352,0.0182635,0.00213695,-1.02766,0.0115296,0.0130412,839,547,-0.0318812,-0.0865156
-378,477,-0.032959,0.0869751,0.0046086,0.0111394,-0.00550558,0.0142751,0.0014729,-1.05307,0.00906577,0.010814,846,547,-0.0329798,-0.0869817
-371,477,-0.0464478,0.103882,0.00309494,0.00848931,-0.00377798,0.0104341,0.00115015,-1.0954,0.00660614,0.0120618,853,547,-0.046438,-0.103856
-364,477,-0.0477905,0.117615,0.00172186,0.00603614,-0.00207522,0.00687229,0.000885712,-1.18777,0.00431669,0.0126384,860,547,-0.0477943,-0.117587
-357,477,-0.0457153,0.101257,-0.000110929,0.00138025,0.000811481,0.00173666,-0.00046734,1.15695,0.00134098,0.00983201,867,547,-0.0456848,-0.101244
-350,477,-0.0502319,0.0936279,-0.000902904,0.00176672,0.00189606,0.00275069,-0.00188688,1.0921,0.00269294,0.00995818,874,547,-0.0502383,-0.093655
-343,477,-0.0410156,0.0979614,-0.000810207,0.00220491,0.00271706,0.00380463,-0.00240992,1.03868,0.00361797,0.0180403,881,547,-0.0410123,-0.0979707
-336,477,-0.0506592,0.0849609,-0.000695241,0.00250305,0.00293157,0.00424327,-0.00243546,1.03509,0.00390277,0.02099,888,547,-0.0506658,-0.0849386
-329,477,-0.0693359,0.0587158,-0.000503599,0.00276181,0.00305612,0.00459401,-0.00233581,1.03073,0.00407113,0.0239177,895,547,-0.0693401,-0.0587032
-322,477,-0.0697021,0.0488892,-1.82703e-05,0.00310306,0.00305463,0.00497262,-0.00188782,1.02157,0.00409217,0.0281829,902,547,-0.0696894,-0.0488657
-315,477,-0.0324707,0.100281,0.000612989,0.00352332,0.00295412,0.00536123,-0.00122492,1.01425,0.00404476,0.0361954,909,547,-0.0324954,-0.100255
-308,477,0.268188,0.156555,0.00144429,0.00488384,0.00269874,0.00636419,-3.60624e-05,1.06908,0.00425487,0.0406012,916,547,0.268202,-0.156527
-301,477,0.15918,0.130371,0,0,0,0,0,0,0,-1,923,547,0.159208,-0.13039
-294,477,-0.22583,0.887756,0.0108925,0.00829071,0.00313722,0.0129879,0.00619537,0.588854,0.00750119,0.042981,930,547,-0.225807,-0.88778
-287,477,-0.443176,0.877686,0.0144478,0.0127962,0.00156491,0.0153914,0.0118526,0.542617,0.00930833,0.0418135,937,547,-0.443166,-0.877699
-280,477,-0.454834,0.346619,0.0197163,0.0169435,0.000957147,0.0200146,0.0166452,0.302123,0.0123738,0.0431693,944,547,-0.454833,-0.346635
-273,477,-0.239502,-0.0637207,0.0212077,0.024725,-0.0023929,0.025936,0.0199967,-1.1023,0.0156902,0.0417977,951,547,-0.239492,0.0637185
-266,477,-0.128662,-0.282654,0.0198764,0.0352063,-0.00660067,0.0376567,0.017426,-1.21533,0.0217612,0.0435388,958,547,-0.128641,0.282628
-259,477,-0.0321045,-0.0605469,0.0150177,0.0478347,-0.0119472,0.0517234,0.011129,-1.25612,0.0314362,0.0490248,965,547,-0.0321293,0.0605404
-252,477,0.390503,0.102722,0,0,0,0,0,0,0,-1,972,547,0.390478,-0.102698
-245,477,1.84277,2.32336,-0.0066816,0.0783125,-0.0279144,0.0866604,-0.0150295,-1.28021,0.0633803,0.046741,979,547,1.84278,-2.32334
-238,477,2.23438,0.92041,-0.022558,0.0977953,-0.0380274,0.108804,-0.0335663,-1.28901,0.0859382,0.0444531,986,547,2.23435,-0.920395
-231,477,2.40033,-0.503723,0,0,0,0,0,0,0,-1,993,547,2.40035,0.503731
-224,477,0,0,0,0,0,0,0,0,0,-1,1000,547,0,0
-217,477,0,0,0,0,0,0,0,0,0,-1,1007,547,0,0
-210,477,0,0,0,0,0,0,0,0,0,-1,1014,547,0,0
-203,477,0,0,0,0,0,0,0,0,0,-1,1021,547,0,0
-196,477,0,0,0,0,0,0,0,0,0,-1,1028,547,0,0
-189,477,0,0,0,0,0,0,0,0,0,-1,1035,547,0,0
-182,477,0,0,0,0,0,0,0,0,0,-1,1042,547,0,0
-175,477,0,0,0,0,0,0,0,0,0,-1,1049,547,0,0
-168,477,0,0,0,0,0,0,0,0,0,-1,1056,547,0,0
-161,477,0,0,0,0,0,0,0,0,0,-1,1063,547,0,0
-154,477,0,0,0,0,0,0,0,0,0,-1,1070,547,0,0
-147,477,0,0,0,0,0,0,0,0,0,-1,1077,547,0,0
-140,477,0,0,0,0,0,0,0,0,0,-1,1084,547,0,0
-133,477,0,0,0,0,0,0,0,0,0,-1,1091,547,0,0
-126,477,0,0,0,0,0,0,0,0,0,-1,1098,547,0,0
-119,477,0,0,0,0,0,0,0,0,0,-1,1105,547,0,0
-112,477,0,0,0,0,0,0,0,0,0,-1,1112,547,0,0
-105,477,0,0,0,0,0,0,0,0,0,-1,1119,547,0,0
-98,477,0,0,0,0,0,0,0,0,0,-1,1126,547,0,0
-91,477,0,0,0,0,0,0,0,0,0,-1,1133,547,0,0
-84,477,0,0,0,0,0,0,0,0,0,-1,1140,547,0,0
-77,477,0,0,0,0,0,0,0,0,0,-1,1147,547,0,0
-70,477,0,0,0,0,0,0,0,0,0,-1,1154,547,0,0
-63,477,0,0,0,0,0,0,0,0,0,-1,1161,547,0,0
-56,477,0,0,0,0,0,0,0,0,0,-1,1168,547,0,0
-49,477,0,0,0,0,0,0,0,0,0,-1,1175,547,0,0
-42,477,0,0,0,0,0,0,0,0,0,-1,1182,547,0,0
-35,477,0,0,0,0,0,0,0,0,0,-1,1189,547,0,0
-28,477,0,0,0,0,0,0,0,0,0,-1,1196,547,0,0
-21,477,0,0,0,0,0,0,0,0,0,-1,1203,547,0,0
-14,477,0,0,0,0,0,0,0,0,0,-1,1210,547,0,0
-7,477,0,0,0,0,0,0,0,0,0,-1,1217,547,0,0
0,477,0,0,0,0,0,0,0,0,0,-1,1224,547,0,0
7,477,0,0,0,0,0,0,0,0,0,-1,1231,547,0,0
14,477,0,0,0,0,0,0,0,0,0,-1,1238,547,0,0
21,477,0,0,0,0,0,0,0,0,0,-1,1245,547,0,0
28,477,0,0,0,0,0,0,0,0,0,-1,1252,547,0,0
35,477,0,0,0,0,0,0,0,0,0,-1,1259,547,0,0
42,477,0,0,0,0,0,0,0,0,0,-1,1266,547,0,0
49,477,0,0,0,0,0,0,0,0,0,-1,1273,547,0,0
56,477,0,0,0,0,0,0,0,0,0,-1,1280,547,0,0
63,477,0,0,0,0,0,0,0,0,0,-1,1287,547,0,0
70,477,0,0,0,0,0,0,0,0,0,-1,1294,547,0,0
77,477,0,0,0,0,0,0,0,0,0,-1,1301,547,0,0
84,477,0,0,0,0,0,0,0,0,0,-1,1308,547,0,0
91,477,0,0,0,0,0,0,0,0,0,-1,1315,547,0,0
98,477,0,0,0,0,0,0,0,0,0,-1,1322,547,0,0
105,477,0,0,0,0,0,0,0,0,0,-1,1329,547,0,0
112,477,0,0,0,0,0,0,0,0,0,-1,1336,547,0,0
119,477,0,0,0,0,0,0,0,0,0,-1,1343,547,0,0
126,477,0,0,0,0,0,0,0,0,0,-1,1350,547,0,0
133,477,0,0,0,0,0,0,0,0,0,-1,1357,547,0,0
140,477,0,0,0,0,0,0,0,0,0,-1,1364,547,0,0
147,477,0,0,0,0,0,0,0,0,0,-1,1371,547,0,0
154,477,0,0,0,0,0,0,0,0,0,-1,1378,547,0,0
161,477,0,0,0,0,0,0,0,0,0,-1,1385,547,0,0
168,477,0,0,0,0,0,0,0,0,0,-1,1392,547,0,0
175,477,0,0,0,0,0,0,0,0,0,-1,1399,547,0,0
182,477,0,0,0,0,0,0,0,0,0,-1,1406,547,0,0
189,477,0,0,0,0,0,0,0,0,0,-1,1413,547,0,0
196,477,0,0,0,0,0,0,0,0,0,-1,1420,547,0,0
203,477,0,0,0,0,0,0,0,0,0,-1,1427,547,0,0
210,477,0,0,0,0,0,0,0,0,0,-1,1434,547,0,0
217,477,0,0,0,0,0,0,0,0,0,-1,1441,547,0,0
224,477,0,0,0,0,0,0,0,0,0,-1,1448,547,0,0
231,477,0,0,0,0,0,0,0,0,0,-1,1455,547,0,0
238,477,0,0,0,0,0,0,0,0,0,-1,1462,547,0,0
245,477,0,0,0,0,0,0,0,0,0,-1,1469,547,0,0
252,477,0,0,0,0,0,0,0,0,0,-1,1476,547,0,0
259,477,0,0,0,0,0,0,0,0,0,-1,1483,547,0,0
266,477,0,0,0,0,0,0,0,0,0,-1,1490,547,0,0
273,477,0,0,0,0,0,0,0,0,0,-1,1497,547,0,0
280,477,0,0,0,0,0,0,0,0,0,-1,1504,547,0,0
287,477,0,0,0,0,0,0,0,0,0,-1,1511,547,0,0
294,477,0,0,0,0,0,0,0,0,0,-1,1518,547,0,0
301,477,0,0,0,0,0,0,0,0,0,-1,1525,547,0,0
308,477,0,0,0,0,0,0,0,0,0,-1,1532,547,0,0
315,477,0,0,0,0,0,0,0,0,0,-1,1539,547,0,0
322,477,0,0,0,0,0,0,0,0,0,-1,1546,547,0,0
329,477,0,0,0,0,0,0,0,0,0,-1,1553,547,0,0
336,477,0,0,0,0,0,0,0,0,0,-1,1560,547,0,0
343,477,0,0,0,0,0,0,0,0,0,-1,1567,547,0,0
350,477,-0.465942,0.0601196,0,0,0,0,0,0,0,-1,1574,547,-0.465889,-0.0600893
357,477,-0.114258,-0.141602,0,0,0,0,0,0,0,-1,1581,547,-0.114211,0.141587
364,477,-1.14514,2.28644,0,0,0,0,0,0,0,-1,1588,547,-1.1452,-2.28643
371,477,-1.10193,2.18286,0.0151506,0.00104354,-0.00688756,0.0179556,-0.00176146,-0.386747,0.0125987,0.0481092,1595,547,-1.10198,-2.18287
378,477,-1.07361,1.94958,0.0170307,-0.00480036,-0.00633927,0.018738,-0.00650764,-0.263075,0.015135,0.0453751,1602,547,-1.07364,-1.9496
385,477,-1.47034,1.66608,0,0,0,0,0,0,0,-1,1609,547,-1.47038,-1.66606
392,477,0.207153,0.608398,0,0,0,0,0,0,0,-1,1616,547,0.20712,-0.608395
399,477,-1.32495,0.739136,0,0,0,0,0,0,0,-1,1623,547,-1.32497,-0.739119
406,477,-1.09204,0.783386,0,0,0,0,0,0,0,-1,1630,547,-1.09201,-0.783381
413,477,-0.625732,0.483887,0.0118516,-0.00347373,-0.00652129,0.0142509,-0.00587306,-0.352551,0.0119495,0.0475872,1637,547,-0.625687,-0.483875
420,477,-0.233521,0.215027,0.0110469,-0.00116687,-0.00595707,0.0134712,-0.00359114,-0.386489,0.0103869,0.0381983,1644,547,-0.23349,-0.215013
427,477,0.254272,0.163879,0.0100229,0.00109067,-0.00546951,0.0126181,-0.00150449,-0.443022,0.00895578,0.0392356,1651,547,0.254307,-0.163896
434,477,0.567505,0.21759,0.00833236,0.00217398,-0.00442813,0.0106467,-0.000140321,-0.481592,0.00714501,0.0442142,1658,547,0.567523,-0.217613
441,477,0.39856,0.191467,0.00653004,0.00251142,-0.00362634,0.00866653,0.000374932,-0.53241,0.00565685,0.0451351,1665,547,0.398535,-0.191452
448,477,-0.0463867,0.0436401,0.00422576,0.00218642,-0.00270629,0.00609811,0.000314075,-0.605234,0.00396486,0.04151,1672,547,-0.0463307,-0.0436316
455,477,-0.0118408,0.0505981,0.00248011,0.00185368,-0.00195062,0.0041425,0.000191289,-0.705793,0.00270016,0.0328495,1679,547,-0.0117948,-0.0505984
462,477,-0.0330811,0.0808716,0.00121816,0.00139505,-0.00128512,0.00259476,1.84458e-05,-0.819754,0.00172373,0.0197907,1686,547,-0.0330464,-0.0808882
469,477,-0.0432129,0.0742188,5.52952e-05,0.000986408,-0.000397333,0.00113291,-9.12078e-05,-1.21755,0.000787439,0.013629,1693,547,-0.0431895,-0.0742031
476,477,-0.0341797,0.0727539,-0.000809386,0.000702513,0.000168381,0.000721039,-0.000827911,1.46121,0.000894996,0.0137608,1700,547,-0.0342219,-0.0727309
483,477,-0.0401611,0.057312,-0.0012375,0.000448948,0.000396975,0.000537719,-0.00132627,1.3508,0.00110781,0.00979692,1707,547,-0.0401727,-0.0573172
490,477,-0.0446777,0.0704346,-0.000992915,0.000199163,0.000360326,0.000299613,-0.00109336,1.29892,0.000846641,0.0102416,1714,547,-0.0446781,-0.0704308
497,477,-0.0440674,0.0726318,-0.000327753,0.000279078,4.32104e-05,0.000282139,-0.000330814,1.50007,0.000354261,0.0126709,1721,547,-0.0440907,-0.0726152
504,477,-0.055542,0.0717773,0.000203809,-0.000104816,-0.000102777,0.000234903,-0.00013591,-0.293782,0.000216617,0.0162283,1728,547,-0.0555201,-0.0718063
511,477,-0.0354004,0.0933838,0.000783683,-0.000244948,-0.000122679,0.000798112,-0.000259376,-0.117076,0.000636403,0.0202859,1735,547,-0.0354536,-0.0933667
518,477,-0.00891113,0.0941772,0.00118392,-0.00036891,-0.000148353,0.00119797,-0.000382957,-0.0943994,0.00095232,0.0189522,1742,547,-0.00889744,-0.0941632
525,477,-0.0238037,0.0606079,0.00145942,-0.000479856,-0.000280755,0.00149925,-0.000519684,-0.140919,0.0012105,0.0171602,1749,547,-0.0237708,-0.060626
532,477,-0.038208,0.0494385,0.00181526,-0.000623927,-0.000318767,0.00185623,-0.000664897,-0.127826,0.00150877,0.0195815,1756,547,-0.0381852,-0.0494224
539,477,-0.0524902,0.0874023,0.00240814,-0.000621273,-0.000259046,0.00243013,-0.000643264,-0.0846909,0.00187173,0.0161983,1763,547,-0.052543,-0.0873812
546,477,-0.0457764,0.0653076,0.00330757,-0.000520254,-8.43907e-05,0.00330943,-0.000522114,-0.0220324,0.00239933,0.0175285,1770,547,-0.0457453,-0.0652997
553,477,-0.0339355,0.0792847,0.00424819,-2.48483e-05,0.000249457,0.0042627,-3.93621e-05,0.0581161,0.00285501,0.0155293,1777,547,-0.033939,-0.0793036
560,477,0.0355225,0.121582,0.00470188,0.000876209,0.000665406,0.00481431,0.000763778,0.167385,0.00298767,0.0276734,1784,547,0.0355582,-0.121587
567,477,0.197754,0.161011,0.00533372,0.00173216,0.000995341,0.00559049,0.00147539,0.252468,0.00334546,0.0371469,1791,547,0.197739,-0.161
574,477,1.37585,-0.805298,0,0,0,0,0,0,0,-1,1798,547,1.37583,0.805299
581,477,0.84668,-0.0657349,0,0,0,0,0,0,0,-1,1805,547,0.846713,0.0657335
588,477,0.680054,0.535522,0,0,0,0,0,0,0,-1,1812,547,0.680077,-0.535496
595,477,0.383423,0.15332,0.00603981,0.00544282,0.000581209,0.00639469,0.00508794,0.548175,0.00390119,0.0433117,1819,547,0.38346,-0.153291
602,477,0.482788,0.24054,0.00577609,0.00589368,-0.000250056,0.00609176,0.00557801,-0.90086,0.00390122,0.0421457,1826,547,0.482753,-0.240527
609,477,0,0,0,0,0,0,0,0,0,-1,1833,547,0,0
616,477,0,0,0,0,0,0,0,0,0,-1,1840,547,0,0
623,477,0,0,0,0,0,0,0,0,0,-1,1847,547,0,0
630,477,0,0,0,0,0,0,0,0,0,-1,1854,547,0,0
637,477,0,0,0,0,0,0,0,0,0,-1,1861,547,0,0
644,477,0,0,0,0,0,0,0,0,0,-1,1868,547,0,0
651,477,0,0,0,0,0,0,0,0,0,-1,1875,547,0,0
658,477,0,0,0,0,0,0,0,0,0,-1,1882,547,0,0
665,477,0,0,0,0,0,0,0,0,0,-1,1889,547,0,0
672,477,0,0,0,0,0,0,0,0,0,-1,1896,547,0,0
679,477,0,0,0,0,0,0,0,0,0,-1,1903,547,0,0
686,477,0,0,0,0,0,0,0,0,0,-1,1910,547,0,0
693,477,0,0,0,0,0,0,0,0,0,-1,1917,547,0,0
700,477,0,0,0,0,0,0,0,0,0,-1,1924,547,0,0
707,477,0,0,0,0,0,0,0,0,0,-1,1931,547,0,0
714,477,0,0,0,0,0,0,0,0,0,-1,1938,547,0,0
721,477,0,0,0,0,0,0,0,0,0,-1,1945,547,0,0
728,477,0,0,0,0,0,0,0,0,0,-1,1952,547,0,0
735,477,0,0,0,0,0,0,0,0,0,-1,1959,547,0,0
742,477,0,0,0,0,0,0,0,0,0,-1,1966,547,0,0
749,477,0,0,0,0,0,0,0,0,0,-1,1973,547,0,0
756,477,0,0,0,0,0,0,0,0,0,-1,1980,547,0,0
763,477,0,0,0,0,0,0,0,0,0,-1,1987,547,0,0
770,477,0,0,0,0,0,0,0,0,0,-1,1994,547,0,0
777,477,0,0,0,0,0,0,0,0,0,-1,2001,547,0,0
784,477,0,0,0,0,0,0,0,0,0,-1,2008,547,0,0
791,477,0,0,0,0,0,0,0,0,0,-1,2015,547,0,0
798,477,0,0,0,0,0,0,0,0,0,-1,2022,547,0,0
805,477,0,0,0,0,0,0,0,0,0,-1,2029,547,0,0
812,477,0,0,0,0,0,0,0,0,0,-1,2036,547,0,0
-700,470,0,0,0,0,0,0,0,0,0,-1,524,554,0,0
-693,470,0,0,0,0,0,0,0,0,0,-1,531,554,0,0
-686,470,0,0,0,0,0,0,0,0,0,-1,538,554,0,0
-679,470,0,0,0,0,0,0,0,0,0,-1,545,554,0,0
-672,470,0,0,0,0,0,0,0,0,0,-1,552,554,0,0
-665,470,0,0,0,0,0,0,0,0,0,-1,559,554,0,0
-658,470,0,0,0,0,0,0,0,0,0,-1,566,554,0,0
-651,470,0,0,0,0,0,0,0,0,0,-1,573,554,0,0
-644,470,0,0,0,0,0,0,0,0,0,-1,580,554,0,0
-637,470,0,0,0,0,0,0,0,0,0,-1,587,554,0,0
-630,470,0,0,0,0,0,0,0,0,0,-1,594,554,0,0
-623,470,0,0,0,0,0,0,0,0,0,-1,601,554,0,0
-616,470,0,0,0,0,0,0,0,0,0,-1,608,554,0,0
-609,470,0,0,0,0,0,0,0,0,0,-1,615,554,0,0
-602,470,0,0,0,0,0,0,0,0,0,-1,622,554,0,0
-595,470,0,0,0,0,0,0,0,0,0,-1,629,554,0,0
-588,470,0,0,0,0,0,0,0,0,0,-1,636,554,0,0
-581,470,0,0,0,0,0,0,0,0,0,-1,643,554,0,0
-574,470,0,0,0,0,0,0,0,0,0,-1,650,554,0,0
-567,470,0,0,0,0,0,0,0,0,0,-1,657,554,0,0
-560,470,0,0,0,0,0,0,0,0,0,-1,664,554,0,0
-553,470,0,0,0,0,0,0,0,0,0,-1,671,554,0,0
-546,470,0,0,0,0,0,0,0,0,0,-1,678,554,0,0
-539,470,0,0,0,0,0,0,0,0,0,-1,685,554,0,0
-532,470,0,0,0,0,0,0,0,0,0,-1,692,554,0,0
-525,470,0,0,0,0,0,0,0,0,0,-1,699,554,0,0
-518,470,0,0,0,0,0,0,0,0,0,-1,706,554,0,0
-511,470,0,0,0,0,0,0,0,0,0,-1,713,554,0,0
-504,470,0,0,0,0,0,0,0,0,0,-1,720,554,0,0
-497,470,0,0,0,0,0,0,0,0,0,-1,727,554,0,0
-490,470,1.08191,0.53479,-0.0142455,0.0440115,0.0767278,0.0969539,-0.0671879,0.966812,0.0952853,0.047581,734,554,1.08193,-0.534806
-483,470,1.98322,-1.49957,-0.0150697,0.0346895,0.0671757,0.0814449,-0.061825,0.962749,0.0829751,0.0449156,741,554,1.98322,1.49958
-476,470,1.52502,-0.0935059,-0.0139704,0.0257359,0.05676,0.0660147,-0.0542492,0.953635,0.0695451,0.0455645,748,554,1.52505,0.0935342
-469,470,0.870605,1.16803,-0.0117718,0.0178137,0.0464428,0.0517628,-0.0457209,0.939576,0.0563182,0.0436647,755,554,0.87058,-1.16802
-462,470,-0.0733032,1.35803,0,0,0,0,0,0,0,-1,762,554,-0.073287,-1.35802
-455,470,-0.273682,0.6604,0,0,0,0,0,0,0,-1,769,554,-0.273681,-0.660373
-448,470,-0.175354,0.625977,0.000991289,0.0138431,0.0147071,0.0234669,-0.00863248,0.991362,0.0191809,0.0435079,776,554,-0.175357,-0.625961
-441,470,0.012085,0.0968018,0.00401416,0.0135891,0.00723588,0.0174779,0.000125347,1.07765,0.0116104,0.0369782,783,554,0.012057,-0.0967876
-434,470,-0.0313721,0.0446167,0.00582412,0.0136352,0.00173044,0.0140013,0.00545793,1.36226,0.00814885,0.0192833,790,554,-0.0313619,-0.044623
-427,470,-0.0452881,0.0723267,0.007717,0.0150456,-0.00323401,0.0162687,0.00649398,-1.20925,0.00945616,0.0103215,797,554,-0.0452715,-0.0723186
-420,470,-0.0409546,0.0874634,0.00929809,0.0155365,-0.00672513,0.0198306,0.00500403,-1.00254,0.0119082,0.0122678,804,554,-0.0409698,-0.0874666
-413,470,-0.0253906,0.101746,0.0102211,0.0150466,-0.00879884,0.0217575,0.00351022,-0.919216,0.0134881,0.0121377,811,554,-0.0253742,-0.101732
-406,470,-0.0372314,0.0975342,0.0101988,0.0141544,-0.00929953,0.0216841,0.00266907,-0.890175,0.0136536,0.00814659,818,554,-0.0372419,-0.0975084
-399,470,-0.0264282,0.0739746,0.00843623,0.0137326,-0.0080152,0.0195257,0.00264307,-0.94495,0.0122317,0.0105513,825,554,-0.0264202,-0.0739658
-392,470,-0.0268555,0.0656738,0.00627193,0.0117553,-0.0062466,0.0158354,0.00219181,-0.992193,0.00990747,0.0132476,832,554,-0.0268779,-0.0656729
-385,470,-0.0189209,0.097229,0.00455324,0.0098453,-0.00505148,0.0129018,0.00149673,-1.02666,0.00814825,0.0102245,839,554,-0.0189384,-0.0972031
-378,470,-0.0274048,0.0881958,0.00320623,0.00769072,-0.0038322,0.00988845,0.0010085,-1.0501,0.00628317,0.0136539,846,554,-0.0274089,-0.0881885
-371,470,-0.0368042,0.0977173,0.00209622,0.00576293,-0.0024549,0.00699351,0.000865637,-1.10613,0.00440226,0.0124584,853,554,-0.0368045,-0.0977068
-364,470,-0.0331421,0.104431,0.00102889,0.00396758,-0.00111057,0.00434006,0.000656401,-1.24719,0.00270129,0.0124804,860,554,-0.0331371,-0.104439
-357,470,-0.0290527,0.0929565,-0.000309388,0.000793021,0.00114445,0.00151209,-0.00102845,1.00982,0.00147561,0.0116769,867,554,-0.0290333,-0.092967
-350,470,-0.0430298,0.0814209,-0.0009107,0.0012557,0.0022563,0.00267534,-0.00233034,1.00919,0.00289231,0.00867042,874,554,-0.043032,-0.0814459
-343,470,-0.0471802,0.0689087,-0.000841365,0.00190788,0.00323288,0.00404625,-0.00297974,0.986418,0.004072,0.015884,881,554,-0.0471616,-0.0689006
-336,470,-0.0761719,0.038208,-0.000687686,0.00235321,0.00352277,0.00466965,-0.00300412,0.989124,0.0044651,0.0218009,888,554,-0.0761943,-0.0382184
-329,470,-0.0491333,0.0327148,-0.000470827,0.00281736,0.00373788,0.00525674,-0.00291021,0.992587,0.00477962,0.0288094,895,554,-0.0491175,-0.0327065
-322,470,-0.102417,0.0100098,8.50472e-05,0.00335258,0.00380101,0.00585607,-0.00241844,0.988373,0.0049128,0.0354145,902,554,-0.102411,-0.0100228
-315,470,-0.142883,0.232544,0.000911974,0.00395165,0.0037309,0.0064604,-0.00159677,0.978818,0.00492622,0.0415175,909,554,-0.142881,-0.232568
-308,470,-0.182739,0.468628,0.00200995,0.0055047,0.00344083,0.00761643,-0.000101767,1.02035,0.00511188,0.0440913,916,554,-0.182721,-0.468643
-301,470,-0.328674,0.464966,0.00695638,0.00638791,0.0037856,0.0104684,0.00287588,0.747927,0.00624508,0.0447749,923,554,-0.328671,-0.464965
-294,470,-0.307739,0.639282,0.0120771,0.0094978,0.00347878,0.0144976,0.00707733,0.607889,0.00837098,0.0452123,930,554,-0.307731,-0.639269
-287,470,-0.158447,0.559326,0.0161464,0.0147134,0.00146565,0.0170613,0.0137985,0.558045,0.0104577,0.0464489,937,554,-0.158462,-0.559312
-280,470,-0.173706,0.303345,0.022137,0.0198137,0.000320759,0.0221805,0.0197702,0.134702,0.0140526,0.0468263,944,554,-0.173717,-0.303343
-273,470,-0.189819,0.0722656,0.023614,0.0291693,-0.00375746,0.0310643,0.021719,-1.10369,0.0184032,0.0460334,951,554,-0.189832,-0.0722616
-266,470,-0.0899048,-0.209656,0.0213986,0.0414542,-0.00907625,0.0449518,0.0179011,-1.20298,0.0261315,0.0453768,958,554,-0.0899286,0.209668
-259,470,0.313721,-0.731262,0,0,0,0,0,0,0,-1,965,554,0.313743,0.73124
-252,470,1.48279,2.94409,0,0,0,0,0,0,0,-1,972,554,1.48279,-2.94406
-245,470,1.49335,1.55463,0,0,0,0,0,0,0,-1,979,554,1.49337,-1.55462
-238,470,0,0,0,0,0,0,0,0,0,-1,986,554,0,0
-231,470,0,0,0,0,0,0,0,0,0,-1,993,554,0,0
-224,470,0,0,0,0,0,0,0,0,0,-1,1000,554,0,0
-217,470,0,0,0,0,0,0,0,0,0,-1,1007,554,0,0
-210,470,0,0,0,0,0,0,0,0,0,-1,1014,554,0,0
-203,470,0,0,0,0,0,0,0,0,0,-1,1021,554,0,0
-196,470,0,0,0,0,0,0,0,0,0,-1,1028,554,0,0
-189,470,0,0,0,0,0,0,0,0,0,-1,1035,554,0,0
-182,470,0,0,0,0,0,0,0,0,0,-1,1042,554,0,0
-175,470,0,0,0,0,0,0,0,0,0,-1,1049,554,0,0
-168,470,0,0,0,0,0,0,0,0,0,-1,1056,554,0,0
-161,470,0,0,0,0,0,0,0,0,0,-1,1063,554,0,0
-154,470,0,0,0,0,0,0,0,0,0,-1,1070,554,0,0
-147,470,0,0,0,0,0,0,0,0,0,-1,1077,554,0,0
-140,470,0,0,0,0,0,0,0,0,0,-1,1084,554,0,0
-133,470,0,0,0,0,0,0,0,0,0,-1,1091,554,0,0
-126,470,0,0,0,0,0,0,0,0,0,-1,1098,554,0,0
-119,470,0,0,0,0,0,0,0,0,0,-1,1105,554,0,0
-112,470,0,0,0,0,0,0,0,0,0,-1,1112,554,0,0
-105,470,0,0,0,0,0,0,0,0,0,-1,1119,554,0,0
-98,470,0,0,0,0,0,0,0,0,0,-1,1126,554,0,0
-91,470,0,0,0,0,0,0,0,0,0,-1,1133,554,0,0
-84,470,0,0,0,0,0,0,0,0,0,-1,1140,554,0,0
-77,470,0,0,0,0,0,0,0,0,0,-1,1147,554,0,0
-70,470,0,0,0,0,0,0,0,0,0,-1,1154,554,0,0
-63,470,0,0,0,0,0,0,0,0,0,-1,1161,554,0,0
-56,470,0,0,0,0,0,0,0,0,0,-1,1168,554,0,0
-49,470,0,0,0,0,0,0,0,0,0,-1,1175,554,0,0
-42,470,0,0,0,0,0,0,0,0,0,-1,1182,554,0,0
-35,470,0,0,0,0,0,0,0,0,0,-1,1189,554,0,0
-28,470,0,0,0,0,0,0,0,0,0,-1,1196,554,0,0
-21,470,0,0,0,0,0,0,0,0,0,-1,1203,554,0,0
-14,470,0,0,0,0,0,0,0,0,0,-1,1210,554,0,0
-7,470,0,0,0,0,0,0,0,0,0,-1,1217,554,0,0
0,470,0,0,0,0,0,0,0,0,0,-1,1224,554,0,0
7,470,0,0,0,0,0,0,0,0,0,-1,1231,554,0,0
14,470,0,0,0,0,0,0,0,0,0,-1,1238,554,0,0
21,470,0,0,0,0,0,0,0,0,0,-1,1245,554,0,0
28,470,0,0,0,0,0,0,0,0,0,-1,1252,554,0,0
35,470,0,0,0,0,0,0,0,0,0,-1,1259,554,0,0
42,470,0,0,0,0,0,0,0,0,0,-1,1266,554,0,0
49,470,0,0,0,0,0,0,0,0,0,-1,1273,554,0,0
56,470,0,0,0,0,0,0,0,0,0,-1,1280,554,0,0
63,470,0,0,0,0,0,0,0,0,0,-1,1287,554,0,0
70,470,0,0,0,0,0,0,0,0,0,-1,1294,554,0,0
77,470,0,0,0,0,0,0,0,0,0,-1,1301,554,0,0
84,470,0,0,0,0,0,0,0,0,0,-1,1308,554,0,0
91,470,0,0,0,0,0,0,0,0,0,-1,1315,554,0,0
98,470,0,0,0,0,0,0,0,0,0,-1,1322,554,0,0
105,470,0,0,0,0,0,0,0,0,0,-1,1329,554,0,0
112,470,0,0,0,0,0,0,0,0,0,-1,1336,554,0,0
119,470,0,0,0,0,0,0,0,0,0,-1,1343,554,0,0
126,470,0,0,0,0,0,0,0,0,0,-1,1350,554,0,0
133,470,0,0,0,0,0,0,0,0,0,-1,1357,554,0,0
140,470,0,0,0,0,0,0,0,0,0,-1,1364,554,0,0
147,470,0,0,0,0,0,0,0,0,0,-1,1371,554,0,0
154,470,0,0,0,0,0,0,0,0,0,-1,1378,554,0,0
161,470,0,0,0,0,0,0,0,0,0,-1,1385,554,0,0
168,470,0,0,0,0,0,0,0,0,0,-1,1392,554,0,0
175,470,0,0,0,0,0,0,0,0,0,-1,1399,554,0,0
182,470,0,0,0,0,0,0,0,0,0,-1,1406,554,0,0
189,470,0,0,0,0,0,0,0,0,0,-1,1413,554,0,0
196,470,0,0,0,0,0,0,0,0,0,-1,1420,554,0,0
203,470,0,0,0,0,0,0,0,0,0,-1,1427,554,0,0
210,470,0,0,0,0,0,0,0,0,0,-1,1434,554,0,0
217,470,0,0,0,0,0,0,0,0,0,-1,1441,554,0,0
224,470,0,0,0,0,0,0,0,0,0,-1,1448,554,0,0
231,470,0,0,0,0,0,0,0,0,0,-1,1455,554,0,0
238,470,0,0,0,0,0,0,0,0,0,-1,1462,554,0,0
245,470,0,0,0,0,0,0,0,0,0,-1,1469,554,0,0
252,470,0,0,0,0,0,0,0,0,0,-1,1476,554,0,0
259,470,0,0,0,0,0,0,0,0,0,-1,1483,554,0,0
266,470,0,0,0,0,0,0,0,0,0,-1,1490,554,0,0
273,470,0,0,0,0,0,0,0,0,0,-1,1497,554,0,0
280,470,0,0,0,0,0,0,0,0,0,-1,1504,554,0,0
287,470,0,0,0,0,0,0,0,0,0,-1,1511,554,0,0
294,470,0,0,0,0,0,0,0,0,0,-1,1518,554,0,0
301,470,0,0,0,0,0,0,0,0,0,-1,1525,554,0,0
308,470,0,0,0,0,0,0,0,0,0,-1,1532,554,0,0
315,470,0,0,0,0,0,0,0,0,0,-1,1539,554,0,0
322,470,0,0,0,0,0,0,0,0,0,-1,1546,554,0,0
329,470,0,0,0,0,0,0,0,0,0,-1,1553,554,0,0
336,470,0,0,0,0,0,0,0,0,0,-1,1560,554,0,0
343,470,0,0,0,0,0,0,0,0,0,-1,1567,554,0,0
350,470,0,0,0,0,0,0,0,0,0,-1,1574,554,0,0
357,470,0,0,0,0,0,0,0,0,0,-1,1581,554,0,0
364,470,-0.0773926,0.0534668,0,0,0,0,0,0,0,-1,1588,554,-0.0773638,-0.0534963
371,470,-1.28918,2.63855,0,0,0,0,0,0,0,-1,1595,554,-1.28916,-2.63855
378,470,-0.840698,2.0921,0.0210051,0.00146411,-0.010224,0.0253765,-0.00290731,-0.404039,0.0179654,0.0455771,1602,554,-0.840741,-2.0921
385,470,-0.163574,1.39343,0,0,0,0,0,0,0,-1,1609,554,-0.16354,-1.39341
392,470,0.391968,0.841553,0,0,0,0,0,0,0,-1,1616,554,0.392,-0.84155
399,470,0.965454,0.256409,0,0,0,0,0,0,0,-1,1623,554,0.965401,-0.25641
406,470,-0.382568,1.0824,0,0,0,0,0,0,0,-1,1630,554,-0.38253,-1.0824
413,470,-0.146851,0.670166,0.0135013,-0.00059081,-0.008166,0.0172409,-0.00433041,-0.429444,0.0131768,0.0448297,1637,554,-0.146814,-0.670166
420,470,-0.126221,0.163452,0.0121966,0.0011956,-0.00729084,0.0158291,-0.0024369,-0.462229,0.0114518,0.0384081,1644,554,-0.126193,-0.163458
427,470,0.247559,0.00115967,0.0107372,0.00293215,-0.00650856,0.0144236,-0.000754204,-0.515336,0.00987671,0.0388207,1651,554,0.247542,-0.00118003
434,470,0.387085,0.374573,0.00864941,0.00352318,-0.00514773,0.0118368,0.000335759,-0.55441,0.00778171,0.0410588,1658,554,0.387025,-0.374556
441,470,0.0699463,0.541748,0.00655754,0.00340814,-0.00405821,0.00933586,0.000629826,-0.600327,0.00602495,0.0408652,1665,554,0.069898,-0.541742
448,470,-0.25,0.261169,0.00411206,0.00268829,-0.00287339,0.00636044,0.000439911,-0.663968,0.00410153,0.0422291,1672,554,-0.249942,-0.261155
455,470,-0.114624,0.122498,0.00236959,0.00210788,-0.00191041,0.00415362,0.000323853,-0.751203,0.00266769,0.0423434,1679,554,-0.114643,-0.122483
462,470,-0.019043,0.0840454,0.00119279,0.00152067,-0.00112194,0.00249059,0.000222872,-0.857944,0.00159131,0.0369636,1686,554,-0.0190285,-0.084066
469,470,-0.0302734,0.0632324,0.000144665,0.000982455,-0.000171159,0.00101607,0.000111046,-1.37685,0.000643569,0.0259794,1693,554,-0.0302607,-0.0632178
476,470,-0.0352783,0.0578003,-0.000671993,0.00064142,0.00043389,0.000771812,-0.000802385,1.27886,0.00090892,0.0131883,1700,554,-0.035287,-0.0577941
483,470,-0.0561523,0.0648193,-0.00108635,0.000375735,0.000690196,0.000650075,-0.00136069,1.19246,0.00118483,0.0100846,1707,554,-0.0561747,-0.064826
490,470,-0.0666504,0.0802002,-0.000808435,0.000138427,0.000654622,0.000472874,-0.00114288,1.09847,0.000959219,0.0109554,1714,554,-0.0666433,-0.0802149
497,470,-0.0570068,0.083313,-0.000121798,0.000249552,0.000330769,0.000443196,-0.000315443,1.04115,0.000440065,0.0119085,1721,554,-0.0570091,-0.0832937
504,470,-0.0235596,0.0463867,0.000359542,-0.000221562,0.000168165,0.000404698,-0.000266718,0.262334,0.000390361,0.0178584,1728,554,-0.0235631,-0.0464036
511,470,0.0183105,0.0492554,0.000846734,-0.000393635,0.000140503,0.000862451,-0.000409352,0.111395,0.000749648,0.024063,1735,554,0.0182898,-0.0492543
518,470,0.0332031,0.0759888,0.00110483,-0.000600186,9.75132e-05,0.00111039,-0.000605745,0.0569446,0.00100499,0.0233996,1742,554,0.0331491,-0.0760026
525,470,-0.0299072,0.0721436,0.00123149,-0.000778281,-2.42057e-05,0.00123178,-0.000778572,-0.0120417,0.00117047,0.014879,1749,554,-0.0298583,-0.0721568
532,470,-0.0441895,0.0905151,0.00143057,-0.00102015,-6.2372e-05,0.00143216,-0.00102174,-0.0254285,0.00142335,0.0128046,1756,554,-0.0442325,-0.0905039
539,470,-0.0268555,0.0819702,0.00185139,-0.00112533,-5.13689e-05,0.00185228,-0.00112621,-0.0172501,0.00173658,0.0134004,1763,554,-0.0268646,-0.0819873
546,470,-0.0319824,0.0739136,0.00262727,-0.0011892,8.04659e-05,0.00262897,-0.00119089,0.0210714,0.00225689,0.0125658,1770,554,-0.032026,-0.0738886
553,470,-0.0339355,0.0761108,0.00344862,-0.0008855,0.00037133,0.0034802,-0.000917084,0.0848521,0.00267868,0.00975617,1777,554,-0.0339498,-0.0760846
560,470,-0.0428467,0.0640259,0.00378341,-0.000161554,0.000771917,0.00392908,-0.000307217,0.18651,0.00272756,0.0111868,1784,554,-0.0428269,-0.0640471
567,470,-0.0402832,0.0813599,0.00431483,0.000430391,0.00110199,0.00460568,0.000139542,0.258046,0.00302501,0.0133067,1791,554,-0.0402426,-0.0813469
574,470,-0.0128174,0.109009,0.00462375,0.00122512,0.00135224,0.00509613,0.000752748,0.336075,0.00317637,0.032262,1798,554,-0.0127994,-0.108992
581,470,0.130249,0.137207,0.00479181,0.00175185,0.00141164,0.00534621,0.00119745,0.37423,0.00323962,0.0423324,1805,554,0.130229,-0.137227
588,470,0.239258,0.249084,0.00520744,0.00259989,0.00132778,0.00576453,0.00204279,0.39726,0.00337488,0.0450461,1812,554,0.239246,-0.249069
595,470,0.281738,0.0839844,0.00547854,0.00283663,0.00104516,0.00584201,0.00247316,0.334681,0.00338607,0.0445374,1819,554,0.281781,-0.0839769
602,470,0.362915,-0.0545044,0.00519847,0.00296673,0.000390037,0.00526467,0.00290052,0.16813,0.00304482,0.0444369,1826,554,0.362969,0.054492
609,470,0.560669,-0.0693359,0,0,0,0,0,0,0,-1,1833,554,0.560643,0.0693058
616,470,0,0,0,0,0,0,0,0,0,-1,1840,554,0,0
623,470,0,0,0,0,0,0,0,0,0,-1,1847,554,0,0
630,470,0,0,0,0,0,0,0,0,0,-1,1854,554,0,0
637,470,0,0,0,0,0,0,0,0,0,-1,1861,554,0,0
644,470,0,0,0,0,0,0,0,0,0,-1,1868,554,0,0
651,470,0,0,0,0,0,0,0,0,0,-1,1875,554,0,0
658,470,0,0,0,0,0,0,0,0,0,-1,1882,554,0,0
665,470,0,0,0,0,0,0,0,0,0,-1,1889,554,0,0
672,470,0,0,0,0,0,0,0,0,0,-1,1896,554,0,0
679,470,0,0,0,0,0,0,0,0,0,-1,1903,554,0,0
686,470,0,0,0,0,0,0,0,0,0,-1,1910,554,0,0
693,470,0,0,0,0,0,0,0,0,0,-1,1917,554,0,0
700,470,0,0,0,0,0,0,0,0,0,-1,1924,554,0,0
707,470,0,0,0,0,0,0,0,0,0,-1,1931,554,0,0
714,470,0,0,0,0,0,0,0,0,0,-1,1938,554,0,0
721,470,0,0,0,0,0,0,0,0,0,-1,1945,554,0,0
728,470,0,0,0,0,0,0,0,0,0,-1,1952,554,0,0
735,470,0,0,0,0,0,0,0,0,0,-1,1959,554,0,0
742,470,0,0,0,0,0,0,0,0,0,-1,1966,554,0,0
749,470,0,0,0,0,0,0,0,0,0,-1,1973,554,0,0
756,470,0,0,0,0,0,0,0,0,0,-1,1980,554,0,0
763,470,0,0,0,0,0,0,0,0,0,-1,1987,554,0,0
770,470,0,0,0,0,0,0,0,0,0,-1,1994,554,0,0
777,470,0,0,0,0,0,0,0,0,0,-1,2001,554,0,0
784,470,0,0,0,0,0,0,0,0,0,-1,2008,554,0,0
791,470,0,0,0,0,0,0,0,0,0,-1,2015,554,0,0
798,470,0,0,0,0,0,0,0,0,0,-1,2022,554,0,0
805,470,0,0,0,0,0,0,0,0,0,-1,2029,554,0,0
812,470,0,0,0,0,0,0,0,0,0,-1,2036,554,0,0
-700,463,0,0,0,0,0,0,0,0,0,-1,524,561,0,0
-693,463,0,0,0,0,0,0,0,0,0,-1,531,561,0,0
-686,463,0,0,0,0,0,0,0,0,0,-1,538,561,0,0
-679,463,0,0,0,0,0,0,0,0,0,-1,545,561,0,0
-672,463,0,0,0,0,0,0,0,0,0,-1,552,561,0,0
-665,463,0,0,0,0,0,0,0,0,0,-1,559,561,0,0
-658,463,0,0,0,0,0,0,0,0,0,-1,566,561,0,0
-651,463,0,0,0,0,0,0,0,0,0,-1,573,561,0,0
-644,463,0,0,0,0,0,0,0,0,0,-1,580,561,0,0
-637,463,0,0,0,0,0,0,0,0,0,-1,587,561,0,0
-630,463,0,0,0,0,0,0,0,0,0,-1,594,561,0,0
-623,463,0,0,0,0,0,0,0,0,0,-1,601,561,0,0
-616,463,0,0,0,0,0,0,0,0,0,-1,608,561,0,0
-609,463,0,0,0,0,0,0,0,0,0,-1,615,561,0,0
-602,463,0,0,0,0,0,0,0,0,0,-1,622,561,0,0
-595,463,0,0,0,0,0,0,0,0,0,-1,629,561,0,0
-588,463,0,0,0,0,0,0,0,0,0,-1,636,561,0,0
-581,463,0,0,0,0,0,0,0,0,0,-1,643,561,0,0
-574,463,0,0,0,0,0,0,0,0,0,-1,650,561,0,0
-567,463,0,0,0,0,0,0,0,0,0,-1,657,561,0,0
-560,463,0,0,0,0,0,0,0,0,0,-1,664,561,0,0
-553,463,0,0,0,0,0,0,0,0,0,-1,671,561,0,0
-546,463,0,0,0,0,0,0,0,0,0,-1,678,561,0,0
-539,463,0,0,0,0,0,0,0,0,0,-1,685,561,0,0
-532,463,0,0,0,0,0,0,0,0,0,-1,692,561,0,0
-525,463,0,0,0,0,0,0,0,0,0,-1,699,561,0,0
-518,463,0,0,0,0,0,0,0,0,0,-1,706,561,0,0
-511,463,0,0,0,0,0,0,0,0,0,-1,713,561,0,0
-504,463,0,0,0,0,0,0,0,0,0,-1,720,561,0,0
-497,463,0.210876,-0.707825,-0.00737612,0.0453713,0.0684152,0.0923202,-0.054325,0.969368,0.0856077,0.0446179,727,561,0.210852,0.707849
-490,463,0.487915,-0.150146,-0.00990966,0.0390605,0.0627042,0.0818906,-0.0527398,0.971537,0.0783339,0.0439618,734,561,0.487903,0.150127
-483,463,0.413818,-0.0262451,-0.0107375,0.032016,0.0551724,0.0698082,-0.0485297,0.97022,0.0686896,0.0448671,741,561,0.413843,0.0262217
-476,463,0.549255,0.271118,-0.0103434,0.0249533,0.0468597,0.0573778,-0.042768,0.965494,0.0580239,0.0474131,748,561,0.549236,-0.271139
-469,463,0.520569,0.603577,-0.00906042,0.018559,0.0385885,0.0457344,-0.0362359,0.957233,0.0474313,0.0457436,755,561,0.520565,-0.603592
-462,463,0.221069,0.692139,-0.00630472,0.0167211,0.0291,0.0365029,-0.0260865,0.973766,0.0363024,0.044545,762,561,0.221094,-0.69215
-455,463,-0.0794067,0.340088,-0.00347603,0.0137912,0.020928,0.0277965,-0.0174813,0.981033,0.0263663,0.0443311,769,561,-0.0793919,-0.340069
-448,463,-0.103027,0.290833,-0.000771192,0.0117213,0.0137976,0.0206206,-0.00967055,0.997948,0.0178654,0.0385065,776,561,-0.103029,-0.290833
-441,463,-0.0383301,0.0631714,0.00140487,0.0104394,0.00770872,0.0148569,-0.00301262,1.05043,0.0110466,0.0250811,783,561,-0.0383004,-0.0631768
-434,463,-0.0401611,0.0760498,0.00267007,0.00951589,0.00327143,0.0108278,0.00135816,1.18941,0.0068111,0.0098284,790,561,-0.040159,-0.0760678
-427,463,-0.0296631,0.102356,0.00422973,0.0100265,-0.000756288,0.0101235,0.00413269,-1.44317,0.00587754,0.00928413,797,561,-0.0296647,-0.102379
-420,463,-0.00579834,0.112366,0.00562801,0.00995667,-0.00366187,0.012046,0.00353868,-1.0523,0.00714925,0.0101816,804,561,-0.00580983,-0.112374
-413,463,-0.00653076,0.0968018,0.00653647,0.00921253,-0.00548461,0.01352,0.00222904,-0.905042,0.00836983,0.00817167,811,561,-0.00655693,-0.0967994
-406,463,-0.0372314,0.0946045,0.00673214,0.00841582,-0.00604989,0.0136822,0.00146579,-0.854529,0.00867423,0.00669074,818,561,-0.0372489,-0.0945832
-399,463,-0.0343018,0.0901489,0.00561941,0.00810668,-0.00524647,0.0122549,0.0014712,-0.901771,0.00772636,0.00790915,825,561,-0.0343158,-0.0901663
-392,463,-0.0247192,0.0870361,0.00407171,0.00683155,-0.00409284,0.00977084,0.00113242,-0.947991,0.00617115,0.00853482,832,561,-0.0246893,-0.0870341
-385,463,-0.0349731,0.0841064,0.00276733,0.00556481,-0.00333601,0.00778345,0.000548687,-0.983909,0.00501609,0.00964727,839,561,-0.0349901,-0.0840899
-378,463,-0.0327759,0.0637817,0.00176131,0.00412274,-0.00263867,0.00583282,5.12414e-05,-0.995771,0.00387158,0.0106598,846,561,-0.0327952,-0.063794
-371,463,-0.0267334,0.0532837,0.000899789,0.00293148,-0.00171614,0.0039099,-7.86252e-05,-1.05263,0.0026332,0.0101605,853,561,-0.0267123,-0.053285
-364,463,-0.00665283,0.0787964,-2.404e-05,0.00176192,-0.000772213,0.0020495,-0.000311622,-1.2143,0.00148117,0.0123695,860,561,-0.00666931,-0.0788078
-357,463,0.00268555,0.0761719,-0.00106594,-8.20159e-05,0.0008701,0.000425573,-0.00157352,1.0427,0.00121596,0.0138498,867,561,0.00268392,-0.0761972
-350,463,-0.0342407,0.0515137,-0.0015648,0.000517894,0.00192501,0.00166517,-0.00271208,1.03334,0.00255119,0.013567,874,561,-0.0342309,-0.0515324
-343,463,-0.0186157,0.0454102,-0.00148933,0.00138158,0.00299231,0.00326492,-0.00337268,1.00904,0.00383239,0.0244279,881,561,-0.0186232,-0.0453979
-336,463,-0.0667725,-0.00396729,-0.00123596,0.00195097,0.00331897,0.00403917,-0.00332416,1.0092,0.0042579,0.0329774,888,561,-0.0667821,0.00394
-329,463,-0.0596313,0.00720215,-0.000917849,0.00261726,0.00363311,0.00488997,-0.00319056,1.0118,0.00469956,0.0394935,895,561,-0.0596121,-0.00717233
-322,463,0.204102,0.423218,-0.000191324,0.0033334,0.00378805,0.00574899,-0.00260691,1.00313,0.00493666,0.0401811,902,561,0.204085,-0.423242
-315,463,-0.26825,0.148621,0.000945027,0.0041361,0.00380624,0.00666769,-0.00158657,0.983867,0.00505763,0.0450533,909,561,-0.268274,-0.148617
-308,463,-0.289856,0.224182,0.00243144,0.00585723,0.0035649,0.00809939,0.000189277,1.00936,0.00533762,0.0446072,916,561,-0.289874,-0.224168
-301,463,-0.343018,0.340454,0.00761181,0.00687022,0.0038164,0.0110754,0.00340664,0.736971,0.0065503,0.0460686,923,561,-0.343027,-0.340426
-294,463,-0.328674,0.533875,0.0131942,0.0102594,0.00334261,0.0153773,0.00807631,0.578568,0.00888187,0.0469975,930,561,-0.328662,-0.533891
-287,463,-0.297363,0.680054,0,0,0,0,0,0,0,-1,937,561,-0.297382,-0.680054
-280,463,0.223877,0.223816,0,0,0,0,0,0,0,-1,944,561,0.223901,-0.223829
-273,463,0.166016,0.0114136,0,0,0,0,0,0,0,-1,951,561,0.166019,-0.01144
-266,463,0.118042,-0.283813,0,0,0,0,0,0,0,-1,958,561,0.118036,0.283791
-259,463,0.632996,0.535156,0,0,0,0,0,0,0,-1,965,561,0.633022,-0.535174
-252,463,0,0,0,0,0,0,0,0,0,-1,972,561,0,0
-245,463,0,0,0,0,0,0,0,0,0,-1,979,561,0,0
-238,463,0,0,0,0,0,0,0,0,0,-1,986,561,0,0
-231,463,0,0,0,0,0,0,0,0,0,-1,993,561,0,0
-224,463,0,0,0,0,0,0,0,0,0,-1,1000,561,0,0
-217,463,0,0,0,0,0,0,0,0,0,-1,1007,561,0,0
-210,463,0,0,0,0,0,0,0,0,0,-1,1014,561,0,0
-203,463,0,0,0,0,0,0,0,0,0,-1,1021,561,0,0
-196,463,0,0,0,0,0,0,0,0,0,-1,1028,561,0,0
-189,463,0,0,0,0,0,0,0,0,0,-1,1035,561,0,0
-182,463,0,0,0,0,0,0,0,0,0,-1,1042,561,0,0
-175,463,0,0,0,0,0,0,0,0,0,-1,1049,561,0,0
-168,463,0,0,0,0,0,0,0,0,0,-1,1056,561,0,0
-161,463,0,0,0,0,0,0,0,0,0,-1,1063,561,0,0
-154,463,0,0,0,0,0,0,0,0,0,-1,1070,561,0,0
-147,463,0,0,0,0,0,0,0,0,0,-1,1077,561,0,0
-140,463,0,0,0,0,0,0,0,0,0,-1,1084,561,0,0
-133,463,0,0,0,0,0,0,0,0,0,-1,1091,561,0,0
-126,463,0,0,0,0,0,0,0,0,0,-1,1098,561,0,0
-119,463,0,0,0,0,0,0,0,0,0,-1,1105,561,0,0
-112,463,0,0,0,0,0,0,0,0,0,-1,1112,561,0,0
-105,463,0,0,0,0,0,0,0,0,0,-1,1119,561,0,0
-98,463,0,0,0,0,0,0,0,0,0,-1,1126,561,0,0
-91,463,0,0,0,0,0,0,0,0,0,-1,1133,561,0,0
-84,463,0,0,0,0,0,0,0,0,0,-1,1140,561,0,0
-77,463,0,0,0,0,0,0,0,0,0,-1,1147,561,0,0
-70,463,0,0,0,0,0,0,0,0,0,-1,1154,561,0,0
-63,463,0,0,0,0,0,0,0,0,0,-1,1161,561,0,0
-56,463,0,0,0,0,0,0,0,0,0,-1,1168,561,0,0
-49,463,0,0,0,0,0,0,0,0,0,-1,1175,561,0,0
-42,463,0,0,0,0,0,0,0,0,0,-1,1182,561,0,0
-35,463,0,0,0,0,0,0,0,0,0,-1,1189,561,0,0
-28,463,0,0,0,0,0,0,0,0,0,-1,1196,561,0,0
-21,463,0,0,0,0,0,0,0,0,0,-1,1203,561,0,0
-14,463,0,0,0,0,0,0,0,0,0,-1,1210,561,0,0
-7,463,0,0,0,0,0,0,0,0,0,-1,1217,561,0,0
0,463,0,0,0,0,0,0,0,0,0,-1,1224,561,0,0
7,463,0,0,0,0,0,0,0,0,0,-1,1231,561,0,0
14,463,0,0,0,0,0,0,0,0,0,-1,1238,561,0,0
21,463,0,0,0,0,0,0,0,0,0,-1,1245,561,0,0
28,463,0,0,0,0,0,0,0,0,0,-1,1252,561,0,0
35,463,0,0,0,0,0,0,0,0,0,-1,1259,561,0,0
42,463,0,0,0,0,0,0,0,0,0,-1,1266,561,0,0
49,463,0,0,0,0,0,0,0,0,0,-1,1273,561,0,0
56,463,0,0,0,0,0,0,0,0,0,-1,1280,561,0,0
63,463,0,0,0,0,0,0,0,0,0,-1,1287,561,0,0
70,463,0,0,0,0,0,0,0,0,0,-1,1294,561,0,0
77,463,0,0,0,0,0,0,0,0,0,-1,1301,561,0,0
84,463,0,0,0,0,0,0,0,0,0,-1,1308,561,0,0
91,463,0,0,0,0,0,0,0,0,0,-1,1315,561,0,0
98,463,0,0,0,0,0,0,0,0,0,-1,1322,561,0,0
105,463,0,0,0,0,0,0,0,0,0,-1,1329,561,0,0
112,463,0,0,0,0,0,0,0,0,0,-1,1336,561,0,0
119,463,0,0,0,0,0,0,0,0,0,-1,1343,561,0,0
126,463,0,0,0,0,0,0,0,0,0,-1,1350,561,0,0
133,463,0,0,0,0,0,0,0,0,0,-1,1357,561,0,0
140,463,0,0,0,0,0,0,0,0,0,-1,1364,561,0,0
147,463,0,0,0,0,0,0,0,0,0,-1,1371,561,0,0
154,463,0,0,0,0,0,0,0,0,0,-1,1378,561,0,0
161,463,0,0,0,0,0,0,0,0,0,-1,1385,561,0,0
168,463,0,0,0,0,0,0,0,0,0,-1,1392,561,0,0
175,463,0,0,0,0,0,0,0,0,0,-1,1399,561,0,0
182,463,0,0,0,0,0,0,0,0,0,-1,1406,561,0,0
189,463,0,0,0,0,0,0,0,0,0,-1,1413,561,0,0
196,463,0,0,0,0,0,0,0,0,0,-1,1420,561,0,0
203,463,0,0,0,0,0,0,0,0,0,-1,1427,561,0,0
210,463,0,0,0,0,0,0,0,0,0,-1,1434,561,0,0
217,463,0,0,0,0,0,0,0,0,0,-1,1441,561,0,0
224,463,0,0,0,0,0,0,0,0,0,-1,1448,561,0,0
231,463,0,0,0,0,0,0,0,0,0,-1,1455,561,0,0
238,463,0,0,0,0,0,0,0,0,0,-1,1462,561,0,0
245,463,0,0,0,0,0,0,0,0,0,-1,1469,561,0,0
252,463,0,0,0,0,0,0,0,0,0,-1,1476,561,0,0
259,463,0,0,0,0,0,0,0,0,0,-1,1483,561,0,0
266,463,0,0,0,0,0,0,0,0,0,-1,1490,561,0,0
273,463,0,0,0,0,0,0,0,0,0,-1,1497,561,0,0
280,463,0,0,0,0,0,0,0,0,0,-1,1504,561,0,0
287,463,0,0,0,0,0,0,0,0,0,-1,1511,561,0,0
294,463,0,0,0,0,0,0,0,0,0,-1,1518,561,0,0
301,463,0,0,0,0,0,0,0,0,0,-1,1525,561,0,0
308,463,0,0,0,0,0,0,0,0,0,-1,1532,561,0,0
315,463,0,0,0,0,0,0,0,0,0,-1,1539,561,0,0
322,463,0,0,0,0,0,0,0,0,0,-1,1546,561,0,0
329,463,0,0,0,0,0,0,0,0,0,-1,1553,561,0,0
336,463,0,0,0,0,0,0,0,0,0,-1,1560,561,0,0
343,463,0,0,0,0,0,0,0,0,0,-1,1567,561,0,0
350,463,0,0,0,0,0,0,0,0,0,-1,1574,561,0,0
357,463,0,0,0,0,0,0,0,0,0,-1,1581,561,0,0
364,463,0,0,0,0,0,0,0,0,0,-1,1588,561,0,0
371,463,-1.07703,0.00262451,0,0,0,0,0,0,0,-1,1595,561,-1.07705,-0.0026246
378,463,-0.757324,2.38757,0,0,0,0,0,0,0,-1,1602,561,-0.757335,-2.38755
385,463,0.0109863,1.61774,0,0,0,0,0,0,0,-1,1609,561,0.0110299,-1.61772
392,463,0.576904,1.07471,0,0,0,0,0,0,0,-1,1616,561,0.576879,-1.0747
399,463,0.362061,1.12421,0,0,0,0,0,0,0,-1,1623,561,0.36203,-1.12422
406,463,0.0705566,1.22308,0,0,0,0,0,0,0,-1,1630,561,0.0705166,-1.22309
413,463,0.174683,0.724854,0.0151136,0.00313201,-0.00974983,0.0205661,-0.00232047,-0.509909,0.0145461,0.0427232,1637,561,0.174703,-0.724842
420,463,-0.0333252,0.104736,0.0131766,0.00416288,-0.00849812,0.018289,-0.000949496,-0.541587,0.0125212,0.0389666,1644,561,-0.0333323,-0.10472
427,463,0.276123,-0.240417,0.0112099,0.00517208,-0.00737895,0.0161636,0.000218371,-0.591224,0.0107037,0.0408402,1651,561,0.276099,0.240426
434,463,0.649048,-0.55896,0.00871821,0.00512468,-0.00569014,0.0128885,0.000954358,-0.632469,0.00829256,0.0454616,1658,561,0.649034,0.558986
441,463,1.05188,-0.820984,0,0,0,0,0,0,0,-1,1665,561,1.05189,0.821011
448,463,0.432983,-0.124939,0.00376405,0.00336884,-0.00285387,0.00642715,0.000705745,-0.750833,0.00406997,0.0400039,1672,561,0.433015,0.124946
455,463,0.398926,-0.0367432,0.00204676,0.00255603,-0.0017086,0.00402886,0.000573924,-0.85937,0.00251651,0.0410329,1679,561,0.398952,0.0367668
462,463,0.120483,0.0836792,0.000986791,0.00187714,-0.000835559,0.00237872,0.000485214,-1.03016,0.00145137,0.0440558,1686,561,0.120518,-0.0836901
469,463,0.0195313,0.0605469,6.08385e-05,0.00124049,0.000123992,0.00125338,4.79466e-05,1.4672,0.000820075,0.0432326,1693,561,0.0195429,-0.0605585
476,463,-0.0454102,0.0548096,-0.000711101,0.000852969,0.000736474,0.00114517,-0.0010033,1.19309,0.00124132,0.0246291,1700,561,-0.0454418,-0.0548102
483,463,-0.0820313,0.0874023,-0.00111066,0.000609932,0.000989464,0.0010608,-0.00156153,1.14324,0.00152317,0.0125893,1707,561,-0.0820559,-0.0873974
490,463,-0.0740967,0.0950317,-0.000829527,0.000416283,0.000919142,0.000903708,-0.00131695,1.0832,0.00128948,0.0121672,1714,561,-0.0741389,-0.0950464
497,463,-0.0539551,0.0718384,-0.000132394,0.000577746,0.000561983,0.000887431,-0.000442079,1.06714,0.000781816,0.0115201,1721,561,-0.0539577,-0.0718234
504,463,-0.0142822,0.0502319,0.000309593,9.23125e-05,0.000362099,0.000578998,-0.000177093,0.639657,0.000456624,0.0146029,1728,561,-0.0142293,-0.050205
511,463,0.0203857,0.0664673,0.000701818,-0.000117913,0.000295787,0.000797402,-0.000213498,0.31256,0.000615242,0.020309,1735,561,0.0203461,-0.0664401
518,463,0.0233154,0.0802002,0.00085218,-0.000383291,0.000209186,0.000886638,-0.000417748,0.163256,0.000769136,0.0204853,1742,561,0.0233169,-0.080195
525,463,-0.0461426,0.0653687,0.000877187,-0.000606424,7.76942e-05,0.000881245,-0.000610482,0.052178,0.000865965,0.0160594,1749,561,-0.0461647,-0.0653907
532,463,-0.0565186,0.0604248,0.000943291,-0.000930368,4.16113e-05,0.000944215,-0.000931292,0.022194,0.00108283,0.0134725,1756,561,-0.056472,-0.0604381
539,463,-0.0343018,0.0707397,0.00122977,-0.00110626,4.48592e-06,0.00122978,-0.00110627,0.00192031,0.00134935,0.0123685,1763,561,-0.0342747,-0.0707106
546,463,-0.0296631,0.0732422,0.00192397,-0.00130902,8.8464e-05,0.00192639,-0.00131144,0.0273356,0.00188056,0.0100674,1770,561,-0.029638,-0.0732202
553,463,-0.0339355,0.0805664,0.00265867,-0.00116809,0.000328555,0.00268667,-0.0011961,0.085028,0.00229612,0.0101224,1777,561,-0.0339593,-0.0805849
560,463,-0.0424805,0.081604,0.00287152,-0.000586928,0.000696812,0.00300663,-0.000722044,0.191529,0.00228348,0.0104667,1784,561,-0.0425383,-0.0816008
567,463,-0.0568848,0.0847168,0.00328134,-0.000220864,0.00100878,0.00355112,-0.000490651,0.261324,0.00254677,0.00908435,1791,561,-0.0569387,-0.0847339
574,463,-0.0734863,0.0916138,0.00350716,0.000318948,0.00126965,0.00395099,-0.000124882,0.336291,0.00267659,0.0221204,1798,561,-0.0734677,-0.0916147
581,463,-0.083374,0.254089,0.00369866,0.00059564,0.00132157,0.00418521,0.00010908,0.352768,0.0027545,0.0405193,1805,561,-0.0834014,-0.2541
588,463,-0.012085,0.29187,0.00418124,0.00116826,0.00126484,0.00464182,0.000707685,0.349211,0.0028877,0.0433283,1812,561,-0.0120338,-0.291894
595,463,0.219116,-0.038147,0.00450214,0.00113505,0.00110528,0.00483253,0.000804652,0.290472,0.00298978,0.0402219,1819,561,0.21912,0.0381704
602,463,0.616699,-0.374023,0.00425324,0.00103224,0.000606601,0.00436369,0.00092179,0.18011,0.00265574,0.0425296,1826,561,0.616736,0.373998
609,463,0.107544,0.770569,0,0,0,0,0,0,0,-1,1833,561,0.10758,-0.770584
616,463,-0.0682373,1.02954,0,0,0,0,0,0,0,-1,1840,561,-0.0682784,-1.02956
623,463,0,0,0,0,0,0,0,0,0,-1,1847,561,0,0
630,463,0,0,0,0,0,0,0,0,0,-1,1854,561,0,0
637,463,0,0,0,0,0,0,0,0,0,-1,1861,561,0,0
644,463,0,0,0,0,0,0,0,0,0,-1,1868,561,0,0
651,463,0,0,0,0,0,0,0,0,0,-1,1875,561,0,0
658,463,0,0,0,0,0,0,0,0,0,-1,1882,561,0,0
665,463,0,0,0,0,0,0,0,0,0,-1,1889,561,0,0
672,463,0,0,0,0,0,0,0,0,0,-1,1896,561,0,0
679,463,0,0,0,0,0,0,0,0,0,-1,1903,561,0,0
686,463,0,0,0,0,0,0,0,0,0,-1,1910,561,0,0
693,463,0,0,0,0,0,0,0,0,0,-1,1917,561,0,0
700,463,0,0,0,0,0,0,0,0,0,-1,1924,561,0,0
707,463,0,0,0,0,0,0,0,0,0,-1,1931,561,0,0
714,463,0,0,0,0,0,0,0,0,0,-1,1938,561,0,0
721,463,0,0,0,0,0,0,0,0,0,-1,1945,561,0,0
728,463,0,0,0,0,0,0,0,0,0,-1,1952,561,0,0
735,463,0,0,0,0,0,0,0,0,0,-1,1959,561,0,0
742,463,0,0,0,0,0,0,0,0,0,-1,1966,561,0,0
749,463,0,0,0,0,0,0,0,0,0,-1,1973,561,0,0
756,463,0,0,0,0,0,0,0,0,0,-1,1980,561,0,0
763,463,0,0,0,0,0,0,0,0,0,-1,1987,561,0,0
770,463,0,0,0,0,0,0,0,0,0,-1,1994,561,0,0
777,463,0,0,0,0,0,0,0,0,0,-1,2001,561,0,0
784,463,0,0,0,0,0,0,0,0,0,-1,2008,561,0,0
791,463,0,0,0,0,0,0,0,0,0,-1,2015,561,0,0
798,463,0,0,0,0,0,0,0,0,0,-1,2022,561,0,0
805,463,0,0,0,0,0,0,0,0,0,-1,2029,561,0,0
812,463,0,0,0,0,0,0,0,0,0,-1,2036,561,0,0
-700,456,0,0,0,0,0,0,0,0,0,-1,524,568,0,0
-693,456,0,0,0,0,0,0,0,0,0,-1,531,568,0,0
-686,456,0,0,0,0,0,0,0,0,0,-1,538,568,0,0
-679,456,0,0,0,0,0,0,0,0,0,-1,545,568,0,0
-672,456,0,0,0,0,0,0,0,0,0,-1,552,568,0,0
-665,456,0,0,0,0,0,0,0,0,0,-1,559,568,0,0
-658,456,0,0,0,0,0,0,0,0,0,-1,566,568,0,0
-651,456,0,0,0,0,0,0,0,0,0,-1,573,568,0,0
-644,456,0,0,0,0,0,0,0,0,0,-1,580,568,0,0
-637,456,0,0,0,0,0,0,0,0,0,-1,587,568,0,0
-630,456,0,0,0,0,0,0,0,0,0,-1,594,568,0,0
-623,456,0,0,0,0,0,0,0,0,0,-1,601,568,0,0
-616,456,0,0,0,0,0,0,0,0,0,-1,608,568,0,0
-609,456,0,0,0,0,0,0,0,0,0,-1,615,568,0,0
-602,456,0,0,0,0,0,0,0,0,0,-1,622,568,0,0
-595,456,0,0,0,0,0,0,0,0,0,-1,629,568,0,0
-588,456,0,0,0,0,0,0,0,0,0,-1,636,568,0,0
-581,456,0,0,0,0,0,0,0,0,0,-1,643,568,0,0
-574,456,0,0,0,0,0,0,0,0,0,-1,650,568,0,0
-567,456,0,0,0,0,0,0,0,0,0,-1,657,568,0,0
-560,456,0,0,0,0,0,0,0,0,0,-1,664,568,0,0
-553,456,0,0,0,0,0,0,0,0,0,-1,671,568,0,0
-546,456,0,0,0,0,0,0,0,0,0,-1,678,568,0,0
-539,456,0,0,0,0,0,0,0,0,0,-1,685,568,0,0
-532,456,0,0,0,0,0,0,0,0,0,-1,692,568,0,0
-525,456,0,0,0,0,0,0,0,0,0,-1,699,568,0,0
-518,456,0,0,0,0,0,0,0,0,0,-1,706,568,0,0
-511,456,0,0,0,0,0,0,0,0,0,-1,713,568,0,0
-504,456,1.16443,-1.4057,0,0,0,0,0,0,0,-1,720,568,1.16443,1.4057
-497,456,0.142029,-1.11017,-0.00527897,0.0385501,0.0556542,0.0764489,-0.0431778,0.972957,0.0699513,0.0456217,727,568,0.142005,1.11014
-490,456,-0.116516,-0.820984,-0.00695555,0.0336744,0.0504365,0.0677335,-0.0410146,0.97685,0.0634143,0.0454611,734,568,-0.11653,0.820967
-483,456,-0.172852,-0.645203,-0.00767322,0.0281365,0.0444059,0.0581114,-0.0376481,0.977033,0.0557059,0.0416627,741,568,-0.172856,0.645179
-476,456,0.086792,-0.205505,-0.00761619,0.0224233,0.0377922,0.048071,-0.0332639,0.974543,0.0472174,0.0439669,748,568,0.0868073,0.205497
-469,456,0.055603,0.22821,-0.0068556,0.0174542,0.0312067,0.0387896,-0.028191,0.971108,0.0388323,0.0470315,755,568,0.0556291,-0.228181
-462,456,0.350769,0.216797,-0.00575973,0.0138782,0.0248915,0.0308173,-0.0226989,0.973264,0.0310159,0.0444272,762,568,0.350798,-0.216811
-455,456,-0.0391235,0.119324,-0.0045296,0.0104037,0.0190987,0.0234434,-0.0175693,0.971738,0.0237595,0.0430173,769,568,-0.0391195,-0.11931
-448,456,-0.0187378,0.06073,-0.00305144,0.0073621,0.0140193,0.0171103,-0.0127996,0.963204,0.0173282,0.0261582,776,568,-0.0187508,-0.0607583
-441,456,-0.0176392,0.0525513,-0.00196284,0.00498279,0.00974496,0.0118552,-0.0088353,0.956567,0.011988,0.0120103,783,568,-0.0176329,-0.0525753
-434,456,-0.0332642,0.0734863,-0.00148551,0.00309459,0.00671942,0.00790348,-0.0062944,0.949631,0.00821468,0.00756243,790,568,-0.0332781,-0.0734714
-427,456,-0.0336304,0.0916138,-0.000498844,0.00267561,0.00400489,0.00539634,-0.00321957,0.974064,0.00502703,0.00774765,797,568,-0.0336376,-0.091607
-420,456,-0.0171509,0.0982056,0.000511923,0.0020315,0.00194664,0.00336138,-0.000817954,0.971459,0.00255755,0.00864247,804,568,-0.0171388,-0.0981759
-413,456,-0.0194092,0.0950928,0.00127898,0.00105624,0.000509243,0.00168889,0.000646332,0.677745,0.000983985,0.00744109,811,568,-0.0193919,-0.0951041
-406,456,-0.0436401,0.0936279,0.00172675,0.000515159,-0.000155518,0.00174639,0.000495515,-0.125645,0.00103924,0.00728001,818,568,-0.0436118,-0.0936299
-399,456,-0.03479,0.0928955,0.00140952,0.000692765,-2.31743e-05,0.00141027,0.000692017,-0.0322872,0.000814267,0.00858725,825,568,-0.0347753,-0.0928959
-392,456,-0.0244751,0.09729,0.000682016,0.000421204,0.00027567,0.000856568,0.000246652,0.56447,0.000509148,0.00808441,832,568,-0.0244801,-0.0972686
-385,456,-0.0304565,0.09198,0.000140305,0.000187448,0.000191487,0.000356809,-2.90562e-05,0.84664,0.000248126,0.00884935,839,568,-0.0304773,-0.0919706
-378,456,-0.036377,0.0717163,-0.00020297,-0.00022092,-1.47002e-06,-0.000202851,-0.00022104,-0.0811768,0.000141686,0.0101645,846,568,-0.0363723,-0.0717348
-371,456,-0.0316772,0.0582886,-0.000537219,-0.000422784,0.000119715,-0.000347316,-0.000612687,1.00832,0.000354788,0.0103705,853,568,-0.0316506,-0.0582898
-364,456,0.00140381,0.0731812,-0.00104567,-0.000690666,0.000300245,-0.000519379,-0.00121696,1.05236,0.000705117,0.0131455,860,568,0.00143081,-0.0731525
-357,456,0.00476074,0.0725708,-0.00150809,-0.000816959,0.00085786,-0.00023768,-0.00208737,0.976867,0.00131951,0.0148896,867,568,0.00478364,-0.0725708
-350,456,0.00726318,0.069519,-0.00184635,-0.000105119,0.00174195,0.000971663,-0.00292313,1.01714,0.00234086,0.0256446,874,568,0.00726296,-0.0695328
-343,456,0.15094,0.243347,-0.0018277,0.000943996,0.002861,0.00273712,-0.00362083,1.01094,0.00368257,0.0351702,881,568,0.150913,-0.243358
-336,456,-0.0360107,0.00543213,-0.00153426,0.00158499,0.00318313,0.00357004,-0.00351931,1.01319,0.00409308,0.0414749,888,568,-0.03599,-0.00540529
-329,456,-0.0921021,-0.104309,-0.00117095,0.00242249,0.00359066,0.00464087,-0.00338933,1.01738,0.00465497,0.0443676,895,568,-0.0920982,0.104328
-322,456,0.378845,0.202698,-0.000319899,0.00329637,0.00379252,0.00568973,-0.00271326,1.00784,0.00495188,0.0437567,902,568,0.378829,-0.202712
-315,456,-0.352417,0.0625,0,0,0,0,0,0,0,-1,909,568,-0.352406,-0.0625006
-308,456,-0.395569,0.102905,0.00309781,0.00613398,0.00387707,0.00877958,0.000452212,0.972,0.00570829,0.0445074,916,568,-0.395591,-0.102901
-301,456,-0.402466,0.221802,0.00843957,0.00715773,0.00407206,0.0119208,0.00367645,0.707341,0.00704892,0.0454048,923,568,-0.40249,-0.221796
-294,456,-0.391113,0.539429,0,0,0,0,0,0,0,-1,930,568,-0.391101,-0.539444
-287,456,-1.13495,1.07159,0,0,0,0,0,0,0,-1,937,568,-1.13497,-1.07158
-280,456,0.362793,0.6521,0,0,0,0,0,0,0,-1,944,568,0.362764,-0.652114
-273,456,0.320862,0.15863,0,0,0,0,0,0,0,-1,951,568,0.32085,-0.158625
-266,456,0.392517,-0.176575,0,0,0,0,0,0,0,-1,958,568,0.392506,0.176593
-259,456,0,0,0,0,0,0,0,0,0,-1,965,568,0,0
-252,456,0,0,0,0,0,0,0,0,0,-1,972,568,0,0
-245,456,0,0,0,0,0,0,0,0,0,-1,979,568,0,0
-238,456,0,0,0,0,0,0,0,0,0,-1,986,568,0,0
-231,456,0,0,0,0,0,0,0,0,0,-1,993,568,0,0
-224,456,0,0,0,0,0,0,0,0,0,-1,1000,568,0,0
-217,456,0,0,0,0,0,0,0,0,0,-1,1007,568,0,0
-210,456,0,0,0,0,0,0,0,0,0,-1,1014,568,0,0
-203,456,0,0,0,0,0,0,0,0,0,-1,1021,568,0,0
-196,456,0,0,0,0,0,0,0,0,0,-1,1028,568,0,0
-189,456,0,0,0,0,0,0,0,0,0,-1,1035,568,0,0
-182,456,0,0,0,0,0,0,0,0,0,-1,1042,568,0,0
-175,456,0,0,0,0,0,0,0,0,0,-1,1049,568,0,0
-168,456,0,0,0,0,0,0,0,0,0,-1,1056,568,0,0
-161,456,0,0,0,0,0,0,0,0,0,-1,1063,568,0,0
-154,456,0,0,0,0,0,0,0,0,0,-1,1070,568,0,0
-147,456,0,0,0,0,0,0,0,0,0,-1,1077,568,0,0
-140,456,0,0,0,0,0,0,0,0,0,-1,1084,568,0,0
-133,456,0,0,0,0,0,0,0,0,0,-1,1091,568,0,0
-126,456,0,0,0,0,0,0,0,0,0,-1,1098,568,0,0
-119,456,0,0,0,0,0,0,0,0,0,-1,1105,568,0,0
-112,456,0,0,0,0,0,0,0,0,0,-1,1112,568,0,0
-105,456,0,0,0,0,0,0,0,0,0,-1,1119,568,0,0
-98,456,0,0,0,0,0,0,0,0,0,-1,1126,568,0,0
-91,456,0,0,0,0,0,0,0,0,0,-1,1133,568,0,0
-84,456,0,0,0,0,0,0,0,0,0,-1,1140,568,0,0
-77,456,0,0,0,0,0,0,0,0,0,-1,1147,568,0,0
-70,456,0,0,0,0,0,0,0,0,0,-1,1154,568,0,0
-63,456,0,0,0,0,0,0,0,0,0,-1,1161,568,0,0
-56,456,0,0,0,0,0,0,0,0,0,-1,1168,568,0,0
-49,456,0,0,0,0,0,0,0,0,0,-1,1175,568,0,0
-42,456,0,0,0,0,0,0,0,0,0,-1,1182,568,0,0
-35,456,0,0,0,0,0,0,0,0,0,-1,1189,568,0,0
-28,456,0,0,0,0,0,0,0,0,0,-1,1196,568,0,0
-21,456,0,0,0,0,0,0,0,0,0,-1,1203,568,0,0
-14,456,0,0,0,0,0,0,0,0,0,-1,1210,568,0,0
-7,456,0,0,0,0,0,0,0,0,0,-1,1217,568,0,0
0,456,0,0,0,0,0,0,0,0,0,-1,1224,568,0,0
7,456,0,0,0,0,0,0,0,0,0,-1,1231,568,0,0
14,456,0,0,0,0,0,0,0,0,0,-1,1238,568,0,0
21,456,0,0,0,0,0,0,0,0,0,-1,1245,568,0,0
28,456,0,0,0,0,0,0,0,0,0,-1,1252,568,0,0
35,456,0,0,0,0,0,0,0,0,0,-1,1259,568,0,0
42,456,0,0,0,0,0,0,0,0,0,-1,1266,568,0,0
49,456,0,0,0,0,0,0,0,0,0,-1,1273,568,0,0
56,456,0,0,0,0,0,0,0,0,0,-1,1280,568,0,0
63,456,0,0,0,0,0,0,0,0,0,-1,1287,568,0,0
70,456,0,0,0,0,0,0,0,0,0,-1,1294,568,0,0
77,456,0,0,0,0,0,0,0,0,0,-1,1301,568,0,0
84,456,0,0,0,0,0,0,0,0,0,-1,1308,568,0,0
91,456,0,0,0,0,0,0,0,0,0,-1,1315,568,0,0
98,456,0,0,0,0,0,0,0,0,0,-1,1322,568,0,0
105,456,0,0,0,0,0,0,0,0,0,-1,1329,568,0,0
112,456,0,0,0,0,0,0,0,0,0,-1,1336,568,0,0
119,456,0,0,0,0,0,0,0,0,0,-1,1343,568,0,0
126,456,0,0,0,0,0,0,0,0,0,-1,1350,568,0,0
133,456,0,0,0,0,0,0,0,0,0,-1,1357,568,0,0
140,456,0,0,0,0,0,0,0,0,0,-1,1364,568,0,0
147,456,0,0,0,0,0,0,0,0,0,-1,1371,568,0,0
154,456,0,0,0,0,0,0,0,0,0,-1,1378,568,0,0
161,456,0,0,0,0,0,0,0,0,0,-1,1385,568,0,0
168,456,0,0,0,0,0,0,0,0,0,-1,1392,568,0,0
175,456,0,0,0,0,0,0,0,0,0,-1,1399,568,0,0
182,456,0,0,0,0,0,0,0,0,0,-1,1406,568,0,0
189,456,0,0,0,0,0,0,0,0,0,-1,1413,568,0,0
196,456,0,0,0,0,0,0,0,0,0,-1,1420,568,0,0
203,456,0,0,0,0,0,0,0,0,0,-1,1427,568,0,0
210,456,0,0,0,0,0,0,0,0,0,-1,1434,568,0,0
217,456,0,0,0,0,0,0,0,0,0,-1,1441,568,0,0
224,456,0,0,0,0,0,0,0,0,0,-1,1448,568,0,0
231,456,0,0,0,0,0,0,0,0,0,-1,1455,568,0,0
238,456,0,0,0,0,0,0,0,0,0,-1,1462,568,0,0
245,456,0,0,0,0,0,0,0,0,0,-1,1469,568,0,0
252,456,0,0,0,0,0,0,0,0,0,-1,1476,568,0,0
259,456,0,0,0,0,0,0,0,0,0,-1,1483,568,0,0
266,456,0,0,0,0,0,0,0,0,0,-1,1490,568,0,0
273,456,0,0,0,0,0,0,0,0,0,-1,1497,568,0,0
280,456,0,0,0,0,0,0,0,0,0,-1,1504,568,0,0
287,456,0,0,0,0,0,0,0,0,0,-1,1511,568,0,0
294,456,0,0,0,0,0,0,0,0,0,-1,1518,568,0,0
301,456,0,0,0,0,0,0,0,0,0,-1,1525,568,0,0
308,456,0,0,0,0,0,0,0,0,0,-1,1532,568,0,0
315,456,0,0,0,0,0,0,0,0,0,-1,1539,568,0,0
322,456,0,0,0,0,0,0,0,0,0,-1,1546,568,0,0
329,456,0,0,0,0,0,0,0,0,0,-1,1553,568,0,0
336,456,0,0,0,0,0,0,0,0,0,-1,1560,568,0,0
343,456,0,0,0,0,0,0,0,0,0,-1,1567,568,0,0
350,456,0,0,0,0,0,0,0,0,0,-1,1574,568,0,0
357,456,0,0,0,0,0,0,0,0,0,-1,1581,568,0,0
364,456,0,0,0,0,0,0,0,0,0,-1,1588,568,0,0
371,456,0,0,0,0,0,0,0,0,0,-1,1595,568,0,0
378,456,0,0,0,0,0,0,0,0,0,-1,1602,568,0,0
385,456,-0.91394,1.34753,0,0,0,0,0,0,0,-1,1609,568,-0.913928,-1.34756
392,456,-0.158447,1.31824,0.0256222,0.00876413,-0.0139129,0.0334602,0.000926109,-0.513045,0.0220046,0.0404763,1616,568,-0.158423,-1.31823
399,456,0.221558,0.842834,0.0237657,0.00638093,-0.0130154,0.0307245,-0.000577858,-0.490987,0.0206783,0.041315,1623,568,0.221613,-0.842815
406,456,0.226929,0.235718,0.0199361,0.00673829,-0.0125945,0.0275558,-0.000881376,-0.544086,0.0186713,0.0412878,1630,568,0.226876,-0.235699
413,456,0.131348,0.157898,0.0166198,0.00771935,-0.0112112,0.0242317,0.000107452,-0.596463,0.0161188,0.0415473,1637,568,0.131402,-0.157911
420,456,0.0537109,0.126526,0.0140287,0.00773494,-0.00956319,0.0209495,0.000814172,-0.626448,0.013703,0.0432276,1644,568,0.0536664,-0.126513
427,456,0.299683,-0.202576,0.0115792,0.0079103,-0.0081266,0.0180758,0.00141366,-0.674392,0.011608,0.0431644,1651,568,0.299632,0.202599
434,456,0.563965,-0.534912,0.00874895,0.00721288,-0.0061558,0.0141844,0.00177739,-0.723336,0.00892303,0.0434251,1658,568,0.563995,0.534923
441,456,0.650513,-0.520264,0.00616741,0.00614314,-0.00449572,0.010651,0.00165954,-0.784049,0.00661723,0.041387,1665,568,0.650568,0.520294
448,456,0.649414,0.171326,0,0,0,0,0,0,0,-1,1672,568,0.649386,-0.171304
455,456,0.408081,0.202515,0.0017959,0.00383977,-0.00161088,0.00472552,0.000910149,-1.06806,0.00289505,0.0407987,1679,568,0.408062,-0.202541
462,456,0.13501,0.173645,0.000791986,0.00317374,-0.00062518,0.00332787,0.000637858,-1.32908,0.00203948,0.0453184,1686,568,0.134979,-0.173653
469,456,-0.0540771,0.0789185,-8.04104e-05,0.00248429,0.000357379,0.00253316,-0.000129278,1.4349,0.00173347,0.0474136,1693,568,-0.0540824,-0.0789266
476,456,-0.0969238,0.0643921,-0.000848728,0.00205408,0.0010017,0.00236619,-0.00116084,1.26875,0.00207559,0.035983,1700,568,-0.0968742,-0.064411
483,456,-0.12146,0.0949097,-0.00126458,0.00181473,0.00129831,0.00228906,-0.00173892,1.22052,0.00233277,0.0287773,1707,568,-0.1215,-0.0949322
490,456,-0.0689697,0.098938,-0.00103123,0.00162386,0.00125335,0.00212204,-0.0015294,1.19247,0.0021174,0.0178085,1714,568,-0.068914,-0.0989251
497,456,-0.0454102,0.0714722,-0.000394527,0.00175196,0.000925274,0.00209575,-0.000738316,1.21505,0.00169766,0.0109846,1721,568,-0.0454536,-0.0714713
504,456,-0.0100098,0.0637817,-3.36856e-05,0.00122742,0.000744595,0.00157258,-0.000378848,1.13673,0.00119486,0.00945841,1728,568,-0.00999039,-0.0637793
511,456,-0.0153809,0.0849609,0.000313672,0.0009379,0.000672119,0.00136684,-0.000115266,1.00277,0.000951977,0.0129837,1735,568,-0.015365,-0.0849738
518,456,-0.0236816,0.10968,0.000426384,0.000499318,0.00055309,0.00101714,-9.14397e-05,0.818317,0.000710538,0.0157034,1742,568,-0.0236891,-0.109708
525,456,-0.0372314,0.0845337,0.000396248,0.000209615,0.000412491,0.000725846,-0.000119983,0.674157,0.000528452,0.0141871,1749,568,-0.0372481,-0.0845391
532,456,-0.0675049,0.0513916,0.000388794,-0.000192711,0.000353699,0.000555906,-0.000359823,0.441381,0.000532721,0.0126521,1756,568,-0.067452,-0.0514144
539,456,-0.0606689,0.0419922,0.000623817,-0.000409997,0.000241007,0.000677241,-0.000463421,0.218142,0.000662407,0.0128801,1763,568,-0.0606631,-0.0420103
546,456,-0.0391846,0.0670776,0.00131866,-0.000730359,0.000244607,0.00134746,-0.000759155,0.117184,0.00123196,0.0135631,1770,568,-0.0391563,-0.0670936
553,456,-0.0308838,0.0859375,0.0020282,-0.000724581,0.000397281,0.00208438,-0.00078077,0.140501,0.00171032,0.0113309,1777,568,-0.0308437,-0.0859227
560,456,-0.0334473,0.0906982,0.00215969,-0.000243016,0.0007079,0.00235274,-0.00043607,0.26624,0.00173224,0.0102173,1784,568,-0.0334442,-0.0906978
567,456,-0.0483398,0.0893555,0.00245924,-5.78546e-05,0.000972503,0.0027912,-0.000389811,0.328941,0.00200342,0.00938394,1791,568,-0.0483371,-0.0893662
574,456,-0.0557861,0.0770874,0.00261339,0.000290762,0.00121199,0.00313064,-0.00022649,0.403375,0.00216654,0.0143723,1798,568,-0.0557719,-0.0770869
581,456,-0.0627441,0.136963,0.00281618,0.000340668,0.00123818,0.00332917,-0.000172329,0.392785,0.00227906,0.0334543,1805,568,-0.0627046,-0.136938
588,456,-0.0599365,0.14624,0.00334216,0.000593342,0.00117059,0.0037731,0.000162404,0.352741,0.00246305,0.0411131,1812,568,-0.0599587,-0.146213
595,456,0.0450439,-0.0507202,0.00370953,0.000183007,0.00105506,0.00400108,-0.000108541,0.269605,0.00270429,0.0396719,1819,568,0.0449861,0.0507271
602,456,0.166626,0.43335,0.00353091,-0.000259005,0.000647584,0.00363851,-0.000366603,0.164649,0.00255665,0.0411882,1826,568,0.166657,-0.433341
609,456,-0.282837,0.700195,0.00334141,-0.00123534,-0.000215969,0.00335158,-0.00124551,-0.047049,0.00274541,0.0439462,1833,568,-0.282784,-0.7002
616,456,-0.477417,0.942322,0,0,0,0,0,0,0,-1,1840,568,-0.477378,-0.942308
623,456,-0.130005,-0.431946,0,0,0,0,0,0,0,-1,1847,568,-0.130033,0.431943
630,456,0,0,0,0,0,0,0,0,0,-1,1854,568,0,0
637,456,0,0,0,0,0,0,0,0,0,-1,1861,568,0,0
644,456,0,0,0,0,0,0,0,0,0,-1,1868,568,0,0
651,456,0,0,0,0,0,0,0,0,0,-1,1875,568,0,0
658,456,0,0,0,0,0,0,0,0,0,-1,1882,568,0,0
665,456,0,0,0,0,0,0,0,0,0,-1,1889,568,0,0
672,456,0,0,0,0,0,0,0,0,0,-1,1896,568,0,0
679,456,0,0,0,0,0,0,0,0,0,-1,1903,568,0,0
686,456,0,0,0,0,0,0,0,0,0,-1,1910,568,0,0
693,456,0,0,0,0,0,0,0,0,0,-1,1917,568,0,0
700,456,0,0,0,0,0,0,0,0,0,-1,1924,568,0,0
707,456,0,0,0,0,0,0,0,0,0,-1,1931,568,0,0
714,456,0,0,0,0,0,0,0,0,0,-1,1938,568,0,0
721,456,0,0,0,0,0,0,0,0,0,-1,1945,568,0,0
728,456,0,0,0,0,0,0,0,0,0,-1,1952,568,0,0
735,456,0,0,0,0,0,0,0,0,0,-1,1959,568,0,0
742,456,0,0,0,0,0,0,0,0,0,-1,1966,568,0,0
749,456,0,0,0,0,0,0,0,0,0,-1,1973,568,0,0
756,456,0,0,0,0,0,0,0,0,0,-1,1980,568,0,0
763,456,0,0,0,0,0,0,0,0,0,-1,1987,568,0,0
770,456,0,0,0,0,0,0,0,0,0,-1,1994,568,0,0
777,456,0,0,0,0,0,0,0,0,0,-1,2001,568,0,0
784,456,0,0,0,0,0,0,0,0,0,-1,2008,568,0,0
791,456,0,0,0,0,0,0,0,0,0,-1,2015,568,0,0
798,456,0,0,0,0,0,0,0,0,0,-1,2022,568,0,0
805,456,0,0,0,0,0,0,0,0,0,-1,2029,568,0,0
812,456,0,0,0,0,0,0,0,0,0,-1,2036,568,0,0
-700,449,0,0,0,0,0,0,0,0,0,-1,524,575,0,0
-693,449,0,0,0,0,0,0,0,0,0,-1,531,575,0,0
-686,449,0,0,0,0,0,0,0,0,0,-1,538,575,0,0
-679,449,0,0,0,0,0,0,0,0,0,-1,545,575,0,0
-672,449,0,0,0,0,0,0,0,0,0,-1,552,575,0,0
-665,449,0,0,0,0,0,0,0,0,0,-1,559,575,0,0
-658,449,0,0,0,0,0,0,0,0,0,-1,566,575,0,0
-651,449,0,0,0,0,0,0,0,0,0,-1,573,575,0,0
-644,449,0,0,0,0,0,0,0,0,0,-1,580,575,0,0
-637,449,0,0,0,0,0,0,0,0,0,-1,587,575,0,0
-630,449,0,0,0,0,0,0,0,0,0,-1,594,575,0,0
-623,449,0,0,0,0,0,0,0,0,0,-1,601,575,0,0
-616,449,0,0,0,0,0,0,0,0,0,-1,608,575,0,0
-609,449,0,0,0,0,0,0,0,0,0,-1,615,575,0,0
-602,449,0,0,0,0,0,0,0,0,0,-1,622,575,0,0
-595,449,0,0,0,0,0,0,0,0,0,-1,629,575,0,0
-588,449,0,0,0,0,0,0,0,0,0,-1,636,575,0,0
-581,449,0,0,0,0,0,0,0,0,0,-1,643,575,0,0
-574,449,0,0,0,0,0,0,0,0,0,-1,650,575,0,0
-567,449,0,0,0,0,0,0,0,0,0,-1,657,575,0,0
-560,449,0,0,0,0,0,0,0,0,0,-1,664,575,0,0
-553,449,0,0,0,0,0,0,0,0,0,-1,671,575,0,0
-546,449,0,0,0,0,0,0,0,0,0,-1,678,575,0,0
-539,449,0,0,0,0,0,0,0,0,0,-1,685,575,0,0
-532,449,0,0,0,0,0,0,0,0,0,-1,692,575,0,0
-525,449,0,0,0,0,0,0,0,0,0,-1,699,575,0,0
-518,449,0,0,0,0,0,0,0,0,0,-1,706,575,0,0
-511,449,-1.17645,-0.752991,0,0,0,0,0,0,0,-1,713,575,-1.17648,0.75299
-504,449,-0.808167,-1.72778,0,0,0,0,0,0,0,-1,720,575,-0.808172,1.72777
-497,449,-0.839661,-1.55188,-0.00428101,0.0325983,0.0454754,0.0632303,-0.0349131,0.978011,0.0574439,0.0493479,727,575,-0.839633,1.55188
-490,449,-0.745239,-1.48834,-0.00537543,0.0289928,0.0407185,0.0560048,-0.0323874,0.985071,0.0516369,0.0496378,734,575,-0.745231,1.48837
-483,449,-0.318542,0.010376,0,0,0,0,0,0,0,-1,741,575,-0.318517,-0.0103763
-476,449,-0.315002,0.281738,-0.00589772,0.0204668,0.0301761,0.0402143,-0.0256452,0.991328,0.0383329,0.0425215,748,575,-0.315019,-0.281727
-469,449,-0.0582275,0.118347,-0.00538931,0.0167375,0.024856,0.0328811,-0.0215329,0.994784,0.0316428,0.0453211,755,575,-0.0582319,-0.11836
-462,449,-0.0441895,0.143738,-0.00463962,0.0132006,0.0198226,0.0260176,-0.0174567,0.996823,0.0252616,0.0415085,762,575,-0.0441794,-0.143728
-455,449,-0.0444336,0.105652,-0.00379342,0.00996088,0.0151346,0.0197076,-0.0135401,0.998651,0.0193053,0.0318338,769,575,-0.0444058,-0.105657
-448,449,-0.0134277,0.0598145,-0.00265517,0.00676306,0.0110063,0.0140253,-0.00991746,0.987542,0.013891,0.016788,776,575,-0.0134008,-0.0598241
-441,449,-0.0229492,0.0587769,-0.00185588,0.00406447,0.00753128,0.00919645,-0.00698785,0.972649,0.00937296,0.0113672,783,575,-0.0229546,-0.0587556
-434,449,-0.0548096,0.0688477,-0.00156074,0.00181987,0.00512259,0.00552383,-0.00526469,0.944759,0.00622935,0.0101675,790,575,-0.054789,-0.0688619
-427,449,-0.053894,0.0841064,-0.000743872,0.000885682,0.00313015,0.00330536,-0.00316355,0.912722,0.00373513,0.0109222,797,575,-0.0539102,-0.0841362
-420,449,-0.0380859,0.0847168,0.000113183,-0.000165924,0.00158799,0.00156774,-0.00162048,0.74157,0.0018408,0.0113573,804,575,-0.0380834,-0.0846943
-413,449,-0.0373535,0.093811,0.000720251,-0.00146677,0.000471309,0.000817496,-0.00156402,0.203473,0.0013973,0.00885252,811,575,-0.0373585,-0.0938
-406,449,-0.0505981,0.0876465,0.00113345,-0.0021155,2.21981e-05,0.0011336,-0.00211565,0.00683198,0.0019043,0.00801064,818,575,-0.0506068,-0.0876627
-399,449,-0.0390625,0.0750732,0.00103163,-0.00221929,0.000201698,0.0010441,-0.00223176,0.0617278,0.00193231,0.00784693,825,575,-0.039048,-0.0750536
-392,449,-0.0256958,0.0806885,0.000447963,-0.00224176,0.000488103,0.000533799,-0.00232759,0.174078,0.0017569,0.00862791,832,575,-0.0256825,-0.0806762
-385,449,-0.0302734,0.0950317,-3.025e-05,-0.00223992,0.000453466,5.91896e-05,-0.00232935,0.194736,0.001573,0.00958906,839,575,-0.0302446,-0.0950213
-378,449,-0.0402832,0.092041,-0.000355738,-0.00242169,0.000189213,-0.000338552,-0.00243887,0.0905823,0.00152564,0.00939023,846,575,-0.0402953,-0.0920216
-371,449,-0.0319214,0.0822754,-0.000701845,-0.00236891,0.000191956,-0.000680027,-0.00239072,0.113173,0.0014224,0.00990323,853,575,-0.0319367,-0.0822852
-364,449,-0.000549316,0.0580444,-0.0012376,-0.00240301,0.000189868,-0.00120745,-0.00243317,0.157495,0.0014048,0.016908,860,575,-0.000565193,-0.0580302
-357,449,-0.0129395,0.0596313,-0.00174949,-0.00198582,0.000579581,-0.00127615,-0.00245916,0.684836,0.00142014,0.0285186,867,575,-0.0129442,-0.0596363
-350,449,-0.0108032,0.121887,-0.00207963,-0.00127483,0.00136023,-0.000258723,-0.00309574,0.929213,0.00198322,0.0399433,874,575,-0.0108235,-0.121861
-343,449,-0.09375,0.341492,-0.00198513,-0.000139862,0.00242825,0.00153512,-0.00366011,0.966953,0.00308197,0.0424718,881,575,-0.0937681,-0.341488
-336,449,-0.204529,0.128113,-0.00153612,0.0004685,0.00265555,0.0023046,-0.00337222,0.965852,0.00329678,0.0425968,888,575,-0.204521,-0.128139
-329,449,-0.389038,-0.200867,-0.00102549,0.00138565,0.00305548,0.00346479,-0.00310463,0.973302,0.00379476,0.045603,895,575,-0.389012,0.200873
-322,449,-0.546509,-0.500732,4.45435e-05,0.00236907,0.00323151,0.00464098,-0.00222736,0.958028,0.00404623,0.0454214,902,575,-0.546493,0.500755
-315,449,-0.689331,-0.154358,0,0,0,0,0,0,0,-1,909,575,-0.689315,0.154378
-308,449,-0.655334,-0.0719604,0.00430362,0.00548138,0.00378809,0.00872609,0.00105891,0.862509,0.00549852,0.0450949,916,575,-0.655344,0.0719544
-301,449,-0.507019,0.0762329,0.00968327,0.00640861,0.00396728,0.0123378,0.00375406,0.589691,0.0073029,0.0431977,923,575,-0.506997,-0.0762467
-294,449,-0.48645,0.63446,0.0158644,0.00982458,0.00326898,0.0172949,0.00839409,0.41249,0.00998666,0.0426284,930,575,-0.486476,-0.634485
-287,449,-0.683777,0.800537,0.021975,0.015448,0.000502721,0.0220135,0.0154095,0.0764218,0.013044,0.0437313,937,575,-0.683747,-0.800545
-280,449,-0.709961,1.00574,0,0,0,0,0,0,0,-1,944,575,-0.709942,-1.00576
-273,449,0,0,0,0,0,0,0,0,0,-1,951,575,0,0
-266,449,0,0,0,0,0,0,0,0,0,-1,958,575,0,0
-259,449,0,0,0,0,0,0,0,0,0,-1,965,575,0,0
-252,449,0,0,0,0,0,0,0,0,0,-1,972,575,0,0
-245,449,0,0,0,0,0,0,0,0,0,-1,979,575,0,0
-238,449,0,0,0,0,0,0,0,0,0,-1,986,575,0,0
-231,449,0,0,0,0,0,0,0,0,0,-1,993,575,0,0
-224,449,0,0,0,0,0,0,0,0,0,-1,1000,575,0,0
-217,449,0,0,0,0,0,0,0,0,0,-1,1007,575,0,0
-210,449,0,0,0,0,0,0,0,0,0,-1,1014,575,0,0
-203,449,0,0,0,0,0,0,0,0,0,-1,1021,575,0,0
-196,449,0,0,0,0,0,0,0,0,0,-1,1028,575,0,0
-189,449,0,0,0,0,0,0,0,0,0,-1,1035,575,0,0
-182,449,0,0,0,0,0,0,0,0,0,-1,1042,575,0,0
-175,449,0,0,0,0,0,0,0,0,0,-1,1049,575,0,0
-168,449,0,0,0,0,0,0,0,0,0,-1,1056,575,0,0
-161,449,0,0,0,0,0,0,0,0,0,-1,1063,575,0,0
-154,449,0,0,0,0,0,0,0,0,0,-1,1070,575,0,0
-147,449,0,0,0,0,0,0,0,0,0,-1,1077,575,0,0
-140,449,0,0,0,0,0,0,0,0,0,-1,1084,575,0,0
-133,449,0,0,0,0,0,0,0,0,0,-1,1091,575,0,0
-126,449,0,0,0,0,0,0,0,0,0,-1,1098,575,0,0
-119,449,0,0,0,0,0,0,0,0,0,-1,1105,575,0,0
-112,449,0,0,0,0,0,0,0,0,0,-1,1112,575,0,0
-105,449,0,0,0,0,0,0,0,0,0,-1,1119,575,0,0
-98,449,0,0,0,0,0,0,0,0,0,-1,1126,575,0,0
-91,449,0,0,0,0,0,0,0,0,0,-1,1133,575,0,0
-84,449,0,0,0,0,0,0,0,0,0,-1,1140,575,0,0
-77,449,0,0,0,0,0,0,0,0,0,-1,1147,575,0,0
-70,449,0,0,0,0,0,0,0,0,0,-1,1154,575,0,0
-63,449,0,0,0,0,0,0,0,0,0,-1,1161,575,0,0
-56,449,0,0,0,0,0,0,0,0,0,-1,1168,575,0,0
-49,449,0,0,0,0,0,0,0,0,0,-1,1175,575,0,0
-42,449,0,0,0,0,0,0,0,0,0,-1,1182,575,0,0
-35,449,0,0,0,0,0,0,0,0,0,-1,1189,575,0,0
-28,449,0,0,0,0,0,0,0,0,0,-1,1196,575,0,0
-21,449,0,0,0,0,0,0,0,0,0,-1,1203,575,0,0
-14,449,0,0,0,0,0,0,0,0,0,-1,1210,575,0,0
-7,449,0,0,0,0,0,0,0,0,0,-1,1217,575,0,0
0,449,0,0,0,0,0,0,0,0,0,-1,1224,575,0,0
7,449,0,0,0,0,0,0,0,0,0,-1,1231,575,0,0
14,449,0,0,0,0,0,0,0,0,0,-1,1238,575,0,0
21,449,0,0,0,0,0,0,0,0,0,-1,1245,575,0,0
28,449,0,0,0,0,0,0,0,0,0,-1,1252,575,0,0
35,449,0,0,0,0,0,0,0,0,0,-1,1259,575,0,0
42,449,0,0,0,0,0,0,0,0,0,-1,1266,575,0,0
49,449,0,0,0,0,0,0,0,0,0,-1,1273,575,0,0
56,449,0,0,0,0,0,0,0,0,0,-1,1280,575,0,0
63,449,0,0,0,0,0,0,0,0,0,-1,1287,575,0,0
70,449,0,0,0,0,0,0,0,0,0,-1,1294,575,0,0
77,449,0,0,0,0,0,0,0,0,0,-1,1301,575,0,0
84,449,0,0,0,0,0,0,0,0,0,-1,1308,575,0,0
91,449,0,0,0,0,0,0,0,0,0,-1,1315,575,0,0
98,449,0,0,0,0,0,0,0,0,0,-1,1322,575,0,0
105,449,0,0,0,0,0,0,0,0,0,-1,1329,575,0,0
112,449,0,0,0,0,0,0,0,0,0,-1,1336,575,0,0
119,449,0,0,0,0,0,0,0,0,0,-1,1343,575,0,0
126,449,0,0,0,0,0,0,0,0,0,-1,1350,575,0,0
133,449,0,0,0,0,0,0,0,0,0,-1,1357,575,0,0
140,449,0,0,0,0,0,0,0,0,0,-1,1364,575,0,0
147,449,0,0,0,0,0,0,0,0,0,-1,1371,575,0,0
154,449,0,0,0,0,0,0,0,0,0,-1,1378,575,0,0
161,449,0,0,0,0,0,0,0,0,0,-1,1385,575,0,0
168,449,0,0,0,0,0,0,0,0,0,-1,1392,575,0,0
175,449,0,0,0,0,0,0,0,0,0,-1,1399,575,0,0
182,449,0,0,0,0,0,0,0,0,0,-1,1406,575,0,0
189,449,0,0,0,0,0,0,0,0,0,-1,1413,575,0,0
196,449,0,0,0,0,0,0,0,0,0,-1,1420,575,0,0
203,449,0,0,0,0,0,0,0,0,0,-1,1427,575,0,0
210,449,0,0,0,0,0,0,0,0,0,-1,1434,575,0,0
217,449,0,0,0,0,0,0,0,0,0,-1,1441,575,0,0
224,449,0,0,0,0,0,0,0,0,0,-1,1448,575,0,0
231,449,0,0,0,0,0,0,0,0,0,-1,1455,575,0,0
238,449,0,0,0,0,0,0,0,0,0,-1,1462,575,0,0
245,449,0,0,0,0,0,0,0,0,0,-1,1469,575,0,0
252,449,0,0,0,0,0,0,0,0,0,-1,1476,575,0,0
259,449,0,0,0,0,0,0,0,0,0,-1,1483,575,0,0
266,449,0,0,0,0,0,0,0,0,0,-1,1490,575,0,0
273,449,0,0,0,0,0,0,0,0,0,-1,1497,575,0,0
280,449,0,0,0,0,0,0,0,0,0,-1,1504,575,0,0
287,449,0,0,0,0,0,0,0,0,0,-1,1511,575,0,0
294,449,0,0,0,0,0,0,0,0,0,-1,1518,575,0,0
301,449,0,0,0,0,0,0,0,0,0,-1,1525,575,0,0
308,449,0,0,0,0,0,0,0,0,0,-1,1532,575,0,0
315,449,0,0,0,0,0,0,0,0,0,-1,1539,575,0,0
322,449,0,0,0,0,0,0,0,0,0,-1,1546,575,0,0
329,449,0,0,0,0,0,0,0,0,0,-1,1553,575,0,0
336,449,0,0,0,0,0,0,0,0,0,-1,1560,575,0,0
343,449,0,0,0,0,0,0,0,0,0,-1,1567,575,0,0
350,449,0,0,0,0,0,0,0,0,0,-1,1574,575,0,0
357,449,0,0,0,0,0,0,0,0,0,-1,1581,575,0,0
364,449,0,0,0,0,0,0,0,0,0,-1,1588,575,0,0
371,449,0,0,0,0,0,0,0,0,0,-1,1595,575,0,0
378,449,0,0,0,0,0,0,0,0,0,-1,1602,575,0,0
385,449,0,0,0,0,0,0,0,0,0,-1,1609,575,0,0
392,449,-0.362671,0.867004,0.027516,0.0188087,-0.0159564,0.0397021,0.00662263,-0.652216,0.02456,0.0440339,1616,575,-0.362694,-0.866984
399,449,0.0737305,0.580627,0.025548,0.0142067,-0.015004,0.0359171,0.00383754,-0.604723,0.0227736,0.0433456,1623,575,0.0736776,-0.580656
406,449,0.0378418,0.134338,0.0214508,0.0130057,-0.0142665,0.0321065,0.00234997,-0.641516,0.0206656,0.0421049,1630,575,0.0377903,-0.134348
413,449,-0.0927734,0.461731,0,0,0,0,0,0,0,-1,1637,575,-0.0928153,-0.461701
420,449,0.131104,0.138,0.0142766,0.0113339,-0.0105811,0.0234882,0.00212233,-0.716312,0.0150015,0.0473685,1644,575,0.131159,-0.138022
427,449,0.361572,-0.187866,0.0113982,0.0105259,-0.008862,0.0198348,0.00208933,-0.760809,0.0125847,0.0467306,1651,575,0.361578,0.187844
434,449,0.614502,-0.408142,0.00824748,0.00910222,-0.00666762,0.0153562,0.00199354,-0.817403,0.00964187,0.0441818,1658,575,0.614505,0.408165
441,449,0.370483,-0.513062,0.0054761,0.0075643,-0.00481216,0.0114443,0.00159607,-0.892228,0.0071571,0.0452671,1665,575,0.370449,0.513077
448,449,0.355225,0.521667,0.00273602,0.00601762,-0.00309837,0.00788284,0.000870807,-1.02891,0.00499035,0.0451714,1672,575,0.355196,-0.521659
455,449,0.233032,0.474426,0.00108379,0.00498515,-0.00172601,0.00563913,0.000429808,-1.20861,0.00362465,0.042451,1679,575,0.233014,-0.47445
462,449,0.0301514,0.0596924,0,0,0,0,0,0,0,-1,1686,575,0.0301787,-0.0596883
469,449,-0.0374756,0.0594482,-0.000391481,0.00374584,0.0005162,0.00380927,-0.000454913,1.44853,0.00270394,0.0474308,1693,575,-0.0374555,-0.0594445
476,449,-0.143799,0.0483398,-0.00105164,0.0033381,0.00124006,0.00366418,-0.00137772,1.31366,0.00300907,0.0439008,1700,575,-0.143748,-0.0483683
483,449,-0.197876,0.0912476,-0.00136518,0.00313776,0.00165125,0.00367838,-0.0019058,1.2544,0.00327772,0.0418691,1707,575,-0.197908,-0.0912585
490,449,-0.0305176,0.086731,-0.00106134,0.0029897,0.00171904,0.00362084,-0.00169248,1.21893,0.00313426,0.0333024,1714,575,-0.0305111,-0.0867527
497,449,-0.0203857,0.0799561,-0.000369424,0.00311192,0.00151515,0.00367898,-0.000936483,1.21268,0.00281719,0.0195624,1721,575,-0.0203701,-0.0799729
504,449,-0.0186768,0.0946045,3.2767e-05,0.00257781,0.00141917,0.00321142,-0.000600849,1.15088,0.00236679,0.0120938,1728,575,-0.018711,-0.0946104
511,449,-0.0212402,0.0916748,0.0004242,0.00224806,0.00142811,0.00303057,-0.000358303,1.06954,0.00214979,0.0101715,1735,575,-0.0212955,-0.0916973
518,449,-0.0201416,0.0958862,0.000552638,0.00164998,0.0013103,0.00252184,-0.000319224,0.983676,0.00179711,0.0127528,1742,575,-0.0200979,-0.0959018
525,449,-0.0366211,0.0795288,0.000485791,0.00126211,0.00115865,0.00209589,-0.000347988,0.947028,0.00152653,0.0109399,1749,575,-0.0365662,-0.0795414
532,449,-0.0582275,0.0602417,0.000377369,0.00077738,0.00106937,0.00166529,-0.000510539,0.877845,0.00131386,0.00897207,1756,575,-0.0581834,-0.0602241
539,449,-0.0548096,0.0709839,0.000508953,0.000511403,0.000851478,0.00136166,-0.000341301,0.786117,0.00104037,0.00924774,1763,575,-0.0548592,-0.0709911
546,449,-0.0412598,0.0846558,0.00115958,7.84004e-05,0.000735202,0.00153154,-0.000293567,0.468387,0.00113165,0.0147394,1770,575,-0.0412184,-0.0846461
553,449,-0.0378418,0.0899658,0.00179277,-5.74703e-05,0.000741529,0.00205328,-0.000317978,0.337842,0.00148623,0.0131304,1777,575,-0.0378698,-0.0899729
560,449,-0.038208,0.0637817,0.00178469,0.000346708,0.00093998,0.00224913,-0.000117733,0.458913,0.00154017,0.0135685,1784,575,-0.0382279,-0.0637853
567,449,-0.052002,0.0620117,0.00188051,0.000359249,0.00105442,0.00242002,-0.000180262,0.472935,0.00167667,0.01,1791,575,-0.0519502,-0.0619865
574,449,-0.0495605,0.0696411,0.0019149,0.000548574,0.0012359,0.00264388,-0.000180408,0.532916,0.0018257,0.0110031,1798,575,-0.0495808,-0.0696199
581,449,-0.0609131,0.105774,0.0020923,0.00041035,0.00120973,0.00272465,-0.000222003,0.481658,0.00189477,0.0173784,1805,575,-0.0609128,-0.105771
588,449,-0.0419922,0.0857544,0.00260881,0.000396036,0.00109338,0.00305792,-5.30781e-05,0.389744,0.00205653,0.0295666,1812,575,-0.041982,-0.0857559
595,449,0.00976563,0.0178833,0.00299858,-0.000351283,0.000947342,0.00324793,-0.000600631,0.257371,0.00239078,0.0371157,1819,575,0.00975282,-0.0179136
602,449,-0.116821,0.09021,0.00291903,-0.00109774,0.000527726,0.0029872,-0.00116591,0.128477,0.00247346,0.0433334,1826,575,-0.116837,-0.0902305
609,449,-0.476318,0.514893,0.0029864,-0.00224226,-0.000270153,0.00300032,-0.00225619,-0.051485,0.00304496,0.044784,1833,575,-0.476268,-0.514912
616,449,-0.608032,0.852417,0,0,0,0,0,0,0,-1,1840,575,-0.608086,-0.852409
623,449,-0.10376,-0.470825,0.00316984,-0.00731488,-0.00360877,0.00429188,-0.00843692,-0.301445,0.00747773,0.0454265,1847,575,-0.103723,0.47081
630,449,-0.218872,-0.742676,0.00339186,-0.0111456,-0.00600883,0.00555396,-0.0133077,-0.345397,0.0111923,0.0463133,1854,575,-0.218849,0.742656
637,449,0,0,0,0,0,0,0,0,0,-1,1861,575,0,0
644,449,0,0,0,0,0,0,0,0,0,-1,1868,575,0,0
651,449,0,0,0,0,0,0,0,0,0,-1,1875,575,0,0
658,449,0,0,0,0,0,0,0,0,0,-1,1882,575,0,0
665,449,0,0,0,0,0,0,0,0,0,-1,1889,575,0,0
672,449,0,0,0,0,0,0,0,0,0,-1,1896,575,0,0
679,449,0,0,0,0,0,0,0,0,0,-1,1903,575,0,0
686,449,0,0,0,0,0,0,0,0,0,-1,1910,575,0,0
693,449,0,0,0,0,0,0,0,0,0,-1,1917,575,0,0
700,449,0,0,0,0,0,0,0,0,0,-1,1924,575,0,0
707,449,0,0,0,0,0,0,0,0,0,-1,1931,575,0,0
714,449,0,0,0,0,0,0,0,0,0,-1,1938,575,0,0
721,449,0,0,0,0,0,0,0,0,0,-1,1945,575,0,0
728,449,0,0,0,0,0,0,0,0,0,-1,1952,575,0,0
735,449,0,0,0,0,0,0,0,0,0,-1,1959,575,0,0
742,449,0,0,0,0,0,0,0,0,0,-1,1966,575,0,0
749,449,0,0,0,0,0,0,0,0,0,-1,1973,575,0,0
756,449,0,0,0,0,0,0,0,0,0,-1,1980,575,0,0
763,449,0,0,0,0,0,0,0,0,0,-1,1987,575,0,0
770,449,0,0,0,0,0,0,0,0,0,-1,1994,575,0,0
777,449,0,0,0,0,0,0,0,0,0,-1,2001,575,0,0
784,449,0,0,0,0,0,0,0,0,0,-1,2008,575,0,0
791,449,0,0,0,0,0,0,0,0,0,-1,2015,575,0,0
798,449,0,0,0,0,0,0,0,0,0,-1,2022,575,0,0
805,449,0,0,0,0,0,0,0,0,0,-1,2029,575,0,0
812,449,0,0,0,0,0,0,0,0,0,-1,2036,575,0,0
-700,442,0,0,0,0,0,0,0,0,0,-1,524,582,0,0
-693,442,0,0,0,0,0,0,0,0,0,-1,531,582,0,0
-686,442,0,0,0,0,0,0,0,0,0,-1,538,582,0,0
-679,442,0,0,0,0,0,0,0,0,0,-1,545,582,0,0
-672,442,0,0,0,0,0,0,0,0,0,-1,552,582,0,0
-665,442,0,0,0,0,0,0,0,0,0,-1,559,582,0,0
-658,442,0,0,0,0,0,0,0,0,0,-1,566,582,0,0
-651,442,0,0,0,0,0,0,0,0,0,-1,573,582,0,0
-644,442,0,0,0,0,0,0,0,0,0,-1,580,582,0,0
-637,442,0,0,0,0,0,0,0,0,0,-1,587,582,0,0
-630,442,0,0,0,0,0,0,0,0,0,-1,594,582,0,0
-623,442,0,0,0,0,0,0,0,0,0,-1,601,582,0,0
-616,442,0,0,0,0,0,0,0,0,0,-1,608,582,0,0
-609,442,0,0,0,0,0,0,0,0,0,-1,615,582,0,0
-602,442,0,0,0,0,0,0,0,0,0,-1,622,582,0,0
-595,442,0,0,0,0,0,0,0,0,0,-1,629,582,0,0
-588,442,0,0,0,0,0,0,0,0,0,-1,636,582,0,0
-581,442,0,0,0,0,0,0,0,0,0,-1,643,582,0,0
-574,442,0,0,0,0,0,0,0,0,0,-1,650,582,0,0
-567,442,0,0,0,0,0,0,0,0,0,-1,657,582,0,0
-560,442,0,0,0,0,0,0,0,0,0,-1,664,582,0,0
-553,442,0,0,0,0,0,0,0,0,0,-1,671,582,0,0
-546,442,0,0,0,0,0,0,0,0,0,-1,678,582,0,0
-539,442,0,0,0,0,0,0,0,0,0,-1,685,582,0,0
-532,442,0,0,0,0,0,0,0,0,0,-1,692,582,0,0
-525,442,0,0,0,0,0,0,0,0,0,-1,699,582,0,0
-518,442,-2.20721,-1.05066,0,0,0,0,0,0,0,-1,706,582,-2.20721,1.05066
-511,442,1.26978,-0.752014,0,0,0,0,0,0,0,-1,713,582,1.26975,0.752025
-504,442,1.29425,-0.479187,0,0,0,0,0,0,0,-1,720,582,1.29426,0.47918
-497,442,-1.41119,-2.33612,0,0,0,0,0,0,0,-1,727,582,-1.41118,2.33612
-490,442,0.0204468,-0.260864,0,0,0,0,0,0,0,-1,734,582,0.0204744,0.260862
-483,442,-0.130554,0.204651,-0.00545679,0.0202608,0.0285816,0.038743,-0.0239389,0.996783,0.0365243,0.0465212,741,582,-0.130531,-0.204658
-476,442,-0.13678,0.0702515,-0.00556621,0.0170017,0.0242098,0.0324281,-0.0209926,1.00348,0.0310771,0.0414701,748,582,-0.13675,-0.0702788
-469,442,-0.0827637,-0.0349731,-0.0052666,0.0143813,0.0200154,0.0268537,-0.017739,1.01354,0.0259243,0.0367156,755,582,-0.0827731,0.034975
-462,442,-0.0526123,0.0535889,-0.00478175,0.0118174,0.0161127,0.0216424,-0.0146068,1.02322,0.0210595,0.0277772,762,582,-0.0526104,-0.0536063
-455,442,-0.0372314,0.0906982,-0.0042082,0.00940534,0.0124319,0.0167719,-0.0115748,1.03587,0.0164574,0.0175624,769,582,-0.0372125,-0.0907281
-448,442,-0.0145264,0.0703735,-0.00329138,0.00679293,0.00915457,0.0122021,-0.00870051,1.03712,0.0121244,0.0124589,776,582,-0.0145537,-0.070348
-441,442,-0.0177612,0.0665894,-0.00263471,0.00456902,0.00635713,0.00827377,-0.00633946,1.04314,0.00846155,0.0126336,783,582,-0.0177754,-0.0665969
-434,442,-0.041687,0.0714722,-0.00233863,0.00265054,0.00440124,0.005215,-0.00490308,1.04322,0.0058426,0.0114002,790,582,-0.0417052,-0.0714752
-427,442,-0.0580444,0.0675659,-0.00147374,0.00175134,0.0029239,0.00347789,-0.00320028,1.0374,0.00385675,0.0120819,797,582,-0.0580507,-0.0675863
-420,442,-0.0420532,0.0722046,-0.000568606,0.000659963,0.00171583,0.00186816,-0.0017768,0.957294,0.00210464,0.0125949,804,582,-0.0420555,-0.0721745
-413,442,-0.0349121,0.0778198,6.67582e-05,-0.000765973,0.000771244,0.00052685,-0.00122606,0.537885,0.00103854,0.0101264,811,582,-0.0349016,-0.077837
-406,442,-0.0247803,0.0752563,0.000575987,-0.00156813,0.000403974,0.000649574,-0.00164172,0.180183,0.00136359,0.00797713,818,582,-0.0247609,-0.0752476
-399,442,-0.0168457,0.0637817,0.000860159,-0.0021146,0.000465505,0.000931302,-0.00218574,0.151657,0.00184756,0.00717645,825,582,-0.0168303,-0.0637803
-392,442,-0.0324097,0.0726929,0.000540523,-0.00238613,0.000563135,0.000645139,-0.00249075,0.183681,0.00191217,0.00896736,832,582,-0.0324083,-0.0727013
-385,442,-0.0396118,0.0975342,0.000116822,-0.0027413,0.000522409,0.000209315,-0.0028338,0.175235,0.00196269,0.0103349,839,582,-0.0396374,-0.0975545
-378,442,-0.0376587,0.100647,-0.00022376,-0.00328186,0.000121425,-0.000218946,-0.00328667,0.0396228,0.0021219,0.0111376,846,582,-0.0376677,-0.100669
-371,442,-0.0321655,0.0797729,-0.00063321,-0.00348684,-3.91135e-05,-0.000632674,-0.00348737,-0.0137031,0.00214535,0.0211916,853,582,-0.0321496,-0.0798002
-364,442,-0.0120239,0.0045166,-0.00126853,-0.0037371,-0.000247645,-0.00124393,-0.0037617,-0.0990045,0.00221294,0.0352244,860,582,-0.0120324,-0.00449743
-357,442,-0.0941162,-0.140259,-0.00191414,-0.00344719,-7.90764e-05,-0.00191007,-0.00345126,-0.0513991,0.00199638,0.0453874,867,582,-0.0941347,0.140243
-350,442,-0.234619,-0.171814,-0.00231315,-0.0028534,0.000516973,-0.00199998,-0.00316656,0.544653,0.0018492,0.0456635,874,582,-0.234595,0.171825
-343,442,-0.445862,0.098999,-0.00221719,-0.00172151,0.0014432,-0.000505021,-0.00343368,0.870434,0.00214073,0.0445982,881,582,-0.445862,-0.0989811
-336,442,-0.579773,0.0529785,-0.00169006,-0.00126692,0.0015221,5.8246e-05,-0.00301522,0.854456,0.00202984,0.0445748,888,582,-0.579789,-0.0529885
-329,442,-0.727966,-0.203064,-0.0010741,-0.000319671,0.00185929,0.00120028,-0.00259405,0.88548,0.00223938,0.0448896,895,582,-0.727992,0.203034
-322,442,-1.14227,-0.425903,0.000202517,0.000704256,0.00197205,0.00244133,-0.00153455,0.848665,0.00231529,0.0469956,902,582,-1.1423,0.425905
-315,442,-1.13824,-0.654663,0,0,0,0,0,0,0,-1,909,582,-1.13827,0.654666
-308,442,-0.759338,-0.0811768,0,0,0,0,0,0,0,-1,916,582,-0.759316,0.0811655
-301,442,-0.573425,-0.00524902,0.0109874,0.00454684,0.00330625,0.0123825,0.00315176,0.399285,0.00743064,0.0437012,923,582,-0.573435,0.00523781
-294,442,-0.327393,0.522278,0.0175218,0.00758669,0.00268566,0.0182013,0.00690718,0.247815,0.0106098,0.0444331,930,582,-0.327388,-0.522286
-287,442,0.430969,1.3194,0.0244944,0.0124843,-3.21349e-05,0.0244945,0.0124842,-0.00267562,0.0141428,0.0453975,937,582,0.430947,-1.31939
-280,442,0,0,0,0,0,0,0,0,0,-1,944,582,0,0
-273,442,0,0,0,0,0,0,0,0,0,-1,951,582,0,0
-266,442,0,0,0,0,0,0,0,0,0,-1,958,582,0,0
-259,442,0,0,0,0,0,0,0,0,0,-1,965,582,0,0
-252,442,0,0,0,0,0,0,0,0,0,-1,972,582,0,0
-245,442,0,0,0,0,0,0,0,0,0,-1,979,582,0,0
-238,442,0,0,0,0,0,0,0,0,0,-1,986,582,0,0
-231,442,0,0,0,0,0,0,0,0,0,-1,993,582,0,0
-224,442,0,0,0,0,0,0,0,0,0,-1,1000,582,0,0
-217,442,0,0,0,0,0,0,0,0,0,-1,1007,582,0,0
-210,442,0,0,0,0,0,0,0,0,0,-1,1014,582,0,0
-203,442,0,0,0,0,0,0,0,0,0,-1,1021,582,0,0
-196,442,0,0,0,0,0,0,0,0,0,-1,1028,582,0,0
-189,442,0,0,0,0,0,0,0,0,0,-1,1035,582,0,0
-182,442,0,0,0,0,0,0,0,0,0,-1,1042,582,0,0
-175,442,0,0,0,0,0,0,0,0,0,-1,1049,582,0,0
-168,442,0,0,0,0,0,0,0,0,0,-1,1056,582,0,0
-161,442,0,0,0,0,0,0,0,0,0,-1,1063,582,0,0
-154,442,0,0,0,0,0,0,0,0,0,-1,1070,582,0,0
-147,442,0,0,0,0,0,0,0,0,0,-1,1077,582,0,0
-140,442,0,0,0,0,0,0,0,0,0,-1,1084,582,0,0
-133,442,0,0,0,0,0,0,0,0,0,-1,1091,582,0,0
-126,442,0,0,0,0,0,0,0,0,0,-1,1098,582,0,0
-119,442,0,0,0,0,0,0,0,0,0,-1,1105,582,0,0
-112,442,0,0,0,0,0,0,0,0,0,-1,1112,582,0,0
-105,442,0,0,0,0,0,0,0,0,0,-1,1119,582,0,0
-98,442,0,0,0,0,0,0,0,0,0,-1,1126,582,0,0
-91,442,0,0,0,0,0,0,0,0,0,-1,1133,582,0,0
-84,442,0,0,0,0,0,0,0,0,0,-1,1140,582,0,0
-77,442,0,0,0,0,0,0,0,0,0,-1,1147,582,0,0
-70,442,0,0,0,0,0,0,0,0,0,-1,1154,582,0,0
-63,442,0,0,0,0,0,0,0,0,0,-1,1161,582,0,0
-56,442,0,0,0,0,0,0,0,0,0,-1,1168,582,0,0
-49,442,0,0,0,0,0,0,0,0,0,-1,1175,582,0,0
-42,442,0,0,0,0,0,0,0,0,0,-1,1182,582,0,0
-35,442,0,0,0,0,0,0,0,0,0,-1,1189,582,0,0
-28,442,0,0,0,0,0,0,0,0,0,-1,1196,582,0,0
-21,442,0,0,0,0,0,0,0,0,0,-1,1203,582,0,0
-14,442,0,0,0,0,0,0,0,0,0,-1,1210,582,0,0
-7,442,0,0,0,0,0,0,0,0,0,-1,1217,582,0,0
0,442,0,0,0,0,0,0,0,0,0,-1,1224,582,0,0
7,442,0,0,0,0,0,0,0,0,0,-1,1231,582,0,0
14,442,0,0,0,0,0,0,0,0,0,-1,1238,582,0,0
21,442,0,0,0,0,0,0,0,0,0,-1,1245,582,0,0
28,442,0,0,0,0,0,0,0,0,0,-1,1252,582,0,0
35,442,0,0,0,0,0,0,0,0,0,-1,1259,582,0,0
42,442,0,0,0,0,0,0,0,0,0,-1,1266,582,0,0
49,442,0,0,0,0,0,0,0,0,0,-1,1273,582,0,0
56,442,0,0,0,0,0,0,0,0,0,-1,1280,582,0,0
63,442,0,0,0,0,0,0,0,0,0,-1,1287,582,0,0
70,442,0,0,0,0,0,0,0,0,0,-1,1294,582,0,0
77,442,0,0,0,0,0,0,0,0,0,-1,1301,582,0,0
84,442,0,0,0,0,0,0,0,0,0,-1,1308,582,0,0
91,442,0,0,0,0,0,0,0,0,0,-1,1315,582,0,0
98,442,0,0,0,0,0,0,0,0,0,-1,1322,582,0,0
105,442,0,0,0,0,0,0,0,0,0,-1,1329,582,0,0
112,442,0,0,0,0,0,0,0,0,0,-1,1336,582,0,0
119,442,0,0,0,0,0,0,0,0,0,-1,1343,582,0,0
126,442,0,0,0,0,0,0,0,0,0,-1,1350,582,0,0
133,442,0,0,0,0,0,0,0,0,0,-1,1357,582,0,0
140,442,0,0,0,0,0,0,0,0,0,-1,1364,582,0,0
147,442,0,0,0,0,0,0,0,0,0,-1,1371,582,0,0
154,442,0,0,0,0,0,0,0,0,0,-1,1378,582,0,0
161,442,0,0,0,0,0,0,0,0,0,-1,1385,582,0,0
168,442,0,0,0,0,0,0,0,0,0,-1,1392,582,0,0
175,442,0,0,0,0,0,0,0,0,0,-1,1399,582,0,0
182,442,0,0,0,0,0,0,0,0,0,-1,1406,582,0,0
189,442,0,0,0,0,0,0,0,0,0,-1,1413,582,0,0
196,442,0,0,0,0,0,0,0,0,0,-1,1420,582,0,0
203,442,0,0,0,0,0,0,0,0,0,-1,1427,582,0,0
210,442,0,0,0,0,0,0,0,0,0,-1,1434,582,0,0
217,442,0,0,0,0,0,0,0,0,0,-1,1441,582,0,0
224,442,0,0,0,0,0,0,0,0,0,-1,1448,582,0,0
231,442,0,0,0,0,0,0,0,0,0,-1,1455,582,0,0
238,442,0,0,0,0,0,0,0,0,0,-1,1462,582,0,0
245,442,0,0,0,0,0,0,0,0,0,-1,1469,582,0,0
252,442,0,0,0,0,0,0,0,0,0,-1,1476,582,0,0
259,442,0,0,0,0,0,0,0,0,0,-1,1483,582,0,0
266,442,0,0,0,0,0,0,0,0,0,-1,1490,582,0,0
273,442,0,0,0,0,0,0,0,0,0,-1,1497,582,0,0
280,442,0,0,0,0,0,0,0,0,0,-1,1504,582,0,0
287,442,0,0,0,0,0,0,0,0,0,-1,1511,582,0,0
294,442,0,0,0,0,0,0,0,0,0,-1,1518,582,0,0
301,442,0,0,0,0,0,0,0,0,0,-1,1525,582,0,0
308,442,0,0,0,0,0,0,0,0,0,-1,1532,582,0,0
315,442,0,0,0,0,0,0,0,0,0,-1,1539,582,0,0
322,442,0,0,0,0,0,0,0,0,0,-1,1546,582,0,0
329,442,0,0,0,0,0,0,0,0,0,-1,1553,582,0,0
336,442,0,0,0,0,0,0,0,0,0,-1,1560,582,0,0
343,442,0,0,0,0,0,0,0,0,0,-1,1567,582,0,0
350,442,0,0,0,0,0,0,0,0,0,-1,1574,582,0,0
357,442,0,0,0,0,0,0,0,0,0,-1,1581,582,0,0
364,442,0,0,0,0,0,0,0,0,0,-1,1588,582,0,0
371,442,0,0,0,0,0,0,0,0,0,-1,1595,582,0,0
378,442,0,0,0,0,0,0,0,0,0,-1,1602,582,0,0
385,442,0,0,0,0,0,0,0,0,0,-1,1609,582,0,0
392,442,0,0,0,0,0,0,0,0,0,-1,1616,582,0,0
399,442,0,0,0,0,0,0,0,0,0,-1,1623,582,0,0
406,442,-0.126343,0.0738525,0.0226751,0.0200586,-0.0153822,0.0368045,0.00592913,-0.742976,0.0228182,0.0452944,1630,582,-0.126396,-0.0738611
413,442,0.00183105,-0.241943,0.0187038,0.0177994,-0.0135454,0.0318046,0.00469868,-0.768712,0.0198233,0.0449506,1637,582,0.00187108,0.241951
420,442,0.189087,0.133301,0.0145069,0.0151681,-0.0112913,0.0261337,0.00354129,-0.800034,0.0163702,0.0456875,1644,582,0.189091,-0.133272
427,442,0.52002,-0.208191,0.0112208,0.0131207,-0.00938614,0.0216048,0.00273663,-0.835831,0.0135832,0.0445659,1651,582,0.519975,0.208171
434,442,0.579956,-0.0111084,0.00783356,0.0107945,-0.00709789,0.0165647,0.00206339,-0.888215,0.0104236,0.0448574,1658,582,0.579928,0.0110845
441,442,0.502441,-0.0335693,0.00485824,0.0086868,-0.00514227,0.0122595,0.0012855,-0.963583,0.00778001,0.0473864,1665,582,0.502388,0.0335657
448,442,0.00170898,0.261292,0.00209635,0.00686963,-0.00338481,0.00862461,0.00034137,-1.09247,0.00563939,0.0455147,1672,582,0.00169235,-0.261281
455,442,-0.334717,0.481201,0.000521241,0.00569058,-0.00198242,0.00636329,-0.000151464,-1.24365,0.00429357,0.0421994,1679,582,-0.334667,-0.481223
462,442,-0.290894,0.260986,-0.000148933,0.00517188,-0.000649516,0.00525002,-0.000227073,-1.45107,0.00357811,0.0410742,1686,582,-0.290912,-0.260967
469,442,-0.132202,0.0811768,-0.000662788,0.00451374,0.000423752,0.0045482,-0.000697247,1.48966,0.00328928,0.0455348,1693,582,-0.132158,-0.0811991
476,442,-0.183105,0.381958,-0.00126596,0.00412654,0.00121057,0.00438583,-0.00152525,1.35979,0.00354347,0.0466288,1700,582,-0.183089,-0.381959
483,442,0.458618,-0.286743,-0.00156511,0.00394675,0.00171952,0.00443919,-0.00205755,1.29188,0.00383399,0.0458071,1707,582,0.458562,0.286733
490,442,0.239014,-0.14856,-0.0013129,0.00383268,0.00188137,0.00444718,-0.0019274,1.2551,0.00377499,0.0407744,1714,582,0.238976,0.148554
497,442,-0.0057373,0.0747681,-0.000683683,0.00395795,0.00181079,0.00458079,-0.00130653,1.23951,0.00356998,0.0327564,1721,582,-0.0057027,-0.0747626
504,442,-0.00427246,0.0652466,-0.000337708,0.00347487,0.00182121,0.00420501,-0.00106785,1.18951,0.00321888,0.0189931,1728,582,-0.00427196,-0.0652599
511,442,-0.0357666,0.10498,2.80829e-05,0.00311079,0.00191687,0.00402915,-0.000890272,1.12402,0.00302682,0.0115227,1735,582,-0.0357412,-0.104967
518,442,-0.0236816,0.0888672,0.000153751,0.00238331,0.00181764,0.0034008,-0.000863737,1.06047,0.00260332,0.00958276,1742,582,-0.0236282,-0.0888789
525,442,-0.0372314,0.0664063,6.30602e-05,0.00193932,0.00169522,0.00293868,-0.0009363,1.03812,0.00233466,0.00901498,1749,582,-0.0372139,-0.0663995
532,442,-0.043457,0.0581665,-0.000158432,0.00140867,0.00164241,0.00244486,-0.00119462,1.00797,0.00214218,0.00959397,1756,582,-0.0434305,-0.0581923
539,442,-0.0507813,0.0765991,-3.03675e-05,0.00115014,0.00136805,0.00204985,-0.00093007,0.989061,0.00176048,0.00902224,1763,582,-0.0507603,-0.0765849
546,442,-0.0437012,0.0908203,0.000728869,0.000620729,0.00116051,0.00183657,-0.000486968,0.762119,0.00141491,0.0106104,1770,582,-0.0436996,-0.0908455
553,442,-0.0397949,0.079895,0.00135845,0.000361432,0.00105333,0.00202528,-0.000305394,0.56438,0.00146265,0.013273,1777,582,-0.0397783,-0.0798751
560,442,-0.0408936,0.0581055,0.0012949,0.000690345,0.00118345,0.00221407,-0.000228823,0.660361,0.00155793,0.0135914,1784,582,-0.0409002,-0.0581132
567,442,-0.0546875,0.0617676,0.00127063,0.000559243,0.00119006,0.00215702,-0.000327143,0.64018,0.00155855,0.00932648,1791,582,-0.054713,-0.0617504
574,442,-0.0458984,0.0641479,0.0012394,0.000623835,0.00133328,0.00229996,-0.00043673,0.671963,0.00169771,0.0109219,1798,582,-0.0458954,-0.0641614
581,442,-0.0482178,0.0852661,0.00144629,0.000350987,0.00126491,0.00227702,-0.000479738,0.581103,0.00170063,0.0115577,1805,582,-0.0482645,-0.085294
588,442,-0.0546875,0.0827637,0.00201907,0.000176424,0.00110788,0.00253865,-0.000343165,0.438538,0.00181766,0.0136284,1812,582,-0.0547306,-0.0827687
595,442,-0.0389404,0.053894,0.0024835,-0.000726625,0.000935119,0.00273603,-0.000979162,0.263766,0.00222348,0.0279942,1819,582,-0.0389715,-0.0539126
602,442,-0.138184,0.186584,0.00252565,-0.00162773,0.000460514,0.0025761,-0.00167817,0.109111,0.00247437,0.0417258,1826,582,-0.138235,-0.186599
609,442,-0.118286,0.329407,0.00287197,-0.00278346,-0.000296251,0.00288744,-0.00279893,-0.0521931,0.00328316,0.0430115,1833,582,-0.118282,-0.329425
616,442,0.135864,0.282227,0,0,0,0,0,0,0,-1,1840,582,0.135895,-0.282218
623,442,-0.128174,-0.533875,0.00379287,-0.00741036,-0.00306687,0.00457747,-0.00819496,-0.25046,0.0074721,0.0462812,1847,582,-0.128229,0.533876
630,442,-0.191528,-0.515686,0.00434493,-0.0106789,-0.00510436,0.00591505,-0.012249,-0.298418,0.0106974,0.0479374,1854,582,-0.191483,0.515656
637,442,-0.226563,-0.55658,0,0,0,0,0,0,0,-1,1861,582,-0.2266,0.55661
644,442,0,0,0,0,0,0,0,0,0,-1,1868,582,0,0
651,442,0,0,0,0,0,0,0,0,0,-1,1875,582,0,0
658,442,0,0,0,0,0,0,0,0,0,-1,1882,582,0,0
665,442,0,0,0,0,0,0,0,0,0,-1,1889,582,0,0
672,442,0,0,0,0,0,0,0,0,0,-1,1896,582,0,0
679,442,0,0,0,0,0,0,0,0,0,-1,1903,582,0,0
686,442,0,0,0,0,0,0,0,0,0,-1,1910,582,0,0
693,442,0,0,0,0,0,0,0,0,0,-1,1917,582,0,0
700,442,0,0,0,0,0,0,0,0,0,-1,1924,582,0,0
707,442,0,0,0,0,0,0,0,0,0,-1,1931,582,0,0
714,442,0,0,0,0,0,0,0,0,0,-1,1938,582,0,0
721,442,0,0,0,0,0,0,0,0,0,-1,1945,582,0,0
728,442,0,0,0,0,0,0,0,0,0,-1,1952,582,0,0
735,442,0,0,0,0,0,0,0,0,0,-1,1959,582,0,0
742,442,0,0,0,0,0,0,0,0,0,-1,1966,582,0,0
749,442,0,0,0,0,0,0,0,0,0,-1,1973,582,0,0
756,442,0,0,0,0,0,0,0,0,0,-1,1980,582,0,0
763,442,0,0,0,0,0,0,0,0,0,-1,1987,582,0,0
770,442,0,0,0,0,0,0,0,0,0,-1,1994,582,0,0
777,442,0,0,0,0,0,0,0,0,0,-1,2001,582,0,0
784,442,0,0,0,0,0,0,0,0,0,-1,2008,582,0,0
791,442,0,0,0,0,0,0,0,0,0,-1,2015,582,0,0
798,442,0,0,0,0,0,0,0,0,0,-1,2022,582,0,0
805,442,0,0,0,0,0,0,0,0,0,-1,2029,582,0,0
812,442,0,0,0,0,0,0,0,0,0,-1,2036,582,0,0
-700,435,0,0,0,0,0,0,0,0,0,-1,524,589,0,0
-693,435,0,0,0,0,0,0,0,0,0,-1,531,589,0,0
-686,435,0,0,0,0,0,0,0,0,0,-1,538,589,0,0
-679,435,0,0,0,0,0,0,0,0,0,-1,545,589,0,0
-672,435,0,0,0,0,0,0,0,0,0,-1,552,589,0,0
-665,435,0,0,0,0,0,0,0,0,0,-1,559,589,0,0
-658,435,0,0,0,0,0,0,0,0,0,-1,566,589,0,0
-651,435,0,0,0,0,0,0,0,0,0,-1,573,589,0,0
-644,435,0,0,0,0,0,0,0,0,0,-1,580,589,0,0
-637,435,0,0,0,0,0,0,0,0,0,-1,587,589,0,0
-630,435,0,0,0,0,0,0,0,0,0,-1,594,589,0,0
-623,435,0,0,0,0,0,0,0,0,0,-1,601,589,0,0
-616,435,0,0,0,0,0,0,0,0,0,-1,608,589,0,0
-609,435,0,0,0,0,0,0,0,0,0,-1,615,589,0,0
-602,435,0,0,0,0,0,0,0,0,0,-1,622,589,0,0
-595,435,0,0,0,0,0,0,0,0,0,-1,629,589,0,0
-588,435,0,0,0,0,0,0,0,0,0,-1,636,589,0,0
-581,435,0,0,0,0,0,0,0,0,0,-1,643,589,0,0
-574,435,0,0,0,0,0,0,0,0,0,-1,650,589,0,0
-567,435,0,0,0,0,0,0,0,0,0,-1,657,589,0,0
-560,435,0,0,0,0,0,0,0,0,0,-1,664,589,0,0
-553,435,0,0,0,0,0,0,0,0,0,-1,671,589,0,0
-546,435,0,0,0,0,0,0,0,0,0,-1,678,589,0,0
-539,435,0,0,0,0,0,0,0,0,0,-1,685,589,0,0
-532,435,0,0,0,0,0,0,0,0,0,-1,692,589,0,0
-525,435,-2.2478,1.30951,0,0,0,0,0,0,0,-1,699,589,-2.24781,-1.30952
-518,435,0.954651,-1.05048,0,0,0,0,0,0,0,-1,706,589,0.95463,1.05049
-511,435,1.19415,-0.763977,-0.00240429,0.0209409,0.0349328,0.0460997,-0.0275631,0.946638,0.0429757,0.0451636,713,589,1.19414,0.763969
-504,435,1.36945,-0.433838,-0.00323642,0.0199989,0.0320983,0.0425173,-0.0257548,0.959034,0.039811,0.0458762,720,589,1.36943,0.433858
-497,435,0.225159,-0.239319,0,0,0,0,0,0,0,-1,727,589,0.225169,0.239292
-490,435,0.158142,-0.0124512,-0.00368476,0.0170611,0.0247576,0.033531,-0.0201547,0.983778,0.0313145,0.0474214,734,589,0.15814,0.0124427
-483,435,0.179199,0.440979,-0.00357696,0.0151216,0.0212958,0.02903,-0.0174854,0.99224,0.02713,0.0434267,741,589,0.179203,-0.440975
-476,435,0.0213013,0.202759,-0.00343107,0.0128036,0.0177473,0.0242019,-0.0148294,0.999887,0.0227502,0.0398756,748,589,0.021285,-0.202743
-469,435,-0.0785522,0.0339355,-0.00307079,0.0110715,0.0144239,0.0200643,-0.0120636,1.0133,0.0187398,0.0243139,755,589,-0.0785425,-0.0339459
-462,435,-0.0549316,0.0731812,-0.00268775,0.00929047,0.0114478,0.0162212,-0.00961846,1.0264,0.01508,0.0120143,762,589,-0.0549572,-0.0731698
-455,435,-0.0432739,0.0827026,-0.00234851,0.00763348,0.00867605,0.0126517,-0.00736671,1.04641,0.0116911,0.0107087,769,589,-0.0432469,-0.0827207
-448,435,-0.029541,0.0841675,-0.00169227,0.00564924,0.00625774,0.00923339,-0.00527643,1.05065,0.00848045,0.0117279,776,589,-0.0295368,-0.0841833
-441,435,-0.0272827,0.081604,-0.00123402,0.00401719,0.00421545,0.00635785,-0.00357469,1.06393,0.00580911,0.00997697,783,589,-0.0272976,-0.0815811
-434,435,-0.0332642,0.0791626,-0.00102784,0.00262512,0.00288271,0.00421128,-0.00261399,1.06778,0.00397638,0.010486,790,589,-0.0332511,-0.079167
-427,435,-0.038208,0.055542,-0.000200771,0.00204151,0.00217724,0.00336932,-0.00152858,1.02316,0.0028936,0.00915793,797,589,-0.0381817,-0.0555119
-420,435,-0.0491333,0.0616455,0.000638939,0.00115883,0.00151413,0.00243517,-0.000637397,0.87041,0.00187243,0.00954007,804,589,-0.0491051,-0.0616732
-413,435,-0.0499268,0.0656738,0.00116517,-9.09174e-05,0.000985481,0.00170572,-0.000631468,0.501702,0.00139608,0.00971073,811,589,-0.0499393,-0.0656562
-406,435,-0.0244141,0.0563965,0.00174042,-0.000795832,0.000879967,0.00201583,-0.00107124,0.303314,0.00180991,0.00934272,818,589,-0.0243956,-0.0563956
-399,435,-0.0189209,0.067627,0.00224131,-0.00142542,0.00107771,0.0025346,-0.00171872,0.265713,0.00247067,0.007654,825,589,-0.0189318,-0.0676038
-392,435,-0.0355225,0.0703735,0.00211723,-0.00177192,0.00121416,0.00246515,-0.00211984,0.279077,0.00264965,0.00853987,832,589,-0.0355316,-0.0703565
-385,435,-0.0385742,0.0910645,0.00187825,-0.00229185,0.00121443,0.00220614,-0.00261974,0.263705,0.00278963,0.010191,839,589,-0.0385808,-0.0910821
-378,435,-0.0186157,0.102356,0.00154736,-0.00310119,0.000707901,0.00165277,-0.0032066,0.147822,0.00285297,0.0160688,846,589,-0.0186444,-0.102377
-371,435,0.0361328,0.105591,0.00101676,-0.00356048,0.000360898,0.00104504,-0.00358876,0.0782022,0.00280648,0.0343416,853,589,0.0361552,-0.105605
-364,435,0.0587158,0.0973511,0.000207479,-0.00408772,-0.000101978,0.000209899,-0.00409014,-0.0237244,0.00279935,0.0455572,860,589,0.058736,-0.0973797
-357,435,-0.209106,-0.364685,0,0,0,0,0,0,0,-1,867,589,-0.209117,0.364667
-350,435,-0.400574,-0.413818,0,0,0,0,0,0,0,-1,874,589,-0.400551,0.413818
-343,435,-0.666321,0.0161743,-0.00141413,-0.00293682,0.000524328,-0.00125104,-0.0030999,0.301546,0.00180079,0.0484379,881,589,-0.666337,-0.0161717
-336,435,-0.938965,0.0522461,-0.00111411,-0.0029024,0.000243858,-0.00108145,-0.00293505,0.133127,0.00171399,0.0439363,888,589,-0.938968,-0.0522393
-329,435,-0.947021,-0.409668,-0.000680047,-0.00230615,0.000211917,-0.000652883,-0.00233331,0.127486,0.00139,0.0434644,895,589,-0.947013,0.409653
-322,435,-1.71747,-0.359741,0,0,0,0,0,0,0,-1,902,589,-1.71745,0.359758
-315,435,-1.7865,-0.366028,0,0,0,0,0,0,0,-1,909,589,-1.78649,0.366049
-308,435,-0.328125,-0.413208,0.00696153,0.000980877,0.00133329,0.0072453,0.000697107,0.209706,0.00461541,0.0455198,916,589,-0.32813,0.413211
-301,435,-0.705261,-0.108032,0.0112104,0.00127095,0.0012829,0.0113733,0.00110803,0.126314,0.0072412,0.0408592,923,589,-0.705282,0.108014
-294,435,-0.489685,0.219604,0.0160176,0.00337653,0.000213284,0.0160212,0.00337293,0.0168659,0.00975288,0.041425,930,589,-0.489695,-0.219611
-287,435,0,0,0,0,0,0,0,0,0,-1,937,589,0,0
-280,435,0,0,0,0,0,0,0,0,0,-1,944,589,0,0
-273,435,0,0,0,0,0,0,0,0,0,-1,951,589,0,0
-266,435,0,0,0,0,0,0,0,0,0,-1,958,589,0,0
-259,435,0,0,0,0,0,0,0,0,0,-1,965,589,0,0
-252,435,0,0,0,0,0,0,0,0,0,-1,972,589,0,0
-245,435,0,0,0,0,0,0,0,0,0,-1,979,589,0,0
-238,435,0,0,0,0,0,0,0,0,0,-1,986,589,0,0
-231,435,0,0,0,0,0,0,0,0,0,-1,993,589,0,0
-224,435,0,0,0,0,0,0,0,0,0,-1,1000,589,0,0
-217,435,0,0,0,0,0,0,0,0,0,-1,1007,589,0,0
-210,435,0,0,0,0,0,0,0,0,0,-1,1014,589,0,0
-203,435,0,0,0,0,0,0,0,0,0,-1,1021,589,0,0
-196,435,0,0,0,0,0,0,0,0,0,-1,1028,589,0,0
-189,435,0,0,0,0,0,0,0,0,0,-1,1035,589,0,0
-182,435,0,0,0,0,0,0,0,0,0,-1,1042,589,0,0
-175,435,0,0,0,0,0,0,0,0,0,-1,1049,589,0,0
-168,435,0,0,0,0,0,0,0,0,0,-1,1056,589,0,0
-161,435,0,0,0,0,0,0,0,0,0,-1,1063,589,0,0
-154,435,0,0,0,0,0,0,0,0,0,-1,1070,589,0,0
-147,435,0,0,0,0,0,0,0,0,0,-1,1077,589,0,0
-140,435,0,0,0,0,0,0,0,0,0,-1,1084,589,0,0
-133,435,0,0,0,0,0,0,0,0,0,-1,1091,589,0,0
-126,435,0,0,0,0,0,0,0,0,0,-1,1098,589,0,0
-119,435,0,0,0,0,0,0,0,0,0,-1,1105,589,0,0
-112,435,0,0,0,0,0,0,0,0,0,-1,1112,589,0,0
-105,435,0,0,0,0,0,0,0,0,0,-1,1119,589,0,0
-98,435,0,0,0,0,0,0,0,0,0,-1,1126,589,0,0
-91,435,0,0,0,0,0,0,0,0,0,-1,1133,589,0,0
-84,435,0,0,0,0,0,0,0,0,0,-1,1140,589,0,0
-77,435,0,0,0,0,0,0,0,0,0,-1,1147,589,0,0
-70,435,0,0,0,0,0,0,0,0,0,-1,1154,589,0,0
-63,435,0,0,0,0,0,0,0,0,0,-1,1161,589,0,0
-56,435,0,0,0,0,0,0,0,0,0,-1,1168,589,0,0
-49,435,0,0,0,0,0,0,0,0,0,-1,1175,589,0,0
-42,435,0,0,0,0,0,0,0,0,0,-1,1182,589,0,0
-35,435,0,0,0,0,0,0,0,0,0,-1,1189,589,0,0
-28,435,0,0,0,0,0,0,0,0,0,-1,1196,589,0,0
-21,435,0,0,0,0,0,0,0,0,0,-1,1203,589,0,0
-14,435,0,0,0,0,0,0,0,0,0,-1,1210,589,0,0
-7,435,0,0,0,0,0,0,0,0,0,-1,1217,589,0,0
0,435,0,0,0,0,0,0,0,0,0,-1,1224,589,0,0
7,435,0,0,0,0,0,0,0,0,0,-1,1231,589,0,0
14,435,0,0,0,0,0,0,0,0,0,-1,1238,589,0,0
21,435,0,0,0,0,0,0,0,0,0,-1,1245,589,0,0
28,435,0,0,0,0,0,0,0,0,0,-1,1252,589,0,0
35,435,0,0,0,0,0,0,0,0,0,-1,1259,589,0,0
42,435,0,0,0,0,0,0,0,0,0,-1,1266,589,0,0
49,435,0,0,0,0,0,0,0,0,0,-1,1273,589,0,0
56,435,0,0,0,0,0,0,0,0,0,-1,1280,589,0,0
63,435,0,0,0,0,0,0,0,0,0,-1,1287,589,0,0
70,435,0,0,0,0,0,0,0,0,0,-1,1294,589,0,0
77,435,0,0,0,0,0,0,0,0,0,-1,1301,589,0,0
84,435,0,0,0,0,0,0,0,0,0,-1,1308,589,0,0
91,435,0,0,0,0,0,0,0,0,0,-1,1315,589,0,0
98,435,0,0,0,0,0,0,0,0,0,-1,1322,589,0,0
105,435,0,0,0,0,0,0,0,0,0,-1,1329,589,0,0
112,435,0,0,0,0,0,0,0,0,0,-1,1336,589,0,0
119,435,0,0,0,0,0,0,0,0,0,-1,1343,589,0,0
126,435,0,0,0,0,0,0,0,0,0,-1,1350,589,0,0
133,435,0,0,0,0,0,0,0,0,0,-1,1357,589,0,0
140,435,0,0,0,0,0,0,0,0,0,-1,1364,589,0,0
147,435,0,0,0,0,0,0,0,0,0,-1,1371,589,0,0
154,435,0,0,0,0,0,0,0,0,0,-1,1378,589,0,0
161,435,0,0,0,0,0,0,0,0,0,-1,1385,589,0,0
168,435,0,0,0,0,0,0,0,0,0,-1,1392,589,0,0
175,435,0,0,0,0,0,0,0,0,0,-1,1399,589,0,0
182,435,0,0,0,0,0,0,0,0,0,-1,1406,589,0,0
189,435,0,0,0,0,0,0,0,0,0,-1,1413,589,0,0
196,435,0,0,0,0,0,0,0,0,0,-1,1420,589,0,0
203,435,0,0,0,0,0,0,0,0,0,-1,1427,589,0,0
210,435,0,0,0,0,0,0,0,0,0,-1,1434,589,0,0
217,435,0,0,0,0,0,0,0,0,0,-1,1441,589,0,0
224,435,0,0,0,0,0,0,0,0,0,-1,1448,589,0,0
231,435,0,0,0,0,0,0,0,0,0,-1,1455,589,0,0
238,435,0,0,0,0,0,0,0,0,0,-1,1462,589,0,0
245,435,0,0,0,0,0,0,0,0,0,-1,1469,589,0,0
252,435,0,0,0,0,0,0,0,0,0,-1,1476,589,0,0
259,435,0,0,0,0,0,0,0,0,0,-1,1483,589,0,0
266,435,0,0,0,0,0,0,0,0,0,-1,1490,589,0,0
273,435,0,0,0,0,0,0,0,0,0,-1,1497,589,0,0
280,435,0,0,0,0,0,0,0,0,0,-1,1504,589,0,0
287,435,0,0,0,0,0,0,0,0,0,-1,1511,589,0,0
294,435,0,0,0,0,0,0,0,0,0,-1,1518,589,0,0
301,435,0,0,0,0,0,0,0,0,0,-1,1525,589,0,0
308,435,0,0,0,0,0,0,0,0,0,-1,1532,589,0,0
315,435,0,0,0,0,0,0,0,0,0,-1,1539,589,0,0
322,435,0,0,0,0,0,0,0,0,0,-1,1546,589,0,0
329,435,0,0,0,0,0,0,0,0,0,-1,1553,589,0,0
336,435,0,0,0,0,0,0,0,0,0,-1,1560,589,0,0
343,435,0,0,0,0,0,0,0,0,0,-1,1567,589,0,0
350,435,0,0,0,0,0,0,0,0,0,-1,1574,589,0,0
357,435,0,0,0,0,0,0,0,0,0,-1,1581,589,0,0
364,435,0,0,0,0,0,0,0,0,0,-1,1588,589,0,0
371,435,0,0,0,0,0,0,0,0,0,-1,1595,589,0,0
378,435,0,0,0,0,0,0,0,0,0,-1,1602,589,0,0
385,435,0,0,0,0,0,0,0,0,0,-1,1609,589,0,0
392,435,0,0,0,0,0,0,0,0,0,-1,1616,589,0,0
399,435,0,0,0,0,0,0,0,0,0,-1,1623,589,0,0
406,435,0,0,0,0,0,0,0,0,0,-1,1630,589,0,0
413,435,0.237549,-0.411621,0.0196923,0.0220753,-0.0138613,0.0347962,0.00697142,-0.828272,0.0212582,0.0457324,1637,589,0.237513,0.411622
420,435,0.525513,-0.439697,0.0145382,0.0182286,-0.0115038,0.0280343,0.00473255,-0.864919,0.0173288,0.0458839,1644,589,0.525537,0.439696
427,435,0.713745,-0.430664,0.0108217,0.0151301,-0.0095582,0.0227738,0.00317794,-0.896235,0.0142419,0.0450344,1651,589,0.713701,0.430647
434,435,0.63269,-0.283752,0.00718829,0.0121182,-0.00735956,0.0174146,0.00189185,-0.946992,0.0110333,0.0429563,1658,589,0.632652,0.283743
441,435,0.515869,-0.248535,0.00403649,0.00965462,-0.00544131,0.0129692,0.000721935,-1.02368,0.0084158,0.0450421,1665,589,0.515905,0.248518
448,435,-0.290039,0.137817,0,0,0,0,0,0,0,-1,1672,589,-0.290058,-0.137808
455,435,-0.365234,0.119568,-0.000245325,0.00654073,-0.00248151,0.00735133,-0.00105593,-1.25507,0.00528812,0.0477974,1679,589,-0.365196,-0.119554
462,435,-0.670044,0.129028,-0.000769116,0.00618375,-0.00106879,0.00634433,-0.000929701,-1.42166,0.00457108,0.0476931,1686,589,-0.670081,-0.129015
469,435,-0.638184,0.120178,-0.00112157,0.00561936,8.50097e-06,0.00561937,-0.00112158,1.56954,0.00417068,0.045068,1693,589,-0.638141,-0.120188
476,435,-0.597412,0.174866,-0.0016427,0.00529781,0.000858868,0.00540251,-0.0017474,1.44949,0.00430405,0.0424617,1700,589,-0.597353,-0.174866
483,435,-0.586182,0.487793,-0.00190472,0.00516234,0.00149404,0.00546521,-0.00220759,1.37079,0.00456104,0.0422053,1707,589,-0.586127,-0.487774
490,435,0.343262,-0.286743,-0.00170716,0.00502957,0.00179552,0.00547824,-0.00215583,1.32593,0.00454454,0.0395977,1714,589,0.343228,0.286763
497,435,0.170776,-0.0629883,-0.00115646,0.0050744,0.00189266,0.00560425,-0.00168631,1.29783,0.00440716,0.037687,1721,589,0.170757,0.0630026
504,435,0.0491943,0.017334,-0.000862209,0.0045741,0.00205903,0.00526593,-0.00155403,1.24665,0.00412733,0.0321254,1728,589,0.0492484,-0.0173387
511,435,-0.0512695,0.0540161,-0.000474594,0.00408601,0.00229841,0.00504337,-0.00143196,1.17612,0.00392757,0.0172256,1735,589,-0.0512997,-0.0540376
518,435,-0.0457764,0.071167,-0.000312418,0.003116,0.00225295,0.00423275,-0.00142916,1.11061,0.00339987,0.00885439,1742,589,-0.0457972,-0.0711563
525,435,-0.0445557,0.0776978,-0.000407387,0.00253194,0.00217014,0.00368323,-0.00155868,1.08303,0.00310818,0.0100593,1749,589,-0.0445745,-0.077673
532,435,-0.0518799,0.0825195,-0.00071656,0.00188389,0.00215037,0.00309656,-0.00192924,1.05731,0.00292762,0.0120016,1756,589,-0.0519063,-0.0825376
539,435,-0.0426025,0.0721436,-0.000574539,0.00156779,0.00182408,0.00261196,-0.00161871,1.05089,0.00246492,0.0131093,1763,589,-0.0426238,-0.0721485
546,435,-0.0444336,0.0775146,0.000303744,0.000920642,0.00150866,0.00215207,-0.000927679,0.886234,0.00182433,0.0120653,1770,589,-0.0444769,-0.0775341
553,435,-0.0435791,0.0839844,0.000961194,0.000526623,0.00126633,0.00202875,-0.00054093,0.700432,0.0015643,0.00957447,1777,589,-0.0435559,-0.083981
560,435,-0.0496826,0.0849609,0.000881667,0.000796476,0.00132899,0.00216874,-0.000490601,0.769378,0.0016341,0.00840036,1784,589,-0.0496656,-0.0849326
567,435,-0.0415039,0.0961304,0.000743794,0.000535854,0.00117125,0.00181568,-0.000536033,0.74113,0.00142319,0.0079958,1791,589,-0.0414651,-0.0961331
574,435,-0.0395508,0.0946045,0.000660424,0.000517376,0.00124523,0.00183618,-0.000658385,0.756711,0.00149279,0.00940598,1798,589,-0.0395866,-0.0945831
581,435,-0.050293,0.105652,0.000913986,0.000170799,0.00111133,0.0017142,-0.000629419,0.624058,0.00140057,0.0156213,1805,589,-0.0502928,-0.10563
588,435,-0.0655518,0.0917358,0.00153667,-8.69951e-05,0.000892296,0.00193118,-0.000481506,0.41629,0.0014744,0.0160098,1812,589,-0.0655781,-0.091765
595,435,-0.0581055,0.0719604,0.00207848,-0.00100805,0.000704057,0.00223149,-0.00116106,0.214004,0.00199093,0.0179482,1819,589,-0.0581087,-0.0719305
602,435,-0.050415,0.0598145,0.00226907,-0.00193398,0.000238694,0.00228259,-0.00194749,0.0565482,0.00244479,0.0359346,1826,589,-0.0503888,-0.0598419
609,435,-0.0128174,-0.115906,0.00280092,-0.00303065,-0.00045513,0.00283623,-0.00306596,-0.0774211,0.00340849,0.0420414,1833,589,-0.0128268,0.115932
616,435,-0.218018,-0.388916,0.00340353,-0.00481082,-0.00143336,0.00364646,-0.00505375,-0.167887,0.00504492,0.0457288,1840,589,-0.218,0.388931
623,435,-0.0220947,-0.411072,0.00414893,-0.00706392,-0.00271846,0.00477324,-0.00768823,-0.22574,0.00725995,0.0461522,1847,589,-0.0220343,0.411065
630,435,-0.0748291,-0.230652,0.00489577,-0.00972859,-0.00432918,0.00608122,-0.010914,-0.267277,0.00994358,0.0455354,1854,589,-0.0748733,0.230677
637,435,0.0751953,-0.329529,0.00540036,-0.0127356,-0.00638872,0.00742491,-0.0147601,-0.306882,0.0130398,0.0477931,1861,589,0.0752343,0.329509
644,435,0,0,0,0,0,0,0,0,0,-1,1868,589,0,0
651,435,0,0,0,0,0,0,0,0,0,-1,1875,589,0,0
658,435,0,0,0,0,0,0,0,0,0,-1,1882,589,0,0
665,435,0,0,0,0,0,0,0,0,0,-1,1889,589,0,0
672,435,0,0,0,0,0,0,0,0,0,-1,1896,589,0,0
679,435,0,0,0,0,0,0,0,0,0,-1,1903,589,0,0
686,435,0,0,0,0,0,0,0,0,0,-1,1910,589,0,0
693,435,0,0,0,0,0,0,0,0,0,-1,1917,589,0,0
700,435,0,0,0,0,0,0,0,0,0,-1,1924,589,0,0
707,435,0,0,0,0,0,0,0,0,0,-1,1931,589,0,0
714,435,0,0,0,0,0,0,0,0,0,-1,1938,589,0,0
721,435,0,0,0,0,0,0,0,0,0,-1,1945,589,0,0
728,435,0,0,0,0,0,0,0,0,0,-1,1952,589,0,0
735,435,0,0,0,0,0,0,0,0,0,-1,1959,589,0,0
742,435,0,0,0,0,0,0,0,0,0,-1,1966,589,0,0
749,435,0,0,0,0,0,0,0,0,0,-1,1973,589,0,0
756,435,0,0,0,0,0,0,0,0,0,-1,1980,589,0,0
763,435,0,0,0,0,0,0,0,0,0,-1,1987,589,0,0
770,435,0,0,0,0,0,0,0,0,0,-1,1994,589,0,0
777,435,0,0,0,0,0,0,0,0,0,-1,2001,589,0,0
784,435,0,0,0,0,0,0,0,0,0,-1,2008,589,0,0
791,435,0,0,0,0,0,0,0,0,0,-1,2015,589,0,0
798,435,0,0,0,0,0,0,0,0,0,-1,2022,589,0,0
805,435,0,0,0,0,0,0,0,0,0,-1,2029,589,0,0
812,435,0,0,0,0,0,0,0,0,0,-1,2036,589,0,0
-700,428,0,0,0,0,0,0,0,0,0,-1,524,596,0,0
-693,428,0,0,0,0,0,0,0,0,0,-1,531,596,0,0
-686,428,0,0,0,0,0,0,0,0,0,-1,538,596,0,0
-679,428,0,0,0,0,0,0,0,0,0,-1,545,596,0,0
-672,428,0,0,0,0,0,0,0,0,0,-1,552,596,0,0
-665,428,0,0,0,0,0,0,0,0,0,-1,559,596,0,0
-658,428,0,0,0,0,0,0,0,0,0,-1,566,596,0,0
-651,428,0,0,0,0,0,0,0,0,0,-1,573,596,0,0
-644,428,0,0,0,0,0,0,0,0,0,-1,580,596,0,0
-637,428,0,0,0,0,0,0,0,0,0,-1,587,596,0,0
-630,428,0,0,0,0,0,0,0,0,0,-1,594,596,0,0
-623,428,0,0,0,0,0,0,0,0,0,-1,601,596,0,0
-616,428,0,0,0,0,0,0,0,0,0,-1,608,596,0,0
-609,428,0,0,0,0,0,0,0,0,0,-1,615,596,0,0
-602,428,0,0,0,0,0,0,0,0,0,-1,622,596,0,0
-595,428,0,0,0,0,0,0,0,0,0,-1,629,596,0,0
-588,428,0,0,0,0,0,0,0,0,0,-1,636,596,0,0
-581,428,0,0,0,0,0,0,0,0,0,-1,643,596,0,0
-574,428,0,0,0,0,0,0,0,0,0,-1,650,596,0,0
-567,428,0,0,0,0,0,0,0,0,0,-1,657,596,0,0
-560,428,0,0,0,0,0,0,0,0,0,-1,664,596,0,0
-553,428,0,0,0,0,0,0,0,0,0,-1,671,596,0,0
-546,428,0,0,0,0,0,0,0,0,0,-1,678,596,0,0
-539,428,0,0,0,0,0,0,0,0,0,-1,685,596,0,0
-532,428,0,0,0,0,0,0,0,0,0,-1,692,596,0,0
-525,428,1.18628,-0.746277,0,0,0,0,0,0,0,-1,699,596,1.18629,0.746264
-518,428,1.05139,-0.839844,-0.00210033,0.0133722,0.0306367,0.0372343,-0.0259624,0.909071,0.0366796,0.0442529,706,596,1.0514,0.839815
-511,428,1.12665,-0.806885,-0.00327616,0.0136528,0.0279217,0.0343649,-0.0239882,0.93257,0.0338673,0.0416744,713,596,1.12667,0.806897
-504,428,1.27484,-0.689819,-0.00352286,0.0134017,0.0249926,0.0313258,-0.0214469,0.948636,0.0306457,0.0458025,720,596,1.27485,0.689791
-497,428,-0.648376,0.0231323,0,0,0,0,0,0,0,-1,727,596,-0.648353,-0.0231566
-490,428,-0.116394,0.115112,-0.0029398,0.0117927,0.0182716,0.024127,-0.0152741,0.97701,0.0229388,0.0432781,734,596,-0.116411,-0.115141
-483,428,0.281494,0.373596,-0.00249605,0.0105355,0.015402,0.0207433,-0.0127038,0.985506,0.0194957,0.0379359,741,596,0.281521,-0.373592
-476,428,0.0581665,0.21875,-0.00214673,0.00890038,0.0125719,0.0171087,-0.010355,0.992382,0.0160152,0.0327013,748,596,0.0581401,-0.21873
-469,428,-0.0418091,0.0802612,-0.0017123,0.0078322,0.00996965,0.0141129,-0.00799302,1.00862,0.0129249,0.0174959,755,596,-0.0418241,-0.0802747
-462,428,-0.0210571,0.0869751,-0.00135975,0.00661322,0.00771933,0.0113147,-0.00606119,1.02375,0.0101837,0.0141969,762,596,-0.0210536,-0.0870038
-455,428,-0.0471802,0.0916138,-0.00113438,0.00551428,0.00563843,0.00873541,-0.00435551,1.05176,0.00769777,0.011,769,596,-0.0471958,-0.0916002
-448,428,-0.0559082,0.0797119,-0.000629994,0.00401216,0.00387423,0.00620739,-0.00282523,1.05528,0.00533545,0.0101164,776,596,-0.055921,-0.0797176
-441,428,-0.052002,0.0765381,-0.000237654,0.00288206,0.00242199,0.00420304,-0.00155863,1.07148,0.00344131,0.0118559,783,596,-0.0519749,-0.0765256
-434,428,-0.0297241,0.0651245,-2.39118e-05,0.00200208,0.00160056,0.00288327,-0.000905102,1.06753,0.00228445,0.00865297,790,596,-0.0297356,-0.0651238
-427,428,-0.0233154,0.0490723,0.000801332,0.00180218,0.00160947,0.00298723,-0.000383715,0.936123,0.00213094,0.00917065,797,596,-0.0232894,-0.0490929
-420,428,-0.0355835,0.0775757,0.00159356,0.00123404,0.00148165,0.00290631,-7.87104e-05,0.72503,0.00196431,0.00964226,804,596,-0.0355856,-0.0775819
-413,428,-0.0481567,0.0876465,0.00207641,0.00023507,0.00130344,0.00275154,-0.00044006,0.477913,0.00199728,0.0114015,811,596,-0.0481688,-0.0876594
-406,428,-0.0373535,0.0828857,0.0027467,-0.000237227,0.00144316,0.00333047,-0.000820993,0.384385,0.00253862,0.0134929,818,596,-0.0373804,-0.0828776
-399,428,-0.0366821,0.0789795,0.00349375,-0.000816398,0.00175935,0.00412069,-0.00144335,0.342323,0.00333406,0.0120941,825,596,-0.0366868,-0.0789705
-392,428,-0.0359497,0.0787964,0.00355634,-0.00109097,0.00198059,0.0042859,-0.00182053,0.352932,0.00362006,0.01024,832,596,-0.0359226,-0.0788056
-385,428,-0.0402832,0.0806274,0.00347988,-0.00161153,0.00206504,0.00421214,-0.00234378,0.340762,0.00383595,0.0146977,839,596,-0.0402568,-0.0806431
-378,428,0.0869141,0.17804,0.0031915,-0.0026278,0.00145927,0.00353693,-0.00297323,0.232435,0.00376334,0.0294342,846,596,0.0869414,-0.178034
-371,428,0.297424,0.30896,0.0026077,-0.0033384,0.000874332,0.0027336,-0.0034643,0.143011,0.00358664,0.0397375,853,596,0.297418,-0.308946
-364,428,0.272095,0.354858,0.00168916,-0.00418051,7.71288e-05,0.00169018,-0.00418153,0.0131372,0.00349026,0.0447918,860,596,0.272093,-0.354835
-357,428,0.285828,0.41925,0.000655503,-0.00448656,-0.000509114,0.000705426,-0.00453648,-0.0977453,0.00328481,0.0483197,867,596,0.285828,-0.419236
-350,428,0.378174,0.330139,0,0,0,0,0,0,0,-1,874,596,0.378191,-0.330112
-343,428,-0.992798,-0.0725708,0,0,0,0,0,0,0,-1,881,596,-0.992812,0.0725953
-336,428,-1.45355,-0.0255127,0,0,0,0,0,0,0,-1,888,596,-1.45354,0.0254993
-329,428,-1.12036,-0.618347,0,0,0,0,0,0,0,-1,895,596,-1.12036,0.618346
-322,428,-0.361572,-0.571167,0.00116901,-0.00535702,-0.00356133,0.00273614,-0.00692416,-0.414542,0.00574943,0.0421607,902,596,-0.361591,0.571149
-315,428,-0.345825,-0.609192,0.00428485,-0.00444399,-0.00275677,0.0050826,-0.00524174,-0.281682,0.005961,0.0452201,909,596,-0.345813,0.609205
-308,428,-0.285034,-0.518921,0.00871954,-0.00357517,-0.00187579,0.00899936,-0.00385499,-0.148082,0.00761699,0.0451748,916,596,-0.285005,0.518903
-301,428,0,0,0,0,0,0,0,0,0,-1,923,596,0,0
-294,428,0,0,0,0,0,0,0,0,0,-1,930,596,0,0
-287,428,0,0,0,0,0,0,0,0,0,-1,937,596,0,0
-280,428,0,0,0,0,0,0,0,0,0,-1,944,596,0,0
-273,428,0,0,0,0,0,0,0,0,0,-1,951,596,0,0
-266,428,0,0,0,0,0,0,0,0,0,-1,958,596,0,0
-259,428,0,0,0,0,0,0,0,0,0,-1,965,596,0,0
-252,428,0,0,0,0,0,0,0,0,0,-1,972,596,0,0
-245,428,0,0,0,0,0,0,0,0,0,-1,979,596,0,0
-238,428,0,0,0,0,0,0,0,0,0,-1,986,596,0,0
-231,428,0,0,0,0,0,0,0,0,0,-1,993,596,0,0
-224,428,0,0,0,0,0,0,0,0,0,-1,1000,596,0,0
-217,428,0,0,0,0,0,0,0,0,0,-1,1007,596,0,0
-210,428,0,0,0,0,0,0,0,0,0,-1,1014,596,0,0
-203,428,0,0,0,0,0,0,0,0,0,-1,1021,596,0,0
-196,428,0,0,0,0,0,0,0,0,0,-1,1028,596,0,0
-189,428,0,0,0,0,0,0,0,0,0,-1,1035,596,0,0
-182,428,0,0,0,0,0,0,0,0,0,-1,1042,596,0,0
-175,428,0,0,0,0,0,0,0,0,0,-1,1049,596,0,0
-168,428,0,0,0,0,0,0,0,0,0,-1,1056,596,0,0
-161,428,0,0,0,0,0,0,0,0,0,-1,1063,596,0,0
-154,428,0,0,0,0,0,0,0,0,0,-1,1070,596,0,0
-147,428,0,0,0,0,0,0,0,0,0,-1,1077,596,0,0
-140,428,0,0,0,0,0,0,0,0,0,-1,1084,596,0,0
-133,428,0,0,0,0,0,0,0,0,0,-1,1091,596,0,0
-126,428,0,0,0,0,0,0,0,0,0,-1,1098,596,0,0
-119,428,0,0,0,0,0,0,0,0,0,-1,1105,596,0,0
-112,428,0,0,0,0,0,0,0,0,0,-1,1112,596,0,0
-105,428,0,0,0,0,0,0,0,0,0,-1,1119,596,0,0
-98,428,0,0,0,0,0,0,0,0,0,-1,1126,596,0,0
-91,428,0,0,0,0,0,0,0,0,0,-1,1133,596,0,0
-84,428,0,0,0,0,0,0,0,0,0,-1,1140,596,0,0
-77,428,0,0,0,0,0,0,0,0,0,-1,1147,596,0,0
-70,428,0,0,0,0,0,0,0,0,0,-1,1154,596,0,0
-63,428,0,0,0,0,0,0,0,0,0,-1,1161,596,0,0
-56,428,0,0,0,0,0,0,0,0,0,-1,1168,596,0,0
-49,428,0,0,0,0,0,0,0,0,0,-1,1175,596,0,0
-42,428,0,0,0,0,0,0,0,0,0,-1,1182,596,0,0
-35,428,0,0,0,0,0,0,0,0,0,-1,1189,596,0,0
-28,428,0,0,0,0,0,0,0,0,0,-1,1196,596,0,0
-21,428,0,0,0,0,0,0,0,0,0,-1,1203,596,0,0
-14,428,0,0,0,0,0,0,0,0,0,-1,1210,596,0,0
-7,428,0,0,0,0,0,0,0,0,0,-1,1217,596,0,0
0,428,0,0,0,0,0,0,0,0,0,-1,1224,596,0,0
7,428,0,0,0,0,0,0,0,0,0,-1,1231,596,0,0
14,428,0,0,0,0,0,0,0,0,0,-1,1238,596,0,0
21,428,0,0,0,0,0,0,0,0,0,-1,1245,596,0,0
28,428,0,0,0,0,0,0,0,0,0,-1,1252,596,0,0
35,428,0,0,0,0,0,0,0,0,0,-1,1259,596,0,0
42,428,0,0,0,0,0,0,0,0,0,-1,1266,596,0,0
49,428,0,0,0,0,0,0,0,0,0,-1,1273,596,0,0
56,428,0,0,0,0,0,0,0,0,0,-1,1280,596,0,0
63,428,0,0,0,0,0,0,0,0,0,-1,1287,596,0,0
70,428,0,0,0,0,0,0,0,0,0,-1,1294,596,0,0
77,428,0,0,0,0,0,0,0,0,0,-1,1301,596,0,0
84,428,0,0,0,0,0,0,0,0,0,-1,1308,596,0,0
91,428,0,0,0,0,0,0,0,0,0,-1,1315,596,0,0
98,428,0,0,0,0,0,0,0,0,0,-1,1322,596,0,0
105,428,0,0,0,0,0,0,0,0,0,-1,1329,596,0,0
112,428,0,0,0,0,0,0,0,0,0,-1,1336,596,0,0
119,428,0,0,0,0,0,0,0,0,0,-1,1343,596,0,0
126,428,0,0,0,0,0,0,0,0,0,-1,1350,596,0,0
133,428,0,0,0,0,0,0,0,0,0,-1,1357,596,0,0
140,428,0,0,0,0,0,0,0,0,0,-1,1364,596,0,0
147,428,0,0,0,0,0,0,0,0,0,-1,1371,596,0,0
154,428,0,0,0,0,0,0,0,0,0,-1,1378,596,0,0
161,428,0,0,0,0,0,0,0,0,0,-1,1385,596,0,0
168,428,0,0,0,0,0,0,0,0,0,-1,1392,596,0,0
175,428,0,0,0,0,0,0,0,0,0,-1,1399,596,0,0
182,428,0,0,0,0,0,0,0,0,0,-1,1406,596,0,0
189,428,0,0,0,0,0,0,0,0,0,-1,1413,596,0,0
196,428,0,0,0,0,0,0,0,0,0,-1,1420,596,0,0
203,428,0,0,0,0,0,0,0,0,0,-1,1427,596,0,0
210,428,0,0,0,0,0,0,0,0,0,-1,1434,596,0,0
217,428,0,0,0,0,0,0,0,0,0,-1,1441,596,0,0
224,428,0,0,0,0,0,0,0,0,0,-1,1448,596,0,0
231,428,0,0,0,0,0,0,0,0,0,-1,1455,596,0,0
238,428,0,0,0,0,0,0,0,0,0,-1,1462,596,0,0
245,428,0,0,0,0,0,0,0,0,0,-1,1469,596,0,0
252,428,0,0,0,0,0,0,0,0,0,-1,1476,596,0,0
259,428,0,0,0,0,0,0,0,0,0,-1,1483,596,0,0
266,428,0,0,0,0,0,0,0,0,0,-1,1490,596,0,0
273,428,0,0,0,0,0,0,0,0,0,-1,1497,596,0,0
280,428,0,0,0,0,0,0,0,0,0,-1,1504,596,0,0
287,428,0,0,0,0,0,0,0,0,0,-1,1511,596,0,0
294,428,0,0,0,0,0,0,0,0,0,-1,1518,596,0,0
301,428,0,0,0,0,0,0,0,0,0,-1,1525,596,0,0
308,428,0,0,0,0,0,0,0,0,0,-1,1532,596,0,0
315,428,0,0,0,0,0,0,0,0,0,-1,1539,596,0,0
322,428,0,0,0,0,0,0,0,0,0,-1,1546,596,0,0
329,428,0,0,0,0,0,0,0,0,0,-1,1553,596,0,0
336,428,0,0,0,0,0,0,0,0,0,-1,1560,596,0,0
343,428,0,0,0,0,0,0,0,0,0,-1,1567,596,0,0
350,428,0,0,0,0,0,0,0,0,0,-1,1574,596,0,0
357,428,0,0,0,0,0,0,0,0,0,-1,1581,596,0,0
364,428,0,0,0,0,0,0,0,0,0,-1,1588,596,0,0
371,428,0,0,0,0,0,0,0,0,0,-1,1595,596,0,0
378,428,0,0,0,0,0,0,0,0,0,-1,1602,596,0,0
385,428,0,0,0,0,0,0,0,0,0,-1,1609,596,0,0
392,428,0,0,0,0,0,0,0,0,0,-1,1616,596,0,0
399,428,0,0,0,0,0,0,0,0,0,-1,1623,596,0,0
406,428,0,0,0,0,0,0,0,0,0,-1,1630,596,0,0
413,428,0,0,0,0,0,0,0,0,0,-1,1637,596,0,0
420,428,0.729614,-0.716492,0,0,0,0,0,0,0,-1,1644,596,0.729647,0.7165
427,428,0.911499,-0.65033,0,0,0,0,0,0,0,-1,1651,596,0.911511,0.650329
434,428,0.398315,-0.398682,0.00643619,0.0125999,-0.00810459,0.0181888,0.000847279,-0.967086,0.0118535,0.0419814,1658,596,0.398292,0.398673
441,428,0.436035,-0.413818,0.00322327,0.0101354,-0.00630292,0.0138676,-0.000508932,-1.03618,0.0094193,0.039238,1665,596,0.436047,0.413826
448,428,0.302612,-0.508057,0.000652645,0.008427,-0.00472769,0.0106604,-0.00158073,-1.12947,0.00768818,0.0391244,1672,596,0.302587,0.508028
455,428,-0.50293,0.128967,0,0,0,0,0,0,0,-1,1679,596,-0.502951,-0.128991
462,428,-0.921997,0.224548,0,0,0,0,0,0,0,-1,1686,596,-0.922027,-0.224548
469,428,-0.61084,0.103821,-0.00104613,0.00656759,-0.0011497,0.00673741,-0.00121595,-1.42415,0.00494699,0.0434935,1693,596,-0.610864,-0.103804
476,428,-0.382813,-0.0495605,-0.00135636,0.00634318,-0.000284329,0.00635366,-0.00136685,-1.53394,0.0047573,0.0440335,1700,596,-0.382752,0.0495645
483,428,-0.192627,-0.160889,0,0,0,0,0,0,0,-1,1707,596,-0.192664,0.160858
490,428,0.281982,-0.332092,-0.00124906,0.00614602,0.000818034,0.00623543,-0.00133847,1.46193,0.00466752,0.0399497,1714,596,0.282009,0.332112
497,428,0.116211,-0.0108032,-0.000648465,0.0061224,0.00104518,0.00628007,-0.000806132,1.42107,0.00447967,0.0402861,1721,596,0.116242,0.0108292
504,428,0.0474854,0.0691528,-0.000317232,0.00564254,0.00133148,0.00592648,-0.000601174,1.36069,0.00416586,0.0397481,1728,596,0.0474957,-0.0691627
511,428,-0.057373,0.0370483,0.000150244,0.00510261,0.00168348,0.00562069,-0.000367833,1.27225,0.00387556,0.0315883,1735,596,-0.0574314,-0.0370194
518,428,-0.0581055,0.0319214,0.000359834,0.0039595,0.00171537,0.004646,-0.000326673,1.19011,0.00321177,0.0180278,1742,596,-0.0580543,-0.0319271
525,428,-0.0540771,0.0657959,0.000227031,0.00327108,0.00169884,0.00402998,-0.000531871,1.15068,0.00288036,0.01137,1749,596,-0.0540417,-0.0657668
532,428,-0.0606689,0.0955811,-0.000222585,0.00253304,0.00175512,0.00338655,-0.0010761,1.11817,0.00268916,0.0142263,1756,596,-0.060645,-0.0955793
539,428,-0.034668,0.0518188,-0.000144886,0.00214542,0.00145836,0.0028545,-0.000853965,1.11824,0.00224253,0.0179531,1763,596,-0.0346096,-0.0517937
546,428,-0.0367432,0.0524902,0.000717792,0.00136495,0.00112627,0.0022132,-0.000130459,0.925282,0.00152082,0.0145629,1770,596,-0.0367167,-0.052471
553,428,-0.0366211,0.0836792,0.00126008,0.000827695,0.000835701,0.0019071,0.000180676,0.658824,0.00121566,0.0100485,1777,596,-0.0366525,-0.0837064
560,428,-0.0341797,0.0898438,0.00103098,0.000983505,0.000917401,0.00192495,8.95335e-05,0.772464,0.00125452,0.0108632,1784,596,-0.0341969,-0.0898633
567,428,-0.0281982,0.09552,0.000671998,0.000543961,0.000656326,0.00126742,-5.14609e-05,0.736782,0.000862612,0.0103704,1791,596,-0.0282257,-0.0955486
574,428,-0.0405273,0.0969849,0.000409484,0.000412182,0.000760136,0.00117097,-0.000349304,0.786286,0.000919471,0.012226,1798,596,-0.0405377,-0.0970146
581,428,-0.0571289,0.102173,0.000620834,-1.87697e-05,0.000638516,0.00101516,-0.000413094,0.553234,0.000848672,0.010925,1805,596,-0.0571841,-0.102146
588,428,-0.0765381,0.0913086,0.00121692,-0.000338401,0.00043561,0.00133062,-0.000452094,0.255302,0.0010701,0.0143412,1812,596,-0.0765603,-0.0912932
595,428,-0.064209,0.0784302,0.00175914,-0.00120028,0.00028252,0.00178587,-0.00122701,0.0943293,0.00174943,0.00951578,1819,596,-0.0642307,-0.078408
602,428,-0.017334,0.0629272,0.00204643,-0.00205709,-0.000104241,0.00204908,-0.00205974,-0.025381,0.00237223,0.0175168,1826,596,-0.0172816,-0.062944
609,428,0.200317,-0.115967,0.00272046,-0.00300672,-0.000649284,0.00279315,-0.00307941,-0.111484,0.00339186,0.0344418,1833,596,0.200288,0.11597
616,428,0.0734863,0.120239,0.00348305,-0.00449636,-0.00141435,0.00372632,-0.00473963,-0.170339,0.00489948,0.0408747,1840,596,0.0735263,-0.120238
623,428,-0.0111084,0.267273,0.00438712,-0.00628871,-0.00237813,0.00489291,-0.00679449,-0.20956,0.00677743,0.0401039,1847,596,-0.0111023,-0.267271
630,428,-0.0303955,-0.16626,0.00530903,-0.00832783,-0.00357167,0.00618786,-0.00920666,-0.241263,0.00894481,0.0440893,1854,596,-0.0303846,0.166236
637,428,0.478027,-0.306641,0.00604454,-0.0105246,-0.00506349,0.0074694,-0.0119495,-0.274305,0.0113105,0.0464087,1861,596,0.477998,0.306623
644,428,0.80896,-0.612061,0.00636555,-0.0128012,-0.00684247,0.00855759,-0.0149933,-0.310028,0.0137653,0.0480937,1868,596,0.808994,0.61208
651,428,0,0,0,0,0,0,0,0,0,-1,1875,596,0,0
658,428,0,0,0,0,0,0,0,0,0,-1,1882,596,0,0
665,428,0,0,0,0,0,0,0,0,0,-1,1889,596,0,0
672,428,0,0,0,0,0,0,0,0,0,-1,1896,596,0,0
679,428,0,0,0,0,0,0,0,0,0,-1,1903,596,0,0
686,428,0,0,0,0,0,0,0,0,0,-1,1910,596,0,0
693,428,0,0,0,0,0,0,0,0,0,-1,1917,596,0,0
700,428,0,0,0,0,0,0,0,0,0,-1,1924,596,0,0
707,428,0,0,0,0,0,0,0,0,0,-1,1931,596,0,0
714,428,0,0,0,0,0,0,0,0,0,-1,1938,596,0,0
721,428,0,0,0,0,0,0,0,0,0,-1,1945,596,0,0
728,428,0,0,0,0,0,0,0,0,0,-1,1952,596,0,0
735,428,0,0,0,0,0,0,0,0,0,-1,1959,596,0,0
742,428,0,0,0,0,0,0,0,0,0,-1,1966,596,0,0
749,428,0,0,0,0,0,0,0,0,0,-1,1973,596,0,0
756,428,0,0,0,0,0,0,0,0,0,-1,1980,596,0,0
763,428,0,0,0,0,0,0,0,0,0,-1,1987,596,0,0
770,428,0,0,0,0,0,0,0,0,0,-1,1994,596,0,0
777,428,0,0,0,0,0,0,0,0,0,-1,2001,596,0,0
784,428,0,0,0,0,0,0,0,0,0,-1,2008,596,0,0
791,428,0,0,0,0,0,0,0,0,0,-1,2015,596,0,0
798,428,0,0,0,0,0,0,0,0,0,-1,2022,596,0,0
805,428,0,0,0,0,0,0,0,0,0,-1,2029,596,0,0
812,428,0,0,0,0,0,0,0,0,0,-1,2036,596,0,0
-700,421,0,0,0,0,0,0,0,0,0,-1,524,603,0,0
-693,421,0,0,0,0,0,0,0,0,0,-1,531,603,0,0
-686,421,0,0,0,0,0,0,0,0,0,-1,538,603,0,0
-679,421,0,0,0,0,0,0,0,0,0,-1,545,603,0,0
-672,421,0,0,0,0,0,0,0,0,0,-1,552,603,0,0
-665,421,0,0,0,0,0,0,0,0,0,-1,559,603,0,0
-658,421,0,0,0,0,0,0,0,0,0,-1,566,603,0,0
-651,421,0,0,0,0,0,0,0,0,0,-1,573,603,0,0
-644,421,0,0,0,0,0,0,0,0,0,-1,580,603,0,0
-637,421,0,0,0,0,0,0,0,0,0,-1,587,603,0,0
-630,421,0,0,0,0,0,0,0,0,0,-1,594,603,0,0
-623,421,0,0,0,0,0,0,0,0,0,-1,601,603,0,0
-616,421,0,0,0,0,0,0,0,0,0,-1,608,603,0,0
-609,421,0,0,0,0,0,0,0,0,0,-1,615,603,0,0
-602,421,0,0,0,0,0,0,0,0,0,-1,622,603,0,0
-595,421,0,0,0,0,0,0,0,0,0,-1,629,603,0,0
-588,421,0,0,0,0,0,0,0,0,0,-1,636,603,0,0
-581,421,0,0,0,0,0,0,0,0,0,-1,643,603,0,0
-574,421,0,0,0,0,0,0,0,0,0,-1,650,603,0,0
-567,421,0,0,0,0,0,0,0,0,0,-1,657,603,0,0
-560,421,0,0,0,0,0,0,0,0,0,-1,664,603,0,0
-553,421,0,0,0,0,0,0,0,0,0,-1,671,603,0,0
-546,421,0,0,0,0,0,0,0,0,0,-1,678,603,0,0
-539,421,0,0,0,0,0,0,0,0,0,-1,685,603,0,0
-532,421,1.48145,-0.257324,0,0,0,0,0,0,0,-1,692,603,1.48144,0.257352
-525,421,1.32501,-0.520813,-0.00157297,0.00598407,0.0278174,0.0302784,-0.0258673,0.852902,0.0324491,0.0483574,699,603,1.32502,0.520841
-518,421,1.18982,-0.628662,-0.00305633,0.00722718,0.0247499,0.0273638,-0.0231929,0.887816,0.029222,0.0463119,706,603,1.18983,0.628678
-511,421,1.08234,-0.632324,-0.00380161,0.00822307,0.0219023,0.0249232,-0.0205018,0.919352,0.0262675,0.0440322,713,603,1.08236,0.632306
-504,421,1.17615,-0.990112,-0.00370951,0.00845453,0.0189543,0.0222787,-0.0175337,0.940648,0.0230401,0.0481751,720,603,1.17614,0.990137
-497,421,-0.133667,0.0811157,0,0,0,0,0,0,0,-1,727,603,-0.133656,-0.0811202
-490,421,-0.0643921,0.111633,-0.00242294,0.00775501,0.0127355,0.0163807,-0.0110486,0.975474,0.0159357,0.0400214,734,603,-0.0644219,-0.111646
-483,421,-0.0270996,0.146301,-0.00174091,0.00699729,0.0103817,0.0138918,-0.00863542,0.984572,0.0131236,0.0303919,741,603,-0.0271075,-0.1463
-476,421,-0.0430908,0.127625,-0.00128015,0.0058549,0.0081701,0.0112024,-0.00662765,0.991249,0.0104065,0.017733,748,603,-0.0430653,-0.127613
-469,421,-0.0490723,0.0800781,-0.000796036,0.00531799,0.00620257,0.00917598,-0.00465402,1.01436,0.00812578,0.0160689,755,603,-0.0490991,-0.0800517
-462,421,-0.020874,0.0845947,-0.000446401,0.00457261,0.00462131,0.00732182,-0.00319561,1.03414,0.00622607,0.0186564,762,603,-0.0208536,-0.0846199
-455,421,-0.0214844,0.0942993,-0.000290496,0.0039619,0.00316924,0.00565209,-0.00198069,1.08086,0.00457356,0.0185178,769,603,-0.0214857,-0.0942986
-448,421,-0.0571899,0.0750732,0.00024963,0.00288454,0.00198792,0.00395194,-0.000817766,1.07803,0.0029453,0.0172077,776,603,-0.0571707,-0.0750832
-441,421,-0.0495605,0.06427,0.000840289,0.00220827,0.0010275,0.00275862,0.000289938,1.07906,0.00175046,0.0128621,783,603,-0.0495891,-0.0642492
-434,421,-0.0365601,0.0563354,0.00124974,0.00175576,0.000627551,0.00217938,0.000826114,0.977015,0.00127048,0.00913961,790,603,-0.0365808,-0.0563123
-427,421,-0.0264893,0.0488281,0.00228622,0.0018774,0.00124657,0.00334503,0.000818595,0.704131,0.00201341,0.00862236,797,603,-0.0265066,-0.0488007
-420,421,-0.0357056,0.0758667,0.00335049,0.00156866,0.00150776,0.00421088,0.000708263,0.518553,0.00260348,0.00999443,804,603,-0.0357246,-0.0758657
-413,421,-0.0473022,0.0802002,0.00408855,0.000769739,0.00155746,0.00470496,0.000153333,0.376859,0.0030868,0.0111467,811,603,-0.0473167,-0.0801978
-406,421,-0.0452881,0.0703125,0.00513403,0.000489539,0.00184609,0.00577841,-0.000154841,0.335829,0.00390491,0.0144116,818,603,-0.045288,-0.0702983
-399,421,-0.0534058,0.0757446,0.00633708,-6.66799e-05,0.00222805,0.007036,-0.000765601,0.30397,0.00496558,0.0129962,825,603,-0.0534081,-0.0757359
-392,421,-0.0559692,0.0643311,0.00675929,-0.000277011,0.00249762,0.00755571,-0.00107343,0.308677,0.00543043,0.0131843,832,603,-0.0559402,-0.0643059
-385,421,-0.0628662,0.0606079,0.00698994,-0.000804838,0.00263263,0.00779578,-0.00161068,0.297041,0.005809,0.0291208,839,603,-0.0628619,-0.0606077
-378,421,0.387085,0.396057,0.00680716,-0.00203501,0.00190017,0.00719821,-0.00242606,0.202964,0.00577978,0.0405672,846,603,0.387069,-0.396047
-371,421,0.774231,0.598572,0.00616375,-0.00300155,0.00104698,0.00628183,-0.00311963,0.112305,0.00552933,0.0444648,853,603,0.774223,-0.598602
-364,421,0.321838,0.572266,0.00503703,-0.0041856,-0.000117399,0.00503852,-0.00418709,-0.0127267,0.00533397,0.0447712,860,603,0.321859,-0.57228
-357,421,0.297058,0.596497,0.00370435,-0.00486778,-0.0012308,0.00387757,-0.005041,-0.139819,0.00516372,0.0457018,867,603,0.297038,-0.596515
-350,421,0.449524,0.457886,0.00264276,-0.00553436,-0.00209682,0.00314909,-0.00604069,-0.236938,0.00539256,0.0474026,874,603,0.449516,-0.457897
-343,421,-0.401428,0.922546,0,0,0,0,0,0,0,-1,881,603,-0.401429,-0.922533
-336,421,-0.624512,-0.270813,0,0,0,0,0,0,0,-1,888,603,-0.624536,0.270838
-329,421,-0.456909,-0.311768,0.00111618,-0.00829167,-0.00566252,0.00377371,-0.0109492,-0.438804,0.00883038,0.0411851,895,603,-0.456911,0.311766
-322,421,-0.283936,-0.399963,0.00231283,-0.00991236,-0.00843175,0.00661456,-0.0142141,-0.471761,0.0122893,0.0418114,902,603,-0.283946,0.399963
-315,421,-0.402649,-0.53717,0.00592833,-0.00954417,-0.00770084,0.00910778,-0.0127236,-0.391552,0.0126619,0.0447749,909,603,-0.402621,0.537173
-308,421,0,0,0,0,0,0,0,0,0,-1,916,603,0,0
-301,421,0,0,0,0,0,0,0,0,0,-1,923,603,0,0
-294,421,0,0,0,0,0,0,0,0,0,-1,930,603,0,0
-287,421,0,0,0,0,0,0,0,0,0,-1,937,603,0,0
-280,421,0,0,0,0,0,0,0,0,0,-1,944,603,0,0
-273,421,0,0,0,0,0,0,0,0,0,-1,951,603,0,0
-266,421,0,0,0,0,0,0,0,0,0,-1,958,603,0,0
-259,421,0,0,0,0,0,0,0,0,0,-1,965,603,0,0
-252,421,0,0,0,0,0,0,0,0,0,-1,972,603,0,0
-245,421,0,0,0,0,0,0,0,0,0,-1,979,603,0,0
-238,421,0,0,0,0,0,0,0,0,0,-1,986,603,0,0
-231,421,0,0,0,0,0,0,0,0,0,-1,993,603,0,0
-224,421,0,0,0,0,0,0,0,0,0,-1,1000,603,0,0
-217,421,0,0,0,0,0,0,0,0,0,-1,1007,603,0,0
-210,421,0,0,0,0,0,0,0,0,0,-1,1014,603,0,0
-203,421,0,0,0,0,0,0,0,0,0,-1,1021,603,0,0
-196,421,0,0,0,0,0,0,0,0,0,-1,1028,603,0,0
-189,421,0,0,0,0,0,0,0,0,0,-1,1035,603,0,0
-182,421,0,0,0,0,0,0,0,0,0,-1,1042,603,0,0
-175,421,0,0,0,0,0,0,0,0,0,-1,1049,603,0,0
-168,421,0,0,0,0,0,0,0,0,0,-1,1056,603,0,0
-161,421,0,0,0,0,0,0,0,0,0,-1,1063,603,0,0
-154,421,0,0,0,0,0,0,0,0,0,-1,1070,603,0,0
-147,421,0,0,0,0,0,0,0,0,0,-1,1077,603,0,0
-140,421,0,0,0,0,0,0,0,0,0,-1,1084,603,0,0
-133,421,0,0,0,0,0,0,0,0,0,-1,1091,603,0,0
-126,421,0,0,0,0,0,0,0,0,0,-1,1098,603,0,0
-119,421,0,0,0,0,0,0,0,0,0,-1,1105,603,0,0
-112,421,0,0,0,0,0,0,0,0,0,-1,1112,603,0,0
-105,421,0,0,0,0,0,0,0,0,0,-1,1119,603,0,0
-98,421,0,0,0,0,0,0,0,0,0,-1,1126,603,0,0
-91,421,0,0,0,0,0,0,0,0,0,-1,1133,603,0,0
-84,421,0,0,0,0,0,0,0,0,0,-1,1140,603,0,0
-77,421,0,0,0,0,0,0,0,0,0,-1,1147,603,0,0
-70,421,0,0,0,0,0,0,0,0,0,-1,1154,603,0,0
-63,421,0,0,0,0,0,0,0,0,0,-1,1161,603,0,0
-56,421,0,0,0,0,0,0,0,0,0,-1,1168,603,0,0
-49,421,0,0,0,0,0,0,0,0,0,-1,1175,603,0,0
-42,421,0,0,0,0,0,0,0,0,0,-1,1182,603,0,0
-35,421,0,0,0,0,0,0,0,0,0,-1,1189,603,0,0
-28,421,0,0,0,0,0,0,0,0,0,-1,1196,603,0,0
-21,421,0,0,0,0,0,0,0,0,0,-1,1203,603,0,0
-14,421,0,0,0,0,0,0,0,0,0,-1,1210,603,0,0
-7,421,0,0,0,0,0,0,0,0,0,-1,1217,603,0,0
0,421,0,0,0,0,0,0,0,0,0,-1,1224,603,0,0
7,421,0,0,0,0,0,0,0,0,0,-1,1231,603,0,0
14,421,0,0,0,0,0,0,0,0,0,-1,1238,603,0,0
21,421,0,0,0,0,0,0,0,0,0,-1,1245,603,0,0
28,421,0,0,0,0,0,0,0,0,0,-1,1252,603,0,0
35,421,0,0,0,0,0,0,0,0,0,-1,1259,603,0,0
42,421,0,0,0,0,0,0,0,0,0,-1,1266,603,0,0
49,421,0,0,0,0,0,0,0,0,0,-1,1273,603,0,0
56,421,0,0,0,0,0,0,0,0,0,-1,1280,603,0,0
63,421,0,0,0,0,0,0,0,0,0,-1,1287,603,0,0
70,421,0,0,0,0,0,0,0,0,0,-1,1294,603,0,0
77,421,0,0,0,0,0,0,0,0,0,-1,1301,603,0,0
84,421,0,0,0,0,0,0,0,0,0,-1,1308,603,0,0
91,421,0,0,0,0,0,0,0,0,0,-1,1315,603,0,0
98,421,0,0,0,0,0,0,0,0,0,-1,1322,603,0,0
105,421,0,0,0,0,0,0,0,0,0,-1,1329,603,0,0
112,421,0,0,0,0,0,0,0,0,0,-1,1336,603,0,0
119,421,0,0,0,0,0,0,0,0,0,-1,1343,603,0,0
126,421,0,0,0,0,0,0,0,0,0,-1,1350,603,0,0
133,421,0,0,0,0,0,0,0,0,0,-1,1357,603,0,0
140,421,0,0,0,0,0,0,0,0,0,-1,1364,603,0,0
147,421,0,0,0,0,0,0,0,0,0,-1,1371,603,0,0
154,421,0,0,0,0,0,0,0,0,0,-1,1378,603,0,0
161,421,0,0,0,0,0,0,0,0,0,-1,1385,603,0,0
168,421,0,0,0,0,0,0,0,0,0,-1,1392,603,0,0
175,421,0,0,0,0,0,0,0,0,0,-1,1399,603,0,0
182,421,0,0,0,0,0,0,0,0,0,-1,1406,603,0,0
189,421,0,0,0,0,0,0,0,0,0,-1,1413,603,0,0
196,421,0,0,0,0,0,0,0,0,0,-1,1420,603,0,0
203,421,0,0,0,0,0,0,0,0,0,-1,1427,603,0,0
210,421,0,0,0,0,0,0,0,0,0,-1,1434,603,0,0
217,421,0,0,0,0,0,0,0,0,0,-1,1441,603,0,0
224,421,0,0,0,0,0,0,0,0,0,-1,1448,603,0,0
231,421,0,0,0,0,0,0,0,0,0,-1,1455,603,0,0
238,421,0,0,0,0,0,0,0,0,0,-1,1462,603,0,0
245,421,0,0,0,0,0,0,0,0,0,-1,1469,603,0,0
252,421,0,0,0,0,0,0,0,0,0,-1,1476,603,0,0
259,421,0,0,0,0,0,0,0,0,0,-1,1483,603,0,0
266,421,0,0,0,0,0,0,0,0,0,-1,1490,603,0,0
273,421,0,0,0,0,0,0,0,0,0,-1,1497,603,0,0
280,421,0,0,0,0,0,0,0,0,0,-1,1504,603,0,0
287,421,0,0,0,0,0,0,0,0,0,-1,1511,603,0,0
294,421,0,0,0,0,0,0,0,0,0,-1,1518,603,0,0
301,421,0,0,0,0,0,0,0,0,0,-1,1525,603,0,0
308,421,0,0,0,0,0,0,0,0,0,-1,1532,603,0,0
315,421,0,0,0,0,0,0,0,0,0,-1,1539,603,0,0
322,421,0,0,0,0,0,0,0,0,0,-1,1546,603,0,0
329,421,0,0,0,0,0,0,0,0,0,-1,1553,603,0,0
336,421,0,0,0,0,0,0,0,0,0,-1,1560,603,0,0
343,421,0,0,0,0,0,0,0,0,0,-1,1567,603,0,0
350,421,0,0,0,0,0,0,0,0,0,-1,1574,603,0,0
357,421,0,0,0,0,0,0,0,0,0,-1,1581,603,0,0
364,421,0,0,0,0,0,0,0,0,0,-1,1588,603,0,0
371,421,0,0,0,0,0,0,0,0,0,-1,1595,603,0,0
378,421,0,0,0,0,0,0,0,0,0,-1,1602,603,0,0
385,421,0,0,0,0,0,0,0,0,0,-1,1609,603,0,0
392,421,0,0,0,0,0,0,0,0,0,-1,1616,603,0,0
399,421,0,0,0,0,0,0,0,0,0,-1,1623,603,0,0
406,421,0,0,0,0,0,0,0,0,0,-1,1630,603,0,0
413,421,0,0,0,0,0,0,0,0,0,-1,1637,603,0,0
420,421,0,0,0,0,0,0,0,0,0,-1,1644,603,0,0
427,421,0,0,0,0,0,0,0,0,0,-1,1651,603,0,0
434,421,0.307739,-0.34668,0.00567511,0.0122062,-0.00965387,0.0191319,-0.00125057,-0.948489,0.0131912,0.0434609,1658,603,0.307718,0.346685
441,421,0.197266,-0.224792,0.00248632,0.0102303,-0.00793732,0.0151897,-0.00247308,-1.01233,0.0110435,0.0452364,1665,603,0.197316,0.224805
448,421,0.0771484,-0.326233,0.000314077,0.00877021,-0.00643697,0.0122435,-0.00315923,-1.07598,0.0093942,0.042003,1672,603,0.0771947,0.326257
455,421,-0.0837402,-0.614929,-0.000658895,0.00759166,-0.00554237,0.0103755,-0.00344272,-1.10533,0.0083059,0.0435868,1679,603,-0.0837975,0.614949
462,421,-0.582886,0.581848,0,0,0,0,0,0,0,-1,1686,603,-0.582827,-0.581852
469,421,-0.373657,0.37439,-0.000606697,0.00730154,-0.00285309,0.0082234,-0.00152856,-1.25828,0.00605643,0.0429921,1693,603,-0.373705,-0.374417
476,421,-0.15564,0.145386,-0.000759701,0.00719125,-0.00192651,0.00763345,-0.0012019,-1.34517,0.00553328,0.0419083,1700,603,-0.155658,-0.145393
483,421,0.113159,-0.121338,-0.000851691,0.00724249,-0.00115796,0.00740489,-0.00101409,-1.43146,0.00530702,0.0424986,1707,603,0.113114,0.121348
490,421,0.341431,-0.362,0,0,0,0,0,0,0,-1,1714,603,0.341395,0.362026
497,421,-0.14856,-0.245728,-4.87506e-05,0.00711362,-0.000274915,0.00712415,-5.92871e-05,-1.53249,0.00476932,0.0425584,1721,603,-0.148614,0.24574
504,421,-0.112427,0.0701294,0.000245545,0.00674099,0.000104938,0.00674269,0.00024385,1.55465,0.00441609,0.0416821,1728,603,-0.112427,-0.0701379
511,421,-0.0863037,0.107544,0.00072048,0.00622686,0.000561158,0.00628347,0.000663874,1.47026,0.00398616,0.0394653,1735,603,-0.0863166,-0.107523
518,421,-0.0750732,0.0606689,0.000913804,0.00499476,0.00067385,0.00510315,0.000805416,1.41131,0.00316794,0.032802,1742,603,-0.0751154,-0.0606461
525,421,-0.0664063,0.041687,0.000713401,0.00425201,0.000736982,0.00439937,0.000566047,1.37346,0.00276362,0.0198948,1749,603,-0.0664655,-0.0416936
532,421,-0.0418701,0.0943604,0.000123952,0.00346514,0.000895303,0.00368993,-0.000100831,1.32481,0.00249424,0.0153805,1756,603,-0.0418421,-0.0943407
539,421,-0.0374756,0.0598145,0.000176391,0.0030009,0.000684111,0.00315787,1.94196e-05,1.34525,0.00209881,0.0178608,1763,603,-0.0374686,-0.0598157
546,421,-0.0306396,0.0557251,0.00105065,0.00206592,0.000388529,0.00219754,0.000919031,1.24416,0.0012744,0.0117609,1770,603,-0.0306711,-0.0557044
553,421,-0.0249023,0.0823975,0.00148381,0.00135645,0.000128272,0.00156334,0.00127692,0.555,0.000961085,0.0108537,1777,603,-0.0249242,-0.0824159
560,421,-0.0224609,0.0923462,0.0011372,0.00134845,0.000321276,0.00158102,0.000904631,0.944214,0.000915966,0.0133076,1784,603,-0.0224292,-0.0923254
567,421,-0.026001,0.0971069,0.000640198,0.000662293,3.66574e-05,0.000689532,0.00061296,0.931757,0.000436409,0.015536,1791,603,-0.0259586,-0.0971187
574,421,-0.0534668,0.0794067,0.000278168,0.000358058,0.000243492,0.00056486,7.13657e-05,0.8667,0.000355183,0.0169695,1798,603,-0.0534858,-0.0794252
581,421,-0.0549316,0.0870361,0.000465687,-0.000206029,0.000193503,0.000517442,-0.000257784,0.261347,0.000455869,0.0142126,1805,603,-0.054936,-0.0870142
588,421,-0.0733643,0.0828857,0.0010206,-0.000621049,5.36904e-05,0.00102235,-0.000622803,0.0326587,0.000959121,0.0106001,1812,603,-0.0734053,-0.0828862
595,421,-0.0541992,0.103027,0.0015244,-0.00142955,-4.28187e-05,0.00152502,-0.00143017,-0.0144914,0.00170647,0.0141877,1819,603,-0.0542114,-0.103057
602,421,-0.045166,0.0829468,0.001833,-0.00219211,-0.000348652,0.00186298,-0.00222209,-0.0857679,0.00236155,0.0127637,1826,603,-0.0451767,-0.0829352
609,421,-0.0303955,0.0811157,0.00257045,-0.00296925,-0.000782831,0.00267895,-0.00307775,-0.137721,0.00332629,0.0183046,1833,603,-0.0303861,-0.0811017
616,421,0.00537109,0.0821533,0.00345428,-0.00416714,-0.00142765,0.00371293,-0.00442579,-0.179228,0.0047049,0.0316857,1840,603,0.00538765,-0.0821628
623,421,-0.0616455,0.0158691,0.00449984,-0.00555448,-0.00215365,0.00494173,-0.00599637,-0.202375,0.00632489,0.037099,1847,603,-0.061644,-0.0158872
630,421,0.060791,-0.102234,0.0055317,-0.00706763,-0.00301376,0.00621549,-0.00775142,-0.223109,0.00808003,0.0412622,1854,603,0.0607347,0.102238
637,421,0.419067,0.0695801,0.00639119,-0.00859407,-0.0040182,0.00740064,-0.00960352,-0.246127,0.00984478,0.0425843,1861,603,0.419071,-0.0696029
644,421,1.13037,0.575256,0.00694122,-0.0100693,-0.00521993,0.00841529,-0.0115434,-0.275227,0.0115702,0.0449918,1868,603,1.13035,-0.575263
651,421,0.459717,-0.0467529,0.00687645,-0.0112961,-0.00658281,0.00901042,-0.0134301,-0.313483,0.0130395,0.0472698,1875,603,0.459697,0.0467545
658,421,0,0,0,0,0,0,0,0,0,-1,1882,603,0,0
665,421,0,0,0,0,0,0,0,0,0,-1,1889,603,0,0
672,421,0,0,0,0,0,0,0,0,0,-1,1896,603,0,0
679,421,0,0,0,0,0,0,0,0,0,-1,1903,603,0,0
686,421,0,0,0,0,0,0,0,0,0,-1,1910,603,0,0
693,421,0,0,0,0,0,0,0,0,0,-1,1917,603,0,0
700,421,0,0,0,0,0,0,0,0,0,-1,1924,603,0,0
707,421,0,0,0,0,0,0,0,0,0,-1,1931,603,0,0
714,421,0,0,0,0,0,0,0,0,0,-1,1938,603,0,0
721,421,0,0,0,0,0,0,0,0,0,-1,1945,603,0,0
728,421,0,0,0,0,0,0,0,0,0,-1,1952,603,0,0
735,421,0,0,0,0,0,0,0,0,0,-1,1959,603,0,0
742,421,0,0,0,0,0,0,0,0,0,-1,1966,603,0,0
749,421,0,0,0,0,0,0,0,0,0,-1,1973,603,0,0
756,421,0,0,0,0,0,0,0,0,0,-1,1980,603,0,0
763,421,0,0,0,0,0,0,0,0,0,-1,1987,603,0,0
770,421,0,0,0,0,0,0,0,0,0,-1,1994,603,0,0
777,421,0,0,0,0,0,0,0,0,0,-1,2001,603,0,0
784,421,0,0,0,0,0,0,0,0,0,-1,2008,603,0,0
791,421,0,0,0,0,0,0,0,0,0,-1,2015,603,0,0
798,421,0,0,0,0,0,0,0,0,0,-1,2022,603,0,0
805,421,0,0,0,0,0,0,0,0,0,-1,2029,603,0,0
812,421,0,0,0,0,0,0,0,0,0,-1,2036,603,0,0
-700,414,0,0,0,0,0,0,0,0,0,-1,524,610,0,0
-693,414,0,0,0,0,0,0,0,0,0,-1,531,610,0,0
-686,414,0,0,0,0,0,0,0,0,0,-1,538,610,0,0
-679,414,0,0,0,0,0,0,0,0,0,-1,545,610,0,0
-672,414,0,0,0,0,0,0,0,0,0,-1,552,610,0,0
-665,414,0,0,0,0,0,0,0,0,0,-1,559,610,0,0
-658,414,0,0,0,0,0,0,0,0,0,-1,566,610,0,0
-651,414,0,0,0,0,0,0,0,0,0,-1,573,610,0,0
-644,414,0,0,0,0,0,0,0,0,0,-1,580,610,0,0
-637,414,0,0,0,0,0,0,0,0,0,-1,587,610,0,0
-630,414,0,0,0,0,0,0,0,0,0,-1,594,610,0,0
-623,414,0,0,0,0,0,0,0,0,0,-1,601,610,0,0
-616,414,0,0,0,0,0,0,0,0,0,-1,608,610,0,0
-609,414,0,0,0,0,0,0,0,0,0,-1,615,610,0,0
-602,414,0,0,0,0,0,0,0,0,0,-1,622,610,0,0
-595,414,0,0,0,0,0,0,0,0,0,-1,629,610,0,0
-588,414,0,0,0,0,0,0,0,0,0,-1,636,610,0,0
-581,414,0,0,0,0,0,0,0,0,0,-1,643,610,0,0
-574,414,0,0,0,0,0,0,0,0,0,-1,650,610,0,0
-567,414,0,0,0,0,0,0,0,0,0,-1,657,610,0,0
-560,414,0,0,0,0,0,0,0,0,0,-1,664,610,0,0
-553,414,0,0,0,0,0,0,0,0,0,-1,671,610,0,0
-546,414,0,0,0,0,0,0,0,0,0,-1,678,610,0,0
-539,414,1.44104,-1.07239,0,0,0,0,0,0,0,-1,685,610,1.44104,1.07239
-532,414,1.65741,-0.254883,0,0,0,0,0,0,0,-1,692,610,1.6574,0.254868
-525,414,1.49225,-0.512878,-0.0037684,0.00135382,0.0245638,0.0234897,-0.0259042,0.837342,0.0285289,0.0465734,699,610,1.49225,0.512904
-518,414,1.22607,-0.460754,-0.00518433,0.0027754,0.021505,0.0206657,-0.0230747,0.876896,0.0252663,0.0473989,706,610,1.22609,0.460738
-511,414,1.03308,-0.490295,-0.00586329,0.00420393,0.0187184,0.0185537,-0.0202131,0.916747,0.0223889,0.0464061,713,610,1.03309,0.490322
-504,414,1.14502,-0.284729,0,0,0,0,0,0,0,-1,720,610,1.145,0.28475
-497,414,-0.0967407,-0.13031,0,0,0,0,0,0,0,-1,727,610,-0.096732,0.130305
-490,414,-0.079895,-0.0236206,-0.00380995,0.00476849,0.00991519,0.0112824,-0.0103239,0.989539,0.0124785,0.0328545,734,610,-0.0798836,0.0236284
-483,414,-0.06073,0.067627,-0.00287455,0.00441591,0.00783249,0.00940987,-0.00786851,1.00319,0.0099889,0.0138903,741,610,-0.0607226,-0.0676341
-476,414,-0.0599976,0.083374,-0.00218635,0.00367395,0.00595159,0.00737759,-0.00588999,1.01415,0.00767608,0.00915976,748,610,-0.0600058,-0.0833916
-469,414,-0.0622559,0.0859375,-0.0015063,0.0035494,0.00432335,0.00602969,-0.00398659,1.04994,0.00582286,0.0112459,755,610,-0.0622576,-0.0859467
-462,414,-0.0390015,0.0889893,-0.000984887,0.003185,0.00312594,0.00485751,-0.0026574,1.07951,0.00440028,0.0205935,762,610,-0.0389924,-0.0890048
-455,414,-0.0344238,0.0731201,-0.000709462,0.00298586,0.00202842,0.00388198,-0.00160558,1.1548,0.00325785,0.0221363,769,610,-0.0344396,-0.0731228
-448,414,-0.0605469,0.0650024,-1.45686e-05,0.0023033,0.00117689,0.00279609,-0.000507357,1.17425,0.00205417,0.0209161,776,610,-0.060517,-0.0649845
-441,414,-0.0470581,0.0695801,0.000861931,0.00203608,0.00048469,0.00221031,0.000687704,1.22572,0.00130612,0.0147697,783,610,-0.0470336,-0.0696046
-434,414,-0.0360107,0.0568237,0.00161719,0.00202323,0.000318633,0.00219802,0.0014424,1.06904,0.00128951,0.00877804,790,610,-0.0360075,-0.0568047
-427,414,-0.0332031,0.0509033,0.00297581,0.00247932,0.00137224,0.00412208,0.00133305,0.695915,0.00242887,0.00927512,797,610,-0.0332078,-0.0508898
-420,414,-0.0366821,0.0634155,0.00437498,0.00247236,0.00193394,0.00557892,0.00126842,0.556825,0.00337684,0.00923505,804,610,-0.036689,-0.0634326
-413,414,-0.0496216,0.0562134,0.00543788,0.00193607,0.00216917,0.00647462,0.000899335,0.445847,0.00405006,0.0090345,811,610,-0.0496311,-0.0562189
-406,414,-0.0606079,0.0534668,0.00694944,0.00192173,0.00259003,0.00804498,0.00082619,0.400161,0.00511023,0.0113552,818,610,-0.0605996,-0.0534545
-399,414,-0.0683594,0.0482178,0.00869745,0.00148692,0.00309656,0.00984472,0.000339645,0.354819,0.00645291,0.0159206,825,610,-0.0683373,-0.0482419
-392,414,-0.0510254,0.0269165,0.00961675,0.00145831,0.00347396,0.0108956,0.000179511,0.352718,0.00720461,0.0230526,832,610,-0.0510514,-0.0269336
-385,414,-0.0350952,0.069519,0.0103319,0.00101745,0.00371982,0.0116351,-0.000285765,0.336981,0.00785371,0.0381442,839,610,-0.0350852,-0.0695194
-378,414,-0.0103149,0.121094,0,0,0,0,0,0,0,-1,846,610,-0.010288,-0.121109
-371,414,0.700928,1.02509,0.00998365,-0.00152825,0.00178301,0.0102535,-0.00179809,0.150197,0.00750715,0.0409213,853,610,0.700933,-1.02511
-364,414,0.418457,0.828979,0.00891107,-0.00307352,0.000218349,0.00891505,-0.00307749,0.0182111,0.00719213,0.043859,860,610,0.418463,-0.828963
-357,414,0.254944,0.838928,0.00755969,-0.00419132,-0.00156799,0.00776532,-0.00439694,-0.130396,0.00711108,0.044397,867,610,0.254961,-0.838947
-350,414,0.141052,0.750061,0.00626876,-0.00545938,-0.00324324,0.00710588,-0.0062965,-0.252599,0.00774257,0.0461753,874,610,0.141036,-0.750069
-343,414,0.0404053,0.719177,0.00484589,-0.00615438,-0.00468994,0.00657396,-0.00788246,-0.353028,0.0083578,0.0475453,881,610,0.0403759,-0.719175
-336,414,0.00598145,0.820862,0,0,0,0,0,0,0,-1,888,610,0.00598707,-0.820888
-329,414,-0.0854492,0.457214,0.00296398,-0.0113362,-0.00983073,0.00796984,-0.0163421,-0.470985,0.0143112,0.04283,895,610,-0.0854289,-0.457227
-322,414,-0.239563,-0.254944,0.00394797,-0.0151475,-0.0149377,0.0121285,-0.023328,-0.501036,0.0208085,0.0422061,902,610,-0.239557,0.254943
-315,414,0,0,0,0,0,0,0,0,0,-1,909,610,0,0
-308,414,0,0,0,0,0,0,0,0,0,-1,916,610,0,0
-301,414,0,0,0,0,0,0,0,0,0,-1,923,610,0,0
-294,414,0,0,0,0,0,0,0,0,0,-1,930,610,0,0
-287,414,0,0,0,0,0,0,0,0,0,-1,937,610,0,0
-280,414,0,0,0,0,0,0,0,0,0,-1,944,610,0,0
-273,414,0,0,0,0,0,0,0,0,0,-1,951,610,0,0
-266,414,0,0,0,0,0,0,0,0,0,-1,958,610,0,0
-259,414,0,0,0,0,0,0,0,0,0,-1,965,610,0,0
-252,414,0,0,0,0,0,0,0,0,0,-1,972,610,0,0
-245,414,0,0,0,0,0,0,0,0,0,-1,979,610,0,0
-238,414,0,0,0,0,0,0,0,0,0,-1,986,610,0,0
-231,414,0,0,0,0,0,0,0,0,0,-1,993,610,0,0
-224,414,0,0,0,0,0,0,0,0,0,-1,1000,610,0,0
-217,414,0,0,0,0,0,0,0,0,0,-1,1007,610,0,0
-210,414,0,0,0,0,0,0,0,0,0,-1,1014,610,0,0
-203,414,0,0,0,0,0,0,0,0,0,-1,1021,610,0,0
-196,414,0,0,0,0,0,0,0,0,0,-1,1028,610,0,0
-189,414,0,0,0,0,0,0,0,0,0,-1,1035,610,0,0
-182,414,0,0,0,0,0,0,0,0,0,-1,1042,610,0,0
-175,414,0,0,0,0,0,0,0,0,0,-1,1049,610,0,0
-168,414,0,0,0,0,0,0,0,0,0,-1,1056,610,0,0
-161,414,0,0,0,0,0,0,0,0,0,-1,1063,610,0,0
-154,414,0,0,0,0,0,0,0,0,0,-1,1070,610,0,0
-147,414,0,0,0,0,0,0,0,0,0,-1,1077,610,0,0
-140,414,0,0,0,0,0,0,0,0,0,-1,1084,610,0,0
-133,414,0,0,0,0,0,0,0,0,0,-1,1091,610,0,0
-126,414,0,0,0,0,0,0,0,0,0,-1,1098,610,0,0
-119,414,0,0,0,0,0,0,0,0,0,-1,1105,610,0,0
-112,414,0,0,0,0,0,0,0,0,0,-1,1112,610,0,0
-105,414,0,0,0,0,0,0,0,0,0,-1,1119,610,0,0
-98,414,0,0,0,0,0,0,0,0,0,-1,1126,610,0,0
-91,414,0,0,0,0,0,0,0,0,0,-1,1133,610,0,0
-84,414,0,0,0,0,0,0,0,0,0,-1,1140,610,0,0
-77,414,0,0,0,0,0,0,0,0,0,-1,1147,610,0,0
-70,414,0,0,0,0,0,0,0,0,0,-1,1154,610,0,0
-63,414,0,0,0,0,0,0,0,0,0,-1,1161,610,0,0
-56,414,0,0,0,0,0,0,0,0,0,-1,1168,610,0,0
-49,414,0,0,0,0,0,0,0,0,0,-1,1175,610,0,0
-42,414,0,0,0,0,0,0,0,0,0,-1,1182,610,0,0
-35,414,0,0,0,0,0,0,0,0,0,-1,1189,610,0,0
-28,414,0,0,0,0,0,0,0,0,0,-1,1196,610,0,0
-21,414,0,0,0,0,0,0,0,0,0,-1,1203,610,0,0
-14,414,0,0,0,0,0,0,0,0,0,-1,1210,610,0,0
-7,414,0,0,0,0,0,0,0,0,0,-1,1217,610,0,0
0,414,0,0,0,0,0,0,0,0,0,-1,1224,610,0,0
7,414,0,0,0,0,0,0,0,0,0,-1,1231,610,0,0
14,414,0,0,0,0,0,0,0,0,0,-1,1238,610,0,0
21,414,0,0,0,0,0,0,0,0,0,-1,1245,610,0,0
28,414,0,0,0,0,0,0,0,0,0,-1,1252,610,0,0
35,414,0,0,0,0,0,0,0,0,0,-1,1259,610,0,0
42,414,0,0,0,0,0,0,0,0,0,-1,1266,610,0,0
49,414,0,0,0,0,0,0,0,0,0,-1,1273,610,0,0
56,414,0,0,0,0,0,0,0,0,0,-1,1280,610,0,0
63,414,0,0,0,0,0,0,0,0,0,-1,1287,610,0,0
70,414,0,0,0,0,0,0,0,0,0,-1,1294,610,0,0
77,414,0,0,0,0,0,0,0,0,0,-1,1301,610,0,0
84,414,0,0,0,0,0,0,0,0,0,-1,1308,610,0,0
91,414,0,0,0,0,0,0,0,0,0,-1,1315,610,0,0
98,414,0,0,0,0,0,0,0,0,0,-1,1322,610,0,0
105,414,0,0,0,0,0,0,0,0,0,-1,1329,610,0,0
112,414,0,0,0,0,0,0,0,0,0,-1,1336,610,0,0
119,414,0,0,0,0,0,0,0,0,0,-1,1343,610,0,0
126,414,0,0,0,0,0,0,0,0,0,-1,1350,610,0,0
133,414,0,0,0,0,0,0,0,0,0,-1,1357,610,0,0
140,414,0,0,0,0,0,0,0,0,0,-1,1364,610,0,0
147,414,0,0,0,0,0,0,0,0,0,-1,1371,610,0,0
154,414,0,0,0,0,0,0,0,0,0,-1,1378,610,0,0
161,414,0,0,0,0,0,0,0,0,0,-1,1385,610,0,0
168,414,0,0,0,0,0,0,0,0,0,-1,1392,610,0,0
175,414,0,0,0,0,0,0,0,0,0,-1,1399,610,0,0
182,414,0,0,0,0,0,0,0,0,0,-1,1406,610,0,0
189,414,0,0,0,0,0,0,0,0,0,-1,1413,610,0,0
196,414,0,0,0,0,0,0,0,0,0,-1,1420,610,0,0
203,414,0,0,0,0,0,0,0,0,0,-1,1427,610,0,0
210,414,0,0,0,0,0,0,0,0,0,-1,1434,610,0,0
217,414,0,0,0,0,0,0,0,0,0,-1,1441,610,0,0
224,414,0,0,0,0,0,0,0,0,0,-1,1448,610,0,0
231,414,0,0,0,0,0,0,0,0,0,-1,1455,610,0,0
238,414,0,0,0,0,0,0,0,0,0,-1,1462,610,0,0
245,414,0,0,0,0,0,0,0,0,0,-1,1469,610,0,0
252,414,0,0,0,0,0,0,0,0,0,-1,1476,610,0,0
259,414,0,0,0,0,0,0,0,0,0,-1,1483,610,0,0
266,414,0,0,0,0,0,0,0,0,0,-1,1490,610,0,0
273,414,0,0,0,0,0,0,0,0,0,-1,1497,610,0,0
280,414,0,0,0,0,0,0,0,0,0,-1,1504,610,0,0
287,414,0,0,0,0,0,0,0,0,0,-1,1511,610,0,0
294,414,0,0,0,0,0,0,0,0,0,-1,1518,610,0,0
301,414,0,0,0,0,0,0,0,0,0,-1,1525,610,0,0
308,414,0,0,0,0,0,0,0,0,0,-1,1532,610,0,0
315,414,0,0,0,0,0,0,0,0,0,-1,1539,610,0,0
322,414,0,0,0,0,0,0,0,0,0,-1,1546,610,0,0
329,414,0,0,0,0,0,0,0,0,0,-1,1553,610,0,0
336,414,0,0,0,0,0,0,0,0,0,-1,1560,610,0,0
343,414,0,0,0,0,0,0,0,0,0,-1,1567,610,0,0
350,414,0,0,0,0,0,0,0,0,0,-1,1574,610,0,0
357,414,0,0,0,0,0,0,0,0,0,-1,1581,610,0,0
364,414,0,0,0,0,0,0,0,0,0,-1,1588,610,0,0
371,414,0,0,0,0,0,0,0,0,0,-1,1595,610,0,0
378,414,0,0,0,0,0,0,0,0,0,-1,1602,610,0,0
385,414,0,0,0,0,0,0,0,0,0,-1,1609,610,0,0
392,414,0,0,0,0,0,0,0,0,0,-1,1616,610,0,0
399,414,0,0,0,0,0,0,0,0,0,-1,1623,610,0,0
406,414,0,0,0,0,0,0,0,0,0,-1,1630,610,0,0
413,414,0,0,0,0,0,0,0,0,0,-1,1637,610,0,0
420,414,0,0,0,0,0,0,0,0,0,-1,1644,610,0,0
427,414,0,0,0,0,0,0,0,0,0,-1,1651,610,0,0
434,414,0,0,0,0,0,0,0,0,0,-1,1658,610,0,0
441,414,0.0874023,-0.0942383,0.00170966,0.0103779,-0.010407,0.0173173,-0.00522966,-0.982707,0.0136268,0.0494122,1665,610,0.0874151,0.09421
448,414,-0.109985,-0.154053,0.00016088,0.00893753,-0.00851076,0.0141247,-0.00502631,-1.02343,0.0114652,0.0458673,1672,610,-0.10995,0.154067
455,414,-0.0843506,-0.289307,-0.000550279,0.0078082,-0.00752149,0.0122335,-0.00497562,-1.03898,0.010226,0.043884,1679,610,-0.0844103,0.289329
462,414,0.154175,-0.453796,0,0,0,0,0,0,0,-1,1686,610,0.154119,0.453803
469,414,-0.219604,0.632324,0,0,0,0,0,0,0,-1,1693,610,-0.219547,-0.632329
476,414,-0.00305176,0.0845337,-0.00073363,0.00829273,-0.00322687,0.00932766,-0.00176856,-1.26044,0.0068841,0.0429391,1700,610,-0.00304321,-0.0845041
483,414,0.323486,-0.283447,-0.000893258,0.00860634,-0.0023929,0.00917505,-0.00146197,-1.33746,0.00665775,0.0418104,1707,610,0.323457,0.283469
490,414,0.238281,-0.232544,-0.000819184,0.00869904,-0.00174366,0.00900842,-0.00112855,-1.3952,0.00641497,0.042265,1714,610,0.238228,0.232521
497,414,-0.375366,-0.266602,-0.000329986,0.0087257,-0.00130256,0.00890934,-0.00051362,-1.43074,0.00611796,0.0445959,1721,610,-0.375393,0.266609
504,414,-0.620117,-0.212097,0,0,0,0,0,0,0,-1,1728,610,-0.620081,0.212076
511,414,-0.171265,0.229797,0.000420601,0.00804113,-0.000433413,0.0080657,0.00039603,-1.51417,0.00525011,0.0413931,1735,610,-0.17122,-0.229794
518,414,-0.0302734,0.272705,0.000689653,0.00671079,-0.000317238,0.00672746,0.000672985,-1.5183,0.00427832,0.0394731,1742,610,-0.0303069,-0.2727
525,414,-0.0177002,0.00805664,0.000536754,0.00585304,-0.000236392,0.00586354,0.000526263,-1.52645,0.00374595,0.0340622,1749,610,-0.0177053,-0.00804769
532,414,-0.00769043,0.0582886,-6.64698e-05,0.00495527,-1.87181e-05,0.00495534,-6.65397e-05,-1.56707,0.00332596,0.0244578,1756,610,-0.00770142,-0.0583069
539,414,-0.0273438,0.0778809,9.47872e-05,0.00431942,-0.000158235,0.00432534,8.88687e-05,-1.53341,0.0028544,0.0153559,1763,610,-0.0273531,-0.0778841
546,414,-0.0412598,0.0627441,0.00108283,0.0031596,-0.000421849,0.00324202,0.00100041,-1.37785,0.00191696,0.0110757,1770,610,-0.0412271,-0.0627477
553,414,-0.0374756,0.0673828,0.0015068,0.00223395,-0.000620116,0.00258921,0.00115153,-1.05054,0.00149792,0.0104002,1777,610,-0.0374334,-0.0673921
560,414,-0.039917,0.0895386,0.00114948,0.00199556,-0.000256822,0.00206742,0.00107762,-1.29799,0.00119398,0.0118987,1784,610,-0.0399317,-0.0895643
567,414,-0.0389404,0.100769,0.000632324,0.000999475,-0.00049817,0.00134682,0.000284982,-0.961928,0.00081957,0.0205952,1791,610,-0.0389446,-0.100779
574,414,-0.0501709,0.100342,0.000229517,0.00052982,-0.00014068,0.000585427,0.000173911,-1.19437,0.000347152,0.020003,1798,610,-0.0501781,-0.100316
581,414,-0.0449219,0.106384,0.000397965,-0.000164126,-6.66719e-05,0.000405765,-0.000171926,-0.116461,0.000342517,0.0148707,1805,610,-0.0449614,-0.106374
588,414,-0.0499268,0.072876,0.000913053,-0.000666426,-0.000100792,0.000919459,-0.000672831,-0.0634706,0.000922978,0.0145438,1812,610,-0.0499808,-0.0728841
595,414,-0.0375977,0.083374,0.00138654,-0.00140192,-0.000142465,0.0013938,-0.00140918,-0.0509142,0.00161831,0.0201714,1819,610,-0.0375833,-0.0833644
602,414,-0.00109863,0.0680542,0.00168201,-0.00205936,-0.0003646,0.00171721,-0.00209456,-0.0962445,0.00220432,0.0231281,1826,610,-0.0011211,-0.068058
609,414,-0.0385742,0.0602417,0.00242281,-0.00267131,-0.000705947,0.00251883,-0.00276733,-0.135187,0.00305309,0.0118997,1833,610,-0.038613,-0.060215
616,414,-0.0482178,0.0723267,0.0033657,-0.00364223,-0.00126569,0.00358729,-0.00386381,-0.173316,0.00430289,0.0158873,1840,610,-0.0482159,-0.0723366
623,414,-0.0528564,0.0407715,0,0,0,0,0,0,0,-1,1847,610,-0.0528298,-0.0407998
630,414,0.310059,-0.216919,0.00557989,-0.00583855,-0.00243513,0.00607752,-0.00633618,-0.201581,0.00716757,0.0350616,1854,610,0.310108,0.216912
637,414,0.446411,-0.236755,0.00649974,-0.00691451,-0.00308001,0.00717313,-0.0075879,-0.215245,0.0085234,0.0391568,1861,610,0.446461,0.236785
644,414,0.432495,-0.100464,0.00721139,-0.00789644,-0.00389841,0.00815802,-0.00884306,-0.238213,0.00981823,0.0434601,1868,610,0.432439,0.100471
651,414,0.325317,-0.0467529,0.00736426,-0.00862119,-0.00478064,0.00868487,-0.0099418,-0.26952,0.0107623,0.0438887,1875,610,0.325304,0.0467434
658,414,0.22522,-0.140259,0.00645167,-0.00896458,-0.00561626,0.00828071,-0.0107936,-0.314837,0.0110444,0.041471,1882,610,0.225197,0.140255
665,414,0,0,0,0,0,0,0,0,0,-1,1889,610,0,0
672,414,0,0,0,0,0,0,0,0,0,-1,1896,610,0,0
679,414,0,0,0,0,0,0,0,0,0,-1,1903,610,0,0
686,414,0,0,0,0,0,0,0,0,0,-1,1910,610,0,0
693,414,0,0,0,0,0,0,0,0,0,-1,1917,610,0,0
700,414,0,0,0,0,0,0,0,0,0,-1,1924,610,0,0
707,414,0,0,0,0,0,0,0,0,0,-1,1931,610,0,0
714,414,0,0,0,0,0,0,0,0,0,-1,1938,610,0,0
721,414,0,0,0,0,0,0,0,0,0,-1,1945,610,0,0
728,414,0,0,0,0,0,0,0,0,0,-1,1952,610,0,0
735,414,0,0,0,0,0,0,0,0,0,-1,1959,610,0,0
742,414,0,0,0,0,0,0,0,0,0,-1,1966,610,0,0
749,414,0,0,0,0,0,0,0,0,0,-1,1973,610,0,0
756,414,0,0,0,0,0,0,0,0,0,-1,1980,610,0,0
763,414,0,0,0,0,0,0,0,0,0,-1,1987,610,0,0
770,414,0,0,0,0,0,0,0,0,0,-1,1994,610,0,0
777,414,0,0,0,0,0,0,0,0,0,-1,2001,610,0,0
784,414,0,0,0,0,0,0,0,0,0,-1,2008,610,0,0
791,414,0,0,0,0,0,0,0,0,0,-1,2015,610,0,0
798,414,0,0,0,0,0,0,0,0,0,-1,2022,610,0,0
805,414,0,0,0,0,0,0,0,0,0,-1,2029,610,0,0
812,414,0,0,0,0,0,0,0,0,0,-1,2036,610,0,0
-700,407,0,0,0,0,0,0,0,0,0,-1,524,617,0,0
-693,407,0,0,0,0,0,0,0,0,0,-1,531,617,0,0
-686,407,0,0,0,0,0,0,0,0,0,-1,538,617,0,0
-679,407,0,0,0,0,0,0,0,0,0,-1,545,617,0,0
-672,407,0,0,0,0,0,0,0,0,0,-1,552,617,0,0
-665,407,0,0,0,0,0,0,0,0,0,-1,559,617,0,0
-658,407,0,0,0,0,0,0,0,0,0,-1,566,617,0,0
-651,407,0,0,0,0,0,0,0,0,0,-1,573,617,0,0
-644,407,0,0,0,0,0,0,0,0,0,-1,580,617,0,0
-637,407,0,0,0,0,0,0,0,0,0,-1,587,617,0,0
-630,407,0,0,0,0,0,0,0,0,0,-1,594,617,0,0
-623,407,0,0,0,0,0,0,0,0,0,-1,601,617,0,0
-616,407,0,0,0,0,0,0,0,0,0,-1,608,617,0,0
-609,407,0,0,0,0,0,0,0,0,0,-1,615,617,0,0
-602,407,0,0,0,0,0,0,0,0,0,-1,622,617,0,0
-595,407,0,0,0,0,0,0,0,0,0,-1,629,617,0,0
-588,407,0,0,0,0,0,0,0,0,0,-1,636,617,0,0
-581,407,0,0,0,0,0,0,0,0,0,-1,643,617,0,0
-574,407,0,0,0,0,0,0,0,0,0,-1,650,617,0,0
-567,407,0,0,0,0,0,0,0,0,0,-1,657,617,0,0
-560,407,0,0,0,0,0,0,0,0,0,-1,664,617,0,0
-553,407,0,0,0,0,0,0,0,0,0,-1,671,617,0,0
-546,407,1.20831,-2.05939,0.00736018,-0.0113054,0.0279648,0.0275084,-0.0314536,0.624342,0.0340671,0.0470791,678,617,1.2083,2.05938
-539,407,1.12799,-0.859436,0,0,0,0,0,0,0,-1,685,617,1.12797,0.859449
-532,407,0.800537,0.183472,-0.00198139,-0.00431162,0.0232594,0.020142,-0.026435,0.760373,0.026973,0.0487516,692,617,0.800533,-0.183458
-525,407,0.958191,-0.286316,-0.00440808,-0.00231846,0.0204591,0.0171225,-0.023849,0.81091,0.023761,0.043839,699,617,0.958186,0.286345
-518,407,1.17383,-0.379395,0,0,0,0,0,0,0,-1,706,617,1.17385,0.379378
-511,407,0.951172,-0.383179,-0.00632765,0.00075949,0.0152207,0.0128436,-0.0184118,0.899767,0.0181405,0.048028,713,617,0.951164,0.383179
-504,407,0.77655,-0.113464,-0.00597257,0.00159543,0.0125453,0.010915,-0.0152922,0.931872,0.0152009,0.0457725,720,617,0.77655,0.113456
-497,407,0.00128174,-0.0305176,-0.00500926,0.00186021,0.0100228,0.00902051,-0.0121696,0.950472,0.012279,0.0374971,727,617,0.00125304,0.0304932
-490,407,-0.0393066,0.0275269,-0.00410328,0.00206588,0.00737233,0.00697292,-0.00901031,0.983532,0.00925288,0.0189046,734,617,-0.039301,-0.0275207
-483,407,-0.0420532,0.0764771,-0.00312976,0.00202972,0.00567336,0.00568232,-0.00678236,0.998781,0.00720582,0.0105928,741,617,-0.0420238,-0.076469
-476,407,-0.0340576,0.0766602,-0.00238462,0.00163324,0.0041701,0.00425308,-0.00500446,1.00987,0.00535071,0.00909525,748,617,-0.0340376,-0.0766528
-469,407,-0.0431519,0.0843506,-0.0016524,0.00185014,0.00286602,0.00345759,-0.00325985,1.05965,0.00387888,0.0112874,755,617,-0.0431625,-0.0843472
-462,407,-0.0629272,0.0825806,-0.00108433,0.00181465,0.00199454,0.00283076,-0.00210045,1.09962,0.00285742,0.0175304,762,617,-0.062902,-0.0825586
-455,407,-0.0514526,0.0802002,-0.00077835,0.00200106,0.00118098,0.00243508,-0.00121238,1.2186,0.00214494,0.0181551,769,617,-0.0514269,-0.0801718
-448,407,-0.0342407,0.0722656,7.59136e-05,0.0016828,0.000558313,0.00185774,-9.9027e-05,1.26715,0.00127278,0.0159937,776,617,-0.0342621,-0.0722608
-441,407,-0.0339355,0.0879517,0.00132966,0.00176526,-1.37121e-05,0.00176569,0.00132923,-1.53936,0.00106197,0.0125669,783,617,-0.0339072,-0.0879463
-434,407,-0.0305786,0.0855713,0.00243946,0.00212836,-2.20837e-05,0.00244102,0.0021268,-0.0705141,0.00153338,0.00916307,790,617,-0.0305973,-0.085544
-427,407,-0.0129395,0.060791,0.0042306,0.00292916,0.0012746,0.00501098,0.00214878,0.549381,0.00290285,0.00940069,797,617,-0.0129531,-0.060768
-420,407,-0.0139771,0.0578613,0.00619032,0.00321468,0.00195234,0.00715713,0.00224787,0.459807,0.00422633,0.0090479,804,617,-0.0139924,-0.0578753
-413,407,-0.0222778,0.0689087,0.00780744,0.0029255,0.00227181,0.00870105,0.00203189,0.37476,0.005256,0.00902763,811,617,-0.0222779,-0.0689023
-406,407,-0.0455322,0.05896,0.0100018,0.00317011,0.0027944,0.0109992,0.00217272,0.342831,0.00672656,0.0162527,818,617,-0.0455412,-0.0589701
-399,407,-0.0611572,0.0435791,0.0125053,0.00287014,0.00341989,0.0135958,0.0017797,0.308661,0.00853271,0.0318685,825,617,-0.0611658,-0.0435658
-392,407,0.183228,0.121948,0.0141326,0.00304953,0.00393506,0.0153876,0.0017945,0.308738,0.00971564,0.0408359,832,617,0.183214,-0.121925
-385,407,0.38562,0.200317,0.0155351,0.00276204,0.00433025,0.0168647,0.00143243,0.297913,0.0107974,0.042279,839,617,0.385647,-0.200289
-378,407,0.707886,0.360779,0.0161087,0.00138821,0.00348879,0.0168937,0.000603214,0.221318,0.0110668,0.0443393,846,617,0.707902,-0.360759
-371,407,0.79718,0.58429,0,0,0,0,0,0,0,-1,853,617,0.79717,-0.584274
-364,407,0.54248,1.39984,0.0149905,-0.00153201,0.000464409,0.0150035,-0.00154505,0.0280781,0.0105551,0.0446155,860,617,0.542493,-1.39983
-357,407,0.392029,0.760986,0.0136052,-0.00287782,-0.00190935,0.0138234,-0.00309611,-0.113829,0.0104024,0.0448886,867,617,0.392049,-0.761016
-350,407,0.705627,0.491699,0.0120119,-0.0045757,-0.00439472,0.0131043,-0.00566809,-0.243632,0.0111181,0.045759,874,617,0.705607,-0.491713
-343,407,0.599854,0.486145,0.00979023,-0.00550665,-0.0066974,0.0123081,-0.00802452,-0.359601,0.0118256,0.047537,881,617,0.599828,-0.486115
-336,407,0.180908,1.63892,0,0,0,0,0,0,0,-1,888,617,0.180914,-1.63893
-329,407,0.378418,0.914307,0,0,0,0,0,0,0,-1,895,617,0.378436,-0.914311
-322,407,0,0,0,0,0,0,0,0,0,-1,902,617,0,0
-315,407,0,0,0,0,0,0,0,0,0,-1,909,617,0,0
-308,407,0,0,0,0,0,0,0,0,0,-1,916,617,0,0
-301,407,0,0,0,0,0,0,0,0,0,-1,923,617,0,0
-294,407,0,0,0,0,0,0,0,0,0,-1,930,617,0,0
-287,407,0,0,0,0,0,0,0,0,0,-1,937,617,0,0
-280,407,0,0,0,0,0,0,0,0,0,-1,944,617,0,0
-273,407,0,0,0,0,0,0,0,0,0,-1,951,617,0,0
-266,407,0,0,0,0,0,0,0,0,0,-1,958,617,0,0
-259,407,0,0,0,0,0,0,0,0,0,-1,965,617,0,0
-252,407,0,0,0,0,0,0,0,0,0,-1,972,617,0,0
-245,407,0,0,0,0,0,0,0,0,0,-1,979,617,0,0
-238,407,0,0,0,0,0,0,0,0,0,-1,986,617,0,0
-231,407,0,0,0,0,0,0,0,0,0,-1,993,617,0,0
-224,407,0,0,0,0,0,0,0,0,0,-1,1000,617,0,0
-217,407,0,0,0,0,0,0,0,0,0,-1,1007,617,0,0
-210,407,0,0,0,0,0,0,0,0,0,-1,1014,617,0,0
-203,407,0,0,0,0,0,0,0,0,0,-1,1021,617,0,0
-196,407,0,0,0,0,0,0,0,0,0,-1,1028,617,0,0
-189,407,0,0,0,0,0,0,0,0,0,-1,1035,617,0,0
-182,407,0,0,0,0,0,0,0,0,0,-1,1042,617,0,0
-175,407,0,0,0,0,0,0,0,0,0,-1,1049,617,0,0
-168,407,0,0,0,0,0,0,0,0,0,-1,1056,617,0,0
-161,407,0,0,0,0,0,0,0,0,0,-1,1063,617,0,0
-154,407,0,0,0,0,0,0,0,0,0,-1,1070,617,0,0
-147,407,0,0,0,0,0,0,0,0,0,-1,1077,617,0,0
-140,407,0,0,0,0,0,0,0,0,0,-1,1084,617,0,0
-133,407,0,0,0,0,0,0,0,0,0,-1,1091,617,0,0
-126,407,0,0,0,0,0,0,0,0,0,-1,1098,617,0,0
-119,407,0,0,0,0,0,0,0,0,0,-1,1105,617,0,0
-112,407,0,0,0,0,0,0,0,0,0,-1,1112,617,0,0
-105,407,0,0,0,0,0,0,0,0,0,-1,1119,617,0,0
-98,407,0,0,0,0,0,0,0,0,0,-1,1126,617,0,0
-91,407,0,0,0,0,0,0,0,0,0,-1,1133,617,0,0
-84,407,0,0,0,0,0,0,0,0,0,-1,1140,617,0,0
-77,407,0,0,0,0,0,0,0,0,0,-1,1147,617,0,0
-70,407,0,0,0,0,0,0,0,0,0,-1,1154,617,0,0
-63,407,0,0,0,0,0,0,0,0,0,-1,1161,617,0,0
-56,407,0,0,0,0,0,0,0,0,0,-1,1168,617,0,0
-49,407,0,0,0,0,0,0,0,0,0,-1,1175,617,0,0
-42,407,0,0,0,0,0,0,0,0,0,-1,1182,617,0,0
-35,407,0,0,0,0,0,0,0,0,0,-1,1189,617,0,0
-28,407,0,0,0,0,0,0,0,0,0,-1,1196,617,0,0
-21,407,0,0,0,0,0,0,0,0,0,-1,1203,617,0,0
-14,407,0,0,0,0,0,0,0,0,0,-1,1210,617,0,0
-7,407,0,0,0,0,0,0,0,0,0,-1,1217,617,0,0
0,407,0,0,0,0,0,0,0,0,0,-1,1224,617,0,0
7,407,0,0,0,0,0,0,0,0,0,-1,1231,617,0,0
14,407,0,0,0,0,0,0,0,0,0,-1,1238,617,0,0
21,407,0,0,0,0,0,0,0,0,0,-1,1245,617,0,0
28,407,0,0,0,0,0,0,0,0,0,-1,1252,617,0,0
35,407,0,0,0,0,0,0,0,0,0,-1,1259,617,0,0
42,407,0,0,0,0,0,0,0,0,0,-1,1266,617,0,0
49,407,0,0,0,0,0,0,0,0,0,-1,1273,617,0,0
56,407,0,0,0,0,0,0,0,0,0,-1,1280,617,0,0
63,407,0,0,0,0,0,0,0,0,0,-1,1287,617,0,0
70,407,0,0,0,0,0,0,0,0,0,-1,1294,617,0,0
77,407,0,0,0,0,0,0,0,0,0,-1,1301,617,0,0
84,407,0,0,0,0,0,0,0,0,0,-1,1308,617,0,0
91,407,0,0,0,0,0,0,0,0,0,-1,1315,617,0,0
98,407,0,0,0,0,0,0,0,0,0,-1,1322,617,0,0
105,407,0,0,0,0,0,0,0,0,0,-1,1329,617,0,0
112,407,0,0,0,0,0,0,0,0,0,-1,1336,617,0,0
119,407,0,0,0,0,0,0,0,0,0,-1,1343,617,0,0
126,407,0,0,0,0,0,0,0,0,0,-1,1350,617,0,0
133,407,0,0,0,0,0,0,0,0,0,-1,1357,617,0,0
140,407,0,0,0,0,0,0,0,0,0,-1,1364,617,0,0
147,407,0,0,0,0,0,0,0,0,0,-1,1371,617,0,0
154,407,0,0,0,0,0,0,0,0,0,-1,1378,617,0,0
161,407,0,0,0,0,0,0,0,0,0,-1,1385,617,0,0
168,407,0,0,0,0,0,0,0,0,0,-1,1392,617,0,0
175,407,0,0,0,0,0,0,0,0,0,-1,1399,617,0,0
182,407,0,0,0,0,0,0,0,0,0,-1,1406,617,0,0
189,407,0,0,0,0,0,0,0,0,0,-1,1413,617,0,0
196,407,0,0,0,0,0,0,0,0,0,-1,1420,617,0,0
203,407,0,0,0,0,0,0,0,0,0,-1,1427,617,0,0
210,407,0,0,0,0,0,0,0,0,0,-1,1434,617,0,0
217,407,0,0,0,0,0,0,0,0,0,-1,1441,617,0,0
224,407,0,0,0,0,0,0,0,0,0,-1,1448,617,0,0
231,407,0,0,0,0,0,0,0,0,0,-1,1455,617,0,0
238,407,0,0,0,0,0,0,0,0,0,-1,1462,617,0,0
245,407,0,0,0,0,0,0,0,0,0,-1,1469,617,0,0
252,407,0,0,0,0,0,0,0,0,0,-1,1476,617,0,0
259,407,0,0,0,0,0,0,0,0,0,-1,1483,617,0,0
266,407,0,0,0,0,0,0,0,0,0,-1,1490,617,0,0
273,407,0,0,0,0,0,0,0,0,0,-1,1497,617,0,0
280,407,0,0,0,0,0,0,0,0,0,-1,1504,617,0,0
287,407,0,0,0,0,0,0,0,0,0,-1,1511,617,0,0
294,407,0,0,0,0,0,0,0,0,0,-1,1518,617,0,0
301,407,0,0,0,0,0,0,0,0,0,-1,1525,617,0,0
308,407,0,0,0,0,0,0,0,0,0,-1,1532,617,0,0
315,407,0,0,0,0,0,0,0,0,0,-1,1539,617,0,0
322,407,0,0,0,0,0,0,0,0,0,-1,1546,617,0,0
329,407,0,0,0,0,0,0,0,0,0,-1,1553,617,0,0
336,407,0,0,0,0,0,0,0,0,0,-1,1560,617,0,0
343,407,0,0,0,0,0,0,0,0,0,-1,1567,617,0,0
350,407,0,0,0,0,0,0,0,0,0,-1,1574,617,0,0
357,407,0,0,0,0,0,0,0,0,0,-1,1581,617,0,0
364,407,0,0,0,0,0,0,0,0,0,-1,1588,617,0,0
371,407,0,0,0,0,0,0,0,0,0,-1,1595,617,0,0
378,407,0,0,0,0,0,0,0,0,0,-1,1602,617,0,0
385,407,0,0,0,0,0,0,0,0,0,-1,1609,617,0,0
392,407,0,0,0,0,0,0,0,0,0,-1,1616,617,0,0
399,407,0,0,0,0,0,0,0,0,0,-1,1623,617,0,0
406,407,0,0,0,0,0,0,0,0,0,-1,1630,617,0,0
413,407,0,0,0,0,0,0,0,0,0,-1,1637,617,0,0
420,407,0,0,0,0,0,0,0,0,0,-1,1644,617,0,0
427,407,0,0,0,0,0,0,0,0,0,-1,1651,617,0,0
434,407,0,0,0,0,0,0,0,0,0,-1,1658,617,0,0
441,407,0,0,0,0,0,0,0,0,0,-1,1665,617,0,0
448,407,-0.135864,-0.0369263,0.000385893,0.00893635,-0.0116404,0.0170618,-0.00773955,-0.961389,0.0146524,0.0438676,1672,617,-0.135906,0.0368976
455,407,0.169922,-0.426331,0.000333883,0.00793676,-0.0103079,0.0151219,-0.00685123,-0.962055,0.0129823,0.0431592,1679,617,0.169914,0.426319
462,407,-0.364014,0.145752,0.000351145,0.00865757,-0.00801978,0.0135357,-0.00452703,-1.02432,0.0108523,0.046472,1686,617,-0.364016,-0.145762
469,407,-0.183838,-0.0317383,0.00056828,0.00881341,-0.00665554,0.0125197,-0.00313806,-1.06269,0.00956566,0.044619,1693,617,-0.183857,0.0317389
476,407,0.00244141,-0.308044,0.000664679,0.00925893,-0.00550355,0.0119442,-0.00202062,-1.11686,0.0087148,0.0441167,1700,617,0.00239156,0.308069
483,407,0.456421,-0.373718,0.000481688,0.00990315,-0.00463904,0.0118039,-0.00141906,-1.18193,0.00838242,0.0425304,1707,617,0.456404,0.373741
490,407,-0.178345,-0.273682,0.000412927,0.010261,-0.00390155,0.0116194,-0.000945405,-1.23577,0.00807984,0.0404198,1714,617,-0.178335,0.273698
497,407,-0.770752,-0.31012,0.000813506,0.0104721,-0.00339475,0.0115459,-0.00026028,-1.26445,0.0077855,0.0433769,1721,617,-0.770789,0.310129
504,407,-1.34631,-0.327637,0,0,0,0,0,0,0,-1,1728,617,-1.34637,0.327654
511,407,0.18689,-0.0734253,0.00123246,0.0100323,-0.0023438,0.0106177,0.000647133,-1.32607,0.00687289,0.0428679,1735,617,0.186838,0.0734278
518,407,0.0706787,0.101807,0.00137937,0.00865335,-0.00212265,0.00922746,0.000805261,-1.30665,0.00590156,0.04429,1742,617,0.070724,-0.101836
525,407,0.036377,-0.046814,0.00109572,0.0076899,-0.00191058,0.00820347,0.000582149,-1.3082,0.00528562,0.0438568,1749,617,0.036412,0.0467906
532,407,0.0250244,-0.0219727,0.000328637,0.0066797,-0.0015164,0.00702318,-1.48476e-05,-1.34804,0.00468708,0.034176,1756,617,0.0250558,0.0219694
539,407,-0.0032959,0.0585327,0.000427696,0.00585276,-0.00144365,0.00621301,6.7451e-05,-1.32625,0.00411971,0.0176319,1763,617,-0.00335187,-0.0585106
546,407,-0.0413818,0.0740967,0.0013502,0.00447315,-0.00152836,0.00509664,0.000726705,-1.18346,0.0031833,0.010494,1770,617,-0.0413956,-0.0740794
553,407,-0.0455322,0.0664063,0.00161126,0.00334446,-0.00151991,0.00422747,0.00072825,-1.0445,0.00260966,0.0119776,1777,617,-0.0454797,-0.0664165
560,407,-0.0458984,0.0838013,0.00114951,0.00282425,-0.000890889,0.00320953,0.000764229,-1.16262,0.0019359,0.0124196,1784,617,-0.0458975,-0.0838081
567,407,-0.0395508,0.0776367,0.000548726,0.00154872,-0.000979523,0.00214848,-5.10324e-05,-1.02138,0.00144963,0.024073,1791,617,-0.0395969,-0.0776621
574,407,-0.0460205,0.0731812,0.000106246,0.000919926,-0.000434996,0.00110869,-8.25154e-05,-1.16138,0.000768108,0.0235323,1798,617,-0.0460799,-0.0731996
581,407,-0.0400391,0.106567,0.000228516,0.000105368,-0.000193361,0.00036987,-3.59856e-05,-0.631254,0.000259408,0.0147714,1805,617,-0.0400532,-0.106537
588,407,-0.0488281,0.0626221,0.000708105,-0.000473865,-0.000106178,0.000717567,-0.000483327,-0.0888835,0.000697719,0.00928656,1812,617,-0.0488412,-0.0626237
595,407,-0.0290527,0.0587158,0.00114369,-0.00113146,-9.09107e-05,0.00114731,-0.00113509,-0.0398735,0.00131775,0.0167234,1819,617,-0.0290902,-0.0587268
602,407,-0.0159912,0.0509644,0.00139366,-0.00168397,-0.000231945,0.00141105,-0.00170136,-0.0748016,0.00179955,0.0166149,1826,617,-0.0160023,-0.0509749
609,407,-0.0428467,0.0581055,0.00210381,-0.00214706,-0.000507093,0.00216346,-0.00220672,-0.117103,0.00252317,0.0119038,1833,617,-0.0428861,-0.0580841
616,407,-0.0595703,0.0874634,0.0030555,-0.00292629,-0.00102009,0.00322468,-0.00309547,-0.164347,0.00364919,0.0121665,1840,617,-0.059576,-0.0874575
623,407,-0.053833,0.0944824,0.00417661,-0.00376699,-0.00146242,0.00443729,-0.00402767,-0.176398,0.00488915,0.0193499,1847,617,-0.0538597,-0.0945035
630,407,0.199951,-0.112305,0.00525949,-0.0046713,-0.00191068,0.00561442,-0.00502623,-0.183666,0.00614651,0.0341718,1854,617,0.199967,0.112276
637,407,0.359375,-0.455078,0.00622881,-0.00550428,-0.00234917,0.00668168,-0.00595714,-0.190441,0.00730102,0.0421407,1861,617,0.359412,0.455099
644,407,0.450684,-0.545471,0.00708818,-0.00628297,-0.00296415,0.00771582,-0.00691061,-0.208661,0.00844884,0.0434464,1868,617,0.450704,0.54545
651,407,0.271729,-0.0773926,0.00747161,-0.00689061,-0.00359579,0.00832157,-0.00774057,-0.232115,0.0092755,0.043424,1875,617,0.271764,0.0774155
658,407,0.203247,-0.213806,0.00690555,-0.00727727,-0.00408454,0.00799776,-0.00836948,-0.261287,0.00945044,0.0405239,1882,617,0.203293,0.213813
665,407,0.169312,-0.483337,0.00453408,-0.00733946,-0.00404973,0.00578379,-0.00858918,-0.299321,0.00835076,0.0407894,1889,617,0.169343,0.483331
672,407,0,0,0,0,0,0,0,0,0,-1,1896,617,0,0
679,407,0,0,0,0,0,0,0,0,0,-1,1903,617,0,0
686,407,0,0,0,0,0,0,0,0,0,-1,1910,617,0,0
693,407,0,0,0,0,0,0,0,0,0,-1,1917,617,0,0
700,407,0,0,0,0,0,0,0,0,0,-1,1924,617,0,0
707,407,0,0,0,0,0,0,0,0,0,-1,1931,617,0,0
714,407,0,0,0,0,0,0,0,0,0,-1,1938,617,0,0
721,407,0,0,0,0,0,0,0,0,0,-1,1945,617,0,0
728,407,0,0,0,0,0,0,0,0,0,-1,1952,617,0,0
735,407,0,0,0,0,0,0,0,0,0,-1,1959,617,0,0
742,407,0,0,0,0,0,0,0,0,0,-1,1966,617,0,0
749,407,0,0,0,0,0,0,0,0,0,-1,1973,617,0,0
756,407,0,0,0,0,0,0,0,0,0,-1,1980,617,0,0
763,407,0,0,0,0,0,0,0,0,0,-1,1987,617,0,0
770,407,0,0,0,0,0,0,0,0,0,-1,1994,617,0,0
777,407,0,0,0,0,0,0,0,0,0,-1,2001,617,0,0
784,407,0,0,0,0,0,0,0,0,0,-1,2008,617,0,0
791,407,0,0,0,0,0,0,0,0,0,-1,2015,617,0,0
798,407,0,0,0,0,0,0,0,0,0,-1,2022,617,0,0
805,407,0,0,0,0,0,0,0,0,0,-1,2029,617,0,0
812,407,0,0,0,0,0,0,0,0,0,-1,2036,617,0,0
-700,400,0,0,0,0,0,0,0,0,0,-1,524,624,0,0
-693,400,0,0,0,0,0,0,0,0,0,-1,531,624,0,0
-686,400,0,0,0,0,0,0,0,0,0,-1,538,624,0,0
-679,400,0,0,0,0,0,0,0,0,0,-1,545,624,0,0
-672,400,0,0,0,0,0,0,0,0,0,-1,552,624,0,0
-665,400,0,0,0,0,0,0,0,0,0,-1,559,624,0,0
-658,400,0,0,0,0,0,0,0,0,0,-1,566,624,0,0
-651,400,0,0,0,0,0,0,0,0,0,-1,573,624,0,0
-644,400,0,0,0,0,0,0,0,0,0,-1,580,624,0,0
-637,400,0,0,0,0,0,0,0,0,0,-1,587,624,0,0
-630,400,0,0,0,0,0,0,0,0,0,-1,594,624,0,0
-623,400,0,0,0,0,0,0,0,0,0,-1,601,624,0,0
-616,400,0,0,0,0,0,0,0,0,0,-1,608,624,0,0
-609,400,0,0,0,0,0,0,0,0,0,-1,615,624,0,0
-602,400,0,0,0,0,0,0,0,0,0,-1,622,624,0,0
-595,400,0,0,0,0,0,0,0,0,0,-1,629,624,0,0
-588,400,0,0,0,0,0,0,0,0,0,-1,636,624,0,0
-581,400,0,0,0,0,0,0,0,0,0,-1,643,624,0,0
-574,400,0,0,0,0,0,0,0,0,0,-1,650,624,0,0
-567,400,0,0,0,0,0,0,0,0,0,-1,657,624,0,0
-560,400,0,0,0,0,0,0,0,0,0,-1,664,624,0,0
-553,400,0,0,0,0,0,0,0,0,0,-1,671,624,0,0
-546,400,0.846191,-1.91754,0,0,0,0,0,0,0,-1,678,624,0.846197,1.91752
-539,400,0.3172,-1.2149,0,0,0,0,0,0,0,-1,685,624,0.317224,1.21493
-532,400,0.187195,-0.794006,-0.00189752,-0.00595876,0.0188295,0.0150105,-0.0228668,0.731684,0.0220247,0.044383,692,624,0.18717,0.794026
-525,400,0.297729,-0.0908203,-0.00403513,-0.00422222,0.0165537,0.0124253,-0.0206827,0.782573,0.019312,0.0438012,699,624,0.297706,0.0908266
-518,400,0.887512,-0.299072,0,0,0,0,0,0,0,-1,706,624,0.887486,0.299042
-511,400,0.647522,-0.234863,-0.00587843,-0.00151678,0.0122212,0.00871665,-0.0161119,0.873692,0.0145452,0.0478641,713,624,0.647526,0.234838
-504,400,0.344116,-0.0803833,-0.00559539,-0.000768342,0.00992434,0.00703173,-0.0133955,0.904679,0.0119829,0.0432286,720,624,0.344108,0.0803775
-497,400,-0.0515137,0.0374146,-0.00473999,-0.000363349,0.00776366,0.00551451,-0.0106178,0.922768,0.00946809,0.0287619,727,624,-0.0515387,-0.0374444
-490,400,-0.0415649,0.0533447,-0.00395332,2.80313e-05,0.00546533,0.00385394,-0.00777922,0.960049,0.00684267,0.0145526,734,624,-0.0415875,-0.0533357
-483,400,-0.034668,0.0852661,-0.00310727,0.000249346,0.00406486,0.00296875,-0.00582667,0.981179,0.00516662,0.0142757,741,624,-0.0346901,-0.0852656
-476,400,-0.0134277,0.0912476,-0.00242883,0.000147723,0.00282716,0.00196629,-0.0042474,0.999182,0.00366717,0.0124153,748,624,-0.0134315,-0.0912331
-469,400,-0.0357056,0.0803223,-0.00175606,0.000623775,0.00174185,0.00154335,-0.00267563,1.08506,0.00246489,0.0132864,755,624,-0.0357159,-0.0803261
-462,400,-0.045105,0.0718994,-0.00123165,0.000842449,0.00109002,0.00130993,-0.00169913,1.16565,0.00174212,0.0174716,762,624,-0.0451299,-0.0718716
-455,400,-0.0404053,0.0794678,-0.000957409,0.0013275,0.000472526,0.00142137,-0.00105127,1.37471,0.0014329,0.0170841,769,624,-0.0404221,-0.0794806
-448,400,-0.0309448,0.0724487,0.000117098,0.00126189,3.40016e-06,0.0012619,0.000117088,1.56783,0.000805081,0.0133179,776,624,-0.0309551,-0.0724693
-441,400,-0.0336304,0.0899658,0.0018713,0.0015902,-0.000524598,0.00227385,0.00118765,-0.654511,0.00131324,0.0128456,783,624,-0.0336011,-0.0899647
-434,400,-0.0319824,0.0973511,0.00349009,0.00222445,-0.000444758,0.00363075,0.00208379,-0.30631,0.00210384,0.0104725,790,624,-0.0319664,-0.0973636
-427,400,-0.013855,0.0773926,0.00592514,0.00333602,0.00101534,0.00627582,0.00298534,0.332551,0.00362477,0.00928963,797,624,-0.0138673,-0.0773977
-420,400,-0.0214233,0.0600586,0.00873751,0.00385401,0.00177052,0.00931187,0.00327966,0.313688,0.00545394,0.00875249,804,624,-0.0214298,-0.0600858
-413,400,-0.0204468,0.0744019,0.0112397,0.00379418,0.00217024,0.0118261,0.00320777,0.263901,0.00706197,0.0156741,811,624,-0.0204733,-0.0743882
-406,400,-0.0221558,0.116089,0.0144777,0.00429314,0.00280215,0.0151977,0.00357307,0.251527,0.0091757,0.0284311,818,624,-0.0221742,-0.116069
-399,400,-0.0640869,0.0598755,0.0180862,0.00418988,0.00355191,0.0189414,0.00333465,0.236285,0.0116759,0.0402547,825,624,-0.0641145,-0.0598572
-392,400,-0.118042,0.0211792,0.0208011,0.00465742,0.00422102,0.0218381,0.00362039,0.240912,0.0135146,0.045435,832,624,-0.118055,-0.0211499
-385,400,-0.278137,0.0994263,0.0232725,0.00468002,0.00479735,0.0244374,0.00351516,0.238204,0.0152555,0.0451466,839,624,-0.278113,-0.0994498
-378,400,-0.895203,0.363953,0.024568,0.00350745,0.00398612,0.0252972,0.00277824,0.180935,0.0160192,0.0422675,846,624,-0.89519,-0.36395
-371,400,-1.47284,0.686707,0,0,0,0,0,0,0,-1,853,624,-1.47281,-0.686695
-364,400,0.548889,1.91925,0.0243586,0.000870316,0.000808649,0.0243864,0.000842508,0.0343735,0.0159842,0.0457021,860,624,0.548885,-1.91924
-357,400,0.235352,0.545776,0.0230255,-0.000454546,-0.00207352,0.0232072,-0.000636253,-0.0874084,0.0156878,0.0448515,867,624,0.23538,-0.545751
-350,400,0.888367,0.893738,0.0210883,-0.00229227,-0.0052715,0.0222218,-0.00342585,-0.211814,0.0160786,0.0492707,874,624,0.88838,-0.89375
-343,400,1.58173,1.17578,0,0,0,0,0,0,0,-1,881,624,1.58174,-1.17581
-336,400,0,0,0,0,0,0,0,0,0,-1,888,624,0,0
-329,400,0,0,0,0,0,0,0,0,0,-1,895,624,0,0
-322,400,0,0,0,0,0,0,0,0,0,-1,902,624,0,0
-315,400,0,0,0,0,0,0,0,0,0,-1,909,624,0,0
-308,400,0,0,0,0,0,0,0,0,0,-1,916,624,0,0
-301,400,0,0,0,0,0,0,0,0,0,-1,923,624,0,0
-294,400,0,0,0,0,0,0,0,0,0,-1,930,624,0,0
-287,400,0,0,0,0,0,0,0,0,0,-1,937,624,0,0
-280,400,0,0,0,0,0,0,0,0,0,-1,944,624,0,0
-273,400,0,0,0,0,0,0,0,0,0,-1,951,624,0,0
-266,400,0,0,0,0,0,0,0,0,0,-1,958,624,0,0
-259,400,0,0,0,0,0,0,0,0,0,-1,965,624,0,0
-252,400,0,0,0,0,0,0,0,0,0,-1,972,624,0,0
-245,400,0,0,0,0,0,0,0,0,0,-1,979,624,0,0
-238,400,0,0,0,0,0,0,0,0,0,-1,986,624,0,0
-231,400,0,0,0,0,0,0,0,0,0,-1,993,624,0,0
-224,400,0,0,0,0,0,0,0,0,0,-1,1000,624,0,0
-217,400,0,0,0,0,0,0,0,0,0,-1,1007,624,0,0
-210,400,0,0,0,0,0,0,0,0,0,-1,1014,624,0,0
-203,400,0,0,0,0,0,0,0,0,0,-1,1021,624,0,0
-196,400,0,0,0,0,0,0,0,0,0,-1,1028,624,0,0
-189,400,0,0,0,0,0,0,0,0,0,-1,1035,624,0,0
-182,400,0,0,0,0,0,0,0,0,0,-1,1042,624,0,0
-175,400,0,0,0,0,0,0,0,0,0,-1,1049,624,0,0
-168,400,0,0,0,0,0,0,0,0,0,-1,1056,624,0,0
-161,400,0,0,0,0,0,0,0,0,0,-1,1063,624,0,0
-154,400,0,0,0,0,0,0,0,0,0,-1,1070,624,0,0
-147,400,0,0,0,0,0,0,0,0,0,-1,1077,624,0,0
-140,400,0,0,0,0,0,0,0,0,0,-1,1084,624,0,0
-133,400,0,0,0,0,0,0,0,0,0,-1,1091,624,0,0
-126,400,0,0,0,0,0,0,0,0,0,-1,1098,624,0,0
-119,400,0,0,0,0,0,0,0,0,0,-1,1105,624,0,0
-112,400,0,0,0,0,0,0,0,0,0,-1,1112,624,0,0
-105,400,0,0,0,0,0,0,0,0,0,-1,1119,624,0,0
-98,400,0,0,0,0,0,0,0,0,0,-1,1126,624,0,0
-91,400,0,0,0,0,0,0,0,0,0,-1,1133,624,0,0
-84,400,0,0,0,0,0,0,0,0,0,-1,1140,624,0,0
-77,400,0,0,0,0,0,0,0,0,0,-1,1147,624,0,0
-70,400,0,0,0,0,0,0,0,0,0,-1,1154,624,0,0
-63,400,0,0,0,0,0,0,0,0,0,-1,1161,624,0,0
-56,400,0,0,0,0,0,0,0,0,0,-1,1168,624,0,0
-49,400,0,0,0,0,0,0,0,0,0,-1,1175,624,0,0
-42,400,0,0,0,0,0,0,0,0,0,-1,1182,624,0,0
-35,400,0,0,0,0,0,0,0,0,0,-1,1189,624,0,0
-28,400,0,0,0,0,0,0,0,0,0,-1,1196,624,0,0
-21,400,0,0,0,0,0,0,0,0,0,-1,1203,624,0,0
-14,400,0,0,0,0,0,0,0,0,0,-1,1210,624,0,0
-7,400,0,0,0,0,0,0,0,0,0,-1,1217,624,0,0
0,400,0,0,0,0,0,0,0,0,0,-1,1224,624,0,0
7,400,0,0,0,0,0,0,0,0,0,-1,1231,624,0,0
14,400,0,0,0,0,0,0,0,0,0,-1,1238,624,0,0
21,400,0,0,0,0,0,0,0,0,0,-1,1245,624,0,0
28,400,0,0,0,0,0,0,0,0,0,-1,1252,624,0,0
35,400,0,0,0,0,0,0,0,0,0,-1,1259,624,0,0
42,400,0,0,0,0,0,0,0,0,0,-1,1266,624,0,0
49,400,0,0,0,0,0,0,0,0,0,-1,1273,624,0,0
56,400,0,0,0,0,0,0,0,0,0,-1,1280,624,0,0
63,400,0,0,0,0,0,0,0,0,0,-1,1287,624,0,0
70,400,0,0,0,0,0,0,0,0,0,-1,1294,624,0,0
77,400,0,0,0,0,0,0,0,0,0,-1,1301,624,0,0
84,400,0,0,0,0,0,0,0,0,0,-1,1308,624,0,0
91,400,0,0,0,0,0,0,0,0,0,-1,1315,624,0,0
98,400,0,0,0,0,0,0,0,0,0,-1,1322,624,0,0
105,400,0,0,0,0,0,0,0,0,0,-1,1329,624,0,0
112,400,0,0,0,0,0,0,0,0,0,-1,1336,624,0,0
119,400,0,0,0,0,0,0,0,0,0,-1,1343,624,0,0
126,400,0,0,0,0,0,0,0,0,0,-1,1350,624,0,0
133,400,0,0,0,0,0,0,0,0,0,-1,1357,624,0,0
140,400,0,0,0,0,0,0,0,0,0,-1,1364,624,0,0
147,400,0,0,0,0,0,0,0,0,0,-1,1371,624,0,0
154,400,0,0,0,0,0,0,0,0,0,-1,1378,624,0,0
161,400,0,0,0,0,0,0,0,0,0,-1,1385,624,0,0
168,400,0,0,0,0,0,0,0,0,0,-1,1392,624,0,0
175,400,0,0,0,0,0,0,0,0,0,-1,1399,624,0,0
182,400,0,0,0,0,0,0,0,0,0,-1,1406,624,0,0
189,400,0,0,0,0,0,0,0,0,0,-1,1413,624,0,0
196,400,0,0,0,0,0,0,0,0,0,-1,1420,624,0,0
203,400,0,0,0,0,0,0,0,0,0,-1,1427,624,0,0
210,400,0,0,0,0,0,0,0,0,0,-1,1434,624,0,0
217,400,0,0,0,0,0,0,0,0,0,-1,1441,624,0,0
224,400,0,0,0,0,0,0,0,0,0,-1,1448,624,0,0
231,400,0,0,0,0,0,0,0,0,0,-1,1455,624,0,0
238,400,0,0,0,0,0,0,0,0,0,-1,1462,624,0,0
245,400,0,0,0,0,0,0,0,0,0,-1,1469,624,0,0
252,400,0,0,0,0,0,0,0,0,0,-1,1476,624,0,0
259,400,0,0,0,0,0,0,0,0,0,-1,1483,624,0,0
266,400,0,0,0,0,0,0,0,0,0,-1,1490,624,0,0
273,400,0,0,0,0,0,0,0,0,0,-1,1497,624,0,0
280,400,0,0,0,0,0,0,0,0,0,-1,1504,624,0,0
287,400,0,0,0,0,0,0,0,0,0,-1,1511,624,0,0
294,400,0,0,0,0,0,0,0,0,0,-1,1518,624,0,0
301,400,0,0,0,0,0,0,0,0,0,-1,1525,624,0,0
308,400,0,0,0,0,0,0,0,0,0,-1,1532,624,0,0
315,400,0,0,0,0,0,0,0,0,0,-1,1539,624,0,0
322,400,0,0,0,0,0,0,0,0,0,-1,1546,624,0,0
329,400,0,0,0,0,0,0,0,0,0,-1,1553,624,0,0
336,400,0,0,0,0,0,0,0,0,0,-1,1560,624,0,0
343,400,0,0,0,0,0,0,0,0,0,-1,1567,624,0,0
350,400,0,0,0,0,0,0,0,0,0,-1,1574,624,0,0
357,400,0,0,0,0,0,0,0,0,0,-1,1581,624,0,0
364,400,0,0,0,0,0,0,0,0,0,-1,1588,624,0,0
371,400,0,0,0,0,0,0,0,0,0,-1,1595,624,0,0
378,400,0,0,0,0,0,0,0,0,0,-1,1602,624,0,0
385,400,0,0,0,0,0,0,0,0,0,-1,1609,624,0,0
392,400,0,0,0,0,0,0,0,0,0,-1,1616,624,0,0
399,400,0,0,0,0,0,0,0,0,0,-1,1623,624,0,0
406,400,0,0,0,0,0,0,0,0,0,-1,1630,624,0,0
413,400,0,0,0,0,0,0,0,0,0,-1,1637,624,0,0
420,400,0,0,0,0,0,0,0,0,0,-1,1644,624,0,0
427,400,0,0,0,0,0,0,0,0,0,-1,1651,624,0,0
434,400,0,0,0,0,0,0,0,0,0,-1,1658,624,0,0
441,400,0,0,0,0,0,0,0,0,0,-1,1665,624,0,0
448,400,0,0,0,0,0,0,0,0,0,-1,1672,624,0,0
455,400,0.291504,-0.331421,0.00205605,0.0074601,-0.0129576,0.0179944,-0.00847823,-0.888189,0.0156097,0.0424035,1679,624,0.291468,0.331412
462,400,0.121216,-0.697021,0.00204409,0.0087573,-0.0104591,0.0163852,-0.00558381,-0.94067,0.0131849,0.0435179,1686,624,0.121236,0.696999
469,400,-0.13855,-0.43512,0.00210793,0.00940068,-0.00875368,0.0152371,-0.00372847,-0.982745,0.0116023,0.0442506,1693,624,-0.138582,0.435119
476,400,0.0334473,-0.598083,0.0023632,0.0101921,-0.00751006,0.0147466,-0.00219136,-1.02564,0.010637,0.0443704,1700,624,0.0334778,0.598095
483,400,0.6073,-0.962769,0,0,0,0,0,0,0,-1,1707,624,0.607295,0.962747
490,400,-0.37146,-0.77124,0.00168617,0.0118847,-0.00583681,0.014536,-0.000965099,-1.14443,0.0100279,0.0413384,1714,624,-0.371497,0.771212
497,400,-0.998291,-0.840332,0.00182131,0.0123278,-0.00525728,0.0145066,-0.000357505,-1.1779,0.00979241,0.0449831,1721,624,-0.998235,0.840302
504,400,-1.40088,-0.919739,0.00163429,0.0125016,-0.00474338,0.0142807,-0.000144839,-1.21196,0.00956914,0.044447,1728,624,-1.40089,0.919746
511,400,-1.46069,-0.437012,0.00173281,0.0121677,-0.00412642,0.0136022,0.000298255,-1.23622,0.0089704,0.044668,1735,624,-1.4607,0.436995
518,400,0.17981,-0.0640259,0.00169808,0.0108196,-0.00387866,0.0122458,0.000271802,-1.21842,0.00807481,0.0463718,1742,624,0.179765,0.064026
525,400,0.0881348,-0.176086,0.00126619,0.00978344,-0.00359433,0.0110975,-4.78919e-05,-1.22029,0.00741437,0.0445339,1749,624,0.0881253,0.176113
532,400,-0.00891113,-0.145996,0.000357651,0.0086855,-0.0030664,0.00969275,-0.000649604,-1.25342,0.00668889,0.0381625,1756,624,-0.00889099,0.145969
539,400,-0.0289307,0.0942383,0.000405565,0.00767092,-0.00279603,0.00862236,-0.000545874,-1.2428,0.00593856,0.0214784,1763,624,-0.0288906,-0.0942518
546,400,-0.0471191,0.085144,0.00125271,0.00608247,-0.00270136,0.00729099,4.41999e-05,-1.15013,0.00484599,0.0116295,1770,624,-0.0471113,-0.0851351
553,400,-0.0478516,0.0767822,0.0014196,0.00474212,-0.00248899,0.00607333,8.83935e-05,-1.07967,0.00401974,0.0111883,1777,624,-0.047904,-0.0767543
560,400,-0.0505371,0.0872803,0.000978223,0.00387067,-0.0016159,0.00459302,0.000255878,-1.15042,0.00298038,0.0122585,1784,624,-0.0505424,-0.0873007
567,400,-0.0383301,0.0859985,0.000456744,0.00227814,-0.00156521,0.00317832,-0.000443427,-1.04888,0.0022811,0.0156697,1791,624,-0.0383233,-0.0860171
574,400,-0.0310059,0.0864868,0.000103061,0.00143264,-0.000834313,0.00183463,-0.000298931,-1.12179,0.00133394,0.0168735,1798,624,-0.031004,-0.0864578
581,400,-0.0366211,0.0917358,0.000258692,0.000449965,-0.00042534,0.000790288,-8.16307e-05,-0.895982,0.00055607,0.0138174,1805,624,-0.0366272,-0.091725
588,400,-0.0424805,0.0730591,0.000776807,-0.000258955,-0.000235918,0.000828011,-0.000310159,-0.213728,0.000679417,0.00887106,1812,624,-0.0425308,-0.0730772
595,400,-0.0332031,0.0679932,0.00126472,-0.000902399,-0.000208938,0.00128468,-0.000922359,-0.0952437,0.00127994,0.00826381,1819,624,-0.0331927,-0.0679964
602,400,-0.0332031,0.0720825,0.00153016,-0.00139147,-0.000322437,0.00156533,-0.00142664,-0.10862,0.00172803,0.0100216,1826,624,-0.0331804,-0.0720527
609,400,-0.0639648,0.0911865,0.00221632,-0.00175537,-0.000569383,0.00229634,-0.00183538,-0.139615,0.00239039,0.0120999,1833,624,-0.0640232,-0.0912001
616,400,-0.0738525,0.112427,0.00315695,-0.0023711,-0.00107334,0.00335804,-0.00257219,-0.185201,0.00343382,0.0153797,1840,624,-0.0738807,-0.112419
623,400,-0.0419922,0.104736,0.00422705,-0.00304404,-0.00143673,0.00450065,-0.00331764,-0.188176,0.00453108,0.0204952,1847,624,-0.042022,-0.104712
630,400,-0.0828857,0.081665,0.00524438,-0.00378318,-0.00176526,0.00557728,-0.00411608,-0.186398,0.00561762,0.025396,1854,624,-0.0828743,-0.0816504
637,400,-0.332153,0.0820313,0.00618342,-0.00445065,-0.00204021,0.00656141,-0.00482864,-0.183193,0.00660136,0.0412971,1861,624,-0.332209,-0.0820105
644,400,-0.405518,0.00408936,0.00706363,-0.00517146,-0.00255481,0.00757567,-0.0056835,-0.197801,0.00768113,0.0436875,1868,624,-0.405525,-0.004093
651,400,-0.228882,-0.0459595,0.00754617,-0.00580727,-0.00303489,0.00820356,-0.00646466,-0.213315,0.00848851,0.0409078,1875,624,-0.228904,0.0459882
658,400,0.0395508,-0.283997,0.00719934,-0.00637789,-0.0033778,0.00799326,-0.00717181,-0.23085,0.00875984,0.0394176,1882,624,0.0395649,0.284024
665,400,0.00231934,-0.502502,0.00535102,-0.00681784,-0.00330242,0.00618947,-0.00765629,-0.248636,0.00800879,0.0422652,1889,624,0.00228003,0.502472
672,400,0,0,0,0,0,0,0,0,0,-1,1896,624,0,0
679,400,0,0,0,0,0,0,0,0,0,-1,1903,624,0,0
686,400,0,0,0,0,0,0,0,0,0,-1,1910,624,0,0
693,400,0,0,0,0,0,0,0,0,0,-1,1917,624,0,0
700,400,0,0,0,0,0,0,0,0,0,-1,1924,624,0,0
707,400,0,0,0,0,0,0,0,0,0,-1,1931,624,0,0
714,400,0,0,0,0,0,0,0,0,0,-1,1938,624,0,0
721,400,0,0,0,0,0,0,0,0,0,-1,1945,624,0,0
728,400,0,0,0,0,0,0,0,0,0,-1,1952,624,0,0
735,400,0,0,0,0,0,0,0,0,0,-1,1959,624,0,0
742,400,0,0,0,0,0,0,0,0,0,-1,1966,624,0,0
749,400,0,0,0,0,0,0,0,0,0,-1,1973,624,0,0
756,400,0,0,0,0,0,0,0,0,0,-1,1980,624,0,0
763,400,0,0,0,0,0,0,0,0,0,-1,1987,624,0,0
770,400,0,0,0,0,0,0,0,0,0,-1,1994,624,0,0
777,400,0,0,0,0,0,0,0,0,0,-1,2001,624,0,0
784,400,0,0,0,0,0,0,0,0,0,-1,2008,624,0,0
791,400,0,0,0,0,0,0,0,0,0,-1,2015,624,0,0
798,400,0,0,0,0,0,0,0,0,0,-1,2022,624,0,0
805,400,0,0,0,0,0,0,0,0,0,-1,2029,624,0,0
812,400,0,0,0,0,0,0,0,0,0,-1,2036,624,0,0
-700,393,0,0,0,0,0,0,0,0,0,-1,524,631,0,0
-693,393,0,0,0,0,0,0,0,0,0,-1,531,631,0,0
-686,393,0,0,0,0,0,0,0,0,0,-1,538,631,0,0
-679,393,0,0,0,0,0,0,0,0,0,-1,545,631,0,0
-672,393,0,0,0,0,0,0,0,0,0,-1,552,631,0,0
-665,393,0,0,0,0,0,0,0,0,0,-1,559,631,0,0
-658,393,0,0,0,0,0,0,0,0,0,-1,566,631,0,0
-651,393,0,0,0,0,0,0,0,0,0,-1,573,631,0,0
-644,393,0,0,0,0,0,0,0,0,0,-1,580,631,0,0
-637,393,0,0,0,0,0,0,0,0,0,-1,587,631,0,0
-630,393,0,0,0,0,0,0,0,0,0,-1,594,631,0,0
-623,393,0,0,0,0,0,0,0,0,0,-1,601,631,0,0
-616,393,0,0,0,0,0,0,0,0,0,-1,608,631,0,0
-609,393,0,0,0,0,0,0,0,0,0,-1,615,631,0,0
-602,393,0,0,0,0,0,0,0,0,0,-1,622,631,0,0
-595,393,0,0,0,0,0,0,0,0,0,-1,629,631,0,0
-588,393,0,0,0,0,0,0,0,0,0,-1,636,631,0,0
-581,393,0,0,0,0,0,0,0,0,0,-1,643,631,0,0
-574,393,0,0,0,0,0,0,0,0,0,-1,650,631,0,0
-567,393,0,0,0,0,0,0,0,0,0,-1,657,631,0,0
-560,393,0,0,0,0,0,0,0,0,0,-1,664,631,0,0
-553,393,0.516907,-2.31732,0,0,0,0,0,0,0,-1,671,631,0.51692,2.31734
-546,393,0.46405,-1.67163,0.00495471,-0.0107372,0.016598,0.0154678,-0.0212503,0.564611,0.0212866,0.0447452,678,631,0.464076,1.67163
-539,393,0.440186,-1.09595,0,0,0,0,0,0,0,-1,685,631,0.440202,1.09592
-532,393,0.310852,-0.617859,-0.0015296,-0.00598609,0.0146595,0.0110701,-0.0185858,0.709976,0.0173041,0.0401312,692,631,0.310876,0.617885
-525,393,0.193665,-0.435852,-0.0034828,-0.00455133,0.0130835,0.00907731,-0.0171114,0.764992,0.0153554,0.0452726,699,631,0.193641,0.435872
-518,393,0.279114,0.320862,-0.00469117,-0.00356536,0.0113929,0.00727854,-0.0155351,0.810082,0.0134559,0.0437571,706,631,0.279127,-0.320887
-511,393,0.0525513,0.24231,-0.00534053,-0.00232722,0.00987591,0.0061563,-0.0138241,0.861094,0.0118154,0.0427225,713,631,0.0525798,-0.24228
-504,393,-0.116272,0.05896,-0.00519031,-0.00175221,0.00801767,0.00472863,-0.0116711,0.891003,0.00974712,0.0334717,720,631,-0.116277,-0.0589775
-497,393,-0.0388794,0.0665894,-0.004493,-0.00127941,0.00622905,0.00354674,-0.00931916,0.911623,0.00767329,0.0171556,727,631,-0.0388938,-0.0666143
-490,393,-0.0267334,0.0639648,-0.00387552,-0.000790762,0.00429006,0.00222576,-0.00689203,0.957965,0.00548915,0.0128913,734,631,-0.0267225,-0.0639773
-483,393,0.00421143,0.0566406,-0.00320812,-0.000432705,0.00312736,0.001601,-0.00524183,0.994213,0.00413291,0.0175631,741,631,0.00419068,-0.0566131
-476,393,0.00714111,0.0836182,-0.00263074,-0.000355962,0.00207281,0.000871012,-0.00385771,1.03633,0.00290599,0.014455,748,631,0.00716496,-0.0836064
-469,393,-0.0328369,0.0847168,-0.00202786,0.000214897,0.0011069,0.000669187,-0.00248215,1.18134,0.00191716,0.0113905,755,631,-0.0328358,-0.0847421
-462,393,-0.0342407,0.0701294,-0.0015398,0.000466469,0.000561131,0.000612746,-0.00168608,1.31579,0.00137461,0.014156,762,631,-0.0342603,-0.0701118
-455,393,-0.0292358,0.0703125,-0.00130334,0.00103927,1.74758e-05,0.0010394,-0.00130347,1.56334,0.00135551,0.0129535,769,631,-0.0292654,-0.070301
-448,393,-0.0408325,0.06073,-2.789e-05,0.00102188,-0.00042561,0.00117275,-0.000178763,-1.23013,0.000847726,0.0120781,776,631,-0.0408484,-0.0607183
-441,393,-0.0441284,0.0723267,0.0022245,0.00136863,-0.00103421,0.00291582,0.000677312,-0.589234,0.00176205,0.0110566,783,631,-0.044112,-0.0723242
-434,393,-0.036377,0.0981445,0.00439567,0.00206276,-0.000983111,0.00475471,0.00170372,-0.350155,0.00278162,0.0103097,790,631,-0.0363721,-0.0981497
-427,393,-0.02948,0.09552,0.00751649,0.00328994,0.000523249,0.0075803,0.00322613,0.12136,0.00439261,0.0118168,797,631,-0.0294864,-0.0955391
-420,393,-0.0239258,0.0740967,0.0112834,0.00390663,0.00128549,0.011501,0.00368904,0.16768,0.00678083,0.0145551,804,631,-0.0239421,-0.0740683
-413,393,-0.0664673,0.104004,0.0148126,0.00400436,0.00174722,0.0150881,0.00372893,0.156352,0.0090748,0.0285856,811,631,-0.0664431,-0.104002
-406,393,-0.160828,0.186218,0.0192791,0.00470681,0.00247981,0.0196896,0.00429637,0.164024,0.0119544,0.0375296,818,631,-0.160812,-0.186221
-399,393,-0.23584,0.105286,0.0242133,0.00482006,0.0033547,0.0247772,0.00425615,0.166538,0.0152981,0.0394243,825,631,-0.235857,-0.105256
-392,393,-0.060791,0.0504761,0.0282903,0.00563282,0.00419083,0.0290407,0.00488251,0.177158,0.0179556,0.0402831,832,631,-0.0608148,-0.0504635
-385,393,-0.642883,-0.137024,0,0,0,0,0,0,0,-1,839,631,-0.642885,0.136994
-378,393,-1.41718,-0.238098,0,0,0,0,0,0,0,-1,846,631,-1.41717,0.238091
-371,393,-0.355408,-1.90363,0,0,0,0,0,0,0,-1,853,631,-0.355394,1.90364
-364,393,0.567017,2.38965,0,0,0,0,0,0,0,-1,860,631,0.567027,-2.38962
-357,393,0.0657959,0.286987,0,0,0,0,0,0,0,-1,867,631,0.0657937,-0.286989
-350,393,0.480896,0.771545,0,0,0,0,0,0,0,-1,874,631,0.480908,-0.771521
-343,393,0,0,0,0,0,0,0,0,0,-1,881,631,0,0
-336,393,0,0,0,0,0,0,0,0,0,-1,888,631,0,0
-329,393,0,0,0,0,0,0,0,0,0,-1,895,631,0,0
-322,393,0,0,0,0,0,0,0,0,0,-1,902,631,0,0
-315,393,0,0,0,0,0,0,0,0,0,-1,909,631,0,0
-308,393,0,0,0,0,0,0,0,0,0,-1,916,631,0,0
-301,393,0,0,0,0,0,0,0,0,0,-1,923,631,0,0
-294,393,0,0,0,0,0,0,0,0,0,-1,930,631,0,0
-287,393,0,0,0,0,0,0,0,0,0,-1,937,631,0,0
-280,393,0,0,0,0,0,0,0,0,0,-1,944,631,0,0
-273,393,0,0,0,0,0,0,0,0,0,-1,951,631,0,0
-266,393,0,0,0,0,0,0,0,0,0,-1,958,631,0,0
-259,393,0,0,0,0,0,0,0,0,0,-1,965,631,0,0
-252,393,0,0,0,0,0,0,0,0,0,-1,972,631,0,0
-245,393,0,0,0,0,0,0,0,0,0,-1,979,631,0,0
-238,393,0,0,0,0,0,0,0,0,0,-1,986,631,0,0
-231,393,0,0,0,0,0,0,0,0,0,-1,993,631,0,0
-224,393,0,0,0,0,0,0,0,0,0,-1,1000,631,0,0
-217,393,0,0,0,0,0,0,0,0,0,-1,1007,631,0,0
-210,393,0,0,0,0,0,0,0,0,0,-1,1014,631,0,0
-203,393,0,0,0,0,0,0,0,0,0,-1,1021,631,0,0
-196,393,0,0,0,0,0,0,0,0,0,-1,1028,631,0,0
-189,393,0,0,0,0,0,0,0,0,0,-1,1035,631,0,0
-182,393,0,0,0,0,0,0,0,0,0,-1,1042,631,0,0
-175,393,0,0,0,0,0,0,0,0,0,-1,1049,631,0,0
-168,393,0,0,0,0,0,0,0,0,0,-1,1056,631,0,0
-161,393,0,0,0,0,0,0,0,0,0,-1,1063,631,0,0
-154,393,0,0,0,0,0,0,0,0,0,-1,1070,631,0,0
-147,393,0,0,0,0,0,0,0,0,0,-1,1077,631,0,0
-140,393,0,0,0,0,0,0,0,0,0,-1,1084,631,0,0
-133,393,0,0,0,0,0,0,0,0,0,-1,1091,631,0,0
-126,393,0,0,0,0,0,0,0,0,0,-1,1098,631,0,0
-119,393,0,0,0,0,0,0,0,0,0,-1,1105,631,0,0
-112,393,0,0,0,0,0,0,0,0,0,-1,1112,631,0,0
-105,393,0,0,0,0,0,0,0,0,0,-1,1119,631,0,0
-98,393,0,0,0,0,0,0,0,0,0,-1,1126,631,0,0
-91,393,0,0,0,0,0,0,0,0,0,-1,1133,631,0,0
-84,393,0,0,0,0,0,0,0,0,0,-1,1140,631,0,0
-77,393,0,0,0,0,0,0,0,0,0,-1,1147,631,0,0
-70,393,0,0,0,0,0,0,0,0,0,-1,1154,631,0,0
-63,393,0,0,0,0,0,0,0,0,0,-1,1161,631,0,0
-56,393,0,0,0,0,0,0,0,0,0,-1,1168,631,0,0
-49,393,0,0,0,0,0,0,0,0,0,-1,1175,631,0,0
-42,393,0,0,0,0,0,0,0,0,0,-1,1182,631,0,0
-35,393,0,0,0,0,0,0,0,0,0,-1,1189,631,0,0
-28,393,0,0,0,0,0,0,0,0,0,-1,1196,631,0,0
-21,393,0,0,0,0,0,0,0,0,0,-1,1203,631,0,0
-14,393,0,0,0,0,0,0,0,0,0,-1,1210,631,0,0
-7,393,0,0,0,0,0,0,0,0,0,-1,1217,631,0,0
0,393,0,0,0,0,0,0,0,0,0,-1,1224,631,0,0
7,393,0,0,0,0,0,0,0,0,0,-1,1231,631,0,0
14,393,0,0,0,0,0,0,0,0,0,-1,1238,631,0,0
21,393,0,0,0,0,0,0,0,0,0,-1,1245,631,0,0
28,393,0,0,0,0,0,0,0,0,0,-1,1252,631,0,0
35,393,0,0,0,0,0,0,0,0,0,-1,1259,631,0,0
42,393,0,0,0,0,0,0,0,0,0,-1,1266,631,0,0
49,393,0,0,0,0,0,0,0,0,0,-1,1273,631,0,0
56,393,0,0,0,0,0,0,0,0,0,-1,1280,631,0,0
63,393,0,0,0,0,0,0,0,0,0,-1,1287,631,0,0
70,393,0,0,0,0,0,0,0,0,0,-1,1294,631,0,0
77,393,0,0,0,0,0,0,0,0,0,-1,1301,631,0,0
84,393,0,0,0,0,0,0,0,0,0,-1,1308,631,0,0
91,393,0,0,0,0,0,0,0,0,0,-1,1315,631,0,0
98,393,0,0,0,0,0,0,0,0,0,-1,1322,631,0,0
105,393,0,0,0,0,0,0,0,0,0,-1,1329,631,0,0
112,393,0,0,0,0,0,0,0,0,0,-1,1336,631,0,0
119,393,0,0,0,0,0,0,0,0,0,-1,1343,631,0,0
126,393,0,0,0,0,0,0,0,0,0,-1,1350,631,0,0
133,393,0,0,0,0,0,0,0,0,0,-1,1357,631,0,0
140,393,0,0,0,0,0,0,0,0,0,-1,1364,631,0,0
147,393,0,0,0,0,0,0,0,0,0,-1,1371,631,0,0
154,393,0,0,0,0,0,0,0,0,0,-1,1378,631,0,0
161,393,0,0,0,0,0,0,0,0,0,-1,1385,631,0,0
168,393,0,0,0,0,0,0,0,0,0,-1,1392,631,0,0
175,393,0,0,0,0,0,0,0,0,0,-1,1399,631,0,0
182,393,0,0,0,0,0,0,0,0,0,-1,1406,631,0,0
189,393,0,0,0,0,0,0,0,0,0,-1,1413,631,0,0
196,393,0,0,0,0,0,0,0,0,0,-1,1420,631,0,0
203,393,0,0,0,0,0,0,0,0,0,-1,1427,631,0,0
210,393,0,0,0,0,0,0,0,0,0,-1,1434,631,0,0
217,393,0,0,0,0,0,0,0,0,0,-1,1441,631,0,0
224,393,0,0,0,0,0,0,0,0,0,-1,1448,631,0,0
231,393,0,0,0,0,0,0,0,0,0,-1,1455,631,0,0
238,393,0,0,0,0,0,0,0,0,0,-1,1462,631,0,0
245,393,0,0,0,0,0,0,0,0,0,-1,1469,631,0,0
252,393,0,0,0,0,0,0,0,0,0,-1,1476,631,0,0
259,393,0,0,0,0,0,0,0,0,0,-1,1483,631,0,0
266,393,0,0,0,0,0,0,0,0,0,-1,1490,631,0,0
273,393,0,0,0,0,0,0,0,0,0,-1,1497,631,0,0
280,393,0,0,0,0,0,0,0,0,0,-1,1504,631,0,0
287,393,0,0,0,0,0,0,0,0,0,-1,1511,631,0,0
294,393,0,0,0,0,0,0,0,0,0,-1,1518,631,0,0
301,393,0,0,0,0,0,0,0,0,0,-1,1525,631,0,0
308,393,0,0,0,0,0,0,0,0,0,-1,1532,631,0,0
315,393,0,0,0,0,0,0,0,0,0,-1,1539,631,0,0
322,393,0,0,0,0,0,0,0,0,0,-1,1546,631,0,0
329,393,0,0,0,0,0,0,0,0,0,-1,1553,631,0,0
336,393,0,0,0,0,0,0,0,0,0,-1,1560,631,0,0
343,393,0,0,0,0,0,0,0,0,0,-1,1567,631,0,0
350,393,0,0,0,0,0,0,0,0,0,-1,1574,631,0,0
357,393,0,0,0,0,0,0,0,0,0,-1,1581,631,0,0
364,393,0,0,0,0,0,0,0,0,0,-1,1588,631,0,0
371,393,0,0,0,0,0,0,0,0,0,-1,1595,631,0,0
378,393,0,0,0,0,0,0,0,0,0,-1,1602,631,0,0
385,393,0,0,0,0,0,0,0,0,0,-1,1609,631,0,0
392,393,0,0,0,0,0,0,0,0,0,-1,1616,631,0,0
399,393,0,0,0,0,0,0,0,0,0,-1,1623,631,0,0
406,393,0,0,0,0,0,0,0,0,0,-1,1630,631,0,0
413,393,0,0,0,0,0,0,0,0,0,-1,1637,631,0,0
420,393,0,0,0,0,0,0,0,0,0,-1,1644,631,0,0
427,393,0,0,0,0,0,0,0,0,0,-1,1651,631,0,0
434,393,0,0,0,0,0,0,0,0,0,-1,1658,631,0,0
441,393,0,0,0,0,0,0,0,0,0,-1,1665,631,0,0
448,393,0,0,0,0,0,0,0,0,0,-1,1672,631,0,0
455,393,0,0,0,0,0,0,0,0,0,-1,1679,631,0,0
462,393,0.289551,-0.043396,0,0,0,0,0,0,0,-1,1686,631,0.289556,0.0434227
469,393,0.132446,-0.737976,0,0,0,0,0,0,0,-1,1693,631,0.132493,0.737985
476,393,0.111938,-0.463074,0.00490761,0.010562,-0.00977171,0.0179073,-0.00243768,-0.926215,0.0128282,0.0448826,1700,631,0.111996,0.463062
483,393,0.843506,-0.907288,0.00434351,0.0119845,-0.00892078,0.0178684,-0.00154047,-0.987716,0.0124576,0.0438398,1707,631,0.843471,0.907301
490,393,-0.261963,-0.744629,0.00338739,0.0129729,-0.00805696,0.0175548,-0.00119457,-1.05371,0.012121,0.0464319,1714,631,-0.261924,0.744604
497,393,-1.05396,-1.3175,0,0,0,0,0,0,0,-1,1721,631,-1.05392,1.31751
504,393,-0.951416,-0.841003,0,0,0,0,0,0,0,-1,1728,631,-0.95146,0.840979
511,393,-0.884033,-1.07916,0,0,0,0,0,0,0,-1,1735,631,-0.884038,1.07917
518,393,0.171631,-0.210388,0,0,0,0,0,0,0,-1,1742,631,0.171579,0.210377
525,393,0.161987,-0.387878,0,0,0,0,0,0,0,-1,1749,631,0.162047,0.3879
532,393,0.00805664,0.0877075,1.81119e-05,0.0105249,-0.004694,0.0123165,-0.00177348,-1.20618,0.00886148,0.0411014,1756,631,0.00803576,-0.0876899
539,393,-0.0423584,0.188416,-2.03958e-05,0.00937115,-0.00417747,0.0109604,-0.00160965,-1.20727,0.00789835,0.0359522,1763,631,-0.0423276,-0.188442
546,393,-0.0441895,0.112732,0.000725446,0.00760069,-0.00384528,0.00932091,-0.000994781,-1.15014,0.00657069,0.0227266,1770,631,-0.0441913,-0.112708
553,393,-0.0415039,0.0643921,0.000817752,0.00606403,-0.00336714,0.00770921,-0.000827424,-1.11631,0.00543631,0.0131889,1777,631,-0.0414545,-0.0644195
560,393,-0.0412598,0.0834961,0.000448779,0.00486334,-0.00220063,0.00577293,-0.00046081,-1.17885,0.00401106,0.0117559,1784,631,-0.0412828,-0.0835217
567,393,-0.0430908,0.0875244,0.000108239,0.00295624,-0.00195728,0.00395273,-0.000888242,-1.09988,0.00297575,0.0120866,1791,631,-0.0431221,-0.0875465
574,393,-0.0366211,0.0871582,-5.99335e-05,0.00188162,-0.00102914,0.0023256,-0.000503912,-1.16351,0.00174283,0.0129236,1798,631,-0.0366543,-0.0871777
581,393,-0.0299072,0.0924072,0.000190833,0.000735811,-0.000451068,0.000990306,-6.36623e-05,-1.05711,0.000682415,0.0119996,1805,631,-0.0298573,-0.0923891
588,393,-0.0314941,0.0853882,0.000782811,-0.00010026,-0.000158019,0.000810236,-0.000127685,-0.171841,0.000587363,0.0110737,1812,631,-0.0314861,-0.0853908
595,393,-0.0305176,0.0714722,0.00136198,-0.000737259,-0.00012306,0.00136917,-0.000744449,-0.0583546,0.00123794,0.00939064,1819,631,-0.0305708,-0.0714745
602,393,-0.0299072,0.0718994,0.00165023,-0.00117906,-0.000205389,0.00166506,-0.0011939,-0.0720903,0.00165807,0.0121047,1826,631,-0.0299283,-0.0718997
609,393,-0.0515137,0.0945435,0.00231111,-0.00147978,-0.000427647,0.00235876,-0.00152743,-0.110951,0.00226074,0.0141317,1833,631,-0.0515622,-0.094553
616,393,-0.0759277,0.119629,0.00323753,-0.00195282,-0.000930313,0.00339924,-0.00211453,-0.172104,0.00321205,0.0147229,1840,631,-0.0759003,-0.119622
623,393,-0.0556641,0.110596,0.00422795,-0.00249023,-0.00124282,0.00445049,-0.00271277,-0.177184,0.00417608,0.0163064,1847,631,-0.0557025,-0.110582
630,393,-0.0705566,0.067627,0.00516317,-0.00309203,-0.00148716,0.00542291,-0.00335176,-0.172909,0.00511288,0.0188284,1854,631,-0.0705403,-0.0676263
637,393,-0.163818,0.038147,0.00606514,-0.00364543,-0.00164731,0.00633698,-0.00391728,-0.163547,0.00597499,0.0289326,1861,631,-0.163867,-0.0381429
644,393,-0.212769,0.0748901,0.0069571,-0.00435143,-0.00206406,0.00732206,-0.00471639,-0.175007,0.00700446,0.0378772,1868,631,-0.212751,-0.0748804
651,393,-0.0760498,0.0500488,0.00753392,-0.00503332,-0.00240718,0.00797922,-0.00547862,-0.182922,0.00781447,0.0400556,1875,631,-0.0760601,-0.0500342
658,393,0.22644,-0.549255,0.00741816,-0.00575245,-0.002579,0.00790516,-0.00623945,-0.186635,0.00818525,0.0422915,1882,631,0.226487,0.549244
665,393,0.592041,0.322815,0.00606754,-0.00650349,-0.00234627,0.00649118,-0.00692713,-0.178632,0.00774842,0.0441723,1889,631,0.592019,-0.322809
672,393,0.432495,0.407227,0,0,0,0,0,0,0,-1,1896,631,0.432439,-0.407228
679,393,0,0,0,0,0,0,0,0,0,-1,1903,631,0,0
686,393,0,0,0,0,0,0,0,0,0,-1,1910,631,0,0
693,393,0,0,0,0,0,0,0,0,0,-1,1917,631,0,0
700,393,0,0,0,0,0,0,0,0,0,-1,1924,631,0,0
707,393,0,0,0,0,0,0,0,0,0,-1,1931,631,0,0
714,393,0,0,0,0,0,0,0,0,0,-1,1938,631,0,0
721,393,0,0,0,0,0,0,0,0,0,-1,1945,631,0,0
728,393,0,0,0,0,0,0,0,0,0,-1,1952,631,0,0
735,393,0,0,0,0,0,0,0,0,0,-1,1959,631,0,0
742,393,0,0,0,0,0,0,0,0,0,-1,1966,631,0,0
749,393,0,0,0,0,0,0,0,0,0,-1,1973,631,0,0
756,393,0,0,0,0,0,0,0,0,0,-1,1980,631,0,0
763,393,0,0,0,0,0,0,0,0,0,-1,1987,631,0,0
770,393,0,0,0,0,0,0,0,0,0,-1,1994,631,0,0
777,393,0,0,0,0,0,0,0,0,0,-1,2001,631,0,0
784,393,0,0,0,0,0,0,0,0,0,-1,2008,631,0,0
791,393,0,0,0,0,0,0,0,0,0,-1,2015,631,0,0
798,393,0,0,0,0,0,0,0,0,0,-1,2022,631,0,0
805,393,0,0,0,0,0,0,0,0,0,-1,2029,631,0,0
812,393,0,0,0,0,0,0,0,0,0,-1,2036,631,0,0
-700,386,0,0,0,0,0,0,0,0,0,-1,524,638,0,0
-693,386,0,0,0,0,0,0,0,0,0,-1,531,638,0,0
-686,386,0,0,0,0,0,0,0,0,0,-1,538,638,0,0
-679,386,0,0,0,0,0,0,0,0,0,-1,545,638,0,0
-672,386,0,0,0,0,0,0,0,0,0,-1,552,638,0,0
-665,386,0,0,0,0,0,0,0,0,0,-1,559,638,0,0
-658,386,0,0,0,0,0,0,0,0,0,-1,566,638,0,0
-651,386,0,0,0,0,0,0,0,0,0,-1,573,638,0,0
-644,386,0,0,0,0,0,0,0,0,0,-1,580,638,0,0
-637,386,0,0,0,0,0,0,0,0,0,-1,587,638,0,0
-630,386,0,0,0,0,0,0,0,0,0,-1,594,638,0,0
-623,386,0,0,0,0,0,0,0,0,0,-1,601,638,0,0
-616,386,0,0,0,0,0,0,0,0,0,-1,608,638,0,0
-609,386,0,0,0,0,0,0,0,0,0,-1,615,638,0,0
-602,386,0,0,0,0,0,0,0,0,0,-1,622,638,0,0
-595,386,0,0,0,0,0,0,0,0,0,-1,629,638,0,0
-588,386,0,0,0,0,0,0,0,0,0,-1,636,638,0,0
-581,386,0,0,0,0,0,0,0,0,0,-1,643,638,0,0
-574,386,0,0,0,0,0,0,0,0,0,-1,650,638,0,0
-567,386,0,0,0,0,0,0,0,0,0,-1,657,638,0,0
-560,386,-0.158386,0.0778809,0,0,0,0,0,0,0,-1,664,638,-0.158382,-0.0778572
-553,386,0.00732422,-0.236816,0,0,0,0,0,0,0,-1,671,638,0.0073034,0.236794
-546,386,-0.074585,-1.5791,0,0,0,0,0,0,0,-1,678,638,-0.0745628,1.57909
-539,386,0.347778,-0.0115967,0,0,0,0,0,0,0,-1,685,638,0.347753,0.0115879
-532,386,0.225403,-0.116516,-0.000668481,-0.00557806,0.0110433,0.00818954,-0.0144361,0.676032,0.0132278,0.0432572,692,638,0.225433,0.116491
-525,386,-0.0109253,-0.141418,-0.00232282,-0.00416219,0.0101325,0.0069316,-0.0134166,0.740139,0.0119453,0.0430878,699,638,-0.0109042,0.14142
-518,386,-0.125732,0.115906,-0.00352556,-0.00329057,0.00904049,0.00563319,-0.0124493,0.791896,0.0106843,0.0477457,706,638,-0.125748,-0.115886
-511,386,-0.10791,0.107605,-0.00422896,-0.00217172,0.00802683,0.00489213,-0.0112928,0.849125,0.00958485,0.0387203,713,638,-0.107894,-0.107622
-504,386,-0.06073,0.0875854,-0.0042176,-0.0016935,0.00661509,0.00377886,-0.00968995,0.879657,0.00802197,0.0176342,720,638,-0.060748,-0.0876139
-497,386,-0.0385132,0.081604,-0.00372692,-0.00119245,0.00520685,0.00289915,-0.00781853,0.904767,0.00640144,0.00931602,727,638,-0.0385295,-0.0816297
-490,386,-0.0319214,0.0722656,-0.00332164,-0.000697574,0.00361204,0.00183334,-0.00585256,0.959608,0.00463529,0.0113235,734,638,-0.0319502,-0.0722468
-483,386,-0.00415039,0.0457764,-0.00286241,-0.000331907,0.00260312,0.00129717,-0.00449148,1.01161,0.00350759,0.0154634,741,638,-0.00416825,-0.0458029
-476,386,-0.00860596,0.048645,-0.00242776,-0.0002247,0.00162413,0.000636205,-0.00328867,1.08338,0.00243241,0.0148986,748,638,-0.00863251,-0.0486385
-469,386,-0.0362549,0.0803833,-0.00195252,0.000302751,0.000696009,0.000500253,-0.00215002,1.2943,0.00162595,0.0106911,755,638,-0.0362726,-0.0804114
-462,386,-0.0394287,0.0692749,-0.00157345,0.000417058,0.000151286,0.00042849,-0.00158488,1.49537,0.00122466,0.0102841,762,638,-0.0394036,-0.0692627
-455,386,-0.0419312,0.0618896,-0.00144689,0.00090706,-0.000436797,0.000985498,-0.00152533,-1.39311,0.00146075,0.0118194,769,638,-0.0419302,-0.0618956
-448,386,-0.0405273,0.0595093,-4.58979e-05,0.000762497,-0.000965562,0.00140505,-0.000688451,-0.983623,0.00123206,0.0115016,776,638,-0.0405357,-0.0594946
-441,386,-0.0474854,0.0811768,0.00259122,0.000924942,-0.00176355,0.00370853,-0.000192361,-0.564726,0.0025389,0.0111414,783,638,-0.0475151,-0.0811503
-434,386,-0.0501099,0.0983276,0.00521468,0.00146978,-0.00184392,0.00597018,0.000714285,-0.38886,0.00376468,0.0140658,790,638,-0.0500901,-0.098316
-427,386,-0.0284424,0.0997314,0.00896074,0.0026234,-0.000407644,0.00898685,0.00259729,-0.0639728,0.00534033,0.0217371,797,638,-0.028467,-0.0997526
-420,386,0.027771,0.103455,0.0136472,0.00315077,0.000298372,0.0136557,0.00314229,0.0283954,0.00825811,0.0289599,804,638,0.0277624,-0.103465
-413,386,-0.0291748,0.132996,0.0182555,0.00324752,0.00079696,0.0182977,0.00320532,0.0529041,0.0112828,0.0411454,811,638,-0.0291678,-0.13298
-406,386,-0.242981,-0.135864,0.0240534,0.0039588,0.00159961,0.02418,0.00383226,0.0789415,0.0150066,0.0418488,818,638,-0.242972,0.135892
-399,386,-0.431213,-0.010437,0.0304625,0.00412361,0.00257053,0.030711,0.00387509,0.0963829,0.0193123,0.0412429,825,638,-0.431207,0.0104635
-392,386,0.461182,-0.286194,0.0361356,0.00511851,0.00354291,0.0365352,0.00471896,0.112297,0.0229461,0.0437774,832,638,0.461179,0.286201
-385,386,1.41559,0.0438843,0.0417327,0.00601282,0.00457191,0.0423086,0.00543693,0.125303,0.0265794,0.0458253,839,638,1.41562,-0.0438869
-378,386,2.47937,0.417053,0.0457202,0.00580119,0.00413167,0.0461433,0.00537804,0.10206,0.0291355,0.0471741,846,638,2.47935,-0.417053
-371,386,3.6637,0.677795,0,0,0,0,0,0,0,-1,853,638,3.66369,-0.677801
-364,386,0.398499,-0.21698,0.0500647,0.00654996,0.00149947,0.0501163,0.00649835,0.0344046,0.0314692,0.0422934,860,638,0.398521,0.216955
-357,386,0.170532,0.0764771,0,0,0,0,0,0,0,-1,867,638,0.170522,-0.0764941
-350,386,0,0,0,0,0,0,0,0,0,-1,874,638,0,0
-343,386,0,0,0,0,0,0,0,0,0,-1,881,638,0,0
-336,386,0,0,0,0,0,0,0,0,0,-1,888,638,0,0
-329,386,0,0,0,0,0,0,0,0,0,-1,895,638,0,0
-322,386,0,0,0,0,0,0,0,0,0,-1,902,638,0,0
-315,386,0,0,0,0,0,0,0,0,0,-1,909,638,0,0
-308,386,0,0,0,0,0,0,0,0,0,-1,916,638,0,0
-301,386,0,0,0,0,0,0,0,0,0,-1,923,638,0,0
-294,386,0,0,0,0,0,0,0,0,0,-1,930,638,0,0
-287,386,0,0,0,0,0,0,0,0,0,-1,937,638,0,0
-280,386,0,0,0,0,0,0,0,0,0,-1,944,638,0,0
-273,386,0,0,0,0,0,0,0,0,0,-1,951,638,0,0
-266,386,0,0,0,0,0,0,0,0,0,-1,958,638,0,0
-259,386,0,0,0,0,0,0,0,0,0,-1,965,638,0,0
-252,386,0,0,0,0,0,0,0,0,0,-1,972,638,0,0
-245,386,0,0,0,0,0,0,0,0,0,-1,979,638,0,0
-238,386,0,0,0,0,0,0,0,0,0,-1,986,638,0,0
-231,386,0,0,0,0,0,0,0,0,0,-1,993,638,0,0
-224,386,0,0,0,0,0,0,0,0,0,-1,1000,638,0,0
-217,386,0,0,0,0,0,0,0,0,0,-1,1007,638,0,0
-210,386,0,0,0,0,0,0,0,0,0,-1,1014,638,0,0
-203,386,0,0,0,0,0,0,0,0,0,-1,1021,638,0,0
-196,386,0,0,0,0,0,0,0,0,0,-1,1028,638,0,0
-189,386,0,0,0,0,0,0,0,0,0,-1,1035,638,0,0
-182,386,0,0,0,0,0,0,0,0,0,-1,1042,638,0,0
-175,386,0,0,0,0,0,0,0,0,0,-1,1049,638,0,0
-168,386,0,0,0,0,0,0,0,0,0,-1,1056,638,0,0
-161,386,0,0,0,0,0,0,0,0,0,-1,1063,638,0,0
-154,386,0,0,0,0,0,0,0,0,0,-1,1070,638,0,0
-147,386,0,0,0,0,0,0,0,0,0,-1,1077,638,0,0
-140,386,0,0,0,0,0,0,0,0,0,-1,1084,638,0,0
-133,386,0,0,0,0,0,0,0,0,0,-1,1091,638,0,0
-126,386,0,0,0,0,0,0,0,0,0,-1,1098,638,0,0
-119,386,0,0,0,0,0,0,0,0,0,-1,1105,638,0,0
-112,386,0,0,0,0,0,0,0,0,0,-1,1112,638,0,0
-105,386,0,0,0,0,0,0,0,0,0,-1,1119,638,0,0
-98,386,0,0,0,0,0,0,0,0,0,-1,1126,638,0,0
-91,386,0,0,0,0,0,0,0,0,0,-1,1133,638,0,0
-84,386,0,0,0,0,0,0,0,0,0,-1,1140,638,0,0
-77,386,0,0,0,0,0,0,0,0,0,-1,1147,638,0,0
-70,386,0,0,0,0,0,0,0,0,0,-1,1154,638,0,0
-63,386,0,0,0,0,0,0,0,0,0,-1,1161,638,0,0
-56,386,0,0,0,0,0,0,0,0,0,-1,1168,638,0,0
-49,386,0,0,0,0,0,0,0,0,0,-1,1175,638,0,0
-42,386,0,0,0,0,0,0,0,0,0,-1,1182,638,0,0
-35,386,0,0,0,0,0,0,0,0,0,-1,1189,638,0,0
-28,386,0,0,0,0,0,0,0,0,0,-1,1196,638,0,0
-21,386,0,0,0,0,0,0,0,0,0,-1,1203,638,0,0
-14,386,0,0,0,0,0,0,0,0,0,-1,1210,638,0,0
-7,386,0,0,0,0,0,0,0,0,0,-1,1217,638,0,0
0,386,0,0,0,0,0,0,0,0,0,-1,1224,638,0,0
7,386,0,0,0,0,0,0,0,0,0,-1,1231,638,0,0
14,386,0,0,0,0,0,0,0,0,0,-1,1238,638,0,0
21,386,0,0,0,0,0,0,0,0,0,-1,1245,638,0,0
28,386,0,0,0,0,0,0,0,0,0,-1,1252,638,0,0
35,386,0,0,0,0,0,0,0,0,0,-1,1259,638,0,0
42,386,0,0,0,0,0,0,0,0,0,-1,1266,638,0,0
49,386,0,0,0,0,0,0,0,0,0,-1,1273,638,0,0
56,386,0,0,0,0,0,0,0,0,0,-1,1280,638,0,0
63,386,0,0,0,0,0,0,0,0,0,-1,1287,638,0,0
70,386,0,0,0,0,0,0,0,0,0,-1,1294,638,0,0
77,386,0,0,0,0,0,0,0,0,0,-1,1301,638,0,0
84,386,0,0,0,0,0,0,0,0,0,-1,1308,638,0,0
91,386,0,0,0,0,0,0,0,0,0,-1,1315,638,0,0
98,386,0,0,0,0,0,0,0,0,0,-1,1322,638,0,0
105,386,0,0,0,0,0,0,0,0,0,-1,1329,638,0,0
112,386,0,0,0,0,0,0,0,0,0,-1,1336,638,0,0
119,386,0,0,0,0,0,0,0,0,0,-1,1343,638,0,0
126,386,0,0,0,0,0,0,0,0,0,-1,1350,638,0,0
133,386,0,0,0,0,0,0,0,0,0,-1,1357,638,0,0
140,386,0,0,0,0,0,0,0,0,0,-1,1364,638,0,0
147,386,0,0,0,0,0,0,0,0,0,-1,1371,638,0,0
154,386,0,0,0,0,0,0,0,0,0,-1,1378,638,0,0
161,386,0,0,0,0,0,0,0,0,0,-1,1385,638,0,0
168,386,0,0,0,0,0,0,0,0,0,-1,1392,638,0,0
175,386,0,0,0,0,0,0,0,0,0,-1,1399,638,0,0
182,386,0,0,0,0,0,0,0,0,0,-1,1406,638,0,0
189,386,0,0,0,0,0,0,0,0,0,-1,1413,638,0,0
196,386,0,0,0,0,0,0,0,0,0,-1,1420,638,0,0
203,386,0,0,0,0,0,0,0,0,0,-1,1427,638,0,0
210,386,0,0,0,0,0,0,0,0,0,-1,1434,638,0,0
217,386,0,0,0,0,0,0,0,0,0,-1,1441,638,0,0
224,386,0,0,0,0,0,0,0,0,0,-1,1448,638,0,0
231,386,0,0,0,0,0,0,0,0,0,-1,1455,638,0,0
238,386,0,0,0,0,0,0,0,0,0,-1,1462,638,0,0
245,386,0,0,0,0,0,0,0,0,0,-1,1469,638,0,0
252,386,0,0,0,0,0,0,0,0,0,-1,1476,638,0,0
259,386,0,0,0,0,0,0,0,0,0,-1,1483,638,0,0
266,386,0,0,0,0,0,0,0,0,0,-1,1490,638,0,0
273,386,0,0,0,0,0,0,0,0,0,-1,1497,638,0,0
280,386,0,0,0,0,0,0,0,0,0,-1,1504,638,0,0
287,386,0,0,0,0,0,0,0,0,0,-1,1511,638,0,0
294,386,0,0,0,0,0,0,0,0,0,-1,1518,638,0,0
301,386,0,0,0,0,0,0,0,0,0,-1,1525,638,0,0
308,386,0,0,0,0,0,0,0,0,0,-1,1532,638,0,0
315,386,0,0,0,0,0,0,0,0,0,-1,1539,638,0,0
322,386,0,0,0,0,0,0,0,0,0,-1,1546,638,0,0
329,386,0,0,0,0,0,0,0,0,0,-1,1553,638,0,0
336,386,0,0,0,0,0,0,0,0,0,-1,1560,638,0,0
343,386,0,0,0,0,0,0,0,0,0,-1,1567,638,0,0
350,386,0,0,0,0,0,0,0,0,0,-1,1574,638,0,0
357,386,0,0,0,0,0,0,0,0,0,-1,1581,638,0,0
364,386,0,0,0,0,0,0,0,0,0,-1,1588,638,0,0
371,386,0,0,0,0,0,0,0,0,0,-1,1595,638,0,0
378,386,0,0,0,0,0,0,0,0,0,-1,1602,638,0,0
385,386,0,0,0,0,0,0,0,0,0,-1,1609,638,0,0
392,386,0,0,0,0,0,0,0,0,0,-1,1616,638,0,0
399,386,0,0,0,0,0,0,0,0,0,-1,1623,638,0,0
406,386,0,0,0,0,0,0,0,0,0,-1,1630,638,0,0
413,386,0,0,0,0,0,0,0,0,0,-1,1637,638,0,0
420,386,0,0,0,0,0,0,0,0,0,-1,1644,638,0,0
427,386,0,0,0,0,0,0,0,0,0,-1,1651,638,0,0
434,386,0,0,0,0,0,0,0,0,0,-1,1658,638,0,0
441,386,0,0,0,0,0,0,0,0,0,-1,1665,638,0,0
448,386,0,0,0,0,0,0,0,0,0,-1,1672,638,0,0
455,386,0,0,0,0,0,0,0,0,0,-1,1679,638,0,0
462,386,0,0,0,0,0,0,0,0,0,-1,1686,638,0,0
469,386,0.420654,-0.401672,0,0,0,0,0,0,0,-1,1693,638,0.420664,0.401681
476,386,1.41321,-0.646362,0,0,0,0,0,0,0,-1,1700,638,1.41326,0.646367
483,386,0.799438,-0.409241,0,0,0,0,0,0,0,-1,1707,638,0.799487,0.409262
490,386,-0.248413,-0.506287,0,0,0,0,0,0,0,-1,1714,638,-0.248415,0.506289
497,386,0.147461,0.0172119,0,0,0,0,0,0,0,-1,1721,638,0.147475,-0.0172289
504,386,-0.064209,-0.366943,0.00362676,0.0159106,-0.00908205,0.0207325,-0.00119521,-1.08271,0.0142368,0.040403,1728,638,-0.0642104,0.366966
511,386,-0.299072,-0.645569,0,0,0,0,0,0,0,-1,1735,638,-0.299104,0.645564
518,386,-1.99402,0.74884,0,0,0,0,0,0,0,-1,1742,638,-1.99398,-0.748828
525,386,-1.32556,1.12891,0,0,0,0,0,0,0,-1,1749,638,-1.32558,-1.12891
532,386,-1.33923,1.05011,0,0,0,0,0,0,0,-1,1756,638,-1.33924,-1.0501
539,386,-0.0197754,0.194885,-0.000244931,0.0114761,-0.00604473,0.0140348,-0.00280371,-1.17036,0.0104177,0.0416434,1763,638,-0.0197286,-0.194882
546,386,-0.0653076,0.0389404,0.000283406,0.00951224,-0.00539592,0.0119977,-0.00220209,-1.13914,0.00882458,0.0410729,1770,638,-0.0652491,-0.0389549
553,386,-0.0445557,0.0672607,0.000248438,0.00778741,-0.00456132,0.00993524,-0.00189939,-1.13072,0.00733902,0.0323166,1777,638,-0.04456,-0.0672853
560,386,-0.0445557,0.121033,-8.15915e-05,0.00619829,-0.00300271,0.00740294,-0.00128625,-1.18927,0.0054152,0.0196613,1784,638,-0.0445405,-0.121005
567,386,-0.0393066,0.0970459,-0.0002465,0.00392339,-0.00245139,0.00505657,-0.00137968,-1.13779,0.00391287,0.0137806,1791,638,-0.0392652,-0.0970389
574,386,-0.0333252,0.06073,-0.000250934,0.00257692,-0.0012496,0.00304997,-0.000723986,-1.20891,0.00231273,0.0122078,1798,638,-0.0332982,-0.0607461
581,386,-0.0406494,0.0673218,3.144e-05,0.00121558,-0.000440624,0.00136154,-0.000114526,-1.2509,0.000948179,0.0120955,1805,638,-0.0405895,-0.0673492
588,386,-0.0461426,0.0756226,0.000656798,0.00020885,-9.3162e-06,0.000656991,0.000208656,-0.0207856,0.000387636,0.0106201,1812,638,-0.0460978,-0.0755932
595,386,-0.0515137,0.0598755,0.00127917,-0.000463023,3.53278e-05,0.00127988,-0.000463739,0.0202667,0.00104279,0.0118117,1819,638,-0.0515305,-0.0598454
602,386,-0.043457,0.0549316,0.00153093,-0.000891878,-2.50791e-05,0.00153119,-0.000892138,-0.0103498,0.00141523,0.0139251,1826,638,-0.0434549,-0.0549049
609,386,-0.036499,0.0710449,0.00212166,-0.00116858,-0.000247541,0.00214018,-0.0011871,-0.0746745,0.0019471,0.0142195,1833,638,-0.0364421,-0.0710493
616,386,-0.0509033,0.0922241,0.00300218,-0.00154409,-0.0007792,0.00313202,-0.00167393,-0.165117,0.00281696,0.0114745,1840,638,-0.050876,-0.0922267
623,386,-0.0625,0.10376,0.00389107,-0.00200198,-0.00108458,0.00408434,-0.00219526,-0.176349,0.0036798,0.0100316,1847,638,-0.0625329,-0.103755
630,386,-0.0512695,0.0727539,0.00473208,-0.00251907,-0.00129162,0.00495528,-0.00274227,-0.171117,0.00450499,0.0145173,1854,638,-0.0512739,-0.0727405
637,386,-0.0360107,0.0310059,0.00557121,-0.00299451,-0.00137471,0.00578643,-0.00320973,-0.155295,0.00526447,0.0177266,1861,638,-0.0359744,-0.0309796
644,386,-0.0994873,-0.00872803,0.00645354,-0.00365698,-0.00174586,0.00674652,-0.00394996,-0.166265,0.00624558,0.0280596,1868,638,-0.0995292,0.00873831
651,386,0.134033,0.0528564,0.0070735,-0.00439751,-0.00200569,0.00741408,-0.00473809,-0.168202,0.00707254,0.0408256,1875,638,0.134012,-0.0528659
658,386,0.426514,0.0777588,0,0,0,0,0,0,0,-1,1882,638,0.426479,-0.0777583
665,386,0.509521,-0.0474854,0,0,0,0,0,0,0,-1,1889,638,0.509533,0.0474599
672,386,0.626099,-0.351074,0,0,0,0,0,0,0,-1,1896,638,0.626154,0.351074
679,386,-0.443848,-0.06604,0,0,0,0,0,0,0,-1,1903,638,-0.443838,0.0660426
686,386,0,0,0,0,0,0,0,0,0,-1,1910,638,0,0
693,386,0,0,0,0,0,0,0,0,0,-1,1917,638,0,0
700,386,0,0,0,0,0,0,0,0,0,-1,1924,638,0,0
707,386,0,0,0,0,0,0,0,0,0,-1,1931,638,0,0
714,386,0,0,0,0,0,0,0,0,0,-1,1938,638,0,0
721,386,0,0,0,0,0,0,0,0,0,-1,1945,638,0,0
728,386,0,0,0,0,0,0,0,0,0,-1,1952,638,0,0
735,386,0,0,0,0,0,0,0,0,0,-1,1959,638,0,0
742,386,0,0,0,0,0,0,0,0,0,-1,1966,638,0,0
749,386,0,0,0,0,0,0,0,0,0,-1,1973,638,0,0
756,386,0,0,0,0,0,0,0,0,0,-1,1980,638,0,0
763,386,0,0,0,0,0,0,0,0,0,-1,1987,638,0,0
770,386,0,0,0,0,0,0,0,0,0,-1,1994,638,0,0
777,386,0,0,0,0,0,0,0,0,0,-1,2001,638,0,0
784,386,0,0,0,0,0,0,0,0,0,-1,2008,638,0,0
791,386,0,0,0,0,0,0,0,0,0,-1,2015,638,0,0
798,386,0,0,0,0,0,0,0,0,0,-1,2022,638,0,0
805,386,0,0,0,0,0,0,0,0,0,-1,2029,638,0,0
812,386,0,0,0,0,0,0,0,0,0,-1,2036,638,0,0
-700,379,0,0,0,0,0,0,0,0,0,-1,524,645,0,0
-693,379,0,0,0,0,0,0,0,0,0,-1,531,645,0,0
-686,379,0,0,0,0,0,0,0,0,0,-1,538,645,0,0
-679,379,0,0,0,0,0,0,0,0,0,-1,545,645,0,0
-672,379,0,0,0,0,0,0,0,0,0,-1,552,645,0,0
-665,379,0,0,0,0,0,0,0,0,0,-1,559,645,0,0
-658,379,0,0,0,0,0,0,0,0,0,-1,566,645,0,0
-651,379,0,0,0,0,0,0,0,0,0,-1,573,645,0,0
-644,379,0,0,0,0,0,0,0,0,0,-1,580,645,0,0
-637,379,0,0,0,0,0,0,0,0,0,-1,587,645,0,0
-630,379,0,0,0,0,0,0,0,0,0,-1,594,645,0,0
-623,379,0,0,0,0,0,0,0,0,0,-1,601,645,0,0
-616,379,0,0,0,0,0,0,0,0,0,-1,608,645,0,0
-609,379,0,0,0,0,0,0,0,0,0,-1,615,645,0,0
-602,379,0,0,0,0,0,0,0,0,0,-1,622,645,0,0
-595,379,0,0,0,0,0,0,0,0,0,-1,629,645,0,0
-588,379,0,0,0,0,0,0,0,0,0,-1,636,645,0,0
-581,379,0,0,0,0,0,0,0,0,0,-1,643,645,0,0
-574,379,0,0,0,0,0,0,0,0,0,-1,650,645,0,0
-567,379,-0.343811,0.412292,0.0116074,-0.0221539,0.00259062,0.011805,-0.0223515,0.0761392,0.0200312,0.0450432,657,645,-0.343802,-0.412289
-560,379,-0.0701294,0.218811,0.00853103,-0.0170413,0.00477867,0.00939483,-0.0179051,0.178832,0.0160149,0.0461291,664,645,-0.0701115,-0.218841
-553,379,0.0895386,0.0887451,0,0,0,0,0,0,0,-1,671,645,0.0895343,-0.0887683
-546,379,-0.354553,-0.729004,0,0,0,0,0,0,0,-1,678,645,-0.354528,0.728982
-539,379,0.532837,1.67725,0,0,0,0,0,0,0,-1,685,645,0.532845,-1.67723
-532,379,0.36322,0.767151,-0.000418803,-0.00524126,0.00763986,0.0051813,-0.0108414,0.63254,0.00944113,0.0407784,692,645,0.36325,-0.767155
-525,379,0.115662,0.275146,-0.00163401,-0.00383549,0.0071943,0.00454327,-0.0100128,0.709486,0.00859943,0.0411217,699,645,0.115664,-0.27514
-518,379,-0.0531616,0.119873,-0.00267295,-0.00305037,0.0065581,0.00369915,-0.00942248,0.771015,0.0078123,0.0385117,706,645,-0.053172,-0.119858
-511,379,-0.069397,0.0896606,-0.00332923,-0.00204158,0.00597479,0.00332397,-0.00869478,0.83907,0.00716625,0.0217254,713,645,-0.0694057,-0.0896858
-504,379,-0.0551147,0.0891113,-0.00336863,-0.00164635,0.00497432,0.00254082,-0.0075558,0.871107,0.00606424,0.0104601,720,645,-0.0551048,-0.0891389
-497,379,-0.0463867,0.081543,-0.00300667,-0.00112411,0.00392576,0.00197164,-0.00610242,0.903062,0.00486067,0.00927576,727,645,-0.0463856,-0.0815705
-490,379,-0.0322266,0.0830078,-0.00274913,-0.000626927,0.00265863,0.00117453,-0.00455059,0.97527,0.00349172,0.0101462,734,645,-0.0322253,-0.0830278
-483,379,-0.0361328,0.0643311,-0.0024148,-0.000270711,0.00181847,0.0007682,-0.00345371,1.05174,0.0025967,0.0119086,741,645,-0.0361196,-0.0643182
-476,379,-0.0314941,0.0749512,-0.00210394,-0.000159845,0.000925605,0.000210352,-0.00247414,1.19033,0.00172383,0.0121548,748,645,-0.031482,-0.0749252
-469,379,-0.0271606,0.0909424,-0.00183053,0.000308737,1.48895e-05,0.00030884,-0.00183063,1.56384,0.00133533,0.0106699,755,645,-0.0271436,-0.0909269
-462,379,-0.0393677,0.081665,-0.00159119,0.000315069,-0.000528414,0.000451746,-0.00172786,-1.31769,0.00132835,0.00858275,762,645,-0.0393494,-0.0816549
-455,379,-0.0397339,0.0812988,-0.00164266,0.000711912,-0.00117665,0.00119911,-0.00212986,-1.17823,0.00194686,0.0092466,769,645,-0.0397552,-0.0812761
-448,379,-0.0345459,0.0969849,-0.000232962,0.000430987,-0.00182686,0.00195579,-0.00175776,-0.875277,0.00214503,0.0105577,776,645,-0.034548,-0.0969576
-441,379,-0.0441284,0.103149,0.00262797,0.000380347,-0.00285879,0.0045759,-0.00156759,-0.598123,0.00368597,0.0117063,783,645,-0.0441501,-0.103122
-434,379,-0.048645,0.100891,0.00554775,0.000719983,-0.00316848,0.00711709,-0.000849355,-0.459879,0.0050517,0.0189195,790,645,-0.0486535,-0.100888
-427,379,-0.0358887,0.13208,0.00977515,0.00172016,-0.00195515,0.0102246,0.00127068,-0.22597,0.00643482,0.0301875,797,645,-0.0358663,-0.132066
-420,379,0.0914307,0.231384,0,0,0,0,0,0,0,-1,804,645,0.0914067,-0.231359
-413,379,0.286316,0.41571,0,0,0,0,0,0,0,-1,811,645,0.286297,-0.415683
-406,379,-0.183533,-0.485779,0,0,0,0,0,0,0,-1,818,645,-0.183553,0.485794
-399,379,-0.377747,-0.442322,0,0,0,0,0,0,0,-1,825,645,-0.377752,0.442342
-392,379,0.686096,-0.370483,0.0435182,0.0038153,0.00174017,0.0435943,0.00373918,0.0437181,0.0279001,0.0496889,832,645,0.686084,0.370508
-385,379,1.24701,-0.399902,0.0511538,0.00493266,0.00295426,0.0513418,0.0047446,0.063571,0.0327611,0.0485585,839,645,1.247,0.399913
-378,379,1.33771,-0.204529,0.0569456,0.00503319,0.00277024,0.057093,0.00488578,0.0531625,0.0365424,0.0458042,846,645,1.33772,0.204502
-371,379,1.62872,0.250793,0,0,0,0,0,0,0,-1,853,645,1.62871,-0.250809
-364,379,0.337769,-0.569214,0,0,0,0,0,0,0,-1,860,645,0.337743,0.569242
-357,379,0,0,0,0,0,0,0,0,0,-1,867,645,0,0
-350,379,0,0,0,0,0,0,0,0,0,-1,874,645,0,0
-343,379,0,0,0,0,0,0,0,0,0,-1,881,645,0,0
-336,379,0,0,0,0,0,0,0,0,0,-1,888,645,0,0
-329,379,0,0,0,0,0,0,0,0,0,-1,895,645,0,0
-322,379,0,0,0,0,0,0,0,0,0,-1,902,645,0,0
-315,379,0,0,0,0,0,0,0,0,0,-1,909,645,0,0
-308,379,0,0,0,0,0,0,0,0,0,-1,916,645,0,0
-301,379,0,0,0,0,0,0,0,0,0,-1,923,645,0,0
-294,379,0,0,0,0,0,0,0,0,0,-1,930,645,0,0
-287,379,0,0,0,0,0,0,0,0,0,-1,937,645,0,0
-280,379,0,0,0,0,0,0,0,0,0,-1,944,645,0,0
-273,379,0,0,0,0,0,0,0,0,0,-1,951,645,0,0
-266,379,0,0,0,0,0,0,0,0,0,-1,958,645,0,0
-259,379,0,0,0,0,0,0,0,0,0,-1,965,645,0,0
-252,379,0,0,0,0,0,0,0,0,0,-1,972,645,0,0
-245,379,0,0,0,0,0,0,0,0,0,-1,979,645,0,0
-238,379,0,0,0,0,0,0,0,0,0,-1,986,645,0,0
-231,379,0,0,0,0,0,0,0,0,0,-1,993,645,0,0
-224,379,0,0,0,0,0,0,0,0,0,-1,1000,645,0,0
-217,379,0,0,0,0,0,0,0,0,0,-1,1007,645,0,0
-210,379,0,0,0,0,0,0,0,0,0,-1,1014,645,0,0
-203,379,0,0,0,0,0,0,0,0,0,-1,1021,645,0,0
-196,379,0,0,0,0,0,0,0,0,0,-1,1028,645,0,0
-189,379,0,0,0,0,0,0,0,0,0,-1,1035,645,0,0
-182,379,0,0,0,0,0,0,0,0,0,-1,1042,645,0,0
-175,379,0,0,0,0,0,0,0,0,0,-1,1049,645,0,0
-168,379,0,0,0,0,0,0,0,0,0,-1,1056,645,0,0
-161,379,0,0,0,0,0,0,0,0,0,-1,1063,645,0,0
-154,379,0,0,0,0,0,0,0,0,0,-1,1070,645,0,0
-147,379,0,0,0,0,0,0,0,0,0,-1,1077,645,0,0
-140,379,0,0,0,0,0,0,0,0,0,-1,1084,645,0,0
-133,379,0,0,0,0,0,0,0,0,0,-1,1091,645,0,0
-126,379,0,0,0,0,0,0,0,0,0,-1,1098,645,0,0
-119,379,0,0,0,0,0,0,0,0,0,-1,1105,645,0,0
-112,379,0,0,0,0,0,0,0,0,0,-1,1112,645,0,0
-105,379,0,0,0,0,0,0,0,0,0,-1,1119,645,0,0
-98,379,0,0,0,0,0,0,0,0,0,-1,1126,645,0,0
-91,379,0,0,0,0,0,0,0,0,0,-1,1133,645,0,0
-84,379,0,0,0,0,0,0,0,0,0,-1,1140,645,0,0
-77,379,0,0,0,0,0,0,0,0,0,-1,1147,645,0,0
-70,379,0,0,0,0,0,0,0,0,0,-1,1154,645,0,0
-63,379,0,0,0,0,0,0,0,0,0,-1,1161,645,0,0
-56,379,0,0,0,0,0,0,0,0,0,-1,1168,645,0,0
-49,379,0,0,0,0,0,0,0,0,0,-1,1175,645,0,0
-42,379,0,0,0,0,0,0,0,0,0,-1,1182,645,0,0
-35,379,0,0,0,0,0,0,0,0,0,-1,1189,645,0,0
-28,379,0,0,0,0,0,0,0,0,0,-1,1196,645,0,0
-21,379,0,0,0,0,0,0,0,0,0,-1,1203,645,0,0
-14,379,0,0,0,0,0,0,0,0,0,-1,1210,645,0,0
-7,379,0,0,0,0,0,0,0,0,0,-1,1217,645,0,0
0,379,0,0,0,0,0,0,0,0,0,-1,1224,645,0,0
7,379,0,0,0,0,0,0,0,0,0,-1,1231,645,0,0
14,379,0,0,0,0,0,0,0,0,0,-1,1238,645,0,0
21,379,0,0,0,0,0,0,0,0,0,-1,1245,645,0,0
28,379,0,0,0,0,0,0,0,0,0,-1,1252,645,0,0
35,379,0,0,0,0,0,0,0,0,0,-1,1259,645,0,0
42,379,0,0,0,0,0,0,0,0,0,-1,1266,645,0,0
49,379,0,0,0,0,0,0,0,0,0,-1,1273,645,0,0
56,379,0,0,0,0,0,0,0,0,0,-1,1280,645,0,0
63,379,0,0,0,0,0,0,0,0,0,-1,1287,645,0,0
70,379,0,0,0,0,0,0,0,0,0,-1,1294,645,0,0
77,379,0,0,0,0,0,0,0,0,0,-1,1301,645,0,0
84,379,0,0,0,0,0,0,0,0,0,-1,1308,645,0,0
91,379,0,0,0,0,0,0,0,0,0,-1,1315,645,0,0
98,379,0,0,0,0,0,0,0,0,0,-1,1322,645,0,0
105,379,0,0,0,0,0,0,0,0,0,-1,1329,645,0,0
112,379,0,0,0,0,0,0,0,0,0,-1,1336,645,0,0
119,379,0,0,0,0,0,0,0,0,0,-1,1343,645,0,0
126,379,0,0,0,0,0,0,0,0,0,-1,1350,645,0,0
133,379,0,0,0,0,0,0,0,0,0,-1,1357,645,0,0
140,379,0,0,0,0,0,0,0,0,0,-1,1364,645,0,0
147,379,0,0,0,0,0,0,0,0,0,-1,1371,645,0,0
154,379,0,0,0,0,0,0,0,0,0,-1,1378,645,0,0
161,379,0,0,0,0,0,0,0,0,0,-1,1385,645,0,0
168,379,0,0,0,0,0,0,0,0,0,-1,1392,645,0,0
175,379,0,0,0,0,0,0,0,0,0,-1,1399,645,0,0
182,379,0,0,0,0,0,0,0,0,0,-1,1406,645,0,0
189,379,0,0,0,0,0,0,0,0,0,-1,1413,645,0,0
196,379,0,0,0,0,0,0,0,0,0,-1,1420,645,0,0
203,379,0,0,0,0,0,0,0,0,0,-1,1427,645,0,0
210,379,0,0,0,0,0,0,0,0,0,-1,1434,645,0,0
217,379,0,0,0,0,0,0,0,0,0,-1,1441,645,0,0
224,379,0,0,0,0,0,0,0,0,0,-1,1448,645,0,0
231,379,0,0,0,0,0,0,0,0,0,-1,1455,645,0,0
238,379,0,0,0,0,0,0,0,0,0,-1,1462,645,0,0
245,379,0,0,0,0,0,0,0,0,0,-1,1469,645,0,0
252,379,0,0,0,0,0,0,0,0,0,-1,1476,645,0,0
259,379,0,0,0,0,0,0,0,0,0,-1,1483,645,0,0
266,379,0,0,0,0,0,0,0,0,0,-1,1490,645,0,0
273,379,0,0,0,0,0,0,0,0,0,-1,1497,645,0,0
280,379,0,0,0,0,0,0,0,0,0,-1,1504,645,0,0
287,379,0,0,0,0,0,0,0,0,0,-1,1511,645,0,0
294,379,0,0,0,0,0,0,0,0,0,-1,1518,645,0,0
301,379,0,0,0,0,0,0,0,0,0,-1,1525,645,0,0
308,379,0,0,0,0,0,0,0,0,0,-1,1532,645,0,0
315,379,0,0,0,0,0,0,0,0,0,-1,1539,645,0,0
322,379,0,0,0,0,0,0,0,0,0,-1,1546,645,0,0
329,379,0,0,0,0,0,0,0,0,0,-1,1553,645,0,0
336,379,0,0,0,0,0,0,0,0,0,-1,1560,645,0,0
343,379,0,0,0,0,0,0,0,0,0,-1,1567,645,0,0
350,379,0,0,0,0,0,0,0,0,0,-1,1574,645,0,0
357,379,0,0,0,0,0,0,0,0,0,-1,1581,645,0,0
364,379,0,0,0,0,0,0,0,0,0,-1,1588,645,0,0
371,379,0,0,0,0,0,0,0,0,0,-1,1595,645,0,0
378,379,0,0,0,0,0,0,0,0,0,-1,1602,645,0,0
385,379,0,0,0,0,0,0,0,0,0,-1,1609,645,0,0
392,379,0,0,0,0,0,0,0,0,0,-1,1616,645,0,0
399,379,0,0,0,0,0,0,0,0,0,-1,1623,645,0,0
406,379,0,0,0,0,0,0,0,0,0,-1,1630,645,0,0
413,379,0,0,0,0,0,0,0,0,0,-1,1637,645,0,0
420,379,0,0,0,0,0,0,0,0,0,-1,1644,645,0,0
427,379,0,0,0,0,0,0,0,0,0,-1,1651,645,0,0
434,379,0,0,0,0,0,0,0,0,0,-1,1658,645,0,0
441,379,0,0,0,0,0,0,0,0,0,-1,1665,645,0,0
448,379,0,0,0,0,0,0,0,0,0,-1,1672,645,0,0
455,379,0,0,0,0,0,0,0,0,0,-1,1679,645,0,0
462,379,0,0,0,0,0,0,0,0,0,-1,1686,645,0,0
469,379,0,0,0,0,0,0,0,0,0,-1,1693,645,0,0
476,379,-1.32947,-0.289551,0,0,0,0,0,0,0,-1,1700,645,-1.32951,0.289552
483,379,0.631958,0.0396118,0,0,0,0,0,0,0,-1,1707,645,0.631982,-0.0395932
490,379,0.00683594,0.246704,0.00923527,0.0149682,-0.0110417,0.0235094,0.000694049,-0.912396,0.0154468,0.0433982,1714,645,0.00680527,-0.246729
497,379,0.371216,0.201477,0.00715648,0.0166586,-0.0111213,0.0240012,-0.000186068,-0.987267,0.0160632,0.0403505,1721,645,0.371271,-0.201454
504,379,0.584595,0.0512085,0.00515375,0.0178303,-0.0110727,0.0242505,-0.00126642,-1.04535,0.0166052,0.0422518,1728,645,0.584577,-0.0511953
511,379,-1.50964,0.125793,0,0,0,0,0,0,0,-1,1735,645,-1.50968,-0.125806
518,379,-1.28223,0.510193,0.00242892,0.0175385,-0.0106368,0.0230304,-0.00306297,-1.09418,0.0164698,0.0424109,1742,645,-1.28219,-0.510163
525,379,-0.739258,0.860046,0.00109101,0.016493,-0.0100775,0.0214751,-0.00389107,-1.11166,0.0157745,0.0414961,1749,645,-0.739293,-0.860032
532,379,-0.772339,0.633179,-0.00042519,0.0152274,-0.00894375,0.0192856,-0.0044834,-1.14483,0.0145831,0.0418004,1756,645,-0.772392,-0.633155
539,379,-0.956421,0.443481,-0.000790416,0.0135868,-0.00771674,0.0169445,-0.00414809,-1.16039,0.0129032,0.0409615,1763,645,-0.956419,-0.443502
546,379,-0.383911,0.290466,-0.000472518,0.0113961,-0.0067434,0.0144445,-0.00352094,-1.14623,0.0109929,0.0454038,1770,645,-0.383878,-0.290472
553,379,-0.281616,0.22522,-0.00062458,0.00947137,-0.00554309,0.0119206,-0.00307379,-1.15474,0.00914549,0.0419789,1777,645,-0.281561,-0.225209
560,379,-0.0782471,0.133423,-0.000887388,0.00748313,-0.0036225,0.00883312,-0.00223737,-1.21407,0.00675912,0.0248328,1784,645,-0.0782906,-0.133413
567,379,-0.024292,0.0997314,-0.000830089,0.00489512,-0.00273736,0.00599328,-0.00192825,-1.18928,0.00477,0.0132431,1791,645,-0.0242685,-0.0997448
574,379,-0.0339355,0.0760498,-0.000626587,0.00332561,-0.00128654,0.00370751,-0.00100849,-1.28224,0.00286757,0.0114332,1798,645,-0.0339691,-0.0760482
581,379,-0.0541992,0.0744019,-0.000296303,0.00178255,-0.0002599,0.00181455,-0.000328303,-1.44829,0.00133268,0.013138,1805,645,-0.0542505,-0.0744063
588,379,-0.0740967,0.0602417,0.000388258,0.000638006,0.000308284,0.000845746,0.000180517,0.977829,0.000514329,0.0154879,1812,645,-0.0740509,-0.0602395
595,379,-0.0634766,0.0514526,0.00108035,-5.70252e-05,0.000361087,0.00118531,-0.000161976,0.28286,0.00084936,0.0137033,1819,645,-0.0634743,-0.0514371
602,379,-0.0462646,0.0525513,0.00130197,-0.000456927,0.00030456,0.00135322,-0.000508169,0.16669,0.00111098,0.0132184,1826,645,-0.0462407,-0.05257
609,379,-0.043335,0.0618286,0.00181428,-0.000704893,9.137e-05,0.00181759,-0.000708203,0.0362064,0.00150442,0.0126695,1833,645,-0.0433185,-0.0618033
616,379,-0.0469971,0.0783691,0.00264413,-0.000998626,-0.000460912,0.00270154,-0.00105604,-0.123927,0.0022377,0.0104868,1840,645,-0.0470185,-0.0783772
623,379,-0.0384521,0.0964966,0.00341793,-0.00140711,-0.000760801,0.00353505,-0.00152423,-0.152742,0.00299689,0.0103886,1847,645,-0.0385085,-0.0964818
630,379,-0.0249023,0.0958252,0.00413855,-0.00188137,-0.000949229,0.00428468,-0.0020275,-0.152745,0.0037212,0.0118994,1854,645,-0.0249438,-0.09584
637,379,-0.0172119,0.0750732,0.00488274,-0.00233328,-0.000996638,0.00501786,-0.0024684,-0.134754,0.00440495,0.0116632,1861,645,-0.0172361,-0.0750742
644,379,-0.0136719,0.059021,0.00571133,-0.00296954,-0.0013511,0.00591676,-0.00317497,-0.150887,0.00532808,0.0165518,1868,645,-0.0136771,-0.0590244
651,379,0.167358,0.0436401,0.00636625,-0.00375479,-0.00156168,0.00660173,-0.00399028,-0.149664,0.00617695,0.0355355,1875,645,0.167417,-0.0436452
658,379,0.425049,-0.0977783,0.00647912,-0.00468516,-0.00163284,0.00671303,-0.00491908,-0.142286,0.00674237,0.0416594,1882,645,0.425102,0.0977993
665,379,0.484985,-0.458557,0.00583076,-0.00562783,-0.00144178,0.00600938,-0.00580646,-0.123265,0.00682222,0.0450275,1889,645,0.484999,0.458586
672,379,0.636719,-0.756836,0,0,0,0,0,0,0,-1,1896,645,0.636778,0.756863
679,379,0.772583,-0.279846,0,0,0,0,0,0,0,-1,1903,645,0.772542,0.279858
686,379,0,0,0,0,0,0,0,0,0,-1,1910,645,0,0
693,379,0,0,0,0,0,0,0,0,0,-1,1917,645,0,0
700,379,0,0,0,0,0,0,0,0,0,-1,1924,645,0,0
707,379,0,0,0,0,0,0,0,0,0,-1,1931,645,0,0
714,379,0,0,0,0,0,0,0,0,0,-1,1938,645,0,0
721,379,0,0,0,0,0,0,0,0,0,-1,1945,645,0,0
728,379,0,0,0,0,0,0,0,0,0,-1,1952,645,0,0
735,379,0,0,0,0,0,0,0,0,0,-1,1959,645,0,0
742,379,0,0,0,0,0,0,0,0,0,-1,1966,645,0,0
749,379,0,0,0,0,0,0,0,0,0,-1,1973,645,0,0
756,379,0,0,0,0,0,0,0,0,0,-1,1980,645,0,0
763,379,0,0,0,0,0,0,0,0,0,-1,1987,645,0,0
770,379,0,0,0,0,0,0,0,0,0,-1,1994,645,0,0
777,379,0,0,0,0,0,0,0,0,0,-1,2001,645,0,0
784,379,0,0,0,0,0,0,0,0,0,-1,2008,645,0,0
791,379,0,0,0,0,0,0,0,0,0,-1,2015,645,0,0
798,379,0,0,0,0,0,0,0,0,0,-1,2022,645,0,0
805,379,0,0,0,0,0,0,0,0,0,-1,2029,645,0,0
812,379,0,0,0,0,0,0,0,0,0,-1,2036,645,0,0
-700,372,0,0,0,0,0,0,0,0,0,-1,524,652,0,0
-693,372,0,0,0,0,0,0,0,0,0,-1,531,652,0,0
-686,372,0,0,0,0,0,0,0,0,0,-1,538,652,0,0
-679,372,0,0,0,0,0,0,0,0,0,-1,545,652,0,0
-672,372,0,0,0,0,0,0,0,0,0,-1,552,652,0,0
-665,372,0,0,0,0,0,0,0,0,0,-1,559,652,0,0
-658,372,0,0,0,0,0,0,0,0,0,-1,566,652,0,0
-651,372,0,0,0,0,0,0,0,0,0,-1,573,652,0,0
-644,372,0,0,0,0,0,0,0,0,0,-1,580,652,0,0
-637,372,0,0,0,0,0,0,0,0,0,-1,587,652,0,0
-630,372,0,0,0,0,0,0,0,0,0,-1,594,652,0,0
-623,372,0,0,0,0,0,0,0,0,0,-1,601,652,0,0
-616,372,0,0,0,0,0,0,0,0,0,-1,608,652,0,0
-609,372,0,0,0,0,0,0,0,0,0,-1,615,652,0,0
-602,372,0,0,0,0,0,0,0,0,0,-1,622,652,0,0
-595,372,0,0,0,0,0,0,0,0,0,-1,629,652,0,0
-588,372,0,0,0,0,0,0,0,0,0,-1,636,652,0,0
-581,372,0,0,0,0,0,0,0,0,0,-1,643,652,0,0
-574,372,0,0,0,0,0,0,0,0,0,-1,650,652,0,0
-567,372,-0.349365,0.987366,0.00766814,-0.0180632,-0.00171352,0.00778174,-0.0181768,-0.0662032,0.0153825,0.0424681,657,652,-0.349354,-0.987337
-560,372,-0.17749,0.642212,0.00613789,-0.0139611,0.000669031,0.00616014,-0.0139834,0.0332377,0.0119186,0.0440797,664,652,-0.177519,-0.64223
-553,372,-0.522827,-0.589661,0,0,0,0,0,0,0,-1,671,652,-0.522856,0.589679
-546,372,-0.32782,-0.544434,0,0,0,0,0,0,0,-1,678,652,-0.327803,0.54446
-539,372,-0.132751,-0.499268,0,0,0,0,0,0,0,-1,685,652,-0.132749,0.499241
-532,372,0.0152588,0.549744,0.000398139,-0.00436275,0.00477443,0.00335265,-0.00731726,0.554142,0.00630043,0.0443708,692,652,0.0152745,-0.549732
-525,372,0.198669,0.410583,-0.00055499,-0.00314079,0.00472393,0.00304977,-0.00674555,0.651823,0.00578796,0.0403528,699,652,0.198686,-0.41061
-518,372,-0.0128784,0.144714,-0.00147844,-0.00251924,0.0044753,0.00250662,-0.00650429,0.727517,0.0053704,0.0247048,706,652,-0.0128841,-0.144743
-511,372,-0.0336304,0.0731812,-0.00210801,-0.00170783,0.00424102,0.00233782,-0.00615366,0.808971,0.00506487,0.0107369,713,652,-0.0336334,-0.0731975
-504,372,-0.0378418,0.06427,-0.00221525,-0.00149299,0.00360523,0.00176915,-0.00547739,0.835316,0.00436257,0.00916807,720,652,-0.0378381,-0.064267
-497,372,-0.0449219,0.0699463,-0.00199007,-0.00103273,0.0028707,0.00139894,-0.00442173,0.86801,0.00350837,0.0111194,727,652,-0.0449078,-0.0699451
-490,372,-0.0387573,0.0686035,-0.00187014,-0.000606176,0.00188367,0.000748703,-0.00322502,0.94725,0.0024382,0.0119074,734,652,-0.0387837,-0.0685957
-483,372,-0.036377,0.0754395,-0.0016428,-0.000316305,0.0011686,0.000364149,-0.00232325,1.04351,0.0016834,0.0109565,741,652,-0.0363968,-0.0754614
-476,372,-0.0229492,0.0987549,-0.00140154,-0.000248467,0.000332176,-0.00015962,-0.00149039,1.30944,0.000944889,0.011263,748,652,-0.0229343,-0.0987571
-469,372,-0.0270386,0.101013,-0.00121542,0.000129649,-0.000605646,0.000362161,-0.00144793,-1.20424,0.00110595,0.00945048,755,652,-0.0270618,-0.101022
-462,372,-0.0386353,0.0870972,-0.00100856,-1.32003e-07,-0.001188,0.000786223,-0.00179491,-0.986089,0.00152768,0.0087498,762,652,-0.0386394,-0.0871115
-455,372,-0.0374146,0.0986938,-0.00110512,0.000281292,-0.00194573,0.00165361,-0.00247744,-0.956523,0.00240082,0.00893467,769,652,-0.0374211,-0.0986823
-448,372,-0.0353394,0.106628,0.000399332,-0.000149255,-0.00276057,0.0028992,-0.00264913,-0.73588,0.00320441,0.0084488,776,652,-0.0353478,-0.106601
-441,372,-0.0470581,0.0767822,0.00356675,-0.000435003,-0.0040491,0.00608236,-0.00295062,-0.555918,0.00531865,0.0134329,783,652,-0.0470301,-0.0768077
-434,372,-0.0375977,0.0964355,0.00688096,-0.000363332,-0.0046712,0.00916982,-0.0026522,-0.455612,0.00716287,0.0241528,790,652,-0.0375742,-0.0964294
-427,372,-0.123535,0.100708,0.0116565,0.000362115,-0.00381008,0.0128216,-0.000802998,-0.296767,0.0088276,0.0357262,797,652,-0.123559,-0.100724
-420,372,-0.188354,0.0461426,0.0180358,0.000417023,-0.00359394,0.0187407,-0.000287879,-0.193678,0.0125909,0.0432859,804,652,-0.188332,-0.046116
-413,372,-0.196289,0.129395,0.0248854,0.000231059,-0.00334043,0.02533,-0.00021352,-0.132313,0.0169583,0.048341,811,652,-0.196318,-0.129399
-406,372,-1.48291,-0.541321,0,0,0,0,0,0,0,-1,818,652,-1.4829,0.541327
-399,372,-0.216064,-0.38031,0.04303,0.000358119,-0.00183032,0.0431084,0.000279756,-0.042788,0.0286461,0.0450801,825,652,-0.216038,0.380316
-392,372,1.23602,-0.487305,0.0522408,0.00103975,-0.000831391,0.0522543,0.00102626,-0.0162321,0.0344992,0.0485952,832,652,1.23602,0.487323
-385,372,2.36926,-0.460205,0,0,0,0,0,0,0,-1,839,652,2.36927,0.460209
-378,372,2.42926,-0.260925,0,0,0,0,0,0,0,-1,846,652,2.42928,0.260941
-371,372,-1.43134,-0.112244,0,0,0,0,0,0,0,-1,853,652,-1.43133,0.112247
-364,372,0,0,0,0,0,0,0,0,0,-1,860,652,0,0
-357,372,0,0,0,0,0,0,0,0,0,-1,867,652,0,0
-350,372,0,0,0,0,0,0,0,0,0,-1,874,652,0,0
-343,372,0,0,0,0,0,0,0,0,0,-1,881,652,0,0
-336,372,0,0,0,0,0,0,0,0,0,-1,888,652,0,0
-329,372,0,0,0,0,0,0,0,0,0,-1,895,652,0,0
-322,372,0,0,0,0,0,0,0,0,0,-1,902,652,0,0
-315,372,0,0,0,0,0,0,0,0,0,-1,909,652,0,0
-308,372,0,0,0,0,0,0,0,0,0,-1,916,652,0,0
-301,372,0,0,0,0,0,0,0,0,0,-1,923,652,0,0
-294,372,0,0,0,0,0,0,0,0,0,-1,930,652,0,0
-287,372,0,0,0,0,0,0,0,0,0,-1,937,652,0,0
-280,372,0,0,0,0,0,0,0,0,0,-1,944,652,0,0
-273,372,0,0,0,0,0,0,0,0,0,-1,951,652,0,0
-266,372,0,0,0,0,0,0,0,0,0,-1,958,652,0,0
-259,372,0,0,0,0,0,0,0,0,0,-1,965,652,0,0
-252,372,0,0,0,0,0,0,0,0,0,-1,972,652,0,0
-245,372,0,0,0,0,0,0,0,0,0,-1,979,652,0,0
-238,372,0,0,0,0,0,0,0,0,0,-1,986,652,0,0
-231,372,0,0,0,0,0,0,0,0,0,-1,993,652,0,0
-224,372,0,0,0,0,0,0,0,0,0,-1,1000,652,0,0
-217,372,0,0,0,0,0,0,0,0,0,-1,1007,652,0,0
-210,372,0,0,0,0,0,0,0,0,0,-1,1014,652,0,0
-203,372,0,0,0,0,0,0,0,0,0,-1,1021,652,0,0
-196,372,0,0,0,0,0,0,0,0,0,-1,1028,652,0,0
-189,372,0,0,0,0,0,0,0,0,0,-1,1035,652,0,0
-182,372,0,0,0,0,0,0,0,0,0,-1,1042,652,0,0
-175,372,0,0,0,0,0,0,0,0,0,-1,1049,652,0,0
-168,372,0,0,0,0,0,0,0,0,0,-1,1056,652,0,0
-161,372,0,0,0,0,0,0,0,0,0,-1,1063,652,0,0
-154,372,0,0,0,0,0,0,0,0,0,-1,1070,652,0,0
-147,372,0,0,0,0,0,0,0,0,0,-1,1077,652,0,0
-140,372,0,0,0,0,0,0,0,0,0,-1,1084,652,0,0
-133,372,0,0,0,0,0,0,0,0,0,-1,1091,652,0,0
-126,372,0,0,0,0,0,0,0,0,0,-1,1098,652,0,0
-119,372,0,0,0,0,0,0,0,0,0,-1,1105,652,0,0
-112,372,0,0,0,0,0,0,0,0,0,-1,1112,652,0,0
-105,372,0,0,0,0,0,0,0,0,0,-1,1119,652,0,0
-98,372,0,0,0,0,0,0,0,0,0,-1,1126,652,0,0
-91,372,0,0,0,0,0,0,0,0,0,-1,1133,652,0,0
-84,372,0,0,0,0,0,0,0,0,0,-1,1140,652,0,0
-77,372,0,0,0,0,0,0,0,0,0,-1,1147,652,0,0
-70,372,0,0,0,0,0,0,0,0,0,-1,1154,652,0,0
-63,372,0,0,0,0,0,0,0,0,0,-1,1161,652,0,0
-56,372,0,0,0,0,0,0,0,0,0,-1,1168,652,0,0
-49,372,0,0,0,0,0,0,0,0,0,-1,1175,652,0,0
-42,372,0,0,0,0,0,0,0,0,0,-1,1182,652,0,0
-35,372,0,0,0,0,0,0,0,0,0,-1,1189,652,0,0
-28,372,0,0,0,0,0,0,0,0,0,-1,1196,652,0,0
-21,372,0,0,0,0,0,0,0,0,0,-1,1203,652,0,0
-14,372,0,0,0,0,0,0,0,0,0,-1,1210,652,0,0
-7,372,0,0,0,0,0,0,0,0,0,-1,1217,652,0,0
0,372,0,0,0,0,0,0,0,0,0,-1,1224,652,0,0
7,372,0,0,0,0,0,0,0,0,0,-1,1231,652,0,0
14,372,0,0,0,0,0,0,0,0,0,-1,1238,652,0,0
21,372,0,0,0,0,0,0,0,0,0,-1,1245,652,0,0
28,372,0,0,0,0,0,0,0,0,0,-1,1252,652,0,0
35,372,0,0,0,0,0,0,0,0,0,-1,1259,652,0,0
42,372,0,0,0,0,0,0,0,0,0,-1,1266,652,0,0
49,372,0,0,0,0,0,0,0,0,0,-1,1273,652,0,0
56,372,0,0,0,0,0,0,0,0,0,-1,1280,652,0,0
63,372,0,0,0,0,0,0,0,0,0,-1,1287,652,0,0
70,372,0,0,0,0,0,0,0,0,0,-1,1294,652,0,0
77,372,0,0,0,0,0,0,0,0,0,-1,1301,652,0,0
84,372,0,0,0,0,0,0,0,0,0,-1,1308,652,0,0
91,372,0,0,0,0,0,0,0,0,0,-1,1315,652,0,0
98,372,0,0,0,0,0,0,0,0,0,-1,1322,652,0,0
105,372,0,0,0,0,0,0,0,0,0,-1,1329,652,0,0
112,372,0,0,0,0,0,0,0,0,0,-1,1336,652,0,0
119,372,0,0,0,0,0,0,0,0,0,-1,1343,652,0,0
126,372,0,0,0,0,0,0,0,0,0,-1,1350,652,0,0
133,372,0,0,0,0,0,0,0,0,0,-1,1357,652,0,0
140,372,0,0,0,0,0,0,0,0,0,-1,1364,652,0,0
147,372,0,0,0,0,0,0,0,0,0,-1,1371,652,0,0
154,372,0,0,0,0,0,0,0,0,0,-1,1378,652,0,0
161,372,0,0,0,0,0,0,0,0,0,-1,1385,652,0,0
168,372,0,0,0,0,0,0,0,0,0,-1,1392,652,0,0
175,372,0,0,0,0,0,0,0,0,0,-1,1399,652,0,0
182,372,0,0,0,0,0,0,0,0,0,-1,1406,652,0,0
189,372,0,0,0,0,0,0,0,0,0,-1,1413,652,0,0
196,372,0,0,0,0,0,0,0,0,0,-1,1420,652,0,0
203,372,0,0,0,0,0,0,0,0,0,-1,1427,652,0,0
210,372,0,0,0,0,0,0,0,0,0,-1,1434,652,0,0
217,372,0,0,0,0,0,0,0,0,0,-1,1441,652,0,0
224,372,0,0,0,0,0,0,0,0,0,-1,1448,652,0,0
231,372,0,0,0,0,0,0,0,0,0,-1,1455,652,0,0
238,372,0,0,0,0,0,0,0,0,0,-1,1462,652,0,0
245,372,0,0,0,0,0,0,0,0,0,-1,1469,652,0,0
252,372,0,0,0,0,0,0,0,0,0,-1,1476,652,0,0
259,372,0,0,0,0,0,0,0,0,0,-1,1483,652,0,0
266,372,0,0,0,0,0,0,0,0,0,-1,1490,652,0,0
273,372,0,0,0,0,0,0,0,0,0,-1,1497,652,0,0
280,372,0,0,0,0,0,0,0,0,0,-1,1504,652,0,0
287,372,0,0,0,0,0,0,0,0,0,-1,1511,652,0,0
294,372,0,0,0,0,0,0,0,0,0,-1,1518,652,0,0
301,372,0,0,0,0,0,0,0,0,0,-1,1525,652,0,0
308,372,0,0,0,0,0,0,0,0,0,-1,1532,652,0,0
315,372,0,0,0,0,0,0,0,0,0,-1,1539,652,0,0
322,372,0,0,0,0,0,0,0,0,0,-1,1546,652,0,0
329,372,0,0,0,0,0,0,0,0,0,-1,1553,652,0,0
336,372,0,0,0,0,0,0,0,0,0,-1,1560,652,0,0
343,372,0,0,0,0,0,0,0,0,0,-1,1567,652,0,0
350,372,0,0,0,0,0,0,0,0,0,-1,1574,652,0,0
357,372,0,0,0,0,0,0,0,0,0,-1,1581,652,0,0
364,372,0,0,0,0,0,0,0,0,0,-1,1588,652,0,0
371,372,0,0,0,0,0,0,0,0,0,-1,1595,652,0,0
378,372,0,0,0,0,0,0,0,0,0,-1,1602,652,0,0
385,372,0,0,0,0,0,0,0,0,0,-1,1609,652,0,0
392,372,0,0,0,0,0,0,0,0,0,-1,1616,652,0,0
399,372,0,0,0,0,0,0,0,0,0,-1,1623,652,0,0
406,372,0,0,0,0,0,0,0,0,0,-1,1630,652,0,0
413,372,0,0,0,0,0,0,0,0,0,-1,1637,652,0,0
420,372,0,0,0,0,0,0,0,0,0,-1,1644,652,0,0
427,372,0,0,0,0,0,0,0,0,0,-1,1651,652,0,0
434,372,0,0,0,0,0,0,0,0,0,-1,1658,652,0,0
441,372,0,0,0,0,0,0,0,0,0,-1,1665,652,0,0
448,372,0,0,0,0,0,0,0,0,0,-1,1672,652,0,0
455,372,0,0,0,0,0,0,0,0,0,-1,1679,652,0,0
462,372,0,0,0,0,0,0,0,0,0,-1,1686,652,0,0
469,372,0,0,0,0,0,0,0,0,0,-1,1693,652,0,0
476,372,0,0,0,0,0,0,0,0,0,-1,1700,652,0,0
483,372,0.0109863,0.197693,0,0,0,0,0,0,0,-1,1707,652,0.0109898,-0.197702
490,372,0.2229,0.172607,0.0134177,0.0164201,-0.0103054,0.025333,0.00450477,-0.857725,0.0156053,0.0441145,1714,652,0.222938,-0.172579
497,372,0.469604,0.537598,0.0101095,0.0185174,-0.0113245,0.0263931,0.00223385,-0.963128,0.0169001,0.0438124,1721,652,0.469592,-0.537607
504,372,0.98584,0.482056,0.00711531,0.0199372,-0.0119657,0.0271011,-4.86476e-05,-1.03133,0.0180837,0.0481095,1728,652,0.985849,-0.482026
511,372,0.291992,0.612427,0,0,0,0,0,0,0,-1,1735,652,0.292016,-0.612414
518,372,0.0462646,0.555115,0.00275717,0.0201616,-0.0123198,0.0265427,-0.00362393,-1.09289,0.0190185,0.0434079,1742,652,0.0463205,-0.55509
525,372,-0.0766602,0.504578,0.000880693,0.0190948,-0.0117578,0.0248599,-0.00488449,-1.11491,0.0184186,0.038442,1749,652,-0.0766533,-0.504549
532,372,-0.186401,0.226501,-0.00088452,0.0176384,-0.0104209,0.0223186,-0.00556472,-1.14868,0.0170396,0.0383058,1756,652,-0.18641,-0.226522
539,372,-0.478271,0.266785,-0.00149025,0.0157367,-0.00885837,0.0194789,-0.00523244,-1.17109,0.0150367,0.0423037,1763,652,-0.478248,-0.266758
546,372,-0.454102,0.204346,-0.0014206,0.0132675,-0.00754407,0.0164518,-0.004605,-1.17138,0.0127825,0.0456536,1770,652,-0.454091,-0.204369
553,372,-0.239868,0.13855,-0.00161091,0.0111216,-0.00602455,0.0135203,-0.00400961,-1.19188,0.0106058,0.0410187,1777,652,-0.239819,-0.138551
560,372,-0.0322266,0.0906982,-0.0017363,0.00871554,-0.00385908,0.00998599,-0.00300675,-1.25276,0.00785383,0.0301414,1784,652,-0.0322318,-0.0906808
567,372,-0.00610352,0.1026,-0.00140386,0.00581829,-0.00273948,0.00673983,-0.0023254,-1.24629,0.00543673,0.0138789,1791,652,-0.00610414,-0.102581
574,372,-0.0354004,0.0991821,-0.00094182,0.00400671,-0.00115436,0.00426275,-0.00119786,-1.35253,0.00331408,0.0112631,1798,652,-0.035372,-0.0992014
581,372,-0.0527344,0.0800171,-0.000547718,0.00226996,3.87702e-06,0.00226996,-0.000547724,1.56942,0.00172511,0.013424,1805,652,-0.0527717,-0.0800188
588,372,-0.0683594,0.0720825,0.000204017,0.000981077,0.000618731,0.00132315,-0.000138058,1.06576,0.000931537,0.014455,1812,652,-0.0684034,-0.0721003
595,372,-0.0487061,0.078064,0.000948292,0.000286186,0.000635641,0.00133392,-9.94444e-05,0.545317,0.000924215,0.0126066,1819,652,-0.0486767,-0.0780933
602,372,-0.0195313,0.0774536,0.00110079,-8.17944e-05,0.000535242,0.00130706,-0.000288068,0.367843,0.000981588,0.0109686,1826,652,-0.0194712,-0.0774399
609,372,-0.0354004,0.0823364,0.00148714,-0.00029356,0.000292206,0.00153387,-0.000340283,0.158558,0.00115287,0.00987193,1833,652,-0.0353738,-0.0823453
616,372,-0.0406494,0.0831909,0.00220396,-0.000473744,-0.000257424,0.00222849,-0.000498267,-0.0949767,0.00167661,0.00946882,1840,652,-0.0406952,-0.0832091
623,372,-0.0241699,0.0864868,0.00279993,-0.000784521,-0.000528352,0.00287619,-0.000860778,-0.14334,0.00225971,0.0106947,1847,652,-0.0241667,-0.0864936
630,372,-0.0239258,0.09729,0.00335153,-0.00115865,-0.000676763,0.00345089,-0.00125801,-0.145777,0.00281523,0.0153229,1854,652,-0.0239388,-0.0972858
637,372,-0.0231934,0.088623,0.0039596,-0.0015336,-0.000686541,0.0040441,-0.0016181,-0.122471,0.00336761,0.0183212,1861,652,-0.0231958,-0.0886172
644,372,-0.0275879,0.0925293,0.00470652,-0.00212515,-0.00100902,0.00485243,-0.00227106,-0.143613,0.0042018,0.0143648,1868,652,-0.0275897,-0.0925402
651,372,0.00512695,0.141113,0.00537525,-0.00289603,-0.00115319,0.00553301,-0.0030538,-0.135967,0.00502601,0.0261581,1875,652,0.00509031,-0.14111
658,372,0.0419922,0.17334,0.00563741,-0.00381242,-0.00118609,0.00578401,-0.00395902,-0.122974,0.00565794,0.0382907,1882,652,0.0420088,-0.17335
665,372,0.442017,-0.868652,0.00538073,-0.00471078,-0.00105346,0.00548952,-0.00481958,-0.102912,0.00595615,0.0468082,1889,652,0.441989,0.868635
672,372,0.625,-1.16766,0,0,0,0,0,0,0,-1,1896,652,0.625023,1.16766
679,372,0.512207,-0.319458,0.00215458,-0.00691834,0.000361908,0.00216899,-0.00693276,0.0398045,0.00548957,0.0463677,1903,652,0.512242,0.319441
686,372,0.300293,-0.257874,-0.00151498,-0.00804401,0.00173578,-0.00108219,-0.00847679,0.244347,0.00532723,0.0456847,1910,652,0.300276,0.257867
693,372,0,0,0,0,0,0,0,0,0,-1,1917,652,0,0
700,372,0,0,0,0,0,0,0,0,0,-1,1924,652,0,0
707,372,0,0,0,0,0,0,0,0,0,-1,1931,652,0,0
714,372,0,0,0,0,0,0,0,0,0,-1,1938,652,0,0
721,372,0,0,0,0,0,0,0,0,0,-1,1945,652,0,0
728,372,0,0,0,0,0,0,0,0,0,-1,1952,652,0,0
735,372,0,0,0,0,0,0,0,0,0,-1,1959,652,0,0
742,372,0,0,0,0,0,0,0,0,0,-1,1966,652,0,0
749,372,0,0,0,0,0,0,0,0,0,-1,1973,652,0,0
756,372,0,0,0,0,0,0,0,0,0,-1,1980,652,0,0
763,372,0,0,0,0,0,0,0,0,0,-1,1987,652,0,0
770,372,0,0,0,0,0,0,0,0,0,-1,1994,652,0,0
777,372,0,0,0,0,0,0,0,0,0,-1,2001,652,0,0
784,372,0,0,0,0,0,0,0,0,0,-1,2008,652,0,0
791,372,0,0,0,0,0,0,0,0,0,-1,2015,652,0,0
798,372,0,0,0,0,0,0,0,0,0,-1,2022,652,0,0
805,372,0,0,0,0,0,0,0,0,0,-1,2029,652,0,0
812,372,0,0,0,0,0,0,0,0,0,-1,2036,652,0,0
-700,365,0,0,0,0,0,0,0,0,0,-1,524,659,0,0
-693,365,0,0,0,0,0,0,0,0,0,-1,531,659,0,0
-686,365,0,0,0,0,0,0,0,0,0,-1,538,659,0,0
-679,365,0,0,0,0,0,0,0,0,0,-1,545,659,0,0
-672,365,0,0,0,0,0,0,0,0,0,-1,552,659,0,0
-665,365,0,0,0,0,0,0,0,0,0,-1,559,659,0,0
-658,365,0,0,0,0,0,0,0,0,0,-1,566,659,0,0
-651,365,0,0,0,0,0,0,0,0,0,-1,573,659,0,0
-644,365,0,0,0,0,0,0,0,0,0,-1,580,659,0,0
-637,365,0,0,0,0,0,0,0,0,0,-1,587,659,0,0
-630,365,0,0,0,0,0,0,0,0,0,-1,594,659,0,0
-623,365,0,0,0,0,0,0,0,0,0,-1,601,659,0,0
-616,365,0,0,0,0,0,0,0,0,0,-1,608,659,0,0
-609,365,0,0,0,0,0,0,0,0,0,-1,615,659,0,0
-602,365,0,0,0,0,0,0,0,0,0,-1,622,659,0,0
-595,365,0,0,0,0,0,0,0,0,0,-1,629,659,0,0
-588,365,0,0,0,0,0,0,0,0,0,-1,636,659,0,0
-581,365,0,0,0,0,0,0,0,0,0,-1,643,659,0,0
-574,365,-0.452881,1.45081,0.00213569,-0.0200258,-0.00727335,0.00430956,-0.0221996,-0.290429,0.0164258,0.0415184,650,659,-0.452878,-1.45078
-567,365,-0.171509,1.57623,0.00388106,-0.014857,-0.00466892,0.00497996,-0.0159559,-0.231158,0.0126289,0.0420019,657,659,-0.171498,-1.57625
-560,365,-0.473816,0.0141602,0,0,0,0,0,0,0,-1,664,659,-0.473798,-0.0141888
-553,365,-0.264282,-0.191101,0.00349426,-0.00835713,-0.000406429,0.00350818,-0.00837105,-0.0342402,0.00704743,0.0449386,671,659,-0.264252,0.191096
-546,365,-0.394958,-0.358398,0.00264594,-0.00628922,0.00107363,0.00277313,-0.00641641,0.117922,0.0054428,0.0427041,678,659,-0.39496,0.358412
-539,365,-0.296326,-0.293945,0.00172602,-0.00473406,0.00208548,0.00234077,-0.0053488,0.286656,0.00455139,0.0420348,685,659,-0.296347,0.293951
-532,365,-0.0917969,0.237549,0.00114902,-0.003228,0.00263977,0.0023895,-0.00446848,0.439294,0.00401964,0.0434936,692,659,-0.0917827,-0.237554
-525,365,0.189331,0.411316,0.000398676,-0.00224021,0.00291078,0.0022751,-0.00411663,0.572603,0.00374097,0.0344284,699,659,0.189329,-0.411327
-518,365,-0.0239258,0.0919189,-0.000459651,-0.00185791,0.00297225,0.00189459,-0.00421215,0.669888,0.00360937,0.0195196,706,659,-0.0239115,-0.0919192
-511,365,-0.0198364,0.0583496,-0.0010897,-0.00134088,0.00299021,0.00177756,-0.00420814,0.76441,0.00354955,0.0149251,713,659,-0.0198218,-0.0583777
-504,365,-0.0254517,0.0552979,-0.00125396,-0.0013792,0.00264143,0.00132559,-0.00395875,0.773546,0.00317466,0.0109351,720,659,-0.0254607,-0.0553214
-497,365,-0.0360107,0.0701904,-0.00112509,-0.00103604,0.00212701,0.00104691,-0.00320804,0.795863,0.00256004,0.0116662,727,659,-0.0359994,-0.0701862
-490,365,-0.0296631,0.0718384,-0.00107305,-0.000731757,0.00131423,0.000422861,-0.00222767,0.84996,0.00164429,0.0127279,734,659,-0.029648,-0.0718169
-483,365,-0.0297852,0.074585,-0.000873281,-0.000554339,0.000627942,-6.59348e-05,-0.00136169,0.909748,0.00088663,0.0114985,741,659,-0.0298087,-0.0745582
-476,365,-0.0198364,0.0846558,-0.000645304,-0.00057634,-0.000229584,-0.000378663,-0.000842981,-0.859938,0.000487532,0.0112871,748,659,-0.0198211,-0.0846552
-469,365,-0.0239868,0.081665,-0.00050447,-0.000326785,-0.00125146,0.000838982,-0.00167024,-0.820834,0.00147496,0.0107464,755,659,-0.0240033,-0.081652
-462,365,-0.019104,0.0983276,-0.000274018,-0.00061894,-0.00192198,0.00148322,-0.00237618,-0.740653,0.00224802,0.0118797,762,659,-0.0191134,-0.0983212
-455,365,-0.0124512,0.105286,-0.000353502,-0.000493829,-0.00283423,0.00241143,-0.00325876,-0.773023,0.00328585,0.0122427,769,659,-0.012451,-0.105296
-448,365,-0.0212402,0.0950317,0.00128664,-0.00110584,-0.00384509,0.00411727,-0.00393648,-0.63459,0.00465022,0.00949024,776,659,-0.0212309,-0.0950066
-441,365,-0.0443115,0.0744629,0.0047005,-0.00167029,-0.00537502,0.00776311,-0.00473289,-0.517907,0.00728494,0.0195801,783,659,-0.0443262,-0.0744764
-434,365,-0.06073,0.0552979,0.00832734,-0.0019499,-0.00632759,0.01134,-0.00496259,-0.444361,0.0096494,0.0347622,790,659,-0.0607415,-0.0552957
-427,365,-0.0983276,0.0421143,0.0135714,-0.00164759,-0.00587462,0.0155752,-0.00365139,-0.328719,0.0117906,0.0401471,797,659,-0.0983256,-0.0421242
-420,365,-0.285645,-0.164795,0.02078,-0.00205385,-0.00600877,0.0222647,-0.00353854,-0.242234,0.0161524,0.0444844,804,659,-0.28562,0.164785
-413,365,-0.45752,-0.0395508,0.0289077,-0.00265674,-0.00596996,0.0299991,-0.00374813,-0.180818,0.0213587,0.0477129,811,659,-0.457505,0.0395762
-406,365,-0.996643,-0.0961914,0,0,0,0,0,0,0,-1,818,659,-0.996653,0.0961758
-399,365,0.220276,-0.0186768,0,0,0,0,0,0,0,-1,825,659,0.220297,0.0186713
-392,365,1.78717,-0.582275,0,0,0,0,0,0,0,-1,832,659,1.78717,0.582274
-385,365,-1.11292,-0.68689,0,0,0,0,0,0,0,-1,839,659,-1.11292,0.686917
-378,365,-1.02423,0.455872,0,0,0,0,0,0,0,-1,846,659,-1.02424,-0.45585
-371,365,0,0,0,0,0,0,0,0,0,-1,853,659,0,0
-364,365,0,0,0,0,0,0,0,0,0,-1,860,659,0,0
-357,365,0,0,0,0,0,0,0,0,0,-1,867,659,0,0
-350,365,0,0,0,0,0,0,0,0,0,-1,874,659,0,0
-343,365,0,0,0,0,0,0,0,0,0,-1,881,659,0,0
-336,365,0,0,0,0,0,0,0,0,0,-1,888,659,0,0
-329,365,0,0,0,0,0,0,0,0,0,-1,895,659,0,0
-322,365,0,0,0,0,0,0,0,0,0,-1,902,659,0,0
-315,365,0,0,0,0,0,0,0,0,0,-1,909,659,0,0
-308,365,0,0,0,0,0,0,0,0,0,-1,916,659,0,0
-301,365,0,0,0,0,0,0,0,0,0,-1,923,659,0,0
-294,365,0,0,0,0,0,0,0,0,0,-1,930,659,0,0
-287,365,0,0,0,0,0,0,0,0,0,-1,937,659,0,0
-280,365,0,0,0,0,0,0,0,0,0,-1,944,659,0,0
-273,365,0,0,0,0,0,0,0,0,0,-1,951,659,0,0
-266,365,0,0,0,0,0,0,0,0,0,-1,958,659,0,0
-259,365,0,0,0,0,0,0,0,0,0,-1,965,659,0,0
-252,365,0,0,0,0,0,0,0,0,0,-1,972,659,0,0
-245,365,0,0,0,0,0,0,0,0,0,-1,979,659,0,0
-238,365,0,0,0,0,0,0,0,0,0,-1,986,659,0,0
-231,365,0,0,0,0,0,0,0,0,0,-1,993,659,0,0
-224,365,0,0,0,0,0,0,0,0,0,-1,1000,659,0,0
-217,365,0,0,0,0,0,0,0,0,0,-1,1007,659,0,0
-210,365,0,0,0,0,0,0,0,0,0,-1,1014,659,0,0
-203,365,0,0,0,0,0,0,0,0,0,-1,1021,659,0,0
-196,365,0,0,0,0,0,0,0,0,0,-1,1028,659,0,0
-189,365,0,0,0,0,0,0,0,0,0,-1,1035,659,0,0
-182,365,0,0,0,0,0,0,0,0,0,-1,1042,659,0,0
-175,365,0,0,0,0,0,0,0,0,0,-1,1049,659,0,0
-168,365,0,0,0,0,0,0,0,0,0,-1,1056,659,0,0
-161,365,0,0,0,0,0,0,0,0,0,-1,1063,659,0,0
-154,365,0,0,0,0,0,0,0,0,0,-1,1070,659,0,0
-147,365,0,0,0,0,0,0,0,0,0,-1,1077,659,0,0
-140,365,0,0,0,0,0,0,0,0,0,-1,1084,659,0,0
-133,365,0,0,0,0,0,0,0,0,0,-1,1091,659,0,0
-126,365,0,0,0,0,0,0,0,0,0,-1,1098,659,0,0
-119,365,0,0,0,0,0,0,0,0,0,-1,1105,659,0,0
-112,365,0,0,0,0,0,0,0,0,0,-1,1112,659,0,0
-105,365,0,0,0,0,0,0,0,0,0,-1,1119,659,0,0
-98,365,0,0,0,0,0,0,0,0,0,-1,1126,659,0,0
-91,365,0,0,0,0,0,0,0,0,0,-1,1133,659,0,0
-84,365,0,0,0,0,0,0,0,0,0,-1,1140,659,0,0
-77,365,0,0,0,0,0,0,0,0,0,-1,1147,659,0,0
-70,365,0,0,0,0,0,0,0,0,0,-1,1154,659,0,0
-63,365,0,0,0,0,0,0,0,0,0,-1,1161,659,0,0
-56,365,0,0,0,0,0,0,0,0,0,-1,1168,659,0,0
-49,365,0,0,0,0,0,0,0,0,0,-1,1175,659,0,0
-42,365,0,0,0,0,0,0,0,0,0,-1,1182,659,0,0
-35,365,0,0,0,0,0,0,0,0,0,-1,1189,659,0,0
-28,365,0,0,0,0,0,0,0,0,0,-1,1196,659,0,0
-21,365,0,0,0,0,0,0,0,0,0,-1,1203,659,0,0
-14,365,0,0,0,0,0,0,0,0,0,-1,1210,659,0,0
-7,365,0,0,0,0,0,0,0,0,0,-1,1217,659,0,0
0,365,0,0,0,0,0,0,0,0,0,-1,1224,659,0,0
7,365,0,0,0,0,0,0,0,0,0,-1,1231,659,0,0
14,365,0,0,0,0,0,0,0,0,0,-1,1238,659,0,0
21,365,0,0,0,0,0,0,0,0,0,-1,1245,659,0,0
28,365,0,0,0,0,0,0,0,0,0,-1,1252,659,0,0
35,365,0,0,0,0,0,0,0,0,0,-1,1259,659,0,0
42,365,0,0,0,0,0,0,0,0,0,-1,1266,659,0,0
49,365,0,0,0,0,0,0,0,0,0,-1,1273,659,0,0
56,365,0,0,0,0,0,0,0,0,0,-1,1280,659,0,0
63,365,0,0,0,0,0,0,0,0,0,-1,1287,659,0,0
70,365,0,0,0,0,0,0,0,0,0,-1,1294,659,0,0
77,365,0,0,0,0,0,0,0,0,0,-1,1301,659,0,0
84,365,0,0,0,0,0,0,0,0,0,-1,1308,659,0,0
91,365,0,0,0,0,0,0,0,0,0,-1,1315,659,0,0
98,365,0,0,0,0,0,0,0,0,0,-1,1322,659,0,0
105,365,0,0,0,0,0,0,0,0,0,-1,1329,659,0,0
112,365,0,0,0,0,0,0,0,0,0,-1,1336,659,0,0
119,365,0,0,0,0,0,0,0,0,0,-1,1343,659,0,0
126,365,0,0,0,0,0,0,0,0,0,-1,1350,659,0,0
133,365,0,0,0,0,0,0,0,0,0,-1,1357,659,0,0
140,365,0,0,0,0,0,0,0,0,0,-1,1364,659,0,0
147,365,0,0,0,0,0,0,0,0,0,-1,1371,659,0,0
154,365,0,0,0,0,0,0,0,0,0,-1,1378,659,0,0
161,365,0,0,0,0,0,0,0,0,0,-1,1385,659,0,0
168,365,0,0,0,0,0,0,0,0,0,-1,1392,659,0,0
175,365,0,0,0,0,0,0,0,0,0,-1,1399,659,0,0
182,365,0,0,0,0,0,0,0,0,0,-1,1406,659,0,0
189,365,0,0,0,0,0,0,0,0,0,-1,1413,659,0,0
196,365,0,0,0,0,0,0,0,0,0,-1,1420,659,0,0
203,365,0,0,0,0,0,0,0,0,0,-1,1427,659,0,0
210,365,0,0,0,0,0,0,0,0,0,-1,1434,659,0,0
217,365,0,0,0,0,0,0,0,0,0,-1,1441,659,0,0
224,365,0,0,0,0,0,0,0,0,0,-1,1448,659,0,0
231,365,0,0,0,0,0,0,0,0,0,-1,1455,659,0,0
238,365,0,0,0,0,0,0,0,0,0,-1,1462,659,0,0
245,365,0,0,0,0,0,0,0,0,0,-1,1469,659,0,0
252,365,0,0,0,0,0,0,0,0,0,-1,1476,659,0,0
259,365,0,0,0,0,0,0,0,0,0,-1,1483,659,0,0
266,365,0,0,0,0,0,0,0,0,0,-1,1490,659,0,0
273,365,0,0,0,0,0,0,0,0,0,-1,1497,659,0,0
280,365,0,0,0,0,0,0,0,0,0,-1,1504,659,0,0
287,365,0,0,0,0,0,0,0,0,0,-1,1511,659,0,0
294,365,0,0,0,0,0,0,0,0,0,-1,1518,659,0,0
301,365,0,0,0,0,0,0,0,0,0,-1,1525,659,0,0
308,365,0,0,0,0,0,0,0,0,0,-1,1532,659,0,0
315,365,0,0,0,0,0,0,0,0,0,-1,1539,659,0,0
322,365,0,0,0,0,0,0,0,0,0,-1,1546,659,0,0
329,365,0,0,0,0,0,0,0,0,0,-1,1553,659,0,0
336,365,0,0,0,0,0,0,0,0,0,-1,1560,659,0,0
343,365,0,0,0,0,0,0,0,0,0,-1,1567,659,0,0
350,365,0,0,0,0,0,0,0,0,0,-1,1574,659,0,0
357,365,0,0,0,0,0,0,0,0,0,-1,1581,659,0,0
364,365,0,0,0,0,0,0,0,0,0,-1,1588,659,0,0
371,365,0,0,0,0,0,0,0,0,0,-1,1595,659,0,0
378,365,0,0,0,0,0,0,0,0,0,-1,1602,659,0,0
385,365,0,0,0,0,0,0,0,0,0,-1,1609,659,0,0
392,365,0,0,0,0,0,0,0,0,0,-1,1616,659,0,0
399,365,0,0,0,0,0,0,0,0,0,-1,1623,659,0,0
406,365,0,0,0,0,0,0,0,0,0,-1,1630,659,0,0
413,365,0,0,0,0,0,0,0,0,0,-1,1637,659,0,0
420,365,0,0,0,0,0,0,0,0,0,-1,1644,659,0,0
427,365,0,0,0,0,0,0,0,0,0,-1,1651,659,0,0
434,365,0,0,0,0,0,0,0,0,0,-1,1658,659,0,0
441,365,0,0,0,0,0,0,0,0,0,-1,1665,659,0,0
448,365,0,0,0,0,0,0,0,0,0,-1,1672,659,0,0
455,365,0,0,0,0,0,0,0,0,0,-1,1679,659,0,0
462,365,0,0,0,0,0,0,0,0,0,-1,1686,659,0,0
469,365,0,0,0,0,0,0,0,0,0,-1,1693,659,0,0
476,365,0,0,0,0,0,0,0,0,0,-1,1700,659,0,0
483,365,0,0,0,0,0,0,0,0,0,-1,1707,659,0,0
490,365,0.554321,-0.0826416,0.0192519,0.0184091,-0.00719621,0.026039,0.011622,-0.756149,0.0150625,0.0444773,1714,659,0.554279,0.0826285
497,365,0.474609,0.863159,0.0138429,0.0208539,-0.00983591,0.0277903,0.0069065,-0.95658,0.0167075,0.0457137,1721,659,0.474587,-0.863167
504,365,1.2345,0.895203,0,0,0,0,0,0,0,-1,1728,659,1.23445,-0.895209
511,365,0.991211,0.275208,0.00561076,0.0233893,-0.0129487,0.0302063,-0.00120625,-1.0862,0.0205514,0.0479448,1735,659,0.991227,-0.275189
518,365,0.546387,0.467651,0.00253571,0.0231315,-0.0134164,0.0297465,-0.00407931,-1.11272,0.0213213,0.0428106,1742,659,0.546393,-0.467645
525,365,0.391235,0.21698,-3.78437e-05,0.0219625,-0.0129539,0.0279566,-0.00603199,-1.13741,0.02094,0.0443924,1749,659,0.39124,-0.216954
532,365,0.532715,-0.217773,-0.00206174,0.0202215,-0.0114868,0.0250825,-0.00692266,-1.17047,0.0194444,0.0441108,1756,659,0.532703,0.217791
539,365,0.0472412,-0.381775,-0.00288066,0.0179754,-0.00966782,0.0217675,-0.00667269,-1.197,0.0171736,0.0444125,1763,659,0.0472782,0.381775
546,365,-0.510864,0.144653,-0.00299863,0.0151435,-0.0081147,0.0182434,-0.00609855,-1.20589,0.0146253,0.0475905,1770,659,-0.510861,-0.144665
553,365,0.0976563,-0.21283,-0.00310926,0.0127326,-0.00636461,0.0149728,-0.0053495,-1.23235,0.0121637,0.0439399,1777,659,0.0976125,0.212842
560,365,-0.172852,0.159912,-0.00299159,0.00985929,-0.00404881,0.0110285,-0.00416083,-1.28966,0.00906345,0.041488,1784,659,-0.172818,-0.159894
567,365,-0.118286,0.175659,-0.00229788,0.00663709,-0.00273384,0.00740719,-0.00306798,-1.29622,0.00621839,0.0345721,1791,659,-0.118275,-0.175642
574,365,-0.0275879,0.0932007,-0.0014819,0.00453246,-0.00105354,0.00471167,-0.00166111,-1.40231,0.00381725,0.0188225,1798,659,-0.027554,-0.093185
581,365,-0.0476074,0.0784302,-0.000942452,0.00255929,0.000215423,0.0025725,-0.000955654,1.50959,0.00210707,0.0118657,1805,659,-0.0475644,-0.0784381
588,365,-0.0639648,0.0773926,-2.99679e-05,0.00106767,0.000842273,0.00152415,-0.000486449,1.07414,0.00121126,0.010419,1812,659,-0.0639721,-0.0774083
595,365,-0.052002,0.0917969,0.000857106,0.000238542,0.000775363,0.0013826,-0.000286948,0.595625,0.00103078,0.0108296,1819,659,-0.051947,-0.0917894
602,365,-0.0328369,0.0855103,0.0010125,-0.000182059,0.00060616,0.0012662,-0.000435764,0.39639,0.00102088,0.0106863,1826,659,-0.0327955,-0.0855251
609,365,-0.0413818,0.0842896,0.00131536,-0.000430065,0.000311908,0.00136943,-0.000484128,0.171626,0.00111009,0.0098822,1833,659,-0.0413886,-0.0842706
616,365,-0.0283203,0.0791626,0.00194561,-0.000576175,-0.000248663,0.0019699,-0.00060046,-0.0973564,0.00155262,0.0103346,1840,659,-0.0283797,-0.0791669
623,365,-0.0241699,0.067749,0.00241523,-0.000877869,-0.000522348,0.0024961,-0.000958737,-0.153598,0.00205943,0.00972162,1847,659,-0.0242012,-0.0677625
630,365,-0.0299072,0.0897827,0.00286626,-0.00122163,-0.000663951,0.00297139,-0.00132676,-0.157043,0.00254137,0.0141878,1854,659,-0.0298469,-0.0898104
637,365,-0.0388184,0.0790405,0.00340175,-0.00157817,-0.000661635,0.00348816,-0.00166458,-0.12986,0.0030364,0.0184583,1861,659,-0.0388784,-0.0790197
644,365,-0.0349121,0.0726929,0.00410841,-0.00217876,-0.000965055,0.00425321,-0.00232356,-0.148929,0.00385119,0.0131351,1868,659,-0.0348691,-0.0726719
651,365,-0.0147705,0.0973511,0.00483069,-0.00297074,-0.00105658,0.00497125,-0.00311131,-0.132261,0.00470747,0.016647,1875,659,-0.0148313,-0.0973718
658,365,-0.02771,0.0791016,0.00528568,-0.00392412,-0.00106058,0.00540624,-0.00404468,-0.113184,0.00547533,0.0323716,1882,659,-0.027711,-0.0791163
665,365,0.242065,-0.689148,0.00540515,-0.00480672,-0.000937269,0.00549046,-0.00489203,-0.0907718,0.00599765,0.0463134,1889,659,0.242009,0.689151
672,365,0.0239258,-0.372437,0,0,0,0,0,0,0,-1,1896,659,0.0239696,0.372414
679,365,0.0804443,-0.281494,0.00367859,-0.00684047,0.000184941,0.00368184,-0.00684372,0.0175743,0.00616766,0.0458697,1903,659,0.0804767,0.281521
686,365,-0.179199,-0.273254,0.00143443,-0.00781724,0.00120309,0.00158832,-0.00797113,0.127222,0.00591504,0.0412795,1910,659,-0.179247,0.273277
693,365,-0.410278,-0.266785,0,0,0,0,0,0,0,-1,1917,659,-0.410291,0.266777
700,365,0,0,0,0,0,0,0,0,0,-1,1924,659,0,0
707,365,0,0,0,0,0,0,0,0,0,-1,1931,659,0,0
714,365,0,0,0,0,0,0,0,0,0,-1,1938,659,0,0
721,365,0,0,0,0,0,0,0,0,0,-1,1945,659,0,0
728,365,0,0,0,0,0,0,0,0,0,-1,1952,659,0,0
735,365,0,0,0,0,0,0,0,0,0,-1,1959,659,0,0
742,365,0,0,0,0,0,0,0,0,0,-1,1966,659,0,0
749,365,0,0,0,0,0,0,0,0,0,-1,1973,659,0,0
756,365,0,0,0,0,0,0,0,0,0,-1,1980,659,0,0
763,365,0,0,0,0,0,0,0,0,0,-1,1987,659,0,0
770,365,0,0,0,0,0,0,0,0,0,-1,1994,659,0,0
777,365,0,0,0,0,0,0,0,0,0,-1,2001,659,0,0
784,365,0,0,0,0,0,0,0,0,0,-1,2008,659,0,0
791,365,0,0,0,0,0,0,0,0,0,-1,2015,659,0,0
798,365,0,0,0,0,0,0,0,0,0,-1,2022,659,0,0
805,365,0,0,0,0,0,0,0,0,0,-1,2029,659,0,0
812,365,0,0,0,0,0,0,0,0,0,-1,2036,659,0,0
-700,358,0,0,0,0,0,0,0,0,0,-1,524,666,0,0
-693,358,0,0,0,0,0,0,0,0,0,-1,531,666,0,0
-686,358,0,0,0,0,0,0,0,0,0,-1,538,666,0,0
-679,358,0,0,0,0,0,0,0,0,0,-1,545,666,0,0
-672,358,0,0,0,0,0,0,0,0,0,-1,552,666,0,0
-665,358,0,0,0,0,0,0,0,0,0,-1,559,666,0,0
-658,358,0,0,0,0,0,0,0,0,0,-1,566,666,0,0
-651,358,0,0,0,0,0,0,0,0,0,-1,573,666,0,0
-644,358,0,0,0,0,0,0,0,0,0,-1,580,666,0,0
-637,358,0,0,0,0,0,0,0,0,0,-1,587,666,0,0
-630,358,0,0,0,0,0,0,0,0,0,-1,594,666,0,0
-623,358,0,0,0,0,0,0,0,0,0,-1,601,666,0,0
-616,358,0,0,0,0,0,0,0,0,0,-1,608,666,0,0
-609,358,0,0,0,0,0,0,0,0,0,-1,615,666,0,0
-602,358,0,0,0,0,0,0,0,0,0,-1,622,666,0,0
-595,358,0,0,0,0,0,0,0,0,0,-1,629,666,0,0
-588,358,0,0,0,0,0,0,0,0,0,-1,636,666,0,0
-581,358,-0.236938,1.25128,-0.00309479,-0.0201033,-0.019684,0.00984349,-0.0330415,-0.58149,0.0259391,0.044188,643,666,-0.236926,-1.25127
-574,358,-0.109253,1.35175,-6.0587e-05,-0.0153025,-0.0145022,0.00870117,-0.0240643,-0.543477,0.0195981,0.042117,650,666,-0.109241,-1.35177
-567,358,-0.0870972,1.42834,0.0018327,-0.0113743,-0.0103579,0.00751301,-0.0170546,-0.501618,0.0145363,0.0440392,657,666,-0.0870977,-1.42835
-560,358,-0.148804,0.155273,0,0,0,0,0,0,0,-1,664,666,-0.148787,-0.155283
-553,358,-0.310425,-0.136963,0.00273904,-0.00630258,-0.00420736,0.00439396,-0.0079575,-0.374751,0.00722937,0.0443161,671,666,-0.310455,0.13695
-546,358,-0.412964,-0.17804,0.00246573,-0.00468637,-0.0020857,0.00302952,-0.00525016,-0.264003,0.00483725,0.0427107,678,666,-0.412978,0.178011
-539,358,-0.278198,-0.0736694,0.00199221,-0.0034302,-0.000566761,0.00205081,-0.00348881,-0.103038,0.00323402,0.0427967,685,666,-0.278206,0.0736926
-532,358,-0.0117188,0.117432,0.00178047,-0.00211691,0.000407177,0.00182256,-0.00215899,0.102993,0.00230148,0.0401955,692,666,-0.0117289,-0.11742
-525,358,-0.0270996,0.0582275,0.00128061,-0.00129268,0.000991424,0.00161827,-0.00163034,0.328262,0.00187559,0.0246166,699,666,-0.0270761,-0.0581994
-518,358,-0.0272827,0.0786743,0.000553973,-0.00105485,0.00139663,0.00136129,-0.00186216,0.524119,0.00186853,0.0172361,706,666,-0.0272591,-0.0786743
-511,358,-0.0274048,0.0744629,-4.06506e-05,-0.000819251,0.00170044,0.00131449,-0.00217439,0.672867,0.00203459,0.0138643,713,666,-0.0274279,-0.0744879
-504,358,-0.0258179,0.0817871,-0.000264293,-0.00109119,0.00164935,0.00102264,-0.00237812,0.662592,0.00201474,0.0102844,720,666,-0.0258478,-0.0817759
-497,358,-0.0278931,0.0740967,-0.000256926,-0.000865575,0.0013581,0.000830526,-0.00195303,0.675178,0.00165007,0.0100769,727,666,-0.0278937,-0.0740844
-490,358,-0.020752,0.0770874,-0.000307635,-0.000688664,0.000725493,0.000251941,-0.00124824,0.656997,0.000927616,0.0098168,734,666,-0.0207315,-0.0771138
-483,358,-0.0293579,0.0838013,-0.000176549,-0.000643455,8.20107e-05,-0.000162563,-0.000657441,0.168914,0.000395407,0.00961099,741,666,-0.0293873,-0.0837871
-476,358,-0.0219727,0.0882568,-1.28548e-05,-0.000791076,-0.000796944,0.000484898,-0.00128883,-0.558295,0.00105854,0.0104694,748,666,-0.0219639,-0.0882718
-469,358,-0.0196533,0.0854492,1.02398e-05,-0.000723701,-0.00191185,0.00159002,-0.00230348,-0.690579,0.00226046,0.011958,755,666,-0.0196616,-0.0854411
-462,358,0.00592041,0.100891,0.000200046,-0.00124333,-0.00270172,0.00227481,-0.00331809,-0.654885,0.00324774,0.0154097,762,666,0.00594443,-0.100882
-455,358,0.00720215,0.107666,7.53098e-05,-0.0013689,-0.00381989,0.00324075,-0.00453434,-0.691982,0.00450961,0.0143877,769,666,0.00721737,-0.107647
-448,358,-0.0254517,0.0752563,0.00176549,-0.00228454,-0.00508463,0.00521351,-0.00573256,-0.595895,0.00632209,0.0192091,776,666,-0.0254527,-0.0752293
-441,358,-0.136719,-0.0655518,0.0053239,-0.00325502,-0.00691573,0.00917243,-0.00710355,-0.507811,0.00942221,0.035428,783,666,-0.13672,0.0655812
-434,358,-0.103577,-0.150269,0.00918713,-0.00406341,-0.00827362,0.0131613,-0.00803753,-0.447793,0.0123577,0.0393349,790,666,-0.103591,0.150291
-427,358,0.0214233,-0.305786,0.0148397,-0.00447068,-0.00837908,0.0179686,-0.00759952,-0.357378,0.015161,0.0390839,797,666,0.0214331,0.305812
-420,358,0.0148315,-0.751648,0.0228539,-0.00562538,-0.00898687,0.0254527,-0.00822412,-0.281492,0.0202737,0.0406534,804,666,0.0148107,0.751626
-413,358,-0.962646,0.282227,0,0,0,0,0,0,0,-1,811,666,-0.962632,-0.282242
-406,358,-0.123657,0.410461,0,0,0,0,0,0,0,-1,818,666,-0.123661,-0.410468
-399,358,0.779846,0.424316,0.0583566,-0.00949538,-0.00836527,0.0593727,-0.0105115,-0.120876,0.0435109,0.0428173,825,666,0.779843,-0.424331
-392,358,1.31226,0.429077,0.0724661,-0.0104781,-0.00720989,0.0730882,-0.0111002,-0.0860644,0.0528158,0.0455038,832,666,1.31224,-0.4291
-385,358,1.69366,0.449219,0,0,0,0,0,0,0,-1,839,666,1.69369,-0.449189
-378,358,0,0,0,0,0,0,0,0,0,-1,846,666,0,0
-371,358,0,0,0,0,0,0,0,0,0,-1,853,666,0,0
-364,358,0,0,0,0,0,0,0,0,0,-1,860,666,0,0
-357,358,0,0,0,0,0,0,0,0,0,-1,867,666,0,0
-350,358,0,0,0,0,0,0,0,0,0,-1,874,666,0,0
-343,358,0,0,0,0,0,0,0,0,0,-1,881,666,0,0
-336,358,0,0,0,0,0,0,0,0,0,-1,888,666,0,0
-329,358,0,0,0,0,0,0,0,0,0,-1,895,666,0,0
-322,358,0,0,0,0,0,0,0,0,0,-1,902,666,0,0
-315,358,0,0,0,0,0,0,0,0,0,-1,909,666,0,0
-308,358,0,0,0,0,0,0,0,0,0,-1,916,666,0,0
-301,358,0,0,0,0,0,0,0,0,0,-1,923,666,0,0
-294,358,0,0,0,0,0,0,0,0,0,-1,930,666,0,0
-287,358,0,0,0,0,0,0,0,0,0,-1,937,666,0,0
-280,358,0,0,0,0,0,0,0,0,0,-1,944,666,0,0
-273,358,0,0,0,0,0,0,0,0,0,-1,951,666,0,0
-266,358,0,0,0,0,0,0,0,0,0,-1,958,666,0,0
-259,358,0,0,0,0,0,0,0,0,0,-1,965,666,0,0
-252,358,0,0,0,0,0,0,0,0,0,-1,972,666,0,0
-245,358,0,0,0,0,0,0,0,0,0,-1,979,666,0,0
-238,358,0,0,0,0,0,0,0,0,0,-1,986,666,0,0
-231,358,0,0,0,0,0,0,0,0,0,-1,993,666,0,0
-224,358,0,0,0,0,0,0,0,0,0,-1,1000,666,0,0
-217,358,0,0,0,0,0,0,0,0,0,-1,1007,666,0,0
-210,358,0,0,0,0,0,0,0,0,0,-1,1014,666,0,0
-203,358,0,0,0,0,0,0,0,0,0,-1,1021,666,0,0
-196,358,0,0,0,0,0,0,0,0,0,-1,1028,666,0,0
-189,358,0,0,0,0,0,0,0,0,0,-1,1035,666,0,0
-182,358,0,0,0,0,0,0,0,0,0,-1,1042,666,0,0
-175,358,0,0,0,0,0,0,0,0,0,-1,1049,666,0,0
-168,358,0,0,0,0,0,0,0,0,0,-1,1056,666,0,0
-161,358,0,0,0,0,0,0,0,0,0,-1,1063,666,0,0
-154,358,0,0,0,0,0,0,0,0,0,-1,1070,666,0,0
-147,358,0,0,0,0,0,0,0,0,0,-1,1077,666,0,0
-140,358,0,0,0,0,0,0,0,0,0,-1,1084,666,0,0
-133,358,0,0,0,0,0,0,0,0,0,-1,1091,666,0,0
-126,358,0,0,0,0,0,0,0,0,0,-1,1098,666,0,0
-119,358,0,0,0,0,0,0,0,0,0,-1,1105,666,0,0
-112,358,0,0,0,0,0,0,0,0,0,-1,1112,666,0,0
-105,358,0,0,0,0,0,0,0,0,0,-1,1119,666,0,0
-98,358,0,0,0,0,0,0,0,0,0,-1,1126,666,0,0
-91,358,0,0,0,0,0,0,0,0,0,-1,1133,666,0,0
-84,358,0,0,0,0,0,0,0,0,0,-1,1140,666,0,0
-77,358,0,0,0,0,0,0,0,0,0,-1,1147,666,0,0
-70,358,0,0,0,0,0,0,0,0,0,-1,1154,666,0,0
-63,358,0,0,0,0,0,0,0,0,0,-1,1161,666,0,0
-56,358,0,0,0,0,0,0,0,0,0,-1,1168,666,0,0
-49,358,0,0,0,0,0,0,0,0,0,-1,1175,666,0,0
-42,358,0,0,0,0,0,0,0,0,0,-1,1182,666,0,0
-35,358,0,0,0,0,0,0,0,0,0,-1,1189,666,0,0
-28,358,0,0,0,0,0,0,0,0,0,-1,1196,666,0,0
-21,358,0,0,0,0,0,0,0,0,0,-1,1203,666,0,0
-14,358,0,0,0,0,0,0,0,0,0,-1,1210,666,0,0
-7,358,0,0,0,0,0,0,0,0,0,-1,1217,666,0,0
0,358,0,0,0,0,0,0,0,0,0,-1,1224,666,0,0
7,358,0,0,0,0,0,0,0,0,0,-1,1231,666,0,0
14,358,0,0,0,0,0,0,0,0,0,-1,1238,666,0,0
21,358,0,0,0,0,0,0,0,0,0,-1,1245,666,0,0
28,358,0,0,0,0,0,0,0,0,0,-1,1252,666,0,0
35,358,0,0,0,0,0,0,0,0,0,-1,1259,666,0,0
42,358,0,0,0,0,0,0,0,0,0,-1,1266,666,0,0
49,358,0,0,0,0,0,0,0,0,0,-1,1273,666,0,0
56,358,0,0,0,0,0,0,0,0,0,-1,1280,666,0,0
63,358,0,0,0,0,0,0,0,0,0,-1,1287,666,0,0
70,358,0,0,0,0,0,0,0,0,0,-1,1294,666,0,0
77,358,0,0,0,0,0,0,0,0,0,-1,1301,666,0,0
84,358,0,0,0,0,0,0,0,0,0,-1,1308,666,0,0
91,358,0,0,0,0,0,0,0,0,0,-1,1315,666,0,0
98,358,0,0,0,0,0,0,0,0,0,-1,1322,666,0,0
105,358,0,0,0,0,0,0,0,0,0,-1,1329,666,0,0
112,358,0,0,0,0,0,0,0,0,0,-1,1336,666,0,0
119,358,0,0,0,0,0,0,0,0,0,-1,1343,666,0,0
126,358,0,0,0,0,0,0,0,0,0,-1,1350,666,0,0
133,358,0,0,0,0,0,0,0,0,0,-1,1357,666,0,0
140,358,0,0,0,0,0,0,0,0,0,-1,1364,666,0,0
147,358,0,0,0,0,0,0,0,0,0,-1,1371,666,0,0
154,358,0,0,0,0,0,0,0,0,0,-1,1378,666,0,0
161,358,0,0,0,0,0,0,0,0,0,-1,1385,666,0,0
168,358,0,0,0,0,0,0,0,0,0,-1,1392,666,0,0
175,358,0,0,0,0,0,0,0,0,0,-1,1399,666,0,0
182,358,0,0,0,0,0,0,0,0,0,-1,1406,666,0,0
189,358,0,0,0,0,0,0,0,0,0,-1,1413,666,0,0
196,358,0,0,0,0,0,0,0,0,0,-1,1420,666,0,0
203,358,0,0,0,0,0,0,0,0,0,-1,1427,666,0,0
210,358,0,0,0,0,0,0,0,0,0,-1,1434,666,0,0
217,358,0,0,0,0,0,0,0,0,0,-1,1441,666,0,0
224,358,0,0,0,0,0,0,0,0,0,-1,1448,666,0,0
231,358,0,0,0,0,0,0,0,0,0,-1,1455,666,0,0
238,358,0,0,0,0,0,0,0,0,0,-1,1462,666,0,0
245,358,0,0,0,0,0,0,0,0,0,-1,1469,666,0,0
252,358,0,0,0,0,0,0,0,0,0,-1,1476,666,0,0
259,358,0,0,0,0,0,0,0,0,0,-1,1483,666,0,0
266,358,0,0,0,0,0,0,0,0,0,-1,1490,666,0,0
273,358,0,0,0,0,0,0,0,0,0,-1,1497,666,0,0
280,358,0,0,0,0,0,0,0,0,0,-1,1504,666,0,0
287,358,0,0,0,0,0,0,0,0,0,-1,1511,666,0,0
294,358,0,0,0,0,0,0,0,0,0,-1,1518,666,0,0
301,358,0,0,0,0,0,0,0,0,0,-1,1525,666,0,0
308,358,0,0,0,0,0,0,0,0,0,-1,1532,666,0,0
315,358,0,0,0,0,0,0,0,0,0,-1,1539,666,0,0
322,358,0,0,0,0,0,0,0,0,0,-1,1546,666,0,0
329,358,0,0,0,0,0,0,0,0,0,-1,1553,666,0,0
336,358,0,0,0,0,0,0,0,0,0,-1,1560,666,0,0
343,358,0,0,0,0,0,0,0,0,0,-1,1567,666,0,0
350,358,0,0,0,0,0,0,0,0,0,-1,1574,666,0,0
357,358,0,0,0,0,0,0,0,0,0,-1,1581,666,0,0
364,358,0,0,0,0,0,0,0,0,0,-1,1588,666,0,0
371,358,0,0,0,0,0,0,0,0,0,-1,1595,666,0,0
378,358,0,0,0,0,0,0,0,0,0,-1,1602,666,0,0
385,358,0,0,0,0,0,0,0,0,0,-1,1609,666,0,0
392,358,0,0,0,0,0,0,0,0,0,-1,1616,666,0,0
399,358,0,0,0,0,0,0,0,0,0,-1,1623,666,0,0
406,358,0,0,0,0,0,0,0,0,0,-1,1630,666,0,0
413,358,0,0,0,0,0,0,0,0,0,-1,1637,666,0,0
420,358,0,0,0,0,0,0,0,0,0,-1,1644,666,0,0
427,358,0,0,0,0,0,0,0,0,0,-1,1651,666,0,0
434,358,0,0,0,0,0,0,0,0,0,-1,1658,666,0,0
441,358,0,0,0,0,0,0,0,0,0,-1,1665,666,0,0
448,358,0,0,0,0,0,0,0,0,0,-1,1672,666,0,0
455,358,0,0,0,0,0,0,0,0,0,-1,1679,666,0,0
462,358,0,0,0,0,0,0,0,0,0,-1,1686,666,0,0
469,358,0,0,0,0,0,0,0,0,0,-1,1693,666,0,0
476,358,0,0,0,0,0,0,0,0,0,-1,1700,666,0,0
483,358,0,0,0,0,0,0,0,0,0,-1,1707,666,0,0
490,358,0,0,0,0,0,0,0,0,0,-1,1714,666,0,0
497,358,0.451782,0.770569,0.0178478,0.0238249,-0.00653469,0.028022,0.0136507,-0.999866,0.0161803,0.0460191,1721,666,0.451777,-0.770569
504,358,0.616211,0.596252,0.0116447,0.0253039,-0.00985156,0.0304617,0.00648693,-1.08849,0.018528,0.0476968,1728,666,0.616204,-0.596277
511,358,1.06665,-0.429138,0.00657735,0.026077,-0.0122861,0.0320118,0.000642559,-1.1208,0.0211303,0.0464896,1735,666,1.0667,0.429133
518,358,0.745728,0.420654,0,0,0,0,0,0,0,-1,1742,666,0.745719,-0.420667
525,358,0.788574,-0.151978,-0.00106586,0.0244211,-0.0130207,0.0298967,-0.00654144,-1.17272,0.0224318,0.0461468,1749,666,0.788619,0.151962
532,358,1.06287,-0.527527,-0.00333622,0.0220147,-0.0114017,0.0263882,-0.00770968,-1.20452,0.0206475,0.0469096,1756,666,1.06285,0.527509
539,358,-0.0333252,-0.0726929,-0.00438588,0.0192204,-0.00942185,0.0225197,-0.00768524,-1.23396,0.0181264,0.0483512,1763,666,-0.0332821,0.0727051
546,358,0.126953,-0.0958252,-0.00467938,0.0159308,-0.00781902,0.0185614,-0.00730998,-1.24626,0.0154005,0.0482813,1770,666,0.126964,0.0958427
553,358,0.194214,-0.304138,-0.00471462,0.0132303,-0.00605509,0.0150823,-0.00656663,-1.27397,0.0128173,0.0457515,1777,666,0.19423,0.304119
560,358,-0.344849,0.257996,-0.00438089,0.0099411,-0.00376564,0.0108708,-0.00531062,-1.32874,0.00952444,0.0456646,1784,666,-0.344812,-0.257969
567,358,-0.153198,0.163269,-0.00339078,0.00649842,-0.00236319,0.00703412,-0.00392648,-1.34788,0.00641233,0.0452299,1791,666,-0.153246,-0.163284
574,358,-0.072876,0.0444336,-0.00225409,0.00422044,-0.000679266,0.00429094,-0.00232459,-1.46738,0.00387531,0.0355596,1798,666,-0.0729021,-0.0444032
581,358,-0.0531006,0.0710449,-0.00155717,0.00213573,0.000620305,0.00223714,-0.00165858,1.40875,0.00225745,0.0176086,1805,666,-0.053145,-0.0710552
588,358,-0.0615234,0.0766602,-0.000442271,0.000571839,0.00121465,0.00138102,-0.00125145,0.983127,0.00152047,0.010657,1812,666,-0.0615372,-0.0766497
595,358,-0.0495605,0.0826416,0.000633319,-0.000303386,0.00104861,0.00131341,-0.000983479,0.575369,0.00133066,0.0100147,1819,666,-0.0495539,-0.0826135
602,358,-0.048584,0.0863037,0.000831471,-0.000700236,0.000763407,0.00114697,-0.00101573,0.391899,0.0012494,0.0103625,1826,666,-0.0485462,-0.0863161
609,358,-0.05896,0.0768433,0.00111663,-0.00091779,0.000393859,0.00119021,-0.000991378,0.18471,0.00126129,0.0119536,1833,666,-0.0589471,-0.0768184
616,358,-0.0472412,0.0717163,0.00169342,-0.000981987,-0.000164562,0.0017035,-0.000992071,-0.0612017,0.00157425,0.0120139,1840,666,-0.0472363,-0.0716949
623,358,-0.0404053,0.0545044,0.0020902,-0.00124083,-0.000475039,0.00215662,-0.00130725,-0.138922,0.00201981,0.0124031,1847,666,-0.0404486,-0.0545333
630,358,-0.0524902,0.0741577,0.00247335,-0.00153899,-0.000642829,0.00257383,-0.00163946,-0.155045,0.0024524,0.0155356,1854,666,-0.0525041,-0.0741445
637,358,-0.0700684,0.0716553,0.00295218,-0.00184638,-0.00068104,0.00304696,-0.00194116,-0.138289,0.00290339,0.0211067,1861,666,-0.070114,-0.0716752
644,358,-0.0551758,0.0670776,0.00360152,-0.00244375,-0.000978363,0.00375592,-0.00259814,-0.156518,0.00368876,0.0178598,1868,666,-0.0551498,-0.0670595
651,358,-0.0437012,0.0775757,0.00431094,-0.00324533,-0.00103776,0.00445088,-0.00338526,-0.134033,0.00453812,0.0152224,1875,666,-0.0437337,-0.0775521
658,358,-0.057373,0.0820923,0.00483932,-0.00421374,-0.00107862,0.00496606,-0.00434048,-0.116963,0.00537718,0.0211507,1882,666,-0.057352,-0.0820726
665,358,-0.050415,-0.0286255,0.00518979,-0.00503088,-0.00103275,0.0052931,-0.00513419,-0.0997028,0.00602043,0.0343899,1889,666,-0.0504112,0.0286132
672,358,0.0117188,-0.158997,0.00515773,-0.00583245,-0.000764418,0.00521064,-0.00588536,-0.0691111,0.00641023,0.0422586,1896,666,0.0116671,0.159016
679,358,-0.160522,-0.102234,0.00460912,-0.00672832,-0.000301844,0.00461715,-0.00673635,-0.0265986,0.0065929,0.0397902,1903,666,-0.160566,0.102242
686,358,-0.338013,-0.0178223,0,0,0,0,0,0,0,-1,1910,666,-0.338034,0.017829
693,358,0.431641,-0.462402,0,0,0,0,0,0,0,-1,1917,666,0.431648,0.462381
700,358,0,0,0,0,0,0,0,0,0,-1,1924,666,0,0
707,358,0,0,0,0,0,0,0,0,0,-1,1931,666,0,0
714,358,0,0,0,0,0,0,0,0,0,-1,1938,666,0,0
721,358,0,0,0,0,0,0,0,0,0,-1,1945,666,0,0
728,358,0,0,0,0,0,0,0,0,0,-1,1952,666,0,0
735,358,0,0,0,0,0,0,0,0,0,-1,1959,666,0,0
742,358,0,0,0,0,0,0,0,0,0,-1,1966,666,0,0
749,358,0,0,0,0,0,0,0,0,0,-1,1973,666,0,0
756,358,0,0,0,0,0,0,0,0,0,-1,1980,666,0,0
763,358,0,0,0,0,0,0,0,0,0,-1,1987,666,0,0
770,358,0,0,0,0,0,0,0,0,0,-1,1994,666,0,0
777,358,0,0,0,0,0,0,0,0,0,-1,2001,666,0,0
784,358,0,0,0,0,0,0,0,0,0,-1,2008,666,0,0
791,358,0,0,0,0,0,0,0,0,0,-1,2015,666,0,0
798,358,0,0,0,0,0,0,0,0,0,-1,2022,666,0,0
805,358,0,0,0,0,0,0,0,0,0,-1,2029,666,0,0
812,358,0,0,0,0,0,0,0,0,0,-1,2036,666,0,0
-700,351,0,0,0,0,0,0,0,0,0,-1,524,673,0,0
-693,351,0,0,0,0,0,0,0,0,0,-1,531,673,0,0
-686,351,0,0,0,0,0,0,0,0,0,-1,538,673,0,0
-679,351,0,0,0,0,0,0,0,0,0,-1,545,673,0,0
-672,351,0,0,0,0,0,0,0,0,0,-1,552,673,0,0
-665,351,0,0,0,0,0,0,0,0,0,-1,559,673,0,0
-658,351,0,0,0,0,0,0,0,0,0,-1,566,673,0,0
-651,351,0,0,0,0,0,0,0,0,0,-1,573,673,0,0
-644,351,0,0,0,0,0,0,0,0,0,-1,580,673,0,0
-637,351,0,0,0,0,0,0,0,0,0,-1,587,673,0,0
-630,351,0,0,0,0,0,0,0,0,0,-1,594,673,0,0
-623,351,0,0,0,0,0,0,0,0,0,-1,601,673,0,0
-616,351,0,0,0,0,0,0,0,0,0,-1,608,673,0,0
-609,351,0,0,0,0,0,0,0,0,0,-1,615,673,0,0
-602,351,0,0,0,0,0,0,0,0,0,-1,622,673,0,0
-595,351,0,0,0,0,0,0,0,0,0,-1,629,673,0,0
-588,351,0,0,0,0,0,0,0,0,0,-1,636,673,0,0
-581,351,0.14447,1.22162,0,0,0,0,0,0,0,-1,643,673,0.144474,-1.22159
-574,351,0.207947,1.49536,0,0,0,0,0,0,0,-1,650,673,0.207929,-1.49539
-567,351,0.013916,1.07666,0.000445837,-0.008942,-0.0169145,0.0133056,-0.0218018,-0.65005,0.0204662,0.0480424,657,673,0.0139307,-1.07664
-560,351,-0.143127,0.755188,0.00147101,-0.00669788,-0.0124556,0.0104948,-0.0157217,-0.626963,0.015236,0.0479677,664,673,-0.143099,-0.755215
-553,351,-0.216064,0.377258,0.00188953,-0.00517796,-0.00853346,0.00759198,-0.0108804,-0.589095,0.0107212,0.0433374,671,673,-0.216055,-0.377252
-546,351,-0.283875,-0.0593262,0.00200398,-0.00394181,-0.0055663,0.00534154,-0.00727936,-0.540126,0.00731526,0.0429223,678,673,-0.283876,0.0593559
-539,351,-0.165588,0.0813599,0.00187128,-0.00288381,-0.00339472,0.00363823,-0.00465076,-0.479912,0.00479754,0.0427171,685,673,-0.165571,-0.0813883
-532,351,0.0180664,0.138611,0.00196468,-0.00167289,-0.00190408,0.00277905,-0.00248726,-0.404153,0.00304206,0.0305508,692,673,0.0180911,-0.138596
-525,351,-0.00958252,0.0827026,0.00171317,-0.00089847,-0.000900158,0.00199337,-0.00117867,-0.301768,0.0018514,0.0167731,699,673,-0.00956478,-0.0827008
-518,351,-0.0247192,0.085083,0.00114849,-0.000700373,-0.000112989,0.00115537,-0.000707252,-0.0608111,0.00108571,0.011073,706,673,-0.0247393,-0.0850938
-511,351,-0.0192261,0.0935059,0.000640407,-0.000707285,0.000484679,0.00079661,-0.000863488,0.311772,0.000958718,0.0103249,713,673,-0.0192245,-0.0935042
-504,351,-0.0252686,0.088501,0.000387331,-0.00111066,0.000735799,0.000688285,-0.00141161,0.388255,0.00123612,0.00952735,720,673,-0.0252528,-0.0884971
-497,351,-0.019104,0.0750122,0.000259671,-0.00101306,0.000656427,0.000537556,-0.00129095,0.400456,0.00108515,0.00926267,727,673,-0.0191267,-0.0750313
-490,351,-0.0159912,0.0671387,9.35248e-05,-0.00101397,0.00025594,0.000149811,-0.00107026,0.216475,0.000768326,0.00845105,734,673,-0.0160069,-0.0671361
-483,351,-0.0271606,0.079895,0.000115094,-0.00114613,-0.000321872,0.000192489,-0.00122352,-0.235971,0.000886836,0.0104969,741,673,-0.0271646,-0.0798877
-476,351,-0.039978,0.0983887,0.000161165,-0.00146356,-0.00118746,0.000787547,-0.00208994,-0.485404,0.00171711,0.0100977,748,673,-0.0399994,-0.0984048
-469,351,-0.0323486,0.10791,2.15263e-05,-0.0016892,-0.00236697,0.00168295,-0.00335062,-0.612012,0.00295882,0.0120112,755,673,-0.0323377,-0.107889
-462,351,-0.00244141,0.109375,9.65056e-05,-0.00254945,-0.00324981,0.00228231,-0.00473525,-0.592095,0.00413327,0.0153875,762,673,-0.00241726,-0.109354
-455,351,-0.00775146,0.0946045,-0.000134301,-0.00307794,-0.00454937,0.0031754,-0.00638765,-0.628951,0.0056241,0.0142031,769,673,-0.00776911,-0.0946137
-448,351,-0.0654297,0.0646362,0.00146931,-0.0044163,-0.0060698,0.00527206,-0.00821906,-0.55968,0.0078508,0.0312269,776,673,-0.0654447,-0.0646266
-441,351,-0.361633,-0.169556,0.00500076,-0.00591048,-0.00821429,0.00940609,-0.0103158,-0.492265,0.0113905,0.0428811,783,673,-0.361603,0.169556
-434,351,-0.45752,-0.255981,0.00893042,-0.00738904,-0.010049,0.0137153,-0.0121739,-0.444392,0.014956,0.044107,790,673,-0.457541,0.255961
-427,351,-0.0475464,-0.385681,0.0148247,-0.00868074,-0.0109476,0.0191336,-0.0129897,-0.374973,0.0186591,0.0422218,797,673,-0.0475388,0.385654
-420,351,-0.142395,-0.895264,0.0233535,-0.0108493,-0.0122575,0.0272926,-0.0147884,-0.310941,0.0246504,0.0422245,804,673,-0.142387,0.895284
-413,351,-0.206116,-1.42236,0,0,0,0,0,0,0,-1,811,673,-0.206096,1.42233
-406,351,0.0886841,0.813293,0,0,0,0,0,0,0,-1,818,673,0.0886784,-0.813313
-399,351,0.940247,0.861694,0.064546,-0.0182816,-0.0127543,0.0664655,-0.0202011,-0.149377,0.0523595,0.0412275,825,673,0.940259,-0.861709
-392,351,1.89252,1.04791,0.0828132,-0.0206163,-0.011306,0.0840346,-0.0218377,-0.107618,0.0645457,0.0425209,832,673,1.89251,-1.04792
-385,351,3.12018,1.03375,0,0,0,0,0,0,0,-1,839,673,3.12017,-1.03374
-378,351,0,0,0,0,0,0,0,0,0,-1,846,673,0,0
-371,351,0,0,0,0,0,0,0,0,0,-1,853,673,0,0
-364,351,0,0,0,0,0,0,0,0,0,-1,860,673,0,0
-357,351,0,0,0,0,0,0,0,0,0,-1,867,673,0,0
-350,351,0,0,0,0,0,0,0,0,0,-1,874,673,0,0
-343,351,0,0,0,0,0,0,0,0,0,-1,881,673,0,0
-336,351,0,0,0,0,0,0,0,0,0,-1,888,673,0,0
-329,351,0,0,0,0,0,0,0,0,0,-1,895,673,0,0
-322,351,0,0,0,0,0,0,0,0,0,-1,902,673,0,0
-315,351,0,0,0,0,0,0,0,0,0,-1,909,673,0,0
-308,351,0,0,0,0,0,0,0,0,0,-1,916,673,0,0
-301,351,0,0,0,0,0,0,0,0,0,-1,923,673,0,0
-294,351,0,0,0,0,0,0,0,0,0,-1,930,673,0,0
-287,351,0,0,0,0,0,0,0,0,0,-1,937,673,0,0
-280,351,0,0,0,0,0,0,0,0,0,-1,944,673,0,0
-273,351,0,0,0,0,0,0,0,0,0,-1,951,673,0,0
-266,351,0,0,0,0,0,0,0,0,0,-1,958,673,0,0
-259,351,0,0,0,0,0,0,0,0,0,-1,965,673,0,0
-252,351,0,0,0,0,0,0,0,0,0,-1,972,673,0,0
-245,351,0,0,0,0,0,0,0,0,0,-1,979,673,0,0
-238,351,0,0,0,0,0,0,0,0,0,-1,986,673,0,0
-231,351,0,0,0,0,0,0,0,0,0,-1,993,673,0,0
-224,351,0,0,0,0,0,0,0,0,0,-1,1000,673,0,0
-217,351,0,0,0,0,0,0,0,0,0,-1,1007,673,0,0
-210,351,0,0,0,0,0,0,0,0,0,-1,1014,673,0,0
-203,351,0,0,0,0,0,0,0,0,0,-1,1021,673,0,0
-196,351,0,0,0,0,0,0,0,0,0,-1,1028,673,0,0
-189,351,0,0,0,0,0,0,0,0,0,-1,1035,673,0,0
-182,351,0,0,0,0,0,0,0,0,0,-1,1042,673,0,0
-175,351,0,0,0,0,0,0,0,0,0,-1,1049,673,0,0
-168,351,0,0,0,0,0,0,0,0,0,-1,1056,673,0,0
-161,351,0,0,0,0,0,0,0,0,0,-1,1063,673,0,0
-154,351,0,0,0,0,0,0,0,0,0,-1,1070,673,0,0
-147,351,0,0,0,0,0,0,0,0,0,-1,1077,673,0,0
-140,351,0,0,0,0,0,0,0,0,0,-1,1084,673,0,0
-133,351,0,0,0,0,0,0,0,0,0,-1,1091,673,0,0
-126,351,0,0,0,0,0,0,0,0,0,-1,1098,673,0,0
-119,351,0,0,0,0,0,0,0,0,0,-1,1105,673,0,0
-112,351,0,0,0,0,0,0,0,0,0,-1,1112,673,0,0
-105,351,0,0,0,0,0,0,0,0,0,-1,1119,673,0,0
-98,351,0,0,0,0,0,0,0,0,0,-1,1126,673,0,0
-91,351,0,0,0,0,0,0,0,0,0,-1,1133,673,0,0
-84,351,0,0,0,0,0,0,0,0,0,-1,1140,673,0,0
-77,351,0,0,0,0,0,0,0,0,0,-1,1147,673,0,0
-70,351,0,0,0,0,0,0,0,0,0,-1,1154,673,0,0
-63,351,0,0,0,0,0,0,0,0,0,-1,1161,673,0,0
-56,351,0,0,0,0,0,0,0,0,0,-1,1168,673,0,0
-49,351,0,0,0,0,0,0,0,0,0,-1,1175,673,0,0
-42,351,0,0,0,0,0,0,0,0,0,-1,1182,673,0,0
-35,351,0,0,0,0,0,0,0,0,0,-1,1189,673,0,0
-28,351,0,0,0,0,0,0,0,0,0,-1,1196,673,0,0
-21,351,0,0,0,0,0,0,0,0,0,-1,1203,673,0,0
-14,351,0,0,0,0,0,0,0,0,0,-1,1210,673,0,0
-7,351,0,0,0,0,0,0,0,0,0,-1,1217,673,0,0
0,351,0,0,0,0,0,0,0,0,0,-1,1224,673,0,0
7,351,0,0,0,0,0,0,0,0,0,-1,1231,673,0,0
14,351,0,0,0,0,0,0,0,0,0,-1,1238,673,0,0
21,351,0,0,0,0,0,0,0,0,0,-1,1245,673,0,0
28,351,0,0,0,0,0,0,0,0,0,-1,1252,673,0,0
35,351,0,0,0,0,0,0,0,0,0,-1,1259,673,0,0
42,351,0,0,0,0,0,0,0,0,0,-1,1266,673,0,0
49,351,0,0,0,0,0,0,0,0,0,-1,1273,673,0,0
56,351,0,0,0,0,0,0,0,0,0,-1,1280,673,0,0
63,351,0,0,0,0,0,0,0,0,0,-1,1287,673,0,0
70,351,0,0,0,0,0,0,0,0,0,-1,1294,673,0,0
77,351,0,0,0,0,0,0,0,0,0,-1,1301,673,0,0
84,351,0,0,0,0,0,0,0,0,0,-1,1308,673,0,0
91,351,0,0,0,0,0,0,0,0,0,-1,1315,673,0,0
98,351,0,0,0,0,0,0,0,0,0,-1,1322,673,0,0
105,351,0,0,0,0,0,0,0,0,0,-1,1329,673,0,0
112,351,0,0,0,0,0,0,0,0,0,-1,1336,673,0,0
119,351,0,0,0,0,0,0,0,0,0,-1,1343,673,0,0
126,351,0,0,0,0,0,0,0,0,0,-1,1350,673,0,0
133,351,0,0,0,0,0,0,0,0,0,-1,1357,673,0,0
140,351,0,0,0,0,0,0,0,0,0,-1,1364,673,0,0
147,351,0,0,0,0,0,0,0,0,0,-1,1371,673,0,0
154,351,0,0,0,0,0,0,0,0,0,-1,1378,673,0,0
161,351,0,0,0,0,0,0,0,0,0,-1,1385,673,0,0
168,351,0,0,0,0,0,0,0,0,0,-1,1392,673,0,0
175,351,0,0,0,0,0,0,0,0,0,-1,1399,673,0,0
182,351,0,0,0,0,0,0,0,0,0,-1,1406,673,0,0
189,351,0,0,0,0,0,0,0,0,0,-1,1413,673,0,0
196,351,0,0,0,0,0,0,0,0,0,-1,1420,673,0,0
203,351,0,0,0,0,0,0,0,0,0,-1,1427,673,0,0
210,351,0,0,0,0,0,0,0,0,0,-1,1434,673,0,0
217,351,0,0,0,0,0,0,0,0,0,-1,1441,673,0,0
224,351,0,0,0,0,0,0,0,0,0,-1,1448,673,0,0
231,351,0,0,0,0,0,0,0,0,0,-1,1455,673,0,0
238,351,0,0,0,0,0,0,0,0,0,-1,1462,673,0,0
245,351,0,0,0,0,0,0,0,0,0,-1,1469,673,0,0
252,351,0,0,0,0,0,0,0,0,0,-1,1476,673,0,0
259,351,0,0,0,0,0,0,0,0,0,-1,1483,673,0,0
266,351,0,0,0,0,0,0,0,0,0,-1,1490,673,0,0
273,351,0,0,0,0,0,0,0,0,0,-1,1497,673,0,0
280,351,0,0,0,0,0,0,0,0,0,-1,1504,673,0,0
287,351,0,0,0,0,0,0,0,0,0,-1,1511,673,0,0
294,351,0,0,0,0,0,0,0,0,0,-1,1518,673,0,0
301,351,0,0,0,0,0,0,0,0,0,-1,1525,673,0,0
308,351,0,0,0,0,0,0,0,0,0,-1,1532,673,0,0
315,351,0,0,0,0,0,0,0,0,0,-1,1539,673,0,0
322,351,0,0,0,0,0,0,0,0,0,-1,1546,673,0,0
329,351,0,0,0,0,0,0,0,0,0,-1,1553,673,0,0
336,351,0,0,0,0,0,0,0,0,0,-1,1560,673,0,0
343,351,0,0,0,0,0,0,0,0,0,-1,1567,673,0,0
350,351,0,0,0,0,0,0,0,0,0,-1,1574,673,0,0
357,351,0,0,0,0,0,0,0,0,0,-1,1581,673,0,0
364,351,0,0,0,0,0,0,0,0,0,-1,1588,673,0,0
371,351,0,0,0,0,0,0,0,0,0,-1,1595,673,0,0
378,351,0,0,0,0,0,0,0,0,0,-1,1602,673,0,0
385,351,0,0,0,0,0,0,0,0,0,-1,1609,673,0,0
392,351,0,0,0,0,0,0,0,0,0,-1,1616,673,0,0
399,351,0,0,0,0,0,0,0,0,0,-1,1623,673,0,0
406,351,0,0,0,0,0,0,0,0,0,-1,1630,673,0,0
413,351,0,0,0,0,0,0,0,0,0,-1,1637,673,0,0
420,351,0,0,0,0,0,0,0,0,0,-1,1644,673,0,0
427,351,0,0,0,0,0,0,0,0,0,-1,1651,673,0,0
434,351,0,0,0,0,0,0,0,0,0,-1,1658,673,0,0
441,351,0,0,0,0,0,0,0,0,0,-1,1665,673,0,0
448,351,0,0,0,0,0,0,0,0,0,-1,1672,673,0,0
455,351,0,0,0,0,0,0,0,0,0,-1,1679,673,0,0
462,351,0,0,0,0,0,0,0,0,0,-1,1686,673,0,0
469,351,0,0,0,0,0,0,0,0,0,-1,1693,673,0,0
476,351,0,0,0,0,0,0,0,0,0,-1,1700,673,0,0
483,351,0,0,0,0,0,0,0,0,0,-1,1707,673,0,0
490,351,0,0,0,0,0,0,0,0,0,-1,1714,673,0,0
497,351,0,0,0,0,0,0,0,0,0,-1,1721,673,0,0
504,351,0.151855,0.0233765,0.0128332,0.0294395,-0.00418607,0.030435,0.0118377,-1.33731,0.0177155,0.0415318,1728,673,0.151874,-0.0233984
511,351,0.206055,-0.15686,0.00666652,0.0292913,-0.00871305,0.0322578,0.0037,-1.24264,0.0203841,0.0412458,1735,673,0.206033,0.15688
518,351,0.944214,0.247192,0,0,0,0,0,0,0,-1,1742,673,0.9442,-0.247205
525,351,1.10034,-0.240295,-0.00272948,0.0266321,-0.01106,0.030332,-0.00642939,-1.24797,0.0226704,0.0468149,1749,673,1.10034,0.24028
532,351,1.37573,-0.752136,-0.00485842,0.0229422,-0.00958172,0.0259246,-0.00784088,-1.26904,0.0204052,0.0478535,1756,673,1.37578,0.752124
539,351,0.979492,-0.755249,-0.00584606,0.019384,-0.00779451,0.0215978,-0.00805982,-1.29407,0.0177075,0.046065,1763,673,0.979435,0.755271
546,351,0.3573,-0.443848,-0.0060734,0.0156176,-0.00655025,0.0174421,-0.00789797,-1.29913,0.014972,0.0444375,1770,673,0.357358,0.443835
553,351,0.107788,-0.250488,-0.00591503,0.0127311,-0.00510045,0.014035,-0.00721902,-1.3205,0.0124796,0.0424835,1777,673,0.107799,0.250466
560,351,-0.46582,-0.0430298,0,0,0,0,0,0,0,-1,1784,673,-0.465778,0.0430142
567,351,-0.114258,0.0285645,-0.0040924,0.00565845,-0.00169216,0.00594376,-0.00437771,-1.40376,0.00598193,0.0474122,1791,673,-0.114277,-0.0285377
574,351,-0.110352,0.0726318,-0.00264275,0.00334214,-0.000129933,0.00334496,-0.00264557,-1.5491,0.00346648,0.0428998,1798,673,-0.110408,-0.0726043
581,351,-0.0638428,0.110474,-0.00178522,0.00127015,0.00110255,0.00162646,-0.00214153,1.25822,0.00218222,0.0320847,1805,673,-0.0638039,-0.110467
588,351,-0.0231934,0.076416,-0.000500553,-0.000223208,0.00158832,0.00123248,-0.00195624,0.828942,0.00185675,0.0159533,1812,673,-0.0231504,-0.0764459
595,351,-0.0444336,0.0743408,0.000706271,-0.000983535,0.00129211,0.0014052,-0.00168246,0.495844,0.00178505,0.0119897,1819,673,-0.0444561,-0.0743301
602,351,-0.0675049,0.0713501,0.000902329,-0.00122842,0.00085871,0.00120531,-0.00153141,0.339199,0.00158378,0.0169378,1826,673,-0.0675077,-0.0713547
609,351,-0.0540771,0.0440063,0.00110278,-0.00128206,0.000406527,0.00117017,-0.00134945,0.164284,0.00145593,0.0158603,1833,673,-0.054053,-0.0440309
616,351,-0.045166,0.0494995,0.00155287,-0.00114542,-0.000144278,0.00156056,-0.00115311,-0.053268,0.00157261,0.0141894,1840,673,-0.0452237,-0.0495229
623,351,-0.045166,0.0614014,0.00180815,-0.00123713,-0.000474092,0.00188025,-0.00130923,-0.150924,0.00185126,0.014453,1847,673,-0.0451726,-0.0614202
630,351,-0.06604,0.0672607,0.00207339,-0.00139509,-0.000654689,0.00219286,-0.00151455,-0.180484,0.00215238,0.0222196,1854,673,-0.0659899,-0.0672888
637,351,-0.0749512,0.0859375,0.00245093,-0.00155946,-0.000732193,0.00258043,-0.00168896,-0.175052,0.00248278,0.0259232,1861,673,-0.0750109,-0.0859573
644,351,-0.0853271,0.0742188,0.00300907,-0.00207664,-0.0010082,0.00320164,-0.00226922,-0.188735,0.00317386,0.0193868,1868,673,-0.0852795,-0.0742039
651,351,-0.0683594,0.0578003,0.00370029,-0.00280613,-0.00101953,0.00385631,-0.00296215,-0.151849,0.0039479,0.0142982,1875,673,-0.0683728,-0.0577704
658,351,-0.0622559,0.113159,0.00428864,-0.00370134,-0.00107995,0.00443203,-0.00384474,-0.132007,0.00478261,0.0138814,1882,673,-0.0622916,-0.113179
665,351,-0.0435791,0.0897217,0.004808,-0.00437496,-0.00110651,0.00493945,-0.00450641,-0.118242,0.00545548,0.0181477,1889,673,-0.0436381,-0.0897361
672,351,-0.00805664,0.0350952,0.00512503,-0.00492969,-0.000944744,0.00521302,-0.00501769,-0.0928771,0.00590706,0.0247217,1896,673,-0.00809484,-0.0351239
679,351,0.0515137,0.055603,0.00515142,-0.00557933,-0.000634403,0.0051888,-0.00561671,-0.0588469,0.00624019,0.0336633,1903,673,0.0515496,-0.0555984
686,351,0.457886,0.481689,0,0,0,0,0,0,0,-1,1910,673,0.457871,-0.481698
693,351,0.356445,-0.214111,0.00395695,-0.00625719,0.000267259,0.00396394,-0.00626418,0.0261417,0.00595478,0.0436989,1917,673,0.356385,0.214082
700,351,0.300049,-0.852112,0,0,0,0,0,0,0,-1,1924,673,0.30011,0.852109
707,351,0,0,0,0,0,0,0,0,0,-1,1931,673,0,0
714,351,0,0,0,0,0,0,0,0,0,-1,1938,673,0,0
721,351,0,0,0,0,0,0,0,0,0,-1,1945,673,0,0
728,351,0,0,0,0,0,0,0,0,0,-1,1952,673,0,0
735,351,0,0,0,0,0,0,0,0,0,-1,1959,673,0,0
742,351,0,0,0,0,0,0,0,0,0,-1,1966,673,0,0
749,351,0,0,0,0,0,0,0,0,0,-1,1973,673,0,0
756,351,0,0,0,0,0,0,0,0,0,-1,1980,673,0,0
763,351,0,0,0,0,0,0,0,0,0,-1,1987,673,0,0
770,351,0,0,0,0,0,0,0,0,0,-1,1994,673,0,0
777,351,0,0,0,0,0,0,0,0,0,-1,2001,673,0,0
784,351,0,0,0,0,0,0,0,0,0,-1,2008,673,0,0
791,351,0,0,0,0,0,0,0,0,0,-1,2015,673,0,0
798,351,0,0,0,0,0,0,0,0,0,-1,2022,673,0,0
805,351,0,0,0,0,0,0,0,0,0,-1,2029,673,0,0
812,351,0,0,0,0,0,0,0,0,0,-1,2036,673,0,0
-700,344,0,0,0,0,0,0,0,0,0,-1,524,680,0,0
-693,344,0,0,0,0,0,0,0,0,0,-1,531,680,0,0
-686,344,0,0,0,0,0,0,0,0,0,-1,538,680,0,0
-679,344,0,0,0,0,0,0,0,0,0,-1,545,680,0,0
-672,344,0,0,0,0,0,0,0,0,0,-1,552,680,0,0
-665,344,0,0,0,0,0,0,0,0,0,-1,559,680,0,0
-658,344,0,0,0,0,0,0,0,0,0,-1,566,680,0,0
-651,344,0,0,0,0,0,0,0,0,0,-1,573,680,0,0
-644,344,0,0,0,0,0,0,0,0,0,-1,580,680,0,0
-637,344,0,0,0,0,0,0,0,0,0,-1,587,680,0,0
-630,344,0,0,0,0,0,0,0,0,0,-1,594,680,0,0
-623,344,0,0,0,0,0,0,0,0,0,-1,601,680,0,0
-616,344,0,0,0,0,0,0,0,0,0,-1,608,680,0,0
-609,344,0,0,0,0,0,0,0,0,0,-1,615,680,0,0
-602,344,0,0,0,0,0,0,0,0,0,-1,622,680,0,0
-595,344,0,0,0,0,0,0,0,0,0,-1,629,680,0,0
-588,344,0.600464,-1.10321,0,0,0,0,0,0,0,-1,636,680,0.600491,1.10323
-581,344,-0.481323,1.64563,0,0,0,0,0,0,0,-1,643,680,-0.481297,-1.64565
-574,344,-0.366699,1.10126,0,0,0,0,0,0,0,-1,650,680,-0.366721,-1.10125
-567,344,-0.212585,0.513794,-0.000142933,-0.0066602,-0.0215017,0.0183457,-0.0251488,-0.710194,0.0252137,0.0492694,657,680,-0.21261,-0.513774
-560,344,-0.351929,-0.260925,0.000969174,-0.00485342,-0.0160926,0.0144117,-0.018296,-0.695912,0.0189281,0.0460667,664,680,-0.351934,0.26092
-553,344,-0.29187,-0.183228,0.00152575,-0.00374235,-0.0113721,0.0105648,-0.0127814,-0.671593,0.0134992,0.0442555,671,680,-0.291845,0.183216
-546,344,-0.232361,-0.079895,0.00181108,-0.00282249,-0.00781587,0.00764631,-0.00865772,-0.641313,0.00941917,0.0415878,678,680,-0.232372,0.0799089
-539,344,-0.013855,0.13208,0.0018495,-0.00198432,-0.00523284,0.00550548,-0.00564031,-0.609827,0.00643518,0.0357686,685,680,-0.0138466,-0.132102
-532,344,0.0057373,0.113342,0.00208422,-0.000964417,-0.00340308,0.00428877,-0.00316897,-0.574835,0.00432188,0.0184735,692,680,0.00575733,-0.113353
-525,344,-0.0271606,0.0836182,0.00197563,-0.000338346,-0.00213783,0.00324947,-0.00161219,-0.537369,0.00285945,0.0149529,699,680,-0.0271401,-0.0836038
-518,344,-0.057251,0.046814,0.00151378,-0.000249942,-0.00115119,0.00208206,-0.000818222,-0.458552,0.00172666,0.0192053,706,680,-0.0572259,-0.0468245
-511,344,-0.0447388,0.0377197,0.00101795,-0.00056579,-0.000411822,0.00111864,-0.000666476,-0.239784,0.0010416,0.0155587,713,680,-0.0447542,-0.0377085
-504,344,-0.0258179,0.0523682,0.000679926,-0.00116945,6.17562e-05,0.000681986,-0.00117151,0.0333434,0.00108249,0.0142431,720,680,-0.0258336,-0.052396
-497,344,-0.0150757,0.0643921,0.000373663,-0.00134039,0.000152045,0.000387046,-0.00135377,0.0877917,0.00105545,0.0125569,727,680,-0.015082,-0.0643649
-490,344,-0.0271606,0.0640869,1.49893e-05,-0.00167285,-8.75542e-05,1.95189e-05,-0.00167738,-0.0516887,0.00112481,0.011296,734,680,-0.0271519,-0.0641083
-483,344,-0.0385132,0.0753174,-0.000118419,-0.00212724,-0.000577181,3.56083e-05,-0.00228127,-0.260785,0.00153285,0.0117052,741,680,-0.0385002,-0.0753342
-476,344,-0.0396729,0.0925293,-0.000265793,-0.00280997,-0.00138534,0.000342913,-0.00341867,-0.413995,0.0024016,0.0125166,748,680,-0.0396663,-0.0925267
-469,344,-0.0411377,0.09198,-0.000648548,-0.00344504,-0.00260348,0.000908401,-0.00500199,-0.538967,0.00367508,0.0102252,755,680,-0.0411255,-0.0919654
-462,344,-0.0178833,0.0898438,-0.00077672,-0.00478703,-0.00359366,0.00133334,-0.00689709,-0.530927,0.00510093,0.011422,762,680,-0.0178609,-0.0898703
-455,344,0.00469971,0.0783691,-0.001199,-0.005873,-0.00508991,0.00206478,-0.00913678,-0.570182,0.00688346,0.0230191,769,680,0.00467198,-0.0783928
-448,344,0.0183105,0.158875,0.000190914,-0.00774821,-0.00688747,0.00417086,-0.0117282,-0.523976,0.00951869,0.038498,776,680,0.0183006,-0.158898
-441,344,-0.202026,0.0861816,0.00353747,-0.00986832,-0.00935376,0.00834203,-0.0146729,-0.474508,0.0134542,0.0450159,783,680,-0.202026,-0.0861603
-434,344,-0.597961,-0.0808716,0.00744576,-0.0121353,-0.0117386,0.0129408,-0.0176304,-0.437819,0.0177194,0.0456864,790,680,-0.597978,0.0808641
-427,344,-0.25,-0.169556,0,0,0,0,0,0,0,-1,797,680,-0.250011,0.169538
-420,344,-0.264954,-0.593018,0.0227267,-0.0177291,-0.0156128,0.0280513,-0.0230537,-0.328668,0.0295524,0.0420708,804,680,-0.264939,0.59304
-413,344,0.0871582,-1.06006,0.0347569,-0.0212156,-0.0170366,0.0395346,-0.0259933,-0.273414,0.0381009,0.0437187,811,680,0.0871761,1.06004
-406,344,0.564819,-1.28821,0,0,0,0,0,0,0,-1,818,680,0.564796,1.28822
-399,344,1.08563,1.22308,0,0,0,0,0,0,0,-1,825,680,1.08565,-1.2231
-392,344,2.0921,0.76178,0,0,0,0,0,0,0,-1,832,680,2.09208,-0.76177
-385,344,0,0,0,0,0,0,0,0,0,-1,839,680,0,0
-378,344,0,0,0,0,0,0,0,0,0,-1,846,680,0,0
-371,344,0,0,0,0,0,0,0,0,0,-1,853,680,0,0
-364,344,0,0,0,0,0,0,0,0,0,-1,860,680,0,0
-357,344,0,0,0,0,0,0,0,0,0,-1,867,680,0,0
-350,344,0,0,0,0,0,0,0,0,0,-1,874,680,0,0
-343,344,0,0,0,0,0,0,0,0,0,-1,881,680,0,0
-336,344,0,0,0,0,0,0,0,0,0,-1,888,680,0,0
-329,344,0,0,0,0,0,0,0,0,0,-1,895,680,0,0
-322,344,0,0,0,0,0,0,0,0,0,-1,902,680,0,0
-315,344,0,0,0,0,0,0,0,0,0,-1,909,680,0,0
-308,344,0,0,0,0,0,0,0,0,0,-1,916,680,0,0
-301,344,0,0,0,0,0,0,0,0,0,-1,923,680,0,0
-294,344,0,0,0,0,0,0,0,0,0,-1,930,680,0,0
-287,344,0,0,0,0,0,0,0,0,0,-1,937,680,0,0
-280,344,0,0,0,0,0,0,0,0,0,-1,944,680,0,0
-273,344,0,0,0,0,0,0,0,0,0,-1,951,680,0,0
-266,344,0,0,0,0,0,0,0,0,0,-1,958,680,0,0
-259,344,0,0,0,0,0,0,0,0,0,-1,965,680,0,0
-252,344,0,0,0,0,0,0,0,0,0,-1,972,680,0,0
-245,344,0,0,0,0,0,0,0,0,0,-1,979,680,0,0
-238,344,0,0,0,0,0,0,0,0,0,-1,986,680,0,0
-231,344,0,0,0,0,0,0,0,0,0,-1,993,680,0,0
-224,344,0,0,0,0,0,0,0,0,0,-1,1000,680,0,0
-217,344,0,0,0,0,0,0,0,0,0,-1,1007,680,0,0
-210,344,0,0,0,0,0,0,0,0,0,-1,1014,680,0,0
-203,344,0,0,0,0,0,0,0,0,0,-1,1021,680,0,0
-196,344,0,0,0,0,0,0,0,0,0,-1,1028,680,0,0
-189,344,0,0,0,0,0,0,0,0,0,-1,1035,680,0,0
-182,344,0,0,0,0,0,0,0,0,0,-1,1042,680,0,0
-175,344,0,0,0,0,0,0,0,0,0,-1,1049,680,0,0
-168,344,0,0,0,0,0,0,0,0,0,-1,1056,680,0,0
-161,344,0,0,0,0,0,0,0,0,0,-1,1063,680,0,0
-154,344,0,0,0,0,0,0,0,0,0,-1,1070,680,0,0
-147,344,0,0,0,0,0,0,0,0,0,-1,1077,680,0,0
-140,344,0,0,0,0,0,0,0,0,0,-1,1084,680,0,0
-133,344,0,0,0,0,0,0,0,0,0,-1,1091,680,0,0
-126,344,0,0,0,0,0,0,0,0,0,-1,1098,680,0,0
-119,344,0,0,0,0,0,0,0,0,0,-1,1105,680,0,0
-112,344,0,0,0,0,0,0,0,0,0,-1,1112,680,0,0
-105,344,0,0,0,0,0,0,0,0,0,-1,1119,680,0,0
-98,344,0,0,0,0,0,0,0,0,0,-1,1126,680,0,0
-91,344,0,0,0,0,0,0,0,0,0,-1,1133,680,0,0
-84,344,0,0,0,0,0,0,0,0,0,-1,1140,680,0,0
-77,344,0,0,0,0,0,0,0,0,0,-1,1147,680,0,0
-70,344,0,0,0,0,0,0,0,0,0,-1,1154,680,0,0
-63,344,0,0,0,0,0,0,0,0,0,-1,1161,680,0,0
-56,344,0,0,0,0,0,0,0,0,0,-1,1168,680,0,0
-49,344,0,0,0,0,0,0,0,0,0,-1,1175,680,0,0
-42,344,0,0,0,0,0,0,0,0,0,-1,1182,680,0,0
-35,344,0,0,0,0,0,0,0,0,0,-1,1189,680,0,0
-28,344,0,0,0,0,0,0,0,0,0,-1,1196,680,0,0
-21,344,0,0,0,0,0,0,0,0,0,-1,1203,680,0,0
-14,344,0,0,0,0,0,0,0,0,0,-1,1210,680,0,0
-7,344,0,0,0,0,0,0,0,0,0,-1,1217,680,0,0
0,344,0,0,0,0,0,0,0,0,0,-1,1224,680,0,0
7,344,0,0,0,0,0,0,0,0,0,-1,1231,680,0,0
14,344,0,0,0,0,0,0,0,0,0,-1,1238,680,0,0
21,344,0,0,0,0,0,0,0,0,0,-1,1245,680,0,0
28,344,0,0,0,0,0,0,0,0,0,-1,1252,680,0,0
35,344,0,0,0,0,0,0,0,0,0,-1,1259,680,0,0
42,344,0,0,0,0,0,0,0,0,0,-1,1266,680,0,0
49,344,0,0,0,0,0,0,0,0,0,-1,1273,680,0,0
56,344,0,0,0,0,0,0,0,0,0,-1,1280,680,0,0
63,344,0,0,0,0,0,0,0,0,0,-1,1287,680,0,0
70,344,0,0,0,0,0,0,0,0,0,-1,1294,680,0,0
77,344,0,0,0,0,0,0,0,0,0,-1,1301,680,0,0
84,344,0,0,0,0,0,0,0,0,0,-1,1308,680,0,0
91,344,0,0,0,0,0,0,0,0,0,-1,1315,680,0,0
98,344,0,0,0,0,0,0,0,0,0,-1,1322,680,0,0
105,344,0,0,0,0,0,0,0,0,0,-1,1329,680,0,0
112,344,0,0,0,0,0,0,0,0,0,-1,1336,680,0,0
119,344,0,0,0,0,0,0,0,0,0,-1,1343,680,0,0
126,344,0,0,0,0,0,0,0,0,0,-1,1350,680,0,0
133,344,0,0,0,0,0,0,0,0,0,-1,1357,680,0,0
140,344,0,0,0,0,0,0,0,0,0,-1,1364,680,0,0
147,344,0,0,0,0,0,0,0,0,0,-1,1371,680,0,0
154,344,0,0,0,0,0,0,0,0,0,-1,1378,680,0,0
161,344,0,0,0,0,0,0,0,0,0,-1,1385,680,0,0
168,344,0,0,0,0,0,0,0,0,0,-1,1392,680,0,0
175,344,0,0,0,0,0,0,0,0,0,-1,1399,680,0,0
182,344,0,0,0,0,0,0,0,0,0,-1,1406,680,0,0
189,344,0,0,0,0,0,0,0,0,0,-1,1413,680,0,0
196,344,0,0,0,0,0,0,0,0,0,-1,1420,680,0,0
203,344,0,0,0,0,0,0,0,0,0,-1,1427,680,0,0
210,344,0,0,0,0,0,0,0,0,0,-1,1434,680,0,0
217,344,0,0,0,0,0,0,0,0,0,-1,1441,680,0,0
224,344,0,0,0,0,0,0,0,0,0,-1,1448,680,0,0
231,344,0,0,0,0,0,0,0,0,0,-1,1455,680,0,0
238,344,0,0,0,0,0,0,0,0,0,-1,1462,680,0,0
245,344,0,0,0,0,0,0,0,0,0,-1,1469,680,0,0
252,344,0,0,0,0,0,0,0,0,0,-1,1476,680,0,0
259,344,0,0,0,0,0,0,0,0,0,-1,1483,680,0,0
266,344,0,0,0,0,0,0,0,0,0,-1,1490,680,0,0
273,344,0,0,0,0,0,0,0,0,0,-1,1497,680,0,0
280,344,0,0,0,0,0,0,0,0,0,-1,1504,680,0,0
287,344,0,0,0,0,0,0,0,0,0,-1,1511,680,0,0
294,344,0,0,0,0,0,0,0,0,0,-1,1518,680,0,0
301,344,0,0,0,0,0,0,0,0,0,-1,1525,680,0,0
308,344,0,0,0,0,0,0,0,0,0,-1,1532,680,0,0
315,344,0,0,0,0,0,0,0,0,0,-1,1539,680,0,0
322,344,0,0,0,0,0,0,0,0,0,-1,1546,680,0,0
329,344,0,0,0,0,0,0,0,0,0,-1,1553,680,0,0
336,344,0,0,0,0,0,0,0,0,0,-1,1560,680,0,0
343,344,0,0,0,0,0,0,0,0,0,-1,1567,680,0,0
350,344,0,0,0,0,0,0,0,0,0,-1,1574,680,0,0
357,344,0,0,0,0,0,0,0,0,0,-1,1581,680,0,0
364,344,0,0,0,0,0,0,0,0,0,-1,1588,680,0,0
371,344,0,0,0,0,0,0,0,0,0,-1,1595,680,0,0
378,344,0,0,0,0,0,0,0,0,0,-1,1602,680,0,0
385,344,0,0,0,0,0,0,0,0,0,-1,1609,680,0,0
392,344,0,0,0,0,0,0,0,0,0,-1,1616,680,0,0
399,344,0,0,0,0,0,0,0,0,0,-1,1623,680,0,0
406,344,0,0,0,0,0,0,0,0,0,-1,1630,680,0,0
413,344,0,0,0,0,0,0,0,0,0,-1,1637,680,0,0
420,344,0,0,0,0,0,0,0,0,0,-1,1644,680,0,0
427,344,0,0,0,0,0,0,0,0,0,-1,1651,680,0,0
434,344,0,0,0,0,0,0,0,0,0,-1,1658,680,0,0
441,344,0,0,0,0,0,0,0,0,0,-1,1665,680,0,0
448,344,0,0,0,0,0,0,0,0,0,-1,1672,680,0,0
455,344,0,0,0,0,0,0,0,0,0,-1,1679,680,0,0
462,344,0,0,0,0,0,0,0,0,0,-1,1686,680,0,0
469,344,0,0,0,0,0,0,0,0,0,-1,1693,680,0,0
476,344,0,0,0,0,0,0,0,0,0,-1,1700,680,0,0
483,344,0,0,0,0,0,0,0,0,0,-1,1707,680,0,0
490,344,0,0,0,0,0,0,0,0,0,-1,1714,680,0,0
497,344,0,0,0,0,0,0,0,0,0,-1,1721,680,0,0
504,344,0,0,0,0,0,0,0,0,0,-1,1728,680,0,0
511,344,-0.417236,-0.608643,0,0,0,0,0,0,0,-1,1735,680,-0.417215,0.608633
518,344,1.3324,0.0919189,0,0,0,0,0,0,0,-1,1742,680,1.33244,-0.0919118
525,344,1.43018,-0.356934,0,0,0,0,0,0,0,-1,1749,680,1.43019,0.35691
532,344,1.44727,-0.970398,0,0,0,0,0,0,0,-1,1756,680,1.44723,0.970414
539,344,0.903442,-0.753418,-0.00676932,0.0220091,-0.00487124,0.0228113,-0.0075715,-1.40758,0.0182623,0.0464777,1763,680,0.903461,0.753429
546,344,0.436157,-0.587585,-0.00707754,0.0181258,-0.0043174,0.0188449,-0.00779661,-1.40576,0.0158162,0.0424327,1770,680,0.436203,0.587595
553,344,0.119873,-0.429382,-0.0069446,0.0151098,-0.00317338,0.0155573,-0.00739213,-1.43069,0.0135265,0.042845,1777,680,0.119837,0.429391
560,344,-0.226685,-0.0938721,-0.00623064,0.0112354,-0.00134868,0.0113389,-0.00633416,-1.49418,0.010339,0.0419161,1784,680,-0.226703,0.0938895
567,344,-0.406494,0.316772,0,0,0,0,0,0,0,-1,1791,680,-0.40645,-0.316786
574,344,-0.317383,0.273193,-0.0028467,0.00470394,0.00125036,0.00490561,-0.00304837,1.41089,0.00463377,0.0452956,1798,680,-0.317328,-0.273204
581,344,-0.122559,0.113586,-0.00180707,0.00225841,0.00225032,0.00325816,-0.00280682,1.15272,0.00350484,0.0398551,1805,680,-0.122593,-0.113578
588,344,0.0065918,0.0742798,-0.000367571,0.000422577,0.00249424,0.00255284,-0.00249783,0.863943,0.00291606,0.029937,1812,680,0.00653706,-0.074272
595,344,-0.0423584,0.0613403,0.000958932,-0.000591855,0.00199624,0.00232508,-0.00195801,0.600153,0.00247587,0.0148008,1819,680,-0.0423801,-0.0613665
602,344,-0.00549316,0.0834961,0.00119994,-0.00098574,0.00135824,0.0018504,-0.00163621,0.446629,0.00201426,0.0156813,1826,680,-0.0054961,-0.0834881
609,344,-0.0148926,0.0652466,0.00133877,-0.00112213,0.000802059,0.0015771,-0.00136045,0.288835,0.00169754,0.0140585,1833,680,-0.0149133,-0.0652481
616,344,-0.0324707,0.0567017,0.00170176,-0.000945178,0.00017383,0.00171313,-0.000956545,0.0652982,0.00156183,0.020871,1840,680,-0.0324584,-0.0567276
623,344,-0.027832,0.0765381,0.00179571,-0.00120519,-0.000191272,0.00180785,-0.00121733,-0.0633965,0.00175764,0.0179704,1847,680,-0.0278143,-0.0765175
630,344,-0.0500488,0.0546875,0.00186799,-0.00116231,-0.000411549,0.00192288,-0.00121721,-0.132612,0.00182813,0.0222254,1854,680,-0.0500433,-0.0547034
637,344,-0.0615234,0.0490723,0.00209941,-0.00112214,-0.000543506,0.00218864,-0.00121137,-0.162711,0.00198984,0.0210656,1861,680,-0.0615148,-0.0490591
644,344,-0.0775146,0.0613403,0.0025052,-0.00149444,-0.000779996,0.00265193,-0.00164117,-0.185943,0.00250141,0.0144135,1868,680,-0.0775505,-0.0613685
651,344,-0.0629883,0.0550537,0.00309833,-0.00208991,-0.000725054,0.00319775,-0.00218933,-0.136272,0.00312834,0.0106104,1875,680,-0.0629628,-0.0550355
658,344,-0.0751953,0.0993042,0.00368493,-0.00287051,-0.000773363,0.00377493,-0.00296051,-0.115854,0.00389817,0.0138715,1882,680,-0.0751511,-0.0992872
665,344,-0.0499268,0.117676,0.00427595,-0.00338997,-0.000817312,0.00436212,-0.00347614,-0.105043,0.00453504,0.0173287,1889,680,-0.0499579,-0.117664
672,344,-0.00854492,0.103333,0.00481185,-0.00365856,-0.00066503,0.00486374,-0.00371045,-0.0778763,0.00496522,0.0129113,1896,680,-0.00853675,-0.103351
679,344,0.113403,0.0881348,0.0052275,-0.00408796,-0.000382186,0.00524315,-0.00410361,-0.0409354,0.00540971,0.0277369,1903,680,0.113367,-0.0881226
686,344,0.34314,0.175476,0.00545481,-0.00431345,-5.864e-05,0.00545517,-0.0043138,-0.00600283,0.00565293,0.0388781,1910,680,0.343096,-0.175482
693,344,0.293213,0.0231323,0.00544872,-0.0042317,0.000342593,0.00546083,-0.00424381,0.0353313,0.00561764,0.0427537,1917,680,0.293179,-0.0231446
700,344,0.345093,-0.809875,0,0,0,0,0,0,0,-1,1924,680,0.345119,0.809895
707,344,-0.257446,-0.738525,0,0,0,0,0,0,0,-1,1931,680,-0.257444,0.738507
714,344,0,0,0,0,0,0,0,0,0,-1,1938,680,0,0
721,344,0,0,0,0,0,0,0,0,0,-1,1945,680,0,0
728,344,0,0,0,0,0,0,0,0,0,-1,1952,680,0,0
735,344,0,0,0,0,0,0,0,0,0,-1,1959,680,0,0
742,344,0,0,0,0,0,0,0,0,0,-1,1966,680,0,0
749,344,0,0,0,0,0,0,0,0,0,-1,1973,680,0,0
756,344,0,0,0,0,0,0,0,0,0,-1,1980,680,0,0
763,344,0,0,0,0,0,0,0,0,0,-1,1987,680,0,0
770,344,0,0,0,0,0,0,0,0,0,-1,1994,680,0,0
777,344,0,0,0,0,0,0,0,0,0,-1,2001,680,0,0
784,344,0,0,0,0,0,0,0,0,0,-1,2008,680,0,0
791,344,0,0,0,0,0,0,0,0,0,-1,2015,680,0,0
798,344,0,0,0,0,0,0,0,0,0,-1,2022,680,0,0
805,344,0,0,0,0,0,0,0,0,0,-1,2029,680,0,0
812,344,0,0,0,0,0,0,0,0,0,-1,2036,680,0,0
-700,337,0,0,0,0,0,0,0,0,0,-1,524,687,0,0
-693,337,0,0,0,0,0,0,0,0,0,-1,531,687,0,0
-686,337,0,0,0,0,0,0,0,0,0,-1,538,687,0,0
-679,337,0,0,0,0,0,0,0,0,0,-1,545,687,0,0
-672,337,0,0,0,0,0,0,0,0,0,-1,552,687,0,0
-665,337,0,0,0,0,0,0,0,0,0,-1,559,687,0,0
-658,337,0,0,0,0,0,0,0,0,0,-1,566,687,0,0
-651,337,0,0,0,0,0,0,0,0,0,-1,573,687,0,0
-644,337,0,0,0,0,0,0,0,0,0,-1,580,687,0,0
-637,337,0,0,0,0,0,0,0,0,0,-1,587,687,0,0
-630,337,0,0,0,0,0,0,0,0,0,-1,594,687,0,0
-623,337,0,0,0,0,0,0,0,0,0,-1,601,687,0,0
-616,337,0,0,0,0,0,0,0,0,0,-1,608,687,0,0
-609,337,0,0,0,0,0,0,0,0,0,-1,615,687,0,0
-602,337,0,0,0,0,0,0,0,0,0,-1,622,687,0,0
-595,337,0,0,0,0,0,0,0,0,0,-1,629,687,0,0
-588,337,0.858032,-0.373901,-0.00191733,-0.00679145,-0.0562518,0.0519502,-0.060659,-0.76375,0.0650797,0.0493181,636,687,0.85805,0.373886
-581,337,0.444336,0.0786133,-0.000998199,-0.00634733,-0.0446175,0.0410248,-0.0483704,-0.755462,0.0516704,0.0457238,643,687,0.444361,-0.078606
-574,337,0.644104,0.658752,0,0,0,0,0,0,0,-1,650,687,0.644089,-0.658775
-567,337,-0.395386,-0.0153198,0,0,0,0,0,0,0,-1,657,687,-0.395411,0.0153364
-560,337,-0.64386,-0.200989,0,0,0,0,0,0,0,-1,664,687,-0.64388,0.200958
-553,337,-0.368164,-0.116211,0.00199838,-0.00220205,-0.014225,0.0142774,-0.014481,-0.712106,0.0166038,0.0423825,671,687,-0.368166,0.116211
-546,337,-0.141174,-0.0599365,0.00209523,-0.00165743,-0.00988633,0.0102817,-0.00984391,-0.691618,0.0116205,0.0370499,678,687,-0.14116,0.0599454
-539,337,-0.0443726,0.0428467,0.00204808,-0.00106333,-0.00674775,0.00741713,-0.00643239,-0.672102,0.00800276,0.0217502,685,687,-0.0443773,-0.0428293
-532,337,-0.0200806,0.0925903,0.00218579,-0.0002827,-0.00446001,0.00557919,-0.0036761,-0.650409,0.00538107,0.011347,692,687,-0.0200569,-0.0925965
-525,337,-0.0425415,0.0773315,0.00206748,0.000155997,-0.00287281,0.00413936,-0.00191588,-0.624814,0.00357369,0.0140819,699,687,-0.0425344,-0.0773118
-518,337,-0.0852661,0.0308228,0.00167245,0.000182504,-0.00171492,0.00279722,-0.000942266,-0.580493,0.00224579,0.0210206,706,687,-0.0852873,-0.0307998
-511,337,-0.0560303,0.0276489,0.00118018,-0.000365245,-0.000878997,0.00157782,-0.000762883,-0.424828,0.00137844,0.0201643,713,687,-0.0560176,-0.0276513
-504,337,-0.0357056,0.0343628,0.000735496,-0.00116902,-0.000240017,0.000765279,-0.0011988,-0.123454,0.00114313,0.0186528,720,687,-0.0356994,-0.0343602
-497,337,-0.0273438,0.0714722,0.000243778,-0.00169085,-3.80927e-05,0.000244527,-0.0016916,-0.0196798,0.00121745,0.0137345,727,687,-0.0273316,-0.0714555
-490,337,-0.0420532,0.0685425,-0.000328029,-0.00248576,-0.000139673,-0.000319025,-0.00249476,-0.0643736,0.00156769,0.0124559,734,687,-0.0420367,-0.0685381
-483,337,-0.046936,0.0567627,-0.000627719,-0.0033689,-0.000573453,-0.000512589,-0.00348403,-0.198133,0.00217208,0.0129098,741,687,-0.0469443,-0.0567569
-476,337,-0.0356445,0.0750732,-0.00102714,-0.00459446,-0.0013498,-0.000573968,-0.00504763,-0.323906,0.00319102,0.011673,748,687,-0.0356272,-0.0750856
-469,337,-0.0328979,0.0671387,-0.00172405,-0.00580448,-0.00260063,-0.000458852,-0.00706968,-0.452787,0.00456786,0.00999295,755,687,-0.0328879,-0.0671643
-462,337,-0.0349731,0.0280762,-0.00214559,-0.00781707,-0.0036575,-0.000353294,-0.00960936,-0.455642,0.00629178,0.0192891,762,687,-0.034997,-0.0280583
-455,337,0.0671387,0.0494385,-0.00285216,-0.00969991,-0.00530728,3.98299e-05,-0.0125919,-0.498926,0.00840791,0.0373885,769,687,0.0671381,-0.0494568
-448,337,0.168823,0.108093,-0.00189065,-0.0123448,-0.00733,0.00188512,-0.0161206,-0.475664,0.0114274,0.0447409,776,687,0.168814,-0.108087
-441,337,0.0528564,0.214478,0.000924426,-0.0153247,-0.0100206,0.00570028,-0.0201005,-0.444756,0.0156504,0.0454205,783,687,0.052869,-0.214486
-434,337,0.0153809,-0.0787354,0.00434963,-0.0185806,-0.0127947,0.0100646,-0.0242955,-0.420076,0.0203971,0.0424824,790,687,0.0153698,0.0787276
-427,337,-0.00976563,-0.115234,0.0100872,-0.0220729,-0.0151228,0.0160813,-0.0280669,-0.377365,0.0258002,0.0417149,797,687,-0.00979427,0.115249
-420,337,-0.269592,0.024231,0.0189903,-0.0266156,-0.017735,0.0250752,-0.0327004,-0.330513,0.0334535,0.0455423,804,687,-0.269571,-0.0242325
-413,337,-0.25708,-0.254211,0.0310742,-0.0317012,-0.019686,0.0367369,-0.0373638,-0.280085,0.0427826,0.0478821,811,687,-0.257071,0.254239
-406,337,0.41394,-0.443298,0,0,0,0,0,0,0,-1,818,687,0.413918,0.44327
-399,337,-2.50891,-0.935303,0,0,0,0,0,0,0,-1,825,687,-2.50888,0.935283
-392,337,0,0,0,0,0,0,0,0,0,-1,832,687,0,0
-385,337,0,0,0,0,0,0,0,0,0,-1,839,687,0,0
-378,337,0,0,0,0,0,0,0,0,0,-1,846,687,0,0
-371,337,0,0,0,0,0,0,0,0,0,-1,853,687,0,0
-364,337,0,0,0,0,0,0,0,0,0,-1,860,687,0,0
-357,337,0,0,0,0,0,0,0,0,0,-1,867,687,0,0
-350,337,0,0,0,0,0,0,0,0,0,-1,874,687,0,0
-343,337,0,0,0,0,0,0,0,0,0,-1,881,687,0,0
-336,337,0,0,0,0,0,0,0,0,0,-1,888,687,0,0
-329,337,0,0,0,0,0,0,0,0,0,-1,895,687,0,0
-322,337,0,0,0,0,0,0,0,0,0,-1,902,687,0,0
-315,337,0,0,0,0,0,0,0,0,0,-1,909,687,0,0
-308,337,0,0,0,0,0,0,0,0,0,-1,916,687,0,0
-301,337,0,0,0,0,0,0,0,0,0,-1,923,687,0,0
-294,337,0,0,0,0,0,0,0,0,0,-1,930,687,0,0
-287,337,0,0,0,0,0,0,0,0,0,-1,937,687,0,0
-280,337,0,0,0,0,0,0,0,0,0,-1,944,687,0,0
-273,337,0,0,0,0,0,0,0,0,0,-1,951,687,0,0
-266,337,0,0,0,0,0,0,0,0,0,-1,958,687,0,0
-259,337,0,0,0,0,0,0,0,0,0,-1,965,687,0,0
-252,337,0,0,0,0,0,0,0,0,0,-1,972,687,0,0
-245,337,0,0,0,0,0,0,0,0,0,-1,979,687,0,0
-238,337,0,0,0,0,0,0,0,0,0,-1,986,687,0,0
-231,337,0,0,0,0,0,0,0,0,0,-1,993,687,0,0
-224,337,0,0,0,0,0,0,0,0,0,-1,1000,687,0,0
-217,337,0,0,0,0,0,0,0,0,0,-1,1007,687,0,0
-210,337,0,0,0,0,0,0,0,0,0,-1,1014,687,0,0
-203,337,0,0,0,0,0,0,0,0,0,-1,1021,687,0,0
-196,337,0,0,0,0,0,0,0,0,0,-1,1028,687,0,0
-189,337,0,0,0,0,0,0,0,0,0,-1,1035,687,0,0
-182,337,0,0,0,0,0,0,0,0,0,-1,1042,687,0,0
-175,337,0,0,0,0,0,0,0,0,0,-1,1049,687,0,0
-168,337,0,0,0,0,0,0,0,0,0,-1,1056,687,0,0
-161,337,0,0,0,0,0,0,0,0,0,-1,1063,687,0,0
-154,337,0,0,0,0,0,0,0,0,0,-1,1070,687,0,0
-147,337,0,0,0,0,0,0,0,0,0,-1,1077,687,0,0
-140,337,0,0,0,0,0,0,0,0,0,-1,1084,687,0,0
-133,337,0,0,0,0,0,0,0,0,0,-1,1091,687,0,0
-126,337,0,0,0,0,0,0,0,0,0,-1,1098,687,0,0
-119,337,0,0,0,0,0,0,0,0,0,-1,1105,687,0,0
-112,337,0,0,0,0,0,0,0,0,0,-1,1112,687,0,0
-105,337,0,0,0,0,0,0,0,0,0,-1,1119,687,0,0
-98,337,0,0,0,0,0,0,0,0,0,-1,1126,687,0,0
-91,337,0,0,0,0,0,0,0,0,0,-1,1133,687,0,0
-84,337,0,0,0,0,0,0,0,0,0,-1,1140,687,0,0
-77,337,0,0,0,0,0,0,0,0,0,-1,1147,687,0,0
-70,337,0,0,0,0,0,0,0,0,0,-1,1154,687,0,0
-63,337,0,0,0,0,0,0,0,0,0,-1,1161,687,0,0
-56,337,0,0,0,0,0,0,0,0,0,-1,1168,687,0,0
-49,337,0,0,0,0,0,0,0,0,0,-1,1175,687,0,0
-42,337,0,0,0,0,0,0,0,0,0,-1,1182,687,0,0
-35,337,0,0,0,0,0,0,0,0,0,-1,1189,687,0,0
-28,337,0,0,0,0,0,0,0,0,0,-1,1196,687,0,0
-21,337,0,0,0,0,0,0,0,0,0,-1,1203,687,0,0
-14,337,0,0,0,0,0,0,0,0,0,-1,1210,687,0,0
-7,337,0,0,0,0,0,0,0,0,0,-1,1217,687,0,0
0,337,0,0,0,0,0,0,0,0,0,-1,1224,687,0,0
7,337,0,0,0,0,0,0,0,0,0,-1,1231,687,0,0
14,337,0,0,0,0,0,0,0,0,0,-1,1238,687,0,0
21,337,0,0,0,0,0,0,0,0,0,-1,1245,687,0,0
28,337,0,0,0,0,0,0,0,0,0,-1,1252,687,0,0
35,337,0,0,0,0,0,0,0,0,0,-1,1259,687,0,0
42,337,0,0,0,0,0,0,0,0,0,-1,1266,687,0,0
49,337,0,0,0,0,0,0,0,0,0,-1,1273,687,0,0
56,337,0,0,0,0,0,0,0,0,0,-1,1280,687,0,0
63,337,0,0,0,0,0,0,0,0,0,-1,1287,687,0,0
70,337,0,0,0,0,0,0,0,0,0,-1,1294,687,0,0
77,337,0,0,0,0,0,0,0,0,0,-1,1301,687,0,0
84,337,0,0,0,0,0,0,0,0,0,-1,1308,687,0,0
91,337,0,0,0,0,0,0,0,0,0,-1,1315,687,0,0
98,337,0,0,0,0,0,0,0,0,0,-1,1322,687,0,0
105,337,0,0,0,0,0,0,0,0,0,-1,1329,687,0,0
112,337,0,0,0,0,0,0,0,0,0,-1,1336,687,0,0
119,337,0,0,0,0,0,0,0,0,0,-1,1343,687,0,0
126,337,0,0,0,0,0,0,0,0,0,-1,1350,687,0,0
133,337,0,0,0,0,0,0,0,0,0,-1,1357,687,0,0
140,337,0,0,0,0,0,0,0,0,0,-1,1364,687,0,0
147,337,0,0,0,0,0,0,0,0,0,-1,1371,687,0,0
154,337,0,0,0,0,0,0,0,0,0,-1,1378,687,0,0
161,337,0,0,0,0,0,0,0,0,0,-1,1385,687,0,0
168,337,0,0,0,0,0,0,0,0,0,-1,1392,687,0,0
175,337,0,0,0,0,0,0,0,0,0,-1,1399,687,0,0
182,337,0,0,0,0,0,0,0,0,0,-1,1406,687,0,0
189,337,0,0,0,0,0,0,0,0,0,-1,1413,687,0,0
196,337,0,0,0,0,0,0,0,0,0,-1,1420,687,0,0
203,337,0,0,0,0,0,0,0,0,0,-1,1427,687,0,0
210,337,0,0,0,0,0,0,0,0,0,-1,1434,687,0,0
217,337,0,0,0,0,0,0,0,0,0,-1,1441,687,0,0
224,337,0,0,0,0,0,0,0,0,0,-1,1448,687,0,0
231,337,0,0,0,0,0,0,0,0,0,-1,1455,687,0,0
238,337,0,0,0,0,0,0,0,0,0,-1,1462,687,0,0
245,337,0,0,0,0,0,0,0,0,0,-1,1469,687,0,0
252,337,0,0,0,0,0,0,0,0,0,-1,1476,687,0,0
259,337,0,0,0,0,0,0,0,0,0,-1,1483,687,0,0
266,337,0,0,0,0,0,0,0,0,0,-1,1490,687,0,0
273,337,0,0,0,0,0,0,0,0,0,-1,1497,687,0,0
280,337,0,0,0,0,0,0,0,0,0,-1,1504,687,0,0
287,337,0,0,0,0,0,0,0,0,0,-1,1511,687,0,0
294,337,0,0,0,0,0,0,0,0,0,-1,1518,687,0,0
301,337,0,0,0,0,0,0,0,0,0,-1,1525,687,0,0
308,337,0,0,0,0,0,0,0,0,0,-1,1532,687,0,0
315,337,0,0,0,0,0,0,0,0,0,-1,1539,687,0,0
322,337,0,0,0,0,0,0,0,0,0,-1,1546,687,0,0
329,337,0,0,0,0,0,0,0,0,0,-1,1553,687,0,0
336,337,0,0,0,0,0,0,0,0,0,-1,1560,687,0,0
343,337,0,0,0,0,0,0,0,0,0,-1,1567,687,0,0
350,337,0,0,0,0,0,0,0,0,0,-1,1574,687,0,0
357,337,0,0,0,0,0,0,0,0,0,-1,1581,687,0,0
364,337,0,0,0,0,0,0,0,0,0,-1,1588,687,0,0
371,337,0,0,0,0,0,0,0,0,0,-1,1595,687,0,0
378,337,0,0,0,0,0,0,0,0,0,-1,1602,687,0,0
385,337,0,0,0,0,0,0,0,0,0,-1,1609,687,0,0
392,337,0,0,0,0,0,0,0,0,0,-1,1616,687,0,0
399,337,0,0,0,0,0,0,0,0,0,-1,1623,687,0,0
406,337,0,0,0,0,0,0,0,0,0,-1,1630,687,0,0
413,337,0,0,0,0,0,0,0,0,0,-1,1637,687,0,0
420,337,0,0,0,0,0,0,0,0,0,-1,1644,687,0,0
427,337,0,0,0,0,0,0,0,0,0,-1,1651,687,0,0
434,337,0,0,0,0,0,0,0,0,0,-1,1658,687,0,0
441,337,0,0,0,0,0,0,0,0,0,-1,1665,687,0,0
448,337,0,0,0,0,0,0,0,0,0,-1,1672,687,0,0
455,337,0,0,0,0,0,0,0,0,0,-1,1679,687,0,0
462,337,0,0,0,0,0,0,0,0,0,-1,1686,687,0,0
469,337,0,0,0,0,0,0,0,0,0,-1,1693,687,0,0
476,337,0,0,0,0,0,0,0,0,0,-1,1700,687,0,0
483,337,0,0,0,0,0,0,0,0,0,-1,1707,687,0,0
490,337,0,0,0,0,0,0,0,0,0,-1,1714,687,0,0
497,337,0,0,0,0,0,0,0,0,0,-1,1721,687,0,0
504,337,0,0,0,0,0,0,0,0,0,-1,1728,687,0,0
511,337,0,0,0,0,0,0,0,0,0,-1,1735,687,0,0
518,337,0.80835,-0.0785522,0,0,0,0,0,0,0,-1,1742,687,0.808403,0.0785492
525,337,1.80896,-0.409668,0,0,0,0,0,0,0,-1,1749,687,1.80894,0.409639
532,337,-0.341431,-1.46814,0,0,0,0,0,0,0,-1,1756,687,-0.341458,1.46817
539,337,0.658081,-0.670288,0,0,0,0,0,0,0,-1,1763,687,0.658088,0.670261
546,337,0.165527,-0.496948,0,0,0,0,0,0,0,-1,1770,687,0.165552,0.496964
553,337,0.140869,-0.619873,0,0,0,0,0,0,0,-1,1777,687,0.140894,0.619884
560,337,0.124268,-0.0935669,0,0,0,0,0,0,0,-1,1784,687,0.124268,0.0935944
567,337,-0.162109,0.472656,0,0,0,0,0,0,0,-1,1791,687,-0.162149,-0.47267
574,337,-0.620605,0.237671,0,0,0,0,0,0,0,-1,1798,687,-0.620655,-0.237671
581,337,-0.141968,0.0279541,-0.0014763,0.00464169,0.00284785,0.00576213,-0.00259675,1.19596,0.00494,0.0443847,1805,687,-0.141982,-0.0279605
588,337,-0.00695801,0.106628,0.000139932,0.00217053,0.00283329,0.00416495,-0.00185448,0.957444,0.00355963,0.0425517,1812,687,-0.00696617,-0.106652
595,337,-0.0864258,0.122925,0.00157586,0.000590597,0.00216636,0.00330489,-0.00113843,0.673599,0.00266506,0.0293483,1819,687,-0.0864611,-0.122955
602,337,-0.0476074,0.0570068,0.00188481,-0.000243967,0.00139028,0.00257136,-0.000930517,0.458694,0.00209449,0.0123158,1826,687,-0.0475556,-0.0569853
609,337,-0.0299072,0.0777588,0.00195666,-0.000729294,0.000822449,0.00218849,-0.000961121,0.274746,0.00186388,0.0145856,1833,687,-0.0299234,-0.0777734
616,337,-0.0549316,0.079895,0.0021439,-0.000747262,0.000235422,0.00216294,-0.000766306,0.0807195,0.00175411,0.0155789,1840,687,-0.0549087,-0.0799028
623,337,-0.0343018,0.0672607,0.00203847,-0.00135397,-0.000103995,0.00204166,-0.00135715,-0.0306167,0.00197553,0.0137049,1847,687,-0.0342979,-0.0672802
630,337,-0.022583,0.0698242,0.00188483,-0.00131568,-0.000315038,0.00191554,-0.00134639,-0.0971911,0.00189281,0.0170486,1854,687,-0.0226427,-0.0698146
637,337,-0.0379639,0.0739746,0.00188385,-0.00118094,-0.000420632,0.00194053,-0.00123763,-0.133947,0.00184981,0.0150597,1861,687,-0.0379926,-0.0740051
644,337,-0.0461426,0.0819702,0.00203794,-0.00134838,-0.000573887,0.00213255,-0.00144299,-0.163396,0.0020771,0.0100899,1868,687,-0.046101,-0.0819924
651,337,-0.0496826,0.0675659,0.00243232,-0.00177089,-0.000409635,0.00247187,-0.00181044,-0.096251,0.0024822,0.00926687,1875,687,-0.0496911,-0.0675366
658,337,-0.052002,0.0691528,0.00293424,-0.00240806,-0.000435504,0.00296951,-0.00244333,-0.0808089,0.00313002,0.0107658,1882,687,-0.0519941,-0.0691373
665,337,-0.0408936,0.0755005,0.00355578,-0.00280367,-0.000528558,0.00359941,-0.0028473,-0.0823606,0.00373045,0.0122938,1889,687,-0.0409259,-0.0755005
672,337,-0.0318604,0.0840454,0.00424517,-0.00283401,-0.00044606,0.00427317,-0.00286201,-0.0626797,0.00414626,0.0113135,1896,687,-0.0318785,-0.0840507
679,337,-0.0162354,0.078064,0.00490809,-0.00310107,-0.00024397,0.00491552,-0.0031085,-0.0304237,0.00467166,0.027508,1903,687,-0.0162155,-0.0780381
686,337,0.232544,0.230225,0.00557491,-0.00307796,-4.89249e-05,0.00557519,-0.00307823,-0.00565395,0.00506491,0.0373207,1910,687,0.232492,-0.230219
693,337,0.0821533,0.221497,0.00620168,-0.00270522,0.000216031,0.00620692,-0.00271046,0.0242353,0.00527872,0.0419886,1917,687,0.0822133,-0.221495
700,337,0.21521,-0.439819,0.00668465,-0.00183904,0.000532871,0.00671784,-0.00187223,0.0621937,0.00521587,0.0416281,1924,687,0.21516,0.439838
707,337,-0.032959,-0.170044,0.00688597,-0.00028471,0.000932105,0.00700515,-0.000403892,0.127173,0.00481038,0.0389581,1931,687,-0.0329213,0.170061
714,337,0,0,0,0,0,0,0,0,0,-1,1938,687,0,0
721,337,0,0,0,0,0,0,0,0,0,-1,1945,687,0,0
728,337,0,0,0,0,0,0,0,0,0,-1,1952,687,0,0
735,337,0,0,0,0,0,0,0,0,0,-1,1959,687,0,0
742,337,0,0,0,0,0,0,0,0,0,-1,1966,687,0,0
749,337,0,0,0,0,0,0,0,0,0,-1,1973,687,0,0
756,337,0,0,0,0,0,0,0,0,0,-1,1980,687,0,0
763,337,0,0,0,0,0,0,0,0,0,-1,1987,687,0,0
770,337,0,0,0,0,0,0,0,0,0,-1,1994,687,0,0
777,337,0,0,0,0,0,0,0,0,0,-1,2001,687,0,0
784,337,0,0,0,0,0,0,0,0,0,-1,2008,687,0,0
791,337,0,0,0,0,0,0,0,0,0,-1,2015,687,0,0
798,337,0,0,0,0,0,0,0,0,0,-1,2022,687,0,0
805,337,0,0,0,0,0,0,0,0,0,-1,2029,687,0,0
812,337,0,0,0,0,0,0,0,0,0,-1,2036,687,0,0
-700,330,0,0,0,0,0,0,0,0,0,-1,524,694,0,0
-693,330,0,0,0,0,0,0,0,0,0,-1,531,694,0,0
-686,330,0,0,0,0,0,0,0,0,0,-1,538,694,0,0
-679,330,0,0,0,0,0,0,0,0,0,-1,545,694,0,0
-672,330,0,0,0,0,0,0,0,0,0,-1,552,694,0,0
-665,330,0,0,0,0,0,0,0,0,0,-1,559,694,0,0
-658,330,0,0,0,0,0,0,0,0,0,-1,566,694,0,0
-651,330,0,0,0,0,0,0,0,0,0,-1,573,694,0,0
-644,330,0,0,0,0,0,0,0,0,0,-1,580,694,0,0
-637,330,0,0,0,0,0,0,0,0,0,-1,587,694,0,0
-630,330,0,0,0,0,0,0,0,0,0,-1,594,694,0,0
-623,330,0,0,0,0,0,0,0,0,0,-1,601,694,0,0
-616,330,0,0,0,0,0,0,0,0,0,-1,608,694,0,0
-609,330,0,0,0,0,0,0,0,0,0,-1,615,694,0,0
-602,330,0,0,0,0,0,0,0,0,0,-1,622,694,0,0
-595,330,2.18829,0.412537,0,0,0,0,0,0,0,-1,629,694,2.1883,-0.412558
-588,330,1.41901,0.241699,0.00223103,-0.00141707,-0.0655044,0.0659368,-0.0651228,-0.771479,0.0756678,0.046128,636,694,1.41903,-0.241696
-581,330,0.687378,0.748047,0.00199542,-0.00236391,-0.0518185,0.05168,-0.0520485,-0.764379,0.0598878,0.0455009,643,694,0.687399,-0.748066
-574,330,0.169128,1.15009,0.00212411,-0.0023523,-0.0401429,0.0400912,-0.0403194,-0.757549,0.0464251,0.0435904,650,694,0.169158,-1.15008
-567,330,0.00683594,0.631409,0.00229228,-0.00186989,-0.030478,0.0307601,-0.0303377,-0.75131,0.0352752,0.042392,657,694,0.00686046,-0.631437
-560,330,-0.0838623,0.13269,0.00245531,-0.00125347,-0.0226636,0.0233403,-0.0221385,-0.744578,0.0262602,0.0385718,664,694,-0.0838672,-0.132702
-553,330,-0.144226,-0.00805664,0.00235379,-0.00107524,-0.0159484,0.0166796,-0.0154011,-0.731852,0.0185267,0.0345003,671,694,-0.144218,0.00803725
-546,330,-0.0247192,-0.012146,0.00223102,-0.000806634,-0.0109115,0.0117289,-0.0103045,-0.716245,0.0127299,0.0227996,678,694,-0.0247129,0.0121357
-539,330,-0.00756836,0.0699463,0.00208631,-0.000361119,-0.0073187,0.00828289,-0.0065577,-0.702563,0.0085875,0.00982519,685,694,-0.00753862,-0.0699358
-532,330,-0.0175171,0.0806274,0.00216782,0.00026701,-0.00469069,0.00600342,-0.00356859,-0.685444,0.00558568,0.0086024,692,694,-0.0175432,-0.0806189
-525,330,-0.0394897,0.0692139,0.00212157,0.000604024,-0.00284805,0.00431019,-0.00158459,-0.655212,0.00352253,0.0100871,699,694,-0.039503,-0.0691966
-518,330,-0.0557251,0.0669556,0.00183197,0.000610879,-0.00156089,0.00289747,-0.000454622,-0.59897,0.00209966,0.0126402,706,694,-0.0557364,-0.0669504
-511,330,-0.0504761,0.0594482,0.00138979,-0.000129362,-0.000658473,0.00163547,-0.000375043,-0.35711,0.00123447,0.0164647,713,694,-0.0504582,-0.0594245
-504,330,-0.0341187,0.0525513,0.000908468,-0.00106719,9.84711e-05,0.000913364,-0.00107209,0.049678,0.00114752,0.0156748,720,694,-0.0341169,-0.052534
-497,330,-0.0313721,0.0810547,0.000326354,-0.00189929,0.000377348,0.000388591,-0.00196153,0.163462,0.00145462,0.0116929,727,694,-0.0313676,-0.0810781
-490,330,-0.0336914,0.0687256,-0.000350824,-0.00309517,0.000363362,-0.000303529,-0.00314246,0.129433,0.00200148,0.0116958,734,694,-0.0336728,-0.0687046
-483,330,-0.0505371,0.0404053,-0.000748444,-0.00438271,-6.70109e-06,-0.000748432,-0.00438272,-0.00184385,0.00270705,0.0122534,741,694,-0.0505067,-0.0403916
-476,330,-0.0397949,0.0276489,-0.00136744,-0.00614222,-0.00074955,-0.00125254,-0.00625712,-0.152108,0.00382292,0.0127311,748,694,-0.0397839,-0.0276775
-469,330,0.0184326,0.0584106,-0.00239102,-0.0079587,-0.00205141,-0.00171682,-0.0086329,-0.317531,0.00527692,0.0168906,755,694,0.0184323,-0.0583971
-462,330,-0.038269,-0.0370483,-0.00314981,-0.0106904,-0.00320116,-0.00197414,-0.0118661,-0.35197,0.00734169,0.0354584,762,694,-0.0382643,0.0370539
-455,330,0.10675,0.0189209,-0.00420491,-0.013457,-0.00502264,-0.00200255,-0.0156594,-0.413239,0.00984022,0.0425028,769,694,0.10678,-0.0189203
-448,330,0.250916,0.0598145,-0.00385347,-0.0170002,-0.00729866,-0.000604432,-0.0202492,-0.418819,0.0133026,0.0457967,776,694,0.250885,-0.0597944
-441,330,0.277649,0.159668,-0.00191297,-0.0209929,-0.0102607,0.00255753,-0.0254634,-0.410891,0.0178892,0.0434353,783,694,0.277676,-0.159681
-434,330,0.492126,0.317993,0.000499439,-0.0255037,-0.0135942,0.00630857,-0.0313129,-0.403838,0.023265,0.0406986,790,694,0.492123,-0.317968
-427,330,0.852112,0.363037,0.00498226,-0.0306431,-0.0169684,0.0117708,-0.0374316,-0.380565,0.0296668,0.0428326,797,694,0.852089,-0.36304
-420,330,-0.582031,-0.101379,0.0127501,-0.036958,-0.0206028,0.0201791,-0.044387,-0.346073,0.0381407,0.0448381,804,694,-0.582034,0.101404
-413,330,1.65149,-0.444885,0,0,0,0,0,0,0,-1,811,694,1.6515,0.444875
-406,330,-1.2962,-0.682556,0,0,0,0,0,0,0,-1,818,694,-1.29617,0.682542
-399,330,0,0,0,0,0,0,0,0,0,-1,825,694,0,0
-392,330,0,0,0,0,0,0,0,0,0,-1,832,694,0,0
-385,330,0,0,0,0,0,0,0,0,0,-1,839,694,0,0
-378,330,0,0,0,0,0,0,0,0,0,-1,846,694,0,0
-371,330,0,0,0,0,0,0,0,0,0,-1,853,694,0,0
-364,330,0,0,0,0,0,0,0,0,0,-1,860,694,0,0
-357,330,0,0,0,0,0,0,0,0,0,-1,867,694,0,0
-350,330,0,0,0,0,0,0,0,0,0,-1,874,694,0,0
-343,330,0,0,0,0,0,0,0,0,0,-1,881,694,0,0
-336,330,0,0,0,0,0,0,0,0,0,-1,888,694,0,0
-329,330,0,0,0,0,0,0,0,0,0,-1,895,694,0,0
-322,330,0,0,0,0,0,0,0,0,0,-1,902,694,0,0
-315,330,0,0,0,0,0,0,0,0,0,-1,909,694,0,0
-308,330,0,0,0,0,0,0,0,0,0,-1,916,694,0,0
-301,330,0,0,0,0,0,0,0,0,0,-1,923,694,0,0
-294,330,0,0,0,0,0,0,0,0,0,-1,930,694,0,0
-287,330,0,0,0,0,0,0,0,0,0,-1,937,694,0,0
-280,330,0,0,0,0,0,0,0,0,0,-1,944,694,0,0
-273,330,0,0,0,0,0,0,0,0,0,-1,951,694,0,0
-266,330,0,0,0,0,0,0,0,0,0,-1,958,694,0,0
-259,330,0,0,0,0,0,0,0,0,0,-1,965,694,0,0
-252,330,0,0,0,0,0,0,0,0,0,-1,972,694,0,0
-245,330,0,0,0,0,0,0,0,0,0,-1,979,694,0,0
-238,330,0,0,0,0,0,0,0,0,0,-1,986,694,0,0
-231,330,0,0,0,0,0,0,0,0,0,-1,993,694,0,0
-224,330,0,0,0,0,0,0,0,0,0,-1,1000,694,0,0
-217,330,0,0,0,0,0,0,0,0,0,-1,1007,694,0,0
-210,330,0,0,0,0,0,0,0,0,0,-1,1014,694,0,0
-203,330,0,0,0,0,0,0,0,0,0,-1,1021,694,0,0
-196,330,0,0,0,0,0,0,0,0,0,-1,1028,694,0,0
-189,330,0,0,0,0,0,0,0,0,0,-1,1035,694,0,0
-182,330,0,0,0,0,0,0,0,0,0,-1,1042,694,0,0
-175,330,0,0,0,0,0,0,0,0,0,-1,1049,694,0,0
-168,330,0,0,0,0,0,0,0,0,0,-1,1056,694,0,0
-161,330,0,0,0,0,0,0,0,0,0,-1,1063,694,0,0
-154,330,0,0,0,0,0,0,0,0,0,-1,1070,694,0,0
-147,330,0,0,0,0,0,0,0,0,0,-1,1077,694,0,0
-140,330,0,0,0,0,0,0,0,0,0,-1,1084,694,0,0
-133,330,0,0,0,0,0,0,0,0,0,-1,1091,694,0,0
-126,330,0,0,0,0,0,0,0,0,0,-1,1098,694,0,0
-119,330,0,0,0,0,0,0,0,0,0,-1,1105,694,0,0
-112,330,0,0,0,0,0,0,0,0,0,-1,1112,694,0,0
-105,330,0,0,0,0,0,0,0,0,0,-1,1119,694,0,0
-98,330,0,0,0,0,0,0,0,0,0,-1,1126,694,0,0
-91,330,0,0,0,0,0,0,0,0,0,-1,1133,694,0,0
-84,330,0,0,0,0,0,0,0,0,0,-1,1140,694,0,0
-77,330,0,0,0,0,0,0,0,0,0,-1,1147,694,0,0
-70,330,0,0,0,0,0,0,0,0,0,-1,1154,694,0,0
-63,330,0,0,0,0,0,0,0,0,0,-1,1161,694,0,0
-56,330,0,0,0,0,0,0,0,0,0,-1,1168,694,0,0
-49,330,0,0,0,0,0,0,0,0,0,-1,1175,694,0,0
-42,330,0,0,0,0,0,0,0,0,0,-1,1182,694,0,0
-35,330,0,0,0,0,0,0,0,0,0,-1,1189,694,0,0
-28,330,0,0,0,0,0,0,0,0,0,-1,1196,694,0,0
-21,330,0,0,0,0,0,0,0,0,0,-1,1203,694,0,0
-14,330,0,0,0,0,0,0,0,0,0,-1,1210,694,0,0
-7,330,0,0,0,0,0,0,0,0,0,-1,1217,694,0,0
0,330,0,0,0,0,0,0,0,0,0,-1,1224,694,0,0
7,330,0,0,0,0,0,0,0,0,0,-1,1231,694,0,0
14,330,0,0,0,0,0,0,0,0,0,-1,1238,694,0,0
21,330,0,0,0,0,0,0,0,0,0,-1,1245,694,0,0
28,330,0,0,0,0,0,0,0,0,0,-1,1252,694,0,0
35,330,0,0,0,0,0,0,0,0,0,-1,1259,694,0,0
42,330,0,0,0,0,0,0,0,0,0,-1,1266,694,0,0
49,330,0,0,0,0,0,0,0,0,0,-1,1273,694,0,0
56,330,0,0,0,0,0,0,0,0,0,-1,1280,694,0,0
63,330,0,0,0,0,0,0,0,0,0,-1,1287,694,0,0
70,330,0,0,0,0,0,0,0,0,0,-1,1294,694,0,0
77,330,0,0,0,0,0,0,0,0,0,-1,1301,694,0,0
84,330,0,0,0,0,0,0,0,0,0,-1,1308,694,0,0
91,330,0,0,0,0,0,0,0,0,0,-1,1315,694,0,0
98,330,0,0,0,0,0,0,0,0,0,-1,1322,694,0,0
105,330,0,0,0,0,0,0,0,0,0,-1,1329,694,0,0
112,330,0,0,0,0,0,0,0,0,0,-1,1336,694,0,0
119,330,0,0,0,0,0,0,0,0,0,-1,1343,694,0,0
126,330,0,0,0,0,0,0,0,0,0,-1,1350,694,0,0
133,330,0,0,0,0,0,0,0,0,0,-1,1357,694,0,0
140,330,0,0,0,0,0,0,0,0,0,-1,1364,694,0,0
147,330,0,0,0,0,0,0,0,0,0,-1,1371,694,0,0
154,330,0,0,0,0,0,0,0,0,0,-1,1378,694,0,0
161,330,0,0,0,0,0,0,0,0,0,-1,1385,694,0,0
168,330,0,0,0,0,0,0,0,0,0,-1,1392,694,0,0
175,330,0,0,0,0,0,0,0,0,0,-1,1399,694,0,0
182,330,0,0,0,0,0,0,0,0,0,-1,1406,694,0,0
189,330,0,0,0,0,0,0,0,0,0,-1,1413,694,0,0
196,330,0,0,0,0,0,0,0,0,0,-1,1420,694,0,0
203,330,0,0,0,0,0,0,0,0,0,-1,1427,694,0,0
210,330,0,0,0,0,0,0,0,0,0,-1,1434,694,0,0
217,330,0,0,0,0,0,0,0,0,0,-1,1441,694,0,0
224,330,0,0,0,0,0,0,0,0,0,-1,1448,694,0,0
231,330,0,0,0,0,0,0,0,0,0,-1,1455,694,0,0
238,330,0,0,0,0,0,0,0,0,0,-1,1462,694,0,0
245,330,0,0,0,0,0,0,0,0,0,-1,1469,694,0,0
252,330,0,0,0,0,0,0,0,0,0,-1,1476,694,0,0
259,330,0,0,0,0,0,0,0,0,0,-1,1483,694,0,0
266,330,0,0,0,0,0,0,0,0,0,-1,1490,694,0,0
273,330,0,0,0,0,0,0,0,0,0,-1,1497,694,0,0
280,330,0,0,0,0,0,0,0,0,0,-1,1504,694,0,0
287,330,0,0,0,0,0,0,0,0,0,-1,1511,694,0,0
294,330,0,0,0,0,0,0,0,0,0,-1,1518,694,0,0
301,330,0,0,0,0,0,0,0,0,0,-1,1525,694,0,0
308,330,0,0,0,0,0,0,0,0,0,-1,1532,694,0,0
315,330,0,0,0,0,0,0,0,0,0,-1,1539,694,0,0
322,330,0,0,0,0,0,0,0,0,0,-1,1546,694,0,0
329,330,0,0,0,0,0,0,0,0,0,-1,1553,694,0,0
336,330,0,0,0,0,0,0,0,0,0,-1,1560,694,0,0
343,330,0,0,0,0,0,0,0,0,0,-1,1567,694,0,0
350,330,0,0,0,0,0,0,0,0,0,-1,1574,694,0,0
357,330,0,0,0,0,0,0,0,0,0,-1,1581,694,0,0
364,330,0,0,0,0,0,0,0,0,0,-1,1588,694,0,0
371,330,0,0,0,0,0,0,0,0,0,-1,1595,694,0,0
378,330,0,0,0,0,0,0,0,0,0,-1,1602,694,0,0
385,330,0,0,0,0,0,0,0,0,0,-1,1609,694,0,0
392,330,0,0,0,0,0,0,0,0,0,-1,1616,694,0,0
399,330,0,0,0,0,0,0,0,0,0,-1,1623,694,0,0
406,330,0,0,0,0,0,0,0,0,0,-1,1630,694,0,0
413,330,0,0,0,0,0,0,0,0,0,-1,1637,694,0,0
420,330,0,0,0,0,0,0,0,0,0,-1,1644,694,0,0
427,330,0,0,0,0,0,0,0,0,0,-1,1651,694,0,0
434,330,0,0,0,0,0,0,0,0,0,-1,1658,694,0,0
441,330,0,0,0,0,0,0,0,0,0,-1,1665,694,0,0
448,330,0,0,0,0,0,0,0,0,0,-1,1672,694,0,0
455,330,0,0,0,0,0,0,0,0,0,-1,1679,694,0,0
462,330,0,0,0,0,0,0,0,0,0,-1,1686,694,0,0
469,330,0,0,0,0,0,0,0,0,0,-1,1693,694,0,0
476,330,0,0,0,0,0,0,0,0,0,-1,1700,694,0,0
483,330,0,0,0,0,0,0,0,0,0,-1,1707,694,0,0
490,330,0,0,0,0,0,0,0,0,0,-1,1714,694,0,0
497,330,0,0,0,0,0,0,0,0,0,-1,1721,694,0,0
504,330,0,0,0,0,0,0,0,0,0,-1,1728,694,0,0
511,330,0,0,0,0,0,0,0,0,0,-1,1735,694,0,0
518,330,0,0,0,0,0,0,0,0,0,-1,1742,694,0,0
525,330,0.363892,-1.97498,0,0,0,0,0,0,0,-1,1749,694,0.363906,1.97497
532,330,0.14978,-1.43597,0,0,0,0,0,0,0,-1,1756,694,0.149732,1.43599
539,330,0.267578,-0.895691,0,0,0,0,0,0,0,-1,1763,694,0.267548,0.895693
546,330,0.296509,-0.281982,-0.00762295,0.0281943,-0.00225311,0.0283355,-0.00776412,-1.50822,0.0219412,0.0417983,1770,694,0.296496,0.281974
553,330,0.298706,0.340942,-0.00749993,0.0250312,-0.00137385,0.0250891,-0.00755784,-1.52866,0.0197338,0.0424632,1777,694,0.298678,-0.340959
560,330,0.552124,-0.106995,0,0,0,0,0,0,0,-1,1784,694,0.55214,0.107007
567,330,0.0244141,0.487488,0,0,0,0,0,0,0,-1,1791,694,0.0243701,-0.487517
574,330,0.127319,-0.30835,0,0,0,0,0,0,0,-1,1798,694,0.127378,0.308339
581,330,0.043457,-0.149658,-0.0011434,0.00894575,0.00248264,0.00952356,-0.00172121,1.34213,0.00699374,0.0468547,1805,694,0.0434199,0.149649
588,330,-0.0786133,0.194153,0.000532009,0.00581654,0.00237373,0.00672619,-0.000377648,1.20484,0.00461516,0.0451854,1812,694,-0.0785772,-0.194125
595,330,-0.126343,0.135132,0.00198123,0.00349824,0.00172165,0.00462107,0.000858405,0.992889,0.00283818,0.0389832,1819,694,-0.126351,-0.13512
602,330,-0.0708008,0.0579834,0.00232412,0.0019875,0.000952556,0.00312312,0.0011885,0.697955,0.00182021,0.0224359,1826,694,-0.070774,-0.0579668
609,330,-0.0714111,0.0734253,0.00235266,0.000915147,0.000483088,0.00249992,0.000767887,0.295882,0.00147868,0.0124477,1833,694,-0.0713654,-0.0734149
616,330,-0.0638428,0.0751343,0.00243586,0.000459253,2.51236e-05,0.00243618,0.000458934,0.0127077,0.00149481,0.0101746,1840,694,-0.0638621,-0.0751094
623,330,-0.0410156,0.0621338,0.00220753,-0.000732121,-0.000228081,0.00222512,-0.000749713,-0.0769738,0.00178655,0.0116233,1847,694,-0.0410627,-0.0621246
630,330,-0.0241699,0.0697021,0.00189496,-0.000975397,-0.000373789,0.00194284,-0.00102327,-0.127394,0.0017397,0.0125723,1854,694,-0.0241294,-0.0697136
637,330,-0.00561523,0.0767822,0.00175613,-0.00104488,-0.000423259,0.00181869,-0.00110744,-0.146746,0.00170596,0.0119787,1861,694,-0.00556316,-0.0768012
644,330,-0.0435791,0.0831909,0.00175464,-0.0010235,-0.00051361,0.00184655,-0.00111541,-0.17708,0.00172737,0.00746367,1868,694,-0.0435996,-0.0831755
651,330,-0.0454102,0.0778809,0.00202011,-0.00128435,-0.000255116,0.00203969,-0.00130393,-0.0765988,0.00194595,0.0099392,1875,694,-0.0454206,-0.07788
658,330,-0.0393066,0.0706177,0.00248197,-0.00178135,-0.000245113,0.00249602,-0.00179539,-0.0572421,0.00248863,0.0106742,1882,694,-0.0393171,-0.0706162
665,330,-0.0443115,0.0770264,0.003127,-0.00204517,-0.000366067,0.00315278,-0.00207095,-0.0703092,0.00303741,0.00971904,1889,694,-0.0442905,-0.0770173
672,330,-0.0600586,0.0853882,0.00396456,-0.0018219,-0.000331173,0.00398346,-0.0018408,-0.0569843,0.00343765,0.0107623,1896,694,-0.0600278,-0.085394
679,330,-0.0717773,0.0631714,0.0049367,-0.00188445,-0.000143049,0.0049397,-0.00188745,-0.0209591,0.00407085,0.0219116,1903,694,-0.0717195,-0.0631454
686,330,-0.0783691,0.000549316,0.00599897,-0.00158918,-1.70203e-06,0.00599897,-0.00158918,-0.000224302,0.00462104,0.0373344,1910,694,-0.0783616,-0.000520275
693,330,-0.00878906,-0.198608,0.00717292,-0.000912379,0.000230471,0.00717949,-0.000918943,0.0284742,0.0051202,0.0453016,1917,694,-0.00880591,0.198602
700,330,0.127563,-0.167847,0.00841918,0.000277384,0.000567322,0.00845852,0.000238043,0.0692343,0.00556136,0.0441122,1924,694,0.127535,0.16784
707,330,0.340088,0.0708618,0.0096569,0.00214755,0.0010719,0.00980691,0.00199754,0.139043,0.00598427,0.0395282,1931,694,0.340145,-0.0708679
714,330,0.291138,0.128662,0.010786,0.00492989,0.00192432,0.0113618,0.00435416,0.290709,0.00661907,0.0418755,1938,694,0.291132,-0.128662
721,330,0,0,0,0,0,0,0,0,0,-1,1945,694,0,0
728,330,0,0,0,0,0,0,0,0,0,-1,1952,694,0,0
735,330,0,0,0,0,0,0,0,0,0,-1,1959,694,0,0
742,330,0,0,0,0,0,0,0,0,0,-1,1966,694,0,0
749,330,0,0,0,0,0,0,0,0,0,-1,1973,694,0,0
756,330,0,0,0,0,0,0,0,0,0,-1,1980,694,0,0
763,330,0,0,0,0,0,0,0,0,0,-1,1987,694,0,0
770,330,0,0,0,0,0,0,0,0,0,-1,1994,694,0,0
777,330,0,0,0,0,0,0,0,0,0,-1,2001,694,0,0
784,330,0,0,0,0,0,0,0,0,0,-1,2008,694,0,0
791,330,0,0,0,0,0,0,0,0,0,-1,2015,694,0,0
798,330,0,0,0,0,0,0,0,0,0,-1,2022,694,0,0
805,330,0,0,0,0,0,0,0,0,0,-1,2029,694,0,0
812,330,0,0,0,0,0,0,0,0,0,-1,2036,694,0,0
-700,323,0,0,0,0,0,0,0,0,0,-1,524,701,0,0
-693,323,0,0,0,0,0,0,0,0,0,-1,531,701,0,0
-686,323,0,0,0,0,0,0,0,0,0,-1,538,701,0,0
-679,323,0,0,0,0,0,0,0,0,0,-1,545,701,0,0
-672,323,0,0,0,0,0,0,0,0,0,-1,552,701,0,0
-665,323,0,0,0,0,0,0,0,0,0,-1,559,701,0,0
-658,323,0,0,0,0,0,0,0,0,0,-1,566,701,0,0
-651,323,0,0,0,0,0,0,0,0,0,-1,573,701,0,0
-644,323,0,0,0,0,0,0,0,0,0,-1,580,701,0,0
-637,323,0,0,0,0,0,0,0,0,0,-1,587,701,0,0
-630,323,0,0,0,0,0,0,0,0,0,-1,594,701,0,0
-623,323,0,0,0,0,0,0,0,0,0,-1,601,701,0,0
-616,323,0,0,0,0,0,0,0,0,0,-1,608,701,0,0
-609,323,0,0,0,0,0,0,0,0,0,-1,615,701,0,0
-602,323,-0.25354,11.1324,0,0,0,0,0,0,0,-1,622,701,-0.253517,-11.1324
-595,323,-0.132751,9.31653,0,0,0,0,0,0,0,-1,629,701,-0.132747,-9.31653
-588,323,1.47076,1.01929,0,0,0,0,0,0,0,-1,636,701,1.47077,-1.01928
-581,323,-0.0429688,1.67767,0,0,0,0,0,0,0,-1,643,701,-0.0429839,-1.67765
-574,323,-0.160583,1.36035,0.0056531,0.00223564,-0.04241,0.0463888,-0.0385,-0.765264,0.0490811,0.0433555,650,701,-0.160562,-1.36035
-567,323,-0.298035,1.02472,0.00430764,0.00144073,-0.0326017,0.0355073,-0.029759,-0.763428,0.0377302,0.0402884,657,701,-0.298048,-1.02473
-560,323,-0.169739,0.494873,0.00352623,0.00108714,-0.0243702,0.0267073,-0.022094,-0.760398,0.0282174,0.0364001,664,701,-0.169711,-0.494853
-553,323,-0.0654297,0.097229,0.00286649,0.000505371,-0.0171274,0.018854,-0.0154821,-0.750989,0.0198558,0.022434,671,701,-0.0654408,-0.0972424
-546,323,-0.0245361,0.0606079,0.00237558,0.000199133,-0.0115957,0.012934,-0.0103593,-0.738612,0.0134758,0.00959102,678,701,-0.024547,-0.060616
-539,323,-0.0179443,0.0622559,0.00202213,0.00027702,-0.00760037,0.00879987,-0.00650072,-0.728246,0.00886698,0.0100202,685,701,-0.0179254,-0.0622852
-532,323,-0.0184326,0.0623169,0.00201295,0.000691129,-0.00463155,0.00603051,-0.00332642,-0.714528,0.00547691,0.00898398,692,701,-0.0184141,-0.0623118
-525,323,-0.0394897,0.0546875,0.00203635,0.000901924,-0.00251131,0.0040437,-0.00110543,-0.67433,0.00313004,0.00718032,699,701,-0.0394757,-0.0546591
-518,323,-0.0509644,0.0724487,0.00185693,0.000910845,-0.00108738,0.00256971,0.000198068,-0.580231,0.00165108,0.00882661,706,701,-0.0509941,-0.0724241
-511,323,-0.0334473,0.0839844,0.00149111,1.43394e-05,-0.000107318,0.00149887,6.58119e-06,-0.0721655,0.000997062,0.0120303,713,701,-0.0334449,-0.0839761
-504,323,-0.0172119,0.0765381,0.000987655,-0.000985693,0.000767721,0.00125115,-0.00124919,0.330619,0.00144357,0.0131727,720,701,-0.0172312,-0.0765214
-497,323,-0.0159912,0.0791016,0.000327233,-0.00201267,0.00114077,0.000791342,-0.00247678,0.386386,0.00196871,0.0105731,727,701,-0.0160207,-0.0790971
-490,323,-0.0233154,0.0706177,-0.000462947,-0.00354771,0.00124794,-2.13173e-05,-0.00398934,0.340133,0.00265248,0.0115395,734,701,-0.0232911,-0.0706475
-483,323,-0.0323486,0.0489502,-0.000980683,-0.00516083,0.000994996,-0.00075593,-0.00538558,0.222156,0.00336682,0.0121294,741,701,-0.032319,-0.0489578
-476,323,0.0032959,0.0358887,-0.00184026,-0.00735002,0.000357943,-0.00181711,-0.00737317,0.0646034,0.0044356,0.0135767,748,701,0.00329566,-0.035906
-469,323,0.181702,0.21228,-0.00321155,-0.00969752,-0.000888552,-0.00309202,-0.00981705,-0.133714,0.0057958,0.030608,755,701,0.181684,-0.212288
-462,323,-0.254578,-0.267334,0,0,0,0,0,0,0,-1,762,701,-0.254602,0.26736
-455,323,0.0408936,0.0484619,-0.00594585,-0.01659,-0.00387533,-0.00468441,-0.0178514,-0.314689,0.0106874,0.0479414,769,701,0.0408988,-0.0484811
-448,323,0.294006,0.163391,-0.00636457,-0.0209009,-0.00623087,-0.00405934,-0.0232062,-0.354352,0.0143109,0.0447806,776,701,0.293994,-0.163399
-441,323,0.523743,0.317749,-0.00547015,-0.0257579,-0.00931076,-0.00184491,-0.0293831,-0.371301,0.0190037,0.0433783,783,701,0.523752,-0.317729
-434,323,0.812134,0.460693,-0.00414029,-0.0313686,-0.0130312,0.00109117,-0.0366,-0.381762,0.0247718,0.0425705,790,701,0.812156,-0.460683
-427,323,1.12604,0.453308,-0.000725891,-0.0379846,-0.0173008,0.00606861,-0.0447791,-0.37422,0.0320676,0.0432521,797,701,1.12604,-0.453305
-420,323,1.38788,0.481262,0.00617171,-0.0459669,-0.0218631,0.014126,-0.0539211,-0.348935,0.041466,0.0429147,804,701,1.38789,-0.481279
-413,323,1.54712,0.0383301,0,0,0,0,0,0,0,-1,811,701,1.54709,-0.0383069
-406,323,0,0,0,0,0,0,0,0,0,-1,818,701,0,0
-399,323,0,0,0,0,0,0,0,0,0,-1,825,701,0,0
-392,323,0,0,0,0,0,0,0,0,0,-1,832,701,0,0
-385,323,0,0,0,0,0,0,0,0,0,-1,839,701,0,0
-378,323,0,0,0,0,0,0,0,0,0,-1,846,701,0,0
-371,323,0,0,0,0,0,0,0,0,0,-1,853,701,0,0
-364,323,0,0,0,0,0,0,0,0,0,-1,860,701,0,0
-357,323,0,0,0,0,0,0,0,0,0,-1,867,701,0,0
-350,323,0,0,0,0,0,0,0,0,0,-1,874,701,0,0
-343,323,0,0,0,0,0,0,0,0,0,-1,881,701,0,0
-336,323,0,0,0,0,0,0,0,0,0,-1,888,701,0,0
-329,323,0,0,0,0,0,0,0,0,0,-1,895,701,0,0
-322,323,0,0,0,0,0,0,0,0,0,-1,902,701,0,0
-315,323,0,0,0,0,0,0,0,0,0,-1,909,701,0,0
-308,323,0,0,0,0,0,0,0,0,0,-1,916,701,0,0
-301,323,0,0,0,0,0,0,0,0,0,-1,923,701,0,0
-294,323,0,0,0,0,0,0,0,0,0,-1,930,701,0,0
-287,323,0,0,0,0,0,0,0,0,0,-1,937,701,0,0
-280,323,0,0,0,0,0,0,0,0,0,-1,944,701,0,0
-273,323,0,0,0,0,0,0,0,0,0,-1,951,701,0,0
-266,323,0,0,0,0,0,0,0,0,0,-1,958,701,0,0
-259,323,0,0,0,0,0,0,0,0,0,-1,965,701,0,0
-252,323,0,0,0,0,0,0,0,0,0,-1,972,701,0,0
-245,323,0,0,0,0,0,0,0,0,0,-1,979,701,0,0
-238,323,0,0,0,0,0,0,0,0,0,-1,986,701,0,0
-231,323,0,0,0,0,0,0,0,0,0,-1,993,701,0,0
-224,323,0,0,0,0,0,0,0,0,0,-1,1000,701,0,0
-217,323,0,0,0,0,0,0,0,0,0,-1,1007,701,0,0
-210,323,0,0,0,0,0,0,0,0,0,-1,1014,701,0,0
-203,323,0,0,0,0,0,0,0,0,0,-1,1021,701,0,0
-196,323,0,0,0,0,0,0,0,0,0,-1,1028,701,0,0
-189,323,0,0,0,0,0,0,0,0,0,-1,1035,701,0,0
-182,323,0,0,0,0,0,0,0,0,0,-1,1042,701,0,0
-175,323,0,0,0,0,0,0,0,0,0,-1,1049,701,0,0
-168,323,0,0,0,0,0,0,0,0,0,-1,1056,701,0,0
-161,323,0,0,0,0,0,0,0,0,0,-1,1063,701,0,0
-154,323,0,0,0,0,0,0,0,0,0,-1,1070,701,0,0
-147,323,0,0,0,0,0,0,0,0,0,-1,1077,701,0,0
-140,323,0,0,0,0,0,0,0,0,0,-1,1084,701,0,0
-133,323,0,0,0,0,0,0,0,0,0,-1,1091,701,0,0
-126,323,0,0,0,0,0,0,0,0,0,-1,1098,701,0,0
-119,323,0,0,0,0,0,0,0,0,0,-1,1105,701,0,0
-112,323,0,0,0,0,0,0,0,0,0,-1,1112,701,0,0
-105,323,0,0,0,0,0,0,0,0,0,-1,1119,701,0,0
-98,323,0,0,0,0,0,0,0,0,0,-1,1126,701,0,0
-91,323,0,0,0,0,0,0,0,0,0,-1,1133,701,0,0
-84,323,0,0,0,0,0,0,0,0,0,-1,1140,701,0,0
-77,323,0,0,0,0,0,0,0,0,0,-1,1147,701,0,0
-70,323,0,0,0,0,0,0,0,0,0,-1,1154,701,0,0
-63,323,0,0,0,0,0,0,0,0,0,-1,1161,701,0,0
-56,323,0,0,0,0,0,0,0,0,0,-1,1168,701,0,0
-49,323,0,0,0,0,0,0,0,0,0,-1,1175,701,0,0
-42,323,0,0,0,0,0,0,0,0,0,-1,1182,701,0,0
-35,323,0,0,0,0,0,0,0,0,0,-1,1189,701,0,0
-28,323,0,0,0,0,0,0,0,0,0,-1,1196,701,0,0
-21,323,0,0,0,0,0,0,0,0,0,-1,1203,701,0,0
-14,323,0,0,0,0,0,0,0,0,0,-1,1210,701,0,0
-7,323,0,0,0,0,0,0,0,0,0,-1,1217,701,0,0
0,323,0,0,0,0,0,0,0,0,0,-1,1224,701,0,0
7,323,0,0,0,0,0,0,0,0,0,-1,1231,701,0,0
14,323,0,0,0,0,0,0,0,0,0,-1,1238,701,0,0
21,323,0,0,0,0,0,0,0,0,0,-1,1245,701,0,0
28,323,0,0,0,0,0,0,0,0,0,-1,1252,701,0,0
35,323,0,0,0,0,0,0,0,0,0,-1,1259,701,0,0
42,323,0,0,0,0,0,0,0,0,0,-1,1266,701,0,0
49,323,0,0,0,0,0,0,0,0,0,-1,1273,701,0,0
56,323,0,0,0,0,0,0,0,0,0,-1,1280,701,0,0
63,323,0,0,0,0,0,0,0,0,0,-1,1287,701,0,0
70,323,0,0,0,0,0,0,0,0,0,-1,1294,701,0,0
77,323,0,0,0,0,0,0,0,0,0,-1,1301,701,0,0
84,323,0,0,0,0,0,0,0,0,0,-1,1308,701,0,0
91,323,0,0,0,0,0,0,0,0,0,-1,1315,701,0,0
98,323,0,0,0,0,0,0,0,0,0,-1,1322,701,0,0
105,323,0,0,0,0,0,0,0,0,0,-1,1329,701,0,0
112,323,0,0,0,0,0,0,0,0,0,-1,1336,701,0,0
119,323,0,0,0,0,0,0,0,0,0,-1,1343,701,0,0
126,323,0,0,0,0,0,0,0,0,0,-1,1350,701,0,0
133,323,0,0,0,0,0,0,0,0,0,-1,1357,701,0,0
140,323,0,0,0,0,0,0,0,0,0,-1,1364,701,0,0
147,323,0,0,0,0,0,0,0,0,0,-1,1371,701,0,0
154,323,0,0,0,0,0,0,0,0,0,-1,1378,701,0,0
161,323,0,0,0,0,0,0,0,0,0,-1,1385,701,0,0
168,323,0,0,0,0,0,0,0,0,0,-1,1392,701,0,0
175,323,0,0,0,0,0,0,0,0,0,-1,1399,701,0,0
182,323,0,0,0,0,0,0,0,0,0,-1,1406,701,0,0
189,323,0,0,0,0,0,0,0,0,0,-1,1413,701,0,0
196,323,0,0,0,0,0,0,0,0,0,-1,1420,701,0,0
203,323,0,0,0,0,0,0,0,0,0,-1,1427,701,0,0
210,323,0,0,0,0,0,0,0,0,0,-1,1434,701,0,0
217,323,0,0,0,0,0,0,0,0,0,-1,1441,701,0,0
224,323,0,0,0,0,0,0,0,0,0,-1,1448,701,0,0
231,323,0,0,0,0,0,0,0,0,0,-1,1455,701,0,0
238,323,0,0,0,0,0,0,0,0,0,-1,1462,701,0,0
245,323,0,0,0,0,0,0,0,0,0,-1,1469,701,0,0
252,323,0,0,0,0,0,0,0,0,0,-1,1476,701,0,0
259,323,0,0,0,0,0,0,0,0,0,-1,1483,701,0,0
266,323,0,0,0,0,0,0,0,0,0,-1,1490,701,0,0
273,323,0,0,0,0,0,0,0,0,0,-1,1497,701,0,0
280,323,0,0,0,0,0,0,0,0,0,-1,1504,701,0,0
287,323,0,0,0,0,0,0,0,0,0,-1,1511,701,0,0
294,323,0,0,0,0,0,0,0,0,0,-1,1518,701,0,0
301,323,0,0,0,0,0,0,0,0,0,-1,1525,701,0,0
308,323,0,0,0,0,0,0,0,0,0,-1,1532,701,0,0
315,323,0,0,0,0,0,0,0,0,0,-1,1539,701,0,0
322,323,0,0,0,0,0,0,0,0,0,-1,1546,701,0,0
329,323,0,0,0,0,0,0,0,0,0,-1,1553,701,0,0
336,323,0,0,0,0,0,0,0,0,0,-1,1560,701,0,0
343,323,0,0,0,0,0,0,0,0,0,-1,1567,701,0,0
350,323,0,0,0,0,0,0,0,0,0,-1,1574,701,0,0
357,323,0,0,0,0,0,0,0,0,0,-1,1581,701,0,0
364,323,0,0,0,0,0,0,0,0,0,-1,1588,701,0,0
371,323,0,0,0,0,0,0,0,0,0,-1,1595,701,0,0
378,323,0,0,0,0,0,0,0,0,0,-1,1602,701,0,0
385,323,0,0,0,0,0,0,0,0,0,-1,1609,701,0,0
392,323,0,0,0,0,0,0,0,0,0,-1,1616,701,0,0
399,323,0,0,0,0,0,0,0,0,0,-1,1623,701,0,0
406,323,0,0,0,0,0,0,0,0,0,-1,1630,701,0,0
413,323,0,0,0,0,0,0,0,0,0,-1,1637,701,0,0
420,323,0,0,0,0,0,0,0,0,0,-1,1644,701,0,0
427,323,0,0,0,0,0,0,0,0,0,-1,1651,701,0,0
434,323,0,0,0,0,0,0,0,0,0,-1,1658,701,0,0
441,323,0,0,0,0,0,0,0,0,0,-1,1665,701,0,0
448,323,0,0,0,0,0,0,0,0,0,-1,1672,701,0,0
455,323,0,0,0,0,0,0,0,0,0,-1,1679,701,0,0
462,323,0,0,0,0,0,0,0,0,0,-1,1686,701,0,0
469,323,0,0,0,0,0,0,0,0,0,-1,1693,701,0,0
476,323,0,0,0,0,0,0,0,0,0,-1,1700,701,0,0
483,323,0,0,0,0,0,0,0,0,0,-1,1707,701,0,0
490,323,0,0,0,0,0,0,0,0,0,-1,1714,701,0,0
497,323,0,0,0,0,0,0,0,0,0,-1,1721,701,0,0
504,323,0,0,0,0,0,0,0,0,0,-1,1728,701,0,0
511,323,0,0,0,0,0,0,0,0,0,-1,1735,701,0,0
518,323,0,0,0,0,0,0,0,0,0,-1,1742,701,0,0
525,323,0,0,0,0,0,0,0,0,0,-1,1749,701,0,0
532,323,0.640869,-1.40381,0,0,0,0,0,0,0,-1,1756,701,0.640921,1.40381
539,323,0.473877,-0.887695,0,0,0,0,0,0,0,-1,1763,701,0.473932,0.887722
546,323,0.495728,-0.242371,-0.00881795,0.029845,-0.00125291,0.0298855,-0.00885851,-1.53844,0.0234413,0.0428452,1770,701,0.495734,0.242387
553,323,0.580322,0.37561,-0.00853697,0.0265005,-3.14288e-05,0.0265005,-0.00853699,-1.5699,0.0210965,0.0433275,1777,701,0.58035,-0.375605
560,323,0.962402,-0.0859375,0,0,0,0,0,0,0,-1,1784,701,0.962443,0.0859286
567,323,1.16309,-1.72382,0,0,0,0,0,0,0,-1,1791,701,1.16306,1.72381
574,323,-0.215942,0.0950317,0,0,0,0,0,0,0,-1,1798,701,-0.215901,-0.0950176
581,323,-0.178223,0.0353394,-0.000301296,0.0101073,0.00304705,0.0109337,-0.00112769,1.30596,0.00769263,0.0493314,1805,701,-0.178227,-0.0353566
588,323,-0.0153809,0.0230103,0.00161736,0.00678081,0.00271727,0.00794727,0.000450902,1.16531,0.00515446,0.0478934,1812,701,-0.0153461,-0.0230209
595,323,0.0455322,-0.0372314,0.00320437,0.00414961,0.0019956,0.00572779,0.00162618,0.901671,0.00340833,0.0454581,1819,701,0.0455008,0.0372079
602,323,-0.101074,0.119507,0.00366918,0.00233061,0.00117471,0.00435189,0.0016479,0.526461,0.0025371,0.0324265,1826,701,-0.101076,-0.119502
609,323,-0.0684814,0.105469,0.00367081,0.00102877,0.000722992,0.00385572,0.000843861,0.250383,0.00234046,0.0165415,1833,701,-0.0684719,-0.10547
616,323,-0.0528564,0.0698242,0.00362642,0.000491905,0.000278605,0.00365099,0.000467334,0.087964,0.00229414,0.0108431,1840,701,-0.052887,-0.0698018
623,323,-0.0410156,0.0643921,0.00318401,-0.00102088,-6.77145e-06,0.00318402,-0.00102089,-0.00161037,0.00253252,0.0113967,1847,701,-0.0410651,-0.064417
630,323,-0.0404053,0.0751343,0.00257461,-0.00125881,-0.000203736,0.00258541,-0.0012696,-0.0529485,0.0022685,0.012501,1854,701,-0.0404313,-0.0751421
637,323,-0.0236816,0.0770264,0.0021558,-0.00129943,-0.000283988,0.00217899,-0.00132262,-0.0814622,0.00204171,0.0097809,1861,701,-0.0237034,-0.0770096
644,323,-0.0374756,0.0858154,0.00185309,-0.00098459,-0.000363531,0.00189892,-0.00103042,-0.125411,0.00171586,0.00682079,1868,701,-0.0375194,-0.0858437
651,323,-0.0541992,0.0845337,0.00185461,-0.00101731,-5.60087e-05,0.0018557,-0.0010184,-0.0194923,0.00168267,0.00787127,1875,701,-0.0541776,-0.0845286
658,323,-0.0487061,0.0773315,0.0021232,-0.00128305,-6.75177e-05,0.00212453,-0.00128439,-0.0198114,0.00198797,0.0090504,1882,701,-0.0486751,-0.0773609
665,323,-0.0581055,0.0821533,0.0026816,-0.0014067,-0.000242238,0.0026959,-0.001421,-0.0589766,0.00241459,0.00886054,1889,701,-0.058148,-0.0821363
672,323,-0.0670166,0.102783,0.00358068,-0.000989648,-0.00024932,0.00359424,-0.00100321,-0.054337,0.00279132,0.00881331,1896,701,-0.0669875,-0.102797
679,323,-0.0667725,0.109924,0.00477522,-0.000869545,-8.18256e-06,0.00477523,-0.000869557,-0.00144958,0.00350944,0.0152859,1903,701,-0.0667519,-0.109954
686,323,-0.0959473,0.0610962,0.00632117,-0.000322441,0.000229294,0.00632908,-0.000330345,0.0344588,0.0043337,0.0339558,1910,701,-0.0959149,-0.0610789
693,323,0.143799,-0.332764,0.00802049,0.000627738,0.00056693,0.00806371,0.000584515,0.0760943,0.00519195,0.044058,1917,701,0.143803,0.332781
700,323,0.202026,-0.197876,0.0100491,0.00211434,0.00111239,0.0102021,0.00196134,0.136681,0.00625107,0.0433309,1924,701,0.201986,0.197846
707,323,0.492554,0.00390625,0.0124275,0.00428041,0.00197946,0.012883,0.00382494,0.226164,0.00763981,0.0391532,1931,701,0.492603,-0.00388306
714,323,0.606445,0.0512695,0.0151837,0.00727744,0.00340547,0.0164482,0.00601286,0.355556,0.00961013,0.0388897,1938,701,0.606505,-0.0512408
721,323,0,0,0,0,0,0,0,0,0,-1,1945,701,0,0
728,323,0,0,0,0,0,0,0,0,0,-1,1952,701,0,0
735,323,0,0,0,0,0,0,0,0,0,-1,1959,701,0,0
742,323,0,0,0,0,0,0,0,0,0,-1,1966,701,0,0
749,323,0,0,0,0,0,0,0,0,0,-1,1973,701,0,0
756,323,0,0,0,0,0,0,0,0,0,-1,1980,701,0,0
763,323,0,0,0,0,0,0,0,0,0,-1,1987,701,0,0
770,323,0,0,0,0,0,0,0,0,0,-1,1994,701,0,0
777,323,0,0,0,0,0,0,0,0,0,-1,2001,701,0,0
784,323,0,0,0,0,0,0,0,0,0,-1,2008,701,0,0
791,323,0,0,0,0,0,0,0,0,0,-1,2015,701,0,0
798,323,0,0,0,0,0,0,0,0,0,-1,2022,701,0,0
805,323,0,0,0,0,0,0,0,0,0,-1,2029,701,0,0
812,323,0,0,0,0,0,0,0,0,0,-1,2036,701,0,0
-700,316,0,0,0,0,0,0,0,0,0,-1,524,708,0,0
-693,316,0,0,0,0,0,0,0,0,0,-1,531,708,0,0
-686,316,0,0,0,0,0,0,0,0,0,-1,538,708,0,0
-679,316,0,0,0,0,0,0,0,0,0,-1,545,708,0,0
-672,316,0,0,0,0,0,0,0,0,0,-1,552,708,0,0
-665,316,0,0,0,0,0,0,0,0,0,-1,559,708,0,0
-658,316,0,0,0,0,0,0,0,0,0,-1,566,708,0,0
-651,316,0,0,0,0,0,0,0,0,0,-1,573,708,0,0
-644,316,0,0,0,0,0,0,0,0,0,-1,580,708,0,0
-637,316,0,0,0,0,0,0,0,0,0,-1,587,708,0,0
-630,316,0,0,0,0,0,0,0,0,0,-1,594,708,0,0
-623,316,0,0,0,0,0,0,0,0,0,-1,601,708,0,0
-616,316,0,0,0,0,0,0,0,0,0,-1,608,708,0,0
-609,316,0,0,0,0,0,0,0,0,0,-1,615,708,0,0
-602,316,-0.0974731,10.5379,0,0,0,0,0,0,0,-1,622,708,-0.0974962,-10.5379
-595,316,0.235413,8.05396,0,0,0,0,0,0,0,-1,629,708,0.235438,-8.05398
-588,316,0.354675,5.89111,0,0,0,0,0,0,0,-1,636,708,0.354675,-5.8911
-581,316,-0.104004,1.95227,0,0,0,0,0,0,0,-1,643,708,-0.104021,-1.95226
-574,316,-0.193848,1.60699,0,0,0,0,0,0,0,-1,650,708,-0.193857,-1.60701
-567,316,-0.31897,0.943848,0,0,0,0,0,0,0,-1,657,708,-0.318978,-0.943852
-560,316,-0.176392,0.565857,0.00426065,0.00320091,-0.0253414,0.0290778,-0.0216162,-0.774945,0.0293737,0.0371826,664,708,-0.176381,-0.565829
-553,316,-0.0183105,0.1427,0.00310972,0.0018296,-0.0178783,0.0203594,-0.0154201,-0.767505,0.0207228,0.023442,671,708,-0.0183082,-0.142694
-546,316,-0.0117798,0.0897217,0.00225159,0.000911235,-0.0120752,0.0136752,-0.0105124,-0.757676,0.0140044,0.013783,678,708,-0.0118035,-0.0896996
-539,316,-0.0197144,0.0554199,0.00178746,0.000569774,-0.00780511,0.00900744,-0.0066502,-0.746474,0.00907403,0.0115009,685,708,-0.0197394,-0.0554056
-532,316,-0.0394287,0.0533447,0.001778,0.000767847,-0.00457428,0.005875,-0.00332915,-0.730413,0.00538135,0.00921032,692,708,-0.0394326,-0.0533166
-525,316,-0.0535889,0.0702515,0.00190052,0.00092188,-0.00221074,0.00367544,-0.00085304,-0.676485,0.00277864,0.00850723,699,708,-0.0536126,-0.0702677
-518,316,-0.0443115,0.0654297,0.00194968,0.00106445,-0.000644755,0.00228913,0.000725003,-0.484597,0.0013509,0.00940887,706,708,-0.0443124,-0.0654172
-511,316,-0.0303345,0.065918,0.00177313,0.000188107,0.000443761,0.00188892,7.23248e-05,0.255222,0.00123588,0.0104992,713,708,-0.0303067,-0.0659414
-504,316,-0.0159912,0.059021,0.00135806,-0.000718645,0.0014573,0.0021091,-0.00146968,0.47586,0.00207717,0.0127707,720,708,-0.0160004,-0.0590373
-497,316,-0.0144043,0.0686646,0.00072891,-0.00177304,0.00196321,0.00180584,-0.00284996,0.501733,0.00271047,0.0110558,727,708,-0.0144229,-0.0686947
-490,316,-0.0235596,0.0692749,-8.89163e-05,-0.00350154,0.00225999,0.00103657,-0.00462702,0.462049,0.00348202,0.0120471,734,708,-0.0235605,-0.0692454
-483,316,-0.00476074,0.0664063,-0.000664081,-0.00527337,0.00220228,0.000218977,-0.00615642,0.381345,0.00417919,0.0129104,741,708,-0.00478804,-0.0663895
-476,316,0.0325317,0.0838013,-0.00171478,-0.00771161,0.00176204,-0.00123537,-0.00819102,0.265647,0.00509902,0.0243582,748,708,0.0325544,-0.0837815
-469,316,0.226685,0.392395,-0.00342496,-0.0104597,0.000645066,-0.0033663,-0.0105184,0.0906895,0.0062025,0.0426194,755,708,0.226686,-0.392412
-462,316,-0.707642,-0.25946,-0.00512186,-0.0143236,-0.000471452,-0.00509777,-0.0143477,-0.0510566,0.0083985,0.0496858,762,708,-0.707672,0.259482
-455,316,-0.174011,0.0614014,-0.00730424,-0.0185134,-0.00233337,-0.00683792,-0.0189798,-0.197253,0.0110997,0.0496681,769,708,-0.174025,-0.0614206
-448,316,0.278992,0.121216,-0.00889533,-0.0234668,-0.00477923,-0.00746769,-0.0248945,-0.29028,0.0147512,0.0451087,776,708,0.278982,-0.121192
-441,316,0.89978,0.26062,-0.00962671,-0.02906,-0.00799849,-0.00675809,-0.0319286,-0.344356,0.0194289,0.0464653,783,708,0.899783,-0.260632
-434,316,1.11371,0.401123,-0.0100383,-0.0353888,-0.0120255,-0.00524146,-0.0401856,-0.37955,0.0252254,0.0459839,790,708,1.11369,-0.401128
-427,316,1.39551,0.377686,0,0,0,0,0,0,0,-1,797,708,1.39548,-0.377714
-420,316,1.02124,0.209351,0,0,0,0,0,0,0,-1,804,708,1.02127,-0.209368
-413,316,0,0,0,0,0,0,0,0,0,-1,811,708,0,0
-406,316,0,0,0,0,0,0,0,0,0,-1,818,708,0,0
-399,316,0,0,0,0,0,0,0,0,0,-1,825,708,0,0
-392,316,0,0,0,0,0,0,0,0,0,-1,832,708,0,0
-385,316,0,0,0,0,0,0,0,0,0,-1,839,708,0,0
-378,316,0,0,0,0,0,0,0,0,0,-1,846,708,0,0
-371,316,0,0,0,0,0,0,0,0,0,-1,853,708,0,0
-364,316,0,0,0,0,0,0,0,0,0,-1,860,708,0,0
-357,316,0,0,0,0,0,0,0,0,0,-1,867,708,0,0
-350,316,0,0,0,0,0,0,0,0,0,-1,874,708,0,0
-343,316,0,0,0,0,0,0,0,0,0,-1,881,708,0,0
-336,316,0,0,0,0,0,0,0,0,0,-1,888,708,0,0
-329,316,0,0,0,0,0,0,0,0,0,-1,895,708,0,0
-322,316,0,0,0,0,0,0,0,0,0,-1,902,708,0,0
-315,316,0,0,0,0,0,0,0,0,0,-1,909,708,0,0
-308,316,0,0,0,0,0,0,0,0,0,-1,916,708,0,0
-301,316,0,0,0,0,0,0,0,0,0,-1,923,708,0,0
-294,316,0,0,0,0,0,0,0,0,0,-1,930,708,0,0
-287,316,0,0,0,0,0,0,0,0,0,-1,937,708,0,0
-280,316,0,0,0,0,0,0,0,0,0,-1,944,708,0,0
-273,316,0,0,0,0,0,0,0,0,0,-1,951,708,0,0
-266,316,0,0,0,0,0,0,0,0,0,-1,958,708,0,0
-259,316,0,0,0,0,0,0,0,0,0,-1,965,708,0,0
-252,316,0,0,0,0,0,0,0,0,0,-1,972,708,0,0
-245,316,0,0,0,0,0,0,0,0,0,-1,979,708,0,0
-238,316,0,0,0,0,0,0,0,0,0,-1,986,708,0,0
-231,316,0,0,0,0,0,0,0,0,0,-1,993,708,0,0
-224,316,0,0,0,0,0,0,0,0,0,-1,1000,708,0,0
-217,316,0,0,0,0,0,0,0,0,0,-1,1007,708,0,0
-210,316,0,0,0,0,0,0,0,0,0,-1,1014,708,0,0
-203,316,0,0,0,0,0,0,0,0,0,-1,1021,708,0,0
-196,316,0,0,0,0,0,0,0,0,0,-1,1028,708,0,0
-189,316,0,0,0,0,0,0,0,0,0,-1,1035,708,0,0
-182,316,0,0,0,0,0,0,0,0,0,-1,1042,708,0,0
-175,316,0,0,0,0,0,0,0,0,0,-1,1049,708,0,0
-168,316,0,0,0,0,0,0,0,0,0,-1,1056,708,0,0
-161,316,0,0,0,0,0,0,0,0,0,-1,1063,708,0,0
-154,316,0,0,0,0,0,0,0,0,0,-1,1070,708,0,0
-147,316,0,0,0,0,0,0,0,0,0,-1,1077,708,0,0
-140,316,0,0,0,0,0,0,0,0,0,-1,1084,708,0,0
-133,316,0,0,0,0,0,0,0,0,0,-1,1091,708,0,0
-126,316,0,0,0,0,0,0,0,0,0,-1,1098,708,0,0
-119,316,0,0,0,0,0,0,0,0,0,-1,1105,708,0,0
-112,316,0,0,0,0,0,0,0,0,0,-1,1112,708,0,0
-105,316,0,0,0,0,0,0,0,0,0,-1,1119,708,0,0
-98,316,0,0,0,0,0,0,0,0,0,-1,1126,708,0,0
-91,316,0,0,0,0,0,0,0,0,0,-1,1133,708,0,0
-84,316,0,0,0,0,0,0,0,0,0,-1,1140,708,0,0
-77,316,0,0,0,0,0,0,0,0,0,-1,1147,708,0,0
-70,316,0,0,0,0,0,0,0,0,0,-1,1154,708,0,0
-63,316,0,0,0,0,0,0,0,0,0,-1,1161,708,0,0
-56,316,0,0,0,0,0,0,0,0,0,-1,1168,708,0,0
-49,316,0,0,0,0,0,0,0,0,0,-1,1175,708,0,0
-42,316,0,0,0,0,0,0,0,0,0,-1,1182,708,0,0
-35,316,0,0,0,0,0,0,0,0,0,-1,1189,708,0,0
-28,316,0,0,0,0,0,0,0,0,0,-1,1196,708,0,0
-21,316,0,0,0,0,0,0,0,0,0,-1,1203,708,0,0
-14,316,0,0,0,0,0,0,0,0,0,-1,1210,708,0,0
-7,316,0,0,0,0,0,0,0,0,0,-1,1217,708,0,0
0,316,0,0,0,0,0,0,0,0,0,-1,1224,708,0,0
7,316,0,0,0,0,0,0,0,0,0,-1,1231,708,0,0
14,316,0,0,0,0,0,0,0,0,0,-1,1238,708,0,0
21,316,0,0,0,0,0,0,0,0,0,-1,1245,708,0,0
28,316,0,0,0,0,0,0,0,0,0,-1,1252,708,0,0
35,316,0,0,0,0,0,0,0,0,0,-1,1259,708,0,0
42,316,0,0,0,0,0,0,0,0,0,-1,1266,708,0,0
49,316,0,0,0,0,0,0,0,0,0,-1,1273,708,0,0
56,316,0,0,0,0,0,0,0,0,0,-1,1280,708,0,0
63,316,0,0,0,0,0,0,0,0,0,-1,1287,708,0,0
70,316,0,0,0,0,0,0,0,0,0,-1,1294,708,0,0
77,316,0,0,0,0,0,0,0,0,0,-1,1301,708,0,0
84,316,0,0,0,0,0,0,0,0,0,-1,1308,708,0,0
91,316,0,0,0,0,0,0,0,0,0,-1,1315,708,0,0
98,316,0,0,0,0,0,0,0,0,0,-1,1322,708,0,0
105,316,0,0,0,0,0,0,0,0,0,-1,1329,708,0,0
112,316,0,0,0,0,0,0,0,0,0,-1,1336,708,0,0
119,316,0,0,0,0,0,0,0,0,0,-1,1343,708,0,0
126,316,0,0,0,0,0,0,0,0,0,-1,1350,708,0,0
133,316,0,0,0,0,0,0,0,0,0,-1,1357,708,0,0
140,316,0,0,0,0,0,0,0,0,0,-1,1364,708,0,0
147,316,0,0,0,0,0,0,0,0,0,-1,1371,708,0,0
154,316,0,0,0,0,0,0,0,0,0,-1,1378,708,0,0
161,316,0,0,0,0,0,0,0,0,0,-1,1385,708,0,0
168,316,0,0,0,0,0,0,0,0,0,-1,1392,708,0,0
175,316,0,0,0,0,0,0,0,0,0,-1,1399,708,0,0
182,316,0,0,0,0,0,0,0,0,0,-1,1406,708,0,0
189,316,0,0,0,0,0,0,0,0,0,-1,1413,708,0,0
196,316,0,0,0,0,0,0,0,0,0,-1,1420,708,0,0
203,316,0,0,0,0,0,0,0,0,0,-1,1427,708,0,0
210,316,0,0,0,0,0,0,0,0,0,-1,1434,708,0,0
217,316,0,0,0,0,0,0,0,0,0,-1,1441,708,0,0
224,316,0,0,0,0,0,0,0,0,0,-1,1448,708,0,0
231,316,0,0,0,0,0,0,0,0,0,-1,1455,708,0,0
238,316,0,0,0,0,0,0,0,0,0,-1,1462,708,0,0
245,316,0,0,0,0,0,0,0,0,0,-1,1469,708,0,0
252,316,0,0,0,0,0,0,0,0,0,-1,1476,708,0,0
259,316,0,0,0,0,0,0,0,0,0,-1,1483,708,0,0
266,316,0,0,0,0,0,0,0,0,0,-1,1490,708,0,0
273,316,0,0,0,0,0,0,0,0,0,-1,1497,708,0,0
280,316,0,0,0,0,0,0,0,0,0,-1,1504,708,0,0
287,316,0,0,0,0,0,0,0,0,0,-1,1511,708,0,0
294,316,0,0,0,0,0,0,0,0,0,-1,1518,708,0,0
301,316,0,0,0,0,0,0,0,0,0,-1,1525,708,0,0
308,316,0,0,0,0,0,0,0,0,0,-1,1532,708,0,0
315,316,0,0,0,0,0,0,0,0,0,-1,1539,708,0,0
322,316,0,0,0,0,0,0,0,0,0,-1,1546,708,0,0
329,316,0,0,0,0,0,0,0,0,0,-1,1553,708,0,0
336,316,0,0,0,0,0,0,0,0,0,-1,1560,708,0,0
343,316,0,0,0,0,0,0,0,0,0,-1,1567,708,0,0
350,316,0,0,0,0,0,0,0,0,0,-1,1574,708,0,0
357,316,0,0,0,0,0,0,0,0,0,-1,1581,708,0,0
364,316,0,0,0,0,0,0,0,0,0,-1,1588,708,0,0
371,316,0,0,0,0,0,0,0,0,0,-1,1595,708,0,0
378,316,0,0,0,0,0,0,0,0,0,-1,1602,708,0,0
385,316,0,0,0,0,0,0,0,0,0,-1,1609,708,0,0
392,316,0,0,0,0,0,0,0,0,0,-1,1616,708,0,0
399,316,0,0,0,0,0,0,0,0,0,-1,1623,708,0,0
406,316,0,0,0,0,0,0,0,0,0,-1,1630,708,0,0
413,316,0,0,0,0,0,0,0,0,0,-1,1637,708,0,0
420,316,0,0,0,0,0,0,0,0,0,-1,1644,708,0,0
427,316,0,0,0,0,0,0,0,0,0,-1,1651,708,0,0
434,316,0,0,0,0,0,0,0,0,0,-1,1658,708,0,0
441,316,0,0,0,0,0,0,0,0,0,-1,1665,708,0,0
448,316,0,0,0,0,0,0,0,0,0,-1,1672,708,0,0
455,316,0,0,0,0,0,0,0,0,0,-1,1679,708,0,0
462,316,0,0,0,0,0,0,0,0,0,-1,1686,708,0,0
469,316,0,0,0,0,0,0,0,0,0,-1,1693,708,0,0
476,316,0,0,0,0,0,0,0,0,0,-1,1700,708,0,0
483,316,0,0,0,0,0,0,0,0,0,-1,1707,708,0,0
490,316,0,0,0,0,0,0,0,0,0,-1,1714,708,0,0
497,316,0,0,0,0,0,0,0,0,0,-1,1721,708,0,0
504,316,0,0,0,0,0,0,0,0,0,-1,1728,708,0,0
511,316,0,0,0,0,0,0,0,0,0,-1,1735,708,0,0
518,316,0,0,0,0,0,0,0,0,0,-1,1742,708,0,0
525,316,0,0,0,0,0,0,0,0,0,-1,1749,708,0,0
532,316,-0.630615,0.482971,0,0,0,0,0,0,0,-1,1756,708,-0.63064,-0.482972
539,316,-0.199829,0.0917358,0,0,0,0,0,0,0,-1,1763,708,-0.199793,-0.0917108
546,316,0.348511,-0.257202,0,0,0,0,0,0,0,-1,1770,708,0.348455,0.257173
553,316,0.471313,0.0794678,0,0,0,0,0,0,0,-1,1777,708,0.471315,-0.0794467
560,316,0.677002,-0.998169,0,0,0,0,0,0,0,-1,1784,708,0.676958,0.998193
567,316,0.843506,-1.5719,0,0,0,0,0,0,0,-1,1791,708,0.84348,1.5719
574,316,0.905029,-2.0271,0,0,0,0,0,0,0,-1,1798,708,0.905057,2.0271
581,316,0.30481,0.637756,0,0,0,0,0,0,0,-1,1805,708,0.304792,-0.637757
588,316,0.0140381,0.365723,0,0,0,0,0,0,0,-1,1812,708,0.0139999,-0.365708
595,316,-0.13269,0.237244,0.00516166,0.0048256,0.00226827,0.00726811,0.00271915,0.748427,0.00424034,0.0480395,1819,708,-0.132731,-0.237238
602,316,-0.17749,0.0993042,0.00575955,0.00263088,0.00145992,0.00633496,0.00205547,0.375445,0.00373187,0.0413711,1826,708,-0.177519,-0.0993272
609,316,-0.048584,0.0766602,0.00575755,0.00104354,0.00107475,0.00599102,0.000810075,0.213908,0.00375324,0.0271026,1833,708,-0.0485952,-0.0766613
616,316,-0.0334473,0.0646362,0.00557616,0.000363183,0.000669379,0.00566074,0.000278603,0.12569,0.00368447,0.0114445,1840,708,-0.033437,-0.0646216
623,316,-0.0454102,0.0709839,0.00489944,-0.00151161,0.000357037,0.00491927,-0.00153143,0.0554622,0.00389176,0.00991127,1847,708,-0.0454411,-0.0709666
630,316,-0.0505371,0.0802612,0.003908,-0.00177901,8.97927e-05,0.00390941,-0.00178043,0.0157839,0.00336081,0.0112987,1854,708,-0.0505492,-0.0802318
637,316,-0.0270996,0.0877686,0.00309648,-0.00182789,-2.52746e-05,0.00309661,-0.00182802,-0.00513237,0.00287451,0.0106975,1861,708,-0.027121,-0.0877392
644,316,-0.0168457,0.0913696,0.00237133,-0.00114167,-0.000126844,0.00237591,-0.00114624,-0.0360446,0.00207441,0.010133,1868,708,-0.0168426,-0.0913579
651,316,-0.050415,0.0890503,0.00200159,-0.000900704,0.000192828,0.00201434,-0.00091346,0.0660528,0.00172974,0.0102043,1875,708,-0.0504378,-0.0890806
658,316,-0.0627441,0.0545044,0.00195537,-0.00086501,0.000111202,0.00195975,-0.000869388,0.0393464,0.00167335,0.013493,1882,708,-0.0627559,-0.054511
665,316,-0.0472412,0.0654907,0.00234902,-0.000840847,-0.000167239,0.00235776,-0.000849591,-0.0522373,0.00191879,0.01184,1889,708,-0.0471993,-0.0654699
672,316,-0.0550537,0.104248,0.00327901,-0.000289159,-0.000254256,0.00329704,-0.000307185,-0.07078,0.00230725,0.010786,1896,708,-0.0550625,-0.104253
679,316,-0.0567627,0.11377,0.00458587,-6.09948e-05,-2.79593e-05,0.00458604,-6.11627e-05,-0.00601652,0.00307795,0.0145682,1903,708,-0.0568041,-0.113792
686,316,-0.0427246,0.126282,0.00630841,0.000652206,0.000179089,0.00631407,0.000646541,0.0316202,0.00401128,0.0241585,1910,708,-0.0427775,-0.126263
693,316,0.000976563,0.092041,0.00817204,0.0017209,0.000483649,0.0082081,0.00168485,0.0744168,0.00500587,0.0413959,1917,708,0.000994788,-0.0920301
700,316,-0.0216064,-0.115662,0.0104685,0.00331847,0.0010427,0.0106175,0.00316952,0.141895,0.00629371,0.0450164,1924,708,-0.0215803,0.115668
707,316,0.315063,-0.0880737,0.013205,0.00553268,0.00198162,0.0136866,0.00505109,0.238405,0.00799179,0.0417165,1931,708,0.315093,0.0880584
714,316,0.626953,-0.076416,0.0164327,0.00845236,0.00353356,0.0177724,0.00711266,0.362392,0.0103288,0.037373,1938,708,0.626906,0.0764295
721,316,0.534546,0.0748291,0.0203175,0.0121286,0.00593772,0.0234356,0.00901046,0.483553,0.0136504,0.0413997,1945,708,0.534546,-0.0748524
728,316,0,0,0,0,0,0,0,0,0,-1,1952,708,0,0
735,316,0,0,0,0,0,0,0,0,0,-1,1959,708,0,0
742,316,0,0,0,0,0,0,0,0,0,-1,1966,708,0,0
749,316,0,0,0,0,0,0,0,0,0,-1,1973,708,0,0
756,316,0,0,0,0,0,0,0,0,0,-1,1980,708,0,0
763,316,0,0,0,0,0,0,0,0,0,-1,1987,708,0,0
770,316,0,0,0,0,0,0,0,0,0,-1,1994,708,0,0
777,316,0,0,0,0,0,0,0,0,0,-1,2001,708,0,0
784,316,0,0,0,0,0,0,0,0,0,-1,2008,708,0,0
791,316,0,0,0,0,0,0,0,0,0,-1,2015,708,0,0
798,316,0,0,0,0,0,0,0,0,0,-1,2022,708,0,0
805,316,0,0,0,0,0,0,0,0,0,-1,2029,708,0,0
812,316,0,0,0,0,0,0,0,0,0,-1,2036,708,0,0
-700,309,0,0,0,0,0,0,0,0,0,-1,524,715,0,0
-693,309,0,0,0,0,0,0,0,0,0,-1,531,715,0,0
-686,309,0,0,0,0,0,0,0,0,0,-1,538,715,0,0
-679,309,0,0,0,0,0,0,0,0,0,-1,545,715,0,0
-672,309,0,0,0,0,0,0,0,0,0,-1,552,715,0,0
-665,309,0,0,0,0,0,0,0,0,0,-1,559,715,0,0
-658,309,0,0,0,0,0,0,0,0,0,-1,566,715,0,0
-651,309,0,0,0,0,0,0,0,0,0,-1,573,715,0,0
-644,309,0,0,0,0,0,0,0,0,0,-1,580,715,0,0
-637,309,0,0,0,0,0,0,0,0,0,-1,587,715,0,0
-630,309,0,0,0,0,0,0,0,0,0,-1,594,715,0,0
-623,309,0,0,0,0,0,0,0,0,0,-1,601,715,0,0
-616,309,0,0,0,0,0,0,0,0,0,-1,608,715,0,0
-609,309,-0.0150146,11.5838,0.036032,0.0335716,-0.0945739,0.129384,-0.0597801,-0.778895,0.111651,0.0446459,615,715,-0.0150444,-11.5838
-602,309,0.0744019,9.88684,0.0293202,0.0279808,-0.0851564,0.11381,-0.0565085,-0.781466,0.100171,0.0445892,622,715,0.0743895,-9.88681
-595,309,0.283203,7.81976,0.02343,0.0224943,-0.0746386,0.0976022,-0.0516779,-0.782264,0.0875358,0.0468575,629,715,0.283173,-7.81974
-588,309,0.222717,5.83148,0.0182499,0.0174625,-0.0636593,0.0815167,-0.0458044,-0.782306,0.0744665,0.0447579,636,715,0.222737,-5.83149
-581,309,0.407776,2.88684,0,0,0,0,0,0,0,-1,643,715,0.407772,-2.88683
-574,309,0.200745,2.03302,0.0104747,0.00962204,-0.0428171,0.0528676,-0.0327709,-0.78042,0.0498952,0.0479683,650,715,0.200741,-2.033
-567,309,-0.019104,1.16199,0.00728174,0.00674884,-0.0336553,0.0406716,-0.0266411,-0.78144,0.0391434,0.0429845,657,715,-0.0191311,-1.16199
-560,309,-0.0741577,0.221313,0.00503757,0.00463178,-0.0255997,0.0304352,-0.0207659,-0.781435,0.0297362,0.0348152,664,715,-0.0741392,-0.221295
-553,309,-0.00170898,0.144592,0.00340862,0.00269087,-0.0181928,0.0212461,-0.0151466,-0.775536,0.0211094,0.0205938,671,715,-0.00171005,-0.1446
-546,309,-0.0211182,0.0846558,0.0022351,0.00138492,-0.0123133,0.0141307,-0.0105107,-0.768144,0.0142778,0.0131532,678,715,-0.0211229,-0.0846347
-539,309,-0.02948,0.065979,0.00161339,0.000775759,-0.00793731,0.00914293,-0.00675378,-0.75904,0.00921246,0.0127847,685,715,-0.0294837,-0.0659619
-532,309,-0.0287476,0.0778198,0.00159757,0.000845751,-0.00457844,0.0058155,-0.00337218,-0.744438,0.00536667,0.0102873,692,715,-0.028777,-0.0778101
-525,309,-0.0324707,0.0756226,0.0018784,0.00105075,-0.00201622,0.00352283,-0.000593678,-0.68418,0.00256941,0.013511,699,715,-0.0324663,-0.0756316
-518,309,-0.0436401,0.0651245,0.00225675,0.00143038,-0.000293671,0.00235048,0.00133665,-0.308951,0.00136131,0.0145194,706,715,-0.0436253,-0.0651546
-511,309,-0.038208,0.0566406,0.00237405,0.000743214,0.00095404,0.00281366,0.000303603,0.431789,0.00178321,0.0114789,713,715,-0.0382236,-0.0566332
-504,309,-0.0253906,0.0655518,0.00214967,5.8056e-05,0.00215681,0.00350085,-0.00129312,0.559656,0.00286397,0.00910307,720,715,-0.0254094,-0.0655266
-497,309,-0.0209351,0.0708008,0.00166509,-0.000933095,0.00287471,0.00352061,-0.00278862,0.57318,0.0036508,0.0124709,727,715,-0.0209546,-0.0708078
-490,309,-0.0214233,0.0670776,0.000918932,-0.00276225,0.00346143,0.00299871,-0.00484202,0.541039,0.00456836,0.0134118,734,715,-0.021393,-0.0670853
-483,309,0.0020752,0.0643311,0.000377241,-0.0046064,0.00372985,0.00237106,-0.00660022,0.49091,0.00536799,0.0198852,741,715,0.0020781,-0.0643097
-476,309,0.0993042,0.217651,-0.000807834,-0.00724498,0.00362988,0.000824905,-0.00887772,0.422692,0.00621173,0.0343457,748,715,0.0992955,-0.217681
-469,309,0.11084,0.430237,-0.00282868,-0.0103976,0.00280741,-0.00190106,-0.0113252,0.319123,0.00700302,0.045002,755,715,0.110867,-0.43021
-462,309,0.0679932,0.510071,-0.00509136,-0.014838,0.00186827,-0.00474552,-0.0151838,0.183043,0.00896943,0.0461053,762,715,0.0679876,-0.510082
-455,309,-0.250977,-0.0440674,-0.00807032,-0.0198574,0.000140777,-0.00806864,-0.0198591,0.0119411,0.0115326,0.0476253,769,715,-0.250985,0.0440702
-448,309,-2.1015,-0.64386,0,0,0,0,0,0,0,-1,776,715,-2.10148,0.643871
-441,309,1.21063,0.289673,0,0,0,0,0,0,0,-1,783,715,1.21066,-0.289671
-434,309,1.37036,0.35083,0,0,0,0,0,0,0,-1,790,715,1.37035,-0.350847
-427,309,0.0826416,-0.71051,0,0,0,0,0,0,0,-1,797,715,0.0826702,0.710519
-420,309,0.707153,-0.272888,0,0,0,0,0,0,0,-1,804,715,0.707162,0.272869
-413,309,0,0,0,0,0,0,0,0,0,-1,811,715,0,0
-406,309,0,0,0,0,0,0,0,0,0,-1,818,715,0,0
-399,309,0,0,0,0,0,0,0,0,0,-1,825,715,0,0
-392,309,0,0,0,0,0,0,0,0,0,-1,832,715,0,0
-385,309,0,0,0,0,0,0,0,0,0,-1,839,715,0,0
-378,309,0,0,0,0,0,0,0,0,0,-1,846,715,0,0
-371,309,0,0,0,0,0,0,0,0,0,-1,853,715,0,0
-364,309,0,0,0,0,0,0,0,0,0,-1,860,715,0,0
-357,309,0,0,0,0,0,0,0,0,0,-1,867,715,0,0
-350,309,0,0,0,0,0,0,0,0,0,-1,874,715,0,0
-343,309,0,0,0,0,0,0,0,0,0,-1,881,715,0,0
-336,309,0,0,0,0,0,0,0,0,0,-1,888,715,0,0
-329,309,0,0,0,0,0,0,0,0,0,-1,895,715,0,0
-322,309,0,0,0,0,0,0,0,0,0,-1,902,715,0,0
-315,309,0,0,0,0,0,0,0,0,0,-1,909,715,0,0
-308,309,0,0,0,0,0,0,0,0,0,-1,916,715,0,0
-301,309,0,0,0,0,0,0,0,0,0,-1,923,715,0,0
-294,309,0,0,0,0,0,0,0,0,0,-1,930,715,0,0
-287,309,0,0,0,0,0,0,0,0,0,-1,937,715,0,0
-280,309,0,0,0,0,0,0,0,0,0,-1,944,715,0,0
-273,309,0,0,0,0,0,0,0,0,0,-1,951,715,0,0
-266,309,0,0,0,0,0,0,0,0,0,-1,958,715,0,0
-259,309,0,0,0,0,0,0,0,0,0,-1,965,715,0,0
-252,309,0,0,0,0,0,0,0,0,0,-1,972,715,0,0
-245,309,0,0,0,0,0,0,0,0,0,-1,979,715,0,0
-238,309,0,0,0,0,0,0,0,0,0,-1,986,715,0,0
-231,309,0,0,0,0,0,0,0,0,0,-1,993,715,0,0
-224,309,0,0,0,0,0,0,0,0,0,-1,1000,715,0,0
-217,309,0,0,0,0,0,0,0,0,0,-1,1007,715,0,0
-210,309,0,0,0,0,0,0,0,0,0,-1,1014,715,0,0
-203,309,0,0,0,0,0,0,0,0,0,-1,1021,715,0,0
-196,309,0,0,0,0,0,0,0,0,0,-1,1028,715,0,0
-189,309,0,0,0,0,0,0,0,0,0,-1,1035,715,0,0
-182,309,0,0,0,0,0,0,0,0,0,-1,1042,715,0,0
-175,309,0,0,0,0,0,0,0,0,0,-1,1049,715,0,0
-168,309,0,0,0,0,0,0,0,0,0,-1,1056,715,0,0
-161,309,0,0,0,0,0,0,0,0,0,-1,1063,715,0,0
-154,309,0,0,0,0,0,0,0,0,0,-1,1070,715,0,0
-147,309,0,0,0,0,0,0,0,0,0,-1,1077,715,0,0
-140,309,0,0,0,0,0,0,0,0,0,-1,1084,715,0,0
-133,309,0,0,0,0,0,0,0,0,0,-1,1091,715,0,0
-126,309,0,0,0,0,0,0,0,0,0,-1,1098,715,0,0
-119,309,0,0,0,0,0,0,0,0,0,-1,1105,715,0,0
-112,309,0,0,0,0,0,0,0,0,0,-1,1112,715,0,0
-105,309,0,0,0,0,0,0,0,0,0,-1,1119,715,0,0
-98,309,0,0,0,0,0,0,0,0,0,-1,1126,715,0,0
-91,309,0,0,0,0,0,0,0,0,0,-1,1133,715,0,0
-84,309,0,0,0,0,0,0,0,0,0,-1,1140,715,0,0
-77,309,0,0,0,0,0,0,0,0,0,-1,1147,715,0,0
-70,309,0,0,0,0,0,0,0,0,0,-1,1154,715,0,0
-63,309,0,0,0,0,0,0,0,0,0,-1,1161,715,0,0
-56,309,0,0,0,0,0,0,0,0,0,-1,1168,715,0,0
-49,309,0,0,0,0,0,0,0,0,0,-1,1175,715,0,0
-42,309,0,0,0,0,0,0,0,0,0,-1,1182,715,0,0
-35,309,0,0,0,0,0,0,0,0,0,-1,1189,715,0,0
-28,309,0,0,0,0,0,0,0,0,0,-1,1196,715,0,0
-21,309,0,0,0,0,0,0,0,0,0,-1,1203,715,0,0
-14,309,0,0,0,0,0,0,0,0,0,-1,1210,715,0,0
-7,309,0,0,0,0,0,0,0,0,0,-1,1217,715,0,0
0,309,0,0,0,0,0,0,0,0,0,-1,1224,715,0,0
7,309,0,0,0,0,0,0,0,0,0,-1,1231,715,0,0
14,309,0,0,0,0,0,0,0,0,0,-1,1238,715,0,0
21,309,0,0,0,0,0,0,0,0,0,-1,1245,715,0,0
28,309,0,0,0,0,0,0,0,0,0,-1,1252,715,0,0
35,309,0,0,0,0,0,0,0,0,0,-1,1259,715,0,0
42,309,0,0,0,0,0,0,0,0,0,-1,1266,715,0,0
49,309,0,0,0,0,0,0,0,0,0,-1,1273,715,0,0
56,309,0,0,0,0,0,0,0,0,0,-1,1280,715,0,0
63,309,0,0,0,0,0,0,0,0,0,-1,1287,715,0,0
70,309,0,0,0,0,0,0,0,0,0,-1,1294,715,0,0
77,309,0,0,0,0,0,0,0,0,0,-1,1301,715,0,0
84,309,0,0,0,0,0,0,0,0,0,-1,1308,715,0,0
91,309,0,0,0,0,0,0,0,0,0,-1,1315,715,0,0
98,309,0,0,0,0,0,0,0,0,0,-1,1322,715,0,0
105,309,0,0,0,0,0,0,0,0,0,-1,1329,715,0,0
112,309,0,0,0,0,0,0,0,0,0,-1,1336,715,0,0
119,309,0,0,0,0,0,0,0,0,0,-1,1343,715,0,0
126,309,0,0,0,0,0,0,0,0,0,-1,1350,715,0,0
133,309,0,0,0,0,0,0,0,0,0,-1,1357,715,0,0
140,309,0,0,0,0,0,0,0,0,0,-1,1364,715,0,0
147,309,0,0,0,0,0,0,0,0,0,-1,1371,715,0,0
154,309,0,0,0,0,0,0,0,0,0,-1,1378,715,0,0
161,309,0,0,0,0,0,0,0,0,0,-1,1385,715,0,0
168,309,0,0,0,0,0,0,0,0,0,-1,1392,715,0,0
175,309,0,0,0,0,0,0,0,0,0,-1,1399,715,0,0
182,309,0,0,0,0,0,0,0,0,0,-1,1406,715,0,0
189,309,0,0,0,0,0,0,0,0,0,-1,1413,715,0,0
196,309,0,0,0,0,0,0,0,0,0,-1,1420,715,0,0
203,309,0,0,0,0,0,0,0,0,0,-1,1427,715,0,0
210,309,0,0,0,0,0,0,0,0,0,-1,1434,715,0,0
217,309,0,0,0,0,0,0,0,0,0,-1,1441,715,0,0
224,309,0,0,0,0,0,0,0,0,0,-1,1448,715,0,0
231,309,0,0,0,0,0,0,0,0,0,-1,1455,715,0,0
238,309,0,0,0,0,0,0,0,0,0,-1,1462,715,0,0
245,309,0,0,0,0,0,0,0,0,0,-1,1469,715,0,0
252,309,0,0,0,0,0,0,0,0,0,-1,1476,715,0,0
259,309,0,0,0,0,0,0,0,0,0,-1,1483,715,0,0
266,309,0,0,0,0,0,0,0,0,0,-1,1490,715,0,0
273,309,0,0,0,0,0,0,0,0,0,-1,1497,715,0,0
280,309,0,0,0,0,0,0,0,0,0,-1,1504,715,0,0
287,309,0,0,0,0,0,0,0,0,0,-1,1511,715,0,0
294,309,0,0,0,0,0,0,0,0,0,-1,1518,715,0,0
301,309,0,0,0,0,0,0,0,0,0,-1,1525,715,0,0
308,309,0,0,0,0,0,0,0,0,0,-1,1532,715,0,0
315,309,0,0,0,0,0,0,0,0,0,-1,1539,715,0,0
322,309,0,0,0,0,0,0,0,0,0,-1,1546,715,0,0
329,309,0,0,0,0,0,0,0,0,0,-1,1553,715,0,0
336,309,0,0,0,0,0,0,0,0,0,-1,1560,715,0,0
343,309,0,0,0,0,0,0,0,0,0,-1,1567,715,0,0
350,309,0,0,0,0,0,0,0,0,0,-1,1574,715,0,0
357,309,0,0,0,0,0,0,0,0,0,-1,1581,715,0,0
364,309,0,0,0,0,0,0,0,0,0,-1,1588,715,0,0
371,309,0,0,0,0,0,0,0,0,0,-1,1595,715,0,0
378,309,0,0,0,0,0,0,0,0,0,-1,1602,715,0,0
385,309,0,0,0,0,0,0,0,0,0,-1,1609,715,0,0
392,309,0,0,0,0,0,0,0,0,0,-1,1616,715,0,0
399,309,0,0,0,0,0,0,0,0,0,-1,1623,715,0,0
406,309,0,0,0,0,0,0,0,0,0,-1,1630,715,0,0
413,309,0,0,0,0,0,0,0,0,0,-1,1637,715,0,0
420,309,0,0,0,0,0,0,0,0,0,-1,1644,715,0,0
427,309,0,0,0,0,0,0,0,0,0,-1,1651,715,0,0
434,309,0,0,0,0,0,0,0,0,0,-1,1658,715,0,0
441,309,0,0,0,0,0,0,0,0,0,-1,1665,715,0,0
448,309,0,0,0,0,0,0,0,0,0,-1,1672,715,0,0
455,309,0,0,0,0,0,0,0,0,0,-1,1679,715,0,0
462,309,0,0,0,0,0,0,0,0,0,-1,1686,715,0,0
469,309,0,0,0,0,0,0,0,0,0,-1,1693,715,0,0
476,309,0,0,0,0,0,0,0,0,0,-1,1700,715,0,0
483,309,0,0,0,0,0,0,0,0,0,-1,1707,715,0,0
490,309,0,0,0,0,0,0,0,0,0,-1,1714,715,0,0
497,309,0,0,0,0,0,0,0,0,0,-1,1721,715,0,0
504,309,0,0,0,0,0,0,0,0,0,-1,1728,715,0,0
511,309,0,0,0,0,0,0,0,0,0,-1,1735,715,0,0
518,309,0,0,0,0,0,0,0,0,0,-1,1742,715,0,0
525,309,0,0,0,0,0,0,0,0,0,-1,1749,715,0,0
532,309,0,0,0,0,0,0,0,0,0,-1,1756,715,0,0
539,309,-0.338379,0.0879517,0,0,0,0,0,0,0,-1,1763,715,-0.338409,-0.0879336
546,309,0.115723,-0.248047,0,0,0,0,0,0,0,-1,1770,715,0.115707,0.248039
553,309,0.293579,-0.372498,0,0,0,0,0,0,0,-1,1777,715,0.293542,0.372485
560,309,0.383667,-0.90979,-0.00806301,0.0252674,0.00424608,0.0257998,-0.00859542,1.44606,0.0206696,0.0440827,1784,715,0.383681,0.909767
567,309,0.480713,-1.44464,0,0,0,0,0,0,0,-1,1791,715,0.480687,1.44465
574,309,0.4552,0.518677,0,0,0,0,0,0,0,-1,1798,715,0.4552,-0.518666
581,309,0.305908,0.666931,0.0014376,0.0137996,0.00415389,0.0150657,0.000171478,1.27494,0.00998712,0.0465534,1805,715,0.30594,-0.666928
588,309,0.0275879,0.826477,0.00401426,0.00991099,0.00354117,0.0115705,0.00235473,1.13255,0.00706089,0.0459682,1812,715,0.0275768,-0.826449
595,309,-0.211914,0.557617,0.00592091,0.00652652,0.0028381,0.00907792,0.00336951,0.838544,0.00529881,0.0431274,1819,715,-0.211937,-0.557637
602,309,-0.233032,0.227051,0.00673204,0.00392215,0.00209955,0.00785336,0.00280083,0.490534,0.00459584,0.0394972,1826,715,-0.23299,-0.227036
609,309,-0.0368652,0.00482178,0.00687416,0.00198279,0.00180332,0.00746712,0.00138983,0.317677,0.00458556,0.0356706,1833,715,-0.0368449,-0.00480041
616,309,-0.0106201,0.0519409,0.00678318,0.00106537,0.00141585,0.00711456,0.000733982,0.229917,0.0045183,0.0183658,1840,715,-0.0105612,-0.0519132
623,309,-0.041748,0.0643921,0.00617735,-0.00130563,0.00102603,0.00631548,-0.00144376,0.133826,0.00476505,0.0098398,1847,715,-0.0417074,-0.0644134
630,309,-0.0588379,0.071228,0.005098,-0.00182858,0.0006406,0.00515674,-0.00188733,0.0914508,0.00421038,0.00935066,1854,715,-0.0588872,-0.0712291
637,309,-0.0692139,0.0784912,0.00407748,-0.00210103,0.000459602,0.00411148,-0.00213503,0.0738456,0.00366611,0.0115354,1861,715,-0.0692174,-0.0785086
644,309,-0.0635986,0.0819702,0.00304935,-0.00113576,0.000252986,0.00306459,-0.001151,0.0601571,0.00251607,0.0132527,1868,715,-0.0636228,-0.0819838
651,309,-0.0432129,0.0811157,0.00245623,-0.00069521,0.000475289,0.00252635,-0.000765332,0.146477,0.00198904,0.0124346,1875,715,-0.0431775,-0.0810871
658,309,-0.0491943,0.0697021,0.0021226,-0.00049617,0.000317827,0.00216062,-0.000534192,0.119062,0.0016476,0.0158292,1882,715,-0.0491771,-0.0696958
665,309,-0.0458984,0.0777588,0.00222648,-0.000283234,-7.97686e-05,0.00222901,-0.000285767,-0.0317412,0.00158985,0.0149774,1889,715,-0.045918,-0.0777696
672,309,-0.0361328,0.0941162,0.00312628,0.000349192,-0.000227902,0.00314486,0.000330614,-0.0813399,0.00199552,0.0135982,1896,715,-0.0361622,-0.0941369
679,309,-0.0596924,0.0982056,0.00448203,0.000601579,2.78988e-05,0.00448223,0.000601378,0.00718908,0.00280923,0.0137716,1903,715,-0.0596351,-0.0981835
686,309,-0.0327148,0.0935059,0.00631462,0.0013707,0.000260418,0.0063283,0.00135702,0.0524808,0.00384715,0.0170594,1910,715,-0.0327128,-0.0935198
693,309,0.0147705,0.140137,0.00832439,0.00240641,0.000600754,0.00838475,0.00234604,0.100152,0.00499498,0.0298822,1917,715,0.0147258,-0.140127
700,309,0.156616,0.695374,0,0,0,0,0,0,0,-1,1924,715,0.156667,-0.695343
707,309,0.239502,0.141357,0.0140615,0.0059017,0.00236137,0.0146956,0.00526762,0.262335,0.0085971,0.0418652,1931,715,0.239481,-0.141361
714,309,0.36499,-0.179565,0.0178831,0.00843798,0.00410582,0.0194184,0.00690272,0.357827,0.0113662,0.0391018,1938,715,0.364955,0.179576
721,309,0.629883,-0.161865,0.0225677,0.0115119,0.00675077,0.0257651,0.00831453,0.442332,0.015184,0.0417855,1945,715,0.629901,0.161855
728,309,0,0,0,0,0,0,0,0,0,-1,1952,715,0,0
735,309,0,0,0,0,0,0,0,0,0,-1,1959,715,0,0
742,309,0,0,0,0,0,0,0,0,0,-1,1966,715,0,0
749,309,0,0,0,0,0,0,0,0,0,-1,1973,715,0,0
756,309,0,0,0,0,0,0,0,0,0,-1,1980,715,0,0
763,309,0,0,0,0,0,0,0,0,0,-1,1987,715,0,0
770,309,0,0,0,0,0,0,0,0,0,-1,1994,715,0,0
777,309,0,0,0,0,0,0,0,0,0,-1,2001,715,0,0
784,309,0,0,0,0,0,0,0,0,0,-1,2008,715,0,0
791,309,0,0,0,0,0,0,0,0,0,-1,2015,715,0,0
798,309,0,0,0,0,0,0,0,0,0,-1,2022,715,0,0
805,309,0,0,0,0,0,0,0,0,0,-1,2029,715,0,0
812,309,0,0,0,0,0,0,0,0,0,-1,2036,715,0,0
-700,302,0,0,0,0,0,0,0,0,0,-1,524,722,0,0
-693,302,0,0,0,0,0,0,0,0,0,-1,531,722,0,0
-686,302,0,0,0,0,0,0,0,0,0,-1,538,722,0,0
-679,302,0,0,0,0,0,0,0,0,0,-1,545,722,0,0
-672,302,0,0,0,0,0,0,0,0,0,-1,552,722,0,0
-665,302,0,0,0,0,0,0,0,0,0,-1,559,722,0,0
-658,302,0,0,0,0,0,0,0,0,0,-1,566,722,0,0
-651,302,0,0,0,0,0,0,0,0,0,-1,573,722,0,0
-644,302,0,0,0,0,0,0,0,0,0,-1,580,722,0,0
-637,302,0,0,0,0,0,0,0,0,0,-1,587,722,0,0
-630,302,0,0,0,0,0,0,0,0,0,-1,594,722,0,0
-623,302,0,0,0,0,0,0,0,0,0,-1,601,722,0,0
-616,302,0,0,0,0,0,0,0,0,0,-1,608,722,0,0
-609,302,0.277405,11.1608,0.0374414,0.0378837,-0.0871598,0.124823,-0.0494976,-0.786667,0.103729,0.0465985,615,722,0.277423,-11.1608
-602,302,0.269043,9.38861,0.0312993,0.0321579,-0.0788814,0.110611,-0.047154,-0.78812,0.0935096,0.0442301,622,722,0.269046,-9.38861
-595,302,0.163696,7.61066,0.0255808,0.0263516,-0.0695669,0.0955342,-0.0436018,-0.788168,0.0821742,0.0431209,629,722,0.163705,-7.61063
-588,302,-0.0136719,5.72894,0.0203269,0.0208974,-0.0597499,0.0803627,-0.0391384,-0.787785,0.0703491,0.0426088,636,722,-0.0136871,-5.72895
-581,302,0.107361,4.02911,0.0157974,0.016091,-0.0500417,0.0659861,-0.0340977,-0.786865,0.058753,0.0461779,643,722,0.107345,-4.02913
-574,302,0.234558,2.59534,0.0121069,0.0119671,-0.0409339,0.052971,-0.028897,-0.784544,0.0479428,0.0454813,650,722,0.234532,-2.59537
-567,302,0.216309,1.21204,0.0084815,0.00847499,-0.0324048,0.0408831,-0.0239266,-0.785348,0.0378423,0.0434858,657,722,0.216325,-1.21206
-560,302,-0.0159912,0.139954,0.00580939,0.0058217,-0.0248275,0.030643,-0.0190119,-0.785522,0.0289293,0.0280637,664,722,-0.015962,-0.139938
-553,302,-0.00323486,0.0998535,0.00380414,0.00348438,-0.0176857,0.0213307,-0.0140421,-0.780878,0.0205665,0.0122735,671,722,-0.00324997,-0.0998772
-546,302,-0.038208,0.0897217,0.00233739,0.00185471,-0.0119657,0.0140642,-0.00987213,-0.775315,0.0138901,0.0126923,678,722,-0.0382382,-0.089729
-539,302,-0.0445557,0.0894775,0.00155448,0.00102325,-0.00764225,0.00893572,-0.006358,-0.768027,0.00887154,0.0124817,685,722,-0.044554,-0.0894865
-532,302,-0.0248413,0.0883179,0.00151484,0.000975426,-0.00426322,0.00551688,-0.00302661,-0.753808,0.00500194,0.0120804,692,722,-0.0248288,-0.0883395
-525,302,-0.0462036,0.0791626,0.0019237,0.00119301,-0.00157683,0.00317696,-6.02481e-05,-0.67156,0.00213834,0.0167173,699,722,-0.0462185,-0.07915
-518,302,-0.0671997,0.0775146,0.0025487,0.00174033,0.000244478,0.00261688,0.00167214,0.271995,0.00153019,0.0176615,706,722,-0.067186,-0.0775137
-511,302,-0.0370483,0.0802002,0.00292017,0.00123853,0.00161173,0.00389721,0.000261483,0.544975,0.00251552,0.00960603,713,722,-0.0370485,-0.080223
-504,302,-0.024292,0.0845947,0.00287243,0.000735142,0.00297722,0.00496699,-0.00135941,0.613089,0.00384541,0.0088506,720,722,-0.0243112,-0.0845693
-497,302,-0.020874,0.0852051,0.00252091,-0.000191401,0.00390704,0.00530047,-0.00297096,0.618351,0.00483823,0.0124679,727,722,-0.0208881,-0.0852029
-490,302,-0.0165405,0.0690918,0.00181658,-0.00211838,0.00479779,0.00503463,-0.00533643,0.590815,0.00598858,0.0146362,734,722,-0.0165693,-0.0690735
-483,302,0.0582886,0.0684204,0.0012557,-0.00401215,0.00541093,0.00463972,-0.00739617,0.558891,0.00700941,0.0274503,741,722,0.0582943,-0.0683976
-476,302,0.162659,0.108582,-0.000134229,-0.00681734,0.00567928,0.00311362,-0.0100652,0.519484,0.0079538,0.0372946,748,722,0.16263,-0.108583
-469,302,-0.0821533,0.44696,-0.00253777,-0.0103197,0.00521662,7.91666e-05,-0.0129366,0.46497,0.0086509,0.04051,755,722,-0.0821697,-0.446967
-462,302,-0.397644,0.316772,-0.00547877,-0.0151793,0.00453426,-0.0036894,-0.0169686,0.37587,0.0103052,0.0431368,762,722,-0.397662,-0.316787
-455,302,-0.71582,0.109558,-0.00939236,-0.0208552,0.00300909,-0.00865046,-0.0215971,0.24173,0.0125511,0.0465292,769,722,-0.715804,-0.109587
-448,302,-1.98596,-0.201721,-0.0135837,-0.0274848,0.000619716,-0.0135562,-0.0275124,0.0444629,0.0158848,0.046151,776,722,-1.98595,0.201716
-441,302,-2.00452,-0.0552979,-0.0177205,-0.0347719,-0.00283216,-0.0172624,-0.03523,-0.16036,0.0203414,0.0444509,783,722,-2.00455,0.0553073
-434,302,-2.12518,-0.13501,0,0,0,0,0,0,0,-1,790,722,-2.12521,0.135018
-427,302,-2.27753,-0.186768,0,0,0,0,0,0,0,-1,797,722,-2.27751,0.186795
-420,302,0,0,0,0,0,0,0,0,0,-1,804,722,0,0
-413,302,0,0,0,0,0,0,0,0,0,-1,811,722,0,0
-406,302,0,0,0,0,0,0,0,0,0,-1,818,722,0,0
-399,302,0,0,0,0,0,0,0,0,0,-1,825,722,0,0
-392,302,0,0,0,0,0,0,0,0,0,-1,832,722,0,0
-385,302,0,0,0,0,0,0,0,0,0,-1,839,722,0,0
-378,302,0,0,0,0,0,0,0,0,0,-1,846,722,0,0
-371,302,0,0,0,0,0,0,0,0,0,-1,853,722,0,0
-364,302,0,0,0,0,0,0,0,0,0,-1,860,722,0,0
-357,302,0,0,0,0,0,0,0,0,0,-1,867,722,0,0
-350,302,0,0,0,0,0,0,0,0,0,-1,874,722,0,0
-343,302,0,0,0,0,0,0,0,0,0,-1,881,722,0,0
-336,302,0,0,0,0,0,0,0,0,0,-1,888,722,0,0
-329,302,0,0,0,0,0,0,0,0,0,-1,895,722,0,0
-322,302,0,0,0,0,0,0,0,0,0,-1,902,722,0,0
-315,302,0,0,0,0,0,0,0,0,0,-1,909,722,0,0
-308,302,0,0,0,0,0,0,0,0,0,-1,916,722,0,0
-301,302,0,0,0,0,0,0,0,0,0,-1,923,722,0,0
-294,302,0,0,0,0,0,0,0,0,0,-1,930,722,0,0
-287,302,0,0,0,0,0,0,0,0,0,-1,937,722,0,0
-280,302,0,0,0,0,0,0,0,0,0,-1,944,722,0,0
-273,302,0,0,0,0,0,0,0,0,0,-1,951,722,0,0
-266,302,0,0,0,0,0,0,0,0,0,-1,958,722,0,0
-259,302,0,0,0,0,0,0,0,0,0,-1,965,722,0,0
-252,302,0,0,0,0,0,0,0,0,0,-1,972,722,0,0
-245,302,0,0,0,0,0,0,0,0,0,-1,979,722,0,0
-238,302,0,0,0,0,0,0,0,0,0,-1,986,722,0,0
-231,302,0,0,0,0,0,0,0,0,0,-1,993,722,0,0
-224,302,0,0,0,0,0,0,0,0,0,-1,1000,722,0,0
-217,302,0,0,0,0,0,0,0,0,0,-1,1007,722,0,0
-210,302,0,0,0,0,0,0,0,0,0,-1,1014,722,0,0
-203,302,0,0,0,0,0,0,0,0,0,-1,1021,722,0,0
-196,302,0,0,0,0,0,0,0,0,0,-1,1028,722,0,0
-189,302,0,0,0,0,0,0,0,0,0,-1,1035,722,0,0
-182,302,0,0,0,0,0,0,0,0,0,-1,1042,722,0,0
-175,302,0,0,0,0,0,0,0,0,0,-1,1049,722,0,0
-168,302,0,0,0,0,0,0,0,0,0,-1,1056,722,0,0
-161,302,0,0,0,0,0,0,0,0,0,-1,1063,722,0,0
-154,302,0,0,0,0,0,0,0,0,0,-1,1070,722,0,0
-147,302,0,0,0,0,0,0,0,0,0,-1,1077,722,0,0
-140,302,0,0,0,0,0,0,0,0,0,-1,1084,722,0,0
-133,302,0,0,0,0,0,0,0,0,0,-1,1091,722,0,0
-126,302,0,0,0,0,0,0,0,0,0,-1,1098,722,0,0
-119,302,0,0,0,0,0,0,0,0,0,-1,1105,722,0,0
-112,302,0,0,0,0,0,0,0,0,0,-1,1112,722,0,0
-105,302,0,0,0,0,0,0,0,0,0,-1,1119,722,0,0
-98,302,0,0,0,0,0,0,0,0,0,-1,1126,722,0,0
-91,302,0,0,0,0,0,0,0,0,0,-1,1133,722,0,0
-84,302,0,0,0,0,0,0,0,0,0,-1,1140,722,0,0
-77,302,0,0,0,0,0,0,0,0,0,-1,1147,722,0,0
-70,302,0,0,0,0,0,0,0,0,0,-1,1154,722,0,0
-63,302,0,0,0,0,0,0,0,0,0,-1,1161,722,0,0
-56,302,0,0,0,0,0,0,0,0,0,-1,1168,722,0,0
-49,302,0,0,0,0,0,0,0,0,0,-1,1175,722,0,0
-42,302,0,0,0,0,0,0,0,0,0,-1,1182,722,0,0
-35,302,0,0,0,0,0,0,0,0,0,-1,1189,722,0,0
-28,302,0,0,0,0,0,0,0,0,0,-1,1196,722,0,0
-21,302,0,0,0,0,0,0,0,0,0,-1,1203,722,0,0
-14,302,0,0,0,0,0,0,0,0,0,-1,1210,722,0,0
-7,302,0,0,0,0,0,0,0,0,0,-1,1217,722,0,0
0,302,0,0,0,0,0,0,0,0,0,-1,1224,722,0,0
7,302,0,0,0,0,0,0,0,0,0,-1,1231,722,0,0
14,302,0,0,0,0,0,0,0,0,0,-1,1238,722,0,0
21,302,0,0,0,0,0,0,0,0,0,-1,1245,722,0,0
28,302,0,0,0,0,0,0,0,0,0,-1,1252,722,0,0
35,302,0,0,0,0,0,0,0,0,0,-1,1259,722,0,0
42,302,0,0,0,0,0,0,0,0,0,-1,1266,722,0,0
49,302,0,0,0,0,0,0,0,0,0,-1,1273,722,0,0
56,302,0,0,0,0,0,0,0,0,0,-1,1280,722,0,0
63,302,0,0,0,0,0,0,0,0,0,-1,1287,722,0,0
70,302,0,0,0,0,0,0,0,0,0,-1,1294,722,0,0
77,302,0,0,0,0,0,0,0,0,0,-1,1301,722,0,0
84,302,0,0,0,0,0,0,0,0,0,-1,1308,722,0,0
91,302,0,0,0,0,0,0,0,0,0,-1,1315,722,0,0
98,302,0,0,0,0,0,0,0,0,0,-1,1322,722,0,0
105,302,0,0,0,0,0,0,0,0,0,-1,1329,722,0,0
112,302,0,0,0,0,0,0,0,0,0,-1,1336,722,0,0
119,302,0,0,0,0,0,0,0,0,0,-1,1343,722,0,0
126,302,0,0,0,0,0,0,0,0,0,-1,1350,722,0,0
133,302,0,0,0,0,0,0,0,0,0,-1,1357,722,0,0
140,302,0,0,0,0,0,0,0,0,0,-1,1364,722,0,0
147,302,0,0,0,0,0,0,0,0,0,-1,1371,722,0,0
154,302,0,0,0,0,0,0,0,0,0,-1,1378,722,0,0
161,302,0,0,0,0,0,0,0,0,0,-1,1385,722,0,0
168,302,0,0,0,0,0,0,0,0,0,-1,1392,722,0,0
175,302,0,0,0,0,0,0,0,0,0,-1,1399,722,0,0
182,302,0,0,0,0,0,0,0,0,0,-1,1406,722,0,0
189,302,0,0,0,0,0,0,0,0,0,-1,1413,722,0,0
196,302,0,0,0,0,0,0,0,0,0,-1,1420,722,0,0
203,302,0,0,0,0,0,0,0,0,0,-1,1427,722,0,0
210,302,0,0,0,0,0,0,0,0,0,-1,1434,722,0,0
217,302,0,0,0,0,0,0,0,0,0,-1,1441,722,0,0
224,302,0,0,0,0,0,0,0,0,0,-1,1448,722,0,0
231,302,0,0,0,0,0,0,0,0,0,-1,1455,722,0,0
238,302,0,0,0,0,0,0,0,0,0,-1,1462,722,0,0
245,302,0,0,0,0,0,0,0,0,0,-1,1469,722,0,0
252,302,0,0,0,0,0,0,0,0,0,-1,1476,722,0,0
259,302,0,0,0,0,0,0,0,0,0,-1,1483,722,0,0
266,302,0,0,0,0,0,0,0,0,0,-1,1490,722,0,0
273,302,0,0,0,0,0,0,0,0,0,-1,1497,722,0,0
280,302,0,0,0,0,0,0,0,0,0,-1,1504,722,0,0
287,302,0,0,0,0,0,0,0,0,0,-1,1511,722,0,0
294,302,0,0,0,0,0,0,0,0,0,-1,1518,722,0,0
301,302,0,0,0,0,0,0,0,0,0,-1,1525,722,0,0
308,302,0,0,0,0,0,0,0,0,0,-1,1532,722,0,0
315,302,0,0,0,0,0,0,0,0,0,-1,1539,722,0,0
322,302,0,0,0,0,0,0,0,0,0,-1,1546,722,0,0
329,302,0,0,0,0,0,0,0,0,0,-1,1553,722,0,0
336,302,0,0,0,0,0,0,0,0,0,-1,1560,722,0,0
343,302,0,0,0,0,0,0,0,0,0,-1,1567,722,0,0
350,302,0,0,0,0,0,0,0,0,0,-1,1574,722,0,0
357,302,0,0,0,0,0,0,0,0,0,-1,1581,722,0,0
364,302,0,0,0,0,0,0,0,0,0,-1,1588,722,0,0
371,302,0,0,0,0,0,0,0,0,0,-1,1595,722,0,0
378,302,0,0,0,0,0,0,0,0,0,-1,1602,722,0,0
385,302,0,0,0,0,0,0,0,0,0,-1,1609,722,0,0
392,302,0,0,0,0,0,0,0,0,0,-1,1616,722,0,0
399,302,0,0,0,0,0,0,0,0,0,-1,1623,722,0,0
406,302,0,0,0,0,0,0,0,0,0,-1,1630,722,0,0
413,302,0,0,0,0,0,0,0,0,0,-1,1637,722,0,0
420,302,0,0,0,0,0,0,0,0,0,-1,1644,722,0,0
427,302,0,0,0,0,0,0,0,0,0,-1,1651,722,0,0
434,302,0,0,0,0,0,0,0,0,0,-1,1658,722,0,0
441,302,0,0,0,0,0,0,0,0,0,-1,1665,722,0,0
448,302,0,0,0,0,0,0,0,0,0,-1,1672,722,0,0
455,302,0,0,0,0,0,0,0,0,0,-1,1679,722,0,0
462,302,0,0,0,0,0,0,0,0,0,-1,1686,722,0,0
469,302,0,0,0,0,0,0,0,0,0,-1,1693,722,0,0
476,302,0,0,0,0,0,0,0,0,0,-1,1700,722,0,0
483,302,0,0,0,0,0,0,0,0,0,-1,1707,722,0,0
490,302,0,0,0,0,0,0,0,0,0,-1,1714,722,0,0
497,302,0,0,0,0,0,0,0,0,0,-1,1721,722,0,0
504,302,0,0,0,0,0,0,0,0,0,-1,1728,722,0,0
511,302,0,0,0,0,0,0,0,0,0,-1,1735,722,0,0
518,302,0,0,0,0,0,0,0,0,0,-1,1742,722,0,0
525,302,0,0,0,0,0,0,0,0,0,-1,1749,722,0,0
532,302,0,0,0,0,0,0,0,0,0,-1,1756,722,0,0
539,302,0,0,0,0,0,0,0,0,0,-1,1763,722,0,0
546,302,-0.110229,-0.0460815,0,0,0,0,0,0,0,-1,1770,722,-0.110169,0.0460657
553,302,0.409546,-0.23938,0,0,0,0,0,0,0,-1,1777,722,0.4096,0.239373
560,302,0.361328,-0.873169,0,0,0,0,0,0,0,-1,1784,722,0.361296,0.873192
567,302,0.312988,-1.50702,0,0,0,0,0,0,0,-1,1791,722,0.312992,1.50701
574,302,-0.410522,1.49176,0,0,0,0,0,0,0,-1,1798,722,-0.410566,-1.49175
581,302,-0.417725,1.28711,0.00220955,0.016497,0.00386535,0.0174757,0.00123085,1.32281,0.0112626,0.0451205,1805,722,-0.41773,-1.28709
588,302,-0.421875,1.1012,0.00512234,0.0123927,0.00318211,0.0135887,0.00392634,1.21128,0.00807508,0.0442659,1812,722,-0.421871,-1.10122
595,302,-0.227783,0.742493,0.00722052,0.00873233,0.00255604,0.0106419,0.00531096,0.929168,0.0061441,0.0392531,1819,722,-0.227803,-0.742508
602,302,-0.0917969,0.129944,0.00821061,0.00581882,0.00194921,0.00930154,0.00472789,0.510245,0.00537049,0.0403829,1826,722,-0.0918065,-0.129932
609,302,-0.0721436,-0.0234375,0.00842556,0.00357628,0.0018233,0.00903462,0.00296722,0.322386,0.00531752,0.0405334,1833,722,-0.0721911,0.0234522
616,302,-0.0389404,0.0456543,0.00840216,0.00243661,0.00153428,0.00877363,0.00206514,0.237543,0.00529665,0.0326205,1840,722,-0.0389544,-0.0456382
623,302,-0.0343018,0.0541992,0.00786959,-0.000424677,0.00118828,0.00803647,-0.000591558,0.139527,0.00556533,0.0124627,1847,722,-0.0342942,-0.0541803
630,302,-0.0717773,0.0752563,0.00673525,-0.00136673,0.000825429,0.00681849,-0.00144997,0.100504,0.00509819,0.00967386,1854,722,-0.071792,-0.0752779
637,302,-0.0911865,0.0889893,0.00548951,-0.00207541,0.000718104,0.00555707,-0.00214297,0.0938091,0.00458897,0.0118702,1861,722,-0.0912176,-0.0889605
644,302,-0.0679932,0.0782471,0.00410414,-0.000954159,0.000480442,0.00414937,-0.000999387,0.0938626,0.00315262,0.0144313,1868,722,-0.0679556,-0.0782284
651,302,-0.0374756,0.0730591,0.00318416,-0.000421197,0.000673926,0.00330601,-0.000543052,0.17888,0.00240554,0.0140346,1875,722,-0.0374674,-0.073088
658,302,-0.0516357,0.0848389,0.00246629,-0.000211054,0.000533036,0.00256851,-0.000313274,0.18947,0.00182574,0.0134658,1882,722,-0.0516359,-0.084834
665,302,-0.0529785,0.0907593,0.00221455,0.000168284,2.8264e-05,0.00221494,0.000167893,0.013809,0.00142397,0.0136285,1889,722,-0.0530256,-0.09078
672,302,-0.0367432,0.0784912,0.00298445,0.000831182,-0.000155018,0.00299556,0.000820079,-0.0715004,0.00178752,0.0113136,1896,722,-0.0367553,-0.0785194
679,302,-0.060791,0.078125,0.00426936,0.00109061,0.00016184,0.00427758,0.00108239,0.0507382,0.00256811,0.00887334,1903,722,-0.0607719,-0.0781238
686,302,-0.0488281,0.0750732,0.00606726,0.00190102,0.00047025,0.00611967,0.0018486,0.111011,0.00362429,0.0110318,1910,722,-0.0488421,-0.0750713
693,302,-0.0413818,0.10968,0.00802484,0.00286681,0.000880222,0.00817092,0.00272073,0.164452,0.00480441,0.0214124,1917,722,-0.0413261,-0.1097
700,302,0.0457764,0.233582,0.0106855,0.00426118,0.00168037,0.0110984,0.0038482,0.24099,0.00650726,0.0401859,1924,722,0.0457864,-0.233563
707,302,0.287964,-0.015686,0.0139881,0.00605909,0.00291367,0.0149437,0.00510356,0.316895,0.008771,0.0411846,1931,722,0.287912,0.0156854
714,302,0.227905,-0.453125,0.0180695,0.00828075,0.00479266,0.0200253,0.00632498,0.387448,0.0118201,0.0417507,1938,722,0.227941,0.453136
721,302,0.40625,-0.694397,0.0231142,0.0109172,0.00751873,0.0266968,0.0073346,0.444658,0.0159263,0.0424542,1945,722,0.406257,0.694405
728,302,0.559204,-0.608826,0.0292578,0.0139138,0.0113318,0.0352705,0.00790113,0.487826,0.0213724,0.0440258,1952,722,0.559184,0.608814
735,302,0,0,0,0,0,0,0,0,0,-1,1959,722,0,0
742,302,0,0,0,0,0,0,0,0,0,-1,1966,722,0,0
749,302,0,0,0,0,0,0,0,0,0,-1,1973,722,0,0
756,302,0,0,0,0,0,0,0,0,0,-1,1980,722,0,0
763,302,0,0,0,0,0,0,0,0,0,-1,1987,722,0,0
770,302,0,0,0,0,0,0,0,0,0,-1,1994,722,0,0
777,302,0,0,0,0,0,0,0,0,0,-1,2001,722,0,0
784,302,0,0,0,0,0,0,0,0,0,-1,2008,722,0,0
791,302,0,0,0,0,0,0,0,0,0,-1,2015,722,0,0
798,302,0,0,0,0,0,0,0,0,0,-1,2022,722,0,0
805,302,0,0,0,0,0,0,0,0,0,-1,2029,722,0,0
812,302,0,0,0,0,0,0,0,0,0,-1,2036,722,0,0
-700,295,0,0,0,0,0,0,0,0,0,-1,524,729,0,0
-693,295,0,0,0,0,0,0,0,0,0,-1,531,729,0,0
-686,295,0,0,0,0,0,0,0,0,0,-1,538,729,0,0
-679,295,0,0,0,0,0,0,0,0,0,-1,545,729,0,0
-672,295,0,0,0,0,0,0,0,0,0,-1,552,729,0,0
-665,295,0,0,0,0,0,0,0,0,0,-1,559,729,0,0
-658,295,0,0,0,0,0,0,0,0,0,-1,566,729,0,0
-651,295,0,0,0,0,0,0,0,0,0,-1,573,729,0,0
-644,295,0,0,0,0,0,0,0,0,0,-1,580,729,0,0
-637,295,0,0,0,0,0,0,0,0,0,-1,587,729,0,0
-630,295,0,0,0,0,0,0,0,0,0,-1,594,729,0,0
-623,295,0,0,0,0,0,0,0,0,0,-1,601,729,0,0
-616,295,0.543518,-1.21228,0,0,0,0,0,0,0,-1,608,729,0.543513,1.21226
-609,295,0.570679,10.7795,0,0,0,0,0,0,0,-1,615,729,0.570673,-10.7795
-602,295,0.459656,9.07336,0,0,0,0,0,0,0,-1,622,729,0.459663,-9.07335
-595,295,-0.541565,7.05347,0,0,0,0,0,0,0,-1,629,729,-0.541581,-7.05344
-588,295,-0.21051,5.60596,0.0217036,0.0220147,-0.0529052,0.0747646,-0.0310463,-0.786868,0.062804,0.0466126,636,729,-0.210529,-5.60596
-581,295,0.0878296,4.25354,0.0170802,0.0169591,-0.0447042,0.0617239,-0.0276846,-0.784721,0.0528523,0.0473431,643,729,0.0878064,-4.25357
-574,295,0.251526,2.90369,0,0,0,0,0,0,0,-1,650,729,0.251501,-2.90366
-567,295,-0.143311,-0.0751343,0.00925702,0.0088099,-0.0293331,0.0383674,-0.0203005,-0.781588,0.0344031,0.0350136,657,729,-0.143302,0.0751062
-560,295,-0.0105591,0.0839844,0.00629214,0.00592204,-0.0226462,0.0287541,-0.0165399,-0.781313,0.0264655,0.0157865,664,729,-0.0105806,-0.0839584
-553,295,-0.00842285,0.0847778,0.00404123,0.0036119,-0.0161916,0.0200196,-0.0123664,-0.77877,0.0188713,0.014713,671,729,-0.00840772,-0.0847573
-546,295,-0.0325928,0.0962524,0.0023233,0.00185016,-0.0109279,0.0130172,-0.0088437,-0.774576,0.0126978,0.0184192,678,729,-0.0325911,-0.096273
-539,295,-0.046814,0.0970459,0.00136527,0.000952021,-0.0068433,0.00800506,-0.00568777,-0.770306,0.0079432,0.0159252,685,729,-0.0467963,-0.0970351
-532,295,-0.0377808,0.076355,0.0012902,0.000941918,-0.0035754,0.00469569,-0.00246358,-0.761065,0.00419984,0.0135902,692,729,-0.0378019,-0.0763269
-525,295,-0.0236206,0.0848999,0.00173733,0.00135911,-0.000865851,0.00243449,0.000661962,-0.677882,0.00145348,0.013134,699,729,-0.0235903,-0.0848764
-518,295,-0.0170898,0.0840454,0.00249468,0.00222446,0.000989701,0.00335845,0.00136069,0.717561,0.0019506,0.00986141,706,729,-0.0171074,-0.0840643
-511,295,-0.0336914,0.0958252,0.00301236,0.00211189,0.00242737,0.0050309,9.33462e-05,0.693699,0.00332325,0.00846962,713,729,-0.0337157,-0.0958269
-504,295,-0.0357666,0.0897827,0.00310752,0.00199522,0.00391262,0.00650331,-0.00140058,0.7148,0.00487,0.010166,720,729,-0.0357462,-0.0897759
-497,295,-0.0354614,0.0819702,0.0028897,0.00137583,0.00501597,0.00720552,-0.00293999,0.710511,0.00602761,0.0135135,727,729,-0.0354826,-0.0819468
-490,295,-0.0376587,0.0830078,0.00224881,-0.000372833,0.00616252,0.00723838,-0.0053624,0.680606,0.00730189,0.023402,734,729,-0.0376582,-0.0830263
-483,295,0.0801392,0.0718384,0.00167466,-0.00204084,0.00705539,0.00711278,-0.00747896,0.656665,0.00842543,0.038743,741,729,0.0801661,-0.0718356
-476,295,0.198792,0.277222,0.000135373,-0.00472048,0.00760501,0.00569062,-0.0102757,0.630885,0.00934401,0.0402247,748,729,0.198804,-0.277222
-469,295,-0.200928,0.545532,-0.00255608,-0.00824624,0.00740124,0.00252808,-0.0133304,0.601903,0.0098385,0.0436752,755,729,-0.20095,-0.545545
-462,295,-0.534668,0.626404,-0.00607171,-0.0132263,0.00685099,-0.00192029,-0.0173777,0.544789,0.0110011,0.0482614,762,729,-0.53466,-0.626381
-455,295,-0.902344,0.658508,-0.0108247,-0.0192696,0.00538029,-0.00820779,-0.0218865,0.452696,0.0127671,0.0484081,769,729,-0.90234,-0.658499
-448,295,-1.71008,0.571228,-0.016632,-0.0264788,0.00282333,-0.0158799,-0.0272309,0.260334,0.0157941,0.0478366,776,729,-1.7101,-0.571236
-441,295,-2.46277,0.500549,-0.0234793,-0.0348508,-0.0011287,-0.0233683,-0.0349617,-0.097983,0.0205632,0.0494883,783,729,-2.46276,-0.500576
-434,295,-3.16266,0.416382,0,0,0,0,0,0,0,-1,790,729,-3.16268,-0.416364
-427,295,0,0,0,0,0,0,0,0,0,-1,797,729,0,0
-420,295,0,0,0,0,0,0,0,0,0,-1,804,729,0,0
-413,295,0,0,0,0,0,0,0,0,0,-1,811,729,0,0
-406,295,0,0,0,0,0,0,0,0,0,-1,818,729,0,0
-399,295,0,0,0,0,0,0,0,0,0,-1,825,729,0,0
-392,295,0,0,0,0,0,0,0,0,0,-1,832,729,0,0
-385,295,0,0,0,0,0,0,0,0,0,-1,839,729,0,0
-378,295,0,0,0,0,0,0,0,0,0,-1,846,729,0,0
-371,295,0,0,0,0,0,0,0,0,0,-1,853,729,0,0
-364,295,0,0,0,0,0,0,0,0,0,-1,860,729,0,0
-357,295,0,0,0,0,0,0,0,0,0,-1,867,729,0,0
-350,295,0,0,0,0,0,0,0,0,0,-1,874,729,0,0
-343,295,0,0,0,0,0,0,0,0,0,-1,881,729,0,0
-336,295,0,0,0,0,0,0,0,0,0,-1,888,729,0,0
-329,295,0,0,0,0,0,0,0,0,0,-1,895,729,0,0
-322,295,0,0,0,0,0,0,0,0,0,-1,902,729,0,0
-315,295,0,0,0,0,0,0,0,0,0,-1,909,729,0,0
-308,295,0,0,0,0,0,0,0,0,0,-1,916,729,0,0
-301,295,0,0,0,0,0,0,0,0,0,-1,923,729,0,0
-294,295,0,0,0,0,0,0,0,0,0,-1,930,729,0,0
-287,295,0,0,0,0,0,0,0,0,0,-1,937,729,0,0
-280,295,0,0,0,0,0,0,0,0,0,-1,944,729,0,0
-273,295,0,0,0,0,0,0,0,0,0,-1,951,729,0,0
-266,295,0,0,0,0,0,0,0,0,0,-1,958,729,0,0
-259,295,0,0,0,0,0,0,0,0,0,-1,965,729,0,0
-252,295,0,0,0,0,0,0,0,0,0,-1,972,729,0,0
-245,295,0,0,0,0,0,0,0,0,0,-1,979,729,0,0
-238,295,0,0,0,0,0,0,0,0,0,-1,986,729,0,0
-231,295,0,0,0,0,0,0,0,0,0,-1,993,729,0,0
-224,295,0,0,0,0,0,0,0,0,0,-1,1000,729,0,0
-217,295,0,0,0,0,0,0,0,0,0,-1,1007,729,0,0
-210,295,0,0,0,0,0,0,0,0,0,-1,1014,729,0,0
-203,295,0,0,0,0,0,0,0,0,0,-1,1021,729,0,0
-196,295,0,0,0,0,0,0,0,0,0,-1,1028,729,0,0
-189,295,0,0,0,0,0,0,0,0,0,-1,1035,729,0,0
-182,295,0,0,0,0,0,0,0,0,0,-1,1042,729,0,0
-175,295,0,0,0,0,0,0,0,0,0,-1,1049,729,0,0
-168,295,0,0,0,0,0,0,0,0,0,-1,1056,729,0,0
-161,295,0,0,0,0,0,0,0,0,0,-1,1063,729,0,0
-154,295,0,0,0,0,0,0,0,0,0,-1,1070,729,0,0
-147,295,0,0,0,0,0,0,0,0,0,-1,1077,729,0,0
-140,295,0,0,0,0,0,0,0,0,0,-1,1084,729,0,0
-133,295,0,0,0,0,0,0,0,0,0,-1,1091,729,0,0
-126,295,0,0,0,0,0,0,0,0,0,-1,1098,729,0,0
-119,295,0,0,0,0,0,0,0,0,0,-1,1105,729,0,0
-112,295,0,0,0,0,0,0,0,0,0,-1,1112,729,0,0
-105,295,0,0,0,0,0,0,0,0,0,-1,1119,729,0,0
-98,295,0,0,0,0,0,0,0,0,0,-1,1126,729,0,0
-91,295,0,0,0,0,0,0,0,0,0,-1,1133,729,0,0
-84,295,0,0,0,0,0,0,0,0,0,-1,1140,729,0,0
-77,295,0,0,0,0,0,0,0,0,0,-1,1147,729,0,0
-70,295,0,0,0,0,0,0,0,0,0,-1,1154,729,0,0
-63,295,0,0,0,0,0,0,0,0,0,-1,1161,729,0,0
-56,295,0,0,0,0,0,0,0,0,0,-1,1168,729,0,0
-49,295,0,0,0,0,0,0,0,0,0,-1,1175,729,0,0
-42,295,0,0,0,0,0,0,0,0,0,-1,1182,729,0,0
-35,295,0,0,0,0,0,0,0,0,0,-1,1189,729,0,0
-28,295,0,0,0,0,0,0,0,0,0,-1,1196,729,0,0
-21,295,0,0,0,0,0,0,0,0,0,-1,1203,729,0,0
-14,295,0,0,0,0,0,0,0,0,0,-1,1210,729,0,0
-7,295,0,0,0,0,0,0,0,0,0,-1,1217,729,0,0
0,295,0,0,0,0,0,0,0,0,0,-1,1224,729,0,0
7,295,0,0,0,0,0,0,0,0,0,-1,1231,729,0,0
14,295,0,0,0,0,0,0,0,0,0,-1,1238,729,0,0
21,295,0,0,0,0,0,0,0,0,0,-1,1245,729,0,0
28,295,0,0,0,0,0,0,0,0,0,-1,1252,729,0,0
35,295,0,0,0,0,0,0,0,0,0,-1,1259,729,0,0
42,295,0,0,0,0,0,0,0,0,0,-1,1266,729,0,0
49,295,0,0,0,0,0,0,0,0,0,-1,1273,729,0,0
56,295,0,0,0,0,0,0,0,0,0,-1,1280,729,0,0
63,295,0,0,0,0,0,0,0,0,0,-1,1287,729,0,0
70,295,0,0,0,0,0,0,0,0,0,-1,1294,729,0,0
77,295,0,0,0,0,0,0,0,0,0,-1,1301,729,0,0
84,295,0,0,0,0,0,0,0,0,0,-1,1308,729,0,0
91,295,0,0,0,0,0,0,0,0,0,-1,1315,729,0,0
98,295,0,0,0,0,0,0,0,0,0,-1,1322,729,0,0
105,295,0,0,0,0,0,0,0,0,0,-1,1329,729,0,0
112,295,0,0,0,0,0,0,0,0,0,-1,1336,729,0,0
119,295,0,0,0,0,0,0,0,0,0,-1,1343,729,0,0
126,295,0,0,0,0,0,0,0,0,0,-1,1350,729,0,0
133,295,0,0,0,0,0,0,0,0,0,-1,1357,729,0,0
140,295,0,0,0,0,0,0,0,0,0,-1,1364,729,0,0
147,295,0,0,0,0,0,0,0,0,0,-1,1371,729,0,0
154,295,0,0,0,0,0,0,0,0,0,-1,1378,729,0,0
161,295,0,0,0,0,0,0,0,0,0,-1,1385,729,0,0
168,295,0,0,0,0,0,0,0,0,0,-1,1392,729,0,0
175,295,0,0,0,0,0,0,0,0,0,-1,1399,729,0,0
182,295,0,0,0,0,0,0,0,0,0,-1,1406,729,0,0
189,295,0,0,0,0,0,0,0,0,0,-1,1413,729,0,0
196,295,0,0,0,0,0,0,0,0,0,-1,1420,729,0,0
203,295,0,0,0,0,0,0,0,0,0,-1,1427,729,0,0
210,295,0,0,0,0,0,0,0,0,0,-1,1434,729,0,0
217,295,0,0,0,0,0,0,0,0,0,-1,1441,729,0,0
224,295,0,0,0,0,0,0,0,0,0,-1,1448,729,0,0
231,295,0,0,0,0,0,0,0,0,0,-1,1455,729,0,0
238,295,0,0,0,0,0,0,0,0,0,-1,1462,729,0,0
245,295,0,0,0,0,0,0,0,0,0,-1,1469,729,0,0
252,295,0,0,0,0,0,0,0,0,0,-1,1476,729,0,0
259,295,0,0,0,0,0,0,0,0,0,-1,1483,729,0,0
266,295,0,0,0,0,0,0,0,0,0,-1,1490,729,0,0
273,295,0,0,0,0,0,0,0,0,0,-1,1497,729,0,0
280,295,0,0,0,0,0,0,0,0,0,-1,1504,729,0,0
287,295,0,0,0,0,0,0,0,0,0,-1,1511,729,0,0
294,295,0,0,0,0,0,0,0,0,0,-1,1518,729,0,0
301,295,0,0,0,0,0,0,0,0,0,-1,1525,729,0,0
308,295,0,0,0,0,0,0,0,0,0,-1,1532,729,0,0
315,295,0,0,0,0,0,0,0,0,0,-1,1539,729,0,0
322,295,0,0,0,0,0,0,0,0,0,-1,1546,729,0,0
329,295,0,0,0,0,0,0,0,0,0,-1,1553,729,0,0
336,295,0,0,0,0,0,0,0,0,0,-1,1560,729,0,0
343,295,0,0,0,0,0,0,0,0,0,-1,1567,729,0,0
350,295,0,0,0,0,0,0,0,0,0,-1,1574,729,0,0
357,295,0,0,0,0,0,0,0,0,0,-1,1581,729,0,0
364,295,0,0,0,0,0,0,0,0,0,-1,1588,729,0,0
371,295,0,0,0,0,0,0,0,0,0,-1,1595,729,0,0
378,295,0,0,0,0,0,0,0,0,0,-1,1602,729,0,0
385,295,0,0,0,0,0,0,0,0,0,-1,1609,729,0,0
392,295,0,0,0,0,0,0,0,0,0,-1,1616,729,0,0
399,295,0,0,0,0,0,0,0,0,0,-1,1623,729,0,0
406,295,0,0,0,0,0,0,0,0,0,-1,1630,729,0,0
413,295,0,0,0,0,0,0,0,0,0,-1,1637,729,0,0
420,295,0,0,0,0,0,0,0,0,0,-1,1644,729,0,0
427,295,0,0,0,0,0,0,0,0,0,-1,1651,729,0,0
434,295,0,0,0,0,0,0,0,0,0,-1,1658,729,0,0
441,295,0,0,0,0,0,0,0,0,0,-1,1665,729,0,0
448,295,0,0,0,0,0,0,0,0,0,-1,1672,729,0,0
455,295,0,0,0,0,0,0,0,0,0,-1,1679,729,0,0
462,295,0,0,0,0,0,0,0,0,0,-1,1686,729,0,0
469,295,0,0,0,0,0,0,0,0,0,-1,1693,729,0,0
476,295,0,0,0,0,0,0,0,0,0,-1,1700,729,0,0
483,295,0,0,0,0,0,0,0,0,0,-1,1707,729,0,0
490,295,0,0,0,0,0,0,0,0,0,-1,1714,729,0,0
497,295,0,0,0,0,0,0,0,0,0,-1,1721,729,0,0
504,295,0,0,0,0,0,0,0,0,0,-1,1728,729,0,0
511,295,0,0,0,0,0,0,0,0,0,-1,1735,729,0,0
518,295,0,0,0,0,0,0,0,0,0,-1,1742,729,0,0
525,295,0,0,0,0,0,0,0,0,0,-1,1749,729,0,0
532,295,0,0,0,0,0,0,0,0,0,-1,1756,729,0,0
539,295,0,0,0,0,0,0,0,0,0,-1,1763,729,0,0
546,295,-0.00683594,-0.0460205,0,0,0,0,0,0,0,-1,1770,729,-0.00686853,0.0460257
553,295,0.319824,-0.288391,-0.0138655,0.0276587,0.00652377,0.0286595,-0.0148663,1.41857,0.0255468,0.0399748,1777,729,0.31985,0.288374
560,295,0.342529,-0.959045,-0.0107016,0.0291222,0.00554421,0.0298796,-0.0114591,1.43502,0.0246441,0.041793,1784,729,0.34252,0.959044
567,295,-1.58301,1.55603,-0.00569095,0.0268433,0.00500281,0.0275952,-0.00644287,1.42162,0.0208784,0.0435084,1791,729,-1.58298,-1.55604
574,295,-1.04272,1.66675,-0.00102009,0.0230164,0.00428282,0.0237567,-0.0017604,1.39963,0.016456,0.0465834,1798,729,-1.04273,-1.66677
581,295,-1.00305,1.93365,0.00278638,0.0185115,0.00344366,0.0192326,0.00206532,1.36439,0.0121917,0.046791,1805,729,-1.003,-1.93363
588,295,-0.965088,1.59894,0.00568735,0.0140594,0.00278924,0.0149036,0.0048432,1.27692,0.00877856,0.0455915,1812,729,-0.965126,-1.59897
595,295,-0.56897,0.829224,0.00765823,0.0101264,0.00230126,0.0115036,0.00628104,1.03152,0.00665096,0.0427036,1819,729,-0.568977,-0.829194
602,295,-0.108643,-0.482483,0,0,0,0,0,0,0,-1,1826,729,-0.108669,0.4825
609,295,-0.0603027,-0.346863,0.00876401,0.00456065,0.00185066,0.00946268,0.00386197,0.360985,0.00549394,0.042257,1833,729,-0.0603077,0.346861
616,295,-0.0665283,0.00634766,0.00877154,0.00333028,0.00161163,0.00921306,0.00288876,0.267397,0.00544104,0.0386996,1840,729,-0.0665074,-0.00631966
623,295,-0.0412598,0.0582886,0.00836198,0.000277746,0.00130494,0.0085674,7.2326e-05,0.156136,0.00568764,0.0212759,1847,729,-0.0413176,-0.0583043
630,295,-0.0725098,0.0932007,0.00734778,-0.000950393,0.000983719,0.0074628,-0.00106541,0.116397,0.00536571,0.0111097,1854,729,-0.072533,-0.0932262
637,295,-0.0599365,0.104004,0.00614511,-0.00204756,0.00097283,0.00625904,-0.0021615,0.116584,0.00504982,0.0127877,1861,729,-0.0599524,-0.104003
644,295,-0.041626,0.0960083,0.00466592,-0.000845695,0.000727856,0.00476042,-0.000940194,0.12911,0.00352901,0.0128517,1868,729,-0.0416127,-0.0960017
651,295,-0.0306396,0.0812378,0.00363485,-0.000279252,0.000885104,0.00382569,-0.000470097,0.212368,0.00272073,0.0124459,1875,729,-0.0305827,-0.0812266
658,295,-0.0535889,0.0896606,0.00266811,-5.05357e-05,0.000744674,0.00285872,-0.000241148,0.250587,0.00199107,0.0113354,1882,729,-0.0535341,-0.0896359
665,295,-0.055542,0.0823364,0.00212451,0.000447221,0.000184484,0.00214456,0.00042717,0.108265,0.00131073,0.01092,1889,729,-0.0554925,-0.0823143
672,295,-0.0394287,0.0622559,0.00278281,0.00106213,3.85139e-06,0.00278282,0.00106212,0.00223828,0.00162159,0.0107934,1896,729,-0.0394704,-0.0622475
679,295,-0.0540771,0.0649414,0.00397559,0.0012994,0.000383289,0.00402941,0.00124559,0.139487,0.00238221,0.00739298,1903,729,-0.0540573,-0.0649685
686,295,-0.0556641,0.0769653,0.00565032,0.00215235,0.000755717,0.00580661,0.00199606,0.20393,0.00340657,0.00702133,1910,729,-0.0556226,-0.0769484
693,295,-0.0507813,0.0940552,0.00745515,0.00306506,0.00119749,0.00776054,0.00275966,0.249708,0.00454241,0.0144857,1917,729,-0.0507976,-0.0940593
700,295,0.00793457,0.118958,0.0100289,0.0044178,0.00211065,0.0107342,0.00371251,0.322492,0.00629477,0.0297185,1924,729,0.00798832,-0.118955
707,295,0.130249,-0.208679,0.013332,0.00609618,0.00345474,0.0147166,0.00471164,0.381164,0.00867789,0.0363675,1931,729,0.130295,0.208694
714,295,-0.000366211,-0.498901,0,0,0,0,0,0,0,-1,1938,729,-0.000325738,0.498917
721,295,0.264893,-1.04053,0.0225752,0.010519,0.00823383,0.0267517,0.00634252,0.469422,0.0161412,0.0483887,1945,729,0.264915,1.04053
728,295,0.304321,-0.699097,0.0288181,0.0131914,0.0120407,0.0353584,0.00665109,0.497593,0.0216977,0.0466603,1952,729,0.304295,0.699112
735,295,0,0,0,0,0,0,0,0,0,-1,1959,729,0,0
742,295,0,0,0,0,0,0,0,0,0,-1,1966,729,0,0
749,295,0,0,0,0,0,0,0,0,0,-1,1973,729,0,0
756,295,0,0,0,0,0,0,0,0,0,-1,1980,729,0,0
763,295,0,0,0,0,0,0,0,0,0,-1,1987,729,0,0
770,295,0,0,0,0,0,0,0,0,0,-1,1994,729,0,0
777,295,0,0,0,0,0,0,0,0,0,-1,2001,729,0,0
784,295,0,0,0,0,0,0,0,0,0,-1,2008,729,0,0
791,295,0,0,0,0,0,0,0,0,0,-1,2015,729,0,0
798,295,0,0,0,0,0,0,0,0,0,-1,2022,729,0,0
805,295,0,0,0,0,0,0,0,0,0,-1,2029,729,0,0
812,295,0,0,0,0,0,0,0,0,0,-1,2036,729,0,0
-700,288,0,0,0,0,0,0,0,0,0,-1,524,736,0,0
-693,288,0,0,0,0,0,0,0,0,0,-1,531,736,0,0
-686,288,0,0,0,0,0,0,0,0,0,-1,538,736,0,0
-679,288,0,0,0,0,0,0,0,0,0,-1,545,736,0,0
-672,288,0,0,0,0,0,0,0,0,0,-1,552,736,0,0
-665,288,0,0,0,0,0,0,0,0,0,-1,559,736,0,0
-658,288,0,0,0,0,0,0,0,0,0,-1,566,736,0,0
-651,288,0,0,0,0,0,0,0,0,0,-1,573,736,0,0
-644,288,0,0,0,0,0,0,0,0,0,-1,580,736,0,0
-637,288,0,0,0,0,0,0,0,0,0,-1,587,736,0,0
-630,288,0,0,0,0,0,0,0,0,0,-1,594,736,0,0
-623,288,0,0,0,0,0,0,0,0,0,-1,601,736,0,0
-616,288,0.683289,-0.770386,0,0,0,0,0,0,0,-1,608,736,0.683305,0.770416
-609,288,0.607422,1.89856,0,0,0,0,0,0,0,-1,615,736,0.60745,-1.89856
-602,288,0.81604,-0.539185,0,0,0,0,0,0,0,-1,622,736,0.816029,0.539188
-595,288,-1.60132,6.21161,0,0,0,0,0,0,0,-1,629,736,-1.60129,-6.21161
-588,288,-0.462646,5.12891,0.0220484,0.0210369,-0.0443524,0.0658979,-0.0228126,-0.779697,0.0531926,0.0477749,636,736,-0.462674,-5.12889
-581,288,0.190247,3.46863,0.0173698,0.0162716,-0.0377961,0.0546208,-0.0209794,-0.778134,0.0450653,0.0475351,643,736,0.190273,-3.46863
-574,288,-0.0296021,1.02722,0,0,0,0,0,0,0,-1,650,736,-0.0295762,-1.02723
-567,288,-0.0297852,0.0825195,0.00934608,0.00874867,-0.0252746,0.0343238,-0.016229,-0.779489,0.0298034,0.0169025,657,736,-0.0297666,-0.0825385
-560,288,-0.0283203,0.0792847,0.00620407,0.00585638,-0.0197697,0.0258007,-0.0137402,-0.781001,0.0231802,0.010087,664,736,-0.0283393,-0.0792989
-553,288,-0.00811768,0.0910645,0.00379666,0.00356279,-0.0143579,0.0180381,-0.0106787,-0.781326,0.0167602,0.017168,671,736,-0.00811248,-0.0910489
-546,288,-0.0401611,0.0898438,0.00193861,0.00173424,-0.00976654,0.0116035,-0.00793065,-0.780167,0.0113443,0.0179776,678,736,-0.0401612,-0.0898194
-539,288,-0.0500488,0.0882568,0.000882893,0.00078804,-0.00612042,0.00695607,-0.00528514,-0.781524,0.00708938,0.0145219,685,736,-0.0500558,-0.088256
-532,288,-0.0172729,0.0658569,0.000829475,0.000846064,-0.00315493,0.00399271,-0.00231717,-0.786713,0.00368558,0.0112528,692,736,-0.0172673,-0.0658821
-525,288,-0.00982666,0.0672607,0.00133986,0.00148455,-0.000587927,0.00200457,0.000819845,-0.846614,0.00116371,0.0107618,699,736,-0.00979729,-0.0672902
-518,288,-0.0147705,0.055603,0.00222078,0.00265659,0.00116915,0.00362797,0.0012494,0.877529,0.00212816,0.0106716,706,736,-0.0148005,-0.0556257
-511,288,-0.0397339,0.0721436,0.00288486,0.00296502,0.00255699,0.00548224,0.00036764,0.793234,0.00353865,0.00825685,713,736,-0.0397481,-0.0721256
-504,288,-0.0477295,0.072998,0.00315999,0.00327857,0.0040711,0.00729081,-0.00085225,0.79268,0.0051681,0.00981184,720,736,-0.0477106,-0.0730268
-497,288,-0.0407104,0.0631714,0.00313244,0.0031083,0.00529642,0.00841681,-0.00217607,0.784259,0.00645991,0.0165822,727,736,-0.040694,-0.0631416
-490,288,-0.0454712,0.0878906,0.00264907,0.0017384,0.00664536,0.00885468,-0.0044672,0.751192,0.0078292,0.0350746,734,736,-0.0454894,-0.0878919
-483,288,0.0516968,0.0273438,0.00221449,0.000478929,0.00780068,0.00919551,-0.00650209,0.730004,0.00910737,0.0403588,741,736,0.0516959,-0.027354
-476,288,0.255798,0.114258,0,0,0,0,0,0,0,-1,748,736,0.255769,-0.114238
-469,288,-0.0394287,0.887451,0,0,0,0,0,0,0,-1,755,736,-0.0394575,-0.887429
-462,288,-0.419922,0.986145,0,0,0,0,0,0,0,-1,762,736,-0.419923,-0.986139
-455,288,-1.15936,1.21777,-0.0115767,-0.0159228,0.00689276,-0.0065226,-0.020977,0.632698,0.0123963,0.04633,769,736,-1.15935,-1.21778
-448,288,-1.73651,1.58514,-0.0186905,-0.0233926,0.00424794,-0.0161864,-0.0258967,0.532653,0.0151065,0.0471728,776,736,-1.73652,-1.58513
-441,288,-2.55188,1.63574,-0.0277049,-0.0321323,-0.000200809,-0.0276958,-0.0321414,-0.045232,0.0201102,0.0466667,783,736,-2.55188,-1.63577
-434,288,-3.25995,1.42896,0,0,0,0,0,0,0,-1,790,736,-3.25994,-1.42897
-427,288,0,0,0,0,0,0,0,0,0,-1,797,736,0,0
-420,288,0,0,0,0,0,0,0,0,0,-1,804,736,0,0
-413,288,0,0,0,0,0,0,0,0,0,-1,811,736,0,0
-406,288,0,0,0,0,0,0,0,0,0,-1,818,736,0,0
-399,288,0,0,0,0,0,0,0,0,0,-1,825,736,0,0
-392,288,0,0,0,0,0,0,0,0,0,-1,832,736,0,0
-385,288,0,0,0,0,0,0,0,0,0,-1,839,736,0,0
-378,288,0,0,0,0,0,0,0,0,0,-1,846,736,0,0
-371,288,0,0,0,0,0,0,0,0,0,-1,853,736,0,0
-364,288,0,0,0,0,0,0,0,0,0,-1,860,736,0,0
-357,288,0,0,0,0,0,0,0,0,0,-1,867,736,0,0
-350,288,0,0,0,0,0,0,0,0,0,-1,874,736,0,0
-343,288,0,0,0,0,0,0,0,0,0,-1,881,736,0,0
-336,288,0,0,0,0,0,0,0,0,0,-1,888,736,0,0
-329,288,0,0,0,0,0,0,0,0,0,-1,895,736,0,0
-322,288,0,0,0,0,0,0,0,0,0,-1,902,736,0,0
-315,288,0,0,0,0,0,0,0,0,0,-1,909,736,0,0
-308,288,0,0,0,0,0,0,0,0,0,-1,916,736,0,0
-301,288,0,0,0,0,0,0,0,0,0,-1,923,736,0,0
-294,288,0,0,0,0,0,0,0,0,0,-1,930,736,0,0
-287,288,0,0,0,0,0,0,0,0,0,-1,937,736,0,0
-280,288,0,0,0,0,0,0,0,0,0,-1,944,736,0,0
-273,288,0,0,0,0,0,0,0,0,0,-1,951,736,0,0
-266,288,0,0,0,0,0,0,0,0,0,-1,958,736,0,0
-259,288,0,0,0,0,0,0,0,0,0,-1,965,736,0,0
-252,288,0,0,0,0,0,0,0,0,0,-1,972,736,0,0
-245,288,0,0,0,0,0,0,0,0,0,-1,979,736,0,0
-238,288,0,0,0,0,0,0,0,0,0,-1,986,736,0,0
-231,288,0,0,0,0,0,0,0,0,0,-1,993,736,0,0
-224,288,0,0,0,0,0,0,0,0,0,-1,1000,736,0,0
-217,288,0,0,0,0,0,0,0,0,0,-1,1007,736,0,0
-210,288,0,0,0,0,0,0,0,0,0,-1,1014,736,0,0
-203,288,0,0,0,0,0,0,0,0,0,-1,1021,736,0,0
-196,288,0,0,0,0,0,0,0,0,0,-1,1028,736,0,0
-189,288,0,0,0,0,0,0,0,0,0,-1,1035,736,0,0
-182,288,0,0,0,0,0,0,0,0,0,-1,1042,736,0,0
-175,288,0,0,0,0,0,0,0,0,0,-1,1049,736,0,0
-168,288,0,0,0,0,0,0,0,0,0,-1,1056,736,0,0
-161,288,0,0,0,0,0,0,0,0,0,-1,1063,736,0,0
-154,288,0,0,0,0,0,0,0,0,0,-1,1070,736,0,0
-147,288,0,0,0,0,0,0,0,0,0,-1,1077,736,0,0
-140,288,0,0,0,0,0,0,0,0,0,-1,1084,736,0,0
-133,288,0,0,0,0,0,0,0,0,0,-1,1091,736,0,0
-126,288,0,0,0,0,0,0,0,0,0,-1,1098,736,0,0
-119,288,0,0,0,0,0,0,0,0,0,-1,1105,736,0,0
-112,288,0,0,0,0,0,0,0,0,0,-1,1112,736,0,0
-105,288,0,0,0,0,0,0,0,0,0,-1,1119,736,0,0
-98,288,0,0,0,0,0,0,0,0,0,-1,1126,736,0,0
-91,288,0,0,0,0,0,0,0,0,0,-1,1133,736,0,0
-84,288,0,0,0,0,0,0,0,0,0,-1,1140,736,0,0
-77,288,0,0,0,0,0,0,0,0,0,-1,1147,736,0,0
-70,288,0,0,0,0,0,0,0,0,0,-1,1154,736,0,0
-63,288,0,0,0,0,0,0,0,0,0,-1,1161,736,0,0
-56,288,0,0,0,0,0,0,0,0,0,-1,1168,736,0,0
-49,288,0,0,0,0,0,0,0,0,0,-1,1175,736,0,0
-42,288,0,0,0,0,0,0,0,0,0,-1,1182,736,0,0
-35,288,0,0,0,0,0,0,0,0,0,-1,1189,736,0,0
-28,288,0,0,0,0,0,0,0,0,0,-1,1196,736,0,0
-21,288,0,0,0,0,0,0,0,0,0,-1,1203,736,0,0
-14,288,0,0,0,0,0,0,0,0,0,-1,1210,736,0,0
-7,288,0,0,0,0,0,0,0,0,0,-1,1217,736,0,0
0,288,0,0,0,0,0,0,0,0,0,-1,1224,736,0,0
7,288,0,0,0,0,0,0,0,0,0,-1,1231,736,0,0
14,288,0,0,0,0,0,0,0,0,0,-1,1238,736,0,0
21,288,0,0,0,0,0,0,0,0,0,-1,1245,736,0,0
28,288,0,0,0,0,0,0,0,0,0,-1,1252,736,0,0
35,288,0,0,0,0,0,0,0,0,0,-1,1259,736,0,0
42,288,0,0,0,0,0,0,0,0,0,-1,1266,736,0,0
49,288,0,0,0,0,0,0,0,0,0,-1,1273,736,0,0
56,288,0,0,0,0,0,0,0,0,0,-1,1280,736,0,0
63,288,0,0,0,0,0,0,0,0,0,-1,1287,736,0,0
70,288,0,0,0,0,0,0,0,0,0,-1,1294,736,0,0
77,288,0,0,0,0,0,0,0,0,0,-1,1301,736,0,0
84,288,0,0,0,0,0,0,0,0,0,-1,1308,736,0,0
91,288,0,0,0,0,0,0,0,0,0,-1,1315,736,0,0
98,288,0,0,0,0,0,0,0,0,0,-1,1322,736,0,0
105,288,0,0,0,0,0,0,0,0,0,-1,1329,736,0,0
112,288,0,0,0,0,0,0,0,0,0,-1,1336,736,0,0
119,288,0,0,0,0,0,0,0,0,0,-1,1343,736,0,0
126,288,0,0,0,0,0,0,0,0,0,-1,1350,736,0,0
133,288,0,0,0,0,0,0,0,0,0,-1,1357,736,0,0
140,288,0,0,0,0,0,0,0,0,0,-1,1364,736,0,0
147,288,0,0,0,0,0,0,0,0,0,-1,1371,736,0,0
154,288,0,0,0,0,0,0,0,0,0,-1,1378,736,0,0
161,288,0,0,0,0,0,0,0,0,0,-1,1385,736,0,0
168,288,0,0,0,0,0,0,0,0,0,-1,1392,736,0,0
175,288,0,0,0,0,0,0,0,0,0,-1,1399,736,0,0
182,288,0,0,0,0,0,0,0,0,0,-1,1406,736,0,0
189,288,0,0,0,0,0,0,0,0,0,-1,1413,736,0,0
196,288,0,0,0,0,0,0,0,0,0,-1,1420,736,0,0
203,288,0,0,0,0,0,0,0,0,0,-1,1427,736,0,0
210,288,0,0,0,0,0,0,0,0,0,-1,1434,736,0,0
217,288,0,0,0,0,0,0,0,0,0,-1,1441,736,0,0
224,288,0,0,0,0,0,0,0,0,0,-1,1448,736,0,0
231,288,0,0,0,0,0,0,0,0,0,-1,1455,736,0,0
238,288,0,0,0,0,0,0,0,0,0,-1,1462,736,0,0
245,288,0,0,0,0,0,0,0,0,0,-1,1469,736,0,0
252,288,0,0,0,0,0,0,0,0,0,-1,1476,736,0,0
259,288,0,0,0,0,0,0,0,0,0,-1,1483,736,0,0
266,288,0,0,0,0,0,0,0,0,0,-1,1490,736,0,0
273,288,0,0,0,0,0,0,0,0,0,-1,1497,736,0,0
280,288,0,0,0,0,0,0,0,0,0,-1,1504,736,0,0
287,288,0,0,0,0,0,0,0,0,0,-1,1511,736,0,0
294,288,0,0,0,0,0,0,0,0,0,-1,1518,736,0,0
301,288,0,0,0,0,0,0,0,0,0,-1,1525,736,0,0
308,288,0,0,0,0,0,0,0,0,0,-1,1532,736,0,0
315,288,0,0,0,0,0,0,0,0,0,-1,1539,736,0,0
322,288,0,0,0,0,0,0,0,0,0,-1,1546,736,0,0
329,288,0,0,0,0,0,0,0,0,0,-1,1553,736,0,0
336,288,0,0,0,0,0,0,0,0,0,-1,1560,736,0,0
343,288,0,0,0,0,0,0,0,0,0,-1,1567,736,0,0
350,288,0,0,0,0,0,0,0,0,0,-1,1574,736,0,0
357,288,0,0,0,0,0,0,0,0,0,-1,1581,736,0,0
364,288,0,0,0,0,0,0,0,0,0,-1,1588,736,0,0
371,288,0,0,0,0,0,0,0,0,0,-1,1595,736,0,0
378,288,0,0,0,0,0,0,0,0,0,-1,1602,736,0,0
385,288,0,0,0,0,0,0,0,0,0,-1,1609,736,0,0
392,288,0,0,0,0,0,0,0,0,0,-1,1616,736,0,0
399,288,0,0,0,0,0,0,0,0,0,-1,1623,736,0,0
406,288,0,0,0,0,0,0,0,0,0,-1,1630,736,0,0
413,288,0,0,0,0,0,0,0,0,0,-1,1637,736,0,0
420,288,0,0,0,0,0,0,0,0,0,-1,1644,736,0,0
427,288,0,0,0,0,0,0,0,0,0,-1,1651,736,0,0
434,288,0,0,0,0,0,0,0,0,0,-1,1658,736,0,0
441,288,0,0,0,0,0,0,0,0,0,-1,1665,736,0,0
448,288,0,0,0,0,0,0,0,0,0,-1,1672,736,0,0
455,288,0,0,0,0,0,0,0,0,0,-1,1679,736,0,0
462,288,0,0,0,0,0,0,0,0,0,-1,1686,736,0,0
469,288,0,0,0,0,0,0,0,0,0,-1,1693,736,0,0
476,288,0,0,0,0,0,0,0,0,0,-1,1700,736,0,0
483,288,0,0,0,0,0,0,0,0,0,-1,1707,736,0,0
490,288,0,0,0,0,0,0,0,0,0,-1,1714,736,0,0
497,288,0,0,0,0,0,0,0,0,0,-1,1721,736,0,0
504,288,0,0,0,0,0,0,0,0,0,-1,1728,736,0,0
511,288,0,0,0,0,0,0,0,0,0,-1,1735,736,0,0
518,288,0,0,0,0,0,0,0,0,0,-1,1742,736,0,0
525,288,0,0,0,0,0,0,0,0,0,-1,1749,736,0,0
532,288,0,0,0,0,0,0,0,0,0,-1,1756,736,0,0
539,288,0,0,0,0,0,0,0,0,0,-1,1763,736,0,0
546,288,0,0,0,0,0,0,0,0,0,-1,1770,736,0,0
553,288,0.21228,-0.25592,-0.0122127,0.0280047,0.00419017,0.0284366,-0.0126447,1.46808,0.0242954,0.0366689,1777,736,0.212224,0.25593
560,288,0.203979,-0.760498,-0.0102123,0.0314641,0.00348272,0.0317531,-0.0105013,1.488,0.0254033,0.0408829,1784,736,0.204013,0.760523
567,288,0.330078,-0.977417,-0.00517188,0.029443,0.00353419,0.0298002,-0.00552903,1.47008,0.0219432,0.0446409,1791,736,0.330088,0.977419
574,288,-1.4856,1.77936,-0.00046583,0.0253351,0.00330065,0.0257507,-0.000881381,1.44556,0.0174683,0.0461671,1798,736,-1.48555,-1.77935
581,288,-1.72437,2.19531,0.00322962,0.0204066,0.0027679,0.0208416,0.00279462,1.41491,0.0130629,0.0482125,1805,736,-1.72436,-2.19532
588,288,-1.51721,2.02429,0.00603755,0.0155504,0.0023431,0.0160962,0.00549174,1.34193,0.00944812,0.0466737,1812,736,-1.51717,-2.02429
595,288,-0.940063,0.890869,0.0079159,0.0113018,0.00204126,0.0122608,0.00695691,1.13159,0.00710019,0.0443333,1819,736,-0.940107,-0.890899
602,288,-0.49939,-0.898865,0.00882115,0.00793572,0.00174953,0.0101831,0.00657376,0.661476,0.00596168,0.0442777,1826,736,-0.499379,0.898875
609,288,0.137695,-0.740356,0,0,0,0,0,0,0,-1,1833,736,0.137702,0.740374
616,288,-0.0872803,-0.0288086,0,0,0,0,0,0,0,-1,1840,736,-0.0872954,0.0288268
623,288,-0.0684814,0.0852051,0.00880418,0.000963396,0.00132492,0.00902201,0.000745564,0.162953,0.00578219,0.0336053,1847,736,-0.0684706,-0.0851788
630,288,-0.0721436,0.0947266,0.00796149,-0.000512943,0.00104295,0.00808796,-0.000639413,0.120671,0.00561725,0.0174056,1854,736,-0.0720964,-0.0947274
637,288,-0.0559082,0.114319,0.00687589,-0.00198292,0.00112182,0.00701574,-0.00212278,0.124025,0.00552247,0.0102171,1861,736,-0.055885,-0.114293
644,288,-0.0372314,0.093689,0.00538169,-0.000831179,0.000866619,0.0055003,-0.000949797,0.136029,0.00402104,0.00978182,1868,736,-0.0372158,-0.0937111
651,288,-0.0327148,0.057251,0.00428745,-0.000303661,0.000963396,0.00448142,-0.000497625,0.198677,0.00316655,0.0105776,1875,736,-0.0326996,-0.057236
658,288,-0.0598145,0.0930786,0.00307304,-0.000128806,0.000822652,0.00327204,-0.000327802,0.237337,0.00229843,0.0150097,1882,736,-0.059779,-0.0930944
665,288,-0.0577393,0.10022,0.0021905,0.000485589,0.000203466,0.00221445,0.000461644,0.11715,0.00134901,0.0152933,1889,736,-0.0577722,-0.100217
672,288,-0.0352783,0.0583496,0.00268985,0.00101906,1.40604e-05,0.00268997,0.00101894,0.00841462,0.00156819,0.0107181,1896,736,-0.0353062,-0.0583494
679,288,-0.0427246,0.0716553,0.003764,0.00121168,0.000412138,0.0038289,0.00114678,0.156189,0.00226908,0.00757511,1903,736,-0.0426963,-0.0716802
686,288,-0.0435791,0.0770264,0.00528276,0.0020683,0.000786821,0.00546502,0.00188604,0.227626,0.0032053,0.00641376,1910,736,-0.0435295,-0.0770566
693,288,-0.0423584,0.0765381,0.00686971,0.00286923,0.00120806,0.00720621,0.00253273,0.271662,0.00422126,0.00938029,1917,736,-0.0423024,-0.0765129
700,288,-0.0273438,0.0844727,0.00927349,0.00412185,0.00216147,0.0100602,0.00333512,0.349077,0.00591717,0.0200378,1924,736,-0.0273335,-0.084488
707,288,-0.10791,0.0297241,0.0124797,0.00560747,0.00353275,0.0139718,0.00411537,0.399634,0.00829048,0.0347648,1931,736,-0.107852,-0.0297519
714,288,-0.213135,-0.0165405,0,0,0,0,0,0,0,-1,1938,736,-0.213103,0.0165527
721,288,0.101685,-1.33856,0,0,0,0,0,0,0,-1,1945,736,0.101729,1.33854
728,288,0.275879,-0.24115,0.0274424,0.0117854,0.0120099,0.03395,0.00527783,0.496564,0.0210953,0.0453153,1952,736,0.275916,0.24114
735,288,0.0281982,-0.116333,0,0,0,0,0,0,0,-1,1959,736,0.02817,0.11634
742,288,0,0,0,0,0,0,0,0,0,-1,1966,736,0,0
749,288,0,0,0,0,0,0,0,0,0,-1,1973,736,0,0
756,288,0,0,0,0,0,0,0,0,0,-1,1980,736,0,0
763,288,0,0,0,0,0,0,0,0,0,-1,1987,736,0,0
770,288,0,0,0,0,0,0,0,0,0,-1,1994,736,0,0
777,288,0,0,0,0,0,0,0,0,0,-1,2001,736,0,0
784,288,0,0,0,0,0,0,0,0,0,-1,2008,736,0,0
791,288,0,0,0,0,0,0,0,0,0,-1,2015,736,0,0
798,288,0,0,0,0,0,0,0,0,0,-1,2022,736,0,0
805,288,0,0,0,0,0,0,0,0,0,-1,2029,736,0,0
812,288,0,0,0,0,0,0,0,0,0,-1,2036,736,0,0
-700,281,0,0,0,0,0,0,0,0,0,-1,524,743,0,0
-693,281,0,0,0,0,0,0,0,0,0,-1,531,743,0,0
-686,281,0,0,0,0,0,0,0,0,0,-1,538,743,0,0
-679,281,0,0,0,0,0,0,0,0,0,-1,545,743,0,0
-672,281,0,0,0,0,0,0,0,0,0,-1,552,743,0,0
-665,281,0,0,0,0,0,0,0,0,0,-1,559,743,0,0
-658,281,0,0,0,0,0,0,0,0,0,-1,566,743,0,0
-651,281,0,0,0,0,0,0,0,0,0,-1,573,743,0,0
-644,281,0,0,0,0,0,0,0,0,0,-1,580,743,0,0
-637,281,0,0,0,0,0,0,0,0,0,-1,587,743,0,0
-630,281,0,0,0,0,0,0,0,0,0,-1,594,743,0,0
-623,281,-1.42133,0.625793,0,0,0,0,0,0,0,-1,601,743,-1.4213,-0.625805
-616,281,-0.0803223,0.951294,0,0,0,0,0,0,0,-1,608,743,-0.0802984,-0.951305
-609,281,0.59967,1.52338,0,0,0,0,0,0,0,-1,615,743,0.599659,-1.52338
-602,281,0.964111,1.7655,0,0,0,0,0,0,0,-1,622,743,0.96413,-1.76551
-595,281,-1.50275,5.53119,0,0,0,0,0,0,0,-1,629,743,-1.50275,-5.53121
-588,281,-0.299377,4.52679,0,0,0,0,0,0,0,-1,636,743,-0.299349,-4.52677
-581,281,0.0483398,2.65527,0,0,0,0,0,0,0,-1,643,743,0.0483688,-2.65528
-574,281,-0.00561523,0.111328,0.0131037,0.0132988,-0.026552,0.0397535,-0.013351,-0.787234,0.031898,0.0228946,650,743,-0.00559323,-0.111299
-567,281,-0.0457764,0.0908813,0.0088969,0.010098,-0.0213894,0.0308953,-0.0119004,-0.799433,0.0255065,0.010329,657,743,-0.0457873,-0.0909118
-560,281,-0.0366211,0.0716553,0.00575571,0.00703269,-0.016803,0.0232093,-0.0104209,-0.804388,0.0198788,0.00746151,664,743,-0.0366428,-0.0716679
-553,281,-0.0187378,0.0755005,0.0032987,0.00446484,-0.0123176,0.0162131,-0.0084496,-0.809049,0.0144723,0.0125833,671,743,-0.0187647,-0.0755126
-546,281,-0.0292969,0.0880127,0.00136098,0.00238597,-0.00847211,0.0103611,-0.00661412,-0.815607,0.0098799,0.013879,678,743,-0.0292732,-0.0880264
-539,281,-0.0355835,0.0753784,0.000226235,0.00124829,-0.00536261,0.00612417,-0.00464964,-0.832902,0.00623965,0.0115003,685,743,-0.0355957,-0.0753623
-532,281,-0.0257568,0.0653687,0.00016765,0.00123107,-0.00280211,0.00355147,-0.00215275,-0.87916,0.00332617,0.00932018,692,743,-0.0257448,-0.0653571
-525,281,-0.0327148,0.050293,0.000695544,0.0019572,-0.000472195,0.00211436,0.000538393,-1.24952,0.00126877,0.0105362,699,743,-0.0327373,-0.0502897
-518,281,-0.0369873,0.0302734,0.001644,0.0032998,0.00112754,0.00387075,0.00107305,1.10207,0.00230753,0.0112637,706,743,-0.037017,-0.0302767
-511,281,-0.0463257,0.0345459,0.00240841,0.00391361,0.00244684,0.00572098,0.00060105,0.934597,0.00363026,0.01016,713,743,-0.0463442,-0.0345753
-504,281,-0.0310669,0.0390625,0.00285044,0.00457562,0.00395551,0.0077615,-0.000335441,0.892754,0.0052897,0.011392,720,743,-0.0310516,-0.0390696
-497,281,-0.0256958,0.0198364,0.00303577,0.00487659,0.00527616,0.00931202,-0.00139967,0.871752,0.00672331,0.026803,727,743,-0.0256716,-0.0198397
-490,281,-0.0523682,0.059021,0.00275056,0.00395491,0.00679621,0.0101756,-0.00347011,0.829585,0.00818927,0.0379364,734,743,-0.0523811,-0.0590444
-483,281,-0.000366211,-0.111145,0.00248885,0.00316117,0.00821036,0.0110422,-0.00539223,0.805858,0.00967355,0.0426138,741,743,-0.000354795,0.11115
-476,281,0.648865,0.587769,0.00116874,0.00130825,0.00933964,0.0105784,-0.00810141,0.789133,0.0108163,0.0416899,748,743,0.648859,-0.587754
-469,281,0.0969849,1.21265,0,0,0,0,0,0,0,-1,755,743,0.0969953,-1.21263
-462,281,-0.641296,0.331299,0,0,0,0,0,0,0,-1,762,743,-0.641286,-0.3313
-455,281,-1.61737,1.53149,0,0,0,0,0,0,0,-1,769,743,-1.61738,-1.53152
-448,281,-1.67261,2.53113,0,0,0,0,0,0,0,-1,776,743,-1.67259,-2.5311
-441,281,-2.31049,2.28979,0,0,0,0,0,0,0,-1,783,743,-2.31048,-2.28982
-434,281,0,0,0,0,0,0,0,0,0,-1,790,743,0,0
-427,281,0,0,0,0,0,0,0,0,0,-1,797,743,0,0
-420,281,0,0,0,0,0,0,0,0,0,-1,804,743,0,0
-413,281,0,0,0,0,0,0,0,0,0,-1,811,743,0,0
-406,281,0,0,0,0,0,0,0,0,0,-1,818,743,0,0
-399,281,0,0,0,0,0,0,0,0,0,-1,825,743,0,0
-392,281,0,0,0,0,0,0,0,0,0,-1,832,743,0,0
-385,281,0,0,0,0,0,0,0,0,0,-1,839,743,0,0
-378,281,0,0,0,0,0,0,0,0,0,-1,846,743,0,0
-371,281,0,0,0,0,0,0,0,0,0,-1,853,743,0,0
-364,281,0,0,0,0,0,0,0,0,0,-1,860,743,0,0
-357,281,0,0,0,0,0,0,0,0,0,-1,867,743,0,0
-350,281,0,0,0,0,0,0,0,0,0,-1,874,743,0,0
-343,281,0,0,0,0,0,0,0,0,0,-1,881,743,0,0
-336,281,0,0,0,0,0,0,0,0,0,-1,888,743,0,0
-329,281,0,0,0,0,0,0,0,0,0,-1,895,743,0,0
-322,281,0,0,0,0,0,0,0,0,0,-1,902,743,0,0
-315,281,0,0,0,0,0,0,0,0,0,-1,909,743,0,0
-308,281,0,0,0,0,0,0,0,0,0,-1,916,743,0,0
-301,281,0,0,0,0,0,0,0,0,0,-1,923,743,0,0
-294,281,0,0,0,0,0,0,0,0,0,-1,930,743,0,0
-287,281,0,0,0,0,0,0,0,0,0,-1,937,743,0,0
-280,281,0,0,0,0,0,0,0,0,0,-1,944,743,0,0
-273,281,0,0,0,0,0,0,0,0,0,-1,951,743,0,0
-266,281,0,0,0,0,0,0,0,0,0,-1,958,743,0,0
-259,281,0,0,0,0,0,0,0,0,0,-1,965,743,0,0
-252,281,0,0,0,0,0,0,0,0,0,-1,972,743,0,0
-245,281,0,0,0,0,0,0,0,0,0,-1,979,743,0,0
-238,281,0,0,0,0,0,0,0,0,0,-1,986,743,0,0
-231,281,0,0,0,0,0,0,0,0,0,-1,993,743,0,0
-224,281,0,0,0,0,0,0,0,0,0,-1,1000,743,0,0
-217,281,0,0,0,0,0,0,0,0,0,-1,1007,743,0,0
-210,281,0,0,0,0,0,0,0,0,0,-1,1014,743,0,0
-203,281,0,0,0,0,0,0,0,0,0,-1,1021,743,0,0
-196,281,0,0,0,0,0,0,0,0,0,-1,1028,743,0,0
-189,281,0,0,0,0,0,0,0,0,0,-1,1035,743,0,0
-182,281,0,0,0,0,0,0,0,0,0,-1,1042,743,0,0
-175,281,0,0,0,0,0,0,0,0,0,-1,1049,743,0,0
-168,281,0,0,0,0,0,0,0,0,0,-1,1056,743,0,0
-161,281,0,0,0,0,0,0,0,0,0,-1,1063,743,0,0
-154,281,0,0,0,0,0,0,0,0,0,-1,1070,743,0,0
-147,281,0,0,0,0,0,0,0,0,0,-1,1077,743,0,0
-140,281,0,0,0,0,0,0,0,0,0,-1,1084,743,0,0
-133,281,0,0,0,0,0,0,0,0,0,-1,1091,743,0,0
-126,281,0,0,0,0,0,0,0,0,0,-1,1098,743,0,0
-119,281,0,0,0,0,0,0,0,0,0,-1,1105,743,0,0
-112,281,0,0,0,0,0,0,0,0,0,-1,1112,743,0,0
-105,281,0,0,0,0,0,0,0,0,0,-1,1119,743,0,0
-98,281,0,0,0,0,0,0,0,0,0,-1,1126,743,0,0
-91,281,0,0,0,0,0,0,0,0,0,-1,1133,743,0,0
-84,281,0,0,0,0,0,0,0,0,0,-1,1140,743,0,0
-77,281,0,0,0,0,0,0,0,0,0,-1,1147,743,0,0
-70,281,0,0,0,0,0,0,0,0,0,-1,1154,743,0,0
-63,281,0,0,0,0,0,0,0,0,0,-1,1161,743,0,0
-56,281,0,0,0,0,0,0,0,0,0,-1,1168,743,0,0
-49,281,0,0,0,0,0,0,0,0,0,-1,1175,743,0,0
-42,281,0,0,0,0,0,0,0,0,0,-1,1182,743,0,0
-35,281,0,0,0,0,0,0,0,0,0,-1,1189,743,0,0
-28,281,0,0,0,0,0,0,0,0,0,-1,1196,743,0,0
-21,281,0,0,0,0,0,0,0,0,0,-1,1203,743,0,0
-14,281,0,0,0,0,0,0,0,0,0,-1,1210,743,0,0
-7,281,0,0,0,0,0,0,0,0,0,-1,1217,743,0,0
0,281,0,0,0,0,0,0,0,0,0,-1,1224,743,0,0
7,281,0,0,0,0,0,0,0,0,0,-1,1231,743,0,0
14,281,0,0,0,0,0,0,0,0,0,-1,1238,743,0,0
21,281,0,0,0,0,0,0,0,0,0,-1,1245,743,0,0
28,281,0,0,0,0,0,0,0,0,0,-1,1252,743,0,0
35,281,0,0,0,0,0,0,0,0,0,-1,1259,743,0,0
42,281,0,0,0,0,0,0,0,0,0,-1,1266,743,0,0
49,281,0,0,0,0,0,0,0,0,0,-1,1273,743,0,0
56,281,0,0,0,0,0,0,0,0,0,-1,1280,743,0,0
63,281,0,0,0,0,0,0,0,0,0,-1,1287,743,0,0
70,281,0,0,0,0,0,0,0,0,0,-1,1294,743,0,0
77,281,0,0,0,0,0,0,0,0,0,-1,1301,743,0,0
84,281,0,0,0,0,0,0,0,0,0,-1,1308,743,0,0
91,281,0,0,0,0,0,0,0,0,0,-1,1315,743,0,0
98,281,0,0,0,0,0,0,0,0,0,-1,1322,743,0,0
105,281,0,0,0,0,0,0,0,0,0,-1,1329,743,0,0
112,281,0,0,0,0,0,0,0,0,0,-1,1336,743,0,0
119,281,0,0,0,0,0,0,0,0,0,-1,1343,743,0,0
126,281,0,0,0,0,0,0,0,0,0,-1,1350,743,0,0
133,281,0,0,0,0,0,0,0,0,0,-1,1357,743,0,0
140,281,0,0,0,0,0,0,0,0,0,-1,1364,743,0,0
147,281,0,0,0,0,0,0,0,0,0,-1,1371,743,0,0
154,281,0,0,0,0,0,0,0,0,0,-1,1378,743,0,0
161,281,0,0,0,0,0,0,0,0,0,-1,1385,743,0,0
168,281,0,0,0,0,0,0,0,0,0,-1,1392,743,0,0
175,281,0,0,0,0,0,0,0,0,0,-1,1399,743,0,0
182,281,0,0,0,0,0,0,0,0,0,-1,1406,743,0,0
189,281,0,0,0,0,0,0,0,0,0,-1,1413,743,0,0
196,281,0,0,0,0,0,0,0,0,0,-1,1420,743,0,0
203,281,0,0,0,0,0,0,0,0,0,-1,1427,743,0,0
210,281,0,0,0,0,0,0,0,0,0,-1,1434,743,0,0
217,281,0,0,0,0,0,0,0,0,0,-1,1441,743,0,0
224,281,0,0,0,0,0,0,0,0,0,-1,1448,743,0,0
231,281,0,0,0,0,0,0,0,0,0,-1,1455,743,0,0
238,281,0,0,0,0,0,0,0,0,0,-1,1462,743,0,0
245,281,0,0,0,0,0,0,0,0,0,-1,1469,743,0,0
252,281,0,0,0,0,0,0,0,0,0,-1,1476,743,0,0
259,281,0,0,0,0,0,0,0,0,0,-1,1483,743,0,0
266,281,0,0,0,0,0,0,0,0,0,-1,1490,743,0,0
273,281,0,0,0,0,0,0,0,0,0,-1,1497,743,0,0
280,281,0,0,0,0,0,0,0,0,0,-1,1504,743,0,0
287,281,0,0,0,0,0,0,0,0,0,-1,1511,743,0,0
294,281,0,0,0,0,0,0,0,0,0,-1,1518,743,0,0
301,281,0,0,0,0,0,0,0,0,0,-1,1525,743,0,0
308,281,0,0,0,0,0,0,0,0,0,-1,1532,743,0,0
315,281,0,0,0,0,0,0,0,0,0,-1,1539,743,0,0
322,281,0,0,0,0,0,0,0,0,0,-1,1546,743,0,0
329,281,0,0,0,0,0,0,0,0,0,-1,1553,743,0,0
336,281,0,0,0,0,0,0,0,0,0,-1,1560,743,0,0
343,281,0,0,0,0,0,0,0,0,0,-1,1567,743,0,0
350,281,0,0,0,0,0,0,0,0,0,-1,1574,743,0,0
357,281,0,0,0,0,0,0,0,0,0,-1,1581,743,0,0
364,281,0,0,0,0,0,0,0,0,0,-1,1588,743,0,0
371,281,0,0,0,0,0,0,0,0,0,-1,1595,743,0,0
378,281,0,0,0,0,0,0,0,0,0,-1,1602,743,0,0
385,281,0,0,0,0,0,0,0,0,0,-1,1609,743,0,0
392,281,0,0,0,0,0,0,0,0,0,-1,1616,743,0,0
399,281,0,0,0,0,0,0,0,0,0,-1,1623,743,0,0
406,281,0,0,0,0,0,0,0,0,0,-1,1630,743,0,0
413,281,0,0,0,0,0,0,0,0,0,-1,1637,743,0,0
420,281,0,0,0,0,0,0,0,0,0,-1,1644,743,0,0
427,281,0,0,0,0,0,0,0,0,0,-1,1651,743,0,0
434,281,0,0,0,0,0,0,0,0,0,-1,1658,743,0,0
441,281,0,0,0,0,0,0,0,0,0,-1,1665,743,0,0
448,281,0,0,0,0,0,0,0,0,0,-1,1672,743,0,0
455,281,0,0,0,0,0,0,0,0,0,-1,1679,743,0,0
462,281,0,0,0,0,0,0,0,0,0,-1,1686,743,0,0
469,281,0,0,0,0,0,0,0,0,0,-1,1693,743,0,0
476,281,0,0,0,0,0,0,0,0,0,-1,1700,743,0,0
483,281,0,0,0,0,0,0,0,0,0,-1,1707,743,0,0
490,281,0,0,0,0,0,0,0,0,0,-1,1714,743,0,0
497,281,0,0,0,0,0,0,0,0,0,-1,1721,743,0,0
504,281,0,0,0,0,0,0,0,0,0,-1,1728,743,0,0
511,281,0,0,0,0,0,0,0,0,0,-1,1735,743,0,0
518,281,0,0,0,0,0,0,0,0,0,-1,1742,743,0,0
525,281,0,0,0,0,0,0,0,0,0,-1,1749,743,0,0
532,281,0,0,0,0,0,0,0,0,0,-1,1756,743,0,0
539,281,0,0,0,0,0,0,0,0,0,-1,1763,743,0,0
546,281,0,0,0,0,0,0,0,0,0,-1,1770,743,0,0
553,281,0,0,0,0,0,0,0,0,0,-1,1777,743,0,0
560,281,0.112427,-0.260559,-0.0119074,0.0303127,0.00129905,0.0303527,-0.0119473,1.54007,0.0251807,0.0401158,1784,743,0.112441,0.260553
567,281,0.129272,-0.494812,-0.00617884,0.0292466,0.00199294,0.0293583,-0.0062906,1.51477,0.0219713,0.0428526,1791,743,0.129273,0.494796
574,281,0.136963,-0.530151,-0.00102764,0.0256042,0.002298,0.025801,-0.00122448,1.48535,0.017623,0.0443649,1798,743,0.136995,0.530172
581,281,0.182007,-0.374817,0.00283205,0.0208949,0.00213505,0.0211438,0.00258312,1.45473,0.0133186,0.0435888,1805,743,0.182066,0.374797
588,281,-2.02173,2.32867,0,0,0,0,0,0,0,-1,1812,743,-2.02171,-2.32866
595,281,-1.99817,0.300049,0,0,0,0,0,0,0,-1,1819,743,-1.99819,-0.300075
602,281,-1.3374,-0.0319824,0,0,0,0,0,0,0,-1,1826,743,-1.33739,0.0319595
609,281,-0.957886,0.168518,0,0,0,0,0,0,0,-1,1833,743,-0.957873,-0.168506
616,281,-0.264648,0.0446167,0,0,0,0,0,0,0,-1,1840,743,-0.264589,-0.0446233
623,281,-0.039917,0.0569458,0.00877373,0.00161064,0.00119542,0.00896796,0.00141641,0.161073,0.00556689,0.043028,1847,743,-0.0399589,-0.0569167
630,281,-0.0296631,0.0219727,0.00807546,9.97708e-06,0.00092351,0.00817986,-9.44147e-05,0.112561,0.00548498,0.0293397,1854,743,-0.0296248,-0.0219878
637,281,-0.0537109,0.0757446,0.00712163,-0.0017028,0.0010452,0.00724373,-0.0018249,0.1163,0.0055386,0.0122497,1861,743,-0.0536599,-0.0757222
644,281,-0.0498047,0.0897827,0.0057468,-0.000711537,0.000785571,0.00584098,-0.000805717,0.119319,0.00418847,0.00969384,1868,743,-0.0497991,-0.0898098
651,281,-0.0424805,0.0565796,0.00474358,-0.000293646,0.000816934,0.00487276,-0.000422823,0.156826,0.00339823,0.0106947,1875,743,-0.0425052,-0.0566067
658,281,-0.0472412,0.0674438,0.00343339,-0.000249285,0.000702918,0.00356299,-0.000378891,0.182335,0.00251117,0.018199,1882,743,-0.0472236,-0.0674271
665,281,-0.0452881,0.0823364,0.00231399,0.000445415,8.3195e-05,0.00231768,0.000441718,0.0444062,0.00142096,0.0188454,1889,743,-0.0452981,-0.0823161
672,281,-0.0429688,0.0661011,0.00270488,0.000868053,-6.46783e-05,0.00270716,0.000865778,-0.0351539,0.00159645,0.00966629,1896,743,-0.0430004,-0.0660974
679,281,-0.032959,0.0736694,0.00368884,0.000992101,0.000377381,0.00374065,0.000940286,0.136449,0.00224691,0.012306,1903,743,-0.0329988,-0.0736472
686,281,-0.0305176,0.0635986,0.00504631,0.00181562,0.000786981,0.00522782,0.00163411,0.226674,0.00308815,0.00953329,1910,743,-0.0304668,-0.0635736
693,281,-0.0384521,0.0654907,0.00640864,0.00253891,0.00120397,0.00675264,0.0021949,0.278309,0.0039774,0.00868761,1917,743,-0.0385122,-0.0655113
700,281,-0.0310059,0.0625,0.00863512,0.00370417,0.00217566,0.00945782,0.00288148,0.361517,0.00559765,0.0150144,1924,743,-0.0310473,-0.0625295
707,281,-0.0854492,0.114136,0.0116839,0.00503378,0.00352927,0.0132077,0.00350994,0.407593,0.0078995,0.0302052,1931,743,-0.0855102,-0.114124
714,281,-0.156372,0.194458,0.015546,0.00662946,0.00546969,0.0181442,0.00403126,0.443463,0.0110014,0.0424411,1938,743,-0.156345,-0.194444
721,281,-0.457642,0.0740356,0.0202661,0.00848863,0.00813154,0.0244173,0.00433749,0.472011,0.0150423,0.0456747,1945,743,-0.457582,-0.074035
728,281,0.246338,0.17511,0.0259218,0.0105829,0.0116488,0.0321993,0.0043055,0.494273,0.0201846,0.0460569,1952,743,0.246296,-0.175123
735,281,0.344238,0.343323,0,0,0,0,0,0,0,-1,1959,743,0.34422,-0.343313
742,281,0,0,0,0,0,0,0,0,0,-1,1966,743,0,0
749,281,0,0,0,0,0,0,0,0,0,-1,1973,743,0,0
756,281,0,0,0,0,0,0,0,0,0,-1,1980,743,0,0
763,281,0,0,0,0,0,0,0,0,0,-1,1987,743,0,0
770,281,0,0,0,0,0,0,0,0,0,-1,1994,743,0,0
777,281,0,0,0,0,0,0,0,0,0,-1,2001,743,0,0
784,281,0,0,0,0,0,0,0,0,0,-1,2008,743,0,0
791,281,0,0,0,0,0,0,0,0,0,-1,2015,743,0,0
798,281,0,0,0,0,0,0,0,0,0,-1,2022,743,0,0
805,281,0,0,0,0,0,0,0,0,0,-1,2029,743,0,0
812,281,0,0,0,0,0,0,0,0,0,-1,2036,743,0,0
-700,274,0,0,0,0,0,0,0,0,0,-1,524,750,0,0
-693,274,0,0,0,0,0,0,0,0,0,-1,531,750,0,0
-686,274,0,0,0,0,0,0,0,0,0,-1,538,750,0,0
-679,274,0,0,0,0,0,0,0,0,0,-1,545,750,0,0
-672,274,0,0,0,0,0,0,0,0,0,-1,552,750,0,0
-665,274,0,0,0,0,0,0,0,0,0,-1,559,750,0,0
-658,274,0,0,0,0,0,0,0,0,0,-1,566,750,0,0
-651,274,0,0,0,0,0,0,0,0,0,-1,573,750,0,0
-644,274,0,0,0,0,0,0,0,0,0,-1,580,750,0,0
-637,274,0,0,0,0,0,0,0,0,0,-1,587,750,0,0
-630,274,0,0,0,0,0,0,0,0,0,-1,594,750,0,0
-623,274,-0.955994,0.873779,0.0510594,0.0450735,-0.0310583,0.0792686,0.0168643,-0.737364,0.0482176,0.0441792,601,750,-0.955998,-0.873802
-616,274,0.100891,0.976685,0.0460543,0.0415374,-0.0344311,0.078301,0.00929071,-0.752648,0.0493958,0.04988,608,750,0.100876,-0.976707
-609,274,0.598328,1.21735,0.0401025,0.0373169,-0.0353082,0.0740454,0.00337401,-0.765685,0.0482783,0.0450824,615,750,0.598349,-1.21735
-602,274,0.952942,1.45221,0.033857,0.0326614,-0.0343465,0.0676109,-0.00109256,-0.776697,0.0454425,0.0420698,622,750,0.952948,-1.45224
-595,274,1.34351,1.6286,0.0276799,0.0278509,-0.0320434,0.0598089,-0.0042781,-0.786732,0.0413724,0.0486593,629,750,1.34351,-1.62858
-588,274,-0.0855713,4.0036,0,0,0,0,0,0,0,-1,636,750,-0.0855852,-4.00357
-581,274,-0.0415649,0.176453,0.0171173,0.0185922,-0.0250664,0.042932,-0.00722253,-0.800104,0.0313078,0.0358941,643,750,-0.0415577,-0.176453
-574,274,-0.0385742,0.112061,0.0127381,0.0144098,-0.0218148,0.0354048,-0.0082569,-0.804546,0.0267832,0.0175741,650,750,-0.0385689,-0.112034
-567,274,-0.0498047,0.0950317,0.00851513,0.011247,-0.0176824,0.0276161,-0.00785399,-0.823946,0.0215121,0.0147704,657,750,-0.049791,-0.0950243
-560,274,-0.0458984,0.0949707,0.00542504,0.00798066,-0.0138478,0.0206095,-0.00720376,-0.831406,0.0166681,0.0129918,664,750,-0.0458829,-0.0949726
-553,274,-0.0281372,0.0644531,0.00296961,0.00514846,-0.0101979,0.014315,-0.0061969,-0.83861,0.0121478,0.00868021,671,750,-0.0281463,-0.0644515
-546,274,-0.0394287,0.0724487,0.000995681,0.00293749,-0.00708945,0.00912221,-0.00518904,-0.85345,0.00836597,0.0102346,678,750,-0.039441,-0.0724265
-539,274,-0.0441284,0.0754395,-0.000236736,0.00167105,-0.00450234,0.00531943,-0.00388512,-0.889787,0.00533571,0.0101741,685,750,-0.0441582,-0.0754241
-532,274,-0.0303345,0.0830078,-0.000370603,0.00161458,-0.00233919,0.00316306,-0.00191909,-0.98605,0.00296334,0.00907065,692,750,-0.0303203,-0.083008
-525,274,-0.0362549,0.0743408,8.02734e-05,0.00243675,-0.000282428,0.00247013,4.68969e-05,-1.45316,0.00163135,0.00908783,699,750,-0.0362397,-0.0743153
-518,274,-0.0478516,0.0516968,0.000984471,0.00391709,0.00115532,0.00431755,0.00058401,1.23713,0.00270479,0.0115846,706,750,-0.0478464,-0.051679
-511,274,-0.0462646,0.0405273,0.00175945,0.00480603,0.0023842,0.00611202,0.00045346,1.06967,0.00393225,0.0110364,713,750,-0.04626,-0.0405501
-504,274,-0.0141602,0.038269,0.00232094,0.00581208,0.0038456,0.00828974,-0.00015672,0.99845,0.00557947,0.0169744,720,750,-0.0141591,-0.0382686
-497,274,-0.0549927,-0.0264282,0.00269226,0.00660898,0.00520806,0.0102147,-0.000913466,0.965233,0.00713381,0.0370342,727,750,-0.0549729,0.026439
-490,274,-0.565063,-0.117981,0.00261627,0.00620058,0.00681132,0.0114516,-0.00263473,0.914039,0.00864747,0.0394137,734,750,-0.565084,0.117992
-483,274,-0.44519,-0.169067,0.00252844,0.00591062,0.0083657,0.0127544,-0.00431538,0.885127,0.0102489,0.0420044,741,750,-0.445207,0.169076
-476,274,0.192505,0.431213,0.00144864,0.0045246,0.00968868,0.0127966,-0.00682337,0.864111,0.0115013,0.0453807,748,750,0.192516,-0.43119
-469,274,0.829224,0.990356,0,0,0,0,0,0,0,-1,755,750,0.829239,-0.990328
-462,274,-0.451172,0.0460205,0,0,0,0,0,0,0,-1,762,750,-0.45117,-0.0460189
-455,274,-0.528137,0.209351,-0.0117985,-0.00920174,0.00909602,-0.00131188,-0.0196883,0.856289,0.0127108,0.0428458,769,750,-0.528109,-0.209378
-448,274,-0.449707,0.523438,-0.0211532,-0.018179,0.00600282,-0.0134818,-0.0258504,0.906821,0.0149293,0.0420786,776,750,-0.449724,-0.52346
-441,274,0,0,0,0,0,0,0,0,0,-1,783,750,0,0
-434,274,0,0,0,0,0,0,0,0,0,-1,790,750,0,0
-427,274,0,0,0,0,0,0,0,0,0,-1,797,750,0,0
-420,274,0,0,0,0,0,0,0,0,0,-1,804,750,0,0
-413,274,0,0,0,0,0,0,0,0,0,-1,811,750,0,0
-406,274,0,0,0,0,0,0,0,0,0,-1,818,750,0,0
-399,274,0,0,0,0,0,0,0,0,0,-1,825,750,0,0
-392,274,0,0,0,0,0,0,0,0,0,-1,832,750,0,0
-385,274,0,0,0,0,0,0,0,0,0,-1,839,750,0,0
-378,274,0,0,0,0,0,0,0,0,0,-1,846,750,0,0
-371,274,0,0,0,0,0,0,0,0,0,-1,853,750,0,0
-364,274,0,0,0,0,0,0,0,0,0,-1,860,750,0,0
-357,274,0,0,0,0,0,0,0,0,0,-1,867,750,0,0
-350,274,0,0,0,0,0,0,0,0,0,-1,874,750,0,0
-343,274,0,0,0,0,0,0,0,0,0,-1,881,750,0,0
-336,274,0,0,0,0,0,0,0,0,0,-1,888,750,0,0
-329,274,0,0,0,0,0,0,0,0,0,-1,895,750,0,0
-322,274,0,0,0,0,0,0,0,0,0,-1,902,750,0,0
-315,274,0,0,0,0,0,0,0,0,0,-1,909,750,0,0
-308,274,0,0,0,0,0,0,0,0,0,-1,916,750,0,0
-301,274,0,0,0,0,0,0,0,0,0,-1,923,750,0,0
-294,274,0,0,0,0,0,0,0,0,0,-1,930,750,0,0
-287,274,0,0,0,0,0,0,0,0,0,-1,937,750,0,0
-280,274,0,0,0,0,0,0,0,0,0,-1,944,750,0,0
-273,274,0,0,0,0,0,0,0,0,0,-1,951,750,0,0
-266,274,0,0,0,0,0,0,0,0,0,-1,958,750,0,0
-259,274,0,0,0,0,0,0,0,0,0,-1,965,750,0,0
-252,274,0,0,0,0,0,0,0,0,0,-1,972,750,0,0
-245,274,0,0,0,0,0,0,0,0,0,-1,979,750,0,0
-238,274,0,0,0,0,0,0,0,0,0,-1,986,750,0,0
-231,274,0,0,0,0,0,0,0,0,0,-1,993,750,0,0
-224,274,0,0,0,0,0,0,0,0,0,-1,1000,750,0,0
-217,274,0,0,0,0,0,0,0,0,0,-1,1007,750,0,0
-210,274,0,0,0,0,0,0,0,0,0,-1,1014,750,0,0
-203,274,0,0,0,0,0,0,0,0,0,-1,1021,750,0,0
-196,274,0,0,0,0,0,0,0,0,0,-1,1028,750,0,0
-189,274,0,0,0,0,0,0,0,0,0,-1,1035,750,0,0
-182,274,0,0,0,0,0,0,0,0,0,-1,1042,750,0,0
-175,274,0,0,0,0,0,0,0,0,0,-1,1049,750,0,0
-168,274,0,0,0,0,0,0,0,0,0,-1,1056,750,0,0
-161,274,0,0,0,0,0,0,0,0,0,-1,1063,750,0,0
-154,274,0,0,0,0,0,0,0,0,0,-1,1070,750,0,0
-147,274,0,0,0,0,0,0,0,0,0,-1,1077,750,0,0
-140,274,0,0,0,0,0,0,0,0,0,-1,1084,750,0,0
-133,274,0,0,0,0,0,0,0,0,0,-1,1091,750,0,0
-126,274,0,0,0,0,0,0,0,0,0,-1,1098,750,0,0
-119,274,0,0,0,0,0,0,0,0,0,-1,1105,750,0,0
-112,274,0,0,0,0,0,0,0,0,0,-1,1112,750,0,0
-105,274,0,0,0,0,0,0,0,0,0,-1,1119,750,0,0
-98,274,0,0,0,0,0,0,0,0,0,-1,1126,750,0,0
-91,274,0,0,0,0,0,0,0,0,0,-1,1133,750,0,0
-84,274,0,0,0,0,0,0,0,0,0,-1,1140,750,0,0
-77,274,0,0,0,0,0,0,0,0,0,-1,1147,750,0,0
-70,274,0,0,0,0,0,0,0,0,0,-1,1154,750,0,0
-63,274,0,0,0,0,0,0,0,0,0,-1,1161,750,0,0
-56,274,0,0,0,0,0,0,0,0,0,-1,1168,750,0,0
-49,274,0,0,0,0,0,0,0,0,0,-1,1175,750,0,0
-42,274,0,0,0,0,0,0,0,0,0,-1,1182,750,0,0
-35,274,0,0,0,0,0,0,0,0,0,-1,1189,750,0,0
-28,274,0,0,0,0,0,0,0,0,0,-1,1196,750,0,0
-21,274,0,0,0,0,0,0,0,0,0,-1,1203,750,0,0
-14,274,0,0,0,0,0,0,0,0,0,-1,1210,750,0,0
-7,274,0,0,0,0,0,0,0,0,0,-1,1217,750,0,0
0,274,0,0,0,0,0,0,0,0,0,-1,1224,750,0,0
7,274,0,0,0,0,0,0,0,0,0,-1,1231,750,0,0
14,274,0,0,0,0,0,0,0,0,0,-1,1238,750,0,0
21,274,0,0,0,0,0,0,0,0,0,-1,1245,750,0,0
28,274,0,0,0,0,0,0,0,0,0,-1,1252,750,0,0
35,274,0,0,0,0,0,0,0,0,0,-1,1259,750,0,0
42,274,0,0,0,0,0,0,0,0,0,-1,1266,750,0,0
49,274,0,0,0,0,0,0,0,0,0,-1,1273,750,0,0
56,274,0,0,0,0,0,0,0,0,0,-1,1280,750,0,0
63,274,0,0,0,0,0,0,0,0,0,-1,1287,750,0,0
70,274,0,0,0,0,0,0,0,0,0,-1,1294,750,0,0
77,274,0,0,0,0,0,0,0,0,0,-1,1301,750,0,0
84,274,0,0,0,0,0,0,0,0,0,-1,1308,750,0,0
91,274,0,0,0,0,0,0,0,0,0,-1,1315,750,0,0
98,274,0,0,0,0,0,0,0,0,0,-1,1322,750,0,0
105,274,0,0,0,0,0,0,0,0,0,-1,1329,750,0,0
112,274,0,0,0,0,0,0,0,0,0,-1,1336,750,0,0
119,274,0,0,0,0,0,0,0,0,0,-1,1343,750,0,0
126,274,0,0,0,0,0,0,0,0,0,-1,1350,750,0,0
133,274,0,0,0,0,0,0,0,0,0,-1,1357,750,0,0
140,274,0,0,0,0,0,0,0,0,0,-1,1364,750,0,0
147,274,0,0,0,0,0,0,0,0,0,-1,1371,750,0,0
154,274,0,0,0,0,0,0,0,0,0,-1,1378,750,0,0
161,274,0,0,0,0,0,0,0,0,0,-1,1385,750,0,0
168,274,0,0,0,0,0,0,0,0,0,-1,1392,750,0,0
175,274,0,0,0,0,0,0,0,0,0,-1,1399,750,0,0
182,274,0,0,0,0,0,0,0,0,0,-1,1406,750,0,0
189,274,0,0,0,0,0,0,0,0,0,-1,1413,750,0,0
196,274,0,0,0,0,0,0,0,0,0,-1,1420,750,0,0
203,274,0,0,0,0,0,0,0,0,0,-1,1427,750,0,0
210,274,0,0,0,0,0,0,0,0,0,-1,1434,750,0,0
217,274,0,0,0,0,0,0,0,0,0,-1,1441,750,0,0
224,274,0,0,0,0,0,0,0,0,0,-1,1448,750,0,0
231,274,0,0,0,0,0,0,0,0,0,-1,1455,750,0,0
238,274,0,0,0,0,0,0,0,0,0,-1,1462,750,0,0
245,274,0,0,0,0,0,0,0,0,0,-1,1469,750,0,0
252,274,0,0,0,0,0,0,0,0,0,-1,1476,750,0,0
259,274,0,0,0,0,0,0,0,0,0,-1,1483,750,0,0
266,274,0,0,0,0,0,0,0,0,0,-1,1490,750,0,0
273,274,0,0,0,0,0,0,0,0,0,-1,1497,750,0,0
280,274,0,0,0,0,0,0,0,0,0,-1,1504,750,0,0
287,274,0,0,0,0,0,0,0,0,0,-1,1511,750,0,0
294,274,0,0,0,0,0,0,0,0,0,-1,1518,750,0,0
301,274,0,0,0,0,0,0,0,0,0,-1,1525,750,0,0
308,274,0,0,0,0,0,0,0,0,0,-1,1532,750,0,0
315,274,0,0,0,0,0,0,0,0,0,-1,1539,750,0,0
322,274,0,0,0,0,0,0,0,0,0,-1,1546,750,0,0
329,274,0,0,0,0,0,0,0,0,0,-1,1553,750,0,0
336,274,0,0,0,0,0,0,0,0,0,-1,1560,750,0,0
343,274,0,0,0,0,0,0,0,0,0,-1,1567,750,0,0
350,274,0,0,0,0,0,0,0,0,0,-1,1574,750,0,0
357,274,0,0,0,0,0,0,0,0,0,-1,1581,750,0,0
364,274,0,0,0,0,0,0,0,0,0,-1,1588,750,0,0
371,274,0,0,0,0,0,0,0,0,0,-1,1595,750,0,0
378,274,0,0,0,0,0,0,0,0,0,-1,1602,750,0,0
385,274,0,0,0,0,0,0,0,0,0,-1,1609,750,0,0
392,274,0,0,0,0,0,0,0,0,0,-1,1616,750,0,0
399,274,0,0,0,0,0,0,0,0,0,-1,1623,750,0,0
406,274,0,0,0,0,0,0,0,0,0,-1,1630,750,0,0
413,274,0,0,0,0,0,0,0,0,0,-1,1637,750,0,0
420,274,0,0,0,0,0,0,0,0,0,-1,1644,750,0,0
427,274,0,0,0,0,0,0,0,0,0,-1,1651,750,0,0
434,274,0,0,0,0,0,0,0,0,0,-1,1658,750,0,0
441,274,0,0,0,0,0,0,0,0,0,-1,1665,750,0,0
448,274,0,0,0,0,0,0,0,0,0,-1,1672,750,0,0
455,274,0,0,0,0,0,0,0,0,0,-1,1679,750,0,0
462,274,0,0,0,0,0,0,0,0,0,-1,1686,750,0,0
469,274,0,0,0,0,0,0,0,0,0,-1,1693,750,0,0
476,274,0,0,0,0,0,0,0,0,0,-1,1700,750,0,0
483,274,0,0,0,0,0,0,0,0,0,-1,1707,750,0,0
490,274,0,0,0,0,0,0,0,0,0,-1,1714,750,0,0
497,274,0,0,0,0,0,0,0,0,0,-1,1721,750,0,0
504,274,0,0,0,0,0,0,0,0,0,-1,1728,750,0,0
511,274,0,0,0,0,0,0,0,0,0,-1,1735,750,0,0
518,274,0,0,0,0,0,0,0,0,0,-1,1742,750,0,0
525,274,0,0,0,0,0,0,0,0,0,-1,1749,750,0,0
532,274,0,0,0,0,0,0,0,0,0,-1,1756,750,0,0
539,274,0,0,0,0,0,0,0,0,0,-1,1763,750,0,0
546,274,0,0,0,0,0,0,0,0,0,-1,1770,750,0,0
553,274,0,0,0,0,0,0,0,0,0,-1,1777,750,0,0
560,274,-0.0356445,0.106812,-0.0147554,0.027412,-0.000931747,0.0274326,-0.014776,-1.54871,0.0247316,0.0341937,1784,750,-0.0356655,-0.106842
567,274,-0.0527344,-0.0772095,-0.00815788,0.0277724,0.000396645,0.0277768,-0.00816226,1.55976,0.0217552,0.0386278,1791,750,-0.052674,0.0772084
574,274,-0.0650635,-0.254211,-0.00231744,0.0249305,0.00127833,0.0249904,-0.00237728,1.52402,0.0175066,0.0417227,1798,750,-0.0651043,0.254208
581,274,-2.651,1.77417,0,0,0,0,0,0,0,-1,1805,750,-2.65105,-1.77417
588,274,-2.59229,1.48169,0,0,0,0,0,0,0,-1,1812,750,-2.59224,-1.4817
595,274,-2.55225,1.00854,0,0,0,0,0,0,0,-1,1819,750,-2.55227,-1.00855
602,274,-1.94824,0.693237,0.00797615,0.00890867,0.0014397,0.00995572,0.00692909,0.941998,0.0058933,0.0461442,1826,750,-1.94829,-0.693222
609,274,-1.25,0.710266,0.00835891,0.00642712,0.00152195,0.00919559,0.00559044,0.502647,0.00535016,0.0454037,1833,750,-1.25006,-0.710273
616,274,-0.290405,0.529846,0,0,0,0,0,0,0,-1,1840,750,-0.29038,-0.529867
623,274,0.399658,0.0336914,0,0,0,0,0,0,0,-1,1847,750,0.399631,-0.0337149
630,274,0.835449,-0.244141,0,0,0,0,0,0,0,-1,1854,750,0.835454,0.244167
637,274,-0.0603027,0.0466309,0.00704293,-0.00113874,0.00100957,0.00716567,-0.00126148,0.120976,0.00524838,0.0127703,1861,750,-0.0603421,-0.0466594
644,274,-0.0610352,0.0658569,0.00584693,-0.000324715,0.000750058,0.00593678,-0.000414564,0.119221,0.00410303,0.010946,1868,750,-0.0610312,-0.0658417
651,274,-0.0561523,0.0500488,0.00502129,-4.90644e-05,0.000698311,0.0051157,-0.000143481,0.134392,0.00345929,0.0123683,1875,750,-0.056155,-0.0500762
658,274,-0.0458984,0.0585327,0.00370335,-0.000221806,0.000616947,0.00379803,-0.000316492,0.152287,0.00264384,0.0146959,1882,750,-0.0459175,-0.0585335
665,274,-0.0518799,0.0831909,0.00241466,0.000469995,2.54849e-05,0.00241499,0.000469661,0.013102,0.00147852,0.0140499,1889,750,-0.0518411,-0.0832032
672,274,-0.0438232,0.069397,0.00268878,0.000716154,-7.04135e-05,0.00269129,0.000713643,-0.0356349,0.00160993,0.0112326,1896,750,-0.0438304,-0.0693947
679,274,-0.0220947,0.0618286,0.00353771,0.000711554,0.000397781,0.00359263,0.000656634,0.1372,0.00220898,0.0121666,1903,750,-0.0220452,-0.061833
686,274,-0.0239258,0.0643921,0.00465783,0.00141428,0.000803368,0.00484591,0.0012262,0.229965,0.00290932,0.0119433,1910,750,-0.0239763,-0.0644141
693,274,-0.02771,0.0822144,0.00572422,0.00202284,0.00115552,0.00605533,0.00169172,0.279073,0.00360771,0.0103518,1917,750,-0.0277356,-0.0822178
700,274,-0.0358887,0.0871582,0.00767309,0.00307297,0.00209071,0.0084813,0.00226476,0.368878,0.00507076,0.0123312,1924,750,-0.0358803,-0.0871725
707,274,-0.0471191,0.0726318,0.0104043,0.00410706,0.00332877,0.0118377,0.00267371,0.4066,0.00716874,0.0182815,1931,750,-0.0471753,-0.072636
714,274,-0.124634,-0.0134277,0.0139111,0.00541512,0.00508964,0.0162926,0.00303364,0.437646,0.010005,0.034773,1938,750,-0.124585,0.0134555
721,274,-0.21936,-0.0543213,0.018175,0.00692208,0.00748178,0.0219098,0.00318724,0.463001,0.0136686,0.0433389,1945,750,-0.219307,0.0543368
728,274,-0.173096,-0.0739746,0.0232403,0.00858252,0.0106097,0.0288063,0.00301651,0.483145,0.0182819,0.0464866,1952,750,-0.173055,0.0739712
735,274,1.19861,0.740479,0.0290965,0.010332,0.014587,0.037058,0.00237047,0.49961,0.0239543,0.0479681,1959,750,1.19861,-0.740471
742,274,1.01257,0.290649,0,0,0,0,0,0,0,-1,1966,750,1.01258,-0.290676
749,274,0,0,0,0,0,0,0,0,0,-1,1973,750,0,0
756,274,0,0,0,0,0,0,0,0,0,-1,1980,750,0,0
763,274,0,0,0,0,0,0,0,0,0,-1,1987,750,0,0
770,274,0,0,0,0,0,0,0,0,0,-1,1994,750,0,0
777,274,0,0,0,0,0,0,0,0,0,-1,2001,750,0,0
784,274,0,0,0,0,0,0,0,0,0,-1,2008,750,0,0
791,274,0,0,0,0,0,0,0,0,0,-1,2015,750,0,0
798,274,0,0,0,0,0,0,0,0,0,-1,2022,750,0,0
805,274,0,0,0,0,0,0,0,0,0,-1,2029,750,0,0
812,274,0,0,0,0,0,0,0,0,0,-1,2036,750,0,0
-700,267,0,0,0,0,0,0,0,0,0,-1,524,757,0,0
-693,267,0,0,0,0,0,0,0,0,0,-1,531,757,0,0
-686,267,0,0,0,0,0,0,0,0,0,-1,538,757,0,0
-679,267,0,0,0,0,0,0,0,0,0,-1,545,757,0,0
-672,267,0,0,0,0,0,0,0,0,0,-1,552,757,0,0
-665,267,0,0,0,0,0,0,0,0,0,-1,559,757,0,0
-658,267,0,0,0,0,0,0,0,0,0,-1,566,757,0,0
-651,267,0,0,0,0,0,0,0,0,0,-1,573,757,0,0
-644,267,0,0,0,0,0,0,0,0,0,-1,580,757,0,0
-637,267,0,0,0,0,0,0,0,0,0,-1,587,757,0,0
-630,267,-0.462585,0.348999,0.0500804,0.0384757,-0.00683387,0.0532429,0.0353132,-0.433425,0.0312812,0.0416033,594,757,-0.462602,-0.34899
-623,267,-0.382935,0.579041,0.0468631,0.0372145,-0.0140168,0.0568626,0.027215,-0.619659,0.0328397,0.0414647,601,757,-0.382937,-0.579025
-616,267,0.327637,0.862488,0.041711,0.0349746,-0.018901,0.0575416,0.019144,-0.697223,0.0338359,0.0444347,608,757,0.327626,-0.862481
-609,267,0.689453,0.92511,0.03589,0.0319596,-0.0215105,0.0555249,0.0123248,-0.739845,0.0336689,0.042288,615,757,0.689433,-0.925092
-602,267,1.17603,0.941956,0.029941,0.0284002,-0.0223423,0.0515261,0.00681502,-0.768164,0.0323195,0.0424489,622,757,1.17605,-0.941925
-595,267,1.98535,0.87915,0.0241843,0.0245487,-0.0218128,0.04618,0.0025529,-0.789574,0.029972,0.0487663,629,757,1.98537,-0.879135
-588,267,0.00982666,0.101196,0.0189329,0.0206035,-0.0202488,0.0400342,-0.000497825,-0.806012,0.0268569,0.0425391,636,757,0.00981424,-0.101187
-581,267,0.00646973,0.111572,0.0146195,0.0167513,-0.0180442,0.033761,-0.00239022,-0.814899,0.0233449,0.0244038,643,757,0.00645986,-0.111562
-574,267,-0.041687,0.0779419,0.0105907,0.013078,-0.0162847,0.0281665,-0.00449782,-0.823508,0.0204425,0.0121972,650,757,-0.0416627,-0.0779326
-567,267,-0.0547485,0.10553,0.00682967,0.0104976,-0.0133176,0.0221069,-0.00477968,-0.853823,0.0165627,0.0188624,657,757,-0.0547404,-0.105506
-560,267,-0.0219116,0.104065,0.00415358,0.00751298,-0.0104214,0.0163892,-0.00472264,-0.8653,0.0127943,0.0200844,664,757,-0.0219205,-0.104041
-553,267,-0.0233154,0.0980225,0.00195984,0.00487847,-0.00775213,0.0113074,-0.00446914,-0.878433,0.0093895,0.0164119,671,757,-0.0232854,-0.0980312
-546,267,-0.0452881,0.0819702,0.000189209,0.00288426,-0.00548956,0.00718927,-0.0041158,-0.905754,0.0066069,0.0109536,678,757,-0.0452589,-0.0819825
-539,267,-0.0423584,0.0772705,-0.000932061,0.00174521,-0.00351918,0.00417175,-0.0033586,-0.967139,0.00435609,0.00995304,685,757,-0.0423369,-0.0772874
-532,267,-0.0227051,0.0894165,-0.00096904,0.00184137,-0.00183613,0.0027483,-0.00187597,-1.11201,0.00268562,0.00882498,692,757,-0.0227196,-0.0894243
-525,267,-0.0305176,0.0855713,-0.000506498,0.00285878,-0.000126144,0.0028635,-0.000511219,-1.53338,0.00210025,0.00839673,699,757,-0.0305444,-0.0855793
-518,267,-0.043335,0.0637207,0.000350916,0.00447989,0.00109782,0.00475363,7.71754e-05,1.32643,0.00314368,0.0100473,706,757,-0.0433105,-0.0636956
-511,267,-0.0313721,0.0532837,0.00111441,0.0056266,0.0021778,0.00650623,0.000234781,1.18693,0.00426138,0.0133235,713,757,-0.0313669,-0.0532656
-504,267,-0.0292358,0.0187988,0.00178789,0.00697055,0.00352103,0.00875102,7.41472e-06,1.10263,0.00583154,0.0241569,720,757,-0.0292169,-0.0187729
-497,267,-0.112122,-0.0913696,0.00234308,0.00825705,0.00485998,0.0109889,-0.000388796,1.0587,0.00745893,0.0427838,727,757,-0.112114,0.0913764
-490,267,-1.3421,-0.886353,0,0,0,0,0,0,0,-1,734,757,-1.3421,0.886378
-483,267,-0.736023,-0.267578,0.00265357,0.00866042,0.00813214,0.014326,-0.00301204,0.962293,0.010697,0.0437301,741,757,-0.736013,0.267565
-476,267,-0.133972,0.317505,0.00174646,0.00778684,0.00959012,0.0148211,-0.0052878,0.937945,0.0120369,0.0440806,748,757,-0.133965,-0.317477
-469,267,0.493042,0.855774,-0.000765212,0.00537057,0.0105537,0.0132933,-0.00868792,0.926846,0.0127834,0.0473235,755,757,0.493035,-0.85575
-462,267,1.10669,1.40631,0,0,0,0,0,0,0,-1,762,757,1.10669,-1.4063
-455,267,-0.285706,0.00646973,-0.0134361,-0.00630845,0.00968854,0.000450944,-0.0201955,0.961636,0.0136164,0.0473307,769,757,-0.285706,-0.00646407
-448,267,-0.327515,-0.0292969,-0.0261542,-0.0172128,0.00625607,-0.0139942,-0.0293728,1.09563,0.0169647,0.0475101,776,757,-0.327527,0.0292889
-441,267,0,0,0,0,0,0,0,0,0,-1,783,757,0,0
-434,267,0,0,0,0,0,0,0,0,0,-1,790,757,0,0
-427,267,0,0,0,0,0,0,0,0,0,-1,797,757,0,0
-420,267,0,0,0,0,0,0,0,0,0,-1,804,757,0,0
-413,267,0,0,0,0,0,0,0,0,0,-1,811,757,0,0
-406,267,0,0,0,0,0,0,0,0,0,-1,818,757,0,0
-399,267,0,0,0,0,0,0,0,0,0,-1,825,757,0,0
-392,267,0,0,0,0,0,0,0,0,0,-1,832,757,0,0
-385,267,0,0,0,0,0,0,0,0,0,-1,839,757,0,0
-378,267,0,0,0,0,0,0,0,0,0,-1,846,757,0,0
-371,267,0,0,0,0,0,0,0,0,0,-1,853,757,0,0
-364,267,0,0,0,0,0,0,0,0,0,-1,860,757,0,0
-357,267,0,0,0,0,0,0,0,0,0,-1,867,757,0,0
-350,267,0,0,0,0,0,0,0,0,0,-1,874,757,0,0
-343,267,0,0,0,0,0,0,0,0,0,-1,881,757,0,0
-336,267,0,0,0,0,0,0,0,0,0,-1,888,757,0,0
-329,267,0,0,0,0,0,0,0,0,0,-1,895,757,0,0
-322,267,0,0,0,0,0,0,0,0,0,-1,902,757,0,0
-315,267,0,0,0,0,0,0,0,0,0,-1,909,757,0,0
-308,267,0,0,0,0,0,0,0,0,0,-1,916,757,0,0
-301,267,0,0,0,0,0,0,0,0,0,-1,923,757,0,0
-294,267,0,0,0,0,0,0,0,0,0,-1,930,757,0,0
-287,267,0,0,0,0,0,0,0,0,0,-1,937,757,0,0
-280,267,0,0,0,0,0,0,0,0,0,-1,944,757,0,0
-273,267,0,0,0,0,0,0,0,0,0,-1,951,757,0,0
-266,267,0,0,0,0,0,0,0,0,0,-1,958,757,0,0
-259,267,0,0,0,0,0,0,0,0,0,-1,965,757,0,0
-252,267,0,0,0,0,0,0,0,0,0,-1,972,757,0,0
-245,267,0,0,0,0,0,0,0,0,0,-1,979,757,0,0
-238,267,0,0,0,0,0,0,0,0,0,-1,986,757,0,0
-231,267,0,0,0,0,0,0,0,0,0,-1,993,757,0,0
-224,267,0,0,0,0,0,0,0,0,0,-1,1000,757,0,0
-217,267,0,0,0,0,0,0,0,0,0,-1,1007,757,0,0
-210,267,0,0,0,0,0,0,0,0,0,-1,1014,757,0,0
-203,267,0,0,0,0,0,0,0,0,0,-1,1021,757,0,0
-196,267,0,0,0,0,0,0,0,0,0,-1,1028,757,0,0
-189,267,0,0,0,0,0,0,0,0,0,-1,1035,757,0,0
-182,267,0,0,0,0,0,0,0,0,0,-1,1042,757,0,0
-175,267,0,0,0,0,0,0,0,0,0,-1,1049,757,0,0
-168,267,0,0,0,0,0,0,0,0,0,-1,1056,757,0,0
-161,267,0,0,0,0,0,0,0,0,0,-1,1063,757,0,0
-154,267,0,0,0,0,0,0,0,0,0,-1,1070,757,0,0
-147,267,0,0,0,0,0,0,0,0,0,-1,1077,757,0,0
-140,267,0,0,0,0,0,0,0,0,0,-1,1084,757,0,0
-133,267,0,0,0,0,0,0,0,0,0,-1,1091,757,0,0
-126,267,0,0,0,0,0,0,0,0,0,-1,1098,757,0,0
-119,267,0,0,0,0,0,0,0,0,0,-1,1105,757,0,0
-112,267,0,0,0,0,0,0,0,0,0,-1,1112,757,0,0
-105,267,0,0,0,0,0,0,0,0,0,-1,1119,757,0,0
-98,267,0,0,0,0,0,0,0,0,0,-1,1126,757,0,0
-91,267,0,0,0,0,0,0,0,0,0,-1,1133,757,0,0
-84,267,0,0,0,0,0,0,0,0,0,-1,1140,757,0,0
-77,267,0,0,0,0,0,0,0,0,0,-1,1147,757,0,0
-70,267,0,0,0,0,0,0,0,0,0,-1,1154,757,0,0
-63,267,0,0,0,0,0,0,0,0,0,-1,1161,757,0,0
-56,267,0,0,0,0,0,0,0,0,0,-1,1168,757,0,0
-49,267,0,0,0,0,0,0,0,0,0,-1,1175,757,0,0
-42,267,0,0,0,0,0,0,0,0,0,-1,1182,757,0,0
-35,267,0,0,0,0,0,0,0,0,0,-1,1189,757,0,0
-28,267,0,0,0,0,0,0,0,0,0,-1,1196,757,0,0
-21,267,0,0,0,0,0,0,0,0,0,-1,1203,757,0,0
-14,267,0,0,0,0,0,0,0,0,0,-1,1210,757,0,0
-7,267,0,0,0,0,0,0,0,0,0,-1,1217,757,0,0
0,267,0,0,0,0,0,0,0,0,0,-1,1224,757,0,0
7,267,0,0,0,0,0,0,0,0,0,-1,1231,757,0,0
14,267,0,0,0,0,0,0,0,0,0,-1,1238,757,0,0
21,267,0,0,0,0,0,0,0,0,0,-1,1245,757,0,0
28,267,0,0,0,0,0,0,0,0,0,-1,1252,757,0,0
35,267,0,0,0,0,0,0,0,0,0,-1,1259,757,0,0
42,267,0,0,0,0,0,0,0,0,0,-1,1266,757,0,0
49,267,0,0,0,0,0,0,0,0,0,-1,1273,757,0,0
56,267,0,0,0,0,0,0,0,0,0,-1,1280,757,0,0
63,267,0,0,0,0,0,0,0,0,0,-1,1287,757,0,0
70,267,0,0,0,0,0,0,0,0,0,-1,1294,757,0,0
77,267,0,0,0,0,0,0,0,0,0,-1,1301,757,0,0
84,267,0,0,0,0,0,0,0,0,0,-1,1308,757,0,0
91,267,0,0,0,0,0,0,0,0,0,-1,1315,757,0,0
98,267,0,0,0,0,0,0,0,0,0,-1,1322,757,0,0
105,267,0,0,0,0,0,0,0,0,0,-1,1329,757,0,0
112,267,0,0,0,0,0,0,0,0,0,-1,1336,757,0,0
119,267,0,0,0,0,0,0,0,0,0,-1,1343,757,0,0
126,267,0,0,0,0,0,0,0,0,0,-1,1350,757,0,0
133,267,0,0,0,0,0,0,0,0,0,-1,1357,757,0,0
140,267,0,0,0,0,0,0,0,0,0,-1,1364,757,0,0
147,267,0,0,0,0,0,0,0,0,0,-1,1371,757,0,0
154,267,0,0,0,0,0,0,0,0,0,-1,1378,757,0,0
161,267,0,0,0,0,0,0,0,0,0,-1,1385,757,0,0
168,267,0,0,0,0,0,0,0,0,0,-1,1392,757,0,0
175,267,0,0,0,0,0,0,0,0,0,-1,1399,757,0,0
182,267,0,0,0,0,0,0,0,0,0,-1,1406,757,0,0
189,267,0,0,0,0,0,0,0,0,0,-1,1413,757,0,0
196,267,0,0,0,0,0,0,0,0,0,-1,1420,757,0,0
203,267,0,0,0,0,0,0,0,0,0,-1,1427,757,0,0
210,267,0,0,0,0,0,0,0,0,0,-1,1434,757,0,0
217,267,0,0,0,0,0,0,0,0,0,-1,1441,757,0,0
224,267,0,0,0,0,0,0,0,0,0,-1,1448,757,0,0
231,267,0,0,0,0,0,0,0,0,0,-1,1455,757,0,0
238,267,0,0,0,0,0,0,0,0,0,-1,1462,757,0,0
245,267,0,0,0,0,0,0,0,0,0,-1,1469,757,0,0
252,267,0,0,0,0,0,0,0,0,0,-1,1476,757,0,0
259,267,0,0,0,0,0,0,0,0,0,-1,1483,757,0,0
266,267,0,0,0,0,0,0,0,0,0,-1,1490,757,0,0
273,267,0,0,0,0,0,0,0,0,0,-1,1497,757,0,0
280,267,0,0,0,0,0,0,0,0,0,-1,1504,757,0,0
287,267,0,0,0,0,0,0,0,0,0,-1,1511,757,0,0
294,267,0,0,0,0,0,0,0,0,0,-1,1518,757,0,0
301,267,0,0,0,0,0,0,0,0,0,-1,1525,757,0,0
308,267,0,0,0,0,0,0,0,0,0,-1,1532,757,0,0
315,267,0,0,0,0,0,0,0,0,0,-1,1539,757,0,0
322,267,0,0,0,0,0,0,0,0,0,-1,1546,757,0,0
329,267,0,0,0,0,0,0,0,0,0,-1,1553,757,0,0
336,267,0,0,0,0,0,0,0,0,0,-1,1560,757,0,0
343,267,0,0,0,0,0,0,0,0,0,-1,1567,757,0,0
350,267,0,0,0,0,0,0,0,0,0,-1,1574,757,0,0
357,267,0,0,0,0,0,0,0,0,0,-1,1581,757,0,0
364,267,0,0,0,0,0,0,0,0,0,-1,1588,757,0,0
371,267,0,0,0,0,0,0,0,0,0,-1,1595,757,0,0
378,267,0,0,0,0,0,0,0,0,0,-1,1602,757,0,0
385,267,0,0,0,0,0,0,0,0,0,-1,1609,757,0,0
392,267,0,0,0,0,0,0,0,0,0,-1,1616,757,0,0
399,267,0,0,0,0,0,0,0,0,0,-1,1623,757,0,0
406,267,0,0,0,0,0,0,0,0,0,-1,1630,757,0,0
413,267,0,0,0,0,0,0,0,0,0,-1,1637,757,0,0
420,267,0,0,0,0,0,0,0,0,0,-1,1644,757,0,0
427,267,0,0,0,0,0,0,0,0,0,-1,1651,757,0,0
434,267,0,0,0,0,0,0,0,0,0,-1,1658,757,0,0
441,267,0,0,0,0,0,0,0,0,0,-1,1665,757,0,0
448,267,0,0,0,0,0,0,0,0,0,-1,1672,757,0,0
455,267,0,0,0,0,0,0,0,0,0,-1,1679,757,0,0
462,267,0,0,0,0,0,0,0,0,0,-1,1686,757,0,0
469,267,0,0,0,0,0,0,0,0,0,-1,1693,757,0,0
476,267,0,0,0,0,0,0,0,0,0,-1,1700,757,0,0
483,267,0,0,0,0,0,0,0,0,0,-1,1707,757,0,0
490,267,0,0,0,0,0,0,0,0,0,-1,1714,757,0,0
497,267,0,0,0,0,0,0,0,0,0,-1,1721,757,0,0
504,267,0,0,0,0,0,0,0,0,0,-1,1728,757,0,0
511,267,0,0,0,0,0,0,0,0,0,-1,1735,757,0,0
518,267,0,0,0,0,0,0,0,0,0,-1,1742,757,0,0
525,267,0,0,0,0,0,0,0,0,0,-1,1749,757,0,0
532,267,0,0,0,0,0,0,0,0,0,-1,1756,757,0,0
539,267,0,0,0,0,0,0,0,0,0,-1,1763,757,0,0
546,267,0,0,0,0,0,0,0,0,0,-1,1770,757,0,0
553,267,0,0,0,0,0,0,0,0,0,-1,1777,757,0,0
560,267,0,0,0,0,0,0,0,0,0,-1,1784,757,0,0
567,267,-0.0778809,0.148254,-0.0107808,0.0240065,-0.00159322,0.0240793,-0.0108536,-1.52512,0.0206447,0.0329208,1791,757,-0.0778998,-0.148282
574,267,-0.0931396,0.0752563,-0.00431793,0.0228082,4.70432e-05,0.0228083,-0.00431801,1.56906,0.0168305,0.0382916,1798,757,-0.0930798,-0.0752771
581,267,0.0224609,0.0166016,9.71749e-05,0.0196961,0.000658892,0.0197182,7.50478e-05,1.53723,0.0131205,0.0394078,1805,757,0.0225051,-0.0166262
588,267,-3.40979,1.49811,0,0,0,0,0,0,0,-1,1812,757,-3.40985,-1.49813
595,267,-3.15039,1.70667,0,0,0,0,0,0,0,-1,1819,757,-3.15034,-1.70667
602,267,-2.72522,1.49481,0.00683685,0.00921788,0.00115712,0.00968756,0.00636717,1.18521,0.00568457,0.0460844,1826,757,-2.72517,-1.49482
609,267,-1.87952,1.47351,0.00740984,0.00687715,0.00129476,0.00846536,0.00582162,0.683957,0.00500096,0.0425114,1833,757,-1.87957,-1.47352
616,267,-0.422729,0.904419,0,0,0,0,0,0,0,-1,1840,757,-0.422743,-0.904416
623,267,0.375732,-0.306152,0,0,0,0,0,0,0,-1,1847,757,0.375767,0.306138
630,267,1.17432,-1.51666,0,0,0,0,0,0,0,-1,1854,757,1.17428,1.51669
637,267,-0.121582,0.0602417,0.0066777,-0.000380748,0.000928854,0.00679789,-0.000500933,0.128677,0.00470779,0.0245601,1861,757,-0.121618,-0.0602671
644,267,-0.0566406,0.0579834,0.00568868,0.000268847,0.000678603,0.00577235,0.000185173,0.122685,0.00378802,0.0114607,1868,757,-0.0566455,-0.0579659
651,267,-0.057251,0.0409546,0.00508032,0.000390531,0.000574245,0.00514961,0.000321241,0.120082,0.00333116,0.0137958,1875,757,-0.0572045,-0.0409396
658,267,-0.0505371,0.0680542,0.00383945,-3.831e-06,0.000544103,0.003915,-7.9376e-05,0.137961,0.00263685,0.0137387,1882,757,-0.0505573,-0.0680829
665,267,-0.0523682,0.0960083,0.00247456,0.000655482,1.19599e-07,0.00247456,0.000655482,6.57473e-05,0.0014804,0.0134026,1889,757,-0.0523436,-0.0960195
672,267,-0.0418701,0.0719604,0.00265603,0.00073183,-4.53596e-05,0.0026571,0.000730761,-0.0235558,0.001585,0.0116744,1896,757,-0.0418284,-0.0719581
679,267,-0.0413818,0.0587158,0.00335982,0.000605701,0.000424673,0.00342382,0.000541705,0.149568,0.00212512,0.0124301,1903,757,-0.0414121,-0.0587231
686,267,-0.0300293,0.072937,0.00420666,0.00116202,0.000773183,0.00439176,0.000976927,0.234973,0.00266262,0.01141,1910,757,-0.0300555,-0.0729567
693,267,-0.0230713,0.0820313,0.00493587,0.001635,0.000981713,0.00520577,0.0013651,0.268301,0.00311678,0.0107518,1917,757,-0.0231308,-0.082054
700,267,-0.0455322,0.0908203,0.00649846,0.00244788,0.00175642,0.00715399,0.00179234,0.35721,0.0042983,0.0127824,1924,757,-0.0455349,-0.0908196
707,267,-0.0689697,0.0728149,0.00876211,0.00307442,0.00271721,0.00985154,0.00198498,0.381315,0.00601619,0.0133753,1931,757,-0.0689217,-0.0728087
714,267,-0.0270996,-0.0401001,0.0117275,0.00395424,0.004108,0.0134961,0.00218565,0.40654,0.00836459,0.0271792,1938,757,-0.0271266,0.0400948
721,267,0.00646973,-0.202942,0.015304,0.00490852,0.00598453,0.0180329,0.00217966,0.427821,0.0113653,0.0447744,1945,757,0.0064905,0.202964
728,267,0.929565,-0.0160522,0,0,0,0,0,0,0,-1,1952,757,0.929566,0.016056
735,267,0.95752,0.513733,0.0242195,0.00672057,0.0114899,0.029912,0.00102809,0.459989,0.0196076,0.0466302,1959,757,0.957461,-0.513757
742,267,0.833496,0.221008,0.0293645,0.00730065,0.0152624,0.0371645,-0.000499384,0.472459,0.0249445,0.0476766,1966,757,0.833464,-0.220999
749,267,0,0,0,0,0,0,0,0,0,-1,1973,757,0,0
756,267,0,0,0,0,0,0,0,0,0,-1,1980,757,0,0
763,267,0,0,0,0,0,0,0,0,0,-1,1987,757,0,0
770,267,0,0,0,0,0,0,0,0,0,-1,1994,757,0,0
777,267,0,0,0,0,0,0,0,0,0,-1,2001,757,0,0
784,267,0,0,0,0,0,0,0,0,0,-1,2008,757,0,0
791,267,0,0,0,0,0,0,0,0,0,-1,2015,757,0,0
798,267,0,0,0,0,0,0,0,0,0,-1,2022,757,0,0
805,267,0,0,0,0,0,0,0,0,0,-1,2029,757,0,0
812,267,0,0,0,0,0,0,0,0,0,-1,2036,757,0,0
-700,260,0,0,0,0,0,0,0,0,0,-1,524,764,0,0
-693,260,0,0,0,0,0,0,0,0,0,-1,531,764,0,0
-686,260,0,0,0,0,0,0,0,0,0,-1,538,764,0,0
-679,260,0,0,0,0,0,0,0,0,0,-1,545,764,0,0
-672,260,0,0,0,0,0,0,0,0,0,-1,552,764,0,0
-665,260,0,0,0,0,0,0,0,0,0,-1,559,764,0,0
-658,260,0,0,0,0,0,0,0,0,0,-1,566,764,0,0
-651,260,0,0,0,0,0,0,0,0,0,-1,573,764,0,0
-644,260,0,0,0,0,0,0,0,0,0,-1,580,764,0,0
-637,260,0,0,0,0,0,0,0,0,0,-1,587,764,0,0
-630,260,-0.0322876,0.0786133,0.0471473,0.0298449,0.00970595,0.051498,0.0254942,0.421395,0.0297329,0.0456667,594,764,-0.0322759,-0.0786123
-623,260,-0.0834961,0.238586,0.0424455,0.0299394,0.000850437,0.0425031,0.0298818,0.0675868,0.0252046,0.0414854,601,764,-0.083495,-0.238558
-616,260,0.0973511,0.328308,0.0367181,0.0287243,-0.00551265,0.0395303,0.025912,-0.47173,0.0231878,0.0417306,608,764,0.0973643,-0.328329
-609,260,0.534241,0.402771,0.0308261,0.0266349,-0.00963868,0.0385943,0.0188666,-0.678357,0.0222843,0.0408824,615,764,0.534244,-0.402749
-602,260,-0.17688,0.485352,0,0,0,0,0,0,0,-1,622,764,-0.176856,-0.485327
-595,260,0.193542,-0.259766,0,0,0,0,0,0,0,-1,629,764,0.19352,0.259763
-588,260,0.101501,-0.0747681,0.0151961,0.0175076,-0.0127175,0.0291217,0.00358191,-0.830713,0.0183375,0.040574,636,764,0.101493,0.0747867
-581,260,0.0131226,0.0879517,0.0115127,0.0142311,-0.0117886,0.0247386,0.00100524,-0.842794,0.0161677,0.0196892,643,764,0.0131525,-0.0879641
-574,260,-0.0618896,0.0661621,0.00793709,0.0110735,-0.0113194,0.0209328,-0.00192226,-0.85423,0.0146381,0.0134165,650,764,-0.0618732,-0.06616
-567,260,-0.053772,0.109741,0.0048813,0.00903861,-0.00944605,0.016632,-0.0027121,-0.8937,0.0120938,0.0151467,657,764,-0.0537508,-0.109713
-560,260,-0.0127563,0.109192,0.00279176,0.00641557,-0.00734112,0.0121651,-0.00295775,-0.906388,0.00925488,0.0179813,664,764,-0.0127613,-0.10922
-553,260,-0.0181885,0.0913696,0.000937163,0.00412424,-0.00554629,0.00830138,-0.00323997,-0.925288,0.00687367,0.0161563,671,764,-0.0181895,-0.0913766
-546,260,-0.0344238,0.0923462,-0.000615853,0.00251526,-0.00408034,0.00532007,-0.00342066,-0.968579,0.00508603,0.0107076,678,764,-0.0344033,-0.0923513
-539,260,-0.0297241,0.0948486,-0.00161904,0.00166757,-0.00270407,0.00318851,-0.00313998,-1.05843,0.00365379,0.0106139,685,764,-0.0297534,-0.0948462
-532,260,-0.0263672,0.0965576,-0.00161042,0.00199366,-0.00148605,0.00252736,-0.00214412,-1.226,0.0027001,0.0116374,692,764,-0.0263949,-0.0965331
-525,260,-0.0325928,0.0888672,-0.00119145,0.00321923,-0.000135601,0.00322339,-0.00119561,-1.54009,0.00263933,0.0109489,699,764,-0.0325826,-0.088861
-518,260,-0.0371094,0.0722046,-0.000403038,0.00495157,0.000868894,0.00508904,-0.000540505,1.41389,0.00358646,0.0116191,706,764,-0.0371288,-0.0722239
-511,260,-0.0169067,0.0628052,0.000322407,0.00636273,0.00182498,0.0068713,-0.000186159,1.29902,0.00464416,0.0176579,713,764,-0.0168941,-0.0627852
-504,260,-0.00537109,-0.00628662,0.00106565,0.00799514,0.00304547,0.00914335,-8.25552e-05,1.21025,0.00612327,0.032585,720,764,-0.00534946,0.00631275
-497,260,-0.012207,-0.0795288,0.00177064,0.00969081,0.00436413,0.0116238,-0.000162318,1.15385,0.00780384,0.0467505,727,764,-0.0122056,0.0795551
-490,260,-1.54877,-1.05231,0,0,0,0,0,0,0,-1,734,764,-1.54876,1.05228
-483,260,-0.806274,-0.801758,0.00259093,0.0111416,0.00779717,0.0157586,-0.00202612,1.03617,0.0112421,0.0426659,741,764,-0.806285,0.801756
-476,260,-0.122742,-0.572266,0.00197891,0.010802,0.00938368,0.0167594,-0.00397849,1.00513,0.0127084,0.040915,748,764,-0.122763,0.572268
-469,260,0.550354,0.348694,-0.000354934,0.00885997,0.0104665,0.0156882,-0.0071832,0.99274,0.0135057,0.0455054,755,764,0.550334,-0.348686
-462,260,1.43585,1.6983,0,0,0,0,0,0,0,-1,762,764,1.43585,-1.69831
-455,260,-0.0637817,-0.0180664,0,0,0,0,0,0,0,-1,769,764,-0.0637824,0.0180556
-448,260,0,0,0,0,0,0,0,0,0,-1,776,764,0,0
-441,260,0,0,0,0,0,0,0,0,0,-1,783,764,0,0
-434,260,0,0,0,0,0,0,0,0,0,-1,790,764,0,0
-427,260,0,0,0,0,0,0,0,0,0,-1,797,764,0,0
-420,260,0,0,0,0,0,0,0,0,0,-1,804,764,0,0
-413,260,0,0,0,0,0,0,0,0,0,-1,811,764,0,0
-406,260,0,0,0,0,0,0,0,0,0,-1,818,764,0,0
-399,260,0,0,0,0,0,0,0,0,0,-1,825,764,0,0
-392,260,0,0,0,0,0,0,0,0,0,-1,832,764,0,0
-385,260,0,0,0,0,0,0,0,0,0,-1,839,764,0,0
-378,260,0,0,0,0,0,0,0,0,0,-1,846,764,0,0
-371,260,0,0,0,0,0,0,0,0,0,-1,853,764,0,0
-364,260,0,0,0,0,0,0,0,0,0,-1,860,764,0,0
-357,260,0,0,0,0,0,0,0,0,0,-1,867,764,0,0
-350,260,0,0,0,0,0,0,0,0,0,-1,874,764,0,0
-343,260,0,0,0,0,0,0,0,0,0,-1,881,764,0,0
-336,260,0,0,0,0,0,0,0,0,0,-1,888,764,0,0
-329,260,0,0,0,0,0,0,0,0,0,-1,895,764,0,0
-322,260,0,0,0,0,0,0,0,0,0,-1,902,764,0,0
-315,260,0,0,0,0,0,0,0,0,0,-1,909,764,0,0
-308,260,0,0,0,0,0,0,0,0,0,-1,916,764,0,0
-301,260,0,0,0,0,0,0,0,0,0,-1,923,764,0,0
-294,260,0,0,0,0,0,0,0,0,0,-1,930,764,0,0
-287,260,0,0,0,0,0,0,0,0,0,-1,937,764,0,0
-280,260,0,0,0,0,0,0,0,0,0,-1,944,764,0,0
-273,260,0,0,0,0,0,0,0,0,0,-1,951,764,0,0
-266,260,0,0,0,0,0,0,0,0,0,-1,958,764,0,0
-259,260,0,0,0,0,0,0,0,0,0,-1,965,764,0,0
-252,260,0,0,0,0,0,0,0,0,0,-1,972,764,0,0
-245,260,0,0,0,0,0,0,0,0,0,-1,979,764,0,0
-238,260,0,0,0,0,0,0,0,0,0,-1,986,764,0,0
-231,260,0,0,0,0,0,0,0,0,0,-1,993,764,0,0
-224,260,0,0,0,0,0,0,0,0,0,-1,1000,764,0,0
-217,260,0,0,0,0,0,0,0,0,0,-1,1007,764,0,0
-210,260,0,0,0,0,0,0,0,0,0,-1,1014,764,0,0
-203,260,0,0,0,0,0,0,0,0,0,-1,1021,764,0,0
-196,260,0,0,0,0,0,0,0,0,0,-1,1028,764,0,0
-189,260,0,0,0,0,0,0,0,0,0,-1,1035,764,0,0
-182,260,0,0,0,0,0,0,0,0,0,-1,1042,764,0,0
-175,260,0,0,0,0,0,0,0,0,0,-1,1049,764,0,0
-168,260,0,0,0,0,0,0,0,0,0,-1,1056,764,0,0
-161,260,0,0,0,0,0,0,0,0,0,-1,1063,764,0,0
-154,260,0,0,0,0,0,0,0,0,0,-1,1070,764,0,0
-147,260,0,0,0,0,0,0,0,0,0,-1,1077,764,0,0
-140,260,0,0,0,0,0,0,0,0,0,-1,1084,764,0,0
-133,260,0,0,0,0,0,0,0,0,0,-1,1091,764,0,0
-126,260,0,0,0,0,0,0,0,0,0,-1,1098,764,0,0
-119,260,0,0,0,0,0,0,0,0,0,-1,1105,764,0,0
-112,260,0,0,0,0,0,0,0,0,0,-1,1112,764,0,0
-105,260,0,0,0,0,0,0,0,0,0,-1,1119,764,0,0
-98,260,0,0,0,0,0,0,0,0,0,-1,1126,764,0,0
-91,260,0,0,0,0,0,0,0,0,0,-1,1133,764,0,0
-84,260,0,0,0,0,0,0,0,0,0,-1,1140,764,0,0
-77,260,0,0,0,0,0,0,0,0,0,-1,1147,764,0,0
-70,260,0,0,0,0,0,0,0,0,0,-1,1154,764,0,0
-63,260,0,0,0,0,0,0,0,0,0,-1,1161,764,0,0
-56,260,0,0,0,0,0,0,0,0,0,-1,1168,764,0,0
-49,260,0,0,0,0,0,0,0,0,0,-1,1175,764,0,0
-42,260,0,0,0,0,0,0,0,0,0,-1,1182,764,0,0
-35,260,0,0,0,0,0,0,0,0,0,-1,1189,764,0,0
-28,260,0,0,0,0,0,0,0,0,0,-1,1196,764,0,0
-21,260,0,0,0,0,0,0,0,0,0,-1,1203,764,0,0
-14,260,0,0,0,0,0,0,0,0,0,-1,1210,764,0,0
-7,260,0,0,0,0,0,0,0,0,0,-1,1217,764,0,0
0,260,0,0,0,0,0,0,0,0,0,-1,1224,764,0,0
7,260,0,0,0,0,0,0,0,0,0,-1,1231,764,0,0
14,260,0,0,0,0,0,0,0,0,0,-1,1238,764,0,0
21,260,0,0,0,0,0,0,0,0,0,-1,1245,764,0,0
28,260,0,0,0,0,0,0,0,0,0,-1,1252,764,0,0
35,260,0,0,0,0,0,0,0,0,0,-1,1259,764,0,0
42,260,0,0,0,0,0,0,0,0,0,-1,1266,764,0,0
49,260,0,0,0,0,0,0,0,0,0,-1,1273,764,0,0
56,260,0,0,0,0,0,0,0,0,0,-1,1280,764,0,0
63,260,0,0,0,0,0,0,0,0,0,-1,1287,764,0,0
70,260,0,0,0,0,0,0,0,0,0,-1,1294,764,0,0
77,260,0,0,0,0,0,0,0,0,0,-1,1301,764,0,0
84,260,0,0,0,0,0,0,0,0,0,-1,1308,764,0,0
91,260,0,0,0,0,0,0,0,0,0,-1,1315,764,0,0
98,260,0,0,0,0,0,0,0,0,0,-1,1322,764,0,0
105,260,0,0,0,0,0,0,0,0,0,-1,1329,764,0,0
112,260,0,0,0,0,0,0,0,0,0,-1,1336,764,0,0
119,260,0,0,0,0,0,0,0,0,0,-1,1343,764,0,0
126,260,0,0,0,0,0,0,0,0,0,-1,1350,764,0,0
133,260,0,0,0,0,0,0,0,0,0,-1,1357,764,0,0
140,260,0,0,0,0,0,0,0,0,0,-1,1364,764,0,0
147,260,0,0,0,0,0,0,0,0,0,-1,1371,764,0,0
154,260,0,0,0,0,0,0,0,0,0,-1,1378,764,0,0
161,260,0,0,0,0,0,0,0,0,0,-1,1385,764,0,0
168,260,0,0,0,0,0,0,0,0,0,-1,1392,764,0,0
175,260,0,0,0,0,0,0,0,0,0,-1,1399,764,0,0
182,260,0,0,0,0,0,0,0,0,0,-1,1406,764,0,0
189,260,0,0,0,0,0,0,0,0,0,-1,1413,764,0,0
196,260,0,0,0,0,0,0,0,0,0,-1,1420,764,0,0
203,260,0,0,0,0,0,0,0,0,0,-1,1427,764,0,0
210,260,0,0,0,0,0,0,0,0,0,-1,1434,764,0,0
217,260,0,0,0,0,0,0,0,0,0,-1,1441,764,0,0
224,260,0,0,0,0,0,0,0,0,0,-1,1448,764,0,0
231,260,0,0,0,0,0,0,0,0,0,-1,1455,764,0,0
238,260,0,0,0,0,0,0,0,0,0,-1,1462,764,0,0
245,260,0,0,0,0,0,0,0,0,0,-1,1469,764,0,0
252,260,0,0,0,0,0,0,0,0,0,-1,1476,764,0,0
259,260,0,0,0,0,0,0,0,0,0,-1,1483,764,0,0
266,260,0,0,0,0,0,0,0,0,0,-1,1490,764,0,0
273,260,0,0,0,0,0,0,0,0,0,-1,1497,764,0,0
280,260,0,0,0,0,0,0,0,0,0,-1,1504,764,0,0
287,260,0,0,0,0,0,0,0,0,0,-1,1511,764,0,0
294,260,0,0,0,0,0,0,0,0,0,-1,1518,764,0,0
301,260,0,0,0,0,0,0,0,0,0,-1,1525,764,0,0
308,260,0,0,0,0,0,0,0,0,0,-1,1532,764,0,0
315,260,0,0,0,0,0,0,0,0,0,-1,1539,764,0,0
322,260,0,0,0,0,0,0,0,0,0,-1,1546,764,0,0
329,260,0,0,0,0,0,0,0,0,0,-1,1553,764,0,0
336,260,0,0,0,0,0,0,0,0,0,-1,1560,764,0,0
343,260,0,0,0,0,0,0,0,0,0,-1,1567,764,0,0
350,260,0,0,0,0,0,0,0,0,0,-1,1574,764,0,0
357,260,0,0,0,0,0,0,0,0,0,-1,1581,764,0,0
364,260,0,0,0,0,0,0,0,0,0,-1,1588,764,0,0
371,260,0,0,0,0,0,0,0,0,0,-1,1595,764,0,0
378,260,0,0,0,0,0,0,0,0,0,-1,1602,764,0,0
385,260,0,0,0,0,0,0,0,0,0,-1,1609,764,0,0
392,260,0,0,0,0,0,0,0,0,0,-1,1616,764,0,0
399,260,0,0,0,0,0,0,0,0,0,-1,1623,764,0,0
406,260,0,0,0,0,0,0,0,0,0,-1,1630,764,0,0
413,260,0,0,0,0,0,0,0,0,0,-1,1637,764,0,0
420,260,0,0,0,0,0,0,0,0,0,-1,1644,764,0,0
427,260,0,0,0,0,0,0,0,0,0,-1,1651,764,0,0
434,260,0,0,0,0,0,0,0,0,0,-1,1658,764,0,0
441,260,0,0,0,0,0,0,0,0,0,-1,1665,764,0,0
448,260,0,0,0,0,0,0,0,0,0,-1,1672,764,0,0
455,260,0,0,0,0,0,0,0,0,0,-1,1679,764,0,0
462,260,0,0,0,0,0,0,0,0,0,-1,1686,764,0,0
469,260,0,0,0,0,0,0,0,0,0,-1,1693,764,0,0
476,260,0,0,0,0,0,0,0,0,0,-1,1700,764,0,0
483,260,0,0,0,0,0,0,0,0,0,-1,1707,764,0,0
490,260,0,0,0,0,0,0,0,0,0,-1,1714,764,0,0
497,260,0,0,0,0,0,0,0,0,0,-1,1721,764,0,0
504,260,0,0,0,0,0,0,0,0,0,-1,1728,764,0,0
511,260,0,0,0,0,0,0,0,0,0,-1,1735,764,0,0
518,260,0,0,0,0,0,0,0,0,0,-1,1742,764,0,0
525,260,0,0,0,0,0,0,0,0,0,-1,1749,764,0,0
532,260,0,0,0,0,0,0,0,0,0,-1,1756,764,0,0
539,260,0,0,0,0,0,0,0,0,0,-1,1763,764,0,0
546,260,0,0,0,0,0,0,0,0,0,-1,1770,764,0,0
553,260,0,0,0,0,0,0,0,0,0,-1,1777,764,0,0
560,260,0,0,0,0,0,0,0,0,0,-1,1784,764,0,0
567,260,0,0,0,0,0,0,0,0,0,-1,1791,764,0,0
574,260,-0.0578613,0.088501,-0.00639873,0.0188517,-0.000650969,0.0188685,-0.0064155,-1.54504,0.0151764,0.0337116,1798,764,-0.0578859,-0.088499
581,260,0.0202637,-0.00305176,-0.0019326,0.01751,0.000186898,0.0175118,-0.00193439,1.56118,0.0123698,0.0359591,1805,764,0.0202547,0.00306552
588,260,0.184448,-0.0493774,0.00135959,0.0148634,0.000579439,0.0148882,0.00133478,1.52799,0.0095118,0.0409976,1812,764,0.184397,0.0493737
595,260,0.110107,0.0622559,0.00377669,0.0120031,0.000816477,0.0120833,0.00369644,1.47282,0.00714937,0.042463,1819,764,0.110147,-0.062253
602,260,-3.36133,2.38477,0.00527195,0.00936215,0.000883174,0.0095447,0.0050894,1.36697,0.00551469,0.0440452,1826,764,-3.36134,-2.38474
609,260,-2.63208,2.11639,0.00607591,0.00726123,0.00101505,0.00784397,0.00549316,1.04964,0.00464827,0.0421281,1833,764,-2.63213,-2.1164
616,260,-1.81274,1.8576,0,0,0,0,0,0,0,-1,1840,764,-1.81271,-1.85762
623,260,0.276489,-0.579407,0,0,0,0,0,0,0,-1,1847,764,0.276456,0.579415
630,260,-0.777832,-0.268127,0,0,0,0,0,0,0,-1,1854,764,-0.777865,0.268158
637,260,-0.369141,-0.0375366,0.00603102,0.000527268,0.000730321,0.00612628,0.000432007,0.129705,0.00394807,0.0419321,1861,764,-0.36911,0.037512
644,260,-0.0418701,0.0689697,0.00528198,0.000972253,0.000496585,0.00533846,0.000915775,0.113247,0.00329639,0.0218934,1868,764,-0.0419113,-0.0689887
651,260,-0.0286865,0.0531006,0.00491021,0.000927202,0.000341556,0.00493929,0.000898125,0.084927,0.00303806,0.0125846,1875,764,-0.0286382,-0.0530907
658,260,-0.0406494,0.0762329,0.00383789,0.000344008,0.000360311,0.00387466,0.000307237,0.1017,0.00248703,0.0144336,1882,764,-0.0406334,-0.0762161
665,260,-0.0411377,0.0783081,0.00251994,0.000941337,-0.000114176,0.00252815,0.000933122,-0.0718292,0.00147621,0.0141723,1889,764,-0.0411938,-0.0783382
672,260,-0.0437012,0.074646,0.0026646,0.000849125,-0.000105792,0.00267075,0.000842981,-0.0580107,0.00157651,0.0128451,1896,764,-0.0437098,-0.0746684
679,260,-0.060791,0.0657349,0.00325722,0.000600678,0.000356085,0.00330413,0.000553776,0.130961,0.00204333,0.0123072,1903,764,-0.0608028,-0.0657412
686,260,-0.0356445,0.0667114,0.00385346,0.0009962,0.000625824,0.00398452,0.000865138,0.20644,0.00242008,0.011091,1910,764,-0.0356581,-0.0666824
693,260,-0.0270996,0.072937,0.00427466,0.00129065,0.000686086,0.00442485,0.00114046,0.215504,0.00265276,0.0109296,1917,764,-0.0271309,-0.0729642
700,260,-0.0623779,0.0891724,0.00549109,0.00180368,0.00128764,0.00589622,0.00139855,0.304824,0.00355748,0.0114026,1924,764,-0.0624368,-0.089178
707,260,-0.0838623,0.0807495,0.00734966,0.00195151,0.00199304,0.00800576,0.00129541,0.318023,0.00496206,0.0126893,1931,764,-0.0838061,-0.0807627
714,260,-0.0256348,0.0690918,0.00983191,0.00237835,0.00301925,0.0109015,0.0013088,0.34045,0.00687303,0.023264,1938,764,-0.0256648,-0.0691216
721,260,0.210205,-0.0360107,0.0128373,0.00266281,0.00437803,0.0144617,0.00103833,0.355306,0.00931436,0.0422389,1945,764,0.210234,0.0360266
728,260,0.470703,0.0428467,0.0163163,0.00282101,0.00616322,0.0187074,0.000429952,0.370081,0.0123308,0.0459288,1952,764,0.470718,-0.0428568
735,260,0.774048,0.433044,0,0,0,0,0,0,0,-1,1959,764,0.774108,-0.433034
742,260,0.58667,0.31012,0.0245613,0.00209233,0.01114,0.0291481,-0.00249443,0.390586,0.0203147,0.0447945,1966,764,0.586657,-0.310126
749,260,0.945679,0.13031,0.0289627,0.000805034,0.0143914,0.0350166,-0.00524885,0.398188,0.0252763,0.043941,1973,764,0.945688,-0.130282
756,260,0,0,0,0,0,0,0,0,0,-1,1980,764,0,0
763,260,0,0,0,0,0,0,0,0,0,-1,1987,764,0,0
770,260,0,0,0,0,0,0,0,0,0,-1,1994,764,0,0
777,260,0,0,0,0,0,0,0,0,0,-1,2001,764,0,0
784,260,0,0,0,0,0,0,0,0,0,-1,2008,764,0,0
791,260,0,0,0,0,0,0,0,0,0,-1,2015,764,0,0
798,260,0,0,0,0,0,0,0,0,0,-1,2022,764,0,0
805,260,0,0,0,0,0,0,0,0,0,-1,2029,764,0,0
812,260,0,0,0,0,0,0,0,0,0,-1,2036,764,0,0
-700,253,0,0,0,0,0,0,0,0,0,-1,524,771,0,0
-693,253,0,0,0,0,0,0,0,0,0,-1,531,771,0,0
-686,253,0,0,0,0,0,0,0,0,0,-1,538,771,0,0
-679,253,0,0,0,0,0,0,0,0,0,-1,545,771,0,0
-672,253,0,0,0,0,0,0,0,0,0,-1,552,771,0,0
-665,253,0,0,0,0,0,0,0,0,0,-1,559,771,0,0
-658,253,0,0,0,0,0,0,0,0,0,-1,566,771,0,0
-651,253,0,0,0,0,0,0,0,0,0,-1,573,771,0,0
-644,253,0,0,0,0,0,0,0,0,0,-1,580,771,0,0
-637,253,0.46167,-0.317993,0.0511851,0.0206281,0.0373812,0.0762896,-0.0044764,0.591398,0.0524157,0.0468101,587,771,0.461694,0.317965
-630,253,0.440063,-0.315063,0.0455727,0.0228766,0.0244053,0.0611393,0.00731003,0.567777,0.0385545,0.0461098,594,771,0.440074,0.315077
-623,253,0.108765,-0.189758,0.0395774,0.0238114,0.0140972,0.047846,0.0155429,0.530462,0.0281832,0.044024,601,771,0.108737,0.189781
-616,253,-0.3078,0.000183105,0.0332993,0.0234009,0.00649821,0.0365184,0.0201818,0.459947,0.0211228,0.0440108,608,771,-0.307829,-0.000170611
-609,253,-0.000671387,0.441223,0,0,0,0,0,0,0,-1,615,771,-0.000678703,-0.441233
-602,253,-0.171692,0.331604,0.02172,0.020035,-0.00236108,0.0233844,0.0183706,-0.614029,0.0142162,0.043352,622,771,-0.1717,-0.331576
-595,253,-0.0764771,0.00421143,0.0167511,0.0175656,-0.00450269,0.0216794,0.0126373,-0.830502,0.0125739,0.0428867,629,771,-0.0764842,-0.00424163
-588,253,0.019104,0.0544434,0.0125048,0.0148597,-0.00554505,0.0193509,0.00801355,-0.890016,0.0112271,0.0347894,636,771,0.0190857,-0.0544219
-581,253,-0.0475464,0.0505371,0.009248,0.0121028,-0.00575613,0.0166058,0.00474491,-0.906934,0.00987646,0.0188264,643,771,-0.0475438,-0.0505185
-574,253,-0.0848389,0.0507202,0.0059478,0.00940627,-0.0064632,0.0143676,0.0009865,-0.916112,0.00926706,0.017138,650,771,-0.0848531,-0.0507233
-567,253,-0.0403442,0.0664673,0.00334944,0.00787348,-0.00563791,0.0116862,-0.000463305,-0.976175,0.00794975,0.0153679,657,771,-0.0403244,-0.0664963
-560,253,-0.00860596,0.0759888,0.00169351,0.00556176,-0.00431573,0.00835694,-0.00110167,-0.996058,0.00597248,0.0119813,664,771,-0.00862445,-0.0759732
-553,253,-0.0177612,0.0825195,0.000117833,0.00354457,-0.00338784,0.00562766,-0.00196526,-1.01951,0.00455059,0.0108875,671,771,-0.0177708,-0.0824947
-546,253,-0.024353,0.113403,-0.0012317,0.00224338,-0.00270936,0.00372448,-0.00271281,-1.07052,0.00373184,0.0095856,678,771,-0.0243778,-0.11343
-539,253,-0.0338135,0.0982056,-0.00213508,0.0016061,-0.00193069,0.00242376,-0.00295273,-1.17019,0.00310912,0.0102615,685,771,-0.0338223,-0.0981786
-532,253,-0.0405884,0.098938,-0.00216082,0.002037,-0.00118024,0.00234607,-0.00246989,-1.31467,0.00278081,0.0135245,692,771,-0.0405816,-0.0989107
-525,253,-0.0301514,0.0917358,-0.00187629,0.00331506,-0.000190341,0.00332203,-0.00188326,-1.5342,0.00304331,0.0113283,699,771,-0.0301376,-0.0917585
-518,253,-0.0362549,0.0925903,-0.00126868,0.00500449,0.000539919,0.00505062,-0.00131481,1.48556,0.00388032,0.0137593,706,771,-0.0362801,-0.0925971
-511,253,-0.0345459,0.103394,-0.00066868,0.00649294,0.00128058,0.00671504,-0.000890773,1.39907,0.00480124,0.0284534,713,771,-0.0345396,-0.10342
-504,253,0.0130615,-0.0166626,0.000136257,0.00827352,0.00234972,0.00890329,-0.000493509,1.30893,0.00610668,0.0382199,720,771,0.0130786,0.0166703
-497,253,-1.81305,-1.37939,0,0,0,0,0,0,0,-1,727,771,-1.81306,1.37941
-490,253,-1.14423,-1.33301,0,0,0,0,0,0,0,-1,734,771,-1.14424,1.33298
-483,253,-0.508728,-1.28015,0,0,0,0,0,0,0,-1,741,771,-0.508717,1.28014
-476,253,-0.172729,-1.37366,0,0,0,0,0,0,0,-1,748,771,-0.172703,1.37368
-469,253,0.308777,-0.378296,0,0,0,0,0,0,0,-1,755,771,0.308803,0.378321
-462,253,-0.0821533,-0.00177002,-0.00274796,0.00836642,0.00970382,0.0139916,-0.00837319,1.04544,0.0130475,0.0437785,762,771,-0.0821299,0.0017631
-455,253,-0.0210571,0.0457764,0,0,0,0,0,0,0,-1,769,771,-0.0210329,-0.0458049
-448,253,0,0,0,0,0,0,0,0,0,-1,776,771,0,0
-441,253,0,0,0,0,0,0,0,0,0,-1,783,771,0,0
-434,253,0,0,0,0,0,0,0,0,0,-1,790,771,0,0
-427,253,0,0,0,0,0,0,0,0,0,-1,797,771,0,0
-420,253,0,0,0,0,0,0,0,0,0,-1,804,771,0,0
-413,253,0,0,0,0,0,0,0,0,0,-1,811,771,0,0
-406,253,0,0,0,0,0,0,0,0,0,-1,818,771,0,0
-399,253,0,0,0,0,0,0,0,0,0,-1,825,771,0,0
-392,253,0,0,0,0,0,0,0,0,0,-1,832,771,0,0
-385,253,0,0,0,0,0,0,0,0,0,-1,839,771,0,0
-378,253,0,0,0,0,0,0,0,0,0,-1,846,771,0,0
-371,253,0,0,0,0,0,0,0,0,0,-1,853,771,0,0
-364,253,0,0,0,0,0,0,0,0,0,-1,860,771,0,0
-357,253,0,0,0,0,0,0,0,0,0,-1,867,771,0,0
-350,253,0,0,0,0,0,0,0,0,0,-1,874,771,0,0
-343,253,0,0,0,0,0,0,0,0,0,-1,881,771,0,0
-336,253,0,0,0,0,0,0,0,0,0,-1,888,771,0,0
-329,253,0,0,0,0,0,0,0,0,0,-1,895,771,0,0
-322,253,0,0,0,0,0,0,0,0,0,-1,902,771,0,0
-315,253,0,0,0,0,0,0,0,0,0,-1,909,771,0,0
-308,253,0,0,0,0,0,0,0,0,0,-1,916,771,0,0
-301,253,0,0,0,0,0,0,0,0,0,-1,923,771,0,0
-294,253,0,0,0,0,0,0,0,0,0,-1,930,771,0,0
-287,253,0,0,0,0,0,0,0,0,0,-1,937,771,0,0
-280,253,0,0,0,0,0,0,0,0,0,-1,944,771,0,0
-273,253,0,0,0,0,0,0,0,0,0,-1,951,771,0,0
-266,253,0,0,0,0,0,0,0,0,0,-1,958,771,0,0
-259,253,0,0,0,0,0,0,0,0,0,-1,965,771,0,0
-252,253,0,0,0,0,0,0,0,0,0,-1,972,771,0,0
-245,253,0,0,0,0,0,0,0,0,0,-1,979,771,0,0
-238,253,0,0,0,0,0,0,0,0,0,-1,986,771,0,0
-231,253,0,0,0,0,0,0,0,0,0,-1,993,771,0,0
-224,253,0,0,0,0,0,0,0,0,0,-1,1000,771,0,0
-217,253,0,0,0,0,0,0,0,0,0,-1,1007,771,0,0
-210,253,0,0,0,0,0,0,0,0,0,-1,1014,771,0,0
-203,253,0,0,0,0,0,0,0,0,0,-1,1021,771,0,0
-196,253,0,0,0,0,0,0,0,0,0,-1,1028,771,0,0
-189,253,0,0,0,0,0,0,0,0,0,-1,1035,771,0,0
-182,253,0,0,0,0,0,0,0,0,0,-1,1042,771,0,0
-175,253,0,0,0,0,0,0,0,0,0,-1,1049,771,0,0
-168,253,0,0,0,0,0,0,0,0,0,-1,1056,771,0,0
-161,253,0,0,0,0,0,0,0,0,0,-1,1063,771,0,0
-154,253,0,0,0,0,0,0,0,0,0,-1,1070,771,0,0
-147,253,0,0,0,0,0,0,0,0,0,-1,1077,771,0,0
-140,253,0,0,0,0,0,0,0,0,0,-1,1084,771,0,0
-133,253,0,0,0,0,0,0,0,0,0,-1,1091,771,0,0
-126,253,0,0,0,0,0,0,0,0,0,-1,1098,771,0,0
-119,253,0,0,0,0,0,0,0,0,0,-1,1105,771,0,0
-112,253,0,0,0,0,0,0,0,0,0,-1,1112,771,0,0
-105,253,0,0,0,0,0,0,0,0,0,-1,1119,771,0,0
-98,253,0,0,0,0,0,0,0,0,0,-1,1126,771,0,0
-91,253,0,0,0,0,0,0,0,0,0,-1,1133,771,0,0
-84,253,0,0,0,0,0,0,0,0,0,-1,1140,771,0,0
-77,253,0,0,0,0,0,0,0,0,0,-1,1147,771,0,0
-70,253,0,0,0,0,0,0,0,0,0,-1,1154,771,0,0
-63,253,0,0,0,0,0,0,0,0,0,-1,1161,771,0,0
-56,253,0,0,0,0,0,0,0,0,0,-1,1168,771,0,0
-49,253,0,0,0,0,0,0,0,0,0,-1,1175,771,0,0
-42,253,0,0,0,0,0,0,0,0,0,-1,1182,771,0,0
-35,253,0,0,0,0,0,0,0,0,0,-1,1189,771,0,0
-28,253,0,0,0,0,0,0,0,0,0,-1,1196,771,0,0
-21,253,0,0,0,0,0,0,0,0,0,-1,1203,771,0,0
-14,253,0,0,0,0,0,0,0,0,0,-1,1210,771,0,0
-7,253,0,0,0,0,0,0,0,0,0,-1,1217,771,0,0
0,253,0,0,0,0,0,0,0,0,0,-1,1224,771,0,0
7,253,0,0,0,0,0,0,0,0,0,-1,1231,771,0,0
14,253,0,0,0,0,0,0,0,0,0,-1,1238,771,0,0
21,253,0,0,0,0,0,0,0,0,0,-1,1245,771,0,0
28,253,0,0,0,0,0,0,0,0,0,-1,1252,771,0,0
35,253,0,0,0,0,0,0,0,0,0,-1,1259,771,0,0
42,253,0,0,0,0,0,0,0,0,0,-1,1266,771,0,0
49,253,0,0,0,0,0,0,0,0,0,-1,1273,771,0,0
56,253,0,0,0,0,0,0,0,0,0,-1,1280,771,0,0
63,253,0,0,0,0,0,0,0,0,0,-1,1287,771,0,0
70,253,0,0,0,0,0,0,0,0,0,-1,1294,771,0,0
77,253,0,0,0,0,0,0,0,0,0,-1,1301,771,0,0
84,253,0,0,0,0,0,0,0,0,0,-1,1308,771,0,0
91,253,0,0,0,0,0,0,0,0,0,-1,1315,771,0,0
98,253,0,0,0,0,0,0,0,0,0,-1,1322,771,0,0
105,253,0,0,0,0,0,0,0,0,0,-1,1329,771,0,0
112,253,0,0,0,0,0,0,0,0,0,-1,1336,771,0,0
119,253,0,0,0,0,0,0,0,0,0,-1,1343,771,0,0
126,253,0,0,0,0,0,0,0,0,0,-1,1350,771,0,0
133,253,0,0,0,0,0,0,0,0,0,-1,1357,771,0,0
140,253,0,0,0,0,0,0,0,0,0,-1,1364,771,0,0
147,253,0,0,0,0,0,0,0,0,0,-1,1371,771,0,0
154,253,0,0,0,0,0,0,0,0,0,-1,1378,771,0,0
161,253,0,0,0,0,0,0,0,0,0,-1,1385,771,0,0
168,253,0,0,0,0,0,0,0,0,0,-1,1392,771,0,0
175,253,0,0,0,0,0,0,0,0,0,-1,1399,771,0,0
182,253,0,0,0,0,0,0,0,0,0,-1,1406,771,0,0
189,253,0,0,0,0,0,0,0,0,0,-1,1413,771,0,0
196,253,0,0,0,0,0,0,0,0,0,-1,1420,771,0,0
203,253,0,0,0,0,0,0,0,0,0,-1,1427,771,0,0
210,253,0,0,0,0,0,0,0,0,0,-1,1434,771,0,0
217,253,0,0,0,0,0,0,0,0,0,-1,1441,771,0,0
224,253,0,0,0,0,0,0,0,0,0,-1,1448,771,0,0
231,253,0,0,0,0,0,0,0,0,0,-1,1455,771,0,0
238,253,0,0,0,0,0,0,0,0,0,-1,1462,771,0,0
245,253,0,0,0,0,0,0,0,0,0,-1,1469,771,0,0
252,253,0,0,0,0,0,0,0,0,0,-1,1476,771,0,0
259,253,0,0,0,0,0,0,0,0,0,-1,1483,771,0,0
266,253,0,0,0,0,0,0,0,0,0,-1,1490,771,0,0
273,253,0,0,0,0,0,0,0,0,0,-1,1497,771,0,0
280,253,0,0,0,0,0,0,0,0,0,-1,1504,771,0,0
287,253,0,0,0,0,0,0,0,0,0,-1,1511,771,0,0
294,253,0,0,0,0,0,0,0,0,0,-1,1518,771,0,0
301,253,0,0,0,0,0,0,0,0,0,-1,1525,771,0,0
308,253,0,0,0,0,0,0,0,0,0,-1,1532,771,0,0
315,253,0,0,0,0,0,0,0,0,0,-1,1539,771,0,0
322,253,0,0,0,0,0,0,0,0,0,-1,1546,771,0,0
329,253,0,0,0,0,0,0,0,0,0,-1,1553,771,0,0
336,253,0,0,0,0,0,0,0,0,0,-1,1560,771,0,0
343,253,0,0,0,0,0,0,0,0,0,-1,1567,771,0,0
350,253,0,0,0,0,0,0,0,0,0,-1,1574,771,0,0
357,253,0,0,0,0,0,0,0,0,0,-1,1581,771,0,0
364,253,0,0,0,0,0,0,0,0,0,-1,1588,771,0,0
371,253,0,0,0,0,0,0,0,0,0,-1,1595,771,0,0
378,253,0,0,0,0,0,0,0,0,0,-1,1602,771,0,0
385,253,0,0,0,0,0,0,0,0,0,-1,1609,771,0,0
392,253,0,0,0,0,0,0,0,0,0,-1,1616,771,0,0
399,253,0,0,0,0,0,0,0,0,0,-1,1623,771,0,0
406,253,0,0,0,0,0,0,0,0,0,-1,1630,771,0,0
413,253,0,0,0,0,0,0,0,0,0,-1,1637,771,0,0
420,253,0,0,0,0,0,0,0,0,0,-1,1644,771,0,0
427,253,0,0,0,0,0,0,0,0,0,-1,1651,771,0,0
434,253,0,0,0,0,0,0,0,0,0,-1,1658,771,0,0
441,253,0,0,0,0,0,0,0,0,0,-1,1665,771,0,0
448,253,0,0,0,0,0,0,0,0,0,-1,1672,771,0,0
455,253,0,0,0,0,0,0,0,0,0,-1,1679,771,0,0
462,253,0,0,0,0,0,0,0,0,0,-1,1686,771,0,0
469,253,0,0,0,0,0,0,0,0,0,-1,1693,771,0,0
476,253,0,0,0,0,0,0,0,0,0,-1,1700,771,0,0
483,253,0,0,0,0,0,0,0,0,0,-1,1707,771,0,0
490,253,0,0,0,0,0,0,0,0,0,-1,1714,771,0,0
497,253,0,0,0,0,0,0,0,0,0,-1,1721,771,0,0
504,253,0,0,0,0,0,0,0,0,0,-1,1728,771,0,0
511,253,0,0,0,0,0,0,0,0,0,-1,1735,771,0,0
518,253,0,0,0,0,0,0,0,0,0,-1,1742,771,0,0
525,253,0,0,0,0,0,0,0,0,0,-1,1749,771,0,0
532,253,0,0,0,0,0,0,0,0,0,-1,1756,771,0,0
539,253,0,0,0,0,0,0,0,0,0,-1,1763,771,0,0
546,253,0,0,0,0,0,0,0,0,0,-1,1770,771,0,0
553,253,0,0,0,0,0,0,0,0,0,-1,1777,771,0,0
560,253,0,0,0,0,0,0,0,0,0,-1,1784,771,0,0
567,253,0,0,0,0,0,0,0,0,0,-1,1791,771,0,0
574,253,-0.0743408,0.0914307,-0.00875545,0.0136877,-0.00116692,0.0137482,-0.00881596,-1.51899,0.0131308,0.0329578,1798,771,-0.0743599,-0.0914081
581,253,-0.0479736,0.0316162,-0.00406193,0.0147203,-0.000255482,0.0147238,-0.0040654,-1.5572,0.0114149,0.0358369,1805,771,-0.0479332,-0.0316404
588,253,-0.0234375,0.0164795,-0.000680253,0.0137185,0.000115249,0.0137194,-0.000681175,1.56279,0.00938156,0.0396357,1812,771,-0.0234764,-0.0164877
595,253,-0.0101318,0.0274658,0.00195799,0.0117546,0.000396648,0.0117706,0.00194196,1.5304,0.00728652,0.0414854,1819,771,-0.0101717,-0.0274423
602,253,-0.113037,0.0841675,0.00368607,0.00959109,0.000510018,0.00963481,0.00364235,1.48527,0.00561755,0.042336,1826,771,-0.113093,-0.0841474
609,253,-3.32861,2.71545,0,0,0,0,0,0,0,-1,1833,771,-3.32866,-2.71547
616,253,-2.55798,2.43518,0,0,0,0,0,0,0,-1,1840,771,-2.55802,-2.4352
623,253,-2.24121,0.763916,0,0,0,0,0,0,0,-1,1847,771,-2.24119,-0.763907
630,253,-0.82019,-0.305237,0,0,0,0,0,0,0,-1,1854,771,-0.820176,0.305242
637,253,-0.440674,0.000366211,0.0052734,0.00129546,0.000501979,0.00533577,0.00123309,0.123609,0.00322569,0.0471531,1861,771,-0.440716,-0.000369926
644,253,-0.0505371,0.137329,0.004729,0.00147977,0.000300437,0.00475654,0.00145223,0.0914313,0.00281473,0.0355039,1868,771,-0.0505237,-0.13731
651,253,-0.0314941,0.0609741,0.00457034,0.00127536,0.000103613,0.0045736,0.0012721,0.0314042,0.00272584,0.0210002,1875,771,-0.0314701,-0.0609958
658,253,-0.0334473,0.0923462,0.00372514,0.000528499,0.000169073,0.00373406,0.000519582,0.0526948,0.00233552,0.0170235,1882,771,-0.0334252,-0.0923333
665,253,-0.103394,0.0770874,0.00253718,0.00101219,-0.000206963,0.00256477,0.000984604,-0.132521,0.00149402,0.0185105,1889,771,-0.103376,-0.0771066
672,253,-0.0947266,0.0733643,0.00265182,0.000764953,-0.000132245,0.00266105,0.000755729,-0.0696332,0.00158342,0.0154265,1896,771,-0.094775,-0.0733865
679,253,-0.0516357,0.0853882,0.00313807,0.000408749,0.000319753,0.00317503,0.000371789,0.115079,0.00200428,0.0125128,1903,771,-0.0515966,-0.0853968
686,253,-0.0285645,0.0877075,0.00348024,0.00064144,0.000524242,0.00357396,0.000547722,0.1769,0.00222267,0.0145325,1910,771,-0.0285137,-0.0876845
693,253,-0.0291748,0.0959473,0.00358844,0.000763581,0.000461723,0.003662,0.000690027,0.157974,0.00224692,0.0135876,1917,771,-0.0291998,-0.0959637
700,253,-0.0540771,0.0864258,0.00443297,0.000961661,0.000884403,0.00464531,0.000749326,0.235629,0.00287978,0.0122455,1924,771,-0.0540485,-0.086399
707,253,-0.0699463,0.083252,0.00587148,0.000627973,0.00133285,0.00619083,0.000308625,0.235165,0.00402829,0.0131016,1931,771,-0.0699517,-0.0832382
714,253,-0.0400391,0.0928345,0.00780577,0.000614406,0.00199934,0.00832424,9.59295e-05,0.253734,0.0055178,0.018217,1938,771,-0.040017,-0.0928519
721,253,0.00561523,0.102722,0.0100703,0.000253866,0.00289604,0.010861,-0.000536836,0.266532,0.00742605,0.030834,1945,771,0.00559795,-0.10272
728,253,0.195923,0.382751,0.0127065,-0.000324115,0.00408163,0.0138794,-0.00149704,0.279827,0.00979019,0.0388594,1952,771,0.195978,-0.38278
735,253,0.132202,0.531616,0.0156463,-0.00131528,0.00558802,0.0173218,-0.00299076,0.291304,0.0126631,0.0431355,1959,771,0.132222,-0.531633
742,253,0.260254,0.349854,0.0188219,-0.00285156,0.00747504,0.02115,-0.00517959,0.301919,0.0161066,0.0442815,1966,771,0.260296,-0.349874
749,253,0.485718,0.0877686,0.0220234,-0.00507508,0.00981113,0.0252026,-0.00825426,0.313362,0.0201255,0.0426183,1973,771,0.485714,-0.0877867
756,253,0,0,0,0,0,0,0,0,0,-1,1980,771,0,0
763,253,0,0,0,0,0,0,0,0,0,-1,1987,771,0,0
770,253,0,0,0,0,0,0,0,0,0,-1,1994,771,0,0
777,253,0,0,0,0,0,0,0,0,0,-1,2001,771,0,0
784,253,0,0,0,0,0,0,0,0,0,-1,2008,771,0,0
791,253,0,0,0,0,0,0,0,0,0,-1,2015,771,0,0
798,253,0,0,0,0,0,0,0,0,0,-1,2022,771,0,0
805,253,0,0,0,0,0,0,0,0,0,-1,2029,771,0,0
812,253,0,0,0,0,0,0,0,0,0,-1,2036,771,0,0
-700,246,0,0,0,0,0,0,0,0,0,-1,524,778,0,0
-693,246,0,0,0,0,0,0,0,0,0,-1,531,778,0,0
-686,246,0,0,0,0,0,0,0,0,0,-1,538,778,0,0
-679,246,0,0,0,0,0,0,0,0,0,-1,545,778,0,0
-672,246,0,0,0,0,0,0,0,0,0,-1,552,778,0,0
-665,246,0,0,0,0,0,0,0,0,0,-1,559,778,0,0
-658,246,0,0,0,0,0,0,0,0,0,-1,566,778,0,0
-651,246,0,0,0,0,0,0,0,0,0,-1,573,778,0,0
-644,246,0,0,0,0,0,0,0,0,0,-1,580,778,0,0
-637,246,0.507935,-0.576294,0.0540215,0.0173302,0.0439259,0.0832789,-0.0119271,0.587584,0.0598922,0.047408,587,778,0.507954,0.576291
-630,246,0.343811,-0.549927,0.0461927,0.0188275,0.0314459,0.0668038,-0.00178362,0.580194,0.0451421,0.0467678,594,778,0.343781,0.549918
-623,246,-0.010376,-0.558838,0,0,0,0,0,0,0,-1,601,778,-0.0103682,0.55884
-616,246,-0.0839844,-0.36438,0.0315389,0.0193089,0.0137273,0.0404516,0.0103962,0.575861,0.0242567,0.044596,608,778,-0.0839877,0.364361
-609,246,-0.0570679,-0.102112,0.0250951,0.0182699,0.00813987,0.0305087,0.0128562,0.586906,0.0176866,0.0445598,615,778,-0.0570854,0.102119
-602,246,-0.110291,0.0685425,0.0194101,0.0166412,0.00414349,0.0223943,0.013657,0.624165,0.013033,0.0441967,622,778,-0.110276,-0.0685359
-595,246,-0.0598755,0.0764771,0.0145285,0.0146084,0.00141329,0.0159823,0.0131546,0.799533,0.00984856,0.0410547,629,778,-0.0598783,-0.0764813
-588,246,-0.0407104,0.0544434,0.0104826,0.0123516,-0.000317118,0.0124039,0.0104302,-1.40722,0.00769621,0.025907,636,778,-0.0407028,-0.0544522
-581,246,-0.0619507,0.0441895,0.00747292,0.0100123,-0.00119265,0.0104846,0.00700062,-1.19374,0.00616574,0.01317,643,778,-0.0619649,-0.0441604
-574,246,-0.0609131,0.0378418,0.00430932,0.00772015,-0.00268733,0.00919753,0.00283194,-1.06814,0.00543926,0.0159729,650,778,-0.0608846,-0.0378213
-567,246,-0.0247192,0.0571899,0.00203806,0.00667981,-0.00265525,0.00788552,0.000832348,-1.14455,0.0050027,0.0145408,657,778,-0.024708,-0.0571857
-560,246,-0.00012207,0.0541382,0.000716936,0.00467893,-0.00189516,0.00543946,-4.3594e-05,-1.18917,0.00364093,0.0115536,664,778,-0.000129268,-0.054141
-553,246,-0.0218506,0.0841064,-0.000612788,0.00291922,-0.00164523,0.00356683,-0.0012604,-1.19579,0.0028911,0.0117921,671,778,-0.0218245,-0.0841257
-546,246,-0.0299683,0.109436,-0.00176557,0.00191072,-0.00159675,0.0025074,-0.00236225,-1.21318,0.00281191,0.0102649,678,778,-0.0299638,-0.109442
-539,246,-0.0221558,0.0986938,-0.00255397,0.00146662,-0.00130189,0.00185136,-0.00293871,-1.28345,0.0027892,0.00969399,685,778,-0.0221537,-0.0986669
-532,246,-0.0307617,0.0819702,-0.00260765,0.00194066,-0.000944464,0.00212899,-0.00279597,-1.37398,0.0028521,0.0105921,692,778,-0.0307401,-0.0819907
-525,246,-0.0309448,0.0769043,-0.00243913,0.00317605,-0.000326022,0.00319492,-0.002458,-1.51299,0.00327294,0.0115462,699,778,-0.0309715,-0.0768832
-518,246,-0.0488892,0.097229,-0.00198608,0.00474271,0.000139049,0.00474558,-0.00198895,1.55014,0.00399529,0.017282,706,778,-0.0489,-0.0972527
-511,246,-0.20874,0.164307,-0.00151493,0.00620165,0.000638123,0.00625406,-0.00156735,1.48884,0.00477829,0.0358081,713,778,-0.208765,-0.164277
-504,246,-0.366821,0.184692,-0.000657776,0.00801526,0.00149336,0.00826519,-0.000907706,1.40497,0.00583627,0.0412604,720,778,-0.366799,-0.184698
-497,246,-0.799072,0.211243,0.000468359,0.0101935,0.00260579,0.0108477,-0.000185842,1.32482,0.00729452,0.0425607,727,778,-0.79908,-0.211265
-490,246,-0.908813,-1.73376,0,0,0,0,0,0,0,-1,734,778,-0.908807,1.73378
-483,246,-0.28656,-1.68219,0,0,0,0,0,0,0,-1,741,778,-0.286545,1.68216
-476,246,0.493958,0.559265,0.00414784,0.0147716,0.00726971,0.0184633,0.000456121,1.10091,0.0121597,0.0475627,748,778,0.493972,-0.559276
-469,246,0.153137,0.199036,0.00386387,0.014696,0.00839829,0.0192732,-0.000713302,1.07179,0.0130931,0.0420841,755,778,0.153138,-0.199009
-462,246,-0.00256348,0.102051,0.00121974,0.0126089,0.00859328,0.0172232,-0.00339455,1.07802,0.012765,0.0427245,762,778,-0.00258265,-0.102071
-455,246,0,0,0,0,0,0,0,0,0,-1,769,778,0,0
-448,246,0,0,0,0,0,0,0,0,0,-1,776,778,0,0
-441,246,0,0,0,0,0,0,0,0,0,-1,783,778,0,0
-434,246,0,0,0,0,0,0,0,0,0,-1,790,778,0,0
-427,246,0,0,0,0,0,0,0,0,0,-1,797,778,0,0
-420,246,0,0,0,0,0,0,0,0,0,-1,804,778,0,0
-413,246,0,0,0,0,0,0,0,0,0,-1,811,778,0,0
-406,246,0,0,0,0,0,0,0,0,0,-1,818,778,0,0
-399,246,0,0,0,0,0,0,0,0,0,-1,825,778,0,0
-392,246,0,0,0,0,0,0,0,0,0,-1,832,778,0,0
-385,246,0,0,0,0,0,0,0,0,0,-1,839,778,0,0
-378,246,0,0,0,0,0,0,0,0,0,-1,846,778,0,0
-371,246,0,0,0,0,0,0,0,0,0,-1,853,778,0,0
-364,246,0,0,0,0,0,0,0,0,0,-1,860,778,0,0
-357,246,0,0,0,0,0,0,0,0,0,-1,867,778,0,0
-350,246,0,0,0,0,0,0,0,0,0,-1,874,778,0,0
-343,246,0,0,0,0,0,0,0,0,0,-1,881,778,0,0
-336,246,0,0,0,0,0,0,0,0,0,-1,888,778,0,0
-329,246,0,0,0,0,0,0,0,0,0,-1,895,778,0,0
-322,246,0,0,0,0,0,0,0,0,0,-1,902,778,0,0
-315,246,0,0,0,0,0,0,0,0,0,-1,909,778,0,0
-308,246,0,0,0,0,0,0,0,0,0,-1,916,778,0,0
-301,246,0,0,0,0,0,0,0,0,0,-1,923,778,0,0
-294,246,0,0,0,0,0,0,0,0,0,-1,930,778,0,0
-287,246,0,0,0,0,0,0,0,0,0,-1,937,778,0,0
-280,246,0,0,0,0,0,0,0,0,0,-1,944,778,0,0
-273,246,0,0,0,0,0,0,0,0,0,-1,951,778,0,0
-266,246,0,0,0,0,0,0,0,0,0,-1,958,778,0,0
-259,246,0,0,0,0,0,0,0,0,0,-1,965,778,0,0
-252,246,0,0,0,0,0,0,0,0,0,-1,972,778,0,0
-245,246,0,0,0,0,0,0,0,0,0,-1,979,778,0,0
-238,246,0,0,0,0,0,0,0,0,0,-1,986,778,0,0
-231,246,0,0,0,0,0,0,0,0,0,-1,993,778,0,0
-224,246,0,0,0,0,0,0,0,0,0,-1,1000,778,0,0
-217,246,0,0,0,0,0,0,0,0,0,-1,1007,778,0,0
-210,246,0,0,0,0,0,0,0,0,0,-1,1014,778,0,0
-203,246,0,0,0,0,0,0,0,0,0,-1,1021,778,0,0
-196,246,0,0,0,0,0,0,0,0,0,-1,1028,778,0,0
-189,246,0,0,0,0,0,0,0,0,0,-1,1035,778,0,0
-182,246,0,0,0,0,0,0,0,0,0,-1,1042,778,0,0
-175,246,0,0,0,0,0,0,0,0,0,-1,1049,778,0,0
-168,246,0,0,0,0,0,0,0,0,0,-1,1056,778,0,0
-161,246,0,0,0,0,0,0,0,0,0,-1,1063,778,0,0
-154,246,0,0,0,0,0,0,0,0,0,-1,1070,778,0,0
-147,246,0,0,0,0,0,0,0,0,0,-1,1077,778,0,0
-140,246,0,0,0,0,0,0,0,0,0,-1,1084,778,0,0
-133,246,0,0,0,0,0,0,0,0,0,-1,1091,778,0,0
-126,246,0,0,0,0,0,0,0,0,0,-1,1098,778,0,0
-119,246,0,0,0,0,0,0,0,0,0,-1,1105,778,0,0
-112,246,0,0,0,0,0,0,0,0,0,-1,1112,778,0,0
-105,246,0,0,0,0,0,0,0,0,0,-1,1119,778,0,0
-98,246,0,0,0,0,0,0,0,0,0,-1,1126,778,0,0
-91,246,0,0,0,0,0,0,0,0,0,-1,1133,778,0,0
-84,246,0,0,0,0,0,0,0,0,0,-1,1140,778,0,0
-77,246,0,0,0,0,0,0,0,0,0,-1,1147,778,0,0
-70,246,0,0,0,0,0,0,0,0,0,-1,1154,778,0,0
-63,246,0,0,0,0,0,0,0,0,0,-1,1161,778,0,0
-56,246,0,0,0,0,0,0,0,0,0,-1,1168,778,0,0
-49,246,0,0,0,0,0,0,0,0,0,-1,1175,778,0,0
-42,246,0,0,0,0,0,0,0,0,0,-1,1182,778,0,0
-35,246,0,0,0,0,0,0,0,0,0,-1,1189,778,0,0
-28,246,0,0,0,0,0,0,0,0,0,-1,1196,778,0,0
-21,246,0,0,0,0,0,0,0,0,0,-1,1203,778,0,0
-14,246,0,0,0,0,0,0,0,0,0,-1,1210,778,0,0
-7,246,0,0,0,0,0,0,0,0,0,-1,1217,778,0,0
0,246,0,0,0,0,0,0,0,0,0,-1,1224,778,0,0
7,246,0,0,0,0,0,0,0,0,0,-1,1231,778,0,0
14,246,0,0,0,0,0,0,0,0,0,-1,1238,778,0,0
21,246,0,0,0,0,0,0,0,0,0,-1,1245,778,0,0
28,246,0,0,0,0,0,0,0,0,0,-1,1252,778,0,0
35,246,0,0,0,0,0,0,0,0,0,-1,1259,778,0,0
42,246,0,0,0,0,0,0,0,0,0,-1,1266,778,0,0
49,246,0,0,0,0,0,0,0,0,0,-1,1273,778,0,0
56,246,0,0,0,0,0,0,0,0,0,-1,1280,778,0,0
63,246,0,0,0,0,0,0,0,0,0,-1,1287,778,0,0
70,246,0,0,0,0,0,0,0,0,0,-1,1294,778,0,0
77,246,0,0,0,0,0,0,0,0,0,-1,1301,778,0,0
84,246,0,0,0,0,0,0,0,0,0,-1,1308,778,0,0
91,246,0,0,0,0,0,0,0,0,0,-1,1315,778,0,0
98,246,0,0,0,0,0,0,0,0,0,-1,1322,778,0,0
105,246,0,0,0,0,0,0,0,0,0,-1,1329,778,0,0
112,246,0,0,0,0,0,0,0,0,0,-1,1336,778,0,0
119,246,0,0,0,0,0,0,0,0,0,-1,1343,778,0,0
126,246,0,0,0,0,0,0,0,0,0,-1,1350,778,0,0
133,246,0,0,0,0,0,0,0,0,0,-1,1357,778,0,0
140,246,0,0,0,0,0,0,0,0,0,-1,1364,778,0,0
147,246,0,0,0,0,0,0,0,0,0,-1,1371,778,0,0
154,246,0,0,0,0,0,0,0,0,0,-1,1378,778,0,0
161,246,0,0,0,0,0,0,0,0,0,-1,1385,778,0,0
168,246,0,0,0,0,0,0,0,0,0,-1,1392,778,0,0
175,246,0,0,0,0,0,0,0,0,0,-1,1399,778,0,0
182,246,0,0,0,0,0,0,0,0,0,-1,1406,778,0,0
189,246,0,0,0,0,0,0,0,0,0,-1,1413,778,0,0
196,246,0,0,0,0,0,0,0,0,0,-1,1420,778,0,0
203,246,0,0,0,0,0,0,0,0,0,-1,1427,778,0,0
210,246,0,0,0,0,0,0,0,0,0,-1,1434,778,0,0
217,246,0,0,0,0,0,0,0,0,0,-1,1441,778,0,0
224,246,0,0,0,0,0,0,0,0,0,-1,1448,778,0,0
231,246,0,0,0,0,0,0,0,0,0,-1,1455,778,0,0
238,246,0,0,0,0,0,0,0,0,0,-1,1462,778,0,0
245,246,0,0,0,0,0,0,0,0,0,-1,1469,778,0,0
252,246,0,0,0,0,0,0,0,0,0,-1,1476,778,0,0
259,246,0,0,0,0,0,0,0,0,0,-1,1483,778,0,0
266,246,0,0,0,0,0,0,0,0,0,-1,1490,778,0,0
273,246,0,0,0,0,0,0,0,0,0,-1,1497,778,0,0
280,246,0,0,0,0,0,0,0,0,0,-1,1504,778,0,0
287,246,0,0,0,0,0,0,0,0,0,-1,1511,778,0,0
294,246,0,0,0,0,0,0,0,0,0,-1,1518,778,0,0
301,246,0,0,0,0,0,0,0,0,0,-1,1525,778,0,0
308,246,0,0,0,0,0,0,0,0,0,-1,1532,778,0,0
315,246,0,0,0,0,0,0,0,0,0,-1,1539,778,0,0
322,246,0,0,0,0,0,0,0,0,0,-1,1546,778,0,0
329,246,0,0,0,0,0,0,0,0,0,-1,1553,778,0,0
336,246,0,0,0,0,0,0,0,0,0,-1,1560,778,0,0
343,246,0,0,0,0,0,0,0,0,0,-1,1567,778,0,0
350,246,0,0,0,0,0,0,0,0,0,-1,1574,778,0,0
357,246,0,0,0,0,0,0,0,0,0,-1,1581,778,0,0
364,246,0,0,0,0,0,0,0,0,0,-1,1588,778,0,0
371,246,0,0,0,0,0,0,0,0,0,-1,1595,778,0,0
378,246,0,0,0,0,0,0,0,0,0,-1,1602,778,0,0
385,246,0,0,0,0,0,0,0,0,0,-1,1609,778,0,0
392,246,0,0,0,0,0,0,0,0,0,-1,1616,778,0,0
399,246,0,0,0,0,0,0,0,0,0,-1,1623,778,0,0
406,246,0,0,0,0,0,0,0,0,0,-1,1630,778,0,0
413,246,0,0,0,0,0,0,0,0,0,-1,1637,778,0,0
420,246,0,0,0,0,0,0,0,0,0,-1,1644,778,0,0
427,246,0,0,0,0,0,0,0,0,0,-1,1651,778,0,0
434,246,0,0,0,0,0,0,0,0,0,-1,1658,778,0,0
441,246,0,0,0,0,0,0,0,0,0,-1,1665,778,0,0
448,246,0,0,0,0,0,0,0,0,0,-1,1672,778,0,0
455,246,0,0,0,0,0,0,0,0,0,-1,1679,778,0,0
462,246,0,0,0,0,0,0,0,0,0,-1,1686,778,0,0
469,246,0,0,0,0,0,0,0,0,0,-1,1693,778,0,0
476,246,0,0,0,0,0,0,0,0,0,-1,1700,778,0,0
483,246,0,0,0,0,0,0,0,0,0,-1,1707,778,0,0
490,246,0,0,0,0,0,0,0,0,0,-1,1714,778,0,0
497,246,0,0,0,0,0,0,0,0,0,-1,1721,778,0,0
504,246,0,0,0,0,0,0,0,0,0,-1,1728,778,0,0
511,246,0,0,0,0,0,0,0,0,0,-1,1735,778,0,0
518,246,0,0,0,0,0,0,0,0,0,-1,1742,778,0,0
525,246,0,0,0,0,0,0,0,0,0,-1,1749,778,0,0
532,246,0,0,0,0,0,0,0,0,0,-1,1756,778,0,0
539,246,0,0,0,0,0,0,0,0,0,-1,1763,778,0,0
546,246,0,0,0,0,0,0,0,0,0,-1,1770,778,0,0
553,246,0,0,0,0,0,0,0,0,0,-1,1777,778,0,0
560,246,0,0,0,0,0,0,0,0,0,-1,1784,778,0,0
567,246,0,0,0,0,0,0,0,0,0,-1,1791,778,0,0
574,246,0,0,0,0,0,0,0,0,0,-1,1798,778,0,0
581,246,-0.0809326,0.113403,-0.00595953,0.0106091,-0.000760535,0.0106439,-0.00599436,-1.52502,0.00973035,0.035504,1805,778,-0.0809208,-0.113375
588,246,-0.0899658,0.110596,-0.00304851,0.0117178,-0.000351726,0.0117261,-0.00305688,-1.54699,0.00901092,0.0391308,1812,778,-0.0900115,-0.110568
595,246,0.0362549,0.000915527,-0.000399859,0.0108927,9.24995e-06,0.0108927,-0.000399867,1.56998,0.00739866,0.0379407,1819,778,0.0362881,-0.000910742
602,246,-0.0679932,0.0952759,0.00152163,0.00936356,0.000181347,0.00936776,0.00151744,1.54769,0.00580584,0.038973,1826,778,-0.0680168,-0.0952838
609,246,-0.319824,0.138245,0.00280105,0.00781949,0.000321169,0.00783996,0.00278058,1.50714,0.0045897,0.0429595,1833,778,-0.319845,-0.138271
616,246,-0.799072,0.252502,0.00367138,0.00668852,0.000248071,0.00670878,0.00365112,1.48931,0.00387836,0.0418459,1840,778,-0.799106,-0.252484
623,246,-1.44177,0.564575,0.00422595,0.00492128,0.000137429,0.00494745,0.00419978,1.38257,0.00307948,0.04012,1847,778,-1.44183,-0.564561
630,246,-0.757446,-0.369629,0,0,0,0,0,0,0,-1,1854,778,-0.757422,0.369649
637,246,-0.617188,-0.0412598,0.00431188,0.00196128,0.000244532,0.00433705,0.00193611,0.102566,0.00250879,0.0447485,1861,778,-0.617169,0.0412314
644,246,-0.262451,0.0901489,0.00404384,0.00190016,7.54802e-05,0.00404649,0.0018975,0.0351525,0.00233775,0.0414503,1868,778,-0.262485,-0.0901289
651,246,-0.0899658,0.100159,0.00408715,0.00156313,-0.0001331,0.00409415,0.00155613,-0.0525389,0.00238631,0.0279411,1875,778,-0.0899168,-0.100132
658,246,-0.0510254,0.111694,0.00346314,0.000706528,-3.43376e-05,0.00346357,0.000706101,-0.0124539,0.00211337,0.0187662,1882,778,-0.0509785,-0.111667
665,246,-0.0849609,0.0950317,0.00245105,0.00103856,-0.000302713,0.00251319,0.000976421,-0.202468,0.00146296,0.0194737,1889,778,-0.0850107,-0.0950033
672,246,-0.0614014,0.086731,0.00255992,0.000663534,-0.000181424,0.00257712,0.000646334,-0.0945259,0.00154827,0.0198759,1896,778,-0.0613586,-0.0867463
679,246,-0.0731201,0.0914917,0.00295362,0.00021346,0.000238385,0.00297421,0.000192876,0.0861346,0.00192174,0.0205018,1903,778,-0.0731348,-0.0914756
686,246,-0.0483398,0.0908203,0.0030925,0.00028542,0.000373627,0.00314138,0.000236541,0.130085,0.00202003,0.0211349,1910,778,-0.0482854,-0.0908214
693,246,-0.0303955,0.0976563,0.00296444,0.000264745,0.000202101,0.00297949,0.000249699,0.0743085,0.00190855,0.0154048,1917,778,-0.0304479,-0.0976633
700,246,-0.0391846,0.0814209,0.00350349,0.000168809,0.000441004,0.00356083,0.000111473,0.129287,0.00233761,0.0121648,1924,778,-0.0391624,-0.0814009
707,246,-0.0385742,0.0884399,0.0045823,-0.000608882,0.000627625,0.0046571,-0.000683686,0.118625,0.00335592,0.0123013,1931,778,-0.0385377,-0.0884343
714,246,-0.0435791,0.0841064,0.00607779,-0.00100659,0.000933733,0.00619879,-0.0011276,0.12887,0.00455516,0.0120607,1938,778,-0.0435381,-0.0841151
721,246,-0.0405273,0.065979,0.0077923,-0.00188451,0.00136267,0.00798053,-0.00207274,0.137263,0.00612923,0.0152825,1945,778,-0.0405332,-0.0659605
728,246,-0.0458984,0.146729,0.00980108,-0.00306416,0.00193906,0.010087,-0.00335006,0.146389,0.00807636,0.0311129,1952,778,-0.0459296,-0.14675
735,246,-0.104248,0.270508,0.0120405,-0.00474755,0.00269787,0.0124634,-0.00517045,0.155488,0.0104671,0.0432647,1959,778,-0.104269,-0.270482
742,246,-0.147095,0.407776,0,0,0,0,0,0,0,-1,1966,778,-0.147076,-0.407767
749,246,0.160645,-0.166931,0.0170063,-0.0100381,0.00504773,0.0179177,-0.0109495,0.178637,0.0168276,0.0402568,1973,778,0.160624,0.166907
756,246,0.0804443,0.0213013,0,0,0,0,0,0,0,-1,1980,778,0.0804048,-0.0213257
763,246,0,0,0,0,0,0,0,0,0,-1,1987,778,0,0
770,246,0,0,0,0,0,0,0,0,0,-1,1994,778,0,0
777,246,0,0,0,0,0,0,0,0,0,-1,2001,778,0,0
784,246,0,0,0,0,0,0,0,0,0,-1,2008,778,0,0
791,246,0,0,0,0,0,0,0,0,0,-1,2015,778,0,0
798,246,0,0,0,0,0,0,0,0,0,-1,2022,778,0,0
805,246,0,0,0,0,0,0,0,0,0,-1,2029,778,0,0
812,246,0,0,0,0,0,0,0,0,0,-1,2036,778,0,0
-700,239,0,0,0,0,0,0,0,0,0,-1,524,785,0,0
-693,239,0,0,0,0,0,0,0,0,0,-1,531,785,0,0
-686,239,0,0,0,0,0,0,0,0,0,-1,538,785,0,0
-679,239,0,0,0,0,0,0,0,0,0,-1,545,785,0,0
-672,239,0,0,0,0,0,0,0,0,0,-1,552,785,0,0
-665,239,0,0,0,0,0,0,0,0,0,-1,559,785,0,0
-658,239,0,0,0,0,0,0,0,0,0,-1,566,785,0,0
-651,239,0,0,0,0,0,0,0,0,0,-1,573,785,0,0
-644,239,0,0,0,0,0,0,0,0,0,-1,580,785,0,0
-637,239,0.661743,-0.94928,0,0,0,0,0,0,0,-1,587,785,0.661734,0.949283
-630,239,-0.336243,-0.8526,0.0411489,0.0189731,0.0277726,0.0599651,0.000156831,0.595473,0.0399246,0.0437097,594,785,-0.336229,0.852585
-623,239,-0.179993,-0.699036,0.0348087,0.0184197,0.0208508,0.0490175,0.00421094,0.598167,0.031369,0.0418606,601,785,-0.179976,0.699041
-616,239,0.149048,-0.73114,0.0282079,0.0174072,0.0147926,0.0385551,0.00706004,0.610379,0.0237032,0.0436857,608,785,0.149021,0.73117
-609,239,0.11908,1.80109,0.0220634,0.0159798,0.00986093,0.029341,0.00870215,0.635794,0.017401,0.0456077,615,785,0.119066,-1.80106
-602,239,-0.0166626,0.0809937,0,0,0,0,0,0,0,-1,622,785,-0.016674,-0.0809725
-595,239,-0.0192871,0.0776978,0.0121864,0.0122265,0.00340855,0.0156151,0.00879783,0.788343,0.0090395,0.0387052,629,785,-0.0192765,-0.0776769
-588,239,-0.0180664,0.0784302,0.00843463,0.010149,0.0015098,0.011028,0.00755565,1.04358,0.00651086,0.0166861,636,785,-0.0180938,-0.0784495
-581,239,-0.0379028,0.0682373,0.00569836,0.00807369,0.000420429,0.00814591,0.00562614,1.40068,0.00481568,0.00975453,643,785,-0.0378772,-0.0682268
-574,239,-0.0366211,0.0581055,0.00274206,0.00610974,-0.00137453,0.00659952,0.00225227,-1.22849,0.0038737,0.0105022,650,785,-0.0366312,-0.0581054
-567,239,-0.02771,0.0458984,0.000873854,0.00542945,-0.00171206,0.00600113,0.000302174,-1.24852,0.00390393,0.0112039,657,785,-0.027733,-0.0458853
-560,239,-0.0127563,0.0695801,-0.000111323,0.00375854,-0.0011101,0.00405437,-0.000407148,-1.31036,0.00284834,0.0114671,664,785,-0.0127762,-0.0696102
-553,239,-0.0328979,0.088501,-0.0012189,0.00228032,-0.00107041,0.00258179,-0.00152036,-1.29627,0.00239466,0.0129999,671,785,-0.0328804,-0.0885008
-546,239,-0.0509033,0.0854492,-0.00217384,0.00157293,-0.00126934,0.00196246,-0.00256337,-1.27304,0.00262065,0.013844,678,785,-0.0509274,-0.0854265
-539,239,-0.0362549,0.0742188,-0.00283021,0.00133923,-0.0011641,0.00164223,-0.00313321,-1.31616,0.00280153,0.0136665,685,785,-0.0362487,-0.0742204
-532,239,-0.022583,0.0652466,-0.00290988,0.00186161,-0.00100884,0.00206615,-0.00311441,-1.37077,0.00301134,0.0103697,692,785,-0.0225718,-0.0652669
-525,239,-0.0355835,0.0718994,-0.00284465,0.00304761,-0.000633368,0.00311492,-0.00291196,-1.46492,0.00348028,0.0121068,699,785,-0.0355665,-0.0719168
-518,239,-0.0567017,0.0918579,-0.00255368,0.00448198,-0.000319678,0.00449647,-0.00256818,-1.52548,0.00412911,0.0307875,706,785,-0.056721,-0.0918537
-511,239,-0.334961,0.392944,-0.00222141,0.00586963,1.07006e-05,0.00586964,-0.00222143,1.56947,0.00482707,0.0393203,713,785,-0.334955,-0.39293
-504,239,-0.486328,0.569763,-0.00142107,0.0076679,0.000650735,0.00771425,-0.00146742,1.49968,0.00569534,0.0423608,720,785,-0.486325,-0.569761
-497,239,-1.02985,-0.694153,-0.000172711,0.00999689,0.00158464,0.0102381,-0.000413912,1.41974,0.00696746,0.0446279,727,785,-1.02983,0.694144
-490,239,0.138062,-0.0795898,0,0,0,0,0,0,0,-1,734,785,0.138043,0.0795968
-483,239,0.247864,0.31073,0.00353319,0.0145807,0.00435211,0.0160892,0.00202469,1.23714,0.010119,0.0481066,741,785,0.247848,-0.310738
-476,239,0.197632,0.301575,0.00547404,0.0166848,0.00586025,0.0191888,0.00296999,1.16698,0.0119265,0.0402828,748,785,0.197646,-0.301553
-469,239,0.0214233,0.128235,0.00674843,0.0180152,0.00705449,0.0214096,0.00335403,1.12233,0.0132968,0.0407321,755,785,0.0214458,-0.128228
-462,239,-0.0198364,0.0698242,0.00632813,0.0176544,0.00747965,0.021373,0.00260956,1.10943,0.0134634,0.0424606,762,785,-0.0198265,-0.069799
-455,239,0,0,0,0,0,0,0,0,0,-1,769,785,0,0
-448,239,0,0,0,0,0,0,0,0,0,-1,776,785,0,0
-441,239,0,0,0,0,0,0,0,0,0,-1,783,785,0,0
-434,239,0,0,0,0,0,0,0,0,0,-1,790,785,0,0
-427,239,0,0,0,0,0,0,0,0,0,-1,797,785,0,0
-420,239,0,0,0,0,0,0,0,0,0,-1,804,785,0,0
-413,239,0,0,0,0,0,0,0,0,0,-1,811,785,0,0
-406,239,0,0,0,0,0,0,0,0,0,-1,818,785,0,0
-399,239,0,0,0,0,0,0,0,0,0,-1,825,785,0,0
-392,239,0,0,0,0,0,0,0,0,0,-1,832,785,0,0
-385,239,0,0,0,0,0,0,0,0,0,-1,839,785,0,0
-378,239,0,0,0,0,0,0,0,0,0,-1,846,785,0,0
-371,239,0,0,0,0,0,0,0,0,0,-1,853,785,0,0
-364,239,0,0,0,0,0,0,0,0,0,-1,860,785,0,0
-357,239,0,0,0,0,0,0,0,0,0,-1,867,785,0,0
-350,239,0,0,0,0,0,0,0,0,0,-1,874,785,0,0
-343,239,0,0,0,0,0,0,0,0,0,-1,881,785,0,0
-336,239,0,0,0,0,0,0,0,0,0,-1,888,785,0,0
-329,239,0,0,0,0,0,0,0,0,0,-1,895,785,0,0
-322,239,0,0,0,0,0,0,0,0,0,-1,902,785,0,0
-315,239,0,0,0,0,0,0,0,0,0,-1,909,785,0,0
-308,239,0,0,0,0,0,0,0,0,0,-1,916,785,0,0
-301,239,0,0,0,0,0,0,0,0,0,-1,923,785,0,0
-294,239,0,0,0,0,0,0,0,0,0,-1,930,785,0,0
-287,239,0,0,0,0,0,0,0,0,0,-1,937,785,0,0
-280,239,0,0,0,0,0,0,0,0,0,-1,944,785,0,0
-273,239,0,0,0,0,0,0,0,0,0,-1,951,785,0,0
-266,239,0,0,0,0,0,0,0,0,0,-1,958,785,0,0
-259,239,0,0,0,0,0,0,0,0,0,-1,965,785,0,0
-252,239,0,0,0,0,0,0,0,0,0,-1,972,785,0,0
-245,239,0,0,0,0,0,0,0,0,0,-1,979,785,0,0
-238,239,0,0,0,0,0,0,0,0,0,-1,986,785,0,0
-231,239,0,0,0,0,0,0,0,0,0,-1,993,785,0,0
-224,239,0,0,0,0,0,0,0,0,0,-1,1000,785,0,0
-217,239,0,0,0,0,0,0,0,0,0,-1,1007,785,0,0
-210,239,0,0,0,0,0,0,0,0,0,-1,1014,785,0,0
-203,239,0,0,0,0,0,0,0,0,0,-1,1021,785,0,0
-196,239,0,0,0,0,0,0,0,0,0,-1,1028,785,0,0
-189,239,0,0,0,0,0,0,0,0,0,-1,1035,785,0,0
-182,239,0,0,0,0,0,0,0,0,0,-1,1042,785,0,0
-175,239,0,0,0,0,0,0,0,0,0,-1,1049,785,0,0
-168,239,0,0,0,0,0,0,0,0,0,-1,1056,785,0,0
-161,239,0,0,0,0,0,0,0,0,0,-1,1063,785,0,0
-154,239,0,0,0,0,0,0,0,0,0,-1,1070,785,0,0
-147,239,0,0,0,0,0,0,0,0,0,-1,1077,785,0,0
-140,239,0,0,0,0,0,0,0,0,0,-1,1084,785,0,0
-133,239,0,0,0,0,0,0,0,0,0,-1,1091,785,0,0
-126,239,0,0,0,0,0,0,0,0,0,-1,1098,785,0,0
-119,239,0,0,0,0,0,0,0,0,0,-1,1105,785,0,0
-112,239,0,0,0,0,0,0,0,0,0,-1,1112,785,0,0
-105,239,0,0,0,0,0,0,0,0,0,-1,1119,785,0,0
-98,239,0,0,0,0,0,0,0,0,0,-1,1126,785,0,0
-91,239,0,0,0,0,0,0,0,0,0,-1,1133,785,0,0
-84,239,0,0,0,0,0,0,0,0,0,-1,1140,785,0,0
-77,239,0,0,0,0,0,0,0,0,0,-1,1147,785,0,0
-70,239,0,0,0,0,0,0,0,0,0,-1,1154,785,0,0
-63,239,0,0,0,0,0,0,0,0,0,-1,1161,785,0,0
-56,239,0,0,0,0,0,0,0,0,0,-1,1168,785,0,0
-49,239,0,0,0,0,0,0,0,0,0,-1,1175,785,0,0
-42,239,0,0,0,0,0,0,0,0,0,-1,1182,785,0,0
-35,239,0,0,0,0,0,0,0,0,0,-1,1189,785,0,0
-28,239,0,0,0,0,0,0,0,0,0,-1,1196,785,0,0
-21,239,0,0,0,0,0,0,0,0,0,-1,1203,785,0,0
-14,239,0,0,0,0,0,0,0,0,0,-1,1210,785,0,0
-7,239,0,0,0,0,0,0,0,0,0,-1,1217,785,0,0
0,239,0,0,0,0,0,0,0,0,0,-1,1224,785,0,0
7,239,0,0,0,0,0,0,0,0,0,-1,1231,785,0,0
14,239,0,0,0,0,0,0,0,0,0,-1,1238,785,0,0
21,239,0,0,0,0,0,0,0,0,0,-1,1245,785,0,0
28,239,0,0,0,0,0,0,0,0,0,-1,1252,785,0,0
35,239,0,0,0,0,0,0,0,0,0,-1,1259,785,0,0
42,239,0,0,0,0,0,0,0,0,0,-1,1266,785,0,0
49,239,0,0,0,0,0,0,0,0,0,-1,1273,785,0,0
56,239,0,0,0,0,0,0,0,0,0,-1,1280,785,0,0
63,239,0,0,0,0,0,0,0,0,0,-1,1287,785,0,0
70,239,0,0,0,0,0,0,0,0,0,-1,1294,785,0,0
77,239,0,0,0,0,0,0,0,0,0,-1,1301,785,0,0
84,239,0,0,0,0,0,0,0,0,0,-1,1308,785,0,0
91,239,0,0,0,0,0,0,0,0,0,-1,1315,785,0,0
98,239,0,0,0,0,0,0,0,0,0,-1,1322,785,0,0
105,239,0,0,0,0,0,0,0,0,0,-1,1329,785,0,0
112,239,0,0,0,0,0,0,0,0,0,-1,1336,785,0,0
119,239,0,0,0,0,0,0,0,0,0,-1,1343,785,0,0
126,239,0,0,0,0,0,0,0,0,0,-1,1350,785,0,0
133,239,0,0,0,0,0,0,0,0,0,-1,1357,785,0,0
140,239,0,0,0,0,0,0,0,0,0,-1,1364,785,0,0
147,239,0,0,0,0,0,0,0,0,0,-1,1371,785,0,0
154,239,0,0,0,0,0,0,0,0,0,-1,1378,785,0,0
161,239,0,0,0,0,0,0,0,0,0,-1,1385,785,0,0
168,239,0,0,0,0,0,0,0,0,0,-1,1392,785,0,0
175,239,0,0,0,0,0,0,0,0,0,-1,1399,785,0,0
182,239,0,0,0,0,0,0,0,0,0,-1,1406,785,0,0
189,239,0,0,0,0,0,0,0,0,0,-1,1413,785,0,0
196,239,0,0,0,0,0,0,0,0,0,-1,1420,785,0,0
203,239,0,0,0,0,0,0,0,0,0,-1,1427,785,0,0
210,239,0,0,0,0,0,0,0,0,0,-1,1434,785,0,0
217,239,0,0,0,0,0,0,0,0,0,-1,1441,785,0,0
224,239,0,0,0,0,0,0,0,0,0,-1,1448,785,0,0
231,239,0,0,0,0,0,0,0,0,0,-1,1455,785,0,0
238,239,0,0,0,0,0,0,0,0,0,-1,1462,785,0,0
245,239,0,0,0,0,0,0,0,0,0,-1,1469,785,0,0
252,239,0,0,0,0,0,0,0,0,0,-1,1476,785,0,0
259,239,0,0,0,0,0,0,0,0,0,-1,1483,785,0,0
266,239,0,0,0,0,0,0,0,0,0,-1,1490,785,0,0
273,239,0,0,0,0,0,0,0,0,0,-1,1497,785,0,0
280,239,0,0,0,0,0,0,0,0,0,-1,1504,785,0,0
287,239,0,0,0,0,0,0,0,0,0,-1,1511,785,0,0
294,239,0,0,0,0,0,0,0,0,0,-1,1518,785,0,0
301,239,0,0,0,0,0,0,0,0,0,-1,1525,785,0,0
308,239,0,0,0,0,0,0,0,0,0,-1,1532,785,0,0
315,239,0,0,0,0,0,0,0,0,0,-1,1539,785,0,0
322,239,0,0,0,0,0,0,0,0,0,-1,1546,785,0,0
329,239,0,0,0,0,0,0,0,0,0,-1,1553,785,0,0
336,239,0,0,0,0,0,0,0,0,0,-1,1560,785,0,0
343,239,0,0,0,0,0,0,0,0,0,-1,1567,785,0,0
350,239,0,0,0,0,0,0,0,0,0,-1,1574,785,0,0
357,239,0,0,0,0,0,0,0,0,0,-1,1581,785,0,0
364,239,0,0,0,0,0,0,0,0,0,-1,1588,785,0,0
371,239,0,0,0,0,0,0,0,0,0,-1,1595,785,0,0
378,239,0,0,0,0,0,0,0,0,0,-1,1602,785,0,0
385,239,0,0,0,0,0,0,0,0,0,-1,1609,785,0,0
392,239,0,0,0,0,0,0,0,0,0,-1,1616,785,0,0
399,239,0,0,0,0,0,0,0,0,0,-1,1623,785,0,0
406,239,0,0,0,0,0,0,0,0,0,-1,1630,785,0,0
413,239,0,0,0,0,0,0,0,0,0,-1,1637,785,0,0
420,239,0,0,0,0,0,0,0,0,0,-1,1644,785,0,0
427,239,0,0,0,0,0,0,0,0,0,-1,1651,785,0,0
434,239,0,0,0,0,0,0,0,0,0,-1,1658,785,0,0
441,239,0,0,0,0,0,0,0,0,0,-1,1665,785,0,0
448,239,0,0,0,0,0,0,0,0,0,-1,1672,785,0,0
455,239,0,0,0,0,0,0,0,0,0,-1,1679,785,0,0
462,239,0,0,0,0,0,0,0,0,0,-1,1686,785,0,0
469,239,0,0,0,0,0,0,0,0,0,-1,1693,785,0,0
476,239,0,0,0,0,0,0,0,0,0,-1,1700,785,0,0
483,239,0,0,0,0,0,0,0,0,0,-1,1707,785,0,0
490,239,0,0,0,0,0,0,0,0,0,-1,1714,785,0,0
497,239,0,0,0,0,0,0,0,0,0,-1,1721,785,0,0
504,239,0,0,0,0,0,0,0,0,0,-1,1728,785,0,0
511,239,0,0,0,0,0,0,0,0,0,-1,1735,785,0,0
518,239,0,0,0,0,0,0,0,0,0,-1,1742,785,0,0
525,239,0,0,0,0,0,0,0,0,0,-1,1749,785,0,0
532,239,0,0,0,0,0,0,0,0,0,-1,1756,785,0,0
539,239,0,0,0,0,0,0,0,0,0,-1,1763,785,0,0
546,239,0,0,0,0,0,0,0,0,0,-1,1770,785,0,0
553,239,0,0,0,0,0,0,0,0,0,-1,1777,785,0,0
560,239,0,0,0,0,0,0,0,0,0,-1,1784,785,0,0
567,239,0,0,0,0,0,0,0,0,0,-1,1791,785,0,0
574,239,0,0,0,0,0,0,0,0,0,-1,1798,785,0,0
581,239,-0.0279541,0.0306396,-0.00607732,0.00470229,-0.00101955,0.00479787,-0.0061729,-1.47732,0.00635054,0.0323266,1805,785,-0.0279343,-0.0306601
588,239,-0.092041,0.0814209,-0.00465805,0.0080357,-0.000952786,0.00810682,-0.00472917,-1.49629,0.0074959,0.035156,1812,785,-0.0920575,-0.0814228
595,239,-0.052124,0.0369873,-0.00250857,0.00860311,-0.00069509,0.00864642,-0.00255188,-1.50856,0.006777,0.0334155,1819,785,-0.0521197,-0.0370009
602,239,-0.00012207,0.0375366,-0.000652396,0.00802228,-0.000542756,0.0080561,-0.000686222,-1.50855,0.00561348,0.0355834,1826,785,-0.000114461,-0.0375453
609,239,-0.0308838,0.0946045,0.000767085,0.00708944,-0.000452156,0.00712161,0.000734912,-1.49976,0.00452272,0.0422553,1833,785,-0.0308938,-0.0946
616,239,-0.153687,0.19519,0.00178251,0.00627303,-0.00041913,0.00631182,0.00174373,-1.47852,0.00376378,0.0460014,1840,785,-0.153661,-0.195216
623,239,-0.448364,0.346741,0.00256535,0.00523384,-0.000466864,0.00531316,0.00248603,-1.4025,0.00306966,0.0416505,1847,785,-0.448386,-0.346734
630,239,-0.772095,-0.315613,0,0,0,0,0,0,0,-1,1854,785,-0.77205,0.315641
637,239,-0.648438,-0.0961914,0.00329682,0.0026064,-0.00023935,0.00337168,0.00253154,-0.303126,0.00202664,0.0440901,1861,785,-0.648384,0.0961952
644,239,-0.408325,0.102844,0.00334733,0.00234937,-0.000320693,0.0034415,0.0022552,-0.285611,0.00201864,0.04232,1868,785,-0.408374,-0.102828
651,239,-0.154785,0.0958252,0.0036033,0.00193138,-0.000463839,0.00372337,0.00181132,-0.253282,0.00214995,0.0332954,1875,785,-0.154765,-0.0958167
658,239,-0.0544434,0.0966187,0.00321787,0.00104769,-0.000282074,0.00325393,0.00101163,-0.127163,0.00192293,0.0169696,1882,785,-0.05445,-0.0966147
665,239,-0.0273438,0.0962524,0.00242623,0.00125634,-0.00042041,0.00256164,0.00112093,-0.311587,0.0014828,0.0134447,1889,785,-0.0272906,-0.0962441
672,239,-0.0571289,0.098938,0.00253592,0.000819549,-0.000268212,0.00257685,0.000778613,-0.151458,0.00152607,0.0195227,1896,785,-0.0571063,-0.0989305
679,239,-0.0673828,0.0974731,0.00284071,0.000336958,0.000104874,0.0028451,0.000332573,0.0417891,0.00179617,0.0202035,1903,785,-0.0673287,-0.0974833
686,239,-0.0568848,0.10199,0.00280178,0.000286327,0.000156607,0.00281149,0.000276614,0.0619392,0.00178926,0.0200195,1910,785,-0.0569236,-0.102001
693,239,-0.043457,0.0828857,0.00247617,0.000166856,-0.000130302,0.0024835,0.000159527,-0.0561871,0.00160513,0.0137378,1917,785,-0.0434015,-0.0829001
700,239,-0.0395508,0.0707397,0.00273957,-0.000180841,-9.26728e-05,0.0027425,-0.000183779,-0.0316903,0.00189257,0.0106277,1924,785,-0.0395589,-0.0707622
707,239,-0.032959,0.0805664,0.00348412,-0.00132647,-0.000162925,0.00348963,-0.00133199,-0.0338162,0.00287517,0.00986881,1931,785,-0.0329523,-0.0805379
714,239,-0.02771,0.0701904,0.004556,-0.00205392,-0.000204477,0.00456232,-0.00206024,-0.0308955,0.00391344,0.0093935,1938,785,-0.0276639,-0.0701914
721,239,-0.0367432,0.0580444,0.00574467,-0.00322206,-0.000207857,0.00574948,-0.00322688,-0.0231643,0.00525028,0.0165107,1945,785,-0.036747,-0.0580231
728,239,0.143433,-0.0205688,0.00714031,-0.00461183,-0.000159375,0.00714247,-0.00461399,-0.013558,0.00683973,0.0321653,1952,785,0.143393,0.0205909
735,239,0.487061,-0.594849,0,0,0,0,0,0,0,-1,1959,785,0.487034,0.594861
742,239,0.0316162,-0.517639,0.0103848,-0.00892237,0.000308832,0.0103898,-0.00892731,0.0159903,0.0111634,0.0461488,1966,785,0.0316022,0.517648
749,239,-0.102539,-0.374695,0.0121485,-0.0115754,0.000943334,0.0121859,-0.0116128,0.0396796,0.0137416,0.0425551,1973,785,-0.102576,0.374724
756,239,-0.00683594,-0.351746,0,0,0,0,0,0,0,-1,1980,785,-0.00682428,0.351719
763,239,0,0,0,0,0,0,0,0,0,-1,1987,785,0,0
770,239,0,0,0,0,0,0,0,0,0,-1,1994,785,0,0
777,239,0,0,0,0,0,0,0,0,0,-1,2001,785,0,0
784,239,0,0,0,0,0,0,0,0,0,-1,2008,785,0,0
791,239,0,0,0,0,0,0,0,0,0,-1,2015,785,0,0
798,239,0,0,0,0,0,0,0,0,0,-1,2022,785,0,0
805,239,0,0,0,0,0,0,0,0,0,-1,2029,785,0,0
812,239,0,0,0,0,0,0,0,0,0,-1,2036,785,0,0
-700,232,0,0,0,0,0,0,0,0,0,-1,524,792,0,0
-693,232,0,0,0,0,0,0,0,0,0,-1,531,792,0,0
-686,232,0,0,0,0,0,0,0,0,0,-1,538,792,0,0
-679,232,0,0,0,0,0,0,0,0,0,-1,545,792,0,0
-672,232,0,0,0,0,0,0,0,0,0,-1,552,792,0,0
-665,232,0,0,0,0,0,0,0,0,0,-1,559,792,0,0
-658,232,0,0,0,0,0,0,0,0,0,-1,566,792,0,0
-651,232,0,0,0,0,0,0,0,0,0,-1,573,792,0,0
-644,232,0.674988,-2.9942,0,0,0,0,0,0,0,-1,580,792,0.675015,2.99417
-637,232,-0.388794,-1.15765,0,0,0,0,0,0,0,-1,587,792,-0.388808,1.15766
-630,232,-0.512939,-0.992493,0.0353836,0.020315,0.0215164,0.0506467,0.00505194,0.616986,0.0322128,0.0445568,594,792,-0.512964,0.992502
-623,232,0.23877,2.69403,0.0303245,0.018636,0.0177021,0.0431221,0.0058384,0.62596,0.0270131,0.042551,601,792,0.238758,-2.69402
-616,232,0.350281,1.76575,0.024583,0.0167858,0.013634,0.0348648,0.00650395,0.646141,0.0214071,0.0411211,608,792,0.350264,-1.76577
-609,232,0.317322,1.10657,0.0190077,0.0148036,0.00989046,0.027017,0.00679431,0.68069,0.0162278,0.0435072,615,792,0.317313,-1.10655
-602,232,0.233154,0.530823,0.0142637,0.0127354,0.00695893,0.0205003,0.00649877,0.730711,0.0120972,0.0442648,622,792,0.23318,-0.530817
-595,232,-0.0380249,0.135864,0.0100739,0.0106045,0.00456083,0.0149077,0.00577065,0.814447,0.00867981,0.0322131,629,792,-0.0380516,-0.135861
-588,232,-0.0556641,0.0910645,0.00661257,0.0085776,0.00273088,0.0104973,0.00469283,0.958079,0.00607196,0.0112319,636,792,-0.0556883,-0.0910839
-581,232,-0.0350342,0.0774536,0.00411563,0.00666618,0.0016107,0.00744533,0.00333648,1.12024,0.00430627,0.00748088,643,792,-0.0350501,-0.0774739
-574,232,-0.0174561,0.0780029,0.00138513,0.00493592,-0.000299037,0.00496093,0.00136013,-1.48736,0.00295998,0.00752824,650,792,-0.0174682,-0.0779756
-567,232,-0.0368652,0.0731201,-0.000121054,0.00449928,-0.000935921,0.00468166,-0.00030344,-1.37834,0.00322701,0.00868161,657,792,-0.0368917,-0.0731103
-560,232,-0.0336914,0.0826416,-0.000806459,0.00311459,-0.000461226,0.00316812,-0.000859982,-1.45527,0.00244959,0.0106884,664,792,-0.0336706,-0.0826204
-553,232,-0.0413208,0.074646,-0.00167951,0.00187981,-0.000568956,0.00196854,-0.00176825,-1.41608,0.00215847,0.0115684,671,792,-0.0413024,-0.0746686
-546,232,-0.0546875,0.0669556,-0.00241299,0.00139718,-0.000952693,0.00162212,-0.00263793,-1.33894,0.00248273,0.0193536,678,792,-0.0547141,-0.0669331
-539,232,-0.0383301,0.076355,-0.00290477,0.00129329,-0.000999105,0.00151894,-0.00313042,-1.34867,0.00273753,0.0217978,685,792,-0.0383215,-0.0763336
-532,232,-0.0272827,0.0748901,-0.00296263,0.00179214,-0.00101032,0.00199791,-0.0031684,-1.36987,0.00300818,0.0123562,692,792,-0.0272792,-0.0748953
-525,232,-0.0227051,0.0648804,-0.00295881,0.00283506,-0.000837341,0.00295364,-0.0030774,-1.43011,0.00348227,0.0195611,699,792,-0.0227,-0.064895
-518,232,-0.0340576,0.0343018,-0.00284124,0.00400837,-0.000650848,0.00406966,-0.00290254,-1.4769,0.00404416,0.0404762,706,792,-0.0340622,-0.0342821
-511,232,-0.0514526,0.024292,0,0,0,0,0,0,0,-1,713,792,-0.051479,-0.0242941
-504,232,0.869507,0.480896,-0.00207196,0.00667834,-5.15573e-05,0.00667864,-0.00207227,-1.5649,0.00528051,0.0415569,720,792,0.869515,-0.4809
-497,232,-0.00793457,-0.217346,-0.000923392,0.00885007,0.000631596,0.00889072,-0.000964039,1.50653,0.00627323,0.0474745,727,792,-0.00791183,0.217367
-490,232,0.0377197,-0.059021,0.000817388,0.0112082,0.0016162,0.0114538,0.000571805,1.42,0.00745257,0.0461698,734,792,0.0376977,0.059015
-483,232,0.0994873,0.153503,0.00306032,0.0138334,0.00280588,0.0145204,0.00237333,1.33068,0.00899413,0.0451125,741,792,0.0994743,-0.15349
-476,232,0.00994873,0.112122,0.00558409,0.0166404,0.00403153,0.0179543,0.00427019,1.25574,0.0108305,0.0333036,748,792,0.00992694,-0.112113
-469,232,-0.000793457,0.0717163,0.00825934,0.019362,0.00505902,0.0213214,0.00629995,1.20128,0.0126485,0.0293073,755,792,-0.000811325,-0.0717129
-462,232,0,0,0,0,0,0,0,0,0,-1,762,792,0,0
-455,232,0,0,0,0,0,0,0,0,0,-1,769,792,0,0
-448,232,0,0,0,0,0,0,0,0,0,-1,776,792,0,0
-441,232,0,0,0,0,0,0,0,0,0,-1,783,792,0,0
-434,232,0,0,0,0,0,0,0,0,0,-1,790,792,0,0
-427,232,0,0,0,0,0,0,0,0,0,-1,797,792,0,0
-420,232,0,0,0,0,0,0,0,0,0,-1,804,792,0,0
-413,232,0,0,0,0,0,0,0,0,0,-1,811,792,0,0
-406,232,0,0,0,0,0,0,0,0,0,-1,818,792,0,0
-399,232,0,0,0,0,0,0,0,0,0,-1,825,792,0,0
-392,232,0,0,0,0,0,0,0,0,0,-1,832,792,0,0
-385,232,0,0,0,0,0,0,0,0,0,-1,839,792,0,0
-378,232,0,0,0,0,0,0,0,0,0,-1,846,792,0,0
-371,232,0,0,0,0,0,0,0,0,0,-1,853,792,0,0
-364,232,0,0,0,0,0,0,0,0,0,-1,860,792,0,0
-357,232,0,0,0,0,0,0,0,0,0,-1,867,792,0,0
-350,232,0,0,0,0,0,0,0,0,0,-1,874,792,0,0
-343,232,0,0,0,0,0,0,0,0,0,-1,881,792,0,0
-336,232,0,0,0,0,0,0,0,0,0,-1,888,792,0,0
-329,232,0,0,0,0,0,0,0,0,0,-1,895,792,0,0
-322,232,0,0,0,0,0,0,0,0,0,-1,902,792,0,0
-315,232,0,0,0,0,0,0,0,0,0,-1,909,792,0,0
-308,232,0,0,0,0,0,0,0,0,0,-1,916,792,0,0
-301,232,0,0,0,0,0,0,0,0,0,-1,923,792,0,0
-294,232,0,0,0,0,0,0,0,0,0,-1,930,792,0,0
-287,232,0,0,0,0,0,0,0,0,0,-1,937,792,0,0
-280,232,0,0,0,0,0,0,0,0,0,-1,944,792,0,0
-273,232,0,0,0,0,0,0,0,0,0,-1,951,792,0,0
-266,232,0,0,0,0,0,0,0,0,0,-1,958,792,0,0
-259,232,0,0,0,0,0,0,0,0,0,-1,965,792,0,0
-252,232,0,0,0,0,0,0,0,0,0,-1,972,792,0,0
-245,232,0,0,0,0,0,0,0,0,0,-1,979,792,0,0
-238,232,0,0,0,0,0,0,0,0,0,-1,986,792,0,0
-231,232,0,0,0,0,0,0,0,0,0,-1,993,792,0,0
-224,232,0,0,0,0,0,0,0,0,0,-1,1000,792,0,0
-217,232,0,0,0,0,0,0,0,0,0,-1,1007,792,0,0
-210,232,0,0,0,0,0,0,0,0,0,-1,1014,792,0,0
-203,232,0,0,0,0,0,0,0,0,0,-1,1021,792,0,0
-196,232,0,0,0,0,0,0,0,0,0,-1,1028,792,0,0
-189,232,0,0,0,0,0,0,0,0,0,-1,1035,792,0,0
-182,232,0,0,0,0,0,0,0,0,0,-1,1042,792,0,0
-175,232,0,0,0,0,0,0,0,0,0,-1,1049,792,0,0
-168,232,0,0,0,0,0,0,0,0,0,-1,1056,792,0,0
-161,232,0,0,0,0,0,0,0,0,0,-1,1063,792,0,0
-154,232,0,0,0,0,0,0,0,0,0,-1,1070,792,0,0
-147,232,0,0,0,0,0,0,0,0,0,-1,1077,792,0,0
-140,232,0,0,0,0,0,0,0,0,0,-1,1084,792,0,0
-133,232,0,0,0,0,0,0,0,0,0,-1,1091,792,0,0
-126,232,0,0,0,0,0,0,0,0,0,-1,1098,792,0,0
-119,232,0,0,0,0,0,0,0,0,0,-1,1105,792,0,0
-112,232,0,0,0,0,0,0,0,0,0,-1,1112,792,0,0
-105,232,0,0,0,0,0,0,0,0,0,-1,1119,792,0,0
-98,232,0,0,0,0,0,0,0,0,0,-1,1126,792,0,0
-91,232,0,0,0,0,0,0,0,0,0,-1,1133,792,0,0
-84,232,0,0,0,0,0,0,0,0,0,-1,1140,792,0,0
-77,232,0,0,0,0,0,0,0,0,0,-1,1147,792,0,0
-70,232,0,0,0,0,0,0,0,0,0,-1,1154,792,0,0
-63,232,0,0,0,0,0,0,0,0,0,-1,1161,792,0,0
-56,232,0,0,0,0,0,0,0,0,0,-1,1168,792,0,0
-49,232,0,0,0,0,0,0,0,0,0,-1,1175,792,0,0
-42,232,0,0,0,0,0,0,0,0,0,-1,1182,792,0,0
-35,232,0,0,0,0,0,0,0,0,0,-1,1189,792,0,0
-28,232,0,0,0,0,0,0,0,0,0,-1,1196,792,0,0
-21,232,0,0,0,0,0,0,0,0,0,-1,1203,792,0,0
-14,232,0,0,0,0,0,0,0,0,0,-1,1210,792,0,0
-7,232,0,0,0,0,0,0,0,0,0,-1,1217,792,0,0
0,232,0,0,0,0,0,0,0,0,0,-1,1224,792,0,0
7,232,0,0,0,0,0,0,0,0,0,-1,1231,792,0,0
14,232,0,0,0,0,0,0,0,0,0,-1,1238,792,0,0
21,232,0,0,0,0,0,0,0,0,0,-1,1245,792,0,0
28,232,0,0,0,0,0,0,0,0,0,-1,1252,792,0,0
35,232,0,0,0,0,0,0,0,0,0,-1,1259,792,0,0
42,232,0,0,0,0,0,0,0,0,0,-1,1266,792,0,0
49,232,0,0,0,0,0,0,0,0,0,-1,1273,792,0,0
56,232,0,0,0,0,0,0,0,0,0,-1,1280,792,0,0
63,232,0,0,0,0,0,0,0,0,0,-1,1287,792,0,0
70,232,0,0,0,0,0,0,0,0,0,-1,1294,792,0,0
77,232,0,0,0,0,0,0,0,0,0,-1,1301,792,0,0
84,232,0,0,0,0,0,0,0,0,0,-1,1308,792,0,0
91,232,0,0,0,0,0,0,0,0,0,-1,1315,792,0,0
98,232,0,0,0,0,0,0,0,0,0,-1,1322,792,0,0
105,232,0,0,0,0,0,0,0,0,0,-1,1329,792,0,0
112,232,0,0,0,0,0,0,0,0,0,-1,1336,792,0,0
119,232,0,0,0,0,0,0,0,0,0,-1,1343,792,0,0
126,232,0,0,0,0,0,0,0,0,0,-1,1350,792,0,0
133,232,0,0,0,0,0,0,0,0,0,-1,1357,792,0,0
140,232,0,0,0,0,0,0,0,0,0,-1,1364,792,0,0
147,232,0,0,0,0,0,0,0,0,0,-1,1371,792,0,0
154,232,0,0,0,0,0,0,0,0,0,-1,1378,792,0,0
161,232,0,0,0,0,0,0,0,0,0,-1,1385,792,0,0
168,232,0,0,0,0,0,0,0,0,0,-1,1392,792,0,0
175,232,0,0,0,0,0,0,0,0,0,-1,1399,792,0,0
182,232,0,0,0,0,0,0,0,0,0,-1,1406,792,0,0
189,232,0,0,0,0,0,0,0,0,0,-1,1413,792,0,0
196,232,0,0,0,0,0,0,0,0,0,-1,1420,792,0,0
203,232,0,0,0,0,0,0,0,0,0,-1,1427,792,0,0
210,232,0,0,0,0,0,0,0,0,0,-1,1434,792,0,0
217,232,0,0,0,0,0,0,0,0,0,-1,1441,792,0,0
224,232,0,0,0,0,0,0,0,0,0,-1,1448,792,0,0
231,232,0,0,0,0,0,0,0,0,0,-1,1455,792,0,0
238,232,0,0,0,0,0,0,0,0,0,-1,1462,792,0,0
245,232,0,0,0,0,0,0,0,0,0,-1,1469,792,0,0
252,232,0,0,0,0,0,0,0,0,0,-1,1476,792,0,0
259,232,0,0,0,0,0,0,0,0,0,-1,1483,792,0,0
266,232,0,0,0,0,0,0,0,0,0,-1,1490,792,0,0
273,232,0,0,0,0,0,0,0,0,0,-1,1497,792,0,0
280,232,0,0,0,0,0,0,0,0,0,-1,1504,792,0,0
287,232,0,0,0,0,0,0,0,0,0,-1,1511,792,0,0
294,232,0,0,0,0,0,0,0,0,0,-1,1518,792,0,0
301,232,0,0,0,0,0,0,0,0,0,-1,1525,792,0,0
308,232,0,0,0,0,0,0,0,0,0,-1,1532,792,0,0
315,232,0,0,0,0,0,0,0,0,0,-1,1539,792,0,0
322,232,0,0,0,0,0,0,0,0,0,-1,1546,792,0,0
329,232,0,0,0,0,0,0,0,0,0,-1,1553,792,0,0
336,232,0,0,0,0,0,0,0,0,0,-1,1560,792,0,0
343,232,0,0,0,0,0,0,0,0,0,-1,1567,792,0,0
350,232,0,0,0,0,0,0,0,0,0,-1,1574,792,0,0
357,232,0,0,0,0,0,0,0,0,0,-1,1581,792,0,0
364,232,0,0,0,0,0,0,0,0,0,-1,1588,792,0,0
371,232,0,0,0,0,0,0,0,0,0,-1,1595,792,0,0
378,232,0,0,0,0,0,0,0,0,0,-1,1602,792,0,0
385,232,0,0,0,0,0,0,0,0,0,-1,1609,792,0,0
392,232,0,0,0,0,0,0,0,0,0,-1,1616,792,0,0
399,232,0,0,0,0,0,0,0,0,0,-1,1623,792,0,0
406,232,0,0,0,0,0,0,0,0,0,-1,1630,792,0,0
413,232,0,0,0,0,0,0,0,0,0,-1,1637,792,0,0
420,232,0,0,0,0,0,0,0,0,0,-1,1644,792,0,0
427,232,0,0,0,0,0,0,0,0,0,-1,1651,792,0,0
434,232,0,0,0,0,0,0,0,0,0,-1,1658,792,0,0
441,232,0,0,0,0,0,0,0,0,0,-1,1665,792,0,0
448,232,0,0,0,0,0,0,0,0,0,-1,1672,792,0,0
455,232,0,0,0,0,0,0,0,0,0,-1,1679,792,0,0
462,232,0,0,0,0,0,0,0,0,0,-1,1686,792,0,0
469,232,0,0,0,0,0,0,0,0,0,-1,1693,792,0,0
476,232,0,0,0,0,0,0,0,0,0,-1,1700,792,0,0
483,232,0,0,0,0,0,0,0,0,0,-1,1707,792,0,0
490,232,0,0,0,0,0,0,0,0,0,-1,1714,792,0,0
497,232,0,0,0,0,0,0,0,0,0,-1,1721,792,0,0
504,232,0,0,0,0,0,0,0,0,0,-1,1728,792,0,0
511,232,0,0,0,0,0,0,0,0,0,-1,1735,792,0,0
518,232,0,0,0,0,0,0,0,0,0,-1,1742,792,0,0
525,232,0,0,0,0,0,0,0,0,0,-1,1749,792,0,0
532,232,0,0,0,0,0,0,0,0,0,-1,1756,792,0,0
539,232,0,0,0,0,0,0,0,0,0,-1,1763,792,0,0
546,232,0,0,0,0,0,0,0,0,0,-1,1770,792,0,0
553,232,0,0,0,0,0,0,0,0,0,-1,1777,792,0,0
560,232,0,0,0,0,0,0,0,0,0,-1,1784,792,0,0
567,232,0,0,0,0,0,0,0,0,0,-1,1791,792,0,0
574,232,0,0,0,0,0,0,0,0,0,-1,1798,792,0,0
581,232,0,0,0,0,0,0,0,0,0,-1,1805,792,0,0
588,232,-0.0296631,-0.0501709,-0.00515123,0.00357913,-0.00123117,0.00374943,-0.00532153,-1.43335,0.00526328,0.033418,1812,792,-0.0296392,0.0501501
595,232,-0.0621338,-0.0196533,-0.00415219,0.00555615,-0.000808725,0.00562306,-0.0042191,-1.48825,0.00570161,0.0344162,1819,792,-0.0621421,0.0196754
602,232,-0.0566406,0.0263672,-0.00273833,0.00611033,-0.000596364,0.00615034,-0.00277834,-1.5038,0.00527609,0.0325799,1826,792,-0.0566772,-0.0263432
609,232,-0.00476074,0.0550537,-0.00138558,0.00598661,-0.000547154,0.006027,-0.00142597,-1.49712,0.00456812,0.0354412,1833,792,-0.00472966,-0.0550717
616,232,0.0701904,0.0786743,-0.000223465,0.00562041,-0.000535624,0.0056691,-0.000272152,-1.48015,0.00387331,0.0403669,1840,792,0.0701733,-0.0786576
623,232,-0.171387,0.196777,0.000730792,0.0050861,-0.000540755,0.00515223,0.000664656,-1.4491,0.0032361,0.0425637,1847,792,-0.171368,-0.196799
630,232,-0.314819,0.348511,0.00145279,0.00424932,-0.000466667,0.00432514,0.00137697,-1.40974,0.00255145,0.0461461,1854,792,-0.314767,-0.348512
637,232,-0.159424,0.4646,0.00199624,0.00318066,-0.00036233,0.00328271,0.00189419,-1.29626,0.00190275,0.0433693,1861,792,-0.159363,-0.464571
644,232,-0.217163,0.290161,0.00235127,0.00268828,-0.000392973,0.00294735,0.0020922,-0.987939,0.0017509,0.0401348,1868,792,-0.217203,-0.290182
651,232,-0.25293,0.106323,0.00278446,0.0021306,-0.000503841,0.00305814,0.00185691,-0.497607,0.0017791,0.0351572,1875,792,-0.252913,-0.106348
658,232,-0.0452881,0.107727,0.00264711,0.00117718,-0.000299584,0.00270582,0.00111847,-0.193528,0.00157001,0.0202436,1882,792,-0.0453342,-0.107744
665,232,-0.03125,0.0866699,0.00208337,0.00121159,-0.000343429,0.00220241,0.00109255,-0.333652,0.00127157,0.0110283,1889,792,-0.0312091,-0.0866787
672,232,-0.0527344,0.0897217,0.00219966,0.000763914,-0.000166495,0.00221871,0.000744859,-0.11395,0.00130382,0.0163219,1896,792,-0.0526737,-0.0897259
679,232,-0.0473633,0.0934448,0.00246366,0.000313513,0.000158263,0.00247525,0.000301926,0.073081,0.0015593,0.0168682,1903,792,-0.0473347,-0.0934495
686,232,-0.0352783,0.10498,0.00235297,0.000207808,0.000124213,0.00236014,0.000200639,0.0576468,0.00151099,0.0154354,1910,792,-0.0353109,-0.104996
693,232,-0.0443115,0.0887451,0.00195298,6.38209e-05,-0.000263904,0.00198915,2.76476e-05,-0.136221,0.00131698,0.00921737,1917,792,-0.0442534,-0.0887331
700,232,-0.0390625,0.0753174,0.00206108,-0.000444715,-0.000416558,0.00212851,-0.000512148,-0.160489,0.00161699,0.0111693,1924,792,-0.0390976,-0.0753135
707,232,-0.0209961,0.0835571,0.00262003,-0.0018174,-0.000682451,0.00272262,-0.00191998,-0.149202,0.00269373,0.0111659,1931,792,-0.0210508,-0.0835381
714,232,-0.0179443,0.0819702,0.00341033,-0.00265016,-0.000942088,0.0035534,-0.00279323,-0.150711,0.00367298,0.0120028,1938,792,-0.0179429,-0.0819901
721,232,-0.0245361,0.0742188,0.00421041,-0.00386195,-0.00123332,0.00439463,-0.00404618,-0.148277,0.00487469,0.0159888,1945,792,-0.0245342,-0.0742194
728,232,-0.00402832,0.0546265,0.0051531,-0.00517868,-0.00150197,0.00536702,-0.0053926,-0.141473,0.00621208,0.0307974,1952,792,-0.00406949,-0.0546373
735,232,0.131714,-0.279114,0.00618837,-0.00706991,-0.00171656,0.00640701,-0.00728855,-0.126688,0.00791259,0.0425572,1959,792,0.131692,0.279086
742,232,0.0269775,-0.37085,0.00731425,-0.0091433,-0.00177309,0.00750311,-0.00933216,-0.106115,0.00973895,0.0440705,1966,792,0.0270148,0.370875
749,232,-0.328491,-0.633667,0,0,0,0,0,0,0,-1,1973,792,-0.328505,0.633653
756,232,-0.968506,-3.51733,0,0,0,0,0,0,0,-1,1980,792,-0.968522,3.51734
763,232,-1.21863,-2.56946,0,0,0,0,0,0,0,-1,1987,792,-1.21868,2.56943
770,232,0,0,0,0,0,0,0,0,0,-1,1994,792,0,0
777,232,0,0,0,0,0,0,0,0,0,-1,2001,792,0,0
784,232,0,0,0,0,0,0,0,0,0,-1,2008,792,0,0
791,232,0,0,0,0,0,0,0,0,0,-1,2015,792,0,0
798,232,0,0,0,0,0,0,0,0,0,-1,2022,792,0,0
805,232,0,0,0,0,0,0,0,0,0,-1,2029,792,0,0
812,232,0,0,0,0,0,0,0,0,0,-1,2036,792,0,0
-700,225,0,0,0,0,0,0,0,0,0,-1,524,799,0,0
-693,225,0,0,0,0,0,0,0,0,0,-1,531,799,0,0
-686,225,0,0,0,0,0,0,0,0,0,-1,538,799,0,0
-679,225,0,0,0,0,0,0,0,0,0,-1,545,799,0,0
-672,225,0,0,0,0,0,0,0,0,0,-1,552,799,0,0
-665,225,0,0,0,0,0,0,0,0,0,-1,559,799,0,0
-658,225,0,0,0,0,0,0,0,0,0,-1,566,799,0,0
-651,225,0,0,0,0,0,0,0,0,0,-1,573,799,0,0
-644,225,-3.09625,1.16492,0,0,0,0,0,0,0,-1,580,799,-3.09624,-1.16493
-637,225,-0.583313,-1.16852,0,0,0,0,0,0,0,-1,587,799,-0.583338,1.1685
-630,225,-0.722229,-1.07257,0.0309216,0.0213623,0.0176291,0.0444074,0.00787643,0.653019,0.02736,0.0495869,594,799,-0.722223,1.07256
-623,225,0.202026,2.26678,0.0268281,0.0190873,0.0153008,0.0387405,0.00717495,0.66152,0.0237986,0.0459449,601,799,0.202052,-2.26681
-616,225,0.560913,1.30505,0.021875,0.0167387,0.0122774,0.03185,0.00676374,0.682297,0.0193763,0.0443389,608,799,0.560908,-1.30505
-609,225,0.670166,-0.632751,0.016912,0.0143886,0.00920672,0.0249431,0.00635753,0.717301,0.0149666,0.0433883,615,799,0.670172,0.632748
-602,225,0.378052,-0.1875,0.0127529,0.0120988,0.00674943,0.0191832,0.00566846,0.761189,0.01138,0.0400162,622,799,0.378046,0.187475
-595,225,-0.0290527,0.111328,0.00896209,0.00984816,0.00458844,0.0140149,0.00479535,0.833526,0.0082248,0.0253771,629,799,-0.0290356,-0.11134
-588,225,-0.0577393,0.0962524,0.00576015,0.00781744,0.00283182,0.00980165,0.00377593,0.959611,0.00570846,0.0114783,636,799,-0.0577154,-0.0962813
-581,225,-0.0292969,0.0845337,0.00341968,0.00598862,0.00173847,0.00686566,0.00254264,1.10356,0.00400807,0.00937444,643,799,-0.0293227,-0.0845607
-574,225,-0.0147705,0.0748291,0.00086498,0.0043983,-0.00013839,0.00440372,0.000859568,-1.53171,0.00269537,0.00724824,650,799,-0.0147401,-0.0748103
-567,225,-0.0292358,0.0628662,-0.00041741,0.00403401,-0.000940871,0.00422471,-0.000608107,-1.37082,0.00303952,0.00913165,657,799,-0.0292503,-0.0628814
-560,225,-0.0285645,0.0635986,-0.000976566,0.00281343,-0.000493846,0.00287672,-0.00103986,-1.44333,0.00234267,0.00951232,664,799,-0.0285595,-0.0636047
-553,225,-0.0317383,0.0493774,-0.00174516,0.00171932,-0.000601697,0.00182084,-0.00184669,-1.40364,0.00211747,0.00952199,671,799,-0.0317103,-0.0493876
-546,225,-0.0220337,0.0563965,-0.00235991,0.00133712,-0.00101847,0.00159912,-0.00262191,-1.319,0.00246075,0.0183191,678,799,-0.0220603,-0.0563761
-539,225,-0.0206299,0.0804443,-0.00275486,0.00124586,-0.00110722,0.00153184,-0.00304084,-1.31803,0.00268753,0.0200767,685,799,-0.0206561,-0.0804336
-532,225,-0.0344238,0.0805054,-0.00288091,0.00161227,-0.00117201,0.00189961,-0.00316824,-1.33037,0.00295632,0.0127433,692,799,-0.0344056,-0.0804973
-525,225,0.00311279,0.103638,-0.00302056,0.00240316,-0.00115528,0.00263899,-0.00325638,-1.36943,0.00340991,0.029792,699,799,0.00312334,-0.103612
-518,225,0.0640869,0.100159,-0.00304156,0.00329014,-0.00110356,0.00347697,-0.00322839,-1.40309,0.00387223,0.0395162,706,799,0.0640935,-0.100181
-511,225,0.114868,0.103638,0,0,0,0,0,0,0,-1,713,799,0.114853,-0.10364
-504,225,0.564514,0.211609,-0.00265629,0.00527261,-0.000853837,0.00536352,-0.0027472,-1.46473,0.00476324,0.0415852,720,799,0.564496,-0.211602
-497,225,0.223511,-0.0105591,-0.00180483,0.00692343,-0.000409752,0.00694262,-0.00182402,-1.52399,0.00534127,0.0410498,727,799,0.223537,0.0105601
-490,225,-0.0316162,0.00299072,-0.000420081,0.00871758,0.000297069,0.00872723,-0.000429728,1.53833,0.00596656,0.0371319,734,799,-0.0316383,-0.00300512
-483,225,-0.0332642,0.0697632,0.0014573,0.0107004,0.00121066,0.0108564,0.00130136,1.44269,0.00684514,0.0344159,741,799,-0.0332514,-0.0697791
-476,225,-0.0341797,0.0309448,0.00369253,0.0128152,0.00222529,0.0133291,0.00317866,1.34385,0.00803876,0.0304829,748,799,-0.0341536,-0.0309734
-469,225,-0.00811768,-0.013855,0.00649396,0.014739,0.00325757,0.0158707,0.00536225,1.23643,0.00932214,0.0308504,755,799,-0.00812326,0.0138372
-462,225,0,0,0,0,0,0,0,0,0,-1,762,799,0,0
-455,225,0,0,0,0,0,0,0,0,0,-1,769,799,0,0
-448,225,0,0,0,0,0,0,0,0,0,-1,776,799,0,0
-441,225,0,0,0,0,0,0,0,0,0,-1,783,799,0,0
-434,225,0,0,0,0,0,0,0,0,0,-1,790,799,0,0
-427,225,0,0,0,0,0,0,0,0,0,-1,797,799,0,0
-420,225,0,0,0,0,0,0,0,0,0,-1,804,799,0,0
-413,225,0,0,0,0,0,0,0,0,0,-1,811,799,0,0
-406,225,0,0,0,0,0,0,0,0,0,-1,818,799,0,0
-399,225,0,0,0,0,0,0,0,0,0,-1,825,799,0,0
-392,225,0,0,0,0,0,0,0,0,0,-1,832,799,0,0
-385,225,0,0,0,0,0,0,0,0,0,-1,839,799,0,0
-378,225,0,0,0,0,0,0,0,0,0,-1,846,799,0,0
-371,225,0,0,0,0,0,0,0,0,0,-1,853,799,0,0
-364,225,0,0,0,0,0,0,0,0,0,-1,860,799,0,0
-357,225,0,0,0,0,0,0,0,0,0,-1,867,799,0,0
-350,225,0,0,0,0,0,0,0,0,0,-1,874,799,0,0
-343,225,0,0,0,0,0,0,0,0,0,-1,881,799,0,0
-336,225,0,0,0,0,0,0,0,0,0,-1,888,799,0,0
-329,225,0,0,0,0,0,0,0,0,0,-1,895,799,0,0
-322,225,0,0,0,0,0,0,0,0,0,-1,902,799,0,0
-315,225,0,0,0,0,0,0,0,0,0,-1,909,799,0,0
-308,225,0,0,0,0,0,0,0,0,0,-1,916,799,0,0
-301,225,0,0,0,0,0,0,0,0,0,-1,923,799,0,0
-294,225,0,0,0,0,0,0,0,0,0,-1,930,799,0,0
-287,225,0,0,0,0,0,0,0,0,0,-1,937,799,0,0
-280,225,0,0,0,0,0,0,0,0,0,-1,944,799,0,0
-273,225,0,0,0,0,0,0,0,0,0,-1,951,799,0,0
-266,225,0,0,0,0,0,0,0,0,0,-1,958,799,0,0
-259,225,0,0,0,0,0,0,0,0,0,-1,965,799,0,0
-252,225,0,0,0,0,0,0,0,0,0,-1,972,799,0,0
-245,225,0,0,0,0,0,0,0,0,0,-1,979,799,0,0
-238,225,0,0,0,0,0,0,0,0,0,-1,986,799,0,0
-231,225,0,0,0,0,0,0,0,0,0,-1,993,799,0,0
-224,225,0,0,0,0,0,0,0,0,0,-1,1000,799,0,0
-217,225,0,0,0,0,0,0,0,0,0,-1,1007,799,0,0
-210,225,0,0,0,0,0,0,0,0,0,-1,1014,799,0,0
-203,225,0,0,0,0,0,0,0,0,0,-1,1021,799,0,0
-196,225,0,0,0,0,0,0,0,0,0,-1,1028,799,0,0
-189,225,0,0,0,0,0,0,0,0,0,-1,1035,799,0,0
-182,225,0,0,0,0,0,0,0,0,0,-1,1042,799,0,0
-175,225,0,0,0,0,0,0,0,0,0,-1,1049,799,0,0
-168,225,0,0,0,0,0,0,0,0,0,-1,1056,799,0,0
-161,225,0,0,0,0,0,0,0,0,0,-1,1063,799,0,0
-154,225,0,0,0,0,0,0,0,0,0,-1,1070,799,0,0
-147,225,0,0,0,0,0,0,0,0,0,-1,1077,799,0,0
-140,225,0,0,0,0,0,0,0,0,0,-1,1084,799,0,0
-133,225,0,0,0,0,0,0,0,0,0,-1,1091,799,0,0
-126,225,0,0,0,0,0,0,0,0,0,-1,1098,799,0,0
-119,225,0,0,0,0,0,0,0,0,0,-1,1105,799,0,0
-112,225,0,0,0,0,0,0,0,0,0,-1,1112,799,0,0
-105,225,0,0,0,0,0,0,0,0,0,-1,1119,799,0,0
-98,225,0,0,0,0,0,0,0,0,0,-1,1126,799,0,0
-91,225,0,0,0,0,0,0,0,0,0,-1,1133,799,0,0
-84,225,0,0,0,0,0,0,0,0,0,-1,1140,799,0,0
-77,225,0,0,0,0,0,0,0,0,0,-1,1147,799,0,0
-70,225,0,0,0,0,0,0,0,0,0,-1,1154,799,0,0
-63,225,0,0,0,0,0,0,0,0,0,-1,1161,799,0,0
-56,225,0,0,0,0,0,0,0,0,0,-1,1168,799,0,0
-49,225,0,0,0,0,0,0,0,0,0,-1,1175,799,0,0
-42,225,0,0,0,0,0,0,0,0,0,-1,1182,799,0,0
-35,225,0,0,0,0,0,0,0,0,0,-1,1189,799,0,0
-28,225,0,0,0,0,0,0,0,0,0,-1,1196,799,0,0
-21,225,0,0,0,0,0,0,0,0,0,-1,1203,799,0,0
-14,225,0,0,0,0,0,0,0,0,0,-1,1210,799,0,0
-7,225,0,0,0,0,0,0,0,0,0,-1,1217,799,0,0
0,225,0,0,0,0,0,0,0,0,0,-1,1224,799,0,0
7,225,0,0,0,0,0,0,0,0,0,-1,1231,799,0,0
14,225,0,0,0,0,0,0,0,0,0,-1,1238,799,0,0
21,225,0,0,0,0,0,0,0,0,0,-1,1245,799,0,0
28,225,0,0,0,0,0,0,0,0,0,-1,1252,799,0,0
35,225,0,0,0,0,0,0,0,0,0,-1,1259,799,0,0
42,225,0,0,0,0,0,0,0,0,0,-1,1266,799,0,0
49,225,0,0,0,0,0,0,0,0,0,-1,1273,799,0,0
56,225,0,0,0,0,0,0,0,0,0,-1,1280,799,0,0
63,225,0,0,0,0,0,0,0,0,0,-1,1287,799,0,0
70,225,0,0,0,0,0,0,0,0,0,-1,1294,799,0,0
77,225,0,0,0,0,0,0,0,0,0,-1,1301,799,0,0
84,225,0,0,0,0,0,0,0,0,0,-1,1308,799,0,0
91,225,0,0,0,0,0,0,0,0,0,-1,1315,799,0,0
98,225,0,0,0,0,0,0,0,0,0,-1,1322,799,0,0
105,225,0,0,0,0,0,0,0,0,0,-1,1329,799,0,0
112,225,0,0,0,0,0,0,0,0,0,-1,1336,799,0,0
119,225,0,0,0,0,0,0,0,0,0,-1,1343,799,0,0
126,225,0,0,0,0,0,0,0,0,0,-1,1350,799,0,0
133,225,0,0,0,0,0,0,0,0,0,-1,1357,799,0,0
140,225,0,0,0,0,0,0,0,0,0,-1,1364,799,0,0
147,225,0,0,0,0,0,0,0,0,0,-1,1371,799,0,0
154,225,0,0,0,0,0,0,0,0,0,-1,1378,799,0,0
161,225,0,0,0,0,0,0,0,0,0,-1,1385,799,0,0
168,225,0,0,0,0,0,0,0,0,0,-1,1392,799,0,0
175,225,0,0,0,0,0,0,0,0,0,-1,1399,799,0,0
182,225,0,0,0,0,0,0,0,0,0,-1,1406,799,0,0
189,225,0,0,0,0,0,0,0,0,0,-1,1413,799,0,0
196,225,0,0,0,0,0,0,0,0,0,-1,1420,799,0,0
203,225,0,0,0,0,0,0,0,0,0,-1,1427,799,0,0
210,225,0,0,0,0,0,0,0,0,0,-1,1434,799,0,0
217,225,0,0,0,0,0,0,0,0,0,-1,1441,799,0,0
224,225,0,0,0,0,0,0,0,0,0,-1,1448,799,0,0
231,225,0,0,0,0,0,0,0,0,0,-1,1455,799,0,0
238,225,0,0,0,0,0,0,0,0,0,-1,1462,799,0,0
245,225,0,0,0,0,0,0,0,0,0,-1,1469,799,0,0
252,225,0,0,0,0,0,0,0,0,0,-1,1476,799,0,0
259,225,0,0,0,0,0,0,0,0,0,-1,1483,799,0,0
266,225,0,0,0,0,0,0,0,0,0,-1,1490,799,0,0
273,225,0,0,0,0,0,0,0,0,0,-1,1497,799,0,0
280,225,0,0,0,0,0,0,0,0,0,-1,1504,799,0,0
287,225,0,0,0,0,0,0,0,0,0,-1,1511,799,0,0
294,225,0,0,0,0,0,0,0,0,0,-1,1518,799,0,0
301,225,0,0,0,0,0,0,0,0,0,-1,1525,799,0,0
308,225,0,0,0,0,0,0,0,0,0,-1,1532,799,0,0
315,225,0,0,0,0,0,0,0,0,0,-1,1539,799,0,0
322,225,0,0,0,0,0,0,0,0,0,-1,1546,799,0,0
329,225,0,0,0,0,0,0,0,0,0,-1,1553,799,0,0
336,225,0,0,0,0,0,0,0,0,0,-1,1560,799,0,0
343,225,0,0,0,0,0,0,0,0,0,-1,1567,799,0,0
350,225,0,0,0,0,0,0,0,0,0,-1,1574,799,0,0
357,225,0,0,0,0,0,0,0,0,0,-1,1581,799,0,0
364,225,0,0,0,0,0,0,0,0,0,-1,1588,799,0,0
371,225,0,0,0,0,0,0,0,0,0,-1,1595,799,0,0
378,225,0,0,0,0,0,0,0,0,0,-1,1602,799,0,0
385,225,0,0,0,0,0,0,0,0,0,-1,1609,799,0,0
392,225,0,0,0,0,0,0,0,0,0,-1,1616,799,0,0
399,225,0,0,0,0,0,0,0,0,0,-1,1623,799,0,0
406,225,0,0,0,0,0,0,0,0,0,-1,1630,799,0,0
413,225,0,0,0,0,0,0,0,0,0,-1,1637,799,0,0
420,225,0,0,0,0,0,0,0,0,0,-1,1644,799,0,0
427,225,0,0,0,0,0,0,0,0,0,-1,1651,799,0,0
434,225,0,0,0,0,0,0,0,0,0,-1,1658,799,0,0
441,225,0,0,0,0,0,0,0,0,0,-1,1665,799,0,0
448,225,0,0,0,0,0,0,0,0,0,-1,1672,799,0,0
455,225,0,0,0,0,0,0,0,0,0,-1,1679,799,0,0
462,225,0,0,0,0,0,0,0,0,0,-1,1686,799,0,0
469,225,0,0,0,0,0,0,0,0,0,-1,1693,799,0,0
476,225,0,0,0,0,0,0,0,0,0,-1,1700,799,0,0
483,225,0,0,0,0,0,0,0,0,0,-1,1707,799,0,0
490,225,0,0,0,0,0,0,0,0,0,-1,1714,799,0,0
497,225,0,0,0,0,0,0,0,0,0,-1,1721,799,0,0
504,225,0,0,0,0,0,0,0,0,0,-1,1728,799,0,0
511,225,0,0,0,0,0,0,0,0,0,-1,1735,799,0,0
518,225,0,0,0,0,0,0,0,0,0,-1,1742,799,0,0
525,225,0,0,0,0,0,0,0,0,0,-1,1749,799,0,0
532,225,0,0,0,0,0,0,0,0,0,-1,1756,799,0,0
539,225,0,0,0,0,0,0,0,0,0,-1,1763,799,0,0
546,225,0,0,0,0,0,0,0,0,0,-1,1770,799,0,0
553,225,0,0,0,0,0,0,0,0,0,-1,1777,799,0,0
560,225,0,0,0,0,0,0,0,0,0,-1,1784,799,0,0
567,225,0,0,0,0,0,0,0,0,0,-1,1791,799,0,0
574,225,0,0,0,0,0,0,0,0,0,-1,1798,799,0,0
581,225,0,0,0,0,0,0,0,0,0,-1,1805,799,0,0
588,225,0.0150146,-0.00268555,-0.00577932,3.79641e-06,-0.000332311,2.28293e-05,-0.00579835,-1.51359,0.0038732,0.0331675,1812,799,0.0150291,0.00268969
595,225,-0.041626,0.00793457,-0.0051974,0.00226323,-0.000237005,0.00227075,-0.00520493,-1.53907,0.00442551,0.0319145,1819,799,-0.0416734,-0.0079376
602,225,-0.110962,0.0701294,-0.00391827,0.00346696,-0.000302783,0.00347935,-0.00393066,-1.52989,0.00428082,0.030818,1826,799,-0.11094,-0.0701463
609,225,-0.0498047,0.0784302,-0.002569,0.00401061,-0.000459873,0.00404259,-0.00260098,-1.50135,0.00386565,0.0293094,1833,799,-0.0498422,-0.0784312
616,225,0.0119629,0.0604858,-0.00132237,0.00412619,-0.00057575,0.00418636,-0.00138254,-1.46666,0.00334829,0.0350719,1840,799,0.0119153,-0.0604913
623,225,0.0603027,-0.00878906,-0.000273435,0.00396639,-0.000626467,0.00405702,-0.000364063,-1.42713,0.00283384,0.0399087,1847,799,0.0603239,0.00878464
630,225,-0.0541992,0.192688,0.000556095,0.00359944,-0.000603041,0.00371457,0.000440957,-1.38214,0.00234327,0.0425437,1854,799,-0.0541873,-0.192678
637,225,-0.0350342,0.362915,0.00119886,0.00306949,-0.000550342,0.00321939,0.00104896,-1.30487,0.00189593,0.0420103,1861,799,-0.0350923,-0.362924
644,225,-0.0772705,0.278809,0.00162389,0.00254987,-0.000479074,0.00275311,0.00142064,-1.16956,0.00158978,0.0431676,1868,799,-0.0772574,-0.278794
651,225,-0.0490723,0.211243,0.0020525,0.00197431,-0.000480915,0.0024959,0.0015309,-0.744839,0.00145331,0.0385923,1875,799,-0.0491128,-0.211258
658,225,-0.0332031,0.121643,0.00203817,0.00110676,-0.000241188,0.00209692,0.00104801,-0.238932,0.00121066,0.0300101,1882,799,-0.0332454,-0.121666
665,225,-0.0388184,0.0614014,0.00168391,0.000993983,-0.000215981,0.00174595,0.000931948,-0.279692,0.00100879,0.0109101,1889,799,-0.038839,-0.0613861
672,225,-0.0688477,0.0720825,0.00179631,0.000542944,-3.05701e-05,0.00179705,0.000542199,-0.0243711,0.00106438,0.0143539,1896,799,-0.0688919,-0.0720844
679,225,-0.0621338,0.071106,0.00196559,0.000107295,0.00022529,0.00199251,8.03723e-05,0.11894,0.00130238,0.0152708,1903,799,-0.0620867,-0.0711283
686,225,-0.0407715,0.0908813,0.00180042,-6.65328e-05,0.000119201,0.001808,-7.41129e-05,0.0635044,0.00123078,0.00949127,1910,799,-0.0408167,-0.0908775
693,225,-0.0579834,0.0853271,0.00134851,-0.000270077,-0.000343393,0.00141835,-0.000339916,-0.200644,0.0010769,0.00947287,1917,799,-0.057935,-0.0853404
700,225,-0.0441895,0.078064,0.00131319,-0.000943196,-0.000649205,0.00148665,-0.00111665,-0.261081,0.00150807,0.0108894,1924,799,-0.0441706,-0.0780633
707,225,-0.02771,0.0918579,0.00167746,-0.00250603,-0.00106151,0.00193139,-0.00275996,-0.234805,0.0027226,0.0112398,1931,799,-0.0277208,-0.0918625
714,225,-0.0386963,0.0811768,0.00217521,-0.00342116,-0.00148352,0.00254415,-0.0037901,-0.243747,0.00368059,0.0122988,1938,799,-0.0387267,-0.0812016
721,225,-0.0339355,0.0646362,0.00260987,-0.00460153,-0.00198544,0.00312036,-0.00511202,-0.251667,0.00479911,0.0128885,1945,799,-0.0338751,-0.064656
728,225,-0.0078125,0.0703735,0.00314023,-0.00588836,-0.00249206,0.00378241,-0.00653054,-0.252203,0.00602424,0.0210285,1952,799,-0.00780999,-0.070358
735,225,-0.116211,-0.166199,0.00372185,-0.00773702,-0.00298229,0.00445155,-0.00846672,-0.239964,0.0075775,0.0356948,1959,799,-0.11626,0.166209
742,225,-0.216431,-0.75415,0.00437034,-0.00962553,-0.00336406,0.00513694,-0.0103921,-0.224054,0.00913524,0.0439687,1966,799,-0.216425,0.754127
749,225,-0.62854,-2.69202,0,0,0,0,0,0,0,-1,1973,799,-0.628549,2.69199
756,225,-0.806152,-2.83203,0.00579656,-0.0119502,-0.00328162,0.00638393,-0.0125376,-0.177114,0.0111152,0.048914,1980,799,-0.806146,2.83203
763,225,-0.828369,-2.7699,0,0,0,0,0,0,0,-1,1987,799,-0.828411,2.76987
770,225,0,0,0,0,0,0,0,0,0,-1,1994,799,0,0
777,225,0,0,0,0,0,0,0,0,0,-1,2001,799,0,0
784,225,0,0,0,0,0,0,0,0,0,-1,2008,799,0,0
791,225,0,0,0,0,0,0,0,0,0,-1,2015,799,0,0
798,225,0,0,0,0,0,0,0,0,0,-1,2022,799,0,0
805,225,0,0,0,0,0,0,0,0,0,-1,2029,799,0,0
812,225,0,0,0,0,0,0,0,0,0,-1,2036,799,0,0
-700,218,0,0,0,0,0,0,0,0,0,-1,524,806,0,0
-693,218,0,0,0,0,0,0,0,0,0,-1,531,806,0,0
-686,218,0,0,0,0,0,0,0,0,0,-1,538,806,0,0
-679,218,0,0,0,0,0,0,0,0,0,-1,545,806,0,0
-672,218,0,0,0,0,0,0,0,0,0,-1,552,806,0,0
-665,218,0,0,0,0,0,0,0,0,0,-1,559,806,0,0
-658,218,0,0,0,0,0,0,0,0,0,-1,566,806,0,0
-651,218,-2.74341,0.461365,0,0,0,0,0,0,0,-1,573,806,-2.74343,-0.46134
-644,218,-2.90991,1.04865,0,0,0,0,0,0,0,-1,580,806,-2.90992,-1.04866
-637,218,-3.07642,1.63599,0,0,0,0,0,0,0,-1,587,806,-3.07641,-1.63597
-630,218,-0.939941,-1.15485,0,0,0,0,0,0,0,-1,594,806,-0.93992,1.15487
-623,218,0.703064,1.78369,0,0,0,0,0,0,0,-1,601,806,0.703059,-1.78369
-616,218,0.85083,0.784973,0,0,0,0,0,0,0,-1,608,806,0.850853,-0.784966
-609,218,-0.11499,-0.983337,0,0,0,0,0,0,0,-1,615,806,-0.115009,0.983312
-602,218,0.0552979,-0.107117,0.0098275,0.01118,0.00646869,0.0170077,0.00399983,0.837482,0.0102682,0.0381735,622,806,0.0553169,0.107144
-595,218,-0.0581055,0.0891113,0.00681963,0.00881914,0.0046041,0.0125308,0.00310799,0.89231,0.00753465,0.0153814,629,806,-0.0580883,-0.0891049
-588,218,-0.0447388,0.095459,0.00418893,0.0068013,0.00296247,0.00873276,0.00225747,0.993033,0.00523422,0.0101954,636,806,-0.0447328,-0.095482
-581,218,-0.0331421,0.0924683,0.00223931,0.00507471,0.00191854,0.00604252,0.00127149,1.10359,0.00367851,0.0100099,643,806,-0.0331539,-0.092493
-574,218,-0.0281982,0.0808105,0.000100273,0.00363803,9.46957e-05,0.00364056,9.77406e-05,1.54405,0.00239512,0.00884173,650,806,-0.0281941,-0.0808013
-567,218,-0.0169678,0.0579224,-0.000817044,0.0033845,-0.000879685,0.00356125,-0.00099379,-1.37252,0.0027656,0.0143484,657,806,-0.0169394,-0.0579344
-560,218,-0.0266724,0.0726929,-0.00118888,0.00237046,-0.00048063,0.00243422,-0.00125264,-1.43891,0.00216474,0.0154866,664,806,-0.0266446,-0.0727008
-553,218,-0.00537109,0.0742798,-0.00177688,0.00147549,-0.000565483,0.001571,-0.00187239,-1.40347,0.00199058,0.01591,671,806,-0.00534428,-0.0742748
-546,218,-0.022644,0.0519409,-0.00218781,0.00122321,-0.00097069,0.0014801,-0.0024447,-1.31208,0.00228868,0.0134029,678,806,-0.0226538,-0.0519152
-539,218,-0.0343628,0.0712891,-0.00241358,0.00118882,-0.00109359,0.00149481,-0.00271957,-1.29797,0.00246719,0.0131825,685,806,-0.0343797,-0.0712699
-532,218,-0.0557251,0.0635986,-0.00252795,0.00143382,-0.00118793,0.00176271,-0.00285684,-1.3007,0.00269192,0.0145669,692,806,-0.055695,-0.0636133
-525,218,0.00531006,0.118164,-0.00269376,0.0019863,-0.00126844,0.00230798,-0.00301543,-1.32243,0.00308251,0.0423244,699,806,0.00528175,-0.118134
-518,218,0.0703735,0.158447,-0.00273986,0.00259087,-0.00130416,0.00289283,-0.00304182,-1.34327,0.00342673,0.0448313,706,806,0.0703802,-0.15846
-511,218,0.270386,0.225159,0,0,0,0,0,0,0,-1,713,806,0.270396,-0.22514
-504,218,0.602722,0.357117,0,0,0,0,0,0,0,-1,720,806,0.602716,-0.357105
-497,218,-0.158203,-0.0321045,-0.00184879,0.00493748,-0.0010541,0.00509745,-0.00200876,-1.42019,0.00422998,0.0467871,727,806,-0.158205,0.0321109
-490,218,-0.0216675,0.0678711,-0.000709255,0.00612542,-0.00056757,0.00617223,-0.000756067,-1.4885,0.00438861,0.0349014,734,806,-0.0216972,-0.0678897
-483,218,-0.0183716,0.0829468,0.000880121,0.00742554,0.000124049,0.00742789,0.000877771,1.55185,0.00468682,0.0322343,741,806,-0.018373,-0.0829392
-476,218,0.0419312,0.0726929,0.00289771,0.00885858,0.0010099,0.00902503,0.00273126,1.40745,0.00534421,0.0346736,748,806,0.0419606,-0.0726892
-469,218,0,0,0,0,0,0,0,0,0,-1,755,806,0,0
-462,218,0,0,0,0,0,0,0,0,0,-1,762,806,0,0
-455,218,0,0,0,0,0,0,0,0,0,-1,769,806,0,0
-448,218,0,0,0,0,0,0,0,0,0,-1,776,806,0,0
-441,218,0,0,0,0,0,0,0,0,0,-1,783,806,0,0
-434,218,0,0,0,0,0,0,0,0,0,-1,790,806,0,0
-427,218,0,0,0,0,0,0,0,0,0,-1,797,806,0,0
-420,218,0,0,0,0,0,0,0,0,0,-1,804,806,0,0
-413,218,0,0,0,0,0,0,0,0,0,-1,811,806,0,0
-406,218,0,0,0,0,0,0,0,0,0,-1,818,806,0,0
-399,218,0,0,0,0,0,0,0,0,0,-1,825,806,0,0
-392,218,0,0,0,0,0,0,0,0,0,-1,832,806,0,0
-385,218,0,0,0,0,0,0,0,0,0,-1,839,806,0,0
-378,218,0,0,0,0,0,0,0,0,0,-1,846,806,0,0
-371,218,0,0,0,0,0,0,0,0,0,-1,853,806,0,0
-364,218,0,0,0,0,0,0,0,0,0,-1,860,806,0,0
-357,218,0,0,0,0,0,0,0,0,0,-1,867,806,0,0
-350,218,0,0,0,0,0,0,0,0,0,-1,874,806,0,0
-343,218,0,0,0,0,0,0,0,0,0,-1,881,806,0,0
-336,218,0,0,0,0,0,0,0,0,0,-1,888,806,0,0
-329,218,0,0,0,0,0,0,0,0,0,-1,895,806,0,0
-322,218,0,0,0,0,0,0,0,0,0,-1,902,806,0,0
-315,218,0,0,0,0,0,0,0,0,0,-1,909,806,0,0
-308,218,0,0,0,0,0,0,0,0,0,-1,916,806,0,0
-301,218,0,0,0,0,0,0,0,0,0,-1,923,806,0,0
-294,218,0,0,0,0,0,0,0,0,0,-1,930,806,0,0
-287,218,0,0,0,0,0,0,0,0,0,-1,937,806,0,0
-280,218,0,0,0,0,0,0,0,0,0,-1,944,806,0,0
-273,218,0,0,0,0,0,0,0,0,0,-1,951,806,0,0
-266,218,0,0,0,0,0,0,0,0,0,-1,958,806,0,0
-259,218,0,0,0,0,0,0,0,0,0,-1,965,806,0,0
-252,218,0,0,0,0,0,0,0,0,0,-1,972,806,0,0
-245,218,0,0,0,0,0,0,0,0,0,-1,979,806,0,0
-238,218,0,0,0,0,0,0,0,0,0,-1,986,806,0,0
-231,218,0,0,0,0,0,0,0,0,0,-1,993,806,0,0
-224,218,0,0,0,0,0,0,0,0,0,-1,1000,806,0,0
-217,218,0,0,0,0,0,0,0,0,0,-1,1007,806,0,0
-210,218,0,0,0,0,0,0,0,0,0,-1,1014,806,0,0
-203,218,0,0,0,0,0,0,0,0,0,-1,1021,806,0,0
-196,218,0,0,0,0,0,0,0,0,0,-1,1028,806,0,0
-189,218,0,0,0,0,0,0,0,0,0,-1,1035,806,0,0
-182,218,0,0,0,0,0,0,0,0,0,-1,1042,806,0,0
-175,218,0,0,0,0,0,0,0,0,0,-1,1049,806,0,0
-168,218,0,0,0,0,0,0,0,0,0,-1,1056,806,0,0
-161,218,0,0,0,0,0,0,0,0,0,-1,1063,806,0,0
-154,218,0,0,0,0,0,0,0,0,0,-1,1070,806,0,0
-147,218,0,0,0,0,0,0,0,0,0,-1,1077,806,0,0
-140,218,0,0,0,0,0,0,0,0,0,-1,1084,806,0,0
-133,218,0,0,0,0,0,0,0,0,0,-1,1091,806,0,0
-126,218,0,0,0,0,0,0,0,0,0,-1,1098,806,0,0
-119,218,0,0,0,0,0,0,0,0,0,-1,1105,806,0,0
-112,218,0,0,0,0,0,0,0,0,0,-1,1112,806,0,0
-105,218,0,0,0,0,0,0,0,0,0,-1,1119,806,0,0
-98,218,0,0,0,0,0,0,0,0,0,-1,1126,806,0,0
-91,218,0,0,0,0,0,0,0,0,0,-1,1133,806,0,0
-84,218,0,0,0,0,0,0,0,0,0,-1,1140,806,0,0
-77,218,0,0,0,0,0,0,0,0,0,-1,1147,806,0,0
-70,218,0,0,0,0,0,0,0,0,0,-1,1154,806,0,0
-63,218,0,0,0,0,0,0,0,0,0,-1,1161,806,0,0
-56,218,0,0,0,0,0,0,0,0,0,-1,1168,806,0,0
-49,218,0,0,0,0,0,0,0,0,0,-1,1175,806,0,0
-42,218,0,0,0,0,0,0,0,0,0,-1,1182,806,0,0
-35,218,0,0,0,0,0,0,0,0,0,-1,1189,806,0,0
-28,218,0,0,0,0,0,0,0,0,0,-1,1196,806,0,0
-21,218,0,0,0,0,0,0,0,0,0,-1,1203,806,0,0
-14,218,0,0,0,0,0,0,0,0,0,-1,1210,806,0,0
-7,218,0,0,0,0,0,0,0,0,0,-1,1217,806,0,0
0,218,0,0,0,0,0,0,0,0,0,-1,1224,806,0,0
7,218,0,0,0,0,0,0,0,0,0,-1,1231,806,0,0
14,218,0,0,0,0,0,0,0,0,0,-1,1238,806,0,0
21,218,0,0,0,0,0,0,0,0,0,-1,1245,806,0,0
28,218,0,0,0,0,0,0,0,0,0,-1,1252,806,0,0
35,218,0,0,0,0,0,0,0,0,0,-1,1259,806,0,0
42,218,0,0,0,0,0,0,0,0,0,-1,1266,806,0,0
49,218,0,0,0,0,0,0,0,0,0,-1,1273,806,0,0
56,218,0,0,0,0,0,0,0,0,0,-1,1280,806,0,0
63,218,0,0,0,0,0,0,0,0,0,-1,1287,806,0,0
70,218,0,0,0,0,0,0,0,0,0,-1,1294,806,0,0
77,218,0,0,0,0,0,0,0,0,0,-1,1301,806,0,0
84,218,0,0,0,0,0,0,0,0,0,-1,1308,806,0,0
91,218,0,0,0,0,0,0,0,0,0,-1,1315,806,0,0
98,218,0,0,0,0,0,0,0,0,0,-1,1322,806,0,0
105,218,0,0,0,0,0,0,0,0,0,-1,1329,806,0,0
112,218,0,0,0,0,0,0,0,0,0,-1,1336,806,0,0
119,218,0,0,0,0,0,0,0,0,0,-1,1343,806,0,0
126,218,0,0,0,0,0,0,0,0,0,-1,1350,806,0,0
133,218,0,0,0,0,0,0,0,0,0,-1,1357,806,0,0
140,218,0,0,0,0,0,0,0,0,0,-1,1364,806,0,0
147,218,0,0,0,0,0,0,0,0,0,-1,1371,806,0,0
154,218,0,0,0,0,0,0,0,0,0,-1,1378,806,0,0
161,218,0,0,0,0,0,0,0,0,0,-1,1385,806,0,0
168,218,0,0,0,0,0,0,0,0,0,-1,1392,806,0,0
175,218,0,0,0,0,0,0,0,0,0,-1,1399,806,0,0
182,218,0,0,0,0,0,0,0,0,0,-1,1406,806,0,0
189,218,0,0,0,0,0,0,0,0,0,-1,1413,806,0,0
196,218,0,0,0,0,0,0,0,0,0,-1,1420,806,0,0
203,218,0,0,0,0,0,0,0,0,0,-1,1427,806,0,0
210,218,0,0,0,0,0,0,0,0,0,-1,1434,806,0,0
217,218,0,0,0,0,0,0,0,0,0,-1,1441,806,0,0
224,218,0,0,0,0,0,0,0,0,0,-1,1448,806,0,0
231,218,0,0,0,0,0,0,0,0,0,-1,1455,806,0,0
238,218,0,0,0,0,0,0,0,0,0,-1,1462,806,0,0
245,218,0,0,0,0,0,0,0,0,0,-1,1469,806,0,0
252,218,0,0,0,0,0,0,0,0,0,-1,1476,806,0,0
259,218,0,0,0,0,0,0,0,0,0,-1,1483,806,0,0
266,218,0,0,0,0,0,0,0,0,0,-1,1490,806,0,0
273,218,0,0,0,0,0,0,0,0,0,-1,1497,806,0,0
280,218,0,0,0,0,0,0,0,0,0,-1,1504,806,0,0
287,218,0,0,0,0,0,0,0,0,0,-1,1511,806,0,0
294,218,0,0,0,0,0,0,0,0,0,-1,1518,806,0,0
301,218,0,0,0,0,0,0,0,0,0,-1,1525,806,0,0
308,218,0,0,0,0,0,0,0,0,0,-1,1532,806,0,0
315,218,0,0,0,0,0,0,0,0,0,-1,1539,806,0,0
322,218,0,0,0,0,0,0,0,0,0,-1,1546,806,0,0
329,218,0,0,0,0,0,0,0,0,0,-1,1553,806,0,0
336,218,0,0,0,0,0,0,0,0,0,-1,1560,806,0,0
343,218,0,0,0,0,0,0,0,0,0,-1,1567,806,0,0
350,218,0,0,0,0,0,0,0,0,0,-1,1574,806,0,0
357,218,0,0,0,0,0,0,0,0,0,-1,1581,806,0,0
364,218,0,0,0,0,0,0,0,0,0,-1,1588,806,0,0
371,218,0,0,0,0,0,0,0,0,0,-1,1595,806,0,0
378,218,0,0,0,0,0,0,0,0,0,-1,1602,806,0,0
385,218,0,0,0,0,0,0,0,0,0,-1,1609,806,0,0
392,218,0,0,0,0,0,0,0,0,0,-1,1616,806,0,0
399,218,0,0,0,0,0,0,0,0,0,-1,1623,806,0,0
406,218,0,0,0,0,0,0,0,0,0,-1,1630,806,0,0
413,218,0,0,0,0,0,0,0,0,0,-1,1637,806,0,0
420,218,0,0,0,0,0,0,0,0,0,-1,1644,806,0,0
427,218,0,0,0,0,0,0,0,0,0,-1,1651,806,0,0
434,218,0,0,0,0,0,0,0,0,0,-1,1658,806,0,0
441,218,0,0,0,0,0,0,0,0,0,-1,1665,806,0,0
448,218,0,0,0,0,0,0,0,0,0,-1,1672,806,0,0
455,218,0,0,0,0,0,0,0,0,0,-1,1679,806,0,0
462,218,0,0,0,0,0,0,0,0,0,-1,1686,806,0,0
469,218,0,0,0,0,0,0,0,0,0,-1,1693,806,0,0
476,218,0,0,0,0,0,0,0,0,0,-1,1700,806,0,0
483,218,0,0,0,0,0,0,0,0,0,-1,1707,806,0,0
490,218,0,0,0,0,0,0,0,0,0,-1,1714,806,0,0
497,218,0,0,0,0,0,0,0,0,0,-1,1721,806,0,0
504,218,0,0,0,0,0,0,0,0,0,-1,1728,806,0,0
511,218,0,0,0,0,0,0,0,0,0,-1,1735,806,0,0
518,218,0,0,0,0,0,0,0,0,0,-1,1742,806,0,0
525,218,0,0,0,0,0,0,0,0,0,-1,1749,806,0,0
532,218,0,0,0,0,0,0,0,0,0,-1,1756,806,0,0
539,218,0,0,0,0,0,0,0,0,0,-1,1763,806,0,0
546,218,0,0,0,0,0,0,0,0,0,-1,1770,806,0,0
553,218,0,0,0,0,0,0,0,0,0,-1,1777,806,0,0
560,218,0,0,0,0,0,0,0,0,0,-1,1784,806,0,0
567,218,0,0,0,0,0,0,0,0,0,-1,1791,806,0,0
574,218,0,0,0,0,0,0,0,0,0,-1,1798,806,0,0
581,218,0,0,0,0,0,0,0,0,0,-1,1805,806,0,0
588,218,0,0,0,0,0,0,0,0,0,-1,1812,806,0,0
595,218,-0.0174561,0.0887451,-0.00554904,0.00203481,-0.000255306,0.0020434,-0.00555762,-1.53718,0.0045421,0.0337237,1819,806,-0.0174481,-0.0887158
602,218,-0.0825195,0.107361,-0.00483745,0.00352332,-0.000682427,0.00357866,-0.00489278,-1.48989,0.00491056,0.0311825,1826,806,-0.082542,-0.107363
609,218,-0.026001,0.0822144,-0.003767,0.00416736,-0.000970495,0.00428435,-0.00388398,-1.45084,0.00471787,0.0260183,1833,806,-0.0260315,-0.0821894
616,218,-0.010498,0.0930786,-0.00256146,0.00428357,-0.0010891,0.00445268,-0.00273057,-1.41675,0.00418679,0.028586,1840,806,-0.0104688,-0.093052
623,218,-0.0109863,0.0240479,-0.00146759,0.00407108,-0.00106251,0.00426791,-0.00166442,-1.38762,0.00353327,0.0333913,1847,806,-0.0109398,-0.0240415
630,218,0.0125732,-0.0458984,-0.000536863,0.00363639,-0.000945789,0.00384073,-0.000741203,-1.35801,0.00283998,0.0350612,1854,806,0.0125831,0.0459054
637,218,-0.019043,0.0817261,0.000220647,0.00308426,-0.000788768,0.00328715,1.77599e-05,-1.31903,0.00218554,0.0395746,1861,806,-0.018986,-0.081741
644,218,-0.10791,0.24939,0.000750047,0.00252783,-0.00061013,0.00271708,0.000560798,-1.27003,0.00165641,0.044151,1868,806,-0.107856,-0.249418
651,218,-0.109619,0.239319,0.00121938,0.00192918,-0.000502472,0.00218944,0.00095911,-1.09287,0.00126731,0.0407449,1875,806,-0.1096,-0.239335
658,218,-0.148926,0.16449,0.00137471,0.00110616,-0.000204076,0.00148472,0.000996149,-0.494424,0.000873743,0.0364147,1882,806,-0.148866,-0.164517
665,218,-0.0545654,0.043457,0.00124969,0.000853946,-0.000107843,0.00127717,0.000826466,-0.249503,0.000747938,0.021357,1889,806,-0.0546163,-0.0434734
672,218,-0.0540771,0.0652466,0.00136696,0.000438523,6.75074e-05,0.00137184,0.00043364,0.0722049,0.000809692,0.00940891,1896,806,-0.0541373,-0.0652686
679,218,-0.0588379,0.065918,0.00146721,2.0151e-05,0.000249902,0.00150915,-2.17908e-05,0.166283,0.00101344,0.00947592,1903,806,-0.0588888,-0.0659024
686,218,-0.0509033,0.0779419,0.00120338,-0.000223919,5.27952e-05,0.00120533,-0.000225869,0.0369222,0.000888467,0.00935019,1910,806,-0.050896,-0.0779438
693,218,-0.050415,0.079895,0.000718586,-0.000505914,-0.000474356,0.000880845,-0.000668173,-0.329584,0.000897131,0.0113852,1917,806,-0.0504515,-0.0798917
700,218,-0.0374756,0.0767212,0.000554712,-0.00134088,-0.000923865,0.000930488,-0.00171666,-0.386306,0.00155063,0.0100868,1924,806,-0.0375313,-0.0767226
707,218,-0.0576172,0.0765381,0.000722112,-0.00305915,-0.00146332,0.00122225,-0.00355929,-0.329338,0.00286843,0.00781775,1931,806,-0.0576729,-0.0765395
714,218,-0.0615234,0.0731201,0.000910009,-0.00406733,-0.00203327,0.001635,-0.00479233,-0.342513,0.00385718,0.00962167,1938,806,-0.061508,-0.0731312
721,218,-0.0439453,0.0643311,0.000982646,-0.00521637,-0.00274198,0.00202142,-0.00625515,-0.362135,0.00498252,0.0104438,1945,806,-0.0439465,-0.064357
728,218,-0.00524902,0.0582886,0.00110962,-0.00644127,-0.00346515,0.00245874,-0.00779039,-0.371285,0.00617846,0.0151955,1952,806,-0.00529979,-0.0582674
735,218,-0.0291748,0.00921631,0.00124574,-0.00820232,-0.00420082,0.00284336,-0.00979994,-0.363421,0.00765908,0.0318836,1959,806,-0.0292269,-0.0091957
742,218,-0.101807,-0.909607,0.00143331,-0.00987428,-0.0048717,0.00324268,-0.0116836,-0.355614,0.00906542,0.0461441,1966,806,-0.101821,0.909597
749,218,-0.528442,-1.94092,0.0016643,-0.0110589,-0.00535796,0.00362002,-0.0130146,-0.349985,0.0101016,0.047588,1973,806,-0.528487,1.94094
756,218,-0.694824,-2.10657,0.00193948,-0.0111658,-0.00552296,0.00395656,-0.0131829,-0.350167,0.0103624,0.0463587,1980,806,-0.694828,2.10654
763,218,-0.288818,0.114685,0,0,0,0,0,0,0,-1,1987,806,-0.288864,-0.114655
770,218,0,0,0,0,0,0,0,0,0,-1,1994,806,0,0
777,218,0,0,0,0,0,0,0,0,0,-1,2001,806,0,0
784,218,0,0,0,0,0,0,0,0,0,-1,2008,806,0,0
791,218,0,0,0,0,0,0,0,0,0,-1,2015,806,0,0
798,218,0,0,0,0,0,0,0,0,0,-1,2022,806,0,0
805,218,0,0,0,0,0,0,0,0,0,-1,2029,806,0,0
812,218,0,0,0,0,0,0,0,0,0,-1,2036,806,0,0
-700,211,0,0,0,0,0,0,0,0,0,-1,524,813,0,0
-693,211,0,0,0,0,0,0,0,0,0,-1,531,813,0,0
-686,211,0,0,0,0,0,0,0,0,0,-1,538,813,0,0
-679,211,0,0,0,0,0,0,0,0,0,-1,545,813,0,0
-672,211,0,0,0,0,0,0,0,0,0,-1,552,813,0,0
-665,211,0,0,0,0,0,0,0,0,0,-1,559,813,0,0
-658,211,0,0,0,0,0,0,0,0,0,-1,566,813,0,0
-651,211,-2.57898,0.668213,0,0,0,0,0,0,0,-1,573,813,-2.57898,-0.668187
-644,211,-2.52228,0.932983,0,0,0,0,0,0,0,-1,580,813,-2.52229,-0.932962
-637,211,-2.42731,1.12457,0,0,0,0,0,0,0,-1,587,813,-2.42732,-1.12458
-630,211,2.91583,0.767822,0,0,0,0,0,0,0,-1,594,813,2.91586,-0.76784
-623,211,1.92126,0.891785,0.0142953,0.0193514,0.0089702,0.026143,0.00750373,0.922749,0.0155434,0.0465159,601,813,1.92124,-0.891775
-616,211,0.950134,0.794006,0.0122026,0.0160138,0.00844818,0.0227686,0.00544774,0.896325,0.0137283,0.0418911,608,813,0.950107,-0.794033
-609,211,-0.0102539,0.0200195,0.00979455,0.0129351,0.0073023,0.0188341,0.00389559,0.891304,0.01148,0.0379191,615,813,-0.0102251,-0.0199983
-602,211,-0.0397339,0.0496216,0.00769344,0.0102536,0.00600915,0.0151175,0.00282953,0.890339,0.00928006,0.0196123,622,813,-0.0397462,-0.0496078
-595,211,-0.0466919,0.078064,0.00545885,0.00782514,0.00452132,0.0113156,0.00196844,0.91337,0.00698069,0.0102695,629,813,-0.0466809,-0.0780927
-588,211,-0.0284424,0.081604,0.00334805,0.00584832,0.00305513,0.00789919,0.00129718,0.979601,0.00489141,0.0098519,636,813,-0.02843,-0.0815786
-581,211,-0.0204468,0.0825195,0.00171261,0.00423412,0.00209344,0.00541713,0.000529597,1.05643,0.00344847,0.0108365,643,813,-0.0204723,-0.0825408
-574,211,-0.0391235,0.0859375,-3.02587e-05,0.00294975,0.000354055,0.00299124,-7.17464e-05,1.45415,0.0020185,0.0116766,650,813,-0.0391416,-0.0859594
-567,211,-0.0352783,0.0875244,-0.000760688,0.00276739,-0.000751615,0.00292083,-0.000914136,-1.36941,0.00231296,0.0167876,657,813,-0.0352594,-0.0875381
-560,211,-0.0258179,0.0936279,-0.00110313,0.00194398,-0.000427108,0.00200272,-0.00116186,-1.43414,0.00184844,0.0194901,664,813,-0.02582,-0.0936577
-553,211,-0.0331421,0.074646,-0.00159351,0.00123157,-0.000498756,0.00131703,-0.00167897,-1.40108,0.00173395,0.0170656,671,813,-0.0331414,-0.0746604
-546,211,-0.0351563,0.0618896,-0.00186609,0.00107063,-0.000876536,0.00131235,-0.00210782,-1.30171,0.00199236,0.0153381,678,813,-0.0351343,-0.0618611
-539,211,-0.0379639,0.0766602,-0.00202284,0.00107834,-0.00100903,0.00137774,-0.00232224,-1.28235,0.00215926,0.00986675,685,813,-0.0379916,-0.0766322
-532,211,-0.0865479,0.048584,-0.00216166,0.00119988,-0.0011067,0.00153152,-0.00249329,-1.27965,0.00234574,0.0282127,692,813,-0.0865605,-0.0485748
-525,211,-0.179749,-0.16449,-0.00229967,0.00148542,-0.00120029,0.00183395,-0.00264821,-1.28819,0.00260197,0.0449255,699,813,-0.179756,0.164462
-518,211,-0.0529175,-0.25769,-0.00239283,0.00175354,-0.0012767,0.00211512,-0.00275441,-1.29481,0.00281948,0.0475139,706,813,-0.0529111,0.257701
-511,211,0.217468,0.601746,0,0,0,0,0,0,0,-1,713,813,0.217444,-0.601767
-504,211,-0.187805,-0.164185,-0.00225466,0.00225463,-0.00136621,0.00263627,-0.00263629,-1.2984,0.00304411,0.0448667,720,813,-0.187811,0.164156
-497,211,-0.175293,-0.0840454,-0.00175785,0.00269301,-0.00123154,0.00301105,-0.00207588,-1.31807,0.00295344,0.0457591,727,813,-0.175315,0.0840555
-490,211,-0.0376587,0.06604,-0.000815829,0.00323561,-0.000899232,0.00342623,-0.00100645,-1.36191,0.0026833,0.0341497,734,813,-0.037672,-0.0660662
-483,211,-0.0745239,0.0368042,0.000542342,0.00386391,-0.000397607,0.00391084,0.00049541,-1.4533,0.00245879,0.031613,741,813,-0.0745271,-0.0368259
-476,211,0.0280762,0.0479126,0.00251003,0.00479407,0.000390518,0.00485899,0.00244511,1.40605,0.00280536,0.0337191,748,813,0.0281063,-0.0479169
-469,211,0,0,0,0,0,0,0,0,0,-1,755,813,0,0
-462,211,0,0,0,0,0,0,0,0,0,-1,762,813,0,0
-455,211,0,0,0,0,0,0,0,0,0,-1,769,813,0,0
-448,211,0,0,0,0,0,0,0,0,0,-1,776,813,0,0
-441,211,0,0,0,0,0,0,0,0,0,-1,783,813,0,0
-434,211,0,0,0,0,0,0,0,0,0,-1,790,813,0,0
-427,211,0,0,0,0,0,0,0,0,0,-1,797,813,0,0
-420,211,0,0,0,0,0,0,0,0,0,-1,804,813,0,0
-413,211,0,0,0,0,0,0,0,0,0,-1,811,813,0,0
-406,211,0,0,0,0,0,0,0,0,0,-1,818,813,0,0
-399,211,0,0,0,0,0,0,0,0,0,-1,825,813,0,0
-392,211,0,0,0,0,0,0,0,0,0,-1,832,813,0,0
-385,211,0,0,0,0,0,0,0,0,0,-1,839,813,0,0
-378,211,0,0,0,0,0,0,0,0,0,-1,846,813,0,0
-371,211,0,0,0,0,0,0,0,0,0,-1,853,813,0,0
-364,211,0,0,0,0,0,0,0,0,0,-1,860,813,0,0
-357,211,0,0,0,0,0,0,0,0,0,-1,867,813,0,0
-350,211,0,0,0,0,0,0,0,0,0,-1,874,813,0,0
-343,211,0,0,0,0,0,0,0,0,0,-1,881,813,0,0
-336,211,0,0,0,0,0,0,0,0,0,-1,888,813,0,0
-329,211,0,0,0,0,0,0,0,0,0,-1,895,813,0,0
-322,211,0,0,0,0,0,0,0,0,0,-1,902,813,0,0
-315,211,0,0,0,0,0,0,0,0,0,-1,909,813,0,0
-308,211,0,0,0,0,0,0,0,0,0,-1,916,813,0,0
-301,211,0,0,0,0,0,0,0,0,0,-1,923,813,0,0
-294,211,0,0,0,0,0,0,0,0,0,-1,930,813,0,0
-287,211,0,0,0,0,0,0,0,0,0,-1,937,813,0,0
-280,211,0,0,0,0,0,0,0,0,0,-1,944,813,0,0
-273,211,0,0,0,0,0,0,0,0,0,-1,951,813,0,0
-266,211,0,0,0,0,0,0,0,0,0,-1,958,813,0,0
-259,211,0,0,0,0,0,0,0,0,0,-1,965,813,0,0
-252,211,0,0,0,0,0,0,0,0,0,-1,972,813,0,0
-245,211,0,0,0,0,0,0,0,0,0,-1,979,813,0,0
-238,211,0,0,0,0,0,0,0,0,0,-1,986,813,0,0
-231,211,0,0,0,0,0,0,0,0,0,-1,993,813,0,0
-224,211,0,0,0,0,0,0,0,0,0,-1,1000,813,0,0
-217,211,0,0,0,0,0,0,0,0,0,-1,1007,813,0,0
-210,211,0,0,0,0,0,0,0,0,0,-1,1014,813,0,0
-203,211,0,0,0,0,0,0,0,0,0,-1,1021,813,0,0
-196,211,0,0,0,0,0,0,0,0,0,-1,1028,813,0,0
-189,211,0,0,0,0,0,0,0,0,0,-1,1035,813,0,0
-182,211,0,0,0,0,0,0,0,0,0,-1,1042,813,0,0
-175,211,0,0,0,0,0,0,0,0,0,-1,1049,813,0,0
-168,211,0,0,0,0,0,0,0,0,0,-1,1056,813,0,0
-161,211,0,0,0,0,0,0,0,0,0,-1,1063,813,0,0
-154,211,0,0,0,0,0,0,0,0,0,-1,1070,813,0,0
-147,211,0,0,0,0,0,0,0,0,0,-1,1077,813,0,0
-140,211,0,0,0,0,0,0,0,0,0,-1,1084,813,0,0
-133,211,0,0,0,0,0,0,0,0,0,-1,1091,813,0,0
-126,211,0,0,0,0,0,0,0,0,0,-1,1098,813,0,0
-119,211,0,0,0,0,0,0,0,0,0,-1,1105,813,0,0
-112,211,0,0,0,0,0,0,0,0,0,-1,1112,813,0,0
-105,211,0,0,0,0,0,0,0,0,0,-1,1119,813,0,0
-98,211,0,0,0,0,0,0,0,0,0,-1,1126,813,0,0
-91,211,0,0,0,0,0,0,0,0,0,-1,1133,813,0,0
-84,211,0,0,0,0,0,0,0,0,0,-1,1140,813,0,0
-77,211,0,0,0,0,0,0,0,0,0,-1,1147,813,0,0
-70,211,0,0,0,0,0,0,0,0,0,-1,1154,813,0,0
-63,211,0,0,0,0,0,0,0,0,0,-1,1161,813,0,0
-56,211,0,0,0,0,0,0,0,0,0,-1,1168,813,0,0
-49,211,0,0,0,0,0,0,0,0,0,-1,1175,813,0,0
-42,211,0,0,0,0,0,0,0,0,0,-1,1182,813,0,0
-35,211,0,0,0,0,0,0,0,0,0,-1,1189,813,0,0
-28,211,0,0,0,0,0,0,0,0,0,-1,1196,813,0,0
-21,211,0,0,0,0,0,0,0,0,0,-1,1203,813,0,0
-14,211,0,0,0,0,0,0,0,0,0,-1,1210,813,0,0
-7,211,0,0,0,0,0,0,0,0,0,-1,1217,813,0,0
0,211,0,0,0,0,0,0,0,0,0,-1,1224,813,0,0
7,211,0,0,0,0,0,0,0,0,0,-1,1231,813,0,0
14,211,0,0,0,0,0,0,0,0,0,-1,1238,813,0,0
21,211,0,0,0,0,0,0,0,0,0,-1,1245,813,0,0
28,211,0,0,0,0,0,0,0,0,0,-1,1252,813,0,0
35,211,0,0,0,0,0,0,0,0,0,-1,1259,813,0,0
42,211,0,0,0,0,0,0,0,0,0,-1,1266,813,0,0
49,211,0,0,0,0,0,0,0,0,0,-1,1273,813,0,0
56,211,0,0,0,0,0,0,0,0,0,-1,1280,813,0,0
63,211,0,0,0,0,0,0,0,0,0,-1,1287,813,0,0
70,211,0,0,0,0,0,0,0,0,0,-1,1294,813,0,0
77,211,0,0,0,0,0,0,0,0,0,-1,1301,813,0,0
84,211,0,0,0,0,0,0,0,0,0,-1,1308,813,0,0
91,211,0,0,0,0,0,0,0,0,0,-1,1315,813,0,0
98,211,0,0,0,0,0,0,0,0,0,-1,1322,813,0,0
105,211,0,0,0,0,0,0,0,0,0,-1,1329,813,0,0
112,211,0,0,0,0,0,0,0,0,0,-1,1336,813,0,0
119,211,0,0,0,0,0,0,0,0,0,-1,1343,813,0,0
126,211,0,0,0,0,0,0,0,0,0,-1,1350,813,0,0
133,211,0,0,0,0,0,0,0,0,0,-1,1357,813,0,0
140,211,0,0,0,0,0,0,0,0,0,-1,1364,813,0,0
147,211,0,0,0,0,0,0,0,0,0,-1,1371,813,0,0
154,211,0,0,0,0,0,0,0,0,0,-1,1378,813,0,0
161,211,0,0,0,0,0,0,0,0,0,-1,1385,813,0,0
168,211,0,0,0,0,0,0,0,0,0,-1,1392,813,0,0
175,211,0,0,0,0,0,0,0,0,0,-1,1399,813,0,0
182,211,0,0,0,0,0,0,0,0,0,-1,1406,813,0,0
189,211,0,0,0,0,0,0,0,0,0,-1,1413,813,0,0
196,211,0,0,0,0,0,0,0,0,0,-1,1420,813,0,0
203,211,0,0,0,0,0,0,0,0,0,-1,1427,813,0,0
210,211,0,0,0,0,0,0,0,0,0,-1,1434,813,0,0
217,211,0,0,0,0,0,0,0,0,0,-1,1441,813,0,0
224,211,0,0,0,0,0,0,0,0,0,-1,1448,813,0,0
231,211,0,0,0,0,0,0,0,0,0,-1,1455,813,0,0
238,211,0,0,0,0,0,0,0,0,0,-1,1462,813,0,0
245,211,0,0,0,0,0,0,0,0,0,-1,1469,813,0,0
252,211,0,0,0,0,0,0,0,0,0,-1,1476,813,0,0
259,211,0,0,0,0,0,0,0,0,0,-1,1483,813,0,0
266,211,0,0,0,0,0,0,0,0,0,-1,1490,813,0,0
273,211,0,0,0,0,0,0,0,0,0,-1,1497,813,0,0
280,211,0,0,0,0,0,0,0,0,0,-1,1504,813,0,0
287,211,0,0,0,0,0,0,0,0,0,-1,1511,813,0,0
294,211,0,0,0,0,0,0,0,0,0,-1,1518,813,0,0
301,211,0,0,0,0,0,0,0,0,0,-1,1525,813,0,0
308,211,0,0,0,0,0,0,0,0,0,-1,1532,813,0,0
315,211,0,0,0,0,0,0,0,0,0,-1,1539,813,0,0
322,211,0,0,0,0,0,0,0,0,0,-1,1546,813,0,0
329,211,0,0,0,0,0,0,0,0,0,-1,1553,813,0,0
336,211,0,0,0,0,0,0,0,0,0,-1,1560,813,0,0
343,211,0,0,0,0,0,0,0,0,0,-1,1567,813,0,0
350,211,0,0,0,0,0,0,0,0,0,-1,1574,813,0,0
357,211,0,0,0,0,0,0,0,0,0,-1,1581,813,0,0
364,211,0,0,0,0,0,0,0,0,0,-1,1588,813,0,0
371,211,0,0,0,0,0,0,0,0,0,-1,1595,813,0,0
378,211,0,0,0,0,0,0,0,0,0,-1,1602,813,0,0
385,211,0,0,0,0,0,0,0,0,0,-1,1609,813,0,0
392,211,0,0,0,0,0,0,0,0,0,-1,1616,813,0,0
399,211,0,0,0,0,0,0,0,0,0,-1,1623,813,0,0
406,211,0,0,0,0,0,0,0,0,0,-1,1630,813,0,0
413,211,0,0,0,0,0,0,0,0,0,-1,1637,813,0,0
420,211,0,0,0,0,0,0,0,0,0,-1,1644,813,0,0
427,211,0,0,0,0,0,0,0,0,0,-1,1651,813,0,0
434,211,0,0,0,0,0,0,0,0,0,-1,1658,813,0,0
441,211,0,0,0,0,0,0,0,0,0,-1,1665,813,0,0
448,211,0,0,0,0,0,0,0,0,0,-1,1672,813,0,0
455,211,0,0,0,0,0,0,0,0,0,-1,1679,813,0,0
462,211,0,0,0,0,0,0,0,0,0,-1,1686,813,0,0
469,211,0,0,0,0,0,0,0,0,0,-1,1693,813,0,0
476,211,0,0,0,0,0,0,0,0,0,-1,1700,813,0,0
483,211,0,0,0,0,0,0,0,0,0,-1,1707,813,0,0
490,211,0,0,0,0,0,0,0,0,0,-1,1714,813,0,0
497,211,0,0,0,0,0,0,0,0,0,-1,1721,813,0,0
504,211,0,0,0,0,0,0,0,0,0,-1,1728,813,0,0
511,211,0,0,0,0,0,0,0,0,0,-1,1735,813,0,0
518,211,0,0,0,0,0,0,0,0,0,-1,1742,813,0,0
525,211,0,0,0,0,0,0,0,0,0,-1,1749,813,0,0
532,211,0,0,0,0,0,0,0,0,0,-1,1756,813,0,0
539,211,0,0,0,0,0,0,0,0,0,-1,1763,813,0,0
546,211,0,0,0,0,0,0,0,0,0,-1,1770,813,0,0
553,211,0,0,0,0,0,0,0,0,0,-1,1777,813,0,0
560,211,0,0,0,0,0,0,0,0,0,-1,1784,813,0,0
567,211,0,0,0,0,0,0,0,0,0,-1,1791,813,0,0
574,211,0,0,0,0,0,0,0,0,0,-1,1798,813,0,0
581,211,0,0,0,0,0,0,0,0,0,-1,1805,813,0,0
588,211,0,0,0,0,0,0,0,0,0,-1,1812,813,0,0
595,211,0.0456543,-0.0415649,-0.00562191,0.00122915,-4.18351e-05,0.00122941,-0.00562216,-1.56469,0.00421806,0.0356409,1819,813,0.0456372,0.0415454
602,211,0.00720215,0.0926514,-0.00529465,0.00294972,-0.00076702,0.00302048,-0.00536541,-1.47881,0.00490428,0.0331709,1826,813,0.00724576,-0.0926496
609,211,-0.0065918,0.0736694,-0.00447927,0.00368172,-0.0011444,0.00383916,-0.00463671,-1.43408,0.00490077,0.0304368,1833,813,-0.00657286,-0.0736811
616,211,-0.0183105,0.0701294,-0.00333351,0.00394578,-0.00127701,0.0041633,-0.00355104,-1.40208,0.00445855,0.02661,1840,813,-0.0182676,-0.0701459
623,211,-0.0313721,0.0924683,-0.00224581,0.00376826,-0.001195,0.00399701,-0.00247456,-1.38166,0.00377067,0.0278362,1847,813,-0.0314066,-0.0924887
630,211,0.0537109,-0.0129395,-0.00129104,0.00336529,-0.00101839,0.00357828,-0.00150403,-1.36462,0.00301464,0.0304367,1854,813,0.0536532,0.0129526
637,211,0.0939941,-0.0291748,-0.000504238,0.00285674,-0.000803511,0.00303896,-0.000686455,-1.34779,0.00228936,0.0361693,1861,813,0.0939553,0.0291695
644,211,0.0712891,-0.0731812,4.55391e-05,0.00233642,-0.000570475,0.00247062,-8.86592e-05,-1.33976,0.00167741,0.0397905,1868,813,0.0713329,0.07317
651,211,-0.258423,0.262207,0.000505004,0.0017784,-0.000406802,0.00189727,0.000386142,-1.28652,0.0011578,0.0418319,1875,813,-0.258481,-0.262229
658,211,-0.27417,-0.0256348,0.000759744,0.00105503,-0.000102609,0.00108719,0.00072759,-1.26712,0.000639562,0.0411684,1882,813,-0.274167,0.0256335
665,211,-0.105347,0.0195313,0.000781244,0.000757678,2.45009e-05,0.000796648,0.000742274,0.561264,0.000513933,0.033307,1889,813,-0.105398,-0.0195548
672,211,-0.0369873,0.0658569,0.000884279,0.000405886,0.000174451,0.000941137,0.000349028,0.315067,0.000549374,0.0128997,1896,813,-0.036971,-0.0658763
679,211,-0.057251,0.0782471,0.000966132,4.99721e-05,0.000311902,0.00106224,-4.61324e-05,0.298893,0.000724025,0.0103296,1903,813,-0.0572025,-0.0782757
686,211,-0.0526123,0.0753174,0.000783212,-0.00020905,0.000101836,0.000793555,-0.000219394,0.101224,0.000615346,0.00969749,1910,813,-0.0525905,-0.0753218
693,211,-0.0524902,0.0803833,0.000406801,-0.000516559,-0.000413115,0.000564647,-0.000674405,-0.36497,0.000716302,0.0114384,1917,813,-0.0525497,-0.0803745
700,211,-0.0941162,0.0825806,0.000290082,-0.00142629,-0.000900337,0.000675717,-0.00181193,-0.404682,0.00148534,0.0136667,1924,813,-0.0940664,-0.0825753
707,211,-0.0994873,0.0812988,0.000486453,-0.00317438,-0.00142719,0.000977088,-0.00366502,-0.331122,0.00282592,0.0186958,1931,813,-0.0994625,-0.081328
714,211,-0.079834,0.0952148,0.000676238,-0.00415311,-0.00196398,0.0013741,-0.00485097,-0.341415,0.00377629,0.0195232,1938,813,-0.0797963,-0.0952436
721,211,-0.0825195,0.048645,0.000766924,-0.00510643,-0.00268109,0.00180671,-0.00614623,-0.369966,0.00481409,0.0125325,1945,813,-0.0825398,-0.0486599
728,211,-0.0373535,0.0470581,0.000926878,-0.00599986,-0.00335897,0.0022882,-0.00736118,-0.385049,0.00582205,0.0120886,1952,813,-0.0373302,-0.0470415
735,211,-0.0078125,0.045105,0.00108354,-0.00739649,-0.00405695,0.0027118,-0.00902474,-0.381669,0.00709532,0.0240865,1959,813,-0.00779927,-0.0451216
742,211,-0.128784,-0.866577,0.00130112,-0.00852681,-0.00471101,0.00319456,-0.0104202,-0.382158,0.00822124,0.0451702,1966,813,-0.128797,0.866556
749,211,-0.417114,-1.16693,0.00156383,-0.00894231,-0.00521399,0.00371214,-0.0110906,-0.390832,0.00889324,0.0467477,1973,813,-0.417105,1.16694
756,211,-0.135742,-1.29529,0.00185079,-0.00801304,-0.00544955,0.0042688,-0.010431,-0.417609,0.008732,0.0430937,1980,813,-0.135793,1.29527
763,211,0.0195313,-0.280579,0.00211936,-0.00482111,-0.00529521,0.00498015,-0.00768189,-0.495333,0.00736569,0.0445287,1987,813,0.0195432,0.280567
770,211,0.188965,-0.818115,0.00224763,0.00201578,-0.00463807,0.00677123,-0.00250782,-0.772904,0.00554255,0.0483505,1994,813,0.189009,0.818129
777,211,0,0,0,0,0,0,0,0,0,-1,2001,813,0,0
784,211,0,0,0,0,0,0,0,0,0,-1,2008,813,0,0
791,211,0,0,0,0,0,0,0,0,0,-1,2015,813,0,0
798,211,0,0,0,0,0,0,0,0,0,-1,2022,813,0,0
805,211,0,0,0,0,0,0,0,0,0,-1,2029,813,0,0
812,211,0,0,0,0,0,0,0,0,0,-1,2036,813,0,0
-700,204,0,0,0,0,0,0,0,0,0,-1,524,820,0,0
-693,204,0,0,0,0,0,0,0,0,0,-1,531,820,0,0
-686,204,0,0,0,0,0,0,0,0,0,-1,538,820,0,0
-679,204,0,0,0,0,0,0,0,0,0,-1,545,820,0,0
-672,204,0,0,0,0,0,0,0,0,0,-1,552,820,0,0
-665,204,0,0,0,0,0,0,0,0,0,-1,559,820,0,0
-658,204,0,0,0,0,0,0,0,0,0,-1,566,820,0,0
-651,204,-2.4093,0.766052,0,0,0,0,0,0,0,-1,573,820,-2.40932,-0.766034
-644,204,-2.45056,0.943665,0,0,0,0,0,0,0,-1,580,820,-2.45053,-0.943659
-637,204,-2.29169,1.00586,0,0,0,0,0,0,0,-1,587,820,-2.29171,-1.00585
-630,204,-2.4707,1.06677,0,0,0,0,0,0,0,-1,594,820,-2.47068,-1.06675
-623,204,-0.345764,0.243713,0.0084431,0.0190227,0.00518184,0.0211379,0.00632794,1.18325,0.0125272,0.0394907,601,820,-0.345791,-0.243714
-616,204,0.00665283,0.284912,0.00768081,0.0154554,0.00577585,0.0185303,0.00460597,1.0816,0.0111402,0.0421578,608,820,0.0066581,-0.284914
-609,204,-0.00720215,0.0661621,0.00646877,0.012242,0.00552231,0.0155866,0.00312413,1.02623,0.00952209,0.0344225,615,820,-0.00722644,-0.0661394
-602,204,-0.0256348,0.0598755,0.00537085,0.00952614,0.00486318,0.0127369,0.0021601,0.987272,0.00787066,0.0145712,622,820,-0.025618,-0.0598469
-595,204,-0.0177612,0.0812378,0.00390145,0.00712308,0.00380122,0.0096407,0.00138383,0.985809,0.00601912,0.0146554,629,820,-0.0177569,-0.0812137
-588,204,-0.0201416,0.0583496,0.00231585,0.00522658,0.00258499,0.00673774,0.000804693,1.04179,0.00424907,0.0106144,636,820,-0.0201577,-0.0583299
-581,204,-0.00848389,0.0571899,0.00101143,0.00372344,0.00178345,0.00460785,0.000127029,1.11044,0.00303044,0.0106239,643,820,-0.00849046,-0.0572118
-574,204,-0.0253296,0.0814209,-0.000255484,0.0025847,0.000225432,0.00260248,-0.000273266,1.49208,0.00183288,0.0126118,650,820,-0.0253406,-0.0814455
-567,204,-0.0401001,0.0883789,-0.000808045,0.00237478,-0.00089071,0.00260709,-0.00104035,-1.31567,0.00216964,0.0122845,657,820,-0.0400958,-0.0883794
-560,204,-0.0425415,0.0679321,-0.00114809,0.00165071,-0.0005929,0.00177113,-0.00126851,-1.37042,0.00176291,0.011754,664,820,-0.0425238,-0.0679418
-553,204,-0.0236206,0.0593872,-0.00154072,0.00103561,-0.000605833,0.00117097,-0.00167608,-1.35099,0.00165234,0.00843341,671,820,-0.0236386,-0.0593728
-546,204,-0.0213013,0.0761719,-0.00171377,0.000857296,-0.000902493,0.00114246,-0.00199893,-1.26475,0.00183602,0.00899837,678,820,-0.0213236,-0.0761448
-539,204,-0.0197144,0.11438,-0.0017642,0.000801889,-0.00099524,0.00114264,-0.00210495,-1.24093,0.00190224,0.0144193,685,820,-0.0196867,-0.114384
-532,204,-0.247559,-0.125549,-0.00184672,0.000761434,-0.00103454,0.00112196,-0.00220724,-1.23547,0.00195586,0.0364517,692,820,-0.247536,0.125543
-525,204,-0.414246,-0.279419,-0.00192904,0.000751734,-0.00109403,0.00114153,-0.00231883,-1.22852,0.00203602,0.0427454,699,820,-0.414223,0.279432
-518,204,-0.287842,-0.362427,-0.00201579,0.000680633,-0.00117547,0.00112111,-0.00245627,-1.21227,0.00211281,0.0448863,706,820,-0.287839,0.362419
-511,204,-0.144104,-0.145447,-0.00200841,0.000512264,-0.00124848,0.00102595,-0.0025221,-1.18046,0.0021083,0.046577,713,820,-0.144094,0.145463
-504,204,-0.186646,-0.138672,-0.00185223,0.000379032,-0.0012881,0.000967467,-0.00244067,-1.14228,0.00202804,0.0422624,720,820,-0.186623,0.138669
-497,204,-0.182251,-0.078186,-0.00142307,0.000295945,-0.00125675,0.000958995,-0.00208612,-1.08532,0.00179779,0.0359992,727,820,-0.182241,0.0781935
-490,204,-0.163269,-0.0125732,-0.000596477,0.000286247,-0.00111866,0.00104746,-0.00135769,-0.973296,0.00139246,0.0327034,734,820,-0.16328,0.0125942
-483,204,-0.110596,-0.0280151,0.000572932,0.000433223,-0.000969823,0.00147541,-0.000469258,-0.749446,0.00117178,0.0380202,741,820,-0.110583,0.027993
-476,204,0,0,0,0,0,0,0,0,0,-1,748,820,0,0
-469,204,0,0,0,0,0,0,0,0,0,-1,755,820,0,0
-462,204,0,0,0,0,0,0,0,0,0,-1,762,820,0,0
-455,204,0,0,0,0,0,0,0,0,0,-1,769,820,0,0
-448,204,0,0,0,0,0,0,0,0,0,-1,776,820,0,0
-441,204,0,0,0,0,0,0,0,0,0,-1,783,820,0,0
-434,204,0,0,0,0,0,0,0,0,0,-1,790,820,0,0
-427,204,0,0,0,0,0,0,0,0,0,-1,797,820,0,0
-420,204,0,0,0,0,0,0,0,0,0,-1,804,820,0,0
-413,204,0,0,0,0,0,0,0,0,0,-1,811,820,0,0
-406,204,0,0,0,0,0,0,0,0,0,-1,818,820,0,0
-399,204,0,0,0,0,0,0,0,0,0,-1,825,820,0,0
-392,204,0,0,0,0,0,0,0,0,0,-1,832,820,0,0
-385,204,0,0,0,0,0,0,0,0,0,-1,839,820,0,0
-378,204,0,0,0,0,0,0,0,0,0,-1,846,820,0,0
-371,204,0,0,0,0,0,0,0,0,0,-1,853,820,0,0
-364,204,0,0,0,0,0,0,0,0,0,-1,860,820,0,0
-357,204,0,0,0,0,0,0,0,0,0,-1,867,820,0,0
-350,204,0,0,0,0,0,0,0,0,0,-1,874,820,0,0
-343,204,0,0,0,0,0,0,0,0,0,-1,881,820,0,0
-336,204,0,0,0,0,0,0,0,0,0,-1,888,820,0,0
-329,204,0,0,0,0,0,0,0,0,0,-1,895,820,0,0
-322,204,0,0,0,0,0,0,0,0,0,-1,902,820,0,0
-315,204,0,0,0,0,0,0,0,0,0,-1,909,820,0,0
-308,204,0,0,0,0,0,0,0,0,0,-1,916,820,0,0
-301,204,0,0,0,0,0,0,0,0,0,-1,923,820,0,0
-294,204,0,0,0,0,0,0,0,0,0,-1,930,820,0,0
-287,204,0,0,0,0,0,0,0,0,0,-1,937,820,0,0
-280,204,0,0,0,0,0,0,0,0,0,-1,944,820,0,0
-273,204,0,0,0,0,0,0,0,0,0,-1,951,820,0,0
-266,204,0,0,0,0,0,0,0,0,0,-1,958,820,0,0
-259,204,0,0,0,0,0,0,0,0,0,-1,965,820,0,0
-252,204,0,0,0,0,0,0,0,0,0,-1,972,820,0,0
-245,204,0,0,0,0,0,0,0,0,0,-1,979,820,0,0
-238,204,0,0,0,0,0,0,0,0,0,-1,986,820,0,0
-231,204,0,0,0,0,0,0,0,0,0,-1,993,820,0,0
-224,204,0,0,0,0,0,0,0,0,0,-1,1000,820,0,0
-217,204,0,0,0,0,0,0,0,0,0,-1,1007,820,0,0
-210,204,0,0,0,0,0,0,0,0,0,-1,1014,820,0,0
-203,204,0,0,0,0,0,0,0,0,0,-1,1021,820,0,0
-196,204,0,0,0,0,0,0,0,0,0,-1,1028,820,0,0
-189,204,0,0,0,0,0,0,0,0,0,-1,1035,820,0,0
-182,204,0,0,0,0,0,0,0,0,0,-1,1042,820,0,0
-175,204,0,0,0,0,0,0,0,0,0,-1,1049,820,0,0
-168,204,0,0,0,0,0,0,0,0,0,-1,1056,820,0,0
-161,204,0,0,0,0,0,0,0,0,0,-1,1063,820,0,0
-154,204,0,0,0,0,0,0,0,0,0,-1,1070,820,0,0
-147,204,0,0,0,0,0,0,0,0,0,-1,1077,820,0,0
-140,204,0,0,0,0,0,0,0,0,0,-1,1084,820,0,0
-133,204,0,0,0,0,0,0,0,0,0,-1,1091,820,0,0
-126,204,0,0,0,0,0,0,0,0,0,-1,1098,820,0,0
-119,204,0,0,0,0,0,0,0,0,0,-1,1105,820,0,0
-112,204,0,0,0,0,0,0,0,0,0,-1,1112,820,0,0
-105,204,0,0,0,0,0,0,0,0,0,-1,1119,820,0,0
-98,204,0,0,0,0,0,0,0,0,0,-1,1126,820,0,0
-91,204,0,0,0,0,0,0,0,0,0,-1,1133,820,0,0
-84,204,0,0,0,0,0,0,0,0,0,-1,1140,820,0,0
-77,204,0,0,0,0,0,0,0,0,0,-1,1147,820,0,0
-70,204,0,0,0,0,0,0,0,0,0,-1,1154,820,0,0
-63,204,0,0,0,0,0,0,0,0,0,-1,1161,820,0,0
-56,204,0,0,0,0,0,0,0,0,0,-1,1168,820,0,0
-49,204,0,0,0,0,0,0,0,0,0,-1,1175,820,0,0
-42,204,0,0,0,0,0,0,0,0,0,-1,1182,820,0,0
-35,204,0,0,0,0,0,0,0,0,0,-1,1189,820,0,0
-28,204,0,0,0,0,0,0,0,0,0,-1,1196,820,0,0
-21,204,0,0,0,0,0,0,0,0,0,-1,1203,820,0,0
-14,204,0,0,0,0,0,0,0,0,0,-1,1210,820,0,0
-7,204,0,0,0,0,0,0,0,0,0,-1,1217,820,0,0
0,204,0,0,0,0,0,0,0,0,0,-1,1224,820,0,0
7,204,0,0,0,0,0,0,0,0,0,-1,1231,820,0,0
14,204,0,0,0,0,0,0,0,0,0,-1,1238,820,0,0
21,204,0,0,0,0,0,0,0,0,0,-1,1245,820,0,0
28,204,0,0,0,0,0,0,0,0,0,-1,1252,820,0,0
35,204,0,0,0,0,0,0,0,0,0,-1,1259,820,0,0
42,204,0,0,0,0,0,0,0,0,0,-1,1266,820,0,0
49,204,0,0,0,0,0,0,0,0,0,-1,1273,820,0,0
56,204,0,0,0,0,0,0,0,0,0,-1,1280,820,0,0
63,204,0,0,0,0,0,0,0,0,0,-1,1287,820,0,0
70,204,0,0,0,0,0,0,0,0,0,-1,1294,820,0,0
77,204,0,0,0,0,0,0,0,0,0,-1,1301,820,0,0
84,204,0,0,0,0,0,0,0,0,0,-1,1308,820,0,0
91,204,0,0,0,0,0,0,0,0,0,-1,1315,820,0,0
98,204,0,0,0,0,0,0,0,0,0,-1,1322,820,0,0
105,204,0,0,0,0,0,0,0,0,0,-1,1329,820,0,0
112,204,0,0,0,0,0,0,0,0,0,-1,1336,820,0,0
119,204,0,0,0,0,0,0,0,0,0,-1,1343,820,0,0
126,204,0,0,0,0,0,0,0,0,0,-1,1350,820,0,0
133,204,0,0,0,0,0,0,0,0,0,-1,1357,820,0,0
140,204,0,0,0,0,0,0,0,0,0,-1,1364,820,0,0
147,204,0,0,0,0,0,0,0,0,0,-1,1371,820,0,0
154,204,0,0,0,0,0,0,0,0,0,-1,1378,820,0,0
161,204,0,0,0,0,0,0,0,0,0,-1,1385,820,0,0
168,204,0,0,0,0,0,0,0,0,0,-1,1392,820,0,0
175,204,0,0,0,0,0,0,0,0,0,-1,1399,820,0,0
182,204,0,0,0,0,0,0,0,0,0,-1,1406,820,0,0
189,204,0,0,0,0,0,0,0,0,0,-1,1413,820,0,0
196,204,0,0,0,0,0,0,0,0,0,-1,1420,820,0,0
203,204,0,0,0,0,0,0,0,0,0,-1,1427,820,0,0
210,204,0,0,0,0,0,0,0,0,0,-1,1434,820,0,0
217,204,0,0,0,0,0,0,0,0,0,-1,1441,820,0,0
224,204,0,0,0,0,0,0,0,0,0,-1,1448,820,0,0
231,204,0,0,0,0,0,0,0,0,0,-1,1455,820,0,0
238,204,0,0,0,0,0,0,0,0,0,-1,1462,820,0,0
245,204,0,0,0,0,0,0,0,0,0,-1,1469,820,0,0
252,204,0,0,0,0,0,0,0,0,0,-1,1476,820,0,0
259,204,0,0,0,0,0,0,0,0,0,-1,1483,820,0,0
266,204,0,0,0,0,0,0,0,0,0,-1,1490,820,0,0
273,204,0,0,0,0,0,0,0,0,0,-1,1497,820,0,0
280,204,0,0,0,0,0,0,0,0,0,-1,1504,820,0,0
287,204,0,0,0,0,0,0,0,0,0,-1,1511,820,0,0
294,204,0,0,0,0,0,0,0,0,0,-1,1518,820,0,0
301,204,0,0,0,0,0,0,0,0,0,-1,1525,820,0,0
308,204,0,0,0,0,0,0,0,0,0,-1,1532,820,0,0
315,204,0,0,0,0,0,0,0,0,0,-1,1539,820,0,0
322,204,0,0,0,0,0,0,0,0,0,-1,1546,820,0,0
329,204,0,0,0,0,0,0,0,0,0,-1,1553,820,0,0
336,204,0,0,0,0,0,0,0,0,0,-1,1560,820,0,0
343,204,0,0,0,0,0,0,0,0,0,-1,1567,820,0,0
350,204,0,0,0,0,0,0,0,0,0,-1,1574,820,0,0
357,204,0,0,0,0,0,0,0,0,0,-1,1581,820,0,0
364,204,0,0,0,0,0,0,0,0,0,-1,1588,820,0,0
371,204,0,0,0,0,0,0,0,0,0,-1,1595,820,0,0
378,204,0,0,0,0,0,0,0,0,0,-1,1602,820,0,0
385,204,0,0,0,0,0,0,0,0,0,-1,1609,820,0,0
392,204,0,0,0,0,0,0,0,0,0,-1,1616,820,0,0
399,204,0,0,0,0,0,0,0,0,0,-1,1623,820,0,0
406,204,0,0,0,0,0,0,0,0,0,-1,1630,820,0,0
413,204,0,0,0,0,0,0,0,0,0,-1,1637,820,0,0
420,204,0,0,0,0,0,0,0,0,0,-1,1644,820,0,0
427,204,0,0,0,0,0,0,0,0,0,-1,1651,820,0,0
434,204,0,0,0,0,0,0,0,0,0,-1,1658,820,0,0
441,204,0,0,0,0,0,0,0,0,0,-1,1665,820,0,0
448,204,0,0,0,0,0,0,0,0,0,-1,1672,820,0,0
455,204,0,0,0,0,0,0,0,0,0,-1,1679,820,0,0
462,204,0,0,0,0,0,0,0,0,0,-1,1686,820,0,0
469,204,0,0,0,0,0,0,0,0,0,-1,1693,820,0,0
476,204,0,0,0,0,0,0,0,0,0,-1,1700,820,0,0
483,204,0,0,0,0,0,0,0,0,0,-1,1707,820,0,0
490,204,0,0,0,0,0,0,0,0,0,-1,1714,820,0,0
497,204,0,0,0,0,0,0,0,0,0,-1,1721,820,0,0
504,204,0,0,0,0,0,0,0,0,0,-1,1728,820,0,0
511,204,0,0,0,0,0,0,0,0,0,-1,1735,820,0,0
518,204,0,0,0,0,0,0,0,0,0,-1,1742,820,0,0
525,204,0,0,0,0,0,0,0,0,0,-1,1749,820,0,0
532,204,0,0,0,0,0,0,0,0,0,-1,1756,820,0,0
539,204,0,0,0,0,0,0,0,0,0,-1,1763,820,0,0
546,204,0,0,0,0,0,0,0,0,0,-1,1770,820,0,0
553,204,0,0,0,0,0,0,0,0,0,-1,1777,820,0,0
560,204,0,0,0,0,0,0,0,0,0,-1,1784,820,0,0
567,204,0,0,0,0,0,0,0,0,0,-1,1791,820,0,0
574,204,0,0,0,0,0,0,0,0,0,-1,1798,820,0,0
581,204,0,0,0,0,0,0,0,0,0,-1,1805,820,0,0
588,204,0,0,0,0,0,0,0,0,0,-1,1812,820,0,0
595,204,0,0,0,0,0,0,0,0,0,-1,1819,820,0,0
602,204,0.0391846,0.0859985,-0.00444958,0.00158429,-0.00103555,0.00175707,-0.00462236,-1.40547,0.00380498,0.0335572,1826,820,0.0391494,-0.0859695
609,204,0.0098877,0.108337,-0.00380704,0.00220243,-0.00135495,0.0024938,-0.00409842,-1.35898,0.00384342,0.0342074,1833,820,0.00993519,-0.108331
616,204,0.00476074,0.0683594,-0.00284618,0.00269089,-0.00144081,0.00304336,-0.00319866,-1.33087,0.00360421,0.0332492,1840,820,0.00474477,-0.0683869
623,204,-0.0528564,0.09198,-0.00200174,0.00271244,-0.00126382,0.00302988,-0.00231918,-1.32471,0.00309736,0.02556,1847,820,-0.052851,-0.0919818
630,204,-0.0273438,0.0810547,-0.00127489,0.00250007,-0.00100557,0.00275122,-0.00152605,-1.32604,0.00250302,0.0244483,1854,820,-0.0273044,-0.0810371
637,204,-0.00427246,0.0418091,-0.000682969,0.00216501,-0.000732929,0.00234256,-0.000860519,-1.33313,0.00191415,0.0296114,1861,820,-0.00422559,-0.0418189
644,204,0.187256,-0.271423,-0.000284171,0.00178754,-0.000454217,0.00188275,-0.000379381,-1.36417,0.00139888,0.0348198,1868,820,0.187238,0.271417
651,204,0.0236816,-0.0254517,-4.34612e-06,0.00136184,-0.000229872,0.00139948,-4.1987e-05,-1.40849,0.000947294,0.043435,1875,820,0.0237094,0.0254543
658,204,-0.284302,-0.302979,0,0,0,0,0,0,0,-1,1882,820,-0.284283,0.302975
665,204,-0.0737305,0.00482178,0.000299554,0.000596516,0.000152962,0.000661211,0.000234859,1.17067,0.00038705,0.040468,1889,820,-0.0737771,-0.00482757
672,204,-0.0150146,0.0838623,0.000375988,0.000317424,0.000257457,0.000605822,8.7589e-05,0.728774,0.000378082,0.0187576,1896,820,-0.0150499,-0.0838837
679,204,-0.0435791,0.074707,0.00042041,5.81001e-05,0.000331804,0.000617291,-0.000138781,0.535526,0.000464747,0.011071,1903,820,-0.043544,-0.0747174
686,204,-0.039917,0.0621338,0.000292032,-0.000162697,0.000100723,0.000313344,-0.000184009,0.20851,0.000290365,0.00958611,1910,820,-0.0398665,-0.0621212
693,204,-0.0528564,0.0703735,-1.069e-05,-0.000456435,-0.000402285,0.000226334,-0.00069346,-0.532437,0.0005534,0.0149004,1917,820,-0.0528848,-0.0703489
700,204,-0.0477295,0.0877075,-0.000131847,-0.00134736,-0.000929266,0.000370758,-0.00184997,-0.495801,0.00137368,0.0147671,1924,820,-0.0477856,-0.0877287
707,204,-0.0534668,0.0971069,4.02106e-05,-0.00299599,-0.00144319,0.000616727,-0.0035725,-0.380053,0.00261163,0.0127801,1931,820,-0.0534724,-0.0971
714,204,-0.0429688,0.10498,0.00017558,-0.00381175,-0.00194159,0.000964804,-0.00460098,-0.386083,0.00343439,0.0199055,1938,820,-0.0429078,-0.104983
721,204,-0.0731201,0.0396118,0.000217605,-0.00439003,-0.00264588,0.0014221,-0.00559453,-0.427198,0.00428315,0.0184076,1945,820,-0.0731213,-0.0396401
728,204,-0.0599365,0.0456543,0.00031723,-0.00477525,-0.00325916,0.00190686,-0.00636488,-0.453795,0.00500155,0.0114892,1952,820,-0.0598869,-0.0456421
735,204,-0.0377197,0.0630493,0.000402081,-0.00554392,-0.0038846,0.00232079,-0.00746263,-0.458778,0.00590277,0.0137258,1959,820,-0.0377176,-0.0630485
742,204,-0.019043,-0.00701904,0.000546242,-0.00588566,-0.00446869,0.00283588,-0.0081753,-0.473498,0.00660175,0.0281309,1966,820,-0.0190865,0.00700248
749,204,-0.272583,-0.451416,0.000738294,-0.00528808,-0.00492676,0.00350025,-0.00805004,-0.510947,0.00683884,0.0420614,1973,820,-0.272615,0.451426
756,204,-0.0979004,-0.485596,0.000946695,-0.00311126,-0.00516137,0.00446358,-0.00662814,-0.598123,0.00644432,0.0454972,1980,820,-0.0979235,0.485613
763,204,0.367432,-0.467163,0.00112852,0.00152537,-0.00508606,0.00641687,-0.00376298,-0.804895,0.00594354,0.0436157,1987,820,0.367404,0.467182
770,204,-0.0090332,-0.480164,0.00113979,0.00988494,-0.00463067,0.0118812,-0.000856507,-1.16377,0.00822121,0.0473944,1994,820,-0.00904787,0.480145
777,204,0,0,0,0,0,0,0,0,0,-1,2001,820,0,0
784,204,0,0,0,0,0,0,0,0,0,-1,2008,820,0,0
791,204,0,0,0,0,0,0,0,0,0,-1,2015,820,0,0
798,204,0,0,0,0,0,0,0,0,0,-1,2022,820,0,0
805,204,0,0,0,0,0,0,0,0,0,-1,2029,820,0,0
812,204,0,0,0,0,0,0,0,0,0,-1,2036,820,0,0
-700,197,0,0,0,0,0,0,0,0,0,-1,524,827,0,0
-693,197,0,0,0,0,0,0,0,0,0,-1,531,827,0,0
-686,197,0,0,0,0,0,0,0,0,0,-1,538,827,0,0
-679,197,0,0,0,0,0,0,0,0,0,-1,545,827,0,0
-672,197,0,0,0,0,0,0,0,0,0,-1,552,827,0,0
-665,197,0,0,0,0,0,0,0,0,0,-1,559,827,0,0
-658,197,-0.271851,0.444519,0,0,0,0,0,0,0,-1,566,827,-0.271864,-0.444529
-651,197,-1.40778,0.699463,0,0,0,0,0,0,0,-1,573,827,-1.40778,-0.699462
-644,197,-1.60724,0.63031,0,0,0,0,0,0,0,-1,580,827,-1.60722,-0.630292
-637,197,-1.80304,0.799255,-0.000505843,0.0270342,-0.00854674,0.029471,-0.00294261,-1.29305,0.0206981,0.0442371,587,827,-1.80302,-0.799233
-630,197,-1.78064,0.744141,0.0025803,0.0226261,-0.00216762,0.0228578,0.00234858,-1.4643,0.0145192,0.0439546,594,827,-1.78065,-0.744138
-623,197,-1.30554,0.803955,0.00407404,0.0184838,0.0015131,0.018641,0.00391687,1.4673,0.0113493,0.04373,601,827,-1.30555,-0.803968
-616,197,-0.292908,0.230347,0.00440871,0.0147505,0.00319042,0.0156556,0.00350367,1.29439,0.00948731,0.0401404,608,827,-0.292912,-0.230359
-609,197,-0.0090332,0.119324,0.00413912,0.011455,0.0038221,0.0130876,0.00250661,1.16713,0.00802114,0.0303071,615,827,-0.00905864,-0.119317
-602,197,-0.0562134,0.0614624,0.0037937,0.00874942,0.00378148,0.0107926,0.00175057,1.07543,0.00668832,0.0154828,622,827,-0.056226,-0.061474
-595,197,-0.0269165,0.0756836,0.00287934,0.00640843,0.00314651,0.0082514,0.00103637,1.04094,0.00519008,0.0165297,629,827,-0.0269432,-0.0756785
-588,197,-0.00762939,0.0579224,0.00165987,0.00461014,0.00218706,0.00577304,0.000496961,1.08209,0.0036942,0.015934,636,827,-0.00760741,-0.0579135
-581,197,-0.0198975,0.0476074,0.000572701,0.00322697,0.00153619,0.0039299,-0.000130232,1.14166,0.00266441,0.00934327,643,827,-0.0198979,-0.0476273
-574,197,-0.0231934,0.0752563,-0.00031814,0.00221161,0.000175136,0.00222367,-0.000330207,1.502,0.00160389,0.0114252,650,827,-0.0231824,-0.0752439
-567,197,-0.038208,0.0583496,-0.000776009,0.00195809,-0.000919529,0.00223857,-0.00105649,-1.27473,0.00194278,0.0127427,657,827,-0.0381905,-0.0583681
-560,197,-0.0536499,0.0502319,-0.00117052,0.00130226,-0.000688535,0.00148105,-0.00134931,-1.31674,0.0016347,0.0111355,664,827,-0.053634,-0.0502422
-553,197,-0.00811768,0.0679321,-0.0014969,0.000749472,-0.000688461,0.000943679,-0.00169111,-1.29585,0.00154146,0.00892039,671,827,-0.00811023,-0.0679234
-546,197,-0.0146484,0.0942383,-0.00156175,0.000562486,-0.000936988,0.000916717,-0.00191598,-1.20935,0.00166903,0.014165,678,827,-0.0146521,-0.0942166
-539,197,-0.131836,0.0606079,-0.00150654,0.000435874,-0.00101588,0.000870107,-0.00194077,-1.16686,0.00166164,0.0274886,685,827,-0.131835,-0.0605814
-532,197,-0.383301,-0.174438,-0.00144159,0.00028942,-0.00101352,0.0007567,-0.00190888,-1.13879,0.00158617,0.0403639,692,827,-0.383322,0.174452
-525,197,-0.477661,-0.305908,-0.00132742,0.000137831,-0.00101223,0.000654749,-0.00184433,-1.09865,0.00149634,0.0437398,699,827,-0.477646,0.30592
-518,197,-0.231201,-0.267273,-0.00117814,-9.34173e-05,-0.00101626,0.000516146,-0.00178771,-1.03051,0.00139603,0.0442862,706,827,-0.231224,0.267288
-511,197,-0.0966187,-0.0168457,-0.000929622,-0.000412298,-0.00100895,0.000370623,-0.00171254,-0.910879,0.0012832,0.04084,713,827,-0.0966142,0.016827
-504,197,-0.085022,0.0603027,-0.000509632,-0.000736505,-0.000982336,0.000365796,-0.00161193,-0.727915,0.00121505,0.035886,720,827,-0.0850492,-0.0603046
-497,197,-0.135071,0.0761108,0.00017179,-0.00102174,-0.000920856,0.000672342,-0.00152229,-0.497895,0.00129836,0.0348835,727,827,-0.135082,-0.0761107
-490,197,-0.141052,0.0994263,0.00117256,-0.00122427,-0.000831177,0.00143259,-0.00148429,-0.303197,0.00168415,0.0340909,734,827,-0.141037,-0.0994319
-483,197,-0.0593872,0.071167,0.00226991,-0.00118007,-0.000929733,0.00250451,-0.00141467,-0.247171,0.00229172,0.0376608,741,827,-0.0593673,-0.0711799
-476,197,0,0,0,0,0,0,0,0,0,-1,748,827,0,0
-469,197,0,0,0,0,0,0,0,0,0,-1,755,827,0,0
-462,197,0,0,0,0,0,0,0,0,0,-1,762,827,0,0
-455,197,0,0,0,0,0,0,0,0,0,-1,769,827,0,0
-448,197,0,0,0,0,0,0,0,0,0,-1,776,827,0,0
-441,197,0,0,0,0,0,0,0,0,0,-1,783,827,0,0
-434,197,0,0,0,0,0,0,0,0,0,-1,790,827,0,0
-427,197,0,0,0,0,0,0,0,0,0,-1,797,827,0,0
-420,197,0,0,0,0,0,0,0,0,0,-1,804,827,0,0
-413,197,0,0,0,0,0,0,0,0,0,-1,811,827,0,0
-406,197,0,0,0,0,0,0,0,0,0,-1,818,827,0,0
-399,197,0,0,0,0,0,0,0,0,0,-1,825,827,0,0
-392,197,0,0,0,0,0,0,0,0,0,-1,832,827,0,0
-385,197,0,0,0,0,0,0,0,0,0,-1,839,827,0,0
-378,197,0,0,0,0,0,0,0,0,0,-1,846,827,0,0
-371,197,0,0,0,0,0,0,0,0,0,-1,853,827,0,0
-364,197,0,0,0,0,0,0,0,0,0,-1,860,827,0,0
-357,197,0,0,0,0,0,0,0,0,0,-1,867,827,0,0
-350,197,0,0,0,0,0,0,0,0,0,-1,874,827,0,0
-343,197,0,0,0,0,0,0,0,0,0,-1,881,827,0,0
-336,197,0,0,0,0,0,0,0,0,0,-1,888,827,0,0
-329,197,0,0,0,0,0,0,0,0,0,-1,895,827,0,0
-322,197,0,0,0,0,0,0,0,0,0,-1,902,827,0,0
-315,197,0,0,0,0,0,0,0,0,0,-1,909,827,0,0
-308,197,0,0,0,0,0,0,0,0,0,-1,916,827,0,0
-301,197,0,0,0,0,0,0,0,0,0,-1,923,827,0,0
-294,197,0,0,0,0,0,0,0,0,0,-1,930,827,0,0
-287,197,0,0,0,0,0,0,0,0,0,-1,937,827,0,0
-280,197,0,0,0,0,0,0,0,0,0,-1,944,827,0,0
-273,197,0,0,0,0,0,0,0,0,0,-1,951,827,0,0
-266,197,0,0,0,0,0,0,0,0,0,-1,958,827,0,0
-259,197,0,0,0,0,0,0,0,0,0,-1,965,827,0,0
-252,197,0,0,0,0,0,0,0,0,0,-1,972,827,0,0
-245,197,0,0,0,0,0,0,0,0,0,-1,979,827,0,0
-238,197,0,0,0,0,0,0,0,0,0,-1,986,827,0,0
-231,197,0,0,0,0,0,0,0,0,0,-1,993,827,0,0
-224,197,0,0,0,0,0,0,0,0,0,-1,1000,827,0,0
-217,197,0,0,0,0,0,0,0,0,0,-1,1007,827,0,0
-210,197,0,0,0,0,0,0,0,0,0,-1,1014,827,0,0
-203,197,0,0,0,0,0,0,0,0,0,-1,1021,827,0,0
-196,197,0,0,0,0,0,0,0,0,0,-1,1028,827,0,0
-189,197,0,0,0,0,0,0,0,0,0,-1,1035,827,0,0
-182,197,0,0,0,0,0,0,0,0,0,-1,1042,827,0,0
-175,197,0,0,0,0,0,0,0,0,0,-1,1049,827,0,0
-168,197,0,0,0,0,0,0,0,0,0,-1,1056,827,0,0
-161,197,0,0,0,0,0,0,0,0,0,-1,1063,827,0,0
-154,197,0,0,0,0,0,0,0,0,0,-1,1070,827,0,0
-147,197,0,0,0,0,0,0,0,0,0,-1,1077,827,0,0
-140,197,0,0,0,0,0,0,0,0,0,-1,1084,827,0,0
-133,197,0,0,0,0,0,0,0,0,0,-1,1091,827,0,0
-126,197,0,0,0,0,0,0,0,0,0,-1,1098,827,0,0
-119,197,0,0,0,0,0,0,0,0,0,-1,1105,827,0,0
-112,197,0,0,0,0,0,0,0,0,0,-1,1112,827,0,0
-105,197,0,0,0,0,0,0,0,0,0,-1,1119,827,0,0
-98,197,0,0,0,0,0,0,0,0,0,-1,1126,827,0,0
-91,197,0,0,0,0,0,0,0,0,0,-1,1133,827,0,0
-84,197,0,0,0,0,0,0,0,0,0,-1,1140,827,0,0
-77,197,0,0,0,0,0,0,0,0,0,-1,1147,827,0,0
-70,197,0,0,0,0,0,0,0,0,0,-1,1154,827,0,0
-63,197,0,0,0,0,0,0,0,0,0,-1,1161,827,0,0
-56,197,0,0,0,0,0,0,0,0,0,-1,1168,827,0,0
-49,197,0,0,0,0,0,0,0,0,0,-1,1175,827,0,0
-42,197,0,0,0,0,0,0,0,0,0,-1,1182,827,0,0
-35,197,0,0,0,0,0,0,0,0,0,-1,1189,827,0,0
-28,197,0,0,0,0,0,0,0,0,0,-1,1196,827,0,0
-21,197,0,0,0,0,0,0,0,0,0,-1,1203,827,0,0
-14,197,0,0,0,0,0,0,0,0,0,-1,1210,827,0,0
-7,197,0,0,0,0,0,0,0,0,0,-1,1217,827,0,0
0,197,0,0,0,0,0,0,0,0,0,-1,1224,827,0,0
7,197,0,0,0,0,0,0,0,0,0,-1,1231,827,0,0
14,197,0,0,0,0,0,0,0,0,0,-1,1238,827,0,0
21,197,0,0,0,0,0,0,0,0,0,-1,1245,827,0,0
28,197,0,0,0,0,0,0,0,0,0,-1,1252,827,0,0
35,197,0,0,0,0,0,0,0,0,0,-1,1259,827,0,0
42,197,0,0,0,0,0,0,0,0,0,-1,1266,827,0,0
49,197,0,0,0,0,0,0,0,0,0,-1,1273,827,0,0
56,197,0,0,0,0,0,0,0,0,0,-1,1280,827,0,0
63,197,0,0,0,0,0,0,0,0,0,-1,1287,827,0,0
70,197,0,0,0,0,0,0,0,0,0,-1,1294,827,0,0
77,197,0,0,0,0,0,0,0,0,0,-1,1301,827,0,0
84,197,0,0,0,0,0,0,0,0,0,-1,1308,827,0,0
91,197,0,0,0,0,0,0,0,0,0,-1,1315,827,0,0
98,197,0,0,0,0,0,0,0,0,0,-1,1322,827,0,0
105,197,0,0,0,0,0,0,0,0,0,-1,1329,827,0,0
112,197,0,0,0,0,0,0,0,0,0,-1,1336,827,0,0
119,197,0,0,0,0,0,0,0,0,0,-1,1343,827,0,0
126,197,0,0,0,0,0,0,0,0,0,-1,1350,827,0,0
133,197,0,0,0,0,0,0,0,0,0,-1,1357,827,0,0
140,197,0,0,0,0,0,0,0,0,0,-1,1364,827,0,0
147,197,0,0,0,0,0,0,0,0,0,-1,1371,827,0,0
154,197,0,0,0,0,0,0,0,0,0,-1,1378,827,0,0
161,197,0,0,0,0,0,0,0,0,0,-1,1385,827,0,0
168,197,0,0,0,0,0,0,0,0,0,-1,1392,827,0,0
175,197,0,0,0,0,0,0,0,0,0,-1,1399,827,0,0
182,197,0,0,0,0,0,0,0,0,0,-1,1406,827,0,0
189,197,0,0,0,0,0,0,0,0,0,-1,1413,827,0,0
196,197,0,0,0,0,0,0,0,0,0,-1,1420,827,0,0
203,197,0,0,0,0,0,0,0,0,0,-1,1427,827,0,0
210,197,0,0,0,0,0,0,0,0,0,-1,1434,827,0,0
217,197,0,0,0,0,0,0,0,0,0,-1,1441,827,0,0
224,197,0,0,0,0,0,0,0,0,0,-1,1448,827,0,0
231,197,0,0,0,0,0,0,0,0,0,-1,1455,827,0,0
238,197,0,0,0,0,0,0,0,0,0,-1,1462,827,0,0
245,197,0,0,0,0,0,0,0,0,0,-1,1469,827,0,0
252,197,0,0,0,0,0,0,0,0,0,-1,1476,827,0,0
259,197,0,0,0,0,0,0,0,0,0,-1,1483,827,0,0
266,197,0,0,0,0,0,0,0,0,0,-1,1490,827,0,0
273,197,0,0,0,0,0,0,0,0,0,-1,1497,827,0,0
280,197,0,0,0,0,0,0,0,0,0,-1,1504,827,0,0
287,197,0,0,0,0,0,0,0,0,0,-1,1511,827,0,0
294,197,0,0,0,0,0,0,0,0,0,-1,1518,827,0,0
301,197,0,0,0,0,0,0,0,0,0,-1,1525,827,0,0
308,197,0,0,0,0,0,0,0,0,0,-1,1532,827,0,0
315,197,0,0,0,0,0,0,0,0,0,-1,1539,827,0,0
322,197,0,0,0,0,0,0,0,0,0,-1,1546,827,0,0
329,197,0,0,0,0,0,0,0,0,0,-1,1553,827,0,0
336,197,0,0,0,0,0,0,0,0,0,-1,1560,827,0,0
343,197,0,0,0,0,0,0,0,0,0,-1,1567,827,0,0
350,197,0,0,0,0,0,0,0,0,0,-1,1574,827,0,0
357,197,0,0,0,0,0,0,0,0,0,-1,1581,827,0,0
364,197,0,0,0,0,0,0,0,0,0,-1,1588,827,0,0
371,197,0,0,0,0,0,0,0,0,0,-1,1595,827,0,0
378,197,0,0,0,0,0,0,0,0,0,-1,1602,827,0,0
385,197,0,0,0,0,0,0,0,0,0,-1,1609,827,0,0
392,197,0,0,0,0,0,0,0,0,0,-1,1616,827,0,0
399,197,0,0,0,0,0,0,0,0,0,-1,1623,827,0,0
406,197,0,0,0,0,0,0,0,0,0,-1,1630,827,0,0
413,197,0,0,0,0,0,0,0,0,0,-1,1637,827,0,0
420,197,0,0,0,0,0,0,0,0,0,-1,1644,827,0,0
427,197,0,0,0,0,0,0,0,0,0,-1,1651,827,0,0
434,197,0,0,0,0,0,0,0,0,0,-1,1658,827,0,0
441,197,0,0,0,0,0,0,0,0,0,-1,1665,827,0,0
448,197,0,0,0,0,0,0,0,0,0,-1,1672,827,0,0
455,197,0,0,0,0,0,0,0,0,0,-1,1679,827,0,0
462,197,0,0,0,0,0,0,0,0,0,-1,1686,827,0,0
469,197,0,0,0,0,0,0,0,0,0,-1,1693,827,0,0
476,197,0,0,0,0,0,0,0,0,0,-1,1700,827,0,0
483,197,0,0,0,0,0,0,0,0,0,-1,1707,827,0,0
490,197,0,0,0,0,0,0,0,0,0,-1,1714,827,0,0
497,197,0,0,0,0,0,0,0,0,0,-1,1721,827,0,0
504,197,0,0,0,0,0,0,0,0,0,-1,1728,827,0,0
511,197,0,0,0,0,0,0,0,0,0,-1,1735,827,0,0
518,197,0,0,0,0,0,0,0,0,0,-1,1742,827,0,0
525,197,0,0,0,0,0,0,0,0,0,-1,1749,827,0,0
532,197,0,0,0,0,0,0,0,0,0,-1,1756,827,0,0
539,197,0,0,0,0,0,0,0,0,0,-1,1763,827,0,0
546,197,0,0,0,0,0,0,0,0,0,-1,1770,827,0,0
553,197,0,0,0,0,0,0,0,0,0,-1,1777,827,0,0
560,197,0,0,0,0,0,0,0,0,0,-1,1784,827,0,0
567,197,0,0,0,0,0,0,0,0,0,-1,1791,827,0,0
574,197,0,0,0,0,0,0,0,0,0,-1,1798,827,0,0
581,197,0,0,0,0,0,0,0,0,0,-1,1805,827,0,0
588,197,0,0,0,0,0,0,0,0,0,-1,1812,827,0,0
595,197,0,0,0,0,0,0,0,0,0,-1,1819,827,0,0
602,197,-0.0328369,0.153381,-0.00426656,0.000226547,-0.000811504,0.000368621,-0.00440863,-1.39748,0.00306935,0.0355291,1826,827,-0.0328662,-0.153393
609,197,-0.0450439,0.0969849,-0.00362658,0.000578008,-0.000957817,0.00078592,-0.00383449,-1.35704,0.0028546,0.036056,1833,827,-0.0450237,-0.0970146
616,197,-0.0727539,6.10352e-05,-0.00265334,0.00130208,-0.0010718,0.00157384,-0.00292509,-1.32248,0.00263622,0.0363247,1840,827,-0.0727572,-5.34146e-05
623,197,-0.116699,-0.00415039,-0.00190852,0.00153162,-0.000905174,0.00175525,-0.00213215,-1.32859,0.00224791,0.032822,1847,827,-0.116702,0.00412229
630,197,-0.0651855,0.0665894,-0.00132729,0.00153692,-0.000667582,0.00168488,-0.00147524,-1.35269,0.00182583,0.028558,1854,827,-0.0651565,-0.0665661
637,197,-0.0540771,0.0869141,-0.000876709,0.00139634,-0.000428566,0.00147446,-0.000954827,-1.3905,0.00141321,0.0252806,1861,827,-0.0540417,-0.0869432
644,197,-0.0267334,0.0228882,-0.000590617,0.0011813,-0.000185439,0.0012005,-0.000609816,-1.46763,0.00106357,0.0288958,1868,827,-0.0267078,-0.0228625
651,197,-0.0255127,0.0822754,-0.000387502,0.000897919,2.59061e-06,0.000897924,-0.000387507,1.56878,0.000761397,0.0398251,1875,827,-0.0255523,-0.082303
658,197,0.00854492,0.195251,-0.000231119,0.000653395,0.000172662,0.000685905,-0.000263629,1.38469,0.000565996,0.0447884,1882,827,0.00853765,-0.19526
665,197,0.0177002,0.222961,-0.000110996,0.000413286,0.000267241,0.000525491,-0.000223202,1.17328,0.000443848,0.0455671,1889,827,0.0176574,-0.222967
672,197,-0.0131836,0.100647,-4.8454e-05,0.000191644,0.000330782,0.000423488,-0.000280297,0.95947,0.000409124,0.0262958,1896,827,-0.0131381,-0.100642
679,197,-0.0456543,0.0751343,-1.75567e-05,-9.2308e-06,0.000356858,0.000343488,-0.000370276,0.791231,0.000412188,0.0112471,1903,827,-0.0456846,-0.0751596
686,197,-0.0419922,0.0656128,-8.1763e-05,-0.000218976,0.000112385,-1.86984e-05,-0.000282041,0.511361,0.000182115,0.00911222,1910,827,-0.0419758,-0.0656065
693,197,-0.0533447,0.0803833,-0.000265639,-0.000515499,-0.00036883,-1.15525e-06,-0.000779983,-0.622103,0.000519604,0.0140104,1917,827,-0.0532906,-0.0803958
700,197,-0.0373535,0.0897827,-0.000327132,-0.00137304,-0.000900896,0.000191593,-0.00189176,-0.522426,0.00132965,0.0196569,1924,827,-0.03738,-0.0897995
707,197,-0.0300293,0.0859985,-0.000125381,-0.00289049,-0.00137672,0.000443167,-0.00345904,-0.391641,0.00246705,0.00801836,1931,827,-0.0300596,-0.0859687
714,197,-0.0438232,0.0753174,3.01338e-05,-0.00354519,-0.00180632,0.000783838,-0.0042989,-0.395295,0.00315979,0.00999934,1938,827,-0.0437939,-0.0752957
721,197,-0.0540771,0.0477905,0.000113298,-0.00375819,-0.0024607,0.00130839,-0.00495329,-0.45212,0.00381388,0.011126,1945,827,-0.0541257,-0.0477665
728,197,-0.0424805,0.0592041,0.000246253,-0.00370453,-0.00296502,0.00183366,-0.00529193,-0.491548,0.00427242,0.00987589,1952,827,-0.042483,-0.0591968
735,197,-0.0430908,0.0740967,0.000346197,-0.00392291,-0.00344936,0.00226804,-0.00584475,-0.508324,0.00483328,0.0100574,1959,827,-0.0430709,-0.074105
742,197,-0.0419922,0.0670166,0.000511362,-0.00353871,-0.00387363,0.00285734,-0.00588469,-0.544548,0.00514711,0.0173747,1966,827,-0.0419464,-0.0670031
749,197,-0.0404053,0.03479,0.000730692,-0.00200235,-0.00416944,0.00375183,-0.00502349,-0.627041,0.00508414,0.0389502,1973,827,-0.0403956,-0.0348197
756,197,0.0511475,-0.250305,0.000958669,0.0013459,-0.00424257,0.00539927,-0.0030947,-0.808201,0.00496379,0.0448266,1980,827,0.0511765,0.250289
763,197,0.289307,-0.598938,0.00115425,0.00739025,-0.00401611,0.00935664,-0.00081215,-1.11548,0.00652535,0.0442841,1987,827,0.289367,0.59893
770,197,0.413818,-0.77887,0,0,0,0,0,0,0,-1,1994,827,0.413812,0.77884
777,197,0,0,0,0,0,0,0,0,0,-1,2001,827,0,0
784,197,0,0,0,0,0,0,0,0,0,-1,2008,827,0,0
791,197,0,0,0,0,0,0,0,0,0,-1,2015,827,0,0
798,197,0,0,0,0,0,0,0,0,0,-1,2022,827,0,0
805,197,0,0,0,0,0,0,0,0,0,-1,2029,827,0,0
812,197,0,0,0,0,0,0,0,0,0,-1,2036,827,0,0
-700,190,0,0,0,0,0,0,0,0,0,-1,524,834,0,0
-693,190,0,0,0,0,0,0,0,0,0,-1,531,834,0,0
-686,190,0,0,0,0,0,0,0,0,0,-1,538,834,0,0
-679,190,0,0,0,0,0,0,0,0,0,-1,545,834,0,0
-672,190,0,0,0,0,0,0,0,0,0,-1,552,834,0,0
-665,190,0,0,0,0,0,0,0,0,0,-1,559,834,0,0
-658,190,-0.0587769,0.617249,-0.0206902,0.0465043,-0.0473476,0.0709636,-0.0451495,-1.09396,0.0675879,0.045529,566,834,-0.0588041,-0.617241
-651,190,-0.598389,0.474487,-0.0143789,0.0407445,-0.0325345,0.0558225,-0.0294568,-1.13682,0.0500142,0.0480671,573,834,-0.598375,-0.474469
-644,190,-0.772278,0.406311,-0.0091228,0.0349072,-0.0205576,0.0430132,-0.0172288,-1.19521,0.0358269,0.0455861,580,834,-0.772259,-0.406285
-637,190,-0.890808,0.477295,-0.00497584,0.0292397,-0.0114183,0.0327002,-0.00843632,-1.27653,0.0250896,0.0466284,587,834,-0.890815,-0.477283
-630,190,-0.993286,0.371521,-0.00189268,0.0239575,-0.00497908,0.0248834,-0.00281855,-1.38694,0.0176038,0.0457492,594,834,-0.993286,-0.371542
-623,190,-0.768616,0.120544,0,0,0,0,0,0,0,-1,601,834,-0.768636,-0.120568
-616,190,-0.42572,0.0980225,0.000971844,0.0149045,0.0011417,0.0149974,0.000878909,1.48957,0.00971855,0.0401108,608,834,-0.42572,-0.097994
-609,190,-0.0845947,0.055481,0.00158722,0.0114303,0.00241002,0.0119887,0.00102882,1.34311,0.00767256,0.0225659,615,834,-0.0845746,-0.055493
-602,190,-0.0574341,0.0543213,0.00192859,0.00857085,0.00279989,0.0095936,0.000905835,1.22057,0.00611619,0.0138495,622,834,-0.0574142,-0.0543356
-595,190,-0.0437012,0.05896,0.00163551,0.00620206,0.00251437,0.00731516,0.000522406,1.15403,0.0047123,0.0160593,629,834,-0.0436831,-0.058975
-588,190,-0.0365601,0.0601196,0.00086048,0.00439538,0.00178135,0.00513733,0.000118528,1.17614,0.00338607,0.0131264,636,834,-0.03659,-0.0601501
-581,190,-0.0405273,0.0701904,6.00478e-05,0.00301665,0.00126685,0.00348521,-0.000408515,1.21654,0.00247093,0.00923442,643,834,-0.0405299,-0.0702208
-574,190,-0.0340576,0.0772705,-0.000404559,0.00201896,0.000107489,0.00202371,-0.000409317,1.52656,0.00150426,0.00943175,650,834,-0.0340542,-0.0772407
-567,190,-0.0289917,0.0710449,-0.000712864,0.00166541,-0.000926426,0.00198369,-0.00103115,-1.23987,0.00176934,0.0104439,657,834,-0.0290154,-0.0710145
-560,190,-0.0356445,0.0618286,-0.00110969,0.00105389,-0.000765129,0.00129713,-0.00135293,-1.263,0.00153012,0.00979339,664,834,-0.0356301,-0.0618133
-553,190,-0.00506592,0.0775757,-0.00135638,0.000491945,-0.000762847,0.000766119,-0.00163056,-1.22576,0.0014134,0.00923392,671,834,-0.00504513,-0.07759
-546,190,-0.00311279,0.0646362,-0.00130205,0.000250552,-0.000964682,0.000712497,-0.001764,-1.12421,0.00147214,0.020384,678,834,-0.0031221,-0.0646421
-539,190,-0.233948,-0.0480347,-0.00113921,5.38293e-05,-0.00104108,0.000657181,-0.00174256,-1.04556,0.00143195,0.0359358,685,834,-0.233968,0.0480503
-532,190,-0.4104,-0.365784,-0.000921332,-0.000195268,-0.00102052,0.000524867,-0.00164147,-0.956285,0.00130494,0.0415553,692,834,-0.410415,0.365785
-525,190,-0.394958,-0.350952,-0.000588052,-0.00050563,-0.000978456,0.000432482,-0.00152616,-0.806445,0.00118814,0.0461431,699,834,-0.394952,0.350947
-518,190,-0.159607,-0.1203,-0.000190312,-0.000903093,-0.000924609,0.000444214,-0.00153762,-0.601448,0.00120086,0.0486742,706,834,-0.159585,0.120311
-511,190,0.0241089,0.1297,0.000317401,-0.00138537,-0.000849927,0.000669025,-0.001737,-0.39227,0.00143401,0.0413126,713,834,0.0240927,-0.12967
-504,190,-0.00213623,0.14679,0.000970512,-0.00188533,-0.00076623,0.0011631,-0.00207793,-0.24625,0.00189589,0.0401639,720,834,-0.00212793,-0.146809
-497,190,-0.0916748,0.163574,0.00183236,-0.00232133,-0.000663076,0.00193564,-0.00242461,-0.154521,0.00252266,0.0405745,727,834,-0.0916658,-0.163548
-490,190,-0.113647,0.107788,0.0028278,-0.00260883,-0.000602836,0.00289384,-0.00267488,-0.109118,0.00321593,0.0375941,734,834,-0.113667,-0.107795
-483,190,0,0,0,0,0,0,0,0,0,-1,741,834,0,0
-476,190,0,0,0,0,0,0,0,0,0,-1,748,834,0,0
-469,190,0,0,0,0,0,0,0,0,0,-1,755,834,0,0
-462,190,0,0,0,0,0,0,0,0,0,-1,762,834,0,0
-455,190,0,0,0,0,0,0,0,0,0,-1,769,834,0,0
-448,190,0,0,0,0,0,0,0,0,0,-1,776,834,0,0
-441,190,0,0,0,0,0,0,0,0,0,-1,783,834,0,0
-434,190,0,0,0,0,0,0,0,0,0,-1,790,834,0,0
-427,190,0,0,0,0,0,0,0,0,0,-1,797,834,0,0
-420,190,0,0,0,0,0,0,0,0,0,-1,804,834,0,0
-413,190,0,0,0,0,0,0,0,0,0,-1,811,834,0,0
-406,190,0,0,0,0,0,0,0,0,0,-1,818,834,0,0
-399,190,0,0,0,0,0,0,0,0,0,-1,825,834,0,0
-392,190,0,0,0,0,0,0,0,0,0,-1,832,834,0,0
-385,190,0,0,0,0,0,0,0,0,0,-1,839,834,0,0
-378,190,0,0,0,0,0,0,0,0,0,-1,846,834,0,0
-371,190,0,0,0,0,0,0,0,0,0,-1,853,834,0,0
-364,190,0,0,0,0,0,0,0,0,0,-1,860,834,0,0
-357,190,0,0,0,0,0,0,0,0,0,-1,867,834,0,0
-350,190,0,0,0,0,0,0,0,0,0,-1,874,834,0,0
-343,190,0,0,0,0,0,0,0,0,0,-1,881,834,0,0
-336,190,0,0,0,0,0,0,0,0,0,-1,888,834,0,0
-329,190,0,0,0,0,0,0,0,0,0,-1,895,834,0,0
-322,190,0,0,0,0,0,0,0,0,0,-1,902,834,0,0
-315,190,0,0,0,0,0,0,0,0,0,-1,909,834,0,0
-308,190,0,0,0,0,0,0,0,0,0,-1,916,834,0,0
-301,190,0,0,0,0,0,0,0,0,0,-1,923,834,0,0
-294,190,0,0,0,0,0,0,0,0,0,-1,930,834,0,0
-287,190,0,0,0,0,0,0,0,0,0,-1,937,834,0,0
-280,190,0,0,0,0,0,0,0,0,0,-1,944,834,0,0
-273,190,0,0,0,0,0,0,0,0,0,-1,951,834,0,0
-266,190,0,0,0,0,0,0,0,0,0,-1,958,834,0,0
-259,190,0,0,0,0,0,0,0,0,0,-1,965,834,0,0
-252,190,0,0,0,0,0,0,0,0,0,-1,972,834,0,0
-245,190,0,0,0,0,0,0,0,0,0,-1,979,834,0,0
-238,190,0,0,0,0,0,0,0,0,0,-1,986,834,0,0
-231,190,0,0,0,0,0,0,0,0,0,-1,993,834,0,0
-224,190,0,0,0,0,0,0,0,0,0,-1,1000,834,0,0
-217,190,0,0,0,0,0,0,0,0,0,-1,1007,834,0,0
-210,190,0,0,0,0,0,0,0,0,0,-1,1014,834,0,0
-203,190,0,0,0,0,0,0,0,0,0,-1,1021,834,0,0
-196,190,0,0,0,0,0,0,0,0,0,-1,1028,834,0,0
-189,190,0,0,0,0,0,0,0,0,0,-1,1035,834,0,0
-182,190,0,0,0,0,0,0,0,0,0,-1,1042,834,0,0
-175,190,0,0,0,0,0,0,0,0,0,-1,1049,834,0,0
-168,190,0,0,0,0,0,0,0,0,0,-1,1056,834,0,0
-161,190,0,0,0,0,0,0,0,0,0,-1,1063,834,0,0
-154,190,0,0,0,0,0,0,0,0,0,-1,1070,834,0,0
-147,190,0,0,0,0,0,0,0,0,0,-1,1077,834,0,0
-140,190,0,0,0,0,0,0,0,0,0,-1,1084,834,0,0
-133,190,0,0,0,0,0,0,0,0,0,-1,1091,834,0,0
-126,190,0,0,0,0,0,0,0,0,0,-1,1098,834,0,0
-119,190,0,0,0,0,0,0,0,0,0,-1,1105,834,0,0
-112,190,0,0,0,0,0,0,0,0,0,-1,1112,834,0,0
-105,190,0,0,0,0,0,0,0,0,0,-1,1119,834,0,0
-98,190,0,0,0,0,0,0,0,0,0,-1,1126,834,0,0
-91,190,0,0,0,0,0,0,0,0,0,-1,1133,834,0,0
-84,190,0,0,0,0,0,0,0,0,0,-1,1140,834,0,0
-77,190,0,0,0,0,0,0,0,0,0,-1,1147,834,0,0
-70,190,0,0,0,0,0,0,0,0,0,-1,1154,834,0,0
-63,190,0,0,0,0,0,0,0,0,0,-1,1161,834,0,0
-56,190,0,0,0,0,0,0,0,0,0,-1,1168,834,0,0
-49,190,0,0,0,0,0,0,0,0,0,-1,1175,834,0,0
-42,190,0,0,0,0,0,0,0,0,0,-1,1182,834,0,0
-35,190,0,0,0,0,0,0,0,0,0,-1,1189,834,0,0
-28,190,0,0,0,0,0,0,0,0,0,-1,1196,834,0,0
-21,190,0,0,0,0,0,0,0,0,0,-1,1203,834,0,0
-14,190,0,0,0,0,0,0,0,0,0,-1,1210,834,0,0
-7,190,0,0,0,0,0,0,0,0,0,-1,1217,834,0,0
0,190,0,0,0,0,0,0,0,0,0,-1,1224,834,0,0
7,190,0,0,0,0,0,0,0,0,0,-1,1231,834,0,0
14,190,0,0,0,0,0,0,0,0,0,-1,1238,834,0,0
21,190,0,0,0,0,0,0,0,0,0,-1,1245,834,0,0
28,190,0,0,0,0,0,0,0,0,0,-1,1252,834,0,0
35,190,0,0,0,0,0,0,0,0,0,-1,1259,834,0,0
42,190,0,0,0,0,0,0,0,0,0,-1,1266,834,0,0
49,190,0,0,0,0,0,0,0,0,0,-1,1273,834,0,0
56,190,0,0,0,0,0,0,0,0,0,-1,1280,834,0,0
63,190,0,0,0,0,0,0,0,0,0,-1,1287,834,0,0
70,190,0,0,0,0,0,0,0,0,0,-1,1294,834,0,0
77,190,0,0,0,0,0,0,0,0,0,-1,1301,834,0,0
84,190,0,0,0,0,0,0,0,0,0,-1,1308,834,0,0
91,190,0,0,0,0,0,0,0,0,0,-1,1315,834,0,0
98,190,0,0,0,0,0,0,0,0,0,-1,1322,834,0,0
105,190,0,0,0,0,0,0,0,0,0,-1,1329,834,0,0
112,190,0,0,0,0,0,0,0,0,0,-1,1336,834,0,0
119,190,0,0,0,0,0,0,0,0,0,-1,1343,834,0,0
126,190,0,0,0,0,0,0,0,0,0,-1,1350,834,0,0
133,190,0,0,0,0,0,0,0,0,0,-1,1357,834,0,0
140,190,0,0,0,0,0,0,0,0,0,-1,1364,834,0,0
147,190,0,0,0,0,0,0,0,0,0,-1,1371,834,0,0
154,190,0,0,0,0,0,0,0,0,0,-1,1378,834,0,0
161,190,0,0,0,0,0,0,0,0,0,-1,1385,834,0,0
168,190,0,0,0,0,0,0,0,0,0,-1,1392,834,0,0
175,190,0,0,0,0,0,0,0,0,0,-1,1399,834,0,0
182,190,0,0,0,0,0,0,0,0,0,-1,1406,834,0,0
189,190,0,0,0,0,0,0,0,0,0,-1,1413,834,0,0
196,190,0,0,0,0,0,0,0,0,0,-1,1420,834,0,0
203,190,0,0,0,0,0,0,0,0,0,-1,1427,834,0,0
210,190,0,0,0,0,0,0,0,0,0,-1,1434,834,0,0
217,190,0,0,0,0,0,0,0,0,0,-1,1441,834,0,0
224,190,0,0,0,0,0,0,0,0,0,-1,1448,834,0,0
231,190,0,0,0,0,0,0,0,0,0,-1,1455,834,0,0
238,190,0,0,0,0,0,0,0,0,0,-1,1462,834,0,0
245,190,0,0,0,0,0,0,0,0,0,-1,1469,834,0,0
252,190,0,0,0,0,0,0,0,0,0,-1,1476,834,0,0
259,190,0,0,0,0,0,0,0,0,0,-1,1483,834,0,0
266,190,0,0,0,0,0,0,0,0,0,-1,1490,834,0,0
273,190,0,0,0,0,0,0,0,0,0,-1,1497,834,0,0
280,190,0,0,0,0,0,0,0,0,0,-1,1504,834,0,0
287,190,0,0,0,0,0,0,0,0,0,-1,1511,834,0,0
294,190,0,0,0,0,0,0,0,0,0,-1,1518,834,0,0
301,190,0,0,0,0,0,0,0,0,0,-1,1525,834,0,0
308,190,0,0,0,0,0,0,0,0,0,-1,1532,834,0,0
315,190,0,0,0,0,0,0,0,0,0,-1,1539,834,0,0
322,190,0,0,0,0,0,0,0,0,0,-1,1546,834,0,0
329,190,0,0,0,0,0,0,0,0,0,-1,1553,834,0,0
336,190,0,0,0,0,0,0,0,0,0,-1,1560,834,0,0
343,190,0,0,0,0,0,0,0,0,0,-1,1567,834,0,0
350,190,0,0,0,0,0,0,0,0,0,-1,1574,834,0,0
357,190,0,0,0,0,0,0,0,0,0,-1,1581,834,0,0
364,190,0,0,0,0,0,0,0,0,0,-1,1588,834,0,0
371,190,0,0,0,0,0,0,0,0,0,-1,1595,834,0,0
378,190,0,0,0,0,0,0,0,0,0,-1,1602,834,0,0
385,190,0,0,0,0,0,0,0,0,0,-1,1609,834,0,0
392,190,0,0,0,0,0,0,0,0,0,-1,1616,834,0,0
399,190,0,0,0,0,0,0,0,0,0,-1,1623,834,0,0
406,190,0,0,0,0,0,0,0,0,0,-1,1630,834,0,0
413,190,0,0,0,0,0,0,0,0,0,-1,1637,834,0,0
420,190,0,0,0,0,0,0,0,0,0,-1,1644,834,0,0
427,190,0,0,0,0,0,0,0,0,0,-1,1651,834,0,0
434,190,0,0,0,0,0,0,0,0,0,-1,1658,834,0,0
441,190,0,0,0,0,0,0,0,0,0,-1,1665,834,0,0
448,190,0,0,0,0,0,0,0,0,0,-1,1672,834,0,0
455,190,0,0,0,0,0,0,0,0,0,-1,1679,834,0,0
462,190,0,0,0,0,0,0,0,0,0,-1,1686,834,0,0
469,190,0,0,0,0,0,0,0,0,0,-1,1693,834,0,0
476,190,0,0,0,0,0,0,0,0,0,-1,1700,834,0,0
483,190,0,0,0,0,0,0,0,0,0,-1,1707,834,0,0
490,190,0,0,0,0,0,0,0,0,0,-1,1714,834,0,0
497,190,0,0,0,0,0,0,0,0,0,-1,1721,834,0,0
504,190,0,0,0,0,0,0,0,0,0,-1,1728,834,0,0
511,190,0,0,0,0,0,0,0,0,0,-1,1735,834,0,0
518,190,0,0,0,0,0,0,0,0,0,-1,1742,834,0,0
525,190,0,0,0,0,0,0,0,0,0,-1,1749,834,0,0
532,190,0,0,0,0,0,0,0,0,0,-1,1756,834,0,0
539,190,0,0,0,0,0,0,0,0,0,-1,1763,834,0,0
546,190,0,0,0,0,0,0,0,0,0,-1,1770,834,0,0
553,190,0,0,0,0,0,0,0,0,0,-1,1777,834,0,0
560,190,0,0,0,0,0,0,0,0,0,-1,1784,834,0,0
567,190,0,0,0,0,0,0,0,0,0,-1,1791,834,0,0
574,190,0,0,0,0,0,0,0,0,0,-1,1798,834,0,0
581,190,0,0,0,0,0,0,0,0,0,-1,1805,834,0,0
588,190,0,0,0,0,0,0,0,0,0,-1,1812,834,0,0
595,190,0,0,0,0,0,0,0,0,0,-1,1819,834,0,0
602,190,0.0413818,0.090332,-0.00413986,-1.18266e-05,-0.00119501,0.000309153,-0.00446084,-1.30839,0.00308212,0.0383005,1826,834,0.0414427,-0.0903593
609,190,-0.101807,0.00305176,-0.00317677,4.9726e-06,-0.00103404,0.000311498,-0.00348329,-1.28261,0.00243269,0.0370524,1833,834,-0.101769,-0.00304289
616,190,-0.216675,-0.0565796,-0.00200669,0.000814036,-0.00108167,0.00118107,-0.00237372,-1.24367,0.00209051,0.0372852,1840,834,-0.216679,0.056568
623,190,-0.158081,-0.0211792,-0.00132066,0.00103663,-0.000814203,0.00129051,-0.00157454,-1.26854,0.00165684,0.0362958,1847,834,-0.158124,0.0211697
630,190,-0.0845947,0.0686646,-0.000927536,0.00106812,-0.000502082,0.00118732,-0.00104673,-1.3377,0.00129068,0.0374224,1854,834,-0.0845677,-0.068642
637,190,-0.038208,0.0772705,-0.000676427,0.000972745,-0.00023036,0.00100432,-0.000708,-1.43459,0.000993529,0.0298792,1861,834,-0.0382512,-0.0772935
644,190,-0.0516357,0.0772705,-0.000563767,0.000807896,1.66346e-05,0.000808098,-0.000563969,1.55867,0.000796332,0.0231825,1868,834,-0.0515906,-0.0772903
651,190,-0.0511475,0.0916138,-0.000497363,0.000583496,0.000195308,0.000617705,-0.000531572,1.3974,0.000664157,0.0333331,1875,834,-0.0511603,-0.0916131
658,190,0.175171,0.0043335,-0.000433988,0.000394881,0.000344417,0.000519314,-0.000558422,1.2241,0.000622368,0.0421603,1882,834,0.175119,-0.00431995
665,190,0.722656,-0.604675,0,0,0,0,0,0,0,-1,1889,834,0.722602,0.604649
672,190,-0.0299072,-0.00695801,-0.000364724,5.81225e-05,0.000421387,0.000318151,-0.000624753,1.01791,0.000553896,0.0338677,1896,834,-0.0299351,0.00693015
679,190,-0.0300293,0.0831299,-0.000377955,-8.50942e-05,0.000408693,0.000202609,-0.000665658,0.957419,0.000524519,0.0163406,1903,834,-0.0300388,-0.0831179
686,190,-0.0484619,0.0794067,-0.000372922,-0.000275195,0.000170611,-0.000146589,-0.000501529,0.924866,0.00029777,0.0091531,1910,834,-0.0484472,-0.079384
693,190,-0.0490723,0.0740356,-0.0004225,-0.000559533,-0.000256281,-0.000225735,-0.000756298,-0.654778,0.000448315,0.0113905,1917,834,-0.0491208,-0.0740559
700,190,-0.050415,0.0743408,-0.000376845,-0.00135047,-0.000752353,3.24576e-05,-0.00175977,-0.498248,0.00118415,0.0107119,1924,834,-0.0504237,-0.0743431
707,190,-0.0446777,0.0839844,-0.000114737,-0.00267742,-0.00114563,0.000322728,-0.00311489,-0.364768,0.0021921,0.0121325,1931,834,-0.0447275,-0.0839957
714,190,-0.0410156,0.067749,9.6898e-05,-0.00314108,-0.00146489,0.000661265,-0.00370544,-0.367736,0.00271767,0.0107194,1938,834,-0.0410535,-0.0677294
721,190,-0.0314941,0.0549927,0.000258019,-0.00298709,-0.00202226,0.00122819,-0.00395725,-0.447313,0.00312897,0.0103349,1945,834,-0.0314913,-0.0550214
728,190,-0.0495605,0.0668335,0.000467401,-0.00251366,-0.0023571,0.00176571,-0.00381196,-0.503462,0.00329171,0.0120289,1952,834,-0.0495586,-0.0668379
735,190,-0.0490723,0.0698853,0.000621433,-0.00217839,-0.00264887,0.00221756,-0.00377452,-0.542307,0.00349824,0.0109907,1959,834,-0.0490498,-0.0699075
742,190,-0.0379639,0.0996094,0.000847669,-0.00109711,-0.00286702,0.00290271,-0.00315215,-0.621903,0.00349676,0.0136845,1966,834,-0.0379046,-0.0996246
749,190,-0.0334473,0.162476,0.0011323,0.00129245,-0.00296132,0.00417478,-0.00175003,-0.798916,0.00351488,0.0339314,1973,834,-0.0334555,-0.162478
756,190,-0.0306396,0.200745,0.00141234,0.00562633,-0.00284378,0.00705861,-1.99419e-05,-1.10423,0.0047124,0.0471558,1980,834,-0.0306544,-0.200721
763,190,-0.00537109,0.162903,0,0,0,0,0,0,0,-1,1987,834,-0.00539629,-0.162872
770,190,-0.116333,2.05115,0.00170886,0.0237577,-0.00174936,0.0238956,0.00157093,-1.49211,0.0154335,0.0465951,1994,834,-0.116324,-2.05117
777,190,-0.200806,2.07886,0.00143888,0.0402137,-0.000611753,0.0402233,0.00142923,-1.55502,0.0263521,0.0437127,2001,834,-0.200815,-2.07888
784,190,0,0,0,0,0,0,0,0,0,-1,2008,834,0,0
791,190,0,0,0,0,0,0,0,0,0,-1,2015,834,0,0
798,190,0,0,0,0,0,0,0,0,0,-1,2022,834,0,0
805,190,0,0,0,0,0,0,0,0,0,-1,2029,834,0,0
812,190,0,0,0,0,0,0,0,0,0,-1,2036,834,0,0
-700,183,0,0,0,0,0,0,0,0,0,-1,524,841,0,0
-693,183,0,0,0,0,0,0,0,0,0,-1,531,841,0,0
-686,183,0,0,0,0,0,0,0,0,0,-1,538,841,0,0
-679,183,0,0,0,0,0,0,0,0,0,-1,545,841,0,0
-672,183,0,0,0,0,0,0,0,0,0,-1,552,841,0,0
-665,183,0,0,0,0,0,0,0,0,0,-1,559,841,0,0
-658,183,0.485535,0.539429,-0.0256479,0.0501139,-0.0471824,0.0727403,-0.0482743,-1.12364,0.0703422,0.046932,566,841,0.485561,-0.539457
-651,183,0.149048,0.263062,-0.0204324,0.0433705,-0.0337565,0.0579148,-0.0349767,-1.16397,0.0541732,0.0455996,573,841,0.149025,-0.263049
-644,183,0.0400391,0.217529,-0.0155306,0.0369129,-0.0225448,0.0452722,-0.0238899,-1.21573,0.0405618,0.0434538,580,841,0.0400273,-0.217556
-637,183,-0.0266724,0.145691,-0.0111553,0.0308125,-0.013699,0.0348883,-0.0152311,-1.28161,0.029669,0.0450527,587,841,-0.0267004,-0.145716
-630,183,-0.168396,0.0628662,-0.00746942,0.0251721,-0.00724442,0.0267077,-0.009005,-1.36192,0.0214465,0.0425819,594,841,-0.168406,-0.0628491
-623,183,-0.392639,0.00115967,0,0,0,0,0,0,0,-1,601,841,-0.39262,-0.0011786
-616,183,-0.212585,0.0293579,-0.00293808,0.0154154,-0.000671207,0.0154399,-0.0029626,-1.53429,0.0114097,0.0375839,608,841,-0.212558,-0.0293884
-609,183,-0.0577393,0.0515747,-0.00138264,0.0117249,0.000999582,0.0118007,-0.00145843,1.49512,0.00839559,0.0165226,615,841,-0.0577331,-0.0515805
-602,183,-0.0564575,0.0699463,-0.00028949,0.00868163,0.00168136,0.00898639,-0.000594255,1.39148,0.00619851,0.0101349,622,841,-0.0564276,-0.069943
-595,183,-0.0545654,0.0665283,9.6014e-05,0.00620815,0.00167775,0.0066384,-0.000334234,1.31976,0.00454111,0.0090072,629,841,-0.0545909,-0.0665289
-588,183,-0.039978,0.0828857,-0.000151225,0.00432363,0.0011759,0.00461381,-0.00044141,1.32885,0.00323307,0.00841561,636,841,-0.040001,-0.0828919
-581,183,-0.0430298,0.0944824,-0.000570643,0.00290499,0.00082809,0.0030922,-0.000757857,1.34846,0.00235509,0.00945307,643,841,-0.0430162,-0.094508
-574,183,-0.0424805,0.0863647,-0.000559061,0.00189676,-0.000109902,0.00190166,-0.00056397,-1.52616,0.00149174,0.0104323,650,841,-0.0424977,-0.0863713
-567,183,-0.0230713,0.0858765,-0.000666906,0.00132095,-0.00101037,0.00174432,-0.00109028,-1.174,0.00165101,0.0105925,657,841,-0.0230567,-0.0858866
-560,183,-0.020813,0.0744629,-0.00101244,0.000734193,-0.000856235,0.00108391,-0.00136216,-1.18303,0.00141528,0.0102497,664,841,-0.020813,-0.0744518
-553,183,-0.0175171,0.0667114,-0.00117133,0.000246463,-0.000745408,0.000566239,-0.00149111,-1.16555,0.00122717,0.00966817,671,841,-0.0175027,-0.0666892
-546,183,-0.0159302,0.0745239,-0.00103655,-9.69698e-07,-0.000819332,0.000450474,-0.00148799,-1.06719,0.00117139,0.0218903,678,841,-0.0159509,-0.0745424
-539,183,-0.21698,-0.28009,-0.000801858,-0.00023468,-0.000836414,0.000364913,-0.00140145,-0.948843,0.00107675,0.0392901,685,841,-0.216952,0.280062
-532,183,-0.348633,-0.539063,-0.000468724,-0.000548058,-0.000737677,0.000230352,-0.00124713,-0.758538,0.000917892,0.0418229,692,841,-0.348657,0.539065
-525,183,-0.266113,-0.291016,9.07781e-06,-0.000944872,-0.000597364,0.00029653,-0.00123232,-0.448496,0.00093618,0.0493373,699,841,-0.26614,0.290991
-518,183,-0.0297852,0.0296021,0.000568391,-0.00142994,-0.000432639,0.000658036,-0.00151958,-0.204314,0.00128963,0.0443383,706,841,-0.0297896,-0.0296226
-511,183,-0.00775146,0.0633545,0.00123047,-0.00200462,-0.000267187,0.00125239,-0.00202654,-0.0818514,0.0019106,0.0380838,713,841,-0.00778163,-0.0633438
-504,183,-0.0159912,0.161499,0.00199379,-0.00260644,-0.000165334,0.00199973,-0.00261238,-0.0358786,0.00267062,0.0384567,720,841,-0.0160196,-0.161523
-497,183,-0.0384521,0.181946,0.00288745,-0.00315526,-0.000176374,0.0028926,-0.0031604,-0.0291548,0.00349584,0.0414765,727,841,-0.0384803,-0.181967
-490,183,0.00457764,0.00518799,0.00366263,-0.00355866,-0.000525839,0.00370072,-0.00359675,-0.0723095,0.00421334,0.0393305,734,841,0.00459396,-0.00516509
-483,183,0,0,0,0,0,0,0,0,0,-1,741,841,0,0
-476,183,0,0,0,0,0,0,0,0,0,-1,748,841,0,0
-469,183,0,0,0,0,0,0,0,0,0,-1,755,841,0,0
-462,183,0,0,0,0,0,0,0,0,0,-1,762,841,0,0
-455,183,0,0,0,0,0,0,0,0,0,-1,769,841,0,0
-448,183,0,0,0,0,0,0,0,0,0,-1,776,841,0,0
-441,183,0,0,0,0,0,0,0,0,0,-1,783,841,0,0
-434,183,0,0,0,0,0,0,0,0,0,-1,790,841,0,0
-427,183,0,0,0,0,0,0,0,0,0,-1,797,841,0,0
-420,183,0,0,0,0,0,0,0,0,0,-1,804,841,0,0
-413,183,0,0,0,0,0,0,0,0,0,-1,811,841,0,0
-406,183,0,0,0,0,0,0,0,0,0,-1,818,841,0,0
-399,183,0,0,0,0,0,0,0,0,0,-1,825,841,0,0
-392,183,0,0,0,0,0,0,0,0,0,-1,832,841,0,0
-385,183,0,0,0,0,0,0,0,0,0,-1,839,841,0,0
-378,183,0,0,0,0,0,0,0,0,0,-1,846,841,0,0
-371,183,0,0,0,0,0,0,0,0,0,-1,853,841,0,0
-364,183,0,0,0,0,0,0,0,0,0,-1,860,841,0,0
-357,183,0,0,0,0,0,0,0,0,0,-1,867,841,0,0
-350,183,0,0,0,0,0,0,0,0,0,-1,874,841,0,0
-343,183,0,0,0,0,0,0,0,0,0,-1,881,841,0,0
-336,183,0,0,0,0,0,0,0,0,0,-1,888,841,0,0
-329,183,0,0,0,0,0,0,0,0,0,-1,895,841,0,0
-322,183,0,0,0,0,0,0,0,0,0,-1,902,841,0,0
-315,183,0,0,0,0,0,0,0,0,0,-1,909,841,0,0
-308,183,0,0,0,0,0,0,0,0,0,-1,916,841,0,0
-301,183,0,0,0,0,0,0,0,0,0,-1,923,841,0,0
-294,183,0,0,0,0,0,0,0,0,0,-1,930,841,0,0
-287,183,0,0,0,0,0,0,0,0,0,-1,937,841,0,0
-280,183,0,0,0,0,0,0,0,0,0,-1,944,841,0,0
-273,183,0,0,0,0,0,0,0,0,0,-1,951,841,0,0
-266,183,0,0,0,0,0,0,0,0,0,-1,958,841,0,0
-259,183,0,0,0,0,0,0,0,0,0,-1,965,841,0,0
-252,183,0,0,0,0,0,0,0,0,0,-1,972,841,0,0
-245,183,0,0,0,0,0,0,0,0,0,-1,979,841,0,0
-238,183,0,0,0,0,0,0,0,0,0,-1,986,841,0,0
-231,183,0,0,0,0,0,0,0,0,0,-1,993,841,0,0
-224,183,0,0,0,0,0,0,0,0,0,-1,1000,841,0,0
-217,183,0,0,0,0,0,0,0,0,0,-1,1007,841,0,0
-210,183,0,0,0,0,0,0,0,0,0,-1,1014,841,0,0
-203,183,0,0,0,0,0,0,0,0,0,-1,1021,841,0,0
-196,183,0,0,0,0,0,0,0,0,0,-1,1028,841,0,0
-189,183,0,0,0,0,0,0,0,0,0,-1,1035,841,0,0
-182,183,0,0,0,0,0,0,0,0,0,-1,1042,841,0,0
-175,183,0,0,0,0,0,0,0,0,0,-1,1049,841,0,0
-168,183,0,0,0,0,0,0,0,0,0,-1,1056,841,0,0
-161,183,0,0,0,0,0,0,0,0,0,-1,1063,841,0,0
-154,183,0,0,0,0,0,0,0,0,0,-1,1070,841,0,0
-147,183,0,0,0,0,0,0,0,0,0,-1,1077,841,0,0
-140,183,0,0,0,0,0,0,0,0,0,-1,1084,841,0,0
-133,183,0,0,0,0,0,0,0,0,0,-1,1091,841,0,0
-126,183,0,0,0,0,0,0,0,0,0,-1,1098,841,0,0
-119,183,0,0,0,0,0,0,0,0,0,-1,1105,841,0,0
-112,183,0,0,0,0,0,0,0,0,0,-1,1112,841,0,0
-105,183,0,0,0,0,0,0,0,0,0,-1,1119,841,0,0
-98,183,0,0,0,0,0,0,0,0,0,-1,1126,841,0,0
-91,183,0,0,0,0,0,0,0,0,0,-1,1133,841,0,0
-84,183,0,0,0,0,0,0,0,0,0,-1,1140,841,0,0
-77,183,0,0,0,0,0,0,0,0,0,-1,1147,841,0,0
-70,183,0,0,0,0,0,0,0,0,0,-1,1154,841,0,0
-63,183,0,0,0,0,0,0,0,0,0,-1,1161,841,0,0
-56,183,0,0,0,0,0,0,0,0,0,-1,1168,841,0,0
-49,183,0,0,0,0,0,0,0,0,0,-1,1175,841,0,0
-42,183,0,0,0,0,0,0,0,0,0,-1,1182,841,0,0
-35,183,0,0,0,0,0,0,0,0,0,-1,1189,841,0,0
-28,183,0,0,0,0,0,0,0,0,0,-1,1196,841,0,0
-21,183,0,0,0,0,0,0,0,0,0,-1,1203,841,0,0
-14,183,0,0,0,0,0,0,0,0,0,-1,1210,841,0,0
-7,183,0,0,0,0,0,0,0,0,0,-1,1217,841,0,0
0,183,0,0,0,0,0,0,0,0,0,-1,1224,841,0,0
7,183,0,0,0,0,0,0,0,0,0,-1,1231,841,0,0
14,183,0,0,0,0,0,0,0,0,0,-1,1238,841,0,0
21,183,0,0,0,0,0,0,0,0,0,-1,1245,841,0,0
28,183,0,0,0,0,0,0,0,0,0,-1,1252,841,0,0
35,183,0,0,0,0,0,0,0,0,0,-1,1259,841,0,0
42,183,0,0,0,0,0,0,0,0,0,-1,1266,841,0,0
49,183,0,0,0,0,0,0,0,0,0,-1,1273,841,0,0
56,183,0,0,0,0,0,0,0,0,0,-1,1280,841,0,0
63,183,0,0,0,0,0,0,0,0,0,-1,1287,841,0,0
70,183,0,0,0,0,0,0,0,0,0,-1,1294,841,0,0
77,183,0,0,0,0,0,0,0,0,0,-1,1301,841,0,0
84,183,0,0,0,0,0,0,0,0,0,-1,1308,841,0,0
91,183,0,0,0,0,0,0,0,0,0,-1,1315,841,0,0
98,183,0,0,0,0,0,0,0,0,0,-1,1322,841,0,0
105,183,0,0,0,0,0,0,0,0,0,-1,1329,841,0,0
112,183,0,0,0,0,0,0,0,0,0,-1,1336,841,0,0
119,183,0,0,0,0,0,0,0,0,0,-1,1343,841,0,0
126,183,0,0,0,0,0,0,0,0,0,-1,1350,841,0,0
133,183,0,0,0,0,0,0,0,0,0,-1,1357,841,0,0
140,183,0,0,0,0,0,0,0,0,0,-1,1364,841,0,0
147,183,0,0,0,0,0,0,0,0,0,-1,1371,841,0,0
154,183,0,0,0,0,0,0,0,0,0,-1,1378,841,0,0
161,183,0,0,0,0,0,0,0,0,0,-1,1385,841,0,0
168,183,0,0,0,0,0,0,0,0,0,-1,1392,841,0,0
175,183,0,0,0,0,0,0,0,0,0,-1,1399,841,0,0
182,183,0,0,0,0,0,0,0,0,0,-1,1406,841,0,0
189,183,0,0,0,0,0,0,0,0,0,-1,1413,841,0,0
196,183,0,0,0,0,0,0,0,0,0,-1,1420,841,0,0
203,183,0,0,0,0,0,0,0,0,0,-1,1427,841,0,0
210,183,0,0,0,0,0,0,0,0,0,-1,1434,841,0,0
217,183,0,0,0,0,0,0,0,0,0,-1,1441,841,0,0
224,183,0,0,0,0,0,0,0,0,0,-1,1448,841,0,0
231,183,0,0,0,0,0,0,0,0,0,-1,1455,841,0,0
238,183,0,0,0,0,0,0,0,0,0,-1,1462,841,0,0
245,183,0,0,0,0,0,0,0,0,0,-1,1469,841,0,0
252,183,0,0,0,0,0,0,0,0,0,-1,1476,841,0,0
259,183,0,0,0,0,0,0,0,0,0,-1,1483,841,0,0
266,183,0,0,0,0,0,0,0,0,0,-1,1490,841,0,0
273,183,0,0,0,0,0,0,0,0,0,-1,1497,841,0,0
280,183,0,0,0,0,0,0,0,0,0,-1,1504,841,0,0
287,183,0,0,0,0,0,0,0,0,0,-1,1511,841,0,0
294,183,0,0,0,0,0,0,0,0,0,-1,1518,841,0,0
301,183,0,0,0,0,0,0,0,0,0,-1,1525,841,0,0
308,183,0,0,0,0,0,0,0,0,0,-1,1532,841,0,0
315,183,0,0,0,0,0,0,0,0,0,-1,1539,841,0,0
322,183,0,0,0,0,0,0,0,0,0,-1,1546,841,0,0
329,183,0,0,0,0,0,0,0,0,0,-1,1553,841,0,0
336,183,0,0,0,0,0,0,0,0,0,-1,1560,841,0,0
343,183,0,0,0,0,0,0,0,0,0,-1,1567,841,0,0
350,183,0,0,0,0,0,0,0,0,0,-1,1574,841,0,0
357,183,0,0,0,0,0,0,0,0,0,-1,1581,841,0,0
364,183,0,0,0,0,0,0,0,0,0,-1,1588,841,0,0
371,183,0,0,0,0,0,0,0,0,0,-1,1595,841,0,0
378,183,0,0,0,0,0,0,0,0,0,-1,1602,841,0,0
385,183,0,0,0,0,0,0,0,0,0,-1,1609,841,0,0
392,183,0,0,0,0,0,0,0,0,0,-1,1616,841,0,0
399,183,0,0,0,0,0,0,0,0,0,-1,1623,841,0,0
406,183,0,0,0,0,0,0,0,0,0,-1,1630,841,0,0
413,183,0,0,0,0,0,0,0,0,0,-1,1637,841,0,0
420,183,0,0,0,0,0,0,0,0,0,-1,1644,841,0,0
427,183,0,0,0,0,0,0,0,0,0,-1,1651,841,0,0
434,183,0,0,0,0,0,0,0,0,0,-1,1658,841,0,0
441,183,0,0,0,0,0,0,0,0,0,-1,1665,841,0,0
448,183,0,0,0,0,0,0,0,0,0,-1,1672,841,0,0
455,183,0,0,0,0,0,0,0,0,0,-1,1679,841,0,0
462,183,0,0,0,0,0,0,0,0,0,-1,1686,841,0,0
469,183,0,0,0,0,0,0,0,0,0,-1,1693,841,0,0
476,183,0,0,0,0,0,0,0,0,0,-1,1700,841,0,0
483,183,0,0,0,0,0,0,0,0,0,-1,1707,841,0,0
490,183,0,0,0,0,0,0,0,0,0,-1,1714,841,0,0
497,183,0,0,0,0,0,0,0,0,0,-1,1721,841,0,0
504,183,0,0,0,0,0,0,0,0,0,-1,1728,841,0,0
511,183,0,0,0,0,0,0,0,0,0,-1,1735,841,0,0
518,183,0,0,0,0,0,0,0,0,0,-1,1742,841,0,0
525,183,0,0,0,0,0,0,0,0,0,-1,1749,841,0,0
532,183,0,0,0,0,0,0,0,0,0,-1,1756,841,0,0
539,183,0,0,0,0,0,0,0,0,0,-1,1763,841,0,0
546,183,0,0,0,0,0,0,0,0,0,-1,1770,841,0,0
553,183,0,0,0,0,0,0,0,0,0,-1,1777,841,0,0
560,183,0,0,0,0,0,0,0,0,0,-1,1784,841,0,0
567,183,0,0,0,0,0,0,0,0,0,-1,1791,841,0,0
574,183,0,0,0,0,0,0,0,0,0,-1,1798,841,0,0
581,183,0,0,0,0,0,0,0,0,0,-1,1805,841,0,0
588,183,0,0,0,0,0,0,0,0,0,-1,1812,841,0,0
595,183,0,0,0,0,0,0,0,0,0,-1,1819,841,0,0
602,183,0,0,0,0,0,0,0,0,0,-1,1826,841,0,0
609,183,-0.0360107,-0.0668945,-0.00319453,-0.000905291,-0.00153945,-0.00013156,-0.00396826,-1.10507,0.00260276,0.0348529,1833,841,-0.0360371,0.0668655
616,183,-0.235962,0.0322266,-0.00186336,0.000178864,-0.0014685,0.000946368,-0.00263087,-1.0892,0.00214028,0.0364515,1840,841,-0.235942,-0.0322097
623,183,-0.0671387,-0.0493164,-0.00120779,0.000494681,-0.00101883,0.000971078,-0.00168419,-1.13341,0.00155134,0.0395487,1847,841,-0.0671247,0.0493044
630,183,-0.0458984,0.0772705,-0.000936418,0.000614073,-0.000553623,0.000791458,-0.0011138,-1.26072,0.00110524,0.0383337,1854,841,-0.0459201,-0.0772573
637,183,-0.0419922,0.10437,-0.000796335,0.000603161,-0.000190013,0.0006285,-0.000821675,-1.43822,0.000839731,0.0312593,1861,841,-0.0419777,-0.10439
644,183,-0.0782471,0.0513306,-0.000766905,0.000511045,0.000103624,0.000519393,-0.000775253,1.49041,0.000752314,0.0236766,1868,841,-0.0782524,-0.0513606
651,183,-0.041626,0.0515747,-0.000753321,0.000350966,0.000302641,0.000428468,-0.000830824,1.3201,0.000739319,0.0218405,1875,841,-0.0416686,-0.0515701
658,183,0.500854,-0.504211,0,0,0,0,0,0,0,-1,1882,841,0.500864,0.504185
665,183,0.371704,-0.233948,-0.000640267,8.8172e-05,0.000490164,0.000334621,-0.000886716,1.10492,0.000728759,0.0419472,1889,841,0.371678,0.233972
672,183,0.0759277,0.0390015,-0.000646442,-2.24192e-05,0.000486599,0.000243609,-0.00091247,1.07048,0.000703715,0.0398538,1896,841,0.0759362,-0.0389833
679,183,-0.0163574,0.0859375,-0.000673759,-0.000109392,0.000464327,0.000151772,-0.000934924,1.05844,0.000679546,0.0265845,1903,841,-0.0163172,-0.0859416
686,183,-0.0413818,0.0852661,-0.000626934,-0.000253937,0.00025822,-0.000121909,-0.000758962,1.09815,0.000470631,0.0118264,1910,841,-0.0413423,-0.0852467
693,183,-0.0506592,0.0736694,-0.000577789,-0.000499133,-0.000111553,-0.000420179,-0.000656743,-0.95487,0.000384079,0.0105729,1917,841,-0.0506625,-0.0736733
700,183,-0.0499268,0.0725708,-0.000459493,-0.00116192,-0.000540932,-0.000165757,-0.00145565,-0.497467,0.000920172,0.0137296,1924,841,-0.0499131,-0.072583
707,183,-0.050415,0.0778198,-0.000166377,-0.00223253,-0.000829272,0.000125288,-0.00252419,-0.338199,0.00172607,0.012332,1931,841,-0.0504177,-0.0778006
714,183,-0.0488281,0.052002,8.77131e-05,-0.00245377,-0.00101239,0.000441693,-0.00280775,-0.336361,0.0020351,0.0167907,1938,841,-0.0488564,-0.0520032
721,183,-0.055542,0.0567017,0.000321803,-0.00193544,-0.00144004,0.0010228,-0.00263643,-0.453024,0.00218006,0.0141573,1945,841,-0.0555835,-0.0567079
728,183,-0.0648193,0.0855713,0.000598481,-0.0010356,-0.00158933,0.00156849,-0.00200561,-0.547976,0.00206864,0.0116214,1952,841,-0.0647686,-0.0855812
735,183,-0.0596924,0.0731812,0.00080977,-0.000143423,-0.00167838,0.00207791,-0.00141156,-0.647059,0.00202686,0.0108841,1959,841,-0.0597085,-0.0732032
742,183,-0.0462646,0.0828247,0.00111209,0.00160511,-0.00168922,0.00306572,-0.000348515,-0.857852,0.00216934,0.00966116,1966,841,-0.0462739,-0.0828189
749,183,-0.0369873,0.159302,0.00148985,0.00477303,-0.00158764,0.00541517,0.000847714,-1.18645,0.00336334,0.0278634,1973,841,-0.0369684,-0.159272
756,183,-0.0643311,0.312927,0.00186387,0.00996216,-0.00129393,0.0101639,0.00166215,-1.41615,0.00629544,0.0430483,1980,841,-0.0642766,-0.312915
763,183,0.156128,1.27509,0.00220307,0.0179465,-0.000765839,0.0179837,0.00216591,-1.5223,0.0113363,0.0446688,1987,841,0.156146,-1.27507
770,183,-0.125854,1.32379,0.00238615,0.0297287,1.84334e-05,0.0297287,0.00238614,1.57012,0.0190735,0.0477216,1994,841,-0.125846,-1.32377
777,183,-0.170288,1.31744,0.00223712,0.0466427,0.0011288,0.0466713,0.00220844,1.5454,0.0304048,0.0431619,2001,841,-0.17023,-1.31743
784,183,0,0,0,0,0,0,0,0,0,-1,2008,841,0,0
791,183,0,0,0,0,0,0,0,0,0,-1,2015,841,0,0
798,183,0,0,0,0,0,0,0,0,0,-1,2022,841,0,0
805,183,0,0,0,0,0,0,0,0,0,-1,2029,841,0,0
812,183,0,0,0,0,0,0,0,0,0,-1,2036,841,0,0
-700,176,0,0,0,0,0,0,0,0,0,-1,524,848,0,0
-693,176,0,0,0,0,0,0,0,0,0,-1,531,848,0,0
-686,176,0,0,0,0,0,0,0,0,0,-1,538,848,0,0
-679,176,0,0,0,0,0,0,0,0,0,-1,545,848,0,0
-672,176,0,0,0,0,0,0,0,0,0,-1,552,848,0,0
-665,176,1.96057,0.550476,0,0,0,0,0,0,0,-1,559,848,1.96058,-0.550488
-658,176,1.57587,0.2323,0,0,0,0,0,0,0,-1,566,848,1.57589,-0.232271
-651,176,0.950623,0.0500488,0,0,0,0,0,0,0,-1,573,848,0.950647,-0.0500354
-644,176,0.330566,0.0765381,0,0,0,0,0,0,0,-1,580,848,0.330584,-0.0765288
-637,176,0.802307,-0.152161,0,0,0,0,0,0,0,-1,587,848,0.802331,0.152169
-630,176,0.670532,-0.27655,0,0,0,0,0,0,0,-1,594,848,0.670556,0.276527
-623,176,0.0686035,-0.121948,0,0,0,0,0,0,0,-1,601,848,0.0685951,0.121925
-616,176,-0.0418701,0.043335,-0.00633012,0.013027,-0.00108737,0.0130879,-0.006391,-1.51486,0.0114656,0.0258894,608,848,-0.0418654,-0.0433157
-609,176,-0.0278931,0.0736084,-0.00424643,0.00945818,0.000530245,0.00947867,-0.00426691,1.53218,0.00812394,0.0112538,615,848,-0.0278736,-0.0735846
-602,176,-0.0354004,0.0777588,-0.00243179,0.00670716,0.00137422,0.00690933,-0.00263396,1.42473,0.00569114,0.0111007,622,848,-0.0354052,-0.0777695
-595,176,-0.0491333,0.0556641,-0.00136888,0.00459977,0.0015281,0.00496825,-0.00173736,1.33418,0.00401849,0.00954213,629,848,-0.049158,-0.055683
-588,176,-0.0278931,0.0715942,-0.00105873,0.00305808,0.00113443,0.00334998,-0.00135064,1.31894,0.00279454,0.00922215,636,848,-0.0278761,-0.07162
-581,176,-0.0298462,0.0901489,-0.00107714,0.00194412,0.000836058,0.00216005,-0.00129307,1.31805,0.00201449,0.00920831,643,848,-0.0298613,-0.0901231
-574,176,-0.0351563,0.0875854,-0.000573104,0.0011726,7.14473e-05,0.00117552,-0.000576023,1.52996,0.00103081,0.0109668,650,848,-0.0351407,-0.0875581
-567,176,-0.0262451,0.0744629,-0.000505214,0.000689042,-0.000748404,0.00104934,-0.000865515,-1.12212,0.00110724,0.0111403,657,848,-0.0262468,-0.0744558
-560,176,-0.0378418,0.0715332,-0.000847192,0.000228341,-0.00070496,0.000577232,-0.00119608,-1.11123,0.0010444,0.00939445,664,848,-0.0378585,-0.0715282
-553,176,-0.0471802,0.0707397,-0.00094969,-7.87148e-05,-0.000629084,0.00025091,-0.00127931,-1.08815,0.00094765,0.0163668,671,848,-0.0471963,-0.0707152
-546,176,-0.0374756,0.0730591,-0.000768174,-0.000243963,-0.000651926,0.000196575,-0.00120871,-0.976533,0.000878693,0.0278445,678,848,-0.0374687,-0.0730286
-539,176,-0.200134,-0.202271,-0.000489088,-0.000479192,-0.000643589,0.000159469,-0.00112775,-0.789242,0.000810236,0.0331572,685,848,-0.200148,0.202272
-532,176,-0.4198,-0.511658,0,0,0,0,0,0,0,-1,692,848,-0.419818,0.511646
-525,176,-0.0141602,0.132996,0.000528674,-0.00119132,-0.000322021,0.000586986,-0.00124963,-0.179142,0.00108313,0.0464227,699,848,-0.0141905,-0.132976
-518,176,-0.02948,0.0111084,0.00121052,-0.00165576,-0.000121386,0.00121565,-0.0016609,-0.0422486,0.00166739,0.0385609,706,848,-0.029506,-0.0111046
-511,176,-0.045166,0.0535278,0.00198362,-0.00217986,4.09971e-05,0.00198402,-0.00218026,0.00984557,0.00240514,0.0339842,713,848,-0.045155,-0.0535405
-504,176,-0.0553589,0.126465,0.00281067,-0.00271201,6.41585e-05,0.00281141,-0.00271276,0.0116152,0.00318955,0.0347361,720,848,-0.0553851,-0.126438
-497,176,0.00402832,0.162231,0.0036713,-0.00317698,-0.000147291,0.00367447,-0.00318014,-0.0214945,0.00396094,0.0379448,727,848,0.00403696,-0.162257
-490,176,0.0511475,0.0674438,0.00411867,-0.00348584,-0.000981075,0.0042432,-0.00361037,-0.126258,0.00453917,0.0375635,734,848,0.0511296,-0.0674216
-483,176,0,0,0,0,0,0,0,0,0,-1,741,848,0,0
-476,176,0,0,0,0,0,0,0,0,0,-1,748,848,0,0
-469,176,0,0,0,0,0,0,0,0,0,-1,755,848,0,0
-462,176,0,0,0,0,0,0,0,0,0,-1,762,848,0,0
-455,176,0,0,0,0,0,0,0,0,0,-1,769,848,0,0
-448,176,0,0,0,0,0,0,0,0,0,-1,776,848,0,0
-441,176,0,0,0,0,0,0,0,0,0,-1,783,848,0,0
-434,176,0,0,0,0,0,0,0,0,0,-1,790,848,0,0
-427,176,0,0,0,0,0,0,0,0,0,-1,797,848,0,0
-420,176,0,0,0,0,0,0,0,0,0,-1,804,848,0,0
-413,176,0,0,0,0,0,0,0,0,0,-1,811,848,0,0
-406,176,0,0,0,0,0,0,0,0,0,-1,818,848,0,0
-399,176,0,0,0,0,0,0,0,0,0,-1,825,848,0,0
-392,176,0,0,0,0,0,0,0,0,0,-1,832,848,0,0
-385,176,0,0,0,0,0,0,0,0,0,-1,839,848,0,0
-378,176,0,0,0,0,0,0,0,0,0,-1,846,848,0,0
-371,176,0,0,0,0,0,0,0,0,0,-1,853,848,0,0
-364,176,0,0,0,0,0,0,0,0,0,-1,860,848,0,0
-357,176,0,0,0,0,0,0,0,0,0,-1,867,848,0,0
-350,176,0,0,0,0,0,0,0,0,0,-1,874,848,0,0
-343,176,0,0,0,0,0,0,0,0,0,-1,881,848,0,0
-336,176,0,0,0,0,0,0,0,0,0,-1,888,848,0,0
-329,176,0,0,0,0,0,0,0,0,0,-1,895,848,0,0
-322,176,0,0,0,0,0,0,0,0,0,-1,902,848,0,0
-315,176,0,0,0,0,0,0,0,0,0,-1,909,848,0,0
-308,176,0,0,0,0,0,0,0,0,0,-1,916,848,0,0
-301,176,0,0,0,0,0,0,0,0,0,-1,923,848,0,0
-294,176,0,0,0,0,0,0,0,0,0,-1,930,848,0,0
-287,176,0,0,0,0,0,0,0,0,0,-1,937,848,0,0
-280,176,0,0,0,0,0,0,0,0,0,-1,944,848,0,0
-273,176,0,0,0,0,0,0,0,0,0,-1,951,848,0,0
-266,176,0,0,0,0,0,0,0,0,0,-1,958,848,0,0
-259,176,0,0,0,0,0,0,0,0,0,-1,965,848,0,0
-252,176,0,0,0,0,0,0,0,0,0,-1,972,848,0,0
-245,176,0,0,0,0,0,0,0,0,0,-1,979,848,0,0
-238,176,0,0,0,0,0,0,0,0,0,-1,986,848,0,0
-231,176,0,0,0,0,0,0,0,0,0,-1,993,848,0,0
-224,176,0,0,0,0,0,0,0,0,0,-1,1000,848,0,0
-217,176,0,0,0,0,0,0,0,0,0,-1,1007,848,0,0
-210,176,0,0,0,0,0,0,0,0,0,-1,1014,848,0,0
-203,176,0,0,0,0,0,0,0,0,0,-1,1021,848,0,0
-196,176,0,0,0,0,0,0,0,0,0,-1,1028,848,0,0
-189,176,0,0,0,0,0,0,0,0,0,-1,1035,848,0,0
-182,176,0,0,0,0,0,0,0,0,0,-1,1042,848,0,0
-175,176,0,0,0,0,0,0,0,0,0,-1,1049,848,0,0
-168,176,0,0,0,0,0,0,0,0,0,-1,1056,848,0,0
-161,176,0,0,0,0,0,0,0,0,0,-1,1063,848,0,0
-154,176,0,0,0,0,0,0,0,0,0,-1,1070,848,0,0
-147,176,0,0,0,0,0,0,0,0,0,-1,1077,848,0,0
-140,176,0,0,0,0,0,0,0,0,0,-1,1084,848,0,0
-133,176,0,0,0,0,0,0,0,0,0,-1,1091,848,0,0
-126,176,0,0,0,0,0,0,0,0,0,-1,1098,848,0,0
-119,176,0,0,0,0,0,0,0,0,0,-1,1105,848,0,0
-112,176,0,0,0,0,0,0,0,0,0,-1,1112,848,0,0
-105,176,0,0,0,0,0,0,0,0,0,-1,1119,848,0,0
-98,176,0,0,0,0,0,0,0,0,0,-1,1126,848,0,0
-91,176,0,0,0,0,0,0,0,0,0,-1,1133,848,0,0
-84,176,0,0,0,0,0,0,0,0,0,-1,1140,848,0,0
-77,176,0,0,0,0,0,0,0,0,0,-1,1147,848,0,0
-70,176,0,0,0,0,0,0,0,0,0,-1,1154,848,0,0
-63,176,0,0,0,0,0,0,0,0,0,-1,1161,848,0,0
-56,176,0,0,0,0,0,0,0,0,0,-1,1168,848,0,0
-49,176,0,0,0,0,0,0,0,0,0,-1,1175,848,0,0
-42,176,0,0,0,0,0,0,0,0,0,-1,1182,848,0,0
-35,176,0,0,0,0,0,0,0,0,0,-1,1189,848,0,0
-28,176,0,0,0,0,0,0,0,0,0,-1,1196,848,0,0
-21,176,0,0,0,0,0,0,0,0,0,-1,1203,848,0,0
-14,176,0,0,0,0,0,0,0,0,0,-1,1210,848,0,0
-7,176,0,0,0,0,0,0,0,0,0,-1,1217,848,0,0
0,176,0,0,0,0,0,0,0,0,0,-1,1224,848,0,0
7,176,0,0,0,0,0,0,0,0,0,-1,1231,848,0,0
14,176,0,0,0,0,0,0,0,0,0,-1,1238,848,0,0
21,176,0,0,0,0,0,0,0,0,0,-1,1245,848,0,0
28,176,0,0,0,0,0,0,0,0,0,-1,1252,848,0,0
35,176,0,0,0,0,0,0,0,0,0,-1,1259,848,0,0
42,176,0,0,0,0,0,0,0,0,0,-1,1266,848,0,0
49,176,0,0,0,0,0,0,0,0,0,-1,1273,848,0,0
56,176,0,0,0,0,0,0,0,0,0,-1,1280,848,0,0
63,176,0,0,0,0,0,0,0,0,0,-1,1287,848,0,0
70,176,0,0,0,0,0,0,0,0,0,-1,1294,848,0,0
77,176,0,0,0,0,0,0,0,0,0,-1,1301,848,0,0
84,176,0,0,0,0,0,0,0,0,0,-1,1308,848,0,0
91,176,0,0,0,0,0,0,0,0,0,-1,1315,848,0,0
98,176,0,0,0,0,0,0,0,0,0,-1,1322,848,0,0
105,176,0,0,0,0,0,0,0,0,0,-1,1329,848,0,0
112,176,0,0,0,0,0,0,0,0,0,-1,1336,848,0,0
119,176,0,0,0,0,0,0,0,0,0,-1,1343,848,0,0
126,176,0,0,0,0,0,0,0,0,0,-1,1350,848,0,0
133,176,0,0,0,0,0,0,0,0,0,-1,1357,848,0,0
140,176,0,0,0,0,0,0,0,0,0,-1,1364,848,0,0
147,176,0,0,0,0,0,0,0,0,0,-1,1371,848,0,0
154,176,0,0,0,0,0,0,0,0,0,-1,1378,848,0,0
161,176,0,0,0,0,0,0,0,0,0,-1,1385,848,0,0
168,176,0,0,0,0,0,0,0,0,0,-1,1392,848,0,0
175,176,0,0,0,0,0,0,0,0,0,-1,1399,848,0,0
182,176,0,0,0,0,0,0,0,0,0,-1,1406,848,0,0
189,176,0,0,0,0,0,0,0,0,0,-1,1413,848,0,0
196,176,0,0,0,0,0,0,0,0,0,-1,1420,848,0,0
203,176,0,0,0,0,0,0,0,0,0,-1,1427,848,0,0
210,176,0,0,0,0,0,0,0,0,0,-1,1434,848,0,0
217,176,0,0,0,0,0,0,0,0,0,-1,1441,848,0,0
224,176,0,0,0,0,0,0,0,0,0,-1,1448,848,0,0
231,176,0,0,0,0,0,0,0,0,0,-1,1455,848,0,0
238,176,0,0,0,0,0,0,0,0,0,-1,1462,848,0,0
245,176,0,0,0,0,0,0,0,0,0,-1,1469,848,0,0
252,176,0,0,0,0,0,0,0,0,0,-1,1476,848,0,0
259,176,0,0,0,0,0,0,0,0,0,-1,1483,848,0,0
266,176,0,0,0,0,0,0,0,0,0,-1,1490,848,0,0
273,176,0,0,0,0,0,0,0,0,0,-1,1497,848,0,0
280,176,0,0,0,0,0,0,0,0,0,-1,1504,848,0,0
287,176,0,0,0,0,0,0,0,0,0,-1,1511,848,0,0
294,176,0,0,0,0,0,0,0,0,0,-1,1518,848,0,0
301,176,0,0,0,0,0,0,0,0,0,-1,1525,848,0,0
308,176,0,0,0,0,0,0,0,0,0,-1,1532,848,0,0
315,176,0,0,0,0,0,0,0,0,0,-1,1539,848,0,0
322,176,0,0,0,0,0,0,0,0,0,-1,1546,848,0,0
329,176,0,0,0,0,0,0,0,0,0,-1,1553,848,0,0
336,176,0,0,0,0,0,0,0,0,0,-1,1560,848,0,0
343,176,0,0,0,0,0,0,0,0,0,-1,1567,848,0,0
350,176,0,0,0,0,0,0,0,0,0,-1,1574,848,0,0
357,176,0,0,0,0,0,0,0,0,0,-1,1581,848,0,0
364,176,0,0,0,0,0,0,0,0,0,-1,1588,848,0,0
371,176,0,0,0,0,0,0,0,0,0,-1,1595,848,0,0
378,176,0,0,0,0,0,0,0,0,0,-1,1602,848,0,0
385,176,0,0,0,0,0,0,0,0,0,-1,1609,848,0,0
392,176,0,0,0,0,0,0,0,0,0,-1,1616,848,0,0
399,176,0,0,0,0,0,0,0,0,0,-1,1623,848,0,0
406,176,0,0,0,0,0,0,0,0,0,-1,1630,848,0,0
413,176,0,0,0,0,0,0,0,0,0,-1,1637,848,0,0
420,176,0,0,0,0,0,0,0,0,0,-1,1644,848,0,0
427,176,0,0,0,0,0,0,0,0,0,-1,1651,848,0,0
434,176,0,0,0,0,0,0,0,0,0,-1,1658,848,0,0
441,176,0,0,0,0,0,0,0,0,0,-1,1665,848,0,0
448,176,0,0,0,0,0,0,0,0,0,-1,1672,848,0,0
455,176,0,0,0,0,0,0,0,0,0,-1,1679,848,0,0
462,176,0,0,0,0,0,0,0,0,0,-1,1686,848,0,0
469,176,0,0,0,0,0,0,0,0,0,-1,1693,848,0,0
476,176,0,0,0,0,0,0,0,0,0,-1,1700,848,0,0
483,176,0,0,0,0,0,0,0,0,0,-1,1707,848,0,0
490,176,0,0,0,0,0,0,0,0,0,-1,1714,848,0,0
497,176,0,0,0,0,0,0,0,0,0,-1,1721,848,0,0
504,176,0,0,0,0,0,0,0,0,0,-1,1728,848,0,0
511,176,0,0,0,0,0,0,0,0,0,-1,1735,848,0,0
518,176,0,0,0,0,0,0,0,0,0,-1,1742,848,0,0
525,176,0,0,0,0,0,0,0,0,0,-1,1749,848,0,0
532,176,0,0,0,0,0,0,0,0,0,-1,1756,848,0,0
539,176,0,0,0,0,0,0,0,0,0,-1,1763,848,0,0
546,176,0,0,0,0,0,0,0,0,0,-1,1770,848,0,0
553,176,0,0,0,0,0,0,0,0,0,-1,1777,848,0,0
560,176,0,0,0,0,0,0,0,0,0,-1,1784,848,0,0
567,176,0,0,0,0,0,0,0,0,0,-1,1791,848,0,0
574,176,0,0,0,0,0,0,0,0,0,-1,1798,848,0,0
581,176,0,0,0,0,0,0,0,0,0,-1,1805,848,0,0
588,176,0,0,0,0,0,0,0,0,0,-1,1812,848,0,0
595,176,0,0,0,0,0,0,0,0,0,-1,1819,848,0,0
602,176,0,0,0,0,0,0,0,0,0,-1,1826,848,0,0
609,176,-0.0352783,0.0317993,-0.00347059,-0.0017974,-0.00228057,-0.000204821,-0.00506316,-0.961196,0.00330928,0.032415,1833,848,-0.0352319,-0.0317924
616,176,-0.0545654,0.0411987,-0.00187158,-0.000511042,-0.00203724,0.000956504,-0.00333913,-0.946536,0.00260415,0.0354878,1840,848,-0.0545153,-0.0412149
623,176,-0.00158691,0.00823975,-0.00115266,-0.000151335,-0.00133326,0.000772167,-0.00207617,-0.965011,0.00170096,0.0408634,1847,848,-0.00163152,-0.00824689
630,176,0.0827637,-0.0717163,-0.000932414,4.08877e-05,-0.000650455,0.000366592,-0.00125812,-1.10656,0.000983976,0.0381772,1854,848,0.0827706,0.0717022
637,176,-0.0341797,0.0223389,-0.00083561,0.000110439,-0.000154551,0.000135047,-0.000860218,-1.4129,0.000623389,0.0296769,1861,848,-0.0341448,-0.0223671
644,176,-0.083374,0.000915527,-0.000844524,0.000106302,0.000208027,0.000149823,-0.000888045,1.36456,0.000647773,0.0274606,1868,848,-0.0834084,-0.000926073
651,176,-0.0847168,0.0532227,-0.00086181,3.32793e-05,0.000437286,0.000211446,-0.00103998,1.18389,0.000773495,0.0287993,1875,848,-0.0847254,-0.0532091
658,176,0.0738525,-0.0844727,0,0,0,0,0,0,0,-1,1882,848,0.0738859,0.0844499
665,176,0.0449219,0.158203,-0.000757545,-9.12007e-05,0.000609662,0.000270387,-0.00111913,1.03547,0.000850664,0.0461244,1889,848,0.0448775,-0.158226
672,176,-0.176758,0.367004,-0.00077018,-0.000143543,0.000582276,0.00020436,-0.00111808,1.03223,0.000822021,0.0471848,1896,848,-0.176765,-0.367009
679,176,-0.177368,0.238159,-0.000807152,-0.000165218,0.000542622,0.000144258,-0.00111663,1.05248,0.000796869,0.0357418,1903,848,-0.177375,-0.238159
686,176,-0.0303955,0.0814209,-0.000735534,-0.000229773,0.000338549,-6.00851e-05,-0.000905222,1.10617,0.000584484,0.0149614,1910,848,-0.0304327,-0.0814426
693,176,-0.0378418,0.0803223,-0.000628099,-0.00042805,6.56706e-06,-0.000427835,-0.000628315,1.53802,0.000370589,0.00912078,1917,848,-0.0378752,-0.0803489
700,176,-0.0435791,0.0742798,-0.000484676,-0.000938144,-0.000351081,-0.000293479,-0.00112934,-0.498684,0.000676627,0.0130237,1924,848,-0.0435432,-0.0742653
707,176,-0.0397949,0.0699463,-0.000186597,-0.00175879,-0.000542473,-1.7589e-05,-0.0019278,-0.30202,0.00127938,0.0126635,1931,848,-0.0397762,-0.0699757
714,176,-0.0435791,0.0688477,9.74341e-05,-0.00176757,-0.000606121,0.000277111,-0.00194725,-0.288185,0.00139971,0.012198,1938,848,-0.0435862,-0.0688709
721,176,-0.052124,0.0657959,0.00036487,-0.000966238,-0.000917224,0.000832569,-0.00143394,-0.471542,0.00132383,0.0104134,1945,848,-0.0521644,-0.0658256
728,176,-0.060791,0.0639648,0.000673744,0.000247122,-0.000902571,0.00138787,-0.000467002,-0.669359,0.00111403,0.0116367,1952,848,-0.060839,-0.0639846
735,176,-0.0595703,0.05896,0.000897892,0.0015182,-0.000821854,0.00208648,0.000329616,-0.965828,0.00129517,0.0123632,1959,848,-0.0595329,-0.0589461
742,176,-0.0423584,0.0628662,0.00121888,0.00369374,-0.000669486,0.00386324,0.00104938,-1.32283,0.00230668,0.0155314,1966,848,-0.0423162,-0.062838
749,176,-0.00134277,0.0704346,0.00162325,0.00727334,-0.000428047,0.00730559,0.001591,-1.49561,0.0044362,0.0262504,1973,848,-0.0013325,-0.0704238
756,176,-0.0418701,0.430359,0.00201952,0.0127842,-2.96025e-05,0.0127843,0.00201944,-1.56805,0.00793584,0.0394177,1980,848,-0.041914,-0.430355
763,176,-0.0822754,0.628113,0.0023888,0.0208817,0.000547342,0.0208978,0.00237261,1.54123,0.0132122,0.0429208,1987,848,-0.08232,-0.628097
770,176,-0.142334,0.625,0.00263696,0.0323789,0.00130338,0.032436,0.00257996,1.52709,0.0208173,0.0486857,1994,848,-0.142392,-0.62499
777,176,-0.138672,0.655762,0,0,0,0,0,0,0,-1,2001,848,-0.138725,-0.655787
784,176,0,0,0,0,0,0,0,0,0,-1,2008,848,0,0
791,176,0,0,0,0,0,0,0,0,0,-1,2015,848,0,0
798,176,0,0,0,0,0,0,0,0,0,-1,2022,848,0,0
805,176,0,0,0,0,0,0,0,0,0,-1,2029,848,0,0
812,176,0,0,0,0,0,0,0,0,0,-1,2036,848,0,0
-700,169,0,0,0,0,0,0,0,0,0,-1,524,855,0,0
-693,169,0,0,0,0,0,0,0,0,0,-1,531,855,0,0
-686,169,0,0,0,0,0,0,0,0,0,-1,538,855,0,0
-679,169,0,0,0,0,0,0,0,0,0,-1,545,855,0,0
-672,169,0,0,0,0,0,0,0,0,0,-1,552,855,0,0
-665,169,2.9212,0.283813,0.0150091,0.0766546,-0.00720087,0.0774845,0.0141791,-1.45604,0.0476386,0.046141,559,855,2.92119,-0.283832
-658,169,2.5954,-0.0728149,0,0,0,0,0,0,0,-1,566,855,2.59537,0.072838
-651,169,2.0332,-0.369751,0,0,0,0,0,0,0,-1,573,855,2.03317,0.369725
-644,169,0.292969,-0.319702,0,0,0,0,0,0,0,-1,580,855,0.292991,0.319728
-637,169,1.71802,-1.26733,0,0,0,0,0,0,0,-1,587,855,1.71799,1.26731
-630,169,0.863953,-0.648254,-0.0102046,0.0205221,-0.00193498,0.0206435,-0.0103259,-1.50815,0.018208,0.0448068,594,855,0.863928,0.648248
-623,169,-0.0568237,0.0818481,-0.0096327,0.0141827,-0.00092177,0.0142183,-0.00966833,-1.53217,0.0138741,0.035992,601,855,-0.0568106,-0.0818402
-616,169,-0.0494385,0.0817871,-0.00846998,0.00916838,-0.000367063,0.00917601,-0.00847761,-1.55,0.010195,0.0194871,608,855,-0.0494653,-0.0817893
-609,169,-0.0288696,0.0888672,-0.00630272,0.0060128,0.000668852,0.00604902,-0.00633894,1.5167,0.00715285,0.0126779,615,855,-0.0288801,-0.0888518
-602,169,-0.0112915,0.0949097,-0.00404318,0.00386612,0.00136445,0.00409488,-0.00427195,1.40468,0.00483095,0.0124553,622,855,-0.0112717,-0.0948949
-595,169,-0.0498047,0.0583496,-0.00251252,0.00241248,0.00145274,0.00280906,-0.0029091,1.3043,0.00330155,0.0108806,629,855,-0.049809,-0.0583485
-588,169,-0.0386963,0.0687866,-0.00176956,0.0014302,0.00105577,0.00174716,-0.00208652,1.27914,0.00221626,0.00872845,636,855,-0.0386677,-0.0688015
-581,169,-0.0377197,0.0848389,-0.00146519,0.00075415,0.000759147,0.000988976,-0.00170002,1.2708,0.00157048,0.00894345,643,855,-0.0376994,-0.0848537
-574,169,-0.0407715,0.0842285,-0.000596917,0.000322939,0.000107347,0.0003353,-0.000609278,1.45615,0.000552946,0.0103731,650,855,-0.0407755,-0.0842563
-567,169,-0.03479,0.0626221,-0.000372877,9.96233e-05,-0.000595191,0.000503738,-0.000776991,-0.974327,0.000745018,0.00947242,657,855,-0.0347948,-0.0626374
-560,169,-0.0422363,0.0627441,-0.000657099,-0.000136277,-0.000649475,0.000303049,-0.00109642,-0.976064,0.000850165,0.00861656,664,855,-0.0422402,-0.0627335
-553,169,-0.038147,0.0668335,-0.000744404,-0.000262713,-0.000642236,0.000182353,-0.00118947,-0.964788,0.000860231,0.0164805,671,855,-0.0381535,-0.0668558
-546,169,-0.0396118,0.0598755,-0.000561223,-0.000376625,-0.000647814,0.000185432,-0.00112328,-0.856161,0.000817703,0.0284881,678,855,-0.0396262,-0.0598839
-539,169,-0.0499268,0.015686,-0.000255615,-0.000566676,-0.000657617,0.000264614,-0.0010869,-0.669278,0.000827041,0.0339815,685,855,-0.0499149,-0.0156945
-532,169,-0.0549927,0.0222778,0.000231222,-0.000823771,-0.000560042,0.000473075,-0.00106562,-0.407658,0.000910061,0.0351122,692,855,-0.0550213,-0.0222546
-525,169,-0.0621948,0.0791016,0.000902864,-0.00112361,-0.000413868,0.00098413,-0.00120487,-0.19389,0.00126596,0.0408432,699,855,-0.0622216,-0.0790726
-518,169,-0.00585938,0.0765381,0.00168772,-0.00147333,-0.00026045,0.00170904,-0.00149464,-0.0816597,0.00185102,0.0366228,706,855,-0.005887,-0.0765385
-511,169,0.0252686,0.123413,0.00258856,-0.00183887,-0.000157113,0.00259412,-0.00184444,-0.035427,0.00257476,0.0359564,713,855,0.0252932,-0.123384
-504,169,-0.00189209,0.168579,0.00355181,-0.00217273,-0.000205597,0.00355918,-0.0021801,-0.0358534,0.00334531,0.0366354,720,855,-0.00190777,-0.168589
-497,169,0.03302,0.15094,0.00454273,-0.00239248,-0.000492672,0.00457756,-0.00242731,-0.0705669,0.00410728,0.0378408,727,855,0.0330206,-0.15094
-490,169,0,0,0,0,0,0,0,0,0,-1,734,855,0,0
-483,169,0,0,0,0,0,0,0,0,0,-1,741,855,0,0
-476,169,0,0,0,0,0,0,0,0,0,-1,748,855,0,0
-469,169,0,0,0,0,0,0,0,0,0,-1,755,855,0,0
-462,169,0,0,0,0,0,0,0,0,0,-1,762,855,0,0
-455,169,0,0,0,0,0,0,0,0,0,-1,769,855,0,0
-448,169,0,0,0,0,0,0,0,0,0,-1,776,855,0,0
-441,169,0,0,0,0,0,0,0,0,0,-1,783,855,0,0
-434,169,0,0,0,0,0,0,0,0,0,-1,790,855,0,0
-427,169,0,0,0,0,0,0,0,0,0,-1,797,855,0,0
-420,169,0,0,0,0,0,0,0,0,0,-1,804,855,0,0
-413,169,0,0,0,0,0,0,0,0,0,-1,811,855,0,0
-406,169,0,0,0,0,0,0,0,0,0,-1,818,855,0,0
-399,169,0,0,0,0,0,0,0,0,0,-1,825,855,0,0
-392,169,0,0,0,0,0,0,0,0,0,-1,832,855,0,0
-385,169,0,0,0,0,0,0,0,0,0,-1,839,855,0,0
-378,169,0,0,0,0,0,0,0,0,0,-1,846,855,0,0
-371,169,0,0,0,0,0,0,0,0,0,-1,853,855,0,0
-364,169,0,0,0,0,0,0,0,0,0,-1,860,855,0,0
-357,169,0,0,0,0,0,0,0,0,0,-1,867,855,0,0
-350,169,0,0,0,0,0,0,0,0,0,-1,874,855,0,0
-343,169,0,0,0,0,0,0,0,0,0,-1,881,855,0,0
-336,169,0,0,0,0,0,0,0,0,0,-1,888,855,0,0
-329,169,0,0,0,0,0,0,0,0,0,-1,895,855,0,0
-322,169,0,0,0,0,0,0,0,0,0,-1,902,855,0,0
-315,169,0,0,0,0,0,0,0,0,0,-1,909,855,0,0
-308,169,0,0,0,0,0,0,0,0,0,-1,916,855,0,0
-301,169,0,0,0,0,0,0,0,0,0,-1,923,855,0,0
-294,169,0,0,0,0,0,0,0,0,0,-1,930,855,0,0
-287,169,0,0,0,0,0,0,0,0,0,-1,937,855,0,0
-280,169,0,0,0,0,0,0,0,0,0,-1,944,855,0,0
-273,169,0,0,0,0,0,0,0,0,0,-1,951,855,0,0
-266,169,0,0,0,0,0,0,0,0,0,-1,958,855,0,0
-259,169,0,0,0,0,0,0,0,0,0,-1,965,855,0,0
-252,169,0,0,0,0,0,0,0,0,0,-1,972,855,0,0
-245,169,0,0,0,0,0,0,0,0,0,-1,979,855,0,0
-238,169,0,0,0,0,0,0,0,0,0,-1,986,855,0,0
-231,169,0,0,0,0,0,0,0,0,0,-1,993,855,0,0
-224,169,0,0,0,0,0,0,0,0,0,-1,1000,855,0,0
-217,169,0,0,0,0,0,0,0,0,0,-1,1007,855,0,0
-210,169,0,0,0,0,0,0,0,0,0,-1,1014,855,0,0
-203,169,0,0,0,0,0,0,0,0,0,-1,1021,855,0,0
-196,169,0,0,0,0,0,0,0,0,0,-1,1028,855,0,0
-189,169,0,0,0,0,0,0,0,0,0,-1,1035,855,0,0
-182,169,0,0,0,0,0,0,0,0,0,-1,1042,855,0,0
-175,169,0,0,0,0,0,0,0,0,0,-1,1049,855,0,0
-168,169,0,0,0,0,0,0,0,0,0,-1,1056,855,0,0
-161,169,0,0,0,0,0,0,0,0,0,-1,1063,855,0,0
-154,169,0,0,0,0,0,0,0,0,0,-1,1070,855,0,0
-147,169,0,0,0,0,0,0,0,0,0,-1,1077,855,0,0
-140,169,0,0,0,0,0,0,0,0,0,-1,1084,855,0,0
-133,169,0,0,0,0,0,0,0,0,0,-1,1091,855,0,0
-126,169,0,0,0,0,0,0,0,0,0,-1,1098,855,0,0
-119,169,0,0,0,0,0,0,0,0,0,-1,1105,855,0,0
-112,169,0,0,0,0,0,0,0,0,0,-1,1112,855,0,0
-105,169,0,0,0,0,0,0,0,0,0,-1,1119,855,0,0
-98,169,0,0,0,0,0,0,0,0,0,-1,1126,855,0,0
-91,169,0,0,0,0,0,0,0,0,0,-1,1133,855,0,0
-84,169,0,0,0,0,0,0,0,0,0,-1,1140,855,0,0
-77,169,0,0,0,0,0,0,0,0,0,-1,1147,855,0,0
-70,169,0,0,0,0,0,0,0,0,0,-1,1154,855,0,0
-63,169,0,0,0,0,0,0,0,0,0,-1,1161,855,0,0
-56,169,0,0,0,0,0,0,0,0,0,-1,1168,855,0,0
-49,169,0,0,0,0,0,0,0,0,0,-1,1175,855,0,0
-42,169,0,0,0,0,0,0,0,0,0,-1,1182,855,0,0
-35,169,0,0,0,0,0,0,0,0,0,-1,1189,855,0,0
-28,169,0,0,0,0,0,0,0,0,0,-1,1196,855,0,0
-21,169,0,0,0,0,0,0,0,0,0,-1,1203,855,0,0
-14,169,0,0,0,0,0,0,0,0,0,-1,1210,855,0,0
-7,169,0,0,0,0,0,0,0,0,0,-1,1217,855,0,0
0,169,0,0,0,0,0,0,0,0,0,-1,1224,855,0,0
7,169,0,0,0,0,0,0,0,0,0,-1,1231,855,0,0
14,169,0,0,0,0,0,0,0,0,0,-1,1238,855,0,0
21,169,0,0,0,0,0,0,0,0,0,-1,1245,855,0,0
28,169,0,0,0,0,0,0,0,0,0,-1,1252,855,0,0
35,169,0,0,0,0,0,0,0,0,0,-1,1259,855,0,0
42,169,0,0,0,0,0,0,0,0,0,-1,1266,855,0,0
49,169,0,0,0,0,0,0,0,0,0,-1,1273,855,0,0
56,169,0,0,0,0,0,0,0,0,0,-1,1280,855,0,0
63,169,0,0,0,0,0,0,0,0,0,-1,1287,855,0,0
70,169,0,0,0,0,0,0,0,0,0,-1,1294,855,0,0
77,169,0,0,0,0,0,0,0,0,0,-1,1301,855,0,0
84,169,0,0,0,0,0,0,0,0,0,-1,1308,855,0,0
91,169,0,0,0,0,0,0,0,0,0,-1,1315,855,0,0
98,169,0,0,0,0,0,0,0,0,0,-1,1322,855,0,0
105,169,0,0,0,0,0,0,0,0,0,-1,1329,855,0,0
112,169,0,0,0,0,0,0,0,0,0,-1,1336,855,0,0
119,169,0,0,0,0,0,0,0,0,0,-1,1343,855,0,0
126,169,0,0,0,0,0,0,0,0,0,-1,1350,855,0,0
133,169,0,0,0,0,0,0,0,0,0,-1,1357,855,0,0
140,169,0,0,0,0,0,0,0,0,0,-1,1364,855,0,0
147,169,0,0,0,0,0,0,0,0,0,-1,1371,855,0,0
154,169,0,0,0,0,0,0,0,0,0,-1,1378,855,0,0
161,169,0,0,0,0,0,0,0,0,0,-1,1385,855,0,0
168,169,0,0,0,0,0,0,0,0,0,-1,1392,855,0,0
175,169,0,0,0,0,0,0,0,0,0,-1,1399,855,0,0
182,169,0,0,0,0,0,0,0,0,0,-1,1406,855,0,0
189,169,0,0,0,0,0,0,0,0,0,-1,1413,855,0,0
196,169,0,0,0,0,0,0,0,0,0,-1,1420,855,0,0
203,169,0,0,0,0,0,0,0,0,0,-1,1427,855,0,0
210,169,0,0,0,0,0,0,0,0,0,-1,1434,855,0,0
217,169,0,0,0,0,0,0,0,0,0,-1,1441,855,0,0
224,169,0,0,0,0,0,0,0,0,0,-1,1448,855,0,0
231,169,0,0,0,0,0,0,0,0,0,-1,1455,855,0,0
238,169,0,0,0,0,0,0,0,0,0,-1,1462,855,0,0
245,169,0,0,0,0,0,0,0,0,0,-1,1469,855,0,0
252,169,0,0,0,0,0,0,0,0,0,-1,1476,855,0,0
259,169,0,0,0,0,0,0,0,0,0,-1,1483,855,0,0
266,169,0,0,0,0,0,0,0,0,0,-1,1490,855,0,0
273,169,0,0,0,0,0,0,0,0,0,-1,1497,855,0,0
280,169,0,0,0,0,0,0,0,0,0,-1,1504,855,0,0
287,169,0,0,0,0,0,0,0,0,0,-1,1511,855,0,0
294,169,0,0,0,0,0,0,0,0,0,-1,1518,855,0,0
301,169,0,0,0,0,0,0,0,0,0,-1,1525,855,0,0
308,169,0,0,0,0,0,0,0,0,0,-1,1532,855,0,0
315,169,0,0,0,0,0,0,0,0,0,-1,1539,855,0,0
322,169,0,0,0,0,0,0,0,0,0,-1,1546,855,0,0
329,169,0,0,0,0,0,0,0,0,0,-1,1553,855,0,0
336,169,0,0,0,0,0,0,0,0,0,-1,1560,855,0,0
343,169,0,0,0,0,0,0,0,0,0,-1,1567,855,0,0
350,169,0,0,0,0,0,0,0,0,0,-1,1574,855,0,0
357,169,0,0,0,0,0,0,0,0,0,-1,1581,855,0,0
364,169,0,0,0,0,0,0,0,0,0,-1,1588,855,0,0
371,169,0,0,0,0,0,0,0,0,0,-1,1595,855,0,0
378,169,0,0,0,0,0,0,0,0,0,-1,1602,855,0,0
385,169,0,0,0,0,0,0,0,0,0,-1,1609,855,0,0
392,169,0,0,0,0,0,0,0,0,0,-1,1616,855,0,0
399,169,0,0,0,0,0,0,0,0,0,-1,1623,855,0,0
406,169,0,0,0,0,0,0,0,0,0,-1,1630,855,0,0
413,169,0,0,0,0,0,0,0,0,0,-1,1637,855,0,0
420,169,0,0,0,0,0,0,0,0,0,-1,1644,855,0,0
427,169,0,0,0,0,0,0,0,0,0,-1,1651,855,0,0
434,169,0,0,0,0,0,0,0,0,0,-1,1658,855,0,0
441,169,0,0,0,0,0,0,0,0,0,-1,1665,855,0,0
448,169,0,0,0,0,0,0,0,0,0,-1,1672,855,0,0
455,169,0,0,0,0,0,0,0,0,0,-1,1679,855,0,0
462,169,0,0,0,0,0,0,0,0,0,-1,1686,855,0,0
469,169,0,0,0,0,0,0,0,0,0,-1,1693,855,0,0
476,169,0,0,0,0,0,0,0,0,0,-1,1700,855,0,0
483,169,0,0,0,0,0,0,0,0,0,-1,1707,855,0,0
490,169,0,0,0,0,0,0,0,0,0,-1,1714,855,0,0
497,169,0,0,0,0,0,0,0,0,0,-1,1721,855,0,0
504,169,0,0,0,0,0,0,0,0,0,-1,1728,855,0,0
511,169,0,0,0,0,0,0,0,0,0,-1,1735,855,0,0
518,169,0,0,0,0,0,0,0,0,0,-1,1742,855,0,0
525,169,0,0,0,0,0,0,0,0,0,-1,1749,855,0,0
532,169,0,0,0,0,0,0,0,0,0,-1,1756,855,0,0
539,169,0,0,0,0,0,0,0,0,0,-1,1763,855,0,0
546,169,0,0,0,0,0,0,0,0,0,-1,1770,855,0,0
553,169,0,0,0,0,0,0,0,0,0,-1,1777,855,0,0
560,169,0,0,0,0,0,0,0,0,0,-1,1784,855,0,0
567,169,0,0,0,0,0,0,0,0,0,-1,1791,855,0,0
574,169,0,0,0,0,0,0,0,0,0,-1,1798,855,0,0
581,169,0,0,0,0,0,0,0,0,0,-1,1805,855,0,0
588,169,0,0,0,0,0,0,0,0,0,-1,1812,855,0,0
595,169,0,0,0,0,0,0,0,0,0,-1,1819,855,0,0
602,169,0,0,0,0,0,0,0,0,0,-1,1826,855,0,0
609,169,0,0,0,0,0,0,0,0,0,-1,1833,855,0,0
616,169,-0.0155029,0.229248,-0.00172541,-0.000856928,-0.00270263,0.00144613,-0.00402846,-0.865054,0.00327587,0.0383483,1840,855,-0.0154961,-0.229236
623,169,0.0136719,0.190674,-0.000964286,-0.000621372,-0.00183879,0.00105394,-0.0026396,-0.831886,0.00219699,0.0403214,1847,855,0.0137093,-0.190684
630,169,0.0429688,0.0563354,-0.000810569,-0.00044947,-0.000988095,0.000374435,-0.00163447,-0.875764,0.00123355,0.0376848,1854,855,0.0429779,-0.0563417
637,169,0.0612793,-0.0206909,-0.000753889,-0.000341804,-0.000383033,-0.000112912,-0.000982781,-1.03216,0.000620981,0.0329804,1861,855,0.061262,0.0206945
644,169,-0.00891113,0.00421143,-0.000790989,-0.000277663,4.42329e-05,-0.000273879,-0.000794772,1.48547,0.000466191,0.0320378,1868,855,-0.00895176,-0.00424157
651,169,-0.0603027,0.0858765,-0.000836487,-0.000262318,0.000316068,-0.000122417,-0.000976388,1.15409,0.0006142,0.0332651,1875,855,-0.0603411,-0.085869
658,169,-0.0869141,0.120972,-0.000821456,-0.000248385,0.00048686,3e-05,-0.00109984,1.05137,0.000743429,0.0334072,1882,855,-0.0869516,-0.120957
665,169,-0.0279541,0.152527,-0.000754168,-0.000224613,0.0005222,9.61006e-05,-0.00107488,1.02003,0.000750674,0.0478686,1889,855,-0.0280114,-0.152539
672,169,-0.269653,0.485718,-0.000771905,-0.000213147,0.000502338,8.22746e-05,-0.00106733,1.03918,0.000740501,0.0490751,1896,855,-0.269604,-0.485737
679,169,-0.207397,0.337952,-0.000805591,-0.000174653,0.000478984,8.34165e-05,-0.00106366,1.0766,0.000738485,0.042632,1903,855,-0.207378,-0.337932
686,169,-0.0487061,0.0974121,-0.000724223,-0.000160293,0.000318625,-1.67861e-05,-0.00086773,1.14761,0.000572973,0.0190476,1910,855,-0.048707,-0.0974106
693,169,-0.0308838,0.0780029,-0.000590626,-0.000292732,7.60854e-05,-0.000274424,-0.000608933,1.33466,0.000352138,0.00981405,1917,855,-0.0308742,-0.0779846
700,169,-0.0377197,0.0772705,-0.000441276,-0.000674486,-0.000181805,-0.000341895,-0.000773866,-0.500254,0.0004478,0.0104482,1924,855,-0.0376805,-0.0772474
707,169,-0.0454102,0.0748291,-0.000156165,-0.00125156,-0.000273462,-9.16908e-05,-0.00131603,-0.231541,0.000848446,0.011954,1931,855,-0.0454152,-0.0748133
714,169,-0.057373,0.0671997,0.000145868,-0.00110502,-0.000238294,0.000189725,-0.00114888,-0.182011,0.000836363,0.0119555,1938,855,-0.0574321,-0.0672126
721,169,-0.0532227,0.0761719,0.0004433,-0.000126084,-0.000438912,0.000681765,-0.000364549,-0.497692,0.000613274,0.0113284,1945,855,-0.0532124,-0.0761761
728,169,-0.0584717,0.06604,0.000776554,0.00128252,-0.000289692,0.00141414,0.00064493,-1.14432,0.000817504,0.00956837,1952,855,-0.0584783,-0.0660326
735,169,-0.0579834,0.0759888,0.00101667,0.00282326,-8.51539e-05,0.00282727,0.00101266,-1.5238,0.00165407,0.0166873,1959,855,-0.058012,-0.0759938
742,169,-0.0318604,0.0656738,0.00135735,0.00527427,0.000171866,0.00528179,0.00134982,1.52703,0.00316859,0.0141058,1966,855,-0.0318593,-0.0656446
749,169,0.0598145,0.0185547,0.00179098,0.00907908,0.000485319,0.00911125,0.00175881,1.5046,0.00558106,0.0232539,1973,855,0.0597773,-0.0185315
756,169,-0.0186768,0.190857,0.00221814,0.014697,0.000911578,0.0147633,0.0021519,1.49826,0.00920908,0.0421447,1980,855,-0.0186725,-0.190857
763,169,-0.125854,0.356384,0.00263395,0.0226858,0.00145605,0.022791,0.00252877,1.49869,0.0144251,0.0459758,1987,855,-0.12588,-0.356379
770,169,-0.197021,0.283936,0.00296855,0.0337183,0.00210927,0.0338623,0.00282453,1.50263,0.0216948,0.0462059,1994,855,-0.197018,-0.283917
777,169,-0.2052,0.28363,0,0,0,0,0,0,0,-1,2001,855,-0.205144,-0.283633
784,169,-0.197998,0.57489,0,0,0,0,0,0,0,-1,2008,855,-0.197977,-0.5749
791,169,0,0,0,0,0,0,0,0,0,-1,2015,855,0,0
798,169,0,0,0,0,0,0,0,0,0,-1,2022,855,0,0
805,169,0,0,0,0,0,0,0,0,0,-1,2029,855,0,0
812,169,0,0,0,0,0,0,0,0,0,-1,2036,855,0,0
-700,162,0,0,0,0,0,0,0,0,0,-1,524,862,0,0
-693,162,0,0,0,0,0,0,0,0,0,-1,531,862,0,0
-686,162,0,0,0,0,0,0,0,0,0,-1,538,862,0,0
-679,162,0,0,0,0,0,0,0,0,0,-1,545,862,0,0
-672,162,0,0,0,0,0,0,0,0,0,-1,552,862,0,0
-665,162,3.89355,0.0263672,0,0,0,0,0,0,0,-1,559,862,3.89355,-0.0263545
-658,162,3.55212,-0.349976,0,0,0,0,0,0,0,-1,566,862,3.5521,0.350005
-651,162,2.89905,-0.633911,0,0,0,0,0,0,0,-1,573,862,2.89902,0.633925
-644,162,0.306824,-0.749756,0,0,0,0,0,0,0,-1,580,862,0.306813,0.749776
-637,162,1.88068,-1.73785,0,0,0,0,0,0,0,-1,587,862,1.88068,1.73784
-630,162,0.961975,-0.794739,-0.00685004,0.0182399,0.0023955,0.0184665,-0.00707671,1.47646,0.0152283,0.0443801,594,862,0.961996,0.794764
-623,162,-0.0757446,0.100159,-0.00765548,0.0119287,0.0017757,0.0120884,-0.00781518,1.4811,0.0115793,0.0309097,601,862,-0.0757163,-0.100159
-616,162,-0.0593872,0.0672607,-0.007482,0.00713166,0.00113535,0.00721934,-0.00756968,1.49372,0.00853925,0.0166766,608,862,-0.0593625,-0.0672623
-609,162,-0.0308838,0.0900879,-0.00590462,0.00440327,0.0013819,0.00458532,-0.00608667,1.43981,0.00618177,0.0121695,615,862,-0.030884,-0.0901177
-602,162,-0.0231934,0.0690308,-0.00398089,0.00267902,0.00169973,0.00308774,-0.0043896,1.33482,0.00433881,0.0114032,622,862,-0.0231813,-0.0690568
-595,162,-0.0489502,0.0759888,-0.00257751,0.00162722,0.00152942,0.00212468,-0.00307497,1.25633,0.00301868,0.010643,629,862,-0.0489574,-0.0759898
-588,162,-0.0306396,0.0916748,-0.00182575,0.000934647,0.00102897,0.001276,-0.0021671,1.25048,0.00200994,0.0103179,636,862,-0.0306454,-0.0916849
-581,162,-0.0459595,0.072876,-0.00147067,0.000444539,0.000680361,0.000661625,-0.00168776,1.26193,0.00139888,0.0110002,643,862,-0.0459302,-0.0728926
-574,162,-0.0568848,0.0531616,-0.000550818,0.000135112,9.36221e-06,0.00013524,-0.000550945,1.55715,0.000419704,0.014226,650,862,-0.0568597,-0.0531891
-567,162,-0.0407715,0.0656128,-0.000283796,-4.1461e-05,-0.000582095,0.000431944,-0.000757201,-0.888012,0.000695061,0.0149687,657,862,-0.0407941,-0.0656412
-560,162,-0.0414429,0.0640869,-0.00051469,-0.000199935,-0.00063853,0.000300325,-0.00101495,-0.906224,0.00079586,0.0114426,664,862,-0.0414434,-0.0640898
-553,162,-0.0444946,0.0828857,-0.000593491,-0.000314238,-0.00065411,0.000214982,-0.00112271,-0.89055,0.000829474,0.0216325,671,862,-0.0445178,-0.0828851
-546,162,-0.0166016,0.0828857,-0.000430542,-0.000401119,-0.000680914,0.000265243,-0.0010969,-0.796199,0.000833866,0.0330298,678,862,-0.0165893,-0.0828888
-539,162,-0.0371094,0.0532227,-0.000142728,-0.000519058,-0.000732546,0.000425433,-0.00108722,-0.659683,0.00090076,0.0370899,685,862,-0.0370966,-0.0532063
-532,162,-0.0628662,0.0482178,0.000331631,-0.000667513,-0.000698888,0.000691138,-0.00102702,-0.4751,0.000998277,0.0335422,692,862,-0.0628777,-0.0482077
-525,162,-0.0744019,0.048645,0.000982291,-0.000812527,-0.000624001,0.00117791,-0.00100815,-0.303795,0.00126339,0.0351563,699,862,-0.0744252,-0.0486609
-518,162,-0.0410156,0.0627441,0.00175775,-0.000946029,-0.000548963,0.00186496,-0.00105324,-0.192864,0.00170641,0.0349751,706,862,-0.0409901,-0.0627605
-511,162,-0.0143433,0.0969849,0.00267588,-0.00102812,-0.000524963,0.00274884,-0.00110109,-0.138106,0.00228961,0.0400969,713,862,-0.0143566,-0.0969702
-504,162,-0.0779419,0.101501,0.0036827,-0.00099747,-0.000651463,0.00377169,-0.00108646,-0.135759,0.00294421,0.0422427,720,862,-0.0779403,-0.101496
-497,162,-0.0184326,0.114197,0.00477912,-0.000754586,-0.000985592,0.00494942,-0.000924886,-0.1711,0.00364721,0.0401201,727,862,-0.0184154,-0.114223
-490,162,0,0,0,0,0,0,0,0,0,-1,734,862,0,0
-483,162,0,0,0,0,0,0,0,0,0,-1,741,862,0,0
-476,162,0,0,0,0,0,0,0,0,0,-1,748,862,0,0
-469,162,0,0,0,0,0,0,0,0,0,-1,755,862,0,0
-462,162,0,0,0,0,0,0,0,0,0,-1,762,862,0,0
-455,162,0,0,0,0,0,0,0,0,0,-1,769,862,0,0
-448,162,0,0,0,0,0,0,0,0,0,-1,776,862,0,0
-441,162,0,0,0,0,0,0,0,0,0,-1,783,862,0,0
-434,162,0,0,0,0,0,0,0,0,0,-1,790,862,0,0
-427,162,0,0,0,0,0,0,0,0,0,-1,797,862,0,0
-420,162,0,0,0,0,0,0,0,0,0,-1,804,862,0,0
-413,162,0,0,0,0,0,0,0,0,0,-1,811,862,0,0
-406,162,0,0,0,0,0,0,0,0,0,-1,818,862,0,0
-399,162,0,0,0,0,0,0,0,0,0,-1,825,862,0,0
-392,162,0,0,0,0,0,0,0,0,0,-1,832,862,0,0
-385,162,0,0,0,0,0,0,0,0,0,-1,839,862,0,0
-378,162,0,0,0,0,0,0,0,0,0,-1,846,862,0,0
-371,162,0,0,0,0,0,0,0,0,0,-1,853,862,0,0
-364,162,0,0,0,0,0,0,0,0,0,-1,860,862,0,0
-357,162,0,0,0,0,0,0,0,0,0,-1,867,862,0,0
-350,162,0,0,0,0,0,0,0,0,0,-1,874,862,0,0
-343,162,0,0,0,0,0,0,0,0,0,-1,881,862,0,0
-336,162,0,0,0,0,0,0,0,0,0,-1,888,862,0,0
-329,162,0,0,0,0,0,0,0,0,0,-1,895,862,0,0
-322,162,0,0,0,0,0,0,0,0,0,-1,902,862,0,0
-315,162,0,0,0,0,0,0,0,0,0,-1,909,862,0,0
-308,162,0,0,0,0,0,0,0,0,0,-1,916,862,0,0
-301,162,0,0,0,0,0,0,0,0,0,-1,923,862,0,0
-294,162,0,0,0,0,0,0,0,0,0,-1,930,862,0,0
-287,162,0,0,0,0,0,0,0,0,0,-1,937,862,0,0
-280,162,0,0,0,0,0,0,0,0,0,-1,944,862,0,0
-273,162,0,0,0,0,0,0,0,0,0,-1,951,862,0,0
-266,162,0,0,0,0,0,0,0,0,0,-1,958,862,0,0
-259,162,0,0,0,0,0,0,0,0,0,-1,965,862,0,0
-252,162,0,0,0,0,0,0,0,0,0,-1,972,862,0,0
-245,162,0,0,0,0,0,0,0,0,0,-1,979,862,0,0
-238,162,0,0,0,0,0,0,0,0,0,-1,986,862,0,0
-231,162,0,0,0,0,0,0,0,0,0,-1,993,862,0,0
-224,162,0,0,0,0,0,0,0,0,0,-1,1000,862,0,0
-217,162,0,0,0,0,0,0,0,0,0,-1,1007,862,0,0
-210,162,0,0,0,0,0,0,0,0,0,-1,1014,862,0,0
-203,162,0,0,0,0,0,0,0,0,0,-1,1021,862,0,0
-196,162,0,0,0,0,0,0,0,0,0,-1,1028,862,0,0
-189,162,0,0,0,0,0,0,0,0,0,-1,1035,862,0,0
-182,162,0,0,0,0,0,0,0,0,0,-1,1042,862,0,0
-175,162,0,0,0,0,0,0,0,0,0,-1,1049,862,0,0
-168,162,0,0,0,0,0,0,0,0,0,-1,1056,862,0,0
-161,162,0,0,0,0,0,0,0,0,0,-1,1063,862,0,0
-154,162,0,0,0,0,0,0,0,0,0,-1,1070,862,0,0
-147,162,0,0,0,0,0,0,0,0,0,-1,1077,862,0,0
-140,162,0,0,0,0,0,0,0,0,0,-1,1084,862,0,0
-133,162,0,0,0,0,0,0,0,0,0,-1,1091,862,0,0
-126,162,0,0,0,0,0,0,0,0,0,-1,1098,862,0,0
-119,162,0,0,0,0,0,0,0,0,0,-1,1105,862,0,0
-112,162,0,0,0,0,0,0,0,0,0,-1,1112,862,0,0
-105,162,0,0,0,0,0,0,0,0,0,-1,1119,862,0,0
-98,162,0,0,0,0,0,0,0,0,0,-1,1126,862,0,0
-91,162,0,0,0,0,0,0,0,0,0,-1,1133,862,0,0
-84,162,0,0,0,0,0,0,0,0,0,-1,1140,862,0,0
-77,162,0,0,0,0,0,0,0,0,0,-1,1147,862,0,0
-70,162,0,0,0,0,0,0,0,0,0,-1,1154,862,0,0
-63,162,0,0,0,0,0,0,0,0,0,-1,1161,862,0,0
-56,162,0,0,0,0,0,0,0,0,0,-1,1168,862,0,0
-49,162,0,0,0,0,0,0,0,0,0,-1,1175,862,0,0
-42,162,0,0,0,0,0,0,0,0,0,-1,1182,862,0,0
-35,162,0,0,0,0,0,0,0,0,0,-1,1189,862,0,0
-28,162,0,0,0,0,0,0,0,0,0,-1,1196,862,0,0
-21,162,0,0,0,0,0,0,0,0,0,-1,1203,862,0,0
-14,162,0,0,0,0,0,0,0,0,0,-1,1210,862,0,0
-7,162,0,0,0,0,0,0,0,0,0,-1,1217,862,0,0
0,162,0,0,0,0,0,0,0,0,0,-1,1224,862,0,0
7,162,0,0,0,0,0,0,0,0,0,-1,1231,862,0,0
14,162,0,0,0,0,0,0,0,0,0,-1,1238,862,0,0
21,162,0,0,0,0,0,0,0,0,0,-1,1245,862,0,0
28,162,0,0,0,0,0,0,0,0,0,-1,1252,862,0,0
35,162,0,0,0,0,0,0,0,0,0,-1,1259,862,0,0
42,162,0,0,0,0,0,0,0,0,0,-1,1266,862,0,0
49,162,0,0,0,0,0,0,0,0,0,-1,1273,862,0,0
56,162,0,0,0,0,0,0,0,0,0,-1,1280,862,0,0
63,162,0,0,0,0,0,0,0,0,0,-1,1287,862,0,0
70,162,0,0,0,0,0,0,0,0,0,-1,1294,862,0,0
77,162,0,0,0,0,0,0,0,0,0,-1,1301,862,0,0
84,162,0,0,0,0,0,0,0,0,0,-1,1308,862,0,0
91,162,0,0,0,0,0,0,0,0,0,-1,1315,862,0,0
98,162,0,0,0,0,0,0,0,0,0,-1,1322,862,0,0
105,162,0,0,0,0,0,0,0,0,0,-1,1329,862,0,0
112,162,0,0,0,0,0,0,0,0,0,-1,1336,862,0,0
119,162,0,0,0,0,0,0,0,0,0,-1,1343,862,0,0
126,162,0,0,0,0,0,0,0,0,0,-1,1350,862,0,0
133,162,0,0,0,0,0,0,0,0,0,-1,1357,862,0,0
140,162,0,0,0,0,0,0,0,0,0,-1,1364,862,0,0
147,162,0,0,0,0,0,0,0,0,0,-1,1371,862,0,0
154,162,0,0,0,0,0,0,0,0,0,-1,1378,862,0,0
161,162,0,0,0,0,0,0,0,0,0,-1,1385,862,0,0
168,162,0,0,0,0,0,0,0,0,0,-1,1392,862,0,0
175,162,0,0,0,0,0,0,0,0,0,-1,1399,862,0,0
182,162,0,0,0,0,0,0,0,0,0,-1,1406,862,0,0
189,162,0,0,0,0,0,0,0,0,0,-1,1413,862,0,0
196,162,0,0,0,0,0,0,0,0,0,-1,1420,862,0,0
203,162,0,0,0,0,0,0,0,0,0,-1,1427,862,0,0
210,162,0,0,0,0,0,0,0,0,0,-1,1434,862,0,0
217,162,0,0,0,0,0,0,0,0,0,-1,1441,862,0,0
224,162,0,0,0,0,0,0,0,0,0,-1,1448,862,0,0
231,162,0,0,0,0,0,0,0,0,0,-1,1455,862,0,0
238,162,0,0,0,0,0,0,0,0,0,-1,1462,862,0,0
245,162,0,0,0,0,0,0,0,0,0,-1,1469,862,0,0
252,162,0,0,0,0,0,0,0,0,0,-1,1476,862,0,0
259,162,0,0,0,0,0,0,0,0,0,-1,1483,862,0,0
266,162,0,0,0,0,0,0,0,0,0,-1,1490,862,0,0
273,162,0,0,0,0,0,0,0,0,0,-1,1497,862,0,0
280,162,0,0,0,0,0,0,0,0,0,-1,1504,862,0,0
287,162,0,0,0,0,0,0,0,0,0,-1,1511,862,0,0
294,162,0,0,0,0,0,0,0,0,0,-1,1518,862,0,0
301,162,0,0,0,0,0,0,0,0,0,-1,1525,862,0,0
308,162,0,0,0,0,0,0,0,0,0,-1,1532,862,0,0
315,162,0,0,0,0,0,0,0,0,0,-1,1539,862,0,0
322,162,0,0,0,0,0,0,0,0,0,-1,1546,862,0,0
329,162,0,0,0,0,0,0,0,0,0,-1,1553,862,0,0
336,162,0,0,0,0,0,0,0,0,0,-1,1560,862,0,0
343,162,0,0,0,0,0,0,0,0,0,-1,1567,862,0,0
350,162,0,0,0,0,0,0,0,0,0,-1,1574,862,0,0
357,162,0,0,0,0,0,0,0,0,0,-1,1581,862,0,0
364,162,0,0,0,0,0,0,0,0,0,-1,1588,862,0,0
371,162,0,0,0,0,0,0,0,0,0,-1,1595,862,0,0
378,162,0,0,0,0,0,0,0,0,0,-1,1602,862,0,0
385,162,0,0,0,0,0,0,0,0,0,-1,1609,862,0,0
392,162,0,0,0,0,0,0,0,0,0,-1,1616,862,0,0
399,162,0,0,0,0,0,0,0,0,0,-1,1623,862,0,0
406,162,0,0,0,0,0,0,0,0,0,-1,1630,862,0,0
413,162,0,0,0,0,0,0,0,0,0,-1,1637,862,0,0
420,162,0,0,0,0,0,0,0,0,0,-1,1644,862,0,0
427,162,0,0,0,0,0,0,0,0,0,-1,1651,862,0,0
434,162,0,0,0,0,0,0,0,0,0,-1,1658,862,0,0
441,162,0,0,0,0,0,0,0,0,0,-1,1665,862,0,0
448,162,0,0,0,0,0,0,0,0,0,-1,1672,862,0,0
455,162,0,0,0,0,0,0,0,0,0,-1,1679,862,0,0
462,162,0,0,0,0,0,0,0,0,0,-1,1686,862,0,0
469,162,0,0,0,0,0,0,0,0,0,-1,1693,862,0,0
476,162,0,0,0,0,0,0,0,0,0,-1,1700,862,0,0
483,162,0,0,0,0,0,0,0,0,0,-1,1707,862,0,0
490,162,0,0,0,0,0,0,0,0,0,-1,1714,862,0,0
497,162,0,0,0,0,0,0,0,0,0,-1,1721,862,0,0
504,162,0,0,0,0,0,0,0,0,0,-1,1728,862,0,0
511,162,0,0,0,0,0,0,0,0,0,-1,1735,862,0,0
518,162,0,0,0,0,0,0,0,0,0,-1,1742,862,0,0
525,162,0,0,0,0,0,0,0,0,0,-1,1749,862,0,0
532,162,0,0,0,0,0,0,0,0,0,-1,1756,862,0,0
539,162,0,0,0,0,0,0,0,0,0,-1,1763,862,0,0
546,162,0,0,0,0,0,0,0,0,0,-1,1770,862,0,0
553,162,0,0,0,0,0,0,0,0,0,-1,1777,862,0,0
560,162,0,0,0,0,0,0,0,0,0,-1,1784,862,0,0
567,162,0,0,0,0,0,0,0,0,0,-1,1791,862,0,0
574,162,0,0,0,0,0,0,0,0,0,-1,1798,862,0,0
581,162,0,0,0,0,0,0,0,0,0,-1,1805,862,0,0
588,162,0,0,0,0,0,0,0,0,0,-1,1812,862,0,0
595,162,0,0,0,0,0,0,0,0,0,-1,1819,862,0,0
602,162,0,0,0,0,0,0,0,0,0,-1,1826,862,0,0
609,162,0,0,0,0,0,0,0,0,0,-1,1833,862,0,0
616,162,-0.0275879,0.198242,-0.00142797,-0.000732258,-0.00325481,0.00219323,-0.00435346,-0.838633,0.00384771,0.0394034,1840,862,-0.0276369,-0.198245
623,162,-0.0209961,0.148132,-0.000647387,-0.000668565,-0.00232621,0.00166826,-0.00298421,-0.783122,0.00272168,0.0375645,1847,862,-0.0209672,-0.148135
630,162,0.019165,0.0648193,-0.000583985,-0.000576421,-0.00137833,0.000798134,-0.00195854,-0.78677,0.00163789,0.0360035,1854,862,0.0191143,-0.0648169
637,162,0.026123,0.031189,-0.000584123,-0.00048706,-0.000712673,0.000178732,-0.00124991,-0.819394,0.000898797,0.036241,1861,862,0.0261559,-0.0312105
644,162,0.0131836,-0.00256348,-0.000655148,-0.000403514,-0.000246385,-0.000252681,-0.000805981,-1.02147,0.000476001,0.0345813,1868,862,0.0131416,0.00258511
651,162,-0.0256348,0.0375366,-0.000739543,-0.000342936,5.69864e-05,-0.00033491,-0.000747569,1.43088,0.000432386,0.0308016,1875,862,-0.0256762,-0.0375234
658,162,-0.0826416,0.101746,-0.000753601,-0.000286814,0.000248657,-0.000179176,-0.00086124,1.16227,0.000524732,0.030405,1882,862,-0.0826997,-0.101733
665,162,-0.0437012,0.0994263,-0.000708979,-0.000217273,0.00031012,-6.73762e-05,-0.000858876,1.12056,0.000551499,0.038247,1889,862,-0.0436602,-0.0994464
672,162,-0.149536,0.262512,-0.000740374,-0.000170124,0.000315602,-2.99244e-05,-0.000880574,1.15275,0.000577333,0.0439477,1896,862,-0.149513,-0.262524
679,162,-0.0842285,0.229187,-0.00077313,-0.000104996,0.000324019,2.63283e-05,-0.000904455,1.18573,0.000611935,0.0415873,1903,862,-0.084256,-0.22919
686,162,-0.0418701,0.107117,-0.000695459,-5.50656e-05,0.000221799,1.42509e-05,-0.000764776,1.26789,0.000514667,0.0222983,1910,862,-0.0418662,-0.107087
693,162,-0.0548096,0.0682373,-0.000553902,-0.000122784,9.20029e-05,-0.000103971,-0.000572715,1.36909,0.000352304,0.0134712,1917,862,-0.0547854,-0.0682225
700,162,-0.0567627,0.0557861,-0.000403702,-0.000340601,-3.53729e-05,-0.000324752,-0.000419551,-1.14957,0.000254066,0.0135588,1924,862,-0.0567921,-0.055815
707,162,-0.0562744,0.0558472,-0.000130626,-0.000696655,-1.18591e-05,-0.000130378,-0.000696904,-0.0209392,0.000427817,0.0101616,1931,862,-0.0563146,-0.0558168
714,162,-0.0484619,0.0452881,0.00019647,-0.000430578,0.000106587,0.000214092,-0.000448201,0.163853,0.000390257,0.0129054,1938,862,-0.048453,-0.0453041
721,162,-0.0710449,0.0831299,0.000519632,0.00063751,1.07513e-05,0.000638483,0.000518659,1.48058,0.000391869,0.0201646,1945,862,-0.071076,-0.0831349
728,162,-0.071167,0.085083,0.000872945,0.00213902,0.000269764,0.0021941,0.000817862,1.36938,0.00128036,0.0173534,1952,862,-0.0711875,-0.0850739
735,162,-0.0628662,0.0751953,0.00113569,0.00381323,0.00056787,0.00392869,0.00102023,1.37021,0.00235394,0.0103211,1959,862,-0.0628331,-0.0752125
742,162,-0.0297852,0.0720215,0.00150255,0.00634611,0.000891192,0.00650488,0.00134378,1.39449,0.0039653,0.0119832,1966,862,-0.029833,-0.0720239
749,162,-0.0178223,0.0692749,0.00196629,0.01011,0.00123013,0.0102917,0.00178453,1.4241,0.00635044,0.0164183,1973,862,-0.0178062,-0.0692898
756,162,-0.00891113,0.195679,0.00242132,0.0154802,0.00162628,0.0156797,0.00222184,1.44875,0.00979686,0.0352359,1980,862,-0.00895418,-0.195693
763,162,0.000488281,0.399475,0.00287023,0.0229031,0.00206609,0.023114,0.00265936,1.46909,0.0146038,0.0450713,1987,862,0.000493193,-0.399459
770,162,0.289673,0.571106,0.0032552,0.0329055,0.00252975,0.0331198,0.00304091,1.48629,0.0211393,0.0449732,1994,862,0.289732,-0.571121
777,162,0.450073,0.735107,0.00344306,0.0460952,0.00299781,0.0463049,0.00323339,1.50097,0.0298506,0.0458829,2001,862,0.45013,-0.735127
784,162,0.253662,0.510193,0,0,0,0,0,0,0,-1,2008,862,0.253682,-0.510198
791,162,0,0,0,0,0,0,0,0,0,-1,2015,862,0,0
798,162,0,0,0,0,0,0,0,0,0,-1,2022,862,0,0
805,162,0,0,0,0,0,0,0,0,0,-1,2029,862,0,0
812,162,0,0,0,0,0,0,0,0,0,-1,2036,862,0,0
-700,155,0,0,0,0,0,0,0,0,0,-1,524,869,0,0
-693,155,0,0,0,0,0,0,0,0,0,-1,531,869,0,0
-686,155,0,0,0,0,0,0,0,0,0,-1,538,869,0,0
-679,155,0,0,0,0,0,0,0,0,0,-1,545,869,0,0
-672,155,0,0,0,0,0,0,0,0,0,-1,552,869,0,0
-665,155,4.93079,-0.409241,0,0,0,0,0,0,0,-1,559,869,4.93079,0.409237
-658,155,4.05432,-0.738525,0,0,0,0,0,0,0,-1,566,869,4.05433,0.738527
-651,155,3.2171,-0.941223,0,0,0,0,0,0,0,-1,573,869,3.21711,0.941208
-644,155,2.55896,-1.03638,0,0,0,0,0,0,0,-1,580,869,2.55897,1.03638
-637,155,2.01105,-1.70667,0,0,0,0,0,0,0,-1,587,869,2.01104,1.70667
-630,155,0.900269,-0.780823,-0.0031413,0.0155906,0.00505776,0.0168689,-0.00441969,1.32322,0.0129726,0.0445452,594,869,0.90028,0.780808
-623,155,-0.0648193,0.0864868,-0.00497531,0.0094172,0.00330273,0.0101389,-0.00569701,1.35566,0.00926199,0.0238413,601,869,-0.0648273,-0.086499
-616,155,-0.0507813,0.0684204,-0.00564906,0.00489988,0.00186881,0.00522116,-0.00597034,1.40054,0.00646624,0.012676,608,869,-0.0507809,-0.0684111
-609,155,-0.0281982,0.0839233,-0.00471531,0.00258718,0.00163136,0.00293505,-0.00506318,1.3607,0.00467195,0.0116617,615,869,-0.0282122,-0.0839278
-602,155,-0.0390625,0.0637207,-0.00320608,0.00129993,0.0017711,0.00191273,-0.00381888,1.23769,0.00336959,0.0108973,622,869,-0.0390787,-0.063694
-595,155,-0.0319214,0.0648804,-0.00207097,0.000664694,0.00149072,0.00132003,-0.00272631,1.15662,0.00238272,0.00953159,629,869,-0.0319375,-0.0648525
-588,155,-0.020813,0.0771484,-0.00145152,0.000311619,0.000966063,0.000737888,-0.00187779,1.15525,0.00155723,0.0104927,636,869,-0.0208314,-0.0771489
-581,155,-0.046936,0.0408936,-0.00116067,5.65424e-05,0.000605197,0.000306228,-0.00141036,1.1795,0.0010572,0.0126524,643,869,-0.0469594,-0.0408737
-574,155,-0.0495605,0.0406494,-0.000301256,-8.45285e-05,-5.61316e-05,-7.08535e-05,-0.000314931,-1.33183,0.000190774,0.0173074,650,869,-0.0495308,-0.0406441
-567,155,-0.0276489,0.0437012,-8.72778e-05,-0.00013877,-0.000514283,0.000401903,-0.000627951,-0.760388,0.000599342,0.0202447,657,869,-0.0276419,-0.0436801
-560,155,-0.0344849,0.0511475,-0.000300326,-0.000183765,-0.000585652,0.0003465,-0.00083059,-0.834992,0.000698487,0.0213411,664,869,-0.0344717,-0.0511763
-553,155,-0.0661621,0.0533447,-0.000365259,-0.000274927,-0.000651946,0.000333416,-0.000973601,-0.819982,0.0007842,0.0323992,671,869,-0.0661887,-0.0533182
-546,155,-0.0178833,0.124146,-0.000178637,-0.000318462,-0.000719267,0.000474107,-0.000971207,-0.73695,0.000850745,0.033302,678,869,-0.0178872,-0.124116
-539,155,-0.0169678,0.107788,0.000131143,-0.000363931,-0.000830741,0.000750442,-0.000983231,-0.640601,0.00100394,0.0411294,685,869,-0.0169673,-0.107798
-532,155,-0.0786133,0.0325317,0.000626336,-0.000406669,-0.00088192,0.00113187,-0.000912202,-0.520495,0.00118241,0.0322381,692,869,-0.0786228,-0.032524
-525,155,-0.0727539,0.135071,0.0012826,-0.000407314,-0.00091558,0.00168353,-0.000808246,-0.412745,0.00146792,0.0329305,699,869,-0.072779,-0.135049
-518,155,-0.0891724,0.0523682,0.00207689,-0.000337084,-0.000967008,0.00241649,-0.00067668,-0.337728,0.00187765,0.03781,706,869,-0.0891617,-0.0523708
-511,155,-0.0935669,0.156189,0.0030319,-0.000151708,-0.0010894,0.00336899,-0.0004888,-0.300084,0.0024254,0.0405928,713,869,-0.0935382,-0.156175
-504,155,-0.190247,0.131775,0.00407766,0.000217435,-0.00138746,0.0045246,-0.000229506,-0.311632,0.00309574,0.0390426,720,869,-0.190235,-0.131777
-497,155,0,0,0,0,0,0,0,0,0,-1,727,869,0,0
-490,155,0,0,0,0,0,0,0,0,0,-1,734,869,0,0
-483,155,0,0,0,0,0,0,0,0,0,-1,741,869,0,0
-476,155,0,0,0,0,0,0,0,0,0,-1,748,869,0,0
-469,155,0,0,0,0,0,0,0,0,0,-1,755,869,0,0
-462,155,0,0,0,0,0,0,0,0,0,-1,762,869,0,0
-455,155,0,0,0,0,0,0,0,0,0,-1,769,869,0,0
-448,155,0,0,0,0,0,0,0,0,0,-1,776,869,0,0
-441,155,0,0,0,0,0,0,0,0,0,-1,783,869,0,0
-434,155,0,0,0,0,0,0,0,0,0,-1,790,869,0,0
-427,155,0,0,0,0,0,0,0,0,0,-1,797,869,0,0
-420,155,0,0,0,0,0,0,0,0,0,-1,804,869,0,0
-413,155,0,0,0,0,0,0,0,0,0,-1,811,869,0,0
-406,155,0,0,0,0,0,0,0,0,0,-1,818,869,0,0
-399,155,0,0,0,0,0,0,0,0,0,-1,825,869,0,0
-392,155,0,0,0,0,0,0,0,0,0,-1,832,869,0,0
-385,155,0,0,0,0,0,0,0,0,0,-1,839,869,0,0
-378,155,0,0,0,0,0,0,0,0,0,-1,846,869,0,0
-371,155,0,0,0,0,0,0,0,0,0,-1,853,869,0,0
-364,155,0,0,0,0,0,0,0,0,0,-1,860,869,0,0
-357,155,0,0,0,0,0,0,0,0,0,-1,867,869,0,0
-350,155,0,0,0,0,0,0,0,0,0,-1,874,869,0,0
-343,155,0,0,0,0,0,0,0,0,0,-1,881,869,0,0
-336,155,0,0,0,0,0,0,0,0,0,-1,888,869,0,0
-329,155,0,0,0,0,0,0,0,0,0,-1,895,869,0,0
-322,155,0,0,0,0,0,0,0,0,0,-1,902,869,0,0
-315,155,0,0,0,0,0,0,0,0,0,-1,909,869,0,0
-308,155,0,0,0,0,0,0,0,0,0,-1,916,869,0,0
-301,155,0,0,0,0,0,0,0,0,0,-1,923,869,0,0
-294,155,0,0,0,0,0,0,0,0,0,-1,930,869,0,0
-287,155,0,0,0,0,0,0,0,0,0,-1,937,869,0,0
-280,155,0,0,0,0,0,0,0,0,0,-1,944,869,0,0
-273,155,0,0,0,0,0,0,0,0,0,-1,951,869,0,0
-266,155,0,0,0,0,0,0,0,0,0,-1,958,869,0,0
-259,155,0,0,0,0,0,0,0,0,0,-1,965,869,0,0
-252,155,0,0,0,0,0,0,0,0,0,-1,972,869,0,0
-245,155,0,0,0,0,0,0,0,0,0,-1,979,869,0,0
-238,155,0,0,0,0,0,0,0,0,0,-1,986,869,0,0
-231,155,0,0,0,0,0,0,0,0,0,-1,993,869,0,0
-224,155,0,0,0,0,0,0,0,0,0,-1,1000,869,0,0
-217,155,0,0,0,0,0,0,0,0,0,-1,1007,869,0,0
-210,155,0,0,0,0,0,0,0,0,0,-1,1014,869,0,0
-203,155,0,0,0,0,0,0,0,0,0,-1,1021,869,0,0
-196,155,0,0,0,0,0,0,0,0,0,-1,1028,869,0,0
-189,155,0,0,0,0,0,0,0,0,0,-1,1035,869,0,0
-182,155,0,0,0,0,0,0,0,0,0,-1,1042,869,0,0
-175,155,0,0,0,0,0,0,0,0,0,-1,1049,869,0,0
-168,155,0,0,0,0,0,0,0,0,0,-1,1056,869,0,0
-161,155,0,0,0,0,0,0,0,0,0,-1,1063,869,0,0
-154,155,0,0,0,0,0,0,0,0,0,-1,1070,869,0,0
-147,155,0,0,0,0,0,0,0,0,0,-1,1077,869,0,0
-140,155,0,0,0,0,0,0,0,0,0,-1,1084,869,0,0
-133,155,0,0,0,0,0,0,0,0,0,-1,1091,869,0,0
-126,155,0,0,0,0,0,0,0,0,0,-1,1098,869,0,0
-119,155,0,0,0,0,0,0,0,0,0,-1,1105,869,0,0
-112,155,0,0,0,0,0,0,0,0,0,-1,1112,869,0,0
-105,155,0,0,0,0,0,0,0,0,0,-1,1119,869,0,0
-98,155,0,0,0,0,0,0,0,0,0,-1,1126,869,0,0
-91,155,0,0,0,0,0,0,0,0,0,-1,1133,869,0,0
-84,155,0,0,0,0,0,0,0,0,0,-1,1140,869,0,0
-77,155,0,0,0,0,0,0,0,0,0,-1,1147,869,0,0
-70,155,0,0,0,0,0,0,0,0,0,-1,1154,869,0,0
-63,155,0,0,0,0,0,0,0,0,0,-1,1161,869,0,0
-56,155,0,0,0,0,0,0,0,0,0,-1,1168,869,0,0
-49,155,0,0,0,0,0,0,0,0,0,-1,1175,869,0,0
-42,155,0,0,0,0,0,0,0,0,0,-1,1182,869,0,0
-35,155,0,0,0,0,0,0,0,0,0,-1,1189,869,0,0
-28,155,0,0,0,0,0,0,0,0,0,-1,1196,869,0,0
-21,155,0,0,0,0,0,0,0,0,0,-1,1203,869,0,0
-14,155,0,0,0,0,0,0,0,0,0,-1,1210,869,0,0
-7,155,0,0,0,0,0,0,0,0,0,-1,1217,869,0,0
0,155,0,0,0,0,0,0,0,0,0,-1,1224,869,0,0
7,155,0,0,0,0,0,0,0,0,0,-1,1231,869,0,0
14,155,0,0,0,0,0,0,0,0,0,-1,1238,869,0,0
21,155,0,0,0,0,0,0,0,0,0,-1,1245,869,0,0
28,155,0,0,0,0,0,0,0,0,0,-1,1252,869,0,0
35,155,0,0,0,0,0,0,0,0,0,-1,1259,869,0,0
42,155,0,0,0,0,0,0,0,0,0,-1,1266,869,0,0
49,155,0,0,0,0,0,0,0,0,0,-1,1273,869,0,0
56,155,0,0,0,0,0,0,0,0,0,-1,1280,869,0,0
63,155,0,0,0,0,0,0,0,0,0,-1,1287,869,0,0
70,155,0,0,0,0,0,0,0,0,0,-1,1294,869,0,0
77,155,0,0,0,0,0,0,0,0,0,-1,1301,869,0,0
84,155,0,0,0,0,0,0,0,0,0,-1,1308,869,0,0
91,155,0,0,0,0,0,0,0,0,0,-1,1315,869,0,0
98,155,0,0,0,0,0,0,0,0,0,-1,1322,869,0,0
105,155,0,0,0,0,0,0,0,0,0,-1,1329,869,0,0
112,155,0,0,0,0,0,0,0,0,0,-1,1336,869,0,0
119,155,0,0,0,0,0,0,0,0,0,-1,1343,869,0,0
126,155,0,0,0,0,0,0,0,0,0,-1,1350,869,0,0
133,155,0,0,0,0,0,0,0,0,0,-1,1357,869,0,0
140,155,0,0,0,0,0,0,0,0,0,-1,1364,869,0,0
147,155,0,0,0,0,0,0,0,0,0,-1,1371,869,0,0
154,155,0,0,0,0,0,0,0,0,0,-1,1378,869,0,0
161,155,0,0,0,0,0,0,0,0,0,-1,1385,869,0,0
168,155,0,0,0,0,0,0,0,0,0,-1,1392,869,0,0
175,155,0,0,0,0,0,0,0,0,0,-1,1399,869,0,0
182,155,0,0,0,0,0,0,0,0,0,-1,1406,869,0,0
189,155,0,0,0,0,0,0,0,0,0,-1,1413,869,0,0
196,155,0,0,0,0,0,0,0,0,0,-1,1420,869,0,0
203,155,0,0,0,0,0,0,0,0,0,-1,1427,869,0,0
210,155,0,0,0,0,0,0,0,0,0,-1,1434,869,0,0
217,155,0,0,0,0,0,0,0,0,0,-1,1441,869,0,0
224,155,0,0,0,0,0,0,0,0,0,-1,1448,869,0,0
231,155,0,0,0,0,0,0,0,0,0,-1,1455,869,0,0
238,155,0,0,0,0,0,0,0,0,0,-1,1462,869,0,0
245,155,0,0,0,0,0,0,0,0,0,-1,1469,869,0,0
252,155,0,0,0,0,0,0,0,0,0,-1,1476,869,0,0
259,155,0,0,0,0,0,0,0,0,0,-1,1483,869,0,0
266,155,0,0,0,0,0,0,0,0,0,-1,1490,869,0,0
273,155,0,0,0,0,0,0,0,0,0,-1,1497,869,0,0
280,155,0,0,0,0,0,0,0,0,0,-1,1504,869,0,0
287,155,0,0,0,0,0,0,0,0,0,-1,1511,869,0,0
294,155,0,0,0,0,0,0,0,0,0,-1,1518,869,0,0
301,155,0,0,0,0,0,0,0,0,0,-1,1525,869,0,0
308,155,0,0,0,0,0,0,0,0,0,-1,1532,869,0,0
315,155,0,0,0,0,0,0,0,0,0,-1,1539,869,0,0
322,155,0,0,0,0,0,0,0,0,0,-1,1546,869,0,0
329,155,0,0,0,0,0,0,0,0,0,-1,1553,869,0,0
336,155,0,0,0,0,0,0,0,0,0,-1,1560,869,0,0
343,155,0,0,0,0,0,0,0,0,0,-1,1567,869,0,0
350,155,0,0,0,0,0,0,0,0,0,-1,1574,869,0,0
357,155,0,0,0,0,0,0,0,0,0,-1,1581,869,0,0
364,155,0,0,0,0,0,0,0,0,0,-1,1588,869,0,0
371,155,0,0,0,0,0,0,0,0,0,-1,1595,869,0,0
378,155,0,0,0,0,0,0,0,0,0,-1,1602,869,0,0
385,155,0,0,0,0,0,0,0,0,0,-1,1609,869,0,0
392,155,0,0,0,0,0,0,0,0,0,-1,1616,869,0,0
399,155,0,0,0,0,0,0,0,0,0,-1,1623,869,0,0
406,155,0,0,0,0,0,0,0,0,0,-1,1630,869,0,0
413,155,0,0,0,0,0,0,0,0,0,-1,1637,869,0,0
420,155,0,0,0,0,0,0,0,0,0,-1,1644,869,0,0
427,155,0,0,0,0,0,0,0,0,0,-1,1651,869,0,0
434,155,0,0,0,0,0,0,0,0,0,-1,1658,869,0,0
441,155,0,0,0,0,0,0,0,0,0,-1,1665,869,0,0
448,155,0,0,0,0,0,0,0,0,0,-1,1672,869,0,0
455,155,0,0,0,0,0,0,0,0,0,-1,1679,869,0,0
462,155,0,0,0,0,0,0,0,0,0,-1,1686,869,0,0
469,155,0,0,0,0,0,0,0,0,0,-1,1693,869,0,0
476,155,0,0,0,0,0,0,0,0,0,-1,1700,869,0,0
483,155,0,0,0,0,0,0,0,0,0,-1,1707,869,0,0
490,155,0,0,0,0,0,0,0,0,0,-1,1714,869,0,0
497,155,0,0,0,0,0,0,0,0,0,-1,1721,869,0,0
504,155,0,0,0,0,0,0,0,0,0,-1,1728,869,0,0
511,155,0,0,0,0,0,0,0,0,0,-1,1735,869,0,0
518,155,0,0,0,0,0,0,0,0,0,-1,1742,869,0,0
525,155,0,0,0,0,0,0,0,0,0,-1,1749,869,0,0
532,155,0,0,0,0,0,0,0,0,0,-1,1756,869,0,0
539,155,0,0,0,0,0,0,0,0,0,-1,1763,869,0,0
546,155,0,0,0,0,0,0,0,0,0,-1,1770,869,0,0
553,155,0,0,0,0,0,0,0,0,0,-1,1777,869,0,0
560,155,0,0,0,0,0,0,0,0,0,-1,1784,869,0,0
567,155,0,0,0,0,0,0,0,0,0,-1,1791,869,0,0
574,155,0,0,0,0,0,0,0,0,0,-1,1798,869,0,0
581,155,0,0,0,0,0,0,0,0,0,-1,1805,869,0,0
588,155,0,0,0,0,0,0,0,0,0,-1,1812,869,0,0
595,155,0,0,0,0,0,0,0,0,0,-1,1819,869,0,0
602,155,0,0,0,0,0,0,0,0,0,-1,1826,869,0,0
609,155,0,0,0,0,0,0,0,0,0,-1,1833,869,0,0
616,155,-0.0836182,0.110046,-0.00101514,-0.000211855,-0.00386571,0.00327302,-0.00450002,-0.837162,0.00450636,0.0399117,1840,869,-0.0835919,-0.110076
623,155,-0.0906982,0.113586,-0.000252854,-0.000382529,-0.00280062,0.00248368,-0.00311906,-0.773825,0.00324167,0.0369326,1847,869,-0.090744,-0.11357
630,155,-0.0772705,0.109131,-0.000303947,-0.000438985,-0.00172749,0.00135735,-0.00210028,-0.765866,0.00201156,0.0372959,1854,869,-0.0772271,-0.109158
637,155,-0.074707,0.100464,-0.000372516,-0.000434685,-0.000993771,0.000590657,-0.00139786,-0.769764,0.00117918,0.0367931,1861,869,-0.074767,-0.100462
644,155,-0.0113525,0.0688477,-0.00048112,-0.00039475,-0.000489364,5.33309e-05,-0.000929201,-0.829408,0.000637988,0.0324307,1868,869,-0.011413,-0.0688509
651,155,0.0257568,0.0438843,-0.000602841,-0.000334775,-0.000154762,-0.000264074,-0.000673542,-1.14227,0.000391878,0.027806,1875,869,0.02573,-0.0439104
658,155,-0.0482178,0.0649414,-0.000653275,-0.000276038,5.46963e-05,-0.000268267,-0.000661046,1.42968,0.000383905,0.0225224,1882,869,-0.0482318,-0.0649235
665,155,-0.0678711,0.10675,-0.000640965,-0.000193831,0.00013913,-0.000154075,-0.000680721,1.29246,0.00041217,0.0265279,1889,869,-0.0678183,-0.10672
672,155,-0.0375977,0.0509644,-0.000686421,-0.000132085,0.000168814,-8.47221e-05,-0.000733784,1.29727,0.000463537,0.0353575,1896,869,-0.0375406,-0.0509387
679,155,-0.043457,0.116272,-0.000719201,-5.42706e-05,0.000206123,4.44162e-06,-0.000777913,1.2933,0.000520096,0.0331246,1903,869,-0.0434459,-0.116297
686,155,-0.0224609,0.0714722,-0.000649667,8.67785e-07,0.000147601,3.27907e-05,-0.00068159,1.3578,0.000465709,0.0224111,1910,869,-0.0224406,-0.0714944
693,155,-0.0480957,0.0786743,-0.000514361,4.54053e-06,8.82829e-05,1.91492e-05,-0.00052897,1.40681,0.0003592,0.0134179,1917,869,-0.0480895,-0.0786942
700,155,-0.0556641,0.0639038,-0.000402666,-6.51995e-05,4.62959e-05,-5.89635e-05,-0.000408902,1.4369,0.000255227,0.0125655,1924,869,-0.0556092,-0.06393
707,155,-0.043335,0.0628052,-0.000192512,-0.000217631,0.000111239,-9.31253e-05,-0.000317018,0.729182,0.000188149,0.00966292,1931,869,-0.0432961,-0.0628345
714,155,-0.0177002,0.0596313,0.000117309,0.000114191,0.000246269,0.000362024,-0.000130523,0.782233,0.000294656,0.0166731,1938,869,-0.0177033,-0.0596053
721,155,-0.0506592,0.0695801,0.000406471,0.00120851,0.000206193,0.00125841,0.000356567,1.33333,0.000748933,0.0219307,1945,869,-0.0506903,-0.0695507
728,155,-0.0717773,0.0800171,0.000710121,0.00270472,0.000492818,0.00281984,0.000595002,1.34132,0.00171629,0.0179173,1952,869,-0.071795,-0.0799941
735,155,-0.0384521,0.076416,0.000917797,0.00438622,0.000798858,0.00456137,0.000742647,1.35496,0.00282608,0.0142481,1959,869,-0.0385024,-0.0764328
742,155,-0.0472412,0.0943604,0.00124146,0.00674844,0.00114564,0.00697727,0.00101263,1.37366,0.0043534,0.0152473,1966,869,-0.0471888,-0.0943494
749,155,-0.0593262,0.090332,0.00167715,0.010026,0.00155459,0.0103061,0.00139708,1.39255,0.00645561,0.0129348,1973,869,-0.0593835,-0.0903264
756,155,-0.0587158,0.0709839,0.0021143,0.0145979,0.00201546,0.0149152,0.00179697,1.41463,0.0094019,0.0230009,1980,869,-0.0587394,-0.0709997
763,155,0.0859375,0.0888062,0.00259525,0.0205994,0.00259302,0.0209654,0.00222924,1.43057,0.0132963,0.041128,1987,869,0.0859917,-0.088833
770,155,0.299561,0.149231,0.00311212,0.0282033,0.00334817,0.0286424,0.00267302,1.4404,0.0182692,0.0450326,1994,869,0.29962,-0.149214
777,155,0.276001,0.102234,0.00361324,0.0374663,0.00438787,0.0380258,0.00305375,1.44397,0.0243964,0.0440304,2001,869,0.275994,-0.102204
784,155,0.355713,0.055603,0.00416987,0.0482697,0.00582544,0.0490262,0.00341333,1.44165,0.0316079,0.0463904,2008,869,0.355688,-0.0555912
791,155,0,0,0,0,0,0,0,0,0,-1,2015,869,0,0
798,155,0,0,0,0,0,0,0,0,0,-1,2022,869,0,0
805,155,0,0,0,0,0,0,0,0,0,-1,2029,869,0,0
812,155,0,0,0,0,0,0,0,0,0,-1,2036,869,0,0
-700,148,0,0,0,0,0,0,0,0,0,-1,524,876,0,0
-693,148,0,0,0,0,0,0,0,0,0,-1,531,876,0,0
-686,148,0,0,0,0,0,0,0,0,0,-1,538,876,0,0
-679,148,0,0,0,0,0,0,0,0,0,-1,545,876,0,0
-672,148,-1.79321,-0.882263,0,0,0,0,0,0,0,-1,552,876,-1.79321,0.882273
-665,148,6.052,-0.927795,0,0,0,0,0,0,0,-1,559,876,6.05201,0.927777
-658,148,5.22333,-1.25812,0,0,0,0,0,0,0,-1,566,876,5.22331,1.25812
-651,148,4.3725,-1.35266,0,0,0,0,0,0,0,-1,573,876,4.37248,1.35265
-644,148,-0.145508,-0.0670166,0,0,0,0,0,0,0,-1,580,876,-0.145499,0.0670068
-637,148,0.126587,0.414734,0,0,0,0,0,0,0,-1,587,876,0.126606,-0.414749
-630,148,0.0488281,0.26239,-0.0016058,0.0137512,0.00729853,0.0166664,-0.00452107,1.19078,0.0128851,0.0389088,594,876,0.0488341,-0.262402
-623,148,-0.0222168,0.0653076,-0.00411671,0.00777638,0.00458277,0.00933737,-0.0056777,1.2425,0.00875437,0.0202661,601,876,-0.0221922,-0.065317
-616,148,-0.0298462,0.0795898,-0.00528396,0.00352185,0.00248891,0.00417664,-0.00593875,1.31354,0.00586959,0.0111789,608,876,-0.0298595,-0.0795987
-609,148,-0.0266113,0.0803833,-0.00470474,0.00149981,0.00182201,0.00199529,-0.00520022,1.30528,0.00428949,0.0104293,615,876,-0.0266162,-0.0803716
-602,148,-0.0249634,0.0563354,-0.00336572,0.000515665,0.00181236,0.00123033,-0.00408039,1.19519,0.00320995,0.0104747,622,876,-0.02496,-0.0563654
-595,148,-0.0170288,0.0574951,-0.00226808,0.000156685,0.00142355,0.00081416,-0.00292555,1.13813,0.00227094,0.00856282,629,876,-0.0170409,-0.0575213
-588,148,-0.0170288,0.0666504,-0.00157088,1.55844e-05,0.000881114,0.000407923,-0.00196322,1.15188,0.00146386,0.0108671,636,876,-0.0170173,-0.066667
-581,148,-0.0266113,0.048584,-0.00119178,-9.86158e-05,0.000515889,0.000106397,-0.00139679,1.19254,0.000968608,0.0142356,643,876,-0.0266331,-0.0485773
-574,148,-0.0285645,0.0817871,-0.000324287,-0.000120811,-0.000109949,-7.27515e-05,-0.000372347,-1.15871,0.000227885,0.0198891,650,876,-0.028589,-0.0817635
-567,148,-0.0106812,0.0917358,-1.36135e-05,-0.00012126,-0.000457781,0.000393498,-0.000528372,-0.72688,0.000534137,0.025279,657,876,-0.010679,-0.0917466
-560,148,-0.024292,0.0471191,-0.00010031,-5.65695e-05,-0.000541635,0.000463636,-0.000620516,-0.805576,0.000628116,0.0266133,664,876,-0.0242815,-0.0470955
-553,148,-0.104309,-0.000244141,-0.000104192,-8.48577e-05,-0.00063886,0.000544409,-0.000733458,-0.792963,0.000740463,0.0341099,671,876,-0.104283,0.000222185
-546,148,-0.0324707,0.107971,0.000113838,-3.77476e-05,-0.000741659,0.000783567,-0.000707477,-0.734478,0.000861228,0.0373404,678,876,-0.0324878,-0.10798
-539,148,-0.0169067,0.100342,0.00044911,3.08962e-05,-0.000900216,0.00116419,-0.00068418,-0.671279,0.00107908,0.0331331,685,876,-0.0169224,-0.100325
-532,148,-0.0377808,0.0946655,0.000962616,0.000139493,-0.0010205,0.00165142,-0.000549308,-0.593726,0.00132263,0.0315768,692,876,-0.037761,-0.0946948
-525,148,-0.0342407,0.209106,0.001632,0.000330923,-0.00114445,0.00229788,-0.000334958,-0.526957,0.00165491,0.0328373,699,876,-0.0342274,-0.209132
-518,148,-0.0296021,0.224792,0.00244481,0.000639285,-0.00130193,0.00312635,-4.2255e-05,-0.482257,0.00209846,0.0403265,706,876,-0.0296304,-0.22478
-511,148,-0.0141602,0.316406,0.00343907,0.00110878,-0.00154333,0.00420769,0.000340159,-0.462066,0.00269889,0.0391211,713,876,-0.0141373,-0.31642
-504,148,-0.0344849,0.296692,0.00451792,0.00180804,-0.00198217,0.00556399,0.000761966,-0.485593,0.00348323,0.0371684,720,876,-0.0345087,-0.296712
-497,148,0,0,0,0,0,0,0,0,0,-1,727,876,0,0
-490,148,0,0,0,0,0,0,0,0,0,-1,734,876,0,0
-483,148,0,0,0,0,0,0,0,0,0,-1,741,876,0,0
-476,148,0,0,0,0,0,0,0,0,0,-1,748,876,0,0
-469,148,0,0,0,0,0,0,0,0,0,-1,755,876,0,0
-462,148,0,0,0,0,0,0,0,0,0,-1,762,876,0,0
-455,148,0,0,0,0,0,0,0,0,0,-1,769,876,0,0
-448,148,0,0,0,0,0,0,0,0,0,-1,776,876,0,0
-441,148,0,0,0,0,0,0,0,0,0,-1,783,876,0,0
-434,148,0,0,0,0,0,0,0,0,0,-1,790,876,0,0
-427,148,0,0,0,0,0,0,0,0,0,-1,797,876,0,0
-420,148,0,0,0,0,0,0,0,0,0,-1,804,876,0,0
-413,148,0,0,0,0,0,0,0,0,0,-1,811,876,0,0
-406,148,0,0,0,0,0,0,0,0,0,-1,818,876,0,0
-399,148,0,0,0,0,0,0,0,0,0,-1,825,876,0,0
-392,148,0,0,0,0,0,0,0,0,0,-1,832,876,0,0
-385,148,0,0,0,0,0,0,0,0,0,-1,839,876,0,0
-378,148,0,0,0,0,0,0,0,0,0,-1,846,876,0,0
-371,148,0,0,0,0,0,0,0,0,0,-1,853,876,0,0
-364,148,0,0,0,0,0,0,0,0,0,-1,860,876,0,0
-357,148,0,0,0,0,0,0,0,0,0,-1,867,876,0,0
-350,148,0,0,0,0,0,0,0,0,0,-1,874,876,0,0
-343,148,0,0,0,0,0,0,0,0,0,-1,881,876,0,0
-336,148,0,0,0,0,0,0,0,0,0,-1,888,876,0,0
-329,148,0,0,0,0,0,0,0,0,0,-1,895,876,0,0
-322,148,0,0,0,0,0,0,0,0,0,-1,902,876,0,0
-315,148,0,0,0,0,0,0,0,0,0,-1,909,876,0,0
-308,148,0,0,0,0,0,0,0,0,0,-1,916,876,0,0
-301,148,0,0,0,0,0,0,0,0,0,-1,923,876,0,0
-294,148,0,0,0,0,0,0,0,0,0,-1,930,876,0,0
-287,148,0,0,0,0,0,0,0,0,0,-1,937,876,0,0
-280,148,0,0,0,0,0,0,0,0,0,-1,944,876,0,0
-273,148,0,0,0,0,0,0,0,0,0,-1,951,876,0,0
-266,148,0,0,0,0,0,0,0,0,0,-1,958,876,0,0
-259,148,0,0,0,0,0,0,0,0,0,-1,965,876,0,0
-252,148,0,0,0,0,0,0,0,0,0,-1,972,876,0,0
-245,148,0,0,0,0,0,0,0,0,0,-1,979,876,0,0
-238,148,0,0,0,0,0,0,0,0,0,-1,986,876,0,0
-231,148,0,0,0,0,0,0,0,0,0,-1,993,876,0,0
-224,148,0,0,0,0,0,0,0,0,0,-1,1000,876,0,0
-217,148,0,0,0,0,0,0,0,0,0,-1,1007,876,0,0
-210,148,0,0,0,0,0,0,0,0,0,-1,1014,876,0,0
-203,148,0,0,0,0,0,0,0,0,0,-1,1021,876,0,0
-196,148,0,0,0,0,0,0,0,0,0,-1,1028,876,0,0
-189,148,0,0,0,0,0,0,0,0,0,-1,1035,876,0,0
-182,148,0,0,0,0,0,0,0,0,0,-1,1042,876,0,0
-175,148,0,0,0,0,0,0,0,0,0,-1,1049,876,0,0
-168,148,0,0,0,0,0,0,0,0,0,-1,1056,876,0,0
-161,148,0,0,0,0,0,0,0,0,0,-1,1063,876,0,0
-154,148,0,0,0,0,0,0,0,0,0,-1,1070,876,0,0
-147,148,0,0,0,0,0,0,0,0,0,-1,1077,876,0,0
-140,148,0,0,0,0,0,0,0,0,0,-1,1084,876,0,0
-133,148,0,0,0,0,0,0,0,0,0,-1,1091,876,0,0
-126,148,0,0,0,0,0,0,0,0,0,-1,1098,876,0,0
-119,148,0,0,0,0,0,0,0,0,0,-1,1105,876,0,0
-112,148,0,0,0,0,0,0,0,0,0,-1,1112,876,0,0
-105,148,0,0,0,0,0,0,0,0,0,-1,1119,876,0,0
-98,148,0,0,0,0,0,0,0,0,0,-1,1126,876,0,0
-91,148,0,0,0,0,0,0,0,0,0,-1,1133,876,0,0
-84,148,0,0,0,0,0,0,0,0,0,-1,1140,876,0,0
-77,148,0,0,0,0,0,0,0,0,0,-1,1147,876,0,0
-70,148,0,0,0,0,0,0,0,0,0,-1,1154,876,0,0
-63,148,0,0,0,0,0,0,0,0,0,-1,1161,876,0,0
-56,148,0,0,0,0,0,0,0,0,0,-1,1168,876,0,0
-49,148,0,0,0,0,0,0,0,0,0,-1,1175,876,0,0
-42,148,0,0,0,0,0,0,0,0,0,-1,1182,876,0,0
-35,148,0,0,0,0,0,0,0,0,0,-1,1189,876,0,0
-28,148,0,0,0,0,0,0,0,0,0,-1,1196,876,0,0
-21,148,0,0,0,0,0,0,0,0,0,-1,1203,876,0,0
-14,148,0,0,0,0,0,0,0,0,0,-1,1210,876,0,0
-7,148,0,0,0,0,0,0,0,0,0,-1,1217,876,0,0
0,148,0,0,0,0,0,0,0,0,0,-1,1224,876,0,0
7,148,0,0,0,0,0,0,0,0,0,-1,1231,876,0,0
14,148,0,0,0,0,0,0,0,0,0,-1,1238,876,0,0
21,148,0,0,0,0,0,0,0,0,0,-1,1245,876,0,0
28,148,0,0,0,0,0,0,0,0,0,-1,1252,876,0,0
35,148,0,0,0,0,0,0,0,0,0,-1,1259,876,0,0
42,148,0,0,0,0,0,0,0,0,0,-1,1266,876,0,0
49,148,0,0,0,0,0,0,0,0,0,-1,1273,876,0,0
56,148,0,0,0,0,0,0,0,0,0,-1,1280,876,0,0
63,148,0,0,0,0,0,0,0,0,0,-1,1287,876,0,0
70,148,0,0,0,0,0,0,0,0,0,-1,1294,876,0,0
77,148,0,0,0,0,0,0,0,0,0,-1,1301,876,0,0
84,148,0,0,0,0,0,0,0,0,0,-1,1308,876,0,0
91,148,0,0,0,0,0,0,0,0,0,-1,1315,876,0,0
98,148,0,0,0,0,0,0,0,0,0,-1,1322,876,0,0
105,148,0,0,0,0,0,0,0,0,0,-1,1329,876,0,0
112,148,0,0,0,0,0,0,0,0,0,-1,1336,876,0,0
119,148,0,0,0,0,0,0,0,0,0,-1,1343,876,0,0
126,148,0,0,0,0,0,0,0,0,0,-1,1350,876,0,0
133,148,0,0,0,0,0,0,0,0,0,-1,1357,876,0,0
140,148,0,0,0,0,0,0,0,0,0,-1,1364,876,0,0
147,148,0,0,0,0,0,0,0,0,0,-1,1371,876,0,0
154,148,0,0,0,0,0,0,0,0,0,-1,1378,876,0,0
161,148,0,0,0,0,0,0,0,0,0,-1,1385,876,0,0
168,148,0,0,0,0,0,0,0,0,0,-1,1392,876,0,0
175,148,0,0,0,0,0,0,0,0,0,-1,1399,876,0,0
182,148,0,0,0,0,0,0,0,0,0,-1,1406,876,0,0
189,148,0,0,0,0,0,0,0,0,0,-1,1413,876,0,0
196,148,0,0,0,0,0,0,0,0,0,-1,1420,876,0,0
203,148,0,0,0,0,0,0,0,0,0,-1,1427,876,0,0
210,148,0,0,0,0,0,0,0,0,0,-1,1434,876,0,0
217,148,0,0,0,0,0,0,0,0,0,-1,1441,876,0,0
224,148,0,0,0,0,0,0,0,0,0,-1,1448,876,0,0
231,148,0,0,0,0,0,0,0,0,0,-1,1455,876,0,0
238,148,0,0,0,0,0,0,0,0,0,-1,1462,876,0,0
245,148,0,0,0,0,0,0,0,0,0,-1,1469,876,0,0
252,148,0,0,0,0,0,0,0,0,0,-1,1476,876,0,0
259,148,0,0,0,0,0,0,0,0,0,-1,1483,876,0,0
266,148,0,0,0,0,0,0,0,0,0,-1,1490,876,0,0
273,148,0,0,0,0,0,0,0,0,0,-1,1497,876,0,0
280,148,0,0,0,0,0,0,0,0,0,-1,1504,876,0,0
287,148,0,0,0,0,0,0,0,0,0,-1,1511,876,0,0
294,148,0,0,0,0,0,0,0,0,0,-1,1518,876,0,0
301,148,0,0,0,0,0,0,0,0,0,-1,1525,876,0,0
308,148,0,0,0,0,0,0,0,0,0,-1,1532,876,0,0
315,148,0,0,0,0,0,0,0,0,0,-1,1539,876,0,0
322,148,0,0,0,0,0,0,0,0,0,-1,1546,876,0,0
329,148,0,0,0,0,0,0,0,0,0,-1,1553,876,0,0
336,148,0,0,0,0,0,0,0,0,0,-1,1560,876,0,0
343,148,0,0,0,0,0,0,0,0,0,-1,1567,876,0,0
350,148,0,0,0,0,0,0,0,0,0,-1,1574,876,0,0
357,148,0,0,0,0,0,0,0,0,0,-1,1581,876,0,0
364,148,0,0,0,0,0,0,0,0,0,-1,1588,876,0,0
371,148,0,0,0,0,0,0,0,0,0,-1,1595,876,0,0
378,148,0,0,0,0,0,0,0,0,0,-1,1602,876,0,0
385,148,0,0,0,0,0,0,0,0,0,-1,1609,876,0,0
392,148,0,0,0,0,0,0,0,0,0,-1,1616,876,0,0
399,148,0,0,0,0,0,0,0,0,0,-1,1623,876,0,0
406,148,0,0,0,0,0,0,0,0,0,-1,1630,876,0,0
413,148,0,0,0,0,0,0,0,0,0,-1,1637,876,0,0
420,148,0,0,0,0,0,0,0,0,0,-1,1644,876,0,0
427,148,0,0,0,0,0,0,0,0,0,-1,1651,876,0,0
434,148,0,0,0,0,0,0,0,0,0,-1,1658,876,0,0
441,148,0,0,0,0,0,0,0,0,0,-1,1665,876,0,0
448,148,0,0,0,0,0,0,0,0,0,-1,1672,876,0,0
455,148,0,0,0,0,0,0,0,0,0,-1,1679,876,0,0
462,148,0,0,0,0,0,0,0,0,0,-1,1686,876,0,0
469,148,0,0,0,0,0,0,0,0,0,-1,1693,876,0,0
476,148,0,0,0,0,0,0,0,0,0,-1,1700,876,0,0
483,148,0,0,0,0,0,0,0,0,0,-1,1707,876,0,0
490,148,0,0,0,0,0,0,0,0,0,-1,1714,876,0,0
497,148,0,0,0,0,0,0,0,0,0,-1,1721,876,0,0
504,148,0,0,0,0,0,0,0,0,0,-1,1728,876,0,0
511,148,0,0,0,0,0,0,0,0,0,-1,1735,876,0,0
518,148,0,0,0,0,0,0,0,0,0,-1,1742,876,0,0
525,148,0,0,0,0,0,0,0,0,0,-1,1749,876,0,0
532,148,0,0,0,0,0,0,0,0,0,-1,1756,876,0,0
539,148,0,0,0,0,0,0,0,0,0,-1,1763,876,0,0
546,148,0,0,0,0,0,0,0,0,0,-1,1770,876,0,0
553,148,0,0,0,0,0,0,0,0,0,-1,1777,876,0,0
560,148,0,0,0,0,0,0,0,0,0,-1,1784,876,0,0
567,148,0,0,0,0,0,0,0,0,0,-1,1791,876,0,0
574,148,0,0,0,0,0,0,0,0,0,-1,1798,876,0,0
581,148,0,0,0,0,0,0,0,0,0,-1,1805,876,0,0
588,148,0,0,0,0,0,0,0,0,0,-1,1812,876,0,0
595,148,0,0,0,0,0,0,0,0,0,-1,1819,876,0,0
602,148,0,0,0,0,0,0,0,0,0,-1,1826,876,0,0
609,148,0,0,0,0,0,0,0,0,0,-1,1833,876,0,0
616,148,0,0,0,0,0,0,0,0,0,-1,1840,876,0,0
623,148,-0.0551758,0.193787,0.000124294,-0.000275412,-0.00305018,0.00298116,-0.00313228,-0.752684,0.00352995,0.0370045,1847,876,-0.0551574,-0.193779
630,148,-0.0515137,0.0670166,-6.33569e-05,-0.000375908,-0.00192499,0.00171169,-0.00215096,-0.744896,0.00223491,0.0367069,1854,876,-0.051492,-0.0670038
637,148,-0.0174561,0.0132446,-0.00020447,-0.000370156,-0.00117333,0.000888934,-0.00146356,-0.750154,0.00137165,0.033642,1861,876,-0.0174874,-0.0132349
644,148,-0.0314941,0.108521,-0.000341934,-0.000314848,-0.000664366,0.000336112,-0.000992895,-0.795589,0.000797924,0.0333866,1868,876,-0.0315455,-0.108527
651,148,-0.0162354,0.0806885,-0.000486369,-0.000235754,-0.000322947,-1.46563e-05,-0.000707467,-0.970464,0.000466836,0.0322886,1875,876,-0.0162113,-0.0806737
658,148,-0.0224609,0.0637207,-0.000562692,-0.000158873,-0.000104808,-0.000133291,-0.000588273,-1.3314,0.000356165,0.0250117,1882,876,-0.0225043,-0.0637197
665,148,-0.0554199,0.0715942,-0.000574083,-6.77478e-05,-1.98003e-06,-6.774e-05,-0.00057409,-1.56689,0.000362264,0.0187949,1889,876,-0.0554018,-0.0716092
672,148,-0.0507813,0.0574341,-0.000623029,-5.11691e-06,4.96116e-05,-1.159e-06,-0.000626986,1.49119,0.000417605,0.0225945,1896,876,-0.0507645,-0.0574492
679,148,-0.0223389,0.0206909,-0.000649567,6.53472e-05,0.000116088,8.37251e-05,-0.000667945,1.41379,0.000475668,0.0271249,1903,876,-0.0223755,-0.0206762
686,148,0.00341797,0.0888672,-0.000588124,0.000102952,8.09214e-05,0.000112301,-0.000597473,1.45577,0.000440546,0.0206127,1910,876,0.00346506,-0.0888545
693,148,-0.022583,0.0999756,-0.000467699,0.000131001,5.44512e-05,0.000135913,-0.000472611,1.48083,0.000368823,0.0160234,1917,876,-0.0225456,-0.0999902
700,148,-0.0469971,0.0637817,-0.00038594,0.000125983,6.59887e-05,0.000134353,-0.000394309,1.44464,0.000317285,0.0111904,1924,876,-0.0470536,-0.0637857
707,148,-0.0428467,0.0706787,-0.000236784,8.94758e-05,0.000151409,0.000148913,-0.000296221,1.19672,0.000261647,0.0102391,1931,876,-0.0427935,-0.0707052
714,148,-0.0324707,0.0697632,5.45935e-05,0.000417551,0.000267582,0.000559391,-8.72457e-05,1.08338,0.000405152,0.0103208,1938,876,-0.0325206,-0.0697921
721,148,-0.0537109,0.0633545,0.000340985,0.00144213,0.000234438,0.00148996,0.00029315,1.36952,0.000911443,0.0156625,1945,876,-0.0536631,-0.0633706
728,148,-0.0540771,0.0665283,0.000626625,0.00281212,0.000501636,0.00292176,0.000516984,1.35562,0.00180042,0.0191522,1952,876,-0.0540946,-0.0665581
735,148,-0.0465088,0.0818481,0.000858844,0.00430203,0.000780333,0.00447063,0.000690251,1.35801,0.00277906,0.016466,1959,876,-0.0464526,-0.081843
742,148,-0.0554199,0.106812,0.00123719,0.00625756,0.00114542,0.00650655,0.000988206,1.35675,0.0040487,0.0176456,1966,876,-0.0553919,-0.106785
749,148,-0.043335,0.0997925,0.00173969,0.00875533,0.00165875,0.00912775,0.00136727,1.34994,0.00568449,0.015327,1973,876,-0.0433677,-0.0997898
756,148,-0.0303955,0.0594482,0.00230646,0.0122034,0.00224558,0.0126891,0.00182078,1.3578,0.00792254,0.020132,1980,876,-0.0303735,-0.0594377
763,148,0.050293,-0.125305,0.00299503,0.0164435,0.00308016,0.0171154,0.00232314,1.35602,0.0107201,0.0399442,1987,876,0.0503535,0.125297
770,148,0.0837402,-0.380859,0.00382873,0.0213853,0.00430915,0.0223859,0.00282811,1.34263,0.0140763,0.0421842,1994,876,0.0837199,0.380862
777,148,-0.0296631,-0.552612,0,0,0,0,0,0,0,-1,2001,876,-0.029649,0.552627
784,148,0.464844,-0.346558,0,0,0,0,0,0,0,-1,2008,876,0.464808,0.34657
791,148,0.776001,-0.29718,0,0,0,0,0,0,0,-1,2015,876,0.775976,0.297182
798,148,0,0,0,0,0,0,0,0,0,-1,2022,876,0,0
805,148,0,0,0,0,0,0,0,0,0,-1,2029,876,0,0
812,148,0,0,0,0,0,0,0,0,0,-1,2036,876,0,0
-700,141,0,0,0,0,0,0,0,0,0,-1,524,883,0,0
-693,141,0,0,0,0,0,0,0,0,0,-1,531,883,0,0
-686,141,0,0,0,0,0,0,0,0,0,-1,538,883,0,0
-679,141,0,0,0,0,0,0,0,0,0,-1,545,883,0,0
-672,141,-2.1582,-1.46344,0.0789302,0.0989865,0.0563307,0.146175,0.0317421,0.873487,0.0887812,0.0450187,552,883,-2.1582,1.46342
-665,141,-1.49829,-0.811523,0,0,0,0,0,0,0,-1,559,883,-1.49831,0.811523
-658,141,-0.853394,-0.291504,0.0363934,0.0575651,0.0326962,0.0813464,0.012612,0.941955,0.050554,0.0458974,566,883,-0.853392,0.291525
-651,141,-0.530151,-0.10437,0,0,0,0,0,0,0,-1,573,883,-0.530168,0.10438
-644,141,-0.350586,-0.321106,0,0,0,0,0,0,0,-1,580,883,-0.35061,0.321097
-637,141,-0.153992,-0.213379,0.00402408,0.0194084,0.0133307,0.0271071,-0.00367459,1.04708,0.0194125,0.0429776,587,883,-0.153965,0.213401
-630,141,-0.0655518,-0.0305176,-0.000540769,0.0122053,0.00995615,0.0176535,-0.00598892,1.07009,0.0141929,0.0378047,594,883,-0.0655797,0.0305017
-623,141,-0.0177002,0.0302734,-0.00373104,0.00650512,0.00654228,0.00969343,-0.00691936,1.11733,0.00963587,0.0194786,601,883,-0.0177285,-0.0302824
-616,141,-0.0199585,0.0699463,-0.00522667,0.00252728,0.00372899,0.00402955,-0.00672895,1.18782,0.00627626,0.0107429,608,883,-0.0199889,-0.0699723
-609,141,-0.020874,0.0720215,-0.00488304,0.000763453,0.00250787,0.00171647,-0.00583605,1.20764,0.00457156,0.0113246,615,883,-0.0208516,-0.0720519
-602,141,-0.0217285,0.0588379,-0.0036324,2.72762e-05,0.00223046,0.00108244,-0.00468756,1.12892,0.00354144,0.0110323,622,883,-0.0217133,-0.0588342
-595,141,-0.0164185,0.0592041,-0.00251866,-0.000135102,0.00162797,0.000690696,-0.00334446,1.10136,0.00249199,0.00991743,629,883,-0.0163964,-0.0592322
-588,141,-0.0090332,0.0732422,-0.00171835,-0.00014587,0.000989613,0.000331815,-0.00219604,1.12109,0.00158624,0.0128986,636,883,-0.00905944,-0.0732366
-581,141,-0.0211792,0.0615234,-0.00124465,-0.000167036,0.00054311,5.91946e-05,-0.00147088,1.17611,0.0010009,0.0165678,643,883,-0.0211605,-0.0615328
-574,141,-0.0290527,0.0922241,-0.000389291,-0.000114115,-8.15287e-05,-9.17739e-05,-0.000411632,-1.30333,0.000249521,0.0194338,650,883,-0.0290682,-0.092243
-567,141,-0.0174561,0.111572,1.55158e-05,-0.00012536,-0.000379087,0.000330654,-0.000440498,-0.693541,0.000446727,0.0239628,657,883,-0.0174423,-0.111587
-560,141,0.00872803,0.0668335,7.24352e-05,1.3906e-05,-0.0004981,0.00054213,-0.000455789,-0.756056,0.000576867,0.0294048,664,883,0.00872196,-0.0668051
-553,141,0.00549316,0.0773926,0.000130267,4.66639e-05,-0.000619255,0.00070913,-0.000532199,-0.751698,0.000719104,0.0369193,671,883,0.00548268,-0.0773913
-546,141,-0.0125732,0.108032,0.000372763,0.000178706,-0.000754523,0.00103647,-0.000485002,-0.721451,0.000897451,0.0339643,678,883,-0.0125854,-0.10806
-539,141,-0.0202026,0.0734253,0.000726702,0.000365532,-0.000952519,0.0015156,-0.000423369,-0.691717,0.00117718,0.0291328,685,883,-0.0201748,-0.0734272
-532,141,-0.0551147,0.0688477,0.00125025,0.000646318,-0.00113833,0.00212599,-0.00022942,-0.655748,0.00149966,0.0276382,692,883,-0.0550894,-0.0688393
-525,141,0.012085,0.191284,0.00192784,0.00106012,-0.00135421,0.00291599,7.19655e-05,-0.630374,0.00192046,0.0345859,699,883,0.0121149,-0.191273
-518,141,-0.00793457,0.282715,0.00276225,0.00165498,-0.00162048,0.00392106,0.000496173,-0.620789,0.00246535,0.0400977,706,883,-0.00793873,-0.282727
-511,141,-0.0339966,0.304443,0.00381633,0.00248413,-0.00198457,0.0052436,0.00105686,-0.623486,0.00320212,0.0371662,713,883,-0.0340192,-0.304446
-504,141,-0.0268555,0.27887,0.00495441,0.00362521,-0.00257342,0.00694767,0.00163196,-0.659031,0.00419497,0.0383723,720,883,-0.0268571,-0.278884
-497,141,0,0,0,0,0,0,0,0,0,-1,727,883,0,0
-490,141,0,0,0,0,0,0,0,0,0,-1,734,883,0,0
-483,141,0,0,0,0,0,0,0,0,0,-1,741,883,0,0
-476,141,0,0,0,0,0,0,0,0,0,-1,748,883,0,0
-469,141,0,0,0,0,0,0,0,0,0,-1,755,883,0,0
-462,141,0,0,0,0,0,0,0,0,0,-1,762,883,0,0
-455,141,0,0,0,0,0,0,0,0,0,-1,769,883,0,0
-448,141,0,0,0,0,0,0,0,0,0,-1,776,883,0,0
-441,141,0,0,0,0,0,0,0,0,0,-1,783,883,0,0
-434,141,0,0,0,0,0,0,0,0,0,-1,790,883,0,0
-427,141,0,0,0,0,0,0,0,0,0,-1,797,883,0,0
-420,141,0,0,0,0,0,0,0,0,0,-1,804,883,0,0
-413,141,0,0,0,0,0,0,0,0,0,-1,811,883,0,0
-406,141,0,0,0,0,0,0,0,0,0,-1,818,883,0,0
-399,141,0,0,0,0,0,0,0,0,0,-1,825,883,0,0
-392,141,0,0,0,0,0,0,0,0,0,-1,832,883,0,0
-385,141,0,0,0,0,0,0,0,0,0,-1,839,883,0,0
-378,141,0,0,0,0,0,0,0,0,0,-1,846,883,0,0
-371,141,0,0,0,0,0,0,0,0,0,-1,853,883,0,0
-364,141,0,0,0,0,0,0,0,0,0,-1,860,883,0,0
-357,141,0,0,0,0,0,0,0,0,0,-1,867,883,0,0
-350,141,0,0,0,0,0,0,0,0,0,-1,874,883,0,0
-343,141,0,0,0,0,0,0,0,0,0,-1,881,883,0,0
-336,141,0,0,0,0,0,0,0,0,0,-1,888,883,0,0
-329,141,0,0,0,0,0,0,0,0,0,-1,895,883,0,0
-322,141,0,0,0,0,0,0,0,0,0,-1,902,883,0,0
-315,141,0,0,0,0,0,0,0,0,0,-1,909,883,0,0
-308,141,0,0,0,0,0,0,0,0,0,-1,916,883,0,0
-301,141,0,0,0,0,0,0,0,0,0,-1,923,883,0,0
-294,141,0,0,0,0,0,0,0,0,0,-1,930,883,0,0
-287,141,0,0,0,0,0,0,0,0,0,-1,937,883,0,0
-280,141,0,0,0,0,0,0,0,0,0,-1,944,883,0,0
-273,141,0,0,0,0,0,0,0,0,0,-1,951,883,0,0
-266,141,0,0,0,0,0,0,0,0,0,-1,958,883,0,0
-259,141,0,0,0,0,0,0,0,0,0,-1,965,883,0,0
-252,141,0,0,0,0,0,0,0,0,0,-1,972,883,0,0
-245,141,0,0,0,0,0,0,0,0,0,-1,979,883,0,0
-238,141,0,0,0,0,0,0,0,0,0,-1,986,883,0,0
-231,141,0,0,0,0,0,0,0,0,0,-1,993,883,0,0
-224,141,0,0,0,0,0,0,0,0,0,-1,1000,883,0,0
-217,141,0,0,0,0,0,0,0,0,0,-1,1007,883,0,0
-210,141,0,0,0,0,0,0,0,0,0,-1,1014,883,0,0
-203,141,0,0,0,0,0,0,0,0,0,-1,1021,883,0,0
-196,141,0,0,0,0,0,0,0,0,0,-1,1028,883,0,0
-189,141,0,0,0,0,0,0,0,0,0,-1,1035,883,0,0
-182,141,0,0,0,0,0,0,0,0,0,-1,1042,883,0,0
-175,141,0,0,0,0,0,0,0,0,0,-1,1049,883,0,0
-168,141,0,0,0,0,0,0,0,0,0,-1,1056,883,0,0
-161,141,0,0,0,0,0,0,0,0,0,-1,1063,883,0,0
-154,141,0,0,0,0,0,0,0,0,0,-1,1070,883,0,0
-147,141,0,0,0,0,0,0,0,0,0,-1,1077,883,0,0
-140,141,0,0,0,0,0,0,0,0,0,-1,1084,883,0,0
-133,141,0,0,0,0,0,0,0,0,0,-1,1091,883,0,0
-126,141,0,0,0,0,0,0,0,0,0,-1,1098,883,0,0
-119,141,0,0,0,0,0,0,0,0,0,-1,1105,883,0,0
-112,141,0,0,0,0,0,0,0,0,0,-1,1112,883,0,0
-105,141,0,0,0,0,0,0,0,0,0,-1,1119,883,0,0
-98,141,0,0,0,0,0,0,0,0,0,-1,1126,883,0,0
-91,141,0,0,0,0,0,0,0,0,0,-1,1133,883,0,0
-84,141,0,0,0,0,0,0,0,0,0,-1,1140,883,0,0
-77,141,0,0,0,0,0,0,0,0,0,-1,1147,883,0,0
-70,141,0,0,0,0,0,0,0,0,0,-1,1154,883,0,0
-63,141,0,0,0,0,0,0,0,0,0,-1,1161,883,0,0
-56,141,0,0,0,0,0,0,0,0,0,-1,1168,883,0,0
-49,141,0,0,0,0,0,0,0,0,0,-1,1175,883,0,0
-42,141,0,0,0,0,0,0,0,0,0,-1,1182,883,0,0
-35,141,0,0,0,0,0,0,0,0,0,-1,1189,883,0,0
-28,141,0,0,0,0,0,0,0,0,0,-1,1196,883,0,0
-21,141,0,0,0,0,0,0,0,0,0,-1,1203,883,0,0
-14,141,0,0,0,0,0,0,0,0,0,-1,1210,883,0,0
-7,141,0,0,0,0,0,0,0,0,0,-1,1217,883,0,0
0,141,0,0,0,0,0,0,0,0,0,-1,1224,883,0,0
7,141,0,0,0,0,0,0,0,0,0,-1,1231,883,0,0
14,141,0,0,0,0,0,0,0,0,0,-1,1238,883,0,0
21,141,0,0,0,0,0,0,0,0,0,-1,1245,883,0,0
28,141,0,0,0,0,0,0,0,0,0,-1,1252,883,0,0
35,141,0,0,0,0,0,0,0,0,0,-1,1259,883,0,0
42,141,0,0,0,0,0,0,0,0,0,-1,1266,883,0,0
49,141,0,0,0,0,0,0,0,0,0,-1,1273,883,0,0
56,141,0,0,0,0,0,0,0,0,0,-1,1280,883,0,0
63,141,0,0,0,0,0,0,0,0,0,-1,1287,883,0,0
70,141,0,0,0,0,0,0,0,0,0,-1,1294,883,0,0
77,141,0,0,0,0,0,0,0,0,0,-1,1301,883,0,0
84,141,0,0,0,0,0,0,0,0,0,-1,1308,883,0,0
91,141,0,0,0,0,0,0,0,0,0,-1,1315,883,0,0
98,141,0,0,0,0,0,0,0,0,0,-1,1322,883,0,0
105,141,0,0,0,0,0,0,0,0,0,-1,1329,883,0,0
112,141,0,0,0,0,0,0,0,0,0,-1,1336,883,0,0
119,141,0,0,0,0,0,0,0,0,0,-1,1343,883,0,0
126,141,0,0,0,0,0,0,0,0,0,-1,1350,883,0,0
133,141,0,0,0,0,0,0,0,0,0,-1,1357,883,0,0
140,141,0,0,0,0,0,0,0,0,0,-1,1364,883,0,0
147,141,0,0,0,0,0,0,0,0,0,-1,1371,883,0,0
154,141,0,0,0,0,0,0,0,0,0,-1,1378,883,0,0
161,141,0,0,0,0,0,0,0,0,0,-1,1385,883,0,0
168,141,0,0,0,0,0,0,0,0,0,-1,1392,883,0,0
175,141,0,0,0,0,0,0,0,0,0,-1,1399,883,0,0
182,141,0,0,0,0,0,0,0,0,0,-1,1406,883,0,0
189,141,0,0,0,0,0,0,0,0,0,-1,1413,883,0,0
196,141,0,0,0,0,0,0,0,0,0,-1,1420,883,0,0
203,141,0,0,0,0,0,0,0,0,0,-1,1427,883,0,0
210,141,0,0,0,0,0,0,0,0,0,-1,1434,883,0,0
217,141,0,0,0,0,0,0,0,0,0,-1,1441,883,0,0
224,141,0,0,0,0,0,0,0,0,0,-1,1448,883,0,0
231,141,0,0,0,0,0,0,0,0,0,-1,1455,883,0,0
238,141,0,0,0,0,0,0,0,0,0,-1,1462,883,0,0
245,141,0,0,0,0,0,0,0,0,0,-1,1469,883,0,0
252,141,0,0,0,0,0,0,0,0,0,-1,1476,883,0,0
259,141,0,0,0,0,0,0,0,0,0,-1,1483,883,0,0
266,141,0,0,0,0,0,0,0,0,0,-1,1490,883,0,0
273,141,0,0,0,0,0,0,0,0,0,-1,1497,883,0,0
280,141,0,0,0,0,0,0,0,0,0,-1,1504,883,0,0
287,141,0,0,0,0,0,0,0,0,0,-1,1511,883,0,0
294,141,0,0,0,0,0,0,0,0,0,-1,1518,883,0,0
301,141,0,0,0,0,0,0,0,0,0,-1,1525,883,0,0
308,141,0,0,0,0,0,0,0,0,0,-1,1532,883,0,0
315,141,0,0,0,0,0,0,0,0,0,-1,1539,883,0,0
322,141,0,0,0,0,0,0,0,0,0,-1,1546,883,0,0
329,141,0,0,0,0,0,0,0,0,0,-1,1553,883,0,0
336,141,0,0,0,0,0,0,0,0,0,-1,1560,883,0,0
343,141,0,0,0,0,0,0,0,0,0,-1,1567,883,0,0
350,141,0,0,0,0,0,0,0,0,0,-1,1574,883,0,0
357,141,0,0,0,0,0,0,0,0,0,-1,1581,883,0,0
364,141,0,0,0,0,0,0,0,0,0,-1,1588,883,0,0
371,141,0,0,0,0,0,0,0,0,0,-1,1595,883,0,0
378,141,0,0,0,0,0,0,0,0,0,-1,1602,883,0,0
385,141,0,0,0,0,0,0,0,0,0,-1,1609,883,0,0
392,141,0,0,0,0,0,0,0,0,0,-1,1616,883,0,0
399,141,0,0,0,0,0,0,0,0,0,-1,1623,883,0,0
406,141,0,0,0,0,0,0,0,0,0,-1,1630,883,0,0
413,141,0,0,0,0,0,0,0,0,0,-1,1637,883,0,0
420,141,0,0,0,0,0,0,0,0,0,-1,1644,883,0,0
427,141,0,0,0,0,0,0,0,0,0,-1,1651,883,0,0
434,141,0,0,0,0,0,0,0,0,0,-1,1658,883,0,0
441,141,0,0,0,0,0,0,0,0,0,-1,1665,883,0,0
448,141,0,0,0,0,0,0,0,0,0,-1,1672,883,0,0
455,141,0,0,0,0,0,0,0,0,0,-1,1679,883,0,0
462,141,0,0,0,0,0,0,0,0,0,-1,1686,883,0,0
469,141,0,0,0,0,0,0,0,0,0,-1,1693,883,0,0
476,141,0,0,0,0,0,0,0,0,0,-1,1700,883,0,0
483,141,0,0,0,0,0,0,0,0,0,-1,1707,883,0,0
490,141,0,0,0,0,0,0,0,0,0,-1,1714,883,0,0
497,141,0,0,0,0,0,0,0,0,0,-1,1721,883,0,0
504,141,0,0,0,0,0,0,0,0,0,-1,1728,883,0,0
511,141,0,0,0,0,0,0,0,0,0,-1,1735,883,0,0
518,141,0,0,0,0,0,0,0,0,0,-1,1742,883,0,0
525,141,0,0,0,0,0,0,0,0,0,-1,1749,883,0,0
532,141,0,0,0,0,0,0,0,0,0,-1,1756,883,0,0
539,141,0,0,0,0,0,0,0,0,0,-1,1763,883,0,0
546,141,0,0,0,0,0,0,0,0,0,-1,1770,883,0,0
553,141,0,0,0,0,0,0,0,0,0,-1,1777,883,0,0
560,141,0,0,0,0,0,0,0,0,0,-1,1784,883,0,0
567,141,0,0,0,0,0,0,0,0,0,-1,1791,883,0,0
574,141,0,0,0,0,0,0,0,0,0,-1,1798,883,0,0
581,141,0,0,0,0,0,0,0,0,0,-1,1805,883,0,0
588,141,0,0,0,0,0,0,0,0,0,-1,1812,883,0,0
595,141,0,0,0,0,0,0,0,0,0,-1,1819,883,0,0
602,141,0,0,0,0,0,0,0,0,0,-1,1826,883,0,0
609,141,0,0,0,0,0,0,0,0,0,-1,1833,883,0,0
616,141,0,0,0,0,0,0,0,0,0,-1,1840,883,0,0
623,141,-0.0527344,0.0908203,0.00068865,-0.000347027,-0.00307758,0.00329166,-0.00295004,-0.702048,0.00360544,0.0385362,1847,883,-0.0527309,-0.090835
630,141,-0.0366211,0.00933838,0.000318846,-0.000454771,-0.00195457,0.00192451,-0.00206044,-0.687711,0.00230116,0.0394606,1854,883,-0.0366158,-0.00936716
637,141,-0.00610352,-0.0435181,7.12068e-05,-0.000428902,-0.0012215,0.00106798,-0.00142568,-0.684437,0.00144464,0.0380746,1861,883,-0.00606593,0.0435206
644,141,-0.0479736,-0.0322876,-0.000121818,-0.000351611,-0.000729947,0.00050222,-0.000975649,-0.707337,0.000867719,0.0370764,1868,883,-0.0479244,0.0322889
651,141,-0.0491943,0.0924072,-0.000309791,-0.000253974,-0.000395161,0.000114262,-0.000678027,-0.820653,0.000494526,0.0360677,1875,883,-0.0492375,-0.0923915
658,141,-0.0430908,0.128784,-0.000426115,-0.000161222,-0.000179962,-7.0222e-05,-0.000517115,-1.10263,0.000323884,0.0297989,1882,883,-0.0430357,-0.128773
665,141,-0.0489502,0.0922852,-0.000472324,-6.36413e-05,-6.73776e-05,-5.28197e-05,-0.000483145,-1.41154,0.000306014,0.0204017,1889,883,-0.0489067,-0.0923131
672,141,-0.0549316,0.0838623,-0.00053231,-3.96711e-07,-2.21515e-06,-3.87459e-07,-0.000532319,-1.56663,0.00035475,0.0141269,1896,883,-0.0549412,-0.0838653
679,141,-0.0489502,0.0493164,-0.000556947,6.49662e-05,8.17366e-05,7.55292e-05,-0.00056751,1.44228,0.000405866,0.0129979,1903,883,-0.0489629,-0.0493362
686,141,-0.00390625,0.0332031,-0.000505372,9.11825e-05,5.7401e-05,9.66555e-05,-0.000510845,1.47574,0.000376935,0.0255488,1910,883,-0.00387342,-0.0332313
693,141,-0.0385742,0.0770264,-0.000422322,0.000120663,4.02707e-05,0.000123633,-0.000425293,1.49717,0.000332492,0.0228875,1917,883,-0.0385667,-0.0770316
700,141,-0.0506592,0.0772705,-0.000385089,0.00013155,7.47032e-05,0.000142135,-0.000395673,1.43004,0.000321799,0.0117658,1924,883,-0.0506913,-0.0772624
707,141,-0.052002,0.0615845,-0.000270888,0.000140354,0.000157461,0.00019372,-0.000324253,1.24403,0.000302201,0.0105059,1931,883,-0.0519712,-0.0616023
714,141,-0.0482178,0.0553589,-8.37632e-06,0.000432513,0.000237544,0.000536141,-0.000112004,1.15944,0.000400024,0.0110152,1938,883,-0.0482745,-0.0553411
721,141,-0.0373535,0.0684204,0.000217852,0.0012934,0.000206216,0.00133159,0.00017967,1.38771,0.000834308,0.011469,1945,883,-0.0373837,-0.0684022
728,141,-0.0638428,0.0683594,0.000442003,0.00244294,0.000450703,0.00253977,0.00034517,1.35916,0.00159066,0.0131805,1952,883,-0.0638863,-0.0683793
735,141,-0.0863037,0.0541382,0.000639852,0.0036218,0.000720509,0.00378677,0.000474887,1.34572,0.00238205,0.012021,1959,883,-0.0862955,-0.0541431
742,141,-0.0806885,0.0895996,0.000988257,0.00505035,0.00114151,0.00534915,0.000689453,1.31478,0.00335995,0.0136364,1966,883,-0.0806973,-0.089585
749,141,-0.0605469,0.0980225,0.00145752,0.00663256,0.0018278,0.00721302,0.000877063,1.2633,0.00454463,0.0130162,1973,883,-0.0605328,-0.0980445
756,141,-0.0489502,0.0874634,0.00201139,0.00888634,0.00262397,0.00977338,0.00112435,1.2448,0.00617502,0.0190191,1980,883,-0.0489492,-0.087462
763,141,-0.0375977,0.0499878,0.00271541,0.0114157,0.00381383,0.0128508,0.00128031,1.2109,0.00817391,0.0408022,1987,883,-0.0375598,-0.049968
770,141,-0.22583,-0.495483,0.00361049,0.0139885,0.00559875,0.0164331,0.0011659,1.15912,0.0105882,0.0421102,1994,883,-0.225829,0.495458
777,141,-0.357178,-0.565674,0.00471606,0.0162302,0.0082554,0.0205377,0.000408568,1.08988,0.0135577,0.0433944,2001,883,-0.357165,0.565644
784,141,-0.189087,-0.361023,0,0,0,0,0,0,0,-1,2008,883,-0.189041,0.361026
791,141,-0.0894775,-0.0747681,0,0,0,0,0,0,0,-1,2015,883,-0.0895222,0.0747611
798,141,0,0,0,0,0,0,0,0,0,-1,2022,883,0,0
805,141,0,0,0,0,0,0,0,0,0,-1,2029,883,0,0
812,141,0,0,0,0,0,0,0,0,0,-1,2036,883,0,0
-700,134,0,0,0,0,0,0,0,0,0,-1,524,890,0,0
-693,134,0,0,0,0,0,0,0,0,0,-1,531,890,0,0
-686,134,0,0,0,0,0,0,0,0,0,-1,538,890,0,0
-679,134,0,0,0,0,0,0,0,0,0,-1,545,890,0,0
-672,134,-2.69293,-2.45007,0,0,0,0,0,0,0,-1,552,890,-2.69293,2.45007
-665,134,-1.54718,-1.22076,0,0,0,0,0,0,0,-1,559,890,-1.54718,1.22079
-658,134,-1.00012,-0.867859,0,0,0,0,0,0,0,-1,566,890,-1.00014,0.867852
-651,134,0.512878,0.14917,0,0,0,0,0,0,0,-1,573,890,0.512863,-0.149159
-644,134,-0.255066,-0.801636,0,0,0,0,0,0,0,-1,580,890,-0.255056,0.801607
-637,134,-0.209412,-0.44342,0.00785412,0.0174148,0.0160684,0.0293989,-0.00413,0.929978,0.021111,0.0444786,587,890,-0.209433,0.443397
-630,134,-0.0768433,-0.130188,0.00225335,0.0105195,0.0122106,0.0192775,-0.00650467,0.948587,0.0154823,0.0343799,594,890,-0.0768539,0.130184
-623,134,-0.0252075,0.0426636,-0.00176577,0.00510724,0.00823613,0.0105951,-0.00725358,0.983041,0.0103649,0.0184986,601,890,-0.0252148,-0.0426557
-616,134,-0.039917,0.0731812,-0.00383398,0.00144952,0.00486106,0.00434029,-0.00672475,1.0343,0.00643766,0.0104821,608,890,-0.0399351,-0.0731605
-609,134,-0.0517578,0.0805664,-0.00395913,-1.29121e-05,0.00312529,0.00171,-0.00568205,1.06697,0.00446847,0.00999629,615,890,-0.0517656,-0.0805523
-602,134,-0.0401001,0.0652466,-0.00306331,-0.000474642,0.00257318,0.0011114,-0.00464935,1.01842,0.00352886,0.0111329,622,890,-0.0401039,-0.065245
-595,134,-0.0255737,0.0725708,-0.00216937,-0.00043442,0.00177237,0.000671384,-0.00327517,1.01298,0.00243825,0.0108958,629,890,-0.0255975,-0.0725931
-588,134,-0.00811768,0.0878906,-0.00145014,-0.000311426,0.00105396,0.000317131,-0.0020787,1.03305,0.0015027,0.0165768,636,890,-0.00813471,-0.087893
-581,134,-0.0167236,0.0655518,-0.00102627,-0.000255669,0.000572505,4.91161e-05,-0.00133106,1.08159,0.000904188,0.0204526,643,890,-0.0167358,-0.0655493
-574,134,-0.0423584,0.0720215,-0.000308737,-0.000146942,-2.69932e-05,-0.000142557,-0.000313121,-1.40977,0.000181022,0.0198345,650,890,-0.0423362,-0.0720478
-567,134,-0.0245972,0.125732,7.54368e-05,-0.000127108,-0.000314918,0.000304965,-0.000356636,-0.629829,0.000382364,0.0188302,657,890,-0.0245824,-0.125755
-560,134,-0.022583,0.0825806,0.000225394,6.50339e-05,-0.000467004,0.000619051,-0.000328623,-0.700382,0.000555638,0.0317486,664,890,-0.0225579,-0.0826034
-553,134,0.012146,0.0997925,0.000349002,0.000144302,-0.000621045,0.000876075,-0.000382771,-0.703731,0.000745164,0.0428909,671,890,0.0121498,-0.0998223
-546,134,-0.0554199,0.0641479,0.000625707,0.000340736,-0.0008073,0.001303,-0.000336556,-0.69805,0.000999913,0.0271438,678,890,-0.0554079,-0.0641259
-539,134,-0.0574951,0.0596924,0.00102081,0.000621267,-0.00107155,0.00191105,-0.000268979,-0.693241,0.00137251,0.0194445,685,890,-0.0575082,-0.0596679
-532,134,-0.0442505,0.0753784,0.00159383,0.00104198,-0.00136776,0.00271322,-7.74087e-05,-0.685867,0.00183516,0.0230172,692,890,-0.0442785,-0.0753991
-525,134,-0.0222168,0.1073,0.00232767,0.0016454,-0.00173186,0.00375167,0.0002214,-0.688154,0.00243068,0.0325868,699,890,-0.0222017,-0.10728
-518,134,0.0309448,0.157898,0.00325332,0.00248612,-0.00217788,0.00508112,0.000658313,-0.698225,0.0031907,0.0382393,706,890,0.0309226,-0.157919
-511,134,0.0563354,0.208374,0.00447309,0.00363078,-0.00274714,0.00683117,0.0012727,-0.709336,0.00419474,0.0389203,713,890,0.0563127,-0.208354
-504,134,0,0,0,0,0,0,0,0,0,-1,720,890,0,0
-497,134,0,0,0,0,0,0,0,0,0,-1,727,890,0,0
-490,134,0,0,0,0,0,0,0,0,0,-1,734,890,0,0
-483,134,0,0,0,0,0,0,0,0,0,-1,741,890,0,0
-476,134,0,0,0,0,0,0,0,0,0,-1,748,890,0,0
-469,134,0,0,0,0,0,0,0,0,0,-1,755,890,0,0
-462,134,0,0,0,0,0,0,0,0,0,-1,762,890,0,0
-455,134,0,0,0,0,0,0,0,0,0,-1,769,890,0,0
-448,134,0,0,0,0,0,0,0,0,0,-1,776,890,0,0
-441,134,0,0,0,0,0,0,0,0,0,-1,783,890,0,0
-434,134,0,0,0,0,0,0,0,0,0,-1,790,890,0,0
-427,134,0,0,0,0,0,0,0,0,0,-1,797,890,0,0
-420,134,0,0,0,0,0,0,0,0,0,-1,804,890,0,0
-413,134,0,0,0,0,0,0,0,0,0,-1,811,890,0,0
-406,134,0,0,0,0,0,0,0,0,0,-1,818,890,0,0
-399,134,0,0,0,0,0,0,0,0,0,-1,825,890,0,0
-392,134,0,0,0,0,0,0,0,0,0,-1,832,890,0,0
-385,134,0,0,0,0,0,0,0,0,0,-1,839,890,0,0
-378,134,0,0,0,0,0,0,0,0,0,-1,846,890,0,0
-371,134,0,0,0,0,0,0,0,0,0,-1,853,890,0,0
-364,134,0,0,0,0,0,0,0,0,0,-1,860,890,0,0
-357,134,0,0,0,0,0,0,0,0,0,-1,867,890,0,0
-350,134,0,0,0,0,0,0,0,0,0,-1,874,890,0,0
-343,134,0,0,0,0,0,0,0,0,0,-1,881,890,0,0
-336,134,0,0,0,0,0,0,0,0,0,-1,888,890,0,0
-329,134,0,0,0,0,0,0,0,0,0,-1,895,890,0,0
-322,134,0,0,0,0,0,0,0,0,0,-1,902,890,0,0
-315,134,0,0,0,0,0,0,0,0,0,-1,909,890,0,0
-308,134,0,0,0,0,0,0,0,0,0,-1,916,890,0,0
-301,134,0,0,0,0,0,0,0,0,0,-1,923,890,0,0
-294,134,0,0,0,0,0,0,0,0,0,-1,930,890,0,0
-287,134,0,0,0,0,0,0,0,0,0,-1,937,890,0,0
-280,134,0,0,0,0,0,0,0,0,0,-1,944,890,0,0
-273,134,0,0,0,0,0,0,0,0,0,-1,951,890,0,0
-266,134,0,0,0,0,0,0,0,0,0,-1,958,890,0,0
-259,134,0,0,0,0,0,0,0,0,0,-1,965,890,0,0
-252,134,0,0,0,0,0,0,0,0,0,-1,972,890,0,0
-245,134,0,0,0,0,0,0,0,0,0,-1,979,890,0,0
-238,134,0,0,0,0,0,0,0,0,0,-1,986,890,0,0
-231,134,0,0,0,0,0,0,0,0,0,-1,993,890,0,0
-224,134,0,0,0,0,0,0,0,0,0,-1,1000,890,0,0
-217,134,0,0,0,0,0,0,0,0,0,-1,1007,890,0,0
-210,134,0,0,0,0,0,0,0,0,0,-1,1014,890,0,0
-203,134,0,0,0,0,0,0,0,0,0,-1,1021,890,0,0
-196,134,0,0,0,0,0,0,0,0,0,-1,1028,890,0,0
-189,134,0,0,0,0,0,0,0,0,0,-1,1035,890,0,0
-182,134,0,0,0,0,0,0,0,0,0,-1,1042,890,0,0
-175,134,0,0,0,0,0,0,0,0,0,-1,1049,890,0,0
-168,134,0,0,0,0,0,0,0,0,0,-1,1056,890,0,0
-161,134,0,0,0,0,0,0,0,0,0,-1,1063,890,0,0
-154,134,0,0,0,0,0,0,0,0,0,-1,1070,890,0,0
-147,134,0,0,0,0,0,0,0,0,0,-1,1077,890,0,0
-140,134,0,0,0,0,0,0,0,0,0,-1,1084,890,0,0
-133,134,0,0,0,0,0,0,0,0,0,-1,1091,890,0,0
-126,134,0,0,0,0,0,0,0,0,0,-1,1098,890,0,0
-119,134,0,0,0,0,0,0,0,0,0,-1,1105,890,0,0
-112,134,0,0,0,0,0,0,0,0,0,-1,1112,890,0,0
-105,134,0,0,0,0,0,0,0,0,0,-1,1119,890,0,0
-98,134,0,0,0,0,0,0,0,0,0,-1,1126,890,0,0
-91,134,0,0,0,0,0,0,0,0,0,-1,1133,890,0,0
-84,134,0,0,0,0,0,0,0,0,0,-1,1140,890,0,0
-77,134,0,0,0,0,0,0,0,0,0,-1,1147,890,0,0
-70,134,0,0,0,0,0,0,0,0,0,-1,1154,890,0,0
-63,134,0,0,0,0,0,0,0,0,0,-1,1161,890,0,0
-56,134,0,0,0,0,0,0,0,0,0,-1,1168,890,0,0
-49,134,0,0,0,0,0,0,0,0,0,-1,1175,890,0,0
-42,134,0,0,0,0,0,0,0,0,0,-1,1182,890,0,0
-35,134,0,0,0,0,0,0,0,0,0,-1,1189,890,0,0
-28,134,0,0,0,0,0,0,0,0,0,-1,1196,890,0,0
-21,134,0,0,0,0,0,0,0,0,0,-1,1203,890,0,0
-14,134,0,0,0,0,0,0,0,0,0,-1,1210,890,0,0
-7,134,0,0,0,0,0,0,0,0,0,-1,1217,890,0,0
0,134,0,0,0,0,0,0,0,0,0,-1,1224,890,0,0
7,134,0,0,0,0,0,0,0,0,0,-1,1231,890,0,0
14,134,0,0,0,0,0,0,0,0,0,-1,1238,890,0,0
21,134,0,0,0,0,0,0,0,0,0,-1,1245,890,0,0
28,134,0,0,0,0,0,0,0,0,0,-1,1252,890,0,0
35,134,0,0,0,0,0,0,0,0,0,-1,1259,890,0,0
42,134,0,0,0,0,0,0,0,0,0,-1,1266,890,0,0
49,134,0,0,0,0,0,0,0,0,0,-1,1273,890,0,0
56,134,0,0,0,0,0,0,0,0,0,-1,1280,890,0,0
63,134,0,0,0,0,0,0,0,0,0,-1,1287,890,0,0
70,134,0,0,0,0,0,0,0,0,0,-1,1294,890,0,0
77,134,0,0,0,0,0,0,0,0,0,-1,1301,890,0,0
84,134,0,0,0,0,0,0,0,0,0,-1,1308,890,0,0
91,134,0,0,0,0,0,0,0,0,0,-1,1315,890,0,0
98,134,0,0,0,0,0,0,0,0,0,-1,1322,890,0,0
105,134,0,0,0,0,0,0,0,0,0,-1,1329,890,0,0
112,134,0,0,0,0,0,0,0,0,0,-1,1336,890,0,0
119,134,0,0,0,0,0,0,0,0,0,-1,1343,890,0,0
126,134,0,0,0,0,0,0,0,0,0,-1,1350,890,0,0
133,134,0,0,0,0,0,0,0,0,0,-1,1357,890,0,0
140,134,0,0,0,0,0,0,0,0,0,-1,1364,890,0,0
147,134,0,0,0,0,0,0,0,0,0,-1,1371,890,0,0
154,134,0,0,0,0,0,0,0,0,0,-1,1378,890,0,0
161,134,0,0,0,0,0,0,0,0,0,-1,1385,890,0,0
168,134,0,0,0,0,0,0,0,0,0,-1,1392,890,0,0
175,134,0,0,0,0,0,0,0,0,0,-1,1399,890,0,0
182,134,0,0,0,0,0,0,0,0,0,-1,1406,890,0,0
189,134,0,0,0,0,0,0,0,0,0,-1,1413,890,0,0
196,134,0,0,0,0,0,0,0,0,0,-1,1420,890,0,0
203,134,0,0,0,0,0,0,0,0,0,-1,1427,890,0,0
210,134,0,0,0,0,0,0,0,0,0,-1,1434,890,0,0
217,134,0,0,0,0,0,0,0,0,0,-1,1441,890,0,0
224,134,0,0,0,0,0,0,0,0,0,-1,1448,890,0,0
231,134,0,0,0,0,0,0,0,0,0,-1,1455,890,0,0
238,134,0,0,0,0,0,0,0,0,0,-1,1462,890,0,0
245,134,0,0,0,0,0,0,0,0,0,-1,1469,890,0,0
252,134,0,0,0,0,0,0,0,0,0,-1,1476,890,0,0
259,134,0,0,0,0,0,0,0,0,0,-1,1483,890,0,0
266,134,0,0,0,0,0,0,0,0,0,-1,1490,890,0,0
273,134,0,0,0,0,0,0,0,0,0,-1,1497,890,0,0
280,134,0,0,0,0,0,0,0,0,0,-1,1504,890,0,0
287,134,0,0,0,0,0,0,0,0,0,-1,1511,890,0,0
294,134,0,0,0,0,0,0,0,0,0,-1,1518,890,0,0
301,134,0,0,0,0,0,0,0,0,0,-1,1525,890,0,0
308,134,0,0,0,0,0,0,0,0,0,-1,1532,890,0,0
315,134,0,0,0,0,0,0,0,0,0,-1,1539,890,0,0
322,134,0,0,0,0,0,0,0,0,0,-1,1546,890,0,0
329,134,0,0,0,0,0,0,0,0,0,-1,1553,890,0,0
336,134,0,0,0,0,0,0,0,0,0,-1,1560,890,0,0
343,134,0,0,0,0,0,0,0,0,0,-1,1567,890,0,0
350,134,0,0,0,0,0,0,0,0,0,-1,1574,890,0,0
357,134,0,0,0,0,0,0,0,0,0,-1,1581,890,0,0
364,134,0,0,0,0,0,0,0,0,0,-1,1588,890,0,0
371,134,0,0,0,0,0,0,0,0,0,-1,1595,890,0,0
378,134,0,0,0,0,0,0,0,0,0,-1,1602,890,0,0
385,134,0,0,0,0,0,0,0,0,0,-1,1609,890,0,0
392,134,0,0,0,0,0,0,0,0,0,-1,1616,890,0,0
399,134,0,0,0,0,0,0,0,0,0,-1,1623,890,0,0
406,134,0,0,0,0,0,0,0,0,0,-1,1630,890,0,0
413,134,0,0,0,0,0,0,0,0,0,-1,1637,890,0,0
420,134,0,0,0,0,0,0,0,0,0,-1,1644,890,0,0
427,134,0,0,0,0,0,0,0,0,0,-1,1651,890,0,0
434,134,0,0,0,0,0,0,0,0,0,-1,1658,890,0,0
441,134,0,0,0,0,0,0,0,0,0,-1,1665,890,0,0
448,134,0,0,0,0,0,0,0,0,0,-1,1672,890,0,0
455,134,0,0,0,0,0,0,0,0,0,-1,1679,890,0,0
462,134,0,0,0,0,0,0,0,0,0,-1,1686,890,0,0
469,134,0,0,0,0,0,0,0,0,0,-1,1693,890,0,0
476,134,0,0,0,0,0,0,0,0,0,-1,1700,890,0,0
483,134,0,0,0,0,0,0,0,0,0,-1,1707,890,0,0
490,134,0,0,0,0,0,0,0,0,0,-1,1714,890,0,0
497,134,0,0,0,0,0,0,0,0,0,-1,1721,890,0,0
504,134,0,0,0,0,0,0,0,0,0,-1,1728,890,0,0
511,134,0,0,0,0,0,0,0,0,0,-1,1735,890,0,0
518,134,0,0,0,0,0,0,0,0,0,-1,1742,890,0,0
525,134,0,0,0,0,0,0,0,0,0,-1,1749,890,0,0
532,134,0,0,0,0,0,0,0,0,0,-1,1756,890,0,0
539,134,0,0,0,0,0,0,0,0,0,-1,1763,890,0,0
546,134,0,0,0,0,0,0,0,0,0,-1,1770,890,0,0
553,134,0,0,0,0,0,0,0,0,0,-1,1777,890,0,0
560,134,0,0,0,0,0,0,0,0,0,-1,1784,890,0,0
567,134,0,0,0,0,0,0,0,0,0,-1,1791,890,0,0
574,134,0,0,0,0,0,0,0,0,0,-1,1798,890,0,0
581,134,0,0,0,0,0,0,0,0,0,-1,1805,890,0,0
588,134,0,0,0,0,0,0,0,0,0,-1,1812,890,0,0
595,134,0,0,0,0,0,0,0,0,0,-1,1819,890,0,0
602,134,0,0,0,0,0,0,0,0,0,-1,1826,890,0,0
609,134,0,0,0,0,0,0,0,0,0,-1,1833,890,0,0
616,134,0,0,0,0,0,0,0,0,0,-1,1840,890,0,0
623,134,0.0800781,0.115295,0.0016205,-8.78767e-05,-0.00292638,0.00381481,-0.00228219,-0.643397,0.00355698,0.0396741,1847,890,0.0800463,-0.115296
630,134,-0.020874,0.0234985,0.000879468,-0.000290903,-0.00183107,0.00221659,-0.00162802,-0.630734,0.00222834,0.0420997,1854,890,-0.0208532,-0.0235077
637,134,-0.0665283,-0.039978,0.000407188,-0.000342305,-0.00115149,0.00124338,-0.0011785,-0.628081,0.00139844,0.041723,1861,890,-0.0664866,0.0399613
644,134,-0.088501,-0.0974121,8.5984e-05,-0.000332797,-0.000705571,0.00061258,-0.000859392,-0.641154,0.000853816,0.0378036,1868,890,-0.0885157,0.0973871
651,134,-0.0612793,0.0656738,-0.000183867,-0.000290297,-0.000402245,0.000168668,-0.000642832,-0.719632,0.000494461,0.03751,1875,890,-0.0612757,-0.0656535
658,134,-0.0218506,0.149597,-0.000364638,-0.000234031,-0.000213082,-7.64704e-05,-0.000522199,-0.93409,0.000325649,0.0346537,1882,890,-0.0218981,-0.149602
665,134,0.00598145,0.111084,-0.00045192,-0.000168965,-0.000108484,-0.00013216,-0.000488724,-1.24372,0.000291912,0.0261309,1889,890,0.00600411,-0.111079
672,134,-0.00805664,0.0631714,-0.000514723,-0.000130634,-4.45168e-05,-0.000125541,-0.000519815,-1.45691,0.000313198,0.0161258,1896,890,-0.00804153,-0.0631973
679,134,-0.0263672,0.0588989,-0.000525071,-7.76268e-05,4.08661e-05,-7.3925e-05,-0.000528773,1.48046,0.00033064,0.0107371,1903,890,-0.0263714,-0.0589131
686,134,0.0109863,-0.0430908,-0.000471826,-5.92576e-05,1.90139e-05,-5.83831e-05,-0.0004727,1.52484,0.000297588,0.0259689,1910,890,0.0109268,0.0431034
693,134,-0.0413818,0.0586548,-0.000412532,-2.14144e-05,1.04296e-05,-2.11365e-05,-0.00041281,1.54416,0.000268439,0.0165081,1917,890,-0.0413674,-0.058657
700,134,-0.0700684,0.0522461,-0.000405627,6.65221e-06,5.02265e-05,1.26829e-05,-0.000411658,1.4513,0.000278762,0.0139454,1924,890,-0.0700899,-0.0522439
707,134,-0.0633545,0.0507813,-0.000295608,4.67686e-05,0.00010047,7.40739e-05,-0.000322913,1.30543,0.000243748,0.013108,1931,890,-0.0634046,-0.0507863
714,134,-0.0446777,0.059082,-1.85379e-05,0.000298184,0.000119017,0.000337923,-5.8276e-05,1.24855,0.000247009,0.0123772,1938,890,-0.04462,-0.059083
721,134,-0.0307617,0.0654297,0.000171022,0.000962589,7.70217e-05,0.000970014,0.000163597,1.47469,0.00059963,0.0129236,1945,890,-0.0308101,-0.0654412
728,134,-0.0549316,0.0634766,0.00036674,0.00183013,0.000274985,0.00188009,0.000316774,1.39105,0.00116228,0.013143,1952,890,-0.0548846,-0.0634496
735,134,-0.0854492,0.0535889,0.000583143,0.00269314,0.000500173,0.0028057,0.000470582,1.34944,0.00173501,0.0158956,1959,890,-0.0854426,-0.0535691
742,134,-0.0838623,0.0668945,0.000979969,0.00369316,0.000913408,0.00397201,0.000701124,1.2745,0.002448,0.0129269,1966,890,-0.0838951,-0.0668666
749,134,-0.0583496,0.0944214,0.00150097,0.00451559,0.00166829,0.00525665,0.000759916,1.15277,0.0032806,0.0118653,1973,890,-0.0583004,-0.0943933
756,134,-0.050293,0.0842896,0.00215248,0.00583652,0.00255144,0.00714138,0.000847617,1.09805,0.00450504,0.0150161,1980,890,-0.0502514,-0.0842671
763,134,-0.020874,0.0673828,0.00301034,0.0071452,0.003913,0.00950336,0.000652185,1.02843,0.00612975,0.0354838,1987,890,-0.0209005,-0.0673798
770,134,-0.667969,-0.435669,0,0,0,0,0,0,0,-1,1994,890,-0.66793,0.435674
777,134,-0.543213,-0.432617,0,0,0,0,0,0,0,-1,2001,890,-0.543264,0.432635
784,134,-0.422119,-0.193726,0,0,0,0,0,0,0,-1,2008,890,-0.422099,0.193748
791,134,-0.292969,0.101196,0,0,0,0,0,0,0,-1,2015,890,-0.292976,-0.101225
798,134,0,0,0,0,0,0,0,0,0,-1,2022,890,0,0
805,134,0,0,0,0,0,0,0,0,0,-1,2029,890,0,0
812,134,0,0,0,0,0,0,0,0,0,-1,2036,890,0,0
-700,127,0,0,0,0,0,0,0,0,0,-1,524,897,0,0
-693,127,0,0,0,0,0,0,0,0,0,-1,531,897,0,0
-686,127,0,0,0,0,0,0,0,0,0,-1,538,897,0,0
-679,127,-4.03802,-4.49915,0.119846,0.112249,0.0693116,0.185463,0.0466323,0.758024,0.111401,0.0459544,545,897,-4.03804,4.49917
-672,127,-3.22919,-3.44708,0.0911899,0.0889137,0.0582771,0.14834,0.0317636,0.775635,0.0901896,0.0459829,552,897,-3.22919,3.4471
-665,127,-2.28607,-2.19727,0.0674668,0.0683209,0.0472117,0.115107,0.0206801,0.789921,0.0708581,0.0454894,559,897,-2.2861,2.19725
-658,127,0.261353,-0.110046,0,0,0,0,0,0,0,-1,566,897,0.261355,0.110076
-651,127,0.302551,-0.190125,0.0318726,0.0359471,0.0288177,0.0627995,0.0050202,0.820687,0.0402973,0.044944,573,897,0.302533,0.190123
-644,127,0.285095,-0.276428,0.0196416,0.0242295,0.0217946,0.0438505,2.05487e-05,0.837832,0.0292268,0.0457243,580,897,0.285108,0.276419
-637,127,-0.0405273,-0.0569458,0.0108374,0.0153848,0.0161668,0.029437,-0.00321481,0.85526,0.0207793,0.0436795,587,897,-0.040557,0.0569228
-630,127,-0.0419922,0.0101318,0.00451906,0.00909014,0.0124825,0.0194946,-0.00588539,0.875945,0.0153393,0.0274882,594,897,-0.0420064,-0.0101287
-623,127,-0.0388184,0.0498047,9.81153e-05,0.00414612,0.00855551,0.0109138,-0.00666955,0.901549,0.0102498,0.011836,601,897,-0.038829,-0.0498152
-616,127,-0.0401611,0.0783081,-0.0021765,0.000870698,0.00511992,0.00468891,-0.00599472,0.930017,0.00618354,0.00947629,608,897,-0.0401779,-0.0783231
-609,127,-0.0407715,0.0828857,-0.00272095,-0.000368706,0.00320808,0.00187205,-0.00496171,0.961096,0.00407767,0.0124386,615,897,-0.0407458,-0.0828748
-602,127,-0.0537109,0.071106,-0.00223941,-0.000678173,0.00259544,0.0012515,-0.00416908,0.931477,0.0032772,0.0138412,622,897,-0.0537095,-0.0711302
-595,127,-0.0212402,0.0628662,-0.00164939,-0.000562287,0.00175855,0.0007348,-0.00294648,0.935286,0.00224962,0.012392,629,897,-0.0212569,-0.0628727
-588,127,0.0219727,0.0823364,-0.00108444,-0.000343655,0.00105332,0.000402501,-0.00183059,0.954466,0.00137435,0.016154,636,897,0.0219491,-0.0823325
-581,127,-0.0109253,0.0653687,-0.000743261,-0.000216314,0.0005766,0.000154158,-0.00111373,0.999705,0.000798848,0.022585,643,897,-0.0108968,-0.0653589
-574,127,-0.0453491,0.0603638,-0.000190873,-3.45409e-05,2.71234e-05,-2.99687e-05,-0.000195445,1.4038,0.000121545,0.0223426,650,897,-0.0453196,-0.0603673
-567,127,-0.020874,0.129333,0.000154852,3.9411e-05,-0.000253241,0.000356867,-0.000162604,-0.673349,0.000306828,0.0281265,657,897,-0.0209043,-0.129327
-560,127,-0.0375366,0.131897,0.000367442,0.000300387,-0.000442376,0.000777559,-0.00010973,-0.747576,0.000558554,0.0315684,664,897,-0.0375147,-0.131897
-553,127,-0.0805054,0.0454712,0.00054396,0.000460282,-0.000640135,0.00114362,-0.00013938,-0.752765,0.000812867,0.0399437,671,897,-0.0805257,-0.0454969
-546,127,-0.0715942,0.0666504,0.000858823,0.000754478,-0.000888697,0.00169688,-8.35769e-05,-0.756079,0.00116011,0.0231273,678,897,-0.0715698,-0.0666322
-539,127,-0.053772,0.0825195,0.00130385,0.00116264,-0.0012313,0.00246656,-7.81147e-08,-0.756758,0.0016444,0.0199454,685,897,-0.0537471,-0.0825258
-532,127,-0.0116577,0.104797,0.00193843,0.00173978,-0.00165147,0.00349356,0.000184649,-0.755363,0.00226999,0.0159618,692,897,-0.011667,-0.104783
-525,127,-0.0250854,0.162598,0.00273994,0.00252654,-0.00217631,0.00481216,0.000454322,-0.760904,0.0030679,0.0303031,699,897,-0.025067,-0.162569
-518,127,0.00164795,0.13269,0.00376134,0.00357965,-0.00281274,0.0064847,0.000856295,-0.769255,0.00406786,0.036694,706,897,0.0016393,-0.132717
-511,127,0.132935,0.0557861,0.00513959,0.00497727,-0.00358556,0.00864491,0.00147195,-0.774083,0.00534067,0.0373046,713,897,0.132954,-0.0557739
-504,127,0,0,0,0,0,0,0,0,0,-1,720,897,0,0
-497,127,0,0,0,0,0,0,0,0,0,-1,727,897,0,0
-490,127,0,0,0,0,0,0,0,0,0,-1,734,897,0,0
-483,127,0,0,0,0,0,0,0,0,0,-1,741,897,0,0
-476,127,0,0,0,0,0,0,0,0,0,-1,748,897,0,0
-469,127,0,0,0,0,0,0,0,0,0,-1,755,897,0,0
-462,127,0,0,0,0,0,0,0,0,0,-1,762,897,0,0
-455,127,0,0,0,0,0,0,0,0,0,-1,769,897,0,0
-448,127,0,0,0,0,0,0,0,0,0,-1,776,897,0,0
-441,127,0,0,0,0,0,0,0,0,0,-1,783,897,0,0
-434,127,0,0,0,0,0,0,0,0,0,-1,790,897,0,0
-427,127,0,0,0,0,0,0,0,0,0,-1,797,897,0,0
-420,127,0,0,0,0,0,0,0,0,0,-1,804,897,0,0
-413,127,0,0,0,0,0,0,0,0,0,-1,811,897,0,0
-406,127,0,0,0,0,0,0,0,0,0,-1,818,897,0,0
-399,127,0,0,0,0,0,0,0,0,0,-1,825,897,0,0
-392,127,0,0,0,0,0,0,0,0,0,-1,832,897,0,0
-385,127,0,0,0,0,0,0,0,0,0,-1,839,897,0,0
-378,127,0,0,0,0,0,0,0,0,0,-1,846,897,0,0
-371,127,0,0,0,0,0,0,0,0,0,-1,853,897,0,0
-364,127,0,0,0,0,0,0,0,0,0,-1,860,897,0,0
-357,127,0,0,0,0,0,0,0,0,0,-1,867,897,0,0
-350,127,0,0,0,0,0,0,0,0,0,-1,874,897,0,0
-343,127,0,0,0,0,0,0,0,0,0,-1,881,897,0,0
-336,127,0,0,0,0,0,0,0,0,0,-1,888,897,0,0
-329,127,0,0,0,0,0,0,0,0,0,-1,895,897,0,0
-322,127,0,0,0,0,0,0,0,0,0,-1,902,897,0,0
-315,127,0,0,0,0,0,0,0,0,0,-1,909,897,0,0
-308,127,0,0,0,0,0,0,0,0,0,-1,916,897,0,0
-301,127,0,0,0,0,0,0,0,0,0,-1,923,897,0,0
-294,127,0,0,0,0,0,0,0,0,0,-1,930,897,0,0
-287,127,0,0,0,0,0,0,0,0,0,-1,937,897,0,0
-280,127,0,0,0,0,0,0,0,0,0,-1,944,897,0,0
-273,127,0,0,0,0,0,0,0,0,0,-1,951,897,0,0
-266,127,0,0,0,0,0,0,0,0,0,-1,958,897,0,0
-259,127,0,0,0,0,0,0,0,0,0,-1,965,897,0,0
-252,127,0,0,0,0,0,0,0,0,0,-1,972,897,0,0
-245,127,0,0,0,0,0,0,0,0,0,-1,979,897,0,0
-238,127,0,0,0,0,0,0,0,0,0,-1,986,897,0,0
-231,127,0,0,0,0,0,0,0,0,0,-1,993,897,0,0
-224,127,0,0,0,0,0,0,0,0,0,-1,1000,897,0,0
-217,127,0,0,0,0,0,0,0,0,0,-1,1007,897,0,0
-210,127,0,0,0,0,0,0,0,0,0,-1,1014,897,0,0
-203,127,0,0,0,0,0,0,0,0,0,-1,1021,897,0,0
-196,127,0,0,0,0,0,0,0,0,0,-1,1028,897,0,0
-189,127,0,0,0,0,0,0,0,0,0,-1,1035,897,0,0
-182,127,0,0,0,0,0,0,0,0,0,-1,1042,897,0,0
-175,127,0,0,0,0,0,0,0,0,0,-1,1049,897,0,0
-168,127,0,0,0,0,0,0,0,0,0,-1,1056,897,0,0
-161,127,0,0,0,0,0,0,0,0,0,-1,1063,897,0,0
-154,127,0,0,0,0,0,0,0,0,0,-1,1070,897,0,0
-147,127,0,0,0,0,0,0,0,0,0,-1,1077,897,0,0
-140,127,0,0,0,0,0,0,0,0,0,-1,1084,897,0,0
-133,127,0,0,0,0,0,0,0,0,0,-1,1091,897,0,0
-126,127,0,0,0,0,0,0,0,0,0,-1,1098,897,0,0
-119,127,0,0,0,0,0,0,0,0,0,-1,1105,897,0,0
-112,127,0,0,0,0,0,0,0,0,0,-1,1112,897,0,0
-105,127,0,0,0,0,0,0,0,0,0,-1,1119,897,0,0
-98,127,0,0,0,0,0,0,0,0,0,-1,1126,897,0,0
-91,127,0,0,0,0,0,0,0,0,0,-1,1133,897,0,0
-84,127,0,0,0,0,0,0,0,0,0,-1,1140,897,0,0
-77,127,0,0,0,0,0,0,0,0,0,-1,1147,897,0,0
-70,127,0,0,0,0,0,0,0,0,0,-1,1154,897,0,0
-63,127,0,0,0,0,0,0,0,0,0,-1,1161,897,0,0
-56,127,0,0,0,0,0,0,0,0,0,-1,1168,897,0,0
-49,127,0,0,0,0,0,0,0,0,0,-1,1175,897,0,0
-42,127,0,0,0,0,0,0,0,0,0,-1,1182,897,0,0
-35,127,0,0,0,0,0,0,0,0,0,-1,1189,897,0,0
-28,127,0,0,0,0,0,0,0,0,0,-1,1196,897,0,0
-21,127,0,0,0,0,0,0,0,0,0,-1,1203,897,0,0
-14,127,0,0,0,0,0,0,0,0,0,-1,1210,897,0,0
-7,127,0,0,0,0,0,0,0,0,0,-1,1217,897,0,0
0,127,0,0,0,0,0,0,0,0,0,-1,1224,897,0,0
7,127,0,0,0,0,0,0,0,0,0,-1,1231,897,0,0
14,127,0,0,0,0,0,0,0,0,0,-1,1238,897,0,0
21,127,0,0,0,0,0,0,0,0,0,-1,1245,897,0,0
28,127,0,0,0,0,0,0,0,0,0,-1,1252,897,0,0
35,127,0,0,0,0,0,0,0,0,0,-1,1259,897,0,0
42,127,0,0,0,0,0,0,0,0,0,-1,1266,897,0,0
49,127,0,0,0,0,0,0,0,0,0,-1,1273,897,0,0
56,127,0,0,0,0,0,0,0,0,0,-1,1280,897,0,0
63,127,0,0,0,0,0,0,0,0,0,-1,1287,897,0,0
70,127,0,0,0,0,0,0,0,0,0,-1,1294,897,0,0
77,127,0,0,0,0,0,0,0,0,0,-1,1301,897,0,0
84,127,0,0,0,0,0,0,0,0,0,-1,1308,897,0,0
91,127,0,0,0,0,0,0,0,0,0,-1,1315,897,0,0
98,127,0,0,0,0,0,0,0,0,0,-1,1322,897,0,0
105,127,0,0,0,0,0,0,0,0,0,-1,1329,897,0,0
112,127,0,0,0,0,0,0,0,0,0,-1,1336,897,0,0
119,127,0,0,0,0,0,0,0,0,0,-1,1343,897,0,0
126,127,0,0,0,0,0,0,0,0,0,-1,1350,897,0,0
133,127,0,0,0,0,0,0,0,0,0,-1,1357,897,0,0
140,127,0,0,0,0,0,0,0,0,0,-1,1364,897,0,0
147,127,0,0,0,0,0,0,0,0,0,-1,1371,897,0,0
154,127,0,0,0,0,0,0,0,0,0,-1,1378,897,0,0
161,127,0,0,0,0,0,0,0,0,0,-1,1385,897,0,0
168,127,0,0,0,0,0,0,0,0,0,-1,1392,897,0,0
175,127,0,0,0,0,0,0,0,0,0,-1,1399,897,0,0
182,127,0,0,0,0,0,0,0,0,0,-1,1406,897,0,0
189,127,0,0,0,0,0,0,0,0,0,-1,1413,897,0,0
196,127,0,0,0,0,0,0,0,0,0,-1,1420,897,0,0
203,127,0,0,0,0,0,0,0,0,0,-1,1427,897,0,0
210,127,0,0,0,0,0,0,0,0,0,-1,1434,897,0,0
217,127,0,0,0,0,0,0,0,0,0,-1,1441,897,0,0
224,127,0,0,0,0,0,0,0,0,0,-1,1448,897,0,0
231,127,0,0,0,0,0,0,0,0,0,-1,1455,897,0,0
238,127,0,0,0,0,0,0,0,0,0,-1,1462,897,0,0
245,127,0,0,0,0,0,0,0,0,0,-1,1469,897,0,0
252,127,0,0,0,0,0,0,0,0,0,-1,1476,897,0,0
259,127,0,0,0,0,0,0,0,0,0,-1,1483,897,0,0
266,127,0,0,0,0,0,0,0,0,0,-1,1490,897,0,0
273,127,0,0,0,0,0,0,0,0,0,-1,1497,897,0,0
280,127,0,0,0,0,0,0,0,0,0,-1,1504,897,0,0
287,127,0,0,0,0,0,0,0,0,0,-1,1511,897,0,0
294,127,0,0,0,0,0,0,0,0,0,-1,1518,897,0,0
301,127,0,0,0,0,0,0,0,0,0,-1,1525,897,0,0
308,127,0,0,0,0,0,0,0,0,0,-1,1532,897,0,0
315,127,0,0,0,0,0,0,0,0,0,-1,1539,897,0,0
322,127,0,0,0,0,0,0,0,0,0,-1,1546,897,0,0
329,127,0,0,0,0,0,0,0,0,0,-1,1553,897,0,0
336,127,0,0,0,0,0,0,0,0,0,-1,1560,897,0,0
343,127,0,0,0,0,0,0,0,0,0,-1,1567,897,0,0
350,127,0,0,0,0,0,0,0,0,0,-1,1574,897,0,0
357,127,0,0,0,0,0,0,0,0,0,-1,1581,897,0,0
364,127,0,0,0,0,0,0,0,0,0,-1,1588,897,0,0
371,127,0,0,0,0,0,0,0,0,0,-1,1595,897,0,0
378,127,0,0,0,0,0,0,0,0,0,-1,1602,897,0,0
385,127,0,0,0,0,0,0,0,0,0,-1,1609,897,0,0
392,127,0,0,0,0,0,0,0,0,0,-1,1616,897,0,0
399,127,0,0,0,0,0,0,0,0,0,-1,1623,897,0,0
406,127,0,0,0,0,0,0,0,0,0,-1,1630,897,0,0
413,127,0,0,0,0,0,0,0,0,0,-1,1637,897,0,0
420,127,0,0,0,0,0,0,0,0,0,-1,1644,897,0,0
427,127,0,0,0,0,0,0,0,0,0,-1,1651,897,0,0
434,127,0,0,0,0,0,0,0,0,0,-1,1658,897,0,0
441,127,0,0,0,0,0,0,0,0,0,-1,1665,897,0,0
448,127,0,0,0,0,0,0,0,0,0,-1,1672,897,0,0
455,127,0,0,0,0,0,0,0,0,0,-1,1679,897,0,0
462,127,0,0,0,0,0,0,0,0,0,-1,1686,897,0,0
469,127,0,0,0,0,0,0,0,0,0,-1,1693,897,0,0
476,127,0,0,0,0,0,0,0,0,0,-1,1700,897,0,0
483,127,0,0,0,0,0,0,0,0,0,-1,1707,897,0,0
490,127,0,0,0,0,0,0,0,0,0,-1,1714,897,0,0
497,127,0,0,0,0,0,0,0,0,0,-1,1721,897,0,0
504,127,0,0,0,0,0,0,0,0,0,-1,1728,897,0,0
511,127,0,0,0,0,0,0,0,0,0,-1,1735,897,0,0
518,127,0,0,0,0,0,0,0,0,0,-1,1742,897,0,0
525,127,0,0,0,0,0,0,0,0,0,-1,1749,897,0,0
532,127,0,0,0,0,0,0,0,0,0,-1,1756,897,0,0
539,127,0,0,0,0,0,0,0,0,0,-1,1763,897,0,0
546,127,0,0,0,0,0,0,0,0,0,-1,1770,897,0,0
553,127,0,0,0,0,0,0,0,0,0,-1,1777,897,0,0
560,127,0,0,0,0,0,0,0,0,0,-1,1784,897,0,0
567,127,0,0,0,0,0,0,0,0,0,-1,1791,897,0,0
574,127,0,0,0,0,0,0,0,0,0,-1,1798,897,0,0
581,127,0,0,0,0,0,0,0,0,0,-1,1805,897,0,0
588,127,0,0,0,0,0,0,0,0,0,-1,1812,897,0,0
595,127,0,0,0,0,0,0,0,0,0,-1,1819,897,0,0
602,127,0,0,0,0,0,0,0,0,0,-1,1826,897,0,0
609,127,0,0,0,0,0,0,0,0,0,-1,1833,897,0,0
616,127,0,0,0,0,0,0,0,0,0,-1,1840,897,0,0
623,127,0,0,0,0,0,0,0,0,0,-1,1847,897,0,0
630,127,0.0567627,0.0170288,0.00112109,0.000129548,-0.0016071,0.00230715,-0.00105652,-0.635786,0.00198626,0.0397671,1854,897,0.0568121,-0.0170324
637,127,-0.0301514,0.0824585,0.000626664,7.99956e-05,-0.00105792,0.00144599,-0.000739333,-0.658978,0.0012835,0.0380085,1861,897,-0.0301606,-0.0824684
644,127,-0.0820313,0.0669556,0.000311493,7.98054e-05,-0.000716636,0.000921588,-0.000530289,-0.705267,0.000848329,0.0360087,1868,897,-0.0820638,-0.0669269
651,127,-0.0478516,0.0823975,4.84567e-05,0.00010418,-0.000486447,0.000563562,-0.000410926,-0.814005,0.000564917,0.0383333,1875,897,-0.047825,-0.0824206
658,127,0.00683594,0.112305,-0.000134031,0.000130034,-0.000340639,0.000363334,-0.000367331,-0.970285,0.000421852,0.037374,1882,897,0.00682038,-0.112277
665,127,0.00415039,0.116882,-0.00024384,0.000149258,-0.000252094,0.000272369,-0.000366952,-1.11651,0.000370456,0.03164,1889,897,0.004104,-0.116893
672,127,-0.0163574,0.108093,-0.00030527,0.000138955,-0.000196292,0.000213262,-0.000379577,-1.20891,0.000346736,0.0273936,1896,897,-0.0163687,-0.108066
679,127,-0.0437012,0.105042,-0.000314824,0.000139405,-0.000106984,0.000163341,-0.000338761,-1.35068,0.000295727,0.0177944,1903,897,-0.0436729,-0.105043
686,127,0.00402832,0.0170288,-0.000283277,0.000109103,-0.000114071,0.000139856,-0.000314029,-1.30747,0.000268405,0.0136481,1910,897,0.00404825,-0.0170539
693,127,-0.0384521,0.0445557,-0.000266533,0.000101436,-9.72316e-05,0.000125549,-0.000290646,-1.32771,0.000246511,0.0161047,1917,897,-0.0385013,-0.0445832
700,127,-0.0649414,0.0487061,-0.000307054,8.57184e-05,-3.42405e-05,8.8681e-05,-0.000310016,-1.48449,0.000241723,0.0174879,1924,897,-0.0649858,-0.0487023
707,127,-0.0697021,0.0726929,-0.000236568,7.83624e-05,-7.0992e-06,7.85224e-05,-0.000236728,-1.54827,0.000189496,0.0171026,1931,897,-0.0696505,-0.0726895
714,127,-0.0783691,0.0894775,1.01461e-05,0.000183378,-4.84401e-05,0.000196003,-2.4789e-06,-1.31584,0.000131503,0.0146247,1938,897,-0.0783322,-0.0894536
721,127,-0.0557861,0.0983276,0.000142654,0.000599203,-0.000100121,0.000620194,0.000121663,-1.36413,0.000379466,0.0122101,1945,897,-0.0558384,-0.0983513
728,127,-0.0522461,0.0704346,0.000309307,0.00115935,2.2073e-05,0.00115992,0.000308734,1.54485,0.000693662,0.0120745,1952,897,-0.0522797,-0.0704531
735,127,-0.0740967,0.0531616,0.000570217,0.00171485,0.000148376,0.00173378,0.000551296,1.44396,0.00102287,0.0183392,1959,897,-0.0740567,-0.053142
742,127,-0.0673828,0.078125,0.0010655,0.00235796,0.000445631,0.00249671,0.000926749,1.26894,0.00145734,0.0174274,1966,897,-0.0674216,-0.0781041
749,127,-0.059082,0.0828247,0.00175351,0.00252158,0.00109914,0.00330185,0.000973246,0.953467,0.00195913,0.0124938,1973,897,-0.0590824,-0.0828476
756,127,-0.048584,0.0747681,0.00262658,0.00307896,0.00184499,0.00471157,0.000993964,0.846392,0.00286773,0.0138067,1980,897,-0.0485402,-0.0747668
763,127,-0.0233154,0.048584,0.00381514,0.00343454,0.00304882,0.00667959,0.000570089,0.75423,0.00427572,0.0207787,1987,897,-0.0233732,-0.0485934
770,127,0.0146484,0.0435181,0.00539626,0.00331121,0.00492115,0.00938411,-0.000676632,0.681019,0.00649338,0.0368164,1994,897,0.014669,-0.0435422
777,127,-0.365723,-0.344666,0,0,0,0,0,0,0,-1,2001,897,-0.365779,0.344637
784,127,-0.327148,-0.289795,0.0100136,-0.000145242,0.0118035,0.0177842,-0.00791583,0.582209,0.0151981,0.0483299,2008,897,-0.327202,0.289817
791,127,-0.307739,-0.0980835,0,0,0,0,0,0,0,-1,2015,897,-0.307746,0.0980842
798,127,0,0,0,0,0,0,0,0,0,-1,2022,897,0,0
805,127,0,0,0,0,0,0,0,0,0,-1,2029,897,0,0
812,127,0,0,0,0,0,0,0,0,0,-1,2036,897,0,0
-700,120,0,0,0,0,0,0,0,0,0,-1,524,904,0,0
-693,120,0,0,0,0,0,0,0,0,0,-1,531,904,0,0
-686,120,0,0,0,0,0,0,0,0,0,-1,538,904,0,0
-679,120,-4.60486,-5.36029,0.112618,0.0971264,0.043857,0.149408,0.0603363,0.697994,0.0867908,0.042448,545,904,-4.60486,5.36026
-672,120,-3.90192,-4.21637,0.0859476,0.0769917,0.0377594,0.119494,0.0434457,0.726378,0.0698404,0.0438885,552,904,-3.90193,4.21635
-665,120,-3.0177,-2.84271,0.0638153,0.0592145,0.0312187,0.0928182,0.0302116,0.748622,0.0546658,0.0464366,559,904,-3.01771,2.8427
-658,120,-0.844849,-0.116699,0,0,0,0,0,0,0,-1,566,904,-0.844873,0.116695
-651,120,0.169067,-0.290588,0.0309567,0.0313051,0.0196985,0.0508302,0.0114317,0.78982,0.0307919,0.0491358,573,904,0.169055,0.290596
-644,120,0.22467,-0.256104,0.0197441,0.021227,0.015156,0.0356597,0.00531147,0.80984,0.0222153,0.0469429,580,904,0.224643,0.256079
-637,120,-0.0187988,0.0258179,0.0116123,0.0136121,0.0114619,0.0241176,0.00110681,0.828908,0.0157224,0.0392081,587,904,-0.0187695,-0.0258195
-630,120,-0.0194092,0.0435791,0.00547276,0.00815174,0.00945785,0.0163645,-0.00273999,0.855744,0.0119283,0.0208689,594,904,-0.0194292,-0.0436086
-623,120,-0.0407715,0.0584717,0.0012397,0.00382313,0.00669072,0.00934569,-0.00428286,0.880755,0.00804739,0.00997426,601,904,-0.0407762,-0.0584828
-616,120,-0.0285034,0.0733643,-0.000884516,0.000928147,0.00401694,0.00413974,-0.00409611,0.896354,0.00475499,0.00947914,608,904,-0.0284803,-0.0733444
-609,120,-0.0422363,0.0891113,-0.00163975,-0.000225426,0.00246659,0.00163338,-0.00349855,0.925001,0.00302744,0.0121792,615,904,-0.0422297,-0.0890941
-602,120,-0.0626831,0.0824585,-0.00148044,-0.000557435,0.00214775,0.00117784,-0.00321571,0.891228,0.002626,0.012347,622,904,-0.0626763,-0.0824578
-595,120,-0.00415039,0.0654297,-0.00115253,-0.000489412,0.00147935,0.000695079,-0.00233702,0.895639,0.00183415,0.0147388,629,904,-0.00415859,-0.0654123
-588,120,0.0310669,0.0537109,-0.00073301,-0.000248272,0.000890055,0.000431823,-0.00141311,0.918329,0.00111426,0.0192026,636,904,0.0310534,-0.0537275
-581,120,-0.0278931,0.0661621,-0.0004641,-8.68675e-05,0.000490427,0.000249963,-0.000800931,0.968977,0.000633921,0.0232728,643,904,-0.0279055,-0.0661854
-574,120,-0.0499878,0.0506592,-3.83502e-05,0.00013591,4.31606e-05,0.000146014,-4.84543e-05,1.34083,0.000116891,0.0210392,650,904,-0.0499977,-0.0506648
-567,120,-0.0248413,0.101013,0.000274814,0.000268884,-0.000220575,0.000492444,5.12532e-05,-0.778677,0.000312615,0.0338549,657,904,-0.0248446,-0.101028
-560,120,0.00152588,0.168945,0.000535498,0.000606821,-0.000430173,0.00100281,0.000139511,-0.826754,0.000627228,0.0389384,664,904,0.0015192,-0.168923
-553,120,-0.026123,0.132874,0.000768389,0.000863053,-0.000656227,0.00147365,0.000157789,-0.8214,0.000934291,0.0374587,671,904,-0.0261503,-0.132891
-546,120,-0.0180054,0.11145,0.00114033,0.00126109,-0.000950093,0.00215272,0.000248701,-0.81713,0.00135985,0.0295068,678,904,-0.0180082,-0.111435
-539,120,-0.00213623,0.0891113,0.00166357,0.00179935,-0.00135334,0.0030865,0.000376418,-0.810459,0.00194438,0.022496,685,904,-0.0021429,-0.0891208
-532,120,-0.0761108,0.0990601,0.0023892,0.00251392,-0.00186803,0.00432063,0.000582487,-0.802083,0.00270723,0.0239282,692,904,-0.076128,-0.0990575
-525,120,-0.109375,0.00964355,0.00328815,0.00344699,-0.00252584,0.00589466,0.000840487,-0.801115,0.00368173,0.0325184,699,904,-0.109377,-0.00963999
-518,120,-0.0849609,0.0652466,0.00442574,0.00465806,-0.00333908,0.007883,0.0012008,-0.802785,0.00490431,0.0367859,706,904,-0.0849699,-0.0652506
-511,120,0.156372,-0.235229,0.00597014,0.0062444,-0.00432871,0.0104382,0.0017764,-0.801233,0.00644871,0.037167,713,904,0.156383,0.235226
-504,120,0,0,0,0,0,0,0,0,0,-1,720,904,0,0
-497,120,0,0,0,0,0,0,0,0,0,-1,727,904,0,0
-490,120,0,0,0,0,0,0,0,0,0,-1,734,904,0,0
-483,120,0,0,0,0,0,0,0,0,0,-1,741,904,0,0
-476,120,0,0,0,0,0,0,0,0,0,-1,748,904,0,0
-469,120,0,0,0,0,0,0,0,0,0,-1,755,904,0,0
-462,120,0,0,0,0,0,0,0,0,0,-1,762,904,0,0
-455,120,0,0,0,0,0,0,0,0,0,-1,769,904,0,0
-448,120,0,0,0,0,0,0,0,0,0,-1,776,904,0,0
-441,120,0,0,0,0,0,0,0,0,0,-1,783,904,0,0
-434,120,0,0,0,0,0,0,0,0,0,-1,790,904,0,0
-427,120,0,0,0,0,0,0,0,0,0,-1,797,904,0,0
-420,120,0,0,0,0,0,0,0,0,0,-1,804,904,0,0
-413,120,0,0,0,0,0,0,0,0,0,-1,811,904,0,0
-406,120,0,0,0,0,0,0,0,0,0,-1,818,904,0,0
-399,120,0,0,0,0,0,0,0,0,0,-1,825,904,0,0
-392,120,0,0,0,0,0,0,0,0,0,-1,832,904,0,0
-385,120,0,0,0,0,0,0,0,0,0,-1,839,904,0,0
-378,120,0,0,0,0,0,0,0,0,0,-1,846,904,0,0
-371,120,0,0,0,0,0,0,0,0,0,-1,853,904,0,0
-364,120,0,0,0,0,0,0,0,0,0,-1,860,904,0,0
-357,120,0,0,0,0,0,0,0,0,0,-1,867,904,0,0
-350,120,0,0,0,0,0,0,0,0,0,-1,874,904,0,0
-343,120,0,0,0,0,0,0,0,0,0,-1,881,904,0,0
-336,120,0,0,0,0,0,0,0,0,0,-1,888,904,0,0
-329,120,0,0,0,0,0,0,0,0,0,-1,895,904,0,0
-322,120,0,0,0,0,0,0,0,0,0,-1,902,904,0,0
-315,120,0,0,0,0,0,0,0,0,0,-1,909,904,0,0
-308,120,0,0,0,0,0,0,0,0,0,-1,916,904,0,0
-301,120,0,0,0,0,0,0,0,0,0,-1,923,904,0,0
-294,120,0,0,0,0,0,0,0,0,0,-1,930,904,0,0
-287,120,0,0,0,0,0,0,0,0,0,-1,937,904,0,0
-280,120,0,0,0,0,0,0,0,0,0,-1,944,904,0,0
-273,120,0,0,0,0,0,0,0,0,0,-1,951,904,0,0
-266,120,0,0,0,0,0,0,0,0,0,-1,958,904,0,0
-259,120,0,0,0,0,0,0,0,0,0,-1,965,904,0,0
-252,120,0,0,0,0,0,0,0,0,0,-1,972,904,0,0
-245,120,0,0,0,0,0,0,0,0,0,-1,979,904,0,0
-238,120,0,0,0,0,0,0,0,0,0,-1,986,904,0,0
-231,120,0,0,0,0,0,0,0,0,0,-1,993,904,0,0
-224,120,0,0,0,0,0,0,0,0,0,-1,1000,904,0,0
-217,120,0,0,0,0,0,0,0,0,0,-1,1007,904,0,0
-210,120,0,0,0,0,0,0,0,0,0,-1,1014,904,0,0
-203,120,0,0,0,0,0,0,0,0,0,-1,1021,904,0,0
-196,120,0,0,0,0,0,0,0,0,0,-1,1028,904,0,0
-189,120,0,0,0,0,0,0,0,0,0,-1,1035,904,0,0
-182,120,0,0,0,0,0,0,0,0,0,-1,1042,904,0,0
-175,120,0,0,0,0,0,0,0,0,0,-1,1049,904,0,0
-168,120,0,0,0,0,0,0,0,0,0,-1,1056,904,0,0
-161,120,0,0,0,0,0,0,0,0,0,-1,1063,904,0,0
-154,120,0,0,0,0,0,0,0,0,0,-1,1070,904,0,0
-147,120,0,0,0,0,0,0,0,0,0,-1,1077,904,0,0
-140,120,0,0,0,0,0,0,0,0,0,-1,1084,904,0,0
-133,120,0,0,0,0,0,0,0,0,0,-1,1091,904,0,0
-126,120,0,0,0,0,0,0,0,0,0,-1,1098,904,0,0
-119,120,0,0,0,0,0,0,0,0,0,-1,1105,904,0,0
-112,120,0,0,0,0,0,0,0,0,0,-1,1112,904,0,0
-105,120,0,0,0,0,0,0,0,0,0,-1,1119,904,0,0
-98,120,0,0,0,0,0,0,0,0,0,-1,1126,904,0,0
-91,120,0,0,0,0,0,0,0,0,0,-1,1133,904,0,0
-84,120,0,0,0,0,0,0,0,0,0,-1,1140,904,0,0
-77,120,0,0,0,0,0,0,0,0,0,-1,1147,904,0,0
-70,120,0,0,0,0,0,0,0,0,0,-1,1154,904,0,0
-63,120,0,0,0,0,0,0,0,0,0,-1,1161,904,0,0
-56,120,0,0,0,0,0,0,0,0,0,-1,1168,904,0,0
-49,120,0,0,0,0,0,0,0,0,0,-1,1175,904,0,0
-42,120,0,0,0,0,0,0,0,0,0,-1,1182,904,0,0
-35,120,0,0,0,0,0,0,0,0,0,-1,1189,904,0,0
-28,120,0,0,0,0,0,0,0,0,0,-1,1196,904,0,0
-21,120,0,0,0,0,0,0,0,0,0,-1,1203,904,0,0
-14,120,0,0,0,0,0,0,0,0,0,-1,1210,904,0,0
-7,120,0,0,0,0,0,0,0,0,0,-1,1217,904,0,0
0,120,0,0,0,0,0,0,0,0,0,-1,1224,904,0,0
7,120,0,0,0,0,0,0,0,0,0,-1,1231,904,0,0
14,120,0,0,0,0,0,0,0,0,0,-1,1238,904,0,0
21,120,0,0,0,0,0,0,0,0,0,-1,1245,904,0,0
28,120,0,0,0,0,0,0,0,0,0,-1,1252,904,0,0
35,120,0,0,0,0,0,0,0,0,0,-1,1259,904,0,0
42,120,0,0,0,0,0,0,0,0,0,-1,1266,904,0,0
49,120,0,0,0,0,0,0,0,0,0,-1,1273,904,0,0
56,120,0,0,0,0,0,0,0,0,0,-1,1280,904,0,0
63,120,0,0,0,0,0,0,0,0,0,-1,1287,904,0,0
70,120,0,0,0,0,0,0,0,0,0,-1,1294,904,0,0
77,120,0,0,0,0,0,0,0,0,0,-1,1301,904,0,0
84,120,0,0,0,0,0,0,0,0,0,-1,1308,904,0,0
91,120,0,0,0,0,0,0,0,0,0,-1,1315,904,0,0
98,120,0,0,0,0,0,0,0,0,0,-1,1322,904,0,0
105,120,0,0,0,0,0,0,0,0,0,-1,1329,904,0,0
112,120,0,0,0,0,0,0,0,0,0,-1,1336,904,0,0
119,120,0,0,0,0,0,0,0,0,0,-1,1343,904,0,0
126,120,0,0,0,0,0,0,0,0,0,-1,1350,904,0,0
133,120,0,0,0,0,0,0,0,0,0,-1,1357,904,0,0
140,120,0,0,0,0,0,0,0,0,0,-1,1364,904,0,0
147,120,0,0,0,0,0,0,0,0,0,-1,1371,904,0,0
154,120,0,0,0,0,0,0,0,0,0,-1,1378,904,0,0
161,120,0,0,0,0,0,0,0,0,0,-1,1385,904,0,0
168,120,0,0,0,0,0,0,0,0,0,-1,1392,904,0,0
175,120,0,0,0,0,0,0,0,0,0,-1,1399,904,0,0
182,120,0,0,0,0,0,0,0,0,0,-1,1406,904,0,0
189,120,0,0,0,0,0,0,0,0,0,-1,1413,904,0,0
196,120,0,0,0,0,0,0,0,0,0,-1,1420,904,0,0
203,120,0,0,0,0,0,0,0,0,0,-1,1427,904,0,0
210,120,0,0,0,0,0,0,0,0,0,-1,1434,904,0,0
217,120,0,0,0,0,0,0,0,0,0,-1,1441,904,0,0
224,120,0,0,0,0,0,0,0,0,0,-1,1448,904,0,0
231,120,0,0,0,0,0,0,0,0,0,-1,1455,904,0,0
238,120,0,0,0,0,0,0,0,0,0,-1,1462,904,0,0
245,120,0,0,0,0,0,0,0,0,0,-1,1469,904,0,0
252,120,0,0,0,0,0,0,0,0,0,-1,1476,904,0,0
259,120,0,0,0,0,0,0,0,0,0,-1,1483,904,0,0
266,120,0,0,0,0,0,0,0,0,0,-1,1490,904,0,0
273,120,0,0,0,0,0,0,0,0,0,-1,1497,904,0,0
280,120,0,0,0,0,0,0,0,0,0,-1,1504,904,0,0
287,120,0,0,0,0,0,0,0,0,0,-1,1511,904,0,0
294,120,0,0,0,0,0,0,0,0,0,-1,1518,904,0,0
301,120,0,0,0,0,0,0,0,0,0,-1,1525,904,0,0
308,120,0,0,0,0,0,0,0,0,0,-1,1532,904,0,0
315,120,0,0,0,0,0,0,0,0,0,-1,1539,904,0,0
322,120,0,0,0,0,0,0,0,0,0,-1,1546,904,0,0
329,120,0,0,0,0,0,0,0,0,0,-1,1553,904,0,0
336,120,0,0,0,0,0,0,0,0,0,-1,1560,904,0,0
343,120,0,0,0,0,0,0,0,0,0,-1,1567,904,0,0
350,120,0,0,0,0,0,0,0,0,0,-1,1574,904,0,0
357,120,0,0,0,0,0,0,0,0,0,-1,1581,904,0,0
364,120,0,0,0,0,0,0,0,0,0,-1,1588,904,0,0
371,120,0,0,0,0,0,0,0,0,0,-1,1595,904,0,0
378,120,0,0,0,0,0,0,0,0,0,-1,1602,904,0,0
385,120,0,0,0,0,0,0,0,0,0,-1,1609,904,0,0
392,120,0,0,0,0,0,0,0,0,0,-1,1616,904,0,0
399,120,0,0,0,0,0,0,0,0,0,-1,1623,904,0,0
406,120,0,0,0,0,0,0,0,0,0,-1,1630,904,0,0
413,120,0,0,0,0,0,0,0,0,0,-1,1637,904,0,0
420,120,0,0,0,0,0,0,0,0,0,-1,1644,904,0,0
427,120,0,0,0,0,0,0,0,0,0,-1,1651,904,0,0
434,120,0,0,0,0,0,0,0,0,0,-1,1658,904,0,0
441,120,0,0,0,0,0,0,0,0,0,-1,1665,904,0,0
448,120,0,0,0,0,0,0,0,0,0,-1,1672,904,0,0
455,120,0,0,0,0,0,0,0,0,0,-1,1679,904,0,0
462,120,0,0,0,0,0,0,0,0,0,-1,1686,904,0,0
469,120,0,0,0,0,0,0,0,0,0,-1,1693,904,0,0
476,120,0,0,0,0,0,0,0,0,0,-1,1700,904,0,0
483,120,0,0,0,0,0,0,0,0,0,-1,1707,904,0,0
490,120,0,0,0,0,0,0,0,0,0,-1,1714,904,0,0
497,120,0,0,0,0,0,0,0,0,0,-1,1721,904,0,0
504,120,0,0,0,0,0,0,0,0,0,-1,1728,904,0,0
511,120,0,0,0,0,0,0,0,0,0,-1,1735,904,0,0
518,120,0,0,0,0,0,0,0,0,0,-1,1742,904,0,0
525,120,0,0,0,0,0,0,0,0,0,-1,1749,904,0,0
532,120,0,0,0,0,0,0,0,0,0,-1,1756,904,0,0
539,120,0,0,0,0,0,0,0,0,0,-1,1763,904,0,0
546,120,0,0,0,0,0,0,0,0,0,-1,1770,904,0,0
553,120,0,0,0,0,0,0,0,0,0,-1,1777,904,0,0
560,120,0,0,0,0,0,0,0,0,0,-1,1784,904,0,0
567,120,0,0,0,0,0,0,0,0,0,-1,1791,904,0,0
574,120,0,0,0,0,0,0,0,0,0,-1,1798,904,0,0
581,120,0,0,0,0,0,0,0,0,0,-1,1805,904,0,0
588,120,0,0,0,0,0,0,0,0,0,-1,1812,904,0,0
595,120,0,0,0,0,0,0,0,0,0,-1,1819,904,0,0
602,120,0,0,0,0,0,0,0,0,0,-1,1826,904,0,0
609,120,0,0,0,0,0,0,0,0,0,-1,1833,904,0,0
616,120,0,0,0,0,0,0,0,0,0,-1,1840,904,0,0
623,120,0,0,0,0,0,0,0,0,0,-1,1847,904,0,0
630,120,-0.134155,0.309326,0.0013685,0.00092541,-0.00141233,0.00257656,-0.000282648,-0.7076,0.00181925,0.0376928,1854,904,-0.134208,-0.30935
637,120,-0.144653,0.291931,0.0008443,0.000736623,-0.00095896,0.00175093,-0.000170009,-0.757356,0.00122789,0.0384181,1861,904,-0.144615,-0.29195
644,120,-0.0703125,0.145325,0.000485346,0.000624807,-0.000681204,0.00123984,-0.000129687,-0.836402,0.000873006,0.0356722,1868,904,-0.0703659,-0.145326
651,120,0.0551758,0.052063,0.000183964,0.000562867,-0.000489601,0.000898393,-0.000151562,-0.970001,0.000655318,0.0366115,1875,904,0.0551599,-0.0520602
658,120,0.0391846,0.0812378,-3.55098e-05,0.000518092,-0.000362204,0.000697153,-0.000214571,-1.11167,0.000550415,0.0352712,1882,904,0.0391849,-0.0812563
665,120,-0.0256348,0.11853,-0.000178273,0.000468571,-0.000278035,0.000571653,-0.000281354,-1.21576,0.000501901,0.0308641,1889,904,-0.0256079,-0.11853
672,120,-0.0380859,0.0891113,-0.000254956,0.000405162,-0.000222586,0.000473202,-0.000322997,-1.27413,0.000462405,0.030552,1896,904,-0.0380942,-0.0890932
679,120,-0.0820313,0.0758667,-0.000269689,0.000354274,-0.000132368,0.000381193,-0.000296608,-1.37017,0.000392343,0.0253316,1903,904,-0.0819907,-0.0758818
686,120,-0.0561523,0.0830078,-0.000247651,0.000283669,-0.00013366,0.000315398,-0.00027938,-1.33772,0.000343605,0.0126103,1910,904,-0.0562127,-0.0830257
693,120,-0.0220947,0.0427246,-0.000254288,0.000246956,-0.000102394,0.000267066,-0.000274398,-1.37687,0.000312624,0.0198971,1917,904,-0.0221272,-0.0427243
700,120,-0.0518799,0.0713501,-0.00031354,0.00019279,-2.77756e-05,0.000194309,-0.000315059,-1.51616,0.000296826,0.0163774,1924,904,-0.0518437,-0.0713398
707,120,-0.0571289,0.0733643,-0.000243324,0.000135518,-1.4471e-05,0.00013607,-0.000243876,-1.53267,0.000222286,0.0170824,1931,904,-0.0570963,-0.0733362
714,120,-0.0543213,0.0761719,8.1534e-07,0.000140853,-8.63606e-05,0.000182013,-4.03449e-05,-1.12604,0.000136788,0.014421,1938,904,-0.0543193,-0.0761647
721,120,-0.05896,0.0979614,0.000103225,0.000373488,-0.000141222,0.000433815,4.28978e-05,-1.16708,0.000276024,0.0123996,1945,904,-0.0589952,-0.0979477
728,120,-0.0543213,0.0861206,0.000262912,0.00072353,-6.81671e-05,0.000733406,0.000253035,-1.42691,0.00043016,0.00917479,1952,904,-0.0543529,-0.0861434
735,120,-0.0463867,0.0687256,0.000592562,0.00101253,5.36666e-06,0.0010126,0.000592493,1.55802,0.000587442,0.0117068,1959,904,-0.0463789,-0.0687216
742,120,-0.0445557,0.0838013,0.00120914,0.00129167,0.000274399,0.00152789,0.000972924,0.860031,0.000893064,0.0127747,1966,904,-0.0445753,-0.0837741
749,120,-0.0646973,0.0768433,0.00198765,0.000919039,0.000969013,0.0025599,0.000346788,0.533442,0.00160355,0.0104737,1973,904,-0.064727,-0.0768356
756,120,-0.071167,0.0696411,0.00286881,0.000834367,0.00186826,0.00397882,-0.000275649,0.536102,0.00274904,0.0119919,1980,904,-0.0712003,-0.0696363
763,120,-0.0628662,0.0387573,0.00413679,0.000397645,0.00320927,0.00598134,-0.0014469,0.521651,0.00454725,0.0199411,1987,904,-0.0628607,-0.0387333
770,120,-0.0214844,0.00469971,0.00575104,-0.000667883,0.0053107,0.00874675,-0.00366359,0.513596,0.00736273,0.0392228,1994,904,-0.0214852,-0.00471208
777,120,0.0179443,-0.0229492,0,0,0,0,0,0,0,-1,2001,904,0.0179789,0.0229755
784,120,-0.218628,-0.128357,0,0,0,0,0,0,0,-1,2008,904,-0.218689,0.128347
791,120,-0.272095,-0.0393677,0,0,0,0,0,0,0,-1,2015,904,-0.272063,0.0393481
798,120,0.95459,-1.15448,0,0,0,0,0,0,0,-1,2022,904,0.954582,1.15445
805,120,0,0,0,0,0,0,0,0,0,-1,2029,904,0,0
812,120,0,0,0,0,0,0,0,0,0,-1,2036,904,0,0
-700,113,0,0,0,0,0,0,0,0,0,-1,524,911,0,0
-693,113,0,0,0,0,0,0,0,0,0,-1,531,911,0,0
-686,113,0,0,0,0,0,0,0,0,0,-1,538,911,0,0
-679,113,-6.20801,0.389832,0,0,0,0,0,0,0,-1,545,911,-6.20802,-0.389818
-672,113,-4.56982,-5.00391,0,0,0,0,0,0,0,-1,552,911,-4.56982,5.00389
-665,113,-1.06665,-0.35614,0,0,0,0,0,0,0,-1,559,911,-1.06663,0.356156
-658,113,-0.843628,-0.220947,0.0428022,0.0379237,0.0138208,0.0543974,0.0263286,0.698052,0.0314117,0.0455114,566,911,-0.843609,0.22096
-651,113,-0.542664,-0.074646,0.0296298,0.0271083,0.0112059,0.0396457,0.0170924,0.729379,0.0229617,0.0484224,573,911,-0.542678,0.0746356
-644,113,-0.266052,0.0195923,0.0195452,0.0184978,0.00891292,0.0279498,0.0100932,0.756052,0.016343,0.043741,580,911,-0.26603,-0.0196114
-637,113,-0.0639648,0.0429688,0.0121733,0.0119747,0.00697904,0.0190538,0.00509429,0.778285,0.0113907,0.0325067,587,911,-0.0639591,-0.0429696
-630,113,-0.0501709,0.0524902,0.0063484,0.00724664,0.00650947,0.0133225,0.000272571,0.819841,0.0087922,0.0145301,594,911,-0.050165,-0.0524795
-623,113,-0.0286255,0.0631714,0.00238464,0.00348228,0.00485083,0.00781523,-0.00194832,0.841728,0.00596659,0.00939756,601,911,-0.0285961,-0.0631662
-616,113,-0.0264893,0.0778809,0.000447932,0.000943479,0.00290449,0.00361075,-0.00221934,0.827949,0.0033978,0.00878145,608,911,-0.0264668,-0.0779021
-609,113,-0.0338135,0.0859985,-0.00049789,-8.47253e-05,0.0016633,0.00138477,-0.00196739,0.847182,0.00194509,0.010235,615,911,-0.0338172,-0.0859951
-602,113,-0.0493774,0.0899048,-0.000646129,-0.000434675,0.0016177,0.00108075,-0.00216155,0.81803,0.00190629,0.0129881,622,911,-0.0493849,-0.0898905
-595,113,-0.017395,0.0825806,-0.000590022,-0.000392769,0.00111753,0.00063048,-0.00161327,0.829411,0.00133621,0.0154297,629,911,-0.0174208,-0.0825968
-588,113,-0.026001,0.0803223,-0.000355798,-0.000135979,0.000635311,0.000398859,-0.000890637,0.871051,0.000762324,0.0161463,636,911,-0.0259787,-0.0803025
-581,113,-0.0445557,0.0890503,-0.000187833,4.99942e-05,0.000303702,0.000257233,-0.000395072,0.971997,0.000379401,0.0175594,643,911,-0.0445295,-0.0890421
-574,113,-0.0380859,0.0806885,6.16314e-05,0.000282585,-5.73078e-05,0.000296564,4.76521e-05,-1.33154,0.000183895,0.0157364,650,911,-0.0381051,-0.0806679
-567,113,-0.0266724,0.0600586,0.00029611,0.000444417,-0.000317154,0.000695971,4.45557e-05,-0.900239,0.000449865,0.0282108,657,911,-0.0266507,-0.060038
-560,113,-0.0151367,0.119995,0.00056671,0.000811098,-0.000562294,0.00126432,0.000113487,-0.892391,0.000807714,0.040712,664,911,-0.0151168,-0.11998
-553,113,-0.0020752,0.165955,0.0008237,0.00110502,-0.000835462,0.00181158,0.000117141,-0.868798,0.00117063,0.0369479,671,911,-0.00209036,-0.165949
-546,113,-0.0126953,0.174011,0.00122552,0.00153166,-0.00119288,0.00258125,0.000175935,-0.84921,0.00166529,0.0310985,678,911,-0.0127253,-0.174034
-539,113,-0.0509033,0.140686,0.00180676,0.00209399,-0.00167277,0.00362929,0.000271454,-0.82822,0.00233431,0.0306975,685,911,-0.0508883,-0.140658
-532,113,-0.109131,0.086731,0.00261472,0.00282795,-0.00228176,0.00500558,0.000437084,-0.808744,0.00320132,0.033032,692,911,-0.109114,-0.086737
-525,113,-0.0770874,-0.0863647,0.00362913,0.003775,-0.00305808,0.00676102,0.000643113,-0.79732,0.004309,0.0337081,699,911,-0.0770719,0.086374
-518,113,0.0360718,-0.245117,0.00493898,0.00500038,-0.0040231,0.0089929,0.000946463,-0.789214,0.00570601,0.0375841,706,911,0.0360425,0.24512
-511,113,0.0586548,-0.344299,0.00677214,0.00664098,-0.00519176,0.0118987,0.00151439,-0.779083,0.00747897,0.039628,713,911,0.0586669,0.344324
-504,113,0,0,0,0,0,0,0,0,0,-1,720,911,0,0
-497,113,0,0,0,0,0,0,0,0,0,-1,727,911,0,0
-490,113,0,0,0,0,0,0,0,0,0,-1,734,911,0,0
-483,113,0,0,0,0,0,0,0,0,0,-1,741,911,0,0
-476,113,0,0,0,0,0,0,0,0,0,-1,748,911,0,0
-469,113,0,0,0,0,0,0,0,0,0,-1,755,911,0,0
-462,113,0,0,0,0,0,0,0,0,0,-1,762,911,0,0
-455,113,0,0,0,0,0,0,0,0,0,-1,769,911,0,0
-448,113,0,0,0,0,0,0,0,0,0,-1,776,911,0,0
-441,113,0,0,0,0,0,0,0,0,0,-1,783,911,0,0
-434,113,0,0,0,0,0,0,0,0,0,-1,790,911,0,0
-427,113,0,0,0,0,0,0,0,0,0,-1,797,911,0,0
-420,113,0,0,0,0,0,0,0,0,0,-1,804,911,0,0
-413,113,0,0,0,0,0,0,0,0,0,-1,811,911,0,0
-406,113,0,0,0,0,0,0,0,0,0,-1,818,911,0,0
-399,113,0,0,0,0,0,0,0,0,0,-1,825,911,0,0
-392,113,0,0,0,0,0,0,0,0,0,-1,832,911,0,0
-385,113,0,0,0,0,0,0,0,0,0,-1,839,911,0,0
-378,113,0,0,0,0,0,0,0,0,0,-1,846,911,0,0
-371,113,0,0,0,0,0,0,0,0,0,-1,853,911,0,0
-364,113,0,0,0,0,0,0,0,0,0,-1,860,911,0,0
-357,113,0,0,0,0,0,0,0,0,0,-1,867,911,0,0
-350,113,0,0,0,0,0,0,0,0,0,-1,874,911,0,0
-343,113,0,0,0,0,0,0,0,0,0,-1,881,911,0,0
-336,113,0,0,0,0,0,0,0,0,0,-1,888,911,0,0
-329,113,0,0,0,0,0,0,0,0,0,-1,895,911,0,0
-322,113,0,0,0,0,0,0,0,0,0,-1,902,911,0,0
-315,113,0,0,0,0,0,0,0,0,0,-1,909,911,0,0
-308,113,0,0,0,0,0,0,0,0,0,-1,916,911,0,0
-301,113,0,0,0,0,0,0,0,0,0,-1,923,911,0,0
-294,113,0,0,0,0,0,0,0,0,0,-1,930,911,0,0
-287,113,0,0,0,0,0,0,0,0,0,-1,937,911,0,0
-280,113,0,0,0,0,0,0,0,0,0,-1,944,911,0,0
-273,113,0,0,0,0,0,0,0,0,0,-1,951,911,0,0
-266,113,0,0,0,0,0,0,0,0,0,-1,958,911,0,0
-259,113,0,0,0,0,0,0,0,0,0,-1,965,911,0,0
-252,113,0,0,0,0,0,0,0,0,0,-1,972,911,0,0
-245,113,0,0,0,0,0,0,0,0,0,-1,979,911,0,0
-238,113,0,0,0,0,0,0,0,0,0,-1,986,911,0,0
-231,113,0,0,0,0,0,0,0,0,0,-1,993,911,0,0
-224,113,0,0,0,0,0,0,0,0,0,-1,1000,911,0,0
-217,113,0,0,0,0,0,0,0,0,0,-1,1007,911,0,0
-210,113,0,0,0,0,0,0,0,0,0,-1,1014,911,0,0
-203,113,0,0,0,0,0,0,0,0,0,-1,1021,911,0,0
-196,113,0,0,0,0,0,0,0,0,0,-1,1028,911,0,0
-189,113,0,0,0,0,0,0,0,0,0,-1,1035,911,0,0
-182,113,0,0,0,0,0,0,0,0,0,-1,1042,911,0,0
-175,113,0,0,0,0,0,0,0,0,0,-1,1049,911,0,0
-168,113,0,0,0,0,0,0,0,0,0,-1,1056,911,0,0
-161,113,0,0,0,0,0,0,0,0,0,-1,1063,911,0,0
-154,113,0,0,0,0,0,0,0,0,0,-1,1070,911,0,0
-147,113,0,0,0,0,0,0,0,0,0,-1,1077,911,0,0
-140,113,0,0,0,0,0,0,0,0,0,-1,1084,911,0,0
-133,113,0,0,0,0,0,0,0,0,0,-1,1091,911,0,0
-126,113,0,0,0,0,0,0,0,0,0,-1,1098,911,0,0
-119,113,0,0,0,0,0,0,0,0,0,-1,1105,911,0,0
-112,113,0,0,0,0,0,0,0,0,0,-1,1112,911,0,0
-105,113,0,0,0,0,0,0,0,0,0,-1,1119,911,0,0
-98,113,0,0,0,0,0,0,0,0,0,-1,1126,911,0,0
-91,113,0,0,0,0,0,0,0,0,0,-1,1133,911,0,0
-84,113,0,0,0,0,0,0,0,0,0,-1,1140,911,0,0
-77,113,0,0,0,0,0,0,0,0,0,-1,1147,911,0,0
-70,113,0,0,0,0,0,0,0,0,0,-1,1154,911,0,0
-63,113,0,0,0,0,0,0,0,0,0,-1,1161,911,0,0
-56,113,0,0,0,0,0,0,0,0,0,-1,1168,911,0,0
-49,113,0,0,0,0,0,0,0,0,0,-1,1175,911,0,0
-42,113,0,0,0,0,0,0,0,0,0,-1,1182,911,0,0
-35,113,0,0,0,0,0,0,0,0,0,-1,1189,911,0,0
-28,113,0,0,0,0,0,0,0,0,0,-1,1196,911,0,0
-21,113,0,0,0,0,0,0,0,0,0,-1,1203,911,0,0
-14,113,0,0,0,0,0,0,0,0,0,-1,1210,911,0,0
-7,113,0,0,0,0,0,0,0,0,0,-1,1217,911,0,0
0,113,0,0,0,0,0,0,0,0,0,-1,1224,911,0,0
7,113,0,0,0,0,0,0,0,0,0,-1,1231,911,0,0
14,113,0,0,0,0,0,0,0,0,0,-1,1238,911,0,0
21,113,0,0,0,0,0,0,0,0,0,-1,1245,911,0,0
28,113,0,0,0,0,0,0,0,0,0,-1,1252,911,0,0
35,113,0,0,0,0,0,0,0,0,0,-1,1259,911,0,0
42,113,0,0,0,0,0,0,0,0,0,-1,1266,911,0,0
49,113,0,0,0,0,0,0,0,0,0,-1,1273,911,0,0
56,113,0,0,0,0,0,0,0,0,0,-1,1280,911,0,0
63,113,0,0,0,0,0,0,0,0,0,-1,1287,911,0,0
70,113,0,0,0,0,0,0,0,0,0,-1,1294,911,0,0
77,113,0,0,0,0,0,0,0,0,0,-1,1301,911,0,0
84,113,0,0,0,0,0,0,0,0,0,-1,1308,911,0,0
91,113,0,0,0,0,0,0,0,0,0,-1,1315,911,0,0
98,113,0,0,0,0,0,0,0,0,0,-1,1322,911,0,0
105,113,0,0,0,0,0,0,0,0,0,-1,1329,911,0,0
112,113,0,0,0,0,0,0,0,0,0,-1,1336,911,0,0
119,113,0,0,0,0,0,0,0,0,0,-1,1343,911,0,0
126,113,0,0,0,0,0,0,0,0,0,-1,1350,911,0,0
133,113,0,0,0,0,0,0,0,0,0,-1,1357,911,0,0
140,113,0,0,0,0,0,0,0,0,0,-1,1364,911,0,0
147,113,0,0,0,0,0,0,0,0,0,-1,1371,911,0,0
154,113,0,0,0,0,0,0,0,0,0,-1,1378,911,0,0
161,113,0,0,0,0,0,0,0,0,0,-1,1385,911,0,0
168,113,0,0,0,0,0,0,0,0,0,-1,1392,911,0,0
175,113,0,0,0,0,0,0,0,0,0,-1,1399,911,0,0
182,113,0,0,0,0,0,0,0,0,0,-1,1406,911,0,0
189,113,0,0,0,0,0,0,0,0,0,-1,1413,911,0,0
196,113,0,0,0,0,0,0,0,0,0,-1,1420,911,0,0
203,113,0,0,0,0,0,0,0,0,0,-1,1427,911,0,0
210,113,0,0,0,0,0,0,0,0,0,-1,1434,911,0,0
217,113,0,0,0,0,0,0,0,0,0,-1,1441,911,0,0
224,113,0,0,0,0,0,0,0,0,0,-1,1448,911,0,0
231,113,0,0,0,0,0,0,0,0,0,-1,1455,911,0,0
238,113,0,0,0,0,0,0,0,0,0,-1,1462,911,0,0
245,113,0,0,0,0,0,0,0,0,0,-1,1469,911,0,0
252,113,0,0,0,0,0,0,0,0,0,-1,1476,911,0,0
259,113,0,0,0,0,0,0,0,0,0,-1,1483,911,0,0
266,113,0,0,0,0,0,0,0,0,0,-1,1490,911,0,0
273,113,0,0,0,0,0,0,0,0,0,-1,1497,911,0,0
280,113,0,0,0,0,0,0,0,0,0,-1,1504,911,0,0
287,113,0,0,0,0,0,0,0,0,0,-1,1511,911,0,0
294,113,0,0,0,0,0,0,0,0,0,-1,1518,911,0,0
301,113,0,0,0,0,0,0,0,0,0,-1,1525,911,0,0
308,113,0,0,0,0,0,0,0,0,0,-1,1532,911,0,0
315,113,0,0,0,0,0,0,0,0,0,-1,1539,911,0,0
322,113,0,0,0,0,0,0,0,0,0,-1,1546,911,0,0
329,113,0,0,0,0,0,0,0,0,0,-1,1553,911,0,0
336,113,0,0,0,0,0,0,0,0,0,-1,1560,911,0,0
343,113,0,0,0,0,0,0,0,0,0,-1,1567,911,0,0
350,113,0,0,0,0,0,0,0,0,0,-1,1574,911,0,0
357,113,0,0,0,0,0,0,0,0,0,-1,1581,911,0,0
364,113,0,0,0,0,0,0,0,0,0,-1,1588,911,0,0
371,113,0,0,0,0,0,0,0,0,0,-1,1595,911,0,0
378,113,0,0,0,0,0,0,0,0,0,-1,1602,911,0,0
385,113,0,0,0,0,0,0,0,0,0,-1,1609,911,0,0
392,113,0,0,0,0,0,0,0,0,0,-1,1616,911,0,0
399,113,0,0,0,0,0,0,0,0,0,-1,1623,911,0,0
406,113,0,0,0,0,0,0,0,0,0,-1,1630,911,0,0
413,113,0,0,0,0,0,0,0,0,0,-1,1637,911,0,0
420,113,0,0,0,0,0,0,0,0,0,-1,1644,911,0,0
427,113,0,0,0,0,0,0,0,0,0,-1,1651,911,0,0
434,113,0,0,0,0,0,0,0,0,0,-1,1658,911,0,0
441,113,0,0,0,0,0,0,0,0,0,-1,1665,911,0,0
448,113,0,0,0,0,0,0,0,0,0,-1,1672,911,0,0
455,113,0,0,0,0,0,0,0,0,0,-1,1679,911,0,0
462,113,0,0,0,0,0,0,0,0,0,-1,1686,911,0,0
469,113,0,0,0,0,0,0,0,0,0,-1,1693,911,0,0
476,113,0,0,0,0,0,0,0,0,0,-1,1700,911,0,0
483,113,0,0,0,0,0,0,0,0,0,-1,1707,911,0,0
490,113,0,0,0,0,0,0,0,0,0,-1,1714,911,0,0
497,113,0,0,0,0,0,0,0,0,0,-1,1721,911,0,0
504,113,0,0,0,0,0,0,0,0,0,-1,1728,911,0,0
511,113,0,0,0,0,0,0,0,0,0,-1,1735,911,0,0
518,113,0,0,0,0,0,0,0,0,0,-1,1742,911,0,0
525,113,0,0,0,0,0,0,0,0,0,-1,1749,911,0,0
532,113,0,0,0,0,0,0,0,0,0,-1,1756,911,0,0
539,113,0,0,0,0,0,0,0,0,0,-1,1763,911,0,0
546,113,0,0,0,0,0,0,0,0,0,-1,1770,911,0,0
553,113,0,0,0,0,0,0,0,0,0,-1,1777,911,0,0
560,113,0,0,0,0,0,0,0,0,0,-1,1784,911,0,0
567,113,0,0,0,0,0,0,0,0,0,-1,1791,911,0,0
574,113,0,0,0,0,0,0,0,0,0,-1,1798,911,0,0
581,113,0,0,0,0,0,0,0,0,0,-1,1805,911,0,0
588,113,0,0,0,0,0,0,0,0,0,-1,1812,911,0,0
595,113,0,0,0,0,0,0,0,0,0,-1,1819,911,0,0
602,113,0,0,0,0,0,0,0,0,0,-1,1826,911,0,0
609,113,0,0,0,0,0,0,0,0,0,-1,1833,911,0,0
616,113,0,0,0,0,0,0,0,0,0,-1,1840,911,0,0
623,113,0,0,0,0,0,0,0,0,0,-1,1847,911,0,0
630,113,-0.130493,0.211731,0.00166849,0.00171628,-0.001082,0.00277465,0.000610124,-0.796437,0.00168365,0.0358593,1854,911,-0.130457,-0.211702
637,113,-0.122437,0.344788,0.00103482,0.0012786,-0.000693404,0.00186075,0.000452678,-0.872402,0.00112051,0.0360673,1861,911,-0.122456,-0.344781
644,113,-0.0407715,0.165588,0.00057524,0.000959593,-0.000460678,0.00126657,0.000268261,-0.983003,0.000770684,0.0347761,1868,911,-0.0408125,-0.165567
651,113,0.156616,-0.0135498,0.000208135,0.000739139,-0.000303731,0.000877052,7.02216e-05,-1.14457,0.000562756,0.0366053,1875,911,0.156634,0.0135529
658,113,0.124023,0.0214233,-5.33005e-05,0.00057865,-0.000201423,0.00063739,-0.000112041,-1.28704,0.000466777,0.0356476,1882,911,0.124038,-0.0214492
665,113,-0.0390625,0.0414429,-0.000221771,0.000449349,-0.000137661,0.000476488,-0.000248911,-1.37614,0.000425624,0.0316283,1889,911,-0.0390788,-0.0414564
672,113,-0.0675049,0.0535889,-0.000304741,0.000334428,-0.000100175,0.00034976,-0.000320074,-1.41892,0.000386855,0.0305475,1896,911,-0.067478,-0.0535614
679,113,-0.0715332,0.0722656,-0.000313825,0.00025414,-3.28392e-05,0.000256033,-0.000315717,-1.51323,0.000330699,0.0265373,1903,911,-0.0715811,-0.0722395
686,113,-0.0605469,0.041687,-0.000281595,0.000165138,-5.04279e-05,0.00017076,-0.000287217,-1.45978,0.000267247,0.0179999,1910,911,-0.0605882,-0.0417077
693,113,-0.0297852,0.0395508,-0.000290157,0.000131651,-2.89768e-05,0.000133633,-0.000292138,-1.50253,0.000251433,0.0167845,1917,911,-0.0297861,-0.0395513
700,113,-0.0209961,0.0623779,-0.000351427,9.00959e-05,3.81839e-05,9.33738e-05,-0.000354705,1.48516,0.000272971,0.0165114,1924,911,-0.0209951,-0.0623869
707,113,-0.0257568,0.0742798,-0.000267716,3.96159e-05,2.9665e-05,4.24531e-05,-0.000270553,1.47545,0.000196058,0.0149886,1931,911,-0.0257523,-0.0742994
714,113,-0.0310059,0.0643921,-1.64277e-05,3.54816e-05,-6.33299e-05,7.7969e-05,-5.89151e-05,-0.979875,7.92849e-05,0.0143939,1938,911,-0.0310519,-0.0643857
721,113,-0.0441895,0.0768433,7.07393e-05,0.00020678,-0.00011022,0.000268279,9.24087e-06,-1.06186,0.000175853,0.0141728,1945,911,-0.0441841,-0.0768138
728,113,-0.0391846,0.0891113,0.000218203,0.000464315,-5.57812e-05,0.000476367,0.00020615,-1.358,0.000275859,0.0147003,1952,911,-0.0391874,-0.0890996
735,113,-0.038208,0.0946045,0.000581121,0.000603601,2.3554e-05,0.000618459,0.000566262,1.00802,0.000396055,0.0144551,1959,911,-0.0381916,-0.0946237
742,113,-0.0360107,0.0874634,0.00123472,0.000667994,0.000344247,0.00139723,0.000505486,0.441053,0.000816899,0.011575,1966,911,-0.0360349,-0.0874723
749,113,-0.0498047,0.0864258,0.00204128,-2.42137e-05,0.0011078,0.00252305,-0.000505989,0.410222,0.00187361,0.00905625,1973,911,-0.04978,-0.0864166
756,113,-0.052002,0.069397,0.00292337,-0.000485351,0.00211527,0.00393548,-0.00149746,0.446282,0.00324028,0.0106234,1980,911,-0.0520475,-0.0694009
763,113,-0.0556641,0.0626831,0.00422838,-0.00138961,0.00356094,0.00595489,-0.00311611,0.45145,0.00532195,0.0182121,1987,911,-0.0556055,-0.0626923
770,113,-0.0577393,0.0358887,0.00587739,-0.00301227,0.00578522,0.00872813,-0.00586301,0.457841,0.00847816,0.0396789,1994,911,-0.0577661,-0.0358827
777,113,-0.0686035,0.012085,0,0,0,0,0,0,0,-1,2001,911,-0.0686168,-0.0121135
784,113,-0.0308838,0.0114746,0,0,0,0,0,0,0,-1,2008,911,-0.0308967,-0.0114837
791,113,-0.206543,0.209656,0,0,0,0,0,0,0,-1,2015,911,-0.206492,-0.209659
798,113,0.980225,-0.641968,0,0,0,0,0,0,0,-1,2022,911,0.980272,0.641987
805,113,0,0,0,0,0,0,0,0,0,-1,2029,911,0,0
812,113,0,0,0,0,0,0,0,0,0,-1,2036,911,0,0
-700,106,0,0,0,0,0,0,0,0,0,-1,524,918,0,0
-693,106,0,0,0,0,0,0,0,0,0,-1,531,918,0,0
-686,106,0,0,0,0,0,0,0,0,0,-1,538,918,0,0
-679,106,-5.13983,0.184875,0,0,0,0,0,0,0,-1,545,918,-5.13983,-0.184903
-672,106,-4.52808,-0.482239,0,0,0,0,0,0,0,-1,552,918,-4.52811,0.482243
-665,106,0.177795,-0.362854,0.0506643,0.043781,-9.64035e-05,0.0506656,0.0437797,-0.0140019,0.0317318,0.047182,559,918,0.177818,0.362878
-658,106,0.0723877,-0.363342,0.0367755,0.033075,0.00122074,0.0371419,0.0327086,0.291609,0.0234238,0.0441949,566,918,0.072384,0.36336
-651,106,-0.0457153,-0.300293,0.0258144,0.0240658,0.00195594,0.0270826,0.0227977,0.575225,0.0168098,0.04396,573,918,-0.0457181,0.30029
-644,106,-0.17157,-0.0319214,0.0174529,0.0167751,0.00229596,0.0194348,0.0147932,0.712131,0.0117198,0.0416111,580,918,-0.171587,0.0319332
-637,106,-0.110107,0.0687256,0.0113085,0.0111434,0.00235847,0.0135859,0.00886607,0.767903,0.00796465,0.0269186,587,918,-0.110124,-0.0687526
-630,106,-0.0581665,0.0644531,0.00617851,0.00691595,0.00348683,0.0100535,0.00304096,0.838076,0.00595345,0.0106085,594,918,-0.0581757,-0.064462
-623,106,-0.0314941,0.0686646,0.00279182,0.00358631,0.00301768,0.00623278,0.000145349,0.850841,0.00410759,0.00866737,601,918,-0.0315065,-0.068652
-616,106,-0.0297241,0.076355,0.00128096,0.00127192,0.00185833,0.00313477,-0.000581891,0.784183,0.00230839,0.00906024,608,918,-0.0296954,-0.076334
-609,106,-0.0374756,0.0759277,0.000351908,0.000220524,0.00102173,0.00131005,-0.000737621,0.753295,0.00119753,0.00961602,615,918,-0.0374866,-0.0759512
-602,106,-0.0174561,0.0680542,-2.00332e-05,-0.000246796,0.00114659,0.00101877,-0.0012856,0.736116,0.00133339,0.0103993,622,918,-0.017426,-0.0680346
-595,106,-0.0389404,0.0841064,-0.000167537,-0.000254193,0.000793057,0.000583375,-0.0010051,0.758108,0.00092782,0.0131398,629,918,-0.0389286,-0.0841228
-588,106,-0.0571899,0.0856934,-7.00953e-05,-1.15941e-05,0.000400009,0.000360232,-0.000441922,0.821896,0.000463924,0.0143619,636,918,-0.0571835,-0.085715
-581,106,-0.0542603,0.0913086,3.47323e-05,0.000172651,0.000125135,0.00024657,-3.9186e-05,1.03724,0.000178878,0.0138692,643,918,-0.0542452,-0.0912862
-574,106,-0.0352173,0.0866089,0.000161679,0.000388843,-0.000161934,0.000473058,7.74643e-05,-1.09123,0.000292984,0.0132616,650,918,-0.0352424,-0.0865933
-567,106,-0.013916,0.0697632,0.000332844,0.000553038,-0.000419573,0.000876718,9.16334e-06,-0.913707,0.000581448,0.0236193,657,918,-0.0139223,-0.0697641
-560,106,0.0186157,0.0901489,0.000604061,0.000905947,-0.000695189,0.00146639,4.36165e-05,-0.892301,0.000963384,0.033626,664,918,0.0186335,-0.0901315
-553,106,-0.0108032,0.161194,0.000877769,0.00119006,-0.0010139,0.00205977,8.06118e-06,-0.8618,0.0013705,0.0333515,671,918,-0.0108127,-0.161181
-546,106,-0.10083,0.0953369,0.0013005,0.00158684,-0.00143458,0.00288537,1.96858e-06,-0.835134,0.00192293,0.0333295,678,918,-0.100819,-0.0953434
-539,106,-0.157776,0.0281372,0.00192781,0.00210609,-0.0019907,0.00400964,2.42523e-05,-0.807773,0.00266505,0.0354379,685,918,-0.157769,-0.0281556
-532,106,-0.0175781,0.0767212,0.00280497,0.00278362,-0.00269816,0.00549248,9.61123e-05,-0.78342,0.00363004,0.0360633,692,918,-0.0175663,-0.0766929
-525,106,0.0495605,-0.0437012,0.00392706,0.0036617,-0.00360656,0.00740338,0.000185385,-0.767012,0.00487497,0.0334529,699,918,0.0495585,0.0436742
-518,106,0.09375,-0.340759,0.00540537,0.00481835,-0.00476148,0.00988238,0.000341341,-0.754616,0.00647747,0.0365852,706,918,0.0937531,0.34074
-511,106,0,0,0,0,0,0,0,0,0,-1,713,918,0,0
-504,106,0,0,0,0,0,0,0,0,0,-1,720,918,0,0
-497,106,0,0,0,0,0,0,0,0,0,-1,727,918,0,0
-490,106,0,0,0,0,0,0,0,0,0,-1,734,918,0,0
-483,106,0,0,0,0,0,0,0,0,0,-1,741,918,0,0
-476,106,0,0,0,0,0,0,0,0,0,-1,748,918,0,0
-469,106,0,0,0,0,0,0,0,0,0,-1,755,918,0,0
-462,106,0,0,0,0,0,0,0,0,0,-1,762,918,0,0
-455,106,0,0,0,0,0,0,0,0,0,-1,769,918,0,0
-448,106,0,0,0,0,0,0,0,0,0,-1,776,918,0,0
-441,106,0,0,0,0,0,0,0,0,0,-1,783,918,0,0
-434,106,0,0,0,0,0,0,0,0,0,-1,790,918,0,0
-427,106,0,0,0,0,0,0,0,0,0,-1,797,918,0,0
-420,106,0,0,0,0,0,0,0,0,0,-1,804,918,0,0
-413,106,0,0,0,0,0,0,0,0,0,-1,811,918,0,0
-406,106,0,0,0,0,0,0,0,0,0,-1,818,918,0,0
-399,106,0,0,0,0,0,0,0,0,0,-1,825,918,0,0
-392,106,0,0,0,0,0,0,0,0,0,-1,832,918,0,0
-385,106,0,0,0,0,0,0,0,0,0,-1,839,918,0,0
-378,106,0,0,0,0,0,0,0,0,0,-1,846,918,0,0
-371,106,0,0,0,0,0,0,0,0,0,-1,853,918,0,0
-364,106,0,0,0,0,0,0,0,0,0,-1,860,918,0,0
-357,106,0,0,0,0,0,0,0,0,0,-1,867,918,0,0
-350,106,0,0,0,0,0,0,0,0,0,-1,874,918,0,0
-343,106,0,0,0,0,0,0,0,0,0,-1,881,918,0,0
-336,106,0,0,0,0,0,0,0,0,0,-1,888,918,0,0
-329,106,0,0,0,0,0,0,0,0,0,-1,895,918,0,0
-322,106,0,0,0,0,0,0,0,0,0,-1,902,918,0,0
-315,106,0,0,0,0,0,0,0,0,0,-1,909,918,0,0
-308,106,0,0,0,0,0,0,0,0,0,-1,916,918,0,0
-301,106,0,0,0,0,0,0,0,0,0,-1,923,918,0,0
-294,106,0,0,0,0,0,0,0,0,0,-1,930,918,0,0
-287,106,0,0,0,0,0,0,0,0,0,-1,937,918,0,0
-280,106,0,0,0,0,0,0,0,0,0,-1,944,918,0,0
-273,106,0,0,0,0,0,0,0,0,0,-1,951,918,0,0
-266,106,0,0,0,0,0,0,0,0,0,-1,958,918,0,0
-259,106,0,0,0,0,0,0,0,0,0,-1,965,918,0,0
-252,106,0,0,0,0,0,0,0,0,0,-1,972,918,0,0
-245,106,0,0,0,0,0,0,0,0,0,-1,979,918,0,0
-238,106,0,0,0,0,0,0,0,0,0,-1,986,918,0,0
-231,106,0,0,0,0,0,0,0,0,0,-1,993,918,0,0
-224,106,0,0,0,0,0,0,0,0,0,-1,1000,918,0,0
-217,106,0,0,0,0,0,0,0,0,0,-1,1007,918,0,0
-210,106,0,0,0,0,0,0,0,0,0,-1,1014,918,0,0
-203,106,0,0,0,0,0,0,0,0,0,-1,1021,918,0,0
-196,106,0,0,0,0,0,0,0,0,0,-1,1028,918,0,0
-189,106,0,0,0,0,0,0,0,0,0,-1,1035,918,0,0
-182,106,0,0,0,0,0,0,0,0,0,-1,1042,918,0,0
-175,106,0,0,0,0,0,0,0,0,0,-1,1049,918,0,0
-168,106,0,0,0,0,0,0,0,0,0,-1,1056,918,0,0
-161,106,0,0,0,0,0,0,0,0,0,-1,1063,918,0,0
-154,106,0,0,0,0,0,0,0,0,0,-1,1070,918,0,0
-147,106,0,0,0,0,0,0,0,0,0,-1,1077,918,0,0
-140,106,0,0,0,0,0,0,0,0,0,-1,1084,918,0,0
-133,106,0,0,0,0,0,0,0,0,0,-1,1091,918,0,0
-126,106,0,0,0,0,0,0,0,0,0,-1,1098,918,0,0
-119,106,0,0,0,0,0,0,0,0,0,-1,1105,918,0,0
-112,106,0,0,0,0,0,0,0,0,0,-1,1112,918,0,0
-105,106,0,0,0,0,0,0,0,0,0,-1,1119,918,0,0
-98,106,0,0,0,0,0,0,0,0,0,-1,1126,918,0,0
-91,106,0,0,0,0,0,0,0,0,0,-1,1133,918,0,0
-84,106,0,0,0,0,0,0,0,0,0,-1,1140,918,0,0
-77,106,0,0,0,0,0,0,0,0,0,-1,1147,918,0,0
-70,106,0,0,0,0,0,0,0,0,0,-1,1154,918,0,0
-63,106,0,0,0,0,0,0,0,0,0,-1,1161,918,0,0
-56,106,0,0,0,0,0,0,0,0,0,-1,1168,918,0,0
-49,106,0,0,0,0,0,0,0,0,0,-1,1175,918,0,0
-42,106,0,0,0,0,0,0,0,0,0,-1,1182,918,0,0
-35,106,0,0,0,0,0,0,0,0,0,-1,1189,918,0,0
-28,106,0,0,0,0,0,0,0,0,0,-1,1196,918,0,0
-21,106,0,0,0,0,0,0,0,0,0,-1,1203,918,0,0
-14,106,0,0,0,0,0,0,0,0,0,-1,1210,918,0,0
-7,106,0,0,0,0,0,0,0,0,0,-1,1217,918,0,0
0,106,0,0,0,0,0,0,0,0,0,-1,1224,918,0,0
7,106,0,0,0,0,0,0,0,0,0,-1,1231,918,0,0
14,106,0,0,0,0,0,0,0,0,0,-1,1238,918,0,0
21,106,0,0,0,0,0,0,0,0,0,-1,1245,918,0,0
28,106,0,0,0,0,0,0,0,0,0,-1,1252,918,0,0
35,106,0,0,0,0,0,0,0,0,0,-1,1259,918,0,0
42,106,0,0,0,0,0,0,0,0,0,-1,1266,918,0,0
49,106,0,0,0,0,0,0,0,0,0,-1,1273,918,0,0
56,106,0,0,0,0,0,0,0,0,0,-1,1280,918,0,0
63,106,0,0,0,0,0,0,0,0,0,-1,1287,918,0,0
70,106,0,0,0,0,0,0,0,0,0,-1,1294,918,0,0
77,106,0,0,0,0,0,0,0,0,0,-1,1301,918,0,0
84,106,0,0,0,0,0,0,0,0,0,-1,1308,918,0,0
91,106,0,0,0,0,0,0,0,0,0,-1,1315,918,0,0
98,106,0,0,0,0,0,0,0,0,0,-1,1322,918,0,0
105,106,0,0,0,0,0,0,0,0,0,-1,1329,918,0,0
112,106,0,0,0,0,0,0,0,0,0,-1,1336,918,0,0
119,106,0,0,0,0,0,0,0,0,0,-1,1343,918,0,0
126,106,0,0,0,0,0,0,0,0,0,-1,1350,918,0,0
133,106,0,0,0,0,0,0,0,0,0,-1,1357,918,0,0
140,106,0,0,0,0,0,0,0,0,0,-1,1364,918,0,0
147,106,0,0,0,0,0,0,0,0,0,-1,1371,918,0,0
154,106,0,0,0,0,0,0,0,0,0,-1,1378,918,0,0
161,106,0,0,0,0,0,0,0,0,0,-1,1385,918,0,0
168,106,0,0,0,0,0,0,0,0,0,-1,1392,918,0,0
175,106,0,0,0,0,0,0,0,0,0,-1,1399,918,0,0
182,106,0,0,0,0,0,0,0,0,0,-1,1406,918,0,0
189,106,0,0,0,0,0,0,0,0,0,-1,1413,918,0,0
196,106,0,0,0,0,0,0,0,0,0,-1,1420,918,0,0
203,106,0,0,0,0,0,0,0,0,0,-1,1427,918,0,0
210,106,0,0,0,0,0,0,0,0,0,-1,1434,918,0,0
217,106,0,0,0,0,0,0,0,0,0,-1,1441,918,0,0
224,106,0,0,0,0,0,0,0,0,0,-1,1448,918,0,0
231,106,0,0,0,0,0,0,0,0,0,-1,1455,918,0,0
238,106,0,0,0,0,0,0,0,0,0,-1,1462,918,0,0
245,106,0,0,0,0,0,0,0,0,0,-1,1469,918,0,0
252,106,0,0,0,0,0,0,0,0,0,-1,1476,918,0,0
259,106,0,0,0,0,0,0,0,0,0,-1,1483,918,0,0
266,106,0,0,0,0,0,0,0,0,0,-1,1490,918,0,0
273,106,0,0,0,0,0,0,0,0,0,-1,1497,918,0,0
280,106,0,0,0,0,0,0,0,0,0,-1,1504,918,0,0
287,106,0,0,0,0,0,0,0,0,0,-1,1511,918,0,0
294,106,0,0,0,0,0,0,0,0,0,-1,1518,918,0,0
301,106,0,0,0,0,0,0,0,0,0,-1,1525,918,0,0
308,106,0,0,0,0,0,0,0,0,0,-1,1532,918,0,0
315,106,0,0,0,0,0,0,0,0,0,-1,1539,918,0,0
322,106,0,0,0,0,0,0,0,0,0,-1,1546,918,0,0
329,106,0,0,0,0,0,0,0,0,0,-1,1553,918,0,0
336,106,0,0,0,0,0,0,0,0,0,-1,1560,918,0,0
343,106,0,0,0,0,0,0,0,0,0,-1,1567,918,0,0
350,106,0,0,0,0,0,0,0,0,0,-1,1574,918,0,0
357,106,0,0,0,0,0,0,0,0,0,-1,1581,918,0,0
364,106,0,0,0,0,0,0,0,0,0,-1,1588,918,0,0
371,106,0,0,0,0,0,0,0,0,0,-1,1595,918,0,0
378,106,0,0,0,0,0,0,0,0,0,-1,1602,918,0,0
385,106,0,0,0,0,0,0,0,0,0,-1,1609,918,0,0
392,106,0,0,0,0,0,0,0,0,0,-1,1616,918,0,0
399,106,0,0,0,0,0,0,0,0,0,-1,1623,918,0,0
406,106,0,0,0,0,0,0,0,0,0,-1,1630,918,0,0
413,106,0,0,0,0,0,0,0,0,0,-1,1637,918,0,0
420,106,0,0,0,0,0,0,0,0,0,-1,1644,918,0,0
427,106,0,0,0,0,0,0,0,0,0,-1,1651,918,0,0
434,106,0,0,0,0,0,0,0,0,0,-1,1658,918,0,0
441,106,0,0,0,0,0,0,0,0,0,-1,1665,918,0,0
448,106,0,0,0,0,0,0,0,0,0,-1,1672,918,0,0
455,106,0,0,0,0,0,0,0,0,0,-1,1679,918,0,0
462,106,0,0,0,0,0,0,0,0,0,-1,1686,918,0,0
469,106,0,0,0,0,0,0,0,0,0,-1,1693,918,0,0
476,106,0,0,0,0,0,0,0,0,0,-1,1700,918,0,0
483,106,0,0,0,0,0,0,0,0,0,-1,1707,918,0,0
490,106,0,0,0,0,0,0,0,0,0,-1,1714,918,0,0
497,106,0,0,0,0,0,0,0,0,0,-1,1721,918,0,0
504,106,0,0,0,0,0,0,0,0,0,-1,1728,918,0,0
511,106,0,0,0,0,0,0,0,0,0,-1,1735,918,0,0
518,106,0,0,0,0,0,0,0,0,0,-1,1742,918,0,0
525,106,0,0,0,0,0,0,0,0,0,-1,1749,918,0,0
532,106,0,0,0,0,0,0,0,0,0,-1,1756,918,0,0
539,106,0,0,0,0,0,0,0,0,0,-1,1763,918,0,0
546,106,0,0,0,0,0,0,0,0,0,-1,1770,918,0,0
553,106,0,0,0,0,0,0,0,0,0,-1,1777,918,0,0
560,106,0,0,0,0,0,0,0,0,0,-1,1784,918,0,0
567,106,0,0,0,0,0,0,0,0,0,-1,1791,918,0,0
574,106,0,0,0,0,0,0,0,0,0,-1,1798,918,0,0
581,106,0,0,0,0,0,0,0,0,0,-1,1805,918,0,0
588,106,0,0,0,0,0,0,0,0,0,-1,1812,918,0,0
595,106,0,0,0,0,0,0,0,0,0,-1,1819,918,0,0
602,106,0,0,0,0,0,0,0,0,0,-1,1826,918,0,0
609,106,0,0,0,0,0,0,0,0,0,-1,1833,918,0,0
616,106,0,0,0,0,0,0,0,0,0,-1,1840,918,0,0
623,106,0,0,0,0,0,0,0,0,0,-1,1847,918,0,0
630,106,-0.0527344,0.0542603,0.00207503,0.00205656,-0.00096344,0.00302928,0.00110231,-0.780605,0.00177043,0.037074,1854,918,-0.0526936,-0.0542712
637,106,-0.0198975,0.180603,0.00124469,0.00151736,-0.000539673,0.00193765,0.0008244,-0.909119,0.00112284,0.0347358,1861,918,-0.0198402,-0.180573
644,106,0.057251,0.114136,0.000647078,0.00108196,-0.000296587,0.00123227,0.000496762,-1.10171,0.00071589,0.0339676,1868,918,0.0572679,-0.114155
651,106,0.150757,-0.0328369,0.000205725,0.00076738,-0.000144262,0.000802267,0.000170838,-1.33352,0.000487971,0.0376386,1875,918,0.150702,0.0328477
658,106,0.126343,-0.015625,-8.92973e-05,0.000534914,-5.09536e-05,0.000539045,-9.34292e-05,-1.48988,0.000394215,0.0376762,1882,918,0.126368,0.0156542
665,106,-0.0506592,0.0285645,-0.0002703,0.000355929,-4.78704e-07,0.000355929,-0.0002703,-1.57003,0.000362678,0.0343928,1889,918,-0.0506791,-0.028543
672,106,-0.114746,0.12262,-0.000348965,0.000217828,2.00753e-05,0.000218538,-0.000349675,1.53544,0.000330957,0.0334495,1896,918,-0.114764,-0.122642
679,106,-0.0443115,0.0784912,-0.000344399,0.000124538,6.28529e-05,0.000132816,-0.000352678,1.43984,0.000289723,0.0295731,1903,918,-0.0442532,-0.0784813
686,106,-0.0501709,0.0273438,-0.00029547,2.6374e-05,2.91382e-05,2.89907e-05,-0.000298087,1.48123,0.000209059,0.0212668,1910,918,-0.050157,-0.0273411
693,106,-0.0390625,0.0289307,-0.000293288,-2.74195e-06,3.69454e-05,1.88235e-06,-0.000297913,1.44628,0.000199239,0.0121299,1917,918,-0.0390429,-0.0289326
700,106,-0.0167236,0.0453491,-0.000349684,-1.99678e-05,9.07477e-05,3.35844e-06,-0.00037301,1.3192,0.000249801,0.0165624,1924,918,-0.0167804,-0.0453524
707,106,-0.0162354,0.0741577,-0.000258651,-4.59745e-05,5.82089e-05,-3.10853e-05,-0.00027354,1.32038,0.000172932,0.0165154,1931,918,-0.0162622,-0.0741587
714,106,-0.0397949,0.0675659,-2.77122e-05,-4.49193e-05,-5.71081e-05,2.14367e-05,-9.40683e-05,-0.710634,7.09456e-05,0.0137255,1938,918,-0.0397734,-0.0675953
721,106,-0.0585938,0.0653687,1.12259e-05,7.98807e-05,-0.000111597,0.00016231,-7.12036e-05,-0.934607,0.000138197,0.0141045,1945,918,-0.0586447,-0.0653835
728,106,-0.0474854,0.0981445,0.000112553,0.000233883,-9.56018e-05,0.000286443,5.9993e-05,-1.06812,0.000174438,0.0139693,1952,918,-0.0474886,-0.0981559
735,106,-0.0529785,0.0909424,0.000466409,0.000269184,-3.11544e-05,0.000471213,0.00026438,-0.153002,0.00027273,0.0135267,1959,918,-0.0530134,-0.0909645
742,106,-0.0458984,0.0783081,0.00110552,0.000230521,0.000279504,0.00118718,0.000148859,0.284255,0.000746794,0.0105367,1966,918,-0.04591,-0.0783012
749,106,-0.0465088,0.0825195,0.00186854,-0.000631284,0.00102665,0.00223612,-0.000998867,0.343821,0.00191271,0.00816914,1973,918,-0.046488,-0.0824992
756,106,-0.0493164,0.0748901,0.0026555,-0.00130806,0.00202441,0.00350668,-0.00215924,0.39802,0.00330191,0.00898136,1980,918,-0.0493668,-0.0748777
763,106,-0.0499268,0.0950928,0.00388649,-0.00245629,0.00341548,0.00537592,-0.00394572,0.411219,0.00540293,0.0149616,1987,918,-0.0499538,-0.0951119
770,106,-0.0620117,0.114685,0.00543703,-0.00433354,0.00555167,0.00794681,-0.00684333,0.42458,0.00854701,0.0331027,1994,918,-0.0619676,-0.114675
777,106,-0.0603027,0.106079,0.00730677,-0.00726366,0.00870215,0.0113706,-0.0113275,0.436898,0.0131048,0.0442617,2001,918,-0.0603308,-0.106098
784,106,-0.0598145,0.100098,0,0,0,0,0,0,0,-1,2008,918,-0.0597928,-0.100106
791,106,0.818604,-0.330322,0.0117038,-0.0181136,0.019525,0.0213612,-0.0277711,0.459334,0.0284469,0.0466031,2015,918,0.818642,0.330352
798,106,0.959106,-0.15564,0.0137524,-0.0273013,0.0282413,0.0281386,-0.0416875,0.471142,0.0405663,0.0460072,2022,918,0.959114,0.155623
805,106,0,0,0,0,0,0,0,0,0,-1,2029,918,0,0
812,106,0,0,0,0,0,0,0,0,0,-1,2036,918,0,0
-700,99,0,0,0,0,0,0,0,0,0,-1,524,925,0,0
-693,99,0,0,0,0,0,0,0,0,0,-1,531,925,0,0
-686,99,0,0,0,0,0,0,0,0,0,-1,538,925,0,0
-679,99,-4.15991,0.160095,0,0,0,0,0,0,0,-1,545,925,-4.15994,-0.160112
-672,99,-3.66553,-0.465698,0,0,0,0,0,0,0,-1,552,925,-3.66551,0.465675
-665,99,0.747742,-0.472351,0.0411949,0.0383093,-0.0135527,0.0533813,0.0261229,-0.732369,0.0308221,0.0480047,559,925,0.747734,0.472326
-658,99,0.597656,-0.43457,0.030032,0.0295523,-0.00895803,0.0387534,0.0208309,-0.772014,0.0223953,0.0447001,566,925,0.597632,0.434559
-651,99,0.511292,-0.352539,0.0213431,0.0220176,-0.00553957,0.0272302,0.0161305,-0.815801,0.0158105,0.0463816,573,925,0.511277,0.35253
-644,99,0.0945435,-0.000610352,0.0147578,0.0157774,-0.003074,0.0183836,0.0121516,-0.86757,0.0107956,0.0462362,580,925,0.0945598,0.000600624
-637,99,-0.0670776,0.0946655,0.00990402,0.0108311,-0.00139004,0.0118329,0.00890228,-0.946341,0.0071158,0.029663,587,925,-0.0670545,-0.0946393
-630,99,-0.0339355,0.0629272,0.00557798,0.00696872,0.000988002,0.00748153,0.00506517,1.09204,0.00440878,0.0121507,594,925,-0.0339395,-0.0629494
-623,99,-0.0237427,0.074585,0.00285328,0.00397017,0.00152283,0.00503372,0.00178973,0.961143,0.00294637,0.00658842,601,925,-0.0237272,-0.0745808
-616,99,-0.0370483,0.0719604,0.00182883,0.0017866,0.00106788,0.0028758,0.000739623,0.775513,0.00172437,0.0077101,608,925,-0.0370771,-0.0719473
-609,99,-0.0421143,0.0722656,0.00103156,0.000657498,0.000581699,0.00145556,0.000233503,0.629854,0.000902663,0.00855156,615,925,-0.0421061,-0.0722589
-602,99,-0.0325928,0.0709839,0.000467161,2.53274e-05,0.000784641,0.00106139,-0.000568904,0.648175,0.00095546,0.00852713,622,925,-0.0325723,-0.070982
-595,99,-0.0504761,0.0856323,0.000105576,-5.8527e-05,0.000528303,0.000558162,-0.000511113,0.708358,0.000617545,0.0113228,629,925,-0.0504482,-0.0856279
-588,99,-0.0472412,0.09198,0.000109837,0.000135362,0.000213757,0.000336737,-9.15379e-05,0.815215,0.000260423,0.0108875,636,925,-0.0472339,-0.0919751
-581,99,-0.0238647,0.0793457,0.000186312,0.0002854,-1.21429e-05,0.000286866,0.000184846,-1.45062,0.000167908,0.0103045,643,925,-0.0238686,-0.0793403
-574,99,-0.0339355,0.0691528,0.000248791,0.000447854,-0.000234455,0.00060303,9.36159e-05,-0.986131,0.000374733,0.0103965,650,925,-0.0339638,-0.0691475
-567,99,-0.0108643,0.0521851,0.000381883,0.000608608,-0.000485178,0.000993491,-3.00026e-06,-0.900165,0.00066333,0.0211282,657,925,-0.0108632,-0.0521914
-560,99,0.0583496,0.041687,0.000655274,0.000935174,-0.000775194,0.00158295,7.49866e-06,-0.874704,0.00105281,0.0302999,664,925,0.058346,-0.0417004
-553,99,-0.0297852,0.0561523,0.000958616,0.00120952,-0.00111759,0.00220868,-4.05376e-05,-0.841291,0.00148615,0.0346761,671,925,-0.0298039,-0.0561348
-546,99,-0.0921021,-0.00390625,0.00142136,0.00157829,-0.00157467,0.00307645,-7.67964e-05,-0.810292,0.00207704,0.0379519,678,925,-0.0920942,0.00392885
-539,99,-0.0753784,-0.0388184,0.00211499,0.00206367,-0.00217874,0.00426822,-8.95667e-05,-0.77951,0.0028758,0.0367058,685,925,-0.0753804,0.0388009
-532,99,0.0648804,0.0126953,0.00309126,0.00270246,-0.0029501,0.00585336,-5.96398e-05,-0.752498,0.00392227,0.0370144,692,925,0.0648637,-0.0126805
-525,99,0.0299072,-0.0358887,0.00436647,0.00353996,-0.00394897,0.00792375,-1.73142e-05,-0.733264,0.00528828,0.036799,699,925,0.0299212,0.0359012
-518,99,-0.0134277,-0.0534668,0.00607411,0.00467298,-0.00524718,0.0106673,7.98036e-05,-0.719034,0.00708507,0.0370114,706,925,-0.0134574,0.053486
-511,99,0,0,0,0,0,0,0,0,0,-1,713,925,0,0
-504,99,0,0,0,0,0,0,0,0,0,-1,720,925,0,0
-497,99,0,0,0,0,0,0,0,0,0,-1,727,925,0,0
-490,99,0,0,0,0,0,0,0,0,0,-1,734,925,0,0
-483,99,0,0,0,0,0,0,0,0,0,-1,741,925,0,0
-476,99,0,0,0,0,0,0,0,0,0,-1,748,925,0,0
-469,99,0,0,0,0,0,0,0,0,0,-1,755,925,0,0
-462,99,0,0,0,0,0,0,0,0,0,-1,762,925,0,0
-455,99,0,0,0,0,0,0,0,0,0,-1,769,925,0,0
-448,99,0,0,0,0,0,0,0,0,0,-1,776,925,0,0
-441,99,0,0,0,0,0,0,0,0,0,-1,783,925,0,0
-434,99,0,0,0,0,0,0,0,0,0,-1,790,925,0,0
-427,99,0,0,0,0,0,0,0,0,0,-1,797,925,0,0
-420,99,0,0,0,0,0,0,0,0,0,-1,804,925,0,0
-413,99,0,0,0,0,0,0,0,0,0,-1,811,925,0,0
-406,99,0,0,0,0,0,0,0,0,0,-1,818,925,0,0
-399,99,0,0,0,0,0,0,0,0,0,-1,825,925,0,0
-392,99,0,0,0,0,0,0,0,0,0,-1,832,925,0,0
-385,99,0,0,0,0,0,0,0,0,0,-1,839,925,0,0
-378,99,0,0,0,0,0,0,0,0,0,-1,846,925,0,0
-371,99,0,0,0,0,0,0,0,0,0,-1,853,925,0,0
-364,99,0,0,0,0,0,0,0,0,0,-1,860,925,0,0
-357,99,0,0,0,0,0,0,0,0,0,-1,867,925,0,0
-350,99,0,0,0,0,0,0,0,0,0,-1,874,925,0,0
-343,99,0,0,0,0,0,0,0,0,0,-1,881,925,0,0
-336,99,0,0,0,0,0,0,0,0,0,-1,888,925,0,0
-329,99,0,0,0,0,0,0,0,0,0,-1,895,925,0,0
-322,99,0,0,0,0,0,0,0,0,0,-1,902,925,0,0
-315,99,0,0,0,0,0,0,0,0,0,-1,909,925,0,0
-308,99,0,0,0,0,0,0,0,0,0,-1,916,925,0,0
-301,99,0,0,0,0,0,0,0,0,0,-1,923,925,0,0
-294,99,0,0,0,0,0,0,0,0,0,-1,930,925,0,0
-287,99,0,0,0,0,0,0,0,0,0,-1,937,925,0,0
-280,99,0,0,0,0,0,0,0,0,0,-1,944,925,0,0
-273,99,0,0,0,0,0,0,0,0,0,-1,951,925,0,0
-266,99,0,0,0,0,0,0,0,0,0,-1,958,925,0,0
-259,99,0,0,0,0,0,0,0,0,0,-1,965,925,0,0
-252,99,0,0,0,0,0,0,0,0,0,-1,972,925,0,0
-245,99,0,0,0,0,0,0,0,0,0,-1,979,925,0,0
-238,99,0,0,0,0,0,0,0,0,0,-1,986,925,0,0
-231,99,0,0,0,0,0,0,0,0,0,-1,993,925,0,0
-224,99,0,0,0,0,0,0,0,0,0,-1,1000,925,0,0
-217,99,0,0,0,0,0,0,0,0,0,-1,1007,925,0,0
-210,99,0,0,0,0,0,0,0,0,0,-1,1014,925,0,0
-203,99,0,0,0,0,0,0,0,0,0,-1,1021,925,0,0
-196,99,0,0,0,0,0,0,0,0,0,-1,1028,925,0,0
-189,99,0,0,0,0,0,0,0,0,0,-1,1035,925,0,0
-182,99,0,0,0,0,0,0,0,0,0,-1,1042,925,0,0
-175,99,0,0,0,0,0,0,0,0,0,-1,1049,925,0,0
-168,99,0,0,0,0,0,0,0,0,0,-1,1056,925,0,0
-161,99,0,0,0,0,0,0,0,0,0,-1,1063,925,0,0
-154,99,0,0,0,0,0,0,0,0,0,-1,1070,925,0,0
-147,99,0,0,0,0,0,0,0,0,0,-1,1077,925,0,0
-140,99,0,0,0,0,0,0,0,0,0,-1,1084,925,0,0
-133,99,0,0,0,0,0,0,0,0,0,-1,1091,925,0,0
-126,99,0,0,0,0,0,0,0,0,0,-1,1098,925,0,0
-119,99,0,0,0,0,0,0,0,0,0,-1,1105,925,0,0
-112,99,0,0,0,0,0,0,0,0,0,-1,1112,925,0,0
-105,99,0,0,0,0,0,0,0,0,0,-1,1119,925,0,0
-98,99,0,0,0,0,0,0,0,0,0,-1,1126,925,0,0
-91,99,0,0,0,0,0,0,0,0,0,-1,1133,925,0,0
-84,99,0,0,0,0,0,0,0,0,0,-1,1140,925,0,0
-77,99,0,0,0,0,0,0,0,0,0,-1,1147,925,0,0
-70,99,0,0,0,0,0,0,0,0,0,-1,1154,925,0,0
-63,99,0,0,0,0,0,0,0,0,0,-1,1161,925,0,0
-56,99,0,0,0,0,0,0,0,0,0,-1,1168,925,0,0
-49,99,0,0,0,0,0,0,0,0,0,-1,1175,925,0,0
-42,99,0,0,0,0,0,0,0,0,0,-1,1182,925,0,0
-35,99,0,0,0,0,0,0,0,0,0,-1,1189,925,0,0
-28,99,0,0,0,0,0,0,0,0,0,-1,1196,925,0,0
-21,99,0,0,0,0,0,0,0,0,0,-1,1203,925,0,0
-14,99,0,0,0,0,0,0,0,0,0,-1,1210,925,0,0
-7,99,0,0,0,0,0,0,0,0,0,-1,1217,925,0,0
0,99,0,0,0,0,0,0,0,0,0,-1,1224,925,0,0
7,99,0,0,0,0,0,0,0,0,0,-1,1231,925,0,0
14,99,0,0,0,0,0,0,0,0,0,-1,1238,925,0,0
21,99,0,0,0,0,0,0,0,0,0,-1,1245,925,0,0
28,99,0,0,0,0,0,0,0,0,0,-1,1252,925,0,0
35,99,0,0,0,0,0,0,0,0,0,-1,1259,925,0,0
42,99,0,0,0,0,0,0,0,0,0,-1,1266,925,0,0
49,99,0,0,0,0,0,0,0,0,0,-1,1273,925,0,0
56,99,0,0,0,0,0,0,0,0,0,-1,1280,925,0,0
63,99,0,0,0,0,0,0,0,0,0,-1,1287,925,0,0
70,99,0,0,0,0,0,0,0,0,0,-1,1294,925,0,0
77,99,0,0,0,0,0,0,0,0,0,-1,1301,925,0,0
84,99,0,0,0,0,0,0,0,0,0,-1,1308,925,0,0
91,99,0,0,0,0,0,0,0,0,0,-1,1315,925,0,0
98,99,0,0,0,0,0,0,0,0,0,-1,1322,925,0,0
105,99,0,0,0,0,0,0,0,0,0,-1,1329,925,0,0
112,99,0,0,0,0,0,0,0,0,0,-1,1336,925,0,0
119,99,0,0,0,0,0,0,0,0,0,-1,1343,925,0,0
126,99,0,0,0,0,0,0,0,0,0,-1,1350,925,0,0
133,99,0,0,0,0,0,0,0,0,0,-1,1357,925,0,0
140,99,0,0,0,0,0,0,0,0,0,-1,1364,925,0,0
147,99,0,0,0,0,0,0,0,0,0,-1,1371,925,0,0
154,99,0,0,0,0,0,0,0,0,0,-1,1378,925,0,0
161,99,0,0,0,0,0,0,0,0,0,-1,1385,925,0,0
168,99,0,0,0,0,0,0,0,0,0,-1,1392,925,0,0
175,99,0,0,0,0,0,0,0,0,0,-1,1399,925,0,0
182,99,0,0,0,0,0,0,0,0,0,-1,1406,925,0,0
189,99,0,0,0,0,0,0,0,0,0,-1,1413,925,0,0
196,99,0,0,0,0,0,0,0,0,0,-1,1420,925,0,0
203,99,0,0,0,0,0,0,0,0,0,-1,1427,925,0,0
210,99,0,0,0,0,0,0,0,0,0,-1,1434,925,0,0
217,99,0,0,0,0,0,0,0,0,0,-1,1441,925,0,0
224,99,0,0,0,0,0,0,0,0,0,-1,1448,925,0,0
231,99,0,0,0,0,0,0,0,0,0,-1,1455,925,0,0
238,99,0,0,0,0,0,0,0,0,0,-1,1462,925,0,0
245,99,0,0,0,0,0,0,0,0,0,-1,1469,925,0,0
252,99,0,0,0,0,0,0,0,0,0,-1,1476,925,0,0
259,99,0,0,0,0,0,0,0,0,0,-1,1483,925,0,0
266,99,0,0,0,0,0,0,0,0,0,-1,1490,925,0,0
273,99,0,0,0,0,0,0,0,0,0,-1,1497,925,0,0
280,99,0,0,0,0,0,0,0,0,0,-1,1504,925,0,0
287,99,0,0,0,0,0,0,0,0,0,-1,1511,925,0,0
294,99,0,0,0,0,0,0,0,0,0,-1,1518,925,0,0
301,99,0,0,0,0,0,0,0,0,0,-1,1525,925,0,0
308,99,0,0,0,0,0,0,0,0,0,-1,1532,925,0,0
315,99,0,0,0,0,0,0,0,0,0,-1,1539,925,0,0
322,99,0,0,0,0,0,0,0,0,0,-1,1546,925,0,0
329,99,0,0,0,0,0,0,0,0,0,-1,1553,925,0,0
336,99,0,0,0,0,0,0,0,0,0,-1,1560,925,0,0
343,99,0,0,0,0,0,0,0,0,0,-1,1567,925,0,0
350,99,0,0,0,0,0,0,0,0,0,-1,1574,925,0,0
357,99,0,0,0,0,0,0,0,0,0,-1,1581,925,0,0
364,99,0,0,0,0,0,0,0,0,0,-1,1588,925,0,0
371,99,0,0,0,0,0,0,0,0,0,-1,1595,925,0,0
378,99,0,0,0,0,0,0,0,0,0,-1,1602,925,0,0
385,99,0,0,0,0,0,0,0,0,0,-1,1609,925,0,0
392,99,0,0,0,0,0,0,0,0,0,-1,1616,925,0,0
399,99,0,0,0,0,0,0,0,0,0,-1,1623,925,0,0
406,99,0,0,0,0,0,0,0,0,0,-1,1630,925,0,0
413,99,0,0,0,0,0,0,0,0,0,-1,1637,925,0,0
420,99,0,0,0,0,0,0,0,0,0,-1,1644,925,0,0
427,99,0,0,0,0,0,0,0,0,0,-1,1651,925,0,0
434,99,0,0,0,0,0,0,0,0,0,-1,1658,925,0,0
441,99,0,0,0,0,0,0,0,0,0,-1,1665,925,0,0
448,99,0,0,0,0,0,0,0,0,0,-1,1672,925,0,0
455,99,0,0,0,0,0,0,0,0,0,-1,1679,925,0,0
462,99,0,0,0,0,0,0,0,0,0,-1,1686,925,0,0
469,99,0,0,0,0,0,0,0,0,0,-1,1693,925,0,0
476,99,0,0,0,0,0,0,0,0,0,-1,1700,925,0,0
483,99,0,0,0,0,0,0,0,0,0,-1,1707,925,0,0
490,99,0,0,0,0,0,0,0,0,0,-1,1714,925,0,0
497,99,0,0,0,0,0,0,0,0,0,-1,1721,925,0,0
504,99,0,0,0,0,0,0,0,0,0,-1,1728,925,0,0
511,99,0,0,0,0,0,0,0,0,0,-1,1735,925,0,0
518,99,0,0,0,0,0,0,0,0,0,-1,1742,925,0,0
525,99,0,0,0,0,0,0,0,0,0,-1,1749,925,0,0
532,99,0,0,0,0,0,0,0,0,0,-1,1756,925,0,0
539,99,0,0,0,0,0,0,0,0,0,-1,1763,925,0,0
546,99,0,0,0,0,0,0,0,0,0,-1,1770,925,0,0
553,99,0,0,0,0,0,0,0,0,0,-1,1777,925,0,0
560,99,0,0,0,0,0,0,0,0,0,-1,1784,925,0,0
567,99,0,0,0,0,0,0,0,0,0,-1,1791,925,0,0
574,99,0,0,0,0,0,0,0,0,0,-1,1798,925,0,0
581,99,0,0,0,0,0,0,0,0,0,-1,1805,925,0,0
588,99,0,0,0,0,0,0,0,0,0,-1,1812,925,0,0
595,99,0,0,0,0,0,0,0,0,0,-1,1819,925,0,0
602,99,0,0,0,0,0,0,0,0,0,-1,1826,925,0,0
609,99,0,0,0,0,0,0,0,0,0,-1,1833,925,0,0
616,99,0,0,0,0,0,0,0,0,0,-1,1840,925,0,0
623,99,0,0,0,0,0,0,0,0,0,-1,1847,925,0,0
630,99,0,0,0,0,0,0,0,0,0,-1,1854,925,0,0
637,99,0.0229492,-0.0169067,0.00123103,0.00163617,-0.000420159,0.00190004,0.00096716,-1.01002,0.00109705,0.0373016,1861,925,0.0229004,0.0168835
644,99,0.078125,0.0751953,0.000519834,0.00115529,-0.000145556,0.00118704,0.00048808,-1.35601,0.000688936,0.0340612,1868,925,0.0780845,-0.0752091
651,99,0.0681152,0.0645142,4.55937e-05,0.000808579,4.76822e-07,0.000808579,4.55934e-05,1.57017,0.000524516,0.0348698,1875,925,0.0681169,-0.0644916
658,99,0.0335693,0.085022,-0.00023775,0.00055149,7.81551e-05,0.000559155,-0.000245415,1.47304,0.000476145,0.0349275,1882,925,0.0335832,-0.0850356
665,99,-0.0601807,0.110291,-0.000391774,0.000355993,0.000107884,0.000371247,-0.000407027,1.43034,0.000449495,0.0340177,1889,925,-0.0601782,-0.110304
672,99,-0.107788,0.121033,-0.000437077,0.000215249,0.000106217,0.000232108,-0.000453936,1.41338,0.000402931,0.0351418,1896,925,-0.107819,-0.121016
679,99,-0.0454102,0.0199585,-0.000399968,0.000116006,0.000119527,0.000142349,-0.000426311,1.35386,0.000341689,0.0322189,1903,925,-0.0453721,-0.0199737
686,99,-0.0551758,0.0424194,-0.000320884,1.55309e-05,6.90295e-05,2.91443e-05,-0.000334497,1.37608,0.000233321,0.0226327,1910,925,-0.0551441,-0.0424092
693,99,-0.0495605,0.0704956,-0.000291636,-1.26149e-05,6.18899e-05,4.96831e-07,-0.000304747,1.36203,0.000203331,0.0132432,1917,925,-0.0495485,-0.0704864
700,99,-0.0227051,0.0471802,-0.000322771,-2.36612e-05,0.000104934,9.48009e-06,-0.000355912,1.26488,0.000240497,0.0147351,1924,925,-0.0227478,-0.0471775
707,99,-0.010498,0.0703735,-0.000218914,-4.00321e-05,6.22157e-05,-2.05214e-05,-0.000238425,1.26691,0.00015257,0.0161321,1931,925,-0.0104889,-0.070377
714,99,-0.0397949,0.0645142,-1.18942e-05,-4.88788e-05,-5.68608e-05,2.94058e-05,-9.01787e-05,-0.628182,7.19527e-05,0.0127715,1938,925,-0.0397871,-0.0645239
721,99,-0.0618896,0.0501099,-5.96576e-06,2.89173e-06,-0.000112785,0.000111334,-0.000114408,-0.805022,0.000130337,0.0153748,1945,925,-0.0619433,-0.0500839
728,99,-0.0501709,0.0828247,7.71225e-05,4.44662e-05,-0.000112896,0.000174865,-5.32766e-05,-0.713581,0.000137812,0.0129369,1952,925,-0.0502083,-0.0828473
735,99,-0.0496826,0.0771484,0.000437372,-5.03528e-05,-4.39043e-05,0.000441292,-5.42736e-05,-0.0890645,0.000313854,0.0118682,1959,925,-0.0497232,-0.0771426
742,99,-0.0440674,0.0670776,0.00109423,-0.000199963,0.000268938,0.00114789,-0.000253624,0.196944,0.000862328,0.0100153,1966,925,-0.0440766,-0.0670572
749,99,-0.0561523,0.0723267,0.00183933,-0.00119596,0.00100267,0.00214064,-0.00149728,0.291922,0.00211127,0.00778359,1973,925,-0.0561254,-0.0723364
756,99,-0.0623779,0.0795288,0.0025465,-0.00205861,0.00201838,0.00330591,-0.00281801,0.359863,0.00353939,0.00879381,1980,925,-0.0623729,-0.0795098
763,99,-0.039917,0.0877075,0.00373816,-0.0034115,0.00338072,0.00508356,-0.0047569,0.378749,0.00568243,0.0112398,1987,925,-0.0399316,-0.087677
770,99,-0.0615234,0.103821,0.00522642,-0.00547903,0.00546553,0.00752377,-0.00777638,0.397912,0.00883395,0.0230607,1994,925,-0.0615711,-0.103848
777,99,-0.0323486,0.0363159,0.00699273,-0.00853718,0.00851905,0.0107546,-0.0122991,0.415837,0.01332,0.0396727,2001,925,-0.0323056,-0.0362915
784,99,0.119385,-0.0402222,0.0089689,-0.012929,0.0128734,0.0149197,-0.0188799,0.433002,0.0195588,0.0397267,2008,925,0.11944,0.0402426
791,99,0.483521,0.173035,0.0110146,-0.0191126,0.0189118,0.0201288,-0.0282268,0.449091,0.0280483,0.0428794,2015,925,0.48348,-0.173009
798,99,0.400024,0.493164,0.0127519,-0.027632,0.0271984,0.0264342,-0.0413143,0.46609,0.0394278,0.0441133,2022,925,0.400002,-0.493179
805,99,0,0,0,0,0,0,0,0,0,-1,2029,925,0,0
812,99,0,0,0,0,0,0,0,0,0,-1,2036,925,0,0
-700,92,0,0,0,0,0,0,0,0,0,-1,524,932,0,0
-693,92,0,0,0,0,0,0,0,0,0,-1,531,932,0,0
-686,92,-3.98853,1.05707,0.0755857,0.0575521,-0.0580805,0.125345,0.00779265,-0.708389,0.0810908,0.0407634,538,932,-3.98852,-1.05708
-679,92,-3.19037,0.155518,0.0569443,0.0494221,-0.0439674,0.0973112,0.00905515,-0.742731,0.0620763,0.0485914,545,932,-3.19037,-0.155537
-672,92,-2.64722,-0.44458,0,0,0,0,0,0,0,-1,552,932,-2.64725,0.444561
-665,92,0.987061,-0.451294,0,0,0,0,0,0,0,-1,559,932,0.98709,0.451276
-658,92,-1.24408,0.944275,0,0,0,0,0,0,0,-1,566,932,-1.24407,-0.944275
-651,92,0.337769,-0.257874,0.0166647,0.0200369,-0.0114747,0.0299487,0.0067529,-0.858347,0.0181388,0.0478967,573,932,0.337747,0.257854
-644,92,0.101013,0.0522461,0.0117243,0.0147072,-0.00730064,0.0206672,0.00576434,-0.886157,0.0123149,0.0449224,580,932,0.100986,-0.0522614
-637,92,-0.0720825,0.0739136,0.00805787,0.0103627,-0.00428839,0.0136508,0.00476976,-0.916662,0.00799957,0.0246781,587,932,-0.0720876,-0.0739102
-630,92,-0.0330811,0.0631104,0.00453326,0.00686553,-0.000884092,0.00716278,0.00423601,-1.24645,0.00415839,0.0114587,594,932,-0.0330736,-0.0631175
-623,92,-0.0182495,0.0755615,0.00247555,0.00415875,0.000485008,0.00428851,0.0023458,1.30939,0.00247961,0.00747077,601,932,-0.0182604,-0.0755845
-616,92,-0.0379639,0.0622559,0.00190238,0.00211027,0.000597086,0.00261239,0.00140026,0.871578,0.00150957,0.00710206,608,932,-0.0379373,-0.0622745
-609,92,-0.048584,0.0629272,0.00125647,0.000961622,0.000366785,0.00150435,0.000713741,0.594314,0.000868913,0.00759717,615,932,-0.0486076,-0.0629381
-602,92,-0.0556641,0.0791016,0.000601328,0.000227604,0.000604922,0.00104759,-0.00021866,0.635596,0.000781544,0.00783382,622,932,-0.0556899,-0.0791065
-595,92,-0.0581665,0.0964966,0.000136738,8.92947e-05,0.000419387,0.000533073,-0.000307041,0.757147,0.000490857,0.0119786,629,932,-0.0581455,-0.0964974
-588,92,-0.034729,0.0878906,0.000107635,0.00024677,0.000147038,0.000339867,1.45383e-05,1.00636,0.000221891,0.0135506,636,932,-0.0347132,-0.0879031
-581,92,-0.0311279,0.0861206,0.000207242,0.000364445,-6.78798e-05,0.000389699,0.000181988,-1.21463,0.000225156,0.0117979,643,932,-0.0311186,-0.0861502
-574,92,-0.0440674,0.0766602,0.000302213,0.000474913,-0.000295786,0.000696695,8.04308e-05,-0.927418,0.00044011,0.0138364,650,932,-0.0440747,-0.0766398
-567,92,-0.0269775,0.00268555,0.000431852,0.00061296,-0.000562439,0.00109209,-4.72756e-05,-0.865214,0.000744318,0.0251262,657,932,-0.0269744,-0.00270303
-560,92,0.03302,-0.0473022,0.000697526,0.000876539,-0.000869771,0.0016614,-8.73317e-05,-0.836672,0.00113783,0.0327673,664,932,0.0330217,0.0472867
-553,92,-0.0235596,-0.0515747,0.00101766,0.00109423,-0.00124371,0.00230024,-0.000188347,-0.800785,0.00159998,0.0347649,671,932,-0.0235593,0.0515716
-546,92,-0.0453491,-0.00701904,0.0015105,0.00137794,-0.00175156,0.00319703,-0.000308592,-0.766488,0.00224131,0.0385339,678,932,-0.0453454,0.00703372
-539,92,0.0165405,0.113403,0.0022554,0.00175639,-0.00242556,0.00444426,-0.000432469,-0.734145,0.00311701,0.0373163,685,932,0.0165183,-0.113375
-532,92,0.0544434,0.0415039,0.00331387,0.00226548,-0.00329285,0.00612398,-0.000544635,-0.706464,0.00427578,0.0385399,692,932,0.0544385,-0.041516
-525,92,-0.0162354,-0.0587158,0.00472352,0.00295238,-0.00442984,0.00835544,-0.00067954,-0.686744,0.00581007,0.0366177,699,932,-0.01625,0.0586896
-518,92,-0.0479126,0.0791016,0.00664125,0.00392621,-0.00594803,0.0113847,-0.000817243,-0.673205,0.00787636,0.0344666,706,932,-0.0479417,-0.0790768
-511,92,0,0,0,0,0,0,0,0,0,-1,713,932,0,0
-504,92,0,0,0,0,0,0,0,0,0,-1,720,932,0,0
-497,92,0,0,0,0,0,0,0,0,0,-1,727,932,0,0
-490,92,0,0,0,0,0,0,0,0,0,-1,734,932,0,0
-483,92,0,0,0,0,0,0,0,0,0,-1,741,932,0,0
-476,92,0,0,0,0,0,0,0,0,0,-1,748,932,0,0
-469,92,0,0,0,0,0,0,0,0,0,-1,755,932,0,0
-462,92,0,0,0,0,0,0,0,0,0,-1,762,932,0,0
-455,92,0,0,0,0,0,0,0,0,0,-1,769,932,0,0
-448,92,0,0,0,0,0,0,0,0,0,-1,776,932,0,0
-441,92,0,0,0,0,0,0,0,0,0,-1,783,932,0,0
-434,92,0,0,0,0,0,0,0,0,0,-1,790,932,0,0
-427,92,0,0,0,0,0,0,0,0,0,-1,797,932,0,0
-420,92,0,0,0,0,0,0,0,0,0,-1,804,932,0,0
-413,92,0,0,0,0,0,0,0,0,0,-1,811,932,0,0
-406,92,0,0,0,0,0,0,0,0,0,-1,818,932,0,0
-399,92,0,0,0,0,0,0,0,0,0,-1,825,932,0,0
-392,92,0,0,0,0,0,0,0,0,0,-1,832,932,0,0
-385,92,0,0,0,0,0,0,0,0,0,-1,839,932,0,0
-378,92,0,0,0,0,0,0,0,0,0,-1,846,932,0,0
-371,92,0,0,0,0,0,0,0,0,0,-1,853,932,0,0
-364,92,0,0,0,0,0,0,0,0,0,-1,860,932,0,0
-357,92,0,0,0,0,0,0,0,0,0,-1,867,932,0,0
-350,92,0,0,0,0,0,0,0,0,0,-1,874,932,0,0
-343,92,0,0,0,0,0,0,0,0,0,-1,881,932,0,0
-336,92,0,0,0,0,0,0,0,0,0,-1,888,932,0,0
-329,92,0,0,0,0,0,0,0,0,0,-1,895,932,0,0
-322,92,0,0,0,0,0,0,0,0,0,-1,902,932,0,0
-315,92,0,0,0,0,0,0,0,0,0,-1,909,932,0,0
-308,92,0,0,0,0,0,0,0,0,0,-1,916,932,0,0
-301,92,0,0,0,0,0,0,0,0,0,-1,923,932,0,0
-294,92,0,0,0,0,0,0,0,0,0,-1,930,932,0,0
-287,92,0,0,0,0,0,0,0,0,0,-1,937,932,0,0
-280,92,0,0,0,0,0,0,0,0,0,-1,944,932,0,0
-273,92,0,0,0,0,0,0,0,0,0,-1,951,932,0,0
-266,92,0,0,0,0,0,0,0,0,0,-1,958,932,0,0
-259,92,0,0,0,0,0,0,0,0,0,-1,965,932,0,0
-252,92,0,0,0,0,0,0,0,0,0,-1,972,932,0,0
-245,92,0,0,0,0,0,0,0,0,0,-1,979,932,0,0
-238,92,0,0,0,0,0,0,0,0,0,-1,986,932,0,0
-231,92,0,0,0,0,0,0,0,0,0,-1,993,932,0,0
-224,92,0,0,0,0,0,0,0,0,0,-1,1000,932,0,0
-217,92,0,0,0,0,0,0,0,0,0,-1,1007,932,0,0
-210,92,0,0,0,0,0,0,0,0,0,-1,1014,932,0,0
-203,92,0,0,0,0,0,0,0,0,0,-1,1021,932,0,0
-196,92,0,0,0,0,0,0,0,0,0,-1,1028,932,0,0
-189,92,0,0,0,0,0,0,0,0,0,-1,1035,932,0,0
-182,92,0,0,0,0,0,0,0,0,0,-1,1042,932,0,0
-175,92,0,0,0,0,0,0,0,0,0,-1,1049,932,0,0
-168,92,0,0,0,0,0,0,0,0,0,-1,1056,932,0,0
-161,92,0,0,0,0,0,0,0,0,0,-1,1063,932,0,0
-154,92,0,0,0,0,0,0,0,0,0,-1,1070,932,0,0
-147,92,0,0,0,0,0,0,0,0,0,-1,1077,932,0,0
-140,92,0,0,0,0,0,0,0,0,0,-1,1084,932,0,0
-133,92,0,0,0,0,0,0,0,0,0,-1,1091,932,0,0
-126,92,0,0,0,0,0,0,0,0,0,-1,1098,932,0,0
-119,92,0,0,0,0,0,0,0,0,0,-1,1105,932,0,0
-112,92,0,0,0,0,0,0,0,0,0,-1,1112,932,0,0
-105,92,0,0,0,0,0,0,0,0,0,-1,1119,932,0,0
-98,92,0,0,0,0,0,0,0,0,0,-1,1126,932,0,0
-91,92,0,0,0,0,0,0,0,0,0,-1,1133,932,0,0
-84,92,0,0,0,0,0,0,0,0,0,-1,1140,932,0,0
-77,92,0,0,0,0,0,0,0,0,0,-1,1147,932,0,0
-70,92,0,0,0,0,0,0,0,0,0,-1,1154,932,0,0
-63,92,0,0,0,0,0,0,0,0,0,-1,1161,932,0,0
-56,92,0,0,0,0,0,0,0,0,0,-1,1168,932,0,0
-49,92,0,0,0,0,0,0,0,0,0,-1,1175,932,0,0
-42,92,0,0,0,0,0,0,0,0,0,-1,1182,932,0,0
-35,92,0,0,0,0,0,0,0,0,0,-1,1189,932,0,0
-28,92,0,0,0,0,0,0,0,0,0,-1,1196,932,0,0
-21,92,0,0,0,0,0,0,0,0,0,-1,1203,932,0,0
-14,92,0,0,0,0,0,0,0,0,0,-1,1210,932,0,0
-7,92,0,0,0,0,0,0,0,0,0,-1,1217,932,0,0
0,92,0,0,0,0,0,0,0,0,0,-1,1224,932,0,0
7,92,0,0,0,0,0,0,0,0,0,-1,1231,932,0,0
14,92,0,0,0,0,0,0,0,0,0,-1,1238,932,0,0
21,92,0,0,0,0,0,0,0,0,0,-1,1245,932,0,0
28,92,0,0,0,0,0,0,0,0,0,-1,1252,932,0,0
35,92,0,0,0,0,0,0,0,0,0,-1,1259,932,0,0
42,92,0,0,0,0,0,0,0,0,0,-1,1266,932,0,0
49,92,0,0,0,0,0,0,0,0,0,-1,1273,932,0,0
56,92,0,0,0,0,0,0,0,0,0,-1,1280,932,0,0
63,92,0,0,0,0,0,0,0,0,0,-1,1287,932,0,0
70,92,0,0,0,0,0,0,0,0,0,-1,1294,932,0,0
77,92,0,0,0,0,0,0,0,0,0,-1,1301,932,0,0
84,92,0,0,0,0,0,0,0,0,0,-1,1308,932,0,0
91,92,0,0,0,0,0,0,0,0,0,-1,1315,932,0,0
98,92,0,0,0,0,0,0,0,0,0,-1,1322,932,0,0
105,92,0,0,0,0,0,0,0,0,0,-1,1329,932,0,0
112,92,0,0,0,0,0,0,0,0,0,-1,1336,932,0,0
119,92,0,0,0,0,0,0,0,0,0,-1,1343,932,0,0
126,92,0,0,0,0,0,0,0,0,0,-1,1350,932,0,0
133,92,0,0,0,0,0,0,0,0,0,-1,1357,932,0,0
140,92,0,0,0,0,0,0,0,0,0,-1,1364,932,0,0
147,92,0,0,0,0,0,0,0,0,0,-1,1371,932,0,0
154,92,0,0,0,0,0,0,0,0,0,-1,1378,932,0,0
161,92,0,0,0,0,0,0,0,0,0,-1,1385,932,0,0
168,92,0,0,0,0,0,0,0,0,0,-1,1392,932,0,0
175,92,0,0,0,0,0,0,0,0,0,-1,1399,932,0,0
182,92,0,0,0,0,0,0,0,0,0,-1,1406,932,0,0
189,92,0,0,0,0,0,0,0,0,0,-1,1413,932,0,0
196,92,0,0,0,0,0,0,0,0,0,-1,1420,932,0,0
203,92,0,0,0,0,0,0,0,0,0,-1,1427,932,0,0
210,92,0,0,0,0,0,0,0,0,0,-1,1434,932,0,0
217,92,0,0,0,0,0,0,0,0,0,-1,1441,932,0,0
224,92,0,0,0,0,0,0,0,0,0,-1,1448,932,0,0
231,92,0,0,0,0,0,0,0,0,0,-1,1455,932,0,0
238,92,0,0,0,0,0,0,0,0,0,-1,1462,932,0,0
245,92,0,0,0,0,0,0,0,0,0,-1,1469,932,0,0
252,92,0,0,0,0,0,0,0,0,0,-1,1476,932,0,0
259,92,0,0,0,0,0,0,0,0,0,-1,1483,932,0,0
266,92,0,0,0,0,0,0,0,0,0,-1,1490,932,0,0
273,92,0,0,0,0,0,0,0,0,0,-1,1497,932,0,0
280,92,0,0,0,0,0,0,0,0,0,-1,1504,932,0,0
287,92,0,0,0,0,0,0,0,0,0,-1,1511,932,0,0
294,92,0,0,0,0,0,0,0,0,0,-1,1518,932,0,0
301,92,0,0,0,0,0,0,0,0,0,-1,1525,932,0,0
308,92,0,0,0,0,0,0,0,0,0,-1,1532,932,0,0
315,92,0,0,0,0,0,0,0,0,0,-1,1539,932,0,0
322,92,0,0,0,0,0,0,0,0,0,-1,1546,932,0,0
329,92,0,0,0,0,0,0,0,0,0,-1,1553,932,0,0
336,92,0,0,0,0,0,0,0,0,0,-1,1560,932,0,0
343,92,0,0,0,0,0,0,0,0,0,-1,1567,932,0,0
350,92,0,0,0,0,0,0,0,0,0,-1,1574,932,0,0
357,92,0,0,0,0,0,0,0,0,0,-1,1581,932,0,0
364,92,0,0,0,0,0,0,0,0,0,-1,1588,932,0,0
371,92,0,0,0,0,0,0,0,0,0,-1,1595,932,0,0
378,92,0,0,0,0,0,0,0,0,0,-1,1602,932,0,0
385,92,0,0,0,0,0,0,0,0,0,-1,1609,932,0,0
392,92,0,0,0,0,0,0,0,0,0,-1,1616,932,0,0
399,92,0,0,0,0,0,0,0,0,0,-1,1623,932,0,0
406,92,0,0,0,0,0,0,0,0,0,-1,1630,932,0,0
413,92,0,0,0,0,0,0,0,0,0,-1,1637,932,0,0
420,92,0,0,0,0,0,0,0,0,0,-1,1644,932,0,0
427,92,0,0,0,0,0,0,0,0,0,-1,1651,932,0,0
434,92,0,0,0,0,0,0,0,0,0,-1,1658,932,0,0
441,92,0,0,0,0,0,0,0,0,0,-1,1665,932,0,0
448,92,0,0,0,0,0,0,0,0,0,-1,1672,932,0,0
455,92,0,0,0,0,0,0,0,0,0,-1,1679,932,0,0
462,92,0,0,0,0,0,0,0,0,0,-1,1686,932,0,0
469,92,0,0,0,0,0,0,0,0,0,-1,1693,932,0,0
476,92,0,0,0,0,0,0,0,0,0,-1,1700,932,0,0
483,92,0,0,0,0,0,0,0,0,0,-1,1707,932,0,0
490,92,0,0,0,0,0,0,0,0,0,-1,1714,932,0,0
497,92,0,0,0,0,0,0,0,0,0,-1,1721,932,0,0
504,92,0,0,0,0,0,0,0,0,0,-1,1728,932,0,0
511,92,0,0,0,0,0,0,0,0,0,-1,1735,932,0,0
518,92,0,0,0,0,0,0,0,0,0,-1,1742,932,0,0
525,92,0,0,0,0,0,0,0,0,0,-1,1749,932,0,0
532,92,0,0,0,0,0,0,0,0,0,-1,1756,932,0,0
539,92,0,0,0,0,0,0,0,0,0,-1,1763,932,0,0
546,92,0,0,0,0,0,0,0,0,0,-1,1770,932,0,0
553,92,0,0,0,0,0,0,0,0,0,-1,1777,932,0,0
560,92,0,0,0,0,0,0,0,0,0,-1,1784,932,0,0
567,92,0,0,0,0,0,0,0,0,0,-1,1791,932,0,0
574,92,0,0,0,0,0,0,0,0,0,-1,1798,932,0,0
581,92,0,0,0,0,0,0,0,0,0,-1,1805,932,0,0
588,92,0,0,0,0,0,0,0,0,0,-1,1812,932,0,0
595,92,0,0,0,0,0,0,0,0,0,-1,1819,932,0,0
602,92,0,0,0,0,0,0,0,0,0,-1,1826,932,0,0
609,92,0,0,0,0,0,0,0,0,0,-1,1833,932,0,0
616,92,0,0,0,0,0,0,0,0,0,-1,1840,932,0,0
623,92,0,0,0,0,0,0,0,0,0,-1,1847,932,0,0
630,92,0,0,0,0,0,0,0,0,0,-1,1854,932,0,0
637,92,-0.0827637,-0.00567627,0.00131347,0.00167665,-0.000118759,0.00171204,0.00127808,-1.28121,0.00102771,0.0398587,1861,932,-0.0827312,0.00566936
644,92,0.00378418,0.0720215,0.000477904,0.00116248,0.000101606,0.00117724,0.000463142,1.42652,0.000684809,0.0338957,1868,932,0.00377225,-0.0719973
651,92,0.0914307,0.0768433,-3.91912e-05,0.000801296,0.000175343,0.000836409,-7.43046e-05,1.37316,0.000583952,0.0331403,1875,932,0.0914521,-0.0768497
658,92,-0.0153809,0.206665,-0.000321418,0.000540229,0.000194983,0.000582298,-0.000363487,1.3583,0.000550899,0.0357498,1882,932,-0.0154238,-0.20669
665,92,-0.0910645,0.196533,-0.000457692,0.000346092,0.000178097,0.000383786,-0.000495385,1.36223,0.000508951,0.0350177,1889,932,-0.0911005,-0.196508
672,92,-0.137451,0.117004,-0.000479927,0.000209777,0.000136728,0.000235894,-0.000506043,1.38206,0.00043772,0.0354518,1896,932,-0.137445,-0.116979
679,92,-0.10791,0.0432739,-0.000421493,0.000119111,0.000112012,0.000141401,-0.000443782,1.37437,0.00035257,0.0318053,1903,932,-0.107935,-0.0432819
686,92,-0.0324707,0.0714722,-0.000320686,2.65717e-05,4.4927e-05,3.229e-05,-0.000326404,1.4442,0.000229126,0.023851,1910,932,-0.0324681,-0.071491
693,92,-0.0478516,0.0944824,-0.000271008,4.65663e-07,2.79653e-05,3.3165e-06,-0.000273859,1.46921,0.000183688,0.0145477,1917,932,-0.0478372,-0.0944526
700,92,-0.0330811,0.0494385,-0.000287982,-1.19448e-05,6.42299e-05,2.26869e-06,-0.000302195,1.35301,0.000202224,0.0142529,1924,932,-0.0331174,-0.0494332
707,92,-0.0279541,0.071228,-0.000172516,-2.15627e-05,2.22321e-05,-1.83565e-05,-0.000175723,1.42757,0.000111534,0.014306,1931,932,-0.0279393,-0.0712452
714,92,-0.0517578,0.0834961,2.22958e-05,-2.21232e-05,-8.18906e-05,8.49352e-05,-8.47626e-05,-0.652979,9.79751e-05,0.0154379,1938,932,-0.0517768,-0.0835082
721,92,-0.045166,0.0732422,9.91106e-06,-1.64679e-06,-0.000116913,0.000121188,-0.000112924,-0.760704,0.000135193,0.0184165,1945,932,-0.0451395,-0.0732311
728,92,-0.045166,0.0840454,9.4548e-05,2.28704e-05,-0.000111682,0.000176,-5.85819e-05,-0.630138,0.000140978,0.0137938,1952,932,-0.0451259,-0.0840461
735,92,-0.036377,0.0775146,0.00048613,-9.36348e-05,-3.23417e-05,0.000487928,-9.54333e-05,-0.0555544,0.000361322,0.0134564,1959,932,-0.03635,-0.0775106
742,92,-0.0175781,0.0663452,0.0011578,-0.000241303,0.000296472,0.00121803,-0.000301533,0.200429,0.000928986,0.0132225,1966,932,-0.0176227,-0.0663546
749,92,-0.0334473,0.0734863,0.00187523,-0.00115085,0.000986225,0.00216827,-0.00144389,0.288826,0.00209942,0.011209,1973,932,-0.0334485,-0.0734788
756,92,-0.0699463,0.0794067,0.00253389,-0.00190153,0.00194154,0.00326369,-0.00263133,0.359548,0.00341001,0.0113804,1980,932,-0.0699079,-0.0794056
763,92,-0.0407715,0.0856323,0.00374452,-0.00306212,0.00313125,0.00496584,-0.00428344,0.371893,0.00534492,0.0135886,1987,932,-0.0407527,-0.0856552
770,92,-0.0772705,0.122009,0.00520845,-0.00477589,0.00496514,0.00725719,-0.00682463,0.391342,0.00813142,0.0226061,1994,932,-0.0773012,-0.122038
777,92,-0.182861,0.156372,0.00693166,-0.00724581,0.0076038,0.0102385,-0.0105526,0.41022,0.0120042,0.041955,2001,932,-0.182868,-0.156367
784,92,-0.0557861,0.363159,0.00885052,-0.0107062,0.01131,0.0140231,-0.0158788,0.42895,0.017275,0.0460092,2008,932,-0.0557967,-0.363176
791,92,0.0196533,0.759399,0.0108396,-0.0154736,0.0163774,0.0186906,-0.0233245,0.447012,0.0243065,0.0414813,2015,932,0.0196864,-0.759415
798,92,0.0162354,1.11023,0.012578,-0.0219221,0.023213,0.0242486,-0.0335927,0.465856,0.0335396,0.0438021,2022,932,0.0162008,-1.11021
805,92,0,0,0,0,0,0,0,0,0,-1,2029,932,0,0
812,92,0,0,0,0,0,0,0,0,0,-1,2036,932,0,0
-700,85,0,0,0,0,0,0,0,0,0,-1,524,939,0,0
-693,85,0,0,0,0,0,0,0,0,0,-1,531,939,0,0
-686,85,-2.89093,0.750183,0.0533913,0.048212,-0.0714765,0.122325,-0.0207217,-0.767291,0.0892626,0.0463806,538,939,-2.89094,-0.75021
-679,85,-2.28662,0.139893,0.0393606,0.0419613,-0.0555431,0.0962193,-0.0148973,-0.797102,0.0696451,0.047685,545,939,-2.28665,-0.13987
-672,85,-1.99005,0.113159,0.0291261,0.0354703,-0.0425395,0.0749559,-0.0103594,-0.822613,0.0537575,0.0430574,552,939,-1.99006,-0.113159
-665,85,-1.47241,0.801147,0,0,0,0,0,0,0,-1,559,939,-1.47243,-0.801174
-658,85,-1.18726,0.746399,0,0,0,0,0,0,0,-1,566,939,-1.18727,-0.746375
-651,85,-0.544128,0.493286,0,0,0,0,0,0,0,-1,573,939,-0.544145,-0.493286
-644,85,0.0534668,-0.0143433,0.0084077,0.0134386,-0.0107019,0.0219167,-7.04275e-05,-0.900826,0.0146347,0.0325583,580,939,0.0534537,0.0143519
-637,85,-0.0418701,0.0582886,0.00609893,0.00955114,-0.00668142,0.0147258,0.000924247,-0.911806,0.00952409,0.0148324,587,939,-0.0418658,-0.0582994
-630,85,-0.0454102,0.0675049,0.00345501,0.00638943,-0.00251043,0.00782996,0.00201448,-1.04985,0.00469483,0.00976286,594,939,-0.0453998,-0.0674924
-623,85,-0.0330811,0.0691528,0.0020893,0.00398467,-0.000469308,0.00409451,0.00197946,-1.34089,0.0023644,0.00865752,601,939,-0.0330934,-0.0691808
-616,85,-0.0409546,0.0725708,0.0019557,0.00215896,0.000155601,0.00224318,0.00187148,1.07469,0.00138824,0.0081498,608,939,-0.0409432,-0.0725496
-609,85,-0.0544434,0.0740356,0.00143462,0.00103606,0.000137632,0.00147753,0.000993153,0.302212,0.000869745,0.0105293,615,939,-0.0544454,-0.074034
-602,85,-0.0569458,0.0791626,0.000707885,0.000268511,0.000403257,0.000947413,2.8983e-05,0.535984,0.000622173,0.0140765,622,939,-0.0569646,-0.0791347
-595,85,-0.0255737,0.0935669,0.000134409,0.000105284,0.000294736,0.000414942,-0.000175249,0.760714,0.000349989,0.0141904,629,939,-0.0255588,-0.0935429
-588,85,-0.0298462,0.097168,7.93099e-05,0.00025402,7.22548e-05,0.00028003,5.32998e-05,1.22526,0.0001717,0.0138596,636,939,-0.0298388,-0.0971861
-581,85,-0.0310059,0.0799561,0.000224536,0.000366658,-0.000113337,0.000429368,0.000161825,-1.06541,0.000250388,0.0122193,643,939,-0.0309838,-0.0799388
-574,85,-0.0514526,0.0627441,0.000386336,0.000444053,-0.000333511,0.000749952,8.04369e-05,-0.828555,0.000475429,0.0179121,650,939,-0.0514514,-0.0627356
-567,85,-0.0378418,0.0227661,0.000541325,0.000532749,-0.00058675,0.0011238,-4.97286e-05,-0.781744,0.000766316,0.0287805,657,939,-0.0378206,-0.022796
-560,85,0.0401611,-0.00506592,0.000832308,0.00069797,-0.000883407,0.0016511,-0.000120817,-0.747454,0.00114313,0.0338507,664,939,0.0401688,0.00503926
-553,85,0.0162354,0.0681152,0.00121061,0.000809522,-0.0012621,0.00228801,-0.000267871,-0.706608,0.00162202,0.0365855,671,939,0.0162198,-0.0681096
-546,85,-0.0645752,0.139771,0.00178805,0.000951102,-0.00178827,0.00320615,-0.000466999,-0.670461,0.0023089,0.0379303,678,939,-0.0645894,-0.13979
-539,85,-0.0299683,0.204285,0.00264973,0.00114691,-0.00249901,0.00450785,-0.000711216,-0.639357,0.0032682,0.0353118,685,939,-0.0299836,-0.204268
-532,85,0.026001,0.169739,0.00387044,0.00142552,-0.00343044,0.00628973,-0.000993768,-0.614235,0.00456064,0.0360469,692,939,0.026028,-0.169723
-525,85,0.0596924,0.100525,0.00551189,0.00182859,-0.00468122,0.0087007,-0.00136021,-0.597991,0.00630298,0.0355686,699,939,0.0596974,-0.100537
-518,85,0.0736694,0.031189,0.00775411,0.00245618,-0.0064212,0.0120513,-0.00184099,-0.589765,0.00871293,0.033059,706,939,0.073669,-0.0311943
-511,85,0,0,0,0,0,0,0,0,0,-1,713,939,0,0
-504,85,0,0,0,0,0,0,0,0,0,-1,720,939,0,0
-497,85,0,0,0,0,0,0,0,0,0,-1,727,939,0,0
-490,85,0,0,0,0,0,0,0,0,0,-1,734,939,0,0
-483,85,0,0,0,0,0,0,0,0,0,-1,741,939,0,0
-476,85,0,0,0,0,0,0,0,0,0,-1,748,939,0,0
-469,85,0,0,0,0,0,0,0,0,0,-1,755,939,0,0
-462,85,0,0,0,0,0,0,0,0,0,-1,762,939,0,0
-455,85,0,0,0,0,0,0,0,0,0,-1,769,939,0,0
-448,85,0,0,0,0,0,0,0,0,0,-1,776,939,0,0
-441,85,0,0,0,0,0,0,0,0,0,-1,783,939,0,0
-434,85,0,0,0,0,0,0,0,0,0,-1,790,939,0,0
-427,85,0,0,0,0,0,0,0,0,0,-1,797,939,0,0
-420,85,0,0,0,0,0,0,0,0,0,-1,804,939,0,0
-413,85,0,0,0,0,0,0,0,0,0,-1,811,939,0,0
-406,85,0,0,0,0,0,0,0,0,0,-1,818,939,0,0
-399,85,0,0,0,0,0,0,0,0,0,-1,825,939,0,0
-392,85,0,0,0,0,0,0,0,0,0,-1,832,939,0,0
-385,85,0,0,0,0,0,0,0,0,0,-1,839,939,0,0
-378,85,0,0,0,0,0,0,0,0,0,-1,846,939,0,0
-371,85,0,0,0,0,0,0,0,0,0,-1,853,939,0,0
-364,85,0,0,0,0,0,0,0,0,0,-1,860,939,0,0
-357,85,0,0,0,0,0,0,0,0,0,-1,867,939,0,0
-350,85,0,0,0,0,0,0,0,0,0,-1,874,939,0,0
-343,85,0,0,0,0,0,0,0,0,0,-1,881,939,0,0
-336,85,0,0,0,0,0,0,0,0,0,-1,888,939,0,0
-329,85,0,0,0,0,0,0,0,0,0,-1,895,939,0,0
-322,85,0,0,0,0,0,0,0,0,0,-1,902,939,0,0
-315,85,0,0,0,0,0,0,0,0,0,-1,909,939,0,0
-308,85,0,0,0,0,0,0,0,0,0,-1,916,939,0,0
-301,85,0,0,0,0,0,0,0,0,0,-1,923,939,0,0
-294,85,0,0,0,0,0,0,0,0,0,-1,930,939,0,0
-287,85,0,0,0,0,0,0,0,0,0,-1,937,939,0,0
-280,85,0,0,0,0,0,0,0,0,0,-1,944,939,0,0
-273,85,0,0,0,0,0,0,0,0,0,-1,951,939,0,0
-266,85,0,0,0,0,0,0,0,0,0,-1,958,939,0,0
-259,85,0,0,0,0,0,0,0,0,0,-1,965,939,0,0
-252,85,0,0,0,0,0,0,0,0,0,-1,972,939,0,0
-245,85,0,0,0,0,0,0,0,0,0,-1,979,939,0,0
-238,85,0,0,0,0,0,0,0,0,0,-1,986,939,0,0
-231,85,0,0,0,0,0,0,0,0,0,-1,993,939,0,0
-224,85,0,0,0,0,0,0,0,0,0,-1,1000,939,0,0
-217,85,0,0,0,0,0,0,0,0,0,-1,1007,939,0,0
-210,85,0,0,0,0,0,0,0,0,0,-1,1014,939,0,0
-203,85,0,0,0,0,0,0,0,0,0,-1,1021,939,0,0
-196,85,0,0,0,0,0,0,0,0,0,-1,1028,939,0,0
-189,85,0,0,0,0,0,0,0,0,0,-1,1035,939,0,0
-182,85,0,0,0,0,0,0,0,0,0,-1,1042,939,0,0
-175,85,0,0,0,0,0,0,0,0,0,-1,1049,939,0,0
-168,85,0,0,0,0,0,0,0,0,0,-1,1056,939,0,0
-161,85,0,0,0,0,0,0,0,0,0,-1,1063,939,0,0
-154,85,0,0,0,0,0,0,0,0,0,-1,1070,939,0,0
-147,85,0,0,0,0,0,0,0,0,0,-1,1077,939,0,0
-140,85,0,0,0,0,0,0,0,0,0,-1,1084,939,0,0
-133,85,0,0,0,0,0,0,0,0,0,-1,1091,939,0,0
-126,85,0,0,0,0,0,0,0,0,0,-1,1098,939,0,0
-119,85,0,0,0,0,0,0,0,0,0,-1,1105,939,0,0
-112,85,0,0,0,0,0,0,0,0,0,-1,1112,939,0,0
-105,85,0,0,0,0,0,0,0,0,0,-1,1119,939,0,0
-98,85,0,0,0,0,0,0,0,0,0,-1,1126,939,0,0
-91,85,0,0,0,0,0,0,0,0,0,-1,1133,939,0,0
-84,85,0,0,0,0,0,0,0,0,0,-1,1140,939,0,0
-77,85,0,0,0,0,0,0,0,0,0,-1,1147,939,0,0
-70,85,0,0,0,0,0,0,0,0,0,-1,1154,939,0,0
-63,85,0,0,0,0,0,0,0,0,0,-1,1161,939,0,0
-56,85,0,0,0,0,0,0,0,0,0,-1,1168,939,0,0
-49,85,0,0,0,0,0,0,0,0,0,-1,1175,939,0,0
-42,85,0,0,0,0,0,0,0,0,0,-1,1182,939,0,0
-35,85,0,0,0,0,0,0,0,0,0,-1,1189,939,0,0
-28,85,0,0,0,0,0,0,0,0,0,-1,1196,939,0,0
-21,85,0,0,0,0,0,0,0,0,0,-1,1203,939,0,0
-14,85,0,0,0,0,0,0,0,0,0,-1,1210,939,0,0
-7,85,0,0,0,0,0,0,0,0,0,-1,1217,939,0,0
0,85,0,0,0,0,0,0,0,0,0,-1,1224,939,0,0
7,85,0,0,0,0,0,0,0,0,0,-1,1231,939,0,0
14,85,0,0,0,0,0,0,0,0,0,-1,1238,939,0,0
21,85,0,0,0,0,0,0,0,0,0,-1,1245,939,0,0
28,85,0,0,0,0,0,0,0,0,0,-1,1252,939,0,0
35,85,0,0,0,0,0,0,0,0,0,-1,1259,939,0,0
42,85,0,0,0,0,0,0,0,0,0,-1,1266,939,0,0
49,85,0,0,0,0,0,0,0,0,0,-1,1273,939,0,0
56,85,0,0,0,0,0,0,0,0,0,-1,1280,939,0,0
63,85,0,0,0,0,0,0,0,0,0,-1,1287,939,0,0
70,85,0,0,0,0,0,0,0,0,0,-1,1294,939,0,0
77,85,0,0,0,0,0,0,0,0,0,-1,1301,939,0,0
84,85,0,0,0,0,0,0,0,0,0,-1,1308,939,0,0
91,85,0,0,0,0,0,0,0,0,0,-1,1315,939,0,0
98,85,0,0,0,0,0,0,0,0,0,-1,1322,939,0,0
105,85,0,0,0,0,0,0,0,0,0,-1,1329,939,0,0
112,85,0,0,0,0,0,0,0,0,0,-1,1336,939,0,0
119,85,0,0,0,0,0,0,0,0,0,-1,1343,939,0,0
126,85,0,0,0,0,0,0,0,0,0,-1,1350,939,0,0
133,85,0,0,0,0,0,0,0,0,0,-1,1357,939,0,0
140,85,0,0,0,0,0,0,0,0,0,-1,1364,939,0,0
147,85,0,0,0,0,0,0,0,0,0,-1,1371,939,0,0
154,85,0,0,0,0,0,0,0,0,0,-1,1378,939,0,0
161,85,0,0,0,0,0,0,0,0,0,-1,1385,939,0,0
168,85,0,0,0,0,0,0,0,0,0,-1,1392,939,0,0
175,85,0,0,0,0,0,0,0,0,0,-1,1399,939,0,0
182,85,0,0,0,0,0,0,0,0,0,-1,1406,939,0,0
189,85,0,0,0,0,0,0,0,0,0,-1,1413,939,0,0
196,85,0,0,0,0,0,0,0,0,0,-1,1420,939,0,0
203,85,0,0,0,0,0,0,0,0,0,-1,1427,939,0,0
210,85,0,0,0,0,0,0,0,0,0,-1,1434,939,0,0
217,85,0,0,0,0,0,0,0,0,0,-1,1441,939,0,0
224,85,0,0,0,0,0,0,0,0,0,-1,1448,939,0,0
231,85,0,0,0,0,0,0,0,0,0,-1,1455,939,0,0
238,85,0,0,0,0,0,0,0,0,0,-1,1462,939,0,0
245,85,0,0,0,0,0,0,0,0,0,-1,1469,939,0,0
252,85,0,0,0,0,0,0,0,0,0,-1,1476,939,0,0
259,85,0,0,0,0,0,0,0,0,0,-1,1483,939,0,0
266,85,0,0,0,0,0,0,0,0,0,-1,1490,939,0,0
273,85,0,0,0,0,0,0,0,0,0,-1,1497,939,0,0
280,85,0,0,0,0,0,0,0,0,0,-1,1504,939,0,0
287,85,0,0,0,0,0,0,0,0,0,-1,1511,939,0,0
294,85,0,0,0,0,0,0,0,0,0,-1,1518,939,0,0
301,85,0,0,0,0,0,0,0,0,0,-1,1525,939,0,0
308,85,0,0,0,0,0,0,0,0,0,-1,1532,939,0,0
315,85,0,0,0,0,0,0,0,0,0,-1,1539,939,0,0
322,85,0,0,0,0,0,0,0,0,0,-1,1546,939,0,0
329,85,0,0,0,0,0,0,0,0,0,-1,1553,939,0,0
336,85,0,0,0,0,0,0,0,0,0,-1,1560,939,0,0
343,85,0,0,0,0,0,0,0,0,0,-1,1567,939,0,0
350,85,0,0,0,0,0,0,0,0,0,-1,1574,939,0,0
357,85,0,0,0,0,0,0,0,0,0,-1,1581,939,0,0
364,85,0,0,0,0,0,0,0,0,0,-1,1588,939,0,0
371,85,0,0,0,0,0,0,0,0,0,-1,1595,939,0,0
378,85,0,0,0,0,0,0,0,0,0,-1,1602,939,0,0
385,85,0,0,0,0,0,0,0,0,0,-1,1609,939,0,0
392,85,0,0,0,0,0,0,0,0,0,-1,1616,939,0,0
399,85,0,0,0,0,0,0,0,0,0,-1,1623,939,0,0
406,85,0,0,0,0,0,0,0,0,0,-1,1630,939,0,0
413,85,0,0,0,0,0,0,0,0,0,-1,1637,939,0,0
420,85,0,0,0,0,0,0,0,0,0,-1,1644,939,0,0
427,85,0,0,0,0,0,0,0,0,0,-1,1651,939,0,0
434,85,0,0,0,0,0,0,0,0,0,-1,1658,939,0,0
441,85,0,0,0,0,0,0,0,0,0,-1,1665,939,0,0
448,85,0,0,0,0,0,0,0,0,0,-1,1672,939,0,0
455,85,0,0,0,0,0,0,0,0,0,-1,1679,939,0,0
462,85,0,0,0,0,0,0,0,0,0,-1,1686,939,0,0
469,85,0,0,0,0,0,0,0,0,0,-1,1693,939,0,0
476,85,0,0,0,0,0,0,0,0,0,-1,1700,939,0,0
483,85,0,0,0,0,0,0,0,0,0,-1,1707,939,0,0
490,85,0,0,0,0,0,0,0,0,0,-1,1714,939,0,0
497,85,0,0,0,0,0,0,0,0,0,-1,1721,939,0,0
504,85,0,0,0,0,0,0,0,0,0,-1,1728,939,0,0
511,85,0,0,0,0,0,0,0,0,0,-1,1735,939,0,0
518,85,0,0,0,0,0,0,0,0,0,-1,1742,939,0,0
525,85,0,0,0,0,0,0,0,0,0,-1,1749,939,0,0
532,85,0,0,0,0,0,0,0,0,0,-1,1756,939,0,0
539,85,0,0,0,0,0,0,0,0,0,-1,1763,939,0,0
546,85,0,0,0,0,0,0,0,0,0,-1,1770,939,0,0
553,85,0,0,0,0,0,0,0,0,0,-1,1777,939,0,0
560,85,0,0,0,0,0,0,0,0,0,-1,1784,939,0,0
567,85,0,0,0,0,0,0,0,0,0,-1,1791,939,0,0
574,85,0,0,0,0,0,0,0,0,0,-1,1798,939,0,0
581,85,0,0,0,0,0,0,0,0,0,-1,1805,939,0,0
588,85,0,0,0,0,0,0,0,0,0,-1,1812,939,0,0
595,85,0,0,0,0,0,0,0,0,0,-1,1819,939,0,0
602,85,0,0,0,0,0,0,0,0,0,-1,1826,939,0,0
609,85,0,0,0,0,0,0,0,0,0,-1,1833,939,0,0
616,85,0,0,0,0,0,0,0,0,0,-1,1840,939,0,0
623,85,0,0,0,0,0,0,0,0,0,-1,1847,939,0,0
630,85,0,0,0,0,0,0,0,0,0,-1,1854,939,0,0
637,85,-0.0766602,0.0797729,0.00133046,0.00183281,0.000201857,0.00190387,0.0012594,1.23231,0.00111815,0.0427814,1861,939,-0.0767116,-0.0797622
644,85,-0.0559082,0.0875854,0.000406246,0.0012479,0.000381739,0.00139525,0.000258901,1.20243,0.000857001,0.0364841,1868,939,-0.0558939,-0.0875967
651,85,0.0561523,0.0230103,-0.000125126,0.000845259,0.000373048,0.000972093,-0.00025196,1.24306,0.000746362,0.0351338,1875,939,0.0561752,-0.022995
658,85,-0.0845947,0.179626,-0.000394604,0.000562016,0.000323134,0.000660938,-0.000493525,1.27372,0.000668861,0.0356433,1882,939,-0.0846297,-0.179648
665,85,-0.164551,0.346619,-0.000508806,0.000358153,0.000250777,0.000425467,-0.000576119,1.30856,0.000580442,0.0372948,1889,939,-0.164556,-0.346632
672,85,-0.124146,0.228271,-0.000510585,0.000219114,0.00016256,0.00025369,-0.000545161,1.36122,0.000471339,0.0374872,1896,939,-0.124126,-0.228295
679,85,-0.06604,0.106262,-0.000436529,0.0001335,9.68903e-05,0.000149519,-0.000452548,1.40695,0.000361982,0.0339284,1903,939,-0.0660921,-0.106242
686,85,-0.0361328,0.102234,-0.000321403,4.79024e-05,1.48237e-05,4.84965e-05,-0.000321997,1.53074,0.000232522,0.0296509,1910,939,-0.0361032,-0.102244
693,85,-0.0787354,0.0963135,-0.000255536,2.19378e-05,-1.02214e-05,2.23138e-05,-0.000255912,-1.53403,0.000178512,0.0191991,1917,939,-0.0786783,-0.0962911
700,85,-0.043457,0.043457,-0.000259043,2.85638e-06,1.73396e-05,3.99938e-06,-0.000260186,1.50497,0.000174806,0.0129179,1924,939,-0.0434986,-0.0434558
707,85,-0.0322266,0.0623169,-0.000136901,1.03816e-06,-2.7097e-05,6.17019e-06,-0.000142033,-1.38362,9.68112e-05,0.0144943,1931,939,-0.0322588,-0.0623086
714,85,-0.0384521,0.10376,4.8525e-05,1.49743e-05,-0.000113867,0.000146846,-8.33466e-05,-0.712262,0.000134577,0.0203526,1938,939,-0.0385072,-0.103729
721,85,-0.0482178,0.0828857,4.04194e-05,2.90464e-05,-0.000125259,0.000160121,-9.06553e-05,-0.762715,0.000146626,0.0191152,1945,939,-0.0481874,-0.0828784
728,85,-0.0526123,0.0620117,0.000139154,6.08697e-05,-0.000117687,0.000224037,-2.40139e-05,-0.624856,0.000157972,0.0147971,1952,939,-0.0526709,-0.0619905
735,85,-0.0424805,0.0770874,0.000558665,-5.53693e-05,-2.90068e-05,0.000560032,-5.67366e-05,-0.0470999,0.000393632,0.0142572,1959,939,-0.0425235,-0.0771
742,85,-0.027832,0.0765381,0.00125451,-0.000175834,0.000305126,0.00131688,-0.000238205,0.201632,0.000967149,0.0126115,1966,939,-0.0278003,-0.0765445
749,85,-0.0343018,0.0744629,0.00196637,-0.000946356,0.000925011,0.00223531,-0.00121529,0.282933,0.00202101,0.0120563,1973,939,-0.0342664,-0.0744915
756,85,-0.0556641,0.0717163,0.00257979,-0.00155348,0.0017639,0.00323019,-0.00220388,0.353265,0.00315596,0.0118582,1980,939,-0.0556962,-0.0717168
763,85,-0.0543213,0.0812378,0.00376231,-0.00251106,0.00271658,0.00477516,-0.0035239,0.356875,0.00480958,0.0123276,1987,939,-0.0543028,-0.0812169
770,85,-0.088501,0.108276,0.00515616,-0.0038699,0.00423126,0.00682949,-0.00554323,0.376593,0.00715625,0.0181459,1994,939,-0.0884643,-0.108278
777,85,-0.163208,0.102173,0.00675877,-0.0057993,0.00637368,0.0094268,-0.00846734,0.396439,0.0103361,0.0411251,2001,939,-0.16322,-0.102173
784,85,0.00549316,0.367188,0.0084902,-0.00846338,0.00933376,0.0126219,-0.0125951,0.416739,0.0145591,0.0482782,2008,939,0.00554507,-0.36718
791,85,0.157837,0.636719,0.0102193,-0.0120842,0.0133188,0.0164386,-0.0183035,0.436863,0.020068,0.0468717,2015,939,0.157896,-0.636719
798,85,-0.376221,1.63641,0,0,0,0,0,0,0,-1,2022,939,-0.376257,-1.63639
805,85,-1.33484,3.95044,0,0,0,0,0,0,0,-1,2029,939,-1.3349,-3.95041
812,85,0,0,0,0,0,0,0,0,0,-1,2036,939,0,0
-700,78,0,0,0,0,0,0,0,0,0,-1,524,946,0,0
-693,78,0,0,0,0,0,0,0,0,0,-1,531,946,0,0
-686,78,-1.84082,0.687256,0.028055,0.0442175,-0.0755148,0.112082,-0.0398098,-0.838703,0.0909438,0.0418602,538,946,-1.84081,-0.687233
-679,78,-0.256287,0.0742798,0.0195793,0.0387333,-0.0588619,0.0887922,-0.0304796,-0.866043,0.0715524,0.0460263,545,946,-0.256309,-0.0742717
-672,78,-1.07745,-0.139832,0.0139303,0.0330092,-0.0452056,0.0696709,-0.0227314,-0.889384,0.0555956,0.045612,552,946,-1.07745,0.139848
-665,78,-1.45496,0.600098,0,0,0,0,0,0,0,-1,559,946,-1.45493,-0.600068
-658,78,-1.13971,0.532471,0.00759394,0.0221298,-0.0247985,0.0407035,-0.0109798,-0.927946,0.0314413,0.0481927,566,946,-1.1397,-0.532495
-651,78,-0.661194,0.398376,0.00583722,0.0173054,-0.0174639,0.0299525,-0.00680988,-0.944022,0.0225831,0.0434247,573,946,-0.661188,-0.398361
-644,78,-0.055542,0.00201416,0.00456411,0.0130528,-0.0117624,0.0213132,-0.00369626,-0.958548,0.0155876,0.0247259,580,946,-0.0555195,-0.00198422
-637,78,-0.0372314,0.0817871,0.00382298,0.00934985,-0.00751587,0.0145942,-0.00142139,-0.961567,0.0102362,0.0116899,587,946,-0.0372201,-0.0818105
-630,78,-0.0223389,0.0761719,0.00225126,0.00632266,-0.00320106,0.00808049,0.000493429,-1.06861,0.00523028,0.0110245,594,946,-0.0223342,-0.0761689
-623,78,-0.0286865,0.0570679,0.00165182,0.00410899,-0.000907763,0.00440797,0.00135284,-1.25263,0.00260744,0.0109379,601,946,-0.0286772,-0.0570708
-616,78,-0.0386353,0.0637817,0.00196615,0.00230933,-0.000102913,0.00233783,0.00193766,-1.30067,0.00144377,0.00995302,608,946,-0.0386484,-0.0637703
-609,78,-0.0324097,0.0692139,0.00161997,0.0012255,1.21694e-05,0.00162034,0.00122513,0.0308114,0.000975551,0.0111368,615,946,-0.0324322,-0.0692213
-602,78,-0.0126953,0.0541992,0.000803168,0.00034864,0.000244456,0.000909681,0.000242126,0.410914,0.000544013,0.0142777,622,946,-0.0126972,-0.0541885
-595,78,-0.0045166,0.0612793,0.000133492,0.000142486,0.000195958,0.000333999,-5.80208e-05,0.79687,0.000244314,0.0140199,629,946,-0.00452568,-0.0612628
-588,78,-0.0118408,0.0831909,4.64768e-05,0.00026334,2.15465e-05,0.00026546,4.43568e-05,1.47272,0.000164197,0.0125307,636,946,-0.0118263,-0.0832036
-581,78,-0.00598145,0.0653076,0.000228276,0.000345745,-0.000123479,0.000423747,0.000150274,-1.00739,0.000248073,0.0131417,643,946,-0.00600379,-0.065287
-574,78,-0.026001,0.0374146,0.000450835,0.000382116,-0.000310016,0.00072839,0.000104561,-0.730208,0.000454764,0.0185615,650,946,-0.0260007,-0.037408
-567,78,-0.0534668,0.0344238,0.000624891,0.000434149,-0.000524926,0.00106304,-3.99956e-06,-0.695536,0.00071003,0.0276338,657,946,-0.053492,-0.0344374
-560,78,-0.0293579,0.0957031,0.000935167,0.000523003,-0.000779752,0.00153561,-7.74399e-05,-0.656206,0.0010505,0.0307305,664,946,-0.0293491,-0.095674
-553,78,0.0194702,0.162598,0.00136192,0.000560482,-0.00111934,0.00215011,-0.00022771,-0.613509,0.00151502,0.0372821,671,946,0.0194724,-0.162587
-546,78,-0.0471802,0.125122,0.00200914,0.000601008,-0.00160568,0.00305833,-0.000448182,-0.57878,0.00220353,0.0363626,678,946,-0.0472103,-0.125098
-539,78,-0.0945435,0.108215,0.00296469,0.000660897,-0.00227638,0.00436402,-0.000738434,-0.551172,0.00318416,0.0334291,685,946,-0.0945676,-0.108242
-532,78,0.000793457,0.136353,0.00431376,0.000756073,-0.00317196,0.00617162,-0.00110179,-0.529848,0.0045266,0.0363595,692,946,0.000778585,-0.136351
-525,78,0.0950928,0.026123,0.00613959,0.000913404,-0.0044073,0.00865022,-0.00159723,-0.517806,0.00636636,0.0373155,699,946,0.095082,-0.0261128
-518,78,0.125244,-0.0713501,0.0086341,0.00120117,-0.00620986,0.0121547,-0.00231939,-0.515748,0.00897667,0.0379664,706,946,0.125254,0.0713634
-511,78,0,0,0,0,0,0,0,0,0,-1,713,946,0,0
-504,78,0,0,0,0,0,0,0,0,0,-1,720,946,0,0
-497,78,0,0,0,0,0,0,0,0,0,-1,727,946,0,0
-490,78,0,0,0,0,0,0,0,0,0,-1,734,946,0,0
-483,78,0,0,0,0,0,0,0,0,0,-1,741,946,0,0
-476,78,0,0,0,0,0,0,0,0,0,-1,748,946,0,0
-469,78,0,0,0,0,0,0,0,0,0,-1,755,946,0,0
-462,78,0,0,0,0,0,0,0,0,0,-1,762,946,0,0
-455,78,0,0,0,0,0,0,0,0,0,-1,769,946,0,0
-448,78,0,0,0,0,0,0,0,0,0,-1,776,946,0,0
-441,78,0,0,0,0,0,0,0,0,0,-1,783,946,0,0
-434,78,0,0,0,0,0,0,0,0,0,-1,790,946,0,0
-427,78,0,0,0,0,0,0,0,0,0,-1,797,946,0,0
-420,78,0,0,0,0,0,0,0,0,0,-1,804,946,0,0
-413,78,0,0,0,0,0,0,0,0,0,-1,811,946,0,0
-406,78,0,0,0,0,0,0,0,0,0,-1,818,946,0,0
-399,78,0,0,0,0,0,0,0,0,0,-1,825,946,0,0
-392,78,0,0,0,0,0,0,0,0,0,-1,832,946,0,0
-385,78,0,0,0,0,0,0,0,0,0,-1,839,946,0,0
-378,78,0,0,0,0,0,0,0,0,0,-1,846,946,0,0
-371,78,0,0,0,0,0,0,0,0,0,-1,853,946,0,0
-364,78,0,0,0,0,0,0,0,0,0,-1,860,946,0,0
-357,78,0,0,0,0,0,0,0,0,0,-1,867,946,0,0
-350,78,0,0,0,0,0,0,0,0,0,-1,874,946,0,0
-343,78,0,0,0,0,0,0,0,0,0,-1,881,946,0,0
-336,78,0,0,0,0,0,0,0,0,0,-1,888,946,0,0
-329,78,0,0,0,0,0,0,0,0,0,-1,895,946,0,0
-322,78,0,0,0,0,0,0,0,0,0,-1,902,946,0,0
-315,78,0,0,0,0,0,0,0,0,0,-1,909,946,0,0
-308,78,0,0,0,0,0,0,0,0,0,-1,916,946,0,0
-301,78,0,0,0,0,0,0,0,0,0,-1,923,946,0,0
-294,78,0,0,0,0,0,0,0,0,0,-1,930,946,0,0
-287,78,0,0,0,0,0,0,0,0,0,-1,937,946,0,0
-280,78,0,0,0,0,0,0,0,0,0,-1,944,946,0,0
-273,78,0,0,0,0,0,0,0,0,0,-1,951,946,0,0
-266,78,0,0,0,0,0,0,0,0,0,-1,958,946,0,0
-259,78,0,0,0,0,0,0,0,0,0,-1,965,946,0,0
-252,78,0,0,0,0,0,0,0,0,0,-1,972,946,0,0
-245,78,0,0,0,0,0,0,0,0,0,-1,979,946,0,0
-238,78,0,0,0,0,0,0,0,0,0,-1,986,946,0,0
-231,78,0,0,0,0,0,0,0,0,0,-1,993,946,0,0
-224,78,0,0,0,0,0,0,0,0,0,-1,1000,946,0,0
-217,78,0,0,0,0,0,0,0,0,0,-1,1007,946,0,0
-210,78,0,0,0,0,0,0,0,0,0,-1,1014,946,0,0
-203,78,0,0,0,0,0,0,0,0,0,-1,1021,946,0,0
-196,78,0,0,0,0,0,0,0,0,0,-1,1028,946,0,0
-189,78,0,0,0,0,0,0,0,0,0,-1,1035,946,0,0
-182,78,0,0,0,0,0,0,0,0,0,-1,1042,946,0,0
-175,78,0,0,0,0,0,0,0,0,0,-1,1049,946,0,0
-168,78,0,0,0,0,0,0,0,0,0,-1,1056,946,0,0
-161,78,0,0,0,0,0,0,0,0,0,-1,1063,946,0,0
-154,78,0,0,0,0,0,0,0,0,0,-1,1070,946,0,0
-147,78,0,0,0,0,0,0,0,0,0,-1,1077,946,0,0
-140,78,0,0,0,0,0,0,0,0,0,-1,1084,946,0,0
-133,78,0,0,0,0,0,0,0,0,0,-1,1091,946,0,0
-126,78,0,0,0,0,0,0,0,0,0,-1,1098,946,0,0
-119,78,0,0,0,0,0,0,0,0,0,-1,1105,946,0,0
-112,78,0,0,0,0,0,0,0,0,0,-1,1112,946,0,0
-105,78,0,0,0,0,0,0,0,0,0,-1,1119,946,0,0
-98,78,0,0,0,0,0,0,0,0,0,-1,1126,946,0,0
-91,78,0,0,0,0,0,0,0,0,0,-1,1133,946,0,0
-84,78,0,0,0,0,0,0,0,0,0,-1,1140,946,0,0
-77,78,0,0,0,0,0,0,0,0,0,-1,1147,946,0,0
-70,78,0,0,0,0,0,0,0,0,0,-1,1154,946,0,0
-63,78,0,0,0,0,0,0,0,0,0,-1,1161,946,0,0
-56,78,0,0,0,0,0,0,0,0,0,-1,1168,946,0,0
-49,78,0,0,0,0,0,0,0,0,0,-1,1175,946,0,0
-42,78,0,0,0,0,0,0,0,0,0,-1,1182,946,0,0
-35,78,0,0,0,0,0,0,0,0,0,-1,1189,946,0,0
-28,78,0,0,0,0,0,0,0,0,0,-1,1196,946,0,0
-21,78,0,0,0,0,0,0,0,0,0,-1,1203,946,0,0
-14,78,0,0,0,0,0,0,0,0,0,-1,1210,946,0,0
-7,78,0,0,0,0,0,0,0,0,0,-1,1217,946,0,0
0,78,0,0,0,0,0,0,0,0,0,-1,1224,946,0,0
7,78,0,0,0,0,0,0,0,0,0,-1,1231,946,0,0
14,78,0,0,0,0,0,0,0,0,0,-1,1238,946,0,0
21,78,0,0,0,0,0,0,0,0,0,-1,1245,946,0,0
28,78,0,0,0,0,0,0,0,0,0,-1,1252,946,0,0
35,78,0,0,0,0,0,0,0,0,0,-1,1259,946,0,0
42,78,0,0,0,0,0,0,0,0,0,-1,1266,946,0,0
49,78,0,0,0,0,0,0,0,0,0,-1,1273,946,0,0
56,78,0,0,0,0,0,0,0,0,0,-1,1280,946,0,0
63,78,0,0,0,0,0,0,0,0,0,-1,1287,946,0,0
70,78,0,0,0,0,0,0,0,0,0,-1,1294,946,0,0
77,78,0,0,0,0,0,0,0,0,0,-1,1301,946,0,0
84,78,0,0,0,0,0,0,0,0,0,-1,1308,946,0,0
91,78,0,0,0,0,0,0,0,0,0,-1,1315,946,0,0
98,78,0,0,0,0,0,0,0,0,0,-1,1322,946,0,0
105,78,0,0,0,0,0,0,0,0,0,-1,1329,946,0,0
112,78,0,0,0,0,0,0,0,0,0,-1,1336,946,0,0
119,78,0,0,0,0,0,0,0,0,0,-1,1343,946,0,0
126,78,0,0,0,0,0,0,0,0,0,-1,1350,946,0,0
133,78,0,0,0,0,0,0,0,0,0,-1,1357,946,0,0
140,78,0,0,0,0,0,0,0,0,0,-1,1364,946,0,0
147,78,0,0,0,0,0,0,0,0,0,-1,1371,946,0,0
154,78,0,0,0,0,0,0,0,0,0,-1,1378,946,0,0
161,78,0,0,0,0,0,0,0,0,0,-1,1385,946,0,0
168,78,0,0,0,0,0,0,0,0,0,-1,1392,946,0,0
175,78,0,0,0,0,0,0,0,0,0,-1,1399,946,0,0
182,78,0,0,0,0,0,0,0,0,0,-1,1406,946,0,0
189,78,0,0,0,0,0,0,0,0,0,-1,1413,946,0,0
196,78,0,0,0,0,0,0,0,0,0,-1,1420,946,0,0
203,78,0,0,0,0,0,0,0,0,0,-1,1427,946,0,0
210,78,0,0,0,0,0,0,0,0,0,-1,1434,946,0,0
217,78,0,0,0,0,0,0,0,0,0,-1,1441,946,0,0
224,78,0,0,0,0,0,0,0,0,0,-1,1448,946,0,0
231,78,0,0,0,0,0,0,0,0,0,-1,1455,946,0,0
238,78,0,0,0,0,0,0,0,0,0,-1,1462,946,0,0
245,78,0,0,0,0,0,0,0,0,0,-1,1469,946,0,0
252,78,0,0,0,0,0,0,0,0,0,-1,1476,946,0,0
259,78,0,0,0,0,0,0,0,0,0,-1,1483,946,0,0
266,78,0,0,0,0,0,0,0,0,0,-1,1490,946,0,0
273,78,0,0,0,0,0,0,0,0,0,-1,1497,946,0,0
280,78,0,0,0,0,0,0,0,0,0,-1,1504,946,0,0
287,78,0,0,0,0,0,0,0,0,0,-1,1511,946,0,0
294,78,0,0,0,0,0,0,0,0,0,-1,1518,946,0,0
301,78,0,0,0,0,0,0,0,0,0,-1,1525,946,0,0
308,78,0,0,0,0,0,0,0,0,0,-1,1532,946,0,0
315,78,0,0,0,0,0,0,0,0,0,-1,1539,946,0,0
322,78,0,0,0,0,0,0,0,0,0,-1,1546,946,0,0
329,78,0,0,0,0,0,0,0,0,0,-1,1553,946,0,0
336,78,0,0,0,0,0,0,0,0,0,-1,1560,946,0,0
343,78,0,0,0,0,0,0,0,0,0,-1,1567,946,0,0
350,78,0,0,0,0,0,0,0,0,0,-1,1574,946,0,0
357,78,0,0,0,0,0,0,0,0,0,-1,1581,946,0,0
364,78,0,0,0,0,0,0,0,0,0,-1,1588,946,0,0
371,78,0,0,0,0,0,0,0,0,0,-1,1595,946,0,0
378,78,0,0,0,0,0,0,0,0,0,-1,1602,946,0,0
385,78,0,0,0,0,0,0,0,0,0,-1,1609,946,0,0
392,78,0,0,0,0,0,0,0,0,0,-1,1616,946,0,0
399,78,0,0,0,0,0,0,0,0,0,-1,1623,946,0,0
406,78,0,0,0,0,0,0,0,0,0,-1,1630,946,0,0
413,78,0,0,0,0,0,0,0,0,0,-1,1637,946,0,0
420,78,0,0,0,0,0,0,0,0,0,-1,1644,946,0,0
427,78,0,0,0,0,0,0,0,0,0,-1,1651,946,0,0
434,78,0,0,0,0,0,0,0,0,0,-1,1658,946,0,0
441,78,0,0,0,0,0,0,0,0,0,-1,1665,946,0,0
448,78,0,0,0,0,0,0,0,0,0,-1,1672,946,0,0
455,78,0,0,0,0,0,0,0,0,0,-1,1679,946,0,0
462,78,0,0,0,0,0,0,0,0,0,-1,1686,946,0,0
469,78,0,0,0,0,0,0,0,0,0,-1,1693,946,0,0
476,78,0,0,0,0,0,0,0,0,0,-1,1700,946,0,0
483,78,0,0,0,0,0,0,0,0,0,-1,1707,946,0,0
490,78,0,0,0,0,0,0,0,0,0,-1,1714,946,0,0
497,78,0,0,0,0,0,0,0,0,0,-1,1721,946,0,0
504,78,0,0,0,0,0,0,0,0,0,-1,1728,946,0,0
511,78,0,0,0,0,0,0,0,0,0,-1,1735,946,0,0
518,78,0,0,0,0,0,0,0,0,0,-1,1742,946,0,0
525,78,0,0,0,0,0,0,0,0,0,-1,1749,946,0,0
532,78,0,0,0,0,0,0,0,0,0,-1,1756,946,0,0
539,78,0,0,0,0,0,0,0,0,0,-1,1763,946,0,0
546,78,0,0,0,0,0,0,0,0,0,-1,1770,946,0,0
553,78,0,0,0,0,0,0,0,0,0,-1,1777,946,0,0
560,78,0,0,0,0,0,0,0,0,0,-1,1784,946,0,0
567,78,0,0,0,0,0,0,0,0,0,-1,1791,946,0,0
574,78,0,0,0,0,0,0,0,0,0,-1,1798,946,0,0
581,78,0,0,0,0,0,0,0,0,0,-1,1805,946,0,0
588,78,0,0,0,0,0,0,0,0,0,-1,1812,946,0,0
595,78,0,0,0,0,0,0,0,0,0,-1,1819,946,0,0
602,78,0,0,0,0,0,0,0,0,0,-1,1826,946,0,0
609,78,0,0,0,0,0,0,0,0,0,-1,1833,946,0,0
616,78,0,0,0,0,0,0,0,0,0,-1,1840,946,0,0
623,78,0,0,0,0,0,0,0,0,0,-1,1847,946,0,0
630,78,0,0,0,0,0,0,0,0,0,-1,1854,946,0,0
637,78,0.0246582,0.0809326,0.00159012,0.00205763,0.000948599,0.00280085,0.000846898,0.906202,0.00165864,0.0414717,1861,946,0.0246848,-0.080963
644,78,-0.0273438,0.0674438,0.000496876,0.00140015,0.00099739,0.00204339,-0.000146368,0.997995,0.00141358,0.039705,1868,946,-0.0273969,-0.0674531
651,78,0.00341797,-0.0617065,-9.04695e-05,0.000967899,0.000826342,0.00141998,-0.000542548,1.07019,0.0011702,0.0371704,1875,946,0.00347865,0.0616864
658,78,-0.0739746,-0.029541,-0.000380383,0.000674148,0.000646023,0.000980762,-0.000686997,1.12766,0.000967847,0.0321892,1882,946,-0.0739452,0.0295605
665,78,-0.010498,0.127441,-0.000496696,0.000470994,0.000472447,0.000663398,-0.000689099,1.18406,0.000780912,0.0355777,1889,946,-0.0105455,-0.127463
672,78,-0.0654297,0.271362,-0.000497364,0.000336088,0.000302543,0.00043433,-0.000595607,1.25681,0.00059706,0.0383412,1896,946,-0.0654878,-0.271364
679,78,-0.0877686,0.325806,-0.000431711,0.000253039,0.000168646,0.000292322,-0.000470993,1.34195,0.000444706,0.0366759,1903,946,-0.0877803,-0.325794
686,78,-0.115112,0.243958,-0.00031915,0.000173966,5.22926e-05,0.00017945,-0.000324634,1.4663,0.00029503,0.0338831,1910,946,-0.115092,-0.243942
693,78,-0.103394,0.116089,-0.000243629,0.000141816,5.60835e-06,0.000141898,-0.00024371,1.55625,0.000225203,0.0240317,1917,946,-0.103444,-0.116109
700,78,-0.0507813,0.0812378,-0.000236346,0.000104542,7.25314e-06,0.000104696,-0.0002365,1.54953,0.00020183,0.0138513,1924,946,-0.0508188,-0.0812139
707,78,-0.0524902,0.0773315,-0.000114864,0.000101737,-4.86648e-05,0.000112168,-0.000125296,-1.35964,0.00013717,0.014435,1931,946,-0.0524817,-0.0773306
714,78,-0.05896,0.100952,4.57376e-05,0.000109591,-0.000132659,0.000214112,-5.87829e-05,-0.903486,0.000165845,0.016575,1938,946,-0.0589509,-0.100927
721,78,-0.0386963,0.0802002,2.62888e-05,0.000110649,-0.000131566,0.000206631,-6.96932e-05,-0.940522,0.000165937,0.0166417,1945,946,-0.038646,-0.0802199
728,78,-0.0306396,0.0643311,0.000127048,0.000123269,-0.000118862,0.000244036,6.28138e-06,-0.777451,0.000160638,0.0158633,1952,946,-0.0306751,-0.0643024
735,78,-0.0487061,0.0812988,0.00053614,-6.31703e-06,-2.50423e-05,0.000537294,-7.47066e-06,-0.0460341,0.000360712,0.0107493,1959,946,-0.048759,-0.081319
742,78,-0.0357666,0.0733032,0.00119563,-0.000121135,0.000307426,0.00126386,-0.000189374,0.218427,0.000912276,0.0111817,1966,946,-0.035743,-0.0732774
749,78,-0.0406494,0.0686035,0.00187482,-0.000743587,0.000860296,0.00213218,-0.00100095,0.29068,0.00184779,0.0122034,1973,946,-0.04067,-0.0686169
756,78,-0.0330811,0.0687256,0.00244647,-0.0012389,0.00158088,0.00303168,-0.00182411,0.354538,0.00283224,0.0133318,1980,946,-0.0331082,-0.0687495
763,78,-0.0274658,0.0662842,0.0035689,-0.00207595,0.002309,0.00439306,-0.0029001,0.342838,0.00424002,0.0123207,1987,946,-0.0275171,-0.0662847
770,78,-0.0561523,0.0621338,0.00486608,-0.00317229,0.00352726,0.00619436,-0.00450057,0.360152,0.00620048,0.0159953,1994,946,-0.0561791,-0.0621623
777,78,-0.0400391,0.0256958,0.00635048,-0.00471382,0.00521497,0.008421,-0.00678434,0.377947,0.00879574,0.0370268,2001,946,-0.0400883,-0.0256791
784,78,0.340088,-0.21698,0.00794186,-0.00682932,0.00749505,0.0110788,-0.00996622,0.396377,0.012156,0.0439945,2008,946,0.340047,0.216993
791,78,0.594604,-0.768311,0.00952617,-0.00969656,0.0105047,0.014153,-0.0143234,0.41489,0.016441,0.0449371,2015,946,0.594577,0.768341
798,78,1.06604,-1.36334,0.0108597,-0.0135506,0.0143921,0.0175251,-0.020216,0.433719,0.0218083,0.0459164,2022,946,1.06605,1.36337
805,78,1.47058,-1.92603,0,0,0,0,0,0,0,-1,2029,946,1.47064,1.92601
812,78,0,0,0,0,0,0,0,0,0,-1,2036,946,0,0
-700,71,0,0,0,0,0,0,0,0,0,-1,524,953,0,0
-693,71,0,0,0,0,0,0,0,0,0,-1,531,953,0,0
-686,71,-0.729797,0.555969,0.00156474,0.0400749,-0.0790712,0.102202,-0.0605621,-0.904831,0.0949912,0.0387388,538,953,-0.729793,-0.555979
-679,71,-0.14502,0.12384,-0.000656069,0.0352663,-0.0618053,0.0816674,-0.0470571,-0.926808,0.0752092,0.0430078,545,953,-0.145032,-0.123847
-672,71,-0.434021,-0.174072,-0.00134321,0.0302523,-0.047538,0.0645488,-0.0356397,-0.945817,0.058641,0.0424213,552,953,-0.43402,0.174056
-665,71,-0.846558,-0.0484009,0,0,0,0,0,0,0,-1,559,953,-0.846534,0.0484266
-658,71,-0.76062,0.269897,-0.000497153,0.0206029,-0.0261777,0.0382766,-0.0181708,-0.97695,0.0332719,0.0438875,566,953,-0.76061,-0.269896
-651,71,-0.415222,0.0100098,0.000251492,0.0162589,-0.0185107,0.0284221,-0.0119117,-0.989452,0.0239282,0.0415611,573,953,-0.415248,-0.0100361
-644,71,-0.0846558,0.0563965,0.000882463,0.012389,-0.012549,0.0204407,-0.00716924,-1.00033,0.0165431,0.0309389,580,953,-0.0846529,-0.0563712
-637,71,-0.0211182,0.0894165,0.00172649,0.00891727,-0.00811047,0.0141936,-0.00354979,-0.994033,0.0108411,0.0130121,587,953,-0.0211043,-0.0894077
-630,71,-0.0128784,0.0776978,0.00128031,0.00603797,-0.00371626,0.00807156,-0.00075328,-1.0701,0.0056489,0.0118241,594,953,-0.0128579,-0.0777191
-623,71,-0.0345459,0.0495605,0.00139,0.00408273,-0.0011872,0.0045314,0.000941328,-1.20947,0.00276117,0.0116079,601,953,-0.0345189,-0.0495516
-616,71,-0.0507202,0.0604858,0.00206152,0.00236527,-0.00027981,0.00253177,0.00189503,-1.03404,0.0015207,0.0116086,608,953,-0.0507478,-0.0604884
-609,71,-0.0325317,0.0727539,0.00186519,0.00137087,-1.01684e-05,0.0018654,0.00137066,-0.020559,0.00111586,0.0129943,615,953,-0.0325517,-0.0727329
-602,71,-0.0206299,0.0421753,0.000952938,0.000405825,0.000172791,0.00100294,0.000355823,0.281682,0.000587132,0.0142777,622,953,-0.0206447,-0.0421454
-595,71,-0.027771,0.0493774,0.000178135,0.000170565,0.000167325,0.000341718,6.98229e-06,0.77409,0.00022552,0.0152395,629,953,-0.0277791,-0.0493978
-588,71,-0.0157471,0.0959473,3.32725e-05,0.000254839,3.39328e-05,0.000259919,2.81922e-05,1.42218,0.000164689,0.0154021,636,953,-0.0157271,-0.095934
-581,71,-0.00909424,0.095459,0.000209418,0.000301382,-9.07354e-05,0.000357122,0.000153678,-1.01992,0.00020685,0.019879,643,953,-0.0091095,-0.0954766
-574,71,-0.0334473,0.0533447,0.000471048,0.000291685,-0.000264025,0.000660207,0.000102526,-0.621677,0.000410256,0.0238499,650,953,-0.0334287,-0.0533587
-567,71,-0.0529175,0.0300293,0.000651238,0.000312098,-0.000448068,0.000960749,2.58628e-06,-0.604504,0.000639639,0.0191996,657,953,-0.0529264,-0.0300531
-560,71,-0.0264282,0.0854492,0.000962299,0.000328219,-0.000670952,0.00138735,-9.68267e-05,-0.564686,0.000958803,0.0258843,664,953,-0.0264367,-0.0854423
-553,71,-0.00445557,0.144592,0.00141655,0.000297259,-0.000987333,0.00199182,-0.000278011,-0.527564,0.00142959,0.035983,671,953,-0.00447191,-0.144618
-546,71,-0.0717163,0.127991,0.00210662,0.000242981,-0.00145678,0.0029041,-0.000554503,-0.500868,0.00214493,0.0361465,678,953,-0.0717458,-0.128008
-539,71,-0.162842,-0.0523682,0.00312529,0.000170614,-0.00211949,0.00423151,-0.000935605,-0.481035,0.0031791,0.0353124,685,953,-0.16287,0.0523407
-532,71,-0.0874634,-0.151428,0.0045694,7.98855e-05,-0.00302289,0.00608985,-0.00144057,-0.466029,0.00461564,0.0397473,692,953,-0.0874598,0.151405
-525,71,0.0493774,-0.181458,0.00654794,-2.12078e-05,-0.00430397,0.00867748,-0.00215074,-0.459466,0.00661941,0.0406303,699,953,0.0493722,0.181466
-518,71,0,0,0,0,0,0,0,0,0,-1,706,953,0,0
-511,71,0,0,0,0,0,0,0,0,0,-1,713,953,0,0
-504,71,0,0,0,0,0,0,0,0,0,-1,720,953,0,0
-497,71,0,0,0,0,0,0,0,0,0,-1,727,953,0,0
-490,71,0,0,0,0,0,0,0,0,0,-1,734,953,0,0
-483,71,0,0,0,0,0,0,0,0,0,-1,741,953,0,0
-476,71,0,0,0,0,0,0,0,0,0,-1,748,953,0,0
-469,71,0,0,0,0,0,0,0,0,0,-1,755,953,0,0
-462,71,0,0,0,0,0,0,0,0,0,-1,762,953,0,0
-455,71,0,0,0,0,0,0,0,0,0,-1,769,953,0,0
-448,71,0,0,0,0,0,0,0,0,0,-1,776,953,0,0
-441,71,0,0,0,0,0,0,0,0,0,-1,783,953,0,0
-434,71,0,0,0,0,0,0,0,0,0,-1,790,953,0,0
-427,71,0,0,0,0,0,0,0,0,0,-1,797,953,0,0
-420,71,0,0,0,0,0,0,0,0,0,-1,804,953,0,0
-413,71,0,0,0,0,0,0,0,0,0,-1,811,953,0,0
-406,71,0,0,0,0,0,0,0,0,0,-1,818,953,0,0
-399,71,0,0,0,0,0,0,0,0,0,-1,825,953,0,0
-392,71,0,0,0,0,0,0,0,0,0,-1,832,953,0,0
-385,71,0,0,0,0,0,0,0,0,0,-1,839,953,0,0
-378,71,0,0,0,0,0,0,0,0,0,-1,846,953,0,0
-371,71,0,0,0,0,0,0,0,0,0,-1,853,953,0,0
-364,71,0,0,0,0,0,0,0,0,0,-1,860,953,0,0
-357,71,0,0,0,0,0,0,0,0,0,-1,867,953,0,0
-350,71,0,0,0,0,0,0,0,0,0,-1,874,953,0,0
-343,71,0,0,0,0,0,0,0,0,0,-1,881,953,0,0
-336,71,0,0,0,0,0,0,0,0,0,-1,888,953,0,0
-329,71,0,0,0,0,0,0,0,0,0,-1,895,953,0,0
-322,71,0,0,0,0,0,0,0,0,0,-1,902,953,0,0
-315,71,0,0,0,0,0,0,0,0,0,-1,909,953,0,0
-308,71,0,0,0,0,0,0,0,0,0,-1,916,953,0,0
-301,71,0,0,0,0,0,0,0,0,0,-1,923,953,0,0
-294,71,0,0,0,0,0,0,0,0,0,-1,930,953,0,0
-287,71,0,0,0,0,0,0,0,0,0,-1,937,953,0,0
-280,71,0,0,0,0,0,0,0,0,0,-1,944,953,0,0
-273,71,0,0,0,0,0,0,0,0,0,-1,951,953,0,0
-266,71,0,0,0,0,0,0,0,0,0,-1,958,953,0,0
-259,71,0,0,0,0,0,0,0,0,0,-1,965,953,0,0
-252,71,0,0,0,0,0,0,0,0,0,-1,972,953,0,0
-245,71,0,0,0,0,0,0,0,0,0,-1,979,953,0,0
-238,71,0,0,0,0,0,0,0,0,0,-1,986,953,0,0
-231,71,0,0,0,0,0,0,0,0,0,-1,993,953,0,0
-224,71,0,0,0,0,0,0,0,0,0,-1,1000,953,0,0
-217,71,0,0,0,0,0,0,0,0,0,-1,1007,953,0,0
-210,71,0,0,0,0,0,0,0,0,0,-1,1014,953,0,0
-203,71,0,0,0,0,0,0,0,0,0,-1,1021,953,0,0
-196,71,0,0,0,0,0,0,0,0,0,-1,1028,953,0,0
-189,71,0,0,0,0,0,0,0,0,0,-1,1035,953,0,0
-182,71,0,0,0,0,0,0,0,0,0,-1,1042,953,0,0
-175,71,0,0,0,0,0,0,0,0,0,-1,1049,953,0,0
-168,71,0,0,0,0,0,0,0,0,0,-1,1056,953,0,0
-161,71,0,0,0,0,0,0,0,0,0,-1,1063,953,0,0
-154,71,0,0,0,0,0,0,0,0,0,-1,1070,953,0,0
-147,71,0,0,0,0,0,0,0,0,0,-1,1077,953,0,0
-140,71,0,0,0,0,0,0,0,0,0,-1,1084,953,0,0
-133,71,0,0,0,0,0,0,0,0,0,-1,1091,953,0,0
-126,71,0,0,0,0,0,0,0,0,0,-1,1098,953,0,0
-119,71,0,0,0,0,0,0,0,0,0,-1,1105,953,0,0
-112,71,0,0,0,0,0,0,0,0,0,-1,1112,953,0,0
-105,71,0,0,0,0,0,0,0,0,0,-1,1119,953,0,0
-98,71,0,0,0,0,0,0,0,0,0,-1,1126,953,0,0
-91,71,0,0,0,0,0,0,0,0,0,-1,1133,953,0,0
-84,71,0,0,0,0,0,0,0,0,0,-1,1140,953,0,0
-77,71,0,0,0,0,0,0,0,0,0,-1,1147,953,0,0
-70,71,0,0,0,0,0,0,0,0,0,-1,1154,953,0,0
-63,71,0,0,0,0,0,0,0,0,0,-1,1161,953,0,0
-56,71,0,0,0,0,0,0,0,0,0,-1,1168,953,0,0
-49,71,0,0,0,0,0,0,0,0,0,-1,1175,953,0,0
-42,71,0,0,0,0,0,0,0,0,0,-1,1182,953,0,0
-35,71,0,0,0,0,0,0,0,0,0,-1,1189,953,0,0
-28,71,0,0,0,0,0,0,0,0,0,-1,1196,953,0,0
-21,71,0,0,0,0,0,0,0,0,0,-1,1203,953,0,0
-14,71,0,0,0,0,0,0,0,0,0,-1,1210,953,0,0
-7,71,0,0,0,0,0,0,0,0,0,-1,1217,953,0,0
0,71,0,0,0,0,0,0,0,0,0,-1,1224,953,0,0
7,71,0,0,0,0,0,0,0,0,0,-1,1231,953,0,0
14,71,0,0,0,0,0,0,0,0,0,-1,1238,953,0,0
21,71,0,0,0,0,0,0,0,0,0,-1,1245,953,0,0
28,71,0,0,0,0,0,0,0,0,0,-1,1252,953,0,0
35,71,0,0,0,0,0,0,0,0,0,-1,1259,953,0,0
42,71,0,0,0,0,0,0,0,0,0,-1,1266,953,0,0
49,71,0,0,0,0,0,0,0,0,0,-1,1273,953,0,0
56,71,0,0,0,0,0,0,0,0,0,-1,1280,953,0,0
63,71,0,0,0,0,0,0,0,0,0,-1,1287,953,0,0
70,71,0,0,0,0,0,0,0,0,0,-1,1294,953,0,0
77,71,0,0,0,0,0,0,0,0,0,-1,1301,953,0,0
84,71,0,0,0,0,0,0,0,0,0,-1,1308,953,0,0
91,71,0,0,0,0,0,0,0,0,0,-1,1315,953,0,0
98,71,0,0,0,0,0,0,0,0,0,-1,1322,953,0,0
105,71,0,0,0,0,0,0,0,0,0,-1,1329,953,0,0
112,71,0,0,0,0,0,0,0,0,0,-1,1336,953,0,0
119,71,0,0,0,0,0,0,0,0,0,-1,1343,953,0,0
126,71,0,0,0,0,0,0,0,0,0,-1,1350,953,0,0
133,71,0,0,0,0,0,0,0,0,0,-1,1357,953,0,0
140,71,0,0,0,0,0,0,0,0,0,-1,1364,953,0,0
147,71,0,0,0,0,0,0,0,0,0,-1,1371,953,0,0
154,71,0,0,0,0,0,0,0,0,0,-1,1378,953,0,0
161,71,0,0,0,0,0,0,0,0,0,-1,1385,953,0,0
168,71,0,0,0,0,0,0,0,0,0,-1,1392,953,0,0
175,71,0,0,0,0,0,0,0,0,0,-1,1399,953,0,0
182,71,0,0,0,0,0,0,0,0,0,-1,1406,953,0,0
189,71,0,0,0,0,0,0,0,0,0,-1,1413,953,0,0
196,71,0,0,0,0,0,0,0,0,0,-1,1420,953,0,0
203,71,0,0,0,0,0,0,0,0,0,-1,1427,953,0,0
210,71,0,0,0,0,0,0,0,0,0,-1,1434,953,0,0
217,71,0,0,0,0,0,0,0,0,0,-1,1441,953,0,0
224,71,0,0,0,0,0,0,0,0,0,-1,1448,953,0,0
231,71,0,0,0,0,0,0,0,0,0,-1,1455,953,0,0
238,71,0,0,0,0,0,0,0,0,0,-1,1462,953,0,0
245,71,0,0,0,0,0,0,0,0,0,-1,1469,953,0,0
252,71,0,0,0,0,0,0,0,0,0,-1,1476,953,0,0
259,71,0,0,0,0,0,0,0,0,0,-1,1483,953,0,0
266,71,0,0,0,0,0,0,0,0,0,-1,1490,953,0,0
273,71,0,0,0,0,0,0,0,0,0,-1,1497,953,0,0
280,71,0,0,0,0,0,0,0,0,0,-1,1504,953,0,0
287,71,0,0,0,0,0,0,0,0,0,-1,1511,953,0,0
294,71,0,0,0,0,0,0,0,0,0,-1,1518,953,0,0
301,71,0,0,0,0,0,0,0,0,0,-1,1525,953,0,0
308,71,0,0,0,0,0,0,0,0,0,-1,1532,953,0,0
315,71,0,0,0,0,0,0,0,0,0,-1,1539,953,0,0
322,71,0,0,0,0,0,0,0,0,0,-1,1546,953,0,0
329,71,0,0,0,0,0,0,0,0,0,-1,1553,953,0,0
336,71,0,0,0,0,0,0,0,0,0,-1,1560,953,0,0
343,71,0,0,0,0,0,0,0,0,0,-1,1567,953,0,0
350,71,0,0,0,0,0,0,0,0,0,-1,1574,953,0,0
357,71,0,0,0,0,0,0,0,0,0,-1,1581,953,0,0
364,71,0,0,0,0,0,0,0,0,0,-1,1588,953,0,0
371,71,0,0,0,0,0,0,0,0,0,-1,1595,953,0,0
378,71,0,0,0,0,0,0,0,0,0,-1,1602,953,0,0
385,71,0,0,0,0,0,0,0,0,0,-1,1609,953,0,0
392,71,0,0,0,0,0,0,0,0,0,-1,1616,953,0,0
399,71,0,0,0,0,0,0,0,0,0,-1,1623,953,0,0
406,71,0,0,0,0,0,0,0,0,0,-1,1630,953,0,0
413,71,0,0,0,0,0,0,0,0,0,-1,1637,953,0,0
420,71,0,0,0,0,0,0,0,0,0,-1,1644,953,0,0
427,71,0,0,0,0,0,0,0,0,0,-1,1651,953,0,0
434,71,0,0,0,0,0,0,0,0,0,-1,1658,953,0,0
441,71,0,0,0,0,0,0,0,0,0,-1,1665,953,0,0
448,71,0,0,0,0,0,0,0,0,0,-1,1672,953,0,0
455,71,0,0,0,0,0,0,0,0,0,-1,1679,953,0,0
462,71,0,0,0,0,0,0,0,0,0,-1,1686,953,0,0
469,71,0,0,0,0,0,0,0,0,0,-1,1693,953,0,0
476,71,0,0,0,0,0,0,0,0,0,-1,1700,953,0,0
483,71,0,0,0,0,0,0,0,0,0,-1,1707,953,0,0
490,71,0,0,0,0,0,0,0,0,0,-1,1714,953,0,0
497,71,0,0,0,0,0,0,0,0,0,-1,1721,953,0,0
504,71,0,0,0,0,0,0,0,0,0,-1,1728,953,0,0
511,71,0,0,0,0,0,0,0,0,0,-1,1735,953,0,0
518,71,0,0,0,0,0,0,0,0,0,-1,1742,953,0,0
525,71,0,0,0,0,0,0,0,0,0,-1,1749,953,0,0
532,71,0,0,0,0,0,0,0,0,0,-1,1756,953,0,0
539,71,0,0,0,0,0,0,0,0,0,-1,1763,953,0,0
546,71,0,0,0,0,0,0,0,0,0,-1,1770,953,0,0
553,71,0,0,0,0,0,0,0,0,0,-1,1777,953,0,0
560,71,0,0,0,0,0,0,0,0,0,-1,1784,953,0,0
567,71,0,0,0,0,0,0,0,0,0,-1,1791,953,0,0
574,71,0,0,0,0,0,0,0,0,0,-1,1798,953,0,0
581,71,0,0,0,0,0,0,0,0,0,-1,1805,953,0,0
588,71,0,0,0,0,0,0,0,0,0,-1,1812,953,0,0
595,71,0,0,0,0,0,0,0,0,0,-1,1819,953,0,0
602,71,0,0,0,0,0,0,0,0,0,-1,1826,953,0,0
609,71,0,0,0,0,0,0,0,0,0,-1,1833,953,0,0
616,71,0,0,0,0,0,0,0,0,0,-1,1840,953,0,0
623,71,0,0,0,0,0,0,0,0,0,-1,1847,953,0,0
630,71,0,0,0,0,0,0,0,0,0,-1,1854,953,0,0
637,71,0.0629883,0.0830078,0.00167238,0.00217811,0.00148846,0.00343503,0.000415458,0.869536,0.00216486,0.0373877,1861,953,0.0630039,-0.0829846
644,71,0.0548096,0.0264893,0.000538473,0.00148202,0.0014893,0.00257248,-0.000551985,0.938787,0.00192554,0.0396011,1868,953,0.0548175,-0.0264653
651,71,0.00354004,-0.193237,-3.67226e-05,0.00105878,0.00120532,0.00183497,-0.00081291,0.998672,0.00156626,0.0366944,1875,953,0.00349905,0.193209
658,71,-0.00585938,-0.115845,-0.000321632,0.000790637,0.000923091,0.00131218,-0.000843172,1.05651,0.00125417,0.032356,1882,953,-0.00587298,0.115829
665,71,0.0698242,-0.0234375,-0.000432314,0.000616296,0.000665685,0.00093936,-0.000755377,1.11897,0.000980377,0.0346834,1889,953,0.0698788,0.0234563
672,71,0.0258789,-0.0317993,-0.000433608,0.000505656,0.000425966,0.00067006,-0.000598012,1.20246,0.000732515,0.0368608,1896,953,0.0259065,0.031795
679,71,-0.131226,0.202942,-0.000379161,0.000438174,0.000240028,0.00050345,-0.000444437,1.30527,0.000547616,0.0358668,1903,953,-0.131239,-0.202955
686,71,-0.143555,0.134216,-0.000282798,0.00036388,9.73304e-05,0.000378212,-0.00029713,1.4246,0.000390844,0.0332822,1910,953,-0.143496,-0.134246
693,71,-0.0858154,0.0437622,-0.000208306,0.000324466,3.16238e-05,0.000326336,-0.000210177,1.51172,0.000312167,0.0289057,1917,953,-0.0858048,-0.0437807
700,71,-0.0251465,0.0605469,-0.000198381,0.000271992,5.43508e-06,0.000272055,-0.000198444,1.55924,0.000272749,0.0208179,1924,953,-0.0251367,-0.060522
707,71,-0.0495605,0.0755615,-8.67099e-05,0.000262437,-6.49881e-05,0.000274141,-9.8414e-05,-1.39261,0.000222928,0.0125095,1931,953,-0.0495178,-0.0755916
714,71,-0.0657959,0.0869751,4.4555e-05,0.000252401,-0.000145338,0.000327148,-3.01922e-05,-1.09577,0.000228828,0.0134155,1938,953,-0.0658335,-0.0869637
721,71,-0.0617676,0.0714111,2.44517e-05,0.000227855,-0.000126704,0.000288626,-3.63187e-05,-1.12358,0.000205596,0.0130295,1945,953,-0.0617229,-0.0714182
728,71,-0.0611572,0.0758057,0.000125091,0.000212191,-0.000106187,0.000283411,5.38705e-05,-0.980002,0.00017379,0.013616,1952,953,-0.0611755,-0.0758161
735,71,-0.0511475,0.0696411,0.000509501,6.75417e-05,-2.57355e-06,0.000509516,6.75267e-05,-0.00582279,0.000319556,0.00841847,1959,953,-0.0511688,-0.0696137
742,71,-0.0291748,0.0633545,0.00110761,-6.32165e-05,0.000338602,0.00119849,-0.000154087,0.262191,0.000854993,0.0100136,1966,953,-0.0291814,-0.0633827
749,71,-0.0302734,0.072937,0.00173967,-0.000537728,0.000839902,0.00201592,-0.000813974,0.317758,0.00168224,0.0137731,1973,953,-0.0303017,-0.0729095
756,71,-0.0330811,0.0908203,0.00228135,-0.000882352,0.0014797,0.00286555,-0.00146655,0.376023,0.00254424,0.0141615,1980,953,-0.0330377,-0.0908281
763,71,-0.03125,0.0841675,0.00334801,-0.00164045,0.00207406,0.00409768,-0.00239012,0.34684,0.00378873,0.0125692,1987,953,-0.0312734,-0.0841893
770,71,-0.0410156,0.0632324,0.004552,-0.00251092,0.00310084,0.00572016,-0.00367908,0.360281,0.00546914,0.0147622,1994,953,-0.0409892,-0.0632459
777,71,-0.0478516,0.0352783,0.00594227,-0.00373685,0.00448824,0.00770314,-0.00549771,0.373876,0.00765689,0.0338517,2001,953,-0.0478339,-0.0352952
784,71,0.13562,-0.288635,0.00744563,-0.00542861,0.00630656,0.0100201,-0.00800311,0.387577,0.0104274,0.0435553,2008,953,0.13564,0.288648
791,71,0.537964,-0.952087,0.00897572,-0.00773983,0.00863956,0.0126385,-0.0114026,0.400988,0.0138863,0.0437181,2015,953,0.537935,0.952067
798,71,1.05237,-1.39105,0.0103624,-0.0108874,0.0115495,0.0154307,-0.0159558,0.413534,0.0181219,0.043928,2022,953,1.05238,1.39108
805,71,0.145264,0.226013,0.0111945,-0.0151617,0.0151081,0.0180643,-0.0220315,0.426762,0.023187,0.0415413,2029,953,0.145271,-0.225991
812,71,0,0,0,0,0,0,0,0,0,-1,2036,953,0,0
-700,64,0,0,0,0,0,0,0,0,0,-1,524,960,0,0
-693,64,0,0,0,0,0,0,0,0,0,-1,531,960,0,0
-686,64,0.868652,0.709473,-0.024704,0.0392993,-0.0765618,0.0902785,-0.0756832,-0.983355,0.0959414,0.043475,538,960,0.868668,-0.709488
-679,64,0.585693,0.21814,-0.020601,0.0342003,-0.0603965,0.0731211,-0.0595218,-0.998353,0.0767155,0.0402218,545,960,0.585682,-0.218131
-672,64,0.1427,-0.195557,-0.0162821,0.0291561,-0.0468262,0.0584836,-0.0456097,-1.01126,0.0602513,0.040763,552,960,0.142717,0.195554
-665,64,-0.575439,0.180664,0,0,0,0,0,0,0,-1,559,960,-0.575448,-0.180684
-658,64,-0.440552,0.244141,-0.00831725,0.0197641,-0.0261785,0.0354295,-0.0239827,-1.03155,0.0345132,0.0413193,566,960,-0.440526,-0.244143
-651,64,-0.265137,0.147522,-0.00514025,0.0156013,-0.0186656,0.0265837,-0.0161227,-1.03897,0.0249019,0.0402405,573,960,-0.265156,-0.147506
-644,64,-0.0505981,0.0484619,-0.00268579,0.0119102,-0.0127756,0.0193254,-0.010101,-1.0449,0.0172653,0.0301201,580,960,-0.0505704,-0.0484727
-637,64,-0.017334,0.0827026,-0.000288636,0.00848754,-0.00834654,0.0135292,-0.00533029,-1.02741,0.0112263,0.0143251,587,960,-0.0173465,-0.0827294
-630,64,-0.0372314,0.0739136,0.000421705,0.00570459,-0.00406574,0.00791159,-0.0017853,-1.07347,0.00595931,0.012266,594,960,-0.037207,-0.0738898
-623,64,-0.0578003,0.0517578,0.00114217,0.00396482,-0.00145554,0.00458092,0.000526077,-1.17039,0.00289457,0.0125888,601,960,-0.0578298,-0.0517745
-616,64,-0.0515137,0.0723877,0.00206116,0.00234524,-0.000471094,0.00269524,0.00171116,-0.931821,0.00157486,0.0152106,608,960,-0.0514881,-0.072403
-609,64,-0.0413818,0.0751343,0.00197556,0.00145243,-6.03333e-05,0.00198243,0.00144556,-0.11335,0.00118396,0.0149023,615,960,-0.0414122,-0.0751465
-602,64,-0.0249023,0.0653076,0.00101323,0.000448845,8.17236e-05,0.00102482,0.000437249,0.140946,0.000593799,0.0160483,622,960,-0.0249174,-0.0652899
-595,64,-0.0400391,0.0637817,0.00017651,0.0002,0.000128047,0.000316839,5.96709e-05,0.831133,0.000194413,0.0166428,629,960,-0.0400462,-0.0637538
-588,64,-0.0395508,0.102051,4.92574e-06,0.000256282,4.02596e-05,0.000262573,-1.36519e-06,1.41579,0.000175505,0.0190324,636,960,-0.0395684,-0.102067
-581,64,-0.0311279,0.125366,0.000195488,0.000290602,-6.79309e-05,0.000325968,0.000160122,-1.09079,0.000188207,0.0230186,643,960,-0.0310996,-0.125351
-574,64,-0.0252686,0.102966,0.000503451,0.000236893,-0.000227082,0.000633477,0.000106867,-0.520025,0.000391587,0.0272919,650,960,-0.0252755,-0.102959
-567,64,-0.012146,0.0352173,0.000710385,0.000215611,-0.00037982,0.000916279,9.71786e-06,-0.496744,0.000607639,0.0235628,657,960,-0.0121399,-0.0352211
-560,64,0.00494385,0.0201416,0.00104865,0.000161706,-0.000570938,0.00132812,-0.000117758,-0.455198,0.00092716,0.0312943,664,960,0.00493014,-0.0201222
-553,64,0.015625,0.0708618,0.0015632,5.65137e-05,-0.000865217,0.00195708,-0.000337369,-0.427204,0.0014305,0.0356263,671,960,0.0155973,-0.0708331
-546,64,-0.034668,-0.00695801,0.00233298,-0.000100552,-0.00131843,0.00291032,-0.000677883,-0.412739,0.00220124,0.0362213,678,960,-0.0346448,0.00695186
-539,64,-0.209595,-0.0596313,0.0034498,-0.000315774,-0.00197228,0.00429369,-0.00115966,-0.404304,0.00331729,0.0364424,685,960,-0.209611,0.0596491
-532,64,-0.252563,-0.107727,0.00501819,-0.000605087,-0.00288118,0.00623228,-0.00181918,-0.398807,0.00487572,0.0396825,692,960,-0.252547,0.107747
-525,64,-0.130005,-0.210144,0.00716624,-0.000981618,-0.00420205,0.00894501,-0.00276039,-0.400439,0.00706556,0.0409531,699,960,-0.13003,0.210136
-518,64,0,0,0,0,0,0,0,0,0,-1,706,960,0,0
-511,64,0,0,0,0,0,0,0,0,0,-1,713,960,0,0
-504,64,0,0,0,0,0,0,0,0,0,-1,720,960,0,0
-497,64,0,0,0,0,0,0,0,0,0,-1,727,960,0,0
-490,64,0,0,0,0,0,0,0,0,0,-1,734,960,0,0
-483,64,0,0,0,0,0,0,0,0,0,-1,741,960,0,0
-476,64,0,0,0,0,0,0,0,0,0,-1,748,960,0,0
-469,64,0,0,0,0,0,0,0,0,0,-1,755,960,0,0
-462,64,0,0,0,0,0,0,0,0,0,-1,762,960,0,0
-455,64,0,0,0,0,0,0,0,0,0,-1,769,960,0,0
-448,64,0,0,0,0,0,0,0,0,0,-1,776,960,0,0
-441,64,0,0,0,0,0,0,0,0,0,-1,783,960,0,0
-434,64,0,0,0,0,0,0,0,0,0,-1,790,960,0,0
-427,64,0,0,0,0,0,0,0,0,0,-1,797,960,0,0
-420,64,0,0,0,0,0,0,0,0,0,-1,804,960,0,0
-413,64,0,0,0,0,0,0,0,0,0,-1,811,960,0,0
-406,64,0,0,0,0,0,0,0,0,0,-1,818,960,0,0
-399,64,0,0,0,0,0,0,0,0,0,-1,825,960,0,0
-392,64,0,0,0,0,0,0,0,0,0,-1,832,960,0,0
-385,64,0,0,0,0,0,0,0,0,0,-1,839,960,0,0
-378,64,0,0,0,0,0,0,0,0,0,-1,846,960,0,0
-371,64,0,0,0,0,0,0,0,0,0,-1,853,960,0,0
-364,64,0,0,0,0,0,0,0,0,0,-1,860,960,0,0
-357,64,0,0,0,0,0,0,0,0,0,-1,867,960,0,0
-350,64,0,0,0,0,0,0,0,0,0,-1,874,960,0,0
-343,64,0,0,0,0,0,0,0,0,0,-1,881,960,0,0
-336,64,0,0,0,0,0,0,0,0,0,-1,888,960,0,0
-329,64,0,0,0,0,0,0,0,0,0,-1,895,960,0,0
-322,64,0,0,0,0,0,0,0,0,0,-1,902,960,0,0
-315,64,0,0,0,0,0,0,0,0,0,-1,909,960,0,0
-308,64,0,0,0,0,0,0,0,0,0,-1,916,960,0,0
-301,64,0,0,0,0,0,0,0,0,0,-1,923,960,0,0
-294,64,0,0,0,0,0,0,0,0,0,-1,930,960,0,0
-287,64,0,0,0,0,0,0,0,0,0,-1,937,960,0,0
-280,64,0,0,0,0,0,0,0,0,0,-1,944,960,0,0
-273,64,0,0,0,0,0,0,0,0,0,-1,951,960,0,0
-266,64,0,0,0,0,0,0,0,0,0,-1,958,960,0,0
-259,64,0,0,0,0,0,0,0,0,0,-1,965,960,0,0
-252,64,0,0,0,0,0,0,0,0,0,-1,972,960,0,0
-245,64,0,0,0,0,0,0,0,0,0,-1,979,960,0,0
-238,64,0,0,0,0,0,0,0,0,0,-1,986,960,0,0
-231,64,0,0,0,0,0,0,0,0,0,-1,993,960,0,0
-224,64,0,0,0,0,0,0,0,0,0,-1,1000,960,0,0
-217,64,0,0,0,0,0,0,0,0,0,-1,1007,960,0,0
-210,64,0,0,0,0,0,0,0,0,0,-1,1014,960,0,0
-203,64,0,0,0,0,0,0,0,0,0,-1,1021,960,0,0
-196,64,0,0,0,0,0,0,0,0,0,-1,1028,960,0,0
-189,64,0,0,0,0,0,0,0,0,0,-1,1035,960,0,0
-182,64,0,0,0,0,0,0,0,0,0,-1,1042,960,0,0
-175,64,0,0,0,0,0,0,0,0,0,-1,1049,960,0,0
-168,64,0,0,0,0,0,0,0,0,0,-1,1056,960,0,0
-161,64,0,0,0,0,0,0,0,0,0,-1,1063,960,0,0
-154,64,0,0,0,0,0,0,0,0,0,-1,1070,960,0,0
-147,64,0,0,0,0,0,0,0,0,0,-1,1077,960,0,0
-140,64,0,0,0,0,0,0,0,0,0,-1,1084,960,0,0
-133,64,0,0,0,0,0,0,0,0,0,-1,1091,960,0,0
-126,64,0,0,0,0,0,0,0,0,0,-1,1098,960,0,0
-119,64,0,0,0,0,0,0,0,0,0,-1,1105,960,0,0
-112,64,0,0,0,0,0,0,0,0,0,-1,1112,960,0,0
-105,64,0,0,0,0,0,0,0,0,0,-1,1119,960,0,0
-98,64,0,0,0,0,0,0,0,0,0,-1,1126,960,0,0
-91,64,0,0,0,0,0,0,0,0,0,-1,1133,960,0,0
-84,64,0,0,0,0,0,0,0,0,0,-1,1140,960,0,0
-77,64,0,0,0,0,0,0,0,0,0,-1,1147,960,0,0
-70,64,0,0,0,0,0,0,0,0,0,-1,1154,960,0,0
-63,64,0,0,0,0,0,0,0,0,0,-1,1161,960,0,0
-56,64,0,0,0,0,0,0,0,0,0,-1,1168,960,0,0
-49,64,0,0,0,0,0,0,0,0,0,-1,1175,960,0,0
-42,64,0,0,0,0,0,0,0,0,0,-1,1182,960,0,0
-35,64,0,0,0,0,0,0,0,0,0,-1,1189,960,0,0
-28,64,0,0,0,0,0,0,0,0,0,-1,1196,960,0,0
-21,64,0,0,0,0,0,0,0,0,0,-1,1203,960,0,0
-14,64,0,0,0,0,0,0,0,0,0,-1,1210,960,0,0
-7,64,0,0,0,0,0,0,0,0,0,-1,1217,960,0,0
0,64,0,0,0,0,0,0,0,0,0,-1,1224,960,0,0
7,64,0,0,0,0,0,0,0,0,0,-1,1231,960,0,0
14,64,0,0,0,0,0,0,0,0,0,-1,1238,960,0,0
21,64,0,0,0,0,0,0,0,0,0,-1,1245,960,0,0
28,64,0,0,0,0,0,0,0,0,0,-1,1252,960,0,0
35,64,0,0,0,0,0,0,0,0,0,-1,1259,960,0,0
42,64,0,0,0,0,0,0,0,0,0,-1,1266,960,0,0
49,64,0,0,0,0,0,0,0,0,0,-1,1273,960,0,0
56,64,0,0,0,0,0,0,0,0,0,-1,1280,960,0,0
63,64,0,0,0,0,0,0,0,0,0,-1,1287,960,0,0
70,64,0,0,0,0,0,0,0,0,0,-1,1294,960,0,0
77,64,0,0,0,0,0,0,0,0,0,-1,1301,960,0,0
84,64,0,0,0,0,0,0,0,0,0,-1,1308,960,0,0
91,64,0,0,0,0,0,0,0,0,0,-1,1315,960,0,0
98,64,0,0,0,0,0,0,0,0,0,-1,1322,960,0,0
105,64,0,0,0,0,0,0,0,0,0,-1,1329,960,0,0
112,64,0,0,0,0,0,0,0,0,0,-1,1336,960,0,0
119,64,0,0,0,0,0,0,0,0,0,-1,1343,960,0,0
126,64,0,0,0,0,0,0,0,0,0,-1,1350,960,0,0
133,64,0,0,0,0,0,0,0,0,0,-1,1357,960,0,0
140,64,0,0,0,0,0,0,0,0,0,-1,1364,960,0,0
147,64,0,0,0,0,0,0,0,0,0,-1,1371,960,0,0
154,64,0,0,0,0,0,0,0,0,0,-1,1378,960,0,0
161,64,0,0,0,0,0,0,0,0,0,-1,1385,960,0,0
168,64,0,0,0,0,0,0,0,0,0,-1,1392,960,0,0
175,64,0,0,0,0,0,0,0,0,0,-1,1399,960,0,0
182,64,0,0,0,0,0,0,0,0,0,-1,1406,960,0,0
189,64,0,0,0,0,0,0,0,0,0,-1,1413,960,0,0
196,64,0,0,0,0,0,0,0,0,0,-1,1420,960,0,0
203,64,0,0,0,0,0,0,0,0,0,-1,1427,960,0,0
210,64,0,0,0,0,0,0,0,0,0,-1,1434,960,0,0
217,64,0,0,0,0,0,0,0,0,0,-1,1441,960,0,0
224,64,0,0,0,0,0,0,0,0,0,-1,1448,960,0,0
231,64,0,0,0,0,0,0,0,0,0,-1,1455,960,0,0
238,64,0,0,0,0,0,0,0,0,0,-1,1462,960,0,0
245,64,0,0,0,0,0,0,0,0,0,-1,1469,960,0,0
252,64,0,0,0,0,0,0,0,0,0,-1,1476,960,0,0
259,64,0,0,0,0,0,0,0,0,0,-1,1483,960,0,0
266,64,0,0,0,0,0,0,0,0,0,-1,1490,960,0,0
273,64,0,0,0,0,0,0,0,0,0,-1,1497,960,0,0
280,64,0,0,0,0,0,0,0,0,0,-1,1504,960,0,0
287,64,0,0,0,0,0,0,0,0,0,-1,1511,960,0,0
294,64,0,0,0,0,0,0,0,0,0,-1,1518,960,0,0
301,64,0,0,0,0,0,0,0,0,0,-1,1525,960,0,0
308,64,0,0,0,0,0,0,0,0,0,-1,1532,960,0,0
315,64,0,0,0,0,0,0,0,0,0,-1,1539,960,0,0
322,64,0,0,0,0,0,0,0,0,0,-1,1546,960,0,0
329,64,0,0,0,0,0,0,0,0,0,-1,1553,960,0,0
336,64,0,0,0,0,0,0,0,0,0,-1,1560,960,0,0
343,64,0,0,0,0,0,0,0,0,0,-1,1567,960,0,0
350,64,0,0,0,0,0,0,0,0,0,-1,1574,960,0,0
357,64,0,0,0,0,0,0,0,0,0,-1,1581,960,0,0
364,64,0,0,0,0,0,0,0,0,0,-1,1588,960,0,0
371,64,0,0,0,0,0,0,0,0,0,-1,1595,960,0,0
378,64,0,0,0,0,0,0,0,0,0,-1,1602,960,0,0
385,64,0,0,0,0,0,0,0,0,0,-1,1609,960,0,0
392,64,0,0,0,0,0,0,0,0,0,-1,1616,960,0,0
399,64,0,0,0,0,0,0,0,0,0,-1,1623,960,0,0
406,64,0,0,0,0,0,0,0,0,0,-1,1630,960,0,0
413,64,0,0,0,0,0,0,0,0,0,-1,1637,960,0,0
420,64,0,0,0,0,0,0,0,0,0,-1,1644,960,0,0
427,64,0,0,0,0,0,0,0,0,0,-1,1651,960,0,0
434,64,0,0,0,0,0,0,0,0,0,-1,1658,960,0,0
441,64,0,0,0,0,0,0,0,0,0,-1,1665,960,0,0
448,64,0,0,0,0,0,0,0,0,0,-1,1672,960,0,0
455,64,0,0,0,0,0,0,0,0,0,-1,1679,960,0,0
462,64,0,0,0,0,0,0,0,0,0,-1,1686,960,0,0
469,64,0,0,0,0,0,0,0,0,0,-1,1693,960,0,0
476,64,0,0,0,0,0,0,0,0,0,-1,1700,960,0,0
483,64,0,0,0,0,0,0,0,0,0,-1,1707,960,0,0
490,64,0,0,0,0,0,0,0,0,0,-1,1714,960,0,0
497,64,0,0,0,0,0,0,0,0,0,-1,1721,960,0,0
504,64,0,0,0,0,0,0,0,0,0,-1,1728,960,0,0
511,64,0,0,0,0,0,0,0,0,0,-1,1735,960,0,0
518,64,0,0,0,0,0,0,0,0,0,-1,1742,960,0,0
525,64,0,0,0,0,0,0,0,0,0,-1,1749,960,0,0
532,64,0,0,0,0,0,0,0,0,0,-1,1756,960,0,0
539,64,0,0,0,0,0,0,0,0,0,-1,1763,960,0,0
546,64,0,0,0,0,0,0,0,0,0,-1,1770,960,0,0
553,64,0,0,0,0,0,0,0,0,0,-1,1777,960,0,0
560,64,0,0,0,0,0,0,0,0,0,-1,1784,960,0,0
567,64,0,0,0,0,0,0,0,0,0,-1,1791,960,0,0
574,64,0,0,0,0,0,0,0,0,0,-1,1798,960,0,0
581,64,0,0,0,0,0,0,0,0,0,-1,1805,960,0,0
588,64,0,0,0,0,0,0,0,0,0,-1,1812,960,0,0
595,64,0,0,0,0,0,0,0,0,0,-1,1819,960,0,0
602,64,0,0,0,0,0,0,0,0,0,-1,1826,960,0,0
609,64,0,0,0,0,0,0,0,0,0,-1,1833,960,0,0
616,64,0,0,0,0,0,0,0,0,0,-1,1840,960,0,0
623,64,0,0,0,0,0,0,0,0,0,-1,1847,960,0,0
630,64,0,0,0,0,0,0,0,0,0,-1,1854,960,0,0
637,64,0,0,0,0,0,0,0,0,0,-1,1861,960,0,0
644,64,0.0498047,-0.129395,0.000208782,0.00120465,0.0021087,0.00287341,-0.00145998,0.901341,0.00254586,0.0375643,1868,960,0.0498381,0.1294
651,64,0.0247803,-0.135559,-0.000199019,0.000835563,0.00165513,0.00205235,-0.00141581,0.936858,0.00201356,0.0333878,1875,960,0.0248007,0.135574
658,64,-0.00634766,-0.0045166,-0.000385692,0.000633332,0.00123637,0.00146106,-0.00121342,0.980846,0.00154632,0.0300055,1882,960,-0.00631047,0.00449363
665,64,-0.0125732,0.0427246,-0.000435834,0.000523516,0.000876678,0.00104317,-0.000955486,1.03572,0.00115429,0.0359392,1889,960,-0.0125476,-0.0427292
672,64,-0.00695801,0.0518188,-0.000404083,0.000467732,0.000560003,0.000741486,-0.000677837,1.11611,0.000819721,0.0385348,1896,960,-0.00700419,-0.0518374
679,64,-0.0817871,0.135498,-0.000345097,0.000442522,0.000320634,0.000556543,-0.000459118,1.22913,0.000587291,0.0350586,1903,960,-0.0817745,-0.1355
686,64,-0.122925,0.0450439,-0.000256686,0.00040328,0.000150432,0.000435952,-0.000289358,1.35693,0.000421599,0.0296535,1910,960,-0.122884,-0.0450694
693,64,-0.0760498,-0.0147095,-0.000179967,0.000381519,6.6405e-05,0.000389266,-0.000187713,1.45466,0.000339827,0.0276985,1917,960,-0.0760734,0.0146862
700,64,-0.0332031,0.0178223,-0.000161876,0.000341315,1.58113e-05,0.000341811,-0.000162372,1.53942,0.000297172,0.0227658,1924,960,-0.0332249,-0.0177991
707,64,-0.0429688,0.0557861,-6.32424e-05,0.000345059,-6.50777e-05,0.00035518,-7.33639e-05,-1.4165,0.000264653,0.0146671,1931,960,-0.0430079,-0.0558048
714,64,-0.0499268,0.0706787,3.45789e-05,0.000336886,-0.000135921,0.00038901,-1.75453e-05,-1.2046,0.000265382,0.0119857,1938,960,-0.0499355,-0.0706977
721,64,-0.076416,0.0767212,-1.11061e-06,0.00030782,-0.000107243,0.000341398,-3.46892e-05,-1.26736,0.000239999,0.0119702,1945,960,-0.0764416,-0.076738
728,64,-0.074585,0.0751343,8.79873e-05,0.000277489,-8.24386e-05,0.000308332,5.71441e-05,-1.21278,0.000189402,0.0118496,1952,960,-0.0745908,-0.0751231
735,64,-0.0537109,0.0787354,0.000423117,0.000114713,3.03832e-05,0.000426082,0.000111748,0.0972714,0.000255099,0.0121322,1959,960,-0.0537176,-0.0787551
742,64,-0.0354004,0.0725708,0.000935707,-3.22055e-05,0.000372625,0.00106254,-0.000159038,0.328075,0.000766889,0.0115849,1966,960,-0.0353424,-0.0726013
749,64,-0.0465088,0.0888062,0.00150842,-0.000340494,0.000793649,0.00180236,-0.000634437,0.354705,0.00145976,0.0107727,1973,960,-0.0465298,-0.0888129
756,64,-0.0424805,0.086853,0.00203598,-0.000485364,0.0012899,0.00257896,-0.00102834,0.398429,0.00214585,0.0123919,1980,960,-0.0424905,-0.0868246
763,64,-0.0447998,0.0835571,0.00303067,-0.00111183,0.00170022,0.00363912,-0.00172029,0.343667,0.00315967,0.0121108,1987,960,-0.0447708,-0.0835537
770,64,-0.0461426,0.0761108,0.00413433,-0.00171131,0.00247857,0.00504376,-0.00262074,0.351667,0.00449821,0.0124029,1994,960,-0.0461492,-0.0760879
777,64,-0.101196,0.109924,0.00544074,-0.00255865,0.00349782,0.00675446,-0.00387236,0.35928,0.00621016,0.0288639,2001,960,-0.10116,-0.109898
784,64,-0.163452,0.189209,0.0068911,-0.00374592,0.00477736,0.0087217,-0.00557651,0.365924,0.00832138,0.0443682,2008,960,-0.163475,-0.189207
791,64,-0.302002,0.445068,0.0084244,-0.00540216,0.00634892,0.0108974,-0.00787516,0.371435,0.0108851,0.0486357,2015,960,-0.301942,-0.445067
798,64,-0.561035,0.64032,0,0,0,0,0,0,0,-1,2022,960,-0.561078,-0.640294
805,64,0.0467529,0.303589,0,0,0,0,0,0,0,-1,2029,960,0.04681,-0.303584
812,64,0,0,0,0,0,0,0,0,0,-1,2036,960,0,0
-700,57,0,0,0,0,0,0,0,0,0,-1,524,967,0,0
-693,57,0,0,0,0,0,0,0,0,0,-1,531,967,0,0
-686,57,1.54041,0.457642,-0.0466835,0.0410076,-0.0631911,0.0740746,-0.0797506,-1.08869,0.0888312,0.0433912,538,967,1.54043,-0.457621
-679,57,1.13721,0.110413,-0.0366219,0.034963,-0.0500822,0.060728,-0.0623869,-1.09565,0.0710826,0.0432528,545,967,1.13721,-0.110383
-672,57,0.507507,-0.247375,-0.0279009,0.0293574,-0.0389834,0.0490949,-0.0476384,-1.10212,0.0558511,0.0431595,552,967,0.507517,0.247376
-665,57,-0.295654,-0.685791,-0.0204493,0.0241983,-0.0296507,0.0389894,-0.0352404,-1.10807,0.0428748,0.0406778,559,967,-0.29563,0.685779
-658,57,-0.204956,-0.0814819,-0.014252,0.0194966,-0.0219196,0.0302848,-0.0250402,-1.11343,0.0319897,0.0443888,566,967,-0.204929,0.0815104
-651,57,0.00463867,-0.106995,-0.00929106,0.0152856,-0.0156587,0.022902,-0.0169074,-1.11809,0.0230707,0.0432405,573,967,0.00461837,0.106983
-644,57,0.00561523,-0.0197144,-0.00553222,0.0116119,-0.0107294,0.0167731,-0.0106934,-1.12244,0.0159867,0.0291937,580,967,0.00558568,0.0197411
-637,57,-0.0292358,0.0686035,-0.00203682,0.00815869,-0.0069917,0.0117137,-0.00559187,-1.1004,0.0101977,0.0146267,587,967,-0.029222,-0.0685814
-630,57,-0.0563354,0.0637817,-0.000410169,0.00543541,-0.00333273,0.00694543,-0.00192018,-1.14538,0.00538568,0.0123115,594,967,-0.0563517,-0.0637906
-623,57,-0.0485229,0.0583496,0.000750638,0.00379808,-0.00113589,0.00417487,0.000373842,-1.2505,0.00266738,0.0114679,601,967,-0.0485145,-0.0583437
-616,57,-0.0258789,0.0601196,0.00180184,0.00220754,-0.000405545,0.00245814,0.00155124,-1.0173,0.00143537,0.0130819,608,967,-0.0258513,-0.0601112
-609,57,-0.0299683,0.0622559,0.00182294,0.00139641,-3.3097e-05,0.0018255,0.00139386,-0.0769818,0.00110168,0.0137323,615,967,-0.0299792,-0.0622358
-602,57,-0.0324097,0.0777588,0.000931763,0.000417216,2.82308e-05,0.000933307,0.000415672,0.0546467,0.000539916,0.0109047,622,967,-0.032399,-0.0777832
-595,57,-0.0477295,0.0862427,0.000105701,0.000180126,9.10631e-05,0.000241287,4.45409e-05,0.979367,0.000148258,0.011925,629,967,-0.0477427,-0.0862122
-588,57,-0.0613403,0.0889282,-5.28875e-05,0.000229877,2.60147e-05,0.00023225,-5.5261e-05,1.47981,0.000176167,0.0146738,636,967,-0.0613267,-0.0889086
-581,57,-0.0493164,0.0966187,0.000161393,0.000268357,-7.06938e-05,0.00030352,0.00012623,-1.10923,0.000176062,0.0192039,643,967,-0.0493018,-0.0965996
-574,57,-0.0311279,0.0733032,0.000501607,0.000194262,-0.000208671,0.000607084,8.87842e-05,-0.468016,0.000378614,0.024547,650,967,-0.0311285,-0.0733145
-567,57,0.00518799,-0.0358276,0.000738863,0.000159584,-0.000329415,0.000887864,1.0583e-05,-0.424781,0.000588414,0.0307551,657,967,0.00517658,0.0358561
-560,57,0.0987549,-0.0857544,0.00112681,8.6638e-05,-0.00049804,0.00132681,-0.000113368,-0.381874,0.000924652,0.0375387,664,967,0.0987744,0.0857756
-553,57,0.0748901,0.072876,0.00171436,-3.49148e-05,-0.000768775,0.0020042,-0.000324754,-0.360536,0.0014565,0.0369128,671,967,0.0748916,-0.0729021
-546,57,0.101135,-0.101013,0.00258679,-0.000219615,-0.00120198,0.00303122,-0.000664043,-0.354156,0.0022747,0.0364677,678,967,0.10113,0.101015
-539,57,-0.138733,0.0149536,0.00384322,-0.000480394,-0.00184139,0.00452116,-0.00115833,-0.352764,0.00346536,0.0369998,685,967,-0.138703,-0.0149256
-532,57,-0.211304,0.00543213,0.00560453,-0.000843916,-0.00275256,0.00661967,-0.00185906,-0.353323,0.00514598,0.0373419,692,967,-0.211302,-0.0054167
-525,57,-0.0697632,-0.0527344,0.00803244,-0.00134357,-0.00411434,0.00958184,-0.00289297,-0.360159,0.00753955,0.0392078,699,967,-0.0697603,0.0527397
-518,57,0,0,0,0,0,0,0,0,0,-1,706,967,0,0
-511,57,0,0,0,0,0,0,0,0,0,-1,713,967,0,0
-504,57,0,0,0,0,0,0,0,0,0,-1,720,967,0,0
-497,57,0,0,0,0,0,0,0,0,0,-1,727,967,0,0
-490,57,0,0,0,0,0,0,0,0,0,-1,734,967,0,0
-483,57,0,0,0,0,0,0,0,0,0,-1,741,967,0,0
-476,57,0,0,0,0,0,0,0,0,0,-1,748,967,0,0
-469,57,0,0,0,0,0,0,0,0,0,-1,755,967,0,0
-462,57,0,0,0,0,0,0,0,0,0,-1,762,967,0,0
-455,57,0,0,0,0,0,0,0,0,0,-1,769,967,0,0
-448,57,0,0,0,0,0,0,0,0,0,-1,776,967,0,0
-441,57,0,0,0,0,0,0,0,0,0,-1,783,967,0,0
-434,57,0,0,0,0,0,0,0,0,0,-1,790,967,0,0
-427,57,0,0,0,0,0,0,0,0,0,-1,797,967,0,0
-420,57,0,0,0,0,0,0,0,0,0,-1,804,967,0,0
-413,57,0,0,0,0,0,0,0,0,0,-1,811,967,0,0
-406,57,0,0,0,0,0,0,0,0,0,-1,818,967,0,0
-399,57,0,0,0,0,0,0,0,0,0,-1,825,967,0,0
-392,57,0,0,0,0,0,0,0,0,0,-1,832,967,0,0
-385,57,0,0,0,0,0,0,0,0,0,-1,839,967,0,0
-378,57,0,0,0,0,0,0,0,0,0,-1,846,967,0,0
-371,57,0,0,0,0,0,0,0,0,0,-1,853,967,0,0
-364,57,0,0,0,0,0,0,0,0,0,-1,860,967,0,0
-357,57,0,0,0,0,0,0,0,0,0,-1,867,967,0,0
-350,57,0,0,0,0,0,0,0,0,0,-1,874,967,0,0
-343,57,0,0,0,0,0,0,0,0,0,-1,881,967,0,0
-336,57,0,0,0,0,0,0,0,0,0,-1,888,967,0,0
-329,57,0,0,0,0,0,0,0,0,0,-1,895,967,0,0
-322,57,0,0,0,0,0,0,0,0,0,-1,902,967,0,0
-315,57,0,0,0,0,0,0,0,0,0,-1,909,967,0,0
-308,57,0,0,0,0,0,0,0,0,0,-1,916,967,0,0
-301,57,0,0,0,0,0,0,0,0,0,-1,923,967,0,0
-294,57,0,0,0,0,0,0,0,0,0,-1,930,967,0,0
-287,57,0,0,0,0,0,0,0,0,0,-1,937,967,0,0
-280,57,0,0,0,0,0,0,0,0,0,-1,944,967,0,0
-273,57,0,0,0,0,0,0,0,0,0,-1,951,967,0,0
-266,57,0,0,0,0,0,0,0,0,0,-1,958,967,0,0
-259,57,0,0,0,0,0,0,0,0,0,-1,965,967,0,0
-252,57,0,0,0,0,0,0,0,0,0,-1,972,967,0,0
-245,57,0,0,0,0,0,0,0,0,0,-1,979,967,0,0
-238,57,0,0,0,0,0,0,0,0,0,-1,986,967,0,0
-231,57,0,0,0,0,0,0,0,0,0,-1,993,967,0,0
-224,57,0,0,0,0,0,0,0,0,0,-1,1000,967,0,0
-217,57,0,0,0,0,0,0,0,0,0,-1,1007,967,0,0
-210,57,0,0,0,0,0,0,0,0,0,-1,1014,967,0,0
-203,57,0,0,0,0,0,0,0,0,0,-1,1021,967,0,0
-196,57,0,0,0,0,0,0,0,0,0,-1,1028,967,0,0
-189,57,0,0,0,0,0,0,0,0,0,-1,1035,967,0,0
-182,57,0,0,0,0,0,0,0,0,0,-1,1042,967,0,0
-175,57,0,0,0,0,0,0,0,0,0,-1,1049,967,0,0
-168,57,0,0,0,0,0,0,0,0,0,-1,1056,967,0,0
-161,57,0,0,0,0,0,0,0,0,0,-1,1063,967,0,0
-154,57,0,0,0,0,0,0,0,0,0,-1,1070,967,0,0
-147,57,0,0,0,0,0,0,0,0,0,-1,1077,967,0,0
-140,57,0,0,0,0,0,0,0,0,0,-1,1084,967,0,0
-133,57,0,0,0,0,0,0,0,0,0,-1,1091,967,0,0
-126,57,0,0,0,0,0,0,0,0,0,-1,1098,967,0,0
-119,57,0,0,0,0,0,0,0,0,0,-1,1105,967,0,0
-112,57,0,0,0,0,0,0,0,0,0,-1,1112,967,0,0
-105,57,0,0,0,0,0,0,0,0,0,-1,1119,967,0,0
-98,57,0,0,0,0,0,0,0,0,0,-1,1126,967,0,0
-91,57,0,0,0,0,0,0,0,0,0,-1,1133,967,0,0
-84,57,0,0,0,0,0,0,0,0,0,-1,1140,967,0,0
-77,57,0,0,0,0,0,0,0,0,0,-1,1147,967,0,0
-70,57,0,0,0,0,0,0,0,0,0,-1,1154,967,0,0
-63,57,0,0,0,0,0,0,0,0,0,-1,1161,967,0,0
-56,57,0,0,0,0,0,0,0,0,0,-1,1168,967,0,0
-49,57,0,0,0,0,0,0,0,0,0,-1,1175,967,0,0
-42,57,0,0,0,0,0,0,0,0,0,-1,1182,967,0,0
-35,57,0,0,0,0,0,0,0,0,0,-1,1189,967,0,0
-28,57,0,0,0,0,0,0,0,0,0,-1,1196,967,0,0
-21,57,0,0,0,0,0,0,0,0,0,-1,1203,967,0,0
-14,57,0,0,0,0,0,0,0,0,0,-1,1210,967,0,0
-7,57,0,0,0,0,0,0,0,0,0,-1,1217,967,0,0
0,57,0,0,0,0,0,0,0,0,0,-1,1224,967,0,0
7,57,0,0,0,0,0,0,0,0,0,-1,1231,967,0,0
14,57,0,0,0,0,0,0,0,0,0,-1,1238,967,0,0
21,57,0,0,0,0,0,0,0,0,0,-1,1245,967,0,0
28,57,0,0,0,0,0,0,0,0,0,-1,1252,967,0,0
35,57,0,0,0,0,0,0,0,0,0,-1,1259,967,0,0
42,57,0,0,0,0,0,0,0,0,0,-1,1266,967,0,0
49,57,0,0,0,0,0,0,0,0,0,-1,1273,967,0,0
56,57,0,0,0,0,0,0,0,0,0,-1,1280,967,0,0
63,57,0,0,0,0,0,0,0,0,0,-1,1287,967,0,0
70,57,0,0,0,0,0,0,0,0,0,-1,1294,967,0,0
77,57,0,0,0,0,0,0,0,0,0,-1,1301,967,0,0
84,57,0,0,0,0,0,0,0,0,0,-1,1308,967,0,0
91,57,0,0,0,0,0,0,0,0,0,-1,1315,967,0,0
98,57,0,0,0,0,0,0,0,0,0,-1,1322,967,0,0
105,57,0,0,0,0,0,0,0,0,0,-1,1329,967,0,0
112,57,0,0,0,0,0,0,0,0,0,-1,1336,967,0,0
119,57,0,0,0,0,0,0,0,0,0,-1,1343,967,0,0
126,57,0,0,0,0,0,0,0,0,0,-1,1350,967,0,0
133,57,0,0,0,0,0,0,0,0,0,-1,1357,967,0,0
140,57,0,0,0,0,0,0,0,0,0,-1,1364,967,0,0
147,57,0,0,0,0,0,0,0,0,0,-1,1371,967,0,0
154,57,0,0,0,0,0,0,0,0,0,-1,1378,967,0,0
161,57,0,0,0,0,0,0,0,0,0,-1,1385,967,0,0
168,57,0,0,0,0,0,0,0,0,0,-1,1392,967,0,0
175,57,0,0,0,0,0,0,0,0,0,-1,1399,967,0,0
182,57,0,0,0,0,0,0,0,0,0,-1,1406,967,0,0
189,57,0,0,0,0,0,0,0,0,0,-1,1413,967,0,0
196,57,0,0,0,0,0,0,0,0,0,-1,1420,967,0,0
203,57,0,0,0,0,0,0,0,0,0,-1,1427,967,0,0
210,57,0,0,0,0,0,0,0,0,0,-1,1434,967,0,0
217,57,0,0,0,0,0,0,0,0,0,-1,1441,967,0,0
224,57,0,0,0,0,0,0,0,0,0,-1,1448,967,0,0
231,57,0,0,0,0,0,0,0,0,0,-1,1455,967,0,0
238,57,0,0,0,0,0,0,0,0,0,-1,1462,967,0,0
245,57,0,0,0,0,0,0,0,0,0,-1,1469,967,0,0
252,57,0,0,0,0,0,0,0,0,0,-1,1476,967,0,0
259,57,0,0,0,0,0,0,0,0,0,-1,1483,967,0,0
266,57,0,0,0,0,0,0,0,0,0,-1,1490,967,0,0
273,57,0,0,0,0,0,0,0,0,0,-1,1497,967,0,0
280,57,0,0,0,0,0,0,0,0,0,-1,1504,967,0,0
287,57,0,0,0,0,0,0,0,0,0,-1,1511,967,0,0
294,57,0,0,0,0,0,0,0,0,0,-1,1518,967,0,0
301,57,0,0,0,0,0,0,0,0,0,-1,1525,967,0,0
308,57,0,0,0,0,0,0,0,0,0,-1,1532,967,0,0
315,57,0,0,0,0,0,0,0,0,0,-1,1539,967,0,0
322,57,0,0,0,0,0,0,0,0,0,-1,1546,967,0,0
329,57,0,0,0,0,0,0,0,0,0,-1,1553,967,0,0
336,57,0,0,0,0,0,0,0,0,0,-1,1560,967,0,0
343,57,0,0,0,0,0,0,0,0,0,-1,1567,967,0,0
350,57,0,0,0,0,0,0,0,0,0,-1,1574,967,0,0
357,57,0,0,0,0,0,0,0,0,0,-1,1581,967,0,0
364,57,0,0,0,0,0,0,0,0,0,-1,1588,967,0,0
371,57,0,0,0,0,0,0,0,0,0,-1,1595,967,0,0
378,57,0,0,0,0,0,0,0,0,0,-1,1602,967,0,0
385,57,0,0,0,0,0,0,0,0,0,-1,1609,967,0,0
392,57,0,0,0,0,0,0,0,0,0,-1,1616,967,0,0
399,57,0,0,0,0,0,0,0,0,0,-1,1623,967,0,0
406,57,0,0,0,0,0,0,0,0,0,-1,1630,967,0,0
413,57,0,0,0,0,0,0,0,0,0,-1,1637,967,0,0
420,57,0,0,0,0,0,0,0,0,0,-1,1644,967,0,0
427,57,0,0,0,0,0,0,0,0,0,-1,1651,967,0,0
434,57,0,0,0,0,0,0,0,0,0,-1,1658,967,0,0
441,57,0,0,0,0,0,0,0,0,0,-1,1665,967,0,0
448,57,0,0,0,0,0,0,0,0,0,-1,1672,967,0,0
455,57,0,0,0,0,0,0,0,0,0,-1,1679,967,0,0
462,57,0,0,0,0,0,0,0,0,0,-1,1686,967,0,0
469,57,0,0,0,0,0,0,0,0,0,-1,1693,967,0,0
476,57,0,0,0,0,0,0,0,0,0,-1,1700,967,0,0
483,57,0,0,0,0,0,0,0,0,0,-1,1707,967,0,0
490,57,0,0,0,0,0,0,0,0,0,-1,1714,967,0,0
497,57,0,0,0,0,0,0,0,0,0,-1,1721,967,0,0
504,57,0,0,0,0,0,0,0,0,0,-1,1728,967,0,0
511,57,0,0,0,0,0,0,0,0,0,-1,1735,967,0,0
518,57,0,0,0,0,0,0,0,0,0,-1,1742,967,0,0
525,57,0,0,0,0,0,0,0,0,0,-1,1749,967,0,0
532,57,0,0,0,0,0,0,0,0,0,-1,1756,967,0,0
539,57,0,0,0,0,0,0,0,0,0,-1,1763,967,0,0
546,57,0,0,0,0,0,0,0,0,0,-1,1770,967,0,0
553,57,0,0,0,0,0,0,0,0,0,-1,1777,967,0,0
560,57,0,0,0,0,0,0,0,0,0,-1,1784,967,0,0
567,57,0,0,0,0,0,0,0,0,0,-1,1791,967,0,0
574,57,0,0,0,0,0,0,0,0,0,-1,1798,967,0,0
581,57,0,0,0,0,0,0,0,0,0,-1,1805,967,0,0
588,57,0,0,0,0,0,0,0,0,0,-1,1812,967,0,0
595,57,0,0,0,0,0,0,0,0,0,-1,1819,967,0,0
602,57,0,0,0,0,0,0,0,0,0,-1,1826,967,0,0
609,57,0,0,0,0,0,0,0,0,0,-1,1833,967,0,0
616,57,0,0,0,0,0,0,0,0,0,-1,1840,967,0,0
623,57,0,0,0,0,0,0,0,0,0,-1,1847,967,0,0
630,57,0,0,0,0,0,0,0,0,0,-1,1854,967,0,0
637,57,0,0,0,0,0,0,0,0,0,-1,1861,967,0,0
644,57,-0.00549316,0.0256958,-0.00025038,0.000416878,0.00277982,0.00288301,-0.00271652,0.845122,0.00323337,0.0363349,1868,967,-0.00553381,-0.0257173
651,57,0.0233154,-0.00164795,-0.000415993,0.000247053,0.00213266,0.00207381,-0.00224275,0.862506,0.0024928,0.029846,1875,967,0.0233655,0.0016625
658,57,-0.0557861,0.0449829,-0.000469809,0.000196232,0.0015685,0.00146667,-0.00174025,0.890004,0.00185376,0.0276576,1882,967,-0.0557372,-0.0450082
665,57,-0.0349121,-0.0222168,-0.000443624,0.000206098,0.00110602,0.00103398,-0.0012715,0.928242,0.00133342,0.03704,1889,967,-0.0349446,0.0222402
672,57,-0.0247803,0.143738,-0.000369681,0.000242025,0.000716871,0.000715563,-0.000843219,0.987032,0.000900969,0.0400668,1896,967,-0.0247905,-0.143726
679,57,-0.0554199,0.17749,-0.000302176,0.00028535,0.00042775,0.000510496,-0.000527322,1.08629,0.000599211,0.0362444,1903,967,-0.0554265,-0.177502
686,57,-0.0718994,0.0456543,-0.000221051,0.000312669,0.000230199,0.000398237,-0.000306619,1.21491,0.000408093,0.0311282,1910,967,-0.0718585,-0.0456809
693,57,-0.0600586,-0.0263672,-0.000146312,0.000331323,0.000125154,0.00036213,-0.000177119,1.32944,0.000317385,0.0265733,1917,967,-0.0600241,0.0263883
700,57,-0.0697021,0.00372314,-0.00011983,0.000318312,4.79474e-05,0.000323497,-0.000125015,1.46306,0.000267267,0.0194178,1924,967,-0.0696601,-0.0037428
707,57,-0.0452881,0.0567627,-3.83076e-05,0.000340862,-4.3834e-05,0.000345863,-4.3309e-05,-1.45719,0.000246284,0.0156292,1931,967,-0.0453454,-0.056781
714,57,-0.0418701,0.0786133,2.51133e-05,0.000347805,-0.000106934,0.000380023,-7.10551e-06,-1.27815,0.00025575,0.0134505,1938,967,-0.0419187,-0.0786249
721,57,-0.0571289,0.0922852,-1.6232e-05,0.000331648,-7.15487e-05,0.000345788,-3.03727e-05,-1.37567,0.000241288,0.0132068,1945,967,-0.0571366,-0.0922578
728,57,-0.0634766,0.113525,6.68924e-05,0.000297428,-4.46576e-05,0.000305777,5.8544e-05,-1.38599,0.00018741,0.016513,1952,967,-0.0634641,-0.113545
735,57,-0.0725098,0.12085,0.000352211,0.000127487,6.6913e-05,0.000370625,0.000109072,0.268557,0.000219934,0.0165758,1959,967,-0.0725027,-0.12083
742,57,-0.0490723,0.0778198,0.000776949,-3.37062e-05,0.000407377,0.000946292,-0.00020305,0.39396,0.000708313,0.0139627,1966,967,-0.0491103,-0.0778093
749,57,-0.0633545,0.0923462,0.00132924,-0.000195137,0.000741314,0.00163029,-0.000496188,0.385758,0.00128461,0.0116582,1973,967,-0.0633325,-0.0923309
756,57,-0.0601807,0.072998,0.00189774,-0.000147405,0.00106901,0.00235451,-0.000604168,0.403798,0.00180508,0.0095092,1980,967,-0.0601683,-0.0729844
763,57,-0.0473633,0.0467529,0.00286564,-0.000686266,0.00129739,0.00328906,-0.00110968,0.315462,0.00264147,0.0100497,1987,967,-0.0474222,-0.0467261
770,57,-0.0512695,0.0567627,0.00393148,-0.00106847,0.0018242,0.00452627,-0.00166326,0.315186,0.00369877,0.00942041,1994,967,-0.0512594,-0.0567735
777,57,-0.112061,0.0881958,0.00523372,-0.00160923,0.00247942,0.00603765,-0.00241316,0.313544,0.00502643,0.0242933,2001,967,-0.112022,-0.0881809
784,57,-0.14856,0.159546,0.00672715,-0.00239008,0.00324016,0.00776136,-0.00342428,0.308961,0.00661787,0.0450341,2008,967,-0.14862,-0.159526
791,57,-0.139404,0.182251,0.00836818,-0.00352619,0.00409582,0.00964213,-0.00480014,0.301551,0.00849302,0.0493111,2015,967,-0.139424,-0.182221
798,57,-0.255737,0.485413,0.0101126,-0.00521061,0.00498846,0.0115934,-0.00669148,0.288574,0.0106825,0.0467765,2022,967,-0.255679,-0.485416
805,57,-0.229736,0.381348,0.011743,-0.0077408,0.00581579,0.0133469,-0.00934475,0.269101,0.0131688,0.0446954,2029,967,-0.229786,-0.381321
812,57,0,0,0,0,0,0,0,0,0,-1,2036,967,0,0
-700,50,0,0,0,0,0,0,0,0,0,-1,524,974,0,0
-693,50,2.38763,-0.604248,0,0,0,0,0,0,0,-1,531,974,2.3876,0.604222
-686,50,1.98151,-0.496887,-0.0642216,0.0417381,-0.0504676,0.0619282,-0.0844117,-1.19024,0.0848212,0.0421691,538,974,1.98148,0.496886
-679,50,1.48492,0.00177002,-0.0491885,0.0348701,-0.0400658,0.0509074,-0.0652258,-1.19005,0.0672192,0.0469569,545,974,1.4849,-0.00174405
-672,50,0.95636,-0.513184,-0.0368536,0.0288052,-0.0311903,0.0412594,-0.0493079,-1.1909,0.0523578,0.045892,552,974,0.956363,0.513165
-665,50,0.202637,-1.1319,-0.0267548,0.0234204,-0.0236862,0.0328353,-0.0361697,-1.19246,0.0398556,0.0450603,559,974,0.202617,1.13193
-658,50,-1.11957,-1.49249,-0.0186242,0.0186465,-0.0174527,0.025543,-0.0255207,-1.19448,0.0294816,0.0458522,566,974,-1.11959,1.49251
-651,50,0.0299683,-0.177429,-0.0122631,0.0144644,-0.0124032,0.0193333,-0.017132,-1.19673,0.021066,0.0418967,573,974,0.0299566,0.177409
-644,50,0.00561523,-0.0335083,-0.00750285,0.0108811,-0.00843336,0.0141636,-0.0107854,-1.1996,0.0144483,0.0255687,580,974,0.00561616,0.0335122
-637,50,-0.0421143,0.0426636,-0.00315378,0.00746465,-0.00540184,0.00972958,-0.00541871,-1.17377,0.00886313,0.0134131,587,974,-0.0421057,-0.0426799
-630,50,-0.045105,0.0628052,-0.000784516,0.0048792,-0.00242605,0.0057763,-0.00168162,-1.21661,0.00451698,0.00956265,594,974,-0.0451087,-0.0628149
-623,50,-0.0316162,0.0720215,0.000645504,0.00338661,-0.000684414,0.00354799,0.000484117,-1.33922,0.00222161,0.0101344,601,974,-0.0315926,-0.0720284
-616,50,-0.0230103,0.0675049,0.00169963,0.00188513,-0.000251366,0.00206031,0.00152445,-0.96214,0.00123432,0.0104318,608,974,-0.0230076,-0.0674918
-609,50,-0.0391235,0.0576782,0.00173852,0.00120261,3.66767e-05,0.00174102,0.00120011,0.0680149,0.00102892,0.00989617,615,974,-0.039105,-0.057678
-602,50,-0.0462036,0.0616455,0.000878329,0.000287849,2.29729e-05,0.000879221,0.000286957,0.0388272,0.000517719,0.010493,622,974,-0.0462101,-0.0616342
-595,50,-0.0498047,0.0811768,6.22895e-05,7.42115e-05,6.49074e-05,0.000133431,3.06994e-06,0.831189,8.79486e-05,0.011016,629,974,-0.0497864,-0.0811467
-588,50,-0.0585938,0.0790405,-0.000101207,0.000109114,1.6251e-06,0.000109127,-0.00010122,1.56307,0.000121472,0.0118411,636,974,-0.0586196,-0.0790479
-581,50,-0.0566406,0.0803833,0.000111311,0.000115998,-9.09897e-05,0.000204675,2.26349e-05,-0.798272,0.000129566,0.0173029,643,974,-0.0566222,-0.0803614
-574,50,-0.0331421,0.0328979,0.000470337,2.47068e-06,-0.000216528,0.000555166,-8.23583e-05,-0.37339,0.000400397,0.0238465,650,974,-0.0331498,-0.0329204
-567,50,-0.00982666,-0.0693359,0.000727274,-5.57887e-05,-0.000317995,0.000840141,-0.000168656,-0.341063,0.000623958,0.0353613,657,974,-0.00984226,0.0693577
-560,50,0.0879517,-0.106384,0.0011456,-0.000159037,-0.000473582,0.00129938,-0.00031282,-0.313981,0.000987191,0.0407902,664,974,0.087953,0.106358
-553,50,0.0291748,-0.0245361,0.00177856,-0.000307545,-0.000729222,0.00200819,-0.000537176,-0.305068,0.00154921,0.0372666,671,974,0.0291654,0.0245389
-546,50,-0.0653687,0.0662231,0.00271043,-0.000513335,-0.00114645,0.00307655,-0.00087946,-0.309118,0.00239855,0.0353922,678,974,-0.0653863,-0.0662171
-539,50,-0.0768433,0.175781,0.0040461,-0.000785179,-0.00176707,0.00462343,-0.00136251,-0.315782,0.00362289,0.0379973,685,974,-0.0768362,-0.175772
-532,50,-0.0750732,0.119995,0.00591588,-0.00114408,-0.00265778,0.00680456,-0.00203276,-0.322683,0.00534441,0.0393754,692,974,-0.0750613,-0.119977
-525,50,0.0371094,-0.00177002,0.00850625,-0.00161883,-0.00400693,0.00990008,-0.00301267,-0.334764,0.00780067,0.0383843,699,974,0.0371094,0.00177266
-518,50,0,0,0,0,0,0,0,0,0,-1,706,974,0,0
-511,50,0,0,0,0,0,0,0,0,0,-1,713,974,0,0
-504,50,0,0,0,0,0,0,0,0,0,-1,720,974,0,0
-497,50,0,0,0,0,0,0,0,0,0,-1,727,974,0,0
-490,50,0,0,0,0,0,0,0,0,0,-1,734,974,0,0
-483,50,0,0,0,0,0,0,0,0,0,-1,741,974,0,0
-476,50,0,0,0,0,0,0,0,0,0,-1,748,974,0,0
-469,50,0,0,0,0,0,0,0,0,0,-1,755,974,0,0
-462,50,0,0,0,0,0,0,0,0,0,-1,762,974,0,0
-455,50,0,0,0,0,0,0,0,0,0,-1,769,974,0,0
-448,50,0,0,0,0,0,0,0,0,0,-1,776,974,0,0
-441,50,0,0,0,0,0,0,0,0,0,-1,783,974,0,0
-434,50,0,0,0,0,0,0,0,0,0,-1,790,974,0,0
-427,50,0,0,0,0,0,0,0,0,0,-1,797,974,0,0
-420,50,0,0,0,0,0,0,0,0,0,-1,804,974,0,0
-413,50,0,0,0,0,0,0,0,0,0,-1,811,974,0,0
-406,50,0,0,0,0,0,0,0,0,0,-1,818,974,0,0
-399,50,0,0,0,0,0,0,0,0,0,-1,825,974,0,0
-392,50,0,0,0,0,0,0,0,0,0,-1,832,974,0,0
-385,50,0,0,0,0,0,0,0,0,0,-1,839,974,0,0
-378,50,0,0,0,0,0,0,0,0,0,-1,846,974,0,0
-371,50,0,0,0,0,0,0,0,0,0,-1,853,974,0,0
-364,50,0,0,0,0,0,0,0,0,0,-1,860,974,0,0
-357,50,0,0,0,0,0,0,0,0,0,-1,867,974,0,0
-350,50,0,0,0,0,0,0,0,0,0,-1,874,974,0,0
-343,50,0,0,0,0,0,0,0,0,0,-1,881,974,0,0
-336,50,0,0,0,0,0,0,0,0,0,-1,888,974,0,0
-329,50,0,0,0,0,0,0,0,0,0,-1,895,974,0,0
-322,50,0,0,0,0,0,0,0,0,0,-1,902,974,0,0
-315,50,0,0,0,0,0,0,0,0,0,-1,909,974,0,0
-308,50,0,0,0,0,0,0,0,0,0,-1,916,974,0,0
-301,50,0,0,0,0,0,0,0,0,0,-1,923,974,0,0
-294,50,0,0,0,0,0,0,0,0,0,-1,930,974,0,0
-287,50,0,0,0,0,0,0,0,0,0,-1,937,974,0,0
-280,50,0,0,0,0,0,0,0,0,0,-1,944,974,0,0
-273,50,0,0,0,0,0,0,0,0,0,-1,951,974,0,0
-266,50,0,0,0,0,0,0,0,0,0,-1,958,974,0,0
-259,50,0,0,0,0,0,0,0,0,0,-1,965,974,0,0
-252,50,0,0,0,0,0,0,0,0,0,-1,972,974,0,0
-245,50,0,0,0,0,0,0,0,0,0,-1,979,974,0,0
-238,50,0,0,0,0,0,0,0,0,0,-1,986,974,0,0
-231,50,0,0,0,0,0,0,0,0,0,-1,993,974,0,0
-224,50,0,0,0,0,0,0,0,0,0,-1,1000,974,0,0
-217,50,0,0,0,0,0,0,0,0,0,-1,1007,974,0,0
-210,50,0,0,0,0,0,0,0,0,0,-1,1014,974,0,0
-203,50,0,0,0,0,0,0,0,0,0,-1,1021,974,0,0
-196,50,0,0,0,0,0,0,0,0,0,-1,1028,974,0,0
-189,50,0,0,0,0,0,0,0,0,0,-1,1035,974,0,0
-182,50,0,0,0,0,0,0,0,0,0,-1,1042,974,0,0
-175,50,0,0,0,0,0,0,0,0,0,-1,1049,974,0,0
-168,50,0,0,0,0,0,0,0,0,0,-1,1056,974,0,0
-161,50,0,0,0,0,0,0,0,0,0,-1,1063,974,0,0
-154,50,0,0,0,0,0,0,0,0,0,-1,1070,974,0,0
-147,50,0,0,0,0,0,0,0,0,0,-1,1077,974,0,0
-140,50,0,0,0,0,0,0,0,0,0,-1,1084,974,0,0
-133,50,0,0,0,0,0,0,0,0,0,-1,1091,974,0,0
-126,50,0,0,0,0,0,0,0,0,0,-1,1098,974,0,0
-119,50,0,0,0,0,0,0,0,0,0,-1,1105,974,0,0
-112,50,0,0,0,0,0,0,0,0,0,-1,1112,974,0,0
-105,50,0,0,0,0,0,0,0,0,0,-1,1119,974,0,0
-98,50,0,0,0,0,0,0,0,0,0,-1,1126,974,0,0
-91,50,0,0,0,0,0,0,0,0,0,-1,1133,974,0,0
-84,50,0,0,0,0,0,0,0,0,0,-1,1140,974,0,0
-77,50,0,0,0,0,0,0,0,0,0,-1,1147,974,0,0
-70,50,0,0,0,0,0,0,0,0,0,-1,1154,974,0,0
-63,50,0,0,0,0,0,0,0,0,0,-1,1161,974,0,0
-56,50,0,0,0,0,0,0,0,0,0,-1,1168,974,0,0
-49,50,0,0,0,0,0,0,0,0,0,-1,1175,974,0,0
-42,50,0,0,0,0,0,0,0,0,0,-1,1182,974,0,0
-35,50,0,0,0,0,0,0,0,0,0,-1,1189,974,0,0
-28,50,0,0,0,0,0,0,0,0,0,-1,1196,974,0,0
-21,50,0,0,0,0,0,0,0,0,0,-1,1203,974,0,0
-14,50,0,0,0,0,0,0,0,0,0,-1,1210,974,0,0
-7,50,0,0,0,0,0,0,0,0,0,-1,1217,974,0,0
0,50,0,0,0,0,0,0,0,0,0,-1,1224,974,0,0
7,50,0,0,0,0,0,0,0,0,0,-1,1231,974,0,0
14,50,0,0,0,0,0,0,0,0,0,-1,1238,974,0,0
21,50,0,0,0,0,0,0,0,0,0,-1,1245,974,0,0
28,50,0,0,0,0,0,0,0,0,0,-1,1252,974,0,0
35,50,0,0,0,0,0,0,0,0,0,-1,1259,974,0,0
42,50,0,0,0,0,0,0,0,0,0,-1,1266,974,0,0
49,50,0,0,0,0,0,0,0,0,0,-1,1273,974,0,0
56,50,0,0,0,0,0,0,0,0,0,-1,1280,974,0,0
63,50,0,0,0,0,0,0,0,0,0,-1,1287,974,0,0
70,50,0,0,0,0,0,0,0,0,0,-1,1294,974,0,0
77,50,0,0,0,0,0,0,0,0,0,-1,1301,974,0,0
84,50,0,0,0,0,0,0,0,0,0,-1,1308,974,0,0
91,50,0,0,0,0,0,0,0,0,0,-1,1315,974,0,0
98,50,0,0,0,0,0,0,0,0,0,-1,1322,974,0,0
105,50,0,0,0,0,0,0,0,0,0,-1,1329,974,0,0
112,50,0,0,0,0,0,0,0,0,0,-1,1336,974,0,0
119,50,0,0,0,0,0,0,0,0,0,-1,1343,974,0,0
126,50,0,0,0,0,0,0,0,0,0,-1,1350,974,0,0
133,50,0,0,0,0,0,0,0,0,0,-1,1357,974,0,0
140,50,0,0,0,0,0,0,0,0,0,-1,1364,974,0,0
147,50,0,0,0,0,0,0,0,0,0,-1,1371,974,0,0
154,50,0,0,0,0,0,0,0,0,0,-1,1378,974,0,0
161,50,0,0,0,0,0,0,0,0,0,-1,1385,974,0,0
168,50,0,0,0,0,0,0,0,0,0,-1,1392,974,0,0
175,50,0,0,0,0,0,0,0,0,0,-1,1399,974,0,0
182,50,0,0,0,0,0,0,0,0,0,-1,1406,974,0,0
189,50,0,0,0,0,0,0,0,0,0,-1,1413,974,0,0
196,50,0,0,0,0,0,0,0,0,0,-1,1420,974,0,0
203,50,0,0,0,0,0,0,0,0,0,-1,1427,974,0,0
210,50,0,0,0,0,0,0,0,0,0,-1,1434,974,0,0
217,50,0,0,0,0,0,0,0,0,0,-1,1441,974,0,0
224,50,0,0,0,0,0,0,0,0,0,-1,1448,974,0,0
231,50,0,0,0,0,0,0,0,0,0,-1,1455,974,0,0
238,50,0,0,0,0,0,0,0,0,0,-1,1462,974,0,0
245,50,0,0,0,0,0,0,0,0,0,-1,1469,974,0,0
252,50,0,0,0,0,0,0,0,0,0,-1,1476,974,0,0
259,50,0,0,0,0,0,0,0,0,0,-1,1483,974,0,0
266,50,0,0,0,0,0,0,0,0,0,-1,1490,974,0,0
273,50,0,0,0,0,0,0,0,0,0,-1,1497,974,0,0
280,50,0,0,0,0,0,0,0,0,0,-1,1504,974,0,0
287,50,0,0,0,0,0,0,0,0,0,-1,1511,974,0,0
294,50,0,0,0,0,0,0,0,0,0,-1,1518,974,0,0
301,50,0,0,0,0,0,0,0,0,0,-1,1525,974,0,0
308,50,0,0,0,0,0,0,0,0,0,-1,1532,974,0,0
315,50,0,0,0,0,0,0,0,0,0,-1,1539,974,0,0
322,50,0,0,0,0,0,0,0,0,0,-1,1546,974,0,0
329,50,0,0,0,0,0,0,0,0,0,-1,1553,974,0,0
336,50,0,0,0,0,0,0,0,0,0,-1,1560,974,0,0
343,50,0,0,0,0,0,0,0,0,0,-1,1567,974,0,0
350,50,0,0,0,0,0,0,0,0,0,-1,1574,974,0,0
357,50,0,0,0,0,0,0,0,0,0,-1,1581,974,0,0
364,50,0,0,0,0,0,0,0,0,0,-1,1588,974,0,0
371,50,0,0,0,0,0,0,0,0,0,-1,1595,974,0,0
378,50,0,0,0,0,0,0,0,0,0,-1,1602,974,0,0
385,50,0,0,0,0,0,0,0,0,0,-1,1609,974,0,0
392,50,0,0,0,0,0,0,0,0,0,-1,1616,974,0,0
399,50,0,0,0,0,0,0,0,0,0,-1,1623,974,0,0
406,50,0,0,0,0,0,0,0,0,0,-1,1630,974,0,0
413,50,0,0,0,0,0,0,0,0,0,-1,1637,974,0,0
420,50,0,0,0,0,0,0,0,0,0,-1,1644,974,0,0
427,50,0,0,0,0,0,0,0,0,0,-1,1651,974,0,0
434,50,0,0,0,0,0,0,0,0,0,-1,1658,974,0,0
441,50,0,0,0,0,0,0,0,0,0,-1,1665,974,0,0
448,50,0,0,0,0,0,0,0,0,0,-1,1672,974,0,0
455,50,0,0,0,0,0,0,0,0,0,-1,1679,974,0,0
462,50,0,0,0,0,0,0,0,0,0,-1,1686,974,0,0
469,50,0,0,0,0,0,0,0,0,0,-1,1693,974,0,0
476,50,0,0,0,0,0,0,0,0,0,-1,1700,974,0,0
483,50,0,0,0,0,0,0,0,0,0,-1,1707,974,0,0
490,50,0,0,0,0,0,0,0,0,0,-1,1714,974,0,0
497,50,0,0,0,0,0,0,0,0,0,-1,1721,974,0,0
504,50,0,0,0,0,0,0,0,0,0,-1,1728,974,0,0
511,50,0,0,0,0,0,0,0,0,0,-1,1735,974,0,0
518,50,0,0,0,0,0,0,0,0,0,-1,1742,974,0,0
525,50,0,0,0,0,0,0,0,0,0,-1,1749,974,0,0
532,50,0,0,0,0,0,0,0,0,0,-1,1756,974,0,0
539,50,0,0,0,0,0,0,0,0,0,-1,1763,974,0,0
546,50,0,0,0,0,0,0,0,0,0,-1,1770,974,0,0
553,50,0,0,0,0,0,0,0,0,0,-1,1777,974,0,0
560,50,0,0,0,0,0,0,0,0,0,-1,1784,974,0,0
567,50,0,0,0,0,0,0,0,0,0,-1,1791,974,0,0
574,50,0,0,0,0,0,0,0,0,0,-1,1798,974,0,0
581,50,0,0,0,0,0,0,0,0,0,-1,1805,974,0,0
588,50,0,0,0,0,0,0,0,0,0,-1,1812,974,0,0
595,50,0,0,0,0,0,0,0,0,0,-1,1819,974,0,0
602,50,0,0,0,0,0,0,0,0,0,-1,1826,974,0,0
609,50,0,0,0,0,0,0,0,0,0,-1,1833,974,0,0
616,50,0,0,0,0,0,0,0,0,0,-1,1840,974,0,0
623,50,0,0,0,0,0,0,0,0,0,-1,1847,974,0,0
630,50,0,0,0,0,0,0,0,0,0,-1,1854,974,0,0
637,50,0,0,0,0,0,0,0,0,0,-1,1861,974,0,0
644,50,0.0400391,0.0879517,-0.000571052,-0.000131842,0.00343086,0.00308643,-0.00378932,0.817359,0.00397663,0.0341762,1868,974,0.0400283,-0.0879697
651,50,-0.00476074,0.102722,-0.000524847,-6.65928e-05,0.00255996,0.00227447,-0.00286591,0.830031,0.00297434,0.0289157,1875,974,-0.00480422,-0.102716
658,50,-0.132813,0.12561,-0.000474156,3.44582e-05,0.0018407,0.00163834,-0.00207803,0.854042,0.00215065,0.031256,1882,974,-0.132773,-0.125616
665,50,-0.104858,0.0430298,-0.000395814,0.00014127,0.00127756,0.00117821,-0.00143275,0.88899,0.00150982,0.0352306,1889,974,-0.104867,-0.0430486
672,50,-0.0217285,-0.00994873,-0.000294506,0.000236986,0.000825616,0.00083857,-0.000896091,0.9411,0.00100169,0.03799,1896,974,-0.0217358,0.00994111
679,50,-0.019043,0.153259,-0.000226477,0.00031252,0.000497582,0.000608899,-0.000522856,1.03359,0.000654048,0.0372058,1903,974,-0.0190995,-0.15328
686,50,-0.0241699,0.0314331,-0.000156445,0.000366357,0.000280929,0.00048869,-0.000278778,1.1601,0.000448588,0.035328,1910,974,-0.0241359,-0.0314612
693,50,0.000488281,-0.0756226,-8.86945e-05,0.000395531,0.000164152,0.000445933,-0.000139096,1.27289,0.000352912,0.0329224,1917,974,0.000472731,0.0755961
700,50,-0.0693359,0.0365601,-6.32084e-05,0.000381174,6.91304e-05,0.00039168,-7.37143e-05,1.41998,0.000288844,0.0170701,1924,974,-0.0693014,-0.036587
707,50,-0.0479736,0.0738525,-1.97709e-06,0.000388138,-2.72472e-05,0.000390032,-3.87094e-06,-1.5014,0.000261321,0.0151632,1931,974,-0.0479554,-0.0738313
714,50,-0.0419922,0.0875244,3.22844e-05,0.000382085,-8.22503e-05,0.00040046,1.39097e-05,-1.35101,0.000262459,0.0136317,1938,974,-0.0420051,-0.087532
721,50,-0.0423584,0.0720215,-1.15693e-05,0.000352777,-4.0008e-05,0.000357119,-1.59108e-05,-1.4627,0.000243556,0.0134093,1945,974,-0.0423612,-0.0720436
728,50,-0.0587158,0.0790405,6.92834e-05,0.000301131,-5.78004e-06,0.000301275,6.91394e-05,-1.54589,0.000182229,0.0168577,1952,974,-0.0587039,-0.0790217
735,50,-0.0606689,0.0830078,0.000301282,0.000118419,0.000103087,0.000347642,7.20581e-05,0.422624,0.000211867,0.0162812,1959,974,-0.0607214,-0.0830099
742,50,-0.0512695,0.0696411,0.000624857,-4.30477e-05,0.00039371,0.000807172,-0.000225363,0.433669,0.000626887,0.0136124,1966,974,-0.0512903,-0.0696191
749,50,-0.0429688,0.0637207,0.00114042,-3.54446e-05,0.000595828,0.00138955,-0.000284576,0.396034,0.00103436,0.0141934,1973,974,-0.0430066,-0.0637208
756,50,-0.0390625,0.059021,0.00173969,0.00018448,0.000749575,0.00204215,-0.000117977,0.383523,0.00140241,0.0105378,1980,974,-0.0391034,-0.0590165
763,50,-0.0335693,0.0487061,0.00267351,-0.000262924,0.000783429,0.00286946,-0.000458865,0.245079,0.00208284,0.0101038,1987,974,-0.0335226,-0.0487305
770,50,-0.0354004,0.0584106,0.00369585,-0.000430938,0.00103972,0.003943,-0.000678086,0.233376,0.00288141,0.00962263,1994,974,-0.0353684,-0.0584296
777,50,-0.0626221,0.0495605,0.00498651,-0.00067894,0.00132565,0.00528135,-0.000973784,0.218852,0.00388638,0.021058,2001,974,-0.0626432,-0.0495734
784,50,-0.150757,0.114502,0,0,0,0,0,0,0,-1,2008,974,-0.150758,-0.114495
791,50,-0.0528564,-0.0222168,0,0,0,0,0,0,0,-1,2015,974,-0.0529031,0.0222187
798,50,-0.168945,0.243408,0.0102125,-0.00285241,0.00185052,0.0104696,-0.00310947,0.138024,0.00821476,0.0451036,2022,974,-0.168918,-0.243387
805,50,-0.31311,0.41571,0.0122548,-0.00471625,0.00161659,0.0124074,-0.00486887,0.0941277,0.0102861,0.0432622,2029,974,-0.313053,-0.415714
812,50,0,0,0,0,0,0,0,0,0,-1,2036,974,0,0
-700,43,0,0,0,0,0,0,0,0,0,-1,524,981,0,0
-693,43,3.03894,-1.57635,0,0,0,0,0,0,0,-1,531,981,3.03895,1.57636
-686,43,2.45947,-0.306274,-0.0751522,0.041346,-0.0395971,0.0535305,-0.0873366,-1.27228,0.0821066,0.0450544,538,981,2.45947,0.306263
-679,43,1.80597,-0.164673,-0.0572334,0.0339988,-0.0314856,0.0438099,-0.0670445,-1.26873,0.0644687,0.0458044,545,981,1.80597,0.164692
-672,43,1.4469,-0.868652,0,0,0,0,0,0,0,-1,552,981,1.44692,0.868634
-665,43,0.90564,-1.47339,0,0,0,0,0,0,0,-1,559,981,0.90562,1.47336
-658,43,-0.977173,-1.47394,0,0,0,0,0,0,0,-1,566,981,-0.977197,1.47393
-651,43,-2.00769,-1.58563,0,0,0,0,0,0,0,-1,573,981,-2.00766,1.58566
-644,43,-0.0223999,0.0128174,-0.00887511,0.00997328,-0.00655158,0.0120268,-0.0109287,-1.26705,0.0132584,0.0166589,580,981,-0.0223939,-0.012809
-637,43,-0.0264282,0.0519409,-0.00395272,0.0066737,-0.00413379,0.00809239,-0.00537141,-1.2402,0.00782606,0.0108217,587,981,-0.0264551,-0.0519182
-630,43,-0.038208,0.0675659,-0.00101464,0.00425066,-0.00176413,0.00478708,-0.00155106,-1.27561,0.003815,0.0111071,594,981,-0.0382285,-0.0675536
-623,43,-0.0378418,0.0671997,0.000569237,0.00292347,-0.000412875,0.00299377,0.000498928,-1.40212,0.00185208,0.0105882,601,981,-0.0378496,-0.0672135
-616,43,-0.0230103,0.0650024,0.00157024,0.00154973,-0.000220099,0.00178032,0.00133965,-0.762125,0.00107066,0.00941074,608,981,-0.023005,-0.0649969
-609,43,-0.0334473,0.0477295,0.00162297,0.00101637,4.24791e-05,0.00162593,0.00101341,0.0695758,0.000948194,0.0114522,615,981,-0.0334266,-0.0477306
-602,43,-0.0480347,0.0323486,0.000828465,0.000195209,1.13888e-06,0.000828467,0.000195207,0.00179844,0.000500107,0.0145093,622,981,-0.0480326,-0.0323294
-595,43,-0.0463257,0.0591431,4.43259e-05,-1.16768e-05,4.62066e-05,7.03535e-05,-3.77044e-05,0.512987,6.33294e-05,0.0134583,629,981,-0.0463371,-0.0591523
-588,43,-0.046936,0.0770264,-0.000133712,-1.52981e-05,3.0244e-06,-1.52209e-05,-0.000133789,1.54528,8.45769e-05,0.0123675,636,981,-0.0469495,-0.0770477
-581,43,-0.0453491,0.108887,6.27458e-05,-6.08946e-05,-6.93662e-05,9.38417e-05,-9.19905e-05,-0.421428,0.000107292,0.0174734,643,981,-0.0453438,-0.108905
-574,43,-0.0280151,0.0800781,0.000430873,-0.000237612,-0.000175439,0.000474118,-0.000280857,-0.241679,0.000440619,0.0256683,650,981,-0.0280367,-0.0800775
-567,43,0.0158081,-0.00866699,0.000711099,-0.00035625,-0.00025679,0.000769666,-0.000414817,-0.224237,0.000694015,0.0353044,657,981,0.0158058,0.00868411
-560,43,0.0726318,-0.0501099,0.00116081,-0.000539137,-0.000391317,0.00124656,-0.000624889,-0.215729,0.00110017,0.0385152,664,981,0.072619,0.0501189
-553,43,-0.0299072,-0.0958252,0.00184044,-0.000774606,-0.000626072,0.0019826,-0.000916767,-0.223282,0.00171123,0.0381396,671,981,-0.0298785,0.0958001
-546,43,-0.110535,0.0103149,0.0028327,-0.00107062,-0.00102644,0.00308616,-0.00132408,-0.242088,0.00261312,0.0390261,678,981,-0.110514,-0.0103344
-539,43,-0.0693359,0.232849,0.00424676,-0.00143242,-0.00163613,0.00468439,-0.00187005,-0.261362,0.00389875,0.0416734,685,981,-0.069331,-0.23285
-532,43,0.012085,0.221313,0.00621724,-0.00187285,-0.00252683,0.0069416,-0.00259722,-0.279182,0.00569445,0.0426104,692,981,0.012062,-0.221304
-525,43,0.0981445,-0.0535889,0.00896359,-0.0024094,-0.00390633,0.0101761,-0.00362186,-0.300956,0.00826038,0.0412564,699,981,0.0981739,0.0536141
-518,43,0,0,0,0,0,0,0,0,0,-1,706,981,0,0
-511,43,0,0,0,0,0,0,0,0,0,-1,713,981,0,0
-504,43,0,0,0,0,0,0,0,0,0,-1,720,981,0,0
-497,43,0,0,0,0,0,0,0,0,0,-1,727,981,0,0
-490,43,0,0,0,0,0,0,0,0,0,-1,734,981,0,0
-483,43,0,0,0,0,0,0,0,0,0,-1,741,981,0,0
-476,43,0,0,0,0,0,0,0,0,0,-1,748,981,0,0
-469,43,0,0,0,0,0,0,0,0,0,-1,755,981,0,0
-462,43,0,0,0,0,0,0,0,0,0,-1,762,981,0,0
-455,43,0,0,0,0,0,0,0,0,0,-1,769,981,0,0
-448,43,0,0,0,0,0,0,0,0,0,-1,776,981,0,0
-441,43,0,0,0,0,0,0,0,0,0,-1,783,981,0,0
-434,43,0,0,0,0,0,0,0,0,0,-1,790,981,0,0
-427,43,0,0,0,0,0,0,0,0,0,-1,797,981,0,0
-420,43,0,0,0,0,0,0,0,0,0,-1,804,981,0,0
-413,43,0,0,0,0,0,0,0,0,0,-1,811,981,0,0
-406,43,0,0,0,0,0,0,0,0,0,-1,818,981,0,0
-399,43,0,0,0,0,0,0,0,0,0,-1,825,981,0,0
-392,43,0,0,0,0,0,0,0,0,0,-1,832,981,0,0
-385,43,0,0,0,0,0,0,0,0,0,-1,839,981,0,0
-378,43,0,0,0,0,0,0,0,0,0,-1,846,981,0,0
-371,43,0,0,0,0,0,0,0,0,0,-1,853,981,0,0
-364,43,0,0,0,0,0,0,0,0,0,-1,860,981,0,0
-357,43,0,0,0,0,0,0,0,0,0,-1,867,981,0,0
-350,43,0,0,0,0,0,0,0,0,0,-1,874,981,0,0
-343,43,0,0,0,0,0,0,0,0,0,-1,881,981,0,0
-336,43,0,0,0,0,0,0,0,0,0,-1,888,981,0,0
-329,43,0,0,0,0,0,0,0,0,0,-1,895,981,0,0
-322,43,0,0,0,0,0,0,0,0,0,-1,902,981,0,0
-315,43,0,0,0,0,0,0,0,0,0,-1,909,981,0,0
-308,43,0,0,0,0,0,0,0,0,0,-1,916,981,0,0
-301,43,0,0,0,0,0,0,0,0,0,-1,923,981,0,0
-294,43,0,0,0,0,0,0,0,0,0,-1,930,981,0,0
-287,43,0,0,0,0,0,0,0,0,0,-1,937,981,0,0
-280,43,0,0,0,0,0,0,0,0,0,-1,944,981,0,0
-273,43,0,0,0,0,0,0,0,0,0,-1,951,981,0,0
-266,43,0,0,0,0,0,0,0,0,0,-1,958,981,0,0
-259,43,0,0,0,0,0,0,0,0,0,-1,965,981,0,0
-252,43,0,0,0,0,0,0,0,0,0,-1,972,981,0,0
-245,43,0,0,0,0,0,0,0,0,0,-1,979,981,0,0
-238,43,0,0,0,0,0,0,0,0,0,-1,986,981,0,0
-231,43,0,0,0,0,0,0,0,0,0,-1,993,981,0,0
-224,43,0,0,0,0,0,0,0,0,0,-1,1000,981,0,0
-217,43,0,0,0,0,0,0,0,0,0,-1,1007,981,0,0
-210,43,0,0,0,0,0,0,0,0,0,-1,1014,981,0,0
-203,43,0,0,0,0,0,0,0,0,0,-1,1021,981,0,0
-196,43,0,0,0,0,0,0,0,0,0,-1,1028,981,0,0
-189,43,0,0,0,0,0,0,0,0,0,-1,1035,981,0,0
-182,43,0,0,0,0,0,0,0,0,0,-1,1042,981,0,0
-175,43,0,0,0,0,0,0,0,0,0,-1,1049,981,0,0
-168,43,0,0,0,0,0,0,0,0,0,-1,1056,981,0,0
-161,43,0,0,0,0,0,0,0,0,0,-1,1063,981,0,0
-154,43,0,0,0,0,0,0,0,0,0,-1,1070,981,0,0
-147,43,0,0,0,0,0,0,0,0,0,-1,1077,981,0,0
-140,43,0,0,0,0,0,0,0,0,0,-1,1084,981,0,0
-133,43,0,0,0,0,0,0,0,0,0,-1,1091,981,0,0
-126,43,0,0,0,0,0,0,0,0,0,-1,1098,981,0,0
-119,43,0,0,0,0,0,0,0,0,0,-1,1105,981,0,0
-112,43,0,0,0,0,0,0,0,0,0,-1,1112,981,0,0
-105,43,0,0,0,0,0,0,0,0,0,-1,1119,981,0,0
-98,43,0,0,0,0,0,0,0,0,0,-1,1126,981,0,0
-91,43,0,0,0,0,0,0,0,0,0,-1,1133,981,0,0
-84,43,0,0,0,0,0,0,0,0,0,-1,1140,981,0,0
-77,43,0,0,0,0,0,0,0,0,0,-1,1147,981,0,0
-70,43,0,0,0,0,0,0,0,0,0,-1,1154,981,0,0
-63,43,0,0,0,0,0,0,0,0,0,-1,1161,981,0,0
-56,43,0,0,0,0,0,0,0,0,0,-1,1168,981,0,0
-49,43,0,0,0,0,0,0,0,0,0,-1,1175,981,0,0
-42,43,0,0,0,0,0,0,0,0,0,-1,1182,981,0,0
-35,43,0,0,0,0,0,0,0,0,0,-1,1189,981,0,0
-28,43,0,0,0,0,0,0,0,0,0,-1,1196,981,0,0
-21,43,0,0,0,0,0,0,0,0,0,-1,1203,981,0,0
-14,43,0,0,0,0,0,0,0,0,0,-1,1210,981,0,0
-7,43,0,0,0,0,0,0,0,0,0,-1,1217,981,0,0
0,43,0,0,0,0,0,0,0,0,0,-1,1224,981,0,0
7,43,0,0,0,0,0,0,0,0,0,-1,1231,981,0,0
14,43,0,0,0,0,0,0,0,0,0,-1,1238,981,0,0
21,43,0,0,0,0,0,0,0,0,0,-1,1245,981,0,0
28,43,0,0,0,0,0,0,0,0,0,-1,1252,981,0,0
35,43,0,0,0,0,0,0,0,0,0,-1,1259,981,0,0
42,43,0,0,0,0,0,0,0,0,0,-1,1266,981,0,0
49,43,0,0,0,0,0,0,0,0,0,-1,1273,981,0,0
56,43,0,0,0,0,0,0,0,0,0,-1,1280,981,0,0
63,43,0,0,0,0,0,0,0,0,0,-1,1287,981,0,0
70,43,0,0,0,0,0,0,0,0,0,-1,1294,981,0,0
77,43,0,0,0,0,0,0,0,0,0,-1,1301,981,0,0
84,43,0,0,0,0,0,0,0,0,0,-1,1308,981,0,0
91,43,0,0,0,0,0,0,0,0,0,-1,1315,981,0,0
98,43,0,0,0,0,0,0,0,0,0,-1,1322,981,0,0
105,43,0,0,0,0,0,0,0,0,0,-1,1329,981,0,0
112,43,0,0,0,0,0,0,0,0,0,-1,1336,981,0,0
119,43,0,0,0,0,0,0,0,0,0,-1,1343,981,0,0
126,43,0,0,0,0,0,0,0,0,0,-1,1350,981,0,0
133,43,0,0,0,0,0,0,0,0,0,-1,1357,981,0,0
140,43,0,0,0,0,0,0,0,0,0,-1,1364,981,0,0
147,43,0,0,0,0,0,0,0,0,0,-1,1371,981,0,0
154,43,0,0,0,0,0,0,0,0,0,-1,1378,981,0,0
161,43,0,0,0,0,0,0,0,0,0,-1,1385,981,0,0
168,43,0,0,0,0,0,0,0,0,0,-1,1392,981,0,0
175,43,0,0,0,0,0,0,0,0,0,-1,1399,981,0,0
182,43,0,0,0,0,0,0,0,0,0,-1,1406,981,0,0
189,43,0,0,0,0,0,0,0,0,0,-1,1413,981,0,0
196,43,0,0,0,0,0,0,0,0,0,-1,1420,981,0,0
203,43,0,0,0,0,0,0,0,0,0,-1,1427,981,0,0
210,43,0,0,0,0,0,0,0,0,0,-1,1434,981,0,0
217,43,0,0,0,0,0,0,0,0,0,-1,1441,981,0,0
224,43,0,0,0,0,0,0,0,0,0,-1,1448,981,0,0
231,43,0,0,0,0,0,0,0,0,0,-1,1455,981,0,0
238,43,0,0,0,0,0,0,0,0,0,-1,1462,981,0,0
245,43,0,0,0,0,0,0,0,0,0,-1,1469,981,0,0
252,43,0,0,0,0,0,0,0,0,0,-1,1476,981,0,0
259,43,0,0,0,0,0,0,0,0,0,-1,1483,981,0,0
266,43,0,0,0,0,0,0,0,0,0,-1,1490,981,0,0
273,43,0,0,0,0,0,0,0,0,0,-1,1497,981,0,0
280,43,0,0,0,0,0,0,0,0,0,-1,1504,981,0,0
287,43,0,0,0,0,0,0,0,0,0,-1,1511,981,0,0
294,43,0,0,0,0,0,0,0,0,0,-1,1518,981,0,0
301,43,0,0,0,0,0,0,0,0,0,-1,1525,981,0,0
308,43,0,0,0,0,0,0,0,0,0,-1,1532,981,0,0
315,43,0,0,0,0,0,0,0,0,0,-1,1539,981,0,0
322,43,0,0,0,0,0,0,0,0,0,-1,1546,981,0,0
329,43,0,0,0,0,0,0,0,0,0,-1,1553,981,0,0
336,43,0,0,0,0,0,0,0,0,0,-1,1560,981,0,0
343,43,0,0,0,0,0,0,0,0,0,-1,1567,981,0,0
350,43,0,0,0,0,0,0,0,0,0,-1,1574,981,0,0
357,43,0,0,0,0,0,0,0,0,0,-1,1581,981,0,0
364,43,0,0,0,0,0,0,0,0,0,-1,1588,981,0,0
371,43,0,0,0,0,0,0,0,0,0,-1,1595,981,0,0
378,43,0,0,0,0,0,0,0,0,0,-1,1602,981,0,0
385,43,0,0,0,0,0,0,0,0,0,-1,1609,981,0,0
392,43,0,0,0,0,0,0,0,0,0,-1,1616,981,0,0
399,43,0,0,0,0,0,0,0,0,0,-1,1623,981,0,0
406,43,0,0,0,0,0,0,0,0,0,-1,1630,981,0,0
413,43,0,0,0,0,0,0,0,0,0,-1,1637,981,0,0
420,43,0,0,0,0,0,0,0,0,0,-1,1644,981,0,0
427,43,0,0,0,0,0,0,0,0,0,-1,1651,981,0,0
434,43,0,0,0,0,0,0,0,0,0,-1,1658,981,0,0
441,43,0,0,0,0,0,0,0,0,0,-1,1665,981,0,0
448,43,0,0,0,0,0,0,0,0,0,-1,1672,981,0,0
455,43,0,0,0,0,0,0,0,0,0,-1,1679,981,0,0
462,43,0,0,0,0,0,0,0,0,0,-1,1686,981,0,0
469,43,0,0,0,0,0,0,0,0,0,-1,1693,981,0,0
476,43,0,0,0,0,0,0,0,0,0,-1,1700,981,0,0
483,43,0,0,0,0,0,0,0,0,0,-1,1707,981,0,0
490,43,0,0,0,0,0,0,0,0,0,-1,1714,981,0,0
497,43,0,0,0,0,0,0,0,0,0,-1,1721,981,0,0
504,43,0,0,0,0,0,0,0,0,0,-1,1728,981,0,0
511,43,0,0,0,0,0,0,0,0,0,-1,1735,981,0,0
518,43,0,0,0,0,0,0,0,0,0,-1,1742,981,0,0
525,43,0,0,0,0,0,0,0,0,0,-1,1749,981,0,0
532,43,0,0,0,0,0,0,0,0,0,-1,1756,981,0,0
539,43,0,0,0,0,0,0,0,0,0,-1,1763,981,0,0
546,43,0,0,0,0,0,0,0,0,0,-1,1770,981,0,0
553,43,0,0,0,0,0,0,0,0,0,-1,1777,981,0,0
560,43,0,0,0,0,0,0,0,0,0,-1,1784,981,0,0
567,43,0,0,0,0,0,0,0,0,0,-1,1791,981,0,0
574,43,0,0,0,0,0,0,0,0,0,-1,1798,981,0,0
581,43,0,0,0,0,0,0,0,0,0,-1,1805,981,0,0
588,43,0,0,0,0,0,0,0,0,0,-1,1812,981,0,0
595,43,0,0,0,0,0,0,0,0,0,-1,1819,981,0,0
602,43,0,0,0,0,0,0,0,0,0,-1,1826,981,0,0
609,43,0,0,0,0,0,0,0,0,0,-1,1833,981,0,0
616,43,0,0,0,0,0,0,0,0,0,-1,1840,981,0,0
623,43,0,0,0,0,0,0,0,0,0,-1,1847,981,0,0
630,43,0,0,0,0,0,0,0,0,0,-1,1854,981,0,0
637,43,0,0,0,0,0,0,0,0,0,-1,1861,981,0,0
644,43,-0.0742188,0.10614,-0.000907017,-9.07229e-05,0.00386865,0.00339125,-0.00438899,0.837954,0.00450422,0.0337852,1868,981,-0.0741996,-0.106158
651,43,-0.0065918,0.125183,-0.000686447,0.000102626,0.00280507,0.00254077,-0.00312459,0.855265,0.00327668,0.0335962,1875,981,-0.00658,-0.125174
658,43,-0.0358887,0.18512,-0.000547245,0.000273339,0.0019656,0.00187101,-0.00214492,0.888289,0.0023204,0.0341233,1882,981,-0.0359189,-0.185112
665,43,-0.060791,0.150024,-0.000421069,0.000407401,0.0013311,0.00138723,-0.0014009,0.936247,0.00160973,0.0348874,1889,981,-0.060772,-0.150041
672,43,-0.0772705,-0.012146,-0.000286464,0.000502585,0.000841584,0.00103753,-0.000821409,1.00458,0.00107567,0.0369752,1896,981,-0.0772366,0.012138
679,43,-0.0354004,0.0778809,-0.000205877,0.000557592,0.000495831,0.000801613,-0.000449898,1.11345,0.000732009,0.0372222,1903,981,-0.0354045,-0.0778635
686,43,-0.0090332,0.0770264,-0.000136676,0.000580571,0.00027593,0.000674438,-0.000230543,1.24289,0.000543039,0.0358776,1910,981,-0.00898524,-0.0770012
693,43,0.0202637,-0.0212402,-6.45141e-05,0.000577977,0.000165655,0.000618173,-0.000104711,1.33275,0.000451088,0.0337598,1917,981,0.020301,0.0212502
700,43,-0.041748,0.0273438,-3.35271e-05,0.000539209,6.92618e-05,0.000547466,-4.1784e-05,1.45214,0.000379673,0.0262532,1924,981,-0.0417779,-0.0273493
707,43,-0.0567627,0.097168,2.02685e-05,0.000506272,-2.44285e-05,0.000507497,1.90437e-05,-1.5207,0.000332166,0.0171525,1931,981,-0.0567413,-0.0971956
714,43,-0.0378418,0.0974731,3.8739e-05,0.00045903,-6.38387e-05,0.000468513,2.92564e-05,-1.42333,0.000303061,0.0135572,1938,981,-0.0378847,-0.0974757
721,43,-0.0147705,0.0535278,-2.64178e-06,0.00039501,-9.9995e-06,0.000395262,-2.89308e-06,-1.54567,0.000264477,0.0140262,1945,981,-0.0147458,-0.0535513
728,43,-0.0255127,0.0457153,7.30184e-05,0.000324162,3.42756e-05,0.000328756,6.84246e-05,1.43756,0.000200297,0.0143793,1952,981,-0.0255105,-0.0457134
735,43,-0.0412598,0.0807495,0.000253201,0.000153039,0.000144554,0.000356103,5.0137e-05,0.618642,0.00022258,0.0116333,1959,981,-0.0412414,-0.0807203
742,43,-0.0439453,0.0858154,0.000485352,1.65354e-05,0.000384053,0.000700882,-0.000198994,0.511399,0.000545815,0.0138323,1966,981,-0.0440005,-0.0858121
749,43,-0.0361328,0.0618896,0.000971585,0.00017751,0.000457382,0.00118022,-3.11226e-05,0.427954,0.000797389,0.0157296,1973,981,-0.036097,-0.0618824
756,43,-0.0301514,0.050293,0.00160581,0.000523998,0.000442254,0.00176359,0.000366213,0.342696,0.00107466,0.0148296,1980,981,-0.0301512,-0.0503017
763,43,-0.0247803,0.0435791,0.00249948,0.000108509,0.000320755,0.00254176,6.62262e-05,0.131066,0.00167287,0.0166149,1987,981,-0.0247878,-0.0435684
770,43,-0.00512695,0.0354614,0.00348297,7.38985e-05,0.000344793,0.0035175,3.93756e-05,0.0997933,0.00233198,0.0140889,1994,981,-0.0051574,-0.0354711
777,43,-0.0428467,0.0370483,0.00476199,-2.27162e-05,0.000324722,0.00478393,-4.46534e-05,0.0674543,0.00320427,0.0194363,2001,981,-0.0428008,-0.0370523
784,43,0.032959,-0.0238647,0.00631594,-0.000263648,0.000198189,0.00632191,-0.000269613,0.0300854,0.00430729,0.0390904,2008,981,0.0330074,0.0238417
791,43,0.184937,-0.0523071,0.00813252,-0.000775774,-8.57138e-05,0.00813334,-0.000776599,-0.00962061,0.00569876,0.0430363,2015,981,0.184919,0.0522971
798,43,-0.0441895,0.174255,0.0102616,-0.00177142,-0.000617303,0.0102932,-0.001803,-0.0511217,0.0075354,0.0429326,2022,981,-0.0442201,-0.174245
805,43,-0.204468,0.257751,0.0126366,-0.00359134,-0.00154186,0.0127818,-0.00373654,-0.0938929,0.0100021,0.04342,2029,981,-0.204482,-0.257781
812,43,0.210815,-0.312866,0.0151122,-0.00680026,-0.00307585,0.0155358,-0.00722383,-0.136847,0.0134292,0.0434138,2036,981,0.210765,0.312869
-700,36,0,0,0,0,0,0,0,0,0,-1,524,988,0,0
-693,36,3.90033,0.211609,-0.106133,0.0497024,-0.0370509,0.058063,-0.114493,-1.34886,0.101385,0.0443063,531,988,3.9003,-0.211609
-686,36,2.95294,0.00604248,-0.0823803,0.0407798,-0.0296489,0.0475456,-0.0891461,-1.34644,0.080128,0.0452064,538,988,2.95293,-0.00606933
-679,36,2.16516,-0.288208,-0.0630947,0.0332651,-0.0233138,0.0386093,-0.068439,-1.34546,0.0625991,0.0448848,545,988,2.16515,0.288182
-672,36,1.48999,-0.616394,0,0,0,0,0,0,0,-1,552,988,1.49,0.616406
-665,36,-0.352356,-1.15894,0,0,0,0,0,0,0,-1,559,988,-0.352369,1.15895
-658,36,-0.805725,-1.48645,0,0,0,0,0,0,0,-1,566,988,-0.805747,1.48647
-651,36,-0.212524,0.0695801,-0.0162635,0.0126797,-0.00694443,0.0142597,-0.0178435,-1.34709,0.0185732,0.0337015,573,988,-0.212552,-0.069555
-644,36,-0.0247803,0.0233765,-0.0102944,0.00936137,-0.00467459,0.0104165,-0.0113495,-1.34881,0.0125704,0.0166167,580,988,-0.0248024,-0.0233873
-637,36,-0.0217285,0.0684204,-0.00494799,0.00617085,-0.00287651,0.00687094,-0.00564808,-1.33206,0.00723935,0.0121982,587,988,-0.0217394,-0.0684372
-630,36,-0.0441895,0.0877686,-0.0014936,0.00386778,-0.00117141,0.00411254,-0.00173837,-1.36481,0.00346949,0.0113661,594,988,-0.0441729,-0.0877712
-623,36,-0.043335,0.0675659,0.000254989,0.00263982,-0.000255732,0.00266694,0.000227875,-1.46516,0.00170708,0.0110581,601,988,-0.0433105,-0.067563
-616,36,-0.0370483,0.0578613,0.0012232,0.00134728,-0.000272352,0.00156457,0.00100591,-0.897384,0.000915522,0.00944037,608,988,-0.0370737,-0.0578503
-609,36,-0.0368042,0.0479126,0.00136236,0.000877225,-7.19367e-06,0.00136247,0.000877118,-0.0148237,0.000797389,0.0135653,615,988,-0.0368339,-0.0479163
-602,36,-0.0480957,0.02948,0.000704991,8.6609e-05,-3.06592e-05,0.000706508,8.50926e-05,-0.0494182,0.000445359,0.0176003,622,988,-0.0480921,-0.0294991
-595,36,-0.0405884,0.0482788,1.09273e-06,-0.000120627,4.10831e-05,1.36614e-05,-0.000133195,0.296891,9.36833e-05,0.0187543,629,988,-0.0406151,-0.0482526
-588,36,-0.0283203,0.0875854,-0.000168601,-0.000152802,1.92657e-05,-0.000139879,-0.000181524,0.979957,0.000109799,0.0176991,636,988,-0.0283275,-0.0875575
-581,36,-0.0290527,0.0959473,7.49903e-06,-0.000219531,-3.70268e-05,1.33852e-05,-0.000225417,-0.157651,0.000154932,0.0196881,643,988,-0.0290463,-0.0959274
-574,36,-0.0227051,0.0849609,0.000366037,-0.000427571,-0.000119864,0.000383746,-0.00044528,-0.14668,0.000479077,0.0240757,650,988,-0.0227045,-0.084974
-567,36,-0.0161133,-0.0200195,0.000653517,-0.000583817,-0.000185227,0.00068065,-0.00061095,-0.145452,0.000746068,0.030654,657,988,-0.0160837,0.0200401
-560,36,0.00128174,-0.140991,0.00111445,-0.000799755,-0.000305951,0.00116216,-0.000847466,-0.154699,0.00116499,0.0351763,664,988,0.00129952,0.140969
-553,36,-0.0976563,-0.0654297,0.00181167,-0.0010643,-0.000529722,0.00190614,-0.00115876,-0.176476,0.00178697,0.0396388,671,988,-0.0976735,0.0654228
-546,36,-0.122986,0.211304,0.00282478,-0.00138638,-0.000924426,0.00301877,-0.00158038,-0.206849,0.00269826,0.0429304,678,988,-0.123002,-0.211311
-539,36,-0.00286865,0.232056,0.00426036,-0.00177339,-0.00153322,0.00462761,-0.00214064,-0.235099,0.00399461,0.0432286,685,988,-0.00284711,-0.232047
-532,36,0.193298,0.316956,0.00625164,-0.00223928,-0.00243223,0.006899,-0.00288663,-0.260128,0.00580589,0.042982,692,988,0.193274,-0.316958
-525,36,0.363525,0.238708,0.00904504,-0.00280922,-0.00384966,0.0101855,-0.00394967,-0.288011,0.00842149,0.0430975,699,988,0.363512,-0.238711
-518,36,0,0,0,0,0,0,0,0,0,-1,706,988,0,0
-511,36,0,0,0,0,0,0,0,0,0,-1,713,988,0,0
-504,36,0,0,0,0,0,0,0,0,0,-1,720,988,0,0
-497,36,0,0,0,0,0,0,0,0,0,-1,727,988,0,0
-490,36,0,0,0,0,0,0,0,0,0,-1,734,988,0,0
-483,36,0,0,0,0,0,0,0,0,0,-1,741,988,0,0
-476,36,0,0,0,0,0,0,0,0,0,-1,748,988,0,0
-469,36,0,0,0,0,0,0,0,0,0,-1,755,988,0,0
-462,36,0,0,0,0,0,0,0,0,0,-1,762,988,0,0
-455,36,0,0,0,0,0,0,0,0,0,-1,769,988,0,0
-448,36,0,0,0,0,0,0,0,0,0,-1,776,988,0,0
-441,36,0,0,0,0,0,0,0,0,0,-1,783,988,0,0
-434,36,0,0,0,0,0,0,0,0,0,-1,790,988,0,0
-427,36,0,0,0,0,0,0,0,0,0,-1,797,988,0,0
-420,36,0,0,0,0,0,0,0,0,0,-1,804,988,0,0
-413,36,0,0,0,0,0,0,0,0,0,-1,811,988,0,0
-406,36,0,0,0,0,0,0,0,0,0,-1,818,988,0,0
-399,36,0,0,0,0,0,0,0,0,0,-1,825,988,0,0
-392,36,0,0,0,0,0,0,0,0,0,-1,832,988,0,0
-385,36,0,0,0,0,0,0,0,0,0,-1,839,988,0,0
-378,36,0,0,0,0,0,0,0,0,0,-1,846,988,0,0
-371,36,0,0,0,0,0,0,0,0,0,-1,853,988,0,0
-364,36,0,0,0,0,0,0,0,0,0,-1,860,988,0,0
-357,36,0,0,0,0,0,0,0,0,0,-1,867,988,0,0
-350,36,0,0,0,0,0,0,0,0,0,-1,874,988,0,0
-343,36,0,0,0,0,0,0,0,0,0,-1,881,988,0,0
-336,36,0,0,0,0,0,0,0,0,0,-1,888,988,0,0
-329,36,0,0,0,0,0,0,0,0,0,-1,895,988,0,0
-322,36,0,0,0,0,0,0,0,0,0,-1,902,988,0,0
-315,36,0,0,0,0,0,0,0,0,0,-1,909,988,0,0
-308,36,0,0,0,0,0,0,0,0,0,-1,916,988,0,0
-301,36,0,0,0,0,0,0,0,0,0,-1,923,988,0,0
-294,36,0,0,0,0,0,0,0,0,0,-1,930,988,0,0
-287,36,0,0,0,0,0,0,0,0,0,-1,937,988,0,0
-280,36,0,0,0,0,0,0,0,0,0,-1,944,988,0,0
-273,36,0,0,0,0,0,0,0,0,0,-1,951,988,0,0
-266,36,0,0,0,0,0,0,0,0,0,-1,958,988,0,0
-259,36,0,0,0,0,0,0,0,0,0,-1,965,988,0,0
-252,36,0,0,0,0,0,0,0,0,0,-1,972,988,0,0
-245,36,0,0,0,0,0,0,0,0,0,-1,979,988,0,0
-238,36,0,0,0,0,0,0,0,0,0,-1,986,988,0,0
-231,36,0,0,0,0,0,0,0,0,0,-1,993,988,0,0
-224,36,0,0,0,0,0,0,0,0,0,-1,1000,988,0,0
-217,36,0,0,0,0,0,0,0,0,0,-1,1007,988,0,0
-210,36,0,0,0,0,0,0,0,0,0,-1,1014,988,0,0
-203,36,0,0,0,0,0,0,0,0,0,-1,1021,988,0,0
-196,36,0,0,0,0,0,0,0,0,0,-1,1028,988,0,0
-189,36,0,0,0,0,0,0,0,0,0,-1,1035,988,0,0
-182,36,0,0,0,0,0,0,0,0,0,-1,1042,988,0,0
-175,36,0,0,0,0,0,0,0,0,0,-1,1049,988,0,0
-168,36,0,0,0,0,0,0,0,0,0,-1,1056,988,0,0
-161,36,0,0,0,0,0,0,0,0,0,-1,1063,988,0,0
-154,36,0,0,0,0,0,0,0,0,0,-1,1070,988,0,0
-147,36,0,0,0,0,0,0,0,0,0,-1,1077,988,0,0
-140,36,0,0,0,0,0,0,0,0,0,-1,1084,988,0,0
-133,36,0,0,0,0,0,0,0,0,0,-1,1091,988,0,0
-126,36,0,0,0,0,0,0,0,0,0,-1,1098,988,0,0
-119,36,0,0,0,0,0,0,0,0,0,-1,1105,988,0,0
-112,36,0,0,0,0,0,0,0,0,0,-1,1112,988,0,0
-105,36,0,0,0,0,0,0,0,0,0,-1,1119,988,0,0
-98,36,0,0,0,0,0,0,0,0,0,-1,1126,988,0,0
-91,36,0,0,0,0,0,0,0,0,0,-1,1133,988,0,0
-84,36,0,0,0,0,0,0,0,0,0,-1,1140,988,0,0
-77,36,0,0,0,0,0,0,0,0,0,-1,1147,988,0,0
-70,36,0,0,0,0,0,0,0,0,0,-1,1154,988,0,0
-63,36,0,0,0,0,0,0,0,0,0,-1,1161,988,0,0
-56,36,0,0,0,0,0,0,0,0,0,-1,1168,988,0,0
-49,36,0,0,0,0,0,0,0,0,0,-1,1175,988,0,0
-42,36,0,0,0,0,0,0,0,0,0,-1,1182,988,0,0
-35,36,0,0,0,0,0,0,0,0,0,-1,1189,988,0,0
-28,36,0,0,0,0,0,0,0,0,0,-1,1196,988,0,0
-21,36,0,0,0,0,0,0,0,0,0,-1,1203,988,0,0
-14,36,0,0,0,0,0,0,0,0,0,-1,1210,988,0,0
-7,36,0,0,0,0,0,0,0,0,0,-1,1217,988,0,0
0,36,0,0,0,0,0,0,0,0,0,-1,1224,988,0,0
7,36,0,0,0,0,0,0,0,0,0,-1,1231,988,0,0
14,36,0,0,0,0,0,0,0,0,0,-1,1238,988,0,0
21,36,0,0,0,0,0,0,0,0,0,-1,1245,988,0,0
28,36,0,0,0,0,0,0,0,0,0,-1,1252,988,0,0
35,36,0,0,0,0,0,0,0,0,0,-1,1259,988,0,0
42,36,0,0,0,0,0,0,0,0,0,-1,1266,988,0,0
49,36,0,0,0,0,0,0,0,0,0,-1,1273,988,0,0
56,36,0,0,0,0,0,0,0,0,0,-1,1280,988,0,0
63,36,0,0,0,0,0,0,0,0,0,-1,1287,988,0,0
70,36,0,0,0,0,0,0,0,0,0,-1,1294,988,0,0
77,36,0,0,0,0,0,0,0,0,0,-1,1301,988,0,0
84,36,0,0,0,0,0,0,0,0,0,-1,1308,988,0,0
91,36,0,0,0,0,0,0,0,0,0,-1,1315,988,0,0
98,36,0,0,0,0,0,0,0,0,0,-1,1322,988,0,0
105,36,0,0,0,0,0,0,0,0,0,-1,1329,988,0,0
112,36,0,0,0,0,0,0,0,0,0,-1,1336,988,0,0
119,36,0,0,0,0,0,0,0,0,0,-1,1343,988,0,0
126,36,0,0,0,0,0,0,0,0,0,-1,1350,988,0,0
133,36,0,0,0,0,0,0,0,0,0,-1,1357,988,0,0
140,36,0,0,0,0,0,0,0,0,0,-1,1364,988,0,0
147,36,0,0,0,0,0,0,0,0,0,-1,1371,988,0,0
154,36,0,0,0,0,0,0,0,0,0,-1,1378,988,0,0
161,36,0,0,0,0,0,0,0,0,0,-1,1385,988,0,0
168,36,0,0,0,0,0,0,0,0,0,-1,1392,988,0,0
175,36,0,0,0,0,0,0,0,0,0,-1,1399,988,0,0
182,36,0,0,0,0,0,0,0,0,0,-1,1406,988,0,0
189,36,0,0,0,0,0,0,0,0,0,-1,1413,988,0,0
196,36,0,0,0,0,0,0,0,0,0,-1,1420,988,0,0
203,36,0,0,0,0,0,0,0,0,0,-1,1427,988,0,0
210,36,0,0,0,0,0,0,0,0,0,-1,1434,988,0,0
217,36,0,0,0,0,0,0,0,0,0,-1,1441,988,0,0
224,36,0,0,0,0,0,0,0,0,0,-1,1448,988,0,0
231,36,0,0,0,0,0,0,0,0,0,-1,1455,988,0,0
238,36,0,0,0,0,0,0,0,0,0,-1,1462,988,0,0
245,36,0,0,0,0,0,0,0,0,0,-1,1469,988,0,0
252,36,0,0,0,0,0,0,0,0,0,-1,1476,988,0,0
259,36,0,0,0,0,0,0,0,0,0,-1,1483,988,0,0
266,36,0,0,0,0,0,0,0,0,0,-1,1490,988,0,0
273,36,0,0,0,0,0,0,0,0,0,-1,1497,988,0,0
280,36,0,0,0,0,0,0,0,0,0,-1,1504,988,0,0
287,36,0,0,0,0,0,0,0,0,0,-1,1511,988,0,0
294,36,0,0,0,0,0,0,0,0,0,-1,1518,988,0,0
301,36,0,0,0,0,0,0,0,0,0,-1,1525,988,0,0
308,36,0,0,0,0,0,0,0,0,0,-1,1532,988,0,0
315,36,0,0,0,0,0,0,0,0,0,-1,1539,988,0,0
322,36,0,0,0,0,0,0,0,0,0,-1,1546,988,0,0
329,36,0,0,0,0,0,0,0,0,0,-1,1553,988,0,0
336,36,0,0,0,0,0,0,0,0,0,-1,1560,988,0,0
343,36,0,0,0,0,0,0,0,0,0,-1,1567,988,0,0
350,36,0,0,0,0,0,0,0,0,0,-1,1574,988,0,0
357,36,0,0,0,0,0,0,0,0,0,-1,1581,988,0,0
364,36,0,0,0,0,0,0,0,0,0,-1,1588,988,0,0
371,36,0,0,0,0,0,0,0,0,0,-1,1595,988,0,0
378,36,0,0,0,0,0,0,0,0,0,-1,1602,988,0,0
385,36,0,0,0,0,0,0,0,0,0,-1,1609,988,0,0
392,36,0,0,0,0,0,0,0,0,0,-1,1616,988,0,0
399,36,0,0,0,0,0,0,0,0,0,-1,1623,988,0,0
406,36,0,0,0,0,0,0,0,0,0,-1,1630,988,0,0
413,36,0,0,0,0,0,0,0,0,0,-1,1637,988,0,0
420,36,0,0,0,0,0,0,0,0,0,-1,1644,988,0,0
427,36,0,0,0,0,0,0,0,0,0,-1,1651,988,0,0
434,36,0,0,0,0,0,0,0,0,0,-1,1658,988,0,0
441,36,0,0,0,0,0,0,0,0,0,-1,1665,988,0,0
448,36,0,0,0,0,0,0,0,0,0,-1,1672,988,0,0
455,36,0,0,0,0,0,0,0,0,0,-1,1679,988,0,0
462,36,0,0,0,0,0,0,0,0,0,-1,1686,988,0,0
469,36,0,0,0,0,0,0,0,0,0,-1,1693,988,0,0
476,36,0,0,0,0,0,0,0,0,0,-1,1700,988,0,0
483,36,0,0,0,0,0,0,0,0,0,-1,1707,988,0,0
490,36,0,0,0,0,0,0,0,0,0,-1,1714,988,0,0
497,36,0,0,0,0,0,0,0,0,0,-1,1721,988,0,0
504,36,0,0,0,0,0,0,0,0,0,-1,1728,988,0,0
511,36,0,0,0,0,0,0,0,0,0,-1,1735,988,0,0
518,36,0,0,0,0,0,0,0,0,0,-1,1742,988,0,0
525,36,0,0,0,0,0,0,0,0,0,-1,1749,988,0,0
532,36,0,0,0,0,0,0,0,0,0,-1,1756,988,0,0
539,36,0,0,0,0,0,0,0,0,0,-1,1763,988,0,0
546,36,0,0,0,0,0,0,0,0,0,-1,1770,988,0,0
553,36,0,0,0,0,0,0,0,0,0,-1,1777,988,0,0
560,36,0,0,0,0,0,0,0,0,0,-1,1784,988,0,0
567,36,0,0,0,0,0,0,0,0,0,-1,1791,988,0,0
574,36,0,0,0,0,0,0,0,0,0,-1,1798,988,0,0
581,36,0,0,0,0,0,0,0,0,0,-1,1805,988,0,0
588,36,0,0,0,0,0,0,0,0,0,-1,1812,988,0,0
595,36,0,0,0,0,0,0,0,0,0,-1,1819,988,0,0
602,36,0,0,0,0,0,0,0,0,0,-1,1826,988,0,0
609,36,0,0,0,0,0,0,0,0,0,-1,1833,988,0,0
616,36,0,0,0,0,0,0,0,0,0,-1,1840,988,0,0
623,36,0,0,0,0,0,0,0,0,0,-1,1847,988,0,0
630,36,0,0,0,0,0,0,0,0,0,-1,1854,988,0,0
637,36,0,0,0,0,0,0,0,0,0,-1,1861,988,0,0
644,36,-0.0662842,-0.0419312,-0.00146925,-0.000256835,0.00430644,0.00348586,-0.00521195,0.855323,0.00505453,0.0380932,1868,988,-0.0662659,0.0419073
651,36,-0.0578613,0.0222778,-0.00102323,6.77956e-05,0.00305858,0.00262913,-0.00358456,0.873647,0.00360159,0.0385041,1875,988,-0.0578473,-0.0222939
658,36,0.0313721,0.164185,-0.000754612,0.000319583,0.00210748,0.00195733,-0.00239236,0.910169,0.00251548,0.0373929,1882,988,0.0313255,-0.164186
665,36,0.0629883,0.204102,-0.000549825,0.00050301,0.00140687,0.00147872,-0.00152554,0.964422,0.00173458,0.035437,1889,988,0.0629376,-0.204076
672,36,-0.0462646,0.189392,-0.0003581,0.000623589,0.000882838,0.00114286,-0.00087737,1.03911,0.00116973,0.0356475,1896,988,-0.0463149,-0.189385
679,36,-0.0723877,0.207947,-0.000245209,0.00068378,0.000520316,0.000916769,-0.000478198,1.14979,0.000818545,0.0362856,1903,988,-0.0724354,-0.207954
686,36,0.00720215,0.103821,-0.00016366,0.000698504,0.000295261,0.000789926,-0.000255082,1.27053,0.000629125,0.0345164,1910,988,0.00722099,-0.103851
693,36,0.078125,-0.0131226,-7.9315e-05,0.000676873,0.000186918,0.000720553,-0.000122995,1.34123,0.000526181,0.0356644,1917,988,0.0781244,0.013142
700,36,0.0305176,-0.00695801,-3.33526e-05,0.000630778,8.84554e-05,0.000642357,-4.49321e-05,1.44063,0.000443974,0.0300213,1924,988,0.0305192,0.00695063
707,36,-0.0671387,0.0674438,2.15231e-05,0.000581079,-5.34846e-06,0.00058113,2.1472e-05,-1.56124,0.000380465,0.0174047,1931,988,-0.0671348,-0.0674148
714,36,-0.038208,0.0664673,3.12989e-05,0.000510668,-3.52794e-05,0.000513251,2.87165e-05,-1.49773,0.000333008,0.013863,1938,988,-0.0382509,-0.0664473
721,36,-0.00561523,0.0484619,1.41497e-06,0.000424077,2.04778e-05,0.000425067,4.25149e-07,1.5225,0.000283236,0.017701,1945,988,-0.00565862,-0.0484894
728,36,-0.0296631,0.0507813,7.79305e-05,0.000336671,6.48928e-05,0.000352034,6.25674e-05,1.33833,0.000216863,0.0148671,1952,988,-0.0297225,-0.0507748
735,36,-0.0561523,0.0750732,0.000225408,0.000160187,0.000161933,0.000357981,2.76142e-05,0.686036,0.000230003,0.0143446,1959,988,-0.0561621,-0.0750655
742,36,-0.0454102,0.0941772,0.000392543,1.85194e-05,0.000348026,0.00060062,-0.000189558,0.538858,0.000476342,0.0123302,1966,988,-0.0454203,-0.0941545
749,36,-0.0322266,0.0831299,0.000877063,0.000256796,0.000309751,0.00100525,0.000128605,0.39239,0.00063168,0.0135206,1973,988,-0.0322336,-0.0831055
756,36,-0.0507813,0.0534058,0.00158395,0.000667139,0.000150709,0.00160809,0.000643001,0.158817,0.000934619,0.0129187,1980,988,-0.0507273,-0.0533821
763,36,-0.0408936,0.0478516,0.00247776,0.000220027,-8.2548e-05,0.00248078,0.000217013,-0.0364973,0.00158647,0.015136,1987,988,-0.0409126,-0.0478807
770,36,-0.0249023,0.0393677,0.00347478,0.000215976,-0.00023663,0.00349187,0.000198884,-0.0721085,0.00226453,0.0126824,1994,988,-0.0248473,-0.0393416
777,36,-0.0543213,0.102112,0.00480078,0.000146671,-0.000480141,0.00484979,9.76531e-05,-0.101737,0.00320114,0.0202476,2001,988,-0.0543776,-0.102098
784,36,-0.0650635,0.205811,0.00644758,-7.96808e-05,-0.000876811,0.00656331,-0.000195411,-0.131232,0.00444211,0.0398131,2008,988,-0.0651166,-0.205836
791,36,-0.00549316,0.240356,0.00841154,-0.000604209,-0.0014788,0.00864791,-0.000840571,-0.158493,0.00606491,0.042187,2015,988,-0.00553435,-0.240376
798,36,0.286621,0.321411,0.010774,-0.00165184,-0.00236717,0.0112097,-0.00208752,-0.182014,0.00825738,0.0411188,2022,988,0.286583,-0.321399
805,36,0.12146,0.136108,0.0135253,-0.00358708,-0.0036708,0.0142795,-0.00434127,-0.202636,0.0112495,0.044292,2029,988,0.121487,-0.136115
812,36,0.117676,-0.217407,0.0165602,-0.00701321,-0.00557052,0.0178102,-0.00826327,-0.220749,0.0153862,0.0426809,2036,988,0.117706,0.217411
-700,29,0,0,0,0,0,0,0,0,0,-1,524,995,0,0
-693,29,4.58557,-0.479736,-0.103447,0.0482744,-0.0295455,0.0538249,-0.108998,-1.3851,0.0957878,0.0423425,531,995,4.58559,0.479738
-686,29,3.04999,-0.357239,-0.0812032,0.0397351,-0.0229052,0.0439279,-0.085396,-1.38975,0.0759339,0.0413222,538,995,3.05001,0.357244
-679,29,2.20544,-0.320313,-0.062748,0.0324426,-0.0174764,0.0355497,-0.0658551,-1.39484,0.0594112,0.0446882,545,995,2.20545,0.320342
-672,29,1.47113,-0.264343,-0.0474351,0.0261828,-0.0130734,0.0284355,-0.0496878,-1.40016,0.0456575,0.0443935,552,995,1.47115,0.26433
-665,29,-0.309204,-0.623047,-0.0348339,0.0207969,-0.00952826,0.0223836,-0.0364206,-1.40578,0.0342715,0.0412851,559,995,-0.309178,0.623044
-658,29,-0.270447,-0.0529175,-0.0246751,0.0161828,-0.00672963,0.0172627,-0.025755,-1.41169,0.0249971,0.0406574,566,995,-0.270427,0.052917
-651,29,-0.134277,0.0928345,-0.0167244,0.0122781,-0.00458035,0.0129842,-0.0174306,-1.41783,0.0176224,0.0314861,573,995,-0.134304,-0.0928506
-644,29,-0.0174561,0.0673828,-0.010752,0.00904442,-0.00296801,0.00947983,-0.0111874,-1.42513,0.0119458,0.0161987,580,995,-0.0174741,-0.0673799
-637,29,-0.0355225,0.078064,-0.00546717,0.00595598,-0.00163797,0.0061862,-0.0056974,-1.43115,0.00686294,0.0116346,587,995,-0.035524,-0.0780438
-630,29,-0.0464478,0.0884399,-0.00189429,0.00370089,-0.00044181,0.00373556,-0.00192896,-1.49248,0.0033254,0.0102494,594,995,-0.0464682,-0.0884425
-623,29,-0.0452881,0.0897827,-0.000116924,0.00252634,6.06383e-05,0.00252773,-0.000118314,1.54787,0.00172594,0.0098057,601,995,-0.0453164,-0.0897836
-616,29,-0.0478516,0.0795288,0.000815114,0.0012772,-0.000189878,0.00134521,0.000747101,-1.22684,0.000778246,0.0121082,608,995,-0.0478409,-0.0795536
-609,29,-0.0547485,0.0596924,0.00103749,0.00079094,5.40294e-05,0.00104881,0.00077962,0.206537,0.000628979,0.018091,615,995,-0.0547673,-0.0596741
-602,29,-0.0359497,0.029541,0.000532775,-5.90814e-05,-1.4736e-06,0.000532779,-5.90851e-05,-0.00248977,0.00037643,0.0193628,622,995,-0.0359406,-0.0295531
-595,29,-0.0161743,0.0525513,-5.14196e-05,-0.000244519,3.09312e-05,-4.65859e-05,-0.000249352,0.155017,0.000153087,0.0178993,629,995,-0.0161619,-0.0525314
-588,29,-0.0088501,0.086792,-0.000192499,-0.00029667,9.87454e-06,-0.000191572,-0.000297597,0.0936805,0.000174168,0.0210542,636,995,-0.00883949,-0.0867618
-581,29,-0.0130005,0.0578613,-4.39612e-05,-0.000371571,-4.7795e-05,-3.71308e-05,-0.000378401,-0.141949,0.000240846,0.0301301,643,995,-0.0129884,-0.0578615
-574,29,-0.0106201,0.079895,0.000284659,-0.00058933,-0.000121091,0.000301126,-0.000605797,-0.135158,0.00053337,0.0281469,650,995,-0.0106366,-0.0799148
-567,29,-0.0356445,0.0065918,0.000559022,-0.000761945,-0.000183599,0.000584065,-0.000786988,-0.135566,0.000794463,0.0301874,657,995,-0.0356639,-0.0065948
-560,29,-0.170044,-0.0963745,0.000999087,-0.000977938,-0.000307986,0.00104595,-0.00102481,-0.151016,0.00119557,0.034768,664,995,-0.170041,0.0964031
-553,29,-0.164124,0.12616,0.00166351,-0.00123237,-0.000531765,0.00175807,-0.00132693,-0.175982,0.00178692,0.037887,671,995,-0.164145,-0.126174
-546,29,-0.0195313,0.263489,0.00262298,-0.00153651,-0.000917768,0.00281648,-0.00173001,-0.207793,0.00264978,0.0400535,678,995,-0.0195116,-0.263485
-539,29,0.00744629,0.0900879,0.00397179,-0.00190286,-0.00150019,0.00433272,-0.00226378,-0.236098,0.00387043,0.0408344,685,995,0.00746188,-0.0900778
-532,29,0.048584,0.185486,0.00583382,-0.00234495,-0.0023448,0.00645837,-0.00296949,-0.260311,0.00556603,0.0424392,692,995,0.0485973,-0.185474
-525,29,0.137695,0.274841,0.00846148,-0.00290483,-0.00366973,0.00954332,-0.00398667,-0.28668,0.00802813,0.0408967,699,995,0.13767,-0.274812
-518,29,0,0,0,0,0,0,0,0,0,-1,706,995,0,0
-511,29,0,0,0,0,0,0,0,0,0,-1,713,995,0,0
-504,29,0,0,0,0,0,0,0,0,0,-1,720,995,0,0
-497,29,0,0,0,0,0,0,0,0,0,-1,727,995,0,0
-490,29,0,0,0,0,0,0,0,0,0,-1,734,995,0,0
-483,29,0,0,0,0,0,0,0,0,0,-1,741,995,0,0
-476,29,0,0,0,0,0,0,0,0,0,-1,748,995,0,0
-469,29,0,0,0,0,0,0,0,0,0,-1,755,995,0,0
-462,29,0,0,0,0,0,0,0,0,0,-1,762,995,0,0
-455,29,0,0,0,0,0,0,0,0,0,-1,769,995,0,0
-448,29,0,0,0,0,0,0,0,0,0,-1,776,995,0,0
-441,29,0,0,0,0,0,0,0,0,0,-1,783,995,0,0
-434,29,0,0,0,0,0,0,0,0,0,-1,790,995,0,0
-427,29,0,0,0,0,0,0,0,0,0,-1,797,995,0,0
-420,29,0,0,0,0,0,0,0,0,0,-1,804,995,0,0
-413,29,0,0,0,0,0,0,0,0,0,-1,811,995,0,0
-406,29,0,0,0,0,0,0,0,0,0,-1,818,995,0,0
-399,29,0,0,0,0,0,0,0,0,0,-1,825,995,0,0
-392,29,0,0,0,0,0,0,0,0,0,-1,832,995,0,0
-385,29,0,0,0,0,0,0,0,0,0,-1,839,995,0,0
-378,29,0,0,0,0,0,0,0,0,0,-1,846,995,0,0
-371,29,0,0,0,0,0,0,0,0,0,-1,853,995,0,0
-364,29,0,0,0,0,0,0,0,0,0,-1,860,995,0,0
-357,29,0,0,0,0,0,0,0,0,0,-1,867,995,0,0
-350,29,0,0,0,0,0,0,0,0,0,-1,874,995,0,0
-343,29,0,0,0,0,0,0,0,0,0,-1,881,995,0,0
-336,29,0,0,0,0,0,0,0,0,0,-1,888,995,0,0
-329,29,0,0,0,0,0,0,0,0,0,-1,895,995,0,0
-322,29,0,0,0,0,0,0,0,0,0,-1,902,995,0,0
-315,29,0,0,0,0,0,0,0,0,0,-1,909,995,0,0
-308,29,0,0,0,0,0,0,0,0,0,-1,916,995,0,0
-301,29,0,0,0,0,0,0,0,0,0,-1,923,995,0,0
-294,29,0,0,0,0,0,0,0,0,0,-1,930,995,0,0
-287,29,0,0,0,0,0,0,0,0,0,-1,937,995,0,0
-280,29,0,0,0,0,0,0,0,0,0,-1,944,995,0,0
-273,29,0,0,0,0,0,0,0,0,0,-1,951,995,0,0
-266,29,0,0,0,0,0,0,0,0,0,-1,958,995,0,0
-259,29,0,0,0,0,0,0,0,0,0,-1,965,995,0,0
-252,29,0,0,0,0,0,0,0,0,0,-1,972,995,0,0
-245,29,0,0,0,0,0,0,0,0,0,-1,979,995,0,0
-238,29,0,0,0,0,0,0,0,0,0,-1,986,995,0,0
-231,29,0,0,0,0,0,0,0,0,0,-1,993,995,0,0
-224,29,0,0,0,0,0,0,0,0,0,-1,1000,995,0,0
-217,29,0,0,0,0,0,0,0,0,0,-1,1007,995,0,0
-210,29,0,0,0,0,0,0,0,0,0,-1,1014,995,0,0
-203,29,0,0,0,0,0,0,0,0,0,-1,1021,995,0,0
-196,29,0,0,0,0,0,0,0,0,0,-1,1028,995,0,0
-189,29,0,0,0,0,0,0,0,0,0,-1,1035,995,0,0
-182,29,0,0,0,0,0,0,0,0,0,-1,1042,995,0,0
-175,29,0,0,0,0,0,0,0,0,0,-1,1049,995,0,0
-168,29,0,0,0,0,0,0,0,0,0,-1,1056,995,0,0
-161,29,0,0,0,0,0,0,0,0,0,-1,1063,995,0,0
-154,29,0,0,0,0,0,0,0,0,0,-1,1070,995,0,0
-147,29,0,0,0,0,0,0,0,0,0,-1,1077,995,0,0
-140,29,0,0,0,0,0,0,0,0,0,-1,1084,995,0,0
-133,29,0,0,0,0,0,0,0,0,0,-1,1091,995,0,0
-126,29,0,0,0,0,0,0,0,0,0,-1,1098,995,0,0
-119,29,0,0,0,0,0,0,0,0,0,-1,1105,995,0,0
-112,29,0,0,0,0,0,0,0,0,0,-1,1112,995,0,0
-105,29,0,0,0,0,0,0,0,0,0,-1,1119,995,0,0
-98,29,0,0,0,0,0,0,0,0,0,-1,1126,995,0,0
-91,29,0,0,0,0,0,0,0,0,0,-1,1133,995,0,0
-84,29,0,0,0,0,0,0,0,0,0,-1,1140,995,0,0
-77,29,0,0,0,0,0,0,0,0,0,-1,1147,995,0,0
-70,29,0,0,0,0,0,0,0,0,0,-1,1154,995,0,0
-63,29,0,0,0,0,0,0,0,0,0,-1,1161,995,0,0
-56,29,0,0,0,0,0,0,0,0,0,-1,1168,995,0,0
-49,29,0,0,0,0,0,0,0,0,0,-1,1175,995,0,0
-42,29,0,0,0,0,0,0,0,0,0,-1,1182,995,0,0
-35,29,0,0,0,0,0,0,0,0,0,-1,1189,995,0,0
-28,29,0,0,0,0,0,0,0,0,0,-1,1196,995,0,0
-21,29,0,0,0,0,0,0,0,0,0,-1,1203,995,0,0
-14,29,0,0,0,0,0,0,0,0,0,-1,1210,995,0,0
-7,29,0,0,0,0,0,0,0,0,0,-1,1217,995,0,0
0,29,0,0,0,0,0,0,0,0,0,-1,1224,995,0,0
7,29,0,0,0,0,0,0,0,0,0,-1,1231,995,0,0
14,29,0,0,0,0,0,0,0,0,0,-1,1238,995,0,0
21,29,0,0,0,0,0,0,0,0,0,-1,1245,995,0,0
28,29,0,0,0,0,0,0,0,0,0,-1,1252,995,0,0
35,29,0,0,0,0,0,0,0,0,0,-1,1259,995,0,0
42,29,0,0,0,0,0,0,0,0,0,-1,1266,995,0,0
49,29,0,0,0,0,0,0,0,0,0,-1,1273,995,0,0
56,29,0,0,0,0,0,0,0,0,0,-1,1280,995,0,0
63,29,0,0,0,0,0,0,0,0,0,-1,1287,995,0,0
70,29,0,0,0,0,0,0,0,0,0,-1,1294,995,0,0
77,29,0,0,0,0,0,0,0,0,0,-1,1301,995,0,0
84,29,0,0,0,0,0,0,0,0,0,-1,1308,995,0,0
91,29,0,0,0,0,0,0,0,0,0,-1,1315,995,0,0
98,29,0,0,0,0,0,0,0,0,0,-1,1322,995,0,0
105,29,0,0,0,0,0,0,0,0,0,-1,1329,995,0,0
112,29,0,0,0,0,0,0,0,0,0,-1,1336,995,0,0
119,29,0,0,0,0,0,0,0,0,0,-1,1343,995,0,0
126,29,0,0,0,0,0,0,0,0,0,-1,1350,995,0,0
133,29,0,0,0,0,0,0,0,0,0,-1,1357,995,0,0
140,29,0,0,0,0,0,0,0,0,0,-1,1364,995,0,0
147,29,0,0,0,0,0,0,0,0,0,-1,1371,995,0,0
154,29,0,0,0,0,0,0,0,0,0,-1,1378,995,0,0
161,29,0,0,0,0,0,0,0,0,0,-1,1385,995,0,0
168,29,0,0,0,0,0,0,0,0,0,-1,1392,995,0,0
175,29,0,0,0,0,0,0,0,0,0,-1,1399,995,0,0
182,29,0,0,0,0,0,0,0,0,0,-1,1406,995,0,0
189,29,0,0,0,0,0,0,0,0,0,-1,1413,995,0,0
196,29,0,0,0,0,0,0,0,0,0,-1,1420,995,0,0
203,29,0,0,0,0,0,0,0,0,0,-1,1427,995,0,0
210,29,0,0,0,0,0,0,0,0,0,-1,1434,995,0,0
217,29,0,0,0,0,0,0,0,0,0,-1,1441,995,0,0
224,29,0,0,0,0,0,0,0,0,0,-1,1448,995,0,0
231,29,0,0,0,0,0,0,0,0,0,-1,1455,995,0,0
238,29,0,0,0,0,0,0,0,0,0,-1,1462,995,0,0
245,29,0,0,0,0,0,0,0,0,0,-1,1469,995,0,0
252,29,0,0,0,0,0,0,0,0,0,-1,1476,995,0,0
259,29,0,0,0,0,0,0,0,0,0,-1,1483,995,0,0
266,29,0,0,0,0,0,0,0,0,0,-1,1490,995,0,0
273,29,0,0,0,0,0,0,0,0,0,-1,1497,995,0,0
280,29,0,0,0,0,0,0,0,0,0,-1,1504,995,0,0
287,29,0,0,0,0,0,0,0,0,0,-1,1511,995,0,0
294,29,0,0,0,0,0,0,0,0,0,-1,1518,995,0,0
301,29,0,0,0,0,0,0,0,0,0,-1,1525,995,0,0
308,29,0,0,0,0,0,0,0,0,0,-1,1532,995,0,0
315,29,0,0,0,0,0,0,0,0,0,-1,1539,995,0,0
322,29,0,0,0,0,0,0,0,0,0,-1,1546,995,0,0
329,29,0,0,0,0,0,0,0,0,0,-1,1553,995,0,0
336,29,0,0,0,0,0,0,0,0,0,-1,1560,995,0,0
343,29,0,0,0,0,0,0,0,0,0,-1,1567,995,0,0
350,29,0,0,0,0,0,0,0,0,0,-1,1574,995,0,0
357,29,0,0,0,0,0,0,0,0,0,-1,1581,995,0,0
364,29,0,0,0,0,0,0,0,0,0,-1,1588,995,0,0
371,29,0,0,0,0,0,0,0,0,0,-1,1595,995,0,0
378,29,0,0,0,0,0,0,0,0,0,-1,1602,995,0,0
385,29,0,0,0,0,0,0,0,0,0,-1,1609,995,0,0
392,29,0,0,0,0,0,0,0,0,0,-1,1616,995,0,0
399,29,0,0,0,0,0,0,0,0,0,-1,1623,995,0,0
406,29,0,0,0,0,0,0,0,0,0,-1,1630,995,0,0
413,29,0,0,0,0,0,0,0,0,0,-1,1637,995,0,0
420,29,0,0,0,0,0,0,0,0,0,-1,1644,995,0,0
427,29,0,0,0,0,0,0,0,0,0,-1,1651,995,0,0
434,29,0,0,0,0,0,0,0,0,0,-1,1658,995,0,0
441,29,0,0,0,0,0,0,0,0,0,-1,1665,995,0,0
448,29,0,0,0,0,0,0,0,0,0,-1,1672,995,0,0
455,29,0,0,0,0,0,0,0,0,0,-1,1679,995,0,0
462,29,0,0,0,0,0,0,0,0,0,-1,1686,995,0,0
469,29,0,0,0,0,0,0,0,0,0,-1,1693,995,0,0
476,29,0,0,0,0,0,0,0,0,0,-1,1700,995,0,0
483,29,0,0,0,0,0,0,0,0,0,-1,1707,995,0,0
490,29,0,0,0,0,0,0,0,0,0,-1,1714,995,0,0
497,29,0,0,0,0,0,0,0,0,0,-1,1721,995,0,0
504,29,0,0,0,0,0,0,0,0,0,-1,1728,995,0,0
511,29,0,0,0,0,0,0,0,0,0,-1,1735,995,0,0
518,29,0,0,0,0,0,0,0,0,0,-1,1742,995,0,0
525,29,0,0,0,0,0,0,0,0,0,-1,1749,995,0,0
532,29,0,0,0,0,0,0,0,0,0,-1,1756,995,0,0
539,29,0,0,0,0,0,0,0,0,0,-1,1763,995,0,0
546,29,0,0,0,0,0,0,0,0,0,-1,1770,995,0,0
553,29,0,0,0,0,0,0,0,0,0,-1,1777,995,0,0
560,29,0,0,0,0,0,0,0,0,0,-1,1784,995,0,0
567,29,0,0,0,0,0,0,0,0,0,-1,1791,995,0,0
574,29,0,0,0,0,0,0,0,0,0,-1,1798,995,0,0
581,29,0,0,0,0,0,0,0,0,0,-1,1805,995,0,0
588,29,0,0,0,0,0,0,0,0,0,-1,1812,995,0,0
595,29,0,0,0,0,0,0,0,0,0,-1,1819,995,0,0
602,29,0,0,0,0,0,0,0,0,0,-1,1826,995,0,0
609,29,0,0,0,0,0,0,0,0,0,-1,1833,995,0,0
616,29,0,0,0,0,0,0,0,0,0,-1,1840,995,0,0
623,29,0,0,0,0,0,0,0,0,0,-1,1847,995,0,0
630,29,0,0,0,0,0,0,0,0,0,-1,1854,995,0,0
637,29,0,0,0,0,0,0,0,0,0,-1,1861,995,0,0
644,29,-0.0709229,-0.208984,-0.00200344,-0.00100416,0.00484529,0.00336718,-0.00637479,0.836776,0.00571318,0.0393733,1868,995,-0.0709758,0.208988
651,29,-0.0517578,-0.0223999,-0.00135369,-0.000491943,0.00337828,0.00248283,-0.00432847,0.848827,0.00398033,0.03867,1875,995,-0.0517989,0.0224071
658,29,0.0302734,0.164612,-0.00095997,-8.83065e-05,0.00230146,0.00181822,-0.0028665,0.878976,0.0027272,0.0392651,1882,995,0.030333,-0.164584
665,29,0.0625,0.219604,-0.00067799,0.000219398,0.00152734,0.00136259,-0.00182118,0.928266,0.00184449,0.0365168,1889,995,0.0624841,-0.219617
672,29,-0.0494385,0.256226,-0.000428,0.000438181,0.000966962,0.00106461,-0.00105443,0.995946,0.00122343,0.0335582,1896,995,-0.0494244,-0.256233
679,29,-0.0699463,0.185364,-0.000279204,0.000570936,0.000588851,0.00087211,-0.000580378,1.09802,0.000844213,0.0342359,1903,995,-0.069981,-0.185353
686,29,0.0318604,0.0598145,-0.000181547,0.000636123,0.000357822,0.000770595,-0.000316019,1.21132,0.000645397,0.0341187,1910,995,0.0318988,-0.0598157
693,29,0.0822754,0.0239258,-8.81089e-05,0.000645935,0.000243789,0.000719524,-0.000161698,1.27764,0.000541687,0.0349808,1917,995,0.0822355,-0.0239239
700,29,0.0222168,0.000671387,-2.82213e-05,0.000627824,0.000141343,0.00065698,-5.73774e-05,1.36737,0.000458311,0.0294657,1924,995,0.0222502,-0.000699961
707,29,-0.0825195,0.0471802,2.95341e-05,0.000594678,4.53879e-05,0.0005983,2.59121e-05,1.49116,0.000390516,0.0164837,1931,995,-0.0825292,-0.0471685
714,29,-0.0440674,0.0524292,3.26317e-05,0.000533477,2.10349e-05,0.000534359,3.17497e-05,1.5289,0.000346142,0.0126678,1938,995,-0.0440084,-0.0524188
721,29,-0.0131836,0.0564575,1.07442e-05,0.000439939,7.73097e-05,0.00045344,-2.75671e-06,1.39791,0.000303216,0.0157474,1945,995,-0.0132193,-0.0564777
728,29,-0.0531006,0.0534058,8.29015e-05,0.000331347,0.000125639,0.000383806,3.04425e-05,1.17526,0.000246351,0.0142839,1952,995,-0.0531067,-0.0533802
735,29,-0.079834,0.0664063,0.000195518,0.000118434,0.00021842,0.000378771,-6.4818e-05,0.698068,0.000276662,0.0132069,1959,995,-0.0798424,-0.0664231
742,29,-0.0671387,0.0792236,0.000300445,-0.00011894,0.00036164,0.000508789,-0.000327284,0.522667,0.000486484,0.0107868,1966,995,-0.0670814,-0.0791955
749,29,-0.0437012,0.0710449,0.000783143,6.17458e-05,0.000247162,0.0008597,-1.48114e-05,0.300373,0.000578134,0.0116572,1973,995,-0.0436719,-0.0710437
756,29,-0.0430908,0.0735474,0.00154566,0.000413441,-9.9202e-06,0.00154574,0.000413354,-0.00876087,0.000924059,0.011349,1980,995,-0.0431226,-0.0735777
763,29,-0.0491943,0.078186,0.00242249,-0.000175133,-0.000286829,0.00245378,-0.000206428,-0.108675,0.00170882,0.0110103,1987,995,-0.0492526,-0.0781987
770,29,-0.0592041,0.0697632,0.00341617,-0.00031821,-0.000541097,0.00349299,-0.000395032,-0.141033,0.00247089,0.0114894,1994,995,-0.0591849,-0.0697519
777,29,-0.0657959,0.127014,0.00475938,-0.000551782,-0.00090845,0.00491047,-0.00070287,-0.164806,0.00353133,0.0193655,2001,995,-0.0657536,-0.127009
784,29,-0.0493164,0.198669,0.00645532,-0.000966888,-0.00144726,0.00672754,-0.0012391,-0.185919,0.00495003,0.0392446,2008,995,-0.0492737,-0.198654
791,29,-0.0507813,0.244568,0.00850394,-0.00170133,-0.00220666,0.00896064,-0.00215804,-0.204084,0.00680809,0.0426478,2015,995,-0.0507752,-0.244576
798,29,0.0419922,0.375427,0.0110063,-0.00296747,-0.00325447,0.0117271,-0.00368825,-0.217956,0.0092947,0.0399212,2022,995,0.0419762,-0.37545
805,29,0.603394,0.402649,0.0139896,-0.00511403,-0.00469082,0.0150793,-0.00620368,-0.228247,0.0126389,0.0434839,2029,995,0.603393,-0.40262
812,29,0.62854,0.221008,0.0173646,-0.00872272,-0.00664404,0.0189593,-0.0103174,-0.235557,0.0171466,0.0439102,2036,995,0.628535,-0.220982
-700,22,0,0,0,0,0,0,0,0,0,-1,524,1002,0,0
-693,22,4.61578,-0.994873,-0.0988147,0.0466114,-0.022991,0.0501596,-0.102363,-1.41768,0.0897617,0.0447371,531,1002,4.61577,0.994852
-686,22,2.9447,-0.987305,-0.0782786,0.0382851,-0.0171778,0.0407639,-0.0807574,-1.42749,0.0714156,0.0419974,538,1002,2.94471,0.987304
-679,22,2.2984,-0.178162,0,0,0,0,0,0,0,-1,545,1002,2.29837,0.17817
-672,22,-0.318115,-0.537476,-0.04662,0.0249964,-0.00908473,0.0261308,-0.0477545,-1.44656,0.0432624,0.0428042,552,1002,-0.318101,0.537481
-665,22,-0.332397,-0.0376587,-0.034627,0.0197207,-0.00633796,0.0204501,-0.0353563,-1.45623,0.0326007,0.0434332,559,1002,-0.332406,0.0376454
-658,22,-0.202759,0.092041,-0.0248672,0.0152252,-0.0042581,0.0156724,-0.0253144,-1.46614,0.023881,0.0407497,566,1002,-0.202733,-0.0920537
-651,22,-0.083252,0.105591,-0.0171549,0.0114494,-0.00273387,0.0117083,-0.0174138,-1.47636,0.0169209,0.0320701,573,1002,-0.0832598,-0.105574
-644,22,-0.0145264,0.0930176,-0.0112987,0.00835221,-0.00164599,0.00848912,-0.0114357,-1.48781,0.0115454,0.0144571,580,1002,-0.0145254,-0.0930477
-637,22,-0.0304565,0.0830078,-0.0061142,0.00541801,-0.000686709,0.00545875,-0.00615495,-1.51153,0.00670919,0.0102031,587,1002,-0.0304587,-0.0830377
-630,22,-0.0346069,0.086853,-0.00241778,0.00327064,9.77824e-05,0.00327232,-0.00241946,1.55361,0.00329842,0.00953704,594,1002,-0.0346192,-0.0868584
-623,22,-0.0389404,0.0881958,-0.000652171,0.00220437,0.000304045,0.00223637,-0.000684174,1.46592,0.00176378,0.00936522,601,1002,-0.0389697,-0.0881891
-616,22,-0.0402222,0.0853271,0.000228526,0.00106724,-0.00010645,0.00108054,0.000215226,-1.4465,0.000660412,0.0151942,608,1002,-0.0402414,-0.0853051
-609,22,-0.0695801,0.0866699,0.000581971,0.000635916,0.000106255,0.000718568,0.000499319,0.909694,0.00042524,0.0240721,615,1002,-0.0695515,-0.0866566
-602,22,-0.0661621,0.0567017,0.000299733,-0.000163234,2.11642e-05,0.000300698,-0.000164199,0.0455877,0.000272238,0.0233387,622,1002,-0.0661885,-0.0566908
-595,22,-0.0292969,0.0545654,-9.56902e-05,-0.000292248,1.82241e-05,-9.40148e-05,-0.000293923,0.091675,0.000173329,0.0202331,629,1002,-0.0293032,-0.0545821
-588,22,-0.0274658,0.0863037,-0.000169842,-0.000364059,-1.28729e-05,-0.000168993,-0.000364909,-0.0658965,0.000210871,0.0256365,636,1002,-0.0274436,-0.086293
-581,22,-0.0288696,0.0586548,-4.11422e-05,-0.000450644,-8.28324e-05,-2.50218e-05,-0.000466764,-0.192212,0.00030318,0.0356065,643,1002,-0.0288699,-0.0586763
-574,22,-0.0126343,0.0610352,0.00025457,-0.000681951,-0.00015739,0.000280313,-0.000707694,-0.162126,0.000587946,0.0315846,650,1002,-0.012632,-0.0610597
-567,22,-0.0680542,0.0250854,0.000509515,-0.000878052,-0.000232173,0.000547333,-0.00091587,-0.161466,0.000853666,0.0296657,657,1002,-0.0680448,-0.0251061
-560,22,-0.195618,0.0145874,0.000915194,-0.00110908,-0.000376296,0.000982881,-0.00117677,-0.177973,0.00124855,0.0334915,664,1002,-0.195626,-0.0145864
-553,22,-0.176575,0.161194,0.00152139,-0.00137583,-0.000620624,0.00164874,-0.00150318,-0.202385,0.00182041,0.0364309,671,1002,-0.176559,-0.161178
-546,22,-0.0568848,0.170044,0.00238558,-0.0016883,-0.00102246,0.0026278,-0.00193051,-0.232608,0.00264198,0.0390388,678,1002,-0.0568872,-0.170063
-539,22,-0.0906372,0.00134277,0.00358541,-0.00206084,-0.00161151,0.00401297,-0.00248841,-0.259345,0.00378782,0.0395268,685,1002,-0.0906611,-0.00134514
-532,22,-0.145874,0.024353,0.00522357,-0.00249788,-0.00244425,0.00593226,-0.00320657,-0.282204,0.00535396,0.041317,692,1002,-0.145851,-0.0243232
-525,22,0,0,0,0,0,0,0,0,0,-1,699,1002,0,0
-518,22,0,0,0,0,0,0,0,0,0,-1,706,1002,0,0
-511,22,0,0,0,0,0,0,0,0,0,-1,713,1002,0,0
-504,22,0,0,0,0,0,0,0,0,0,-1,720,1002,0,0
-497,22,0,0,0,0,0,0,0,0,0,-1,727,1002,0,0
-490,22,0,0,0,0,0,0,0,0,0,-1,734,1002,0,0
-483,22,0,0,0,0,0,0,0,0,0,-1,741,1002,0,0
-476,22,0,0,0,0,0,0,0,0,0,-1,748,1002,0,0
-469,22,0,0,0,0,0,0,0,0,0,-1,755,1002,0,0
-462,22,0,0,0,0,0,0,0,0,0,-1,762,1002,0,0
-455,22,0,0,0,0,0,0,0,0,0,-1,769,1002,0,0
-448,22,0,0,0,0,0,0,0,0,0,-1,776,1002,0,0
-441,22,0,0,0,0,0,0,0,0,0,-1,783,1002,0,0
-434,22,0,0,0,0,0,0,0,0,0,-1,790,1002,0,0
-427,22,0,0,0,0,0,0,0,0,0,-1,797,1002,0,0
-420,22,0,0,0,0,0,0,0,0,0,-1,804,1002,0,0
-413,22,0,0,0,0,0,0,0,0,0,-1,811,1002,0,0
-406,22,0,0,0,0,0,0,0,0,0,-1,818,1002,0,0
-399,22,0,0,0,0,0,0,0,0,0,-1,825,1002,0,0
-392,22,0,0,0,0,0,0,0,0,0,-1,832,1002,0,0
-385,22,0,0,0,0,0,0,0,0,0,-1,839,1002,0,0
-378,22,0,0,0,0,0,0,0,0,0,-1,846,1002,0,0
-371,22,0,0,0,0,0,0,0,0,0,-1,853,1002,0,0
-364,22,0,0,0,0,0,0,0,0,0,-1,860,1002,0,0
-357,22,0,0,0,0,0,0,0,0,0,-1,867,1002,0,0
-350,22,0,0,0,0,0,0,0,0,0,-1,874,1002,0,0
-343,22,0,0,0,0,0,0,0,0,0,-1,881,1002,0,0
-336,22,0,0,0,0,0,0,0,0,0,-1,888,1002,0,0
-329,22,0,0,0,0,0,0,0,0,0,-1,895,1002,0,0
-322,22,0,0,0,0,0,0,0,0,0,-1,902,1002,0,0
-315,22,0,0,0,0,0,0,0,0,0,-1,909,1002,0,0
-308,22,0,0,0,0,0,0,0,0,0,-1,916,1002,0,0
-301,22,0,0,0,0,0,0,0,0,0,-1,923,1002,0,0
-294,22,0,0,0,0,0,0,0,0,0,-1,930,1002,0,0
-287,22,0,0,0,0,0,0,0,0,0,-1,937,1002,0,0
-280,22,0,0,0,0,0,0,0,0,0,-1,944,1002,0,0
-273,22,0,0,0,0,0,0,0,0,0,-1,951,1002,0,0
-266,22,0,0,0,0,0,0,0,0,0,-1,958,1002,0,0
-259,22,0,0,0,0,0,0,0,0,0,-1,965,1002,0,0
-252,22,0,0,0,0,0,0,0,0,0,-1,972,1002,0,0
-245,22,0,0,0,0,0,0,0,0,0,-1,979,1002,0,0
-238,22,0,0,0,0,0,0,0,0,0,-1,986,1002,0,0
-231,22,0,0,0,0,0,0,0,0,0,-1,993,1002,0,0
-224,22,0,0,0,0,0,0,0,0,0,-1,1000,1002,0,0
-217,22,0,0,0,0,0,0,0,0,0,-1,1007,1002,0,0
-210,22,0,0,0,0,0,0,0,0,0,-1,1014,1002,0,0
-203,22,0,0,0,0,0,0,0,0,0,-1,1021,1002,0,0
-196,22,0,0,0,0,0,0,0,0,0,-1,1028,1002,0,0
-189,22,0,0,0,0,0,0,0,0,0,-1,1035,1002,0,0
-182,22,0,0,0,0,0,0,0,0,0,-1,1042,1002,0,0
-175,22,0,0,0,0,0,0,0,0,0,-1,1049,1002,0,0
-168,22,0,0,0,0,0,0,0,0,0,-1,1056,1002,0,0
-161,22,0,0,0,0,0,0,0,0,0,-1,1063,1002,0,0
-154,22,0,0,0,0,0,0,0,0,0,-1,1070,1002,0,0
-147,22,0,0,0,0,0,0,0,0,0,-1,1077,1002,0,0
-140,22,0,0,0,0,0,0,0,0,0,-1,1084,1002,0,0
-133,22,0,0,0,0,0,0,0,0,0,-1,1091,1002,0,0
-126,22,0,0,0,0,0,0,0,0,0,-1,1098,1002,0,0
-119,22,0,0,0,0,0,0,0,0,0,-1,1105,1002,0,0
-112,22,0,0,0,0,0,0,0,0,0,-1,1112,1002,0,0
-105,22,0,0,0,0,0,0,0,0,0,-1,1119,1002,0,0
-98,22,0,0,0,0,0,0,0,0,0,-1,1126,1002,0,0
-91,22,0,0,0,0,0,0,0,0,0,-1,1133,1002,0,0
-84,22,0,0,0,0,0,0,0,0,0,-1,1140,1002,0,0
-77,22,0,0,0,0,0,0,0,0,0,-1,1147,1002,0,0
-70,22,0,0,0,0,0,0,0,0,0,-1,1154,1002,0,0
-63,22,0,0,0,0,0,0,0,0,0,-1,1161,1002,0,0
-56,22,0,0,0,0,0,0,0,0,0,-1,1168,1002,0,0
-49,22,0,0,0,0,0,0,0,0,0,-1,1175,1002,0,0
-42,22,0,0,0,0,0,0,0,0,0,-1,1182,1002,0,0
-35,22,0,0,0,0,0,0,0,0,0,-1,1189,1002,0,0
-28,22,0,0,0,0,0,0,0,0,0,-1,1196,1002,0,0
-21,22,0,0,0,0,0,0,0,0,0,-1,1203,1002,0,0
-14,22,0,0,0,0,0,0,0,0,0,-1,1210,1002,0,0
-7,22,0,0,0,0,0,0,0,0,0,-1,1217,1002,0,0
0,22,0,0,0,0,0,0,0,0,0,-1,1224,1002,0,0
7,22,0,0,0,0,0,0,0,0,0,-1,1231,1002,0,0
14,22,0,0,0,0,0,0,0,0,0,-1,1238,1002,0,0
21,22,0,0,0,0,0,0,0,0,0,-1,1245,1002,0,0
28,22,0,0,0,0,0,0,0,0,0,-1,1252,1002,0,0
35,22,0,0,0,0,0,0,0,0,0,-1,1259,1002,0,0
42,22,0,0,0,0,0,0,0,0,0,-1,1266,1002,0,0
49,22,0,0,0,0,0,0,0,0,0,-1,1273,1002,0,0
56,22,0,0,0,0,0,0,0,0,0,-1,1280,1002,0,0
63,22,0,0,0,0,0,0,0,0,0,-1,1287,1002,0,0
70,22,0,0,0,0,0,0,0,0,0,-1,1294,1002,0,0
77,22,0,0,0,0,0,0,0,0,0,-1,1301,1002,0,0
84,22,0,0,0,0,0,0,0,0,0,-1,1308,1002,0,0
91,22,0,0,0,0,0,0,0,0,0,-1,1315,1002,0,0
98,22,0,0,0,0,0,0,0,0,0,-1,1322,1002,0,0
105,22,0,0,0,0,0,0,0,0,0,-1,1329,1002,0,0
112,22,0,0,0,0,0,0,0,0,0,-1,1336,1002,0,0
119,22,0,0,0,0,0,0,0,0,0,-1,1343,1002,0,0
126,22,0,0,0,0,0,0,0,0,0,-1,1350,1002,0,0
133,22,0,0,0,0,0,0,0,0,0,-1,1357,1002,0,0
140,22,0,0,0,0,0,0,0,0,0,-1,1364,1002,0,0
147,22,0,0,0,0,0,0,0,0,0,-1,1371,1002,0,0
154,22,0,0,0,0,0,0,0,0,0,-1,1378,1002,0,0
161,22,0,0,0,0,0,0,0,0,0,-1,1385,1002,0,0
168,22,0,0,0,0,0,0,0,0,0,-1,1392,1002,0,0
175,22,0,0,0,0,0,0,0,0,0,-1,1399,1002,0,0
182,22,0,0,0,0,0,0,0,0,0,-1,1406,1002,0,0
189,22,0,0,0,0,0,0,0,0,0,-1,1413,1002,0,0
196,22,0,0,0,0,0,0,0,0,0,-1,1420,1002,0,0
203,22,0,0,0,0,0,0,0,0,0,-1,1427,1002,0,0
210,22,0,0,0,0,0,0,0,0,0,-1,1434,1002,0,0
217,22,0,0,0,0,0,0,0,0,0,-1,1441,1002,0,0
224,22,0,0,0,0,0,0,0,0,0,-1,1448,1002,0,0
231,22,0,0,0,0,0,0,0,0,0,-1,1455,1002,0,0
238,22,0,0,0,0,0,0,0,0,0,-1,1462,1002,0,0
245,22,0,0,0,0,0,0,0,0,0,-1,1469,1002,0,0
252,22,0,0,0,0,0,0,0,0,0,-1,1476,1002,0,0
259,22,0,0,0,0,0,0,0,0,0,-1,1483,1002,0,0
266,22,0,0,0,0,0,0,0,0,0,-1,1490,1002,0,0
273,22,0,0,0,0,0,0,0,0,0,-1,1497,1002,0,0
280,22,0,0,0,0,0,0,0,0,0,-1,1504,1002,0,0
287,22,0,0,0,0,0,0,0,0,0,-1,1511,1002,0,0
294,22,0,0,0,0,0,0,0,0,0,-1,1518,1002,0,0
301,22,0,0,0,0,0,0,0,0,0,-1,1525,1002,0,0
308,22,0,0,0,0,0,0,0,0,0,-1,1532,1002,0,0
315,22,0,0,0,0,0,0,0,0,0,-1,1539,1002,0,0
322,22,0,0,0,0,0,0,0,0,0,-1,1546,1002,0,0
329,22,0,0,0,0,0,0,0,0,0,-1,1553,1002,0,0
336,22,0,0,0,0,0,0,0,0,0,-1,1560,1002,0,0
343,22,0,0,0,0,0,0,0,0,0,-1,1567,1002,0,0
350,22,0,0,0,0,0,0,0,0,0,-1,1574,1002,0,0
357,22,0,0,0,0,0,0,0,0,0,-1,1581,1002,0,0
364,22,0,0,0,0,0,0,0,0,0,-1,1588,1002,0,0
371,22,0,0,0,0,0,0,0,0,0,-1,1595,1002,0,0
378,22,0,0,0,0,0,0,0,0,0,-1,1602,1002,0,0
385,22,0,0,0,0,0,0,0,0,0,-1,1609,1002,0,0
392,22,0,0,0,0,0,0,0,0,0,-1,1616,1002,0,0
399,22,0,0,0,0,0,0,0,0,0,-1,1623,1002,0,0
406,22,0,0,0,0,0,0,0,0,0,-1,1630,1002,0,0
413,22,0,0,0,0,0,0,0,0,0,-1,1637,1002,0,0
420,22,0,0,0,0,0,0,0,0,0,-1,1644,1002,0,0
427,22,0,0,0,0,0,0,0,0,0,-1,1651,1002,0,0
434,22,0,0,0,0,0,0,0,0,0,-1,1658,1002,0,0
441,22,0,0,0,0,0,0,0,0,0,-1,1665,1002,0,0
448,22,0,0,0,0,0,0,0,0,0,-1,1672,1002,0,0
455,22,0,0,0,0,0,0,0,0,0,-1,1679,1002,0,0
462,22,0,0,0,0,0,0,0,0,0,-1,1686,1002,0,0
469,22,0,0,0,0,0,0,0,0,0,-1,1693,1002,0,0
476,22,0,0,0,0,0,0,0,0,0,-1,1700,1002,0,0
483,22,0,0,0,0,0,0,0,0,0,-1,1707,1002,0,0
490,22,0,0,0,0,0,0,0,0,0,-1,1714,1002,0,0
497,22,0,0,0,0,0,0,0,0,0,-1,1721,1002,0,0
504,22,0,0,0,0,0,0,0,0,0,-1,1728,1002,0,0
511,22,0,0,0,0,0,0,0,0,0,-1,1735,1002,0,0
518,22,0,0,0,0,0,0,0,0,0,-1,1742,1002,0,0
525,22,0,0,0,0,0,0,0,0,0,-1,1749,1002,0,0
532,22,0,0,0,0,0,0,0,0,0,-1,1756,1002,0,0
539,22,0,0,0,0,0,0,0,0,0,-1,1763,1002,0,0
546,22,0,0,0,0,0,0,0,0,0,-1,1770,1002,0,0
553,22,0,0,0,0,0,0,0,0,0,-1,1777,1002,0,0
560,22,0,0,0,0,0,0,0,0,0,-1,1784,1002,0,0
567,22,0,0,0,0,0,0,0,0,0,-1,1791,1002,0,0
574,22,0,0,0,0,0,0,0,0,0,-1,1798,1002,0,0
581,22,0,0,0,0,0,0,0,0,0,-1,1805,1002,0,0
588,22,0,0,0,0,0,0,0,0,0,-1,1812,1002,0,0
595,22,0,0,0,0,0,0,0,0,0,-1,1819,1002,0,0
602,22,0,0,0,0,0,0,0,0,0,-1,1826,1002,0,0
609,22,0,0,0,0,0,0,0,0,0,-1,1833,1002,0,0
616,22,0,0,0,0,0,0,0,0,0,-1,1840,1002,0,0
623,22,0,0,0,0,0,0,0,0,0,-1,1847,1002,0,0
630,22,0,0,0,0,0,0,0,0,0,-1,1854,1002,0,0
637,22,0,0,0,0,0,0,0,0,0,-1,1861,1002,0,0
644,22,-0.119751,-0.15033,-0.00262689,-0.00150612,0.0052594,0.00322266,-0.00735567,0.838473,0.00626086,0.0347043,1868,1002,-0.1197,0.15032
651,22,-0.0874023,-0.0282593,-0.00177926,-0.000944483,0.0035713,0.00223373,-0.00495747,0.843571,0.00424996,0.0350471,1875,1002,-0.0873726,0.0282891
658,22,-0.0402832,0.103027,-0.00124199,-0.000496373,0.00238132,0.00154114,-0.00327951,0.863046,0.00284288,0.036817,1882,1002,-0.0402762,-0.103031
665,22,-0.041626,0.207764,-0.000861406,-0.000146246,0.00155416,0.00109094,-0.00209859,0.89847,0.00187186,0.0351986,1889,1002,-0.0416814,-0.20776
672,22,-0.0944824,0.236633,-0.000534807,0.000112964,0.000979697,0.000820926,-0.00124277,0.945041,0.00119974,0.0339431,1896,1002,-0.094462,-0.236663
679,22,-0.0872803,0.0819092,-0.000333055,0.000285365,0.000607388,0.00065772,-0.00070541,1.02084,0.000787164,0.0335098,1903,1002,-0.0873143,-0.0819017
686,22,-0.0213623,-0.0241699,-0.000204344,0.000388892,0.000389043,0.000581495,-0.000396947,1.1111,0.000568243,0.0327818,1910,1002,-0.0213488,0.0241987
693,22,-0.00561523,-0.0327759,-9.54673e-05,0.000435705,0.000285201,0.000559831,-0.000219594,1.1603,0.000464072,0.0329154,1917,1002,-0.0055786,0.0327618
700,22,-0.0314941,-6.10352e-05,-2.02855e-05,0.000456517,0.000192103,0.000524284,-8.80522e-05,1.23166,0.000382269,0.0298919,1924,1002,-0.0314832,8.53965e-05
707,22,-0.0811768,0.0246582,4.79841e-05,0.000451639,0.000101984,0.000475942,2.36807e-05,1.33685,0.000309703,0.0224629,1931,1002,-0.0812323,-0.0246535
714,22,-0.0505371,0.0704956,5.20292e-05,0.000416917,8.84868e-05,0.000437243,3.17031e-05,1.34501,0.000281524,0.0127161,1938,1002,-0.0504789,-0.0704664
721,22,-0.0227051,0.0794067,2.718e-05,0.000345657,0.000154232,0.000408104,-3.52669e-05,1.18608,0.000284554,0.0118911,1945,1002,-0.0227497,-0.0793838
728,22,-0.0527344,0.0678101,7.63521e-05,0.000253339,0.000219218,0.000401251,-7.15606e-05,0.977234,0.000294269,0.0128154,1952,1002,-0.0527883,-0.067832
735,22,-0.0718994,0.0783691,0.000144364,4.88283e-05,0.000320888,0.00042102,-0.000227827,0.71151,0.000380107,0.0137559,1959,1002,-0.0719156,-0.0783673
742,22,-0.0531006,0.0882568,0.000170061,-0.000214158,0.000441157,0.000459123,-0.00050322,0.580047,0.000555803,0.0139406,1966,1002,-0.053057,-0.0882852
749,22,-0.0284424,0.0797119,0.000598822,-8.05695e-05,0.00028947,0.000705429,-0.000187176,0.352869,0.00054353,0.0111477,1973,1002,-0.0284303,-0.0796858
756,22,-0.0234375,0.0692139,0.00137853,0.000202897,-1.92957e-05,0.00137885,0.000202581,-0.0164071,0.000859699,0.0153619,1980,1002,-0.0234287,-0.069206
763,22,-0.0450439,0.0820313,0.00219794,-0.000478105,-0.000289848,0.00222897,-0.000509139,-0.106664,0.00168158,0.0160722,1987,1002,-0.0450845,-0.0820028
770,22,-0.0526123,0.0787964,0.00314346,-0.000729491,-0.00057742,0.00322771,-0.000813746,-0.144894,0.00246818,0.0103173,1994,1002,-0.0525721,-0.0787795
777,22,-0.0643311,0.0783081,0.00445192,-0.00109872,-0.000990525,0.00462339,-0.00127019,-0.171406,0.00358154,0.0178344,2001,1002,-0.0643237,-0.0783216
784,22,-0.0493164,0.112549,0.00613964,-0.00167552,-0.00158471,0.00644875,-0.00198463,-0.19264,0.00509132,0.038889,2008,1002,-0.0493462,-0.112552
791,22,-0.122192,0.243835,0.00821869,-0.00259603,-0.00241072,0.00873172,-0.00310907,-0.209687,0.00708855,0.0456856,2015,1002,-0.12224,-0.243835
798,22,-0.259277,0.523682,0.0108129,-0.00406837,-0.00352888,0.0116073,-0.00486279,-0.221427,0.00977118,0.0438808,2022,1002,-0.25933,-0.523662
805,22,0.23291,0.742004,0.0139841,-0.00643388,-0.00501971,0.0151515,-0.00760122,-0.22849,0.0133752,0.0441562,2029,1002,0.23296,-0.742015
812,22,0.353149,0.934937,0.0176668,-0.0102627,-0.00697912,0.0193137,-0.0119096,-0.23173,0.0181949,0.0425228,2036,1002,0.353108,-0.934943
-700,15,0,0,0,0,0,0,0,0,0,-1,524,1009,0,0
-693,15,4.58826,-1.19202,-0.0842408,0.0439513,-0.0195937,0.0468792,-0.0871688,-1.42246,0.0785492,0.0464086,531,1009,4.58825,1.192
-686,15,2.95807,-1.54547,-0.0676334,0.036522,-0.0141795,0.0384179,-0.0695292,-1.43788,0.0631802,0.0455842,538,1009,2.95805,1.54548
-679,15,0.928772,0.640015,0,0,0,0,0,0,0,-1,545,1009,0.928776,-0.640007
-672,15,0.635925,0.540649,0,0,0,0,0,0,0,-1,552,1009,0.635904,-0.54064
-665,15,-0.266541,0.193787,-0.0312335,0.0191821,-0.00463088,0.019604,-0.0316553,-1.47996,0.0298659,0.044271,559,1009,-0.26652,-0.19376
-658,15,-0.145325,0.132507,-0.0227812,0.014847,-0.00293601,0.0150747,-0.0230089,-1.49339,0.0221461,0.0423807,566,1009,-0.145337,-0.132516
-651,15,-0.0692139,0.114624,-0.015987,0.0111778,-0.00175268,0.0112904,-0.0160996,-1.50663,0.0158947,0.0334263,573,1009,-0.0692298,-0.11462
-644,15,-0.0283203,0.0873413,-0.0107433,0.0081549,-0.000956411,0.00820318,-0.0107916,-1.52036,0.0110005,0.0130033,580,1009,-0.0283307,-0.0873312
-637,15,-0.0171509,0.0709839,-0.00607505,0.00533336,-0.000196161,0.00533673,-0.00607842,-1.55361,0.00659518,0.00964284,587,1009,-0.0171602,-0.07101
-630,15,-0.022522,0.074646,-0.00264816,0.00321952,0.000340136,0.00323918,-0.00266782,1.51309,0.00341572,0.00856155,594,1009,-0.0225409,-0.0746476
-623,15,-0.0233154,0.0738525,-0.00101287,0.0021648,0.000384154,0.00221058,-0.00105865,1.45218,0.00192616,0.00810508,601,1009,-0.0233001,-0.0738793
-616,15,-0.0410767,0.0758667,-0.00018159,0.00107787,-8.00025e-05,0.00108293,-0.000186652,-1.50761,0.000791542,0.0125826,608,1009,-0.0410885,-0.0758606
-609,15,-0.0558472,0.0826416,0.000252232,0.000629368,0.000126911,0.000668098,0.000213503,1.2746,0.000394009,0.0189482,615,1009,-0.0558418,-0.0826568
-602,15,-0.0395508,0.072998,0.000143726,-0.000166717,3.48138e-05,0.000147582,-0.000170573,0.110317,0.000183847,0.0186057,622,1009,-0.0395646,-0.0729847
-595,15,-0.050293,0.0516968,-9.79638e-05,-0.00026665,2.21962e-05,-9.50921e-05,-0.000269521,0.128666,0.000157839,0.0182925,629,1009,-0.0502981,-0.0517064
-588,15,-0.0548096,0.0775146,-0.000116186,-0.000346739,1.25582e-06,-0.000116179,-0.000346746,0.00544675,0.000203793,0.0243002,636,1009,-0.0548286,-0.0775075
-581,15,-0.0410767,0.0631714,-3.95176e-06,-0.000440742,-7.20275e-05,7.61921e-06,-0.000452313,-0.159285,0.000304113,0.0331535,643,1009,-0.04109,-0.0631655
-574,15,0.00213623,0.0151978,0.000255251,-0.000668506,-0.000143878,0.000277142,-0.000690397,-0.15099,0.000575343,0.029417,650,1009,0.00212014,-0.015228
-567,15,-0.109863,0.0632935,0.000489322,-0.000867181,-0.000232168,0.000527958,-0.000905816,-0.164901,0.000837317,0.0293462,657,1009,-0.109874,-0.0632969
-560,15,-0.243896,0.129944,0.00085271,-0.00109651,-0.000397855,0.000930788,-0.00117459,-0.193786,0.00121825,0.0327583,664,1009,-0.243873,-0.12994
-553,15,-0.169983,0.20459,0.00138425,-0.00135578,-0.000671929,0.00154015,-0.00151169,-0.227991,0.001762,0.0347551,671,1009,-0.169985,-0.204598
-546,15,-0.0640259,0.161438,0.00212485,-0.00165093,-0.00111042,0.0024272,-0.00195329,-0.265842,0.002534,0.0376133,678,1009,-0.0640559,-0.161427
-539,15,-0.0515747,0.0418701,0.00312666,-0.0019895,-0.00174423,0.00366473,-0.00252756,-0.299221,0.00359516,0.0399547,685,1009,-0.0515658,-0.0418583
-532,15,-0.00408936,-0.109802,0.00445378,-0.00236364,-0.00262865,0.00534961,-0.00325947,-0.328453,0.00501905,0.040818,692,1009,-0.00410386,0.109822
-525,15,0,0,0,0,0,0,0,0,0,-1,699,1009,0,0
-518,15,0,0,0,0,0,0,0,0,0,-1,706,1009,0,0
-511,15,0,0,0,0,0,0,0,0,0,-1,713,1009,0,0
-504,15,0,0,0,0,0,0,0,0,0,-1,720,1009,0,0
-497,15,0,0,0,0,0,0,0,0,0,-1,727,1009,0,0
-490,15,0,0,0,0,0,0,0,0,0,-1,734,1009,0,0
-483,15,0,0,0,0,0,0,0,0,0,-1,741,1009,0,0
-476,15,0,0,0,0,0,0,0,0,0,-1,748,1009,0,0
-469,15,0,0,0,0,0,0,0,0,0,-1,755,1009,0,0
-462,15,0,0,0,0,0,0,0,0,0,-1,762,1009,0,0
-455,15,0,0,0,0,0,0,0,0,0,-1,769,1009,0,0
-448,15,0,0,0,0,0,0,0,0,0,-1,776,1009,0,0
-441,15,0,0,0,0,0,0,0,0,0,-1,783,1009,0,0
-434,15,0,0,0,0,0,0,0,0,0,-1,790,1009,0,0
-427,15,0,0,0,0,0,0,0,0,0,-1,797,1009,0,0
-420,15,0,0,0,0,0,0,0,0,0,-1,804,1009,0,0
-413,15,0,0,0,0,0,0,0,0,0,-1,811,1009,0,0
-406,15,0,0,0,0,0,0,0,0,0,-1,818,1009,0,0
-399,15,0,0,0,0,0,0,0,0,0,-1,825,1009,0,0
-392,15,0,0,0,0,0,0,0,0,0,-1,832,1009,0,0
-385,15,0,0,0,0,0,0,0,0,0,-1,839,1009,0,0
-378,15,0,0,0,0,0,0,0,0,0,-1,846,1009,0,0
-371,15,0,0,0,0,0,0,0,0,0,-1,853,1009,0,0
-364,15,0,0,0,0,0,0,0,0,0,-1,860,1009,0,0
-357,15,0,0,0,0,0,0,0,0,0,-1,867,1009,0,0
-350,15,0,0,0,0,0,0,0,0,0,-1,874,1009,0,0
-343,15,0,0,0,0,0,0,0,0,0,-1,881,1009,0,0
-336,15,0,0,0,0,0,0,0,0,0,-1,888,1009,0,0
-329,15,0,0,0,0,0,0,0,0,0,-1,895,1009,0,0
-322,15,0,0,0,0,0,0,0,0,0,-1,902,1009,0,0
-315,15,0,0,0,0,0,0,0,0,0,-1,909,1009,0,0
-308,15,0,0,0,0,0,0,0,0,0,-1,916,1009,0,0
-301,15,0,0,0,0,0,0,0,0,0,-1,923,1009,0,0
-294,15,0,0,0,0,0,0,0,0,0,-1,930,1009,0,0
-287,15,0,0,0,0,0,0,0,0,0,-1,937,1009,0,0
-280,15,0,0,0,0,0,0,0,0,0,-1,944,1009,0,0
-273,15,0,0,0,0,0,0,0,0,0,-1,951,1009,0,0
-266,15,0,0,0,0,0,0,0,0,0,-1,958,1009,0,0
-259,15,0,0,0,0,0,0,0,0,0,-1,965,1009,0,0
-252,15,0,0,0,0,0,0,0,0,0,-1,972,1009,0,0
-245,15,0,0,0,0,0,0,0,0,0,-1,979,1009,0,0
-238,15,0,0,0,0,0,0,0,0,0,-1,986,1009,0,0
-231,15,0,0,0,0,0,0,0,0,0,-1,993,1009,0,0
-224,15,0,0,0,0,0,0,0,0,0,-1,1000,1009,0,0
-217,15,0,0,0,0,0,0,0,0,0,-1,1007,1009,0,0
-210,15,0,0,0,0,0,0,0,0,0,-1,1014,1009,0,0
-203,15,0,0,0,0,0,0,0,0,0,-1,1021,1009,0,0
-196,15,0,0,0,0,0,0,0,0,0,-1,1028,1009,0,0
-189,15,0,0,0,0,0,0,0,0,0,-1,1035,1009,0,0
-182,15,0,0,0,0,0,0,0,0,0,-1,1042,1009,0,0
-175,15,0,0,0,0,0,0,0,0,0,-1,1049,1009,0,0
-168,15,0,0,0,0,0,0,0,0,0,-1,1056,1009,0,0
-161,15,0,0,0,0,0,0,0,0,0,-1,1063,1009,0,0
-154,15,0,0,0,0,0,0,0,0,0,-1,1070,1009,0,0
-147,15,0,0,0,0,0,0,0,0,0,-1,1077,1009,0,0
-140,15,0,0,0,0,0,0,0,0,0,-1,1084,1009,0,0
-133,15,0,0,0,0,0,0,0,0,0,-1,1091,1009,0,0
-126,15,0,0,0,0,0,0,0,0,0,-1,1098,1009,0,0
-119,15,0,0,0,0,0,0,0,0,0,-1,1105,1009,0,0
-112,15,0,0,0,0,0,0,0,0,0,-1,1112,1009,0,0
-105,15,0,0,0,0,0,0,0,0,0,-1,1119,1009,0,0
-98,15,0,0,0,0,0,0,0,0,0,-1,1126,1009,0,0
-91,15,0,0,0,0,0,0,0,0,0,-1,1133,1009,0,0
-84,15,0,0,0,0,0,0,0,0,0,-1,1140,1009,0,0
-77,15,0,0,0,0,0,0,0,0,0,-1,1147,1009,0,0
-70,15,0,0,0,0,0,0,0,0,0,-1,1154,1009,0,0
-63,15,0,0,0,0,0,0,0,0,0,-1,1161,1009,0,0
-56,15,0,0,0,0,0,0,0,0,0,-1,1168,1009,0,0
-49,15,0,0,0,0,0,0,0,0,0,-1,1175,1009,0,0
-42,15,0,0,0,0,0,0,0,0,0,-1,1182,1009,0,0
-35,15,0,0,0,0,0,0,0,0,0,-1,1189,1009,0,0
-28,15,0,0,0,0,0,0,0,0,0,-1,1196,1009,0,0
-21,15,0,0,0,0,0,0,0,0,0,-1,1203,1009,0,0
-14,15,0,0,0,0,0,0,0,0,0,-1,1210,1009,0,0
-7,15,0,0,0,0,0,0,0,0,0,-1,1217,1009,0,0
0,15,0,0,0,0,0,0,0,0,0,-1,1224,1009,0,0
7,15,0,0,0,0,0,0,0,0,0,-1,1231,1009,0,0
14,15,0,0,0,0,0,0,0,0,0,-1,1238,1009,0,0
21,15,0,0,0,0,0,0,0,0,0,-1,1245,1009,0,0
28,15,0,0,0,0,0,0,0,0,0,-1,1252,1009,0,0
35,15,0,0,0,0,0,0,0,0,0,-1,1259,1009,0,0
42,15,0,0,0,0,0,0,0,0,0,-1,1266,1009,0,0
49,15,0,0,0,0,0,0,0,0,0,-1,1273,1009,0,0
56,15,0,0,0,0,0,0,0,0,0,-1,1280,1009,0,0
63,15,0,0,0,0,0,0,0,0,0,-1,1287,1009,0,0
70,15,0,0,0,0,0,0,0,0,0,-1,1294,1009,0,0
77,15,0,0,0,0,0,0,0,0,0,-1,1301,1009,0,0
84,15,0,0,0,0,0,0,0,0,0,-1,1308,1009,0,0
91,15,0,0,0,0,0,0,0,0,0,-1,1315,1009,0,0
98,15,0,0,0,0,0,0,0,0,0,-1,1322,1009,0,0
105,15,0,0,0,0,0,0,0,0,0,-1,1329,1009,0,0
112,15,0,0,0,0,0,0,0,0,0,-1,1336,1009,0,0
119,15,0,0,0,0,0,0,0,0,0,-1,1343,1009,0,0
126,15,0,0,0,0,0,0,0,0,0,-1,1350,1009,0,0
133,15,0,0,0,0,0,0,0,0,0,-1,1357,1009,0,0
140,15,0,0,0,0,0,0,0,0,0,-1,1364,1009,0,0
147,15,0,0,0,0,0,0,0,0,0,-1,1371,1009,0,0
154,15,0,0,0,0,0,0,0,0,0,-1,1378,1009,0,0
161,15,0,0,0,0,0,0,0,0,0,-1,1385,1009,0,0
168,15,0,0,0,0,0,0,0,0,0,-1,1392,1009,0,0
175,15,0,0,0,0,0,0,0,0,0,-1,1399,1009,0,0
182,15,0,0,0,0,0,0,0,0,0,-1,1406,1009,0,0
189,15,0,0,0,0,0,0,0,0,0,-1,1413,1009,0,0
196,15,0,0,0,0,0,0,0,0,0,-1,1420,1009,0,0
203,15,0,0,0,0,0,0,0,0,0,-1,1427,1009,0,0
210,15,0,0,0,0,0,0,0,0,0,-1,1434,1009,0,0
217,15,0,0,0,0,0,0,0,0,0,-1,1441,1009,0,0
224,15,0,0,0,0,0,0,0,0,0,-1,1448,1009,0,0
231,15,0,0,0,0,0,0,0,0,0,-1,1455,1009,0,0
238,15,0,0,0,0,0,0,0,0,0,-1,1462,1009,0,0
245,15,0,0,0,0,0,0,0,0,0,-1,1469,1009,0,0
252,15,0,0,0,0,0,0,0,0,0,-1,1476,1009,0,0
259,15,0,0,0,0,0,0,0,0,0,-1,1483,1009,0,0
266,15,0,0,0,0,0,0,0,0,0,-1,1490,1009,0,0
273,15,0,0,0,0,0,0,0,0,0,-1,1497,1009,0,0
280,15,0,0,0,0,0,0,0,0,0,-1,1504,1009,0,0
287,15,0,0,0,0,0,0,0,0,0,-1,1511,1009,0,0
294,15,0,0,0,0,0,0,0,0,0,-1,1518,1009,0,0
301,15,0,0,0,0,0,0,0,0,0,-1,1525,1009,0,0
308,15,0,0,0,0,0,0,0,0,0,-1,1532,1009,0,0
315,15,0,0,0,0,0,0,0,0,0,-1,1539,1009,0,0
322,15,0,0,0,0,0,0,0,0,0,-1,1546,1009,0,0
329,15,0,0,0,0,0,0,0,0,0,-1,1553,1009,0,0
336,15,0,0,0,0,0,0,0,0,0,-1,1560,1009,0,0
343,15,0,0,0,0,0,0,0,0,0,-1,1567,1009,0,0
350,15,0,0,0,0,0,0,0,0,0,-1,1574,1009,0,0
357,15,0,0,0,0,0,0,0,0,0,-1,1581,1009,0,0
364,15,0,0,0,0,0,0,0,0,0,-1,1588,1009,0,0
371,15,0,0,0,0,0,0,0,0,0,-1,1595,1009,0,0
378,15,0,0,0,0,0,0,0,0,0,-1,1602,1009,0,0
385,15,0,0,0,0,0,0,0,0,0,-1,1609,1009,0,0
392,15,0,0,0,0,0,0,0,0,0,-1,1616,1009,0,0
399,15,0,0,0,0,0,0,0,0,0,-1,1623,1009,0,0
406,15,0,0,0,0,0,0,0,0,0,-1,1630,1009,0,0
413,15,0,0,0,0,0,0,0,0,0,-1,1637,1009,0,0
420,15,0,0,0,0,0,0,0,0,0,-1,1644,1009,0,0
427,15,0,0,0,0,0,0,0,0,0,-1,1651,1009,0,0
434,15,0,0,0,0,0,0,0,0,0,-1,1658,1009,0,0
441,15,0,0,0,0,0,0,0,0,0,-1,1665,1009,0,0
448,15,0,0,0,0,0,0,0,0,0,-1,1672,1009,0,0
455,15,0,0,0,0,0,0,0,0,0,-1,1679,1009,0,0
462,15,0,0,0,0,0,0,0,0,0,-1,1686,1009,0,0
469,15,0,0,0,0,0,0,0,0,0,-1,1693,1009,0,0
476,15,0,0,0,0,0,0,0,0,0,-1,1700,1009,0,0
483,15,0,0,0,0,0,0,0,0,0,-1,1707,1009,0,0
490,15,0,0,0,0,0,0,0,0,0,-1,1714,1009,0,0
497,15,0,0,0,0,0,0,0,0,0,-1,1721,1009,0,0
504,15,0,0,0,0,0,0,0,0,0,-1,1728,1009,0,0
511,15,0,0,0,0,0,0,0,0,0,-1,1735,1009,0,0
518,15,0,0,0,0,0,0,0,0,0,-1,1742,1009,0,0
525,15,0,0,0,0,0,0,0,0,0,-1,1749,1009,0,0
532,15,0,0,0,0,0,0,0,0,0,-1,1756,1009,0,0
539,15,0,0,0,0,0,0,0,0,0,-1,1763,1009,0,0
546,15,0,0,0,0,0,0,0,0,0,-1,1770,1009,0,0
553,15,0,0,0,0,0,0,0,0,0,-1,1777,1009,0,0
560,15,0,0,0,0,0,0,0,0,0,-1,1784,1009,0,0
567,15,0,0,0,0,0,0,0,0,0,-1,1791,1009,0,0
574,15,0,0,0,0,0,0,0,0,0,-1,1798,1009,0,0
581,15,0,0,0,0,0,0,0,0,0,-1,1805,1009,0,0
588,15,0,0,0,0,0,0,0,0,0,-1,1812,1009,0,0
595,15,0,0,0,0,0,0,0,0,0,-1,1819,1009,0,0
602,15,0,0,0,0,0,0,0,0,0,-1,1826,1009,0,0
609,15,0,0,0,0,0,0,0,0,0,-1,1833,1009,0,0
616,15,0,0,0,0,0,0,0,0,0,-1,1840,1009,0,0
623,15,0,0,0,0,0,0,0,0,0,-1,1847,1009,0,0
630,15,0,0,0,0,0,0,0,0,0,-1,1854,1009,0,0
637,15,0,0,0,0,0,0,0,0,0,-1,1861,1009,0,0
644,15,-0.0302734,-0.055481,-0.00341696,-0.00146349,0.00561299,0.00325711,-0.00813756,0.871542,0.00677687,0.0355326,1868,1009,-0.0302225,0.0554942
651,15,-0.0786133,0.0106812,-0.002342,-0.000901772,0.00371145,0.00215877,-0.00540255,0.88122,0.00449744,0.0340282,1875,1009,-0.0785702,-0.0106741
658,15,-0.13623,0.0527344,-0.00162953,-0.000494719,0.00240882,0.00141262,-0.00353687,0.901066,0.00294401,0.0338134,1882,1009,-0.136271,-0.0527205
665,15,-0.088501,0.144531,-0.00112185,-0.000201788,0.00152908,0.000934964,-0.00225861,0.931519,0.00189586,0.0340341,1889,1009,-0.0884946,-0.144521
672,15,-0.0671387,0.181274,-0.000695197,9.45473e-07,0.000940058,0.000655303,-0.00134955,0.962705,0.00118041,0.0338704,1896,1009,-0.0671858,-0.181252
679,15,-0.0255127,0.0339966,-0.000420016,0.000128079,0.000572565,0.000488801,-0.000780738,1.0086,0.000739401,0.0340585,1903,1009,-0.0254989,-0.0339919
686,15,-0.0354004,-0.141235,-0.000244546,0.000200748,0.000366445,0.000406882,-0.000450681,1.05839,0.00049533,0.0360928,1910,1009,-0.0354581,0.141208
693,15,-0.0369873,-0.103699,-0.00010607,0.0002327,0.000274627,0.000385977,-0.000259348,1.06173,0.000374962,0.0354562,1917,1009,-0.0370341,0.103727
700,15,-0.0291748,-0.0203857,-9.00644e-06,0.000262283,0.000196178,0.000365145,-0.000111868,1.08788,0.000288054,0.0293413,1924,1009,-0.0292328,0.0203917
707,15,-0.0549316,0.0440674,7.46182e-05,0.000255076,0.000112384,0.00030897,2.07241e-05,1.12364,0.000199431,0.0227173,1931,1009,-0.0548713,-0.0440674
714,15,-0.0527344,0.0768433,8.37922e-05,0.000226934,0.000112627,0.000288807,2.19191e-05,1.06844,0.000185664,0.014112,1938,1009,-0.0527205,-0.0768201
721,15,-0.0256348,0.0783691,5.40548e-05,0.000172398,0.000192747,0.000314852,-8.8399e-05,0.934327,0.000244748,0.0112762,1945,1009,-0.0256868,-0.0783624
728,15,-0.043457,0.0910034,9.07687e-05,0.000112949,0.000272337,0.000374421,-0.000170704,0.805748,0.000321971,0.014459,1952,1009,-0.0434216,-0.0909784
735,15,-0.0651855,0.081604,0.000138856,-9.61811e-06,0.000365137,0.000437227,-0.000307989,0.685109,0.000432402,0.0155153,1959,1009,-0.0651282,-0.0816244
742,15,-0.0583496,0.0740356,0.000110866,-0.000134485,0.000418229,0.00042404,-0.000447659,0.642739,0.000503337,0.0156945,1966,1009,-0.0583969,-0.0740479
749,15,-0.0377197,0.0747681,0.000523058,5.05542e-05,0.000172705,0.000579452,-5.84018e-06,0.315621,0.000388263,0.0096162,1973,1009,-0.0376837,-0.0747708
756,15,-0.0402832,0.0585938,0.001358,0.000363741,-0.000273422,0.00142823,0.000293511,-0.251421,0.000870963,0.0111114,1980,1009,-0.0402236,-0.0586112
763,15,-0.050415,0.0618286,0.00216653,-0.00025932,-0.000623573,0.00231743,-0.000410224,-0.237435,0.00169829,0.0110184,1987,1009,-0.0503724,-0.0618453
770,15,-0.0456543,0.0653687,0.00313467,-0.000453864,-0.0010672,0.00342806,-0.000747256,-0.268288,0.00257092,0.0102148,1994,1009,-0.0456849,-0.0653612
777,15,-0.0463867,0.0593262,0.00449132,-0.00078637,-0.00167459,0.00497782,-0.00127287,-0.282734,0.0038143,0.0194248,2001,1009,-0.0463376,-0.0593132
784,15,-0.0657959,0.0662842,0.00626316,-0.00136248,-0.00249608,0.00700753,-0.00210685,-0.28982,0.00550991,0.038928,2008,1009,-0.0657718,-0.0662646
791,15,-0.172485,0.131775,0.00847037,-0.00234208,-0.00357458,0.00954526,-0.00341697,-0.292104,0.00775754,0.0460259,2015,1009,-0.172541,-0.131749
798,15,-0.133667,0.121948,0.0112493,-0.00396659,-0.00494627,0.0127159,-0.00543313,-0.288238,0.0107559,0.0446712,2022,1009,-0.133669,-0.121978
805,15,0.230591,-0.174377,0.0146787,-0.00662082,-0.00664631,0.0165825,-0.00852457,-0.278969,0.0147423,0.0448547,2029,1009,0.230581,0.17435
812,15,0.537598,-0.327026,0,0,0,0,0,0,0,-1,2036,1009,0.537629,0.327027
-700,8,0,0,0,0,0,0,0,0,0,-1,524,1016,0,0
-693,8,4.86127,-2.49908,0,0,0,0,0,0,0,-1,531,1016,4.86128,2.49906
-686,8,0.288025,0.599487,0,0,0,0,0,0,0,-1,538,1016,0.288015,-0.599506
-679,8,0.609985,0.590332,-0.0410595,0.0286468,-0.00937515,0.0298857,-0.0422984,-1.43941,0.0418804,0.0473312,545,1016,0.609971,-0.590334
-672,8,0.345825,0.441101,-0.0326333,0.0235008,-0.00628492,0.0241959,-0.0333284,-1.46065,0.0333509,0.0449136,552,1016,0.34585,-0.441109
-665,8,0.398193,0.386169,-0.0252152,0.0188467,-0.00401583,0.0192097,-0.0255782,-1.48065,0.0259453,0.0434643,559,1016,0.398196,-0.386192
-658,8,-0.0361328,0.118713,-0.0188309,0.0147202,-0.00240956,0.0148924,-0.0190031,-1.49947,0.0196175,0.0348749,566,1016,-0.036135,-0.118736
-651,8,-0.0427246,0.0843506,-0.01352,0.0111557,-0.00133253,0.0112275,-0.0135917,-1.517,0.014351,0.0178015,573,1016,-0.0427458,-0.0843571
-644,8,-0.0213013,0.065979,-0.00929575,0.00817668,-0.000648428,0.00820071,-0.00931978,-1.53375,0.0101223,0.0100595,580,1016,-0.0212954,-0.0659995
-637,8,-0.0175171,0.060791,-0.00548186,0.00545391,3.48497e-05,0.00545403,-0.00548197,1.56761,0.00631391,0.00838835,587,1016,-0.0174942,-0.0607648
-630,8,-0.0228271,0.06073,-0.00261634,0.00333207,0.000450699,0.00336602,-0.0026503,1.4956,0.00348171,0.00925422,594,1016,-0.0228468,-0.0607392
-623,8,-0.0289307,0.055542,-0.00121997,0.0022423,0.000387613,0.00228516,-0.00126284,1.46066,0.00207659,0.0113572,601,1016,-0.0289505,-0.0555381
-616,8,-0.0473633,0.0648193,-0.000466535,0.00116939,-6.9723e-05,0.00117235,-0.000469501,-1.52828,0.000976447,0.0110909,608,1016,-0.0473453,-0.0648154
-609,8,-0.0358276,0.0794678,1.87356e-05,0.000650425,0.000132381,0.000677046,-7.88513e-06,1.37235,0.000454015,0.0143654,615,1016,-0.0358476,-0.0794705
-602,8,-0.00732422,0.0643921,3.73795e-05,-0.000160987,4.16275e-05,4.57609e-05,-0.000169369,0.198688,0.000130861,0.021239,622,1016,-0.00733832,-0.0643885
-595,8,-0.0269165,0.0400391,-8.33815e-05,-0.000237184,2.27785e-05,-8.00788e-05,-0.000240486,0.143986,0.000141403,0.0187233,629,1016,-0.026888,-0.0400498
-588,8,-0.0438232,0.0317383,-5.36303e-05,-0.000316004,1.32979e-05,-5.29581e-05,-0.000316677,0.0505104,0.000195866,0.0191314,636,1016,-0.0438323,-0.0317141
-581,8,-0.0378418,0.0349121,4.84894e-05,-0.000410733,-5.40619e-05,5.4768e-05,-0.000417011,-0.115619,0.000297946,0.0258674,643,1016,-0.0378532,-0.034903
-574,8,-0.0308228,0.0341797,0.00027885,-0.000608277,-0.000112082,0.000292792,-0.000622218,-0.123752,0.000539573,0.0323512,650,1016,-0.0307999,-0.0341741
-567,8,-0.156372,0.0517578,0.000499147,-0.000787701,-0.000200212,0.000529577,-0.000818131,-0.150835,0.000784022,0.0356941,657,1016,-0.15639,-0.0517407
-560,8,-0.21106,0.0704956,0.000825922,-0.00098896,-0.00036749,0.00089751,-0.00106055,-0.192394,0.00113179,0.0353153,664,1016,-0.211076,-0.0704662
-553,8,-0.055481,0.10907,0.00128984,-0.00121073,-0.00064224,0.00144514,-0.00136604,-0.237264,0.00162325,0.0349526,671,1016,-0.0554853,-0.109081
-546,8,-0.00524902,0.0480347,0.00191446,-0.00145543,-0.0010786,0.00223012,-0.00177108,-0.284706,0.00231516,0.0351944,678,1016,-0.00527288,-0.0480165
-539,8,-0.122314,-0.00836182,0.00272837,-0.00172717,-0.00170497,0.00330593,-0.00230473,-0.32662,0.00325647,0.0371495,685,1016,-0.122306,0.00835638
-532,8,-0.0906982,-0.16925,0.00375386,-0.00201742,-0.00257298,0.00473438,-0.00299793,-0.364091,0.00450162,0.03869,692,1016,-0.0907167,0.169225
-525,8,0,0,0,0,0,0,0,0,0,-1,699,1016,0,0
-518,8,0,0,0,0,0,0,0,0,0,-1,706,1016,0,0
-511,8,0,0,0,0,0,0,0,0,0,-1,713,1016,0,0
-504,8,0,0,0,0,0,0,0,0,0,-1,720,1016,0,0
-497,8,0,0,0,0,0,0,0,0,0,-1,727,1016,0,0
-490,8,0,0,0,0,0,0,0,0,0,-1,734,1016,0,0
-483,8,0,0,0,0,0,0,0,0,0,-1,741,1016,0,0
-476,8,0,0,0,0,0,0,0,0,0,-1,748,1016,0,0
-469,8,0,0,0,0,0,0,0,0,0,-1,755,1016,0,0
-462,8,0,0,0,0,0,0,0,0,0,-1,762,1016,0,0
-455,8,0,0,0,0,0,0,0,0,0,-1,769,1016,0,0
-448,8,0,0,0,0,0,0,0,0,0,-1,776,1016,0,0
-441,8,0,0,0,0,0,0,0,0,0,-1,783,1016,0,0
-434,8,0,0,0,0,0,0,0,0,0,-1,790,1016,0,0
-427,8,0,0,0,0,0,0,0,0,0,-1,797,1016,0,0
-420,8,0,0,0,0,0,0,0,0,0,-1,804,1016,0,0
-413,8,0,0,0,0,0,0,0,0,0,-1,811,1016,0,0
-406,8,0,0,0,0,0,0,0,0,0,-1,818,1016,0,0
-399,8,0,0,0,0,0,0,0,0,0,-1,825,1016,0,0
-392,8,0,0,0,0,0,0,0,0,0,-1,832,1016,0,0
-385,8,0,0,0,0,0,0,0,0,0,-1,839,1016,0,0
-378,8,0,0,0,0,0,0,0,0,0,-1,846,1016,0,0
-371,8,0,0,0,0,0,0,0,0,0,-1,853,1016,0,0
-364,8,0,0,0,0,0,0,0,0,0,-1,860,1016,0,0
-357,8,0,0,0,0,0,0,0,0,0,-1,867,1016,0,0
-350,8,0,0,0,0,0,0,0,0,0,-1,874,1016,0,0
-343,8,0,0,0,0,0,0,0,0,0,-1,881,1016,0,0
-336,8,0,0,0,0,0,0,0,0,0,-1,888,1016,0,0
-329,8,0,0,0,0,0,0,0,0,0,-1,895,1016,0,0
-322,8,0,0,0,0,0,0,0,0,0,-1,902,1016,0,0
-315,8,0,0,0,0,0,0,0,0,0,-1,909,1016,0,0
-308,8,0,0,0,0,0,0,0,0,0,-1,916,1016,0,0
-301,8,0,0,0,0,0,0,0,0,0,-1,923,1016,0,0
-294,8,0,0,0,0,0,0,0,0,0,-1,930,1016,0,0
-287,8,0,0,0,0,0,0,0,0,0,-1,937,1016,0,0
-280,8,0,0,0,0,0,0,0,0,0,-1,944,1016,0,0
-273,8,0,0,0,0,0,0,0,0,0,-1,951,1016,0,0
-266,8,0,0,0,0,0,0,0,0,0,-1,958,1016,0,0
-259,8,0,0,0,0,0,0,0,0,0,-1,965,1016,0,0
-252,8,0,0,0,0,0,0,0,0,0,-1,972,1016,0,0
-245,8,0,0,0,0,0,0,0,0,0,-1,979,1016,0,0
-238,8,0,0,0,0,0,0,0,0,0,-1,986,1016,0,0
-231,8,0,0,0,0,0,0,0,0,0,-1,993,1016,0,0
-224,8,0,0,0,0,0,0,0,0,0,-1,1000,1016,0,0
-217,8,0,0,0,0,0,0,0,0,0,-1,1007,1016,0,0
-210,8,0,0,0,0,0,0,0,0,0,-1,1014,1016,0,0
-203,8,0,0,0,0,0,0,0,0,0,-1,1021,1016,0,0
-196,8,0,0,0,0,0,0,0,0,0,-1,1028,1016,0,0
-189,8,0,0,0,0,0,0,0,0,0,-1,1035,1016,0,0
-182,8,0,0,0,0,0,0,0,0,0,-1,1042,1016,0,0
-175,8,0,0,0,0,0,0,0,0,0,-1,1049,1016,0,0
-168,8,0,0,0,0,0,0,0,0,0,-1,1056,1016,0,0
-161,8,0,0,0,0,0,0,0,0,0,-1,1063,1016,0,0
-154,8,0,0,0,0,0,0,0,0,0,-1,1070,1016,0,0
-147,8,0,0,0,0,0,0,0,0,0,-1,1077,1016,0,0
-140,8,0,0,0,0,0,0,0,0,0,-1,1084,1016,0,0
-133,8,0,0,0,0,0,0,0,0,0,-1,1091,1016,0,0
-126,8,0,0,0,0,0,0,0,0,0,-1,1098,1016,0,0
-119,8,0,0,0,0,0,0,0,0,0,-1,1105,1016,0,0
-112,8,0,0,0,0,0,0,0,0,0,-1,1112,1016,0,0
-105,8,0,0,0,0,0,0,0,0,0,-1,1119,1016,0,0
-98,8,0,0,0,0,0,0,0,0,0,-1,1126,1016,0,0
-91,8,0,0,0,0,0,0,0,0,0,-1,1133,1016,0,0
-84,8,0,0,0,0,0,0,0,0,0,-1,1140,1016,0,0
-77,8,0,0,0,0,0,0,0,0,0,-1,1147,1016,0,0
-70,8,0,0,0,0,0,0,0,0,0,-1,1154,1016,0,0
-63,8,0,0,0,0,0,0,0,0,0,-1,1161,1016,0,0
-56,8,0,0,0,0,0,0,0,0,0,-1,1168,1016,0,0
-49,8,0,0,0,0,0,0,0,0,0,-1,1175,1016,0,0
-42,8,0,0,0,0,0,0,0,0,0,-1,1182,1016,0,0
-35,8,0,0,0,0,0,0,0,0,0,-1,1189,1016,0,0
-28,8,0,0,0,0,0,0,0,0,0,-1,1196,1016,0,0
-21,8,0,0,0,0,0,0,0,0,0,-1,1203,1016,0,0
-14,8,0,0,0,0,0,0,0,0,0,-1,1210,1016,0,0
-7,8,0,0,0,0,0,0,0,0,0,-1,1217,1016,0,0
0,8,0,0,0,0,0,0,0,0,0,-1,1224,1016,0,0
7,8,0,0,0,0,0,0,0,0,0,-1,1231,1016,0,0
14,8,0,0,0,0,0,0,0,0,0,-1,1238,1016,0,0
21,8,0,0,0,0,0,0,0,0,0,-1,1245,1016,0,0
28,8,0,0,0,0,0,0,0,0,0,-1,1252,1016,0,0
35,8,0,0,0,0,0,0,0,0,0,-1,1259,1016,0,0
42,8,0,0,0,0,0,0,0,0,0,-1,1266,1016,0,0
49,8,0,0,0,0,0,0,0,0,0,-1,1273,1016,0,0
56,8,0,0,0,0,0,0,0,0,0,-1,1280,1016,0,0
63,8,0,0,0,0,0,0,0,0,0,-1,1287,1016,0,0
70,8,0,0,0,0,0,0,0,0,0,-1,1294,1016,0,0
77,8,0,0,0,0,0,0,0,0,0,-1,1301,1016,0,0
84,8,0,0,0,0,0,0,0,0,0,-1,1308,1016,0,0
91,8,0,0,0,0,0,0,0,0,0,-1,1315,1016,0,0
98,8,0,0,0,0,0,0,0,0,0,-1,1322,1016,0,0
105,8,0,0,0,0,0,0,0,0,0,-1,1329,1016,0,0
112,8,0,0,0,0,0,0,0,0,0,-1,1336,1016,0,0
119,8,0,0,0,0,0,0,0,0,0,-1,1343,1016,0,0
126,8,0,0,0,0,0,0,0,0,0,-1,1350,1016,0,0
133,8,0,0,0,0,0,0,0,0,0,-1,1357,1016,0,0
140,8,0,0,0,0,0,0,0,0,0,-1,1364,1016,0,0
147,8,0,0,0,0,0,0,0,0,0,-1,1371,1016,0,0
154,8,0,0,0,0,0,0,0,0,0,-1,1378,1016,0,0
161,8,0,0,0,0,0,0,0,0,0,-1,1385,1016,0,0
168,8,0,0,0,0,0,0,0,0,0,-1,1392,1016,0,0
175,8,0,0,0,0,0,0,0,0,0,-1,1399,1016,0,0
182,8,0,0,0,0,0,0,0,0,0,-1,1406,1016,0,0
189,8,0,0,0,0,0,0,0,0,0,-1,1413,1016,0,0
196,8,0,0,0,0,0,0,0,0,0,-1,1420,1016,0,0
203,8,0,0,0,0,0,0,0,0,0,-1,1427,1016,0,0
210,8,0,0,0,0,0,0,0,0,0,-1,1434,1016,0,0
217,8,0,0,0,0,0,0,0,0,0,-1,1441,1016,0,0
224,8,0,0,0,0,0,0,0,0,0,-1,1448,1016,0,0
231,8,0,0,0,0,0,0,0,0,0,-1,1455,1016,0,0
238,8,0,0,0,0,0,0,0,0,0,-1,1462,1016,0,0
245,8,0,0,0,0,0,0,0,0,0,-1,1469,1016,0,0
252,8,0,0,0,0,0,0,0,0,0,-1,1476,1016,0,0
259,8,0,0,0,0,0,0,0,0,0,-1,1483,1016,0,0
266,8,0,0,0,0,0,0,0,0,0,-1,1490,1016,0,0
273,8,0,0,0,0,0,0,0,0,0,-1,1497,1016,0,0
280,8,0,0,0,0,0,0,0,0,0,-1,1504,1016,0,0
287,8,0,0,0,0,0,0,0,0,0,-1,1511,1016,0,0
294,8,0,0,0,0,0,0,0,0,0,-1,1518,1016,0,0
301,8,0,0,0,0,0,0,0,0,0,-1,1525,1016,0,0
308,8,0,0,0,0,0,0,0,0,0,-1,1532,1016,0,0
315,8,0,0,0,0,0,0,0,0,0,-1,1539,1016,0,0
322,8,0,0,0,0,0,0,0,0,0,-1,1546,1016,0,0
329,8,0,0,0,0,0,0,0,0,0,-1,1553,1016,0,0
336,8,0,0,0,0,0,0,0,0,0,-1,1560,1016,0,0
343,8,0,0,0,0,0,0,0,0,0,-1,1567,1016,0,0
350,8,0,0,0,0,0,0,0,0,0,-1,1574,1016,0,0
357,8,0,0,0,0,0,0,0,0,0,-1,1581,1016,0,0
364,8,0,0,0,0,0,0,0,0,0,-1,1588,1016,0,0
371,8,0,0,0,0,0,0,0,0,0,-1,1595,1016,0,0
378,8,0,0,0,0,0,0,0,0,0,-1,1602,1016,0,0
385,8,0,0,0,0,0,0,0,0,0,-1,1609,1016,0,0
392,8,0,0,0,0,0,0,0,0,0,-1,1616,1016,0,0
399,8,0,0,0,0,0,0,0,0,0,-1,1623,1016,0,0
406,8,0,0,0,0,0,0,0,0,0,-1,1630,1016,0,0
413,8,0,0,0,0,0,0,0,0,0,-1,1637,1016,0,0
420,8,0,0,0,0,0,0,0,0,0,-1,1644,1016,0,0
427,8,0,0,0,0,0,0,0,0,0,-1,1651,1016,0,0
434,8,0,0,0,0,0,0,0,0,0,-1,1658,1016,0,0
441,8,0,0,0,0,0,0,0,0,0,-1,1665,1016,0,0
448,8,0,0,0,0,0,0,0,0,0,-1,1672,1016,0,0
455,8,0,0,0,0,0,0,0,0,0,-1,1679,1016,0,0
462,8,0,0,0,0,0,0,0,0,0,-1,1686,1016,0,0
469,8,0,0,0,0,0,0,0,0,0,-1,1693,1016,0,0
476,8,0,0,0,0,0,0,0,0,0,-1,1700,1016,0,0
483,8,0,0,0,0,0,0,0,0,0,-1,1707,1016,0,0
490,8,0,0,0,0,0,0,0,0,0,-1,1714,1016,0,0
497,8,0,0,0,0,0,0,0,0,0,-1,1721,1016,0,0
504,8,0,0,0,0,0,0,0,0,0,-1,1728,1016,0,0
511,8,0,0,0,0,0,0,0,0,0,-1,1735,1016,0,0
518,8,0,0,0,0,0,0,0,0,0,-1,1742,1016,0,0
525,8,0,0,0,0,0,0,0,0,0,-1,1749,1016,0,0
532,8,0,0,0,0,0,0,0,0,0,-1,1756,1016,0,0
539,8,0,0,0,0,0,0,0,0,0,-1,1763,1016,0,0
546,8,0,0,0,0,0,0,0,0,0,-1,1770,1016,0,0
553,8,0,0,0,0,0,0,0,0,0,-1,1777,1016,0,0
560,8,0,0,0,0,0,0,0,0,0,-1,1784,1016,0,0
567,8,0,0,0,0,0,0,0,0,0,-1,1791,1016,0,0
574,8,0,0,0,0,0,0,0,0,0,-1,1798,1016,0,0
581,8,0,0,0,0,0,0,0,0,0,-1,1805,1016,0,0
588,8,0,0,0,0,0,0,0,0,0,-1,1812,1016,0,0
595,8,0,0,0,0,0,0,0,0,0,-1,1819,1016,0,0
602,8,0,0,0,0,0,0,0,0,0,-1,1826,1016,0,0
609,8,0,0,0,0,0,0,0,0,0,-1,1833,1016,0,0
616,8,0,0,0,0,0,0,0,0,0,-1,1840,1016,0,0
623,8,0,0,0,0,0,0,0,0,0,-1,1847,1016,0,0
630,8,0,0,0,0,0,0,0,0,0,-1,1854,1016,0,0
637,8,0,0,0,0,0,0,0,0,0,-1,1861,1016,0,0
644,8,0.00646973,0.0336304,-0.00408065,-0.00131331,0.00548732,0.00296211,-0.00835607,0.908902,0.0067774,0.0389309,1868,1016,0.00648096,-0.0336159
651,8,-0.0759277,0.0765991,-0.00282019,-0.000681068,0.00354179,0.00194913,-0.00545039,0.932036,0.00442866,0.0350621,1875,1016,-0.0758861,-0.0765736
658,8,-0.0839844,0.111633,-0.00196214,-0.000259752,0.00223862,0.00128404,-0.00350593,0.967073,0.00286295,0.0335443,1882,1016,-0.0840054,-0.111637
665,8,-0.0924072,0.127014,-0.00135091,7.78726e-06,0.0013793,0.000865966,-0.00220909,1.01422,0.00183096,0.0349738,1889,1016,-0.0924505,-0.127022
672,8,-0.0887451,0.0599976,-0.000842533,0.000166284,0.000821276,0.000625681,-0.00130193,1.06079,0.00113551,0.0359923,1896,1016,-0.0887237,-0.0600074
679,8,-0.118896,0.0789795,-0.000504825,0.000245247,0.000486341,0.00048436,-0.000743939,1.11384,0.000714418,0.0349534,1903,1016,-0.118855,-0.0789897
686,8,-0.069458,-0.00830078,-0.000288568,0.000271589,0.000307952,0.000407778,-0.000424757,1.15441,0.000480698,0.0359799,1910,1016,-0.0694369,0.00832393
693,8,-0.065918,-0.0264282,-0.000123284,0.000263576,0.000238901,0.000377536,-0.000237244,1.1257,0.000358011,0.0357244,1917,1016,-0.0659235,0.0264445
700,8,-0.0219727,-0.00128174,-5.34401e-06,0.000269676,0.000184979,0.000362657,-9.83253e-05,1.10502,0.000280354,0.0286209,1924,1016,-0.0219565,0.00126329
707,8,-0.0429688,0.0176392,9.35418e-05,0.000231303,0.000108226,0.000290709,3.41364e-05,1.0688,0.000183489,0.0191704,1931,1016,-0.0429602,-0.0176226
714,8,-0.0592041,0.0439453,0.000103167,0.000182768,0.000120546,0.000269914,1.60212e-05,0.944849,0.000174847,0.0132812,1938,1016,-0.0591714,-0.0439347
721,8,-0.0270996,0.0759888,6.8877e-05,0.00011443,0.000209182,0.000302072,-0.000118765,0.839626,0.000250536,0.0111833,1945,1016,-0.0271412,-0.0759863
728,8,-0.0452881,0.0900879,0.000114187,5.04894e-05,0.000284076,0.000368194,-0.000203518,0.729574,0.000334611,0.012292,1952,1016,-0.0452867,-0.0900661
735,8,-0.05896,0.0594482,0.000191491,-2.32589e-05,0.000336141,0.00043699,-0.000268758,0.630803,0.000411304,0.0137016,1959,1016,-0.0589774,-0.0594705
742,8,-0.0603027,0.0496826,0.00019284,-5.58476e-05,0.00029034,0.000384342,-0.00024735,0.58308,0.000367555,0.0111607,1966,1016,-0.0602525,-0.0496775
749,8,-0.0455322,0.0663452,0.000624969,0.000175168,-5.61693e-05,0.000631877,0.00016826,-0.122373,0.000377866,0.0079708,1973,1016,-0.0455831,-0.0663674
756,8,-0.032959,0.0637817,0.00148301,0.000366268,-0.00057613,0.00172695,0.000122328,-0.400525,0.00111277,0.0109047,1980,1016,-0.0330136,-0.0637864
763,8,-0.0488281,0.0632324,0.00229453,-0.000244363,-0.000984521,0.00263157,-0.000581396,-0.329827,0.00197688,0.0118633,1987,1016,-0.0487959,-0.0632417
770,8,-0.0480957,0.0764771,0.00328195,-0.000483828,-0.00153356,0.00382744,-0.00102933,-0.341751,0.00295511,0.013168,1994,1016,-0.0480379,-0.0764633
777,8,-0.0185547,0.083374,0.00464184,-0.000917744,-0.0022439,0.0054345,-0.00171039,-0.339564,0.00430784,0.0187397,2001,1016,-0.0186122,-0.0833785
784,8,0.00866699,0.0811157,0.00639097,-0.00167595,-0.0031442,0.00747168,-0.00275666,-0.331067,0.0061109,0.0373858,2008,1016,0.00870823,-0.0811131
791,8,-0.450562,0.003479,0,0,0,0,0,0,0,-1,2015,1016,-0.450522,-0.00349341
798,8,-0.0915527,-0.393555,0.0111766,-0.00502109,-0.00556065,0.0129018,-0.00674631,-0.300838,0.0115279,0.0440137,2022,1016,-0.091584,0.393585
805,8,0.262573,-0.805725,0.0143864,-0.0083274,-0.00704101,0.0163919,-0.0103329,-0.277489,0.0155612,0.0446625,2029,1016,0.262512,0.805732
812,8,0.499634,-1.50879,0,0,0,0,0,0,0,-1,2036,1016,0.499592,1.50879
-700,1,0,0,0,0,0,0,0,0,0,-1,524,1023,0,0
-693,1,0.206055,0.644348,0,0,0,0,0,0,0,-1,531,1023,0.20604,-0.644371
-686,1,0.141785,0.550598,-0.0304553,0.0321035,-0.0151973,0.0355999,-0.0339517,-1.34466,0.0401594,0.0441987,538,1023,0.141756,-0.550609
-679,1,0.079834,0.718445,-0.0266294,0.0274852,-0.010609,0.0294907,-0.0286349,-1.38396,0.0335601,0.0464547,545,1023,0.0798431,-0.718466
-672,1,0.0678711,0.336487,-0.0225735,0.0229234,-0.00714509,0.0240191,-0.0236692,-1.41863,0.0275331,0.0452054,552,1023,0.0678862,-0.336499
-665,1,0.0714111,0.230042,-0.0184026,0.0185859,-0.00459799,0.0191489,-0.0189656,-1.44896,0.0220055,0.0447429,559,1023,0.0714241,-0.230062
-658,1,-0.00201416,0.137939,-0.0143665,0.0146136,-0.00279917,0.0148814,-0.0146344,-1.47538,0.0170412,0.0308994,566,1023,-0.00198961,-0.137912
-651,1,-0.0490112,0.0860596,-0.0107064,0.0111117,-0.0015996,0.0112284,-0.0108231,-1.498,0.0127321,0.0132501,573,1023,-0.0490033,-0.0860642
-644,1,-0.0221558,0.0714722,-0.00760558,0.00815268,-0.000844499,0.00819781,-0.00765071,-1.51741,0.00915196,0.0095377,580,1023,-0.022128,-0.0714825
-637,1,-0.0147705,0.0545044,-0.00475049,0.00552728,-0.000111841,0.0055285,-0.0047517,-1.55992,0.00594092,0.00794386,587,1023,-0.0147539,-0.054511
-630,1,-0.0331421,0.0492554,-0.00251218,0.00342102,0.000325767,0.00343885,-0.00253001,1.51611,0.00345942,0.0111946,594,1023,-0.0331419,-0.0492367
-623,1,-0.0415649,0.0496216,-0.00135141,0.00228189,0.000247579,0.00229868,-0.00136821,1.50307,0.00213968,0.0123188,601,1023,-0.0415932,-0.0496145
-616,1,-0.0159912,0.0704956,-0.000677749,0.00122663,-0.000131709,0.0012357,-0.000686815,-1.50207,0.00112494,0.0144983,608,1023,-0.0159959,-0.0705027
-609,1,0.00189209,0.0941772,-0.000164424,0.000649509,7.09961e-05,0.000655655,-0.00017057,1.48444,0.000503681,0.0151906,615,1023,0.00187239,-0.0941547
-602,1,-0.0263672,0.0649414,-2.13586e-05,-0.000180937,2.12108e-05,-1.85875e-05,-0.000183708,0.129913,0.00011677,0.0132336,622,1023,-0.0263875,-0.0649424
-595,1,-0.0430908,0.064209,-3.84801e-05,-0.000223902,-6.59171e-08,-3.84801e-05,-0.000223902,-0.000355498,0.000138238,0.0124777,629,1023,-0.0431183,-0.0642204
-588,1,-0.0516357,0.0878906,2.3284e-05,-0.000284379,5.48866e-06,2.33819e-05,-0.000284477,0.0178323,0.000197906,0.0172612,636,1023,-0.0516635,-0.0878766
-581,1,-0.0488281,0.0935669,0.000109679,-0.000358577,-5.37289e-05,0.000115765,-0.000364663,-0.11279,0.000289518,0.0242923,643,1023,-0.048807,-0.0935486
-574,1,-0.0704956,0.083374,0.000308177,-0.000499738,-9.84421e-05,0.000319999,-0.00051156,-0.119517,0.000484328,0.0330888,650,1023,-0.0704932,-0.0834042
-567,1,-0.0800171,0.00390625,0.000504093,-0.000622147,-0.000182911,0.000533055,-0.000651108,-0.157033,0.000684809,0.0383871,657,1023,-0.0800202,-0.0038792
-560,1,-0.0310669,0.0970459,0.000778305,-0.000748424,-0.000341452,0.000851191,-0.00082131,-0.210303,0.00096567,0.0375846,664,1023,-0.0310423,-0.0970537
-553,1,-0.0731812,0.0978394,0.00115557,-0.000875505,-0.000598779,0.00131895,-0.00103889,-0.266375,0.0013645,0.035762,671,1023,-0.0731765,-0.0978673
-546,1,-0.0368652,-0.0789795,0.00164401,-0.00100291,-0.00100255,0.00198087,-0.00133977,-0.324149,0.00192905,0.0363781,678,1023,-0.0368517,0.0789719
-539,1,-0.0279541,-0.218628,0.00225063,-0.00113527,-0.00157274,0.00286844,-0.00175308,-0.374302,0.00269401,0.0367189,685,1023,-0.0279617,0.218656
-532,1,-0.105957,-0.24408,0.00295614,-0.00126476,-0.00234905,0.00400354,-0.00231216,-0.419426,0.0036897,0.0391375,692,1023,-0.105971,0.24406
-525,1,0,0,0,0,0,0,0,0,0,-1,699,1023,0,0
-518,1,0,0,0,0,0,0,0,0,0,-1,706,1023,0,0
-511,1,0,0,0,0,0,0,0,0,0,-1,713,1023,0,0
-504,1,0,0,0,0,0,0,0,0,0,-1,720,1023,0,0
-497,1,0,0,0,0,0,0,0,0,0,-1,727,1023,0,0
-490,1,0,0,0,0,0,0,0,0,0,-1,734,1023,0,0
-483,1,0,0,0,0,0,0,0,0,0,-1,741,1023,0,0
-476,1,0,0,0,0,0,0,0,0,0,-1,748,1023,0,0
-469,1,0,0,0,0,0,0,0,0,0,-1,755,1023,0,0
-462,1,0,0,0,0,0,0,0,0,0,-1,762,1023,0,0
-455,1,0,0,0,0,0,0,0,0,0,-1,769,1023,0,0
-448,1,0,0,0,0,0,0,0,0,0,-1,776,1023,0,0
-441,1,0,0,0,0,0,0,0,0,0,-1,783,1023,0,0
-434,1,0,0,0,0,0,0,0,0,0,-1,790,1023,0,0
-427,1,0,0,0,0,0,0,0,0,0,-1,797,1023,0,0
-420,1,0,0,0,0,0,0,0,0,0,-1,804,1023,0,0
-413,1,0,0,0,0,0,0,0,0,0,-1,811,1023,0,0
-406,1,0,0,0,0,0,0,0,0,0,-1,818,1023,0,0
-399,1,0,0,0,0,0,0,0,0,0,-1,825,1023,0,0
-392,1,0,0,0,0,0,0,0,0,0,-1,832,1023,0,0
-385,1,0,0,0,0,0,0,0,0,0,-1,839,1023,0,0
-378,1,0,0,0,0,0,0,0,0,0,-1,846,1023,0,0
-371,1,0,0,0,0,0,0,0,0,0,-1,853,1023,0,0
-364,1,0,0,0,0,0,0,0,0,0,-1,860,1023,0,0
-357,1,0,0,0,0,0,0,0,0,0,-1,867,1023,0,0
-350,1,0,0,0,0,0,0,0,0,0,-1,874,1023,0,0
-343,1,0,0,0,0,0,0,0,0,0,-1,881,1023,0,0
-336,1,0,0,0,0,0,0,0,0,0,-1,888,1023,0,0
-329,1,0,0,0,0,0,0,0,0,0,-1,895,1023,0,0
-322,1,0,0,0,0,0,0,0,0,0,-1,902,1023,0,0
-315,1,0,0,0,0,0,0,0,0,0,-1,909,1023,0,0
-308,1,0,0,0,0,0,0,0,0,0,-1,916,1023,0,0
-301,1,0,0,0,0,0,0,0,0,0,-1,923,1023,0,0
-294,1,0,0,0,0,0,0,0,0,0,-1,930,1023,0,0
-287,1,0,0,0,0,0,0,0,0,0,-1,937,1023,0,0
-280,1,0,0,0,0,0,0,0,0,0,-1,944,1023,0,0
-273,1,0,0,0,0,0,0,0,0,0,-1,951,1023,0,0
-266,1,0,0,0,0,0,0,0,0,0,-1,958,1023,0,0
-259,1,0,0,0,0,0,0,0,0,0,-1,965,1023,0,0
-252,1,0,0,0,0,0,0,0,0,0,-1,972,1023,0,0
-245,1,0,0,0,0,0,0,0,0,0,-1,979,1023,0,0
-238,1,0,0,0,0,0,0,0,0,0,-1,986,1023,0,0
-231,1,0,0,0,0,0,0,0,0,0,-1,993,1023,0,0
-224,1,0,0,0,0,0,0,0,0,0,-1,1000,1023,0,0
-217,1,0,0,0,0,0,0,0,0,0,-1,1007,1023,0,0
-210,1,0,0,0,0,0,0,0,0,0,-1,1014,1023,0,0
-203,1,0,0,0,0,0,0,0,0,0,-1,1021,1023,0,0
-196,1,0,0,0,0,0,0,0,0,0,-1,1028,1023,0,0
-189,1,0,0,0,0,0,0,0,0,0,-1,1035,1023,0,0
-182,1,0,0,0,0,0,0,0,0,0,-1,1042,1023,0,0
-175,1,0,0,0,0,0,0,0,0,0,-1,1049,1023,0,0
-168,1,0,0,0,0,0,0,0,0,0,-1,1056,1023,0,0
-161,1,0,0,0,0,0,0,0,0,0,-1,1063,1023,0,0
-154,1,0,0,0,0,0,0,0,0,0,-1,1070,1023,0,0
-147,1,0,0,0,0,0,0,0,0,0,-1,1077,1023,0,0
-140,1,0,0,0,0,0,0,0,0,0,-1,1084,1023,0,0
-133,1,0,0,0,0,0,0,0,0,0,-1,1091,1023,0,0
-126,1,0,0,0,0,0,0,0,0,0,-1,1098,1023,0,0
-119,1,0,0,0,0,0,0,0,0,0,-1,1105,1023,0,0
-112,1,0,0,0,0,0,0,0,0,0,-1,1112,1023,0,0
-105,1,0,0,0,0,0,0,0,0,0,-1,1119,1023,0,0
-98,1,0,0,0,0,0,0,0,0,0,-1,1126,1023,0,0
-91,1,0,0,0,0,0,0,0,0,0,-1,1133,1023,0,0
-84,1,0,0,0,0,0,0,0,0,0,-1,1140,1023,0,0
-77,1,0,0,0,0,0,0,0,0,0,-1,1147,1023,0,0
-70,1,0,0,0,0,0,0,0,0,0,-1,1154,1023,0,0
-63,1,0,0,0,0,0,0,0,0,0,-1,1161,1023,0,0
-56,1,0,0,0,0,0,0,0,0,0,-1,1168,1023,0,0
-49,1,0,0,0,0,0,0,0,0,0,-1,1175,1023,0,0
-42,1,0,0,0,0,0,0,0,0,0,-1,1182,1023,0,0
-35,1,0,0,0,0,0,0,0,0,0,-1,1189,1023,0,0
-28,1,0,0,0,0,0,0,0,0,0,-1,1196,1023,0,0
-21,1,0,0,0,0,0,0,0,0,0,-1,1203,1023,0,0
-14,1,0,0,0,0,0,0,0,0,0,-1,1210,1023,0,0
-7,1,0,0,0,0,0,0,0,0,0,-1,1217,1023,0,0
0,1,0,0,0,0,0,0,0,0,0,-1,1224,1023,0,0
7,1,0,0,0,0,0,0,0,0,0,-1,1231,1023,0,0
14,1,0,0,0,0,0,0,0,0,0,-1,1238,1023,0,0
21,1,0,0,0,0,0,0,0,0,0,-1,1245,1023,0,0
28,1,0,0,0,0,0,0,0,0,0,-1,1252,1023,0,0
35,1,0,0,0,0,0,0,0,0,0,-1,1259,1023,0,0
42,1,0,0,0,0,0,0,0,0,0,-1,1266,1023,0,0
49,1,0,0,0,0,0,0,0,0,0,-1,1273,1023,0,0
56,1,0,0,0,0,0,0,0,0,0,-1,1280,1023,0,0
63,1,0,0,0,0,0,0,0,0,0,-1,1287,1023,0,0
70,1,0,0,0,0,0,0,0,0,0,-1,1294,1023,0,0
77,1,0,0,0,0,0,0,0,0,0,-1,1301,1023,0,0
84,1,0,0,0,0,0,0,0,0,0,-1,1308,1023,0,0
91,1,0,0,0,0,0,0,0,0,0,-1,1315,1023,0,0
98,1,0,0,0,0,0,0,0,0,0,-1,1322,1023,0,0
105,1,0,0,0,0,0,0,0,0,0,-1,1329,1023,0,0
112,1,0,0,0,0,0,0,0,0,0,-1,1336,1023,0,0
119,1,0,0,0,0,0,0,0,0,0,-1,1343,1023,0,0
126,1,0,0,0,0,0,0,0,0,0,-1,1350,1023,0,0
133,1,0,0,0,0,0,0,0,0,0,-1,1357,1023,0,0
140,1,0,0,0,0,0,0,0,0,0,-1,1364,1023,0,0
147,1,0,0,0,0,0,0,0,0,0,-1,1371,1023,0,0
154,1,0,0,0,0,0,0,0,0,0,-1,1378,1023,0,0
161,1,0,0,0,0,0,0,0,0,0,-1,1385,1023,0,0
168,1,0,0,0,0,0,0,0,0,0,-1,1392,1023,0,0
175,1,0,0,0,0,0,0,0,0,0,-1,1399,1023,0,0
182,1,0,0,0,0,0,0,0,0,0,-1,1406,1023,0,0
189,1,0,0,0,0,0,0,0,0,0,-1,1413,1023,0,0
196,1,0,0,0,0,0,0,0,0,0,-1,1420,1023,0,0
203,1,0,0,0,0,0,0,0,0,0,-1,1427,1023,0,0
210,1,0,0,0,0,0,0,0,0,0,-1,1434,1023,0,0
217,1,0,0,0,0,0,0,0,0,0,-1,1441,1023,0,0
224,1,0,0,0,0,0,0,0,0,0,-1,1448,1023,0,0
231,1,0,0,0,0,0,0,0,0,0,-1,1455,1023,0,0
238,1,0,0,0,0,0,0,0,0,0,-1,1462,1023,0,0
245,1,0,0,0,0,0,0,0,0,0,-1,1469,1023,0,0
252,1,0,0,0,0,0,0,0,0,0,-1,1476,1023,0,0
259,1,0,0,0,0,0,0,0,0,0,-1,1483,1023,0,0
266,1,0,0,0,0,0,0,0,0,0,-1,1490,1023,0,0
273,1,0,0,0,0,0,0,0,0,0,-1,1497,1023,0,0
280,1,0,0,0,0,0,0,0,0,0,-1,1504,1023,0,0
287,1,0,0,0,0,0,0,0,0,0,-1,1511,1023,0,0
294,1,0,0,0,0,0,0,0,0,0,-1,1518,1023,0,0
301,1,0,0,0,0,0,0,0,0,0,-1,1525,1023,0,0
308,1,0,0,0,0,0,0,0,0,0,-1,1532,1023,0,0
315,1,0,0,0,0,0,0,0,0,0,-1,1539,1023,0,0
322,1,0,0,0,0,0,0,0,0,0,-1,1546,1023,0,0
329,1,0,0,0,0,0,0,0,0,0,-1,1553,1023,0,0
336,1,0,0,0,0,0,0,0,0,0,-1,1560,1023,0,0
343,1,0,0,0,0,0,0,0,0,0,-1,1567,1023,0,0
350,1,0,0,0,0,0,0,0,0,0,-1,1574,1023,0,0
357,1,0,0,0,0,0,0,0,0,0,-1,1581,1023,0,0
364,1,0,0,0,0,0,0,0,0,0,-1,1588,1023,0,0
371,1,0,0,0,0,0,0,0,0,0,-1,1595,1023,0,0
378,1,0,0,0,0,0,0,0,0,0,-1,1602,1023,0,0
385,1,0,0,0,0,0,0,0,0,0,-1,1609,1023,0,0
392,1,0,0,0,0,0,0,0,0,0,-1,1616,1023,0,0
399,1,0,0,0,0,0,0,0,0,0,-1,1623,1023,0,0
406,1,0,0,0,0,0,0,0,0,0,-1,1630,1023,0,0
413,1,0,0,0,0,0,0,0,0,0,-1,1637,1023,0,0
420,1,0,0,0,0,0,0,0,0,0,-1,1644,1023,0,0
427,1,0,0,0,0,0,0,0,0,0,-1,1651,1023,0,0
434,1,0,0,0,0,0,0,0,0,0,-1,1658,1023,0,0
441,1,0,0,0,0,0,0,0,0,0,-1,1665,1023,0,0
448,1,0,0,0,0,0,0,0,0,0,-1,1672,1023,0,0
455,1,0,0,0,0,0,0,0,0,0,-1,1679,1023,0,0
462,1,0,0,0,0,0,0,0,0,0,-1,1686,1023,0,0
469,1,0,0,0,0,0,0,0,0,0,-1,1693,1023,0,0
476,1,0,0,0,0,0,0,0,0,0,-1,1700,1023,0,0
483,1,0,0,0,0,0,0,0,0,0,-1,1707,1023,0,0
490,1,0,0,0,0,0,0,0,0,0,-1,1714,1023,0,0
497,1,0,0,0,0,0,0,0,0,0,-1,1721,1023,0,0
504,1,0,0,0,0,0,0,0,0,0,-1,1728,1023,0,0
511,1,0,0,0,0,0,0,0,0,0,-1,1735,1023,0,0
518,1,0,0,0,0,0,0,0,0,0,-1,1742,1023,0,0
525,1,0,0,0,0,0,0,0,0,0,-1,1749,1023,0,0
532,1,0,0,0,0,0,0,0,0,0,-1,1756,1023,0,0
539,1,0,0,0,0,0,0,0,0,0,-1,1763,1023,0,0
546,1,0,0,0,0,0,0,0,0,0,-1,1770,1023,0,0
553,1,0,0,0,0,0,0,0,0,0,-1,1777,1023,0,0
560,1,0,0,0,0,0,0,0,0,0,-1,1784,1023,0,0
567,1,0,0,0,0,0,0,0,0,0,-1,1791,1023,0,0
574,1,0,0,0,0,0,0,0,0,0,-1,1798,1023,0,0
581,1,0,0,0,0,0,0,0,0,0,-1,1805,1023,0,0
588,1,0,0,0,0,0,0,0,0,0,-1,1812,1023,0,0
595,1,0,0,0,0,0,0,0,0,0,-1,1819,1023,0,0
602,1,0,0,0,0,0,0,0,0,0,-1,1826,1023,0,0
609,1,0,0,0,0,0,0,0,0,0,-1,1833,1023,0,0
616,1,0,0,0,0,0,0,0,0,0,-1,1840,1023,0,0
623,1,0,0,0,0,0,0,0,0,0,-1,1847,1023,0,0
630,1,0,0,0,0,0,0,0,0,0,-1,1854,1023,0,0
637,1,0,0,0,0,0,0,0,0,0,-1,1861,1023,0,0
644,1,0,0,0,0,0,0,0,0,0,-1,1868,1023,0,0
651,1,-0.0496826,0.0250244,-0.00323126,-0.000519221,0.00340109,0.00178621,-0.00553669,0.975092,0.00440884,0.0345331,1875,1023,-0.0496785,-0.0250312
658,1,-0.0827637,0.124268,-0.00224304,-0.000100199,0.00210095,0.00118676,-0.00352999,1.02119,0.00283302,0.035966,1882,1023,-0.0828219,-0.124268
665,1,-0.106934,0.13562,-0.00154164,0.000146657,0.00126859,0.000826289,-0.00222127,1.07897,0.00181991,0.0366858,1889,1023,-0.106908,-0.135603
672,1,-0.105835,0.0342407,-0.000965303,0.000275842,0.000744399,0.000624414,-0.00131387,1.13286,0.00114243,0.0358884,1896,1023,-0.105825,-0.0342589
679,1,-0.1875,0.123352,-0.000575016,0.000323846,0.000443003,0.000505478,-0.000756647,1.1817,0.000733482,0.0347959,1903,1023,-0.187506,-0.12338
686,1,-0.179565,0.126526,-0.00032463,0.000319093,0.000292317,0.000432023,-0.00043756,1.20213,0.000502057,0.0351541,1910,1023,-0.179606,-0.12654
693,1,-0.134766,0.0818481,-0.000137985,0.00028308,0.000243006,0.000394069,-0.000248974,1.14236,0.000374398,0.0325734,1917,1023,-0.134736,-0.0818586
700,1,-0.0422363,0.0222168,-3.71739e-07,0.00026376,0.000210155,0.000379901,-0.000116512,1.06593,0.00029975,0.0278854,1924,1023,-0.0422623,-0.0222021
707,1,-0.0499268,-0.00292969,0.000110812,0.000204989,0.00013683,0.000302607,1.31942e-05,0.95112,0.000197487,0.0195425,1931,1023,-0.0499348,0.00292434
714,1,-0.0689697,0.0137329,0.000121841,0.000140999,0.000155806,0.00028752,-2.46797e-05,0.8161,0.000200414,0.0128083,1938,1023,-0.0689728,-0.0137098
721,1,-0.0400391,0.0592041,8.19311e-05,6.23023e-05,0.000246976,0.000319287,-0.000175054,0.765539,0.000289429,0.0115523,1945,1023,-0.0400522,-0.0592013
728,1,-0.0581055,0.0830688,0.000127422,-7.09839e-06,0.000311762,0.000379097,-0.000258774,0.679156,0.000370452,0.0107551,1952,1023,-0.0580913,-0.0830612
735,1,-0.0626221,0.0599365,0.000221305,-7.27011e-05,0.000331298,0.00043675,-0.000288145,0.576589,0.00042144,0.0117492,1959,1023,-0.0626588,-0.0599279
742,1,-0.0584717,0.0626831,0.000233207,-0.000110017,0.000228777,0.000347584,-0.000224393,0.463606,0.000332774,0.0103183,1966,1023,-0.0584706,-0.062658
749,1,-0.0397949,0.0755615,0.000650259,6.72e-05,-0.000174301,0.000698391,1.90673e-05,-0.269432,0.00045937,0.00906644,1973,1023,-0.0397702,-0.075546
756,1,-0.0324707,0.0783691,0.00148622,9.5292e-05,-0.000723958,0.00179464,-0.00021313,-0.402735,0.00127343,0.0101499,1980,1023,-0.0324837,-0.0783939
763,1,-0.0469971,0.0841064,0.0022653,-0.000575984,-0.0011465,0.00267023,-0.000980905,-0.339506,0.0021819,0.0120834,1987,1023,-0.0470076,-0.0840966
770,1,-0.0494385,0.0759277,0.00322664,-0.000959758,-0.00173454,0.00385192,-0.00158503,-0.345985,0.00322869,0.0125618,1994,1023,-0.0494184,-0.0759403
777,1,-0.0313721,0.0650024,0.00453917,-0.00159808,-0.00247565,0.0054133,-0.00247221,-0.339426,0.00465706,0.0155044,2001,1023,-0.0313507,-0.0650145
784,1,0.10437,0.119202,0.0062133,-0.00263389,-0.00338383,0.00735913,-0.00377972,-0.3265,0.00654077,0.0342678,2008,1023,0.104418,-0.11919
791,1,-0.0101318,-0.000488281,0.00824133,-0.00427128,-0.00445722,0.0096667,-0.00569665,-0.309512,0.00896821,0.0422686,2015,1023,-0.010103,0.000504436
798,1,0.0697021,-0.449768,0.0107243,-0.0068096,-0.00566082,0.0123931,-0.00847837,-0.286673,0.0121206,0.0444607,2022,1023,0.0696918,0.449784
805,1,0.239502,-1.08521,0,0,0,0,0,0,0,-1,2029,1023,0.239457,1.08524
812,1,-0.281006,-1.08008,0,0,0,0,0,0,0,-1,2036,1023,-0.280982,1.08011
-700,-6,0,0,0,0,0,0,0,0,0,-1,524,1030,0,0
-693,-6,-0.165833,0.900513,-0.00566676,0.0337359,-0.0248631,0.045757,-0.0176879,-1.12044,0.037806,0.0408163,531,1030,-0.165806,-0.900559
-686,-6,-0.0303955,0.707153,-0.0101457,0.0308469,-0.0177965,0.0374949,-0.0167938,-1.21329,0.0320942,0.0423283,538,1030,-0.0303708,-0.707147
-679,-6,0.101379,0.610718,-0.0123423,0.0271277,-0.0123869,0.0306931,-0.0159076,-1.29054,0.0273526,0.0442309,545,1030,0.10135,-0.610745
-672,-6,0.330261,0.332397,-0.0127268,0.0230436,-0.00831753,0.0248831,-0.0145663,-1.35315,0.0230343,0.0467492,552,1030,0.330245,-0.332423
-665,-6,0.304749,0.0668945,-0.0117892,0.0189208,-0.00535322,0.0198272,-0.0126956,-1.40307,0.0189269,0.0441093,559,1030,0.304736,-0.0668804
-658,-6,0.0501709,0.165283,-0.0100712,0.0150102,-0.00328077,0.0154322,-0.0104933,-1.44286,0.0150583,0.036871,566,1030,0.0501902,-0.165317
-651,-6,-0.024292,0.147949,-0.00803937,0.0114876,-0.00191211,0.011673,-0.00822484,-1.4741,0.0115454,0.0308492,573,1030,-0.0242745,-0.147996
-644,-6,-0.0209961,0.124023,-0.00604633,0.00847033,-0.00105937,0.00854724,-0.00612323,-1.49833,0.00850845,0.0218214,580,1030,-0.0209716,-0.124057
-637,-6,-0.0281982,0.0737305,-0.00415344,0.00588352,-0.000271827,0.00589088,-0.0041608,-1.54374,0.00583192,0.01216,587,1030,-0.0282105,-0.0736963
-630,-6,-0.0404663,0.0620117,-0.00253036,0.00371424,0.000231568,0.00372282,-0.00253893,1.53378,0.0036367,0.0118507,594,1030,-0.0404936,-0.0620689
-623,-6,-0.0368042,0.0535889,-0.00154867,0.00246212,0.000157543,0.00246829,-0.00155485,1.5316,0.00234264,0.0131459,601,1030,-0.0368273,-0.0535368
-616,-6,-0.0158691,0.0750732,-0.000908233,0.00137758,-0.000148038,0.00138712,-0.000917781,-1.50639,0.0013399,0.0142495,608,1030,-0.0158453,-0.0750224
-609,-6,-0.0020752,0.0783691,-0.000380942,0.000710247,1.96376e-05,0.0007106,-0.000381295,1.55281,0.000639891,0.0157199,615,1030,-0.00209926,-0.0783368
-602,-6,-0.0368652,0.0655518,-9.72543e-05,-0.000198619,1.92054e-06,-9.7218e-05,-0.000198656,0.0189377,0.000114703,0.0122992,622,1030,-0.0368868,-0.0655946
-595,-6,-0.0280762,0.0894775,3.03274e-05,-0.000226398,-1.02564e-05,3.07365e-05,-0.000226807,-0.0398664,0.000162422,0.0123838,629,1030,-0.0280874,-0.0895333
-588,-6,-0.0321655,0.0788574,0.000115762,-0.00026758,8.84841e-06,0.000115966,-0.000267785,0.0230659,0.000227264,0.0132032,636,1030,-0.0321483,-0.0788346
-581,-6,-0.048584,0.103882,0.000187671,-0.000308261,-4.38616e-05,0.000191521,-0.00031211,-0.0875373,0.000293537,0.0196806,643,1030,-0.0486027,-0.103926
-574,-6,-0.0215454,0.029541,0.000356755,-0.000393673,-8.03684e-05,0.000365266,-0.000402184,-0.105502,0.000443258,0.0280484,650,1030,-0.0215339,-0.0295651
-567,-6,0.0495605,-0.0374756,0.000519765,-0.000448969,-0.000162583,0.000546323,-0.000475527,-0.161922,0.000590437,0.0374746,657,1030,0.0495675,0.0374207
-560,-6,0.00537109,0.0787354,0.000729403,-0.000489979,-0.000311538,0.000804387,-0.000564963,-0.236195,0.000794612,0.0385221,664,1030,0.00537166,-0.0787665
-553,-6,-0.0979614,0.202026,0.00100608,-0.000511016,-0.000546509,0.00118245,-0.000687384,-0.312165,0.00109209,0.03661,671,1030,-0.0979507,-0.202086
-546,-6,-0.0205078,0.0598145,0.0013413,-0.000510127,-0.000904433,0.00170978,-0.00087861,-0.386886,0.00151987,0.0385141,678,1030,-0.020483,-0.0597737
-539,-6,0.0440063,0.109009,0.00172247,-0.000492437,-0.00139334,0.00239487,-0.00116483,-0.449612,0.00209569,0.0401829,685,1030,0.0439983,-0.10903
-532,-6,-0.0390015,0.318359,0.00209445,-0.000446748,-0.00203625,0.003224,-0.0015763,-0.506462,0.00282536,0.0398589,692,1030,-0.0390209,-0.31837
-525,-6,0,0,0,0,0,0,0,0,0,-1,699,1030,0,0
-518,-6,0,0,0,0,0,0,0,0,0,-1,706,1030,0,0
-511,-6,0,0,0,0,0,0,0,0,0,-1,713,1030,0,0
-504,-6,0,0,0,0,0,0,0,0,0,-1,720,1030,0,0
-497,-6,0,0,0,0,0,0,0,0,0,-1,727,1030,0,0
-490,-6,0,0,0,0,0,0,0,0,0,-1,734,1030,0,0
-483,-6,0,0,0,0,0,0,0,0,0,-1,741,1030,0,0
-476,-6,0,0,0,0,0,0,0,0,0,-1,748,1030,0,0
-469,-6,0,0,0,0,0,0,0,0,0,-1,755,1030,0,0
-462,-6,0,0,0,0,0,0,0,0,0,-1,762,1030,0,0
-455,-6,0,0,0,0,0,0,0,0,0,-1,769,1030,0,0
-448,-6,0,0,0,0,0,0,0,0,0,-1,776,1030,0,0
-441,-6,0,0,0,0,0,0,0,0,0,-1,783,1030,0,0
-434,-6,0,0,0,0,0,0,0,0,0,-1,790,1030,0,0
-427,-6,0,0,0,0,0,0,0,0,0,-1,797,1030,0,0
-420,-6,0,0,0,0,0,0,0,0,0,-1,804,1030,0,0
-413,-6,0,0,0,0,0,0,0,0,0,-1,811,1030,0,0
-406,-6,0,0,0,0,0,0,0,0,0,-1,818,1030,0,0
-399,-6,0,0,0,0,0,0,0,0,0,-1,825,1030,0,0
-392,-6,0,0,0,0,0,0,0,0,0,-1,832,1030,0,0
-385,-6,0,0,0,0,0,0,0,0,0,-1,839,1030,0,0
-378,-6,0,0,0,0,0,0,0,0,0,-1,846,1030,0,0
-371,-6,0,0,0,0,0,0,0,0,0,-1,853,1030,0,0
-364,-6,0,0,0,0,0,0,0,0,0,-1,860,1030,0,0
-357,-6,0,0,0,0,0,0,0,0,0,-1,867,1030,0,0
-350,-6,0,0,0,0,0,0,0,0,0,-1,874,1030,0,0
-343,-6,0,0,0,0,0,0,0,0,0,-1,881,1030,0,0
-336,-6,0,0,0,0,0,0,0,0,0,-1,888,1030,0,0
-329,-6,0,0,0,0,0,0,0,0,0,-1,895,1030,0,0
-322,-6,0,0,0,0,0,0,0,0,0,-1,902,1030,0,0
-315,-6,0,0,0,0,0,0,0,0,0,-1,909,1030,0,0
-308,-6,0,0,0,0,0,0,0,0,0,-1,916,1030,0,0
-301,-6,0,0,0,0,0,0,0,0,0,-1,923,1030,0,0
-294,-6,0,0,0,0,0,0,0,0,0,-1,930,1030,0,0
-287,-6,0,0,0,0,0,0,0,0,0,-1,937,1030,0,0
-280,-6,0,0,0,0,0,0,0,0,0,-1,944,1030,0,0
-273,-6,0,0,0,0,0,0,0,0,0,-1,951,1030,0,0
-266,-6,0,0,0,0,0,0,0,0,0,-1,958,1030,0,0
-259,-6,0,0,0,0,0,0,0,0,0,-1,965,1030,0,0
-252,-6,0,0,0,0,0,0,0,0,0,-1,972,1030,0,0
-245,-6,0,0,0,0,0,0,0,0,0,-1,979,1030,0,0
-238,-6,0,0,0,0,0,0,0,0,0,-1,986,1030,0,0
-231,-6,0,0,0,0,0,0,0,0,0,-1,993,1030,0,0
-224,-6,0,0,0,0,0,0,0,0,0,-1,1000,1030,0,0
-217,-6,0,0,0,0,0,0,0,0,0,-1,1007,1030,0,0
-210,-6,0,0,0,0,0,0,0,0,0,-1,1014,1030,0,0
-203,-6,0,0,0,0,0,0,0,0,0,-1,1021,1030,0,0
-196,-6,0,0,0,0,0,0,0,0,0,-1,1028,1030,0,0
-189,-6,0,0,0,0,0,0,0,0,0,-1,1035,1030,0,0
-182,-6,0,0,0,0,0,0,0,0,0,-1,1042,1030,0,0
-175,-6,0,0,0,0,0,0,0,0,0,-1,1049,1030,0,0
-168,-6,0,0,0,0,0,0,0,0,0,-1,1056,1030,0,0
-161,-6,0,0,0,0,0,0,0,0,0,-1,1063,1030,0,0
-154,-6,0,0,0,0,0,0,0,0,0,-1,1070,1030,0,0
-147,-6,0,0,0,0,0,0,0,0,0,-1,1077,1030,0,0
-140,-6,0,0,0,0,0,0,0,0,0,-1,1084,1030,0,0
-133,-6,0,0,0,0,0,0,0,0,0,-1,1091,1030,0,0
-126,-6,0,0,0,0,0,0,0,0,0,-1,1098,1030,0,0
-119,-6,0,0,0,0,0,0,0,0,0,-1,1105,1030,0,0
-112,-6,0,0,0,0,0,0,0,0,0,-1,1112,1030,0,0
-105,-6,0,0,0,0,0,0,0,0,0,-1,1119,1030,0,0
-98,-6,0,0,0,0,0,0,0,0,0,-1,1126,1030,0,0
-91,-6,0,0,0,0,0,0,0,0,0,-1,1133,1030,0,0
-84,-6,0,0,0,0,0,0,0,0,0,-1,1140,1030,0,0
-77,-6,0,0,0,0,0,0,0,0,0,-1,1147,1030,0,0
-70,-6,0,0,0,0,0,0,0,0,0,-1,1154,1030,0,0
-63,-6,0,0,0,0,0,0,0,0,0,-1,1161,1030,0,0
-56,-6,0,0,0,0,0,0,0,0,0,-1,1168,1030,0,0
-49,-6,0,0,0,0,0,0,0,0,0,-1,1175,1030,0,0
-42,-6,0,0,0,0,0,0,0,0,0,-1,1182,1030,0,0
-35,-6,0,0,0,0,0,0,0,0,0,-1,1189,1030,0,0
-28,-6,0,0,0,0,0,0,0,0,0,-1,1196,1030,0,0
-21,-6,0,0,0,0,0,0,0,0,0,-1,1203,1030,0,0
-14,-6,0,0,0,0,0,0,0,0,0,-1,1210,1030,0,0
-7,-6,0,0,0,0,0,0,0,0,0,-1,1217,1030,0,0
0,-6,0,0,0,0,0,0,0,0,0,-1,1224,1030,0,0
7,-6,0,0,0,0,0,0,0,0,0,-1,1231,1030,0,0
14,-6,0,0,0,0,0,0,0,0,0,-1,1238,1030,0,0
21,-6,0,0,0,0,0,0,0,0,0,-1,1245,1030,0,0
28,-6,0,0,0,0,0,0,0,0,0,-1,1252,1030,0,0
35,-6,0,0,0,0,0,0,0,0,0,-1,1259,1030,0,0
42,-6,0,0,0,0,0,0,0,0,0,-1,1266,1030,0,0
49,-6,0,0,0,0,0,0,0,0,0,-1,1273,1030,0,0
56,-6,0,0,0,0,0,0,0,0,0,-1,1280,1030,0,0
63,-6,0,0,0,0,0,0,0,0,0,-1,1287,1030,0,0
70,-6,0,0,0,0,0,0,0,0,0,-1,1294,1030,0,0
77,-6,0,0,0,0,0,0,0,0,0,-1,1301,1030,0,0
84,-6,0,0,0,0,0,0,0,0,0,-1,1308,1030,0,0
91,-6,0,0,0,0,0,0,0,0,0,-1,1315,1030,0,0
98,-6,0,0,0,0,0,0,0,0,0,-1,1322,1030,0,0
105,-6,0,0,0,0,0,0,0,0,0,-1,1329,1030,0,0
112,-6,0,0,0,0,0,0,0,0,0,-1,1336,1030,0,0
119,-6,0,0,0,0,0,0,0,0,0,-1,1343,1030,0,0
126,-6,0,0,0,0,0,0,0,0,0,-1,1350,1030,0,0
133,-6,0,0,0,0,0,0,0,0,0,-1,1357,1030,0,0
140,-6,0,0,0,0,0,0,0,0,0,-1,1364,1030,0,0
147,-6,0,0,0,0,0,0,0,0,0,-1,1371,1030,0,0
154,-6,0,0,0,0,0,0,0,0,0,-1,1378,1030,0,0
161,-6,0,0,0,0,0,0,0,0,0,-1,1385,1030,0,0
168,-6,0,0,0,0,0,0,0,0,0,-1,1392,1030,0,0
175,-6,0,0,0,0,0,0,0,0,0,-1,1399,1030,0,0
182,-6,0,0,0,0,0,0,0,0,0,-1,1406,1030,0,0
189,-6,0,0,0,0,0,0,0,0,0,-1,1413,1030,0,0
196,-6,0,0,0,0,0,0,0,0,0,-1,1420,1030,0,0
203,-6,0,0,0,0,0,0,0,0,0,-1,1427,1030,0,0
210,-6,0,0,0,0,0,0,0,0,0,-1,1434,1030,0,0
217,-6,0,0,0,0,0,0,0,0,0,-1,1441,1030,0,0
224,-6,0,0,0,0,0,0,0,0,0,-1,1448,1030,0,0
231,-6,0,0,0,0,0,0,0,0,0,-1,1455,1030,0,0
238,-6,0,0,0,0,0,0,0,0,0,-1,1462,1030,0,0
245,-6,0,0,0,0,0,0,0,0,0,-1,1469,1030,0,0
252,-6,0,0,0,0,0,0,0,0,0,-1,1476,1030,0,0
259,-6,0,0,0,0,0,0,0,0,0,-1,1483,1030,0,0
266,-6,0,0,0,0,0,0,0,0,0,-1,1490,1030,0,0
273,-6,0,0,0,0,0,0,0,0,0,-1,1497,1030,0,0
280,-6,0,0,0,0,0,0,0,0,0,-1,1504,1030,0,0
287,-6,0,0,0,0,0,0,0,0,0,-1,1511,1030,0,0
294,-6,0,0,0,0,0,0,0,0,0,-1,1518,1030,0,0
301,-6,0,0,0,0,0,0,0,0,0,-1,1525,1030,0,0
308,-6,0,0,0,0,0,0,0,0,0,-1,1532,1030,0,0
315,-6,0,0,0,0,0,0,0,0,0,-1,1539,1030,0,0
322,-6,0,0,0,0,0,0,0,0,0,-1,1546,1030,0,0
329,-6,0,0,0,0,0,0,0,0,0,-1,1553,1030,0,0
336,-6,0,0,0,0,0,0,0,0,0,-1,1560,1030,0,0
343,-6,0,0,0,0,0,0,0,0,0,-1,1567,1030,0,0
350,-6,0,0,0,0,0,0,0,0,0,-1,1574,1030,0,0
357,-6,0,0,0,0,0,0,0,0,0,-1,1581,1030,0,0
364,-6,0,0,0,0,0,0,0,0,0,-1,1588,1030,0,0
371,-6,0,0,0,0,0,0,0,0,0,-1,1595,1030,0,0
378,-6,0,0,0,0,0,0,0,0,0,-1,1602,1030,0,0
385,-6,0,0,0,0,0,0,0,0,0,-1,1609,1030,0,0
392,-6,0,0,0,0,0,0,0,0,0,-1,1616,1030,0,0
399,-6,0,0,0,0,0,0,0,0,0,-1,1623,1030,0,0
406,-6,0,0,0,0,0,0,0,0,0,-1,1630,1030,0,0
413,-6,0,0,0,0,0,0,0,0,0,-1,1637,1030,0,0
420,-6,0,0,0,0,0,0,0,0,0,-1,1644,1030,0,0
427,-6,0,0,0,0,0,0,0,0,0,-1,1651,1030,0,0
434,-6,0,0,0,0,0,0,0,0,0,-1,1658,1030,0,0
441,-6,0,0,0,0,0,0,0,0,0,-1,1665,1030,0,0
448,-6,0,0,0,0,0,0,0,0,0,-1,1672,1030,0,0
455,-6,0,0,0,0,0,0,0,0,0,-1,1679,1030,0,0
462,-6,0,0,0,0,0,0,0,0,0,-1,1686,1030,0,0
469,-6,0,0,0,0,0,0,0,0,0,-1,1693,1030,0,0
476,-6,0,0,0,0,0,0,0,0,0,-1,1700,1030,0,0
483,-6,0,0,0,0,0,0,0,0,0,-1,1707,1030,0,0
490,-6,0,0,0,0,0,0,0,0,0,-1,1714,1030,0,0
497,-6,0,0,0,0,0,0,0,0,0,-1,1721,1030,0,0
504,-6,0,0,0,0,0,0,0,0,0,-1,1728,1030,0,0
511,-6,0,0,0,0,0,0,0,0,0,-1,1735,1030,0,0
518,-6,0,0,0,0,0,0,0,0,0,-1,1742,1030,0,0
525,-6,0,0,0,0,0,0,0,0,0,-1,1749,1030,0,0
532,-6,0,0,0,0,0,0,0,0,0,-1,1756,1030,0,0
539,-6,0,0,0,0,0,0,0,0,0,-1,1763,1030,0,0
546,-6,0,0,0,0,0,0,0,0,0,-1,1770,1030,0,0
553,-6,0,0,0,0,0,0,0,0,0,-1,1777,1030,0,0
560,-6,0,0,0,0,0,0,0,0,0,-1,1784,1030,0,0
567,-6,0,0,0,0,0,0,0,0,0,-1,1791,1030,0,0
574,-6,0,0,0,0,0,0,0,0,0,-1,1798,1030,0,0
581,-6,0,0,0,0,0,0,0,0,0,-1,1805,1030,0,0
588,-6,0,0,0,0,0,0,0,0,0,-1,1812,1030,0,0
595,-6,0,0,0,0,0,0,0,0,0,-1,1819,1030,0,0
602,-6,0,0,0,0,0,0,0,0,0,-1,1826,1030,0,0
609,-6,0,0,0,0,0,0,0,0,0,-1,1833,1030,0,0
616,-6,0,0,0,0,0,0,0,0,0,-1,1840,1030,0,0
623,-6,0,0,0,0,0,0,0,0,0,-1,1847,1030,0,0
630,-6,0,0,0,0,0,0,0,0,0,-1,1854,1030,0,0
637,-6,0,0,0,0,0,0,0,0,0,-1,1861,1030,0,0
644,-6,0,0,0,0,0,0,0,0,0,-1,1868,1030,0,0
651,-6,0.067627,-0.0518799,-0.00350923,-0.0005071,0.00307059,0.00140968,-0.00542601,1.01274,0.00416748,0.0342526,1875,1030,0.0676029,0.0518963
658,-6,-0.0510254,0.0882568,-0.00245649,-9.69331e-05,0.00183691,0.000906434,-0.00345986,1.07086,0.00266069,0.0380502,1882,1030,-0.0510527,-0.0882416
665,-6,-0.0568848,-0.0281982,-0.00170077,0.000129539,0.00107648,0.000627299,-0.00219853,1.13768,0.0017135,0.0375476,1889,1030,-0.0568349,0.0281959
672,-6,-0.00402832,-0.0640869,-0.00107879,0.000235705,0.000616421,0.000479539,-0.00132263,1.19412,0.00107777,0.0332805,1896,1030,-0.00408343,0.0641188
679,-6,-0.123901,0.0554199,-0.000647224,0.000261646,0.000369061,0.000392631,-0.00077821,1.22975,0.000688095,0.0351995,1903,1030,-0.123953,-0.0554695
686,-6,-0.197632,0.0859375,-0.000364727,0.000237211,0.000259598,0.000333701,-0.000461217,1.21493,0.00046091,0.0338444,1910,1030,-0.197573,-0.0859696
693,-6,-0.14209,-0.00598145,-0.000155303,0.000186625,0.000238324,0.000308964,-0.000277643,1.09654,0.000338839,0.0305215,1917,1030,-0.142118,0.00595003
700,-6,-0.0640869,-0.0114746,-9.86038e-07,0.000156264,0.00023342,0.000323945,-0.000168667,0.94785,0.000289081,0.0263608,1924,1030,-0.0640663,0.0114953
707,-6,-0.0712891,0.0471191,0.000125471,9.41191e-05,0.000170335,0.00028085,-6.12598e-05,0.739513,0.000210644,0.020668,1931,1030,-0.0713267,-0.0470746
714,-6,-0.0583496,0.0393066,0.000144579,2.54828e-05,0.000196584,0.000290436,-0.000120374,0.638334,0.000243862,0.015762,1938,1030,-0.0583006,-0.0393546
721,-6,-0.0362549,0.0328369,0.000102464,-5.36789e-05,0.000289937,0.000324657,-0.000275872,0.653882,0.000347097,0.0131652,1945,1030,-0.0362351,-0.032882
728,-6,-0.0424805,0.0665283,0.000142892,-0.000109733,0.000347874,0.000386676,-0.000353517,0.611251,0.000427493,0.0127818,1952,1030,-0.0424568,-0.0664737
735,-6,-0.0570068,0.0562744,0.000239107,-0.000151836,0.000341099,0.000436774,-0.000349503,0.525209,0.000454888,0.0131759,1959,1030,-0.0570671,-0.0562665
742,-6,-0.0563965,0.0644531,0.0002604,-0.000166918,0.000190795,0.00033319,-0.000239708,0.364464,0.000332228,0.010747,1966,1030,-0.0564317,-0.0644581
749,-6,-0.0505371,0.0731201,0.000643212,-3.08363e-05,-0.000222864,0.000710234,-9.78588e-05,-0.292129,0.000509253,0.0107324,1973,1030,-0.0505447,-0.0730942
756,-6,-0.0529785,0.0767822,0.00142776,-0.000144927,-0.00075521,0.00173168,-0.000448849,-0.382602,0.00132957,0.0113053,1980,1030,-0.0530328,-0.0767807
763,-6,-0.0534668,0.0817871,0.00217765,-0.000835332,-0.00115915,0.00257198,-0.00122967,-0.327913,0.00224003,0.010358,1987,1030,-0.0534818,-0.0817346
770,-6,-0.0489502,0.0754395,0.0031022,-0.00132679,-0.00172574,0.00369522,-0.00191981,-0.330993,0.00329542,0.00996954,1994,1030,-0.0489243,-0.0754512
777,-6,-0.0446777,0.0550537,0.00436317,-0.00211692,-0.00242082,0.00516766,-0.00292141,-0.32084,0.00472987,0.0143258,2001,1030,-0.0447156,-0.0551132
784,-6,0.0925293,0.0839844,0.00597277,-0.00335592,-0.00324435,0.00699014,-0.00437329,-0.303871,0.00661841,0.0338936,2008,1030,0.0924961,-0.0840052
791,-6,0.312378,0.098999,0.00792689,-0.00524937,-0.00417657,0.00913922,-0.0064617,-0.282506,0.00905131,0.0439049,2015,1030,0.312376,-0.0990256
798,-6,0.13623,-0.754761,0.0103272,-0.00808798,-0.00516023,0.0116745,-0.00943538,-0.255409,0.0122107,0.0428763,2022,1030,0.136226,0.7548
805,-6,-0.00646973,-1.07776,0.0132225,-0.0122934,-0.00608226,0.0145982,-0.0136691,-0.222435,0.016323,0.0417817,2029,1030,-0.00651492,1.07778
812,-6,-0.0716553,-0.644897,0.0164288,-0.0185232,-0.00674694,0.017686,-0.0197804,-0.18422,0.0216425,0.0432422,2036,1030,-0.0716705,0.644935
-700,-13,0,0,0,0,0,0,0,0,0,-1,524,1037,0,0
-693,-13,-0.380432,1.02332,0.00422015,0.0334173,-0.0272075,0.0496954,-0.0120579,-1.03163,0.0377962,0.0478962,531,1037,-0.380446,-1.02337
-686,-13,0.131409,0.485107,-0.00244026,0.0312858,-0.0199143,0.0405177,-0.0116721,-1.13671,0.0316287,0.0436844,538,1037,0.131382,-0.485156
-679,-13,0.379944,0.421387,-0.00643016,0.0280194,-0.014186,0.0331091,-0.0115199,-1.22632,0.0267526,0.0484134,545,1037,0.37994,-0.421426
-672,-13,0.684204,0.182495,0,0,0,0,0,0,0,-1,552,1037,0.684189,-0.18245
-665,-13,0.505676,-0.0628662,-0.00875138,0.0201274,-0.00644187,0.0214992,-0.0101232,-1.36098,0.0186468,0.0459138,559,1037,0.505649,0.0629077
-658,-13,0.19458,0.216431,-0.00810034,0.0161608,-0.00405449,0.0168204,-0.00875999,-1.40951,0.0150113,0.0444722,566,1037,0.194587,-0.216475
-651,-13,0.105591,0.123291,-0.00687052,0.0124962,-0.00242812,0.012796,-0.00717031,-1.44795,0.0116791,0.0391507,573,1037,0.105606,-0.123272
-644,-13,-0.034729,0.0831299,-0.00543098,0.00929396,-0.00138461,0.00942302,-0.00556004,-1.47785,0.00874579,0.0274002,580,1037,-0.0347003,-0.0831001
-637,-13,-0.0498657,0.0828857,-0.00414805,0.00664464,-0.000486133,0.0066665,-0.0041699,-1.52587,0.0063115,0.0186064,587,1037,-0.049879,-0.0828902
-630,-13,-0.0560913,0.0715332,-0.00289057,0.00423348,0.000143654,0.00423638,-0.00289347,1.55064,0.00414069,0.012647,594,1037,-0.0560622,-0.0714787
-623,-13,-0.0459595,0.0853271,-0.001861,0.00279679,0.000106224,0.00279921,-0.00186342,1.54801,0.00270998,0.0118256,601,1037,-0.045973,-0.0852951
-616,-13,-0.0355835,0.0692139,-0.00108029,0.00161773,-7.30763e-05,0.00161971,-0.00108227,-1.54374,0.00157024,0.0117308,608,1037,-0.0355895,-0.0692125
-609,-13,-0.0316162,0.0606689,-0.000450817,0.000814961,8.14791e-05,0.000820184,-0.00045604,1.50678,0.000746759,0.0165226,615,1037,-0.0316333,-0.0606291
-602,-13,-0.0359497,0.0620117,-9.0244e-05,-0.000203205,3.97269e-05,-7.76719e-05,-0.000215778,0.306492,0.000126197,0.0108918,622,1037,-0.0359199,-0.0620359
-595,-13,-0.0241699,0.0733643,0.00010213,-0.000230496,9.49023e-06,0.000102401,-0.000230766,0.0285003,0.000197056,0.0114442,629,1037,-0.024195,-0.0733672
-588,-13,-0.0162964,0.0527344,0.000212993,-0.000269549,3.46557e-05,0.000215469,-0.000272025,0.0713311,0.000282086,0.0134576,636,1037,-0.0162797,-0.0527258
-581,-13,-0.0166626,0.0550537,0.000278161,-0.000295098,-1.5142e-05,0.00027856,-0.000295498,-0.0263894,0.000331481,0.014802,643,1037,-0.01667,-0.0550969
-574,-13,0.00231934,-0.022583,0.000424833,-0.000341547,-4.23459e-05,0.000427165,-0.00034388,-0.0550312,0.000446028,0.0292513,650,1037,0.0023451,0.0225866
-567,-13,-0.00500488,-0.0128174,0.00055864,-0.000354122,-0.000121817,0.000574617,-0.0003701,-0.130419,0.000549677,0.0367558,657,1037,-0.0050315,0.0127618
-560,-13,-0.0342407,0.0800781,0.000709837,-0.000337736,-0.000261795,0.000771618,-0.000399516,-0.231749,0.000687437,0.0397654,664,1037,-0.0342265,-0.0801364
-553,-13,-0.0548096,0.218262,0.000894226,-0.000281271,-0.000475619,0.00106256,-0.000449605,-0.34017,0.000896639,0.0376473,671,1037,-0.0547961,-0.218221
-546,-13,0.0131836,0.296021,0.00108859,-0.000177015,-0.000786395,0.00146517,-0.000553597,-0.446602,0.00120449,0.036541,678,1037,0.0132011,-0.296001
-539,-13,-0.0166016,0.449585,0.00126499,-2.60553e-05,-0.00119107,0.00197421,-0.00073528,-0.53707,0.00161792,0.0394943,685,1037,-0.0166139,-0.449634
-532,-13,-0.0678101,0.379883,0.00133725,0.000194742,-0.00169166,0.00255151,-0.00101951,-0.622565,0.00212403,0.0395719,692,1037,-0.0677904,-0.379839
-525,-13,0,0,0,0,0,0,0,0,0,-1,699,1037,0,0
-518,-13,0,0,0,0,0,0,0,0,0,-1,706,1037,0,0
-511,-13,0,0,0,0,0,0,0,0,0,-1,713,1037,0,0
-504,-13,0,0,0,0,0,0,0,0,0,-1,720,1037,0,0
-497,-13,0,0,0,0,0,0,0,0,0,-1,727,1037,0,0
-490,-13,0,0,0,0,0,0,0,0,0,-1,734,1037,0,0
-483,-13,0,0,0,0,0,0,0,0,0,-1,741,1037,0,0
-476,-13,0,0,0,0,0,0,0,0,0,-1,748,1037,0,0
-469,-13,0,0,0,0,0,0,0,0,0,-1,755,1037,0,0
-462,-13,0,0,0,0,0,0,0,0,0,-1,762,1037,0,0
-455,-13,0,0,0,0,0,0,0,0,0,-1,769,1037,0,0
-448,-13,0,0,0,0,0,0,0,0,0,-1,776,1037,0,0
-441,-13,0,0,0,0,0,0,0,0,0,-1,783,1037,0,0
-434,-13,0,0,0,0,0,0,0,0,0,-1,790,1037,0,0
-427,-13,0,0,0,0,0,0,0,0,0,-1,797,1037,0,0
-420,-13,0,0,0,0,0,0,0,0,0,-1,804,1037,0,0
-413,-13,0,0,0,0,0,0,0,0,0,-1,811,1037,0,0
-406,-13,0,0,0,0,0,0,0,0,0,-1,818,1037,0,0
-399,-13,0,0,0,0,0,0,0,0,0,-1,825,1037,0,0
-392,-13,0,0,0,0,0,0,0,0,0,-1,832,1037,0,0
-385,-13,0,0,0,0,0,0,0,0,0,-1,839,1037,0,0
-378,-13,0,0,0,0,0,0,0,0,0,-1,846,1037,0,0
-371,-13,0,0,0,0,0,0,0,0,0,-1,853,1037,0,0
-364,-13,0,0,0,0,0,0,0,0,0,-1,860,1037,0,0
-357,-13,0,0,0,0,0,0,0,0,0,-1,867,1037,0,0
-350,-13,0,0,0,0,0,0,0,0,0,-1,874,1037,0,0
-343,-13,0,0,0,0,0,0,0,0,0,-1,881,1037,0,0
-336,-13,0,0,0,0,0,0,0,0,0,-1,888,1037,0,0
-329,-13,0,0,0,0,0,0,0,0,0,-1,895,1037,0,0
-322,-13,0,0,0,0,0,0,0,0,0,-1,902,1037,0,0
-315,-13,0,0,0,0,0,0,0,0,0,-1,909,1037,0,0
-308,-13,0,0,0,0,0,0,0,0,0,-1,916,1037,0,0
-301,-13,0,0,0,0,0,0,0,0,0,-1,923,1037,0,0
-294,-13,0,0,0,0,0,0,0,0,0,-1,930,1037,0,0
-287,-13,0,0,0,0,0,0,0,0,0,-1,937,1037,0,0
-280,-13,0,0,0,0,0,0,0,0,0,-1,944,1037,0,0
-273,-13,0,0,0,0,0,0,0,0,0,-1,951,1037,0,0
-266,-13,0,0,0,0,0,0,0,0,0,-1,958,1037,0,0
-259,-13,0,0,0,0,0,0,0,0,0,-1,965,1037,0,0
-252,-13,0,0,0,0,0,0,0,0,0,-1,972,1037,0,0
-245,-13,0,0,0,0,0,0,0,0,0,-1,979,1037,0,0
-238,-13,0,0,0,0,0,0,0,0,0,-1,986,1037,0,0
-231,-13,0,0,0,0,0,0,0,0,0,-1,993,1037,0,0
-224,-13,0,0,0,0,0,0,0,0,0,-1,1000,1037,0,0
-217,-13,0,0,0,0,0,0,0,0,0,-1,1007,1037,0,0
-210,-13,0,0,0,0,0,0,0,0,0,-1,1014,1037,0,0
-203,-13,0,0,0,0,0,0,0,0,0,-1,1021,1037,0,0
-196,-13,0,0,0,0,0,0,0,0,0,-1,1028,1037,0,0
-189,-13,0,0,0,0,0,0,0,0,0,-1,1035,1037,0,0
-182,-13,0,0,0,0,0,0,0,0,0,-1,1042,1037,0,0
-175,-13,0,0,0,0,0,0,0,0,0,-1,1049,1037,0,0
-168,-13,0,0,0,0,0,0,0,0,0,-1,1056,1037,0,0
-161,-13,0,0,0,0,0,0,0,0,0,-1,1063,1037,0,0
-154,-13,0,0,0,0,0,0,0,0,0,-1,1070,1037,0,0
-147,-13,0,0,0,0,0,0,0,0,0,-1,1077,1037,0,0
-140,-13,0,0,0,0,0,0,0,0,0,-1,1084,1037,0,0
-133,-13,0,0,0,0,0,0,0,0,0,-1,1091,1037,0,0
-126,-13,0,0,0,0,0,0,0,0,0,-1,1098,1037,0,0
-119,-13,0,0,0,0,0,0,0,0,0,-1,1105,1037,0,0
-112,-13,0,0,0,0,0,0,0,0,0,-1,1112,1037,0,0
-105,-13,0,0,0,0,0,0,0,0,0,-1,1119,1037,0,0
-98,-13,0,0,0,0,0,0,0,0,0,-1,1126,1037,0,0
-91,-13,0,0,0,0,0,0,0,0,0,-1,1133,1037,0,0
-84,-13,0,0,0,0,0,0,0,0,0,-1,1140,1037,0,0
-77,-13,0,0,0,0,0,0,0,0,0,-1,1147,1037,0,0
-70,-13,0,0,0,0,0,0,0,0,0,-1,1154,1037,0,0
-63,-13,0,0,0,0,0,0,0,0,0,-1,1161,1037,0,0
-56,-13,0,0,0,0,0,0,0,0,0,-1,1168,1037,0,0
-49,-13,0,0,0,0,0,0,0,0,0,-1,1175,1037,0,0
-42,-13,0,0,0,0,0,0,0,0,0,-1,1182,1037,0,0
-35,-13,0,0,0,0,0,0,0,0,0,-1,1189,1037,0,0
-28,-13,0,0,0,0,0,0,0,0,0,-1,1196,1037,0,0
-21,-13,0,0,0,0,0,0,0,0,0,-1,1203,1037,0,0
-14,-13,0,0,0,0,0,0,0,0,0,-1,1210,1037,0,0
-7,-13,0,0,0,0,0,0,0,0,0,-1,1217,1037,0,0
0,-13,0,0,0,0,0,0,0,0,0,-1,1224,1037,0,0
7,-13,0,0,0,0,0,0,0,0,0,-1,1231,1037,0,0
14,-13,0,0,0,0,0,0,0,0,0,-1,1238,1037,0,0
21,-13,0,0,0,0,0,0,0,0,0,-1,1245,1037,0,0
28,-13,0,0,0,0,0,0,0,0,0,-1,1252,1037,0,0
35,-13,0,0,0,0,0,0,0,0,0,-1,1259,1037,0,0
42,-13,0,0,0,0,0,0,0,0,0,-1,1266,1037,0,0
49,-13,0,0,0,0,0,0,0,0,0,-1,1273,1037,0,0
56,-13,0,0,0,0,0,0,0,0,0,-1,1280,1037,0,0
63,-13,0,0,0,0,0,0,0,0,0,-1,1287,1037,0,0
70,-13,0,0,0,0,0,0,0,0,0,-1,1294,1037,0,0
77,-13,0,0,0,0,0,0,0,0,0,-1,1301,1037,0,0
84,-13,0,0,0,0,0,0,0,0,0,-1,1308,1037,0,0
91,-13,0,0,0,0,0,0,0,0,0,-1,1315,1037,0,0
98,-13,0,0,0,0,0,0,0,0,0,-1,1322,1037,0,0
105,-13,0,0,0,0,0,0,0,0,0,-1,1329,1037,0,0
112,-13,0,0,0,0,0,0,0,0,0,-1,1336,1037,0,0
119,-13,0,0,0,0,0,0,0,0,0,-1,1343,1037,0,0
126,-13,0,0,0,0,0,0,0,0,0,-1,1350,1037,0,0
133,-13,0,0,0,0,0,0,0,0,0,-1,1357,1037,0,0
140,-13,0,0,0,0,0,0,0,0,0,-1,1364,1037,0,0
147,-13,0,0,0,0,0,0,0,0,0,-1,1371,1037,0,0
154,-13,0,0,0,0,0,0,0,0,0,-1,1378,1037,0,0
161,-13,0,0,0,0,0,0,0,0,0,-1,1385,1037,0,0
168,-13,0,0,0,0,0,0,0,0,0,-1,1392,1037,0,0
175,-13,0,0,0,0,0,0,0,0,0,-1,1399,1037,0,0
182,-13,0,0,0,0,0,0,0,0,0,-1,1406,1037,0,0
189,-13,0,0,0,0,0,0,0,0,0,-1,1413,1037,0,0
196,-13,0,0,0,0,0,0,0,0,0,-1,1420,1037,0,0
203,-13,0,0,0,0,0,0,0,0,0,-1,1427,1037,0,0
210,-13,0,0,0,0,0,0,0,0,0,-1,1434,1037,0,0
217,-13,0,0,0,0,0,0,0,0,0,-1,1441,1037,0,0
224,-13,0,0,0,0,0,0,0,0,0,-1,1448,1037,0,0
231,-13,0,0,0,0,0,0,0,0,0,-1,1455,1037,0,0
238,-13,0,0,0,0,0,0,0,0,0,-1,1462,1037,0,0
245,-13,0,0,0,0,0,0,0,0,0,-1,1469,1037,0,0
252,-13,0,0,0,0,0,0,0,0,0,-1,1476,1037,0,0
259,-13,0,0,0,0,0,0,0,0,0,-1,1483,1037,0,0
266,-13,0,0,0,0,0,0,0,0,0,-1,1490,1037,0,0
273,-13,0,0,0,0,0,0,0,0,0,-1,1497,1037,0,0
280,-13,0,0,0,0,0,0,0,0,0,-1,1504,1037,0,0
287,-13,0,0,0,0,0,0,0,0,0,-1,1511,1037,0,0
294,-13,0,0,0,0,0,0,0,0,0,-1,1518,1037,0,0
301,-13,0,0,0,0,0,0,0,0,0,-1,1525,1037,0,0
308,-13,0,0,0,0,0,0,0,0,0,-1,1532,1037,0,0
315,-13,0,0,0,0,0,0,0,0,0,-1,1539,1037,0,0
322,-13,0,0,0,0,0,0,0,0,0,-1,1546,1037,0,0
329,-13,0,0,0,0,0,0,0,0,0,-1,1553,1037,0,0
336,-13,0,0,0,0,0,0,0,0,0,-1,1560,1037,0,0
343,-13,0,0,0,0,0,0,0,0,0,-1,1567,1037,0,0
350,-13,0,0,0,0,0,0,0,0,0,-1,1574,1037,0,0
357,-13,0,0,0,0,0,0,0,0,0,-1,1581,1037,0,0
364,-13,0,0,0,0,0,0,0,0,0,-1,1588,1037,0,0
371,-13,0,0,0,0,0,0,0,0,0,-1,1595,1037,0,0
378,-13,0,0,0,0,0,0,0,0,0,-1,1602,1037,0,0
385,-13,0,0,0,0,0,0,0,0,0,-1,1609,1037,0,0
392,-13,0,0,0,0,0,0,0,0,0,-1,1616,1037,0,0
399,-13,0,0,0,0,0,0,0,0,0,-1,1623,1037,0,0
406,-13,0,0,0,0,0,0,0,0,0,-1,1630,1037,0,0
413,-13,0,0,0,0,0,0,0,0,0,-1,1637,1037,0,0
420,-13,0,0,0,0,0,0,0,0,0,-1,1644,1037,0,0
427,-13,0,0,0,0,0,0,0,0,0,-1,1651,1037,0,0
434,-13,0,0,0,0,0,0,0,0,0,-1,1658,1037,0,0
441,-13,0,0,0,0,0,0,0,0,0,-1,1665,1037,0,0
448,-13,0,0,0,0,0,0,0,0,0,-1,1672,1037,0,0
455,-13,0,0,0,0,0,0,0,0,0,-1,1679,1037,0,0
462,-13,0,0,0,0,0,0,0,0,0,-1,1686,1037,0,0
469,-13,0,0,0,0,0,0,0,0,0,-1,1693,1037,0,0
476,-13,0,0,0,0,0,0,0,0,0,-1,1700,1037,0,0
483,-13,0,0,0,0,0,0,0,0,0,-1,1707,1037,0,0
490,-13,0,0,0,0,0,0,0,0,0,-1,1714,1037,0,0
497,-13,0,0,0,0,0,0,0,0,0,-1,1721,1037,0,0
504,-13,0,0,0,0,0,0,0,0,0,-1,1728,1037,0,0
511,-13,0,0,0,0,0,0,0,0,0,-1,1735,1037,0,0
518,-13,0,0,0,0,0,0,0,0,0,-1,1742,1037,0,0
525,-13,0,0,0,0,0,0,0,0,0,-1,1749,1037,0,0
532,-13,0,0,0,0,0,0,0,0,0,-1,1756,1037,0,0
539,-13,0,0,0,0,0,0,0,0,0,-1,1763,1037,0,0
546,-13,0,0,0,0,0,0,0,0,0,-1,1770,1037,0,0
553,-13,0,0,0,0,0,0,0,0,0,-1,1777,1037,0,0
560,-13,0,0,0,0,0,0,0,0,0,-1,1784,1037,0,0
567,-13,0,0,0,0,0,0,0,0,0,-1,1791,1037,0,0
574,-13,0,0,0,0,0,0,0,0,0,-1,1798,1037,0,0
581,-13,0,0,0,0,0,0,0,0,0,-1,1805,1037,0,0
588,-13,0,0,0,0,0,0,0,0,0,-1,1812,1037,0,0
595,-13,0,0,0,0,0,0,0,0,0,-1,1819,1037,0,0
602,-13,0,0,0,0,0,0,0,0,0,-1,1826,1037,0,0
609,-13,0,0,0,0,0,0,0,0,0,-1,1833,1037,0,0
616,-13,0,0,0,0,0,0,0,0,0,-1,1840,1037,0,0
623,-13,0,0,0,0,0,0,0,0,0,-1,1847,1037,0,0
630,-13,0,0,0,0,0,0,0,0,0,-1,1854,1037,0,0
637,-13,0,0,0,0,0,0,0,0,0,-1,1861,1037,0,0
644,-13,0,0,0,0,0,0,0,0,0,-1,1868,1037,0,0
651,-13,0.103027,-0.0701904,-0.00392312,-0.000721277,0.00266558,0.000787183,-0.00543158,1.05582,0.00390995,0.0338377,1875,1037,0.103064,0.0701379
658,-13,0.0102539,-0.0194092,-0.00276577,-0.000264825,0.00152136,0.000454023,-0.00348461,1.12939,0.00248826,0.0389376,1882,1037,0.0101966,0.0194044
665,-13,-0.0751953,-0.0494385,-0.00192396,-1.13886e-05,0.000843802,0.000307662,-0.00224301,1.2093,0.00160774,0.0355089,1889,1037,-0.0752466,0.0494516
672,-13,-0.000366211,-0.0666504,-0.00123734,0.000108042,0.00045252,0.000246084,-0.00137538,1.27471,0.001009,0.0290308,1896,1037,-0.000349647,0.0666253
679,-13,0.010376,-0.0930176,-0.00075465,0.000141923,0.000259792,0.00021176,-0.000824488,1.30818,0.00063218,0.0310392,1903,1037,0.0103197,0.0930085
686,-13,-0.0262451,-0.0286865,-0.000433558,0.000123077,0.000190849,0.000182227,-0.000492708,1.27026,0.000403183,0.0340367,1910,1037,-0.0262497,0.0287173
693,-13,-0.0279541,-0.0483398,-0.000197634,7.79767e-05,0.000197629,0.000181102,-0.000300759,1.08985,0.000281048,0.0337511,1917,1037,-0.0279298,0.0484
700,-13,-0.0766602,0.00134277,-2.0209e-05,5.5652e-05,0.000221357,0.000242305,-0.000206862,0.870251,0.000259596,0.0308382,1924,1037,-0.076685,-0.00139739
707,-13,-0.069458,0.0655518,0.000124304,4.18792e-06,0.00017255,0.000246949,-0.000118457,0.617924,0.000215271,0.0239302,1931,1037,-0.0695051,-0.0655911
714,-13,-0.0455322,0.0905762,0.000151346,-5.96348e-05,0.000208637,0.000279645,-0.000187934,0.551332,0.000271682,0.0150969,1938,1037,-0.0455026,-0.0905242
721,-13,-0.0299072,0.0751953,0.000104335,-0.00013107,0.000303422,0.000312084,-0.000338819,0.600375,0.000375905,0.0137289,1945,1037,-0.0298485,-0.0752352
728,-13,-0.0231934,0.0736084,0.000136273,-0.000169689,0.000352952,0.000367971,-0.000401388,0.580902,0.000444329,0.014287,1952,1037,-0.0232019,-0.0736156
735,-13,-0.0495605,0.0610352,0.000229199,-0.000167065,0.000326954,0.00041337,-0.000351236,0.512991,0.000441931,0.0160982,1959,1037,-0.0495773,-0.0610148
742,-13,-0.0593262,0.0666504,0.000251554,-0.000143489,0.000138689,0.000295381,-0.000187316,0.306082,0.000281004,0.00954255,1966,1037,-0.0592941,-0.0666755
749,-13,-0.0565186,0.0681152,0.000583185,-3.09342e-05,-0.000261117,0.000679199,-0.000126948,-0.352357,0.000500511,0.0140126,1973,1037,-0.0565637,-0.0681056
756,-13,-0.0460205,0.0675049,0.0012994,-0.000240507,-0.000743954,0.0016001,-0.000541206,-0.384114,0.00128568,0.0113695,1980,1037,-0.0460755,-0.0675377
763,-13,-0.0532227,0.0628662,0.00201893,-0.00087764,-0.00107382,0.00237359,-0.0012323,-0.319,0.00211633,0.00903994,1987,1037,-0.053253,-0.0629096
770,-13,-0.0550537,0.0631104,0.00289675,-0.00139717,-0.00156058,0.003404,-0.00190443,-0.31427,0.00310532,0.00844156,1994,1037,-0.054999,-0.0631544
777,-13,-0.0500488,0.0667725,0.00410335,-0.0022337,-0.0021275,0.00475134,-0.0028817,-0.295653,0.00445079,0.011083,2001,1037,-0.0500652,-0.0667791
784,-13,-0.0098877,0.0325928,0.00565726,-0.00353239,-0.00275446,0.00641962,-0.00429476,-0.270015,0.00622637,0.026246,2008,1037,-0.00983484,-0.0325536
791,-13,-0.0472412,-0.216919,0.00756909,-0.00548684,-0.00339694,0.00840004,-0.00631778,-0.239904,0.00852564,0.0419564,2015,1037,-0.0471937,0.216881
798,-13,-0.10437,-0.493652,0.0099565,-0.00836426,-0.00396614,0.0107782,-0.009186,-0.2043,0.0115386,0.0410476,2022,1037,-0.104357,0.493608
805,-13,0.0144043,-0.468262,0.0128998,-0.01254,-0.00430446,0.0136084,-0.0132486,-0.163153,0.0155063,0.0373612,2029,1037,0.0144028,0.4683
812,-13,0.0898438,-0.228638,0.0162544,-0.0185988,-0.0041645,0.0167451,-0.0190895,-0.117287,0.0207038,0.0378692,2036,1037,0.0897884,0.228622
-700,-20,-0.630066,1.2063,0,0,0,0,0,0,0,-1,524,1044,-0.630089,-1.20631
-693,-20,-0.584412,1.12732,0.005539,0.0369483,-0.0245929,0.0504233,-0.00793592,-1.06955,0.0365491,0.0460125,531,1044,-0.584405,-1.12728
-686,-20,0.491577,0.122803,-0.000874573,0.0342179,-0.0182455,0.0419851,-0.00864178,-1.16833,0.0312712,0.0428529,538,1044,0.491548,-0.122839
-679,-20,0.784912,0.182373,0,0,0,0,0,0,0,-1,545,1044,0.784908,-0.182416
-672,-20,0.402893,-0.158325,0,0,0,0,0,0,0,-1,552,1044,0.402876,0.158269
-665,-20,0.183167,-0.685669,-0.00764721,0.0216777,-0.00613696,0.0229102,-0.00887971,-1.3726,0.0189404,0.0438146,559,1044,0.183184,0.685637
-658,-20,-0.0301514,-1.20288,-0.00738012,0.0173874,-0.00389165,0.0179845,-0.00797721,-1.41856,0.0153557,0.0470409,566,1044,-0.0301672,1.20285
-651,-20,0.113403,-0.0137939,-0.00648798,0.0134429,-0.00233417,0.0137126,-0.00675769,-1.45576,0.0120437,0.0385898,573,1044,0.11342,0.0137331
-644,-20,-0.03125,0.043457,-0.00529536,0.0100008,-0.00132262,0.0101143,-0.00540888,-1.48518,0.00909852,0.0243231,580,1044,-0.0312601,-0.0434917
-637,-20,-0.0444946,0.0483398,-0.0043957,0.00720811,-0.000482329,0.00722813,-0.00441572,-1.52933,0.00678763,0.0156493,587,1044,-0.0445244,-0.0483181
-630,-20,-0.0389404,0.0830078,-0.00330645,0.00459832,0.000170677,0.004602,-0.00331013,1.54922,0.00458832,0.0135034,594,1044,-0.0389154,-0.0829964
-623,-20,-0.0499878,0.0794678,-0.00215991,0.00301822,0.000111648,0.00302063,-0.00216231,1.54925,0.00300602,0.0131733,601,1044,-0.0499741,-0.07951
-616,-20,-0.0461426,0.0690918,-0.00123135,0.00179228,1.53791e-05,0.00179236,-0.00123143,1.56571,0.00175577,0.0127157,608,1044,-0.0461331,-0.0690805
-609,-20,-0.03302,0.0820313,-0.000528513,0.000913378,0.000148133,0.000928439,-0.000543574,1.46947,0.000859496,0.0142511,615,1044,-0.0329901,-0.0820497
-602,-20,-0.0238647,0.065918,-8.87637e-05,-0.000146825,8.80608e-05,-2.50716e-05,-0.000210517,0.626176,0.000132779,0.0103432,622,1044,-0.0238753,-0.0659465
-595,-20,-0.0263672,0.0643311,0.000175977,-0.000160485,4.13043e-05,0.000180973,-0.000165482,0.12038,0.000200092,0.00949571,629,1044,-0.0263388,-0.0642997
-588,-20,-0.0305786,0.0633545,0.000310242,-0.000188828,7.3255e-05,0.000320773,-0.000199358,0.142772,0.000303012,0.0113707,636,1044,-0.0305649,-0.0633691
-581,-20,-0.024292,0.0893555,0.000367625,-0.000200295,1.88892e-05,0.000368253,-0.000200923,0.0332113,0.000333314,0.018698,643,1044,-0.0243024,-0.0893549
-574,-20,-0.0449219,0.102905,0.000487769,-0.00020869,-2.25939e-05,0.000488501,-0.000209422,-0.0323957,0.000413545,0.0309247,650,1044,-0.0448922,-0.102947
-567,-20,-0.045166,0.182007,0.000586711,-0.00018693,-0.000119322,0.000604696,-0.000204915,-0.149604,0.000486054,0.0373319,657,1044,-0.0451611,-0.181971
-560,-20,0.00964355,0.269043,0.000669977,-0.000130583,-0.0002812,0.000758878,-0.000219484,-0.306203,0.000592782,0.0397365,664,1044,0.00967174,-0.269054
-553,-20,0.00201416,0.27771,0.000743138,-2.67792e-05,-0.000521637,0.00100648,-0.000290125,-0.467516,0.000785758,0.0377659,671,1044,0.00200007,-0.277683
-546,-20,0.00183105,0.286621,0.000767366,0.000133442,-0.000855445,0.00136268,-0.000461874,-0.607978,0.00109537,0.036479,678,1044,0.00184781,-0.286632
-539,-20,-0.00744629,0.336304,0.000696136,0.000348082,-0.00128009,0.00181398,-0.00076976,-0.717838,0.00153179,0.0395966,685,1044,-0.00741902,-0.336333
-532,-20,-0.045105,0.301636,0.000403493,0.000644923,-0.00179532,0.00232358,-0.00127516,-0.818967,0.00210692,0.0387015,692,1044,-0.0450998,-0.301616
-525,-20,0,0,0,0,0,0,0,0,0,-1,699,1044,0,0
-518,-20,0,0,0,0,0,0,0,0,0,-1,706,1044,0,0
-511,-20,0,0,0,0,0,0,0,0,0,-1,713,1044,0,0
-504,-20,0,0,0,0,0,0,0,0,0,-1,720,1044,0,0
-497,-20,0,0,0,0,0,0,0,0,0,-1,727,1044,0,0
-490,-20,0,0,0,0,0,0,0,0,0,-1,734,1044,0,0
-483,-20,0,0,0,0,0,0,0,0,0,-1,741,1044,0,0
-476,-20,0,0,0,0,0,0,0,0,0,-1,748,1044,0,0
-469,-20,0,0,0,0,0,0,0,0,0,-1,755,1044,0,0
-462,-20,0,0,0,0,0,0,0,0,0,-1,762,1044,0,0
-455,-20,0,0,0,0,0,0,0,0,0,-1,769,1044,0,0
-448,-20,0,0,0,0,0,0,0,0,0,-1,776,1044,0,0
-441,-20,0,0,0,0,0,0,0,0,0,-1,783,1044,0,0
-434,-20,0,0,0,0,0,0,0,0,0,-1,790,1044,0,0
-427,-20,0,0,0,0,0,0,0,0,0,-1,797,1044,0,0
-420,-20,0,0,0,0,0,0,0,0,0,-1,804,1044,0,0
-413,-20,0,0,0,0,0,0,0,0,0,-1,811,1044,0,0
-406,-20,0,0,0,0,0,0,0,0,0,-1,818,1044,0,0
-399,-20,0,0,0,0,0,0,0,0,0,-1,825,1044,0,0
-392,-20,0,0,0,0,0,0,0,0,0,-1,832,1044,0,0
-385,-20,0,0,0,0,0,0,0,0,0,-1,839,1044,0,0
-378,-20,0,0,0,0,0,0,0,0,0,-1,846,1044,0,0
-371,-20,0,0,0,0,0,0,0,0,0,-1,853,1044,0,0
-364,-20,0,0,0,0,0,0,0,0,0,-1,860,1044,0,0
-357,-20,0,0,0,0,0,0,0,0,0,-1,867,1044,0,0
-350,-20,0,0,0,0,0,0,0,0,0,-1,874,1044,0,0
-343,-20,0,0,0,0,0,0,0,0,0,-1,881,1044,0,0
-336,-20,0,0,0,0,0,0,0,0,0,-1,888,1044,0,0
-329,-20,0,0,0,0,0,0,0,0,0,-1,895,1044,0,0
-322,-20,0,0,0,0,0,0,0,0,0,-1,902,1044,0,0
-315,-20,0,0,0,0,0,0,0,0,0,-1,909,1044,0,0
-308,-20,0,0,0,0,0,0,0,0,0,-1,916,1044,0,0
-301,-20,0,0,0,0,0,0,0,0,0,-1,923,1044,0,0
-294,-20,0,0,0,0,0,0,0,0,0,-1,930,1044,0,0
-287,-20,0,0,0,0,0,0,0,0,0,-1,937,1044,0,0
-280,-20,0,0,0,0,0,0,0,0,0,-1,944,1044,0,0
-273,-20,0,0,0,0,0,0,0,0,0,-1,951,1044,0,0
-266,-20,0,0,0,0,0,0,0,0,0,-1,958,1044,0,0
-259,-20,0,0,0,0,0,0,0,0,0,-1,965,1044,0,0
-252,-20,0,0,0,0,0,0,0,0,0,-1,972,1044,0,0
-245,-20,0,0,0,0,0,0,0,0,0,-1,979,1044,0,0
-238,-20,0,0,0,0,0,0,0,0,0,-1,986,1044,0,0
-231,-20,0,0,0,0,0,0,0,0,0,-1,993,1044,0,0
-224,-20,0,0,0,0,0,0,0,0,0,-1,1000,1044,0,0
-217,-20,0,0,0,0,0,0,0,0,0,-1,1007,1044,0,0
-210,-20,0,0,0,0,0,0,0,0,0,-1,1014,1044,0,0
-203,-20,0,0,0,0,0,0,0,0,0,-1,1021,1044,0,0
-196,-20,0,0,0,0,0,0,0,0,0,-1,1028,1044,0,0
-189,-20,0,0,0,0,0,0,0,0,0,-1,1035,1044,0,0
-182,-20,0,0,0,0,0,0,0,0,0,-1,1042,1044,0,0
-175,-20,0,0,0,0,0,0,0,0,0,-1,1049,1044,0,0
-168,-20,0,0,0,0,0,0,0,0,0,-1,1056,1044,0,0
-161,-20,0,0,0,0,0,0,0,0,0,-1,1063,1044,0,0
-154,-20,0,0,0,0,0,0,0,0,0,-1,1070,1044,0,0
-147,-20,0,0,0,0,0,0,0,0,0,-1,1077,1044,0,0
-140,-20,0,0,0,0,0,0,0,0,0,-1,1084,1044,0,0
-133,-20,0,0,0,0,0,0,0,0,0,-1,1091,1044,0,0
-126,-20,0,0,0,0,0,0,0,0,0,-1,1098,1044,0,0
-119,-20,0,0,0,0,0,0,0,0,0,-1,1105,1044,0,0
-112,-20,0,0,0,0,0,0,0,0,0,-1,1112,1044,0,0
-105,-20,0,0,0,0,0,0,0,0,0,-1,1119,1044,0,0
-98,-20,0,0,0,0,0,0,0,0,0,-1,1126,1044,0,0
-91,-20,0,0,0,0,0,0,0,0,0,-1,1133,1044,0,0
-84,-20,0,0,0,0,0,0,0,0,0,-1,1140,1044,0,0
-77,-20,0,0,0,0,0,0,0,0,0,-1,1147,1044,0,0
-70,-20,0,0,0,0,0,0,0,0,0,-1,1154,1044,0,0
-63,-20,0,0,0,0,0,0,0,0,0,-1,1161,1044,0,0
-56,-20,0,0,0,0,0,0,0,0,0,-1,1168,1044,0,0
-49,-20,0,0,0,0,0,0,0,0,0,-1,1175,1044,0,0
-42,-20,0,0,0,0,0,0,0,0,0,-1,1182,1044,0,0
-35,-20,0,0,0,0,0,0,0,0,0,-1,1189,1044,0,0
-28,-20,0,0,0,0,0,0,0,0,0,-1,1196,1044,0,0
-21,-20,0,0,0,0,0,0,0,0,0,-1,1203,1044,0,0
-14,-20,0,0,0,0,0,0,0,0,0,-1,1210,1044,0,0
-7,-20,0,0,0,0,0,0,0,0,0,-1,1217,1044,0,0
0,-20,0,0,0,0,0,0,0,0,0,-1,1224,1044,0,0
7,-20,0,0,0,0,0,0,0,0,0,-1,1231,1044,0,0
14,-20,0,0,0,0,0,0,0,0,0,-1,1238,1044,0,0
21,-20,0,0,0,0,0,0,0,0,0,-1,1245,1044,0,0
28,-20,0,0,0,0,0,0,0,0,0,-1,1252,1044,0,0
35,-20,0,0,0,0,0,0,0,0,0,-1,1259,1044,0,0
42,-20,0,0,0,0,0,0,0,0,0,-1,1266,1044,0,0
49,-20,0,0,0,0,0,0,0,0,0,-1,1273,1044,0,0
56,-20,0,0,0,0,0,0,0,0,0,-1,1280,1044,0,0
63,-20,0,0,0,0,0,0,0,0,0,-1,1287,1044,0,0
70,-20,0,0,0,0,0,0,0,0,0,-1,1294,1044,0,0
77,-20,0,0,0,0,0,0,0,0,0,-1,1301,1044,0,0
84,-20,0,0,0,0,0,0,0,0,0,-1,1308,1044,0,0
91,-20,0,0,0,0,0,0,0,0,0,-1,1315,1044,0,0
98,-20,0,0,0,0,0,0,0,0,0,-1,1322,1044,0,0
105,-20,0,0,0,0,0,0,0,0,0,-1,1329,1044,0,0
112,-20,0,0,0,0,0,0,0,0,0,-1,1336,1044,0,0
119,-20,0,0,0,0,0,0,0,0,0,-1,1343,1044,0,0
126,-20,0,0,0,0,0,0,0,0,0,-1,1350,1044,0,0
133,-20,0,0,0,0,0,0,0,0,0,-1,1357,1044,0,0
140,-20,0,0,0,0,0,0,0,0,0,-1,1364,1044,0,0
147,-20,0,0,0,0,0,0,0,0,0,-1,1371,1044,0,0
154,-20,0,0,0,0,0,0,0,0,0,-1,1378,1044,0,0
161,-20,0,0,0,0,0,0,0,0,0,-1,1385,1044,0,0
168,-20,0,0,0,0,0,0,0,0,0,-1,1392,1044,0,0
175,-20,0,0,0,0,0,0,0,0,0,-1,1399,1044,0,0
182,-20,0,0,0,0,0,0,0,0,0,-1,1406,1044,0,0
189,-20,0,0,0,0,0,0,0,0,0,-1,1413,1044,0,0
196,-20,0,0,0,0,0,0,0,0,0,-1,1420,1044,0,0
203,-20,0,0,0,0,0,0,0,0,0,-1,1427,1044,0,0
210,-20,0,0,0,0,0,0,0,0,0,-1,1434,1044,0,0
217,-20,0,0,0,0,0,0,0,0,0,-1,1441,1044,0,0
224,-20,0,0,0,0,0,0,0,0,0,-1,1448,1044,0,0
231,-20,0,0,0,0,0,0,0,0,0,-1,1455,1044,0,0
238,-20,0,0,0,0,0,0,0,0,0,-1,1462,1044,0,0
245,-20,0,0,0,0,0,0,0,0,0,-1,1469,1044,0,0
252,-20,0,0,0,0,0,0,0,0,0,-1,1476,1044,0,0
259,-20,0,0,0,0,0,0,0,0,0,-1,1483,1044,0,0
266,-20,0,0,0,0,0,0,0,0,0,-1,1490,1044,0,0
273,-20,0,0,0,0,0,0,0,0,0,-1,1497,1044,0,0
280,-20,0,0,0,0,0,0,0,0,0,-1,1504,1044,0,0
287,-20,0,0,0,0,0,0,0,0,0,-1,1511,1044,0,0
294,-20,0,0,0,0,0,0,0,0,0,-1,1518,1044,0,0
301,-20,0,0,0,0,0,0,0,0,0,-1,1525,1044,0,0
308,-20,0,0,0,0,0,0,0,0,0,-1,1532,1044,0,0
315,-20,0,0,0,0,0,0,0,0,0,-1,1539,1044,0,0
322,-20,0,0,0,0,0,0,0,0,0,-1,1546,1044,0,0
329,-20,0,0,0,0,0,0,0,0,0,-1,1553,1044,0,0
336,-20,0,0,0,0,0,0,0,0,0,-1,1560,1044,0,0
343,-20,0,0,0,0,0,0,0,0,0,-1,1567,1044,0,0
350,-20,0,0,0,0,0,0,0,0,0,-1,1574,1044,0,0
357,-20,0,0,0,0,0,0,0,0,0,-1,1581,1044,0,0
364,-20,0,0,0,0,0,0,0,0,0,-1,1588,1044,0,0
371,-20,0,0,0,0,0,0,0,0,0,-1,1595,1044,0,0
378,-20,0,0,0,0,0,0,0,0,0,-1,1602,1044,0,0
385,-20,0,0,0,0,0,0,0,0,0,-1,1609,1044,0,0
392,-20,0,0,0,0,0,0,0,0,0,-1,1616,1044,0,0
399,-20,0,0,0,0,0,0,0,0,0,-1,1623,1044,0,0
406,-20,0,0,0,0,0,0,0,0,0,-1,1630,1044,0,0
413,-20,0,0,0,0,0,0,0,0,0,-1,1637,1044,0,0
420,-20,0,0,0,0,0,0,0,0,0,-1,1644,1044,0,0
427,-20,0,0,0,0,0,0,0,0,0,-1,1651,1044,0,0
434,-20,0,0,0,0,0,0,0,0,0,-1,1658,1044,0,0
441,-20,0,0,0,0,0,0,0,0,0,-1,1665,1044,0,0
448,-20,0,0,0,0,0,0,0,0,0,-1,1672,1044,0,0
455,-20,0,0,0,0,0,0,0,0,0,-1,1679,1044,0,0
462,-20,0,0,0,0,0,0,0,0,0,-1,1686,1044,0,0
469,-20,0,0,0,0,0,0,0,0,0,-1,1693,1044,0,0
476,-20,0,0,0,0,0,0,0,0,0,-1,1700,1044,0,0
483,-20,0,0,0,0,0,0,0,0,0,-1,1707,1044,0,0
490,-20,0,0,0,0,0,0,0,0,0,-1,1714,1044,0,0
497,-20,0,0,0,0,0,0,0,0,0,-1,1721,1044,0,0
504,-20,0,0,0,0,0,0,0,0,0,-1,1728,1044,0,0
511,-20,0,0,0,0,0,0,0,0,0,-1,1735,1044,0,0
518,-20,0,0,0,0,0,0,0,0,0,-1,1742,1044,0,0
525,-20,0,0,0,0,0,0,0,0,0,-1,1749,1044,0,0
532,-20,0,0,0,0,0,0,0,0,0,-1,1756,1044,0,0
539,-20,0,0,0,0,0,0,0,0,0,-1,1763,1044,0,0
546,-20,0,0,0,0,0,0,0,0,0,-1,1770,1044,0,0
553,-20,0,0,0,0,0,0,0,0,0,-1,1777,1044,0,0
560,-20,0,0,0,0,0,0,0,0,0,-1,1784,1044,0,0
567,-20,0,0,0,0,0,0,0,0,0,-1,1791,1044,0,0
574,-20,0,0,0,0,0,0,0,0,0,-1,1798,1044,0,0
581,-20,0,0,0,0,0,0,0,0,0,-1,1805,1044,0,0
588,-20,0,0,0,0,0,0,0,0,0,-1,1812,1044,0,0
595,-20,0,0,0,0,0,0,0,0,0,-1,1819,1044,0,0
602,-20,0,0,0,0,0,0,0,0,0,-1,1826,1044,0,0
609,-20,0,0,0,0,0,0,0,0,0,-1,1833,1044,0,0
616,-20,0,0,0,0,0,0,0,0,0,-1,1840,1044,0,0
623,-20,0,0,0,0,0,0,0,0,0,-1,1847,1044,0,0
630,-20,0,0,0,0,0,0,0,0,0,-1,1854,1044,0,0
637,-20,0,0,0,0,0,0,0,0,0,-1,1861,1044,0,0
644,-20,0,0,0,0,0,0,0,0,0,-1,1868,1044,0,0
651,-20,0.00634766,0.0968018,-0.00429536,-0.000710438,0.00226797,0.000387877,-0.00539367,1.11981,0.0037318,0.0332762,1875,1044,0.00638007,-0.0967993
658,-20,-0.0395508,0.167358,-0.00304608,-0.000269151,0.00120877,0.000183298,-0.00349853,1.21264,0.00239579,0.0366272,1882,1044,-0.039597,-0.167337
665,-20,-0.118774,0.13855,-0.00212329,-3.23914e-05,0.000615798,0.00013549,-0.00229117,1.30464,0.00157456,0.0321875,1889,1044,-0.118797,-0.1386
672,-20,-0.0740967,0.0643311,-0.00137773,6.79829e-05,0.000293883,0.00012544,-0.00143518,1.37772,0.00100123,0.0205148,1896,1044,-0.0741183,-0.0643371
679,-20,-0.0202637,-0.0352783,-0.000850221,8.96104e-05,0.000153074,0.000113914,-0.000874525,1.41334,0.000624461,0.0240239,1903,1044,-0.0202868,0.035269
686,-20,0.0427246,-0.1521,-0.000496596,6.60407e-05,0.000120525,9.07718e-05,-0.000521327,1.36841,0.000381426,0.0321441,1910,1044,0.0427485,0.152057
693,-20,0.0311279,-0.0944824,-0.000239984,2.09539e-05,0.000149477,8.88922e-05,-0.000307923,1.1442,0.000240453,0.03612,1917,1044,0.0310691,0.0944784
700,-20,-0.0318604,0.0511475,-4.67174e-05,3.65592e-06,0.000194803,0.000174893,-0.000217955,0.849688,0.000227265,0.0336683,1924,1044,-0.0318206,-0.0511566
707,-20,-0.034668,0.0568848,0.000115813,-4.16142e-05,0.000158361,0.000213944,-0.000139745,0.554755,0.000205695,0.0246497,1931,1044,-0.0346407,-0.0568321
714,-20,-0.03479,0.0549316,0.000154049,-0.000100348,0.000200599,0.000264378,-0.000210677,0.502842,0.000274857,0.0155599,1938,1044,-0.0347841,-0.0549315
721,-20,-0.0314941,0.0748291,0.000103105,-0.000160796,0.000290099,0.000289853,-0.000347544,0.57196,0.000368503,0.00972285,1945,1044,-0.0314971,-0.0747916
728,-20,-0.0432129,0.0769043,0.000124984,-0.000181925,0.000320196,0.000326598,-0.000383539,0.561943,0.000410437,0.0105242,1952,1044,-0.0431552,-0.0769356
735,-20,-0.0616455,0.0914307,0.00022026,-0.000152755,0.000275226,0.00036622,-0.000298715,0.487614,0.000384559,0.0136262,1959,1044,-0.0616419,-0.0914057
742,-20,-0.0543213,0.0723877,0.000246267,-0.000114341,8.07538e-05,0.000263525,-0.000131599,0.210543,0.000232325,0.0129258,1966,1044,-0.0542834,-0.0724166
749,-20,-0.041748,0.0645752,0.000517879,-3.08536e-05,-0.000284471,0.000638735,-0.000151709,-0.401738,0.000484378,0.0145179,1973,1044,-0.0418071,-0.0646146
756,-20,-0.0308838,0.0614014,0.00118635,-0.00035974,-0.000653402,0.00142549,-0.000598888,-0.35086,0.00120082,0.0110208,1980,1044,-0.0308835,-0.0613987
763,-20,-0.0593262,0.0493164,0.00191656,-0.000918188,-0.000848787,0.00215127,-0.0011529,-0.269785,0.00193647,0.0107478,1987,1044,-0.0593381,-0.0492957
770,-20,-0.0588379,0.0550537,0.00277883,-0.00145727,-0.00117084,0.00308091,-0.00175934,-0.252492,0.00282903,0.0106911,1994,1044,-0.0588136,-0.0550138
777,-20,-0.0662842,0.0974121,0.00397799,-0.00231396,-0.00149626,0.00431568,-0.00265166,-0.221973,0.00406066,0.0116749,2001,1044,-0.0663352,-0.0974474
784,-20,-0.0626221,0.0938721,0.00554476,-0.00361318,-0.0017824,0.00587943,-0.00394785,-0.185606,0.0057102,0.016445,2008,1044,-0.0626284,-0.0938907
791,-20,-0.0268555,-0.00158691,0.00751327,-0.00551784,-0.00195594,0.00780052,-0.00580509,-0.145818,0.00788331,0.0342089,2015,1044,-0.0268629,0.0016323
798,-20,0.0057373,-0.175537,0.010027,-0.008249,-0.00189564,0.0102215,-0.00844355,-0.102272,0.0107926,0.0410991,2022,1044,0.00570381,0.175568
805,-20,0.0439453,-0.215332,0.0132164,-0.0121026,-0.00139891,0.0132934,-0.0121796,-0.0550283,0.0147116,0.0413261,2029,1044,0.043921,0.215383
812,-20,0.083374,-0.110107,0.0170003,-0.0175339,-0.000172773,0.0170011,-0.0175348,-0.00500277,0.0199401,0.0427881,2036,1044,0.0833201,0.110109
-700,-27,-1.04474,1.41772,0,0,0,0,0,0,0,-1,524,1051,-1.04475,-1.4177
-693,-27,-0.794128,1.11316,0,0,0,0,0,0,0,-1,531,1051,-0.794155,-1.11318
-686,-27,-0.543579,0.808594,0,0,0,0,0,0,0,-1,538,1051,-0.543562,-0.808649
-679,-27,0.824219,1.52991,0,0,0,0,0,0,0,-1,545,1051,0.82423,-1.5299
-672,-27,0.136108,-0.472046,0,0,0,0,0,0,0,-1,552,1051,0.136091,0.47203
-665,-27,0.00726318,-0.948608,0,0,0,0,0,0,0,-1,559,1051,0.00728027,0.948553
-658,-27,-0.136597,-1.67725,0,0,0,0,0,0,0,-1,566,1051,-0.136603,1.67728
-651,-27,0.017395,0.170044,-0.00581416,0.014195,-0.00215876,0.0144252,-0.00604442,-1.46454,0.0121439,0.0322347,573,1051,0.0173996,-0.170035
-644,-27,-0.0281982,0.0618896,-0.00491243,0.0106084,-0.00123078,0.0107054,-0.00500942,-1.49215,0.00926948,0.0140614,580,1051,-0.0281712,-0.0618614
-637,-27,-0.0258179,0.0531006,-0.00438739,0.00771652,-0.000455936,0.00773367,-0.00440454,-1.5332,0.00709532,0.0110851,587,1051,-0.0258483,-0.0531275
-630,-27,-0.0356445,0.0865479,-0.00348245,0.00498151,0.000195908,0.00498605,-0.00348698,1.54767,0.00491736,0.0159979,594,1051,-0.0356684,-0.0864939
-623,-27,-0.0513306,0.0795898,-0.00226509,0.00326825,9.3474e-05,0.00326982,-0.00226667,1.55391,0.00321394,0.0149729,601,1051,-0.0513607,-0.0795419
-616,-27,-0.0330811,0.0565186,-0.00129395,0.00199338,7.40134e-05,0.00199504,-0.00129561,1.5483,0.00191411,0.0122485,608,1051,-0.0330785,-0.0564657
-609,-27,-0.0291138,0.0631104,-0.000572486,0.00100353,0.000170641,0.0010218,-0.000590751,1.46417,0.000942028,0.0126294,615,1051,-0.0290949,-0.0630568
-602,-27,-0.0043335,0.0838623,-6.72007e-05,-5.32617e-05,0.000109007,4.89986e-05,-0.000169461,0.817323,0.000132365,0.0109976,622,1051,-0.00436184,-0.0838395
-595,-27,-0.000427246,0.079834,0.000250489,-5.02034e-05,6.44929e-05,0.000263738,-6.34522e-05,0.202611,0.000200354,0.00945592,629,1051,-0.000429669,-0.0798495
-588,-27,-0.0209961,0.0609131,0.000407222,-5.34023e-05,0.000105955,0.000430425,-7.66057e-05,0.21559,0.0003156,0.01145,636,1051,-0.0209685,-0.0608596
-581,-27,-0.0256348,0.0865479,0.000478738,-3.70116e-05,4.78826e-05,0.000483146,-4.14194e-05,0.0917953,0.000336754,0.0161079,643,1051,-0.0256133,-0.0866066
-574,-27,-0.0153809,0.112915,0.000602732,-8.49891e-06,-1.69168e-05,0.0006032,-8.96674e-06,-0.0276483,0.000405155,0.0275315,650,1051,-0.0154014,-0.112925
-567,-27,0.0130005,0.182861,0.000698561,4.476e-05,-0.000133253,0.000724677,1.86444e-05,-0.193532,0.000477024,0.0355694,657,1051,0.0129891,-0.182815
-560,-27,0.0604858,0.270264,0.000759804,0.000124744,-0.00032417,0.000896049,-1.15013e-05,-0.397873,0.000601236,0.0409755,664,1051,0.0604753,-0.27021
-553,-27,0.0819702,0.249268,0.000786467,0.000239728,-0.000606975,0.00117879,-0.000152597,-0.573813,0.000841352,0.0384316,671,1051,0.0819658,-0.249321
-546,-27,0.0866089,0.206787,0.000731191,0.000393014,-0.000996624,0.00157297,-0.000448763,-0.701368,0.00122593,0.0391958,678,1051,0.0866363,-0.206795
-539,-27,0.124451,0.221802,0.000542277,0.000572777,-0.00150399,0.00206159,-0.000946537,-0.790468,0.00177607,0.0397269,685,1051,0.124462,-0.221806
-532,-27,0.143921,0.107666,6.66211e-05,0.000796326,-0.00215065,0.00261285,-0.0017499,-0.869422,0.00253521,0.0380612,692,1051,0.143933,-0.10765
-525,-27,0,0,0,0,0,0,0,0,0,-1,699,1051,0,0
-518,-27,0,0,0,0,0,0,0,0,0,-1,706,1051,0,0
-511,-27,0,0,0,0,0,0,0,0,0,-1,713,1051,0,0
-504,-27,0,0,0,0,0,0,0,0,0,-1,720,1051,0,0
-497,-27,0,0,0,0,0,0,0,0,0,-1,727,1051,0,0
-490,-27,0,0,0,0,0,0,0,0,0,-1,734,1051,0,0
-483,-27,0,0,0,0,0,0,0,0,0,-1,741,1051,0,0
-476,-27,0,0,0,0,0,0,0,0,0,-1,748,1051,0,0
-469,-27,0,0,0,0,0,0,0,0,0,-1,755,1051,0,0
-462,-27,0,0,0,0,0,0,0,0,0,-1,762,1051,0,0
-455,-27,0,0,0,0,0,0,0,0,0,-1,769,1051,0,0
-448,-27,0,0,0,0,0,0,0,0,0,-1,776,1051,0,0
-441,-27,0,0,0,0,0,0,0,0,0,-1,783,1051,0,0
-434,-27,0,0,0,0,0,0,0,0,0,-1,790,1051,0,0
-427,-27,0,0,0,0,0,0,0,0,0,-1,797,1051,0,0
-420,-27,0,0,0,0,0,0,0,0,0,-1,804,1051,0,0
-413,-27,0,0,0,0,0,0,0,0,0,-1,811,1051,0,0
-406,-27,0,0,0,0,0,0,0,0,0,-1,818,1051,0,0
-399,-27,0,0,0,0,0,0,0,0,0,-1,825,1051,0,0
-392,-27,0,0,0,0,0,0,0,0,0,-1,832,1051,0,0
-385,-27,0,0,0,0,0,0,0,0,0,-1,839,1051,0,0
-378,-27,0,0,0,0,0,0,0,0,0,-1,846,1051,0,0
-371,-27,0,0,0,0,0,0,0,0,0,-1,853,1051,0,0
-364,-27,0,0,0,0,0,0,0,0,0,-1,860,1051,0,0
-357,-27,0,0,0,0,0,0,0,0,0,-1,867,1051,0,0
-350,-27,0,0,0,0,0,0,0,0,0,-1,874,1051,0,0
-343,-27,0,0,0,0,0,0,0,0,0,-1,881,1051,0,0
-336,-27,0,0,0,0,0,0,0,0,0,-1,888,1051,0,0
-329,-27,0,0,0,0,0,0,0,0,0,-1,895,1051,0,0
-322,-27,0,0,0,0,0,0,0,0,0,-1,902,1051,0,0
-315,-27,0,0,0,0,0,0,0,0,0,-1,909,1051,0,0
-308,-27,0,0,0,0,0,0,0,0,0,-1,916,1051,0,0
-301,-27,0,0,0,0,0,0,0,0,0,-1,923,1051,0,0
-294,-27,0,0,0,0,0,0,0,0,0,-1,930,1051,0,0
-287,-27,0,0,0,0,0,0,0,0,0,-1,937,1051,0,0
-280,-27,0,0,0,0,0,0,0,0,0,-1,944,1051,0,0
-273,-27,0,0,0,0,0,0,0,0,0,-1,951,1051,0,0
-266,-27,0,0,0,0,0,0,0,0,0,-1,958,1051,0,0
-259,-27,0,0,0,0,0,0,0,0,0,-1,965,1051,0,0
-252,-27,0,0,0,0,0,0,0,0,0,-1,972,1051,0,0
-245,-27,0,0,0,0,0,0,0,0,0,-1,979,1051,0,0
-238,-27,0,0,0,0,0,0,0,0,0,-1,986,1051,0,0
-231,-27,0,0,0,0,0,0,0,0,0,-1,993,1051,0,0
-224,-27,0,0,0,0,0,0,0,0,0,-1,1000,1051,0,0
-217,-27,0,0,0,0,0,0,0,0,0,-1,1007,1051,0,0
-210,-27,0,0,0,0,0,0,0,0,0,-1,1014,1051,0,0
-203,-27,0,0,0,0,0,0,0,0,0,-1,1021,1051,0,0
-196,-27,0,0,0,0,0,0,0,0,0,-1,1028,1051,0,0
-189,-27,0,0,0,0,0,0,0,0,0,-1,1035,1051,0,0
-182,-27,0,0,0,0,0,0,0,0,0,-1,1042,1051,0,0
-175,-27,0,0,0,0,0,0,0,0,0,-1,1049,1051,0,0
-168,-27,0,0,0,0,0,0,0,0,0,-1,1056,1051,0,0
-161,-27,0,0,0,0,0,0,0,0,0,-1,1063,1051,0,0
-154,-27,0,0,0,0,0,0,0,0,0,-1,1070,1051,0,0
-147,-27,0,0,0,0,0,0,0,0,0,-1,1077,1051,0,0
-140,-27,0,0,0,0,0,0,0,0,0,-1,1084,1051,0,0
-133,-27,0,0,0,0,0,0,0,0,0,-1,1091,1051,0,0
-126,-27,0,0,0,0,0,0,0,0,0,-1,1098,1051,0,0
-119,-27,0,0,0,0,0,0,0,0,0,-1,1105,1051,0,0
-112,-27,0,0,0,0,0,0,0,0,0,-1,1112,1051,0,0
-105,-27,0,0,0,0,0,0,0,0,0,-1,1119,1051,0,0
-98,-27,0,0,0,0,0,0,0,0,0,-1,1126,1051,0,0
-91,-27,0,0,0,0,0,0,0,0,0,-1,1133,1051,0,0
-84,-27,0,0,0,0,0,0,0,0,0,-1,1140,1051,0,0
-77,-27,0,0,0,0,0,0,0,0,0,-1,1147,1051,0,0
-70,-27,0,0,0,0,0,0,0,0,0,-1,1154,1051,0,0
-63,-27,0,0,0,0,0,0,0,0,0,-1,1161,1051,0,0
-56,-27,0,0,0,0,0,0,0,0,0,-1,1168,1051,0,0
-49,-27,0,0,0,0,0,0,0,0,0,-1,1175,1051,0,0
-42,-27,0,0,0,0,0,0,0,0,0,-1,1182,1051,0,0
-35,-27,0,0,0,0,0,0,0,0,0,-1,1189,1051,0,0
-28,-27,0,0,0,0,0,0,0,0,0,-1,1196,1051,0,0
-21,-27,0,0,0,0,0,0,0,0,0,-1,1203,1051,0,0
-14,-27,0,0,0,0,0,0,0,0,0,-1,1210,1051,0,0
-7,-27,0,0,0,0,0,0,0,0,0,-1,1217,1051,0,0
0,-27,0,0,0,0,0,0,0,0,0,-1,1224,1051,0,0
7,-27,0,0,0,0,0,0,0,0,0,-1,1231,1051,0,0
14,-27,0,0,0,0,0,0,0,0,0,-1,1238,1051,0,0
21,-27,0,0,0,0,0,0,0,0,0,-1,1245,1051,0,0
28,-27,0,0,0,0,0,0,0,0,0,-1,1252,1051,0,0
35,-27,0,0,0,0,0,0,0,0,0,-1,1259,1051,0,0
42,-27,0,0,0,0,0,0,0,0,0,-1,1266,1051,0,0
49,-27,0,0,0,0,0,0,0,0,0,-1,1273,1051,0,0
56,-27,0,0,0,0,0,0,0,0,0,-1,1280,1051,0,0
63,-27,0,0,0,0,0,0,0,0,0,-1,1287,1051,0,0
70,-27,0,0,0,0,0,0,0,0,0,-1,1294,1051,0,0
77,-27,0,0,0,0,0,0,0,0,0,-1,1301,1051,0,0
84,-27,0,0,0,0,0,0,0,0,0,-1,1308,1051,0,0
91,-27,0,0,0,0,0,0,0,0,0,-1,1315,1051,0,0
98,-27,0,0,0,0,0,0,0,0,0,-1,1322,1051,0,0
105,-27,0,0,0,0,0,0,0,0,0,-1,1329,1051,0,0
112,-27,0,0,0,0,0,0,0,0,0,-1,1336,1051,0,0
119,-27,0,0,0,0,0,0,0,0,0,-1,1343,1051,0,0
126,-27,0,0,0,0,0,0,0,0,0,-1,1350,1051,0,0
133,-27,0,0,0,0,0,0,0,0,0,-1,1357,1051,0,0
140,-27,0,0,0,0,0,0,0,0,0,-1,1364,1051,0,0
147,-27,0,0,0,0,0,0,0,0,0,-1,1371,1051,0,0
154,-27,0,0,0,0,0,0,0,0,0,-1,1378,1051,0,0
161,-27,0,0,0,0,0,0,0,0,0,-1,1385,1051,0,0
168,-27,0,0,0,0,0,0,0,0,0,-1,1392,1051,0,0
175,-27,0,0,0,0,0,0,0,0,0,-1,1399,1051,0,0
182,-27,0,0,0,0,0,0,0,0,0,-1,1406,1051,0,0
189,-27,0,0,0,0,0,0,0,0,0,-1,1413,1051,0,0
196,-27,0,0,0,0,0,0,0,0,0,-1,1420,1051,0,0
203,-27,0,0,0,0,0,0,0,0,0,-1,1427,1051,0,0
210,-27,0,0,0,0,0,0,0,0,0,-1,1434,1051,0,0
217,-27,0,0,0,0,0,0,0,0,0,-1,1441,1051,0,0
224,-27,0,0,0,0,0,0,0,0,0,-1,1448,1051,0,0
231,-27,0,0,0,0,0,0,0,0,0,-1,1455,1051,0,0
238,-27,0,0,0,0,0,0,0,0,0,-1,1462,1051,0,0
245,-27,0,0,0,0,0,0,0,0,0,-1,1469,1051,0,0
252,-27,0,0,0,0,0,0,0,0,0,-1,1476,1051,0,0
259,-27,0,0,0,0,0,0,0,0,0,-1,1483,1051,0,0
266,-27,0,0,0,0,0,0,0,0,0,-1,1490,1051,0,0
273,-27,0,0,0,0,0,0,0,0,0,-1,1497,1051,0,0
280,-27,0,0,0,0,0,0,0,0,0,-1,1504,1051,0,0
287,-27,0,0,0,0,0,0,0,0,0,-1,1511,1051,0,0
294,-27,0,0,0,0,0,0,0,0,0,-1,1518,1051,0,0
301,-27,0,0,0,0,0,0,0,0,0,-1,1525,1051,0,0
308,-27,0,0,0,0,0,0,0,0,0,-1,1532,1051,0,0
315,-27,0,0,0,0,0,0,0,0,0,-1,1539,1051,0,0
322,-27,0,0,0,0,0,0,0,0,0,-1,1546,1051,0,0
329,-27,0,0,0,0,0,0,0,0,0,-1,1553,1051,0,0
336,-27,0,0,0,0,0,0,0,0,0,-1,1560,1051,0,0
343,-27,0,0,0,0,0,0,0,0,0,-1,1567,1051,0,0
350,-27,0,0,0,0,0,0,0,0,0,-1,1574,1051,0,0
357,-27,0,0,0,0,0,0,0,0,0,-1,1581,1051,0,0
364,-27,0,0,0,0,0,0,0,0,0,-1,1588,1051,0,0
371,-27,0,0,0,0,0,0,0,0,0,-1,1595,1051,0,0
378,-27,0,0,0,0,0,0,0,0,0,-1,1602,1051,0,0
385,-27,0,0,0,0,0,0,0,0,0,-1,1609,1051,0,0
392,-27,0,0,0,0,0,0,0,0,0,-1,1616,1051,0,0
399,-27,0,0,0,0,0,0,0,0,0,-1,1623,1051,0,0
406,-27,0,0,0,0,0,0,0,0,0,-1,1630,1051,0,0
413,-27,0,0,0,0,0,0,0,0,0,-1,1637,1051,0,0
420,-27,0,0,0,0,0,0,0,0,0,-1,1644,1051,0,0
427,-27,0,0,0,0,0,0,0,0,0,-1,1651,1051,0,0
434,-27,0,0,0,0,0,0,0,0,0,-1,1658,1051,0,0
441,-27,0,0,0,0,0,0,0,0,0,-1,1665,1051,0,0
448,-27,0,0,0,0,0,0,0,0,0,-1,1672,1051,0,0
455,-27,0,0,0,0,0,0,0,0,0,-1,1679,1051,0,0
462,-27,0,0,0,0,0,0,0,0,0,-1,1686,1051,0,0
469,-27,0,0,0,0,0,0,0,0,0,-1,1693,1051,0,0
476,-27,0,0,0,0,0,0,0,0,0,-1,1700,1051,0,0
483,-27,0,0,0,0,0,0,0,0,0,-1,1707,1051,0,0
490,-27,0,0,0,0,0,0,0,0,0,-1,1714,1051,0,0
497,-27,0,0,0,0,0,0,0,0,0,-1,1721,1051,0,0
504,-27,0,0,0,0,0,0,0,0,0,-1,1728,1051,0,0
511,-27,0,0,0,0,0,0,0,0,0,-1,1735,1051,0,0
518,-27,0,0,0,0,0,0,0,0,0,-1,1742,1051,0,0
525,-27,0,0,0,0,0,0,0,0,0,-1,1749,1051,0,0
532,-27,0,0,0,0,0,0,0,0,0,-1,1756,1051,0,0
539,-27,0,0,0,0,0,0,0,0,0,-1,1763,1051,0,0
546,-27,0,0,0,0,0,0,0,0,0,-1,1770,1051,0,0
553,-27,0,0,0,0,0,0,0,0,0,-1,1777,1051,0,0
560,-27,0,0,0,0,0,0,0,0,0,-1,1784,1051,0,0
567,-27,0,0,0,0,0,0,0,0,0,-1,1791,1051,0,0
574,-27,0,0,0,0,0,0,0,0,0,-1,1798,1051,0,0
581,-27,0,0,0,0,0,0,0,0,0,-1,1805,1051,0,0
588,-27,0,0,0,0,0,0,0,0,0,-1,1812,1051,0,0
595,-27,0,0,0,0,0,0,0,0,0,-1,1819,1051,0,0
602,-27,0,0,0,0,0,0,0,0,0,-1,1826,1051,0,0
609,-27,0,0,0,0,0,0,0,0,0,-1,1833,1051,0,0
616,-27,0,0,0,0,0,0,0,0,0,-1,1840,1051,0,0
623,-27,0,0,0,0,0,0,0,0,0,-1,1847,1051,0,0
630,-27,0,0,0,0,0,0,0,0,0,-1,1854,1051,0,0
637,-27,0,0,0,0,0,0,0,0,0,-1,1861,1051,0,0
644,-27,0,0,0,0,0,0,0,0,0,-1,1868,1051,0,0
651,-27,0.00585938,0.239258,-0.00450358,-0.000198482,0.00184307,0.00048276,-0.00518482,1.21675,0.00362819,0.0357685,1875,1051,0.0058072,-0.239222
658,-27,-0.0593262,0.300659,-0.00318571,3.91969e-05,0.000885279,0.000266234,-0.00341275,1.31975,0.0023689,0.0362863,1882,1051,-0.0592997,-0.300636
665,-27,-0.0975342,0.167603,-0.00220928,0.000129957,0.000387374,0.000192436,-0.00227176,1.41088,0.00158256,0.0316301,1889,1051,-0.0975002,-0.167557
672,-27,-0.0839844,0.116333,-0.00143034,0.000128889,0.000137555,0.000140931,-0.00144238,1.48348,0.00101184,0.0235525,1896,1051,-0.0839871,-0.116386
679,-27,-0.0684814,0.072998,-0.00088015,8.81932e-05,4.63647e-05,9.04081e-05,-0.000882365,1.52306,0.000620578,0.0245096,1903,1051,-0.0684387,-0.072951
686,-27,-0.0177002,-0.0550537,-0.000511749,3.4447e-05,4.76995e-05,3.85813e-05,-0.000515884,1.48434,0.000357478,0.0334885,1910,1051,-0.0177387,0.0550812
693,-27,-0.0280762,-0.0834961,-0.000249616,-2.06756e-05,9.70095e-05,1.49017e-05,-0.000285193,1.21929,0.000195286,0.035412,1917,1051,-0.0280517,0.0835119
700,-27,-0.027832,-0.012207,-5.46134e-05,-4.1804e-05,0.000164012,0.000115928,-0.000212346,0.804913,0.000192235,0.0338993,1924,1051,-0.0278772,0.0122585
707,-27,-0.0440674,0.0285645,0.000115449,-8.16972e-05,0.000138507,0.000186878,-0.000153126,0.476136,0.000196624,0.0204185,1931,1051,-0.0440321,-0.0285288
714,-27,-0.0432129,0.0423584,0.000157022,-0.000126886,0.000187393,0.000250158,-0.000220021,0.461249,0.000271643,0.0130423,1938,1051,-0.0432499,-0.0424068
721,-27,-0.0318604,0.0603027,9.81896e-05,-0.000167541,0.000274,0.000269839,-0.00033919,0.559647,0.000352382,0.00919117,1945,1051,-0.0319159,-0.0602765
728,-27,-0.0567627,0.0727539,0.000107059,-0.000167954,0.000286896,0.000287699,-0.000348594,0.561927,0.000367924,0.011485,1952,1051,-0.0567244,-0.0727443
735,-27,-0.0632324,0.0904541,0.000200168,-0.000128713,0.0002294,0.000317978,-0.000246523,0.474433,0.000326784,0.0144667,1959,1051,-0.0632406,-0.0905056
742,-27,-0.0472412,0.0726318,0.000238369,-9.7826e-05,4.76585e-05,0.000244995,-0.000104451,0.138133,0.000207121,0.014754,1966,1051,-0.0471824,-0.0726079
749,-27,-0.034668,0.0705566,0.000441919,-5.30113e-05,-0.000273823,0.000563531,-0.000174623,-0.417959,0.000445454,0.0108509,1973,1051,-0.0346083,-0.070567
756,-27,-0.034668,0.0900879,0.00117077,-0.000484756,-0.000592865,0.00136119,-0.000675167,-0.310766,0.00119772,0.01043,1980,1051,-0.0346518,-0.0900831
763,-27,-0.0567627,0.0739746,0.00211586,-0.00097791,-0.000746147,0.00228641,-0.00114846,-0.224716,0.00201908,0.0114967,1987,1051,-0.0568198,-0.0739781
770,-27,-0.0700684,0.0612793,0.0031545,-0.00153714,-0.000998233,0.00335806,-0.0017407,-0.201163,0.00299273,0.0137988,1994,1051,-0.070128,-0.0612257
777,-27,-0.0838623,0.097168,0.0046352,-0.00239415,-0.00123014,0.00484426,-0.00260321,-0.168337,0.00436421,0.0146701,2001,1051,-0.083869,-0.0971202
784,-27,-0.0720215,0.0904541,0.00663835,-0.00364811,-0.00140085,0.00682571,-0.00383547,-0.132958,0.00623541,0.022464,2008,1051,-0.0719661,-0.0904458
791,-27,-0.0330811,-0.0253906,0.00926813,-0.00542228,-0.00143618,0.00940722,-0.00556137,-0.0965454,0.00873668,0.0398596,2015,1051,-0.0330255,0.0253382
798,-27,-0.129028,0.0418701,0.0127491,-0.00788432,-0.00122214,0.0128212,-0.00795645,-0.0589564,0.0121051,0.0440911,2022,1051,-0.128997,-0.041835
805,-27,0.0955811,-0.0179443,0.01733,-0.0112475,-0.000567151,0.0173412,-0.0112587,-0.0198357,0.0166362,0.0488066,2029,1051,0.0955856,0.0179533
812,-27,0.179443,0.041748,0,0,0,0,0,0,0,-1,2036,1051,0.179435,-0.0417281
-700,-34,3.41498,5.02405,0,0,0,0,0,0,0,-1,524,1058,3.41497,-5.02406
-693,-34,-0.9823,1.13562,0,0,0,0,0,0,0,-1,531,1058,-0.982321,-1.13557
-686,-34,0.778015,1.85327,0,0,0,0,0,0,0,-1,538,1058,0.778017,-1.85325
-679,-34,0.631714,0.980957,0,0,0,0,0,0,0,-1,545,1058,0.631704,-0.980938
-672,-34,0.0255737,0.0939941,0,0,0,0,0,0,0,-1,552,1058,0.0255524,-0.094016
-665,-34,0.218201,-0.914917,0,0,0,0,0,0,0,-1,559,1058,0.21823,0.914905
-658,-34,0.410889,-1.92383,0,0,0,0,0,0,0,-1,566,1058,0.410908,1.92383
-651,-34,0.0175171,0.160278,-0.00619375,0.0143011,-0.00216363,0.014527,-0.00641967,-1.46675,0.0123919,0.0263092,573,1058,0.0175138,-0.160303
-644,-34,-0.027832,0.0653076,-0.00528796,0.0106711,-0.00123439,0.0107661,-0.00538288,-1.49406,0.00949469,0.00995908,580,1058,-0.0278057,-0.0653141
-637,-34,-0.0222778,0.0593262,-0.00483613,0.00771953,-0.000480735,0.00773791,-0.00485451,-1.53258,0.00733349,0.00995762,587,1058,-0.0222758,-0.0593708
-630,-34,-0.0318604,0.0773926,-0.00390826,0.00497715,0.000175003,0.00498059,-0.00391171,1.55111,0.00514632,0.0134441,594,1058,-0.0318423,-0.0773631
-623,-34,-0.0470581,0.0662842,-0.00247207,0.00325706,6.47126e-05,0.00325779,-0.0024728,1.5595,0.00331889,0.0125533,601,1058,-0.0470682,-0.0663217
-616,-34,-0.0545654,0.0622559,-0.00133675,0.00199203,0.000131722,0.00199723,-0.00134196,1.53131,0.00194022,0.0184009,608,1058,-0.0545487,-0.0622573
-609,-34,-0.0471191,0.0501709,-0.000556903,0.000999543,0.000190892,0.00102261,-0.000579974,1.45052,0.000936944,0.0173891,615,1058,-0.0471383,-0.0502058
-602,-34,-0.0233765,0.0634766,-2.32745e-05,-1.31279e-05,0.000119864,0.00010177,-0.000138172,0.806548,0.000139061,0.0141223,622,1058,-0.0233472,-0.0634193
-595,-34,-0.00445557,0.0701904,0.000321026,-4.23979e-06,8.15014e-05,0.000340305,-2.35188e-05,0.232279,0.000235102,0.0115795,629,1058,-0.00446504,-0.0702053
-588,-34,-0.0157471,0.0548096,0.000495424,1.91249e-05,0.000131337,0.000529238,-1.46898e-05,0.251992,0.000357823,0.0155863,636,1058,-0.0157757,-0.0547528
-581,-34,-0.0344238,0.0690918,0.000584924,6.06217e-05,7.94088e-05,0.000596687,4.88588e-05,0.147063,0.000382547,0.0189938,643,1058,-0.0344327,-0.0690441
-574,-34,-0.0161133,0.0872803,0.000727664,0.000118362,2.24166e-05,0.000728488,0.000117538,0.0367244,0.000451607,0.0305708,650,1058,-0.0161034,-0.0872846
-567,-34,0.0128784,0.0812988,0.000836029,0.000197952,-8.18971e-05,0.000846373,0.000187608,-0.125637,0.000513271,0.0353623,657,1058,0.0128906,-0.0812681
-560,-34,0.0119629,0.164917,0.000898495,0.000297026,-0.000257165,0.000993456,0.000202064,-0.35373,0.000606279,0.0377187,664,1058,0.0119858,-0.164893
-553,-34,0.0596924,0.290405,0.000913826,0.000419339,-0.000520801,0.00124309,9.00732e-05,-0.563781,0.000800395,0.0406965,671,1058,0.0596864,-0.290452
-546,-34,0.0209351,0.129517,0.000833307,0.000564273,-0.000881163,0.00159016,-0.000192581,-0.709654,0.00112979,0.0414826,678,1058,0.0209498,-0.129565
-539,-34,0.130676,0.0423584,0.000607134,0.000714112,-0.0013504,0.00201208,-0.000690836,-0.805193,0.00162149,0.0383615,685,1058,0.130705,-0.0424067
-532,-34,0.166809,-0.0802002,7.50314e-05,0.000876207,-0.00195738,0.00247357,-0.00152233,-0.886332,0.00232872,0.0383941,692,1058,0.166825,0.0801906
-525,-34,0,0,0,0,0,0,0,0,0,-1,699,1058,0,0
-518,-34,0,0,0,0,0,0,0,0,0,-1,706,1058,0,0
-511,-34,0,0,0,0,0,0,0,0,0,-1,713,1058,0,0
-504,-34,0,0,0,0,0,0,0,0,0,-1,720,1058,0,0
-497,-34,0,0,0,0,0,0,0,0,0,-1,727,1058,0,0
-490,-34,0,0,0,0,0,0,0,0,0,-1,734,1058,0,0
-483,-34,0,0,0,0,0,0,0,0,0,-1,741,1058,0,0
-476,-34,0,0,0,0,0,0,0,0,0,-1,748,1058,0,0
-469,-34,0,0,0,0,0,0,0,0,0,-1,755,1058,0,0
-462,-34,0,0,0,0,0,0,0,0,0,-1,762,1058,0,0
-455,-34,0,0,0,0,0,0,0,0,0,-1,769,1058,0,0
-448,-34,0,0,0,0,0,0,0,0,0,-1,776,1058,0,0
-441,-34,0,0,0,0,0,0,0,0,0,-1,783,1058,0,0
-434,-34,0,0,0,0,0,0,0,0,0,-1,790,1058,0,0
-427,-34,0,0,0,0,0,0,0,0,0,-1,797,1058,0,0
-420,-34,0,0,0,0,0,0,0,0,0,-1,804,1058,0,0
-413,-34,0,0,0,0,0,0,0,0,0,-1,811,1058,0,0
-406,-34,0,0,0,0,0,0,0,0,0,-1,818,1058,0,0
-399,-34,0,0,0,0,0,0,0,0,0,-1,825,1058,0,0
-392,-34,0,0,0,0,0,0,0,0,0,-1,832,1058,0,0
-385,-34,0,0,0,0,0,0,0,0,0,-1,839,1058,0,0
-378,-34,0,0,0,0,0,0,0,0,0,-1,846,1058,0,0
-371,-34,0,0,0,0,0,0,0,0,0,-1,853,1058,0,0
-364,-34,0,0,0,0,0,0,0,0,0,-1,860,1058,0,0
-357,-34,0,0,0,0,0,0,0,0,0,-1,867,1058,0,0
-350,-34,0,0,0,0,0,0,0,0,0,-1,874,1058,0,0
-343,-34,0,0,0,0,0,0,0,0,0,-1,881,1058,0,0
-336,-34,0,0,0,0,0,0,0,0,0,-1,888,1058,0,0
-329,-34,0,0,0,0,0,0,0,0,0,-1,895,1058,0,0
-322,-34,0,0,0,0,0,0,0,0,0,-1,902,1058,0,0
-315,-34,0,0,0,0,0,0,0,0,0,-1,909,1058,0,0
-308,-34,0,0,0,0,0,0,0,0,0,-1,916,1058,0,0
-301,-34,0,0,0,0,0,0,0,0,0,-1,923,1058,0,0
-294,-34,0,0,0,0,0,0,0,0,0,-1,930,1058,0,0
-287,-34,0,0,0,0,0,0,0,0,0,-1,937,1058,0,0
-280,-34,0,0,0,0,0,0,0,0,0,-1,944,1058,0,0
-273,-34,0,0,0,0,0,0,0,0,0,-1,951,1058,0,0
-266,-34,0,0,0,0,0,0,0,0,0,-1,958,1058,0,0
-259,-34,0,0,0,0,0,0,0,0,0,-1,965,1058,0,0
-252,-34,0,0,0,0,0,0,0,0,0,-1,972,1058,0,0
-245,-34,0,0,0,0,0,0,0,0,0,-1,979,1058,0,0
-238,-34,0,0,0,0,0,0,0,0,0,-1,986,1058,0,0
-231,-34,0,0,0,0,0,0,0,0,0,-1,993,1058,0,0
-224,-34,0,0,0,0,0,0,0,0,0,-1,1000,1058,0,0
-217,-34,0,0,0,0,0,0,0,0,0,-1,1007,1058,0,0
-210,-34,0,0,0,0,0,0,0,0,0,-1,1014,1058,0,0
-203,-34,0,0,0,0,0,0,0,0,0,-1,1021,1058,0,0
-196,-34,0,0,0,0,0,0,0,0,0,-1,1028,1058,0,0
-189,-34,0,0,0,0,0,0,0,0,0,-1,1035,1058,0,0
-182,-34,0,0,0,0,0,0,0,0,0,-1,1042,1058,0,0
-175,-34,0,0,0,0,0,0,0,0,0,-1,1049,1058,0,0
-168,-34,0,0,0,0,0,0,0,0,0,-1,1056,1058,0,0
-161,-34,0,0,0,0,0,0,0,0,0,-1,1063,1058,0,0
-154,-34,0,0,0,0,0,0,0,0,0,-1,1070,1058,0,0
-147,-34,0,0,0,0,0,0,0,0,0,-1,1077,1058,0,0
-140,-34,0,0,0,0,0,0,0,0,0,-1,1084,1058,0,0
-133,-34,0,0,0,0,0,0,0,0,0,-1,1091,1058,0,0
-126,-34,0,0,0,0,0,0,0,0,0,-1,1098,1058,0,0
-119,-34,0,0,0,0,0,0,0,0,0,-1,1105,1058,0,0
-112,-34,0,0,0,0,0,0,0,0,0,-1,1112,1058,0,0
-105,-34,0,0,0,0,0,0,0,0,0,-1,1119,1058,0,0
-98,-34,0,0,0,0,0,0,0,0,0,-1,1126,1058,0,0
-91,-34,0,0,0,0,0,0,0,0,0,-1,1133,1058,0,0
-84,-34,0,0,0,0,0,0,0,0,0,-1,1140,1058,0,0
-77,-34,0,0,0,0,0,0,0,0,0,-1,1147,1058,0,0
-70,-34,0,0,0,0,0,0,0,0,0,-1,1154,1058,0,0
-63,-34,0,0,0,0,0,0,0,0,0,-1,1161,1058,0,0
-56,-34,0,0,0,0,0,0,0,0,0,-1,1168,1058,0,0
-49,-34,0,0,0,0,0,0,0,0,0,-1,1175,1058,0,0
-42,-34,0,0,0,0,0,0,0,0,0,-1,1182,1058,0,0
-35,-34,0,0,0,0,0,0,0,0,0,-1,1189,1058,0,0
-28,-34,0,0,0,0,0,0,0,0,0,-1,1196,1058,0,0
-21,-34,0,0,0,0,0,0,0,0,0,-1,1203,1058,0,0
-14,-34,0,0,0,0,0,0,0,0,0,-1,1210,1058,0,0
-7,-34,0,0,0,0,0,0,0,0,0,-1,1217,1058,0,0
0,-34,0,0,0,0,0,0,0,0,0,-1,1224,1058,0,0
7,-34,0,0,0,0,0,0,0,0,0,-1,1231,1058,0,0
14,-34,0,0,0,0,0,0,0,0,0,-1,1238,1058,0,0
21,-34,0,0,0,0,0,0,0,0,0,-1,1245,1058,0,0
28,-34,0,0,0,0,0,0,0,0,0,-1,1252,1058,0,0
35,-34,0,0,0,0,0,0,0,0,0,-1,1259,1058,0,0
42,-34,0,0,0,0,0,0,0,0,0,-1,1266,1058,0,0
49,-34,0,0,0,0,0,0,0,0,0,-1,1273,1058,0,0
56,-34,0,0,0,0,0,0,0,0,0,-1,1280,1058,0,0
63,-34,0,0,0,0,0,0,0,0,0,-1,1287,1058,0,0
70,-34,0,0,0,0,0,0,0,0,0,-1,1294,1058,0,0
77,-34,0,0,0,0,0,0,0,0,0,-1,1301,1058,0,0
84,-34,0,0,0,0,0,0,0,0,0,-1,1308,1058,0,0
91,-34,0,0,0,0,0,0,0,0,0,-1,1315,1058,0,0
98,-34,0,0,0,0,0,0,0,0,0,-1,1322,1058,0,0
105,-34,0,0,0,0,0,0,0,0,0,-1,1329,1058,0,0
112,-34,0,0,0,0,0,0,0,0,0,-1,1336,1058,0,0
119,-34,0,0,0,0,0,0,0,0,0,-1,1343,1058,0,0
126,-34,0,0,0,0,0,0,0,0,0,-1,1350,1058,0,0
133,-34,0,0,0,0,0,0,0,0,0,-1,1357,1058,0,0
140,-34,0,0,0,0,0,0,0,0,0,-1,1364,1058,0,0
147,-34,0,0,0,0,0,0,0,0,0,-1,1371,1058,0,0
154,-34,0,0,0,0,0,0,0,0,0,-1,1378,1058,0,0
161,-34,0,0,0,0,0,0,0,0,0,-1,1385,1058,0,0
168,-34,0,0,0,0,0,0,0,0,0,-1,1392,1058,0,0
175,-34,0,0,0,0,0,0,0,0,0,-1,1399,1058,0,0
182,-34,0,0,0,0,0,0,0,0,0,-1,1406,1058,0,0
189,-34,0,0,0,0,0,0,0,0,0,-1,1413,1058,0,0
196,-34,0,0,0,0,0,0,0,0,0,-1,1420,1058,0,0
203,-34,0,0,0,0,0,0,0,0,0,-1,1427,1058,0,0
210,-34,0,0,0,0,0,0,0,0,0,-1,1434,1058,0,0
217,-34,0,0,0,0,0,0,0,0,0,-1,1441,1058,0,0
224,-34,0,0,0,0,0,0,0,0,0,-1,1448,1058,0,0
231,-34,0,0,0,0,0,0,0,0,0,-1,1455,1058,0,0
238,-34,0,0,0,0,0,0,0,0,0,-1,1462,1058,0,0
245,-34,0,0,0,0,0,0,0,0,0,-1,1469,1058,0,0
252,-34,0,0,0,0,0,0,0,0,0,-1,1476,1058,0,0
259,-34,0,0,0,0,0,0,0,0,0,-1,1483,1058,0,0
266,-34,0,0,0,0,0,0,0,0,0,-1,1490,1058,0,0
273,-34,0,0,0,0,0,0,0,0,0,-1,1497,1058,0,0
280,-34,0,0,0,0,0,0,0,0,0,-1,1504,1058,0,0
287,-34,0,0,0,0,0,0,0,0,0,-1,1511,1058,0,0
294,-34,0,0,0,0,0,0,0,0,0,-1,1518,1058,0,0
301,-34,0,0,0,0,0,0,0,0,0,-1,1525,1058,0,0
308,-34,0,0,0,0,0,0,0,0,0,-1,1532,1058,0,0
315,-34,0,0,0,0,0,0,0,0,0,-1,1539,1058,0,0
322,-34,0,0,0,0,0,0,0,0,0,-1,1546,1058,0,0
329,-34,0,0,0,0,0,0,0,0,0,-1,1553,1058,0,0
336,-34,0,0,0,0,0,0,0,0,0,-1,1560,1058,0,0
343,-34,0,0,0,0,0,0,0,0,0,-1,1567,1058,0,0
350,-34,0,0,0,0,0,0,0,0,0,-1,1574,1058,0,0
357,-34,0,0,0,0,0,0,0,0,0,-1,1581,1058,0,0
364,-34,0,0,0,0,0,0,0,0,0,-1,1588,1058,0,0
371,-34,0,0,0,0,0,0,0,0,0,-1,1595,1058,0,0
378,-34,0,0,0,0,0,0,0,0,0,-1,1602,1058,0,0
385,-34,0,0,0,0,0,0,0,0,0,-1,1609,1058,0,0
392,-34,0,0,0,0,0,0,0,0,0,-1,1616,1058,0,0
399,-34,0,0,0,0,0,0,0,0,0,-1,1623,1058,0,0
406,-34,0,0,0,0,0,0,0,0,0,-1,1630,1058,0,0
413,-34,0,0,0,0,0,0,0,0,0,-1,1637,1058,0,0
420,-34,0,0,0,0,0,0,0,0,0,-1,1644,1058,0,0
427,-34,0,0,0,0,0,0,0,0,0,-1,1651,1058,0,0
434,-34,0,0,0,0,0,0,0,0,0,-1,1658,1058,0,0
441,-34,0,0,0,0,0,0,0,0,0,-1,1665,1058,0,0
448,-34,0,0,0,0,0,0,0,0,0,-1,1672,1058,0,0
455,-34,0,0,0,0,0,0,0,0,0,-1,1679,1058,0,0
462,-34,0,0,0,0,0,0,0,0,0,-1,1686,1058,0,0
469,-34,0,0,0,0,0,0,0,0,0,-1,1693,1058,0,0
476,-34,0,0,0,0,0,0,0,0,0,-1,1700,1058,0,0
483,-34,0,0,0,0,0,0,0,0,0,-1,1707,1058,0,0
490,-34,0,0,0,0,0,0,0,0,0,-1,1714,1058,0,0
497,-34,0,0,0,0,0,0,0,0,0,-1,1721,1058,0,0
504,-34,0,0,0,0,0,0,0,0,0,-1,1728,1058,0,0
511,-34,0,0,0,0,0,0,0,0,0,-1,1735,1058,0,0
518,-34,0,0,0,0,0,0,0,0,0,-1,1742,1058,0,0
525,-34,0,0,0,0,0,0,0,0,0,-1,1749,1058,0,0
532,-34,0,0,0,0,0,0,0,0,0,-1,1756,1058,0,0
539,-34,0,0,0,0,0,0,0,0,0,-1,1763,1058,0,0
546,-34,0,0,0,0,0,0,0,0,0,-1,1770,1058,0,0
553,-34,0,0,0,0,0,0,0,0,0,-1,1777,1058,0,0
560,-34,0,0,0,0,0,0,0,0,0,-1,1784,1058,0,0
567,-34,0,0,0,0,0,0,0,0,0,-1,1791,1058,0,0
574,-34,0,0,0,0,0,0,0,0,0,-1,1798,1058,0,0
581,-34,0,0,0,0,0,0,0,0,0,-1,1805,1058,0,0
588,-34,0,0,0,0,0,0,0,0,0,-1,1812,1058,0,0
595,-34,0,0,0,0,0,0,0,0,0,-1,1819,1058,0,0
602,-34,0,0,0,0,0,0,0,0,0,-1,1826,1058,0,0
609,-34,0,0,0,0,0,0,0,0,0,-1,1833,1058,0,0
616,-34,0,0,0,0,0,0,0,0,0,-1,1840,1058,0,0
623,-34,0,0,0,0,0,0,0,0,0,-1,1847,1058,0,0
630,-34,0,0,0,0,0,0,0,0,0,-1,1854,1058,0,0
637,-34,0,0,0,0,0,0,0,0,0,-1,1861,1058,0,0
644,-34,0,0,0,0,0,0,0,0,0,-1,1868,1058,0,0
651,-34,-0.00830078,0.102295,-0.004444,-1.62097e-05,0.00164739,0.000529467,-0.00498967,1.25093,0.00351625,0.0376964,1875,1058,-0.00834688,-0.10224
658,-34,-0.0231934,0.185425,-0.00312447,0.000102095,0.000751645,0.000268603,-0.00329098,1.35279,0.00228878,0.0391645,1882,1058,-0.0231792,-0.185418
665,-34,-0.0559082,0.141602,-0.00215424,0.000116708,0.000310106,0.000158293,-0.00219583,1.43749,0.0015194,0.0359358,1889,1058,-0.0558652,-0.141653
672,-34,-0.050415,0.0787354,-0.00138829,7.09295e-05,9.78631e-05,7.74635e-05,-0.00139482,1.50413,0.000956748,0.030626,1896,1058,-0.0504174,-0.0786932
679,-34,-0.100464,0.133423,-0.000852381,8.89937e-06,2.63624e-05,9.70555e-06,-0.000853187,1.54023,0.000572054,0.0326422,1903,1058,-0.100435,-0.133381
686,-34,-0.0769043,0.157715,-0.000495398,-4.76067e-05,3.80166e-05,-4.44021e-05,-0.000498602,1.4867,0.000318634,0.0370502,1910,1058,-0.07686,-0.1577
693,-34,-0.0526123,0.0333252,-0.000246808,-9.40809e-05,9.10891e-05,-5.15806e-05,-0.000289309,1.13424,0.000178185,0.0357672,1917,1058,-0.0526094,-0.0333351
700,-34,-0.0548096,-0.00512695,-6.20122e-05,-0.000101926,0.000160256,7.95247e-05,-0.000243462,0.723452,0.000194319,0.0331984,1924,1058,-0.0548326,0.00517299
707,-34,-0.0615234,0.050415,0.00010261,-0.000130534,0.000137989,0.000166676,-0.0001946,0.434668,0.00020879,0.0189617,1931,1058,-0.0614949,-0.0503854
714,-34,-0.0412598,0.0701904,0.00013751,-0.000158997,0.000189713,0.000230026,-0.000251513,0.453732,0.000278109,0.0107382,1938,1058,-0.0412166,-0.0702183
721,-34,-0.0297852,0.053833,7.30613e-05,-0.000175374,0.000271997,0.000247863,-0.000350176,0.571198,0.000346958,0.0104003,1945,1058,-0.0297731,-0.0538707
728,-34,-0.0540771,0.072998,7.58998e-05,-0.000157611,0.000269552,0.000252896,-0.000334607,0.581023,0.000340287,0.0114427,1952,1058,-0.0540543,-0.0729779
735,-34,-0.0612793,0.0782471,0.000164993,-0.00011818,0.00020619,0.000273528,-0.000226715,0.484533,0.000289237,0.0127757,1959,1058,-0.0612898,-0.0782182
742,-34,-0.0598145,0.0753174,0.000221064,-0.00011203,4.65622e-05,0.00022745,-0.000118416,0.136307,0.000202967,0.0128126,1966,1058,-0.0597838,-0.0753586
749,-34,-0.0391846,0.0866699,0.000386453,-0.000116868,-0.00021444,0.000465424,-0.00019584,-0.352857,0.000392214,0.0109096,1973,1058,-0.03918,-0.0866785
756,-34,-0.0391846,0.102905,0.00111856,-0.000625763,-0.000489854,0.00124671,-0.000753913,-0.255874,0.00116668,0.00876317,1980,1058,-0.0391884,-0.102864
763,-34,-0.0640869,0.0946045,0.00215377,-0.00106438,-0.000595539,0.00226045,-0.00117105,-0.17724,0.00201418,0.00940243,1987,1058,-0.0641022,-0.0945828
770,-34,-0.0787354,0.0732422,0.00325174,-0.00163965,-0.00077515,0.00337165,-0.00175955,-0.153464,0.00301084,0.0142357,1994,1058,-0.0787599,-0.0732883
777,-34,-0.0870361,0.098999,0.00482808,-0.00248394,-0.000917244,0.00494139,-0.00259725,-0.122906,0.00442202,0.015392,2001,1058,-0.0870332,-0.0989671
784,-34,-0.0616455,0.12146,0.00697585,-0.00367203,-0.000987101,0.00706659,-0.00376276,-0.091663,0.00634858,0.0309123,2008,1058,-0.0616474,-0.121506
791,-34,0.0406494,0.119873,0.00982043,-0.00528817,-0.000915459,0.0098757,-0.00534344,-0.0602978,0.0089157,0.0434593,2015,1058,0.0406821,-0.11993
798,-34,-0.0946045,0.384888,0.0135974,-0.00744621,-0.000603502,0.0136147,-0.0074635,-0.0286472,0.012341,0.0448935,2022,1058,-0.0945816,-0.384861
805,-34,0.175293,0.147339,0,0,0,0,0,0,0,-1,2029,1058,0.175342,-0.147304
812,-34,-0.088501,-0.510742,0,0,0,0,0,0,0,-1,2036,1058,-0.0884896,0.510717
-700,-41,1.06604,2.72046,0,0,0,0,0,0,0,-1,524,1065,1.06603,-2.72048
-693,-41,0.877625,2.06799,0,0,0,0,0,0,0,-1,531,1065,0.877611,-2.06804
-686,-41,0.638,1.36145,0,0,0,0,0,0,0,-1,538,1065,0.637985,-1.36148
-679,-41,0.498108,0.491455,0,0,0,0,0,0,0,-1,545,1065,0.498101,-0.491487
-672,-41,-0.0557251,0.302734,0,0,0,0,0,0,0,-1,552,1065,-0.0556977,-0.302695
-665,-41,0.221741,-0.47522,0,0,0,0,0,0,0,-1,559,1065,0.22173,0.475233
-658,-41,0.499146,-1.25317,0,0,0,0,0,0,0,-1,566,1065,0.499158,1.25316
-651,-41,0.0010376,0.132446,-0.00748712,0.0135354,-0.00132946,0.0136192,-0.00757086,-1.50789,0.0123991,0.0250757,573,1065,0.00100811,-0.132448
-644,-41,-0.02771,0.0666504,-0.00623961,0.0100666,-0.00067088,0.0100941,-0.00626717,-1.52975,0.00953195,0.00975918,580,1065,-0.0277124,-0.0666848
-637,-41,-0.0285034,0.0626221,-0.0055467,0.00723102,-0.000149873,0.00723277,-0.00554845,-1.55907,0.00740057,0.0101612,587,1065,-0.0285041,-0.0626247
-630,-41,-0.0244141,0.0662842,-0.00438297,0.0046674,0.000335954,0.00467985,-0.00439542,1.53374,0.00524047,0.0111979,594,1065,-0.0244419,-0.0662452
-623,-41,-0.0460815,0.0570068,-0.00267395,0.00301044,0.000150033,0.0030144,-0.00267791,1.54443,0.00328837,0.0108787,601,1065,-0.0460724,-0.0570317
-616,-41,-0.0540771,0.0836182,-0.00138466,0.00179331,0.000172461,0.00180265,-0.00139399,1.51674,0.0018506,0.0146459,608,1065,-0.054099,-0.0835979
-609,-41,-0.0336914,0.0965576,-0.000550534,0.00089493,0.000202616,0.000922794,-0.000578398,1.43413,0.000874283,0.0200847,615,1065,-0.0337143,-0.0966137
-602,-41,-0.0562744,0.046875,6.81576e-06,-4.54059e-05,0.000149969,0.00013293,-0.000171521,0.699208,0.000176245,0.011946,622,1065,-0.0562888,-0.0469092
-595,-41,-0.0123291,0.0577393,0.000368807,-4.80719e-05,0.000121849,0.000401809,-8.10742e-05,0.264501,0.000298589,0.0124133,629,1065,-0.0123189,-0.0576863
-588,-41,-0.0232544,0.0662842,0.00054725,-1.754e-05,0.00017798,0.000598657,-6.89472e-05,0.281184,0.00042396,0.0197318,636,1065,-0.023275,-0.0662686
-581,-41,-0.0465698,0.0476074,0.000643035,3.00967e-05,0.000141359,0.000674065,-9.33302e-07,0.216085,0.000449688,0.0321326,643,1065,-0.0465903,-0.0476578
-574,-41,-0.0793457,0.015625,0.000792465,9.19305e-05,9.9998e-05,0.000806459,7.79359e-05,0.139046,0.000513636,0.0357986,650,1065,-0.0793181,-0.0156048
-567,-41,-0.0963135,0.0256348,0.000900681,0.000178798,1.88599e-05,0.000901173,0.000178306,0.0261022,0.000551048,0.0385726,657,1065,-0.0963086,-0.0256155
-560,-41,0.0307617,0.0999756,0.000951379,0.000288264,-0.000125049,0.000974177,0.000265467,-0.180329,0.000581524,0.0373527,664,1065,0.0307433,-0.0999584
-553,-41,0.0557251,0.065918,0.000940456,0.000425226,-0.000349071,0.00111668,0.000249002,-0.467509,0.000676895,0.0386512,671,1065,0.0557124,-0.0658877
-546,-41,0.000244141,0,0.000816702,0.000590706,-0.000654012,0.00136741,4.00022e-05,-0.699854,0.000898567,0.0385186,678,1065,0.000224085,-5.89605e-05
-539,-41,-0.00488281,0.0963135,0.00053328,0.000771499,-0.00105092,0.00171004,-0.000405262,-0.841826,0.0012964,0.0374242,685,1065,-0.00485558,-0.0963716
-532,-41,0.0466309,0.06604,-7.89978e-05,0.000974632,-0.00157435,0.00210797,-0.00121233,-0.946854,0.00194009,0.0364303,692,1065,0.0466308,-0.0660291
-525,-41,0,0,0,0,0,0,0,0,0,-1,699,1065,0,0
-518,-41,0,0,0,0,0,0,0,0,0,-1,706,1065,0,0
-511,-41,0,0,0,0,0,0,0,0,0,-1,713,1065,0,0
-504,-41,0,0,0,0,0,0,0,0,0,-1,720,1065,0,0
-497,-41,0,0,0,0,0,0,0,0,0,-1,727,1065,0,0
-490,-41,0,0,0,0,0,0,0,0,0,-1,734,1065,0,0
-483,-41,0,0,0,0,0,0,0,0,0,-1,741,1065,0,0
-476,-41,0,0,0,0,0,0,0,0,0,-1,748,1065,0,0
-469,-41,0,0,0,0,0,0,0,0,0,-1,755,1065,0,0
-462,-41,0,0,0,0,0,0,0,0,0,-1,762,1065,0,0
-455,-41,0,0,0,0,0,0,0,0,0,-1,769,1065,0,0
-448,-41,0,0,0,0,0,0,0,0,0,-1,776,1065,0,0
-441,-41,0,0,0,0,0,0,0,0,0,-1,783,1065,0,0
-434,-41,0,0,0,0,0,0,0,0,0,-1,790,1065,0,0
-427,-41,0,0,0,0,0,0,0,0,0,-1,797,1065,0,0
-420,-41,0,0,0,0,0,0,0,0,0,-1,804,1065,0,0
-413,-41,0,0,0,0,0,0,0,0,0,-1,811,1065,0,0
-406,-41,0,0,0,0,0,0,0,0,0,-1,818,1065,0,0
-399,-41,0,0,0,0,0,0,0,0,0,-1,825,1065,0,0
-392,-41,0,0,0,0,0,0,0,0,0,-1,832,1065,0,0
-385,-41,0,0,0,0,0,0,0,0,0,-1,839,1065,0,0
-378,-41,0,0,0,0,0,0,0,0,0,-1,846,1065,0,0
-371,-41,0,0,0,0,0,0,0,0,0,-1,853,1065,0,0
-364,-41,0,0,0,0,0,0,0,0,0,-1,860,1065,0,0
-357,-41,0,0,0,0,0,0,0,0,0,-1,867,1065,0,0
-350,-41,0,0,0,0,0,0,0,0,0,-1,874,1065,0,0
-343,-41,0,0,0,0,0,0,0,0,0,-1,881,1065,0,0
-336,-41,0,0,0,0,0,0,0,0,0,-1,888,1065,0,0
-329,-41,0,0,0,0,0,0,0,0,0,-1,895,1065,0,0
-322,-41,0,0,0,0,0,0,0,0,0,-1,902,1065,0,0
-315,-41,0,0,0,0,0,0,0,0,0,-1,909,1065,0,0
-308,-41,0,0,0,0,0,0,0,0,0,-1,916,1065,0,0
-301,-41,0,0,0,0,0,0,0,0,0,-1,923,1065,0,0
-294,-41,0,0,0,0,0,0,0,0,0,-1,930,1065,0,0
-287,-41,0,0,0,0,0,0,0,0,0,-1,937,1065,0,0
-280,-41,0,0,0,0,0,0,0,0,0,-1,944,1065,0,0
-273,-41,0,0,0,0,0,0,0,0,0,-1,951,1065,0,0
-266,-41,0,0,0,0,0,0,0,0,0,-1,958,1065,0,0
-259,-41,0,0,0,0,0,0,0,0,0,-1,965,1065,0,0
-252,-41,0,0,0,0,0,0,0,0,0,-1,972,1065,0,0
-245,-41,0,0,0,0,0,0,0,0,0,-1,979,1065,0,0
-238,-41,0,0,0,0,0,0,0,0,0,-1,986,1065,0,0
-231,-41,0,0,0,0,0,0,0,0,0,-1,993,1065,0,0
-224,-41,0,0,0,0,0,0,0,0,0,-1,1000,1065,0,0
-217,-41,0,0,0,0,0,0,0,0,0,-1,1007,1065,0,0
-210,-41,0,0,0,0,0,0,0,0,0,-1,1014,1065,0,0
-203,-41,0,0,0,0,0,0,0,0,0,-1,1021,1065,0,0
-196,-41,0,0,0,0,0,0,0,0,0,-1,1028,1065,0,0
-189,-41,0,0,0,0,0,0,0,0,0,-1,1035,1065,0,0
-182,-41,0,0,0,0,0,0,0,0,0,-1,1042,1065,0,0
-175,-41,0,0,0,0,0,0,0,0,0,-1,1049,1065,0,0
-168,-41,0,0,0,0,0,0,0,0,0,-1,1056,1065,0,0
-161,-41,0,0,0,0,0,0,0,0,0,-1,1063,1065,0,0
-154,-41,0,0,0,0,0,0,0,0,0,-1,1070,1065,0,0
-147,-41,0,0,0,0,0,0,0,0,0,-1,1077,1065,0,0
-140,-41,0,0,0,0,0,0,0,0,0,-1,1084,1065,0,0
-133,-41,0,0,0,0,0,0,0,0,0,-1,1091,1065,0,0
-126,-41,0,0,0,0,0,0,0,0,0,-1,1098,1065,0,0
-119,-41,0,0,0,0,0,0,0,0,0,-1,1105,1065,0,0
-112,-41,0,0,0,0,0,0,0,0,0,-1,1112,1065,0,0
-105,-41,0,0,0,0,0,0,0,0,0,-1,1119,1065,0,0
-98,-41,0,0,0,0,0,0,0,0,0,-1,1126,1065,0,0
-91,-41,0,0,0,0,0,0,0,0,0,-1,1133,1065,0,0
-84,-41,0,0,0,0,0,0,0,0,0,-1,1140,1065,0,0
-77,-41,0,0,0,0,0,0,0,0,0,-1,1147,1065,0,0
-70,-41,0,0,0,0,0,0,0,0,0,-1,1154,1065,0,0
-63,-41,0,0,0,0,0,0,0,0,0,-1,1161,1065,0,0
-56,-41,0,0,0,0,0,0,0,0,0,-1,1168,1065,0,0
-49,-41,0,0,0,0,0,0,0,0,0,-1,1175,1065,0,0
-42,-41,0,0,0,0,0,0,0,0,0,-1,1182,1065,0,0
-35,-41,0,0,0,0,0,0,0,0,0,-1,1189,1065,0,0
-28,-41,0,0,0,0,0,0,0,0,0,-1,1196,1065,0,0
-21,-41,0,0,0,0,0,0,0,0,0,-1,1203,1065,0,0
-14,-41,0,0,0,0,0,0,0,0,0,-1,1210,1065,0,0
-7,-41,0,0,0,0,0,0,0,0,0,-1,1217,1065,0,0
0,-41,0,0,0,0,0,0,0,0,0,-1,1224,1065,0,0
7,-41,0,0,0,0,0,0,0,0,0,-1,1231,1065,0,0
14,-41,0,0,0,0,0,0,0,0,0,-1,1238,1065,0,0
21,-41,0,0,0,0,0,0,0,0,0,-1,1245,1065,0,0
28,-41,0,0,0,0,0,0,0,0,0,-1,1252,1065,0,0
35,-41,0,0,0,0,0,0,0,0,0,-1,1259,1065,0,0
42,-41,0,0,0,0,0,0,0,0,0,-1,1266,1065,0,0
49,-41,0,0,0,0,0,0,0,0,0,-1,1273,1065,0,0
56,-41,0,0,0,0,0,0,0,0,0,-1,1280,1065,0,0
63,-41,0,0,0,0,0,0,0,0,0,-1,1287,1065,0,0
70,-41,0,0,0,0,0,0,0,0,0,-1,1294,1065,0,0
77,-41,0,0,0,0,0,0,0,0,0,-1,1301,1065,0,0
84,-41,0,0,0,0,0,0,0,0,0,-1,1308,1065,0,0
91,-41,0,0,0,0,0,0,0,0,0,-1,1315,1065,0,0
98,-41,0,0,0,0,0,0,0,0,0,-1,1322,1065,0,0
105,-41,0,0,0,0,0,0,0,0,0,-1,1329,1065,0,0
112,-41,0,0,0,0,0,0,0,0,0,-1,1336,1065,0,0
119,-41,0,0,0,0,0,0,0,0,0,-1,1343,1065,0,0
126,-41,0,0,0,0,0,0,0,0,0,-1,1350,1065,0,0
133,-41,0,0,0,0,0,0,0,0,0,-1,1357,1065,0,0
140,-41,0,0,0,0,0,0,0,0,0,-1,1364,1065,0,0
147,-41,0,0,0,0,0,0,0,0,0,-1,1371,1065,0,0
154,-41,0,0,0,0,0,0,0,0,0,-1,1378,1065,0,0
161,-41,0,0,0,0,0,0,0,0,0,-1,1385,1065,0,0
168,-41,0,0,0,0,0,0,0,0,0,-1,1392,1065,0,0
175,-41,0,0,0,0,0,0,0,0,0,-1,1399,1065,0,0
182,-41,0,0,0,0,0,0,0,0,0,-1,1406,1065,0,0
189,-41,0,0,0,0,0,0,0,0,0,-1,1413,1065,0,0
196,-41,0,0,0,0,0,0,0,0,0,-1,1420,1065,0,0
203,-41,0,0,0,0,0,0,0,0,0,-1,1427,1065,0,0
210,-41,0,0,0,0,0,0,0,0,0,-1,1434,1065,0,0
217,-41,0,0,0,0,0,0,0,0,0,-1,1441,1065,0,0
224,-41,0,0,0,0,0,0,0,0,0,-1,1448,1065,0,0
231,-41,0,0,0,0,0,0,0,0,0,-1,1455,1065,0,0
238,-41,0,0,0,0,0,0,0,0,0,-1,1462,1065,0,0
245,-41,0,0,0,0,0,0,0,0,0,-1,1469,1065,0,0
252,-41,0,0,0,0,0,0,0,0,0,-1,1476,1065,0,0
259,-41,0,0,0,0,0,0,0,0,0,-1,1483,1065,0,0
266,-41,0,0,0,0,0,0,0,0,0,-1,1490,1065,0,0
273,-41,0,0,0,0,0,0,0,0,0,-1,1497,1065,0,0
280,-41,0,0,0,0,0,0,0,0,0,-1,1504,1065,0,0
287,-41,0,0,0,0,0,0,0,0,0,-1,1511,1065,0,0
294,-41,0,0,0,0,0,0,0,0,0,-1,1518,1065,0,0
301,-41,0,0,0,0,0,0,0,0,0,-1,1525,1065,0,0
308,-41,0,0,0,0,0,0,0,0,0,-1,1532,1065,0,0
315,-41,0,0,0,0,0,0,0,0,0,-1,1539,1065,0,0
322,-41,0,0,0,0,0,0,0,0,0,-1,1546,1065,0,0
329,-41,0,0,0,0,0,0,0,0,0,-1,1553,1065,0,0
336,-41,0,0,0,0,0,0,0,0,0,-1,1560,1065,0,0
343,-41,0,0,0,0,0,0,0,0,0,-1,1567,1065,0,0
350,-41,0,0,0,0,0,0,0,0,0,-1,1574,1065,0,0
357,-41,0,0,0,0,0,0,0,0,0,-1,1581,1065,0,0
364,-41,0,0,0,0,0,0,0,0,0,-1,1588,1065,0,0
371,-41,0,0,0,0,0,0,0,0,0,-1,1595,1065,0,0
378,-41,0,0,0,0,0,0,0,0,0,-1,1602,1065,0,0
385,-41,0,0,0,0,0,0,0,0,0,-1,1609,1065,0,0
392,-41,0,0,0,0,0,0,0,0,0,-1,1616,1065,0,0
399,-41,0,0,0,0,0,0,0,0,0,-1,1623,1065,0,0
406,-41,0,0,0,0,0,0,0,0,0,-1,1630,1065,0,0
413,-41,0,0,0,0,0,0,0,0,0,-1,1637,1065,0,0
420,-41,0,0,0,0,0,0,0,0,0,-1,1644,1065,0,0
427,-41,0,0,0,0,0,0,0,0,0,-1,1651,1065,0,0
434,-41,0,0,0,0,0,0,0,0,0,-1,1658,1065,0,0
441,-41,0,0,0,0,0,0,0,0,0,-1,1665,1065,0,0
448,-41,0,0,0,0,0,0,0,0,0,-1,1672,1065,0,0
455,-41,0,0,0,0,0,0,0,0,0,-1,1679,1065,0,0
462,-41,0,0,0,0,0,0,0,0,0,-1,1686,1065,0,0
469,-41,0,0,0,0,0,0,0,0,0,-1,1693,1065,0,0
476,-41,0,0,0,0,0,0,0,0,0,-1,1700,1065,0,0
483,-41,0,0,0,0,0,0,0,0,0,-1,1707,1065,0,0
490,-41,0,0,0,0,0,0,0,0,0,-1,1714,1065,0,0
497,-41,0,0,0,0,0,0,0,0,0,-1,1721,1065,0,0
504,-41,0,0,0,0,0,0,0,0,0,-1,1728,1065,0,0
511,-41,0,0,0,0,0,0,0,0,0,-1,1735,1065,0,0
518,-41,0,0,0,0,0,0,0,0,0,-1,1742,1065,0,0
525,-41,0,0,0,0,0,0,0,0,0,-1,1749,1065,0,0
532,-41,0,0,0,0,0,0,0,0,0,-1,1756,1065,0,0
539,-41,0,0,0,0,0,0,0,0,0,-1,1763,1065,0,0
546,-41,0,0,0,0,0,0,0,0,0,-1,1770,1065,0,0
553,-41,0,0,0,0,0,0,0,0,0,-1,1777,1065,0,0
560,-41,0,0,0,0,0,0,0,0,0,-1,1784,1065,0,0
567,-41,0,0,0,0,0,0,0,0,0,-1,1791,1065,0,0
574,-41,0,0,0,0,0,0,0,0,0,-1,1798,1065,0,0
581,-41,0,0,0,0,0,0,0,0,0,-1,1805,1065,0,0
588,-41,0,0,0,0,0,0,0,0,0,-1,1812,1065,0,0
595,-41,0,0,0,0,0,0,0,0,0,-1,1819,1065,0,0
602,-41,0,0,0,0,0,0,0,0,0,-1,1826,1065,0,0
609,-41,0,0,0,0,0,0,0,0,0,-1,1833,1065,0,0
616,-41,0,0,0,0,0,0,0,0,0,-1,1840,1065,0,0
623,-41,0,0,0,0,0,0,0,0,0,-1,1847,1065,0,0
630,-41,0,0,0,0,0,0,0,0,0,-1,1854,1065,0,0
637,-41,0,0,0,0,0,0,0,0,0,-1,1861,1065,0,0
644,-41,0,0,0,0,0,0,0,0,0,-1,1868,1065,0,0
651,-41,-0.0772705,0.0274658,-0.00405699,-2.81141e-05,0.00148151,0.000458014,-0.00454312,1.25374,0.00319239,0.032529,1875,1065,-0.077278,-0.0275255
658,-41,-0.0738525,0.11731,-0.00284539,8.13649e-05,0.000668413,0.000226791,-0.00299082,1.35657,0.00207361,0.0360782,1882,1065,-0.0738473,-0.11737
665,-41,0.0354004,0.0168457,-0.00195566,0.000100158,0.000282803,0.000138352,-0.00199385,1.43656,0.00137767,0.0360868,1889,1065,0.0353581,-0.0168045
672,-41,-0.00256348,0.0383301,-0.00125191,6.20109e-05,0.000102898,7.00203e-05,-0.00125992,1.49311,0.000864233,0.0347501,1896,1065,-0.00255812,-0.0382739
679,-41,-0.083374,0.141846,-0.00076445,8.20156e-06,4.42913e-05,1.07322e-05,-0.00076698,1.51372,0.000514935,0.036148,1903,1065,-0.0834066,-0.141827
686,-41,-0.0791016,0.198853,-0.000440689,-4.15173e-05,5.92554e-05,-3.29068e-05,-0.0004493,1.42649,0.000289189,0.0375268,1910,1065,-0.0791516,-0.198888
693,-41,-0.00927734,0.00561523,-0.000218494,-8.28652e-05,0.000109264,-2.2082e-05,-0.000279277,1.06313,0.000179278,0.0396168,1917,1065,-0.00924665,-0.00559721
700,-41,-0.0396729,0.000976563,-5.30805e-05,-8.38959e-05,0.000173688,0.000105882,-0.000242859,0.74116,0.000206458,0.0342102,1924,1065,-0.0396656,-0.00101931
707,-41,-0.052002,0.101685,9.71214e-05,-0.000113686,0.000153917,0.000178266,-0.000194831,0.48517,0.000215479,0.0193844,1931,1065,-0.052058,-0.101673
714,-41,-0.0474854,0.0948486,0.000119161,-0.000145277,0.000200604,0.0002272,-0.000253316,0.494024,0.000277562,0.00885628,1938,1065,-0.0474934,-0.0948053
721,-41,-0.0289307,0.0947266,5.3061e-05,-0.00015208,0.000271219,0.000240456,-0.000339476,0.604618,0.000336447,0.0133847,1945,1065,-0.0288773,-0.0946819
728,-41,-0.043457,0.0789795,5.48597e-05,-0.000124559,0.000256262,0.000236661,-0.000306361,0.61703,0.000314373,0.0149656,1952,1065,-0.0434916,-0.0789557
735,-41,-0.050293,0.0826416,0.000139325,-9.24042e-05,0.000198416,0.000253229,-0.000206308,0.521131,0.000265774,0.0136016,1959,1065,-0.0503305,-0.0826029
742,-41,-0.0710449,0.088501,0.000206901,-0.00012103,7.48928e-05,0.000223195,-0.000137324,0.214231,0.000210105,0.0119111,1966,1065,-0.0710831,-0.0885504
749,-41,-0.0500488,0.0893555,0.000325336,-0.000186011,-0.000103631,0.00034554,-0.000206215,-0.192545,0.000321923,0.0114594,1973,1065,-0.0499948,-0.0893189
756,-41,-0.0604248,0.0909424,0.00104238,-0.000770152,-0.00029725,0.00108989,-0.000817655,-0.158469,0.00110505,0.0109168,1980,1065,-0.0604685,-0.0909055
763,-41,-0.0749512,0.0887451,0.00213622,-0.0011987,-0.00033175,0.0021689,-0.00123139,-0.0981954,0.00198787,0.00970949,1987,1065,-0.074937,-0.0887268
770,-41,-0.0706787,0.083252,0.00325229,-0.0018201,-0.000399945,0.00328363,-0.00185144,-0.0782034,0.00300293,0.010833,1994,1065,-0.0707315,-0.0832816
777,-41,-0.067627,0.0799561,0.00486444,-0.00270647,-0.000406711,0.00488623,-0.00272826,-0.0535149,0.00445469,0.012148,2001,1065,-0.0676711,-0.0799705
784,-41,-0.0513916,0.0755615,0.00706793,-0.00391873,-0.00032539,0.00707756,-0.00392836,-0.0295823,0.00644039,0.0232593,2008,1065,-0.0514006,-0.0755861
791,-41,0.0480957,0.00585938,0.0100004,-0.00551994,-9.49095e-05,0.0100009,-0.00552052,-0.00611488,0.00908492,0.0430053,2015,1065,0.048105,-0.00582636
798,-41,0.0290527,-0.0494385,0.0139001,-0.00759089,0.000366058,0.0139063,-0.00759712,0.0170265,0.0125919,0.0441167,2022,1065,0.0290339,0.0494738
805,-41,0.137695,-0.519043,0.0190453,-0.0102153,0.00119066,0.0190936,-0.0102637,0.0406019,0.0172031,0.0413734,2029,1065,0.137677,0.519071
812,-41,0.118286,-1.15198,0,0,0,0,0,0,0,-1,2036,1065,0.118286,1.15197
-700,-48,2.65051,-0.252197,0,0,0,0,0,0,0,-1,524,1072,2.65049,0.25222
-693,-48,2.62061,-0.564453,0,0,0,0,0,0,0,-1,531,1072,2.62062,0.564497
-686,-48,0.728882,0.580566,0,0,0,0,0,0,0,-1,538,1072,0.7289,-0.580616
-679,-48,0.279602,0.0252686,0,0,0,0,0,0,0,-1,545,1072,0.279592,-0.0252901
-672,-48,-0.144287,-0.0369873,0,0,0,0,0,0,0,-1,552,1072,-0.14426,0.0369781
-665,-48,0.0631104,0.177002,0,0,0,0,0,0,0,-1,559,1072,0.0631012,-0.177047
-658,-48,0.22699,0.0222168,-0.0107843,0.016546,-0.00286187,0.0168424,-0.0110807,-1.46757,0.0162355,0.0444996,566,1072,0.226964,-0.0222416
-651,-48,-0.00482178,0.109863,-0.00925086,0.0126964,-0.00168115,0.0128244,-0.00937889,-1.49479,0.0128704,0.0282874,573,1072,-0.00480911,-0.10983
-644,-48,-0.0288086,0.0849609,-0.00742008,0.00936572,-0.00092317,0.00941634,-0.0074707,-1.51602,0.00977128,0.0109688,580,1072,-0.028815,-0.0849389
-637,-48,-0.0125732,0.0705566,-0.00618735,0.00659156,-0.000357132,0.00660153,-0.00619733,-1.54288,0.00739065,0.010773,587,1072,-0.0125745,-0.0705393
-630,-48,-0.00469971,0.0638428,-0.00470037,0.00424332,0.000219553,0.0042487,-0.00470576,1.54627,0.0051721,0.0125817,594,1072,-0.00467312,-0.0638144
-623,-48,-0.0264893,0.0583496,-0.00282583,0.00274498,0.000116709,0.00274743,-0.00282827,1.54986,0.00321924,0.00910612,601,1072,-0.0264686,-0.0583673
-616,-48,-0.0262451,0.0688477,-0.00141426,0.00160426,0.000142463,0.00161097,-0.00142096,1.52374,0.00175164,0.00865484,608,1072,-0.0262344,-0.0688881
-609,-48,-0.0236816,0.0482178,-0.000544741,0.00083454,0.000204358,0.000864182,-0.000574382,1.42676,0.000836154,0.0110194,615,1072,-0.0236562,-0.0482242
-602,-48,-0.0426636,0.0471191,2.06177e-05,-3.10032e-05,0.000188206,0.000184775,-0.00019516,0.717253,0.000219383,0.0114564,622,1072,-0.0426889,-0.047155
-595,-48,-0.0126343,0.0688477,0.00039844,-5.29909e-05,0.000176453,0.000459226,-0.000113777,0.331757,0.000350291,0.0133515,629,1072,-0.0126616,-0.0688126
-588,-48,-0.0254517,0.0842285,0.00057931,-2.13561e-05,0.000235072,0.000660368,-0.000102413,0.332052,0.000478054,0.0242117,636,1072,-0.0254391,-0.0841946
-581,-48,-0.0446167,0.0371094,0.000679653,3.69327e-05,0.000207077,0.000740593,-2.40069e-05,0.286206,0.000501922,0.0385517,643,1072,-0.0446088,-0.0371287
-574,-48,-0.0509644,-0.0318604,0.000836655,0.000103173,0.000174394,0.000876008,6.38202e-05,0.221938,0.000563937,0.0399446,650,1072,-0.0509413,0.0318454
-567,-48,0.00860596,0.0211182,0.000948228,0.000198385,0.000104857,0.000962615,0.000183998,0.136355,0.000590052,0.0377668,657,1072,0.00861437,-0.0211708
-560,-48,0.0698853,0.113037,0.000995157,0.000321644,-2.58312e-05,0.000996146,0.000320655,-0.038278,0.000587162,0.0351093,664,1072,0.0698976,-0.11308
-553,-48,0.0770874,-0.0336914,0.000969383,0.000481643,-0.000235769,0.00106472,0.000386308,-0.384255,0.000622378,0.0363238,671,1072,0.0771103,0.0337025
-546,-48,0.052002,-0.03125,0.000817511,0.000684218,-0.000521822,0.00127693,0.000224804,-0.721883,0.000787124,0.0366003,678,1072,0.0519885,0.0311995
-539,-48,0.0199585,0.167236,0.000497849,0.00092443,-0.000896663,0.00163282,-0.000210542,-0.902164,0.00116509,0.0380202,685,1072,0.0199772,-0.167243
-532,-48,0.0268555,0.227295,-0.000162118,0.00121759,-0.00140081,0.00208919,-0.00103372,-1.0142,0.00183702,0.0377918,692,1072,0.0268673,-0.227287
-525,-48,0,0,0,0,0,0,0,0,0,-1,699,1072,0,0
-518,-48,0,0,0,0,0,0,0,0,0,-1,706,1072,0,0
-511,-48,0,0,0,0,0,0,0,0,0,-1,713,1072,0,0
-504,-48,0,0,0,0,0,0,0,0,0,-1,720,1072,0,0
-497,-48,0,0,0,0,0,0,0,0,0,-1,727,1072,0,0
-490,-48,0,0,0,0,0,0,0,0,0,-1,734,1072,0,0
-483,-48,0,0,0,0,0,0,0,0,0,-1,741,1072,0,0
-476,-48,0,0,0,0,0,0,0,0,0,-1,748,1072,0,0
-469,-48,0,0,0,0,0,0,0,0,0,-1,755,1072,0,0
-462,-48,0,0,0,0,0,0,0,0,0,-1,762,1072,0,0
-455,-48,0,0,0,0,0,0,0,0,0,-1,769,1072,0,0
-448,-48,0,0,0,0,0,0,0,0,0,-1,776,1072,0,0
-441,-48,0,0,0,0,0,0,0,0,0,-1,783,1072,0,0
-434,-48,0,0,0,0,0,0,0,0,0,-1,790,1072,0,0
-427,-48,0,0,0,0,0,0,0,0,0,-1,797,1072,0,0
-420,-48,0,0,0,0,0,0,0,0,0,-1,804,1072,0,0
-413,-48,0,0,0,0,0,0,0,0,0,-1,811,1072,0,0
-406,-48,0,0,0,0,0,0,0,0,0,-1,818,1072,0,0
-399,-48,0,0,0,0,0,0,0,0,0,-1,825,1072,0,0
-392,-48,0,0,0,0,0,0,0,0,0,-1,832,1072,0,0
-385,-48,0,0,0,0,0,0,0,0,0,-1,839,1072,0,0
-378,-48,0,0,0,0,0,0,0,0,0,-1,846,1072,0,0
-371,-48,0,0,0,0,0,0,0,0,0,-1,853,1072,0,0
-364,-48,0,0,0,0,0,0,0,0,0,-1,860,1072,0,0
-357,-48,0,0,0,0,0,0,0,0,0,-1,867,1072,0,0
-350,-48,0,0,0,0,0,0,0,0,0,-1,874,1072,0,0
-343,-48,0,0,0,0,0,0,0,0,0,-1,881,1072,0,0
-336,-48,0,0,0,0,0,0,0,0,0,-1,888,1072,0,0
-329,-48,0,0,0,0,0,0,0,0,0,-1,895,1072,0,0
-322,-48,0,0,0,0,0,0,0,0,0,-1,902,1072,0,0
-315,-48,0,0,0,0,0,0,0,0,0,-1,909,1072,0,0
-308,-48,0,0,0,0,0,0,0,0,0,-1,916,1072,0,0
-301,-48,0,0,0,0,0,0,0,0,0,-1,923,1072,0,0
-294,-48,0,0,0,0,0,0,0,0,0,-1,930,1072,0,0
-287,-48,0,0,0,0,0,0,0,0,0,-1,937,1072,0,0
-280,-48,0,0,0,0,0,0,0,0,0,-1,944,1072,0,0
-273,-48,0,0,0,0,0,0,0,0,0,-1,951,1072,0,0
-266,-48,0,0,0,0,0,0,0,0,0,-1,958,1072,0,0
-259,-48,0,0,0,0,0,0,0,0,0,-1,965,1072,0,0
-252,-48,0,0,0,0,0,0,0,0,0,-1,972,1072,0,0
-245,-48,0,0,0,0,0,0,0,0,0,-1,979,1072,0,0
-238,-48,0,0,0,0,0,0,0,0,0,-1,986,1072,0,0
-231,-48,0,0,0,0,0,0,0,0,0,-1,993,1072,0,0
-224,-48,0,0,0,0,0,0,0,0,0,-1,1000,1072,0,0
-217,-48,0,0,0,0,0,0,0,0,0,-1,1007,1072,0,0
-210,-48,0,0,0,0,0,0,0,0,0,-1,1014,1072,0,0
-203,-48,0,0,0,0,0,0,0,0,0,-1,1021,1072,0,0
-196,-48,0,0,0,0,0,0,0,0,0,-1,1028,1072,0,0
-189,-48,0,0,0,0,0,0,0,0,0,-1,1035,1072,0,0
-182,-48,0,0,0,0,0,0,0,0,0,-1,1042,1072,0,0
-175,-48,0,0,0,0,0,0,0,0,0,-1,1049,1072,0,0
-168,-48,0,0,0,0,0,0,0,0,0,-1,1056,1072,0,0
-161,-48,0,0,0,0,0,0,0,0,0,-1,1063,1072,0,0
-154,-48,0,0,0,0,0,0,0,0,0,-1,1070,1072,0,0
-147,-48,0,0,0,0,0,0,0,0,0,-1,1077,1072,0,0
-140,-48,0,0,0,0,0,0,0,0,0,-1,1084,1072,0,0
-133,-48,0,0,0,0,0,0,0,0,0,-1,1091,1072,0,0
-126,-48,0,0,0,0,0,0,0,0,0,-1,1098,1072,0,0
-119,-48,0,0,0,0,0,0,0,0,0,-1,1105,1072,0,0
-112,-48,0,0,0,0,0,0,0,0,0,-1,1112,1072,0,0
-105,-48,0,0,0,0,0,0,0,0,0,-1,1119,1072,0,0
-98,-48,0,0,0,0,0,0,0,0,0,-1,1126,1072,0,0
-91,-48,0,0,0,0,0,0,0,0,0,-1,1133,1072,0,0
-84,-48,0,0,0,0,0,0,0,0,0,-1,1140,1072,0,0
-77,-48,0,0,0,0,0,0,0,0,0,-1,1147,1072,0,0
-70,-48,0,0,0,0,0,0,0,0,0,-1,1154,1072,0,0
-63,-48,0,0,0,0,0,0,0,0,0,-1,1161,1072,0,0
-56,-48,0,0,0,0,0,0,0,0,0,-1,1168,1072,0,0
-49,-48,0,0,0,0,0,0,0,0,0,-1,1175,1072,0,0
-42,-48,0,0,0,0,0,0,0,0,0,-1,1182,1072,0,0
-35,-48,0,0,0,0,0,0,0,0,0,-1,1189,1072,0,0
-28,-48,0,0,0,0,0,0,0,0,0,-1,1196,1072,0,0
-21,-48,0,0,0,0,0,0,0,0,0,-1,1203,1072,0,0
-14,-48,0,0,0,0,0,0,0,0,0,-1,1210,1072,0,0
-7,-48,0,0,0,0,0,0,0,0,0,-1,1217,1072,0,0
0,-48,0,0,0,0,0,0,0,0,0,-1,1224,1072,0,0
7,-48,0,0,0,0,0,0,0,0,0,-1,1231,1072,0,0
14,-48,0,0,0,0,0,0,0,0,0,-1,1238,1072,0,0
21,-48,0,0,0,0,0,0,0,0,0,-1,1245,1072,0,0
28,-48,0,0,0,0,0,0,0,0,0,-1,1252,1072,0,0
35,-48,0,0,0,0,0,0,0,0,0,-1,1259,1072,0,0
42,-48,0,0,0,0,0,0,0,0,0,-1,1266,1072,0,0
49,-48,0,0,0,0,0,0,0,0,0,-1,1273,1072,0,0
56,-48,0,0,0,0,0,0,0,0,0,-1,1280,1072,0,0
63,-48,0,0,0,0,0,0,0,0,0,-1,1287,1072,0,0
70,-48,0,0,0,0,0,0,0,0,0,-1,1294,1072,0,0
77,-48,0,0,0,0,0,0,0,0,0,-1,1301,1072,0,0
84,-48,0,0,0,0,0,0,0,0,0,-1,1308,1072,0,0
91,-48,0,0,0,0,0,0,0,0,0,-1,1315,1072,0,0
98,-48,0,0,0,0,0,0,0,0,0,-1,1322,1072,0,0
105,-48,0,0,0,0,0,0,0,0,0,-1,1329,1072,0,0
112,-48,0,0,0,0,0,0,0,0,0,-1,1336,1072,0,0
119,-48,0,0,0,0,0,0,0,0,0,-1,1343,1072,0,0
126,-48,0,0,0,0,0,0,0,0,0,-1,1350,1072,0,0
133,-48,0,0,0,0,0,0,0,0,0,-1,1357,1072,0,0
140,-48,0,0,0,0,0,0,0,0,0,-1,1364,1072,0,0
147,-48,0,0,0,0,0,0,0,0,0,-1,1371,1072,0,0
154,-48,0,0,0,0,0,0,0,0,0,-1,1378,1072,0,0
161,-48,0,0,0,0,0,0,0,0,0,-1,1385,1072,0,0
168,-48,0,0,0,0,0,0,0,0,0,-1,1392,1072,0,0
175,-48,0,0,0,0,0,0,0,0,0,-1,1399,1072,0,0
182,-48,0,0,0,0,0,0,0,0,0,-1,1406,1072,0,0
189,-48,0,0,0,0,0,0,0,0,0,-1,1413,1072,0,0
196,-48,0,0,0,0,0,0,0,0,0,-1,1420,1072,0,0
203,-48,0,0,0,0,0,0,0,0,0,-1,1427,1072,0,0
210,-48,0,0,0,0,0,0,0,0,0,-1,1434,1072,0,0
217,-48,0,0,0,0,0,0,0,0,0,-1,1441,1072,0,0
224,-48,0,0,0,0,0,0,0,0,0,-1,1448,1072,0,0
231,-48,0,0,0,0,0,0,0,0,0,-1,1455,1072,0,0
238,-48,0,0,0,0,0,0,0,0,0,-1,1462,1072,0,0
245,-48,0,0,0,0,0,0,0,0,0,-1,1469,1072,0,0
252,-48,0,0,0,0,0,0,0,0,0,-1,1476,1072,0,0
259,-48,0,0,0,0,0,0,0,0,0,-1,1483,1072,0,0
266,-48,0,0,0,0,0,0,0,0,0,-1,1490,1072,0,0
273,-48,0,0,0,0,0,0,0,0,0,-1,1497,1072,0,0
280,-48,0,0,0,0,0,0,0,0,0,-1,1504,1072,0,0
287,-48,0,0,0,0,0,0,0,0,0,-1,1511,1072,0,0
294,-48,0,0,0,0,0,0,0,0,0,-1,1518,1072,0,0
301,-48,0,0,0,0,0,0,0,0,0,-1,1525,1072,0,0
308,-48,0,0,0,0,0,0,0,0,0,-1,1532,1072,0,0
315,-48,0,0,0,0,0,0,0,0,0,-1,1539,1072,0,0
322,-48,0,0,0,0,0,0,0,0,0,-1,1546,1072,0,0
329,-48,0,0,0,0,0,0,0,0,0,-1,1553,1072,0,0
336,-48,0,0,0,0,0,0,0,0,0,-1,1560,1072,0,0
343,-48,0,0,0,0,0,0,0,0,0,-1,1567,1072,0,0
350,-48,0,0,0,0,0,0,0,0,0,-1,1574,1072,0,0
357,-48,0,0,0,0,0,0,0,0,0,-1,1581,1072,0,0
364,-48,0,0,0,0,0,0,0,0,0,-1,1588,1072,0,0
371,-48,0,0,0,0,0,0,0,0,0,-1,1595,1072,0,0
378,-48,0,0,0,0,0,0,0,0,0,-1,1602,1072,0,0
385,-48,0,0,0,0,0,0,0,0,0,-1,1609,1072,0,0
392,-48,0,0,0,0,0,0,0,0,0,-1,1616,1072,0,0
399,-48,0,0,0,0,0,0,0,0,0,-1,1623,1072,0,0
406,-48,0,0,0,0,0,0,0,0,0,-1,1630,1072,0,0
413,-48,0,0,0,0,0,0,0,0,0,-1,1637,1072,0,0
420,-48,0,0,0,0,0,0,0,0,0,-1,1644,1072,0,0
427,-48,0,0,0,0,0,0,0,0,0,-1,1651,1072,0,0
434,-48,0,0,0,0,0,0,0,0,0,-1,1658,1072,0,0
441,-48,0,0,0,0,0,0,0,0,0,-1,1665,1072,0,0
448,-48,0,0,0,0,0,0,0,0,0,-1,1672,1072,0,0
455,-48,0,0,0,0,0,0,0,0,0,-1,1679,1072,0,0
462,-48,0,0,0,0,0,0,0,0,0,-1,1686,1072,0,0
469,-48,0,0,0,0,0,0,0,0,0,-1,1693,1072,0,0
476,-48,0,0,0,0,0,0,0,0,0,-1,1700,1072,0,0
483,-48,0,0,0,0,0,0,0,0,0,-1,1707,1072,0,0
490,-48,0,0,0,0,0,0,0,0,0,-1,1714,1072,0,0
497,-48,0,0,0,0,0,0,0,0,0,-1,1721,1072,0,0
504,-48,0,0,0,0,0,0,0,0,0,-1,1728,1072,0,0
511,-48,0,0,0,0,0,0,0,0,0,-1,1735,1072,0,0
518,-48,0,0,0,0,0,0,0,0,0,-1,1742,1072,0,0
525,-48,0,0,0,0,0,0,0,0,0,-1,1749,1072,0,0
532,-48,0,0,0,0,0,0,0,0,0,-1,1756,1072,0,0
539,-48,0,0,0,0,0,0,0,0,0,-1,1763,1072,0,0
546,-48,0,0,0,0,0,0,0,0,0,-1,1770,1072,0,0
553,-48,0,0,0,0,0,0,0,0,0,-1,1777,1072,0,0
560,-48,0,0,0,0,0,0,0,0,0,-1,1784,1072,0,0
567,-48,0,0,0,0,0,0,0,0,0,-1,1791,1072,0,0
574,-48,0,0,0,0,0,0,0,0,0,-1,1798,1072,0,0
581,-48,0,0,0,0,0,0,0,0,0,-1,1805,1072,0,0
588,-48,0,0,0,0,0,0,0,0,0,-1,1812,1072,0,0
595,-48,0,0,0,0,0,0,0,0,0,-1,1819,1072,0,0
602,-48,0,0,0,0,0,0,0,0,0,-1,1826,1072,0,0
609,-48,0,0,0,0,0,0,0,0,0,-1,1833,1072,0,0
616,-48,0,0,0,0,0,0,0,0,0,-1,1840,1072,0,0
623,-48,0,0,0,0,0,0,0,0,0,-1,1847,1072,0,0
630,-48,0,0,0,0,0,0,0,0,0,-1,1854,1072,0,0
637,-48,0,0,0,0,0,0,0,0,0,-1,1861,1072,0,0
644,-48,0,0,0,0,0,0,0,0,0,-1,1868,1072,0,0
651,-48,-0.130859,-0.00305176,-0.00358661,0.000133632,0.00110336,0.000436254,-0.00388923,1.30311,0.0027498,0.0279379,1875,1072,-0.130812,0.00301683
658,-48,-0.116089,0.127441,-0.00250904,0.000258813,0.000433076,0.000324992,-0.00257522,1.41916,0.00183476,0.0319095,1882,1072,-0.116128,-0.127479
665,-48,-0.059082,0.0308838,-0.00171581,0.0002757,0.000140445,0.000285556,-0.00172567,1.50074,0.0012565,0.0363627,1889,1072,-0.059075,-0.0308853
672,-48,-0.0257568,0.0310059,-0.0010865,0.000226025,1.9797e-05,0.000226323,-0.0010868,1.55572,0.000810576,0.0356934,1896,1072,-0.0257264,-0.031031
679,-48,-0.045166,0.0935059,-0.000657337,0.000156463,-5.49788e-06,0.0001565,-0.000657374,-1.56404,0.00049867,0.0355596,1903,1072,-0.0451499,-0.0934732
686,-48,-0.0413818,0.0782471,-0.00037357,9.04769e-05,2.80379e-05,9.21648e-05,-0.000375258,1.51067,0.000285889,0.0360783,1910,1072,-0.0413554,-0.0782401
693,-48,-0.00305176,-0.110718,-0.000182851,3.35142e-05,8.7047e-05,6.41864e-05,-0.000213523,1.23202,0.000167885,0.0367838,1917,1072,-0.00305564,0.110775
700,-48,-0.0323486,-0.0822754,-4.34518e-05,2.26306e-05,0.00015987,0.000152838,-0.000173659,0.887301,0.000188631,0.0324605,1924,1072,-0.0323821,0.0822373
707,-48,-0.0447998,0.0777588,9.23252e-05,-2.01093e-05,0.000153415,0.000199499,-0.000127283,0.609776,0.000190197,0.0199758,1931,1072,-0.0447969,-0.0777489
714,-48,-0.0522461,0.118042,0.000103257,-6.88403e-05,0.000197188,0.000232353,-0.000197937,0.579663,0.000248693,0.0126939,1938,1072,-0.0522459,-0.118003
721,-48,-0.0334473,0.103271,3.41131e-05,-8.26104e-05,0.000253888,0.000236261,-0.000284759,0.672425,0.000301245,0.0156511,1945,1072,-0.0334903,-0.103219
728,-48,-0.0429688,0.079834,2.993e-05,-5.04805e-05,0.00023379,0.000226946,-0.000247497,0.700245,0.000274006,0.0184557,1952,1072,-0.0429226,-0.0798416
735,-48,-0.0552979,0.0913086,9.90097e-05,-2.90726e-05,0.000197486,0.000242579,-0.000172642,0.628607,0.000240858,0.0149112,1959,1072,-0.0553261,-0.0912829
742,-48,-0.0720215,0.0889893,0.000170574,-7.87119e-05,0.000115595,0.000215926,-0.000124063,0.373877,0.000198667,0.0125807,1966,1072,-0.072004,-0.0889331
749,-48,-0.048584,0.0671387,0.000228874,-0.000171743,1.89916e-05,0.000229772,-0.000172641,0.0472645,0.000233113,0.0122687,1973,1072,-0.0486271,-0.0671896
756,-48,-0.0383301,0.0732422,0.000939621,-0.000773154,-0.000108222,0.000946432,-0.000779965,-0.0628521,0.000998279,0.0117001,1980,1072,-0.0383755,-0.0732245
763,-48,-0.0443115,0.0810547,0.00208896,-0.00116612,-0.000110902,0.00209273,-0.0011699,-0.0340179,0.00190863,0.0115742,1987,1072,-0.044369,-0.081114
770,-48,-0.0245361,0.0751953,0.00322107,-0.00177923,-0.000102185,0.00322316,-0.00178132,-0.0204244,0.00292904,0.0111492,1994,1072,-0.0245006,-0.0752306
777,-48,-0.0488281,0.0742188,0.00487265,-0.00263865,-2.74747e-05,0.00487275,-0.00263875,-0.00365772,0.00440023,0.00993137,2001,1072,-0.04878,-0.0742172
784,-48,-0.0670166,0.0576172,0.00714258,-0.00379033,0.000124361,0.00714399,-0.00379174,0.011373,0.00641187,0.0222513,2008,1072,-0.0669944,-0.0576506
791,-48,-0.0491943,-0.0397949,0.0101837,-0.00527789,0.000397057,0.0101939,-0.00528808,0.0256577,0.00908687,0.040433,2015,1072,-0.0491941,0.0397611
798,-48,0.0158691,-0.0955811,0,0,0,0,0,0,0,-1,2022,1072,0.0159171,0.095599
805,-48,0.0148926,0.558716,0,0,0,0,0,0,0,-1,2029,1072,0.0148835,-0.558709
812,-48,0.177124,0.627563,0,0,0,0,0,0,0,-1,2036,1072,0.177144,-0.627505
-700,-55,2.74945,-0.127808,0,0,0,0,0,0,0,-1,524,1079,2.74944,0.127851
-693,-55,2.63666,-0.669189,0,0,0,0,0,0,0,-1,531,1079,2.63665,0.669188
-686,-55,2.25739,1.43213,0,0,0,0,0,0,0,-1,538,1079,2.25738,-1.43219
-679,-55,2.54163,0.265991,0,0,0,0,0,0,0,-1,545,1079,2.54162,-0.265954
-672,-55,0.750977,0.31665,0,0,0,0,0,0,0,-1,552,1079,0.750994,-0.316617
-665,-55,0.444397,-0.395752,-0.0158109,0.0205042,-0.00529116,0.0212594,-0.0165661,-1.42902,0.0218945,0.0451217,559,1079,0.444405,0.395767
-658,-55,0.487976,-0.330933,-0.0137816,0.0161479,-0.00335612,0.0165196,-0.0141534,-1.46049,0.0177266,0.0451712,566,1079,0.48799,0.330931
-651,-55,0.0150146,0.0814209,-0.0113064,0.0122822,-0.00202441,0.0124546,-0.0114789,-1.4858,0.0138219,0.0322744,573,1079,0.0150213,-0.0813763
-644,-55,-0.0209961,0.0725098,-0.00877236,0.00900958,-0.00115473,0.00908426,-0.00884703,-1.50622,0.0103529,0.0120987,580,1079,-0.0209883,-0.072561
-637,-55,-0.00695801,0.0635986,-0.00692478,0.00624373,-0.000541004,0.00626591,-0.00694697,-1.52981,0.00763184,0.00973448,587,1079,-0.00693012,-0.0635771
-630,-55,-0.00958252,0.0683594,-0.00504457,0.00406137,0.000167103,0.00406443,-0.00504763,1.55245,0.00527105,0.0113066,594,1079,-0.00956717,-0.0683644
-623,-55,-0.0331421,0.0765381,-0.00297714,0.00268693,0.000121365,0.00268953,-0.00297974,1.54938,0.00327459,0.0114632,601,1079,-0.0331443,-0.0764875
-616,-55,-0.00689697,0.0740967,-0.001461,0.00152959,0.000146371,0.00153674,-0.00146815,1.52201,0.00173503,0.0107041,608,1079,-0.00688888,-0.0741107
-609,-55,0.0055542,0.0562744,-0.000571358,0.000857933,0.000218923,0.000890714,-0.000604138,1.42217,0.000868324,0.0115232,615,1079,0.00558371,-0.0563325
-602,-55,-0.0229492,0.0578613,4.8753e-06,5.54354e-05,0.000223258,0.00025484,-0.000194529,0.841774,0.000260221,0.0127239,622,1079,-0.0229795,-0.0578717
-595,-55,-0.0210571,0.0714111,0.000391192,1.17808e-05,0.000220987,0.000492731,-8.97585e-05,0.43071,0.000362134,0.0140814,629,1079,-0.021034,-0.0713815
-588,-55,-0.0280762,0.083374,0.000574445,8.12191e-05,0.000273685,0.000696236,-4.05718e-05,0.418692,0.000478255,0.023533,636,1079,-0.0280622,-0.0834313
-581,-55,-0.0392456,0.0360107,0.000680981,0.000195424,0.000254531,0.000789952,8.64535e-05,0.404513,0.000500313,0.036192,643,1079,-0.0392735,-0.035973
-574,-55,0.00756836,0.0881348,0.000841452,0.000314364,0.000240023,0.000934372,0.000221444,0.369362,0.000563787,0.0370951,650,1079,0.0075455,-0.0881562
-567,-55,0.0351563,0.076416,0.000961529,0.000478896,0.000189689,0.00102716,0.000413267,0.333092,0.000596789,0.0355599,657,1079,0.0351444,-0.0764372
-560,-55,-0.0195923,0.0200195,0.00101681,0.000689925,8.48848e-05,0.00103754,0.000669197,0.239503,0.000607362,0.0363187,664,1079,-0.0196109,-0.020026
-553,-55,0.00805664,-0.0484619,0.0009978,0.000959603,-9.1916e-05,0.00107258,0.000884822,-0.682963,0.000661411,0.0371844,671,1079,0.00808532,0.0484627
-546,-55,0.0473633,-0.0424805,0.000855867,0.00129748,-0.000330796,0.00147439,0.000678952,-1.07969,0.000852125,0.0351593,678,1079,0.0473523,0.0424531
-539,-55,0.0299072,0.00183105,0.000552788,0.00170547,-0.000640446,0.00199072,0.000267537,-1.15178,0.00124757,0.036378,685,1079,0.0298953,-0.0018009
-532,-55,0.0167847,0.100586,-7.47407e-05,0.00220063,-0.00105293,0.0026131,-0.000487215,-1.19743,0.00192513,0.0377377,692,1079,0.0167567,-0.100641
-525,-55,0,0,0,0,0,0,0,0,0,-1,699,1079,0,0
-518,-55,0,0,0,0,0,0,0,0,0,-1,706,1079,0,0
-511,-55,0,0,0,0,0,0,0,0,0,-1,713,1079,0,0
-504,-55,0,0,0,0,0,0,0,0,0,-1,720,1079,0,0
-497,-55,0,0,0,0,0,0,0,0,0,-1,727,1079,0,0
-490,-55,0,0,0,0,0,0,0,0,0,-1,734,1079,0,0
-483,-55,0,0,0,0,0,0,0,0,0,-1,741,1079,0,0
-476,-55,0,0,0,0,0,0,0,0,0,-1,748,1079,0,0
-469,-55,0,0,0,0,0,0,0,0,0,-1,755,1079,0,0
-462,-55,0,0,0,0,0,0,0,0,0,-1,762,1079,0,0
-455,-55,0,0,0,0,0,0,0,0,0,-1,769,1079,0,0
-448,-55,0,0,0,0,0,0,0,0,0,-1,776,1079,0,0
-441,-55,0,0,0,0,0,0,0,0,0,-1,783,1079,0,0
-434,-55,0,0,0,0,0,0,0,0,0,-1,790,1079,0,0
-427,-55,0,0,0,0,0,0,0,0,0,-1,797,1079,0,0
-420,-55,0,0,0,0,0,0,0,0,0,-1,804,1079,0,0
-413,-55,0,0,0,0,0,0,0,0,0,-1,811,1079,0,0
-406,-55,0,0,0,0,0,0,0,0,0,-1,818,1079,0,0
-399,-55,0,0,0,0,0,0,0,0,0,-1,825,1079,0,0
-392,-55,0,0,0,0,0,0,0,0,0,-1,832,1079,0,0
-385,-55,0,0,0,0,0,0,0,0,0,-1,839,1079,0,0
-378,-55,0,0,0,0,0,0,0,0,0,-1,846,1079,0,0
-371,-55,0,0,0,0,0,0,0,0,0,-1,853,1079,0,0
-364,-55,0,0,0,0,0,0,0,0,0,-1,860,1079,0,0
-357,-55,0,0,0,0,0,0,0,0,0,-1,867,1079,0,0
-350,-55,0,0,0,0,0,0,0,0,0,-1,874,1079,0,0
-343,-55,0,0,0,0,0,0,0,0,0,-1,881,1079,0,0
-336,-55,0,0,0,0,0,0,0,0,0,-1,888,1079,0,0
-329,-55,0,0,0,0,0,0,0,0,0,-1,895,1079,0,0
-322,-55,0,0,0,0,0,0,0,0,0,-1,902,1079,0,0
-315,-55,0,0,0,0,0,0,0,0,0,-1,909,1079,0,0
-308,-55,0,0,0,0,0,0,0,0,0,-1,916,1079,0,0
-301,-55,0,0,0,0,0,0,0,0,0,-1,923,1079,0,0
-294,-55,0,0,0,0,0,0,0,0,0,-1,930,1079,0,0
-287,-55,0,0,0,0,0,0,0,0,0,-1,937,1079,0,0
-280,-55,0,0,0,0,0,0,0,0,0,-1,944,1079,0,0
-273,-55,0,0,0,0,0,0,0,0,0,-1,951,1079,0,0
-266,-55,0,0,0,0,0,0,0,0,0,-1,958,1079,0,0
-259,-55,0,0,0,0,0,0,0,0,0,-1,965,1079,0,0
-252,-55,0,0,0,0,0,0,0,0,0,-1,972,1079,0,0
-245,-55,0,0,0,0,0,0,0,0,0,-1,979,1079,0,0
-238,-55,0,0,0,0,0,0,0,0,0,-1,986,1079,0,0
-231,-55,0,0,0,0,0,0,0,0,0,-1,993,1079,0,0
-224,-55,0,0,0,0,0,0,0,0,0,-1,1000,1079,0,0
-217,-55,0,0,0,0,0,0,0,0,0,-1,1007,1079,0,0
-210,-55,0,0,0,0,0,0,0,0,0,-1,1014,1079,0,0
-203,-55,0,0,0,0,0,0,0,0,0,-1,1021,1079,0,0
-196,-55,0,0,0,0,0,0,0,0,0,-1,1028,1079,0,0
-189,-55,0,0,0,0,0,0,0,0,0,-1,1035,1079,0,0
-182,-55,0,0,0,0,0,0,0,0,0,-1,1042,1079,0,0
-175,-55,0,0,0,0,0,0,0,0,0,-1,1049,1079,0,0
-168,-55,0,0,0,0,0,0,0,0,0,-1,1056,1079,0,0
-161,-55,0,0,0,0,0,0,0,0,0,-1,1063,1079,0,0
-154,-55,0,0,0,0,0,0,0,0,0,-1,1070,1079,0,0
-147,-55,0,0,0,0,0,0,0,0,0,-1,1077,1079,0,0
-140,-55,0,0,0,0,0,0,0,0,0,-1,1084,1079,0,0
-133,-55,0,0,0,0,0,0,0,0,0,-1,1091,1079,0,0
-126,-55,0,0,0,0,0,0,0,0,0,-1,1098,1079,0,0
-119,-55,0,0,0,0,0,0,0,0,0,-1,1105,1079,0,0
-112,-55,0,0,0,0,0,0,0,0,0,-1,1112,1079,0,0
-105,-55,0,0,0,0,0,0,0,0,0,-1,1119,1079,0,0
-98,-55,0,0,0,0,0,0,0,0,0,-1,1126,1079,0,0
-91,-55,0,0,0,0,0,0,0,0,0,-1,1133,1079,0,0
-84,-55,0,0,0,0,0,0,0,0,0,-1,1140,1079,0,0
-77,-55,0,0,0,0,0,0,0,0,0,-1,1147,1079,0,0
-70,-55,0,0,0,0,0,0,0,0,0,-1,1154,1079,0,0
-63,-55,0,0,0,0,0,0,0,0,0,-1,1161,1079,0,0
-56,-55,0,0,0,0,0,0,0,0,0,-1,1168,1079,0,0
-49,-55,0,0,0,0,0,0,0,0,0,-1,1175,1079,0,0
-42,-55,0,0,0,0,0,0,0,0,0,-1,1182,1079,0,0
-35,-55,0,0,0,0,0,0,0,0,0,-1,1189,1079,0,0
-28,-55,0,0,0,0,0,0,0,0,0,-1,1196,1079,0,0
-21,-55,0,0,0,0,0,0,0,0,0,-1,1203,1079,0,0
-14,-55,0,0,0,0,0,0,0,0,0,-1,1210,1079,0,0
-7,-55,0,0,0,0,0,0,0,0,0,-1,1217,1079,0,0
0,-55,0,0,0,0,0,0,0,0,0,-1,1224,1079,0,0
7,-55,0,0,0,0,0,0,0,0,0,-1,1231,1079,0,0
14,-55,0,0,0,0,0,0,0,0,0,-1,1238,1079,0,0
21,-55,0,0,0,0,0,0,0,0,0,-1,1245,1079,0,0
28,-55,0,0,0,0,0,0,0,0,0,-1,1252,1079,0,0
35,-55,0,0,0,0,0,0,0,0,0,-1,1259,1079,0,0
42,-55,0,0,0,0,0,0,0,0,0,-1,1266,1079,0,0
49,-55,0,0,0,0,0,0,0,0,0,-1,1273,1079,0,0
56,-55,0,0,0,0,0,0,0,0,0,-1,1280,1079,0,0
63,-55,0,0,0,0,0,0,0,0,0,-1,1287,1079,0,0
70,-55,0,0,0,0,0,0,0,0,0,-1,1294,1079,0,0
77,-55,0,0,0,0,0,0,0,0,0,-1,1301,1079,0,0
84,-55,0,0,0,0,0,0,0,0,0,-1,1308,1079,0,0
91,-55,0,0,0,0,0,0,0,0,0,-1,1315,1079,0,0
98,-55,0,0,0,0,0,0,0,0,0,-1,1322,1079,0,0
105,-55,0,0,0,0,0,0,0,0,0,-1,1329,1079,0,0
112,-55,0,0,0,0,0,0,0,0,0,-1,1336,1079,0,0
119,-55,0,0,0,0,0,0,0,0,0,-1,1343,1079,0,0
126,-55,0,0,0,0,0,0,0,0,0,-1,1350,1079,0,0
133,-55,0,0,0,0,0,0,0,0,0,-1,1357,1079,0,0
140,-55,0,0,0,0,0,0,0,0,0,-1,1364,1079,0,0
147,-55,0,0,0,0,0,0,0,0,0,-1,1371,1079,0,0
154,-55,0,0,0,0,0,0,0,0,0,-1,1378,1079,0,0
161,-55,0,0,0,0,0,0,0,0,0,-1,1385,1079,0,0
168,-55,0,0,0,0,0,0,0,0,0,-1,1392,1079,0,0
175,-55,0,0,0,0,0,0,0,0,0,-1,1399,1079,0,0
182,-55,0,0,0,0,0,0,0,0,0,-1,1406,1079,0,0
189,-55,0,0,0,0,0,0,0,0,0,-1,1413,1079,0,0
196,-55,0,0,0,0,0,0,0,0,0,-1,1420,1079,0,0
203,-55,0,0,0,0,0,0,0,0,0,-1,1427,1079,0,0
210,-55,0,0,0,0,0,0,0,0,0,-1,1434,1079,0,0
217,-55,0,0,0,0,0,0,0,0,0,-1,1441,1079,0,0
224,-55,0,0,0,0,0,0,0,0,0,-1,1448,1079,0,0
231,-55,0,0,0,0,0,0,0,0,0,-1,1455,1079,0,0
238,-55,0,0,0,0,0,0,0,0,0,-1,1462,1079,0,0
245,-55,0,0,0,0,0,0,0,0,0,-1,1469,1079,0,0
252,-55,0,0,0,0,0,0,0,0,0,-1,1476,1079,0,0
259,-55,0,0,0,0,0,0,0,0,0,-1,1483,1079,0,0
266,-55,0,0,0,0,0,0,0,0,0,-1,1490,1079,0,0
273,-55,0,0,0,0,0,0,0,0,0,-1,1497,1079,0,0
280,-55,0,0,0,0,0,0,0,0,0,-1,1504,1079,0,0
287,-55,0,0,0,0,0,0,0,0,0,-1,1511,1079,0,0
294,-55,0,0,0,0,0,0,0,0,0,-1,1518,1079,0,0
301,-55,0,0,0,0,0,0,0,0,0,-1,1525,1079,0,0
308,-55,0,0,0,0,0,0,0,0,0,-1,1532,1079,0,0
315,-55,0,0,0,0,0,0,0,0,0,-1,1539,1079,0,0
322,-55,0,0,0,0,0,0,0,0,0,-1,1546,1079,0,0
329,-55,0,0,0,0,0,0,0,0,0,-1,1553,1079,0,0
336,-55,0,0,0,0,0,0,0,0,0,-1,1560,1079,0,0
343,-55,0,0,0,0,0,0,0,0,0,-1,1567,1079,0,0
350,-55,0,0,0,0,0,0,0,0,0,-1,1574,1079,0,0
357,-55,0,0,0,0,0,0,0,0,0,-1,1581,1079,0,0
364,-55,0,0,0,0,0,0,0,0,0,-1,1588,1079,0,0
371,-55,0,0,0,0,0,0,0,0,0,-1,1595,1079,0,0
378,-55,0,0,0,0,0,0,0,0,0,-1,1602,1079,0,0
385,-55,0,0,0,0,0,0,0,0,0,-1,1609,1079,0,0
392,-55,0,0,0,0,0,0,0,0,0,-1,1616,1079,0,0
399,-55,0,0,0,0,0,0,0,0,0,-1,1623,1079,0,0
406,-55,0,0,0,0,0,0,0,0,0,-1,1630,1079,0,0
413,-55,0,0,0,0,0,0,0,0,0,-1,1637,1079,0,0
420,-55,0,0,0,0,0,0,0,0,0,-1,1644,1079,0,0
427,-55,0,0,0,0,0,0,0,0,0,-1,1651,1079,0,0
434,-55,0,0,0,0,0,0,0,0,0,-1,1658,1079,0,0
441,-55,0,0,0,0,0,0,0,0,0,-1,1665,1079,0,0
448,-55,0,0,0,0,0,0,0,0,0,-1,1672,1079,0,0
455,-55,0,0,0,0,0,0,0,0,0,-1,1679,1079,0,0
462,-55,0,0,0,0,0,0,0,0,0,-1,1686,1079,0,0
469,-55,0,0,0,0,0,0,0,0,0,-1,1693,1079,0,0
476,-55,0,0,0,0,0,0,0,0,0,-1,1700,1079,0,0
483,-55,0,0,0,0,0,0,0,0,0,-1,1707,1079,0,0
490,-55,0,0,0,0,0,0,0,0,0,-1,1714,1079,0,0
497,-55,0,0,0,0,0,0,0,0,0,-1,1721,1079,0,0
504,-55,0,0,0,0,0,0,0,0,0,-1,1728,1079,0,0
511,-55,0,0,0,0,0,0,0,0,0,-1,1735,1079,0,0
518,-55,0,0,0,0,0,0,0,0,0,-1,1742,1079,0,0
525,-55,0,0,0,0,0,0,0,0,0,-1,1749,1079,0,0
532,-55,0,0,0,0,0,0,0,0,0,-1,1756,1079,0,0
539,-55,0,0,0,0,0,0,0,0,0,-1,1763,1079,0,0
546,-55,0,0,0,0,0,0,0,0,0,-1,1770,1079,0,0
553,-55,0,0,0,0,0,0,0,0,0,-1,1777,1079,0,0
560,-55,0,0,0,0,0,0,0,0,0,-1,1784,1079,0,0
567,-55,0,0,0,0,0,0,0,0,0,-1,1791,1079,0,0
574,-55,0,0,0,0,0,0,0,0,0,-1,1798,1079,0,0
581,-55,0,0,0,0,0,0,0,0,0,-1,1805,1079,0,0
588,-55,0,0,0,0,0,0,0,0,0,-1,1812,1079,0,0
595,-55,0,0,0,0,0,0,0,0,0,-1,1819,1079,0,0
602,-55,0,0,0,0,0,0,0,0,0,-1,1826,1079,0,0
609,-55,0,0,0,0,0,0,0,0,0,-1,1833,1079,0,0
616,-55,0,0,0,0,0,0,0,0,0,-1,1840,1079,0,0
623,-55,0,0,0,0,0,0,0,0,0,-1,1847,1079,0,0
630,-55,0,0,0,0,0,0,0,0,0,-1,1854,1079,0,0
637,-55,0,0,0,0,0,0,0,0,0,-1,1861,1079,0,0
644,-55,0,0,0,0,0,0,0,0,0,-1,1868,1079,0,0
651,-55,-0.0559082,0.0499268,-0.00314642,-1.92421e-05,0.00048796,5.51295e-05,-0.00322079,1.41955,0.00216581,0.0301297,1875,1079,-0.0558626,-0.0498928
658,-55,-0.0821533,0.0823975,-0.00220684,0.000158775,4.87647e-05,0.000159779,-0.00220784,1.55019,0.00152794,0.029337,1882,1079,-0.0822123,-0.0824238
665,-55,-0.0664063,0.0472412,-0.00150814,0.00019947,-9.32402e-05,0.000204546,-0.00151322,-1.51641,0.00108345,0.0346913,1889,1079,-0.0664073,-0.0472024
672,-55,-0.0529785,0.0303955,-0.000954332,0.000164112,-0.00011575,0.000175965,-0.000966185,-1.46875,0.000710084,0.0352553,1896,1079,-0.0529203,-0.0304102
679,-55,-0.0987549,-0.0406494,-0.000581187,0.000104045,-8.25098e-05,0.00011384,-0.000590982,-1.45263,0.000436907,0.0333992,1903,1079,-0.0987074,0.0406244
686,-55,-0.126465,-0.09021,-0.000334236,4.89855e-05,-1.53736e-05,4.96012e-05,-0.000334851,-1.53077,0.000241472,0.0355193,1910,1079,-0.1265,0.0902007
693,-55,-0.110229,0.0349121,-0.000172818,4.36699e-06,6.18839e-05,2.38405e-05,-0.000192291,1.26593,0.000136835,0.0355657,1917,1079,-0.110247,-0.0349371
700,-55,-0.0599365,0.0449219,-5.56154e-05,1.4022e-05,0.000148825,0.000132047,-0.000173641,0.90031,0.000177033,0.0299268,1924,1079,-0.0599696,-0.044864
707,-55,-0.0428467,0.0812988,6.76861e-05,-2.01188e-05,0.000159195,0.000188921,-0.000141354,0.650854,0.000191343,0.0190658,1931,1079,-0.0428472,-0.0812403
714,-55,-0.0500488,0.0981445,7.1122e-05,-6.2578e-05,0.000202725,0.000217735,-0.00020919,0.626134,0.000246502,0.014049,1938,1079,-0.0500201,-0.0981024
721,-55,-0.0352783,0.0928955,2.0565e-06,-6.48497e-05,0.000242139,0.000213043,-0.000275836,0.716754,0.000283029,0.0138877,1945,1079,-0.0353024,-0.0928681
728,-55,-0.060791,0.0839844,-9.19386e-06,-2.43021e-05,0.000216575,0.000199959,-0.000233455,0.767965,0.00025048,0.0165904,1952,1079,-0.0608046,-0.0840069
735,-55,-0.0550537,0.0869141,4.05798e-05,-8.52791e-06,0.000206835,0.000224314,-0.000192262,0.726319,0.000240747,0.0149768,1959,1079,-0.0550566,-0.0868813
742,-55,-0.0505371,0.0908203,0.000102092,-5.97911e-05,0.000194246,0.000231586,-0.000189285,0.58799,0.000243399,0.0147092,1966,1079,-0.0505014,-0.0907806
749,-55,-0.032959,0.0775146,0.000129422,-0.000158656,0.00018268,0.000218018,-0.000247252,0.45156,0.0002688,0.0116798,1973,1079,-0.0329066,-0.0775625
756,-55,-0.0158691,0.0777588,0.000848896,-0.000724772,6.54726e-05,0.000851615,-0.000727491,0.0415095,0.000912636,0.0109729,1980,1079,-0.0158475,-0.0777813
763,-55,-0.00756836,0.0883789,0.00203589,-0.00109165,4.54424e-05,0.00203655,-0.00109231,0.0145257,0.00183366,0.0138713,1987,1079,-0.0075729,-0.0884012
770,-55,0.00854492,0.0740967,0.00318568,-0.00167129,6.80869e-05,0.00318663,-0.00167224,0.0140147,0.00285033,0.0139459,1994,1079,0.00852709,-0.0741317
777,-55,-0.0297852,0.0892334,0.00487375,-0.00246301,0.000123376,0.00487583,-0.00246509,0.0168098,0.00431378,0.0114898,2001,1079,-0.0297903,-0.0892922
784,-55,-0.0926514,0.0483398,0.00720332,-0.00349774,0.000195692,0.0072069,-0.00350132,0.018279,0.00630458,0.0263742,2008,1079,-0.0926295,-0.0483888
791,-55,-0.189819,-0.0439453,0.0103389,-0.00479506,0.00029962,0.0103448,-0.00480099,0.0197876,0.00893754,0.0406665,2015,1079,-0.189809,0.0439373
798,-55,0.220093,-0.106079,0.0145249,-0.00638085,0.000460586,0.0145351,-0.00639099,0.0220173,0.0123829,0.0443168,2022,1079,0.220075,0.106097
805,-55,-0.0614014,0.390259,0.0200553,-0.00827846,0.000728344,0.020074,-0.00829718,0.0256832,0.016844,0.0445974,2029,1079,-0.0614438,-0.39022
812,-55,0.192261,0.44104,0.0272302,-0.0104847,0.00114306,0.0272648,-0.0105193,0.0302709,0.0225175,0.0443168,2036,1079,0.192294,-0.44099
-700,-62,2.77344,0.019043,0,0,0,0,0,0,0,-1,524,1086,2.77343,-0.0190017
-693,-62,2.36877,1.33118,0,0,0,0,0,0,0,-1,531,1086,2.36878,-1.33118
-686,-62,2.05817,1.02441,-0.0240972,0.0370303,-0.0149429,0.0404876,-0.0275545,-1.34343,0.03952,0.0477977,538,1086,2.05815,-1.02446
-679,-62,1.87427,0.285156,-0.0242037,0.0311654,-0.0106247,0.0331341,-0.0261725,-1.38757,0.0343192,0.0446599,545,1086,1.87426,-0.285155
-672,-62,0.643799,0.21814,-0.0224598,0.0255398,-0.00737899,0.0266486,-0.0235685,-1.42165,0.029011,0.046799,552,1086,0.643779,-0.218129
-665,-62,0.129578,-0.326294,-0.0196151,0.0203788,-0.00499509,0.0209932,-0.0202295,-1.4484,0.0238013,0.0433103,559,1086,0.129599,0.326236
-658,-62,-0.0012207,0.117432,0,0,0,0,0,0,0,-1,566,1086,-0.00120534,-0.117492
-651,-62,0.0180664,0.0743408,-0.0127967,0.0119186,-0.00212355,0.0120998,-0.0129778,-1.48571,0.0144815,0.0318019,573,1086,0.0180965,-0.0742863
-644,-62,-0.0288086,0.065918,-0.0096293,0.00870605,-0.00132383,0.00880114,-0.00972439,-1.49909,0.0107001,0.00982084,580,1086,-0.0288076,-0.0659598
-637,-62,-0.0200195,0.0606689,-0.00724643,0.00593944,-0.000747706,0.00598171,-0.00728869,-1.51433,0.00767405,0.00837052,587,1086,-0.0200201,-0.0607019
-630,-62,-0.0304565,0.0769043,-0.00509214,0.00394499,-2.03425e-05,0.00394503,-0.00509219,-1.56855,0.00523163,0.00948899,594,1086,-0.0304791,-0.0769543
-623,-62,-0.0412598,0.0936279,-0.00296109,0.00264327,7.05762e-06,0.00264328,-0.0029611,1.56954,0.00323742,0.0109159,601,1086,-0.0412729,-0.0936839
-616,-62,-0.012207,0.0795898,-0.00142108,0.00147253,5.06238e-05,0.00147341,-0.00142197,1.55331,0.00167173,0.0110987,608,1086,-0.0121875,-0.0795469
-609,-62,-0.00305176,0.0518799,-0.000551978,0.000839827,0.000173969,0.000861243,-0.000573393,1.44831,0.000833827,0.0117955,615,1086,-0.00302906,-0.0518377
-602,-62,-0.0261841,0.0628662,-7.54012e-06,9.8016e-05,0.00021569,0.000267292,-0.000176816,0.905387,0.000258173,0.0136879,622,1086,-0.0261634,-0.0628459
-595,-62,-0.0363159,0.0593262,0.000365263,4.19778e-05,0.00020486,0.000464572,-5.73318e-05,0.451388,0.000330487,0.0160755,629,1086,-0.036341,-0.0593599
-588,-62,-0.0247803,0.0646973,0.000537394,0.000143497,0.000231888,0.000644683,3.62078e-05,0.433347,0.000418243,0.0212463,636,1086,-0.0247736,-0.0646646
-581,-62,-0.0241089,0.116333,0.000640383,0.000294723,0.000201349,0.000732905,0.000202201,0.430734,0.000437082,0.0289533,643,1086,-0.0241028,-0.116281
-574,-62,-0.0244141,0.269897,0.000795971,0.000451849,0.000185627,0.000877016,0.000370805,0.411653,0.000508353,0.0308582,650,1086,-0.0244173,-0.269947
-567,-62,0.0113525,0.213989,0.000915349,0.000669046,0.000126854,0.000968998,0.000615397,0.400103,0.000566216,0.0338605,657,1086,0.0113589,-0.213997
-560,-62,-0.0379639,0.048584,0.000970009,0.000949368,2.29184e-05,0.000984824,0.000934553,0.573835,0.00064045,0.036351,664,1086,-0.0379771,-0.0486313
-553,-62,-0.0153198,0.0430908,0.000949675,0.00130482,-0.000138115,0.00135221,0.000902286,-1.24027,0.000795127,0.0332968,671,1086,-0.0153018,-0.0431416
-546,-62,0.0012207,0.0289307,0.000808329,0.00174482,-0.000332462,0.00185084,0.000702305,-1.26209,0.00107889,0.0285794,678,1086,0.0012292,-0.0289285
-539,-62,-0.00695801,-0.0175781,0.00050926,0.00227446,-0.000549528,0.00243155,0.000352165,-1.29235,0.00151733,0.0329138,685,1086,-0.00697275,0.0175442
-532,-62,-0.00140381,-0.00146484,-9.40081e-05,0.00290503,-0.000796122,0.00310326,-0.000292243,-1.32676,0.00217282,0.036052,692,1086,-0.00137726,0.00140596
-525,-62,0,0,0,0,0,0,0,0,0,-1,699,1086,0,0
-518,-62,0,0,0,0,0,0,0,0,0,-1,706,1086,0,0
-511,-62,0,0,0,0,0,0,0,0,0,-1,713,1086,0,0
-504,-62,0,0,0,0,0,0,0,0,0,-1,720,1086,0,0
-497,-62,0,0,0,0,0,0,0,0,0,-1,727,1086,0,0
-490,-62,0,0,0,0,0,0,0,0,0,-1,734,1086,0,0
-483,-62,0,0,0,0,0,0,0,0,0,-1,741,1086,0,0
-476,-62,0,0,0,0,0,0,0,0,0,-1,748,1086,0,0
-469,-62,0,0,0,0,0,0,0,0,0,-1,755,1086,0,0
-462,-62,0,0,0,0,0,0,0,0,0,-1,762,1086,0,0
-455,-62,0,0,0,0,0,0,0,0,0,-1,769,1086,0,0
-448,-62,0,0,0,0,0,0,0,0,0,-1,776,1086,0,0
-441,-62,0,0,0,0,0,0,0,0,0,-1,783,1086,0,0
-434,-62,0,0,0,0,0,0,0,0,0,-1,790,1086,0,0
-427,-62,0,0,0,0,0,0,0,0,0,-1,797,1086,0,0
-420,-62,0,0,0,0,0,0,0,0,0,-1,804,1086,0,0
-413,-62,0,0,0,0,0,0,0,0,0,-1,811,1086,0,0
-406,-62,0,0,0,0,0,0,0,0,0,-1,818,1086,0,0
-399,-62,0,0,0,0,0,0,0,0,0,-1,825,1086,0,0
-392,-62,0,0,0,0,0,0,0,0,0,-1,832,1086,0,0
-385,-62,0,0,0,0,0,0,0,0,0,-1,839,1086,0,0
-378,-62,0,0,0,0,0,0,0,0,0,-1,846,1086,0,0
-371,-62,0,0,0,0,0,0,0,0,0,-1,853,1086,0,0
-364,-62,0,0,0,0,0,0,0,0,0,-1,860,1086,0,0
-357,-62,0,0,0,0,0,0,0,0,0,-1,867,1086,0,0
-350,-62,0,0,0,0,0,0,0,0,0,-1,874,1086,0,0
-343,-62,0,0,0,0,0,0,0,0,0,-1,881,1086,0,0
-336,-62,0,0,0,0,0,0,0,0,0,-1,888,1086,0,0
-329,-62,0,0,0,0,0,0,0,0,0,-1,895,1086,0,0
-322,-62,0,0,0,0,0,0,0,0,0,-1,902,1086,0,0
-315,-62,0,0,0,0,0,0,0,0,0,-1,909,1086,0,0
-308,-62,0,0,0,0,0,0,0,0,0,-1,916,1086,0,0
-301,-62,0,0,0,0,0,0,0,0,0,-1,923,1086,0,0
-294,-62,0,0,0,0,0,0,0,0,0,-1,930,1086,0,0
-287,-62,0,0,0,0,0,0,0,0,0,-1,937,1086,0,0
-280,-62,0,0,0,0,0,0,0,0,0,-1,944,1086,0,0
-273,-62,0,0,0,0,0,0,0,0,0,-1,951,1086,0,0
-266,-62,0,0,0,0,0,0,0,0,0,-1,958,1086,0,0
-259,-62,0,0,0,0,0,0,0,0,0,-1,965,1086,0,0
-252,-62,0,0,0,0,0,0,0,0,0,-1,972,1086,0,0
-245,-62,0,0,0,0,0,0,0,0,0,-1,979,1086,0,0
-238,-62,0,0,0,0,0,0,0,0,0,-1,986,1086,0,0
-231,-62,0,0,0,0,0,0,0,0,0,-1,993,1086,0,0
-224,-62,0,0,0,0,0,0,0,0,0,-1,1000,1086,0,0
-217,-62,0,0,0,0,0,0,0,0,0,-1,1007,1086,0,0
-210,-62,0,0,0,0,0,0,0,0,0,-1,1014,1086,0,0
-203,-62,0,0,0,0,0,0,0,0,0,-1,1021,1086,0,0
-196,-62,0,0,0,0,0,0,0,0,0,-1,1028,1086,0,0
-189,-62,0,0,0,0,0,0,0,0,0,-1,1035,1086,0,0
-182,-62,0,0,0,0,0,0,0,0,0,-1,1042,1086,0,0
-175,-62,0,0,0,0,0,0,0,0,0,-1,1049,1086,0,0
-168,-62,0,0,0,0,0,0,0,0,0,-1,1056,1086,0,0
-161,-62,0,0,0,0,0,0,0,0,0,-1,1063,1086,0,0
-154,-62,0,0,0,0,0,0,0,0,0,-1,1070,1086,0,0
-147,-62,0,0,0,0,0,0,0,0,0,-1,1077,1086,0,0
-140,-62,0,0,0,0,0,0,0,0,0,-1,1084,1086,0,0
-133,-62,0,0,0,0,0,0,0,0,0,-1,1091,1086,0,0
-126,-62,0,0,0,0,0,0,0,0,0,-1,1098,1086,0,0
-119,-62,0,0,0,0,0,0,0,0,0,-1,1105,1086,0,0
-112,-62,0,0,0,0,0,0,0,0,0,-1,1112,1086,0,0
-105,-62,0,0,0,0,0,0,0,0,0,-1,1119,1086,0,0
-98,-62,0,0,0,0,0,0,0,0,0,-1,1126,1086,0,0
-91,-62,0,0,0,0,0,0,0,0,0,-1,1133,1086,0,0
-84,-62,0,0,0,0,0,0,0,0,0,-1,1140,1086,0,0
-77,-62,0,0,0,0,0,0,0,0,0,-1,1147,1086,0,0
-70,-62,0,0,0,0,0,0,0,0,0,-1,1154,1086,0,0
-63,-62,0,0,0,0,0,0,0,0,0,-1,1161,1086,0,0
-56,-62,0,0,0,0,0,0,0,0,0,-1,1168,1086,0,0
-49,-62,0,0,0,0,0,0,0,0,0,-1,1175,1086,0,0
-42,-62,0,0,0,0,0,0,0,0,0,-1,1182,1086,0,0
-35,-62,0,0,0,0,0,0,0,0,0,-1,1189,1086,0,0
-28,-62,0,0,0,0,0,0,0,0,0,-1,1196,1086,0,0
-21,-62,0,0,0,0,0,0,0,0,0,-1,1203,1086,0,0
-14,-62,0,0,0,0,0,0,0,0,0,-1,1210,1086,0,0
-7,-62,0,0,0,0,0,0,0,0,0,-1,1217,1086,0,0
0,-62,0,0,0,0,0,0,0,0,0,-1,1224,1086,0,0
7,-62,0,0,0,0,0,0,0,0,0,-1,1231,1086,0,0
14,-62,0,0,0,0,0,0,0,0,0,-1,1238,1086,0,0
21,-62,0,0,0,0,0,0,0,0,0,-1,1245,1086,0,0
28,-62,0,0,0,0,0,0,0,0,0,-1,1252,1086,0,0
35,-62,0,0,0,0,0,0,0,0,0,-1,1259,1086,0,0
42,-62,0,0,0,0,0,0,0,0,0,-1,1266,1086,0,0
49,-62,0,0,0,0,0,0,0,0,0,-1,1273,1086,0,0
56,-62,0,0,0,0,0,0,0,0,0,-1,1280,1086,0,0
63,-62,0,0,0,0,0,0,0,0,0,-1,1287,1086,0,0
70,-62,0,0,0,0,0,0,0,0,0,-1,1294,1086,0,0
77,-62,0,0,0,0,0,0,0,0,0,-1,1301,1086,0,0
84,-62,0,0,0,0,0,0,0,0,0,-1,1308,1086,0,0
91,-62,0,0,0,0,0,0,0,0,0,-1,1315,1086,0,0
98,-62,0,0,0,0,0,0,0,0,0,-1,1322,1086,0,0
105,-62,0,0,0,0,0,0,0,0,0,-1,1329,1086,0,0
112,-62,0,0,0,0,0,0,0,0,0,-1,1336,1086,0,0
119,-62,0,0,0,0,0,0,0,0,0,-1,1343,1086,0,0
126,-62,0,0,0,0,0,0,0,0,0,-1,1350,1086,0,0
133,-62,0,0,0,0,0,0,0,0,0,-1,1357,1086,0,0
140,-62,0,0,0,0,0,0,0,0,0,-1,1364,1086,0,0
147,-62,0,0,0,0,0,0,0,0,0,-1,1371,1086,0,0
154,-62,0,0,0,0,0,0,0,0,0,-1,1378,1086,0,0
161,-62,0,0,0,0,0,0,0,0,0,-1,1385,1086,0,0
168,-62,0,0,0,0,0,0,0,0,0,-1,1392,1086,0,0
175,-62,0,0,0,0,0,0,0,0,0,-1,1399,1086,0,0
182,-62,0,0,0,0,0,0,0,0,0,-1,1406,1086,0,0
189,-62,0,0,0,0,0,0,0,0,0,-1,1413,1086,0,0
196,-62,0,0,0,0,0,0,0,0,0,-1,1420,1086,0,0
203,-62,0,0,0,0,0,0,0,0,0,-1,1427,1086,0,0
210,-62,0,0,0,0,0,0,0,0,0,-1,1434,1086,0,0
217,-62,0,0,0,0,0,0,0,0,0,-1,1441,1086,0,0
224,-62,0,0,0,0,0,0,0,0,0,-1,1448,1086,0,0
231,-62,0,0,0,0,0,0,0,0,0,-1,1455,1086,0,0
238,-62,0,0,0,0,0,0,0,0,0,-1,1462,1086,0,0
245,-62,0,0,0,0,0,0,0,0,0,-1,1469,1086,0,0
252,-62,0,0,0,0,0,0,0,0,0,-1,1476,1086,0,0
259,-62,0,0,0,0,0,0,0,0,0,-1,1483,1086,0,0
266,-62,0,0,0,0,0,0,0,0,0,-1,1490,1086,0,0
273,-62,0,0,0,0,0,0,0,0,0,-1,1497,1086,0,0
280,-62,0,0,0,0,0,0,0,0,0,-1,1504,1086,0,0
287,-62,0,0,0,0,0,0,0,0,0,-1,1511,1086,0,0
294,-62,0,0,0,0,0,0,0,0,0,-1,1518,1086,0,0
301,-62,0,0,0,0,0,0,0,0,0,-1,1525,1086,0,0
308,-62,0,0,0,0,0,0,0,0,0,-1,1532,1086,0,0
315,-62,0,0,0,0,0,0,0,0,0,-1,1539,1086,0,0
322,-62,0,0,0,0,0,0,0,0,0,-1,1546,1086,0,0
329,-62,0,0,0,0,0,0,0,0,0,-1,1553,1086,0,0
336,-62,0,0,0,0,0,0,0,0,0,-1,1560,1086,0,0
343,-62,0,0,0,0,0,0,0,0,0,-1,1567,1086,0,0
350,-62,0,0,0,0,0,0,0,0,0,-1,1574,1086,0,0
357,-62,0,0,0,0,0,0,0,0,0,-1,1581,1086,0,0
364,-62,0,0,0,0,0,0,0,0,0,-1,1588,1086,0,0
371,-62,0,0,0,0,0,0,0,0,0,-1,1595,1086,0,0
378,-62,0,0,0,0,0,0,0,0,0,-1,1602,1086,0,0
385,-62,0,0,0,0,0,0,0,0,0,-1,1609,1086,0,0
392,-62,0,0,0,0,0,0,0,0,0,-1,1616,1086,0,0
399,-62,0,0,0,0,0,0,0,0,0,-1,1623,1086,0,0
406,-62,0,0,0,0,0,0,0,0,0,-1,1630,1086,0,0
413,-62,0,0,0,0,0,0,0,0,0,-1,1637,1086,0,0
420,-62,0,0,0,0,0,0,0,0,0,-1,1644,1086,0,0
427,-62,0,0,0,0,0,0,0,0,0,-1,1651,1086,0,0
434,-62,0,0,0,0,0,0,0,0,0,-1,1658,1086,0,0
441,-62,0,0,0,0,0,0,0,0,0,-1,1665,1086,0,0
448,-62,0,0,0,0,0,0,0,0,0,-1,1672,1086,0,0
455,-62,0,0,0,0,0,0,0,0,0,-1,1679,1086,0,0
462,-62,0,0,0,0,0,0,0,0,0,-1,1686,1086,0,0
469,-62,0,0,0,0,0,0,0,0,0,-1,1693,1086,0,0
476,-62,0,0,0,0,0,0,0,0,0,-1,1700,1086,0,0
483,-62,0,0,0,0,0,0,0,0,0,-1,1707,1086,0,0
490,-62,0,0,0,0,0,0,0,0,0,-1,1714,1086,0,0
497,-62,0,0,0,0,0,0,0,0,0,-1,1721,1086,0,0
504,-62,0,0,0,0,0,0,0,0,0,-1,1728,1086,0,0
511,-62,0,0,0,0,0,0,0,0,0,-1,1735,1086,0,0
518,-62,0,0,0,0,0,0,0,0,0,-1,1742,1086,0,0
525,-62,0,0,0,0,0,0,0,0,0,-1,1749,1086,0,0
532,-62,0,0,0,0,0,0,0,0,0,-1,1756,1086,0,0
539,-62,0,0,0,0,0,0,0,0,0,-1,1763,1086,0,0
546,-62,0,0,0,0,0,0,0,0,0,-1,1770,1086,0,0
553,-62,0,0,0,0,0,0,0,0,0,-1,1777,1086,0,0
560,-62,0,0,0,0,0,0,0,0,0,-1,1784,1086,0,0
567,-62,0,0,0,0,0,0,0,0,0,-1,1791,1086,0,0
574,-62,0,0,0,0,0,0,0,0,0,-1,1798,1086,0,0
581,-62,0,0,0,0,0,0,0,0,0,-1,1805,1086,0,0
588,-62,0,0,0,0,0,0,0,0,0,-1,1812,1086,0,0
595,-62,0,0,0,0,0,0,0,0,0,-1,1819,1086,0,0
602,-62,0,0,0,0,0,0,0,0,0,-1,1826,1086,0,0
609,-62,0,0,0,0,0,0,0,0,0,-1,1833,1086,0,0
616,-62,0,0,0,0,0,0,0,0,0,-1,1840,1086,0,0
623,-62,0,0,0,0,0,0,0,0,0,-1,1847,1086,0,0
630,-62,0,0,0,0,0,0,0,0,0,-1,1854,1086,0,0
637,-62,0,0,0,0,0,0,0,0,0,-1,1861,1086,0,0
644,-62,0,0,0,0,0,0,0,0,0,-1,1868,1086,0,0
651,-62,0.0360107,0.0898438,-0.0025725,-0.000282731,1.95482e-05,-0.000282564,-0.00257267,1.56226,0.00162911,0.0354569,1875,1086,0.0359724,-0.0898181
658,-62,-0.00549316,0.0758057,-0.00182405,-0.000103088,-0.000196508,-8.09351e-05,-0.00184621,-1.45854,0.00120473,0.0326026,1882,1086,-0.00549683,-0.0757745
665,-62,-0.0375977,0.0618896,-0.00125435,-5.29571e-05,-0.000203925,-1.92864e-05,-0.00128802,-1.40716,0.000852321,0.0325611,1889,1086,-0.0375738,-0.0618765
672,-62,-0.0438232,0.0725098,-0.000800092,-6.2251e-05,-0.00014636,-3.42792e-05,-0.000828064,-1.38196,0.000540978,0.033461,1896,1086,-0.0437976,-0.0724518
679,-62,-0.0889893,0.0078125,-0.000495982,-8.99654e-05,-7.27964e-05,-7.7308e-05,-0.000508639,-1.39864,0.000316487,0.0326135,1903,1086,-0.0890373,-0.00776979
686,-62,-0.0986328,-0.0670166,-0.000292027,-0.000109915,1.0253e-05,-0.000109339,-0.000292602,1.51473,0.000170722,0.0340548,1910,1086,-0.0986921,0.0670321
693,-62,-0.0668945,0.0507813,-0.000162538,-0.000119547,9.06492e-05,-4.78798e-05,-0.000234206,0.901811,0.000142877,0.0332998,1917,1086,-0.0669042,-0.050827
700,-62,-0.0650635,0.117798,-6.90639e-05,-7.42851e-05,0.000176647,0.000104992,-0.000248341,0.778009,0.000209518,0.0278348,1924,1086,-0.0650105,-0.117792
707,-62,-0.0568848,0.0866699,3.73444e-05,-8.55296e-05,0.000194034,0.000179435,-0.00022762,0.632076,0.000235562,0.0168483,1931,1086,-0.056919,-0.0866701
714,-62,-0.0471191,0.0782471,3.25761e-05,-9.93225e-05,0.000224359,0.000200478,-0.000267224,0.642452,0.000270943,0.0115951,1938,1086,-0.0470672,-0.0782163
721,-62,-0.0158691,0.0904541,-3.15315e-05,-7.69979e-05,0.00024071,0.000187517,-0.000296046,0.738317,0.000281519,0.0119116,1945,1086,-0.0158471,-0.0903945
728,-62,-0.0617676,0.081543,-3.58649e-05,-3.27743e-05,0.000210872,0.000176558,-0.000245197,0.789062,0.000244573,0.0129482,1952,1086,-0.0617295,-0.0815635
735,-62,-0.059082,0.0877686,-1.25755e-05,-1.21148e-05,0.000219124,0.000206779,-0.000231469,0.785924,0.000253156,0.0140953,1959,1086,-0.0590733,-0.0877617
742,-62,-0.0595703,0.0955811,9.62342e-06,-4.73322e-05,0.000234993,0.000217858,-0.000255567,0.725099,0.000273621,0.0125437,1966,1086,-0.0595156,-0.0955791
749,-62,-0.0500488,0.0823975,-2.89014e-05,-9.25344e-05,0.000235544,0.000176965,-0.000298401,0.718266,0.000277422,0.0115675,1973,1086,-0.0500419,-0.0824271
756,-62,-0.0383301,0.0858154,0.000661748,-0.000533867,9.80245e-05,0.000669731,-0.00054185,0.0812635,0.000700804,0.012494,1980,1086,-0.0383416,-0.0857683
763,-62,-0.0400391,0.0900879,0.00184331,-0.000773203,1.79072e-05,0.00184344,-0.000773326,0.0068435,0.00155233,0.0130893,1987,1086,-0.0400983,-0.0900784
770,-62,-0.0352783,0.0787354,0.00296209,-0.00119146,-1.69949e-05,0.00296216,-0.00119153,-0.00409157,0.00246969,0.0102493,1994,1086,-0.0352548,-0.0787479
777,-62,-0.045166,0.0651855,0.00463307,-0.00174497,-6.23056e-05,0.00463368,-0.00174558,-0.00976751,0.00380681,0.0116656,2001,1086,-0.0451145,-0.0651459
784,-62,-0.0404053,0.0214844,0.00697731,-0.00245003,-0.000151064,0.00697973,-0.00245245,-0.0160185,0.0056509,0.0251572,2008,1086,-0.0403974,-0.0214714
791,-62,-0.0605469,0.00305176,0.0101899,-0.00330851,-0.000284991,0.0101959,-0.00331453,-0.0211004,0.00813054,0.0415081,2015,1086,-0.0605663,-0.00302103
798,-62,-0.0401611,0.0231934,0.0145421,-0.00432288,-0.000450206,0.0145529,-0.00433362,-0.0238465,0.0114238,0.0443775,2022,1086,-0.0401405,-0.0232017
805,-62,-0.128052,0.13208,0.0203713,-0.0054867,-0.00061839,0.020386,-0.00550148,-0.0238967,0.0157482,0.043813,2029,1086,-0.128044,-0.132121
812,-62,0.363892,0.496094,0.0280917,-0.00676054,-0.000777459,0.028109,-0.00677787,-0.0222925,0.0213602,0.0439071,2036,1086,0.363892,-0.496094
-700,-69,2.32953,0.439453,0,0,0,0,0,0,0,-1,524,1093,2.32951,-0.439436
-693,-69,2.16345,0.524414,-0.0372931,0.0406514,-0.018725,0.0449164,-0.0415581,-1.34685,0.0499386,0.0475111,531,1093,2.16348,-0.524435
-686,-69,1.88812,0.390869,-0.0353581,0.0336944,-0.0137944,0.0363481,-0.0380118,-1.38074,0.0429353,0.0445063,538,1093,1.88811,-0.390844
-679,-69,1.13379,0.0440674,-0.0312952,0.0273177,-0.0101924,0.0290396,-0.033017,-1.40345,0.0358529,0.0455,545,1093,1.1338,-0.0440071
-672,-69,0.600342,0.0205078,-0.0264719,0.0217607,-0.00744743,0.0228845,-0.0275956,-1.42104,0.029187,0.0445375,552,1093,0.600355,-0.0204478
-665,-69,0.0620728,0.198486,0,0,0,0,0,0,0,-1,559,1093,0.0620883,-0.198539
-658,-69,0.0178833,0.161377,-0.0168672,0.0130788,-0.00380486,0.0135547,-0.0173431,-1.44637,0.0178835,0.0455514,566,1093,0.0179044,-0.161364
-651,-69,-0.026001,0.105713,-0.0127466,0.00982267,-0.0026373,0.0101268,-0.0130507,-1.456,0.0134169,0.0297024,573,1093,-0.0259808,-0.105731
-644,-69,-0.0527344,0.0633545,-0.00929724,0.00719421,-0.00177703,0.00738352,-0.00948655,-1.46466,0.00976514,0.00894845,580,1093,-0.0527612,-0.0633329
-637,-69,-0.038269,0.0667725,-0.00669184,0.00484529,-0.00114993,0.00495879,-0.00680534,-1.47241,0.00681985,0.0114732,587,1093,-0.0382832,-0.0667342
-630,-69,-0.0304565,0.0766602,-0.00453606,0.00332896,-0.000329522,0.00334275,-0.00454985,-1.529,0.00457452,0.0130998,594,1093,-0.0304583,-0.0766052
-623,-69,-0.0134277,0.0936279,-0.00255018,0.00228928,-0.00016864,0.00229515,-0.00255605,-1.53601,0.00280219,0.0116742,601,1093,-0.013415,-0.0936153
-616,-69,-0.00775146,0.0596924,-0.00123727,0.00125817,-5.13452e-05,0.00125922,-0.00123832,-1.55023,0.00144197,0.0119487,608,1093,-0.00777493,-0.0596887
-609,-69,-0.029541,0.0351563,-0.000491195,0.000805735,0.000116599,0.000816135,-0.000501594,1.48184,0.000767982,0.012132,615,1093,-0.0295143,-0.0351632
-602,-69,-0.0233154,0.0742188,-3.89907e-06,0.000190386,0.000192094,0.000308503,-0.000122016,1.0195,0.000256216,0.0157672,622,1093,-0.0233177,-0.0741838
-595,-69,-0.0186157,0.0791016,0.000344833,0.000123813,0.000165937,0.000433691,3.49549e-05,0.491635,0.000278209,0.0182777,629,1093,-0.0186365,-0.079054
-588,-69,-0.0222168,0.074585,0.000494549,0.000219328,0.00016501,0.000571798,0.000142078,0.437846,0.00034377,0.0202675,636,1093,-0.0221974,-0.0745997
-581,-69,-0.0236206,0.111816,0.000582668,0.000357255,0.000124351,0.000637788,0.000302134,0.417239,0.000368397,0.0251096,643,1093,-0.0236069,-0.11182
-574,-69,-0.0712891,0.180664,0.000720049,0.00049984,0.00010373,0.000761216,0.000458674,0.377799,0.000442559,0.0284895,650,1093,-0.0712638,-0.180702
-567,-69,-0.0236206,0.174561,0.000818356,0.000684939,3.86551e-05,0.000828746,0.000674549,0.262592,0.000508945,0.0334627,657,1093,-0.0236506,-0.17459
-560,-69,-0.0402832,0.221191,0.000845497,0.000911836,-5.8745e-05,0.000946129,0.000811204,-1.0424,0.000590935,0.0358773,664,1093,-0.0402842,-0.221177
-553,-69,0.00793457,0.232544,0.000791065,0.0011839,-0.000193448,0.00126316,0.000711797,-1.1819,0.000731246,0.0360659,671,1093,0.00795019,-0.232511
-546,-69,0.0953979,0.130249,0.00060933,0.00150354,-0.000330397,0.00161237,0.000500499,-1.25259,0.000952946,0.0324888,678,1093,0.0954218,-0.130224
-539,-69,0.0348511,0.0437012,0.000268328,0.00186942,-0.000442846,0.00198374,0.000154004,-1.31816,0.00127426,0.0357656,685,1093,0.0348384,-0.0436924
-532,-69,0.0297241,0.0516357,-0.000352906,0.00228503,-0.000519563,0.00238367,-0.00045155,-1.38317,0.00175906,0.0381132,692,1093,0.0297026,-0.0515763
-525,-69,0,0,0,0,0,0,0,0,0,-1,699,1093,0,0
-518,-69,0,0,0,0,0,0,0,0,0,-1,706,1093,0,0
-511,-69,0,0,0,0,0,0,0,0,0,-1,713,1093,0,0
-504,-69,0,0,0,0,0,0,0,0,0,-1,720,1093,0,0
-497,-69,0,0,0,0,0,0,0,0,0,-1,727,1093,0,0
-490,-69,0,0,0,0,0,0,0,0,0,-1,734,1093,0,0
-483,-69,0,0,0,0,0,0,0,0,0,-1,741,1093,0,0
-476,-69,0,0,0,0,0,0,0,0,0,-1,748,1093,0,0
-469,-69,0,0,0,0,0,0,0,0,0,-1,755,1093,0,0
-462,-69,0,0,0,0,0,0,0,0,0,-1,762,1093,0,0
-455,-69,0,0,0,0,0,0,0,0,0,-1,769,1093,0,0
-448,-69,0,0,0,0,0,0,0,0,0,-1,776,1093,0,0
-441,-69,0,0,0,0,0,0,0,0,0,-1,783,1093,0,0
-434,-69,0,0,0,0,0,0,0,0,0,-1,790,1093,0,0
-427,-69,0,0,0,0,0,0,0,0,0,-1,797,1093,0,0
-420,-69,0,0,0,0,0,0,0,0,0,-1,804,1093,0,0
-413,-69,0,0,0,0,0,0,0,0,0,-1,811,1093,0,0
-406,-69,0,0,0,0,0,0,0,0,0,-1,818,1093,0,0
-399,-69,0,0,0,0,0,0,0,0,0,-1,825,1093,0,0
-392,-69,0,0,0,0,0,0,0,0,0,-1,832,1093,0,0
-385,-69,0,0,0,0,0,0,0,0,0,-1,839,1093,0,0
-378,-69,0,0,0,0,0,0,0,0,0,-1,846,1093,0,0
-371,-69,0,0,0,0,0,0,0,0,0,-1,853,1093,0,0
-364,-69,0,0,0,0,0,0,0,0,0,-1,860,1093,0,0
-357,-69,0,0,0,0,0,0,0,0,0,-1,867,1093,0,0
-350,-69,0,0,0,0,0,0,0,0,0,-1,874,1093,0,0
-343,-69,0,0,0,0,0,0,0,0,0,-1,881,1093,0,0
-336,-69,0,0,0,0,0,0,0,0,0,-1,888,1093,0,0
-329,-69,0,0,0,0,0,0,0,0,0,-1,895,1093,0,0
-322,-69,0,0,0,0,0,0,0,0,0,-1,902,1093,0,0
-315,-69,0,0,0,0,0,0,0,0,0,-1,909,1093,0,0
-308,-69,0,0,0,0,0,0,0,0,0,-1,916,1093,0,0
-301,-69,0,0,0,0,0,0,0,0,0,-1,923,1093,0,0
-294,-69,0,0,0,0,0,0,0,0,0,-1,930,1093,0,0
-287,-69,0,0,0,0,0,0,0,0,0,-1,937,1093,0,0
-280,-69,0,0,0,0,0,0,0,0,0,-1,944,1093,0,0
-273,-69,0,0,0,0,0,0,0,0,0,-1,951,1093,0,0
-266,-69,0,0,0,0,0,0,0,0,0,-1,958,1093,0,0
-259,-69,0,0,0,0,0,0,0,0,0,-1,965,1093,0,0
-252,-69,0,0,0,0,0,0,0,0,0,-1,972,1093,0,0
-245,-69,0,0,0,0,0,0,0,0,0,-1,979,1093,0,0
-238,-69,0,0,0,0,0,0,0,0,0,-1,986,1093,0,0
-231,-69,0,0,0,0,0,0,0,0,0,-1,993,1093,0,0
-224,-69,0,0,0,0,0,0,0,0,0,-1,1000,1093,0,0
-217,-69,0,0,0,0,0,0,0,0,0,-1,1007,1093,0,0
-210,-69,0,0,0,0,0,0,0,0,0,-1,1014,1093,0,0
-203,-69,0,0,0,0,0,0,0,0,0,-1,1021,1093,0,0
-196,-69,0,0,0,0,0,0,0,0,0,-1,1028,1093,0,0
-189,-69,0,0,0,0,0,0,0,0,0,-1,1035,1093,0,0
-182,-69,0,0,0,0,0,0,0,0,0,-1,1042,1093,0,0
-175,-69,0,0,0,0,0,0,0,0,0,-1,1049,1093,0,0
-168,-69,0,0,0,0,0,0,0,0,0,-1,1056,1093,0,0
-161,-69,0,0,0,0,0,0,0,0,0,-1,1063,1093,0,0
-154,-69,0,0,0,0,0,0,0,0,0,-1,1070,1093,0,0
-147,-69,0,0,0,0,0,0,0,0,0,-1,1077,1093,0,0
-140,-69,0,0,0,0,0,0,0,0,0,-1,1084,1093,0,0
-133,-69,0,0,0,0,0,0,0,0,0,-1,1091,1093,0,0
-126,-69,0,0,0,0,0,0,0,0,0,-1,1098,1093,0,0
-119,-69,0,0,0,0,0,0,0,0,0,-1,1105,1093,0,0
-112,-69,0,0,0,0,0,0,0,0,0,-1,1112,1093,0,0
-105,-69,0,0,0,0,0,0,0,0,0,-1,1119,1093,0,0
-98,-69,0,0,0,0,0,0,0,0,0,-1,1126,1093,0,0
-91,-69,0,0,0,0,0,0,0,0,0,-1,1133,1093,0,0
-84,-69,0,0,0,0,0,0,0,0,0,-1,1140,1093,0,0
-77,-69,0,0,0,0,0,0,0,0,0,-1,1147,1093,0,0
-70,-69,0,0,0,0,0,0,0,0,0,-1,1154,1093,0,0
-63,-69,0,0,0,0,0,0,0,0,0,-1,1161,1093,0,0
-56,-69,0,0,0,0,0,0,0,0,0,-1,1168,1093,0,0
-49,-69,0,0,0,0,0,0,0,0,0,-1,1175,1093,0,0
-42,-69,0,0,0,0,0,0,0,0,0,-1,1182,1093,0,0
-35,-69,0,0,0,0,0,0,0,0,0,-1,1189,1093,0,0
-28,-69,0,0,0,0,0,0,0,0,0,-1,1196,1093,0,0
-21,-69,0,0,0,0,0,0,0,0,0,-1,1203,1093,0,0
-14,-69,0,0,0,0,0,0,0,0,0,-1,1210,1093,0,0
-7,-69,0,0,0,0,0,0,0,0,0,-1,1217,1093,0,0
0,-69,0,0,0,0,0,0,0,0,0,-1,1224,1093,0,0
7,-69,0,0,0,0,0,0,0,0,0,-1,1231,1093,0,0
14,-69,0,0,0,0,0,0,0,0,0,-1,1238,1093,0,0
21,-69,0,0,0,0,0,0,0,0,0,-1,1245,1093,0,0
28,-69,0,0,0,0,0,0,0,0,0,-1,1252,1093,0,0
35,-69,0,0,0,0,0,0,0,0,0,-1,1259,1093,0,0
42,-69,0,0,0,0,0,0,0,0,0,-1,1266,1093,0,0
49,-69,0,0,0,0,0,0,0,0,0,-1,1273,1093,0,0
56,-69,0,0,0,0,0,0,0,0,0,-1,1280,1093,0,0
63,-69,0,0,0,0,0,0,0,0,0,-1,1287,1093,0,0
70,-69,0,0,0,0,0,0,0,0,0,-1,1294,1093,0,0
77,-69,0,0,0,0,0,0,0,0,0,-1,1301,1093,0,0
84,-69,0,0,0,0,0,0,0,0,0,-1,1308,1093,0,0
91,-69,0,0,0,0,0,0,0,0,0,-1,1315,1093,0,0
98,-69,0,0,0,0,0,0,0,0,0,-1,1322,1093,0,0
105,-69,0,0,0,0,0,0,0,0,0,-1,1329,1093,0,0
112,-69,0,0,0,0,0,0,0,0,0,-1,1336,1093,0,0
119,-69,0,0,0,0,0,0,0,0,0,-1,1343,1093,0,0
126,-69,0,0,0,0,0,0,0,0,0,-1,1350,1093,0,0
133,-69,0,0,0,0,0,0,0,0,0,-1,1357,1093,0,0
140,-69,0,0,0,0,0,0,0,0,0,-1,1364,1093,0,0
147,-69,0,0,0,0,0,0,0,0,0,-1,1371,1093,0,0
154,-69,0,0,0,0,0,0,0,0,0,-1,1378,1093,0,0
161,-69,0,0,0,0,0,0,0,0,0,-1,1385,1093,0,0
168,-69,0,0,0,0,0,0,0,0,0,-1,1392,1093,0,0
175,-69,0,0,0,0,0,0,0,0,0,-1,1399,1093,0,0
182,-69,0,0,0,0,0,0,0,0,0,-1,1406,1093,0,0
189,-69,0,0,0,0,0,0,0,0,0,-1,1413,1093,0,0
196,-69,0,0,0,0,0,0,0,0,0,-1,1420,1093,0,0
203,-69,0,0,0,0,0,0,0,0,0,-1,1427,1093,0,0
210,-69,0,0,0,0,0,0,0,0,0,-1,1434,1093,0,0
217,-69,0,0,0,0,0,0,0,0,0,-1,1441,1093,0,0
224,-69,0,0,0,0,0,0,0,0,0,-1,1448,1093,0,0
231,-69,0,0,0,0,0,0,0,0,0,-1,1455,1093,0,0
238,-69,0,0,0,0,0,0,0,0,0,-1,1462,1093,0,0
245,-69,0,0,0,0,0,0,0,0,0,-1,1469,1093,0,0
252,-69,0,0,0,0,0,0,0,0,0,-1,1476,1093,0,0
259,-69,0,0,0,0,0,0,0,0,0,-1,1483,1093,0,0
266,-69,0,0,0,0,0,0,0,0,0,-1,1490,1093,0,0
273,-69,0,0,0,0,0,0,0,0,0,-1,1497,1093,0,0
280,-69,0,0,0,0,0,0,0,0,0,-1,1504,1093,0,0
287,-69,0,0,0,0,0,0,0,0,0,-1,1511,1093,0,0
294,-69,0,0,0,0,0,0,0,0,0,-1,1518,1093,0,0
301,-69,0,0,0,0,0,0,0,0,0,-1,1525,1093,0,0
308,-69,0,0,0,0,0,0,0,0,0,-1,1532,1093,0,0
315,-69,0,0,0,0,0,0,0,0,0,-1,1539,1093,0,0
322,-69,0,0,0,0,0,0,0,0,0,-1,1546,1093,0,0
329,-69,0,0,0,0,0,0,0,0,0,-1,1553,1093,0,0
336,-69,0,0,0,0,0,0,0,0,0,-1,1560,1093,0,0
343,-69,0,0,0,0,0,0,0,0,0,-1,1567,1093,0,0
350,-69,0,0,0,0,0,0,0,0,0,-1,1574,1093,0,0
357,-69,0,0,0,0,0,0,0,0,0,-1,1581,1093,0,0
364,-69,0,0,0,0,0,0,0,0,0,-1,1588,1093,0,0
371,-69,0,0,0,0,0,0,0,0,0,-1,1595,1093,0,0
378,-69,0,0,0,0,0,0,0,0,0,-1,1602,1093,0,0
385,-69,0,0,0,0,0,0,0,0,0,-1,1609,1093,0,0
392,-69,0,0,0,0,0,0,0,0,0,-1,1616,1093,0,0
399,-69,0,0,0,0,0,0,0,0,0,-1,1623,1093,0,0
406,-69,0,0,0,0,0,0,0,0,0,-1,1630,1093,0,0
413,-69,0,0,0,0,0,0,0,0,0,-1,1637,1093,0,0
420,-69,0,0,0,0,0,0,0,0,0,-1,1644,1093,0,0
427,-69,0,0,0,0,0,0,0,0,0,-1,1651,1093,0,0
434,-69,0,0,0,0,0,0,0,0,0,-1,1658,1093,0,0
441,-69,0,0,0,0,0,0,0,0,0,-1,1665,1093,0,0
448,-69,0,0,0,0,0,0,0,0,0,-1,1672,1093,0,0
455,-69,0,0,0,0,0,0,0,0,0,-1,1679,1093,0,0
462,-69,0,0,0,0,0,0,0,0,0,-1,1686,1093,0,0
469,-69,0,0,0,0,0,0,0,0,0,-1,1693,1093,0,0
476,-69,0,0,0,0,0,0,0,0,0,-1,1700,1093,0,0
483,-69,0,0,0,0,0,0,0,0,0,-1,1707,1093,0,0
490,-69,0,0,0,0,0,0,0,0,0,-1,1714,1093,0,0
497,-69,0,0,0,0,0,0,0,0,0,-1,1721,1093,0,0
504,-69,0,0,0,0,0,0,0,0,0,-1,1728,1093,0,0
511,-69,0,0,0,0,0,0,0,0,0,-1,1735,1093,0,0
518,-69,0,0,0,0,0,0,0,0,0,-1,1742,1093,0,0
525,-69,0,0,0,0,0,0,0,0,0,-1,1749,1093,0,0
532,-69,0,0,0,0,0,0,0,0,0,-1,1756,1093,0,0
539,-69,0,0,0,0,0,0,0,0,0,-1,1763,1093,0,0
546,-69,0,0,0,0,0,0,0,0,0,-1,1770,1093,0,0
553,-69,0,0,0,0,0,0,0,0,0,-1,1777,1093,0,0
560,-69,0,0,0,0,0,0,0,0,0,-1,1784,1093,0,0
567,-69,0,0,0,0,0,0,0,0,0,-1,1791,1093,0,0
574,-69,0,0,0,0,0,0,0,0,0,-1,1798,1093,0,0
581,-69,0,0,0,0,0,0,0,0,0,-1,1805,1093,0,0
588,-69,0,0,0,0,0,0,0,0,0,-1,1812,1093,0,0
595,-69,0,0,0,0,0,0,0,0,0,-1,1819,1093,0,0
602,-69,0,0,0,0,0,0,0,0,0,-1,1826,1093,0,0
609,-69,0,0,0,0,0,0,0,0,0,-1,1833,1093,0,0
616,-69,0,0,0,0,0,0,0,0,0,-1,1840,1093,0,0
623,-69,0,0,0,0,0,0,0,0,0,-1,1847,1093,0,0
630,-69,0,0,0,0,0,0,0,0,0,-1,1854,1093,0,0
637,-69,0,0,0,0,0,0,0,0,0,-1,1861,1093,0,0
644,-69,0,0,0,0,0,0,0,0,0,-1,1868,1093,0,0
651,-69,0.112549,0.109375,-0.00211791,3.91949e-05,-0.000232174,6.39013e-05,-0.00214262,-1.46478,0.00145018,0.0367278,1875,1093,0.112544,-0.109423
658,-69,0.0267334,0.0631104,-0.00152936,0.000157666,-0.000276453,0.000201813,-0.0015735,-1.41244,0.00112234,0.033501,1882,1093,0.0267613,-0.0630826
665,-69,-0.0439453,0.0701904,-0.00105801,0.000154997,-0.000194586,0.000185447,-0.00108846,-1.41557,0.000794704,0.0339569,1889,1093,-0.043921,-0.0701674
672,-69,-0.074707,0.149048,-0.000679167,0.000110128,-9.47079e-05,0.000121333,-0.000690372,-1.45303,0.000505569,0.0333657,1896,1093,-0.0746963,-0.149012
679,-69,-0.0726318,0.12561,-0.000423266,5.54528e-05,-8.56151e-06,5.56058e-05,-0.000423419,-1.55292,0.000302523,0.0338497,1903,1093,-0.0726916,-0.125633
686,-69,-0.00683594,-0.000488281,-0.000246736,1.34021e-05,7.04254e-05,3.12442e-05,-0.000264578,1.32267,0.000187669,0.0333537,1910,1093,-0.006884,0.000501871
693,-69,-0.0065918,-0.0205078,-0.000138433,-1.37832e-05,0.000140104,7.72332e-05,-0.000229449,0.994678,0.000184189,0.0305536,1917,1093,-0.00663432,0.0205418
700,-69,-0.0512695,0.0405273,-6.54453e-05,1.66838e-05,0.000213778,0.000193305,-0.000242067,0.880287,0.000251887,0.0256284,1924,1093,-0.0512743,-0.0405097
707,-69,-0.055542,0.0561523,3.07119e-05,-7.92876e-06,0.000231262,0.000243459,-0.000220676,0.743723,0.000268076,0.0150889,1931,1093,-0.0554958,-0.0561955
714,-69,-0.0393066,0.112061,2.14628e-05,-2.54909e-05,0.000246766,0.000245866,-0.000249894,0.737972,0.000286231,0.0119588,1938,1093,-0.0393306,-0.112062
721,-69,-0.0136719,0.106812,-4.30299e-05,-8.56394e-06,0.000243135,0.000217948,-0.000269542,0.820778,0.000281977,0.0173141,1945,1093,-0.0136269,-0.106809
728,-69,-0.0526123,0.088501,-3.70916e-05,2.04683e-05,0.000209642,0.000203297,-0.00021992,0.853612,0.000244407,0.0129495,1952,1093,-0.0525861,-0.0885201
735,-69,-0.0585938,0.0732422,-1.20931e-05,4.2423e-05,0.000236443,0.000253173,-0.000222844,0.842787,0.000275015,0.012767,1959,1093,-0.058599,-0.0732689
742,-69,-0.0693359,0.0672607,-1.44829e-05,4.55751e-05,0.000250193,0.000267534,-0.000236442,0.845124,0.000291155,0.0114487,1966,1093,-0.0692825,-0.0672581
749,-69,-0.0606689,0.0675049,-0.000123896,8.70247e-05,0.000195554,0.000203742,-0.000240614,1.03269,0.000256843,0.0135374,1973,1093,-0.0606875,-0.0675424
756,-69,-0.041748,0.0961914,0.000502031,-0.000174559,-4.47252e-05,0.000504975,-0.000177503,-0.0657226,0.000408869,0.0139027,1980,1093,-0.0417182,-0.0961874
763,-69,-0.0567627,0.0839844,0.00162556,-0.000182086,-0.000257212,0.00166145,-0.000217972,-0.138626,0.00118698,0.0131089,1987,1093,-0.0567078,-0.084024
770,-69,-0.0782471,0.0668945,0.00265754,-0.000331503,-0.00046117,0.00272708,-0.000401038,-0.149652,0.00196542,0.0117966,1994,1093,-0.0782499,-0.0668827
777,-69,-0.057373,0.0415039,0.0042109,-0.000513119,-0.000745501,0.00432576,-0.000627975,-0.152863,0.00311434,0.0161435,2001,1093,-0.0573362,-0.0415067
784,-69,-0.0290527,-0.00744629,0.00640834,-0.000725675,-0.00115176,0.00658968,-0.000907013,-0.156162,0.00472457,0.0297845,2008,1093,-0.0290087,0.00740243
791,-69,0.0388184,0.187012,0.00945305,-0.000958879,-0.00168956,0.00972035,-0.00122618,-0.156909,0.00692524,0.0436075,2015,1093,0.0388745,-0.187062
798,-69,0.0318604,0.0181885,0,0,0,0,0,0,0,-1,2022,1093,0.0318115,-0.0181814
805,-69,0.0550537,-0.402466,0.0192448,-0.0014292,-0.00308243,0.0196946,-0.00187899,-0.144899,0.0137988,0.045761,2029,1093,0.0550329,0.402437
812,-69,0.237305,0.0827637,0.026817,-0.00160281,-0.00389336,0.0273407,-0.00212653,-0.133713,0.0189757,0.0437931,2036,1093,0.237308,-0.0827333
-700,-76,0,0,0,0,0,0,0,0,0,-1,524,1100,0,0
-693,-76,1.96991,-0.302246,0,0,0,0,0,0,0,-1,531,1100,1.9699,0.30219
-686,-76,0.948853,-0.470459,0,0,0,0,0,0,0,-1,538,1100,0.948848,0.470471
-679,-76,0.634705,-0.360474,-0.0366159,0.0207796,-0.0096683,0.0223645,-0.0382007,-1.40832,0.0353635,0.0470871,545,1100,0.634716,0.360458
-672,-76,0.290283,-0.199219,-0.0286112,0.0161124,-0.00731737,0.0172791,-0.029778,-1.41267,0.027486,0.0426625,552,1100,0.290262,0.199279
-665,-76,-0.00177002,0.20813,-0.021809,0.0123727,-0.00544934,0.0132205,-0.0226567,-1.41647,0.0209512,0.042299,559,1100,-0.00177781,-0.208175
-658,-76,0.00506592,0.231079,-0.0162079,0.0093858,-0.00398323,0.00999139,-0.0168135,-1.41992,0.015642,0.0436863,566,1100,0.00504799,-0.231086
-651,-76,-0.0241089,0.125122,-0.0117468,0.00700609,-0.00283291,0.0074247,-0.0121654,-1.42409,0.0114202,0.0260308,573,1100,-0.0241039,-0.125093
-644,-76,-0.0321045,0.05896,-0.00830014,0.00512718,-0.0019528,0.00540542,-0.00857838,-1.42927,0.00814253,0.01033,580,1100,-0.0321287,-0.0589861
-637,-76,-0.0241699,0.0684814,-0.00569288,0.00337183,-0.00133274,0.00356371,-0.00588476,-1.4278,0.00550967,0.0137277,587,1100,-0.0241578,-0.0684293
-630,-76,-0.0288086,0.0692139,-0.00367626,0.00241566,-0.000485297,0.00245408,-0.00371467,-1.4918,0.00358623,0.0145478,594,1100,-0.0287894,-0.0692377
-623,-76,-0.0281372,0.0778809,-0.00200763,0.00170463,-0.000234918,0.00171944,-0.00202244,-1.50785,0.00216274,0.0129001,601,1100,-0.028156,-0.0779076
-616,-76,-0.0252686,0.0556641,-0.00094016,0.000889744,-0.000118285,0.000897358,-0.000947774,-1.50651,0.00106542,0.0113771,608,1100,-0.025256,-0.0556171
-609,-76,-0.0505371,0.0427246,-0.000438367,0.000693373,6.089e-05,0.00069664,-0.000441634,1.5172,0.000662657,0.0120607,615,1100,-0.0505647,-0.0426858
-602,-76,-0.0450439,0.0830078,-7.72823e-05,0.000290468,0.000165707,0.000354118,-0.000140933,1.20406,0.000294519,0.0161636,622,1100,-0.0450371,-0.0830452
-595,-76,-0.0211792,0.0974121,0.000306461,0.000221786,0.000148149,0.000418203,0.000110044,0.646219,0.000250318,0.0205139,629,1100,-0.0211565,-0.0974321
-588,-76,-0.0194702,0.0534668,0.000444186,0.000310212,0.000134059,0.000527063,0.000227336,0.553701,0.000305255,0.0217478,636,1100,-0.0194957,-0.0534957
-581,-76,-0.0402222,0.0529785,0.000519237,0.000437781,8.84425e-05,0.000575879,0.00038114,0.569622,0.000338239,0.0251355,643,1100,-0.0402455,-0.0529207
-574,-76,-0.0681763,0.0305176,0.000638013,0.000568394,7.79981e-05,0.000688616,0.000517791,0.57552,0.000414053,0.0331558,650,1100,-0.0681616,-0.0305712
-567,-76,-0.022522,0.148438,0.000716173,0.000719773,2.46664e-05,0.000742705,0.000693241,0.821824,0.0004795,0.0368595,657,1100,-0.0225443,-0.148408
-560,-76,-0.085083,0.229492,0.000725621,0.000890155,-5.25766e-05,0.000905521,0.000710255,-1.28646,0.000550264,0.0384594,664,1100,-0.0851065,-0.229502
-553,-76,0.00732422,0.231689,0.000659019,0.00107617,-0.000158958,0.00112984,0.000605352,-1.24519,0.00065287,0.0402147,671,1100,0.00732872,-0.231728
-546,-76,0.148926,0.135742,0.000476058,0.00127654,-0.00025887,0.00135296,0.000399638,-1.28374,0.000802641,0.037479,678,1100,0.148909,-0.135736
-539,-76,0.0159302,0.0430908,0.000158483,0.00148755,-0.000324358,0.00156248,8.35478e-05,-1.34375,0.00101495,0.0391383,685,1100,0.0159565,-0.043069
-532,-76,0.0272827,0.0291748,-0.000379527,0.00170626,-0.000345087,0.00176187,-0.000435138,-1.41102,0.00134333,0.0397449,692,1100,0.0273125,-0.029228
-525,-76,0,0,0,0,0,0,0,0,0,-1,699,1100,0,0
-518,-76,0,0,0,0,0,0,0,0,0,-1,706,1100,0,0
-511,-76,0,0,0,0,0,0,0,0,0,-1,713,1100,0,0
-504,-76,0,0,0,0,0,0,0,0,0,-1,720,1100,0,0
-497,-76,0,0,0,0,0,0,0,0,0,-1,727,1100,0,0
-490,-76,0,0,0,0,0,0,0,0,0,-1,734,1100,0,0
-483,-76,0,0,0,0,0,0,0,0,0,-1,741,1100,0,0
-476,-76,0,0,0,0,0,0,0,0,0,-1,748,1100,0,0
-469,-76,0,0,0,0,0,0,0,0,0,-1,755,1100,0,0
-462,-76,0,0,0,0,0,0,0,0,0,-1,762,1100,0,0
-455,-76,0,0,0,0,0,0,0,0,0,-1,769,1100,0,0
-448,-76,0,0,0,0,0,0,0,0,0,-1,776,1100,0,0
-441,-76,0,0,0,0,0,0,0,0,0,-1,783,1100,0,0
-434,-76,0,0,0,0,0,0,0,0,0,-1,790,1100,0,0
-427,-76,0,0,0,0,0,0,0,0,0,-1,797,1100,0,0
-420,-76,0,0,0,0,0,0,0,0,0,-1,804,1100,0,0
-413,-76,0,0,0,0,0,0,0,0,0,-1,811,1100,0,0
-406,-76,0,0,0,0,0,0,0,0,0,-1,818,1100,0,0
-399,-76,0,0,0,0,0,0,0,0,0,-1,825,1100,0,0
-392,-76,0,0,0,0,0,0,0,0,0,-1,832,1100,0,0
-385,-76,0,0,0,0,0,0,0,0,0,-1,839,1100,0,0
-378,-76,0,0,0,0,0,0,0,0,0,-1,846,1100,0,0
-371,-76,0,0,0,0,0,0,0,0,0,-1,853,1100,0,0
-364,-76,0,0,0,0,0,0,0,0,0,-1,860,1100,0,0
-357,-76,0,0,0,0,0,0,0,0,0,-1,867,1100,0,0
-350,-76,0,0,0,0,0,0,0,0,0,-1,874,1100,0,0
-343,-76,0,0,0,0,0,0,0,0,0,-1,881,1100,0,0
-336,-76,0,0,0,0,0,0,0,0,0,-1,888,1100,0,0
-329,-76,0,0,0,0,0,0,0,0,0,-1,895,1100,0,0
-322,-76,0,0,0,0,0,0,0,0,0,-1,902,1100,0,0
-315,-76,0,0,0,0,0,0,0,0,0,-1,909,1100,0,0
-308,-76,0,0,0,0,0,0,0,0,0,-1,916,1100,0,0
-301,-76,0,0,0,0,0,0,0,0,0,-1,923,1100,0,0
-294,-76,0,0,0,0,0,0,0,0,0,-1,930,1100,0,0
-287,-76,0,0,0,0,0,0,0,0,0,-1,937,1100,0,0
-280,-76,0,0,0,0,0,0,0,0,0,-1,944,1100,0,0
-273,-76,0,0,0,0,0,0,0,0,0,-1,951,1100,0,0
-266,-76,0,0,0,0,0,0,0,0,0,-1,958,1100,0,0
-259,-76,0,0,0,0,0,0,0,0,0,-1,965,1100,0,0
-252,-76,0,0,0,0,0,0,0,0,0,-1,972,1100,0,0
-245,-76,0,0,0,0,0,0,0,0,0,-1,979,1100,0,0
-238,-76,0,0,0,0,0,0,0,0,0,-1,986,1100,0,0
-231,-76,0,0,0,0,0,0,0,0,0,-1,993,1100,0,0
-224,-76,0,0,0,0,0,0,0,0,0,-1,1000,1100,0,0
-217,-76,0,0,0,0,0,0,0,0,0,-1,1007,1100,0,0
-210,-76,0,0,0,0,0,0,0,0,0,-1,1014,1100,0,0
-203,-76,0,0,0,0,0,0,0,0,0,-1,1021,1100,0,0
-196,-76,0,0,0,0,0,0,0,0,0,-1,1028,1100,0,0
-189,-76,0,0,0,0,0,0,0,0,0,-1,1035,1100,0,0
-182,-76,0,0,0,0,0,0,0,0,0,-1,1042,1100,0,0
-175,-76,0,0,0,0,0,0,0,0,0,-1,1049,1100,0,0
-168,-76,0,0,0,0,0,0,0,0,0,-1,1056,1100,0,0
-161,-76,0,0,0,0,0,0,0,0,0,-1,1063,1100,0,0
-154,-76,0,0,0,0,0,0,0,0,0,-1,1070,1100,0,0
-147,-76,0,0,0,0,0,0,0,0,0,-1,1077,1100,0,0
-140,-76,0,0,0,0,0,0,0,0,0,-1,1084,1100,0,0
-133,-76,0,0,0,0,0,0,0,0,0,-1,1091,1100,0,0
-126,-76,0,0,0,0,0,0,0,0,0,-1,1098,1100,0,0
-119,-76,0,0,0,0,0,0,0,0,0,-1,1105,1100,0,0
-112,-76,0,0,0,0,0,0,0,0,0,-1,1112,1100,0,0
-105,-76,0,0,0,0,0,0,0,0,0,-1,1119,1100,0,0
-98,-76,0,0,0,0,0,0,0,0,0,-1,1126,1100,0,0
-91,-76,0,0,0,0,0,0,0,0,0,-1,1133,1100,0,0
-84,-76,0,0,0,0,0,0,0,0,0,-1,1140,1100,0,0
-77,-76,0,0,0,0,0,0,0,0,0,-1,1147,1100,0,0
-70,-76,0,0,0,0,0,0,0,0,0,-1,1154,1100,0,0
-63,-76,0,0,0,0,0,0,0,0,0,-1,1161,1100,0,0
-56,-76,0,0,0,0,0,0,0,0,0,-1,1168,1100,0,0
-49,-76,0,0,0,0,0,0,0,0,0,-1,1175,1100,0,0
-42,-76,0,0,0,0,0,0,0,0,0,-1,1182,1100,0,0
-35,-76,0,0,0,0,0,0,0,0,0,-1,1189,1100,0,0
-28,-76,0,0,0,0,0,0,0,0,0,-1,1196,1100,0,0
-21,-76,0,0,0,0,0,0,0,0,0,-1,1203,1100,0,0
-14,-76,0,0,0,0,0,0,0,0,0,-1,1210,1100,0,0
-7,-76,0,0,0,0,0,0,0,0,0,-1,1217,1100,0,0
0,-76,0,0,0,0,0,0,0,0,0,-1,1224,1100,0,0
7,-76,0,0,0,0,0,0,0,0,0,-1,1231,1100,0,0
14,-76,0,0,0,0,0,0,0,0,0,-1,1238,1100,0,0
21,-76,0,0,0,0,0,0,0,0,0,-1,1245,1100,0,0
28,-76,0,0,0,0,0,0,0,0,0,-1,1252,1100,0,0
35,-76,0,0,0,0,0,0,0,0,0,-1,1259,1100,0,0
42,-76,0,0,0,0,0,0,0,0,0,-1,1266,1100,0,0
49,-76,0,0,0,0,0,0,0,0,0,-1,1273,1100,0,0
56,-76,0,0,0,0,0,0,0,0,0,-1,1280,1100,0,0
63,-76,0,0,0,0,0,0,0,0,0,-1,1287,1100,0,0
70,-76,0,0,0,0,0,0,0,0,0,-1,1294,1100,0,0
77,-76,0,0,0,0,0,0,0,0,0,-1,1301,1100,0,0
84,-76,0,0,0,0,0,0,0,0,0,-1,1308,1100,0,0
91,-76,0,0,0,0,0,0,0,0,0,-1,1315,1100,0,0
98,-76,0,0,0,0,0,0,0,0,0,-1,1322,1100,0,0
105,-76,0,0,0,0,0,0,0,0,0,-1,1329,1100,0,0
112,-76,0,0,0,0,0,0,0,0,0,-1,1336,1100,0,0
119,-76,0,0,0,0,0,0,0,0,0,-1,1343,1100,0,0
126,-76,0,0,0,0,0,0,0,0,0,-1,1350,1100,0,0
133,-76,0,0,0,0,0,0,0,0,0,-1,1357,1100,0,0
140,-76,0,0,0,0,0,0,0,0,0,-1,1364,1100,0,0
147,-76,0,0,0,0,0,0,0,0,0,-1,1371,1100,0,0
154,-76,0,0,0,0,0,0,0,0,0,-1,1378,1100,0,0
161,-76,0,0,0,0,0,0,0,0,0,-1,1385,1100,0,0
168,-76,0,0,0,0,0,0,0,0,0,-1,1392,1100,0,0
175,-76,0,0,0,0,0,0,0,0,0,-1,1399,1100,0,0
182,-76,0,0,0,0,0,0,0,0,0,-1,1406,1100,0,0
189,-76,0,0,0,0,0,0,0,0,0,-1,1413,1100,0,0
196,-76,0,0,0,0,0,0,0,0,0,-1,1420,1100,0,0
203,-76,0,0,0,0,0,0,0,0,0,-1,1427,1100,0,0
210,-76,0,0,0,0,0,0,0,0,0,-1,1434,1100,0,0
217,-76,0,0,0,0,0,0,0,0,0,-1,1441,1100,0,0
224,-76,0,0,0,0,0,0,0,0,0,-1,1448,1100,0,0
231,-76,0,0,0,0,0,0,0,0,0,-1,1455,1100,0,0
238,-76,0,0,0,0,0,0,0,0,0,-1,1462,1100,0,0
245,-76,0,0,0,0,0,0,0,0,0,-1,1469,1100,0,0
252,-76,0,0,0,0,0,0,0,0,0,-1,1476,1100,0,0
259,-76,0,0,0,0,0,0,0,0,0,-1,1483,1100,0,0
266,-76,0,0,0,0,0,0,0,0,0,-1,1490,1100,0,0
273,-76,0,0,0,0,0,0,0,0,0,-1,1497,1100,0,0
280,-76,0,0,0,0,0,0,0,0,0,-1,1504,1100,0,0
287,-76,0,0,0,0,0,0,0,0,0,-1,1511,1100,0,0
294,-76,0,0,0,0,0,0,0,0,0,-1,1518,1100,0,0
301,-76,0,0,0,0,0,0,0,0,0,-1,1525,1100,0,0
308,-76,0,0,0,0,0,0,0,0,0,-1,1532,1100,0,0
315,-76,0,0,0,0,0,0,0,0,0,-1,1539,1100,0,0
322,-76,0,0,0,0,0,0,0,0,0,-1,1546,1100,0,0
329,-76,0,0,0,0,0,0,0,0,0,-1,1553,1100,0,0
336,-76,0,0,0,0,0,0,0,0,0,-1,1560,1100,0,0
343,-76,0,0,0,0,0,0,0,0,0,-1,1567,1100,0,0
350,-76,0,0,0,0,0,0,0,0,0,-1,1574,1100,0,0
357,-76,0,0,0,0,0,0,0,0,0,-1,1581,1100,0,0
364,-76,0,0,0,0,0,0,0,0,0,-1,1588,1100,0,0
371,-76,0,0,0,0,0,0,0,0,0,-1,1595,1100,0,0
378,-76,0,0,0,0,0,0,0,0,0,-1,1602,1100,0,0
385,-76,0,0,0,0,0,0,0,0,0,-1,1609,1100,0,0
392,-76,0,0,0,0,0,0,0,0,0,-1,1616,1100,0,0
399,-76,0,0,0,0,0,0,0,0,0,-1,1623,1100,0,0
406,-76,0,0,0,0,0,0,0,0,0,-1,1630,1100,0,0
413,-76,0,0,0,0,0,0,0,0,0,-1,1637,1100,0,0
420,-76,0,0,0,0,0,0,0,0,0,-1,1644,1100,0,0
427,-76,0,0,0,0,0,0,0,0,0,-1,1651,1100,0,0
434,-76,0,0,0,0,0,0,0,0,0,-1,1658,1100,0,0
441,-76,0,0,0,0,0,0,0,0,0,-1,1665,1100,0,0
448,-76,0,0,0,0,0,0,0,0,0,-1,1672,1100,0,0
455,-76,0,0,0,0,0,0,0,0,0,-1,1679,1100,0,0
462,-76,0,0,0,0,0,0,0,0,0,-1,1686,1100,0,0
469,-76,0,0,0,0,0,0,0,0,0,-1,1693,1100,0,0
476,-76,0,0,0,0,0,0,0,0,0,-1,1700,1100,0,0
483,-76,0,0,0,0,0,0,0,0,0,-1,1707,1100,0,0
490,-76,0,0,0,0,0,0,0,0,0,-1,1714,1100,0,0
497,-76,0,0,0,0,0,0,0,0,0,-1,1721,1100,0,0
504,-76,0,0,0,0,0,0,0,0,0,-1,1728,1100,0,0
511,-76,0,0,0,0,0,0,0,0,0,-1,1735,1100,0,0
518,-76,0,0,0,0,0,0,0,0,0,-1,1742,1100,0,0
525,-76,0,0,0,0,0,0,0,0,0,-1,1749,1100,0,0
532,-76,0,0,0,0,0,0,0,0,0,-1,1756,1100,0,0
539,-76,0,0,0,0,0,0,0,0,0,-1,1763,1100,0,0
546,-76,0,0,0,0,0,0,0,0,0,-1,1770,1100,0,0
553,-76,0,0,0,0,0,0,0,0,0,-1,1777,1100,0,0
560,-76,0,0,0,0,0,0,0,0,0,-1,1784,1100,0,0
567,-76,0,0,0,0,0,0,0,0,0,-1,1791,1100,0,0
574,-76,0,0,0,0,0,0,0,0,0,-1,1798,1100,0,0
581,-76,0,0,0,0,0,0,0,0,0,-1,1805,1100,0,0
588,-76,0,0,0,0,0,0,0,0,0,-1,1812,1100,0,0
595,-76,0,0,0,0,0,0,0,0,0,-1,1819,1100,0,0
602,-76,0,0,0,0,0,0,0,0,0,-1,1826,1100,0,0
609,-76,0,0,0,0,0,0,0,0,0,-1,1833,1100,0,0
616,-76,0,0,0,0,0,0,0,0,0,-1,1840,1100,0,0
623,-76,0,0,0,0,0,0,0,0,0,-1,1847,1100,0,0
630,-76,0,0,0,0,0,0,0,0,0,-1,1854,1100,0,0
637,-76,0,0,0,0,0,0,0,0,0,-1,1861,1100,0,0
644,-76,0,0,0,0,0,0,0,0,0,-1,1868,1100,0,0
651,-76,-0.00256348,0.00634766,-0.00178549,0.000539172,-0.000387839,0.00060217,-0.00184849,-1.40977,0.00147462,0.0356167,1875,1100,-0.00253684,-0.00636938
658,-76,-0.0917969,-0.0147705,-0.00133478,0.000605828,-0.00030836,0.000653648,-0.0013826,-1.41694,0.00120047,0.0338581,1882,1100,-0.0918056,0.0147167
665,-76,-0.0780029,-0.0820313,-0.000932988,0.000545075,-0.000167001,0.000563709,-0.000951622,-1.45968,0.000884381,0.0329649,1889,1100,-0.0779917,0.0820131
672,-76,-0.0385742,0.0585938,-0.000606419,0.000444117,-4.3662e-05,0.000445928,-0.000608231,-1.52933,0.000611019,0.0333532,1896,1100,-0.0385791,-0.0585898
679,-76,-0.0804443,0.142456,-0.000378528,0.000333523,4.47436e-05,0.000336324,-0.000381328,1.50829,0.000414608,0.033395,1903,1100,-0.080496,-0.142472
686,-76,-0.0532227,0.0479736,-0.000216166,0.000237709,0.000114964,0.000265167,-0.000243625,1.33634,0.000293839,0.0320704,1910,1100,-0.0532181,-0.0480267
693,-76,0.015625,-0.0107422,-0.000121783,0.000163784,0.000173125,0.000245409,-0.000203409,1.13022,0.000259503,0.032688,1917,1100,0.0155669,0.0107672
700,-76,-0.0263672,0.00134277,-6.78408e-05,0.000155196,0.000233917,0.000302818,-0.000215463,1.00783,0.000300643,0.0279006,1924,1100,-0.0263712,-0.00135483
707,-76,-0.0491943,0.039917,2.25255e-05,0.000100476,0.000251776,0.000316276,-0.000193274,0.862189,0.000297032,0.016331,1931,1100,-0.049194,-0.0398589
714,-76,-0.0308838,0.108032,1.97877e-05,5.78482e-05,0.000257768,0.000297287,-0.000219651,0.822245,0.000299574,0.0172827,1938,1100,-0.0308938,-0.108076
721,-76,-0.0334473,0.0770264,-4.31537e-05,6.07446e-05,0.000238643,0.000253027,-0.000235436,0.892569,0.000282075,0.0180001,1945,1100,-0.0334212,-0.0769679
728,-76,-0.0412598,0.0440674,-3.64863e-05,7.43693e-05,0.000204417,0.00023074,-0.000192857,0.91779,0.00024489,0.0161336,1952,1100,-0.0412618,-0.0440614
735,-76,-0.0456543,0.0239258,2.26781e-06,8.75148e-05,0.0002462,0.000294754,-0.000204971,0.871111,0.000290064,0.0145989,1959,1100,-0.0456274,-0.0239297
742,-76,-0.0424805,0.0517578,1.49456e-05,0.000133946,0.000246627,0.000328149,-0.000179257,0.903764,0.000297125,0.0107504,1966,1100,-0.0424613,-0.0517726
749,-76,-0.0657959,0.0760498,-0.000147594,0.000219272,0.000134996,0.000263592,-0.000191914,1.25357,0.00026407,0.012334,1973,1100,-0.0658564,-0.0761034
756,-76,-0.0596924,0.117188,0.000354541,0.00012479,-0.000246426,0.000511552,-3.2221e-05,-0.56729,0.000352267,0.0140358,1980,1100,-0.0596324,-0.117152
763,-76,-0.064209,0.0791016,0.00133036,0.000342964,-0.000640254,0.00164516,2.81681e-05,-0.456964,0.00108751,0.0137355,1987,1100,-0.0642301,-0.0791469
770,-76,-0.0620117,0.0540771,0.00219928,0.000430556,-0.00106273,0.00269748,-6.76496e-05,-0.438376,0.00182129,0.0124924,1994,1100,-0.0620141,-0.0541234
777,-76,-0.0635986,0.0604248,0.00350286,0.000575753,-0.00165236,0.00424663,-0.000168014,-0.422958,0.00288872,0.0150168,2001,1100,-0.0636555,-0.0604534
784,-76,-0.0478516,0.0581055,0.00534865,0.000797562,-0.00246079,0.00642476,-0.000278549,-0.412245,0.00437898,0.0273825,2008,1100,-0.0478076,-0.058086
791,-76,0.00500488,0.0710449,0.00792403,0.00112361,-0.00351091,0.00941134,-0.000363704,-0.400707,0.00639891,0.0415038,2015,1100,0.00498171,-0.0710788
798,-76,0.039917,0.100586,0,0,0,0,0,0,0,-1,2022,1100,0.0399687,-0.100637
805,-76,-1.01636,0.655273,0.0163168,0.00223203,-0.0062843,0.018713,-0.000164214,-0.364288,0.0125304,0.0460248,2029,1100,-1.01637,-0.65528
812,-76,0.198486,-0.251587,0.0229486,0.00312354,-0.00798479,0.0257646,0.000307548,-0.33905,0.0170748,0.0440224,2036,1100,0.198537,0.251647
-700,-83,0,0,0,0,0,0,0,0,0,-1,524,1107,0,0
-693,-83,1.7937,-1.1167,0,0,0,0,0,0,0,-1,531,1107,1.7937,1.11671
-686,-83,0.0689087,0.717163,0,0,0,0,0,0,0,-1,538,1107,0.0688958,-0.717118
-679,-83,0.0244141,0.162842,-0.028399,0.0147778,-0.0125635,0.0181674,-0.0317886,-1.30727,0.0291973,0.0448222,545,1107,0.0243855,-0.162791
-672,-83,-0.0167847,-0.295288,-0.0217636,0.0119273,-0.00926384,0.0143065,-0.0241428,-1.3194,0.0224396,0.040694,552,1107,-0.0167674,0.295319
-665,-83,-0.208679,-0.350952,-0.0162652,0.00949885,-0.00671974,0.0111462,-0.0179125,-1.33039,0.016928,0.0427152,559,1107,-0.208699,0.350902
-658,-83,-0.258728,-0.0128174,-0.0118485,0.00744574,-0.00478131,0.0085656,-0.0129684,-1.34073,0.012519,0.0401028,566,1107,-0.258727,0.0128448
-651,-83,-0.00933838,0.108765,-0.00842459,0.00572425,-0.00331244,0.00646133,-0.00916167,-1.35184,0.00906475,0.028698,573,1107,-0.00934627,-0.108754
-644,-83,-0.0113525,0.0390625,-0.00584895,0.0043015,-0.00222684,0.00476854,-0.00631599,-1.36406,0.00642041,0.0143945,580,1107,-0.0113325,-0.0390914
-637,-83,0.00756836,0.0587158,-0.00393754,0.00289051,-0.00147992,0.00319747,-0.0042445,-1.36628,0.00431078,0.0110044,587,1107,0.00759079,-0.0587446
-630,-83,0.00482178,0.0849609,-0.0024396,0.00220152,-0.000535031,0.0022624,-0.00250048,-1.4575,0.002751,0.0149283,594,1107,0.00481594,-0.0850157
-623,-83,-0.0137939,0.0894775,-0.00121562,0.00160205,-0.000212496,0.00161798,-0.00123155,-1.49594,0.00165021,0.0153198,601,1107,-0.0137774,-0.0895112
-616,-83,-0.0409546,0.0770264,-0.000508431,0.000807759,-0.000103825,0.000815898,-0.000516571,-1.49256,0.000775745,0.0117922,608,1107,-0.0409447,-0.0770583
-609,-83,-0.0510864,0.0742188,-0.000259626,0.000644494,7.91117e-05,0.000651364,-0.000266496,1.48417,0.000545235,0.0104247,615,1107,-0.0510819,-0.0742259
-602,-83,-0.0392456,0.0894775,-9.27954e-05,0.000273615,0.00014742,0.000325562,-0.000144743,1.23201,0.00027814,0.0127257,622,1107,-0.0392506,-0.0894645
-595,-83,-0.0300903,0.106079,0.000235869,0.000170521,0.000127879,0.000335182,7.1208e-05,0.660321,0.000203906,0.0164114,629,1107,-0.0300876,-0.106105
-588,-83,-0.0280151,0.0532227,0.000373515,0.000244467,0.000101123,0.000428946,0.000189036,0.501427,0.000248232,0.0217633,636,1107,-0.027987,-0.0532122
-581,-83,-0.0325317,0.0161133,0.000431167,0.000355361,5.65394e-05,0.000461332,0.000325195,0.490114,0.000273704,0.0277776,643,1107,-0.0325433,-0.0161496
-574,-83,-0.0436401,-0.00268555,0.000515534,0.000479044,6.75816e-05,0.00056729,0.000427288,0.653555,0.000341238,0.0358176,650,1107,-0.0436167,0.00262642
-567,-83,0.0158691,0.0876465,0.000568061,0.000618444,3.25671e-05,0.000634425,0.000552079,1.11459,0.000398349,0.0387822,657,1107,0.0158815,-0.0875874
-560,-83,-0.0255127,0.0740967,0.000556063,0.000780746,-1.56284e-05,0.000781828,0.000554981,-1.50168,0.000464451,0.0379,664,1107,-0.0255174,-0.0741134
-553,-83,0.055603,0.0827637,0.000472808,0.000964164,-8.11046e-05,0.000977205,0.000459767,-1.41137,0.000564517,0.0385416,671,1107,0.0555726,-0.0827942
-546,-83,0.0466309,0.226074,0.000279115,0.0011665,-0.000128426,0.00118471,0.000260903,-1.42992,0.000718802,0.0375991,678,1107,0.0466018,-0.226062
-539,-83,0.0303955,0.0895996,-4.00193e-05,0.00138632,-0.000122703,0.0013968,-5.0498e-05,-1.4856,0.000948479,0.0376992,685,1107,0.0303857,-0.0895572
-532,-83,-0.0445557,-0.0627441,-0.000545879,0.00161284,-4.67924e-05,0.00161385,-0.000546893,-1.54913,0.00129721,0.0389594,692,1107,-0.0445424,0.0627419
-525,-83,0,0,0,0,0,0,0,0,0,-1,699,1107,0,0
-518,-83,0,0,0,0,0,0,0,0,0,-1,706,1107,0,0
-511,-83,0,0,0,0,0,0,0,0,0,-1,713,1107,0,0
-504,-83,0,0,0,0,0,0,0,0,0,-1,720,1107,0,0
-497,-83,0,0,0,0,0,0,0,0,0,-1,727,1107,0,0
-490,-83,0,0,0,0,0,0,0,0,0,-1,734,1107,0,0
-483,-83,0,0,0,0,0,0,0,0,0,-1,741,1107,0,0
-476,-83,0,0,0,0,0,0,0,0,0,-1,748,1107,0,0
-469,-83,0,0,0,0,0,0,0,0,0,-1,755,1107,0,0
-462,-83,0,0,0,0,0,0,0,0,0,-1,762,1107,0,0
-455,-83,0,0,0,0,0,0,0,0,0,-1,769,1107,0,0
-448,-83,0,0,0,0,0,0,0,0,0,-1,776,1107,0,0
-441,-83,0,0,0,0,0,0,0,0,0,-1,783,1107,0,0
-434,-83,0,0,0,0,0,0,0,0,0,-1,790,1107,0,0
-427,-83,0,0,0,0,0,0,0,0,0,-1,797,1107,0,0
-420,-83,0,0,0,0,0,0,0,0,0,-1,804,1107,0,0
-413,-83,0,0,0,0,0,0,0,0,0,-1,811,1107,0,0
-406,-83,0,0,0,0,0,0,0,0,0,-1,818,1107,0,0
-399,-83,0,0,0,0,0,0,0,0,0,-1,825,1107,0,0
-392,-83,0,0,0,0,0,0,0,0,0,-1,832,1107,0,0
-385,-83,0,0,0,0,0,0,0,0,0,-1,839,1107,0,0
-378,-83,0,0,0,0,0,0,0,0,0,-1,846,1107,0,0
-371,-83,0,0,0,0,0,0,0,0,0,-1,853,1107,0,0
-364,-83,0,0,0,0,0,0,0,0,0,-1,860,1107,0,0
-357,-83,0,0,0,0,0,0,0,0,0,-1,867,1107,0,0
-350,-83,0,0,0,0,0,0,0,0,0,-1,874,1107,0,0
-343,-83,0,0,0,0,0,0,0,0,0,-1,881,1107,0,0
-336,-83,0,0,0,0,0,0,0,0,0,-1,888,1107,0,0
-329,-83,0,0,0,0,0,0,0,0,0,-1,895,1107,0,0
-322,-83,0,0,0,0,0,0,0,0,0,-1,902,1107,0,0
-315,-83,0,0,0,0,0,0,0,0,0,-1,909,1107,0,0
-308,-83,0,0,0,0,0,0,0,0,0,-1,916,1107,0,0
-301,-83,0,0,0,0,0,0,0,0,0,-1,923,1107,0,0
-294,-83,0,0,0,0,0,0,0,0,0,-1,930,1107,0,0
-287,-83,0,0,0,0,0,0,0,0,0,-1,937,1107,0,0
-280,-83,0,0,0,0,0,0,0,0,0,-1,944,1107,0,0
-273,-83,0,0,0,0,0,0,0,0,0,-1,951,1107,0,0
-266,-83,0,0,0,0,0,0,0,0,0,-1,958,1107,0,0
-259,-83,0,0,0,0,0,0,0,0,0,-1,965,1107,0,0
-252,-83,0,0,0,0,0,0,0,0,0,-1,972,1107,0,0
-245,-83,0,0,0,0,0,0,0,0,0,-1,979,1107,0,0
-238,-83,0,0,0,0,0,0,0,0,0,-1,986,1107,0,0
-231,-83,0,0,0,0,0,0,0,0,0,-1,993,1107,0,0
-224,-83,0,0,0,0,0,0,0,0,0,-1,1000,1107,0,0
-217,-83,0,0,0,0,0,0,0,0,0,-1,1007,1107,0,0
-210,-83,0,0,0,0,0,0,0,0,0,-1,1014,1107,0,0
-203,-83,0,0,0,0,0,0,0,0,0,-1,1021,1107,0,0
-196,-83,0,0,0,0,0,0,0,0,0,-1,1028,1107,0,0
-189,-83,0,0,0,0,0,0,0,0,0,-1,1035,1107,0,0
-182,-83,0,0,0,0,0,0,0,0,0,-1,1042,1107,0,0
-175,-83,0,0,0,0,0,0,0,0,0,-1,1049,1107,0,0
-168,-83,0,0,0,0,0,0,0,0,0,-1,1056,1107,0,0
-161,-83,0,0,0,0,0,0,0,0,0,-1,1063,1107,0,0
-154,-83,0,0,0,0,0,0,0,0,0,-1,1070,1107,0,0
-147,-83,0,0,0,0,0,0,0,0,0,-1,1077,1107,0,0
-140,-83,0,0,0,0,0,0,0,0,0,-1,1084,1107,0,0
-133,-83,0,0,0,0,0,0,0,0,0,-1,1091,1107,0,0
-126,-83,0,0,0,0,0,0,0,0,0,-1,1098,1107,0,0
-119,-83,0,0,0,0,0,0,0,0,0,-1,1105,1107,0,0
-112,-83,0,0,0,0,0,0,0,0,0,-1,1112,1107,0,0
-105,-83,0,0,0,0,0,0,0,0,0,-1,1119,1107,0,0
-98,-83,0,0,0,0,0,0,0,0,0,-1,1126,1107,0,0
-91,-83,0,0,0,0,0,0,0,0,0,-1,1133,1107,0,0
-84,-83,0,0,0,0,0,0,0,0,0,-1,1140,1107,0,0
-77,-83,0,0,0,0,0,0,0,0,0,-1,1147,1107,0,0
-70,-83,0,0,0,0,0,0,0,0,0,-1,1154,1107,0,0
-63,-83,0,0,0,0,0,0,0,0,0,-1,1161,1107,0,0
-56,-83,0,0,0,0,0,0,0,0,0,-1,1168,1107,0,0
-49,-83,0,0,0,0,0,0,0,0,0,-1,1175,1107,0,0
-42,-83,0,0,0,0,0,0,0,0,0,-1,1182,1107,0,0
-35,-83,0,0,0,0,0,0,0,0,0,-1,1189,1107,0,0
-28,-83,0,0,0,0,0,0,0,0,0,-1,1196,1107,0,0
-21,-83,0,0,0,0,0,0,0,0,0,-1,1203,1107,0,0
-14,-83,0,0,0,0,0,0,0,0,0,-1,1210,1107,0,0
-7,-83,0,0,0,0,0,0,0,0,0,-1,1217,1107,0,0
0,-83,0,0,0,0,0,0,0,0,0,-1,1224,1107,0,0
7,-83,0,0,0,0,0,0,0,0,0,-1,1231,1107,0,0
14,-83,0,0,0,0,0,0,0,0,0,-1,1238,1107,0,0
21,-83,0,0,0,0,0,0,0,0,0,-1,1245,1107,0,0
28,-83,0,0,0,0,0,0,0,0,0,-1,1252,1107,0,0
35,-83,0,0,0,0,0,0,0,0,0,-1,1259,1107,0,0
42,-83,0,0,0,0,0,0,0,0,0,-1,1266,1107,0,0
49,-83,0,0,0,0,0,0,0,0,0,-1,1273,1107,0,0
56,-83,0,0,0,0,0,0,0,0,0,-1,1280,1107,0,0
63,-83,0,0,0,0,0,0,0,0,0,-1,1287,1107,0,0
70,-83,0,0,0,0,0,0,0,0,0,-1,1294,1107,0,0
77,-83,0,0,0,0,0,0,0,0,0,-1,1301,1107,0,0
84,-83,0,0,0,0,0,0,0,0,0,-1,1308,1107,0,0
91,-83,0,0,0,0,0,0,0,0,0,-1,1315,1107,0,0
98,-83,0,0,0,0,0,0,0,0,0,-1,1322,1107,0,0
105,-83,0,0,0,0,0,0,0,0,0,-1,1329,1107,0,0
112,-83,0,0,0,0,0,0,0,0,0,-1,1336,1107,0,0
119,-83,0,0,0,0,0,0,0,0,0,-1,1343,1107,0,0
126,-83,0,0,0,0,0,0,0,0,0,-1,1350,1107,0,0
133,-83,0,0,0,0,0,0,0,0,0,-1,1357,1107,0,0
140,-83,0,0,0,0,0,0,0,0,0,-1,1364,1107,0,0
147,-83,0,0,0,0,0,0,0,0,0,-1,1371,1107,0,0
154,-83,0,0,0,0,0,0,0,0,0,-1,1378,1107,0,0
161,-83,0,0,0,0,0,0,0,0,0,-1,1385,1107,0,0
168,-83,0,0,0,0,0,0,0,0,0,-1,1392,1107,0,0
175,-83,0,0,0,0,0,0,0,0,0,-1,1399,1107,0,0
182,-83,0,0,0,0,0,0,0,0,0,-1,1406,1107,0,0
189,-83,0,0,0,0,0,0,0,0,0,-1,1413,1107,0,0
196,-83,0,0,0,0,0,0,0,0,0,-1,1420,1107,0,0
203,-83,0,0,0,0,0,0,0,0,0,-1,1427,1107,0,0
210,-83,0,0,0,0,0,0,0,0,0,-1,1434,1107,0,0
217,-83,0,0,0,0,0,0,0,0,0,-1,1441,1107,0,0
224,-83,0,0,0,0,0,0,0,0,0,-1,1448,1107,0,0
231,-83,0,0,0,0,0,0,0,0,0,-1,1455,1107,0,0
238,-83,0,0,0,0,0,0,0,0,0,-1,1462,1107,0,0
245,-83,0,0,0,0,0,0,0,0,0,-1,1469,1107,0,0
252,-83,0,0,0,0,0,0,0,0,0,-1,1476,1107,0,0
259,-83,0,0,0,0,0,0,0,0,0,-1,1483,1107,0,0
266,-83,0,0,0,0,0,0,0,0,0,-1,1490,1107,0,0
273,-83,0,0,0,0,0,0,0,0,0,-1,1497,1107,0,0
280,-83,0,0,0,0,0,0,0,0,0,-1,1504,1107,0,0
287,-83,0,0,0,0,0,0,0,0,0,-1,1511,1107,0,0
294,-83,0,0,0,0,0,0,0,0,0,-1,1518,1107,0,0
301,-83,0,0,0,0,0,0,0,0,0,-1,1525,1107,0,0
308,-83,0,0,0,0,0,0,0,0,0,-1,1532,1107,0,0
315,-83,0,0,0,0,0,0,0,0,0,-1,1539,1107,0,0
322,-83,0,0,0,0,0,0,0,0,0,-1,1546,1107,0,0
329,-83,0,0,0,0,0,0,0,0,0,-1,1553,1107,0,0
336,-83,0,0,0,0,0,0,0,0,0,-1,1560,1107,0,0
343,-83,0,0,0,0,0,0,0,0,0,-1,1567,1107,0,0
350,-83,0,0,0,0,0,0,0,0,0,-1,1574,1107,0,0
357,-83,0,0,0,0,0,0,0,0,0,-1,1581,1107,0,0
364,-83,0,0,0,0,0,0,0,0,0,-1,1588,1107,0,0
371,-83,0,0,0,0,0,0,0,0,0,-1,1595,1107,0,0
378,-83,0,0,0,0,0,0,0,0,0,-1,1602,1107,0,0
385,-83,0,0,0,0,0,0,0,0,0,-1,1609,1107,0,0
392,-83,0,0,0,0,0,0,0,0,0,-1,1616,1107,0,0
399,-83,0,0,0,0,0,0,0,0,0,-1,1623,1107,0,0
406,-83,0,0,0,0,0,0,0,0,0,-1,1630,1107,0,0
413,-83,0,0,0,0,0,0,0,0,0,-1,1637,1107,0,0
420,-83,0,0,0,0,0,0,0,0,0,-1,1644,1107,0,0
427,-83,0,0,0,0,0,0,0,0,0,-1,1651,1107,0,0
434,-83,0,0,0,0,0,0,0,0,0,-1,1658,1107,0,0
441,-83,0,0,0,0,0,0,0,0,0,-1,1665,1107,0,0
448,-83,0,0,0,0,0,0,0,0,0,-1,1672,1107,0,0
455,-83,0,0,0,0,0,0,0,0,0,-1,1679,1107,0,0
462,-83,0,0,0,0,0,0,0,0,0,-1,1686,1107,0,0
469,-83,0,0,0,0,0,0,0,0,0,-1,1693,1107,0,0
476,-83,0,0,0,0,0,0,0,0,0,-1,1700,1107,0,0
483,-83,0,0,0,0,0,0,0,0,0,-1,1707,1107,0,0
490,-83,0,0,0,0,0,0,0,0,0,-1,1714,1107,0,0
497,-83,0,0,0,0,0,0,0,0,0,-1,1721,1107,0,0
504,-83,0,0,0,0,0,0,0,0,0,-1,1728,1107,0,0
511,-83,0,0,0,0,0,0,0,0,0,-1,1735,1107,0,0
518,-83,0,0,0,0,0,0,0,0,0,-1,1742,1107,0,0
525,-83,0,0,0,0,0,0,0,0,0,-1,1749,1107,0,0
532,-83,0,0,0,0,0,0,0,0,0,-1,1756,1107,0,0
539,-83,0,0,0,0,0,0,0,0,0,-1,1763,1107,0,0
546,-83,0,0,0,0,0,0,0,0,0,-1,1770,1107,0,0
553,-83,0,0,0,0,0,0,0,0,0,-1,1777,1107,0,0
560,-83,0,0,0,0,0,0,0,0,0,-1,1784,1107,0,0
567,-83,0,0,0,0,0,0,0,0,0,-1,1791,1107,0,0
574,-83,0,0,0,0,0,0,0,0,0,-1,1798,1107,0,0
581,-83,0,0,0,0,0,0,0,0,0,-1,1805,1107,0,0
588,-83,0,0,0,0,0,0,0,0,0,-1,1812,1107,0,0
595,-83,0,0,0,0,0,0,0,0,0,-1,1819,1107,0,0
602,-83,0,0,0,0,0,0,0,0,0,-1,1826,1107,0,0
609,-83,0,0,0,0,0,0,0,0,0,-1,1833,1107,0,0
616,-83,0,0,0,0,0,0,0,0,0,-1,1840,1107,0,0
623,-83,0,0,0,0,0,0,0,0,0,-1,1847,1107,0,0
630,-83,0,0,0,0,0,0,0,0,0,-1,1854,1107,0,0
637,-83,0,0,0,0,0,0,0,0,0,-1,1861,1107,0,0
644,-83,-0.0793457,-0.0891113,-0.0017256,-5.02135e-05,-0.000504963,9.02127e-05,-0.00186603,-1.29956,0.00127515,0.0319634,1868,1107,-0.0793334,0.0890957
651,-83,-0.124878,-0.0616455,-0.00138692,0.000362099,-0.000431297,0.000462671,-0.00148749,-1.3417,0.00117661,0.0372405,1875,1107,-0.124843,0.0616144
658,-83,-0.126343,-0.0258789,-0.00108679,0.000487073,-0.000285083,0.00053712,-0.00113684,-1.39701,0.000986916,0.0375127,1882,1107,-0.126347,0.0259141
665,-83,-0.0535889,-0.0629883,-0.000770969,0.000474711,-0.000121991,0.000486546,-0.000782804,-1.47409,0.000739483,0.0347765,1889,1107,-0.0536357,0.0630283
672,-83,-0.0216064,0.0236816,-0.000509556,0.000412743,4.14427e-06,0.000412762,-0.000509574,1.5663,0.000533488,0.0327586,1896,1107,-0.0216372,-0.0237371
679,-83,-0.0863037,0.0931396,-0.000319253,0.000327864,8.45826e-05,0.000338737,-0.000330125,1.44295,0.000386179,0.0306646,1903,1107,-0.0862517,-0.0930994
686,-83,-0.0825195,0.0500488,-0.000180402,0.00024491,0.000141638,0.000287761,-0.000223253,1.27701,0.000295817,0.0291022,1910,1107,-0.0825008,-0.0500956
693,-83,-0.00305176,0.0262451,-0.000106498,0.000178262,0.000186598,0.000270597,-0.000198832,1.11129,0.000272079,0.0302027,1917,1107,-0.00301025,-0.0263051
700,-83,-0.00939941,0.0316162,-7.73303e-05,0.000172667,0.000233067,0.000312139,-0.000216803,1.03154,0.000307033,0.0264925,1924,1107,-0.00940573,-0.0316021
707,-83,-0.0584717,0.0467529,3.26761e-06,0.000123973,0.000248496,0.000319341,-0.0001921,0.904528,0.000298311,0.0158227,1931,1107,-0.0584998,-0.0467635
714,-83,-0.039917,0.0877686,1.06323e-05,8.67476e-05,0.000244246,0.000295883,-0.000198503,0.862685,0.000287274,0.0186503,1938,1107,-0.0399537,-0.0878193
721,-83,-0.0418701,0.0704346,-5.05829e-05,9.32349e-05,0.000216384,0.000249345,-0.000206693,0.945818,0.000263678,0.0161154,1945,1107,-0.041881,-0.0704327
728,-83,-0.0565186,0.0209961,-4.88476e-05,0.00010292,0.000190294,0.000231902,-0.00017783,0.975122,0.000237245,0.0170962,1952,1107,-0.0564951,-0.0210091
735,-83,-0.0440674,-0.00708008,-1.02322e-05,0.000106202,0.000253344,0.000307932,-0.000211962,0.898335,0.000301861,0.0175144,1959,1107,-0.0440584,0.00710256
742,-83,-0.0268555,0.0377197,-9.88676e-06,0.000185183,0.000247913,0.000354057,-0.000178761,0.97281,0.000313123,0.009876,1966,1107,-0.0268155,-0.0377194
749,-83,-0.065918,0.0703125,-0.000131553,0.000306737,1.9567e-06,0.000306745,-0.000131562,1.56633,0.000259707,0.00893722,1973,1107,-0.0658943,-0.0702926
756,-83,-0.064209,0.0915527,0.000315308,0.00029151,-0.000592458,0.000895986,-0.000289169,-0.775357,0.00071352,0.0119747,1980,1107,-0.0641611,-0.0915834
763,-83,-0.0596924,0.0776367,0.00116459,0.000738714,-0.00126234,0.00223183,-0.000328525,-0.701843,0.00160862,0.0108457,1987,1107,-0.0596513,-0.0775829
770,-83,-0.0606689,0.0665283,0.00194134,0.00101942,-0.00202591,0.00355807,-0.000597314,-0.673537,0.00259417,0.0123752,1994,1107,-0.0607092,-0.0664955
777,-83,-0.0596924,0.0803223,0.00307924,0.00143941,-0.00308775,0.00545408,-0.000935431,-0.655624,0.00398463,0.0127592,2001,1107,-0.0596711,-0.0802958
784,-83,-0.0700684,0.10791,0.00466286,0.00203414,-0.00451484,0.00805078,-0.00135377,-0.643753,0.0058707,0.0209699,2008,1107,-0.0700723,-0.10789
791,-83,-0.0524902,0.140625,0.00684473,0.00285524,-0.00635036,0.0115063,-0.0018063,-0.633221,0.00833842,0.0387326,2015,1107,-0.0524907,-0.140681
798,-83,-0.0565186,0.180786,0,0,0,0,0,0,0,-1,2022,1107,-0.0565442,-0.180801
805,-83,-0.638062,0.245239,0.0137947,0.00545754,-0.0112356,0.0216101,-0.00235786,-0.607761,0.0152536,0.0419743,2029,1107,-0.638063,-0.245247
812,-83,-0.750732,0.215454,0.0192099,0.00744347,-0.0142812,0.0287723,-0.00211886,-0.590013,0.0199254,0.0445218,2036,1107,-0.750775,-0.215449
-700,-90,0,0,0,0,0,0,0,0,0,-1,524,1114,0,0
-693,-90,0.354248,0.418213,0,0,0,0,0,0,0,-1,531,1114,0.354224,-0.418272
-686,-90,0.137512,0.425049,-0.0255884,0.0116977,-0.0217575,0.021707,-0.0355976,-1.13963,0.0334073,0.0393877,538,1114,0.1375,-0.425025
-679,-90,-0.261475,0.0787354,-0.0192182,0.0103895,-0.0161923,0.0175252,-0.0263539,-1.15571,0.0255039,0.0403876,545,1114,-0.261445,-0.0786774
-672,-90,0.373047,-0.139648,0,0,0,0,0,0,0,-1,552,1114,0.373026,0.139603
-665,-90,0.202271,0.0814209,-0.0100122,0.00755903,-0.00863004,0.0110886,-0.0135418,-1.18256,0.0142439,0.0448307,559,1114,0.202299,-0.0813979
-658,-90,0.0205688,0.0323486,-0.00691264,0.006217,-0.00613275,0.00863591,-0.00933155,-1.1951,0.0103761,0.0454051,566,1114,0.0205808,-0.0322954
-651,-90,-0.00769043,0.0327148,-0.00464268,0.00497905,-0.00424892,0.00658673,-0.00625036,-1.20907,0.00741234,0.028631,573,1114,-0.00768524,-0.0327539
-644,-90,-0.0198364,0.052002,-0.00303736,0.0038746,-0.00286044,0.00490481,-0.00406757,-1.2251,0.00518772,0.012249,580,1114,-0.0198269,-0.052036
-637,-90,-0.0078125,0.0722656,-0.00190555,0.00270707,-0.00189835,0.00338786,-0.00258635,-1.22646,0.00345955,0.0106073,587,1114,-0.00781725,-0.0722837
-630,-90,-0.00592041,0.0783691,-0.000998928,0.0021929,-0.000795659,0.00238025,-0.00118627,-1.33955,0.00209724,0.0104923,594,1114,-0.0059112,-0.0783737
-623,-90,-0.0129395,0.0792236,-0.000281423,0.00158839,-0.000287659,0.00163165,-0.000324677,-1.42155,0.00121059,0.00893803,601,1114,-0.0129529,-0.0792442
-616,-90,-0.0285034,0.0852051,2.3194e-05,0.000786981,-0.000138825,0.000811431,-1.25618e-06,-1.39646,0.000541373,0.00721475,608,1114,-0.0284807,-0.0851687
-609,-90,-0.0144043,0.0881348,-2.01195e-05,0.000619233,6.67242e-05,0.000626123,-2.70087e-05,1.46791,0.000426703,0.00960386,615,1114,-0.0144131,-0.0881561
-602,-90,-0.0205078,0.0924072,-8.05335e-05,0.000214641,0.000129117,0.000263149,-0.000129041,1.21142,0.000230802,0.00990177,622,1114,-0.020521,-0.0923777
-595,-90,-0.0336914,0.0889893,0.000174816,6.73614e-05,9.75958e-05,0.000232496,9.68147e-06,0.533781,0.000151873,0.0116676,629,1114,-0.033678,-0.0890312
-588,-90,-0.0358887,0.0510254,0.00029881,0.000107633,5.39343e-05,0.000312976,9.34667e-05,0.256852,0.000185517,0.0173164,636,1114,-0.0358936,-0.0510531
-581,-90,-0.0444946,0.0435791,0.000335463,0.000192599,6.99118e-06,0.000335804,0.000192258,0.0487808,0.000194555,0.0262339,643,1114,-0.0444831,-0.0436017
-574,-90,-0.0457764,0.0953369,0.000384147,0.000294237,3.00461e-05,0.000393264,0.000285121,0.294587,0.00023459,0.0342293,650,1114,-0.0457934,-0.0952849
-567,-90,-0.0197754,0.0656738,0.000407963,0.000413004,2.39079e-06,0.000413958,0.00040701,1.19131,0.000273685,0.034884,657,1114,-0.0197979,-0.0657012
-560,-90,-0.00396729,0.0297852,0.000370587,0.000566214,-2.83791e-05,0.000570248,0.000366554,-1.42961,0.000333678,0.0356822,664,1114,-0.00399358,-0.0298266
-553,-90,0.0165405,0.111328,0.000268419,0.000756572,-6.18653e-05,0.00076429,0.000260701,-1.44668,0.000448629,0.0366978,671,1114,0.0165521,-0.111322
-546,-90,-0.00653076,0.228882,6.13742e-05,0.000984172,-6.08774e-05,0.000988171,5.73754e-05,-1.5052,0.000640512,0.0372994,678,1114,-0.00650919,-0.228862
-539,-90,0.026001,0.167725,-0.000265748,0.00125159,1.79021e-05,0.0012518,-0.000265959,1.559,0.000935869,0.035358,685,1114,0.0260136,-0.167785
-532,-90,0.0110474,0.0737305,-0.000749828,0.00155045,0.000197633,0.00156731,-0.000766685,1.48571,0.0013737,0.0367113,692,1114,0.0110501,-0.0737706
-525,-90,0,0,0,0,0,0,0,0,0,-1,699,1114,0,0
-518,-90,0,0,0,0,0,0,0,0,0,-1,706,1114,0,0
-511,-90,0,0,0,0,0,0,0,0,0,-1,713,1114,0,0
-504,-90,0,0,0,0,0,0,0,0,0,-1,720,1114,0,0
-497,-90,0,0,0,0,0,0,0,0,0,-1,727,1114,0,0
-490,-90,0,0,0,0,0,0,0,0,0,-1,734,1114,0,0
-483,-90,0,0,0,0,0,0,0,0,0,-1,741,1114,0,0
-476,-90,0,0,0,0,0,0,0,0,0,-1,748,1114,0,0
-469,-90,0,0,0,0,0,0,0,0,0,-1,755,1114,0,0
-462,-90,0,0,0,0,0,0,0,0,0,-1,762,1114,0,0
-455,-90,0,0,0,0,0,0,0,0,0,-1,769,1114,0,0
-448,-90,0,0,0,0,0,0,0,0,0,-1,776,1114,0,0
-441,-90,0,0,0,0,0,0,0,0,0,-1,783,1114,0,0
-434,-90,0,0,0,0,0,0,0,0,0,-1,790,1114,0,0
-427,-90,0,0,0,0,0,0,0,0,0,-1,797,1114,0,0
-420,-90,0,0,0,0,0,0,0,0,0,-1,804,1114,0,0
-413,-90,0,0,0,0,0,0,0,0,0,-1,811,1114,0,0
-406,-90,0,0,0,0,0,0,0,0,0,-1,818,1114,0,0
-399,-90,0,0,0,0,0,0,0,0,0,-1,825,1114,0,0
-392,-90,0,0,0,0,0,0,0,0,0,-1,832,1114,0,0
-385,-90,0,0,0,0,0,0,0,0,0,-1,839,1114,0,0
-378,-90,0,0,0,0,0,0,0,0,0,-1,846,1114,0,0
-371,-90,0,0,0,0,0,0,0,0,0,-1,853,1114,0,0
-364,-90,0,0,0,0,0,0,0,0,0,-1,860,1114,0,0
-357,-90,0,0,0,0,0,0,0,0,0,-1,867,1114,0,0
-350,-90,0,0,0,0,0,0,0,0,0,-1,874,1114,0,0
-343,-90,0,0,0,0,0,0,0,0,0,-1,881,1114,0,0
-336,-90,0,0,0,0,0,0,0,0,0,-1,888,1114,0,0
-329,-90,0,0,0,0,0,0,0,0,0,-1,895,1114,0,0
-322,-90,0,0,0,0,0,0,0,0,0,-1,902,1114,0,0
-315,-90,0,0,0,0,0,0,0,0,0,-1,909,1114,0,0
-308,-90,0,0,0,0,0,0,0,0,0,-1,916,1114,0,0
-301,-90,0,0,0,0,0,0,0,0,0,-1,923,1114,0,0
-294,-90,0,0,0,0,0,0,0,0,0,-1,930,1114,0,0
-287,-90,0,0,0,0,0,0,0,0,0,-1,937,1114,0,0
-280,-90,0,0,0,0,0,0,0,0,0,-1,944,1114,0,0
-273,-90,0,0,0,0,0,0,0,0,0,-1,951,1114,0,0
-266,-90,0,0,0,0,0,0,0,0,0,-1,958,1114,0,0
-259,-90,0,0,0,0,0,0,0,0,0,-1,965,1114,0,0
-252,-90,0,0,0,0,0,0,0,0,0,-1,972,1114,0,0
-245,-90,0,0,0,0,0,0,0,0,0,-1,979,1114,0,0
-238,-90,0,0,0,0,0,0,0,0,0,-1,986,1114,0,0
-231,-90,0,0,0,0,0,0,0,0,0,-1,993,1114,0,0
-224,-90,0,0,0,0,0,0,0,0,0,-1,1000,1114,0,0
-217,-90,0,0,0,0,0,0,0,0,0,-1,1007,1114,0,0
-210,-90,0,0,0,0,0,0,0,0,0,-1,1014,1114,0,0
-203,-90,0,0,0,0,0,0,0,0,0,-1,1021,1114,0,0
-196,-90,0,0,0,0,0,0,0,0,0,-1,1028,1114,0,0
-189,-90,0,0,0,0,0,0,0,0,0,-1,1035,1114,0,0
-182,-90,0,0,0,0,0,0,0,0,0,-1,1042,1114,0,0
-175,-90,0,0,0,0,0,0,0,0,0,-1,1049,1114,0,0
-168,-90,0,0,0,0,0,0,0,0,0,-1,1056,1114,0,0
-161,-90,0,0,0,0,0,0,0,0,0,-1,1063,1114,0,0
-154,-90,0,0,0,0,0,0,0,0,0,-1,1070,1114,0,0
-147,-90,0,0,0,0,0,0,0,0,0,-1,1077,1114,0,0
-140,-90,0,0,0,0,0,0,0,0,0,-1,1084,1114,0,0
-133,-90,0,0,0,0,0,0,0,0,0,-1,1091,1114,0,0
-126,-90,0,0,0,0,0,0,0,0,0,-1,1098,1114,0,0
-119,-90,0,0,0,0,0,0,0,0,0,-1,1105,1114,0,0
-112,-90,0,0,0,0,0,0,0,0,0,-1,1112,1114,0,0
-105,-90,0,0,0,0,0,0,0,0,0,-1,1119,1114,0,0
-98,-90,0,0,0,0,0,0,0,0,0,-1,1126,1114,0,0
-91,-90,0,0,0,0,0,0,0,0,0,-1,1133,1114,0,0
-84,-90,0,0,0,0,0,0,0,0,0,-1,1140,1114,0,0
-77,-90,0,0,0,0,0,0,0,0,0,-1,1147,1114,0,0
-70,-90,0,0,0,0,0,0,0,0,0,-1,1154,1114,0,0
-63,-90,0,0,0,0,0,0,0,0,0,-1,1161,1114,0,0
-56,-90,0,0,0,0,0,0,0,0,0,-1,1168,1114,0,0
-49,-90,0,0,0,0,0,0,0,0,0,-1,1175,1114,0,0
-42,-90,0,0,0,0,0,0,0,0,0,-1,1182,1114,0,0
-35,-90,0,0,0,0,0,0,0,0,0,-1,1189,1114,0,0
-28,-90,0,0,0,0,0,0,0,0,0,-1,1196,1114,0,0
-21,-90,0,0,0,0,0,0,0,0,0,-1,1203,1114,0,0
-14,-90,0,0,0,0,0,0,0,0,0,-1,1210,1114,0,0
-7,-90,0,0,0,0,0,0,0,0,0,-1,1217,1114,0,0
0,-90,0,0,0,0,0,0,0,0,0,-1,1224,1114,0,0
7,-90,0,0,0,0,0,0,0,0,0,-1,1231,1114,0,0
14,-90,0,0,0,0,0,0,0,0,0,-1,1238,1114,0,0
21,-90,0,0,0,0,0,0,0,0,0,-1,1245,1114,0,0
28,-90,0,0,0,0,0,0,0,0,0,-1,1252,1114,0,0
35,-90,0,0,0,0,0,0,0,0,0,-1,1259,1114,0,0
42,-90,0,0,0,0,0,0,0,0,0,-1,1266,1114,0,0
49,-90,0,0,0,0,0,0,0,0,0,-1,1273,1114,0,0
56,-90,0,0,0,0,0,0,0,0,0,-1,1280,1114,0,0
63,-90,0,0,0,0,0,0,0,0,0,-1,1287,1114,0,0
70,-90,0,0,0,0,0,0,0,0,0,-1,1294,1114,0,0
77,-90,0,0,0,0,0,0,0,0,0,-1,1301,1114,0,0
84,-90,0,0,0,0,0,0,0,0,0,-1,1308,1114,0,0
91,-90,0,0,0,0,0,0,0,0,0,-1,1315,1114,0,0
98,-90,0,0,0,0,0,0,0,0,0,-1,1322,1114,0,0
105,-90,0,0,0,0,0,0,0,0,0,-1,1329,1114,0,0
112,-90,0,0,0,0,0,0,0,0,0,-1,1336,1114,0,0
119,-90,0,0,0,0,0,0,0,0,0,-1,1343,1114,0,0
126,-90,0,0,0,0,0,0,0,0,0,-1,1350,1114,0,0
133,-90,0,0,0,0,0,0,0,0,0,-1,1357,1114,0,0
140,-90,0,0,0,0,0,0,0,0,0,-1,1364,1114,0,0
147,-90,0,0,0,0,0,0,0,0,0,-1,1371,1114,0,0
154,-90,0,0,0,0,0,0,0,0,0,-1,1378,1114,0,0
161,-90,0,0,0,0,0,0,0,0,0,-1,1385,1114,0,0
168,-90,0,0,0,0,0,0,0,0,0,-1,1392,1114,0,0
175,-90,0,0,0,0,0,0,0,0,0,-1,1399,1114,0,0
182,-90,0,0,0,0,0,0,0,0,0,-1,1406,1114,0,0
189,-90,0,0,0,0,0,0,0,0,0,-1,1413,1114,0,0
196,-90,0,0,0,0,0,0,0,0,0,-1,1420,1114,0,0
203,-90,0,0,0,0,0,0,0,0,0,-1,1427,1114,0,0
210,-90,0,0,0,0,0,0,0,0,0,-1,1434,1114,0,0
217,-90,0,0,0,0,0,0,0,0,0,-1,1441,1114,0,0
224,-90,0,0,0,0,0,0,0,0,0,-1,1448,1114,0,0
231,-90,0,0,0,0,0,0,0,0,0,-1,1455,1114,0,0
238,-90,0,0,0,0,0,0,0,0,0,-1,1462,1114,0,0
245,-90,0,0,0,0,0,0,0,0,0,-1,1469,1114,0,0
252,-90,0,0,0,0,0,0,0,0,0,-1,1476,1114,0,0
259,-90,0,0,0,0,0,0,0,0,0,-1,1483,1114,0,0
266,-90,0,0,0,0,0,0,0,0,0,-1,1490,1114,0,0
273,-90,0,0,0,0,0,0,0,0,0,-1,1497,1114,0,0
280,-90,0,0,0,0,0,0,0,0,0,-1,1504,1114,0,0
287,-90,0,0,0,0,0,0,0,0,0,-1,1511,1114,0,0
294,-90,0,0,0,0,0,0,0,0,0,-1,1518,1114,0,0
301,-90,0,0,0,0,0,0,0,0,0,-1,1525,1114,0,0
308,-90,0,0,0,0,0,0,0,0,0,-1,1532,1114,0,0
315,-90,0,0,0,0,0,0,0,0,0,-1,1539,1114,0,0
322,-90,0,0,0,0,0,0,0,0,0,-1,1546,1114,0,0
329,-90,0,0,0,0,0,0,0,0,0,-1,1553,1114,0,0
336,-90,0,0,0,0,0,0,0,0,0,-1,1560,1114,0,0
343,-90,0,0,0,0,0,0,0,0,0,-1,1567,1114,0,0
350,-90,0,0,0,0,0,0,0,0,0,-1,1574,1114,0,0
357,-90,0,0,0,0,0,0,0,0,0,-1,1581,1114,0,0
364,-90,0,0,0,0,0,0,0,0,0,-1,1588,1114,0,0
371,-90,0,0,0,0,0,0,0,0,0,-1,1595,1114,0,0
378,-90,0,0,0,0,0,0,0,0,0,-1,1602,1114,0,0
385,-90,0,0,0,0,0,0,0,0,0,-1,1609,1114,0,0
392,-90,0,0,0,0,0,0,0,0,0,-1,1616,1114,0,0
399,-90,0,0,0,0,0,0,0,0,0,-1,1623,1114,0,0
406,-90,0,0,0,0,0,0,0,0,0,-1,1630,1114,0,0
413,-90,0,0,0,0,0,0,0,0,0,-1,1637,1114,0,0
420,-90,0,0,0,0,0,0,0,0,0,-1,1644,1114,0,0
427,-90,0,0,0,0,0,0,0,0,0,-1,1651,1114,0,0
434,-90,0,0,0,0,0,0,0,0,0,-1,1658,1114,0,0
441,-90,0,0,0,0,0,0,0,0,0,-1,1665,1114,0,0
448,-90,0,0,0,0,0,0,0,0,0,-1,1672,1114,0,0
455,-90,0,0,0,0,0,0,0,0,0,-1,1679,1114,0,0
462,-90,0,0,0,0,0,0,0,0,0,-1,1686,1114,0,0
469,-90,0,0,0,0,0,0,0,0,0,-1,1693,1114,0,0
476,-90,0,0,0,0,0,0,0,0,0,-1,1700,1114,0,0
483,-90,0,0,0,0,0,0,0,0,0,-1,1707,1114,0,0
490,-90,0,0,0,0,0,0,0,0,0,-1,1714,1114,0,0
497,-90,0,0,0,0,0,0,0,0,0,-1,1721,1114,0,0
504,-90,0,0,0,0,0,0,0,0,0,-1,1728,1114,0,0
511,-90,0,0,0,0,0,0,0,0,0,-1,1735,1114,0,0
518,-90,0,0,0,0,0,0,0,0,0,-1,1742,1114,0,0
525,-90,0,0,0,0,0,0,0,0,0,-1,1749,1114,0,0
532,-90,0,0,0,0,0,0,0,0,0,-1,1756,1114,0,0
539,-90,0,0,0,0,0,0,0,0,0,-1,1763,1114,0,0
546,-90,0,0,0,0,0,0,0,0,0,-1,1770,1114,0,0
553,-90,0,0,0,0,0,0,0,0,0,-1,1777,1114,0,0
560,-90,0,0,0,0,0,0,0,0,0,-1,1784,1114,0,0
567,-90,0,0,0,0,0,0,0,0,0,-1,1791,1114,0,0
574,-90,0,0,0,0,0,0,0,0,0,-1,1798,1114,0,0
581,-90,0,0,0,0,0,0,0,0,0,-1,1805,1114,0,0
588,-90,0,0,0,0,0,0,0,0,0,-1,1812,1114,0,0
595,-90,0,0,0,0,0,0,0,0,0,-1,1819,1114,0,0
602,-90,0,0,0,0,0,0,0,0,0,-1,1826,1114,0,0
609,-90,0,0,0,0,0,0,0,0,0,-1,1833,1114,0,0
616,-90,0,0,0,0,0,0,0,0,0,-1,1840,1114,0,0
623,-90,0,0,0,0,0,0,0,0,0,-1,1847,1114,0,0
630,-90,0,0,0,0,0,0,0,0,0,-1,1854,1114,0,0
637,-90,0,0,0,0,0,0,0,0,0,-1,1861,1114,0,0
644,-90,-0.123291,0.0415039,-0.00112087,-0.000509961,-0.00066796,-8.09263e-05,-0.0015499,-0.999849,0.00100738,0.0304445,1868,1114,-0.123239,-0.0415402
651,-90,-0.175659,0.0098877,-0.00102557,-5.17585e-05,-0.000504633,0.000162571,-0.0012399,-1.16916,0.00088578,0.0358316,1875,1114,-0.175689,-0.00986437
658,-90,-0.120361,0.0214844,-0.000846399,0.000124869,-0.000303233,0.000211765,-0.000933294,-1.29171,0.00070349,0.0370789,1882,1114,-0.120334,-0.0214703
665,-90,-0.0257568,0.0667725,-0.000610222,0.000170911,-0.000124553,0.00019029,-0.000629601,-1.41644,0.000495498,0.0360031,1889,1114,-0.0257079,-0.0667489
672,-90,-0.0462646,0.0512695,-0.000412614,0.000168615,5.81303e-06,0.000168673,-0.000412672,1.5608,0.000345354,0.0332811,1896,1114,-0.0462949,-0.0512162
679,-90,-0.0655518,0.0439453,-0.000260725,0.000137287,8.38559e-05,0.000154233,-0.000277671,1.3714,0.000252732,0.0302699,1903,1114,-0.0654966,-0.0439145
686,-90,-0.0806885,-0.0112305,-0.000150527,9.69295e-05,0.000134477,0.000155938,-0.000209535,1.1573,0.000211761,0.0292595,1910,1114,-0.080738,0.0111789
693,-90,-0.0472412,-0.0124512,-0.000101223,6.62876e-05,0.000171154,0.00017308,-0.000208016,1.01295,0.000220334,0.0300056,1917,1114,-0.0472718,0.0123961
700,-90,-0.0428467,0.0250244,-9.90568e-05,8.30753e-05,0.000207715,0.00021881,-0.000234792,0.991988,0.000261941,0.0247865,1924,1114,-0.0428595,-0.0249987
707,-90,-0.0709229,0.0357666,-2.68128e-05,5.93635e-05,0.000222561,0.000242969,-0.000210418,0.881016,0.000261988,0.0142467,1931,1114,-0.0709543,-0.0358103
714,-90,-0.0275879,0.0628662,-1.15724e-05,4.94088e-05,0.000211191,0.000232299,-0.000194463,0.85709,0.000246714,0.0180122,1938,1114,-0.027527,-0.0628488
721,-90,-0.0439453,0.0732422,-7.66119e-05,7.24066e-05,0.000180176,0.000192872,-0.000197077,0.981459,0.000225141,0.0157899,1945,1114,-0.0438907,-0.0731955
728,-90,-0.0615234,0.0795898,-8.31075e-05,8.45708e-05,0.000166418,0.000187076,-0.000185612,1.01873,0.000215172,0.0152411,1952,1114,-0.0615209,-0.0796425
735,-90,-0.0546875,0.0633545,-5.21533e-05,8.04778e-05,0.000251745,0.000274495,-0.000246171,0.914184,0.000300755,0.0165598,1959,1114,-0.0546883,-0.0633353
742,-90,-0.0469971,0.0633545,-9.2879e-05,0.000168333,0.000233798,0.000305532,-0.000230078,1.04012,0.000310255,0.0133044,1966,1114,-0.0469491,-0.0633942
749,-90,-0.0549316,0.0549316,-0.000239286,0.000326566,-0.000126976,0.000353753,-0.000266472,-1.35987,0.000359267,0.00991774,1973,1114,-0.0548781,-0.0549344
756,-90,-0.0515137,0.0622559,0.000107641,0.000377283,-0.000885924,0.00113859,-0.000653662,-0.860909,0.0010473,0.0111228,1980,1114,-0.0515383,-0.0622311
763,-90,-0.0500488,0.0672607,0.000764945,0.000984011,-0.00176328,0.00264116,-0.000892201,-0.816418,0.00212165,0.0104294,1987,1114,-0.0500292,-0.0672969
770,-90,-0.0664063,0.0770264,0.00136659,0.00140786,-0.00279611,0.0041834,-0.00140896,-0.789088,0.00335859,0.012037,1994,1114,-0.0664588,-0.0770357
777,-90,-0.0755615,0.0942383,0.00224078,0.00203671,-0.00423623,0.0063762,-0.00209871,-0.773357,0.0050965,0.0121683,2001,1114,-0.0756037,-0.0942282
784,-90,-0.0626221,0.132813,0.00345871,0.00292295,-0.00616821,0.00936485,-0.00298319,-0.763697,0.00743974,0.0247971,2008,1114,-0.0626754,-0.132847
791,-90,0.0100098,0.21814,0.00514641,0.00414078,-0.0086654,0.0133236,-0.00403638,-0.756418,0.01049,0.0396809,2015,1114,0.00997081,-0.21814
798,-90,0.0219727,0.322998,0.00743549,0.00578889,-0.0117575,0.0183985,-0.00517407,-0.750443,0.0143057,0.0395772,2022,1114,0.0219863,-0.323013
805,-90,-0.337646,0.217651,0.0105226,0.00799708,-0.0154716,0.0247829,-0.00626315,-0.744679,0.0189577,0.039398,2029,1114,-0.337652,-0.217608
812,-90,-0.630127,0.107544,0.0147375,0.0109515,-0.0198627,0.0327971,-0.00710817,-0.737889,0.0245792,0.0433883,2036,1114,-0.630133,-0.107545
-700,-97,0,0,0,0,0,0,0,0,0,-1,524,1121,0,0
-693,-97,1.05048,0.960815,0,0,0,0,0,0,0,-1,531,1121,1.05046,-0.960782
-686,-97,-0.665588,1.0448,-0.0194071,0.00828175,-0.0240538,0.0221908,-0.0333161,-1.04653,0.0322607,0.0468872,538,1121,-0.66557,-1.04478
-679,-97,-0.611328,0.00268555,-0.0131337,0.00795874,-0.0179186,0.0182043,-0.0233793,-1.05138,0.0240702,0.0435,545,1121,-0.611311,-0.00264435
-672,-97,0.797546,0.299194,0,0,0,0,0,0,0,-1,552,1121,0.797568,-0.299201
-665,-97,0.639648,0.539551,-0.00535194,0.00640227,-0.00954165,0.0117316,-0.0106812,-1.06143,0.0129448,0.046684,559,1121,0.639635,-0.539558
-658,-97,0.207642,0.00634766,-0.00311858,0.00545005,-0.00677184,0.00917904,-0.00684757,-1.06744,0.00928555,0.0418108,566,1121,0.207652,-0.00640445
-651,-97,-0.0185547,0.0395508,-0.00167198,0.00448859,-0.00468526,0.00701543,-0.00419882,-1.07619,0.00654227,0.0278441,573,1121,-0.0185414,-0.0395363
-644,-97,-0.0233154,0.0760498,-0.000794885,0.00357641,-0.00314952,0.00522437,-0.00244284,-1.08873,0.00452272,0.00926357,580,1121,-0.0232986,-0.0760018
-637,-97,-0.0169678,0.0655518,-0.000268879,0.00258263,-0.00208121,0.00367961,-0.00136586,-1.08571,0.00301337,0.0103293,587,1121,-0.0169919,-0.0655735
-630,-97,-0.0252075,0.0688477,0.000190164,0.00218201,-0.000911896,0.00253643,-0.000164252,-1.20011,0.00174828,0.00893373,594,1121,-0.0251773,-0.0688443
-623,-97,-0.0278931,0.0767822,0.000553839,0.00154828,-0.000307303,0.00163558,0.00046654,-1.29401,0.000972905,0.0101152,601,1121,-0.0279187,-0.0768358
-616,-97,-0.0321655,0.072998,0.000544491,0.000775829,-0.00014734,0.000847479,0.000472841,-1.11818,0.000490386,0.010106,608,1121,-0.0321651,-0.0729993
-609,-97,-0.0177612,0.0731201,0.000199153,0.000635996,8.11685e-05,0.00065059,0.000184559,1.3929,0.000387159,0.0116932,615,1121,-0.017762,-0.0731109
-602,-97,-0.0360107,0.0648193,-5.92147e-05,0.000257446,0.000119632,0.000297561,-9.93293e-05,1.24726,0.000238481,0.0114407,622,1121,-0.0360236,-0.0648718
-595,-97,-0.0544434,0.0638428,0.000151235,9.06229e-05,7.60947e-05,0.000202836,3.90212e-05,0.595893,0.000124276,0.0151349,629,1121,-0.0544666,-0.0638261
-588,-97,-0.0401001,0.043335,0.000265323,0.000115041,1.93414e-05,0.000267772,0.000112591,0.125966,0.000155249,0.0180371,636,1121,-0.0400959,-0.0433245
-581,-97,-0.0549316,0.0559082,0.000288639,0.000199674,-3.48932e-05,0.000300692,0.000187621,-0.332586,0.000175374,0.0263983,643,1121,-0.0549103,-0.0558517
-574,-97,-0.0529785,0.148926,0.000319911,0.000288131,-1.18346e-06,0.000319955,0.000288087,-0.0371708,0.000203514,0.0356482,650,1121,-0.0529565,-0.148947
-567,-97,-0.00622559,0.185425,0.000325167,0.000394259,-2.42916e-05,0.000401944,0.000317481,-1.26437,0.000244716,0.0346166,657,1121,-0.00620829,-0.185391
-560,-97,0.0506592,0.134644,0.000275975,0.000534485,-4.44604e-05,0.000541918,0.000268542,-1.40515,0.000312881,0.0355609,664,1121,0.0506482,-0.134672
-553,-97,0.00665283,0.0863037,0.000176429,0.000711468,-5.79342e-05,0.00071767,0.000170228,-1.46416,0.000433005,0.0382228,671,1121,0.00666436,-0.0863202
-546,-97,-0.0321655,0.158813,-7.12795e-06,0.000926259,-2.79763e-05,0.000927097,-7.96572e-06,-1.54086,0.000620737,0.0386598,678,1121,-0.0321578,-0.158821
-539,-97,0.0422363,0.122559,-0.000286527,0.00118741,9.27478e-05,0.00119322,-0.00029234,1.5082,0.000908739,0.0349044,685,1121,0.0422326,-0.122572
-532,-97,0.00299072,0.0358887,-0.000666757,0.00149346,0.00033024,0.00154281,-0.000716115,1.42244,0.00133299,0.0351852,692,1121,0.00298648,-0.0359175
-525,-97,0,0,0,0,0,0,0,0,0,-1,699,1121,0,0
-518,-97,0,0,0,0,0,0,0,0,0,-1,706,1121,0,0
-511,-97,0,0,0,0,0,0,0,0,0,-1,713,1121,0,0
-504,-97,0,0,0,0,0,0,0,0,0,-1,720,1121,0,0
-497,-97,0,0,0,0,0,0,0,0,0,-1,727,1121,0,0
-490,-97,0,0,0,0,0,0,0,0,0,-1,734,1121,0,0
-483,-97,0,0,0,0,0,0,0,0,0,-1,741,1121,0,0
-476,-97,0,0,0,0,0,0,0,0,0,-1,748,1121,0,0
-469,-97,0,0,0,0,0,0,0,0,0,-1,755,1121,0,0
-462,-97,0,0,0,0,0,0,0,0,0,-1,762,1121,0,0
-455,-97,0,0,0,0,0,0,0,0,0,-1,769,1121,0,0
-448,-97,0,0,0,0,0,0,0,0,0,-1,776,1121,0,0
-441,-97,0,0,0,0,0,0,0,0,0,-1,783,1121,0,0
-434,-97,0,0,0,0,0,0,0,0,0,-1,790,1121,0,0
-427,-97,0,0,0,0,0,0,0,0,0,-1,797,1121,0,0
-420,-97,0,0,0,0,0,0,0,0,0,-1,804,1121,0,0
-413,-97,0,0,0,0,0,0,0,0,0,-1,811,1121,0,0
-406,-97,0,0,0,0,0,0,0,0,0,-1,818,1121,0,0
-399,-97,0,0,0,0,0,0,0,0,0,-1,825,1121,0,0
-392,-97,0,0,0,0,0,0,0,0,0,-1,832,1121,0,0
-385,-97,0,0,0,0,0,0,0,0,0,-1,839,1121,0,0
-378,-97,0,0,0,0,0,0,0,0,0,-1,846,1121,0,0
-371,-97,0,0,0,0,0,0,0,0,0,-1,853,1121,0,0
-364,-97,0,0,0,0,0,0,0,0,0,-1,860,1121,0,0
-357,-97,0,0,0,0,0,0,0,0,0,-1,867,1121,0,0
-350,-97,0,0,0,0,0,0,0,0,0,-1,874,1121,0,0
-343,-97,0,0,0,0,0,0,0,0,0,-1,881,1121,0,0
-336,-97,0,0,0,0,0,0,0,0,0,-1,888,1121,0,0
-329,-97,0,0,0,0,0,0,0,0,0,-1,895,1121,0,0
-322,-97,0,0,0,0,0,0,0,0,0,-1,902,1121,0,0
-315,-97,0,0,0,0,0,0,0,0,0,-1,909,1121,0,0
-308,-97,0,0,0,0,0,0,0,0,0,-1,916,1121,0,0
-301,-97,0,0,0,0,0,0,0,0,0,-1,923,1121,0,0
-294,-97,0,0,0,0,0,0,0,0,0,-1,930,1121,0,0
-287,-97,0,0,0,0,0,0,0,0,0,-1,937,1121,0,0
-280,-97,0,0,0,0,0,0,0,0,0,-1,944,1121,0,0
-273,-97,0,0,0,0,0,0,0,0,0,-1,951,1121,0,0
-266,-97,0,0,0,0,0,0,0,0,0,-1,958,1121,0,0
-259,-97,0,0,0,0,0,0,0,0,0,-1,965,1121,0,0
-252,-97,0,0,0,0,0,0,0,0,0,-1,972,1121,0,0
-245,-97,0,0,0,0,0,0,0,0,0,-1,979,1121,0,0
-238,-97,0,0,0,0,0,0,0,0,0,-1,986,1121,0,0
-231,-97,0,0,0,0,0,0,0,0,0,-1,993,1121,0,0
-224,-97,0,0,0,0,0,0,0,0,0,-1,1000,1121,0,0
-217,-97,0,0,0,0,0,0,0,0,0,-1,1007,1121,0,0
-210,-97,0,0,0,0,0,0,0,0,0,-1,1014,1121,0,0
-203,-97,0,0,0,0,0,0,0,0,0,-1,1021,1121,0,0
-196,-97,0,0,0,0,0,0,0,0,0,-1,1028,1121,0,0
-189,-97,0,0,0,0,0,0,0,0,0,-1,1035,1121,0,0
-182,-97,0,0,0,0,0,0,0,0,0,-1,1042,1121,0,0
-175,-97,0,0,0,0,0,0,0,0,0,-1,1049,1121,0,0
-168,-97,0,0,0,0,0,0,0,0,0,-1,1056,1121,0,0
-161,-97,0,0,0,0,0,0,0,0,0,-1,1063,1121,0,0
-154,-97,0,0,0,0,0,0,0,0,0,-1,1070,1121,0,0
-147,-97,0,0,0,0,0,0,0,0,0,-1,1077,1121,0,0
-140,-97,0,0,0,0,0,0,0,0,0,-1,1084,1121,0,0
-133,-97,0,0,0,0,0,0,0,0,0,-1,1091,1121,0,0
-126,-97,0,0,0,0,0,0,0,0,0,-1,1098,1121,0,0
-119,-97,0,0,0,0,0,0,0,0,0,-1,1105,1121,0,0
-112,-97,0,0,0,0,0,0,0,0,0,-1,1112,1121,0,0
-105,-97,0,0,0,0,0,0,0,0,0,-1,1119,1121,0,0
-98,-97,0,0,0,0,0,0,0,0,0,-1,1126,1121,0,0
-91,-97,0,0,0,0,0,0,0,0,0,-1,1133,1121,0,0
-84,-97,0,0,0,0,0,0,0,0,0,-1,1140,1121,0,0
-77,-97,0,0,0,0,0,0,0,0,0,-1,1147,1121,0,0
-70,-97,0,0,0,0,0,0,0,0,0,-1,1154,1121,0,0
-63,-97,0,0,0,0,0,0,0,0,0,-1,1161,1121,0,0
-56,-97,0,0,0,0,0,0,0,0,0,-1,1168,1121,0,0
-49,-97,0,0,0,0,0,0,0,0,0,-1,1175,1121,0,0
-42,-97,0,0,0,0,0,0,0,0,0,-1,1182,1121,0,0
-35,-97,0,0,0,0,0,0,0,0,0,-1,1189,1121,0,0
-28,-97,0,0,0,0,0,0,0,0,0,-1,1196,1121,0,0
-21,-97,0,0,0,0,0,0,0,0,0,-1,1203,1121,0,0
-14,-97,0,0,0,0,0,0,0,0,0,-1,1210,1121,0,0
-7,-97,0,0,0,0,0,0,0,0,0,-1,1217,1121,0,0
0,-97,0,0,0,0,0,0,0,0,0,-1,1224,1121,0,0
7,-97,0,0,0,0,0,0,0,0,0,-1,1231,1121,0,0
14,-97,0,0,0,0,0,0,0,0,0,-1,1238,1121,0,0
21,-97,0,0,0,0,0,0,0,0,0,-1,1245,1121,0,0
28,-97,0,0,0,0,0,0,0,0,0,-1,1252,1121,0,0
35,-97,0,0,0,0,0,0,0,0,0,-1,1259,1121,0,0
42,-97,0,0,0,0,0,0,0,0,0,-1,1266,1121,0,0
49,-97,0,0,0,0,0,0,0,0,0,-1,1273,1121,0,0
56,-97,0,0,0,0,0,0,0,0,0,-1,1280,1121,0,0
63,-97,0,0,0,0,0,0,0,0,0,-1,1287,1121,0,0
70,-97,0,0,0,0,0,0,0,0,0,-1,1294,1121,0,0
77,-97,0,0,0,0,0,0,0,0,0,-1,1301,1121,0,0
84,-97,0,0,0,0,0,0,0,0,0,-1,1308,1121,0,0
91,-97,0,0,0,0,0,0,0,0,0,-1,1315,1121,0,0
98,-97,0,0,0,0,0,0,0,0,0,-1,1322,1121,0,0
105,-97,0,0,0,0,0,0,0,0,0,-1,1329,1121,0,0
112,-97,0,0,0,0,0,0,0,0,0,-1,1336,1121,0,0
119,-97,0,0,0,0,0,0,0,0,0,-1,1343,1121,0,0
126,-97,0,0,0,0,0,0,0,0,0,-1,1350,1121,0,0
133,-97,0,0,0,0,0,0,0,0,0,-1,1357,1121,0,0
140,-97,0,0,0,0,0,0,0,0,0,-1,1364,1121,0,0
147,-97,0,0,0,0,0,0,0,0,0,-1,1371,1121,0,0
154,-97,0,0,0,0,0,0,0,0,0,-1,1378,1121,0,0
161,-97,0,0,0,0,0,0,0,0,0,-1,1385,1121,0,0
168,-97,0,0,0,0,0,0,0,0,0,-1,1392,1121,0,0
175,-97,0,0,0,0,0,0,0,0,0,-1,1399,1121,0,0
182,-97,0,0,0,0,0,0,0,0,0,-1,1406,1121,0,0
189,-97,0,0,0,0,0,0,0,0,0,-1,1413,1121,0,0
196,-97,0,0,0,0,0,0,0,0,0,-1,1420,1121,0,0
203,-97,0,0,0,0,0,0,0,0,0,-1,1427,1121,0,0
210,-97,0,0,0,0,0,0,0,0,0,-1,1434,1121,0,0
217,-97,0,0,0,0,0,0,0,0,0,-1,1441,1121,0,0
224,-97,0,0,0,0,0,0,0,0,0,-1,1448,1121,0,0
231,-97,0,0,0,0,0,0,0,0,0,-1,1455,1121,0,0
238,-97,0,0,0,0,0,0,0,0,0,-1,1462,1121,0,0
245,-97,0,0,0,0,0,0,0,0,0,-1,1469,1121,0,0
252,-97,0,0,0,0,0,0,0,0,0,-1,1476,1121,0,0
259,-97,0,0,0,0,0,0,0,0,0,-1,1483,1121,0,0
266,-97,0,0,0,0,0,0,0,0,0,-1,1490,1121,0,0
273,-97,0,0,0,0,0,0,0,0,0,-1,1497,1121,0,0
280,-97,0,0,0,0,0,0,0,0,0,-1,1504,1121,0,0
287,-97,0,0,0,0,0,0,0,0,0,-1,1511,1121,0,0
294,-97,0,0,0,0,0,0,0,0,0,-1,1518,1121,0,0
301,-97,0,0,0,0,0,0,0,0,0,-1,1525,1121,0,0
308,-97,0,0,0,0,0,0,0,0,0,-1,1532,1121,0,0
315,-97,0,0,0,0,0,0,0,0,0,-1,1539,1121,0,0
322,-97,0,0,0,0,0,0,0,0,0,-1,1546,1121,0,0
329,-97,0,0,0,0,0,0,0,0,0,-1,1553,1121,0,0
336,-97,0,0,0,0,0,0,0,0,0,-1,1560,1121,0,0
343,-97,0,0,0,0,0,0,0,0,0,-1,1567,1121,0,0
350,-97,0,0,0,0,0,0,0,0,0,-1,1574,1121,0,0
357,-97,0,0,0,0,0,0,0,0,0,-1,1581,1121,0,0
364,-97,0,0,0,0,0,0,0,0,0,-1,1588,1121,0,0
371,-97,0,0,0,0,0,0,0,0,0,-1,1595,1121,0,0
378,-97,0,0,0,0,0,0,0,0,0,-1,1602,1121,0,0
385,-97,0,0,0,0,0,0,0,0,0,-1,1609,1121,0,0
392,-97,0,0,0,0,0,0,0,0,0,-1,1616,1121,0,0
399,-97,0,0,0,0,0,0,0,0,0,-1,1623,1121,0,0
406,-97,0,0,0,0,0,0,0,0,0,-1,1630,1121,0,0
413,-97,0,0,0,0,0,0,0,0,0,-1,1637,1121,0,0
420,-97,0,0,0,0,0,0,0,0,0,-1,1644,1121,0,0
427,-97,0,0,0,0,0,0,0,0,0,-1,1651,1121,0,0
434,-97,0,0,0,0,0,0,0,0,0,-1,1658,1121,0,0
441,-97,0,0,0,0,0,0,0,0,0,-1,1665,1121,0,0
448,-97,0,0,0,0,0,0,0,0,0,-1,1672,1121,0,0
455,-97,0,0,0,0,0,0,0,0,0,-1,1679,1121,0,0
462,-97,0,0,0,0,0,0,0,0,0,-1,1686,1121,0,0
469,-97,0,0,0,0,0,0,0,0,0,-1,1693,1121,0,0
476,-97,0,0,0,0,0,0,0,0,0,-1,1700,1121,0,0
483,-97,0,0,0,0,0,0,0,0,0,-1,1707,1121,0,0
490,-97,0,0,0,0,0,0,0,0,0,-1,1714,1121,0,0
497,-97,0,0,0,0,0,0,0,0,0,-1,1721,1121,0,0
504,-97,0,0,0,0,0,0,0,0,0,-1,1728,1121,0,0
511,-97,0,0,0,0,0,0,0,0,0,-1,1735,1121,0,0
518,-97,0,0,0,0,0,0,0,0,0,-1,1742,1121,0,0
525,-97,0,0,0,0,0,0,0,0,0,-1,1749,1121,0,0
532,-97,0,0,0,0,0,0,0,0,0,-1,1756,1121,0,0
539,-97,0,0,0,0,0,0,0,0,0,-1,1763,1121,0,0
546,-97,0,0,0,0,0,0,0,0,0,-1,1770,1121,0,0
553,-97,0,0,0,0,0,0,0,0,0,-1,1777,1121,0,0
560,-97,0,0,0,0,0,0,0,0,0,-1,1784,1121,0,0
567,-97,0,0,0,0,0,0,0,0,0,-1,1791,1121,0,0
574,-97,0,0,0,0,0,0,0,0,0,-1,1798,1121,0,0
581,-97,0,0,0,0,0,0,0,0,0,-1,1805,1121,0,0
588,-97,0,0,0,0,0,0,0,0,0,-1,1812,1121,0,0
595,-97,0,0,0,0,0,0,0,0,0,-1,1819,1121,0,0
602,-97,0,0,0,0,0,0,0,0,0,-1,1826,1121,0,0
609,-97,0,0,0,0,0,0,0,0,0,-1,1833,1121,0,0
616,-97,0,0,0,0,0,0,0,0,0,-1,1840,1121,0,0
623,-97,0,0,0,0,0,0,0,0,0,-1,1847,1121,0,0
630,-97,0,0,0,0,0,0,0,0,0,-1,1854,1121,0,0
637,-97,0,0,0,0,0,0,0,0,0,-1,1861,1121,0,0
644,-97,-0.0838623,0.145508,-0.000667597,-0.000295574,-0.000717352,0.000259491,-0.00122266,-0.912256,0.000913967,0.031058,1868,1121,-0.0838159,-0.145504
651,-97,-0.0880127,0.0617676,-0.000773358,3.33224e-06,-0.000506719,0.000253404,-0.00102343,-1.11235,0.000780588,0.0323489,1875,1121,-0.0880583,-0.0617635
658,-97,-0.0784912,0.017334,-0.000672153,6.32492e-05,-0.000278335,0.000156714,-0.000765618,-1.24683,0.000569879,0.0353163,1882,1121,-0.0784424,-0.0173415
665,-97,-0.0654297,0.0806885,-0.000491627,3.73223e-05,-0.000103823,5.69711e-05,-0.000511276,-1.38376,0.000361341,0.0358761,1889,1121,-0.0654634,-0.0806618
672,-97,-0.0841064,0.0516357,-0.000342793,-5.1401e-06,1.75321e-05,-4.23221e-06,-0.000343701,1.51906,0.000227736,0.0327597,1896,1121,-0.0840732,-0.0516861
679,-97,-0.0482178,0.0622559,-0.000219955,-5.44131e-05,8.59261e-05,-1.78763e-05,-0.000256491,1.16875,0.000165358,0.0325032,1903,1121,-0.0482616,-0.06227
686,-97,-0.0527344,0.00195313,-0.000133826,-9.97875e-05,0.000125756,1.00961e-05,-0.000243709,0.852657,0.000165941,0.0313562,1910,1121,-0.052691,-0.00193663
693,-97,-0.053833,0.00402832,-0.00010528,-0.000128551,0.000151044,3.45757e-05,-0.000268406,0.746957,0.000191506,0.028371,1917,1121,-0.0538821,-0.00401612
700,-97,-0.052002,0.0153809,-0.000125661,-0.000112167,0.00017532,5.65361e-05,-0.000294364,0.80463,0.000217551,0.021003,1924,1121,-0.0520438,-0.0154223
707,-97,-0.0635986,0.0308838,-6.15828e-05,-0.000117851,0.00018638,9.87741e-05,-0.000278208,0.710488,0.000225719,0.0138622,1931,1121,-0.0636349,-0.0309404
714,-97,-0.0268555,0.0710449,-3.67155e-05,-0.000104859,0.00016909,0.000101701,-0.000243276,0.685978,0.000204687,0.0201366,1938,1121,-0.0268312,-0.0710525
721,-97,-0.0478516,0.0717773,-0.000106844,-6.18724e-05,0.000141945,5.93566e-05,-0.000228073,0.863951,0.000175218,0.0160244,1945,1121,-0.0478275,-0.0718154
728,-97,-0.0651855,0.0838623,-0.000132875,-3.6848e-05,0.000146072,6.88994e-05,-0.000238622,0.944184,0.000186343,0.0162337,1952,1121,-0.0651595,-0.0838598
735,-97,-0.0598145,0.0843506,-0.000119254,-4.55581e-05,0.00025972,0.000179915,-0.000344727,0.855865,0.000307844,0.0159573,1959,1121,-0.0597643,-0.0843777
742,-97,-0.0457764,0.0684814,-0.000209731,4.66063e-05,0.000248266,0.000197835,-0.00036096,1.02368,0.000327171,0.0129329,1966,1121,-0.0457195,-0.0684796
749,-97,-0.0631104,0.0712891,-0.00039257,0.000192598,-0.00018474,0.00024604,-0.000446013,-1.2892,0.000405079,0.0145123,1973,1121,-0.0630563,-0.0713224
756,-97,-0.059082,0.0462646,-0.000191384,0.000360319,-0.00105921,0.00117901,-0.00101007,-0.912785,0.00126512,0.0131946,1980,1121,-0.059049,-0.0462694
763,-97,-0.0371094,0.0447998,0.000246005,0.0011593,-0.00210413,0.00285576,-0.00145046,-0.892253,0.00252994,0.0106977,1987,1121,-0.0371161,-0.04479
770,-97,-0.0510254,0.0561523,0.000636335,0.00176233,-0.00335827,0.00460447,-0.0022058,-0.868449,0.00401238,0.0082047,1994,1121,-0.0510479,-0.0561547
777,-97,-0.0506592,0.0611572,0.0012006,0.00266946,-0.00513012,0.00711746,-0.0032474,-0.856495,0.00612162,0.0119878,2001,1121,-0.0506825,-0.0611615
784,-97,-0.0473633,0.131958,0.00200327,0.00397075,-0.00752729,0.0105783,-0.00460429,-0.850375,0.00898902,0.0320702,2008,1121,-0.0473522,-0.132002
791,-97,-0.12561,0.383423,0,0,0,0,0,0,0,-1,2015,1121,-0.125605,-0.383363
798,-97,0.169067,0.357666,0.0047285,0.00826038,-0.0145898,0.0211907,-0.00820186,-0.845625,0.0175134,0.0410131,2022,1121,0.169035,-0.357706
805,-97,0.0301514,0.387695,0.00689792,0.011606,-0.0193957,0.02879,-0.0102861,-0.845787,0.0233885,0.039566,2029,1121,0.0301966,-0.38771
812,-97,-0.0877686,0.0933838,0.00993442,0.0161155,-0.0251885,0.0384024,-0.0123524,-0.846441,0.0305628,0.0457272,2036,1121,-0.087756,-0.093361
-700,-104,0,0,0,0,0,0,0,0,0,-1,524,1128,0,0
-693,-104,1.0274,2.07605,0,0,0,0,0,0,0,-1,531,1128,1.02741,-2.07604
-686,-104,0.818665,1.57642,-0.0173832,0.00836305,-0.0245887,0.0232446,-0.0322647,-1.02655,0.0321891,0.0484045,538,1128,0.818689,-1.57642
-679,-104,0.530151,1.15186,-0.0096671,0.0080752,-0.018363,0.0195976,-0.0211895,-1.01042,0.0235544,0.0450574,545,1128,0.530155,-1.1519
-672,-104,0.41095,0.696289,-0.00469275,0.00739077,-0.0135309,0.0161675,-0.0134695,-0.995375,0.0171345,0.0459062,552,1128,0.410944,-0.696309
-665,-104,1.03015,0.989624,0,0,0,0,0,0,0,-1,559,1128,1.03013,-0.989628
-658,-104,0.262878,-0.356689,0.000241703,0.00554211,-0.0069484,0.0103286,-0.00454475,-0.967588,0.00880088,0.0409236,566,1128,0.262904,0.356741
-651,-104,0.115234,-0.295654,0.00114539,0.00456324,-0.00479659,0.00794624,-0.00223761,-0.956527,0.0061799,0.0335891,573,1128,0.115246,0.295701
-644,-104,-0.031311,0.0649414,0.00145228,0.00363666,-0.003211,0.00593613,-0.000847194,-0.94933,0.00426794,0.013179,580,1128,-0.0313368,-0.0648846
-637,-104,-0.020752,0.0625,0.00144395,0.00267067,-0.00210456,0.00424943,-0.000134805,-0.927193,0.00287894,0.00946035,587,1128,-0.0207254,-0.0624514
-630,-104,-0.0286255,0.074707,0.00157276,0.00225813,-0.000940351,0.0029163,0.000914602,-0.960131,0.00172228,0.0109696,594,1128,-0.028649,-0.0747123
-623,-104,-0.03302,0.0908203,0.0015397,0.00151551,-0.000284871,0.00181274,0.00124248,-0.764182,0.0010703,0.0130797,601,1128,-0.0329904,-0.0908234
-616,-104,-0.0461426,0.0894775,0.00112544,0.000741471,-0.000112004,0.00115572,0.000711187,-0.264064,0.000673149,0.0135031,608,1128,-0.0461209,-0.0895185
-609,-104,-0.0311279,0.0614014,0.00044142,0.000602062,0.000128215,0.000673037,0.000370445,1.06522,0.000389236,0.015408,615,1128,-0.0311007,-0.0613528
-602,-104,-0.027832,0.0539551,-4.89697e-05,0.000279356,0.000130111,0.000324664,-9.42783e-05,1.2357,0.000253775,0.0135613,622,1128,-0.0278216,-0.0539054
-595,-104,-0.0332642,0.0614014,8.80472e-05,9.85416e-05,7.19638e-05,0.000165449,2.11396e-05,0.821791,0.000103972,0.0144944,629,1128,-0.0332494,-0.0614007
-588,-104,-0.0415649,0.0653076,0.000184188,0.000110443,-6.22395e-06,0.00018471,0.000109922,-0.0836103,0.000107283,0.0202717,636,1128,-0.0415598,-0.0653317
-581,-104,-0.0375977,0.0732422,0.000198833,0.000203484,-7.49854e-05,0.00027618,0.000126137,-0.800897,0.000159652,0.0278738,643,1128,-0.0376263,-0.0731841
-574,-104,-0.034729,0.0795898,0.000217237,0.000300312,-3.11059e-05,0.000310668,0.000206881,-1.24941,0.000182627,0.0355919,650,1128,-0.0347457,-0.0795599
-567,-104,0.0263062,0.160522,0.000211121,0.000420103,-5.51442e-05,0.000433761,0.000197463,-1.328,0.000250767,0.0345616,657,1128,0.0263199,-0.160495
-560,-104,0.0421143,0.191895,0.000163163,0.000578635,-7.484e-05,0.000591705,0.000150093,-1.3979,0.000355172,0.0375285,664,1128,0.0420851,-0.191891
-553,-104,-0.114075,-0.010498,8.72867e-05,0.000775029,-8.22431e-05,0.000784727,7.75885e-05,-1.45342,0.000499302,0.0399848,671,1128,-0.114057,0.0104559
-546,-104,-0.105225,-0.115234,-4.21828e-05,0.00100431,-4.20767e-05,0.00100599,-4.38718e-05,-1.53068,0.000685755,0.0403221,678,1128,-0.105212,0.11529
-539,-104,0.0145264,0.000244141,-0.00023043,0.00127222,9.58337e-05,0.0012783,-0.000236517,1.50736,0.000941002,0.0368139,685,1128,0.0145274,-0.000220468
-532,-104,0.0317993,-0.0494385,-0.000456384,0.00156956,0.000362081,0.00163233,-0.000519151,1.39915,0.0012964,0.0386104,692,1128,0.031822,0.0494941
-525,-104,0.0078125,0.0672607,-0.000851251,0.00190843,0.000991034,0.00222744,-0.00117027,1.25937,0.00199307,0.0357242,699,1128,0.00780992,-0.0672691
-518,-104,0,0,0,0,0,0,0,0,0,-1,706,1128,0,0
-511,-104,0,0,0,0,0,0,0,0,0,-1,713,1128,0,0
-504,-104,0,0,0,0,0,0,0,0,0,-1,720,1128,0,0
-497,-104,0,0,0,0,0,0,0,0,0,-1,727,1128,0,0
-490,-104,0,0,0,0,0,0,0,0,0,-1,734,1128,0,0
-483,-104,0,0,0,0,0,0,0,0,0,-1,741,1128,0,0
-476,-104,0,0,0,0,0,0,0,0,0,-1,748,1128,0,0
-469,-104,0,0,0,0,0,0,0,0,0,-1,755,1128,0,0
-462,-104,0,0,0,0,0,0,0,0,0,-1,762,1128,0,0
-455,-104,0,0,0,0,0,0,0,0,0,-1,769,1128,0,0
-448,-104,0,0,0,0,0,0,0,0,0,-1,776,1128,0,0
-441,-104,0,0,0,0,0,0,0,0,0,-1,783,1128,0,0
-434,-104,0,0,0,0,0,0,0,0,0,-1,790,1128,0,0
-427,-104,0,0,0,0,0,0,0,0,0,-1,797,1128,0,0
-420,-104,0,0,0,0,0,0,0,0,0,-1,804,1128,0,0
-413,-104,0,0,0,0,0,0,0,0,0,-1,811,1128,0,0
-406,-104,0,0,0,0,0,0,0,0,0,-1,818,1128,0,0
-399,-104,0,0,0,0,0,0,0,0,0,-1,825,1128,0,0
-392,-104,0,0,0,0,0,0,0,0,0,-1,832,1128,0,0
-385,-104,0,0,0,0,0,0,0,0,0,-1,839,1128,0,0
-378,-104,0,0,0,0,0,0,0,0,0,-1,846,1128,0,0
-371,-104,0,0,0,0,0,0,0,0,0,-1,853,1128,0,0
-364,-104,0,0,0,0,0,0,0,0,0,-1,860,1128,0,0
-357,-104,0,0,0,0,0,0,0,0,0,-1,867,1128,0,0
-350,-104,0,0,0,0,0,0,0,0,0,-1,874,1128,0,0
-343,-104,0,0,0,0,0,0,0,0,0,-1,881,1128,0,0
-336,-104,0,0,0,0,0,0,0,0,0,-1,888,1128,0,0
-329,-104,0,0,0,0,0,0,0,0,0,-1,895,1128,0,0
-322,-104,0,0,0,0,0,0,0,0,0,-1,902,1128,0,0
-315,-104,0,0,0,0,0,0,0,0,0,-1,909,1128,0,0
-308,-104,0,0,0,0,0,0,0,0,0,-1,916,1128,0,0
-301,-104,0,0,0,0,0,0,0,0,0,-1,923,1128,0,0
-294,-104,0,0,0,0,0,0,0,0,0,-1,930,1128,0,0
-287,-104,0,0,0,0,0,0,0,0,0,-1,937,1128,0,0
-280,-104,0,0,0,0,0,0,0,0,0,-1,944,1128,0,0
-273,-104,0,0,0,0,0,0,0,0,0,-1,951,1128,0,0
-266,-104,0,0,0,0,0,0,0,0,0,-1,958,1128,0,0
-259,-104,0,0,0,0,0,0,0,0,0,-1,965,1128,0,0
-252,-104,0,0,0,0,0,0,0,0,0,-1,972,1128,0,0
-245,-104,0,0,0,0,0,0,0,0,0,-1,979,1128,0,0
-238,-104,0,0,0,0,0,0,0,0,0,-1,986,1128,0,0
-231,-104,0,0,0,0,0,0,0,0,0,-1,993,1128,0,0
-224,-104,0,0,0,0,0,0,0,0,0,-1,1000,1128,0,0
-217,-104,0,0,0,0,0,0,0,0,0,-1,1007,1128,0,0
-210,-104,0,0,0,0,0,0,0,0,0,-1,1014,1128,0,0
-203,-104,0,0,0,0,0,0,0,0,0,-1,1021,1128,0,0
-196,-104,0,0,0,0,0,0,0,0,0,-1,1028,1128,0,0
-189,-104,0,0,0,0,0,0,0,0,0,-1,1035,1128,0,0
-182,-104,0,0,0,0,0,0,0,0,0,-1,1042,1128,0,0
-175,-104,0,0,0,0,0,0,0,0,0,-1,1049,1128,0,0
-168,-104,0,0,0,0,0,0,0,0,0,-1,1056,1128,0,0
-161,-104,0,0,0,0,0,0,0,0,0,-1,1063,1128,0,0
-154,-104,0,0,0,0,0,0,0,0,0,-1,1070,1128,0,0
-147,-104,0,0,0,0,0,0,0,0,0,-1,1077,1128,0,0
-140,-104,0,0,0,0,0,0,0,0,0,-1,1084,1128,0,0
-133,-104,0,0,0,0,0,0,0,0,0,-1,1091,1128,0,0
-126,-104,0,0,0,0,0,0,0,0,0,-1,1098,1128,0,0
-119,-104,0,0,0,0,0,0,0,0,0,-1,1105,1128,0,0
-112,-104,0,0,0,0,0,0,0,0,0,-1,1112,1128,0,0
-105,-104,0,0,0,0,0,0,0,0,0,-1,1119,1128,0,0
-98,-104,0,0,0,0,0,0,0,0,0,-1,1126,1128,0,0
-91,-104,0,0,0,0,0,0,0,0,0,-1,1133,1128,0,0
-84,-104,0,0,0,0,0,0,0,0,0,-1,1140,1128,0,0
-77,-104,0,0,0,0,0,0,0,0,0,-1,1147,1128,0,0
-70,-104,0,0,0,0,0,0,0,0,0,-1,1154,1128,0,0
-63,-104,0,0,0,0,0,0,0,0,0,-1,1161,1128,0,0
-56,-104,0,0,0,0,0,0,0,0,0,-1,1168,1128,0,0
-49,-104,0,0,0,0,0,0,0,0,0,-1,1175,1128,0,0
-42,-104,0,0,0,0,0,0,0,0,0,-1,1182,1128,0,0
-35,-104,0,0,0,0,0,0,0,0,0,-1,1189,1128,0,0
-28,-104,0,0,0,0,0,0,0,0,0,-1,1196,1128,0,0
-21,-104,0,0,0,0,0,0,0,0,0,-1,1203,1128,0,0
-14,-104,0,0,0,0,0,0,0,0,0,-1,1210,1128,0,0
-7,-104,0,0,0,0,0,0,0,0,0,-1,1217,1128,0,0
0,-104,0,0,0,0,0,0,0,0,0,-1,1224,1128,0,0
7,-104,0,0,0,0,0,0,0,0,0,-1,1231,1128,0,0
14,-104,0,0,0,0,0,0,0,0,0,-1,1238,1128,0,0
21,-104,0,0,0,0,0,0,0,0,0,-1,1245,1128,0,0
28,-104,0,0,0,0,0,0,0,0,0,-1,1252,1128,0,0
35,-104,0,0,0,0,0,0,0,0,0,-1,1259,1128,0,0
42,-104,0,0,0,0,0,0,0,0,0,-1,1266,1128,0,0
49,-104,0,0,0,0,0,0,0,0,0,-1,1273,1128,0,0
56,-104,0,0,0,0,0,0,0,0,0,-1,1280,1128,0,0
63,-104,0,0,0,0,0,0,0,0,0,-1,1287,1128,0,0
70,-104,0,0,0,0,0,0,0,0,0,-1,1294,1128,0,0
77,-104,0,0,0,0,0,0,0,0,0,-1,1301,1128,0,0
84,-104,0,0,0,0,0,0,0,0,0,-1,1308,1128,0,0
91,-104,0,0,0,0,0,0,0,0,0,-1,1315,1128,0,0
98,-104,0,0,0,0,0,0,0,0,0,-1,1322,1128,0,0
105,-104,0,0,0,0,0,0,0,0,0,-1,1329,1128,0,0
112,-104,0,0,0,0,0,0,0,0,0,-1,1336,1128,0,0
119,-104,0,0,0,0,0,0,0,0,0,-1,1343,1128,0,0
126,-104,0,0,0,0,0,0,0,0,0,-1,1350,1128,0,0
133,-104,0,0,0,0,0,0,0,0,0,-1,1357,1128,0,0
140,-104,0,0,0,0,0,0,0,0,0,-1,1364,1128,0,0
147,-104,0,0,0,0,0,0,0,0,0,-1,1371,1128,0,0
154,-104,0,0,0,0,0,0,0,0,0,-1,1378,1128,0,0
161,-104,0,0,0,0,0,0,0,0,0,-1,1385,1128,0,0
168,-104,0,0,0,0,0,0,0,0,0,-1,1392,1128,0,0
175,-104,0,0,0,0,0,0,0,0,0,-1,1399,1128,0,0
182,-104,0,0,0,0,0,0,0,0,0,-1,1406,1128,0,0
189,-104,0,0,0,0,0,0,0,0,0,-1,1413,1128,0,0
196,-104,0,0,0,0,0,0,0,0,0,-1,1420,1128,0,0
203,-104,0,0,0,0,0,0,0,0,0,-1,1427,1128,0,0
210,-104,0,0,0,0,0,0,0,0,0,-1,1434,1128,0,0
217,-104,0,0,0,0,0,0,0,0,0,-1,1441,1128,0,0
224,-104,0,0,0,0,0,0,0,0,0,-1,1448,1128,0,0
231,-104,0,0,0,0,0,0,0,0,0,-1,1455,1128,0,0
238,-104,0,0,0,0,0,0,0,0,0,-1,1462,1128,0,0
245,-104,0,0,0,0,0,0,0,0,0,-1,1469,1128,0,0
252,-104,0,0,0,0,0,0,0,0,0,-1,1476,1128,0,0
259,-104,0,0,0,0,0,0,0,0,0,-1,1483,1128,0,0
266,-104,0,0,0,0,0,0,0,0,0,-1,1490,1128,0,0
273,-104,0,0,0,0,0,0,0,0,0,-1,1497,1128,0,0
280,-104,0,0,0,0,0,0,0,0,0,-1,1504,1128,0,0
287,-104,0,0,0,0,0,0,0,0,0,-1,1511,1128,0,0
294,-104,0,0,0,0,0,0,0,0,0,-1,1518,1128,0,0
301,-104,0,0,0,0,0,0,0,0,0,-1,1525,1128,0,0
308,-104,0,0,0,0,0,0,0,0,0,-1,1532,1128,0,0
315,-104,0,0,0,0,0,0,0,0,0,-1,1539,1128,0,0
322,-104,0,0,0,0,0,0,0,0,0,-1,1546,1128,0,0
329,-104,0,0,0,0,0,0,0,0,0,-1,1553,1128,0,0
336,-104,0,0,0,0,0,0,0,0,0,-1,1560,1128,0,0
343,-104,0,0,0,0,0,0,0,0,0,-1,1567,1128,0,0
350,-104,0,0,0,0,0,0,0,0,0,-1,1574,1128,0,0
357,-104,0,0,0,0,0,0,0,0,0,-1,1581,1128,0,0
364,-104,0,0,0,0,0,0,0,0,0,-1,1588,1128,0,0
371,-104,0,0,0,0,0,0,0,0,0,-1,1595,1128,0,0
378,-104,0,0,0,0,0,0,0,0,0,-1,1602,1128,0,0
385,-104,0,0,0,0,0,0,0,0,0,-1,1609,1128,0,0
392,-104,0,0,0,0,0,0,0,0,0,-1,1616,1128,0,0
399,-104,0,0,0,0,0,0,0,0,0,-1,1623,1128,0,0
406,-104,0,0,0,0,0,0,0,0,0,-1,1630,1128,0,0
413,-104,0,0,0,0,0,0,0,0,0,-1,1637,1128,0,0
420,-104,0,0,0,0,0,0,0,0,0,-1,1644,1128,0,0
427,-104,0,0,0,0,0,0,0,0,0,-1,1651,1128,0,0
434,-104,0,0,0,0,0,0,0,0,0,-1,1658,1128,0,0
441,-104,0,0,0,0,0,0,0,0,0,-1,1665,1128,0,0
448,-104,0,0,0,0,0,0,0,0,0,-1,1672,1128,0,0
455,-104,0,0,0,0,0,0,0,0,0,-1,1679,1128,0,0
462,-104,0,0,0,0,0,0,0,0,0,-1,1686,1128,0,0
469,-104,0,0,0,0,0,0,0,0,0,-1,1693,1128,0,0
476,-104,0,0,0,0,0,0,0,0,0,-1,1700,1128,0,0
483,-104,0,0,0,0,0,0,0,0,0,-1,1707,1128,0,0
490,-104,0,0,0,0,0,0,0,0,0,-1,1714,1128,0,0
497,-104,0,0,0,0,0,0,0,0,0,-1,1721,1128,0,0
504,-104,0,0,0,0,0,0,0,0,0,-1,1728,1128,0,0
511,-104,0,0,0,0,0,0,0,0,0,-1,1735,1128,0,0
518,-104,0,0,0,0,0,0,0,0,0,-1,1742,1128,0,0
525,-104,0,0,0,0,0,0,0,0,0,-1,1749,1128,0,0
532,-104,0,0,0,0,0,0,0,0,0,-1,1756,1128,0,0
539,-104,0,0,0,0,0,0,0,0,0,-1,1763,1128,0,0
546,-104,0,0,0,0,0,0,0,0,0,-1,1770,1128,0,0
553,-104,0,0,0,0,0,0,0,0,0,-1,1777,1128,0,0
560,-104,0,0,0,0,0,0,0,0,0,-1,1784,1128,0,0
567,-104,0,0,0,0,0,0,0,0,0,-1,1791,1128,0,0
574,-104,0,0,0,0,0,0,0,0,0,-1,1798,1128,0,0
581,-104,0,0,0,0,0,0,0,0,0,-1,1805,1128,0,0
588,-104,0,0,0,0,0,0,0,0,0,-1,1812,1128,0,0
595,-104,0,0,0,0,0,0,0,0,0,-1,1819,1128,0,0
602,-104,0,0,0,0,0,0,0,0,0,-1,1826,1128,0,0
609,-104,0,0,0,0,0,0,0,0,0,-1,1833,1128,0,0
616,-104,0,0,0,0,0,0,0,0,0,-1,1840,1128,0,0
623,-104,0,0,0,0,0,0,0,0,0,-1,1847,1128,0,0
630,-104,0,0,0,0,0,0,0,0,0,-1,1854,1128,0,0
637,-104,0,0,0,0,0,0,0,0,0,-1,1861,1128,0,0
644,-104,-0.00964355,0.139771,-0.000283991,-0.000245504,-0.000470181,0.000205827,-0.000735322,-0.805851,0.000571319,0.0321773,1868,1128,-0.00960916,-0.139782
651,-104,0.0231934,0.032959,-0.000551209,-8.42007e-05,-0.000291541,5.58196e-05,-0.000691229,-1.12305,0.000480508,0.0327047,1875,1128,0.0231729,-0.0329825
658,-104,-0.00146484,-0.0783691,-0.000505954,-8.69545e-05,-9.42874e-05,-6.67148e-05,-0.000526194,-1.35934,0.000330808,0.0357125,1882,1128,-0.00150207,0.0783772
665,-104,-0.0213623,-0.119019,-0.000378424,-0.00013762,3.17004e-05,-0.000133517,-0.000382527,1.44207,0.000224182,0.0355347,1889,1128,-0.0214016,0.119001
672,-104,0.0101318,0.0238037,-0.000275505,-0.000185723,0.00010915,-0.000112594,-0.000348635,0.980494,0.000205447,0.0347689,1896,1128,0.0101692,-0.023811
679,-104,-0.0352783,0.0736084,-0.000182322,-0.000227454,0.00014069,-6.23998e-05,-0.000347376,0.705877,0.000213841,0.0355494,1903,1128,-0.0352964,-0.0735932
686,-104,-0.0543213,0.0599365,-0.000122172,-0.000259746,0.000149108,-2.67491e-05,-0.000355169,0.569283,0.000228385,0.0330418,1910,1128,-0.0543011,-0.0599186
693,-104,-0.0484619,0.0494385,-0.000112731,-0.000272391,0.00014779,-2.45881e-05,-0.000360533,0.53777,0.000232593,0.0268137,1917,1128,-0.0485198,-0.049453
700,-104,-0.0808105,0.0222168,-0.000158661,-0.000249507,0.000145681,-5.14857e-05,-0.000356683,0.634276,0.00022262,0.0182358,1924,1128,-0.0808013,-0.0222738
707,-104,-0.0473633,0.0936279,-0.000109091,-0.000232949,0.000141899,-1.61961e-05,-0.000325844,0.579642,0.000212037,0.0159299,1931,1128,-0.047407,-0.0936117
714,-104,-0.0383301,0.0817871,-7.95639e-05,-0.000201028,0.000116813,-8.63882e-06,-0.000271953,0.545674,0.000178492,0.0200291,1938,1128,-0.0383242,-0.0818241
721,-104,-0.0700684,0.0689697,-0.000153254,-0.000149151,9.45046e-05,-5.66759e-05,-0.00024573,0.796251,0.000148576,0.0161461,1945,1128,-0.0701286,-0.0689144
728,-104,-0.0383301,0.0404053,-0.000198598,-0.000118123,0.000119896,-3.18924e-05,-0.000284828,0.947295,0.000180198,0.02067,1952,1128,-0.038384,-0.0404391
735,-104,-0.039917,0.034668,-0.00020863,-0.00013585,0.000263572,9.38316e-05,-0.000438312,0.853997,0.00032799,0.0197604,1959,1128,-0.0399373,-0.0346158
742,-104,-0.045166,0.0598145,-0.000330254,-4.90155e-05,0.000194817,5.06305e-05,-0.0004299,1.098,0.000304882,0.0127361,1966,1128,-0.0451747,-0.0597756
749,-104,-0.0748291,0.0778809,-0.000522739,0.000107528,-0.000350475,0.000263713,-0.000678925,-1.15157,0.000561556,0.0154029,1973,1128,-0.0747689,-0.0779224
756,-104,-0.0889893,0.065918,-0.000427088,0.000299285,-0.00137279,0.00135612,-0.00148392,-0.914716,0.00164025,0.0158845,1980,1128,-0.0889286,-0.0659648
763,-104,-0.0540771,0.0531006,-0.000171822,0.00127606,-0.00261602,0.00326646,-0.00216222,-0.920387,0.00315579,0.0134721,1987,1128,-0.0540466,-0.0531416
770,-104,-0.0469971,0.0611572,5.65055e-05,0.00202697,-0.00415215,0.00530918,-0.0032257,-0.901885,0.00497632,0.0102443,1994,1128,-0.046993,-0.0611402
777,-104,-0.0389404,0.0516357,0.000370859,0.0031678,-0.00632815,0.00825016,-0.0047115,-0.894146,0.00757581,0.0178456,2001,1128,-0.0389635,-0.0516484
784,-104,-0.109619,0.257202,0.000829164,0.00483031,-0.00927202,0.0123151,-0.00665566,-0.891651,0.0111141,0.0357736,2008,1128,-0.109652,-0.257186
791,-104,-0.227661,0.447388,0.00151355,0.00718314,-0.0131192,0.0177703,-0.00907359,-0.891803,0.0157671,0.0421834,2015,1128,-0.227642,-0.447447
798,-104,-0.265869,0.467163,0,0,0,0,0,0,0,-1,2022,1128,-0.265893,-0.467107
805,-104,0.621338,0.837769,0.00382412,0.0149226,-0.0239223,0.0339308,-0.0151841,-0.899367,0.0290369,0.0431212,2029,1128,0.621291,-0.837733
812,-104,0.463379,0.509155,0.00579737,0.021041,-0.0311164,0.0454555,-0.0186171,-0.905506,0.0380587,0.0465937,2036,1128,0.463429,-0.509152
-700,-111,0,0,0,0,0,0,0,0,0,-1,524,1135,0,0
-693,-111,0.324036,0.854614,0,0,0,0,0,0,0,-1,531,1135,0.324037,-0.854648
-686,-111,0.200378,1.21948,0,0,0,0,0,0,0,-1,538,1135,0.200402,-1.21943
-679,-111,0.312744,0.717163,-0.00700015,0.0109579,-0.0185919,0.0226255,-0.0186678,-1.01036,0.0238771,0.0470421,545,1135,0.312728,-0.717128
-672,-111,0.413879,0.0949707,-0.00149177,0.00953678,-0.0137066,0.0187967,-0.0107517,-0.976645,0.0172693,0.0455779,552,1135,0.413873,-0.0950217
-665,-111,0.272461,-0.37915,0.0016518,0.00806754,-0.00992563,0.0152908,-0.00557146,-0.941695,0.0124729,0.0457203,559,1135,0.27249,0.379197
-658,-111,0.337158,-0.684204,0.00321752,0.00663599,-0.00702792,0.0121595,-0.00230603,-0.904685,0.00897434,0.0426616,566,1135,0.337154,0.684175
-651,-111,0.337402,-0.943481,0,0,0,0,0,0,0,-1,573,1135,0.337427,0.943421
-644,-111,-0.0403442,0.112671,0.00356342,0.0041191,-0.00321582,0.00706906,0.000613464,-0.828491,0.00452211,0.0219827,580,1135,-0.0403448,-0.112671
-637,-111,-0.020813,0.0665283,0.0030931,0.00300363,-0.00208291,0.00513176,0.000964968,-0.774662,0.00314919,0.00826859,587,1135,-0.0207868,-0.0665194
-630,-111,-0.0330811,0.081543,0.0028952,0.00242845,-0.000926721,0.00361748,0.00170617,-0.662049,0.00208967,0.0119836,594,1135,-0.0330974,-0.081552
-623,-111,-0.0438843,0.0834961,0.00252079,0.00149166,-0.000227944,0.00256902,0.00144343,-0.208501,0.001487,0.0117162,601,1135,-0.0438962,-0.0835128
-616,-111,-0.0351563,0.0722656,0.00175917,0.000689411,-7.13196e-05,0.0017639,0.000684677,-0.0662779,0.00102685,0.0125528,608,1135,-0.035156,-0.0722302
-609,-111,-0.024231,0.0614014,0.000725595,0.000534639,0.000173292,0.000827971,0.000432263,0.533607,0.000478185,0.015071,615,1135,-0.0242071,-0.0613626
-602,-111,-0.0292969,0.0412598,5.30778e-06,0.000285774,0.000127957,0.000335379,-4.4297e-05,1.20097,0.00023972,0.0144779,622,1135,-0.0293136,-0.0412039
-595,-111,-0.0204468,0.0609131,5.47472e-05,0.000120641,5.08354e-05,0.000148272,2.71157e-05,1.07292,9.11639e-05,0.0116593,629,1135,-0.0204226,-0.0609319
-588,-111,-0.0296021,0.072998,0.000128328,0.000140818,-6.397e-05,0.000198847,7.0299e-05,-0.834057,0.000116435,0.0191739,636,1135,-0.0296042,-0.0729665
-581,-111,-0.0136108,0.0644531,0.00013691,0.000236676,-0.000153331,0.000348034,2.55519e-05,-0.942662,0.000223992,0.029536,643,1135,-0.0135986,-0.0645009
-574,-111,-0.0257568,0.0430908,0.00014311,0.000342079,-9.95467e-05,0.000383331,0.000101858,-1.17794,0.000229271,0.0382279,650,1135,-0.025756,-0.0431443
-567,-111,0.0186768,0.0661621,0.00012697,0.000469404,-0.000110357,0.000501888,9.44866e-05,-1.28453,0.000307966,0.0355386,657,1135,0.0186989,-0.0661533
-560,-111,0.00170898,0.180664,7.88059e-05,0.000634287,-0.000115466,0.000657333,5.57605e-05,-1.3738,0.000420868,0.0370024,664,1135,0.00173657,-0.180643
-553,-111,-0.13031,0.0262451,1.60764e-05,0.00082742,-9.06313e-05,0.000837421,6.07566e-06,-1.4609,0.000556266,0.0399539,671,1135,-0.130298,-0.0262312
-546,-111,-0.0930786,-0.207764,-8.15862e-05,0.00103564,1.8724e-06,0.00103564,-8.15894e-05,1.56912,0.000719168,0.0360128,678,1135,-0.0930734,0.207797
-539,-111,-0.00128174,-0.234741,-0.000216463,0.00125374,0.000220265,0.00128603,-0.000248754,1.42523,0.000951174,0.0374404,685,1135,-0.00128081,0.234767
-532,-111,-0.000976563,-0.14209,-0.000361038,0.00145743,0.000608949,0.00164251,-0.000546119,1.27573,0.00131539,0.0397193,692,1135,-0.000987439,0.142041
-525,-111,-0.0244141,0.0806885,-0.000631028,0.00164841,0.00140281,0.00231613,-0.00129875,1.12654,0.00211442,0.0383236,699,1135,-0.0244311,-0.0806409
-518,-111,0,0,0,0,0,0,0,0,0,-1,706,1135,0,0
-511,-111,0,0,0,0,0,0,0,0,0,-1,713,1135,0,0
-504,-111,0,0,0,0,0,0,0,0,0,-1,720,1135,0,0
-497,-111,0,0,0,0,0,0,0,0,0,-1,727,1135,0,0
-490,-111,0,0,0,0,0,0,0,0,0,-1,734,1135,0,0
-483,-111,0,0,0,0,0,0,0,0,0,-1,741,1135,0,0
-476,-111,0,0,0,0,0,0,0,0,0,-1,748,1135,0,0
-469,-111,0,0,0,0,0,0,0,0,0,-1,755,1135,0,0
-462,-111,0,0,0,0,0,0,0,0,0,-1,762,1135,0,0
-455,-111,0,0,0,0,0,0,0,0,0,-1,769,1135,0,0
-448,-111,0,0,0,0,0,0,0,0,0,-1,776,1135,0,0
-441,-111,0,0,0,0,0,0,0,0,0,-1,783,1135,0,0
-434,-111,0,0,0,0,0,0,0,0,0,-1,790,1135,0,0
-427,-111,0,0,0,0,0,0,0,0,0,-1,797,1135,0,0
-420,-111,0,0,0,0,0,0,0,0,0,-1,804,1135,0,0
-413,-111,0,0,0,0,0,0,0,0,0,-1,811,1135,0,0
-406,-111,0,0,0,0,0,0,0,0,0,-1,818,1135,0,0
-399,-111,0,0,0,0,0,0,0,0,0,-1,825,1135,0,0
-392,-111,0,0,0,0,0,0,0,0,0,-1,832,1135,0,0
-385,-111,0,0,0,0,0,0,0,0,0,-1,839,1135,0,0
-378,-111,0,0,0,0,0,0,0,0,0,-1,846,1135,0,0
-371,-111,0,0,0,0,0,0,0,0,0,-1,853,1135,0,0
-364,-111,0,0,0,0,0,0,0,0,0,-1,860,1135,0,0
-357,-111,0,0,0,0,0,0,0,0,0,-1,867,1135,0,0
-350,-111,0,0,0,0,0,0,0,0,0,-1,874,1135,0,0
-343,-111,0,0,0,0,0,0,0,0,0,-1,881,1135,0,0
-336,-111,0,0,0,0,0,0,0,0,0,-1,888,1135,0,0
-329,-111,0,0,0,0,0,0,0,0,0,-1,895,1135,0,0
-322,-111,0,0,0,0,0,0,0,0,0,-1,902,1135,0,0
-315,-111,0,0,0,0,0,0,0,0,0,-1,909,1135,0,0
-308,-111,0,0,0,0,0,0,0,0,0,-1,916,1135,0,0
-301,-111,0,0,0,0,0,0,0,0,0,-1,923,1135,0,0
-294,-111,0,0,0,0,0,0,0,0,0,-1,930,1135,0,0
-287,-111,0,0,0,0,0,0,0,0,0,-1,937,1135,0,0
-280,-111,0,0,0,0,0,0,0,0,0,-1,944,1135,0,0
-273,-111,0,0,0,0,0,0,0,0,0,-1,951,1135,0,0
-266,-111,0,0,0,0,0,0,0,0,0,-1,958,1135,0,0
-259,-111,0,0,0,0,0,0,0,0,0,-1,965,1135,0,0
-252,-111,0,0,0,0,0,0,0,0,0,-1,972,1135,0,0
-245,-111,0,0,0,0,0,0,0,0,0,-1,979,1135,0,0
-238,-111,0,0,0,0,0,0,0,0,0,-1,986,1135,0,0
-231,-111,0,0,0,0,0,0,0,0,0,-1,993,1135,0,0
-224,-111,0,0,0,0,0,0,0,0,0,-1,1000,1135,0,0
-217,-111,0,0,0,0,0,0,0,0,0,-1,1007,1135,0,0
-210,-111,0,0,0,0,0,0,0,0,0,-1,1014,1135,0,0
-203,-111,0,0,0,0,0,0,0,0,0,-1,1021,1135,0,0
-196,-111,0,0,0,0,0,0,0,0,0,-1,1028,1135,0,0
-189,-111,0,0,0,0,0,0,0,0,0,-1,1035,1135,0,0
-182,-111,0,0,0,0,0,0,0,0,0,-1,1042,1135,0,0
-175,-111,0,0,0,0,0,0,0,0,0,-1,1049,1135,0,0
-168,-111,0,0,0,0,0,0,0,0,0,-1,1056,1135,0,0
-161,-111,0,0,0,0,0,0,0,0,0,-1,1063,1135,0,0
-154,-111,0,0,0,0,0,0,0,0,0,-1,1070,1135,0,0
-147,-111,0,0,0,0,0,0,0,0,0,-1,1077,1135,0,0
-140,-111,0,0,0,0,0,0,0,0,0,-1,1084,1135,0,0
-133,-111,0,0,0,0,0,0,0,0,0,-1,1091,1135,0,0
-126,-111,0,0,0,0,0,0,0,0,0,-1,1098,1135,0,0
-119,-111,0,0,0,0,0,0,0,0,0,-1,1105,1135,0,0
-112,-111,0,0,0,0,0,0,0,0,0,-1,1112,1135,0,0
-105,-111,0,0,0,0,0,0,0,0,0,-1,1119,1135,0,0
-98,-111,0,0,0,0,0,0,0,0,0,-1,1126,1135,0,0
-91,-111,0,0,0,0,0,0,0,0,0,-1,1133,1135,0,0
-84,-111,0,0,0,0,0,0,0,0,0,-1,1140,1135,0,0
-77,-111,0,0,0,0,0,0,0,0,0,-1,1147,1135,0,0
-70,-111,0,0,0,0,0,0,0,0,0,-1,1154,1135,0,0
-63,-111,0,0,0,0,0,0,0,0,0,-1,1161,1135,0,0
-56,-111,0,0,0,0,0,0,0,0,0,-1,1168,1135,0,0
-49,-111,0,0,0,0,0,0,0,0,0,-1,1175,1135,0,0
-42,-111,0,0,0,0,0,0,0,0,0,-1,1182,1135,0,0
-35,-111,0,0,0,0,0,0,0,0,0,-1,1189,1135,0,0
-28,-111,0,0,0,0,0,0,0,0,0,-1,1196,1135,0,0
-21,-111,0,0,0,0,0,0,0,0,0,-1,1203,1135,0,0
-14,-111,0,0,0,0,0,0,0,0,0,-1,1210,1135,0,0
-7,-111,0,0,0,0,0,0,0,0,0,-1,1217,1135,0,0
0,-111,0,0,0,0,0,0,0,0,0,-1,1224,1135,0,0
7,-111,0,0,0,0,0,0,0,0,0,-1,1231,1135,0,0
14,-111,0,0,0,0,0,0,0,0,0,-1,1238,1135,0,0
21,-111,0,0,0,0,0,0,0,0,0,-1,1245,1135,0,0
28,-111,0,0,0,0,0,0,0,0,0,-1,1252,1135,0,0
35,-111,0,0,0,0,0,0,0,0,0,-1,1259,1135,0,0
42,-111,0,0,0,0,0,0,0,0,0,-1,1266,1135,0,0
49,-111,0,0,0,0,0,0,0,0,0,-1,1273,1135,0,0
56,-111,0,0,0,0,0,0,0,0,0,-1,1280,1135,0,0
63,-111,0,0,0,0,0,0,0,0,0,-1,1287,1135,0,0
70,-111,0,0,0,0,0,0,0,0,0,-1,1294,1135,0,0
77,-111,0,0,0,0,0,0,0,0,0,-1,1301,1135,0,0
84,-111,0,0,0,0,0,0,0,0,0,-1,1308,1135,0,0
91,-111,0,0,0,0,0,0,0,0,0,-1,1315,1135,0,0
98,-111,0,0,0,0,0,0,0,0,0,-1,1322,1135,0,0
105,-111,0,0,0,0,0,0,0,0,0,-1,1329,1135,0,0
112,-111,0,0,0,0,0,0,0,0,0,-1,1336,1135,0,0
119,-111,0,0,0,0,0,0,0,0,0,-1,1343,1135,0,0
126,-111,0,0,0,0,0,0,0,0,0,-1,1350,1135,0,0
133,-111,0,0,0,0,0,0,0,0,0,-1,1357,1135,0,0
140,-111,0,0,0,0,0,0,0,0,0,-1,1364,1135,0,0
147,-111,0,0,0,0,0,0,0,0,0,-1,1371,1135,0,0
154,-111,0,0,0,0,0,0,0,0,0,-1,1378,1135,0,0
161,-111,0,0,0,0,0,0,0,0,0,-1,1385,1135,0,0
168,-111,0,0,0,0,0,0,0,0,0,-1,1392,1135,0,0
175,-111,0,0,0,0,0,0,0,0,0,-1,1399,1135,0,0
182,-111,0,0,0,0,0,0,0,0,0,-1,1406,1135,0,0
189,-111,0,0,0,0,0,0,0,0,0,-1,1413,1135,0,0
196,-111,0,0,0,0,0,0,0,0,0,-1,1420,1135,0,0
203,-111,0,0,0,0,0,0,0,0,0,-1,1427,1135,0,0
210,-111,0,0,0,0,0,0,0,0,0,-1,1434,1135,0,0
217,-111,0,0,0,0,0,0,0,0,0,-1,1441,1135,0,0
224,-111,0,0,0,0,0,0,0,0,0,-1,1448,1135,0,0
231,-111,0,0,0,0,0,0,0,0,0,-1,1455,1135,0,0
238,-111,0,0,0,0,0,0,0,0,0,-1,1462,1135,0,0
245,-111,0,0,0,0,0,0,0,0,0,-1,1469,1135,0,0
252,-111,0,0,0,0,0,0,0,0,0,-1,1476,1135,0,0
259,-111,0,0,0,0,0,0,0,0,0,-1,1483,1135,0,0
266,-111,0,0,0,0,0,0,0,0,0,-1,1490,1135,0,0
273,-111,0,0,0,0,0,0,0,0,0,-1,1497,1135,0,0
280,-111,0,0,0,0,0,0,0,0,0,-1,1504,1135,0,0
287,-111,0,0,0,0,0,0,0,0,0,-1,1511,1135,0,0
294,-111,0,0,0,0,0,0,0,0,0,-1,1518,1135,0,0
301,-111,0,0,0,0,0,0,0,0,0,-1,1525,1135,0,0
308,-111,0,0,0,0,0,0,0,0,0,-1,1532,1135,0,0
315,-111,0,0,0,0,0,0,0,0,0,-1,1539,1135,0,0
322,-111,0,0,0,0,0,0,0,0,0,-1,1546,1135,0,0
329,-111,0,0,0,0,0,0,0,0,0,-1,1553,1135,0,0
336,-111,0,0,0,0,0,0,0,0,0,-1,1560,1135,0,0
343,-111,0,0,0,0,0,0,0,0,0,-1,1567,1135,0,0
350,-111,0,0,0,0,0,0,0,0,0,-1,1574,1135,0,0
357,-111,0,0,0,0,0,0,0,0,0,-1,1581,1135,0,0
364,-111,0,0,0,0,0,0,0,0,0,-1,1588,1135,0,0
371,-111,0,0,0,0,0,0,0,0,0,-1,1595,1135,0,0
378,-111,0,0,0,0,0,0,0,0,0,-1,1602,1135,0,0
385,-111,0,0,0,0,0,0,0,0,0,-1,1609,1135,0,0
392,-111,0,0,0,0,0,0,0,0,0,-1,1616,1135,0,0
399,-111,0,0,0,0,0,0,0,0,0,-1,1623,1135,0,0
406,-111,0,0,0,0,0,0,0,0,0,-1,1630,1135,0,0
413,-111,0,0,0,0,0,0,0,0,0,-1,1637,1135,0,0
420,-111,0,0,0,0,0,0,0,0,0,-1,1644,1135,0,0
427,-111,0,0,0,0,0,0,0,0,0,-1,1651,1135,0,0
434,-111,0,0,0,0,0,0,0,0,0,-1,1658,1135,0,0
441,-111,0,0,0,0,0,0,0,0,0,-1,1665,1135,0,0
448,-111,0,0,0,0,0,0,0,0,0,-1,1672,1135,0,0
455,-111,0,0,0,0,0,0,0,0,0,-1,1679,1135,0,0
462,-111,0,0,0,0,0,0,0,0,0,-1,1686,1135,0,0
469,-111,0,0,0,0,0,0,0,0,0,-1,1693,1135,0,0
476,-111,0,0,0,0,0,0,0,0,0,-1,1700,1135,0,0
483,-111,0,0,0,0,0,0,0,0,0,-1,1707,1135,0,0
490,-111,0,0,0,0,0,0,0,0,0,-1,1714,1135,0,0
497,-111,0,0,0,0,0,0,0,0,0,-1,1721,1135,0,0
504,-111,0,0,0,0,0,0,0,0,0,-1,1728,1135,0,0
511,-111,0,0,0,0,0,0,0,0,0,-1,1735,1135,0,0
518,-111,0,0,0,0,0,0,0,0,0,-1,1742,1135,0,0
525,-111,0,0,0,0,0,0,0,0,0,-1,1749,1135,0,0
532,-111,0,0,0,0,0,0,0,0,0,-1,1756,1135,0,0
539,-111,0,0,0,0,0,0,0,0,0,-1,1763,1135,0,0
546,-111,0,0,0,0,0,0,0,0,0,-1,1770,1135,0,0
553,-111,0,0,0,0,0,0,0,0,0,-1,1777,1135,0,0
560,-111,0,0,0,0,0,0,0,0,0,-1,1784,1135,0,0
567,-111,0,0,0,0,0,0,0,0,0,-1,1791,1135,0,0
574,-111,0,0,0,0,0,0,0,0,0,-1,1798,1135,0,0
581,-111,0,0,0,0,0,0,0,0,0,-1,1805,1135,0,0
588,-111,0,0,0,0,0,0,0,0,0,-1,1812,1135,0,0
595,-111,0,0,0,0,0,0,0,0,0,-1,1819,1135,0,0
602,-111,0,0,0,0,0,0,0,0,0,-1,1826,1135,0,0
609,-111,0,0,0,0,0,0,0,0,0,-1,1833,1135,0,0
616,-111,0,0,0,0,0,0,0,0,0,-1,1840,1135,0,0
623,-111,0,0,0,0,0,0,0,0,0,-1,1847,1135,0,0
630,-111,0,0,0,0,0,0,0,0,0,-1,1854,1135,0,0
637,-111,0,0,0,0,0,0,0,0,0,-1,1861,1135,0,0
644,-111,0.0439453,0.110352,0.000254828,-0.000518801,0.000145578,0.000281316,-0.000545289,0.179977,0.000485284,0.0347552,1868,1135,0.0439862,-0.110381
651,-111,0.0689697,0.0635986,-0.000161926,-0.000386367,0.000185144,-5.7648e-05,-0.000490646,0.512943,0.000309675,0.0353014,1875,1135,0.0689676,-0.0636475
658,-111,0.0856934,0.00134277,-0.000195933,-0.000360573,0.000264867,-8.88365e-07,-0.000555618,0.634731,0.000370116,0.0378424,1882,1135,0.0857,-0.00139103
665,-111,0.106934,0.00012207,-0.000149623,-0.000357969,0.000288646,5.30734e-05,-0.000560665,0.612221,0.000392665,0.0369355,1889,1135,0.106875,-0.000123297
672,-111,0.0947266,0.0147705,-0.000117434,-0.000352284,0.000284395,7.28244e-05,-0.000542542,0.589613,0.000388253,0.0378782,1896,1135,0.0947211,-0.0148074
679,-111,-0.0045166,0.0294189,-7.74587e-05,-0.000344901,0.000253084,7.50589e-05,-0.000497419,0.542356,0.000359255,0.0362066,1903,1135,-0.0045325,-0.0294509
686,-111,-0.0496826,0.119629,-6.43962e-05,-0.000337708,0.000212291,5.14204e-05,-0.000453524,0.499425,0.000320866,0.0318351,1910,1135,-0.0497222,-0.119596
693,-111,-0.0693359,0.150635,-9.03515e-05,-0.000318225,0.000170376,6.74409e-07,-0.00040925,0.490682,0.000273059,0.0277676,1917,1135,-0.0693062,-0.15059
700,-111,-0.0827637,0.0585938,-0.000172188,-0.000278607,0.000133128,-8.20298e-05,-0.000368765,0.595278,0.000223574,0.0181244,1924,1135,-0.0828079,-0.058633
707,-111,-0.0192871,0.141846,-0.000151191,-0.000242636,0.000104155,-8.31646e-05,-0.000310662,0.578569,0.000185701,0.023042,1931,1135,-0.0193409,-0.141886
714,-111,-0.0360107,0.0864258,-0.000127216,-0.000194502,6.94306e-05,-8.37071e-05,-0.000238011,0.559792,0.000139416,0.0134869,1938,1135,-0.0359808,-0.0864824
721,-111,-0.0494385,0.0683594,-0.000204286,-0.000144647,5.07823e-05,-0.000115576,-0.000233357,1.05088,0.000134731,0.0105329,1945,1135,-0.0494375,-0.0684143
728,-111,-0.0264893,0.0343018,-0.000264259,-0.000127674,9.36783e-05,-8.00376e-05,-0.000311895,1.10036,0.000187049,0.0147165,1952,1135,-0.0265502,-0.0343573
735,-111,-0.0290527,0.0262451,-0.00029841,-0.000159601,0.000260835,4.09056e-05,-0.000498917,0.915427,0.000347051,0.0151896,1959,1135,-0.0290588,-0.0262034
742,-111,-0.0450439,0.0662842,-0.000480203,-9.84081e-05,0.000185647,-2.30229e-05,-0.000555588,1.18507,0.000362961,0.0107551,1966,1135,-0.0450874,-0.0662875
749,-111,-0.0701904,0.0958252,-0.000684118,6.00085e-05,-0.000444487,0.0002676,-0.000891709,-1.13387,0.000700912,0.0137833,1973,1135,-0.0701518,-0.0958455
756,-111,-0.0860596,0.0957031,-0.000685263,0.000257294,-0.00157795,0.00143284,-0.00186081,-0.930514,0.00190693,0.0148032,1980,1135,-0.0860068,-0.0957242
763,-111,-0.0583496,0.0726318,-0.000615022,0.00140893,-0.00297177,0.0035363,-0.00274239,-0.949505,0.00363465,0.0124486,1987,1135,-0.0583866,-0.0726252
770,-111,-0.0534668,0.0847168,-0.00055148,0.00230721,-0.00472799,0.00581719,-0.00406146,-0.932188,0.00573339,0.00982916,1994,1135,-0.0535056,-0.0847497
777,-111,-0.0533447,0.0906982,-0.000476197,0.00368224,-0.00723412,0.00913002,-0.00592398,-0.925335,0.00875688,0.0220163,2001,1135,-0.053298,-0.0907288
784,-111,0.03125,0.210205,-0.000326753,0.00571178,-0.010641,0.0137535,-0.00836851,-0.923635,0.0128977,0.0379186,2008,1135,0.0312786,-0.210252
791,-111,-0.219604,0.422241,-3.43737e-05,0.00862138,-0.0151117,0.0200128,-0.0114258,-0.924861,0.0183753,0.0422817,2015,1135,-0.219563,-0.42228
798,-111,-0.532593,0.02771,0.000427772,0.0127134,-0.0207774,0.028237,-0.0150958,-0.929128,0.0253988,0.0466186,2022,1135,-0.532536,-0.0277673
805,-111,-0.639038,-0.200073,0,0,0,0,0,0,0,-1,2029,1135,-0.639022,0.200093
812,-111,-0.0759277,-0.171143,0,0,0,0,0,0,0,-1,2036,1135,-0.0759752,0.17111
-700,-118,0,0,0,0,0,0,0,0,0,-1,524,1142,0,0
-693,-118,0.0465088,0.845459,0,0,0,0,0,0,0,-1,531,1142,0.0465261,-0.845453
-686,-118,-1.16583,-0.0725098,0,0,0,0,0,0,0,-1,538,1142,-1.1658,0.0724562
-679,-118,0.355835,-0.0430908,0,0,0,0,0,0,0,-1,545,1142,0.355829,0.0430827
-672,-118,-0.576233,0.373047,0.00130881,0.0115947,-0.0123606,0.0198397,-0.00693611,-0.982542,0.0160462,0.0430593,552,1142,-0.576208,-0.373085
-665,-118,0.356628,-0.984985,0.00454308,0.00968933,-0.00885279,0.0163354,-0.00210295,-0.92683,0.0116546,0.0455895,559,1142,0.35665,0.984934
-658,-118,0.568115,-0.783569,0.00591762,0.00785323,-0.00619245,0.013153,0.000617801,-0.862915,0.00857019,0.0422167,566,1142,0.568108,0.783548
-651,-118,0.699219,-0.735229,0,0,0,0,0,0,0,-1,573,1142,0.699201,0.735179
-644,-118,-0.0221558,0.0638428,0.0055086,0.00470644,-0.00274699,0.00788363,0.00233141,-0.712907,0.00467652,0.0245948,580,1142,-0.0221447,-0.0638537
-637,-118,-0.0150757,0.074585,0.00461591,0.00340474,-0.00174298,0.00585552,0.00216514,-0.618201,0.0034187,0.0132773,587,1142,-0.0150843,-0.0745327
-630,-118,-0.0300293,0.0689697,0.00414523,0.00264393,-0.000744328,0.00445169,0.00233746,-0.390585,0.00257126,0.0151331,594,1142,-0.0300475,-0.068917
-623,-118,-0.0369263,0.0611572,0.0034292,0.00149894,-9.86458e-05,0.00343423,0.00149391,-0.050928,0.00198833,0.0137659,601,1142,-0.0368994,-0.0611857
-616,-118,-0.0279541,0.0517578,0.00231484,0.00064535,-1.23529e-05,0.00231493,0.000645258,-0.00739866,0.00137946,0.013199,608,1142,-0.0279808,-0.0517652
-609,-118,-0.0162964,0.0532227,0.00095436,0.000458644,0.000179484,0.00101252,0.000400482,0.313372,0.000588818,0.0133285,615,1142,-0.0163157,-0.053184
-602,-118,-0.0343628,0.0484619,5.41717e-05,0.000273454,8.74704e-05,0.000304071,2.3555e-05,1.2341,0.000195336,0.0127385,622,1142,-0.0343634,-0.0485107
-595,-118,-0.0438232,0.0574951,2.73808e-05,0.000131033,-5.5984e-06,0.000131335,2.70793e-05,-1.51699,8.00712e-05,0.00982495,629,1142,-0.0438428,-0.057474
-588,-118,-0.0117188,0.0744629,7.59582e-05,0.000176185,-0.000136179,0.000271179,-1.90354e-05,-0.961707,0.000187453,0.0140905,636,1142,-0.0117275,-0.0744909
-581,-118,0.0110474,0.0667725,7.80535e-05,0.000282283,-0.000224486,0.000426788,-6.64518e-05,-0.998851,0.000309067,0.0335768,643,1142,0.0110296,-0.0668028
-574,-118,-0.0343628,0.109253,7.12708e-05,0.000397176,-0.000146321,0.000453229,1.52179e-05,-1.20496,0.00029721,0.0394736,650,1142,-0.0343888,-0.10926
-567,-118,0.00720215,0.0793457,4.14059e-05,0.000544329,-0.000120677,0.000571786,1.39482e-05,-1.34708,0.000376628,0.0391999,657,1142,0.00722379,-0.0793094
-560,-118,0.0557861,0.0802002,-1.12271e-05,0.000724375,-8.17591e-05,0.000733353,-2.02047e-05,-1.46143,0.000495774,0.0349212,664,1142,0.0557575,-0.0801693
-553,-118,0.0130615,0.0290527,-6.8096e-05,0.000925617,1.19673e-05,0.000925761,-6.824e-05,1.55876,0.000641133,0.0359566,671,1142,0.0130818,-0.0291041
-546,-118,0.0518799,-0.0126953,-0.000144717,0.00113137,0.000198982,0.00116168,-0.000175025,1.41964,0.000838903,0.0360041,678,1142,0.0518739,0.0126631
-539,-118,-0.0877075,0.0526123,-0.000244434,0.00133221,0.000544427,0.00150193,-0.000414159,1.2686,0.00116416,0.0381772,685,1142,-0.0876883,-0.0526676
-532,-118,-0.142029,0.020752,-0.000334335,0.00149868,0.00109909,0.00201326,-0.000848909,1.13293,0.00169744,0.0391413,692,1142,-0.142016,-0.0207994
-525,-118,-0.147949,0.0788574,-0.000499833,0.00163221,0.00208014,0.00290358,-0.0017712,1.02219,0.00272525,0.0398787,699,1142,-0.147974,-0.078831
-518,-118,0,0,0,0,0,0,0,0,0,-1,706,1142,0,0
-511,-118,0,0,0,0,0,0,0,0,0,-1,713,1142,0,0
-504,-118,0,0,0,0,0,0,0,0,0,-1,720,1142,0,0
-497,-118,0,0,0,0,0,0,0,0,0,-1,727,1142,0,0
-490,-118,0,0,0,0,0,0,0,0,0,-1,734,1142,0,0
-483,-118,0,0,0,0,0,0,0,0,0,-1,741,1142,0,0
-476,-118,0,0,0,0,0,0,0,0,0,-1,748,1142,0,0
-469,-118,0,0,0,0,0,0,0,0,0,-1,755,1142,0,0
-462,-118,0,0,0,0,0,0,0,0,0,-1,762,1142,0,0
-455,-118,0,0,0,0,0,0,0,0,0,-1,769,1142,0,0
-448,-118,0,0,0,0,0,0,0,0,0,-1,776,1142,0,0
-441,-118,0,0,0,0,0,0,0,0,0,-1,783,1142,0,0
-434,-118,0,0,0,0,0,0,0,0,0,-1,790,1142,0,0
-427,-118,0,0,0,0,0,0,0,0,0,-1,797,1142,0,0
-420,-118,0,0,0,0,0,0,0,0,0,-1,804,1142,0,0
-413,-118,0,0,0,0,0,0,0,0,0,-1,811,1142,0,0
-406,-118,0,0,0,0,0,0,0,0,0,-1,818,1142,0,0
-399,-118,0,0,0,0,0,0,0,0,0,-1,825,1142,0,0
-392,-118,0,0,0,0,0,0,0,0,0,-1,832,1142,0,0
-385,-118,0,0,0,0,0,0,0,0,0,-1,839,1142,0,0
-378,-118,0,0,0,0,0,0,0,0,0,-1,846,1142,0,0
-371,-118,0,0,0,0,0,0,0,0,0,-1,853,1142,0,0
-364,-118,0,0,0,0,0,0,0,0,0,-1,860,1142,0,0
-357,-118,0,0,0,0,0,0,0,0,0,-1,867,1142,0,0
-350,-118,0,0,0,0,0,0,0,0,0,-1,874,1142,0,0
-343,-118,0,0,0,0,0,0,0,0,0,-1,881,1142,0,0
-336,-118,0,0,0,0,0,0,0,0,0,-1,888,1142,0,0
-329,-118,0,0,0,0,0,0,0,0,0,-1,895,1142,0,0
-322,-118,0,0,0,0,0,0,0,0,0,-1,902,1142,0,0
-315,-118,0,0,0,0,0,0,0,0,0,-1,909,1142,0,0
-308,-118,0,0,0,0,0,0,0,0,0,-1,916,1142,0,0
-301,-118,0,0,0,0,0,0,0,0,0,-1,923,1142,0,0
-294,-118,0,0,0,0,0,0,0,0,0,-1,930,1142,0,0
-287,-118,0,0,0,0,0,0,0,0,0,-1,937,1142,0,0
-280,-118,0,0,0,0,0,0,0,0,0,-1,944,1142,0,0
-273,-118,0,0,0,0,0,0,0,0,0,-1,951,1142,0,0
-266,-118,0,0,0,0,0,0,0,0,0,-1,958,1142,0,0
-259,-118,0,0,0,0,0,0,0,0,0,-1,965,1142,0,0
-252,-118,0,0,0,0,0,0,0,0,0,-1,972,1142,0,0
-245,-118,0,0,0,0,0,0,0,0,0,-1,979,1142,0,0
-238,-118,0,0,0,0,0,0,0,0,0,-1,986,1142,0,0
-231,-118,0,0,0,0,0,0,0,0,0,-1,993,1142,0,0
-224,-118,0,0,0,0,0,0,0,0,0,-1,1000,1142,0,0
-217,-118,0,0,0,0,0,0,0,0,0,-1,1007,1142,0,0
-210,-118,0,0,0,0,0,0,0,0,0,-1,1014,1142,0,0
-203,-118,0,0,0,0,0,0,0,0,0,-1,1021,1142,0,0
-196,-118,0,0,0,0,0,0,0,0,0,-1,1028,1142,0,0
-189,-118,0,0,0,0,0,0,0,0,0,-1,1035,1142,0,0
-182,-118,0,0,0,0,0,0,0,0,0,-1,1042,1142,0,0
-175,-118,0,0,0,0,0,0,0,0,0,-1,1049,1142,0,0
-168,-118,0,0,0,0,0,0,0,0,0,-1,1056,1142,0,0
-161,-118,0,0,0,0,0,0,0,0,0,-1,1063,1142,0,0
-154,-118,0,0,0,0,0,0,0,0,0,-1,1070,1142,0,0
-147,-118,0,0,0,0,0,0,0,0,0,-1,1077,1142,0,0
-140,-118,0,0,0,0,0,0,0,0,0,-1,1084,1142,0,0
-133,-118,0,0,0,0,0,0,0,0,0,-1,1091,1142,0,0
-126,-118,0,0,0,0,0,0,0,0,0,-1,1098,1142,0,0
-119,-118,0,0,0,0,0,0,0,0,0,-1,1105,1142,0,0
-112,-118,0,0,0,0,0,0,0,0,0,-1,1112,1142,0,0
-105,-118,0,0,0,0,0,0,0,0,0,-1,1119,1142,0,0
-98,-118,0,0,0,0,0,0,0,0,0,-1,1126,1142,0,0
-91,-118,0,0,0,0,0,0,0,0,0,-1,1133,1142,0,0
-84,-118,0,0,0,0,0,0,0,0,0,-1,1140,1142,0,0
-77,-118,0,0,0,0,0,0,0,0,0,-1,1147,1142,0,0
-70,-118,0,0,0,0,0,0,0,0,0,-1,1154,1142,0,0
-63,-118,0,0,0,0,0,0,0,0,0,-1,1161,1142,0,0
-56,-118,0,0,0,0,0,0,0,0,0,-1,1168,1142,0,0
-49,-118,0,0,0,0,0,0,0,0,0,-1,1175,1142,0,0
-42,-118,0,0,0,0,0,0,0,0,0,-1,1182,1142,0,0
-35,-118,0,0,0,0,0,0,0,0,0,-1,1189,1142,0,0
-28,-118,0,0,0,0,0,0,0,0,0,-1,1196,1142,0,0
-21,-118,0,0,0,0,0,0,0,0,0,-1,1203,1142,0,0
-14,-118,0,0,0,0,0,0,0,0,0,-1,1210,1142,0,0
-7,-118,0,0,0,0,0,0,0,0,0,-1,1217,1142,0,0
0,-118,0,0,0,0,0,0,0,0,0,-1,1224,1142,0,0
7,-118,0,0,0,0,0,0,0,0,0,-1,1231,1142,0,0
14,-118,0,0,0,0,0,0,0,0,0,-1,1238,1142,0,0
21,-118,0,0,0,0,0,0,0,0,0,-1,1245,1142,0,0
28,-118,0,0,0,0,0,0,0,0,0,-1,1252,1142,0,0
35,-118,0,0,0,0,0,0,0,0,0,-1,1259,1142,0,0
42,-118,0,0,0,0,0,0,0,0,0,-1,1266,1142,0,0
49,-118,0,0,0,0,0,0,0,0,0,-1,1273,1142,0,0
56,-118,0,0,0,0,0,0,0,0,0,-1,1280,1142,0,0
63,-118,0,0,0,0,0,0,0,0,0,-1,1287,1142,0,0
70,-118,0,0,0,0,0,0,0,0,0,-1,1294,1142,0,0
77,-118,0,0,0,0,0,0,0,0,0,-1,1301,1142,0,0
84,-118,0,0,0,0,0,0,0,0,0,-1,1308,1142,0,0
91,-118,0,0,0,0,0,0,0,0,0,-1,1315,1142,0,0
98,-118,0,0,0,0,0,0,0,0,0,-1,1322,1142,0,0
105,-118,0,0,0,0,0,0,0,0,0,-1,1329,1142,0,0
112,-118,0,0,0,0,0,0,0,0,0,-1,1336,1142,0,0
119,-118,0,0,0,0,0,0,0,0,0,-1,1343,1142,0,0
126,-118,0,0,0,0,0,0,0,0,0,-1,1350,1142,0,0
133,-118,0,0,0,0,0,0,0,0,0,-1,1357,1142,0,0
140,-118,0,0,0,0,0,0,0,0,0,-1,1364,1142,0,0
147,-118,0,0,0,0,0,0,0,0,0,-1,1371,1142,0,0
154,-118,0,0,0,0,0,0,0,0,0,-1,1378,1142,0,0
161,-118,0,0,0,0,0,0,0,0,0,-1,1385,1142,0,0
168,-118,0,0,0,0,0,0,0,0,0,-1,1392,1142,0,0
175,-118,0,0,0,0,0,0,0,0,0,-1,1399,1142,0,0
182,-118,0,0,0,0,0,0,0,0,0,-1,1406,1142,0,0
189,-118,0,0,0,0,0,0,0,0,0,-1,1413,1142,0,0
196,-118,0,0,0,0,0,0,0,0,0,-1,1420,1142,0,0
203,-118,0,0,0,0,0,0,0,0,0,-1,1427,1142,0,0
210,-118,0,0,0,0,0,0,0,0,0,-1,1434,1142,0,0
217,-118,0,0,0,0,0,0,0,0,0,-1,1441,1142,0,0
224,-118,0,0,0,0,0,0,0,0,0,-1,1448,1142,0,0
231,-118,0,0,0,0,0,0,0,0,0,-1,1455,1142,0,0
238,-118,0,0,0,0,0,0,0,0,0,-1,1462,1142,0,0
245,-118,0,0,0,0,0,0,0,0,0,-1,1469,1142,0,0
252,-118,0,0,0,0,0,0,0,0,0,-1,1476,1142,0,0
259,-118,0,0,0,0,0,0,0,0,0,-1,1483,1142,0,0
266,-118,0,0,0,0,0,0,0,0,0,-1,1490,1142,0,0
273,-118,0,0,0,0,0,0,0,0,0,-1,1497,1142,0,0
280,-118,0,0,0,0,0,0,0,0,0,-1,1504,1142,0,0
287,-118,0,0,0,0,0,0,0,0,0,-1,1511,1142,0,0
294,-118,0,0,0,0,0,0,0,0,0,-1,1518,1142,0,0
301,-118,0,0,0,0,0,0,0,0,0,-1,1525,1142,0,0
308,-118,0,0,0,0,0,0,0,0,0,-1,1532,1142,0,0
315,-118,0,0,0,0,0,0,0,0,0,-1,1539,1142,0,0
322,-118,0,0,0,0,0,0,0,0,0,-1,1546,1142,0,0
329,-118,0,0,0,0,0,0,0,0,0,-1,1553,1142,0,0
336,-118,0,0,0,0,0,0,0,0,0,-1,1560,1142,0,0
343,-118,0,0,0,0,0,0,0,0,0,-1,1567,1142,0,0
350,-118,0,0,0,0,0,0,0,0,0,-1,1574,1142,0,0
357,-118,0,0,0,0,0,0,0,0,0,-1,1581,1142,0,0
364,-118,0,0,0,0,0,0,0,0,0,-1,1588,1142,0,0
371,-118,0,0,0,0,0,0,0,0,0,-1,1595,1142,0,0
378,-118,0,0,0,0,0,0,0,0,0,-1,1602,1142,0,0
385,-118,0,0,0,0,0,0,0,0,0,-1,1609,1142,0,0
392,-118,0,0,0,0,0,0,0,0,0,-1,1616,1142,0,0
399,-118,0,0,0,0,0,0,0,0,0,-1,1623,1142,0,0
406,-118,0,0,0,0,0,0,0,0,0,-1,1630,1142,0,0
413,-118,0,0,0,0,0,0,0,0,0,-1,1637,1142,0,0
420,-118,0,0,0,0,0,0,0,0,0,-1,1644,1142,0,0
427,-118,0,0,0,0,0,0,0,0,0,-1,1651,1142,0,0
434,-118,0,0,0,0,0,0,0,0,0,-1,1658,1142,0,0
441,-118,0,0,0,0,0,0,0,0,0,-1,1665,1142,0,0
448,-118,0,0,0,0,0,0,0,0,0,-1,1672,1142,0,0
455,-118,0,0,0,0,0,0,0,0,0,-1,1679,1142,0,0
462,-118,0,0,0,0,0,0,0,0,0,-1,1686,1142,0,0
469,-118,0,0,0,0,0,0,0,0,0,-1,1693,1142,0,0
476,-118,0,0,0,0,0,0,0,0,0,-1,1700,1142,0,0
483,-118,0,0,0,0,0,0,0,0,0,-1,1707,1142,0,0
490,-118,0,0,0,0,0,0,0,0,0,-1,1714,1142,0,0
497,-118,0,0,0,0,0,0,0,0,0,-1,1721,1142,0,0
504,-118,0,0,0,0,0,0,0,0,0,-1,1728,1142,0,0
511,-118,0,0,0,0,0,0,0,0,0,-1,1735,1142,0,0
518,-118,0,0,0,0,0,0,0,0,0,-1,1742,1142,0,0
525,-118,0,0,0,0,0,0,0,0,0,-1,1749,1142,0,0
532,-118,0,0,0,0,0,0,0,0,0,-1,1756,1142,0,0
539,-118,0,0,0,0,0,0,0,0,0,-1,1763,1142,0,0
546,-118,0,0,0,0,0,0,0,0,0,-1,1770,1142,0,0
553,-118,0,0,0,0,0,0,0,0,0,-1,1777,1142,0,0
560,-118,0,0,0,0,0,0,0,0,0,-1,1784,1142,0,0
567,-118,0,0,0,0,0,0,0,0,0,-1,1791,1142,0,0
574,-118,0,0,0,0,0,0,0,0,0,-1,1798,1142,0,0
581,-118,0,0,0,0,0,0,0,0,0,-1,1805,1142,0,0
588,-118,0,0,0,0,0,0,0,0,0,-1,1812,1142,0,0
595,-118,0,0,0,0,0,0,0,0,0,-1,1819,1142,0,0
602,-118,0,0,0,0,0,0,0,0,0,-1,1826,1142,0,0
609,-118,0,0,0,0,0,0,0,0,0,-1,1833,1142,0,0
616,-118,0,0,0,0,0,0,0,0,0,-1,1840,1142,0,0
623,-118,0,0,0,0,0,0,0,0,0,-1,1847,1142,0,0
630,-118,0,0,0,0,0,0,0,0,0,-1,1854,1142,0,0
637,-118,0,0,0,0,0,0,0,0,0,-1,1861,1142,0,0
644,-118,0.00610352,-0.0418701,0.000778229,-0.000536224,0.000737163,0.0011086,-0.000866598,0.421331,0.00114323,0.0380053,1868,1142,0.00616171,0.0418169
651,-118,0.0629883,0.0515137,0.000262974,-0.000453838,0.000640787,0.000638777,-0.000829641,0.530412,0.000850175,0.037863,1875,1142,0.0629719,-0.0515132
658,-118,-0.0220947,0.122559,0.000173869,-0.000462118,0.000588744,0.000525009,-0.000813257,0.537784,0.000778599,0.037251,1882,1142,-0.0220556,-0.122536
665,-118,-0.041626,0.12561,0.000140486,-0.000470558,0.000498816,0.000419909,-0.000749982,0.51062,0.000684339,0.0380325,1889,1142,-0.0416094,-0.125572
672,-118,-0.0065918,-0.0510254,0.000100615,-0.000468651,0.000405559,0.000311456,-0.000679492,0.479422,0.000585129,0.0411285,1896,1142,-0.00657541,0.0510124
679,-118,-0.0144043,-0.0198975,8.175e-05,-0.000461016,0.000308289,0.000221087,-0.000600353,0.42449,0.000490819,0.0361178,1903,1142,-0.0143925,0.0199037
686,-118,-0.0773926,0.144653,3.97323e-05,-0.000452568,0.000217994,0.000122385,-0.000535221,0.362405,0.000403839,0.030389,1910,1142,-0.0773665,-0.144655
693,-118,-0.0799561,0.146484,-3.08195e-05,-0.000433183,0.00013731,1.15723e-05,-0.000475575,0.299447,0.000320977,0.0272356,1917,1142,-0.0799815,-0.146448
700,-118,-0.0692139,0.0544434,-0.000152121,-0.000392705,6.83881e-05,-0.00013404,-0.000410786,0.258474,0.000241891,0.0141304,1924,1142,-0.0692012,-0.0544011
707,-118,0.0145264,0.123901,-0.000166549,-0.000345919,1.82663e-05,-0.000164707,-0.00034776,0.100462,0.000200873,0.0350664,1931,1142,0.0145375,-0.123841
714,-118,-0.0189209,0.0374756,-0.000157228,-0.00028191,-1.81799e-05,-0.000154631,-0.000284507,-0.141875,0.000164467,0.0222541,1938,1142,-0.0189471,-0.0374192
721,-118,-0.0404053,0.0600586,-0.000238221,-0.000225502,-1.97083e-05,-0.000211152,-0.00025257,-0.941465,0.000156413,0.00868684,1945,1142,-0.0404514,-0.060031
728,-118,-0.0325928,0.0579834,-0.000304176,-0.00021099,4.98931e-05,-0.000189317,-0.000325849,1.161,0.00018895,0.0119775,1952,1142,-0.0325436,-0.0580358
735,-118,-0.0307617,0.0772705,-0.000365979,-0.000247112,0.000249535,-5.00306e-05,-0.00056306,0.902308,0.000359858,0.0118724,1959,1142,-0.0307089,-0.077315
742,-118,-0.0683594,0.105469,-0.000604112,-0.000210856,0.000190467,-0.000133732,-0.000681237,1.18605,0.000416794,0.0195676,1966,1142,-0.0682996,-0.105413
749,-118,-0.05896,0.0831299,-0.000805781,-3.43372e-05,-0.000461969,0.000181768,-0.00102189,-1.13324,0.000749234,0.0207827,1973,1142,-0.0589872,-0.083162
756,-118,-0.0625,0.122314,-0.00088451,0.000165791,-0.00162086,0.00134446,-0.00206317,-0.942059,0.00198193,0.0167738,1980,1142,-0.0625125,-0.122337
763,-118,-0.0491943,0.0682373,-0.000972368,0.00143506,-0.00309988,0.00355673,-0.00309404,-0.970593,0.00384292,0.00940547,1987,1142,-0.0492007,-0.0682041
770,-118,-0.0543213,0.0830078,-0.00105801,0.0024316,-0.00498385,0.00596724,-0.00459365,-0.953776,0.0061145,0.0108755,1994,1142,-0.054381,-0.0829905
777,-118,-0.0545654,0.0806885,-0.00120031,0.00397863,-0.00770366,0.00951638,-0.00673806,-0.947533,0.00943009,0.0234856,2001,1142,-0.0545126,-0.0806675
784,-118,0.0358887,0.0102539,-0.00133147,0.00629972,-0.0114383,0.014542,-0.00957376,-0.946385,0.0140214,0.0394933,2008,1142,0.0358777,-0.0102921
791,-118,0.0286865,-0.00524902,-0.00139448,0.0096813,-0.0163827,0.0214368,-0.0131499,-0.948386,0.0201588,0.0434998,2015,1142,0.028741,0.00519876
798,-118,-0.228149,-0.325806,-0.00137559,0.0145168,-0.0227093,0.03063,-0.0174888,-0.953695,0.0281246,0.0466575,2022,1142,-0.228141,0.325817
805,-118,-0.317993,-0.568359,-0.00116989,0.0213518,-0.0305896,0.0426874,-0.0225055,-0.961764,0.0382357,0.0459977,2029,1142,-0.318024,0.568302
812,-118,-0.135742,-0.695068,-0.00058949,0.0309859,-0.0402398,0.0584242,-0.0280278,-0.972341,0.0509311,0.0451183,2036,1142,-0.135768,0.695081
-700,-125,0,0,0,0,0,0,0,0,0,-1,524,1149,0,0
-693,-125,-1.85681,-0.109253,0,0,0,0,0,0,0,-1,531,1149,-1.85684,0.109262
-686,-125,-1.59686,0.116333,0,0,0,0,0,0,0,-1,538,1149,-1.59683,-0.116347
-679,-125,-1.37012,0.332275,-0.00338832,0.0158453,-0.0157346,0.0246692,-0.0122122,-1.0597,0.0216946,0.0443128,545,1149,-1.37015,-0.332221
-672,-125,-1.20642,0.54541,0.00294455,0.0137721,-0.0111477,0.0207511,-0.00403444,-1.01145,0.0153566,0.0439441,552,1149,-1.20644,-0.545399
-665,-125,-1.46246,0.788818,0.00615934,0.0114825,-0.00775811,0.0170229,0.000618957,-0.950643,0.011148,0.0421499,559,1149,-1.46246,-0.788772
-658,-125,1.17346,-0.807007,0.00739132,0.00923146,-0.00526244,0.0136537,0.00296913,-0.871942,0.00829186,0.04301,566,1149,1.17344,0.807002
-651,-125,0.148376,-0.00964355,0.00734693,0.00717044,-0.00344859,0.0107084,0.00380897,-0.772607,0.00626773,0.0374443,573,1149,0.148378,0.00961433
-644,-125,-0.0150757,0.0671387,0.0065608,0.0053839,-0.00216013,0.0082112,0.00373351,-0.652417,0.00474722,0.0240932,580,1149,-0.0150803,-0.0671222
-637,-125,-0.00915527,0.0683594,0.00542513,0.00390028,-0.00129611,0.00616643,0.00315898,-0.519533,0.00356055,0.0124461,587,1149,-0.00915218,-0.0683871
-630,-125,-0.020752,0.0665283,0.00482284,0.00288893,-0.000465425,0.00492902,0.00278275,-0.2243,0.00285367,0.0124968,594,1149,-0.0207795,-0.0664866
-623,-125,-0.0240479,0.0546875,0.00393191,0.00150837,9.97996e-05,0.00393602,0.00150427,0.0410865,0.00229339,0.0115804,601,1149,-0.024042,-0.0546453
-616,-125,-0.00994873,0.0551758,0.00264027,0.000583266,9.69249e-05,0.00264483,0.000578709,0.0469806,0.00160547,0.0119935,608,1149,-0.00993847,-0.055169
-609,-125,-0.0171509,0.0595703,0.00109707,0.000340485,0.00021324,0.00115304,0.000284524,0.256646,0.000693583,0.0120841,615,1149,-0.0171765,-0.0596043
-602,-125,-0.0352783,0.0484619,8.57523e-05,0.00016427,6.2378e-05,0.000198715,5.13071e-05,1.06626,0.000119116,0.0114086,622,1149,-0.0352677,-0.04851
-595,-125,-0.0448608,0.0668945,-5.07578e-07,8.00248e-05,-5.77884e-05,0.000110192,-3.06748e-05,-1.08968,8.55397e-05,0.0094805,629,1149,-0.0448696,-0.0668871
-588,-125,-0.00396729,0.0634766,2.10024e-05,0.000136258,-0.00020917,0.000295593,-0.000138333,-0.919817,0.000255953,0.0145278,636,1149,-0.00399152,-0.0635173
-581,-125,0.00292969,0.0655518,1.67246e-05,0.000247703,-0.000302023,0.000455564,-0.000191137,-0.968013,0.000383636,0.033253,643,1149,0.00293418,-0.0655796
-574,-125,-0.0371704,0.150635,-1.55113e-07,0.000363291,-0.000210176,0.000459412,-9.62761e-05,-1.14186,0.000342902,0.039212,650,1149,-0.0371506,-0.150653
-567,-125,0.0285034,-0.000732422,-4.24839e-05,0.00053261,-0.000161263,0.000574743,-8.46171e-05,-1.31524,0.000414259,0.0375184,657,1149,0.0285202,0.000686529
-560,-125,0.0933228,-0.0936279,-0.000100754,0.00072815,-9.36724e-05,0.000738603,-0.000111208,-1.45966,0.00053335,0.037646,664,1149,0.0933488,0.0936417
-553,-125,-0.00286865,0.034668,-0.000152572,0.000944224,4.87053e-05,0.000946383,-0.00015473,1.52651,0.00068832,0.0374468,671,1149,-0.00285334,-0.0346466
-546,-125,-0.0616455,0.0993652,-0.000208686,0.00116388,0.000304065,0.00122822,-0.000273029,1.36226,0.000923379,0.0363911,678,1149,-0.0616747,-0.0993704
-539,-125,-0.14624,0.294189,-0.000269942,0.00137722,0.000742182,0.0016623,-0.000555017,1.20407,0.00133231,0.0386776,685,1149,-0.146245,-0.294222
-532,-125,-0.041626,0.0332031,-0.000297329,0.00155688,0.00141768,0.00232369,-0.00106414,1.07498,0.00200051,0.0364754,692,1149,-0.0416338,-0.033155
-525,-125,-0.00524902,0.0251465,-0.000353496,0.00169557,0.00253139,0.0034019,-0.00205983,0.977687,0.00318491,0.0381145,699,1149,-0.00522114,-0.0250907
-518,-125,0,0,0,0,0,0,0,0,0,-1,706,1149,0,0
-511,-125,0,0,0,0,0,0,0,0,0,-1,713,1149,0,0
-504,-125,0,0,0,0,0,0,0,0,0,-1,720,1149,0,0
-497,-125,0,0,0,0,0,0,0,0,0,-1,727,1149,0,0
-490,-125,0,0,0,0,0,0,0,0,0,-1,734,1149,0,0
-483,-125,0,0,0,0,0,0,0,0,0,-1,741,1149,0,0
-476,-125,0,0,0,0,0,0,0,0,0,-1,748,1149,0,0
-469,-125,0,0,0,0,0,0,0,0,0,-1,755,1149,0,0
-462,-125,0,0,0,0,0,0,0,0,0,-1,762,1149,0,0
-455,-125,0,0,0,0,0,0,0,0,0,-1,769,1149,0,0
-448,-125,0,0,0,0,0,0,0,0,0,-1,776,1149,0,0
-441,-125,0,0,0,0,0,0,0,0,0,-1,783,1149,0,0
-434,-125,0,0,0,0,0,0,0,0,0,-1,790,1149,0,0
-427,-125,0,0,0,0,0,0,0,0,0,-1,797,1149,0,0
-420,-125,0,0,0,0,0,0,0,0,0,-1,804,1149,0,0
-413,-125,0,0,0,0,0,0,0,0,0,-1,811,1149,0,0
-406,-125,0,0,0,0,0,0,0,0,0,-1,818,1149,0,0
-399,-125,0,0,0,0,0,0,0,0,0,-1,825,1149,0,0
-392,-125,0,0,0,0,0,0,0,0,0,-1,832,1149,0,0
-385,-125,0,0,0,0,0,0,0,0,0,-1,839,1149,0,0
-378,-125,0,0,0,0,0,0,0,0,0,-1,846,1149,0,0
-371,-125,0,0,0,0,0,0,0,0,0,-1,853,1149,0,0
-364,-125,0,0,0,0,0,0,0,0,0,-1,860,1149,0,0
-357,-125,0,0,0,0,0,0,0,0,0,-1,867,1149,0,0
-350,-125,0,0,0,0,0,0,0,0,0,-1,874,1149,0,0
-343,-125,0,0,0,0,0,0,0,0,0,-1,881,1149,0,0
-336,-125,0,0,0,0,0,0,0,0,0,-1,888,1149,0,0
-329,-125,0,0,0,0,0,0,0,0,0,-1,895,1149,0,0
-322,-125,0,0,0,0,0,0,0,0,0,-1,902,1149,0,0
-315,-125,0,0,0,0,0,0,0,0,0,-1,909,1149,0,0
-308,-125,0,0,0,0,0,0,0,0,0,-1,916,1149,0,0
-301,-125,0,0,0,0,0,0,0,0,0,-1,923,1149,0,0
-294,-125,0,0,0,0,0,0,0,0,0,-1,930,1149,0,0
-287,-125,0,0,0,0,0,0,0,0,0,-1,937,1149,0,0
-280,-125,0,0,0,0,0,0,0,0,0,-1,944,1149,0,0
-273,-125,0,0,0,0,0,0,0,0,0,-1,951,1149,0,0
-266,-125,0,0,0,0,0,0,0,0,0,-1,958,1149,0,0
-259,-125,0,0,0,0,0,0,0,0,0,-1,965,1149,0,0
-252,-125,0,0,0,0,0,0,0,0,0,-1,972,1149,0,0
-245,-125,0,0,0,0,0,0,0,0,0,-1,979,1149,0,0
-238,-125,0,0,0,0,0,0,0,0,0,-1,986,1149,0,0
-231,-125,0,0,0,0,0,0,0,0,0,-1,993,1149,0,0
-224,-125,0,0,0,0,0,0,0,0,0,-1,1000,1149,0,0
-217,-125,0,0,0,0,0,0,0,0,0,-1,1007,1149,0,0
-210,-125,0,0,0,0,0,0,0,0,0,-1,1014,1149,0,0
-203,-125,0,0,0,0,0,0,0,0,0,-1,1021,1149,0,0
-196,-125,0,0,0,0,0,0,0,0,0,-1,1028,1149,0,0
-189,-125,0,0,0,0,0,0,0,0,0,-1,1035,1149,0,0
-182,-125,0,0,0,0,0,0,0,0,0,-1,1042,1149,0,0
-175,-125,0,0,0,0,0,0,0,0,0,-1,1049,1149,0,0
-168,-125,0,0,0,0,0,0,0,0,0,-1,1056,1149,0,0
-161,-125,0,0,0,0,0,0,0,0,0,-1,1063,1149,0,0
-154,-125,0,0,0,0,0,0,0,0,0,-1,1070,1149,0,0
-147,-125,0,0,0,0,0,0,0,0,0,-1,1077,1149,0,0
-140,-125,0,0,0,0,0,0,0,0,0,-1,1084,1149,0,0
-133,-125,0,0,0,0,0,0,0,0,0,-1,1091,1149,0,0
-126,-125,0,0,0,0,0,0,0,0,0,-1,1098,1149,0,0
-119,-125,0,0,0,0,0,0,0,0,0,-1,1105,1149,0,0
-112,-125,0,0,0,0,0,0,0,0,0,-1,1112,1149,0,0
-105,-125,0,0,0,0,0,0,0,0,0,-1,1119,1149,0,0
-98,-125,0,0,0,0,0,0,0,0,0,-1,1126,1149,0,0
-91,-125,0,0,0,0,0,0,0,0,0,-1,1133,1149,0,0
-84,-125,0,0,0,0,0,0,0,0,0,-1,1140,1149,0,0
-77,-125,0,0,0,0,0,0,0,0,0,-1,1147,1149,0,0
-70,-125,0,0,0,0,0,0,0,0,0,-1,1154,1149,0,0
-63,-125,0,0,0,0,0,0,0,0,0,-1,1161,1149,0,0
-56,-125,0,0,0,0,0,0,0,0,0,-1,1168,1149,0,0
-49,-125,0,0,0,0,0,0,0,0,0,-1,1175,1149,0,0
-42,-125,0,0,0,0,0,0,0,0,0,-1,1182,1149,0,0
-35,-125,0,0,0,0,0,0,0,0,0,-1,1189,1149,0,0
-28,-125,0,0,0,0,0,0,0,0,0,-1,1196,1149,0,0
-21,-125,0,0,0,0,0,0,0,0,0,-1,1203,1149,0,0
-14,-125,0,0,0,0,0,0,0,0,0,-1,1210,1149,0,0
-7,-125,0,0,0,0,0,0,0,0,0,-1,1217,1149,0,0
0,-125,0,0,0,0,0,0,0,0,0,-1,1224,1149,0,0
7,-125,0,0,0,0,0,0,0,0,0,-1,1231,1149,0,0
14,-125,0,0,0,0,0,0,0,0,0,-1,1238,1149,0,0
21,-125,0,0,0,0,0,0,0,0,0,-1,1245,1149,0,0
28,-125,0,0,0,0,0,0,0,0,0,-1,1252,1149,0,0
35,-125,0,0,0,0,0,0,0,0,0,-1,1259,1149,0,0
42,-125,0,0,0,0,0,0,0,0,0,-1,1266,1149,0,0
49,-125,0,0,0,0,0,0,0,0,0,-1,1273,1149,0,0
56,-125,0,0,0,0,0,0,0,0,0,-1,1280,1149,0,0
63,-125,0,0,0,0,0,0,0,0,0,-1,1287,1149,0,0
70,-125,0,0,0,0,0,0,0,0,0,-1,1294,1149,0,0
77,-125,0,0,0,0,0,0,0,0,0,-1,1301,1149,0,0
84,-125,0,0,0,0,0,0,0,0,0,-1,1308,1149,0,0
91,-125,0,0,0,0,0,0,0,0,0,-1,1315,1149,0,0
98,-125,0,0,0,0,0,0,0,0,0,-1,1322,1149,0,0
105,-125,0,0,0,0,0,0,0,0,0,-1,1329,1149,0,0
112,-125,0,0,0,0,0,0,0,0,0,-1,1336,1149,0,0
119,-125,0,0,0,0,0,0,0,0,0,-1,1343,1149,0,0
126,-125,0,0,0,0,0,0,0,0,0,-1,1350,1149,0,0
133,-125,0,0,0,0,0,0,0,0,0,-1,1357,1149,0,0
140,-125,0,0,0,0,0,0,0,0,0,-1,1364,1149,0,0
147,-125,0,0,0,0,0,0,0,0,0,-1,1371,1149,0,0
154,-125,0,0,0,0,0,0,0,0,0,-1,1378,1149,0,0
161,-125,0,0,0,0,0,0,0,0,0,-1,1385,1149,0,0
168,-125,0,0,0,0,0,0,0,0,0,-1,1392,1149,0,0
175,-125,0,0,0,0,0,0,0,0,0,-1,1399,1149,0,0
182,-125,0,0,0,0,0,0,0,0,0,-1,1406,1149,0,0
189,-125,0,0,0,0,0,0,0,0,0,-1,1413,1149,0,0
196,-125,0,0,0,0,0,0,0,0,0,-1,1420,1149,0,0
203,-125,0,0,0,0,0,0,0,0,0,-1,1427,1149,0,0
210,-125,0,0,0,0,0,0,0,0,0,-1,1434,1149,0,0
217,-125,0,0,0,0,0,0,0,0,0,-1,1441,1149,0,0
224,-125,0,0,0,0,0,0,0,0,0,-1,1448,1149,0,0
231,-125,0,0,0,0,0,0,0,0,0,-1,1455,1149,0,0
238,-125,0,0,0,0,0,0,0,0,0,-1,1462,1149,0,0
245,-125,0,0,0,0,0,0,0,0,0,-1,1469,1149,0,0
252,-125,0,0,0,0,0,0,0,0,0,-1,1476,1149,0,0
259,-125,0,0,0,0,0,0,0,0,0,-1,1483,1149,0,0
266,-125,0,0,0,0,0,0,0,0,0,-1,1490,1149,0,0
273,-125,0,0,0,0,0,0,0,0,0,-1,1497,1149,0,0
280,-125,0,0,0,0,0,0,0,0,0,-1,1504,1149,0,0
287,-125,0,0,0,0,0,0,0,0,0,-1,1511,1149,0,0
294,-125,0,0,0,0,0,0,0,0,0,-1,1518,1149,0,0
301,-125,0,0,0,0,0,0,0,0,0,-1,1525,1149,0,0
308,-125,0,0,0,0,0,0,0,0,0,-1,1532,1149,0,0
315,-125,0,0,0,0,0,0,0,0,0,-1,1539,1149,0,0
322,-125,0,0,0,0,0,0,0,0,0,-1,1546,1149,0,0
329,-125,0,0,0,0,0,0,0,0,0,-1,1553,1149,0,0
336,-125,0,0,0,0,0,0,0,0,0,-1,1560,1149,0,0
343,-125,0,0,0,0,0,0,0,0,0,-1,1567,1149,0,0
350,-125,0,0,0,0,0,0,0,0,0,-1,1574,1149,0,0
357,-125,0,0,0,0,0,0,0,0,0,-1,1581,1149,0,0
364,-125,0,0,0,0,0,0,0,0,0,-1,1588,1149,0,0
371,-125,0,0,0,0,0,0,0,0,0,-1,1595,1149,0,0
378,-125,0,0,0,0,0,0,0,0,0,-1,1602,1149,0,0
385,-125,0,0,0,0,0,0,0,0,0,-1,1609,1149,0,0
392,-125,0,0,0,0,0,0,0,0,0,-1,1616,1149,0,0
399,-125,0,0,0,0,0,0,0,0,0,-1,1623,1149,0,0
406,-125,0,0,0,0,0,0,0,0,0,-1,1630,1149,0,0
413,-125,0,0,0,0,0,0,0,0,0,-1,1637,1149,0,0
420,-125,0,0,0,0,0,0,0,0,0,-1,1644,1149,0,0
427,-125,0,0,0,0,0,0,0,0,0,-1,1651,1149,0,0
434,-125,0,0,0,0,0,0,0,0,0,-1,1658,1149,0,0
441,-125,0,0,0,0,0,0,0,0,0,-1,1665,1149,0,0
448,-125,0,0,0,0,0,0,0,0,0,-1,1672,1149,0,0
455,-125,0,0,0,0,0,0,0,0,0,-1,1679,1149,0,0
462,-125,0,0,0,0,0,0,0,0,0,-1,1686,1149,0,0
469,-125,0,0,0,0,0,0,0,0,0,-1,1693,1149,0,0
476,-125,0,0,0,0,0,0,0,0,0,-1,1700,1149,0,0
483,-125,0,0,0,0,0,0,0,0,0,-1,1707,1149,0,0
490,-125,0,0,0,0,0,0,0,0,0,-1,1714,1149,0,0
497,-125,0,0,0,0,0,0,0,0,0,-1,1721,1149,0,0
504,-125,0,0,0,0,0,0,0,0,0,-1,1728,1149,0,0
511,-125,0,0,0,0,0,0,0,0,0,-1,1735,1149,0,0
518,-125,0,0,0,0,0,0,0,0,0,-1,1742,1149,0,0
525,-125,0,0,0,0,0,0,0,0,0,-1,1749,1149,0,0
532,-125,0,0,0,0,0,0,0,0,0,-1,1756,1149,0,0
539,-125,0,0,0,0,0,0,0,0,0,-1,1763,1149,0,0
546,-125,0,0,0,0,0,0,0,0,0,-1,1770,1149,0,0
553,-125,0,0,0,0,0,0,0,0,0,-1,1777,1149,0,0
560,-125,0,0,0,0,0,0,0,0,0,-1,1784,1149,0,0
567,-125,0,0,0,0,0,0,0,0,0,-1,1791,1149,0,0
574,-125,0,0,0,0,0,0,0,0,0,-1,1798,1149,0,0
581,-125,0,0,0,0,0,0,0,0,0,-1,1805,1149,0,0
588,-125,0,0,0,0,0,0,0,0,0,-1,1812,1149,0,0
595,-125,0,0,0,0,0,0,0,0,0,-1,1819,1149,0,0
602,-125,0,0,0,0,0,0,0,0,0,-1,1826,1149,0,0
609,-125,0,0,0,0,0,0,0,0,0,-1,1833,1149,0,0
616,-125,0,0,0,0,0,0,0,0,0,-1,1840,1149,0,0
623,-125,0,0,0,0,0,0,0,0,0,-1,1847,1149,0,0
630,-125,0,0,0,0,0,0,0,0,0,-1,1854,1149,0,0
637,-125,0,0,0,0,0,0,0,0,0,-1,1861,1149,0,0
644,-125,-0.0505371,-0.168457,0.00126327,-0.000590528,0.00114028,0.00180585,-0.00113311,0.444128,0.00171157,0.0392416,1868,1149,-0.0504809,0.16847
651,-125,0.0352783,-0.0065918,0.000691902,-0.00060555,0.000904558,0.00115631,-0.00106996,0.474318,0.00128566,0.0382182,1875,1149,0.0353326,0.00665197
658,-125,-0.0241699,0.0671387,0.000507018,-0.000672274,0.000709199,0.000839676,-0.00100493,0.438592,0.00106641,0.0369238,1882,1149,-0.0241376,-0.0671667
665,-125,-0.230957,0.0976563,0.000336795,-0.000713645,0.000496422,0.000534271,-0.000911122,0.378609,0.0008439,0.040175,1889,1149,-0.230994,-0.097715
672,-125,-0.144897,-0.131104,0.000174941,-0.000731416,0.000308382,0.000269914,-0.00082639,0.298755,0.000659572,0.041267,1896,1149,-0.14489,0.131133
679,-125,-0.0700684,-0.0245361,5.52399e-05,-0.000731637,0.000145287,8.12081e-05,-0.000757605,0.176871,0.000534201,0.0353871,1903,1149,-0.0701134,0.0245515
686,-125,-0.12146,-0.00305176,-6.96941e-05,-0.00072107,1.25178e-05,-6.94537e-05,-0.000721311,0.019208,0.000459476,0.0326561,1910,1149,-0.121484,0.00300764
693,-125,-0.0897217,0.0279541,-0.000198852,-0.000697502,-9.42128e-05,-0.000181646,-0.000714708,-0.180643,0.000428942,0.0264274,1917,1149,-0.0896989,-0.0279088
700,-125,-0.0588379,0.0830078,-0.000358973,-0.000642349,-0.000177928,-0.00027321,-0.000728112,-0.449152,0.000424716,0.0100226,1924,1149,-0.0588398,-0.0830408
707,-125,0.088501,0.102051,-0.000400189,-0.00056762,-0.000227009,-0.000241952,-0.000725858,-0.608747,0.000426764,0.0398043,1931,1149,0.0884606,-0.102019
714,-125,0.0045166,0.0264893,-0.000387342,-0.000475747,-0.000238806,-0.000188682,-0.000674407,-0.693884,0.000401761,0.0306239,1938,1149,0.00445899,-0.0264517
721,-125,-0.0345459,0.0424805,-0.000441935,-0.000394102,-0.000192955,-0.000223587,-0.00061245,-0.847058,0.000357865,0.0148087,1945,1149,-0.0345317,-0.0424458
728,-125,-0.0479736,0.0622559,-0.000471866,-0.000356036,-6.63203e-05,-0.000325902,-0.000502,-1.14432,0.0002941,0.0105356,1952,1149,-0.0479907,-0.0622207
735,-125,-0.0507813,0.0714111,-0.000502364,-0.000380953,0.000185022,-0.000246932,-0.000636385,0.943914,0.000370476,0.013764,1959,1149,-0.0508267,-0.0714156
742,-125,-0.0950928,0.0585938,-0.000736913,-0.000376037,0.000150188,-0.000321711,-0.000791239,1.22372,0.000459472,0.0221664,1966,1149,-0.0950477,-0.0585864
749,-125,-0.0961914,0.0489502,-0.0009431,-0.000202022,-0.000463767,2.10535e-05,-0.00116618,-1.12246,0.000784563,0.025668,1973,1149,-0.0961369,-0.0489128
756,-125,-0.0570068,0.0755615,-0.00104934,5.47253e-06,-0.00161753,0.00117941,-0.00222327,-0.942991,0.00199512,0.020634,1980,1149,-0.0570658,-0.0755764
763,-125,-0.0509033,0.0767822,-0.00122518,0.00131642,-0.00313629,0.00342959,-0.00333835,-0.977886,0.00390759,0.0110492,1987,1149,-0.0509491,-0.0767462
770,-125,-0.045166,0.0483398,-0.00143764,0.00234836,-0.00509874,0.00589417,-0.00498344,-0.963146,0.00628752,0.0126797,1994,1149,-0.0451705,-0.0483545
777,-125,-0.0388184,0.017334,-0.00176698,0.00398211,-0.0079624,0.00957295,-0.00735782,-0.958625,0.00980284,0.023636,2001,1149,-0.038803,-0.0173125
784,-125,-0.0340576,-0.0130615,-0.00214029,0.00648163,-0.0119315,0.0148571,-0.0105157,-0.958756,0.0147203,0.0398718,2008,1149,-0.0339981,0.0130142
791,-125,0.279541,-0.12854,-0.0025103,0.0101921,-0.0172269,0.0222014,-0.0145195,-0.962007,0.0213549,0.0422074,2015,1149,0.279532,0.128488
798,-125,0.714478,-0.381592,-0.00286442,0.0155976,-0.0240573,0.0321341,-0.0194009,-0.96859,0.030055,0.0429737,2022,1149,0.71445,0.381544
805,-125,-0.118286,-1.13208,-0.00307845,0.0233756,-0.032626,0.0453539,-0.0250567,-0.977981,0.0412107,0.0426013,2029,1149,-0.118235,1.13209
812,-125,-0.341919,-1.50586,-0.00295177,0.0345307,-0.0431768,0.0628583,-0.0312793,-0.990157,0.0553603,0.0477155,2036,1149,-0.341976,1.50586
-700,-132,0,0,0,0,0,0,0,0,0,-1,524,1156,0,0
-693,-132,0.00152588,-0.417114,0,0,0,0,0,0,0,-1,531,1156,0.00152004,0.417115
-686,-132,-1.99554,0.175415,0,0,0,0,0,0,0,-1,538,1156,-1.99555,-0.175394
-679,-132,-1.71399,0.399536,-0.00555054,0.0220896,-0.0134522,0.0275556,-0.0110166,-1.18484,0.0229419,0.0480803,545,1156,-1.71397,-0.399555
-672,-132,-1.46051,0.645752,0.00150861,0.0181237,-0.00923139,0.0222352,-0.00260294,-1.15178,0.0157629,0.0412546,552,1156,-1.46054,-0.645808
-665,-132,-1.26587,0.753296,0.00524655,0.0144262,-0.00616777,0.0175245,0.0021482,-1.10527,0.0110368,0.0419134,559,1156,-1.26587,-0.753302
-658,-132,-0.929626,0.779175,0.00685353,0.0111445,-0.00396062,0.0135034,0.00449463,-1.03363,0.0079401,0.0460766,566,1156,-0.929642,-0.77915
-651,-132,0.118896,0.138794,0.00706958,0.00834554,-0.00240346,0.0101943,0.00522086,-0.915128,0.00588623,0.0388492,573,1156,0.118911,-0.138745
-644,-132,-0.045105,0.112061,0.00645314,0.00604974,-0.00133918,0.00760573,0.00489716,-0.710653,0.00445136,0.0202501,580,1156,-0.0451044,-0.11202
-637,-132,-0.0126953,0.0810547,0.0054164,0.00423257,-0.000667316,0.00571649,0.00393248,-0.422604,0.00337722,0.0107817,587,1156,-0.0126792,-0.0810829
-630,-132,-0.0241699,0.0638428,0.00494873,0.00292177,-3.71725e-05,0.00494941,0.00292108,-0.0183308,0.002873,0.00913893,594,1156,-0.0241531,-0.063895
-623,-132,-0.0119629,0.0633545,0.00406175,0.00132355,0.000408428,0.00412137,0.00126393,0.144957,0.00243804,0.0138081,601,1156,-0.011979,-0.0633152
-616,-132,0.0117798,0.0765381,0.00273406,0.000379434,0.000301109,0.00277196,0.000341539,0.125196,0.0017453,0.0190335,608,1156,0.0117605,-0.0764877
-609,-132,-0.0108643,0.069458,0.00111669,0.000161149,0.000325618,0.0012171,6.07403e-05,0.299112,0.000791931,0.0116713,615,1156,-0.0108695,-0.0694474
-602,-132,-0.022522,0.0546875,0.000118161,6.6497e-05,4.40271e-05,0.000143375,4.12831e-05,0.520097,8.5223e-05,0.0103794,622,1156,-0.022548,-0.0547411
-595,-132,-0.0227661,0.0710449,-7.15139e-06,3.54845e-05,-0.000124219,0.000140202,-0.000111869,-0.870378,0.000145839,0.0103009,629,1156,-0.0227881,-0.0710013
-588,-132,-0.029541,0.0649414,-1.3888e-05,0.00011392,-0.000293104,0.000350005,-0.000249973,-0.892731,0.000347999,0.0145179,636,1156,-0.0295115,-0.065002
-581,-132,0.00292969,0.0206299,-1.82362e-05,0.000227007,-0.000392828,0.000515907,-0.000307136,-0.936682,0.000480253,0.0330024,643,1156,0.00295298,-0.0205915
-574,-132,0.0231934,0.0158691,-3.64413e-05,0.000334514,-0.000296914,0.000499122,-0.000201049,-1.06458,0.000416275,0.0400482,650,1156,0.023207,-0.0158181
-567,-132,0.000915527,0.0718994,-8.0277e-05,0.000509622,-0.000234816,0.000591679,-0.000162334,-1.23461,0.000458251,0.0359824,657,1156,0.000906026,-0.071853
-560,-132,-0.0453491,-0.0241699,-0.0001352,0.000697475,-0.000147066,0.000722686,-0.000160411,-1.40102,0.000543214,0.0355842,664,1156,-0.045374,0.0241247
-553,-132,-0.110291,-0.00756836,-0.000179516,0.000896214,3.20317e-05,0.000897167,-0.000180469,1.54105,0.000666463,0.0360778,671,1156,-0.110276,0.00753499
-546,-132,-0.122437,0.0371094,-0.00022116,0.00108681,0.000339966,0.00116989,-0.000304246,1.3311,0.000898678,0.0372316,678,1156,-0.122427,-0.0370841
-539,-132,-0.0352173,0.128906,-0.000261927,0.0012552,0.000845472,0.00163253,-0.000639251,1.15103,0.00135276,0.0415627,685,1156,-0.0352419,-0.128899
-532,-132,0.177185,-0.12915,-0.000262832,0.00137822,0.00160629,0.00236142,-0.00124603,1.02153,0.00211569,0.0387877,692,1156,0.177177,0.12911
-525,-132,0.0601807,-0.0865479,-0.000276548,0.00143532,0.00279583,0.0035033,-0.00234452,0.933942,0.00339827,0.0355727,699,1156,0.0601693,0.0865982
-518,-132,0,0,0,0,0,0,0,0,0,-1,706,1156,0,0
-511,-132,0,0,0,0,0,0,0,0,0,-1,713,1156,0,0
-504,-132,0,0,0,0,0,0,0,0,0,-1,720,1156,0,0
-497,-132,0,0,0,0,0,0,0,0,0,-1,727,1156,0,0
-490,-132,0,0,0,0,0,0,0,0,0,-1,734,1156,0,0
-483,-132,0,0,0,0,0,0,0,0,0,-1,741,1156,0,0
-476,-132,0,0,0,0,0,0,0,0,0,-1,748,1156,0,0
-469,-132,0,0,0,0,0,0,0,0,0,-1,755,1156,0,0
-462,-132,0,0,0,0,0,0,0,0,0,-1,762,1156,0,0
-455,-132,0,0,0,0,0,0,0,0,0,-1,769,1156,0,0
-448,-132,0,0,0,0,0,0,0,0,0,-1,776,1156,0,0
-441,-132,0,0,0,0,0,0,0,0,0,-1,783,1156,0,0
-434,-132,0,0,0,0,0,0,0,0,0,-1,790,1156,0,0
-427,-132,0,0,0,0,0,0,0,0,0,-1,797,1156,0,0
-420,-132,0,0,0,0,0,0,0,0,0,-1,804,1156,0,0
-413,-132,0,0,0,0,0,0,0,0,0,-1,811,1156,0,0
-406,-132,0,0,0,0,0,0,0,0,0,-1,818,1156,0,0
-399,-132,0,0,0,0,0,0,0,0,0,-1,825,1156,0,0
-392,-132,0,0,0,0,0,0,0,0,0,-1,832,1156,0,0
-385,-132,0,0,0,0,0,0,0,0,0,-1,839,1156,0,0
-378,-132,0,0,0,0,0,0,0,0,0,-1,846,1156,0,0
-371,-132,0,0,0,0,0,0,0,0,0,-1,853,1156,0,0
-364,-132,0,0,0,0,0,0,0,0,0,-1,860,1156,0,0
-357,-132,0,0,0,0,0,0,0,0,0,-1,867,1156,0,0
-350,-132,0,0,0,0,0,0,0,0,0,-1,874,1156,0,0
-343,-132,0,0,0,0,0,0,0,0,0,-1,881,1156,0,0
-336,-132,0,0,0,0,0,0,0,0,0,-1,888,1156,0,0
-329,-132,0,0,0,0,0,0,0,0,0,-1,895,1156,0,0
-322,-132,0,0,0,0,0,0,0,0,0,-1,902,1156,0,0
-315,-132,0,0,0,0,0,0,0,0,0,-1,909,1156,0,0
-308,-132,0,0,0,0,0,0,0,0,0,-1,916,1156,0,0
-301,-132,0,0,0,0,0,0,0,0,0,-1,923,1156,0,0
-294,-132,0,0,0,0,0,0,0,0,0,-1,930,1156,0,0
-287,-132,0,0,0,0,0,0,0,0,0,-1,937,1156,0,0
-280,-132,0,0,0,0,0,0,0,0,0,-1,944,1156,0,0
-273,-132,0,0,0,0,0,0,0,0,0,-1,951,1156,0,0
-266,-132,0,0,0,0,0,0,0,0,0,-1,958,1156,0,0
-259,-132,0,0,0,0,0,0,0,0,0,-1,965,1156,0,0
-252,-132,0,0,0,0,0,0,0,0,0,-1,972,1156,0,0
-245,-132,0,0,0,0,0,0,0,0,0,-1,979,1156,0,0
-238,-132,0,0,0,0,0,0,0,0,0,-1,986,1156,0,0
-231,-132,0,0,0,0,0,0,0,0,0,-1,993,1156,0,0
-224,-132,0,0,0,0,0,0,0,0,0,-1,1000,1156,0,0
-217,-132,0,0,0,0,0,0,0,0,0,-1,1007,1156,0,0
-210,-132,0,0,0,0,0,0,0,0,0,-1,1014,1156,0,0
-203,-132,0,0,0,0,0,0,0,0,0,-1,1021,1156,0,0
-196,-132,0,0,0,0,0,0,0,0,0,-1,1028,1156,0,0
-189,-132,0,0,0,0,0,0,0,0,0,-1,1035,1156,0,0
-182,-132,0,0,0,0,0,0,0,0,0,-1,1042,1156,0,0
-175,-132,0,0,0,0,0,0,0,0,0,-1,1049,1156,0,0
-168,-132,0,0,0,0,0,0,0,0,0,-1,1056,1156,0,0
-161,-132,0,0,0,0,0,0,0,0,0,-1,1063,1156,0,0
-154,-132,0,0,0,0,0,0,0,0,0,-1,1070,1156,0,0
-147,-132,0,0,0,0,0,0,0,0,0,-1,1077,1156,0,0
-140,-132,0,0,0,0,0,0,0,0,0,-1,1084,1156,0,0
-133,-132,0,0,0,0,0,0,0,0,0,-1,1091,1156,0,0
-126,-132,0,0,0,0,0,0,0,0,0,-1,1098,1156,0,0
-119,-132,0,0,0,0,0,0,0,0,0,-1,1105,1156,0,0
-112,-132,0,0,0,0,0,0,0,0,0,-1,1112,1156,0,0
-105,-132,0,0,0,0,0,0,0,0,0,-1,1119,1156,0,0
-98,-132,0,0,0,0,0,0,0,0,0,-1,1126,1156,0,0
-91,-132,0,0,0,0,0,0,0,0,0,-1,1133,1156,0,0
-84,-132,0,0,0,0,0,0,0,0,0,-1,1140,1156,0,0
-77,-132,0,0,0,0,0,0,0,0,0,-1,1147,1156,0,0
-70,-132,0,0,0,0,0,0,0,0,0,-1,1154,1156,0,0
-63,-132,0,0,0,0,0,0,0,0,0,-1,1161,1156,0,0
-56,-132,0,0,0,0,0,0,0,0,0,-1,1168,1156,0,0
-49,-132,0,0,0,0,0,0,0,0,0,-1,1175,1156,0,0
-42,-132,0,0,0,0,0,0,0,0,0,-1,1182,1156,0,0
-35,-132,0,0,0,0,0,0,0,0,0,-1,1189,1156,0,0
-28,-132,0,0,0,0,0,0,0,0,0,-1,1196,1156,0,0
-21,-132,0,0,0,0,0,0,0,0,0,-1,1203,1156,0,0
-14,-132,0,0,0,0,0,0,0,0,0,-1,1210,1156,0,0
-7,-132,0,0,0,0,0,0,0,0,0,-1,1217,1156,0,0
0,-132,0,0,0,0,0,0,0,0,0,-1,1224,1156,0,0
7,-132,0,0,0,0,0,0,0,0,0,-1,1231,1156,0,0
14,-132,0,0,0,0,0,0,0,0,0,-1,1238,1156,0,0
21,-132,0,0,0,0,0,0,0,0,0,-1,1245,1156,0,0
28,-132,0,0,0,0,0,0,0,0,0,-1,1252,1156,0,0
35,-132,0,0,0,0,0,0,0,0,0,-1,1259,1156,0,0
42,-132,0,0,0,0,0,0,0,0,0,-1,1266,1156,0,0
49,-132,0,0,0,0,0,0,0,0,0,-1,1273,1156,0,0
56,-132,0,0,0,0,0,0,0,0,0,-1,1280,1156,0,0
63,-132,0,0,0,0,0,0,0,0,0,-1,1287,1156,0,0
70,-132,0,0,0,0,0,0,0,0,0,-1,1294,1156,0,0
77,-132,0,0,0,0,0,0,0,0,0,-1,1301,1156,0,0
84,-132,0,0,0,0,0,0,0,0,0,-1,1308,1156,0,0
91,-132,0,0,0,0,0,0,0,0,0,-1,1315,1156,0,0
98,-132,0,0,0,0,0,0,0,0,0,-1,1322,1156,0,0
105,-132,0,0,0,0,0,0,0,0,0,-1,1329,1156,0,0
112,-132,0,0,0,0,0,0,0,0,0,-1,1336,1156,0,0
119,-132,0,0,0,0,0,0,0,0,0,-1,1343,1156,0,0
126,-132,0,0,0,0,0,0,0,0,0,-1,1350,1156,0,0
133,-132,0,0,0,0,0,0,0,0,0,-1,1357,1156,0,0
140,-132,0,0,0,0,0,0,0,0,0,-1,1364,1156,0,0
147,-132,0,0,0,0,0,0,0,0,0,-1,1371,1156,0,0
154,-132,0,0,0,0,0,0,0,0,0,-1,1378,1156,0,0
161,-132,0,0,0,0,0,0,0,0,0,-1,1385,1156,0,0
168,-132,0,0,0,0,0,0,0,0,0,-1,1392,1156,0,0
175,-132,0,0,0,0,0,0,0,0,0,-1,1399,1156,0,0
182,-132,0,0,0,0,0,0,0,0,0,-1,1406,1156,0,0
189,-132,0,0,0,0,0,0,0,0,0,-1,1413,1156,0,0
196,-132,0,0,0,0,0,0,0,0,0,-1,1420,1156,0,0
203,-132,0,0,0,0,0,0,0,0,0,-1,1427,1156,0,0
210,-132,0,0,0,0,0,0,0,0,0,-1,1434,1156,0,0
217,-132,0,0,0,0,0,0,0,0,0,-1,1441,1156,0,0
224,-132,0,0,0,0,0,0,0,0,0,-1,1448,1156,0,0
231,-132,0,0,0,0,0,0,0,0,0,-1,1455,1156,0,0
238,-132,0,0,0,0,0,0,0,0,0,-1,1462,1156,0,0
245,-132,0,0,0,0,0,0,0,0,0,-1,1469,1156,0,0
252,-132,0,0,0,0,0,0,0,0,0,-1,1476,1156,0,0
259,-132,0,0,0,0,0,0,0,0,0,-1,1483,1156,0,0
266,-132,0,0,0,0,0,0,0,0,0,-1,1490,1156,0,0
273,-132,0,0,0,0,0,0,0,0,0,-1,1497,1156,0,0
280,-132,0,0,0,0,0,0,0,0,0,-1,1504,1156,0,0
287,-132,0,0,0,0,0,0,0,0,0,-1,1511,1156,0,0
294,-132,0,0,0,0,0,0,0,0,0,-1,1518,1156,0,0
301,-132,0,0,0,0,0,0,0,0,0,-1,1525,1156,0,0
308,-132,0,0,0,0,0,0,0,0,0,-1,1532,1156,0,0
315,-132,0,0,0,0,0,0,0,0,0,-1,1539,1156,0,0
322,-132,0,0,0,0,0,0,0,0,0,-1,1546,1156,0,0
329,-132,0,0,0,0,0,0,0,0,0,-1,1553,1156,0,0
336,-132,0,0,0,0,0,0,0,0,0,-1,1560,1156,0,0
343,-132,0,0,0,0,0,0,0,0,0,-1,1567,1156,0,0
350,-132,0,0,0,0,0,0,0,0,0,-1,1574,1156,0,0
357,-132,0,0,0,0,0,0,0,0,0,-1,1581,1156,0,0
364,-132,0,0,0,0,0,0,0,0,0,-1,1588,1156,0,0
371,-132,0,0,0,0,0,0,0,0,0,-1,1595,1156,0,0
378,-132,0,0,0,0,0,0,0,0,0,-1,1602,1156,0,0
385,-132,0,0,0,0,0,0,0,0,0,-1,1609,1156,0,0
392,-132,0,0,0,0,0,0,0,0,0,-1,1616,1156,0,0
399,-132,0,0,0,0,0,0,0,0,0,-1,1623,1156,0,0
406,-132,0,0,0,0,0,0,0,0,0,-1,1630,1156,0,0
413,-132,0,0,0,0,0,0,0,0,0,-1,1637,1156,0,0
420,-132,0,0,0,0,0,0,0,0,0,-1,1644,1156,0,0
427,-132,0,0,0,0,0,0,0,0,0,-1,1651,1156,0,0
434,-132,0,0,0,0,0,0,0,0,0,-1,1658,1156,0,0
441,-132,0,0,0,0,0,0,0,0,0,-1,1665,1156,0,0
448,-132,0,0,0,0,0,0,0,0,0,-1,1672,1156,0,0
455,-132,0,0,0,0,0,0,0,0,0,-1,1679,1156,0,0
462,-132,0,0,0,0,0,0,0,0,0,-1,1686,1156,0,0
469,-132,0,0,0,0,0,0,0,0,0,-1,1693,1156,0,0
476,-132,0,0,0,0,0,0,0,0,0,-1,1700,1156,0,0
483,-132,0,0,0,0,0,0,0,0,0,-1,1707,1156,0,0
490,-132,0,0,0,0,0,0,0,0,0,-1,1714,1156,0,0
497,-132,0,0,0,0,0,0,0,0,0,-1,1721,1156,0,0
504,-132,0,0,0,0,0,0,0,0,0,-1,1728,1156,0,0
511,-132,0,0,0,0,0,0,0,0,0,-1,1735,1156,0,0
518,-132,0,0,0,0,0,0,0,0,0,-1,1742,1156,0,0
525,-132,0,0,0,0,0,0,0,0,0,-1,1749,1156,0,0
532,-132,0,0,0,0,0,0,0,0,0,-1,1756,1156,0,0
539,-132,0,0,0,0,0,0,0,0,0,-1,1763,1156,0,0
546,-132,0,0,0,0,0,0,0,0,0,-1,1770,1156,0,0
553,-132,0,0,0,0,0,0,0,0,0,-1,1777,1156,0,0
560,-132,0,0,0,0,0,0,0,0,0,-1,1784,1156,0,0
567,-132,0,0,0,0,0,0,0,0,0,-1,1791,1156,0,0
574,-132,0,0,0,0,0,0,0,0,0,-1,1798,1156,0,0
581,-132,0,0,0,0,0,0,0,0,0,-1,1805,1156,0,0
588,-132,0,0,0,0,0,0,0,0,0,-1,1812,1156,0,0
595,-132,0,0,0,0,0,0,0,0,0,-1,1819,1156,0,0
602,-132,0,0,0,0,0,0,0,0,0,-1,1826,1156,0,0
609,-132,0,0,0,0,0,0,0,0,0,-1,1833,1156,0,0
616,-132,0,0,0,0,0,0,0,0,0,-1,1840,1156,0,0
623,-132,0,0,0,0,0,0,0,0,0,-1,1847,1156,0,0
630,-132,0,0,0,0,0,0,0,0,0,-1,1854,1156,0,0
637,-132,0,0,0,0,0,0,0,0,0,-1,1861,1156,0,0
644,-132,-0.0550537,-0.128784,0.00142194,-0.000643321,0.00135854,0.00209576,-0.00131713,0.46043,0.00198745,0.0397632,1868,1156,-0.0550815,0.128804
651,-132,0.0186768,-0.0290527,0.000894041,-0.000773199,0.00100813,0.00136857,-0.00124772,0.439934,0.00151105,0.0375184,1875,1156,0.0187332,0.029001
658,-132,-0.0391846,-0.0610352,0.0006651,-0.000880349,0.000714854,0.000945048,-0.0011603,0.373258,0.00121764,0.0362688,1882,1156,-0.0391675,0.0609923
665,-132,-0.171997,0.0223389,0.000405666,-0.00093281,0.000423924,0.000528634,-0.00105578,0.282324,0.000931485,0.0371473,1889,1156,-0.172031,-0.0223186
672,-132,-0.0782471,-0.0395508,0.000162877,-0.000947589,0.000180693,0.000191539,-0.000976251,0.157313,0.000723186,0.0363551,1896,1156,-0.0782895,0.0395727
679,-132,-0.0924072,0.0100098,-2.86585e-05,-0.000934402,-1.51967e-05,-2.84036e-05,-0.000934657,-0.0167718,0.000613856,0.0349603,1903,1156,-0.0923741,-0.0100475
686,-132,-0.148315,-0.0549316,-0.000216873,-0.000906121,-0.000161757,-0.000180799,-0.000942195,-0.219423,0.000577378,0.0328152,1910,1156,-0.148272,0.0549355
693,-132,-0.123291,-0.00146484,-0.000390076,-0.000860773,-0.000276823,-0.000262079,-0.000988771,-0.4331,0.000591502,0.0222011,1917,1156,-0.123262,0.00150964
700,-132,-0.0172119,0.151245,-0.000573891,-0.000782599,-0.00036669,-0.000296995,-0.00105949,-0.646771,0.000631073,0.0201559,1924,1156,-0.0172456,-0.151287
707,-132,0.0352783,0.0821533,-0.000632403,-0.000682437,-0.000406561,-0.00025009,-0.00106475,-0.75467,0.000642894,0.0302392,1931,1156,0.0352497,-0.0822061
714,-132,-0.0168457,0.0390625,-0.000616206,-0.00057398,-0.000393501,-0.000201026,-0.00098916,-0.8122,0.000603693,0.0286182,1938,1156,-0.0168411,-0.039021
721,-132,-0.0495605,0.0854492,-0.000640447,-0.000479729,-0.00030655,-0.00024318,-0.000876996,-0.913584,0.000522809,0.0196468,1945,1156,-0.0495389,-0.0854092
728,-132,-0.0668945,0.0863037,-0.000622159,-0.000428853,-0.000131082,-0.000362643,-0.000688368,-1.10308,0.00039762,0.0111706,1952,1156,-0.0668354,-0.0863623
735,-132,-0.0710449,0.0667725,-0.00060644,-0.000446677,0.000166631,-0.000341769,-0.000711348,1.00891,0.000410801,0.0138959,1959,1156,-0.0710917,-0.0668299
742,-132,-0.100952,0.0264893,-0.000821736,-0.000500186,0.000173856,-0.000424161,-0.000897761,1.15856,0.000518585,0.0188214,1966,1156,-0.100924,-0.0264673
749,-132,-0.0931396,0.0286865,-0.000984563,-0.000367899,-0.000373715,-0.00019174,-0.00116072,-1.13031,0.000718481,0.0226677,1973,1156,-0.0931893,-0.0287098
756,-132,-0.0629883,0.0266113,-0.00113528,-0.000200305,-0.00141019,0.00081786,-0.00215345,-0.945452,0.00177231,0.0218754,1980,1156,-0.0630103,-0.0266545
763,-132,-0.0511475,0.0714111,-0.00145799,0.0011148,-0.00282,0.00292796,-0.00327115,-0.999384,0.00358089,0.0128246,1987,1156,-0.0511862,-0.0714559
770,-132,-0.041748,0.0772705,-0.00184548,0.00214504,-0.00468689,0.00524369,-0.00494414,-0.986635,0.0058828,0.0120178,1994,1156,-0.0417639,-0.0772389
777,-132,-0.0584717,0.0726318,-0.00243685,0.0038178,-0.00745999,0.00877945,-0.0073985,-0.983877,0.00935168,0.0199826,2001,1156,-0.0584223,-0.0726157
784,-132,-0.119019,0.074585,-0.0031671,0.00643839,-0.0113666,0.0139752,-0.0107039,-0.985288,0.0142902,0.0411563,2008,1156,-0.119007,-0.0746148
791,-132,-0.162354,0.0927734,0,0,0,0,0,0,0,-1,2015,1156,-0.162384,-0.0927681
798,-132,-0.636719,0.449829,-0.00493519,0.0163239,-0.0235779,0.0315575,-0.0201688,-0.997168,0.0301045,0.0466019,2022,1156,-0.63675,-0.449877
805,-132,0.00427246,-1.81848,-0.00578034,0.0249887,-0.0323851,0.0454577,-0.0262494,-1.00714,0.0418923,0.0447594,2029,1156,0.00430438,1.81842
812,-132,-0.171509,-2.53748,-0.00630028,0.0376238,-0.0433702,0.0642756,-0.0329521,-1.01977,0.0570972,0.0484013,2036,1156,-0.171483,2.53749
-700,-139,0,0,0,0,0,0,0,0,0,-1,524,1163,0,0
-693,-139,1.85309,0.571777,0,0,0,0,0,0,0,-1,531,1163,1.85306,-0.571741
-686,-139,1.51691,0.345215,0,0,0,0,0,0,0,-1,538,1163,1.51691,-0.345182
-679,-139,-1.1532,0.509888,-0.0110153,0.0286032,-0.0100082,0.0309879,-0.0134,-1.33689,0.0262894,0.0491177,545,1163,-1.15321,-0.50994
-672,-139,-0.982422,0.450073,-0.00293549,0.0226368,-0.00663098,0.024254,-0.00455265,-1.33159,0.0178811,0.0435592,552,1163,-0.98245,-0.450016
-665,-139,-1.03979,0.537476,0.00173289,0.0174722,-0.00422276,0.0185336,0.000671519,-1.32455,0.0121381,0.0416778,559,1163,-1.03977,-0.537509
-658,-139,-0.846497,0.401123,0.0041586,0.0131277,-0.00252242,0.0137884,0.00349789,-1.31461,0.00827649,0.0431246,566,1163,-0.846517,-0.401132
-651,-139,-0.171448,-0.00256348,0.00507137,0.00957408,-0.00135596,0.00995088,0.00469456,-1.29975,0.0057482,0.0396864,573,1163,-0.171463,0.00260782
-644,-139,-0.0375366,0.102295,0.00502481,0.00675738,-0.000589858,0.00693913,0.00484306,-1.2719,0.00410962,0.0218188,580,1163,-0.0375292,-0.102318
-637,-139,-0.0100708,0.0919189,0.00443366,0.00459822,-0.000140496,0.00467876,0.00435313,-1.0503,0.00301649,0.0120709,587,1163,-0.0100714,-0.0918875
-630,-139,-0.0133667,0.0701904,0.0043502,0.00298919,0.000283634,0.00440694,0.00293245,0.197452,0.00259035,0.00991063,594,1163,-0.0133555,-0.070148
-623,-139,-0.0292358,0.0755615,0.00369763,0.00119218,0.000584703,0.00382736,0.00106244,0.218346,0.00228144,0.0151894,601,1163,-0.0292385,-0.0755357
-616,-139,-0.0148926,0.0554199,0.0025306,0.000213359,0.00036663,0.00258723,0.000156735,0.153233,0.00167502,0.0176722,608,1163,-0.0149159,-0.0553873
-609,-139,0.00396729,0.0645752,0.00110107,1.91129e-06,0.000313084,0.00118399,-8.10116e-05,0.258913,0.000817671,0.0199633,615,1163,0.00399112,-0.0646073
-602,-139,-0.0124512,0.0679932,0.000204517,3.5633e-05,-3.12749e-05,0.000210123,3.00274e-05,-0.177353,0.000131223,0.0117312,622,1163,-0.01245,-0.0680264
-595,-139,-0.0109863,0.0804443,3.90675e-05,5.52657e-05,-0.000221203,0.000268518,-0.000174185,-0.803697,0.000257522,0.0100968,629,1163,-0.0109916,-0.0804178
-588,-139,-0.0232544,0.0859375,-3.70095e-06,0.000168567,-0.000410455,0.000501828,-0.000336962,-0.888822,0.000487384,0.0137402,636,1163,-0.023271,-0.0859971
-581,-139,0.0139771,0.0170898,-4.78982e-06,0.000296336,-0.000507778,0.000675403,-0.000383856,-0.929526,0.000619237,0.029511,643,1163,0.0139633,-0.0170506
-574,-139,-0.0454712,0.209961,-1.29958e-05,0.000410518,-0.000405327,0.000656069,-0.000258547,-1.02612,0.000544426,0.0407104,650,1163,-0.0454472,-0.209965
-567,-139,-0.100037,0.253662,-5.64759e-05,0.000597771,-0.000324128,0.000731157,-0.000189862,-1.1804,0.000561529,0.0381862,657,1163,-0.100011,-0.253634
-560,-139,-0.0601807,0.108887,-0.000111412,0.00077306,-0.000212409,0.000821426,-0.000159778,-1.34691,0.000607917,0.0337803,664,1163,-0.0601797,-0.108919
-553,-139,-0.0896606,0.0288086,-0.000152764,0.000947189,1.46305e-05,0.000947383,-0.000152958,1.5575,0.000688264,0.0353308,671,1163,-0.0896806,-0.0287784
-546,-139,-0.12854,-0.0183105,-0.000187552,0.00109204,0.000387811,0.0012004,-0.000295911,1.29833,0.000914996,0.0368882,678,1163,-0.128531,0.018277
-539,-139,-0.020813,-0.0404053,-0.000217469,0.00118701,0.000966389,0.00167936,-0.000709821,1.0996,0.00141675,0.0395739,685,1163,-0.0208282,0.0404321
-532,-139,0.0171509,-0.171875,-0.00020488,0.0012095,0.00179911,0.00243542,-0.0014308,0.97266,0.00225714,0.0365034,692,1163,0.017168,0.171908
-525,-139,-0.0565186,-0.182129,-0.000185,0.00113294,0.00301076,0.003556,-0.00260806,0.893135,0.00357282,0.034991,699,1163,-0.0564892,0.182085
-518,-139,0,0,0,0,0,0,0,0,0,-1,706,1163,0,0
-511,-139,0,0,0,0,0,0,0,0,0,-1,713,1163,0,0
-504,-139,0,0,0,0,0,0,0,0,0,-1,720,1163,0,0
-497,-139,0,0,0,0,0,0,0,0,0,-1,727,1163,0,0
-490,-139,0,0,0,0,0,0,0,0,0,-1,734,1163,0,0
-483,-139,0,0,0,0,0,0,0,0,0,-1,741,1163,0,0
-476,-139,0,0,0,0,0,0,0,0,0,-1,748,1163,0,0
-469,-139,0,0,0,0,0,0,0,0,0,-1,755,1163,0,0
-462,-139,0,0,0,0,0,0,0,0,0,-1,762,1163,0,0
-455,-139,0,0,0,0,0,0,0,0,0,-1,769,1163,0,0
-448,-139,0,0,0,0,0,0,0,0,0,-1,776,1163,0,0
-441,-139,0,0,0,0,0,0,0,0,0,-1,783,1163,0,0
-434,-139,0,0,0,0,0,0,0,0,0,-1,790,1163,0,0
-427,-139,0,0,0,0,0,0,0,0,0,-1,797,1163,0,0
-420,-139,0,0,0,0,0,0,0,0,0,-1,804,1163,0,0
-413,-139,0,0,0,0,0,0,0,0,0,-1,811,1163,0,0
-406,-139,0,0,0,0,0,0,0,0,0,-1,818,1163,0,0
-399,-139,0,0,0,0,0,0,0,0,0,-1,825,1163,0,0
-392,-139,0,0,0,0,0,0,0,0,0,-1,832,1163,0,0
-385,-139,0,0,0,0,0,0,0,0,0,-1,839,1163,0,0
-378,-139,0,0,0,0,0,0,0,0,0,-1,846,1163,0,0
-371,-139,0,0,0,0,0,0,0,0,0,-1,853,1163,0,0
-364,-139,0,0,0,0,0,0,0,0,0,-1,860,1163,0,0
-357,-139,0,0,0,0,0,0,0,0,0,-1,867,1163,0,0
-350,-139,0,0,0,0,0,0,0,0,0,-1,874,1163,0,0
-343,-139,0,0,0,0,0,0,0,0,0,-1,881,1163,0,0
-336,-139,0,0,0,0,0,0,0,0,0,-1,888,1163,0,0
-329,-139,0,0,0,0,0,0,0,0,0,-1,895,1163,0,0
-322,-139,0,0,0,0,0,0,0,0,0,-1,902,1163,0,0
-315,-139,0,0,0,0,0,0,0,0,0,-1,909,1163,0,0
-308,-139,0,0,0,0,0,0,0,0,0,-1,916,1163,0,0
-301,-139,0,0,0,0,0,0,0,0,0,-1,923,1163,0,0
-294,-139,0,0,0,0,0,0,0,0,0,-1,930,1163,0,0
-287,-139,0,0,0,0,0,0,0,0,0,-1,937,1163,0,0
-280,-139,0,0,0,0,0,0,0,0,0,-1,944,1163,0,0
-273,-139,0,0,0,0,0,0,0,0,0,-1,951,1163,0,0
-266,-139,0,0,0,0,0,0,0,0,0,-1,958,1163,0,0
-259,-139,0,0,0,0,0,0,0,0,0,-1,965,1163,0,0
-252,-139,0,0,0,0,0,0,0,0,0,-1,972,1163,0,0
-245,-139,0,0,0,0,0,0,0,0,0,-1,979,1163,0,0
-238,-139,0,0,0,0,0,0,0,0,0,-1,986,1163,0,0
-231,-139,0,0,0,0,0,0,0,0,0,-1,993,1163,0,0
-224,-139,0,0,0,0,0,0,0,0,0,-1,1000,1163,0,0
-217,-139,0,0,0,0,0,0,0,0,0,-1,1007,1163,0,0
-210,-139,0,0,0,0,0,0,0,0,0,-1,1014,1163,0,0
-203,-139,0,0,0,0,0,0,0,0,0,-1,1021,1163,0,0
-196,-139,0,0,0,0,0,0,0,0,0,-1,1028,1163,0,0
-189,-139,0,0,0,0,0,0,0,0,0,-1,1035,1163,0,0
-182,-139,0,0,0,0,0,0,0,0,0,-1,1042,1163,0,0
-175,-139,0,0,0,0,0,0,0,0,0,-1,1049,1163,0,0
-168,-139,0,0,0,0,0,0,0,0,0,-1,1056,1163,0,0
-161,-139,0,0,0,0,0,0,0,0,0,-1,1063,1163,0,0
-154,-139,0,0,0,0,0,0,0,0,0,-1,1070,1163,0,0
-147,-139,0,0,0,0,0,0,0,0,0,-1,1077,1163,0,0
-140,-139,0,0,0,0,0,0,0,0,0,-1,1084,1163,0,0
-133,-139,0,0,0,0,0,0,0,0,0,-1,1091,1163,0,0
-126,-139,0,0,0,0,0,0,0,0,0,-1,1098,1163,0,0
-119,-139,0,0,0,0,0,0,0,0,0,-1,1105,1163,0,0
-112,-139,0,0,0,0,0,0,0,0,0,-1,1112,1163,0,0
-105,-139,0,0,0,0,0,0,0,0,0,-1,1119,1163,0,0
-98,-139,0,0,0,0,0,0,0,0,0,-1,1126,1163,0,0
-91,-139,0,0,0,0,0,0,0,0,0,-1,1133,1163,0,0
-84,-139,0,0,0,0,0,0,0,0,0,-1,1140,1163,0,0
-77,-139,0,0,0,0,0,0,0,0,0,-1,1147,1163,0,0
-70,-139,0,0,0,0,0,0,0,0,0,-1,1154,1163,0,0
-63,-139,0,0,0,0,0,0,0,0,0,-1,1161,1163,0,0
-56,-139,0,0,0,0,0,0,0,0,0,-1,1168,1163,0,0
-49,-139,0,0,0,0,0,0,0,0,0,-1,1175,1163,0,0
-42,-139,0,0,0,0,0,0,0,0,0,-1,1182,1163,0,0
-35,-139,0,0,0,0,0,0,0,0,0,-1,1189,1163,0,0
-28,-139,0,0,0,0,0,0,0,0,0,-1,1196,1163,0,0
-21,-139,0,0,0,0,0,0,0,0,0,-1,1203,1163,0,0
-14,-139,0,0,0,0,0,0,0,0,0,-1,1210,1163,0,0
-7,-139,0,0,0,0,0,0,0,0,0,-1,1217,1163,0,0
0,-139,0,0,0,0,0,0,0,0,0,-1,1224,1163,0,0
7,-139,0,0,0,0,0,0,0,0,0,-1,1231,1163,0,0
14,-139,0,0,0,0,0,0,0,0,0,-1,1238,1163,0,0
21,-139,0,0,0,0,0,0,0,0,0,-1,1245,1163,0,0
28,-139,0,0,0,0,0,0,0,0,0,-1,1252,1163,0,0
35,-139,0,0,0,0,0,0,0,0,0,-1,1259,1163,0,0
42,-139,0,0,0,0,0,0,0,0,0,-1,1266,1163,0,0
49,-139,0,0,0,0,0,0,0,0,0,-1,1273,1163,0,0
56,-139,0,0,0,0,0,0,0,0,0,-1,1280,1163,0,0
63,-139,0,0,0,0,0,0,0,0,0,-1,1287,1163,0,0
70,-139,0,0,0,0,0,0,0,0,0,-1,1294,1163,0,0
77,-139,0,0,0,0,0,0,0,0,0,-1,1301,1163,0,0
84,-139,0,0,0,0,0,0,0,0,0,-1,1308,1163,0,0
91,-139,0,0,0,0,0,0,0,0,0,-1,1315,1163,0,0
98,-139,0,0,0,0,0,0,0,0,0,-1,1322,1163,0,0
105,-139,0,0,0,0,0,0,0,0,0,-1,1329,1163,0,0
112,-139,0,0,0,0,0,0,0,0,0,-1,1336,1163,0,0
119,-139,0,0,0,0,0,0,0,0,0,-1,1343,1163,0,0
126,-139,0,0,0,0,0,0,0,0,0,-1,1350,1163,0,0
133,-139,0,0,0,0,0,0,0,0,0,-1,1357,1163,0,0
140,-139,0,0,0,0,0,0,0,0,0,-1,1364,1163,0,0
147,-139,0,0,0,0,0,0,0,0,0,-1,1371,1163,0,0
154,-139,0,0,0,0,0,0,0,0,0,-1,1378,1163,0,0
161,-139,0,0,0,0,0,0,0,0,0,-1,1385,1163,0,0
168,-139,0,0,0,0,0,0,0,0,0,-1,1392,1163,0,0
175,-139,0,0,0,0,0,0,0,0,0,-1,1399,1163,0,0
182,-139,0,0,0,0,0,0,0,0,0,-1,1406,1163,0,0
189,-139,0,0,0,0,0,0,0,0,0,-1,1413,1163,0,0
196,-139,0,0,0,0,0,0,0,0,0,-1,1420,1163,0,0
203,-139,0,0,0,0,0,0,0,0,0,-1,1427,1163,0,0
210,-139,0,0,0,0,0,0,0,0,0,-1,1434,1163,0,0
217,-139,0,0,0,0,0,0,0,0,0,-1,1441,1163,0,0
224,-139,0,0,0,0,0,0,0,0,0,-1,1448,1163,0,0
231,-139,0,0,0,0,0,0,0,0,0,-1,1455,1163,0,0
238,-139,0,0,0,0,0,0,0,0,0,-1,1462,1163,0,0
245,-139,0,0,0,0,0,0,0,0,0,-1,1469,1163,0,0
252,-139,0,0,0,0,0,0,0,0,0,-1,1476,1163,0,0
259,-139,0,0,0,0,0,0,0,0,0,-1,1483,1163,0,0
266,-139,0,0,0,0,0,0,0,0,0,-1,1490,1163,0,0
273,-139,0,0,0,0,0,0,0,0,0,-1,1497,1163,0,0
280,-139,0,0,0,0,0,0,0,0,0,-1,1504,1163,0,0
287,-139,0,0,0,0,0,0,0,0,0,-1,1511,1163,0,0
294,-139,0,0,0,0,0,0,0,0,0,-1,1518,1163,0,0
301,-139,0,0,0,0,0,0,0,0,0,-1,1525,1163,0,0
308,-139,0,0,0,0,0,0,0,0,0,-1,1532,1163,0,0
315,-139,0,0,0,0,0,0,0,0,0,-1,1539,1163,0,0
322,-139,0,0,0,0,0,0,0,0,0,-1,1546,1163,0,0
329,-139,0,0,0,0,0,0,0,0,0,-1,1553,1163,0,0
336,-139,0,0,0,0,0,0,0,0,0,-1,1560,1163,0,0
343,-139,0,0,0,0,0,0,0,0,0,-1,1567,1163,0,0
350,-139,0,0,0,0,0,0,0,0,0,-1,1574,1163,0,0
357,-139,0,0,0,0,0,0,0,0,0,-1,1581,1163,0,0
364,-139,0,0,0,0,0,0,0,0,0,-1,1588,1163,0,0
371,-139,0,0,0,0,0,0,0,0,0,-1,1595,1163,0,0
378,-139,0,0,0,0,0,0,0,0,0,-1,1602,1163,0,0
385,-139,0,0,0,0,0,0,0,0,0,-1,1609,1163,0,0
392,-139,0,0,0,0,0,0,0,0,0,-1,1616,1163,0,0
399,-139,0,0,0,0,0,0,0,0,0,-1,1623,1163,0,0
406,-139,0,0,0,0,0,0,0,0,0,-1,1630,1163,0,0
413,-139,0,0,0,0,0,0,0,0,0,-1,1637,1163,0,0
420,-139,0,0,0,0,0,0,0,0,0,-1,1644,1163,0,0
427,-139,0,0,0,0,0,0,0,0,0,-1,1651,1163,0,0
434,-139,0,0,0,0,0,0,0,0,0,-1,1658,1163,0,0
441,-139,0,0,0,0,0,0,0,0,0,-1,1665,1163,0,0
448,-139,0,0,0,0,0,0,0,0,0,-1,1672,1163,0,0
455,-139,0,0,0,0,0,0,0,0,0,-1,1679,1163,0,0
462,-139,0,0,0,0,0,0,0,0,0,-1,1686,1163,0,0
469,-139,0,0,0,0,0,0,0,0,0,-1,1693,1163,0,0
476,-139,0,0,0,0,0,0,0,0,0,-1,1700,1163,0,0
483,-139,0,0,0,0,0,0,0,0,0,-1,1707,1163,0,0
490,-139,0,0,0,0,0,0,0,0,0,-1,1714,1163,0,0
497,-139,0,0,0,0,0,0,0,0,0,-1,1721,1163,0,0
504,-139,0,0,0,0,0,0,0,0,0,-1,1728,1163,0,0
511,-139,0,0,0,0,0,0,0,0,0,-1,1735,1163,0,0
518,-139,0,0,0,0,0,0,0,0,0,-1,1742,1163,0,0
525,-139,0,0,0,0,0,0,0,0,0,-1,1749,1163,0,0
532,-139,0,0,0,0,0,0,0,0,0,-1,1756,1163,0,0
539,-139,0,0,0,0,0,0,0,0,0,-1,1763,1163,0,0
546,-139,0,0,0,0,0,0,0,0,0,-1,1770,1163,0,0
553,-139,0,0,0,0,0,0,0,0,0,-1,1777,1163,0,0
560,-139,0,0,0,0,0,0,0,0,0,-1,1784,1163,0,0
567,-139,0,0,0,0,0,0,0,0,0,-1,1791,1163,0,0
574,-139,0,0,0,0,0,0,0,0,0,-1,1798,1163,0,0
581,-139,0,0,0,0,0,0,0,0,0,-1,1805,1163,0,0
588,-139,0,0,0,0,0,0,0,0,0,-1,1812,1163,0,0
595,-139,0,0,0,0,0,0,0,0,0,-1,1819,1163,0,0
602,-139,0,0,0,0,0,0,0,0,0,-1,1826,1163,0,0
609,-139,0,0,0,0,0,0,0,0,0,-1,1833,1163,0,0
616,-139,0,0,0,0,0,0,0,0,0,-1,1840,1163,0,0
623,-139,0,0,0,0,0,0,0,0,0,-1,1847,1163,0,0
630,-139,0,0,0,0,0,0,0,0,0,-1,1854,1163,0,0
637,-139,0,0,0,0,0,0,0,0,0,-1,1861,1163,0,0
644,-139,-0.0338135,-0.022583,0.00117544,-0.000441571,0.00158431,0.00214562,-0.00141175,0.549463,0.00206836,0.0374475,1868,1163,-0.0337596,0.0226343
651,-139,-0.00524902,-0.0195313,0.000889944,-0.000736496,0.00110935,0.00145222,-0.00129877,0.469112,0.00158911,0.035832,1875,1163,-0.00526765,0.0195617
658,-139,-0.0838623,-0.00646973,0.000766682,-0.000943822,0.000715513,0.00102652,-0.00120366,0.348335,0.00128894,0.0357726,1882,1163,-0.083913,0.00643027
665,-139,-0.0389404,0.0848389,0.000536812,-0.00106868,0.000349373,0.000609545,-0.00114141,0.205249,0.00102634,0.0345329,1889,1163,-0.0388809,-0.0848533
672,-139,0.0400391,0.0606689,0.000294703,-0.00113093,5.32988e-05,0.000296693,-0.00113292,0.0373166,0.000871183,0.0337615,1896,1163,0.0399848,-0.0606459
679,-139,-0.0090332,0.0297852,7.86563e-05,-0.00114025,-0.000172987,0.000102731,-0.00116433,-0.138283,0.00081263,0.0317166,1903,1163,-0.00901514,-0.029836
686,-139,-0.107422,0.00500488,-0.000145693,-0.00111034,-0.000332779,-4.2032e-05,-0.001214,-0.301974,0.000795694,0.027704,1910,1163,-0.107466,-0.00503678
693,-139,-0.0802002,0.0343018,-0.000353371,-0.0010511,-0.000453767,-0.000129862,-0.00127461,-0.457681,0.000809928,0.0151319,1917,1163,-0.0801955,-0.034301
700,-139,0.0236816,0.171509,-0.000572615,-0.000955017,-0.000543249,-0.000187902,-0.00133973,-0.616189,0.000837575,0.0283029,1924,1163,0.0236397,-0.171453
707,-139,-0.0102539,0.0810547,-0.000670285,-0.000830462,-0.00057031,-0.000174468,-0.00132628,-0.715639,0.000832149,0.0227815,1931,1163,-0.0102339,-0.0810636
714,-139,-0.0318604,0.0498047,-0.000683155,-0.000695617,-0.000531033,-0.000158316,-0.00122046,-0.779532,0.000766336,0.024488,1938,1163,-0.0318016,-0.0498051
721,-139,-0.0594482,0.0982666,-0.000704758,-0.000579736,-0.000404119,-0.000233322,-0.00105117,-0.862132,0.000637405,0.0170055,1945,1163,-0.0594325,-0.0983188
728,-139,-0.0227051,0.076416,-0.000650955,-0.000508045,-0.000182923,-0.000383116,-0.000775884,-0.971598,0.000447968,0.0181525,1952,1163,-0.0227416,-0.0764035
735,-139,-0.0599365,0.0649414,-0.000596365,-0.000494952,0.000158864,-0.000378898,-0.000712419,0.939878,0.000411593,0.0150899,1959,1163,-0.0599205,-0.0649638
742,-139,-0.0942383,0.015625,-0.000800216,-0.00058372,0.00022554,-0.000441796,-0.00094214,1.00914,0.000544295,0.019774,1966,1163,-0.0942737,-0.0156292
749,-139,-0.0911865,0.0020752,-0.000909858,-0.000496587,-0.000218576,-0.000402434,-0.00100401,-1.16406,0.000583454,0.0178039,1973,1163,-0.09123,-0.00207076
756,-139,-0.0587158,0.0458984,-0.000934531,-0.000436601,-0.00110861,0.000450652,-0.00182178,-0.895853,0.00138932,0.0103681,1980,1163,-0.0587519,-0.0458463
763,-139,-0.0571289,0.0653076,-0.00113708,0.000782892,-0.00239072,0.00239917,-0.00275335,-0.976317,0.00297715,0.00967696,1987,1163,-0.057126,-0.0653599
770,-139,-0.0635986,0.0754395,-0.00144014,0.00170862,-0.00411399,0.0045392,-0.00427071,-0.968145,0.00508719,0.0105567,1994,1163,-0.0635621,-0.0754921
777,-139,-0.0831299,0.0646973,-0.00193244,0.00327489,-0.00673446,0.00789148,-0.00654903,-0.969857,0.00834923,0.020637,2001,1163,-0.0831353,-0.0646679
784,-139,-0.140381,0.101563,-0.00254883,0.00581833,-0.0105053,0.0129424,-0.00967292,-0.97489,0.0131024,0.0417329,2008,1163,-0.140369,-0.101509
791,-139,-0.33374,0.214233,-0.00327505,0.00979447,-0.0157105,0.0202751,-0.0137556,-0.982488,0.0197674,0.0498346,2015,1163,-0.333693,-0.214201
798,-139,-0.687134,0.140869,-0.0040776,0.0158685,-0.0226569,0.0306502,-0.0188593,-0.992726,0.0288532,0.0482279,2022,1163,-0.68716,-0.140822
805,-139,-0.424561,-0.2948,-0.00475691,0.0249817,-0.031641,0.0450731,-0.0248483,-1.00505,0.0409282,0.0447273,2029,1163,-0.424584,0.294741
812,-139,0,0,0,0,0,0,0,0,0,-1,2036,1163,0,0
-700,-146,0,0,0,0,0,0,0,0,0,-1,524,1170,0,0
-693,-146,1.61652,0.218018,0,0,0,0,0,0,0,-1,531,1170,1.61652,-0.218057
-686,-146,1.30853,0.0045166,-0.0318253,0.0444112,-0.0108617,0.0459285,-0.0333426,-1.432,0.0459591,0.0471925,538,1170,1.30852,-0.00446114
-679,-146,0.988892,-0.26709,-0.01747,0.0350174,-0.0070836,0.0359566,-0.0184092,-1.43898,0.0319284,0.048977,545,1170,0.988913,0.267135
-672,-146,-0.78363,0.415283,-0.00836643,0.0270503,-0.00449515,0.0276119,-0.00892805,-1.4465,0.0219964,0.0416006,552,1170,-0.783649,-0.415244
-665,-146,-0.618652,0.345581,-0.00269549,0.0204331,-0.00269422,0.0207428,-0.00300518,-1.45635,0.0149314,0.039828,559,1170,-0.618669,-0.345596
-658,-146,-0.0645752,0.0136719,0,0,0,0,0,0,0,-1,566,1170,-0.0645616,-0.0136955
-651,-146,-0.0218506,-0.0137939,0.00237778,0.0107511,-0.000629055,0.0107981,0.00233079,-1.49623,0.00656127,0.0380065,573,1170,-0.0218413,0.0138072
-644,-146,-0.0224609,0.0487061,0.00302101,0.00742566,-0.000112117,0.00742851,0.00301816,-1.54536,0.00431389,0.0197603,580,1170,-0.0224519,-0.048736
-637,-146,-0.00848389,0.0799561,0.00299129,0.00493289,0.000161282,0.0049462,0.00297799,1.48848,0.00287546,0.010443,587,1170,-0.00850109,-0.0799384
-630,-146,-0.00793457,0.0769043,0.00334194,0.00301225,0.000432975,0.00364039,0.0027138,0.603509,0.00218458,0.010381,594,1170,-0.00793177,-0.0769215
-623,-146,-0.0217896,0.0531006,0.00301327,0.00108664,0.000614117,0.00319237,0.000907541,0.283771,0.00189943,0.0129116,601,1170,-0.021778,-0.0531451
-616,-146,-0.0328979,0.0648193,0.00212836,7.57439e-05,0.000308024,0.00217359,3.05169e-05,0.145787,0.00143899,0.0189413,608,1170,-0.0329112,-0.0648552
-609,-146,0.00616455,0.0605469,0.0010294,-0.000134679,0.000163227,0.00105185,-0.000157134,0.136708,0.000759055,0.0175916,615,1170,0.00618314,-0.0604958
-602,-146,0.00396729,0.0581055,0.000344923,1.0947e-05,-0.00023051,0.000462575,-0.000106705,-0.471931,0.000349425,0.0172889,622,1170,0.00396487,-0.058058
-595,-146,-0.0148315,0.0598145,0.000200286,0.000123889,-0.000467594,0.000631239,-0.000307064,-0.744643,0.000552402,0.00954297,629,1170,-0.014853,-0.0597826
-588,-146,-0.0263062,0.0611572,0.00015405,0.000289889,-0.000707477,0.000932699,-0.00048876,-0.833253,0.000833914,0.0104981,636,1170,-0.026311,-0.0612134
-581,-146,-0.0147705,0.0563965,0.00017838,0.000435796,-0.000849652,0.00116643,-0.000552257,-0.860568,0.00101319,0.0219444,643,1170,-0.0147764,-0.0563883
-574,-146,-0.133911,0.159546,0,0,0,0,0,0,0,-1,650,1170,-0.133916,-0.159486
-567,-146,-0.119995,0.158447,0.000186756,0.000770227,-0.000727014,0.00126186,-0.000304872,-0.976202,0.00095915,0.0413256,657,1170,-0.120018,-0.158471
-560,-146,-0.0339966,0.0827637,0.000146064,0.000936727,-0.000626663,0.00128234,-0.000199545,-1.0668,0.000928581,0.0353759,664,1170,-0.0340098,-0.0827921
-553,-146,-0.0879517,0.0916748,0.000101027,0.00108376,-0.000377045,0.00121175,-2.69648e-05,-1.24354,0.000816968,0.0333043,671,1170,-0.0879466,-0.0916428
-546,-146,-0.0592041,0.00866699,4.48949e-05,0.00117545,5.96562e-05,0.00117859,4.17557e-05,1.51822,0.000772185,0.035648,678,1170,-0.0591775,-0.00863747
-539,-146,-0.18219,0.148682,-2.42767e-05,0.00118866,0.000745559,0.00154327,-0.000378881,1.12684,0.00117567,0.037253,685,1170,-0.182175,-0.148679
-532,-146,-0.238647,-0.0164795,-7.36596e-05,0.00110216,0.00173258,0.00234386,-0.00131536,0.948965,0.00214029,0.035521,692,1170,-0.238652,0.0164853
-525,-146,-0.115845,-0.0146484,-0.000126877,0.000894469,0.00312052,0.00354583,-0.00277824,0.866504,0.00366015,0.0370633,699,1170,-0.115837,0.0145993
-518,-146,0,0,0,0,0,0,0,0,0,-1,706,1170,0,0
-511,-146,0,0,0,0,0,0,0,0,0,-1,713,1170,0,0
-504,-146,0,0,0,0,0,0,0,0,0,-1,720,1170,0,0
-497,-146,0,0,0,0,0,0,0,0,0,-1,727,1170,0,0
-490,-146,0,0,0,0,0,0,0,0,0,-1,734,1170,0,0
-483,-146,0,0,0,0,0,0,0,0,0,-1,741,1170,0,0
-476,-146,0,0,0,0,0,0,0,0,0,-1,748,1170,0,0
-469,-146,0,0,0,0,0,0,0,0,0,-1,755,1170,0,0
-462,-146,0,0,0,0,0,0,0,0,0,-1,762,1170,0,0
-455,-146,0,0,0,0,0,0,0,0,0,-1,769,1170,0,0
-448,-146,0,0,0,0,0,0,0,0,0,-1,776,1170,0,0
-441,-146,0,0,0,0,0,0,0,0,0,-1,783,1170,0,0
-434,-146,0,0,0,0,0,0,0,0,0,-1,790,1170,0,0
-427,-146,0,0,0,0,0,0,0,0,0,-1,797,1170,0,0
-420,-146,0,0,0,0,0,0,0,0,0,-1,804,1170,0,0
-413,-146,0,0,0,0,0,0,0,0,0,-1,811,1170,0,0
-406,-146,0,0,0,0,0,0,0,0,0,-1,818,1170,0,0
-399,-146,0,0,0,0,0,0,0,0,0,-1,825,1170,0,0
-392,-146,0,0,0,0,0,0,0,0,0,-1,832,1170,0,0
-385,-146,0,0,0,0,0,0,0,0,0,-1,839,1170,0,0
-378,-146,0,0,0,0,0,0,0,0,0,-1,846,1170,0,0
-371,-146,0,0,0,0,0,0,0,0,0,-1,853,1170,0,0
-364,-146,0,0,0,0,0,0,0,0,0,-1,860,1170,0,0
-357,-146,0,0,0,0,0,0,0,0,0,-1,867,1170,0,0
-350,-146,0,0,0,0,0,0,0,0,0,-1,874,1170,0,0
-343,-146,0,0,0,0,0,0,0,0,0,-1,881,1170,0,0
-336,-146,0,0,0,0,0,0,0,0,0,-1,888,1170,0,0
-329,-146,0,0,0,0,0,0,0,0,0,-1,895,1170,0,0
-322,-146,0,0,0,0,0,0,0,0,0,-1,902,1170,0,0
-315,-146,0,0,0,0,0,0,0,0,0,-1,909,1170,0,0
-308,-146,0,0,0,0,0,0,0,0,0,-1,916,1170,0,0
-301,-146,0,0,0,0,0,0,0,0,0,-1,923,1170,0,0
-294,-146,0,0,0,0,0,0,0,0,0,-1,930,1170,0,0
-287,-146,0,0,0,0,0,0,0,0,0,-1,937,1170,0,0
-280,-146,0,0,0,0,0,0,0,0,0,-1,944,1170,0,0
-273,-146,0,0,0,0,0,0,0,0,0,-1,951,1170,0,0
-266,-146,0,0,0,0,0,0,0,0,0,-1,958,1170,0,0
-259,-146,0,0,0,0,0,0,0,0,0,-1,965,1170,0,0
-252,-146,0,0,0,0,0,0,0,0,0,-1,972,1170,0,0
-245,-146,0,0,0,0,0,0,0,0,0,-1,979,1170,0,0
-238,-146,0,0,0,0,0,0,0,0,0,-1,986,1170,0,0
-231,-146,0,0,0,0,0,0,0,0,0,-1,993,1170,0,0
-224,-146,0,0,0,0,0,0,0,0,0,-1,1000,1170,0,0
-217,-146,0,0,0,0,0,0,0,0,0,-1,1007,1170,0,0
-210,-146,0,0,0,0,0,0,0,0,0,-1,1014,1170,0,0
-203,-146,0,0,0,0,0,0,0,0,0,-1,1021,1170,0,0
-196,-146,0,0,0,0,0,0,0,0,0,-1,1028,1170,0,0
-189,-146,0,0,0,0,0,0,0,0,0,-1,1035,1170,0,0
-182,-146,0,0,0,0,0,0,0,0,0,-1,1042,1170,0,0
-175,-146,0,0,0,0,0,0,0,0,0,-1,1049,1170,0,0
-168,-146,0,0,0,0,0,0,0,0,0,-1,1056,1170,0,0
-161,-146,0,0,0,0,0,0,0,0,0,-1,1063,1170,0,0
-154,-146,0,0,0,0,0,0,0,0,0,-1,1070,1170,0,0
-147,-146,0,0,0,0,0,0,0,0,0,-1,1077,1170,0,0
-140,-146,0,0,0,0,0,0,0,0,0,-1,1084,1170,0,0
-133,-146,0,0,0,0,0,0,0,0,0,-1,1091,1170,0,0
-126,-146,0,0,0,0,0,0,0,0,0,-1,1098,1170,0,0
-119,-146,0,0,0,0,0,0,0,0,0,-1,1105,1170,0,0
-112,-146,0,0,0,0,0,0,0,0,0,-1,1112,1170,0,0
-105,-146,0,0,0,0,0,0,0,0,0,-1,1119,1170,0,0
-98,-146,0,0,0,0,0,0,0,0,0,-1,1126,1170,0,0
-91,-146,0,0,0,0,0,0,0,0,0,-1,1133,1170,0,0
-84,-146,0,0,0,0,0,0,0,0,0,-1,1140,1170,0,0
-77,-146,0,0,0,0,0,0,0,0,0,-1,1147,1170,0,0
-70,-146,0,0,0,0,0,0,0,0,0,-1,1154,1170,0,0
-63,-146,0,0,0,0,0,0,0,0,0,-1,1161,1170,0,0
-56,-146,0,0,0,0,0,0,0,0,0,-1,1168,1170,0,0
-49,-146,0,0,0,0,0,0,0,0,0,-1,1175,1170,0,0
-42,-146,0,0,0,0,0,0,0,0,0,-1,1182,1170,0,0
-35,-146,0,0,0,0,0,0,0,0,0,-1,1189,1170,0,0
-28,-146,0,0,0,0,0,0,0,0,0,-1,1196,1170,0,0
-21,-146,0,0,0,0,0,0,0,0,0,-1,1203,1170,0,0
-14,-146,0,0,0,0,0,0,0,0,0,-1,1210,1170,0,0
-7,-146,0,0,0,0,0,0,0,0,0,-1,1217,1170,0,0
0,-146,0,0,0,0,0,0,0,0,0,-1,1224,1170,0,0
7,-146,0,0,0,0,0,0,0,0,0,-1,1231,1170,0,0
14,-146,0,0,0,0,0,0,0,0,0,-1,1238,1170,0,0
21,-146,0,0,0,0,0,0,0,0,0,-1,1245,1170,0,0
28,-146,0,0,0,0,0,0,0,0,0,-1,1252,1170,0,0
35,-146,0,0,0,0,0,0,0,0,0,-1,1259,1170,0,0
42,-146,0,0,0,0,0,0,0,0,0,-1,1266,1170,0,0
49,-146,0,0,0,0,0,0,0,0,0,-1,1273,1170,0,0
56,-146,0,0,0,0,0,0,0,0,0,-1,1280,1170,0,0
63,-146,0,0,0,0,0,0,0,0,0,-1,1287,1170,0,0
70,-146,0,0,0,0,0,0,0,0,0,-1,1294,1170,0,0
77,-146,0,0,0,0,0,0,0,0,0,-1,1301,1170,0,0
84,-146,0,0,0,0,0,0,0,0,0,-1,1308,1170,0,0
91,-146,0,0,0,0,0,0,0,0,0,-1,1315,1170,0,0
98,-146,0,0,0,0,0,0,0,0,0,-1,1322,1170,0,0
105,-146,0,0,0,0,0,0,0,0,0,-1,1329,1170,0,0
112,-146,0,0,0,0,0,0,0,0,0,-1,1336,1170,0,0
119,-146,0,0,0,0,0,0,0,0,0,-1,1343,1170,0,0
126,-146,0,0,0,0,0,0,0,0,0,-1,1350,1170,0,0
133,-146,0,0,0,0,0,0,0,0,0,-1,1357,1170,0,0
140,-146,0,0,0,0,0,0,0,0,0,-1,1364,1170,0,0
147,-146,0,0,0,0,0,0,0,0,0,-1,1371,1170,0,0
154,-146,0,0,0,0,0,0,0,0,0,-1,1378,1170,0,0
161,-146,0,0,0,0,0,0,0,0,0,-1,1385,1170,0,0
168,-146,0,0,0,0,0,0,0,0,0,-1,1392,1170,0,0
175,-146,0,0,0,0,0,0,0,0,0,-1,1399,1170,0,0
182,-146,0,0,0,0,0,0,0,0,0,-1,1406,1170,0,0
189,-146,0,0,0,0,0,0,0,0,0,-1,1413,1170,0,0
196,-146,0,0,0,0,0,0,0,0,0,-1,1420,1170,0,0
203,-146,0,0,0,0,0,0,0,0,0,-1,1427,1170,0,0
210,-146,0,0,0,0,0,0,0,0,0,-1,1434,1170,0,0
217,-146,0,0,0,0,0,0,0,0,0,-1,1441,1170,0,0
224,-146,0,0,0,0,0,0,0,0,0,-1,1448,1170,0,0
231,-146,0,0,0,0,0,0,0,0,0,-1,1455,1170,0,0
238,-146,0,0,0,0,0,0,0,0,0,-1,1462,1170,0,0
245,-146,0,0,0,0,0,0,0,0,0,-1,1469,1170,0,0
252,-146,0,0,0,0,0,0,0,0,0,-1,1476,1170,0,0
259,-146,0,0,0,0,0,0,0,0,0,-1,1483,1170,0,0
266,-146,0,0,0,0,0,0,0,0,0,-1,1490,1170,0,0
273,-146,0,0,0,0,0,0,0,0,0,-1,1497,1170,0,0
280,-146,0,0,0,0,0,0,0,0,0,-1,1504,1170,0,0
287,-146,0,0,0,0,0,0,0,0,0,-1,1511,1170,0,0
294,-146,0,0,0,0,0,0,0,0,0,-1,1518,1170,0,0
301,-146,0,0,0,0,0,0,0,0,0,-1,1525,1170,0,0
308,-146,0,0,0,0,0,0,0,0,0,-1,1532,1170,0,0
315,-146,0,0,0,0,0,0,0,0,0,-1,1539,1170,0,0
322,-146,0,0,0,0,0,0,0,0,0,-1,1546,1170,0,0
329,-146,0,0,0,0,0,0,0,0,0,-1,1553,1170,0,0
336,-146,0,0,0,0,0,0,0,0,0,-1,1560,1170,0,0
343,-146,0,0,0,0,0,0,0,0,0,-1,1567,1170,0,0
350,-146,0,0,0,0,0,0,0,0,0,-1,1574,1170,0,0
357,-146,0,0,0,0,0,0,0,0,0,-1,1581,1170,0,0
364,-146,0,0,0,0,0,0,0,0,0,-1,1588,1170,0,0
371,-146,0,0,0,0,0,0,0,0,0,-1,1595,1170,0,0
378,-146,0,0,0,0,0,0,0,0,0,-1,1602,1170,0,0
385,-146,0,0,0,0,0,0,0,0,0,-1,1609,1170,0,0
392,-146,0,0,0,0,0,0,0,0,0,-1,1616,1170,0,0
399,-146,0,0,0,0,0,0,0,0,0,-1,1623,1170,0,0
406,-146,0,0,0,0,0,0,0,0,0,-1,1630,1170,0,0
413,-146,0,0,0,0,0,0,0,0,0,-1,1637,1170,0,0
420,-146,0,0,0,0,0,0,0,0,0,-1,1644,1170,0,0
427,-146,0,0,0,0,0,0,0,0,0,-1,1651,1170,0,0
434,-146,0,0,0,0,0,0,0,0,0,-1,1658,1170,0,0
441,-146,0,0,0,0,0,0,0,0,0,-1,1665,1170,0,0
448,-146,0,0,0,0,0,0,0,0,0,-1,1672,1170,0,0
455,-146,0,0,0,0,0,0,0,0,0,-1,1679,1170,0,0
462,-146,0,0,0,0,0,0,0,0,0,-1,1686,1170,0,0
469,-146,0,0,0,0,0,0,0,0,0,-1,1693,1170,0,0
476,-146,0,0,0,0,0,0,0,0,0,-1,1700,1170,0,0
483,-146,0,0,0,0,0,0,0,0,0,-1,1707,1170,0,0
490,-146,0,0,0,0,0,0,0,0,0,-1,1714,1170,0,0
497,-146,0,0,0,0,0,0,0,0,0,-1,1721,1170,0,0
504,-146,0,0,0,0,0,0,0,0,0,-1,1728,1170,0,0
511,-146,0,0,0,0,0,0,0,0,0,-1,1735,1170,0,0
518,-146,0,0,0,0,0,0,0,0,0,-1,1742,1170,0,0
525,-146,0,0,0,0,0,0,0,0,0,-1,1749,1170,0,0
532,-146,0,0,0,0,0,0,0,0,0,-1,1756,1170,0,0
539,-146,0,0,0,0,0,0,0,0,0,-1,1763,1170,0,0
546,-146,0,0,0,0,0,0,0,0,0,-1,1770,1170,0,0
553,-146,0,0,0,0,0,0,0,0,0,-1,1777,1170,0,0
560,-146,0,0,0,0,0,0,0,0,0,-1,1784,1170,0,0
567,-146,0,0,0,0,0,0,0,0,0,-1,1791,1170,0,0
574,-146,0,0,0,0,0,0,0,0,0,-1,1798,1170,0,0
581,-146,0,0,0,0,0,0,0,0,0,-1,1805,1170,0,0
588,-146,0,0,0,0,0,0,0,0,0,-1,1812,1170,0,0
595,-146,0,0,0,0,0,0,0,0,0,-1,1819,1170,0,0
602,-146,0,0,0,0,0,0,0,0,0,-1,1826,1170,0,0
609,-146,0,0,0,0,0,0,0,0,0,-1,1833,1170,0,0
616,-146,0,0,0,0,0,0,0,0,0,-1,1840,1170,0,0
623,-146,0,0,0,0,0,0,0,0,0,-1,1847,1170,0,0
630,-146,0,0,0,0,0,0,0,0,0,-1,1854,1170,0,0
637,-146,-0.0136719,0.0292969,0.00142736,-0.000475086,0.00206607,0.00275066,-0.00179839,0.569663,0.0026455,0.0341424,1861,1170,-0.0136315,-0.0292804
644,-146,-0.013916,0.0187988,0.00099008,-0.000450631,0.00171214,0.00212723,-0.00158778,0.586272,0.00215239,0.034133,1868,1170,-0.0139015,-0.0188148
651,-146,-0.0379639,-0.0412598,0.000939317,-0.000840771,0.00114018,0.00149571,-0.00139716,0.453992,0.00167052,0.0319176,1875,1170,-0.0380155,0.0412065
658,-146,-0.069458,0.0628662,0.000867975,-0.00111662,0.000658503,0.00106659,-0.00131524,0.292943,0.00137765,0.0335716,1882,1170,-0.0694278,-0.0628401
665,-146,-0.00402832,0.0831299,0.000628919,-0.00129588,0.000228329,0.000655634,-0.00132259,0.116471,0.00116356,0.0336949,1889,1170,-0.00405575,-0.0831277
672,-146,0.0714111,0.0482178,0.000353013,-0.00139337,-0.000114504,0.000360488,-0.00140084,-0.0651944,0.00107441,0.0324972,1896,1170,0.0713606,-0.0482703
679,-146,0.0472412,0.0391846,8.34808e-05,-0.00141551,-0.00036931,0.000169529,-0.00150156,-0.228913,0.00106207,0.0252153,1903,1170,0.0472532,-0.0391331
686,-146,-0.0672607,0.0321045,-0.000194836,-0.00137089,-0.00054307,1.75752e-05,-0.0015833,-0.372837,0.00106144,0.0163211,1910,1170,-0.0672726,-0.0320764
693,-146,-0.0594482,0.0651855,-0.000446432,-0.00129188,-0.000666552,-7.9861e-05,-0.00165845,-0.502806,0.00108,0.00975361,1917,1170,-0.0593945,-0.0651685
700,-146,0.0795898,0.216675,-0.000700456,-0.00116487,-0.000750057,-0.000147485,-0.00171784,-0.635284,0.00109937,0.0362119,1924,1170,0.079561,-0.216698
707,-146,0.0507813,0.136475,-0.000831808,-0.00100645,-0.000762692,-0.000151453,-0.0016868,-0.728402,0.0010776,0.0319721,1931,1170,0.0508411,-0.136421
714,-146,-0.0301514,0.0592041,-0.000864525,-0.000832948,-0.000694563,-0.000153995,-0.00154348,-0.796762,0.000981688,0.018487,1938,1170,-0.0301095,-0.0592431
721,-146,-0.0667725,0.0927734,-0.000863603,-0.000684989,-0.000522505,-0.000244214,-0.00130438,-0.870041,0.000800692,0.0211565,1945,1170,-0.0667131,-0.0927316
728,-146,-0.0397949,0.0709229,-0.00073732,-0.000585464,-0.000254182,-0.000396112,-0.000926672,-0.930537,0.000536888,0.0175456,1952,1170,-0.0398382,-0.070913
735,-146,-0.0574951,0.0831299,-0.000623761,-0.000536558,0.000134318,-0.000438942,-0.000721377,0.942339,0.000419742,0.0158423,1959,1170,-0.0574686,-0.0831018
742,-146,-0.0777588,0.0472412,-0.000778136,-0.000663623,0.00028662,-0.000428596,-0.00101316,0.883983,0.000587255,0.015495,1966,1170,-0.0777877,-0.0472246
749,-146,-0.0639648,0.0649414,-0.000793034,-0.000667441,-1.508e-05,-0.000665656,-0.000794819,-1.45296,0.000492503,0.014049,1973,1170,-0.0639845,-0.0649498
756,-146,-0.0465088,0.0720215,-0.000664157,-0.000732552,-0.000714877,1.73401e-05,-0.00141405,-0.761498,0.000948532,0.0105531,1980,1170,-0.0465144,-0.0719721
763,-146,-0.0559082,0.0649414,-0.000730726,0.000249542,-0.00177397,0.00159984,-0.00208103,-0.920182,0.0021312,0.00957076,1987,1170,-0.0559548,-0.0648897
770,-146,-0.0577393,0.0723877,-0.000940732,0.00093341,-0.00325582,0.00338433,-0.00339165,-0.925518,0.00391212,0.0106382,1994,1170,-0.0577571,-0.0724131
777,-146,-0.0748291,0.0582275,-0.00132775,0.00218978,-0.00558591,0.00628726,-0.00542523,-0.937914,0.00676831,0.0195359,2001,1170,-0.0748283,-0.0581821
784,-146,-0.236572,0.242798,-0.00183821,0.00435431,-0.00903113,0.0108052,-0.00828911,-0.95054,0.011056,0.0386655,2008,1170,-0.236554,-0.242824
791,-146,-0.440186,0.510742,-0.00248007,0.00788991,-0.0138989,0.0175395,-0.0121296,-0.963928,0.0172241,0.0439014,2015,1170,-0.440178,-0.510685
798,-146,-0.50415,0.726807,0,0,0,0,0,0,0,-1,2022,1170,-0.50413,-0.726765
805,-146,-0.547485,-1.42822,0,0,0,0,0,0,0,-1,2029,1170,-0.547544,1.42819
812,-146,0,0,0,0,0,0,0,0,0,-1,2036,1170,0,0
-700,-153,0,0,0,0,0,0,0,0,0,-1,524,1177,0,0
-693,-153,0,0,0,0,0,0,0,0,0,-1,531,1177,0,0
-686,-153,0.925537,-0.0866699,-0.0402453,0.0502044,-0.00669857,0.0506978,-0.0407387,-1.49727,0.0528951,0.0439212,538,1177,0.92556,0.0866939
-679,-153,-0.724915,-0.00610352,-0.0246315,0.0386823,-0.00440485,0.0389873,-0.0249364,-1.50167,0.0372024,0.049569,545,1177,-0.724904,0.00616126
-672,-153,-0.491272,-0.0230713,-0.0143478,0.0293115,-0.00280504,0.029491,-0.0145273,-1.5069,0.0258988,0.0428515,552,1177,-0.491255,0.0230741
-665,-153,-0.213745,0.0501709,-0.00761491,0.0217563,-0.00167766,0.0218518,-0.00771042,-1.51392,0.0177067,0.0423302,559,1177,-0.213721,-0.0501859
-658,-153,-0.0717163,-0.101807,0,0,0,0,0,0,0,-1,566,1177,-0.0717219,0.101813
-651,-153,-0.0481567,-0.123657,-0.000767191,0.0110542,-0.000377745,0.0110663,-0.000779249,-1.53889,0.00765051,0.0460229,573,1177,-0.048186,0.123654
-644,-153,-0.0267334,-0.0449219,0.000596056,0.00748632,-5.63492e-05,0.00748678,0.000595595,-1.56262,0.00480497,0.0266931,580,1177,-0.0267601,0.0449739
-637,-153,-0.0118408,0.0664063,0.00117311,0.00486303,0.000102781,0.00486589,0.00117025,1.54297,0.00293273,0.0111622,587,1177,-0.0118252,-0.0663738
-630,-153,-0.00415039,0.0690918,0.00201369,0.00280485,0.000237155,0.0028705,0.00194805,1.30077,0.00169217,0.00989059,594,1177,-0.00416339,-0.0690595
-623,-153,-0.00823975,0.0623779,0.00207995,0.000848641,0.00034337,0.00216923,0.000759361,0.25438,0.00127104,0.00932873,601,1177,-0.00823076,-0.0623447
-616,-153,-0.0143433,0.0557861,0.00150269,-9.62774e-05,8.50924e-05,0.00150721,-0.000100793,0.0530174,0.00104003,0.0113672,608,1177,-0.0143572,-0.0557622
-609,-153,0.00256348,0.0650635,0.000756227,-0.000255946,-8.19594e-05,0.00076282,-0.000262539,-0.0802767,0.000615031,0.0174805,615,1177,0.0025871,-0.06511
-602,-153,-0.0148315,0.0577393,0.000299693,1.38409e-07,-0.000397212,0.000574428,-0.000274596,-0.605105,0.000500269,0.0204161,622,1177,-0.0148212,-0.0576886
-595,-153,-0.0267944,0.057373,0.00016533,0.000196219,-0.000581604,0.000762583,-0.000401035,-0.798673,0.000682539,0.0141313,629,1177,-0.0268116,-0.057355
-588,-153,-0.0443726,0.0450439,7.78024e-05,0.000406038,-0.000790273,0.00104905,-0.000565214,-0.887779,0.00094585,0.00904939,636,1177,-0.0443608,-0.0450942
-581,-153,-0.0754395,0.0524902,6.79943e-05,0.000555825,-0.0009094,0.00125345,-0.000629633,-0.916422,0.00110691,0.0180955,643,1177,-0.0754544,-0.0525345
-574,-153,-0.057373,-0.0465088,7.33996e-05,0.000694003,-0.000832983,0.0012726,-0.000505202,-0.963695,0.00105781,0.039856,650,1177,-0.0573852,0.0465014
-567,-153,-0.0628052,-0.0600586,1.7739e-05,0.000904557,-0.000748982,0.00133154,-0.000409246,-1.05266,0.00105101,0.0447351,657,1177,-0.0627836,0.0600745
-560,-153,-0.0246582,0.00219727,-6.9612e-05,0.00106466,-0.00062527,0.00134168,-0.000346637,-1.15374,0.00102964,0.0365949,664,1177,-0.0246807,-0.0021441
-553,-153,-0.0294189,0.0637207,-0.000152445,0.00119,-0.000351931,0.00127667,-0.000239111,-1.32934,0.000940997,0.0330507,671,1177,-0.0294224,-0.0636758
-546,-153,-0.0448608,0.134277,-0.000222706,0.00124127,9.7811e-05,0.00124777,-0.000229212,1.50438,0.000917843,0.035322,678,1177,-0.0448539,-0.134307
-539,-153,-0.218384,0.117188,-0.000263339,0.00119359,0.00077318,0.00152742,-0.000597168,1.16321,0.00126522,0.0375445,685,1177,-0.218356,-0.117155
-532,-153,-0.21991,-0.0683594,-0.000225737,0.00102694,0.00171114,0.00222277,-0.00142157,0.960842,0.00212094,0.0391715,692,1177,-0.219916,0.0683543
-525,-153,-0.134216,0.111328,-0.000101963,0.000719642,0.00296883,0.00330595,-0.00268827,0.854148,0.00346689,0.0395889,699,1177,-0.134196,-0.111318
-518,-153,0,0,0,0,0,0,0,0,0,-1,706,1177,0,0
-511,-153,0,0,0,0,0,0,0,0,0,-1,713,1177,0,0
-504,-153,0,0,0,0,0,0,0,0,0,-1,720,1177,0,0
-497,-153,0,0,0,0,0,0,0,0,0,-1,727,1177,0,0
-490,-153,0,0,0,0,0,0,0,0,0,-1,734,1177,0,0
-483,-153,0,0,0,0,0,0,0,0,0,-1,741,1177,0,0
-476,-153,0,0,0,0,0,0,0,0,0,-1,748,1177,0,0
-469,-153,0,0,0,0,0,0,0,0,0,-1,755,1177,0,0
-462,-153,0,0,0,0,0,0,0,0,0,-1,762,1177,0,0
-455,-153,0,0,0,0,0,0,0,0,0,-1,769,1177,0,0
-448,-153,0,0,0,0,0,0,0,0,0,-1,776,1177,0,0
-441,-153,0,0,0,0,0,0,0,0,0,-1,783,1177,0,0
-434,-153,0,0,0,0,0,0,0,0,0,-1,790,1177,0,0
-427,-153,0,0,0,0,0,0,0,0,0,-1,797,1177,0,0
-420,-153,0,0,0,0,0,0,0,0,0,-1,804,1177,0,0
-413,-153,0,0,0,0,0,0,0,0,0,-1,811,1177,0,0
-406,-153,0,0,0,0,0,0,0,0,0,-1,818,1177,0,0
-399,-153,0,0,0,0,0,0,0,0,0,-1,825,1177,0,0
-392,-153,0,0,0,0,0,0,0,0,0,-1,832,1177,0,0
-385,-153,0,0,0,0,0,0,0,0,0,-1,839,1177,0,0
-378,-153,0,0,0,0,0,0,0,0,0,-1,846,1177,0,0
-371,-153,0,0,0,0,0,0,0,0,0,-1,853,1177,0,0
-364,-153,0,0,0,0,0,0,0,0,0,-1,860,1177,0,0
-357,-153,0,0,0,0,0,0,0,0,0,-1,867,1177,0,0
-350,-153,0,0,0,0,0,0,0,0,0,-1,874,1177,0,0
-343,-153,0,0,0,0,0,0,0,0,0,-1,881,1177,0,0
-336,-153,0,0,0,0,0,0,0,0,0,-1,888,1177,0,0
-329,-153,0,0,0,0,0,0,0,0,0,-1,895,1177,0,0
-322,-153,0,0,0,0,0,0,0,0,0,-1,902,1177,0,0
-315,-153,0,0,0,0,0,0,0,0,0,-1,909,1177,0,0
-308,-153,0,0,0,0,0,0,0,0,0,-1,916,1177,0,0
-301,-153,0,0,0,0,0,0,0,0,0,-1,923,1177,0,0
-294,-153,0,0,0,0,0,0,0,0,0,-1,930,1177,0,0
-287,-153,0,0,0,0,0,0,0,0,0,-1,937,1177,0,0
-280,-153,0,0,0,0,0,0,0,0,0,-1,944,1177,0,0
-273,-153,0,0,0,0,0,0,0,0,0,-1,951,1177,0,0
-266,-153,0,0,0,0,0,0,0,0,0,-1,958,1177,0,0
-259,-153,0,0,0,0,0,0,0,0,0,-1,965,1177,0,0
-252,-153,0,0,0,0,0,0,0,0,0,-1,972,1177,0,0
-245,-153,0,0,0,0,0,0,0,0,0,-1,979,1177,0,0
-238,-153,0,0,0,0,0,0,0,0,0,-1,986,1177,0,0
-231,-153,0,0,0,0,0,0,0,0,0,-1,993,1177,0,0
-224,-153,0,0,0,0,0,0,0,0,0,-1,1000,1177,0,0
-217,-153,0,0,0,0,0,0,0,0,0,-1,1007,1177,0,0
-210,-153,0,0,0,0,0,0,0,0,0,-1,1014,1177,0,0
-203,-153,0,0,0,0,0,0,0,0,0,-1,1021,1177,0,0
-196,-153,0,0,0,0,0,0,0,0,0,-1,1028,1177,0,0
-189,-153,0,0,0,0,0,0,0,0,0,-1,1035,1177,0,0
-182,-153,0,0,0,0,0,0,0,0,0,-1,1042,1177,0,0
-175,-153,0,0,0,0,0,0,0,0,0,-1,1049,1177,0,0
-168,-153,0,0,0,0,0,0,0,0,0,-1,1056,1177,0,0
-161,-153,0,0,0,0,0,0,0,0,0,-1,1063,1177,0,0
-154,-153,0,0,0,0,0,0,0,0,0,-1,1070,1177,0,0
-147,-153,0,0,0,0,0,0,0,0,0,-1,1077,1177,0,0
-140,-153,0,0,0,0,0,0,0,0,0,-1,1084,1177,0,0
-133,-153,0,0,0,0,0,0,0,0,0,-1,1091,1177,0,0
-126,-153,0,0,0,0,0,0,0,0,0,-1,1098,1177,0,0
-119,-153,0,0,0,0,0,0,0,0,0,-1,1105,1177,0,0
-112,-153,0,0,0,0,0,0,0,0,0,-1,1112,1177,0,0
-105,-153,0,0,0,0,0,0,0,0,0,-1,1119,1177,0,0
-98,-153,0,0,0,0,0,0,0,0,0,-1,1126,1177,0,0
-91,-153,0,0,0,0,0,0,0,0,0,-1,1133,1177,0,0
-84,-153,0,0,0,0,0,0,0,0,0,-1,1140,1177,0,0
-77,-153,0,0,0,0,0,0,0,0,0,-1,1147,1177,0,0
-70,-153,0,0,0,0,0,0,0,0,0,-1,1154,1177,0,0
-63,-153,0,0,0,0,0,0,0,0,0,-1,1161,1177,0,0
-56,-153,0,0,0,0,0,0,0,0,0,-1,1168,1177,0,0
-49,-153,0,0,0,0,0,0,0,0,0,-1,1175,1177,0,0
-42,-153,0,0,0,0,0,0,0,0,0,-1,1182,1177,0,0
-35,-153,0,0,0,0,0,0,0,0,0,-1,1189,1177,0,0
-28,-153,0,0,0,0,0,0,0,0,0,-1,1196,1177,0,0
-21,-153,0,0,0,0,0,0,0,0,0,-1,1203,1177,0,0
-14,-153,0,0,0,0,0,0,0,0,0,-1,1210,1177,0,0
-7,-153,0,0,0,0,0,0,0,0,0,-1,1217,1177,0,0
0,-153,0,0,0,0,0,0,0,0,0,-1,1224,1177,0,0
7,-153,0,0,0,0,0,0,0,0,0,-1,1231,1177,0,0
14,-153,0,0,0,0,0,0,0,0,0,-1,1238,1177,0,0
21,-153,0,0,0,0,0,0,0,0,0,-1,1245,1177,0,0
28,-153,0,0,0,0,0,0,0,0,0,-1,1252,1177,0,0
35,-153,0,0,0,0,0,0,0,0,0,-1,1259,1177,0,0
42,-153,0,0,0,0,0,0,0,0,0,-1,1266,1177,0,0
49,-153,0,0,0,0,0,0,0,0,0,-1,1273,1177,0,0
56,-153,0,0,0,0,0,0,0,0,0,-1,1280,1177,0,0
63,-153,0,0,0,0,0,0,0,0,0,-1,1287,1177,0,0
70,-153,0,0,0,0,0,0,0,0,0,-1,1294,1177,0,0
77,-153,0,0,0,0,0,0,0,0,0,-1,1301,1177,0,0
84,-153,0,0,0,0,0,0,0,0,0,-1,1308,1177,0,0
91,-153,0,0,0,0,0,0,0,0,0,-1,1315,1177,0,0
98,-153,0,0,0,0,0,0,0,0,0,-1,1322,1177,0,0
105,-153,0,0,0,0,0,0,0,0,0,-1,1329,1177,0,0
112,-153,0,0,0,0,0,0,0,0,0,-1,1336,1177,0,0
119,-153,0,0,0,0,0,0,0,0,0,-1,1343,1177,0,0
126,-153,0,0,0,0,0,0,0,0,0,-1,1350,1177,0,0
133,-153,0,0,0,0,0,0,0,0,0,-1,1357,1177,0,0
140,-153,0,0,0,0,0,0,0,0,0,-1,1364,1177,0,0
147,-153,0,0,0,0,0,0,0,0,0,-1,1371,1177,0,0
154,-153,0,0,0,0,0,0,0,0,0,-1,1378,1177,0,0
161,-153,0,0,0,0,0,0,0,0,0,-1,1385,1177,0,0
168,-153,0,0,0,0,0,0,0,0,0,-1,1392,1177,0,0
175,-153,0,0,0,0,0,0,0,0,0,-1,1399,1177,0,0
182,-153,0,0,0,0,0,0,0,0,0,-1,1406,1177,0,0
189,-153,0,0,0,0,0,0,0,0,0,-1,1413,1177,0,0
196,-153,0,0,0,0,0,0,0,0,0,-1,1420,1177,0,0
203,-153,0,0,0,0,0,0,0,0,0,-1,1427,1177,0,0
210,-153,0,0,0,0,0,0,0,0,0,-1,1434,1177,0,0
217,-153,0,0,0,0,0,0,0,0,0,-1,1441,1177,0,0
224,-153,0,0,0,0,0,0,0,0,0,-1,1448,1177,0,0
231,-153,0,0,0,0,0,0,0,0,0,-1,1455,1177,0,0
238,-153,0,0,0,0,0,0,0,0,0,-1,1462,1177,0,0
245,-153,0,0,0,0,0,0,0,0,0,-1,1469,1177,0,0
252,-153,0,0,0,0,0,0,0,0,0,-1,1476,1177,0,0
259,-153,0,0,0,0,0,0,0,0,0,-1,1483,1177,0,0
266,-153,0,0,0,0,0,0,0,0,0,-1,1490,1177,0,0
273,-153,0,0,0,0,0,0,0,0,0,-1,1497,1177,0,0
280,-153,0,0,0,0,0,0,0,0,0,-1,1504,1177,0,0
287,-153,0,0,0,0,0,0,0,0,0,-1,1511,1177,0,0
294,-153,0,0,0,0,0,0,0,0,0,-1,1518,1177,0,0
301,-153,0,0,0,0,0,0,0,0,0,-1,1525,1177,0,0
308,-153,0,0,0,0,0,0,0,0,0,-1,1532,1177,0,0
315,-153,0,0,0,0,0,0,0,0,0,-1,1539,1177,0,0
322,-153,0,0,0,0,0,0,0,0,0,-1,1546,1177,0,0
329,-153,0,0,0,0,0,0,0,0,0,-1,1553,1177,0,0
336,-153,0,0,0,0,0,0,0,0,0,-1,1560,1177,0,0
343,-153,0,0,0,0,0,0,0,0,0,-1,1567,1177,0,0
350,-153,0,0,0,0,0,0,0,0,0,-1,1574,1177,0,0
357,-153,0,0,0,0,0,0,0,0,0,-1,1581,1177,0,0
364,-153,0,0,0,0,0,0,0,0,0,-1,1588,1177,0,0
371,-153,0,0,0,0,0,0,0,0,0,-1,1595,1177,0,0
378,-153,0,0,0,0,0,0,0,0,0,-1,1602,1177,0,0
385,-153,0,0,0,0,0,0,0,0,0,-1,1609,1177,0,0
392,-153,0,0,0,0,0,0,0,0,0,-1,1616,1177,0,0
399,-153,0,0,0,0,0,0,0,0,0,-1,1623,1177,0,0
406,-153,0,0,0,0,0,0,0,0,0,-1,1630,1177,0,0
413,-153,0,0,0,0,0,0,0,0,0,-1,1637,1177,0,0
420,-153,0,0,0,0,0,0,0,0,0,-1,1644,1177,0,0
427,-153,0,0,0,0,0,0,0,0,0,-1,1651,1177,0,0
434,-153,0,0,0,0,0,0,0,0,0,-1,1658,1177,0,0
441,-153,0,0,0,0,0,0,0,0,0,-1,1665,1177,0,0
448,-153,0,0,0,0,0,0,0,0,0,-1,1672,1177,0,0
455,-153,0,0,0,0,0,0,0,0,0,-1,1679,1177,0,0
462,-153,0,0,0,0,0,0,0,0,0,-1,1686,1177,0,0
469,-153,0,0,0,0,0,0,0,0,0,-1,1693,1177,0,0
476,-153,0,0,0,0,0,0,0,0,0,-1,1700,1177,0,0
483,-153,0,0,0,0,0,0,0,0,0,-1,1707,1177,0,0
490,-153,0,0,0,0,0,0,0,0,0,-1,1714,1177,0,0
497,-153,0,0,0,0,0,0,0,0,0,-1,1721,1177,0,0
504,-153,0,0,0,0,0,0,0,0,0,-1,1728,1177,0,0
511,-153,0,0,0,0,0,0,0,0,0,-1,1735,1177,0,0
518,-153,0,0,0,0,0,0,0,0,0,-1,1742,1177,0,0
525,-153,0,0,0,0,0,0,0,0,0,-1,1749,1177,0,0
532,-153,0,0,0,0,0,0,0,0,0,-1,1756,1177,0,0
539,-153,0,0,0,0,0,0,0,0,0,-1,1763,1177,0,0
546,-153,0,0,0,0,0,0,0,0,0,-1,1770,1177,0,0
553,-153,0,0,0,0,0,0,0,0,0,-1,1777,1177,0,0
560,-153,0,0,0,0,0,0,0,0,0,-1,1784,1177,0,0
567,-153,0,0,0,0,0,0,0,0,0,-1,1791,1177,0,0
574,-153,0,0,0,0,0,0,0,0,0,-1,1798,1177,0,0
581,-153,0,0,0,0,0,0,0,0,0,-1,1805,1177,0,0
588,-153,0,0,0,0,0,0,0,0,0,-1,1812,1177,0,0
595,-153,0,0,0,0,0,0,0,0,0,-1,1819,1177,0,0
602,-153,0,0,0,0,0,0,0,0,0,-1,1826,1177,0,0
609,-153,0,0,0,0,0,0,0,0,0,-1,1833,1177,0,0
616,-153,0,0,0,0,0,0,0,0,0,-1,1840,1177,0,0
623,-153,0,0,0,0,0,0,0,0,0,-1,1847,1177,0,0
630,-153,0,0,0,0,0,0,0,0,0,-1,1854,1177,0,0
637,-153,-0.0306396,-0.0205078,0.00115896,-0.000392482,0.00197252,0.00250281,-0.00173633,0.598054,0.00246077,0.0343315,1861,1177,-0.0306491,0.0204879
644,-153,-0.0700684,-0.0758057,0.0010167,-0.000502648,0.00164917,0.00207275,-0.0015587,0.569564,0.00210361,0.0337893,1868,1177,-0.0700682,0.0758223
651,-153,-0.0351563,0.0313721,0.00111495,-0.000986515,0.00106397,0.00155957,-0.00143113,0.395829,0.00172721,0.0285956,1875,1177,-0.0352121,-0.0313695
658,-153,-0.0303955,0.0258789,0.00104388,-0.00131365,0.000570159,0.00117453,-0.0014443,0.225258,0.00151465,0.0300122,1882,1177,-0.0303454,-0.0259279
665,-153,0.0386963,0.0524902,0.000773666,-0.00152061,0.000137723,0.000781904,-0.00152885,0.059743,0.00135715,0.0319464,1889,1177,0.0386713,-0.0524372
672,-153,0.0644531,0.101563,0.000451644,-0.00162432,-0.000205173,0.000471728,-0.0016444,-0.0975749,0.00128276,0.0317683,1896,1177,0.0644984,-0.101562
679,-153,-0.00622559,0.0786133,0.000122955,-0.00163526,-0.000456806,0.000234555,-0.00174686,-0.239612,0.00125011,0.0227053,1903,1177,-0.00628453,-0.0785641
686,-153,-0.0484619,0.0570068,-0.000213844,-0.00156978,-0.000622894,2.88605e-05,-0.00181248,-0.371544,0.00121805,0.0123674,1910,1177,-0.0485082,-0.0569508
693,-153,-0.0281982,0.0778809,-0.000509731,-0.00146617,-0.000740252,-0.000106664,-0.00186924,-0.498611,0.00121217,0.0184239,1917,1177,-0.0281544,-0.077852
700,-153,0.152344,0.268555,-0.000793429,-0.00130335,-0.000821631,-0.00018811,-0.00190867,-0.634953,0.00121461,0.0387702,1924,1177,0.152291,-0.268508
707,-153,0.0460205,0.140381,-0.000956936,-0.0011108,-0.00083069,-0.000199622,-0.00186811,-0.739225,0.00118449,0.0337849,1931,1177,0.0459613,-0.140335
714,-153,-0.0321045,0.0916748,-0.00101673,-0.000904349,-0.000748991,-0.000209442,-0.00171163,-0.822838,0.00107808,0.016578,1938,1177,-0.0321591,-0.0916577
721,-153,-0.0375977,0.0651855,-0.00100239,-0.000725787,-0.000550551,-0.000296434,-0.00143175,-0.908456,0.000872635,0.0140818,1945,1177,-0.0376222,-0.0651417
728,-153,-0.0592041,0.0529785,-0.00080774,-0.000602054,-0.000251903,-0.000432809,-0.000976985,-0.979203,0.000565283,0.0188577,1952,1177,-0.0591679,-0.0529893
735,-153,-0.0716553,0.0859375,-0.000617995,-0.000533224,0.000171143,-0.000399296,-0.000751923,0.906785,0.000434401,0.0151324,1959,1177,-0.0716083,-0.0859549
742,-153,-0.0554199,0.0888672,-0.000693548,-0.00071879,0.000411794,-0.000294182,-0.00111816,0.770079,0.000669286,0.0132455,1966,1177,-0.0554,-0.0888814
749,-153,-0.0579834,0.0916748,-0.000613903,-0.000838682,0.000264542,-0.000438867,-0.00101372,0.584529,0.000587024,0.0141029,1973,1177,-0.0579322,-0.0916498
756,-153,-0.0566406,0.0837402,-0.000351425,-0.00103184,-0.000201811,-0.000296071,-0.00108719,-0.267703,0.000649021,0.00980186,1980,1177,-0.0566386,-0.0837804
763,-153,-0.0592041,0.0742188,-0.000307639,-0.000335153,-0.000957193,0.000635895,-0.00127869,-0.778213,0.00112596,0.00968448,1987,1177,-0.0591625,-0.0741719
770,-153,-0.0432129,0.0749512,-0.000447677,5.77801e-05,-0.00209633,0.00191656,-0.00230646,-0.845387,0.00244163,0.00988741,1994,1177,-0.0432307,-0.0749154
777,-153,-0.0366211,0.0948486,-0.000772411,0.000923195,-0.00399631,0.00416064,-0.00400985,-0.889922,0.0047175,0.0201304,2001,1177,-0.0366418,-0.0948816
784,-153,-0.305054,0.488403,-0.00125398,0.00258103,-0.00693459,0.00785833,-0.00653129,-0.920284,0.00831962,0.0383245,2008,1177,-0.305011,-0.488407
791,-153,-0.471802,0.743774,-0.00192982,0.00549311,-0.0112475,0.0136257,-0.0100624,-0.944764,0.0137278,0.0437664,2015,1177,-0.471854,-0.743804
798,-153,-0.630615,-1.91235,0,0,0,0,0,0,0,-1,2022,1177,-0.630564,1.91239
805,-153,-0.703247,-2.45129,0,0,0,0,0,0,0,-1,2029,1177,-0.703204,2.45131
812,-153,0,0,0,0,0,0,0,0,0,-1,2036,1177,0,0
-700,-160,0,0,0,0,0,0,0,0,0,-1,524,1184,0,0
-693,-160,0,0,0,0,0,0,0,0,0,-1,531,1184,0,0
-686,-160,0.763611,-0.522827,-0.0491192,0.0534869,-0.00365576,0.053617,-0.0492493,-1.53523,0.0594077,0.0451,538,1184,0.763619,0.522811
-679,-160,0.514465,-1.14233,-0.0327934,0.0406342,-0.00243283,0.0407147,-0.0328739,-1.53771,0.0425668,0.045573,545,1184,0.514494,1.14238
-672,-160,-0.221497,-0.402832,-0.0215274,0.0303953,-0.00157008,0.0304427,-0.0215748,-1.54059,0.0301775,0.043433,552,1184,-0.22151,0.402867
-665,-160,0.0737305,-0.316895,-0.0137428,0.0222759,-0.000963958,0.0223017,-0.0137686,-1.54406,0.0210185,0.0453106,559,1184,0.0737143,0.316923
-658,-160,-0.0788574,-0.217285,0,0,0,0,0,0,0,-1,566,1184,-0.0788822,0.217322
-651,-160,-0.0859985,-0.223999,0,0,0,0,0,0,0,-1,573,1184,-0.0860263,0.223941
-644,-160,-0.0996094,-0.21521,-0.00265274,0.0073548,-0.000102293,0.00735585,-0.00265378,-1.56058,0.00598783,0.0372004,580,1184,-0.0995979,0.215176
-637,-160,-0.0166626,0.0629883,-0.00131312,0.00470582,-2.40804e-05,0.00470591,-0.00131321,-1.5668,0.00365453,0.0140715,587,1184,-0.0166915,-0.0630456
-630,-160,-0.0134277,0.0651855,0.000109335,0.00260394,8.67103e-06,0.00260397,0.000109305,1.56732,0.00170072,0.0081463,594,1184,-0.0134062,-0.0651575
-623,-160,-0.0137329,0.0581055,0.000675169,0.000696786,8.48282e-05,0.000771492,0.000600464,0.848764,0.000467857,0.00810481,601,1184,-0.0137263,-0.0580788
-616,-160,-0.0202637,0.0628662,0.000548747,-0.000162502,-0.000169182,0.000586939,-0.000200694,-0.222023,0.000472615,0.00709496,608,1184,-0.0202539,-0.0628532
-609,-160,-0.0204468,0.0695801,0.000367904,-0.000295044,-0.000325281,0.000500847,-0.000427987,-0.387985,0.000536812,0.011675,615,1184,-0.0204578,-0.0695256
-602,-160,-0.0244141,0.0767822,0.000276659,-1.28479e-05,-0.000568816,0.000718851,-0.00045504,-0.660802,0.000683427,0.0173528,622,1184,-0.0244288,-0.0767464
-595,-160,-0.00482178,0.0657959,0.000272771,0.000181596,-0.000696379,0.000925053,-0.000470686,-0.752713,0.00081994,0.0171746,629,1184,-0.00483888,-0.0657912
-588,-160,0.00323486,0.0620117,0.000217751,0.000372512,-0.000880562,0.00117909,-0.000588823,-0.829224,0.00103949,0.0163914,636,1184,0.00321564,-0.0619556
-581,-160,-0.0559082,0.0528564,0.000215603,0.000490555,-0.000989641,0.00135222,-0.000646065,-0.854414,0.00117748,0.0151926,643,1184,-0.055884,-0.052837
-574,-160,-0.0552979,0.114258,0.00022152,0.000612965,-0.000911829,0.00134984,-0.000515356,-0.891118,0.00111222,0.0393842,650,1184,-0.0553097,-0.114213
-567,-160,-0.0862427,0.0664063,0.000136938,0.000818462,-0.000812449,0.00135872,-0.000403318,-0.983968,0.00106599,0.0453742,657,1184,-0.0862402,-0.0664303
-560,-160,-0.0187378,-0.0362549,-1.07734e-05,0.00097347,-0.000682204,0.00132253,-0.000359833,-1.09786,0.00102295,0.0380918,664,1184,-0.0187388,0.0362658
-553,-160,0.00567627,0.0395508,-0.000179426,0.00110374,-0.000399009,0.0012177,-0.00029338,-1.29261,0.000925227,0.0371178,671,1184,0.00565377,-0.0395141
-546,-160,-0.00750732,-0.0379639,-0.00035657,0.00117593,4.46572e-05,0.00117723,-0.00035787,1.54169,0.000927419,0.0368205,678,1184,-0.00748714,0.0379163
-539,-160,-0.0569458,-0.0802002,-0.000512529,0.00116921,0.000680631,0.00141016,-0.000753472,1.23056,0.00126821,0.0401578,685,1184,-0.0569704,0.0801559
-532,-160,-0.0137939,-0.177979,-0.000584095,0.00106767,0.00152672,0.00197757,-0.001494,1.03333,0.00201078,0.043023,692,1184,-0.0137786,0.177937
-525,-160,-0.0475464,0.0693359,-0.000539196,0.000849697,0.00259697,0.00284347,-0.00253297,0.916045,0.00310581,0.0417202,699,1184,-0.0475353,-0.0692955
-518,-160,-0.0834961,0.283813,-0.000356526,0.000167843,0.00386637,0.00378091,-0.00396959,0.819252,0.00447519,0.0399378,706,1184,-0.0835224,-0.283867
-511,-160,0,0,0,0,0,0,0,0,0,-1,713,1184,0,0
-504,-160,0,0,0,0,0,0,0,0,0,-1,720,1184,0,0
-497,-160,0,0,0,0,0,0,0,0,0,-1,727,1184,0,0
-490,-160,0,0,0,0,0,0,0,0,0,-1,734,1184,0,0
-483,-160,0,0,0,0,0,0,0,0,0,-1,741,1184,0,0
-476,-160,0,0,0,0,0,0,0,0,0,-1,748,1184,0,0
-469,-160,0,0,0,0,0,0,0,0,0,-1,755,1184,0,0
-462,-160,0,0,0,0,0,0,0,0,0,-1,762,1184,0,0
-455,-160,0,0,0,0,0,0,0,0,0,-1,769,1184,0,0
-448,-160,0,0,0,0,0,0,0,0,0,-1,776,1184,0,0
-441,-160,0,0,0,0,0,0,0,0,0,-1,783,1184,0,0
-434,-160,0,0,0,0,0,0,0,0,0,-1,790,1184,0,0
-427,-160,0,0,0,0,0,0,0,0,0,-1,797,1184,0,0
-420,-160,0,0,0,0,0,0,0,0,0,-1,804,1184,0,0
-413,-160,0,0,0,0,0,0,0,0,0,-1,811,1184,0,0
-406,-160,0,0,0,0,0,0,0,0,0,-1,818,1184,0,0
-399,-160,0,0,0,0,0,0,0,0,0,-1,825,1184,0,0
-392,-160,0,0,0,0,0,0,0,0,0,-1,832,1184,0,0
-385,-160,0,0,0,0,0,0,0,0,0,-1,839,1184,0,0
-378,-160,0,0,0,0,0,0,0,0,0,-1,846,1184,0,0
-371,-160,0,0,0,0,0,0,0,0,0,-1,853,1184,0,0
-364,-160,0,0,0,0,0,0,0,0,0,-1,860,1184,0,0
-357,-160,0,0,0,0,0,0,0,0,0,-1,867,1184,0,0
-350,-160,0,0,0,0,0,0,0,0,0,-1,874,1184,0,0
-343,-160,0,0,0,0,0,0,0,0,0,-1,881,1184,0,0
-336,-160,0,0,0,0,0,0,0,0,0,-1,888,1184,0,0
-329,-160,0,0,0,0,0,0,0,0,0,-1,895,1184,0,0
-322,-160,0,0,0,0,0,0,0,0,0,-1,902,1184,0,0
-315,-160,0,0,0,0,0,0,0,0,0,-1,909,1184,0,0
-308,-160,0,0,0,0,0,0,0,0,0,-1,916,1184,0,0
-301,-160,0,0,0,0,0,0,0,0,0,-1,923,1184,0,0
-294,-160,0,0,0,0,0,0,0,0,0,-1,930,1184,0,0
-287,-160,0,0,0,0,0,0,0,0,0,-1,937,1184,0,0
-280,-160,0,0,0,0,0,0,0,0,0,-1,944,1184,0,0
-273,-160,0,0,0,0,0,0,0,0,0,-1,951,1184,0,0
-266,-160,0,0,0,0,0,0,0,0,0,-1,958,1184,0,0
-259,-160,0,0,0,0,0,0,0,0,0,-1,965,1184,0,0
-252,-160,0,0,0,0,0,0,0,0,0,-1,972,1184,0,0
-245,-160,0,0,0,0,0,0,0,0,0,-1,979,1184,0,0
-238,-160,0,0,0,0,0,0,0,0,0,-1,986,1184,0,0
-231,-160,0,0,0,0,0,0,0,0,0,-1,993,1184,0,0
-224,-160,0,0,0,0,0,0,0,0,0,-1,1000,1184,0,0
-217,-160,0,0,0,0,0,0,0,0,0,-1,1007,1184,0,0
-210,-160,0,0,0,0,0,0,0,0,0,-1,1014,1184,0,0
-203,-160,0,0,0,0,0,0,0,0,0,-1,1021,1184,0,0
-196,-160,0,0,0,0,0,0,0,0,0,-1,1028,1184,0,0
-189,-160,0,0,0,0,0,0,0,0,0,-1,1035,1184,0,0
-182,-160,0,0,0,0,0,0,0,0,0,-1,1042,1184,0,0
-175,-160,0,0,0,0,0,0,0,0,0,-1,1049,1184,0,0
-168,-160,0,0,0,0,0,0,0,0,0,-1,1056,1184,0,0
-161,-160,0,0,0,0,0,0,0,0,0,-1,1063,1184,0,0
-154,-160,0,0,0,0,0,0,0,0,0,-1,1070,1184,0,0
-147,-160,0,0,0,0,0,0,0,0,0,-1,1077,1184,0,0
-140,-160,0,0,0,0,0,0,0,0,0,-1,1084,1184,0,0
-133,-160,0,0,0,0,0,0,0,0,0,-1,1091,1184,0,0
-126,-160,0,0,0,0,0,0,0,0,0,-1,1098,1184,0,0
-119,-160,0,0,0,0,0,0,0,0,0,-1,1105,1184,0,0
-112,-160,0,0,0,0,0,0,0,0,0,-1,1112,1184,0,0
-105,-160,0,0,0,0,0,0,0,0,0,-1,1119,1184,0,0
-98,-160,0,0,0,0,0,0,0,0,0,-1,1126,1184,0,0
-91,-160,0,0,0,0,0,0,0,0,0,-1,1133,1184,0,0
-84,-160,0,0,0,0,0,0,0,0,0,-1,1140,1184,0,0
-77,-160,0,0,0,0,0,0,0,0,0,-1,1147,1184,0,0
-70,-160,0,0,0,0,0,0,0,0,0,-1,1154,1184,0,0
-63,-160,0,0,0,0,0,0,0,0,0,-1,1161,1184,0,0
-56,-160,0,0,0,0,0,0,0,0,0,-1,1168,1184,0,0
-49,-160,0,0,0,0,0,0,0,0,0,-1,1175,1184,0,0
-42,-160,0,0,0,0,0,0,0,0,0,-1,1182,1184,0,0
-35,-160,0,0,0,0,0,0,0,0,0,-1,1189,1184,0,0
-28,-160,0,0,0,0,0,0,0,0,0,-1,1196,1184,0,0
-21,-160,0,0,0,0,0,0,0,0,0,-1,1203,1184,0,0
-14,-160,0,0,0,0,0,0,0,0,0,-1,1210,1184,0,0
-7,-160,0,0,0,0,0,0,0,0,0,-1,1217,1184,0,0
0,-160,0,0,0,0,0,0,0,0,0,-1,1224,1184,0,0
7,-160,0,0,0,0,0,0,0,0,0,-1,1231,1184,0,0
14,-160,0,0,0,0,0,0,0,0,0,-1,1238,1184,0,0
21,-160,0,0,0,0,0,0,0,0,0,-1,1245,1184,0,0
28,-160,0,0,0,0,0,0,0,0,0,-1,1252,1184,0,0
35,-160,0,0,0,0,0,0,0,0,0,-1,1259,1184,0,0
42,-160,0,0,0,0,0,0,0,0,0,-1,1266,1184,0,0
49,-160,0,0,0,0,0,0,0,0,0,-1,1273,1184,0,0
56,-160,0,0,0,0,0,0,0,0,0,-1,1280,1184,0,0
63,-160,0,0,0,0,0,0,0,0,0,-1,1287,1184,0,0
70,-160,0,0,0,0,0,0,0,0,0,-1,1294,1184,0,0
77,-160,0,0,0,0,0,0,0,0,0,-1,1301,1184,0,0
84,-160,0,0,0,0,0,0,0,0,0,-1,1308,1184,0,0
91,-160,0,0,0,0,0,0,0,0,0,-1,1315,1184,0,0
98,-160,0,0,0,0,0,0,0,0,0,-1,1322,1184,0,0
105,-160,0,0,0,0,0,0,0,0,0,-1,1329,1184,0,0
112,-160,0,0,0,0,0,0,0,0,0,-1,1336,1184,0,0
119,-160,0,0,0,0,0,0,0,0,0,-1,1343,1184,0,0
126,-160,0,0,0,0,0,0,0,0,0,-1,1350,1184,0,0
133,-160,0,0,0,0,0,0,0,0,0,-1,1357,1184,0,0
140,-160,0,0,0,0,0,0,0,0,0,-1,1364,1184,0,0
147,-160,0,0,0,0,0,0,0,0,0,-1,1371,1184,0,0
154,-160,0,0,0,0,0,0,0,0,0,-1,1378,1184,0,0
161,-160,0,0,0,0,0,0,0,0,0,-1,1385,1184,0,0
168,-160,0,0,0,0,0,0,0,0,0,-1,1392,1184,0,0
175,-160,0,0,0,0,0,0,0,0,0,-1,1399,1184,0,0
182,-160,0,0,0,0,0,0,0,0,0,-1,1406,1184,0,0
189,-160,0,0,0,0,0,0,0,0,0,-1,1413,1184,0,0
196,-160,0,0,0,0,0,0,0,0,0,-1,1420,1184,0,0
203,-160,0,0,0,0,0,0,0,0,0,-1,1427,1184,0,0
210,-160,0,0,0,0,0,0,0,0,0,-1,1434,1184,0,0
217,-160,0,0,0,0,0,0,0,0,0,-1,1441,1184,0,0
224,-160,0,0,0,0,0,0,0,0,0,-1,1448,1184,0,0
231,-160,0,0,0,0,0,0,0,0,0,-1,1455,1184,0,0
238,-160,0,0,0,0,0,0,0,0,0,-1,1462,1184,0,0
245,-160,0,0,0,0,0,0,0,0,0,-1,1469,1184,0,0
252,-160,0,0,0,0,0,0,0,0,0,-1,1476,1184,0,0
259,-160,0,0,0,0,0,0,0,0,0,-1,1483,1184,0,0
266,-160,0,0,0,0,0,0,0,0,0,-1,1490,1184,0,0
273,-160,0,0,0,0,0,0,0,0,0,-1,1497,1184,0,0
280,-160,0,0,0,0,0,0,0,0,0,-1,1504,1184,0,0
287,-160,0,0,0,0,0,0,0,0,0,-1,1511,1184,0,0
294,-160,0,0,0,0,0,0,0,0,0,-1,1518,1184,0,0
301,-160,0,0,0,0,0,0,0,0,0,-1,1525,1184,0,0
308,-160,0,0,0,0,0,0,0,0,0,-1,1532,1184,0,0
315,-160,0,0,0,0,0,0,0,0,0,-1,1539,1184,0,0
322,-160,0,0,0,0,0,0,0,0,0,-1,1546,1184,0,0
329,-160,0,0,0,0,0,0,0,0,0,-1,1553,1184,0,0
336,-160,0,0,0,0,0,0,0,0,0,-1,1560,1184,0,0
343,-160,0,0,0,0,0,0,0,0,0,-1,1567,1184,0,0
350,-160,0,0,0,0,0,0,0,0,0,-1,1574,1184,0,0
357,-160,0,0,0,0,0,0,0,0,0,-1,1581,1184,0,0
364,-160,0,0,0,0,0,0,0,0,0,-1,1588,1184,0,0
371,-160,0,0,0,0,0,0,0,0,0,-1,1595,1184,0,0
378,-160,0,0,0,0,0,0,0,0,0,-1,1602,1184,0,0
385,-160,0,0,0,0,0,0,0,0,0,-1,1609,1184,0,0
392,-160,0,0,0,0,0,0,0,0,0,-1,1616,1184,0,0
399,-160,0,0,0,0,0,0,0,0,0,-1,1623,1184,0,0
406,-160,0,0,0,0,0,0,0,0,0,-1,1630,1184,0,0
413,-160,0,0,0,0,0,0,0,0,0,-1,1637,1184,0,0
420,-160,0,0,0,0,0,0,0,0,0,-1,1644,1184,0,0
427,-160,0,0,0,0,0,0,0,0,0,-1,1651,1184,0,0
434,-160,0,0,0,0,0,0,0,0,0,-1,1658,1184,0,0
441,-160,0,0,0,0,0,0,0,0,0,-1,1665,1184,0,0
448,-160,0,0,0,0,0,0,0,0,0,-1,1672,1184,0,0
455,-160,0,0,0,0,0,0,0,0,0,-1,1679,1184,0,0
462,-160,0,0,0,0,0,0,0,0,0,-1,1686,1184,0,0
469,-160,0,0,0,0,0,0,0,0,0,-1,1693,1184,0,0
476,-160,0,0,0,0,0,0,0,0,0,-1,1700,1184,0,0
483,-160,0,0,0,0,0,0,0,0,0,-1,1707,1184,0,0
490,-160,0,0,0,0,0,0,0,0,0,-1,1714,1184,0,0
497,-160,0,0,0,0,0,0,0,0,0,-1,1721,1184,0,0
504,-160,0,0,0,0,0,0,0,0,0,-1,1728,1184,0,0
511,-160,0,0,0,0,0,0,0,0,0,-1,1735,1184,0,0
518,-160,0,0,0,0,0,0,0,0,0,-1,1742,1184,0,0
525,-160,0,0,0,0,0,0,0,0,0,-1,1749,1184,0,0
532,-160,0,0,0,0,0,0,0,0,0,-1,1756,1184,0,0
539,-160,0,0,0,0,0,0,0,0,0,-1,1763,1184,0,0
546,-160,0,0,0,0,0,0,0,0,0,-1,1770,1184,0,0
553,-160,0,0,0,0,0,0,0,0,0,-1,1777,1184,0,0
560,-160,0,0,0,0,0,0,0,0,0,-1,1784,1184,0,0
567,-160,0,0,0,0,0,0,0,0,0,-1,1791,1184,0,0
574,-160,0,0,0,0,0,0,0,0,0,-1,1798,1184,0,0
581,-160,0,0,0,0,0,0,0,0,0,-1,1805,1184,0,0
588,-160,0,0,0,0,0,0,0,0,0,-1,1812,1184,0,0
595,-160,0,0,0,0,0,0,0,0,0,-1,1819,1184,0,0
602,-160,0,0,0,0,0,0,0,0,0,-1,1826,1184,0,0
609,-160,0,0,0,0,0,0,0,0,0,-1,1833,1184,0,0
616,-160,0,0,0,0,0,0,0,0,0,-1,1840,1184,0,0
623,-160,0,0,0,0,0,0,0,0,0,-1,1847,1184,0,0
630,-160,0,0,0,0,0,0,0,0,0,-1,1854,1184,0,0
637,-160,-0.132568,0.0931396,0.000738458,7.99629e-05,0.00164982,0.00209156,-0.00127314,0.686909,0.00196167,0.0356948,1861,1184,-0.132603,-0.0931112
644,-160,-0.141479,0.0910645,0.000973254,-0.000301578,0.00141463,0.00188744,-0.00121577,0.573727,0.00180558,0.0382032,1868,1184,-0.141463,-0.0910097
651,-160,-0.0926514,0.200439,0.00127158,-0.00100057,0.000906993,0.00158922,-0.00131821,0.33687,0.00168104,0.0353874,1875,1184,-0.0926023,-0.200384
658,-160,-0.0428467,0.134033,0.0012467,-0.00147174,0.000476841,0.00132792,-0.00155295,0.168702,0.00166496,0.034005,1882,1184,-0.0428368,-0.134073
665,-160,0.0175781,0.0697021,0.000987016,-0.00177409,9.8786e-05,0.000990546,-0.00177762,0.0357169,0.00161959,0.0330232,1889,1184,0.0175409,-0.069684
672,-160,0.0195313,0.119507,0.000643334,-0.00192755,-0.000203549,0.00065935,-0.00194357,-0.0785227,0.00156257,0.0302845,1896,1184,0.0195318,-0.119446
679,-160,-0.0373535,0.0904541,0.000273066,-0.00195528,-0.000420353,0.000349724,-0.00203193,-0.180383,0.00148499,0.0220766,1903,1184,-0.0373146,-0.0905131
686,-160,-0.0474854,0.0567627,-0.000109232,-0.00188309,-0.000563103,5.44242e-05,-0.00204674,-0.282841,0.00138299,0.0122813,1910,1184,-0.0474273,-0.0567092
693,-160,-0.0518799,0.0498047,-0.000450739,-0.00175368,-0.000670179,-0.000167569,-0.00203685,-0.399776,0.00130563,0.0325713,1917,1184,-0.051891,-0.0498135
700,-160,0.0294189,0.0640869,-0.000771864,-0.00154115,-0.000753885,-0.000310166,-0.00200285,-0.549506,0.00124479,0.0405224,1924,1184,0.0294327,-0.0641069
707,-160,0.00537109,0.123291,-0.000978075,-0.00129926,-0.000768045,-0.000354011,-0.00192332,-0.682338,0.00118201,0.0349728,1931,1184,0.0054079,-0.123332
714,-160,-0.0299072,0.106689,-0.00107887,-0.00104352,-0.000691144,-0.000369823,-0.00175256,-0.798185,0.00106669,0.020568,1938,1184,-0.0298694,-0.106744
721,-160,-0.0383301,0.0679932,-0.00107258,-0.000805535,-0.000486632,-0.000434441,-0.00144368,-0.919295,0.000855245,0.0100501,1945,1184,-0.038269,-0.0679614
728,-160,-0.0544434,0.0635986,-0.00081907,-0.00061639,-0.000180054,-0.000511116,-0.000924344,-1.04172,0.000534667,0.0101625,1952,1184,-0.054501,-0.0636458
735,-160,-0.0428467,0.0704346,-0.000542975,-0.000493086,0.000244304,-0.000272456,-0.000763605,0.836274,0.000446854,0.0128575,1959,1184,-0.0428625,-0.0704085
742,-160,-0.0244141,0.0727539,-0.000523941,-0.000691219,0.000539335,-6.17984e-05,-0.00115336,0.708472,0.000749159,0.0145072,1966,1184,-0.0244715,-0.0727082
749,-160,-0.0380859,0.076416,-0.000360814,-0.000902608,0.000503914,-5.95968e-05,-0.00120383,0.538767,0.00078344,0.0159779,1973,1184,-0.0380527,-0.0763812
756,-160,-0.0648193,0.0656738,2.699e-05,-0.0011936,0.000242469,7.33922e-05,-0.00124,0.189088,0.000852184,0.0101589,1980,1184,-0.0647657,-0.0656177
763,-160,-0.0635986,0.079834,0.000173239,-0.000758253,-0.000235334,0.000229318,-0.000814332,-0.233933,0.000633321,0.0104379,1987,1184,-0.0636419,-0.0798925
770,-160,-0.0412598,0.0863037,8.9263e-05,-0.000628812,-0.00104867,0.000838654,-0.0013782,-0.620465,0.00129248,0.0169817,1994,1184,-0.0413137,-0.0863116
777,-160,0.0360107,0.189453,-0.000208889,-0.000140346,-0.00251758,0.0023432,-0.00269243,-0.792204,0.00290965,0.0300051,2001,1184,0.0360492,-0.189462
784,-160,-0.0993652,0.52063,-0.00073391,0.00100003,-0.00491659,0.0051255,-0.00485938,-0.872669,0.00576545,0.0415492,2008,1184,-0.0993833,-0.520624
791,-160,-0.338013,0.827148,-0.0015597,0.00324058,-0.00859645,0.00976566,-0.00808478,-0.921532,0.0103212,0.0489605,2015,1184,-0.338029,-0.827134
798,-160,-0.453735,1.03125,0,0,0,0,0,0,0,-1,2022,1184,-0.453715,-1.0312
805,-160,-0.581665,-3.23035,0,0,0,0,0,0,0,-1,2029,1184,-0.581662,3.2303
812,-160,0,0,0,0,0,0,0,0,0,-1,2036,1184,0,0
-700,-167,0,0,0,0,0,0,0,0,0,-1,524,1191,0,0
-693,-167,0,0,0,0,0,0,0,0,0,-1,531,1191,0,0
-686,-167,0.444763,-1.02808,-0.0586502,0.0522952,-0.00483479,0.0525055,-0.0588605,-1.52733,0.0643321,0.0432583,538,1191,0.44478,1.02805
-679,-167,0.164917,-1.38354,-0.0416967,0.0392232,-0.00326325,0.0393546,-0.0418281,-1.53056,0.0468781,0.0435068,545,1191,0.164889,1.38361
-672,-167,0.065979,-0.996216,-0.0294137,0.0289452,-0.00214098,0.0290236,-0.0294921,-1.53418,0.0337844,0.0460794,552,1191,0.0659684,0.996176
-665,-167,0.182739,-0.519653,-0.0204913,0.0208963,-0.00135082,0.0209403,-0.0205353,-1.5382,0.0239464,0.0467514,559,1191,0.182726,0.519604
-658,-167,0.286377,-0.0855713,0,0,0,0,0,0,0,-1,566,1191,0.286355,0.0855285
-651,-167,-0.0981445,0.0611572,0,0,0,0,0,0,0,-1,573,1191,-0.0981158,-0.06115
-644,-167,-0.0696411,0.0743408,-0.0061579,0.00646989,-0.000206986,0.00647328,-0.00616129,-1.55441,0.00729532,0.0387119,580,1191,-0.0696645,-0.0743787
-637,-167,-0.0440674,0.0784912,-0.00394894,0.00401002,-8.42832e-05,0.00401091,-0.00394983,-1.56021,0.00459618,0.0151653,587,1191,-0.044093,-0.078533
-630,-167,-0.0238037,0.0651855,-0.00186591,0.00206085,-1.74832e-05,0.00206093,-0.00186598,-1.56634,0.00226814,0.00799977,594,1191,-0.0238225,-0.0651467
-623,-167,-0.00671387,0.0584717,-0.000745742,0.000379666,3.94601e-05,0.000381047,-0.000747124,1.53579,0.000662682,0.00821562,601,1191,-0.00669377,-0.0585119
-616,-167,-0.0308228,0.0692139,-0.000392481,-0.000357069,-0.000207682,-0.000166339,-0.000583211,-0.827922,0.000346918,0.0108197,608,1191,-0.0308185,-0.0691861
-609,-167,-0.0228882,0.0689697,8.88612e-06,-0.000387514,-0.000403389,0.000260137,-0.000638765,-0.557052,0.000534107,0.0127187,615,1191,-0.0229078,-0.0690019
-602,-167,-0.0196533,0.0612793,0.000293794,-9.7614e-05,-0.000595282,0.000724717,-0.000528536,-0.626584,0.000726515,0.0133092,622,1191,-0.0196745,-0.0612663
-595,-167,-0.022522,0.0740967,0.00040862,9.85431e-05,-0.000684756,0.00095567,-0.000448507,-0.674068,0.000828141,0.01637,629,1191,-0.022526,-0.074056
-588,-167,-0.0448608,0.0688477,0.000394028,0.000268293,-0.000856202,0.00118967,-0.000527347,-0.748751,0.00101561,0.0145193,636,1191,-0.044832,-0.0688104
-581,-167,-0.0213623,0.0524902,0.000380803,0.000344939,-0.000947958,0.001311,-0.000585256,-0.775941,0.00112121,0.0140267,643,1191,-0.0213784,-0.0525247
-574,-167,-0.000183105,0.0428467,0.000369557,0.000438395,-0.000862966,0.00126763,-0.000459677,-0.80533,0.00103299,0.0344231,650,1191,-0.000173998,-0.0428664
-567,-167,-0.00799561,0.00219727,0.000265663,0.000618001,-0.000740284,0.00120279,-0.000319126,-0.902213,0.000926735,0.0443287,657,1191,-0.00797746,-0.00225497
-560,-167,-0.0335083,-0.055542,7.67674e-05,0.000743129,-0.000595994,0.00109275,-0.000272854,-1.04027,0.000834456,0.039764,664,1191,-0.0334897,0.0555839
-553,-167,-0.010376,-0.0109863,-0.000147375,0.000865066,-0.000306852,0.000950806,-0.000233115,-1.29833,0.000724192,0.0364268,671,1191,-0.0103875,0.0109401
-546,-167,-0.0601196,-0.0183105,-0.000396365,0.000957015,0.000112216,0.000966256,-0.000405607,1.48863,0.000813794,0.0338223,678,1191,-0.0601282,0.0182924
-539,-167,-0.0797119,-0.0732422,-0.000623039,0.00101583,0.000668996,0.00125423,-0.000861446,1.22846,0.00122849,0.0386528,685,1191,-0.0797067,0.0731937
-532,-167,-0.019104,-0.0651855,-0.00074702,0.00104102,0.00135699,0.00177202,-0.00147802,1.07668,0.00187897,0.0428584,692,1191,-0.0191218,0.0651849
-525,-167,-0.0420532,0.125,-0.00071267,0.00103082,0.00214422,0.00247372,-0.00215558,0.97847,0.00267483,0.0415745,699,1191,-0.0420796,-0.124946
-518,-167,-0.0946655,0.300049,-0.000457291,0.000763194,0.00296483,0.00317993,-0.00287403,0.886894,0.00349674,0.0396158,706,1191,-0.0946621,-0.300051
-511,-167,0,0,0,0,0,0,0,0,0,-1,713,1191,0,0
-504,-167,0,0,0,0,0,0,0,0,0,-1,720,1191,0,0
-497,-167,0,0,0,0,0,0,0,0,0,-1,727,1191,0,0
-490,-167,0,0,0,0,0,0,0,0,0,-1,734,1191,0,0
-483,-167,0,0,0,0,0,0,0,0,0,-1,741,1191,0,0
-476,-167,0,0,0,0,0,0,0,0,0,-1,748,1191,0,0
-469,-167,0,0,0,0,0,0,0,0,0,-1,755,1191,0,0
-462,-167,0,0,0,0,0,0,0,0,0,-1,762,1191,0,0
-455,-167,0,0,0,0,0,0,0,0,0,-1,769,1191,0,0
-448,-167,0,0,0,0,0,0,0,0,0,-1,776,1191,0,0
-441,-167,0,0,0,0,0,0,0,0,0,-1,783,1191,0,0
-434,-167,0,0,0,0,0,0,0,0,0,-1,790,1191,0,0
-427,-167,0,0,0,0,0,0,0,0,0,-1,797,1191,0,0
-420,-167,0,0,0,0,0,0,0,0,0,-1,804,1191,0,0
-413,-167,0,0,0,0,0,0,0,0,0,-1,811,1191,0,0
-406,-167,0,0,0,0,0,0,0,0,0,-1,818,1191,0,0
-399,-167,0,0,0,0,0,0,0,0,0,-1,825,1191,0,0
-392,-167,0,0,0,0,0,0,0,0,0,-1,832,1191,0,0
-385,-167,0,0,0,0,0,0,0,0,0,-1,839,1191,0,0
-378,-167,0,0,0,0,0,0,0,0,0,-1,846,1191,0,0
-371,-167,0,0,0,0,0,0,0,0,0,-1,853,1191,0,0
-364,-167,0,0,0,0,0,0,0,0,0,-1,860,1191,0,0
-357,-167,0,0,0,0,0,0,0,0,0,-1,867,1191,0,0
-350,-167,0,0,0,0,0,0,0,0,0,-1,874,1191,0,0
-343,-167,0,0,0,0,0,0,0,0,0,-1,881,1191,0,0
-336,-167,0,0,0,0,0,0,0,0,0,-1,888,1191,0,0
-329,-167,0,0,0,0,0,0,0,0,0,-1,895,1191,0,0
-322,-167,0,0,0,0,0,0,0,0,0,-1,902,1191,0,0
-315,-167,0,0,0,0,0,0,0,0,0,-1,909,1191,0,0
-308,-167,0,0,0,0,0,0,0,0,0,-1,916,1191,0,0
-301,-167,0,0,0,0,0,0,0,0,0,-1,923,1191,0,0
-294,-167,0,0,0,0,0,0,0,0,0,-1,930,1191,0,0
-287,-167,0,0,0,0,0,0,0,0,0,-1,937,1191,0,0
-280,-167,0,0,0,0,0,0,0,0,0,-1,944,1191,0,0
-273,-167,0,0,0,0,0,0,0,0,0,-1,951,1191,0,0
-266,-167,0,0,0,0,0,0,0,0,0,-1,958,1191,0,0
-259,-167,0,0,0,0,0,0,0,0,0,-1,965,1191,0,0
-252,-167,0,0,0,0,0,0,0,0,0,-1,972,1191,0,0
-245,-167,0,0,0,0,0,0,0,0,0,-1,979,1191,0,0
-238,-167,0,0,0,0,0,0,0,0,0,-1,986,1191,0,0
-231,-167,0,0,0,0,0,0,0,0,0,-1,993,1191,0,0
-224,-167,0,0,0,0,0,0,0,0,0,-1,1000,1191,0,0
-217,-167,0,0,0,0,0,0,0,0,0,-1,1007,1191,0,0
-210,-167,0,0,0,0,0,0,0,0,0,-1,1014,1191,0,0
-203,-167,0,0,0,0,0,0,0,0,0,-1,1021,1191,0,0
-196,-167,0,0,0,0,0,0,0,0,0,-1,1028,1191,0,0
-189,-167,0,0,0,0,0,0,0,0,0,-1,1035,1191,0,0
-182,-167,0,0,0,0,0,0,0,0,0,-1,1042,1191,0,0
-175,-167,0,0,0,0,0,0,0,0,0,-1,1049,1191,0,0
-168,-167,0,0,0,0,0,0,0,0,0,-1,1056,1191,0,0
-161,-167,0,0,0,0,0,0,0,0,0,-1,1063,1191,0,0
-154,-167,0,0,0,0,0,0,0,0,0,-1,1070,1191,0,0
-147,-167,0,0,0,0,0,0,0,0,0,-1,1077,1191,0,0
-140,-167,0,0,0,0,0,0,0,0,0,-1,1084,1191,0,0
-133,-167,0,0,0,0,0,0,0,0,0,-1,1091,1191,0,0
-126,-167,0,0,0,0,0,0,0,0,0,-1,1098,1191,0,0
-119,-167,0,0,0,0,0,0,0,0,0,-1,1105,1191,0,0
-112,-167,0,0,0,0,0,0,0,0,0,-1,1112,1191,0,0
-105,-167,0,0,0,0,0,0,0,0,0,-1,1119,1191,0,0
-98,-167,0,0,0,0,0,0,0,0,0,-1,1126,1191,0,0
-91,-167,0,0,0,0,0,0,0,0,0,-1,1133,1191,0,0
-84,-167,0,0,0,0,0,0,0,0,0,-1,1140,1191,0,0
-77,-167,0,0,0,0,0,0,0,0,0,-1,1147,1191,0,0
-70,-167,0,0,0,0,0,0,0,0,0,-1,1154,1191,0,0
-63,-167,0,0,0,0,0,0,0,0,0,-1,1161,1191,0,0
-56,-167,0,0,0,0,0,0,0,0,0,-1,1168,1191,0,0
-49,-167,0,0,0,0,0,0,0,0,0,-1,1175,1191,0,0
-42,-167,0,0,0,0,0,0,0,0,0,-1,1182,1191,0,0
-35,-167,0,0,0,0,0,0,0,0,0,-1,1189,1191,0,0
-28,-167,0,0,0,0,0,0,0,0,0,-1,1196,1191,0,0
-21,-167,0,0,0,0,0,0,0,0,0,-1,1203,1191,0,0
-14,-167,0,0,0,0,0,0,0,0,0,-1,1210,1191,0,0
-7,-167,0,0,0,0,0,0,0,0,0,-1,1217,1191,0,0
0,-167,0,0,0,0,0,0,0,0,0,-1,1224,1191,0,0
7,-167,0,0,0,0,0,0,0,0,0,-1,1231,1191,0,0
14,-167,0,0,0,0,0,0,0,0,0,-1,1238,1191,0,0
21,-167,0,0,0,0,0,0,0,0,0,-1,1245,1191,0,0
28,-167,0,0,0,0,0,0,0,0,0,-1,1252,1191,0,0
35,-167,0,0,0,0,0,0,0,0,0,-1,1259,1191,0,0
42,-167,0,0,0,0,0,0,0,0,0,-1,1266,1191,0,0
49,-167,0,0,0,0,0,0,0,0,0,-1,1273,1191,0,0
56,-167,0,0,0,0,0,0,0,0,0,-1,1280,1191,0,0
63,-167,0,0,0,0,0,0,0,0,0,-1,1287,1191,0,0
70,-167,0,0,0,0,0,0,0,0,0,-1,1294,1191,0,0
77,-167,0,0,0,0,0,0,0,0,0,-1,1301,1191,0,0
84,-167,0,0,0,0,0,0,0,0,0,-1,1308,1191,0,0
91,-167,0,0,0,0,0,0,0,0,0,-1,1315,1191,0,0
98,-167,0,0,0,0,0,0,0,0,0,-1,1322,1191,0,0
105,-167,0,0,0,0,0,0,0,0,0,-1,1329,1191,0,0
112,-167,0,0,0,0,0,0,0,0,0,-1,1336,1191,0,0
119,-167,0,0,0,0,0,0,0,0,0,-1,1343,1191,0,0
126,-167,0,0,0,0,0,0,0,0,0,-1,1350,1191,0,0
133,-167,0,0,0,0,0,0,0,0,0,-1,1357,1191,0,0
140,-167,0,0,0,0,0,0,0,0,0,-1,1364,1191,0,0
147,-167,0,0,0,0,0,0,0,0,0,-1,1371,1191,0,0
154,-167,0,0,0,0,0,0,0,0,0,-1,1378,1191,0,0
161,-167,0,0,0,0,0,0,0,0,0,-1,1385,1191,0,0
168,-167,0,0,0,0,0,0,0,0,0,-1,1392,1191,0,0
175,-167,0,0,0,0,0,0,0,0,0,-1,1399,1191,0,0
182,-167,0,0,0,0,0,0,0,0,0,-1,1406,1191,0,0
189,-167,0,0,0,0,0,0,0,0,0,-1,1413,1191,0,0
196,-167,0,0,0,0,0,0,0,0,0,-1,1420,1191,0,0
203,-167,0,0,0,0,0,0,0,0,0,-1,1427,1191,0,0
210,-167,0,0,0,0,0,0,0,0,0,-1,1434,1191,0,0
217,-167,0,0,0,0,0,0,0,0,0,-1,1441,1191,0,0
224,-167,0,0,0,0,0,0,0,0,0,-1,1448,1191,0,0
231,-167,0,0,0,0,0,0,0,0,0,-1,1455,1191,0,0
238,-167,0,0,0,0,0,0,0,0,0,-1,1462,1191,0,0
245,-167,0,0,0,0,0,0,0,0,0,-1,1469,1191,0,0
252,-167,0,0,0,0,0,0,0,0,0,-1,1476,1191,0,0
259,-167,0,0,0,0,0,0,0,0,0,-1,1483,1191,0,0
266,-167,0,0,0,0,0,0,0,0,0,-1,1490,1191,0,0
273,-167,0,0,0,0,0,0,0,0,0,-1,1497,1191,0,0
280,-167,0,0,0,0,0,0,0,0,0,-1,1504,1191,0,0
287,-167,0,0,0,0,0,0,0,0,0,-1,1511,1191,0,0
294,-167,0,0,0,0,0,0,0,0,0,-1,1518,1191,0,0
301,-167,0,0,0,0,0,0,0,0,0,-1,1525,1191,0,0
308,-167,0,0,0,0,0,0,0,0,0,-1,1532,1191,0,0
315,-167,0,0,0,0,0,0,0,0,0,-1,1539,1191,0,0
322,-167,0,0,0,0,0,0,0,0,0,-1,1546,1191,0,0
329,-167,0,0,0,0,0,0,0,0,0,-1,1553,1191,0,0
336,-167,0,0,0,0,0,0,0,0,0,-1,1560,1191,0,0
343,-167,0,0,0,0,0,0,0,0,0,-1,1567,1191,0,0
350,-167,0,0,0,0,0,0,0,0,0,-1,1574,1191,0,0
357,-167,0,0,0,0,0,0,0,0,0,-1,1581,1191,0,0
364,-167,0,0,0,0,0,0,0,0,0,-1,1588,1191,0,0
371,-167,0,0,0,0,0,0,0,0,0,-1,1595,1191,0,0
378,-167,0,0,0,0,0,0,0,0,0,-1,1602,1191,0,0
385,-167,0,0,0,0,0,0,0,0,0,-1,1609,1191,0,0
392,-167,0,0,0,0,0,0,0,0,0,-1,1616,1191,0,0
399,-167,0,0,0,0,0,0,0,0,0,-1,1623,1191,0,0
406,-167,0,0,0,0,0,0,0,0,0,-1,1630,1191,0,0
413,-167,0,0,0,0,0,0,0,0,0,-1,1637,1191,0,0
420,-167,0,0,0,0,0,0,0,0,0,-1,1644,1191,0,0
427,-167,0,0,0,0,0,0,0,0,0,-1,1651,1191,0,0
434,-167,0,0,0,0,0,0,0,0,0,-1,1658,1191,0,0
441,-167,0,0,0,0,0,0,0,0,0,-1,1665,1191,0,0
448,-167,0,0,0,0,0,0,0,0,0,-1,1672,1191,0,0
455,-167,0,0,0,0,0,0,0,0,0,-1,1679,1191,0,0
462,-167,0,0,0,0,0,0,0,0,0,-1,1686,1191,0,0
469,-167,0,0,0,0,0,0,0,0,0,-1,1693,1191,0,0
476,-167,0,0,0,0,0,0,0,0,0,-1,1700,1191,0,0
483,-167,0,0,0,0,0,0,0,0,0,-1,1707,1191,0,0
490,-167,0,0,0,0,0,0,0,0,0,-1,1714,1191,0,0
497,-167,0,0,0,0,0,0,0,0,0,-1,1721,1191,0,0
504,-167,0,0,0,0,0,0,0,0,0,-1,1728,1191,0,0
511,-167,0,0,0,0,0,0,0,0,0,-1,1735,1191,0,0
518,-167,0,0,0,0,0,0,0,0,0,-1,1742,1191,0,0
525,-167,0,0,0,0,0,0,0,0,0,-1,1749,1191,0,0
532,-167,0,0,0,0,0,0,0,0,0,-1,1756,1191,0,0
539,-167,0,0,0,0,0,0,0,0,0,-1,1763,1191,0,0
546,-167,0,0,0,0,0,0,0,0,0,-1,1770,1191,0,0
553,-167,0,0,0,0,0,0,0,0,0,-1,1777,1191,0,0
560,-167,0,0,0,0,0,0,0,0,0,-1,1784,1191,0,0
567,-167,0,0,0,0,0,0,0,0,0,-1,1791,1191,0,0
574,-167,0,0,0,0,0,0,0,0,0,-1,1798,1191,0,0
581,-167,0,0,0,0,0,0,0,0,0,-1,1805,1191,0,0
588,-167,0,0,0,0,0,0,0,0,0,-1,1812,1191,0,0
595,-167,0,0,0,0,0,0,0,0,0,-1,1819,1191,0,0
602,-167,0,0,0,0,0,0,0,0,0,-1,1826,1191,0,0
609,-167,0,0,0,0,0,0,0,0,0,-1,1833,1191,0,0
616,-167,0,0,0,0,0,0,0,0,0,-1,1840,1191,0,0
623,-167,0,0,0,0,0,0,0,0,0,-1,1847,1191,0,0
630,-167,0,0,0,0,0,0,0,0,0,-1,1854,1191,0,0
637,-167,-0.192139,0.10791,0.0003212,-0.000205008,0.000833166,0.000931817,-0.000815625,0.632459,0.00100963,0.0375342,1861,1191,-0.192081,-0.107952
644,-167,-0.153076,0.138916,0.000988029,-0.000342338,0.000943689,0.00147741,-0.000831719,0.478403,0.00135044,0.040298,1868,1191,-0.153131,-0.138887
651,-167,-0.121948,0.208862,0.00144585,-0.000847739,0.00068789,0.00163634,-0.00103823,0.27015,0.00155698,0.0384307,1875,1191,-0.121924,-0.208901
658,-167,-0.0587158,0.252075,0.00144559,-0.00119258,0.000433075,0.00151487,-0.00126186,0.158613,0.00160536,0.0380386,1882,1191,-0.0586751,-0.252099
665,-167,-0.0224609,0.143311,0.00118244,-0.00142985,0.000174538,0.00119405,-0.00144146,0.0664209,0.00152385,0.0322634,1889,1191,-0.0224777,-0.143257
672,-167,-0.0595703,0.0626221,0.000801474,-0.00156192,-6.04161e-05,0.000803017,-0.00156347,-0.025541,0.00138961,0.024609,1896,1191,-0.0596056,-0.0626344
679,-167,-0.0561523,0.0714111,0.000383738,-0.00160336,-0.000242723,0.000412957,-0.00163258,-0.119803,0.00124901,0.0180556,1903,1191,-0.0561964,-0.0714357
686,-167,-0.0683594,0.0474854,-5.05692e-05,-0.00155764,-0.000375082,3.76212e-05,-0.00164583,-0.230928,0.00110997,0.0218878,1910,1191,-0.0684115,-0.0474851
693,-167,-0.0128174,0.0195313,-0.000441349,-0.00146666,-0.00049368,-0.000242291,-0.00166572,-0.383273,0.00103917,0.0437763,1917,1191,-0.0128091,-0.0194832
700,-167,0.168091,0.171265,-0.000796977,-0.0012969,-0.000601007,-0.000396024,-0.00169786,-0.588326,0.00102571,0.0433788,1924,1191,0.168106,-0.171246
707,-167,-0.0429688,0.0588379,-0.00103731,-0.00110805,-0.000641883,-0.000429823,-0.00171554,-0.757876,0.00103074,0.0329504,1931,1191,-0.0430111,-0.058809
714,-167,-0.034668,0.0933838,-0.00117427,-0.000905991,-0.000595824,-0.000429393,-0.00165087,-0.896118,0.000989021,0.0160784,1938,1191,-0.0347,-0.0933883
721,-167,-0.0560303,0.052124,-0.00117443,-0.000682851,-0.000407432,-0.00045281,-0.00140447,-1.05681,0.000827743,0.0122053,1945,1191,-0.0559995,-0.0520965
728,-167,-0.0559082,0.0668945,-0.000847968,-0.000541212,-0.000126769,-0.000495604,-0.000893576,-1.22545,0.000516932,0.0105273,1952,1191,-0.0558786,-0.0668942
735,-167,-0.038208,0.074707,-0.000457403,-0.000482359,0.000310273,-0.000159357,-0.000780405,0.7653,0.000476125,0.0129808,1959,1191,-0.0382625,-0.0747235
742,-167,-0.0388184,0.0718994,-0.00027499,-0.000699173,0.000710445,0.000254346,-0.00122851,0.640343,0.000915641,0.0143886,1966,1191,-0.0388727,-0.0719368
749,-167,-0.0402832,0.064209,6.0257e-05,-0.00102273,0.000859328,0.00053447,-0.00149694,0.504256,0.00121593,0.0131769,1973,1191,-0.0402581,-0.0642108
756,-167,-0.0618896,0.0649414,0.000613441,-0.00147886,0.000812775,0.000892066,-0.00175749,0.330254,0.00155668,0.00971087,1980,1191,-0.0619099,-0.0649503
763,-167,-0.0632324,0.0727539,0.000919575,-0.00143217,0.000619402,0.00107274,-0.00158533,0.242413,0.00154412,0.0111967,1987,1191,-0.0632525,-0.07272
770,-167,-0.0494385,0.101318,0.000989705,-0.00172337,0.000171821,0.00100054,-0.00173421,0.0629954,0.00159774,0.0221142,1994,1191,-0.0493809,-0.10129
777,-167,0.0616455,0.231079,0.000834611,-0.00184872,-0.000823729,0.0010673,-0.00208141,-0.275311,0.00184907,0.0379953,2001,1191,0.0616003,-0.231078
784,-167,0.220093,0.334839,0.000393492,-0.00157646,-0.00264259,0.0022287,-0.00341167,-0.607008,0.00328026,0.046264,2008,1191,0.220123,-0.334786
791,-167,-0.130981,0.881104,-0.000461161,-0.000523897,-0.00565036,0.00515792,-0.00614298,-0.782622,0.00653283,0.0495398,2015,1191,-0.131042,-0.881158
798,-167,-0.265381,1.07043,0,0,0,0,0,0,0,-1,2022,1191,-0.265404,-1.07047
805,-167,-1.21729,-1.07166,0,0,0,0,0,0,0,-1,2029,1191,-1.21733,1.0716
812,-167,0,0,0,0,0,0,0,0,0,-1,2036,1191,0,0
-700,-174,0,0,0,0,0,0,0,0,0,-1,524,1198,0,0
-693,-174,0,0,0,0,0,0,0,0,0,-1,531,1198,0,0
-686,-174,-0.0256348,-1.18616,0,0,0,0,0,0,0,-1,538,1198,-0.0256254,1.1861
-679,-174,0.0560913,-1.74963,0,0,0,0,0,0,0,-1,545,1198,0.0560756,1.74964
-672,-174,0.131897,-1.22949,-0.0368228,0.0265167,-0.00368629,0.0267305,-0.0370367,-1.51286,0.0369759,0.0468438,552,1198,0.131884,1.22952
-665,-174,0.24939,-0.711548,-0.0269716,0.0189811,-0.00252404,0.0191193,-0.0271099,-1.51609,0.026823,0.0450741,559,1198,0.249373,0.711517
-658,-174,0.344238,-0.209473,-0.019416,0.0131513,-0.00168055,0.0132378,-0.0195025,-1.51938,0.0190176,0.0456746,566,1198,0.344249,0.209444
-651,-174,-0.0213013,0.146851,-0.0136858,0.00874841,-0.00108848,0.0088011,-0.0137385,-1.52243,0.0131169,0.0467779,573,1198,-0.0212965,-0.146893
-644,-174,-0.0316162,0.120605,-0.00941361,0.0055339,-0.000680156,0.00556479,-0.0094445,-1.52542,0.00876159,0.0397426,580,1198,-0.0316363,-0.120558
-637,-174,-0.0284424,0.0750732,-0.00629969,0.00329217,-0.000418309,0.00331037,-0.0063179,-1.5273,0.00564856,0.0201999,587,1198,-0.0284267,-0.0751058
-630,-174,-0.0158081,0.0599365,-0.00357474,0.00152621,-0.000250647,0.00153849,-0.00358703,-1.52182,0.00303699,0.0109898,594,1198,-0.0157969,-0.0598979
-623,-174,0.00421143,0.0681152,-0.0019216,7.2876e-05,-0.000143399,8.31333e-05,-0.00193185,-1.49939,0.00131649,0.0128176,601,1198,0.00419565,-0.0680808
-616,-174,-0.0152588,0.0793457,-0.00104971,-0.00054121,-0.000339025,-0.00037169,-0.00121923,-1.10713,0.000721573,0.0178362,608,1198,-0.0152284,-0.0793352
-609,-174,-0.024292,0.0637207,-9.87873e-05,-0.000517577,-0.000507994,0.000241276,-0.00085764,-0.589909,0.000666896,0.0200392,615,1198,-0.0243022,-0.0637182
-602,-174,-0.031189,0.0456543,0.000463413,-0.000218719,-0.000607767,0.000819274,-0.00057458,-0.529706,0.000808865,0.0139733,622,1198,-0.0312146,-0.0456671
-595,-174,-0.0297852,0.0625,0.000646209,-4.56874e-06,-0.000652288,0.00104976,-0.000408122,-0.554038,0.000868459,0.0115567,629,1198,-0.0297859,-0.0624404
-588,-174,-0.00305176,0.0830078,0.000607544,0.000141805,-0.000799018,0.00120693,-0.000457586,-0.643604,0.000992942,0.0111498,636,1198,-0.00307512,-0.0830279
-581,-174,-0.0158691,0.043457,0.000544672,0.000154335,-0.000831842,0.00120393,-0.000504928,-0.670171,0.00101375,0.0122583,643,1198,-0.0158953,-0.0434646
-574,-174,-0.0524902,0.0114746,0.000500175,0.000193791,-0.000710969,0.00107427,-0.000380302,-0.679286,0.000871073,0.0281287,650,1198,-0.0524828,-0.0114415
-567,-174,-0.00921631,0.0140381,0.00037834,0.000306284,-0.000540475,0.000883987,-0.000199363,-0.752117,0.000665804,0.0423251,657,1198,-0.00923674,-0.0140157
-560,-174,0.0266724,-0.147949,0.000177063,0.000364339,-0.000369053,0.000651448,-0.000110046,-0.909639,0.000475247,0.0423576,664,1198,0.0266828,0.147995
-553,-174,0.03479,-0.083252,-4.73207e-05,0.000425853,-7.25147e-05,0.000436717,-5.81843e-05,-1.42209,0.000312351,0.0340143,671,1198,0.034788,0.0831953
-546,-174,-0.0310059,0.0455322,-0.000303385,0.000488566,0.000322104,0.000603029,-0.000417848,1.22935,0.000592627,0.0261923,678,1198,-0.0310054,-0.0455603
-539,-174,-0.0700684,-0.0177002,-0.00051582,0.000571621,0.000788145,0.0009854,-0.000929598,1.08735,0.00110578,0.0314174,685,1198,-0.0700409,0.01767
-532,-174,-0.0502319,-0.0687256,-0.000588646,0.000702519,0.00129367,0.00150274,-0.00138887,1.01683,0.00166991,0.0397161,692,1198,-0.0502592,0.0687427
-525,-174,-0.0546265,0.0760498,-0.0004453,0.000916512,0.00176682,0.00212909,-0.00165788,0.96932,0.00219205,0.0395484,699,1198,-0.0546103,-0.0760787
-518,-174,-0.0610352,0.188843,7.75518e-06,0.00111517,0.00210357,0.00273669,-0.00161376,0.914091,0.00253947,0.0379149,706,1198,-0.0610413,-0.188882
-511,-174,0,0,0,0,0,0,0,0,0,-1,713,1198,0,0
-504,-174,0,0,0,0,0,0,0,0,0,-1,720,1198,0,0
-497,-174,0,0,0,0,0,0,0,0,0,-1,727,1198,0,0
-490,-174,0,0,0,0,0,0,0,0,0,-1,734,1198,0,0
-483,-174,0,0,0,0,0,0,0,0,0,-1,741,1198,0,0
-476,-174,0,0,0,0,0,0,0,0,0,-1,748,1198,0,0
-469,-174,0,0,0,0,0,0,0,0,0,-1,755,1198,0,0
-462,-174,0,0,0,0,0,0,0,0,0,-1,762,1198,0,0
-455,-174,0,0,0,0,0,0,0,0,0,-1,769,1198,0,0
-448,-174,0,0,0,0,0,0,0,0,0,-1,776,1198,0,0
-441,-174,0,0,0,0,0,0,0,0,0,-1,783,1198,0,0
-434,-174,0,0,0,0,0,0,0,0,0,-1,790,1198,0,0
-427,-174,0,0,0,0,0,0,0,0,0,-1,797,1198,0,0
-420,-174,0,0,0,0,0,0,0,0,0,-1,804,1198,0,0
-413,-174,0,0,0,0,0,0,0,0,0,-1,811,1198,0,0
-406,-174,0,0,0,0,0,0,0,0,0,-1,818,1198,0,0
-399,-174,0,0,0,0,0,0,0,0,0,-1,825,1198,0,0
-392,-174,0,0,0,0,0,0,0,0,0,-1,832,1198,0,0
-385,-174,0,0,0,0,0,0,0,0,0,-1,839,1198,0,0
-378,-174,0,0,0,0,0,0,0,0,0,-1,846,1198,0,0
-371,-174,0,0,0,0,0,0,0,0,0,-1,853,1198,0,0
-364,-174,0,0,0,0,0,0,0,0,0,-1,860,1198,0,0
-357,-174,0,0,0,0,0,0,0,0,0,-1,867,1198,0,0
-350,-174,0,0,0,0,0,0,0,0,0,-1,874,1198,0,0
-343,-174,0,0,0,0,0,0,0,0,0,-1,881,1198,0,0
-336,-174,0,0,0,0,0,0,0,0,0,-1,888,1198,0,0
-329,-174,0,0,0,0,0,0,0,0,0,-1,895,1198,0,0
-322,-174,0,0,0,0,0,0,0,0,0,-1,902,1198,0,0
-315,-174,0,0,0,0,0,0,0,0,0,-1,909,1198,0,0
-308,-174,0,0,0,0,0,0,0,0,0,-1,916,1198,0,0
-301,-174,0,0,0,0,0,0,0,0,0,-1,923,1198,0,0
-294,-174,0,0,0,0,0,0,0,0,0,-1,930,1198,0,0
-287,-174,0,0,0,0,0,0,0,0,0,-1,937,1198,0,0
-280,-174,0,0,0,0,0,0,0,0,0,-1,944,1198,0,0
-273,-174,0,0,0,0,0,0,0,0,0,-1,951,1198,0,0
-266,-174,0,0,0,0,0,0,0,0,0,-1,958,1198,0,0
-259,-174,0,0,0,0,0,0,0,0,0,-1,965,1198,0,0
-252,-174,0,0,0,0,0,0,0,0,0,-1,972,1198,0,0
-245,-174,0,0,0,0,0,0,0,0,0,-1,979,1198,0,0
-238,-174,0,0,0,0,0,0,0,0,0,-1,986,1198,0,0
-231,-174,0,0,0,0,0,0,0,0,0,-1,993,1198,0,0
-224,-174,0,0,0,0,0,0,0,0,0,-1,1000,1198,0,0
-217,-174,0,0,0,0,0,0,0,0,0,-1,1007,1198,0,0
-210,-174,0,0,0,0,0,0,0,0,0,-1,1014,1198,0,0
-203,-174,0,0,0,0,0,0,0,0,0,-1,1021,1198,0,0
-196,-174,0,0,0,0,0,0,0,0,0,-1,1028,1198,0,0
-189,-174,0,0,0,0,0,0,0,0,0,-1,1035,1198,0,0
-182,-174,0,0,0,0,0,0,0,0,0,-1,1042,1198,0,0
-175,-174,0,0,0,0,0,0,0,0,0,-1,1049,1198,0,0
-168,-174,0,0,0,0,0,0,0,0,0,-1,1056,1198,0,0
-161,-174,0,0,0,0,0,0,0,0,0,-1,1063,1198,0,0
-154,-174,0,0,0,0,0,0,0,0,0,-1,1070,1198,0,0
-147,-174,0,0,0,0,0,0,0,0,0,-1,1077,1198,0,0
-140,-174,0,0,0,0,0,0,0,0,0,-1,1084,1198,0,0
-133,-174,0,0,0,0,0,0,0,0,0,-1,1091,1198,0,0
-126,-174,0,0,0,0,0,0,0,0,0,-1,1098,1198,0,0
-119,-174,0,0,0,0,0,0,0,0,0,-1,1105,1198,0,0
-112,-174,0,0,0,0,0,0,0,0,0,-1,1112,1198,0,0
-105,-174,0,0,0,0,0,0,0,0,0,-1,1119,1198,0,0
-98,-174,0,0,0,0,0,0,0,0,0,-1,1126,1198,0,0
-91,-174,0,0,0,0,0,0,0,0,0,-1,1133,1198,0,0
-84,-174,0,0,0,0,0,0,0,0,0,-1,1140,1198,0,0
-77,-174,0,0,0,0,0,0,0,0,0,-1,1147,1198,0,0
-70,-174,0,0,0,0,0,0,0,0,0,-1,1154,1198,0,0
-63,-174,0,0,0,0,0,0,0,0,0,-1,1161,1198,0,0
-56,-174,0,0,0,0,0,0,0,0,0,-1,1168,1198,0,0
-49,-174,0,0,0,0,0,0,0,0,0,-1,1175,1198,0,0
-42,-174,0,0,0,0,0,0,0,0,0,-1,1182,1198,0,0
-35,-174,0,0,0,0,0,0,0,0,0,-1,1189,1198,0,0
-28,-174,0,0,0,0,0,0,0,0,0,-1,1196,1198,0,0
-21,-174,0,0,0,0,0,0,0,0,0,-1,1203,1198,0,0
-14,-174,0,0,0,0,0,0,0,0,0,-1,1210,1198,0,0
-7,-174,0,0,0,0,0,0,0,0,0,-1,1217,1198,0,0
0,-174,0,0,0,0,0,0,0,0,0,-1,1224,1198,0,0
7,-174,0,0,0,0,0,0,0,0,0,-1,1231,1198,0,0
14,-174,0,0,0,0,0,0,0,0,0,-1,1238,1198,0,0
21,-174,0,0,0,0,0,0,0,0,0,-1,1245,1198,0,0
28,-174,0,0,0,0,0,0,0,0,0,-1,1252,1198,0,0
35,-174,0,0,0,0,0,0,0,0,0,-1,1259,1198,0,0
42,-174,0,0,0,0,0,0,0,0,0,-1,1266,1198,0,0
49,-174,0,0,0,0,0,0,0,0,0,-1,1273,1198,0,0
56,-174,0,0,0,0,0,0,0,0,0,-1,1280,1198,0,0
63,-174,0,0,0,0,0,0,0,0,0,-1,1287,1198,0,0
70,-174,0,0,0,0,0,0,0,0,0,-1,1294,1198,0,0
77,-174,0,0,0,0,0,0,0,0,0,-1,1301,1198,0,0
84,-174,0,0,0,0,0,0,0,0,0,-1,1308,1198,0,0
91,-174,0,0,0,0,0,0,0,0,0,-1,1315,1198,0,0
98,-174,0,0,0,0,0,0,0,0,0,-1,1322,1198,0,0
105,-174,0,0,0,0,0,0,0,0,0,-1,1329,1198,0,0
112,-174,0,0,0,0,0,0,0,0,0,-1,1336,1198,0,0
119,-174,0,0,0,0,0,0,0,0,0,-1,1343,1198,0,0
126,-174,0,0,0,0,0,0,0,0,0,-1,1350,1198,0,0
133,-174,0,0,0,0,0,0,0,0,0,-1,1357,1198,0,0
140,-174,0,0,0,0,0,0,0,0,0,-1,1364,1198,0,0
147,-174,0,0,0,0,0,0,0,0,0,-1,1371,1198,0,0
154,-174,0,0,0,0,0,0,0,0,0,-1,1378,1198,0,0
161,-174,0,0,0,0,0,0,0,0,0,-1,1385,1198,0,0
168,-174,0,0,0,0,0,0,0,0,0,-1,1392,1198,0,0
175,-174,0,0,0,0,0,0,0,0,0,-1,1399,1198,0,0
182,-174,0,0,0,0,0,0,0,0,0,-1,1406,1198,0,0
189,-174,0,0,0,0,0,0,0,0,0,-1,1413,1198,0,0
196,-174,0,0,0,0,0,0,0,0,0,-1,1420,1198,0,0
203,-174,0,0,0,0,0,0,0,0,0,-1,1427,1198,0,0
210,-174,0,0,0,0,0,0,0,0,0,-1,1434,1198,0,0
217,-174,0,0,0,0,0,0,0,0,0,-1,1441,1198,0,0
224,-174,0,0,0,0,0,0,0,0,0,-1,1448,1198,0,0
231,-174,0,0,0,0,0,0,0,0,0,-1,1455,1198,0,0
238,-174,0,0,0,0,0,0,0,0,0,-1,1462,1198,0,0
245,-174,0,0,0,0,0,0,0,0,0,-1,1469,1198,0,0
252,-174,0,0,0,0,0,0,0,0,0,-1,1476,1198,0,0
259,-174,0,0,0,0,0,0,0,0,0,-1,1483,1198,0,0
266,-174,0,0,0,0,0,0,0,0,0,-1,1490,1198,0,0
273,-174,0,0,0,0,0,0,0,0,0,-1,1497,1198,0,0
280,-174,0,0,0,0,0,0,0,0,0,-1,1504,1198,0,0
287,-174,0,0,0,0,0,0,0,0,0,-1,1511,1198,0,0
294,-174,0,0,0,0,0,0,0,0,0,-1,1518,1198,0,0
301,-174,0,0,0,0,0,0,0,0,0,-1,1525,1198,0,0
308,-174,0,0,0,0,0,0,0,0,0,-1,1532,1198,0,0
315,-174,0,0,0,0,0,0,0,0,0,-1,1539,1198,0,0
322,-174,0,0,0,0,0,0,0,0,0,-1,1546,1198,0,0
329,-174,0,0,0,0,0,0,0,0,0,-1,1553,1198,0,0
336,-174,0,0,0,0,0,0,0,0,0,-1,1560,1198,0,0
343,-174,0,0,0,0,0,0,0,0,0,-1,1567,1198,0,0
350,-174,0,0,0,0,0,0,0,0,0,-1,1574,1198,0,0
357,-174,0,0,0,0,0,0,0,0,0,-1,1581,1198,0,0
364,-174,0,0,0,0,0,0,0,0,0,-1,1588,1198,0,0
371,-174,0,0,0,0,0,0,0,0,0,-1,1595,1198,0,0
378,-174,0,0,0,0,0,0,0,0,0,-1,1602,1198,0,0
385,-174,0,0,0,0,0,0,0,0,0,-1,1609,1198,0,0
392,-174,0,0,0,0,0,0,0,0,0,-1,1616,1198,0,0
399,-174,0,0,0,0,0,0,0,0,0,-1,1623,1198,0,0
406,-174,0,0,0,0,0,0,0,0,0,-1,1630,1198,0,0
413,-174,0,0,0,0,0,0,0,0,0,-1,1637,1198,0,0
420,-174,0,0,0,0,0,0,0,0,0,-1,1644,1198,0,0
427,-174,0,0,0,0,0,0,0,0,0,-1,1651,1198,0,0
434,-174,0,0,0,0,0,0,0,0,0,-1,1658,1198,0,0
441,-174,0,0,0,0,0,0,0,0,0,-1,1665,1198,0,0
448,-174,0,0,0,0,0,0,0,0,0,-1,1672,1198,0,0
455,-174,0,0,0,0,0,0,0,0,0,-1,1679,1198,0,0
462,-174,0,0,0,0,0,0,0,0,0,-1,1686,1198,0,0
469,-174,0,0,0,0,0,0,0,0,0,-1,1693,1198,0,0
476,-174,0,0,0,0,0,0,0,0,0,-1,1700,1198,0,0
483,-174,0,0,0,0,0,0,0,0,0,-1,1707,1198,0,0
490,-174,0,0,0,0,0,0,0,0,0,-1,1714,1198,0,0
497,-174,0,0,0,0,0,0,0,0,0,-1,1721,1198,0,0
504,-174,0,0,0,0,0,0,0,0,0,-1,1728,1198,0,0
511,-174,0,0,0,0,0,0,0,0,0,-1,1735,1198,0,0
518,-174,0,0,0,0,0,0,0,0,0,-1,1742,1198,0,0
525,-174,0,0,0,0,0,0,0,0,0,-1,1749,1198,0,0
532,-174,0,0,0,0,0,0,0,0,0,-1,1756,1198,0,0
539,-174,0,0,0,0,0,0,0,0,0,-1,1763,1198,0,0
546,-174,0,0,0,0,0,0,0,0,0,-1,1770,1198,0,0
553,-174,0,0,0,0,0,0,0,0,0,-1,1777,1198,0,0
560,-174,0,0,0,0,0,0,0,0,0,-1,1784,1198,0,0
567,-174,0,0,0,0,0,0,0,0,0,-1,1791,1198,0,0
574,-174,0,0,0,0,0,0,0,0,0,-1,1798,1198,0,0
581,-174,0,0,0,0,0,0,0,0,0,-1,1805,1198,0,0
588,-174,0,0,0,0,0,0,0,0,0,-1,1812,1198,0,0
595,-174,0,0,0,0,0,0,0,0,0,-1,1819,1198,0,0
602,-174,0,0,0,0,0,0,0,0,0,-1,1826,1198,0,0
609,-174,0,0,0,0,0,0,0,0,0,-1,1833,1198,0,0
616,-174,0,0,0,0,0,0,0,0,0,-1,1840,1198,0,0
623,-174,0,0,0,0,0,0,0,0,0,-1,1847,1198,0,0
630,-174,0,0,0,0,0,0,0,0,0,-1,1854,1198,0,0
637,-174,-0.124023,0.052002,-0.00010011,-0.000535378,-0.000278904,3.60236e-05,-0.000671512,-0.454086,0.000460153,0.0370707,1861,1198,-0.124063,-0.0519531
644,-174,-0.11377,0.115723,0.000952659,-0.000361224,0.000257207,0.00100122,-0.000409781,0.186588,0.000838154,0.0372334,1868,1198,-0.113807,-0.115742
651,-174,-0.0543213,0.147217,0.00160603,-0.000572809,0.000379694,0.00167031,-0.00063708,0.167682,0.00137597,0.0383417,1875,1198,-0.0543105,-0.147195
658,-174,-0.0447998,0.222046,0.00172131,-0.000731703,0.000416881,0.00179022,-0.000800615,0.163821,0.00153176,0.0353628,1882,1198,-0.04481,-0.222053
665,-174,-0.071167,0.125977,0.00155323,-0.000870073,0.000371504,0.00160891,-0.000925748,0.148755,0.00148099,0.0282578,1889,1198,-0.0711189,-0.12597
672,-174,-0.0859375,0.0307617,0.00121697,-0.000970548,0.000270606,0.00124994,-0.00100353,0.12127,0.00130363,0.0208147,1896,1198,-0.0859027,-0.0307872
679,-174,-0.0771484,0.0227051,0.000812337,-0.00102689,0.000165389,0.000827091,-0.00104164,0.0889722,0.00108128,0.0174583,1903,1198,-0.0772081,-0.0226501
686,-174,0.407471,0.761353,0,0,0,0,0,0,0,-1,1910,1198,0.407471,-0.761329
693,-174,0.505615,0.44043,-7.23178e-05,-0.000997031,-6.93403e-05,-6.71472e-05,-0.0010022,-0.074431,0.000646915,0.0433608,1917,1198,0.505666,-0.440409
700,-174,0.351196,0.18335,-0.00047535,-0.000907355,-0.000213557,-0.000387603,-0.000995102,-0.389853,0.000579179,0.0465727,1924,1198,0.35122,-0.183351
707,-174,-0.0380859,0.104492,-0.000780789,-0.000809105,-0.000306754,-0.000487867,-0.00110203,-0.762337,0.000637647,0.0299554,1931,1198,-0.0381321,-0.104435
714,-174,-0.0429688,0.101074,-0.000996579,-0.000702599,-0.000328003,-0.000490156,-0.00120902,-0.99605,0.00070218,0.0163183,1938,1198,-0.0429737,-0.101055
721,-174,-0.0499268,0.0755615,-0.00106525,-0.000533686,-0.000203043,-0.000465003,-0.00113393,-1.24461,0.000658195,0.0125706,1945,1198,-0.0499221,-0.0755555
728,-174,-0.0577393,0.0755615,-0.000736816,-0.000509685,2.01003e-05,-0.00050792,-0.000738581,1.48321,0.00043632,0.0102179,1952,1198,-0.0577927,-0.0755107
735,-174,-0.0390625,0.0812988,-0.000320353,-0.000558929,0.000410017,-1.26236e-05,-0.000866658,0.643839,0.00057361,0.0103792,1959,1198,-0.0391107,-0.0812645
742,-174,-0.0593262,0.0693359,-1.92695e-05,-0.000835138,0.000869578,0.000533304,-0.00138771,0.566079,0.00114508,0.017482,1966,1198,-0.059277,-0.0692941
749,-174,-0.0687256,0.0654297,0.000475453,-0.00129208,0.00118348,0.00106873,-0.00188536,0.464689,0.00172713,0.0159541,1973,1198,-0.0687344,-0.0654188
756,-174,-0.0535889,0.0606689,0.00118468,-0.00198535,0.00135832,0.00168708,-0.00248775,0.354264,0.00242507,0.00974196,1980,1198,-0.0535484,-0.0606549
763,-174,-0.0710449,0.0566406,0.00164319,-0.00247476,0.00144954,0.00210226,-0.00293383,0.306706,0.00292077,0.0122454,1987,1198,-0.0710616,-0.0566613
770,-174,-0.0842285,0.0830078,0.00188895,-0.00334927,0.00137063,0.00222591,-0.00368623,0.241065,0.00344791,0.0247653,1994,1198,-0.0842482,-0.0830514
777,-174,0.0284424,0.203613,0.00190549,-0.00433808,0.000847704,0.00201854,-0.00445112,0.132576,0.00382226,0.0433282,2001,1198,0.0284033,-0.203594
784,-174,0.259888,0.317627,0.00157628,-0.00531745,-0.000405674,0.00160007,-0.00534124,-0.0585773,0.00419712,0.0478388,2008,1198,0.259893,-0.317663
791,-174,0.0789795,0.975098,0,0,0,0,0,0,0,-1,2015,1198,0.0790048,-0.97504
798,-174,-0.129761,-0.651489,-0.000971597,-0.00609101,-0.00688612,0.00381518,-0.0108778,-0.607452,0.0088036,0.0443972,2022,1198,-0.129749,0.651458
805,-174,-0.811035,-0.889282,0,0,0,0,0,0,0,-1,2029,1198,-0.811032,0.889267
812,-174,0,0,0,0,0,0,0,0,0,-1,2036,1198,0,0
-700,-181,0,0,0,0,0,0,0,0,0,-1,524,1205,0,0
-693,-181,0,0,0,0,0,0,0,0,0,-1,531,1205,0,0
-686,-181,-0.844055,-1.39978,0,0,0,0,0,0,0,-1,538,1205,-0.844079,1.39978
-679,-181,-1.05872,-1.49109,0,0,0,0,0,0,0,-1,545,1205,-1.0587,1.49108
-672,-181,0.261169,-1.45837,0,0,0,0,0,0,0,-1,552,1205,0.261193,1.45835
-665,-181,0.384094,-0.967651,0,0,0,0,0,0,0,-1,559,1205,0.384075,0.967703
-658,-181,0.648254,-0.708252,-0.0242577,0.0116364,-0.0039849,0.0120735,-0.0246948,-1.46155,0.021641,0.0454318,566,1205,0.648232,0.70827
-651,-181,-0.159546,0.646606,-0.0176084,0.00786482,-0.00299342,0.00821186,-0.0179554,-1.45538,0.0154528,0.0469838,573,1205,-0.159521,-0.646565
-644,-181,-0.0118408,0.130737,-0.012413,0.00507005,-0.00222072,0.00534772,-0.0126906,-1.44641,0.0106982,0.0409765,580,1205,-0.0118343,-0.130792
-637,-181,-0.0194092,0.0826416,-0.00845988,0.0031003,-0.00163187,0.00332624,-0.00868583,-1.43321,0.00716158,0.0226319,587,1205,-0.0193938,-0.082677
-630,-181,-0.0150146,0.0695801,-0.00514455,0.00151894,-0.00119793,0.00172775,-0.00535336,-1.39822,0.00426317,0.0112786,594,1205,-0.0150106,-0.069577
-623,-181,-0.010437,0.0810547,-0.00297619,0.000239214,-0.000863974,0.000456658,-0.00319363,-1.32424,0.00229649,0.0137535,601,1205,-0.010423,-0.0810597
-616,-181,-0.0206299,0.0706787,-0.00169399,-0.000308678,-0.000834144,8.29025e-05,-0.00208557,-1.13189,0.00141882,0.0134498,608,1205,-0.0206034,-0.0706552
-609,-181,-0.0282593,0.0655518,-0.00018434,-0.000323462,-0.000879304,0.000628151,-0.00113595,-0.745926,0.00103248,0.0130127,615,1205,-0.0282518,-0.0655143
-602,-181,-0.0365601,0.0603027,0.00066446,-0.000125538,-0.000793862,0.00115616,-0.000617242,-0.554549,0.00103952,0.0117358,622,1205,-0.0365619,-0.0602953
-595,-181,-0.032959,0.0654297,0.000888313,2.33741e-05,-0.000742035,0.00131471,-0.000403019,-0.521554,0.00103725,0.0113481,629,1205,-0.0329511,-0.0654563
-588,-181,-0.0153809,0.0792236,0.000833194,9.10332e-05,-0.000824447,0.00136622,-0.000441996,-0.573931,0.00108848,0.0105018,636,1205,-0.0154017,-0.0792782
-581,-181,-0.0256958,0.0723877,0.000702526,-9.54204e-06,-0.000761259,0.00118689,-0.00049391,-0.566664,0.000997527,0.0106029,643,1205,-0.0256836,-0.072405
-574,-181,-0.0855103,-0.0157471,0.000600752,-5.17912e-05,-0.000588484,0.00094736,-0.000398399,-0.53228,0.000798231,0.0233787,650,1205,-0.0855213,0.0157909
-567,-181,-0.130859,-0.164917,0.000445013,5.79481e-06,-0.000384863,0.000668516,-0.000217708,-0.526132,0.000533271,0.0399502,657,1205,-0.13086,0.164868
-560,-181,0.0944824,-0.294556,0.000213869,1.16503e-05,-0.000201455,0.000338164,-0.000112645,-0.552817,0.000270913,0.0453416,664,1205,0.0944565,0.294598
-553,-181,0.0612793,-0.0317383,-3.98086e-05,1.92058e-05,9.76216e-05,9.16822e-05,-0.000112285,0.932163,0.000117961,0.0404548,671,1205,0.0612639,0.0317225
-546,-181,0.0088501,0.00854492,-0.000336732,5.19159e-05,0.000470891,0.000367003,-0.00065182,0.98109,0.00059583,0.0304573,678,1205,0.00885923,-0.00859122
-539,-181,0.0158691,-0.0480957,-0.000584009,0.00013763,0.000872011,0.000720524,-0.0011669,0.981562,0.00109982,0.0349123,685,1205,0.0158928,0.0481194
-532,-181,0.0662842,-0.000732422,-0.000676519,0.000314158,0.00125846,0.00117125,-0.00153361,0.97289,0.00156632,0.0425318,692,1205,0.0662721,0.000768013
-525,-181,0.0344238,0.0926514,-0.000529317,0.000629912,0.0015485,0.00170372,-0.00160313,0.964479,0.00190951,0.0390321,699,1205,0.0344214,-0.0926642
-518,-181,0.043396,0.0692139,-3.03803e-05,0.00103705,0.00163656,0.00222472,-0.00121805,0.943021,0.00201581,0.0365398,706,1205,0.0433721,-0.0692314
-511,-181,0,0,0,0,0,0,0,0,0,-1,713,1205,0,0
-504,-181,0,0,0,0,0,0,0,0,0,-1,720,1205,0,0
-497,-181,0,0,0,0,0,0,0,0,0,-1,727,1205,0,0
-490,-181,0,0,0,0,0,0,0,0,0,-1,734,1205,0,0
-483,-181,0,0,0,0,0,0,0,0,0,-1,741,1205,0,0
-476,-181,0,0,0,0,0,0,0,0,0,-1,748,1205,0,0
-469,-181,0,0,0,0,0,0,0,0,0,-1,755,1205,0,0
-462,-181,0,0,0,0,0,0,0,0,0,-1,762,1205,0,0
-455,-181,0,0,0,0,0,0,0,0,0,-1,769,1205,0,0
-448,-181,0,0,0,0,0,0,0,0,0,-1,776,1205,0,0
-441,-181,0,0,0,0,0,0,0,0,0,-1,783,1205,0,0
-434,-181,0,0,0,0,0,0,0,0,0,-1,790,1205,0,0
-427,-181,0,0,0,0,0,0,0,0,0,-1,797,1205,0,0
-420,-181,0,0,0,0,0,0,0,0,0,-1,804,1205,0,0
-413,-181,0,0,0,0,0,0,0,0,0,-1,811,1205,0,0
-406,-181,0,0,0,0,0,0,0,0,0,-1,818,1205,0,0
-399,-181,0,0,0,0,0,0,0,0,0,-1,825,1205,0,0
-392,-181,0,0,0,0,0,0,0,0,0,-1,832,1205,0,0
-385,-181,0,0,0,0,0,0,0,0,0,-1,839,1205,0,0
-378,-181,0,0,0,0,0,0,0,0,0,-1,846,1205,0,0
-371,-181,0,0,0,0,0,0,0,0,0,-1,853,1205,0,0
-364,-181,0,0,0,0,0,0,0,0,0,-1,860,1205,0,0
-357,-181,0,0,0,0,0,0,0,0,0,-1,867,1205,0,0
-350,-181,0,0,0,0,0,0,0,0,0,-1,874,1205,0,0
-343,-181,0,0,0,0,0,0,0,0,0,-1,881,1205,0,0
-336,-181,0,0,0,0,0,0,0,0,0,-1,888,1205,0,0
-329,-181,0,0,0,0,0,0,0,0,0,-1,895,1205,0,0
-322,-181,0,0,0,0,0,0,0,0,0,-1,902,1205,0,0
-315,-181,0,0,0,0,0,0,0,0,0,-1,909,1205,0,0
-308,-181,0,0,0,0,0,0,0,0,0,-1,916,1205,0,0
-301,-181,0,0,0,0,0,0,0,0,0,-1,923,1205,0,0
-294,-181,0,0,0,0,0,0,0,0,0,-1,930,1205,0,0
-287,-181,0,0,0,0,0,0,0,0,0,-1,937,1205,0,0
-280,-181,0,0,0,0,0,0,0,0,0,-1,944,1205,0,0
-273,-181,0,0,0,0,0,0,0,0,0,-1,951,1205,0,0
-266,-181,0,0,0,0,0,0,0,0,0,-1,958,1205,0,0
-259,-181,0,0,0,0,0,0,0,0,0,-1,965,1205,0,0
-252,-181,0,0,0,0,0,0,0,0,0,-1,972,1205,0,0
-245,-181,0,0,0,0,0,0,0,0,0,-1,979,1205,0,0
-238,-181,0,0,0,0,0,0,0,0,0,-1,986,1205,0,0
-231,-181,0,0,0,0,0,0,0,0,0,-1,993,1205,0,0
-224,-181,0,0,0,0,0,0,0,0,0,-1,1000,1205,0,0
-217,-181,0,0,0,0,0,0,0,0,0,-1,1007,1205,0,0
-210,-181,0,0,0,0,0,0,0,0,0,-1,1014,1205,0,0
-203,-181,0,0,0,0,0,0,0,0,0,-1,1021,1205,0,0
-196,-181,0,0,0,0,0,0,0,0,0,-1,1028,1205,0,0
-189,-181,0,0,0,0,0,0,0,0,0,-1,1035,1205,0,0
-182,-181,0,0,0,0,0,0,0,0,0,-1,1042,1205,0,0
-175,-181,0,0,0,0,0,0,0,0,0,-1,1049,1205,0,0
-168,-181,0,0,0,0,0,0,0,0,0,-1,1056,1205,0,0
-161,-181,0,0,0,0,0,0,0,0,0,-1,1063,1205,0,0
-154,-181,0,0,0,0,0,0,0,0,0,-1,1070,1205,0,0
-147,-181,0,0,0,0,0,0,0,0,0,-1,1077,1205,0,0
-140,-181,0,0,0,0,0,0,0,0,0,-1,1084,1205,0,0
-133,-181,0,0,0,0,0,0,0,0,0,-1,1091,1205,0,0
-126,-181,0,0,0,0,0,0,0,0,0,-1,1098,1205,0,0
-119,-181,0,0,0,0,0,0,0,0,0,-1,1105,1205,0,0
-112,-181,0,0,0,0,0,0,0,0,0,-1,1112,1205,0,0
-105,-181,0,0,0,0,0,0,0,0,0,-1,1119,1205,0,0
-98,-181,0,0,0,0,0,0,0,0,0,-1,1126,1205,0,0
-91,-181,0,0,0,0,0,0,0,0,0,-1,1133,1205,0,0
-84,-181,0,0,0,0,0,0,0,0,0,-1,1140,1205,0,0
-77,-181,0,0,0,0,0,0,0,0,0,-1,1147,1205,0,0
-70,-181,0,0,0,0,0,0,0,0,0,-1,1154,1205,0,0
-63,-181,0,0,0,0,0,0,0,0,0,-1,1161,1205,0,0
-56,-181,0,0,0,0,0,0,0,0,0,-1,1168,1205,0,0
-49,-181,0,0,0,0,0,0,0,0,0,-1,1175,1205,0,0
-42,-181,0,0,0,0,0,0,0,0,0,-1,1182,1205,0,0
-35,-181,0,0,0,0,0,0,0,0,0,-1,1189,1205,0,0
-28,-181,0,0,0,0,0,0,0,0,0,-1,1196,1205,0,0
-21,-181,0,0,0,0,0,0,0,0,0,-1,1203,1205,0,0
-14,-181,0,0,0,0,0,0,0,0,0,-1,1210,1205,0,0
-7,-181,0,0,0,0,0,0,0,0,0,-1,1217,1205,0,0
0,-181,0,0,0,0,0,0,0,0,0,-1,1224,1205,0,0
7,-181,0,0,0,0,0,0,0,0,0,-1,1231,1205,0,0
14,-181,0,0,0,0,0,0,0,0,0,-1,1238,1205,0,0
21,-181,0,0,0,0,0,0,0,0,0,-1,1245,1205,0,0
28,-181,0,0,0,0,0,0,0,0,0,-1,1252,1205,0,0
35,-181,0,0,0,0,0,0,0,0,0,-1,1259,1205,0,0
42,-181,0,0,0,0,0,0,0,0,0,-1,1266,1205,0,0
49,-181,0,0,0,0,0,0,0,0,0,-1,1273,1205,0,0
56,-181,0,0,0,0,0,0,0,0,0,-1,1280,1205,0,0
63,-181,0,0,0,0,0,0,0,0,0,-1,1287,1205,0,0
70,-181,0,0,0,0,0,0,0,0,0,-1,1294,1205,0,0
77,-181,0,0,0,0,0,0,0,0,0,-1,1301,1205,0,0
84,-181,0,0,0,0,0,0,0,0,0,-1,1308,1205,0,0
91,-181,0,0,0,0,0,0,0,0,0,-1,1315,1205,0,0
98,-181,0,0,0,0,0,0,0,0,0,-1,1322,1205,0,0
105,-181,0,0,0,0,0,0,0,0,0,-1,1329,1205,0,0
112,-181,0,0,0,0,0,0,0,0,0,-1,1336,1205,0,0
119,-181,0,0,0,0,0,0,0,0,0,-1,1343,1205,0,0
126,-181,0,0,0,0,0,0,0,0,0,-1,1350,1205,0,0
133,-181,0,0,0,0,0,0,0,0,0,-1,1357,1205,0,0
140,-181,0,0,0,0,0,0,0,0,0,-1,1364,1205,0,0
147,-181,0,0,0,0,0,0,0,0,0,-1,1371,1205,0,0
154,-181,0,0,0,0,0,0,0,0,0,-1,1378,1205,0,0
161,-181,0,0,0,0,0,0,0,0,0,-1,1385,1205,0,0
168,-181,0,0,0,0,0,0,0,0,0,-1,1392,1205,0,0
175,-181,0,0,0,0,0,0,0,0,0,-1,1399,1205,0,0
182,-181,0,0,0,0,0,0,0,0,0,-1,1406,1205,0,0
189,-181,0,0,0,0,0,0,0,0,0,-1,1413,1205,0,0
196,-181,0,0,0,0,0,0,0,0,0,-1,1420,1205,0,0
203,-181,0,0,0,0,0,0,0,0,0,-1,1427,1205,0,0
210,-181,0,0,0,0,0,0,0,0,0,-1,1434,1205,0,0
217,-181,0,0,0,0,0,0,0,0,0,-1,1441,1205,0,0
224,-181,0,0,0,0,0,0,0,0,0,-1,1448,1205,0,0
231,-181,0,0,0,0,0,0,0,0,0,-1,1455,1205,0,0
238,-181,0,0,0,0,0,0,0,0,0,-1,1462,1205,0,0
245,-181,0,0,0,0,0,0,0,0,0,-1,1469,1205,0,0
252,-181,0,0,0,0,0,0,0,0,0,-1,1476,1205,0,0
259,-181,0,0,0,0,0,0,0,0,0,-1,1483,1205,0,0
266,-181,0,0,0,0,0,0,0,0,0,-1,1490,1205,0,0
273,-181,0,0,0,0,0,0,0,0,0,-1,1497,1205,0,0
280,-181,0,0,0,0,0,0,0,0,0,-1,1504,1205,0,0
287,-181,0,0,0,0,0,0,0,0,0,-1,1511,1205,0,0
294,-181,0,0,0,0,0,0,0,0,0,-1,1518,1205,0,0
301,-181,0,0,0,0,0,0,0,0,0,-1,1525,1205,0,0
308,-181,0,0,0,0,0,0,0,0,0,-1,1532,1205,0,0
315,-181,0,0,0,0,0,0,0,0,0,-1,1539,1205,0,0
322,-181,0,0,0,0,0,0,0,0,0,-1,1546,1205,0,0
329,-181,0,0,0,0,0,0,0,0,0,-1,1553,1205,0,0
336,-181,0,0,0,0,0,0,0,0,0,-1,1560,1205,0,0
343,-181,0,0,0,0,0,0,0,0,0,-1,1567,1205,0,0
350,-181,0,0,0,0,0,0,0,0,0,-1,1574,1205,0,0
357,-181,0,0,0,0,0,0,0,0,0,-1,1581,1205,0,0
364,-181,0,0,0,0,0,0,0,0,0,-1,1588,1205,0,0
371,-181,0,0,0,0,0,0,0,0,0,-1,1595,1205,0,0
378,-181,0,0,0,0,0,0,0,0,0,-1,1602,1205,0,0
385,-181,0,0,0,0,0,0,0,0,0,-1,1609,1205,0,0
392,-181,0,0,0,0,0,0,0,0,0,-1,1616,1205,0,0
399,-181,0,0,0,0,0,0,0,0,0,-1,1623,1205,0,0
406,-181,0,0,0,0,0,0,0,0,0,-1,1630,1205,0,0
413,-181,0,0,0,0,0,0,0,0,0,-1,1637,1205,0,0
420,-181,0,0,0,0,0,0,0,0,0,-1,1644,1205,0,0
427,-181,0,0,0,0,0,0,0,0,0,-1,1651,1205,0,0
434,-181,0,0,0,0,0,0,0,0,0,-1,1658,1205,0,0
441,-181,0,0,0,0,0,0,0,0,0,-1,1665,1205,0,0
448,-181,0,0,0,0,0,0,0,0,0,-1,1672,1205,0,0
455,-181,0,0,0,0,0,0,0,0,0,-1,1679,1205,0,0
462,-181,0,0,0,0,0,0,0,0,0,-1,1686,1205,0,0
469,-181,0,0,0,0,0,0,0,0,0,-1,1693,1205,0,0
476,-181,0,0,0,0,0,0,0,0,0,-1,1700,1205,0,0
483,-181,0,0,0,0,0,0,0,0,0,-1,1707,1205,0,0
490,-181,0,0,0,0,0,0,0,0,0,-1,1714,1205,0,0
497,-181,0,0,0,0,0,0,0,0,0,-1,1721,1205,0,0
504,-181,0,0,0,0,0,0,0,0,0,-1,1728,1205,0,0
511,-181,0,0,0,0,0,0,0,0,0,-1,1735,1205,0,0
518,-181,0,0,0,0,0,0,0,0,0,-1,1742,1205,0,0
525,-181,0,0,0,0,0,0,0,0,0,-1,1749,1205,0,0
532,-181,0,0,0,0,0,0,0,0,0,-1,1756,1205,0,0
539,-181,0,0,0,0,0,0,0,0,0,-1,1763,1205,0,0
546,-181,0,0,0,0,0,0,0,0,0,-1,1770,1205,0,0
553,-181,0,0,0,0,0,0,0,0,0,-1,1777,1205,0,0
560,-181,0,0,0,0,0,0,0,0,0,-1,1784,1205,0,0
567,-181,0,0,0,0,0,0,0,0,0,-1,1791,1205,0,0
574,-181,0,0,0,0,0,0,0,0,0,-1,1798,1205,0,0
581,-181,0,0,0,0,0,0,0,0,0,-1,1805,1205,0,0
588,-181,0,0,0,0,0,0,0,0,0,-1,1812,1205,0,0
595,-181,0,0,0,0,0,0,0,0,0,-1,1819,1205,0,0
602,-181,0,0,0,0,0,0,0,0,0,-1,1826,1205,0,0
609,-181,0,0,0,0,0,0,0,0,0,-1,1833,1205,0,0
616,-181,0,0,0,0,0,0,0,0,0,-1,1840,1205,0,0
623,-181,0,0,0,0,0,0,0,0,0,-1,1847,1205,0,0
630,-181,0.00720215,0.0749512,-0.00155204,-0.000348574,-0.00243967,0.00156247,-0.00346309,-0.906308,0.00296987,0.0357701,1854,1205,0.00715252,-0.0750069
637,-181,0.0279541,0.0251465,-0.000649106,-0.000220742,-0.00113858,0.00072363,-0.00159348,-0.878368,0.00136884,0.0339243,1861,1205,0.0279979,-0.025188
644,-181,0.0578613,0.155518,0.000846737,-0.00017245,-0.00028129,0.000919217,-0.00024493,-0.252185,0.000708706,0.034882,1868,1205,0.0578489,-0.15548
651,-181,0.0340576,0.13501,0.00175742,-0.000396056,0.000158755,0.00176906,-0.000407697,0.0731932,0.00133617,0.03559,1875,1205,0.0340786,-0.135034
658,-181,-0.048584,0.133911,0.00205837,-0.00056441,0.000438844,0.00212985,-0.000635889,0.161463,0.00167265,0.0321011,1882,1205,-0.0485915,-0.133966
665,-181,-0.0732422,0.072876,0.00203271,-0.000706674,0.000568901,0.00214616,-0.000820123,0.196834,0.0017687,0.0269939,1889,1205,-0.0732989,-0.0729187
672,-181,-0.0612793,0.0511475,0.00177804,-0.000810764,0.000584188,0.00190376,-0.000936486,0.211975,0.00167121,0.0184079,1896,1205,-0.0612437,-0.0512016
679,-181,-0.0600586,0.0511475,0.0013993,-0.000867632,0.000542786,0.00152256,-0.000990892,0.223302,0.00146193,0.0219256,1903,1205,-0.0600194,-0.0511768
686,-181,-0.0141602,0.156128,0.00092801,-0.000870598,0.000461792,0.00103965,-0.000982233,0.237194,0.00116749,0.0418683,1910,1205,-0.0141418,-0.156107
693,-181,0.338501,0.161865,0,0,0,0,0,0,0,-1,1917,1205,0.338449,-0.161858
700,-181,0.182983,0.112061,-2.39868e-05,-0.000787257,0.000140725,1.13199e-06,-0.000812376,0.176636,0.000541962,0.0448067,1924,1205,0.182941,-0.112112
707,-181,-0.0446777,0.06604,-0.00040608,-0.000709399,8.74675e-06,-0.000405828,-0.000709651,0.0288049,0.000411126,0.02016,1931,1205,-0.04473,-0.0660361
714,-181,-0.0507813,0.0949707,-0.000700708,-0.000618514,-6.16657e-05,-0.000585505,-0.000733716,-1.07932,0.000447989,0.0141406,1938,1205,-0.0507973,-0.0950221
721,-181,-0.0360107,0.0899658,-0.000871018,-0.000436167,1.17975e-05,-0.000435847,-0.000871338,1.54369,0.000503067,0.010645,1945,1205,-0.0360095,-0.0899054
728,-181,-0.0456543,0.0734863,-0.000598229,-0.000479855,0.000180652,-0.000348941,-0.000729142,0.943702,0.0004211,0.00981863,1952,1205,-0.045706,-0.0734604
735,-181,-0.036377,0.0697021,-0.000149917,-0.000564133,0.000546843,0.000227724,-0.000941774,0.604378,0.000715933,0.0101616,1959,1205,-0.0363893,-0.0696879
742,-181,-0.0644531,0.0852051,0.000224867,-0.000849928,0.00103719,0.000855614,-0.00148067,0.546376,0.00136485,0.0144424,1966,1205,-0.0644094,-0.0852087
749,-181,-0.0632324,0.0621338,0.000841187,-0.00134644,0.00144219,0.00155744,-0.0020627,0.460958,0.00209686,0.0136199,1973,1205,-0.0632767,-0.062096
756,-181,-0.0491943,0.050293,0.00169211,-0.00214452,0.00178283,0.00239265,-0.00284507,0.374405,0.00302776,0.0103026,1980,1205,-0.049175,-0.0502412
763,-181,-0.0682373,0.0610352,0.00231886,-0.00296942,0.00210786,0.00305622,-0.00370678,0.33651,0.00391064,0.0107354,1987,1205,-0.0682618,-0.0610852
770,-181,-0.0800781,0.0845947,0.00275265,-0.00418465,0.00231243,0.00345279,-0.00488479,0.294001,0.00483731,0.0240058,1994,1205,-0.0800306,-0.0845574
777,-181,0.0100098,0.217163,0.00298908,-0.00573409,0.00217414,0.00350093,-0.00624593,0.231213,0.00570126,0.0433164,2001,1205,0.0100075,-0.217166
784,-181,0.273438,0.334595,0.00288598,-0.00762679,0.00142228,0.00307501,-0.00781582,0.132127,0.00648336,0.047908,2008,1205,0.273385,-0.3346
791,-181,0.297241,0.984985,0,0,0,0,0,0,0,-1,2015,1205,0.297249,-0.98496
798,-181,-0.0662842,-0.512573,0,0,0,0,0,0,0,-1,2022,1205,-0.0662381,0.512564
805,-181,0,0,0,0,0,0,0,0,0,-1,2029,1205,0,0
812,-181,0,0,0,0,0,0,0,0,0,-1,2036,1205,0,0
-700,-188,0,0,0,0,0,0,0,0,0,-1,524,1212,0,0
-693,-188,0,0,0,0,0,0,0,0,0,-1,531,1212,0,0
-686,-188,0,0,0,0,0,0,0,0,0,-1,538,1212,0,0
-679,-188,-1.56934,-1.81604,0,0,0,0,0,0,0,-1,545,1212,-1.56934,1.8161
-672,-188,1.04456,1.02563,0,0,0,0,0,0,0,-1,552,1212,1.04458,-1.02562
-665,-188,1.11652,0.647217,-0.0369713,0.0133486,-0.00821558,0.014656,-0.0382787,-1.41299,0.0315599,0.0473799,559,1212,1.11652,-0.647201
-658,-188,-0.267761,0.550293,-0.0281886,0.00961797,-0.00626876,0.0106303,-0.0292009,-1.41069,0.0238151,0.0453703,566,1212,-0.267786,-0.5503
-651,-188,-0.20459,0.47937,-0.0209027,0.00668652,-0.0047444,0.00747959,-0.0216958,-1.40517,0.0174983,0.0484679,573,1212,-0.204598,-0.479352
-644,-188,-0.0930786,0.290649,-0.0150201,0.00448409,-0.00354789,0.00510942,-0.0156454,-1.39634,0.0124869,0.0420385,580,1212,-0.0930756,-0.290644
-637,-188,-0.0223999,0.0909424,-0.0104121,0.00291213,-0.00261788,0.00340802,-0.010908,-1.38359,0.00863515,0.0210015,587,1212,-0.0224085,-0.0909412
-630,-188,-0.0328979,0.0831299,-0.00663933,0.00159254,-0.00191971,0.00201822,-0.00706501,-1.35259,0.00550742,0.00943938,594,1212,-0.0329269,-0.083186
-623,-188,-0.0353394,0.0769043,-0.00403399,0.000533636,-0.00139166,0.000924242,-0.0044246,-1.29716,0.00330122,0.00994982,601,1212,-0.0353697,-0.0768475
-616,-188,-0.0332642,0.0673828,-0.00237583,8.57226e-05,-0.00116972,0.000552901,-0.00284301,-1.19081,0.002104,0.0102559,608,1212,-0.0332907,-0.0674096
-609,-188,-0.0252075,0.072998,-0.000464336,5.91404e-05,-0.00111104,0.000938855,-0.00134405,-0.901079,0.00132494,0.0119248,615,1212,-0.0252212,-0.0730332
-602,-188,-0.020752,0.0863037,0.000631838,0.000121058,-0.00085026,0.00126424,-0.00051134,-0.639502,0.0010554,0.0139891,622,1212,-0.0207323,-0.0863615
-595,-188,-0.0333252,0.0743408,0.00099331,0.000155965,-0.000719817,0.00140736,-0.000258083,-0.521994,0.00103505,0.011917,629,1212,-0.0333212,-0.0743827
-588,-188,-0.0386963,0.0712891,0.000943699,8.47568e-05,-0.000737839,0.00136796,-0.0003395,-0.521834,0.00104371,0.0101796,636,1212,-0.0386679,-0.0713004
-581,-188,-0.0377197,0.0770264,0.000779266,-0.000200615,-0.000578135,0.00104714,-0.000468489,-0.433892,0.000896054,0.00931249,643,1212,-0.0376996,-0.0769684
-574,-188,-0.0280151,0.0147705,0.000648879,-0.000359916,-0.000362775,0.000765788,-0.000476826,-0.311756,0.000723861,0.0212449,650,1212,-0.0279948,-0.0147705
-567,-188,-0.116333,-0.083374,0.000453791,-0.000354743,-0.000122513,0.000471947,-0.000372899,-0.147126,0.000488888,0.0407589,657,1212,-0.116336,0.0834261
-560,-188,0.355835,-0.678345,0.000179647,-0.000397414,7.94907e-05,0.000190397,-0.000408164,0.134416,0.000353121,0.049303,664,1212,0.355825,0.678359
-553,-188,0.165894,-0.221558,-0.000110993,-0.000438217,0.000375622,0.000135103,-0.000684314,0.580001,0.000507277,0.0462825,671,1212,0.165891,0.221594
-546,-188,-0.0719604,0.181763,-0.000451473,-0.00041978,0.00070373,0.000268283,-0.00113953,0.796655,0.000863129,0.0378216,678,1212,-0.0719654,-0.181705
-539,-188,-0.0247192,-0.0123291,-0.00073846,-0.000310911,0.00101418,0.000511778,-0.00156115,0.889271,0.00124687,0.0359756,685,1212,-0.0247369,0.0123198
-532,-188,-0.133301,-0.0673828,-0.00085123,-6.09959e-05,0.00124213,0.000847347,-0.00175957,0.939386,0.00153552,0.0416631,692,1212,-0.133297,0.0673611
-525,-188,0.0043335,0.0975342,-0.000694791,0.000385466,0.00129621,0.00124958,-0.00155891,0.982807,0.00162476,0.0392514,699,1212,0.00430411,-0.0975614
-518,-188,0.052124,0.0478516,-0.000139541,0.00102274,0.00106404,0.001654,-0.000770799,1.03534,0.00143058,0.0396081,706,1212,0.0521217,-0.0478639
-511,-188,0.0114746,0.0202637,0.00216423,0.00198958,-0.000293425,0.00238305,0.00177076,-0.640765,0.00142902,0.0364994,713,1212,0.0114979,-0.0203134
-504,-188,0,0,0,0,0,0,0,0,0,-1,720,1212,0,0
-497,-188,0,0,0,0,0,0,0,0,0,-1,727,1212,0,0
-490,-188,0,0,0,0,0,0,0,0,0,-1,734,1212,0,0
-483,-188,0,0,0,0,0,0,0,0,0,-1,741,1212,0,0
-476,-188,0,0,0,0,0,0,0,0,0,-1,748,1212,0,0
-469,-188,0,0,0,0,0,0,0,0,0,-1,755,1212,0,0
-462,-188,0,0,0,0,0,0,0,0,0,-1,762,1212,0,0
-455,-188,0,0,0,0,0,0,0,0,0,-1,769,1212,0,0
-448,-188,0,0,0,0,0,0,0,0,0,-1,776,1212,0,0
-441,-188,0,0,0,0,0,0,0,0,0,-1,783,1212,0,0
-434,-188,0,0,0,0,0,0,0,0,0,-1,790,1212,0,0
-427,-188,0,0,0,0,0,0,0,0,0,-1,797,1212,0,0
-420,-188,0,0,0,0,0,0,0,0,0,-1,804,1212,0,0
-413,-188,0,0,0,0,0,0,0,0,0,-1,811,1212,0,0
-406,-188,0,0,0,0,0,0,0,0,0,-1,818,1212,0,0
-399,-188,0,0,0,0,0,0,0,0,0,-1,825,1212,0,0
-392,-188,0,0,0,0,0,0,0,0,0,-1,832,1212,0,0
-385,-188,0,0,0,0,0,0,0,0,0,-1,839,1212,0,0
-378,-188,0,0,0,0,0,0,0,0,0,-1,846,1212,0,0
-371,-188,0,0,0,0,0,0,0,0,0,-1,853,1212,0,0
-364,-188,0,0,0,0,0,0,0,0,0,-1,860,1212,0,0
-357,-188,0,0,0,0,0,0,0,0,0,-1,867,1212,0,0
-350,-188,0,0,0,0,0,0,0,0,0,-1,874,1212,0,0
-343,-188,0,0,0,0,0,0,0,0,0,-1,881,1212,0,0
-336,-188,0,0,0,0,0,0,0,0,0,-1,888,1212,0,0
-329,-188,0,0,0,0,0,0,0,0,0,-1,895,1212,0,0
-322,-188,0,0,0,0,0,0,0,0,0,-1,902,1212,0,0
-315,-188,0,0,0,0,0,0,0,0,0,-1,909,1212,0,0
-308,-188,0,0,0,0,0,0,0,0,0,-1,916,1212,0,0
-301,-188,0,0,0,0,0,0,0,0,0,-1,923,1212,0,0
-294,-188,0,0,0,0,0,0,0,0,0,-1,930,1212,0,0
-287,-188,0,0,0,0,0,0,0,0,0,-1,937,1212,0,0
-280,-188,0,0,0,0,0,0,0,0,0,-1,944,1212,0,0
-273,-188,0,0,0,0,0,0,0,0,0,-1,951,1212,0,0
-266,-188,0,0,0,0,0,0,0,0,0,-1,958,1212,0,0
-259,-188,0,0,0,0,0,0,0,0,0,-1,965,1212,0,0
-252,-188,0,0,0,0,0,0,0,0,0,-1,972,1212,0,0
-245,-188,0,0,0,0,0,0,0,0,0,-1,979,1212,0,0
-238,-188,0,0,0,0,0,0,0,0,0,-1,986,1212,0,0
-231,-188,0,0,0,0,0,0,0,0,0,-1,993,1212,0,0
-224,-188,0,0,0,0,0,0,0,0,0,-1,1000,1212,0,0
-217,-188,0,0,0,0,0,0,0,0,0,-1,1007,1212,0,0
-210,-188,0,0,0,0,0,0,0,0,0,-1,1014,1212,0,0
-203,-188,0,0,0,0,0,0,0,0,0,-1,1021,1212,0,0
-196,-188,0,0,0,0,0,0,0,0,0,-1,1028,1212,0,0
-189,-188,0,0,0,0,0,0,0,0,0,-1,1035,1212,0,0
-182,-188,0,0,0,0,0,0,0,0,0,-1,1042,1212,0,0
-175,-188,0,0,0,0,0,0,0,0,0,-1,1049,1212,0,0
-168,-188,0,0,0,0,0,0,0,0,0,-1,1056,1212,0,0
-161,-188,0,0,0,0,0,0,0,0,0,-1,1063,1212,0,0
-154,-188,0,0,0,0,0,0,0,0,0,-1,1070,1212,0,0
-147,-188,0,0,0,0,0,0,0,0,0,-1,1077,1212,0,0
-140,-188,0,0,0,0,0,0,0,0,0,-1,1084,1212,0,0
-133,-188,0,0,0,0,0,0,0,0,0,-1,1091,1212,0,0
-126,-188,0,0,0,0,0,0,0,0,0,-1,1098,1212,0,0
-119,-188,0,0,0,0,0,0,0,0,0,-1,1105,1212,0,0
-112,-188,0,0,0,0,0,0,0,0,0,-1,1112,1212,0,0
-105,-188,0,0,0,0,0,0,0,0,0,-1,1119,1212,0,0
-98,-188,0,0,0,0,0,0,0,0,0,-1,1126,1212,0,0
-91,-188,0,0,0,0,0,0,0,0,0,-1,1133,1212,0,0
-84,-188,0,0,0,0,0,0,0,0,0,-1,1140,1212,0,0
-77,-188,0,0,0,0,0,0,0,0,0,-1,1147,1212,0,0
-70,-188,0,0,0,0,0,0,0,0,0,-1,1154,1212,0,0
-63,-188,0,0,0,0,0,0,0,0,0,-1,1161,1212,0,0
-56,-188,0,0,0,0,0,0,0,0,0,-1,1168,1212,0,0
-49,-188,0,0,0,0,0,0,0,0,0,-1,1175,1212,0,0
-42,-188,0,0,0,0,0,0,0,0,0,-1,1182,1212,0,0
-35,-188,0,0,0,0,0,0,0,0,0,-1,1189,1212,0,0
-28,-188,0,0,0,0,0,0,0,0,0,-1,1196,1212,0,0
-21,-188,0,0,0,0,0,0,0,0,0,-1,1203,1212,0,0
-14,-188,0,0,0,0,0,0,0,0,0,-1,1210,1212,0,0
-7,-188,0,0,0,0,0,0,0,0,0,-1,1217,1212,0,0
0,-188,0,0,0,0,0,0,0,0,0,-1,1224,1212,0,0
7,-188,0,0,0,0,0,0,0,0,0,-1,1231,1212,0,0
14,-188,0,0,0,0,0,0,0,0,0,-1,1238,1212,0,0
21,-188,0,0,0,0,0,0,0,0,0,-1,1245,1212,0,0
28,-188,0,0,0,0,0,0,0,0,0,-1,1252,1212,0,0
35,-188,0,0,0,0,0,0,0,0,0,-1,1259,1212,0,0
42,-188,0,0,0,0,0,0,0,0,0,-1,1266,1212,0,0
49,-188,0,0,0,0,0,0,0,0,0,-1,1273,1212,0,0
56,-188,0,0,0,0,0,0,0,0,0,-1,1280,1212,0,0
63,-188,0,0,0,0,0,0,0,0,0,-1,1287,1212,0,0
70,-188,0,0,0,0,0,0,0,0,0,-1,1294,1212,0,0
77,-188,0,0,0,0,0,0,0,0,0,-1,1301,1212,0,0
84,-188,0,0,0,0,0,0,0,0,0,-1,1308,1212,0,0
91,-188,0,0,0,0,0,0,0,0,0,-1,1315,1212,0,0
98,-188,0,0,0,0,0,0,0,0,0,-1,1322,1212,0,0
105,-188,0,0,0,0,0,0,0,0,0,-1,1329,1212,0,0
112,-188,0,0,0,0,0,0,0,0,0,-1,1336,1212,0,0
119,-188,0,0,0,0,0,0,0,0,0,-1,1343,1212,0,0
126,-188,0,0,0,0,0,0,0,0,0,-1,1350,1212,0,0
133,-188,0,0,0,0,0,0,0,0,0,-1,1357,1212,0,0
140,-188,0,0,0,0,0,0,0,0,0,-1,1364,1212,0,0
147,-188,0,0,0,0,0,0,0,0,0,-1,1371,1212,0,0
154,-188,0,0,0,0,0,0,0,0,0,-1,1378,1212,0,0
161,-188,0,0,0,0,0,0,0,0,0,-1,1385,1212,0,0
168,-188,0,0,0,0,0,0,0,0,0,-1,1392,1212,0,0
175,-188,0,0,0,0,0,0,0,0,0,-1,1399,1212,0,0
182,-188,0,0,0,0,0,0,0,0,0,-1,1406,1212,0,0
189,-188,0,0,0,0,0,0,0,0,0,-1,1413,1212,0,0
196,-188,0,0,0,0,0,0,0,0,0,-1,1420,1212,0,0
203,-188,0,0,0,0,0,0,0,0,0,-1,1427,1212,0,0
210,-188,0,0,0,0,0,0,0,0,0,-1,1434,1212,0,0
217,-188,0,0,0,0,0,0,0,0,0,-1,1441,1212,0,0
224,-188,0,0,0,0,0,0,0,0,0,-1,1448,1212,0,0
231,-188,0,0,0,0,0,0,0,0,0,-1,1455,1212,0,0
238,-188,0,0,0,0,0,0,0,0,0,-1,1462,1212,0,0
245,-188,0,0,0,0,0,0,0,0,0,-1,1469,1212,0,0
252,-188,0,0,0,0,0,0,0,0,0,-1,1476,1212,0,0
259,-188,0,0,0,0,0,0,0,0,0,-1,1483,1212,0,0
266,-188,0,0,0,0,0,0,0,0,0,-1,1490,1212,0,0
273,-188,0,0,0,0,0,0,0,0,0,-1,1497,1212,0,0
280,-188,0,0,0,0,0,0,0,0,0,-1,1504,1212,0,0
287,-188,0,0,0,0,0,0,0,0,0,-1,1511,1212,0,0
294,-188,0,0,0,0,0,0,0,0,0,-1,1518,1212,0,0
301,-188,0,0,0,0,0,0,0,0,0,-1,1525,1212,0,0
308,-188,0,0,0,0,0,0,0,0,0,-1,1532,1212,0,0
315,-188,0,0,0,0,0,0,0,0,0,-1,1539,1212,0,0
322,-188,0,0,0,0,0,0,0,0,0,-1,1546,1212,0,0
329,-188,0,0,0,0,0,0,0,0,0,-1,1553,1212,0,0
336,-188,0,0,0,0,0,0,0,0,0,-1,1560,1212,0,0
343,-188,0,0,0,0,0,0,0,0,0,-1,1567,1212,0,0
350,-188,0,0,0,0,0,0,0,0,0,-1,1574,1212,0,0
357,-188,0,0,0,0,0,0,0,0,0,-1,1581,1212,0,0
364,-188,0,0,0,0,0,0,0,0,0,-1,1588,1212,0,0
371,-188,0,0,0,0,0,0,0,0,0,-1,1595,1212,0,0
378,-188,0,0,0,0,0,0,0,0,0,-1,1602,1212,0,0
385,-188,0,0,0,0,0,0,0,0,0,-1,1609,1212,0,0
392,-188,0,0,0,0,0,0,0,0,0,-1,1616,1212,0,0
399,-188,0,0,0,0,0,0,0,0,0,-1,1623,1212,0,0
406,-188,0,0,0,0,0,0,0,0,0,-1,1630,1212,0,0
413,-188,0,0,0,0,0,0,0,0,0,-1,1637,1212,0,0
420,-188,0,0,0,0,0,0,0,0,0,-1,1644,1212,0,0
427,-188,0,0,0,0,0,0,0,0,0,-1,1651,1212,0,0
434,-188,0,0,0,0,0,0,0,0,0,-1,1658,1212,0,0
441,-188,0,0,0,0,0,0,0,0,0,-1,1665,1212,0,0
448,-188,0,0,0,0,0,0,0,0,0,-1,1672,1212,0,0
455,-188,0,0,0,0,0,0,0,0,0,-1,1679,1212,0,0
462,-188,0,0,0,0,0,0,0,0,0,-1,1686,1212,0,0
469,-188,0,0,0,0,0,0,0,0,0,-1,1693,1212,0,0
476,-188,0,0,0,0,0,0,0,0,0,-1,1700,1212,0,0
483,-188,0,0,0,0,0,0,0,0,0,-1,1707,1212,0,0
490,-188,0,0,0,0,0,0,0,0,0,-1,1714,1212,0,0
497,-188,0,0,0,0,0,0,0,0,0,-1,1721,1212,0,0
504,-188,0,0,0,0,0,0,0,0,0,-1,1728,1212,0,0
511,-188,0,0,0,0,0,0,0,0,0,-1,1735,1212,0,0
518,-188,0,0,0,0,0,0,0,0,0,-1,1742,1212,0,0
525,-188,0,0,0,0,0,0,0,0,0,-1,1749,1212,0,0
532,-188,0,0,0,0,0,0,0,0,0,-1,1756,1212,0,0
539,-188,0,0,0,0,0,0,0,0,0,-1,1763,1212,0,0
546,-188,0,0,0,0,0,0,0,0,0,-1,1770,1212,0,0
553,-188,0,0,0,0,0,0,0,0,0,-1,1777,1212,0,0
560,-188,0,0,0,0,0,0,0,0,0,-1,1784,1212,0,0
567,-188,0,0,0,0,0,0,0,0,0,-1,1791,1212,0,0
574,-188,0,0,0,0,0,0,0,0,0,-1,1798,1212,0,0
581,-188,0,0,0,0,0,0,0,0,0,-1,1805,1212,0,0
588,-188,0,0,0,0,0,0,0,0,0,-1,1812,1212,0,0
595,-188,0,0,0,0,0,0,0,0,0,-1,1819,1212,0,0
602,-188,0,0,0,0,0,0,0,0,0,-1,1826,1212,0,0
609,-188,0,0,0,0,0,0,0,0,0,-1,1833,1212,0,0
616,-188,0,0,0,0,0,0,0,0,0,-1,1840,1212,0,0
623,-188,0,0,0,0,0,0,0,0,0,-1,1847,1212,0,0
630,-188,0.0241699,0.0447998,-0.00209605,0.000508927,-0.00292344,0.00240691,-0.00399403,-0.994964,0.00373325,0.036862,1854,1212,0.0241665,-0.0448211
637,-188,-0.0202637,0.0488281,-0.000922917,0.000149662,-0.00147893,0.00118654,-0.00195979,-0.959335,0.00183473,0.0351028,1861,1212,-0.0203021,-0.0488781
644,-188,-0.0845947,0.0762939,0.000778813,-8.37208e-05,-0.000431214,0.000957412,-0.00026232,-0.392668,0.00074135,0.030756,1868,1212,-0.0845718,-0.0763357
651,-188,-0.0577393,0.0318604,0.00181288,-0.000386045,0.000223822,0.00183543,-0.000408596,0.100415,0.00138013,0.0273981,1875,1212,-0.0577933,-0.0318259
658,-188,-0.0633545,0.0356445,0.00224772,-0.000570157,0.00066958,0.00239873,-0.000721169,0.221821,0.00188608,0.02823,1882,1212,-0.063384,-0.0356858
665,-188,-0.0496826,0.0632324,0.00234357,-0.000683271,0.000918385,0.00260043,-0.000940125,0.272712,0.00211773,0.0247031,1889,1212,-0.0496594,-0.0632632
672,-188,-0.032959,0.072876,0.00218016,-0.000743759,0.00101002,0.00249513,-0.00105872,0.302285,0.00210694,0.0190312,1896,1212,-0.0328996,-0.0728345
679,-188,0.00439453,0.181763,0.00185439,-0.000754867,0.0010097,0.00219947,-0.00109995,0.329323,0.00193986,0.0386953,1903,1212,0.00435078,-0.18171
686,-188,0.306396,0.203857,0.00139126,-0.000723871,0.000936153,0.00174608,-0.00107869,0.362288,0.00164598,0.0387051,1910,1212,0.30643,-0.203873
693,-188,0.354858,0.0871582,0,0,0,0,0,0,0,-1,1917,1212,0.354859,-0.0872189
700,-188,-0.0629883,-0.0144043,0.000385098,-0.000604795,0.000561486,0.000638643,-0.00085834,0.42415,0.00086738,0.0312618,1924,1212,-0.0629359,0.0144528
707,-188,-0.0717773,0.0588379,-3.83153e-05,-0.00052466,0.000379319,0.000169085,-0.00073206,0.50036,0.000553085,0.0103296,1931,1212,-0.0717901,-0.0588875
714,-188,-0.0491943,0.0732422,-0.000387607,-0.000427705,0.000246403,-0.000160438,-0.000654874,0.744803,0.000394142,0.00824972,1938,1212,-0.0492167,-0.0733001
721,-188,-0.0396729,0.0854492,-0.000631396,-0.000181705,0.000260657,-6.23162e-05,-0.000750785,1.14128,0.000481098,0.00923719,1945,1212,-0.039662,-0.085453
728,-188,-0.0621338,0.0783691,-0.000411149,-0.000277577,0.000361732,2.34826e-05,-0.000712209,0.876684,0.000482824,0.00862979,1952,1212,-0.0621806,-0.0784264
735,-188,-0.0577393,0.0722656,6.70694e-05,-0.000389271,0.00065189,0.000529567,-0.000851769,0.617055,0.000804714,0.0118052,1959,1212,-0.0577089,-0.0722504
742,-188,-0.0722656,0.0700684,0.000574325,-0.00058867,0.00109499,0.00123264,-0.00124698,0.541307,0.00143162,0.0124995,1966,1212,-0.0722478,-0.0700282
749,-188,-0.0722656,0.072876,0.00127276,-0.00103822,0.00156307,0.00206106,-0.00182653,0.467108,0.00224587,0.0125256,1973,1212,-0.0723259,-0.0729049
756,-188,-0.0408936,0.0706787,0.00217305,-0.0016888,0.00202203,0.00303803,-0.00255378,0.404221,0.00323246,0.0113465,1980,1212,-0.040874,-0.0706397
763,-188,-0.0419922,0.0883789,0.00289569,-0.00255366,0.00256158,0.00391074,-0.00356871,0.377278,0.00431977,0.0119904,1987,1212,-0.0419804,-0.0883494
770,-188,-0.0585938,0.101074,0.003403,-0.00374403,0.00305071,0.00452808,-0.00486911,0.353319,0.00542666,0.020731,1994,1212,-0.0585724,-0.101015
777,-188,0.0406494,0.226563,0.00363803,-0.00536648,0.00337342,0.00476163,-0.00649008,0.321518,0.00652168,0.0420577,2001,1212,0.0406892,-0.226559
784,-188,0.326904,0.326782,0.00335963,-0.00754177,0.0033524,0.00430805,-0.00849018,0.275702,0.00751942,0.0453049,2008,1212,0.326874,-0.326752
791,-188,0.3573,0.927002,0,0,0,0,0,0,0,-1,2015,1212,0.357298,-0.926978
798,-188,-0.0184326,-0.285156,0,0,0,0,0,0,0,-1,2022,1212,-0.0184008,0.285096
805,-188,0,0,0,0,0,0,0,0,0,-1,2029,1212,0,0
812,-188,0,0,0,0,0,0,0,0,0,-1,2036,1212,0,0
-700,-195,0,0,0,0,0,0,0,0,0,-1,524,1219,0,0
-693,-195,0,0,0,0,0,0,0,0,0,-1,531,1219,0,0
-686,-195,0,0,0,0,0,0,0,0,0,-1,538,1219,0,0
-679,-195,-1.82092,-1.90735,0,0,0,0,0,0,0,-1,545,1219,-1.8209,1.90733
-672,-195,1.03113,1.11633,0,0,0,0,0,0,0,-1,552,1219,1.03115,-1.11638
-665,-195,1.08905,0.767456,-0.0417526,0.0128042,-0.00429327,0.01314,-0.0420884,-1.49274,0.0333142,0.0469171,559,1219,1.08907,-0.76751
-658,-195,0.13739,0.450806,-0.0325873,0.00920233,-0.00324653,0.00945304,-0.032838,-1.49373,0.0256308,0.0460761,566,1219,0.137378,-0.450842
-651,-195,-0.0618286,0.447021,-0.0246752,0.00645787,-0.00247384,0.00665322,-0.0248706,-1.492,0.0191866,0.0452712,573,1219,-0.0618434,-0.447071
-644,-195,-0.0514526,0.26123,-0.0180841,0.00444459,-0.00187841,0.00460014,-0.0182396,-1.48818,0.0139483,0.0398297,580,1219,-0.0514564,-0.261252
-637,-195,-0.0209961,0.0883789,-0.012781,0.0030224,-0.00141053,0.00314731,-0.0129059,-1.48247,0.0098226,0.0209004,587,1219,-0.02099,-0.0883697
-630,-195,-0.0335083,0.0856934,-0.0084876,0.00182023,-0.00104962,0.00192603,-0.00859339,-1.47034,0.00646725,0.0078754,594,1219,-0.0335256,-0.0857281
-623,-195,-0.0458984,0.0787354,-0.00538696,0.000930479,-0.00083378,0.00103867,-0.00549515,-1.44176,0.00405425,0.00746128,601,1219,-0.0458986,-0.0787485
-616,-195,-0.0470581,0.0775146,-0.00331101,0.000514195,-0.000739267,0.000652096,-0.00344891,-1.38638,0.00254464,0.00891876,608,1219,-0.0470351,-0.0774588
-609,-195,-0.0387573,0.0717773,-0.00099076,0.000392579,-0.000831876,0.000782771,-0.00138095,-1.13221,0.00126504,0.0159771,615,1219,-0.0387675,-0.0717597
-602,-195,-0.0516357,0.0574951,0.000370051,0.000304451,-0.000614185,0.000952311,-0.000277809,-0.758721,0.000744949,0.0190497,622,1219,-0.0516561,-0.0575549
-595,-195,-0.0415039,0.0844727,0.000924543,0.000187852,-0.000512725,0.00118752,-7.51223e-05,-0.473911,0.00081787,0.013547,629,1219,-0.0414896,-0.084416
-588,-195,-0.0371094,0.0720215,0.000927254,-6.45769e-06,-0.000495123,0.00114091,-0.000220117,-0.407387,0.000843608,0.0074453,636,1219,-0.0371068,-0.0720728
-581,-195,-0.0286255,0.0649414,0.000786761,-0.000444191,-0.000283135,0.000848763,-0.000506193,-0.21558,0.000790574,0.00745764,643,1219,-0.0286276,-0.0649565
-574,-195,-0.0106201,0.0319824,0.000646657,-0.000707727,-3.72715e-05,0.000647682,-0.000708752,-0.0274914,0.000783402,0.0170268,650,1219,-0.0106433,-0.0319897
-567,-195,0.0430908,0.029541,0.000421551,-0.000773704,0.000240655,0.000468185,-0.000820339,0.191409,0.000753134,0.0347822,657,1219,0.0430867,-0.0295193
-560,-195,0.298096,-0.765747,0.000111811,-0.000849584,0.000466565,0.000301003,-0.00103878,0.38524,0.000811674,0.0451635,664,1219,0.298095,0.765788
-553,-195,0.702759,-1.11084,0,0,0,0,0,0,0,-1,671,1219,0.702732,1.11086
-546,-195,-0.0830078,0.314941,-0.000537941,-0.000911638,0.00104079,0.000332642,-0.00178222,0.696582,0.00131315,0.0396376,678,1219,-0.0829855,-0.314886
-539,-195,-0.0232544,0.0812988,-0.000829518,-0.000760352,0.00125886,0.000464399,-0.00205427,0.79913,0.00154771,0.0333116,685,1219,-0.023269,-0.0813133
-532,-195,-0.124268,0.0078125,-0.000926313,-0.000412287,0.00133215,0.000687418,-0.00202602,0.880693,0.00162891,0.0333244,692,1219,-0.124293,-0.00779889
-525,-195,-0.0358887,0.0109863,-0.000726122,0.000192136,0.00116842,0.000988396,-0.00152238,0.972605,0.00146048,0.038337,699,1219,-0.0359188,-0.0109569
-518,-195,0.0811157,0.0527344,-9.23235e-05,0.00108095,0.00065446,0.00137321,-0.000384584,1.1508,0.00106703,0.0397411,706,1219,0.081145,-0.0527685
-511,-195,0.114563,0.0820313,0.00212642,0.00234361,-0.000914077,0.00315552,0.00131451,-0.844524,0.00183027,0.0387407,713,1219,0.114571,-0.0820696
-504,-195,0,0,0,0,0,0,0,0,0,-1,720,1219,0,0
-497,-195,0,0,0,0,0,0,0,0,0,-1,727,1219,0,0
-490,-195,0,0,0,0,0,0,0,0,0,-1,734,1219,0,0
-483,-195,0,0,0,0,0,0,0,0,0,-1,741,1219,0,0
-476,-195,0,0,0,0,0,0,0,0,0,-1,748,1219,0,0
-469,-195,0,0,0,0,0,0,0,0,0,-1,755,1219,0,0
-462,-195,0,0,0,0,0,0,0,0,0,-1,762,1219,0,0
-455,-195,0,0,0,0,0,0,0,0,0,-1,769,1219,0,0
-448,-195,0,0,0,0,0,0,0,0,0,-1,776,1219,0,0
-441,-195,0,0,0,0,0,0,0,0,0,-1,783,1219,0,0
-434,-195,0,0,0,0,0,0,0,0,0,-1,790,1219,0,0
-427,-195,0,0,0,0,0,0,0,0,0,-1,797,1219,0,0
-420,-195,0,0,0,0,0,0,0,0,0,-1,804,1219,0,0
-413,-195,0,0,0,0,0,0,0,0,0,-1,811,1219,0,0
-406,-195,0,0,0,0,0,0,0,0,0,-1,818,1219,0,0
-399,-195,0,0,0,0,0,0,0,0,0,-1,825,1219,0,0
-392,-195,0,0,0,0,0,0,0,0,0,-1,832,1219,0,0
-385,-195,0,0,0,0,0,0,0,0,0,-1,839,1219,0,0
-378,-195,0,0,0,0,0,0,0,0,0,-1,846,1219,0,0
-371,-195,0,0,0,0,0,0,0,0,0,-1,853,1219,0,0
-364,-195,0,0,0,0,0,0,0,0,0,-1,860,1219,0,0
-357,-195,0,0,0,0,0,0,0,0,0,-1,867,1219,0,0
-350,-195,0,0,0,0,0,0,0,0,0,-1,874,1219,0,0
-343,-195,0,0,0,0,0,0,0,0,0,-1,881,1219,0,0
-336,-195,0,0,0,0,0,0,0,0,0,-1,888,1219,0,0
-329,-195,0,0,0,0,0,0,0,0,0,-1,895,1219,0,0
-322,-195,0,0,0,0,0,0,0,0,0,-1,902,1219,0,0
-315,-195,0,0,0,0,0,0,0,0,0,-1,909,1219,0,0
-308,-195,0,0,0,0,0,0,0,0,0,-1,916,1219,0,0
-301,-195,0,0,0,0,0,0,0,0,0,-1,923,1219,0,0
-294,-195,0,0,0,0,0,0,0,0,0,-1,930,1219,0,0
-287,-195,0,0,0,0,0,0,0,0,0,-1,937,1219,0,0
-280,-195,0,0,0,0,0,0,0,0,0,-1,944,1219,0,0
-273,-195,0,0,0,0,0,0,0,0,0,-1,951,1219,0,0
-266,-195,0,0,0,0,0,0,0,0,0,-1,958,1219,0,0
-259,-195,0,0,0,0,0,0,0,0,0,-1,965,1219,0,0
-252,-195,0,0,0,0,0,0,0,0,0,-1,972,1219,0,0
-245,-195,0,0,0,0,0,0,0,0,0,-1,979,1219,0,0
-238,-195,0,0,0,0,0,0,0,0,0,-1,986,1219,0,0
-231,-195,0,0,0,0,0,0,0,0,0,-1,993,1219,0,0
-224,-195,0,0,0,0,0,0,0,0,0,-1,1000,1219,0,0
-217,-195,0,0,0,0,0,0,0,0,0,-1,1007,1219,0,0
-210,-195,0,0,0,0,0,0,0,0,0,-1,1014,1219,0,0
-203,-195,0,0,0,0,0,0,0,0,0,-1,1021,1219,0,0
-196,-195,0,0,0,0,0,0,0,0,0,-1,1028,1219,0,0
-189,-195,0,0,0,0,0,0,0,0,0,-1,1035,1219,0,0
-182,-195,0,0,0,0,0,0,0,0,0,-1,1042,1219,0,0
-175,-195,0,0,0,0,0,0,0,0,0,-1,1049,1219,0,0
-168,-195,0,0,0,0,0,0,0,0,0,-1,1056,1219,0,0
-161,-195,0,0,0,0,0,0,0,0,0,-1,1063,1219,0,0
-154,-195,0,0,0,0,0,0,0,0,0,-1,1070,1219,0,0
-147,-195,0,0,0,0,0,0,0,0,0,-1,1077,1219,0,0
-140,-195,0,0,0,0,0,0,0,0,0,-1,1084,1219,0,0
-133,-195,0,0,0,0,0,0,0,0,0,-1,1091,1219,0,0
-126,-195,0,0,0,0,0,0,0,0,0,-1,1098,1219,0,0
-119,-195,0,0,0,0,0,0,0,0,0,-1,1105,1219,0,0
-112,-195,0,0,0,0,0,0,0,0,0,-1,1112,1219,0,0
-105,-195,0,0,0,0,0,0,0,0,0,-1,1119,1219,0,0
-98,-195,0,0,0,0,0,0,0,0,0,-1,1126,1219,0,0
-91,-195,0,0,0,0,0,0,0,0,0,-1,1133,1219,0,0
-84,-195,0,0,0,0,0,0,0,0,0,-1,1140,1219,0,0
-77,-195,0,0,0,0,0,0,0,0,0,-1,1147,1219,0,0
-70,-195,0,0,0,0,0,0,0,0,0,-1,1154,1219,0,0
-63,-195,0,0,0,0,0,0,0,0,0,-1,1161,1219,0,0
-56,-195,0,0,0,0,0,0,0,0,0,-1,1168,1219,0,0
-49,-195,0,0,0,0,0,0,0,0,0,-1,1175,1219,0,0
-42,-195,0,0,0,0,0,0,0,0,0,-1,1182,1219,0,0
-35,-195,0,0,0,0,0,0,0,0,0,-1,1189,1219,0,0
-28,-195,0,0,0,0,0,0,0,0,0,-1,1196,1219,0,0
-21,-195,0,0,0,0,0,0,0,0,0,-1,1203,1219,0,0
-14,-195,0,0,0,0,0,0,0,0,0,-1,1210,1219,0,0
-7,-195,0,0,0,0,0,0,0,0,0,-1,1217,1219,0,0
0,-195,0,0,0,0,0,0,0,0,0,-1,1224,1219,0,0
7,-195,0,0,0,0,0,0,0,0,0,-1,1231,1219,0,0
14,-195,0,0,0,0,0,0,0,0,0,-1,1238,1219,0,0
21,-195,0,0,0,0,0,0,0,0,0,-1,1245,1219,0,0
28,-195,0,0,0,0,0,0,0,0,0,-1,1252,1219,0,0
35,-195,0,0,0,0,0,0,0,0,0,-1,1259,1219,0,0
42,-195,0,0,0,0,0,0,0,0,0,-1,1266,1219,0,0
49,-195,0,0,0,0,0,0,0,0,0,-1,1273,1219,0,0
56,-195,0,0,0,0,0,0,0,0,0,-1,1280,1219,0,0
63,-195,0,0,0,0,0,0,0,0,0,-1,1287,1219,0,0
70,-195,0,0,0,0,0,0,0,0,0,-1,1294,1219,0,0
77,-195,0,0,0,0,0,0,0,0,0,-1,1301,1219,0,0
84,-195,0,0,0,0,0,0,0,0,0,-1,1308,1219,0,0
91,-195,0,0,0,0,0,0,0,0,0,-1,1315,1219,0,0
98,-195,0,0,0,0,0,0,0,0,0,-1,1322,1219,0,0
105,-195,0,0,0,0,0,0,0,0,0,-1,1329,1219,0,0
112,-195,0,0,0,0,0,0,0,0,0,-1,1336,1219,0,0
119,-195,0,0,0,0,0,0,0,0,0,-1,1343,1219,0,0
126,-195,0,0,0,0,0,0,0,0,0,-1,1350,1219,0,0
133,-195,0,0,0,0,0,0,0,0,0,-1,1357,1219,0,0
140,-195,0,0,0,0,0,0,0,0,0,-1,1364,1219,0,0
147,-195,0,0,0,0,0,0,0,0,0,-1,1371,1219,0,0
154,-195,0,0,0,0,0,0,0,0,0,-1,1378,1219,0,0
161,-195,0,0,0,0,0,0,0,0,0,-1,1385,1219,0,0
168,-195,0,0,0,0,0,0,0,0,0,-1,1392,1219,0,0
175,-195,0,0,0,0,0,0,0,0,0,-1,1399,1219,0,0
182,-195,0,0,0,0,0,0,0,0,0,-1,1406,1219,0,0
189,-195,0,0,0,0,0,0,0,0,0,-1,1413,1219,0,0
196,-195,0,0,0,0,0,0,0,0,0,-1,1420,1219,0,0
203,-195,0,0,0,0,0,0,0,0,0,-1,1427,1219,0,0
210,-195,0,0,0,0,0,0,0,0,0,-1,1434,1219,0,0
217,-195,0,0,0,0,0,0,0,0,0,-1,1441,1219,0,0
224,-195,0,0,0,0,0,0,0,0,0,-1,1448,1219,0,0
231,-195,0,0,0,0,0,0,0,0,0,-1,1455,1219,0,0
238,-195,0,0,0,0,0,0,0,0,0,-1,1462,1219,0,0
245,-195,0,0,0,0,0,0,0,0,0,-1,1469,1219,0,0
252,-195,0,0,0,0,0,0,0,0,0,-1,1476,1219,0,0
259,-195,0,0,0,0,0,0,0,0,0,-1,1483,1219,0,0
266,-195,0,0,0,0,0,0,0,0,0,-1,1490,1219,0,0
273,-195,0,0,0,0,0,0,0,0,0,-1,1497,1219,0,0
280,-195,0,0,0,0,0,0,0,0,0,-1,1504,1219,0,0
287,-195,0,0,0,0,0,0,0,0,0,-1,1511,1219,0,0
294,-195,0,0,0,0,0,0,0,0,0,-1,1518,1219,0,0
301,-195,0,0,0,0,0,0,0,0,0,-1,1525,1219,0,0
308,-195,0,0,0,0,0,0,0,0,0,-1,1532,1219,0,0
315,-195,0,0,0,0,0,0,0,0,0,-1,1539,1219,0,0
322,-195,0,0,0,0,0,0,0,0,0,-1,1546,1219,0,0
329,-195,0,0,0,0,0,0,0,0,0,-1,1553,1219,0,0
336,-195,0,0,0,0,0,0,0,0,0,-1,1560,1219,0,0
343,-195,0,0,0,0,0,0,0,0,0,-1,1567,1219,0,0
350,-195,0,0,0,0,0,0,0,0,0,-1,1574,1219,0,0
357,-195,0,0,0,0,0,0,0,0,0,-1,1581,1219,0,0
364,-195,0,0,0,0,0,0,0,0,0,-1,1588,1219,0,0
371,-195,0,0,0,0,0,0,0,0,0,-1,1595,1219,0,0
378,-195,0,0,0,0,0,0,0,0,0,-1,1602,1219,0,0
385,-195,0,0,0,0,0,0,0,0,0,-1,1609,1219,0,0
392,-195,0,0,0,0,0,0,0,0,0,-1,1616,1219,0,0
399,-195,0,0,0,0,0,0,0,0,0,-1,1623,1219,0,0
406,-195,0,0,0,0,0,0,0,0,0,-1,1630,1219,0,0
413,-195,0,0,0,0,0,0,0,0,0,-1,1637,1219,0,0
420,-195,0,0,0,0,0,0,0,0,0,-1,1644,1219,0,0
427,-195,0,0,0,0,0,0,0,0,0,-1,1651,1219,0,0
434,-195,0,0,0,0,0,0,0,0,0,-1,1658,1219,0,0
441,-195,0,0,0,0,0,0,0,0,0,-1,1665,1219,0,0
448,-195,0,0,0,0,0,0,0,0,0,-1,1672,1219,0,0
455,-195,0,0,0,0,0,0,0,0,0,-1,1679,1219,0,0
462,-195,0,0,0,0,0,0,0,0,0,-1,1686,1219,0,0
469,-195,0,0,0,0,0,0,0,0,0,-1,1693,1219,0,0
476,-195,0,0,0,0,0,0,0,0,0,-1,1700,1219,0,0
483,-195,0,0,0,0,0,0,0,0,0,-1,1707,1219,0,0
490,-195,0,0,0,0,0,0,0,0,0,-1,1714,1219,0,0
497,-195,0,0,0,0,0,0,0,0,0,-1,1721,1219,0,0
504,-195,0,0,0,0,0,0,0,0,0,-1,1728,1219,0,0
511,-195,0,0,0,0,0,0,0,0,0,-1,1735,1219,0,0
518,-195,0,0,0,0,0,0,0,0,0,-1,1742,1219,0,0
525,-195,0,0,0,0,0,0,0,0,0,-1,1749,1219,0,0
532,-195,0,0,0,0,0,0,0,0,0,-1,1756,1219,0,0
539,-195,0,0,0,0,0,0,0,0,0,-1,1763,1219,0,0
546,-195,0,0,0,0,0,0,0,0,0,-1,1770,1219,0,0
553,-195,0,0,0,0,0,0,0,0,0,-1,1777,1219,0,0
560,-195,0,0,0,0,0,0,0,0,0,-1,1784,1219,0,0
567,-195,0,0,0,0,0,0,0,0,0,-1,1791,1219,0,0
574,-195,0,0,0,0,0,0,0,0,0,-1,1798,1219,0,0
581,-195,0,0,0,0,0,0,0,0,0,-1,1805,1219,0,0
588,-195,0,0,0,0,0,0,0,0,0,-1,1812,1219,0,0
595,-195,0,0,0,0,0,0,0,0,0,-1,1819,1219,0,0
602,-195,0,0,0,0,0,0,0,0,0,-1,1826,1219,0,0
609,-195,0,0,0,0,0,0,0,0,0,-1,1833,1219,0,0
616,-195,0,0,0,0,0,0,0,0,0,-1,1840,1219,0,0
623,-195,0,0,0,0,0,0,0,0,0,-1,1847,1219,0,0
630,-195,-0.00439453,0.157349,-0.00253813,0.00101909,-0.00293819,0.00267507,-0.00419411,-1.05757,0.00399811,0.0351406,1854,1219,-0.0044234,-0.157344
637,-195,-0.0155029,0.125488,-0.000898275,0.000217288,-0.00150399,0.0012636,-0.00194458,-0.96297,0.0018661,0.0329745,1861,1219,-0.0154764,-0.125548
644,-195,-0.0617676,0.0980225,0.00106296,-0.000232023,-0.000381878,0.00116718,-0.000336246,-0.266436,0.000911126,0.0293068,1868,1219,-0.0617313,-0.0979798
651,-195,-0.039917,0.0418701,0.00225603,-0.000563988,0.000403718,0.00231269,-0.000620647,0.139431,0.00178501,0.0234416,1875,1219,-0.0399133,-0.0418932
658,-195,-0.0303955,0.0625,0.00283354,-0.000716949,0.000961766,0.00307732,-0.000960736,0.24825,0.00243579,0.0212393,1882,1219,-0.0304031,-0.0624455
665,-195,-0.0285645,0.0795898,0.00302479,-0.000760215,0.00129821,0.00342726,-0.00116269,0.300626,0.00275542,0.0187686,1889,1219,-0.0285225,-0.0795324
672,-195,-0.0172119,0.071167,0.00291549,-0.000749264,0.00144782,0.00341845,-0.00125222,0.334348,0.00279161,0.027684,1896,1219,-0.017207,-0.0711904
679,-195,0.0531006,0.37146,0.00259986,-0.000693227,0.00148144,0.00316821,-0.00126158,0.366331,0.00263532,0.0442551,1903,1219,0.0531322,-0.371487
686,-195,0.458862,0.460205,0.00210098,-0.000606426,0.00141561,0.00270597,-0.00121141,0.403874,0.00231592,0.042995,1910,1219,0.458888,-0.46023
693,-195,0.21814,0.0443115,0.00152649,-0.000513789,0.00123464,0.00210792,-0.00109522,0.440121,0.00187989,0.039382,1917,1219,0.218105,-0.044316
700,-195,-0.0834961,0.0366211,0.00095706,-0.000414759,0.000992508,0.00147761,-0.000935308,0.483039,0.00140478,0.020101,1924,1219,-0.083467,-0.0365777
707,-195,-0.0679932,0.0705566,0.000431133,-0.000337208,0.000765157,0.000903146,-0.000809222,0.552743,0.000989132,0.00982007,1931,1219,-0.0679417,-0.0705113
714,-195,-0.0384521,0.0684814,-6.21149e-05,-0.000248032,0.00058558,0.000437839,-0.000747987,0.706682,0.000692398,0.0117491,1938,1219,-0.0384468,-0.0685285
721,-195,-0.0457764,0.079834,-0.00045121,5.4866e-05,0.000565437,0.000421302,-0.000817646,0.995788,0.000727405,0.0105636,1945,1219,-0.0458,-0.079807
728,-195,-0.0611572,0.0914307,-0.000325754,-0.000139093,0.00060142,0.000376195,-0.000841042,0.862376,0.000719651,0.0096494,1952,1219,-0.061117,-0.0914756
735,-195,-0.0697021,0.0644531,0.000143853,-0.000335957,0.00084076,0.000778266,-0.00097037,0.64642,0.0010116,0.0110142,1959,1219,-0.0697417,-0.0644348
742,-195,-0.071167,0.0635986,0.00074399,-0.000508783,0.00124884,0.00151473,-0.00127953,0.552946,0.00161517,0.0118408,1966,1219,-0.0711943,-0.0635518
749,-195,-0.0594482,0.0598145,0.0015835,-0.0010026,0.00172596,0.00244705,-0.00186616,0.463911,0.00249775,0.012274,1973,1219,-0.059477,-0.0598322
756,-195,-0.0357666,0.088623,0.00260529,-0.00162904,0.00220693,0.00354638,-0.00257013,0.403077,0.00354633,0.0119961,1980,1219,-0.0357215,-0.0885635
763,-195,-0.0372314,0.104126,0.00355003,-0.00247214,0.00276062,0.004624,-0.00354611,0.371015,0.00473068,0.0132496,1987,1219,-0.0371777,-0.104095
770,-195,-0.0627441,0.110474,0.00440398,-0.00363976,0.00326188,0.00556045,-0.00479624,0.340717,0.00598486,0.0258098,1994,1219,-0.0627707,-0.110454
777,-195,0.0480957,0.262451,0.00509466,-0.00524391,0.0035879,0.00621779,-0.00636705,0.303371,0.00726603,0.0441113,2001,1219,0.0480499,-0.262433
784,-195,0.371826,0.267944,0.00536498,-0.00742478,0.00356112,0.00628967,-0.00834947,0.254052,0.00847975,0.043071,2008,1219,0.371825,-0.267957
791,-195,0.26355,0.214233,0.0047685,-0.0103631,0.00294318,0.00532081,-0.0109154,0.185499,0.00955767,0.0414627,2015,1219,0.263577,-0.214267
798,-195,0.241089,0.057373,0.00257112,-0.014355,0.00132852,0.00267476,-0.0144586,0.077854,0.0106433,0.0437636,2022,1219,0.241047,-0.057396
805,-195,0,0,0,0,0,0,0,0,0,-1,2029,1219,0,0
812,-195,0,0,0,0,0,0,0,0,0,-1,2036,1219,0,0
-700,-202,0,0,0,0,0,0,0,0,0,-1,524,1226,0,0
-693,-202,0,0,0,0,0,0,0,0,0,-1,531,1226,0,0
-686,-202,0,0,0,0,0,0,0,0,0,-1,538,1226,0,0
-679,-202,1.11835,2.65845,0,0,0,0,0,0,0,-1,545,1226,1.11835,-2.65846
-672,-202,0.938843,1.72717,-0.0561632,0.0188908,0.00241049,0.0189681,-0.0562405,1.53872,0.0451642,0.0474676,552,1226,0.938824,-1.72719
-665,-202,1.10944,0.914551,-0.0457556,0.0138351,0.00191249,0.0138964,-0.0458169,1.53875,0.0360801,0.0464204,559,1226,1.10941,-0.914581
-658,-202,1.02979,0.783569,-0.0361542,0.0100415,0.00146122,0.0100877,-0.0362003,1.53921,0.0281062,0.0437999,566,1226,1.02977,-0.78351
-651,-202,0.408813,0.748901,-0.0276575,0.00722686,0.00105174,0.00725854,-0.0276892,1.54068,0.0212954,0.0435541,573,1226,0.408799,-0.748921
-644,-202,0.0910034,0.515381,-0.0204554,0.00517469,0.000724541,0.00519516,-0.0204759,1.54256,0.015672,0.0410733,580,1226,0.0910211,-0.515416
-637,-202,-0.0189209,0.0533447,-0.0145808,0.00370043,0.000484636,0.00371327,-0.0145937,1.54431,0.0111745,0.0319788,587,1226,-0.0189018,-0.0533709
-630,-202,-0.0186157,0.0714111,-0.00986665,0.00246698,0.000316925,0.00247511,-0.00987479,1.54512,0.0075448,0.0134502,594,1226,-0.0186432,-0.0714035
-623,-202,-0.0305786,0.0718994,-0.00645168,0.00158443,0.000146606,0.0015871,-0.00645436,1.55256,0.00491805,0.00743702,601,1226,-0.0305945,-0.0719359
-616,-202,-0.0405884,0.0604248,-0.00407458,0.00108556,6.35206e-06,0.00108557,-0.00407459,1.56957,0.00314141,0.00749367,608,1226,-0.0405775,-0.0604055
-609,-202,-0.0407715,0.069458,-0.0014473,0.000756147,-0.000333149,0.000805416,-0.00149656,-1.42397,0.00134887,0.0192734,615,1226,-0.0407787,-0.0694758
-602,-202,-0.0621338,0.0343018,9.03237e-05,0.00042174,-0.00021874,0.000530452,-1.83881e-05,-1.10956,0.00035992,0.0194694,622,1226,-0.0621372,-0.0343051
-595,-202,-0.0463257,0.0791016,0.000798574,0.000174801,-0.000184822,0.000849223,0.000124151,-0.267478,0.000529638,0.0140325,629,1226,-0.0463556,-0.0790588
-588,-202,-0.0320435,0.0621338,0.00080699,-9.68975e-05,-0.000138609,0.000827768,-0.000117675,-0.148794,0.000594962,0.00714734,636,1226,-0.0320232,-0.0621909
-581,-202,-0.0318604,0.0479736,0.000630064,-0.000598785,0.000113657,0.000640488,-0.000609209,0.0914568,0.000721588,0.00775909,643,1226,-0.0318324,-0.0479947
-574,-202,-0.0221558,0.0469971,0.000423039,-0.00089451,0.000390082,0.000529867,-0.00100134,0.267307,0.000897903,0.00985248,650,1226,-0.0221745,-0.0469912
-567,-202,0.0170898,0.0975342,0.000122948,-0.000948635,0.00069819,0.000467237,-0.00129292,0.458125,0.00105284,0.027011,657,1226,0.0170841,-0.0975683
-560,-202,1.18488,-1.24854,0,0,0,0,0,0,0,-1,664,1226,1.18486,1.24849
-553,-202,0.819702,-0.783569,-0.000583654,-0.00105711,0.00122118,0.000423531,-0.00206429,0.68966,0.00153695,0.0424187,671,1226,0.819683,0.783628
-546,-202,0.130676,0.085083,-0.000927732,-0.000993248,0.00142924,0.000469124,-0.0023901,0.77394,0.00177062,0.0420553,678,1226,0.130695,-0.0850447
-539,-202,0.0402222,0.0576172,-0.00120628,-0.000805229,0.00154463,0.000551835,-0.00256335,0.849948,0.00191947,0.0356906,685,1226,0.0401931,-0.0575733
-532,-202,-0.0341187,0.0415039,-0.00123882,-0.000445974,0.00146256,0.000672936,-0.00235773,0.917742,0.00183767,0.0262916,692,1226,-0.0341292,-0.0415414
-525,-202,0.0183105,0.00427246,-0.00090784,0.000119681,0.00109686,0.000817141,-0.0016053,1.00442,0.00142306,0.0331138,699,1226,0.0183211,-0.00424931
-518,-202,0.125305,0.083252,-6.70581e-05,0.000900225,0.000348731,0.00101284,-0.000179674,1.25844,0.000742401,0.0386669,706,1226,0.125333,-0.0832472
-511,-202,0.0665894,0.0219727,0.0022253,0.00190978,-0.00133331,0.00341015,0.000724926,-0.726512,0.00207445,0.0403689,713,1226,0.0665963,-0.0219488
-504,-202,0,0,0,0,0,0,0,0,0,-1,720,1226,0,0
-497,-202,0,0,0,0,0,0,0,0,0,-1,727,1226,0,0
-490,-202,0,0,0,0,0,0,0,0,0,-1,734,1226,0,0
-483,-202,0,0,0,0,0,0,0,0,0,-1,741,1226,0,0
-476,-202,0,0,0,0,0,0,0,0,0,-1,748,1226,0,0
-469,-202,0,0,0,0,0,0,0,0,0,-1,755,1226,0,0
-462,-202,0,0,0,0,0,0,0,0,0,-1,762,1226,0,0
-455,-202,0,0,0,0,0,0,0,0,0,-1,769,1226,0,0
-448,-202,0,0,0,0,0,0,0,0,0,-1,776,1226,0,0
-441,-202,0,0,0,0,0,0,0,0,0,-1,783,1226,0,0
-434,-202,0,0,0,0,0,0,0,0,0,-1,790,1226,0,0
-427,-202,0,0,0,0,0,0,0,0,0,-1,797,1226,0,0
-420,-202,0,0,0,0,0,0,0,0,0,-1,804,1226,0,0
-413,-202,0,0,0,0,0,0,0,0,0,-1,811,1226,0,0
-406,-202,0,0,0,0,0,0,0,0,0,-1,818,1226,0,0
-399,-202,0,0,0,0,0,0,0,0,0,-1,825,1226,0,0
-392,-202,0,0,0,0,0,0,0,0,0,-1,832,1226,0,0
-385,-202,0,0,0,0,0,0,0,0,0,-1,839,1226,0,0
-378,-202,0,0,0,0,0,0,0,0,0,-1,846,1226,0,0
-371,-202,0,0,0,0,0,0,0,0,0,-1,853,1226,0,0
-364,-202,0,0,0,0,0,0,0,0,0,-1,860,1226,0,0
-357,-202,0,0,0,0,0,0,0,0,0,-1,867,1226,0,0
-350,-202,0,0,0,0,0,0,0,0,0,-1,874,1226,0,0
-343,-202,0,0,0,0,0,0,0,0,0,-1,881,1226,0,0
-336,-202,0,0,0,0,0,0,0,0,0,-1,888,1226,0,0
-329,-202,0,0,0,0,0,0,0,0,0,-1,895,1226,0,0
-322,-202,0,0,0,0,0,0,0,0,0,-1,902,1226,0,0
-315,-202,0,0,0,0,0,0,0,0,0,-1,909,1226,0,0
-308,-202,0,0,0,0,0,0,0,0,0,-1,916,1226,0,0
-301,-202,0,0,0,0,0,0,0,0,0,-1,923,1226,0,0
-294,-202,0,0,0,0,0,0,0,0,0,-1,930,1226,0,0
-287,-202,0,0,0,0,0,0,0,0,0,-1,937,1226,0,0
-280,-202,0,0,0,0,0,0,0,0,0,-1,944,1226,0,0
-273,-202,0,0,0,0,0,0,0,0,0,-1,951,1226,0,0
-266,-202,0,0,0,0,0,0,0,0,0,-1,958,1226,0,0
-259,-202,0,0,0,0,0,0,0,0,0,-1,965,1226,0,0
-252,-202,0,0,0,0,0,0,0,0,0,-1,972,1226,0,0
-245,-202,0,0,0,0,0,0,0,0,0,-1,979,1226,0,0
-238,-202,0,0,0,0,0,0,0,0,0,-1,986,1226,0,0
-231,-202,0,0,0,0,0,0,0,0,0,-1,993,1226,0,0
-224,-202,0,0,0,0,0,0,0,0,0,-1,1000,1226,0,0
-217,-202,0,0,0,0,0,0,0,0,0,-1,1007,1226,0,0
-210,-202,0,0,0,0,0,0,0,0,0,-1,1014,1226,0,0
-203,-202,0,0,0,0,0,0,0,0,0,-1,1021,1226,0,0
-196,-202,0,0,0,0,0,0,0,0,0,-1,1028,1226,0,0
-189,-202,0,0,0,0,0,0,0,0,0,-1,1035,1226,0,0
-182,-202,0,0,0,0,0,0,0,0,0,-1,1042,1226,0,0
-175,-202,0,0,0,0,0,0,0,0,0,-1,1049,1226,0,0
-168,-202,0,0,0,0,0,0,0,0,0,-1,1056,1226,0,0
-161,-202,0,0,0,0,0,0,0,0,0,-1,1063,1226,0,0
-154,-202,0,0,0,0,0,0,0,0,0,-1,1070,1226,0,0
-147,-202,0,0,0,0,0,0,0,0,0,-1,1077,1226,0,0
-140,-202,0,0,0,0,0,0,0,0,0,-1,1084,1226,0,0
-133,-202,0,0,0,0,0,0,0,0,0,-1,1091,1226,0,0
-126,-202,0,0,0,0,0,0,0,0,0,-1,1098,1226,0,0
-119,-202,0,0,0,0,0,0,0,0,0,-1,1105,1226,0,0
-112,-202,0,0,0,0,0,0,0,0,0,-1,1112,1226,0,0
-105,-202,0,0,0,0,0,0,0,0,0,-1,1119,1226,0,0
-98,-202,0,0,0,0,0,0,0,0,0,-1,1126,1226,0,0
-91,-202,0,0,0,0,0,0,0,0,0,-1,1133,1226,0,0
-84,-202,0,0,0,0,0,0,0,0,0,-1,1140,1226,0,0
-77,-202,0,0,0,0,0,0,0,0,0,-1,1147,1226,0,0
-70,-202,0,0,0,0,0,0,0,0,0,-1,1154,1226,0,0
-63,-202,0,0,0,0,0,0,0,0,0,-1,1161,1226,0,0
-56,-202,0,0,0,0,0,0,0,0,0,-1,1168,1226,0,0
-49,-202,0,0,0,0,0,0,0,0,0,-1,1175,1226,0,0
-42,-202,0,0,0,0,0,0,0,0,0,-1,1182,1226,0,0
-35,-202,0,0,0,0,0,0,0,0,0,-1,1189,1226,0,0
-28,-202,0,0,0,0,0,0,0,0,0,-1,1196,1226,0,0
-21,-202,0,0,0,0,0,0,0,0,0,-1,1203,1226,0,0
-14,-202,0,0,0,0,0,0,0,0,0,-1,1210,1226,0,0
-7,-202,0,0,0,0,0,0,0,0,0,-1,1217,1226,0,0
0,-202,0,0,0,0,0,0,0,0,0,-1,1224,1226,0,0
7,-202,0,0,0,0,0,0,0,0,0,-1,1231,1226,0,0
14,-202,0,0,0,0,0,0,0,0,0,-1,1238,1226,0,0
21,-202,0,0,0,0,0,0,0,0,0,-1,1245,1226,0,0
28,-202,0,0,0,0,0,0,0,0,0,-1,1252,1226,0,0
35,-202,0,0,0,0,0,0,0,0,0,-1,1259,1226,0,0
42,-202,0,0,0,0,0,0,0,0,0,-1,1266,1226,0,0
49,-202,0,0,0,0,0,0,0,0,0,-1,1273,1226,0,0
56,-202,0,0,0,0,0,0,0,0,0,-1,1280,1226,0,0
63,-202,0,0,0,0,0,0,0,0,0,-1,1287,1226,0,0
70,-202,0,0,0,0,0,0,0,0,0,-1,1294,1226,0,0
77,-202,0,0,0,0,0,0,0,0,0,-1,1301,1226,0,0
84,-202,0,0,0,0,0,0,0,0,0,-1,1308,1226,0,0
91,-202,0,0,0,0,0,0,0,0,0,-1,1315,1226,0,0
98,-202,0,0,0,0,0,0,0,0,0,-1,1322,1226,0,0
105,-202,0,0,0,0,0,0,0,0,0,-1,1329,1226,0,0
112,-202,0,0,0,0,0,0,0,0,0,-1,1336,1226,0,0
119,-202,0,0,0,0,0,0,0,0,0,-1,1343,1226,0,0
126,-202,0,0,0,0,0,0,0,0,0,-1,1350,1226,0,0
133,-202,0,0,0,0,0,0,0,0,0,-1,1357,1226,0,0
140,-202,0,0,0,0,0,0,0,0,0,-1,1364,1226,0,0
147,-202,0,0,0,0,0,0,0,0,0,-1,1371,1226,0,0
154,-202,0,0,0,0,0,0,0,0,0,-1,1378,1226,0,0
161,-202,0,0,0,0,0,0,0,0,0,-1,1385,1226,0,0
168,-202,0,0,0,0,0,0,0,0,0,-1,1392,1226,0,0
175,-202,0,0,0,0,0,0,0,0,0,-1,1399,1226,0,0
182,-202,0,0,0,0,0,0,0,0,0,-1,1406,1226,0,0
189,-202,0,0,0,0,0,0,0,0,0,-1,1413,1226,0,0
196,-202,0,0,0,0,0,0,0,0,0,-1,1420,1226,0,0
203,-202,0,0,0,0,0,0,0,0,0,-1,1427,1226,0,0
210,-202,0,0,0,0,0,0,0,0,0,-1,1434,1226,0,0
217,-202,0,0,0,0,0,0,0,0,0,-1,1441,1226,0,0
224,-202,0,0,0,0,0,0,0,0,0,-1,1448,1226,0,0
231,-202,0,0,0,0,0,0,0,0,0,-1,1455,1226,0,0
238,-202,0,0,0,0,0,0,0,0,0,-1,1462,1226,0,0
245,-202,0,0,0,0,0,0,0,0,0,-1,1469,1226,0,0
252,-202,0,0,0,0,0,0,0,0,0,-1,1476,1226,0,0
259,-202,0,0,0,0,0,0,0,0,0,-1,1483,1226,0,0
266,-202,0,0,0,0,0,0,0,0,0,-1,1490,1226,0,0
273,-202,0,0,0,0,0,0,0,0,0,-1,1497,1226,0,0
280,-202,0,0,0,0,0,0,0,0,0,-1,1504,1226,0,0
287,-202,0,0,0,0,0,0,0,0,0,-1,1511,1226,0,0
294,-202,0,0,0,0,0,0,0,0,0,-1,1518,1226,0,0
301,-202,0,0,0,0,0,0,0,0,0,-1,1525,1226,0,0
308,-202,0,0,0,0,0,0,0,0,0,-1,1532,1226,0,0
315,-202,0,0,0,0,0,0,0,0,0,-1,1539,1226,0,0
322,-202,0,0,0,0,0,0,0,0,0,-1,1546,1226,0,0
329,-202,0,0,0,0,0,0,0,0,0,-1,1553,1226,0,0
336,-202,0,0,0,0,0,0,0,0,0,-1,1560,1226,0,0
343,-202,0,0,0,0,0,0,0,0,0,-1,1567,1226,0,0
350,-202,0,0,0,0,0,0,0,0,0,-1,1574,1226,0,0
357,-202,0,0,0,0,0,0,0,0,0,-1,1581,1226,0,0
364,-202,0,0,0,0,0,0,0,0,0,-1,1588,1226,0,0
371,-202,0,0,0,0,0,0,0,0,0,-1,1595,1226,0,0
378,-202,0,0,0,0,0,0,0,0,0,-1,1602,1226,0,0
385,-202,0,0,0,0,0,0,0,0,0,-1,1609,1226,0,0
392,-202,0,0,0,0,0,0,0,0,0,-1,1616,1226,0,0
399,-202,0,0,0,0,0,0,0,0,0,-1,1623,1226,0,0
406,-202,0,0,0,0,0,0,0,0,0,-1,1630,1226,0,0
413,-202,0,0,0,0,0,0,0,0,0,-1,1637,1226,0,0
420,-202,0,0,0,0,0,0,0,0,0,-1,1644,1226,0,0
427,-202,0,0,0,0,0,0,0,0,0,-1,1651,1226,0,0
434,-202,0,0,0,0,0,0,0,0,0,-1,1658,1226,0,0
441,-202,0,0,0,0,0,0,0,0,0,-1,1665,1226,0,0
448,-202,0,0,0,0,0,0,0,0,0,-1,1672,1226,0,0
455,-202,0,0,0,0,0,0,0,0,0,-1,1679,1226,0,0
462,-202,0,0,0,0,0,0,0,0,0,-1,1686,1226,0,0
469,-202,0,0,0,0,0,0,0,0,0,-1,1693,1226,0,0
476,-202,0,0,0,0,0,0,0,0,0,-1,1700,1226,0,0
483,-202,0,0,0,0,0,0,0,0,0,-1,1707,1226,0,0
490,-202,0,0,0,0,0,0,0,0,0,-1,1714,1226,0,0
497,-202,0,0,0,0,0,0,0,0,0,-1,1721,1226,0,0
504,-202,0,0,0,0,0,0,0,0,0,-1,1728,1226,0,0
511,-202,0,0,0,0,0,0,0,0,0,-1,1735,1226,0,0
518,-202,0,0,0,0,0,0,0,0,0,-1,1742,1226,0,0
525,-202,0,0,0,0,0,0,0,0,0,-1,1749,1226,0,0
532,-202,0,0,0,0,0,0,0,0,0,-1,1756,1226,0,0
539,-202,0,0,0,0,0,0,0,0,0,-1,1763,1226,0,0
546,-202,0,0,0,0,0,0,0,0,0,-1,1770,1226,0,0
553,-202,0,0,0,0,0,0,0,0,0,-1,1777,1226,0,0
560,-202,0,0,0,0,0,0,0,0,0,-1,1784,1226,0,0
567,-202,0,0,0,0,0,0,0,0,0,-1,1791,1226,0,0
574,-202,0,0,0,0,0,0,0,0,0,-1,1798,1226,0,0
581,-202,0,0,0,0,0,0,0,0,0,-1,1805,1226,0,0
588,-202,0,0,0,0,0,0,0,0,0,-1,1812,1226,0,0
595,-202,0,0,0,0,0,0,0,0,0,-1,1819,1226,0,0
602,-202,0,0,0,0,0,0,0,0,0,-1,1826,1226,0,0
609,-202,0,0,0,0,0,0,0,0,0,-1,1833,1226,0,0
616,-202,0,0,0,0,0,0,0,0,0,-1,1840,1226,0,0
623,-202,0,0,0,0,0,0,0,0,0,-1,1847,1226,0,0
630,-202,-0.0916748,0.244263,-0.00246285,0.00111303,-0.00249575,0.00239519,-0.00374501,-1.09622,0.00357348,0.0338079,1854,1226,-0.09167,-0.244299
637,-202,0.00146484,0.131714,-0.000344933,-0.00018246,-0.00118866,0.000927738,-0.00145513,-0.819517,0.00138694,0.0309165,1861,1226,0.00142787,-0.131671
644,-202,0.0518799,0.0877686,0.00179761,-0.000864235,-0.000116728,0.00180272,-0.000869344,-0.0437404,0.00157378,0.030413,1868,1226,0.0518671,-0.0877155
651,-202,0.0465088,0.0786133,0.00309207,-0.00122179,0.00067821,0.00319619,-0.00132591,0.152322,0.00268423,0.0253725,1875,1226,0.0465346,-0.07861
658,-202,-0.0142822,0.0635986,0.00375246,-0.00130971,0.00124894,0.00404383,-0.00160108,0.229193,0.00335927,0.0200745,1882,1226,-0.014332,-0.0635717
665,-202,-0.0374756,0.0477295,0.00398056,-0.00122965,0.00159635,0.00443076,-0.00167985,0.274882,0.00364518,0.0174161,1889,1226,-0.0374339,-0.047715
672,-202,0.026123,0.105835,0.00387176,-0.00109379,0.00175567,0.0044298,-0.00165183,0.307751,0.00363128,0.036435,1896,1226,0.0261668,-0.105785
679,-202,0.145996,0.454834,0.00351796,-0.000914778,0.00179385,0.00415294,-0.00154976,0.340212,0.00340488,0.0449461,1903,1226,0.146012,-0.454849
686,-202,0.173218,-0.132202,0,0,0,0,0,0,0,-1,1910,1226,0.173213,0.132256
693,-202,0.0528564,-0.03125,0.0022593,-0.00050131,0.00154404,0.00295005,-0.00119207,0.420665,0.0024622,0.0390089,1917,1226,0.0528531,0.0312327
700,-202,-0.0623779,0.0657959,0.0015774,-0.000334713,0.0012793,0.00221842,-0.000975732,0.464503,0.0018901,0.0148532,1924,1226,-0.0623332,-0.0657566
707,-202,-0.0679932,0.057373,0.000920516,-0.000193275,0.00103145,0.00153581,-0.000808564,0.537864,0.00137506,0.0139248,1931,1226,-0.0679421,-0.0573758
714,-202,-0.0539551,0.0664063,0.000223542,-9.44958e-05,0.000825297,0.000905001,-0.000775954,0.690224,0.000971453,0.0127816,1938,1226,-0.0539682,-0.0663893
721,-202,-0.0513916,0.0769043,-0.000373125,0.000249479,0.000820215,0.00081548,-0.000939126,0.966769,0.00101386,0.0108626,1945,1226,-0.0513749,-0.0768767
728,-202,-0.0571289,0.074707,-0.000374566,-4.6527e-05,0.000856241,0.000661263,-0.00108236,0.880031,0.00101642,0.00978847,1952,1226,-0.0571423,-0.0747325
735,-202,-0.0500488,0.0611572,2.97874e-05,-0.000345319,0.0010747,0.000933172,-0.0012487,0.699009,0.00126409,0.00955013,1959,1226,-0.0500981,-0.0611972
742,-202,-0.0385742,0.0566406,0.000638871,-0.000514338,0.00144331,0.00161649,-0.00149196,0.59536,0.00179514,0.00884843,1966,1226,-0.0386015,-0.0566262
749,-202,-0.0294189,0.0610352,0.00151594,-0.00101941,0.00192148,0.00255024,-0.00205371,0.493803,0.00266324,0.00860333,1973,1226,-0.0293938,-0.0610438
756,-202,-0.0400391,0.074585,0.00259671,-0.00160435,0.00239881,0.00368467,-0.00269232,0.425797,0.00369659,0.00943175,1980,1226,-0.0400676,-0.0745563
763,-202,-0.0534668,0.083252,0.00370975,-0.0023766,0.0029213,0.00488498,-0.00355183,0.382484,0.00489122,0.0141362,1987,1226,-0.0535015,-0.0832715
770,-202,-0.0944824,0.116211,0.00489772,-0.0034213,0.00335391,0.00608145,-0.00460503,0.339293,0.00618944,0.0360694,1994,1226,-0.0945369,-0.116167
777,-202,-0.0333252,0.265747,0.00610702,-0.00482397,0.00355727,0.00716271,-0.00587966,0.288489,0.00754215,0.0473764,2001,1226,-0.0333572,-0.265753
784,-202,0.120483,0.432983,0.00712985,-0.00669281,0.00333947,0.00789437,-0.00745732,0.225054,0.0088645,0.0448431,2008,1226,0.120535,-0.433042
791,-202,0.185669,0.471924,0.00758385,-0.0091692,0.00245389,0.00793589,-0.00952123,0.142488,0.0100927,0.0441444,2015,1226,0.185641,-0.471915
798,-202,0.172607,0.310303,0.00682589,-0.0124899,0.000487899,0.00683821,-0.0125022,0.0252377,0.0113247,0.0450935,2022,1226,0.172602,-0.310357
805,-202,0,0,0,0,0,0,0,0,0,-1,2029,1226,0,0
812,-202,0,0,0,0,0,0,0,0,0,-1,2036,1226,0,0
-700,-209,0,0,0,0,0,0,0,0,0,-1,524,1233,0,0
-693,-209,0,0,0,0,0,0,0,0,0,-1,531,1233,0,0
-686,-209,0,0,0,0,0,0,0,0,0,-1,538,1233,0,0
-679,-209,1.5047,3.23218,0,0,0,0,0,0,0,-1,545,1233,1.50472,-3.23213
-672,-209,1.27289,2.08264,0,0,0,0,0,0,0,-1,552,1233,1.27286,-2.08268
-665,-209,1.11041,1.0968,0,0,0,0,0,0,0,-1,559,1233,1.11038,-1.09675
-658,-209,1.05603,1.13586,0,0,0,0,0,0,0,-1,566,1233,1.05601,-1.13581
-651,-209,0.897888,0.327637,-0.0301561,0.00797415,0.00414547,0.00841963,-0.0306016,1.46374,0.0237113,0.0452839,573,1233,0.897911,-0.327638
-644,-209,0.229675,0.241699,-0.0224138,0.00605741,0.00303866,0.0063781,-0.0227345,1.46565,0.0176703,0.0435652,580,1233,0.229704,-0.241679
-637,-209,0.00933838,-0.00317383,-0.0160258,0.004589,0.00217168,0.00481529,-0.0162521,1.46697,0.0127467,0.0406229,587,1233,0.00932814,0.00322824
-630,-209,-0.00494385,0.0394287,-0.011024,0.00333821,0.00153085,0.00349956,-0.0111854,1.46578,0.00885698,0.0211586,594,1233,-0.00495483,-0.0394647
-623,-209,-0.0269165,0.0650635,-0.0072573,0.00241266,0.00101214,0.00251746,-0.0073621,1.46762,0.00592816,0.00992174,601,1233,-0.0269009,-0.0651155
-616,-209,-0.0283203,0.0687256,-0.00457061,0.00180442,0.000647793,0.00186958,-0.00463577,1.47055,0.0038674,0.0105698,608,1233,-0.028338,-0.0687518
-609,-209,-0.0281372,0.0463867,-0.00176863,0.00125316,0.000110584,0.00125721,-0.00177267,1.53427,0.00175772,0.0129273,615,1233,-0.0281494,-0.0463421
-602,-209,-0.0349121,0.0494385,-0.000126209,0.000679665,0.000117387,0.000696416,-0.00014296,1.42906,0.000518542,0.0147136,622,1233,-0.0349163,-0.0494022
-595,-209,-0.0307007,0.0479736,0.000683865,0.000296692,9.81749e-05,0.000707336,0.000273221,0.234671,0.000411887,0.0108052,629,1233,-0.0307254,-0.0479715
-588,-209,-0.0271606,0.0444336,0.000682153,-6.04207e-05,0.000184126,0.000725301,-0.000103569,0.230186,0.000521496,0.0115632,636,1233,-0.0271574,-0.0444262
-581,-209,-0.0250244,0.0413818,0.000458573,-0.000633262,0.000481949,0.000640874,-0.000815562,0.361622,0.000842887,0.00968337,643,1233,-0.0250211,-0.0414253
-574,-209,-0.0309448,0.0522461,0.000181554,-0.000967961,0.000791886,0.00058528,-0.00137169,0.471479,0.00115987,0.00880173,650,1233,-0.0309404,-0.0522011
-567,-209,0.000366211,0.0925293,-0.000209729,-0.000999253,0.001136,0.000598141,-0.00180712,0.618174,0.00144597,0.0206966,657,1233,0.000358547,-0.0924693
-560,-209,0.508362,-0.398315,-0.00067132,-0.00100612,0.00140821,0.000579407,-0.00225685,0.726238,0.00173035,0.0411582,664,1233,0.508377,0.398314
-553,-209,0.657288,-0.514038,-0.00101859,-0.00105574,0.00167269,0.000635624,-0.00270996,0.779845,0.0020516,0.0426436,671,1233,0.657265,0.514091
-546,-209,0.3526,-0.255859,-0.00135543,-0.000983179,0.00183795,0.000678043,-0.00301665,0.83586,0.00227111,0.0402742,678,1233,0.352571,0.255838
-539,-209,0.177368,-0.168457,-0.00161891,-0.0008426,0.00189732,0.00070586,-0.00316737,0.886296,0.00238199,0.0365255,685,1233,0.177357,0.168463
-532,-209,0.0316772,-0.034668,-0.00159378,-0.000571192,0.00172844,0.000719987,-0.00288496,0.929204,0.00220288,0.0274261,692,1233,0.031656,0.0346233
-525,-209,0.0202637,0.000732422,-0.0011514,-0.000205605,0.00126296,0.000670092,-0.0020271,0.964536,0.00162159,0.0314853,699,1233,0.0202528,-0.000684086
-518,-209,-0.0391235,0.0964355,-0.000151864,0.000221201,0.000429456,0.000502885,-0.000433549,0.990278,0.000541144,0.0416755,706,1233,-0.0391241,-0.0964588
-511,-209,-0.078125,-0.0759277,0.00212432,0.000638688,-0.00116158,0.00276029,2.71958e-06,-0.500923,0.00183929,0.0423354,713,1233,-0.0781313,0.0759093
-504,-209,0,0,0,0,0,0,0,0,0,-1,720,1233,0,0
-497,-209,0,0,0,0,0,0,0,0,0,-1,727,1233,0,0
-490,-209,0,0,0,0,0,0,0,0,0,-1,734,1233,0,0
-483,-209,0,0,0,0,0,0,0,0,0,-1,741,1233,0,0
-476,-209,0,0,0,0,0,0,0,0,0,-1,748,1233,0,0
-469,-209,0,0,0,0,0,0,0,0,0,-1,755,1233,0,0
-462,-209,0,0,0,0,0,0,0,0,0,-1,762,1233,0,0
-455,-209,0,0,0,0,0,0,0,0,0,-1,769,1233,0,0
-448,-209,0,0,0,0,0,0,0,0,0,-1,776,1233,0,0
-441,-209,0,0,0,0,0,0,0,0,0,-1,783,1233,0,0
-434,-209,0,0,0,0,0,0,0,0,0,-1,790,1233,0,0
-427,-209,0,0,0,0,0,0,0,0,0,-1,797,1233,0,0
-420,-209,0,0,0,0,0,0,0,0,0,-1,804,1233,0,0
-413,-209,0,0,0,0,0,0,0,0,0,-1,811,1233,0,0
-406,-209,0,0,0,0,0,0,0,0,0,-1,818,1233,0,0
-399,-209,0,0,0,0,0,0,0,0,0,-1,825,1233,0,0
-392,-209,0,0,0,0,0,0,0,0,0,-1,832,1233,0,0
-385,-209,0,0,0,0,0,0,0,0,0,-1,839,1233,0,0
-378,-209,0,0,0,0,0,0,0,0,0,-1,846,1233,0,0
-371,-209,0,0,0,0,0,0,0,0,0,-1,853,1233,0,0
-364,-209,0,0,0,0,0,0,0,0,0,-1,860,1233,0,0
-357,-209,0,0,0,0,0,0,0,0,0,-1,867,1233,0,0
-350,-209,0,0,0,0,0,0,0,0,0,-1,874,1233,0,0
-343,-209,0,0,0,0,0,0,0,0,0,-1,881,1233,0,0
-336,-209,0,0,0,0,0,0,0,0,0,-1,888,1233,0,0
-329,-209,0,0,0,0,0,0,0,0,0,-1,895,1233,0,0
-322,-209,0,0,0,0,0,0,0,0,0,-1,902,1233,0,0
-315,-209,0,0,0,0,0,0,0,0,0,-1,909,1233,0,0
-308,-209,0,0,0,0,0,0,0,0,0,-1,916,1233,0,0
-301,-209,0,0,0,0,0,0,0,0,0,-1,923,1233,0,0
-294,-209,0,0,0,0,0,0,0,0,0,-1,930,1233,0,0
-287,-209,0,0,0,0,0,0,0,0,0,-1,937,1233,0,0
-280,-209,0,0,0,0,0,0,0,0,0,-1,944,1233,0,0
-273,-209,0,0,0,0,0,0,0,0,0,-1,951,1233,0,0
-266,-209,0,0,0,0,0,0,0,0,0,-1,958,1233,0,0
-259,-209,0,0,0,0,0,0,0,0,0,-1,965,1233,0,0
-252,-209,0,0,0,0,0,0,0,0,0,-1,972,1233,0,0
-245,-209,0,0,0,0,0,0,0,0,0,-1,979,1233,0,0
-238,-209,0,0,0,0,0,0,0,0,0,-1,986,1233,0,0
-231,-209,0,0,0,0,0,0,0,0,0,-1,993,1233,0,0
-224,-209,0,0,0,0,0,0,0,0,0,-1,1000,1233,0,0
-217,-209,0,0,0,0,0,0,0,0,0,-1,1007,1233,0,0
-210,-209,0,0,0,0,0,0,0,0,0,-1,1014,1233,0,0
-203,-209,0,0,0,0,0,0,0,0,0,-1,1021,1233,0,0
-196,-209,0,0,0,0,0,0,0,0,0,-1,1028,1233,0,0
-189,-209,0,0,0,0,0,0,0,0,0,-1,1035,1233,0,0
-182,-209,0,0,0,0,0,0,0,0,0,-1,1042,1233,0,0
-175,-209,0,0,0,0,0,0,0,0,0,-1,1049,1233,0,0
-168,-209,0,0,0,0,0,0,0,0,0,-1,1056,1233,0,0
-161,-209,0,0,0,0,0,0,0,0,0,-1,1063,1233,0,0
-154,-209,0,0,0,0,0,0,0,0,0,-1,1070,1233,0,0
-147,-209,0,0,0,0,0,0,0,0,0,-1,1077,1233,0,0
-140,-209,0,0,0,0,0,0,0,0,0,-1,1084,1233,0,0
-133,-209,0,0,0,0,0,0,0,0,0,-1,1091,1233,0,0
-126,-209,0,0,0,0,0,0,0,0,0,-1,1098,1233,0,0
-119,-209,0,0,0,0,0,0,0,0,0,-1,1105,1233,0,0
-112,-209,0,0,0,0,0,0,0,0,0,-1,1112,1233,0,0
-105,-209,0,0,0,0,0,0,0,0,0,-1,1119,1233,0,0
-98,-209,0,0,0,0,0,0,0,0,0,-1,1126,1233,0,0
-91,-209,0,0,0,0,0,0,0,0,0,-1,1133,1233,0,0
-84,-209,0,0,0,0,0,0,0,0,0,-1,1140,1233,0,0
-77,-209,0,0,0,0,0,0,0,0,0,-1,1147,1233,0,0
-70,-209,0,0,0,0,0,0,0,0,0,-1,1154,1233,0,0
-63,-209,0,0,0,0,0,0,0,0,0,-1,1161,1233,0,0
-56,-209,0,0,0,0,0,0,0,0,0,-1,1168,1233,0,0
-49,-209,0,0,0,0,0,0,0,0,0,-1,1175,1233,0,0
-42,-209,0,0,0,0,0,0,0,0,0,-1,1182,1233,0,0
-35,-209,0,0,0,0,0,0,0,0,0,-1,1189,1233,0,0
-28,-209,0,0,0,0,0,0,0,0,0,-1,1196,1233,0,0
-21,-209,0,0,0,0,0,0,0,0,0,-1,1203,1233,0,0
-14,-209,0,0,0,0,0,0,0,0,0,-1,1210,1233,0,0
-7,-209,0,0,0,0,0,0,0,0,0,-1,1217,1233,0,0
0,-209,0,0,0,0,0,0,0,0,0,-1,1224,1233,0,0
7,-209,0,0,0,0,0,0,0,0,0,-1,1231,1233,0,0
14,-209,0,0,0,0,0,0,0,0,0,-1,1238,1233,0,0
21,-209,0,0,0,0,0,0,0,0,0,-1,1245,1233,0,0
28,-209,0,0,0,0,0,0,0,0,0,-1,1252,1233,0,0
35,-209,0,0,0,0,0,0,0,0,0,-1,1259,1233,0,0
42,-209,0,0,0,0,0,0,0,0,0,-1,1266,1233,0,0
49,-209,0,0,0,0,0,0,0,0,0,-1,1273,1233,0,0
56,-209,0,0,0,0,0,0,0,0,0,-1,1280,1233,0,0
63,-209,0,0,0,0,0,0,0,0,0,-1,1287,1233,0,0
70,-209,0,0,0,0,0,0,0,0,0,-1,1294,1233,0,0
77,-209,0,0,0,0,0,0,0,0,0,-1,1301,1233,0,0
84,-209,0,0,0,0,0,0,0,0,0,-1,1308,1233,0,0
91,-209,0,0,0,0,0,0,0,0,0,-1,1315,1233,0,0
98,-209,0,0,0,0,0,0,0,0,0,-1,1322,1233,0,0
105,-209,0,0,0,0,0,0,0,0,0,-1,1329,1233,0,0
112,-209,0,0,0,0,0,0,0,0,0,-1,1336,1233,0,0
119,-209,0,0,0,0,0,0,0,0,0,-1,1343,1233,0,0
126,-209,0,0,0,0,0,0,0,0,0,-1,1350,1233,0,0
133,-209,0,0,0,0,0,0,0,0,0,-1,1357,1233,0,0
140,-209,0,0,0,0,0,0,0,0,0,-1,1364,1233,0,0
147,-209,0,0,0,0,0,0,0,0,0,-1,1371,1233,0,0
154,-209,0,0,0,0,0,0,0,0,0,-1,1378,1233,0,0
161,-209,0,0,0,0,0,0,0,0,0,-1,1385,1233,0,0
168,-209,0,0,0,0,0,0,0,0,0,-1,1392,1233,0,0
175,-209,0,0,0,0,0,0,0,0,0,-1,1399,1233,0,0
182,-209,0,0,0,0,0,0,0,0,0,-1,1406,1233,0,0
189,-209,0,0,0,0,0,0,0,0,0,-1,1413,1233,0,0
196,-209,0,0,0,0,0,0,0,0,0,-1,1420,1233,0,0
203,-209,0,0,0,0,0,0,0,0,0,-1,1427,1233,0,0
210,-209,0,0,0,0,0,0,0,0,0,-1,1434,1233,0,0
217,-209,0,0,0,0,0,0,0,0,0,-1,1441,1233,0,0
224,-209,0,0,0,0,0,0,0,0,0,-1,1448,1233,0,0
231,-209,0,0,0,0,0,0,0,0,0,-1,1455,1233,0,0
238,-209,0,0,0,0,0,0,0,0,0,-1,1462,1233,0,0
245,-209,0,0,0,0,0,0,0,0,0,-1,1469,1233,0,0
252,-209,0,0,0,0,0,0,0,0,0,-1,1476,1233,0,0
259,-209,0,0,0,0,0,0,0,0,0,-1,1483,1233,0,0
266,-209,0,0,0,0,0,0,0,0,0,-1,1490,1233,0,0
273,-209,0,0,0,0,0,0,0,0,0,-1,1497,1233,0,0
280,-209,0,0,0,0,0,0,0,0,0,-1,1504,1233,0,0
287,-209,0,0,0,0,0,0,0,0,0,-1,1511,1233,0,0
294,-209,0,0,0,0,0,0,0,0,0,-1,1518,1233,0,0
301,-209,0,0,0,0,0,0,0,0,0,-1,1525,1233,0,0
308,-209,0,0,0,0,0,0,0,0,0,-1,1532,1233,0,0
315,-209,0,0,0,0,0,0,0,0,0,-1,1539,1233,0,0
322,-209,0,0,0,0,0,0,0,0,0,-1,1546,1233,0,0
329,-209,0,0,0,0,0,0,0,0,0,-1,1553,1233,0,0
336,-209,0,0,0,0,0,0,0,0,0,-1,1560,1233,0,0
343,-209,0,0,0,0,0,0,0,0,0,-1,1567,1233,0,0
350,-209,0,0,0,0,0,0,0,0,0,-1,1574,1233,0,0
357,-209,0,0,0,0,0,0,0,0,0,-1,1581,1233,0,0
364,-209,0,0,0,0,0,0,0,0,0,-1,1588,1233,0,0
371,-209,0,0,0,0,0,0,0,0,0,-1,1595,1233,0,0
378,-209,0,0,0,0,0,0,0,0,0,-1,1602,1233,0,0
385,-209,0,0,0,0,0,0,0,0,0,-1,1609,1233,0,0
392,-209,0,0,0,0,0,0,0,0,0,-1,1616,1233,0,0
399,-209,0,0,0,0,0,0,0,0,0,-1,1623,1233,0,0
406,-209,0,0,0,0,0,0,0,0,0,-1,1630,1233,0,0
413,-209,0,0,0,0,0,0,0,0,0,-1,1637,1233,0,0
420,-209,0,0,0,0,0,0,0,0,0,-1,1644,1233,0,0
427,-209,0,0,0,0,0,0,0,0,0,-1,1651,1233,0,0
434,-209,0,0,0,0,0,0,0,0,0,-1,1658,1233,0,0
441,-209,0,0,0,0,0,0,0,0,0,-1,1665,1233,0,0
448,-209,0,0,0,0,0,0,0,0,0,-1,1672,1233,0,0
455,-209,0,0,0,0,0,0,0,0,0,-1,1679,1233,0,0
462,-209,0,0,0,0,0,0,0,0,0,-1,1686,1233,0,0
469,-209,0,0,0,0,0,0,0,0,0,-1,1693,1233,0,0
476,-209,0,0,0,0,0,0,0,0,0,-1,1700,1233,0,0
483,-209,0,0,0,0,0,0,0,0,0,-1,1707,1233,0,0
490,-209,0,0,0,0,0,0,0,0,0,-1,1714,1233,0,0
497,-209,0,0,0,0,0,0,0,0,0,-1,1721,1233,0,0
504,-209,0,0,0,0,0,0,0,0,0,-1,1728,1233,0,0
511,-209,0,0,0,0,0,0,0,0,0,-1,1735,1233,0,0
518,-209,0,0,0,0,0,0,0,0,0,-1,1742,1233,0,0
525,-209,0,0,0,0,0,0,0,0,0,-1,1749,1233,0,0
532,-209,0,0,0,0,0,0,0,0,0,-1,1756,1233,0,0
539,-209,0,0,0,0,0,0,0,0,0,-1,1763,1233,0,0
546,-209,0,0,0,0,0,0,0,0,0,-1,1770,1233,0,0
553,-209,0,0,0,0,0,0,0,0,0,-1,1777,1233,0,0
560,-209,0,0,0,0,0,0,0,0,0,-1,1784,1233,0,0
567,-209,0,0,0,0,0,0,0,0,0,-1,1791,1233,0,0
574,-209,0,0,0,0,0,0,0,0,0,-1,1798,1233,0,0
581,-209,0,0,0,0,0,0,0,0,0,-1,1805,1233,0,0
588,-209,0,0,0,0,0,0,0,0,0,-1,1812,1233,0,0
595,-209,0,0,0,0,0,0,0,0,0,-1,1819,1233,0,0
602,-209,0,0,0,0,0,0,0,0,0,-1,1826,1233,0,0
609,-209,0,0,0,0,0,0,0,0,0,-1,1833,1233,0,0
616,-209,0,0,0,0,0,0,0,0,0,-1,1840,1233,0,0
623,-209,-0.0561523,0.120483,-0.00281904,0.00392271,-0.00210109,0.00452391,-0.00342024,-1.29211,0.00460129,0.0324046,1847,1233,-0.0561074,-0.120542
630,-209,-0.0776367,0.0438232,-0.00169903,0.000860363,-0.00173456,0.0017362,-0.00257486,-1.10321,0.00250464,0.0334456,1854,1233,-0.0776145,-0.043877
637,-209,-0.0576172,-0.00585938,0.000247333,-0.000734438,-0.000740107,0.000644551,-0.00113166,-0.492577,0.00103827,0.0318782,1861,1233,-0.0575721,0.00589558
644,-209,0.0255127,0.0406494,0.00211915,-0.00148962,9.76598e-05,0.00212179,-0.00149226,0.0270354,0.0020971,0.0279752,1868,1233,0.0255577,-0.0406205
651,-209,0.0617676,0.06604,0.00328529,-0.00177145,0.000749581,0.00339407,-0.00188022,0.144107,0.00308664,0.0234458,1875,1233,0.0617913,-0.0660009
658,-209,-0.00378418,0.0523682,0.00393866,-0.00172404,0.0012304,0.00419445,-0.00197982,0.204971,0.00364035,0.0191162,1882,1233,-0.00378927,-0.052319
665,-209,-0.000732422,0.0771484,0.00420314,-0.00148974,0.00153307,0.00458974,-0.00187633,0.247021,0.00384119,0.0301517,1889,1233,-0.000756916,-0.0771099
672,-209,0.307373,0.331421,0.00415405,-0.00122145,0.00168237,0.00463716,-0.00170456,0.279638,0.00378964,0.0451901,1896,1233,0.30734,-0.331447
679,-209,0.274414,0.592651,0.00384374,-0.000927124,0.0017303,0.00440521,-0.00148859,0.313772,0.00353895,0.0489616,1903,1233,0.27439,-0.592672
686,-209,-0.0720215,-0.665161,0,0,0,0,0,0,0,-1,1910,1233,-0.0719981,0.665112
693,-209,-0.0585938,-0.27063,0.00259104,-0.000335174,0.00154244,0.00325391,-0.000998047,0.405893,0.00256745,0.0375936,1917,1233,-0.0585793,0.270641
700,-209,-0.0509033,0.0616455,0.00192413,-0.000103407,0.00131121,0.00256777,-0.000747042,0.456319,0.00200773,0.0141874,1924,1233,-0.0509457,-0.0615959
707,-209,-0.0621338,0.0495605,0.00122839,6.63407e-05,0.00109444,0.00188648,-0.000591745,0.541373,0.00149448,0.0133633,1931,1233,-0.0620945,-0.0495626
714,-209,-0.0664063,0.0678711,0.00038116,0.000166344,0.000921742,0.00120173,-0.000654227,0.727396,0.00108697,0.0117315,1938,1233,-0.0664451,-0.0678267
721,-209,-0.0655518,0.083374,-0.000375294,0.000500798,0.00101265,0.00116609,-0.00104058,0.989531,0.00127471,0.0117761,1945,1233,-0.0655998,-0.0833344
728,-209,-0.0488281,0.0601807,-0.000523086,0.000119877,0.00109588,0.000940459,-0.00134367,0.928072,0.00132557,0.0114848,1952,1233,-0.0488464,-0.0601715
735,-209,-0.03125,0.05896,-0.000209188,-0.000230329,0.00133323,0.00111352,-0.00155303,0.781434,0.00154649,0.0118962,1959,1233,-0.0312188,-0.0590149
742,-209,-0.0321045,0.0673828,0.000340767,-0.000348062,0.00173105,0.00176133,-0.00176862,0.687199,0.00203802,0.00975286,1966,1233,-0.0321488,-0.0673321
749,-209,-0.0273438,0.0651855,0.00117585,-0.000792847,0.00226399,0.00266023,-0.00227722,0.580334,0.0028535,0.00808311,1973,1233,-0.0274038,-0.0651828
756,-209,-0.0438232,0.067627,0.00223107,-0.00126903,0.00280755,0.00378935,-0.0028273,0.506697,0.00383356,0.00901469,1980,1233,-0.0438137,-0.0676176
763,-209,-0.0777588,0.0600586,0.00342448,-0.00191038,0.00338063,0.00506331,-0.00354921,0.451389,0.00499798,0.0152136,1987,1233,-0.0777071,-0.0600718
770,-209,-0.0712891,0.0839844,0.00484201,-0.00277941,0.00384206,0.00644267,-0.00438007,0.394747,0.00628622,0.0385806,1994,1233,-0.07123,-0.0839725
777,-209,0.0258789,0.265503,0.00644526,-0.00394084,0.00403762,0.00783022,-0.00532579,0.330437,0.00764136,0.0466747,2001,1233,0.0259377,-0.265544
784,-209,0.0402832,0.463745,0,0,0,0,0,0,0,-1,2008,1233,0.0403254,-0.463738
791,-209,0.069458,0.635376,0.00942281,-0.00749863,0.00274701,0.00985759,-0.0079334,0.15697,0.0102916,0.0424646,2015,1233,0.069517,-0.635349
798,-209,0.0117188,0.534912,0.00990992,-0.0101969,0.000576604,0.00992644,-0.0102134,0.0286457,0.0116281,0.0451104,2022,1233,0.0117199,-0.534912
805,-209,0,0,0,0,0,0,0,0,0,-1,2029,1233,0,0
812,-209,0,0,0,0,0,0,0,0,0,-1,2036,1233,0,0
-700,-216,0,0,0,0,0,0,0,0,0,-1,524,1240,0,0
-693,-216,0,0,0,0,0,0,0,0,0,-1,531,1240,0,0
-686,-216,0,0,0,0,0,0,0,0,0,-1,538,1240,0,0
-679,-216,-0.386475,-1.3811,0,0,0,0,0,0,0,-1,545,1240,-0.386466,1.38113
-672,-216,1.67206,2.28503,0,0,0,0,0,0,0,-1,552,1240,1.67204,-2.28497
-665,-216,-0.671326,-1.54822,0,0,0,0,0,0,0,-1,559,1240,-0.671354,1.54817
-658,-216,-2.43121,-0.621948,0,0,0,0,0,0,0,-1,566,1240,-2.43119,0.621953
-651,-216,1.00873,-0.0480957,0,0,0,0,0,0,0,-1,573,1240,1.00873,0.0480461
-644,-216,-0.0858154,0.000854492,-0.0246488,0.00781527,0.00671417,0.00914908,-0.0259826,1.37469,0.0210451,0.043198,580,1240,-0.0858363,-0.000874704
-637,-216,-0.403748,-0.0621338,-0.0175884,0.00617245,0.00483975,0.00712042,-0.0185364,1.37737,0.0152939,0.0386728,587,1240,-0.403744,0.0620915
-630,-216,-0.074646,0.0537109,-0.012086,0.00473092,0.00340146,0.00539286,-0.012748,1.37859,0.0107567,0.0277421,594,1240,-0.0746444,-0.05369
-623,-216,-0.0130005,0.0441895,-0.00799622,0.00356886,0.00231454,0.00401488,-0.00844223,1.38043,0.00734196,0.0124607,601,1240,-0.0129867,-0.0441456
-616,-216,-0.0302734,0.0653076,-0.00508632,0.0027041,0.00160387,0.00302138,-0.0054036,1.3755,0.00492855,0.0123843,608,1240,-0.0302624,-0.0653441
-609,-216,-0.0302734,0.0599365,-0.0021709,0.00183883,0.000776436,0.00198393,-0.002316,1.38605,0.00248503,0.0122483,615,1240,-0.0302532,-0.0598954
-602,-216,-0.0214844,0.0421143,-0.000439652,0.000990893,0.00058119,0.00119725,-0.000646006,1.22962,0.00107995,0.0121498,622,1240,-0.0214636,-0.0421408
-595,-216,-0.0322266,0.0354004,0.000456638,0.000433241,0.00044656,0.000891652,-1.77356e-06,0.772303,0.000595027,0.0157834,629,1240,-0.0322261,-0.0354117
-588,-216,-0.0214233,0.0545654,0.000425557,1.21217e-06,0.000544958,0.000798189,-0.00037142,0.599758,0.000690096,0.0163933,636,1240,-0.0214307,-0.0545405
-581,-216,-0.0216675,0.0570068,0.000165308,-0.000602856,0.000847337,0.000711548,-0.0011491,0.572609,0.0010841,0.0143726,643,1240,-0.0216616,-0.0569458
-574,-216,-0.039978,0.0603027,-0.00015362,-0.000854365,0.00114596,0.000694331,-0.00170232,0.637038,0.00142391,0.0111749,650,1240,-0.0399978,-0.0603278
-567,-216,-0.0363159,0.112671,-0.000605883,-0.000632968,0.00144078,0.000821422,-0.00206027,0.780699,0.00171423,0.0193474,657,1240,-0.0363379,-0.11268
-560,-216,0.0984497,0.0223389,-0.0011304,-0.000244217,0.00162596,0.000997942,-0.00237256,0.918424,0.00199918,0.0359364,664,1240,0.0984657,-0.0223962
-553,-216,0.244812,-0.0986328,-0.00148014,7.56966e-06,0.00179741,0.00120897,-0.00268154,0.981592,0.00229919,0.039563,671,1240,0.244817,0.0986028
-546,-216,0.291687,-0.210327,-0.00175378,0.000382236,0.00184843,0.00144902,-0.00282056,1.04736,0.00250708,0.0406773,678,1240,0.291691,0.210376
-539,-216,0.20752,-0.248291,-0.00192489,0.000828593,0.00177233,0.00169608,-0.00279238,1.11561,0.00261706,0.0414325,685,1240,0.207521,0.248231
-532,-216,0.0322266,-0.0946045,-0.00179017,0.00138223,0.00145801,0.00195052,-0.00235846,1.19914,0.0024915,0.0375655,692,1240,0.0322397,0.0946255
-525,-216,0.00897217,-0.0119629,-0.00119196,0.00184165,0.000876985,0.00207693,-0.00142724,1.30869,0.00203469,0.036688,699,1240,0.00894899,0.0119949
-518,-216,0.038269,-0.022583,-8.93769e-07,0.0020156,1.04989e-05,0.00201566,-9.48552e-07,1.56559,0.00134409,0.0403668,706,1240,0.0382423,0.0225387
-511,-216,0.0144043,-0.0706787,0.00231716,0.00158942,-0.00135164,0.00335305,0.000553532,-0.653911,0.00207561,0.0400163,713,1240,0.0143766,0.0706662
-504,-216,0.0759277,-0.0786133,0.00644138,-0.000261676,-0.00301081,0.00759516,-0.00141545,-0.365948,0.00559525,0.0367014,720,1240,0.0759192,0.0786574
-497,-216,0,0,0,0,0,0,0,0,0,-1,727,1240,0,0
-490,-216,0,0,0,0,0,0,0,0,0,-1,734,1240,0,0
-483,-216,0,0,0,0,0,0,0,0,0,-1,741,1240,0,0
-476,-216,0,0,0,0,0,0,0,0,0,-1,748,1240,0,0
-469,-216,0,0,0,0,0,0,0,0,0,-1,755,1240,0,0
-462,-216,0,0,0,0,0,0,0,0,0,-1,762,1240,0,0
-455,-216,0,0,0,0,0,0,0,0,0,-1,769,1240,0,0
-448,-216,0,0,0,0,0,0,0,0,0,-1,776,1240,0,0
-441,-216,0,0,0,0,0,0,0,0,0,-1,783,1240,0,0
-434,-216,0,0,0,0,0,0,0,0,0,-1,790,1240,0,0
-427,-216,0,0,0,0,0,0,0,0,0,-1,797,1240,0,0
-420,-216,0,0,0,0,0,0,0,0,0,-1,804,1240,0,0
-413,-216,0,0,0,0,0,0,0,0,0,-1,811,1240,0,0
-406,-216,0,0,0,0,0,0,0,0,0,-1,818,1240,0,0
-399,-216,0,0,0,0,0,0,0,0,0,-1,825,1240,0,0
-392,-216,0,0,0,0,0,0,0,0,0,-1,832,1240,0,0
-385,-216,0,0,0,0,0,0,0,0,0,-1,839,1240,0,0
-378,-216,0,0,0,0,0,0,0,0,0,-1,846,1240,0,0
-371,-216,0,0,0,0,0,0,0,0,0,-1,853,1240,0,0
-364,-216,0,0,0,0,0,0,0,0,0,-1,860,1240,0,0
-357,-216,0,0,0,0,0,0,0,0,0,-1,867,1240,0,0
-350,-216,0,0,0,0,0,0,0,0,0,-1,874,1240,0,0
-343,-216,0,0,0,0,0,0,0,0,0,-1,881,1240,0,0
-336,-216,0,0,0,0,0,0,0,0,0,-1,888,1240,0,0
-329,-216,0,0,0,0,0,0,0,0,0,-1,895,1240,0,0
-322,-216,0,0,0,0,0,0,0,0,0,-1,902,1240,0,0
-315,-216,0,0,0,0,0,0,0,0,0,-1,909,1240,0,0
-308,-216,0,0,0,0,0,0,0,0,0,-1,916,1240,0,0
-301,-216,0,0,0,0,0,0,0,0,0,-1,923,1240,0,0
-294,-216,0,0,0,0,0,0,0,0,0,-1,930,1240,0,0
-287,-216,0,0,0,0,0,0,0,0,0,-1,937,1240,0,0
-280,-216,0,0,0,0,0,0,0,0,0,-1,944,1240,0,0
-273,-216,0,0,0,0,0,0,0,0,0,-1,951,1240,0,0
-266,-216,0,0,0,0,0,0,0,0,0,-1,958,1240,0,0
-259,-216,0,0,0,0,0,0,0,0,0,-1,965,1240,0,0
-252,-216,0,0,0,0,0,0,0,0,0,-1,972,1240,0,0
-245,-216,0,0,0,0,0,0,0,0,0,-1,979,1240,0,0
-238,-216,0,0,0,0,0,0,0,0,0,-1,986,1240,0,0
-231,-216,0,0,0,0,0,0,0,0,0,-1,993,1240,0,0
-224,-216,0,0,0,0,0,0,0,0,0,-1,1000,1240,0,0
-217,-216,0,0,0,0,0,0,0,0,0,-1,1007,1240,0,0
-210,-216,0,0,0,0,0,0,0,0,0,-1,1014,1240,0,0
-203,-216,0,0,0,0,0,0,0,0,0,-1,1021,1240,0,0
-196,-216,0,0,0,0,0,0,0,0,0,-1,1028,1240,0,0
-189,-216,0,0,0,0,0,0,0,0,0,-1,1035,1240,0,0
-182,-216,0,0,0,0,0,0,0,0,0,-1,1042,1240,0,0
-175,-216,0,0,0,0,0,0,0,0,0,-1,1049,1240,0,0
-168,-216,0,0,0,0,0,0,0,0,0,-1,1056,1240,0,0
-161,-216,0,0,0,0,0,0,0,0,0,-1,1063,1240,0,0
-154,-216,0,0,0,0,0,0,0,0,0,-1,1070,1240,0,0
-147,-216,0,0,0,0,0,0,0,0,0,-1,1077,1240,0,0
-140,-216,0,0,0,0,0,0,0,0,0,-1,1084,1240,0,0
-133,-216,0,0,0,0,0,0,0,0,0,-1,1091,1240,0,0
-126,-216,0,0,0,0,0,0,0,0,0,-1,1098,1240,0,0
-119,-216,0,0,0,0,0,0,0,0,0,-1,1105,1240,0,0
-112,-216,0,0,0,0,0,0,0,0,0,-1,1112,1240,0,0
-105,-216,0,0,0,0,0,0,0,0,0,-1,1119,1240,0,0
-98,-216,0,0,0,0,0,0,0,0,0,-1,1126,1240,0,0
-91,-216,0,0,0,0,0,0,0,0,0,-1,1133,1240,0,0
-84,-216,0,0,0,0,0,0,0,0,0,-1,1140,1240,0,0
-77,-216,0,0,0,0,0,0,0,0,0,-1,1147,1240,0,0
-70,-216,0,0,0,0,0,0,0,0,0,-1,1154,1240,0,0
-63,-216,0,0,0,0,0,0,0,0,0,-1,1161,1240,0,0
-56,-216,0,0,0,0,0,0,0,0,0,-1,1168,1240,0,0
-49,-216,0,0,0,0,0,0,0,0,0,-1,1175,1240,0,0
-42,-216,0,0,0,0,0,0,0,0,0,-1,1182,1240,0,0
-35,-216,0,0,0,0,0,0,0,0,0,-1,1189,1240,0,0
-28,-216,0,0,0,0,0,0,0,0,0,-1,1196,1240,0,0
-21,-216,0,0,0,0,0,0,0,0,0,-1,1203,1240,0,0
-14,-216,0,0,0,0,0,0,0,0,0,-1,1210,1240,0,0
-7,-216,0,0,0,0,0,0,0,0,0,-1,1217,1240,0,0
0,-216,0,0,0,0,0,0,0,0,0,-1,1224,1240,0,0
7,-216,0,0,0,0,0,0,0,0,0,-1,1231,1240,0,0
14,-216,0,0,0,0,0,0,0,0,0,-1,1238,1240,0,0
21,-216,0,0,0,0,0,0,0,0,0,-1,1245,1240,0,0
28,-216,0,0,0,0,0,0,0,0,0,-1,1252,1240,0,0
35,-216,0,0,0,0,0,0,0,0,0,-1,1259,1240,0,0
42,-216,0,0,0,0,0,0,0,0,0,-1,1266,1240,0,0
49,-216,0,0,0,0,0,0,0,0,0,-1,1273,1240,0,0
56,-216,0,0,0,0,0,0,0,0,0,-1,1280,1240,0,0
63,-216,0,0,0,0,0,0,0,0,0,-1,1287,1240,0,0
70,-216,0,0,0,0,0,0,0,0,0,-1,1294,1240,0,0
77,-216,0,0,0,0,0,0,0,0,0,-1,1301,1240,0,0
84,-216,0,0,0,0,0,0,0,0,0,-1,1308,1240,0,0
91,-216,0,0,0,0,0,0,0,0,0,-1,1315,1240,0,0
98,-216,0,0,0,0,0,0,0,0,0,-1,1322,1240,0,0
105,-216,0,0,0,0,0,0,0,0,0,-1,1329,1240,0,0
112,-216,0,0,0,0,0,0,0,0,0,-1,1336,1240,0,0
119,-216,0,0,0,0,0,0,0,0,0,-1,1343,1240,0,0
126,-216,0,0,0,0,0,0,0,0,0,-1,1350,1240,0,0
133,-216,0,0,0,0,0,0,0,0,0,-1,1357,1240,0,0
140,-216,0,0,0,0,0,0,0,0,0,-1,1364,1240,0,0
147,-216,0,0,0,0,0,0,0,0,0,-1,1371,1240,0,0
154,-216,0,0,0,0,0,0,0,0,0,-1,1378,1240,0,0
161,-216,0,0,0,0,0,0,0,0,0,-1,1385,1240,0,0
168,-216,0,0,0,0,0,0,0,0,0,-1,1392,1240,0,0
175,-216,0,0,0,0,0,0,0,0,0,-1,1399,1240,0,0
182,-216,0,0,0,0,0,0,0,0,0,-1,1406,1240,0,0
189,-216,0,0,0,0,0,0,0,0,0,-1,1413,1240,0,0
196,-216,0,0,0,0,0,0,0,0,0,-1,1420,1240,0,0
203,-216,0,0,0,0,0,0,0,0,0,-1,1427,1240,0,0
210,-216,0,0,0,0,0,0,0,0,0,-1,1434,1240,0,0
217,-216,0,0,0,0,0,0,0,0,0,-1,1441,1240,0,0
224,-216,0,0,0,0,0,0,0,0,0,-1,1448,1240,0,0
231,-216,0,0,0,0,0,0,0,0,0,-1,1455,1240,0,0
238,-216,0,0,0,0,0,0,0,0,0,-1,1462,1240,0,0
245,-216,0,0,0,0,0,0,0,0,0,-1,1469,1240,0,0
252,-216,0,0,0,0,0,0,0,0,0,-1,1476,1240,0,0
259,-216,0,0,0,0,0,0,0,0,0,-1,1483,1240,0,0
266,-216,0,0,0,0,0,0,0,0,0,-1,1490,1240,0,0
273,-216,0,0,0,0,0,0,0,0,0,-1,1497,1240,0,0
280,-216,0,0,0,0,0,0,0,0,0,-1,1504,1240,0,0
287,-216,0,0,0,0,0,0,0,0,0,-1,1511,1240,0,0
294,-216,0,0,0,0,0,0,0,0,0,-1,1518,1240,0,0
301,-216,0,0,0,0,0,0,0,0,0,-1,1525,1240,0,0
308,-216,0,0,0,0,0,0,0,0,0,-1,1532,1240,0,0
315,-216,0,0,0,0,0,0,0,0,0,-1,1539,1240,0,0
322,-216,0,0,0,0,0,0,0,0,0,-1,1546,1240,0,0
329,-216,0,0,0,0,0,0,0,0,0,-1,1553,1240,0,0
336,-216,0,0,0,0,0,0,0,0,0,-1,1560,1240,0,0
343,-216,0,0,0,0,0,0,0,0,0,-1,1567,1240,0,0
350,-216,0,0,0,0,0,0,0,0,0,-1,1574,1240,0,0
357,-216,0,0,0,0,0,0,0,0,0,-1,1581,1240,0,0
364,-216,0,0,0,0,0,0,0,0,0,-1,1588,1240,0,0
371,-216,0,0,0,0,0,0,0,0,0,-1,1595,1240,0,0
378,-216,0,0,0,0,0,0,0,0,0,-1,1602,1240,0,0
385,-216,0,0,0,0,0,0,0,0,0,-1,1609,1240,0,0
392,-216,0,0,0,0,0,0,0,0,0,-1,1616,1240,0,0
399,-216,0,0,0,0,0,0,0,0,0,-1,1623,1240,0,0
406,-216,0,0,0,0,0,0,0,0,0,-1,1630,1240,0,0
413,-216,0,0,0,0,0,0,0,0,0,-1,1637,1240,0,0
420,-216,0,0,0,0,0,0,0,0,0,-1,1644,1240,0,0
427,-216,0,0,0,0,0,0,0,0,0,-1,1651,1240,0,0
434,-216,0,0,0,0,0,0,0,0,0,-1,1658,1240,0,0
441,-216,0,0,0,0,0,0,0,0,0,-1,1665,1240,0,0
448,-216,0,0,0,0,0,0,0,0,0,-1,1672,1240,0,0
455,-216,0,0,0,0,0,0,0,0,0,-1,1679,1240,0,0
462,-216,0,0,0,0,0,0,0,0,0,-1,1686,1240,0,0
469,-216,0,0,0,0,0,0,0,0,0,-1,1693,1240,0,0
476,-216,0,0,0,0,0,0,0,0,0,-1,1700,1240,0,0
483,-216,0,0,0,0,0,0,0,0,0,-1,1707,1240,0,0
490,-216,0,0,0,0,0,0,0,0,0,-1,1714,1240,0,0
497,-216,0,0,0,0,0,0,0,0,0,-1,1721,1240,0,0
504,-216,0,0,0,0,0,0,0,0,0,-1,1728,1240,0,0
511,-216,0,0,0,0,0,0,0,0,0,-1,1735,1240,0,0
518,-216,0,0,0,0,0,0,0,0,0,-1,1742,1240,0,0
525,-216,0,0,0,0,0,0,0,0,0,-1,1749,1240,0,0
532,-216,0,0,0,0,0,0,0,0,0,-1,1756,1240,0,0
539,-216,0,0,0,0,0,0,0,0,0,-1,1763,1240,0,0
546,-216,0,0,0,0,0,0,0,0,0,-1,1770,1240,0,0
553,-216,0,0,0,0,0,0,0,0,0,-1,1777,1240,0,0
560,-216,0,0,0,0,0,0,0,0,0,-1,1784,1240,0,0
567,-216,0,0,0,0,0,0,0,0,0,-1,1791,1240,0,0
574,-216,0,0,0,0,0,0,0,0,0,-1,1798,1240,0,0
581,-216,0,0,0,0,0,0,0,0,0,-1,1805,1240,0,0
588,-216,0,0,0,0,0,0,0,0,0,-1,1812,1240,0,0
595,-216,0,0,0,0,0,0,0,0,0,-1,1819,1240,0,0
602,-216,0,0,0,0,0,0,0,0,0,-1,1826,1240,0,0
609,-216,0,0,0,0,0,0,0,0,0,-1,1833,1240,0,0
616,-216,0,0,0,0,0,0,0,0,0,-1,1840,1240,0,0
623,-216,0.00439453,0.083374,-0.00186699,0.0030743,-0.00145565,0.00347123,-0.00226393,-1.30458,0.00333556,0.0368167,1847,1240,0.00435664,-0.0833475
630,-216,-0.0562744,0.00305176,-0.0013698,-0.000130742,-0.00120468,0.000604374,-0.00210491,-1.0229,0.00164223,0.0330814,1854,1240,-0.056217,-0.00300171
637,-216,-0.0209961,-0.0129395,9.2348e-05,-0.00174238,-0.000503724,0.000221547,-0.00187158,-0.251076,0.00132774,0.0276366,1861,1240,-0.0209959,0.0129358
644,-216,-0.0214844,0.0585938,0.00156778,-0.00239092,0.00011288,0.001571,-0.00239414,0.0284836,0.00230566,0.0225081,1868,1240,-0.0215253,-0.0585752
651,-216,-0.0102539,0.0559082,0.00260758,-0.00248835,0.000632599,0.00268493,-0.00256571,0.121678,0.00303172,0.0186565,1875,1240,-0.0102773,-0.0558616
658,-216,-0.0357666,0.0644531,0.00330701,-0.00224505,0.00103635,0.00349415,-0.00243219,0.178648,0.00343983,0.0254098,1882,1240,-0.0357507,-0.0644975
665,-216,0.162842,0.318604,0.00369043,-0.00181954,0.00130699,0.00398474,-0.00211384,0.221484,0.00357582,0.0377444,1889,1240,0.162815,-0.318565
672,-216,0.348389,0.60144,0.00379886,-0.00138531,0.0014611,0.0041823,-0.00176874,0.256643,0.00352877,0.0439606,1896,1240,0.348338,-0.601463
679,-216,0.351563,0.75354,0.00363691,-0.000945145,0.00154104,0.00410697,-0.0014152,0.296063,0.00331208,0.0473935,1903,1240,0.351529,-0.753515
686,-216,0.429077,0.647095,0.00317332,-0.000538973,0.00154565,0.0037326,-0.00109826,0.347188,0.00292407,0.0433924,1910,1240,0.4291,-0.647132
693,-216,-0.0339355,0.0744629,0.0026328,-0.000170084,0.0014384,0.0032396,-0.000776881,0.399205,0.00245993,0.0297246,1917,1240,-0.0339759,-0.0744821
700,-216,-0.0550537,0.0447998,0.00205464,0.000129092,0.0012521,0.00267133,-0.000487594,0.457646,0.0019637,0.0124846,1924,1240,-0.0550274,-0.0447903
707,-216,-0.0765381,0.0559082,0.00138053,0.000334317,0.00109102,0.00206737,-0.000352519,0.561855,0.00150954,0.013584,1931,1240,-0.0765101,-0.0559691
714,-216,-0.074585,0.0761719,0.000417866,0.000481265,0.000960743,0.00141083,-0.000511701,0.801889,0.00114973,0.0125789,1938,1240,-0.0746156,-0.0762198
721,-216,-0.0552979,0.0742188,-0.000432339,0.000840967,0.00115278,0.00152121,-0.00111258,1.03769,0.00152671,0.0118252,1945,1240,-0.055305,-0.0741916
728,-216,-0.0297852,0.0534668,-0.000706348,0.000437101,0.00129232,0.00127851,-0.00154776,0.993657,0.00163421,0.009986,1952,1240,-0.0298203,-0.0534224
735,-216,-0.0166016,0.0479736,-0.000483112,0.000123673,0.00157019,0.00141952,-0.00177896,0.880832,0.00185052,0.00855438,1959,1240,-0.016653,-0.0479976
742,-216,-0.0350342,0.0777588,2.29522e-05,0.000147625,0.00194939,0.00203567,-0.0018651,0.801381,0.00225283,0.00856407,1966,1240,-0.035085,-0.0777339
749,-216,-0.0266113,0.067627,0.000802386,-0.000114618,0.00252362,0.00290882,-0.00222105,0.695536,0.00297059,0.00744276,1973,1240,-0.0266064,-0.067607
756,-216,-0.038208,0.0633545,0.00183126,-0.000361812,0.00310863,0.00403108,-0.00256164,0.615842,0.00383769,0.00834514,1980,1240,-0.0381584,-0.0633243
763,-216,-0.0600586,0.0723877,0.00310615,-0.000740364,0.00368889,0.00534305,-0.00297726,0.545102,0.00486803,0.0134325,1987,1240,-0.0600758,-0.0724308
770,-216,-0.081665,0.0887451,0.00473818,-0.00129928,0.00410712,0.00681662,-0.00337772,0.468482,0.0059963,0.0342453,1994,1240,-0.0816474,-0.0887806
777,-216,-0.00671387,0.108398,0.00670474,-0.00208846,0.00418164,0.00837577,-0.0037595,0.380172,0.00717329,0.0439327,2001,1240,-0.00667248,-0.108373
784,-216,0.323242,0.191528,0.00890151,-0.00316806,0.00366945,0.00992955,-0.0041961,0.273158,0.00837638,0.043007,2008,1240,0.323193,-0.191544
791,-216,0.395264,0.41687,0.0110505,-0.00462999,0.00227655,0.0113743,-0.00495382,0.141298,0.00966692,0.0406985,2015,1240,0.395271,-0.416894
798,-216,0,0,0,0,0,0,0,0,0,-1,2022,1240,0,0
805,-216,0,0,0,0,0,0,0,0,0,-1,2029,1240,0,0
812,-216,0,0,0,0,0,0,0,0,0,-1,2036,1240,0,0
-700,-223,0,0,0,0,0,0,0,0,0,-1,524,1247,0,0
-693,-223,0,0,0,0,0,0,0,0,0,-1,531,1247,0,0
-686,-223,0,0,0,0,0,0,0,0,0,-1,538,1247,0,0
-679,-223,0,0,0,0,0,0,0,0,0,-1,545,1247,0,0
-672,-223,-0.474121,-2.50806,0,0,0,0,0,0,0,-1,552,1247,-0.474103,2.50803
-665,-223,-0.647339,-2.52832,0,0,0,0,0,0,0,-1,559,1247,-0.647357,2.52828
-658,-223,-1.42792,-0.772827,0,0,0,0,0,0,0,-1,566,1247,-1.42795,0.772838
-651,-223,-1.1377,0.131226,0,0,0,0,0,0,0,-1,573,1247,-1.13768,-0.131193
-644,-223,-0.924805,0.18689,-0.0274838,0.0107746,0.0113572,0.013892,-0.0306012,1.30291,0.0262851,0.0463367,580,1247,-0.92482,-0.18684
-637,-223,-0.644348,0.267334,-0.0196132,0.00851277,0.0082722,0.0107653,-0.0218658,1.30494,0.0191995,0.0417684,587,1247,-0.644326,-0.267316
-630,-223,-0.202576,0.182251,-0.0135032,0.00652979,0.00585486,0.00811543,-0.0150888,1.30632,0.0135971,0.0373193,594,1247,-0.202561,-0.182247
-623,-223,-0.0317993,0.0253906,-0.00897757,0.00486739,0.00403891,0.0059595,-0.0100697,1.30672,0.00935531,0.0210377,601,1247,-0.0317715,-0.0253379
-616,-223,-0.0539551,0.0646973,-0.00578208,0.00362331,0.00281989,0.00440397,-0.00656274,1.30072,0.00637239,0.0145888,608,1247,-0.0539647,-0.0646579
-609,-223,-0.0383301,0.0720215,-0.00275101,0.00239452,0.00159568,0.00284918,-0.00320567,1.29322,0.00349779,0.010853,615,1247,-0.0383271,-0.0720137
-602,-223,-0.0343018,0.0592041,-0.000884962,0.00127975,0.00109194,0.00173487,-0.00134008,1.17589,0.00178019,0.0131737,622,1247,-0.0342742,-0.059182
-595,-223,-0.0450439,0.0545654,0.000119852,0.000570141,0.00077566,0.00115267,-0.000462678,0.926647,0.000960564,0.0171603,629,1247,-0.0450457,-0.0545639
-588,-223,-0.0350342,0.0551758,6.22392e-05,0.000110028,0.000834253,0.000920729,-0.000748461,0.799715,0.000965416,0.0186609,636,1247,-0.0350247,-0.0551705
-581,-223,-0.0296631,0.0516357,-0.00020117,-0.000484453,0.00106644,0.00073299,-0.00141861,0.719376,0.00126308,0.0175977,643,1247,-0.0296397,-0.0516478
-574,-223,-0.0323486,0.0471191,-0.000496096,-0.000578477,0.00125622,0.000719612,-0.00179418,0.769009,0.00149489,0.0156528,650,1247,-0.0323267,-0.0471479
-567,-223,-0.0460815,0.0534668,-0.000939759,-3.68278e-06,0.0013949,0.000999605,-0.00194305,0.947264,0.0017278,0.0197501,657,1247,-0.0460893,-0.0534127
-560,-223,-0.0490723,0.137085,-0.0015169,0.000933111,0.00143952,0.00159831,-0.0021821,1.13793,0.00219128,0.0296596,664,1247,-0.0490666,-0.137054
-553,-223,-0.0454712,0.276489,-0.00183387,0.00158771,0.00144611,0.00211702,-0.00236317,1.21992,0.00258794,0.0406419,671,1247,-0.0454969,-0.276507
-546,-223,0.143311,-0.0119629,0,0,0,0,0,0,0,-1,678,1247,0.143283,0.0119744
-539,-223,-0.160034,0.248535,-0.00196722,0.00312515,0.00104664,0.00333188,-0.00217395,1.37579,0.00320214,0.0424272,685,1247,-0.160029,-0.248491
-532,-223,-0.220764,0.369751,-0.00163174,0.00393929,0.000592614,0.00400163,-0.00169408,1.46598,0.00337718,0.0415728,692,1247,-0.220742,-0.369713
-525,-223,-0.00537109,0.0273438,-0.000831646,0.00450976,-4.65954e-05,0.00451016,-0.000832052,-1.56207,0.00331907,0.0443097,699,1247,-0.00537893,-0.0273365
-518,-223,-0.0836792,0.0991211,0.000561136,0.00443131,-0.000806888,0.0045928,0.000399647,-1.37327,0.00293773,0.0400999,706,1247,-0.0836657,-0.0990976
-511,-223,-0.0739746,0.122925,0.0029069,0.00316173,-0.00171784,0.00475687,0.00131175,-0.822416,0.00283695,0.0369301,713,1247,-0.0739662,-0.122872
-504,-223,0.0856323,-0.118042,0.00673883,-0.00047021,-0.00250415,0.00752331,-0.00125469,-0.303588,0.00548184,0.0366475,720,1247,0.0856138,0.118093
-497,-223,0,0,0,0,0,0,0,0,0,-1,727,1247,0,0
-490,-223,0,0,0,0,0,0,0,0,0,-1,734,1247,0,0
-483,-223,0,0,0,0,0,0,0,0,0,-1,741,1247,0,0
-476,-223,0,0,0,0,0,0,0,0,0,-1,748,1247,0,0
-469,-223,0,0,0,0,0,0,0,0,0,-1,755,1247,0,0
-462,-223,0,0,0,0,0,0,0,0,0,-1,762,1247,0,0
-455,-223,0,0,0,0,0,0,0,0,0,-1,769,1247,0,0
-448,-223,0,0,0,0,0,0,0,0,0,-1,776,1247,0,0
-441,-223,0,0,0,0,0,0,0,0,0,-1,783,1247,0,0
-434,-223,0,0,0,0,0,0,0,0,0,-1,790,1247,0,0
-427,-223,0,0,0,0,0,0,0,0,0,-1,797,1247,0,0
-420,-223,0,0,0,0,0,0,0,0,0,-1,804,1247,0,0
-413,-223,0,0,0,0,0,0,0,0,0,-1,811,1247,0,0
-406,-223,0,0,0,0,0,0,0,0,0,-1,818,1247,0,0
-399,-223,0,0,0,0,0,0,0,0,0,-1,825,1247,0,0
-392,-223,0,0,0,0,0,0,0,0,0,-1,832,1247,0,0
-385,-223,0,0,0,0,0,0,0,0,0,-1,839,1247,0,0
-378,-223,0,0,0,0,0,0,0,0,0,-1,846,1247,0,0
-371,-223,0,0,0,0,0,0,0,0,0,-1,853,1247,0,0
-364,-223,0,0,0,0,0,0,0,0,0,-1,860,1247,0,0
-357,-223,0,0,0,0,0,0,0,0,0,-1,867,1247,0,0
-350,-223,0,0,0,0,0,0,0,0,0,-1,874,1247,0,0
-343,-223,0,0,0,0,0,0,0,0,0,-1,881,1247,0,0
-336,-223,0,0,0,0,0,0,0,0,0,-1,888,1247,0,0
-329,-223,0,0,0,0,0,0,0,0,0,-1,895,1247,0,0
-322,-223,0,0,0,0,0,0,0,0,0,-1,902,1247,0,0
-315,-223,0,0,0,0,0,0,0,0,0,-1,909,1247,0,0
-308,-223,0,0,0,0,0,0,0,0,0,-1,916,1247,0,0
-301,-223,0,0,0,0,0,0,0,0,0,-1,923,1247,0,0
-294,-223,0,0,0,0,0,0,0,0,0,-1,930,1247,0,0
-287,-223,0,0,0,0,0,0,0,0,0,-1,937,1247,0,0
-280,-223,0,0,0,0,0,0,0,0,0,-1,944,1247,0,0
-273,-223,0,0,0,0,0,0,0,0,0,-1,951,1247,0,0
-266,-223,0,0,0,0,0,0,0,0,0,-1,958,1247,0,0
-259,-223,0,0,0,0,0,0,0,0,0,-1,965,1247,0,0
-252,-223,0,0,0,0,0,0,0,0,0,-1,972,1247,0,0
-245,-223,0,0,0,0,0,0,0,0,0,-1,979,1247,0,0
-238,-223,0,0,0,0,0,0,0,0,0,-1,986,1247,0,0
-231,-223,0,0,0,0,0,0,0,0,0,-1,993,1247,0,0
-224,-223,0,0,0,0,0,0,0,0,0,-1,1000,1247,0,0
-217,-223,0,0,0,0,0,0,0,0,0,-1,1007,1247,0,0
-210,-223,0,0,0,0,0,0,0,0,0,-1,1014,1247,0,0
-203,-223,0,0,0,0,0,0,0,0,0,-1,1021,1247,0,0
-196,-223,0,0,0,0,0,0,0,0,0,-1,1028,1247,0,0
-189,-223,0,0,0,0,0,0,0,0,0,-1,1035,1247,0,0
-182,-223,0,0,0,0,0,0,0,0,0,-1,1042,1247,0,0
-175,-223,0,0,0,0,0,0,0,0,0,-1,1049,1247,0,0
-168,-223,0,0,0,0,0,0,0,0,0,-1,1056,1247,0,0
-161,-223,0,0,0,0,0,0,0,0,0,-1,1063,1247,0,0
-154,-223,0,0,0,0,0,0,0,0,0,-1,1070,1247,0,0
-147,-223,0,0,0,0,0,0,0,0,0,-1,1077,1247,0,0
-140,-223,0,0,0,0,0,0,0,0,0,-1,1084,1247,0,0
-133,-223,0,0,0,0,0,0,0,0,0,-1,1091,1247,0,0
-126,-223,0,0,0,0,0,0,0,0,0,-1,1098,1247,0,0
-119,-223,0,0,0,0,0,0,0,0,0,-1,1105,1247,0,0
-112,-223,0,0,0,0,0,0,0,0,0,-1,1112,1247,0,0
-105,-223,0,0,0,0,0,0,0,0,0,-1,1119,1247,0,0
-98,-223,0,0,0,0,0,0,0,0,0,-1,1126,1247,0,0
-91,-223,0,0,0,0,0,0,0,0,0,-1,1133,1247,0,0
-84,-223,0,0,0,0,0,0,0,0,0,-1,1140,1247,0,0
-77,-223,0,0,0,0,0,0,0,0,0,-1,1147,1247,0,0
-70,-223,0,0,0,0,0,0,0,0,0,-1,1154,1247,0,0
-63,-223,0,0,0,0,0,0,0,0,0,-1,1161,1247,0,0
-56,-223,0,0,0,0,0,0,0,0,0,-1,1168,1247,0,0
-49,-223,0,0,0,0,0,0,0,0,0,-1,1175,1247,0,0
-42,-223,0,0,0,0,0,0,0,0,0,-1,1182,1247,0,0
-35,-223,0,0,0,0,0,0,0,0,0,-1,1189,1247,0,0
-28,-223,0,0,0,0,0,0,0,0,0,-1,1196,1247,0,0
-21,-223,0,0,0,0,0,0,0,0,0,-1,1203,1247,0,0
-14,-223,0,0,0,0,0,0,0,0,0,-1,1210,1247,0,0
-7,-223,0,0,0,0,0,0,0,0,0,-1,1217,1247,0,0
0,-223,0,0,0,0,0,0,0,0,0,-1,1224,1247,0,0
7,-223,0,0,0,0,0,0,0,0,0,-1,1231,1247,0,0
14,-223,0,0,0,0,0,0,0,0,0,-1,1238,1247,0,0
21,-223,0,0,0,0,0,0,0,0,0,-1,1245,1247,0,0
28,-223,0,0,0,0,0,0,0,0,0,-1,1252,1247,0,0
35,-223,0,0,0,0,0,0,0,0,0,-1,1259,1247,0,0
42,-223,0,0,0,0,0,0,0,0,0,-1,1266,1247,0,0
49,-223,0,0,0,0,0,0,0,0,0,-1,1273,1247,0,0
56,-223,0,0,0,0,0,0,0,0,0,-1,1280,1247,0,0
63,-223,0,0,0,0,0,0,0,0,0,-1,1287,1247,0,0
70,-223,0,0,0,0,0,0,0,0,0,-1,1294,1247,0,0
77,-223,0,0,0,0,0,0,0,0,0,-1,1301,1247,0,0
84,-223,0,0,0,0,0,0,0,0,0,-1,1308,1247,0,0
91,-223,0,0,0,0,0,0,0,0,0,-1,1315,1247,0,0
98,-223,0,0,0,0,0,0,0,0,0,-1,1322,1247,0,0
105,-223,0,0,0,0,0,0,0,0,0,-1,1329,1247,0,0
112,-223,0,0,0,0,0,0,0,0,0,-1,1336,1247,0,0
119,-223,0,0,0,0,0,0,0,0,0,-1,1343,1247,0,0
126,-223,0,0,0,0,0,0,0,0,0,-1,1350,1247,0,0
133,-223,0,0,0,0,0,0,0,0,0,-1,1357,1247,0,0
140,-223,0,0,0,0,0,0,0,0,0,-1,1364,1247,0,0
147,-223,0,0,0,0,0,0,0,0,0,-1,1371,1247,0,0
154,-223,0,0,0,0,0,0,0,0,0,-1,1378,1247,0,0
161,-223,0,0,0,0,0,0,0,0,0,-1,1385,1247,0,0
168,-223,0,0,0,0,0,0,0,0,0,-1,1392,1247,0,0
175,-223,0,0,0,0,0,0,0,0,0,-1,1399,1247,0,0
182,-223,0,0,0,0,0,0,0,0,0,-1,1406,1247,0,0
189,-223,0,0,0,0,0,0,0,0,0,-1,1413,1247,0,0
196,-223,0,0,0,0,0,0,0,0,0,-1,1420,1247,0,0
203,-223,0,0,0,0,0,0,0,0,0,-1,1427,1247,0,0
210,-223,0,0,0,0,0,0,0,0,0,-1,1434,1247,0,0
217,-223,0,0,0,0,0,0,0,0,0,-1,1441,1247,0,0
224,-223,0,0,0,0,0,0,0,0,0,-1,1448,1247,0,0
231,-223,0,0,0,0,0,0,0,0,0,-1,1455,1247,0,0
238,-223,0,0,0,0,0,0,0,0,0,-1,1462,1247,0,0
245,-223,0,0,0,0,0,0,0,0,0,-1,1469,1247,0,0
252,-223,0,0,0,0,0,0,0,0,0,-1,1476,1247,0,0
259,-223,0,0,0,0,0,0,0,0,0,-1,1483,1247,0,0
266,-223,0,0,0,0,0,0,0,0,0,-1,1490,1247,0,0
273,-223,0,0,0,0,0,0,0,0,0,-1,1497,1247,0,0
280,-223,0,0,0,0,0,0,0,0,0,-1,1504,1247,0,0
287,-223,0,0,0,0,0,0,0,0,0,-1,1511,1247,0,0
294,-223,0,0,0,0,0,0,0,0,0,-1,1518,1247,0,0
301,-223,0,0,0,0,0,0,0,0,0,-1,1525,1247,0,0
308,-223,0,0,0,0,0,0,0,0,0,-1,1532,1247,0,0
315,-223,0,0,0,0,0,0,0,0,0,-1,1539,1247,0,0
322,-223,0,0,0,0,0,0,0,0,0,-1,1546,1247,0,0
329,-223,0,0,0,0,0,0,0,0,0,-1,1553,1247,0,0
336,-223,0,0,0,0,0,0,0,0,0,-1,1560,1247,0,0
343,-223,0,0,0,0,0,0,0,0,0,-1,1567,1247,0,0
350,-223,0,0,0,0,0,0,0,0,0,-1,1574,1247,0,0
357,-223,0,0,0,0,0,0,0,0,0,-1,1581,1247,0,0
364,-223,0,0,0,0,0,0,0,0,0,-1,1588,1247,0,0
371,-223,0,0,0,0,0,0,0,0,0,-1,1595,1247,0,0
378,-223,0,0,0,0,0,0,0,0,0,-1,1602,1247,0,0
385,-223,0,0,0,0,0,0,0,0,0,-1,1609,1247,0,0
392,-223,0,0,0,0,0,0,0,0,0,-1,1616,1247,0,0
399,-223,0,0,0,0,0,0,0,0,0,-1,1623,1247,0,0
406,-223,0,0,0,0,0,0,0,0,0,-1,1630,1247,0,0
413,-223,0,0,0,0,0,0,0,0,0,-1,1637,1247,0,0
420,-223,0,0,0,0,0,0,0,0,0,-1,1644,1247,0,0
427,-223,0,0,0,0,0,0,0,0,0,-1,1651,1247,0,0
434,-223,0,0,0,0,0,0,0,0,0,-1,1658,1247,0,0
441,-223,0,0,0,0,0,0,0,0,0,-1,1665,1247,0,0
448,-223,0,0,0,0,0,0,0,0,0,-1,1672,1247,0,0
455,-223,0,0,0,0,0,0,0,0,0,-1,1679,1247,0,0
462,-223,0,0,0,0,0,0,0,0,0,-1,1686,1247,0,0
469,-223,0,0,0,0,0,0,0,0,0,-1,1693,1247,0,0
476,-223,0,0,0,0,0,0,0,0,0,-1,1700,1247,0,0
483,-223,0,0,0,0,0,0,0,0,0,-1,1707,1247,0,0
490,-223,0,0,0,0,0,0,0,0,0,-1,1714,1247,0,0
497,-223,0,0,0,0,0,0,0,0,0,-1,1721,1247,0,0
504,-223,0,0,0,0,0,0,0,0,0,-1,1728,1247,0,0
511,-223,0,0,0,0,0,0,0,0,0,-1,1735,1247,0,0
518,-223,0,0,0,0,0,0,0,0,0,-1,1742,1247,0,0
525,-223,0,0,0,0,0,0,0,0,0,-1,1749,1247,0,0
532,-223,0,0,0,0,0,0,0,0,0,-1,1756,1247,0,0
539,-223,0,0,0,0,0,0,0,0,0,-1,1763,1247,0,0
546,-223,0,0,0,0,0,0,0,0,0,-1,1770,1247,0,0
553,-223,0,0,0,0,0,0,0,0,0,-1,1777,1247,0,0
560,-223,0,0,0,0,0,0,0,0,0,-1,1784,1247,0,0
567,-223,0,0,0,0,0,0,0,0,0,-1,1791,1247,0,0
574,-223,0,0,0,0,0,0,0,0,0,-1,1798,1247,0,0
581,-223,0,0,0,0,0,0,0,0,0,-1,1805,1247,0,0
588,-223,0,0,0,0,0,0,0,0,0,-1,1812,1247,0,0
595,-223,0,0,0,0,0,0,0,0,0,-1,1819,1247,0,0
602,-223,0,0,0,0,0,0,0,0,0,-1,1826,1247,0,0
609,-223,0,0,0,0,0,0,0,0,0,-1,1833,1247,0,0
616,-223,0,0,0,0,0,0,0,0,0,-1,1840,1247,0,0
623,-223,-0.0953369,0.0622559,-0.00103715,0.00102678,-0.000480514,0.00113317,-0.00114354,-1.35291,0.00131446,0.0362329,1847,1247,-0.0952981,-0.0622172
630,-223,-0.102173,0.0246582,-0.000816542,-0.00206246,-0.000639954,-0.000546406,-0.0023326,-0.399428,0.00140871,0.0310268,1854,1247,-0.102124,-0.0246139
637,-223,-0.00891113,0.00500488,0.000280984,-0.00349773,-0.000414918,0.000326007,-0.00354275,-0.108088,0.00247766,0.0254157,1861,1247,-0.00888273,-0.00503742
644,-223,-0.0328369,0.0367432,0.00139738,-0.00391199,-0.000145427,0.00140136,-0.00391597,-0.0273631,0.00318234,0.0185979,1868,1247,-0.032849,-0.0367732
651,-223,-0.0662842,0.0195313,0.00227175,-0.00373118,0.000163797,0.00227622,-0.00373565,0.0272591,0.00350488,0.0196171,1875,1247,-0.066271,-0.0195444
658,-223,-0.100708,-0.0163574,0.00292636,-0.00321815,0.000454051,0.00295973,-0.00325152,0.0733644,0.00358739,0.0347898,1882,1247,-0.100666,0.0163244
665,-223,-0.137695,-0.0283203,0,0,0,0,0,0,0,-1,1889,1247,-0.13772,0.0283787
672,-223,-0.709106,-0.703125,0.00349669,-0.00185461,0.000861829,0.00363206,-0.00198998,0.155804,0.00329172,0.0455804,1896,1247,-0.709066,0.70315
679,-223,-0.719238,-0.741821,0.00341631,-0.00118826,0.00102161,0.00363279,-0.00140475,0.208817,0.00300175,0.045178,1903,1247,-0.719219,0.741861
686,-223,0.141602,0.5271,0.00303465,-0.000619234,0.00112467,0.00335307,-0.000937658,0.275906,0.00260481,0.0386636,1910,1247,0.141585,-0.527092
693,-223,-0.0316162,0.0794678,0.00262446,-0.000114219,0.00109141,0.00300619,-0.000495952,0.336464,0.00218826,0.0178253,1917,1247,-0.0316169,-0.0794101
700,-223,-0.0466309,0.0639648,0.00209547,0.000319986,0.00101051,0.00255281,-0.000137347,0.424992,0.00174945,0.00876585,1924,1247,-0.0466671,-0.0639857
707,-223,-0.0528564,0.079834,0.0013831,0.000590675,0.000995541,0.00205837,-8.46008e-05,0.596014,0.0014013,0.0115281,1931,1247,-0.052868,-0.0798197
714,-223,-0.0421143,0.076416,0.000424158,0.000848968,0.0010201,0.00167854,-0.000405412,0.888042,0.00127582,0.0104073,1938,1247,-0.0420686,-0.0764547
721,-223,-0.0362549,0.0727539,-0.000326201,0.0012732,0.00141258,0.00209674,-0.00114974,1.04297,0.00190075,0.0121892,1945,1247,-0.0362118,-0.0727677
728,-223,-0.0321045,0.0693359,-0.000589923,0.000904586,0.00171284,0.00202608,-0.00171141,0.991085,0.00216039,0.0125294,1952,1247,-0.0321086,-0.0693429
735,-223,-0.0285645,0.0644531,-0.000310332,0.00070567,0.00213713,0.00239434,-0.00199901,0.902084,0.00253992,0.00991345,1959,1247,-0.0285889,-0.0644225
742,-223,-0.0388184,0.0727539,0.000321722,0.000948658,0.00261534,0.00326925,-0.00199887,0.845042,0.00307089,0.00856492,1966,1247,-0.0387577,-0.0727491
749,-223,-0.0302734,0.0568848,0.00125417,0.00097426,0.00337539,0.0044925,-0.00226407,0.764679,0.003971,0.00867841,1973,1247,-0.0302299,-0.056868
756,-223,-0.03479,0.0457764,0.00250702,0.00109317,0.00416997,0.00602957,-0.00242937,0.701432,0.00502905,0.0100128,1980,1247,-0.0348185,-0.0458099
763,-223,-0.0390625,0.0507813,0.0041415,0.00115508,0.00493562,0.00780485,-0.00250826,0.638507,0.00621051,0.0123979,1987,1247,-0.0390603,-0.0507495
770,-223,-0.120239,0.0703125,0.00626253,0.00112386,0.00548311,0.00974844,-0.00236205,0.566295,0.00741283,0.0321382,1994,1247,-0.120295,-0.0702825
777,-223,-0.270508,0.172485,0.00883404,0.000967652,0.00558002,0.0117277,-0.00192606,0.478405,0.00853328,0.0441565,2001,1247,-0.270526,-0.172446
784,-223,-0.0623779,0.495483,0.0117532,0.00064891,0.00491776,0.013618,-0.00121586,0.36244,0.0095099,0.0453979,2008,1247,-0.0623422,-0.495464
791,-223,0.335938,0.428467,0.0147237,0.000105615,0.00312111,0.0153622,-0.000532886,0.20179,0.0104236,0.0449848,2015,1247,0.335946,-0.428524
798,-223,0,0,0,0,0,0,0,0,0,-1,2022,1247,0,0
805,-223,0,0,0,0,0,0,0,0,0,-1,2029,1247,0,0
812,-223,0,0,0,0,0,0,0,0,0,-1,2036,1247,0,0
-700,-230,0,0,0,0,0,0,0,0,0,-1,524,1254,0,0
-693,-230,0,0,0,0,0,0,0,0,0,-1,531,1254,0,0
-686,-230,0,0,0,0,0,0,0,0,0,-1,538,1254,0,0
-679,-230,0,0,0,0,0,0,0,0,0,-1,545,1254,0,0
-672,-230,-0.242798,-3.3877,0,0,0,0,0,0,0,-1,552,1254,-0.242826,3.38766
-665,-230,3.7666,-2.49634,0,0,0,0,0,0,0,-1,559,1254,3.76663,2.49634
-658,-230,-0.805115,-0.484985,0,0,0,0,0,0,0,-1,566,1254,-0.805121,0.484951
-651,-230,-0.900696,-0.497803,0,0,0,0,0,0,0,-1,573,1254,-0.900667,0.497796
-644,-230,-0.668823,0.635986,0,0,0,0,0,0,0,-1,580,1254,-0.668832,-0.635978
-637,-230,-0.440186,0.450195,-0.0214371,0.0115455,0.0124116,0.0156942,-0.0255859,1.24821,0.0240601,0.0462576,587,1254,-0.440189,-0.450136
-630,-230,-0.231506,0.251099,-0.0147201,0.00880674,0.00882588,0.0117496,-0.0176629,1.24896,0.0170953,0.041539,594,1254,-0.231512,-0.251045
-623,-230,-0.0180664,0.0299072,-0.00975771,0.00653303,0.0061194,0.0085756,-0.0118003,1.24864,0.011813,0.0266375,601,1254,-0.0180515,-0.0299279
-616,-230,-0.0457764,0.0650635,-0.00627749,0.0048221,0.00428228,0.00628216,-0.00773756,1.2422,0.00810881,0.0159829,608,1254,-0.0457774,-0.065033
-609,-230,-0.0308838,0.0701904,-0.00316316,0.0032055,0.00257338,0.00411534,-0.004073,1.23095,0.00472756,0.0110592,615,1254,-0.0308815,-0.0701578
-602,-230,-0.0280151,0.0758057,-0.00120489,0.0018342,0.00169125,0.00258827,-0.00195896,1.15138,0.00263372,0.010053,622,1254,-0.0280159,-0.0758117
-595,-230,-0.0326538,0.0743408,-0.000144926,0.000915734,0.00114583,0.00164801,-0.000877206,1.00214,0.0014804,0.0162019,629,1254,-0.0326714,-0.0743522
-588,-230,-0.0055542,0.0124512,-0.000231788,0.000419972,0.00112932,0.00126949,-0.00108131,0.925863,0.00135869,0.0227465,636,1254,-0.00555012,-0.0125018
-581,-230,-0.0217285,0.00964355,-0.000444907,-0.000171432,0.00122151,0.000920966,-0.00153731,0.841137,0.00143408,0.0213678,643,1254,-0.0217323,-0.00965384
-574,-230,-0.0313721,0.0544434,-0.000629373,-0.000191605,0.00119424,0.000803648,-0.00162462,0.876034,0.00142842,0.0154999,650,1254,-0.031383,-0.0544157
-567,-230,-0.0177612,0.0322266,-0.00103125,0.000588801,0.00113309,0.00117162,-0.00161407,1.09572,0.00161507,0.0166284,657,1254,-0.0177548,-0.0322379
-560,-230,-0.0482788,0.0537109,-0.00156826,0.00189687,0.000977084,0.0021534,-0.00182478,1.31405,0.00229941,0.0266749,664,1254,-0.0482592,-0.053733
-553,-230,-0.145935,0.313354,-0.00176521,0.0028216,0.000767357,0.00294658,-0.00189018,1.40935,0.00281462,0.0417693,671,1254,-0.145931,-0.313328
-546,-230,-0.0627441,0.126953,-0.00170804,0.0037724,0.000420348,0.00380445,-0.0017401,1.49469,0.00327427,0.0458364,678,1254,-0.0627643,-0.126968
-539,-230,-0.281311,0.855713,0,0,0,0,0,0,0,-1,685,1254,-0.281335,-0.855667
-532,-230,0.0124512,0.112427,0,0,0,0,0,0,0,-1,692,1254,0.012443,-0.112482
-525,-230,-0.0259399,0.0718994,-6.7946e-05,0.00653541,-0.00137672,0.00681094,-0.000343477,-1.37327,0.00465934,0.0477164,699,1254,-0.0259482,-0.0719228
-518,-230,-0.0350342,0.0599365,0.00136039,0.00648623,-0.00202902,0.00719217,0.000654443,-1.23597,0.00459221,0.0416459,706,1254,-0.035039,-0.0599439
-511,-230,-0.0240479,0.0292969,0.00349332,0.00506834,-0.0025179,0.00691901,0.00164265,-0.936961,0.00417428,0.0389309,713,1254,-0.0240232,-0.0293553
-504,-230,-0.0112305,0.0410156,0.00666247,0.00111223,-0.00247391,0.00760508,0.000169613,-0.364039,0.00501447,0.0375293,720,1254,-0.011202,-0.0409997
-497,-230,0,0,0,0,0,0,0,0,0,-1,727,1254,0,0
-490,-230,0,0,0,0,0,0,0,0,0,-1,734,1254,0,0
-483,-230,0,0,0,0,0,0,0,0,0,-1,741,1254,0,0
-476,-230,0,0,0,0,0,0,0,0,0,-1,748,1254,0,0
-469,-230,0,0,0,0,0,0,0,0,0,-1,755,1254,0,0
-462,-230,0,0,0,0,0,0,0,0,0,-1,762,1254,0,0
-455,-230,0,0,0,0,0,0,0,0,0,-1,769,1254,0,0
-448,-230,0,0,0,0,0,0,0,0,0,-1,776,1254,0,0
-441,-230,0,0,0,0,0,0,0,0,0,-1,783,1254,0,0
-434,-230,0,0,0,0,0,0,0,0,0,-1,790,1254,0,0
-427,-230,0,0,0,0,0,0,0,0,0,-1,797,1254,0,0
-420,-230,0,0,0,0,0,0,0,0,0,-1,804,1254,0,0
-413,-230,0,0,0,0,0,0,0,0,0,-1,811,1254,0,0
-406,-230,0,0,0,0,0,0,0,0,0,-1,818,1254,0,0
-399,-230,0,0,0,0,0,0,0,0,0,-1,825,1254,0,0
-392,-230,0,0,0,0,0,0,0,0,0,-1,832,1254,0,0
-385,-230,0,0,0,0,0,0,0,0,0,-1,839,1254,0,0
-378,-230,0,0,0,0,0,0,0,0,0,-1,846,1254,0,0
-371,-230,0,0,0,0,0,0,0,0,0,-1,853,1254,0,0
-364,-230,0,0,0,0,0,0,0,0,0,-1,860,1254,0,0
-357,-230,0,0,0,0,0,0,0,0,0,-1,867,1254,0,0
-350,-230,0,0,0,0,0,0,0,0,0,-1,874,1254,0,0
-343,-230,0,0,0,0,0,0,0,0,0,-1,881,1254,0,0
-336,-230,0,0,0,0,0,0,0,0,0,-1,888,1254,0,0
-329,-230,0,0,0,0,0,0,0,0,0,-1,895,1254,0,0
-322,-230,0,0,0,0,0,0,0,0,0,-1,902,1254,0,0
-315,-230,0,0,0,0,0,0,0,0,0,-1,909,1254,0,0
-308,-230,0,0,0,0,0,0,0,0,0,-1,916,1254,0,0
-301,-230,0,0,0,0,0,0,0,0,0,-1,923,1254,0,0
-294,-230,0,0,0,0,0,0,0,0,0,-1,930,1254,0,0
-287,-230,0,0,0,0,0,0,0,0,0,-1,937,1254,0,0
-280,-230,0,0,0,0,0,0,0,0,0,-1,944,1254,0,0
-273,-230,0,0,0,0,0,0,0,0,0,-1,951,1254,0,0
-266,-230,0,0,0,0,0,0,0,0,0,-1,958,1254,0,0
-259,-230,0,0,0,0,0,0,0,0,0,-1,965,1254,0,0
-252,-230,0,0,0,0,0,0,0,0,0,-1,972,1254,0,0
-245,-230,0,0,0,0,0,0,0,0,0,-1,979,1254,0,0
-238,-230,0,0,0,0,0,0,0,0,0,-1,986,1254,0,0
-231,-230,0,0,0,0,0,0,0,0,0,-1,993,1254,0,0
-224,-230,0,0,0,0,0,0,0,0,0,-1,1000,1254,0,0
-217,-230,0,0,0,0,0,0,0,0,0,-1,1007,1254,0,0
-210,-230,0,0,0,0,0,0,0,0,0,-1,1014,1254,0,0
-203,-230,0,0,0,0,0,0,0,0,0,-1,1021,1254,0,0
-196,-230,0,0,0,0,0,0,0,0,0,-1,1028,1254,0,0
-189,-230,0,0,0,0,0,0,0,0,0,-1,1035,1254,0,0
-182,-230,0,0,0,0,0,0,0,0,0,-1,1042,1254,0,0
-175,-230,0,0,0,0,0,0,0,0,0,-1,1049,1254,0,0
-168,-230,0,0,0,0,0,0,0,0,0,-1,1056,1254,0,0
-161,-230,0,0,0,0,0,0,0,0,0,-1,1063,1254,0,0
-154,-230,0,0,0,0,0,0,0,0,0,-1,1070,1254,0,0
-147,-230,0,0,0,0,0,0,0,0,0,-1,1077,1254,0,0
-140,-230,0,0,0,0,0,0,0,0,0,-1,1084,1254,0,0
-133,-230,0,0,0,0,0,0,0,0,0,-1,1091,1254,0,0
-126,-230,0,0,0,0,0,0,0,0,0,-1,1098,1254,0,0
-119,-230,0,0,0,0,0,0,0,0,0,-1,1105,1254,0,0
-112,-230,0,0,0,0,0,0,0,0,0,-1,1112,1254,0,0
-105,-230,0,0,0,0,0,0,0,0,0,-1,1119,1254,0,0
-98,-230,0,0,0,0,0,0,0,0,0,-1,1126,1254,0,0
-91,-230,0,0,0,0,0,0,0,0,0,-1,1133,1254,0,0
-84,-230,0,0,0,0,0,0,0,0,0,-1,1140,1254,0,0
-77,-230,0,0,0,0,0,0,0,0,0,-1,1147,1254,0,0
-70,-230,0,0,0,0,0,0,0,0,0,-1,1154,1254,0,0
-63,-230,0,0,0,0,0,0,0,0,0,-1,1161,1254,0,0
-56,-230,0,0,0,0,0,0,0,0,0,-1,1168,1254,0,0
-49,-230,0,0,0,0,0,0,0,0,0,-1,1175,1254,0,0
-42,-230,0,0,0,0,0,0,0,0,0,-1,1182,1254,0,0
-35,-230,0,0,0,0,0,0,0,0,0,-1,1189,1254,0,0
-28,-230,0,0,0,0,0,0,0,0,0,-1,1196,1254,0,0
-21,-230,0,0,0,0,0,0,0,0,0,-1,1203,1254,0,0
-14,-230,0,0,0,0,0,0,0,0,0,-1,1210,1254,0,0
-7,-230,0,0,0,0,0,0,0,0,0,-1,1217,1254,0,0
0,-230,0,0,0,0,0,0,0,0,0,-1,1224,1254,0,0
7,-230,0,0,0,0,0,0,0,0,0,-1,1231,1254,0,0
14,-230,0,0,0,0,0,0,0,0,0,-1,1238,1254,0,0
21,-230,0,0,0,0,0,0,0,0,0,-1,1245,1254,0,0
28,-230,0,0,0,0,0,0,0,0,0,-1,1252,1254,0,0
35,-230,0,0,0,0,0,0,0,0,0,-1,1259,1254,0,0
42,-230,0,0,0,0,0,0,0,0,0,-1,1266,1254,0,0
49,-230,0,0,0,0,0,0,0,0,0,-1,1273,1254,0,0
56,-230,0,0,0,0,0,0,0,0,0,-1,1280,1254,0,0
63,-230,0,0,0,0,0,0,0,0,0,-1,1287,1254,0,0
70,-230,0,0,0,0,0,0,0,0,0,-1,1294,1254,0,0
77,-230,0,0,0,0,0,0,0,0,0,-1,1301,1254,0,0
84,-230,0,0,0,0,0,0,0,0,0,-1,1308,1254,0,0
91,-230,0,0,0,0,0,0,0,0,0,-1,1315,1254,0,0
98,-230,0,0,0,0,0,0,0,0,0,-1,1322,1254,0,0
105,-230,0,0,0,0,0,0,0,0,0,-1,1329,1254,0,0
112,-230,0,0,0,0,0,0,0,0,0,-1,1336,1254,0,0
119,-230,0,0,0,0,0,0,0,0,0,-1,1343,1254,0,0
126,-230,0,0,0,0,0,0,0,0,0,-1,1350,1254,0,0
133,-230,0,0,0,0,0,0,0,0,0,-1,1357,1254,0,0
140,-230,0,0,0,0,0,0,0,0,0,-1,1364,1254,0,0
147,-230,0,0,0,0,0,0,0,0,0,-1,1371,1254,0,0
154,-230,0,0,0,0,0,0,0,0,0,-1,1378,1254,0,0
161,-230,0,0,0,0,0,0,0,0,0,-1,1385,1254,0,0
168,-230,0,0,0,0,0,0,0,0,0,-1,1392,1254,0,0
175,-230,0,0,0,0,0,0,0,0,0,-1,1399,1254,0,0
182,-230,0,0,0,0,0,0,0,0,0,-1,1406,1254,0,0
189,-230,0,0,0,0,0,0,0,0,0,-1,1413,1254,0,0
196,-230,0,0,0,0,0,0,0,0,0,-1,1420,1254,0,0
203,-230,0,0,0,0,0,0,0,0,0,-1,1427,1254,0,0
210,-230,0,0,0,0,0,0,0,0,0,-1,1434,1254,0,0
217,-230,0,0,0,0,0,0,0,0,0,-1,1441,1254,0,0
224,-230,0,0,0,0,0,0,0,0,0,-1,1448,1254,0,0
231,-230,0,0,0,0,0,0,0,0,0,-1,1455,1254,0,0
238,-230,0,0,0,0,0,0,0,0,0,-1,1462,1254,0,0
245,-230,0,0,0,0,0,0,0,0,0,-1,1469,1254,0,0
252,-230,0,0,0,0,0,0,0,0,0,-1,1476,1254,0,0
259,-230,0,0,0,0,0,0,0,0,0,-1,1483,1254,0,0
266,-230,0,0,0,0,0,0,0,0,0,-1,1490,1254,0,0
273,-230,0,0,0,0,0,0,0,0,0,-1,1497,1254,0,0
280,-230,0,0,0,0,0,0,0,0,0,-1,1504,1254,0,0
287,-230,0,0,0,0,0,0,0,0,0,-1,1511,1254,0,0
294,-230,0,0,0,0,0,0,0,0,0,-1,1518,1254,0,0
301,-230,0,0,0,0,0,0,0,0,0,-1,1525,1254,0,0
308,-230,0,0,0,0,0,0,0,0,0,-1,1532,1254,0,0
315,-230,0,0,0,0,0,0,0,0,0,-1,1539,1254,0,0
322,-230,0,0,0,0,0,0,0,0,0,-1,1546,1254,0,0
329,-230,0,0,0,0,0,0,0,0,0,-1,1553,1254,0,0
336,-230,0,0,0,0,0,0,0,0,0,-1,1560,1254,0,0
343,-230,0,0,0,0,0,0,0,0,0,-1,1567,1254,0,0
350,-230,0,0,0,0,0,0,0,0,0,-1,1574,1254,0,0
357,-230,0,0,0,0,0,0,0,0,0,-1,1581,1254,0,0
364,-230,0,0,0,0,0,0,0,0,0,-1,1588,1254,0,0
371,-230,0,0,0,0,0,0,0,0,0,-1,1595,1254,0,0
378,-230,0,0,0,0,0,0,0,0,0,-1,1602,1254,0,0
385,-230,0,0,0,0,0,0,0,0,0,-1,1609,1254,0,0
392,-230,0,0,0,0,0,0,0,0,0,-1,1616,1254,0,0
399,-230,0,0,0,0,0,0,0,0,0,-1,1623,1254,0,0
406,-230,0,0,0,0,0,0,0,0,0,-1,1630,1254,0,0
413,-230,0,0,0,0,0,0,0,0,0,-1,1637,1254,0,0
420,-230,0,0,0,0,0,0,0,0,0,-1,1644,1254,0,0
427,-230,0,0,0,0,0,0,0,0,0,-1,1651,1254,0,0
434,-230,0,0,0,0,0,0,0,0,0,-1,1658,1254,0,0
441,-230,0,0,0,0,0,0,0,0,0,-1,1665,1254,0,0
448,-230,0,0,0,0,0,0,0,0,0,-1,1672,1254,0,0
455,-230,0,0,0,0,0,0,0,0,0,-1,1679,1254,0,0
462,-230,0,0,0,0,0,0,0,0,0,-1,1686,1254,0,0
469,-230,0,0,0,0,0,0,0,0,0,-1,1693,1254,0,0
476,-230,0,0,0,0,0,0,0,0,0,-1,1700,1254,0,0
483,-230,0,0,0,0,0,0,0,0,0,-1,1707,1254,0,0
490,-230,0,0,0,0,0,0,0,0,0,-1,1714,1254,0,0
497,-230,0,0,0,0,0,0,0,0,0,-1,1721,1254,0,0
504,-230,0,0,0,0,0,0,0,0,0,-1,1728,1254,0,0
511,-230,0,0,0,0,0,0,0,0,0,-1,1735,1254,0,0
518,-230,0,0,0,0,0,0,0,0,0,-1,1742,1254,0,0
525,-230,0,0,0,0,0,0,0,0,0,-1,1749,1254,0,0
532,-230,0,0,0,0,0,0,0,0,0,-1,1756,1254,0,0
539,-230,0,0,0,0,0,0,0,0,0,-1,1763,1254,0,0
546,-230,0,0,0,0,0,0,0,0,0,-1,1770,1254,0,0
553,-230,0,0,0,0,0,0,0,0,0,-1,1777,1254,0,0
560,-230,0,0,0,0,0,0,0,0,0,-1,1784,1254,0,0
567,-230,0,0,0,0,0,0,0,0,0,-1,1791,1254,0,0
574,-230,0,0,0,0,0,0,0,0,0,-1,1798,1254,0,0
581,-230,0,0,0,0,0,0,0,0,0,-1,1805,1254,0,0
588,-230,0,0,0,0,0,0,0,0,0,-1,1812,1254,0,0
595,-230,0,0,0,0,0,0,0,0,0,-1,1819,1254,0,0
602,-230,0,0,0,0,0,0,0,0,0,-1,1826,1254,0,0
609,-230,0,0,0,0,0,0,0,0,0,-1,1833,1254,0,0
616,-230,0.0285645,0.130127,0.00167734,0.003468,0.000604924,0.0036532,0.00149214,1.2737,0.00212093,0.0336262,1840,1254,0.0286063,-0.130133
623,-230,-0.0626221,0.0367432,0.000663877,-0.00155649,0.000143118,0.000673064,-0.00156568,0.0641034,0.00132634,0.0318869,1847,1254,-0.0625937,-0.0367425
630,-230,-0.0581055,0.00292969,0.00038752,-0.00424972,-0.000234484,0.000399347,-0.00426155,-0.0503941,0.00298307,0.0274589,1854,1254,-0.0580842,-0.00293415
637,-230,-0.0327148,0.0213623,0.000861697,-0.00531697,-0.000326193,0.00087887,-0.00533414,-0.0525985,0.00388235,0.0219209,1861,1254,-0.0327405,-0.0213966
644,-230,-0.0742188,0.0148926,0.00143249,-0.00539535,-0.000306077,0.00144618,-0.00540904,-0.0447083,0.00417248,0.0160056,1868,1254,-0.0742041,-0.0149312
651,-230,-0.0843506,-0.0289307,0.001996,-0.00489881,-0.000172556,0.00200031,-0.00490313,-0.025006,0.00410148,0.0307114,1875,1254,-0.084396,0.0289127
658,-230,-0.217529,-0.332031,0.00248898,-0.00411504,4.92037e-06,0.00248899,-0.00411504,0.000745057,0.00385117,0.0413784,1882,1254,-0.217482,0.332068
665,-230,-0.340576,-0.619751,0,0,0,0,0,0,0,-1,1889,1254,-0.340609,0.61976
672,-230,-0.628052,-0.419067,0.00300425,-0.00225908,0.000346555,0.00302697,-0.0022818,0.0654665,0.00307507,0.0463034,1896,1254,-0.628042,0.419043
679,-230,-0.0218506,0.395264,0.00300343,-0.0013804,0.000563191,0.00307463,-0.0014516,0.12575,0.00266863,0.0417303,1903,1254,-0.0218115,-0.395221
686,-230,-0.00817871,0.116333,0.00276662,-0.000655386,0.000751881,0.00292454,-0.000813301,0.207018,0.00226989,0.0354365,1910,1254,-0.00818909,-0.116309
693,-230,-0.036499,0.0742188,0.00252302,-2.44986e-05,0.000786018,0.00274602,-0.000247498,0.276443,0.00191851,0.0149254,1917,1254,-0.0364525,-0.0742451
700,-230,-0.0405273,0.0689697,0.00208827,0.000517615,0.00078347,0.00241225,0.000193634,0.392107,0.00154767,0.0101163,1924,1254,-0.0405022,-0.0689325
707,-230,-0.0187988,0.0821533,0.00137755,0.000839934,0.000870065,0.00201938,0.000198097,0.635575,0.00128532,0.00878857,1931,1254,-0.0188527,-0.0821747
714,-230,-0.0255127,0.0878906,0.000379446,0.00116755,0.00100565,0.0018536,-0.000306598,0.972124,0.00134959,0.0117031,1938,1254,-0.0254704,-0.0878441
721,-230,-0.0369873,0.0762939,-0.000348218,0.00159327,0.00154905,0.00245061,-0.00120556,1.0653,0.0021513,0.0121099,1945,1254,-0.0369346,-0.0763477
728,-230,-0.0407715,0.0628662,-0.000673759,0.00126173,0.00198256,0.00250013,-0.00191215,1.01245,0.00255496,0.0124341,1952,1254,-0.0407691,-0.0628522
735,-230,-0.0338135,0.0759277,-0.00047345,0.00119507,0.0025192,0.00301456,-0.00229294,0.945295,0.00307371,0.0120784,1959,1254,-0.0338286,-0.0759036
742,-230,-0.0411377,0.081543,9.11018e-05,0.00165326,0.00306884,0.00403886,-0.00229449,0.910012,0.00370251,0.00949738,1966,1254,-0.0411242,-0.0815056
749,-230,-0.0334473,0.0512695,0.0010208,0.001984,0.00398865,0.00552002,-0.00251522,0.845479,0.00474604,0.00961144,1973,1254,-0.0334144,-0.0513233
756,-230,-0.0389404,0.0493164,0.00233303,0.00250743,0.00498774,0.00740873,-0.00256827,0.794139,0.00598193,0.0119786,1980,1254,-0.0390004,-0.049325
763,-230,-0.0384521,0.0318604,0.00419455,0.00308801,0.00595865,0.00962556,-0.00234301,0.739105,0.00732405,0.0222388,1987,1254,-0.0384911,-0.0318004
770,-230,0.174683,0.278931,0.00671739,0.00372195,0.00669208,0.0120773,-0.00163795,0.67531,0.00864937,0.0367245,1994,1254,0.174741,-0.278983
777,-230,-0.351196,0.656128,0.00990219,0.0044146,0.00691427,0.0145972,-0.000280391,0.596513,0.00982625,0.0454912,2001,1254,-0.351155,-0.656119
784,-230,0.381226,1.0553,0.0137041,0.00516621,0.00625584,0.0170087,0.00186155,0.485993,0.0107724,0.0446903,2008,1254,0.381179,-1.05533
791,-230,0.164673,0.362305,0.0178761,0.00596903,0.00425912,0.0192428,0.00460241,0.31049,0.0116027,0.0484138,2015,1254,0.164635,-0.362357
798,-230,0,0,0,0,0,0,0,0,0,-1,2022,1254,0,0
805,-230,0,0,0,0,0,0,0,0,0,-1,2029,1254,0,0
812,-230,0,0,0,0,0,0,0,0,0,-1,2036,1254,0,0
-700,-237,0,0,0,0,0,0,0,0,0,-1,524,1261,0,0
-693,-237,0,0,0,0,0,0,0,0,0,-1,531,1261,0,0
-686,-237,0,0,0,0,0,0,0,0,0,-1,538,1261,0,0
-679,-237,0,0,0,0,0,0,0,0,0,-1,545,1261,0,0
-672,-237,3.97412,-3.79016,0,0,0,0,0,0,0,-1,552,1261,3.97409,3.79019
-665,-237,3.46393,-3.23206,0,0,0,0,0,0,0,-1,559,1261,3.46392,3.23204
-658,-237,2.96344,-2.76917,0,0,0,0,0,0,0,-1,566,1261,2.96341,2.76919
-651,-237,2.50031,-2.22546,0,0,0,0,0,0,0,-1,573,1261,2.50033,2.22546
-644,-237,0.433044,-0.412354,0,0,0,0,0,0,0,-1,580,1261,0.433043,0.412404
-637,-237,0.295837,-0.299683,-0.0224927,0.0152254,0.0170067,0.021761,-0.0290284,1.2039,0.0294232,0.0486258,587,1261,0.295853,0.299743
-630,-237,0.160156,-0.195679,-0.0154099,0.0115393,0.0121406,0.0162019,-0.0200725,1.20411,0.0209827,0.0440854,594,1261,0.160166,0.195737
-623,-237,0.0478516,-0.0430908,-0.0101754,0.00851933,0.008467,0.011784,-0.01344,1.20279,0.0145736,0.0294617,601,1261,0.0478408,0.0430902
-616,-237,-0.0179443,0.0611572,-0.00653414,0.00622612,0.0059271,0.00855441,-0.00886243,1.19649,0.0100561,0.0148351,608,1261,-0.0179273,-0.0611583
-609,-237,-0.0255737,0.0718994,-0.00340837,0.0041722,0.00368381,0.00566744,-0.0049036,1.18522,0.0061085,0.0151523,615,1261,-0.0255786,-0.071903
-602,-237,-0.0285034,0.0583496,-0.00143117,0.00246955,0.00243102,0.00363588,-0.0025975,1.12346,0.00361545,0.0110114,622,1261,-0.028478,-0.0583404
-595,-237,-0.0313721,0.0690918,-0.000350152,0.00136219,0.00161812,0.00233669,-0.00132465,1.02873,0.00214062,0.0139312,629,1261,-0.0313848,-0.0690714
-588,-237,-0.0192261,0.0286865,-0.000477388,0.000821202,0.00147704,0.00178536,-0.00144154,0.992481,0.00186657,0.0238184,636,1261,-0.0192427,-0.0286742
-581,-237,-0.0239258,0.0065918,-0.000655103,0.000269483,0.00141386,0.00129471,-0.00168033,0.943406,0.00172244,0.023176,643,1261,-0.0239421,-0.00655206
-574,-237,-0.0269165,0.0408936,-0.000734303,0.000320785,0.00120903,0.00111235,-0.00152587,0.991115,0.00152941,0.0146369,650,1261,-0.0269444,-0.0409133
-567,-237,-0.0131226,0.0463867,-0.00105968,0.00133801,0.000980846,0.00168813,-0.0014098,1.22794,0.00179099,0.0124384,657,1261,-0.0131351,-0.0463692
-560,-237,-0.0299072,0.0457764,-0.00154244,0.00302994,0.000691393,0.0031322,-0.0016447,1.42396,0.00280216,0.0186325,664,1261,-0.029927,-0.04578
-553,-237,-0.0708008,0.0657959,-0.00160625,0.00426597,0.000344108,0.00428607,-0.00162635,1.51246,0.00352679,0.0399411,671,1261,-0.0708012,-0.0657658
-546,-237,-0.0626831,0.081543,-0.00135755,0.00545589,-0.000116059,0.00545787,-0.00135952,-1.55377,0.00416636,0.0488707,678,1261,-0.0627034,-0.0815467
-539,-237,-0.0662842,0.098877,0,0,0,0,0,0,0,-1,685,1261,-0.0662804,-0.0988933
-532,-237,0.169006,-0.347656,0,0,0,0,0,0,0,-1,692,1261,0.169032,0.347626
-525,-237,-0.0455933,0.0889893,0,0,0,0,0,0,0,-1,699,1261,-0.0455921,-0.0890112
-518,-237,0.168884,-0.272095,0.00234022,0.00893197,-0.00273408,0.00991839,0.00135381,-1.22455,0.00621037,0.0406342,706,1261,0.168889,0.272149
-511,-237,0.0355225,-0.03125,0.0043982,0.00749301,-0.00307002,0.00938355,0.00250766,-1.01883,0.00560986,0.038482,713,1261,0.0355225,0.0312032
-504,-237,-0.000549316,0.0495605,0.00718953,0.00341484,-0.00277135,0.00865516,0.00194921,-0.486461,0.00524258,0.0398404,720,1261,-0.000560339,-0.0496036
-497,-237,0.0219116,0.0167236,0.0101995,-0.00539793,-0.000651116,0.0102266,-0.00542506,-0.0416485,0.00917715,0.0441314,727,1261,0.0218987,-0.0167083
-490,-237,0,0,0,0,0,0,0,0,0,-1,734,1261,0,0
-483,-237,0,0,0,0,0,0,0,0,0,-1,741,1261,0,0
-476,-237,0,0,0,0,0,0,0,0,0,-1,748,1261,0,0
-469,-237,0,0,0,0,0,0,0,0,0,-1,755,1261,0,0
-462,-237,0,0,0,0,0,0,0,0,0,-1,762,1261,0,0
-455,-237,0,0,0,0,0,0,0,0,0,-1,769,1261,0,0
-448,-237,0,0,0,0,0,0,0,0,0,-1,776,1261,0,0
-441,-237,0,0,0,0,0,0,0,0,0,-1,783,1261,0,0
-434,-237,0,0,0,0,0,0,0,0,0,-1,790,1261,0,0
-427,-237,0,0,0,0,0,0,0,0,0,-1,797,1261,0,0
-420,-237,0,0,0,0,0,0,0,0,0,-1,804,1261,0,0
-413,-237,0,0,0,0,0,0,0,0,0,-1,811,1261,0,0
-406,-237,0,0,0,0,0,0,0,0,0,-1,818,1261,0,0
-399,-237,0,0,0,0,0,0,0,0,0,-1,825,1261,0,0
-392,-237,0,0,0,0,0,0,0,0,0,-1,832,1261,0,0
-385,-237,0,0,0,0,0,0,0,0,0,-1,839,1261,0,0
-378,-237,0,0,0,0,0,0,0,0,0,-1,846,1261,0,0
-371,-237,0,0,0,0,0,0,0,0,0,-1,853,1261,0,0
-364,-237,0,0,0,0,0,0,0,0,0,-1,860,1261,0,0
-357,-237,0,0,0,0,0,0,0,0,0,-1,867,1261,0,0
-350,-237,0,0,0,0,0,0,0,0,0,-1,874,1261,0,0
-343,-237,0,0,0,0,0,0,0,0,0,-1,881,1261,0,0
-336,-237,0,0,0,0,0,0,0,0,0,-1,888,1261,0,0
-329,-237,0,0,0,0,0,0,0,0,0,-1,895,1261,0,0
-322,-237,0,0,0,0,0,0,0,0,0,-1,902,1261,0,0
-315,-237,0,0,0,0,0,0,0,0,0,-1,909,1261,0,0
-308,-237,0,0,0,0,0,0,0,0,0,-1,916,1261,0,0
-301,-237,0,0,0,0,0,0,0,0,0,-1,923,1261,0,0
-294,-237,0,0,0,0,0,0,0,0,0,-1,930,1261,0,0
-287,-237,0,0,0,0,0,0,0,0,0,-1,937,1261,0,0
-280,-237,0,0,0,0,0,0,0,0,0,-1,944,1261,0,0
-273,-237,0,0,0,0,0,0,0,0,0,-1,951,1261,0,0
-266,-237,0,0,0,0,0,0,0,0,0,-1,958,1261,0,0
-259,-237,0,0,0,0,0,0,0,0,0,-1,965,1261,0,0
-252,-237,0,0,0,0,0,0,0,0,0,-1,972,1261,0,0
-245,-237,0,0,0,0,0,0,0,0,0,-1,979,1261,0,0
-238,-237,0,0,0,0,0,0,0,0,0,-1,986,1261,0,0
-231,-237,0,0,0,0,0,0,0,0,0,-1,993,1261,0,0
-224,-237,0,0,0,0,0,0,0,0,0,-1,1000,1261,0,0
-217,-237,0,0,0,0,0,0,0,0,0,-1,1007,1261,0,0
-210,-237,0,0,0,0,0,0,0,0,0,-1,1014,1261,0,0
-203,-237,0,0,0,0,0,0,0,0,0,-1,1021,1261,0,0
-196,-237,0,0,0,0,0,0,0,0,0,-1,1028,1261,0,0
-189,-237,0,0,0,0,0,0,0,0,0,-1,1035,1261,0,0
-182,-237,0,0,0,0,0,0,0,0,0,-1,1042,1261,0,0
-175,-237,0,0,0,0,0,0,0,0,0,-1,1049,1261,0,0
-168,-237,0,0,0,0,0,0,0,0,0,-1,1056,1261,0,0
-161,-237,0,0,0,0,0,0,0,0,0,-1,1063,1261,0,0
-154,-237,0,0,0,0,0,0,0,0,0,-1,1070,1261,0,0
-147,-237,0,0,0,0,0,0,0,0,0,-1,1077,1261,0,0
-140,-237,0,0,0,0,0,0,0,0,0,-1,1084,1261,0,0
-133,-237,0,0,0,0,0,0,0,0,0,-1,1091,1261,0,0
-126,-237,0,0,0,0,0,0,0,0,0,-1,1098,1261,0,0
-119,-237,0,0,0,0,0,0,0,0,0,-1,1105,1261,0,0
-112,-237,0,0,0,0,0,0,0,0,0,-1,1112,1261,0,0
-105,-237,0,0,0,0,0,0,0,0,0,-1,1119,1261,0,0
-98,-237,0,0,0,0,0,0,0,0,0,-1,1126,1261,0,0
-91,-237,0,0,0,0,0,0,0,0,0,-1,1133,1261,0,0
-84,-237,0,0,0,0,0,0,0,0,0,-1,1140,1261,0,0
-77,-237,0,0,0,0,0,0,0,0,0,-1,1147,1261,0,0
-70,-237,0,0,0,0,0,0,0,0,0,-1,1154,1261,0,0
-63,-237,0,0,0,0,0,0,0,0,0,-1,1161,1261,0,0
-56,-237,0,0,0,0,0,0,0,0,0,-1,1168,1261,0,0
-49,-237,0,0,0,0,0,0,0,0,0,-1,1175,1261,0,0
-42,-237,0,0,0,0,0,0,0,0,0,-1,1182,1261,0,0
-35,-237,0,0,0,0,0,0,0,0,0,-1,1189,1261,0,0
-28,-237,0,0,0,0,0,0,0,0,0,-1,1196,1261,0,0
-21,-237,0,0,0,0,0,0,0,0,0,-1,1203,1261,0,0
-14,-237,0,0,0,0,0,0,0,0,0,-1,1210,1261,0,0
-7,-237,0,0,0,0,0,0,0,0,0,-1,1217,1261,0,0
0,-237,0,0,0,0,0,0,0,0,0,-1,1224,1261,0,0
7,-237,0,0,0,0,0,0,0,0,0,-1,1231,1261,0,0
14,-237,0,0,0,0,0,0,0,0,0,-1,1238,1261,0,0
21,-237,0,0,0,0,0,0,0,0,0,-1,1245,1261,0,0
28,-237,0,0,0,0,0,0,0,0,0,-1,1252,1261,0,0
35,-237,0,0,0,0,0,0,0,0,0,-1,1259,1261,0,0
42,-237,0,0,0,0,0,0,0,0,0,-1,1266,1261,0,0
49,-237,0,0,0,0,0,0,0,0,0,-1,1273,1261,0,0
56,-237,0,0,0,0,0,0,0,0,0,-1,1280,1261,0,0
63,-237,0,0,0,0,0,0,0,0,0,-1,1287,1261,0,0
70,-237,0,0,0,0,0,0,0,0,0,-1,1294,1261,0,0
77,-237,0,0,0,0,0,0,0,0,0,-1,1301,1261,0,0
84,-237,0,0,0,0,0,0,0,0,0,-1,1308,1261,0,0
91,-237,0,0,0,0,0,0,0,0,0,-1,1315,1261,0,0
98,-237,0,0,0,0,0,0,0,0,0,-1,1322,1261,0,0
105,-237,0,0,0,0,0,0,0,0,0,-1,1329,1261,0,0
112,-237,0,0,0,0,0,0,0,0,0,-1,1336,1261,0,0
119,-237,0,0,0,0,0,0,0,0,0,-1,1343,1261,0,0
126,-237,0,0,0,0,0,0,0,0,0,-1,1350,1261,0,0
133,-237,0,0,0,0,0,0,0,0,0,-1,1357,1261,0,0
140,-237,0,0,0,0,0,0,0,0,0,-1,1364,1261,0,0
147,-237,0,0,0,0,0,0,0,0,0,-1,1371,1261,0,0
154,-237,0,0,0,0,0,0,0,0,0,-1,1378,1261,0,0
161,-237,0,0,0,0,0,0,0,0,0,-1,1385,1261,0,0
168,-237,0,0,0,0,0,0,0,0,0,-1,1392,1261,0,0
175,-237,0,0,0,0,0,0,0,0,0,-1,1399,1261,0,0
182,-237,0,0,0,0,0,0,0,0,0,-1,1406,1261,0,0
189,-237,0,0,0,0,0,0,0,0,0,-1,1413,1261,0,0
196,-237,0,0,0,0,0,0,0,0,0,-1,1420,1261,0,0
203,-237,0,0,0,0,0,0,0,0,0,-1,1427,1261,0,0
210,-237,0,0,0,0,0,0,0,0,0,-1,1434,1261,0,0
217,-237,0,0,0,0,0,0,0,0,0,-1,1441,1261,0,0
224,-237,0,0,0,0,0,0,0,0,0,-1,1448,1261,0,0
231,-237,0,0,0,0,0,0,0,0,0,-1,1455,1261,0,0
238,-237,0,0,0,0,0,0,0,0,0,-1,1462,1261,0,0
245,-237,0,0,0,0,0,0,0,0,0,-1,1469,1261,0,0
252,-237,0,0,0,0,0,0,0,0,0,-1,1476,1261,0,0
259,-237,0,0,0,0,0,0,0,0,0,-1,1483,1261,0,0
266,-237,0,0,0,0,0,0,0,0,0,-1,1490,1261,0,0
273,-237,0,0,0,0,0,0,0,0,0,-1,1497,1261,0,0
280,-237,0,0,0,0,0,0,0,0,0,-1,1504,1261,0,0
287,-237,0,0,0,0,0,0,0,0,0,-1,1511,1261,0,0
294,-237,0,0,0,0,0,0,0,0,0,-1,1518,1261,0,0
301,-237,0,0,0,0,0,0,0,0,0,-1,1525,1261,0,0
308,-237,0,0,0,0,0,0,0,0,0,-1,1532,1261,0,0
315,-237,0,0,0,0,0,0,0,0,0,-1,1539,1261,0,0
322,-237,0,0,0,0,0,0,0,0,0,-1,1546,1261,0,0
329,-237,0,0,0,0,0,0,0,0,0,-1,1553,1261,0,0
336,-237,0,0,0,0,0,0,0,0,0,-1,1560,1261,0,0
343,-237,0,0,0,0,0,0,0,0,0,-1,1567,1261,0,0
350,-237,0,0,0,0,0,0,0,0,0,-1,1574,1261,0,0
357,-237,0,0,0,0,0,0,0,0,0,-1,1581,1261,0,0
364,-237,0,0,0,0,0,0,0,0,0,-1,1588,1261,0,0
371,-237,0,0,0,0,0,0,0,0,0,-1,1595,1261,0,0
378,-237,0,0,0,0,0,0,0,0,0,-1,1602,1261,0,0
385,-237,0,0,0,0,0,0,0,0,0,-1,1609,1261,0,0
392,-237,0,0,0,0,0,0,0,0,0,-1,1616,1261,0,0
399,-237,0,0,0,0,0,0,0,0,0,-1,1623,1261,0,0
406,-237,0,0,0,0,0,0,0,0,0,-1,1630,1261,0,0
413,-237,0,0,0,0,0,0,0,0,0,-1,1637,1261,0,0
420,-237,0,0,0,0,0,0,0,0,0,-1,1644,1261,0,0
427,-237,0,0,0,0,0,0,0,0,0,-1,1651,1261,0,0
434,-237,0,0,0,0,0,0,0,0,0,-1,1658,1261,0,0
441,-237,0,0,0,0,0,0,0,0,0,-1,1665,1261,0,0
448,-237,0,0,0,0,0,0,0,0,0,-1,1672,1261,0,0
455,-237,0,0,0,0,0,0,0,0,0,-1,1679,1261,0,0
462,-237,0,0,0,0,0,0,0,0,0,-1,1686,1261,0,0
469,-237,0,0,0,0,0,0,0,0,0,-1,1693,1261,0,0
476,-237,0,0,0,0,0,0,0,0,0,-1,1700,1261,0,0
483,-237,0,0,0,0,0,0,0,0,0,-1,1707,1261,0,0
490,-237,0,0,0,0,0,0,0,0,0,-1,1714,1261,0,0
497,-237,0,0,0,0,0,0,0,0,0,-1,1721,1261,0,0
504,-237,0,0,0,0,0,0,0,0,0,-1,1728,1261,0,0
511,-237,0,0,0,0,0,0,0,0,0,-1,1735,1261,0,0
518,-237,0,0,0,0,0,0,0,0,0,-1,1742,1261,0,0
525,-237,0,0,0,0,0,0,0,0,0,-1,1749,1261,0,0
532,-237,0,0,0,0,0,0,0,0,0,-1,1756,1261,0,0
539,-237,0,0,0,0,0,0,0,0,0,-1,1763,1261,0,0
546,-237,0,0,0,0,0,0,0,0,0,-1,1770,1261,0,0
553,-237,0,0,0,0,0,0,0,0,0,-1,1777,1261,0,0
560,-237,0,0,0,0,0,0,0,0,0,-1,1784,1261,0,0
567,-237,0,0,0,0,0,0,0,0,0,-1,1791,1261,0,0
574,-237,0,0,0,0,0,0,0,0,0,-1,1798,1261,0,0
581,-237,0,0,0,0,0,0,0,0,0,-1,1805,1261,0,0
588,-237,0,0,0,0,0,0,0,0,0,-1,1812,1261,0,0
595,-237,0,0,0,0,0,0,0,0,0,-1,1819,1261,0,0
602,-237,0,0,0,0,0,0,0,0,0,-1,1826,1261,0,0
609,-237,0,0,0,0,0,0,0,0,0,-1,1833,1261,0,0
616,-237,0.0500488,0.0679932,0.00265797,0.00029524,0.00074157,0.00287144,8.17754e-05,0.280278,0.00188762,0.0311618,1840,1261,0.0500705,-0.0680231
623,-237,-0.0126953,0.0424805,0.00137474,-0.00414354,0.000270264,0.00138794,-0.00415674,0.0488204,0.00333161,0.02867,1847,1261,-0.0127069,-0.0425004
630,-237,-0.0314941,0.0128174,0.000627524,-0.00632868,-0.000261194,0.000637317,-0.00633848,-0.0374781,0.00445332,0.0227407,1854,1261,-0.0315084,-0.0127871
637,-237,-0.0495605,0.0404053,0.000543848,-0.00700559,-0.000574694,0.000587345,-0.00704909,-0.0755439,0.00490691,0.0164155,1861,1261,-0.0495165,-0.0404262
644,-237,-0.0526123,0.0958252,0.000675618,-0.00679665,-0.000755693,0.000751277,-0.00687231,-0.0997867,0.00485139,0.0302481,1868,1261,-0.0525725,-0.0958218
651,-237,-0.146362,0.0823975,0.000995251,-0.00604756,-0.000773904,0.00107929,-0.0061316,-0.108166,0.00449094,0.0432171,1875,1261,-0.146389,-0.0823952
658,-237,-0.319458,0.13916,0.00136614,-0.00507256,-0.00070297,0.001442,-0.00514842,-0.107492,0.00400053,0.0487886,1882,1261,-0.319402,-0.139183
665,-237,-0.321533,-0.0266113,0.00166269,-0.00395404,-0.000614874,0.00172922,-0.00402056,-0.107771,0.00340637,0.0465708,1889,1261,-0.321534,0.0266709
672,-237,-0.368774,-0.0963135,0.00192199,-0.00283247,-0.000430948,0.00196073,-0.00287122,-0.0896671,0.00280619,0.0416489,1896,1261,-0.368728,0.0963265
679,-237,-0.0341797,0.150146,0.00204361,-0.00177112,-0.000170225,0.00205119,-0.0017787,-0.0445051,0.00221305,0.0381037,1903,1261,-0.0341977,-0.150168
686,-237,-0.0441895,0.0982666,0.00199025,-0.000905855,8.20794e-05,0.00199258,-0.000908179,0.028311,0.00171332,0.0263549,1910,1261,-0.0442074,-0.098223
693,-237,-0.0578613,0.0574951,0.00197166,-0.000168647,0.000182843,0.00198717,-0.000184154,0.0846115,0.00139024,0.0128205,1917,1261,-0.0578952,-0.0574787
700,-237,-0.060791,0.0529785,0.00168885,0.000479086,0.000281314,0.00175107,0.00041687,0.217659,0.00105621,0.010774,1924,1261,-0.0608518,-0.0529376
707,-237,-0.0478516,0.0725098,0.00104625,0.000861947,0.000503095,0.00146557,0.000442636,0.694815,0.000867973,0.00941821,1931,1261,-0.0479066,-0.0724886
714,-237,-0.052124,0.0827637,0.000108702,0.00129229,0.000782,0.00168118,-0.000280189,1.10931,0.00122491,0.0119214,1938,1261,-0.0520776,-0.0827944
721,-237,-0.0731201,0.0662842,-0.000471386,0.00176141,0.00148482,0.00250271,-0.00121269,1.10775,0.00218776,0.0131192,1945,1261,-0.0731788,-0.0662734
728,-237,-0.0412598,0.0717773,-0.000767969,0.00154673,0.00206889,0.00275998,-0.00198122,1.04042,0.00274962,0.0125967,1952,1261,-0.0412851,-0.0717665
735,-237,-0.0350342,0.0838623,-0.000585117,0.00168325,0.00272389,0.00349965,-0.00240152,0.982673,0.00342664,0.0166911,1959,1261,-0.0350801,-0.0838739
742,-237,-0.0592041,0.0734863,-2.28954e-05,0.00240334,0.00335855,0.00476115,-0.0023807,0.958709,0.004199,0.0128752,1966,1261,-0.0592393,-0.0734741
749,-237,-0.0682373,0.0718994,0.000905612,0.00308872,0.00440251,0.00653297,-0.00253864,0.906917,0.00540408,0.00909171,1973,1261,-0.0681787,-0.0718824
756,-237,-0.0718994,0.0559082,0.00231919,0.00405121,0.00554206,0.00879452,-0.00242412,0.862902,0.00681628,0.01297,1980,1261,-0.0718459,-0.055879
763,-237,-0.0865479,-0.0115967,0.00442055,0.00519125,0.00664189,0.011459,-0.00184716,0.814375,0.00832362,0.0273011,1987,1261,-0.0865848,0.0116103
770,-237,0.052124,-0.202271,0.00732824,0.0065372,0.00747838,0.0144216,-0.000556115,0.758978,0.009805,0.0389558,1994,1261,0.0520926,0.202224
777,-237,-0.414917,1.08777,0,0,0,0,0,0,0,-1,2001,1261,-0.414903,-1.08778
784,-237,0.0183105,0.362183,0.0157143,0.0100274,0.0070044,0.0204304,0.00531129,0.592584,0.0122402,0.0419124,2008,1261,0.0182532,-0.362183
791,-237,0.136108,-0.0775146,0.0209895,0.012285,0.00470282,0.0230449,0.0102295,0.412047,0.0133329,0.0420187,2015,1261,0.136078,0.0775115
798,-237,0,0,0,0,0,0,0,0,0,-1,2022,1261,0,0
805,-237,0,0,0,0,0,0,0,0,0,-1,2029,1261,0,0
812,-237,0,0,0,0,0,0,0,0,0,-1,2036,1261,0,0
-700,-244,0,0,0,0,0,0,0,0,0,-1,524,1268,0,0
-693,-244,0,0,0,0,0,0,0,0,0,-1,531,1268,0,0
-686,-244,0,0,0,0,0,0,0,0,0,-1,538,1268,0,0
-679,-244,0,0,0,0,0,0,0,0,0,-1,545,1268,0,0
-672,-244,3.34888,-4.43372,0,0,0,0,0,0,0,-1,552,1268,3.3489,4.43376
-665,-244,3.01672,-3.82764,-0.0721688,0.0423988,0.0625894,0.0699611,-0.0997311,1.15598,0.0984731,0.046486,559,1268,3.01674,3.82762
-658,-244,2.48999,-3.19568,-0.0576144,0.036043,0.0505102,0.0580925,-0.0796639,1.1592,0.0798581,0.0437032,566,1268,2.49001,3.19567
-651,-244,1.83136,-2.39465,-0.0443558,0.0295659,0.0394235,0.046645,-0.0614349,1.16198,0.0625944,0.0454753,573,1268,1.83134,2.39468
-644,-244,1.45422,-1.54431,0,0,0,0,0,0,0,-1,580,1268,1.4542,1.54427
-637,-244,0.810791,-0.82373,-0.0235454,0.0181953,0.0219935,0.0276447,-0.0329948,1.165,0.0350556,0.0443173,587,1268,0.810782,0.823736
-630,-244,0.201233,-0.318115,-0.0161836,0.0137102,0.0157947,0.0205092,-0.0229826,1.16431,0.0251235,0.0424735,594,1268,0.201215,0.318125
-623,-244,0.0441895,-0.097168,-0.0107231,0.0100798,0.0111047,0.0148936,-0.0155369,1.16175,0.0175704,0.0328043,601,1268,0.0441781,0.0971172
-616,-244,-0.0396118,0.0825195,-0.00691761,0.00731848,0.0078039,0.010763,-0.0103621,1.15513,0.0121973,0.0176623,608,1268,-0.0396271,-0.0825365
-609,-244,-0.0475464,0.0682373,-0.00383352,0.00492576,0.00499107,0.0071863,-0.00609406,1.14552,0.00767606,0.0144759,615,1268,-0.0475702,-0.0682897
-602,-244,-0.0484619,0.0582275,-0.00178627,0.00297907,0.00328818,0.00465709,-0.00346429,1.09893,0.00470571,0.0146783,622,1268,-0.0484597,-0.0582443
-595,-244,-0.0601807,0.0640869,-0.000639715,0.00176743,0.00216952,0.00304487,-0.00191715,1.03864,0.00288938,0.0145878,629,1268,-0.0601992,-0.0641102
-588,-244,-0.0304565,0.0731201,-0.00076076,0.00122841,0.00187039,0.00235221,-0.00188456,1.02976,0.00245107,0.0177436,636,1268,-0.030459,-0.0731089
-581,-244,-0.020813,0.0687256,-0.000855267,0.000750691,0.00160247,0.00174011,-0.00184469,1.01766,0.00206998,0.0161936,643,1268,-0.0207983,-0.0687175
-574,-244,-0.0297241,0.0700684,-0.000782138,0.000941409,0.00117072,0.00153333,-0.00137406,1.10267,0.00167942,0.0128288,650,1268,-0.029706,-0.0701053
-567,-244,-0.0263672,0.0598145,-0.000987336,0.00222098,0.000755212,0.00238986,-0.00115622,1.35079,0.00208822,0.00940151,657,1268,-0.0263751,-0.0597655
-560,-244,-0.0414429,0.0561523,-0.00137667,0.0043139,0.000324341,0.00433233,-0.0013951,1.51405,0.00344863,0.0107764,664,1268,-0.0414732,-0.056164
-553,-244,-0.0943604,0.0963135,-0.00129544,0.00588898,-0.000167583,0.00589289,-0.00129935,-1.54749,0.00442575,0.0306438,671,1268,-0.094348,-0.0962839
-546,-244,-0.0328979,0.0844727,0,0,0,0,0,0,0,-1,678,1268,-0.0328913,-0.0844836
-539,-244,-0.69165,1.00562,0,0,0,0,0,0,0,-1,685,1268,-0.691652,-1.00564
-532,-244,-0.801941,0.996704,0,0,0,0,0,0,0,-1,692,1268,-0.801959,-0.996649
-525,-244,0.0830688,-0.0428467,0,0,0,0,0,0,0,-1,699,1268,0.0830561,0.0429063
-518,-244,-2.09955,2.67334,0,0,0,0,0,0,0,-1,706,1268,-2.09953,-2.67337
-511,-244,0.133911,-0.182983,0.00593894,0.00898131,-0.00291634,0.0107494,0.00417089,-1.02579,0.00625782,0.0412968,713,1268,0.133923,0.182938
-504,-244,0.0252686,0.0637207,0.00863317,0.00461408,-0.00216332,0.00957629,0.00367096,-0.411117,0.00557882,0.0415859,720,1268,0.0252821,-0.0637746
-497,-244,0.12561,-0.00561523,0.0116279,-0.00410154,0.000147873,0.0116293,-0.00410293,0.00939993,0.00942311,0.0452897,727,1268,0.125622,0.00566627
-490,-244,0,0,0,0,0,0,0,0,0,-1,734,1268,0,0
-483,-244,0,0,0,0,0,0,0,0,0,-1,741,1268,0,0
-476,-244,0,0,0,0,0,0,0,0,0,-1,748,1268,0,0
-469,-244,0,0,0,0,0,0,0,0,0,-1,755,1268,0,0
-462,-244,0,0,0,0,0,0,0,0,0,-1,762,1268,0,0
-455,-244,0,0,0,0,0,0,0,0,0,-1,769,1268,0,0
-448,-244,0,0,0,0,0,0,0,0,0,-1,776,1268,0,0
-441,-244,0,0,0,0,0,0,0,0,0,-1,783,1268,0,0
-434,-244,0,0,0,0,0,0,0,0,0,-1,790,1268,0,0
-427,-244,0,0,0,0,0,0,0,0,0,-1,797,1268,0,0
-420,-244,0,0,0,0,0,0,0,0,0,-1,804,1268,0,0
-413,-244,0,0,0,0,0,0,0,0,0,-1,811,1268,0,0
-406,-244,0,0,0,0,0,0,0,0,0,-1,818,1268,0,0
-399,-244,0,0,0,0,0,0,0,0,0,-1,825,1268,0,0
-392,-244,0,0,0,0,0,0,0,0,0,-1,832,1268,0,0
-385,-244,0,0,0,0,0,0,0,0,0,-1,839,1268,0,0
-378,-244,0,0,0,0,0,0,0,0,0,-1,846,1268,0,0
-371,-244,0,0,0,0,0,0,0,0,0,-1,853,1268,0,0
-364,-244,0,0,0,0,0,0,0,0,0,-1,860,1268,0,0
-357,-244,0,0,0,0,0,0,0,0,0,-1,867,1268,0,0
-350,-244,0,0,0,0,0,0,0,0,0,-1,874,1268,0,0
-343,-244,0,0,0,0,0,0,0,0,0,-1,881,1268,0,0
-336,-244,0,0,0,0,0,0,0,0,0,-1,888,1268,0,0
-329,-244,0,0,0,0,0,0,0,0,0,-1,895,1268,0,0
-322,-244,0,0,0,0,0,0,0,0,0,-1,902,1268,0,0
-315,-244,0,0,0,0,0,0,0,0,0,-1,909,1268,0,0
-308,-244,0,0,0,0,0,0,0,0,0,-1,916,1268,0,0
-301,-244,0,0,0,0,0,0,0,0,0,-1,923,1268,0,0
-294,-244,0,0,0,0,0,0,0,0,0,-1,930,1268,0,0
-287,-244,0,0,0,0,0,0,0,0,0,-1,937,1268,0,0
-280,-244,0,0,0,0,0,0,0,0,0,-1,944,1268,0,0
-273,-244,0,0,0,0,0,0,0,0,0,-1,951,1268,0,0
-266,-244,0,0,0,0,0,0,0,0,0,-1,958,1268,0,0
-259,-244,0,0,0,0,0,0,0,0,0,-1,965,1268,0,0
-252,-244,0,0,0,0,0,0,0,0,0,-1,972,1268,0,0
-245,-244,0,0,0,0,0,0,0,0,0,-1,979,1268,0,0
-238,-244,0,0,0,0,0,0,0,0,0,-1,986,1268,0,0
-231,-244,0,0,0,0,0,0,0,0,0,-1,993,1268,0,0
-224,-244,0,0,0,0,0,0,0,0,0,-1,1000,1268,0,0
-217,-244,0,0,0,0,0,0,0,0,0,-1,1007,1268,0,0
-210,-244,0,0,0,0,0,0,0,0,0,-1,1014,1268,0,0
-203,-244,0,0,0,0,0,0,0,0,0,-1,1021,1268,0,0
-196,-244,0,0,0,0,0,0,0,0,0,-1,1028,1268,0,0
-189,-244,0,0,0,0,0,0,0,0,0,-1,1035,1268,0,0
-182,-244,0,0,0,0,0,0,0,0,0,-1,1042,1268,0,0
-175,-244,0,0,0,0,0,0,0,0,0,-1,1049,1268,0,0
-168,-244,0,0,0,0,0,0,0,0,0,-1,1056,1268,0,0
-161,-244,0,0,0,0,0,0,0,0,0,-1,1063,1268,0,0
-154,-244,0,0,0,0,0,0,0,0,0,-1,1070,1268,0,0
-147,-244,0,0,0,0,0,0,0,0,0,-1,1077,1268,0,0
-140,-244,0,0,0,0,0,0,0,0,0,-1,1084,1268,0,0
-133,-244,0,0,0,0,0,0,0,0,0,-1,1091,1268,0,0
-126,-244,0,0,0,0,0,0,0,0,0,-1,1098,1268,0,0
-119,-244,0,0,0,0,0,0,0,0,0,-1,1105,1268,0,0
-112,-244,0,0,0,0,0,0,0,0,0,-1,1112,1268,0,0
-105,-244,0,0,0,0,0,0,0,0,0,-1,1119,1268,0,0
-98,-244,0,0,0,0,0,0,0,0,0,-1,1126,1268,0,0
-91,-244,0,0,0,0,0,0,0,0,0,-1,1133,1268,0,0
-84,-244,0,0,0,0,0,0,0,0,0,-1,1140,1268,0,0
-77,-244,0,0,0,0,0,0,0,0,0,-1,1147,1268,0,0
-70,-244,0,0,0,0,0,0,0,0,0,-1,1154,1268,0,0
-63,-244,0,0,0,0,0,0,0,0,0,-1,1161,1268,0,0
-56,-244,0,0,0,0,0,0,0,0,0,-1,1168,1268,0,0
-49,-244,0,0,0,0,0,0,0,0,0,-1,1175,1268,0,0
-42,-244,0,0,0,0,0,0,0,0,0,-1,1182,1268,0,0
-35,-244,0,0,0,0,0,0,0,0,0,-1,1189,1268,0,0
-28,-244,0,0,0,0,0,0,0,0,0,-1,1196,1268,0,0
-21,-244,0,0,0,0,0,0,0,0,0,-1,1203,1268,0,0
-14,-244,0,0,0,0,0,0,0,0,0,-1,1210,1268,0,0
-7,-244,0,0,0,0,0,0,0,0,0,-1,1217,1268,0,0
0,-244,0,0,0,0,0,0,0,0,0,-1,1224,1268,0,0
7,-244,0,0,0,0,0,0,0,0,0,-1,1231,1268,0,0
14,-244,0,0,0,0,0,0,0,0,0,-1,1238,1268,0,0
21,-244,0,0,0,0,0,0,0,0,0,-1,1245,1268,0,0
28,-244,0,0,0,0,0,0,0,0,0,-1,1252,1268,0,0
35,-244,0,0,0,0,0,0,0,0,0,-1,1259,1268,0,0
42,-244,0,0,0,0,0,0,0,0,0,-1,1266,1268,0,0
49,-244,0,0,0,0,0,0,0,0,0,-1,1273,1268,0,0
56,-244,0,0,0,0,0,0,0,0,0,-1,1280,1268,0,0
63,-244,0,0,0,0,0,0,0,0,0,-1,1287,1268,0,0
70,-244,0,0,0,0,0,0,0,0,0,-1,1294,1268,0,0
77,-244,0,0,0,0,0,0,0,0,0,-1,1301,1268,0,0
84,-244,0,0,0,0,0,0,0,0,0,-1,1308,1268,0,0
91,-244,0,0,0,0,0,0,0,0,0,-1,1315,1268,0,0
98,-244,0,0,0,0,0,0,0,0,0,-1,1322,1268,0,0
105,-244,0,0,0,0,0,0,0,0,0,-1,1329,1268,0,0
112,-244,0,0,0,0,0,0,0,0,0,-1,1336,1268,0,0
119,-244,0,0,0,0,0,0,0,0,0,-1,1343,1268,0,0
126,-244,0,0,0,0,0,0,0,0,0,-1,1350,1268,0,0
133,-244,0,0,0,0,0,0,0,0,0,-1,1357,1268,0,0
140,-244,0,0,0,0,0,0,0,0,0,-1,1364,1268,0,0
147,-244,0,0,0,0,0,0,0,0,0,-1,1371,1268,0,0
154,-244,0,0,0,0,0,0,0,0,0,-1,1378,1268,0,0
161,-244,0,0,0,0,0,0,0,0,0,-1,1385,1268,0,0
168,-244,0,0,0,0,0,0,0,0,0,-1,1392,1268,0,0
175,-244,0,0,0,0,0,0,0,0,0,-1,1399,1268,0,0
182,-244,0,0,0,0,0,0,0,0,0,-1,1406,1268,0,0
189,-244,0,0,0,0,0,0,0,0,0,-1,1413,1268,0,0
196,-244,0,0,0,0,0,0,0,0,0,-1,1420,1268,0,0
203,-244,0,0,0,0,0,0,0,0,0,-1,1427,1268,0,0
210,-244,0,0,0,0,0,0,0,0,0,-1,1434,1268,0,0
217,-244,0,0,0,0,0,0,0,0,0,-1,1441,1268,0,0
224,-244,0,0,0,0,0,0,0,0,0,-1,1448,1268,0,0
231,-244,0,0,0,0,0,0,0,0,0,-1,1455,1268,0,0
238,-244,0,0,0,0,0,0,0,0,0,-1,1462,1268,0,0
245,-244,0,0,0,0,0,0,0,0,0,-1,1469,1268,0,0
252,-244,0,0,0,0,0,0,0,0,0,-1,1476,1268,0,0
259,-244,0,0,0,0,0,0,0,0,0,-1,1483,1268,0,0
266,-244,0,0,0,0,0,0,0,0,0,-1,1490,1268,0,0
273,-244,0,0,0,0,0,0,0,0,0,-1,1497,1268,0,0
280,-244,0,0,0,0,0,0,0,0,0,-1,1504,1268,0,0
287,-244,0,0,0,0,0,0,0,0,0,-1,1511,1268,0,0
294,-244,0,0,0,0,0,0,0,0,0,-1,1518,1268,0,0
301,-244,0,0,0,0,0,0,0,0,0,-1,1525,1268,0,0
308,-244,0,0,0,0,0,0,0,0,0,-1,1532,1268,0,0
315,-244,0,0,0,0,0,0,0,0,0,-1,1539,1268,0,0
322,-244,0,0,0,0,0,0,0,0,0,-1,1546,1268,0,0
329,-244,0,0,0,0,0,0,0,0,0,-1,1553,1268,0,0
336,-244,0,0,0,0,0,0,0,0,0,-1,1560,1268,0,0
343,-244,0,0,0,0,0,0,0,0,0,-1,1567,1268,0,0
350,-244,0,0,0,0,0,0,0,0,0,-1,1574,1268,0,0
357,-244,0,0,0,0,0,0,0,0,0,-1,1581,1268,0,0
364,-244,0,0,0,0,0,0,0,0,0,-1,1588,1268,0,0
371,-244,0,0,0,0,0,0,0,0,0,-1,1595,1268,0,0
378,-244,0,0,0,0,0,0,0,0,0,-1,1602,1268,0,0
385,-244,0,0,0,0,0,0,0,0,0,-1,1609,1268,0,0
392,-244,0,0,0,0,0,0,0,0,0,-1,1616,1268,0,0
399,-244,0,0,0,0,0,0,0,0,0,-1,1623,1268,0,0
406,-244,0,0,0,0,0,0,0,0,0,-1,1630,1268,0,0
413,-244,0,0,0,0,0,0,0,0,0,-1,1637,1268,0,0
420,-244,0,0,0,0,0,0,0,0,0,-1,1644,1268,0,0
427,-244,0,0,0,0,0,0,0,0,0,-1,1651,1268,0,0
434,-244,0,0,0,0,0,0,0,0,0,-1,1658,1268,0,0
441,-244,0,0,0,0,0,0,0,0,0,-1,1665,1268,0,0
448,-244,0,0,0,0,0,0,0,0,0,-1,1672,1268,0,0
455,-244,0,0,0,0,0,0,0,0,0,-1,1679,1268,0,0
462,-244,0,0,0,0,0,0,0,0,0,-1,1686,1268,0,0
469,-244,0,0,0,0,0,0,0,0,0,-1,1693,1268,0,0
476,-244,0,0,0,0,0,0,0,0,0,-1,1700,1268,0,0
483,-244,0,0,0,0,0,0,0,0,0,-1,1707,1268,0,0
490,-244,0,0,0,0,0,0,0,0,0,-1,1714,1268,0,0
497,-244,0,0,0,0,0,0,0,0,0,-1,1721,1268,0,0
504,-244,0,0,0,0,0,0,0,0,0,-1,1728,1268,0,0
511,-244,0,0,0,0,0,0,0,0,0,-1,1735,1268,0,0
518,-244,0,0,0,0,0,0,0,0,0,-1,1742,1268,0,0
525,-244,0,0,0,0,0,0,0,0,0,-1,1749,1268,0,0
532,-244,0,0,0,0,0,0,0,0,0,-1,1756,1268,0,0
539,-244,0,0,0,0,0,0,0,0,0,-1,1763,1268,0,0
546,-244,0,0,0,0,0,0,0,0,0,-1,1770,1268,0,0
553,-244,0,0,0,0,0,0,0,0,0,-1,1777,1268,0,0
560,-244,0,0,0,0,0,0,0,0,0,-1,1784,1268,0,0
567,-244,0,0,0,0,0,0,0,0,0,-1,1791,1268,0,0
574,-244,0,0,0,0,0,0,0,0,0,-1,1798,1268,0,0
581,-244,0,0,0,0,0,0,0,0,0,-1,1805,1268,0,0
588,-244,0,0,0,0,0,0,0,0,0,-1,1812,1268,0,0
595,-244,0,0,0,0,0,0,0,0,0,-1,1819,1268,0,0
602,-244,0,0,0,0,0,0,0,0,0,-1,1826,1268,0,0
609,-244,0,0,0,0,0,0,0,0,0,-1,1833,1268,0,0
616,-244,-0.0167236,0.00878906,0.00321473,-0.00176775,0.000716959,0.00331584,-0.00186886,0.14011,0.003032,0.029748,1840,1268,-0.0167074,-0.00877779
623,-244,-0.0389404,0.0679932,0.000846767,-0.00525326,7.22424e-05,0.000847623,-0.00525411,0.0118408,0.00381678,0.0248098,1847,1268,-0.0389873,-0.068047
630,-244,0.00427246,0.115356,-0.000644264,-0.0069355,-0.000613162,-0.00058506,-0.0069947,-0.096256,0.00448086,0.0217857,1854,1268,0.00422575,-0.115375
637,-244,0.00366211,0.167847,-0.00125869,-0.00739854,-0.00106937,-0.00107776,-0.00757946,-0.167597,0.00473478,0.0328161,1861,1268,0.00360284,-0.167809
644,-244,-0.00964355,0.198364,-0.00140359,-0.00713444,-0.0013649,-0.00109512,-0.00744291,-0.222268,0.00464018,0.0379167,1868,1268,-0.00964843,-0.198389
651,-244,-0.172852,0.199585,0,0,0,0,0,0,0,-1,1875,1268,-0.172886,-0.199546
658,-244,-0.569946,0.577637,-0.000783019,-0.00540293,-0.00144744,-0.000366993,-0.00581896,-0.279878,0.00376294,0.0456071,1882,1268,-0.56989,-0.577669
665,-244,-0.150513,0.446655,-0.000384686,-0.0042733,-0.00139785,6.56473e-05,-0.00472363,-0.311663,0.0031712,0.0463411,1889,1268,-0.150523,-0.446639
672,-244,0.101807,0.172363,0,0,0,0,0,0,0,-1,1896,1268,0.10176,-0.172351
679,-244,0.0169678,0.129395,0.000414707,-0.00203785,-0.000929257,0.000727024,-0.00235017,-0.324233,0.00185718,0.0356204,1903,1268,0.0169227,-0.12942
686,-244,-0.0759277,0.0792236,0.000728934,-0.0010811,-0.000573151,0.000895158,-0.00124733,-0.282274,0.00124252,0.0182753,1910,1268,-0.0759157,-0.0792357
693,-244,-0.0770264,0.0662842,0.000982143,-0.000253092,-0.000416962,0.00110972,-0.000380665,-0.296914,0.00089413,0.00901536,1917,1268,-0.0770636,-0.0662563
700,-244,-0.0709229,0.0623779,0.000910286,0.00048485,-0.000225102,0.00100728,0.000387858,-0.406838,0.000586652,0.00839786,1924,1268,-0.0709358,-0.0623209
707,-244,-0.0690918,0.0629883,0.000418649,0.000918829,0.000124921,0.000948293,0.000389186,1.33917,0.000550419,0.00971975,1931,1268,-0.0691415,-0.0629959
714,-244,-0.0487061,0.0654297,-0.000343228,0.00146555,0.000537072,0.001613,-0.000490678,1.30285,0.00127087,0.00938603,1938,1268,-0.048672,-0.0654896
721,-244,-0.0483398,0.0761719,-0.000664866,0.00196031,0.00136711,0.00254294,-0.0012475,1.16793,0.00223061,0.00965345,1945,1268,-0.048285,-0.0761166
728,-244,-0.03125,0.0982666,-0.00083835,0.00189435,0.00208793,0.00302326,-0.00196727,1.07513,0.0029027,0.0131179,1952,1268,-0.0312941,-0.0982892
735,-244,-0.0563965,0.0831299,-0.000595207,0.00225332,0.0028455,0.0040111,-0.00235299,1.01743,0.00371565,0.0193817,1959,1268,-0.0564562,-0.0831238
742,-244,-0.0650635,0.069458,3.88838e-05,0.00323426,0.00356231,0.00554075,-0.00226761,0.9962,0.00463831,0.0140985,1966,1268,-0.0650383,-0.0694146
749,-244,-0.0675049,0.0689697,0.00105221,0.00428168,0.00470081,0.00763735,-0.00230346,0.950835,0.00600842,0.0167563,1973,1268,-0.0675238,-0.068912
756,-244,-0.106934,0.041626,0.00265781,0.00568666,0.00594132,0.0103035,-0.00195905,0.910189,0.0076066,0.022983,1980,1268,-0.106886,-0.0415667
763,-244,-0.41272,0.10791,0.00508251,0.00738117,0.00712425,0.0134482,-0.000984518,0.865372,0.00931101,0.0383344,1987,1268,-0.412702,-0.10793
770,-244,-0.656006,0.529907,0,0,0,0,0,0,0,-1,1994,1268,-0.65602,-0.529874
777,-244,0.120239,0.658203,0,0,0,0,0,0,0,-1,2001,1268,0.120225,-0.658264
784,-244,0.0539551,0.129883,0,0,0,0,0,0,0,-1,2008,1268,0.0539617,-0.129895
791,-244,0,0,0,0,0,0,0,0,0,-1,2015,1268,0,0
798,-244,0,0,0,0,0,0,0,0,0,-1,2022,1268,0,0
805,-244,0,0,0,0,0,0,0,0,0,-1,2029,1268,0,0
812,-244,0,0,0,0,0,0,0,0,0,-1,2036,1268,0,0
-700,-251,0,0,0,0,0,0,0,0,0,-1,524,1275,0,0
-693,-251,0,0,0,0,0,0,0,0,0,-1,531,1275,0,0
-686,-251,0,0,0,0,0,0,0,0,0,-1,538,1275,0,0
-679,-251,0,0,0,0,0,0,0,0,0,-1,545,1275,0,0
-672,-251,0,0,0,0,0,0,0,0,0,-1,552,1275,0,0
-665,-251,2.48083,-4.125,-0.0745442,0.0504196,0.0650731,0.0781513,-0.102276,1.16794,0.10448,0.0448246,559,1275,2.48086,4.12499
-658,-251,2.03485,-3.57861,-0.0598273,0.0423241,0.0520633,0.064182,-0.0816853,1.17331,0.0844184,0.046608,566,1275,2.03484,3.57864
-651,-251,1.15283,-2.78906,-0.0463483,0.0344264,0.0406718,0.0513569,-0.0632788,1.17634,0.0663041,0.0460307,573,1275,1.15283,2.78911
-644,-251,0.797363,-0.776855,0,0,0,0,0,0,0,-1,580,1275,0.797356,0.776882
-637,-251,0.322144,-0.483887,-0.0249347,0.0208971,0.023095,0.0305161,-0.0345537,1.17615,0.0375921,0.0427654,587,1275,0.322151,0.483903
-630,-251,0.0459595,-0.283936,-0.0172448,0.0156405,0.0168332,0.022729,-0.0243333,1.17223,0.0271767,0.0436546,594,1275,0.0459891,0.283981
-623,-251,-0.000915527,-0.092041,-0.0114831,0.0114162,0.0120475,0.0165869,-0.0166539,1.16538,0.0191916,0.0367245,601,1275,-0.00091747,0.092012
-616,-251,-0.0740967,0.0892334,-0.00742217,0.00820109,0.00860058,0.012008,-0.0112291,1.15408,0.0134185,0.0194332,608,1275,-0.0741008,-0.0892287
-609,-251,-0.0702515,0.065918,-0.00426654,0.00550193,0.00563583,0.00807546,-0.00684008,1.14244,0.00862133,0.0189848,615,1275,-0.0702676,-0.0659024
-602,-251,-0.0493164,0.052002,-0.0021424,0.00339181,0.00376257,0.00529523,-0.00404582,1.10245,0.00540911,0.0141888,622,1275,-0.0492915,-0.052003
-595,-251,-0.0419922,0.0565186,-0.000922709,0.00204388,0.00258185,0.00353819,-0.00241701,1.04613,0.00345849,0.0117134,629,1275,-0.0419766,-0.0565636
-588,-251,-0.0313721,0.0544434,-0.00101076,0.00150639,0.00223799,0.00281542,-0.00231979,1.04154,0.00296941,0.0126952,636,1275,-0.0313768,-0.054457
-581,-251,-0.0357666,0.0611572,-0.001034,0.00113422,0.00183812,0.00218412,-0.0020839,1.05184,0.00246437,0.0124421,643,1275,-0.0357927,-0.061117
-574,-251,-0.0327759,0.0698242,-0.000853333,0.00146231,0.00123813,0.00199963,-0.00139066,1.16134,0.00196788,0.0127503,650,1275,-0.0327842,-0.0698032
-567,-251,-0.0332031,0.0532227,-0.000982009,0.00296729,0.000661221,0.00307505,-0.00108978,1.40924,0.00249396,0.0107195,657,1275,-0.0331896,-0.0531784
-560,-251,-0.0403442,0.0498047,-0.0013118,0.00542288,8.97424e-05,0.00542407,-0.001313,1.55747,0.00412398,0.0106804,664,1275,-0.0403688,-0.049861
-553,-251,-0.0582275,0.0621338,-0.00110997,0.00731323,-0.000557814,0.00735001,-0.00114675,-1.50496,0.00532358,0.0236608,671,1275,-0.0582164,-0.062109
-546,-251,-0.19043,0.575684,-0.000424429,0.00876324,-0.00119656,0.00891652,-0.000577708,-1.44339,0.00614597,0.043231,678,1275,-0.190459,-0.575677
-539,-251,-0.432129,0.760132,0.00042743,0.010175,-0.00186244,0.0105187,8.37017e-05,-1.38829,0.00698476,0.0446634,685,1275,-0.432148,-0.760076
-532,-251,-0.674866,0.726196,0.00162688,0.0114292,-0.00252841,0.012043,0.00101314,-1.33266,0.00771314,0.0454316,692,1275,-0.674885,-0.726224
-525,-251,-0.748657,0.711426,0,0,0,0,0,0,0,-1,699,1275,-0.748679,-0.711471
-518,-251,-1.69794,2.06274,0,0,0,0,0,0,0,-1,706,1275,-1.69793,-2.06269
-511,-251,-1.44043,1.8717,0,0,0,0,0,0,0,-1,713,1275,-1.44043,-1.87168
-504,-251,-0.0477905,0.151855,0.0101141,0.005337,-0.00222464,0.0109897,0.00446148,-0.374938,0.00638218,0.0394802,720,1275,-0.0477889,-0.151805
-497,-251,0.0654297,0.019165,0.0130715,-0.00303521,9.20917e-05,0.013072,-0.00303573,0.00571734,0.00988326,0.0436886,727,1275,0.0654584,-0.0192116
-490,-251,0,0,0,0,0,0,0,0,0,-1,734,1275,0,0
-483,-251,0,0,0,0,0,0,0,0,0,-1,741,1275,0,0
-476,-251,0,0,0,0,0,0,0,0,0,-1,748,1275,0,0
-469,-251,0,0,0,0,0,0,0,0,0,-1,755,1275,0,0
-462,-251,0,0,0,0,0,0,0,0,0,-1,762,1275,0,0
-455,-251,0,0,0,0,0,0,0,0,0,-1,769,1275,0,0
-448,-251,0,0,0,0,0,0,0,0,0,-1,776,1275,0,0
-441,-251,0,0,0,0,0,0,0,0,0,-1,783,1275,0,0
-434,-251,0,0,0,0,0,0,0,0,0,-1,790,1275,0,0
-427,-251,0,0,0,0,0,0,0,0,0,-1,797,1275,0,0
-420,-251,0,0,0,0,0,0,0,0,0,-1,804,1275,0,0
-413,-251,0,0,0,0,0,0,0,0,0,-1,811,1275,0,0
-406,-251,0,0,0,0,0,0,0,0,0,-1,818,1275,0,0
-399,-251,0,0,0,0,0,0,0,0,0,-1,825,1275,0,0
-392,-251,0,0,0,0,0,0,0,0,0,-1,832,1275,0,0
-385,-251,0,0,0,0,0,0,0,0,0,-1,839,1275,0,0
-378,-251,0,0,0,0,0,0,0,0,0,-1,846,1275,0,0
-371,-251,0,0,0,0,0,0,0,0,0,-1,853,1275,0,0
-364,-251,0,0,0,0,0,0,0,0,0,-1,860,1275,0,0
-357,-251,0,0,0,0,0,0,0,0,0,-1,867,1275,0,0
-350,-251,0,0,0,0,0,0,0,0,0,-1,874,1275,0,0
-343,-251,0,0,0,0,0,0,0,0,0,-1,881,1275,0,0
-336,-251,0,0,0,0,0,0,0,0,0,-1,888,1275,0,0
-329,-251,0,0,0,0,0,0,0,0,0,-1,895,1275,0,0
-322,-251,0,0,0,0,0,0,0,0,0,-1,902,1275,0,0
-315,-251,0,0,0,0,0,0,0,0,0,-1,909,1275,0,0
-308,-251,0,0,0,0,0,0,0,0,0,-1,916,1275,0,0
-301,-251,0,0,0,0,0,0,0,0,0,-1,923,1275,0,0
-294,-251,0,0,0,0,0,0,0,0,0,-1,930,1275,0,0
-287,-251,0,0,0,0,0,0,0,0,0,-1,937,1275,0,0
-280,-251,0,0,0,0,0,0,0,0,0,-1,944,1275,0,0
-273,-251,0,0,0,0,0,0,0,0,0,-1,951,1275,0,0
-266,-251,0,0,0,0,0,0,0,0,0,-1,958,1275,0,0
-259,-251,0,0,0,0,0,0,0,0,0,-1,965,1275,0,0
-252,-251,0,0,0,0,0,0,0,0,0,-1,972,1275,0,0
-245,-251,0,0,0,0,0,0,0,0,0,-1,979,1275,0,0
-238,-251,0,0,0,0,0,0,0,0,0,-1,986,1275,0,0
-231,-251,0,0,0,0,0,0,0,0,0,-1,993,1275,0,0
-224,-251,0,0,0,0,0,0,0,0,0,-1,1000,1275,0,0
-217,-251,0,0,0,0,0,0,0,0,0,-1,1007,1275,0,0
-210,-251,0,0,0,0,0,0,0,0,0,-1,1014,1275,0,0
-203,-251,0,0,0,0,0,0,0,0,0,-1,1021,1275,0,0
-196,-251,0,0,0,0,0,0,0,0,0,-1,1028,1275,0,0
-189,-251,0,0,0,0,0,0,0,0,0,-1,1035,1275,0,0
-182,-251,0,0,0,0,0,0,0,0,0,-1,1042,1275,0,0
-175,-251,0,0,0,0,0,0,0,0,0,-1,1049,1275,0,0
-168,-251,0,0,0,0,0,0,0,0,0,-1,1056,1275,0,0
-161,-251,0,0,0,0,0,0,0,0,0,-1,1063,1275,0,0
-154,-251,0,0,0,0,0,0,0,0,0,-1,1070,1275,0,0
-147,-251,0,0,0,0,0,0,0,0,0,-1,1077,1275,0,0
-140,-251,0,0,0,0,0,0,0,0,0,-1,1084,1275,0,0
-133,-251,0,0,0,0,0,0,0,0,0,-1,1091,1275,0,0
-126,-251,0,0,0,0,0,0,0,0,0,-1,1098,1275,0,0
-119,-251,0,0,0,0,0,0,0,0,0,-1,1105,1275,0,0
-112,-251,0,0,0,0,0,0,0,0,0,-1,1112,1275,0,0
-105,-251,0,0,0,0,0,0,0,0,0,-1,1119,1275,0,0
-98,-251,0,0,0,0,0,0,0,0,0,-1,1126,1275,0,0
-91,-251,0,0,0,0,0,0,0,0,0,-1,1133,1275,0,0
-84,-251,0,0,0,0,0,0,0,0,0,-1,1140,1275,0,0
-77,-251,0,0,0,0,0,0,0,0,0,-1,1147,1275,0,0
-70,-251,0,0,0,0,0,0,0,0,0,-1,1154,1275,0,0
-63,-251,0,0,0,0,0,0,0,0,0,-1,1161,1275,0,0
-56,-251,0,0,0,0,0,0,0,0,0,-1,1168,1275,0,0
-49,-251,0,0,0,0,0,0,0,0,0,-1,1175,1275,0,0
-42,-251,0,0,0,0,0,0,0,0,0,-1,1182,1275,0,0
-35,-251,0,0,0,0,0,0,0,0,0,-1,1189,1275,0,0
-28,-251,0,0,0,0,0,0,0,0,0,-1,1196,1275,0,0
-21,-251,0,0,0,0,0,0,0,0,0,-1,1203,1275,0,0
-14,-251,0,0,0,0,0,0,0,0,0,-1,1210,1275,0,0
-7,-251,0,0,0,0,0,0,0,0,0,-1,1217,1275,0,0
0,-251,0,0,0,0,0,0,0,0,0,-1,1224,1275,0,0
7,-251,0,0,0,0,0,0,0,0,0,-1,1231,1275,0,0
14,-251,0,0,0,0,0,0,0,0,0,-1,1238,1275,0,0
21,-251,0,0,0,0,0,0,0,0,0,-1,1245,1275,0,0
28,-251,0,0,0,0,0,0,0,0,0,-1,1252,1275,0,0
35,-251,0,0,0,0,0,0,0,0,0,-1,1259,1275,0,0
42,-251,0,0,0,0,0,0,0,0,0,-1,1266,1275,0,0
49,-251,0,0,0,0,0,0,0,0,0,-1,1273,1275,0,0
56,-251,0,0,0,0,0,0,0,0,0,-1,1280,1275,0,0
63,-251,0,0,0,0,0,0,0,0,0,-1,1287,1275,0,0
70,-251,0,0,0,0,0,0,0,0,0,-1,1294,1275,0,0
77,-251,0,0,0,0,0,0,0,0,0,-1,1301,1275,0,0
84,-251,0,0,0,0,0,0,0,0,0,-1,1308,1275,0,0
91,-251,0,0,0,0,0,0,0,0,0,-1,1315,1275,0,0
98,-251,0,0,0,0,0,0,0,0,0,-1,1322,1275,0,0
105,-251,0,0,0,0,0,0,0,0,0,-1,1329,1275,0,0
112,-251,0,0,0,0,0,0,0,0,0,-1,1336,1275,0,0
119,-251,0,0,0,0,0,0,0,0,0,-1,1343,1275,0,0
126,-251,0,0,0,0,0,0,0,0,0,-1,1350,1275,0,0
133,-251,0,0,0,0,0,0,0,0,0,-1,1357,1275,0,0
140,-251,0,0,0,0,0,0,0,0,0,-1,1364,1275,0,0
147,-251,0,0,0,0,0,0,0,0,0,-1,1371,1275,0,0
154,-251,0,0,0,0,0,0,0,0,0,-1,1378,1275,0,0
161,-251,0,0,0,0,0,0,0,0,0,-1,1385,1275,0,0
168,-251,0,0,0,0,0,0,0,0,0,-1,1392,1275,0,0
175,-251,0,0,0,0,0,0,0,0,0,-1,1399,1275,0,0
182,-251,0,0,0,0,0,0,0,0,0,-1,1406,1275,0,0
189,-251,0,0,0,0,0,0,0,0,0,-1,1413,1275,0,0
196,-251,0,0,0,0,0,0,0,0,0,-1,1420,1275,0,0
203,-251,0,0,0,0,0,0,0,0,0,-1,1427,1275,0,0
210,-251,0,0,0,0,0,0,0,0,0,-1,1434,1275,0,0
217,-251,0,0,0,0,0,0,0,0,0,-1,1441,1275,0,0
224,-251,0,0,0,0,0,0,0,0,0,-1,1448,1275,0,0
231,-251,0,0,0,0,0,0,0,0,0,-1,1455,1275,0,0
238,-251,0,0,0,0,0,0,0,0,0,-1,1462,1275,0,0
245,-251,0,0,0,0,0,0,0,0,0,-1,1469,1275,0,0
252,-251,0,0,0,0,0,0,0,0,0,-1,1476,1275,0,0
259,-251,0,0,0,0,0,0,0,0,0,-1,1483,1275,0,0
266,-251,0,0,0,0,0,0,0,0,0,-1,1490,1275,0,0
273,-251,0,0,0,0,0,0,0,0,0,-1,1497,1275,0,0
280,-251,0,0,0,0,0,0,0,0,0,-1,1504,1275,0,0
287,-251,0,0,0,0,0,0,0,0,0,-1,1511,1275,0,0
294,-251,0,0,0,0,0,0,0,0,0,-1,1518,1275,0,0
301,-251,0,0,0,0,0,0,0,0,0,-1,1525,1275,0,0
308,-251,0,0,0,0,0,0,0,0,0,-1,1532,1275,0,0
315,-251,0,0,0,0,0,0,0,0,0,-1,1539,1275,0,0
322,-251,0,0,0,0,0,0,0,0,0,-1,1546,1275,0,0
329,-251,0,0,0,0,0,0,0,0,0,-1,1553,1275,0,0
336,-251,0,0,0,0,0,0,0,0,0,-1,1560,1275,0,0
343,-251,0,0,0,0,0,0,0,0,0,-1,1567,1275,0,0
350,-251,0,0,0,0,0,0,0,0,0,-1,1574,1275,0,0
357,-251,0,0,0,0,0,0,0,0,0,-1,1581,1275,0,0
364,-251,0,0,0,0,0,0,0,0,0,-1,1588,1275,0,0
371,-251,0,0,0,0,0,0,0,0,0,-1,1595,1275,0,0
378,-251,0,0,0,0,0,0,0,0,0,-1,1602,1275,0,0
385,-251,0,0,0,0,0,0,0,0,0,-1,1609,1275,0,0
392,-251,0,0,0,0,0,0,0,0,0,-1,1616,1275,0,0
399,-251,0,0,0,0,0,0,0,0,0,-1,1623,1275,0,0
406,-251,0,0,0,0,0,0,0,0,0,-1,1630,1275,0,0
413,-251,0,0,0,0,0,0,0,0,0,-1,1637,1275,0,0
420,-251,0,0,0,0,0,0,0,0,0,-1,1644,1275,0,0
427,-251,0,0,0,0,0,0,0,0,0,-1,1651,1275,0,0
434,-251,0,0,0,0,0,0,0,0,0,-1,1658,1275,0,0
441,-251,0,0,0,0,0,0,0,0,0,-1,1665,1275,0,0
448,-251,0,0,0,0,0,0,0,0,0,-1,1672,1275,0,0
455,-251,0,0,0,0,0,0,0,0,0,-1,1679,1275,0,0
462,-251,0,0,0,0,0,0,0,0,0,-1,1686,1275,0,0
469,-251,0,0,0,0,0,0,0,0,0,-1,1693,1275,0,0
476,-251,0,0,0,0,0,0,0,0,0,-1,1700,1275,0,0
483,-251,0,0,0,0,0,0,0,0,0,-1,1707,1275,0,0
490,-251,0,0,0,0,0,0,0,0,0,-1,1714,1275,0,0
497,-251,0,0,0,0,0,0,0,0,0,-1,1721,1275,0,0
504,-251,0,0,0,0,0,0,0,0,0,-1,1728,1275,0,0
511,-251,0,0,0,0,0,0,0,0,0,-1,1735,1275,0,0
518,-251,0,0,0,0,0,0,0,0,0,-1,1742,1275,0,0
525,-251,0,0,0,0,0,0,0,0,0,-1,1749,1275,0,0
532,-251,0,0,0,0,0,0,0,0,0,-1,1756,1275,0,0
539,-251,0,0,0,0,0,0,0,0,0,-1,1763,1275,0,0
546,-251,0,0,0,0,0,0,0,0,0,-1,1770,1275,0,0
553,-251,0,0,0,0,0,0,0,0,0,-1,1777,1275,0,0
560,-251,0,0,0,0,0,0,0,0,0,-1,1784,1275,0,0
567,-251,0,0,0,0,0,0,0,0,0,-1,1791,1275,0,0
574,-251,0,0,0,0,0,0,0,0,0,-1,1798,1275,0,0
581,-251,0,0,0,0,0,0,0,0,0,-1,1805,1275,0,0
588,-251,0,0,0,0,0,0,0,0,0,-1,1812,1275,0,0
595,-251,0,0,0,0,0,0,0,0,0,-1,1819,1275,0,0
602,-251,0,0,0,0,0,0,0,0,0,-1,1826,1275,0,0
609,-251,-0.0507813,-0.0246582,0.00682427,0.00092691,0.000394991,0.00685061,0.000900571,0.0665813,0.00429845,0.0269349,1833,1275,-0.0508313,0.0246317
616,-251,-0.0550537,0.0281982,0.00232435,-0.00245136,0.000903139,0.00248944,-0.00261644,0.180796,0.00294819,0.0245104,1840,1275,-0.0550623,-0.028165
623,-251,-0.0390625,0.110229,-0.00061556,-0.00492515,0.000292585,-0.000595787,-0.00494492,0.0674791,0.00311706,0.0216403,1847,1275,-0.0390821,-0.110213
630,-251,0.092041,0.240356,-0.00247161,-0.00621407,-0.000451115,-0.002418,-0.00626768,-0.118283,0.00364998,0.0321449,1854,1275,0.0920201,-0.240397
637,-251,0.287842,0.393433,-0.00334795,-0.00663527,-0.00102516,-0.00305445,-0.00692877,-0.278834,0.00400965,0.0376205,1861,1275,0.287883,-0.393478
644,-251,-0.614868,0.626343,0,0,0,0,0,0,0,-1,1868,1275,-0.614827,-0.626397
651,-251,-0.800659,0.745605,-0.00338049,-0.00587928,-0.00166515,-0.00254813,-0.00671164,-0.463545,0.0039122,0.0482107,1875,1275,-0.800623,-0.745641
658,-251,-0.824341,0.687256,-0.00292239,-0.00508434,-0.00175028,-0.00194618,-0.00606055,-0.508768,0.00357292,0.0496733,1882,1275,-0.824392,-0.687273
665,-251,0.434082,1.32532,-0.00235837,-0.00415577,-0.00185136,-0.00119911,-0.00531503,-0.559437,0.00321898,0.0427659,1889,1275,0.434051,-1.32535
672,-251,0.147705,0.595581,-0.00177379,-0.00315028,-0.00173713,-0.000593533,-0.00433053,-0.596786,0.00271092,0.0394481,1896,1275,0.147671,-0.595584
679,-251,0.0241699,0.120728,-0.00114248,-0.00208585,-0.00145744,-8.23045e-05,-0.00314603,-0.628898,0.00207047,0.0330751,1903,1275,0.024113,-0.120743
686,-251,-0.0911865,0.0744629,-0.000469297,-0.0011176,-0.00104428,0.000299989,-0.00188688,-0.634911,0.00136892,0.0144686,1910,1275,-0.0912174,-0.074472
693,-251,-0.0617676,0.0933838,0.000104705,-0.000255574,-0.000854283,0.000797635,-0.000948504,-0.681487,0.00100939,0.00856584,1917,1275,-0.0618142,-0.0933273
700,-251,-0.0554199,0.0860596,0.00026976,0.000527259,-0.000593125,0.00100545,-0.000208429,-0.892275,0.000749498,0.00792491,1924,1275,-0.0554127,-0.0860684
707,-251,-0.0524902,0.0776367,-5.33752e-05,0.00100819,-0.000145773,0.00102785,-7.30288e-05,-1.43678,0.000710825,0.00971042,1931,1275,-0.052535,-0.0775802
714,-251,-0.0385742,0.0802002,-0.000603983,0.0016884,0.000381766,0.00175031,-0.000665889,1.41004,0.00144106,0.00942159,1938,1275,-0.0385741,-0.0801451
721,-251,-0.0400391,0.0733643,-0.000642243,0.0022059,0.00131087,0.00271738,-0.00115373,1.19878,0.00229495,0.008793,1945,1275,-0.0400763,-0.0733175
728,-251,-0.0450439,0.0734863,-0.000681074,0.0023385,0.00214448,0.00345136,-0.00179393,1.09211,0.00307835,0.010076,1952,1275,-0.0449831,-0.0735252
735,-251,-0.0456543,0.0754395,-0.000357237,0.00297538,0.00299264,0.00473434,-0.0021162,1.03942,0.0040503,0.0124103,1959,1275,-0.0457003,-0.0753869
742,-251,-0.0482178,0.0812988,0.000372906,0.00427817,0.00381146,0.00660806,-0.00195699,1.02212,0.00518237,0.0144804,1966,1275,-0.0482222,-0.0812615
749,-251,-0.0560303,0.0848389,0.00154815,0.0057826,0.00507077,0.0091604,-0.00182965,0.983164,0.00679938,0.0212972,1973,1275,-0.0559761,-0.0848234
756,-251,-0.368896,0.168091,0.00344842,0.00771415,0.00644813,0.012373,-0.00121044,0.94512,0.00868033,0.0358852,1980,1275,-0.368929,-0.16814
763,-251,-0.702881,0.317505,0.00632044,0.0100469,0.0077728,0.0161767,0.000190667,0.903034,0.0107215,0.044713,1987,1275,-0.702862,-0.317476
770,-251,-0.906982,0.609497,0.0103579,0.0128253,0.00877586,0.0204538,0.00272948,0.855231,0.0128232,0.0456041,1994,1275,-0.907006,-0.609536
777,-251,-1.10168,0.896729,0,0,0,0,0,0,0,-1,2001,1275,-1.10168,-0.896782
784,-251,-0.0435791,-0.238037,0,0,0,0,0,0,0,-1,2008,1275,-0.0436207,0.238064
791,-251,0,0,0,0,0,0,0,0,0,-1,2015,1275,0,0
798,-251,0,0,0,0,0,0,0,0,0,-1,2022,1275,0,0
805,-251,0,0,0,0,0,0,0,0,0,-1,2029,1275,0,0
812,-251,0,0,0,0,0,0,0,0,0,-1,2036,1275,0,0
-700,-258,0,0,0,0,0,0,0,0,0,-1,524,1282,0,0
-693,-258,0,0,0,0,0,0,0,0,0,-1,531,1282,0,0
-686,-258,0,0,0,0,0,0,0,0,0,-1,538,1282,0,0
-679,-258,0,0,0,0,0,0,0,0,0,-1,545,1282,0,0
-672,-258,0,0,0,0,0,0,0,0,0,-1,552,1282,0,0
-665,-258,2.0675,-4.40808,0,0,0,0,0,0,0,-1,559,1282,2.06753,4.40809
-658,-258,1.62604,-3.80957,0,0,0,0,0,0,0,-1,566,1282,1.62604,3.8096
-651,-258,-0.509949,-0.958252,0,0,0,0,0,0,0,-1,573,1282,-0.509943,0.958292
-644,-258,-0.16925,-0.481323,0,0,0,0,0,0,0,-1,580,1282,-0.169273,0.481373
-637,-258,0.0314331,-0.345703,-0.0276302,0.0236725,0.0235863,0.0328681,-0.0368258,1.19906,0.0402594,0.0450046,587,1282,0.0314298,0.34575
-630,-258,-0.0353394,-0.275146,-0.0191598,0.0174168,0.0172804,0.0242895,-0.0260325,1.19226,0.0290592,0.0467504,594,1282,-0.0353591,0.275141
-623,-258,-0.0334473,-0.103638,0,0,0,0,0,0,0,-1,601,1282,-0.0334395,0.103632
-616,-258,-0.0789185,0.0380859,-0.00826018,0.00876643,0.00893945,0.0125978,-0.0120915,1.16589,0.0142554,0.029963,608,1282,-0.0789212,-0.0380845
-609,-258,-0.0595703,0.069458,-0.00483906,0.00581951,0.00595476,0.0084815,-0.00750105,1.15041,0.00923331,0.0161287,615,1282,-0.059591,-0.0694094
-602,-258,-0.0375977,0.0496826,-0.00254903,0.00360126,0.00397653,0.00555297,-0.00450074,1.11453,0.0058151,0.0126643,622,1282,-0.0376042,-0.0496444
-595,-258,-0.0345459,0.0498047,-0.00115853,0.00216008,0.00274781,0.00371072,-0.00270917,1.05703,0.00372153,0.0101718,629,1282,-0.0345753,-0.0498621
-588,-258,-0.034729,0.0460205,-0.00106343,0.00163844,0.00228822,0.00294475,-0.00236975,1.05206,0.00307431,0.0114619,636,1282,-0.0347145,-0.0459714
-581,-258,-0.0348511,0.0360107,-0.000889046,0.00137591,0.00169048,0.00227818,-0.00179132,1.08052,0.00235513,0.0133104,643,1282,-0.0348461,-0.0360417
-574,-258,-0.0172729,0.0274658,-0.000484693,0.00182444,0.000846723,0.00210164,-0.000761896,1.25441,0.00171252,0.0138706,650,1282,-0.017257,-0.0275199
-567,-258,-0.0299072,0.0435791,-0.000393662,0.00346058,5.41672e-05,0.00346134,-0.000394423,1.55675,0.00244964,0.0134147,657,1282,-0.0299228,-0.0436154
-560,-258,-0.0496216,0.0739746,-0.000552749,0.00613196,-0.000644405,0.00619351,-0.000614303,-1.47556,0.00434826,0.0180363,664,1282,-0.0496187,-0.0739655
-553,-258,-0.0568848,0.0634766,-0.000185372,0.00819468,-0.00135447,0.00840816,-0.000398856,-1.41447,0.00574301,0.0212688,671,1282,-0.0569091,-0.0634663
-546,-258,-0.0504761,0.0461426,0.000695315,0.00969851,-0.00202174,0.0101317,0.000262156,-1.35974,0.00666878,0.0403314,678,1282,-0.0504578,-0.0461871
-539,-258,-0.327881,0.563232,0.00172972,0.0110468,-0.00265026,0.0117479,0.0010286,-1.31217,0.00751256,0.0447103,685,1282,-0.327896,-0.56318
-532,-258,-0.533142,0.548462,0.00308543,0.0121584,-0.00319462,0.0131703,0.00207346,-1.26402,0.00817717,0.0474187,692,1282,-0.533166,-0.54848
-525,-258,-0.693359,0.556885,0,0,0,0,0,0,0,-1,699,1282,-0.693331,-0.556921
-518,-258,-0.991333,1.31238,0,0,0,0,0,0,0,-1,706,1282,-0.991334,-1.31236
-511,-258,-0.873169,1.07019,0,0,0,0,0,0,0,-1,713,1282,-0.873143,-1.07013
-504,-258,-0.141357,0.236816,0.0114925,0.00543573,-0.00198645,0.0120858,0.00484236,-0.290272,0.00702351,0.039468,720,1282,-0.141376,-0.236785
-497,-258,-0.00866699,0.0463867,0.0142524,-0.00235182,0.000249511,0.0142561,-0.00235557,0.0150225,0.0103788,0.0409496,727,1282,-0.00864586,-0.0464347
-490,-258,-0.0447388,0.0368652,0.0165392,-0.0134458,0.00398655,0.0170602,-0.0139667,0.129945,0.017943,0.0425989,734,1282,-0.0447532,-0.0369082
-483,-258,0,0,0,0,0,0,0,0,0,-1,741,1282,0,0
-476,-258,0,0,0,0,0,0,0,0,0,-1,748,1282,0,0
-469,-258,0,0,0,0,0,0,0,0,0,-1,755,1282,0,0
-462,-258,0,0,0,0,0,0,0,0,0,-1,762,1282,0,0
-455,-258,0,0,0,0,0,0,0,0,0,-1,769,1282,0,0
-448,-258,0,0,0,0,0,0,0,0,0,-1,776,1282,0,0
-441,-258,0,0,0,0,0,0,0,0,0,-1,783,1282,0,0
-434,-258,0,0,0,0,0,0,0,0,0,-1,790,1282,0,0
-427,-258,0,0,0,0,0,0,0,0,0,-1,797,1282,0,0
-420,-258,0,0,0,0,0,0,0,0,0,-1,804,1282,0,0
-413,-258,0,0,0,0,0,0,0,0,0,-1,811,1282,0,0
-406,-258,0,0,0,0,0,0,0,0,0,-1,818,1282,0,0
-399,-258,0,0,0,0,0,0,0,0,0,-1,825,1282,0,0
-392,-258,0,0,0,0,0,0,0,0,0,-1,832,1282,0,0
-385,-258,0,0,0,0,0,0,0,0,0,-1,839,1282,0,0
-378,-258,0,0,0,0,0,0,0,0,0,-1,846,1282,0,0
-371,-258,0,0,0,0,0,0,0,0,0,-1,853,1282,0,0
-364,-258,0,0,0,0,0,0,0,0,0,-1,860,1282,0,0
-357,-258,0,0,0,0,0,0,0,0,0,-1,867,1282,0,0
-350,-258,0,0,0,0,0,0,0,0,0,-1,874,1282,0,0
-343,-258,0,0,0,0,0,0,0,0,0,-1,881,1282,0,0
-336,-258,0,0,0,0,0,0,0,0,0,-1,888,1282,0,0
-329,-258,0,0,0,0,0,0,0,0,0,-1,895,1282,0,0
-322,-258,0,0,0,0,0,0,0,0,0,-1,902,1282,0,0
-315,-258,0,0,0,0,0,0,0,0,0,-1,909,1282,0,0
-308,-258,0,0,0,0,0,0,0,0,0,-1,916,1282,0,0
-301,-258,0,0,0,0,0,0,0,0,0,-1,923,1282,0,0
-294,-258,0,0,0,0,0,0,0,0,0,-1,930,1282,0,0
-287,-258,0,0,0,0,0,0,0,0,0,-1,937,1282,0,0
-280,-258,0,0,0,0,0,0,0,0,0,-1,944,1282,0,0
-273,-258,0,0,0,0,0,0,0,0,0,-1,951,1282,0,0
-266,-258,0,0,0,0,0,0,0,0,0,-1,958,1282,0,0
-259,-258,0,0,0,0,0,0,0,0,0,-1,965,1282,0,0
-252,-258,0,0,0,0,0,0,0,0,0,-1,972,1282,0,0
-245,-258,0,0,0,0,0,0,0,0,0,-1,979,1282,0,0
-238,-258,0,0,0,0,0,0,0,0,0,-1,986,1282,0,0
-231,-258,0,0,0,0,0,0,0,0,0,-1,993,1282,0,0
-224,-258,0,0,0,0,0,0,0,0,0,-1,1000,1282,0,0
-217,-258,0,0,0,0,0,0,0,0,0,-1,1007,1282,0,0
-210,-258,0,0,0,0,0,0,0,0,0,-1,1014,1282,0,0
-203,-258,0,0,0,0,0,0,0,0,0,-1,1021,1282,0,0
-196,-258,0,0,0,0,0,0,0,0,0,-1,1028,1282,0,0
-189,-258,0,0,0,0,0,0,0,0,0,-1,1035,1282,0,0
-182,-258,0,0,0,0,0,0,0,0,0,-1,1042,1282,0,0
-175,-258,0,0,0,0,0,0,0,0,0,-1,1049,1282,0,0
-168,-258,0,0,0,0,0,0,0,0,0,-1,1056,1282,0,0
-161,-258,0,0,0,0,0,0,0,0,0,-1,1063,1282,0,0
-154,-258,0,0,0,0,0,0,0,0,0,-1,1070,1282,0,0
-147,-258,0,0,0,0,0,0,0,0,0,-1,1077,1282,0,0
-140,-258,0,0,0,0,0,0,0,0,0,-1,1084,1282,0,0
-133,-258,0,0,0,0,0,0,0,0,0,-1,1091,1282,0,0
-126,-258,0,0,0,0,0,0,0,0,0,-1,1098,1282,0,0
-119,-258,0,0,0,0,0,0,0,0,0,-1,1105,1282,0,0
-112,-258,0,0,0,0,0,0,0,0,0,-1,1112,1282,0,0
-105,-258,0,0,0,0,0,0,0,0,0,-1,1119,1282,0,0
-98,-258,0,0,0,0,0,0,0,0,0,-1,1126,1282,0,0
-91,-258,0,0,0,0,0,0,0,0,0,-1,1133,1282,0,0
-84,-258,0,0,0,0,0,0,0,0,0,-1,1140,1282,0,0
-77,-258,0,0,0,0,0,0,0,0,0,-1,1147,1282,0,0
-70,-258,0,0,0,0,0,0,0,0,0,-1,1154,1282,0,0
-63,-258,0,0,0,0,0,0,0,0,0,-1,1161,1282,0,0
-56,-258,0,0,0,0,0,0,0,0,0,-1,1168,1282,0,0
-49,-258,0,0,0,0,0,0,0,0,0,-1,1175,1282,0,0
-42,-258,0,0,0,0,0,0,0,0,0,-1,1182,1282,0,0
-35,-258,0,0,0,0,0,0,0,0,0,-1,1189,1282,0,0
-28,-258,0,0,0,0,0,0,0,0,0,-1,1196,1282,0,0
-21,-258,0,0,0,0,0,0,0,0,0,-1,1203,1282,0,0
-14,-258,0,0,0,0,0,0,0,0,0,-1,1210,1282,0,0
-7,-258,0,0,0,0,0,0,0,0,0,-1,1217,1282,0,0
0,-258,0,0,0,0,0,0,0,0,0,-1,1224,1282,0,0
7,-258,0,0,0,0,0,0,0,0,0,-1,1231,1282,0,0
14,-258,0,0,0,0,0,0,0,0,0,-1,1238,1282,0,0
21,-258,0,0,0,0,0,0,0,0,0,-1,1245,1282,0,0
28,-258,0,0,0,0,0,0,0,0,0,-1,1252,1282,0,0
35,-258,0,0,0,0,0,0,0,0,0,-1,1259,1282,0,0
42,-258,0,0,0,0,0,0,0,0,0,-1,1266,1282,0,0
49,-258,0,0,0,0,0,0,0,0,0,-1,1273,1282,0,0
56,-258,0,0,0,0,0,0,0,0,0,-1,1280,1282,0,0
63,-258,0,0,0,0,0,0,0,0,0,-1,1287,1282,0,0
70,-258,0,0,0,0,0,0,0,0,0,-1,1294,1282,0,0
77,-258,0,0,0,0,0,0,0,0,0,-1,1301,1282,0,0
84,-258,0,0,0,0,0,0,0,0,0,-1,1308,1282,0,0
91,-258,0,0,0,0,0,0,0,0,0,-1,1315,1282,0,0
98,-258,0,0,0,0,0,0,0,0,0,-1,1322,1282,0,0
105,-258,0,0,0,0,0,0,0,0,0,-1,1329,1282,0,0
112,-258,0,0,0,0,0,0,0,0,0,-1,1336,1282,0,0
119,-258,0,0,0,0,0,0,0,0,0,-1,1343,1282,0,0
126,-258,0,0,0,0,0,0,0,0,0,-1,1350,1282,0,0
133,-258,0,0,0,0,0,0,0,0,0,-1,1357,1282,0,0
140,-258,0,0,0,0,0,0,0,0,0,-1,1364,1282,0,0
147,-258,0,0,0,0,0,0,0,0,0,-1,1371,1282,0,0
154,-258,0,0,0,0,0,0,0,0,0,-1,1378,1282,0,0
161,-258,0,0,0,0,0,0,0,0,0,-1,1385,1282,0,0
168,-258,0,0,0,0,0,0,0,0,0,-1,1392,1282,0,0
175,-258,0,0,0,0,0,0,0,0,0,-1,1399,1282,0,0
182,-258,0,0,0,0,0,0,0,0,0,-1,1406,1282,0,0
189,-258,0,0,0,0,0,0,0,0,0,-1,1413,1282,0,0
196,-258,0,0,0,0,0,0,0,0,0,-1,1420,1282,0,0
203,-258,0,0,0,0,0,0,0,0,0,-1,1427,1282,0,0
210,-258,0,0,0,0,0,0,0,0,0,-1,1434,1282,0,0
217,-258,0,0,0,0,0,0,0,0,0,-1,1441,1282,0,0
224,-258,0,0,0,0,0,0,0,0,0,-1,1448,1282,0,0
231,-258,0,0,0,0,0,0,0,0,0,-1,1455,1282,0,0
238,-258,0,0,0,0,0,0,0,0,0,-1,1462,1282,0,0
245,-258,0,0,0,0,0,0,0,0,0,-1,1469,1282,0,0
252,-258,0,0,0,0,0,0,0,0,0,-1,1476,1282,0,0
259,-258,0,0,0,0,0,0,0,0,0,-1,1483,1282,0,0
266,-258,0,0,0,0,0,0,0,0,0,-1,1490,1282,0,0
273,-258,0,0,0,0,0,0,0,0,0,-1,1497,1282,0,0
280,-258,0,0,0,0,0,0,0,0,0,-1,1504,1282,0,0
287,-258,0,0,0,0,0,0,0,0,0,-1,1511,1282,0,0
294,-258,0,0,0,0,0,0,0,0,0,-1,1518,1282,0,0
301,-258,0,0,0,0,0,0,0,0,0,-1,1525,1282,0,0
308,-258,0,0,0,0,0,0,0,0,0,-1,1532,1282,0,0
315,-258,0,0,0,0,0,0,0,0,0,-1,1539,1282,0,0
322,-258,0,0,0,0,0,0,0,0,0,-1,1546,1282,0,0
329,-258,0,0,0,0,0,0,0,0,0,-1,1553,1282,0,0
336,-258,0,0,0,0,0,0,0,0,0,-1,1560,1282,0,0
343,-258,0,0,0,0,0,0,0,0,0,-1,1567,1282,0,0
350,-258,0,0,0,0,0,0,0,0,0,-1,1574,1282,0,0
357,-258,0,0,0,0,0,0,0,0,0,-1,1581,1282,0,0
364,-258,0,0,0,0,0,0,0,0,0,-1,1588,1282,0,0
371,-258,0,0,0,0,0,0,0,0,0,-1,1595,1282,0,0
378,-258,0,0,0,0,0,0,0,0,0,-1,1602,1282,0,0
385,-258,0,0,0,0,0,0,0,0,0,-1,1609,1282,0,0
392,-258,0,0,0,0,0,0,0,0,0,-1,1616,1282,0,0
399,-258,0,0,0,0,0,0,0,0,0,-1,1623,1282,0,0
406,-258,0,0,0,0,0,0,0,0,0,-1,1630,1282,0,0
413,-258,0,0,0,0,0,0,0,0,0,-1,1637,1282,0,0
420,-258,0,0,0,0,0,0,0,0,0,-1,1644,1282,0,0
427,-258,0,0,0,0,0,0,0,0,0,-1,1651,1282,0,0
434,-258,0,0,0,0,0,0,0,0,0,-1,1658,1282,0,0
441,-258,0,0,0,0,0,0,0,0,0,-1,1665,1282,0,0
448,-258,0,0,0,0,0,0,0,0,0,-1,1672,1282,0,0
455,-258,0,0,0,0,0,0,0,0,0,-1,1679,1282,0,0
462,-258,0,0,0,0,0,0,0,0,0,-1,1686,1282,0,0
469,-258,0,0,0,0,0,0,0,0,0,-1,1693,1282,0,0
476,-258,0,0,0,0,0,0,0,0,0,-1,1700,1282,0,0
483,-258,0,0,0,0,0,0,0,0,0,-1,1707,1282,0,0
490,-258,0,0,0,0,0,0,0,0,0,-1,1714,1282,0,0
497,-258,0,0,0,0,0,0,0,0,0,-1,1721,1282,0,0
504,-258,0,0,0,0,0,0,0,0,0,-1,1728,1282,0,0
511,-258,0,0,0,0,0,0,0,0,0,-1,1735,1282,0,0
518,-258,0,0,0,0,0,0,0,0,0,-1,1742,1282,0,0
525,-258,0,0,0,0,0,0,0,0,0,-1,1749,1282,0,0
532,-258,0,0,0,0,0,0,0,0,0,-1,1756,1282,0,0
539,-258,0,0,0,0,0,0,0,0,0,-1,1763,1282,0,0
546,-258,0,0,0,0,0,0,0,0,0,-1,1770,1282,0,0
553,-258,0,0,0,0,0,0,0,0,0,-1,1777,1282,0,0
560,-258,0,0,0,0,0,0,0,0,0,-1,1784,1282,0,0
567,-258,0,0,0,0,0,0,0,0,0,-1,1791,1282,0,0
574,-258,0,0,0,0,0,0,0,0,0,-1,1798,1282,0,0
581,-258,0,0,0,0,0,0,0,0,0,-1,1805,1282,0,0
588,-258,0,0,0,0,0,0,0,0,0,-1,1812,1282,0,0
595,-258,0,0,0,0,0,0,0,0,0,-1,1819,1282,0,0
602,-258,0,0,0,0,0,0,0,0,0,-1,1826,1282,0,0
609,-258,-0.105347,0.0152588,0.00540812,-0.000169563,0.000811698,0.00552384,-0.000285286,0.141614,0.00378125,0.0227783,1833,1282,-0.10537,-0.0152816
616,-258,-0.0966797,0.0200195,0.000957733,-0.00234872,0.00126597,0.00138678,-0.00277776,0.326756,0.0024487,0.0209044,1840,1282,-0.0967142,-0.019979
623,-258,-0.0649414,0.059082,-0.00207542,-0.00407305,0.000711976,-0.00184764,-0.00430083,0.309639,0.00249128,0.0297084,1847,1282,-0.0649275,-0.0590815
630,-258,0.190186,0.261719,-0.00400956,-0.00508383,-4.94436e-05,-0.00400729,-0.0050861,-0.0458961,0.00309446,0.0409753,1854,1282,0.190175,-0.261684
637,-258,-0.0291748,1.29993,0,0,0,0,0,0,0,-1,1861,1282,-0.0291952,-1.29997
644,-258,-0.604248,1.41809,-0.0053352,-0.00547065,-0.00121523,-0.0041858,-0.00662005,-0.757562,0.00386642,0.0465717,1868,1282,-0.604241,-1.41809
651,-258,-1.10229,1.22791,-0.00508989,-0.00508042,-0.00158492,-0.00350023,-0.00667008,-0.786891,0.00385255,0.0468076,1875,1282,-1.10234,-1.22786
658,-258,-1.08887,0.807983,0,0,0,0,0,0,0,-1,1882,1282,-1.08892,-0.808032
665,-258,0.36853,1.42554,-0.00401792,-0.00375443,-0.00205294,-0.00182901,-0.00594334,-0.817441,0.00351493,0.0407882,1889,1282,0.368475,-1.42549
672,-258,0.2146,0.707886,-0.00335429,-0.00299013,-0.00206119,-0.00110299,-0.00524143,-0.829452,0.00319082,0.039742,1896,1282,0.214568,-0.707903
679,-258,-0.0162354,0.0716553,-0.00254588,-0.00206189,-0.00186183,-0.000426398,-0.00418138,-0.850025,0.00265688,0.0255364,1903,1282,-0.0162075,-0.0716799
686,-258,-0.0692139,0.0705566,-0.00157344,-0.00113982,-0.00144729,0.00010681,-0.00282007,-0.859748,0.00191664,0.0138578,1910,1282,-0.0692482,-0.0705285
693,-258,-0.0469971,0.0703125,-0.000725308,-0.00026919,-0.00124241,0.000765919,-0.00176042,-0.876169,0.00149578,0.0089071,1917,1282,-0.0469683,-0.0703045
700,-258,-0.0495605,0.0683594,-0.000353535,0.000559132,-0.000924956,0.0011342,-0.0009286,-1.01456,0.00119293,0.00793015,1924,1282,-0.0495423,-0.0683774
707,-258,-0.0462646,0.0770264,-0.00054326,0.00113565,-0.000397479,0.001225,-0.000632608,-1.34969,0.00109052,0.00940063,1931,1282,-0.046232,-0.0770052
714,-258,-0.0411377,0.0697021,-0.000858482,0.0020155,0.000232682,0.00203422,-0.000877199,1.49053,0.00172458,0.00937689,1938,1282,-0.0411798,-0.0696655
721,-258,-0.0393066,0.0643311,-0.000609347,0.00264496,0.00122635,0.00305535,-0.00101973,1.24787,0.00244864,0.00924474,1945,1282,-0.039361,-0.0643168
728,-258,-0.0439453,0.0649414,-0.000492375,0.00310802,0.00215106,0.00411278,-0.00149713,1.13382,0.00335418,0.00905655,1952,1282,-0.0439989,-0.0649306
735,-258,-0.0375977,0.0758057,-9.19423e-05,0.00416941,0.00307281,0.00577798,-0.00170051,1.08854,0.00452658,0.0125482,1959,1282,-0.0376298,-0.0757764
742,-258,-0.0401611,0.0981445,0.000715496,0.00593413,0.00399301,0.00809479,-0.00144517,1.0748,0.00593717,0.0146891,1966,1282,-0.040222,-0.0981278
749,-258,-0.163818,0.0751953,0.0020368,0.00805207,0.00535322,0.0111847,-0.00109583,1.04134,0.00784729,0.0252545,1973,1282,-0.163758,-0.0752144
756,-258,-0.475098,0.1521,0.00418297,0.0106879,0.00684703,0.0150157,-0.000144829,1.00713,0.0100591,0.0391656,1980,1282,-0.475038,-0.152117
763,-258,-0.671631,0.302124,0.00743061,0.0138564,0.00830389,0.0195473,0.00173972,0.969985,0.012492,0.0455727,1987,1282,-0.671659,-0.302141
770,-258,-0.789673,0.979858,0.0120266,0.0176004,0.00942666,0.0246435,0.00498349,0.929126,0.0150455,0.0452803,1994,1282,-0.789626,-0.979898
777,-258,-0.847168,1.85742,0,0,0,0,0,0,0,-1,2001,1282,-0.847229,-1.85746
784,-258,-0.935913,2.69678,0,0,0,0,0,0,0,-1,2008,1282,-0.935896,-2.69674
791,-258,0,0,0,0,0,0,0,0,0,-1,2015,1282,0,0
798,-258,0,0,0,0,0,0,0,0,0,-1,2022,1282,0,0
805,-258,0,0,0,0,0,0,0,0,0,-1,2029,1282,0,0
812,-258,0,0,0,0,0,0,0,0,0,-1,2036,1282,0,0
-700,-265,0,0,0,0,0,0,0,0,0,-1,524,1289,0,0
-693,-265,0,0,0,0,0,0,0,0,0,-1,531,1289,0,0
-686,-265,0,0,0,0,0,0,0,0,0,-1,538,1289,0,0
-679,-265,0,0,0,0,0,0,0,0,0,-1,545,1289,0,0
-672,-265,0,0,0,0,0,0,0,0,0,-1,552,1289,0,0
-665,-265,0.189697,-0.743896,0,0,0,0,0,0,0,-1,559,1289,0.189701,0.743882
-658,-265,1.47192,-0.920166,0,0,0,0,0,0,0,-1,566,1289,1.47192,0.920197
-651,-265,0.729065,0.0227051,0,0,0,0,0,0,0,-1,573,1289,0.72904,-0.0226961
-644,-265,-0.294861,-0.715698,0,0,0,0,0,0,0,-1,580,1289,-0.294874,0.715645
-637,-265,-0.00421143,-0.543091,-0.0285409,0.0245682,0.0211711,0.0319748,-0.0359475,1.23426,0.0392373,0.0450702,587,1289,-0.00421608,0.543097
-630,-265,-0.00158691,-0.266235,-0.0199791,0.0181515,0.0158298,0.0238666,-0.0256942,1.22433,0.0286204,0.0455984,594,1289,-0.00158297,0.266205
-623,-265,0.145264,-0.338623,0,0,0,0,0,0,0,-1,601,1289,0.145257,0.338573
-616,-265,0.0183716,-0.166382,-0.0087769,0.00922338,0.00865715,0.0127112,-0.0122647,1.18781,0.0144206,0.0330184,608,1289,0.0183778,0.166329
-609,-265,-0.0361328,0.0610352,-0.00525025,0.00619417,0.00595931,0.00873374,-0.00778982,1.16795,0.00954507,0.0156812,615,1289,-0.0361481,-0.0610764
-602,-265,-0.0317993,0.0614014,-0.00288507,0.00394803,0.00410001,0.00586841,-0.00480546,1.13276,0.00617274,0.0127423,622,1289,-0.0317904,-0.0613979
-595,-265,-0.0215454,0.0654297,-0.00144346,0.00244276,0.00292108,0.00400798,-0.00300868,1.07889,0.00406474,0.0105948,629,1289,-0.0215602,-0.0654517
-588,-265,-0.0232544,0.0574951,-0.00122481,0.00187903,0.00242548,0.00320659,-0.00255238,1.07,0.00333209,0.0100156,636,1289,-0.0232805,-0.0575347
-581,-265,-0.013855,0.0516357,-0.000925119,0.00168,0.0016986,0.00251797,-0.00176309,1.1125,0.00248445,0.0116954,643,1289,-0.0138354,-0.0516865
-574,-265,-0.0245972,0.0675049,-0.000391865,0.00220587,0.000665274,0.00236633,-0.000552329,1.33412,0.00179029,0.013143,650,1289,-0.0246195,-0.067553
-567,-265,-0.0662231,0.0823975,-0.000157529,0.00386287,-0.000290239,0.00388371,-0.000178374,-1.4991,0.0026506,0.0178418,657,1289,-0.0662189,-0.0823852
-560,-265,-0.0675659,0.0777588,-0.000172733,0.00661812,-0.00108979,0.00678872,-0.000343335,-1.41551,0.00464449,0.0189856,664,1289,-0.0675654,-0.0777114
-553,-265,-0.0579224,0.0751953,0.000342213,0.00880261,-0.00186234,0.00919441,-4.95878e-05,-1.36344,0.00614621,0.0182228,671,1289,-0.0579449,-0.0752016
-546,-265,-0.0606079,0.072876,0.00137526,0.0102832,-0.0025337,0.0109534,0.000705027,-1.31219,0.00707899,0.0268848,678,1289,-0.0606084,-0.0728524
-539,-265,-0.27655,0.298828,0.00255007,0.0115206,-0.00312367,0.0125011,0.00156954,-1.26663,0.00786327,0.0434528,685,1289,-0.27658,-0.298827
-532,-265,-0.54895,0.272949,0.00401768,0.0124602,-0.00357849,0.0137729,0.00270499,-1.21921,0.00842628,0.0453026,692,1289,-0.548944,-0.273008
-525,-265,-0.404663,0.237671,0.00578575,0.0128348,-0.00377533,0.0144751,0.00414546,-1.16093,0.0086077,0.0435555,699,1289,-0.40466,-0.237657
-518,-265,-0.193787,0.258667,0.00770266,0.0121168,-0.00368784,0.0142075,0.0056119,-1.05505,0.00826281,0.0442648,706,1289,-0.193787,-0.25865
-511,-265,-0.3125,0.256104,0.00980833,0.00978159,-0.00308013,0.0128751,0.0067148,-0.783228,0.00743575,0.0468159,713,1289,-0.312517,-0.256103
-504,-265,-0.353088,0.341553,0,0,0,0,0,0,0,-1,720,1289,-0.353066,-0.341539
-497,-265,-0.380493,0.348022,0.0145652,-0.00175798,0.000252722,0.0145691,-0.00176189,0.0154774,0.0103501,0.0431341,727,1289,-0.380477,-0.347999
-490,-265,-0.226196,0.302368,0.0167716,-0.0117362,0.00352139,0.0172001,-0.0121647,0.121099,0.0170367,0.04156,734,1289,-0.226208,-0.302412
-483,-265,0,0,0,0,0,0,0,0,0,-1,741,1289,0,0
-476,-265,0,0,0,0,0,0,0,0,0,-1,748,1289,0,0
-469,-265,0,0,0,0,0,0,0,0,0,-1,755,1289,0,0
-462,-265,0,0,0,0,0,0,0,0,0,-1,762,1289,0,0
-455,-265,0,0,0,0,0,0,0,0,0,-1,769,1289,0,0
-448,-265,0,0,0,0,0,0,0,0,0,-1,776,1289,0,0
-441,-265,0,0,0,0,0,0,0,0,0,-1,783,1289,0,0
-434,-265,0,0,0,0,0,0,0,0,0,-1,790,1289,0,0
-427,-265,0,0,0,0,0,0,0,0,0,-1,797,1289,0,0
-420,-265,0,0,0,0,0,0,0,0,0,-1,804,1289,0,0
-413,-265,0,0,0,0,0,0,0,0,0,-1,811,1289,0,0
-406,-265,0,0,0,0,0,0,0,0,0,-1,818,1289,0,0
-399,-265,0,0,0,0,0,0,0,0,0,-1,825,1289,0,0
-392,-265,0,0,0,0,0,0,0,0,0,-1,832,1289,0,0
-385,-265,0,0,0,0,0,0,0,0,0,-1,839,1289,0,0
-378,-265,0,0,0,0,0,0,0,0,0,-1,846,1289,0,0
-371,-265,0,0,0,0,0,0,0,0,0,-1,853,1289,0,0
-364,-265,0,0,0,0,0,0,0,0,0,-1,860,1289,0,0
-357,-265,0,0,0,0,0,0,0,0,0,-1,867,1289,0,0
-350,-265,0,0,0,0,0,0,0,0,0,-1,874,1289,0,0
-343,-265,0,0,0,0,0,0,0,0,0,-1,881,1289,0,0
-336,-265,0,0,0,0,0,0,0,0,0,-1,888,1289,0,0
-329,-265,0,0,0,0,0,0,0,0,0,-1,895,1289,0,0
-322,-265,0,0,0,0,0,0,0,0,0,-1,902,1289,0,0
-315,-265,0,0,0,0,0,0,0,0,0,-1,909,1289,0,0
-308,-265,0,0,0,0,0,0,0,0,0,-1,916,1289,0,0
-301,-265,0,0,0,0,0,0,0,0,0,-1,923,1289,0,0
-294,-265,0,0,0,0,0,0,0,0,0,-1,930,1289,0,0
-287,-265,0,0,0,0,0,0,0,0,0,-1,937,1289,0,0
-280,-265,0,0,0,0,0,0,0,0,0,-1,944,1289,0,0
-273,-265,0,0,0,0,0,0,0,0,0,-1,951,1289,0,0
-266,-265,0,0,0,0,0,0,0,0,0,-1,958,1289,0,0
-259,-265,0,0,0,0,0,0,0,0,0,-1,965,1289,0,0
-252,-265,0,0,0,0,0,0,0,0,0,-1,972,1289,0,0
-245,-265,0,0,0,0,0,0,0,0,0,-1,979,1289,0,0
-238,-265,0,0,0,0,0,0,0,0,0,-1,986,1289,0,0
-231,-265,0,0,0,0,0,0,0,0,0,-1,993,1289,0,0
-224,-265,0,0,0,0,0,0,0,0,0,-1,1000,1289,0,0
-217,-265,0,0,0,0,0,0,0,0,0,-1,1007,1289,0,0
-210,-265,0,0,0,0,0,0,0,0,0,-1,1014,1289,0,0
-203,-265,0,0,0,0,0,0,0,0,0,-1,1021,1289,0,0
-196,-265,0,0,0,0,0,0,0,0,0,-1,1028,1289,0,0
-189,-265,0,0,0,0,0,0,0,0,0,-1,1035,1289,0,0
-182,-265,0,0,0,0,0,0,0,0,0,-1,1042,1289,0,0
-175,-265,0,0,0,0,0,0,0,0,0,-1,1049,1289,0,0
-168,-265,0,0,0,0,0,0,0,0,0,-1,1056,1289,0,0
-161,-265,0,0,0,0,0,0,0,0,0,-1,1063,1289,0,0
-154,-265,0,0,0,0,0,0,0,0,0,-1,1070,1289,0,0
-147,-265,0,0,0,0,0,0,0,0,0,-1,1077,1289,0,0
-140,-265,0,0,0,0,0,0,0,0,0,-1,1084,1289,0,0
-133,-265,0,0,0,0,0,0,0,0,0,-1,1091,1289,0,0
-126,-265,0,0,0,0,0,0,0,0,0,-1,1098,1289,0,0
-119,-265,0,0,0,0,0,0,0,0,0,-1,1105,1289,0,0
-112,-265,0,0,0,0,0,0,0,0,0,-1,1112,1289,0,0
-105,-265,0,0,0,0,0,0,0,0,0,-1,1119,1289,0,0
-98,-265,0,0,0,0,0,0,0,0,0,-1,1126,1289,0,0
-91,-265,0,0,0,0,0,0,0,0,0,-1,1133,1289,0,0
-84,-265,0,0,0,0,0,0,0,0,0,-1,1140,1289,0,0
-77,-265,0,0,0,0,0,0,0,0,0,-1,1147,1289,0,0
-70,-265,0,0,0,0,0,0,0,0,0,-1,1154,1289,0,0
-63,-265,0,0,0,0,0,0,0,0,0,-1,1161,1289,0,0
-56,-265,0,0,0,0,0,0,0,0,0,-1,1168,1289,0,0
-49,-265,0,0,0,0,0,0,0,0,0,-1,1175,1289,0,0
-42,-265,0,0,0,0,0,0,0,0,0,-1,1182,1289,0,0
-35,-265,0,0,0,0,0,0,0,0,0,-1,1189,1289,0,0
-28,-265,0,0,0,0,0,0,0,0,0,-1,1196,1289,0,0
-21,-265,0,0,0,0,0,0,0,0,0,-1,1203,1289,0,0
-14,-265,0,0,0,0,0,0,0,0,0,-1,1210,1289,0,0
-7,-265,0,0,0,0,0,0,0,0,0,-1,1217,1289,0,0
0,-265,0,0,0,0,0,0,0,0,0,-1,1224,1289,0,0
7,-265,0,0,0,0,0,0,0,0,0,-1,1231,1289,0,0
14,-265,0,0,0,0,0,0,0,0,0,-1,1238,1289,0,0
21,-265,0,0,0,0,0,0,0,0,0,-1,1245,1289,0,0
28,-265,0,0,0,0,0,0,0,0,0,-1,1252,1289,0,0
35,-265,0,0,0,0,0,0,0,0,0,-1,1259,1289,0,0
42,-265,0,0,0,0,0,0,0,0,0,-1,1266,1289,0,0
49,-265,0,0,0,0,0,0,0,0,0,-1,1273,1289,0,0
56,-265,0,0,0,0,0,0,0,0,0,-1,1280,1289,0,0
63,-265,0,0,0,0,0,0,0,0,0,-1,1287,1289,0,0
70,-265,0,0,0,0,0,0,0,0,0,-1,1294,1289,0,0
77,-265,0,0,0,0,0,0,0,0,0,-1,1301,1289,0,0
84,-265,0,0,0,0,0,0,0,0,0,-1,1308,1289,0,0
91,-265,0,0,0,0,0,0,0,0,0,-1,1315,1289,0,0
98,-265,0,0,0,0,0,0,0,0,0,-1,1322,1289,0,0
105,-265,0,0,0,0,0,0,0,0,0,-1,1329,1289,0,0
112,-265,0,0,0,0,0,0,0,0,0,-1,1336,1289,0,0
119,-265,0,0,0,0,0,0,0,0,0,-1,1343,1289,0,0
126,-265,0,0,0,0,0,0,0,0,0,-1,1350,1289,0,0
133,-265,0,0,0,0,0,0,0,0,0,-1,1357,1289,0,0
140,-265,0,0,0,0,0,0,0,0,0,-1,1364,1289,0,0
147,-265,0,0,0,0,0,0,0,0,0,-1,1371,1289,0,0
154,-265,0,0,0,0,0,0,0,0,0,-1,1378,1289,0,0
161,-265,0,0,0,0,0,0,0,0,0,-1,1385,1289,0,0
168,-265,0,0,0,0,0,0,0,0,0,-1,1392,1289,0,0
175,-265,0,0,0,0,0,0,0,0,0,-1,1399,1289,0,0
182,-265,0,0,0,0,0,0,0,0,0,-1,1406,1289,0,0
189,-265,0,0,0,0,0,0,0,0,0,-1,1413,1289,0,0
196,-265,0,0,0,0,0,0,0,0,0,-1,1420,1289,0,0
203,-265,0,0,0,0,0,0,0,0,0,-1,1427,1289,0,0
210,-265,0,0,0,0,0,0,0,0,0,-1,1434,1289,0,0
217,-265,0,0,0,0,0,0,0,0,0,-1,1441,1289,0,0
224,-265,0,0,0,0,0,0,0,0,0,-1,1448,1289,0,0
231,-265,0,0,0,0,0,0,0,0,0,-1,1455,1289,0,0
238,-265,0,0,0,0,0,0,0,0,0,-1,1462,1289,0,0
245,-265,0,0,0,0,0,0,0,0,0,-1,1469,1289,0,0
252,-265,0,0,0,0,0,0,0,0,0,-1,1476,1289,0,0
259,-265,0,0,0,0,0,0,0,0,0,-1,1483,1289,0,0
266,-265,0,0,0,0,0,0,0,0,0,-1,1490,1289,0,0
273,-265,0,0,0,0,0,0,0,0,0,-1,1497,1289,0,0
280,-265,0,0,0,0,0,0,0,0,0,-1,1504,1289,0,0
287,-265,0,0,0,0,0,0,0,0,0,-1,1511,1289,0,0
294,-265,0,0,0,0,0,0,0,0,0,-1,1518,1289,0,0
301,-265,0,0,0,0,0,0,0,0,0,-1,1525,1289,0,0
308,-265,0,0,0,0,0,0,0,0,0,-1,1532,1289,0,0
315,-265,0,0,0,0,0,0,0,0,0,-1,1539,1289,0,0
322,-265,0,0,0,0,0,0,0,0,0,-1,1546,1289,0,0
329,-265,0,0,0,0,0,0,0,0,0,-1,1553,1289,0,0
336,-265,0,0,0,0,0,0,0,0,0,-1,1560,1289,0,0
343,-265,0,0,0,0,0,0,0,0,0,-1,1567,1289,0,0
350,-265,0,0,0,0,0,0,0,0,0,-1,1574,1289,0,0
357,-265,0,0,0,0,0,0,0,0,0,-1,1581,1289,0,0
364,-265,0,0,0,0,0,0,0,0,0,-1,1588,1289,0,0
371,-265,0,0,0,0,0,0,0,0,0,-1,1595,1289,0,0
378,-265,0,0,0,0,0,0,0,0,0,-1,1602,1289,0,0
385,-265,0,0,0,0,0,0,0,0,0,-1,1609,1289,0,0
392,-265,0,0,0,0,0,0,0,0,0,-1,1616,1289,0,0
399,-265,0,0,0,0,0,0,0,0,0,-1,1623,1289,0,0
406,-265,0,0,0,0,0,0,0,0,0,-1,1630,1289,0,0
413,-265,0,0,0,0,0,0,0,0,0,-1,1637,1289,0,0
420,-265,0,0,0,0,0,0,0,0,0,-1,1644,1289,0,0
427,-265,0,0,0,0,0,0,0,0,0,-1,1651,1289,0,0
434,-265,0,0,0,0,0,0,0,0,0,-1,1658,1289,0,0
441,-265,0,0,0,0,0,0,0,0,0,-1,1665,1289,0,0
448,-265,0,0,0,0,0,0,0,0,0,-1,1672,1289,0,0
455,-265,0,0,0,0,0,0,0,0,0,-1,1679,1289,0,0
462,-265,0,0,0,0,0,0,0,0,0,-1,1686,1289,0,0
469,-265,0,0,0,0,0,0,0,0,0,-1,1693,1289,0,0
476,-265,0,0,0,0,0,0,0,0,0,-1,1700,1289,0,0
483,-265,0,0,0,0,0,0,0,0,0,-1,1707,1289,0,0
490,-265,0,0,0,0,0,0,0,0,0,-1,1714,1289,0,0
497,-265,0,0,0,0,0,0,0,0,0,-1,1721,1289,0,0
504,-265,0,0,0,0,0,0,0,0,0,-1,1728,1289,0,0
511,-265,0,0,0,0,0,0,0,0,0,-1,1735,1289,0,0
518,-265,0,0,0,0,0,0,0,0,0,-1,1742,1289,0,0
525,-265,0,0,0,0,0,0,0,0,0,-1,1749,1289,0,0
532,-265,0,0,0,0,0,0,0,0,0,-1,1756,1289,0,0
539,-265,0,0,0,0,0,0,0,0,0,-1,1763,1289,0,0
546,-265,0,0,0,0,0,0,0,0,0,-1,1770,1289,0,0
553,-265,0,0,0,0,0,0,0,0,0,-1,1777,1289,0,0
560,-265,0,0,0,0,0,0,0,0,0,-1,1784,1289,0,0
567,-265,0,0,0,0,0,0,0,0,0,-1,1791,1289,0,0
574,-265,0,0,0,0,0,0,0,0,0,-1,1798,1289,0,0
581,-265,0,0,0,0,0,0,0,0,0,-1,1805,1289,0,0
588,-265,0,0,0,0,0,0,0,0,0,-1,1812,1289,0,0
595,-265,0,0,0,0,0,0,0,0,0,-1,1819,1289,0,0
602,-265,-0.0931396,0.0200195,0.00785621,-0.00198537,-0.000747672,0.00791268,-0.00204185,-0.0753941,0.00607129,0.0240522,1826,1289,-0.0931883,-0.0200067
609,-265,-0.0892334,-0.0378418,0.00203348,-0.000592701,-0.000613894,0.0021699,-0.000729118,-0.218663,0.00174129,0.0239444,1833,1289,-0.0892501,0.0377979
616,-265,-0.105347,-0.0373535,-0.00158219,-0.00155972,8.34934e-05,-0.00148671,-0.0016552,0.852279,0.00105181,0.0288206,1840,1289,-0.105355,0.0373084
623,-265,-0.117065,0.00415039,-0.00415758,-0.00256268,-6.00727e-05,-0.00256042,-0.00415984,-1.5332,0.00242295,0.0414981,1847,1289,-0.117119,-0.0041033
630,-265,0.364014,1.83362,0,0,0,0,0,0,0,-1,1854,1289,0.364029,-1.83358
637,-265,-0.175171,1.86194,-0.00660609,-0.00371924,-0.00089457,-0.00346451,-0.00686082,-1.29339,0.00396116,0.046751,1861,1289,-0.175201,-1.86195
644,-265,-0.876221,1.91443,-0.00688924,-0.00387501,-0.00127918,-0.00340534,-0.00735891,-1.21891,0.0042526,0.0455519,1868,1289,-0.876215,-1.91437
651,-265,-1.453,1.46228,-0.00659285,-0.0037486,-0.00159459,-0.00303411,-0.00730735,-1.14954,0.00423907,0.0451428,1875,1289,-1.45299,-1.4623
658,-265,-1.86426,1.29309,0,0,0,0,0,0,0,-1,1882,1289,-1.86423,-1.29307
665,-265,0.441772,0.449219,-0.00541895,-0.0028759,-0.00204238,-0.00174158,-0.00655327,-1.06382,0.00391949,0.0460425,1889,1289,0.441799,-0.449226
672,-265,0.0578613,0.203979,-0.00471559,-0.00243954,-0.00213078,-0.00116193,-0.0059932,-1.03067,0.00366999,0.045049,1896,1289,0.0578212,-0.203942
679,-265,-0.0161133,0.0430908,-0.003803,-0.00173145,-0.00205189,-0.000468737,-0.00506572,-1.01913,0.00323225,0.0192185,1903,1289,-0.0161661,-0.0430664
686,-265,-0.0471191,0.0601807,-0.00261607,-0.000910243,-0.0016774,0.000118632,-0.00364494,-1.0206,0.00247046,0.0107031,1910,1289,-0.0471398,-0.0601464
693,-265,-0.0578613,0.0526123,-0.00158758,-6.08639e-05,-0.00149006,0.000849991,-0.00249843,-1.02212,0.00200979,0.00886408,1917,1289,-0.0579189,-0.0525713
700,-265,-0.0601807,0.0574951,-0.000996397,0.000789263,-0.00113671,0.00134186,-0.001549,-1.1183,0.00167046,0.00930127,1924,1289,-0.0602364,-0.0575497
707,-265,-0.0482178,0.0570068,-0.00101328,0.00142347,-0.000569824,0.00155014,-0.00113995,-1.35206,0.00155913,0.00942655,1931,1289,-0.0482025,-0.0570486
714,-265,-0.0499268,0.0566406,-0.00105376,0.00246128,0.000111617,0.00246482,-0.0010573,1.53908,0.00208692,0.00859975,1938,1289,-0.0498978,-0.0566706
721,-265,-0.0439453,0.0552979,-0.000502853,0.00318506,0.00110097,0.00348873,-0.000806523,1.30167,0.00263611,0.00798132,1945,1289,-0.0438857,-0.0553409
728,-265,-0.0336914,0.0616455,-0.000195059,0.00395783,0.00206659,0.00481096,-0.00104819,1.17929,0.00360782,0.0113342,1952,1289,-0.0337413,-0.0616991
735,-265,-0.0235596,0.0687256,0.000345844,0.00538724,0.00304123,0.0068166,-0.00108352,1.13144,0.0049453,0.0149725,1959,1289,-0.0235499,-0.0687501
742,-265,-0.0594482,0.0900879,0.00132185,0.00752879,0.0040712,0.00954452,-0.000693874,1.11106,0.00660646,0.0172136,1966,1289,-0.0595048,-0.0900331
749,-265,-0.242432,0.0576172,0.00289881,0.0101612,0.0055309,0.0131464,-8.63792e-05,1.07587,0.00879317,0.0320846,1973,1289,-0.242468,-0.0575567
756,-265,-0.471069,-0.0518799,0.00540295,0.0133734,0.00716208,0.0175843,0.00119199,1.03928,0.0113465,0.0404214,1980,1289,-0.471126,0.0519323
763,-265,-0.319946,-0.272583,0.00915789,0.0172098,0.00880797,0.0228683,0.0034994,0.999762,0.0142233,0.0441501,1987,1289,-0.319942,0.272614
770,-265,-0.226685,0.737915,0.0144795,0.0217069,0.0101568,0.0288737,0.00731274,0.956311,0.0173336,0.0450309,1994,1289,-0.226635,-0.737868
777,-265,-0.403931,1.60889,0,0,0,0,0,0,0,-1,2001,1289,-0.403885,-1.60891
784,-265,0,0,0,0,0,0,0,0,0,-1,2008,1289,0,0
791,-265,0,0,0,0,0,0,0,0,0,-1,2015,1289,0,0
798,-265,0,0,0,0,0,0,0,0,0,-1,2022,1289,0,0
805,-265,0,0,0,0,0,0,0,0,0,-1,2029,1289,0,0
812,-265,0,0,0,0,0,0,0,0,0,-1,2036,1289,0,0
-700,-272,0,0,0,0,0,0,0,0,0,-1,524,1296,0,0
-693,-272,0,0,0,0,0,0,0,0,0,-1,531,1296,0,0
-686,-272,0,0,0,0,0,0,0,0,0,-1,538,1296,0,0
-679,-272,0,0,0,0,0,0,0,0,0,-1,545,1296,0,0
-672,-272,0,0,0,0,0,0,0,0,0,-1,552,1296,0,0
-665,-272,0,0,0,0,0,0,0,0,0,-1,559,1296,0,0
-658,-272,0.40509,-0.714966,0,0,0,0,0,0,0,-1,566,1296,0.405073,0.714979
-651,-272,0.436707,-0.401855,0,0,0,0,0,0,0,-1,573,1296,0.43671,0.401834
-644,-272,0.207092,-0.193237,0,0,0,0,0,0,0,-1,580,1296,0.207072,0.193228
-637,-272,0.253906,-0.754272,0,0,0,0,0,0,0,-1,587,1296,0.253902,0.754267
-630,-272,0.117432,-0.238647,0,0,0,0,0,0,0,-1,594,1296,0.117439,0.238656
-623,-272,0.299072,-0.197632,0,0,0,0,0,0,0,-1,601,1296,0.299069,0.197626
-616,-272,0.0507202,0.0246582,-0.0101504,0.0101813,0.00720462,0.0124754,-0.0124445,1.26252,0.0143875,0.0331539,608,1296,0.050711,-0.0246652
-609,-272,-0.0209961,0.0704346,-0.00631644,0.00696328,0.00509431,0.0086924,-0.00804556,1.24358,0.00966607,0.016406,615,1296,-0.0209999,-0.0704531
-602,-272,-0.0254517,0.0622559,-0.00368111,0.00457815,0.00359885,0.00592626,-0.00502921,1.21238,0.00633221,0.0117795,622,1296,-0.0254651,-0.0622197
-595,-272,-0.0194092,0.0773926,-0.00196748,0.0028794,0.00268389,0.00407209,-0.00316016,1.15262,0.00418659,0.00992546,629,1296,-0.0193888,-0.0773422
-588,-272,-0.0123291,0.0722656,-0.00143926,0.00214577,0.00228189,0.003255,-0.00254849,1.11833,0.00335891,0.00906444,636,1296,-0.0123507,-0.072292
-581,-272,-0.0258789,0.0662842,-0.000904076,0.00194148,0.00153276,0.00261003,-0.00157262,1.1595,0.00243949,0.008788,643,1296,-0.0258864,-0.0662899
-574,-272,-0.039856,0.0714111,-0.000184471,0.00246822,0.000415331,0.00253173,-0.000247979,1.41906,0.00177626,0.0135945,650,1296,-0.0398699,-0.0713789
-567,-272,-0.0645142,0.0787354,0.000170603,0.00407222,-0.000623935,0.00416957,7.32543e-05,-1.41602,0.00275562,0.0179341,657,1296,-0.0645402,-0.0787116
-560,-272,-0.0592651,0.0773926,0.000275126,0.00682061,-0.00149178,0.00714457,-4.88337e-05,-1.35695,0.00477941,0.0175279,664,1296,-0.059287,-0.0773945
-553,-272,-0.0213623,0.0715332,0.000875268,0.0090957,-0.00228682,0.00968903,0.000281931,-1.31693,0.00636746,0.0122011,671,1296,-0.0213872,-0.0715045
-546,-272,-0.0288086,0.0577393,0.00199048,0.0105364,-0.00291455,0.0114357,0.00109113,-1.27149,0.00728738,0.0156909,678,1296,-0.0287916,-0.0577204
-539,-272,-0.278564,0.102295,0.00323983,0.011692,-0.0034506,0.0129218,0.00201006,-1.22844,0.00802882,0.0397849,685,1296,-0.278542,-0.102245
-532,-272,-0.516968,0.0688477,0.00475016,0.0125053,-0.00382654,0.0140755,0.00317997,-1.18141,0.00852373,0.0469499,692,1296,-0.516966,-0.0688243
-525,-272,-0.143311,-0.374634,0.0065024,0.0127727,-0.00392921,0.0146642,0.00461083,-1.12213,0.0086586,0.0418019,699,1296,-0.143331,0.374681
-518,-272,0.349548,-0.72168,0.00830303,0.012035,-0.00380347,0.0144056,0.00593248,-1.01345,0.00836007,0.0436151,706,1296,0.349565,0.721683
-511,-272,0.354614,-0.898193,0.0102117,0.00990139,-0.00324875,0.013309,0.0068041,-0.761535,0.00768461,0.0466967,713,1296,0.3546,0.898143
-504,-272,-0.703308,0.561401,0,0,0,0,0,0,0,-1,720,1296,-0.703338,-0.561348
-497,-272,-0.637573,0.693359,0.0143797,3.21365e-05,-0.000618175,0.0144063,5.55068e-06,-0.0429796,0.00960233,0.0454091,727,1296,-0.637545,-0.69335
-490,-272,-0.308899,0.447388,0.0163757,-0.00796865,0.00159707,0.01648,-0.00807298,0.0652306,0.01445,0.0394194,734,1296,-0.308917,-0.447402
-483,-272,-0.15918,0.239502,0.0178971,-0.017897,0.0043829,0.018426,-0.0184258,0.120084,0.0212764,0.0354522,741,1296,-0.159155,-0.239544
-476,-272,0,0,0,0,0,0,0,0,0,-1,748,1296,0,0
-469,-272,0,0,0,0,0,0,0,0,0,-1,755,1296,0,0
-462,-272,0,0,0,0,0,0,0,0,0,-1,762,1296,0,0
-455,-272,0,0,0,0,0,0,0,0,0,-1,769,1296,0,0
-448,-272,0,0,0,0,0,0,0,0,0,-1,776,1296,0,0
-441,-272,0,0,0,0,0,0,0,0,0,-1,783,1296,0,0
-434,-272,0,0,0,0,0,0,0,0,0,-1,790,1296,0,0
-427,-272,0,0,0,0,0,0,0,0,0,-1,797,1296,0,0
-420,-272,0,0,0,0,0,0,0,0,0,-1,804,1296,0,0
-413,-272,0,0,0,0,0,0,0,0,0,-1,811,1296,0,0
-406,-272,0,0,0,0,0,0,0,0,0,-1,818,1296,0,0
-399,-272,0,0,0,0,0,0,0,0,0,-1,825,1296,0,0
-392,-272,0,0,0,0,0,0,0,0,0,-1,832,1296,0,0
-385,-272,0,0,0,0,0,0,0,0,0,-1,839,1296,0,0
-378,-272,0,0,0,0,0,0,0,0,0,-1,846,1296,0,0
-371,-272,0,0,0,0,0,0,0,0,0,-1,853,1296,0,0
-364,-272,0,0,0,0,0,0,0,0,0,-1,860,1296,0,0
-357,-272,0,0,0,0,0,0,0,0,0,-1,867,1296,0,0
-350,-272,0,0,0,0,0,0,0,0,0,-1,874,1296,0,0
-343,-272,0,0,0,0,0,0,0,0,0,-1,881,1296,0,0
-336,-272,0,0,0,0,0,0,0,0,0,-1,888,1296,0,0
-329,-272,0,0,0,0,0,0,0,0,0,-1,895,1296,0,0
-322,-272,0,0,0,0,0,0,0,0,0,-1,902,1296,0,0
-315,-272,0,0,0,0,0,0,0,0,0,-1,909,1296,0,0
-308,-272,0,0,0,0,0,0,0,0,0,-1,916,1296,0,0
-301,-272,0,0,0,0,0,0,0,0,0,-1,923,1296,0,0
-294,-272,0,0,0,0,0,0,0,0,0,-1,930,1296,0,0
-287,-272,0,0,0,0,0,0,0,0,0,-1,937,1296,0,0
-280,-272,0,0,0,0,0,0,0,0,0,-1,944,1296,0,0
-273,-272,0,0,0,0,0,0,0,0,0,-1,951,1296,0,0
-266,-272,0,0,0,0,0,0,0,0,0,-1,958,1296,0,0
-259,-272,0,0,0,0,0,0,0,0,0,-1,965,1296,0,0
-252,-272,0,0,0,0,0,0,0,0,0,-1,972,1296,0,0
-245,-272,0,0,0,0,0,0,0,0,0,-1,979,1296,0,0
-238,-272,0,0,0,0,0,0,0,0,0,-1,986,1296,0,0
-231,-272,0,0,0,0,0,0,0,0,0,-1,993,1296,0,0
-224,-272,0,0,0,0,0,0,0,0,0,-1,1000,1296,0,0
-217,-272,0,0,0,0,0,0,0,0,0,-1,1007,1296,0,0
-210,-272,0,0,0,0,0,0,0,0,0,-1,1014,1296,0,0
-203,-272,0,0,0,0,0,0,0,0,0,-1,1021,1296,0,0
-196,-272,0,0,0,0,0,0,0,0,0,-1,1028,1296,0,0
-189,-272,0,0,0,0,0,0,0,0,0,-1,1035,1296,0,0
-182,-272,0,0,0,0,0,0,0,0,0,-1,1042,1296,0,0
-175,-272,0,0,0,0,0,0,0,0,0,-1,1049,1296,0,0
-168,-272,0,0,0,0,0,0,0,0,0,-1,1056,1296,0,0
-161,-272,0,0,0,0,0,0,0,0,0,-1,1063,1296,0,0
-154,-272,0,0,0,0,0,0,0,0,0,-1,1070,1296,0,0
-147,-272,0,0,0,0,0,0,0,0,0,-1,1077,1296,0,0
-140,-272,0,0,0,0,0,0,0,0,0,-1,1084,1296,0,0
-133,-272,0,0,0,0,0,0,0,0,0,-1,1091,1296,0,0
-126,-272,0,0,0,0,0,0,0,0,0,-1,1098,1296,0,0
-119,-272,0,0,0,0,0,0,0,0,0,-1,1105,1296,0,0
-112,-272,0,0,0,0,0,0,0,0,0,-1,1112,1296,0,0
-105,-272,0,0,0,0,0,0,0,0,0,-1,1119,1296,0,0
-98,-272,0,0,0,0,0,0,0,0,0,-1,1126,1296,0,0
-91,-272,0,0,0,0,0,0,0,0,0,-1,1133,1296,0,0
-84,-272,0,0,0,0,0,0,0,0,0,-1,1140,1296,0,0
-77,-272,0,0,0,0,0,0,0,0,0,-1,1147,1296,0,0
-70,-272,0,0,0,0,0,0,0,0,0,-1,1154,1296,0,0
-63,-272,0,0,0,0,0,0,0,0,0,-1,1161,1296,0,0
-56,-272,0,0,0,0,0,0,0,0,0,-1,1168,1296,0,0
-49,-272,0,0,0,0,0,0,0,0,0,-1,1175,1296,0,0
-42,-272,0,0,0,0,0,0,0,0,0,-1,1182,1296,0,0
-35,-272,0,0,0,0,0,0,0,0,0,-1,1189,1296,0,0
-28,-272,0,0,0,0,0,0,0,0,0,-1,1196,1296,0,0
-21,-272,0,0,0,0,0,0,0,0,0,-1,1203,1296,0,0
-14,-272,0,0,0,0,0,0,0,0,0,-1,1210,1296,0,0
-7,-272,0,0,0,0,0,0,0,0,0,-1,1217,1296,0,0
0,-272,0,0,0,0,0,0,0,0,0,-1,1224,1296,0,0
7,-272,0,0,0,0,0,0,0,0,0,-1,1231,1296,0,0
14,-272,0,0,0,0,0,0,0,0,0,-1,1238,1296,0,0
21,-272,0,0,0,0,0,0,0,0,0,-1,1245,1296,0,0
28,-272,0,0,0,0,0,0,0,0,0,-1,1252,1296,0,0
35,-272,0,0,0,0,0,0,0,0,0,-1,1259,1296,0,0
42,-272,0,0,0,0,0,0,0,0,0,-1,1266,1296,0,0
49,-272,0,0,0,0,0,0,0,0,0,-1,1273,1296,0,0
56,-272,0,0,0,0,0,0,0,0,0,-1,1280,1296,0,0
63,-272,0,0,0,0,0,0,0,0,0,-1,1287,1296,0,0
70,-272,0,0,0,0,0,0,0,0,0,-1,1294,1296,0,0
77,-272,0,0,0,0,0,0,0,0,0,-1,1301,1296,0,0
84,-272,0,0,0,0,0,0,0,0,0,-1,1308,1296,0,0
91,-272,0,0,0,0,0,0,0,0,0,-1,1315,1296,0,0
98,-272,0,0,0,0,0,0,0,0,0,-1,1322,1296,0,0
105,-272,0,0,0,0,0,0,0,0,0,-1,1329,1296,0,0
112,-272,0,0,0,0,0,0,0,0,0,-1,1336,1296,0,0
119,-272,0,0,0,0,0,0,0,0,0,-1,1343,1296,0,0
126,-272,0,0,0,0,0,0,0,0,0,-1,1350,1296,0,0
133,-272,0,0,0,0,0,0,0,0,0,-1,1357,1296,0,0
140,-272,0,0,0,0,0,0,0,0,0,-1,1364,1296,0,0
147,-272,0,0,0,0,0,0,0,0,0,-1,1371,1296,0,0
154,-272,0,0,0,0,0,0,0,0,0,-1,1378,1296,0,0
161,-272,0,0,0,0,0,0,0,0,0,-1,1385,1296,0,0
168,-272,0,0,0,0,0,0,0,0,0,-1,1392,1296,0,0
175,-272,0,0,0,0,0,0,0,0,0,-1,1399,1296,0,0
182,-272,0,0,0,0,0,0,0,0,0,-1,1406,1296,0,0
189,-272,0,0,0,0,0,0,0,0,0,-1,1413,1296,0,0
196,-272,0,0,0,0,0,0,0,0,0,-1,1420,1296,0,0
203,-272,0,0,0,0,0,0,0,0,0,-1,1427,1296,0,0
210,-272,0,0,0,0,0,0,0,0,0,-1,1434,1296,0,0
217,-272,0,0,0,0,0,0,0,0,0,-1,1441,1296,0,0
224,-272,0,0,0,0,0,0,0,0,0,-1,1448,1296,0,0
231,-272,0,0,0,0,0,0,0,0,0,-1,1455,1296,0,0
238,-272,0,0,0,0,0,0,0,0,0,-1,1462,1296,0,0
245,-272,0,0,0,0,0,0,0,0,0,-1,1469,1296,0,0
252,-272,0,0,0,0,0,0,0,0,0,-1,1476,1296,0,0
259,-272,0,0,0,0,0,0,0,0,0,-1,1483,1296,0,0
266,-272,0,0,0,0,0,0,0,0,0,-1,1490,1296,0,0
273,-272,0,0,0,0,0,0,0,0,0,-1,1497,1296,0,0
280,-272,0,0,0,0,0,0,0,0,0,-1,1504,1296,0,0
287,-272,0,0,0,0,0,0,0,0,0,-1,1511,1296,0,0
294,-272,0,0,0,0,0,0,0,0,0,-1,1518,1296,0,0
301,-272,0,0,0,0,0,0,0,0,0,-1,1525,1296,0,0
308,-272,0,0,0,0,0,0,0,0,0,-1,1532,1296,0,0
315,-272,0,0,0,0,0,0,0,0,0,-1,1539,1296,0,0
322,-272,0,0,0,0,0,0,0,0,0,-1,1546,1296,0,0
329,-272,0,0,0,0,0,0,0,0,0,-1,1553,1296,0,0
336,-272,0,0,0,0,0,0,0,0,0,-1,1560,1296,0,0
343,-272,0,0,0,0,0,0,0,0,0,-1,1567,1296,0,0
350,-272,0,0,0,0,0,0,0,0,0,-1,1574,1296,0,0
357,-272,0,0,0,0,0,0,0,0,0,-1,1581,1296,0,0
364,-272,0,0,0,0,0,0,0,0,0,-1,1588,1296,0,0
371,-272,0,0,0,0,0,0,0,0,0,-1,1595,1296,0,0
378,-272,0,0,0,0,0,0,0,0,0,-1,1602,1296,0,0
385,-272,0,0,0,0,0,0,0,0,0,-1,1609,1296,0,0
392,-272,0,0,0,0,0,0,0,0,0,-1,1616,1296,0,0
399,-272,0,0,0,0,0,0,0,0,0,-1,1623,1296,0,0
406,-272,0,0,0,0,0,0,0,0,0,-1,1630,1296,0,0
413,-272,0,0,0,0,0,0,0,0,0,-1,1637,1296,0,0
420,-272,0,0,0,0,0,0,0,0,0,-1,1644,1296,0,0
427,-272,0,0,0,0,0,0,0,0,0,-1,1651,1296,0,0
434,-272,0,0,0,0,0,0,0,0,0,-1,1658,1296,0,0
441,-272,0,0,0,0,0,0,0,0,0,-1,1665,1296,0,0
448,-272,0,0,0,0,0,0,0,0,0,-1,1672,1296,0,0
455,-272,0,0,0,0,0,0,0,0,0,-1,1679,1296,0,0
462,-272,0,0,0,0,0,0,0,0,0,-1,1686,1296,0,0
469,-272,0,0,0,0,0,0,0,0,0,-1,1693,1296,0,0
476,-272,0,0,0,0,0,0,0,0,0,-1,1700,1296,0,0
483,-272,0,0,0,0,0,0,0,0,0,-1,1707,1296,0,0
490,-272,0,0,0,0,0,0,0,0,0,-1,1714,1296,0,0
497,-272,0,0,0,0,0,0,0,0,0,-1,1721,1296,0,0
504,-272,0,0,0,0,0,0,0,0,0,-1,1728,1296,0,0
511,-272,0,0,0,0,0,0,0,0,0,-1,1735,1296,0,0
518,-272,0,0,0,0,0,0,0,0,0,-1,1742,1296,0,0
525,-272,0,0,0,0,0,0,0,0,0,-1,1749,1296,0,0
532,-272,0,0,0,0,0,0,0,0,0,-1,1756,1296,0,0
539,-272,0,0,0,0,0,0,0,0,0,-1,1763,1296,0,0
546,-272,0,0,0,0,0,0,0,0,0,-1,1770,1296,0,0
553,-272,0,0,0,0,0,0,0,0,0,-1,1777,1296,0,0
560,-272,0,0,0,0,0,0,0,0,0,-1,1784,1296,0,0
567,-272,0,0,0,0,0,0,0,0,0,-1,1791,1296,0,0
574,-272,0,0,0,0,0,0,0,0,0,-1,1798,1296,0,0
581,-272,0,0,0,0,0,0,0,0,0,-1,1805,1296,0,0
588,-272,0,0,0,0,0,0,0,0,0,-1,1812,1296,0,0
595,-272,0,0,0,0,0,0,0,0,0,-1,1819,1296,0,0
602,-272,-0.0720215,0.0162354,0.00245893,-0.0011494,-0.00331136,0.00442572,-0.00311619,-0.535961,0.00437615,0.0275218,1826,1296,-0.0720129,-0.0161969
609,-272,-0.0683594,-0.019043,-0.00165595,0.00162688,-0.00205439,0.00261506,-0.00264413,-1.12246,0.00303641,0.0330506,1833,1296,-0.0683789,0.0190537
616,-272,0.106689,0.27356,-0.00424612,0.00143087,-0.000834849,0.00155109,-0.00436635,-1.42777,0.00354297,0.042377,1840,1296,0.106692,-0.273595
623,-272,0.259033,0.524658,-0.00619583,0.000629722,-0.000487457,0.000664359,-0.00623047,-1.49986,0.00439188,0.0435563,1847,1296,0.259019,-0.524676
630,-272,-0.438721,2.13245,0,0,0,0,0,0,0,-1,1854,1296,-0.438775,-2.13245
637,-272,-0.476196,1.87561,-0.00789786,-0.00112903,-0.000662364,-0.00106483,-0.00796207,-1.47416,0.00499111,0.046631,1861,1296,-0.476243,-1.87559
644,-272,-1.00208,2.21936,-0.00803411,-0.00181274,-0.000903257,-0.00168426,-0.0081626,-1.4295,0.00497625,0.0487072,1868,1296,-1.00208,-2.21939
651,-272,-0.594238,1.57507,-0.00767379,-0.00224094,-0.00118679,-0.001993,-0.00792173,-1.36484,0.00475805,0.0445236,1875,1296,-0.594234,-1.57504
658,-272,0.0742188,-0.175537,0,0,0,0,0,0,0,-1,1882,1296,0.0742637,0.175539
665,-272,0.322266,0.452759,-0.00641381,-0.0024184,-0.0017315,-0.00177244,-0.00705976,-1.21373,0.004241,0.0487683,1889,1296,0.322248,-0.452731
672,-272,-0.0323486,0.0385742,-0.00565368,-0.00233992,-0.00191822,-0.00146208,-0.00653152,-1.14161,0.00395805,0.0444796,1896,1296,-0.0323596,-0.0385429
679,-272,-0.0351563,0.0286865,-0.00460979,-0.00186839,-0.00193422,-0.000868433,-0.00560975,-1.09366,0.0034866,0.0166547,1903,1296,-0.0351899,-0.028707
686,-272,-0.0344238,0.0648193,-0.00321637,-0.00114545,-0.00158737,-0.00028567,-0.00407615,-1.0744,0.00262739,0.0122031,1910,1296,-0.0344839,-0.0648353
693,-272,-0.0543213,0.0740967,-0.00204443,-0.000274288,-0.00141968,0.000513614,-0.00283233,-1.06413,0.00208067,0.0104133,1917,1296,-0.0543562,-0.0741413
700,-272,-0.055542,0.0776367,-0.001321,0.000657384,-0.00107619,0.00112994,-0.00179355,-1.15705,0.00170231,0.0099978,1924,1296,-0.0555396,-0.0775947
707,-272,-0.0446777,0.0693359,-0.00119095,0.00142856,-0.000510883,0.00152467,-0.00128706,-1.38484,0.00162529,0.00990424,1931,1296,-0.0447185,-0.0693112
714,-272,-0.0462646,0.0528564,-0.000957794,0.00269071,0.000198236,0.00270145,-0.000968533,1.51668,0.00219619,0.00928063,1938,1296,-0.0462391,-0.0528737
721,-272,-0.0487061,0.0510254,-0.000141837,0.00357805,0.00114042,0.00389984,-0.000463624,1.29578,0.00276741,0.00929922,1945,1296,-0.0487563,-0.0510274
728,-272,-0.0328369,0.0578613,0.000331871,0.0047395,0.00211322,0.00558896,-0.000517594,1.18859,0.00390994,0.0109208,1952,1296,-0.0328603,-0.0578775
735,-272,-0.0238037,0.0737305,0.000988345,0.00659276,0.00308101,0.00795529,-0.000374183,1.15442,0.00543255,0.01199,1959,1296,-0.0237952,-0.0737465
742,-272,-0.0535889,0.090332,0.00208987,0.00910919,0.00414085,0.0110276,0.000171424,1.13694,0.00729529,0.0210745,1966,1296,-0.0536268,-0.0903212
749,-272,-0.202148,0.0373535,0.00384166,0.012199,0.00559749,0.0150056,0.00103513,1.10604,0.00967714,0.036911,1973,1296,-0.202098,-0.0373953
756,-272,-0.5177,-0.109009,0,0,0,0,0,0,0,-1,1980,1296,-0.51772,0.10904
763,-272,-0.651245,-1.12646,0.0105983,0.0203914,0.00891144,0.0256629,0.00532673,1.03662,0.0156384,0.0465364,1987,1296,-0.651272,1.12649
770,-272,0.378052,0.383057,0.016286,0.0255255,0.01028,0.0321761,0.00963538,0.996572,0.0190685,0.0483473,1994,1296,0.378045,-0.383101
777,-272,-0.263794,1.48059,0,0,0,0,0,0,0,-1,2001,1296,-0.263847,-1.48055
784,-272,0,0,0,0,0,0,0,0,0,-1,2008,1296,0,0
791,-272,0,0,0,0,0,0,0,0,0,-1,2015,1296,0,0
798,-272,0,0,0,0,0,0,0,0,0,-1,2022,1296,0,0
805,-272,0,0,0,0,0,0,0,0,0,-1,2029,1296,0,0
812,-272,0,0,0,0,0,0,0,0,0,-1,2036,1296,0,0
-700,-279,0,0,0,0,0,0,0,0,0,-1,524,1303,0,0
-693,-279,0,0,0,0,0,0,0,0,0,-1,531,1303,0,0
-686,-279,0,0,0,0,0,0,0,0,0,-1,538,1303,0,0
-679,-279,0,0,0,0,0,0,0,0,0,-1,545,1303,0,0
-672,-279,0,0,0,0,0,0,0,0,0,-1,552,1303,0,0
-665,-279,0,0,0,0,0,0,0,0,0,-1,559,1303,0,0
-658,-279,0.299377,-0.621826,0,0,0,0,0,0,0,-1,566,1303,0.299405,0.621781
-651,-279,0.199036,-0.365601,0,0,0,0,0,0,0,-1,573,1303,0.199044,0.365561
-644,-279,0.134766,-0.138062,0,0,0,0,0,0,0,-1,580,1303,0.134743,0.138075
-637,-279,0.126343,-0.141235,0,0,0,0,0,0,0,-1,587,1303,0.126334,0.141269
-630,-279,-0.300476,-0.771606,0,0,0,0,0,0,0,-1,594,1303,-0.300469,0.771594
-623,-279,-0.187256,-0.300171,-0.0164935,0.0156095,0.00727685,0.0171819,-0.018066,1.35798,0.0203525,0.0393198,601,1303,-0.187269,0.300223
-616,-279,0.0448608,0.0535889,-0.0110164,0.0111758,0.00577904,0.0125906,-0.0124311,1.33072,0.0144463,0.0381393,608,1303,0.0448901,-0.0536056
-609,-279,-0.0152588,0.0404053,-0.00691866,0.00773429,0.00427122,0.00888841,-0.00807279,1.30689,0.00979633,0.0230577,615,1303,-0.0152401,-0.0403966
-602,-279,-0.0162964,0.0446777,-0.00407876,0.00517331,0.00315655,0.00614763,-0.00505308,1.27141,0.00647702,0.0105903,622,1303,-0.0162966,-0.0446437
-595,-279,-0.0306396,0.0675049,-0.00216092,0.00324889,0.00251752,0.00423917,-0.00315121,1.19603,0.00428222,0.00915932,629,1303,-0.0306559,-0.0674738
-588,-279,-0.0213013,0.0803223,-0.00134865,0.00229572,0.00220542,0.00333434,-0.00238728,1.13066,0.00331843,0.00913621,636,1303,-0.0212808,-0.0803594
-581,-279,-0.0305786,0.0566406,-0.000601671,0.00200864,0.0014656,0.00266598,-0.00125902,1.14918,0.00231412,0.0107551,643,1303,-0.0305529,-0.0566421
-574,-279,-0.0305786,0.0437012,0.000158272,0.00244984,0.000265995,0.00248031,0.000127802,1.45674,0.00161263,0.0109119,650,1303,-0.0305892,-0.0437304
-567,-279,-0.0338135,0.0629883,0.000581683,0.00388681,-0.000796718,0.00406883,0.000399655,-1.34618,0.00258964,0.0127144,657,1303,-0.0338077,-0.0630092
-560,-279,-0.0249023,0.0765381,0.000739948,0.00642472,-0.00165533,0.0068716,0.00029307,-1.30712,0.00448657,0.0138152,664,1303,-0.0249118,-0.0765831
-553,-279,-0.0142212,0.0787354,0.00134019,0.00864868,-0.00241011,0.00937189,0.00061698,-1.27927,0.00605275,0.010817,671,1303,-0.0142189,-0.0787758
-546,-279,-0.0383301,0.0605469,0.00246778,0.0100007,-0.00296768,0.0110293,0.0014391,-1.23713,0.00692323,0.0115091,678,1303,-0.0383298,-0.0605929
-539,-279,-0.130859,0.114136,0.00372957,0.0110464,-0.00338612,0.012373,0.00240303,-1.19742,0.00757576,0.035206,685,1303,-0.130867,-0.114191
-532,-279,0.106567,0.498047,0.00522474,0.0117552,-0.00363046,0.0133728,0.00360714,-1.15164,0.00798902,0.0466984,692,1303,0.106584,-0.498035
-525,-279,0.605713,-1.04272,0.00694983,0.0119736,-0.00359365,0.0138462,0.0050772,-1.09042,0.00808826,0.0441678,699,1303,0.605691,1.04277
-518,-279,1.50043,-1.56238,0,0,0,0,0,0,0,-1,706,1303,1.50042,1.56243
-511,-279,1.14429,-0.11438,0,0,0,0,0,0,0,-1,713,1303,1.14428,0.114423
-504,-279,0.884155,-0.502563,0,0,0,0,0,0,0,-1,720,1303,0.884149,0.502559
-497,-279,-0.636353,0.899536,0,0,0,0,0,0,0,-1,727,1303,-0.636325,-0.899518
-490,-279,-1.27069,0.209717,0,0,0,0,0,0,0,-1,734,1303,-1.2707,-0.209744
-483,-279,-0.474548,0.54541,0,0,0,0,0,0,0,-1,741,1303,-0.474539,-0.545438
-476,-279,0,0,0,0,0,0,0,0,0,-1,748,1303,0,0
-469,-279,0,0,0,0,0,0,0,0,0,-1,755,1303,0,0
-462,-279,0,0,0,0,0,0,0,0,0,-1,762,1303,0,0
-455,-279,0,0,0,0,0,0,0,0,0,-1,769,1303,0,0
-448,-279,0,0,0,0,0,0,0,0,0,-1,776,1303,0,0
-441,-279,0,0,0,0,0,0,0,0,0,-1,783,1303,0,0
-434,-279,0,0,0,0,0,0,0,0,0,-1,790,1303,0,0
-427,-279,0,0,0,0,0,0,0,0,0,-1,797,1303,0,0
-420,-279,0,0,0,0,0,0,0,0,0,-1,804,1303,0,0
-413,-279,0,0,0,0,0,0,0,0,0,-1,811,1303,0,0
-406,-279,0,0,0,0,0,0,0,0,0,-1,818,1303,0,0
-399,-279,0,0,0,0,0,0,0,0,0,-1,825,1303,0,0
-392,-279,0,0,0,0,0,0,0,0,0,-1,832,1303,0,0
-385,-279,0,0,0,0,0,0,0,0,0,-1,839,1303,0,0
-378,-279,0,0,0,0,0,0,0,0,0,-1,846,1303,0,0
-371,-279,0,0,0,0,0,0,0,0,0,-1,853,1303,0,0
-364,-279,0,0,0,0,0,0,0,0,0,-1,860,1303,0,0
-357,-279,0,0,0,0,0,0,0,0,0,-1,867,1303,0,0
-350,-279,0,0,0,0,0,0,0,0,0,-1,874,1303,0,0
-343,-279,0,0,0,0,0,0,0,0,0,-1,881,1303,0,0
-336,-279,0,0,0,0,0,0,0,0,0,-1,888,1303,0,0
-329,-279,0,0,0,0,0,0,0,0,0,-1,895,1303,0,0
-322,-279,0,0,0,0,0,0,0,0,0,-1,902,1303,0,0
-315,-279,0,0,0,0,0,0,0,0,0,-1,909,1303,0,0
-308,-279,0,0,0,0,0,0,0,0,0,-1,916,1303,0,0
-301,-279,0,0,0,0,0,0,0,0,0,-1,923,1303,0,0
-294,-279,0,0,0,0,0,0,0,0,0,-1,930,1303,0,0
-287,-279,0,0,0,0,0,0,0,0,0,-1,937,1303,0,0
-280,-279,0,0,0,0,0,0,0,0,0,-1,944,1303,0,0
-273,-279,0,0,0,0,0,0,0,0,0,-1,951,1303,0,0
-266,-279,0,0,0,0,0,0,0,0,0,-1,958,1303,0,0
-259,-279,0,0,0,0,0,0,0,0,0,-1,965,1303,0,0
-252,-279,0,0,0,0,0,0,0,0,0,-1,972,1303,0,0
-245,-279,0,0,0,0,0,0,0,0,0,-1,979,1303,0,0
-238,-279,0,0,0,0,0,0,0,0,0,-1,986,1303,0,0
-231,-279,0,0,0,0,0,0,0,0,0,-1,993,1303,0,0
-224,-279,0,0,0,0,0,0,0,0,0,-1,1000,1303,0,0
-217,-279,0,0,0,0,0,0,0,0,0,-1,1007,1303,0,0
-210,-279,0,0,0,0,0,0,0,0,0,-1,1014,1303,0,0
-203,-279,0,0,0,0,0,0,0,0,0,-1,1021,1303,0,0
-196,-279,0,0,0,0,0,0,0,0,0,-1,1028,1303,0,0
-189,-279,0,0,0,0,0,0,0,0,0,-1,1035,1303,0,0
-182,-279,0,0,0,0,0,0,0,0,0,-1,1042,1303,0,0
-175,-279,0,0,0,0,0,0,0,0,0,-1,1049,1303,0,0
-168,-279,0,0,0,0,0,0,0,0,0,-1,1056,1303,0,0
-161,-279,0,0,0,0,0,0,0,0,0,-1,1063,1303,0,0
-154,-279,0,0,0,0,0,0,0,0,0,-1,1070,1303,0,0
-147,-279,0,0,0,0,0,0,0,0,0,-1,1077,1303,0,0
-140,-279,0,0,0,0,0,0,0,0,0,-1,1084,1303,0,0
-133,-279,0,0,0,0,0,0,0,0,0,-1,1091,1303,0,0
-126,-279,0,0,0,0,0,0,0,0,0,-1,1098,1303,0,0
-119,-279,0,0,0,0,0,0,0,0,0,-1,1105,1303,0,0
-112,-279,0,0,0,0,0,0,0,0,0,-1,1112,1303,0,0
-105,-279,0,0,0,0,0,0,0,0,0,-1,1119,1303,0,0
-98,-279,0,0,0,0,0,0,0,0,0,-1,1126,1303,0,0
-91,-279,0,0,0,0,0,0,0,0,0,-1,1133,1303,0,0
-84,-279,0,0,0,0,0,0,0,0,0,-1,1140,1303,0,0
-77,-279,0,0,0,0,0,0,0,0,0,-1,1147,1303,0,0
-70,-279,0,0,0,0,0,0,0,0,0,-1,1154,1303,0,0
-63,-279,0,0,0,0,0,0,0,0,0,-1,1161,1303,0,0
-56,-279,0,0,0,0,0,0,0,0,0,-1,1168,1303,0,0
-49,-279,0,0,0,0,0,0,0,0,0,-1,1175,1303,0,0
-42,-279,0,0,0,0,0,0,0,0,0,-1,1182,1303,0,0
-35,-279,0,0,0,0,0,0,0,0,0,-1,1189,1303,0,0
-28,-279,0,0,0,0,0,0,0,0,0,-1,1196,1303,0,0
-21,-279,0,0,0,0,0,0,0,0,0,-1,1203,1303,0,0
-14,-279,0,0,0,0,0,0,0,0,0,-1,1210,1303,0,0
-7,-279,0,0,0,0,0,0,0,0,0,-1,1217,1303,0,0
0,-279,0,0,0,0,0,0,0,0,0,-1,1224,1303,0,0
7,-279,0,0,0,0,0,0,0,0,0,-1,1231,1303,0,0
14,-279,0,0,0,0,0,0,0,0,0,-1,1238,1303,0,0
21,-279,0,0,0,0,0,0,0,0,0,-1,1245,1303,0,0
28,-279,0,0,0,0,0,0,0,0,0,-1,1252,1303,0,0
35,-279,0,0,0,0,0,0,0,0,0,-1,1259,1303,0,0
42,-279,0,0,0,0,0,0,0,0,0,-1,1266,1303,0,0
49,-279,0,0,0,0,0,0,0,0,0,-1,1273,1303,0,0
56,-279,0,0,0,0,0,0,0,0,0,-1,1280,1303,0,0
63,-279,0,0,0,0,0,0,0,0,0,-1,1287,1303,0,0
70,-279,0,0,0,0,0,0,0,0,0,-1,1294,1303,0,0
77,-279,0,0,0,0,0,0,0,0,0,-1,1301,1303,0,0
84,-279,0,0,0,0,0,0,0,0,0,-1,1308,1303,0,0
91,-279,0,0,0,0,0,0,0,0,0,-1,1315,1303,0,0
98,-279,0,0,0,0,0,0,0,0,0,-1,1322,1303,0,0
105,-279,0,0,0,0,0,0,0,0,0,-1,1329,1303,0,0
112,-279,0,0,0,0,0,0,0,0,0,-1,1336,1303,0,0
119,-279,0,0,0,0,0,0,0,0,0,-1,1343,1303,0,0
126,-279,0,0,0,0,0,0,0,0,0,-1,1350,1303,0,0
133,-279,0,0,0,0,0,0,0,0,0,-1,1357,1303,0,0
140,-279,0,0,0,0,0,0,0,0,0,-1,1364,1303,0,0
147,-279,0,0,0,0,0,0,0,0,0,-1,1371,1303,0,0
154,-279,0,0,0,0,0,0,0,0,0,-1,1378,1303,0,0
161,-279,0,0,0,0,0,0,0,0,0,-1,1385,1303,0,0
168,-279,0,0,0,0,0,0,0,0,0,-1,1392,1303,0,0
175,-279,0,0,0,0,0,0,0,0,0,-1,1399,1303,0,0
182,-279,0,0,0,0,0,0,0,0,0,-1,1406,1303,0,0
189,-279,0,0,0,0,0,0,0,0,0,-1,1413,1303,0,0
196,-279,0,0,0,0,0,0,0,0,0,-1,1420,1303,0,0
203,-279,0,0,0,0,0,0,0,0,0,-1,1427,1303,0,0
210,-279,0,0,0,0,0,0,0,0,0,-1,1434,1303,0,0
217,-279,0,0,0,0,0,0,0,0,0,-1,1441,1303,0,0
224,-279,0,0,0,0,0,0,0,0,0,-1,1448,1303,0,0
231,-279,0,0,0,0,0,0,0,0,0,-1,1455,1303,0,0
238,-279,0,0,0,0,0,0,0,0,0,-1,1462,1303,0,0
245,-279,0,0,0,0,0,0,0,0,0,-1,1469,1303,0,0
252,-279,0,0,0,0,0,0,0,0,0,-1,1476,1303,0,0
259,-279,0,0,0,0,0,0,0,0,0,-1,1483,1303,0,0
266,-279,0,0,0,0,0,0,0,0,0,-1,1490,1303,0,0
273,-279,0,0,0,0,0,0,0,0,0,-1,1497,1303,0,0
280,-279,0,0,0,0,0,0,0,0,0,-1,1504,1303,0,0
287,-279,0,0,0,0,0,0,0,0,0,-1,1511,1303,0,0
294,-279,0,0,0,0,0,0,0,0,0,-1,1518,1303,0,0
301,-279,0,0,0,0,0,0,0,0,0,-1,1525,1303,0,0
308,-279,0,0,0,0,0,0,0,0,0,-1,1532,1303,0,0
315,-279,0,0,0,0,0,0,0,0,0,-1,1539,1303,0,0
322,-279,0,0,0,0,0,0,0,0,0,-1,1546,1303,0,0
329,-279,0,0,0,0,0,0,0,0,0,-1,1553,1303,0,0
336,-279,0,0,0,0,0,0,0,0,0,-1,1560,1303,0,0
343,-279,0,0,0,0,0,0,0,0,0,-1,1567,1303,0,0
350,-279,0,0,0,0,0,0,0,0,0,-1,1574,1303,0,0
357,-279,0,0,0,0,0,0,0,0,0,-1,1581,1303,0,0
364,-279,0,0,0,0,0,0,0,0,0,-1,1588,1303,0,0
371,-279,0,0,0,0,0,0,0,0,0,-1,1595,1303,0,0
378,-279,0,0,0,0,0,0,0,0,0,-1,1602,1303,0,0
385,-279,0,0,0,0,0,0,0,0,0,-1,1609,1303,0,0
392,-279,0,0,0,0,0,0,0,0,0,-1,1616,1303,0,0
399,-279,0,0,0,0,0,0,0,0,0,-1,1623,1303,0,0
406,-279,0,0,0,0,0,0,0,0,0,-1,1630,1303,0,0
413,-279,0,0,0,0,0,0,0,0,0,-1,1637,1303,0,0
420,-279,0,0,0,0,0,0,0,0,0,-1,1644,1303,0,0
427,-279,0,0,0,0,0,0,0,0,0,-1,1651,1303,0,0
434,-279,0,0,0,0,0,0,0,0,0,-1,1658,1303,0,0
441,-279,0,0,0,0,0,0,0,0,0,-1,1665,1303,0,0
448,-279,0,0,0,0,0,0,0,0,0,-1,1672,1303,0,0
455,-279,0,0,0,0,0,0,0,0,0,-1,1679,1303,0,0
462,-279,0,0,0,0,0,0,0,0,0,-1,1686,1303,0,0
469,-279,0,0,0,0,0,0,0,0,0,-1,1693,1303,0,0
476,-279,0,0,0,0,0,0,0,0,0,-1,1700,1303,0,0
483,-279,0,0,0,0,0,0,0,0,0,-1,1707,1303,0,0
490,-279,0,0,0,0,0,0,0,0,0,-1,1714,1303,0,0
497,-279,0,0,0,0,0,0,0,0,0,-1,1721,1303,0,0
504,-279,0,0,0,0,0,0,0,0,0,-1,1728,1303,0,0
511,-279,0,0,0,0,0,0,0,0,0,-1,1735,1303,0,0
518,-279,0,0,0,0,0,0,0,0,0,-1,1742,1303,0,0
525,-279,0,0,0,0,0,0,0,0,0,-1,1749,1303,0,0
532,-279,0,0,0,0,0,0,0,0,0,-1,1756,1303,0,0
539,-279,0,0,0,0,0,0,0,0,0,-1,1763,1303,0,0
546,-279,0,0,0,0,0,0,0,0,0,-1,1770,1303,0,0
553,-279,0,0,0,0,0,0,0,0,0,-1,1777,1303,0,0
560,-279,0,0,0,0,0,0,0,0,0,-1,1784,1303,0,0
567,-279,0,0,0,0,0,0,0,0,0,-1,1791,1303,0,0
574,-279,0,0,0,0,0,0,0,0,0,-1,1798,1303,0,0
581,-279,0,0,0,0,0,0,0,0,0,-1,1805,1303,0,0
588,-279,0,0,0,0,0,0,0,0,0,-1,1812,1303,0,0
595,-279,0,0,0,0,0,0,0,0,0,-1,1819,1303,0,0
602,-279,-0.0549316,0.0626221,-0.00482074,0.00405406,-0.00506515,0.00635062,-0.00711731,-1.14511,0.00777991,0.036801,1826,1303,-0.0549487,-0.0625679
609,-279,-0.0305176,0.024292,-0.00623712,0.00529247,-0.00335609,0.00619822,-0.00714287,-1.30719,0.00770892,0.0459768,1833,1303,-0.0305192,-0.0243257
616,-279,0.509888,0.617554,-0.00724915,0.0042541,-0.0018628,0.00454824,-0.00754328,-1.41419,0.00705207,0.0466517,1840,1303,0.509896,-0.617609
623,-279,0.90564,0.951782,-0.00821374,0.0027846,-0.00111602,0.0028967,-0.00832584,-1.47068,0.00672732,0.0489191,1847,1303,0.905608,-0.951749
630,-279,1.36707,1.28882,0,0,0,0,0,0,0,-1,1854,1303,1.367,-1.28882
637,-279,-0.636719,1.91455,0,0,0,0,0,0,0,-1,1861,1303,-0.636712,-1.9146
644,-279,-0.741089,2.62231,0,0,0,0,0,0,0,-1,1868,1303,-0.741134,-2.62236
651,-279,0.493408,-0.24231,0,0,0,0,0,0,0,-1,1875,1303,0.493367,0.242271
658,-279,0.263062,-0.274658,-0.00779951,-0.0021982,-0.000950569,-0.00204128,-0.00795643,-1.40719,0.00477169,0.046458,1882,1303,0.263074,0.274615
665,-279,0.190918,0.010498,-0.00708145,-0.0025925,-0.00122231,-0.00228125,-0.00739269,-1.32146,0.00437119,0.0461903,1889,1303,0.190917,-0.0105223
672,-279,-0.0681152,-0.0655518,-0.00638045,-0.00267359,-0.00156363,-0.00210212,-0.00695192,-1.2204,0.00411687,0.0339896,1896,1303,-0.0680969,0.0655668
679,-279,-0.0592041,0.0117188,-0.00522285,-0.00227244,-0.00171047,-0.0014889,-0.00600639,-1.14124,0.00361175,0.0189048,1903,1303,-0.0592514,-0.0116605
686,-279,-0.0582275,0.052124,-0.00369171,-0.00143514,-0.00134791,-0.000805625,-0.00432123,-1.13387,0.00265336,0.0180317,1910,1303,-0.0581946,-0.0521079
693,-279,-0.0604248,0.0767822,-0.0025193,-0.000451005,-0.00123249,0.00012373,-0.00309404,-1.13446,0.00210515,0.0146087,1917,1303,-0.0603894,-0.0767874
700,-279,-0.0428467,0.0817871,-0.00166853,0.000547068,-0.000923314,0.000881394,-0.00200286,-1.22339,0.00170667,0.00993282,1924,1303,-0.0427969,-0.0817484
707,-279,-0.0394287,0.0726318,-0.0013183,0.00142846,-0.00037011,0.00147746,-0.0013673,-1.43918,0.00164283,0.00809213,1931,1303,-0.0394211,-0.0726203
714,-279,-0.0560303,0.0541992,-0.000757257,0.00286313,0.000358114,0.00289821,-0.00079234,1.47314,0.00224339,0.0089457,1938,1303,-0.0560399,-0.0541867
721,-279,-0.0562744,0.0541992,0.00037424,0.0038981,0.00125697,0.00430051,-2.81699e-05,1.26096,0.00287644,0.0100356,1945,1303,-0.0562621,-0.0541984
728,-279,-0.0334473,0.0584717,0.00116009,0.00538883,0.00224496,0.00635836,0.00019056,1.16312,0.00417683,0.00988914,1952,1303,-0.0333951,-0.0584939
735,-279,-0.0379639,0.0727539,0.00211702,0.00759063,0.00326882,0.00911707,0.000590577,1.13392,0.00589106,0.0102515,1959,1303,-0.0379619,-0.0727772
742,-279,-0.0328369,0.0610352,0.00349164,0.0104638,0.00441006,0.0125992,0.00135621,1.11985,0.0079859,0.021511,1966,1303,-0.0327795,-0.0610874
749,-279,-0.141235,-0.0571289,0.00555846,0.013998,0.00591236,0.017042,0.00251445,1.09534,0.0106228,0.0399407,1973,1303,-0.141266,0.0570951
756,-279,-0.279419,-0.170166,0,0,0,0,0,0,0,-1,1980,1303,-0.279409,0.170176
763,-279,-0.97876,-1.93994,0,0,0,0,0,0,0,-1,1987,1303,-0.978808,1.93995
770,-279,0.801514,0.0682373,0,0,0,0,0,0,0,-1,1994,1303,0.801484,-0.0682352
777,-279,-0.069458,-0.306763,0,0,0,0,0,0,0,-1,2001,1303,-0.0694093,0.306731
784,-279,0,0,0,0,0,0,0,0,0,-1,2008,1303,0,0
791,-279,0,0,0,0,0,0,0,0,0,-1,2015,1303,0,0
798,-279,0,0,0,0,0,0,0,0,0,-1,2022,1303,0,0
805,-279,0,0,0,0,0,0,0,0,0,-1,2029,1303,0,0
812,-279,0,0,0,0,0,0,0,0,0,-1,2036,1303,0,0
-700,-286,0,0,0,0,0,0,0,0,0,-1,524,1310,0,0
-693,-286,0,0,0,0,0,0,0,0,0,-1,531,1310,0,0
-686,-286,0,0,0,0,0,0,0,0,0,-1,538,1310,0,0
-679,-286,0,0,0,0,0,0,0,0,0,-1,545,1310,0,0
-672,-286,0,0,0,0,0,0,0,0,0,-1,552,1310,0,0
-665,-286,0,0,0,0,0,0,0,0,0,-1,559,1310,0,0
-658,-286,0.168823,-0.503906,0,0,0,0,0,0,0,-1,566,1310,0.168799,0.503886
-651,-286,-0.0259399,-0.331177,0,0,0,0,0,0,0,-1,573,1310,-0.0259216,0.331206
-644,-286,-0.00274658,-0.144531,0,0,0,0,0,0,0,-1,580,1310,-0.0027329,0.144551
-637,-286,-0.601746,1.86011,0,0,0,0,0,0,0,-1,587,1310,-0.601738,-1.86007
-630,-286,-0.185608,-0.990112,0,0,0,0,0,0,0,-1,594,1310,-0.185608,0.990109
-623,-286,-0.222595,-0.653564,-0.0181056,0.0159646,0.0051443,0.0167244,-0.0188654,1.42416,0.0205602,0.038137,601,1310,-0.222579,0.653506
-616,-286,0.0584717,-0.209351,-0.0122136,0.0114636,0.00445808,0.0122751,-0.0130252,1.39072,0.0146093,0.0409108,608,1310,0.0584968,0.209379
-609,-286,-0.0133057,-0.0688477,-0.00776789,0.00798522,0.00358284,0.0087618,-0.00854448,1.35735,0.00999205,0.0292713,615,1310,-0.0132974,0.0689014
-602,-286,-0.0356445,0.0441895,-0.0046209,0.00539091,0.00286623,0.00615339,-0.00538339,1.31079,0.00666571,0.0118405,622,1310,-0.0356282,-0.0442307
-595,-286,-0.0363159,0.0562744,-0.00240421,0.0033387,0.0025093,0.00428062,-0.00334613,1.2117,0.00441431,0.00897151,629,1310,-0.036289,-0.0562934
-588,-286,-0.0186157,0.0687256,-0.00125084,0.00220169,0.00227197,0.00332882,-0.00237797,1.11027,0.00331002,0.00964905,636,1310,-0.0186219,-0.06876
-581,-286,-0.0145264,0.0563965,-0.000232592,0.0018142,0.0015875,0.00267958,-0.00109798,1.0717,0.00224379,0.0123346,643,1310,-0.0145378,-0.0564316
-574,-286,-0.0283203,0.0447998,0.000585477,0.00209001,0.00039706,0.00218837,0.000487119,1.32797,0.00132669,0.0125537,650,1310,-0.0282962,-0.0447405
-567,-286,-0.0286865,0.0689697,0.00100984,0.00320267,-0.000623226,0.00336742,0.000845095,-1.31236,0.00202297,0.0107815,657,1310,-0.0286864,-0.0689563
-560,-286,-0.0192871,0.0664063,0.0011891,0.00529945,-0.00142128,0.00574303,0.000745521,-1.26828,0.00360596,0.0109236,664,1310,-0.0192635,-0.0663461
-553,-286,-0.0327148,0.0697021,0.00174419,0.00720061,-0.00208071,0.0079035,0.00104129,-1.24502,0.00495849,0.00926801,671,1310,-0.0326942,-0.0696875
-546,-286,-0.0349731,0.0661621,0.00278298,0.0082868,-0.00252651,0.0092707,0.00179908,-1.19943,0.00567661,0.0108347,678,1310,-0.034949,-0.0662093
-539,-286,0.0261841,0.131836,0.00397798,0.00907838,-0.00278058,0.0103011,0.00275523,-1.1565,0.00615802,0.023692,685,1310,0.0261861,-0.131789
-532,-286,0.171692,0.286011,0.00540972,0.00956209,-0.00288382,0.0110393,0.00393247,-1.09739,0.00646081,0.041442,692,1310,0.171676,-0.286018
-525,-286,0.39978,0.230347,0.00707383,0.00964947,-0.00272443,0.0113751,0.00534817,-1.00618,0.00657133,0.0436558,699,1310,0.399787,-0.230334
-518,-286,0.914795,-0.150024,0.00858229,0.00909377,-0.00253052,0.0113814,0.00629462,-0.835758,0.0065834,0.0408978,706,1310,0.914824,0.150011
-511,-286,0.840515,-0.168823,0.0101031,0.00761876,-0.00210359,0.0113039,0.00641798,-0.518693,0.00654627,0.0438369,713,1310,0.840515,0.168827
-504,-286,0.692017,-0.183472,0,0,0,0,0,0,0,-1,720,1310,0.692035,0.183525
-497,-286,0.381042,-0.404297,0,0,0,0,0,0,0,-1,727,1310,0.381068,0.404337
-490,-286,-1.1123,-0.136597,0,0,0,0,0,0,0,-1,734,1310,-1.1123,0.136607
-483,-286,-1.18048,0.253662,0,0,0,0,0,0,0,-1,741,1310,-1.18048,-0.253666
-476,-286,-0.412292,0.393311,0,0,0,0,0,0,0,-1,748,1310,-0.412321,-0.393289
-469,-286,0,0,0,0,0,0,0,0,0,-1,755,1310,0,0
-462,-286,0,0,0,0,0,0,0,0,0,-1,762,1310,0,0
-455,-286,0,0,0,0,0,0,0,0,0,-1,769,1310,0,0
-448,-286,0,0,0,0,0,0,0,0,0,-1,776,1310,0,0
-441,-286,0,0,0,0,0,0,0,0,0,-1,783,1310,0,0
-434,-286,0,0,0,0,0,0,0,0,0,-1,790,1310,0,0
-427,-286,0,0,0,0,0,0,0,0,0,-1,797,1310,0,0
-420,-286,0,0,0,0,0,0,0,0,0,-1,804,1310,0,0
-413,-286,0,0,0,0,0,0,0,0,0,-1,811,1310,0,0
-406,-286,0,0,0,0,0,0,0,0,0,-1,818,1310,0,0
-399,-286,0,0,0,0,0,0,0,0,0,-1,825,1310,0,0
-392,-286,0,0,0,0,0,0,0,0,0,-1,832,1310,0,0
-385,-286,0,0,0,0,0,0,0,0,0,-1,839,1310,0,0
-378,-286,0,0,0,0,0,0,0,0,0,-1,846,1310,0,0
-371,-286,0,0,0,0,0,0,0,0,0,-1,853,1310,0,0
-364,-286,0,0,0,0,0,0,0,0,0,-1,860,1310,0,0
-357,-286,0,0,0,0,0,0,0,0,0,-1,867,1310,0,0
-350,-286,0,0,0,0,0,0,0,0,0,-1,874,1310,0,0
-343,-286,0,0,0,0,0,0,0,0,0,-1,881,1310,0,0
-336,-286,0,0,0,0,0,0,0,0,0,-1,888,1310,0,0
-329,-286,0,0,0,0,0,0,0,0,0,-1,895,1310,0,0
-322,-286,0,0,0,0,0,0,0,0,0,-1,902,1310,0,0
-315,-286,0,0,0,0,0,0,0,0,0,-1,909,1310,0,0
-308,-286,0,0,0,0,0,0,0,0,0,-1,916,1310,0,0
-301,-286,0,0,0,0,0,0,0,0,0,-1,923,1310,0,0
-294,-286,0,0,0,0,0,0,0,0,0,-1,930,1310,0,0
-287,-286,0,0,0,0,0,0,0,0,0,-1,937,1310,0,0
-280,-286,0,0,0,0,0,0,0,0,0,-1,944,1310,0,0
-273,-286,0,0,0,0,0,0,0,0,0,-1,951,1310,0,0
-266,-286,0,0,0,0,0,0,0,0,0,-1,958,1310,0,0
-259,-286,0,0,0,0,0,0,0,0,0,-1,965,1310,0,0
-252,-286,0,0,0,0,0,0,0,0,0,-1,972,1310,0,0
-245,-286,0,0,0,0,0,0,0,0,0,-1,979,1310,0,0
-238,-286,0,0,0,0,0,0,0,0,0,-1,986,1310,0,0
-231,-286,0,0,0,0,0,0,0,0,0,-1,993,1310,0,0
-224,-286,0,0,0,0,0,0,0,0,0,-1,1000,1310,0,0
-217,-286,0,0,0,0,0,0,0,0,0,-1,1007,1310,0,0
-210,-286,0,0,0,0,0,0,0,0,0,-1,1014,1310,0,0
-203,-286,0,0,0,0,0,0,0,0,0,-1,1021,1310,0,0
-196,-286,0,0,0,0,0,0,0,0,0,-1,1028,1310,0,0
-189,-286,0,0,0,0,0,0,0,0,0,-1,1035,1310,0,0
-182,-286,0,0,0,0,0,0,0,0,0,-1,1042,1310,0,0
-175,-286,0,0,0,0,0,0,0,0,0,-1,1049,1310,0,0
-168,-286,0,0,0,0,0,0,0,0,0,-1,1056,1310,0,0
-161,-286,0,0,0,0,0,0,0,0,0,-1,1063,1310,0,0
-154,-286,0,0,0,0,0,0,0,0,0,-1,1070,1310,0,0
-147,-286,0,0,0,0,0,0,0,0,0,-1,1077,1310,0,0
-140,-286,0,0,0,0,0,0,0,0,0,-1,1084,1310,0,0
-133,-286,0,0,0,0,0,0,0,0,0,-1,1091,1310,0,0
-126,-286,0,0,0,0,0,0,0,0,0,-1,1098,1310,0,0
-119,-286,0,0,0,0,0,0,0,0,0,-1,1105,1310,0,0
-112,-286,0,0,0,0,0,0,0,0,0,-1,1112,1310,0,0
-105,-286,0,0,0,0,0,0,0,0,0,-1,1119,1310,0,0
-98,-286,0,0,0,0,0,0,0,0,0,-1,1126,1310,0,0
-91,-286,0,0,0,0,0,0,0,0,0,-1,1133,1310,0,0
-84,-286,0,0,0,0,0,0,0,0,0,-1,1140,1310,0,0
-77,-286,0,0,0,0,0,0,0,0,0,-1,1147,1310,0,0
-70,-286,0,0,0,0,0,0,0,0,0,-1,1154,1310,0,0
-63,-286,0,0,0,0,0,0,0,0,0,-1,1161,1310,0,0
-56,-286,0,0,0,0,0,0,0,0,0,-1,1168,1310,0,0
-49,-286,0,0,0,0,0,0,0,0,0,-1,1175,1310,0,0
-42,-286,0,0,0,0,0,0,0,0,0,-1,1182,1310,0,0
-35,-286,0,0,0,0,0,0,0,0,0,-1,1189,1310,0,0
-28,-286,0,0,0,0,0,0,0,0,0,-1,1196,1310,0,0
-21,-286,0,0,0,0,0,0,0,0,0,-1,1203,1310,0,0
-14,-286,0,0,0,0,0,0,0,0,0,-1,1210,1310,0,0
-7,-286,0,0,0,0,0,0,0,0,0,-1,1217,1310,0,0
0,-286,0,0,0,0,0,0,0,0,0,-1,1224,1310,0,0
7,-286,0,0,0,0,0,0,0,0,0,-1,1231,1310,0,0
14,-286,0,0,0,0,0,0,0,0,0,-1,1238,1310,0,0
21,-286,0,0,0,0,0,0,0,0,0,-1,1245,1310,0,0
28,-286,0,0,0,0,0,0,0,0,0,-1,1252,1310,0,0
35,-286,0,0,0,0,0,0,0,0,0,-1,1259,1310,0,0
42,-286,0,0,0,0,0,0,0,0,0,-1,1266,1310,0,0
49,-286,0,0,0,0,0,0,0,0,0,-1,1273,1310,0,0
56,-286,0,0,0,0,0,0,0,0,0,-1,1280,1310,0,0
63,-286,0,0,0,0,0,0,0,0,0,-1,1287,1310,0,0
70,-286,0,0,0,0,0,0,0,0,0,-1,1294,1310,0,0
77,-286,0,0,0,0,0,0,0,0,0,-1,1301,1310,0,0
84,-286,0,0,0,0,0,0,0,0,0,-1,1308,1310,0,0
91,-286,0,0,0,0,0,0,0,0,0,-1,1315,1310,0,0
98,-286,0,0,0,0,0,0,0,0,0,-1,1322,1310,0,0
105,-286,0,0,0,0,0,0,0,0,0,-1,1329,1310,0,0
112,-286,0,0,0,0,0,0,0,0,0,-1,1336,1310,0,0
119,-286,0,0,0,0,0,0,0,0,0,-1,1343,1310,0,0
126,-286,0,0,0,0,0,0,0,0,0,-1,1350,1310,0,0
133,-286,0,0,0,0,0,0,0,0,0,-1,1357,1310,0,0
140,-286,0,0,0,0,0,0,0,0,0,-1,1364,1310,0,0
147,-286,0,0,0,0,0,0,0,0,0,-1,1371,1310,0,0
154,-286,0,0,0,0,0,0,0,0,0,-1,1378,1310,0,0
161,-286,0,0,0,0,0,0,0,0,0,-1,1385,1310,0,0
168,-286,0,0,0,0,0,0,0,0,0,-1,1392,1310,0,0
175,-286,0,0,0,0,0,0,0,0,0,-1,1399,1310,0,0
182,-286,0,0,0,0,0,0,0,0,0,-1,1406,1310,0,0
189,-286,0,0,0,0,0,0,0,0,0,-1,1413,1310,0,0
196,-286,0,0,0,0,0,0,0,0,0,-1,1420,1310,0,0
203,-286,0,0,0,0,0,0,0,0,0,-1,1427,1310,0,0
210,-286,0,0,0,0,0,0,0,0,0,-1,1434,1310,0,0
217,-286,0,0,0,0,0,0,0,0,0,-1,1441,1310,0,0
224,-286,0,0,0,0,0,0,0,0,0,-1,1448,1310,0,0
231,-286,0,0,0,0,0,0,0,0,0,-1,1455,1310,0,0
238,-286,0,0,0,0,0,0,0,0,0,-1,1462,1310,0,0
245,-286,0,0,0,0,0,0,0,0,0,-1,1469,1310,0,0
252,-286,0,0,0,0,0,0,0,0,0,-1,1476,1310,0,0
259,-286,0,0,0,0,0,0,0,0,0,-1,1483,1310,0,0
266,-286,0,0,0,0,0,0,0,0,0,-1,1490,1310,0,0
273,-286,0,0,0,0,0,0,0,0,0,-1,1497,1310,0,0
280,-286,0,0,0,0,0,0,0,0,0,-1,1504,1310,0,0
287,-286,0,0,0,0,0,0,0,0,0,-1,1511,1310,0,0
294,-286,0,0,0,0,0,0,0,0,0,-1,1518,1310,0,0
301,-286,0,0,0,0,0,0,0,0,0,-1,1525,1310,0,0
308,-286,0,0,0,0,0,0,0,0,0,-1,1532,1310,0,0
315,-286,0,0,0,0,0,0,0,0,0,-1,1539,1310,0,0
322,-286,0,0,0,0,0,0,0,0,0,-1,1546,1310,0,0
329,-286,0,0,0,0,0,0,0,0,0,-1,1553,1310,0,0
336,-286,0,0,0,0,0,0,0,0,0,-1,1560,1310,0,0
343,-286,0,0,0,0,0,0,0,0,0,-1,1567,1310,0,0
350,-286,0,0,0,0,0,0,0,0,0,-1,1574,1310,0,0
357,-286,0,0,0,0,0,0,0,0,0,-1,1581,1310,0,0
364,-286,0,0,0,0,0,0,0,0,0,-1,1588,1310,0,0
371,-286,0,0,0,0,0,0,0,0,0,-1,1595,1310,0,0
378,-286,0,0,0,0,0,0,0,0,0,-1,1602,1310,0,0
385,-286,0,0,0,0,0,0,0,0,0,-1,1609,1310,0,0
392,-286,0,0,0,0,0,0,0,0,0,-1,1616,1310,0,0
399,-286,0,0,0,0,0,0,0,0,0,-1,1623,1310,0,0
406,-286,0,0,0,0,0,0,0,0,0,-1,1630,1310,0,0
413,-286,0,0,0,0,0,0,0,0,0,-1,1637,1310,0,0
420,-286,0,0,0,0,0,0,0,0,0,-1,1644,1310,0,0
427,-286,0,0,0,0,0,0,0,0,0,-1,1651,1310,0,0
434,-286,0,0,0,0,0,0,0,0,0,-1,1658,1310,0,0
441,-286,0,0,0,0,0,0,0,0,0,-1,1665,1310,0,0
448,-286,0,0,0,0,0,0,0,0,0,-1,1672,1310,0,0
455,-286,0,0,0,0,0,0,0,0,0,-1,1679,1310,0,0
462,-286,0,0,0,0,0,0,0,0,0,-1,1686,1310,0,0
469,-286,0,0,0,0,0,0,0,0,0,-1,1693,1310,0,0
476,-286,0,0,0,0,0,0,0,0,0,-1,1700,1310,0,0
483,-286,0,0,0,0,0,0,0,0,0,-1,1707,1310,0,0
490,-286,0,0,0,0,0,0,0,0,0,-1,1714,1310,0,0
497,-286,0,0,0,0,0,0,0,0,0,-1,1721,1310,0,0
504,-286,0,0,0,0,0,0,0,0,0,-1,1728,1310,0,0
511,-286,0,0,0,0,0,0,0,0,0,-1,1735,1310,0,0
518,-286,0,0,0,0,0,0,0,0,0,-1,1742,1310,0,0
525,-286,0,0,0,0,0,0,0,0,0,-1,1749,1310,0,0
532,-286,0,0,0,0,0,0,0,0,0,-1,1756,1310,0,0
539,-286,0,0,0,0,0,0,0,0,0,-1,1763,1310,0,0
546,-286,0,0,0,0,0,0,0,0,0,-1,1770,1310,0,0
553,-286,0,0,0,0,0,0,0,0,0,-1,1777,1310,0,0
560,-286,0,0,0,0,0,0,0,0,0,-1,1784,1310,0,0
567,-286,0,0,0,0,0,0,0,0,0,-1,1791,1310,0,0
574,-286,0,0,0,0,0,0,0,0,0,-1,1798,1310,0,0
581,-286,0,0,0,0,0,0,0,0,0,-1,1805,1310,0,0
588,-286,0,0,0,0,0,0,0,0,0,-1,1812,1310,0,0
595,-286,0.0212402,0.123047,-0.00845248,0.00592563,-0.0080829,0.00955396,-0.0120808,-1.14887,0.0125192,0.0351619,1819,1310,0.0211875,-0.123076
602,-286,-0.0422363,0.0566406,-0.00830296,0.00841349,-0.00498942,0.00978944,-0.00967891,-1.30171,0.0112401,0.0433197,1826,1310,-0.0422865,-0.0566345
609,-286,-0.0439453,0.00463867,0,0,0,0,0,0,0,-1,1833,1310,-0.0439611,-0.00469358
616,-286,0.657349,0.853027,0,0,0,0,0,0,0,-1,1840,1310,0.65732,-0.852977
623,-286,0.917725,0.96875,0,0,0,0,0,0,0,-1,1847,1310,0.917715,-0.968747
630,-286,-1.66589,-0.0831299,0,0,0,0,0,0,0,-1,1854,1310,-1.66583,0.0830736
637,-286,0.408569,-0.351318,0,0,0,0,0,0,0,-1,1861,1310,0.408578,0.351367
644,-286,0.644287,-0.268311,0,0,0,0,0,0,0,-1,1868,1310,0.644263,0.268277
651,-286,0.505859,-0.251709,-0.00847441,-0.00140935,-2.01775e-06,-0.00140934,-0.00847441,-1.57051,0.00524335,0.0433604,1875,1310,0.505873,0.251702
658,-286,0.425049,-0.367065,-0.00799714,-0.00186671,-0.000158551,-0.00186261,-0.00800124,-1.54496,0.00483441,0.0443123,1882,1310,0.425064,0.36703
665,-286,0.168579,-0.153076,-0.0073344,-0.00236663,-0.000448763,-0.00232642,-0.00737461,-1.48143,0.00435332,0.042843,1889,1310,0.168615,0.153053
672,-286,-0.045166,-0.0246582,-0.00666059,-0.00249487,-0.000916115,-0.00230231,-0.00685316,-1.36361,0.00402704,0.0232317,1896,1310,-0.0451422,0.0246074
679,-286,-0.0651855,0.0217285,-0.0054593,-0.00214194,-0.00119261,-0.00175769,-0.00584354,-1.25911,0.00346187,0.0184424,1903,1310,-0.0651958,-0.0216892
686,-286,-0.0682373,0.0494385,-0.00387394,-0.00119317,-0.000790499,-0.000977436,-0.00408968,-1.30437,0.00246608,0.0184566,1910,1310,-0.0682704,-0.0494896
693,-286,-0.0615234,0.0646973,-0.00269949,-0.00015635,-0.000717422,3.20753e-05,-0.00288791,-1.31396,0.00193605,0.0147893,1917,1310,-0.0614896,-0.0646681
700,-286,-0.0426025,0.060791,-0.00173333,0.000774947,-0.00047764,0.000862823,-0.00182121,-1.38885,0.00158221,0.010301,1924,1310,-0.0425834,-0.0608086
707,-286,-0.0366211,0.0726318,-0.00118703,0.00164202,1.29106e-05,0.00164208,-0.00118709,1.56623,0.00164045,0.00813534,1931,1310,-0.0366633,-0.0726619
714,-286,-0.0511475,0.0715332,-0.000365722,0.0030913,0.000695571,0.003226,-0.000500426,1.37951,0.00233542,0.00801812,1938,1310,-0.0511126,-0.0715645
721,-286,-0.0534668,0.0639648,0.00100997,0.00416586,0.00149964,0.0047648,0.000411034,1.19082,0.00304877,0.00950173,1945,1310,-0.0535104,-0.0639345
728,-286,-0.0410156,0.0667725,0.00207858,0.00582726,0.00244891,0.00703679,0.000869042,1.11203,0.00443002,0.0112767,1952,1310,-0.0409612,-0.0667371
735,-286,-0.0446777,0.0699463,0.00330228,0.00818871,0.00347399,0.0099926,0.00149839,1.09186,0.0062227,0.012689,1959,1310,-0.0446283,-0.0699416
742,-286,-0.027832,0.0574951,0.00502476,0.0112434,0.00469354,0.0137641,0.00250404,1.07794,0.00846573,0.0223473,1966,1310,-0.0278176,-0.0574593
749,-286,-0.0318604,0.0427246,0.00745996,0.0150126,0.00622876,0.0185204,0.00395217,1.05791,0.0112631,0.0376678,1973,1310,-0.0318781,-0.0427288
756,-286,-0.0180664,0.158936,0.0108937,0.019592,0.00801173,0.0243589,0.00612679,1.03406,0.0146311,0.0437942,1980,1310,-0.0180502,-0.15891
763,-286,-0.09729,0.286987,0.0156396,0.0250279,0.00995102,0.0313364,0.00933115,1.00578,0.0185788,0.0432398,1987,1310,-0.0972715,-0.286996
770,-286,-0.034668,0.0632324,0.0220738,0.0313168,0.0118326,0.0393984,0.0139922,0.971573,0.0230627,0.0457364,1994,1310,-0.0346565,-0.0632433
777,-286,0,0,0,0,0,0,0,0,0,-1,2001,1310,0,0
784,-286,0,0,0,0,0,0,0,0,0,-1,2008,1310,0,0
791,-286,0,0,0,0,0,0,0,0,0,-1,2015,1310,0,0
798,-286,0,0,0,0,0,0,0,0,0,-1,2022,1310,0,0
805,-286,0,0,0,0,0,0,0,0,0,-1,2029,1310,0,0
812,-286,0,0,0,0,0,0,0,0,0,-1,2036,1310,0,0
-700,-293,0,0,0,0,0,0,0,0,0,-1,524,1317,0,0
-693,-293,0,0,0,0,0,0,0,0,0,-1,531,1317,0,0
-686,-293,0,0,0,0,0,0,0,0,0,-1,538,1317,0,0
-679,-293,0,0,0,0,0,0,0,0,0,-1,545,1317,0,0
-672,-293,0,0,0,0,0,0,0,0,0,-1,552,1317,0,0
-665,-293,0,0,0,0,0,0,0,0,0,-1,559,1317,0,0
-658,-293,0,0,0,0,0,0,0,0,0,-1,566,1317,0,0
-651,-293,1.1778,2.2301,0,0,0,0,0,0,0,-1,573,1317,1.1778,-2.23011
-644,-293,0.777222,1.18689,0,0,0,0,0,0,0,-1,580,1317,0.777215,-1.18688
-637,-293,0.618042,-0.55542,0,0,0,0,0,0,0,-1,587,1317,0.61802,0.555462
-630,-293,0.169434,-0.742188,-0.0275642,0.0218515,0.00196058,0.0219291,-0.0276419,1.5312,0.0286831,0.0421168,594,1317,0.169439,0.742143
-623,-293,-0.126587,-0.930298,-0.0196294,0.0161145,0.00222838,0.0162529,-0.0197677,1.50877,0.0208295,0.0414247,601,1317,-0.126599,0.930286
-616,-293,-0.11731,-0.634766,-0.0134612,0.0116725,0.00241426,0.0119023,-0.013691,1.4759,0.0147884,0.0408448,608,1317,-0.117317,0.634811
-609,-293,-0.0430298,0.074585,-0.00874057,0.00823761,0.00227942,0.00853831,-0.00904127,1.43963,0.010151,0.036613,615,1317,-0.043024,-0.0746297
-602,-293,-0.0443115,0.0751953,-0.00531909,0.00565679,0.00209708,0.00604381,-0.00570612,1.3883,0.00678476,0.020765,622,1317,-0.0443295,-0.07514
-595,-293,-0.0335693,0.06604,-0.00280074,0.00350167,0.00214142,0.00416042,-0.0034595,1.27236,0.00440556,0.0114813,629,1317,-0.0335723,-0.0660657
-588,-293,-0.0239258,0.0582275,-0.00128527,0.00217672,0.00209905,0.00316645,-0.00227501,1.1302,0.00315565,0.0137814,636,1317,-0.0239073,-0.0581825
-581,-293,-0.0274658,0.0567627,4.12766e-05,0.00169203,0.0016145,0.0026799,-0.000946589,1.02169,0.00217201,0.0170514,643,1317,-0.0274624,-0.0568219
-574,-293,-0.0511475,0.0809326,0.000898326,0.00175987,0.000536023,0.00201677,0.000641433,1.12388,0.0011898,0.0150276,650,1317,-0.0511327,-0.0808935
-567,-293,-0.0494995,0.0848389,0.00129271,0.00252834,-0.00039456,0.00264359,0.00117747,-1.28662,0.00152931,0.0135282,657,1317,-0.0495287,-0.0848544
-560,-293,-0.0301514,0.0755615,0.00147741,0.00412264,-0.0011047,0.0045233,0.00107675,-1.22286,0.00272839,0.0136258,664,1317,-0.0301818,-0.0755229
-553,-293,-0.0238647,0.057373,0.00195984,0.00559315,-0.00164481,0.00622713,0.00132586,-1.2029,0.00378763,0.0101422,671,1317,-0.0238915,-0.0573488
-546,-293,-0.0307617,0.069458,0.00289869,0.00635005,-0.00198074,0.0072514,0.00199734,-1.14374,0.00432505,0.0095979,678,1317,-0.030787,-0.0694313
-539,-293,-0.0192261,0.0860596,0.00400846,0.00680721,-0.00209305,0.00792559,0.00289007,-1.08006,0.00463139,0.0166019,685,1317,-0.0191981,-0.0860014
-532,-293,0.115479,-0.0300293,0.00533849,0.0069632,-0.00206625,0.00837105,0.00393064,-0.972693,0.00483601,0.0326713,692,1317,0.115473,0.0300155
-525,-293,0.385986,-0.214355,0.00690396,0.0067984,-0.00178704,0.008639,0.00506337,-0.770634,0.00501232,0.0401362,699,1317,0.386016,0.214412
-518,-293,0.464966,-0.326904,0.00826497,0.00620533,-0.00157162,0.00911411,0.00535618,-0.495366,0.00528894,0.0410727,706,1317,0.464977,0.326927
-511,-293,0.545471,-0.310913,0.00962964,0.0049387,-0.00121738,0.00992675,0.00464159,-0.239378,0.00573523,0.0448149,713,1317,0.545471,0.310889
-504,-293,0.624023,-0.352783,0,0,0,0,0,0,0,-1,720,1317,0.624016,0.352828
-497,-293,-1.08734,-0.745972,0.0123818,0.00013898,-0.000136291,0.0123833,0.000137463,-0.0111305,0.00821011,0.0421749,727,1317,-1.08737,0.74595
-490,-293,-0.922913,-0.478638,0.0137631,-0.00299953,1.94035e-05,0.0137631,-0.00299955,0.00115755,0.0103216,0.0429533,734,1317,-0.922904,0.478682
-483,-293,-0.823242,-0.0253906,0.0149178,-0.00564775,-0.00044979,0.0149276,-0.00565758,-0.0218571,0.01228,0.0443724,741,1317,-0.823216,0.025446
-476,-293,-0.427917,0.275391,0.0161385,-0.00671277,-0.00256328,0.0164225,-0.00699677,-0.110345,0.0138814,0.0449071,748,1317,-0.42794,-0.275336
-469,-293,0,0,0,0,0,0,0,0,0,-1,755,1317,0,0
-462,-293,0,0,0,0,0,0,0,0,0,-1,762,1317,0,0
-455,-293,0,0,0,0,0,0,0,0,0,-1,769,1317,0,0
-448,-293,0,0,0,0,0,0,0,0,0,-1,776,1317,0,0
-441,-293,0,0,0,0,0,0,0,0,0,-1,783,1317,0,0
-434,-293,0,0,0,0,0,0,0,0,0,-1,790,1317,0,0
-427,-293,0,0,0,0,0,0,0,0,0,-1,797,1317,0,0
-420,-293,0,0,0,0,0,0,0,0,0,-1,804,1317,0,0
-413,-293,0,0,0,0,0,0,0,0,0,-1,811,1317,0,0
-406,-293,0,0,0,0,0,0,0,0,0,-1,818,1317,0,0
-399,-293,0,0,0,0,0,0,0,0,0,-1,825,1317,0,0
-392,-293,0,0,0,0,0,0,0,0,0,-1,832,1317,0,0
-385,-293,0,0,0,0,0,0,0,0,0,-1,839,1317,0,0
-378,-293,0,0,0,0,0,0,0,0,0,-1,846,1317,0,0
-371,-293,0,0,0,0,0,0,0,0,0,-1,853,1317,0,0
-364,-293,0,0,0,0,0,0,0,0,0,-1,860,1317,0,0
-357,-293,0,0,0,0,0,0,0,0,0,-1,867,1317,0,0
-350,-293,0,0,0,0,0,0,0,0,0,-1,874,1317,0,0
-343,-293,0,0,0,0,0,0,0,0,0,-1,881,1317,0,0
-336,-293,0,0,0,0,0,0,0,0,0,-1,888,1317,0,0
-329,-293,0,0,0,0,0,0,0,0,0,-1,895,1317,0,0
-322,-293,0,0,0,0,0,0,0,0,0,-1,902,1317,0,0
-315,-293,0,0,0,0,0,0,0,0,0,-1,909,1317,0,0
-308,-293,0,0,0,0,0,0,0,0,0,-1,916,1317,0,0
-301,-293,0,0,0,0,0,0,0,0,0,-1,923,1317,0,0
-294,-293,0,0,0,0,0,0,0,0,0,-1,930,1317,0,0
-287,-293,0,0,0,0,0,0,0,0,0,-1,937,1317,0,0
-280,-293,0,0,0,0,0,0,0,0,0,-1,944,1317,0,0
-273,-293,0,0,0,0,0,0,0,0,0,-1,951,1317,0,0
-266,-293,0,0,0,0,0,0,0,0,0,-1,958,1317,0,0
-259,-293,0,0,0,0,0,0,0,0,0,-1,965,1317,0,0
-252,-293,0,0,0,0,0,0,0,0,0,-1,972,1317,0,0
-245,-293,0,0,0,0,0,0,0,0,0,-1,979,1317,0,0
-238,-293,0,0,0,0,0,0,0,0,0,-1,986,1317,0,0
-231,-293,0,0,0,0,0,0,0,0,0,-1,993,1317,0,0
-224,-293,0,0,0,0,0,0,0,0,0,-1,1000,1317,0,0
-217,-293,0,0,0,0,0,0,0,0,0,-1,1007,1317,0,0
-210,-293,0,0,0,0,0,0,0,0,0,-1,1014,1317,0,0
-203,-293,0,0,0,0,0,0,0,0,0,-1,1021,1317,0,0
-196,-293,0,0,0,0,0,0,0,0,0,-1,1028,1317,0,0
-189,-293,0,0,0,0,0,0,0,0,0,-1,1035,1317,0,0
-182,-293,0,0,0,0,0,0,0,0,0,-1,1042,1317,0,0
-175,-293,0,0,0,0,0,0,0,0,0,-1,1049,1317,0,0
-168,-293,0,0,0,0,0,0,0,0,0,-1,1056,1317,0,0
-161,-293,0,0,0,0,0,0,0,0,0,-1,1063,1317,0,0
-154,-293,0,0,0,0,0,0,0,0,0,-1,1070,1317,0,0
-147,-293,0,0,0,0,0,0,0,0,0,-1,1077,1317,0,0
-140,-293,0,0,0,0,0,0,0,0,0,-1,1084,1317,0,0
-133,-293,0,0,0,0,0,0,0,0,0,-1,1091,1317,0,0
-126,-293,0,0,0,0,0,0,0,0,0,-1,1098,1317,0,0
-119,-293,0,0,0,0,0,0,0,0,0,-1,1105,1317,0,0
-112,-293,0,0,0,0,0,0,0,0,0,-1,1112,1317,0,0
-105,-293,0,0,0,0,0,0,0,0,0,-1,1119,1317,0,0
-98,-293,0,0,0,0,0,0,0,0,0,-1,1126,1317,0,0
-91,-293,0,0,0,0,0,0,0,0,0,-1,1133,1317,0,0
-84,-293,0,0,0,0,0,0,0,0,0,-1,1140,1317,0,0
-77,-293,0,0,0,0,0,0,0,0,0,-1,1147,1317,0,0
-70,-293,0,0,0,0,0,0,0,0,0,-1,1154,1317,0,0
-63,-293,0,0,0,0,0,0,0,0,0,-1,1161,1317,0,0
-56,-293,0,0,0,0,0,0,0,0,0,-1,1168,1317,0,0
-49,-293,0,0,0,0,0,0,0,0,0,-1,1175,1317,0,0
-42,-293,0,0,0,0,0,0,0,0,0,-1,1182,1317,0,0
-35,-293,0,0,0,0,0,0,0,0,0,-1,1189,1317,0,0
-28,-293,0,0,0,0,0,0,0,0,0,-1,1196,1317,0,0
-21,-293,0,0,0,0,0,0,0,0,0,-1,1203,1317,0,0
-14,-293,0,0,0,0,0,0,0,0,0,-1,1210,1317,0,0
-7,-293,0,0,0,0,0,0,0,0,0,-1,1217,1317,0,0
0,-293,0,0,0,0,0,0,0,0,0,-1,1224,1317,0,0
7,-293,0,0,0,0,0,0,0,0,0,-1,1231,1317,0,0
14,-293,0,0,0,0,0,0,0,0,0,-1,1238,1317,0,0
21,-293,0,0,0,0,0,0,0,0,0,-1,1245,1317,0,0
28,-293,0,0,0,0,0,0,0,0,0,-1,1252,1317,0,0
35,-293,0,0,0,0,0,0,0,0,0,-1,1259,1317,0,0
42,-293,0,0,0,0,0,0,0,0,0,-1,1266,1317,0,0
49,-293,0,0,0,0,0,0,0,0,0,-1,1273,1317,0,0
56,-293,0,0,0,0,0,0,0,0,0,-1,1280,1317,0,0
63,-293,0,0,0,0,0,0,0,0,0,-1,1287,1317,0,0
70,-293,0,0,0,0,0,0,0,0,0,-1,1294,1317,0,0
77,-293,0,0,0,0,0,0,0,0,0,-1,1301,1317,0,0
84,-293,0,0,0,0,0,0,0,0,0,-1,1308,1317,0,0
91,-293,0,0,0,0,0,0,0,0,0,-1,1315,1317,0,0
98,-293,0,0,0,0,0,0,0,0,0,-1,1322,1317,0,0
105,-293,0,0,0,0,0,0,0,0,0,-1,1329,1317,0,0
112,-293,0,0,0,0,0,0,0,0,0,-1,1336,1317,0,0
119,-293,0,0,0,0,0,0,0,0,0,-1,1343,1317,0,0
126,-293,0,0,0,0,0,0,0,0,0,-1,1350,1317,0,0
133,-293,0,0,0,0,0,0,0,0,0,-1,1357,1317,0,0
140,-293,0,0,0,0,0,0,0,0,0,-1,1364,1317,0,0
147,-293,0,0,0,0,0,0,0,0,0,-1,1371,1317,0,0
154,-293,0,0,0,0,0,0,0,0,0,-1,1378,1317,0,0
161,-293,0,0,0,0,0,0,0,0,0,-1,1385,1317,0,0
168,-293,0,0,0,0,0,0,0,0,0,-1,1392,1317,0,0
175,-293,0,0,0,0,0,0,0,0,0,-1,1399,1317,0,0
182,-293,0,0,0,0,0,0,0,0,0,-1,1406,1317,0,0
189,-293,0,0,0,0,0,0,0,0,0,-1,1413,1317,0,0
196,-293,0,0,0,0,0,0,0,0,0,-1,1420,1317,0,0
203,-293,0,0,0,0,0,0,0,0,0,-1,1427,1317,0,0
210,-293,0,0,0,0,0,0,0,0,0,-1,1434,1317,0,0
217,-293,0,0,0,0,0,0,0,0,0,-1,1441,1317,0,0
224,-293,0,0,0,0,0,0,0,0,0,-1,1448,1317,0,0
231,-293,0,0,0,0,0,0,0,0,0,-1,1455,1317,0,0
238,-293,0,0,0,0,0,0,0,0,0,-1,1462,1317,0,0
245,-293,0,0,0,0,0,0,0,0,0,-1,1469,1317,0,0
252,-293,0,0,0,0,0,0,0,0,0,-1,1476,1317,0,0
259,-293,0,0,0,0,0,0,0,0,0,-1,1483,1317,0,0
266,-293,0,0,0,0,0,0,0,0,0,-1,1490,1317,0,0
273,-293,0,0,0,0,0,0,0,0,0,-1,1497,1317,0,0
280,-293,0,0,0,0,0,0,0,0,0,-1,1504,1317,0,0
287,-293,0,0,0,0,0,0,0,0,0,-1,1511,1317,0,0
294,-293,0,0,0,0,0,0,0,0,0,-1,1518,1317,0,0
301,-293,0,0,0,0,0,0,0,0,0,-1,1525,1317,0,0
308,-293,0,0,0,0,0,0,0,0,0,-1,1532,1317,0,0
315,-293,0,0,0,0,0,0,0,0,0,-1,1539,1317,0,0
322,-293,0,0,0,0,0,0,0,0,0,-1,1546,1317,0,0
329,-293,0,0,0,0,0,0,0,0,0,-1,1553,1317,0,0
336,-293,0,0,0,0,0,0,0,0,0,-1,1560,1317,0,0
343,-293,0,0,0,0,0,0,0,0,0,-1,1567,1317,0,0
350,-293,0,0,0,0,0,0,0,0,0,-1,1574,1317,0,0
357,-293,0,0,0,0,0,0,0,0,0,-1,1581,1317,0,0
364,-293,0,0,0,0,0,0,0,0,0,-1,1588,1317,0,0
371,-293,0,0,0,0,0,0,0,0,0,-1,1595,1317,0,0
378,-293,0,0,0,0,0,0,0,0,0,-1,1602,1317,0,0
385,-293,0,0,0,0,0,0,0,0,0,-1,1609,1317,0,0
392,-293,0,0,0,0,0,0,0,0,0,-1,1616,1317,0,0
399,-293,0,0,0,0,0,0,0,0,0,-1,1623,1317,0,0
406,-293,0,0,0,0,0,0,0,0,0,-1,1630,1317,0,0
413,-293,0,0,0,0,0,0,0,0,0,-1,1637,1317,0,0
420,-293,0,0,0,0,0,0,0,0,0,-1,1644,1317,0,0
427,-293,0,0,0,0,0,0,0,0,0,-1,1651,1317,0,0
434,-293,0,0,0,0,0,0,0,0,0,-1,1658,1317,0,0
441,-293,0,0,0,0,0,0,0,0,0,-1,1665,1317,0,0
448,-293,0,0,0,0,0,0,0,0,0,-1,1672,1317,0,0
455,-293,0,0,0,0,0,0,0,0,0,-1,1679,1317,0,0
462,-293,0,0,0,0,0,0,0,0,0,-1,1686,1317,0,0
469,-293,0,0,0,0,0,0,0,0,0,-1,1693,1317,0,0
476,-293,0,0,0,0,0,0,0,0,0,-1,1700,1317,0,0
483,-293,0,0,0,0,0,0,0,0,0,-1,1707,1317,0,0
490,-293,0,0,0,0,0,0,0,0,0,-1,1714,1317,0,0
497,-293,0,0,0,0,0,0,0,0,0,-1,1721,1317,0,0
504,-293,0,0,0,0,0,0,0,0,0,-1,1728,1317,0,0
511,-293,0,0,0,0,0,0,0,0,0,-1,1735,1317,0,0
518,-293,0,0,0,0,0,0,0,0,0,-1,1742,1317,0,0
525,-293,0,0,0,0,0,0,0,0,0,-1,1749,1317,0,0
532,-293,0,0,0,0,0,0,0,0,0,-1,1756,1317,0,0
539,-293,0,0,0,0,0,0,0,0,0,-1,1763,1317,0,0
546,-293,0,0,0,0,0,0,0,0,0,-1,1770,1317,0,0
553,-293,0,0,0,0,0,0,0,0,0,-1,1777,1317,0,0
560,-293,0,0,0,0,0,0,0,0,0,-1,1784,1317,0,0
567,-293,0,0,0,0,0,0,0,0,0,-1,1791,1317,0,0
574,-293,0,0,0,0,0,0,0,0,0,-1,1798,1317,0,0
581,-293,0,0,0,0,0,0,0,0,0,-1,1805,1317,0,0
588,-293,0,0,0,0,0,0,0,0,0,-1,1812,1317,0,0
595,-293,0.158325,0.282349,0,0,0,0,0,0,0,-1,1819,1317,0.158281,-0.28231
602,-293,-0.0256348,0.057251,0,0,0,0,0,0,0,-1,1826,1317,-0.0255915,-0.0572366
609,-293,0.786987,0.229614,0,0,0,0,0,0,0,-1,1833,1317,0.786945,-0.229635
616,-293,0.494873,0.428345,-0.00945051,0.00820762,-0.00107147,0.0082724,-0.00951529,-1.51041,0.0102781,0.0472317,1840,1317,0.494911,-0.428382
623,-293,0.497803,0.283203,-0.00945899,0.00583293,-1.49648e-05,0.00583294,-0.00945901,-1.56982,0.00891116,0.0461873,1847,1317,0.497793,-0.283258
630,-293,-0.957886,-0.296265,-0.00924546,0.00322793,0.00031928,0.00323609,-0.00925362,1.54522,0.00748472,0.0423775,1854,1317,-0.957894,0.296208
637,-293,0.843384,-0.430054,0,0,0,0,0,0,0,-1,1861,1317,0.843337,0.430023
644,-293,0.640503,-0.350952,0,0,0,0,0,0,0,-1,1868,1317,0.640482,0.350986
651,-293,0.453247,-0.254761,-0.00802896,-0.000466254,0.00106248,-0.000319821,-0.00817539,1.43384,0.00534684,0.0421946,1875,1317,0.453276,0.254816
658,-293,0.329468,-0.224731,-0.00754242,-0.00105429,0.000886714,-0.000935286,-0.00766143,1.43739,0.00482616,0.0386556,1882,1317,0.329488,0.224731
665,-293,0.0249023,0.0184326,-0.00690276,-0.0017579,0.000549823,-0.0016998,-0.00696087,1.46551,0.00419051,0.0309284,1889,1317,0.0248669,-0.0184339
672,-293,-0.0603027,0.0804443,-0.00625852,-0.00203594,-9.31311e-05,-0.00203389,-0.00626057,-1.54876,0.00368771,0.014717,1896,1317,-0.0602622,-0.0804839
679,-293,-0.0516357,0.0532227,-0.00505544,-0.00185802,-0.000531944,-0.00177185,-0.00514162,-1.41019,0.00301592,0.0107816,1903,1317,-0.0516558,-0.053214
686,-293,-0.0441895,0.0465088,-0.00352587,-0.000963145,-0.000161269,-0.000953037,-0.00353598,-1.5082,0.00211256,0.0126107,1910,1317,-0.0442155,-0.0465352
693,-293,-0.0379639,0.0612793,-0.00248689,1.09842e-05,-0.000182756,2.42848e-05,-0.00250019,-1.49815,0.00167495,0.0106545,1917,1317,-0.0379686,-0.0612601
700,-293,-0.0457764,0.0544434,-0.00154378,0.000817479,-5.9774e-05,0.000818991,-0.00154529,-1.5455,0.00138632,0.00951196,1924,1317,-0.0457209,-0.0544812
707,-293,-0.036377,0.0559082,-0.000924635,0.00162602,0.000328285,0.0016676,-0.00096621,1.44483,0.0015385,0.0101494,1931,1317,-0.036423,-0.0559301
714,-293,-0.0411377,0.0786133,1.4125e-05,0.00301085,0.000917479,0.00326944,-0.000244458,1.29608,0.00226551,0.00730127,1938,1317,-0.0410831,-0.0786238
721,-293,-0.0386963,0.0688477,0.00145849,0.00405544,0.00158728,0.0048077,0.000706234,1.12822,0.00299758,0.0083125,1945,1317,-0.0386983,-0.0688374
728,-293,-0.0494385,0.0501709,0.00264862,0.00574759,0.0024356,0.00708481,0.0013114,1.0687,0.00435243,0.0107747,1952,1317,-0.0494735,-0.0501368
735,-293,-0.0476074,0.0618896,0.00403569,0.00809107,0.00340305,0.0100247,0.00210203,1.05408,0.00610433,0.0136355,1959,1317,-0.0476604,-0.0619331
742,-293,0.00366211,0.0751953,0.00593333,0.0110764,0.00459354,0.0137692,0.00324051,1.04057,0.00831257,0.0237701,1966,1317,0.00371947,-0.0751378
749,-293,0.102905,0.125,0.00855957,0.0147603,0.00606142,0.0184683,0.00485164,1.0218,0.0110557,0.0359909,1973,1317,0.102921,-0.125006
756,-293,0.158691,0.17395,0.0121693,0.0191666,0.00780074,0.0242173,0.00711855,0.996201,0.0143722,0.0382978,1980,1317,0.158653,-0.173921
763,-293,0.0804443,0.31604,0.0170629,0.0242704,0.00978164,0.031091,0.0102423,0.961891,0.0182953,0.0411106,1987,1317,0.0804243,-0.316061
770,-293,0.106445,-0.10022,0.0236185,0.0299443,0.0119147,0.0391088,0.014454,0.915137,0.0228341,0.0462159,1994,1317,0.10644,0.100213
777,-293,0,0,0,0,0,0,0,0,0,-1,2001,1317,0,0
784,-293,0,0,0,0,0,0,0,0,0,-1,2008,1317,0,0
791,-293,0,0,0,0,0,0,0,0,0,-1,2015,1317,0,0
798,-293,0,0,0,0,0,0,0,0,0,-1,2022,1317,0,0
805,-293,0,0,0,0,0,0,0,0,0,-1,2029,1317,0,0
812,-293,0,0,0,0,0,0,0,0,0,-1,2036,1317,0,0
-700,-300,0,0,0,0,0,0,0,0,0,-1,524,1324,0,0
-693,-300,0,0,0,0,0,0,0,0,0,-1,531,1324,0,0
-686,-300,0,0,0,0,0,0,0,0,0,-1,538,1324,0,0
-679,-300,0,0,0,0,0,0,0,0,0,-1,545,1324,0,0
-672,-300,0,0,0,0,0,0,0,0,0,-1,552,1324,0,0
-665,-300,0,0,0,0,0,0,0,0,0,-1,559,1324,0,0
-658,-300,0,0,0,0,0,0,0,0,0,-1,566,1324,0,0
-651,-300,1.17163,1.64465,-0.0651383,0.0521913,-0.0125792,0.0535248,-0.0664718,-1.46518,0.0694144,0.0466622,573,1324,1.17164,-1.64468
-644,-300,0.681885,0.671509,-0.0505255,0.0396678,-0.00924147,0.040605,-0.0514627,-1.46973,0.0532784,0.0460028,580,1324,0.681872,-0.671476
-637,-300,0.156555,-0.16394,-0.0383625,0.0300133,-0.00604916,0.0305443,-0.0388936,-1.48323,0.0401865,0.0434863,587,1324,0.156556,0.1639
-630,-300,-0.156006,-0.579346,-0.028238,0.0226029,-0.00341351,0.022831,-0.0284662,-1.50405,0.029676,0.0463699,594,1324,-0.155992,0.579396
-623,-300,-0.169556,-0.864624,-0.020048,0.0168444,-0.00136901,0.0168951,-0.0200987,-1.53376,0.0213851,0.043549,601,1324,-0.169547,0.864649
-616,-300,-0.243225,-0.559814,-0.0135832,0.0123777,0.000133397,0.0123784,-0.0135839,1.56566,0.0149947,0.0393498,608,1324,-0.243239,0.55982
-609,-300,-0.18219,-0.271484,-0.00861325,0.00892455,0.00104644,0.00898677,-0.00867547,1.51141,0.0101978,0.0359749,615,1324,-0.182197,0.271542
-602,-300,-0.0291748,-0.0101318,-0.00497799,0.00631048,0.0015631,0.00652292,-0.00519043,1.43571,0.00677728,0.0256384,622,1324,-0.0291992,0.0100903
-595,-300,-0.032959,0.0687256,-0.00224818,0.00403782,0.00208088,0.00466423,-0.0028746,1.27839,0.00439324,0.0153404,629,1324,-0.0329404,-0.068715
-588,-300,-0.03125,0.0792236,-0.000482821,0.00249393,0.00222959,0.00368629,-0.00167518,1.07971,0.00316721,0.019483,636,1324,-0.0312505,-0.0792064
-581,-300,-0.024353,0.0843506,0.000983229,0.00183906,0.00194913,0.00340669,-0.000584404,0.893455,0.0024889,0.019567,643,1324,-0.0243594,-0.0843046
-574,-300,-0.0591431,0.0998535,0.00168774,0.0016831,0.000945735,0.00263116,0.000739685,0.78417,0.00156687,0.0150407,650,1324,-0.0591629,-0.0998322
-567,-300,-0.055603,0.110229,0.00188085,0.00214142,6.13679e-05,0.00215515,0.00186712,1.3507,0.00135103,0.0137523,657,1324,-0.0556255,-0.110174
-560,-300,-0.0343628,0.0917969,0.00190592,0.00323049,-0.00059412,0.00345793,0.00167848,-1.2052,0.00199672,0.0127498,664,1324,-0.0343705,-0.0918434
-553,-300,-0.0120239,0.065918,0.00215874,0.00424061,-0.00106136,0.0046863,0.00171306,-1.17324,0.00273805,0.00946443,671,1324,-0.0120016,-0.0659519
-546,-300,-0.0157471,0.0648193,0.00283065,0.00460415,-0.00135281,0.00533494,0.00209986,-1.07551,0.00310329,0.00810833,678,1324,-0.015723,-0.0648444
-539,-300,-0.0324707,0.0742188,0.00372969,0.00465569,-0.00138076,0.00564901,0.00273637,-0.947167,0.00326199,0.00992413,685,1324,-0.032455,-0.0741646
-532,-300,-0.00482178,0.0078125,0.0048273,0.00446109,-0.0012583,0.00591575,0.00337264,-0.713145,0.00342663,0.0206633,692,1324,-0.00481623,-0.00778289
-525,-300,0.0180664,-0.0596924,0.00617661,0.00401198,-0.000892493,0.00649713,0.00369146,-0.344786,0.00376272,0.0384063,699,1324,0.0180438,0.0596905
-518,-300,0.0159912,-0.126099,0,0,0,0,0,0,0,-1,706,1324,0.0160079,0.126093
-511,-300,0.242981,-0.388916,0,0,0,0,0,0,0,-1,713,1324,0.242988,0.388959
-504,-300,0.571655,-0.22229,0,0,0,0,0,0,0,-1,720,1324,0.571669,0.222261
-497,-300,-0.96521,-0.323975,0.00997172,-0.000808262,0.000352833,0.00998326,-0.000819798,0.0326837,0.00694492,0.0442288,727,1324,-0.965186,0.323975
-490,-300,-0.745972,-0.29187,0.0106552,-0.00243258,0.000231263,0.0106593,-0.00243667,0.0176627,0.00804244,0.0421073,734,1324,-0.745981,0.291877
-483,-300,-0.609436,0.0196533,0.010879,-0.00307114,-0.000487333,0.010896,-0.00308815,-0.0348772,0.0084829,0.0418446,741,1324,-0.609449,-0.0197
-476,-300,-0.359375,0.136719,0.0105752,-0.00168288,-0.0023304,0.0110033,-0.00211096,-0.181671,0.00813102,0.0427985,748,1324,-0.359347,-0.136698
-469,-300,0,0,0,0,0,0,0,0,0,-1,755,1324,0,0
-462,-300,0,0,0,0,0,0,0,0,0,-1,762,1324,0,0
-455,-300,0,0,0,0,0,0,0,0,0,-1,769,1324,0,0
-448,-300,0,0,0,0,0,0,0,0,0,-1,776,1324,0,0
-441,-300,0,0,0,0,0,0,0,0,0,-1,783,1324,0,0
-434,-300,0,0,0,0,0,0,0,0,0,-1,790,1324,0,0
-427,-300,0,0,0,0,0,0,0,0,0,-1,797,1324,0,0
-420,-300,0,0,0,0,0,0,0,0,0,-1,804,1324,0,0
-413,-300,0,0,0,0,0,0,0,0,0,-1,811,1324,0,0
-406,-300,0,0,0,0,0,0,0,0,0,-1,818,1324,0,0
-399,-300,0,0,0,0,0,0,0,0,0,-1,825,1324,0,0
-392,-300,0,0,0,0,0,0,0,0,0,-1,832,1324,0,0
-385,-300,0,0,0,0,0,0,0,0,0,-1,839,1324,0,0
-378,-300,0,0,0,0,0,0,0,0,0,-1,846,1324,0,0
-371,-300,0,0,0,0,0,0,0,0,0,-1,853,1324,0,0
-364,-300,0,0,0,0,0,0,0,0,0,-1,860,1324,0,0
-357,-300,0,0,0,0,0,0,0,0,0,-1,867,1324,0,0
-350,-300,0,0,0,0,0,0,0,0,0,-1,874,1324,0,0
-343,-300,0,0,0,0,0,0,0,0,0,-1,881,1324,0,0
-336,-300,0,0,0,0,0,0,0,0,0,-1,888,1324,0,0
-329,-300,0,0,0,0,0,0,0,0,0,-1,895,1324,0,0
-322,-300,0,0,0,0,0,0,0,0,0,-1,902,1324,0,0
-315,-300,0,0,0,0,0,0,0,0,0,-1,909,1324,0,0
-308,-300,0,0,0,0,0,0,0,0,0,-1,916,1324,0,0
-301,-300,0,0,0,0,0,0,0,0,0,-1,923,1324,0,0
-294,-300,0,0,0,0,0,0,0,0,0,-1,930,1324,0,0
-287,-300,0,0,0,0,0,0,0,0,0,-1,937,1324,0,0
-280,-300,0,0,0,0,0,0,0,0,0,-1,944,1324,0,0
-273,-300,0,0,0,0,0,0,0,0,0,-1,951,1324,0,0
-266,-300,0,0,0,0,0,0,0,0,0,-1,958,1324,0,0
-259,-300,0,0,0,0,0,0,0,0,0,-1,965,1324,0,0
-252,-300,0,0,0,0,0,0,0,0,0,-1,972,1324,0,0
-245,-300,0,0,0,0,0,0,0,0,0,-1,979,1324,0,0
-238,-300,0,0,0,0,0,0,0,0,0,-1,986,1324,0,0
-231,-300,0,0,0,0,0,0,0,0,0,-1,993,1324,0,0
-224,-300,0,0,0,0,0,0,0,0,0,-1,1000,1324,0,0
-217,-300,0,0,0,0,0,0,0,0,0,-1,1007,1324,0,0
-210,-300,0,0,0,0,0,0,0,0,0,-1,1014,1324,0,0
-203,-300,0,0,0,0,0,0,0,0,0,-1,1021,1324,0,0
-196,-300,0,0,0,0,0,0,0,0,0,-1,1028,1324,0,0
-189,-300,0,0,0,0,0,0,0,0,0,-1,1035,1324,0,0
-182,-300,0,0,0,0,0,0,0,0,0,-1,1042,1324,0,0
-175,-300,0,0,0,0,0,0,0,0,0,-1,1049,1324,0,0
-168,-300,0,0,0,0,0,0,0,0,0,-1,1056,1324,0,0
-161,-300,0,0,0,0,0,0,0,0,0,-1,1063,1324,0,0
-154,-300,0,0,0,0,0,0,0,0,0,-1,1070,1324,0,0
-147,-300,0,0,0,0,0,0,0,0,0,-1,1077,1324,0,0
-140,-300,0,0,0,0,0,0,0,0,0,-1,1084,1324,0,0
-133,-300,0,0,0,0,0,0,0,0,0,-1,1091,1324,0,0
-126,-300,0,0,0,0,0,0,0,0,0,-1,1098,1324,0,0
-119,-300,0,0,0,0,0,0,0,0,0,-1,1105,1324,0,0
-112,-300,0,0,0,0,0,0,0,0,0,-1,1112,1324,0,0
-105,-300,0,0,0,0,0,0,0,0,0,-1,1119,1324,0,0
-98,-300,0,0,0,0,0,0,0,0,0,-1,1126,1324,0,0
-91,-300,0,0,0,0,0,0,0,0,0,-1,1133,1324,0,0
-84,-300,0,0,0,0,0,0,0,0,0,-1,1140,1324,0,0
-77,-300,0,0,0,0,0,0,0,0,0,-1,1147,1324,0,0
-70,-300,0,0,0,0,0,0,0,0,0,-1,1154,1324,0,0
-63,-300,0,0,0,0,0,0,0,0,0,-1,1161,1324,0,0
-56,-300,0,0,0,0,0,0,0,0,0,-1,1168,1324,0,0
-49,-300,0,0,0,0,0,0,0,0,0,-1,1175,1324,0,0
-42,-300,0,0,0,0,0,0,0,0,0,-1,1182,1324,0,0
-35,-300,0,0,0,0,0,0,0,0,0,-1,1189,1324,0,0
-28,-300,0,0,0,0,0,0,0,0,0,-1,1196,1324,0,0
-21,-300,0,0,0,0,0,0,0,0,0,-1,1203,1324,0,0
-14,-300,0,0,0,0,0,0,0,0,0,-1,1210,1324,0,0
-7,-300,0,0,0,0,0,0,0,0,0,-1,1217,1324,0,0
0,-300,0,0,0,0,0,0,0,0,0,-1,1224,1324,0,0
7,-300,0,0,0,0,0,0,0,0,0,-1,1231,1324,0,0
14,-300,0,0,0,0,0,0,0,0,0,-1,1238,1324,0,0
21,-300,0,0,0,0,0,0,0,0,0,-1,1245,1324,0,0
28,-300,0,0,0,0,0,0,0,0,0,-1,1252,1324,0,0
35,-300,0,0,0,0,0,0,0,0,0,-1,1259,1324,0,0
42,-300,0,0,0,0,0,0,0,0,0,-1,1266,1324,0,0
49,-300,0,0,0,0,0,0,0,0,0,-1,1273,1324,0,0
56,-300,0,0,0,0,0,0,0,0,0,-1,1280,1324,0,0
63,-300,0,0,0,0,0,0,0,0,0,-1,1287,1324,0,0
70,-300,0,0,0,0,0,0,0,0,0,-1,1294,1324,0,0
77,-300,0,0,0,0,0,0,0,0,0,-1,1301,1324,0,0
84,-300,0,0,0,0,0,0,0,0,0,-1,1308,1324,0,0
91,-300,0,0,0,0,0,0,0,0,0,-1,1315,1324,0,0
98,-300,0,0,0,0,0,0,0,0,0,-1,1322,1324,0,0
105,-300,0,0,0,0,0,0,0,0,0,-1,1329,1324,0,0
112,-300,0,0,0,0,0,0,0,0,0,-1,1336,1324,0,0
119,-300,0,0,0,0,0,0,0,0,0,-1,1343,1324,0,0
126,-300,0,0,0,0,0,0,0,0,0,-1,1350,1324,0,0
133,-300,0,0,0,0,0,0,0,0,0,-1,1357,1324,0,0
140,-300,0,0,0,0,0,0,0,0,0,-1,1364,1324,0,0
147,-300,0,0,0,0,0,0,0,0,0,-1,1371,1324,0,0
154,-300,0,0,0,0,0,0,0,0,0,-1,1378,1324,0,0
161,-300,0,0,0,0,0,0,0,0,0,-1,1385,1324,0,0
168,-300,0,0,0,0,0,0,0,0,0,-1,1392,1324,0,0
175,-300,0,0,0,0,0,0,0,0,0,-1,1399,1324,0,0
182,-300,0,0,0,0,0,0,0,0,0,-1,1406,1324,0,0
189,-300,0,0,0,0,0,0,0,0,0,-1,1413,1324,0,0
196,-300,0,0,0,0,0,0,0,0,0,-1,1420,1324,0,0
203,-300,0,0,0,0,0,0,0,0,0,-1,1427,1324,0,0
210,-300,0,0,0,0,0,0,0,0,0,-1,1434,1324,0,0
217,-300,0,0,0,0,0,0,0,0,0,-1,1441,1324,0,0
224,-300,0,0,0,0,0,0,0,0,0,-1,1448,1324,0,0
231,-300,0,0,0,0,0,0,0,0,0,-1,1455,1324,0,0
238,-300,0,0,0,0,0,0,0,0,0,-1,1462,1324,0,0
245,-300,0,0,0,0,0,0,0,0,0,-1,1469,1324,0,0
252,-300,0,0,0,0,0,0,0,0,0,-1,1476,1324,0,0
259,-300,0,0,0,0,0,0,0,0,0,-1,1483,1324,0,0
266,-300,0,0,0,0,0,0,0,0,0,-1,1490,1324,0,0
273,-300,0,0,0,0,0,0,0,0,0,-1,1497,1324,0,0
280,-300,0,0,0,0,0,0,0,0,0,-1,1504,1324,0,0
287,-300,0,0,0,0,0,0,0,0,0,-1,1511,1324,0,0
294,-300,0,0,0,0,0,0,0,0,0,-1,1518,1324,0,0
301,-300,0,0,0,0,0,0,0,0,0,-1,1525,1324,0,0
308,-300,0,0,0,0,0,0,0,0,0,-1,1532,1324,0,0
315,-300,0,0,0,0,0,0,0,0,0,-1,1539,1324,0,0
322,-300,0,0,0,0,0,0,0,0,0,-1,1546,1324,0,0
329,-300,0,0,0,0,0,0,0,0,0,-1,1553,1324,0,0
336,-300,0,0,0,0,0,0,0,0,0,-1,1560,1324,0,0
343,-300,0,0,0,0,0,0,0,0,0,-1,1567,1324,0,0
350,-300,0,0,0,0,0,0,0,0,0,-1,1574,1324,0,0
357,-300,0,0,0,0,0,0,0,0,0,-1,1581,1324,0,0
364,-300,0,0,0,0,0,0,0,0,0,-1,1588,1324,0,0
371,-300,0,0,0,0,0,0,0,0,0,-1,1595,1324,0,0
378,-300,0,0,0,0,0,0,0,0,0,-1,1602,1324,0,0
385,-300,0,0,0,0,0,0,0,0,0,-1,1609,1324,0,0
392,-300,0,0,0,0,0,0,0,0,0,-1,1616,1324,0,0
399,-300,0,0,0,0,0,0,0,0,0,-1,1623,1324,0,0
406,-300,0,0,0,0,0,0,0,0,0,-1,1630,1324,0,0
413,-300,0,0,0,0,0,0,0,0,0,-1,1637,1324,0,0
420,-300,0,0,0,0,0,0,0,0,0,-1,1644,1324,0,0
427,-300,0,0,0,0,0,0,0,0,0,-1,1651,1324,0,0
434,-300,0,0,0,0,0,0,0,0,0,-1,1658,1324,0,0
441,-300,0,0,0,0,0,0,0,0,0,-1,1665,1324,0,0
448,-300,0,0,0,0,0,0,0,0,0,-1,1672,1324,0,0
455,-300,0,0,0,0,0,0,0,0,0,-1,1679,1324,0,0
462,-300,0,0,0,0,0,0,0,0,0,-1,1686,1324,0,0
469,-300,0,0,0,0,0,0,0,0,0,-1,1693,1324,0,0
476,-300,0,0,0,0,0,0,0,0,0,-1,1700,1324,0,0
483,-300,0,0,0,0,0,0,0,0,0,-1,1707,1324,0,0
490,-300,0,0,0,0,0,0,0,0,0,-1,1714,1324,0,0
497,-300,0,0,0,0,0,0,0,0,0,-1,1721,1324,0,0
504,-300,0,0,0,0,0,0,0,0,0,-1,1728,1324,0,0
511,-300,0,0,0,0,0,0,0,0,0,-1,1735,1324,0,0
518,-300,0,0,0,0,0,0,0,0,0,-1,1742,1324,0,0
525,-300,0,0,0,0,0,0,0,0,0,-1,1749,1324,0,0
532,-300,0,0,0,0,0,0,0,0,0,-1,1756,1324,0,0
539,-300,0,0,0,0,0,0,0,0,0,-1,1763,1324,0,0
546,-300,0,0,0,0,0,0,0,0,0,-1,1770,1324,0,0
553,-300,0,0,0,0,0,0,0,0,0,-1,1777,1324,0,0
560,-300,0,0,0,0,0,0,0,0,0,-1,1784,1324,0,0
567,-300,0,0,0,0,0,0,0,0,0,-1,1791,1324,0,0
574,-300,0,0,0,0,0,0,0,0,0,-1,1798,1324,0,0
581,-300,0,0,0,0,0,0,0,0,0,-1,1805,1324,0,0
588,-300,0.217773,0.449951,-0.0126039,0.0182848,-0.0104258,0.0214744,-0.0157935,-1.2739,0.0215998,0.0428786,1812,1324,0.217803,-0.449915
595,-300,0.370728,0.297241,0,0,0,0,0,0,0,-1,1819,1324,0.370701,-0.297187
602,-300,1.14795,-0.181641,0,0,0,0,0,0,0,-1,1826,1324,1.14799,0.181653
609,-300,0.621704,-0.26001,-0.00998222,0.0121331,-0.00248663,0.0124093,-0.0102584,-1.4602,0.0131068,0.0483702,1833,1324,0.621711,0.259978
616,-300,0.0732422,-0.131714,-0.00959763,0.00919924,-0.000619497,0.00921964,-0.00961803,-1.53789,0.0108767,0.0498664,1840,1324,0.0732187,0.131659
623,-300,-0.0280762,-0.394409,-0.00940552,0.00650653,0.000551747,0.00652564,-0.00942463,1.53618,0.00925945,0.0486755,1847,1324,-0.0281343,0.394407
630,-300,-0.438354,-0.500488,-0.00918797,0.00350937,0.000885826,0.00357087,-0.00924948,1.50148,0.00764003,0.0430805,1854,1324,-0.438341,0.500547
637,-300,-0.559937,-0.449829,-0.00852064,0.00197811,0.00179331,0.00227597,-0.00881851,1.4062,0.00676648,0.0486575,1861,1324,-0.559908,0.449844
644,-300,0.300903,-0.158569,0,0,0,0,0,0,0,-1,1868,1324,0.300925,0.15854
651,-300,0.302856,-0.0588379,-0.0073623,-0.000319069,0.00204257,0.000230416,-0.00791178,1.308,0.00535298,0.0439627,1875,1324,0.302819,0.0588402
658,-300,0.132324,0.0109863,-0.00682109,-0.000875454,0.00188902,-0.000326051,-0.00737049,1.28776,0.00480867,0.0360584,1882,1324,0.132378,-0.0109607
665,-300,-0.0523682,0.0715332,-0.00619482,-0.0016729,0.00152762,-0.0012052,-0.00666251,1.2737,0.00409943,0.0218602,1889,1324,-0.0523795,-0.0714764
672,-300,-0.0783691,0.0930176,-0.00560718,-0.00198563,0.000731434,-0.00184348,-0.00574933,1.37885,0.00338982,0.0096661,1896,1324,-0.0783298,-0.0930468
679,-300,-0.0568848,0.0587158,-0.00446931,-0.00188922,0.000149081,-0.00188064,-0.00447789,1.51327,0.00259633,0.00968922,1903,1324,-0.0568998,-0.0587247
686,-300,-0.0471191,0.0477295,-0.00306578,-0.000972076,0.000475472,-0.000869157,-0.0031687,1.35763,0.00189056,0.0098413,1910,1324,-0.0471596,-0.0477302
693,-300,-0.0545654,0.0617676,-0.00218678,-2.40755e-05,0.000350213,3.12218e-05,-0.00224208,1.41419,0.00150523,0.00933602,1917,1324,-0.0545994,-0.0617758
700,-300,-0.0617676,0.0657959,-0.00129361,0.000674025,0.000350439,0.000734575,-0.00135416,1.3997,0.00122349,0.0110203,1924,1324,-0.0617713,-0.0658307
707,-300,-0.0535889,0.0535889,-0.000595879,0.00142651,0.000632662,0.00160812,-0.000777486,1.29126,0.00140489,0.00789128,1931,1324,-0.0535793,-0.0536263
714,-300,-0.0385742,0.0665283,0.000457786,0.00271961,0.00111042,0.00317363,3.7729e-06,1.18267,0.00211449,0.00953379,1938,1324,-0.038623,-0.0665882
721,-300,-0.0297852,0.0583496,0.00195009,0.00373367,0.00163254,0.00470212,0.000981639,1.03538,0.00286417,0.0110599,1945,1324,-0.0298387,-0.0583213
728,-300,-0.0421143,0.0422363,0.0032466,0.00541331,0.00234863,0.00691641,0.0017435,1.00149,0.00415359,0.00902278,1952,1324,-0.0420754,-0.0422387
735,-300,-0.0509033,0.0357666,0.0048205,0.00772672,0.00316471,0.00975598,0.00279123,1.00062,0.00580188,0.0121904,1959,1324,-0.050936,-0.0357438
742,-300,0.0151367,0.0797119,0.00694142,0.0106872,0.00414962,0.013367,0.00426161,0.997382,0.00788454,0.0266386,1966,1324,0.0151109,-0.0797239
749,-300,0.219238,0.21875,0.00979594,0.0143546,0.00532718,0.0178696,0.00628094,0.987547,0.0104676,0.0392339,1973,1324,0.219184,-0.218729
756,-300,0.166016,0.147583,0.0136047,0.0187473,0.006669,0.0233235,0.00902849,0.969396,0.0135798,0.0418552,1980,1324,0.166063,-0.147612
763,-300,-0.053833,0.0251465,0.018618,0.0238256,0.00811371,0.0297431,0.0127006,0.940664,0.0172331,0.0404075,1987,1324,-0.0538582,-0.0251785
770,-300,0.141968,0.0394287,0.0251204,0.0294329,0.00952131,0.037039,0.0175142,0.896753,0.021395,0.046438,1994,1324,0.141982,-0.039434
777,-300,0,0,0,0,0,0,0,0,0,-1,2001,1324,0,0
784,-300,0,0,0,0,0,0,0,0,0,-1,2008,1324,0,0
791,-300,0,0,0,0,0,0,0,0,0,-1,2015,1324,0,0
798,-300,0,0,0,0,0,0,0,0,0,-1,2022,1324,0,0
805,-300,0,0,0,0,0,0,0,0,0,-1,2029,1324,0,0
812,-300,0,0,0,0,0,0,0,0,0,-1,2036,1324,0,0
-700,-307,0,0,0,0,0,0,0,0,0,-1,524,1331,0,0
-693,-307,0,0,0,0,0,0,0,0,0,-1,531,1331,0,0
-686,-307,0,0,0,0,0,0,0,0,0,-1,538,1331,0,0
-679,-307,0,0,0,0,0,0,0,0,0,-1,545,1331,0,0
-672,-307,0,0,0,0,0,0,0,0,0,-1,552,1331,0,0
-665,-307,0,0,0,0,0,0,0,0,0,-1,559,1331,0,0
-658,-307,0,0,0,0,0,0,0,0,0,-1,566,1331,0,0
-651,-307,0.829773,1.12476,-0.0665319,0.0555412,-0.0275042,0.061452,-0.0724427,-1.35911,0.0773908,0.0448358,573,1331,0.829762,-1.12479
-644,-307,0.300903,0.176636,-0.0524709,0.0414994,-0.0193242,0.0453181,-0.0562896,-1.3757,0.0587771,0.0422397,580,1331,0.300928,-0.17662
-637,-307,-0.18335,-0.358521,-0.0401828,0.0312442,-0.0126406,0.0334152,-0.0423538,-1.4007,0.0438466,0.0450369,587,1331,-0.183342,0.358563
-630,-307,-0.465881,-0.63501,0,0,0,0,0,0,0,-1,594,1331,-0.465854,0.635
-623,-307,0.234253,-0.594604,-0.0206884,0.0179474,-0.00424761,0.0184088,-0.0211498,-1.46258,0.0228575,0.0426449,601,1331,0.234238,0.594635
-616,-307,0.0422974,-0.0227051,-0.0136016,0.0134321,-0.00167848,0.0135359,-0.0137054,-1.50902,0.0157279,0.0416174,608,1331,0.0422943,0.0227521
-609,-307,0.119324,-0.0617676,-0.00811786,0.00992158,8.41669e-05,0.00992197,-0.00811826,1.56613,0.0104329,0.0367327,615,1331,0.119303,0.0617352
-602,-307,0.0432739,-0.151855,-0.00411721,0.00723051,0.00116914,0.00734971,-0.00423641,1.46919,0.00676927,0.0270478,622,1331,0.0432849,0.151906
-595,-307,-0.0213013,0.0495605,-0.00114189,0.00481127,0.00206127,0.00545531,-0.00178592,1.26796,0.00435597,0.0129169,629,1331,-0.0213089,-0.0495551
-588,-307,-0.0444336,0.0809326,0.000855418,0.0030306,0.00237329,0.00455363,-0.000667614,1.00025,0.00328101,0.0170334,636,1331,-0.0444527,-0.0809185
-581,-307,-0.0430298,0.0849609,0.00246191,0.00214815,0.00228823,0.00459863,1.14273e-05,0.751172,0.00306195,0.0144504,643,1331,-0.0430459,-0.0849714
-574,-307,-0.0338135,0.086792,0.00295427,0.00172471,0.00134547,0.00381877,0.000860221,0.571099,0.00231305,0.0121804,650,1331,-0.033784,-0.0867776
-567,-307,-0.0320435,0.106445,0.00284349,0.00186239,0.000489357,0.00304584,0.00166004,0.39209,0.00176089,0.0116777,657,1331,-0.0320172,-0.106468
-560,-307,-0.0220337,0.0965576,0.00260248,0.00247284,-0.00011405,0.00266885,0.00240648,-0.526985,0.00169854,0.0126443,664,1331,-0.0220329,-0.0965735
-553,-307,-0.0123291,0.0593262,0.00253641,0.00303572,-0.000518492,0.00336153,0.00221059,-1.00977,0.00197266,0.0102667,671,1331,-0.0123552,-0.0592968
-546,-307,-0.0135498,0.0563965,0.00285773,0.00302421,-0.000778268,0.00372368,0.00215826,-0.838672,0.00215893,0.00938814,678,1331,-0.0135792,-0.0563512
-539,-307,-0.0188599,0.0617676,0.00344033,0.00269816,-0.000740547,0.00389756,0.00224093,-0.553138,0.00225867,0.010481,685,1331,-0.0188639,-0.0617135
-532,-307,-0.0302734,0.041748,0.00420217,0.0021961,-0.000526201,0.00433182,0.00206645,-0.24157,0.00250185,0.0177317,692,1331,-0.0302807,-0.0417648
-525,-307,-0.118103,0.0720215,0.00523935,0.00151349,-8.22955e-05,0.00524117,0.00151168,-0.0220733,0.00311499,0.0372482,699,1331,-0.118097,-0.0720395
-518,-307,0.0933838,-0.149658,0.00603342,0.000765898,0.000137164,0.00603699,0.000762329,0.0260161,0.00379615,0.0391491,706,1331,0.0934117,0.149719
-511,-307,0.217834,-0.156616,0.00654362,-0.000108088,0.000389049,0.0065663,-0.000130765,0.058224,0.00442177,0.0398658,713,1331,0.217838,0.156606
-504,-307,0.229675,0.0535889,0.00682804,-0.00105996,0.00079138,0.00690665,-0.00113858,0.0990122,0.00502712,0.0448825,720,1331,0.229688,-0.0535888
-497,-307,0.226379,0.263916,0,0,0,0,0,0,0,-1,727,1331,0.226405,-0.263976
-490,-307,-0.635376,0.0631104,0.00651048,-0.00194334,0.000675849,0.00656417,-0.00199703,0.079275,0.00517195,0.0438314,734,1331,-0.63535,-0.063151
-483,-307,-0.534851,0.22937,0.00566454,-0.000994629,-0.000185453,0.0056697,-0.000999789,-0.0278206,0.00415337,0.041158,741,1331,-0.534863,-0.229361
-476,-307,-0.302307,0.282715,0.00405222,0.0020762,-0.00184862,0.00516029,0.000968125,-0.539982,0.0031672,0.0426827,748,1331,-0.30233,-0.282772
-469,-307,-0.331482,0.318237,0,0,0,0,0,0,0,-1,755,1331,-0.331509,-0.318285
-462,-307,0,0,0,0,0,0,0,0,0,-1,762,1331,0,0
-455,-307,0,0,0,0,0,0,0,0,0,-1,769,1331,0,0
-448,-307,0,0,0,0,0,0,0,0,0,-1,776,1331,0,0
-441,-307,0,0,0,0,0,0,0,0,0,-1,783,1331,0,0
-434,-307,0,0,0,0,0,0,0,0,0,-1,790,1331,0,0
-427,-307,0,0,0,0,0,0,0,0,0,-1,797,1331,0,0
-420,-307,0,0,0,0,0,0,0,0,0,-1,804,1331,0,0
-413,-307,0,0,0,0,0,0,0,0,0,-1,811,1331,0,0
-406,-307,0,0,0,0,0,0,0,0,0,-1,818,1331,0,0
-399,-307,0,0,0,0,0,0,0,0,0,-1,825,1331,0,0
-392,-307,0,0,0,0,0,0,0,0,0,-1,832,1331,0,0
-385,-307,0,0,0,0,0,0,0,0,0,-1,839,1331,0,0
-378,-307,0,0,0,0,0,0,0,0,0,-1,846,1331,0,0
-371,-307,0,0,0,0,0,0,0,0,0,-1,853,1331,0,0
-364,-307,0,0,0,0,0,0,0,0,0,-1,860,1331,0,0
-357,-307,0,0,0,0,0,0,0,0,0,-1,867,1331,0,0
-350,-307,0,0,0,0,0,0,0,0,0,-1,874,1331,0,0
-343,-307,0,0,0,0,0,0,0,0,0,-1,881,1331,0,0
-336,-307,0,0,0,0,0,0,0,0,0,-1,888,1331,0,0
-329,-307,0,0,0,0,0,0,0,0,0,-1,895,1331,0,0
-322,-307,0,0,0,0,0,0,0,0,0,-1,902,1331,0,0
-315,-307,0,0,0,0,0,0,0,0,0,-1,909,1331,0,0
-308,-307,0,0,0,0,0,0,0,0,0,-1,916,1331,0,0
-301,-307,0,0,0,0,0,0,0,0,0,-1,923,1331,0,0
-294,-307,0,0,0,0,0,0,0,0,0,-1,930,1331,0,0
-287,-307,0,0,0,0,0,0,0,0,0,-1,937,1331,0,0
-280,-307,0,0,0,0,0,0,0,0,0,-1,944,1331,0,0
-273,-307,0,0,0,0,0,0,0,0,0,-1,951,1331,0,0
-266,-307,0,0,0,0,0,0,0,0,0,-1,958,1331,0,0
-259,-307,0,0,0,0,0,0,0,0,0,-1,965,1331,0,0
-252,-307,0,0,0,0,0,0,0,0,0,-1,972,1331,0,0
-245,-307,0,0,0,0,0,0,0,0,0,-1,979,1331,0,0
-238,-307,0,0,0,0,0,0,0,0,0,-1,986,1331,0,0
-231,-307,0,0,0,0,0,0,0,0,0,-1,993,1331,0,0
-224,-307,0,0,0,0,0,0,0,0,0,-1,1000,1331,0,0
-217,-307,0,0,0,0,0,0,0,0,0,-1,1007,1331,0,0
-210,-307,0,0,0,0,0,0,0,0,0,-1,1014,1331,0,0
-203,-307,0,0,0,0,0,0,0,0,0,-1,1021,1331,0,0
-196,-307,0,0,0,0,0,0,0,0,0,-1,1028,1331,0,0
-189,-307,0,0,0,0,0,0,0,0,0,-1,1035,1331,0,0
-182,-307,0,0,0,0,0,0,0,0,0,-1,1042,1331,0,0
-175,-307,0,0,0,0,0,0,0,0,0,-1,1049,1331,0,0
-168,-307,0,0,0,0,0,0,0,0,0,-1,1056,1331,0,0
-161,-307,0,0,0,0,0,0,0,0,0,-1,1063,1331,0,0
-154,-307,0,0,0,0,0,0,0,0,0,-1,1070,1331,0,0
-147,-307,0,0,0,0,0,0,0,0,0,-1,1077,1331,0,0
-140,-307,0,0,0,0,0,0,0,0,0,-1,1084,1331,0,0
-133,-307,0,0,0,0,0,0,0,0,0,-1,1091,1331,0,0
-126,-307,0,0,0,0,0,0,0,0,0,-1,1098,1331,0,0
-119,-307,0,0,0,0,0,0,0,0,0,-1,1105,1331,0,0
-112,-307,0,0,0,0,0,0,0,0,0,-1,1112,1331,0,0
-105,-307,0,0,0,0,0,0,0,0,0,-1,1119,1331,0,0
-98,-307,0,0,0,0,0,0,0,0,0,-1,1126,1331,0,0
-91,-307,0,0,0,0,0,0,0,0,0,-1,1133,1331,0,0
-84,-307,0,0,0,0,0,0,0,0,0,-1,1140,1331,0,0
-77,-307,0,0,0,0,0,0,0,0,0,-1,1147,1331,0,0
-70,-307,0,0,0,0,0,0,0,0,0,-1,1154,1331,0,0
-63,-307,0,0,0,0,0,0,0,0,0,-1,1161,1331,0,0
-56,-307,0,0,0,0,0,0,0,0,0,-1,1168,1331,0,0
-49,-307,0,0,0,0,0,0,0,0,0,-1,1175,1331,0,0
-42,-307,0,0,0,0,0,0,0,0,0,-1,1182,1331,0,0
-35,-307,0,0,0,0,0,0,0,0,0,-1,1189,1331,0,0
-28,-307,0,0,0,0,0,0,0,0,0,-1,1196,1331,0,0
-21,-307,0,0,0,0,0,0,0,0,0,-1,1203,1331,0,0
-14,-307,0,0,0,0,0,0,0,0,0,-1,1210,1331,0,0
-7,-307,0,0,0,0,0,0,0,0,0,-1,1217,1331,0,0
0,-307,0,0,0,0,0,0,0,0,0,-1,1224,1331,0,0
7,-307,0,0,0,0,0,0,0,0,0,-1,1231,1331,0,0
14,-307,0,0,0,0,0,0,0,0,0,-1,1238,1331,0,0
21,-307,0,0,0,0,0,0,0,0,0,-1,1245,1331,0,0
28,-307,0,0,0,0,0,0,0,0,0,-1,1252,1331,0,0
35,-307,0,0,0,0,0,0,0,0,0,-1,1259,1331,0,0
42,-307,0,0,0,0,0,0,0,0,0,-1,1266,1331,0,0
49,-307,0,0,0,0,0,0,0,0,0,-1,1273,1331,0,0
56,-307,0,0,0,0,0,0,0,0,0,-1,1280,1331,0,0
63,-307,0,0,0,0,0,0,0,0,0,-1,1287,1331,0,0
70,-307,0,0,0,0,0,0,0,0,0,-1,1294,1331,0,0
77,-307,0,0,0,0,0,0,0,0,0,-1,1301,1331,0,0
84,-307,0,0,0,0,0,0,0,0,0,-1,1308,1331,0,0
91,-307,0,0,0,0,0,0,0,0,0,-1,1315,1331,0,0
98,-307,0,0,0,0,0,0,0,0,0,-1,1322,1331,0,0
105,-307,0,0,0,0,0,0,0,0,0,-1,1329,1331,0,0
112,-307,0,0,0,0,0,0,0,0,0,-1,1336,1331,0,0
119,-307,0,0,0,0,0,0,0,0,0,-1,1343,1331,0,0
126,-307,0,0,0,0,0,0,0,0,0,-1,1350,1331,0,0
133,-307,0,0,0,0,0,0,0,0,0,-1,1357,1331,0,0
140,-307,0,0,0,0,0,0,0,0,0,-1,1364,1331,0,0
147,-307,0,0,0,0,0,0,0,0,0,-1,1371,1331,0,0
154,-307,0,0,0,0,0,0,0,0,0,-1,1378,1331,0,0
161,-307,0,0,0,0,0,0,0,0,0,-1,1385,1331,0,0
168,-307,0,0,0,0,0,0,0,0,0,-1,1392,1331,0,0
175,-307,0,0,0,0,0,0,0,0,0,-1,1399,1331,0,0
182,-307,0,0,0,0,0,0,0,0,0,-1,1406,1331,0,0
189,-307,0,0,0,0,0,0,0,0,0,-1,1413,1331,0,0
196,-307,0,0,0,0,0,0,0,0,0,-1,1420,1331,0,0
203,-307,0,0,0,0,0,0,0,0,0,-1,1427,1331,0,0
210,-307,0,0,0,0,0,0,0,0,0,-1,1434,1331,0,0
217,-307,0,0,0,0,0,0,0,0,0,-1,1441,1331,0,0
224,-307,0,0,0,0,0,0,0,0,0,-1,1448,1331,0,0
231,-307,0,0,0,0,0,0,0,0,0,-1,1455,1331,0,0
238,-307,0,0,0,0,0,0,0,0,0,-1,1462,1331,0,0
245,-307,0,0,0,0,0,0,0,0,0,-1,1469,1331,0,0
252,-307,0,0,0,0,0,0,0,0,0,-1,1476,1331,0,0
259,-307,0,0,0,0,0,0,0,0,0,-1,1483,1331,0,0
266,-307,0,0,0,0,0,0,0,0,0,-1,1490,1331,0,0
273,-307,0,0,0,0,0,0,0,0,0,-1,1497,1331,0,0
280,-307,0,0,0,0,0,0,0,0,0,-1,1504,1331,0,0
287,-307,0,0,0,0,0,0,0,0,0,-1,1511,1331,0,0
294,-307,0,0,0,0,0,0,0,0,0,-1,1518,1331,0,0
301,-307,0,0,0,0,0,0,0,0,0,-1,1525,1331,0,0
308,-307,0,0,0,0,0,0,0,0,0,-1,1532,1331,0,0
315,-307,0,0,0,0,0,0,0,0,0,-1,1539,1331,0,0
322,-307,0,0,0,0,0,0,0,0,0,-1,1546,1331,0,0
329,-307,0,0,0,0,0,0,0,0,0,-1,1553,1331,0,0
336,-307,0,0,0,0,0,0,0,0,0,-1,1560,1331,0,0
343,-307,0,0,0,0,0,0,0,0,0,-1,1567,1331,0,0
350,-307,0,0,0,0,0,0,0,0,0,-1,1574,1331,0,0
357,-307,0,0,0,0,0,0,0,0,0,-1,1581,1331,0,0
364,-307,0,0,0,0,0,0,0,0,0,-1,1588,1331,0,0
371,-307,0,0,0,0,0,0,0,0,0,-1,1595,1331,0,0
378,-307,0,0,0,0,0,0,0,0,0,-1,1602,1331,0,0
385,-307,0,0,0,0,0,0,0,0,0,-1,1609,1331,0,0
392,-307,0,0,0,0,0,0,0,0,0,-1,1616,1331,0,0
399,-307,0,0,0,0,0,0,0,0,0,-1,1623,1331,0,0
406,-307,0,0,0,0,0,0,0,0,0,-1,1630,1331,0,0
413,-307,0,0,0,0,0,0,0,0,0,-1,1637,1331,0,0
420,-307,0,0,0,0,0,0,0,0,0,-1,1644,1331,0,0
427,-307,0,0,0,0,0,0,0,0,0,-1,1651,1331,0,0
434,-307,0,0,0,0,0,0,0,0,0,-1,1658,1331,0,0
441,-307,0,0,0,0,0,0,0,0,0,-1,1665,1331,0,0
448,-307,0,0,0,0,0,0,0,0,0,-1,1672,1331,0,0
455,-307,0,0,0,0,0,0,0,0,0,-1,1679,1331,0,0
462,-307,0,0,0,0,0,0,0,0,0,-1,1686,1331,0,0
469,-307,0,0,0,0,0,0,0,0,0,-1,1693,1331,0,0
476,-307,0,0,0,0,0,0,0,0,0,-1,1700,1331,0,0
483,-307,0,0,0,0,0,0,0,0,0,-1,1707,1331,0,0
490,-307,0,0,0,0,0,0,0,0,0,-1,1714,1331,0,0
497,-307,0,0,0,0,0,0,0,0,0,-1,1721,1331,0,0
504,-307,0,0,0,0,0,0,0,0,0,-1,1728,1331,0,0
511,-307,0,0,0,0,0,0,0,0,0,-1,1735,1331,0,0
518,-307,0,0,0,0,0,0,0,0,0,-1,1742,1331,0,0
525,-307,0,0,0,0,0,0,0,0,0,-1,1749,1331,0,0
532,-307,0,0,0,0,0,0,0,0,0,-1,1756,1331,0,0
539,-307,0,0,0,0,0,0,0,0,0,-1,1763,1331,0,0
546,-307,0,0,0,0,0,0,0,0,0,-1,1770,1331,0,0
553,-307,0,0,0,0,0,0,0,0,0,-1,1777,1331,0,0
560,-307,0,0,0,0,0,0,0,0,0,-1,1784,1331,0,0
567,-307,0,0,0,0,0,0,0,0,0,-1,1791,1331,0,0
574,-307,0,0,0,0,0,0,0,0,0,-1,1798,1331,0,0
581,-307,0,0,0,0,0,0,0,0,0,-1,1805,1331,0,0
588,-307,0.4646,0.755005,0,0,0,0,0,0,0,-1,1812,1331,0.464637,-0.754991
595,-307,0.62915,0.540161,0,0,0,0,0,0,0,-1,1819,1331,0.629156,-0.54016
602,-307,-0.27124,-0.422729,0,0,0,0,0,0,0,-1,1826,1331,-0.271291,0.422759
609,-307,-0.270508,-0.752563,-0.0104417,0.012603,-0.00229497,0.0128293,-0.010668,-1.47249,0.0135853,0.0482468,1833,1331,-0.270485,0.752535
616,-307,-0.191162,-0.837646,-0.00974715,0.00938368,-0.000337676,0.00938964,-0.00975311,-1.55315,0.0110527,0.047256,1840,1331,-0.191116,0.837605
623,-307,-0.470825,-0.726685,-0.00923517,0.00650099,0.000972629,0.00656088,-0.00929506,1.5093,0.00919969,0.0451397,1847,1331,-0.470838,0.726663
630,-307,-0.536499,-0.736938,-0.00883832,0.00318617,0.0013163,0.00332857,-0.00898072,1.46303,0.00735227,0.044397,1854,1331,-0.536545,0.736901
637,-307,-0.444214,-0.499512,-0.00794375,0.00158906,0.00238077,0.00215057,-0.00850526,1.33918,0.0065066,0.0432116,1861,1331,-0.444257,0.499511
644,-307,-0.387939,-0.303589,0,0,0,0,0,0,0,-1,1868,1331,-0.38794,0.303607
651,-307,-0.162354,-0.012207,-0.00650908,-0.000673433,0.00273567,0.000408441,-0.00759096,1.1942,0.00520213,0.0410825,1875,1331,-0.16241,0.0122002
658,-307,-0.00732422,0.0827637,-0.00593257,-0.00113063,0.00260942,1.43475e-05,-0.00707754,1.15731,0.00472315,0.0321569,1882,1331,-0.00734888,-0.082814
665,-307,-0.0343018,0.0825195,-0.00534142,-0.00192252,0.00224934,-0.000806772,-0.00645717,1.11033,0.00406264,0.0124042,1889,1331,-0.0343448,-0.0825202
672,-307,-0.0482178,0.0783691,-0.00483252,-0.00214882,0.00135161,-0.00158609,-0.00539525,1.17629,0.00320188,0.00830101,1896,1331,-0.0481805,-0.0784157
679,-307,-0.052124,0.069458,-0.00380198,-0.00202577,0.000676072,-0.00179772,-0.00403003,1.24547,0.00233124,0.0090427,1903,1331,-0.0521761,-0.0694598
686,-307,-0.0534668,0.0706787,-0.00257771,-0.0010291,0.00100952,-0.000531132,-0.00307568,1.11254,0.00189834,0.00875743,1910,1331,-0.0534853,-0.0707209
693,-307,-0.0639648,0.0740967,-0.00186262,-7.06247e-05,0.000850809,0.000268969,-0.00220222,1.19103,0.00156552,0.0105812,1917,1331,-0.063972,-0.074134
700,-307,-0.0594482,0.074585,-0.00102361,0.000547233,0.000804587,0.0008862,-0.00136257,1.17207,0.001308,0.0115201,1924,1331,-0.0594891,-0.0745632
707,-307,-0.0650635,0.0681152,-0.000248496,0.00122006,0.00106001,0.00177527,-0.000803706,1.08831,0.00152379,0.0123767,1931,1331,-0.0651209,-0.0681152
714,-307,-0.0445557,0.0675049,0.000879968,0.00240685,0.00150368,0.00332979,-4.29741e-05,1.0203,0.00223432,0.0117122,1938,1331,-0.0445029,-0.0674558
721,-307,-0.0333252,0.0671387,0.00241463,0.00341458,0.00195969,0.00493706,0.000892144,0.910299,0.00303798,0.0128913,1945,1331,-0.033267,-0.067197
728,-307,-0.0427246,0.0606689,0.00384625,0.00504669,0.00261464,0.00712912,0.00176383,0.898224,0.0042875,0.0139719,1952,1331,-0.0427437,-0.0606944
735,-307,-0.100952,0.0214844,0.00566187,0.0072901,0.00336575,0.0099388,0.00301318,0.90406,0.0058845,0.0229775,1959,1331,-0.100963,-0.0214905
742,-307,-0.0181885,0.00561523,0.00808395,0.010184,0.00423657,0.0134987,0.00476922,0.906875,0.00790451,0.0339871,1966,1331,-0.018246,-0.00567487
749,-307,0.380127,0.218506,0.0112717,0.0137944,0.00522087,0.0179041,0.00716194,0.903927,0.0104056,0.0382839,1973,1331,0.380144,-0.218563
756,-307,-0.210571,-0.40918,0.0154123,0.0181407,0.0062678,0.023191,0.010362,0.892553,0.0134146,0.043637,1980,1331,-0.210554,0.409126
763,-307,-0.232178,-0.361328,0.0207014,0.0231803,0.00728511,0.0293306,0.0145511,0.869656,0.0169342,0.0438803,1987,1331,-0.232142,0.361361
770,-307,0,0,0,0,0,0,0,0,0,-1,1994,1331,0,0
777,-307,0,0,0,0,0,0,0,0,0,-1,2001,1331,0,0
784,-307,0,0,0,0,0,0,0,0,0,-1,2008,1331,0,0
791,-307,0,0,0,0,0,0,0,0,0,-1,2015,1331,0,0
798,-307,0,0,0,0,0,0,0,0,0,-1,2022,1331,0,0
805,-307,0,0,0,0,0,0,0,0,0,-1,2029,1331,0,0
812,-307,0,0,0,0,0,0,0,0,0,-1,2036,1331,0,0
-700,-314,0,0,0,0,0,0,0,0,0,-1,524,1338,0,0
-693,-314,0,0,0,0,0,0,0,0,0,-1,531,1338,0,0
-686,-314,0,0,0,0,0,0,0,0,0,-1,538,1338,0,0
-679,-314,0,0,0,0,0,0,0,0,0,-1,545,1338,0,0
-672,-314,0,0,0,0,0,0,0,0,0,-1,552,1338,0,0
-665,-314,0,0,0,0,0,0,0,0,0,-1,559,1338,0,0
-658,-314,0,0,0,0,0,0,0,0,0,-1,566,1338,0,0
-651,-314,0,0,0,0,0,0,0,0,0,-1,573,1338,0,0
-644,-314,-0.165161,-0.0842285,-0.0569296,0.0422074,-0.0211765,0.0465414,-0.0612636,-1.36892,0.0624344,0.0473523,580,1338,-0.165176,0.0841813
-637,-314,-0.44989,-0.490723,-0.0432676,0.0321621,-0.0142568,0.0347668,-0.0458723,-1.39009,0.0467039,0.0466772,587,1338,-0.449898,0.490695
-630,-314,1.29333,-0.787598,0,0,0,0,0,0,0,-1,594,1338,1.29333,0.787601
-623,-314,0.49353,-0.481445,0,0,0,0,0,0,0,-1,601,1338,0.493508,0.481468
-616,-314,-0.306335,-0.175293,0,0,0,0,0,0,0,-1,608,1338,-0.306312,0.175335
-609,-314,0.243835,-0.149292,0,0,0,0,0,0,0,-1,615,1338,0.243857,0.149232
-602,-314,0.131287,-0.474609,0,0,0,0,0,0,0,-1,622,1338,0.131313,0.474557
-595,-314,0.00958252,0.0432129,0.000744701,0.00533636,0.00296726,0.00679226,-0.000711198,1.11465,0.0047829,0.0204248,629,1338,0.00956184,-0.0432265
-588,-314,-0.0440674,0.0860596,0.00284657,0.00338843,0.00338029,0.00650863,-0.00027363,0.825388,0.00443311,0.0120567,636,1338,-0.0440389,-0.0860601
-581,-314,-0.0487061,0.0734863,0.00449901,0.00235699,0.00340641,0.00699881,-0.00014281,0.633086,0.0047142,0.0113202,643,1338,-0.0486781,-0.0734663
-574,-314,-0.0435791,0.0654297,0.00465781,0.00173041,0.00241928,0.00602171,0.000366509,0.513348,0.00389805,0.011541,650,1338,-0.0435586,-0.0654157
-567,-314,-0.027832,0.081665,0.00407723,0.00165315,0.00145074,0.00475562,0.000974769,0.437402,0.00290061,0.0134948,657,1338,-0.0278507,-0.0816738
-560,-314,-0.0199585,0.0700684,0.00342575,0.00190901,0.000765378,0.00374484,0.00158991,0.394998,0.00217027,0.0145772,664,1338,-0.0199727,-0.0700468
-553,-314,-0.039978,0.0482178,0.00292359,0.00213899,0.000286323,0.00301697,0.00204562,0.315241,0.00177827,0.0172567,671,1338,-0.0400013,-0.0482655
-546,-314,-0.0315552,0.0557861,0.00281902,0.00186884,-7.15581e-05,0.00282438,0.00186348,-0.0747479,0.00165818,0.0174089,678,1338,-0.0315577,-0.0558417
-539,-314,-0.0154419,0.0537109,0.00301392,0.00129424,-0.000110979,0.00302105,0.00128711,-0.0641803,0.00175055,0.0159359,685,1338,-0.0154286,-0.0537692
-532,-314,-0.0420532,0.0532227,0.00341059,0.000535863,6.15104e-05,0.0034119,0.000534547,0.0213839,0.00211901,0.017172,692,1338,-0.0420341,-0.0532047
-525,-314,-0.107239,0.0783691,0.00414614,-0.000307586,0.000506992,0.00420313,-0.000364571,0.111928,0.00293117,0.0289195,699,1338,-0.107231,-0.0783485
-518,-314,-0.0911255,-0.00610352,0.00466904,-0.00109808,0.000707199,0.00475449,-0.00118354,0.120252,0.00362909,0.037487,706,1338,-0.0911408,0.00614979
-511,-314,-0.0100098,-0.0603027,0.0047378,-0.00177984,0.00093115,0.00486822,-0.00191026,0.139158,0.00403585,0.0406032,713,1338,-0.0100197,0.0603107
-504,-314,-0.0528564,0.107788,0.00447052,-0.0022054,0.00128456,0.00470916,-0.00244404,0.183681,0.00419835,0.0441987,720,1338,-0.052863,-0.107818
-497,-314,-0.19342,-0.0472412,0.0037398,-0.0019007,0.00138739,0.00406258,-0.00222348,0.228589,0.00368067,0.046245,727,1338,-0.193438,0.0472424
-490,-314,-0.443848,0.377686,0.00279072,-0.00122322,0.00104445,0.00304623,-0.00147873,0.239921,0.00266423,0.0445083,734,1338,-0.44386,-0.377737
-483,-314,-0.417664,0.418945,0.00111076,0.000894014,0.000195773,0.00122616,0.000778621,0.532605,0.000716473,0.0431429,741,1338,-0.417634,-0.418985
-476,-314,-0.378601,0.391846,-0.00148003,0.00510907,-0.00124755,0.00533737,-0.00170832,-1.3898,0.00424389,0.04342,748,1338,-0.378578,-0.391885
-469,-314,-0.633728,0.42981,0,0,0,0,0,0,0,-1,755,1338,-0.633745,-0.429815
-462,-314,0,0,0,0,0,0,0,0,0,-1,762,1338,0,0
-455,-314,0,0,0,0,0,0,0,0,0,-1,769,1338,0,0
-448,-314,0,0,0,0,0,0,0,0,0,-1,776,1338,0,0
-441,-314,0,0,0,0,0,0,0,0,0,-1,783,1338,0,0
-434,-314,0,0,0,0,0,0,0,0,0,-1,790,1338,0,0
-427,-314,0,0,0,0,0,0,0,0,0,-1,797,1338,0,0
-420,-314,0,0,0,0,0,0,0,0,0,-1,804,1338,0,0
-413,-314,0,0,0,0,0,0,0,0,0,-1,811,1338,0,0
-406,-314,0,0,0,0,0,0,0,0,0,-1,818,1338,0,0
-399,-314,0,0,0,0,0,0,0,0,0,-1,825,1338,0,0
-392,-314,0,0,0,0,0,0,0,0,0,-1,832,1338,0,0
-385,-314,0,0,0,0,0,0,0,0,0,-1,839,1338,0,0
-378,-314,0,0,0,0,0,0,0,0,0,-1,846,1338,0,0
-371,-314,0,0,0,0,0,0,0,0,0,-1,853,1338,0,0
-364,-314,0,0,0,0,0,0,0,0,0,-1,860,1338,0,0
-357,-314,0,0,0,0,0,0,0,0,0,-1,867,1338,0,0
-350,-314,0,0,0,0,0,0,0,0,0,-1,874,1338,0,0
-343,-314,0,0,0,0,0,0,0,0,0,-1,881,1338,0,0
-336,-314,0,0,0,0,0,0,0,0,0,-1,888,1338,0,0
-329,-314,0,0,0,0,0,0,0,0,0,-1,895,1338,0,0
-322,-314,0,0,0,0,0,0,0,0,0,-1,902,1338,0,0
-315,-314,0,0,0,0,0,0,0,0,0,-1,909,1338,0,0
-308,-314,0,0,0,0,0,0,0,0,0,-1,916,1338,0,0
-301,-314,0,0,0,0,0,0,0,0,0,-1,923,1338,0,0
-294,-314,0,0,0,0,0,0,0,0,0,-1,930,1338,0,0
-287,-314,0,0,0,0,0,0,0,0,0,-1,937,1338,0,0
-280,-314,0,0,0,0,0,0,0,0,0,-1,944,1338,0,0
-273,-314,0,0,0,0,0,0,0,0,0,-1,951,1338,0,0
-266,-314,0,0,0,0,0,0,0,0,0,-1,958,1338,0,0
-259,-314,0,0,0,0,0,0,0,0,0,-1,965,1338,0,0
-252,-314,0,0,0,0,0,0,0,0,0,-1,972,1338,0,0
-245,-314,0,0,0,0,0,0,0,0,0,-1,979,1338,0,0
-238,-314,0,0,0,0,0,0,0,0,0,-1,986,1338,0,0
-231,-314,0,0,0,0,0,0,0,0,0,-1,993,1338,0,0
-224,-314,0,0,0,0,0,0,0,0,0,-1,1000,1338,0,0
-217,-314,0,0,0,0,0,0,0,0,0,-1,1007,1338,0,0
-210,-314,0,0,0,0,0,0,0,0,0,-1,1014,1338,0,0
-203,-314,0,0,0,0,0,0,0,0,0,-1,1021,1338,0,0
-196,-314,0,0,0,0,0,0,0,0,0,-1,1028,1338,0,0
-189,-314,0,0,0,0,0,0,0,0,0,-1,1035,1338,0,0
-182,-314,0,0,0,0,0,0,0,0,0,-1,1042,1338,0,0
-175,-314,0,0,0,0,0,0,0,0,0,-1,1049,1338,0,0
-168,-314,0,0,0,0,0,0,0,0,0,-1,1056,1338,0,0
-161,-314,0,0,0,0,0,0,0,0,0,-1,1063,1338,0,0
-154,-314,0,0,0,0,0,0,0,0,0,-1,1070,1338,0,0
-147,-314,0,0,0,0,0,0,0,0,0,-1,1077,1338,0,0
-140,-314,0,0,0,0,0,0,0,0,0,-1,1084,1338,0,0
-133,-314,0,0,0,0,0,0,0,0,0,-1,1091,1338,0,0
-126,-314,0,0,0,0,0,0,0,0,0,-1,1098,1338,0,0
-119,-314,0,0,0,0,0,0,0,0,0,-1,1105,1338,0,0
-112,-314,0,0,0,0,0,0,0,0,0,-1,1112,1338,0,0
-105,-314,0,0,0,0,0,0,0,0,0,-1,1119,1338,0,0
-98,-314,0,0,0,0,0,0,0,0,0,-1,1126,1338,0,0
-91,-314,0,0,0,0,0,0,0,0,0,-1,1133,1338,0,0
-84,-314,0,0,0,0,0,0,0,0,0,-1,1140,1338,0,0
-77,-314,0,0,0,0,0,0,0,0,0,-1,1147,1338,0,0
-70,-314,0,0,0,0,0,0,0,0,0,-1,1154,1338,0,0
-63,-314,0,0,0,0,0,0,0,0,0,-1,1161,1338,0,0
-56,-314,0,0,0,0,0,0,0,0,0,-1,1168,1338,0,0
-49,-314,0,0,0,0,0,0,0,0,0,-1,1175,1338,0,0
-42,-314,0,0,0,0,0,0,0,0,0,-1,1182,1338,0,0
-35,-314,0,0,0,0,0,0,0,0,0,-1,1189,1338,0,0
-28,-314,0,0,0,0,0,0,0,0,0,-1,1196,1338,0,0
-21,-314,0,0,0,0,0,0,0,0,0,-1,1203,1338,0,0
-14,-314,0,0,0,0,0,0,0,0,0,-1,1210,1338,0,0
-7,-314,0,0,0,0,0,0,0,0,0,-1,1217,1338,0,0
0,-314,0,0,0,0,0,0,0,0,0,-1,1224,1338,0,0
7,-314,0,0,0,0,0,0,0,0,0,-1,1231,1338,0,0
14,-314,0,0,0,0,0,0,0,0,0,-1,1238,1338,0,0
21,-314,0,0,0,0,0,0,0,0,0,-1,1245,1338,0,0
28,-314,0,0,0,0,0,0,0,0,0,-1,1252,1338,0,0
35,-314,0,0,0,0,0,0,0,0,0,-1,1259,1338,0,0
42,-314,0,0,0,0,0,0,0,0,0,-1,1266,1338,0,0
49,-314,0,0,0,0,0,0,0,0,0,-1,1273,1338,0,0
56,-314,0,0,0,0,0,0,0,0,0,-1,1280,1338,0,0
63,-314,0,0,0,0,0,0,0,0,0,-1,1287,1338,0,0
70,-314,0,0,0,0,0,0,0,0,0,-1,1294,1338,0,0
77,-314,0,0,0,0,0,0,0,0,0,-1,1301,1338,0,0
84,-314,0,0,0,0,0,0,0,0,0,-1,1308,1338,0,0
91,-314,0,0,0,0,0,0,0,0,0,-1,1315,1338,0,0
98,-314,0,0,0,0,0,0,0,0,0,-1,1322,1338,0,0
105,-314,0,0,0,0,0,0,0,0,0,-1,1329,1338,0,0
112,-314,0,0,0,0,0,0,0,0,0,-1,1336,1338,0,0
119,-314,0,0,0,0,0,0,0,0,0,-1,1343,1338,0,0
126,-314,0,0,0,0,0,0,0,0,0,-1,1350,1338,0,0
133,-314,0,0,0,0,0,0,0,0,0,-1,1357,1338,0,0
140,-314,0,0,0,0,0,0,0,0,0,-1,1364,1338,0,0
147,-314,0,0,0,0,0,0,0,0,0,-1,1371,1338,0,0
154,-314,0,0,0,0,0,0,0,0,0,-1,1378,1338,0,0
161,-314,0,0,0,0,0,0,0,0,0,-1,1385,1338,0,0
168,-314,0,0,0,0,0,0,0,0,0,-1,1392,1338,0,0
175,-314,0,0,0,0,0,0,0,0,0,-1,1399,1338,0,0
182,-314,0,0,0,0,0,0,0,0,0,-1,1406,1338,0,0
189,-314,0,0,0,0,0,0,0,0,0,-1,1413,1338,0,0
196,-314,0,0,0,0,0,0,0,0,0,-1,1420,1338,0,0
203,-314,0,0,0,0,0,0,0,0,0,-1,1427,1338,0,0
210,-314,0,0,0,0,0,0,0,0,0,-1,1434,1338,0,0
217,-314,0,0,0,0,0,0,0,0,0,-1,1441,1338,0,0
224,-314,0,0,0,0,0,0,0,0,0,-1,1448,1338,0,0
231,-314,0,0,0,0,0,0,0,0,0,-1,1455,1338,0,0
238,-314,0,0,0,0,0,0,0,0,0,-1,1462,1338,0,0
245,-314,0,0,0,0,0,0,0,0,0,-1,1469,1338,0,0
252,-314,0,0,0,0,0,0,0,0,0,-1,1476,1338,0,0
259,-314,0,0,0,0,0,0,0,0,0,-1,1483,1338,0,0
266,-314,0,0,0,0,0,0,0,0,0,-1,1490,1338,0,0
273,-314,0,0,0,0,0,0,0,0,0,-1,1497,1338,0,0
280,-314,0,0,0,0,0,0,0,0,0,-1,1504,1338,0,0
287,-314,0,0,0,0,0,0,0,0,0,-1,1511,1338,0,0
294,-314,0,0,0,0,0,0,0,0,0,-1,1518,1338,0,0
301,-314,0,0,0,0,0,0,0,0,0,-1,1525,1338,0,0
308,-314,0,0,0,0,0,0,0,0,0,-1,1532,1338,0,0
315,-314,0,0,0,0,0,0,0,0,0,-1,1539,1338,0,0
322,-314,0,0,0,0,0,0,0,0,0,-1,1546,1338,0,0
329,-314,0,0,0,0,0,0,0,0,0,-1,1553,1338,0,0
336,-314,0,0,0,0,0,0,0,0,0,-1,1560,1338,0,0
343,-314,0,0,0,0,0,0,0,0,0,-1,1567,1338,0,0
350,-314,0,0,0,0,0,0,0,0,0,-1,1574,1338,0,0
357,-314,0,0,0,0,0,0,0,0,0,-1,1581,1338,0,0
364,-314,0,0,0,0,0,0,0,0,0,-1,1588,1338,0,0
371,-314,0,0,0,0,0,0,0,0,0,-1,1595,1338,0,0
378,-314,0,0,0,0,0,0,0,0,0,-1,1602,1338,0,0
385,-314,0,0,0,0,0,0,0,0,0,-1,1609,1338,0,0
392,-314,0,0,0,0,0,0,0,0,0,-1,1616,1338,0,0
399,-314,0,0,0,0,0,0,0,0,0,-1,1623,1338,0,0
406,-314,0,0,0,0,0,0,0,0,0,-1,1630,1338,0,0
413,-314,0,0,0,0,0,0,0,0,0,-1,1637,1338,0,0
420,-314,0,0,0,0,0,0,0,0,0,-1,1644,1338,0,0
427,-314,0,0,0,0,0,0,0,0,0,-1,1651,1338,0,0
434,-314,0,0,0,0,0,0,0,0,0,-1,1658,1338,0,0
441,-314,0,0,0,0,0,0,0,0,0,-1,1665,1338,0,0
448,-314,0,0,0,0,0,0,0,0,0,-1,1672,1338,0,0
455,-314,0,0,0,0,0,0,0,0,0,-1,1679,1338,0,0
462,-314,0,0,0,0,0,0,0,0,0,-1,1686,1338,0,0
469,-314,0,0,0,0,0,0,0,0,0,-1,1693,1338,0,0
476,-314,0,0,0,0,0,0,0,0,0,-1,1700,1338,0,0
483,-314,0,0,0,0,0,0,0,0,0,-1,1707,1338,0,0
490,-314,0,0,0,0,0,0,0,0,0,-1,1714,1338,0,0
497,-314,0,0,0,0,0,0,0,0,0,-1,1721,1338,0,0
504,-314,0,0,0,0,0,0,0,0,0,-1,1728,1338,0,0
511,-314,0,0,0,0,0,0,0,0,0,-1,1735,1338,0,0
518,-314,0,0,0,0,0,0,0,0,0,-1,1742,1338,0,0
525,-314,0,0,0,0,0,0,0,0,0,-1,1749,1338,0,0
532,-314,0,0,0,0,0,0,0,0,0,-1,1756,1338,0,0
539,-314,0,0,0,0,0,0,0,0,0,-1,1763,1338,0,0
546,-314,0,0,0,0,0,0,0,0,0,-1,1770,1338,0,0
553,-314,0,0,0,0,0,0,0,0,0,-1,1777,1338,0,0
560,-314,0,0,0,0,0,0,0,0,0,-1,1784,1338,0,0
567,-314,0,0,0,0,0,0,0,0,0,-1,1791,1338,0,0
574,-314,0,0,0,0,0,0,0,0,0,-1,1798,1338,0,0
581,-314,0.803467,1.03735,-0.0156663,0.0280949,-0.0123109,0.0313205,-0.0188919,-1.31455,0.0292846,0.0459953,1805,1338,0.803496,-1.03737
588,-314,0.691772,0.990723,-0.0140599,0.0252993,-0.00967302,0.0275481,-0.0163087,-1.34237,0.0255964,0.0479283,1812,1338,0.691749,-0.990733
595,-314,0.425659,0.777222,-0.0124059,0.0208016,-0.00704063,0.0222326,-0.013837,-1.37027,0.021012,0.047316,1819,1338,0.425695,-0.777258
602,-314,0.287964,0.662354,0,0,0,0,0,0,0,-1,1826,1338,0.287925,-0.662323
609,-314,0.283569,0.688354,-0.00935149,0.0118786,-0.0019163,0.0120502,-0.00952308,-1.48149,0.0124838,0.041483,1833,1338,0.283606,-0.688296
616,-314,-0.640015,-1.328,-0.00835309,0.00835886,8.70323e-05,0.00835931,-0.00835354,1.56559,0.00964917,0.0453008,1840,1338,-0.640003,1.32806
623,-314,-0.693848,-1.17102,-0.00752285,0.00530033,0.0014959,0.00547252,-0.00769504,1.45619,0.00763831,0.0451876,1847,1338,-0.693878,1.171
630,-314,-0.775269,-0.937744,-0.00695889,0.00171462,0.0018312,0.00208539,-0.00732966,1.37103,0.00570995,0.0481087,1854,1338,-0.775245,0.937761
637,-314,-0.297363,-0.511475,-0.00586359,9.4818e-05,0.00301584,0.00135483,-0.0071236,1.17504,0.00525917,0.0451592,1861,1338,-0.297337,0.511466
644,-314,-0.311035,-0.443237,0,0,0,0,0,0,0,-1,1868,1338,-0.311027,0.443198
651,-314,0.0211182,0.0554199,-0.00429896,-0.00197189,0.00342021,0.000477278,-0.00674813,0.949355,0.00466599,0.0407405,1875,1338,0.0211112,-0.0553997
658,-314,-0.0214844,0.0866699,-0.00380792,-0.00224918,0.00329189,0.000354338,-0.00641144,0.901635,0.00439717,0.0213515,1882,1338,-0.0215055,-0.0867239
665,-314,-0.0395508,0.0838623,-0.00342899,-0.00289653,0.00288824,-0.000262273,-0.00606325,0.831357,0.00395764,0.0105809,1889,1338,-0.0395383,-0.0838903
672,-314,-0.0219727,0.0849609,-0.00317176,-0.00288709,0.00188946,-0.00113461,-0.00492424,0.822993,0.00297758,0.0109951,1896,1338,-0.0219771,-0.0849144
679,-314,-0.0358887,0.0751953,-0.0024394,-0.00259695,0.00114978,-0.00136569,-0.00367065,0.751195,0.00214225,0.00928466,1903,1338,-0.0358793,-0.0751607
686,-314,-0.0546875,0.0668945,-0.00158364,-0.00142732,0.00148062,-2.27971e-05,-0.00298817,0.811768,0.00198456,0.011184,1910,1338,-0.054715,-0.0668712
693,-314,-0.0634766,0.0633545,-0.00118407,-0.000377945,0.00129338,0.000573723,-0.00213573,0.936446,0.00164868,0.0108598,1917,1338,-0.0634446,-0.0633931
700,-314,-0.0588379,0.0690918,-0.000526379,0.000196305,0.00121173,0.00109942,-0.00142949,0.930302,0.00146421,0.0107843,1924,1338,-0.0588253,-0.0690998
707,-314,-0.0604248,0.0738525,0.000227562,0.000831842,0.00146554,0.00202606,-0.000966657,0.887056,0.00176356,0.0112867,1931,1338,-0.0604838,-0.0739093
714,-314,-0.0494385,0.0772705,0.00131461,0.00189754,0.00189332,0.0035217,-0.000309545,0.86177,0.00245749,0.0103806,1938,1338,-0.0494617,-0.077224
721,-314,-0.0510254,0.0831299,0.00281492,0.00285532,0.00231966,0.00515487,0.000515367,0.789752,0.00327832,0.0129702,1945,1338,-0.0510087,-0.0831462
728,-314,-0.0410156,0.0915527,0.00436238,0.00432349,0.00295735,0.00730035,0.00138552,0.78211,0.0044771,0.0206664,1952,1338,-0.0409875,-0.0914971
735,-314,-0.27356,-0.164063,0.00638247,0.00632219,0.00367453,0.010027,0.00267768,0.781297,0.00599486,0.0348903,1959,1338,-0.273578,0.164105
742,-314,-0.27771,-0.388428,0.00905091,0.00891705,0.00445438,0.0134389,0.00452909,0.777885,0.00789514,0.0421354,1966,1338,-0.277714,0.388444
749,-314,-0.0633545,-0.447388,0.0125045,0.01217,0.00526444,0.0176044,0.00707016,0.769518,0.0102293,0.0414185,1973,1338,-0.0633174,0.447348
756,-314,-0.320557,-0.926392,0,0,0,0,0,0,0,-1,1980,1338,-0.320521,0.926385
763,-314,-0.2948,-0.756226,0,0,0,0,0,0,0,-1,1987,1338,-0.294789,0.75622
770,-314,0,0,0,0,0,0,0,0,0,-1,1994,1338,0,0
777,-314,0,0,0,0,0,0,0,0,0,-1,2001,1338,0,0
784,-314,0,0,0,0,0,0,0,0,0,-1,2008,1338,0,0
791,-314,0,0,0,0,0,0,0,0,0,-1,2015,1338,0,0
798,-314,0,0,0,0,0,0,0,0,0,-1,2022,1338,0,0
805,-314,0,0,0,0,0,0,0,0,0,-1,2029,1338,0,0
812,-314,0,0,0,0,0,0,0,0,0,-1,2036,1338,0,0
-700,-321,0,0,0,0,0,0,0,0,0,-1,524,1345,0,0
-693,-321,0,0,0,0,0,0,0,0,0,-1,531,1345,0,0
-686,-321,0,0,0,0,0,0,0,0,0,-1,538,1345,0,0
-679,-321,0,0,0,0,0,0,0,0,0,-1,545,1345,0,0
-672,-321,0,0,0,0,0,0,0,0,0,-1,552,1345,0,0
-665,-321,0,0,0,0,0,0,0,0,0,-1,559,1345,0,0
-658,-321,0,0,0,0,0,0,0,0,0,-1,566,1345,0,0
-651,-321,0,0,0,0,0,0,0,0,0,-1,573,1345,0,0
-644,-321,-0.237183,-0.447876,-0.0606503,0.0423103,-0.0223134,0.046938,-0.065278,-1.3663,0.0650757,0.045764,580,1345,-0.237174,0.447894
-637,-321,-0.579346,-0.670044,-0.0452853,0.032861,-0.0149972,0.0356403,-0.0480646,-1.38755,0.0485042,0.0473687,587,1345,-0.579319,0.670015
-630,-321,-1.13055,-1.00037,-0.0317438,0.0257027,-0.00894469,0.0270632,-0.0331043,-1.41985,0.0347961,0.0480007,594,1345,-1.13058,1.00035
-623,-321,0.65802,-0.401001,0,0,0,0,0,0,0,-1,601,1345,0.658002,0.400959
-616,-321,0.357727,0.0913086,0,0,0,0,0,0,0,-1,608,1345,0.357701,-0.0913234
-609,-321,0.246094,-0.275146,-0.00435593,0.0115485,0.00197495,0.0117901,-0.0045975,1.44908,0.00976044,0.0476977,615,1345,0.246111,0.275091
-602,-321,0.192566,-0.635742,0.000689535,0.0085812,0.00370586,0.0100486,-0.000777854,1.19377,0.00697282,0.0438987,622,1345,0.192571,0.635802
-595,-321,0.348145,-0.823608,0,0,0,0,0,0,0,-1,629,1345,0.348131,0.823636
-588,-321,-0.0386963,0.0670166,0.00632742,0.00380322,0.00535959,0.0105715,-0.000440864,0.669762,0.00719913,0.0122444,636,1345,-0.0386957,-0.0669688
-581,-321,-0.031311,0.0570068,0.00796645,0.00264363,0.00540917,0.0113335,-0.00072341,0.556778,0.00780798,0.0114538,643,1345,-0.0313019,-0.0570005
-574,-321,-0.0406494,0.0593262,0.00764439,0.00180255,0.00424281,0.00987451,-0.000427567,0.483935,0.00673006,0.0141219,650,1345,-0.0406328,-0.059348
-567,-321,-0.0305786,0.0782471,0.00632346,0.00148606,0.00299849,0.00775717,5.23489e-05,0.44601,0.00515409,0.0198798,657,1345,-0.0305791,-0.0782838
-560,-321,-0.0344238,0.0679932,0.00501363,0.00132037,0.00210349,0.00596606,0.000367943,0.425167,0.00386057,0.0240573,664,1345,-0.034449,-0.0679585
-553,-321,-0.0830688,0.0941162,0.00387723,0.00117102,0.001429,0.00449211,0.000556146,0.406336,0.00282765,0.0251696,671,1345,-0.0830575,-0.0941679
-546,-321,-0.0616455,0.0517578,0.00318242,0.000600048,0.000874005,0.00345041,0.000332052,0.297527,0.00219797,0.0250222,678,1345,-0.0616679,-0.0518086
-539,-321,-0.0234375,0.0369873,0.00284934,-0.000304727,0.000693201,0.00299497,-0.000450355,0.207069,0.00216245,0.0228893,685,1345,-0.0234511,-0.0370175
-532,-321,-0.0317383,0.0476074,0.00274376,-0.00139832,0.000731305,0.00286909,-0.00152364,0.169721,0.00257549,0.014534,692,1345,-0.0317362,-0.0476519
-525,-321,-0.0374146,0.0494385,0.00304625,-0.00244466,0.00109242,0.0032556,-0.00265401,0.189348,0.00341781,0.0193091,699,1345,-0.0373896,-0.0494076
-518,-321,-0.0151367,0.00793457,0.00325114,-0.00335999,0.00127571,0.00348877,-0.00359761,0.184158,0.00409148,0.0319956,706,1345,-0.015107,-0.00790449
-511,-321,0.0135498,-0.0471191,0.00286442,-0.0039495,0.0014833,0.00317331,-0.0042584,0.205312,0.00430592,0.0398506,713,1345,0.0135403,0.0471298
-504,-321,-0.0654297,-0.223389,0.00200456,-0.00397218,0.00181148,0.00251073,-0.00447835,0.272474,0.0040881,0.0476199,720,1345,-0.0654302,0.223355
-497,-321,-0.266296,0.0740967,0.00057512,-0.00301224,0.0019177,0.00140725,-0.00384437,0.409401,0.00313897,0.0477156,727,1345,-0.26628,-0.074042
-490,-321,-0.278992,0.543701,-0.00116073,-0.00157763,0.00161008,0.000254341,-0.0029927,0.721024,0.00208509,0.0436766,734,1345,-0.279019,-0.543681
-483,-321,-0.242554,0.532227,-0.0037575,0.00137805,0.000898533,0.00153072,-0.00391017,1.40249,0.00323988,0.046711,741,1345,-0.24257,-0.532225
-476,-321,-0.238647,0.495728,-0.00738057,0.00632827,-0.000229537,0.00633211,-0.00738441,-1.55406,0.00792701,0.0459612,748,1345,-0.238677,-0.495753
-469,-321,-0.322937,0.292969,-0.0120007,0.0137705,-0.00192596,0.0139137,-0.0121438,-1.49661,0.0150559,0.0421385,755,1345,-0.322945,-0.292945
-462,-321,-0.257751,-0.200806,-0.0174673,0.024291,-0.00427884,0.0247249,-0.0179013,-1.46973,0.0247151,0.0437104,762,1345,-0.257761,0.200815
-455,-321,0,0,0,0,0,0,0,0,0,-1,769,1345,0,0
-448,-321,0,0,0,0,0,0,0,0,0,-1,776,1345,0,0
-441,-321,0,0,0,0,0,0,0,0,0,-1,783,1345,0,0
-434,-321,0,0,0,0,0,0,0,0,0,-1,790,1345,0,0
-427,-321,0,0,0,0,0,0,0,0,0,-1,797,1345,0,0
-420,-321,0,0,0,0,0,0,0,0,0,-1,804,1345,0,0
-413,-321,0,0,0,0,0,0,0,0,0,-1,811,1345,0,0
-406,-321,0,0,0,0,0,0,0,0,0,-1,818,1345,0,0
-399,-321,0,0,0,0,0,0,0,0,0,-1,825,1345,0,0
-392,-321,0,0,0,0,0,0,0,0,0,-1,832,1345,0,0
-385,-321,0,0,0,0,0,0,0,0,0,-1,839,1345,0,0
-378,-321,0,0,0,0,0,0,0,0,0,-1,846,1345,0,0
-371,-321,0,0,0,0,0,0,0,0,0,-1,853,1345,0,0
-364,-321,0,0,0,0,0,0,0,0,0,-1,860,1345,0,0
-357,-321,0,0,0,0,0,0,0,0,0,-1,867,1345,0,0
-350,-321,0,0,0,0,0,0,0,0,0,-1,874,1345,0,0
-343,-321,0,0,0,0,0,0,0,0,0,-1,881,1345,0,0
-336,-321,0,0,0,0,0,0,0,0,0,-1,888,1345,0,0
-329,-321,0,0,0,0,0,0,0,0,0,-1,895,1345,0,0
-322,-321,0,0,0,0,0,0,0,0,0,-1,902,1345,0,0
-315,-321,0,0,0,0,0,0,0,0,0,-1,909,1345,0,0
-308,-321,0,0,0,0,0,0,0,0,0,-1,916,1345,0,0
-301,-321,0,0,0,0,0,0,0,0,0,-1,923,1345,0,0
-294,-321,0,0,0,0,0,0,0,0,0,-1,930,1345,0,0
-287,-321,0,0,0,0,0,0,0,0,0,-1,937,1345,0,0
-280,-321,0,0,0,0,0,0,0,0,0,-1,944,1345,0,0
-273,-321,0,0,0,0,0,0,0,0,0,-1,951,1345,0,0
-266,-321,0,0,0,0,0,0,0,0,0,-1,958,1345,0,0
-259,-321,0,0,0,0,0,0,0,0,0,-1,965,1345,0,0
-252,-321,0,0,0,0,0,0,0,0,0,-1,972,1345,0,0
-245,-321,0,0,0,0,0,0,0,0,0,-1,979,1345,0,0
-238,-321,0,0,0,0,0,0,0,0,0,-1,986,1345,0,0
-231,-321,0,0,0,0,0,0,0,0,0,-1,993,1345,0,0
-224,-321,0,0,0,0,0,0,0,0,0,-1,1000,1345,0,0
-217,-321,0,0,0,0,0,0,0,0,0,-1,1007,1345,0,0
-210,-321,0,0,0,0,0,0,0,0,0,-1,1014,1345,0,0
-203,-321,0,0,0,0,0,0,0,0,0,-1,1021,1345,0,0
-196,-321,0,0,0,0,0,0,0,0,0,-1,1028,1345,0,0
-189,-321,0,0,0,0,0,0,0,0,0,-1,1035,1345,0,0
-182,-321,0,0,0,0,0,0,0,0,0,-1,1042,1345,0,0
-175,-321,0,0,0,0,0,0,0,0,0,-1,1049,1345,0,0
-168,-321,0,0,0,0,0,0,0,0,0,-1,1056,1345,0,0
-161,-321,0,0,0,0,0,0,0,0,0,-1,1063,1345,0,0
-154,-321,0,0,0,0,0,0,0,0,0,-1,1070,1345,0,0
-147,-321,0,0,0,0,0,0,0,0,0,-1,1077,1345,0,0
-140,-321,0,0,0,0,0,0,0,0,0,-1,1084,1345,0,0
-133,-321,0,0,0,0,0,0,0,0,0,-1,1091,1345,0,0
-126,-321,0,0,0,0,0,0,0,0,0,-1,1098,1345,0,0
-119,-321,0,0,0,0,0,0,0,0,0,-1,1105,1345,0,0
-112,-321,0,0,0,0,0,0,0,0,0,-1,1112,1345,0,0
-105,-321,0,0,0,0,0,0,0,0,0,-1,1119,1345,0,0
-98,-321,0,0,0,0,0,0,0,0,0,-1,1126,1345,0,0
-91,-321,0,0,0,0,0,0,0,0,0,-1,1133,1345,0,0
-84,-321,0,0,0,0,0,0,0,0,0,-1,1140,1345,0,0
-77,-321,0,0,0,0,0,0,0,0,0,-1,1147,1345,0,0
-70,-321,0,0,0,0,0,0,0,0,0,-1,1154,1345,0,0
-63,-321,0,0,0,0,0,0,0,0,0,-1,1161,1345,0,0
-56,-321,0,0,0,0,0,0,0,0,0,-1,1168,1345,0,0
-49,-321,0,0,0,0,0,0,0,0,0,-1,1175,1345,0,0
-42,-321,0,0,0,0,0,0,0,0,0,-1,1182,1345,0,0
-35,-321,0,0,0,0,0,0,0,0,0,-1,1189,1345,0,0
-28,-321,0,0,0,0,0,0,0,0,0,-1,1196,1345,0,0
-21,-321,0,0,0,0,0,0,0,0,0,-1,1203,1345,0,0
-14,-321,0,0,0,0,0,0,0,0,0,-1,1210,1345,0,0
-7,-321,0,0,0,0,0,0,0,0,0,-1,1217,1345,0,0
0,-321,0,0,0,0,0,0,0,0,0,-1,1224,1345,0,0
7,-321,0,0,0,0,0,0,0,0,0,-1,1231,1345,0,0
14,-321,0,0,0,0,0,0,0,0,0,-1,1238,1345,0,0
21,-321,0,0,0,0,0,0,0,0,0,-1,1245,1345,0,0
28,-321,0,0,0,0,0,0,0,0,0,-1,1252,1345,0,0
35,-321,0,0,0,0,0,0,0,0,0,-1,1259,1345,0,0
42,-321,0,0,0,0,0,0,0,0,0,-1,1266,1345,0,0
49,-321,0,0,0,0,0,0,0,0,0,-1,1273,1345,0,0
56,-321,0,0,0,0,0,0,0,0,0,-1,1280,1345,0,0
63,-321,0,0,0,0,0,0,0,0,0,-1,1287,1345,0,0
70,-321,0,0,0,0,0,0,0,0,0,-1,1294,1345,0,0
77,-321,0,0,0,0,0,0,0,0,0,-1,1301,1345,0,0
84,-321,0,0,0,0,0,0,0,0,0,-1,1308,1345,0,0
91,-321,0,0,0,0,0,0,0,0,0,-1,1315,1345,0,0
98,-321,0,0,0,0,0,0,0,0,0,-1,1322,1345,0,0
105,-321,0,0,0,0,0,0,0,0,0,-1,1329,1345,0,0
112,-321,0,0,0,0,0,0,0,0,0,-1,1336,1345,0,0
119,-321,0,0,0,0,0,0,0,0,0,-1,1343,1345,0,0
126,-321,0,0,0,0,0,0,0,0,0,-1,1350,1345,0,0
133,-321,0,0,0,0,0,0,0,0,0,-1,1357,1345,0,0
140,-321,0,0,0,0,0,0,0,0,0,-1,1364,1345,0,0
147,-321,0,0,0,0,0,0,0,0,0,-1,1371,1345,0,0
154,-321,0,0,0,0,0,0,0,0,0,-1,1378,1345,0,0
161,-321,0,0,0,0,0,0,0,0,0,-1,1385,1345,0,0
168,-321,0,0,0,0,0,0,0,0,0,-1,1392,1345,0,0
175,-321,0,0,0,0,0,0,0,0,0,-1,1399,1345,0,0
182,-321,0,0,0,0,0,0,0,0,0,-1,1406,1345,0,0
189,-321,0,0,0,0,0,0,0,0,0,-1,1413,1345,0,0
196,-321,0,0,0,0,0,0,0,0,0,-1,1420,1345,0,0
203,-321,0,0,0,0,0,0,0,0,0,-1,1427,1345,0,0
210,-321,0,0,0,0,0,0,0,0,0,-1,1434,1345,0,0
217,-321,0,0,0,0,0,0,0,0,0,-1,1441,1345,0,0
224,-321,0,0,0,0,0,0,0,0,0,-1,1448,1345,0,0
231,-321,0,0,0,0,0,0,0,0,0,-1,1455,1345,0,0
238,-321,0,0,0,0,0,0,0,0,0,-1,1462,1345,0,0
245,-321,0,0,0,0,0,0,0,0,0,-1,1469,1345,0,0
252,-321,0,0,0,0,0,0,0,0,0,-1,1476,1345,0,0
259,-321,0,0,0,0,0,0,0,0,0,-1,1483,1345,0,0
266,-321,0,0,0,0,0,0,0,0,0,-1,1490,1345,0,0
273,-321,0,0,0,0,0,0,0,0,0,-1,1497,1345,0,0
280,-321,0,0,0,0,0,0,0,0,0,-1,1504,1345,0,0
287,-321,0,0,0,0,0,0,0,0,0,-1,1511,1345,0,0
294,-321,0,0,0,0,0,0,0,0,0,-1,1518,1345,0,0
301,-321,0,0,0,0,0,0,0,0,0,-1,1525,1345,0,0
308,-321,0,0,0,0,0,0,0,0,0,-1,1532,1345,0,0
315,-321,0,0,0,0,0,0,0,0,0,-1,1539,1345,0,0
322,-321,0,0,0,0,0,0,0,0,0,-1,1546,1345,0,0
329,-321,0,0,0,0,0,0,0,0,0,-1,1553,1345,0,0
336,-321,0,0,0,0,0,0,0,0,0,-1,1560,1345,0,0
343,-321,0,0,0,0,0,0,0,0,0,-1,1567,1345,0,0
350,-321,0,0,0,0,0,0,0,0,0,-1,1574,1345,0,0
357,-321,0,0,0,0,0,0,0,0,0,-1,1581,1345,0,0
364,-321,0,0,0,0,0,0,0,0,0,-1,1588,1345,0,0
371,-321,0,0,0,0,0,0,0,0,0,-1,1595,1345,0,0
378,-321,0,0,0,0,0,0,0,0,0,-1,1602,1345,0,0
385,-321,0,0,0,0,0,0,0,0,0,-1,1609,1345,0,0
392,-321,0,0,0,0,0,0,0,0,0,-1,1616,1345,0,0
399,-321,0,0,0,0,0,0,0,0,0,-1,1623,1345,0,0
406,-321,0,0,0,0,0,0,0,0,0,-1,1630,1345,0,0
413,-321,0,0,0,0,0,0,0,0,0,-1,1637,1345,0,0
420,-321,0,0,0,0,0,0,0,0,0,-1,1644,1345,0,0
427,-321,0,0,0,0,0,0,0,0,0,-1,1651,1345,0,0
434,-321,0,0,0,0,0,0,0,0,0,-1,1658,1345,0,0
441,-321,0,0,0,0,0,0,0,0,0,-1,1665,1345,0,0
448,-321,0,0,0,0,0,0,0,0,0,-1,1672,1345,0,0
455,-321,0,0,0,0,0,0,0,0,0,-1,1679,1345,0,0
462,-321,0,0,0,0,0,0,0,0,0,-1,1686,1345,0,0
469,-321,0,0,0,0,0,0,0,0,0,-1,1693,1345,0,0
476,-321,0,0,0,0,0,0,0,0,0,-1,1700,1345,0,0
483,-321,0,0,0,0,0,0,0,0,0,-1,1707,1345,0,0
490,-321,0,0,0,0,0,0,0,0,0,-1,1714,1345,0,0
497,-321,0,0,0,0,0,0,0,0,0,-1,1721,1345,0,0
504,-321,0,0,0,0,0,0,0,0,0,-1,1728,1345,0,0
511,-321,0,0,0,0,0,0,0,0,0,-1,1735,1345,0,0
518,-321,0,0,0,0,0,0,0,0,0,-1,1742,1345,0,0
525,-321,0,0,0,0,0,0,0,0,0,-1,1749,1345,0,0
532,-321,0,0,0,0,0,0,0,0,0,-1,1756,1345,0,0
539,-321,0,0,0,0,0,0,0,0,0,-1,1763,1345,0,0
546,-321,0,0,0,0,0,0,0,0,0,-1,1770,1345,0,0
553,-321,0,0,0,0,0,0,0,0,0,-1,1777,1345,0,0
560,-321,0,0,0,0,0,0,0,0,0,-1,1784,1345,0,0
567,-321,0,0,0,0,0,0,0,0,0,-1,1791,1345,0,0
574,-321,0,0,0,0,0,0,0,0,0,-1,1798,1345,0,0
581,-321,1.09875,1.39001,-0.0139908,0.0300293,-0.010868,0.0325663,-0.0165278,-1.34147,0.0288442,0.0444912,1805,1345,1.09881,-1.38996
588,-321,0.52832,0.809326,-0.012445,0.0254911,-0.00852976,0.0273207,-0.0142747,-1.3595,0.0244057,0.0466301,1812,1345,0.528352,-0.809377
595,-321,0.444946,0.64856,-0.0107115,0.0199821,-0.00606837,0.0211383,-0.0118677,-1.38252,0.019305,0.0479194,1819,1345,0.444952,-0.648607
602,-321,0.413574,0.565674,-0.00887456,0.0148183,-0.00355415,0.0153399,-0.00939624,-1.42506,0.0144182,0.0426779,1826,1345,0.413558,-0.565658
609,-321,0.416138,0.401978,-0.00730916,0.0102726,-0.00121261,0.0103558,-0.0073924,-1.50226,0.0102944,0.0436846,1833,1345,0.416118,-0.402035
616,-321,0.840942,-1.55884,0,0,0,0,0,0,0,-1,1840,1345,0.840934,1.55889
623,-321,-0.918579,-1.56763,0,0,0,0,0,0,0,-1,1847,1345,-0.918547,1.56758
630,-321,-0.994507,-1.11804,0,0,0,0,0,0,0,-1,1854,1345,-0.994487,1.1181
637,-321,-0.306519,-0.481812,0,0,0,0,0,0,0,-1,1861,1345,-0.306483,0.481768
644,-321,-0.312988,-0.602417,-0.00241807,-0.00287728,0.00393572,0.00129473,-0.00659009,0.756262,0.00488253,0.0414836,1868,1345,-0.312949,0.602373
651,-321,0.00183105,-0.0032959,-0.00175624,-0.00348715,0.00385604,0.00133027,-0.00657366,0.675007,0.0048866,0.0369894,1875,1345,0.00188679,0.00325611
658,-321,-0.0255127,0.0614014,-0.00145998,-0.00348204,0.00365444,0.0013207,-0.00626273,0.650445,0.00467795,0.0174141,1882,1345,-0.0255132,-0.0613483
665,-321,-0.0422363,0.0755615,-0.00141088,-0.0038753,0.00315612,0.000745046,-0.00603122,0.599288,0.00429078,0.0138824,1889,1345,-0.0422745,-0.0756095
672,-321,-0.0357666,0.0751953,-0.00150614,-0.00358552,0.0020611,-0.000237351,-0.00485431,0.551803,0.00316006,0.0116483,1896,1345,-0.0358227,-0.0751725
679,-321,-0.048584,0.0704346,-0.00116259,-0.00312095,0.00128115,-0.00052927,-0.00375427,0.459104,0.0023464,0.0104023,1903,1345,-0.0485594,-0.0704799
686,-321,-0.0665283,0.0704346,-0.000724536,-0.00177731,0.00160466,0.00043787,-0.00293971,0.626911,0.00212089,0.0110045,1910,1345,-0.0665788,-0.0704297
693,-321,-0.0684814,0.0769043,-0.000667851,-0.000671739,0.00141396,0.000744168,-0.00208376,0.784711,0.00169266,0.0106355,1917,1345,-0.0685095,-0.0768821
700,-321,-0.0509033,0.0578613,-0.000218134,-0.000144036,0.00131328,0.00113272,-0.00149489,0.7995,0.00152184,0.0103245,1924,1345,-0.0509016,-0.0579098
707,-321,-0.0334473,0.057251,0.0004583,0.000435395,0.00157226,0.00201915,-0.00112545,0.781756,0.00183981,0.0122478,1931,1345,-0.0334237,-0.0572932
714,-321,-0.041626,0.0611572,0.00141706,0.00132506,0.00198164,0.00335323,-0.000611105,0.773794,0.00246458,0.0116639,1938,1345,-0.0416508,-0.0611687
721,-321,-0.0761719,0.0610352,0.00278319,0.00215011,0.00238117,0.00486877,6.45311e-05,0.719318,0.00322455,0.0137558,1945,1345,-0.0762207,-0.0610327
728,-321,-0.00830078,0.141968,0.00433782,0.0033918,0.00296516,0.00686747,0.000862158,0.706303,0.0043197,0.0237759,1952,1345,-0.0083096,-0.142
735,-321,-0.69104,-0.755737,0,0,0,0,0,0,0,-1,1959,1345,-0.691019,0.755774
742,-321,-0.434082,-0.676147,0.00920951,0.00726744,0.00420828,0.0125573,0.00391961,0.67201,0.0074186,0.0462566,1966,1345,-0.434131,0.676188
749,-321,-0.284424,-0.585815,0.0128066,0.0100226,0.00478324,0.0163963,0.0064329,0.6438,0.00953925,0.0449249,1973,1345,-0.284374,0.585861
756,-321,-0.580811,-1.44067,0,0,0,0,0,0,0,-1,1980,1345,-0.580811,1.44069
763,-321,-0.360474,-1.24597,0,0,0,0,0,0,0,-1,1987,1345,-0.360521,1.24593
770,-321,0,0,0,0,0,0,0,0,0,-1,1994,1345,0,0
777,-321,0,0,0,0,0,0,0,0,0,-1,2001,1345,0,0
784,-321,0,0,0,0,0,0,0,0,0,-1,2008,1345,0,0
791,-321,0,0,0,0,0,0,0,0,0,-1,2015,1345,0,0
798,-321,0,0,0,0,0,0,0,0,0,-1,2022,1345,0,0
805,-321,0,0,0,0,0,0,0,0,0,-1,2029,1345,0,0
812,-321,0,0,0,0,0,0,0,0,0,-1,2036,1345,0,0
-700,-328,0,0,0,0,0,0,0,0,0,-1,524,1352,0,0
-693,-328,0,0,0,0,0,0,0,0,0,-1,531,1352,0,0
-686,-328,0,0,0,0,0,0,0,0,0,-1,538,1352,0,0
-679,-328,0,0,0,0,0,0,0,0,0,-1,545,1352,0,0
-672,-328,0,0,0,0,0,0,0,0,0,-1,552,1352,0,0
-665,-328,0,0,0,0,0,0,0,0,0,-1,559,1352,0,0
-658,-328,0,0,0,0,0,0,0,0,0,-1,566,1352,0,0
-651,-328,0,0,0,0,0,0,0,0,0,-1,573,1352,0,0
-644,-328,0,0,0,0,0,0,0,0,0,-1,580,1352,0,0
-637,-328,-0.75531,-0.868896,-0.0477708,0.0335874,-0.0152825,0.0363634,-0.0505468,-1.39111,0.0503999,0.0480308,587,1352,-0.755336,0.868929
-630,-328,-1.41803,-1.29004,-0.0329623,0.0266388,-0.00861015,0.0278577,-0.0341812,-1.43016,0.0358802,0.0492679,594,1352,-1.418,1.29003
-623,-328,-0.580444,1.18323,0,0,0,0,0,0,0,-1,601,1352,-0.580445,-1.18324
-616,-328,-0.223633,0.524048,-0.0110125,0.016333,0.000272121,0.0163357,-0.0110152,1.56085,0.0158904,0.0471039,608,1352,-0.223654,-0.524077
-609,-328,0.159119,-0.215576,-0.00345163,0.0125114,0.00314832,0.0131099,-0.00405012,1.38294,0.0103574,0.047503,615,1352,0.159121,0.21553
-602,-328,0.432861,-0.885864,0.00198422,0.00945043,0.00503689,0.0119868,-0.000552152,1.10431,0.00818146,0.0482549,622,1352,0.43289,0.885845
-595,-328,-0.24176,0.198853,0.00567953,0.00669882,0.00630363,0.0125134,-0.000135021,0.825735,0.00838762,0.0406451,629,1352,-0.241764,-0.198847
-588,-328,-0.0325317,0.0577393,0.00787815,0.00449944,0.0067059,0.0131042,-0.00072662,0.662005,0.00898814,0.0232802,636,1352,-0.0325125,-0.0577802
-581,-328,-0.0229492,0.0614014,0.00956647,0.00322101,0.00676211,0.0138632,-0.00107569,0.566049,0.00962074,0.0120596,643,1352,-0.0229476,-0.0614074
-574,-328,-0.024292,0.0548096,0.00901622,0.00218958,0.00552101,0.0120938,-0.000888034,0.508536,0.00837428,0.0138629,650,1352,-0.0242701,-0.0548305
-567,-328,-0.0453491,0.0646973,0.00728211,0.00167163,0.00415359,0.00948903,-0.00053528,0.488394,0.00651178,0.0183128,657,1352,-0.0453749,-0.0647136
-560,-328,-0.0342407,0.0999756,0.00560613,0.00116769,0.00314353,0.00723486,-0.00046104,0.478039,0.00498403,0.0252047,664,1352,-0.0342391,-0.0999705
-553,-328,-0.0472412,0.120239,0.00411516,0.000738699,0.00236442,0.0053322,-0.000478341,0.475363,0.0037245,0.0251379,671,1352,-0.0472634,-0.120253
-546,-328,-0.0579834,0.0726318,0.00307453,-2.9131e-05,0.00170162,0.00382567,-0.000780275,0.415703,0.00284642,0.0241479,678,1352,-0.0579907,-0.0726037
-539,-328,-0.0286865,0.0477295,0.0023779,-0.00116273,0.00141845,0.00287607,-0.0016609,0.33775,0.00265055,0.0221156,685,1352,-0.0286844,-0.0477503
-532,-328,-0.020813,0.0427246,0.00189883,-0.00246941,0.0013287,0.00227124,-0.00284181,0.273267,0.00295814,0.0154029,692,1352,-0.0208241,-0.0427366
-525,-328,-0.0227661,0.0412598,0.00186758,-0.00362324,0.00159038,0.00229496,-0.00405062,0.262525,0.00371007,0.00971269,699,1352,-0.0227548,-0.0412756
-518,-328,-0.0153809,0.0279541,0.00183845,-0.0045903,0.00172168,0.0022705,-0.00502235,0.245868,0.00430929,0.0211436,706,1352,-0.0153563,-0.0280024
-511,-328,-0.00396729,-0.0197754,0.00102531,-0.00510434,0.00189959,0.00156625,-0.00564529,0.277427,0.00437997,0.0344365,713,1352,-0.00395822,0.0198226
-504,-328,-0.233154,0.0393066,-0.000401922,-0.00484749,0.00221106,0.000510504,-0.00575992,0.391376,0.00402093,0.0427053,720,1352,-0.233141,-0.0392901
-497,-328,-0.374817,0.302368,-0.00244526,-0.00346289,0.00234672,-0.000552828,-0.00535533,0.678641,0.00340096,0.0448436,727,1352,-0.374825,-0.302425
-490,-328,-0.25824,0.619141,-0.00487988,-0.001596,0.00211901,-0.000557236,-0.00591864,1.11501,0.00377375,0.0446574,734,1352,-0.258258,-0.619192
-483,-328,-0.19751,0.673706,0,0,0,0,0,0,0,-1,741,1352,-0.197479,-0.673672
-476,-328,0.0690918,0.489746,0,0,0,0,0,0,0,-1,748,1352,0.0691199,-0.489769
-469,-328,0.00775146,-0.0129395,-0.0184206,0.014564,-0.000329157,0.0145673,-0.0184239,-1.56082,0.0190908,0.0477729,755,1352,0.00774527,0.0129423
-462,-328,-0.304443,-0.536377,-0.0251347,0.0248813,-0.00189009,0.0249526,-0.025206,-1.53308,0.0289592,0.0438948,762,1352,-0.304462,0.536348
-455,-328,0,0,0,0,0,0,0,0,0,-1,769,1352,0,0
-448,-328,0,0,0,0,0,0,0,0,0,-1,776,1352,0,0
-441,-328,0,0,0,0,0,0,0,0,0,-1,783,1352,0,0
-434,-328,0,0,0,0,0,0,0,0,0,-1,790,1352,0,0
-427,-328,0,0,0,0,0,0,0,0,0,-1,797,1352,0,0
-420,-328,0,0,0,0,0,0,0,0,0,-1,804,1352,0,0
-413,-328,0,0,0,0,0,0,0,0,0,-1,811,1352,0,0
-406,-328,0,0,0,0,0,0,0,0,0,-1,818,1352,0,0
-399,-328,0,0,0,0,0,0,0,0,0,-1,825,1352,0,0
-392,-328,0,0,0,0,0,0,0,0,0,-1,832,1352,0,0
-385,-328,0,0,0,0,0,0,0,0,0,-1,839,1352,0,0
-378,-328,0,0,0,0,0,0,0,0,0,-1,846,1352,0,0
-371,-328,0,0,0,0,0,0,0,0,0,-1,853,1352,0,0
-364,-328,0,0,0,0,0,0,0,0,0,-1,860,1352,0,0
-357,-328,0,0,0,0,0,0,0,0,0,-1,867,1352,0,0
-350,-328,0,0,0,0,0,0,0,0,0,-1,874,1352,0,0
-343,-328,0,0,0,0,0,0,0,0,0,-1,881,1352,0,0
-336,-328,0,0,0,0,0,0,0,0,0,-1,888,1352,0,0
-329,-328,0,0,0,0,0,0,0,0,0,-1,895,1352,0,0
-322,-328,0,0,0,0,0,0,0,0,0,-1,902,1352,0,0
-315,-328,0,0,0,0,0,0,0,0,0,-1,909,1352,0,0
-308,-328,0,0,0,0,0,0,0,0,0,-1,916,1352,0,0
-301,-328,0,0,0,0,0,0,0,0,0,-1,923,1352,0,0
-294,-328,0,0,0,0,0,0,0,0,0,-1,930,1352,0,0
-287,-328,0,0,0,0,0,0,0,0,0,-1,937,1352,0,0
-280,-328,0,0,0,0,0,0,0,0,0,-1,944,1352,0,0
-273,-328,0,0,0,0,0,0,0,0,0,-1,951,1352,0,0
-266,-328,0,0,0,0,0,0,0,0,0,-1,958,1352,0,0
-259,-328,0,0,0,0,0,0,0,0,0,-1,965,1352,0,0
-252,-328,0,0,0,0,0,0,0,0,0,-1,972,1352,0,0
-245,-328,0,0,0,0,0,0,0,0,0,-1,979,1352,0,0
-238,-328,0,0,0,0,0,0,0,0,0,-1,986,1352,0,0
-231,-328,0,0,0,0,0,0,0,0,0,-1,993,1352,0,0
-224,-328,0,0,0,0,0,0,0,0,0,-1,1000,1352,0,0
-217,-328,0,0,0,0,0,0,0,0,0,-1,1007,1352,0,0
-210,-328,0,0,0,0,0,0,0,0,0,-1,1014,1352,0,0
-203,-328,0,0,0,0,0,0,0,0,0,-1,1021,1352,0,0
-196,-328,0,0,0,0,0,0,0,0,0,-1,1028,1352,0,0
-189,-328,0,0,0,0,0,0,0,0,0,-1,1035,1352,0,0
-182,-328,0,0,0,0,0,0,0,0,0,-1,1042,1352,0,0
-175,-328,0,0,0,0,0,0,0,0,0,-1,1049,1352,0,0
-168,-328,0,0,0,0,0,0,0,0,0,-1,1056,1352,0,0
-161,-328,0,0,0,0,0,0,0,0,0,-1,1063,1352,0,0
-154,-328,0,0,0,0,0,0,0,0,0,-1,1070,1352,0,0
-147,-328,0,0,0,0,0,0,0,0,0,-1,1077,1352,0,0
-140,-328,0,0,0,0,0,0,0,0,0,-1,1084,1352,0,0
-133,-328,0,0,0,0,0,0,0,0,0,-1,1091,1352,0,0
-126,-328,0,0,0,0,0,0,0,0,0,-1,1098,1352,0,0
-119,-328,0,0,0,0,0,0,0,0,0,-1,1105,1352,0,0
-112,-328,0,0,0,0,0,0,0,0,0,-1,1112,1352,0,0
-105,-328,0,0,0,0,0,0,0,0,0,-1,1119,1352,0,0
-98,-328,0,0,0,0,0,0,0,0,0,-1,1126,1352,0,0
-91,-328,0,0,0,0,0,0,0,0,0,-1,1133,1352,0,0
-84,-328,0,0,0,0,0,0,0,0,0,-1,1140,1352,0,0
-77,-328,0,0,0,0,0,0,0,0,0,-1,1147,1352,0,0
-70,-328,0,0,0,0,0,0,0,0,0,-1,1154,1352,0,0
-63,-328,0,0,0,0,0,0,0,0,0,-1,1161,1352,0,0
-56,-328,0,0,0,0,0,0,0,0,0,-1,1168,1352,0,0
-49,-328,0,0,0,0,0,0,0,0,0,-1,1175,1352,0,0
-42,-328,0,0,0,0,0,0,0,0,0,-1,1182,1352,0,0
-35,-328,0,0,0,0,0,0,0,0,0,-1,1189,1352,0,0
-28,-328,0,0,0,0,0,0,0,0,0,-1,1196,1352,0,0
-21,-328,0,0,0,0,0,0,0,0,0,-1,1203,1352,0,0
-14,-328,0,0,0,0,0,0,0,0,0,-1,1210,1352,0,0
-7,-328,0,0,0,0,0,0,0,0,0,-1,1217,1352,0,0
0,-328,0,0,0,0,0,0,0,0,0,-1,1224,1352,0,0
7,-328,0,0,0,0,0,0,0,0,0,-1,1231,1352,0,0
14,-328,0,0,0,0,0,0,0,0,0,-1,1238,1352,0,0
21,-328,0,0,0,0,0,0,0,0,0,-1,1245,1352,0,0
28,-328,0,0,0,0,0,0,0,0,0,-1,1252,1352,0,0
35,-328,0,0,0,0,0,0,0,0,0,-1,1259,1352,0,0
42,-328,0,0,0,0,0,0,0,0,0,-1,1266,1352,0,0
49,-328,0,0,0,0,0,0,0,0,0,-1,1273,1352,0,0
56,-328,0,0,0,0,0,0,0,0,0,-1,1280,1352,0,0
63,-328,0,0,0,0,0,0,0,0,0,-1,1287,1352,0,0
70,-328,0,0,0,0,0,0,0,0,0,-1,1294,1352,0,0
77,-328,0,0,0,0,0,0,0,0,0,-1,1301,1352,0,0
84,-328,0,0,0,0,0,0,0,0,0,-1,1308,1352,0,0
91,-328,0,0,0,0,0,0,0,0,0,-1,1315,1352,0,0
98,-328,0,0,0,0,0,0,0,0,0,-1,1322,1352,0,0
105,-328,0,0,0,0,0,0,0,0,0,-1,1329,1352,0,0
112,-328,0,0,0,0,0,0,0,0,0,-1,1336,1352,0,0
119,-328,0,0,0,0,0,0,0,0,0,-1,1343,1352,0,0
126,-328,0,0,0,0,0,0,0,0,0,-1,1350,1352,0,0
133,-328,0,0,0,0,0,0,0,0,0,-1,1357,1352,0,0
140,-328,0,0,0,0,0,0,0,0,0,-1,1364,1352,0,0
147,-328,0,0,0,0,0,0,0,0,0,-1,1371,1352,0,0
154,-328,0,0,0,0,0,0,0,0,0,-1,1378,1352,0,0
161,-328,0,0,0,0,0,0,0,0,0,-1,1385,1352,0,0
168,-328,0,0,0,0,0,0,0,0,0,-1,1392,1352,0,0
175,-328,0,0,0,0,0,0,0,0,0,-1,1399,1352,0,0
182,-328,0,0,0,0,0,0,0,0,0,-1,1406,1352,0,0
189,-328,0,0,0,0,0,0,0,0,0,-1,1413,1352,0,0
196,-328,0,0,0,0,0,0,0,0,0,-1,1420,1352,0,0
203,-328,0,0,0,0,0,0,0,0,0,-1,1427,1352,0,0
210,-328,0,0,0,0,0,0,0,0,0,-1,1434,1352,0,0
217,-328,0,0,0,0,0,0,0,0,0,-1,1441,1352,0,0
224,-328,0,0,0,0,0,0,0,0,0,-1,1448,1352,0,0
231,-328,0,0,0,0,0,0,0,0,0,-1,1455,1352,0,0
238,-328,0,0,0,0,0,0,0,0,0,-1,1462,1352,0,0
245,-328,0,0,0,0,0,0,0,0,0,-1,1469,1352,0,0
252,-328,0,0,0,0,0,0,0,0,0,-1,1476,1352,0,0
259,-328,0,0,0,0,0,0,0,0,0,-1,1483,1352,0,0
266,-328,0,0,0,0,0,0,0,0,0,-1,1490,1352,0,0
273,-328,0,0,0,0,0,0,0,0,0,-1,1497,1352,0,0
280,-328,0,0,0,0,0,0,0,0,0,-1,1504,1352,0,0
287,-328,0,0,0,0,0,0,0,0,0,-1,1511,1352,0,0
294,-328,0,0,0,0,0,0,0,0,0,-1,1518,1352,0,0
301,-328,0,0,0,0,0,0,0,0,0,-1,1525,1352,0,0
308,-328,0,0,0,0,0,0,0,0,0,-1,1532,1352,0,0
315,-328,0,0,0,0,0,0,0,0,0,-1,1539,1352,0,0
322,-328,0,0,0,0,0,0,0,0,0,-1,1546,1352,0,0
329,-328,0,0,0,0,0,0,0,0,0,-1,1553,1352,0,0
336,-328,0,0,0,0,0,0,0,0,0,-1,1560,1352,0,0
343,-328,0,0,0,0,0,0,0,0,0,-1,1567,1352,0,0
350,-328,0,0,0,0,0,0,0,0,0,-1,1574,1352,0,0
357,-328,0,0,0,0,0,0,0,0,0,-1,1581,1352,0,0
364,-328,0,0,0,0,0,0,0,0,0,-1,1588,1352,0,0
371,-328,0,0,0,0,0,0,0,0,0,-1,1595,1352,0,0
378,-328,0,0,0,0,0,0,0,0,0,-1,1602,1352,0,0
385,-328,0,0,0,0,0,0,0,0,0,-1,1609,1352,0,0
392,-328,0,0,0,0,0,0,0,0,0,-1,1616,1352,0,0
399,-328,0,0,0,0,0,0,0,0,0,-1,1623,1352,0,0
406,-328,0,0,0,0,0,0,0,0,0,-1,1630,1352,0,0
413,-328,0,0,0,0,0,0,0,0,0,-1,1637,1352,0,0
420,-328,0,0,0,0,0,0,0,0,0,-1,1644,1352,0,0
427,-328,0,0,0,0,0,0,0,0,0,-1,1651,1352,0,0
434,-328,0,0,0,0,0,0,0,0,0,-1,1658,1352,0,0
441,-328,0,0,0,0,0,0,0,0,0,-1,1665,1352,0,0
448,-328,0,0,0,0,0,0,0,0,0,-1,1672,1352,0,0
455,-328,0,0,0,0,0,0,0,0,0,-1,1679,1352,0,0
462,-328,0,0,0,0,0,0,0,0,0,-1,1686,1352,0,0
469,-328,0,0,0,0,0,0,0,0,0,-1,1693,1352,0,0
476,-328,0,0,0,0,0,0,0,0,0,-1,1700,1352,0,0
483,-328,0,0,0,0,0,0,0,0,0,-1,1707,1352,0,0
490,-328,0,0,0,0,0,0,0,0,0,-1,1714,1352,0,0
497,-328,0,0,0,0,0,0,0,0,0,-1,1721,1352,0,0
504,-328,0,0,0,0,0,0,0,0,0,-1,1728,1352,0,0
511,-328,0,0,0,0,0,0,0,0,0,-1,1735,1352,0,0
518,-328,0,0,0,0,0,0,0,0,0,-1,1742,1352,0,0
525,-328,0,0,0,0,0,0,0,0,0,-1,1749,1352,0,0
532,-328,0,0,0,0,0,0,0,0,0,-1,1756,1352,0,0
539,-328,0,0,0,0,0,0,0,0,0,-1,1763,1352,0,0
546,-328,0,0,0,0,0,0,0,0,0,-1,1770,1352,0,0
553,-328,0,0,0,0,0,0,0,0,0,-1,1777,1352,0,0
560,-328,0,0,0,0,0,0,0,0,0,-1,1784,1352,0,0
567,-328,0,0,0,0,0,0,0,0,0,-1,1791,1352,0,0
574,-328,2.36475,2.12805,-0.0117266,0.0335122,-0.0122717,0.0366267,-0.014841,-1.32225,0.0305894,0.0459098,1798,1352,2.36474,-2.12803
581,-328,1.38074,1.69055,-0.0105536,0.0293005,-0.00964914,0.0315138,-0.0127669,-1.34532,0.0263181,0.0449148,1805,1352,1.3808,-1.69052
588,-328,0.567749,0.710571,-0.00954155,0.0237463,-0.0074868,0.0253527,-0.0111479,-1.35944,0.021599,0.0474022,1812,1352,0.567749,-0.710607
595,-328,0.609009,0.623047,-0.00822559,0.0177919,-0.00512326,0.0187644,-0.00919809,-1.38321,0.0164561,0.049341,1819,1352,0.609037,-0.623048
602,-328,0.430176,0.454834,-0.00673973,0.0124525,-0.00265876,0.0128141,-0.00710124,-1.43565,0.0116547,0.0470578,1826,1352,0.430142,-0.454778
609,-328,-0.0684814,-2.09644,-0.00538737,0.00784894,-0.00044973,0.00786421,-0.00540264,-1.53687,0.00770344,0.048509,1833,1352,-0.0684365,2.09638
616,-328,0.463623,-1.42114,-0.00420862,0.0041502,0.00142056,0.00438502,-0.00444344,1.40697,0.00509715,0.0464824,1840,1352,0.463646,1.42115
623,-328,0.873169,-0.69873,-0.00320263,0.00115921,0.00277766,0.00250984,-0.00455325,1.11821,0.00413437,0.0435176,1847,1352,0.873204,0.698701
630,-328,-0.737549,-1.59253,-0.00278473,-0.00248112,0.00290162,0.000272662,-0.00553851,0.811533,0.0037865,0.0453768,1854,1352,-0.737508,1.59252
637,-328,-0.485962,-1.01697,-0.00169139,-0.00383797,0.00407244,0.00144682,-0.00697618,0.656553,0.00520058,0.0411079,1861,1352,-0.485926,1.01691
644,-328,-0.313599,-0.407349,-0.000982921,-0.00452786,0.00436158,0.00195258,-0.00746336,0.5924,0.00573826,0.0385714,1868,1352,-0.313628,0.407338
651,-328,-0.078125,0.020752,-0.00043181,-0.00477144,0.00419438,0.00212076,-0.00732401,0.546696,0.00572213,0.0263723,1875,1352,-0.0781467,-0.0207403
658,-328,-0.0402832,0.0599365,-0.000266661,-0.00439334,0.00391479,0.00209526,-0.00675526,0.542867,0.00534073,0.0145079,1882,1352,-0.0402563,-0.0599254
665,-328,-0.0495605,0.0727539,-0.000413965,-0.00445815,0.00333396,0.00146319,-0.00633531,0.512801,0.00478641,0.013287,1889,1352,-0.0495076,-0.0727402
672,-328,-0.0612793,0.0733643,-0.000691355,-0.00388198,0.00218476,0.000418549,-0.00499188,0.470044,0.00347585,0.0107722,1896,1352,-0.0613396,-0.0733409
679,-328,-0.0565186,0.0609131,-0.000544914,-0.00325296,0.00137871,3.34732e-05,-0.00383134,0.397215,0.00256546,0.0123642,1903,1352,-0.0564924,-0.0609292
686,-328,-0.0651855,0.0584717,-0.000286087,-0.00180592,0.00165564,0.0007757,-0.00286771,0.570247,0.0022161,0.0115075,1910,1352,-0.0652363,-0.0584625
693,-328,-0.0469971,0.0698242,-0.000350675,-0.00070968,0.00143094,0.000911976,-0.00197233,0.723002,0.00170235,0.00794842,1917,1352,-0.0470477,-0.0697789
700,-328,-0.0366211,0.0684814,4.5748e-05,-0.000256152,0.00126318,0.00116697,-0.00137737,0.72593,0.00147065,0.0116656,1924,1352,-0.0366552,-0.0684558
707,-328,-0.0286865,0.0537109,0.000756795,0.000256664,0.00145177,0.00197987,-0.000966416,0.700111,0.00173426,0.0140006,1931,1352,-0.0286866,-0.0537116
714,-328,-0.0352783,0.0361328,0.0015598,0.000956412,0.00169651,0.00298123,-0.000465018,0.697402,0.00215925,0.0122465,1938,1352,-0.0352767,-0.0361125
721,-328,-0.0639648,0.0354004,0.00269719,0.00162514,0.00190692,0.00414199,0.000180336,0.648386,0.00270322,0.0203622,1945,1352,-0.0640256,-0.0354205
728,-328,-0.0657959,0.0892334,0.00413843,0.00263683,0.00222276,0.00573377,0.00104149,0.622525,0.00352699,0.036301,1952,1352,-0.0658344,-0.0891981
735,-328,-0.0821533,0.196289,0.00608585,0.00400241,0.0024706,0.00772537,0.00236289,0.585884,0.00457094,0.0449255,1959,1352,-0.0821401,-0.196324
742,-328,-0.606201,-0.925293,0,0,0,0,0,0,0,-1,1966,1352,-0.606142,0.925232
749,-328,-0.681885,-0.612549,0.0119438,0.00800126,0.00253089,0.0131805,0.00676452,0.454531,0.00761068,0.0448045,1973,1352,-0.681868,0.612498
756,-328,-0.101074,-0.139648,0.0160769,0.0106537,0.00217744,0.016843,0.00988769,0.338287,0.00977331,0.0444909,1980,1352,-0.101104,0.13965
763,-328,0,0,0,0,0,0,0,0,0,-1,1987,1352,0,0
770,-328,0,0,0,0,0,0,0,0,0,-1,1994,1352,0,0
777,-328,0,0,0,0,0,0,0,0,0,-1,2001,1352,0,0
784,-328,0,0,0,0,0,0,0,0,0,-1,2008,1352,0,0
791,-328,0,0,0,0,0,0,0,0,0,-1,2015,1352,0,0
798,-328,0,0,0,0,0,0,0,0,0,-1,2022,1352,0,0
805,-328,0,0,0,0,0,0,0,0,0,-1,2029,1352,0,0
812,-328,0,0,0,0,0,0,0,0,0,-1,2036,1352,0,0
-700,-335,0,0,0,0,0,0,0,0,0,-1,524,1359,0,0
-693,-335,0,0,0,0,0,0,0,0,0,-1,531,1359,0,0
-686,-335,0,0,0,0,0,0,0,0,0,-1,538,1359,0,0
-679,-335,0,0,0,0,0,0,0,0,0,-1,545,1359,0,0
-672,-335,0,0,0,0,0,0,0,0,0,-1,552,1359,0,0
-665,-335,0,0,0,0,0,0,0,0,0,-1,559,1359,0,0
-658,-335,0,0,0,0,0,0,0,0,0,-1,566,1359,0,0
-651,-335,0,0,0,0,0,0,0,0,0,-1,573,1359,0,0
-644,-335,0,0,0,0,0,0,0,0,0,-1,580,1359,0,0
-637,-335,-0.90741,-1.13074,-0.0526821,0.0343714,-0.0157009,0.0371166,-0.0554273,-1.3977,0.0537778,0.0477902,587,1359,-0.907439,1.13071
-630,-335,-1.45715,-1.52173,-0.0364758,0.0272517,-0.00837791,0.0283347,-0.0375588,-1.44224,0.0381677,0.0474847,594,1359,-1.45713,1.52168
-623,-335,-2.03656,-1.87244,0,0,0,0,0,0,0,-1,601,1359,-2.03658,1.87238
-616,-335,-0.0233154,0.19458,0,0,0,0,0,0,0,-1,608,1359,-0.0233425,-0.194539
-609,-335,0.142151,-0.306274,0,0,0,0,0,0,0,-1,615,1359,0.142155,0.30627
-602,-335,-0.469666,-0.119873,0.00194392,0.0096974,0.00636732,0.0132753,-0.001634,1.05885,0.00944212,0.0490682,622,1359,-0.469659,0.119926
-595,-335,-0.237732,0.0751953,0.00610829,0.00695317,0.00770414,0.0142464,-0.00118499,0.812787,0.00991625,0.0428024,629,1359,-0.237712,-0.0752273
-588,-335,0.0159912,0.0158691,0.00859135,0.00475755,0.00810228,0.0150004,-0.0016515,0.66924,0.0105938,0.028422,636,1359,0.0159809,-0.0158669
-581,-335,-0.024353,0.0413818,0.0104781,0.00345084,0.00815043,0.01584,-0.00191105,0.581885,0.0112513,0.0122909,643,1359,-0.0243327,-0.04144
-574,-335,-0.0164185,0.0484619,0.00987175,0.00236482,0.00683711,0.0139179,-0.00168137,0.534367,0.00988685,0.0110157,650,1359,-0.0163962,-0.048442
-567,-335,-0.0272827,0.0665283,0.0078957,0.0018724,0.00533036,0.0110064,-0.00123827,0.528255,0.00778323,0.0159029,657,1359,-0.027298,-0.0664937
-560,-335,-0.0067749,0.048584,0.00593693,0.00133907,0.00417422,0.00840341,-0.00112741,0.533691,0.00601341,0.0228117,664,1359,-0.00680456,-0.0486025
-553,-335,0.00964355,0.067749,0.00415725,0.00089993,0.00323427,0.00614978,-0.0010926,0.552151,0.0045084,0.0241723,671,1359,0.00963688,-0.0677199
-546,-335,-0.00708008,0.0623779,0.00288476,0.000188148,0.00241295,0.00430056,-0.00122765,0.530619,0.00335205,0.0221102,678,1359,-0.00707059,-0.0624075
-539,-335,-0.00860596,0.0380859,0.00190478,-0.000911871,0.00194365,0.0028967,-0.00190379,0.471883,0.00279125,0.0191064,685,1359,-0.00861445,-0.0380831
-532,-335,-0.0372925,0.0498047,0.00111541,-0.00220318,0.00164099,0.0017898,-0.00287757,0.389925,0.00271899,0.0148471,692,1359,-0.0372956,-0.0497965
-525,-335,-0.0344238,0.0535889,0.000764987,-0.003299,0.00172942,0.0014013,-0.00393532,0.352564,0.00319478,0.00922493,699,1359,-0.0344537,-0.0535983
-518,-335,-0.0380249,0.0496826,0.000547308,-0.00419391,0.00179558,0.00115056,-0.00479717,0.32412,0.00364271,0.0112198,706,1359,-0.0380347,-0.0496679
-511,-335,-0.0755615,0.0524902,-0.000607437,-0.00461816,0.00193769,0.00017577,-0.00540137,0.384119,0.00366091,0.0294648,713,1359,-0.0755401,-0.0525156
-504,-335,-0.233032,0.0496826,-0.00251025,-0.00427272,0.00225979,-0.000965945,-0.00581703,0.599486,0.0035995,0.0421755,720,1359,-0.233024,-0.0496259
-497,-335,-0.478088,0.168335,-0.00509392,-0.00183919,0.00212036,-0.000793687,-0.00613942,1.1127,0.00385571,0.0443825,727,1359,-0.478116,-0.168328
-490,-335,-0.618347,0.399292,-0.00812546,0.00062882,0.00182883,0.000995515,-0.00849216,1.37291,0.00602077,0.0436294,734,1359,-0.618376,-0.3993
-483,-335,-0.559387,0.63269,0,0,0,0,0,0,0,-1,741,1359,-0.559392,-0.63271
-476,-335,2.53552,2.0708,0,0,0,0,0,0,0,-1,748,1359,2.53553,-2.07074
-469,-335,1.41321,1.93994,0,0,0,0,0,0,0,-1,755,1359,1.41319,-1.9399
-462,-335,-0.358887,-0.743286,0,0,0,0,0,0,0,-1,762,1359,-0.358857,0.743285
-455,-335,-0.117004,2.04041,0,0,0,0,0,0,0,-1,769,1359,-0.117019,-2.04045
-448,-335,0,0,0,0,0,0,0,0,0,-1,776,1359,0,0
-441,-335,0,0,0,0,0,0,0,0,0,-1,783,1359,0,0
-434,-335,0,0,0,0,0,0,0,0,0,-1,790,1359,0,0
-427,-335,0,0,0,0,0,0,0,0,0,-1,797,1359,0,0
-420,-335,0,0,0,0,0,0,0,0,0,-1,804,1359,0,0
-413,-335,0,0,0,0,0,0,0,0,0,-1,811,1359,0,0
-406,-335,0,0,0,0,0,0,0,0,0,-1,818,1359,0,0
-399,-335,0,0,0,0,0,0,0,0,0,-1,825,1359,0,0
-392,-335,0,0,0,0,0,0,0,0,0,-1,832,1359,0,0
-385,-335,0,0,0,0,0,0,0,0,0,-1,839,1359,0,0
-378,-335,0,0,0,0,0,0,0,0,0,-1,846,1359,0,0
-371,-335,0,0,0,0,0,0,0,0,0,-1,853,1359,0,0
-364,-335,0,0,0,0,0,0,0,0,0,-1,860,1359,0,0
-357,-335,0,0,0,0,0,0,0,0,0,-1,867,1359,0,0
-350,-335,0,0,0,0,0,0,0,0,0,-1,874,1359,0,0
-343,-335,0,0,0,0,0,0,0,0,0,-1,881,1359,0,0
-336,-335,0,0,0,0,0,0,0,0,0,-1,888,1359,0,0
-329,-335,0,0,0,0,0,0,0,0,0,-1,895,1359,0,0
-322,-335,0,0,0,0,0,0,0,0,0,-1,902,1359,0,0
-315,-335,0,0,0,0,0,0,0,0,0,-1,909,1359,0,0
-308,-335,0,0,0,0,0,0,0,0,0,-1,916,1359,0,0
-301,-335,0,0,0,0,0,0,0,0,0,-1,923,1359,0,0
-294,-335,0,0,0,0,0,0,0,0,0,-1,930,1359,0,0
-287,-335,0,0,0,0,0,0,0,0,0,-1,937,1359,0,0
-280,-335,0,0,0,0,0,0,0,0,0,-1,944,1359,0,0
-273,-335,0,0,0,0,0,0,0,0,0,-1,951,1359,0,0
-266,-335,0,0,0,0,0,0,0,0,0,-1,958,1359,0,0
-259,-335,0,0,0,0,0,0,0,0,0,-1,965,1359,0,0
-252,-335,0,0,0,0,0,0,0,0,0,-1,972,1359,0,0
-245,-335,0,0,0,0,0,0,0,0,0,-1,979,1359,0,0
-238,-335,0,0,0,0,0,0,0,0,0,-1,986,1359,0,0
-231,-335,0,0,0,0,0,0,0,0,0,-1,993,1359,0,0
-224,-335,0,0,0,0,0,0,0,0,0,-1,1000,1359,0,0
-217,-335,0,0,0,0,0,0,0,0,0,-1,1007,1359,0,0
-210,-335,0,0,0,0,0,0,0,0,0,-1,1014,1359,0,0
-203,-335,0,0,0,0,0,0,0,0,0,-1,1021,1359,0,0
-196,-335,0,0,0,0,0,0,0,0,0,-1,1028,1359,0,0
-189,-335,0,0,0,0,0,0,0,0,0,-1,1035,1359,0,0
-182,-335,0,0,0,0,0,0,0,0,0,-1,1042,1359,0,0
-175,-335,0,0,0,0,0,0,0,0,0,-1,1049,1359,0,0
-168,-335,0,0,0,0,0,0,0,0,0,-1,1056,1359,0,0
-161,-335,0,0,0,0,0,0,0,0,0,-1,1063,1359,0,0
-154,-335,0,0,0,0,0,0,0,0,0,-1,1070,1359,0,0
-147,-335,0,0,0,0,0,0,0,0,0,-1,1077,1359,0,0
-140,-335,0,0,0,0,0,0,0,0,0,-1,1084,1359,0,0
-133,-335,0,0,0,0,0,0,0,0,0,-1,1091,1359,0,0
-126,-335,0,0,0,0,0,0,0,0,0,-1,1098,1359,0,0
-119,-335,0,0,0,0,0,0,0,0,0,-1,1105,1359,0,0
-112,-335,0,0,0,0,0,0,0,0,0,-1,1112,1359,0,0
-105,-335,0,0,0,0,0,0,0,0,0,-1,1119,1359,0,0
-98,-335,0,0,0,0,0,0,0,0,0,-1,1126,1359,0,0
-91,-335,0,0,0,0,0,0,0,0,0,-1,1133,1359,0,0
-84,-335,0,0,0,0,0,0,0,0,0,-1,1140,1359,0,0
-77,-335,0,0,0,0,0,0,0,0,0,-1,1147,1359,0,0
-70,-335,0,0,0,0,0,0,0,0,0,-1,1154,1359,0,0
-63,-335,0,0,0,0,0,0,0,0,0,-1,1161,1359,0,0
-56,-335,0,0,0,0,0,0,0,0,0,-1,1168,1359,0,0
-49,-335,0,0,0,0,0,0,0,0,0,-1,1175,1359,0,0
-42,-335,0,0,0,0,0,0,0,0,0,-1,1182,1359,0,0
-35,-335,0,0,0,0,0,0,0,0,0,-1,1189,1359,0,0
-28,-335,0,0,0,0,0,0,0,0,0,-1,1196,1359,0,0
-21,-335,0,0,0,0,0,0,0,0,0,-1,1203,1359,0,0
-14,-335,0,0,0,0,0,0,0,0,0,-1,1210,1359,0,0
-7,-335,0,0,0,0,0,0,0,0,0,-1,1217,1359,0,0
0,-335,0,0,0,0,0,0,0,0,0,-1,1224,1359,0,0
7,-335,0,0,0,0,0,0,0,0,0,-1,1231,1359,0,0
14,-335,0,0,0,0,0,0,0,0,0,-1,1238,1359,0,0
21,-335,0,0,0,0,0,0,0,0,0,-1,1245,1359,0,0
28,-335,0,0,0,0,0,0,0,0,0,-1,1252,1359,0,0
35,-335,0,0,0,0,0,0,0,0,0,-1,1259,1359,0,0
42,-335,0,0,0,0,0,0,0,0,0,-1,1266,1359,0,0
49,-335,0,0,0,0,0,0,0,0,0,-1,1273,1359,0,0
56,-335,0,0,0,0,0,0,0,0,0,-1,1280,1359,0,0
63,-335,0,0,0,0,0,0,0,0,0,-1,1287,1359,0,0
70,-335,0,0,0,0,0,0,0,0,0,-1,1294,1359,0,0
77,-335,0,0,0,0,0,0,0,0,0,-1,1301,1359,0,0
84,-335,0,0,0,0,0,0,0,0,0,-1,1308,1359,0,0
91,-335,0,0,0,0,0,0,0,0,0,-1,1315,1359,0,0
98,-335,0,0,0,0,0,0,0,0,0,-1,1322,1359,0,0
105,-335,0,0,0,0,0,0,0,0,0,-1,1329,1359,0,0
112,-335,0,0,0,0,0,0,0,0,0,-1,1336,1359,0,0
119,-335,0,0,0,0,0,0,0,0,0,-1,1343,1359,0,0
126,-335,0,0,0,0,0,0,0,0,0,-1,1350,1359,0,0
133,-335,0,0,0,0,0,0,0,0,0,-1,1357,1359,0,0
140,-335,0,0,0,0,0,0,0,0,0,-1,1364,1359,0,0
147,-335,0,0,0,0,0,0,0,0,0,-1,1371,1359,0,0
154,-335,0,0,0,0,0,0,0,0,0,-1,1378,1359,0,0
161,-335,0,0,0,0,0,0,0,0,0,-1,1385,1359,0,0
168,-335,0,0,0,0,0,0,0,0,0,-1,1392,1359,0,0
175,-335,0,0,0,0,0,0,0,0,0,-1,1399,1359,0,0
182,-335,0,0,0,0,0,0,0,0,0,-1,1406,1359,0,0
189,-335,0,0,0,0,0,0,0,0,0,-1,1413,1359,0,0
196,-335,0,0,0,0,0,0,0,0,0,-1,1420,1359,0,0
203,-335,0,0,0,0,0,0,0,0,0,-1,1427,1359,0,0
210,-335,0,0,0,0,0,0,0,0,0,-1,1434,1359,0,0
217,-335,0,0,0,0,0,0,0,0,0,-1,1441,1359,0,0
224,-335,0,0,0,0,0,0,0,0,0,-1,1448,1359,0,0
231,-335,0,0,0,0,0,0,0,0,0,-1,1455,1359,0,0
238,-335,0,0,0,0,0,0,0,0,0,-1,1462,1359,0,0
245,-335,0,0,0,0,0,0,0,0,0,-1,1469,1359,0,0
252,-335,0,0,0,0,0,0,0,0,0,-1,1476,1359,0,0
259,-335,0,0,0,0,0,0,0,0,0,-1,1483,1359,0,0
266,-335,0,0,0,0,0,0,0,0,0,-1,1490,1359,0,0
273,-335,0,0,0,0,0,0,0,0,0,-1,1497,1359,0,0
280,-335,0,0,0,0,0,0,0,0,0,-1,1504,1359,0,0
287,-335,0,0,0,0,0,0,0,0,0,-1,1511,1359,0,0
294,-335,0,0,0,0,0,0,0,0,0,-1,1518,1359,0,0
301,-335,0,0,0,0,0,0,0,0,0,-1,1525,1359,0,0
308,-335,0,0,0,0,0,0,0,0,0,-1,1532,1359,0,0
315,-335,0,0,0,0,0,0,0,0,0,-1,1539,1359,0,0
322,-335,0,0,0,0,0,0,0,0,0,-1,1546,1359,0,0
329,-335,0,0,0,0,0,0,0,0,0,-1,1553,1359,0,0
336,-335,0,0,0,0,0,0,0,0,0,-1,1560,1359,0,0
343,-335,0,0,0,0,0,0,0,0,0,-1,1567,1359,0,0
350,-335,0,0,0,0,0,0,0,0,0,-1,1574,1359,0,0
357,-335,0,0,0,0,0,0,0,0,0,-1,1581,1359,0,0
364,-335,0,0,0,0,0,0,0,0,0,-1,1588,1359,0,0
371,-335,0,0,0,0,0,0,0,0,0,-1,1595,1359,0,0
378,-335,0,0,0,0,0,0,0,0,0,-1,1602,1359,0,0
385,-335,0,0,0,0,0,0,0,0,0,-1,1609,1359,0,0
392,-335,0,0,0,0,0,0,0,0,0,-1,1616,1359,0,0
399,-335,0,0,0,0,0,0,0,0,0,-1,1623,1359,0,0
406,-335,0,0,0,0,0,0,0,0,0,-1,1630,1359,0,0
413,-335,0,0,0,0,0,0,0,0,0,-1,1637,1359,0,0
420,-335,0,0,0,0,0,0,0,0,0,-1,1644,1359,0,0
427,-335,0,0,0,0,0,0,0,0,0,-1,1651,1359,0,0
434,-335,0,0,0,0,0,0,0,0,0,-1,1658,1359,0,0
441,-335,0,0,0,0,0,0,0,0,0,-1,1665,1359,0,0
448,-335,0,0,0,0,0,0,0,0,0,-1,1672,1359,0,0
455,-335,0,0,0,0,0,0,0,0,0,-1,1679,1359,0,0
462,-335,0,0,0,0,0,0,0,0,0,-1,1686,1359,0,0
469,-335,0,0,0,0,0,0,0,0,0,-1,1693,1359,0,0
476,-335,0,0,0,0,0,0,0,0,0,-1,1700,1359,0,0
483,-335,0,0,0,0,0,0,0,0,0,-1,1707,1359,0,0
490,-335,0,0,0,0,0,0,0,0,0,-1,1714,1359,0,0
497,-335,0,0,0,0,0,0,0,0,0,-1,1721,1359,0,0
504,-335,0,0,0,0,0,0,0,0,0,-1,1728,1359,0,0
511,-335,0,0,0,0,0,0,0,0,0,-1,1735,1359,0,0
518,-335,0,0,0,0,0,0,0,0,0,-1,1742,1359,0,0
525,-335,0,0,0,0,0,0,0,0,0,-1,1749,1359,0,0
532,-335,0,0,0,0,0,0,0,0,0,-1,1756,1359,0,0
539,-335,0,0,0,0,0,0,0,0,0,-1,1763,1359,0,0
546,-335,0,0,0,0,0,0,0,0,0,-1,1770,1359,0,0
553,-335,0,0,0,0,0,0,0,0,0,-1,1777,1359,0,0
560,-335,0,0,0,0,0,0,0,0,0,-1,1784,1359,0,0
567,-335,0,0,0,0,0,0,0,0,0,-1,1791,1359,0,0
574,-335,0.434692,1.34473,-0.00649128,0.0324636,-0.0103976,0.0350652,-0.00909281,-1.32563,0.0269245,0.0450924,1798,1359,0.434692,-1.34477
581,-335,0.569336,1.05835,-0.00673886,0.0270421,-0.0081979,0.0289264,-0.0086232,-1.34486,0.0227111,0.0466478,1805,1359,0.569369,-1.05835
588,-335,0.52063,0.794678,-0.00649897,0.0207473,-0.00622234,0.0221011,-0.00785272,-1.35657,0.0179341,0.0482237,1812,1359,0.520635,-0.794735
595,-335,0.577148,0.661133,0,0,0,0,0,0,0,-1,1819,1359,0.577187,-0.661089
602,-335,-0.829102,-2.48242,0,0,0,0,0,0,0,-1,1826,1359,-0.829126,2.48245
609,-335,-0.360596,-1.89917,-0.00368854,0.00451951,0.000101209,0.00452076,-0.00368979,1.55847,0.00474845,0.0459462,1833,1359,-0.360567,1.89912
616,-335,0.0802002,-1.32361,-0.00268473,0.00093682,0.00174659,0.00164189,-0.0033898,1.18712,0.0029629,0.0427305,1840,1359,0.0801948,1.32357
623,-335,-0.10083,-0.405518,-0.00178262,-0.00175651,0.00294155,0.00117201,-0.00471114,0.787618,0.00359567,0.0468824,1847,1359,-0.100772,0.40549
630,-335,0.478516,-0.102783,-0.00155412,-0.00512137,0.00291319,7.80986e-05,-0.00675359,0.510706,0.00452865,0.0464641,1854,1359,0.478555,0.102773
637,-335,0.0675049,-0.0549316,-0.00055451,-0.00614165,0.00395083,0.00149063,-0.00818678,0.477666,0.0060166,0.0480327,1861,1359,0.067517,0.054973
644,-335,-0.125366,0.0439453,6.6541e-05,-0.00635849,0.00407924,0.00204637,-0.00833832,0.451853,0.00635185,0.0336991,1868,1359,-0.125384,-0.0439628
651,-335,-0.0791016,0.0635986,0.000508179,-0.00611627,0.0038216,0.00225317,-0.00786126,0.42834,0.00613149,0.0133918,1875,1359,-0.0790408,-0.0635525
658,-335,-0.0389404,0.0687256,0.000565295,-0.0052896,0.00349982,0.00220059,-0.0069249,0.437109,0.00549892,0.0114189,1882,1359,-0.0389334,-0.0687105
665,-335,-0.0418701,0.0732422,0.000296476,-0.00495851,0.00290112,0.00158309,-0.00624512,0.417425,0.00477932,0.0135973,1889,1359,-0.0418825,-0.0732194
672,-335,-0.0393066,0.0567627,-8.29208e-05,-0.00409955,0.00182123,0.000619893,-0.00480237,0.368292,0.00342695,0.0155819,1896,1359,-0.0393538,-0.0567834
679,-335,-0.041748,0.0643311,-7.78942e-05,-0.00331383,0.00110881,0.000265585,-0.00365731,0.300399,0.00253138,0.0128282,1903,1359,-0.0417713,-0.0643627
686,-335,-0.0472412,0.0458984,4.27143e-05,-0.00183016,0.00139937,0.000790067,-0.00257752,0.490526,0.00203352,0.010112,1910,1359,-0.0472676,-0.0458631
693,-335,-0.0515137,0.0406494,-7.72104e-05,-0.000781262,0.0011947,0.000816248,-0.00167472,0.642125,0.00146635,0.00858477,1917,1359,-0.0515248,-0.0405991
700,-335,-0.0548096,0.0634766,0.00024834,-0.00037671,0.00103099,0.00101313,-0.0011415,0.638235,0.00124471,0.0095397,1924,1359,-0.0547988,-0.0634798
707,-335,-0.0499268,0.0488281,0.000938202,7.46449e-05,0.00121388,0.00179481,-0.000781962,0.614526,0.00152553,0.0127939,1931,1359,-0.049978,-0.0488734
714,-335,-0.0445557,0.0327148,0.00170849,0.000694116,0.00140336,0.00269351,-0.000290899,0.611997,0.00190008,0.0157185,1938,1359,-0.0446064,-0.0327016
721,-335,-0.0562744,-0.00476074,0.00283074,0.00131271,0.00152699,0.00377695,0.000366497,0.554749,0.00240513,0.0319324,1945,1359,-0.0562434,0.00475281
728,-335,-0.0655518,0.106934,0.00432322,0.00222477,0.00167365,0.00524934,0.00129865,0.505413,0.003157,0.0457286,1952,1359,-0.0655153,-0.106939
735,-335,-0.081543,0.340698,0.00637465,0.00345655,0.00168863,0.00714726,0.00268394,0.429103,0.00416888,0.0462369,1959,1359,-0.0815659,-0.340694
742,-335,-0.818604,-0.667236,0,0,0,0,0,0,0,-1,1966,1359,-0.8186,0.667209
749,-335,-0.605103,-0.539185,0.0126695,0.00702788,0.00106952,0.0128654,0.00683192,0.181205,0.00743261,0.0435577,1973,1359,-0.60507,0.539185
756,-335,-0.188232,-0.17627,0.0172053,0.00934449,0.000258353,0.0172138,0.00933601,0.0328188,0.00995026,0.0452617,1980,1359,-0.188225,0.176226
763,-335,0,0,0,0,0,0,0,0,0,-1,1987,1359,0,0
770,-335,0,0,0,0,0,0,0,0,0,-1,1994,1359,0,0
777,-335,0,0,0,0,0,0,0,0,0,-1,2001,1359,0,0
784,-335,0,0,0,0,0,0,0,0,0,-1,2008,1359,0,0
791,-335,0,0,0,0,0,0,0,0,0,-1,2015,1359,0,0
798,-335,0,0,0,0,0,0,0,0,0,-1,2022,1359,0,0
805,-335,0,0,0,0,0,0,0,0,0,-1,2029,1359,0,0
812,-335,0,0,0,0,0,0,0,0,0,-1,2036,1359,0,0
-700,-342,0,0,0,0,0,0,0,0,0,-1,524,1366,0,0
-693,-342,0,0,0,0,0,0,0,0,0,-1,531,1366,0,0
-686,-342,0,0,0,0,0,0,0,0,0,-1,538,1366,0,0
-679,-342,0,0,0,0,0,0,0,0,0,-1,545,1366,0,0
-672,-342,0,0,0,0,0,0,0,0,0,-1,552,1366,0,0
-665,-342,0,0,0,0,0,0,0,0,0,-1,559,1366,0,0
-658,-342,0,0,0,0,0,0,0,0,0,-1,566,1366,0,0
-651,-342,0,0,0,0,0,0,0,0,0,-1,573,1366,0,0
-644,-342,0,0,0,0,0,0,0,0,0,-1,580,1366,0,0
-637,-342,-1.05432,-1.11279,-0.0607358,0.0352978,-0.0163042,0.0379904,-0.0634284,-1.40713,0.0591649,0.0447602,587,1366,-1.05432,1.11278
-630,-342,-1.62262,-1.78003,-0.0425491,0.0279273,-0.00840584,0.028916,-0.0435378,-1.45371,0.0421142,0.0434119,594,1366,-1.62259,1.77999
-623,-342,-2.26196,-2.1167,0,0,0,0,0,0,0,-1,601,1366,-2.26195,2.11671
-616,-342,-2.96307,-2.38013,0,0,0,0,0,0,0,-1,608,1366,-2.96306,2.38018
-609,-342,-1.04877,-0.459595,0,0,0,0,0,0,0,-1,615,1366,-1.04877,0.459536
-602,-342,-0.751404,-0.284546,0,0,0,0,0,0,0,-1,622,1366,-0.751412,0.28449
-595,-342,-0.354675,-0.252075,0,0,0,0,0,0,0,-1,629,1366,-0.354673,0.252057
-588,-342,-0.0570068,-0.00622559,0.00927826,0.00528499,0.00968143,0.0171668,-0.00260356,0.683707,0.0124038,0.0334419,636,1366,-0.0570132,0.0062317
-581,-342,-0.0463867,0.0457764,0.0114337,0.00393392,0.00968829,0.0180725,-0.00270487,0.60075,0.0130438,0.0180391,643,1366,-0.0463931,-0.0457543
-574,-342,-0.0332031,0.0666504,0.0108689,0.00274519,0.00823596,0.0159902,-0.00237607,0.556307,0.011534,0.00850959,650,1366,-0.0331732,-0.0667057
-567,-342,-0.00689697,0.0750732,0.00871221,0.00218332,0.00647082,0.0126954,-0.00179986,0.551783,0.00912293,0.0146801,657,1366,-0.00687351,-0.0751146
-560,-342,-0.0141602,0.0388184,0.00652274,0.00156429,0.00502374,0.00964571,-0.00155868,0.55618,0.00700805,0.0223547,664,1366,-0.0141669,-0.038783
-553,-342,-0.0166016,0.0405273,0.00456048,0.0010369,0.00379387,0.00698167,-0.00138429,0.568025,0.00517793,0.0254909,671,1366,-0.0166043,-0.040511
-546,-342,0.00939941,0.0529785,0.0031233,0.000328236,0.00270713,0.00477235,-0.00132081,0.54712,0.00370125,0.0258804,678,1366,0.00941274,-0.0529712
-539,-342,0.00390625,0.0396729,0.00187082,-0.000770866,0.00194791,0.00290348,-0.00180353,0.487466,0.00274222,0.0216351,685,1366,0.00392975,-0.0396268
-532,-342,-0.0297852,0.05896,0.000815467,-0.00208625,0.00135747,0.00135149,-0.00262228,0.376078,0.00233303,0.0163359,692,1366,-0.0298136,-0.0589455
-525,-342,-0.0293579,0.0643311,0.000215212,-0.00313875,0.00123687,0.000622007,-0.00354554,0.317746,0.00259599,0.00952493,699,1366,-0.0293649,-0.0643571
-518,-342,-0.036438,0.0513916,-9.988e-05,-0.00396208,0.00123887,0.00026335,-0.00432531,0.285201,0.00297521,0.00805965,706,1366,-0.0364087,-0.0513419
-511,-342,-0.0507202,0.0316162,-0.00153621,-0.00424137,0.00140321,-0.000939822,-0.00483776,0.401884,0.00296202,0.0212686,713,1366,-0.0507375,-0.0316018
-504,-342,-0.175293,0.0566406,-0.0034009,-0.00363638,0.00159449,-0.00191981,-0.00511747,0.748544,0.00298512,0.0426358,720,1366,-0.175296,-0.0566509
-497,-342,-0.306702,0.0750732,0,0,0,0,0,0,0,-1,727,1366,-0.306721,-0.0750928
-490,-342,-0.870728,0.274658,0,0,0,0,0,0,0,-1,734,1366,-0.870704,-0.274716
-483,-342,1.58386,1.23413,0,0,0,0,0,0,0,-1,741,1366,1.58389,-1.23411
-476,-342,1.39624,1.34412,0,0,0,0,0,0,0,-1,748,1366,1.39626,-1.34415
-469,-342,0.92688,1.22168,0,0,0,0,0,0,0,-1,755,1366,0.926905,-1.22172
-462,-342,0.0387573,0.703491,0,0,0,0,0,0,0,-1,762,1366,0.0387277,-0.703536
-455,-342,-0.53186,1.47192,-0.0383687,0.0431373,-0.00377136,0.0433114,-0.0385428,-1.52466,0.0472853,0.0478233,769,1366,-0.531832,-1.47195
-448,-342,-0.937561,1.41479,-0.0487565,0.058056,-0.00404269,0.0582087,-0.0489093,-1.53302,0.0619223,0.048289,776,1366,-0.937558,-1.41475
-441,-342,0,0,0,0,0,0,0,0,0,-1,783,1366,0,0
-434,-342,0,0,0,0,0,0,0,0,0,-1,790,1366,0,0
-427,-342,0,0,0,0,0,0,0,0,0,-1,797,1366,0,0
-420,-342,0,0,0,0,0,0,0,0,0,-1,804,1366,0,0
-413,-342,0,0,0,0,0,0,0,0,0,-1,811,1366,0,0
-406,-342,0,0,0,0,0,0,0,0,0,-1,818,1366,0,0
-399,-342,0,0,0,0,0,0,0,0,0,-1,825,1366,0,0
-392,-342,0,0,0,0,0,0,0,0,0,-1,832,1366,0,0
-385,-342,0,0,0,0,0,0,0,0,0,-1,839,1366,0,0
-378,-342,0,0,0,0,0,0,0,0,0,-1,846,1366,0,0
-371,-342,0,0,0,0,0,0,0,0,0,-1,853,1366,0,0
-364,-342,0,0,0,0,0,0,0,0,0,-1,860,1366,0,0
-357,-342,0,0,0,0,0,0,0,0,0,-1,867,1366,0,0
-350,-342,0,0,0,0,0,0,0,0,0,-1,874,1366,0,0
-343,-342,0,0,0,0,0,0,0,0,0,-1,881,1366,0,0
-336,-342,0,0,0,0,0,0,0,0,0,-1,888,1366,0,0
-329,-342,0,0,0,0,0,0,0,0,0,-1,895,1366,0,0
-322,-342,0,0,0,0,0,0,0,0,0,-1,902,1366,0,0
-315,-342,0,0,0,0,0,0,0,0,0,-1,909,1366,0,0
-308,-342,0,0,0,0,0,0,0,0,0,-1,916,1366,0,0
-301,-342,0,0,0,0,0,0,0,0,0,-1,923,1366,0,0
-294,-342,0,0,0,0,0,0,0,0,0,-1,930,1366,0,0
-287,-342,0,0,0,0,0,0,0,0,0,-1,937,1366,0,0
-280,-342,0,0,0,0,0,0,0,0,0,-1,944,1366,0,0
-273,-342,0,0,0,0,0,0,0,0,0,-1,951,1366,0,0
-266,-342,0,0,0,0,0,0,0,0,0,-1,958,1366,0,0
-259,-342,0,0,0,0,0,0,0,0,0,-1,965,1366,0,0
-252,-342,0,0,0,0,0,0,0,0,0,-1,972,1366,0,0
-245,-342,0,0,0,0,0,0,0,0,0,-1,979,1366,0,0
-238,-342,0,0,0,0,0,0,0,0,0,-1,986,1366,0,0
-231,-342,0,0,0,0,0,0,0,0,0,-1,993,1366,0,0
-224,-342,0,0,0,0,0,0,0,0,0,-1,1000,1366,0,0
-217,-342,0,0,0,0,0,0,0,0,0,-1,1007,1366,0,0
-210,-342,0,0,0,0,0,0,0,0,0,-1,1014,1366,0,0
-203,-342,0,0,0,0,0,0,0,0,0,-1,1021,1366,0,0
-196,-342,0,0,0,0,0,0,0,0,0,-1,1028,1366,0,0
-189,-342,0,0,0,0,0,0,0,0,0,-1,1035,1366,0,0
-182,-342,0,0,0,0,0,0,0,0,0,-1,1042,1366,0,0
-175,-342,0,0,0,0,0,0,0,0,0,-1,1049,1366,0,0
-168,-342,0,0,0,0,0,0,0,0,0,-1,1056,1366,0,0
-161,-342,0,0,0,0,0,0,0,0,0,-1,1063,1366,0,0
-154,-342,0,0,0,0,0,0,0,0,0,-1,1070,1366,0,0
-147,-342,0,0,0,0,0,0,0,0,0,-1,1077,1366,0,0
-140,-342,0,0,0,0,0,0,0,0,0,-1,1084,1366,0,0
-133,-342,0,0,0,0,0,0,0,0,0,-1,1091,1366,0,0
-126,-342,0,0,0,0,0,0,0,0,0,-1,1098,1366,0,0
-119,-342,0,0,0,0,0,0,0,0,0,-1,1105,1366,0,0
-112,-342,0,0,0,0,0,0,0,0,0,-1,1112,1366,0,0
-105,-342,0,0,0,0,0,0,0,0,0,-1,1119,1366,0,0
-98,-342,0,0,0,0,0,0,0,0,0,-1,1126,1366,0,0
-91,-342,0,0,0,0,0,0,0,0,0,-1,1133,1366,0,0
-84,-342,0,0,0,0,0,0,0,0,0,-1,1140,1366,0,0
-77,-342,0,0,0,0,0,0,0,0,0,-1,1147,1366,0,0
-70,-342,0,0,0,0,0,0,0,0,0,-1,1154,1366,0,0
-63,-342,0,0,0,0,0,0,0,0,0,-1,1161,1366,0,0
-56,-342,0,0,0,0,0,0,0,0,0,-1,1168,1366,0,0
-49,-342,0,0,0,0,0,0,0,0,0,-1,1175,1366,0,0
-42,-342,0,0,0,0,0,0,0,0,0,-1,1182,1366,0,0
-35,-342,0,0,0,0,0,0,0,0,0,-1,1189,1366,0,0
-28,-342,0,0,0,0,0,0,0,0,0,-1,1196,1366,0,0
-21,-342,0,0,0,0,0,0,0,0,0,-1,1203,1366,0,0
-14,-342,0,0,0,0,0,0,0,0,0,-1,1210,1366,0,0
-7,-342,0,0,0,0,0,0,0,0,0,-1,1217,1366,0,0
0,-342,0,0,0,0,0,0,0,0,0,-1,1224,1366,0,0
7,-342,0,0,0,0,0,0,0,0,0,-1,1231,1366,0,0
14,-342,0,0,0,0,0,0,0,0,0,-1,1238,1366,0,0
21,-342,0,0,0,0,0,0,0,0,0,-1,1245,1366,0,0
28,-342,0,0,0,0,0,0,0,0,0,-1,1252,1366,0,0
35,-342,0,0,0,0,0,0,0,0,0,-1,1259,1366,0,0
42,-342,0,0,0,0,0,0,0,0,0,-1,1266,1366,0,0
49,-342,0,0,0,0,0,0,0,0,0,-1,1273,1366,0,0
56,-342,0,0,0,0,0,0,0,0,0,-1,1280,1366,0,0
63,-342,0,0,0,0,0,0,0,0,0,-1,1287,1366,0,0
70,-342,0,0,0,0,0,0,0,0,0,-1,1294,1366,0,0
77,-342,0,0,0,0,0,0,0,0,0,-1,1301,1366,0,0
84,-342,0,0,0,0,0,0,0,0,0,-1,1308,1366,0,0
91,-342,0,0,0,0,0,0,0,0,0,-1,1315,1366,0,0
98,-342,0,0,0,0,0,0,0,0,0,-1,1322,1366,0,0
105,-342,0,0,0,0,0,0,0,0,0,-1,1329,1366,0,0
112,-342,0,0,0,0,0,0,0,0,0,-1,1336,1366,0,0
119,-342,0,0,0,0,0,0,0,0,0,-1,1343,1366,0,0
126,-342,0,0,0,0,0,0,0,0,0,-1,1350,1366,0,0
133,-342,0,0,0,0,0,0,0,0,0,-1,1357,1366,0,0
140,-342,0,0,0,0,0,0,0,0,0,-1,1364,1366,0,0
147,-342,0,0,0,0,0,0,0,0,0,-1,1371,1366,0,0
154,-342,0,0,0,0,0,0,0,0,0,-1,1378,1366,0,0
161,-342,0,0,0,0,0,0,0,0,0,-1,1385,1366,0,0
168,-342,0,0,0,0,0,0,0,0,0,-1,1392,1366,0,0
175,-342,0,0,0,0,0,0,0,0,0,-1,1399,1366,0,0
182,-342,0,0,0,0,0,0,0,0,0,-1,1406,1366,0,0
189,-342,0,0,0,0,0,0,0,0,0,-1,1413,1366,0,0
196,-342,0,0,0,0,0,0,0,0,0,-1,1420,1366,0,0
203,-342,0,0,0,0,0,0,0,0,0,-1,1427,1366,0,0
210,-342,0,0,0,0,0,0,0,0,0,-1,1434,1366,0,0
217,-342,0,0,0,0,0,0,0,0,0,-1,1441,1366,0,0
224,-342,0,0,0,0,0,0,0,0,0,-1,1448,1366,0,0
231,-342,0,0,0,0,0,0,0,0,0,-1,1455,1366,0,0
238,-342,0,0,0,0,0,0,0,0,0,-1,1462,1366,0,0
245,-342,0,0,0,0,0,0,0,0,0,-1,1469,1366,0,0
252,-342,0,0,0,0,0,0,0,0,0,-1,1476,1366,0,0
259,-342,0,0,0,0,0,0,0,0,0,-1,1483,1366,0,0
266,-342,0,0,0,0,0,0,0,0,0,-1,1490,1366,0,0
273,-342,0,0,0,0,0,0,0,0,0,-1,1497,1366,0,0
280,-342,0,0,0,0,0,0,0,0,0,-1,1504,1366,0,0
287,-342,0,0,0,0,0,0,0,0,0,-1,1511,1366,0,0
294,-342,0,0,0,0,0,0,0,0,0,-1,1518,1366,0,0
301,-342,0,0,0,0,0,0,0,0,0,-1,1525,1366,0,0
308,-342,0,0,0,0,0,0,0,0,0,-1,1532,1366,0,0
315,-342,0,0,0,0,0,0,0,0,0,-1,1539,1366,0,0
322,-342,0,0,0,0,0,0,0,0,0,-1,1546,1366,0,0
329,-342,0,0,0,0,0,0,0,0,0,-1,1553,1366,0,0
336,-342,0,0,0,0,0,0,0,0,0,-1,1560,1366,0,0
343,-342,0,0,0,0,0,0,0,0,0,-1,1567,1366,0,0
350,-342,0,0,0,0,0,0,0,0,0,-1,1574,1366,0,0
357,-342,0,0,0,0,0,0,0,0,0,-1,1581,1366,0,0
364,-342,0,0,0,0,0,0,0,0,0,-1,1588,1366,0,0
371,-342,0,0,0,0,0,0,0,0,0,-1,1595,1366,0,0
378,-342,0,0,0,0,0,0,0,0,0,-1,1602,1366,0,0
385,-342,0,0,0,0,0,0,0,0,0,-1,1609,1366,0,0
392,-342,0,0,0,0,0,0,0,0,0,-1,1616,1366,0,0
399,-342,0,0,0,0,0,0,0,0,0,-1,1623,1366,0,0
406,-342,0,0,0,0,0,0,0,0,0,-1,1630,1366,0,0
413,-342,0,0,0,0,0,0,0,0,0,-1,1637,1366,0,0
420,-342,0,0,0,0,0,0,0,0,0,-1,1644,1366,0,0
427,-342,0,0,0,0,0,0,0,0,0,-1,1651,1366,0,0
434,-342,0,0,0,0,0,0,0,0,0,-1,1658,1366,0,0
441,-342,0,0,0,0,0,0,0,0,0,-1,1665,1366,0,0
448,-342,0,0,0,0,0,0,0,0,0,-1,1672,1366,0,0
455,-342,0,0,0,0,0,0,0,0,0,-1,1679,1366,0,0
462,-342,0,0,0,0,0,0,0,0,0,-1,1686,1366,0,0
469,-342,0,0,0,0,0,0,0,0,0,-1,1693,1366,0,0
476,-342,0,0,0,0,0,0,0,0,0,-1,1700,1366,0,0
483,-342,0,0,0,0,0,0,0,0,0,-1,1707,1366,0,0
490,-342,0,0,0,0,0,0,0,0,0,-1,1714,1366,0,0
497,-342,0,0,0,0,0,0,0,0,0,-1,1721,1366,0,0
504,-342,0,0,0,0,0,0,0,0,0,-1,1728,1366,0,0
511,-342,0,0,0,0,0,0,0,0,0,-1,1735,1366,0,0
518,-342,0,0,0,0,0,0,0,0,0,-1,1742,1366,0,0
525,-342,0,0,0,0,0,0,0,0,0,-1,1749,1366,0,0
532,-342,0,0,0,0,0,0,0,0,0,-1,1756,1366,0,0
539,-342,0,0,0,0,0,0,0,0,0,-1,1763,1366,0,0
546,-342,0,0,0,0,0,0,0,0,0,-1,1770,1366,0,0
553,-342,0,0,0,0,0,0,0,0,0,-1,1777,1366,0,0
560,-342,0,0,0,0,0,0,0,0,0,-1,1784,1366,0,0
567,-342,0.218994,1.41736,0,0,0,0,0,0,0,-1,1791,1366,0.21894,-1.41733
574,-342,0.384033,1.24304,-0.00186724,0.0285368,-0.00869474,0.0308477,-0.00417807,-1.31103,0.0220899,0.0470455,1798,1366,0.384032,-1.24303
581,-342,0.717529,0.824585,-0.00281689,0.0227478,-0.00671419,0.0244039,-0.004473,-1.32897,0.017947,0.0470094,1805,1366,0.717569,-0.824534
588,-342,0.626709,0.760864,0,0,0,0,0,0,0,-1,1812,1366,0.626721,-0.760857
595,-342,0.248169,-0.787964,0,0,0,0,0,0,0,-1,1819,1366,0.248124,0.788005
602,-342,-0.856812,-1.98572,0,0,0,0,0,0,0,-1,1826,1366,-0.856762,1.98568
609,-342,-0.553223,-1.57202,-0.00116687,0.000989279,0.000681915,0.00118684,-0.00136443,1.2888,0.00147417,0.0434568,1833,1366,-0.553273,1.57207
616,-342,-0.343018,-1.05017,-0.000421555,-0.00218219,0.00206499,0.000942933,-0.00354668,0.58391,0.00273352,0.0424194,1840,1366,-0.343025,1.05023
623,-342,-0.258545,-0.380005,0.000234152,-0.00435327,0.00305292,0.00175901,-0.00587812,0.463227,0.00461813,0.0479207,1847,1366,-0.258567,0.380048
630,-342,-0.16687,-0.243652,0,0,0,0,0,0,0,-1,1854,1366,-0.166867,0.243682
637,-342,0.0184326,0.053833,0,0,0,0,0,0,0,-1,1861,1366,0.0184097,-0.0538596
644,-342,-0.0325928,0.0616455,0.00134178,-0.0075103,0.00372191,0.00269868,-0.0088672,0.349597,0.00698697,0.0250425,1868,1366,-0.0326329,-0.0616222
651,-342,-0.0473633,0.0769043,0.00154725,-0.00682157,0.00339801,0.00275318,-0.0080275,0.341027,0.00646776,0.0145464,1875,1366,-0.0473111,-0.0769076
658,-342,-0.0408936,0.0861816,0.00140006,-0.00560383,0.00306991,0.00255515,-0.00675892,0.359876,0.00555705,0.0172075,1882,1366,-0.0409296,-0.0861577
665,-342,-0.0366211,0.0509033,0.000958601,-0.00493895,0.00248663,0.00186711,-0.00584745,0.350289,0.00464742,0.0149829,1889,1366,-0.0366352,-0.0509236
672,-342,-0.0393066,0.0693359,0.000448582,-0.00390462,0.00153483,0.000935306,-0.00439134,0.307087,0.00328403,0.0120817,1896,1366,-0.0393591,-0.0693437
679,-342,-0.0466309,0.0782471,0.000321512,-0.00307832,0.000946105,0.00056706,-0.00332386,0.253933,0.00242711,0.0114968,1903,1366,-0.0466821,-0.0782366
686,-342,-0.0515137,0.0609131,0.000357832,-0.00166148,0.00123332,0.000942066,-0.00224571,0.442394,0.00189107,0.00934598,1910,1366,-0.0514679,-0.0609212
693,-342,-0.0541992,0.0533447,0.000214941,-0.000752166,0.00105752,0.000894221,-0.00143145,0.570965,0.00135461,0.0104327,1917,1366,-0.0541904,-0.0533127
700,-342,-0.0681152,0.0654297,0.000476644,-0.000458327,0.000898368,0.00102188,-0.00100356,0.545492,0.00116941,0.0122177,1924,1366,-0.0681112,-0.0654811
707,-342,-0.0568848,0.0631104,0.00114738,-0.000123483,0.00106876,0.00175534,-0.000731445,0.517197,0.00147576,0.0120613,1931,1366,-0.0569303,-0.063128
714,-342,-0.0651855,0.0296631,0.00189885,0.000359742,0.00120086,0.00255558,-0.00029699,0.500447,0.00181085,0.0182998,1938,1366,-0.0651515,-0.0296035
721,-342,-0.0999756,-0.00268555,0.00302584,0.000856753,0.00124405,0.00359172,0.000290875,0.426895,0.00230365,0.0325372,1945,1366,-0.0999164,0.00265333
728,-342,-0.122437,0.209229,0.00458959,0.00162883,0.00121064,0.00502158,0.00119684,0.342747,0.00302866,0.0443075,1952,1366,-0.12249,-0.209265
735,-342,-0.0388184,0.619629,0.00677318,0.00269758,0.000973985,0.00699398,0.00247678,0.22293,0.00409485,0.0436482,1959,1366,-0.0388613,-0.619656
742,-342,-0.195679,0.197021,0.00973092,0.00409903,0.000463297,0.00976878,0.00406117,0.0815327,0.00566665,0.0455202,1966,1366,-0.195624,-0.197068
749,-342,-0.383057,-0.248657,0.0136218,0.00584081,-0.000391969,0.0136415,0.00582111,-0.0502057,0.00790408,0.0426727,1973,1366,-0.382998,0.248653
756,-342,0,0,0,0,0,0,0,0,0,-1,1980,1366,0,0
763,-342,0,0,0,0,0,0,0,0,0,-1,1987,1366,0,0
770,-342,0,0,0,0,0,0,0,0,0,-1,1994,1366,0,0
777,-342,0,0,0,0,0,0,0,0,0,-1,2001,1366,0,0
784,-342,0,0,0,0,0,0,0,0,0,-1,2008,1366,0,0
791,-342,0,0,0,0,0,0,0,0,0,-1,2015,1366,0,0
798,-342,0,0,0,0,0,0,0,0,0,-1,2022,1366,0,0
805,-342,0,0,0,0,0,0,0,0,0,-1,2029,1366,0,0
812,-342,0,0,0,0,0,0,0,0,0,-1,2036,1366,0,0
-700,-349,0,0,0,0,0,0,0,0,0,-1,524,1373,0,0
-693,-349,0,0,0,0,0,0,0,0,0,-1,531,1373,0,0
-686,-349,0,0,0,0,0,0,0,0,0,-1,538,1373,0,0
-679,-349,0,0,0,0,0,0,0,0,0,-1,545,1373,0,0
-672,-349,0,0,0,0,0,0,0,0,0,-1,552,1373,0,0
-665,-349,0,0,0,0,0,0,0,0,0,-1,559,1373,0,0
-658,-349,0,0,0,0,0,0,0,0,0,-1,566,1373,0,0
-651,-349,0,0,0,0,0,0,0,0,0,-1,573,1373,0,0
-644,-349,0,0,0,0,0,0,0,0,0,-1,580,1373,0,0
-637,-349,0,0,0,0,0,0,0,0,0,-1,587,1373,0,0
-630,-349,-1.73889,-1.99878,0,0,0,0,0,0,0,-1,594,1373,-1.73887,1.99878
-623,-349,-2.34406,-2.53503,0,0,0,0,0,0,0,-1,601,1373,-2.34405,2.53505
-616,-349,-3.01611,-3.09009,0,0,0,0,0,0,0,-1,608,1373,-3.01611,3.09003
-609,-349,-1.55798,-0.620605,0,0,0,0,0,0,0,-1,615,1373,-1.55796,0.620605
-602,-349,-1.25256,-0.454712,-0.000963724,0.0108558,0.00901711,0.0157272,-0.00583513,1.07548,0.0128783,0.0459245,622,1373,-1.25253,0.454679
-595,-349,-0.890869,-0.329956,0.0050249,0.00817975,0.0107126,0.0174305,-0.00422582,0.858497,0.0132554,0.0408563,629,1373,-0.890878,0.329995
-588,-349,-0.591064,-0.0756836,0.00870153,0.00600469,0.0112149,0.0186488,-0.00394261,0.725568,0.0139339,0.037346,636,1373,-0.59107,0.0756842
-581,-349,-0.0713501,0.0446777,0.0112897,0.00458588,0.0111926,0.0196215,-0.00374592,0.63991,0.0144919,0.028148,643,1373,-0.0713349,-0.044734
-574,-349,-0.0267944,0.0532227,0.010975,0.00325041,0.00963901,0.0174967,-0.00327131,0.594846,0.012894,0.0131499,650,1373,-0.0267984,-0.0531933
-567,-349,-0.0144653,0.0914307,0.00893653,0.00255101,0.00763683,0.0140211,-0.00253361,0.587403,0.0102964,0.0143792,657,1373,-0.0144866,-0.0914868
-560,-349,-0.0180054,0.0944824,0.00678547,0.00181589,0.00592495,0.0107256,-0.00212421,0.586849,0.00795357,0.0181832,664,1373,-0.0180113,-0.0945326
-553,-349,-0.029541,0.0574951,0.00488579,0.00118865,0.00443226,0.00783952,-0.00176509,0.58783,0.00590333,0.0243563,671,1373,-0.0295259,-0.0574564
-546,-349,-0.00390625,0.0611572,0.0034485,0.000487642,0.00309715,0.00540085,-0.00146471,0.562453,0.00417534,0.0270159,678,1373,-0.0039193,-0.0611821
-539,-349,-0.0112305,0.0722656,0.00199835,-0.000588201,0.00204259,0.00312266,-0.00171251,0.503177,0.00283088,0.0212943,685,1373,-0.0112458,-0.0722322
-532,-349,-0.0340576,0.085083,0.000740814,-0.00191517,0.00114025,0.00116318,-0.00233753,0.354742,0.00205869,0.015846,692,1373,-0.0340607,-0.0850885
-525,-349,-0.0327148,0.0759277,-0.000130854,-0.0029222,0.00079253,7.84673e-05,-0.00313152,0.258221,0.00211432,0.0114593,699,1373,-0.0327016,-0.0759762
-518,-349,-0.0354614,0.0679932,-0.00056431,-0.00368888,0.000712793,-0.000409386,-0.00384381,0.214019,0.00243756,0.00930505,706,1373,-0.0354877,-0.068026
-511,-349,-0.015625,0.0386963,-0.00220436,-0.00387349,0.000854146,-0.00184475,-0.0042331,0.398497,0.00245069,0.0160979,713,1373,-0.0156292,-0.0386554
-504,-349,-0.0316162,0.0466309,-0.00403694,-0.00282759,0.000732302,-0.00248258,-0.00438194,1.13051,0.00253737,0.0361382,720,1373,-0.0316188,-0.0465927
-497,-349,0.041748,-0.285034,-0.0062199,0.00109254,-0.000207935,0.00109845,-0.0062258,-1.54239,0.00456099,0.042167,727,1373,0.0417212,0.284981
-490,-349,0.198608,-0.700928,-0.00919822,0.00439848,-0.000807219,0.00444624,-0.00924598,-1.5117,0.00806548,0.0411899,734,1373,0.198606,0.700882
-483,-349,0.427002,-1.08569,0,0,0,0,0,0,0,-1,741,1373,0.427001,1.08564
-476,-349,0.949524,0.565918,0,0,0,0,0,0,0,-1,748,1373,0.949526,-0.565887
-469,-349,0.413025,0.632202,0,0,0,0,0,0,0,-1,755,1373,0.413007,-0.63225
-462,-349,-0.183899,0.674927,-0.0301934,0.0313432,-0.00373087,0.0315685,-0.0304188,-1.51046,0.0357905,0.0466819,762,1373,-0.183874,-0.674869
-455,-349,-0.765503,0.810913,-0.0381668,0.0417932,-0.00401382,0.0419942,-0.0383677,-1.52077,0.0464127,0.0470416,769,1373,-0.765509,-0.810887
-448,-349,-1.22845,0.900513,-0.04784,0.0532303,-0.00325153,0.0533348,-0.0479445,-1.53867,0.0585012,0.0466938,776,1373,-1.22846,-0.900483
-441,-349,0,0,0,0,0,0,0,0,0,-1,783,1373,0,0
-434,-349,0,0,0,0,0,0,0,0,0,-1,790,1373,0,0
-427,-349,0,0,0,0,0,0,0,0,0,-1,797,1373,0,0
-420,-349,0,0,0,0,0,0,0,0,0,-1,804,1373,0,0
-413,-349,0,0,0,0,0,0,0,0,0,-1,811,1373,0,0
-406,-349,0,0,0,0,0,0,0,0,0,-1,818,1373,0,0
-399,-349,0,0,0,0,0,0,0,0,0,-1,825,1373,0,0
-392,-349,0,0,0,0,0,0,0,0,0,-1,832,1373,0,0
-385,-349,0,0,0,0,0,0,0,0,0,-1,839,1373,0,0
-378,-349,0,0,0,0,0,0,0,0,0,-1,846,1373,0,0
-371,-349,0,0,0,0,0,0,0,0,0,-1,853,1373,0,0
-364,-349,0,0,0,0,0,0,0,0,0,-1,860,1373,0,0
-357,-349,0,0,0,0,0,0,0,0,0,-1,867,1373,0,0
-350,-349,0,0,0,0,0,0,0,0,0,-1,874,1373,0,0
-343,-349,0,0,0,0,0,0,0,0,0,-1,881,1373,0,0
-336,-349,0,0,0,0,0,0,0,0,0,-1,888,1373,0,0
-329,-349,0,0,0,0,0,0,0,0,0,-1,895,1373,0,0
-322,-349,0,0,0,0,0,0,0,0,0,-1,902,1373,0,0
-315,-349,0,0,0,0,0,0,0,0,0,-1,909,1373,0,0
-308,-349,0,0,0,0,0,0,0,0,0,-1,916,1373,0,0
-301,-349,0,0,0,0,0,0,0,0,0,-1,923,1373,0,0
-294,-349,0,0,0,0,0,0,0,0,0,-1,930,1373,0,0
-287,-349,0,0,0,0,0,0,0,0,0,-1,937,1373,0,0
-280,-349,0,0,0,0,0,0,0,0,0,-1,944,1373,0,0
-273,-349,0,0,0,0,0,0,0,0,0,-1,951,1373,0,0
-266,-349,0,0,0,0,0,0,0,0,0,-1,958,1373,0,0
-259,-349,0,0,0,0,0,0,0,0,0,-1,965,1373,0,0
-252,-349,0,0,0,0,0,0,0,0,0,-1,972,1373,0,0
-245,-349,0,0,0,0,0,0,0,0,0,-1,979,1373,0,0
-238,-349,0,0,0,0,0,0,0,0,0,-1,986,1373,0,0
-231,-349,0,0,0,0,0,0,0,0,0,-1,993,1373,0,0
-224,-349,0,0,0,0,0,0,0,0,0,-1,1000,1373,0,0
-217,-349,0,0,0,0,0,0,0,0,0,-1,1007,1373,0,0
-210,-349,0,0,0,0,0,0,0,0,0,-1,1014,1373,0,0
-203,-349,0,0,0,0,0,0,0,0,0,-1,1021,1373,0,0
-196,-349,0,0,0,0,0,0,0,0,0,-1,1028,1373,0,0
-189,-349,0,0,0,0,0,0,0,0,0,-1,1035,1373,0,0
-182,-349,0,0,0,0,0,0,0,0,0,-1,1042,1373,0,0
-175,-349,0,0,0,0,0,0,0,0,0,-1,1049,1373,0,0
-168,-349,0,0,0,0,0,0,0,0,0,-1,1056,1373,0,0
-161,-349,0,0,0,0,0,0,0,0,0,-1,1063,1373,0,0
-154,-349,0,0,0,0,0,0,0,0,0,-1,1070,1373,0,0
-147,-349,0,0,0,0,0,0,0,0,0,-1,1077,1373,0,0
-140,-349,0,0,0,0,0,0,0,0,0,-1,1084,1373,0,0
-133,-349,0,0,0,0,0,0,0,0,0,-1,1091,1373,0,0
-126,-349,0,0,0,0,0,0,0,0,0,-1,1098,1373,0,0
-119,-349,0,0,0,0,0,0,0,0,0,-1,1105,1373,0,0
-112,-349,0,0,0,0,0,0,0,0,0,-1,1112,1373,0,0
-105,-349,0,0,0,0,0,0,0,0,0,-1,1119,1373,0,0
-98,-349,0,0,0,0,0,0,0,0,0,-1,1126,1373,0,0
-91,-349,0,0,0,0,0,0,0,0,0,-1,1133,1373,0,0
-84,-349,0,0,0,0,0,0,0,0,0,-1,1140,1373,0,0
-77,-349,0,0,0,0,0,0,0,0,0,-1,1147,1373,0,0
-70,-349,0,0,0,0,0,0,0,0,0,-1,1154,1373,0,0
-63,-349,0,0,0,0,0,0,0,0,0,-1,1161,1373,0,0
-56,-349,0,0,0,0,0,0,0,0,0,-1,1168,1373,0,0
-49,-349,0,0,0,0,0,0,0,0,0,-1,1175,1373,0,0
-42,-349,0,0,0,0,0,0,0,0,0,-1,1182,1373,0,0
-35,-349,0,0,0,0,0,0,0,0,0,-1,1189,1373,0,0
-28,-349,0,0,0,0,0,0,0,0,0,-1,1196,1373,0,0
-21,-349,0,0,0,0,0,0,0,0,0,-1,1203,1373,0,0
-14,-349,0,0,0,0,0,0,0,0,0,-1,1210,1373,0,0
-7,-349,0,0,0,0,0,0,0,0,0,-1,1217,1373,0,0
0,-349,0,0,0,0,0,0,0,0,0,-1,1224,1373,0,0
7,-349,0,0,0,0,0,0,0,0,0,-1,1231,1373,0,0
14,-349,0,0,0,0,0,0,0,0,0,-1,1238,1373,0,0
21,-349,0,0,0,0,0,0,0,0,0,-1,1245,1373,0,0
28,-349,0,0,0,0,0,0,0,0,0,-1,1252,1373,0,0
35,-349,0,0,0,0,0,0,0,0,0,-1,1259,1373,0,0
42,-349,0,0,0,0,0,0,0,0,0,-1,1266,1373,0,0
49,-349,0,0,0,0,0,0,0,0,0,-1,1273,1373,0,0
56,-349,0,0,0,0,0,0,0,0,0,-1,1280,1373,0,0
63,-349,0,0,0,0,0,0,0,0,0,-1,1287,1373,0,0
70,-349,0,0,0,0,0,0,0,0,0,-1,1294,1373,0,0
77,-349,0,0,0,0,0,0,0,0,0,-1,1301,1373,0,0
84,-349,0,0,0,0,0,0,0,0,0,-1,1308,1373,0,0
91,-349,0,0,0,0,0,0,0,0,0,-1,1315,1373,0,0
98,-349,0,0,0,0,0,0,0,0,0,-1,1322,1373,0,0
105,-349,0,0,0,0,0,0,0,0,0,-1,1329,1373,0,0
112,-349,0,0,0,0,0,0,0,0,0,-1,1336,1373,0,0
119,-349,0,0,0,0,0,0,0,0,0,-1,1343,1373,0,0
126,-349,0,0,0,0,0,0,0,0,0,-1,1350,1373,0,0
133,-349,0,0,0,0,0,0,0,0,0,-1,1357,1373,0,0
140,-349,0,0,0,0,0,0,0,0,0,-1,1364,1373,0,0
147,-349,0,0,0,0,0,0,0,0,0,-1,1371,1373,0,0
154,-349,0,0,0,0,0,0,0,0,0,-1,1378,1373,0,0
161,-349,0,0,0,0,0,0,0,0,0,-1,1385,1373,0,0
168,-349,0,0,0,0,0,0,0,0,0,-1,1392,1373,0,0
175,-349,0,0,0,0,0,0,0,0,0,-1,1399,1373,0,0
182,-349,0,0,0,0,0,0,0,0,0,-1,1406,1373,0,0
189,-349,0,0,0,0,0,0,0,0,0,-1,1413,1373,0,0
196,-349,0,0,0,0,0,0,0,0,0,-1,1420,1373,0,0
203,-349,0,0,0,0,0,0,0,0,0,-1,1427,1373,0,0
210,-349,0,0,0,0,0,0,0,0,0,-1,1434,1373,0,0
217,-349,0,0,0,0,0,0,0,0,0,-1,1441,1373,0,0
224,-349,0,0,0,0,0,0,0,0,0,-1,1448,1373,0,0
231,-349,0,0,0,0,0,0,0,0,0,-1,1455,1373,0,0
238,-349,0,0,0,0,0,0,0,0,0,-1,1462,1373,0,0
245,-349,0,0,0,0,0,0,0,0,0,-1,1469,1373,0,0
252,-349,0,0,0,0,0,0,0,0,0,-1,1476,1373,0,0
259,-349,0,0,0,0,0,0,0,0,0,-1,1483,1373,0,0
266,-349,0,0,0,0,0,0,0,0,0,-1,1490,1373,0,0
273,-349,0,0,0,0,0,0,0,0,0,-1,1497,1373,0,0
280,-349,0,0,0,0,0,0,0,0,0,-1,1504,1373,0,0
287,-349,0,0,0,0,0,0,0,0,0,-1,1511,1373,0,0
294,-349,0,0,0,0,0,0,0,0,0,-1,1518,1373,0,0
301,-349,0,0,0,0,0,0,0,0,0,-1,1525,1373,0,0
308,-349,0,0,0,0,0,0,0,0,0,-1,1532,1373,0,0
315,-349,0,0,0,0,0,0,0,0,0,-1,1539,1373,0,0
322,-349,0,0,0,0,0,0,0,0,0,-1,1546,1373,0,0
329,-349,0,0,0,0,0,0,0,0,0,-1,1553,1373,0,0
336,-349,0,0,0,0,0,0,0,0,0,-1,1560,1373,0,0
343,-349,0,0,0,0,0,0,0,0,0,-1,1567,1373,0,0
350,-349,0,0,0,0,0,0,0,0,0,-1,1574,1373,0,0
357,-349,0,0,0,0,0,0,0,0,0,-1,1581,1373,0,0
364,-349,0,0,0,0,0,0,0,0,0,-1,1588,1373,0,0
371,-349,0,0,0,0,0,0,0,0,0,-1,1595,1373,0,0
378,-349,0,0,0,0,0,0,0,0,0,-1,1602,1373,0,0
385,-349,0,0,0,0,0,0,0,0,0,-1,1609,1373,0,0
392,-349,0,0,0,0,0,0,0,0,0,-1,1616,1373,0,0
399,-349,0,0,0,0,0,0,0,0,0,-1,1623,1373,0,0
406,-349,0,0,0,0,0,0,0,0,0,-1,1630,1373,0,0
413,-349,0,0,0,0,0,0,0,0,0,-1,1637,1373,0,0
420,-349,0,0,0,0,0,0,0,0,0,-1,1644,1373,0,0
427,-349,0,0,0,0,0,0,0,0,0,-1,1651,1373,0,0
434,-349,0,0,0,0,0,0,0,0,0,-1,1658,1373,0,0
441,-349,0,0,0,0,0,0,0,0,0,-1,1665,1373,0,0
448,-349,0,0,0,0,0,0,0,0,0,-1,1672,1373,0,0
455,-349,0,0,0,0,0,0,0,0,0,-1,1679,1373,0,0
462,-349,0,0,0,0,0,0,0,0,0,-1,1686,1373,0,0
469,-349,0,0,0,0,0,0,0,0,0,-1,1693,1373,0,0
476,-349,0,0,0,0,0,0,0,0,0,-1,1700,1373,0,0
483,-349,0,0,0,0,0,0,0,0,0,-1,1707,1373,0,0
490,-349,0,0,0,0,0,0,0,0,0,-1,1714,1373,0,0
497,-349,0,0,0,0,0,0,0,0,0,-1,1721,1373,0,0
504,-349,0,0,0,0,0,0,0,0,0,-1,1728,1373,0,0
511,-349,0,0,0,0,0,0,0,0,0,-1,1735,1373,0,0
518,-349,0,0,0,0,0,0,0,0,0,-1,1742,1373,0,0
525,-349,0,0,0,0,0,0,0,0,0,-1,1749,1373,0,0
532,-349,0,0,0,0,0,0,0,0,0,-1,1756,1373,0,0
539,-349,0,0,0,0,0,0,0,0,0,-1,1763,1373,0,0
546,-349,0,0,0,0,0,0,0,0,0,-1,1770,1373,0,0
553,-349,0,0,0,0,0,0,0,0,0,-1,1777,1373,0,0
560,-349,-0.769653,-0.625977,0,0,0,0,0,0,0,-1,1784,1373,-0.769666,0.626036
567,-349,-1.1499,-0.574219,0,0,0,0,0,0,0,-1,1791,1373,-1.14984,0.57416
574,-349,-0.983765,-0.121216,0.000650564,0.0205223,-0.00691054,0.0226892,-0.00151634,-1.26694,0.0156561,0.0453679,1798,1373,-0.983741,0.121202
581,-349,0.819092,0.68457,-0.000164494,0.0157124,-0.00533114,0.0173364,-0.00178847,-1.27511,0.0121976,0.0450539,1805,1373,0.819134,-0.684537
588,-349,-0.081665,-1.02234,0,0,0,0,0,0,0,-1,1812,1373,-0.0816333,1.02229
595,-349,0.095459,-0.589355,0.000113853,0.00533673,-0.0020633,0.00605347,-0.000602893,-1.23646,0.00425089,0.0411998,1819,1373,0.0955027,0.58935
602,-349,-0.502808,-1.18164,0.000777247,0.00103489,-0.000373432,0.0013011,0.000511042,-0.951492,0.000756924,0.0440069,1826,1373,-0.50282,1.18167
609,-349,-0.693604,-0.964722,0.00133863,-0.00248014,0.00104255,0.00160472,-0.00274623,0.249888,0.00254067,0.0423705,1833,1373,-0.69366,0.964759
616,-349,-0.704956,-0.589355,0.00190537,-0.00501247,0.00221266,0.00255254,-0.00565964,0.284549,0.00485311,0.0406565,1840,1373,-0.704981,0.589322
623,-349,-0.25293,-0.271851,0.00234834,-0.00654721,0.00304019,0.00328809,-0.00748697,0.299794,0.00637649,0.043839,1847,1373,-0.252906,0.271844
630,-349,-0.162354,-0.182373,0.00209671,-0.00879149,0.00282769,0.00278727,-0.00948205,0.239525,0.00742689,0.0454758,1854,1373,-0.162369,0.182407
637,-349,-0.0982666,-0.0275879,0.00264321,-0.00896283,0.00351349,0.00362397,-0.00994359,0.272212,0.00811154,0.0374584,1861,1373,-0.0982435,0.0275566
644,-349,-0.0284424,0.0709229,0.00271018,-0.00824033,0.00336432,0.0036612,-0.00919135,0.275491,0.00764596,0.0214908,1868,1373,-0.0284249,-0.0708805
651,-349,-0.0718994,0.0631104,0.00258752,-0.00717773,0.00299827,0.00343461,-0.00802482,0.27535,0.00679073,0.018827,1875,1373,-0.071928,-0.0631511
658,-349,-0.0795898,0.0679932,0.00219634,-0.00562075,0.002674,0.00302351,-0.00644792,0.300002,0.0055862,0.0235431,1882,1373,-0.0796236,-0.0679756
665,-349,-0.0605469,0.0461426,0.0015786,-0.00465569,0.00211896,0.00223062,-0.00530771,0.298512,0.00447149,0.0186131,1889,1373,-0.0605129,-0.0461908
672,-349,-0.0548096,0.0606689,0.000932141,-0.00345269,0.00130562,0.00129146,-0.00381201,0.268559,0.00306393,0.0134339,1896,1373,-0.0548626,-0.0606864
679,-349,-0.0634766,0.0721436,0.000637744,-0.00257729,0.000846176,0.000846852,-0.0027864,0.242267,0.00219503,0.0119761,1903,1373,-0.0635201,-0.0721032
686,-349,-0.0476074,0.0649414,0.000537086,-0.00123562,0.00108661,0.001053,-0.00175153,0.443276,0.00163585,0.00980188,1910,1373,-0.0475657,-0.0649324
693,-349,-0.0456543,0.071167,0.000397137,-0.000465254,0.000963564,0.00102159,-0.0010897,0.575011,0.00121916,0.0123045,1917,1373,-0.0457152,-0.0711795
700,-349,-0.0655518,0.0806885,0.000606452,-0.000253272,0.000834351,0.00111517,-0.000761985,0.547529,0.00109015,0.014706,1924,1373,-0.0655033,-0.0807117
707,-349,-0.0653076,0.069458,0.00124696,-1.35424e-06,0.00100139,0.00180279,-0.000557178,0.506713,0.00142438,0.0144372,1931,1373,-0.0653423,-0.0694885
714,-349,-0.0511475,0.0498047,0.00198115,0.000366602,0.00107829,0.00252087,-0.000173119,0.464076,0.00174116,0.0157671,1938,1373,-0.0511726,-0.0497971
721,-349,-0.0899658,0.18689,0.003111,0.000784381,0.00103864,0.0035072,0.000388187,0.364419,0.00222008,0.0304556,1945,1373,-0.0899989,-0.186835
728,-349,-0.188477,0.414673,0.00472408,0.00143789,0.000819465,0.00491709,0.00124488,0.231316,0.00295194,0.0425581,1952,1373,-0.188453,-0.414718
735,-349,-0.199707,0.670288,0.00701406,0.00235508,0.000311959,0.00703486,0.00233428,0.0665626,0.00413746,0.0452825,1959,1373,-0.199741,-0.670308
742,-349,0.0708008,0.393677,0.0101772,0.0035723,-0.000569446,0.010226,0.00352357,-0.0853758,0.00599829,0.0480889,1966,1373,0.0708425,-0.393711
749,-349,-0.282715,-0.142212,0.0144279,0.00509349,-0.00190692,0.0148024,0.00471896,-0.19394,0.00873123,0.0459457,1973,1373,-0.282675,0.142209
756,-349,0,0,0,0,0,0,0,0,0,-1,1980,1373,0,0
763,-349,0,0,0,0,0,0,0,0,0,-1,1987,1373,0,0
770,-349,0,0,0,0,0,0,0,0,0,-1,1994,1373,0,0
777,-349,0,0,0,0,0,0,0,0,0,-1,2001,1373,0,0
784,-349,0,0,0,0,0,0,0,0,0,-1,2008,1373,0,0
791,-349,0,0,0,0,0,0,0,0,0,-1,2015,1373,0,0
798,-349,0,0,0,0,0,0,0,0,0,-1,2022,1373,0,0
805,-349,0,0,0,0,0,0,0,0,0,-1,2029,1373,0,0
812,-349,0,0,0,0,0,0,0,0,0,-1,2036,1373,0,0
-700,-356,0,0,0,0,0,0,0,0,0,-1,524,1380,0,0
-693,-356,0,0,0,0,0,0,0,0,0,-1,531,1380,0,0
-686,-356,0,0,0,0,0,0,0,0,0,-1,538,1380,0,0
-679,-356,0,0,0,0,0,0,0,0,0,-1,545,1380,0,0
-672,-356,0,0,0,0,0,0,0,0,0,-1,552,1380,0,0
-665,-356,0,0,0,0,0,0,0,0,0,-1,559,1380,0,0
-658,-356,0,0,0,0,0,0,0,0,0,-1,566,1380,0,0
-651,-356,0,0,0,0,0,0,0,0,0,-1,573,1380,0,0
-644,-356,0,0,0,0,0,0,0,0,0,-1,580,1380,0,0
-637,-356,0,0,0,0,0,0,0,0,0,-1,587,1380,0,0
-630,-356,-0.181458,1.89014,0,0,0,0,0,0,0,-1,594,1380,-0.181482,-1.89011
-623,-356,-0.0480957,1.58643,0,0,0,0,0,0,0,-1,601,1380,-0.0481215,-1.58639
-616,-356,0.0458374,1.27185,0,0,0,0,0,0,0,-1,608,1380,0.0458661,-1.27188
-609,-356,-1.81201,-0.186035,0,0,0,0,0,0,0,-1,615,1380,-1.81201,0.185987
-602,-356,-1.72015,-0.412476,-0.00392964,0.0113423,0.0105958,0.016767,-0.00935428,1.09763,0.0152822,0.0486894,622,1380,-1.72018,0.412468
-595,-356,-1.44849,-0.457397,0.00314172,0.00883468,0.012438,0.0187478,-0.00677139,0.897888,0.0152648,0.0437692,629,1380,-1.44849,0.457433
-588,-356,-0.434448,-0.448975,0.00752288,0.00672287,0.0129047,0.0200337,-0.00578798,0.769905,0.0156462,0.0413743,636,1380,-0.434439,0.448971
-581,-356,-0.0950317,-0.194092,0.0105321,0.00522783,0.0127372,0.0208904,-0.00513044,0.682755,0.0159151,0.0319132,643,1380,-0.0950108,0.194113
-574,-356,-0.0162354,0.0151367,0.01061,0.00375563,0.0110207,0.0187241,-0.00435847,0.634649,0.014161,0.0183687,650,1380,-0.0162117,-0.0151749
-567,-356,-0.0249023,0.06604,0.0088634,0.00292698,0.00876652,0.0151506,-0.00336019,0.622163,0.0113869,0.0146153,657,1380,-0.0248949,-0.065984
-560,-356,-0.0119629,0.074707,0.00690327,0.00211854,0.00679218,0.0117121,-0.00269028,0.616071,0.00884231,0.0166585,664,1380,-0.0119523,-0.074753
-553,-356,-0.00775146,0.0518799,0.00519185,0.00146095,0.00506387,0.00872295,-0.00207015,0.60892,0.00661423,0.0202174,671,1380,-0.00777783,-0.0519282
-546,-356,-0.00897217,0.0523682,0.00388866,0.000819911,0.00355386,0.00622523,-0.00151666,0.581612,0.00473734,0.0214747,678,1380,-0.00897931,-0.052341
-539,-356,-0.0265503,0.0749512,0.00233273,-0.000160685,0.00226202,0.00366886,-0.00149681,0.533537,0.00306902,0.0141542,685,1380,-0.0265527,-0.0749932
-532,-356,-0.0547485,0.088501,0.000957447,-0.00141907,0.00110065,0.00138888,-0.0018505,0.373571,0.00187657,0.0137792,692,1380,-0.0547496,-0.0885419
-525,-356,-0.0551758,0.0892334,-0.000120002,-0.00230945,0.000569142,1.91065e-05,-0.00244856,0.239718,0.00163878,0.0118451,699,1380,-0.0551528,-0.0892833
-518,-356,-0.0310059,0.0853271,-0.000643978,-0.00300566,0.000467395,-0.000554841,-0.0030948,0.188447,0.00190537,0.0108756,706,1380,-0.03103,-0.0852928
-511,-356,-0.0106201,0.0810547,-0.00215002,-0.00315809,0.000553666,-0.00190532,-0.00340278,0.416144,0.0019693,0.0142296,713,1380,-0.0106302,-0.0810654
-504,-356,0.0369263,0.0699463,-0.00359115,-0.00166177,7.57146e-07,-0.00166177,-0.00359115,1.5704,0.00207527,0.0253868,720,1380,0.0369437,-0.0699523
-497,-356,-0.00512695,-0.0614014,-0.00550081,0.00274601,-0.00130409,0.00294731,-0.00570211,-1.41764,0.00507747,0.0395451,727,1380,-0.00509733,0.0613785
-490,-356,0.0423584,-0.287842,-0.00822018,0.00635513,-0.00216408,0.00666966,-0.0085347,-1.42647,0.00880023,0.0443306,734,1380,0.0423719,0.287899
-483,-356,0.175903,-0.523193,0,0,0,0,0,0,0,-1,741,1380,0.175932,0.52325
-476,-356,0.112061,-0.282471,0,0,0,0,0,0,0,-1,748,1380,0.112082,0.282413
-469,-356,0.188049,0.518677,0,0,0,0,0,0,0,-1,755,1380,0.188078,-0.518642
-462,-356,-0.412659,0.605103,-0.0278171,0.0333015,-0.0058275,0.0338521,-0.0283677,-1.47658,0.0359692,0.0461282,762,1380,-0.41267,-0.605086
-455,-356,-1.01111,0.722778,-0.0353659,0.0431769,-0.00619901,0.0436632,-0.0358522,-1.49252,0.045982,0.0469016,769,1380,-1.01108,-0.72281
-448,-356,-1.40247,0.768677,-0.0444967,0.0533953,-0.00541179,0.0536936,-0.044795,-1.51574,0.0569397,0.0459864,776,1380,-1.40248,-0.768678
-441,-356,-1.76752,0.901367,0,0,0,0,0,0,0,-1,783,1380,-1.76752,-0.901388
-434,-356,0,0,0,0,0,0,0,0,0,-1,790,1380,0,0
-427,-356,0,0,0,0,0,0,0,0,0,-1,797,1380,0,0
-420,-356,0,0,0,0,0,0,0,0,0,-1,804,1380,0,0
-413,-356,0,0,0,0,0,0,0,0,0,-1,811,1380,0,0
-406,-356,0,0,0,0,0,0,0,0,0,-1,818,1380,0,0
-399,-356,0,0,0,0,0,0,0,0,0,-1,825,1380,0,0
-392,-356,0,0,0,0,0,0,0,0,0,-1,832,1380,0,0
-385,-356,0,0,0,0,0,0,0,0,0,-1,839,1380,0,0
-378,-356,0,0,0,0,0,0,0,0,0,-1,846,1380,0,0
-371,-356,0,0,0,0,0,0,0,0,0,-1,853,1380,0,0
-364,-356,0,0,0,0,0,0,0,0,0,-1,860,1380,0,0
-357,-356,0,0,0,0,0,0,0,0,0,-1,867,1380,0,0
-350,-356,0,0,0,0,0,0,0,0,0,-1,874,1380,0,0
-343,-356,0,0,0,0,0,0,0,0,0,-1,881,1380,0,0
-336,-356,0,0,0,0,0,0,0,0,0,-1,888,1380,0,0
-329,-356,0,0,0,0,0,0,0,0,0,-1,895,1380,0,0
-322,-356,0,0,0,0,0,0,0,0,0,-1,902,1380,0,0
-315,-356,0,0,0,0,0,0,0,0,0,-1,909,1380,0,0
-308,-356,0,0,0,0,0,0,0,0,0,-1,916,1380,0,0
-301,-356,0,0,0,0,0,0,0,0,0,-1,923,1380,0,0
-294,-356,0,0,0,0,0,0,0,0,0,-1,930,1380,0,0
-287,-356,0,0,0,0,0,0,0,0,0,-1,937,1380,0,0
-280,-356,0,0,0,0,0,0,0,0,0,-1,944,1380,0,0
-273,-356,0,0,0,0,0,0,0,0,0,-1,951,1380,0,0
-266,-356,0,0,0,0,0,0,0,0,0,-1,958,1380,0,0
-259,-356,0,0,0,0,0,0,0,0,0,-1,965,1380,0,0
-252,-356,0,0,0,0,0,0,0,0,0,-1,972,1380,0,0
-245,-356,0,0,0,0,0,0,0,0,0,-1,979,1380,0,0
-238,-356,0,0,0,0,0,0,0,0,0,-1,986,1380,0,0
-231,-356,0,0,0,0,0,0,0,0,0,-1,993,1380,0,0
-224,-356,0,0,0,0,0,0,0,0,0,-1,1000,1380,0,0
-217,-356,0,0,0,0,0,0,0,0,0,-1,1007,1380,0,0
-210,-356,0,0,0,0,0,0,0,0,0,-1,1014,1380,0,0
-203,-356,0,0,0,0,0,0,0,0,0,-1,1021,1380,0,0
-196,-356,0,0,0,0,0,0,0,0,0,-1,1028,1380,0,0
-189,-356,0,0,0,0,0,0,0,0,0,-1,1035,1380,0,0
-182,-356,0,0,0,0,0,0,0,0,0,-1,1042,1380,0,0
-175,-356,0,0,0,0,0,0,0,0,0,-1,1049,1380,0,0
-168,-356,0,0,0,0,0,0,0,0,0,-1,1056,1380,0,0
-161,-356,0,0,0,0,0,0,0,0,0,-1,1063,1380,0,0
-154,-356,0,0,0,0,0,0,0,0,0,-1,1070,1380,0,0
-147,-356,0,0,0,0,0,0,0,0,0,-1,1077,1380,0,0
-140,-356,0,0,0,0,0,0,0,0,0,-1,1084,1380,0,0
-133,-356,0,0,0,0,0,0,0,0,0,-1,1091,1380,0,0
-126,-356,0,0,0,0,0,0,0,0,0,-1,1098,1380,0,0
-119,-356,0,0,0,0,0,0,0,0,0,-1,1105,1380,0,0
-112,-356,0,0,0,0,0,0,0,0,0,-1,1112,1380,0,0
-105,-356,0,0,0,0,0,0,0,0,0,-1,1119,1380,0,0
-98,-356,0,0,0,0,0,0,0,0,0,-1,1126,1380,0,0
-91,-356,0,0,0,0,0,0,0,0,0,-1,1133,1380,0,0
-84,-356,0,0,0,0,0,0,0,0,0,-1,1140,1380,0,0
-77,-356,0,0,0,0,0,0,0,0,0,-1,1147,1380,0,0
-70,-356,0,0,0,0,0,0,0,0,0,-1,1154,1380,0,0
-63,-356,0,0,0,0,0,0,0,0,0,-1,1161,1380,0,0
-56,-356,0,0,0,0,0,0,0,0,0,-1,1168,1380,0,0
-49,-356,0,0,0,0,0,0,0,0,0,-1,1175,1380,0,0
-42,-356,0,0,0,0,0,0,0,0,0,-1,1182,1380,0,0
-35,-356,0,0,0,0,0,0,0,0,0,-1,1189,1380,0,0
-28,-356,0,0,0,0,0,0,0,0,0,-1,1196,1380,0,0
-21,-356,0,0,0,0,0,0,0,0,0,-1,1203,1380,0,0
-14,-356,0,0,0,0,0,0,0,0,0,-1,1210,1380,0,0
-7,-356,0,0,0,0,0,0,0,0,0,-1,1217,1380,0,0
0,-356,0,0,0,0,0,0,0,0,0,-1,1224,1380,0,0
7,-356,0,0,0,0,0,0,0,0,0,-1,1231,1380,0,0
14,-356,0,0,0,0,0,0,0,0,0,-1,1238,1380,0,0
21,-356,0,0,0,0,0,0,0,0,0,-1,1245,1380,0,0
28,-356,0,0,0,0,0,0,0,0,0,-1,1252,1380,0,0
35,-356,0,0,0,0,0,0,0,0,0,-1,1259,1380,0,0
42,-356,0,0,0,0,0,0,0,0,0,-1,1266,1380,0,0
49,-356,0,0,0,0,0,0,0,0,0,-1,1273,1380,0,0
56,-356,0,0,0,0,0,0,0,0,0,-1,1280,1380,0,0
63,-356,0,0,0,0,0,0,0,0,0,-1,1287,1380,0,0
70,-356,0,0,0,0,0,0,0,0,0,-1,1294,1380,0,0
77,-356,0,0,0,0,0,0,0,0,0,-1,1301,1380,0,0
84,-356,0,0,0,0,0,0,0,0,0,-1,1308,1380,0,0
91,-356,0,0,0,0,0,0,0,0,0,-1,1315,1380,0,0
98,-356,0,0,0,0,0,0,0,0,0,-1,1322,1380,0,0
105,-356,0,0,0,0,0,0,0,0,0,-1,1329,1380,0,0
112,-356,0,0,0,0,0,0,0,0,0,-1,1336,1380,0,0
119,-356,0,0,0,0,0,0,0,0,0,-1,1343,1380,0,0
126,-356,0,0,0,0,0,0,0,0,0,-1,1350,1380,0,0
133,-356,0,0,0,0,0,0,0,0,0,-1,1357,1380,0,0
140,-356,0,0,0,0,0,0,0,0,0,-1,1364,1380,0,0
147,-356,0,0,0,0,0,0,0,0,0,-1,1371,1380,0,0
154,-356,0,0,0,0,0,0,0,0,0,-1,1378,1380,0,0
161,-356,0,0,0,0,0,0,0,0,0,-1,1385,1380,0,0
168,-356,0,0,0,0,0,0,0,0,0,-1,1392,1380,0,0
175,-356,0,0,0,0,0,0,0,0,0,-1,1399,1380,0,0
182,-356,0,0,0,0,0,0,0,0,0,-1,1406,1380,0,0
189,-356,0,0,0,0,0,0,0,0,0,-1,1413,1380,0,0
196,-356,0,0,0,0,0,0,0,0,0,-1,1420,1380,0,0
203,-356,0,0,0,0,0,0,0,0,0,-1,1427,1380,0,0
210,-356,0,0,0,0,0,0,0,0,0,-1,1434,1380,0,0
217,-356,0,0,0,0,0,0,0,0,0,-1,1441,1380,0,0
224,-356,0,0,0,0,0,0,0,0,0,-1,1448,1380,0,0
231,-356,0,0,0,0,0,0,0,0,0,-1,1455,1380,0,0
238,-356,0,0,0,0,0,0,0,0,0,-1,1462,1380,0,0
245,-356,0,0,0,0,0,0,0,0,0,-1,1469,1380,0,0
252,-356,0,0,0,0,0,0,0,0,0,-1,1476,1380,0,0
259,-356,0,0,0,0,0,0,0,0,0,-1,1483,1380,0,0
266,-356,0,0,0,0,0,0,0,0,0,-1,1490,1380,0,0
273,-356,0,0,0,0,0,0,0,0,0,-1,1497,1380,0,0
280,-356,0,0,0,0,0,0,0,0,0,-1,1504,1380,0,0
287,-356,0,0,0,0,0,0,0,0,0,-1,1511,1380,0,0
294,-356,0,0,0,0,0,0,0,0,0,-1,1518,1380,0,0
301,-356,0,0,0,0,0,0,0,0,0,-1,1525,1380,0,0
308,-356,0,0,0,0,0,0,0,0,0,-1,1532,1380,0,0
315,-356,0,0,0,0,0,0,0,0,0,-1,1539,1380,0,0
322,-356,0,0,0,0,0,0,0,0,0,-1,1546,1380,0,0
329,-356,0,0,0,0,0,0,0,0,0,-1,1553,1380,0,0
336,-356,0,0,0,0,0,0,0,0,0,-1,1560,1380,0,0
343,-356,0,0,0,0,0,0,0,0,0,-1,1567,1380,0,0
350,-356,0,0,0,0,0,0,0,0,0,-1,1574,1380,0,0
357,-356,0,0,0,0,0,0,0,0,0,-1,1581,1380,0,0
364,-356,0,0,0,0,0,0,0,0,0,-1,1588,1380,0,0
371,-356,0,0,0,0,0,0,0,0,0,-1,1595,1380,0,0
378,-356,0,0,0,0,0,0,0,0,0,-1,1602,1380,0,0
385,-356,0,0,0,0,0,0,0,0,0,-1,1609,1380,0,0
392,-356,0,0,0,0,0,0,0,0,0,-1,1616,1380,0,0
399,-356,0,0,0,0,0,0,0,0,0,-1,1623,1380,0,0
406,-356,0,0,0,0,0,0,0,0,0,-1,1630,1380,0,0
413,-356,0,0,0,0,0,0,0,0,0,-1,1637,1380,0,0
420,-356,0,0,0,0,0,0,0,0,0,-1,1644,1380,0,0
427,-356,0,0,0,0,0,0,0,0,0,-1,1651,1380,0,0
434,-356,0,0,0,0,0,0,0,0,0,-1,1658,1380,0,0
441,-356,0,0,0,0,0,0,0,0,0,-1,1665,1380,0,0
448,-356,0,0,0,0,0,0,0,0,0,-1,1672,1380,0,0
455,-356,0,0,0,0,0,0,0,0,0,-1,1679,1380,0,0
462,-356,0,0,0,0,0,0,0,0,0,-1,1686,1380,0,0
469,-356,0,0,0,0,0,0,0,0,0,-1,1693,1380,0,0
476,-356,0,0,0,0,0,0,0,0,0,-1,1700,1380,0,0
483,-356,0,0,0,0,0,0,0,0,0,-1,1707,1380,0,0
490,-356,0,0,0,0,0,0,0,0,0,-1,1714,1380,0,0
497,-356,0,0,0,0,0,0,0,0,0,-1,1721,1380,0,0
504,-356,0,0,0,0,0,0,0,0,0,-1,1728,1380,0,0
511,-356,0,0,0,0,0,0,0,0,0,-1,1735,1380,0,0
518,-356,0,0,0,0,0,0,0,0,0,-1,1742,1380,0,0
525,-356,0,0,0,0,0,0,0,0,0,-1,1749,1380,0,0
532,-356,0,0,0,0,0,0,0,0,0,-1,1756,1380,0,0
539,-356,0,0,0,0,0,0,0,0,0,-1,1763,1380,0,0
546,-356,0,0,0,0,0,0,0,0,0,-1,1770,1380,0,0
553,-356,0,0,0,0,0,0,0,0,0,-1,1777,1380,0,0
560,-356,-0.384155,-0.501587,0.00935707,0.0176913,-0.00296851,0.0186405,0.00840785,-1.26131,0.0107793,0.0458108,1784,1380,-0.384124,0.501601
567,-356,-0.63855,-0.636963,0.00482051,0.0166467,-0.00507359,0.018525,0.0029422,-1.21623,0.0114955,0.0444295,1791,1380,-0.638532,0.637013
574,-356,-0.460938,-0.0270996,0.00252268,0.0135868,-0.00511041,0.015586,0.000523471,-1.1979,0.0102207,0.0438914,1798,1380,-0.460987,0.0271408
581,-356,-0.00891113,-0.269775,0,0,0,0,0,0,0,-1,1805,1380,-0.00897192,0.269742
588,-356,-0.456543,-0.363403,0,0,0,0,0,0,0,-1,1812,1380,-0.45652,0.363357
595,-356,-0.354492,-0.394775,0.00145789,0.00140074,-0.00174247,0.00317202,-0.000313394,-0.7772,0.00222651,0.0457506,1819,1380,-0.354541,0.394816
602,-356,-0.586182,-0.557373,0.00199007,-0.00202486,-0.00035973,0.00202205,-0.00205684,-0.0886569,0.00235498,0.0463105,1826,1380,-0.586229,0.557415
609,-356,-0.544556,-0.494995,0.00242299,-0.00487961,0.000831681,0.00251651,-0.00497314,0.111978,0.004401,0.0404138,1833,1380,-0.544573,0.494943
616,-356,-0.42627,-0.373779,0.00286139,-0.00682767,0.00182714,0.0031945,-0.00716077,0.180329,0.00612305,0.0374471,1840,1380,-0.426265,0.373754
623,-356,-0.257324,-0.26123,0.00319457,-0.00783233,0.00254114,0.003752,-0.00838976,0.21594,0.00717848,0.0378882,1847,1380,-0.257339,0.261238
630,-356,-0.112061,-0.0771484,0.00288999,-0.00955094,0.00233712,0.00331455,-0.0099755,0.179698,0.0079878,0.0321713,1854,1380,-0.112032,0.0771281
637,-356,-0.0620117,0.0368652,0.00332685,-0.0093897,0.00292511,0.00396742,-0.0100303,0.215589,0.00833043,0.0188345,1861,1380,-0.0619793,-0.0368405
644,-356,-0.0472412,0.0811768,0.00322216,-0.0083835,0.00272734,0.00383113,-0.00899247,0.219681,0.00760098,0.0156856,1868,1380,-0.0472815,-0.0812085
651,-356,-0.0727539,0.0574951,0.00291652,-0.00712028,0.0023854,0.0034546,-0.00765836,0.221859,0.0065673,0.0146896,1875,1380,-0.0727829,-0.0575211
658,-356,-0.0784912,0.0450439,0.00241139,-0.00538089,0.00211656,0.00294918,-0.00591868,0.248821,0.00521466,0.0136628,1882,1380,-0.0784909,-0.0450616
665,-356,-0.0692139,0.0661621,0.00173834,-0.00418538,0.00166931,0.00217637,-0.0046234,0.256613,0.00400969,0.0132954,1889,1380,-0.0692476,-0.066129
672,-356,-0.0657959,0.0936279,0.00108879,-0.00293089,0.00103051,0.00133758,-0.00317968,0.236891,0.00267935,0.0143422,1896,1380,-0.0658466,-0.0935674
679,-356,-0.06604,0.0753174,0.000777005,-0.00205717,0.000697337,0.00093929,-0.00221946,0.22865,0.00187296,0.0155259,1903,1380,-0.0660589,-0.0752873
686,-356,-0.048584,0.0727539,0.000688062,-0.000782571,0.000894789,0.00111091,-0.00120542,0.441459,0.0013377,0.012447,1910,1380,-0.0485589,-0.0727835
693,-356,-0.0339355,0.0771484,0.000579337,-8.77536e-05,0.00079914,0.00111175,-0.000620163,0.587699,0.00101326,0.0113311,1917,1380,-0.0339402,-0.0771823
700,-356,-0.0661621,0.0574951,0.000771338,0.000136992,0.000683303,0.00120749,-0.000299163,0.568108,0.000921056,0.0163711,1924,1380,-0.0662187,-0.0575203
707,-356,-0.0968018,0.0338135,0.00140791,0.000400433,0.000812956,0.00186054,-5.22032e-05,0.508032,0.00125812,0.0193258,1931,1380,-0.0967532,-0.0338254
714,-356,-0.0299072,0.019165,0.00215461,0.000757115,0.000781172,0.00250394,0.00040778,0.420518,0.00155134,0.0286398,1938,1380,-0.0299513,-0.0192242
721,-356,-0.0334473,0.301147,0.00328114,0.00121502,0.000563803,0.00342498,0.00107118,0.24979,0.0020231,0.0379249,1945,1380,-0.0334723,-0.301207
728,-356,-0.145264,0.593262,0.00492804,0.00184495,5.87373e-05,0.00492916,0.00184383,0.0190422,0.00287579,0.0424114,1952,1380,-0.145282,-0.593286
735,-356,-0.230103,0.878052,0.0072884,0.00268472,-0.000883388,0.00745209,0.00252103,-0.183221,0.00437682,0.0467485,1959,1380,-0.230142,-0.878053
742,-356,-0.0262451,0.0327148,0,0,0,0,0,0,0,-1,1966,1380,-0.0262488,-0.0327078
749,-356,-0.175049,-0.0396729,0,0,0,0,0,0,0,-1,1973,1380,-0.175081,0.0396494
756,-356,0,0,0,0,0,0,0,0,0,-1,1980,1380,0,0
763,-356,0,0,0,0,0,0,0,0,0,-1,1987,1380,0,0
770,-356,0,0,0,0,0,0,0,0,0,-1,1994,1380,0,0
777,-356,0,0,0,0,0,0,0,0,0,-1,2001,1380,0,0
784,-356,0,0,0,0,0,0,0,0,0,-1,2008,1380,0,0
791,-356,0,0,0,0,0,0,0,0,0,-1,2015,1380,0,0
798,-356,0,0,0,0,0,0,0,0,0,-1,2022,1380,0,0
805,-356,0,0,0,0,0,0,0,0,0,-1,2029,1380,0,0
812,-356,0,0,0,0,0,0,0,0,0,-1,2036,1380,0,0
-700,-363,0,0,0,0,0,0,0,0,0,-1,524,1387,0,0
-693,-363,0,0,0,0,0,0,0,0,0,-1,531,1387,0,0
-686,-363,0,0,0,0,0,0,0,0,0,-1,538,1387,0,0
-679,-363,0,0,0,0,0,0,0,0,0,-1,545,1387,0,0
-672,-363,0,0,0,0,0,0,0,0,0,-1,552,1387,0,0
-665,-363,0,0,0,0,0,0,0,0,0,-1,559,1387,0,0
-658,-363,0,0,0,0,0,0,0,0,0,-1,566,1387,0,0
-651,-363,0,0,0,0,0,0,0,0,0,-1,573,1387,0,0
-644,-363,0,0,0,0,0,0,0,0,0,-1,580,1387,0,0
-637,-363,0,0,0,0,0,0,0,0,0,-1,587,1387,0,0
-630,-363,0,0,0,0,0,0,0,0,0,-1,594,1387,0,0
-623,-363,-0.537842,1.14832,0,0,0,0,0,0,0,-1,601,1387,-0.537854,-1.14837
-616,-363,-0.456848,0.841675,0,0,0,0,0,0,0,-1,608,1387,-0.456828,-0.841693
-609,-363,-1.65363,-0.120972,0,0,0,0,0,0,0,-1,615,1387,-1.65362,0.120981
-602,-363,-1.84412,-0.430664,-0.00903075,0.0121794,0.011462,0.0171899,-0.0140412,1.15869,0.0180618,0.0486929,622,1387,-1.84411,0.430607
-595,-363,-1.88403,-0.438599,-0.000791733,0.00993507,0.0134762,0.019076,-0.00993264,0.974784,0.0170232,0.0476332,629,1387,-1.88406,0.438658
-588,-363,-0.121826,-0.851074,0.00449744,0.00795172,0.013939,0.0202701,-0.00782097,0.847038,0.0167409,0.0422817,636,1387,-0.121814,0.851073
-581,-363,-0.00946045,-0.28894,0.00816929,0.00644827,0.0136412,0.0209771,-0.00635955,0.753899,0.0165178,0.0346405,643,1387,-0.00943437,0.288914
-574,-363,-0.0153809,-0.00964355,0.00902194,0.00493477,0.0118503,0.0190036,-0.00504686,0.700013,0.0146442,0.0261798,650,1387,-0.0153667,0.00964928
-567,-363,-0.0350952,0.0715332,0.00790767,0.00397281,0.00945458,0.0155973,-0.00371687,0.682816,0.0118334,0.0160093,657,1387,-0.0350812,-0.071476
-560,-363,-0.0328979,0.0693359,0.00640332,0.00303732,0.00728535,0.0121975,-0.0027569,0.671884,0.00918955,0.0135406,664,1387,-0.0329203,-0.0693483
-553,-363,-0.0271606,0.0614014,0.00507338,0.00226405,0.00538576,0.00923464,-0.00189721,0.657834,0.00687663,0.0143751,671,1387,-0.0271399,-0.0613869
-546,-363,-0.0255737,0.0612793,0.00405536,0.00156978,0.00378301,0.00679448,-0.00116935,0.626692,0.00496555,0.0129013,678,1387,-0.0255611,-0.0612346
-539,-363,-0.0247803,0.0689697,0.00251289,0.000580628,0.00232962,0.00406877,-0.000975255,0.588834,0.00308935,0.0132175,685,1387,-0.0247708,-0.0689448
-532,-363,-0.0280762,0.0910645,0.00113441,-0.000700642,0.00097059,0.00155251,-0.00111874,0.406747,0.00154901,0.0116362,692,1387,-0.0280522,-0.0910985
-525,-363,-0.0267334,0.0953369,-4.83428e-05,-0.00157789,0.000286022,3.39275e-06,-0.00162962,0.178945,0.00108755,0.00927958,699,1387,-0.0267415,-0.0953733
-518,-363,-0.0200806,0.0869141,-0.000601039,-0.00227118,0.000146852,-0.000588225,-0.00228399,0.0870381,0.00136937,0.00867585,706,1387,-0.0200811,-0.0869242
-511,-363,-0.00366211,0.0738525,-0.00200574,-0.00244119,0.000184075,-0.00193836,-0.00250857,0.350925,0.00151843,0.0130983,713,1387,-0.00364744,-0.0738074
-504,-363,0.00360107,0.0465088,-0.00310235,-0.000800706,-0.000651278,-0.000629198,-0.00327385,-1.3133,0.002006,0.0184036,720,1387,0.00357588,-0.0465557
-497,-363,-0.0424805,0.0533447,-0.00462825,0.00395758,-0.0023045,0.00453702,-0.0052077,-1.32446,0.00563055,0.0329696,727,1387,-0.0425103,-0.0533067
-490,-363,-0.0570068,0.0609131,-0.00702206,0.00776111,-0.00339564,0.00850377,-0.00776471,-1.35548,0.00939584,0.0429999,734,1387,-0.0569895,-0.0609736
-483,-363,0.405334,-0.53064,-0.0101348,0.0119788,-0.00413787,0.0127277,-0.0108837,-1.39174,0.0136459,0.0423435,741,1387,0.405335,0.530641
-476,-363,0.210938,-0.161743,-0.0138611,0.0180031,-0.00531004,0.0188647,-0.0147227,-1.40994,0.0194408,0.0456618,748,1387,0.21093,0.161764
-469,-363,0.000732422,0.221924,0,0,0,0,0,0,0,-1,755,1387,0.000756417,-0.22194
-462,-363,-0.603088,0.38623,-0.0237843,0.0340008,-0.00771994,0.0350144,-0.0247979,-1.44025,0.0347002,0.0449779,762,1387,-0.6031,-0.386195
-455,-363,-1.08209,0.486938,-0.0300583,0.0430598,-0.00822525,0.0439737,-0.0309722,-1.46015,0.0434865,0.0466105,769,1387,-1.08209,-0.486921
-448,-363,-1.19501,0.3479,-0.037497,0.0516774,-0.00740554,0.0522882,-0.0381078,-1.4885,0.0524038,0.0456528,776,1387,-1.19502,-0.347914
-441,-363,-1.18671,0.190308,0,0,0,0,0,0,0,-1,783,1387,-1.18669,-0.190305
-434,-363,1.54333,-4.72473,0,0,0,0,0,0,0,-1,790,1387,1.54336,4.72469
-427,-363,0,0,0,0,0,0,0,0,0,-1,797,1387,0,0
-420,-363,0,0,0,0,0,0,0,0,0,-1,804,1387,0,0
-413,-363,0,0,0,0,0,0,0,0,0,-1,811,1387,0,0
-406,-363,0,0,0,0,0,0,0,0,0,-1,818,1387,0,0
-399,-363,0,0,0,0,0,0,0,0,0,-1,825,1387,0,0
-392,-363,0,0,0,0,0,0,0,0,0,-1,832,1387,0,0
-385,-363,0,0,0,0,0,0,0,0,0,-1,839,1387,0,0
-378,-363,0,0,0,0,0,0,0,0,0,-1,846,1387,0,0
-371,-363,0,0,0,0,0,0,0,0,0,-1,853,1387,0,0
-364,-363,0,0,0,0,0,0,0,0,0,-1,860,1387,0,0
-357,-363,0,0,0,0,0,0,0,0,0,-1,867,1387,0,0
-350,-363,0,0,0,0,0,0,0,0,0,-1,874,1387,0,0
-343,-363,0,0,0,0,0,0,0,0,0,-1,881,1387,0,0
-336,-363,0,0,0,0,0,0,0,0,0,-1,888,1387,0,0
-329,-363,0,0,0,0,0,0,0,0,0,-1,895,1387,0,0
-322,-363,0,0,0,0,0,0,0,0,0,-1,902,1387,0,0
-315,-363,0,0,0,0,0,0,0,0,0,-1,909,1387,0,0
-308,-363,0,0,0,0,0,0,0,0,0,-1,916,1387,0,0
-301,-363,0,0,0,0,0,0,0,0,0,-1,923,1387,0,0
-294,-363,0,0,0,0,0,0,0,0,0,-1,930,1387,0,0
-287,-363,0,0,0,0,0,0,0,0,0,-1,937,1387,0,0
-280,-363,0,0,0,0,0,0,0,0,0,-1,944,1387,0,0
-273,-363,0,0,0,0,0,0,0,0,0,-1,951,1387,0,0
-266,-363,0,0,0,0,0,0,0,0,0,-1,958,1387,0,0
-259,-363,0,0,0,0,0,0,0,0,0,-1,965,1387,0,0
-252,-363,0,0,0,0,0,0,0,0,0,-1,972,1387,0,0
-245,-363,0,0,0,0,0,0,0,0,0,-1,979,1387,0,0
-238,-363,0,0,0,0,0,0,0,0,0,-1,986,1387,0,0
-231,-363,0,0,0,0,0,0,0,0,0,-1,993,1387,0,0
-224,-363,0,0,0,0,0,0,0,0,0,-1,1000,1387,0,0
-217,-363,0,0,0,0,0,0,0,0,0,-1,1007,1387,0,0
-210,-363,0,0,0,0,0,0,0,0,0,-1,1014,1387,0,0
-203,-363,0,0,0,0,0,0,0,0,0,-1,1021,1387,0,0
-196,-363,0,0,0,0,0,0,0,0,0,-1,1028,1387,0,0
-189,-363,0,0,0,0,0,0,0,0,0,-1,1035,1387,0,0
-182,-363,0,0,0,0,0,0,0,0,0,-1,1042,1387,0,0
-175,-363,0,0,0,0,0,0,0,0,0,-1,1049,1387,0,0
-168,-363,0,0,0,0,0,0,0,0,0,-1,1056,1387,0,0
-161,-363,0,0,0,0,0,0,0,0,0,-1,1063,1387,0,0
-154,-363,0,0,0,0,0,0,0,0,0,-1,1070,1387,0,0
-147,-363,0,0,0,0,0,0,0,0,0,-1,1077,1387,0,0
-140,-363,0,0,0,0,0,0,0,0,0,-1,1084,1387,0,0
-133,-363,0,0,0,0,0,0,0,0,0,-1,1091,1387,0,0
-126,-363,0,0,0,0,0,0,0,0,0,-1,1098,1387,0,0
-119,-363,0,0,0,0,0,0,0,0,0,-1,1105,1387,0,0
-112,-363,0,0,0,0,0,0,0,0,0,-1,1112,1387,0,0
-105,-363,0,0,0,0,0,0,0,0,0,-1,1119,1387,0,0
-98,-363,0,0,0,0,0,0,0,0,0,-1,1126,1387,0,0
-91,-363,0,0,0,0,0,0,0,0,0,-1,1133,1387,0,0
-84,-363,0,0,0,0,0,0,0,0,0,-1,1140,1387,0,0
-77,-363,0,0,0,0,0,0,0,0,0,-1,1147,1387,0,0
-70,-363,0,0,0,0,0,0,0,0,0,-1,1154,1387,0,0
-63,-363,0,0,0,0,0,0,0,0,0,-1,1161,1387,0,0
-56,-363,0,0,0,0,0,0,0,0,0,-1,1168,1387,0,0
-49,-363,0,0,0,0,0,0,0,0,0,-1,1175,1387,0,0
-42,-363,0,0,0,0,0,0,0,0,0,-1,1182,1387,0,0
-35,-363,0,0,0,0,0,0,0,0,0,-1,1189,1387,0,0
-28,-363,0,0,0,0,0,0,0,0,0,-1,1196,1387,0,0
-21,-363,0,0,0,0,0,0,0,0,0,-1,1203,1387,0,0
-14,-363,0,0,0,0,0,0,0,0,0,-1,1210,1387,0,0
-7,-363,0,0,0,0,0,0,0,0,0,-1,1217,1387,0,0
0,-363,0,0,0,0,0,0,0,0,0,-1,1224,1387,0,0
7,-363,0,0,0,0,0,0,0,0,0,-1,1231,1387,0,0
14,-363,0,0,0,0,0,0,0,0,0,-1,1238,1387,0,0
21,-363,0,0,0,0,0,0,0,0,0,-1,1245,1387,0,0
28,-363,0,0,0,0,0,0,0,0,0,-1,1252,1387,0,0
35,-363,0,0,0,0,0,0,0,0,0,-1,1259,1387,0,0
42,-363,0,0,0,0,0,0,0,0,0,-1,1266,1387,0,0
49,-363,0,0,0,0,0,0,0,0,0,-1,1273,1387,0,0
56,-363,0,0,0,0,0,0,0,0,0,-1,1280,1387,0,0
63,-363,0,0,0,0,0,0,0,0,0,-1,1287,1387,0,0
70,-363,0,0,0,0,0,0,0,0,0,-1,1294,1387,0,0
77,-363,0,0,0,0,0,0,0,0,0,-1,1301,1387,0,0
84,-363,0,0,0,0,0,0,0,0,0,-1,1308,1387,0,0
91,-363,0,0,0,0,0,0,0,0,0,-1,1315,1387,0,0
98,-363,0,0,0,0,0,0,0,0,0,-1,1322,1387,0,0
105,-363,0,0,0,0,0,0,0,0,0,-1,1329,1387,0,0
112,-363,0,0,0,0,0,0,0,0,0,-1,1336,1387,0,0
119,-363,0,0,0,0,0,0,0,0,0,-1,1343,1387,0,0
126,-363,0,0,0,0,0,0,0,0,0,-1,1350,1387,0,0
133,-363,0,0,0,0,0,0,0,0,0,-1,1357,1387,0,0
140,-363,0,0,0,0,0,0,0,0,0,-1,1364,1387,0,0
147,-363,0,0,0,0,0,0,0,0,0,-1,1371,1387,0,0
154,-363,0,0,0,0,0,0,0,0,0,-1,1378,1387,0,0
161,-363,0,0,0,0,0,0,0,0,0,-1,1385,1387,0,0
168,-363,0,0,0,0,0,0,0,0,0,-1,1392,1387,0,0
175,-363,0,0,0,0,0,0,0,0,0,-1,1399,1387,0,0
182,-363,0,0,0,0,0,0,0,0,0,-1,1406,1387,0,0
189,-363,0,0,0,0,0,0,0,0,0,-1,1413,1387,0,0
196,-363,0,0,0,0,0,0,0,0,0,-1,1420,1387,0,0
203,-363,0,0,0,0,0,0,0,0,0,-1,1427,1387,0,0
210,-363,0,0,0,0,0,0,0,0,0,-1,1434,1387,0,0
217,-363,0,0,0,0,0,0,0,0,0,-1,1441,1387,0,0
224,-363,0,0,0,0,0,0,0,0,0,-1,1448,1387,0,0
231,-363,0,0,0,0,0,0,0,0,0,-1,1455,1387,0,0
238,-363,0,0,0,0,0,0,0,0,0,-1,1462,1387,0,0
245,-363,0,0,0,0,0,0,0,0,0,-1,1469,1387,0,0
252,-363,0,0,0,0,0,0,0,0,0,-1,1476,1387,0,0
259,-363,0,0,0,0,0,0,0,0,0,-1,1483,1387,0,0
266,-363,0,0,0,0,0,0,0,0,0,-1,1490,1387,0,0
273,-363,0,0,0,0,0,0,0,0,0,-1,1497,1387,0,0
280,-363,0,0,0,0,0,0,0,0,0,-1,1504,1387,0,0
287,-363,0,0,0,0,0,0,0,0,0,-1,1511,1387,0,0
294,-363,0,0,0,0,0,0,0,0,0,-1,1518,1387,0,0
301,-363,0,0,0,0,0,0,0,0,0,-1,1525,1387,0,0
308,-363,0,0,0,0,0,0,0,0,0,-1,1532,1387,0,0
315,-363,0,0,0,0,0,0,0,0,0,-1,1539,1387,0,0
322,-363,0,0,0,0,0,0,0,0,0,-1,1546,1387,0,0
329,-363,0,0,0,0,0,0,0,0,0,-1,1553,1387,0,0
336,-363,0,0,0,0,0,0,0,0,0,-1,1560,1387,0,0
343,-363,0,0,0,0,0,0,0,0,0,-1,1567,1387,0,0
350,-363,0,0,0,0,0,0,0,0,0,-1,1574,1387,0,0
357,-363,0,0,0,0,0,0,0,0,0,-1,1581,1387,0,0
364,-363,0,0,0,0,0,0,0,0,0,-1,1588,1387,0,0
371,-363,0,0,0,0,0,0,0,0,0,-1,1595,1387,0,0
378,-363,0,0,0,0,0,0,0,0,0,-1,1602,1387,0,0
385,-363,0,0,0,0,0,0,0,0,0,-1,1609,1387,0,0
392,-363,0,0,0,0,0,0,0,0,0,-1,1616,1387,0,0
399,-363,0,0,0,0,0,0,0,0,0,-1,1623,1387,0,0
406,-363,0,0,0,0,0,0,0,0,0,-1,1630,1387,0,0
413,-363,0,0,0,0,0,0,0,0,0,-1,1637,1387,0,0
420,-363,0,0,0,0,0,0,0,0,0,-1,1644,1387,0,0
427,-363,0,0,0,0,0,0,0,0,0,-1,1651,1387,0,0
434,-363,0,0,0,0,0,0,0,0,0,-1,1658,1387,0,0
441,-363,0,0,0,0,0,0,0,0,0,-1,1665,1387,0,0
448,-363,0,0,0,0,0,0,0,0,0,-1,1672,1387,0,0
455,-363,0,0,0,0,0,0,0,0,0,-1,1679,1387,0,0
462,-363,0,0,0,0,0,0,0,0,0,-1,1686,1387,0,0
469,-363,0,0,0,0,0,0,0,0,0,-1,1693,1387,0,0
476,-363,0,0,0,0,0,0,0,0,0,-1,1700,1387,0,0
483,-363,0,0,0,0,0,0,0,0,0,-1,1707,1387,0,0
490,-363,0,0,0,0,0,0,0,0,0,-1,1714,1387,0,0
497,-363,0,0,0,0,0,0,0,0,0,-1,1721,1387,0,0
504,-363,0,0,0,0,0,0,0,0,0,-1,1728,1387,0,0
511,-363,0,0,0,0,0,0,0,0,0,-1,1735,1387,0,0
518,-363,0,0,0,0,0,0,0,0,0,-1,1742,1387,0,0
525,-363,0,0,0,0,0,0,0,0,0,-1,1749,1387,0,0
532,-363,0,0,0,0,0,0,0,0,0,-1,1756,1387,0,0
539,-363,0,0,0,0,0,0,0,0,0,-1,1763,1387,0,0
546,-363,0,0,0,0,0,0,0,0,0,-1,1770,1387,0,0
553,-363,0.194702,-0.583008,0,0,0,0,0,0,0,-1,1777,1387,0.194683,0.582983
560,-363,0.000732422,-0.392212,0.00907516,0.00941189,-0.00213152,0.0113817,0.00710536,-0.82481,0.00663854,0.0432195,1784,1387,0.00079158,0.392174
567,-363,0.154053,-0.326538,0.00489371,0.00952715,-0.00369418,0.011571,0.00284991,-1.06546,0.00696125,0.0448657,1791,1387,0.154113,0.326575
574,-363,0.211792,-0.134155,0.00270721,0.00777605,-0.00370278,0.0097287,0.000754553,-1.08551,0.00624949,0.0422778,1798,1387,0.211751,0.134198
581,-363,-0.0302734,-0.252441,0.00170426,0.00499062,-0.0030749,0.00683386,-0.000138971,-1.03079,0.00460293,0.0401491,1805,1387,-0.0302996,0.252488
588,-363,-0.784546,-0.429443,0,0,0,0,0,0,0,-1,1812,1387,-0.784584,0.429471
595,-363,-0.716309,-0.484375,0.00156191,-0.00101536,-0.0013578,0.00214522,-0.00159868,-0.405763,0.0021692,0.0496739,1819,1387,-0.716288,0.484386
602,-363,-0.651489,-0.375244,0.00201066,-0.0035574,-0.000279149,0.00202462,-0.00357136,-0.049967,0.00327172,0.0499911,1826,1387,-0.651464,0.375195
609,-363,-0.329224,-0.242676,0.00236417,-0.00578202,0.000668215,0.00241862,-0.00583647,0.0813037,0.00490035,0.044386,1833,1387,-0.329236,0.242722
616,-363,-0.161133,-0.243408,0.00271887,-0.0072101,0.00145409,0.00292744,-0.00741867,0.142465,0.00615808,0.0402504,1840,1387,-0.16114,0.243389
623,-363,-0.156372,-0.107666,0.00299731,-0.00782515,0.00203413,0.00336701,-0.00819485,0.179783,0.00686648,0.0386078,1847,1387,-0.156339,0.10767
630,-363,-0.0969238,0.0032959,0.00272504,-0.00913267,0.00186237,0.00301066,-0.00941829,0.15218,0.00748699,0.0247255,1854,1387,-0.0969586,-0.00330544
637,-363,-0.0603027,0.0454102,0.00311746,-0.0088198,0.00235038,0.00356356,-0.00926591,0.18757,0.0076471,0.0125116,1861,1387,-0.0603188,-0.0453916
644,-363,-0.0598145,0.0682373,0.00295766,-0.0077784,0.0021583,0.0033753,-0.00819604,0.191143,0.00687125,0.0108037,1868,1387,-0.0597777,-0.0682938
651,-363,-0.0574951,0.0516357,0.00258041,-0.0065611,0.00182868,0.00293265,-0.00691334,0.190288,0.00583739,0.0102328,1875,1387,-0.0575002,-0.0516942
658,-363,-0.0456543,0.0372314,0.002039,-0.004828,0.00154183,0.0023693,-0.0051583,0.211034,0.00444438,0.0110998,1882,1387,-0.0457095,-0.0372054
665,-363,-0.0690918,0.0863037,0.0014465,-0.00361249,0.0011392,0.0016912,-0.00385718,0.211578,0.00328371,0.0114468,1889,1387,-0.069042,-0.0862853
672,-363,-0.0648193,0.104858,0.000874831,-0.00240763,0.000619046,0.000987697,-0.0025205,0.180342,0.00208891,0.0132362,1896,1387,-0.0648193,-0.104852
679,-363,-0.0498047,0.0822754,0.000596037,-0.0015966,0.000337929,0.000646937,-0.0016475,0.1495,0.00136603,0.015147,1903,1387,-0.049792,-0.0822882
686,-363,-0.0343018,0.0806885,0.000547452,-0.000409266,0.000396072,0.00069014,-0.000551955,0.345785,0.000718602,0.0137238,1910,1387,-0.0342484,-0.0806507
693,-363,-0.0285645,0.0738525,0.000468999,0.000214601,0.000205684,0.000583638,9.99626e-05,0.508472,0.000360422,0.012324,1917,1387,-0.0285608,-0.0738712
700,-363,-0.0570068,0.0427246,0.0006408,0.000460395,-2.08701e-05,0.000643183,0.000458012,-0.113685,0.000382317,0.0153955,1924,1387,-0.0570454,-0.042716
707,-363,-0.0770264,0.0235596,0.00126776,0.000750747,-6.51812e-05,0.00127585,0.000742656,-0.123498,0.000739916,0.0223913,1931,1387,-0.0770376,-0.023539
714,-363,-0.019165,-0.160645,0.00202025,0.00110624,-0.000327645,0.00212557,0.00100093,-0.311003,0.00122789,0.0351602,1938,1387,-0.019163,0.160592
721,-363,-0.0731201,0.0323486,0.00317454,0.00154894,-0.00082566,0.00352034,0.00120314,-0.396624,0.00206612,0.0408606,1945,1387,-0.073138,-0.0323544
728,-363,-0.0317383,0.465942,0.00490374,0.00207068,-0.00169464,0.00569591,0.00127851,-0.437277,0.00345097,0.0428627,1952,1387,-0.0317699,-0.465884
735,-363,-0.147217,0.894653,0,0,0,0,0,0,0,-1,1959,1387,-0.147251,-0.894682
742,-363,-0.160156,0.210083,0,0,0,0,0,0,0,-1,1966,1387,-0.160211,-0.210042
749,-363,0,0,0,0,0,0,0,0,0,-1,1973,1387,0,0
756,-363,0,0,0,0,0,0,0,0,0,-1,1980,1387,0,0
763,-363,0,0,0,0,0,0,0,0,0,-1,1987,1387,0,0
770,-363,0,0,0,0,0,0,0,0,0,-1,1994,1387,0,0
777,-363,0,0,0,0,0,0,0,0,0,-1,2001,1387,0,0
784,-363,0,0,0,0,0,0,0,0,0,-1,2008,1387,0,0
791,-363,0,0,0,0,0,0,0,0,0,-1,2015,1387,0,0
798,-363,0,0,0,0,0,0,0,0,0,-1,2022,1387,0,0
805,-363,0,0,0,0,0,0,0,0,0,-1,2029,1387,0,0
812,-363,0,0,0,0,0,0,0,0,0,-1,2036,1387,0,0
-700,-370,0,0,0,0,0,0,0,0,0,-1,524,1394,0,0
-693,-370,0,0,0,0,0,0,0,0,0,-1,531,1394,0,0
-686,-370,0,0,0,0,0,0,0,0,0,-1,538,1394,0,0
-679,-370,0,0,0,0,0,0,0,0,0,-1,545,1394,0,0
-672,-370,0,0,0,0,0,0,0,0,0,-1,552,1394,0,0
-665,-370,0,0,0,0,0,0,0,0,0,-1,559,1394,0,0
-658,-370,0,0,0,0,0,0,0,0,0,-1,566,1394,0,0
-651,-370,0,0,0,0,0,0,0,0,0,-1,573,1394,0,0
-644,-370,0,0,0,0,0,0,0,0,0,-1,580,1394,0,0
-637,-370,0,0,0,0,0,0,0,0,0,-1,587,1394,0,0
-630,-370,0,0,0,0,0,0,0,0,0,-1,594,1394,0,0
-623,-370,-1.02087,0.557617,0,0,0,0,0,0,0,-1,601,1394,-1.02086,-0.557634
-616,-370,0.306458,0.952148,0,0,0,0,0,0,0,-1,608,1394,0.306457,-0.952158
-609,-370,-1.39618,-0.387573,0,0,0,0,0,0,0,-1,615,1394,-1.39619,0.387579
-602,-370,-1.91705,-0.443726,0,0,0,0,0,0,0,-1,622,1394,-1.91703,0.443721
-595,-370,-2.26477,-0.448486,0,0,0,0,0,0,0,-1,629,1394,-2.26478,0.448444
-588,-370,-2.55695,-0.192139,0.000973464,0.00998846,0.0125503,0.0188161,-0.0078542,0.957802,0.0158257,0.049406,636,1394,-2.55694,0.19209
-581,-370,-1.87878,0.359131,0.00529462,0.00851344,0.0125126,0.0195197,-0.00571161,0.849359,0.0152771,0.0486053,643,1394,-1.87881,-0.35908
-574,-370,0.00915527,0.0467529,0.00696683,0.00695151,0.0111488,0.018108,-0.00418962,0.785055,0.013684,0.035844,650,1394,0.00918495,-0.0467947
-567,-370,-0.0349731,0.0810547,0.00664803,0.00578119,0.00913974,0.0153646,-0.0029354,0.761705,0.0113488,0.0191547,657,1394,-0.0349842,-0.0810693
-560,-370,-0.0539551,0.0706787,0.00569463,0.00460646,0.00720966,0.0123807,-0.00207961,0.747736,0.00902721,0.0142056,664,1394,-0.0539614,-0.0707077
-553,-370,-0.0684814,0.0653076,0.00482176,0.00354993,0.00547093,0.00969361,-0.00132191,0.72754,0.00694511,0.0110707,671,1394,-0.0684835,-0.0652855
-546,-370,-0.0299683,0.0587158,0.00414843,0.00264044,0.00397905,0.0074443,-0.000655419,0.691763,0.00519514,0.0124423,678,1394,-0.029968,-0.0587498
-539,-370,-0.0229492,0.0854492,0.00269213,0.00149719,0.00250489,0.00466981,-0.000480497,0.668325,0.00328511,0.0153752,685,1394,-0.022949,-0.0854023
-532,-370,-0.0411377,0.108765,0.00136255,6.81541e-05,0.00109629,0.00198843,-0.000557723,0.51875,0.00154544,0.0184936,692,1394,-0.0411512,-0.108814
-525,-370,-0.00524902,0.0784912,0.000149659,-0.000904922,0.00031168,0.000234888,-0.000990151,0.266924,0.000750747,0.0103496,699,1394,-0.00522885,-0.0784541
-518,-370,-0.00909424,0.0559082,-0.000329889,-0.00165125,0.000101203,-0.000322183,-0.00165896,0.0759988,0.00101576,0.00819596,706,1394,-0.00910061,-0.055965
-511,-370,-0.00891113,0.0427246,-0.0014935,-0.0018718,4.81841e-05,-0.00148746,-0.00187784,0.124716,0.00114419,0.0127786,713,1394,-0.0089309,-0.0427051
-504,-370,-0.0202637,0.038208,-0.00209728,-0.000129493,-0.00112131,0.000378385,-0.00260516,-1.14551,0.00187567,0.0169567,720,1394,-0.0202827,-0.0381475
-497,-370,-0.0384521,0.0617676,-0.00310851,0.00476562,-0.00306466,0.00581781,-0.00416069,-1.24008,0.00578751,0.0238857,727,1394,-0.0384623,-0.0617613
-490,-370,-0.0303955,0.0648193,-0.00500251,0.00858484,-0.00433812,0.00985176,-0.00626944,-1.28665,0.00938386,0.0350656,734,1394,-0.0304222,-0.0648469
-483,-370,0.0924683,0.0115967,-0.00751744,0.0126076,-0.00519207,0.0138682,-0.00877799,-1.33262,0.0131844,0.0428867,741,1394,0.0924735,-0.0116016
-476,-370,-0.0141602,-0.026001,-0.0104885,0.0183197,-0.00649117,0.0197147,-0.0118836,-1.3591,0.0184291,0.0466774,748,1394,-0.01416,0.0260354
-469,-370,0.0491333,0.0808105,0,0,0,0,0,0,0,-1,755,1394,0.0491198,-0.0808127
-462,-370,-0.656616,0.266968,-0.0185107,0.033148,-0.00922934,0.0347474,-0.0201101,-1.39921,0.0320456,0.0459134,762,1394,-0.656606,-0.267021
-455,-370,-1.16309,0.339478,-0.023876,0.0406166,-0.00975019,0.0420585,-0.0253179,-1.42398,0.0392979,0.0457242,769,1394,-1.16308,-0.339485
-448,-370,-1.49268,0.192139,-0.030435,0.0469268,-0.00875893,0.0479061,-0.0314143,-1.45945,0.0461244,0.0453927,776,1394,-1.49268,-0.192153
-441,-370,-1.87805,0.174561,0,0,0,0,0,0,0,-1,783,1394,-1.87803,-0.174611
-434,-370,1.58038,-3.78296,0,0,0,0,0,0,0,-1,790,1394,1.58039,3.78293
-427,-370,0,0,0,0,0,0,0,0,0,-1,797,1394,0,0
-420,-370,0,0,0,0,0,0,0,0,0,-1,804,1394,0,0
-413,-370,0,0,0,0,0,0,0,0,0,-1,811,1394,0,0
-406,-370,0,0,0,0,0,0,0,0,0,-1,818,1394,0,0
-399,-370,0,0,0,0,0,0,0,0,0,-1,825,1394,0,0
-392,-370,0,0,0,0,0,0,0,0,0,-1,832,1394,0,0
-385,-370,0,0,0,0,0,0,0,0,0,-1,839,1394,0,0
-378,-370,0,0,0,0,0,0,0,0,0,-1,846,1394,0,0
-371,-370,0,0,0,0,0,0,0,0,0,-1,853,1394,0,0
-364,-370,0,0,0,0,0,0,0,0,0,-1,860,1394,0,0
-357,-370,0,0,0,0,0,0,0,0,0,-1,867,1394,0,0
-350,-370,0,0,0,0,0,0,0,0,0,-1,874,1394,0,0
-343,-370,0,0,0,0,0,0,0,0,0,-1,881,1394,0,0
-336,-370,0,0,0,0,0,0,0,0,0,-1,888,1394,0,0
-329,-370,0,0,0,0,0,0,0,0,0,-1,895,1394,0,0
-322,-370,0,0,0,0,0,0,0,0,0,-1,902,1394,0,0
-315,-370,0,0,0,0,0,0,0,0,0,-1,909,1394,0,0
-308,-370,0,0,0,0,0,0,0,0,0,-1,916,1394,0,0
-301,-370,0,0,0,0,0,0,0,0,0,-1,923,1394,0,0
-294,-370,0,0,0,0,0,0,0,0,0,-1,930,1394,0,0
-287,-370,0,0,0,0,0,0,0,0,0,-1,937,1394,0,0
-280,-370,0,0,0,0,0,0,0,0,0,-1,944,1394,0,0
-273,-370,0,0,0,0,0,0,0,0,0,-1,951,1394,0,0
-266,-370,0,0,0,0,0,0,0,0,0,-1,958,1394,0,0
-259,-370,0,0,0,0,0,0,0,0,0,-1,965,1394,0,0
-252,-370,0,0,0,0,0,0,0,0,0,-1,972,1394,0,0
-245,-370,0,0,0,0,0,0,0,0,0,-1,979,1394,0,0
-238,-370,0,0,0,0,0,0,0,0,0,-1,986,1394,0,0
-231,-370,0,0,0,0,0,0,0,0,0,-1,993,1394,0,0
-224,-370,0,0,0,0,0,0,0,0,0,-1,1000,1394,0,0
-217,-370,0,0,0,0,0,0,0,0,0,-1,1007,1394,0,0
-210,-370,0,0,0,0,0,0,0,0,0,-1,1014,1394,0,0
-203,-370,0,0,0,0,0,0,0,0,0,-1,1021,1394,0,0
-196,-370,0,0,0,0,0,0,0,0,0,-1,1028,1394,0,0
-189,-370,0,0,0,0,0,0,0,0,0,-1,1035,1394,0,0
-182,-370,0,0,0,0,0,0,0,0,0,-1,1042,1394,0,0
-175,-370,0,0,0,0,0,0,0,0,0,-1,1049,1394,0,0
-168,-370,0,0,0,0,0,0,0,0,0,-1,1056,1394,0,0
-161,-370,0,0,0,0,0,0,0,0,0,-1,1063,1394,0,0
-154,-370,0,0,0,0,0,0,0,0,0,-1,1070,1394,0,0
-147,-370,0,0,0,0,0,0,0,0,0,-1,1077,1394,0,0
-140,-370,0,0,0,0,0,0,0,0,0,-1,1084,1394,0,0
-133,-370,0,0,0,0,0,0,0,0,0,-1,1091,1394,0,0
-126,-370,0,0,0,0,0,0,0,0,0,-1,1098,1394,0,0
-119,-370,0,0,0,0,0,0,0,0,0,-1,1105,1394,0,0
-112,-370,0,0,0,0,0,0,0,0,0,-1,1112,1394,0,0
-105,-370,0,0,0,0,0,0,0,0,0,-1,1119,1394,0,0
-98,-370,0,0,0,0,0,0,0,0,0,-1,1126,1394,0,0
-91,-370,0,0,0,0,0,0,0,0,0,-1,1133,1394,0,0
-84,-370,0,0,0,0,0,0,0,0,0,-1,1140,1394,0,0
-77,-370,0,0,0,0,0,0,0,0,0,-1,1147,1394,0,0
-70,-370,0,0,0,0,0,0,0,0,0,-1,1154,1394,0,0
-63,-370,0,0,0,0,0,0,0,0,0,-1,1161,1394,0,0
-56,-370,0,0,0,0,0,0,0,0,0,-1,1168,1394,0,0
-49,-370,0,0,0,0,0,0,0,0,0,-1,1175,1394,0,0
-42,-370,0,0,0,0,0,0,0,0,0,-1,1182,1394,0,0
-35,-370,0,0,0,0,0,0,0,0,0,-1,1189,1394,0,0
-28,-370,0,0,0,0,0,0,0,0,0,-1,1196,1394,0,0
-21,-370,0,0,0,0,0,0,0,0,0,-1,1203,1394,0,0
-14,-370,0,0,0,0,0,0,0,0,0,-1,1210,1394,0,0
-7,-370,0,0,0,0,0,0,0,0,0,-1,1217,1394,0,0
0,-370,0,0,0,0,0,0,0,0,0,-1,1224,1394,0,0
7,-370,0,0,0,0,0,0,0,0,0,-1,1231,1394,0,0
14,-370,0,0,0,0,0,0,0,0,0,-1,1238,1394,0,0
21,-370,0,0,0,0,0,0,0,0,0,-1,1245,1394,0,0
28,-370,0,0,0,0,0,0,0,0,0,-1,1252,1394,0,0
35,-370,0,0,0,0,0,0,0,0,0,-1,1259,1394,0,0
42,-370,0,0,0,0,0,0,0,0,0,-1,1266,1394,0,0
49,-370,0,0,0,0,0,0,0,0,0,-1,1273,1394,0,0
56,-370,0,0,0,0,0,0,0,0,0,-1,1280,1394,0,0
63,-370,0,0,0,0,0,0,0,0,0,-1,1287,1394,0,0
70,-370,0,0,0,0,0,0,0,0,0,-1,1294,1394,0,0
77,-370,0,0,0,0,0,0,0,0,0,-1,1301,1394,0,0
84,-370,0,0,0,0,0,0,0,0,0,-1,1308,1394,0,0
91,-370,0,0,0,0,0,0,0,0,0,-1,1315,1394,0,0
98,-370,0,0,0,0,0,0,0,0,0,-1,1322,1394,0,0
105,-370,0,0,0,0,0,0,0,0,0,-1,1329,1394,0,0
112,-370,0,0,0,0,0,0,0,0,0,-1,1336,1394,0,0
119,-370,0,0,0,0,0,0,0,0,0,-1,1343,1394,0,0
126,-370,0,0,0,0,0,0,0,0,0,-1,1350,1394,0,0
133,-370,0,0,0,0,0,0,0,0,0,-1,1357,1394,0,0
140,-370,0,0,0,0,0,0,0,0,0,-1,1364,1394,0,0
147,-370,0,0,0,0,0,0,0,0,0,-1,1371,1394,0,0
154,-370,0,0,0,0,0,0,0,0,0,-1,1378,1394,0,0
161,-370,0,0,0,0,0,0,0,0,0,-1,1385,1394,0,0
168,-370,0,0,0,0,0,0,0,0,0,-1,1392,1394,0,0
175,-370,0,0,0,0,0,0,0,0,0,-1,1399,1394,0,0
182,-370,0,0,0,0,0,0,0,0,0,-1,1406,1394,0,0
189,-370,0,0,0,0,0,0,0,0,0,-1,1413,1394,0,0
196,-370,0,0,0,0,0,0,0,0,0,-1,1420,1394,0,0
203,-370,0,0,0,0,0,0,0,0,0,-1,1427,1394,0,0
210,-370,0,0,0,0,0,0,0,0,0,-1,1434,1394,0,0
217,-370,0,0,0,0,0,0,0,0,0,-1,1441,1394,0,0
224,-370,0,0,0,0,0,0,0,0,0,-1,1448,1394,0,0
231,-370,0,0,0,0,0,0,0,0,0,-1,1455,1394,0,0
238,-370,0,0,0,0,0,0,0,0,0,-1,1462,1394,0,0
245,-370,0,0,0,0,0,0,0,0,0,-1,1469,1394,0,0
252,-370,0,0,0,0,0,0,0,0,0,-1,1476,1394,0,0
259,-370,0,0,0,0,0,0,0,0,0,-1,1483,1394,0,0
266,-370,0,0,0,0,0,0,0,0,0,-1,1490,1394,0,0
273,-370,0,0,0,0,0,0,0,0,0,-1,1497,1394,0,0
280,-370,0,0,0,0,0,0,0,0,0,-1,1504,1394,0,0
287,-370,0,0,0,0,0,0,0,0,0,-1,1511,1394,0,0
294,-370,0,0,0,0,0,0,0,0,0,-1,1518,1394,0,0
301,-370,0,0,0,0,0,0,0,0,0,-1,1525,1394,0,0
308,-370,0,0,0,0,0,0,0,0,0,-1,1532,1394,0,0
315,-370,0,0,0,0,0,0,0,0,0,-1,1539,1394,0,0
322,-370,0,0,0,0,0,0,0,0,0,-1,1546,1394,0,0
329,-370,0,0,0,0,0,0,0,0,0,-1,1553,1394,0,0
336,-370,0,0,0,0,0,0,0,0,0,-1,1560,1394,0,0
343,-370,0,0,0,0,0,0,0,0,0,-1,1567,1394,0,0
350,-370,0,0,0,0,0,0,0,0,0,-1,1574,1394,0,0
357,-370,0,0,0,0,0,0,0,0,0,-1,1581,1394,0,0
364,-370,0,0,0,0,0,0,0,0,0,-1,1588,1394,0,0
371,-370,0,0,0,0,0,0,0,0,0,-1,1595,1394,0,0
378,-370,0,0,0,0,0,0,0,0,0,-1,1602,1394,0,0
385,-370,0,0,0,0,0,0,0,0,0,-1,1609,1394,0,0
392,-370,0,0,0,0,0,0,0,0,0,-1,1616,1394,0,0
399,-370,0,0,0,0,0,0,0,0,0,-1,1623,1394,0,0
406,-370,0,0,0,0,0,0,0,0,0,-1,1630,1394,0,0
413,-370,0,0,0,0,0,0,0,0,0,-1,1637,1394,0,0
420,-370,0,0,0,0,0,0,0,0,0,-1,1644,1394,0,0
427,-370,0,0,0,0,0,0,0,0,0,-1,1651,1394,0,0
434,-370,0,0,0,0,0,0,0,0,0,-1,1658,1394,0,0
441,-370,0,0,0,0,0,0,0,0,0,-1,1665,1394,0,0
448,-370,0,0,0,0,0,0,0,0,0,-1,1672,1394,0,0
455,-370,0,0,0,0,0,0,0,0,0,-1,1679,1394,0,0
462,-370,0,0,0,0,0,0,0,0,0,-1,1686,1394,0,0
469,-370,0,0,0,0,0,0,0,0,0,-1,1693,1394,0,0
476,-370,0,0,0,0,0,0,0,0,0,-1,1700,1394,0,0
483,-370,0,0,0,0,0,0,0,0,0,-1,1707,1394,0,0
490,-370,0,0,0,0,0,0,0,0,0,-1,1714,1394,0,0
497,-370,0,0,0,0,0,0,0,0,0,-1,1721,1394,0,0
504,-370,0,0,0,0,0,0,0,0,0,-1,1728,1394,0,0
511,-370,0,0,0,0,0,0,0,0,0,-1,1735,1394,0,0
518,-370,0,0,0,0,0,0,0,0,0,-1,1742,1394,0,0
525,-370,0,0,0,0,0,0,0,0,0,-1,1749,1394,0,0
532,-370,0,0,0,0,0,0,0,0,0,-1,1756,1394,0,0
539,-370,0,0,0,0,0,0,0,0,0,-1,1763,1394,0,0
546,-370,-0.90332,-0.228271,0,0,0,0,0,0,0,-1,1770,1394,-0.903273,0.228215
553,-370,0.0144043,-0.633057,0,0,0,0,0,0,0,-1,1777,1394,0.0144555,0.633088
560,-370,0.396118,-0.0111084,0,0,0,0,0,0,0,-1,1784,1394,0.396087,0.0110723
567,-370,0.448242,-0.153564,0.00461305,0.00385619,-0.0013209,0.00560866,0.00286058,-0.645887,0.00323838,0.0412965,1791,1394,0.448206,0.153527
574,-370,0.325562,-0.192627,0.00273291,0.00341754,-0.00132673,0.0044454,0.00170505,-0.911653,0.00258965,0.0400597,1798,1394,0.325611,0.192678
581,-370,-0.0698242,-0.278809,0.00186471,0.00161391,-0.00109119,0.00283768,0.00064094,-0.728189,0.00171845,0.0407486,1805,1394,-0.0698832,0.278825
588,-370,-0.156738,-0.164551,0,0,0,0,0,0,0,-1,1812,1394,-0.156735,0.1645
595,-370,-0.13147,-0.189941,0.00148439,-0.0024146,-0.000147531,0.00148997,-0.00242017,-0.0377664,0.00227871,0.0443319,1819,1394,-0.131459,0.189903
602,-370,-0.136963,-0.240845,0.00197996,-0.00421131,0.000589504,0.00203559,-0.00426694,0.0940888,0.00371401,0.0474126,1826,1394,-0.136913,0.240792
609,-370,-0.0935059,-0.240845,0.00242121,-0.00592729,0.00121281,0.00259382,-0.00609991,0.14138,0.00515359,0.0444182,1833,1394,-0.0935512,0.240878
616,-370,-0.0323486,-0.257324,0.0027167,-0.00691843,0.00168513,0.00300292,-0.00720465,0.168244,0.00605748,0.0429268,1840,1394,-0.0323329,0.257376
623,-370,-0.0819092,-0.0742188,0.00288957,-0.00724501,0.00206392,0.00329377,-0.00764921,0.193393,0.00648259,0.0389133,1847,1394,-0.0819435,0.0742308
630,-370,-0.0861816,0.0551758,0.00263653,-0.00821062,0.00187194,0.00295049,-0.00852458,0.166173,0.00688075,0.0187441,1854,1394,-0.0862406,-0.0551528
637,-370,-0.0505371,0.0830078,0.00294632,-0.007815,0.00218855,0.00337438,-0.00824306,0.193154,0.00690088,0.0120788,1861,1394,-0.0504848,-0.0829557
644,-370,-0.0498047,0.0748291,0.00272237,-0.00680906,0.00194334,0.00310336,-0.00719006,0.193595,0.00609703,0.010412,1868,1394,-0.0498137,-0.074783
651,-370,-0.0418701,0.0561523,0.00229905,-0.00571584,0.00159581,0.0026051,-0.00602189,0.189482,0.00510935,0.0101912,1875,1394,-0.0418431,-0.0561346
658,-370,-0.0351563,0.0563965,0.00178856,-0.0040786,0.00130217,0.00206458,-0.00435462,0.208879,0.00378392,0.0110794,1882,1394,-0.0352137,-0.0564392
665,-370,-0.0712891,0.0811768,0.00131886,-0.00290387,0.000917037,0.00150941,-0.00309442,0.204875,0.00271002,0.0125441,1889,1394,-0.0712477,-0.0811463
672,-370,-0.0718994,0.100586,0.000911767,-0.0018011,0.000534229,0.00101318,-0.00190252,0.187596,0.00170928,0.0135736,1896,1394,-0.0718933,-0.100615
679,-370,-0.0228271,0.0737305,0.000768563,-0.00107195,0.000357083,0.000835413,-0.0011388,0.185071,0.00114429,0.0135699,1903,1394,-0.022771,-0.0737105
686,-370,-0.0183105,0.0748291,0.000850558,2.56173e-05,0.000344273,0.000975354,-9.91792e-05,0.347761,0.000685691,0.0132977,1910,1394,-0.0183642,-0.0748259
693,-370,-0.0306396,0.0799561,0.000909223,0.000598802,0.000139488,0.000962692,0.000545333,0.366048,0.000557445,0.0112583,1917,1394,-0.0306336,-0.0799955
700,-370,-0.0432129,0.0827637,0.00111815,0.000902588,-0.000151381,0.0011962,0.000824538,-0.47604,0.000706931,0.0132866,1924,1394,-0.0431891,-0.0827651
707,-370,-0.0288086,0.0909424,0.00174393,0.00133555,-0.000338135,0.00193475,0.00114474,-0.513767,0.00112327,0.0227444,1931,1394,-0.028843,-0.0908839
714,-370,0.0397949,-0.032959,0.00250575,0.00186197,-0.000795457,0.00304198,0.00132574,-0.593138,0.0017611,0.0367434,1938,1394,0.0397384,0.0329676
721,-370,-0.0800781,0.1073,0.00363786,0.00249776,-0.00156399,0.00473245,0.00140317,-0.61064,0.0028067,0.0397899,1945,1394,-0.0800962,-0.107344
728,-370,-0.261108,0.258057,0.00530534,0.00323823,-0.00281464,0.00727019,0.00127338,-0.609438,0.00448303,0.0403475,1952,1394,-0.261157,-0.258049
735,-370,-0.321167,0.221558,0.00771755,0.00409439,-0.00479585,0.0110326,0.000779377,-0.604813,0.00710951,0.042373,1959,1394,-0.321194,-0.221517
742,-370,-0.301025,0.176514,0,0,0,0,0,0,0,-1,1966,1394,-0.300992,-0.176494
749,-370,0,0,0,0,0,0,0,0,0,-1,1973,1394,0,0
756,-370,0,0,0,0,0,0,0,0,0,-1,1980,1394,0,0
763,-370,0,0,0,0,0,0,0,0,0,-1,1987,1394,0,0
770,-370,0,0,0,0,0,0,0,0,0,-1,1994,1394,0,0
777,-370,0,0,0,0,0,0,0,0,0,-1,2001,1394,0,0
784,-370,0,0,0,0,0,0,0,0,0,-1,2008,1394,0,0
791,-370,0,0,0,0,0,0,0,0,0,-1,2015,1394,0,0
798,-370,0,0,0,0,0,0,0,0,0,-1,2022,1394,0,0
805,-370,0,0,0,0,0,0,0,0,0,-1,2029,1394,0,0
812,-370,0,0,0,0,0,0,0,0,0,-1,2036,1394,0,0
-700,-377,0,0,0,0,0,0,0,0,0,-1,524,1401,0,0
-693,-377,0,0,0,0,0,0,0,0,0,-1,531,1401,0,0
-686,-377,0,0,0,0,0,0,0,0,0,-1,538,1401,0,0
-679,-377,0,0,0,0,0,0,0,0,0,-1,545,1401,0,0
-672,-377,0,0,0,0,0,0,0,0,0,-1,552,1401,0,0
-665,-377,0,0,0,0,0,0,0,0,0,-1,559,1401,0,0
-658,-377,0,0,0,0,0,0,0,0,0,-1,566,1401,0,0
-651,-377,0,0,0,0,0,0,0,0,0,-1,573,1401,0,0
-644,-377,0,0,0,0,0,0,0,0,0,-1,580,1401,0,0
-637,-377,0,0,0,0,0,0,0,0,0,-1,587,1401,0,0
-630,-377,0,0,0,0,0,0,0,0,0,-1,594,1401,0,0
-623,-377,0,0,0,0,0,0,0,0,0,-1,601,1401,0,0
-616,-377,0.319397,0.607178,0,0,0,0,0,0,0,-1,608,1401,0.319397,-0.607137
-609,-377,-1.3067,-0.397705,0,0,0,0,0,0,0,-1,615,1401,-1.30668,0.397749
-602,-377,-1.82068,-0.413208,-0.0189622,0.0155468,0.00556284,0.0164213,-0.0198368,1.41486,0.0209646,0.0437294,622,1401,-1.82066,0.413223
-595,-377,-2.38007,-0.48291,-0.0087678,0.014075,0.00859736,0.0169491,-0.011642,1.24817,0.0166016,0.0454563,629,1401,-2.38009,0.482953
-588,-377,-3.04303,-0.689819,-0.00202872,0.0126203,0.00990993,0.0176188,-0.00702715,1.10365,0.0146608,0.0486864,636,1401,-3.04303,0.689857
-581,-377,-3.87537,-0.724731,0,0,0,0,0,0,0,-1,643,1401,-3.87538,0.724755
-574,-377,0.0534668,0.00585938,0.00482975,0.00945673,0.00976573,0.0171793,-0.00289278,0.901703,0.0125289,0.0443023,650,1401,0.0534657,-0.00582051
-567,-377,-0.0189209,0.0401611,0.00516551,0.00797403,0.00843618,0.015122,-0.00198249,0.867871,0.010803,0.0261251,657,1401,-0.0189382,-0.0402079
-560,-377,-0.0457764,0.0626221,0.0046964,0.0064538,0.00699046,0.0126206,-0.00147037,0.84792,0.00894422,0.0160513,664,1401,-0.0457939,-0.062637
-553,-377,-0.067749,0.0672607,0.0042535,0.00503025,0.0055729,0.0102283,-0.000944544,0.820187,0.00715452,0.0115591,671,1401,-0.0677443,-0.0672844
-546,-377,-0.0580444,0.0780029,0.00391579,0.00384,0.00428471,0.00816277,-0.000406985,0.780976,0.00558246,0.0137988,678,1401,-0.0580711,-0.0779768
-539,-377,-0.022583,0.0648193,0.00261694,0.00247051,0.00288134,0.005426,-0.000338546,0.772696,0.0037353,0.0176968,685,1401,-0.0225792,-0.0647977
-532,-377,-0.0405273,0.0703125,0.00138911,0.000849879,0.00150039,0.00264391,-0.00040493,0.696499,0.00191193,0.0184829,692,1401,-0.0405324,-0.0703263
-525,-377,-0.0174561,0.0629883,0.000191563,-0.000244814,0.000626852,0.000637114,-0.000690365,0.617921,0.000766626,0.0135619,699,1401,-0.0174653,-0.0630393
-518,-377,-0.0305176,0.0490723,-0.000215887,-0.00106662,0.000319682,-0.000109151,-0.00117336,0.322244,0.000748512,0.00948423,706,1401,-0.0305018,-0.049116
-511,-377,-0.0270996,0.0554199,-0.00107895,-0.00139976,0.00014385,-0.00102389,-0.00145481,0.365518,0.000862881,0.0105246,713,1401,-0.0271145,-0.0553626
-504,-377,-0.0303345,0.0513916,-0.00114322,0.00037017,-0.00138444,0.00119121,-0.00196426,-1.0355,0.00183994,0.0104668,720,1401,-0.030321,-0.0513463
-497,-377,-0.024353,0.0469971,-0.00160086,0.00530098,-0.0035989,0.00683613,-0.00313601,-1.1676,0.00588804,0.0128685,727,1401,-0.0243479,-0.0469561
-490,-377,-0.0216064,0.0565186,-0.00292219,0.00904438,-0.00502668,0.0108756,-0.00475346,-1.22143,0.00925136,0.0280268,734,1401,-0.0216281,-0.0565388
-483,-377,-0.0176392,0.0292969,-0.00478489,0.0128048,-0.00594841,0.0146276,-0.00660761,-1.27346,0.0125482,0.0409221,741,1401,-0.0176668,-0.0293077
-476,-377,-0.045105,-0.0439453,-0.00698538,0.0182411,-0.00736469,0.0202338,-0.00897805,-1.30655,0.0172777,0.0448486,748,1401,-0.0451031,0.0439392
-469,-377,0.00372314,0.0395508,0,0,0,0,0,0,0,-1,755,1401,0.00369422,-0.0395059
-462,-377,-0.830322,0.413086,-0.013259,0.0319371,-0.01033,0.0341862,-0.0155081,-1.35642,0.0293588,0.0459902,762,1401,-0.83032,-0.413132
-455,-377,-1.28857,0.394531,-0.0178087,0.0382295,-0.010819,0.0402458,-0.0198249,-1.38655,0.0353435,0.0480972,769,1401,-1.28855,-0.394531
-448,-377,-1.90454,0.219971,0,0,0,0,0,0,0,-1,776,1401,-1.90455,-0.219914
-441,-377,1.58887,-3.547,0,0,0,0,0,0,0,-1,783,1401,1.58888,3.54696
-434,-377,1.69574,-2.78113,0,0,0,0,0,0,0,-1,790,1401,1.69575,2.78107
-427,-377,1.57458,-1.78442,0,0,0,0,0,0,0,-1,797,1401,1.57457,1.78446
-420,-377,0,0,0,0,0,0,0,0,0,-1,804,1401,0,0
-413,-377,0,0,0,0,0,0,0,0,0,-1,811,1401,0,0
-406,-377,0,0,0,0,0,0,0,0,0,-1,818,1401,0,0
-399,-377,0,0,0,0,0,0,0,0,0,-1,825,1401,0,0
-392,-377,0,0,0,0,0,0,0,0,0,-1,832,1401,0,0
-385,-377,0,0,0,0,0,0,0,0,0,-1,839,1401,0,0
-378,-377,0,0,0,0,0,0,0,0,0,-1,846,1401,0,0
-371,-377,0,0,0,0,0,0,0,0,0,-1,853,1401,0,0
-364,-377,0,0,0,0,0,0,0,0,0,-1,860,1401,0,0
-357,-377,0,0,0,0,0,0,0,0,0,-1,867,1401,0,0
-350,-377,0,0,0,0,0,0,0,0,0,-1,874,1401,0,0
-343,-377,0,0,0,0,0,0,0,0,0,-1,881,1401,0,0
-336,-377,0,0,0,0,0,0,0,0,0,-1,888,1401,0,0
-329,-377,0,0,0,0,0,0,0,0,0,-1,895,1401,0,0
-322,-377,0,0,0,0,0,0,0,0,0,-1,902,1401,0,0
-315,-377,0,0,0,0,0,0,0,0,0,-1,909,1401,0,0
-308,-377,0,0,0,0,0,0,0,0,0,-1,916,1401,0,0
-301,-377,0,0,0,0,0,0,0,0,0,-1,923,1401,0,0
-294,-377,0,0,0,0,0,0,0,0,0,-1,930,1401,0,0
-287,-377,0,0,0,0,0,0,0,0,0,-1,937,1401,0,0
-280,-377,0,0,0,0,0,0,0,0,0,-1,944,1401,0,0
-273,-377,0,0,0,0,0,0,0,0,0,-1,951,1401,0,0
-266,-377,0,0,0,0,0,0,0,0,0,-1,958,1401,0,0
-259,-377,0,0,0,0,0,0,0,0,0,-1,965,1401,0,0
-252,-377,0,0,0,0,0,0,0,0,0,-1,972,1401,0,0
-245,-377,0,0,0,0,0,0,0,0,0,-1,979,1401,0,0
-238,-377,0,0,0,0,0,0,0,0,0,-1,986,1401,0,0
-231,-377,0,0,0,0,0,0,0,0,0,-1,993,1401,0,0
-224,-377,0,0,0,0,0,0,0,0,0,-1,1000,1401,0,0
-217,-377,0,0,0,0,0,0,0,0,0,-1,1007,1401,0,0
-210,-377,0,0,0,0,0,0,0,0,0,-1,1014,1401,0,0
-203,-377,0,0,0,0,0,0,0,0,0,-1,1021,1401,0,0
-196,-377,0,0,0,0,0,0,0,0,0,-1,1028,1401,0,0
-189,-377,0,0,0,0,0,0,0,0,0,-1,1035,1401,0,0
-182,-377,0,0,0,0,0,0,0,0,0,-1,1042,1401,0,0
-175,-377,0,0,0,0,0,0,0,0,0,-1,1049,1401,0,0
-168,-377,0,0,0,0,0,0,0,0,0,-1,1056,1401,0,0
-161,-377,0,0,0,0,0,0,0,0,0,-1,1063,1401,0,0
-154,-377,0,0,0,0,0,0,0,0,0,-1,1070,1401,0,0
-147,-377,0,0,0,0,0,0,0,0,0,-1,1077,1401,0,0
-140,-377,0,0,0,0,0,0,0,0,0,-1,1084,1401,0,0
-133,-377,0,0,0,0,0,0,0,0,0,-1,1091,1401,0,0
-126,-377,0,0,0,0,0,0,0,0,0,-1,1098,1401,0,0
-119,-377,0,0,0,0,0,0,0,0,0,-1,1105,1401,0,0
-112,-377,0,0,0,0,0,0,0,0,0,-1,1112,1401,0,0
-105,-377,0,0,0,0,0,0,0,0,0,-1,1119,1401,0,0
-98,-377,0,0,0,0,0,0,0,0,0,-1,1126,1401,0,0
-91,-377,0,0,0,0,0,0,0,0,0,-1,1133,1401,0,0
-84,-377,0,0,0,0,0,0,0,0,0,-1,1140,1401,0,0
-77,-377,0,0,0,0,0,0,0,0,0,-1,1147,1401,0,0
-70,-377,0,0,0,0,0,0,0,0,0,-1,1154,1401,0,0
-63,-377,0,0,0,0,0,0,0,0,0,-1,1161,1401,0,0
-56,-377,0,0,0,0,0,0,0,0,0,-1,1168,1401,0,0
-49,-377,0,0,0,0,0,0,0,0,0,-1,1175,1401,0,0
-42,-377,0,0,0,0,0,0,0,0,0,-1,1182,1401,0,0
-35,-377,0,0,0,0,0,0,0,0,0,-1,1189,1401,0,0
-28,-377,0,0,0,0,0,0,0,0,0,-1,1196,1401,0,0
-21,-377,0,0,0,0,0,0,0,0,0,-1,1203,1401,0,0
-14,-377,0,0,0,0,0,0,0,0,0,-1,1210,1401,0,0
-7,-377,0,0,0,0,0,0,0,0,0,-1,1217,1401,0,0
0,-377,0,0,0,0,0,0,0,0,0,-1,1224,1401,0,0
7,-377,0,0,0,0,0,0,0,0,0,-1,1231,1401,0,0
14,-377,0,0,0,0,0,0,0,0,0,-1,1238,1401,0,0
21,-377,0,0,0,0,0,0,0,0,0,-1,1245,1401,0,0
28,-377,0,0,0,0,0,0,0,0,0,-1,1252,1401,0,0
35,-377,0,0,0,0,0,0,0,0,0,-1,1259,1401,0,0
42,-377,0,0,0,0,0,0,0,0,0,-1,1266,1401,0,0
49,-377,0,0,0,0,0,0,0,0,0,-1,1273,1401,0,0
56,-377,0,0,0,0,0,0,0,0,0,-1,1280,1401,0,0
63,-377,0,0,0,0,0,0,0,0,0,-1,1287,1401,0,0
70,-377,0,0,0,0,0,0,0,0,0,-1,1294,1401,0,0
77,-377,0,0,0,0,0,0,0,0,0,-1,1301,1401,0,0
84,-377,0,0,0,0,0,0,0,0,0,-1,1308,1401,0,0
91,-377,0,0,0,0,0,0,0,0,0,-1,1315,1401,0,0
98,-377,0,0,0,0,0,0,0,0,0,-1,1322,1401,0,0
105,-377,0,0,0,0,0,0,0,0,0,-1,1329,1401,0,0
112,-377,0,0,0,0,0,0,0,0,0,-1,1336,1401,0,0
119,-377,0,0,0,0,0,0,0,0,0,-1,1343,1401,0,0
126,-377,0,0,0,0,0,0,0,0,0,-1,1350,1401,0,0
133,-377,0,0,0,0,0,0,0,0,0,-1,1357,1401,0,0
140,-377,0,0,0,0,0,0,0,0,0,-1,1364,1401,0,0
147,-377,0,0,0,0,0,0,0,0,0,-1,1371,1401,0,0
154,-377,0,0,0,0,0,0,0,0,0,-1,1378,1401,0,0
161,-377,0,0,0,0,0,0,0,0,0,-1,1385,1401,0,0
168,-377,0,0,0,0,0,0,0,0,0,-1,1392,1401,0,0
175,-377,0,0,0,0,0,0,0,0,0,-1,1399,1401,0,0
182,-377,0,0,0,0,0,0,0,0,0,-1,1406,1401,0,0
189,-377,0,0,0,0,0,0,0,0,0,-1,1413,1401,0,0
196,-377,0,0,0,0,0,0,0,0,0,-1,1420,1401,0,0
203,-377,0,0,0,0,0,0,0,0,0,-1,1427,1401,0,0
210,-377,0,0,0,0,0,0,0,0,0,-1,1434,1401,0,0
217,-377,0,0,0,0,0,0,0,0,0,-1,1441,1401,0,0
224,-377,0,0,0,0,0,0,0,0,0,-1,1448,1401,0,0
231,-377,0,0,0,0,0,0,0,0,0,-1,1455,1401,0,0
238,-377,0,0,0,0,0,0,0,0,0,-1,1462,1401,0,0
245,-377,0,0,0,0,0,0,0,0,0,-1,1469,1401,0,0
252,-377,0,0,0,0,0,0,0,0,0,-1,1476,1401,0,0
259,-377,0,0,0,0,0,0,0,0,0,-1,1483,1401,0,0
266,-377,0,0,0,0,0,0,0,0,0,-1,1490,1401,0,0
273,-377,0,0,0,0,0,0,0,0,0,-1,1497,1401,0,0
280,-377,0,0,0,0,0,0,0,0,0,-1,1504,1401,0,0
287,-377,0,0,0,0,0,0,0,0,0,-1,1511,1401,0,0
294,-377,0,0,0,0,0,0,0,0,0,-1,1518,1401,0,0
301,-377,0,0,0,0,0,0,0,0,0,-1,1525,1401,0,0
308,-377,0,0,0,0,0,0,0,0,0,-1,1532,1401,0,0
315,-377,0,0,0,0,0,0,0,0,0,-1,1539,1401,0,0
322,-377,0,0,0,0,0,0,0,0,0,-1,1546,1401,0,0
329,-377,0,0,0,0,0,0,0,0,0,-1,1553,1401,0,0
336,-377,0,0,0,0,0,0,0,0,0,-1,1560,1401,0,0
343,-377,0,0,0,0,0,0,0,0,0,-1,1567,1401,0,0
350,-377,0,0,0,0,0,0,0,0,0,-1,1574,1401,0,0
357,-377,0,0,0,0,0,0,0,0,0,-1,1581,1401,0,0
364,-377,0,0,0,0,0,0,0,0,0,-1,1588,1401,0,0
371,-377,0,0,0,0,0,0,0,0,0,-1,1595,1401,0,0
378,-377,0,0,0,0,0,0,0,0,0,-1,1602,1401,0,0
385,-377,0,0,0,0,0,0,0,0,0,-1,1609,1401,0,0
392,-377,0,0,0,0,0,0,0,0,0,-1,1616,1401,0,0
399,-377,0,0,0,0,0,0,0,0,0,-1,1623,1401,0,0
406,-377,0,0,0,0,0,0,0,0,0,-1,1630,1401,0,0
413,-377,0,0,0,0,0,0,0,0,0,-1,1637,1401,0,0
420,-377,0,0,0,0,0,0,0,0,0,-1,1644,1401,0,0
427,-377,0,0,0,0,0,0,0,0,0,-1,1651,1401,0,0
434,-377,0,0,0,0,0,0,0,0,0,-1,1658,1401,0,0
441,-377,0,0,0,0,0,0,0,0,0,-1,1665,1401,0,0
448,-377,0,0,0,0,0,0,0,0,0,-1,1672,1401,0,0
455,-377,0,0,0,0,0,0,0,0,0,-1,1679,1401,0,0
462,-377,0,0,0,0,0,0,0,0,0,-1,1686,1401,0,0
469,-377,0,0,0,0,0,0,0,0,0,-1,1693,1401,0,0
476,-377,0,0,0,0,0,0,0,0,0,-1,1700,1401,0,0
483,-377,0,0,0,0,0,0,0,0,0,-1,1707,1401,0,0
490,-377,0,0,0,0,0,0,0,0,0,-1,1714,1401,0,0
497,-377,0,0,0,0,0,0,0,0,0,-1,1721,1401,0,0
504,-377,0,0,0,0,0,0,0,0,0,-1,1728,1401,0,0
511,-377,0,0,0,0,0,0,0,0,0,-1,1735,1401,0,0
518,-377,0,0,0,0,0,0,0,0,0,-1,1742,1401,0,0
525,-377,0,0,0,0,0,0,0,0,0,-1,1749,1401,0,0
532,-377,0,0,0,0,0,0,0,0,0,-1,1756,1401,0,0
539,-377,0,0,0,0,0,0,0,0,0,-1,1763,1401,0,0
546,-377,-0.291626,-1.08276,0,0,0,0,0,0,0,-1,1770,1401,-0.291595,1.08273
553,-377,0.119995,-0.856567,0,0,0,0,0,0,0,-1,1777,1401,0.119998,0.856545
560,-377,0.443726,-0.179688,0,0,0,0,0,0,0,-1,1784,1401,0.443672,0.179644
567,-377,0.678589,-0.471802,0,0,0,0,0,0,0,-1,1791,1401,0.678579,0.471767
574,-377,0.116821,-0.0789795,0.00209428,-0.000688465,0.000443511,0.00216325,-0.000757442,0.154288,0.00175016,0.0382726,1798,1401,0.11677,0.0789796
581,-377,-0.139893,-0.344604,0.00146907,-0.00158089,0.00033245,0.00150488,-0.0016167,0.107323,0.00180264,0.0395235,1805,1401,-0.139894,0.344554
588,-377,-0.0805664,-0.388306,0.00115854,-0.00268892,0.000240353,0.00117349,-0.00270388,0.0621484,0.00229599,0.0388344,1812,1401,-0.0806122,0.388345
595,-377,-0.0491943,-0.227417,0.00103594,-0.00366309,0.000398794,0.00106955,-0.00369669,0.0840661,0.00288777,0.0390979,1819,1401,-0.0492133,0.22739
602,-377,0.0668945,-0.213989,0.0015258,-0.0047127,0.000826675,0.00163349,-0.00482038,0.129534,0.00387461,0.0408252,1826,1401,0.0668974,0.213994
609,-377,-0.0258789,-0.229004,0.00200793,-0.00590035,0.00120677,0.00218798,-0.0060804,0.148107,0.00494693,0.0447054,1833,1401,-0.0259181,0.229021
616,-377,-0.0878906,-0.150879,0.00227561,-0.00643965,0.00144484,0.00250889,-0.00667293,0.160079,0.00547983,0.0465697,1840,1401,-0.0878822,0.150848
623,-377,-0.0806885,0.0065918,0.00241083,-0.00646985,0.00166803,0.0027138,-0.00677281,0.179672,0.00564174,0.0356817,1847,1401,-0.0807002,-0.00663308
630,-377,-0.0693359,0.0751953,0.00224028,-0.00703124,0.00150277,0.00247777,-0.00726874,0.15674,0.00584937,0.0165084,1854,1401,-0.0693754,-0.0751923
637,-377,-0.0526123,0.0894775,0.00250932,-0.00651015,0.00170863,0.00282215,-0.00682298,0.181082,0.00572609,0.0110763,1861,1401,-0.0526651,-0.0894855
644,-377,-0.0496826,0.0734863,0.00232924,-0.00559716,0.00150151,0.00260414,-0.00587206,0.181077,0.0050135,0.0101684,1868,1401,-0.049669,-0.0734722
651,-377,-0.0444336,0.0551758,0.00195527,-0.0046718,0.00121977,0.00217264,-0.00488918,0.176361,0.00417649,0.0116324,1875,1401,-0.0444565,-0.0551727
658,-377,-0.0471191,0.045166,0.0015155,-0.00314462,0.000961685,0.00170616,-0.00333528,0.195716,0.0029609,0.0130132,1882,1401,-0.0470598,-0.0451381
665,-377,-0.0627441,0.0458984,0.00125581,-0.00195231,0.000721599,0.00141064,-0.00210715,0.211368,0.00204422,0.014662,1889,1401,-0.062772,-0.0459187
672,-377,-0.0490723,0.0614014,0.0010622,-0.00103748,0.000504188,0.00117699,-0.00115228,0.223862,0.00134483,0.0150446,1896,1401,-0.0491216,-0.0614209
679,-377,-0.0153809,0.0623779,0.00107006,-0.000440138,0.000414266,0.00117623,-0.000546312,0.250894,0.00101643,0.0161399,1903,1401,-0.0153566,-0.0623811
686,-377,-0.0183105,0.0576172,0.00127558,0.00058837,0.000345544,0.00141928,0.000444672,0.394105,0.000838247,0.0141275,1910,1401,-0.0183091,-0.0576007
693,-377,-0.0463867,0.0672607,0.00146682,0.00117166,0.000147778,0.00152809,0.00111039,0.393039,0.000911955,0.0107076,1917,1401,-0.0463713,-0.0672832
700,-377,-0.0682373,0.0725098,0.00177401,0.00163219,-0.000176322,0.00189315,0.00151305,-0.594208,0.00115641,0.0166171,1924,1401,-0.0682075,-0.0725151
707,-377,-0.0389404,0.157715,0.0024322,0.00229202,-0.000491757,0.00285884,0.00186538,-0.714611,0.00167595,0.0354023,1931,1401,-0.0388953,-0.157669
714,-377,0.0795898,0.315308,0.0032375,0.00309885,-0.00113024,0.00430054,0.00203581,-0.754768,0.00248409,0.0408926,1938,1401,0.0795574,-0.31528
721,-377,0.0512695,0.359497,0.00439468,0.004066,-0.00214624,0.00638286,0.00207782,-0.747187,0.00375918,0.0394429,1945,1401,0.0512779,-0.359457
728,-377,-0.0185547,0.113403,0.00607615,0.00519279,-0.00374342,0.00940385,0.00186509,-0.726675,0.00574928,0.041486,1952,1401,-0.0185787,-0.113404
735,-377,0.308228,-0.356445,0.00848731,0.00649717,-0.0062052,0.0137767,0.00120776,-0.705895,0.00880954,0.042629,1959,1401,0.308232,0.356501
742,-377,0,0,0,0,0,0,0,0,0,-1,1966,1401,0,0
749,-377,0,0,0,0,0,0,0,0,0,-1,1973,1401,0,0
756,-377,0,0,0,0,0,0,0,0,0,-1,1980,1401,0,0
763,-377,0,0,0,0,0,0,0,0,0,-1,1987,1401,0,0
770,-377,0,0,0,0,0,0,0,0,0,-1,1994,1401,0,0
777,-377,0,0,0,0,0,0,0,0,0,-1,2001,1401,0,0
784,-377,0,0,0,0,0,0,0,0,0,-1,2008,1401,0,0
791,-377,0,0,0,0,0,0,0,0,0,-1,2015,1401,0,0
798,-377,0,0,0,0,0,0,0,0,0,-1,2022,1401,0,0
805,-377,0,0,0,0,0,0,0,0,0,-1,2029,1401,0,0
812,-377,0,0,0,0,0,0,0,0,0,-1,2036,1401,0,0
-700,-384,0,0,0,0,0,0,0,0,0,-1,524,1408,0,0
-693,-384,0,0,0,0,0,0,0,0,0,-1,531,1408,0,0
-686,-384,0,0,0,0,0,0,0,0,0,-1,538,1408,0,0
-679,-384,0,0,0,0,0,0,0,0,0,-1,545,1408,0,0
-672,-384,0,0,0,0,0,0,0,0,0,-1,552,1408,0,0
-665,-384,0,0,0,0,0,0,0,0,0,-1,559,1408,0,0
-658,-384,0,0,0,0,0,0,0,0,0,-1,566,1408,0,0
-651,-384,0,0,0,0,0,0,0,0,0,-1,573,1408,0,0
-644,-384,0,0,0,0,0,0,0,0,0,-1,580,1408,0,0
-637,-384,0,0,0,0,0,0,0,0,0,-1,587,1408,0,0
-630,-384,0,0,0,0,0,0,0,0,0,-1,594,1408,0,0
-623,-384,0,0,0,0,0,0,0,0,0,-1,601,1408,0,0
-616,-384,0.275513,0.229614,0,0,0,0,0,0,0,-1,608,1408,0.275489,-0.229666
-609,-384,-1.08899,-0.509277,0,0,0,0,0,0,0,-1,615,1408,-1.08902,0.509241
-602,-384,-1.57428,-0.452515,-0.0241197,0.0179488,0.000465271,0.017954,-0.0241249,1.55974,0.0243812,0.0451505,622,1408,-1.57428,0.45253
-595,-384,-2.229,-0.504639,-0.0125239,0.0169377,0.00381213,0.017423,-0.0130091,1.44418,0.0176315,0.0430767,629,1408,-2.229,0.504605
-588,-384,-3.27466,-0.650635,-0.0047792,0.0155198,0.00568022,0.0170011,-0.00626057,1.31568,0.0138992,0.041967,636,1408,-3.27467,0.650683
-581,-384,-4.06592,-0.708374,0,0,0,0,0,0,0,-1,643,1408,-4.06594,0.708352
-574,-384,-4.86023,-0.768433,0,0,0,0,0,0,0,-1,650,1408,-4.86023,0.768444
-567,-384,-0.0213623,0.00805664,0.00416962,0.00996357,0.00650156,0.0141844,-5.11813e-05,0.994985,0.00947335,0.0388699,657,1408,-0.0213688,-0.0080178
-560,-384,-0.026062,0.0422363,0.00415408,0.00803498,0.00567973,0.0120966,9.24706e-05,0.950004,0.00803375,0.0222036,664,1408,-0.026079,-0.0422103
-553,-384,-0.0291138,0.0583496,0.00411326,0.00619804,0.00478075,0.0100487,0.000262578,0.892738,0.00661336,0.0160518,671,1408,-0.0291065,-0.0583692
-546,-384,-0.0235596,0.0686035,0.00402355,0.00467545,0.00391923,0.00828226,0.000416742,0.826886,0.00538797,0.0134807,678,1408,-0.0235404,-0.0685723
-539,-384,-0.0481567,0.0546875,0.00280417,0.003108,0.00276907,0.00572932,0.000182847,0.812801,0.00376008,0.0142897,685,1408,-0.0481737,-0.0547205
-532,-384,-0.0567017,0.0410156,0.00163243,0.00132738,0.00159168,0.00307888,-0.000119063,0.737631,0.0020934,0.0192334,692,1408,-0.0566977,-0.0410432
-525,-384,-0.0441895,0.0628662,0.000389196,0.000177725,0.000750436,0.00104131,-0.000474388,0.71541,0.00089526,0.0172954,699,1408,-0.0441978,-0.0628681
-518,-384,-0.0449219,0.0649414,-6.34196e-06,-0.000615322,0.000383263,0.000178662,-0.000800326,0.449719,0.000602008,0.0106279,706,1408,-0.0449385,-0.0649967
-511,-384,-0.0400391,0.0697021,-0.000526485,-0.000992609,7.46633e-05,-0.000514818,-0.00100428,0.155014,0.000579881,0.00871355,713,1408,-0.0400667,-0.0696906
-504,-384,-0.0274658,0.0610352,-3.73792e-05,0.000772079,-0.00177543,0.00218832,-0.00145362,-0.897464,0.00211689,0.00988072,720,1408,-0.0274384,-0.0610806
-497,-384,-0.0282593,0.0473633,9.13159e-05,0.00557246,-0.00420148,0.00784818,-0.0021844,-1.07439,0.00609222,0.0112355,727,1408,-0.0282474,-0.0474025
-490,-384,-0.026062,0.0378418,-0.000536293,0.00914885,-0.0057836,0.0118495,-0.00323697,-1.13393,0.00917111,0.0180149,734,1408,-0.0260393,-0.0378826
-483,-384,-0.0432739,0.00830078,-0.0014772,0.0125917,-0.00686071,0.0153833,-0.00426888,-1.18435,0.0119358,0.0364827,741,1408,-0.0432585,-0.00828528
-476,-384,-0.0511475,-0.0141602,-0.00258,0.0177969,-0.00848449,0.0208671,-0.00565017,-1.2236,0.0161281,0.0436937,748,1408,-0.0511547,0.0142175
-469,-384,-0.355774,0.401245,-0.00415004,0.0240494,-0.0103604,0.0274465,-0.00754716,-1.25395,0.0212646,0.0433262,755,1408,-0.355754,-0.401299
-462,-384,-0.826965,0.712524,-0.00659364,0.0303964,-0.0117052,0.0337892,-0.00998645,-1.28867,0.02649,0.0454348,762,1408,-0.826936,-0.712552
-455,-384,-1.31586,0.768433,-0.0102025,0.0358659,-0.0121721,0.0388842,-0.0132209,-1.32773,0.0312755,0.0496082,769,1408,-1.31586,-0.768491
-448,-384,-1.87585,0.982422,-0.0151478,0.0402186,-0.0112232,0.0424071,-0.0173363,-1.37821,0.0354908,0.0482425,776,1408,-1.87587,-0.982363
-441,-384,1.56573,-1.64343,0,0,0,0,0,0,0,-1,783,1408,1.56576,1.64343
-434,-384,1.61676,-1.94958,-0.0331668,0.0387234,-0.00156325,0.0387574,-0.0332008,-1.54906,0.0415863,0.0437651,790,1408,1.61673,1.94957
-427,-384,1.24371,-1.26575,0,0,0,0,0,0,0,-1,797,1408,1.24374,1.26571
-420,-384,0.96991,-0.54541,0,0,0,0,0,0,0,-1,804,1408,0.969906,0.545395
-413,-384,0,0,0,0,0,0,0,0,0,-1,811,1408,0,0
-406,-384,0,0,0,0,0,0,0,0,0,-1,818,1408,0,0
-399,-384,0,0,0,0,0,0,0,0,0,-1,825,1408,0,0
-392,-384,0,0,0,0,0,0,0,0,0,-1,832,1408,0,0
-385,-384,0,0,0,0,0,0,0,0,0,-1,839,1408,0,0
-378,-384,0,0,0,0,0,0,0,0,0,-1,846,1408,0,0
-371,-384,0,0,0,0,0,0,0,0,0,-1,853,1408,0,0
-364,-384,0,0,0,0,0,0,0,0,0,-1,860,1408,0,0
-357,-384,0,0,0,0,0,0,0,0,0,-1,867,1408,0,0
-350,-384,0,0,0,0,0,0,0,0,0,-1,874,1408,0,0
-343,-384,0,0,0,0,0,0,0,0,0,-1,881,1408,0,0
-336,-384,0,0,0,0,0,0,0,0,0,-1,888,1408,0,0
-329,-384,0,0,0,0,0,0,0,0,0,-1,895,1408,0,0
-322,-384,0,0,0,0,0,0,0,0,0,-1,902,1408,0,0
-315,-384,0,0,0,0,0,0,0,0,0,-1,909,1408,0,0
-308,-384,0,0,0,0,0,0,0,0,0,-1,916,1408,0,0
-301,-384,0,0,0,0,0,0,0,0,0,-1,923,1408,0,0
-294,-384,0,0,0,0,0,0,0,0,0,-1,930,1408,0,0
-287,-384,0,0,0,0,0,0,0,0,0,-1,937,1408,0,0
-280,-384,0,0,0,0,0,0,0,0,0,-1,944,1408,0,0
-273,-384,0,0,0,0,0,0,0,0,0,-1,951,1408,0,0
-266,-384,0,0,0,0,0,0,0,0,0,-1,958,1408,0,0
-259,-384,0,0,0,0,0,0,0,0,0,-1,965,1408,0,0
-252,-384,0,0,0,0,0,0,0,0,0,-1,972,1408,0,0
-245,-384,0,0,0,0,0,0,0,0,0,-1,979,1408,0,0
-238,-384,0,0,0,0,0,0,0,0,0,-1,986,1408,0,0
-231,-384,0,0,0,0,0,0,0,0,0,-1,993,1408,0,0
-224,-384,0,0,0,0,0,0,0,0,0,-1,1000,1408,0,0
-217,-384,0,0,0,0,0,0,0,0,0,-1,1007,1408,0,0
-210,-384,0,0,0,0,0,0,0,0,0,-1,1014,1408,0,0
-203,-384,0,0,0,0,0,0,0,0,0,-1,1021,1408,0,0
-196,-384,0,0,0,0,0,0,0,0,0,-1,1028,1408,0,0
-189,-384,0,0,0,0,0,0,0,0,0,-1,1035,1408,0,0
-182,-384,0,0,0,0,0,0,0,0,0,-1,1042,1408,0,0
-175,-384,0,0,0,0,0,0,0,0,0,-1,1049,1408,0,0
-168,-384,0,0,0,0,0,0,0,0,0,-1,1056,1408,0,0
-161,-384,0,0,0,0,0,0,0,0,0,-1,1063,1408,0,0
-154,-384,0,0,0,0,0,0,0,0,0,-1,1070,1408,0,0
-147,-384,0,0,0,0,0,0,0,0,0,-1,1077,1408,0,0
-140,-384,0,0,0,0,0,0,0,0,0,-1,1084,1408,0,0
-133,-384,0,0,0,0,0,0,0,0,0,-1,1091,1408,0,0
-126,-384,0,0,0,0,0,0,0,0,0,-1,1098,1408,0,0
-119,-384,0,0,0,0,0,0,0,0,0,-1,1105,1408,0,0
-112,-384,0,0,0,0,0,0,0,0,0,-1,1112,1408,0,0
-105,-384,0,0,0,0,0,0,0,0,0,-1,1119,1408,0,0
-98,-384,0,0,0,0,0,0,0,0,0,-1,1126,1408,0,0
-91,-384,0,0,0,0,0,0,0,0,0,-1,1133,1408,0,0
-84,-384,0,0,0,0,0,0,0,0,0,-1,1140,1408,0,0
-77,-384,0,0,0,0,0,0,0,0,0,-1,1147,1408,0,0
-70,-384,0,0,0,0,0,0,0,0,0,-1,1154,1408,0,0
-63,-384,0,0,0,0,0,0,0,0,0,-1,1161,1408,0,0
-56,-384,0,0,0,0,0,0,0,0,0,-1,1168,1408,0,0
-49,-384,0,0,0,0,0,0,0,0,0,-1,1175,1408,0,0
-42,-384,0,0,0,0,0,0,0,0,0,-1,1182,1408,0,0
-35,-384,0,0,0,0,0,0,0,0,0,-1,1189,1408,0,0
-28,-384,0,0,0,0,0,0,0,0,0,-1,1196,1408,0,0
-21,-384,0,0,0,0,0,0,0,0,0,-1,1203,1408,0,0
-14,-384,0,0,0,0,0,0,0,0,0,-1,1210,1408,0,0
-7,-384,0,0,0,0,0,0,0,0,0,-1,1217,1408,0,0
0,-384,0,0,0,0,0,0,0,0,0,-1,1224,1408,0,0
7,-384,0,0,0,0,0,0,0,0,0,-1,1231,1408,0,0
14,-384,0,0,0,0,0,0,0,0,0,-1,1238,1408,0,0
21,-384,0,0,0,0,0,0,0,0,0,-1,1245,1408,0,0
28,-384,0,0,0,0,0,0,0,0,0,-1,1252,1408,0,0
35,-384,0,0,0,0,0,0,0,0,0,-1,1259,1408,0,0
42,-384,0,0,0,0,0,0,0,0,0,-1,1266,1408,0,0
49,-384,0,0,0,0,0,0,0,0,0,-1,1273,1408,0,0
56,-384,0,0,0,0,0,0,0,0,0,-1,1280,1408,0,0
63,-384,0,0,0,0,0,0,0,0,0,-1,1287,1408,0,0
70,-384,0,0,0,0,0,0,0,0,0,-1,1294,1408,0,0
77,-384,0,0,0,0,0,0,0,0,0,-1,1301,1408,0,0
84,-384,0,0,0,0,0,0,0,0,0,-1,1308,1408,0,0
91,-384,0,0,0,0,0,0,0,0,0,-1,1315,1408,0,0
98,-384,0,0,0,0,0,0,0,0,0,-1,1322,1408,0,0
105,-384,0,0,0,0,0,0,0,0,0,-1,1329,1408,0,0
112,-384,0,0,0,0,0,0,0,0,0,-1,1336,1408,0,0
119,-384,0,0,0,0,0,0,0,0,0,-1,1343,1408,0,0
126,-384,0,0,0,0,0,0,0,0,0,-1,1350,1408,0,0
133,-384,0,0,0,0,0,0,0,0,0,-1,1357,1408,0,0
140,-384,0,0,0,0,0,0,0,0,0,-1,1364,1408,0,0
147,-384,0,0,0,0,0,0,0,0,0,-1,1371,1408,0,0
154,-384,0,0,0,0,0,0,0,0,0,-1,1378,1408,0,0
161,-384,0,0,0,0,0,0,0,0,0,-1,1385,1408,0,0
168,-384,0,0,0,0,0,0,0,0,0,-1,1392,1408,0,0
175,-384,0,0,0,0,0,0,0,0,0,-1,1399,1408,0,0
182,-384,0,0,0,0,0,0,0,0,0,-1,1406,1408,0,0
189,-384,0,0,0,0,0,0,0,0,0,-1,1413,1408,0,0
196,-384,0,0,0,0,0,0,0,0,0,-1,1420,1408,0,0
203,-384,0,0,0,0,0,0,0,0,0,-1,1427,1408,0,0
210,-384,0,0,0,0,0,0,0,0,0,-1,1434,1408,0,0
217,-384,0,0,0,0,0,0,0,0,0,-1,1441,1408,0,0
224,-384,0,0,0,0,0,0,0,0,0,-1,1448,1408,0,0
231,-384,0,0,0,0,0,0,0,0,0,-1,1455,1408,0,0
238,-384,0,0,0,0,0,0,0,0,0,-1,1462,1408,0,0
245,-384,0,0,0,0,0,0,0,0,0,-1,1469,1408,0,0
252,-384,0,0,0,0,0,0,0,0,0,-1,1476,1408,0,0
259,-384,0,0,0,0,0,0,0,0,0,-1,1483,1408,0,0
266,-384,0,0,0,0,0,0,0,0,0,-1,1490,1408,0,0
273,-384,0,0,0,0,0,0,0,0,0,-1,1497,1408,0,0
280,-384,0,0,0,0,0,0,0,0,0,-1,1504,1408,0,0
287,-384,0,0,0,0,0,0,0,0,0,-1,1511,1408,0,0
294,-384,0,0,0,0,0,0,0,0,0,-1,1518,1408,0,0
301,-384,0,0,0,0,0,0,0,0,0,-1,1525,1408,0,0
308,-384,0,0,0,0,0,0,0,0,0,-1,1532,1408,0,0
315,-384,0,0,0,0,0,0,0,0,0,-1,1539,1408,0,0
322,-384,0,0,0,0,0,0,0,0,0,-1,1546,1408,0,0
329,-384,0,0,0,0,0,0,0,0,0,-1,1553,1408,0,0
336,-384,0,0,0,0,0,0,0,0,0,-1,1560,1408,0,0
343,-384,0,0,0,0,0,0,0,0,0,-1,1567,1408,0,0
350,-384,0,0,0,0,0,0,0,0,0,-1,1574,1408,0,0
357,-384,0,0,0,0,0,0,0,0,0,-1,1581,1408,0,0
364,-384,0,0,0,0,0,0,0,0,0,-1,1588,1408,0,0
371,-384,0,0,0,0,0,0,0,0,0,-1,1595,1408,0,0
378,-384,0,0,0,0,0,0,0,0,0,-1,1602,1408,0,0
385,-384,0,0,0,0,0,0,0,0,0,-1,1609,1408,0,0
392,-384,0,0,0,0,0,0,0,0,0,-1,1616,1408,0,0
399,-384,0,0,0,0,0,0,0,0,0,-1,1623,1408,0,0
406,-384,0,0,0,0,0,0,0,0,0,-1,1630,1408,0,0
413,-384,0,0,0,0,0,0,0,0,0,-1,1637,1408,0,0
420,-384,0,0,0,0,0,0,0,0,0,-1,1644,1408,0,0
427,-384,0,0,0,0,0,0,0,0,0,-1,1651,1408,0,0
434,-384,0,0,0,0,0,0,0,0,0,-1,1658,1408,0,0
441,-384,0,0,0,0,0,0,0,0,0,-1,1665,1408,0,0
448,-384,0,0,0,0,0,0,0,0,0,-1,1672,1408,0,0
455,-384,0,0,0,0,0,0,0,0,0,-1,1679,1408,0,0
462,-384,0,0,0,0,0,0,0,0,0,-1,1686,1408,0,0
469,-384,0,0,0,0,0,0,0,0,0,-1,1693,1408,0,0
476,-384,0,0,0,0,0,0,0,0,0,-1,1700,1408,0,0
483,-384,0,0,0,0,0,0,0,0,0,-1,1707,1408,0,0
490,-384,0,0,0,0,0,0,0,0,0,-1,1714,1408,0,0
497,-384,0,0,0,0,0,0,0,0,0,-1,1721,1408,0,0
504,-384,0,0,0,0,0,0,0,0,0,-1,1728,1408,0,0
511,-384,0,0,0,0,0,0,0,0,0,-1,1735,1408,0,0
518,-384,0,0,0,0,0,0,0,0,0,-1,1742,1408,0,0
525,-384,0,0,0,0,0,0,0,0,0,-1,1749,1408,0,0
532,-384,0,0,0,0,0,0,0,0,0,-1,1756,1408,0,0
539,-384,-0.760986,0.474243,0,0,0,0,0,0,0,-1,1763,1408,-0.761043,-0.474223
546,-384,-0.308838,-1.13037,0,0,0,0,0,0,0,-1,1770,1408,-0.308849,1.13031
553,-384,0.108032,-0.899292,0.00818324,-0.00920216,0.00428988,0.00918415,-0.0102031,0.229219,0.0111984,0.0428784,1777,1408,0.108028,0.899332
560,-384,0.471802,-0.663818,0.00469428,-0.00736658,0.0028964,0.00535378,-0.00802608,0.223881,0.00777605,0.0439854,1784,1408,0.47177,0.663817
567,-384,0.609253,-0.744385,0.00271211,-0.00590356,0.00192743,0.00312364,-0.00631509,0.210355,0.00555232,0.0432779,1791,1408,0.609194,0.744427
574,-384,0.470337,-0.51355,0.00169177,-0.00475214,0.0016039,0.00206891,-0.00512928,0.230944,0.00427925,0.0405122,1798,1408,0.470373,0.5135
581,-384,0.158936,-0.502808,0.0013456,-0.00461539,0.0013605,0.00164143,-0.00491122,0.214109,0.00393705,0.0404163,1805,1408,0.158913,0.502778
588,-384,-0.0814209,-0.452026,0.00114748,-0.00463945,0.000974479,0.00130717,-0.00479914,0.162428,0.00371266,0.0439755,1812,1408,-0.0814027,0.451996
595,-384,-0.0441895,-0.150146,0.000887331,-0.00460913,0.00086608,0.00102057,-0.00474237,0.152645,0.003551,0.0454874,1819,1408,-0.0441468,0.150115
602,-384,0.300171,-0.00402832,0,0,0,0,0,0,0,-1,1826,1408,0.300167,0.00399379
609,-384,0.0227051,-0.144897,0.00185207,-0.0054075,0.00131312,0.00208229,-0.00563771,0.173557,0.00461202,0.0437427,1833,1408,0.0226639,0.144859
616,-384,-0.0947266,-0.0632324,0.00208048,-0.00543526,0.00137799,0.00232516,-0.00567995,0.175735,0.00475511,0.0412983,1840,1408,-0.0947693,0.0631967
623,-384,-0.0665283,0.0604248,0.00213335,-0.00513512,0.00148842,0.00242633,-0.00542811,0.194358,0.00464384,0.0254431,1847,1408,-0.0665272,-0.0604402
630,-384,-0.0678711,0.0693359,0.00193925,-0.0052562,0.00136076,0.00218799,-0.00550493,0.180799,0.00457706,0.014928,1854,1408,-0.0679243,-0.0692779
637,-384,-0.0698242,0.0921631,0.00216391,-0.00466087,0.00146662,0.00246573,-0.00496269,0.202962,0.00436882,0.0135437,1861,1408,-0.0698838,-0.0921209
644,-384,-0.055542,0.0928955,0.00202211,-0.00397127,0.00125592,0.00227465,-0.00422381,0.198432,0.00380773,0.0141368,1868,1408,-0.0554858,-0.092899
651,-384,-0.0557861,0.0786133,0.00167096,-0.00328951,0.000994242,0.00186282,-0.00348137,0.190626,0.00313228,0.0141913,1875,1408,-0.0558347,-0.0785744
658,-384,-0.0505371,0.052002,0.00125102,-0.00197565,0.000689872,0.00139233,-0.00211696,0.202038,0.00204044,0.0142752,1882,1408,-0.0505818,-0.0520565
665,-384,-0.0430908,0.0574951,0.00114546,-0.000906736,0.000526904,0.00127284,-0.00103411,0.237196,0.0013343,0.0142468,1889,1408,-0.0430693,-0.0574458
672,-384,-0.0253906,0.0568848,0.0011289,-0.000209379,0.000442881,0.00126219,-0.000342667,0.292336,0.000975945,0.0130362,1896,1408,-0.0253619,-0.0569301
679,-384,-0.03479,0.0429688,0.00123766,0.00021907,0.000410502,0.0013825,7.42297e-05,0.3392,0.000897947,0.0144413,1903,1408,-0.0348073,-0.0429119
686,-384,-0.0462646,0.0471191,0.00153482,0.00114686,0.000255685,0.00166178,0.0010199,0.460887,0.000967667,0.0118462,1910,1408,-0.046218,-0.047168
693,-384,-0.0544434,0.0620117,0.00188208,0.00180577,7.14384e-05,0.00192491,0.00176294,0.540133,0.00123284,0.0136767,1917,1408,-0.0544928,-0.0619778
700,-384,-0.0820313,0.0944824,0.00227213,0.00252561,-0.000276796,0.00270331,0.00209444,-1.00009,0.00163743,0.0295134,1924,1408,-0.0820815,-0.0944671
707,-384,-0.107178,0.263916,0.00292305,0.00351079,-0.000708542,0.00398399,0.00244985,-0.981979,0.00232032,0.0439629,1931,1408,-0.107147,-0.26396
714,-384,0.0625,0.381104,0.00375783,0.00470894,-0.00146899,0.00577743,0.00268933,-0.941939,0.00333825,0.0475687,1938,1408,0.0625441,-0.381077
721,-384,0.181152,-0.0101318,0.00488443,0.00612018,-0.0026627,0.00823575,0.00276886,-0.899405,0.00483922,0.0413735,1945,1408,0.181126,0.0101735
728,-384,0.278442,-0.432861,0.00643738,0.00773402,-0.00454296,0.0116747,0.00249671,-0.856274,0.00709878,0.0406217,1952,1408,0.278472,0.432895
735,-384,0.244385,-0.557129,0.00851191,0.00954634,-0.00747027,0.0165173,0.00154098,-0.819961,0.0105355,0.0440402,1959,1408,0.244384,0.557139
742,-384,0,0,0,0,0,0,0,0,0,-1,1966,1408,0,0
749,-384,0,0,0,0,0,0,0,0,0,-1,1973,1408,0,0
756,-384,0,0,0,0,0,0,0,0,0,-1,1980,1408,0,0
763,-384,0,0,0,0,0,0,0,0,0,-1,1987,1408,0,0
770,-384,0,0,0,0,0,0,0,0,0,-1,1994,1408,0,0
777,-384,0,0,0,0,0,0,0,0,0,-1,2001,1408,0,0
784,-384,0,0,0,0,0,0,0,0,0,-1,2008,1408,0,0
791,-384,0,0,0,0,0,0,0,0,0,-1,2015,1408,0,0
798,-384,0,0,0,0,0,0,0,0,0,-1,2022,1408,0,0
805,-384,0,0,0,0,0,0,0,0,0,-1,2029,1408,0,0
812,-384,0,0,0,0,0,0,0,0,0,-1,2036,1408,0,0
-700,-391,0,0,0,0,0,0,0,0,0,-1,524,1415,0,0
-693,-391,0,0,0,0,0,0,0,0,0,-1,531,1415,0,0
-686,-391,0,0,0,0,0,0,0,0,0,-1,538,1415,0,0
-679,-391,0,0,0,0,0,0,0,0,0,-1,545,1415,0,0
-672,-391,0,0,0,0,0,0,0,0,0,-1,552,1415,0,0
-665,-391,0,0,0,0,0,0,0,0,0,-1,559,1415,0,0
-658,-391,0,0,0,0,0,0,0,0,0,-1,566,1415,0,0
-651,-391,0,0,0,0,0,0,0,0,0,-1,573,1415,0,0
-644,-391,0,0,0,0,0,0,0,0,0,-1,580,1415,0,0
-637,-391,0,0,0,0,0,0,0,0,0,-1,587,1415,0,0
-630,-391,0,0,0,0,0,0,0,0,0,-1,594,1415,0,0
-623,-391,0,0,0,0,0,0,0,0,0,-1,601,1415,0,0
-616,-391,0,0,0,0,0,0,0,0,0,-1,608,1415,0,0
-609,-391,-0.832764,-0.551758,-0.0464194,0.0203346,-0.0107985,0.022038,-0.0481227,-1.41435,0.04143,0.0455244,615,1415,-0.832741,0.551804
-602,-391,-1.37592,-0.533691,-0.0278222,0.0213323,-0.00591289,0.0220336,-0.0285235,-1.45275,0.0292692,0.0478234,622,1415,-1.3759,0.53366
-595,-391,-1.84753,-0.457764,0,0,0,0,0,0,0,-1,629,1415,-1.84755,0.457754
-588,-391,-2.93744,-0.090332,0,0,0,0,0,0,0,-1,636,1415,-2.93741,0.0903138
-581,-391,-3.71924,-0.181396,0,0,0,0,0,0,0,-1,643,1415,-3.71922,0.181337
-574,-391,-0.0806274,-0.192749,0,0,0,0,0,0,0,-1,650,1415,-0.0806085,0.192728
-567,-391,-0.0197144,-0.0965576,0.00283782,0.012487,0.00429511,0.0141219,0.00120296,1.20709,0.00904034,0.045426,657,1415,-0.0197383,0.096614
-560,-391,-0.0169678,-0.0224609,0.00324373,0.0100342,0.00430114,0.0121187,0.00115923,1.11951,0.00772178,0.0314029,664,1415,-0.0169877,0.0224489
-553,-391,-0.00665283,0.0495605,0.00361066,0.00771883,0.00400949,0.0101698,0.00115972,1.02212,0.00642824,0.0179418,671,1415,-0.0066727,-0.0495167
-546,-391,-0.00500488,0.0534668,0.00382744,0.00577104,0.00359497,0.00852325,0.00107523,0.917404,0.00535983,0.0111475,678,1415,-0.00502033,-0.0534837
-539,-391,-0.0250854,0.0527344,0.0027712,0.00389515,0.0026963,0.00608742,0.000578932,0.888139,0.00387973,0.0131667,685,1415,-0.0250847,-0.0527197
-532,-391,-0.0362549,0.0621338,0.00169027,0.00188386,0.00175109,0.00354082,3.33065e-05,0.813008,0.00234953,0.0217902,692,1415,-0.036278,-0.062099
-525,-391,-0.0192261,0.0810547,0.00048334,0.000590713,0.000974784,0.00151329,-0.000439235,0.812908,0.00118278,0.0191356,699,1415,-0.0191994,-0.0810838
-518,-391,-0.0336914,0.079834,0.000141689,-0.000209594,0.000521897,0.000516707,-0.000584612,0.623079,0.00063625,0.0115529,706,1415,-0.0336721,-0.079845
-511,-391,-0.0307617,0.0600586,-4.54248e-05,-0.000618239,4.80471e-05,-4.14226e-05,-0.000622242,0.0831051,0.000401733,0.0102427,713,1415,-0.0307545,-0.0601076
-504,-391,-0.0210571,0.0528564,0.000920099,0.00105074,-0.0020725,0.00305894,-0.00108811,-0.801152,0.00248279,0.00980419,720,1415,-0.0210805,-0.0528161
-497,-391,-0.0217896,0.0588379,0.00151795,0.00553068,-0.00459537,0.00853859,-0.00148996,-0.991228,0.00624854,0.00874366,727,1415,-0.0218113,-0.0588522
-490,-391,-0.0237427,0.0528564,0.00147591,0.00885615,-0.00626824,0.0124398,-0.00210775,-1.05143,0.00907772,0.0103686,734,1415,-0.0237703,-0.0528724
-483,-391,-0.043335,0.0140381,0.00131235,0.0119331,-0.00744221,0.0157653,-0.00251985,-1.09528,0.011443,0.024328,741,1415,-0.0433473,-0.0140424
-476,-391,-0.0480957,0.0284424,0.00113962,0.0167044,-0.0091715,0.0209504,-0.00310638,-1.13722,0.0151092,0.0401915,748,1415,-0.0481049,-0.0283922
-469,-391,-0.0254517,0.0697021,0.000520213,0.0222742,-0.0111079,0.0269438,-0.00414935,-1.17285,0.0194934,0.0459866,755,1415,-0.0254821,-0.0696835
-462,-391,0.0828857,0.116333,-0.00106292,0.0277563,-0.012401,0.0323578,-0.00566438,-1.21549,0.0236868,0.0448515,762,1415,0.0828873,-0.116323
-455,-391,-1.38513,1.25122,-0.00397837,0.0322711,-0.0128179,0.0363456,-0.00805281,-1.26302,0.0273133,0.0465734,769,1415,-1.38511,-1.25119
-448,-391,2.20557,-1.90161,-0.00844949,0.0357729,-0.0119601,0.0388003,-0.0114769,-1.32288,0.0304228,0.0489574,776,1415,2.20558,1.90163
-441,-391,1.47449,-1.55811,-0.0155617,0.0369831,-0.00928104,0.0385742,-0.0171528,-1.40101,0.0329568,0.0452073,783,1415,1.4745,1.55811
-434,-391,1.12579,-1.41626,-0.0258697,0.0350841,-0.00431569,0.0353882,-0.0261737,-1.50046,0.0356753,0.0425624,790,1415,1.12581,1.41629
-427,-391,0.293396,-0.420532,0,0,0,0,0,0,0,-1,797,1415,0.293398,0.420518
-420,-391,0.677795,-0.237427,0,0,0,0,0,0,0,-1,804,1415,0.677823,0.237413
-413,-391,0,0,0,0,0,0,0,0,0,-1,811,1415,0,0
-406,-391,0,0,0,0,0,0,0,0,0,-1,818,1415,0,0
-399,-391,0,0,0,0,0,0,0,0,0,-1,825,1415,0,0
-392,-391,0,0,0,0,0,0,0,0,0,-1,832,1415,0,0
-385,-391,0,0,0,0,0,0,0,0,0,-1,839,1415,0,0
-378,-391,0,0,0,0,0,0,0,0,0,-1,846,1415,0,0
-371,-391,0,0,0,0,0,0,0,0,0,-1,853,1415,0,0
-364,-391,0,0,0,0,0,0,0,0,0,-1,860,1415,0,0
-357,-391,0,0,0,0,0,0,0,0,0,-1,867,1415,0,0
-350,-391,0,0,0,0,0,0,0,0,0,-1,874,1415,0,0
-343,-391,0,0,0,0,0,0,0,0,0,-1,881,1415,0,0
-336,-391,0,0,0,0,0,0,0,0,0,-1,888,1415,0,0
-329,-391,0,0,0,0,0,0,0,0,0,-1,895,1415,0,0
-322,-391,0,0,0,0,0,0,0,0,0,-1,902,1415,0,0
-315,-391,0,0,0,0,0,0,0,0,0,-1,909,1415,0,0
-308,-391,0,0,0,0,0,0,0,0,0,-1,916,1415,0,0
-301,-391,0,0,0,0,0,0,0,0,0,-1,923,1415,0,0
-294,-391,0,0,0,0,0,0,0,0,0,-1,930,1415,0,0
-287,-391,0,0,0,0,0,0,0,0,0,-1,937,1415,0,0
-280,-391,0,0,0,0,0,0,0,0,0,-1,944,1415,0,0
-273,-391,0,0,0,0,0,0,0,0,0,-1,951,1415,0,0
-266,-391,0,0,0,0,0,0,0,0,0,-1,958,1415,0,0
-259,-391,0,0,0,0,0,0,0,0,0,-1,965,1415,0,0
-252,-391,0,0,0,0,0,0,0,0,0,-1,972,1415,0,0
-245,-391,0,0,0,0,0,0,0,0,0,-1,979,1415,0,0
-238,-391,0,0,0,0,0,0,0,0,0,-1,986,1415,0,0
-231,-391,0,0,0,0,0,0,0,0,0,-1,993,1415,0,0
-224,-391,0,0,0,0,0,0,0,0,0,-1,1000,1415,0,0
-217,-391,0,0,0,0,0,0,0,0,0,-1,1007,1415,0,0
-210,-391,0,0,0,0,0,0,0,0,0,-1,1014,1415,0,0
-203,-391,0,0,0,0,0,0,0,0,0,-1,1021,1415,0,0
-196,-391,0,0,0,0,0,0,0,0,0,-1,1028,1415,0,0
-189,-391,0,0,0,0,0,0,0,0,0,-1,1035,1415,0,0
-182,-391,0,0,0,0,0,0,0,0,0,-1,1042,1415,0,0
-175,-391,0,0,0,0,0,0,0,0,0,-1,1049,1415,0,0
-168,-391,0,0,0,0,0,0,0,0,0,-1,1056,1415,0,0
-161,-391,0,0,0,0,0,0,0,0,0,-1,1063,1415,0,0
-154,-391,0,0,0,0,0,0,0,0,0,-1,1070,1415,0,0
-147,-391,0,0,0,0,0,0,0,0,0,-1,1077,1415,0,0
-140,-391,0,0,0,0,0,0,0,0,0,-1,1084,1415,0,0
-133,-391,0,0,0,0,0,0,0,0,0,-1,1091,1415,0,0
-126,-391,0,0,0,0,0,0,0,0,0,-1,1098,1415,0,0
-119,-391,0,0,0,0,0,0,0,0,0,-1,1105,1415,0,0
-112,-391,0,0,0,0,0,0,0,0,0,-1,1112,1415,0,0
-105,-391,0,0,0,0,0,0,0,0,0,-1,1119,1415,0,0
-98,-391,0,0,0,0,0,0,0,0,0,-1,1126,1415,0,0
-91,-391,0,0,0,0,0,0,0,0,0,-1,1133,1415,0,0
-84,-391,0,0,0,0,0,0,0,0,0,-1,1140,1415,0,0
-77,-391,0,0,0,0,0,0,0,0,0,-1,1147,1415,0,0
-70,-391,0,0,0,0,0,0,0,0,0,-1,1154,1415,0,0
-63,-391,0,0,0,0,0,0,0,0,0,-1,1161,1415,0,0
-56,-391,0,0,0,0,0,0,0,0,0,-1,1168,1415,0,0
-49,-391,0,0,0,0,0,0,0,0,0,-1,1175,1415,0,0
-42,-391,0,0,0,0,0,0,0,0,0,-1,1182,1415,0,0
-35,-391,0,0,0,0,0,0,0,0,0,-1,1189,1415,0,0
-28,-391,0,0,0,0,0,0,0,0,0,-1,1196,1415,0,0
-21,-391,0,0,0,0,0,0,0,0,0,-1,1203,1415,0,0
-14,-391,0,0,0,0,0,0,0,0,0,-1,1210,1415,0,0
-7,-391,0,0,0,0,0,0,0,0,0,-1,1217,1415,0,0
0,-391,0,0,0,0,0,0,0,0,0,-1,1224,1415,0,0
7,-391,0,0,0,0,0,0,0,0,0,-1,1231,1415,0,0
14,-391,0,0,0,0,0,0,0,0,0,-1,1238,1415,0,0
21,-391,0,0,0,0,0,0,0,0,0,-1,1245,1415,0,0
28,-391,0,0,0,0,0,0,0,0,0,-1,1252,1415,0,0
35,-391,0,0,0,0,0,0,0,0,0,-1,1259,1415,0,0
42,-391,0,0,0,0,0,0,0,0,0,-1,1266,1415,0,0
49,-391,0,0,0,0,0,0,0,0,0,-1,1273,1415,0,0
56,-391,0,0,0,0,0,0,0,0,0,-1,1280,1415,0,0
63,-391,0,0,0,0,0,0,0,0,0,-1,1287,1415,0,0
70,-391,0,0,0,0,0,0,0,0,0,-1,1294,1415,0,0
77,-391,0,0,0,0,0,0,0,0,0,-1,1301,1415,0,0
84,-391,0,0,0,0,0,0,0,0,0,-1,1308,1415,0,0
91,-391,0,0,0,0,0,0,0,0,0,-1,1315,1415,0,0
98,-391,0,0,0,0,0,0,0,0,0,-1,1322,1415,0,0
105,-391,0,0,0,0,0,0,0,0,0,-1,1329,1415,0,0
112,-391,0,0,0,0,0,0,0,0,0,-1,1336,1415,0,0
119,-391,0,0,0,0,0,0,0,0,0,-1,1343,1415,0,0
126,-391,0,0,0,0,0,0,0,0,0,-1,1350,1415,0,0
133,-391,0,0,0,0,0,0,0,0,0,-1,1357,1415,0,0
140,-391,0,0,0,0,0,0,0,0,0,-1,1364,1415,0,0
147,-391,0,0,0,0,0,0,0,0,0,-1,1371,1415,0,0
154,-391,0,0,0,0,0,0,0,0,0,-1,1378,1415,0,0
161,-391,0,0,0,0,0,0,0,0,0,-1,1385,1415,0,0
168,-391,0,0,0,0,0,0,0,0,0,-1,1392,1415,0,0
175,-391,0,0,0,0,0,0,0,0,0,-1,1399,1415,0,0
182,-391,0,0,0,0,0,0,0,0,0,-1,1406,1415,0,0
189,-391,0,0,0,0,0,0,0,0,0,-1,1413,1415,0,0
196,-391,0,0,0,0,0,0,0,0,0,-1,1420,1415,0,0
203,-391,0,0,0,0,0,0,0,0,0,-1,1427,1415,0,0
210,-391,0,0,0,0,0,0,0,0,0,-1,1434,1415,0,0
217,-391,0,0,0,0,0,0,0,0,0,-1,1441,1415,0,0
224,-391,0,0,0,0,0,0,0,0,0,-1,1448,1415,0,0
231,-391,0,0,0,0,0,0,0,0,0,-1,1455,1415,0,0
238,-391,0,0,0,0,0,0,0,0,0,-1,1462,1415,0,0
245,-391,0,0,0,0,0,0,0,0,0,-1,1469,1415,0,0
252,-391,0,0,0,0,0,0,0,0,0,-1,1476,1415,0,0
259,-391,0,0,0,0,0,0,0,0,0,-1,1483,1415,0,0
266,-391,0,0,0,0,0,0,0,0,0,-1,1490,1415,0,0
273,-391,0,0,0,0,0,0,0,0,0,-1,1497,1415,0,0
280,-391,0,0,0,0,0,0,0,0,0,-1,1504,1415,0,0
287,-391,0,0,0,0,0,0,0,0,0,-1,1511,1415,0,0
294,-391,0,0,0,0,0,0,0,0,0,-1,1518,1415,0,0
301,-391,0,0,0,0,0,0,0,0,0,-1,1525,1415,0,0
308,-391,0,0,0,0,0,0,0,0,0,-1,1532,1415,0,0
315,-391,0,0,0,0,0,0,0,0,0,-1,1539,1415,0,0
322,-391,0,0,0,0,0,0,0,0,0,-1,1546,1415,0,0
329,-391,0,0,0,0,0,0,0,0,0,-1,1553,1415,0,0
336,-391,0,0,0,0,0,0,0,0,0,-1,1560,1415,0,0
343,-391,0,0,0,0,0,0,0,0,0,-1,1567,1415,0,0
350,-391,0,0,0,0,0,0,0,0,0,-1,1574,1415,0,0
357,-391,0,0,0,0,0,0,0,0,0,-1,1581,1415,0,0
364,-391,0,0,0,0,0,0,0,0,0,-1,1588,1415,0,0
371,-391,0,0,0,0,0,0,0,0,0,-1,1595,1415,0,0
378,-391,0,0,0,0,0,0,0,0,0,-1,1602,1415,0,0
385,-391,0,0,0,0,0,0,0,0,0,-1,1609,1415,0,0
392,-391,0,0,0,0,0,0,0,0,0,-1,1616,1415,0,0
399,-391,0,0,0,0,0,0,0,0,0,-1,1623,1415,0,0
406,-391,0,0,0,0,0,0,0,0,0,-1,1630,1415,0,0
413,-391,0,0,0,0,0,0,0,0,0,-1,1637,1415,0,0
420,-391,0,0,0,0,0,0,0,0,0,-1,1644,1415,0,0
427,-391,0,0,0,0,0,0,0,0,0,-1,1651,1415,0,0
434,-391,0,0,0,0,0,0,0,0,0,-1,1658,1415,0,0
441,-391,0,0,0,0,0,0,0,0,0,-1,1665,1415,0,0
448,-391,0,0,0,0,0,0,0,0,0,-1,1672,1415,0,0
455,-391,0,0,0,0,0,0,0,0,0,-1,1679,1415,0,0
462,-391,0,0,0,0,0,0,0,0,0,-1,1686,1415,0,0
469,-391,0,0,0,0,0,0,0,0,0,-1,1693,1415,0,0
476,-391,0,0,0,0,0,0,0,0,0,-1,1700,1415,0,0
483,-391,0,0,0,0,0,0,0,0,0,-1,1707,1415,0,0
490,-391,0,0,0,0,0,0,0,0,0,-1,1714,1415,0,0
497,-391,0,0,0,0,0,0,0,0,0,-1,1721,1415,0,0
504,-391,0,0,0,0,0,0,0,0,0,-1,1728,1415,0,0
511,-391,0,0,0,0,0,0,0,0,0,-1,1735,1415,0,0
518,-391,0,0,0,0,0,0,0,0,0,-1,1742,1415,0,0
525,-391,0,0,0,0,0,0,0,0,0,-1,1749,1415,0,0
532,-391,0.419189,-2.32385,0,0,0,0,0,0,0,-1,1756,1415,0.419156,2.32383
539,-391,0.878296,-1.49622,0,0,0,0,0,0,0,-1,1763,1415,0.87824,1.49617
546,-391,0.0582275,-1.1925,0,0,0,0,0,0,0,-1,1770,1415,0.0581973,1.19255
553,-391,0.241089,-1.14709,0.00357694,-0.011828,0.00578729,0.00550882,-0.0137599,0.322184,0.0114597,0.0453989,1777,1415,0.241119,1.14708
560,-391,0.385132,-1.13647,0.00102941,-0.0101022,0.00435035,0.00252787,-0.0116006,0.331717,0.00869966,0.0436841,1784,1415,0.385095,1.13642
567,-391,0.523193,-0.919189,-0.000205922,-0.00846755,0.00316248,0.000865656,-0.00953913,0.3267,0.00666673,0.0443902,1791,1415,0.523208,0.919195
574,-391,0.603638,-0.695557,-0.000616616,-0.00676227,0.00247686,0.000257339,-0.00763623,0.33921,0.00517873,0.0408951,1798,1415,0.603611,0.695532
581,-391,0.456665,-0.567749,-0.000457126,-0.00585668,0.00189295,0.00014038,-0.00645418,0.30575,0.00435034,0.040837,1805,1415,0.456617,0.567755
588,-391,-0.0291748,-0.562866,-0.00032778,-0.00508519,0.00114633,-6.59698e-05,-0.005347,0.224538,0.00354288,0.0493573,1812,1415,-0.0292286,0.562833
595,-391,0.258301,-0.209473,-0.000489198,-0.0043415,0.00073717,-0.000352953,-0.00447774,0.182759,0.00287474,0.0483788,1819,1415,0.258265,0.209469
602,-391,-0.0375977,-0.0246582,0,0,0,0,0,0,0,-1,1826,1415,-0.0375375,0.0246516
609,-391,-0.12915,-0.0415039,0.000907629,-0.00411311,0.00086598,0.0010528,-0.00425828,0.166089,0.00324718,0.0396736,1833,1415,-0.129141,0.0414755
616,-391,-0.0628662,0.0290527,0.00127444,-0.00380065,0.000818549,0.0014032,-0.00392941,0.156018,0.00319186,0.025384,1840,1415,-0.0628942,-0.0290036
623,-391,-0.0643311,0.0509033,0.00141606,-0.00334393,0.000920005,0.00158769,-0.00351556,0.184432,0.00301563,0.0141151,1847,1415,-0.0643315,-0.0509522
630,-391,-0.0515137,0.0563965,0.00141107,-0.00323578,0.000907734,0.0015821,-0.0034068,0.186227,0.00294386,0.0142477,1854,1415,-0.0514966,-0.0563821
637,-391,-0.0556641,0.0793457,0.00175686,-0.00264311,0.0010845,0.00200965,-0.00289589,0.229,0.00284758,0.0140805,1861,1415,-0.0556737,-0.0793018
644,-391,-0.0595703,0.0930176,0.00177344,-0.00221324,0.00102176,0.00202006,-0.00245985,0.236833,0.00259063,0.0146614,1868,1415,-0.059605,-0.0930775
651,-391,-0.0596924,0.0753174,0.00151089,-0.00175259,0.000896459,0.00174093,-0.00198263,0.251186,0.00215131,0.0148716,1875,1415,-0.0596459,-0.0753141
658,-391,-0.0540771,0.055542,0.00116787,-0.000623203,0.000662513,0.0013863,-0.000841627,0.318468,0.00129904,0.0135725,1882,1415,-0.0540322,-0.0555889
665,-391,-0.0373535,0.0606689,0.00122689,0.000311083,0.000639352,0.0015554,-1.74266e-05,0.47464,0.00104279,0.0110529,1889,1415,-0.0374006,-0.0607298
672,-391,-0.0419922,0.0634766,0.00135534,0.000937797,0.000676335,0.00185439,0.000438744,0.635698,0.00111906,0.0113271,1896,1415,-0.0419571,-0.0635221
679,-391,-0.052124,0.0672607,0.00158529,0.00135048,0.000708462,0.00218601,0.00074976,0.703283,0.00128267,0.0109908,1903,1415,-0.0521112,-0.0672065
686,-391,-0.0496826,0.0705566,0.00195848,0.00233437,0.000525634,0.00270465,0.0015882,0.957093,0.00156943,0.0113965,1910,1415,-0.0496277,-0.0705953
693,-391,-0.0478516,0.0955811,0.00237921,0.00319414,0.00037129,0.00333793,0.00223542,1.20131,0.0019638,0.0211467,1917,1415,-0.0478888,-0.0955214
700,-391,0.0482178,0.262939,0.00282807,0.00425203,5.67502e-05,0.00425429,0.00282581,1.53103,0.00249999,0.0372758,1924,1415,0.0482472,-0.262895
707,-391,-0.0649414,0.418213,0.00349051,0.00559161,-0.000402621,0.00566612,0.003416,-1.38781,0.00329434,0.0446561,1931,1415,-0.0649047,-0.418236
714,-391,-0.129883,0.263428,0.00437483,0.00717174,-0.00116834,0.00759557,0.00395101,-1.2228,0.00438649,0.0467074,1938,1415,-0.129826,-0.263381
721,-391,0.0836182,0.0778809,0.00554442,0.00897172,-0.00237369,0.0101857,0.00433044,-1.09805,0.00590264,0.042275,1945,1415,0.083589,-0.0778268
728,-391,0.250366,0.0213623,0.00712576,0.0109693,-0.00429942,0.0137569,0.00433816,-0.995572,0.00812112,0.0395842,1952,1415,0.250395,-0.0214188
735,-391,0,0,0,0,0,0,0,0,0,-1,1959,1415,0,0
742,-391,0,0,0,0,0,0,0,0,0,-1,1966,1415,0,0
749,-391,0,0,0,0,0,0,0,0,0,-1,1973,1415,0,0
756,-391,0,0,0,0,0,0,0,0,0,-1,1980,1415,0,0
763,-391,0,0,0,0,0,0,0,0,0,-1,1987,1415,0,0
770,-391,0,0,0,0,0,0,0,0,0,-1,1994,1415,0,0
777,-391,0,0,0,0,0,0,0,0,0,-1,2001,1415,0,0
784,-391,0,0,0,0,0,0,0,0,0,-1,2008,1415,0,0
791,-391,0,0,0,0,0,0,0,0,0,-1,2015,1415,0,0
798,-391,0,0,0,0,0,0,0,0,0,-1,2022,1415,0,0
805,-391,0,0,0,0,0,0,0,0,0,-1,2029,1415,0,0
812,-391,0,0,0,0,0,0,0,0,0,-1,2036,1415,0,0
-700,-398,0,0,0,0,0,0,0,0,0,-1,524,1422,0,0
-693,-398,0,0,0,0,0,0,0,0,0,-1,531,1422,0,0
-686,-398,0,0,0,0,0,0,0,0,0,-1,538,1422,0,0
-679,-398,0,0,0,0,0,0,0,0,0,-1,545,1422,0,0
-672,-398,0,0,0,0,0,0,0,0,0,-1,552,1422,0,0
-665,-398,0,0,0,0,0,0,0,0,0,-1,559,1422,0,0
-658,-398,0,0,0,0,0,0,0,0,0,-1,566,1422,0,0
-651,-398,0,0,0,0,0,0,0,0,0,-1,573,1422,0,0
-644,-398,0,0,0,0,0,0,0,0,0,-1,580,1422,0,0
-637,-398,0,0,0,0,0,0,0,0,0,-1,587,1422,0,0
-630,-398,0,0,0,0,0,0,0,0,0,-1,594,1422,0,0
-623,-398,0,0,0,0,0,0,0,0,0,-1,601,1422,0,0
-616,-398,0,0,0,0,0,0,0,0,0,-1,608,1422,0,0
-609,-398,-0.770325,-0.718018,-0.0491386,0.0226907,-0.0174247,0.0266945,-0.0531424,-1.34494,0.0469294,0.0483431,615,1422,-0.770339,0.717964
-602,-398,-1.24298,-0.662109,-0.0285423,0.0252898,-0.0134968,0.0284842,-0.0317366,-1.3384,0.0347854,0.0496455,622,1422,-1.24301,0.662141
-595,-398,-1.69696,-0.598022,0,0,0,0,0,0,0,-1,629,1422,-1.69693,0.598059
-588,-398,-1.99878,-0.278687,-0.0074763,0.0231861,-0.00514345,0.0240259,-0.00831608,-1.40895,0.019393,0.0456412,636,1422,-1.99878,0.27867
-581,-398,-2.33051,0.496094,0,0,0,0,0,0,0,-1,643,1422,-2.33053,-0.496081
-574,-398,-2.69574,1.0564,0,0,0,0,0,0,0,-1,650,1422,-2.69576,-1.05642
-567,-398,-0.0300293,-0.124512,0,0,0,0,0,0,0,-1,657,1422,-0.0300037,0.124497
-560,-398,-0.0467529,-0.0496826,0.00313432,0.0121708,0.00286918,0.0130048,0.00230029,1.28791,0.0080139,0.0372918,664,1422,-0.046754,0.0497038
-553,-398,-0.0322876,0.0253906,0.00362456,0.00942322,0.00321879,0.0108559,0.00219183,1.15201,0.0066286,0.0212412,671,1422,-0.0322944,-0.0254417
-546,-398,-0.0108643,0.0529785,0.00390146,0.00709206,0.00324633,0.00911389,0.00187963,1.01378,0.00555638,0.0100188,678,1422,-0.0108348,-0.053039
-539,-398,-0.0180054,0.0692139,0.00288326,0.00488823,0.00266823,0.00673609,0.00103541,0.965095,0.00418847,0.0115057,685,1422,-0.0179966,-0.0691711
-532,-398,-0.0206909,0.0606689,0.00180177,0.0026279,0.00204518,0.00430131,0.00012836,0.885042,0.00282572,0.0175087,692,1422,-0.0207121,-0.0606906
-525,-398,-0.0127563,0.0683594,0.000593932,0.00116765,0.00138597,0.00229614,-0.000534553,0.887444,0.00173659,0.0165552,699,1422,-0.0127441,-0.0683595
-518,-398,-0.0181885,0.0690918,0.000246508,0.000337173,0.000870958,0.00116398,-0.000580296,0.811399,0.00102568,0.0145904,706,1422,-0.0181695,-0.0691437
-511,-398,-0.0186157,0.0477295,0.000301969,-0.000132662,0.000263102,0.000425899,-0.000256592,0.440208,0.000398057,0.0112647,713,1422,-0.0186321,-0.0477137
-504,-398,-0.0202026,0.0478516,0.00161075,0.00128411,-0.00201569,0.00346973,-0.00057487,-0.744975,0.00252667,0.0117593,720,1422,-0.0202125,-0.0479046
-497,-398,-0.0158081,0.0515137,0.00256259,0.00521095,-0.00451553,0.00859245,-0.000818914,-0.928024,0.00601987,0.00855923,727,1422,-0.0158179,-0.0515154
-490,-398,-0.020874,0.0510254,0.00298931,0.00810155,-0.00616422,0.0122186,-0.00112775,-0.981942,0.0085465,0.00816839,734,1422,-0.0208852,-0.0509742
-483,-398,-0.0463867,0.0452881,0.00346365,0.010672,-0.00731697,0.0152243,-0.00108866,-1.01424,0.0105312,0.0131807,741,1422,-0.0463949,-0.0453124
-476,-398,-0.0549316,0.0626221,0.00402107,0.0148679,-0.0089964,0.0199491,-0.00106023,-1.05665,0.0136666,0.0322164,748,1422,-0.0549424,-0.0626237
-469,-398,0.18866,-0.267944,0.00416533,0.0196456,-0.0108764,0.0252548,-0.00144386,-1.09465,0.0173379,0.0423792,755,1422,0.188644,0.267907
-462,-398,0.345215,-0.452759,0.00325963,0.0242324,-0.0120191,0.0296966,-0.00220464,-1.1441,0.020572,0.0429875,762,1422,0.345188,0.452739
-455,-398,0.68689,-0.59314,0.00094635,0.0278865,-0.012395,0.0327216,-0.00388877,-1.19887,0.0232194,0.0420013,769,1422,0.686883,0.593153
-448,-398,2.13507,-1.84924,-0.00297405,0.0307824,-0.0117295,0.0344579,-0.00664956,-1.26713,0.0254794,0.0417074,776,1422,2.13506,1.84919
-441,-398,1.36383,-1.45105,-0.00950418,0.0319431,-0.00974995,0.0341221,-0.0116832,-1.35092,0.0274831,0.0459157,783,1422,1.36383,1.45106
-434,-398,0.835083,-0.872681,-0.019087,0.0307762,-0.00606715,0.0315038,-0.0198146,-1.45144,0.0298838,0.0471827,790,1422,0.83508,0.872731
-427,-398,0.479736,-0.0723877,-0.0322125,0.0266822,-0.000843834,0.0266942,-0.0322246,-1.55647,0.0340667,0.0452779,797,1422,0.479723,0.0723689
-420,-398,0.161438,0.630127,0,0,0,0,0,0,0,-1,804,1422,0.161434,-0.630115
-413,-398,0.557312,-0.646118,0,0,0,0,0,0,0,-1,811,1422,0.557335,0.646128
-406,-398,0,0,0,0,0,0,0,0,0,-1,818,1422,0,0
-399,-398,0,0,0,0,0,0,0,0,0,-1,825,1422,0,0
-392,-398,0,0,0,0,0,0,0,0,0,-1,832,1422,0,0
-385,-398,0,0,0,0,0,0,0,0,0,-1,839,1422,0,0
-378,-398,0,0,0,0,0,0,0,0,0,-1,846,1422,0,0
-371,-398,0,0,0,0,0,0,0,0,0,-1,853,1422,0,0
-364,-398,0,0,0,0,0,0,0,0,0,-1,860,1422,0,0
-357,-398,0,0,0,0,0,0,0,0,0,-1,867,1422,0,0
-350,-398,0,0,0,0,0,0,0,0,0,-1,874,1422,0,0
-343,-398,0,0,0,0,0,0,0,0,0,-1,881,1422,0,0
-336,-398,0,0,0,0,0,0,0,0,0,-1,888,1422,0,0
-329,-398,0,0,0,0,0,0,0,0,0,-1,895,1422,0,0
-322,-398,0,0,0,0,0,0,0,0,0,-1,902,1422,0,0
-315,-398,0,0,0,0,0,0,0,0,0,-1,909,1422,0,0
-308,-398,0,0,0,0,0,0,0,0,0,-1,916,1422,0,0
-301,-398,0,0,0,0,0,0,0,0,0,-1,923,1422,0,0
-294,-398,0,0,0,0,0,0,0,0,0,-1,930,1422,0,0
-287,-398,0,0,0,0,0,0,0,0,0,-1,937,1422,0,0
-280,-398,0,0,0,0,0,0,0,0,0,-1,944,1422,0,0
-273,-398,0,0,0,0,0,0,0,0,0,-1,951,1422,0,0
-266,-398,0,0,0,0,0,0,0,0,0,-1,958,1422,0,0
-259,-398,0,0,0,0,0,0,0,0,0,-1,965,1422,0,0
-252,-398,0,0,0,0,0,0,0,0,0,-1,972,1422,0,0
-245,-398,0,0,0,0,0,0,0,0,0,-1,979,1422,0,0
-238,-398,0,0,0,0,0,0,0,0,0,-1,986,1422,0,0
-231,-398,0,0,0,0,0,0,0,0,0,-1,993,1422,0,0
-224,-398,0,0,0,0,0,0,0,0,0,-1,1000,1422,0,0
-217,-398,0,0,0,0,0,0,0,0,0,-1,1007,1422,0,0
-210,-398,0,0,0,0,0,0,0,0,0,-1,1014,1422,0,0
-203,-398,0,0,0,0,0,0,0,0,0,-1,1021,1422,0,0
-196,-398,0,0,0,0,0,0,0,0,0,-1,1028,1422,0,0
-189,-398,0,0,0,0,0,0,0,0,0,-1,1035,1422,0,0
-182,-398,0,0,0,0,0,0,0,0,0,-1,1042,1422,0,0
-175,-398,0,0,0,0,0,0,0,0,0,-1,1049,1422,0,0
-168,-398,0,0,0,0,0,0,0,0,0,-1,1056,1422,0,0
-161,-398,0,0,0,0,0,0,0,0,0,-1,1063,1422,0,0
-154,-398,0,0,0,0,0,0,0,0,0,-1,1070,1422,0,0
-147,-398,0,0,0,0,0,0,0,0,0,-1,1077,1422,0,0
-140,-398,0,0,0,0,0,0,0,0,0,-1,1084,1422,0,0
-133,-398,0,0,0,0,0,0,0,0,0,-1,1091,1422,0,0
-126,-398,0,0,0,0,0,0,0,0,0,-1,1098,1422,0,0
-119,-398,0,0,0,0,0,0,0,0,0,-1,1105,1422,0,0
-112,-398,0,0,0,0,0,0,0,0,0,-1,1112,1422,0,0
-105,-398,0,0,0,0,0,0,0,0,0,-1,1119,1422,0,0
-98,-398,0,0,0,0,0,0,0,0,0,-1,1126,1422,0,0
-91,-398,0,0,0,0,0,0,0,0,0,-1,1133,1422,0,0
-84,-398,0,0,0,0,0,0,0,0,0,-1,1140,1422,0,0
-77,-398,0,0,0,0,0,0,0,0,0,-1,1147,1422,0,0
-70,-398,0,0,0,0,0,0,0,0,0,-1,1154,1422,0,0
-63,-398,0,0,0,0,0,0,0,0,0,-1,1161,1422,0,0
-56,-398,0,0,0,0,0,0,0,0,0,-1,1168,1422,0,0
-49,-398,0,0,0,0,0,0,0,0,0,-1,1175,1422,0,0
-42,-398,0,0,0,0,0,0,0,0,0,-1,1182,1422,0,0
-35,-398,0,0,0,0,0,0,0,0,0,-1,1189,1422,0,0
-28,-398,0,0,0,0,0,0,0,0,0,-1,1196,1422,0,0
-21,-398,0,0,0,0,0,0,0,0,0,-1,1203,1422,0,0
-14,-398,0,0,0,0,0,0,0,0,0,-1,1210,1422,0,0
-7,-398,0,0,0,0,0,0,0,0,0,-1,1217,1422,0,0
0,-398,0,0,0,0,0,0,0,0,0,-1,1224,1422,0,0
7,-398,0,0,0,0,0,0,0,0,0,-1,1231,1422,0,0
14,-398,0,0,0,0,0,0,0,0,0,-1,1238,1422,0,0
21,-398,0,0,0,0,0,0,0,0,0,-1,1245,1422,0,0
28,-398,0,0,0,0,0,0,0,0,0,-1,1252,1422,0,0
35,-398,0,0,0,0,0,0,0,0,0,-1,1259,1422,0,0
42,-398,0,0,0,0,0,0,0,0,0,-1,1266,1422,0,0
49,-398,0,0,0,0,0,0,0,0,0,-1,1273,1422,0,0
56,-398,0,0,0,0,0,0,0,0,0,-1,1280,1422,0,0
63,-398,0,0,0,0,0,0,0,0,0,-1,1287,1422,0,0
70,-398,0,0,0,0,0,0,0,0,0,-1,1294,1422,0,0
77,-398,0,0,0,0,0,0,0,0,0,-1,1301,1422,0,0
84,-398,0,0,0,0,0,0,0,0,0,-1,1308,1422,0,0
91,-398,0,0,0,0,0,0,0,0,0,-1,1315,1422,0,0
98,-398,0,0,0,0,0,0,0,0,0,-1,1322,1422,0,0
105,-398,0,0,0,0,0,0,0,0,0,-1,1329,1422,0,0
112,-398,0,0,0,0,0,0,0,0,0,-1,1336,1422,0,0
119,-398,0,0,0,0,0,0,0,0,0,-1,1343,1422,0,0
126,-398,0,0,0,0,0,0,0,0,0,-1,1350,1422,0,0
133,-398,0,0,0,0,0,0,0,0,0,-1,1357,1422,0,0
140,-398,0,0,0,0,0,0,0,0,0,-1,1364,1422,0,0
147,-398,0,0,0,0,0,0,0,0,0,-1,1371,1422,0,0
154,-398,0,0,0,0,0,0,0,0,0,-1,1378,1422,0,0
161,-398,0,0,0,0,0,0,0,0,0,-1,1385,1422,0,0
168,-398,0,0,0,0,0,0,0,0,0,-1,1392,1422,0,0
175,-398,0,0,0,0,0,0,0,0,0,-1,1399,1422,0,0
182,-398,0,0,0,0,0,0,0,0,0,-1,1406,1422,0,0
189,-398,0,0,0,0,0,0,0,0,0,-1,1413,1422,0,0
196,-398,0,0,0,0,0,0,0,0,0,-1,1420,1422,0,0
203,-398,0,0,0,0,0,0,0,0,0,-1,1427,1422,0,0
210,-398,0,0,0,0,0,0,0,0,0,-1,1434,1422,0,0
217,-398,0,0,0,0,0,0,0,0,0,-1,1441,1422,0,0
224,-398,0,0,0,0,0,0,0,0,0,-1,1448,1422,0,0
231,-398,0,0,0,0,0,0,0,0,0,-1,1455,1422,0,0
238,-398,0,0,0,0,0,0,0,0,0,-1,1462,1422,0,0
245,-398,0,0,0,0,0,0,0,0,0,-1,1469,1422,0,0
252,-398,0,0,0,0,0,0,0,0,0,-1,1476,1422,0,0
259,-398,0,0,0,0,0,0,0,0,0,-1,1483,1422,0,0
266,-398,0,0,0,0,0,0,0,0,0,-1,1490,1422,0,0
273,-398,0,0,0,0,0,0,0,0,0,-1,1497,1422,0,0
280,-398,0,0,0,0,0,0,0,0,0,-1,1504,1422,0,0
287,-398,0,0,0,0,0,0,0,0,0,-1,1511,1422,0,0
294,-398,0,0,0,0,0,0,0,0,0,-1,1518,1422,0,0
301,-398,0,0,0,0,0,0,0,0,0,-1,1525,1422,0,0
308,-398,0,0,0,0,0,0,0,0,0,-1,1532,1422,0,0
315,-398,0,0,0,0,0,0,0,0,0,-1,1539,1422,0,0
322,-398,0,0,0,0,0,0,0,0,0,-1,1546,1422,0,0
329,-398,0,0,0,0,0,0,0,0,0,-1,1553,1422,0,0
336,-398,0,0,0,0,0,0,0,0,0,-1,1560,1422,0,0
343,-398,0,0,0,0,0,0,0,0,0,-1,1567,1422,0,0
350,-398,0,0,0,0,0,0,0,0,0,-1,1574,1422,0,0
357,-398,0,0,0,0,0,0,0,0,0,-1,1581,1422,0,0
364,-398,0,0,0,0,0,0,0,0,0,-1,1588,1422,0,0
371,-398,0,0,0,0,0,0,0,0,0,-1,1595,1422,0,0
378,-398,0,0,0,0,0,0,0,0,0,-1,1602,1422,0,0
385,-398,0,0,0,0,0,0,0,0,0,-1,1609,1422,0,0
392,-398,0,0,0,0,0,0,0,0,0,-1,1616,1422,0,0
399,-398,0,0,0,0,0,0,0,0,0,-1,1623,1422,0,0
406,-398,0,0,0,0,0,0,0,0,0,-1,1630,1422,0,0
413,-398,0,0,0,0,0,0,0,0,0,-1,1637,1422,0,0
420,-398,0,0,0,0,0,0,0,0,0,-1,1644,1422,0,0
427,-398,0,0,0,0,0,0,0,0,0,-1,1651,1422,0,0
434,-398,0,0,0,0,0,0,0,0,0,-1,1658,1422,0,0
441,-398,0,0,0,0,0,0,0,0,0,-1,1665,1422,0,0
448,-398,0,0,0,0,0,0,0,0,0,-1,1672,1422,0,0
455,-398,0,0,0,0,0,0,0,0,0,-1,1679,1422,0,0
462,-398,0,0,0,0,0,0,0,0,0,-1,1686,1422,0,0
469,-398,0,0,0,0,0,0,0,0,0,-1,1693,1422,0,0
476,-398,0,0,0,0,0,0,0,0,0,-1,1700,1422,0,0
483,-398,0,0,0,0,0,0,0,0,0,-1,1707,1422,0,0
490,-398,0,0,0,0,0,0,0,0,0,-1,1714,1422,0,0
497,-398,0,0,0,0,0,0,0,0,0,-1,1721,1422,0,0
504,-398,0,0,0,0,0,0,0,0,0,-1,1728,1422,0,0
511,-398,0,0,0,0,0,0,0,0,0,-1,1735,1422,0,0
518,-398,0,0,0,0,0,0,0,0,0,-1,1742,1422,0,0
525,-398,0,0,0,0,0,0,0,0,0,-1,1749,1422,0,0
532,-398,0.673096,-1.91882,0.00928113,-0.0190685,0.0105647,0.012785,-0.0225724,0.320247,0.0206727,0.0443713,1756,1422,0.673118,1.91878
539,-398,0.872803,-1.40601,0.00546388,-0.0175706,0.00947995,0.00886362,-0.0209703,0.344338,0.0176911,0.0472357,1763,1422,0.872862,1.40597
546,-398,0.86084,-0.950562,0.00238709,-0.0155757,0.0084577,0.00574256,-0.0189311,0.377689,0.0149083,0.0472487,1770,1422,0.860786,0.950534
553,-398,0.671387,-0.802246,0.000184393,-0.013457,0.00735836,0.003397,-0.0166697,0.411649,0.0124015,0.044707,1777,1422,0.671397,0.802217
560,-398,0.512695,-0.654785,-0.00151997,-0.0116608,0.00590565,0.00119331,-0.014374,0.430675,0.0100042,0.0441905,1784,1422,0.512688,0.65482
567,-398,0.447266,-0.527466,-0.00218217,-0.00986662,0.0045963,-3.36776e-05,-0.0120151,0.437261,0.00799887,0.0428681,1791,1422,0.447315,0.527503
574,-398,0.45105,-0.444946,-0.00214083,-0.00779556,0.00369536,-0.000315272,-0.00962112,0.458847,0.00631161,0.040741,1798,1422,0.451035,0.444937
581,-398,0.198242,-0.647217,-0.00161072,-0.00646382,0.00281096,-0.000323833,-0.00775071,0.429331,0.00506265,0.0431921,1805,1422,0.198238,0.647245
588,-398,0.0280762,-0.744751,-0.00125455,-0.00526118,0.00173615,-0.000606928,-0.00590881,0.357037,0.00375329,0.0487961,1812,1422,0.0280327,0.74471
595,-398,0.590576,-0.247681,-0.00139655,-0.00414514,0.000999982,-0.00107124,-0.00447044,0.314516,0.00269514,0.047296,1819,1422,0.590577,0.247674
602,-398,0.703125,-0.243774,0,0,0,0,0,0,0,-1,1826,1422,0.703145,0.243809
609,-398,-0.130737,-0.0402832,0.000243542,-0.00336596,0.000649805,0.00035696,-0.00347938,0.172801,0.00244727,0.0325258,1833,1422,-0.130739,0.0403322
616,-398,-0.0474854,0.0319824,0.000699788,-0.00287064,0.000424216,0.000749498,-0.00292035,0.11665,0.00223895,0.0137215,1840,1422,-0.0475181,-0.0319631
623,-398,-0.0561523,0.0635986,0.000878158,-0.00236658,0.000442618,0.000937452,-0.00242587,0.13317,0.0020042,0.0101404,1847,1422,-0.056135,-0.0635861
630,-398,-0.0369873,0.0697021,0.000983182,-0.00208918,0.000447285,0.00104697,-0.00215297,0.141667,0.00188391,0.0108623,1854,1422,-0.0370334,-0.0696762
637,-398,-0.0294189,0.0671387,0.00138259,-0.00147291,0.000624485,0.00151319,-0.00160351,0.206159,0.00179968,0.0122482,1861,1422,-0.0294302,-0.0671216
644,-398,-0.0776367,0.0546875,0.00151956,-0.00114484,0.000684321,0.00168504,-0.00131032,0.237265,0.00173388,0.0186051,1868,1422,-0.0775984,-0.054635
651,-398,-0.0698242,0.0637207,0.00134476,-0.000745407,0.0006707,0.00154146,-0.000942112,0.285283,0.00144774,0.0243452,1875,1422,-0.0698432,-0.0637767
658,-398,-0.0615234,0.0697021,0.00106222,0.000392062,0.000495302,0.00132514,0.000129142,0.488004,0.000843678,0.016697,1882,1422,-0.0615092,-0.0697004
665,-398,-0.0629883,0.0574951,0.00125262,0.00138487,0.000599906,0.00192229,0.000715208,0.840292,0.00112188,0.0121397,1889,1422,-0.0630236,-0.0575379
672,-398,-0.0688477,0.0595703,0.00152693,0.00214041,0.000757397,0.00265082,0.00101651,0.977802,0.00154425,0.0120938,1896,1422,-0.0688024,-0.0596226
679,-398,-0.0588379,0.0541992,0.00187853,0.00272795,0.000861524,0.00326376,0.00134272,1.0144,0.00189417,0.0108731,1903,1422,-0.0588521,-0.0541526
686,-398,-0.0299072,0.0615234,0.00234727,0.00395083,0.000728492,0.00423235,0.00206575,1.20202,0.00244378,0.0153709,1910,1422,-0.0299111,-0.0615189
693,-398,0.0772705,0.163208,0.00289178,0.00512728,0.000664937,0.00531011,0.00270895,1.30247,0.003066,0.033028,1917,1422,0.0772136,-0.163254
700,-398,0.178223,0.383301,0.00351351,0.00655103,0.000481024,0.00662539,0.00343916,1.41743,0.0038261,0.0437257,1924,1422,0.178233,-0.383244
707,-398,-0.402832,-0.167969,0.00437245,0.00824289,0.000163998,0.00824982,0.00436552,1.52853,0.00476574,0.045359,1931,1422,-0.402852,0.167992
714,-398,-0.424194,0.0170898,0.00552433,0.0101652,-0.000364897,0.0101937,0.00549582,-1.49281,0.00589134,0.0460132,1938,1422,-0.42417,-0.0171075
721,-398,-0.183594,0.307983,0.00708516,0.0122557,-0.00119198,0.0125173,0.0068236,-1.35479,0.00723666,0.0412816,1945,1422,-0.183533,-0.307982
728,-398,-0.0687256,0.453369,0.00927092,0.0144623,-0.00253801,0.0154969,0.0082363,-1.18371,0.00895304,0.0406065,1952,1422,-0.0687148,-0.453316
735,-398,0,0,0,0,0,0,0,0,0,-1,1959,1422,0,0
742,-398,0,0,0,0,0,0,0,0,0,-1,1966,1422,0,0
749,-398,0,0,0,0,0,0,0,0,0,-1,1973,1422,0,0
756,-398,0,0,0,0,0,0,0,0,0,-1,1980,1422,0,0
763,-398,0,0,0,0,0,0,0,0,0,-1,1987,1422,0,0
770,-398,0,0,0,0,0,0,0,0,0,-1,1994,1422,0,0
777,-398,0,0,0,0,0,0,0,0,0,-1,2001,1422,0,0
784,-398,0,0,0,0,0,0,0,0,0,-1,2008,1422,0,0
791,-398,0,0,0,0,0,0,0,0,0,-1,2015,1422,0,0
798,-398,0,0,0,0,0,0,0,0,0,-1,2022,1422,0,0
805,-398,0,0,0,0,0,0,0,0,0,-1,2029,1422,0,0
812,-398,0,0,0,0,0,0,0,0,0,-1,2036,1422,0,0
-700,-405,0,0,0,0,0,0,0,0,0,-1,524,1429,0,0
-693,-405,0,0,0,0,0,0,0,0,0,-1,531,1429,0,0
-686,-405,0,0,0,0,0,0,0,0,0,-1,538,1429,0,0
-679,-405,0,0,0,0,0,0,0,0,0,-1,545,1429,0,0
-672,-405,0,0,0,0,0,0,0,0,0,-1,552,1429,0,0
-665,-405,0,0,0,0,0,0,0,0,0,-1,559,1429,0,0
-658,-405,0,0,0,0,0,0,0,0,0,-1,566,1429,0,0
-651,-405,0,0,0,0,0,0,0,0,0,-1,573,1429,0,0
-644,-405,0,0,0,0,0,0,0,0,0,-1,580,1429,0,0
-637,-405,0,0,0,0,0,0,0,0,0,-1,587,1429,0,0
-630,-405,0,0,0,0,0,0,0,0,0,-1,594,1429,0,0
-623,-405,0,0,0,0,0,0,0,0,0,-1,601,1429,0,0
-616,-405,0,0,0,0,0,0,0,0,0,-1,608,1429,0,0
-609,-405,0,0,0,0,0,0,0,0,0,-1,615,1429,0,0
-602,-405,-1.1593,-0.779541,0,0,0,0,0,0,0,-1,622,1429,-1.15932,0.779526
-595,-405,-1.55536,-0.660278,0,0,0,0,0,0,0,-1,629,1429,-1.55534,0.660272
-588,-405,-1.68188,-0.443359,0,0,0,0,0,0,0,-1,636,1429,-1.68187,0.443324
-581,-405,-2.07184,-0.0740967,0,0,0,0,0,0,0,-1,643,1429,-2.07183,0.0741041
-574,-405,0.741943,1.55884,0,0,0,0,0,0,0,-1,650,1429,0.741972,-1.55887
-567,-405,0.737061,1.3313,0,0,0,0,0,0,0,-1,657,1429,0.737055,-1.33135
-560,-405,-0.0328979,-0.0458984,0,0,0,0,0,0,0,-1,664,1429,-0.0329065,0.0459259
-553,-405,-0.0214844,-0.00500488,0.00327515,0.0114299,0.00206259,0.0119219,0.00278314,1.33663,0.00720177,0.0311454,671,1429,-0.0214737,0.00497226
-546,-405,-0.019104,0.0289307,0.00361249,0.0086639,0.00265415,0.00980203,0.00247436,1.1657,0.00588589,0.0127163,678,1429,-0.0191026,-0.0288819
-539,-405,-0.0320435,0.0603027,0.00270107,0.00609453,0.0025148,0.00743146,0.00136414,1.08217,0.004568,0.0104285,685,1429,-0.0320304,-0.0603534
-532,-405,-0.0391846,0.0565186,0.00167919,0.00356095,0.00228357,0.00508987,0.000150262,0.980811,0.00334429,0.013434,692,1429,-0.0391699,-0.0565558
-525,-405,-0.0391846,0.0705566,0.000544216,0.00190609,0.00179301,0.00314311,-0.000692803,0.966873,0.00236048,0.0127388,699,1429,-0.0391602,-0.0705199
-518,-405,-0.0317993,0.0673828,0.000214059,0.00100843,0.00124896,0.00192184,-0.000699346,0.939349,0.00156724,0.014158,706,1429,-0.0318294,-0.0674222
-511,-405,-0.0378418,0.0507813,0.000480232,0.000446073,0.000536558,0.000999982,-7.3677e-05,0.769488,0.000692522,0.0142684,713,1429,-0.0378654,-0.0507687
-504,-405,-0.0317993,0.0441895,0.00201534,0.00160609,-0.00179252,0.00361488,6.54557e-06,-0.728566,0.00240774,0.0157903,720,1429,-0.0317919,-0.0442099
-497,-405,-0.0119629,0.0465088,0.00317004,0.00495268,-0.00416372,0.00831941,-0.000196691,-0.890841,0.00561299,0.0123212,727,1429,-0.0119498,-0.0465447
-490,-405,-0.0217896,0.0462646,0.00389972,0.00735547,-0.00569591,0.0115798,-0.00032462,-0.932664,0.00783033,0.00947477,734,1429,-0.0217969,-0.0463256
-483,-405,-0.0380249,0.045166,0.004822,0.00941611,-0.00674968,0.0142489,-1.0787e-05,-0.949411,0.00950286,0.00786502,741,1429,-0.0380111,-0.0452256
-476,-405,-0.0465698,0.0820313,0.00589941,0.0130755,-0.00829796,0.0185279,0.000446966,-0.989459,0.0122057,0.017586,748,1429,-0.0465581,-0.0819805
-469,-405,-0.0870361,0.0672607,0.00658664,0.0170835,-0.0100096,0.0231372,0.000532929,-1.02686,0.0152503,0.0322014,755,1429,-0.0870494,-0.0673202
-462,-405,0.0482788,-0.185791,0.00623803,0.0208733,-0.0109834,0.0267535,0.000357809,-1.07925,0.0177176,0.0387745,762,1429,0.0482879,0.185814
-455,-405,2.88379,-2.41577,0.00456996,0.0238738,-0.0113334,0.0291083,-0.000664546,-1.13812,0.0196308,0.0419451,769,1429,2.88376,2.4158
-448,-405,2.15546,-2.03162,0.00135116,0.0263443,-0.0108631,0.0304058,-0.00271041,-1.213,0.0212318,0.0440983,776,1429,2.15548,2.03163
-441,-405,1.26978,-1.36829,0,0,0,0,0,0,0,-1,783,1429,1.26977,1.36834
-434,-405,1.11145,-0.63208,0,0,0,0,0,0,0,-1,790,1429,1.11144,0.632128
-427,-405,0.900513,0.0513916,0,0,0,0,0,0,0,-1,797,1429,0.900535,-0.0513338
-420,-405,0.946228,0.584351,0,0,0,0,0,0,0,-1,804,1429,0.94624,-0.584317
-413,-405,-1.0769,0.584595,0,0,0,0,0,0,0,-1,811,1429,-1.07691,-0.584648
-406,-405,1.20007,0.93103,0,0,0,0,0,0,0,-1,818,1429,1.20007,-0.931047
-399,-405,0,0,0,0,0,0,0,0,0,-1,825,1429,0,0
-392,-405,0,0,0,0,0,0,0,0,0,-1,832,1429,0,0
-385,-405,0,0,0,0,0,0,0,0,0,-1,839,1429,0,0
-378,-405,0,0,0,0,0,0,0,0,0,-1,846,1429,0,0
-371,-405,0,0,0,0,0,0,0,0,0,-1,853,1429,0,0
-364,-405,0,0,0,0,0,0,0,0,0,-1,860,1429,0,0
-357,-405,0,0,0,0,0,0,0,0,0,-1,867,1429,0,0
-350,-405,0,0,0,0,0,0,0,0,0,-1,874,1429,0,0
-343,-405,0,0,0,0,0,0,0,0,0,-1,881,1429,0,0
-336,-405,0,0,0,0,0,0,0,0,0,-1,888,1429,0,0
-329,-405,0,0,0,0,0,0,0,0,0,-1,895,1429,0,0
-322,-405,0,0,0,0,0,0,0,0,0,-1,902,1429,0,0
-315,-405,0,0,0,0,0,0,0,0,0,-1,909,1429,0,0
-308,-405,0,0,0,0,0,0,0,0,0,-1,916,1429,0,0
-301,-405,0,0,0,0,0,0,0,0,0,-1,923,1429,0,0
-294,-405,0,0,0,0,0,0,0,0,0,-1,930,1429,0,0
-287,-405,0,0,0,0,0,0,0,0,0,-1,937,1429,0,0
-280,-405,0,0,0,0,0,0,0,0,0,-1,944,1429,0,0
-273,-405,0,0,0,0,0,0,0,0,0,-1,951,1429,0,0
-266,-405,0,0,0,0,0,0,0,0,0,-1,958,1429,0,0
-259,-405,0,0,0,0,0,0,0,0,0,-1,965,1429,0,0
-252,-405,0,0,0,0,0,0,0,0,0,-1,972,1429,0,0
-245,-405,0,0,0,0,0,0,0,0,0,-1,979,1429,0,0
-238,-405,0,0,0,0,0,0,0,0,0,-1,986,1429,0,0
-231,-405,0,0,0,0,0,0,0,0,0,-1,993,1429,0,0
-224,-405,0,0,0,0,0,0,0,0,0,-1,1000,1429,0,0
-217,-405,0,0,0,0,0,0,0,0,0,-1,1007,1429,0,0
-210,-405,0,0,0,0,0,0,0,0,0,-1,1014,1429,0,0
-203,-405,0,0,0,0,0,0,0,0,0,-1,1021,1429,0,0
-196,-405,0,0,0,0,0,0,0,0,0,-1,1028,1429,0,0
-189,-405,0,0,0,0,0,0,0,0,0,-1,1035,1429,0,0
-182,-405,0,0,0,0,0,0,0,0,0,-1,1042,1429,0,0
-175,-405,0,0,0,0,0,0,0,0,0,-1,1049,1429,0,0
-168,-405,0,0,0,0,0,0,0,0,0,-1,1056,1429,0,0
-161,-405,0,0,0,0,0,0,0,0,0,-1,1063,1429,0,0
-154,-405,0,0,0,0,0,0,0,0,0,-1,1070,1429,0,0
-147,-405,0,0,0,0,0,0,0,0,0,-1,1077,1429,0,0
-140,-405,0,0,0,0,0,0,0,0,0,-1,1084,1429,0,0
-133,-405,0,0,0,0,0,0,0,0,0,-1,1091,1429,0,0
-126,-405,0,0,0,0,0,0,0,0,0,-1,1098,1429,0,0
-119,-405,0,0,0,0,0,0,0,0,0,-1,1105,1429,0,0
-112,-405,0,0,0,0,0,0,0,0,0,-1,1112,1429,0,0
-105,-405,0,0,0,0,0,0,0,0,0,-1,1119,1429,0,0
-98,-405,0,0,0,0,0,0,0,0,0,-1,1126,1429,0,0
-91,-405,0,0,0,0,0,0,0,0,0,-1,1133,1429,0,0
-84,-405,0,0,0,0,0,0,0,0,0,-1,1140,1429,0,0
-77,-405,0,0,0,0,0,0,0,0,0,-1,1147,1429,0,0
-70,-405,0,0,0,0,0,0,0,0,0,-1,1154,1429,0,0
-63,-405,0,0,0,0,0,0,0,0,0,-1,1161,1429,0,0
-56,-405,0,0,0,0,0,0,0,0,0,-1,1168,1429,0,0
-49,-405,0,0,0,0,0,0,0,0,0,-1,1175,1429,0,0
-42,-405,0,0,0,0,0,0,0,0,0,-1,1182,1429,0,0
-35,-405,0,0,0,0,0,0,0,0,0,-1,1189,1429,0,0
-28,-405,0,0,0,0,0,0,0,0,0,-1,1196,1429,0,0
-21,-405,0,0,0,0,0,0,0,0,0,-1,1203,1429,0,0
-14,-405,0,0,0,0,0,0,0,0,0,-1,1210,1429,0,0
-7,-405,0,0,0,0,0,0,0,0,0,-1,1217,1429,0,0
0,-405,0,0,0,0,0,0,0,0,0,-1,1224,1429,0,0
7,-405,0,0,0,0,0,0,0,0,0,-1,1231,1429,0,0
14,-405,0,0,0,0,0,0,0,0,0,-1,1238,1429,0,0
21,-405,0,0,0,0,0,0,0,0,0,-1,1245,1429,0,0
28,-405,0,0,0,0,0,0,0,0,0,-1,1252,1429,0,0
35,-405,0,0,0,0,0,0,0,0,0,-1,1259,1429,0,0
42,-405,0,0,0,0,0,0,0,0,0,-1,1266,1429,0,0
49,-405,0,0,0,0,0,0,0,0,0,-1,1273,1429,0,0
56,-405,0,0,0,0,0,0,0,0,0,-1,1280,1429,0,0
63,-405,0,0,0,0,0,0,0,0,0,-1,1287,1429,0,0
70,-405,0,0,0,0,0,0,0,0,0,-1,1294,1429,0,0
77,-405,0,0,0,0,0,0,0,0,0,-1,1301,1429,0,0
84,-405,0,0,0,0,0,0,0,0,0,-1,1308,1429,0,0
91,-405,0,0,0,0,0,0,0,0,0,-1,1315,1429,0,0
98,-405,0,0,0,0,0,0,0,0,0,-1,1322,1429,0,0
105,-405,0,0,0,0,0,0,0,0,0,-1,1329,1429,0,0
112,-405,0,0,0,0,0,0,0,0,0,-1,1336,1429,0,0
119,-405,0,0,0,0,0,0,0,0,0,-1,1343,1429,0,0
126,-405,0,0,0,0,0,0,0,0,0,-1,1350,1429,0,0
133,-405,0,0,0,0,0,0,0,0,0,-1,1357,1429,0,0
140,-405,0,0,0,0,0,0,0,0,0,-1,1364,1429,0,0
147,-405,0,0,0,0,0,0,0,0,0,-1,1371,1429,0,0
154,-405,0,0,0,0,0,0,0,0,0,-1,1378,1429,0,0
161,-405,0,0,0,0,0,0,0,0,0,-1,1385,1429,0,0
168,-405,0,0,0,0,0,0,0,0,0,-1,1392,1429,0,0
175,-405,0,0,0,0,0,0,0,0,0,-1,1399,1429,0,0
182,-405,0,0,0,0,0,0,0,0,0,-1,1406,1429,0,0
189,-405,0,0,0,0,0,0,0,0,0,-1,1413,1429,0,0
196,-405,0,0,0,0,0,0,0,0,0,-1,1420,1429,0,0
203,-405,0,0,0,0,0,0,0,0,0,-1,1427,1429,0,0
210,-405,0,0,0,0,0,0,0,0,0,-1,1434,1429,0,0
217,-405,0,0,0,0,0,0,0,0,0,-1,1441,1429,0,0
224,-405,0,0,0,0,0,0,0,0,0,-1,1448,1429,0,0
231,-405,0,0,0,0,0,0,0,0,0,-1,1455,1429,0,0
238,-405,0,0,0,0,0,0,0,0,0,-1,1462,1429,0,0
245,-405,0,0,0,0,0,0,0,0,0,-1,1469,1429,0,0
252,-405,0,0,0,0,0,0,0,0,0,-1,1476,1429,0,0
259,-405,0,0,0,0,0,0,0,0,0,-1,1483,1429,0,0
266,-405,0,0,0,0,0,0,0,0,0,-1,1490,1429,0,0
273,-405,0,0,0,0,0,0,0,0,0,-1,1497,1429,0,0
280,-405,0,0,0,0,0,0,0,0,0,-1,1504,1429,0,0
287,-405,0,0,0,0,0,0,0,0,0,-1,1511,1429,0,0
294,-405,0,0,0,0,0,0,0,0,0,-1,1518,1429,0,0
301,-405,0,0,0,0,0,0,0,0,0,-1,1525,1429,0,0
308,-405,0,0,0,0,0,0,0,0,0,-1,1532,1429,0,0
315,-405,0,0,0,0,0,0,0,0,0,-1,1539,1429,0,0
322,-405,0,0,0,0,0,0,0,0,0,-1,1546,1429,0,0
329,-405,0,0,0,0,0,0,0,0,0,-1,1553,1429,0,0
336,-405,0,0,0,0,0,0,0,0,0,-1,1560,1429,0,0
343,-405,0,0,0,0,0,0,0,0,0,-1,1567,1429,0,0
350,-405,0,0,0,0,0,0,0,0,0,-1,1574,1429,0,0
357,-405,0,0,0,0,0,0,0,0,0,-1,1581,1429,0,0
364,-405,0,0,0,0,0,0,0,0,0,-1,1588,1429,0,0
371,-405,0,0,0,0,0,0,0,0,0,-1,1595,1429,0,0
378,-405,0,0,0,0,0,0,0,0,0,-1,1602,1429,0,0
385,-405,0,0,0,0,0,0,0,0,0,-1,1609,1429,0,0
392,-405,0,0,0,0,0,0,0,0,0,-1,1616,1429,0,0
399,-405,0,0,0,0,0,0,0,0,0,-1,1623,1429,0,0
406,-405,0,0,0,0,0,0,0,0,0,-1,1630,1429,0,0
413,-405,0,0,0,0,0,0,0,0,0,-1,1637,1429,0,0
420,-405,0,0,0,0,0,0,0,0,0,-1,1644,1429,0,0
427,-405,0,0,0,0,0,0,0,0,0,-1,1651,1429,0,0
434,-405,0,0,0,0,0,0,0,0,0,-1,1658,1429,0,0
441,-405,0,0,0,0,0,0,0,0,0,-1,1665,1429,0,0
448,-405,0,0,0,0,0,0,0,0,0,-1,1672,1429,0,0
455,-405,0,0,0,0,0,0,0,0,0,-1,1679,1429,0,0
462,-405,0,0,0,0,0,0,0,0,0,-1,1686,1429,0,0
469,-405,0,0,0,0,0,0,0,0,0,-1,1693,1429,0,0
476,-405,0,0,0,0,0,0,0,0,0,-1,1700,1429,0,0
483,-405,0,0,0,0,0,0,0,0,0,-1,1707,1429,0,0
490,-405,0,0,0,0,0,0,0,0,0,-1,1714,1429,0,0
497,-405,0,0,0,0,0,0,0,0,0,-1,1721,1429,0,0
504,-405,0,0,0,0,0,0,0,0,0,-1,1728,1429,0,0
511,-405,0,0,0,0,0,0,0,0,0,-1,1735,1429,0,0
518,-405,0,0,0,0,0,0,0,0,0,-1,1742,1429,0,0
525,-405,0.559326,-2.09753,0,0,0,0,0,0,0,-1,1749,1429,0.559349,2.09749
532,-405,0.774536,-1.75659,0.00255266,-0.0193831,0.0107118,0.00691568,-0.0237461,0.386793,0.0185703,0.0462121,1756,1429,0.774496,1.75656
539,-405,0.867432,-0.900879,0.000130557,-0.0179664,0.00987073,0.00447261,-0.0223084,0.414416,0.0165657,0.0471432,1763,1429,0.867433,0.900847
546,-405,1.09131,-0.338501,-0.00151559,-0.0160699,0.00899592,0.00277807,-0.0203635,0.445315,0.0145901,0.0448002,1770,1429,1.09128,0.338537
553,-405,0.811401,-0.487671,0,0,0,0,0,0,0,-1,1777,1429,0.811412,0.487619
560,-405,0.688232,-0.335815,-0.00382769,-0.0121101,0.00668064,-0.000108842,-0.015829,0.507943,0.0105165,0.0447783,1784,1429,0.68826,0.335864
567,-405,0.682129,-0.245239,-0.00407467,-0.0102756,0.00539128,-0.000955915,-0.0133944,0.524446,0.00862863,0.0438332,1791,1429,0.682107,0.245207
574,-405,0.412842,-0.170654,-0.00361368,-0.00802787,0.00444504,-0.000857953,-0.0107836,0.554964,0.00692083,0.0396006,1798,1429,0.412844,0.170609
581,-405,0.178711,-0.299805,-0.00268607,-0.00646131,0.00343944,-0.000650315,-0.00849707,0.534431,0.00546086,0.0415406,1805,1429,0.178682,0.299817
588,-405,0.0689697,-0.787109,0,0,0,0,0,0,0,-1,1812,1429,0.0689391,0.787141
595,-405,0.880371,-0.186279,0,0,0,0,0,0,0,-1,1819,1429,0.880311,0.186277
602,-405,-0.0552979,0.069458,-0.00126589,-0.00271443,0.000931619,-0.000810128,-0.0031702,0.454984,0.00190183,0.034377,1826,1429,-0.0553249,-0.0694123
609,-405,-0.045166,0.0401611,-0.000226476,-0.00254633,0.00066122,-5.12464e-05,-0.00272155,0.259055,0.00179753,0.0150541,1833,1429,-0.0451352,-0.0401631
616,-405,-0.0385742,0.0639648,0.000303146,-0.00195312,0.000300735,0.000342543,-0.00199252,0.130259,0.00145602,0.00874433,1840,1429,-0.0386008,-0.0639742
623,-405,-0.0626221,0.0656738,0.000509612,-0.00146732,0.000242034,0.000538813,-0.00149652,0.120067,0.00121769,0.00907341,1847,1429,-0.0626077,-0.0656686
630,-405,-0.0543213,0.0684814,0.000753017,-0.00112973,0.000243752,0.000784063,-0.00116077,0.126684,0.00112985,0.00936987,1854,1429,-0.0542823,-0.0684264
637,-405,-0.045166,0.0604248,0.00114476,-0.000535953,0.000345912,0.00121317,-0.000604362,0.195244,0.0010688,0.00994621,1861,1429,-0.0452126,-0.0603704
644,-405,-0.083252,0.0159912,0.00133913,-0.000306215,0.000421241,0.00144071,-0.00040779,0.236616,0.00112139,0.0281126,1868,1429,-0.0831911,-0.0159469
651,-405,-0.0546875,0.0270996,0.00121323,4.37879e-05,0.000443453,0.00136237,-0.000105351,0.324429,0.00094532,0.0318462,1875,1429,-0.0546459,-0.0270547
658,-405,-0.043457,0.067627,0.000985535,0.00115591,0.000257719,0.00134216,0.000799291,0.94502,0.000779595,0.0208851,1882,1429,-0.0434074,-0.0676495
665,-405,-0.0578613,0.0562744,0.00128916,0.00222166,0.00041041,0.00237655,0.00113426,1.2099,0.00137258,0.0162541,1889,1429,-0.0578829,-0.0563113
672,-405,-0.0498047,0.0383301,0.00171332,0.00314333,0.000631695,0.00338241,0.00147424,1.20899,0.00195818,0.0203505,1896,1429,-0.0497878,-0.0382886
679,-405,-0.0539551,-0.0012207,0.00220361,0.00395739,0.000798394,0.00426641,0.0018946,1.20151,0.00246834,0.0182097,1903,1429,-0.0539582,0.00119823
686,-405,-0.0187988,0.0488281,0.00277203,0.00546457,0.000749537,0.00565916,0.00257744,1.31679,0.00327164,0.0267893,1910,1429,-0.0187892,-0.0487745
693,-405,0.115967,0.210938,0.00342336,0.00703511,0.00081537,0.00721065,0.00324782,1.35874,0.00416989,0.0408901,1917,1429,0.115997,-0.210996
700,-405,0.350464,0.5448,0.00421367,0.00890129,0.000825072,0.00904227,0.00407269,1.40156,0.00522911,0.0464406,1924,1429,0.350463,-0.544842
707,-405,-0.613159,-0.709473,0.00524595,0.0110357,0.00075065,0.0111314,0.00515021,1.44394,0.0064327,0.0451486,1931,1429,-0.613167,0.709464
714,-405,-0.341187,-0.322632,0.00662359,0.0133763,0.000606002,0.0134303,0.00656963,1.482,0.00775459,0.0423619,1938,1429,-0.341168,0.322612
721,-405,-0.211548,0.256348,0.00851142,0.0158169,0.000370085,0.0158356,0.00849272,1.52031,0.00915072,0.0409268,1945,1429,-0.211559,-0.25631
728,-405,0,0,0,0,0,0,0,0,0,-1,1952,1429,0,0
735,-405,0,0,0,0,0,0,0,0,0,-1,1959,1429,0,0
742,-405,0,0,0,0,0,0,0,0,0,-1,1966,1429,0,0
749,-405,0,0,0,0,0,0,0,0,0,-1,1973,1429,0,0
756,-405,0,0,0,0,0,0,0,0,0,-1,1980,1429,0,0
763,-405,0,0,0,0,0,0,0,0,0,-1,1987,1429,0,0
770,-405,0,0,0,0,0,0,0,0,0,-1,1994,1429,0,0
777,-405,0,0,0,0,0,0,0,0,0,-1,2001,1429,0,0
784,-405,0,0,0,0,0,0,0,0,0,-1,2008,1429,0,0
791,-405,0,0,0,0,0,0,0,0,0,-1,2015,1429,0,0
798,-405,0,0,0,0,0,0,0,0,0,-1,2022,1429,0,0
805,-405,0,0,0,0,0,0,0,0,0,-1,2029,1429,0,0
812,-405,0,0,0,0,0,0,0,0,0,-1,2036,1429,0,0
-700,-412,0,0,0,0,0,0,0,0,0,-1,524,1436,0,0
-693,-412,0,0,0,0,0,0,0,0,0,-1,531,1436,0,0
-686,-412,0,0,0,0,0,0,0,0,0,-1,538,1436,0,0
-679,-412,0,0,0,0,0,0,0,0,0,-1,545,1436,0,0
-672,-412,0,0,0,0,0,0,0,0,0,-1,552,1436,0,0
-665,-412,0,0,0,0,0,0,0,0,0,-1,559,1436,0,0
-658,-412,0,0,0,0,0,0,0,0,0,-1,566,1436,0,0
-651,-412,0,0,0,0,0,0,0,0,0,-1,573,1436,0,0
-644,-412,0,0,0,0,0,0,0,0,0,-1,580,1436,0,0
-637,-412,0,0,0,0,0,0,0,0,0,-1,587,1436,0,0
-630,-412,0,0,0,0,0,0,0,0,0,-1,594,1436,0,0
-623,-412,0,0,0,0,0,0,0,0,0,-1,601,1436,0,0
-616,-412,0,0,0,0,0,0,0,0,0,-1,608,1436,0,0
-609,-412,0,0,0,0,0,0,0,0,0,-1,615,1436,0,0
-602,-412,-1.08362,-0.886108,0,0,0,0,0,0,0,-1,622,1436,-1.08361,0.886164
-595,-412,-2.25885,1.4978,0,0,0,0,0,0,0,-1,629,1436,-2.25883,-1.49785
-588,-412,-1.34259,-0.603271,0,0,0,0,0,0,0,-1,636,1436,-1.3426,0.603295
-581,-412,0.145447,1.12317,0,0,0,0,0,0,0,-1,643,1436,0.14546,-1.12319
-574,-412,0.348816,0.887451,0,0,0,0,0,0,0,-1,650,1436,0.348808,-0.887422
-567,-412,0.28064,0.612305,0,0,0,0,0,0,0,-1,657,1436,0.280657,-0.612288
-560,-412,-0.0020752,0.172485,0.00316911,0.0162795,-0.00123681,0.0163952,0.00305345,-1.47755,0.0100679,0.042209,664,1436,-0.00209154,-0.172457
-553,-412,0.00305176,-0.00219727,0.00352832,0.0128247,0.000516735,0.0128534,0.00349969,1.51544,0.00767316,0.0361123,671,1436,0.00307713,0.00224507
-546,-412,-0.0230713,0.0258789,0.00370252,0.00974122,0.00159937,0.0101387,0.00330508,1.32723,0.00597055,0.0203633,678,1436,-0.0230921,-0.0258826
-539,-412,-0.0441895,0.0374756,0.00282489,0.00690067,0.00185966,0.00762165,0.00210391,1.20095,0.00454512,0.0110763,685,1436,-0.0442044,-0.0374512
-532,-412,-0.0410156,0.0413818,0.00180817,0.0041719,0.00199768,0.00531114,0.000668928,1.05252,0.00334019,0.0132035,692,1436,-0.0410321,-0.0414063
-525,-412,-0.0496216,0.048584,0.00071248,0.00237075,0.0017074,0.00343969,-0.000356463,1.01143,0.00242071,0.0132816,699,1436,-0.0496288,-0.0485698
-518,-412,-0.0341187,0.0498047,0.000383925,0.00141882,0.00118875,0.00219785,-0.000395112,0.990674,0.00161315,0.0151135,706,1436,-0.0341351,-0.0497575
-511,-412,-0.0487671,0.046875,0.00073605,0.000788836,0.000453716,0.00121693,0.00030796,0.814451,0.000730596,0.0181511,713,1436,-0.0487495,-0.0468697
-504,-412,-0.0618286,0.0615234,0.00233313,0.00163817,-0.00175082,0.00377062,0.000200679,-0.687437,0.0024496,0.017699,720,1436,-0.0618177,-0.0615268
-497,-412,-0.0344849,0.0640869,0.00353807,0.00432121,-0.00381591,0.00776559,9.36915e-05,-0.836526,0.00514611,0.0136482,727,1436,-0.0344954,-0.0640908
-490,-412,-0.024292,0.0495605,0.0043975,0.00618932,-0.00507949,0.0104513,0.00013552,-0.872689,0.00692281,0.0103466,734,1436,-0.0242838,-0.0495236
-483,-412,-0.0263672,0.052124,0.00555183,0.00772601,-0.00590553,0.0126437,0.000634167,-0.876419,0.00822588,0.00722382,741,1436,-0.0263665,-0.0521691
-476,-412,-0.0198364,0.0748291,0.00688514,0.0108742,-0.00718215,0.0163336,0.0014257,-0.920837,0.0104463,0.011443,748,1436,-0.0198664,-0.0748623
-469,-412,-0.029541,0.0887451,0.00781644,0.014152,-0.00854645,0.0200989,0.00186957,-0.962875,0.0128216,0.0193339,755,1436,-0.0295166,-0.0887264
-462,-412,-0.0109863,-0.0263672,0.00774274,0.0171796,-0.00920986,0.0228094,0.00211299,-1.02213,0.0145532,0.0324029,762,1436,-0.0109648,0.0264034
-455,-412,2.82233,-2.76489,0,0,0,0,0,0,0,-1,769,1436,2.82234,2.76484
-448,-412,1.63007,-1.30469,0,0,0,0,0,0,0,-1,776,1436,1.63009,1.30469
-441,-412,0.810852,-0.761475,0,0,0,0,0,0,0,-1,783,1436,0.810822,0.761474
-434,-412,0.932129,-0.468506,-0.00921292,0.0223072,-0.00573155,0.023317,-0.0102228,-1.39639,0.01985,0.049378,790,1436,0.9321,0.468452
-427,-412,1.11542,-0.255371,-0.0193043,0.0209643,-0.00311478,0.0212038,-0.0195438,-1.49405,0.0235322,0.0448317,797,1436,1.11542,0.255337
-420,-412,-0.319641,0.124878,0,0,0,0,0,0,0,-1,804,1436,-0.319611,-0.124898
-413,-412,-0.763306,0.422241,0,0,0,0,0,0,0,-1,811,1436,-0.763309,-0.422221
-406,-412,-1.20703,0.719604,0,0,0,0,0,0,0,-1,818,1436,-1.20701,-0.719544
-399,-412,0.642517,0.0917969,0,0,0,0,0,0,0,-1,825,1436,0.642547,-0.0918455
-392,-412,0,0,0,0,0,0,0,0,0,-1,832,1436,0,0
-385,-412,0,0,0,0,0,0,0,0,0,-1,839,1436,0,0
-378,-412,0,0,0,0,0,0,0,0,0,-1,846,1436,0,0
-371,-412,0,0,0,0,0,0,0,0,0,-1,853,1436,0,0
-364,-412,0,0,0,0,0,0,0,0,0,-1,860,1436,0,0
-357,-412,0,0,0,0,0,0,0,0,0,-1,867,1436,0,0
-350,-412,0,0,0,0,0,0,0,0,0,-1,874,1436,0,0
-343,-412,0,0,0,0,0,0,0,0,0,-1,881,1436,0,0
-336,-412,0,0,0,0,0,0,0,0,0,-1,888,1436,0,0
-329,-412,0,0,0,0,0,0,0,0,0,-1,895,1436,0,0
-322,-412,0,0,0,0,0,0,0,0,0,-1,902,1436,0,0
-315,-412,0,0,0,0,0,0,0,0,0,-1,909,1436,0,0
-308,-412,0,0,0,0,0,0,0,0,0,-1,916,1436,0,0
-301,-412,0,0,0,0,0,0,0,0,0,-1,923,1436,0,0
-294,-412,0,0,0,0,0,0,0,0,0,-1,930,1436,0,0
-287,-412,0,0,0,0,0,0,0,0,0,-1,937,1436,0,0
-280,-412,0,0,0,0,0,0,0,0,0,-1,944,1436,0,0
-273,-412,0,0,0,0,0,0,0,0,0,-1,951,1436,0,0
-266,-412,0,0,0,0,0,0,0,0,0,-1,958,1436,0,0
-259,-412,0,0,0,0,0,0,0,0,0,-1,965,1436,0,0
-252,-412,0,0,0,0,0,0,0,0,0,-1,972,1436,0,0
-245,-412,0,0,0,0,0,0,0,0,0,-1,979,1436,0,0
-238,-412,0,0,0,0,0,0,0,0,0,-1,986,1436,0,0
-231,-412,0,0,0,0,0,0,0,0,0,-1,993,1436,0,0
-224,-412,0,0,0,0,0,0,0,0,0,-1,1000,1436,0,0
-217,-412,0,0,0,0,0,0,0,0,0,-1,1007,1436,0,0
-210,-412,0,0,0,0,0,0,0,0,0,-1,1014,1436,0,0
-203,-412,0,0,0,0,0,0,0,0,0,-1,1021,1436,0,0
-196,-412,0,0,0,0,0,0,0,0,0,-1,1028,1436,0,0
-189,-412,0,0,0,0,0,0,0,0,0,-1,1035,1436,0,0
-182,-412,0,0,0,0,0,0,0,0,0,-1,1042,1436,0,0
-175,-412,0,0,0,0,0,0,0,0,0,-1,1049,1436,0,0
-168,-412,0,0,0,0,0,0,0,0,0,-1,1056,1436,0,0
-161,-412,0,0,0,0,0,0,0,0,0,-1,1063,1436,0,0
-154,-412,0,0,0,0,0,0,0,0,0,-1,1070,1436,0,0
-147,-412,0,0,0,0,0,0,0,0,0,-1,1077,1436,0,0
-140,-412,0,0,0,0,0,0,0,0,0,-1,1084,1436,0,0
-133,-412,0,0,0,0,0,0,0,0,0,-1,1091,1436,0,0
-126,-412,0,0,0,0,0,0,0,0,0,-1,1098,1436,0,0
-119,-412,0,0,0,0,0,0,0,0,0,-1,1105,1436,0,0
-112,-412,0,0,0,0,0,0,0,0,0,-1,1112,1436,0,0
-105,-412,0,0,0,0,0,0,0,0,0,-1,1119,1436,0,0
-98,-412,0,0,0,0,0,0,0,0,0,-1,1126,1436,0,0
-91,-412,0,0,0,0,0,0,0,0,0,-1,1133,1436,0,0
-84,-412,0,0,0,0,0,0,0,0,0,-1,1140,1436,0,0
-77,-412,0,0,0,0,0,0,0,0,0,-1,1147,1436,0,0
-70,-412,0,0,0,0,0,0,0,0,0,-1,1154,1436,0,0
-63,-412,0,0,0,0,0,0,0,0,0,-1,1161,1436,0,0
-56,-412,0,0,0,0,0,0,0,0,0,-1,1168,1436,0,0
-49,-412,0,0,0,0,0,0,0,0,0,-1,1175,1436,0,0
-42,-412,0,0,0,0,0,0,0,0,0,-1,1182,1436,0,0
-35,-412,0,0,0,0,0,0,0,0,0,-1,1189,1436,0,0
-28,-412,0,0,0,0,0,0,0,0,0,-1,1196,1436,0,0
-21,-412,0,0,0,0,0,0,0,0,0,-1,1203,1436,0,0
-14,-412,0,0,0,0,0,0,0,0,0,-1,1210,1436,0,0
-7,-412,0,0,0,0,0,0,0,0,0,-1,1217,1436,0,0
0,-412,0,0,0,0,0,0,0,0,0,-1,1224,1436,0,0
7,-412,0,0,0,0,0,0,0,0,0,-1,1231,1436,0,0
14,-412,0,0,0,0,0,0,0,0,0,-1,1238,1436,0,0
21,-412,0,0,0,0,0,0,0,0,0,-1,1245,1436,0,0
28,-412,0,0,0,0,0,0,0,0,0,-1,1252,1436,0,0
35,-412,0,0,0,0,0,0,0,0,0,-1,1259,1436,0,0
42,-412,0,0,0,0,0,0,0,0,0,-1,1266,1436,0,0
49,-412,0,0,0,0,0,0,0,0,0,-1,1273,1436,0,0
56,-412,0,0,0,0,0,0,0,0,0,-1,1280,1436,0,0
63,-412,0,0,0,0,0,0,0,0,0,-1,1287,1436,0,0
70,-412,0,0,0,0,0,0,0,0,0,-1,1294,1436,0,0
77,-412,0,0,0,0,0,0,0,0,0,-1,1301,1436,0,0
84,-412,0,0,0,0,0,0,0,0,0,-1,1308,1436,0,0
91,-412,0,0,0,0,0,0,0,0,0,-1,1315,1436,0,0
98,-412,0,0,0,0,0,0,0,0,0,-1,1322,1436,0,0
105,-412,0,0,0,0,0,0,0,0,0,-1,1329,1436,0,0
112,-412,0,0,0,0,0,0,0,0,0,-1,1336,1436,0,0
119,-412,0,0,0,0,0,0,0,0,0,-1,1343,1436,0,0
126,-412,0,0,0,0,0,0,0,0,0,-1,1350,1436,0,0
133,-412,0,0,0,0,0,0,0,0,0,-1,1357,1436,0,0
140,-412,0,0,0,0,0,0,0,0,0,-1,1364,1436,0,0
147,-412,0,0,0,0,0,0,0,0,0,-1,1371,1436,0,0
154,-412,0,0,0,0,0,0,0,0,0,-1,1378,1436,0,0
161,-412,0,0,0,0,0,0,0,0,0,-1,1385,1436,0,0
168,-412,0,0,0,0,0,0,0,0,0,-1,1392,1436,0,0
175,-412,0,0,0,0,0,0,0,0,0,-1,1399,1436,0,0
182,-412,0,0,0,0,0,0,0,0,0,-1,1406,1436,0,0
189,-412,0,0,0,0,0,0,0,0,0,-1,1413,1436,0,0
196,-412,0,0,0,0,0,0,0,0,0,-1,1420,1436,0,0
203,-412,0,0,0,0,0,0,0,0,0,-1,1427,1436,0,0
210,-412,0,0,0,0,0,0,0,0,0,-1,1434,1436,0,0
217,-412,0,0,0,0,0,0,0,0,0,-1,1441,1436,0,0
224,-412,0,0,0,0,0,0,0,0,0,-1,1448,1436,0,0
231,-412,0,0,0,0,0,0,0,0,0,-1,1455,1436,0,0
238,-412,0,0,0,0,0,0,0,0,0,-1,1462,1436,0,0
245,-412,0,0,0,0,0,0,0,0,0,-1,1469,1436,0,0
252,-412,0,0,0,0,0,0,0,0,0,-1,1476,1436,0,0
259,-412,0,0,0,0,0,0,0,0,0,-1,1483,1436,0,0
266,-412,0,0,0,0,0,0,0,0,0,-1,1490,1436,0,0
273,-412,0,0,0,0,0,0,0,0,0,-1,1497,1436,0,0
280,-412,0,0,0,0,0,0,0,0,0,-1,1504,1436,0,0
287,-412,0,0,0,0,0,0,0,0,0,-1,1511,1436,0,0
294,-412,0,0,0,0,0,0,0,0,0,-1,1518,1436,0,0
301,-412,0,0,0,0,0,0,0,0,0,-1,1525,1436,0,0
308,-412,0,0,0,0,0,0,0,0,0,-1,1532,1436,0,0
315,-412,0,0,0,0,0,0,0,0,0,-1,1539,1436,0,0
322,-412,0,0,0,0,0,0,0,0,0,-1,1546,1436,0,0
329,-412,0,0,0,0,0,0,0,0,0,-1,1553,1436,0,0
336,-412,0,0,0,0,0,0,0,0,0,-1,1560,1436,0,0
343,-412,0,0,0,0,0,0,0,0,0,-1,1567,1436,0,0
350,-412,0,0,0,0,0,0,0,0,0,-1,1574,1436,0,0
357,-412,0,0,0,0,0,0,0,0,0,-1,1581,1436,0,0
364,-412,0,0,0,0,0,0,0,0,0,-1,1588,1436,0,0
371,-412,0,0,0,0,0,0,0,0,0,-1,1595,1436,0,0
378,-412,0,0,0,0,0,0,0,0,0,-1,1602,1436,0,0
385,-412,0,0,0,0,0,0,0,0,0,-1,1609,1436,0,0
392,-412,0,0,0,0,0,0,0,0,0,-1,1616,1436,0,0
399,-412,0,0,0,0,0,0,0,0,0,-1,1623,1436,0,0
406,-412,0,0,0,0,0,0,0,0,0,-1,1630,1436,0,0
413,-412,0,0,0,0,0,0,0,0,0,-1,1637,1436,0,0
420,-412,0,0,0,0,0,0,0,0,0,-1,1644,1436,0,0
427,-412,0,0,0,0,0,0,0,0,0,-1,1651,1436,0,0
434,-412,0,0,0,0,0,0,0,0,0,-1,1658,1436,0,0
441,-412,0,0,0,0,0,0,0,0,0,-1,1665,1436,0,0
448,-412,0,0,0,0,0,0,0,0,0,-1,1672,1436,0,0
455,-412,0,0,0,0,0,0,0,0,0,-1,1679,1436,0,0
462,-412,0,0,0,0,0,0,0,0,0,-1,1686,1436,0,0
469,-412,0,0,0,0,0,0,0,0,0,-1,1693,1436,0,0
476,-412,0,0,0,0,0,0,0,0,0,-1,1700,1436,0,0
483,-412,0,0,0,0,0,0,0,0,0,-1,1707,1436,0,0
490,-412,0,0,0,0,0,0,0,0,0,-1,1714,1436,0,0
497,-412,0,0,0,0,0,0,0,0,0,-1,1721,1436,0,0
504,-412,0,0,0,0,0,0,0,0,0,-1,1728,1436,0,0
511,-412,0,0,0,0,0,0,0,0,0,-1,1735,1436,0,0
518,-412,0.917725,-0.819336,0,0,0,0,0,0,0,-1,1742,1436,0.917683,0.819387
525,-412,0.297729,-0.988647,0,0,0,0,0,0,0,-1,1749,1436,0.297721,0.988686
532,-412,0.872681,-1.51111,0,0,0,0,0,0,0,-1,1756,1436,0.872667,1.51112
539,-412,0.921021,-0.193848,0,0,0,0,0,0,0,-1,1763,1436,0.920973,0.193862
546,-412,1.15906,0.292358,0,0,0,0,0,0,0,-1,1770,1436,1.15901,-0.292414
553,-412,1.21533,-0.0335693,-0.00306658,-0.0131982,0.00878582,0.00200927,-0.018274,0.523885,0.0129047,0.0483933,1777,1436,1.21534,0.0335139
560,-412,0.941895,-0.0375977,-0.003854,-0.0114439,0.00754194,0.000793941,-0.0160919,0.552304,0.0110021,0.0491081,1784,1436,0.941855,0.0375446
567,-412,0.780518,-0.329834,-0.003954,-0.00969663,0.00629979,9.797e-05,-0.0137486,0.571573,0.00919856,0.0433426,1791,1436,0.780484,0.329823
574,-412,-0.307495,-0.379883,0,0,0,0,0,0,0,-1,1798,1436,-0.307506,0.379883
581,-412,0.171509,-0.151245,0,0,0,0,0,0,0,-1,1805,1436,0.171506,0.151188
588,-412,0.0123291,0.0948486,-0.00167464,-0.00448629,0.00285527,0.000102128,-0.00626305,0.556639,0.00420983,0.0429763,1812,1436,0.0123237,-0.0949095
595,-412,0.024292,0.0982666,-0.00187326,-0.00312642,0.00177311,-0.000619276,-0.0043804,0.615557,0.00273729,0.041163,1819,1436,0.0243009,-0.098279
602,-412,-0.0235596,0.0975342,-0.00113906,-0.00213608,0.0012611,-0.000281519,-0.00299363,0.597175,0.00190884,0.0221619,1826,1436,-0.0235265,-0.0975768
609,-412,-0.0484619,0.0841064,-0.000170292,-0.00191314,0.000848225,0.00017437,-0.00225781,0.385954,0.00156657,0.00808914,1833,1436,-0.0485149,-0.0841431
616,-412,-0.0551758,0.0716553,0.000277756,-0.00129756,0.000342647,0.000349058,-0.00136886,0.205163,0.00104848,0.00713396,1840,1436,-0.055175,-0.0716164
623,-412,-0.0577393,0.0650635,0.000408967,-0.000869449,0.000184497,0.00043506,-0.000895542,0.140499,0.000783408,0.00864911,1847,1436,-0.0577686,-0.0650769
630,-412,-0.0460205,0.0499268,0.000559114,-0.000542344,0.000107873,0.000569579,-0.000552809,0.0967125,0.000648035,0.0102939,1854,1436,-0.0459641,-0.0499609
637,-412,-0.0483398,0.0551758,0.000882691,4.71862e-05,0.000148596,0.000908333,2.1545e-05,0.170874,0.000598503,0.0118499,1861,1436,-0.0483046,-0.0552228
644,-412,-0.0473633,0.0528564,0.0011436,0.000243264,0.000207692,0.0011892,0.000197663,0.216132,0.000735817,0.0138479,1868,1436,-0.0473544,-0.0528782
651,-412,0.00817871,-0.0045166,0.00110189,0.000603365,0.000252759,0.00120762,0.000497636,0.396182,0.000700802,0.0245927,1875,1436,0.00819596,0.00449571
658,-412,-0.00976563,0.0334473,0.000928982,0.00171126,3.2254e-05,0.00171258,0.000927655,1.52966,0.000989905,0.0163229,1882,1436,-0.00973894,-0.0334668
665,-412,-0.027832,0.0512695,0.00129394,0.00284707,0.000185096,0.00286883,0.00127218,1.4538,0.00165985,0.0203292,1889,1436,-0.0277982,-0.0512957
672,-412,-0.0498047,0.043335,0.00178861,0.00391417,0.000429407,0.00399764,0.00170514,1.3788,0.00231633,0.0240531,1896,1436,-0.0497542,-0.0433075
679,-412,-0.0559082,0.0180664,0.00234453,0.00493196,0.000645963,0.00508426,0.00219223,1.33925,0.00294465,0.027227,1903,1436,-0.0559509,-0.0181007
686,-412,-0.0228271,0.162109,0.00297194,0.00670467,0.000674877,0.00682294,0.00285367,1.39731,0.00395674,0.0397964,1910,1436,-0.0227689,-0.162122
693,-412,0.280273,0.455322,0.0036737,0.00862804,0.00083268,0.00876424,0.00353749,1.40866,0.00509127,0.0441246,1917,1436,0.280309,-0.455264
700,-412,0.483032,0.726563,0.00452041,0.0108972,0.00097434,0.0110428,0.00437486,1.42251,0.0064212,0.0465661,1924,1436,0.483066,-0.726554
707,-412,-0.592651,-1.10291,0.00562646,0.0134645,0.00110276,0.0136167,0.00547426,1.43365,0.00791174,0.0461694,1931,1436,-0.592704,1.10286
714,-412,-0.235474,-0.569336,0,0,0,0,0,0,0,-1,1938,1436,-0.235476,0.569369
721,-412,0,0,0,0,0,0,0,0,0,-1,1945,1436,0,0
728,-412,0,0,0,0,0,0,0,0,0,-1,1952,1436,0,0
735,-412,0,0,0,0,0,0,0,0,0,-1,1959,1436,0,0
742,-412,0,0,0,0,0,0,0,0,0,-1,1966,1436,0,0
749,-412,0,0,0,0,0,0,0,0,0,-1,1973,1436,0,0
756,-412,0,0,0,0,0,0,0,0,0,-1,1980,1436,0,0
763,-412,0,0,0,0,0,0,0,0,0,-1,1987,1436,0,0
770,-412,0,0,0,0,0,0,0,0,0,-1,1994,1436,0,0
777,-412,0,0,0,0,0,0,0,0,0,-1,2001,1436,0,0
784,-412,0,0,0,0,0,0,0,0,0,-1,2008,1436,0,0
791,-412,0,0,0,0,0,0,0,0,0,-1,2015,1436,0,0
798,-412,0,0,0,0,0,0,0,0,0,-1,2022,1436,0,0
805,-412,0,0,0,0,0,0,0,0,0,-1,2029,1436,0,0
812,-412,0,0,0,0,0,0,0,0,0,-1,2036,1436,0,0
-700,-419,0,0,0,0,0,0,0,0,0,-1,524,1443,0,0
-693,-419,0,0,0,0,0,0,0,0,0,-1,531,1443,0,0
-686,-419,0,0,0,0,0,0,0,0,0,-1,538,1443,0,0
-679,-419,0,0,0,0,0,0,0,0,0,-1,545,1443,0,0
-672,-419,0,0,0,0,0,0,0,0,0,-1,552,1443,0,0
-665,-419,0,0,0,0,0,0,0,0,0,-1,559,1443,0,0
-658,-419,0,0,0,0,0,0,0,0,0,-1,566,1443,0,0
-651,-419,0,0,0,0,0,0,0,0,0,-1,573,1443,0,0
-644,-419,0,0,0,0,0,0,0,0,0,-1,580,1443,0,0
-637,-419,0,0,0,0,0,0,0,0,0,-1,587,1443,0,0
-630,-419,0,0,0,0,0,0,0,0,0,-1,594,1443,0,0
-623,-419,0,0,0,0,0,0,0,0,0,-1,601,1443,0,0
-616,-419,0,0,0,0,0,0,0,0,0,-1,608,1443,0,0
-609,-419,0,0,0,0,0,0,0,0,0,-1,615,1443,0,0
-602,-419,0,0,0,0,0,0,0,0,0,-1,622,1443,0,0
-595,-419,-1.92303,0.932373,0,0,0,0,0,0,0,-1,629,1443,-1.92306,-0.932392
-588,-419,-1.35718,0.612183,0.000148142,0.0317719,-0.0263887,0.0467232,-0.0148032,-1.05531,0.0370816,0.0465215,636,1443,-1.35719,-0.61218
-581,-419,-0.803406,0.13501,0.00272237,0.0284823,-0.0190619,0.0386078,-0.00740312,-1.08251,0.0285283,0.0482228,643,1443,-0.80339,-0.135068
-574,-419,-0.195923,-0.514893,0,0,0,0,0,0,0,-1,650,1443,-0.195907,0.51485
-567,-419,-0.145691,-0.110596,0,0,0,0,0,0,0,-1,657,1443,-0.145689,0.11057
-560,-419,0.161865,-0.823242,0.00403352,0.0171021,-0.00430228,0.0183913,0.00274434,-1.27966,0.0114562,0.037747,664,1443,0.161872,0.82323
-553,-419,-0.106628,-0.180664,0.00403206,0.0134971,-0.00178725,0.0138233,0.00370583,-1.39025,0.00826211,0.0382986,671,1443,-0.10661,0.180674
-546,-419,-0.0220337,0.0570068,0.0038821,0.0102339,-0.000108686,0.0102358,0.00388024,-1.55369,0.00596697,0.0326123,678,1443,-0.0220307,-0.0570236
-539,-419,-0.0470581,0.0537109,0.00299741,0.00726017,0.000661214,0.00736038,0.0028972,1.42039,0.00428146,0.0206821,685,1443,-0.0470398,-0.0537308
-532,-419,-0.0290527,0.0373535,0.00194968,0.00444293,0.0013024,0.00499917,0.00139344,1.16716,0.00297899,0.0120605,692,1443,-0.0290756,-0.0373468
-525,-419,-0.0344238,0.0537109,0.00086279,0.00259519,0.00130401,0.00329448,0.000163502,1.07856,0.0021439,0.0118138,699,1443,-0.0344017,-0.0537692
-518,-419,-0.00360107,0.06604,0.000514763,0.00166012,0.000881609,0.00213873,3.61599e-05,1.07344,0.00141392,0.0157099,706,1443,-0.00358848,-0.0660869
-511,-419,-0.0213013,0.0682373,0.000856992,0.00102902,0.000204304,0.00116468,0.000721335,0.984644,0.000678784,0.0178558,713,1443,-0.0213076,-0.0682674
-504,-419,-0.046814,0.0690918,0.00236772,0.00158575,-0.00174652,0.00376648,0.000186988,-0.67528,0.00245104,0.0172998,720,1443,-0.0468018,-0.0690782
-497,-419,-0.0390015,0.0578613,0.00347775,0.00365659,-0.00342577,0.00699411,0.000140229,-0.798446,0.00461671,0.0126329,727,1443,-0.0389853,-0.0578703
-490,-419,-0.0280762,0.0512695,0.00433166,0.00499929,-0.00437682,0.00905501,0.000275943,-0.823459,0.00594682,0.0103172,734,1443,-0.0280689,-0.0512644
-483,-419,-0.0305786,0.0472412,0.00555657,0.00604071,-0.00494806,0.0107526,0.000844661,-0.80984,0.0069041,0.00865839,741,1443,-0.0305484,-0.0472336
-476,-419,-0.0238037,0.0543213,0.00694079,0.00873517,-0.00595024,0.0138555,0.00182048,-0.860226,0.00869393,0.0089928,748,1443,-0.0237858,-0.0542739
-469,-419,-0.0222168,0.0603027,0.00789494,0.0113722,-0.00695333,0.016801,0.00246619,-0.907909,0.0104758,0.0126025,755,1443,-0.0222259,-0.0603269
-462,-419,-0.0241699,0.0377197,0.00790129,0.0137349,-0.0072792,0.01866,0.00297627,-0.975956,0.0115761,0.0208028,762,1443,-0.0241768,-0.0376653
-455,-419,0.698792,-0.365356,0,0,0,0,0,0,0,-1,769,1443,0.698762,0.365399
-448,-419,0.713379,-0.595947,0.00430262,0.0170972,-0.00666964,0.0199416,0.00145819,-1.16768,0.012836,0.046761,776,1443,0.713356,0.596002
-441,-419,0.717834,-0.568481,-0.000349293,0.0179278,-0.00563393,0.019525,-0.00194639,-1.29456,0.0137116,0.0441955,783,1443,0.717806,0.568455
-434,-419,0.727844,-0.21582,-0.00732866,0.0179042,-0.0038958,0.018492,-0.00791646,-1.42105,0.0156491,0.0452692,790,1443,0.72782,0.215863
-427,-419,0.69751,-0.0718994,-0.0161562,0.0171316,-0.00184271,0.0172333,-0.0162579,-1.51566,0.0193389,0.0455391,797,1443,0.697502,0.071909
-420,-419,0.0133057,0.0285645,0,0,0,0,0,0,0,-1,804,1443,0.0132999,-0.0286074
-413,-419,-0.447571,0.287109,-0.0417396,0.0102248,0.00347215,0.0104558,-0.0419706,1.50437,0.0320395,0.0458846,811,1443,-0.447586,-0.28705
-406,-419,-0.920471,0.464966,-0.0578405,0.00446349,0.00579955,0.00499874,-0.0583757,1.47877,0.0406859,0.0436217,818,1443,-0.920466,-0.464985
-399,-419,-1.36078,0.69873,0,0,0,0,0,0,0,-1,825,1443,-1.36076,-0.698695
-392,-419,0,0,0,0,0,0,0,0,0,-1,832,1443,0,0
-385,-419,0,0,0,0,0,0,0,0,0,-1,839,1443,0,0
-378,-419,0,0,0,0,0,0,0,0,0,-1,846,1443,0,0
-371,-419,0,0,0,0,0,0,0,0,0,-1,853,1443,0,0
-364,-419,0,0,0,0,0,0,0,0,0,-1,860,1443,0,0
-357,-419,0,0,0,0,0,0,0,0,0,-1,867,1443,0,0
-350,-419,0,0,0,0,0,0,0,0,0,-1,874,1443,0,0
-343,-419,0,0,0,0,0,0,0,0,0,-1,881,1443,0,0
-336,-419,0,0,0,0,0,0,0,0,0,-1,888,1443,0,0
-329,-419,0,0,0,0,0,0,0,0,0,-1,895,1443,0,0
-322,-419,0,0,0,0,0,0,0,0,0,-1,902,1443,0,0
-315,-419,0,0,0,0,0,0,0,0,0,-1,909,1443,0,0
-308,-419,0,0,0,0,0,0,0,0,0,-1,916,1443,0,0
-301,-419,0,0,0,0,0,0,0,0,0,-1,923,1443,0,0
-294,-419,0,0,0,0,0,0,0,0,0,-1,930,1443,0,0
-287,-419,0,0,0,0,0,0,0,0,0,-1,937,1443,0,0
-280,-419,0,0,0,0,0,0,0,0,0,-1,944,1443,0,0
-273,-419,0,0,0,0,0,0,0,0,0,-1,951,1443,0,0
-266,-419,0,0,0,0,0,0,0,0,0,-1,958,1443,0,0
-259,-419,0,0,0,0,0,0,0,0,0,-1,965,1443,0,0
-252,-419,0,0,0,0,0,0,0,0,0,-1,972,1443,0,0
-245,-419,0,0,0,0,0,0,0,0,0,-1,979,1443,0,0
-238,-419,0,0,0,0,0,0,0,0,0,-1,986,1443,0,0
-231,-419,0,0,0,0,0,0,0,0,0,-1,993,1443,0,0
-224,-419,0,0,0,0,0,0,0,0,0,-1,1000,1443,0,0
-217,-419,0,0,0,0,0,0,0,0,0,-1,1007,1443,0,0
-210,-419,0,0,0,0,0,0,0,0,0,-1,1014,1443,0,0
-203,-419,0,0,0,0,0,0,0,0,0,-1,1021,1443,0,0
-196,-419,0,0,0,0,0,0,0,0,0,-1,1028,1443,0,0
-189,-419,0,0,0,0,0,0,0,0,0,-1,1035,1443,0,0
-182,-419,0,0,0,0,0,0,0,0,0,-1,1042,1443,0,0
-175,-419,0,0,0,0,0,0,0,0,0,-1,1049,1443,0,0
-168,-419,0,0,0,0,0,0,0,0,0,-1,1056,1443,0,0
-161,-419,0,0,0,0,0,0,0,0,0,-1,1063,1443,0,0
-154,-419,0,0,0,0,0,0,0,0,0,-1,1070,1443,0,0
-147,-419,0,0,0,0,0,0,0,0,0,-1,1077,1443,0,0
-140,-419,0,0,0,0,0,0,0,0,0,-1,1084,1443,0,0
-133,-419,0,0,0,0,0,0,0,0,0,-1,1091,1443,0,0
-126,-419,0,0,0,0,0,0,0,0,0,-1,1098,1443,0,0
-119,-419,0,0,0,0,0,0,0,0,0,-1,1105,1443,0,0
-112,-419,0,0,0,0,0,0,0,0,0,-1,1112,1443,0,0
-105,-419,0,0,0,0,0,0,0,0,0,-1,1119,1443,0,0
-98,-419,0,0,0,0,0,0,0,0,0,-1,1126,1443,0,0
-91,-419,0,0,0,0,0,0,0,0,0,-1,1133,1443,0,0
-84,-419,0,0,0,0,0,0,0,0,0,-1,1140,1443,0,0
-77,-419,0,0,0,0,0,0,0,0,0,-1,1147,1443,0,0
-70,-419,0,0,0,0,0,0,0,0,0,-1,1154,1443,0,0
-63,-419,0,0,0,0,0,0,0,0,0,-1,1161,1443,0,0
-56,-419,0,0,0,0,0,0,0,0,0,-1,1168,1443,0,0
-49,-419,0,0,0,0,0,0,0,0,0,-1,1175,1443,0,0
-42,-419,0,0,0,0,0,0,0,0,0,-1,1182,1443,0,0
-35,-419,0,0,0,0,0,0,0,0,0,-1,1189,1443,0,0
-28,-419,0,0,0,0,0,0,0,0,0,-1,1196,1443,0,0
-21,-419,0,0,0,0,0,0,0,0,0,-1,1203,1443,0,0
-14,-419,0,0,0,0,0,0,0,0,0,-1,1210,1443,0,0
-7,-419,0,0,0,0,0,0,0,0,0,-1,1217,1443,0,0
0,-419,0,0,0,0,0,0,0,0,0,-1,1224,1443,0,0
7,-419,0,0,0,0,0,0,0,0,0,-1,1231,1443,0,0
14,-419,0,0,0,0,0,0,0,0,0,-1,1238,1443,0,0
21,-419,0,0,0,0,0,0,0,0,0,-1,1245,1443,0,0
28,-419,0,0,0,0,0,0,0,0,0,-1,1252,1443,0,0
35,-419,0,0,0,0,0,0,0,0,0,-1,1259,1443,0,0
42,-419,0,0,0,0,0,0,0,0,0,-1,1266,1443,0,0
49,-419,0,0,0,0,0,0,0,0,0,-1,1273,1443,0,0
56,-419,0,0,0,0,0,0,0,0,0,-1,1280,1443,0,0
63,-419,0,0,0,0,0,0,0,0,0,-1,1287,1443,0,0
70,-419,0,0,0,0,0,0,0,0,0,-1,1294,1443,0,0
77,-419,0,0,0,0,0,0,0,0,0,-1,1301,1443,0,0
84,-419,0,0,0,0,0,0,0,0,0,-1,1308,1443,0,0
91,-419,0,0,0,0,0,0,0,0,0,-1,1315,1443,0,0
98,-419,0,0,0,0,0,0,0,0,0,-1,1322,1443,0,0
105,-419,0,0,0,0,0,0,0,0,0,-1,1329,1443,0,0
112,-419,0,0,0,0,0,0,0,0,0,-1,1336,1443,0,0
119,-419,0,0,0,0,0,0,0,0,0,-1,1343,1443,0,0
126,-419,0,0,0,0,0,0,0,0,0,-1,1350,1443,0,0
133,-419,0,0,0,0,0,0,0,0,0,-1,1357,1443,0,0
140,-419,0,0,0,0,0,0,0,0,0,-1,1364,1443,0,0
147,-419,0,0,0,0,0,0,0,0,0,-1,1371,1443,0,0
154,-419,0,0,0,0,0,0,0,0,0,-1,1378,1443,0,0
161,-419,0,0,0,0,0,0,0,0,0,-1,1385,1443,0,0
168,-419,0,0,0,0,0,0,0,0,0,-1,1392,1443,0,0
175,-419,0,0,0,0,0,0,0,0,0,-1,1399,1443,0,0
182,-419,0,0,0,0,0,0,0,0,0,-1,1406,1443,0,0
189,-419,0,0,0,0,0,0,0,0,0,-1,1413,1443,0,0
196,-419,0,0,0,0,0,0,0,0,0,-1,1420,1443,0,0
203,-419,0,0,0,0,0,0,0,0,0,-1,1427,1443,0,0
210,-419,0,0,0,0,0,0,0,0,0,-1,1434,1443,0,0
217,-419,0,0,0,0,0,0,0,0,0,-1,1441,1443,0,0
224,-419,0,0,0,0,0,0,0,0,0,-1,1448,1443,0,0
231,-419,0,0,0,0,0,0,0,0,0,-1,1455,1443,0,0
238,-419,0,0,0,0,0,0,0,0,0,-1,1462,1443,0,0
245,-419,0,0,0,0,0,0,0,0,0,-1,1469,1443,0,0
252,-419,0,0,0,0,0,0,0,0,0,-1,1476,1443,0,0
259,-419,0,0,0,0,0,0,0,0,0,-1,1483,1443,0,0
266,-419,0,0,0,0,0,0,0,0,0,-1,1490,1443,0,0
273,-419,0,0,0,0,0,0,0,0,0,-1,1497,1443,0,0
280,-419,0,0,0,0,0,0,0,0,0,-1,1504,1443,0,0
287,-419,0,0,0,0,0,0,0,0,0,-1,1511,1443,0,0
294,-419,0,0,0,0,0,0,0,0,0,-1,1518,1443,0,0
301,-419,0,0,0,0,0,0,0,0,0,-1,1525,1443,0,0
308,-419,0,0,0,0,0,0,0,0,0,-1,1532,1443,0,0
315,-419,0,0,0,0,0,0,0,0,0,-1,1539,1443,0,0
322,-419,0,0,0,0,0,0,0,0,0,-1,1546,1443,0,0
329,-419,0,0,0,0,0,0,0,0,0,-1,1553,1443,0,0
336,-419,0,0,0,0,0,0,0,0,0,-1,1560,1443,0,0
343,-419,0,0,0,0,0,0,0,0,0,-1,1567,1443,0,0
350,-419,0,0,0,0,0,0,0,0,0,-1,1574,1443,0,0
357,-419,0,0,0,0,0,0,0,0,0,-1,1581,1443,0,0
364,-419,0,0,0,0,0,0,0,0,0,-1,1588,1443,0,0
371,-419,0,0,0,0,0,0,0,0,0,-1,1595,1443,0,0
378,-419,0,0,0,0,0,0,0,0,0,-1,1602,1443,0,0
385,-419,0,0,0,0,0,0,0,0,0,-1,1609,1443,0,0
392,-419,0,0,0,0,0,0,0,0,0,-1,1616,1443,0,0
399,-419,0,0,0,0,0,0,0,0,0,-1,1623,1443,0,0
406,-419,0,0,0,0,0,0,0,0,0,-1,1630,1443,0,0
413,-419,0,0,0,0,0,0,0,0,0,-1,1637,1443,0,0
420,-419,0,0,0,0,0,0,0,0,0,-1,1644,1443,0,0
427,-419,0,0,0,0,0,0,0,0,0,-1,1651,1443,0,0
434,-419,0,0,0,0,0,0,0,0,0,-1,1658,1443,0,0
441,-419,0,0,0,0,0,0,0,0,0,-1,1665,1443,0,0
448,-419,0,0,0,0,0,0,0,0,0,-1,1672,1443,0,0
455,-419,0,0,0,0,0,0,0,0,0,-1,1679,1443,0,0
462,-419,0,0,0,0,0,0,0,0,0,-1,1686,1443,0,0
469,-419,0,0,0,0,0,0,0,0,0,-1,1693,1443,0,0
476,-419,0,0,0,0,0,0,0,0,0,-1,1700,1443,0,0
483,-419,0,0,0,0,0,0,0,0,0,-1,1707,1443,0,0
490,-419,0,0,0,0,0,0,0,0,0,-1,1714,1443,0,0
497,-419,0,0,0,0,0,0,0,0,0,-1,1721,1443,0,0
504,-419,0,0,0,0,0,0,0,0,0,-1,1728,1443,0,0
511,-419,0.544922,-0.525757,0.00358677,-0.0159865,0.0126551,0.00979796,-0.0221977,0.456264,0.0189295,0.0452249,1735,1443,0.544969,0.52575
518,-419,0.143799,-0.762207,0.00195123,-0.0178077,0.0121861,0.00775953,-0.023616,0.444779,0.01887,0.0452643,1742,1443,0.143776,0.76222
525,-419,-0.155884,-0.993042,8.70389e-05,-0.0179167,0.0115632,0.00573923,-0.0235689,0.454654,0.0179345,0.048453,1749,1443,-0.155906,0.992981
532,-419,-0.47229,-1.19128,0,0,0,0,0,0,0,-1,1756,1443,-0.472343,1.19123
539,-419,-0.446899,-0.518066,-0.00250426,-0.0158837,0.0102858,0.00307591,-0.0214639,0.497076,0.015437,0.0448998,1763,1443,-0.446915,0.518076
546,-419,1.1394,-0.584839,0,0,0,0,0,0,0,-1,1770,1443,1.13942,0.584838
553,-419,1.08301,-0.319092,-0.00344482,-0.0122508,0.00888355,0.00206703,-0.0177626,0.555325,0.0125874,0.0466936,1777,1443,1.08297,0.319109
560,-419,-0.42981,0.332764,-0.00398147,-0.0106671,0.00780844,0.00116961,-0.0158182,0.583151,0.0109561,0.0442971,1784,1443,-0.429866,-0.332744
567,-419,-0.290649,0.00891113,-0.00393388,-0.00907824,0.00668432,0.000656084,-0.0136682,0.601727,0.00933852,0.0430644,1791,1443,-0.290632,-0.00888988
574,-419,-0.318481,-0.184814,-0.00319495,-0.00697774,0.00578401,0.000999064,-0.0111718,0.627376,0.00780221,0.0411351,1798,1443,-0.318479,0.184856
581,-419,-0.247437,-0.147461,-0.0020045,-0.00550574,0.00471633,0.00127563,-0.00878587,0.607688,0.00632548,0.0390149,1805,1443,-0.247462,0.147411
588,-419,-0.0423584,0.034668,-0.00134165,-0.00414708,0.00332578,0.000865124,-0.00635385,0.585832,0.00455177,0.0372777,1812,1443,-0.0424124,-0.0347044
595,-419,-0.0526123,0.0671387,-0.00166522,-0.00284775,0.00215435,-2.24789e-05,-0.0044905,0.65147,0.0029862,0.0301807,1819,1443,-0.0526551,-0.0671629
602,-419,-0.0563965,0.0822754,-0.00107493,-0.00186885,0.00153408,0.000112712,-0.00305649,0.658795,0.00207625,0.013516,1826,1443,-0.0563818,-0.0823021
609,-419,-0.0527344,0.0793457,-0.000192985,-0.0016022,0.00100122,0.000326706,-0.00212189,0.478778,0.00153513,0.0102018,1833,1443,-0.0527719,-0.0793686
616,-419,-0.057251,0.0891113,0.000220887,-0.000972385,0.000384063,0.000333814,-0.00108531,0.285972,0.00085677,0.0109709,1840,1443,-0.0572061,-0.0891377
623,-419,-0.0457764,0.0782471,0.000311566,-0.000562923,0.000136775,0.000332459,-0.000583817,0.151585,0.000535606,0.00886154,1847,1443,-0.045749,-0.0782976
630,-419,-0.0286865,0.067749,0.000385179,-0.000207764,-3.96343e-05,0.000387816,-0.000210401,-0.0664494,0.000350408,0.0109583,1854,1443,-0.0287381,-0.0677924
637,-419,-0.0427246,0.0562744,0.000664904,0.000440871,-8.09478e-05,0.000691091,0.000414684,-0.31288,0.000401655,0.0116758,1861,1443,-0.0427549,-0.0563221
644,-419,-0.0443115,0.079834,0.00101737,0.000687507,-5.55864e-05,0.00102649,0.000678392,-0.162534,0.000602784,0.010793,1868,1443,-0.0442916,-0.0798421
651,-419,-0.0332031,0.0864258,0.00110554,0.001144,-1.36337e-08,0.001144,0.00110554,-1.57044,0.000750176,0.0107994,1875,1443,-0.0332449,-0.0864501
658,-419,-0.0509033,0.036499,0.00102085,0.00233367,-0.000247028,0.00237861,0.000975904,-1.39083,0.00138064,0.012241,1882,1443,-0.0508487,-0.0364618
665,-419,-0.060791,0.0415039,0.00145081,0.00362823,-8.42537e-05,0.00363149,0.00144756,-1.53218,0.00211096,0.018158,1889,1443,-0.0608245,-0.0414554
672,-419,-0.0579834,0.034668,0.00200204,0.00493194,0.000198357,0.00494531,0.00198867,1.5035,0.00287335,0.0206218,1896,1443,-0.0579324,-0.0346195
679,-419,-0.0437012,0.0506592,0.00260434,0.00624751,0.000475954,0.00630866,0.00254318,1.44301,0.00366502,0.0319625,1903,1443,-0.0437562,-0.0506414
686,-419,-0.0594482,0.174194,0.00326855,0.00835619,0.000636578,0.00843463,0.00319011,1.44819,0.00491765,0.0443292,1910,1443,-0.0594408,-0.174222
693,-419,0.248535,0.444946,0.00399189,0.0107172,0.00094771,0.0108482,0.0038609,1.43344,0.00634935,0.0446569,1917,1443,0.248502,-0.444891
700,-419,0.538452,0.822388,0.00484313,0.0134616,0.00130236,0.0136541,0.00465063,1.42405,0.00801562,0.0479403,1924,1443,0.538484,-0.822421
707,-419,-0.694336,-1.51013,0,0,0,0,0,0,0,-1,1931,1443,-0.69435,1.51013
714,-419,2.2135,3.23145,0,0,0,0,0,0,0,-1,1938,1443,2.21347,-3.23143
721,-419,0,0,0,0,0,0,0,0,0,-1,1945,1443,0,0
728,-419,0,0,0,0,0,0,0,0,0,-1,1952,1443,0,0
735,-419,0,0,0,0,0,0,0,0,0,-1,1959,1443,0,0
742,-419,0,0,0,0,0,0,0,0,0,-1,1966,1443,0,0
749,-419,0,0,0,0,0,0,0,0,0,-1,1973,1443,0,0
756,-419,0,0,0,0,0,0,0,0,0,-1,1980,1443,0,0
763,-419,0,0,0,0,0,0,0,0,0,-1,1987,1443,0,0
770,-419,0,0,0,0,0,0,0,0,0,-1,1994,1443,0,0
777,-419,0,0,0,0,0,0,0,0,0,-1,2001,1443,0,0
784,-419,0,0,0,0,0,0,0,0,0,-1,2008,1443,0,0
791,-419,0,0,0,0,0,0,0,0,0,-1,2015,1443,0,0
798,-419,0,0,0,0,0,0,0,0,0,-1,2022,1443,0,0
805,-419,0,0,0,0,0,0,0,0,0,-1,2029,1443,0,0
812,-419,0,0,0,0,0,0,0,0,0,-1,2036,1443,0,0
-700,-426,0,0,0,0,0,0,0,0,0,-1,524,1450,0,0
-693,-426,0,0,0,0,0,0,0,0,0,-1,531,1450,0,0
-686,-426,0,0,0,0,0,0,0,0,0,-1,538,1450,0,0
-679,-426,0,0,0,0,0,0,0,0,0,-1,545,1450,0,0
-672,-426,0,0,0,0,0,0,0,0,0,-1,552,1450,0,0
-665,-426,0,0,0,0,0,0,0,0,0,-1,559,1450,0,0
-658,-426,0,0,0,0,0,0,0,0,0,-1,566,1450,0,0
-651,-426,0,0,0,0,0,0,0,0,0,-1,573,1450,0,0
-644,-426,0,0,0,0,0,0,0,0,0,-1,580,1450,0,0
-637,-426,0,0,0,0,0,0,0,0,0,-1,587,1450,0,0
-630,-426,0,0,0,0,0,0,0,0,0,-1,594,1450,0,0
-623,-426,0,0,0,0,0,0,0,0,0,-1,601,1450,0,0
-616,-426,0,0,0,0,0,0,0,0,0,-1,608,1450,0,0
-609,-426,0,0,0,0,0,0,0,0,0,-1,615,1450,0,0
-602,-426,0,0,0,0,0,0,0,0,0,-1,622,1450,0,0
-595,-426,0,0,0,0,0,0,0,0,0,-1,629,1450,0,0
-588,-426,-0.778442,0.244751,0.00755537,0.0309668,-0.0337734,0.0550056,-0.0164834,-0.952218,0.0432255,0.0450913,636,1450,-0.778464,-0.244697
-581,-426,-0.40564,-0.161255,0.00717622,0.0278191,-0.0252136,0.0447421,-0.00974674,-0.979673,0.0335522,0.0448252,643,1450,-0.405667,0.1612
-574,-426,0.120483,-0.721558,0.00657161,0.0241772,-0.0178796,0.0353035,-0.00455471,-1.01415,0.0251915,0.0489258,650,1450,0.120473,0.721598
-567,-426,0.491394,-1.23669,0,0,0,0,0,0,0,-1,657,1450,0.491364,1.23665
-560,-426,0.60968,-1.80627,0.0048886,0.0163098,-0.00704783,0.0196702,0.0015282,-1.12588,0.0126349,0.0442934,664,1450,0.609698,1.80627
-553,-426,-0.407227,-0.0626221,0.00447941,0.0126789,-0.00375672,0.0141398,0.0030185,-1.19992,0.00859884,0.0411596,671,1450,-0.407238,0.0625708
-546,-426,-0.261902,0.12439,0.00407171,0.00941998,-0.00150846,0.0098161,0.00367559,-1.314,0.00572658,0.0390106,678,1450,-0.26191,-0.124363
-539,-426,-0.0536499,0.115112,0.00318718,0.00650525,-0.000291866,0.00653073,0.0031617,-1.48372,0.00377115,0.0322085,685,1450,-0.053629,-0.115092
-532,-426,-0.019104,0.0390625,0.00218897,0.00374044,0.000803732,0.00408173,0.00184767,1.16923,0.0023601,0.0179739,692,1450,-0.0191025,-0.039052
-525,-426,-0.0137329,0.0655518,0.00128638,0.00196675,0.00106959,0.00274895,0.000504179,0.939366,0.00168983,0.0114249,699,1450,-0.0137052,-0.0656058
-518,-426,0.0012207,0.071167,0.000970299,0.00115613,0.000710274,0.00177954,0.000346888,0.850436,0.0010893,0.0144021,706,1450,0.00121416,-0.0712268
-511,-426,-0.00854492,0.0786133,0.00120772,0.000628935,0.000100438,0.00122466,0.000612001,0.167027,0.000707057,0.014074,713,1450,-0.00852984,-0.0786202
-504,-426,-0.0335693,0.0665283,0.00249353,0.000982834,-0.00153545,0.00344937,2.6999e-05,-0.556808,0.00229063,0.0141604,720,1450,-0.0335759,-0.0665399
-497,-426,-0.0346069,0.0709229,0.00341628,0.0026,-0.00282763,0.00586507,0.000151209,-0.713724,0.00386063,0.0122003,727,1450,-0.0346247,-0.0708962
-490,-426,-0.0418701,0.0839844,0.00418018,0.00351571,-0.00349551,0.0073592,0.000336681,-0.738017,0.00479785,0.0122988,734,1450,-0.0418429,-0.083964
-483,-426,-0.031311,0.0622559,0.0053598,0.00419817,-0.00384535,0.00866795,0.00089002,-0.710443,0.00550599,0.0112898,741,1450,-0.0312841,-0.0622927
-476,-426,-0.0338745,0.0561523,0.00667831,0.00653362,-0.00458603,0.0111926,0.00201937,-0.777512,0.00688798,0.00860587,748,1450,-0.0338579,-0.0561208
-469,-426,-0.0343018,0.0550537,0.0075265,0.00867196,-0.00524578,0.0133762,0.00282227,-0.839772,0.00814143,0.00665435,755,1450,-0.034297,-0.0550012
-462,-426,-0.022583,0.0471191,0.00752324,0.0105239,-0.00527731,0.01451,0.00353712,-0.923891,0.00873631,0.0124268,762,1450,-0.022557,-0.047093
-455,-426,-0.0286865,0.0615234,0.00647213,0.0118887,-0.00501605,0.0148809,0.00347993,-1.03294,0.00898808,0.0246006,769,1450,-0.0286986,-0.0615578
-448,-426,-0.319275,0.3302,0.00417613,0.0131646,-0.00436694,0.0149368,0.00240393,-1.18528,0.00926116,0.0390646,776,1450,-0.319248,-0.330258
-441,-426,0.370605,-0.235107,-0.000114082,0.013897,-0.00338963,0.014674,-0.000891035,-1.34547,0.0100928,0.0426262,783,1450,0.370631,0.235138
-434,-426,0.554443,0.0428467,-0.00646004,0.0140767,-0.0018942,0.0142499,-0.00663329,-1.47959,0.0123214,0.0421643,790,1450,0.554473,-0.0428467
-427,-426,0.489746,0.364014,-0.0143915,0.0137146,-0.000187549,0.0137158,-0.0143927,-1.56412,0.01623,0.0423667,797,1450,0.489738,-0.363955
-420,-426,0.177246,-0.214844,-0.0245486,0.0116007,0.00202649,0.011714,-0.0246619,1.51497,0.0214405,0.0485904,804,1450,0.177236,0.214874
-413,-426,-0.221619,0.205444,-0.037365,0.00865832,0.00422168,0.00904237,-0.037749,1.48008,0.0286597,0.0456284,811,1450,-0.221594,-0.205504
-406,-426,-0.218933,0.716187,-0.0524824,0.00427244,0.00629695,0.0049627,-0.0531727,1.46162,0.0372131,0.0467292,818,1450,-0.218931,-0.716138
-399,-426,-0.351746,1.48682,0,0,0,0,0,0,0,-1,825,1450,-0.351715,-1.48682
-392,-426,0.0710449,0.332275,0,0,0,0,0,0,0,-1,832,1450,0.0710234,-0.332281
-385,-426,0,0,0,0,0,0,0,0,0,-1,839,1450,0,0
-378,-426,0,0,0,0,0,0,0,0,0,-1,846,1450,0,0
-371,-426,0,0,0,0,0,0,0,0,0,-1,853,1450,0,0
-364,-426,0,0,0,0,0,0,0,0,0,-1,860,1450,0,0
-357,-426,0,0,0,0,0,0,0,0,0,-1,867,1450,0,0
-350,-426,0,0,0,0,0,0,0,0,0,-1,874,1450,0,0
-343,-426,0,0,0,0,0,0,0,0,0,-1,881,1450,0,0
-336,-426,0,0,0,0,0,0,0,0,0,-1,888,1450,0,0
-329,-426,0,0,0,0,0,0,0,0,0,-1,895,1450,0,0
-322,-426,0,0,0,0,0,0,0,0,0,-1,902,1450,0,0
-315,-426,0,0,0,0,0,0,0,0,0,-1,909,1450,0,0
-308,-426,0,0,0,0,0,0,0,0,0,-1,916,1450,0,0
-301,-426,0,0,0,0,0,0,0,0,0,-1,923,1450,0,0
-294,-426,0,0,0,0,0,0,0,0,0,-1,930,1450,0,0
-287,-426,0,0,0,0,0,0,0,0,0,-1,937,1450,0,0
-280,-426,0,0,0,0,0,0,0,0,0,-1,944,1450,0,0
-273,-426,0,0,0,0,0,0,0,0,0,-1,951,1450,0,0
-266,-426,0,0,0,0,0,0,0,0,0,-1,958,1450,0,0
-259,-426,0,0,0,0,0,0,0,0,0,-1,965,1450,0,0
-252,-426,0,0,0,0,0,0,0,0,0,-1,972,1450,0,0
-245,-426,0,0,0,0,0,0,0,0,0,-1,979,1450,0,0
-238,-426,0,0,0,0,0,0,0,0,0,-1,986,1450,0,0
-231,-426,0,0,0,0,0,0,0,0,0,-1,993,1450,0,0
-224,-426,0,0,0,0,0,0,0,0,0,-1,1000,1450,0,0
-217,-426,0,0,0,0,0,0,0,0,0,-1,1007,1450,0,0
-210,-426,0,0,0,0,0,0,0,0,0,-1,1014,1450,0,0
-203,-426,0,0,0,0,0,0,0,0,0,-1,1021,1450,0,0
-196,-426,0,0,0,0,0,0,0,0,0,-1,1028,1450,0,0
-189,-426,0,0,0,0,0,0,0,0,0,-1,1035,1450,0,0
-182,-426,0,0,0,0,0,0,0,0,0,-1,1042,1450,0,0
-175,-426,0,0,0,0,0,0,0,0,0,-1,1049,1450,0,0
-168,-426,0,0,0,0,0,0,0,0,0,-1,1056,1450,0,0
-161,-426,0,0,0,0,0,0,0,0,0,-1,1063,1450,0,0
-154,-426,0,0,0,0,0,0,0,0,0,-1,1070,1450,0,0
-147,-426,0,0,0,0,0,0,0,0,0,-1,1077,1450,0,0
-140,-426,0,0,0,0,0,0,0,0,0,-1,1084,1450,0,0
-133,-426,0,0,0,0,0,0,0,0,0,-1,1091,1450,0,0
-126,-426,0,0,0,0,0,0,0,0,0,-1,1098,1450,0,0
-119,-426,0,0,0,0,0,0,0,0,0,-1,1105,1450,0,0
-112,-426,0,0,0,0,0,0,0,0,0,-1,1112,1450,0,0
-105,-426,0,0,0,0,0,0,0,0,0,-1,1119,1450,0,0
-98,-426,0,0,0,0,0,0,0,0,0,-1,1126,1450,0,0
-91,-426,0,0,0,0,0,0,0,0,0,-1,1133,1450,0,0
-84,-426,0,0,0,0,0,0,0,0,0,-1,1140,1450,0,0
-77,-426,0,0,0,0,0,0,0,0,0,-1,1147,1450,0,0
-70,-426,0,0,0,0,0,0,0,0,0,-1,1154,1450,0,0
-63,-426,0,0,0,0,0,0,0,0,0,-1,1161,1450,0,0
-56,-426,0,0,0,0,0,0,0,0,0,-1,1168,1450,0,0
-49,-426,0,0,0,0,0,0,0,0,0,-1,1175,1450,0,0
-42,-426,0,0,0,0,0,0,0,0,0,-1,1182,1450,0,0
-35,-426,0,0,0,0,0,0,0,0,0,-1,1189,1450,0,0
-28,-426,0,0,0,0,0,0,0,0,0,-1,1196,1450,0,0
-21,-426,0,0,0,0,0,0,0,0,0,-1,1203,1450,0,0
-14,-426,0,0,0,0,0,0,0,0,0,-1,1210,1450,0,0
-7,-426,0,0,0,0,0,0,0,0,0,-1,1217,1450,0,0
0,-426,0,0,0,0,0,0,0,0,0,-1,1224,1450,0,0
7,-426,0,0,0,0,0,0,0,0,0,-1,1231,1450,0,0
14,-426,0,0,0,0,0,0,0,0,0,-1,1238,1450,0,0
21,-426,0,0,0,0,0,0,0,0,0,-1,1245,1450,0,0
28,-426,0,0,0,0,0,0,0,0,0,-1,1252,1450,0,0
35,-426,0,0,0,0,0,0,0,0,0,-1,1259,1450,0,0
42,-426,0,0,0,0,0,0,0,0,0,-1,1266,1450,0,0
49,-426,0,0,0,0,0,0,0,0,0,-1,1273,1450,0,0
56,-426,0,0,0,0,0,0,0,0,0,-1,1280,1450,0,0
63,-426,0,0,0,0,0,0,0,0,0,-1,1287,1450,0,0
70,-426,0,0,0,0,0,0,0,0,0,-1,1294,1450,0,0
77,-426,0,0,0,0,0,0,0,0,0,-1,1301,1450,0,0
84,-426,0,0,0,0,0,0,0,0,0,-1,1308,1450,0,0
91,-426,0,0,0,0,0,0,0,0,0,-1,1315,1450,0,0
98,-426,0,0,0,0,0,0,0,0,0,-1,1322,1450,0,0
105,-426,0,0,0,0,0,0,0,0,0,-1,1329,1450,0,0
112,-426,0,0,0,0,0,0,0,0,0,-1,1336,1450,0,0
119,-426,0,0,0,0,0,0,0,0,0,-1,1343,1450,0,0
126,-426,0,0,0,0,0,0,0,0,0,-1,1350,1450,0,0
133,-426,0,0,0,0,0,0,0,0,0,-1,1357,1450,0,0
140,-426,0,0,0,0,0,0,0,0,0,-1,1364,1450,0,0
147,-426,0,0,0,0,0,0,0,0,0,-1,1371,1450,0,0
154,-426,0,0,0,0,0,0,0,0,0,-1,1378,1450,0,0
161,-426,0,0,0,0,0,0,0,0,0,-1,1385,1450,0,0
168,-426,0,0,0,0,0,0,0,0,0,-1,1392,1450,0,0
175,-426,0,0,0,0,0,0,0,0,0,-1,1399,1450,0,0
182,-426,0,0,0,0,0,0,0,0,0,-1,1406,1450,0,0
189,-426,0,0,0,0,0,0,0,0,0,-1,1413,1450,0,0
196,-426,0,0,0,0,0,0,0,0,0,-1,1420,1450,0,0
203,-426,0,0,0,0,0,0,0,0,0,-1,1427,1450,0,0
210,-426,0,0,0,0,0,0,0,0,0,-1,1434,1450,0,0
217,-426,0,0,0,0,0,0,0,0,0,-1,1441,1450,0,0
224,-426,0,0,0,0,0,0,0,0,0,-1,1448,1450,0,0
231,-426,0,0,0,0,0,0,0,0,0,-1,1455,1450,0,0
238,-426,0,0,0,0,0,0,0,0,0,-1,1462,1450,0,0
245,-426,0,0,0,0,0,0,0,0,0,-1,1469,1450,0,0
252,-426,0,0,0,0,0,0,0,0,0,-1,1476,1450,0,0
259,-426,0,0,0,0,0,0,0,0,0,-1,1483,1450,0,0
266,-426,0,0,0,0,0,0,0,0,0,-1,1490,1450,0,0
273,-426,0,0,0,0,0,0,0,0,0,-1,1497,1450,0,0
280,-426,0,0,0,0,0,0,0,0,0,-1,1504,1450,0,0
287,-426,0,0,0,0,0,0,0,0,0,-1,1511,1450,0,0
294,-426,0,0,0,0,0,0,0,0,0,-1,1518,1450,0,0
301,-426,0,0,0,0,0,0,0,0,0,-1,1525,1450,0,0
308,-426,0,0,0,0,0,0,0,0,0,-1,1532,1450,0,0
315,-426,0,0,0,0,0,0,0,0,0,-1,1539,1450,0,0
322,-426,0,0,0,0,0,0,0,0,0,-1,1546,1450,0,0
329,-426,0,0,0,0,0,0,0,0,0,-1,1553,1450,0,0
336,-426,0,0,0,0,0,0,0,0,0,-1,1560,1450,0,0
343,-426,0,0,0,0,0,0,0,0,0,-1,1567,1450,0,0
350,-426,0,0,0,0,0,0,0,0,0,-1,1574,1450,0,0
357,-426,0,0,0,0,0,0,0,0,0,-1,1581,1450,0,0
364,-426,0,0,0,0,0,0,0,0,0,-1,1588,1450,0,0
371,-426,0,0,0,0,0,0,0,0,0,-1,1595,1450,0,0
378,-426,0,0,0,0,0,0,0,0,0,-1,1602,1450,0,0
385,-426,0,0,0,0,0,0,0,0,0,-1,1609,1450,0,0
392,-426,0,0,0,0,0,0,0,0,0,-1,1616,1450,0,0
399,-426,0,0,0,0,0,0,0,0,0,-1,1623,1450,0,0
406,-426,0,0,0,0,0,0,0,0,0,-1,1630,1450,0,0
413,-426,0,0,0,0,0,0,0,0,0,-1,1637,1450,0,0
420,-426,0,0,0,0,0,0,0,0,0,-1,1644,1450,0,0
427,-426,0,0,0,0,0,0,0,0,0,-1,1651,1450,0,0
434,-426,0,0,0,0,0,0,0,0,0,-1,1658,1450,0,0
441,-426,0,0,0,0,0,0,0,0,0,-1,1665,1450,0,0
448,-426,0,0,0,0,0,0,0,0,0,-1,1672,1450,0,0
455,-426,0,0,0,0,0,0,0,0,0,-1,1679,1450,0,0
462,-426,0,0,0,0,0,0,0,0,0,-1,1686,1450,0,0
469,-426,0,0,0,0,0,0,0,0,0,-1,1693,1450,0,0
476,-426,0,0,0,0,0,0,0,0,0,-1,1700,1450,0,0
483,-426,0,0,0,0,0,0,0,0,0,-1,1707,1450,0,0
490,-426,0,0,0,0,0,0,0,0,0,-1,1714,1450,0,0
497,-426,0,0,0,0,0,0,0,0,0,-1,1721,1450,0,0
504,-426,-0.053833,-0.599121,0.0032482,-0.0152597,0.0108693,0.00826931,-0.0202808,0.43275,0.0169627,0.0393594,1728,1450,-0.0538935,0.59909
511,-426,0.0622559,-0.4021,0.00189078,-0.0166318,0.00997002,0.00623731,-0.0209784,0.411117,0.0164633,0.041826,1735,1450,0.0622412,0.402145
518,-426,0.0794678,-0.114502,0.000391921,-0.0171144,0.00990956,0.00486059,-0.0215831,0.42364,0.016253,0.0466105,1742,1450,0.0794185,0.114462
525,-426,-0.598145,-1.01563,-0.00110208,-0.0166633,0.00961594,0.0034868,-0.0212522,0.445255,0.015462,0.0475136,1749,1450,-0.598194,1.01564
532,-426,-0.482056,-0.854858,-0.00222684,-0.0157918,0.00921289,0.00243093,-0.0204496,0.468094,0.0145114,0.0475743,1756,1450,-0.482061,0.854846
539,-426,-0.647217,-0.2771,-0.00281444,-0.0143215,0.00888094,0.0020138,-0.0191498,0.497966,0.013488,0.0479407,1763,1450,-0.647217,0.277156
546,-426,-0.353149,-0.926392,0,0,0,0,0,0,0,-1,1770,1450,-0.353206,0.926403
553,-426,0.929932,-0.741577,0,0,0,0,0,0,0,-1,1777,1450,0.929914,0.741623
560,-426,-0.350464,-0.23938,0,0,0,0,0,0,0,-1,1784,1450,-0.350513,0.239438
567,-426,-0.274658,-0.203979,-0.00337321,-0.00808459,0.00633763,0.00103237,-0.0124902,0.607461,0.00869137,0.0464153,1791,1450,-0.274679,0.203998
574,-426,-0.296997,-0.230225,-0.0025507,-0.00620203,0.00560498,0.00151845,-0.0102712,0.627956,0.00740568,0.0449306,1798,1450,-0.29701,0.23018
581,-426,-0.226196,-0.181152,-0.00126843,-0.00495916,0.00468492,0.00192147,-0.00814906,0.597782,0.00617368,0.0400621,1805,1450,-0.226197,0.181125
588,-426,-0.105835,-0.0400391,-0.000580564,-0.00374939,0.00343319,0.00161618,-0.00594613,0.56921,0.00459848,0.0303118,1812,1450,-0.105878,0.0399802
595,-426,-0.0644531,0.0557861,-0.00100487,-0.00258932,0.00227641,0.000613226,-0.00420742,0.617945,0.00303011,0.0203491,1819,1450,-0.0644102,-0.0558101
602,-426,-0.0771484,0.0413818,-0.000591481,-0.00168857,0.00161566,0.000566217,-0.00284627,0.621746,0.00211171,0.0131463,1826,1450,-0.0771497,-0.0414248
609,-426,-0.0567627,0.0661621,0.000139818,-0.00137569,0.00103106,0.000661625,-0.00189749,0.468506,0.00153386,0.011153,1833,1450,-0.0567745,-0.0662072
616,-426,-0.0487061,0.0802002,0.000472188,-0.000771724,0.000362598,0.000570167,-0.000869703,0.263912,0.000837284,0.0131241,1840,1450,-0.0486613,-0.0802448
623,-426,-0.0426025,0.0717773,0.000496039,-0.00037932,4.55612e-05,0.000498404,-0.000381685,0.0518618,0.000509607,0.0105556,1847,1450,-0.0425901,-0.071752
630,-426,-0.0419922,0.0736084,0.000480767,-9.081e-06,-0.000217629,0.000563486,-9.18002e-05,-0.363228,0.0004097,0.0110553,1854,1450,-0.0419751,-0.073574
637,-426,-0.0292969,0.0604248,0.000689548,0.000705742,-0.000353623,0.00105136,0.00034393,-0.796845,0.000618979,0.0115517,1861,1450,-0.0293258,-0.0604572
644,-426,-0.0426025,0.0809326,0.00108202,0.00103738,-0.000386194,0.00144654,0.000672864,-0.756532,0.000835837,0.010809,1868,1450,-0.0425542,-0.0808931
651,-426,-0.0662842,0.0793457,0.00124958,0.00162856,-0.00034801,0.00183532,0.00104282,-1.0347,0.0010629,0.0105762,1875,1450,-0.0662271,-0.0793106
658,-426,-0.0666504,0.0541992,0.00121115,0.00292305,-0.000630584,0.00313025,0.00100395,-1.25333,0.00184557,0.0104923,1882,1450,-0.066699,-0.054236
665,-426,-0.0588379,0.0632324,0.00165313,0.00442354,-0.000482027,0.00450501,0.00157165,-1.40336,0.00264028,0.0148364,1889,1450,-0.0588124,-0.0632519
672,-426,-0.0428467,0.0649414,0.00222473,0.00603845,-0.000175496,0.0060465,0.00221668,-1.52491,0.00353212,0.0227932,1896,1450,-0.0428995,-0.0649931
679,-426,-0.136719,-0.0865479,0.00285376,0.00774592,0.000173164,0.00775204,0.00284764,1.53546,0.00452785,0.0343924,1903,1450,-0.136727,0.0865584
686,-426,-0.164185,-0.0866699,0.00353834,0.0102091,0.000534025,0.0102516,0.00349586,1.49142,0.00601767,0.0390976,1910,1450,-0.164239,0.0866808
693,-426,0.162964,0.303223,0.0042634,0.0130633,0.00108965,0.0131962,0.00413048,1.44941,0.00779441,0.0415209,1917,1450,0.163022,-0.303172
700,-426,0.5,0.920288,0.00510375,0.0163101,0.00180815,0.0165946,0.00481923,1.41472,0.00985749,0.0482086,1924,1450,0.499942,-0.92031
707,-426,0.772339,1.2312,0,0,0,0,0,0,0,-1,1931,1450,0.772312,-1.23125
714,-426,0,0,0,0,0,0,0,0,0,-1,1938,1450,0,0
721,-426,0,0,0,0,0,0,0,0,0,-1,1945,1450,0,0
728,-426,0,0,0,0,0,0,0,0,0,-1,1952,1450,0,0
735,-426,0,0,0,0,0,0,0,0,0,-1,1959,1450,0,0
742,-426,0,0,0,0,0,0,0,0,0,-1,1966,1450,0,0
749,-426,0,0,0,0,0,0,0,0,0,-1,1973,1450,0,0
756,-426,0,0,0,0,0,0,0,0,0,-1,1980,1450,0,0
763,-426,0,0,0,0,0,0,0,0,0,-1,1987,1450,0,0
770,-426,0,0,0,0,0,0,0,0,0,-1,1994,1450,0,0
777,-426,0,0,0,0,0,0,0,0,0,-1,2001,1450,0,0
784,-426,0,0,0,0,0,0,0,0,0,-1,2008,1450,0,0
791,-426,0,0,0,0,0,0,0,0,0,-1,2015,1450,0,0
798,-426,0,0,0,0,0,0,0,0,0,-1,2022,1450,0,0
805,-426,0,0,0,0,0,0,0,0,0,-1,2029,1450,0,0
812,-426,0,0,0,0,0,0,0,0,0,-1,2036,1450,0,0
-700,-433,0,0,0,0,0,0,0,0,0,-1,524,1457,0,0
-693,-433,0,0,0,0,0,0,0,0,0,-1,531,1457,0,0
-686,-433,0,0,0,0,0,0,0,0,0,-1,538,1457,0,0
-679,-433,0,0,0,0,0,0,0,0,0,-1,545,1457,0,0
-672,-433,0,0,0,0,0,0,0,0,0,-1,552,1457,0,0
-665,-433,0,0,0,0,0,0,0,0,0,-1,559,1457,0,0
-658,-433,0,0,0,0,0,0,0,0,0,-1,566,1457,0,0
-651,-433,0,0,0,0,0,0,0,0,0,-1,573,1457,0,0
-644,-433,0,0,0,0,0,0,0,0,0,-1,580,1457,0,0
-637,-433,0,0,0,0,0,0,0,0,0,-1,587,1457,0,0
-630,-433,0,0,0,0,0,0,0,0,0,-1,594,1457,0,0
-623,-433,0,0,0,0,0,0,0,0,0,-1,601,1457,0,0
-616,-433,0,0,0,0,0,0,0,0,0,-1,608,1457,0,0
-609,-433,0,0,0,0,0,0,0,0,0,-1,615,1457,0,0
-602,-433,0,0,0,0,0,0,0,0,0,-1,622,1457,0,0
-595,-433,0,0,0,0,0,0,0,0,0,-1,629,1457,0,0
-588,-433,-0.128662,-0.291504,0.0198005,0.0293905,-0.039417,0.064303,-0.015112,-0.845925,0.0486941,0.0418862,636,1457,-0.128692,0.291541
-581,-433,0.0228882,-0.46228,0.0168502,0.0265472,-0.0292433,0.0513412,-0.00794379,-0.86755,0.0371595,0.0419869,643,1457,0.0229058,0.462239
-574,-433,0.230835,-0.637695,0.0139059,0.0230416,-0.0206694,0.0396418,-0.00269442,-0.894148,0.0273703,0.0448759,650,1457,0.23084,0.637746
-567,-433,1.11096,-1.77869,0,0,0,0,0,0,0,-1,657,1457,1.11097,1.77873
-560,-433,1.0683,-2.5658,0,0,0,0,0,0,0,-1,664,1457,1.06832,2.5658
-553,-433,-0.481995,0.271484,0.00699995,0.0115596,-0.00471474,0.0145168,0.00404277,-1.0106,0.00865111,0.0413017,671,1457,-0.482006,-0.271428
-546,-433,-0.277588,0.356323,0.00560226,0.00836804,-0.0022564,0.00963161,0.00433869,-1.06031,0.0055699,0.0397313,678,1457,-0.277566,-0.356275
-539,-433,-0.0159912,0.244019,0.004186,0.005595,-0.000874961,0.00601383,0.00376717,-1.12434,0.00350889,0.04015,685,1457,-0.0159783,-0.244033
-532,-433,-0.0576172,0.126587,0.00288292,0.00295435,0.00040943,0.00332962,0.00250765,0.828904,0.0020028,0.0254071,692,1457,-0.0575985,-0.126543
-525,-433,-0.019165,0.067627,0.00191789,0.00129517,0.00081228,0.00247644,0.000736621,0.602379,0.00146836,0.0119269,699,1457,-0.0191541,-0.0675837
-518,-433,0.00708008,0.0736084,0.00153208,0.000552462,0.000568845,0.00179294,0.000291608,0.429957,0.00111092,0.0139163,706,1457,0.00707129,-0.0736239
-511,-433,-0.0182495,0.0705566,0.00162129,0.000105536,6.79576e-05,0.00162433,0.000102496,0.0447147,0.00105039,0.0144392,713,1457,-0.0182544,-0.0704974
-504,-433,-0.0231934,0.0688477,0.00264211,0.000254363,-0.00120659,0.00314564,-0.000249171,-0.395348,0.00218489,0.0121846,720,1457,-0.0232207,-0.0688395
-497,-433,-0.0336304,0.0708008,0.00332143,0.00146381,-0.00213023,0.00471653,6.87083e-05,-0.579817,0.0031217,0.0127827,727,1457,-0.0336443,-0.0707719
-490,-433,-0.0438843,0.0737305,0.0039111,0.00203688,-0.00254459,0.00568565,0.000262327,-0.608967,0.00370609,0.0147772,734,1457,-0.0438733,-0.0737128
-483,-433,-0.0336304,0.0710449,0.00492619,0.0024514,-0.0027047,0.00666311,0.000714475,-0.570862,0.00422411,0.0150409,741,1457,-0.0336096,-0.0710889
-476,-433,-0.0137939,0.0566406,0.00603846,0.00450594,-0.00321198,0.00857431,0.00197008,-0.668305,0.00518579,0.00976333,748,1457,-0.0137892,-0.0566089
-469,-433,-0.020752,0.0655518,0.006649,0.00627881,-0.00357371,0.0100424,0.0028854,-0.759525,0.00597026,0.00939628,755,1457,-0.0207538,-0.0656092
-462,-433,-0.0385132,0.0612793,0.00651545,0.00773937,-0.00336597,0.0105486,0.00370626,-0.87532,0.00617927,0.0080804,762,1457,-0.038507,-0.0612891
-455,-433,-0.0250854,0.0362549,0.00543446,0.00879529,-0.00293202,0.0104943,0.00373544,-1.04561,0.00614213,0.0161777,769,1457,-0.025102,-0.036236
-448,-433,-0.0862427,0.112183,0.00319227,0.00983723,-0.00220153,0.0105004,0.00252908,-1.2782,0.00632802,0.0329217,776,1457,-0.0862397,-0.112198
-441,-433,-0.0289307,0.230713,-0.000825435,0.0104796,-0.00126548,0.0106196,-0.00096536,-1.46067,0.00742245,0.0416872,783,1457,-0.0289022,-0.230719
-434,-433,0.109436,0.265381,-0.00663687,0.0107632,4.62793e-05,0.0107634,-0.00663699,1.56814,0.0101398,0.0421965,790,1457,0.109419,-0.265325
-427,-433,1.04706,-1.13159,-0.0137948,0.0106927,0.0014733,0.0107811,-0.0138832,1.51092,0.0142774,0.0471054,797,1457,1.04704,1.13164
-420,-433,0.63446,-0.530396,-0.022964,0.00902013,0.00338477,0.00937441,-0.0233183,1.46651,0.019439,0.0439026,804,1457,0.634466,0.530346
-413,-433,0.269775,0.0418701,-0.0344385,0.00689671,0.00519359,0.00753927,-0.035081,1.4477,0.0262637,0.0445373,811,1457,0.269773,-0.0418902
-406,-433,-0.0239258,0.657959,-0.0482196,0.00348399,0.00698383,0.00441071,-0.0491463,1.43887,0.034329,0.0485677,818,1457,-0.023902,-0.657983
-399,-433,-0.727234,0.680664,0,0,0,0,0,0,0,-1,825,1457,-0.727248,-0.680706
-392,-433,-1.44788,0.642334,0,0,0,0,0,0,0,-1,832,1457,-1.4479,-0.642363
-385,-433,0.0411377,0.489258,0,0,0,0,0,0,0,-1,839,1457,0.0411667,-0.489214
-378,-433,0,0,0,0,0,0,0,0,0,-1,846,1457,0,0
-371,-433,0,0,0,0,0,0,0,0,0,-1,853,1457,0,0
-364,-433,0,0,0,0,0,0,0,0,0,-1,860,1457,0,0
-357,-433,0,0,0,0,0,0,0,0,0,-1,867,1457,0,0
-350,-433,0,0,0,0,0,0,0,0,0,-1,874,1457,0,0
-343,-433,0,0,0,0,0,0,0,0,0,-1,881,1457,0,0
-336,-433,0,0,0,0,0,0,0,0,0,-1,888,1457,0,0
-329,-433,0,0,0,0,0,0,0,0,0,-1,895,1457,0,0
-322,-433,0,0,0,0,0,0,0,0,0,-1,902,1457,0,0
-315,-433,0,0,0,0,0,0,0,0,0,-1,909,1457,0,0
-308,-433,0,0,0,0,0,0,0,0,0,-1,916,1457,0,0
-301,-433,0,0,0,0,0,0,0,0,0,-1,923,1457,0,0
-294,-433,0,0,0,0,0,0,0,0,0,-1,930,1457,0,0
-287,-433,0,0,0,0,0,0,0,0,0,-1,937,1457,0,0
-280,-433,0,0,0,0,0,0,0,0,0,-1,944,1457,0,0
-273,-433,0,0,0,0,0,0,0,0,0,-1,951,1457,0,0
-266,-433,0,0,0,0,0,0,0,0,0,-1,958,1457,0,0
-259,-433,0,0,0,0,0,0,0,0,0,-1,965,1457,0,0
-252,-433,0,0,0,0,0,0,0,0,0,-1,972,1457,0,0
-245,-433,0,0,0,0,0,0,0,0,0,-1,979,1457,0,0
-238,-433,0,0,0,0,0,0,0,0,0,-1,986,1457,0,0
-231,-433,0,0,0,0,0,0,0,0,0,-1,993,1457,0,0
-224,-433,0,0,0,0,0,0,0,0,0,-1,1000,1457,0,0
-217,-433,0,0,0,0,0,0,0,0,0,-1,1007,1457,0,0
-210,-433,0,0,0,0,0,0,0,0,0,-1,1014,1457,0,0
-203,-433,0,0,0,0,0,0,0,0,0,-1,1021,1457,0,0
-196,-433,0,0,0,0,0,0,0,0,0,-1,1028,1457,0,0
-189,-433,0,0,0,0,0,0,0,0,0,-1,1035,1457,0,0
-182,-433,0,0,0,0,0,0,0,0,0,-1,1042,1457,0,0
-175,-433,0,0,0,0,0,0,0,0,0,-1,1049,1457,0,0
-168,-433,0,0,0,0,0,0,0,0,0,-1,1056,1457,0,0
-161,-433,0,0,0,0,0,0,0,0,0,-1,1063,1457,0,0
-154,-433,0,0,0,0,0,0,0,0,0,-1,1070,1457,0,0
-147,-433,0,0,0,0,0,0,0,0,0,-1,1077,1457,0,0
-140,-433,0,0,0,0,0,0,0,0,0,-1,1084,1457,0,0
-133,-433,0,0,0,0,0,0,0,0,0,-1,1091,1457,0,0
-126,-433,0,0,0,0,0,0,0,0,0,-1,1098,1457,0,0
-119,-433,0,0,0,0,0,0,0,0,0,-1,1105,1457,0,0
-112,-433,0,0,0,0,0,0,0,0,0,-1,1112,1457,0,0
-105,-433,0,0,0,0,0,0,0,0,0,-1,1119,1457,0,0
-98,-433,0,0,0,0,0,0,0,0,0,-1,1126,1457,0,0
-91,-433,0,0,0,0,0,0,0,0,0,-1,1133,1457,0,0
-84,-433,0,0,0,0,0,0,0,0,0,-1,1140,1457,0,0
-77,-433,0,0,0,0,0,0,0,0,0,-1,1147,1457,0,0
-70,-433,0,0,0,0,0,0,0,0,0,-1,1154,1457,0,0
-63,-433,0,0,0,0,0,0,0,0,0,-1,1161,1457,0,0
-56,-433,0,0,0,0,0,0,0,0,0,-1,1168,1457,0,0
-49,-433,0,0,0,0,0,0,0,0,0,-1,1175,1457,0,0
-42,-433,0,0,0,0,0,0,0,0,0,-1,1182,1457,0,0
-35,-433,0,0,0,0,0,0,0,0,0,-1,1189,1457,0,0
-28,-433,0,0,0,0,0,0,0,0,0,-1,1196,1457,0,0
-21,-433,0,0,0,0,0,0,0,0,0,-1,1203,1457,0,0
-14,-433,0,0,0,0,0,0,0,0,0,-1,1210,1457,0,0
-7,-433,0,0,0,0,0,0,0,0,0,-1,1217,1457,0,0
0,-433,0,0,0,0,0,0,0,0,0,-1,1224,1457,0,0
7,-433,0,0,0,0,0,0,0,0,0,-1,1231,1457,0,0
14,-433,0,0,0,0,0,0,0,0,0,-1,1238,1457,0,0
21,-433,0,0,0,0,0,0,0,0,0,-1,1245,1457,0,0
28,-433,0,0,0,0,0,0,0,0,0,-1,1252,1457,0,0
35,-433,0,0,0,0,0,0,0,0,0,-1,1259,1457,0,0
42,-433,0,0,0,0,0,0,0,0,0,-1,1266,1457,0,0
49,-433,0,0,0,0,0,0,0,0,0,-1,1273,1457,0,0
56,-433,0,0,0,0,0,0,0,0,0,-1,1280,1457,0,0
63,-433,0,0,0,0,0,0,0,0,0,-1,1287,1457,0,0
70,-433,0,0,0,0,0,0,0,0,0,-1,1294,1457,0,0
77,-433,0,0,0,0,0,0,0,0,0,-1,1301,1457,0,0
84,-433,0,0,0,0,0,0,0,0,0,-1,1308,1457,0,0
91,-433,0,0,0,0,0,0,0,0,0,-1,1315,1457,0,0
98,-433,0,0,0,0,0,0,0,0,0,-1,1322,1457,0,0
105,-433,0,0,0,0,0,0,0,0,0,-1,1329,1457,0,0
112,-433,0,0,0,0,0,0,0,0,0,-1,1336,1457,0,0
119,-433,0,0,0,0,0,0,0,0,0,-1,1343,1457,0,0
126,-433,0,0,0,0,0,0,0,0,0,-1,1350,1457,0,0
133,-433,0,0,0,0,0,0,0,0,0,-1,1357,1457,0,0
140,-433,0,0,0,0,0,0,0,0,0,-1,1364,1457,0,0
147,-433,0,0,0,0,0,0,0,0,0,-1,1371,1457,0,0
154,-433,0,0,0,0,0,0,0,0,0,-1,1378,1457,0,0
161,-433,0,0,0,0,0,0,0,0,0,-1,1385,1457,0,0
168,-433,0,0,0,0,0,0,0,0,0,-1,1392,1457,0,0
175,-433,0,0,0,0,0,0,0,0,0,-1,1399,1457,0,0
182,-433,0,0,0,0,0,0,0,0,0,-1,1406,1457,0,0
189,-433,0,0,0,0,0,0,0,0,0,-1,1413,1457,0,0
196,-433,0,0,0,0,0,0,0,0,0,-1,1420,1457,0,0
203,-433,0,0,0,0,0,0,0,0,0,-1,1427,1457,0,0
210,-433,0,0,0,0,0,0,0,0,0,-1,1434,1457,0,0
217,-433,0,0,0,0,0,0,0,0,0,-1,1441,1457,0,0
224,-433,0,0,0,0,0,0,0,0,0,-1,1448,1457,0,0
231,-433,0,0,0,0,0,0,0,0,0,-1,1455,1457,0,0
238,-433,0,0,0,0,0,0,0,0,0,-1,1462,1457,0,0
245,-433,0,0,0,0,0,0,0,0,0,-1,1469,1457,0,0
252,-433,0,0,0,0,0,0,0,0,0,-1,1476,1457,0,0
259,-433,0,0,0,0,0,0,0,0,0,-1,1483,1457,0,0
266,-433,0,0,0,0,0,0,0,0,0,-1,1490,1457,0,0
273,-433,0,0,0,0,0,0,0,0,0,-1,1497,1457,0,0
280,-433,0,0,0,0,0,0,0,0,0,-1,1504,1457,0,0
287,-433,0,0,0,0,0,0,0,0,0,-1,1511,1457,0,0
294,-433,0,0,0,0,0,0,0,0,0,-1,1518,1457,0,0
301,-433,0,0,0,0,0,0,0,0,0,-1,1525,1457,0,0
308,-433,0,0,0,0,0,0,0,0,0,-1,1532,1457,0,0
315,-433,0,0,0,0,0,0,0,0,0,-1,1539,1457,0,0
322,-433,0,0,0,0,0,0,0,0,0,-1,1546,1457,0,0
329,-433,0,0,0,0,0,0,0,0,0,-1,1553,1457,0,0
336,-433,0,0,0,0,0,0,0,0,0,-1,1560,1457,0,0
343,-433,0,0,0,0,0,0,0,0,0,-1,1567,1457,0,0
350,-433,0,0,0,0,0,0,0,0,0,-1,1574,1457,0,0
357,-433,0,0,0,0,0,0,0,0,0,-1,1581,1457,0,0
364,-433,0,0,0,0,0,0,0,0,0,-1,1588,1457,0,0
371,-433,0,0,0,0,0,0,0,0,0,-1,1595,1457,0,0
378,-433,0,0,0,0,0,0,0,0,0,-1,1602,1457,0,0
385,-433,0,0,0,0,0,0,0,0,0,-1,1609,1457,0,0
392,-433,0,0,0,0,0,0,0,0,0,-1,1616,1457,0,0
399,-433,0,0,0,0,0,0,0,0,0,-1,1623,1457,0,0
406,-433,0,0,0,0,0,0,0,0,0,-1,1630,1457,0,0
413,-433,0,0,0,0,0,0,0,0,0,-1,1637,1457,0,0
420,-433,0,0,0,0,0,0,0,0,0,-1,1644,1457,0,0
427,-433,0,0,0,0,0,0,0,0,0,-1,1651,1457,0,0
434,-433,0,0,0,0,0,0,0,0,0,-1,1658,1457,0,0
441,-433,0,0,0,0,0,0,0,0,0,-1,1665,1457,0,0
448,-433,0,0,0,0,0,0,0,0,0,-1,1672,1457,0,0
455,-433,0,0,0,0,0,0,0,0,0,-1,1679,1457,0,0
462,-433,0,0,0,0,0,0,0,0,0,-1,1686,1457,0,0
469,-433,0,0,0,0,0,0,0,0,0,-1,1693,1457,0,0
476,-433,0,0,0,0,0,0,0,0,0,-1,1700,1457,0,0
483,-433,0,0,0,0,0,0,0,0,0,-1,1707,1457,0,0
490,-433,0,0,0,0,0,0,0,0,0,-1,1714,1457,0,0
497,-433,0,0,0,0,0,0,0,0,0,-1,1721,1457,0,0
504,-433,-0.617798,-0.745117,0.00148608,-0.0157766,0.00758624,0.00434609,-0.0186366,0.360522,0.0140982,0.0403339,1728,1457,-0.617856,0.745165
511,-433,-0.305664,-0.601563,0.000221979,-0.0164271,0.00707326,0.00282122,-0.0190264,0.352156,0.0137217,0.0437593,1735,1457,-0.305621,0.601507
518,-433,-0.0689697,-0.486328,-0.000915615,-0.0162245,0.00708711,0.00186151,-0.0190016,0.373466,0.0133317,0.0450779,1742,1457,-0.0689773,0.486342
525,-433,0.292725,-1.21484,-0.00192893,-0.0155184,0.0070389,0.00105971,-0.0185071,0.401523,0.012706,0.0472935,1749,1457,0.292713,1.21484
532,-433,-0.485474,-0.822266,-0.00257405,-0.0145436,0.00699739,0.000648834,-0.0177665,0.43162,0.0120664,0.0449984,1756,1457,-0.48546,0.82221
539,-433,-1.26111,-0.40686,0,0,0,0,0,0,0,-1,1763,1457,-1.26109,0.406819
546,-433,-0.494995,-0.70105,0,0,0,0,0,0,0,-1,1770,1457,-0.495028,0.701016
553,-433,-0.433105,-0.743896,0,0,0,0,0,0,0,-1,1777,1457,-0.433156,0.743888
560,-433,0.0806885,-0.00793457,0,0,0,0,0,0,0,-1,1784,1457,0.0807188,0.0079808
567,-433,-0.201538,-0.192871,-0.00286573,-0.00718482,0.0056246,0.000999646,-0.0110502,0.602103,0.00772162,0.0459315,1791,1457,-0.201545,0.192891
574,-433,0.0148926,-0.214111,-0.00203072,-0.00551486,0.00511582,0.0016315,-0.00917708,0.621293,0.00672815,0.0481565,1798,1457,0.0149254,0.214057
581,-433,-0.0964355,-0.0489502,-0.000745548,-0.00446223,0.00436735,0.00214239,-0.00735017,0.584248,0.00574889,0.0386341,1805,1457,-0.0964639,0.0489911
588,-433,-0.0532227,0.0407715,-8.05731e-05,-0.0034249,0.00324542,0.00189814,-0.00540361,0.547517,0.00437461,0.025649,1812,1457,-0.0532739,-0.0408165
595,-433,-0.0284424,0.0883789,-0.000524619,-0.0024277,0.00215779,0.000882118,-0.00383444,0.577734,0.00289547,0.0189267,1819,1457,-0.0284118,-0.0884025
602,-433,-0.0411377,0.0839844,-0.000263037,-0.00157978,0.0015055,0.000721754,-0.00256457,0.579272,0.00199432,0.0184652,1826,1457,-0.0410893,-0.08393
609,-433,-0.0289307,0.0994873,0.000331486,-0.00120641,0.000932309,0.000771041,-0.00164596,0.440565,0.00142561,0.0144208,1833,1457,-0.0289336,-0.0995136
616,-433,-0.0404053,0.0797119,0.000668802,-0.00064585,0.000300508,0.000734236,-0.000711285,0.214399,0.000834607,0.0127305,1840,1457,-0.0404628,-0.0797359
623,-433,-0.0489502,0.0653076,0.000735019,-0.000244433,-4.29552e-05,0.000736899,-0.000246313,-0.0437444,0.000590743,0.00978023,1847,1457,-0.0489425,-0.0652865
630,-433,-0.0568848,0.0784912,0.000727794,0.000152994,-0.000358532,0.000899898,-1.91101e-05,-0.447539,0.000606402,0.0120852,1854,1457,-0.0568489,-0.0785442
637,-433,-0.0479736,0.0769043,0.000962212,0.000919848,-0.000559973,0.0015014,0.000380657,-0.766494,0.000901257,0.0127449,1861,1457,-0.0480123,-0.0769056
644,-433,-0.0466309,0.0986328,0.0014491,0.00133733,-0.000633193,0.00202887,0.000757562,-0.741383,0.00118382,0.0132731,1868,1457,-0.0466862,-0.0986316
651,-433,-0.0656738,0.0985107,0.00175777,0.00205644,-0.000601674,0.00252703,0.00128718,-0.907037,0.00145907,0.0108073,1875,1457,-0.0656315,-0.0984552
658,-433,-0.0661621,0.0635986,0.00185257,0.00342382,-0.000923226,0.00385045,0.00142594,-1.13792,0.00224784,0.0117546,1882,1457,-0.0661947,-0.0636158
665,-433,-0.0391846,0.076416,0.00237103,0.00508909,-0.000836035,0.00532565,0.00213446,-1.29505,0.00309488,0.016546,1889,1457,-0.0392013,-0.0763639
672,-433,0.00854492,0.186401,0.00301135,0.00696702,-0.000554798,0.00704336,0.00293501,-1.43406,0.00408525,0.0318729,1896,1457,0.00857315,-0.186384
679,-433,-0.306641,-0.172852,0.0036696,0.00902921,-0.000148632,0.00903332,0.00366548,-1.54309,0.00524617,0.0396978,1903,1457,-0.306635,0.172831
686,-433,0.268188,0.394165,0,0,0,0,0,0,0,-1,1910,1457,0.268168,-0.394223
693,-433,0.484619,0.53772,0.00489719,0.0151897,0.00126686,0.0153433,0.00474355,1.45011,0.00907101,0.0422636,1917,1457,0.484638,-0.5377
700,-433,0.620972,0.724365,0.00548694,0.0189518,0.00249267,0.0193984,0.0050403,1.3935,0.0116224,0.0424932,1924,1457,0.620951,-0.724395
707,-433,0.71814,0.857422,0,0,0,0,0,0,0,-1,1931,1457,0.718194,-0.857472
714,-433,0,0,0,0,0,0,0,0,0,-1,1938,1457,0,0
721,-433,0,0,0,0,0,0,0,0,0,-1,1945,1457,0,0
728,-433,0,0,0,0,0,0,0,0,0,-1,1952,1457,0,0
735,-433,0,0,0,0,0,0,0,0,0,-1,1959,1457,0,0
742,-433,0,0,0,0,0,0,0,0,0,-1,1966,1457,0,0
749,-433,0,0,0,0,0,0,0,0,0,-1,1973,1457,0,0
756,-433,0,0,0,0,0,0,0,0,0,-1,1980,1457,0,0
763,-433,0,0,0,0,0,0,0,0,0,-1,1987,1457,0,0
770,-433,0,0,0,0,0,0,0,0,0,-1,1994,1457,0,0
777,-433,0,0,0,0,0,0,0,0,0,-1,2001,1457,0,0
784,-433,0,0,0,0,0,0,0,0,0,-1,2008,1457,0,0
791,-433,0,0,0,0,0,0,0,0,0,-1,2015,1457,0,0
798,-433,0,0,0,0,0,0,0,0,0,-1,2022,1457,0,0
805,-433,0,0,0,0,0,0,0,0,0,-1,2029,1457,0,0
812,-433,0,0,0,0,0,0,0,0,0,-1,2036,1457,0,0
-700,-440,0,0,0,0,0,0,0,0,0,-1,524,1464,0,0
-693,-440,0,0,0,0,0,0,0,0,0,-1,531,1464,0,0
-686,-440,0,0,0,0,0,0,0,0,0,-1,538,1464,0,0
-679,-440,0,0,0,0,0,0,0,0,0,-1,545,1464,0,0
-672,-440,0,0,0,0,0,0,0,0,0,-1,552,1464,0,0
-665,-440,0,0,0,0,0,0,0,0,0,-1,559,1464,0,0
-658,-440,0,0,0,0,0,0,0,0,0,-1,566,1464,0,0
-651,-440,0,0,0,0,0,0,0,0,0,-1,573,1464,0,0
-644,-440,0,0,0,0,0,0,0,0,0,-1,580,1464,0,0
-637,-440,0,0,0,0,0,0,0,0,0,-1,587,1464,0,0
-630,-440,0,0,0,0,0,0,0,0,0,-1,594,1464,0,0
-623,-440,0,0,0,0,0,0,0,0,0,-1,601,1464,0,0
-616,-440,0,0,0,0,0,0,0,0,0,-1,608,1464,0,0
-609,-440,0,0,0,0,0,0,0,0,0,-1,615,1464,0,0
-602,-440,0,0,0,0,0,0,0,0,0,-1,622,1464,0,0
-595,-440,0,0,0,0,0,0,0,0,0,-1,629,1464,0,0
-588,-440,0,0,0,0,0,0,0,0,0,-1,636,1464,0,0
-581,-440,0.472595,-0.793335,0,0,0,0,0,0,0,-1,643,1464,0.472579,0.793363
-574,-440,0.387024,-0.332886,0,0,0,0,0,0,0,-1,650,1464,0.387046,0.33286
-567,-440,-0.167236,-0.076416,0,0,0,0,0,0,0,-1,657,1464,-0.167256,0.0763582
-560,-440,-0.196106,-0.197266,0,0,0,0,0,0,0,-1,664,1464,-0.196106,0.197219
-553,-440,-0.443298,0.734985,0,0,0,0,0,0,0,-1,671,1464,-0.443294,-0.73495
-546,-440,-0.0719604,0.41333,0.00731652,0.00648047,-0.00306817,0.00999502,0.00380198,-0.717693,0.00582541,0.04093,678,1464,-0.0719652,-0.413374
-539,-440,-0.114624,0.463379,0.00555674,0.00406996,-0.00152715,0.00651182,0.00311488,-0.558889,0.00376078,0.0446219,685,1464,-0.114595,-0.463427
-532,-440,-0.103699,0.304565,0.00408445,0.00169384,-8.85156e-05,0.00408772,0.00169056,-0.0369589,0.00237177,0.0332204,692,1464,-0.103691,-0.304604
-525,-440,-0.0352173,0.0698242,0.00311952,0.000283681,0.000463053,0.00319321,0.000209986,0.157827,0.00206238,0.0129757,699,1464,-0.0352475,-0.0698682
-518,-440,-0.0413208,0.071167,0.00268441,-0.000321602,0.000364593,0.002728,-0.000365191,0.11899,0.00195182,0.0110737,706,1464,-0.0413056,-0.0711405
-511,-440,-0.0267334,0.0598145,0.00257192,-0.000649679,-3.24737e-06,0.00257192,-0.000649682,-0.001008,0.00196727,0.0145441,713,1464,-0.0267447,-0.0598363
-504,-440,-0.0491943,0.0629883,0.0032835,-0.000615028,-0.000932097,0.00349489,-0.00082642,-0.223019,0.00264873,0.0172167,720,1464,-0.0491654,-0.0630075
-497,-440,-0.0502319,0.0562744,0.00372748,4.75803e-05,-0.00145944,0.00423601,-0.000460955,-0.335289,0.00298953,0.0198685,727,1464,-0.0502411,-0.0562323
-490,-440,-0.0407104,0.0494385,0.00410639,0.000204385,-0.00163353,0.00469995,-0.000389183,-0.348531,0.00327076,0.0199571,734,1464,-0.0407063,-0.0493798
-483,-440,-0.0384521,0.0543213,0.0049347,0.000277991,-0.00164058,0.00545463,-0.000241939,-0.306906,0.00371969,0.0176418,741,1464,-0.0384372,-0.0542856
-476,-440,-0.0216675,0.0238037,0.00581609,0.00190819,-0.00192045,0.00660186,0.00112242,-0.388376,0.0040789,0.0123251,748,1464,-0.0216833,-0.0238012
-469,-440,-0.0299683,0.0314941,0.00619384,0.00321756,-0.00202174,0.00721607,0.00219533,-0.468135,0.00427133,0.0115285,755,1464,-0.0299502,-0.031539
-462,-440,-0.0504761,0.0440674,0.00593136,0.00421313,-0.00161082,0.00689784,0.00324665,-0.540417,0.00398475,0.0123196,762,1464,-0.0504512,-0.0440725
-455,-440,-0.0339355,0.060791,0.00482744,0.00489552,-0.00103785,0.00589989,0.00382308,-0.801792,0.00345568,0.0123796,769,1464,-0.0339359,-0.0607838
-448,-440,-0.0494995,0.0318604,0.00265434,0.00565695,-0.000251957,0.00567794,0.00263334,-1.48766,0.00328103,0.0208875,776,1464,-0.0494765,-0.0318236
-441,-440,-0.176941,0.235962,-0.00109827,0.00617889,0.000642536,0.00623518,-0.00115457,1.4834,0.0045903,0.0330048,783,1464,-0.176955,-0.235957
-434,-440,-0.0581055,0.306641,-0.00639982,0.00654273,0.00178632,0.00678475,-0.00664184,1.43613,0.00775199,0.0382172,790,1464,-0.05808,-0.306581
-427,-440,1.20099,-1.02039,0,0,0,0,0,0,0,-1,797,1464,1.20101,1.02033
-420,-440,0.937927,-0.565308,-0.0209836,0.00571143,0.00455366,0.00646683,-0.021739,1.40641,0.0170618,0.0409431,804,1464,0.9379,0.565256
-413,-440,0.581482,-0.109375,-0.031114,0.00453074,0.00598074,0.00550747,-0.0320907,1.40891,0.0234463,0.0436682,811,1464,0.581474,0.109375
-406,-440,-0.0330811,0.348267,-0.0432666,0.00233247,0.00741133,0.0035068,-0.044441,1.41365,0.0308627,0.0435311,818,1464,-0.0330797,-0.348238
-399,-440,-0.802612,0.505249,-0.0553218,-0.00139602,0.00763449,-0.000336012,-0.0563818,1.43283,0.0374764,0.0466895,825,1464,-0.802634,-0.505301
-392,-440,-1.63153,0.527954,-0.0659304,-0.00766455,0.00680067,-0.00688132,-0.0667136,1.45613,0.0423687,0.0486766,832,1464,-1.63155,-0.52798
-385,-440,-2.4588,0.519775,0,0,0,0,0,0,0,-1,839,1464,-2.4588,-0.519814
-378,-440,-0.445984,-0.233154,0,0,0,0,0,0,0,-1,846,1464,-0.44596,0.233101
-371,-440,0,0,0,0,0,0,0,0,0,-1,853,1464,0,0
-364,-440,0,0,0,0,0,0,0,0,0,-1,860,1464,0,0
-357,-440,0,0,0,0,0,0,0,0,0,-1,867,1464,0,0
-350,-440,0,0,0,0,0,0,0,0,0,-1,874,1464,0,0
-343,-440,0,0,0,0,0,0,0,0,0,-1,881,1464,0,0
-336,-440,0,0,0,0,0,0,0,0,0,-1,888,1464,0,0
-329,-440,0,0,0,0,0,0,0,0,0,-1,895,1464,0,0
-322,-440,0,0,0,0,0,0,0,0,0,-1,902,1464,0,0
-315,-440,0,0,0,0,0,0,0,0,0,-1,909,1464,0,0
-308,-440,0,0,0,0,0,0,0,0,0,-1,916,1464,0,0
-301,-440,0,0,0,0,0,0,0,0,0,-1,923,1464,0,0
-294,-440,0,0,0,0,0,0,0,0,0,-1,930,1464,0,0
-287,-440,0,0,0,0,0,0,0,0,0,-1,937,1464,0,0
-280,-440,0,0,0,0,0,0,0,0,0,-1,944,1464,0,0
-273,-440,0,0,0,0,0,0,0,0,0,-1,951,1464,0,0
-266,-440,0,0,0,0,0,0,0,0,0,-1,958,1464,0,0
-259,-440,0,0,0,0,0,0,0,0,0,-1,965,1464,0,0
-252,-440,0,0,0,0,0,0,0,0,0,-1,972,1464,0,0
-245,-440,0,0,0,0,0,0,0,0,0,-1,979,1464,0,0
-238,-440,0,0,0,0,0,0,0,0,0,-1,986,1464,0,0
-231,-440,0,0,0,0,0,0,0,0,0,-1,993,1464,0,0
-224,-440,0,0,0,0,0,0,0,0,0,-1,1000,1464,0,0
-217,-440,0,0,0,0,0,0,0,0,0,-1,1007,1464,0,0
-210,-440,0,0,0,0,0,0,0,0,0,-1,1014,1464,0,0
-203,-440,0,0,0,0,0,0,0,0,0,-1,1021,1464,0,0
-196,-440,0,0,0,0,0,0,0,0,0,-1,1028,1464,0,0
-189,-440,0,0,0,0,0,0,0,0,0,-1,1035,1464,0,0
-182,-440,0,0,0,0,0,0,0,0,0,-1,1042,1464,0,0
-175,-440,0,0,0,0,0,0,0,0,0,-1,1049,1464,0,0
-168,-440,0,0,0,0,0,0,0,0,0,-1,1056,1464,0,0
-161,-440,0,0,0,0,0,0,0,0,0,-1,1063,1464,0,0
-154,-440,0,0,0,0,0,0,0,0,0,-1,1070,1464,0,0
-147,-440,0,0,0,0,0,0,0,0,0,-1,1077,1464,0,0
-140,-440,0,0,0,0,0,0,0,0,0,-1,1084,1464,0,0
-133,-440,0,0,0,0,0,0,0,0,0,-1,1091,1464,0,0
-126,-440,0,0,0,0,0,0,0,0,0,-1,1098,1464,0,0
-119,-440,0,0,0,0,0,0,0,0,0,-1,1105,1464,0,0
-112,-440,0,0,0,0,0,0,0,0,0,-1,1112,1464,0,0
-105,-440,0,0,0,0,0,0,0,0,0,-1,1119,1464,0,0
-98,-440,0,0,0,0,0,0,0,0,0,-1,1126,1464,0,0
-91,-440,0,0,0,0,0,0,0,0,0,-1,1133,1464,0,0
-84,-440,0,0,0,0,0,0,0,0,0,-1,1140,1464,0,0
-77,-440,0,0,0,0,0,0,0,0,0,-1,1147,1464,0,0
-70,-440,0,0,0,0,0,0,0,0,0,-1,1154,1464,0,0
-63,-440,0,0,0,0,0,0,0,0,0,-1,1161,1464,0,0
-56,-440,0,0,0,0,0,0,0,0,0,-1,1168,1464,0,0
-49,-440,0,0,0,0,0,0,0,0,0,-1,1175,1464,0,0
-42,-440,0,0,0,0,0,0,0,0,0,-1,1182,1464,0,0
-35,-440,0,0,0,0,0,0,0,0,0,-1,1189,1464,0,0
-28,-440,0,0,0,0,0,0,0,0,0,-1,1196,1464,0,0
-21,-440,0,0,0,0,0,0,0,0,0,-1,1203,1464,0,0
-14,-440,0,0,0,0,0,0,0,0,0,-1,1210,1464,0,0
-7,-440,0,0,0,0,0,0,0,0,0,-1,1217,1464,0,0
0,-440,0,0,0,0,0,0,0,0,0,-1,1224,1464,0,0
7,-440,0,0,0,0,0,0,0,0,0,-1,1231,1464,0,0
14,-440,0,0,0,0,0,0,0,0,0,-1,1238,1464,0,0
21,-440,0,0,0,0,0,0,0,0,0,-1,1245,1464,0,0
28,-440,0,0,0,0,0,0,0,0,0,-1,1252,1464,0,0
35,-440,0,0,0,0,0,0,0,0,0,-1,1259,1464,0,0
42,-440,0,0,0,0,0,0,0,0,0,-1,1266,1464,0,0
49,-440,0,0,0,0,0,0,0,0,0,-1,1273,1464,0,0
56,-440,0,0,0,0,0,0,0,0,0,-1,1280,1464,0,0
63,-440,0,0,0,0,0,0,0,0,0,-1,1287,1464,0,0
70,-440,0,0,0,0,0,0,0,0,0,-1,1294,1464,0,0
77,-440,0,0,0,0,0,0,0,0,0,-1,1301,1464,0,0
84,-440,0,0,0,0,0,0,0,0,0,-1,1308,1464,0,0
91,-440,0,0,0,0,0,0,0,0,0,-1,1315,1464,0,0
98,-440,0,0,0,0,0,0,0,0,0,-1,1322,1464,0,0
105,-440,0,0,0,0,0,0,0,0,0,-1,1329,1464,0,0
112,-440,0,0,0,0,0,0,0,0,0,-1,1336,1464,0,0
119,-440,0,0,0,0,0,0,0,0,0,-1,1343,1464,0,0
126,-440,0,0,0,0,0,0,0,0,0,-1,1350,1464,0,0
133,-440,0,0,0,0,0,0,0,0,0,-1,1357,1464,0,0
140,-440,0,0,0,0,0,0,0,0,0,-1,1364,1464,0,0
147,-440,0,0,0,0,0,0,0,0,0,-1,1371,1464,0,0
154,-440,0,0,0,0,0,0,0,0,0,-1,1378,1464,0,0
161,-440,0,0,0,0,0,0,0,0,0,-1,1385,1464,0,0
168,-440,0,0,0,0,0,0,0,0,0,-1,1392,1464,0,0
175,-440,0,0,0,0,0,0,0,0,0,-1,1399,1464,0,0
182,-440,0,0,0,0,0,0,0,0,0,-1,1406,1464,0,0
189,-440,0,0,0,0,0,0,0,0,0,-1,1413,1464,0,0
196,-440,0,0,0,0,0,0,0,0,0,-1,1420,1464,0,0
203,-440,0,0,0,0,0,0,0,0,0,-1,1427,1464,0,0
210,-440,0,0,0,0,0,0,0,0,0,-1,1434,1464,0,0
217,-440,0,0,0,0,0,0,0,0,0,-1,1441,1464,0,0
224,-440,0,0,0,0,0,0,0,0,0,-1,1448,1464,0,0
231,-440,0,0,0,0,0,0,0,0,0,-1,1455,1464,0,0
238,-440,0,0,0,0,0,0,0,0,0,-1,1462,1464,0,0
245,-440,0,0,0,0,0,0,0,0,0,-1,1469,1464,0,0
252,-440,0,0,0,0,0,0,0,0,0,-1,1476,1464,0,0
259,-440,0,0,0,0,0,0,0,0,0,-1,1483,1464,0,0
266,-440,0,0,0,0,0,0,0,0,0,-1,1490,1464,0,0
273,-440,0,0,0,0,0,0,0,0,0,-1,1497,1464,0,0
280,-440,0,0,0,0,0,0,0,0,0,-1,1504,1464,0,0
287,-440,0,0,0,0,0,0,0,0,0,-1,1511,1464,0,0
294,-440,0,0,0,0,0,0,0,0,0,-1,1518,1464,0,0
301,-440,0,0,0,0,0,0,0,0,0,-1,1525,1464,0,0
308,-440,0,0,0,0,0,0,0,0,0,-1,1532,1464,0,0
315,-440,0,0,0,0,0,0,0,0,0,-1,1539,1464,0,0
322,-440,0,0,0,0,0,0,0,0,0,-1,1546,1464,0,0
329,-440,0,0,0,0,0,0,0,0,0,-1,1553,1464,0,0
336,-440,0,0,0,0,0,0,0,0,0,-1,1560,1464,0,0
343,-440,0,0,0,0,0,0,0,0,0,-1,1567,1464,0,0
350,-440,0,0,0,0,0,0,0,0,0,-1,1574,1464,0,0
357,-440,0,0,0,0,0,0,0,0,0,-1,1581,1464,0,0
364,-440,0,0,0,0,0,0,0,0,0,-1,1588,1464,0,0
371,-440,0,0,0,0,0,0,0,0,0,-1,1595,1464,0,0
378,-440,0,0,0,0,0,0,0,0,0,-1,1602,1464,0,0
385,-440,0,0,0,0,0,0,0,0,0,-1,1609,1464,0,0
392,-440,0,0,0,0,0,0,0,0,0,-1,1616,1464,0,0
399,-440,0,0,0,0,0,0,0,0,0,-1,1623,1464,0,0
406,-440,0,0,0,0,0,0,0,0,0,-1,1630,1464,0,0
413,-440,0,0,0,0,0,0,0,0,0,-1,1637,1464,0,0
420,-440,0,0,0,0,0,0,0,0,0,-1,1644,1464,0,0
427,-440,0,0,0,0,0,0,0,0,0,-1,1651,1464,0,0
434,-440,0,0,0,0,0,0,0,0,0,-1,1658,1464,0,0
441,-440,0,0,0,0,0,0,0,0,0,-1,1665,1464,0,0
448,-440,0,0,0,0,0,0,0,0,0,-1,1672,1464,0,0
455,-440,0,0,0,0,0,0,0,0,0,-1,1679,1464,0,0
462,-440,0,0,0,0,0,0,0,0,0,-1,1686,1464,0,0
469,-440,0,0,0,0,0,0,0,0,0,-1,1693,1464,0,0
476,-440,0,0,0,0,0,0,0,0,0,-1,1700,1464,0,0
483,-440,0,0,0,0,0,0,0,0,0,-1,1707,1464,0,0
490,-440,0,0,0,0,0,0,0,0,0,-1,1714,1464,0,0
497,-440,-0.7229,-0.613525,0.00091637,-0.0145262,0.00644893,0.00325525,-0.016865,0.347924,0.0124709,0.0404491,1721,1464,-0.722925,0.6135
504,-440,-0.569702,-0.780884,0.000234033,-0.0158142,0.0047582,0.00153873,-0.0171189,0.267623,0.0119586,0.0429325,1728,1464,-0.569728,0.780861
511,-440,-0.335571,-0.938721,-0.000904263,-0.0162553,0.00435275,0.000244053,-0.0174036,0.257937,0.0116846,0.0461876,1735,1464,-0.335526,0.938773
518,-440,-0.120972,-1.37134,0,0,0,0,0,0,0,-1,1742,1464,-0.120973,1.37129
525,-440,0.122925,-1.12634,-0.00251789,-0.01505,0.00448738,-0.0010768,-0.0164911,0.310739,0.0106533,0.0480265,1749,1464,0.12293,1.12637
532,-440,-0.490356,-0.740479,-0.00286212,-0.0140667,0.00470888,-0.00114599,-0.0157828,0.349485,0.0101614,0.0436914,1756,1464,-0.490305,0.740462
539,-440,-0.588745,-0.420166,-0.00298981,-0.0126071,0.00492608,-0.000914461,-0.0146824,0.398731,0.00949815,0.0442828,1763,1464,-0.588755,0.420112
546,-440,-0.524658,-0.434937,-0.00291927,-0.0110516,0.00502751,-0.00051941,-0.0134515,0.44536,0.00879965,0.0425676,1770,1464,-0.524707,0.43491
553,-440,0.0654297,-0.201294,0,0,0,0,0,0,0,-1,1777,1464,0.0654689,0.201323
560,-440,0.0354004,-0.0819092,-0.00282651,-0.0080397,0.00500366,0.00020878,-0.011075,0.545269,0.0074539,0.0438182,1784,1464,0.0353533,0.0818895
567,-440,0.0675049,0.131592,-0.00256522,-0.00683708,0.00462063,0.000389272,-0.00979157,0.568898,0.00666126,0.0471309,1791,1464,0.0674538,-0.131557
574,-440,0.0235596,0.109375,-0.0016879,-0.00526689,0.00431878,0.00119745,-0.00815223,0.588989,0.00587479,0.0456869,1798,1464,0.0235578,-0.109392
581,-440,-0.0157471,0.0450439,-0.000363746,-0.00424214,0.00375558,0.00192375,-0.00652963,0.547077,0.00511635,0.0296197,1805,1464,-0.0157613,-0.0450778
588,-440,-0.0463867,0.0799561,0.000316236,-0.00330102,0.00280877,0.00184831,-0.0048331,0.499353,0.00398375,0.0186505,1812,1464,-0.0464062,-0.079979
595,-440,-0.0423584,0.103516,-0.000124327,-0.0024021,0.0018256,0.000888503,-0.00341493,0.506515,0.00262343,0.0168502,1819,1464,-0.0424186,-0.103531
602,-440,-0.0313721,0.0976563,-3.03507e-06,-0.0015831,0.00123056,0.000669271,-0.0022554,0.50003,0.0017694,0.0170632,1826,1464,-0.0313932,-0.0976833
609,-440,-0.0478516,0.0966797,0.000470469,-0.00118282,0.000733164,0.000748755,-0.00146111,0.36277,0.00129777,0.0144335,1833,1464,-0.047898,-0.0966809
616,-440,-0.0678711,0.10022,0.000787777,-0.000715692,0.00022074,0.000819516,-0.000747431,0.142806,0.000904996,0.0157055,1840,1464,-0.0678841,-0.100172
623,-440,-0.0628662,0.0708008,0.000867393,-0.000367034,-8.9611e-05,0.000873864,-0.000373505,-0.0720895,0.00073923,0.0116801,1847,1464,-0.0628424,-0.0707439
630,-440,-0.0614014,0.0616455,0.000856892,-3.28197e-05,-0.000389657,0.00100342,-0.000179343,-0.359674,0.000736044,0.00919334,1854,1464,-0.061375,-0.0615904
637,-440,-0.0725098,0.0880127,0.00107743,0.000669988,-0.000599117,0.00150652,0.000240904,-0.621512,0.000934452,0.0127787,1861,1464,-0.0725028,-0.0880509
644,-440,-0.0617676,0.101074,0.001609,0.00106179,-0.000662177,0.00205187,0.000618919,-0.589484,0.00121533,0.0129957,1868,1464,-0.0617482,-0.101025
651,-440,-0.046875,0.0924072,0.00202269,0.00179996,-0.000593508,0.00251519,0.00130746,-0.692659,0.00145253,0.0112606,1875,1464,-0.0468987,-0.0924189
658,-440,-0.0429688,0.0644531,0.00223413,0.00312186,-0.000888413,0.00367112,0.00168487,-1.01707,0.0021219,0.0139414,1882,1464,-0.042942,-0.0644536
665,-440,-0.00537109,0.0490723,0.00280378,0.00482036,-0.000816553,0.00510953,0.00251461,-1.23044,0.00295011,0.0277738,1889,1464,-0.00538596,-0.0490543
672,-440,0.0622559,0.268799,0.00346377,0.00685653,-0.000517145,0.0069336,0.0033867,-1.42284,0.00400347,0.0407464,1896,1464,0.0622994,-0.268843
679,-440,0.00683594,0.357544,0.00411686,0.0092501,-3.08628e-05,0.00925029,0.00411668,-1.56478,0.0053514,0.0446024,1903,1464,0.00689239,-0.357546
686,-440,0.0742188,0.29248,0.00471155,0.0124925,0.000698316,0.0125547,0.00464938,1.48199,0.00732924,0.0429759,1910,1464,0.0742186,-0.292424
693,-440,0.313721,0.277588,0.00519291,0.0163912,0.00184831,0.0166884,0.00489572,1.41137,0.00990551,0.0454939,1917,1464,0.313749,-0.277622
700,-440,0.129639,0.335938,0.0055928,0.020854,0.00358739,0.0216552,0.0047916,1.35106,0.0131342,0.0417293,1924,1464,0.129603,-0.335991
707,-440,0,0,0,0,0,0,0,0,0,-1,1931,1464,0,0
714,-440,0,0,0,0,0,0,0,0,0,-1,1938,1464,0,0
721,-440,0,0,0,0,0,0,0,0,0,-1,1945,1464,0,0
728,-440,0,0,0,0,0,0,0,0,0,-1,1952,1464,0,0
735,-440,0,0,0,0,0,0,0,0,0,-1,1959,1464,0,0
742,-440,0,0,0,0,0,0,0,0,0,-1,1966,1464,0,0
749,-440,0,0,0,0,0,0,0,0,0,-1,1973,1464,0,0
756,-440,0,0,0,0,0,0,0,0,0,-1,1980,1464,0,0
763,-440,0,0,0,0,0,0,0,0,0,-1,1987,1464,0,0
770,-440,0,0,0,0,0,0,0,0,0,-1,1994,1464,0,0
777,-440,0,0,0,0,0,0,0,0,0,-1,2001,1464,0,0
784,-440,0,0,0,0,0,0,0,0,0,-1,2008,1464,0,0
791,-440,0,0,0,0,0,0,0,0,0,-1,2015,1464,0,0
798,-440,0,0,0,0,0,0,0,0,0,-1,2022,1464,0,0
805,-440,0,0,0,0,0,0,0,0,0,-1,2029,1464,0,0
812,-440,0,0,0,0,0,0,0,0,0,-1,2036,1464,0,0
-700,-447,0,0,0,0,0,0,0,0,0,-1,524,1471,0,0
-693,-447,0,0,0,0,0,0,0,0,0,-1,531,1471,0,0
-686,-447,0,0,0,0,0,0,0,0,0,-1,538,1471,0,0
-679,-447,0,0,0,0,0,0,0,0,0,-1,545,1471,0,0
-672,-447,0,0,0,0,0,0,0,0,0,-1,552,1471,0,0
-665,-447,0,0,0,0,0,0,0,0,0,-1,559,1471,0,0
-658,-447,0,0,0,0,0,0,0,0,0,-1,566,1471,0,0
-651,-447,0,0,0,0,0,0,0,0,0,-1,573,1471,0,0
-644,-447,0,0,0,0,0,0,0,0,0,-1,580,1471,0,0
-637,-447,0,0,0,0,0,0,0,0,0,-1,587,1471,0,0
-630,-447,0,0,0,0,0,0,0,0,0,-1,594,1471,0,0
-623,-447,0,0,0,0,0,0,0,0,0,-1,601,1471,0,0
-616,-447,0,0,0,0,0,0,0,0,0,-1,608,1471,0,0
-609,-447,0,0,0,0,0,0,0,0,0,-1,615,1471,0,0
-602,-447,0,0,0,0,0,0,0,0,0,-1,622,1471,0,0
-595,-447,0,0,0,0,0,0,0,0,0,-1,629,1471,0,0
-588,-447,0,0,0,0,0,0,0,0,0,-1,636,1471,0,0
-581,-447,-0.985718,0.363647,0,0,0,0,0,0,0,-1,643,1471,-0.985743,-0.363656
-574,-447,-0.345703,-0.344238,0,0,0,0,0,0,0,-1,650,1471,-0.345718,0.344299
-567,-447,-0.34259,-0.556641,0,0,0,0,0,0,0,-1,657,1471,-0.342568,0.55665
-560,-447,-0.353821,-0.338135,0.0144958,0.00770871,-0.0110336,0.0226459,-0.000441439,-0.636207,0.0152466,0.0433055,664,1471,-0.35382,0.338122
-553,-447,-0.277954,0.0192871,0.0109372,0.00539942,-0.0069247,0.015626,0.000710537,-0.595208,0.0101888,0.0410097,671,1471,-0.277946,-0.0193058
-546,-447,-0.248779,0.355347,0.00844524,0.0034117,-0.0041957,0.0108211,0.00103582,-0.515245,0.00689479,0.0422017,678,1471,-0.248789,-0.355406
-539,-447,-0.184875,0.435059,0.00667903,0.00180851,-0.00248688,0.00772443,0.000763105,-0.397942,0.00491504,0.0445982,685,1471,-0.184887,-0.435061
-532,-447,-0.106201,0.294312,0.0051907,5.22254e-05,-0.000894873,0.00534208,-9.91584e-05,-0.167581,0.0035949,0.0396169,692,1471,-0.106228,-0.294257
-525,-447,-0.0441895,0.0904541,0.00418009,-0.000932327,-0.000151354,0.00418457,-0.000936804,-0.0295706,0.00314878,0.0232911,699,1471,-0.0441753,-0.0904751
-518,-447,-0.0390625,0.0643311,0.0036151,-0.00127291,-3.04112e-05,0.00361529,-0.0012731,-0.00622127,0.00292831,0.0138535,706,1471,-0.0390604,-0.0643029
-511,-447,-0.036499,0.0552979,0.00319563,-0.00138296,-0.000204692,0.00320476,-0.00139209,-0.0445879,0.0027219,0.01505,713,1471,-0.0365042,-0.0553483
-504,-447,-0.0646973,0.0775146,0.00342704,-0.00144331,-0.000688173,0.00352241,-0.00153868,-0.137708,0.00299591,0.0186157,720,1471,-0.0647017,-0.0774883
-497,-447,-0.0422363,0.0910645,0.00338444,-0.000992068,-0.000828958,0.00353619,-0.00114382,-0.181059,0.00281723,0.0227193,727,1471,-0.042242,-0.0911031
-490,-447,-0.0282593,0.0667725,0.00336397,-0.00111888,-0.000767427,0.00349171,-0.00124662,-0.164937,0.00283619,0.0224349,734,1471,-0.0282506,-0.066832
-483,-447,-0.0554199,0.0552979,0.0037499,-0.00126741,-0.000585424,0.00381731,-0.00133482,-0.114629,0.00308753,0.0197279,741,1471,-0.0554065,-0.0552522
-476,-447,-0.0258179,0.0270996,0.00415042,8.13199e-05,-0.000631328,0.00424612,-1.43813e-05,-0.150441,0.00283555,0.0140753,748,1471,-0.0258267,-0.0271178
-469,-447,-0.0349121,0.0308838,0.00409832,0.00115456,-0.000492854,0.00417865,0.00107424,-0.161556,0.00250566,0.0123732,755,1471,-0.0349041,-0.0309064
-462,-447,-0.0421753,0.0518799,0.00357766,0.00191821,7.15621e-05,0.00358074,0.00191513,0.0430177,0.00206901,0.0130109,762,1471,-0.04216,-0.0518692
-455,-447,-0.0501099,0.081665,0.00236452,0.00244135,0.000737811,0.00314174,0.00166412,0.811409,0.00181495,0.0121776,769,1471,-0.0501284,-0.0816125
-448,-447,-0.0491333,0.0692139,0.000196511,0.00311541,0.00154827,0.00378367,-0.000471742,1.16334,0.0026935,0.0145912,776,1471,-0.0491566,-0.0692154
-441,-447,-0.0912476,0.086792,-0.00328657,0.00366763,0.00238058,0.00440448,-0.00402342,1.27062,0.00486751,0.0245553,783,1471,-0.0912394,-0.0867816
-434,-447,0.0314331,0.221313,-0.00800597,0.00420295,0.00333865,0.0050563,-0.00885932,1.32056,0.00813358,0.0341422,790,1471,0.0314628,-0.221276
-427,-447,0.0596924,0.358276,-0.0135111,0.00478437,0.00422372,0.00571239,-0.0144391,1.35452,0.0119926,0.0374338,797,1471,0.0596841,-0.358223
-420,-447,0.488281,-0.200684,0,0,0,0,0,0,0,-1,804,1471,0.488265,0.20069
-413,-447,0.346924,-0.114258,-0.0289894,0.00369938,0.00660487,0.00498348,-0.0302735,1.37878,0.0220322,0.0444631,811,1471,0.346913,0.114265
-406,-447,0.126282,0.354736,-0.0391721,0.00244741,0.00771086,0.00383007,-0.0405548,1.39337,0.0283994,0.0428022,818,1471,0.126296,-0.35472
-399,-447,-0.627502,0.548218,-0.0479685,0.00100129,0.00668147,0.00189655,-0.0488637,1.4376,0.0332261,0.0446049,825,1471,-0.627512,-0.548193
-392,-447,-1.26636,0.61499,-0.0548483,-0.00353275,0.00473082,-0.00310026,-0.0552808,1.47963,0.0358651,0.0487757,832,1471,-1.26634,-0.61496
-385,-447,-2.18127,0.866821,-0.0592053,-0.0118,0.00116102,-0.0117716,-0.0592337,1.54632,0.0362088,0.0486796,839,1471,-2.18125,-0.866841
-378,-447,-2.96136,0.952881,0,0,0,0,0,0,0,-1,846,1471,-2.96139,-0.952892
-371,-447,-1.07458,0.858643,0,0,0,0,0,0,0,-1,853,1471,-1.07456,-0.858701
-364,-447,0,0,0,0,0,0,0,0,0,-1,860,1471,0,0
-357,-447,0,0,0,0,0,0,0,0,0,-1,867,1471,0,0
-350,-447,0,0,0,0,0,0,0,0,0,-1,874,1471,0,0
-343,-447,0,0,0,0,0,0,0,0,0,-1,881,1471,0,0
-336,-447,0,0,0,0,0,0,0,0,0,-1,888,1471,0,0
-329,-447,0,0,0,0,0,0,0,0,0,-1,895,1471,0,0
-322,-447,0,0,0,0,0,0,0,0,0,-1,902,1471,0,0
-315,-447,0,0,0,0,0,0,0,0,0,-1,909,1471,0,0
-308,-447,0,0,0,0,0,0,0,0,0,-1,916,1471,0,0
-301,-447,0,0,0,0,0,0,0,0,0,-1,923,1471,0,0
-294,-447,0,0,0,0,0,0,0,0,0,-1,930,1471,0,0
-287,-447,0,0,0,0,0,0,0,0,0,-1,937,1471,0,0
-280,-447,0,0,0,0,0,0,0,0,0,-1,944,1471,0,0
-273,-447,0,0,0,0,0,0,0,0,0,-1,951,1471,0,0
-266,-447,0,0,0,0,0,0,0,0,0,-1,958,1471,0,0
-259,-447,0,0,0,0,0,0,0,0,0,-1,965,1471,0,0
-252,-447,0,0,0,0,0,0,0,0,0,-1,972,1471,0,0
-245,-447,0,0,0,0,0,0,0,0,0,-1,979,1471,0,0
-238,-447,0,0,0,0,0,0,0,0,0,-1,986,1471,0,0
-231,-447,0,0,0,0,0,0,0,0,0,-1,993,1471,0,0
-224,-447,0,0,0,0,0,0,0,0,0,-1,1000,1471,0,0
-217,-447,0,0,0,0,0,0,0,0,0,-1,1007,1471,0,0
-210,-447,0,0,0,0,0,0,0,0,0,-1,1014,1471,0,0
-203,-447,0,0,0,0,0,0,0,0,0,-1,1021,1471,0,0
-196,-447,0,0,0,0,0,0,0,0,0,-1,1028,1471,0,0
-189,-447,0,0,0,0,0,0,0,0,0,-1,1035,1471,0,0
-182,-447,0,0,0,0,0,0,0,0,0,-1,1042,1471,0,0
-175,-447,0,0,0,0,0,0,0,0,0,-1,1049,1471,0,0
-168,-447,0,0,0,0,0,0,0,0,0,-1,1056,1471,0,0
-161,-447,0,0,0,0,0,0,0,0,0,-1,1063,1471,0,0
-154,-447,0,0,0,0,0,0,0,0,0,-1,1070,1471,0,0
-147,-447,0,0,0,0,0,0,0,0,0,-1,1077,1471,0,0
-140,-447,0,0,0,0,0,0,0,0,0,-1,1084,1471,0,0
-133,-447,0,0,0,0,0,0,0,0,0,-1,1091,1471,0,0
-126,-447,0,0,0,0,0,0,0,0,0,-1,1098,1471,0,0
-119,-447,0,0,0,0,0,0,0,0,0,-1,1105,1471,0,0
-112,-447,0,0,0,0,0,0,0,0,0,-1,1112,1471,0,0
-105,-447,0,0,0,0,0,0,0,0,0,-1,1119,1471,0,0
-98,-447,0,0,0,0,0,0,0,0,0,-1,1126,1471,0,0
-91,-447,0,0,0,0,0,0,0,0,0,-1,1133,1471,0,0
-84,-447,0,0,0,0,0,0,0,0,0,-1,1140,1471,0,0
-77,-447,0,0,0,0,0,0,0,0,0,-1,1147,1471,0,0
-70,-447,0,0,0,0,0,0,0,0,0,-1,1154,1471,0,0
-63,-447,0,0,0,0,0,0,0,0,0,-1,1161,1471,0,0
-56,-447,0,0,0,0,0,0,0,0,0,-1,1168,1471,0,0
-49,-447,0,0,0,0,0,0,0,0,0,-1,1175,1471,0,0
-42,-447,0,0,0,0,0,0,0,0,0,-1,1182,1471,0,0
-35,-447,0,0,0,0,0,0,0,0,0,-1,1189,1471,0,0
-28,-447,0,0,0,0,0,0,0,0,0,-1,1196,1471,0,0
-21,-447,0,0,0,0,0,0,0,0,0,-1,1203,1471,0,0
-14,-447,0,0,0,0,0,0,0,0,0,-1,1210,1471,0,0
-7,-447,0,0,0,0,0,0,0,0,0,-1,1217,1471,0,0
0,-447,0,0,0,0,0,0,0,0,0,-1,1224,1471,0,0
7,-447,0,0,0,0,0,0,0,0,0,-1,1231,1471,0,0
14,-447,0,0,0,0,0,0,0,0,0,-1,1238,1471,0,0
21,-447,0,0,0,0,0,0,0,0,0,-1,1245,1471,0,0
28,-447,0,0,0,0,0,0,0,0,0,-1,1252,1471,0,0
35,-447,0,0,0,0,0,0,0,0,0,-1,1259,1471,0,0
42,-447,0,0,0,0,0,0,0,0,0,-1,1266,1471,0,0
49,-447,0,0,0,0,0,0,0,0,0,-1,1273,1471,0,0
56,-447,0,0,0,0,0,0,0,0,0,-1,1280,1471,0,0
63,-447,0,0,0,0,0,0,0,0,0,-1,1287,1471,0,0
70,-447,0,0,0,0,0,0,0,0,0,-1,1294,1471,0,0
77,-447,0,0,0,0,0,0,0,0,0,-1,1301,1471,0,0
84,-447,0,0,0,0,0,0,0,0,0,-1,1308,1471,0,0
91,-447,0,0,0,0,0,0,0,0,0,-1,1315,1471,0,0
98,-447,0,0,0,0,0,0,0,0,0,-1,1322,1471,0,0
105,-447,0,0,0,0,0,0,0,0,0,-1,1329,1471,0,0
112,-447,0,0,0,0,0,0,0,0,0,-1,1336,1471,0,0
119,-447,0,0,0,0,0,0,0,0,0,-1,1343,1471,0,0
126,-447,0,0,0,0,0,0,0,0,0,-1,1350,1471,0,0
133,-447,0,0,0,0,0,0,0,0,0,-1,1357,1471,0,0
140,-447,0,0,0,0,0,0,0,0,0,-1,1364,1471,0,0
147,-447,0,0,0,0,0,0,0,0,0,-1,1371,1471,0,0
154,-447,0,0,0,0,0,0,0,0,0,-1,1378,1471,0,0
161,-447,0,0,0,0,0,0,0,0,0,-1,1385,1471,0,0
168,-447,0,0,0,0,0,0,0,0,0,-1,1392,1471,0,0
175,-447,0,0,0,0,0,0,0,0,0,-1,1399,1471,0,0
182,-447,0,0,0,0,0,0,0,0,0,-1,1406,1471,0,0
189,-447,0,0,0,0,0,0,0,0,0,-1,1413,1471,0,0
196,-447,0,0,0,0,0,0,0,0,0,-1,1420,1471,0,0
203,-447,0,0,0,0,0,0,0,0,0,-1,1427,1471,0,0
210,-447,0,0,0,0,0,0,0,0,0,-1,1434,1471,0,0
217,-447,0,0,0,0,0,0,0,0,0,-1,1441,1471,0,0
224,-447,0,0,0,0,0,0,0,0,0,-1,1448,1471,0,0
231,-447,0,0,0,0,0,0,0,0,0,-1,1455,1471,0,0
238,-447,0,0,0,0,0,0,0,0,0,-1,1462,1471,0,0
245,-447,0,0,0,0,0,0,0,0,0,-1,1469,1471,0,0
252,-447,0,0,0,0,0,0,0,0,0,-1,1476,1471,0,0
259,-447,0,0,0,0,0,0,0,0,0,-1,1483,1471,0,0
266,-447,0,0,0,0,0,0,0,0,0,-1,1490,1471,0,0
273,-447,0,0,0,0,0,0,0,0,0,-1,1497,1471,0,0
280,-447,0,0,0,0,0,0,0,0,0,-1,1504,1471,0,0
287,-447,0,0,0,0,0,0,0,0,0,-1,1511,1471,0,0
294,-447,0,0,0,0,0,0,0,0,0,-1,1518,1471,0,0
301,-447,0,0,0,0,0,0,0,0,0,-1,1525,1471,0,0
308,-447,0,0,0,0,0,0,0,0,0,-1,1532,1471,0,0
315,-447,0,0,0,0,0,0,0,0,0,-1,1539,1471,0,0
322,-447,0,0,0,0,0,0,0,0,0,-1,1546,1471,0,0
329,-447,0,0,0,0,0,0,0,0,0,-1,1553,1471,0,0
336,-447,0,0,0,0,0,0,0,0,0,-1,1560,1471,0,0
343,-447,0,0,0,0,0,0,0,0,0,-1,1567,1471,0,0
350,-447,0,0,0,0,0,0,0,0,0,-1,1574,1471,0,0
357,-447,0,0,0,0,0,0,0,0,0,-1,1581,1471,0,0
364,-447,0,0,0,0,0,0,0,0,0,-1,1588,1471,0,0
371,-447,0,0,0,0,0,0,0,0,0,-1,1595,1471,0,0
378,-447,0,0,0,0,0,0,0,0,0,-1,1602,1471,0,0
385,-447,0,0,0,0,0,0,0,0,0,-1,1609,1471,0,0
392,-447,0,0,0,0,0,0,0,0,0,-1,1616,1471,0,0
399,-447,0,0,0,0,0,0,0,0,0,-1,1623,1471,0,0
406,-447,0,0,0,0,0,0,0,0,0,-1,1630,1471,0,0
413,-447,0,0,0,0,0,0,0,0,0,-1,1637,1471,0,0
420,-447,0,0,0,0,0,0,0,0,0,-1,1644,1471,0,0
427,-447,0,0,0,0,0,0,0,0,0,-1,1651,1471,0,0
434,-447,0,0,0,0,0,0,0,0,0,-1,1658,1471,0,0
441,-447,0,0,0,0,0,0,0,0,0,-1,1665,1471,0,0
448,-447,0,0,0,0,0,0,0,0,0,-1,1672,1471,0,0
455,-447,0,0,0,0,0,0,0,0,0,-1,1679,1471,0,0
462,-447,0,0,0,0,0,0,0,0,0,-1,1686,1471,0,0
469,-447,0,0,0,0,0,0,0,0,0,-1,1693,1471,0,0
476,-447,0,0,0,0,0,0,0,0,0,-1,1700,1471,0,0
483,-447,0,0,0,0,0,0,0,0,0,-1,1707,1471,0,0
490,-447,-0.401978,-0.366577,-0.000935066,-0.0135865,0.00703377,0.00219906,-0.0167206,0.419175,0.0119477,0.0418283,1714,1471,-0.401938,0.366547
497,-447,-0.591553,-0.418823,-0.000100993,-0.0159014,0.00374773,0.000742869,-0.0167453,0.221473,0.0114192,0.0447191,1721,1471,-0.591591,0.418821
504,-447,-0.677002,-0.643921,-0.000752055,-0.0163354,0.00194682,-0.000512523,-0.0165749,0.122423,0.0108831,0.0439259,1728,1471,-0.677023,0.643939
511,-447,-0.348999,-0.910767,-0.00170185,-0.0160561,0.00152518,-0.00154159,-0.0162164,0.104695,0.0103355,0.0409845,1735,1471,-0.348956,0.910787
518,-447,-0.214966,-0.947266,-0.00235648,-0.0150465,0.00157768,-0.00216328,-0.0152397,0.121853,0.00952101,0.0422082,1742,1471,-0.214988,0.947313
525,-447,-0.303101,-0.646484,-0.00286146,-0.013947,0.00182703,-0.0025681,-0.0142404,0.159204,0.00876389,0.0437093,1749,1471,-0.303118,0.646544
532,-447,-0.5354,-0.530884,-0.00293917,-0.0127946,0.00228098,-0.00243685,-0.0132969,0.21676,0.00817428,0.0437732,1756,1471,-0.535343,0.530881
539,-447,-0.641602,-0.608887,-0.00293734,-0.0112946,0.00272926,-0.002125,-0.0121069,0.289293,0.00746446,0.0454539,1763,1471,-0.641649,0.608855
546,-447,-0.526245,-0.39856,-0.00281048,-0.00971798,0.00310318,-0.00162116,-0.0109073,0.365992,0.00679591,0.0427812,1770,1471,-0.526282,0.398596
553,-447,-0.181274,-0.202637,-0.00258922,-0.00798597,0.00353391,-0.000841273,-0.00973392,0.459335,0.00622782,0.0399686,1777,1471,-0.181282,0.20263
560,-447,-0.0266113,-0.0992432,-0.00247497,-0.00672245,0.00367561,-0.000353671,-0.00884374,0.523433,0.00578155,0.0410978,1784,1471,-0.026603,0.099278
567,-447,-0.0465088,-0.00732422,-0.00218712,-0.00563774,0.0035409,2.64333e-05,-0.00785129,0.5587,0.00524303,0.0376453,1791,1471,-0.0464499,0.00733497
574,-447,-0.0300293,0.078125,-0.00132815,-0.00427737,0.00343354,0.000934036,-0.00653956,0.582572,0.00470208,0.0230388,1798,1471,-0.0300816,-0.0780942
581,-447,-0.0179443,0.0744629,-4.98789e-05,-0.00343283,0.00305898,0.00175413,-0.00523684,0.532844,0.00419987,0.0121174,1805,1471,-0.0179739,-0.0744632
588,-447,-0.0410156,0.0822754,0.00057415,-0.0027075,0.00231937,0.00177442,-0.00390777,0.477546,0.0033568,0.011491,1812,1471,-0.0409895,-0.0822204
595,-447,-0.0650635,0.0861816,0.000136868,-0.002033,0.00148647,0.000892228,-0.00278836,0.470151,0.00221699,0.0112433,1819,1471,-0.0650948,-0.0862421
602,-447,-0.0427246,0.0561523,0.000114573,-0.00143247,0.000968379,0.000580444,-0.00189834,0.4484,0.00149703,0.00999347,1826,1471,-0.0427495,-0.0561279
609,-447,-0.0444336,0.0640869,0.000442495,-0.00121054,0.000554941,0.000611513,-0.00137955,0.295644,0.00117771,0.0102905,1833,1471,-0.044416,-0.0640286
616,-447,-0.0501709,0.0819092,0.000760667,-0.00103637,0.000162168,0.000775184,-0.00105089,0.089281,0.00105828,0.0119211,1840,1471,-0.0501116,-0.0818634
623,-447,-0.0550537,0.0727539,0.00089708,-0.000884966,-0.000125949,0.000905938,-0.000893824,-0.0702116,0.0010391,0.0126684,1847,1471,-0.0550065,-0.0727967
630,-447,-0.0568848,0.0609131,0.000939475,-0.000777027,-0.00041453,0.00103434,-0.000871892,-0.224975,0.00110189,0.0074246,1854,1471,-0.0569116,-0.0609171
637,-447,-0.0556641,0.0583496,0.00118018,-0.000300758,-0.000649071,0.00142439,-0.000544966,-0.359858,0.00117419,0.00830548,1861,1471,-0.055661,-0.0583664
644,-447,-0.0463867,0.0629883,0.0017665,-9.98386e-05,-0.000749444,0.00203019,-0.000363529,-0.33832,0.00148949,0.00848388,1868,1471,-0.0463537,-0.0630212
651,-447,-0.0562744,0.0236816,0.00228664,0.000480012,-0.000703559,0.0025283,0.000238348,-0.330861,0.00161197,0.0125778,1875,1471,-0.0562474,-0.0237202
658,-447,-0.0688477,-0.0456543,0.00265043,0.00155074,-0.00101369,0.0032538,0.000947371,-0.536897,0.00193243,0.022381,1882,1471,-0.0688764,0.0456806
665,-447,-0.126221,-0.186157,0.00330254,0.00307644,-0.00101489,0.00421066,0.00216832,-0.729932,0.00243139,0.0390722,1889,1471,-0.126218,0.18617
672,-447,-0.0445557,-0.139526,0.00399001,0.00512339,-0.000795429,0.00553335,0.00358005,-1.09491,0.00324037,0.0462004,1896,1471,-0.0445897,0.139496
679,-447,-0.0369873,0.0187988,0.00461648,0.00782224,-0.000370982,0.00786461,0.00457411,-1.45708,0.00456075,0.0467442,1903,1471,-0.0370419,-0.01883
686,-447,-0.108276,-0.133911,0.00512291,0.0115294,0.000363237,0.0115499,0.00510238,1.51434,0.0066834,0.0437597,1910,1471,-0.108311,0.133895
693,-447,0.161499,0.0825195,0,0,0,0,0,0,0,-1,1917,1471,0.161449,-0.0824943
700,-447,0,0,0,0,0,0,0,0,0,-1,1924,1471,0,0
707,-447,0,0,0,0,0,0,0,0,0,-1,1931,1471,0,0
714,-447,0,0,0,0,0,0,0,0,0,-1,1938,1471,0,0
721,-447,0,0,0,0,0,0,0,0,0,-1,1945,1471,0,0
728,-447,0,0,0,0,0,0,0,0,0,-1,1952,1471,0,0
735,-447,0,0,0,0,0,0,0,0,0,-1,1959,1471,0,0
742,-447,0,0,0,0,0,0,0,0,0,-1,1966,1471,0,0
749,-447,0,0,0,0,0,0,0,0,0,-1,1973,1471,0,0
756,-447,0,0,0,0,0,0,0,0,0,-1,1980,1471,0,0
763,-447,0,0,0,0,0,0,0,0,0,-1,1987,1471,0,0
770,-447,0,0,0,0,0,0,0,0,0,-1,1994,1471,0,0
777,-447,0,0,0,0,0,0,0,0,0,-1,2001,1471,0,0
784,-447,0,0,0,0,0,0,0,0,0,-1,2008,1471,0,0
791,-447,0,0,0,0,0,0,0,0,0,-1,2015,1471,0,0
798,-447,0,0,0,0,0,0,0,0,0,-1,2022,1471,0,0
805,-447,0,0,0,0,0,0,0,0,0,-1,2029,1471,0,0
812,-447,0,0,0,0,0,0,0,0,0,-1,2036,1471,0,0
-700,-454,0,0,0,0,0,0,0,0,0,-1,524,1478,0,0
-693,-454,0,0,0,0,0,0,0,0,0,-1,531,1478,0,0
-686,-454,0,0,0,0,0,0,0,0,0,-1,538,1478,0,0
-679,-454,0,0,0,0,0,0,0,0,0,-1,545,1478,0,0
-672,-454,0,0,0,0,0,0,0,0,0,-1,552,1478,0,0
-665,-454,0,0,0,0,0,0,0,0,0,-1,559,1478,0,0
-658,-454,0,0,0,0,0,0,0,0,0,-1,566,1478,0,0
-651,-454,0,0,0,0,0,0,0,0,0,-1,573,1478,0,0
-644,-454,0,0,0,0,0,0,0,0,0,-1,580,1478,0,0
-637,-454,0,0,0,0,0,0,0,0,0,-1,587,1478,0,0
-630,-454,0,0,0,0,0,0,0,0,0,-1,594,1478,0,0
-623,-454,0,0,0,0,0,0,0,0,0,-1,601,1478,0,0
-616,-454,0,0,0,0,0,0,0,0,0,-1,608,1478,0,0
-609,-454,0,0,0,0,0,0,0,0,0,-1,615,1478,0,0
-602,-454,0,0,0,0,0,0,0,0,0,-1,622,1478,0,0
-595,-454,0,0,0,0,0,0,0,0,0,-1,629,1478,0,0
-588,-454,0,0,0,0,0,0,0,0,0,-1,636,1478,0,0
-581,-454,0,0,0,0,0,0,0,0,0,-1,643,1478,0,0
-574,-454,-0.204895,-0.13208,0,0,0,0,0,0,0,-1,650,1478,-0.204884,0.132141
-567,-454,0.0184937,-0.383545,0,0,0,0,0,0,0,-1,657,1478,0.0185136,0.38359
-560,-454,0.0135498,-0.153931,0.0166695,0.000945103,-0.0124331,0.0235177,-0.00590309,-0.50346,0.0179723,0.04305,664,1478,0.0135603,0.153984
-553,-454,-0.267639,-0.0623779,0.0124872,-3.68044e-05,-0.00818191,0.0165284,-0.00407803,-0.458773,0.0126002,0.04545,671,1478,-0.267666,0.0624014
-546,-454,-0.274414,-0.133179,0.00976238,-0.000868464,-0.00529883,0.0119524,-0.00305846,-0.391918,0.00915956,0.0441764,678,1478,-0.274441,0.133209
-539,-454,-0.235291,0.0808105,0.00791617,-0.00146786,-0.00337526,0.00900407,-0.00255575,-0.311801,0.00701165,0.043412,685,1478,-0.235275,-0.0808271
-532,-454,-0.267395,0.196777,0.00632307,-0.0024507,-0.00159247,0.00660317,-0.0027308,-0.174107,0.0055414,0.0414166,692,1478,-0.26738,-0.19678
-525,-454,-0.237061,0.164185,0.00520999,-0.0029114,-0.000647929,0.00526135,-0.00296277,-0.0791137,0.00480962,0.0354218,699,1478,-0.237067,-0.164226
-518,-454,-0.0823364,0.0802002,0.00447332,-0.00289886,-0.00030775,0.00448614,-0.00291168,-0.0416483,0.00430326,0.0204933,706,1478,-0.0823265,-0.0802282
-511,-454,-0.0239258,0.0618896,0.00369144,-0.00267358,-0.000292506,0.00370486,-0.00268699,-0.0458265,0.0037059,0.0131387,713,1478,-0.0239411,-0.0619448
-504,-454,-0.0106201,0.0623779,0.00356337,-0.00263384,-0.000430039,0.00359307,-0.00266354,-0.068952,0.00362552,0.0148952,720,1478,-0.0106466,-0.0623647
-497,-454,-0.0180054,0.0699463,0.00324459,-0.00206672,-0.000378222,0.00327139,-0.00209352,-0.0707349,0.00312222,0.0181707,727,1478,-0.0179986,-0.0699032
-490,-454,-0.0441895,0.0742188,0.00294295,-0.00223618,-0.000202997,0.0029509,-0.00224412,-0.0391151,0.00300859,0.0165902,734,1478,-0.0441692,-0.0742263
-483,-454,-0.0599976,0.0620117,0.00301938,-0.00238589,3.23252e-05,0.00301957,-0.00238608,0.00598003,0.00312809,0.0148626,741,1478,-0.0600116,-0.062025
-476,-454,-0.0356445,0.0383301,0.00314203,-0.00110149,4.81518e-05,0.00314258,-0.00110203,0.0113452,0.00254327,0.0125848,748,1478,-0.0356622,-0.0382948
-469,-454,-0.0217896,0.0565186,0.00290138,-4.03107e-05,0.000223568,0.00291828,-5.72049e-05,0.0754226,0.00196486,0.00950932,755,1478,-0.0218123,-0.0565696
-462,-454,-0.019043,0.0562744,0.00234146,0.000691006,0.000744192,0.00262746,0.000405009,0.366904,0.00163346,0.0103572,762,1478,-0.0190406,-0.0562621
-455,-454,-0.0327148,0.0517578,0.00121546,0.0011887,0.0013455,0.00254765,-0.000143495,0.780426,0.00174823,0.0110363,769,1478,-0.0327126,-0.0517548
-448,-454,-0.0408325,0.0478516,-0.000753184,0.00189396,0.00204225,0.00300403,-0.00186326,1.07292,0.00283574,0.0109377,776,1478,-0.0408213,-0.0478299
-441,-454,-0.010437,0.0537109,-0.00381908,0.00251004,0.00271673,0.00351622,-0.00482526,1.2161,0.00483568,0.0192597,783,1478,-0.0104313,-0.0537399
-434,-454,0.0673218,0.0463867,-0.00787802,0.00316618,0.00344887,0.00415471,-0.00886655,1.29166,0.00768014,0.0290565,790,1478,0.0673217,-0.0464406
-427,-454,0.121887,0.112427,-0.0125417,0.00393758,0.00410503,0.00490354,-0.0135077,1.33969,0.0110098,0.0378598,797,1478,0.121901,-0.11238
-420,-454,0.275513,-0.161865,-0.0184432,0.00369187,0.00518379,0.00484571,-0.019597,1.35178,0.0149441,0.0439881,804,1478,0.275499,0.161871
-413,-454,0.262878,-0.237915,-0.0254305,0.00371095,0.00601261,0.00490276,-0.0266224,1.37511,0.0195881,0.0440605,811,1478,0.262883,0.237901
-406,-454,-0.183655,-0.175903,0,0,0,0,0,0,0,-1,818,1478,-0.183681,0.175867
-399,-454,-0.564514,0.371826,-0.0398515,0.00381165,0.00522972,0.0044293,-0.0404691,1.45324,0.0285705,0.0452484,825,1478,-0.564508,-0.371844
-392,-454,-0.922852,0.602783,-0.0441515,0.000860285,0.00304368,0.00106516,-0.0443564,1.50358,0.0299323,0.047607,832,1478,-0.92287,-0.602792
-385,-454,-2.53265,1.32715,-0.046215,-0.00516877,-0.000711228,-0.00515645,-0.0462273,-1.55348,0.0292513,0.0476173,839,1478,-2.53262,-1.32712
-378,-454,-3.34259,1.2605,0,0,0,0,0,0,0,-1,846,1478,-3.34257,-1.26053
-371,-454,-1.38995,1.38208,-0.0416581,-0.0279289,-0.0132675,-0.0198553,-0.0497317,-1.02413,0.0289063,0.0485133,853,1478,-1.38997,-1.38202
-364,-454,-1.91577,1.89673,0,0,0,0,0,0,0,-1,860,1478,-1.91578,-1.8967
-357,-454,0,0,0,0,0,0,0,0,0,-1,867,1478,0,0
-350,-454,0,0,0,0,0,0,0,0,0,-1,874,1478,0,0
-343,-454,0,0,0,0,0,0,0,0,0,-1,881,1478,0,0
-336,-454,0,0,0,0,0,0,0,0,0,-1,888,1478,0,0
-329,-454,0,0,0,0,0,0,0,0,0,-1,895,1478,0,0
-322,-454,0,0,0,0,0,0,0,0,0,-1,902,1478,0,0
-315,-454,0,0,0,0,0,0,0,0,0,-1,909,1478,0,0
-308,-454,0,0,0,0,0,0,0,0,0,-1,916,1478,0,0
-301,-454,0,0,0,0,0,0,0,0,0,-1,923,1478,0,0
-294,-454,0,0,0,0,0,0,0,0,0,-1,930,1478,0,0
-287,-454,0,0,0,0,0,0,0,0,0,-1,937,1478,0,0
-280,-454,0,0,0,0,0,0,0,0,0,-1,944,1478,0,0
-273,-454,0,0,0,0,0,0,0,0,0,-1,951,1478,0,0
-266,-454,0,0,0,0,0,0,0,0,0,-1,958,1478,0,0
-259,-454,0,0,0,0,0,0,0,0,0,-1,965,1478,0,0
-252,-454,0,0,0,0,0,0,0,0,0,-1,972,1478,0,0
-245,-454,0,0,0,0,0,0,0,0,0,-1,979,1478,0,0
-238,-454,0,0,0,0,0,0,0,0,0,-1,986,1478,0,0
-231,-454,0,0,0,0,0,0,0,0,0,-1,993,1478,0,0
-224,-454,0,0,0,0,0,0,0,0,0,-1,1000,1478,0,0
-217,-454,0,0,0,0,0,0,0,0,0,-1,1007,1478,0,0
-210,-454,0,0,0,0,0,0,0,0,0,-1,1014,1478,0,0
-203,-454,0,0,0,0,0,0,0,0,0,-1,1021,1478,0,0
-196,-454,0,0,0,0,0,0,0,0,0,-1,1028,1478,0,0
-189,-454,0,0,0,0,0,0,0,0,0,-1,1035,1478,0,0
-182,-454,0,0,0,0,0,0,0,0,0,-1,1042,1478,0,0
-175,-454,0,0,0,0,0,0,0,0,0,-1,1049,1478,0,0
-168,-454,0,0,0,0,0,0,0,0,0,-1,1056,1478,0,0
-161,-454,0,0,0,0,0,0,0,0,0,-1,1063,1478,0,0
-154,-454,0,0,0,0,0,0,0,0,0,-1,1070,1478,0,0
-147,-454,0,0,0,0,0,0,0,0,0,-1,1077,1478,0,0
-140,-454,0,0,0,0,0,0,0,0,0,-1,1084,1478,0,0
-133,-454,0,0,0,0,0,0,0,0,0,-1,1091,1478,0,0
-126,-454,0,0,0,0,0,0,0,0,0,-1,1098,1478,0,0
-119,-454,0,0,0,0,0,0,0,0,0,-1,1105,1478,0,0
-112,-454,0,0,0,0,0,0,0,0,0,-1,1112,1478,0,0
-105,-454,0,0,0,0,0,0,0,0,0,-1,1119,1478,0,0
-98,-454,0,0,0,0,0,0,0,0,0,-1,1126,1478,0,0
-91,-454,0,0,0,0,0,0,0,0,0,-1,1133,1478,0,0
-84,-454,0,0,0,0,0,0,0,0,0,-1,1140,1478,0,0
-77,-454,0,0,0,0,0,0,0,0,0,-1,1147,1478,0,0
-70,-454,0,0,0,0,0,0,0,0,0,-1,1154,1478,0,0
-63,-454,0,0,0,0,0,0,0,0,0,-1,1161,1478,0,0
-56,-454,0,0,0,0,0,0,0,0,0,-1,1168,1478,0,0
-49,-454,0,0,0,0,0,0,0,0,0,-1,1175,1478,0,0
-42,-454,0,0,0,0,0,0,0,0,0,-1,1182,1478,0,0
-35,-454,0,0,0,0,0,0,0,0,0,-1,1189,1478,0,0
-28,-454,0,0,0,0,0,0,0,0,0,-1,1196,1478,0,0
-21,-454,0,0,0,0,0,0,0,0,0,-1,1203,1478,0,0
-14,-454,0,0,0,0,0,0,0,0,0,-1,1210,1478,0,0
-7,-454,0,0,0,0,0,0,0,0,0,-1,1217,1478,0,0
0,-454,0,0,0,0,0,0,0,0,0,-1,1224,1478,0,0
7,-454,0,0,0,0,0,0,0,0,0,-1,1231,1478,0,0
14,-454,0,0,0,0,0,0,0,0,0,-1,1238,1478,0,0
21,-454,0,0,0,0,0,0,0,0,0,-1,1245,1478,0,0
28,-454,0,0,0,0,0,0,0,0,0,-1,1252,1478,0,0
35,-454,0,0,0,0,0,0,0,0,0,-1,1259,1478,0,0
42,-454,0,0,0,0,0,0,0,0,0,-1,1266,1478,0,0
49,-454,0,0,0,0,0,0,0,0,0,-1,1273,1478,0,0
56,-454,0,0,0,0,0,0,0,0,0,-1,1280,1478,0,0
63,-454,0,0,0,0,0,0,0,0,0,-1,1287,1478,0,0
70,-454,0,0,0,0,0,0,0,0,0,-1,1294,1478,0,0
77,-454,0,0,0,0,0,0,0,0,0,-1,1301,1478,0,0
84,-454,0,0,0,0,0,0,0,0,0,-1,1308,1478,0,0
91,-454,0,0,0,0,0,0,0,0,0,-1,1315,1478,0,0
98,-454,0,0,0,0,0,0,0,0,0,-1,1322,1478,0,0
105,-454,0,0,0,0,0,0,0,0,0,-1,1329,1478,0,0
112,-454,0,0,0,0,0,0,0,0,0,-1,1336,1478,0,0
119,-454,0,0,0,0,0,0,0,0,0,-1,1343,1478,0,0
126,-454,0,0,0,0,0,0,0,0,0,-1,1350,1478,0,0
133,-454,0,0,0,0,0,0,0,0,0,-1,1357,1478,0,0
140,-454,0,0,0,0,0,0,0,0,0,-1,1364,1478,0,0
147,-454,0,0,0,0,0,0,0,0,0,-1,1371,1478,0,0
154,-454,0,0,0,0,0,0,0,0,0,-1,1378,1478,0,0
161,-454,0,0,0,0,0,0,0,0,0,-1,1385,1478,0,0
168,-454,0,0,0,0,0,0,0,0,0,-1,1392,1478,0,0
175,-454,0,0,0,0,0,0,0,0,0,-1,1399,1478,0,0
182,-454,0,0,0,0,0,0,0,0,0,-1,1406,1478,0,0
189,-454,0,0,0,0,0,0,0,0,0,-1,1413,1478,0,0
196,-454,0,0,0,0,0,0,0,0,0,-1,1420,1478,0,0
203,-454,0,0,0,0,0,0,0,0,0,-1,1427,1478,0,0
210,-454,0,0,0,0,0,0,0,0,0,-1,1434,1478,0,0
217,-454,0,0,0,0,0,0,0,0,0,-1,1441,1478,0,0
224,-454,0,0,0,0,0,0,0,0,0,-1,1448,1478,0,0
231,-454,0,0,0,0,0,0,0,0,0,-1,1455,1478,0,0
238,-454,0,0,0,0,0,0,0,0,0,-1,1462,1478,0,0
245,-454,0,0,0,0,0,0,0,0,0,-1,1469,1478,0,0
252,-454,0,0,0,0,0,0,0,0,0,-1,1476,1478,0,0
259,-454,0,0,0,0,0,0,0,0,0,-1,1483,1478,0,0
266,-454,0,0,0,0,0,0,0,0,0,-1,1490,1478,0,0
273,-454,0,0,0,0,0,0,0,0,0,-1,1497,1478,0,0
280,-454,0,0,0,0,0,0,0,0,0,-1,1504,1478,0,0
287,-454,0,0,0,0,0,0,0,0,0,-1,1511,1478,0,0
294,-454,0,0,0,0,0,0,0,0,0,-1,1518,1478,0,0
301,-454,0,0,0,0,0,0,0,0,0,-1,1525,1478,0,0
308,-454,0,0,0,0,0,0,0,0,0,-1,1532,1478,0,0
315,-454,0,0,0,0,0,0,0,0,0,-1,1539,1478,0,0
322,-454,0,0,0,0,0,0,0,0,0,-1,1546,1478,0,0
329,-454,0,0,0,0,0,0,0,0,0,-1,1553,1478,0,0
336,-454,0,0,0,0,0,0,0,0,0,-1,1560,1478,0,0
343,-454,0,0,0,0,0,0,0,0,0,-1,1567,1478,0,0
350,-454,0,0,0,0,0,0,0,0,0,-1,1574,1478,0,0
357,-454,0,0,0,0,0,0,0,0,0,-1,1581,1478,0,0
364,-454,0,0,0,0,0,0,0,0,0,-1,1588,1478,0,0
371,-454,0,0,0,0,0,0,0,0,0,-1,1595,1478,0,0
378,-454,0,0,0,0,0,0,0,0,0,-1,1602,1478,0,0
385,-454,0,0,0,0,0,0,0,0,0,-1,1609,1478,0,0
392,-454,0,0,0,0,0,0,0,0,0,-1,1616,1478,0,0
399,-454,0,0,0,0,0,0,0,0,0,-1,1623,1478,0,0
406,-454,0,0,0,0,0,0,0,0,0,-1,1630,1478,0,0
413,-454,0,0,0,0,0,0,0,0,0,-1,1637,1478,0,0
420,-454,0,0,0,0,0,0,0,0,0,-1,1644,1478,0,0
427,-454,0,0,0,0,0,0,0,0,0,-1,1651,1478,0,0
434,-454,0,0,0,0,0,0,0,0,0,-1,1658,1478,0,0
441,-454,0,0,0,0,0,0,0,0,0,-1,1665,1478,0,0
448,-454,0,0,0,0,0,0,0,0,0,-1,1672,1478,0,0
455,-454,0,0,0,0,0,0,0,0,0,-1,1679,1478,0,0
462,-454,0,0,0,0,0,0,0,0,0,-1,1686,1478,0,0
469,-454,0,0,0,0,0,0,0,0,0,-1,1693,1478,0,0
476,-454,0,0,0,0,0,0,0,0,0,-1,1700,1478,0,0
483,-454,-0.271851,-0.217163,-0.00770976,-0.0136288,0.00603479,-0.00394786,-0.0173907,0.557426,0.0105275,0.0456258,1707,1478,-0.271878,0.217158
490,-454,-0.413574,-0.285034,-0.00341221,-0.015432,0.00339934,-0.00251744,-0.0163268,0.25738,0.01015,0.0401,1714,1478,-0.413632,0.285026
497,-454,-0.540039,-0.283569,-0.00145007,-0.0161332,0.00103003,-0.00137817,-0.0162051,0.0696957,0.0103746,0.0458448,1721,1478,-0.540093,0.283611
504,-454,-0.818359,-0.438354,-0.00129254,-0.0156309,-0.000296261,-0.00128642,-0.015637,-0.0206504,0.0100234,0.0464489,1728,1478,-0.818325,0.438365
511,-454,-0.304688,-0.632324,-0.00171621,-0.0146724,-0.000579614,-0.00169034,-0.0146983,-0.0446176,0.00928684,0.0384886,1735,1478,-0.304722,0.632363
518,-454,0.0286865,-0.578247,-0.00205447,-0.0131708,-0.000398027,-0.00204023,-0.0131851,-0.0357445,0.00819506,0.0373146,1742,1478,0.0286497,0.578247
525,-454,-0.303467,-0.30603,-0.00233812,-0.011833,-4.09198e-05,-0.00233794,-0.0118332,-0.00430954,0.0072365,0.0425174,1749,1478,-0.303472,0.305991
532,-454,-0.263672,-0.276978,-0.00231518,-0.0105411,0.000514378,-0.00228314,-0.0105731,0.0622083,0.0064244,0.0444806,1756,1478,-0.263652,0.277011
539,-454,-0.690063,-0.840332,0,0,0,0,0,0,0,-1,1763,1478,-0.690009,0.840278
546,-454,-0.590942,-0.51123,0,0,0,0,0,0,0,-1,1770,1478,-0.590976,0.511202
553,-454,-0.231445,-0.15979,-0.00230502,-0.00590713,0.00203203,-0.00139076,-0.00682139,0.422791,0.00416219,0.0370425,1777,1478,-0.231401,0.159786
560,-454,-0.050293,-0.0311279,-0.00211293,-0.00471321,0.00245273,-0.000637055,-0.00618909,0.541689,0.00393095,0.030067,1784,1478,-0.0503025,0.0310896
567,-454,-0.053833,0.0183105,-0.00183537,-0.00380043,0.00253973,-9.47376e-05,-0.00554106,0.600833,0.00366287,0.0160855,1791,1478,-0.0538237,-0.0183155
574,-454,-0.0441895,0.0452881,-0.00105915,-0.0027254,0.00261707,0.000854206,-0.00463876,0.631299,0.00341306,0.00971702,1798,1478,-0.0441712,-0.0453175
581,-454,-0.0258789,0.0421143,9.67771e-05,-0.0021395,0.00243708,0.00165998,-0.0037027,0.570323,0.00317014,0.0106775,1805,1478,-0.0259352,-0.0421108
588,-454,-0.0522461,0.0670166,0.000631555,-0.00172474,0.00191751,0.00170394,-0.00279712,0.509923,0.00262411,0.0117972,1812,1478,-0.0522242,-0.067069
595,-454,-0.0565186,0.0823975,0.000202863,-0.0013986,0.00126721,0.000901132,-0.00209687,0.503631,0.0017762,0.0109085,1819,1478,-0.0564864,-0.0824553
602,-454,-0.0290527,0.0578613,7.16893e-05,-0.0011061,0.000867847,0.000531582,-0.00156599,0.487299,0.00125916,0.00835046,1826,1478,-0.02906,-0.0578639
609,-454,-0.0413818,0.0574951,0.000309191,-0.00118736,0.000580729,0.000508102,-0.00138627,0.329995,0.00113221,0.00942505,1833,1478,-0.0413535,-0.0575419
616,-454,-0.0391846,0.0749512,0.000681681,-0.00136914,0.000342686,0.000737427,-0.00142489,0.161262,0.00126927,0.0116146,1840,1478,-0.0392213,-0.0748909
623,-454,-0.0321045,0.0762939,0.000943905,-0.00148154,0.000105485,0.000948484,-0.00148612,0.0433817,0.001417,0.0090269,1847,1478,-0.0321407,-0.0762535
630,-454,-0.0494385,0.0634766,0.0011309,-0.001679,-0.000119257,0.00113596,-0.00168405,-0.0423403,0.00163835,0.00779977,1854,1478,-0.0494515,-0.0634762
637,-454,-0.0552979,0.0623779,0.00148512,-0.00153625,-0.000325467,0.00151978,-0.00157091,-0.1061,0.00178449,0.00799852,1861,1478,-0.0553565,-0.0624381
644,-454,-0.0562744,0.0627441,0.00219583,-0.00163869,-0.000419508,0.00224119,-0.00168405,-0.107706,0.00227383,0.00965055,1868,1478,-0.0563347,-0.0627202
651,-454,-0.0700684,0.024292,0.00288599,-0.00136318,-0.000362554,0.0029167,-0.0013939,-0.0845094,0.00253996,0.0172244,1875,1478,-0.0700729,-0.0242737
658,-454,-0.074707,-0.012085,0.00345675,-0.000720981,-0.000667765,0.00356089,-0.00082512,-0.154705,0.00269146,0.0317183,1882,1478,-0.0747283,0.012082
665,-454,-0.26062,-0.352661,0.00423014,0.000429275,-0.000764031,0.00437797,0.000281443,-0.191128,0.0028295,0.0428277,1889,1478,-0.260586,0.352609
672,-454,-0.083252,-0.423828,0.0049903,0.0022552,-0.000697597,0.00515795,0.00208755,-0.235851,0.00299591,0.0458098,1896,1478,-0.0832183,0.423817
679,-454,0.0731201,-0.372925,0.00563829,0.00505025,-0.00049639,0.0059212,0.00476733,-0.518022,0.00362459,0.0460129,1903,1478,0.0731228,0.372974
686,-454,-0.0318604,-0.598877,0.00607056,0.00905592,2.2463e-05,0.00905609,0.00607039,1.56327,0.00532868,0.0429151,1910,1478,-0.0318266,0.598842
693,-454,-0.0928955,-0.965088,0,0,0,0,0,0,0,-1,1917,1478,-0.0928445,0.965058
700,-454,0,0,0,0,0,0,0,0,0,-1,1924,1478,0,0
707,-454,0,0,0,0,0,0,0,0,0,-1,1931,1478,0,0
714,-454,0,0,0,0,0,0,0,0,0,-1,1938,1478,0,0
721,-454,0,0,0,0,0,0,0,0,0,-1,1945,1478,0,0
728,-454,0,0,0,0,0,0,0,0,0,-1,1952,1478,0,0
735,-454,0,0,0,0,0,0,0,0,0,-1,1959,1478,0,0
742,-454,0,0,0,0,0,0,0,0,0,-1,1966,1478,0,0
749,-454,0,0,0,0,0,0,0,0,0,-1,1973,1478,0,0
756,-454,0,0,0,0,0,0,0,0,0,-1,1980,1478,0,0
763,-454,0,0,0,0,0,0,0,0,0,-1,1987,1478,0,0
770,-454,0,0,0,0,0,0,0,0,0,-1,1994,1478,0,0
777,-454,0,0,0,0,0,0,0,0,0,-1,2001,1478,0,0
784,-454,0,0,0,0,0,0,0,0,0,-1,2008,1478,0,0
791,-454,0,0,0,0,0,0,0,0,0,-1,2015,1478,0,0
798,-454,0,0,0,0,0,0,0,0,0,-1,2022,1478,0,0
805,-454,0,0,0,0,0,0,0,0,0,-1,2029,1478,0,0
812,-454,0,0,0,0,0,0,0,0,0,-1,2036,1478,0,0
-700,-461,0,0,0,0,0,0,0,0,0,-1,524,1485,0,0
-693,-461,0,0,0,0,0,0,0,0,0,-1,531,1485,0,0
-686,-461,0,0,0,0,0,0,0,0,0,-1,538,1485,0,0
-679,-461,0,0,0,0,0,0,0,0,0,-1,545,1485,0,0
-672,-461,0,0,0,0,0,0,0,0,0,-1,552,1485,0,0
-665,-461,0,0,0,0,0,0,0,0,0,-1,559,1485,0,0
-658,-461,0,0,0,0,0,0,0,0,0,-1,566,1485,0,0
-651,-461,0,0,0,0,0,0,0,0,0,-1,573,1485,0,0
-644,-461,0,0,0,0,0,0,0,0,0,-1,580,1485,0,0
-637,-461,0,0,0,0,0,0,0,0,0,-1,587,1485,0,0
-630,-461,0,0,0,0,0,0,0,0,0,-1,594,1485,0,0
-623,-461,0,0,0,0,0,0,0,0,0,-1,601,1485,0,0
-616,-461,0,0,0,0,0,0,0,0,0,-1,608,1485,0,0
-609,-461,0,0,0,0,0,0,0,0,0,-1,615,1485,0,0
-602,-461,0,0,0,0,0,0,0,0,0,-1,622,1485,0,0
-595,-461,0,0,0,0,0,0,0,0,0,-1,629,1485,0,0
-588,-461,0,0,0,0,0,0,0,0,0,-1,636,1485,0,0
-581,-461,0,0,0,0,0,0,0,0,0,-1,643,1485,0,0
-574,-461,0,0,0,0,0,0,0,0,0,-1,650,1485,0,0
-567,-461,-0.189636,-0.215698,0.0240349,-0.00961713,-0.0187467,0.0323993,-0.0179815,-0.41967,0.0294817,0.0430614,657,1485,-0.189627,0.215747
-560,-461,0.358765,-0.113281,0.0180195,-0.00824331,-0.0131023,0.0234381,-0.0136619,-0.392145,0.0216662,0.0435816,664,1485,0.358741,0.113255
-553,-461,-0.0843506,-0.387451,0.0138931,-0.00727783,-0.00912977,0.0172863,-0.0106711,-0.355848,0.0162911,0.0452998,671,1485,-0.0843461,0.387477
-546,-461,-0.212524,-0.522095,0.0111151,-0.00652715,-0.00627946,0.0131219,-0.00853394,-0.309322,0.0125962,0.0430597,678,1485,-0.212541,0.522145
-539,-461,-0.244995,-0.556641,0.00909375,-0.00582196,-0.00421776,0.0102038,-0.00693202,-0.25735,0.0099533,0.042492,685,1485,-0.244986,0.556622
-532,-461,-0.242615,1.03235,0,0,0,0,0,0,0,-1,692,1485,-0.242611,-1.0324
-525,-461,-0.226501,0.652222,0.00605641,-0.00555794,-0.00118324,0.00617573,-0.00567726,-0.100502,0.00684535,0.0408784,699,1485,-0.226484,-0.652226
-518,-461,-0.105164,0.05896,0.00510519,-0.00506306,-0.000650032,0.00514658,-0.00510445,-0.0635827,0.00591845,0.0328187,706,1485,-0.105162,-0.0589801
-511,-461,-0.0333252,0.0684814,0.00397098,-0.00438873,-0.000474299,0.0039978,-0.00441556,-0.0564947,0.00485945,0.0146366,713,1485,-0.0333281,-0.0684534
-504,-461,-0.00982666,0.0681152,0.00352135,-0.00400377,-0.000374824,0.00353997,-0.00402239,-0.049646,0.00436909,0.00969921,720,1485,-0.00985469,-0.0681346
-497,-461,-0.0130005,0.0753174,0.00296335,-0.00316665,-0.000161818,0.00296762,-0.00317092,-0.0263732,0.00354473,0.0106305,727,1485,-0.0129905,-0.0753374
-490,-461,-0.0446167,0.0598145,0.00235643,-0.00323234,0.000122191,0.0023591,-0.00323502,0.0218498,0.00324293,0.0113389,734,1485,-0.0445986,-0.0598319
-483,-461,-0.0464478,0.0531006,0.00208478,-0.00328443,0.000436043,0.00211996,-0.00331962,0.0805087,0.0031659,0.0110742,741,1485,-0.0464449,-0.0531604
-476,-461,-0.0305176,0.0583496,0.00187717,-0.00200841,0.000544386,0.001952,-0.00208324,0.136601,0.00233015,0.00980756,748,1485,-0.0305444,-0.058361
-469,-461,-0.0197144,0.0606689,0.00143208,-0.00090117,0.000761435,0.00165858,-0.00112767,0.289129,0.00161835,0.0113645,755,1485,-0.0197091,-0.0606441
-462,-461,-0.00567627,0.0440674,0.000825609,-0.000173814,0.00124699,0.00166929,-0.00101749,0.594828,0.00156635,0.016306,762,1485,-0.00568993,-0.0440696
-455,-461,-0.0410156,0.0615234,-0.000211426,0.000288244,0.00180975,0.00186532,-0.0017885,0.853989,0.00210969,0.0195286,769,1485,-0.041,-0.061481
-448,-461,-0.0392456,0.0596924,-0.00193534,0.00100171,0.00243143,0.00237368,-0.00330731,1.05707,0.00329465,0.0168857,776,1485,-0.0392403,-0.059723
-441,-461,-0.00183105,0.0679932,-0.00452058,0.00161075,0.00299553,0.00283128,-0.00574111,1.18388,0.00504342,0.012592,783,1485,-0.00181315,-0.0680227
-434,-461,0.0592041,0.0147705,-0.0078488,0.00228036,0.00354475,0.00339763,-0.00896607,1.26546,0.00737557,0.0165451,790,1485,0.0591796,-0.0147852
-427,-461,0.083252,-0.0219727,-0.0116227,0.00312129,0.00400993,0.0041413,-0.0126428,1.32171,0.0100961,0.0228484,797,1485,0.0832484,0.0219713
-420,-461,0.139343,-0.074585,-0.0163912,0.00318773,0.00485948,0.0043275,-0.017531,1.34041,0.0133654,0.0388659,804,1485,0.139342,0.0745956
-413,-461,0.0615234,-0.0327148,-0.0219449,0.0035865,0.00547454,0.00471085,-0.0230693,1.36823,0.0171666,0.0449939,811,1485,0.0615164,0.0327742
-406,-461,-0.255737,-0.0262451,-0.028201,0.00376535,0.00625943,0.00494732,-0.029383,1.38416,0.021429,0.0425793,818,1485,-0.255748,0.026268
-399,-461,-0.529602,0.37439,-0.0320264,0.00594579,0.00381766,0.00632581,-0.0324064,1.47158,0.0239925,0.041711,825,1485,-0.529574,-0.374391
-392,-461,-0.803894,0.736694,-0.0341034,0.00412942,0.00144611,0.00418404,-0.034158,1.53304,0.0242871,0.0446157,832,1485,-0.803868,-0.736685
-385,-461,-1.08948,1.10486,-0.0342036,-0.000298448,-0.00247454,-0.000118798,-0.0343833,-1.49832,0.0228827,0.0476356,839,1485,-1.08946,-1.10481
-378,-461,-1.39343,1.52307,-0.0322231,-0.00754393,-0.00795065,-0.00520434,-0.0345627,-1.28461,0.0215179,0.0467018,846,1485,-1.39345,-1.52306
-371,-461,-1.56812,2.13074,-0.0284807,-0.0186983,-0.0146664,-0.00812902,-0.03905,-0.946347,0.0237912,0.0461946,853,1485,-1.56809,-2.13072
-364,-461,-1.7652,2.73438,0,0,0,0,0,0,0,-1,860,1485,-1.7652,-2.73444
-357,-461,-4.31708,-0.0991211,0,0,0,0,0,0,0,-1,867,1485,-4.31709,0.0991365
-350,-461,0,0,0,0,0,0,0,0,0,-1,874,1485,0,0
-343,-461,0,0,0,0,0,0,0,0,0,-1,881,1485,0,0
-336,-461,0,0,0,0,0,0,0,0,0,-1,888,1485,0,0
-329,-461,0,0,0,0,0,0,0,0,0,-1,895,1485,0,0
-322,-461,0,0,0,0,0,0,0,0,0,-1,902,1485,0,0
-315,-461,0,0,0,0,0,0,0,0,0,-1,909,1485,0,0
-308,-461,0,0,0,0,0,0,0,0,0,-1,916,1485,0,0
-301,-461,0,0,0,0,0,0,0,0,0,-1,923,1485,0,0
-294,-461,0,0,0,0,0,0,0,0,0,-1,930,1485,0,0
-287,-461,0,0,0,0,0,0,0,0,0,-1,937,1485,0,0
-280,-461,0,0,0,0,0,0,0,0,0,-1,944,1485,0,0
-273,-461,0,0,0,0,0,0,0,0,0,-1,951,1485,0,0
-266,-461,0,0,0,0,0,0,0,0,0,-1,958,1485,0,0
-259,-461,0,0,0,0,0,0,0,0,0,-1,965,1485,0,0
-252,-461,0,0,0,0,0,0,0,0,0,-1,972,1485,0,0
-245,-461,0,0,0,0,0,0,0,0,0,-1,979,1485,0,0
-238,-461,0,0,0,0,0,0,0,0,0,-1,986,1485,0,0
-231,-461,0,0,0,0,0,0,0,0,0,-1,993,1485,0,0
-224,-461,0,0,0,0,0,0,0,0,0,-1,1000,1485,0,0
-217,-461,0,0,0,0,0,0,0,0,0,-1,1007,1485,0,0
-210,-461,0,0,0,0,0,0,0,0,0,-1,1014,1485,0,0
-203,-461,0,0,0,0,0,0,0,0,0,-1,1021,1485,0,0
-196,-461,0,0,0,0,0,0,0,0,0,-1,1028,1485,0,0
-189,-461,0,0,0,0,0,0,0,0,0,-1,1035,1485,0,0
-182,-461,0,0,0,0,0,0,0,0,0,-1,1042,1485,0,0
-175,-461,0,0,0,0,0,0,0,0,0,-1,1049,1485,0,0
-168,-461,0,0,0,0,0,0,0,0,0,-1,1056,1485,0,0
-161,-461,0,0,0,0,0,0,0,0,0,-1,1063,1485,0,0
-154,-461,0,0,0,0,0,0,0,0,0,-1,1070,1485,0,0
-147,-461,0,0,0,0,0,0,0,0,0,-1,1077,1485,0,0
-140,-461,0,0,0,0,0,0,0,0,0,-1,1084,1485,0,0
-133,-461,0,0,0,0,0,0,0,0,0,-1,1091,1485,0,0
-126,-461,0,0,0,0,0,0,0,0,0,-1,1098,1485,0,0
-119,-461,0,0,0,0,0,0,0,0,0,-1,1105,1485,0,0
-112,-461,0,0,0,0,0,0,0,0,0,-1,1112,1485,0,0
-105,-461,0,0,0,0,0,0,0,0,0,-1,1119,1485,0,0
-98,-461,0,0,0,0,0,0,0,0,0,-1,1126,1485,0,0
-91,-461,0,0,0,0,0,0,0,0,0,-1,1133,1485,0,0
-84,-461,0,0,0,0,0,0,0,0,0,-1,1140,1485,0,0
-77,-461,0,0,0,0,0,0,0,0,0,-1,1147,1485,0,0
-70,-461,0,0,0,0,0,0,0,0,0,-1,1154,1485,0,0
-63,-461,0,0,0,0,0,0,0,0,0,-1,1161,1485,0,0
-56,-461,0,0,0,0,0,0,0,0,0,-1,1168,1485,0,0
-49,-461,0,0,0,0,0,0,0,0,0,-1,1175,1485,0,0
-42,-461,0,0,0,0,0,0,0,0,0,-1,1182,1485,0,0
-35,-461,0,0,0,0,0,0,0,0,0,-1,1189,1485,0,0
-28,-461,0,0,0,0,0,0,0,0,0,-1,1196,1485,0,0
-21,-461,0,0,0,0,0,0,0,0,0,-1,1203,1485,0,0
-14,-461,0,0,0,0,0,0,0,0,0,-1,1210,1485,0,0
-7,-461,0,0,0,0,0,0,0,0,0,-1,1217,1485,0,0
0,-461,0,0,0,0,0,0,0,0,0,-1,1224,1485,0,0
7,-461,0,0,0,0,0,0,0,0,0,-1,1231,1485,0,0
14,-461,0,0,0,0,0,0,0,0,0,-1,1238,1485,0,0
21,-461,0,0,0,0,0,0,0,0,0,-1,1245,1485,0,0
28,-461,0,0,0,0,0,0,0,0,0,-1,1252,1485,0,0
35,-461,0,0,0,0,0,0,0,0,0,-1,1259,1485,0,0
42,-461,0,0,0,0,0,0,0,0,0,-1,1266,1485,0,0
49,-461,0,0,0,0,0,0,0,0,0,-1,1273,1485,0,0
56,-461,0,0,0,0,0,0,0,0,0,-1,1280,1485,0,0
63,-461,0,0,0,0,0,0,0,0,0,-1,1287,1485,0,0
70,-461,0,0,0,0,0,0,0,0,0,-1,1294,1485,0,0
77,-461,0,0,0,0,0,0,0,0,0,-1,1301,1485,0,0
84,-461,0,0,0,0,0,0,0,0,0,-1,1308,1485,0,0
91,-461,0,0,0,0,0,0,0,0,0,-1,1315,1485,0,0
98,-461,0,0,0,0,0,0,0,0,0,-1,1322,1485,0,0
105,-461,0,0,0,0,0,0,0,0,0,-1,1329,1485,0,0
112,-461,0,0,0,0,0,0,0,0,0,-1,1336,1485,0,0
119,-461,0,0,0,0,0,0,0,0,0,-1,1343,1485,0,0
126,-461,0,0,0,0,0,0,0,0,0,-1,1350,1485,0,0
133,-461,0,0,0,0,0,0,0,0,0,-1,1357,1485,0,0
140,-461,0,0,0,0,0,0,0,0,0,-1,1364,1485,0,0
147,-461,0,0,0,0,0,0,0,0,0,-1,1371,1485,0,0
154,-461,0,0,0,0,0,0,0,0,0,-1,1378,1485,0,0
161,-461,0,0,0,0,0,0,0,0,0,-1,1385,1485,0,0
168,-461,0,0,0,0,0,0,0,0,0,-1,1392,1485,0,0
175,-461,0,0,0,0,0,0,0,0,0,-1,1399,1485,0,0
182,-461,0,0,0,0,0,0,0,0,0,-1,1406,1485,0,0
189,-461,0,0,0,0,0,0,0,0,0,-1,1413,1485,0,0
196,-461,0,0,0,0,0,0,0,0,0,-1,1420,1485,0,0
203,-461,0,0,0,0,0,0,0,0,0,-1,1427,1485,0,0
210,-461,0,0,0,0,0,0,0,0,0,-1,1434,1485,0,0
217,-461,0,0,0,0,0,0,0,0,0,-1,1441,1485,0,0
224,-461,0,0,0,0,0,0,0,0,0,-1,1448,1485,0,0
231,-461,0,0,0,0,0,0,0,0,0,-1,1455,1485,0,0
238,-461,0,0,0,0,0,0,0,0,0,-1,1462,1485,0,0
245,-461,0,0,0,0,0,0,0,0,0,-1,1469,1485,0,0
252,-461,0,0,0,0,0,0,0,0,0,-1,1476,1485,0,0
259,-461,0,0,0,0,0,0,0,0,0,-1,1483,1485,0,0
266,-461,0,0,0,0,0,0,0,0,0,-1,1490,1485,0,0
273,-461,0,0,0,0,0,0,0,0,0,-1,1497,1485,0,0
280,-461,0,0,0,0,0,0,0,0,0,-1,1504,1485,0,0
287,-461,0,0,0,0,0,0,0,0,0,-1,1511,1485,0,0
294,-461,0,0,0,0,0,0,0,0,0,-1,1518,1485,0,0
301,-461,0,0,0,0,0,0,0,0,0,-1,1525,1485,0,0
308,-461,0,0,0,0,0,0,0,0,0,-1,1532,1485,0,0
315,-461,0,0,0,0,0,0,0,0,0,-1,1539,1485,0,0
322,-461,0,0,0,0,0,0,0,0,0,-1,1546,1485,0,0
329,-461,0,0,0,0,0,0,0,0,0,-1,1553,1485,0,0
336,-461,0,0,0,0,0,0,0,0,0,-1,1560,1485,0,0
343,-461,0,0,0,0,0,0,0,0,0,-1,1567,1485,0,0
350,-461,0,0,0,0,0,0,0,0,0,-1,1574,1485,0,0
357,-461,0,0,0,0,0,0,0,0,0,-1,1581,1485,0,0
364,-461,0,0,0,0,0,0,0,0,0,-1,1588,1485,0,0
371,-461,0,0,0,0,0,0,0,0,0,-1,1595,1485,0,0
378,-461,0,0,0,0,0,0,0,0,0,-1,1602,1485,0,0
385,-461,0,0,0,0,0,0,0,0,0,-1,1609,1485,0,0
392,-461,0,0,0,0,0,0,0,0,0,-1,1616,1485,0,0
399,-461,0,0,0,0,0,0,0,0,0,-1,1623,1485,0,0
406,-461,0,0,0,0,0,0,0,0,0,-1,1630,1485,0,0
413,-461,0,0,0,0,0,0,0,0,0,-1,1637,1485,0,0
420,-461,0,0,0,0,0,0,0,0,0,-1,1644,1485,0,0
427,-461,0,0,0,0,0,0,0,0,0,-1,1651,1485,0,0
434,-461,0,0,0,0,0,0,0,0,0,-1,1658,1485,0,0
441,-461,0,0,0,0,0,0,0,0,0,-1,1665,1485,0,0
448,-461,0,0,0,0,0,0,0,0,0,-1,1672,1485,0,0
455,-461,0,0,0,0,0,0,0,0,0,-1,1679,1485,0,0
462,-461,0,0,0,0,0,0,0,0,0,-1,1686,1485,0,0
469,-461,0,0,0,0,0,0,0,0,0,-1,1693,1485,0,0
476,-461,0.0493164,-0.152954,-0.0158729,-0.0121191,0.00728313,-0.0064749,-0.0215171,0.911508,0.0127469,0.0456788,1700,1485,0.0492941,0.153
483,-461,-0.304321,-0.213135,-0.00794037,-0.014177,0.00450721,-0.00557792,-0.0165395,0.482779,0.00971624,0.0452439,1707,1485,-0.304374,0.213156
490,-461,-0.414673,-0.157227,-0.00382147,-0.014828,0.00194252,-0.0034887,-0.0151608,0.169662,0.00916828,0.0399972,1714,1485,-0.414727,0.157271
497,-461,-0.387695,0.0379639,-0.00188365,-0.0147714,-0.000352051,-0.00187404,-0.014781,-0.0272896,0.00929255,0.0419765,1721,1485,-0.387688,-0.0380223
504,-461,0.0341797,0.530518,-0.00153745,-0.0139869,-0.00176862,-0.00129106,-0.0142333,-0.138416,0.00908914,0.0455143,1728,1485,0.0342209,-0.530477
511,-461,0.0113525,0.0257568,-0.00177406,-0.0128518,-0.00226242,-0.00132981,-0.013296,-0.19389,0.00845568,0.0405346,1735,1485,0.0113675,-0.0258053
518,-461,0.240479,-0.076416,-0.00197766,-0.0112871,-0.0021966,-0.0014854,-0.0117794,-0.22046,0.00740762,0.0376024,1742,1485,0.240455,0.0764638
525,-461,-0.0727539,-0.150879,-0.00214581,-0.00997357,-0.00189156,-0.00171268,-0.0104067,-0.225097,0.00644323,0.0416542,1749,1485,-0.0727157,0.150919
532,-461,-0.220215,-0.491211,-0.00206895,-0.00870115,-0.00132764,-0.00181305,-0.00895704,-0.190409,0.00546814,0.0444686,1756,1485,-0.220162,0.491232
539,-461,-0.0712891,-0.463135,0,0,0,0,0,0,0,-1,1763,1485,-0.0713021,0.463182
546,-461,-0.0400391,-0.043457,-0.00220528,-0.00577649,-0.000161704,-0.00219797,-0.0057838,-0.0451567,0.00337117,0.0453835,1770,1485,-0.0399785,0.0434556
553,-461,-0.143433,-0.0146484,-0.0020848,-0.00436345,0.00047938,-0.00198805,-0.0044602,0.199135,0.00258015,0.0389202,1777,1485,-0.143405,0.0146763
560,-461,-0.0495605,0.0601807,-0.00174488,-0.0031944,0.00117837,-0.00108623,-0.00385305,0.50969,0.00229401,0.0198363,1784,1485,-0.0495555,-0.060194
567,-461,-0.0512695,0.0522461,-0.00139752,-0.00240516,0.00150044,-0.000318575,-0.00348411,0.623423,0.00222417,0.00979223,1791,1485,-0.0512399,-0.0521941
574,-461,-0.0355225,0.0313721,-0.000652572,-0.00154618,0.00178541,0.000741093,-0.00293985,0.662789,0.00224803,0.0110497,1798,1485,-0.0355402,-0.031404
581,-461,-0.0234375,0.0471191,0.000397013,-0.00113027,0.00182123,0.00160822,-0.00234148,0.586882,0.00229342,0.0122963,1805,1485,-0.0234657,-0.0470618
588,-461,-0.0653076,0.0675049,0.000871727,-0.000920008,0.00157002,0.0017835,-0.00183178,0.526135,0.00208734,0.0102344,1812,1485,-0.0653081,-0.0675227
595,-461,-0.0639648,0.0778809,0.000500308,-0.000815418,0.00115395,0.00117075,-0.00148586,0.526328,0.00153739,0.00826682,1819,1485,-0.0639786,-0.0778469
602,-461,-0.0384521,0.067749,0.000265598,-0.000717891,0.000931539,0.000827219,-0.00127951,0.542546,0.00122563,0.00873123,1826,1485,-0.0383996,-0.0677564
609,-461,-0.0440674,0.0559082,0.000400125,-0.00100536,0.000819769,0.000777136,-0.00138238,0.431055,0.00126301,0.00987759,1833,1485,-0.0440724,-0.0559678
616,-461,-0.0374756,0.0690918,0.000777515,-0.00149447,0.000779574,0.00101928,-0.00173624,0.300718,0.00160875,0.0117051,1840,1485,-0.0374982,-0.0690594
623,-461,-0.0427246,0.0847168,0.00108645,-0.00183727,0.000634041,0.00121803,-0.00196885,0.204617,0.00185689,0.0104889,1847,1485,-0.0427732,-0.0846663
630,-461,-0.0477295,0.0692139,0.00133673,-0.00233329,0.000532817,0.00141252,-0.00240908,0.141296,0.00223127,0.00846804,1854,1485,-0.0477699,-0.0691855
637,-461,-0.0493164,0.0632324,0.00173565,-0.00255791,0.000419156,0.00177618,-0.00259845,0.0964114,0.00254053,0.00957281,1861,1485,-0.0492907,-0.0632363
644,-461,-0.0629883,0.0615234,0.00248423,-0.00301339,0.000391689,0.002512,-0.00304116,0.0707705,0.00321097,0.012467,1868,1485,-0.063,-0.0615201
651,-461,-0.0531006,0.0374756,0.00327761,-0.00312809,0.000511503,0.0033182,-0.00316868,0.0791825,0.00374553,0.0206566,1875,1485,-0.0530853,-0.0375348
658,-461,0.00366211,0.00817871,0.00403867,-0.00299841,0.00028265,0.00405,-0.00300974,0.0400797,0.00409067,0.0377564,1882,1485,0.00360906,-0.00813554
665,-461,0.13916,0.0389404,0.00492498,-0.00235532,0.000133824,0.00492744,-0.00235778,0.0183734,0.00429245,0.0455843,1889,1485,0.139114,-0.038966
672,-461,0.145264,-0.0518799,0.00577676,-0.000940494,3.34322e-05,0.00577692,-0.000940661,0.00497691,0.0042001,0.0467506,1896,1485,0.145322,0.0519352
679,-461,0.101563,-0.28064,0.0064868,0.00152185,3.92035e-05,0.00648711,0.00152154,0.00789539,0.00391733,0.0451966,1903,1485,0.101521,0.280642
686,-461,-0.122192,-0.51416,0.00686004,0.00540319,0.000304725,0.00692121,0.00534202,0.198106,0.00418819,0.0428235,1910,1485,-0.122245,0.514213
693,-461,0,0,0,0,0,0,0,0,0,-1,1917,1485,0,0
700,-461,0,0,0,0,0,0,0,0,0,-1,1924,1485,0,0
707,-461,0,0,0,0,0,0,0,0,0,-1,1931,1485,0,0
714,-461,0,0,0,0,0,0,0,0,0,-1,1938,1485,0,0
721,-461,0,0,0,0,0,0,0,0,0,-1,1945,1485,0,0
728,-461,0,0,0,0,0,0,0,0,0,-1,1952,1485,0,0
735,-461,0,0,0,0,0,0,0,0,0,-1,1959,1485,0,0
742,-461,0,0,0,0,0,0,0,0,0,-1,1966,1485,0,0
749,-461,0,0,0,0,0,0,0,0,0,-1,1973,1485,0,0
756,-461,0,0,0,0,0,0,0,0,0,-1,1980,1485,0,0
763,-461,0,0,0,0,0,0,0,0,0,-1,1987,1485,0,0
770,-461,0,0,0,0,0,0,0,0,0,-1,1994,1485,0,0
777,-461,0,0,0,0,0,0,0,0,0,-1,2001,1485,0,0
784,-461,0,0,0,0,0,0,0,0,0,-1,2008,1485,0,0
791,-461,0,0,0,0,0,0,0,0,0,-1,2015,1485,0,0
798,-461,0,0,0,0,0,0,0,0,0,-1,2022,1485,0,0
805,-461,0,0,0,0,0,0,0,0,0,-1,2029,1485,0,0
812,-461,0,0,0,0,0,0,0,0,0,-1,2036,1485,0,0
-700,-468,0,0,0,0,0,0,0,0,0,-1,524,1492,0,0
-693,-468,0,0,0,0,0,0,0,0,0,-1,531,1492,0,0
-686,-468,0,0,0,0,0,0,0,0,0,-1,538,1492,0,0
-679,-468,0,0,0,0,0,0,0,0,0,-1,545,1492,0,0
-672,-468,0,0,0,0,0,0,0,0,0,-1,552,1492,0,0
-665,-468,0,0,0,0,0,0,0,0,0,-1,559,1492,0,0
-658,-468,0,0,0,0,0,0,0,0,0,-1,566,1492,0,0
-651,-468,0,0,0,0,0,0,0,0,0,-1,573,1492,0,0
-644,-468,0,0,0,0,0,0,0,0,0,-1,580,1492,0,0
-637,-468,0,0,0,0,0,0,0,0,0,-1,587,1492,0,0
-630,-468,0,0,0,0,0,0,0,0,0,-1,594,1492,0,0
-623,-468,0,0,0,0,0,0,0,0,0,-1,601,1492,0,0
-616,-468,0,0,0,0,0,0,0,0,0,-1,608,1492,0,0
-609,-468,0,0,0,0,0,0,0,0,0,-1,615,1492,0,0
-602,-468,0,0,0,0,0,0,0,0,0,-1,622,1492,0,0
-595,-468,0,0,0,0,0,0,0,0,0,-1,629,1492,0,0
-588,-468,0,0,0,0,0,0,0,0,0,-1,636,1492,0,0
-581,-468,0,0,0,0,0,0,0,0,0,-1,643,1492,0,0
-574,-468,0,0,0,0,0,0,0,0,0,-1,650,1492,0,0
-567,-468,-0.183105,0.108765,0.0253323,-0.022274,-0.0185651,0.0317161,-0.0286578,-0.331195,0.0348718,0.0437998,657,1492,-0.183113,-0.108797
-560,-468,0.186096,0.215088,0.0189485,-0.0172743,-0.0132799,0.0232955,-0.0216213,-0.316341,0.0259387,0.0426337,664,1492,0.18612,-0.215132
-553,-468,0.0801392,-0.49585,0.0145499,-0.0139928,-0.00947371,0.0174081,-0.016851,-0.293017,0.0197804,0.0446116,671,1492,0.0801477,0.495826
-546,-468,0.207947,-0.639282,0.0112797,-0.0111204,-0.00665405,0.0131072,-0.0129479,-0.268039,0.015043,0.0430992,678,1492,0.207916,0.639251
-539,-468,-0.0498047,-1.11218,0.00880349,-0.00886541,-0.00446106,0.00986593,-0.00992786,-0.233804,0.011428,0.0430731,685,1492,-0.0498217,1.11217
-532,-468,-0.349243,-1.13684,0,0,0,0,0,0,0,-1,692,1492,-0.349248,1.13682
-525,-468,-0.163147,0.0664063,0,0,0,0,0,0,0,-1,699,1492,-0.163127,-0.0664627
-518,-468,-0.0731812,0.0419922,0.00438165,-0.00587777,-0.000607158,0.00441745,-0.00591357,-0.0589065,0.00598543,0.0403702,706,1492,-0.073159,-0.0420488
-511,-468,-0.0690918,0.0718994,0.00313187,-0.00488164,-0.000383058,0.00315014,-0.00489991,-0.0476567,0.00468415,0.0287388,713,1492,-0.069062,-0.0718676
-504,-468,-0.0333862,0.0749512,0.00267263,-0.00414746,-0.000249628,0.00268175,-0.00415659,-0.0365367,0.00397861,0.0111706,720,1492,-0.0333652,-0.0749183
-497,-468,-0.0224609,0.0740967,0.00218116,-0.00316929,-1.96524e-05,0.00218124,-0.00316937,-0.00367296,0.00310668,0.0079627,727,1492,-0.0224418,-0.074095
-490,-468,-0.0247803,0.06604,0.00165048,-0.00321344,0.000198067,0.00165853,-0.00322149,0.040632,0.00286525,0.00769393,734,1492,-0.0248059,-0.0660678
-483,-468,-0.0282593,0.0585938,0.00139387,-0.00319749,0.000406312,0.00142955,-0.00323317,0.0875878,0.00275834,0.00778053,741,1492,-0.0282604,-0.0586106
-476,-468,-0.0202026,0.0587158,0.00118761,-0.00195321,0.000415721,0.0012417,-0.00200731,0.129392,0.0018931,0.00804687,748,1492,-0.0201821,-0.0587226
-469,-468,-0.0140381,0.050415,0.000795008,-0.000804605,0.000514367,0.00094613,-0.000955726,0.28576,0.00109804,0.0112006,755,1492,-0.014063,-0.0504127
-462,-468,-0.015686,0.0523682,0.000321518,-0.000113952,0.000851668,0.000982843,-0.000775277,0.66025,0.00101741,0.0196817,762,1492,-0.0156812,-0.052318
-455,-468,-0.0291748,0.0623779,-0.000539523,0.000300277,0.00130891,0.00125499,-0.00149423,0.940613,0.00158927,0.0205601,769,1492,-0.029187,-0.0623415
-448,-468,-0.0183105,0.0703125,-0.00204154,0.00102963,0.00184345,0.00189328,-0.00290519,1.13267,0.00279086,0.01321,776,1492,-0.0183138,-0.0703143
-441,-468,-0.0065918,0.0583496,-0.00420954,0.00159074,0.00233978,0.00241691,-0.00503571,1.23137,0.00439043,0.0116741,783,1492,-0.00656969,-0.0584062
-434,-468,0.00146484,0.0493164,-0.00694252,0.00222657,0.0027783,0.00300271,-0.00771867,1.29838,0.00638648,0.0106264,790,1492,0.0014926,-0.0493087
-427,-468,-0.003479,0.00952148,-0.0100488,0.00306293,0.00314931,0.00378014,-0.010766,1.34688,0.00871505,0.0122942,797,1492,-0.00347801,-0.00952239
-420,-468,0.00683594,0.0350342,-0.0139325,0.0033123,0.00389331,0.00415054,-0.0147707,1.35873,0.0114835,0.0210559,804,1492,0.00681265,-0.0349915
-413,-468,-0.0269165,0.143433,-0.0183463,0.00392232,0.0044435,0.00477623,-0.0192002,1.38094,0.014654,0.038622,811,1492,-0.0269269,-0.14344
-406,-468,-0.126831,0.343872,-0.0231755,0.00451609,0.00519865,0.00545989,-0.0241193,1.39121,0.0181749,0.0404911,818,1492,-0.126843,-0.343833
-399,-468,-0.369324,0.575806,-0.0252675,0.00756411,0.00247389,0.00774947,-0.0254528,1.49601,0.0200571,0.0396577,825,1492,-0.369298,-0.575839
-392,-468,-0.594971,0.886963,-0.0257156,0.00661973,-1.56505e-05,0.00661973,-0.0257156,-1.57031,0.0197241,0.0402623,832,1492,-0.594982,-0.886946
-385,-468,-0.847595,1.21875,-0.0246084,0.00334628,-0.00388512,0.00387619,-0.0251383,-1.43524,0.0181891,0.0432465,839,1492,-0.847573,-1.21876
-378,-468,-0.809692,1.51123,-0.0219379,-0.00252042,-0.0090862,0.00106815,-0.0255265,-1.19465,0.0173847,0.0456517,846,1492,-0.809694,-1.51122
-371,-468,-0.763672,2.03943,0,0,0,0,0,0,0,-1,853,1492,-0.763643,-2.03943
-364,-468,-3.62085,0.393677,0,0,0,0,0,0,0,-1,860,1492,-3.62087,-0.393659
-357,-468,-3.61823,0.412109,0,0,0,0,0,0,0,-1,867,1492,-3.61824,-0.412063
-350,-468,-3.8092,0.807373,0,0,0,0,0,0,0,-1,874,1492,-3.80923,-0.80733
-343,-468,0,0,0,0,0,0,0,0,0,-1,881,1492,0,0
-336,-468,0,0,0,0,0,0,0,0,0,-1,888,1492,0,0
-329,-468,0,0,0,0,0,0,0,0,0,-1,895,1492,0,0
-322,-468,0,0,0,0,0,0,0,0,0,-1,902,1492,0,0
-315,-468,0,0,0,0,0,0,0,0,0,-1,909,1492,0,0
-308,-468,0,0,0,0,0,0,0,0,0,-1,916,1492,0,0
-301,-468,0,0,0,0,0,0,0,0,0,-1,923,1492,0,0
-294,-468,0,0,0,0,0,0,0,0,0,-1,930,1492,0,0
-287,-468,0,0,0,0,0,0,0,0,0,-1,937,1492,0,0
-280,-468,0,0,0,0,0,0,0,0,0,-1,944,1492,0,0
-273,-468,0,0,0,0,0,0,0,0,0,-1,951,1492,0,0
-266,-468,0,0,0,0,0,0,0,0,0,-1,958,1492,0,0
-259,-468,0,0,0,0,0,0,0,0,0,-1,965,1492,0,0
-252,-468,0,0,0,0,0,0,0,0,0,-1,972,1492,0,0
-245,-468,0,0,0,0,0,0,0,0,0,-1,979,1492,0,0
-238,-468,0,0,0,0,0,0,0,0,0,-1,986,1492,0,0
-231,-468,0,0,0,0,0,0,0,0,0,-1,993,1492,0,0
-224,-468,0,0,0,0,0,0,0,0,0,-1,1000,1492,0,0
-217,-468,0,0,0,0,0,0,0,0,0,-1,1007,1492,0,0
-210,-468,0,0,0,0,0,0,0,0,0,-1,1014,1492,0,0
-203,-468,0,0,0,0,0,0,0,0,0,-1,1021,1492,0,0
-196,-468,0,0,0,0,0,0,0,0,0,-1,1028,1492,0,0
-189,-468,0,0,0,0,0,0,0,0,0,-1,1035,1492,0,0
-182,-468,0,0,0,0,0,0,0,0,0,-1,1042,1492,0,0
-175,-468,0,0,0,0,0,0,0,0,0,-1,1049,1492,0,0
-168,-468,0,0,0,0,0,0,0,0,0,-1,1056,1492,0,0
-161,-468,0,0,0,0,0,0,0,0,0,-1,1063,1492,0,0
-154,-468,0,0,0,0,0,0,0,0,0,-1,1070,1492,0,0
-147,-468,0,0,0,0,0,0,0,0,0,-1,1077,1492,0,0
-140,-468,0,0,0,0,0,0,0,0,0,-1,1084,1492,0,0
-133,-468,0,0,0,0,0,0,0,0,0,-1,1091,1492,0,0
-126,-468,0,0,0,0,0,0,0,0,0,-1,1098,1492,0,0
-119,-468,0,0,0,0,0,0,0,0,0,-1,1105,1492,0,0
-112,-468,0,0,0,0,0,0,0,0,0,-1,1112,1492,0,0
-105,-468,0,0,0,0,0,0,0,0,0,-1,1119,1492,0,0
-98,-468,0,0,0,0,0,0,0,0,0,-1,1126,1492,0,0
-91,-468,0,0,0,0,0,0,0,0,0,-1,1133,1492,0,0
-84,-468,0,0,0,0,0,0,0,0,0,-1,1140,1492,0,0
-77,-468,0,0,0,0,0,0,0,0,0,-1,1147,1492,0,0
-70,-468,0,0,0,0,0,0,0,0,0,-1,1154,1492,0,0
-63,-468,0,0,0,0,0,0,0,0,0,-1,1161,1492,0,0
-56,-468,0,0,0,0,0,0,0,0,0,-1,1168,1492,0,0
-49,-468,0,0,0,0,0,0,0,0,0,-1,1175,1492,0,0
-42,-468,0,0,0,0,0,0,0,0,0,-1,1182,1492,0,0
-35,-468,0,0,0,0,0,0,0,0,0,-1,1189,1492,0,0
-28,-468,0,0,0,0,0,0,0,0,0,-1,1196,1492,0,0
-21,-468,0,0,0,0,0,0,0,0,0,-1,1203,1492,0,0
-14,-468,0,0,0,0,0,0,0,0,0,-1,1210,1492,0,0
-7,-468,0,0,0,0,0,0,0,0,0,-1,1217,1492,0,0
0,-468,0,0,0,0,0,0,0,0,0,-1,1224,1492,0,0
7,-468,0,0,0,0,0,0,0,0,0,-1,1231,1492,0,0
14,-468,0,0,0,0,0,0,0,0,0,-1,1238,1492,0,0
21,-468,0,0,0,0,0,0,0,0,0,-1,1245,1492,0,0
28,-468,0,0,0,0,0,0,0,0,0,-1,1252,1492,0,0
35,-468,0,0,0,0,0,0,0,0,0,-1,1259,1492,0,0
42,-468,0,0,0,0,0,0,0,0,0,-1,1266,1492,0,0
49,-468,0,0,0,0,0,0,0,0,0,-1,1273,1492,0,0
56,-468,0,0,0,0,0,0,0,0,0,-1,1280,1492,0,0
63,-468,0,0,0,0,0,0,0,0,0,-1,1287,1492,0,0
70,-468,0,0,0,0,0,0,0,0,0,-1,1294,1492,0,0
77,-468,0,0,0,0,0,0,0,0,0,-1,1301,1492,0,0
84,-468,0,0,0,0,0,0,0,0,0,-1,1308,1492,0,0
91,-468,0,0,0,0,0,0,0,0,0,-1,1315,1492,0,0
98,-468,0,0,0,0,0,0,0,0,0,-1,1322,1492,0,0
105,-468,0,0,0,0,0,0,0,0,0,-1,1329,1492,0,0
112,-468,0,0,0,0,0,0,0,0,0,-1,1336,1492,0,0
119,-468,0,0,0,0,0,0,0,0,0,-1,1343,1492,0,0
126,-468,0,0,0,0,0,0,0,0,0,-1,1350,1492,0,0
133,-468,0,0,0,0,0,0,0,0,0,-1,1357,1492,0,0
140,-468,0,0,0,0,0,0,0,0,0,-1,1364,1492,0,0
147,-468,0,0,0,0,0,0,0,0,0,-1,1371,1492,0,0
154,-468,0,0,0,0,0,0,0,0,0,-1,1378,1492,0,0
161,-468,0,0,0,0,0,0,0,0,0,-1,1385,1492,0,0
168,-468,0,0,0,0,0,0,0,0,0,-1,1392,1492,0,0
175,-468,0,0,0,0,0,0,0,0,0,-1,1399,1492,0,0
182,-468,0,0,0,0,0,0,0,0,0,-1,1406,1492,0,0
189,-468,0,0,0,0,0,0,0,0,0,-1,1413,1492,0,0
196,-468,0,0,0,0,0,0,0,0,0,-1,1420,1492,0,0
203,-468,0,0,0,0,0,0,0,0,0,-1,1427,1492,0,0
210,-468,0,0,0,0,0,0,0,0,0,-1,1434,1492,0,0
217,-468,0,0,0,0,0,0,0,0,0,-1,1441,1492,0,0
224,-468,0,0,0,0,0,0,0,0,0,-1,1448,1492,0,0
231,-468,0,0,0,0,0,0,0,0,0,-1,1455,1492,0,0
238,-468,0,0,0,0,0,0,0,0,0,-1,1462,1492,0,0
245,-468,0,0,0,0,0,0,0,0,0,-1,1469,1492,0,0
252,-468,0,0,0,0,0,0,0,0,0,-1,1476,1492,0,0
259,-468,0,0,0,0,0,0,0,0,0,-1,1483,1492,0,0
266,-468,0,0,0,0,0,0,0,0,0,-1,1490,1492,0,0
273,-468,0,0,0,0,0,0,0,0,0,-1,1497,1492,0,0
280,-468,0,0,0,0,0,0,0,0,0,-1,1504,1492,0,0
287,-468,0,0,0,0,0,0,0,0,0,-1,1511,1492,0,0
294,-468,0,0,0,0,0,0,0,0,0,-1,1518,1492,0,0
301,-468,0,0,0,0,0,0,0,0,0,-1,1525,1492,0,0
308,-468,0,0,0,0,0,0,0,0,0,-1,1532,1492,0,0
315,-468,0,0,0,0,0,0,0,0,0,-1,1539,1492,0,0
322,-468,0,0,0,0,0,0,0,0,0,-1,1546,1492,0,0
329,-468,0,0,0,0,0,0,0,0,0,-1,1553,1492,0,0
336,-468,0,0,0,0,0,0,0,0,0,-1,1560,1492,0,0
343,-468,0,0,0,0,0,0,0,0,0,-1,1567,1492,0,0
350,-468,0,0,0,0,0,0,0,0,0,-1,1574,1492,0,0
357,-468,0,0,0,0,0,0,0,0,0,-1,1581,1492,0,0
364,-468,0,0,0,0,0,0,0,0,0,-1,1588,1492,0,0
371,-468,0,0,0,0,0,0,0,0,0,-1,1595,1492,0,0
378,-468,0,0,0,0,0,0,0,0,0,-1,1602,1492,0,0
385,-468,0,0,0,0,0,0,0,0,0,-1,1609,1492,0,0
392,-468,0,0,0,0,0,0,0,0,0,-1,1616,1492,0,0
399,-468,0,0,0,0,0,0,0,0,0,-1,1623,1492,0,0
406,-468,0,0,0,0,0,0,0,0,0,-1,1630,1492,0,0
413,-468,0,0,0,0,0,0,0,0,0,-1,1637,1492,0,0
420,-468,0,0,0,0,0,0,0,0,0,-1,1644,1492,0,0
427,-468,0,0,0,0,0,0,0,0,0,-1,1651,1492,0,0
434,-468,0,0,0,0,0,0,0,0,0,-1,1658,1492,0,0
441,-468,0,0,0,0,0,0,0,0,0,-1,1665,1492,0,0
448,-468,0,0,0,0,0,0,0,0,0,-1,1672,1492,0,0
455,-468,0,0,0,0,0,0,0,0,0,-1,1679,1492,0,0
462,-468,0,0,0,0,0,0,0,0,0,-1,1686,1492,0,0
469,-468,0.49292,0.204956,0,0,0,0,0,0,0,-1,1693,1492,0.492965,-0.204947
476,-468,0.09729,-0.0999756,-0.0150209,-0.0111172,0.00676457,-0.00602851,-0.0201096,0.925852,0.0119165,0.0450156,1700,1492,0.0972962,0.0999685
483,-468,-0.273193,-0.264282,-0.00772959,-0.0124211,0.00416881,-0.00529187,-0.0148588,0.529131,0.00869629,0.0467649,1707,1492,-0.273227,0.26434
490,-468,-0.249878,0.0169678,-0.00374222,-0.012804,0.00164078,-0.00345428,-0.0130919,0.173721,0.0078346,0.0412044,1714,1492,-0.249901,-0.0169419
497,-468,-0.0869141,0.362915,-0.00178798,-0.0127076,-0.000626831,-0.00175211,-0.0127434,-0.0571541,0.00797599,0.0393249,1721,1492,-0.0869412,-0.362947
504,-468,-0.0537109,0.338867,-0.00125226,-0.0121203,-0.00218066,-0.000831035,-0.0125415,-0.190812,0.00809823,0.0422947,1728,1492,-0.0536563,-0.338814
511,-468,-0.137817,0.364014,-0.00129716,-0.0111601,-0.00294981,-0.000482257,-0.011975,-0.269533,0.00782753,0.043656,1735,1492,-0.137842,-0.364058
518,-468,0.340454,0.233154,0,0,0,0,0,0,0,-1,1742,1492,0.340406,-0.233211
525,-468,-0.130005,-0.0847168,-0.00145196,-0.00870177,-0.00292191,-0.000420956,-0.00973278,-0.339214,0.00635285,0.0443078,1749,1492,-0.129948,0.0846692
532,-468,-0.50293,-0.620972,-0.00139564,-0.00763383,-0.00249297,-0.000521785,-0.00850768,-0.337145,0.00550611,0.0442467,1756,1492,-0.502962,0.62096
539,-468,-0.752075,-0.534546,0,0,0,0,0,0,0,-1,1763,1492,-0.752095,0.534577
546,-468,-0.211426,-0.055542,-0.00170728,-0.00499011,-0.00138869,-0.00119864,-0.00549874,-0.351094,0.00333879,0.0425509,1770,1492,-0.211395,0.0555231
553,-468,-0.130127,-0.0134277,-0.00164331,-0.00374651,-0.000723262,-0.0014186,-0.00397122,-0.301236,0.00232374,0.0310914,1777,1492,-0.130114,0.0134444
560,-468,-0.0501709,0.0662842,-0.00121195,-0.00262833,0.000139281,-0.00119839,-0.00264189,0.097097,0.00152748,0.0147144,1784,1492,-0.0501643,-0.0662777
567,-468,-0.0457764,0.0478516,-0.000864155,-0.00193786,0.00058756,-0.000605119,-0.00219689,0.415233,0.00131032,0.0118306,1791,1492,-0.0457824,-0.0478439
574,-468,-0.0406494,0.0462646,-0.000249771,-0.00122815,0.000969613,0.000347067,-0.00182499,0.551769,0.00134733,0.0122943,1798,1492,-0.0406044,-0.0462644
581,-468,-0.0284424,0.0634766,0.000602991,-0.000949999,0.00111775,0.0011875,-0.0015345,0.481821,0.0015758,0.0130999,1805,1492,-0.0284078,-0.0635175
588,-468,-0.0484619,0.0695801,0.000970822,-0.000847297,0.00103525,0.00143949,-0.00131597,0.425106,0.0015914,0.0116728,1812,1492,-0.0484259,-0.069579
595,-468,-0.0595703,0.0672607,0.000652124,-0.00084992,0.000793412,0.000993593,-0.00119139,0.406419,0.00126322,0.00989592,1819,1492,-0.0595454,-0.0672462
602,-468,-0.0479736,0.057373,0.000361219,-0.000894326,0.000701444,0.000674787,-0.00120789,0.420383,0.0011014,0.0081457,1826,1492,-0.0479522,-0.0573905
609,-468,-0.0435791,0.0495605,0.000460841,-0.00141228,0.000742305,0.000719338,-0.00167078,0.335102,0.00141591,0.00841718,1833,1492,-0.0436242,-0.0495796
616,-468,-0.034668,0.0603027,0.000891907,-0.00221618,0.000903055,0.00113524,-0.00245951,0.263203,0.00212186,0.00908742,1840,1492,-0.0346825,-0.060327
623,-468,-0.043335,0.0737305,0.00129966,-0.0028285,0.000869405,0.00147529,-0.00300412,0.199327,0.00263592,0.00949841,1847,1492,-0.0433243,-0.073754
630,-468,-0.0467529,0.0609131,0.00168686,-0.00366314,0.000923169,0.00184168,-0.00381796,0.166156,0.00333333,0.00908964,1854,1492,-0.0467047,-0.0609529
637,-468,-0.048584,0.0556641,0.00219944,-0.00433226,0.000961771,0.00233812,-0.00447093,0.143198,0.00399498,0.0118452,1861,1492,-0.0485504,-0.0556322
644,-468,-0.071167,0.0583496,0.0030504,-0.00527986,0.00107732,0.00318747,-0.00541693,0.126552,0.00502303,0.0186216,1868,1492,-0.0712042,-0.0582896
651,-468,-0.0914307,-0.0161133,0.00401513,-0.00596105,0.00134255,0.00419265,-0.00613856,0.13146,0.00599989,0.0345585,1875,1492,-0.0913906,0.0160629
658,-468,0.0809326,-0.012207,0.00510325,-0.00651666,0.00138534,0.00526612,-0.00667954,0.117036,0.00691291,0.0389573,1882,1492,0.0808808,0.0122441
665,-468,0.234741,-0.0135498,0.00627482,-0.00656718,0.0014266,0.00643139,-0.00672375,0.109313,0.00759575,0.0404579,1889,1492,0.23468,0.0136007
672,-468,0.197754,-0.0845947,0.00746657,-0.00585236,0.00154966,0.0076445,-0.00603029,0.114316,0.00791345,0.0424804,1896,1492,0.197734,0.0846525
679,-468,-0.0684814,-0.172974,0,0,0,0,0,0,0,-1,1903,1492,-0.0684615,0.172956
686,-468,-0.414551,-0.234009,0,0,0,0,0,0,0,-1,1910,1492,-0.41458,0.234062
693,-468,0,0,0,0,0,0,0,0,0,-1,1917,1492,0,0
700,-468,0,0,0,0,0,0,0,0,0,-1,1924,1492,0,0
707,-468,0,0,0,0,0,0,0,0,0,-1,1931,1492,0,0
714,-468,0,0,0,0,0,0,0,0,0,-1,1938,1492,0,0
721,-468,0,0,0,0,0,0,0,0,0,-1,1945,1492,0,0
728,-468,0,0,0,0,0,0,0,0,0,-1,1952,1492,0,0
735,-468,0,0,0,0,0,0,0,0,0,-1,1959,1492,0,0
742,-468,0,0,0,0,0,0,0,0,0,-1,1966,1492,0,0
749,-468,0,0,0,0,0,0,0,0,0,-1,1973,1492,0,0
756,-468,0,0,0,0,0,0,0,0,0,-1,1980,1492,0,0
763,-468,0,0,0,0,0,0,0,0,0,-1,1987,1492,0,0
770,-468,0,0,0,0,0,0,0,0,0,-1,1994,1492,0,0
777,-468,0,0,0,0,0,0,0,0,0,-1,2001,1492,0,0
784,-468,0,0,0,0,0,0,0,0,0,-1,2008,1492,0,0
791,-468,0,0,0,0,0,0,0,0,0,-1,2015,1492,0,0
798,-468,0,0,0,0,0,0,0,0,0,-1,2022,1492,0,0
805,-468,0,0,0,0,0,0,0,0,0,-1,2029,1492,0,0
812,-468,0,0,0,0,0,0,0,0,0,-1,2036,1492,0,0
-700,-475,0,0,0,0,0,0,0,0,0,-1,524,1499,0,0
-693,-475,0,0,0,0,0,0,0,0,0,-1,531,1499,0,0
-686,-475,0,0,0,0,0,0,0,0,0,-1,538,1499,0,0
-679,-475,0,0,0,0,0,0,0,0,0,-1,545,1499,0,0
-672,-475,0,0,0,0,0,0,0,0,0,-1,552,1499,0,0
-665,-475,0,0,0,0,0,0,0,0,0,-1,559,1499,0,0
-658,-475,0,0,0,0,0,0,0,0,0,-1,566,1499,0,0
-651,-475,0,0,0,0,0,0,0,0,0,-1,573,1499,0,0
-644,-475,0,0,0,0,0,0,0,0,0,-1,580,1499,0,0
-637,-475,0,0,0,0,0,0,0,0,0,-1,587,1499,0,0
-630,-475,0,0,0,0,0,0,0,0,0,-1,594,1499,0,0
-623,-475,0,0,0,0,0,0,0,0,0,-1,601,1499,0,0
-616,-475,0,0,0,0,0,0,0,0,0,-1,608,1499,0,0
-609,-475,0,0,0,0,0,0,0,0,0,-1,615,1499,0,0
-602,-475,0,0,0,0,0,0,0,0,0,-1,622,1499,0,0
-595,-475,0,0,0,0,0,0,0,0,0,-1,629,1499,0,0
-588,-475,0,0,0,0,0,0,0,0,0,-1,636,1499,0,0
-581,-475,0,0,0,0,0,0,0,0,0,-1,643,1499,0,0
-574,-475,0,0,0,0,0,0,0,0,0,-1,650,1499,0,0
-567,-475,0,0,0,0,0,0,0,0,0,-1,657,1499,0,0
-560,-475,0.102478,0.606323,0.0178722,-0.0250927,-0.0115729,0.0207912,-0.0280117,-0.247069,0.0282789,0.0412192,664,1499,0.102494,-0.606365
-553,-475,0.332764,0.700928,0.0124162,-0.0190244,-0.00811609,0.0143876,-0.0209958,-0.238294,0.0205471,0.0455782,671,1499,0.332788,-0.700946
-546,-475,0.571228,-0.861572,0,0,0,0,0,0,0,-1,678,1499,0.57125,0.861578
-539,-475,0.226318,-1.79443,0,0,0,0,0,0,0,-1,685,1499,0.226305,1.79449
-532,-475,-0.0619507,-1.88867,0,0,0,0,0,0,0,-1,692,1499,-0.0619214,1.88871
-525,-475,-0.210632,0.545166,0.0019216,-0.00662379,-0.000261762,0.00192961,-0.0066318,-0.0305937,0.00518549,0.0408435,699,1499,-0.210628,-0.545213
-518,-475,0.10675,0.140381,0.00105338,-0.00550504,0.00034128,0.00107109,-0.00552275,0.0518503,0.00408593,0.0449311,706,1499,0.106739,-0.140395
-511,-475,-0.299072,0.294678,-8.36078e-06,-0.00442382,0.000526332,5.35117e-05,-0.0044857,0.117018,0.00300846,0.0405522,713,1499,-0.299082,-0.294721
-504,-475,-0.108459,0.106689,-0.000203799,-0.00357311,0.000620385,-9.31986e-05,-0.00368371,0.176423,0.00242534,0.0224392,720,1499,-0.108439,-0.106736
-497,-475,-0.0383911,0.0705566,-0.000314821,-0.00264122,0.000762339,-8.72676e-05,-0.00286878,0.290074,0.0018841,0.010855,727,1499,-0.0383858,-0.0705172
-490,-475,-0.0247803,0.0727539,-0.000425878,-0.00275199,0.000765532,-0.000196548,-0.00298132,0.291062,0.00192538,0.00783053,734,1499,-0.0247875,-0.0728048
-483,-475,-0.0203247,0.0742188,-0.000333068,-0.00272606,0.000724985,-0.000130562,-0.00292857,0.272382,0.00191034,0.00761641,741,1499,-0.0203123,-0.0741672
-476,-475,-0.0216675,0.0570068,-0.000216718,-0.00155782,0.000510884,-4.42739e-05,-0.00173027,0.325532,0.00113904,0.00869981,748,1499,-0.0216914,-0.0569694
-469,-475,-0.0203857,0.0383301,-0.000313781,-0.00041414,0.000392823,3.2055e-05,-0.000759976,0.721872,0.000517666,0.00990984,755,1499,-0.0203777,-0.0382797
-462,-475,-0.0167236,0.019043,-0.000423712,0.000200865,0.000519209,0.000494466,-0.000717313,1.05615,0.000703553,0.0144392,762,1499,-0.0167066,-0.0190481
-455,-475,-0.0219727,0.0517578,-0.000901082,0.000575509,0.000830915,0.000948744,-0.00127432,1.14862,0.00128806,0.013637,769,1499,-0.0219848,-0.0517448
-448,-475,-0.0192871,0.0949707,-0.00200571,0.00134005,0.00123661,0.00174749,-0.00241315,1.25252,0.00241237,0.011621,776,1499,-0.0192868,-0.0949268
-441,-475,-0.00640869,0.0825195,-0.00365325,0.00185023,0.00165789,0.00231107,-0.00411409,1.29967,0.00375794,0.0149498,783,1499,-0.00641714,-0.082524
-434,-475,-0.0110474,0.0251465,-0.0057517,0.00244724,0.00201763,0.00291685,-0.00622131,1.34211,0.00538968,0.00983123,790,1499,-0.0110576,-0.0252037
-427,-475,-0.0187988,0.0239258,-0.00822121,0.0032717,0.00234665,0.00373238,-0.00868189,1.37695,0.00735482,0.0101132,797,1499,-0.0188175,-0.0238879
-420,-475,-0.0405273,0.0532227,-0.0113101,0.00367641,0.00303726,0.00426856,-0.0119022,1.37825,0.00967676,0.0127095,804,1499,-0.0405192,-0.0532148
-413,-475,-0.0111084,0.0799561,-0.0147223,0.00442317,0.00357236,0.00506802,-0.0153671,1.39221,0.0122876,0.0262429,811,1499,-0.0111137,-0.0800059
-406,-475,-0.128906,0.297119,-0.0183314,0.00535111,0.00432026,0.00611461,-0.0190949,1.39588,0.0151842,0.0415113,818,1499,-0.128935,-0.297123
-399,-475,-0.362976,0.492554,-0.0191178,0.00901197,0.00149538,0.00909124,-0.0191971,1.51784,0.016676,0.0429522,825,1499,-0.362973,-0.492608
-392,-475,-0.649353,0.590454,-0.0184664,0.0087347,-0.000908073,0.00876498,-0.0184967,-1.53746,0.0160704,0.0432283,832,1499,-0.64938,-0.590471
-385,-475,-0.566528,0.481812,-0.0166423,0.00635098,-0.00450514,0.00720218,-0.0174935,-1.38406,0.0146649,0.0416637,839,1499,-0.56651,-0.481844
-378,-475,-0.392456,0.51355,0,0,0,0,0,0,0,-1,846,1499,-0.392438,-0.513525
-371,-475,0.168762,1.61584,0,0,0,0,0,0,0,-1,853,1499,0.168758,-1.61586
-364,-475,-2.51294,0.381958,0,0,0,0,0,0,0,-1,860,1499,-2.51292,-0.3819
-357,-475,-2.8255,0.417358,0,0,0,0,0,0,0,-1,867,1499,-2.82551,-0.417362
-350,-475,-3.30255,0.701538,0,0,0,0,0,0,0,-1,874,1499,-3.30255,-0.701544
-343,-475,-3.75476,1.05066,0,0,0,0,0,0,0,-1,881,1499,-3.75475,-1.0506
-336,-475,0,0,0,0,0,0,0,0,0,-1,888,1499,0,0
-329,-475,0,0,0,0,0,0,0,0,0,-1,895,1499,0,0
-322,-475,0,0,0,0,0,0,0,0,0,-1,902,1499,0,0
-315,-475,0,0,0,0,0,0,0,0,0,-1,909,1499,0,0
-308,-475,0,0,0,0,0,0,0,0,0,-1,916,1499,0,0
-301,-475,0,0,0,0,0,0,0,0,0,-1,923,1499,0,0
-294,-475,0,0,0,0,0,0,0,0,0,-1,930,1499,0,0
-287,-475,0,0,0,0,0,0,0,0,0,-1,937,1499,0,0
-280,-475,0,0,0,0,0,0,0,0,0,-1,944,1499,0,0
-273,-475,0,0,0,0,0,0,0,0,0,-1,951,1499,0,0
-266,-475,0,0,0,0,0,0,0,0,0,-1,958,1499,0,0
-259,-475,0,0,0,0,0,0,0,0,0,-1,965,1499,0,0
-252,-475,0,0,0,0,0,0,0,0,0,-1,972,1499,0,0
-245,-475,0,0,0,0,0,0,0,0,0,-1,979,1499,0,0
-238,-475,0,0,0,0,0,0,0,0,0,-1,986,1499,0,0
-231,-475,0,0,0,0,0,0,0,0,0,-1,993,1499,0,0
-224,-475,0,0,0,0,0,0,0,0,0,-1,1000,1499,0,0
-217,-475,0,0,0,0,0,0,0,0,0,-1,1007,1499,0,0
-210,-475,0,0,0,0,0,0,0,0,0,-1,1014,1499,0,0
-203,-475,0,0,0,0,0,0,0,0,0,-1,1021,1499,0,0
-196,-475,0,0,0,0,0,0,0,0,0,-1,1028,1499,0,0
-189,-475,0,0,0,0,0,0,0,0,0,-1,1035,1499,0,0
-182,-475,0,0,0,0,0,0,0,0,0,-1,1042,1499,0,0
-175,-475,0,0,0,0,0,0,0,0,0,-1,1049,1499,0,0
-168,-475,0,0,0,0,0,0,0,0,0,-1,1056,1499,0,0
-161,-475,0,0,0,0,0,0,0,0,0,-1,1063,1499,0,0
-154,-475,0,0,0,0,0,0,0,0,0,-1,1070,1499,0,0
-147,-475,0,0,0,0,0,0,0,0,0,-1,1077,1499,0,0
-140,-475,0,0,0,0,0,0,0,0,0,-1,1084,1499,0,0
-133,-475,0,0,0,0,0,0,0,0,0,-1,1091,1499,0,0
-126,-475,0,0,0,0,0,0,0,0,0,-1,1098,1499,0,0
-119,-475,0,0,0,0,0,0,0,0,0,-1,1105,1499,0,0
-112,-475,0,0,0,0,0,0,0,0,0,-1,1112,1499,0,0
-105,-475,0,0,0,0,0,0,0,0,0,-1,1119,1499,0,0
-98,-475,0,0,0,0,0,0,0,0,0,-1,1126,1499,0,0
-91,-475,0,0,0,0,0,0,0,0,0,-1,1133,1499,0,0
-84,-475,0,0,0,0,0,0,0,0,0,-1,1140,1499,0,0
-77,-475,0,0,0,0,0,0,0,0,0,-1,1147,1499,0,0
-70,-475,0,0,0,0,0,0,0,0,0,-1,1154,1499,0,0
-63,-475,0,0,0,0,0,0,0,0,0,-1,1161,1499,0,0
-56,-475,0,0,0,0,0,0,0,0,0,-1,1168,1499,0,0
-49,-475,0,0,0,0,0,0,0,0,0,-1,1175,1499,0,0
-42,-475,0,0,0,0,0,0,0,0,0,-1,1182,1499,0,0
-35,-475,0,0,0,0,0,0,0,0,0,-1,1189,1499,0,0
-28,-475,0,0,0,0,0,0,0,0,0,-1,1196,1499,0,0
-21,-475,0,0,0,0,0,0,0,0,0,-1,1203,1499,0,0
-14,-475,0,0,0,0,0,0,0,0,0,-1,1210,1499,0,0
-7,-475,0,0,0,0,0,0,0,0,0,-1,1217,1499,0,0
0,-475,0,0,0,0,0,0,0,0,0,-1,1224,1499,0,0
7,-475,0,0,0,0,0,0,0,0,0,-1,1231,1499,0,0
14,-475,0,0,0,0,0,0,0,0,0,-1,1238,1499,0,0
21,-475,0,0,0,0,0,0,0,0,0,-1,1245,1499,0,0
28,-475,0,0,0,0,0,0,0,0,0,-1,1252,1499,0,0
35,-475,0,0,0,0,0,0,0,0,0,-1,1259,1499,0,0
42,-475,0,0,0,0,0,0,0,0,0,-1,1266,1499,0,0
49,-475,0,0,0,0,0,0,0,0,0,-1,1273,1499,0,0
56,-475,0,0,0,0,0,0,0,0,0,-1,1280,1499,0,0
63,-475,0,0,0,0,0,0,0,0,0,-1,1287,1499,0,0
70,-475,0,0,0,0,0,0,0,0,0,-1,1294,1499,0,0
77,-475,0,0,0,0,0,0,0,0,0,-1,1301,1499,0,0
84,-475,0,0,0,0,0,0,0,0,0,-1,1308,1499,0,0
91,-475,0,0,0,0,0,0,0,0,0,-1,1315,1499,0,0
98,-475,0,0,0,0,0,0,0,0,0,-1,1322,1499,0,0
105,-475,0,0,0,0,0,0,0,0,0,-1,1329,1499,0,0
112,-475,0,0,0,0,0,0,0,0,0,-1,1336,1499,0,0
119,-475,0,0,0,0,0,0,0,0,0,-1,1343,1499,0,0
126,-475,0,0,0,0,0,0,0,0,0,-1,1350,1499,0,0
133,-475,0,0,0,0,0,0,0,0,0,-1,1357,1499,0,0
140,-475,0,0,0,0,0,0,0,0,0,-1,1364,1499,0,0
147,-475,0,0,0,0,0,0,0,0,0,-1,1371,1499,0,0
154,-475,0,0,0,0,0,0,0,0,0,-1,1378,1499,0,0
161,-475,0,0,0,0,0,0,0,0,0,-1,1385,1499,0,0
168,-475,0,0,0,0,0,0,0,0,0,-1,1392,1499,0,0
175,-475,0,0,0,0,0,0,0,0,0,-1,1399,1499,0,0
182,-475,0,0,0,0,0,0,0,0,0,-1,1406,1499,0,0
189,-475,0,0,0,0,0,0,0,0,0,-1,1413,1499,0,0
196,-475,0,0,0,0,0,0,0,0,0,-1,1420,1499,0,0
203,-475,0,0,0,0,0,0,0,0,0,-1,1427,1499,0,0
210,-475,0,0,0,0,0,0,0,0,0,-1,1434,1499,0,0
217,-475,0,0,0,0,0,0,0,0,0,-1,1441,1499,0,0
224,-475,0,0,0,0,0,0,0,0,0,-1,1448,1499,0,0
231,-475,0,0,0,0,0,0,0,0,0,-1,1455,1499,0,0
238,-475,0,0,0,0,0,0,0,0,0,-1,1462,1499,0,0
245,-475,0,0,0,0,0,0,0,0,0,-1,1469,1499,0,0
252,-475,0,0,0,0,0,0,0,0,0,-1,1476,1499,0,0
259,-475,0,0,0,0,0,0,0,0,0,-1,1483,1499,0,0
266,-475,0,0,0,0,0,0,0,0,0,-1,1490,1499,0,0
273,-475,0,0,0,0,0,0,0,0,0,-1,1497,1499,0,0
280,-475,0,0,0,0,0,0,0,0,0,-1,1504,1499,0,0
287,-475,0,0,0,0,0,0,0,0,0,-1,1511,1499,0,0
294,-475,0,0,0,0,0,0,0,0,0,-1,1518,1499,0,0
301,-475,0,0,0,0,0,0,0,0,0,-1,1525,1499,0,0
308,-475,0,0,0,0,0,0,0,0,0,-1,1532,1499,0,0
315,-475,0,0,0,0,0,0,0,0,0,-1,1539,1499,0,0
322,-475,0,0,0,0,0,0,0,0,0,-1,1546,1499,0,0
329,-475,0,0,0,0,0,0,0,0,0,-1,1553,1499,0,0
336,-475,0,0,0,0,0,0,0,0,0,-1,1560,1499,0,0
343,-475,0,0,0,0,0,0,0,0,0,-1,1567,1499,0,0
350,-475,0,0,0,0,0,0,0,0,0,-1,1574,1499,0,0
357,-475,0,0,0,0,0,0,0,0,0,-1,1581,1499,0,0
364,-475,0,0,0,0,0,0,0,0,0,-1,1588,1499,0,0
371,-475,0,0,0,0,0,0,0,0,0,-1,1595,1499,0,0
378,-475,0,0,0,0,0,0,0,0,0,-1,1602,1499,0,0
385,-475,0,0,0,0,0,0,0,0,0,-1,1609,1499,0,0
392,-475,0,0,0,0,0,0,0,0,0,-1,1616,1499,0,0
399,-475,0,0,0,0,0,0,0,0,0,-1,1623,1499,0,0
406,-475,0,0,0,0,0,0,0,0,0,-1,1630,1499,0,0
413,-475,0,0,0,0,0,0,0,0,0,-1,1637,1499,0,0
420,-475,0,0,0,0,0,0,0,0,0,-1,1644,1499,0,0
427,-475,0,0,0,0,0,0,0,0,0,-1,1651,1499,0,0
434,-475,0,0,0,0,0,0,0,0,0,-1,1658,1499,0,0
441,-475,0,0,0,0,0,0,0,0,0,-1,1665,1499,0,0
448,-475,0,0,0,0,0,0,0,0,0,-1,1672,1499,0,0
455,-475,0,0,0,0,0,0,0,0,0,-1,1679,1499,0,0
462,-475,0.699951,-0.010498,0,0,0,0,0,0,0,-1,1686,1499,0.699925,0.0104868
469,-475,0.244141,0.323242,0,0,0,0,0,0,0,-1,1693,1499,0.244147,-0.323242
476,-475,-0.685791,-0.123657,0,0,0,0,0,0,0,-1,1700,1499,-0.685768,0.123612
483,-475,-0.388672,0.0435791,-0.00746035,-0.00877545,0.004029,-0.0040356,-0.0122002,0.704509,0.007177,0.0418788,1707,1499,-0.388662,-0.0435436
490,-475,-0.0695801,0.21936,-0.00359733,-0.0092067,0.00160049,-0.0031728,-0.00963123,0.259279,0.00566742,0.0396354,1714,1499,-0.0696027,-0.219405
497,-475,0.15332,0.366577,-0.00165382,-0.0093785,-0.000596852,-0.00160798,-0.00942434,-0.0766593,0.0058214,0.0406962,1721,1499,0.153348,-0.366544
504,-475,0.129639,0.290405,-0.000962682,-0.00920809,-0.00224517,-0.000390976,-0.0097798,-0.249339,0.00639352,0.0430802,1728,1499,0.129642,-0.29039
511,-475,-0.154419,0.182861,-0.00085901,-0.00863172,-0.00326053,0.000327587,-0.00981832,-0.349028,0.00665743,0.0417373,1735,1499,-0.154362,-0.182901
518,-475,0.00622559,0.297729,-0.000856373,-0.00758408,-0.00358201,0.000693666,-0.00913412,-0.408398,0.00633331,0.0437521,1742,1499,0.00624294,-0.297715
525,-475,-0.205322,0.00390625,-0.000878822,-0.0069551,-0.00361636,0.000806213,-0.00864013,-0.436036,0.00604677,0.0452847,1749,1499,-0.205273,-0.00395014
532,-475,-0.566162,-0.658569,-0.000885366,-0.00621818,-0.00338207,0.000754978,-0.00785853,-0.451586,0.00550795,0.0449352,1756,1499,-0.566172,0.658571
539,-475,-0.797852,-0.533936,0,0,0,0,0,0,0,-1,1763,1499,-0.797823,0.533896
546,-475,-0.102661,0.052002,-0.00138886,-0.00401012,-0.00248651,0.00011129,-0.00551028,-0.542854,0.00371117,0.0318161,1770,1499,-0.102701,-0.0520396
553,-475,-0.0775146,0.064209,-0.00139162,-0.00301969,-0.00186601,-0.000169821,-0.00424149,-0.579721,0.00277279,0.0167047,1777,1499,-0.0775058,-0.0641913
560,-475,-0.0581055,0.0664063,-0.000868349,-0.00202399,-0.00090946,-0.000368675,-0.00252366,-0.502396,0.00157401,0.0119806,1784,1499,-0.0581472,-0.0664065
567,-475,-0.0384521,0.0356445,-0.000503162,-0.00149945,-0.000367311,-0.000382384,-0.00162023,-0.31768,0.000977937,0.0122181,1791,1499,-0.0384038,-0.0356517
574,-475,-0.0534668,0.0421143,3.2322e-05,-0.00101952,9.8305e-05,4.14308e-05,-0.00102863,0.092394,0.000699969,0.0128985,1798,1499,-0.0534939,-0.042068
581,-475,-0.0477295,0.0687256,0.000731455,-0.000893131,0.000356349,0.000806182,-0.000967857,0.206706,0.00102566,0.0111805,1805,1499,-0.0477718,-0.0686818
588,-475,-0.0432129,0.0672607,0.00105398,-0.000927096,0.000421895,0.00114009,-0.0010132,0.201327,0.00124392,0.00986271,1812,1499,-0.0432566,-0.0672971
595,-475,-0.0269775,0.0617676,0.00091545,-0.00105924,0.000352171,0.000976377,-0.00112017,0.171309,0.00121139,0.010328,1819,1499,-0.0269461,-0.0618132
602,-475,-0.0235596,0.0545654,0.000583422,-0.00126044,0.000396877,0.000665218,-0.00134223,0.203254,0.00118077,0.011291,1826,1499,-0.023506,-0.0546247
609,-475,-0.0220947,0.0544434,0.000625894,-0.00203618,0.000595909,0.000753201,-0.00216349,0.210471,0.00174834,0.0104996,1833,1499,-0.0221557,-0.0544482
616,-475,-0.0333252,0.0662842,0.0010997,-0.00314632,0.000961525,0.00130729,-0.00335391,0.212634,0.00277627,0.0106496,1840,1499,-0.0333647,-0.0663015
623,-475,-0.0407715,0.0615234,0.00160232,-0.00405565,0.00104809,0.00179023,-0.00424356,0.177402,0.00357831,0.0101191,1847,1499,-0.0407526,-0.0615743
630,-475,-0.0424805,0.0552979,0.00210979,-0.00528455,0.00127551,0.00232362,-0.00549839,0.166105,0.00463837,0.0108686,1854,1499,-0.0424621,-0.0552612
637,-475,-0.0404053,0.0635986,0.00273232,-0.00649122,0.00150631,0.00297208,-0.00673099,0.15785,0.00574048,0.0203169,1861,1499,-0.0403723,-0.0636163
644,-475,0.0753174,0.0804443,0.00367673,-0.00806173,0.00180795,0.00394888,-0.00833388,0.149408,0.00724053,0.0361134,1868,1499,0.0753498,-0.0804157
651,-475,0.15918,0.107544,0.00474753,-0.00948753,0.0021949,0.00507827,-0.00981828,0.149563,0.00874445,0.0436219,1875,1499,0.159158,-0.107551
658,-475,0.319946,0.172241,0.00597992,-0.0109093,0.00235651,0.00630256,-0.0112319,0.136067,0.010256,0.041214,1882,1499,0.319887,-0.172262
665,-475,0.342651,0.067749,0.0072751,-0.0119391,0.00243828,0.00757969,-0.0122437,0.124276,0.0115501,0.0388598,1889,1499,0.342643,-0.0677506
672,-475,0.407471,-0.121826,0.00855248,-0.0122699,0.00246276,0.00883979,-0.0125572,0.11614,0.0124155,0.0390686,1896,1499,0.407441,0.12186
679,-475,0.220703,-0.0549316,0,0,0,0,0,0,0,-1,1903,1499,0.22067,0.0549862
686,-475,0,0,0,0,0,0,0,0,0,-1,1910,1499,0,0
693,-475,0,0,0,0,0,0,0,0,0,-1,1917,1499,0,0
700,-475,0,0,0,0,0,0,0,0,0,-1,1924,1499,0,0
707,-475,0,0,0,0,0,0,0,0,0,-1,1931,1499,0,0
714,-475,0,0,0,0,0,0,0,0,0,-1,1938,1499,0,0
721,-475,0,0,0,0,0,0,0,0,0,-1,1945,1499,0,0
728,-475,0,0,0,0,0,0,0,0,0,-1,1952,1499,0,0
735,-475,0,0,0,0,0,0,0,0,0,-1,1959,1499,0,0
742,-475,0,0,0,0,0,0,0,0,0,-1,1966,1499,0,0
749,-475,0,0,0,0,0,0,0,0,0,-1,1973,1499,0,0
756,-475,0,0,0,0,0,0,0,0,0,-1,1980,1499,0,0
763,-475,0,0,0,0,0,0,0,0,0,-1,1987,1499,0,0
770,-475,0,0,0,0,0,0,0,0,0,-1,1994,1499,0,0
777,-475,0,0,0,0,0,0,0,0,0,-1,2001,1499,0,0
784,-475,0,0,0,0,0,0,0,0,0,-1,2008,1499,0,0
791,-475,0,0,0,0,0,0,0,0,0,-1,2015,1499,0,0
798,-475,0,0,0,0,0,0,0,0,0,-1,2022,1499,0,0
805,-475,0,0,0,0,0,0,0,0,0,-1,2029,1499,0,0
812,-475,0,0,0,0,0,0,0,0,0,-1,2036,1499,0,0
-700,-482,0,0,0,0,0,0,0,0,0,-1,524,1506,0,0
-693,-482,0,0,0,0,0,0,0,0,0,-1,531,1506,0,0
-686,-482,0,0,0,0,0,0,0,0,0,-1,538,1506,0,0
-679,-482,0,0,0,0,0,0,0,0,0,-1,545,1506,0,0
-672,-482,0,0,0,0,0,0,0,0,0,-1,552,1506,0,0
-665,-482,0,0,0,0,0,0,0,0,0,-1,559,1506,0,0
-658,-482,0,0,0,0,0,0,0,0,0,-1,566,1506,0,0
-651,-482,0,0,0,0,0,0,0,0,0,-1,573,1506,0,0
-644,-482,0,0,0,0,0,0,0,0,0,-1,580,1506,0,0
-637,-482,0,0,0,0,0,0,0,0,0,-1,587,1506,0,0
-630,-482,0,0,0,0,0,0,0,0,0,-1,594,1506,0,0
-623,-482,0,0,0,0,0,0,0,0,0,-1,601,1506,0,0
-616,-482,0,0,0,0,0,0,0,0,0,-1,608,1506,0,0
-609,-482,0,0,0,0,0,0,0,0,0,-1,615,1506,0,0
-602,-482,0,0,0,0,0,0,0,0,0,-1,622,1506,0,0
-595,-482,0,0,0,0,0,0,0,0,0,-1,629,1506,0,0
-588,-482,0,0,0,0,0,0,0,0,0,-1,636,1506,0,0
-581,-482,0,0,0,0,0,0,0,0,0,-1,643,1506,0,0
-574,-482,0,0,0,0,0,0,0,0,0,-1,650,1506,0,0
-567,-482,0,0,0,0,0,0,0,0,0,-1,657,1506,0,0
-560,-482,0,0,0,0,0,0,0,0,0,-1,664,1506,0,0
-553,-482,0.329529,1.01184,0,0,0,0,0,0,0,-1,671,1506,0.329543,-1.01184
-546,-482,0.662048,-2.30884,0,0,0,0,0,0,0,-1,678,1506,0.662047,2.30883
-539,-482,0.372803,-2.39526,0,0,0,0,0,0,0,-1,685,1506,0.372792,2.39522
-532,-482,0.0835571,-2.48157,0,0,0,0,0,0,0,-1,692,1506,0.0835363,2.4816
-525,-482,-0.579834,0.711182,-0.00247247,-0.00693033,0.00118775,-0.00217575,-0.00722704,0.244803,0.00428121,0.0424325,699,1506,-0.57986,-0.711192
-518,-482,-0.582458,0.622437,-0.00292126,-0.0056378,0.00164759,-0.00214424,-0.00641482,0.440676,0.00377081,0.0471618,706,1506,-0.582482,-0.622446
-511,-482,-0.490295,0.429932,-0.00364071,-0.0044771,0.00174572,-0.00226379,-0.00585402,0.667835,0.00340862,0.0468411,713,1506,-0.490305,-0.429927
-504,-482,-0.289246,0.252075,-0.00349079,-0.0034855,0.0017975,-0.00169065,-0.00528565,0.786134,0.00311699,0.0358851,720,1506,-0.289257,-0.252122
-497,-482,-0.0678101,0.0977783,-0.00309692,-0.00257667,0.00180381,-0.00101432,-0.00465927,0.857009,0.00282934,0.0204357,727,1506,-0.0677805,-0.0977221
-490,-482,-0.0250244,0.0616455,-0.00266195,-0.00269159,0.00155567,-0.00112103,-0.00423251,0.780635,0.00253211,0.0114456,734,1506,-0.0250262,-0.0616283
-483,-482,-0.0195923,0.065918,-0.00213236,-0.00260452,0.00125751,-0.00108896,-0.00364792,0.692609,0.00216238,0.00772394,741,1506,-0.0195664,-0.0659173
-476,-482,-0.0238647,0.0551758,-0.00164604,-0.0015392,0.000858516,-0.000732445,-0.0024528,0.816472,0.00145391,0.00857747,748,1506,-0.0238462,-0.0551991
-469,-482,-0.0339355,0.0388184,-0.00140991,-0.000454652,0.000576591,-0.000183557,-0.001681,1.1313,0.00106477,0.00894279,755,1506,-0.0339528,-0.0388251
-462,-482,-0.0265503,0.0178223,-0.00119994,5.98621e-05,0.000539905,0.000259583,-0.00139966,1.21649,0.00103059,0.0102027,762,1506,-0.0265501,-0.0177928
-455,-482,-0.0275879,0.0189209,-0.00136919,0.000340444,0.000729791,0.000609597,-0.00163834,1.21747,0.00134238,0.0115107,769,1506,-0.0275676,-0.0189276
-448,-482,-0.0195923,0.0759277,-0.00208381,0.00107998,0.0010125,0.00137627,-0.00238009,1.28612,0.00219439,0.012236,776,1506,-0.0196048,-0.0759297
-441,-482,-0.0339966,0.0708008,-0.00324966,0.0015021,0.00134688,0.00185732,-0.00360488,1.31293,0.00320695,0.0124966,783,1506,-0.0340095,-0.0708213
-434,-482,-0.0200806,0.065918,-0.00484014,0.00201798,0.00162964,0.00238552,-0.00520768,1.34897,0.00448373,0.0143096,790,1506,-0.0200987,-0.0659435
-427,-482,-0.0258789,0.083252,-0.00679958,0.00279437,0.00188557,0.00315165,-0.00715686,1.38353,0.00609953,0.0152537,797,1506,-0.0258943,-0.0832798
-420,-482,-0.0628052,0.102905,-0.00922,0.0033365,0.00246245,0.00380214,-0.00968564,1.38391,0.00803033,0.0154417,804,1506,-0.0627954,-0.102931
-413,-482,-0.0527954,0.0794678,-0.0117796,0.00418865,0.00290752,0.00470158,-0.0122925,1.39618,0.0101326,0.0174765,811,1506,-0.0527787,-0.0794081
-406,-482,-0.125,0.135986,-0.0143547,0.00540403,0.00355032,0.0060226,-0.0149733,1.3983,0.0124838,0.0333911,818,1506,-0.124985,-0.136045
-399,-482,-0.380798,0.349243,-0.0142105,0.00948268,0.000709646,0.00950391,-0.0142317,1.54088,0.0137941,0.038466,825,1506,-0.380788,-0.349281
-392,-482,-0.584595,0.382935,-0.0128527,0.00983307,-0.00159298,0.00994438,-0.012964,-1.50103,0.0132644,0.0422409,832,1506,-0.584594,-0.382932
-385,-482,-0.479126,0.395752,-0.0105424,0.0083497,-0.00492212,0.00955518,-0.0117479,-1.33061,0.012321,0.0430895,839,1506,-0.479131,-0.395793
-378,-482,-0.403687,0.545654,0,0,0,0,0,0,0,-1,846,1506,-0.403691,-0.545613
-371,-482,-0.220947,1.46362,0,0,0,0,0,0,0,-1,853,1506,-0.220964,-1.46358
-364,-482,-0.534668,2.02148,0,0,0,0,0,0,0,-1,860,1506,-0.534698,-2.02153
-357,-482,-2.25665,0.375122,0,0,0,0,0,0,0,-1,867,1506,-2.25665,-0.375062
-350,-482,-2.21356,5.4834,0,0,0,0,0,0,0,-1,874,1506,-2.21358,-5.48343
-343,-482,-0.202271,-2.24719,0,0,0,0,0,0,0,-1,881,1506,-0.202248,2.24716
-336,-482,-0.332825,-2.02734,0,0,0,0,0,0,0,-1,888,1506,-0.332845,2.02735
-329,-482,0,0,0,0,0,0,0,0,0,-1,895,1506,0,0
-322,-482,0,0,0,0,0,0,0,0,0,-1,902,1506,0,0
-315,-482,0,0,0,0,0,0,0,0,0,-1,909,1506,0,0
-308,-482,0,0,0,0,0,0,0,0,0,-1,916,1506,0,0
-301,-482,0,0,0,0,0,0,0,0,0,-1,923,1506,0,0
-294,-482,0,0,0,0,0,0,0,0,0,-1,930,1506,0,0
-287,-482,0,0,0,0,0,0,0,0,0,-1,937,1506,0,0
-280,-482,0,0,0,0,0,0,0,0,0,-1,944,1506,0,0
-273,-482,0,0,0,0,0,0,0,0,0,-1,951,1506,0,0
-266,-482,0,0,0,0,0,0,0,0,0,-1,958,1506,0,0
-259,-482,0,0,0,0,0,0,0,0,0,-1,965,1506,0,0
-252,-482,0,0,0,0,0,0,0,0,0,-1,972,1506,0,0
-245,-482,0,0,0,0,0,0,0,0,0,-1,979,1506,0,0
-238,-482,0,0,0,0,0,0,0,0,0,-1,986,1506,0,0
-231,-482,0,0,0,0,0,0,0,0,0,-1,993,1506,0,0
-224,-482,0,0,0,0,0,0,0,0,0,-1,1000,1506,0,0
-217,-482,0,0,0,0,0,0,0,0,0,-1,1007,1506,0,0
-210,-482,0,0,0,0,0,0,0,0,0,-1,1014,1506,0,0
-203,-482,0,0,0,0,0,0,0,0,0,-1,1021,1506,0,0
-196,-482,0,0,0,0,0,0,0,0,0,-1,1028,1506,0,0
-189,-482,0,0,0,0,0,0,0,0,0,-1,1035,1506,0,0
-182,-482,0,0,0,0,0,0,0,0,0,-1,1042,1506,0,0
-175,-482,0,0,0,0,0,0,0,0,0,-1,1049,1506,0,0
-168,-482,0,0,0,0,0,0,0,0,0,-1,1056,1506,0,0
-161,-482,0,0,0,0,0,0,0,0,0,-1,1063,1506,0,0
-154,-482,0,0,0,0,0,0,0,0,0,-1,1070,1506,0,0
-147,-482,0,0,0,0,0,0,0,0,0,-1,1077,1506,0,0
-140,-482,0,0,0,0,0,0,0,0,0,-1,1084,1506,0,0
-133,-482,0,0,0,0,0,0,0,0,0,-1,1091,1506,0,0
-126,-482,0,0,0,0,0,0,0,0,0,-1,1098,1506,0,0
-119,-482,0,0,0,0,0,0,0,0,0,-1,1105,1506,0,0
-112,-482,0,0,0,0,0,0,0,0,0,-1,1112,1506,0,0
-105,-482,0,0,0,0,0,0,0,0,0,-1,1119,1506,0,0
-98,-482,0,0,0,0,0,0,0,0,0,-1,1126,1506,0,0
-91,-482,0,0,0,0,0,0,0,0,0,-1,1133,1506,0,0
-84,-482,0,0,0,0,0,0,0,0,0,-1,1140,1506,0,0
-77,-482,0,0,0,0,0,0,0,0,0,-1,1147,1506,0,0
-70,-482,0,0,0,0,0,0,0,0,0,-1,1154,1506,0,0
-63,-482,0,0,0,0,0,0,0,0,0,-1,1161,1506,0,0
-56,-482,0,0,0,0,0,0,0,0,0,-1,1168,1506,0,0
-49,-482,0,0,0,0,0,0,0,0,0,-1,1175,1506,0,0
-42,-482,0,0,0,0,0,0,0,0,0,-1,1182,1506,0,0
-35,-482,0,0,0,0,0,0,0,0,0,-1,1189,1506,0,0
-28,-482,0,0,0,0,0,0,0,0,0,-1,1196,1506,0,0
-21,-482,0,0,0,0,0,0,0,0,0,-1,1203,1506,0,0
-14,-482,0,0,0,0,0,0,0,0,0,-1,1210,1506,0,0
-7,-482,0,0,0,0,0,0,0,0,0,-1,1217,1506,0,0
0,-482,0,0,0,0,0,0,0,0,0,-1,1224,1506,0,0
7,-482,0,0,0,0,0,0,0,0,0,-1,1231,1506,0,0
14,-482,0,0,0,0,0,0,0,0,0,-1,1238,1506,0,0
21,-482,0,0,0,0,0,0,0,0,0,-1,1245,1506,0,0
28,-482,0,0,0,0,0,0,0,0,0,-1,1252,1506,0,0
35,-482,0,0,0,0,0,0,0,0,0,-1,1259,1506,0,0
42,-482,0,0,0,0,0,0,0,0,0,-1,1266,1506,0,0
49,-482,0,0,0,0,0,0,0,0,0,-1,1273,1506,0,0
56,-482,0,0,0,0,0,0,0,0,0,-1,1280,1506,0,0
63,-482,0,0,0,0,0,0,0,0,0,-1,1287,1506,0,0
70,-482,0,0,0,0,0,0,0,0,0,-1,1294,1506,0,0
77,-482,0,0,0,0,0,0,0,0,0,-1,1301,1506,0,0
84,-482,0,0,0,0,0,0,0,0,0,-1,1308,1506,0,0
91,-482,0,0,0,0,0,0,0,0,0,-1,1315,1506,0,0
98,-482,0,0,0,0,0,0,0,0,0,-1,1322,1506,0,0
105,-482,0,0,0,0,0,0,0,0,0,-1,1329,1506,0,0
112,-482,0,0,0,0,0,0,0,0,0,-1,1336,1506,0,0
119,-482,0,0,0,0,0,0,0,0,0,-1,1343,1506,0,0
126,-482,0,0,0,0,0,0,0,0,0,-1,1350,1506,0,0
133,-482,0,0,0,0,0,0,0,0,0,-1,1357,1506,0,0
140,-482,0,0,0,0,0,0,0,0,0,-1,1364,1506,0,0
147,-482,0,0,0,0,0,0,0,0,0,-1,1371,1506,0,0
154,-482,0,0,0,0,0,0,0,0,0,-1,1378,1506,0,0
161,-482,0,0,0,0,0,0,0,0,0,-1,1385,1506,0,0
168,-482,0,0,0,0,0,0,0,0,0,-1,1392,1506,0,0
175,-482,0,0,0,0,0,0,0,0,0,-1,1399,1506,0,0
182,-482,0,0,0,0,0,0,0,0,0,-1,1406,1506,0,0
189,-482,0,0,0,0,0,0,0,0,0,-1,1413,1506,0,0
196,-482,0,0,0,0,0,0,0,0,0,-1,1420,1506,0,0
203,-482,0,0,0,0,0,0,0,0,0,-1,1427,1506,0,0
210,-482,0,0,0,0,0,0,0,0,0,-1,1434,1506,0,0
217,-482,0,0,0,0,0,0,0,0,0,-1,1441,1506,0,0
224,-482,0,0,0,0,0,0,0,0,0,-1,1448,1506,0,0
231,-482,0,0,0,0,0,0,0,0,0,-1,1455,1506,0,0
238,-482,0,0,0,0,0,0,0,0,0,-1,1462,1506,0,0
245,-482,0,0,0,0,0,0,0,0,0,-1,1469,1506,0,0
252,-482,0,0,0,0,0,0,0,0,0,-1,1476,1506,0,0
259,-482,0,0,0,0,0,0,0,0,0,-1,1483,1506,0,0
266,-482,0,0,0,0,0,0,0,0,0,-1,1490,1506,0,0
273,-482,0,0,0,0,0,0,0,0,0,-1,1497,1506,0,0
280,-482,0,0,0,0,0,0,0,0,0,-1,1504,1506,0,0
287,-482,0,0,0,0,0,0,0,0,0,-1,1511,1506,0,0
294,-482,0,0,0,0,0,0,0,0,0,-1,1518,1506,0,0
301,-482,0,0,0,0,0,0,0,0,0,-1,1525,1506,0,0
308,-482,0,0,0,0,0,0,0,0,0,-1,1532,1506,0,0
315,-482,0,0,0,0,0,0,0,0,0,-1,1539,1506,0,0
322,-482,0,0,0,0,0,0,0,0,0,-1,1546,1506,0,0
329,-482,0,0,0,0,0,0,0,0,0,-1,1553,1506,0,0
336,-482,0,0,0,0,0,0,0,0,0,-1,1560,1506,0,0
343,-482,0,0,0,0,0,0,0,0,0,-1,1567,1506,0,0
350,-482,0,0,0,0,0,0,0,0,0,-1,1574,1506,0,0
357,-482,0,0,0,0,0,0,0,0,0,-1,1581,1506,0,0
364,-482,0,0,0,0,0,0,0,0,0,-1,1588,1506,0,0
371,-482,0,0,0,0,0,0,0,0,0,-1,1595,1506,0,0
378,-482,0,0,0,0,0,0,0,0,0,-1,1602,1506,0,0
385,-482,0,0,0,0,0,0,0,0,0,-1,1609,1506,0,0
392,-482,0,0,0,0,0,0,0,0,0,-1,1616,1506,0,0
399,-482,0,0,0,0,0,0,0,0,0,-1,1623,1506,0,0
406,-482,0,0,0,0,0,0,0,0,0,-1,1630,1506,0,0
413,-482,0,0,0,0,0,0,0,0,0,-1,1637,1506,0,0
420,-482,0,0,0,0,0,0,0,0,0,-1,1644,1506,0,0
427,-482,0,0,0,0,0,0,0,0,0,-1,1651,1506,0,0
434,-482,0,0,0,0,0,0,0,0,0,-1,1658,1506,0,0
441,-482,0,0,0,0,0,0,0,0,0,-1,1665,1506,0,0
448,-482,0.432251,0.116821,0,0,0,0,0,0,0,-1,1672,1506,0.432213,-0.116877
455,-482,0.588501,0.0113525,0,0,0,0,0,0,0,-1,1679,1506,0.588451,-0.0113638
462,-482,0.606934,-0.390259,0,0,0,0,0,0,0,-1,1686,1506,0.606993,0.390298
469,-482,0.104736,-0.0196533,-0.0218813,-0.00458133,0.0068597,-0.00219149,-0.0242712,1.23556,0.015502,0.0428886,1693,1506,0.104773,0.01963
476,-482,-0.136841,0.474976,-0.0131452,-0.0044604,0.0059831,-0.00140998,-0.0161957,1.09931,0.0103591,0.04032,1700,1506,-0.136867,-0.474973
483,-482,-0.317505,0.440796,-0.00723368,-0.00513249,0.00399907,-0.00204832,-0.0103178,0.913851,0.00630764,0.0379744,1707,1506,-0.317474,-0.440773
490,-482,0.043335,0.388794,-0.0033841,-0.00580982,0.00172898,-0.002485,-0.00670893,0.479536,0.00391653,0.0411774,1714,1506,0.043393,-0.388762
497,-482,0.284058,0.547485,-0.0013816,-0.00633948,-0.000380357,-0.00135258,-0.00636849,-0.0761239,0.00387432,0.0440849,1721,1506,0.284006,-0.54748
504,-482,0.2323,0.56311,-0.000597035,-0.00656447,-0.00204857,3.85297e-05,-0.00720003,-0.300832,0.00481292,0.0439022,1728,1506,0.232265,-0.563149
511,-482,0.0186768,0.371704,-0.000396356,-0.00635911,-0.00316589,0.000970998,-0.00772646,-0.407702,0.00550327,0.0447598,1735,1506,0.0186761,-0.371669
518,-482,-0.183838,0.321655,-0.000320354,-0.00564011,-0.0035841,0.00148303,-0.0074435,-0.466175,0.00552345,0.0431896,1742,1506,-0.183849,-0.321658
525,-482,-0.457397,-1.4436,-0.000307645,-0.00540117,-0.00372498,0.00165796,-0.00736678,-0.485548,0.00554706,0.0438038,1749,1506,-0.457432,1.4436
532,-482,-0.310059,-0.718384,-0.000412142,-0.00496178,-0.00363162,0.0015983,-0.00697222,-0.505598,0.00526245,0.0396912,1756,1506,-0.310046,0.718337
539,-482,-0.182007,-0.0749512,0,0,0,0,0,0,0,-1,1763,1506,-0.181985,0.0749929
546,-482,-0.0634766,0.0595703,-0.00118459,-0.00314201,-0.00286881,0.000867862,-0.00519446,-0.621011,0.00378557,0.01417,1770,1506,-0.06348,-0.0596066
553,-482,-0.0632324,0.0599365,-0.00128936,-0.00240526,-0.00228671,0.000506486,-0.0042011,-0.665737,0.00298392,0.0131461,1777,1506,-0.0632109,-0.0599725
560,-482,-0.0539551,0.0506592,-0.000708147,-0.00150191,-0.00123102,0.000188385,-0.00239844,-0.629458,0.00166531,0.0118484,1784,1506,-0.0539757,-0.0507105
567,-482,-0.0380859,0.0565186,-0.000313713,-0.00112143,-0.000631189,3.17614e-05,-0.00146691,-0.500798,0.000988696,0.0133062,1791,1506,-0.0380464,-0.056548
574,-482,-0.0491943,0.0604248,0.000141061,-0.000789198,-0.000147843,0.000163992,-0.000812129,-0.153877,0.000603556,0.012309,1798,1506,-0.0492364,-0.0604662
581,-482,-0.0565186,0.0712891,0.000711522,-0.000772876,0.000131139,0.000723019,-0.000784373,0.0874425,0.000870533,0.00988439,1805,1506,-0.0565345,-0.0713477
588,-482,-0.0430908,0.0611572,0.00102817,-0.000923116,0.000286444,0.00106935,-0.000964296,0.142785,0.00117465,0.0110178,1812,1506,-0.0430368,-0.0611022
595,-482,-0.0236816,0.036499,0.000984009,-0.00115135,0.000343091,0.00103778,-0.00120512,0.15546,0.00129614,0.0144075,1819,1506,-0.0237103,-0.0364449
602,-482,-0.0142822,0.0390625,0.000700787,-0.00148968,0.00048833,0.000804721,-0.00159361,0.209706,0.00140943,0.0176713,1826,1506,-0.0142951,-0.0390152
609,-482,-0.0137939,0.0639648,0.000822044,-0.00252733,0.000786217,0.000997415,-0.0027027,0.219463,0.0022106,0.0143648,1833,1506,-0.013785,-0.064015
616,-482,-0.0411377,0.0577393,0.00135669,-0.00390599,0.00130595,0.00166294,-0.00421225,0.230344,0.00349686,0.0106501,1840,1506,-0.0411777,-0.0577551
623,-482,-0.0446777,0.0522461,0.00191272,-0.00512728,0.00154046,0.00223505,-0.00544961,0.20626,0.00456429,0.0100669,1847,1506,-0.0447094,-0.0522479
630,-482,-0.0338135,0.0664063,0.00250256,-0.00680078,0.00198922,0.00291005,-0.00720826,0.20205,0.00601494,0.017389,1854,1506,-0.0338073,-0.0663768
637,-482,-0.0384521,0.154175,0.00320701,-0.00863866,0.00247063,0.00370165,-0.0091333,0.197595,0.00762824,0.0358399,1861,1506,-0.0384231,-0.154229
644,-482,0.104858,0.274292,0.00422755,-0.0109609,0.00303175,0.00481035,-0.0115437,0.189916,0.00970511,0.0422007,1868,1506,0.104888,-0.274231
651,-482,0.45813,0.244141,0.00539871,-0.0133576,0.00361374,0.00607088,-0.0140297,0.183901,0.0119045,0.0428311,1875,1506,0.458183,-0.244154
658,-482,-0.552612,-0.59021,0.00678885,-0.015938,0.00398051,0.00746585,-0.016615,0.168467,0.0142336,0.0425835,1882,1506,-0.552579,0.590183
665,-482,0.376709,0.243286,0.00825371,-0.018346,0.00416682,0.00889116,-0.0189835,0.151806,0.0164413,0.042231,1889,1506,0.376688,-0.243318
672,-482,0.70459,-0.206055,0.00968142,-0.020226,0.00408907,0.0102304,-0.020775,0.133462,0.0182428,0.0404247,1896,1506,0.704623,0.205997
679,-482,0,0,0,0,0,0,0,0,0,-1,1903,1506,0,0
686,-482,0,0,0,0,0,0,0,0,0,-1,1910,1506,0,0
693,-482,0,0,0,0,0,0,0,0,0,-1,1917,1506,0,0
700,-482,0,0,0,0,0,0,0,0,0,-1,1924,1506,0,0
707,-482,0,0,0,0,0,0,0,0,0,-1,1931,1506,0,0
714,-482,0,0,0,0,0,0,0,0,0,-1,1938,1506,0,0
721,-482,0,0,0,0,0,0,0,0,0,-1,1945,1506,0,0
728,-482,0,0,0,0,0,0,0,0,0,-1,1952,1506,0,0
735,-482,0,0,0,0,0,0,0,0,0,-1,1959,1506,0,0
742,-482,0,0,0,0,0,0,0,0,0,-1,1966,1506,0,0
749,-482,0,0,0,0,0,0,0,0,0,-1,1973,1506,0,0
756,-482,0,0,0,0,0,0,0,0,0,-1,1980,1506,0,0
763,-482,0,0,0,0,0,0,0,0,0,-1,1987,1506,0,0
770,-482,0,0,0,0,0,0,0,0,0,-1,1994,1506,0,0
777,-482,0,0,0,0,0,0,0,0,0,-1,2001,1506,0,0
784,-482,0,0,0,0,0,0,0,0,0,-1,2008,1506,0,0
791,-482,0,0,0,0,0,0,0,0,0,-1,2015,1506,0,0
798,-482,0,0,0,0,0,0,0,0,0,-1,2022,1506,0,0
805,-482,0,0,0,0,0,0,0,0,0,-1,2029,1506,0,0
812,-482,0,0,0,0,0,0,0,0,0,-1,2036,1506,0,0
-700,-489,0,0,0,0,0,0,0,0,0,-1,524,1513,0,0
-693,-489,0,0,0,0,0,0,0,0,0,-1,531,1513,0,0
-686,-489,0,0,0,0,0,0,0,0,0,-1,538,1513,0,0
-679,-489,0,0,0,0,0,0,0,0,0,-1,545,1513,0,0
-672,-489,0,0,0,0,0,0,0,0,0,-1,552,1513,0,0
-665,-489,0,0,0,0,0,0,0,0,0,-1,559,1513,0,0
-658,-489,0,0,0,0,0,0,0,0,0,-1,566,1513,0,0
-651,-489,0,0,0,0,0,0,0,0,0,-1,573,1513,0,0
-644,-489,0,0,0,0,0,0,0,0,0,-1,580,1513,0,0
-637,-489,0,0,0,0,0,0,0,0,0,-1,587,1513,0,0
-630,-489,0,0,0,0,0,0,0,0,0,-1,594,1513,0,0
-623,-489,0,0,0,0,0,0,0,0,0,-1,601,1513,0,0
-616,-489,0,0,0,0,0,0,0,0,0,-1,608,1513,0,0
-609,-489,0,0,0,0,0,0,0,0,0,-1,615,1513,0,0
-602,-489,0,0,0,0,0,0,0,0,0,-1,622,1513,0,0
-595,-489,0,0,0,0,0,0,0,0,0,-1,629,1513,0,0
-588,-489,0,0,0,0,0,0,0,0,0,-1,636,1513,0,0
-581,-489,0,0,0,0,0,0,0,0,0,-1,643,1513,0,0
-574,-489,0,0,0,0,0,0,0,0,0,-1,650,1513,0,0
-567,-489,0,0,0,0,0,0,0,0,0,-1,657,1513,0,0
-560,-489,0,0,0,0,0,0,0,0,0,-1,664,1513,0,0
-553,-489,-0.412476,2.6333,0,0,0,0,0,0,0,-1,671,1513,-0.412488,-2.63333
-546,-489,-0.731384,2.81799,0,0,0,0,0,0,0,-1,678,1513,-0.7314,-2.81803
-539,-489,0.519043,-2.98267,0,0,0,0,0,0,0,-1,685,1513,0.519062,2.98263
-532,-489,-1.38263,0.934326,0,0,0,0,0,0,0,-1,692,1513,-1.38262,-0.934277
-525,-489,-1.33337,1.12488,-0.00955937,-0.00599004,0.00397948,-0.00341336,-0.012136,0.996187,0.0072268,0.0443392,699,1513,-1.33336,-1.12486
-518,-489,-1.17328,0.83606,-0.00927384,-0.00495581,0.00412031,-0.00246312,-0.0117665,1.02673,0.00716584,0.045483,706,1513,-1.17327,-0.836004
-511,-489,-0.440674,0.317139,-0.00927663,-0.00406931,0.00392112,-0.00196615,-0.0113798,1.07848,0.00702349,0.0492526,713,1513,-0.440662,-0.317187
-504,-489,-0.421936,0.476563,-0.00838646,-0.00330708,0.00363932,-0.0014089,-0.0102846,1.09004,0.00643838,0.0438767,720,1513,-0.421918,-0.476572
-497,-489,-0.105774,0.265503,-0.00719327,-0.00257476,0.00331531,-0.000843724,-0.0089243,1.0896,0.00568918,0.0330035,727,1513,-0.105764,-0.265523
-490,-489,-0.0170288,0.0695801,-0.00594837,-0.0027863,0.00272144,-0.00121997,-0.0075147,1.04855,0.00465672,0.0169468,734,1513,-0.0170156,-0.0696216
-483,-489,-0.0265503,0.0577393,-0.00473644,-0.00272279,0.0021345,-0.00136958,-0.00608965,1.00577,0.00368899,0.00905558,741,1513,-0.0265211,-0.05778
-476,-489,-0.0290527,0.036377,-0.00367855,-0.00185958,0.00154689,-0.000974623,-0.00456351,1.05115,0.00277511,0.00889854,748,1513,-0.0290804,-0.0363746
-469,-489,-0.036377,0.0249023,-0.00294872,-0.000908323,0.00108528,-0.000439013,-0.00341803,1.16265,0.00214736,0.00927206,755,1513,-0.0363615,-0.0249219
-462,-489,-0.0321045,0.0305176,-0.00229692,-0.000550846,0.00088764,-0.000178854,-0.00266891,1.17395,0.00172276,0.0132656,762,1513,-0.0321042,-0.0305036
-455,-489,-0.015686,0.0419922,-0.00204692,-0.000400533,0.00092854,1.71746e-05,-0.00246462,1.14806,0.00164884,0.0172723,769,1513,-0.015695,-0.0419426
-448,-489,-0.0299683,0.0664063,-0.00229399,0.000313266,0.00104934,0.000683124,-0.00266385,1.23192,0.00204205,0.0157363,776,1513,-0.0299773,-0.0664545
-441,-489,-0.0373535,0.0736084,-0.00294405,0.000663575,0.0012559,0.00105772,-0.00333819,1.26669,0.00264938,0.0145534,783,1513,-0.0373719,-0.073663
-434,-489,-0.0437012,0.0820313,-0.00400475,0.00112663,0.00142075,0.00149374,-0.00437186,1.31794,0.00351977,0.016844,790,1513,-0.0436942,-0.0820196
-427,-489,-0.0626221,0.0891113,-0.00548232,0.00187562,0.00156631,0.00219517,-0.00580187,1.36955,0.00477105,0.0174564,797,1513,-0.0625984,-0.0890852
-420,-489,-0.0672607,0.0767822,-0.0073264,0.00255333,0.0019907,0.00293936,-0.00771243,1.37926,0.00635229,0.0162309,804,1513,-0.0672789,-0.076788
-413,-489,-0.0505371,0.0534668,-0.00916784,0.00350803,0.00229752,0.00391161,-0.00957142,1.39691,0.00800979,0.015372,811,1513,-0.0505496,-0.0534439
-406,-489,-0.0889893,0.0703125,-0.0108767,0.00493616,0.00278312,0.0054117,-0.0113522,1.40157,0.00987914,0.0195987,818,1513,-0.0890077,-0.0702763
-399,-489,-0.271851,0.176636,-0.0101003,0.00917969,4.4826e-05,0.00917979,-0.0101004,1.56847,0.0111356,0.0293048,825,1513,-0.271874,-0.17668
-392,-489,-0.443909,0.340576,-0.00836968,0.010042,-0.00207746,0.0102735,-0.00860117,-1.45982,0.0109116,0.0353487,832,1513,-0.443925,-0.340596
-385,-489,-0.532654,0.562378,-0.00587988,0.00929394,-0.00500258,0.0107948,-0.00738071,-1.27933,0.0105551,0.0398599,839,1513,-0.532671,-0.56234
-378,-489,-0.436096,0.785156,-0.00270487,0.00677215,-0.00882041,0.0120463,-0.00797901,-1.03189,0.0116408,0.0401319,846,1513,-0.436105,-0.785133
-371,-489,-0.512329,0.949585,0.00120099,0.00351676,-0.0138036,0.0162109,-0.0114932,-0.827242,0.0160721,0.0430342,853,1513,-0.512346,-0.949554
-364,-489,-0.650757,1.19446,0.00441214,-0.00142112,-0.0182336,0.0199609,-0.0169699,-0.706091,0.0213453,0.0433064,860,1513,-0.650746,-1.19441
-357,-489,-0.876099,1.12695,0,0,0,0,0,0,0,-1,867,1513,-0.876127,-1.12697
-350,-489,-1.42731,3.76819,0.0138056,-0.0169982,-0.0298214,0.0319676,-0.0351601,-0.547029,0.0387708,0.0489387,874,1513,-1.42732,-3.76815
-343,-489,-0.18988,-2.05359,0.0190337,-0.0281309,-0.0361164,0.0385852,-0.0476824,-0.496174,0.0498988,0.049946,881,1513,-0.189884,2.05357
-336,-489,-0.195313,-1.77222,0.0240559,-0.0408188,-0.0420505,0.0447262,-0.0614891,-0.456873,0.0615775,0.047668,888,1513,-0.195327,1.77226
-329,-489,-0.449158,-1.31177,0.0274398,-0.0543564,-0.0468387,0.0487231,-0.0756397,-0.426502,0.0723593,0.0447127,895,1513,-0.449177,1.31178
-322,-489,0,0,0,0,0,0,0,0,0,-1,902,1513,0,0
-315,-489,0,0,0,0,0,0,0,0,0,-1,909,1513,0,0
-308,-489,0,0,0,0,0,0,0,0,0,-1,916,1513,0,0
-301,-489,0,0,0,0,0,0,0,0,0,-1,923,1513,0,0
-294,-489,0,0,0,0,0,0,0,0,0,-1,930,1513,0,0
-287,-489,0,0,0,0,0,0,0,0,0,-1,937,1513,0,0
-280,-489,0,0,0,0,0,0,0,0,0,-1,944,1513,0,0
-273,-489,0,0,0,0,0,0,0,0,0,-1,951,1513,0,0
-266,-489,0,0,0,0,0,0,0,0,0,-1,958,1513,0,0
-259,-489,0,0,0,0,0,0,0,0,0,-1,965,1513,0,0
-252,-489,0,0,0,0,0,0,0,0,0,-1,972,1513,0,0
-245,-489,0,0,0,0,0,0,0,0,0,-1,979,1513,0,0
-238,-489,0,0,0,0,0,0,0,0,0,-1,986,1513,0,0
-231,-489,0,0,0,0,0,0,0,0,0,-1,993,1513,0,0
-224,-489,0,0,0,0,0,0,0,0,0,-1,1000,1513,0,0
-217,-489,0,0,0,0,0,0,0,0,0,-1,1007,1513,0,0
-210,-489,0,0,0,0,0,0,0,0,0,-1,1014,1513,0,0
-203,-489,0,0,0,0,0,0,0,0,0,-1,1021,1513,0,0
-196,-489,0,0,0,0,0,0,0,0,0,-1,1028,1513,0,0
-189,-489,0,0,0,0,0,0,0,0,0,-1,1035,1513,0,0
-182,-489,0,0,0,0,0,0,0,0,0,-1,1042,1513,0,0
-175,-489,0,0,0,0,0,0,0,0,0,-1,1049,1513,0,0
-168,-489,0,0,0,0,0,0,0,0,0,-1,1056,1513,0,0
-161,-489,0,0,0,0,0,0,0,0,0,-1,1063,1513,0,0
-154,-489,0,0,0,0,0,0,0,0,0,-1,1070,1513,0,0
-147,-489,0,0,0,0,0,0,0,0,0,-1,1077,1513,0,0
-140,-489,0,0,0,0,0,0,0,0,0,-1,1084,1513,0,0
-133,-489,0,0,0,0,0,0,0,0,0,-1,1091,1513,0,0
-126,-489,0,0,0,0,0,0,0,0,0,-1,1098,1513,0,0
-119,-489,0,0,0,0,0,0,0,0,0,-1,1105,1513,0,0
-112,-489,0,0,0,0,0,0,0,0,0,-1,1112,1513,0,0
-105,-489,0,0,0,0,0,0,0,0,0,-1,1119,1513,0,0
-98,-489,0,0,0,0,0,0,0,0,0,-1,1126,1513,0,0
-91,-489,0,0,0,0,0,0,0,0,0,-1,1133,1513,0,0
-84,-489,0,0,0,0,0,0,0,0,0,-1,1140,1513,0,0
-77,-489,0,0,0,0,0,0,0,0,0,-1,1147,1513,0,0
-70,-489,0,0,0,0,0,0,0,0,0,-1,1154,1513,0,0
-63,-489,0,0,0,0,0,0,0,0,0,-1,1161,1513,0,0
-56,-489,0,0,0,0,0,0,0,0,0,-1,1168,1513,0,0
-49,-489,0,0,0,0,0,0,0,0,0,-1,1175,1513,0,0
-42,-489,0,0,0,0,0,0,0,0,0,-1,1182,1513,0,0
-35,-489,0,0,0,0,0,0,0,0,0,-1,1189,1513,0,0
-28,-489,0,0,0,0,0,0,0,0,0,-1,1196,1513,0,0
-21,-489,0,0,0,0,0,0,0,0,0,-1,1203,1513,0,0
-14,-489,0,0,0,0,0,0,0,0,0,-1,1210,1513,0,0
-7,-489,0,0,0,0,0,0,0,0,0,-1,1217,1513,0,0
0,-489,0,0,0,0,0,0,0,0,0,-1,1224,1513,0,0
7,-489,0,0,0,0,0,0,0,0,0,-1,1231,1513,0,0
14,-489,0,0,0,0,0,0,0,0,0,-1,1238,1513,0,0
21,-489,0,0,0,0,0,0,0,0,0,-1,1245,1513,0,0
28,-489,0,0,0,0,0,0,0,0,0,-1,1252,1513,0,0
35,-489,0,0,0,0,0,0,0,0,0,-1,1259,1513,0,0
42,-489,0,0,0,0,0,0,0,0,0,-1,1266,1513,0,0
49,-489,0,0,0,0,0,0,0,0,0,-1,1273,1513,0,0
56,-489,0,0,0,0,0,0,0,0,0,-1,1280,1513,0,0
63,-489,0,0,0,0,0,0,0,0,0,-1,1287,1513,0,0
70,-489,0,0,0,0,0,0,0,0,0,-1,1294,1513,0,0
77,-489,0,0,0,0,0,0,0,0,0,-1,1301,1513,0,0
84,-489,0,0,0,0,0,0,0,0,0,-1,1308,1513,0,0
91,-489,0,0,0,0,0,0,0,0,0,-1,1315,1513,0,0
98,-489,0,0,0,0,0,0,0,0,0,-1,1322,1513,0,0
105,-489,0,0,0,0,0,0,0,0,0,-1,1329,1513,0,0
112,-489,0,0,0,0,0,0,0,0,0,-1,1336,1513,0,0
119,-489,0,0,0,0,0,0,0,0,0,-1,1343,1513,0,0
126,-489,0,0,0,0,0,0,0,0,0,-1,1350,1513,0,0
133,-489,0,0,0,0,0,0,0,0,0,-1,1357,1513,0,0
140,-489,0,0,0,0,0,0,0,0,0,-1,1364,1513,0,0
147,-489,0,0,0,0,0,0,0,0,0,-1,1371,1513,0,0
154,-489,0,0,0,0,0,0,0,0,0,-1,1378,1513,0,0
161,-489,0,0,0,0,0,0,0,0,0,-1,1385,1513,0,0
168,-489,0,0,0,0,0,0,0,0,0,-1,1392,1513,0,0
175,-489,0,0,0,0,0,0,0,0,0,-1,1399,1513,0,0
182,-489,0,0,0,0,0,0,0,0,0,-1,1406,1513,0,0
189,-489,0,0,0,0,0,0,0,0,0,-1,1413,1513,0,0
196,-489,0,0,0,0,0,0,0,0,0,-1,1420,1513,0,0
203,-489,0,0,0,0,0,0,0,0,0,-1,1427,1513,0,0
210,-489,0,0,0,0,0,0,0,0,0,-1,1434,1513,0,0
217,-489,0,0,0,0,0,0,0,0,0,-1,1441,1513,0,0
224,-489,0,0,0,0,0,0,0,0,0,-1,1448,1513,0,0
231,-489,0,0,0,0,0,0,0,0,0,-1,1455,1513,0,0
238,-489,0,0,0,0,0,0,0,0,0,-1,1462,1513,0,0
245,-489,0,0,0,0,0,0,0,0,0,-1,1469,1513,0,0
252,-489,0,0,0,0,0,0,0,0,0,-1,1476,1513,0,0
259,-489,0,0,0,0,0,0,0,0,0,-1,1483,1513,0,0
266,-489,0,0,0,0,0,0,0,0,0,-1,1490,1513,0,0
273,-489,0,0,0,0,0,0,0,0,0,-1,1497,1513,0,0
280,-489,0,0,0,0,0,0,0,0,0,-1,1504,1513,0,0
287,-489,0,0,0,0,0,0,0,0,0,-1,1511,1513,0,0
294,-489,0,0,0,0,0,0,0,0,0,-1,1518,1513,0,0
301,-489,0,0,0,0,0,0,0,0,0,-1,1525,1513,0,0
308,-489,0,0,0,0,0,0,0,0,0,-1,1532,1513,0,0
315,-489,0,0,0,0,0,0,0,0,0,-1,1539,1513,0,0
322,-489,0,0,0,0,0,0,0,0,0,-1,1546,1513,0,0
329,-489,0,0,0,0,0,0,0,0,0,-1,1553,1513,0,0
336,-489,0,0,0,0,0,0,0,0,0,-1,1560,1513,0,0
343,-489,0,0,0,0,0,0,0,0,0,-1,1567,1513,0,0
350,-489,0,0,0,0,0,0,0,0,0,-1,1574,1513,0,0
357,-489,0,0,0,0,0,0,0,0,0,-1,1581,1513,0,0
364,-489,0,0,0,0,0,0,0,0,0,-1,1588,1513,0,0
371,-489,0,0,0,0,0,0,0,0,0,-1,1595,1513,0,0
378,-489,0,0,0,0,0,0,0,0,0,-1,1602,1513,0,0
385,-489,0,0,0,0,0,0,0,0,0,-1,1609,1513,0,0
392,-489,0,0,0,0,0,0,0,0,0,-1,1616,1513,0,0
399,-489,0,0,0,0,0,0,0,0,0,-1,1623,1513,0,0
406,-489,0,0,0,0,0,0,0,0,0,-1,1630,1513,0,0
413,-489,0,0,0,0,0,0,0,0,0,-1,1637,1513,0,0
420,-489,0,0,0,0,0,0,0,0,0,-1,1644,1513,0,0
427,-489,0,0,0,0,0,0,0,0,0,-1,1651,1513,0,0
434,-489,0,0,0,0,0,0,0,0,0,-1,1658,1513,0,0
441,-489,0.339722,-0.133423,0,0,0,0,0,0,0,-1,1665,1513,0.339739,0.133431
448,-489,0.524048,-0.314331,0,0,0,0,0,0,0,-1,1672,1513,0.524059,0.314367
455,-489,0.567261,-0.48291,0,0,0,0,0,0,0,-1,1679,1513,0.567268,0.482886
462,-489,0.298828,-0.486816,-0.0250193,-0.00106786,0.0051154,-2.10935e-05,-0.0260661,1.36895,0.0173704,0.0435752,1686,1513,0.298861,0.486785
469,-489,-0.0985107,-0.311157,-0.0180518,0.000182424,0.00552264,0.00172464,-0.019594,1.29848,0.0136739,0.0433813,1693,1513,-0.0984641,0.311152
476,-489,-0.202393,0.201782,-0.0123508,0.000211751,0.00517141,0.00206668,-0.0142058,1.2264,0.0102292,0.0415279,1700,1513,-0.202349,-0.201763
483,-489,-0.283569,0.783569,-0.007527,-0.000708636,0.00375468,0.000953685,-0.00918932,1.154,0.00646759,0.0436798,1707,1513,-0.283603,-0.783621
490,-489,0.0429688,0.619873,-0.00382218,-0.00191571,0.00190899,-0.000735199,-0.0050027,1.01696,0.00311908,0.0469351,1714,1513,0.0429492,-0.619847
497,-489,0.443726,1.42676,-0.00164899,-0.00301878,7.19957e-05,-0.00164522,-0.00302255,0.0523673,0.00174736,0.0428819,1721,1513,0.443784,-1.42679
504,-489,0.347412,0.783936,-0.00063862,-0.00379101,-0.00145991,-6.63938e-05,-0.00436324,-0.373557,0.00288695,0.0451278,1728,1513,0.347389,-0.783882
511,-489,0.146118,0.490723,-0.000243714,-0.00407562,-0.00257618,0.00105088,-0.00537021,-0.465664,0.00397699,0.0472521,1735,1513,0.146098,-0.49067
518,-489,0.03125,0.305054,-3.84508e-05,-0.00374999,-0.00303975,0.00166724,-0.00545568,-0.511346,0.00430194,0.0440453,1742,1513,0.0312517,-0.305107
525,-489,-0.0174561,0.11499,5.35449e-05,-0.0038665,-0.00325385,0.00189211,-0.00570507,-0.514318,0.00456666,0.0423207,1749,1513,-0.0174681,-0.114977
532,-489,-0.213013,-0.530029,0,0,0,0,0,0,0,-1,1756,1513,-0.212952,0.529995
539,-489,-0.0474854,0.0831299,-0.000550047,-0.00313724,-0.00312504,0.00153856,-0.00522584,-0.589164,0.00409427,0.0150401,1763,1513,-0.0474668,-0.0831216
546,-489,-0.0400391,0.0692139,-0.00104983,-0.00228104,-0.00274952,0.00115216,-0.00448302,-0.675266,0.00343771,0.0104596,1770,1513,-0.0400369,-0.0692713
553,-489,-0.0319824,0.0544434,-0.00121822,-0.00178335,-0.00225873,0.000775549,-0.00377712,-0.723171,0.00281247,0.012949,1777,1513,-0.0319249,-0.0544189
560,-489,-0.0179443,0.0467529,-0.000572405,-0.000946853,-0.00120983,0.000464605,-0.00198386,-0.708631,0.0015016,0.0116802,1784,1513,-0.0179048,-0.0468036
567,-489,-0.0155029,0.0587158,-0.000133171,-0.000646333,-0.000629159,0.000289714,-0.00106922,-0.591785,0.000826487,0.0126055,1791,1513,-0.0155452,-0.0586906
574,-489,-0.0467529,0.0882568,0.000286764,-0.000376901,-0.000160966,0.000323744,-0.000413882,-0.225821,0.000426927,0.012936,1798,1513,-0.0467657,-0.0882089
581,-489,-0.0430908,0.079834,0.000734245,-0.000421481,0.000120291,0.000746633,-0.000433869,0.102617,0.00068949,0.0101732,1805,1513,-0.0430605,-0.0798781
588,-489,-0.0374756,0.06604,0.00101648,-0.000630262,0.000338967,0.00108352,-0.000697305,0.195268,0.00103619,0.0128283,1812,1513,-0.0374473,-0.0660178
595,-489,-0.0294189,0.0457764,0.00108191,-0.000887618,0.000489873,0.00119702,-0.00100273,0.230804,0.00127168,0.0174859,1819,1513,-0.0294498,-0.0457259
602,-489,-0.0344238,0.0189209,0.000844724,-0.0013273,0.000746409,0.00107649,-0.00155907,0.301074,0.00153012,0.0207499,1826,1513,-0.0344481,-0.0188828
609,-489,-0.0447998,0.0393066,0.00102835,-0.00259518,0.00114333,0.00135894,-0.00292577,0.281473,0.00252831,0.0150947,1833,1513,-0.0448001,-0.0393388
616,-489,-0.0559082,0.0554199,0.00159674,-0.0042172,0.0018171,0.00211794,-0.0047384,0.27933,0.00405374,0.00939118,1840,1513,-0.0558583,-0.0554501
623,-489,-0.0410156,0.0625,0.00218412,-0.00575777,0.00222514,0.00276507,-0.00633871,0.255379,0.00538937,0.0128795,1847,1513,-0.0410188,-0.0624427
630,-489,-0.0473633,0.0654297,0.00282961,-0.00786155,0.00294503,0.00358717,-0.00861911,0.251778,0.00724416,0.0285836,1854,1513,-0.0473337,-0.065451
637,-489,-0.115723,0.117554,0.00360545,-0.0103115,0.00375255,0.00455279,-0.0112589,0.247287,0.00939856,0.0429474,1861,1513,-0.115696,-0.117575
644,-489,-0.0284424,0.461426,0.00473148,-0.0134376,0.00468801,0.00586977,-0.0145759,0.2382,0.0121558,0.0467793,1868,1513,-0.0284444,-0.461384
651,-489,-0.797241,-0.460205,0.00609238,-0.0169803,0.00563828,0.00739649,-0.0182844,0.2273,0.0152646,0.0411423,1875,1513,-0.797254,0.460216
658,-489,-0.478027,0.0905762,0.00777707,-0.0209683,0.00643095,0.00915021,-0.0223415,0.210362,0.0187059,0.0419167,1882,1513,-0.477985,-0.0905993
665,-489,-0.366333,0.786499,0.00966328,-0.0251674,0.00699976,0.0110173,-0.0265215,0.191085,0.0222807,0.0467666,1889,1513,-0.366342,-0.786533
672,-489,0,0,0,0,0,0,0,0,0,-1,1896,1513,0,0
679,-489,0,0,0,0,0,0,0,0,0,-1,1903,1513,0,0
686,-489,0,0,0,0,0,0,0,0,0,-1,1910,1513,0,0
693,-489,0,0,0,0,0,0,0,0,0,-1,1917,1513,0,0
700,-489,0,0,0,0,0,0,0,0,0,-1,1924,1513,0,0
707,-489,0,0,0,0,0,0,0,0,0,-1,1931,1513,0,0
714,-489,0,0,0,0,0,0,0,0,0,-1,1938,1513,0,0
721,-489,0,0,0,0,0,0,0,0,0,-1,1945,1513,0,0
728,-489,0,0,0,0,0,0,0,0,0,-1,1952,1513,0,0
735,-489,0,0,0,0,0,0,0,0,0,-1,1959,1513,0,0
742,-489,0,0,0,0,0,0,0,0,0,-1,1966,1513,0,0
749,-489,0,0,0,0,0,0,0,0,0,-1,1973,1513,0,0
756,-489,0,0,0,0,0,0,0,0,0,-1,1980,1513,0,0
763,-489,0,0,0,0,0,0,0,0,0,-1,1987,1513,0,0
770,-489,0,0,0,0,0,0,0,0,0,-1,1994,1513,0,0
777,-489,0,0,0,0,0,0,0,0,0,-1,2001,1513,0,0
784,-489,0,0,0,0,0,0,0,0,0,-1,2008,1513,0,0
791,-489,0,0,0,0,0,0,0,0,0,-1,2015,1513,0,0
798,-489,0,0,0,0,0,0,0,0,0,-1,2022,1513,0,0
805,-489,0,0,0,0,0,0,0,0,0,-1,2029,1513,0,0
812,-489,0,0,0,0,0,0,0,0,0,-1,2036,1513,0,0
-700,-496,0,0,0,0,0,0,0,0,0,-1,524,1520,0,0
-693,-496,0,0,0,0,0,0,0,0,0,-1,531,1520,0,0
-686,-496,0,0,0,0,0,0,0,0,0,-1,538,1520,0,0
-679,-496,0,0,0,0,0,0,0,0,0,-1,545,1520,0,0
-672,-496,0,0,0,0,0,0,0,0,0,-1,552,1520,0,0
-665,-496,0,0,0,0,0,0,0,0,0,-1,559,1520,0,0
-658,-496,0,0,0,0,0,0,0,0,0,-1,566,1520,0,0
-651,-496,0,0,0,0,0,0,0,0,0,-1,573,1520,0,0
-644,-496,0,0,0,0,0,0,0,0,0,-1,580,1520,0,0
-637,-496,0,0,0,0,0,0,0,0,0,-1,587,1520,0,0
-630,-496,0,0,0,0,0,0,0,0,0,-1,594,1520,0,0
-623,-496,0,0,0,0,0,0,0,0,0,-1,601,1520,0,0
-616,-496,0,0,0,0,0,0,0,0,0,-1,608,1520,0,0
-609,-496,0,0,0,0,0,0,0,0,0,-1,615,1520,0,0
-602,-496,0,0,0,0,0,0,0,0,0,-1,622,1520,0,0
-595,-496,0,0,0,0,0,0,0,0,0,-1,629,1520,0,0
-588,-496,0,0,0,0,0,0,0,0,0,-1,636,1520,0,0
-581,-496,0,0,0,0,0,0,0,0,0,-1,643,1520,0,0
-574,-496,0,0,0,0,0,0,0,0,0,-1,650,1520,0,0
-567,-496,0,0,0,0,0,0,0,0,0,-1,657,1520,0,0
-560,-496,0,0,0,0,0,0,0,0,0,-1,664,1520,0,0
-553,-496,0,0,0,0,0,0,0,0,0,-1,671,1520,0,0
-546,-496,0.437622,-0.904053,0,0,0,0,0,0,0,-1,678,1520,0.437593,0.904107
-539,-496,0.468506,-0.536255,0,0,0,0,0,0,0,-1,685,1520,0.46852,0.536262
-532,-496,-2.41809,1.74683,0,0,0,0,0,0,0,-1,692,1520,-2.4181,-1.74679
-525,-496,-2.38165,1.47888,0,0,0,0,0,0,0,-1,699,1520,-2.38168,-1.47889
-518,-496,-0.215515,0.0328369,0,0,0,0,0,0,0,-1,706,1520,-0.215492,-0.0328704
-511,-496,-0.495056,0.276733,0,0,0,0,0,0,0,-1,713,1520,-0.495059,-0.276696
-504,-496,0.31488,-0.226318,0,0,0,0,0,0,0,-1,720,1520,0.314895,0.226319
-497,-496,0.343506,-0.280151,0,0,0,0,0,0,0,-1,727,1520,0.343487,0.28011
-490,-496,0.114136,0.00927734,-0.00995317,-0.00302933,0.00422024,-0.00103274,-0.0119498,1.1289,0.00764555,0.030949,734,1520,0.114108,-0.00923757
-483,-496,-0.0145264,0.0212402,-0.00785481,-0.00298939,0.00322825,-0.00137986,-0.00946434,1.10829,0.00590361,0.0156165,741,1520,-0.0145412,-0.0212363
-476,-496,-0.0441284,0.0283203,-0.00600709,-0.00221332,0.00231643,-0.00111621,-0.0071042,1.12847,0.00441139,0.0099333,748,1520,-0.0441464,-0.0283506
-469,-496,-0.0453491,0.0386963,-0.00461097,-0.00130943,0.00158591,-0.000671057,-0.00524934,1.18812,0.0032987,0.00996623,755,1520,-0.0453777,-0.038665
-462,-496,-0.0419312,0.0396729,-0.00336813,-0.00099928,0.00114944,-0.000533228,-0.00383418,1.18559,0.00239822,0.0137196,762,1520,-0.0419069,-0.0396385
-455,-496,-0.0108032,0.0499268,-0.00254887,-0.000826715,0.000980175,-0.000383109,-0.00299247,1.1458,0.00188033,0.018086,769,1520,-0.0108309,-0.0499803
-448,-496,-0.0184937,0.0709229,-0.00215894,-6.30581e-06,0.000877688,0.000306187,-0.00247144,1.22875,0.00175859,0.0169116,776,1520,-0.0184825,-0.0708795
-441,-496,-0.0283203,0.072876,-0.00217022,0.000391416,0.000936587,0.000697321,-0.00247613,1.2551,0.00192575,0.0135371,783,1520,-0.0283211,-0.0729216
-434,-496,-0.0426025,0.0710449,-0.00267887,0.00090018,0.000992045,0.00115676,-0.00293545,1.3177,0.0024359,0.012703,790,1520,-0.042587,-0.0711055
-427,-496,-0.0593262,0.0734863,-0.00366388,0.00169798,0.0010655,0.00190195,-0.00386786,1.38165,0.00339504,0.0152384,797,1520,-0.0593452,-0.0735053
-420,-496,-0.0487061,0.0476074,-0.00496259,0.00247487,0.00140091,0.00272999,-0.00521771,1.39066,0.00466294,0.0160216,804,1520,-0.0487109,-0.0476167
-413,-496,-0.0386353,0.0384521,-0.00619059,0.00346483,0.00164822,0.00373844,-0.0064642,1.4063,0.00596015,0.0134537,811,1520,-0.0386261,-0.0384917
-406,-496,-0.0410156,0.0438232,-0.00721504,0.004964,0.0020593,0.00530277,-0.00755381,1.40775,0.00746058,0.0137256,818,1520,-0.0410086,-0.0438804
-399,-496,-0.0578613,0.045166,-0.00608229,0.00907866,-0.000415818,0.00909006,-0.00609369,-1.5434,0.00882305,0.0181505,825,1520,-0.0578323,-0.0451228
-392,-496,-0.140991,0.111328,-0.00424947,0.0102024,-0.00224775,0.010544,-0.00459099,-1.42001,0.00896064,0.0279413,832,1520,-0.141008,-0.111278
-385,-496,-0.301025,0.308228,-0.00183376,0.00994297,-0.00469446,0.0115853,-0.00347605,-1.23427,0.00910609,0.0378297,839,1520,-0.301038,-0.308192
-378,-496,-0.31366,0.406616,0.00105587,0.00813418,-0.00786154,0.0132165,-0.00402643,-0.996902,0.0104159,0.0421911,846,1520,-0.313685,-0.406638
-371,-496,-0.367554,0.626465,0.00436423,0.00588478,-0.0120202,0.0171687,-0.00691973,-0.816981,0.0143209,0.0434694,853,1520,-0.367569,-0.626472
-364,-496,-0.349426,1.05725,0.00688745,0.00219405,-0.0156601,0.0203757,-0.0112942,-0.711026,0.0185335,0.0447547,860,1520,-0.349451,-1.05728
-357,-496,-0.398987,1.07935,0,0,0,0,0,0,0,-1,867,1520,-0.398994,-1.07932
-350,-496,-0.378479,2.08435,0.0135938,-0.00971317,-0.0247812,0.0293248,-0.0254442,-0.565613,0.0316474,0.0402525,874,1520,-0.378465,-2.08432
-343,-496,-0.576233,1.89856,0.0164795,-0.0186081,-0.029383,0.0331577,-0.0352863,-0.516265,0.0395225,0.0424909,881,1520,-0.576214,-1.89862
-336,-496,-0.0376587,0.263184,0.0178496,-0.0287597,-0.0330663,0.0349985,-0.0459086,-0.478433,0.0468531,0.0439423,888,1520,-0.0376747,-0.263219
-329,-496,-0.458008,-1.23096,0.0168848,-0.0388887,-0.0351788,0.0338892,-0.0558931,-0.450257,0.0523522,0.0421552,895,1520,-0.45802,1.231
-322,-496,-0.518005,-1.03809,0.00989946,-0.0468723,-0.034024,0.0258237,-0.0627966,-0.437747,0.0526284,0.0400167,902,1520,-0.517981,1.03803
-315,-496,-0.536804,-0.738037,0.00121235,-0.0493373,-0.0325525,0.0171501,-0.0652751,-0.455296,0.0502192,0.0411031,909,1520,-0.536788,0.738012
-308,-496,0,0,0,0,0,0,0,0,0,-1,916,1520,0,0
-301,-496,0,0,0,0,0,0,0,0,0,-1,923,1520,0,0
-294,-496,0,0,0,0,0,0,0,0,0,-1,930,1520,0,0
-287,-496,0,0,0,0,0,0,0,0,0,-1,937,1520,0,0
-280,-496,0,0,0,0,0,0,0,0,0,-1,944,1520,0,0
-273,-496,0,0,0,0,0,0,0,0,0,-1,951,1520,0,0
-266,-496,0,0,0,0,0,0,0,0,0,-1,958,1520,0,0
-259,-496,0,0,0,0,0,0,0,0,0,-1,965,1520,0,0
-252,-496,0,0,0,0,0,0,0,0,0,-1,972,1520,0,0
-245,-496,0,0,0,0,0,0,0,0,0,-1,979,1520,0,0
-238,-496,0,0,0,0,0,0,0,0,0,-1,986,1520,0,0
-231,-496,0,0,0,0,0,0,0,0,0,-1,993,1520,0,0
-224,-496,0,0,0,0,0,0,0,0,0,-1,1000,1520,0,0
-217,-496,0,0,0,0,0,0,0,0,0,-1,1007,1520,0,0
-210,-496,0,0,0,0,0,0,0,0,0,-1,1014,1520,0,0
-203,-496,0,0,0,0,0,0,0,0,0,-1,1021,1520,0,0
-196,-496,0,0,0,0,0,0,0,0,0,-1,1028,1520,0,0
-189,-496,0,0,0,0,0,0,0,0,0,-1,1035,1520,0,0
-182,-496,0,0,0,0,0,0,0,0,0,-1,1042,1520,0,0
-175,-496,0,0,0,0,0,0,0,0,0,-1,1049,1520,0,0
-168,-496,0,0,0,0,0,0,0,0,0,-1,1056,1520,0,0
-161,-496,0,0,0,0,0,0,0,0,0,-1,1063,1520,0,0
-154,-496,0,0,0,0,0,0,0,0,0,-1,1070,1520,0,0
-147,-496,0,0,0,0,0,0,0,0,0,-1,1077,1520,0,0
-140,-496,0,0,0,0,0,0,0,0,0,-1,1084,1520,0,0
-133,-496,0,0,0,0,0,0,0,0,0,-1,1091,1520,0,0
-126,-496,0,0,0,0,0,0,0,0,0,-1,1098,1520,0,0
-119,-496,0,0,0,0,0,0,0,0,0,-1,1105,1520,0,0
-112,-496,0,0,0,0,0,0,0,0,0,-1,1112,1520,0,0
-105,-496,0,0,0,0,0,0,0,0,0,-1,1119,1520,0,0
-98,-496,0,0,0,0,0,0,0,0,0,-1,1126,1520,0,0
-91,-496,0,0,0,0,0,0,0,0,0,-1,1133,1520,0,0
-84,-496,0,0,0,0,0,0,0,0,0,-1,1140,1520,0,0
-77,-496,0,0,0,0,0,0,0,0,0,-1,1147,1520,0,0
-70,-496,0,0,0,0,0,0,0,0,0,-1,1154,1520,0,0
-63,-496,0,0,0,0,0,0,0,0,0,-1,1161,1520,0,0
-56,-496,0,0,0,0,0,0,0,0,0,-1,1168,1520,0,0
-49,-496,0,0,0,0,0,0,0,0,0,-1,1175,1520,0,0
-42,-496,0,0,0,0,0,0,0,0,0,-1,1182,1520,0,0
-35,-496,0,0,0,0,0,0,0,0,0,-1,1189,1520,0,0
-28,-496,0,0,0,0,0,0,0,0,0,-1,1196,1520,0,0
-21,-496,0,0,0,0,0,0,0,0,0,-1,1203,1520,0,0
-14,-496,0,0,0,0,0,0,0,0,0,-1,1210,1520,0,0
-7,-496,0,0,0,0,0,0,0,0,0,-1,1217,1520,0,0
0,-496,0,0,0,0,0,0,0,0,0,-1,1224,1520,0,0
7,-496,0,0,0,0,0,0,0,0,0,-1,1231,1520,0,0
14,-496,0,0,0,0,0,0,0,0,0,-1,1238,1520,0,0
21,-496,0,0,0,0,0,0,0,0,0,-1,1245,1520,0,0
28,-496,0,0,0,0,0,0,0,0,0,-1,1252,1520,0,0
35,-496,0,0,0,0,0,0,0,0,0,-1,1259,1520,0,0
42,-496,0,0,0,0,0,0,0,0,0,-1,1266,1520,0,0
49,-496,0,0,0,0,0,0,0,0,0,-1,1273,1520,0,0
56,-496,0,0,0,0,0,0,0,0,0,-1,1280,1520,0,0
63,-496,0,0,0,0,0,0,0,0,0,-1,1287,1520,0,0
70,-496,0,0,0,0,0,0,0,0,0,-1,1294,1520,0,0
77,-496,0,0,0,0,0,0,0,0,0,-1,1301,1520,0,0
84,-496,0,0,0,0,0,0,0,0,0,-1,1308,1520,0,0
91,-496,0,0,0,0,0,0,0,0,0,-1,1315,1520,0,0
98,-496,0,0,0,0,0,0,0,0,0,-1,1322,1520,0,0
105,-496,0,0,0,0,0,0,0,0,0,-1,1329,1520,0,0
112,-496,0,0,0,0,0,0,0,0,0,-1,1336,1520,0,0
119,-496,0,0,0,0,0,0,0,0,0,-1,1343,1520,0,0
126,-496,0,0,0,0,0,0,0,0,0,-1,1350,1520,0,0
133,-496,0,0,0,0,0,0,0,0,0,-1,1357,1520,0,0
140,-496,0,0,0,0,0,0,0,0,0,-1,1364,1520,0,0
147,-496,0,0,0,0,0,0,0,0,0,-1,1371,1520,0,0
154,-496,0,0,0,0,0,0,0,0,0,-1,1378,1520,0,0
161,-496,0,0,0,0,0,0,0,0,0,-1,1385,1520,0,0
168,-496,0,0,0,0,0,0,0,0,0,-1,1392,1520,0,0
175,-496,0,0,0,0,0,0,0,0,0,-1,1399,1520,0,0
182,-496,0,0,0,0,0,0,0,0,0,-1,1406,1520,0,0
189,-496,0,0,0,0,0,0,0,0,0,-1,1413,1520,0,0
196,-496,0,0,0,0,0,0,0,0,0,-1,1420,1520,0,0
203,-496,0,0,0,0,0,0,0,0,0,-1,1427,1520,0,0
210,-496,0,0,0,0,0,0,0,0,0,-1,1434,1520,0,0
217,-496,0,0,0,0,0,0,0,0,0,-1,1441,1520,0,0
224,-496,0,0,0,0,0,0,0,0,0,-1,1448,1520,0,0
231,-496,0,0,0,0,0,0,0,0,0,-1,1455,1520,0,0
238,-496,0,0,0,0,0,0,0,0,0,-1,1462,1520,0,0
245,-496,0,0,0,0,0,0,0,0,0,-1,1469,1520,0,0
252,-496,0,0,0,0,0,0,0,0,0,-1,1476,1520,0,0
259,-496,0,0,0,0,0,0,0,0,0,-1,1483,1520,0,0
266,-496,0,0,0,0,0,0,0,0,0,-1,1490,1520,0,0
273,-496,0,0,0,0,0,0,0,0,0,-1,1497,1520,0,0
280,-496,0,0,0,0,0,0,0,0,0,-1,1504,1520,0,0
287,-496,0,0,0,0,0,0,0,0,0,-1,1511,1520,0,0
294,-496,0,0,0,0,0,0,0,0,0,-1,1518,1520,0,0
301,-496,0,0,0,0,0,0,0,0,0,-1,1525,1520,0,0
308,-496,0,0,0,0,0,0,0,0,0,-1,1532,1520,0,0
315,-496,0,0,0,0,0,0,0,0,0,-1,1539,1520,0,0
322,-496,0,0,0,0,0,0,0,0,0,-1,1546,1520,0,0
329,-496,0,0,0,0,0,0,0,0,0,-1,1553,1520,0,0
336,-496,0,0,0,0,0,0,0,0,0,-1,1560,1520,0,0
343,-496,0,0,0,0,0,0,0,0,0,-1,1567,1520,0,0
350,-496,0,0,0,0,0,0,0,0,0,-1,1574,1520,0,0
357,-496,0,0,0,0,0,0,0,0,0,-1,1581,1520,0,0
364,-496,0,0,0,0,0,0,0,0,0,-1,1588,1520,0,0
371,-496,0,0,0,0,0,0,0,0,0,-1,1595,1520,0,0
378,-496,0,0,0,0,0,0,0,0,0,-1,1602,1520,0,0
385,-496,0,0,0,0,0,0,0,0,0,-1,1609,1520,0,0
392,-496,0,0,0,0,0,0,0,0,0,-1,1616,1520,0,0
399,-496,0,0,0,0,0,0,0,0,0,-1,1623,1520,0,0
406,-496,0,0,0,0,0,0,0,0,0,-1,1630,1520,0,0
413,-496,0,0,0,0,0,0,0,0,0,-1,1637,1520,0,0
420,-496,0,0,0,0,0,0,0,0,0,-1,1644,1520,0,0
427,-496,0,0,0,0,0,0,0,0,0,-1,1651,1520,0,0
434,-496,0.241577,0.280518,0,0,0,0,0,0,0,-1,1658,1520,0.241593,-0.280531
441,-496,0.301514,0.362915,0,0,0,0,0,0,0,-1,1665,1520,0.301564,-0.362879
448,-496,0.580566,-0.866333,0,0,0,0,0,0,0,-1,1672,1520,0.580567,0.866335
455,-496,1.78406,1.00708,0,0,0,0,0,0,0,-1,1679,1520,1.78411,-1.00705
462,-496,0.0216064,-0.594727,-0.0175417,0.00678948,0.00490737,0.00774196,-0.0184942,1.37909,0.0155657,0.046703,1686,1520,0.0215623,0.594686
469,-496,-0.0941162,-0.344238,-0.0138158,0.00678053,0.00504291,0.00794897,-0.0149842,1.34311,0.0134466,0.0454664,1693,1520,-0.0941219,0.344262
476,-496,-0.299194,-0.0909424,-0.010624,0.00600446,0.00484043,0.00731085,-0.0119304,1.30719,0.0112151,0.0422444,1700,1520,-0.299199,0.0909044
483,-496,-0.391113,0.276367,-0.0070435,0.00441087,0.00375715,0.00553326,-0.0081659,1.2805,0.00795775,0.0426668,1707,1520,-0.391056,-0.276404
490,-496,1.28516,2.86035,0,0,0,0,0,0,0,-1,1714,1520,1.28515,-2.86031
497,-496,0.743286,1.84888,-0.00161189,0.000529961,0.000608811,0.000690916,-0.00177285,1.31233,0.00146746,0.0421262,1721,1520,0.743311,-1.8489
504,-496,0.342651,1.03088,-0.000477893,-0.000741892,-0.000766481,0.000167871,-0.00138766,-0.700127,0.000985837,0.0426655,1728,1520,0.342634,-1.03084
511,-496,0.214844,0.450562,6.93587e-05,-0.00152364,-0.00189043,0.00132423,-0.00277851,-0.586018,0.00241781,0.04419,1735,1520,0.214886,-0.450596
518,-496,0.245483,0.304443,0.000383681,-0.00160608,-0.00242948,0.0020141,-0.0032365,-0.591062,0.00305869,0.0416344,1742,1520,0.245442,-0.304395
525,-496,-0.0895996,0.120483,0.000524888,-0.00211107,-0.00273907,0.00224657,-0.00383276,-0.56116,0.0035495,0.0372484,1749,1520,-0.0896159,-0.120441
532,-496,-0.076416,0.117798,0.00027985,-0.00227196,-0.00294103,0.00220982,-0.00420193,-0.580736,0.00376091,0.0210444,1756,1520,-0.0763642,-0.117793
539,-496,-0.0397949,0.0895996,-0.000240626,-0.00201677,-0.00290039,0.00190461,-0.004162,-0.636835,0.00358247,0.0108176,1763,1520,-0.0398392,-0.0895552
546,-496,-0.0463867,0.0810547,-0.000807702,-0.00139441,-0.00264037,0.00155556,-0.00375767,-0.730073,0.00315419,0.00938051,1770,1520,-0.0463611,-0.0810358
553,-496,-0.0263672,0.0725098,-0.00101892,-0.00118318,-0.00227409,0.00117452,-0.00337662,-0.767348,0.0027282,0.0131935,1777,1520,-0.0264002,-0.0724939
560,-496,-0.00939941,0.05896,-0.000359461,-0.000470831,-0.00129381,0.000879857,-0.00171015,-0.763892,0.00152074,0.0116729,1784,1520,-0.00934422,-0.0589312
567,-496,-0.020752,0.0668945,8.60181e-05,-0.000273026,-0.000751288,0.000678935,-0.000865943,-0.668121,0.000894111,0.0102551,1791,1520,-0.0207558,-0.0668927
574,-496,-0.0281982,0.0686035,0.000435128,-8.90593e-05,-0.000281624,0.000557749,-0.00021168,-0.410651,0.000458963,0.0114055,1798,1520,-0.0281524,-0.0686383
581,-496,-0.0257568,0.0643311,0.000776226,-0.000197712,2.84785e-05,0.000777058,-0.000198544,0.0292073,0.000595359,0.0119787,1805,1520,-0.0258136,-0.0643506
588,-496,-0.022583,0.0535889,0.00107185,-0.000437733,0.000293894,0.00112705,-0.000492932,0.185655,0.000958886,0.0142392,1812,1520,-0.0225255,-0.0535494
595,-496,-0.0379639,0.0678711,0.00122692,-0.000682948,0.000544263,0.00137113,-0.000827159,0.259015,0.00128207,0.0157432,1819,1520,-0.0379592,-0.0678712
602,-496,-0.0513916,0.0511475,0.00103129,-0.00119774,0.000920399,0.0013622,-0.00152866,0.345147,0.00166996,0.0158538,1826,1520,-0.0513348,-0.0511492
609,-496,-0.0493164,0.0566406,0.00125311,-0.00265605,0.00142696,0.00171857,-0.00312151,0.315309,0.00283328,0.013029,1833,1520,-0.0493132,-0.0566208
616,-496,-0.0505371,0.0664063,0.00182317,-0.004495,0.00226966,0.00255397,-0.0052258,0.311502,0.00457909,0.0105319,1840,1520,-0.0504843,-0.0663644
623,-496,-0.0454102,0.0847168,0.0023845,-0.00636062,0.00287838,0.00324686,-0.00722297,0.291088,0.00618836,0.0211372,1847,1520,-0.0454404,-0.0847684
630,-496,-0.034668,0.0953369,0.00300815,-0.00891809,0.00388158,0.00416019,-0.0100701,0.288515,0.00844875,0.0363066,1854,1520,-0.0347268,-0.0953512
637,-496,-0.0991211,0.0235596,0.00379119,-0.0120687,0.00504079,0.00525771,-0.0135352,0.283116,0.0111954,0.0420556,1861,1520,-0.0991632,-0.0235982
644,-496,-0.072998,0.319946,0.00496875,-0.0161449,0.00639277,0.00675348,-0.0179296,0.272248,0.0147297,0.0422986,1868,1520,-0.0729859,-0.319928
651,-496,-0.333618,0.619629,0.00650812,-0.0211073,0.00776397,0.00854124,-0.0231404,0.256116,0.0189277,0.0413192,1875,1520,-0.333608,-0.619667
658,-496,-0.419067,0.983398,0.00848849,-0.0268824,0.00902731,0.0106592,-0.0290531,0.235981,0.0237336,0.0423411,1882,1520,-0.419113,-0.983372
665,-496,-0.271729,1.31299,0.0109838,-0.0334471,0.0099782,0.0131218,-0.0355851,0.211076,0.0291008,0.0473184,1889,1520,-0.271755,-1.31293
672,-496,0,0,0,0,0,0,0,0,0,-1,1896,1520,0,0
679,-496,0,0,0,0,0,0,0,0,0,-1,1903,1520,0,0
686,-496,0,0,0,0,0,0,0,0,0,-1,1910,1520,0,0
693,-496,0,0,0,0,0,0,0,0,0,-1,1917,1520,0,0
700,-496,0,0,0,0,0,0,0,0,0,-1,1924,1520,0,0
707,-496,0,0,0,0,0,0,0,0,0,-1,1931,1520,0,0
714,-496,0,0,0,0,0,0,0,0,0,-1,1938,1520,0,0
721,-496,0,0,0,0,0,0,0,0,0,-1,1945,1520,0,0
728,-496,0,0,0,0,0,0,0,0,0,-1,1952,1520,0,0
735,-496,0,0,0,0,0,0,0,0,0,-1,1959,1520,0,0
742,-496,0,0,0,0,0,0,0,0,0,-1,1966,1520,0,0
749,-496,0,0,0,0,0,0,0,0,0,-1,1973,1520,0,0
756,-496,0,0,0,0,0,0,0,0,0,-1,1980,1520,0,0
763,-496,0,0,0,0,0,0,0,0,0,-1,1987,1520,0,0
770,-496,0,0,0,0,0,0,0,0,0,-1,1994,1520,0,0
777,-496,0,0,0,0,0,0,0,0,0,-1,2001,1520,0,0
784,-496,0,0,0,0,0,0,0,0,0,-1,2008,1520,0,0
791,-496,0,0,0,0,0,0,0,0,0,-1,2015,1520,0,0
798,-496,0,0,0,0,0,0,0,0,0,-1,2022,1520,0,0
805,-496,0,0,0,0,0,0,0,0,0,-1,2029,1520,0,0
812,-496,0,0,0,0,0,0,0,0,0,-1,2036,1520,0,0
-700,-503,0,0,0,0,0,0,0,0,0,-1,524,1527,0,0
-693,-503,0,0,0,0,0,0,0,0,0,-1,531,1527,0,0
-686,-503,0,0,0,0,0,0,0,0,0,-1,538,1527,0,0
-679,-503,0,0,0,0,0,0,0,0,0,-1,545,1527,0,0
-672,-503,0,0,0,0,0,0,0,0,0,-1,552,1527,0,0
-665,-503,0,0,0,0,0,0,0,0,0,-1,559,1527,0,0
-658,-503,0,0,0,0,0,0,0,0,0,-1,566,1527,0,0
-651,-503,0,0,0,0,0,0,0,0,0,-1,573,1527,0,0
-644,-503,0,0,0,0,0,0,0,0,0,-1,580,1527,0,0
-637,-503,0,0,0,0,0,0,0,0,0,-1,587,1527,0,0
-630,-503,0,0,0,0,0,0,0,0,0,-1,594,1527,0,0
-623,-503,0,0,0,0,0,0,0,0,0,-1,601,1527,0,0
-616,-503,0,0,0,0,0,0,0,0,0,-1,608,1527,0,0
-609,-503,0,0,0,0,0,0,0,0,0,-1,615,1527,0,0
-602,-503,0,0,0,0,0,0,0,0,0,-1,622,1527,0,0
-595,-503,0,0,0,0,0,0,0,0,0,-1,629,1527,0,0
-588,-503,0,0,0,0,0,0,0,0,0,-1,636,1527,0,0
-581,-503,0,0,0,0,0,0,0,0,0,-1,643,1527,0,0
-574,-503,0,0,0,0,0,0,0,0,0,-1,650,1527,0,0
-567,-503,0,0,0,0,0,0,0,0,0,-1,657,1527,0,0
-560,-503,0,0,0,0,0,0,0,0,0,-1,664,1527,0,0
-553,-503,0,0,0,0,0,0,0,0,0,-1,671,1527,0,0
-546,-503,0,0,0,0,0,0,0,0,0,-1,678,1527,0,0
-539,-503,0.223938,-0.39502,0,0,0,0,0,0,0,-1,685,1527,0.223922,0.395027
-532,-503,0.290161,-0.647949,0,0,0,0,0,0,0,-1,692,1527,0.290148,0.647967
-525,-503,-3.40997,1.83423,0,0,0,0,0,0,0,-1,699,1527,-3.40998,-1.83426
-518,-503,0.550781,-0.499268,-0.0258854,-0.00326763,0.01197,0.00189075,-0.0310438,1.1639,0.021354,0.0463726,706,1527,0.550793,0.499256
-511,-503,0.545593,-0.248169,0,0,0,0,0,0,0,-1,713,1527,0.545611,0.24813
-504,-503,0.461365,-0.209351,-0.0212351,-0.00337497,0.00942879,0.000681414,-0.0252915,1.16452,0.0170927,0.047871,720,1527,0.461383,0.209298
-497,-503,0.387512,-0.231934,-0.0179609,-0.00307867,0.00802108,0.000421328,-0.0214609,1.15935,0.0144498,0.0465723,727,1527,0.3875,0.231954
-490,-503,0.292664,-0.184814,-0.0145616,-0.00341321,0.00638928,-0.00050834,-0.0174665,1.14408,0.0114786,0.0418625,734,1527,0.292641,0.184811
-483,-503,0.175659,-0.0657959,-0.0113764,-0.00335571,0.00488182,-0.00104823,-0.0136839,1.12925,0.00879405,0.0332639,741,1527,0.175668,0.065756
-476,-503,-0.0326538,0.0379639,-0.00858605,-0.00265049,0.0035431,-0.000996442,-0.0102401,1.13403,0.00652002,0.0153852,748,1527,-0.0326367,-0.0379872
-469,-503,-0.038208,0.0599365,-0.00644913,-0.00178379,0.0024665,-0.000721611,-0.00751131,1.16416,0.00478517,0.00894449,755,1527,-0.0381998,-0.0598953
-462,-503,-0.0396118,0.0683594,-0.00459086,-0.00150492,0.00172301,-0.000734987,-0.0053608,1.15056,0.00335581,0.0107257,762,1527,-0.0396404,-0.0684019
-455,-503,-0.00482178,0.0664063,-0.00323052,-0.00127341,0.00128299,-0.000638384,-0.00386554,1.11119,0.00239279,0.0150401,769,1527,-0.00480653,-0.0663471
-448,-503,-0.0129395,0.0742188,-0.00228126,-0.000355748,0.000920458,1.34644e-05,-0.00265047,1.18933,0.00177149,0.0146456,776,1527,-0.0129342,-0.0742758
-441,-503,-0.0145264,0.0650635,-0.00174616,8.2719e-05,0.000772614,0.000365414,-0.00202886,1.22003,0.00148939,0.0121584,783,1527,-0.0145185,-0.0650107
-434,-503,-0.022583,0.0583496,-0.00176705,0.000669853,0.000668652,0.000841264,-0.00193847,1.31985,0.00164602,0.0101672,790,1527,-0.0225655,-0.0582978
-427,-503,-0.0615234,0.0672607,-0.00237338,0.00151701,0.000636676,0.00161855,-0.00247493,1.41264,0.00238055,0.0154306,797,1527,-0.0615164,-0.0672262
-420,-503,-0.0324097,0.0551758,-0.00327795,0.00232976,0.000888949,0.00246731,-0.0034155,1.41729,0.00341111,0.0163452,804,1527,-0.0323854,-0.0551366
-413,-503,-0.0290527,0.0439453,-0.00404019,0.00327594,0.00107875,0.00343168,-0.00419594,1.42741,0.00441117,0.013763,811,1527,-0.0290542,-0.0439647
-406,-503,-0.0288696,0.0467529,-0.00454263,0.00477652,0.00139258,0.00498017,-0.00474628,1.42559,0.00561611,0.00964602,818,1527,-0.0288912,-0.0467462
-399,-503,-0.0206299,0.0463867,-0.00325204,0.00859862,-0.000771486,0.00864863,-0.00330205,-1.50606,0.00712618,0.010355,825,1527,-0.0206287,-0.0463488
-392,-503,-0.013855,0.0531006,-0.00146377,0.00988501,-0.00232256,0.0103419,-0.00192069,-1.37655,0.00761602,0.0165423,832,1527,-0.0138423,-0.0531445
-385,-503,-0.0126343,0.0662842,0.000769041,0.00998455,-0.00431183,0.0116874,-0.000933773,-1.19468,0.00812075,0.0316241,839,1527,-0.0126174,-0.0663137
-378,-503,-0.135071,0.20813,0.0032866,0.00872405,-0.00683463,0.0133608,-0.00135019,-0.974697,0.00938971,0.039418,846,1527,-0.135045,-0.208085
-371,-503,-0.559387,0.711792,0.00597395,0.00720559,-0.0101608,0.0167692,-0.00358964,-0.815665,0.0125483,0.0421597,853,1527,-0.559384,-0.711764
-364,-503,0.00708008,0.827393,0.00770584,0.00438492,-0.0129537,0.019105,-0.00701429,-0.721654,0.0156093,0.0471099,860,1527,0.00706501,-0.827413
-357,-503,0.417908,0.886108,0.00989122,0.000336849,-0.016099,0.0219069,-0.0116788,-0.641167,0.0196881,0.0459177,867,1527,0.417936,-0.88608
-350,-503,0.75946,0.916626,0.011738,-0.00484871,-0.0195985,0.0247257,-0.0178364,-0.585241,0.0246803,0.0412964,874,1527,0.759449,-0.916585
-343,-503,-0.304443,0.618774,0.0126763,-0.0119552,-0.0226837,0.0261719,-0.0254508,-0.536696,0.0298054,0.0419857,881,1527,-0.304452,-0.618779
-336,-503,-0.0631104,0.40625,0.0117343,-0.0199972,-0.0247998,0.0253092,-0.0335721,-0.50083,0.0341065,0.0430575,888,1527,-0.0631071,-0.406235
-329,-503,0.151855,0.285522,0.00823971,-0.0273885,-0.0253616,0.0214184,-0.0405672,-0.479229,0.0363522,0.0424583,895,1527,0.151873,-0.28558
-322,-503,-0.0166626,-0.859009,0.00123797,-0.0325897,-0.0241811,0.0138335,-0.0451852,-0.480215,0.0356411,0.0402053,902,1527,-0.0166586,0.858956
-315,-503,-0.335327,-0.642456,-0.00678433,-0.0338118,-0.0225919,0.00602714,-0.0466232,-0.515863,0.0332737,0.0409373,909,1527,-0.335306,0.64245
-308,-503,-0.467773,-0.340332,0,0,0,0,0,0,0,-1,916,1527,-0.467765,0.34029
-301,-503,0,0,0,0,0,0,0,0,0,-1,923,1527,0,0
-294,-503,0,0,0,0,0,0,0,0,0,-1,930,1527,0,0
-287,-503,0,0,0,0,0,0,0,0,0,-1,937,1527,0,0
-280,-503,0,0,0,0,0,0,0,0,0,-1,944,1527,0,0
-273,-503,0,0,0,0,0,0,0,0,0,-1,951,1527,0,0
-266,-503,0,0,0,0,0,0,0,0,0,-1,958,1527,0,0
-259,-503,0,0,0,0,0,0,0,0,0,-1,965,1527,0,0
-252,-503,0,0,0,0,0,0,0,0,0,-1,972,1527,0,0
-245,-503,0,0,0,0,0,0,0,0,0,-1,979,1527,0,0
-238,-503,0,0,0,0,0,0,0,0,0,-1,986,1527,0,0
-231,-503,0,0,0,0,0,0,0,0,0,-1,993,1527,0,0
-224,-503,0,0,0,0,0,0,0,0,0,-1,1000,1527,0,0
-217,-503,0,0,0,0,0,0,0,0,0,-1,1007,1527,0,0
-210,-503,0,0,0,0,0,0,0,0,0,-1,1014,1527,0,0
-203,-503,0,0,0,0,0,0,0,0,0,-1,1021,1527,0,0
-196,-503,0,0,0,0,0,0,0,0,0,-1,1028,1527,0,0
-189,-503,0,0,0,0,0,0,0,0,0,-1,1035,1527,0,0
-182,-503,0,0,0,0,0,0,0,0,0,-1,1042,1527,0,0
-175,-503,0,0,0,0,0,0,0,0,0,-1,1049,1527,0,0
-168,-503,0,0,0,0,0,0,0,0,0,-1,1056,1527,0,0
-161,-503,0,0,0,0,0,0,0,0,0,-1,1063,1527,0,0
-154,-503,0,0,0,0,0,0,0,0,0,-1,1070,1527,0,0
-147,-503,0,0,0,0,0,0,0,0,0,-1,1077,1527,0,0
-140,-503,0,0,0,0,0,0,0,0,0,-1,1084,1527,0,0
-133,-503,0,0,0,0,0,0,0,0,0,-1,1091,1527,0,0
-126,-503,0,0,0,0,0,0,0,0,0,-1,1098,1527,0,0
-119,-503,0,0,0,0,0,0,0,0,0,-1,1105,1527,0,0
-112,-503,0,0,0,0,0,0,0,0,0,-1,1112,1527,0,0
-105,-503,0,0,0,0,0,0,0,0,0,-1,1119,1527,0,0
-98,-503,0,0,0,0,0,0,0,0,0,-1,1126,1527,0,0
-91,-503,0,0,0,0,0,0,0,0,0,-1,1133,1527,0,0
-84,-503,0,0,0,0,0,0,0,0,0,-1,1140,1527,0,0
-77,-503,0,0,0,0,0,0,0,0,0,-1,1147,1527,0,0
-70,-503,0,0,0,0,0,0,0,0,0,-1,1154,1527,0,0
-63,-503,0,0,0,0,0,0,0,0,0,-1,1161,1527,0,0
-56,-503,0,0,0,0,0,0,0,0,0,-1,1168,1527,0,0
-49,-503,0,0,0,0,0,0,0,0,0,-1,1175,1527,0,0
-42,-503,0,0,0,0,0,0,0,0,0,-1,1182,1527,0,0
-35,-503,0,0,0,0,0,0,0,0,0,-1,1189,1527,0,0
-28,-503,0,0,0,0,0,0,0,0,0,-1,1196,1527,0,0
-21,-503,0,0,0,0,0,0,0,0,0,-1,1203,1527,0,0
-14,-503,0,0,0,0,0,0,0,0,0,-1,1210,1527,0,0
-7,-503,0,0,0,0,0,0,0,0,0,-1,1217,1527,0,0
0,-503,0,0,0,0,0,0,0,0,0,-1,1224,1527,0,0
7,-503,0,0,0,0,0,0,0,0,0,-1,1231,1527,0,0
14,-503,0,0,0,0,0,0,0,0,0,-1,1238,1527,0,0
21,-503,0,0,0,0,0,0,0,0,0,-1,1245,1527,0,0
28,-503,0,0,0,0,0,0,0,0,0,-1,1252,1527,0,0
35,-503,0,0,0,0,0,0,0,0,0,-1,1259,1527,0,0
42,-503,0,0,0,0,0,0,0,0,0,-1,1266,1527,0,0
49,-503,0,0,0,0,0,0,0,0,0,-1,1273,1527,0,0
56,-503,0,0,0,0,0,0,0,0,0,-1,1280,1527,0,0
63,-503,0,0,0,0,0,0,0,0,0,-1,1287,1527,0,0
70,-503,0,0,0,0,0,0,0,0,0,-1,1294,1527,0,0
77,-503,0,0,0,0,0,0,0,0,0,-1,1301,1527,0,0
84,-503,0,0,0,0,0,0,0,0,0,-1,1308,1527,0,0
91,-503,0,0,0,0,0,0,0,0,0,-1,1315,1527,0,0
98,-503,0,0,0,0,0,0,0,0,0,-1,1322,1527,0,0
105,-503,0,0,0,0,0,0,0,0,0,-1,1329,1527,0,0
112,-503,0,0,0,0,0,0,0,0,0,-1,1336,1527,0,0
119,-503,0,0,0,0,0,0,0,0,0,-1,1343,1527,0,0
126,-503,0,0,0,0,0,0,0,0,0,-1,1350,1527,0,0
133,-503,0,0,0,0,0,0,0,0,0,-1,1357,1527,0,0
140,-503,0,0,0,0,0,0,0,0,0,-1,1364,1527,0,0
147,-503,0,0,0,0,0,0,0,0,0,-1,1371,1527,0,0
154,-503,0,0,0,0,0,0,0,0,0,-1,1378,1527,0,0
161,-503,0,0,0,0,0,0,0,0,0,-1,1385,1527,0,0
168,-503,0,0,0,0,0,0,0,0,0,-1,1392,1527,0,0
175,-503,0,0,0,0,0,0,0,0,0,-1,1399,1527,0,0
182,-503,0,0,0,0,0,0,0,0,0,-1,1406,1527,0,0
189,-503,0,0,0,0,0,0,0,0,0,-1,1413,1527,0,0
196,-503,0,0,0,0,0,0,0,0,0,-1,1420,1527,0,0
203,-503,0,0,0,0,0,0,0,0,0,-1,1427,1527,0,0
210,-503,0,0,0,0,0,0,0,0,0,-1,1434,1527,0,0
217,-503,0,0,0,0,0,0,0,0,0,-1,1441,1527,0,0
224,-503,0,0,0,0,0,0,0,0,0,-1,1448,1527,0,0
231,-503,0,0,0,0,0,0,0,0,0,-1,1455,1527,0,0
238,-503,0,0,0,0,0,0,0,0,0,-1,1462,1527,0,0
245,-503,0,0,0,0,0,0,0,0,0,-1,1469,1527,0,0
252,-503,0,0,0,0,0,0,0,0,0,-1,1476,1527,0,0
259,-503,0,0,0,0,0,0,0,0,0,-1,1483,1527,0,0
266,-503,0,0,0,0,0,0,0,0,0,-1,1490,1527,0,0
273,-503,0,0,0,0,0,0,0,0,0,-1,1497,1527,0,0
280,-503,0,0,0,0,0,0,0,0,0,-1,1504,1527,0,0
287,-503,0,0,0,0,0,0,0,0,0,-1,1511,1527,0,0
294,-503,0,0,0,0,0,0,0,0,0,-1,1518,1527,0,0
301,-503,0,0,0,0,0,0,0,0,0,-1,1525,1527,0,0
308,-503,0,0,0,0,0,0,0,0,0,-1,1532,1527,0,0
315,-503,0,0,0,0,0,0,0,0,0,-1,1539,1527,0,0
322,-503,0,0,0,0,0,0,0,0,0,-1,1546,1527,0,0
329,-503,0,0,0,0,0,0,0,0,0,-1,1553,1527,0,0
336,-503,0,0,0,0,0,0,0,0,0,-1,1560,1527,0,0
343,-503,0,0,0,0,0,0,0,0,0,-1,1567,1527,0,0
350,-503,0,0,0,0,0,0,0,0,0,-1,1574,1527,0,0
357,-503,0,0,0,0,0,0,0,0,0,-1,1581,1527,0,0
364,-503,0,0,0,0,0,0,0,0,0,-1,1588,1527,0,0
371,-503,0,0,0,0,0,0,0,0,0,-1,1595,1527,0,0
378,-503,0,0,0,0,0,0,0,0,0,-1,1602,1527,0,0
385,-503,0,0,0,0,0,0,0,0,0,-1,1609,1527,0,0
392,-503,0,0,0,0,0,0,0,0,0,-1,1616,1527,0,0
399,-503,0,0,0,0,0,0,0,0,0,-1,1623,1527,0,0
406,-503,0,0,0,0,0,0,0,0,0,-1,1630,1527,0,0
413,-503,0,0,0,0,0,0,0,0,0,-1,1637,1527,0,0
420,-503,0,0,0,0,0,0,0,0,0,-1,1644,1527,0,0
427,-503,0.359619,0.173462,0,0,0,0,0,0,0,-1,1651,1527,0.359641,-0.17351
434,-503,0.268311,0.240356,0,0,0,0,0,0,0,-1,1658,1527,0.26835,-0.240403
441,-503,0.253906,0.046875,0,0,0,0,0,0,0,-1,1665,1527,0.253943,-0.0469096
448,-503,1.39807,0.957886,0,0,0,0,0,0,0,-1,1672,1527,1.39811,-0.957825
455,-503,1.41235,0.978027,-0.0120583,0.00762151,0.00537397,0.00899335,-0.0134301,1.32086,0.0130304,0.046932,1679,1527,1.41232,-0.977991
462,-503,1.1156,1.3551,-0.0130622,0.0120465,0.00505615,0.0130264,-0.0140421,1.37936,0.0156317,0.0440573,1686,1527,1.1156,-1.35506
469,-503,-0.197388,-0.349609,-0.0108335,0.011665,0.00483345,0.0126595,-0.011828,1.36789,0.0141405,0.0452263,1693,1527,-0.197375,0.349616
476,-503,-0.899048,-0.526855,0,0,0,0,0,0,0,-1,1700,1527,-0.899054,0.526906
483,-503,-0.515015,-0.0959473,-0.00641929,0.00842983,0.00371042,0.00930535,-0.00729481,1.33907,0.00960751,0.0442751,1707,1527,-0.515044,0.0959224
490,-503,-0.105957,0.189697,-0.00357248,0.0060693,0.00239582,0.00663181,-0.00413498,1.34019,0.00627168,0.0448859,1714,1527,-0.10596,-0.189728
497,-503,1.09839,2.38501,-0.00151918,0.00358573,0.00107913,0.00380447,-0.00173792,1.3708,0.00327321,0.0434139,1721,1527,1.0984,-2.38504
504,-503,-0.0877686,0.135986,0,0,0,0,0,0,0,-1,1728,1527,-0.0877357,-0.135998
511,-503,0.0313721,0.199097,0.000246675,0.000828244,-0.00118581,0.00175841,-0.000683488,-0.905635,0.00145465,0.0420073,1735,1527,0.0313307,-0.199104
518,-503,0.0635986,0.174194,0.000576127,0.000420425,-0.00172565,0.00222568,-0.00122913,-0.762856,0.00202211,0.0369432,1742,1527,0.0635711,-0.174237
525,-503,-0.0419922,0.0960693,0.000704224,-0.00042231,-0.00206189,0.0022784,-0.00199649,-0.652062,0.0024699,0.0240049,1749,1527,-0.0419824,-0.0960532
532,-503,-0.034668,0.0838623,0.000354458,-0.000887454,-0.00235163,0.00216573,-0.00269873,-0.656318,0.00281411,0.0101901,1756,1527,-0.0347009,-0.0838539
539,-503,-0.0323486,0.0925293,-0.000234555,-0.000903527,-0.00244158,0.00189534,-0.00303343,-0.717324,0.0028708,0.00978492,1763,1527,-0.0323504,-0.0924804
546,-503,-0.0531006,0.0892334,-0.000828294,-0.000512429,-0.00230193,0.00163698,-0.0029777,-0.819649,0.00270151,0.0103078,1770,1527,-0.0531183,-0.0891844
553,-503,-0.0435791,0.0770264,-0.00106421,-0.000570365,-0.00207091,0.0012683,-0.00290287,-0.844735,0.00246909,0.0122132,1777,1527,-0.0436332,-0.0770307
560,-503,-0.0303955,0.0686035,-0.000383938,1.33217e-05,-0.00120925,0.00104015,-0.00141077,-0.8668,0.00142042,0.0113683,1784,1527,-0.0304316,-0.0685952
567,-503,-0.0318604,0.0632324,9.67799e-05,0.000117327,-0.000737441,0.000844565,-0.000630459,-0.792363,0.000854591,0.010845,1791,1527,-0.0318969,-0.0632494
574,-503,-0.0339355,0.0550537,0.000444909,0.000244599,-0.000315285,0.000675565,1.3943e-05,-0.631606,0.000445802,0.0119953,1798,1527,-0.033899,-0.0550912
581,-503,-0.0499268,0.057251,0.000763896,0.000121408,-2.74998e-05,0.000765071,0.000120233,-0.0426979,0.000475069,0.0129425,1805,1527,-0.049987,-0.0573023
588,-503,-0.0614014,0.043335,0.00111063,-0.000106985,0.000243879,0.00115766,-0.000154015,0.190505,0.000827902,0.0155156,1812,1527,-0.0614592,-0.0433186
595,-503,-0.0528564,0.0653076,0.00137069,-0.000295354,0.000569565,0.00154679,-0.000471455,0.299862,0.00121912,0.0117401,1819,1527,-0.0529088,-0.0652636
602,-503,-0.0534668,0.0670166,0.00123876,-0.000832033,0.0010529,0.00168006,-0.00127334,0.39689,0.00171053,0.0117394,1826,1527,-0.0535134,-0.0670395
609,-503,-0.0338135,0.0692139,0.00150102,-0.00240739,0.0016602,0.00211103,-0.0030174,0.352116,0.00297627,0.0135472,1833,1527,-0.0338688,-0.0691992
616,-503,-0.0372314,0.0643311,0.00204947,-0.00439363,0.00265475,0.00300237,-0.00534653,0.34462,0.00488317,0.0160576,1840,1527,-0.0372167,-0.0642755
623,-503,-0.0802002,0.0424805,0.00255231,-0.00654047,0.00348018,0.00373142,-0.00771958,0.326668,0.00674357,0.0290345,1847,1527,-0.0801425,-0.0425223
630,-503,-0.105835,0.0357666,0.00311927,-0.00954764,0.00477199,0.00471579,-0.0111442,0.322855,0.00940413,0.0381464,1854,1527,-0.105834,-0.0357201
637,-503,0.00500488,0.150635,0.00389907,-0.0134,0.00632364,0.00596414,-0.0154651,0.315646,0.0127711,0.0417142,1861,1527,0.0050523,-0.150574
644,-503,0.194214,0.65564,0.00507605,-0.0184229,0.0081886,0.00764801,-0.0209949,0.304332,0.017125,0.04197,1868,1527,0.194219,-0.655613
651,-503,0.0821533,1.39807,0.00668137,-0.0246666,0.010181,0.00969769,-0.0276829,0.28803,0.0223989,0.0421336,1875,1527,0.0821542,-1.39802
658,-503,0.214111,2.09045,0.00890722,-0.0321486,0.0121704,0.0122438,-0.0354852,0.267581,0.0286247,0.0421501,1882,1527,0.214088,-2.09047
665,-503,0,0,0,0,0,0,0,0,0,-1,1889,1527,0,0
672,-503,0,0,0,0,0,0,0,0,0,-1,1896,1527,0,0
679,-503,0,0,0,0,0,0,0,0,0,-1,1903,1527,0,0
686,-503,0,0,0,0,0,0,0,0,0,-1,1910,1527,0,0
693,-503,0,0,0,0,0,0,0,0,0,-1,1917,1527,0,0
700,-503,0,0,0,0,0,0,0,0,0,-1,1924,1527,0,0
707,-503,0,0,0,0,0,0,0,0,0,-1,1931,1527,0,0
714,-503,0,0,0,0,0,0,0,0,0,-1,1938,1527,0,0
721,-503,0,0,0,0,0,0,0,0,0,-1,1945,1527,0,0
728,-503,0,0,0,0,0,0,0,0,0,-1,1952,1527,0,0
735,-503,0,0,0,0,0,0,0,0,0,-1,1959,1527,0,0
742,-503,0,0,0,0,0,0,0,0,0,-1,1966,1527,0,0
749,-503,0,0,0,0,0,0,0,0,0,-1,1973,1527,0,0
756,-503,0,0,0,0,0,0,0,0,0,-1,1980,1527,0,0
763,-503,0,0,0,0,0,0,0,0,0,-1,1987,1527,0,0
770,-503,0,0,0,0,0,0,0,0,0,-1,1994,1527,0,0
777,-503,0,0,0,0,0,0,0,0,0,-1,2001,1527,0,0
784,-503,0,0,0,0,0,0,0,0,0,-1,2008,1527,0,0
791,-503,0,0,0,0,0,0,0,0,0,-1,2015,1527,0,0
798,-503,0,0,0,0,0,0,0,0,0,-1,2022,1527,0,0
805,-503,0,0,0,0,0,0,0,0,0,-1,2029,1527,0,0
812,-503,0,0,0,0,0,0,0,0,0,-1,2036,1527,0,0
-700,-510,0,0,0,0,0,0,0,0,0,-1,524,1534,0,0
-693,-510,0,0,0,0,0,0,0,0,0,-1,531,1534,0,0
-686,-510,0,0,0,0,0,0,0,0,0,-1,538,1534,0,0
-679,-510,0,0,0,0,0,0,0,0,0,-1,545,1534,0,0
-672,-510,0,0,0,0,0,0,0,0,0,-1,552,1534,0,0
-665,-510,0,0,0,0,0,0,0,0,0,-1,559,1534,0,0
-658,-510,0,0,0,0,0,0,0,0,0,-1,566,1534,0,0
-651,-510,0,0,0,0,0,0,0,0,0,-1,573,1534,0,0
-644,-510,0,0,0,0,0,0,0,0,0,-1,580,1534,0,0
-637,-510,0,0,0,0,0,0,0,0,0,-1,587,1534,0,0
-630,-510,0,0,0,0,0,0,0,0,0,-1,594,1534,0,0
-623,-510,0,0,0,0,0,0,0,0,0,-1,601,1534,0,0
-616,-510,0,0,0,0,0,0,0,0,0,-1,608,1534,0,0
-609,-510,0,0,0,0,0,0,0,0,0,-1,615,1534,0,0
-602,-510,0,0,0,0,0,0,0,0,0,-1,622,1534,0,0
-595,-510,0,0,0,0,0,0,0,0,0,-1,629,1534,0,0
-588,-510,0,0,0,0,0,0,0,0,0,-1,636,1534,0,0
-581,-510,0,0,0,0,0,0,0,0,0,-1,643,1534,0,0
-574,-510,0,0,0,0,0,0,0,0,0,-1,650,1534,0,0
-567,-510,0,0,0,0,0,0,0,0,0,-1,657,1534,0,0
-560,-510,0,0,0,0,0,0,0,0,0,-1,664,1534,0,0
-553,-510,0,0,0,0,0,0,0,0,0,-1,671,1534,0,0
-546,-510,0,0,0,0,0,0,0,0,0,-1,678,1534,0,0
-539,-510,0,0,0,0,0,0,0,0,0,-1,685,1534,0,0
-532,-510,0.211121,-0.61145,0,0,0,0,0,0,0,-1,692,1534,0.211151,0.611441
-525,-510,0.584167,-0.394653,0,0,0,0,0,0,0,-1,699,1534,0.584174,0.394598
-518,-510,0.579285,-0.311768,0,0,0,0,0,0,0,-1,706,1534,0.579257,0.311778
-511,-510,1.27808,-1.12195,0,0,0,0,0,0,0,-1,713,1534,1.27808,1.12199
-504,-510,0.662109,0.244385,-0.0285243,-0.00364615,0.0129482,0.00186987,-0.0340404,1.16807,0.0233418,0.0434285,720,1534,0.662079,-0.2444
-497,-510,0.345886,0.0117188,-0.0236741,-0.003558,0.0106087,0.00100276,-0.0282349,1.16478,0.0191662,0.0419419,727,1534,0.345891,-0.0117596
-490,-510,0.0438843,-0.142334,-0.0186872,-0.00384608,0.00814265,-0.000249962,-0.0222834,1.15492,0.014773,0.0417491,734,1534,0.0438836,0.142319
-483,-510,-0.0120239,-0.019043,-0.0141654,-0.00366098,0.0059524,-0.000974888,-0.0168515,1.14689,0.0109239,0.0408697,741,1534,-0.0120204,0.0190874
-476,-510,-0.0160522,0.0257568,-0.0103071,-0.00291786,0.00408485,-0.00110465,-0.0121203,1.15304,0.00773832,0.0238291,748,1534,-0.0160302,-0.0257406
-469,-510,-0.0368042,0.0477295,-0.00739101,-0.00199808,0.0026213,-0.000933945,-0.00845515,1.18516,0.00535268,0.00925597,755,1534,-0.0368054,-0.0477052
-462,-510,-0.0362549,0.0612793,-0.00497649,-0.00165112,0.00160651,-0.00100179,-0.00562581,1.18669,0.00346522,0.0101215,762,1534,-0.0362505,-0.0612676
-455,-510,-0.0375366,0.0776367,-0.00324146,-0.00129413,0.000978096,-0.000887689,-0.0036479,1.17696,0.00219666,0.0116174,769,1534,-0.0375343,-0.0776853
-448,-510,-0.0272217,0.0895996,-0.00193072,-0.000267854,0.000449633,-0.000154061,-0.00204451,1.32292,0.00131466,0.0114219,776,1534,-0.0272372,-0.0895869
-441,-510,-0.0307617,0.0794678,-0.00108166,0.000201639,0.000216387,0.000237144,-0.00111716,1.40817,0.000835124,0.0123095,783,1534,-0.030763,-0.0794913
-434,-510,-0.0568237,0.0582275,-0.000819799,0.000805536,7.82116e-05,0.000809291,-0.000823554,1.52282,0.000942736,0.0135686,790,1534,-0.0568292,-0.058268
-427,-510,-0.0595093,0.0552979,-0.00124162,0.00161172,6.48422e-05,0.00161319,-0.00124309,1.54809,0.00165368,0.0210433,797,1534,-0.0594853,-0.0552899
-420,-510,-0.0408325,0.0480957,-0.00197056,0.00236356,0.000369282,0.00239479,-0.0020018,1.4864,0.00254175,0.0212703,804,1534,-0.0408429,-0.0480809
-413,-510,-0.0317383,0.0479736,-0.00253876,0.00312987,0.000672785,0.00320863,-0.00261752,1.45427,0.00336949,0.0110361,811,1534,-0.0317239,-0.0479368
-406,-510,-0.0309448,0.0540771,-0.00265992,0.0044934,0.000897301,0.00460424,-0.00277075,1.44789,0.00430159,0.00964063,818,1534,-0.0309309,-0.0540362
-399,-510,-0.0380249,0.0476074,-0.00134775,0.0078044,-0.000900105,0.00789208,-0.00143544,-1.47369,0.00579939,0.00999169,825,1534,-0.0380032,-0.0476335
-392,-510,-0.0376587,0.0516357,0.000309675,0.00910863,-0.00217405,0.00961649,-0.000198179,-1.34131,0.00647806,0.0126576,832,1534,-0.0376332,-0.0516273
-385,-510,-0.0395508,0.0535889,0.00230882,0.00944333,-0.00375815,0.0110577,0.000694477,-1.16507,0.00715154,0.0176745,839,1534,-0.0395784,-0.0535639
-378,-510,-0.0792847,0.0870361,0.00443483,0.00859513,-0.00569907,0.0125818,0.000448144,-0.960385,0.00824255,0.0284372,846,1534,-0.0792948,-0.0870104
-371,-510,-0.0228882,-0.00500488,0.00652204,0.00758398,-0.00826402,0.0153341,-0.00122805,-0.817479,0.0106557,0.0388361,853,1534,-0.0228774,0.00503095
-364,-510,0.294922,-0.232422,0,0,0,0,0,0,0,-1,860,1534,0.294935,0.232473
-357,-510,-0.593933,0.454224,0.0086729,0.00219693,-0.0124216,0.0182716,-0.0074018,-0.657899,0.015259,0.0462005,867,1534,-0.593947,-0.454219
-350,-510,-0.366638,-0.0236816,0.00931454,-0.00173224,-0.0148695,0.0196533,-0.012071,-0.607567,0.0184896,0.0397738,874,1534,-0.366665,0.0237063
-343,-510,-0.426086,0.509277,0.00887477,-0.00728999,-0.0168015,0.0194369,-0.0178521,-0.561212,0.0215353,0.040885,881,1534,-0.426083,-0.50925
-336,-510,-0.174316,0.258545,0.00664586,-0.0134658,-0.0179298,0.0171472,-0.0239671,-0.529832,0.023846,0.0445239,888,1534,-0.174286,-0.258487
-329,-510,-0.0805054,0.166992,0,0,0,0,0,0,0,-1,895,1534,-0.0804767,-0.167032
-322,-510,0.270447,-0.690674,-0.00455634,-0.0217071,-0.0168203,0.00574844,-0.0320119,-0.549661,0.023493,0.0437797,902,1534,0.270458,0.690639
-315,-510,-0.108398,-0.471558,-0.0118186,-0.0221098,-0.0152223,-0.000895783,-0.0330326,-0.622411,0.0217293,0.0438988,909,1534,-0.108416,0.471504
-308,-510,-0.542908,-0.268066,0,0,0,0,0,0,0,-1,916,1534,-0.542929,0.268086
-301,-510,0.223694,0.612427,0,0,0,0,0,0,0,-1,923,1534,0.223708,-0.612371
-294,-510,0,0,0,0,0,0,0,0,0,-1,930,1534,0,0
-287,-510,0,0,0,0,0,0,0,0,0,-1,937,1534,0,0
-280,-510,0,0,0,0,0,0,0,0,0,-1,944,1534,0,0
-273,-510,0,0,0,0,0,0,0,0,0,-1,951,1534,0,0
-266,-510,0,0,0,0,0,0,0,0,0,-1,958,1534,0,0
-259,-510,0,0,0,0,0,0,0,0,0,-1,965,1534,0,0
-252,-510,0,0,0,0,0,0,0,0,0,-1,972,1534,0,0
-245,-510,0,0,0,0,0,0,0,0,0,-1,979,1534,0,0
-238,-510,0,0,0,0,0,0,0,0,0,-1,986,1534,0,0
-231,-510,0,0,0,0,0,0,0,0,0,-1,993,1534,0,0
-224,-510,0,0,0,0,0,0,0,0,0,-1,1000,1534,0,0
-217,-510,0,0,0,0,0,0,0,0,0,-1,1007,1534,0,0
-210,-510,0,0,0,0,0,0,0,0,0,-1,1014,1534,0,0
-203,-510,0,0,0,0,0,0,0,0,0,-1,1021,1534,0,0
-196,-510,0,0,0,0,0,0,0,0,0,-1,1028,1534,0,0
-189,-510,0,0,0,0,0,0,0,0,0,-1,1035,1534,0,0
-182,-510,0,0,0,0,0,0,0,0,0,-1,1042,1534,0,0
-175,-510,0,0,0,0,0,0,0,0,0,-1,1049,1534,0,0
-168,-510,0,0,0,0,0,0,0,0,0,-1,1056,1534,0,0
-161,-510,0,0,0,0,0,0,0,0,0,-1,1063,1534,0,0
-154,-510,0,0,0,0,0,0,0,0,0,-1,1070,1534,0,0
-147,-510,0,0,0,0,0,0,0,0,0,-1,1077,1534,0,0
-140,-510,0,0,0,0,0,0,0,0,0,-1,1084,1534,0,0
-133,-510,0,0,0,0,0,0,0,0,0,-1,1091,1534,0,0
-126,-510,0,0,0,0,0,0,0,0,0,-1,1098,1534,0,0
-119,-510,0,0,0,0,0,0,0,0,0,-1,1105,1534,0,0
-112,-510,0,0,0,0,0,0,0,0,0,-1,1112,1534,0,0
-105,-510,0,0,0,0,0,0,0,0,0,-1,1119,1534,0,0
-98,-510,0,0,0,0,0,0,0,0,0,-1,1126,1534,0,0
-91,-510,0,0,0,0,0,0,0,0,0,-1,1133,1534,0,0
-84,-510,0,0,0,0,0,0,0,0,0,-1,1140,1534,0,0
-77,-510,0,0,0,0,0,0,0,0,0,-1,1147,1534,0,0
-70,-510,0,0,0,0,0,0,0,0,0,-1,1154,1534,0,0
-63,-510,0,0,0,0,0,0,0,0,0,-1,1161,1534,0,0
-56,-510,0,0,0,0,0,0,0,0,0,-1,1168,1534,0,0
-49,-510,0,0,0,0,0,0,0,0,0,-1,1175,1534,0,0
-42,-510,0,0,0,0,0,0,0,0,0,-1,1182,1534,0,0
-35,-510,0,0,0,0,0,0,0,0,0,-1,1189,1534,0,0
-28,-510,0,0,0,0,0,0,0,0,0,-1,1196,1534,0,0
-21,-510,0,0,0,0,0,0,0,0,0,-1,1203,1534,0,0
-14,-510,0,0,0,0,0,0,0,0,0,-1,1210,1534,0,0
-7,-510,0,0,0,0,0,0,0,0,0,-1,1217,1534,0,0
0,-510,0,0,0,0,0,0,0,0,0,-1,1224,1534,0,0
7,-510,0,0,0,0,0,0,0,0,0,-1,1231,1534,0,0
14,-510,0,0,0,0,0,0,0,0,0,-1,1238,1534,0,0
21,-510,0,0,0,0,0,0,0,0,0,-1,1245,1534,0,0
28,-510,0,0,0,0,0,0,0,0,0,-1,1252,1534,0,0
35,-510,0,0,0,0,0,0,0,0,0,-1,1259,1534,0,0
42,-510,0,0,0,0,0,0,0,0,0,-1,1266,1534,0,0
49,-510,0,0,0,0,0,0,0,0,0,-1,1273,1534,0,0
56,-510,0,0,0,0,0,0,0,0,0,-1,1280,1534,0,0
63,-510,0,0,0,0,0,0,0,0,0,-1,1287,1534,0,0
70,-510,0,0,0,0,0,0,0,0,0,-1,1294,1534,0,0
77,-510,0,0,0,0,0,0,0,0,0,-1,1301,1534,0,0
84,-510,0,0,0,0,0,0,0,0,0,-1,1308,1534,0,0
91,-510,0,0,0,0,0,0,0,0,0,-1,1315,1534,0,0
98,-510,0,0,0,0,0,0,0,0,0,-1,1322,1534,0,0
105,-510,0,0,0,0,0,0,0,0,0,-1,1329,1534,0,0
112,-510,0,0,0,0,0,0,0,0,0,-1,1336,1534,0,0
119,-510,0,0,0,0,0,0,0,0,0,-1,1343,1534,0,0
126,-510,0,0,0,0,0,0,0,0,0,-1,1350,1534,0,0
133,-510,0,0,0,0,0,0,0,0,0,-1,1357,1534,0,0
140,-510,0,0,0,0,0,0,0,0,0,-1,1364,1534,0,0
147,-510,0,0,0,0,0,0,0,0,0,-1,1371,1534,0,0
154,-510,0,0,0,0,0,0,0,0,0,-1,1378,1534,0,0
161,-510,0,0,0,0,0,0,0,0,0,-1,1385,1534,0,0
168,-510,0,0,0,0,0,0,0,0,0,-1,1392,1534,0,0
175,-510,0,0,0,0,0,0,0,0,0,-1,1399,1534,0,0
182,-510,0,0,0,0,0,0,0,0,0,-1,1406,1534,0,0
189,-510,0,0,0,0,0,0,0,0,0,-1,1413,1534,0,0
196,-510,0,0,0,0,0,0,0,0,0,-1,1420,1534,0,0
203,-510,0,0,0,0,0,0,0,0,0,-1,1427,1534,0,0
210,-510,0,0,0,0,0,0,0,0,0,-1,1434,1534,0,0
217,-510,0,0,0,0,0,0,0,0,0,-1,1441,1534,0,0
224,-510,0,0,0,0,0,0,0,0,0,-1,1448,1534,0,0
231,-510,0,0,0,0,0,0,0,0,0,-1,1455,1534,0,0
238,-510,0,0,0,0,0,0,0,0,0,-1,1462,1534,0,0
245,-510,0,0,0,0,0,0,0,0,0,-1,1469,1534,0,0
252,-510,0,0,0,0,0,0,0,0,0,-1,1476,1534,0,0
259,-510,0,0,0,0,0,0,0,0,0,-1,1483,1534,0,0
266,-510,0,0,0,0,0,0,0,0,0,-1,1490,1534,0,0
273,-510,0,0,0,0,0,0,0,0,0,-1,1497,1534,0,0
280,-510,0,0,0,0,0,0,0,0,0,-1,1504,1534,0,0
287,-510,0,0,0,0,0,0,0,0,0,-1,1511,1534,0,0
294,-510,0,0,0,0,0,0,0,0,0,-1,1518,1534,0,0
301,-510,0,0,0,0,0,0,0,0,0,-1,1525,1534,0,0
308,-510,0,0,0,0,0,0,0,0,0,-1,1532,1534,0,0
315,-510,0,0,0,0,0,0,0,0,0,-1,1539,1534,0,0
322,-510,0,0,0,0,0,0,0,0,0,-1,1546,1534,0,0
329,-510,0,0,0,0,0,0,0,0,0,-1,1553,1534,0,0
336,-510,0,0,0,0,0,0,0,0,0,-1,1560,1534,0,0
343,-510,0,0,0,0,0,0,0,0,0,-1,1567,1534,0,0
350,-510,0,0,0,0,0,0,0,0,0,-1,1574,1534,0,0
357,-510,0,0,0,0,0,0,0,0,0,-1,1581,1534,0,0
364,-510,0,0,0,0,0,0,0,0,0,-1,1588,1534,0,0
371,-510,0,0,0,0,0,0,0,0,0,-1,1595,1534,0,0
378,-510,0,0,0,0,0,0,0,0,0,-1,1602,1534,0,0
385,-510,0,0,0,0,0,0,0,0,0,-1,1609,1534,0,0
392,-510,0,0,0,0,0,0,0,0,0,-1,1616,1534,0,0
399,-510,0,0,0,0,0,0,0,0,0,-1,1623,1534,0,0
406,-510,0,0,0,0,0,0,0,0,0,-1,1630,1534,0,0
413,-510,0,0,0,0,0,0,0,0,0,-1,1637,1534,0,0
420,-510,0.717529,1.00244,0,0,0,0,0,0,0,-1,1644,1534,0.717539,-1.00243
427,-510,0.433472,0.737915,0,0,0,0,0,0,0,-1,1651,1534,0.43343,-0.737948
434,-510,-4.52124,1.40991,0,0,0,0,0,0,0,-1,1658,1534,-4.52124,-1.40988
441,-510,-4.77966,1.97754,0,0,0,0,0,0,0,-1,1665,1534,-4.77966,-1.9775
448,-510,1.44666,1.21851,0,0,0,0,0,0,0,-1,1672,1534,1.44662,-1.21853
455,-510,1.29785,1.04004,-0.00835559,0.0118084,0.00554144,0.0132309,-0.00977813,1.31951,0.013334,0.0488285,1679,1534,1.29785,-1.04006
462,-510,1.17358,0.96875,-0.00953111,0.0155509,0.00499497,0.0165091,-0.0104892,1.38128,0.0157161,0.044921,1686,1534,1.17364,-0.968792
469,-510,0.795044,0.965576,0,0,0,0,0,0,0,-1,1693,1534,0.794993,-0.965604
476,-510,0.168823,0.182861,0,0,0,0,0,0,0,-1,1700,1534,0.168869,-0.182803
483,-510,0.00549316,0.0802002,0,0,0,0,0,0,0,-1,1707,1534,0.00549789,-0.0801568
490,-510,-0.0428467,0.0255127,-0.00339297,0.00892946,0.00247309,0.00940728,-0.00387078,1.37994,0.0078851,0.0490998,1714,1534,-0.0428547,-0.0254614
497,-510,-0.140625,-0.0773926,-0.00151037,0.00616497,0.00145834,0.00643272,-0.00177813,1.38922,0.00498798,0.0424697,1721,1534,-0.140632,0.0773601
504,-510,-0.125977,-0.122925,-0.000306663,0.00427493,0.000487074,0.00432614,-0.000357872,1.46605,0.00301049,0.0406891,1728,1534,-0.126001,0.122905
511,-510,-0.0622559,-0.0450439,0.000303304,0.00287772,-0.00041197,0.00294204,0.000238986,-1.41592,0.00188675,0.0352761,1735,1534,-0.0622941,0.0450189
518,-510,-0.0198975,0.064209,0.000657928,0.00217707,-0.000888249,0.00258623,0.000248767,-1.13913,0.0016475,0.0260558,1742,1534,-0.0199268,-0.064244
525,-510,-0.0418701,0.0734863,0.000783812,0.00104569,-0.00118269,0.00210467,-0.000275161,-0.840531,0.00150325,0.0129315,1749,1534,-0.0419133,-0.0734526
532,-510,-0.0301514,0.0705566,0.000372004,0.000340107,-0.00152605,0.00188219,-0.00117008,-0.780173,0.00177814,0.00992496,1756,1534,-0.0301284,-0.0705676
539,-510,-0.0430908,0.0671387,-0.000257736,0.000107391,-0.00173865,0.00167304,-0.00182338,-0.837708,0.00201928,0.0105848,1763,1534,-0.0430804,-0.0671553
546,-510,-0.0615234,0.0792236,-0.000810691,0.000281714,-0.00171101,0.00153159,-0.00206056,-0.9399,0.00208141,0.0108368,1770,1534,-0.0615713,-0.0791894
553,-510,-0.0629883,0.065918,-0.0009966,2.31889e-05,-0.00162263,0.00121415,-0.00218756,-0.937633,0.0019906,0.0120907,1777,1534,-0.0630333,-0.065885
560,-510,-0.0638428,0.0390625,-0.000270427,0.000520093,-0.000973971,0.00117595,-0.000926285,-0.978156,0.00121658,0.0115667,1784,1534,-0.0638142,-0.0391083
567,-510,-0.0571289,0.0380859,0.000283907,0.000588542,-0.000631522,0.00108586,-0.000213406,-0.903734,0.00080453,0.0106519,1791,1534,-0.0571403,-0.0380706
574,-510,-0.0650635,0.0540771,0.00066505,0.000728626,-0.000311688,0.00101014,0.000383533,-0.836216,0.000588808,0.0118211,1798,1534,-0.0650213,-0.054035
581,-510,-0.0689697,0.06604,0.00101915,0.000658981,-0.000115059,0.00105277,0.000625362,-0.284275,0.000611386,0.0111397,1805,1534,-0.0690103,-0.0660907
588,-510,-0.0618896,0.0700684,0.00148091,0.000495292,0.000113204,0.00149375,0.000482457,0.112897,0.000880245,0.0124265,1812,1534,-0.0618627,-0.0700078
595,-510,-0.0384521,0.0633545,0.00189297,0.000390834,0.000458696,0.00202196,0.000261842,0.274134,0.00126973,0.0115412,1819,1534,-0.0384414,-0.0633205
602,-510,-0.0394287,0.0562744,0.00186727,-0.000105929,0.000999245,0.0022849,-0.000523562,0.395883,0.00172449,0.0136217,1826,1534,-0.0394709,-0.056257
609,-510,-0.0330811,0.0679932,0.00219752,-0.00170176,0.00167437,0.00281783,-0.00232207,0.354793,0.00297212,0.0216295,1833,1534,-0.0330685,-0.0679405
616,-510,-0.0474854,0.0445557,0.00273088,-0.00370921,0.00280613,0.00378202,-0.00476035,0.35841,0.00494271,0.0331642,1840,1534,-0.0474359,-0.0445502
623,-510,-0.098999,0.00915527,0.0031498,-0.00599276,0.00386401,0.0045641,-0.00740706,0.350874,0.00697622,0.0353535,1847,1534,-0.0989554,-0.0091404
630,-510,-0.261719,-0.342651,0,0,0,0,0,0,0,-1,1854,1534,-0.261762,0.34265
637,-510,-0.0621338,0.201294,0.00423303,-0.0136421,0.0075106,0.00696976,-0.0163788,0.34943,0.0138404,0.04336,1861,1534,-0.0621287,-0.201239
644,-510,0.134399,0.733765,0.00523911,-0.0194018,0.00999168,0.00878142,-0.0229441,0.340701,0.0189153,0.0447789,1868,1534,0.13446,-0.73371
651,-510,-0.241821,1.20166,0.00667615,-0.0266439,0.0127079,0.0109696,-0.0309373,0.325814,0.0250938,0.0402087,1875,1534,-0.241838,-1.20161
658,-510,0,0,0,0,0,0,0,0,0,-1,1882,1534,0,0
665,-510,0,0,0,0,0,0,0,0,0,-1,1889,1534,0,0
672,-510,0,0,0,0,0,0,0,0,0,-1,1896,1534,0,0
679,-510,0,0,0,0,0,0,0,0,0,-1,1903,1534,0,0
686,-510,0,0,0,0,0,0,0,0,0,-1,1910,1534,0,0
693,-510,0,0,0,0,0,0,0,0,0,-1,1917,1534,0,0
700,-510,0,0,0,0,0,0,0,0,0,-1,1924,1534,0,0
707,-510,0,0,0,0,0,0,0,0,0,-1,1931,1534,0,0
714,-510,0,0,0,0,0,0,0,0,0,-1,1938,1534,0,0
721,-510,0,0,0,0,0,0,0,0,0,-1,1945,1534,0,0
728,-510,0,0,0,0,0,0,0,0,0,-1,1952,1534,0,0
735,-510,0,0,0,0,0,0,0,0,0,-1,1959,1534,0,0
742,-510,0,0,0,0,0,0,0,0,0,-1,1966,1534,0,0
749,-510,0,0,0,0,0,0,0,0,0,-1,1973,1534,0,0
756,-510,0,0,0,0,0,0,0,0,0,-1,1980,1534,0,0
763,-510,0,0,0,0,0,0,0,0,0,-1,1987,1534,0,0
770,-510,0,0,0,0,0,0,0,0,0,-1,1994,1534,0,0
777,-510,0,0,0,0,0,0,0,0,0,-1,2001,1534,0,0
784,-510,0,0,0,0,0,0,0,0,0,-1,2008,1534,0,0
791,-510,0,0,0,0,0,0,0,0,0,-1,2015,1534,0,0
798,-510,0,0,0,0,0,0,0,0,0,-1,2022,1534,0,0
805,-510,0,0,0,0,0,0,0,0,0,-1,2029,1534,0,0
812,-510,0,0,0,0,0,0,0,0,0,-1,2036,1534,0,0
-700,-517,0,0,0,0,0,0,0,0,0,-1,524,1541,0,0
-693,-517,0,0,0,0,0,0,0,0,0,-1,531,1541,0,0
-686,-517,0,0,0,0,0,0,0,0,0,-1,538,1541,0,0
-679,-517,0,0,0,0,0,0,0,0,0,-1,545,1541,0,0
-672,-517,0,0,0,0,0,0,0,0,0,-1,552,1541,0,0
-665,-517,0,0,0,0,0,0,0,0,0,-1,559,1541,0,0
-658,-517,0,0,0,0,0,0,0,0,0,-1,566,1541,0,0
-651,-517,0,0,0,0,0,0,0,0,0,-1,573,1541,0,0
-644,-517,0,0,0,0,0,0,0,0,0,-1,580,1541,0,0
-637,-517,0,0,0,0,0,0,0,0,0,-1,587,1541,0,0
-630,-517,0,0,0,0,0,0,0,0,0,-1,594,1541,0,0
-623,-517,0,0,0,0,0,0,0,0,0,-1,601,1541,0,0
-616,-517,0,0,0,0,0,0,0,0,0,-1,608,1541,0,0
-609,-517,0,0,0,0,0,0,0,0,0,-1,615,1541,0,0
-602,-517,0,0,0,0,0,0,0,0,0,-1,622,1541,0,0
-595,-517,0,0,0,0,0,0,0,0,0,-1,629,1541,0,0
-588,-517,0,0,0,0,0,0,0,0,0,-1,636,1541,0,0
-581,-517,0,0,0,0,0,0,0,0,0,-1,643,1541,0,0
-574,-517,0,0,0,0,0,0,0,0,0,-1,650,1541,0,0
-567,-517,0,0,0,0,0,0,0,0,0,-1,657,1541,0,0
-560,-517,0,0,0,0,0,0,0,0,0,-1,664,1541,0,0
-553,-517,0,0,0,0,0,0,0,0,0,-1,671,1541,0,0
-546,-517,0,0,0,0,0,0,0,0,0,-1,678,1541,0,0
-539,-517,0,0,0,0,0,0,0,0,0,-1,685,1541,0,0
-532,-517,0,0,0,0,0,0,0,0,0,-1,692,1541,0,0
-525,-517,2.62103,-3.71436,0,0,0,0,0,0,0,-1,699,1541,2.62102,3.71436
-518,-517,2.48615,-2.58826,-0.0483338,0.00107037,0.0250261,0.0115322,-0.0587956,1.17484,0.043553,0.0461299,706,1541,2.48612,2.58823
-511,-517,1.95477,-1.70911,-0.0434108,-0.000434134,0.0215737,0.00852706,-0.0523719,1.17711,0.0380766,0.047595,713,1541,1.95477,1.70913
-504,-517,2.0567,-1.34558,0,0,0,0,0,0,0,-1,720,1541,2.05673,1.34555
-497,-517,0.551331,0.0411377,-0.0306952,-0.00126317,0.014193,0.00446592,-0.0364243,1.18714,0.0259002,0.0425151,727,1541,0.551351,-0.0411883
-490,-517,0.0244751,-0.0457764,-0.0240087,-0.00126954,0.0106616,0.00294733,-0.0282256,1.19416,0.0198725,0.0413211,734,1541,0.0244724,0.0458283
-483,-517,-0.344238,0.0998535,-0.0181263,-0.00080921,0.00767237,0.00210098,-0.0210365,1.20825,0.0147745,0.0422558,741,1541,-0.344245,-0.0998654
-476,-517,-0.0354004,-0.0303955,-0.0132196,-6.85271e-06,0.00521224,0.00180173,-0.0150282,1.23681,0.0106702,0.0305586,748,1541,-0.0354148,0.0303848
-469,-517,-0.0357056,0.0229492,-0.00948851,0.000835531,0.00329413,0.00179705,-0.01045,1.2868,0.00763651,0.0116404,755,1541,-0.0357349,-0.0229546
-462,-517,-0.0314331,0.0554199,-0.00648206,0.00106151,0.00196676,0.00154349,-0.00696404,1.33047,0.00523362,0.011747,762,1541,-0.0314049,-0.0554624
-455,-517,-0.0344238,0.0793457,-0.00428047,0.00127137,0.00110156,0.00148195,-0.00449105,1.38191,0.00359142,0.011182,769,1541,-0.034441,-0.0793291
-448,-517,-0.0406494,0.0817871,-0.00253286,0.00208948,0.000360215,0.00211739,-0.00256077,1.49349,0.00270497,0.0113353,776,1541,-0.0406713,-0.0818452
-441,-517,-0.057373,0.0690918,-0.00133371,0.00226913,-7.41587e-06,0.00226914,-0.00133373,-1.56874,0.00210336,0.0107053,783,1541,-0.0573854,-0.0691017
-434,-517,-0.0559692,0.0599365,-0.000814629,0.00253491,-0.00019515,0.00254624,-0.000825961,-1.5128,0.00202963,0.0129071,790,1541,-0.0559811,-0.0599411
-427,-517,-0.0576782,0.0617676,-0.000968646,0.00299504,-0.00024962,0.0030107,-0.000984304,-1.50815,0.00240339,0.0125983,797,1541,-0.0576612,-0.0617391
-420,-517,-0.0648804,0.0692139,-0.00148304,0.00304793,8.38194e-05,0.00304948,-0.00148459,1.55231,0.00266921,0.0195854,804,1541,-0.0648594,-0.0691684
-413,-517,-0.0302124,0.0511475,-0.00187379,0.00349002,0.000429627,0.00352421,-0.00190798,1.49137,0.00318222,0.0103373,811,1541,-0.0302422,-0.0511904
-406,-517,-0.039856,0.0484619,-0.00176003,0.00449501,0.000568361,0.00454624,-0.00181126,1.48091,0.00378202,0.00984988,818,1541,-0.0398278,-0.0484118
-399,-517,-0.0448608,0.0479736,-0.000581185,0.00708872,-0.000841612,0.00717999,-0.000672448,-1.46278,0.00502583,0.00944786,825,1541,-0.0448412,-0.0479226
-392,-517,-0.0510254,0.0584717,0.000832392,0.0081936,-0.00183603,0.00862613,0.000399865,-1.33944,0.00562221,0.00960932,832,1541,-0.0510323,-0.0585104
-385,-517,-0.0428467,0.0638428,0.00248685,0.00854421,-0.00302993,0.00979962,0.00123144,-1.17799,0.00616374,0.0111575,839,1541,-0.0428417,-0.0638109
-378,-517,-0.0197144,0.0505371,0.0041207,0.00793349,-0.00442782,0.0108479,0.00120631,-0.988679,0.00686523,0.0187534,846,1541,-0.0197251,-0.0505687
-371,-517,0.0971069,0.019165,0.0055835,0.00719776,-0.00628034,0.0127226,5.86365e-05,-0.849306,0.00846227,0.0334992,853,1541,0.0971243,-0.019196
-364,-517,0.0634766,0.0123291,0.00595955,0.00537148,-0.00760589,0.0132771,-0.00194606,-0.766078,0.00956629,0.0414767,860,1541,0.0634787,-0.0123183
-357,-517,-0.539001,0.587036,0.00627523,0.00284333,-0.0089377,0.0136602,-0.00454166,-0.690557,0.0109396,0.0420796,867,1541,-0.538997,-0.58703
-350,-517,-0.283508,0.254272,0.00604552,-0.000107257,-0.0105581,0.0139663,-0.00802801,-0.643634,0.0128518,0.0412356,874,1541,-0.283501,-0.254332
-343,-517,-0.212341,0.194946,0.00486116,-0.00432173,-0.0117308,0.012867,-0.0123276,-0.598862,0.0145472,0.0427918,881,1541,-0.212355,-0.194904
-336,-517,-0.150208,0.205811,0.00227685,-0.00883813,-0.0123702,0.0102806,-0.0168419,-0.574277,0.0158112,0.0471793,888,1541,-0.150202,-0.205851
-329,-517,-0.143188,0.667969,-0.00212407,-0.0120434,-0.012233,0.00611642,-0.0202839,-0.592807,0.015957,0.0468629,895,1541,-0.143178,-0.668029
-322,-517,-0.178772,1.11829,0,0,0,0,0,0,0,-1,902,1541,-0.178772,-1.11827
-315,-517,-0.118652,-0.36499,-0.0142111,-0.0133629,-0.0102011,-0.0035771,-0.0239968,-0.806173,0.0149489,0.0428318,909,1541,-0.118642,0.364995
-308,-517,-0.452698,-0.0739746,-0.0185911,-0.0125363,-0.00810974,-0.00690731,-0.0242201,-0.964039,0.0144072,0.0418518,916,1541,-0.452714,0.0740332
-301,-517,-0.248474,0.209229,0,0,0,0,0,0,0,-1,923,1541,-0.248453,-0.209241
-294,-517,0.149841,0.715088,0,0,0,0,0,0,0,-1,930,1541,0.149872,-0.715129
-287,-517,0.437866,1.19336,0,0,0,0,0,0,0,-1,937,1541,0.437855,-1.19333
-280,-517,0,0,0,0,0,0,0,0,0,-1,944,1541,0,0
-273,-517,0,0,0,0,0,0,0,0,0,-1,951,1541,0,0
-266,-517,0,0,0,0,0,0,0,0,0,-1,958,1541,0,0
-259,-517,0,0,0,0,0,0,0,0,0,-1,965,1541,0,0
-252,-517,0,0,0,0,0,0,0,0,0,-1,972,1541,0,0
-245,-517,0,0,0,0,0,0,0,0,0,-1,979,1541,0,0
-238,-517,0,0,0,0,0,0,0,0,0,-1,986,1541,0,0
-231,-517,0,0,0,0,0,0,0,0,0,-1,993,1541,0,0
-224,-517,0,0,0,0,0,0,0,0,0,-1,1000,1541,0,0
-217,-517,0,0,0,0,0,0,0,0,0,-1,1007,1541,0,0
-210,-517,0,0,0,0,0,0,0,0,0,-1,1014,1541,0,0
-203,-517,0,0,0,0,0,0,0,0,0,-1,1021,1541,0,0
-196,-517,0,0,0,0,0,0,0,0,0,-1,1028,1541,0,0
-189,-517,0,0,0,0,0,0,0,0,0,-1,1035,1541,0,0
-182,-517,0,0,0,0,0,0,0,0,0,-1,1042,1541,0,0
-175,-517,0,0,0,0,0,0,0,0,0,-1,1049,1541,0,0
-168,-517,0,0,0,0,0,0,0,0,0,-1,1056,1541,0,0
-161,-517,0,0,0,0,0,0,0,0,0,-1,1063,1541,0,0
-154,-517,0,0,0,0,0,0,0,0,0,-1,1070,1541,0,0
-147,-517,0,0,0,0,0,0,0,0,0,-1,1077,1541,0,0
-140,-517,0,0,0,0,0,0,0,0,0,-1,1084,1541,0,0
-133,-517,0,0,0,0,0,0,0,0,0,-1,1091,1541,0,0
-126,-517,0,0,0,0,0,0,0,0,0,-1,1098,1541,0,0
-119,-517,0,0,0,0,0,0,0,0,0,-1,1105,1541,0,0
-112,-517,0,0,0,0,0,0,0,0,0,-1,1112,1541,0,0
-105,-517,0,0,0,0,0,0,0,0,0,-1,1119,1541,0,0
-98,-517,0,0,0,0,0,0,0,0,0,-1,1126,1541,0,0
-91,-517,0,0,0,0,0,0,0,0,0,-1,1133,1541,0,0
-84,-517,0,0,0,0,0,0,0,0,0,-1,1140,1541,0,0
-77,-517,0,0,0,0,0,0,0,0,0,-1,1147,1541,0,0
-70,-517,0,0,0,0,0,0,0,0,0,-1,1154,1541,0,0
-63,-517,0,0,0,0,0,0,0,0,0,-1,1161,1541,0,0
-56,-517,0,0,0,0,0,0,0,0,0,-1,1168,1541,0,0
-49,-517,0,0,0,0,0,0,0,0,0,-1,1175,1541,0,0
-42,-517,0,0,0,0,0,0,0,0,0,-1,1182,1541,0,0
-35,-517,0,0,0,0,0,0,0,0,0,-1,1189,1541,0,0
-28,-517,0,0,0,0,0,0,0,0,0,-1,1196,1541,0,0
-21,-517,0,0,0,0,0,0,0,0,0,-1,1203,1541,0,0
-14,-517,0,0,0,0,0,0,0,0,0,-1,1210,1541,0,0
-7,-517,0,0,0,0,0,0,0,0,0,-1,1217,1541,0,0
0,-517,0,0,0,0,0,0,0,0,0,-1,1224,1541,0,0
7,-517,0,0,0,0,0,0,0,0,0,-1,1231,1541,0,0
14,-517,0,0,0,0,0,0,0,0,0,-1,1238,1541,0,0
21,-517,0,0,0,0,0,0,0,0,0,-1,1245,1541,0,0
28,-517,0,0,0,0,0,0,0,0,0,-1,1252,1541,0,0
35,-517,0,0,0,0,0,0,0,0,0,-1,1259,1541,0,0
42,-517,0,0,0,0,0,0,0,0,0,-1,1266,1541,0,0
49,-517,0,0,0,0,0,0,0,0,0,-1,1273,1541,0,0
56,-517,0,0,0,0,0,0,0,0,0,-1,1280,1541,0,0
63,-517,0,0,0,0,0,0,0,0,0,-1,1287,1541,0,0
70,-517,0,0,0,0,0,0,0,0,0,-1,1294,1541,0,0
77,-517,0,0,0,0,0,0,0,0,0,-1,1301,1541,0,0
84,-517,0,0,0,0,0,0,0,0,0,-1,1308,1541,0,0
91,-517,0,0,0,0,0,0,0,0,0,-1,1315,1541,0,0
98,-517,0,0,0,0,0,0,0,0,0,-1,1322,1541,0,0
105,-517,0,0,0,0,0,0,0,0,0,-1,1329,1541,0,0
112,-517,0,0,0,0,0,0,0,0,0,-1,1336,1541,0,0
119,-517,0,0,0,0,0,0,0,0,0,-1,1343,1541,0,0
126,-517,0,0,0,0,0,0,0,0,0,-1,1350,1541,0,0
133,-517,0,0,0,0,0,0,0,0,0,-1,1357,1541,0,0
140,-517,0,0,0,0,0,0,0,0,0,-1,1364,1541,0,0
147,-517,0,0,0,0,0,0,0,0,0,-1,1371,1541,0,0
154,-517,0,0,0,0,0,0,0,0,0,-1,1378,1541,0,0
161,-517,0,0,0,0,0,0,0,0,0,-1,1385,1541,0,0
168,-517,0,0,0,0,0,0,0,0,0,-1,1392,1541,0,0
175,-517,0,0,0,0,0,0,0,0,0,-1,1399,1541,0,0
182,-517,0,0,0,0,0,0,0,0,0,-1,1406,1541,0,0
189,-517,0,0,0,0,0,0,0,0,0,-1,1413,1541,0,0
196,-517,0,0,0,0,0,0,0,0,0,-1,1420,1541,0,0
203,-517,0,0,0,0,0,0,0,0,0,-1,1427,1541,0,0
210,-517,0,0,0,0,0,0,0,0,0,-1,1434,1541,0,0
217,-517,0,0,0,0,0,0,0,0,0,-1,1441,1541,0,0
224,-517,0,0,0,0,0,0,0,0,0,-1,1448,1541,0,0
231,-517,0,0,0,0,0,0,0,0,0,-1,1455,1541,0,0
238,-517,0,0,0,0,0,0,0,0,0,-1,1462,1541,0,0
245,-517,0,0,0,0,0,0,0,0,0,-1,1469,1541,0,0
252,-517,0,0,0,0,0,0,0,0,0,-1,1476,1541,0,0
259,-517,0,0,0,0,0,0,0,0,0,-1,1483,1541,0,0
266,-517,0,0,0,0,0,0,0,0,0,-1,1490,1541,0,0
273,-517,0,0,0,0,0,0,0,0,0,-1,1497,1541,0,0
280,-517,0,0,0,0,0,0,0,0,0,-1,1504,1541,0,0
287,-517,0,0,0,0,0,0,0,0,0,-1,1511,1541,0,0
294,-517,0,0,0,0,0,0,0,0,0,-1,1518,1541,0,0
301,-517,0,0,0,0,0,0,0,0,0,-1,1525,1541,0,0
308,-517,0,0,0,0,0,0,0,0,0,-1,1532,1541,0,0
315,-517,0,0,0,0,0,0,0,0,0,-1,1539,1541,0,0
322,-517,0,0,0,0,0,0,0,0,0,-1,1546,1541,0,0
329,-517,0,0,0,0,0,0,0,0,0,-1,1553,1541,0,0
336,-517,0,0,0,0,0,0,0,0,0,-1,1560,1541,0,0
343,-517,0,0,0,0,0,0,0,0,0,-1,1567,1541,0,0
350,-517,0,0,0,0,0,0,0,0,0,-1,1574,1541,0,0
357,-517,0,0,0,0,0,0,0,0,0,-1,1581,1541,0,0
364,-517,0,0,0,0,0,0,0,0,0,-1,1588,1541,0,0
371,-517,0,0,0,0,0,0,0,0,0,-1,1595,1541,0,0
378,-517,0,0,0,0,0,0,0,0,0,-1,1602,1541,0,0
385,-517,0,0,0,0,0,0,0,0,0,-1,1609,1541,0,0
392,-517,0,0,0,0,0,0,0,0,0,-1,1616,1541,0,0
399,-517,0,0,0,0,0,0,0,0,0,-1,1623,1541,0,0
406,-517,1.67114,-1.15857,0,0,0,0,0,0,0,-1,1630,1541,1.6711,1.15854
413,-517,1.21606,1.73718,0,0,0,0,0,0,0,-1,1637,1541,1.21607,-1.73724
420,-517,0.817505,1.67834,0,0,0,0,0,0,0,-1,1644,1541,0.817448,-1.67837
427,-517,-3.37329,0.625122,0,0,0,0,0,0,0,-1,1651,1541,-3.37326,-0.625146
434,-517,-3.52246,0.991089,0,0,0,0,0,0,0,-1,1658,1541,-3.52243,-0.991133
441,-517,-3.60071,1.39502,0,0,0,0,0,0,0,-1,1665,1541,-3.60072,-1.39497
448,-517,-3.55298,1.47766,0,0,0,0,0,0,0,-1,1672,1541,-3.55302,-1.47765
455,-517,1.25513,1.08594,0,0,0,0,0,0,0,-1,1679,1541,1.25515,-1.08598
462,-517,0.863892,1.09717,0,0,0,0,0,0,0,-1,1686,1541,0.863931,-1.09722
469,-517,0.637939,0.936401,0,0,0,0,0,0,0,-1,1693,1541,0.637969,-0.936356
476,-517,0.630615,0.845581,0,0,0,0,0,0,0,-1,1700,1541,0.630626,-0.845528
483,-517,0.624634,0.457764,0,0,0,0,0,0,0,-1,1707,1541,0.62467,-0.457805
490,-517,-0.0463867,0.0466309,-0.00318981,0.011047,0.00240969,0.0114438,-0.00358661,1.40759,0.00906441,0.045701,1714,1541,-0.0464112,-0.0466149
497,-517,-0.0775146,0.0756836,-0.00150647,0.00796015,0.00162003,0.00822971,-0.00177603,1.40591,0.00616437,0.0382666,1721,1541,-0.0775542,-0.0756467
504,-517,-0.103516,0.0671387,-0.00029115,0.00583537,0.000876953,0.00595843,-0.000414206,1.43138,0.0041173,0.0335746,1728,1541,-0.103515,-0.0671937
511,-517,-0.0435791,0.0599365,0.000362461,0.00418748,0.000146951,0.00419312,0.000356824,1.53245,0.00268439,0.0254455,1735,1541,-0.0435799,-0.0599656
518,-517,-0.052002,0.0626221,0.000742017,0.00321178,-0.000249644,0.00323676,0.000717036,-1.47106,0.00196298,0.0163164,1742,1541,-0.0519761,-0.0625646
525,-517,-0.0635986,0.0566406,0.000887484,0.00188074,-0.000493774,0.00208444,0.00068379,-1.17954,0.00122694,0.00976716,1749,1541,-0.0635679,-0.0565902
532,-517,-0.0344238,0.057373,0.00045885,0.00101469,-0.000869187,0.00164931,-0.000175767,-0.940136,0.00116257,0.00959063,1756,1541,-0.0344823,-0.0574054
539,-517,-0.0272217,0.0522461,-0.000161036,0.000616966,-0.00118581,0.00147595,-0.00102002,-0.94389,0.00144905,0.0106445,1763,1541,-0.0272691,-0.0522605
546,-517,-0.0440674,0.0668945,-0.000621136,0.000613854,-0.00128506,0.00142208,-0.00142937,-1.00937,0.00164629,0.0115147,1770,1541,-0.0440962,-0.066913
553,-517,-0.0682373,0.0629883,-0.000686819,0.000248364,-0.0013428,0.00120266,-0.00164111,-0.952943,0.00164834,0.0146756,1777,1541,-0.0681941,-0.0630146
560,-517,-0.0703125,0.0483398,6.37913e-05,0.000702006,-0.000917607,0.00135441,-0.000588611,-0.952737,0.00115048,0.0139058,1784,1541,-0.0703104,-0.0483294
567,-517,-0.0625,0.053833,0.000655234,0.000776817,-0.000722851,0.00144143,-9.37789e-06,-0.827349,0.000964093,0.0110448,1791,1541,-0.0625555,-0.0537749
574,-517,-0.0578613,0.0670166,0.00107065,0.000956687,-0.00052379,0.00154055,0.000486789,-0.731217,0.000909294,0.0116224,1798,1541,-0.0578654,-0.0670671
581,-517,-0.0593262,0.0751953,0.00146844,0.000978066,-0.000426705,0.00171538,0.00073112,-0.52463,0.000993966,0.0138871,1805,1541,-0.0593859,-0.0751808
588,-517,-0.0443115,0.0753174,0.00203938,0.00091282,-0.000242874,0.00208951,0.00086269,-0.203545,0.00121247,0.0147107,1812,1541,-0.0443457,-0.0753632
595,-517,-0.0267334,0.048584,0.00259784,0.000928549,0.00011953,0.00260636,0.000920033,0.0711216,0.00152631,0.0124133,1819,1541,-0.0267003,-0.0485411
602,-517,-0.0395508,0.0328369,0.00268426,0.00053858,0.00072355,0.00290545,0.000317391,0.296677,0.00184031,0.0177003,1826,1541,-0.0395109,-0.0327886
609,-517,-0.0870361,0.0753174,0.00304573,-0.000960984,0.00146863,0.00352638,-0.00144164,0.316293,0.00295127,0.0354356,1833,1541,-0.0870434,-0.075277
616,-517,0.0302734,-0.00585938,0.003519,-0.00284972,0.0027414,0.00453648,-0.00386719,0.355393,0.00485699,0.0409066,1840,1541,0.0302499,0.0059011
623,-517,-0.199097,-0.320068,0.0038306,-0.0051031,0.00407351,0.0054091,-0.0066816,0.369687,0.00699344,0.0404918,1847,1541,-0.199072,0.32004
630,-517,-0.221924,-0.459595,0.00407664,-0.00844069,0.00605086,0.00652337,-0.0108874,0.384259,0.0101568,0.0444033,1854,1541,-0.221903,0.45965
637,-517,-0.0736084,0.0823975,0.00450173,-0.0130412,0.00862433,0.00803139,-0.0165709,0.38847,0.0144865,0.0491953,1861,1541,-0.0736607,-0.0824177
644,-517,0.114746,0.606323,0.00527755,-0.0191582,0.0117603,0.0100179,-0.0238985,0.383159,0.0201209,0.048727,1868,1541,0.114688,-0.606319
651,-517,0,0,0,0,0,0,0,0,0,-1,1875,1541,0,0
658,-517,0,0,0,0,0,0,0,0,0,-1,1882,1541,0,0
665,-517,0,0,0,0,0,0,0,0,0,-1,1889,1541,0,0
672,-517,0,0,0,0,0,0,0,0,0,-1,1896,1541,0,0
679,-517,0,0,0,0,0,0,0,0,0,-1,1903,1541,0,0
686,-517,0,0,0,0,0,0,0,0,0,-1,1910,1541,0,0
693,-517,0,0,0,0,0,0,0,0,0,-1,1917,1541,0,0
700,-517,0,0,0,0,0,0,0,0,0,-1,1924,1541,0,0
707,-517,0,0,0,0,0,0,0,0,0,-1,1931,1541,0,0
714,-517,0,0,0,0,0,0,0,0,0,-1,1938,1541,0,0
721,-517,0,0,0,0,0,0,0,0,0,-1,1945,1541,0,0
728,-517,0,0,0,0,0,0,0,0,0,-1,1952,1541,0,0
735,-517,0,0,0,0,0,0,0,0,0,-1,1959,1541,0,0
742,-517,0,0,0,0,0,0,0,0,0,-1,1966,1541,0,0
749,-517,0,0,0,0,0,0,0,0,0,-1,1973,1541,0,0
756,-517,0,0,0,0,0,0,0,0,0,-1,1980,1541,0,0
763,-517,0,0,0,0,0,0,0,0,0,-1,1987,1541,0,0
770,-517,0,0,0,0,0,0,0,0,0,-1,1994,1541,0,0
777,-517,0,0,0,0,0,0,0,0,0,-1,2001,1541,0,0
784,-517,0,0,0,0,0,0,0,0,0,-1,2008,1541,0,0
791,-517,0,0,0,0,0,0,0,0,0,-1,2015,1541,0,0
798,-517,0,0,0,0,0,0,0,0,0,-1,2022,1541,0,0
805,-517,0,0,0,0,0,0,0,0,0,-1,2029,1541,0,0
812,-517,0,0,0,0,0,0,0,0,0,-1,2036,1541,0,0
-700,-524,0,0,0,0,0,0,0,0,0,-1,524,1548,0,0
-693,-524,0,0,0,0,0,0,0,0,0,-1,531,1548,0,0
-686,-524,0,0,0,0,0,0,0,0,0,-1,538,1548,0,0
-679,-524,0,0,0,0,0,0,0,0,0,-1,545,1548,0,0
-672,-524,0,0,0,0,0,0,0,0,0,-1,552,1548,0,0
-665,-524,0,0,0,0,0,0,0,0,0,-1,559,1548,0,0
-658,-524,0,0,0,0,0,0,0,0,0,-1,566,1548,0,0
-651,-524,0,0,0,0,0,0,0,0,0,-1,573,1548,0,0
-644,-524,0,0,0,0,0,0,0,0,0,-1,580,1548,0,0
-637,-524,0,0,0,0,0,0,0,0,0,-1,587,1548,0,0
-630,-524,0,0,0,0,0,0,0,0,0,-1,594,1548,0,0
-623,-524,0,0,0,0,0,0,0,0,0,-1,601,1548,0,0
-616,-524,0,0,0,0,0,0,0,0,0,-1,608,1548,0,0
-609,-524,0,0,0,0,0,0,0,0,0,-1,615,1548,0,0
-602,-524,0,0,0,0,0,0,0,0,0,-1,622,1548,0,0
-595,-524,0,0,0,0,0,0,0,0,0,-1,629,1548,0,0
-588,-524,0,0,0,0,0,0,0,0,0,-1,636,1548,0,0
-581,-524,0,0,0,0,0,0,0,0,0,-1,643,1548,0,0
-574,-524,0,0,0,0,0,0,0,0,0,-1,650,1548,0,0
-567,-524,0,0,0,0,0,0,0,0,0,-1,657,1548,0,0
-560,-524,0,0,0,0,0,0,0,0,0,-1,664,1548,0,0
-553,-524,0,0,0,0,0,0,0,0,0,-1,671,1548,0,0
-546,-524,0,0,0,0,0,0,0,0,0,-1,678,1548,0,0
-539,-524,0,0,0,0,0,0,0,0,0,-1,685,1548,0,0
-532,-524,0,0,0,0,0,0,0,0,0,-1,692,1548,0,0
-525,-524,3.82892,-4.30383,0,0,0,0,0,0,0,-1,699,1548,3.8289,4.30387
-518,-524,3.33154,-3.19153,-0.0640323,0.00859524,0.0355102,0.0230718,-0.0785089,1.18369,0.06149,0.04355,706,1548,3.33156,3.19159
-511,-524,2.64722,-2.17542,-0.0554032,0.00650732,0.0289535,0.0179376,-0.0668335,1.1948,0.0515851,0.0462916,713,1548,2.64723,2.17537
-504,-524,1.94684,-1.31982,-0.0464852,0.00562758,0.0230397,0.0143528,-0.0552104,1.20878,0.0424087,0.0468353,720,1548,1.94682,1.31987
-497,-524,1.07483,-0.717529,-0.0372658,0.00601265,0.0176731,0.0123126,-0.0435657,1.22837,0.0339017,0.0434236,727,1548,1.0748,0.717503
-490,-524,0.155579,-0.0709229,-0.0287269,0.00666618,0.0129353,0.0108897,-0.0329504,1.2552,0.0263577,0.0411943,734,1548,0.155598,0.0709659
-483,-524,-0.483521,0.262085,-0.0214905,0.00743822,0.00911223,0.0100692,-0.0241215,1.28971,0.0202881,0.0449854,741,1548,-0.48354,-0.262043
-476,-524,-0.0579834,0.0947266,-0.0155934,0.0080277,0.00610732,0.00951333,-0.0170791,1.33218,0.0155589,0.040605,748,1548,-0.057973,-0.0947144
-469,-524,0.0905151,-0.0661621,-0.0111382,0.00829695,0.00382467,0.00902253,-0.0118638,1.38332,0.0120959,0.0283703,755,1548,0.0905227,0.0662032
-462,-524,0.026062,-0.00549316,-0.00762517,0.0077803,0.00224039,0.0080995,-0.00794437,1.42927,0.00926307,0.021137,762,1548,0.0260769,0.00551871
-455,-524,-0.0244141,0.0653076,-0.0050612,0.0071262,0.00118494,0.00724034,-0.00517534,1.47477,0.00720117,0.0136635,769,1548,-0.0244401,-0.0653045
-448,-524,-0.0297241,0.0563965,-0.00298045,0.00705986,0.000273447,0.0070673,-0.00298789,1.54359,0.0059625,0.0106861,776,1548,-0.0297008,-0.056416
-441,-524,-0.0422363,0.0377197,-0.00153791,0.00633527,-0.000203502,0.00634052,-0.00154317,-1.54497,0.00482439,0.00944473,783,1548,-0.0422281,-0.0377132
-434,-524,-0.0357666,0.0466309,-0.000859335,0.0057051,-0.000450609,0.00573589,-0.000890122,-1.50258,0.00415256,0.0111137,790,1548,-0.0357378,-0.0466184
-427,-524,-0.0317993,0.0583496,-0.000851845,0.00533753,-0.000529209,0.00538245,-0.000896768,-1.48611,0.00392155,0.0119646,797,1548,-0.0317975,-0.0583223
-420,-524,-0.032959,0.0600586,-0.00125832,0.00377822,-8.68565e-05,0.00377971,-0.00125982,-1.55356,0.00302839,0.0105654,804,1548,-0.0329358,-0.0600095
-413,-524,-0.0195923,0.0618896,-0.00156859,0.00369041,0.000267598,0.00370399,-0.00158217,1.52009,0.00313285,0.00997127,811,1548,-0.0196079,-0.061875
-406,-524,-0.0216675,0.0588379,-0.00132032,0.00415226,0.000316011,0.00417045,-0.0013385,1.51331,0.00331772,0.00951181,818,1548,-0.021654,-0.0588896
-399,-524,-0.0361328,0.0556641,-0.000346651,0.00584226,-0.000711213,0.00592294,-0.00042733,-1.45784,0.0040985,0.00796811,825,1548,-0.0361414,-0.0556205
-392,-524,-0.034668,0.0664063,0.00078816,0.00657936,-0.00142642,0.00691163,0.000455887,-1.34194,0.00446356,0.00931384,832,1548,-0.0346795,-0.0663628
-385,-524,-0.043335,0.0847168,0.00209804,0.00678034,-0.00224275,0.00768124,0.00119714,-1.18883,0.0047721,0.0106612,839,1548,-0.0433238,-0.0847105
-378,-524,-0.0429077,0.0651855,0.00328106,0.00631901,-0.00315024,0.00829737,0.0013027,-1.01004,0.00515253,0.0122678,846,1548,-0.0428776,-0.0652093
-371,-524,-0.0109863,0.0609131,0.00421347,0.00574729,-0.00435767,0.00940502,0.000555739,-0.872502,0.00609322,0.0223532,853,1548,-0.0109629,-0.0608898
-364,-524,-0.0430298,0.0947266,0.00411602,0.00426982,-0.00511805,0.00931155,-0.000925715,-0.79291,0.00653815,0.0327174,860,1548,-0.0430533,-0.0947764
-357,-524,-0.307495,0.354004,0.00385891,0.00233775,-0.0058443,0.00899192,-0.00279526,-0.720692,0.00711189,0.0410103,867,1548,-0.30752,-0.354
-350,-524,-0.090332,0.287842,0.00310426,0.000316901,-0.00689213,0.00874221,-0.00532105,-0.685637,0.00819912,0.0461661,874,1548,-0.090348,-0.287812
-343,-524,0.0977783,0.204834,0.00158801,-0.00264444,-0.00762649,0.00738644,-0.00844286,-0.650061,0.00914583,0.0432463,881,1548,0.0977586,-0.204802
-336,-524,-0.164795,0.744385,-0.000936144,-0.00566674,-0.00807185,0.00510982,-0.0117127,-0.642873,0.00995875,0.0422586,888,1548,-0.164815,-0.744357
-329,-524,-0.231873,1.27759,-0.00484941,-0.00736591,-0.00802909,0.00201942,-0.0142347,-0.707675,0.0102296,0.0453236,895,1548,-0.231849,-1.27761
-322,-524,-0.286987,1.75183,0,0,0,0,0,0,0,-1,902,1548,-0.286966,-1.75189
-315,-524,-0.167664,-0.502808,-0.0150266,-0.00695963,-0.00678782,-0.00309732,-0.0188889,-1.05348,0.0116976,0.0486442,909,1548,-0.167655,0.502776
-308,-524,-0.819763,-0.0355225,-0.0182,-0.00587995,-0.00526577,-0.00393601,-0.0201439,-1.21715,0.0123285,0.0450976,916,1548,-0.81975,0.035478
-301,-524,-2.51868,1.85815,0,0,0,0,0,0,0,-1,923,1548,-2.51869,-1.85811
-294,-524,-3.05566,2.11938,0,0,0,0,0,0,0,-1,930,1548,-3.05566,-2.11944
-287,-524,0.155945,0.510132,0,0,0,0,0,0,0,-1,937,1548,0.155968,-0.510166
-280,-524,-1.14038,1.4353,0,0,0,0,0,0,0,-1,944,1548,-1.14037,-1.43529
-273,-524,0,0,0,0,0,0,0,0,0,-1,951,1548,0,0
-266,-524,0,0,0,0,0,0,0,0,0,-1,958,1548,0,0
-259,-524,0,0,0,0,0,0,0,0,0,-1,965,1548,0,0
-252,-524,0,0,0,0,0,0,0,0,0,-1,972,1548,0,0
-245,-524,0,0,0,0,0,0,0,0,0,-1,979,1548,0,0
-238,-524,0,0,0,0,0,0,0,0,0,-1,986,1548,0,0
-231,-524,0,0,0,0,0,0,0,0,0,-1,993,1548,0,0
-224,-524,0,0,0,0,0,0,0,0,0,-1,1000,1548,0,0
-217,-524,0,0,0,0,0,0,0,0,0,-1,1007,1548,0,0
-210,-524,0,0,0,0,0,0,0,0,0,-1,1014,1548,0,0
-203,-524,0,0,0,0,0,0,0,0,0,-1,1021,1548,0,0
-196,-524,0,0,0,0,0,0,0,0,0,-1,1028,1548,0,0
-189,-524,0,0,0,0,0,0,0,0,0,-1,1035,1548,0,0
-182,-524,0,0,0,0,0,0,0,0,0,-1,1042,1548,0,0
-175,-524,0,0,0,0,0,0,0,0,0,-1,1049,1548,0,0
-168,-524,0,0,0,0,0,0,0,0,0,-1,1056,1548,0,0
-161,-524,0,0,0,0,0,0,0,0,0,-1,1063,1548,0,0
-154,-524,0,0,0,0,0,0,0,0,0,-1,1070,1548,0,0
-147,-524,0,0,0,0,0,0,0,0,0,-1,1077,1548,0,0
-140,-524,0,0,0,0,0,0,0,0,0,-1,1084,1548,0,0
-133,-524,0,0,0,0,0,0,0,0,0,-1,1091,1548,0,0
-126,-524,0,0,0,0,0,0,0,0,0,-1,1098,1548,0,0
-119,-524,0,0,0,0,0,0,0,0,0,-1,1105,1548,0,0
-112,-524,0,0,0,0,0,0,0,0,0,-1,1112,1548,0,0
-105,-524,0,0,0,0,0,0,0,0,0,-1,1119,1548,0,0
-98,-524,0,0,0,0,0,0,0,0,0,-1,1126,1548,0,0
-91,-524,0,0,0,0,0,0,0,0,0,-1,1133,1548,0,0
-84,-524,0,0,0,0,0,0,0,0,0,-1,1140,1548,0,0
-77,-524,0,0,0,0,0,0,0,0,0,-1,1147,1548,0,0
-70,-524,0,0,0,0,0,0,0,0,0,-1,1154,1548,0,0
-63,-524,0,0,0,0,0,0,0,0,0,-1,1161,1548,0,0
-56,-524,0,0,0,0,0,0,0,0,0,-1,1168,1548,0,0
-49,-524,0,0,0,0,0,0,0,0,0,-1,1175,1548,0,0
-42,-524,0,0,0,0,0,0,0,0,0,-1,1182,1548,0,0
-35,-524,0,0,0,0,0,0,0,0,0,-1,1189,1548,0,0
-28,-524,0,0,0,0,0,0,0,0,0,-1,1196,1548,0,0
-21,-524,0,0,0,0,0,0,0,0,0,-1,1203,1548,0,0
-14,-524,0,0,0,0,0,0,0,0,0,-1,1210,1548,0,0
-7,-524,0,0,0,0,0,0,0,0,0,-1,1217,1548,0,0
0,-524,0,0,0,0,0,0,0,0,0,-1,1224,1548,0,0
7,-524,0,0,0,0,0,0,0,0,0,-1,1231,1548,0,0
14,-524,0,0,0,0,0,0,0,0,0,-1,1238,1548,0,0
21,-524,0,0,0,0,0,0,0,0,0,-1,1245,1548,0,0
28,-524,0,0,0,0,0,0,0,0,0,-1,1252,1548,0,0
35,-524,0,0,0,0,0,0,0,0,0,-1,1259,1548,0,0
42,-524,0,0,0,0,0,0,0,0,0,-1,1266,1548,0,0
49,-524,0,0,0,0,0,0,0,0,0,-1,1273,1548,0,0
56,-524,0,0,0,0,0,0,0,0,0,-1,1280,1548,0,0
63,-524,0,0,0,0,0,0,0,0,0,-1,1287,1548,0,0
70,-524,0,0,0,0,0,0,0,0,0,-1,1294,1548,0,0
77,-524,0,0,0,0,0,0,0,0,0,-1,1301,1548,0,0
84,-524,0,0,0,0,0,0,0,0,0,-1,1308,1548,0,0
91,-524,0,0,0,0,0,0,0,0,0,-1,1315,1548,0,0
98,-524,0,0,0,0,0,0,0,0,0,-1,1322,1548,0,0
105,-524,0,0,0,0,0,0,0,0,0,-1,1329,1548,0,0
112,-524,0,0,0,0,0,0,0,0,0,-1,1336,1548,0,0
119,-524,0,0,0,0,0,0,0,0,0,-1,1343,1548,0,0
126,-524,0,0,0,0,0,0,0,0,0,-1,1350,1548,0,0
133,-524,0,0,0,0,0,0,0,0,0,-1,1357,1548,0,0
140,-524,0,0,0,0,0,0,0,0,0,-1,1364,1548,0,0
147,-524,0,0,0,0,0,0,0,0,0,-1,1371,1548,0,0
154,-524,0,0,0,0,0,0,0,0,0,-1,1378,1548,0,0
161,-524,0,0,0,0,0,0,0,0,0,-1,1385,1548,0,0
168,-524,0,0,0,0,0,0,0,0,0,-1,1392,1548,0,0
175,-524,0,0,0,0,0,0,0,0,0,-1,1399,1548,0,0
182,-524,0,0,0,0,0,0,0,0,0,-1,1406,1548,0,0
189,-524,0,0,0,0,0,0,0,0,0,-1,1413,1548,0,0
196,-524,0,0,0,0,0,0,0,0,0,-1,1420,1548,0,0
203,-524,0,0,0,0,0,0,0,0,0,-1,1427,1548,0,0
210,-524,0,0,0,0,0,0,0,0,0,-1,1434,1548,0,0
217,-524,0,0,0,0,0,0,0,0,0,-1,1441,1548,0,0
224,-524,0,0,0,0,0,0,0,0,0,-1,1448,1548,0,0
231,-524,0,0,0,0,0,0,0,0,0,-1,1455,1548,0,0
238,-524,0,0,0,0,0,0,0,0,0,-1,1462,1548,0,0
245,-524,0,0,0,0,0,0,0,0,0,-1,1469,1548,0,0
252,-524,0,0,0,0,0,0,0,0,0,-1,1476,1548,0,0
259,-524,0,0,0,0,0,0,0,0,0,-1,1483,1548,0,0
266,-524,0,0,0,0,0,0,0,0,0,-1,1490,1548,0,0
273,-524,0,0,0,0,0,0,0,0,0,-1,1497,1548,0,0
280,-524,0,0,0,0,0,0,0,0,0,-1,1504,1548,0,0
287,-524,0,0,0,0,0,0,0,0,0,-1,1511,1548,0,0
294,-524,0,0,0,0,0,0,0,0,0,-1,1518,1548,0,0
301,-524,0,0,0,0,0,0,0,0,0,-1,1525,1548,0,0
308,-524,0,0,0,0,0,0,0,0,0,-1,1532,1548,0,0
315,-524,0,0,0,0,0,0,0,0,0,-1,1539,1548,0,0
322,-524,0,0,0,0,0,0,0,0,0,-1,1546,1548,0,0
329,-524,0,0,0,0,0,0,0,0,0,-1,1553,1548,0,0
336,-524,0,0,0,0,0,0,0,0,0,-1,1560,1548,0,0
343,-524,0,0,0,0,0,0,0,0,0,-1,1567,1548,0,0
350,-524,0,0,0,0,0,0,0,0,0,-1,1574,1548,0,0
357,-524,0,0,0,0,0,0,0,0,0,-1,1581,1548,0,0
364,-524,0,0,0,0,0,0,0,0,0,-1,1588,1548,0,0
371,-524,0,0,0,0,0,0,0,0,0,-1,1595,1548,0,0
378,-524,0,0,0,0,0,0,0,0,0,-1,1602,1548,0,0
385,-524,0,0,0,0,0,0,0,0,0,-1,1609,1548,0,0
392,-524,0,0,0,0,0,0,0,0,0,-1,1616,1548,0,0
399,-524,1.33545,-1.1167,0,0,0,0,0,0,0,-1,1623,1548,1.33551,1.11665
406,-524,1.56934,-1.22668,0,0,0,0,0,0,0,-1,1630,1548,1.56938,1.22672
413,-524,1.80322,-1.33679,0,0,0,0,0,0,0,-1,1637,1548,1.80326,1.33679
420,-524,-0.750732,0.36438,0,0,0,0,0,0,0,-1,1644,1548,-0.750792,-0.364419
427,-524,-0.194946,0.273438,0,0,0,0,0,0,0,-1,1651,1548,-0.194946,-0.27348
434,-524,-2.51953,0.660156,0,0,0,0,0,0,0,-1,1658,1548,-2.51958,-0.660105
441,-524,-2.67432,1.04456,0,0,0,0,0,0,0,-1,1665,1548,-2.67428,-1.04452
448,-524,2.54883,2.31079,0,0,0,0,0,0,0,-1,1672,1548,2.54886,-2.31079
455,-524,0.825439,1.31714,0,0,0,0,0,0,0,-1,1679,1548,0.825483,-1.31713
462,-524,0.608765,1.30981,0,0,0,0,0,0,0,-1,1686,1548,0.608769,-1.30981
469,-524,0.484863,1.04358,-0.00443131,0.0196665,0.00388496,0.0202773,-0.00504214,1.41484,0.0154752,0.0463373,1693,1548,0.484848,-1.04354
476,-524,0.197021,0.501587,-0.00473288,0.0175111,0.00354567,0.0180626,-0.00528438,1.41649,0.0141364,0.0472117,1700,1548,0.197011,-0.501645
483,-524,0.136353,0.182739,-0.00417755,0.0149418,0.00294474,0.0153851,-0.00462082,1.42139,0.0120949,0.0429442,1707,1548,0.13639,-0.182698
490,-524,-0.106567,0.0859375,-0.00285202,0.0120481,0.00214585,0.012351,-0.0031549,1.43058,0.00946261,0.0383898,1714,1548,-0.106549,-0.0859823
497,-524,-0.0950928,0.0855713,-0.00135687,0.00863802,0.00151425,0.00886239,-0.00158125,1.42369,0.00649978,0.0260129,1721,1548,-0.0951145,-0.0855279
504,-524,-0.0634766,0.0740967,-0.000161173,0.00631979,0.000956221,0.00645793,-0.000299312,1.42733,0.00440845,0.015371,1728,1548,-0.063484,-0.0741063
511,-524,-0.0576172,0.0698242,0.000506975,0.0044967,0.000395618,0.00453555,0.000468124,1.47291,0.00288037,0.0143092,1735,1548,-0.0576606,-0.0698379
518,-524,-0.057373,0.0627441,0.000873147,0.00331922,7.69634e-05,0.00332164,0.000870728,1.53937,0.00198877,0.0129714,1742,1548,-0.0573696,-0.0627133
525,-524,-0.0515137,0.05896,0.000989164,0.00192914,-0.00011024,0.00194189,0.000976409,-1.4556,0.00112116,0.0119637,1749,1548,-0.0514874,-0.0590077
532,-524,-0.0255127,0.0626221,0.000528083,0.00102798,-0.000491566,0.0013295,0.00022657,-1.0206,0.000821291,0.00921709,1756,1548,-0.0255305,-0.0626301
539,-524,-0.0223389,0.0507813,-8.37458e-05,0.000580146,-0.000901254,0.00120864,-0.000712241,-0.961847,0.0011213,0.0102731,1763,1548,-0.0223712,-0.0507464
546,-524,-0.0383301,0.0422363,-0.000465719,0.000519947,-0.0011069,0.00123877,-0.00118454,-0.994841,0.00139922,0.0137914,1770,1548,-0.0383391,-0.0421793
553,-524,-0.0518799,0.034668,-0.000450996,0.000184621,-0.00129558,0.0012008,-0.00146718,-0.905674,0.00154292,0.0212328,1777,1548,-0.0518562,-0.034686
560,-524,-0.0853271,0.0531006,0.00027262,0.000685767,-0.0010996,0.00159803,-0.000639645,-0.878247,0.00133084,0.0272071,1784,1548,-0.0853222,-0.0531512
567,-524,-0.0743408,0.0646973,0.000875693,0.000854886,-0.00104679,0.00191213,-0.000181549,-0.780429,0.00133938,0.0156082,1791,1548,-0.0743685,-0.0646816
574,-524,-0.0484619,0.0654297,0.00132565,0.00114678,-0.000969129,0.00220946,0.000262967,-0.739386,0.00139361,0.0113397,1798,1548,-0.0484336,-0.0654202
581,-524,-0.0345459,0.0505371,0.00178101,0.0013141,-0.00097523,0.00255034,0.00054477,-0.667917,0.00155086,0.0129542,1805,1548,-0.0345604,-0.0505542
588,-524,-0.0396729,0.0447998,0.00246276,0.00140011,-0.000848649,0.00293269,0.000930176,-0.505709,0.00173051,0.0128986,1812,1548,-0.0396166,-0.0447948
595,-524,-0.0620117,0.0268555,0.00318883,0.00161442,-0.000465502,0.00331616,0.00148709,-0.267013,0.00191798,0.0124905,1819,1548,-0.0619695,-0.0268784
602,-524,-0.0758057,0.0151367,0.00342611,0.00144308,0.000211075,0.00344833,0.00142087,0.104875,0.00200114,0.0260895,1826,1548,-0.0758363,-0.0150891
609,-524,0.103516,0.152222,0.00382788,0.000208433,0.00105327,0.00411207,-7.5758e-05,0.263542,0.00276698,0.0405598,1833,1548,0.103555,-0.152275
616,-524,0.479126,0.100586,0.00421246,-0.00142229,0.00248103,0.00514916,-0.002359,0.361001,0.00443349,0.0395702,1840,1548,0.47915,-0.100634
623,-524,0.593872,0.294922,0.00437616,-0.00347359,0.00412419,0.00614457,-0.00524201,0.405078,0.00658093,0.0422823,1847,1548,0.593921,-0.294931
630,-524,0.552002,0.59021,0.00434158,-0.00666226,0.00646037,0.00732538,-0.00964607,0.432675,0.00982896,0.045477,1854,1548,0.552023,-0.590193
637,-524,0.104492,0.189941,0.00433282,-0.0111834,0.00948923,0.0088317,-0.0156823,0.442717,0.0143362,0.0494463,1861,1548,0.10444,-0.189909
644,-524,0.367676,0.416992,0.0045664,-0.017292,0.0131865,0.0107641,-0.0234898,0.439365,0.0202263,0.0471176,1868,1548,0.367652,-0.417016
651,-524,0,0,0,0,0,0,0,0,0,-1,1875,1548,0,0
658,-524,0,0,0,0,0,0,0,0,0,-1,1882,1548,0,0
665,-524,0,0,0,0,0,0,0,0,0,-1,1889,1548,0,0
672,-524,0,0,0,0,0,0,0,0,0,-1,1896,1548,0,0
679,-524,0,0,0,0,0,0,0,0,0,-1,1903,1548,0,0
686,-524,0,0,0,0,0,0,0,0,0,-1,1910,1548,0,0
693,-524,0,0,0,0,0,0,0,0,0,-1,1917,1548,0,0
700,-524,0,0,0,0,0,0,0,0,0,-1,1924,1548,0,0
707,-524,0,0,0,0,0,0,0,0,0,-1,1931,1548,0,0
714,-524,0,0,0,0,0,0,0,0,0,-1,1938,1548,0,0
721,-524,0,0,0,0,0,0,0,0,0,-1,1945,1548,0,0
728,-524,0,0,0,0,0,0,0,0,0,-1,1952,1548,0,0
735,-524,0,0,0,0,0,0,0,0,0,-1,1959,1548,0,0
742,-524,0,0,0,0,0,0,0,0,0,-1,1966,1548,0,0
749,-524,0,0,0,0,0,0,0,0,0,-1,1973,1548,0,0
756,-524,0,0,0,0,0,0,0,0,0,-1,1980,1548,0,0
763,-524,0,0,0,0,0,0,0,0,0,-1,1987,1548,0,0
770,-524,0,0,0,0,0,0,0,0,0,-1,1994,1548,0,0
777,-524,0,0,0,0,0,0,0,0,0,-1,2001,1548,0,0
784,-524,0,0,0,0,0,0,0,0,0,-1,2008,1548,0,0
791,-524,0,0,0,0,0,0,0,0,0,-1,2015,1548,0,0
798,-524,0,0,0,0,0,0,0,0,0,-1,2022,1548,0,0
805,-524,0,0,0,0,0,0,0,0,0,-1,2029,1548,0,0
812,-524,0,0,0,0,0,0,0,0,0,-1,2036,1548,0,0
-700,-531,0,0,0,0,0,0,0,0,0,-1,524,1555,0,0
-693,-531,0,0,0,0,0,0,0,0,0,-1,531,1555,0,0
-686,-531,0,0,0,0,0,0,0,0,0,-1,538,1555,0,0
-679,-531,0,0,0,0,0,0,0,0,0,-1,545,1555,0,0
-672,-531,0,0,0,0,0,0,0,0,0,-1,552,1555,0,0
-665,-531,0,0,0,0,0,0,0,0,0,-1,559,1555,0,0
-658,-531,0,0,0,0,0,0,0,0,0,-1,566,1555,0,0
-651,-531,0,0,0,0,0,0,0,0,0,-1,573,1555,0,0
-644,-531,0,0,0,0,0,0,0,0,0,-1,580,1555,0,0
-637,-531,0,0,0,0,0,0,0,0,0,-1,587,1555,0,0
-630,-531,0,0,0,0,0,0,0,0,0,-1,594,1555,0,0
-623,-531,0,0,0,0,0,0,0,0,0,-1,601,1555,0,0
-616,-531,0,0,0,0,0,0,0,0,0,-1,608,1555,0,0
-609,-531,0,0,0,0,0,0,0,0,0,-1,615,1555,0,0
-602,-531,0,0,0,0,0,0,0,0,0,-1,622,1555,0,0
-595,-531,0,0,0,0,0,0,0,0,0,-1,629,1555,0,0
-588,-531,0,0,0,0,0,0,0,0,0,-1,636,1555,0,0
-581,-531,0,0,0,0,0,0,0,0,0,-1,643,1555,0,0
-574,-531,0,0,0,0,0,0,0,0,0,-1,650,1555,0,0
-567,-531,0,0,0,0,0,0,0,0,0,-1,657,1555,0,0
-560,-531,0,0,0,0,0,0,0,0,0,-1,664,1555,0,0
-553,-531,0,0,0,0,0,0,0,0,0,-1,671,1555,0,0
-546,-531,0,0,0,0,0,0,0,0,0,-1,678,1555,0,0
-539,-531,0,0,0,0,0,0,0,0,0,-1,685,1555,0,0
-532,-531,0,0,0,0,0,0,0,0,0,-1,692,1555,0,0
-525,-531,0,0,0,0,0,0,0,0,0,-1,699,1555,0,0
-518,-531,4.60339,-3.74414,0,0,0,0,0,0,0,-1,706,1555,4.60338,3.74412
-511,-531,2.73718,-1.84766,0,0,0,0,0,0,0,-1,713,1555,2.73721,1.84766
-504,-531,1.8244,-1.27161,-0.0557861,0.0119048,0.0283,0.0221774,-0.0660588,1.2226,0.0530015,0.0445453,720,1555,1.82443,1.27159
-497,-531,0.934509,-0.659546,-0.0436569,0.0121025,0.0213915,0.0193636,-0.050918,1.24356,0.0419182,0.0438856,727,1555,0.934479,0.65951
-490,-531,0.129272,-0.0186768,0,0,0,0,0,0,0,-1,734,1555,0.12925,0.018658
-483,-531,-0.346924,0.284058,-0.0247175,0.0140951,0.0108945,0.016944,-0.0275664,1.31502,0.0259409,0.045304,741,1555,-0.346919,-0.284095
-476,-531,-0.0563965,0.330444,-0.0179318,0.0145435,0.00726244,0.0160937,-0.0194819,1.36051,0.0205706,0.0423329,748,1555,-0.0563896,-0.330389
-469,-531,0.321228,-0.231812,-0.0128201,0.0143774,0.0045619,0.0151222,-0.0135649,1.40896,0.0165706,0.0378964,755,1555,0.321212,0.231812
-462,-531,0.112915,-0.222412,-0.00890547,0.0132203,0.00271768,0.0135493,-0.00923439,1.45035,0.0132325,0.0354658,762,1555,0.11293,0.222404
-455,-531,-0.00579834,0.0493164,-0.00608574,0.0118368,0.00148366,0.0119588,-0.00620773,1.48876,0.0106622,0.0251538,769,1555,-0.00579728,-0.049352
-448,-531,-0.0159302,0.0452881,-0.00374133,0.0109821,0.000420306,0.0109941,-0.00375332,1.54228,0.00884989,0.011274,776,1555,-0.0159556,-0.0453404
-441,-531,-0.0346069,0.0291748,-0.0021216,0.00947669,-0.000138025,0.00947833,-0.00212324,-1.5589,0.00713277,0.0101478,783,1555,-0.0346061,-0.0291919
-434,-531,-0.0413818,0.0449219,-0.00132217,0.00809892,-0.000415848,0.00811724,-0.00134049,-1.52677,0.00590922,0.0107888,790,1555,-0.0413594,-0.0449173
-427,-531,-0.03125,0.0657959,-0.00115281,0.00706199,-0.000517581,0.00709447,-0.00118529,-1.50812,0.00517023,0.0115662,797,1555,-0.0312543,-0.0658206
-420,-531,-0.0333252,0.0664063,-0.00146065,0.00423967,2.42687e-05,0.00423977,-0.00146075,1.56654,0.00341908,0.010371,804,1555,-0.0333376,-0.0664528
-413,-531,-0.0351563,0.0738525,-0.00169757,0.00366421,0.000410744,0.00369549,-0.00172885,1.49478,0.00319962,0.00950451,811,1555,-0.0351672,-0.0738038
-406,-531,-0.0273438,0.0667725,-0.00130626,0.00361998,0.000355583,0.00364551,-0.00133179,1.49911,0.00297534,0.00995232,818,1555,-0.0273601,-0.0667326
-399,-531,-0.0302124,0.0675049,-0.000473402,0.00447143,-0.000360639,0.0044976,-0.000499566,-1.49837,0.00317803,0.0116939,825,1555,-0.0302042,-0.0674894
-392,-531,-0.0135498,0.059082,0.000491006,0.00482668,-0.000901231,0.00500655,0.000311135,-1.3738,0.00323897,0.0160076,832,1555,-0.0135353,-0.0591273
-385,-531,-0.0246582,0.0581055,0.00157047,0.00488592,-0.00147776,0.00544897,0.00100743,-1.20676,0.00334775,0.0138293,839,1555,-0.0246721,-0.058097
-378,-531,-0.0479736,0.0585938,0.00241136,0.00459145,-0.00204205,0.00581617,0.00118663,-1.03056,0.00354867,0.00967606,846,1555,-0.0479917,-0.0586045
-371,-531,-0.0368042,0.0517578,0.00298351,0.00418028,-0.00278187,0.0064274,0.000736397,-0.891335,0.00406178,0.0100167,853,1555,-0.0367834,-0.0517522
-364,-531,-0.050354,0.0523682,0.00259718,0.00304394,-0.00316452,0.00599296,-0.000351833,-0.820634,0.0041176,0.0180534,860,1555,-0.0503667,-0.0523468
-357,-531,-0.0564575,0.0664063,0.00199687,0.00166072,-0.00352259,0.0053554,-0.0016978,-0.76156,0.00425076,0.0308918,867,1555,-0.0564534,-0.0664541
-350,-531,-0.0318604,0.161011,0.00098433,0.000435489,-0.00422429,0.0049431,-0.00352329,-0.752962,0.00491093,0.0391349,874,1555,-0.0318628,-0.161009
-343,-531,0.00909424,0.0461426,-0.000603952,-0.001481,-0.00471832,0.00369618,-0.00578113,-0.739061,0.00551569,0.0438962,881,1555,0.00908072,-0.0461038
-336,-531,-0.171143,1.28345,0,0,0,0,0,0,0,-1,888,1555,-0.171116,-1.2834
-329,-531,-0.249329,1.82947,0,0,0,0,0,0,0,-1,895,1555,-0.24935,-1.82951
-322,-531,0.0945435,-0.165039,-0.0106616,-0.00355211,-0.00510174,-0.000888811,-0.0133249,-1.08968,0.0086023,0.0461826,902,1555,0.0945644,0.165087
-315,-531,-0.0791626,-0.230957,-0.0145326,-0.00250768,-0.0045967,-0.000951832,-0.0160885,-1.24443,0.0104229,0.0484178,909,1555,-0.0791728,0.230914
-308,-531,-1.59918,1.08691,0,0,0,0,0,0,0,-1,916,1555,-1.59919,-1.08697
-301,-531,-1.96265,1.33594,-0.0175161,0.000814553,-0.00239313,0.00112183,-0.0178234,-1.44309,0.0122733,0.0439873,923,1555,-1.96265,-1.33596
-294,-531,-2.45001,1.50366,0,0,0,0,0,0,0,-1,930,1555,-2.45003,-1.50368
-287,-531,-2.94714,1.38879,0,0,0,0,0,0,0,-1,937,1555,-2.94717,-1.38883
-280,-531,-1.45972,1.37537,-0.0205465,0.0120225,0.00609156,0.0131245,-0.0216486,1.39182,0.0202763,0.0440663,944,1555,-1.45972,-1.37541
-273,-531,-1.98761,1.56226,-0.0183354,0.0170232,0.00948413,0.0194064,-0.0207186,1.3246,0.0231704,0.0454943,951,1555,-1.98762,-1.5622
-266,-531,-2.62201,1.69653,-0.0140854,0.0184918,0.0135789,0.0234094,-0.019003,1.22334,0.0245308,0.0450615,958,1555,-2.62203,-1.69655
-259,-531,0,0,0,0,0,0,0,0,0,-1,965,1555,0,0
-252,-531,0,0,0,0,0,0,0,0,0,-1,972,1555,0,0
-245,-531,0,0,0,0,0,0,0,0,0,-1,979,1555,0,0
-238,-531,0,0,0,0,0,0,0,0,0,-1,986,1555,0,0
-231,-531,0,0,0,0,0,0,0,0,0,-1,993,1555,0,0
-224,-531,0,0,0,0,0,0,0,0,0,-1,1000,1555,0,0
-217,-531,0,0,0,0,0,0,0,0,0,-1,1007,1555,0,0
-210,-531,0,0,0,0,0,0,0,0,0,-1,1014,1555,0,0
-203,-531,0,0,0,0,0,0,0,0,0,-1,1021,1555,0,0
-196,-531,0,0,0,0,0,0,0,0,0,-1,1028,1555,0,0
-189,-531,0,0,0,0,0,0,0,0,0,-1,1035,1555,0,0
-182,-531,0,0,0,0,0,0,0,0,0,-1,1042,1555,0,0
-175,-531,0,0,0,0,0,0,0,0,0,-1,1049,1555,0,0
-168,-531,0,0,0,0,0,0,0,0,0,-1,1056,1555,0,0
-161,-531,0,0,0,0,0,0,0,0,0,-1,1063,1555,0,0
-154,-531,0,0,0,0,0,0,0,0,0,-1,1070,1555,0,0
-147,-531,0,0,0,0,0,0,0,0,0,-1,1077,1555,0,0
-140,-531,0,0,0,0,0,0,0,0,0,-1,1084,1555,0,0
-133,-531,0,0,0,0,0,0,0,0,0,-1,1091,1555,0,0
-126,-531,0,0,0,0,0,0,0,0,0,-1,1098,1555,0,0
-119,-531,0,0,0,0,0,0,0,0,0,-1,1105,1555,0,0
-112,-531,0,0,0,0,0,0,0,0,0,-1,1112,1555,0,0
-105,-531,0,0,0,0,0,0,0,0,0,-1,1119,1555,0,0
-98,-531,0,0,0,0,0,0,0,0,0,-1,1126,1555,0,0
-91,-531,0,0,0,0,0,0,0,0,0,-1,1133,1555,0,0
-84,-531,0,0,0,0,0,0,0,0,0,-1,1140,1555,0,0
-77,-531,0,0,0,0,0,0,0,0,0,-1,1147,1555,0,0
-70,-531,0,0,0,0,0,0,0,0,0,-1,1154,1555,0,0
-63,-531,0,0,0,0,0,0,0,0,0,-1,1161,1555,0,0
-56,-531,0,0,0,0,0,0,0,0,0,-1,1168,1555,0,0
-49,-531,0,0,0,0,0,0,0,0,0,-1,1175,1555,0,0
-42,-531,0,0,0,0,0,0,0,0,0,-1,1182,1555,0,0
-35,-531,0,0,0,0,0,0,0,0,0,-1,1189,1555,0,0
-28,-531,0,0,0,0,0,0,0,0,0,-1,1196,1555,0,0
-21,-531,0,0,0,0,0,0,0,0,0,-1,1203,1555,0,0
-14,-531,0,0,0,0,0,0,0,0,0,-1,1210,1555,0,0
-7,-531,0,0,0,0,0,0,0,0,0,-1,1217,1555,0,0
0,-531,0,0,0,0,0,0,0,0,0,-1,1224,1555,0,0
7,-531,0,0,0,0,0,0,0,0,0,-1,1231,1555,0,0
14,-531,0,0,0,0,0,0,0,0,0,-1,1238,1555,0,0
21,-531,0,0,0,0,0,0,0,0,0,-1,1245,1555,0,0
28,-531,0,0,0,0,0,0,0,0,0,-1,1252,1555,0,0
35,-531,0,0,0,0,0,0,0,0,0,-1,1259,1555,0,0
42,-531,0,0,0,0,0,0,0,0,0,-1,1266,1555,0,0
49,-531,0,0,0,0,0,0,0,0,0,-1,1273,1555,0,0
56,-531,0,0,0,0,0,0,0,0,0,-1,1280,1555,0,0
63,-531,0,0,0,0,0,0,0,0,0,-1,1287,1555,0,0
70,-531,0,0,0,0,0,0,0,0,0,-1,1294,1555,0,0
77,-531,0,0,0,0,0,0,0,0,0,-1,1301,1555,0,0
84,-531,0,0,0,0,0,0,0,0,0,-1,1308,1555,0,0
91,-531,0,0,0,0,0,0,0,0,0,-1,1315,1555,0,0
98,-531,0,0,0,0,0,0,0,0,0,-1,1322,1555,0,0
105,-531,0,0,0,0,0,0,0,0,0,-1,1329,1555,0,0
112,-531,0,0,0,0,0,0,0,0,0,-1,1336,1555,0,0
119,-531,0,0,0,0,0,0,0,0,0,-1,1343,1555,0,0
126,-531,0,0,0,0,0,0,0,0,0,-1,1350,1555,0,0
133,-531,0,0,0,0,0,0,0,0,0,-1,1357,1555,0,0
140,-531,0,0,0,0,0,0,0,0,0,-1,1364,1555,0,0
147,-531,0,0,0,0,0,0,0,0,0,-1,1371,1555,0,0
154,-531,0,0,0,0,0,0,0,0,0,-1,1378,1555,0,0
161,-531,0,0,0,0,0,0,0,0,0,-1,1385,1555,0,0
168,-531,0,0,0,0,0,0,0,0,0,-1,1392,1555,0,0
175,-531,0,0,0,0,0,0,0,0,0,-1,1399,1555,0,0
182,-531,0,0,0,0,0,0,0,0,0,-1,1406,1555,0,0
189,-531,0,0,0,0,0,0,0,0,0,-1,1413,1555,0,0
196,-531,0,0,0,0,0,0,0,0,0,-1,1420,1555,0,0
203,-531,0,0,0,0,0,0,0,0,0,-1,1427,1555,0,0
210,-531,0,0,0,0,0,0,0,0,0,-1,1434,1555,0,0
217,-531,0,0,0,0,0,0,0,0,0,-1,1441,1555,0,0
224,-531,0,0,0,0,0,0,0,0,0,-1,1448,1555,0,0
231,-531,0,0,0,0,0,0,0,0,0,-1,1455,1555,0,0
238,-531,0,0,0,0,0,0,0,0,0,-1,1462,1555,0,0
245,-531,0,0,0,0,0,0,0,0,0,-1,1469,1555,0,0
252,-531,0,0,0,0,0,0,0,0,0,-1,1476,1555,0,0
259,-531,0,0,0,0,0,0,0,0,0,-1,1483,1555,0,0
266,-531,0,0,0,0,0,0,0,0,0,-1,1490,1555,0,0
273,-531,0,0,0,0,0,0,0,0,0,-1,1497,1555,0,0
280,-531,0,0,0,0,0,0,0,0,0,-1,1504,1555,0,0
287,-531,0,0,0,0,0,0,0,0,0,-1,1511,1555,0,0
294,-531,0,0,0,0,0,0,0,0,0,-1,1518,1555,0,0
301,-531,0,0,0,0,0,0,0,0,0,-1,1525,1555,0,0
308,-531,0,0,0,0,0,0,0,0,0,-1,1532,1555,0,0
315,-531,0,0,0,0,0,0,0,0,0,-1,1539,1555,0,0
322,-531,0,0,0,0,0,0,0,0,0,-1,1546,1555,0,0
329,-531,0,0,0,0,0,0,0,0,0,-1,1553,1555,0,0
336,-531,0,0,0,0,0,0,0,0,0,-1,1560,1555,0,0
343,-531,0,0,0,0,0,0,0,0,0,-1,1567,1555,0,0
350,-531,0,0,0,0,0,0,0,0,0,-1,1574,1555,0,0
357,-531,0,0,0,0,0,0,0,0,0,-1,1581,1555,0,0
364,-531,0,0,0,0,0,0,0,0,0,-1,1588,1555,0,0
371,-531,0,0,0,0,0,0,0,0,0,-1,1595,1555,0,0
378,-531,0,0,0,0,0,0,0,0,0,-1,1602,1555,0,0
385,-531,-1.39941,-0.649414,0,0,0,0,0,0,0,-1,1609,1555,-1.39941,0.649378
392,-531,-1.84424,-0.192749,0,0,0,0,0,0,0,-1,1616,1555,-1.84421,0.192802
399,-531,1.22522,-1.39966,0.0835952,-0.00601519,-0.027871,0.0915565,-0.0139764,-0.278237,0.0661902,0.0415132,1623,1555,1.22525,1.39964
406,-531,1.45813,-1.35181,0.0687118,-0.000659509,-0.0186766,0.0734205,-0.00536813,-0.246967,0.0508309,0.0443915,1630,1555,1.45815,1.35177
413,-531,-1.43506,0.337402,0,0,0,0,0,0,0,-1,1637,1555,-1.43502,-0.337451
420,-531,-0.842285,0.262817,0.0345673,0.00618326,-0.00888323,0.0371182,0.00363236,-0.279635,0.0236279,0.0468688,1644,1555,-0.842339,-0.262761
427,-531,-0.269043,0.241333,0.0227598,0.011022,-0.00465827,0.0243838,0.00939799,-0.33545,0.0142007,0.0454242,1651,1555,-0.269064,-0.24134
434,-531,0.304077,0.216187,0,0,0,0,0,0,0,-1,1658,1555,0.304081,-0.216145
441,-531,2.02527,2.14136,0,0,0,0,0,0,0,-1,1665,1555,2.02527,-2.14134
448,-531,1.8374,1.83325,0,0,0,0,0,0,0,-1,1672,1555,1.83744,-1.83327
455,-531,1.09595,1.74268,0,0,0,0,0,0,0,-1,1679,1555,1.0959,-1.74268
462,-531,-0.199219,0.315674,0,0,0,0,0,0,0,-1,1686,1555,-0.199251,-0.315687
469,-531,-0.0980225,0.234131,-0.00377853,0.0204732,0.00340002,0.0209408,-0.00424619,1.43411,0.0155702,0.0442682,1693,1555,-0.0980268,-0.234171
476,-531,-0.0894775,0.0336914,-0.00422533,0.0179636,0.00308853,0.0183855,-0.00464721,1.43504,0.0140644,0.0433002,1700,1555,-0.089518,-0.0337506
483,-531,-0.0805664,0.0236816,-0.00393753,0.0151973,0.00256046,0.015534,-0.00427422,1.44005,0.0120364,0.036362,1707,1555,-0.0805635,-0.0236605
490,-531,-0.0849609,0.0651855,-0.00292066,0.0121807,0.00185114,0.0124043,-0.00314427,1.45059,0.00949282,0.0250895,1714,1555,-0.0849377,-0.0651511
497,-531,-0.0758057,0.0671387,-0.0015565,0.00859949,0.00136105,0.00877873,-0.00173574,1.43986,0.00650868,0.0124698,1721,1555,-0.0758513,-0.0671032
504,-531,-0.0668945,0.0803223,-0.000341928,0.00618091,0.000966949,0.00632123,-0.000482251,1.42668,0.00438375,0.0103186,1728,1555,-0.0668707,-0.0803568
511,-531,-0.052124,0.0949707,0.000345272,0.00424044,0.000533737,0.00431226,0.000273461,1.43705,0.00278816,0.0122517,1735,1555,-0.0521602,-0.0949344
518,-531,-0.05896,0.0762939,0.000710334,0.00290124,0.000256211,0.0029308,0.000680771,1.45592,0.00177111,0.0123135,1742,1555,-0.0589414,-0.0762741
525,-531,-0.043335,0.0703125,0.000833867,0.00148927,8.26719e-05,0.00149953,0.0008236,1.44723,0.000867154,0.0123052,1749,1555,-0.0432809,-0.0703636
532,-531,-0.0280762,0.0749512,0.000416012,0.000602787,-0.000344429,0.000866264,0.000152535,-0.917784,0.000533977,0.00995304,1756,1555,-0.0280708,-0.0749937
539,-531,-0.0432129,0.0585938,-0.00015932,0.000113885,-0.00088081,0.000868623,-0.000914057,-0.862329,0.00102934,0.0119621,1763,1555,-0.0431916,-0.0586233
546,-531,-0.0517578,0.0412598,-0.000461951,1.04524e-05,-0.00123703,0.00103363,-0.00148513,-0.879734,0.00146197,0.0158575,1770,1555,-0.0517854,-0.0412774
553,-531,-0.0432129,0.0386963,-0.000365107,-0.000254052,-0.00158479,0.00127618,-0.00189534,-0.80291,0.00184267,0.0297488,1777,1555,-0.0431829,-0.0386569
560,-531,-0.0635986,0.0563965,0.000321709,0.000289462,-0.00165851,0.00196417,-0.001353,-0.780538,0.00192598,0.0299942,1784,1555,-0.063583,-0.0564048
567,-531,-0.0931396,0.0510254,0.000939895,0.000582586,-0.00177861,0.0025488,-0.00102632,-0.735343,0.00212556,0.0166807,1791,1555,-0.0931393,-0.0510538
574,-531,-0.057251,0.0627441,0.00143734,0.00102163,-0.00183781,0.00307901,-0.000620043,-0.729088,0.00228754,0.0114424,1798,1555,-0.057196,-0.0627431
581,-531,-0.0300293,0.0438232,0.00198053,0.00142581,-0.00194517,0.00366802,-0.00026168,-0.71458,0.00253707,0.00988372,1805,1555,-0.0300888,-0.0438389
588,-531,-0.0561523,0.0113525,0.00278755,0.00172704,-0.00188651,0.00421691,0.000297672,-0.648394,0.00271749,0.0129965,1812,1555,-0.0561616,-0.0113778
595,-531,-0.0804443,0.0389404,0.00367718,0.00222746,-0.00148997,0.00460925,0.00129538,-0.559007,0.00274489,0.026341,1819,1555,-0.0804443,-0.0389971
602,-531,0.0695801,0.161865,0.00407734,0.00240755,-0.000733815,0.00435399,0.0021309,-0.360526,0.00251397,0.0386979,1826,1555,0.069587,-0.161878
609,-531,0.260254,0.312988,0.00453848,0.00157354,0.000221381,0.00455492,0.0015571,0.0741185,0.00267327,0.0379067,1833,1555,0.260307,-0.312929
616,-531,0.555542,0.286255,0.00487598,0.000427978,0.00186885,0.00555694,-0.00025298,0.349421,0.00379177,0.0375124,1840,1555,0.55554,-0.286246
623,-531,0.49939,0.295532,0.00487456,-0.0011984,0.00386772,0.00675534,-0.00307918,0.452609,0.00580869,0.0401001,1847,1555,0.499367,-0.295579
630,-531,0.34729,0.443604,0.00448851,-0.00399293,0.00661781,0.00810776,-0.00761218,0.500456,0.00907741,0.0434487,1854,1555,0.347309,-0.443564
637,-531,0.321899,0.442627,0.00393632,-0.00821564,0.0101838,0.00971902,-0.0139983,0.516429,0.0137673,0.0422809,1861,1555,0.321945,-0.442646
644,-531,0,0,0,0,0,0,0,0,0,-1,1868,1555,0,0
651,-531,0,0,0,0,0,0,0,0,0,-1,1875,1555,0,0
658,-531,0,0,0,0,0,0,0,0,0,-1,1882,1555,0,0
665,-531,0,0,0,0,0,0,0,0,0,-1,1889,1555,0,0
672,-531,0,0,0,0,0,0,0,0,0,-1,1896,1555,0,0
679,-531,0,0,0,0,0,0,0,0,0,-1,1903,1555,0,0
686,-531,0,0,0,0,0,0,0,0,0,-1,1910,1555,0,0
693,-531,0,0,0,0,0,0,0,0,0,-1,1917,1555,0,0
700,-531,0,0,0,0,0,0,0,0,0,-1,1924,1555,0,0
707,-531,0,0,0,0,0,0,0,0,0,-1,1931,1555,0,0
714,-531,0,0,0,0,0,0,0,0,0,-1,1938,1555,0,0
721,-531,0,0,0,0,0,0,0,0,0,-1,1945,1555,0,0
728,-531,0,0,0,0,0,0,0,0,0,-1,1952,1555,0,0
735,-531,0,0,0,0,0,0,0,0,0,-1,1959,1555,0,0
742,-531,0,0,0,0,0,0,0,0,0,-1,1966,1555,0,0
749,-531,0,0,0,0,0,0,0,0,0,-1,1973,1555,0,0
756,-531,0,0,0,0,0,0,0,0,0,-1,1980,1555,0,0
763,-531,0,0,0,0,0,0,0,0,0,-1,1987,1555,0,0
770,-531,0,0,0,0,0,0,0,0,0,-1,1994,1555,0,0
777,-531,0,0,0,0,0,0,0,0,0,-1,2001,1555,0,0
784,-531,0,0,0,0,0,0,0,0,0,-1,2008,1555,0,0
791,-531,0,0,0,0,0,0,0,0,0,-1,2015,1555,0,0
798,-531,0,0,0,0,0,0,0,0,0,-1,2022,1555,0,0
805,-531,0,0,0,0,0,0,0,0,0,-1,2029,1555,0,0
812,-531,0,0,0,0,0,0,0,0,0,-1,2036,1555,0,0
-700,-538,0,0,0,0,0,0,0,0,0,-1,524,1562,0,0
-693,-538,0,0,0,0,0,0,0,0,0,-1,531,1562,0,0
-686,-538,0,0,0,0,0,0,0,0,0,-1,538,1562,0,0
-679,-538,0,0,0,0,0,0,0,0,0,-1,545,1562,0,0
-672,-538,0,0,0,0,0,0,0,0,0,-1,552,1562,0,0
-665,-538,0,0,0,0,0,0,0,0,0,-1,559,1562,0,0
-658,-538,0,0,0,0,0,0,0,0,0,-1,566,1562,0,0
-651,-538,0,0,0,0,0,0,0,0,0,-1,573,1562,0,0
-644,-538,0,0,0,0,0,0,0,0,0,-1,580,1562,0,0
-637,-538,0,0,0,0,0,0,0,0,0,-1,587,1562,0,0
-630,-538,0,0,0,0,0,0,0,0,0,-1,594,1562,0,0
-623,-538,0,0,0,0,0,0,0,0,0,-1,601,1562,0,0
-616,-538,0,0,0,0,0,0,0,0,0,-1,608,1562,0,0
-609,-538,0,0,0,0,0,0,0,0,0,-1,615,1562,0,0
-602,-538,0,0,0,0,0,0,0,0,0,-1,622,1562,0,0
-595,-538,0,0,0,0,0,0,0,0,0,-1,629,1562,0,0
-588,-538,0,0,0,0,0,0,0,0,0,-1,636,1562,0,0
-581,-538,0,0,0,0,0,0,0,0,0,-1,643,1562,0,0
-574,-538,0,0,0,0,0,0,0,0,0,-1,650,1562,0,0
-567,-538,0,0,0,0,0,0,0,0,0,-1,657,1562,0,0
-560,-538,0,0,0,0,0,0,0,0,0,-1,664,1562,0,0
-553,-538,0,0,0,0,0,0,0,0,0,-1,671,1562,0,0
-546,-538,0,0,0,0,0,0,0,0,0,-1,678,1562,0,0
-539,-538,0,0,0,0,0,0,0,0,0,-1,685,1562,0,0
-532,-538,0,0,0,0,0,0,0,0,0,-1,692,1562,0,0
-525,-538,0,0,0,0,0,0,0,0,0,-1,699,1562,0,0
-518,-538,0,0,0,0,0,0,0,0,0,-1,706,1562,0,0
-511,-538,2.47266,-1.92139,0,0,0,0,0,0,0,-1,713,1562,2.47264,1.92142
-504,-538,1.40143,-1.05688,-0.0633691,0.0202085,0.0335579,0.0320148,-0.0751754,1.2325,0.0635366,0.0426249,720,1562,1.40145,1.05686
-497,-538,0.742981,-0.499756,-0.0490089,0.0211067,0.025352,0.0293129,-0.0572151,1.25775,0.0508154,0.0451677,727,1562,0.742972,0.499754
-490,-538,0.34375,-0.0454102,-0.0370875,0.0225517,0.0184806,0.027814,-0.0423498,1.29339,0.0407978,0.0466887,734,1562,0.34375,0.0453874
-483,-538,-0.278625,0.275146,-0.0274078,0.0235086,0.0130297,0.0266492,-0.0305484,1.33427,0.0330486,0.0446614,741,1562,-0.27861,-0.275158
-476,-538,-0.298218,0.346436,-0.0200082,0.0233882,0.00885562,0.0251257,-0.0217458,1.37705,0.0270847,0.0410501,748,1562,-0.298208,-0.346415
-469,-538,0.0090332,-0.34729,-0.0145003,0.022313,0.00581668,0.0232102,-0.0153975,1.41776,0.0224418,0.0446471,755,1562,0.00902166,0.347342
-462,-538,-0.0905762,-0.139526,-0.0103286,0.0200629,0.00375374,0.0205196,-0.0107854,1.44971,0.0183629,0.0419945,762,1562,-0.0905983,0.139574
-455,-538,-0.0311279,0.0222168,-0.0073444,0.0175313,0.00234447,0.0177504,-0.00756343,1.47764,0.0150042,0.0360155,769,1562,-0.0311293,-0.0222661
-448,-538,0.000976563,0.0512695,-0.00483205,0.0155258,0.00112398,0.0155876,-0.00489391,1.51581,0.0123506,0.0146508,776,1562,0.00100285,-0.0512178
-441,-538,-0.0309448,0.0560303,-0.00309496,0.0129952,0.000438356,0.0130071,-0.00310689,1.54358,0.00987139,0.0126129,783,1562,-0.0309166,-0.0560336
-434,-538,-0.0444336,0.0710449,-0.00217983,0.0107346,4.45538e-05,0.0107348,-0.00217999,1.56735,0.00798304,0.0106226,790,1562,-0.044447,-0.0710718
-427,-538,-0.0543213,0.0855713,-0.00182388,0.00895168,-0.000165316,0.00895422,-0.00182642,-1.55546,0.00666226,0.0111328,797,1562,-0.0543343,-0.0855992
-420,-538,-0.0612183,0.086792,-0.00199199,0.0047494,0.000397647,0.00477278,-0.00201537,1.51208,0.00402547,0.0140302,804,1562,-0.0612447,-0.0867954
-413,-538,-0.0542603,0.0765381,-0.00212,0.00376751,0.000723423,0.0038551,-0.00220759,1.45031,0.00354311,0.0146576,811,1562,-0.0542828,-0.0765137
-406,-538,-0.0259399,0.0623779,-0.00155747,0.00330033,0.000504214,0.00335211,-0.00160925,1.46846,0.00292276,0.0124696,818,1562,-0.0259449,-0.0624244
-399,-538,-0.0217285,0.0577393,-0.000768864,0.00347648,-3.33981e-05,0.00347674,-0.000769126,-1.56293,0.00261222,0.0121087,825,1562,-0.0216989,-0.0577324
-392,-538,-0.0111694,0.0592041,0.000128718,0.00354123,-0.000555811,0.00362947,4.04727e-05,-1.41334,0.00240627,0.0134781,832,1562,-0.0111566,-0.0592234
-385,-538,-0.0167236,0.0649414,0.00107832,0.00343488,-0.000974273,0.00378551,0.000727697,-1.22534,0.00231947,0.0114009,839,1562,-0.0167433,-0.0649385
-378,-538,-0.0303955,0.067627,0.00168765,0.00329075,-0.00130243,0.00401852,0.000959888,-1.06124,0.00242327,0.00910414,846,1562,-0.0304028,-0.0676019
-371,-538,-0.0368652,0.0720215,0.00205442,0.00300992,-0.00170446,0.00430231,0.000762022,-0.92204,0.00265096,0.00906426,853,1562,-0.0368915,-0.0720505
-364,-538,-0.0384521,0.0556641,0.00153628,0.00213672,-0.00184051,0.00370134,-2.83384e-05,-0.866245,0.00247706,0.00815699,860,1562,-0.0384587,-0.0556782
-357,-538,-0.0551758,0.0344238,0.000764466,0.00117392,-0.00199094,0.00297063,-0.00103225,-0.836633,0.00239969,0.0139498,867,1562,-0.0551593,-0.0343865
-350,-538,-0.0546265,0.0438232,-0.00033418,0.000511686,-0.00248446,0.00260896,-0.00243145,-0.869706,0.00291068,0.0270983,874,1562,-0.0546211,-0.043831
-343,-538,-0.0720215,0.0355225,-0.00184275,-0.000640756,-0.00284021,0.00166135,-0.00414485,-0.889661,0.00345291,0.0375107,881,1562,-0.0720299,-0.0355021
-336,-538,0.00250244,0.0175781,-0.00377145,-0.00166573,-0.00320939,0.000659088,-0.00609626,-0.943895,0.00430074,0.0408418,888,1562,0.00251878,-0.0175199
-329,-538,0.222595,0.0794678,-0.00647685,-0.00166725,-0.00343579,0.000121718,-0.00826582,-1.09074,0.00555156,0.0409663,895,1562,0.22262,-0.0795162
-322,-538,0.105164,0.0693359,-0.0101672,-0.000760918,-0.0035549,0.000431437,-0.0113595,-1.24718,0.00772086,0.0428102,902,1562,0.105146,-0.0693679
-315,-538,-0.0301514,0.0805664,-0.0130633,0.00039531,-0.0033081,0.00116448,-0.0138325,-1.34235,0.00963331,0.0441215,909,1562,-0.0301517,-0.0806092
-308,-538,-1.21869,0.481567,-0.0141777,0.00154442,-0.00260064,0.00196343,-0.0145967,-1.41105,0.0104473,0.0450342,916,1562,-1.2187,-0.481576
-301,-538,-1.40601,0.848877,-0.0141926,0.00338792,-0.00186779,0.00358417,-0.0143888,-1.46611,0.010984,0.042492,923,1562,-1.40598,-0.848844
-294,-538,-1.63007,0.434692,0,0,0,0,0,0,0,-1,930,1562,-1.63005,-0.434681
-287,-538,-1.45984,0.545288,-0.0144176,0.0083755,0.00224241,0.00859401,-0.0146361,1.47366,0.0135623,0.0474832,937,1562,-1.45984,-0.545315
-280,-538,-1.56976,1.01099,-0.0118639,0.0119494,0.00443338,0.012748,-0.0126625,1.39258,0.0146708,0.0445071,944,1562,-1.56977,-1.01101
-273,-538,-1.98724,1.32312,-0.00681935,0.0145568,0.00700035,0.0166452,-0.00890782,1.28087,0.0149768,0.0458456,951,1562,-1.98727,-1.32314
-266,-538,-2.41522,1.35132,0.000770995,0.0145842,0.00993339,0.0197761,-0.00442089,1.08918,0.0148783,0.0486098,958,1562,-2.41522,-1.35132
-259,-538,-2.81769,1.34656,0,0,0,0,0,0,0,-1,965,1562,-2.81768,-1.34657
-252,-538,0,0,0,0,0,0,0,0,0,-1,972,1562,0,0
-245,-538,0,0,0,0,0,0,0,0,0,-1,979,1562,0,0
-238,-538,0,0,0,0,0,0,0,0,0,-1,986,1562,0,0
-231,-538,0,0,0,0,0,0,0,0,0,-1,993,1562,0,0
-224,-538,0,0,0,0,0,0,0,0,0,-1,1000,1562,0,0
-217,-538,0,0,0,0,0,0,0,0,0,-1,1007,1562,0,0
-210,-538,0,0,0,0,0,0,0,0,0,-1,1014,1562,0,0
-203,-538,0,0,0,0,0,0,0,0,0,-1,1021,1562,0,0
-196,-538,0,0,0,0,0,0,0,0,0,-1,1028,1562,0,0
-189,-538,0,0,0,0,0,0,0,0,0,-1,1035,1562,0,0
-182,-538,0,0,0,0,0,0,0,0,0,-1,1042,1562,0,0
-175,-538,0,0,0,0,0,0,0,0,0,-1,1049,1562,0,0
-168,-538,0,0,0,0,0,0,0,0,0,-1,1056,1562,0,0
-161,-538,0,0,0,0,0,0,0,0,0,-1,1063,1562,0,0
-154,-538,0,0,0,0,0,0,0,0,0,-1,1070,1562,0,0
-147,-538,0,0,0,0,0,0,0,0,0,-1,1077,1562,0,0
-140,-538,0,0,0,0,0,0,0,0,0,-1,1084,1562,0,0
-133,-538,0,0,0,0,0,0,0,0,0,-1,1091,1562,0,0
-126,-538,0,0,0,0,0,0,0,0,0,-1,1098,1562,0,0
-119,-538,0,0,0,0,0,0,0,0,0,-1,1105,1562,0,0
-112,-538,0,0,0,0,0,0,0,0,0,-1,1112,1562,0,0
-105,-538,0,0,0,0,0,0,0,0,0,-1,1119,1562,0,0
-98,-538,0,0,0,0,0,0,0,0,0,-1,1126,1562,0,0
-91,-538,0,0,0,0,0,0,0,0,0,-1,1133,1562,0,0
-84,-538,0,0,0,0,0,0,0,0,0,-1,1140,1562,0,0
-77,-538,0,0,0,0,0,0,0,0,0,-1,1147,1562,0,0
-70,-538,0,0,0,0,0,0,0,0,0,-1,1154,1562,0,0
-63,-538,0,0,0,0,0,0,0,0,0,-1,1161,1562,0,0
-56,-538,0,0,0,0,0,0,0,0,0,-1,1168,1562,0,0
-49,-538,0,0,0,0,0,0,0,0,0,-1,1175,1562,0,0
-42,-538,0,0,0,0,0,0,0,0,0,-1,1182,1562,0,0
-35,-538,0,0,0,0,0,0,0,0,0,-1,1189,1562,0,0
-28,-538,0,0,0,0,0,0,0,0,0,-1,1196,1562,0,0
-21,-538,0,0,0,0,0,0,0,0,0,-1,1203,1562,0,0
-14,-538,0,0,0,0,0,0,0,0,0,-1,1210,1562,0,0
-7,-538,0,0,0,0,0,0,0,0,0,-1,1217,1562,0,0
0,-538,0,0,0,0,0,0,0,0,0,-1,1224,1562,0,0
7,-538,0,0,0,0,0,0,0,0,0,-1,1231,1562,0,0
14,-538,0,0,0,0,0,0,0,0,0,-1,1238,1562,0,0
21,-538,0,0,0,0,0,0,0,0,0,-1,1245,1562,0,0
28,-538,0,0,0,0,0,0,0,0,0,-1,1252,1562,0,0
35,-538,0,0,0,0,0,0,0,0,0,-1,1259,1562,0,0
42,-538,0,0,0,0,0,0,0,0,0,-1,1266,1562,0,0
49,-538,0,0,0,0,0,0,0,0,0,-1,1273,1562,0,0
56,-538,0,0,0,0,0,0,0,0,0,-1,1280,1562,0,0
63,-538,0,0,0,0,0,0,0,0,0,-1,1287,1562,0,0
70,-538,0,0,0,0,0,0,0,0,0,-1,1294,1562,0,0
77,-538,0,0,0,0,0,0,0,0,0,-1,1301,1562,0,0
84,-538,0,0,0,0,0,0,0,0,0,-1,1308,1562,0,0
91,-538,0,0,0,0,0,0,0,0,0,-1,1315,1562,0,0
98,-538,0,0,0,0,0,0,0,0,0,-1,1322,1562,0,0
105,-538,0,0,0,0,0,0,0,0,0,-1,1329,1562,0,0
112,-538,0,0,0,0,0,0,0,0,0,-1,1336,1562,0,0
119,-538,0,0,0,0,0,0,0,0,0,-1,1343,1562,0,0
126,-538,0,0,0,0,0,0,0,0,0,-1,1350,1562,0,0
133,-538,0,0,0,0,0,0,0,0,0,-1,1357,1562,0,0
140,-538,0,0,0,0,0,0,0,0,0,-1,1364,1562,0,0
147,-538,0,0,0,0,0,0,0,0,0,-1,1371,1562,0,0
154,-538,0,0,0,0,0,0,0,0,0,-1,1378,1562,0,0
161,-538,0,0,0,0,0,0,0,0,0,-1,1385,1562,0,0
168,-538,0,0,0,0,0,0,0,0,0,-1,1392,1562,0,0
175,-538,0,0,0,0,0,0,0,0,0,-1,1399,1562,0,0
182,-538,0,0,0,0,0,0,0,0,0,-1,1406,1562,0,0
189,-538,0,0,0,0,0,0,0,0,0,-1,1413,1562,0,0
196,-538,0,0,0,0,0,0,0,0,0,-1,1420,1562,0,0
203,-538,0,0,0,0,0,0,0,0,0,-1,1427,1562,0,0
210,-538,0,0,0,0,0,0,0,0,0,-1,1434,1562,0,0
217,-538,0,0,0,0,0,0,0,0,0,-1,1441,1562,0,0
224,-538,0,0,0,0,0,0,0,0,0,-1,1448,1562,0,0
231,-538,0,0,0,0,0,0,0,0,0,-1,1455,1562,0,0
238,-538,0,0,0,0,0,0,0,0,0,-1,1462,1562,0,0
245,-538,0,0,0,0,0,0,0,0,0,-1,1469,1562,0,0
252,-538,0,0,0,0,0,0,0,0,0,-1,1476,1562,0,0
259,-538,0,0,0,0,0,0,0,0,0,-1,1483,1562,0,0
266,-538,0,0,0,0,0,0,0,0,0,-1,1490,1562,0,0
273,-538,0,0,0,0,0,0,0,0,0,-1,1497,1562,0,0
280,-538,0,0,0,0,0,0,0,0,0,-1,1504,1562,0,0
287,-538,0,0,0,0,0,0,0,0,0,-1,1511,1562,0,0
294,-538,0,0,0,0,0,0,0,0,0,-1,1518,1562,0,0
301,-538,0,0,0,0,0,0,0,0,0,-1,1525,1562,0,0
308,-538,0,0,0,0,0,0,0,0,0,-1,1532,1562,0,0
315,-538,0,0,0,0,0,0,0,0,0,-1,1539,1562,0,0
322,-538,0,0,0,0,0,0,0,0,0,-1,1546,1562,0,0
329,-538,0,0,0,0,0,0,0,0,0,-1,1553,1562,0,0
336,-538,0,0,0,0,0,0,0,0,0,-1,1560,1562,0,0
343,-538,0,0,0,0,0,0,0,0,0,-1,1567,1562,0,0
350,-538,0,0,0,0,0,0,0,0,0,-1,1574,1562,0,0
357,-538,0,0,0,0,0,0,0,0,0,-1,1581,1562,0,0
364,-538,0,0,0,0,0,0,0,0,0,-1,1588,1562,0,0
371,-538,0,0,0,0,0,0,0,0,0,-1,1595,1562,0,0
378,-538,-0.498535,-0.836548,0,0,0,0,0,0,0,-1,1602,1562,-0.498591,0.836565
385,-538,-0.891113,-0.413452,0.0782062,-0.0064289,-0.0441411,0.0970377,-0.0252604,-0.403243,0.0745523,0.0491354,1609,1562,-0.891113,0.413403
392,-538,-1.2832,0.0177002,0.0694195,-0.0090253,-0.032681,0.0812505,-0.0208562,-0.347336,0.0622939,0.0465137,1616,1562,-1.28325,-0.0176909
399,-538,1.34143,-1.0376,0.0623404,-0.00607929,-0.022928,0.0693131,-0.013052,-0.295228,0.0511179,0.043317,1623,1562,1.34139,1.03757
406,-538,1.29285,-1.11011,0.0527091,-0.000979012,-0.0149762,0.0566041,-0.004874,-0.254442,0.0394612,0.0433763,1630,1562,1.29287,1.1101
413,-538,-1.04126,-0.00964355,0,0,0,0,0,0,0,-1,1637,1562,-1.04128,0.0096046
420,-538,-0.824951,0.20813,0.0297341,0.00853424,-0.00602212,0.0313254,0.00694301,-0.258327,0.018997,0.04438,1644,1562,-0.824975,-0.208082
427,-538,-0.311035,0.245605,0.0205277,0.0132347,-0.0029372,0.0215635,0.0121988,-0.339037,0.0124855,0.0433343,1651,1562,-0.310987,-0.245596
434,-538,0.0859375,0.216064,0.0130338,0.016795,-0.000531937,0.0168688,0.01296,-1.43297,0.0101958,0.0439342,1658,1562,0.0858937,-0.216105
441,-538,1.21851,1.61816,0,0,0,0,0,0,0,-1,1665,1562,1.21851,-1.61819
448,-538,1.08215,1.24304,0.00224795,0.0200116,0.00441271,0.0210474,0.00121217,1.34024,0.0136455,0.047627,1672,1562,1.0822,-1.24308
455,-538,0.772827,0.912109,-0.00168778,0.0218758,0.00413697,0.022581,-0.00239299,1.40195,0.0159118,0.0441224,1679,1562,0.772883,-0.912153
462,-538,0.379883,0.803833,-0.00271347,0.0221497,0.00349837,0.0226326,-0.00319633,1.43364,0.0162589,0.0403692,1686,1562,0.37987,-0.80383
469,-538,0.065918,0.505615,-0.0028805,0.0201624,0.00280284,0.0204984,-0.00321652,1.45148,0.0148543,0.0383392,1693,1562,0.0658794,-0.505596
476,-538,-0.0794678,0.0491943,-0.00342268,0.0175806,0.00256926,0.0178903,-0.00373241,1.45083,0.0133461,0.0354885,1700,1562,-0.0794127,-0.0491919
483,-538,-0.0562744,0.0697021,-0.00339019,0.0148264,0.0021043,0.0150663,-0.00363011,1.45727,0.0114477,0.0225952,1707,1562,-0.0563185,-0.069672
490,-538,-0.0380859,0.072876,-0.00269912,0.0118857,0.00149504,0.0120374,-0.00285079,1.46969,0.00912486,0.011017,1714,1562,-0.038038,-0.0729319
497,-538,-0.0467529,0.0596924,-0.00150153,0.00834161,0.00115447,0.0084752,-0.00163512,1.45559,0.00626669,0.00811786,1721,1562,-0.0468138,-0.0597322
504,-538,-0.0491943,0.0684814,-0.000289845,0.0060852,0.000999076,0.0062381,-0.000442749,1.41893,0.0043139,0.0083366,1728,1562,-0.049179,-0.0685297
511,-538,-0.050293,0.0775146,0.000382203,0.00421693,0.000726626,0.00435,0.000249135,1.38967,0.00282062,0.00901911,1735,1562,-0.0502427,-0.0775683
518,-538,-0.0516357,0.0776367,0.000755261,0.00288986,0.000550361,0.00302341,0.000621717,1.33275,0.00184365,0.00958045,1742,1562,-0.0516892,-0.0776049
525,-538,-0.0524902,0.0605469,0.000950899,0.00159851,0.000438621,0.0018199,0.000729509,1.10336,0.00105758,0.0108251,1749,1562,-0.0524726,-0.0605912
532,-538,-0.0458984,0.0544434,0.000708809,0.000848247,-1.97059e-05,0.000850978,0.000706078,-1.43307,0.000525718,0.0120635,1756,1562,-0.0459393,-0.0543829
539,-538,-0.0500488,0.0743408,0.000283534,0.000401956,-0.000661052,0.00100644,-0.000320954,-0.830064,0.000799711,0.0155127,1763,1562,-0.0500009,-0.0743479
546,-538,-0.0428467,0.0561523,0.000183915,0.000287016,-0.00116163,0.00139824,-0.000927307,-0.807572,0.0013518,0.0174972,1770,1562,-0.0428533,-0.0561329
553,-538,-0.00170898,0.0493164,0.000482369,9.47633e-05,-0.00168871,0.00198836,-0.00141123,-0.728266,0.00197216,0.0263424,1777,1562,-0.00170476,-0.0493012
560,-538,-0.0125732,0.0531006,0.00123595,0.000650236,-0.00208967,0.00305318,-0.00116699,-0.715779,0.00251633,0.0269594,1784,1562,-0.0125276,-0.053094
567,-538,-0.0738525,0.0316162,0.00193345,0.00101464,-0.00247724,0.00399352,-0.00104543,-0.693715,0.00307073,0.0181325,1791,1562,-0.0738165,-0.0316259
574,-538,-0.0477295,0.0570068,0.00252703,0.00154476,-0.00280412,0.0048827,-0.00081091,-0.698703,0.00355639,0.0106499,1798,1562,-0.047773,-0.0570356
581,-538,-0.0352783,0.048584,0.00319942,0.00210189,-0.00312915,0.00582756,-0.000526252,-0.698595,0.00407181,0.0118862,1805,1562,-0.035255,-0.0486095
588,-538,-0.127686,0.00427246,0.00413588,0.00258953,-0.00325035,0.00670375,2.16654e-05,-0.668632,0.00446196,0.027165,1812,1562,-0.127636,-0.00423543
595,-538,-0.158569,0.0488281,0.0051363,0.0033652,-0.00297931,0.00735888,0.00114261,-0.64094,0.00457288,0.0386091,1819,1562,-0.158556,-0.0487921
602,-538,0.0317383,0.256958,0.00560832,0.00387324,-0.00230796,0.00720641,0.00227515,-0.605623,0.00425378,0.0436065,1826,1562,0.0317014,-0.256933
609,-538,0.072998,0.371094,0.00604085,0.00336938,-0.00140383,0.00664288,0.00276735,-0.405125,0.00385301,0.0420763,1833,1562,0.0730096,-0.371061
616,-538,0.374878,0.203735,0.0062302,0.00290321,0.000471109,0.00629562,0.00283779,0.137989,0.00364065,0.0384036,1840,1562,0.374921,-0.203734
623,-538,0.241211,0.0330811,0.00578985,0.00187494,0.00291422,0.007343,0.000321791,0.489662,0.00479167,0.0400551,1847,1562,0.24125,-0.0330889
630,-538,0.0571289,0.0733643,0.0046154,-0.000187367,0.00626681,0.00892517,-0.00449714,0.602432,0.00788869,0.0407773,1854,1562,0.0571442,-0.0733385
637,-538,0,0,0,0,0,0,0,0,0,-1,1861,1562,0,0
644,-538,0,0,0,0,0,0,0,0,0,-1,1868,1562,0,0
651,-538,0,0,0,0,0,0,0,0,0,-1,1875,1562,0,0
658,-538,0,0,0,0,0,0,0,0,0,-1,1882,1562,0,0
665,-538,0,0,0,0,0,0,0,0,0,-1,1889,1562,0,0
672,-538,0,0,0,0,0,0,0,0,0,-1,1896,1562,0,0
679,-538,0,0,0,0,0,0,0,0,0,-1,1903,1562,0,0
686,-538,0,0,0,0,0,0,0,0,0,-1,1910,1562,0,0
693,-538,0,0,0,0,0,0,0,0,0,-1,1917,1562,0,0
700,-538,0,0,0,0,0,0,0,0,0,-1,1924,1562,0,0
707,-538,0,0,0,0,0,0,0,0,0,-1,1931,1562,0,0
714,-538,0,0,0,0,0,0,0,0,0,-1,1938,1562,0,0
721,-538,0,0,0,0,0,0,0,0,0,-1,1945,1562,0,0
728,-538,0,0,0,0,0,0,0,0,0,-1,1952,1562,0,0
735,-538,0,0,0,0,0,0,0,0,0,-1,1959,1562,0,0
742,-538,0,0,0,0,0,0,0,0,0,-1,1966,1562,0,0
749,-538,0,0,0,0,0,0,0,0,0,-1,1973,1562,0,0
756,-538,0,0,0,0,0,0,0,0,0,-1,1980,1562,0,0
763,-538,0,0,0,0,0,0,0,0,0,-1,1987,1562,0,0
770,-538,0,0,0,0,0,0,0,0,0,-1,1994,1562,0,0
777,-538,0,0,0,0,0,0,0,0,0,-1,2001,1562,0,0
784,-538,0,0,0,0,0,0,0,0,0,-1,2008,1562,0,0
791,-538,0,0,0,0,0,0,0,0,0,-1,2015,1562,0,0
798,-538,0,0,0,0,0,0,0,0,0,-1,2022,1562,0,0
805,-538,0,0,0,0,0,0,0,0,0,-1,2029,1562,0,0
812,-538,0,0,0,0,0,0,0,0,0,-1,2036,1562,0,0
-700,-545,0,0,0,0,0,0,0,0,0,-1,524,1569,0,0
-693,-545,0,0,0,0,0,0,0,0,0,-1,531,1569,0,0
-686,-545,0,0,0,0,0,0,0,0,0,-1,538,1569,0,0
-679,-545,0,0,0,0,0,0,0,0,0,-1,545,1569,0,0
-672,-545,0,0,0,0,0,0,0,0,0,-1,552,1569,0,0
-665,-545,0,0,0,0,0,0,0,0,0,-1,559,1569,0,0
-658,-545,0,0,0,0,0,0,0,0,0,-1,566,1569,0,0
-651,-545,0,0,0,0,0,0,0,0,0,-1,573,1569,0,0
-644,-545,0,0,0,0,0,0,0,0,0,-1,580,1569,0,0
-637,-545,0,0,0,0,0,0,0,0,0,-1,587,1569,0,0
-630,-545,0,0,0,0,0,0,0,0,0,-1,594,1569,0,0
-623,-545,0,0,0,0,0,0,0,0,0,-1,601,1569,0,0
-616,-545,0,0,0,0,0,0,0,0,0,-1,608,1569,0,0
-609,-545,0,0,0,0,0,0,0,0,0,-1,615,1569,0,0
-602,-545,0,0,0,0,0,0,0,0,0,-1,622,1569,0,0
-595,-545,0,0,0,0,0,0,0,0,0,-1,629,1569,0,0
-588,-545,0,0,0,0,0,0,0,0,0,-1,636,1569,0,0
-581,-545,0,0,0,0,0,0,0,0,0,-1,643,1569,0,0
-574,-545,0,0,0,0,0,0,0,0,0,-1,650,1569,0,0
-567,-545,0,0,0,0,0,0,0,0,0,-1,657,1569,0,0
-560,-545,0,0,0,0,0,0,0,0,0,-1,664,1569,0,0
-553,-545,0,0,0,0,0,0,0,0,0,-1,671,1569,0,0
-546,-545,0,0,0,0,0,0,0,0,0,-1,678,1569,0,0
-539,-545,0,0,0,0,0,0,0,0,0,-1,685,1569,0,0
-532,-545,0,0,0,0,0,0,0,0,0,-1,692,1569,0,0
-525,-545,0,0,0,0,0,0,0,0,0,-1,699,1569,0,0
-518,-545,0,0,0,0,0,0,0,0,0,-1,706,1569,0,0
-511,-545,0,0,0,0,0,0,0,0,0,-1,713,1569,0,0
-504,-545,1.16888,-0.896973,-0.0703196,0.0329959,0.0396769,0.0464748,-0.0837985,1.24331,0.0762353,0.0427147,720,1569,1.16886,0.896953
-497,-545,0.559814,-0.235474,-0.0546385,0.034531,0.0306195,0.0440328,-0.0641403,1.2699,0.0628124,0.043207,727,1569,0.55979,0.235422
-490,-545,0.486633,0.128784,-0.0418488,0.0361619,0.0229633,0.0424195,-0.0481064,1.30475,0.0522995,0.0459709,734,1569,0.486662,-0.128829
-483,-545,0.226379,0.345337,-0.0317136,0.0367515,0.0170125,0.0407458,-0.0357079,1.34019,0.0441725,0.0440634,741,1569,0.226399,-0.345353
-476,-545,-0.0661621,0.204468,-0.0241859,0.03556,0.0125155,0.0380758,-0.0267017,1.37243,0.037591,0.0428352,748,1569,-0.0661643,-0.204507
-469,-545,-0.301208,0.337646,-0.0185786,0.0329433,0.00924275,0.0345512,-0.0201865,1.39855,0.0319635,0.0449563,755,1569,-0.301239,-0.337631
-462,-545,-0.355652,0.176025,-0.0142405,0.0290258,0.00691324,0.0301036,-0.0153183,1.41614,0.0266834,0.0436503,762,1569,-0.355663,-0.176084
-455,-545,-0.0828857,0.03125,-0.0110427,0.0248309,0.00521008,0.0255723,-0.011784,1.42945,0.022052,0.0393478,769,1569,-0.0829066,-0.0312106
-448,-545,0.0425415,0.0175781,-0.00822776,0.0212391,0.0036473,0.0216839,-0.00867249,1.44946,0.0180549,0.0258584,776,1569,0.0425267,-0.0175903
-441,-545,-0.0285645,0.0714111,-0.00612697,0.0173365,0.00258566,0.0176181,-0.00640853,1.46233,0.0143662,0.0157523,783,1569,-0.028579,-0.0714125
-434,-545,-0.0423584,0.0814209,-0.00475806,0.0139262,0.0017865,0.0140955,-0.00492734,1.47632,0.0114001,0.0117823,790,1569,-0.042348,-0.0814258
-427,-545,-0.0569458,0.0805664,-0.00386286,0.0111822,0.00118251,0.0112745,-0.00395523,1.49284,0.00912511,0.0147076,797,1569,-0.0569373,-0.0806053
-420,-545,-0.0384521,0.0638428,-0.00354271,0.00530444,0.00151282,0.00555597,-0.00379424,1.40604,0.00543019,0.0206271,804,1569,-0.0384627,-0.063888
-413,-545,-0.0388794,0.0650635,-0.00325208,0.00386696,0.00153566,0.0041841,-0.00356921,1.36715,0.00448106,0.0199857,811,1569,-0.0388626,-0.065013
-406,-545,-0.019043,0.048584,-0.00228053,0.00294497,0.000983816,0.00312406,-0.00245962,1.39073,0.00323134,0.0148985,818,1569,-0.0190442,-0.0486302
-399,-545,-0.0172119,0.0493164,-0.0014125,0.00241157,0.000564749,0.00249323,-0.00149416,1.4272,0.00232609,0.0108947,825,1569,-0.0172414,-0.0493644
-392,-545,-0.0181274,0.0667725,-0.000536996,0.00232572,3.16016e-05,0.00232607,-0.000537345,1.55976,0.00175743,0.010856,832,1569,-0.0181336,-0.0667651
-385,-545,-0.0178223,0.0808105,0.000176554,0.00218818,-0.000131978,0.0021968,0.000167932,-1.50556,0.00141189,0.0091397,839,1569,-0.0178332,-0.0807545
-378,-545,-0.0349121,0.0837402,0.000425078,0.00224119,-0.000131872,0.00225071,0.000415552,-1.49869,0.00138293,0.0108246,846,1569,-0.0349277,-0.0837742
-371,-545,-0.0498657,0.0895996,0.000450994,0.00216244,-0.000138072,0.00217351,0.000439927,-1.49081,0.0013269,0.0134014,853,1569,-0.0498472,-0.0896243
-364,-545,-0.0323486,0.0693359,-0.000309434,0.00163036,2.25788e-05,0.00163063,-0.000309696,1.55916,0.00120367,0.00872462,860,1569,-0.0323384,-0.0693772
-357,-545,-0.0317383,0.0556641,-0.00131709,0.00114451,0.000105601,0.00114903,-0.00132161,1.528,0.00142759,0.00913868,867,1569,-0.0317625,-0.0556068
-350,-545,-0.0368652,0.0543213,-0.00253422,0.00102455,-0.000194416,0.00103514,-0.00254481,-1.51638,0.00212726,0.0124471,874,1569,-0.0368355,-0.0542682
-343,-545,-0.0786133,0.0740967,-0.00398398,0.000573567,-0.000444712,0.000616555,-0.00402697,-1.47443,0.002912,0.0196326,881,1569,-0.0786051,-0.0740767
-336,-545,-0.048584,0.0689697,-0.0055954,0.000255641,-0.000843472,0.000374808,-0.00571456,-1.43044,0.00394059,0.0274202,888,1569,-0.0486052,-0.0689876
-329,-545,0.0458374,0.0964355,-0.00769207,0.000733225,-0.00124929,0.000914566,-0.00787341,-1.42665,0.00557884,0.0357372,895,1569,0.0458091,-0.0964086
-322,-545,0.00469971,0.141479,-0.0105237,0.001929,-0.00166988,0.00214904,-0.0107438,-1.43978,0.00797595,0.0451529,902,1569,0.00470858,-0.141484
-315,-545,-0.869446,0.748047,0,0,0,0,0,0,0,-1,909,1569,-0.869445,-0.748005
-308,-545,-0.913635,0.676758,-0.0125774,0.00404098,-0.00147801,0.00417141,-0.0127078,-1.48278,0.0101522,0.0467554,916,1569,-0.91361,-0.676799
-301,-545,-0.907959,0.573242,-0.011653,0.00548307,-0.00121944,0.00556941,-0.0117393,-1.50011,0.0102026,0.0452723,923,1569,-0.907952,-0.573261
-294,-545,-0.990051,0.452393,-0.0108623,0.0070409,-0.000179798,0.0070427,-0.0108641,-1.56075,0.0104167,0.0439842,930,1569,-0.990047,-0.452434
-287,-545,-1.08997,0.506104,-0.00909132,0.00891853,0.00148142,0.00903958,-0.00921236,1.48927,0.0105379,0.0449138,937,1569,-1.08999,-0.506091
-280,-545,-1.41138,0.605469,-0.0058208,0.0112791,0.00315867,0.0118439,-0.00638561,1.39385,0.0106809,0.0455643,944,1569,-1.41138,-0.605493
-273,-545,-1.62549,0.852295,4.30898e-05,0.0125557,0.00518089,0.0144224,-0.0018236,1.22497,0.0102768,0.0490642,951,1569,-1.62548,-0.852266
-266,-545,-1.84479,1.03223,0,0,0,0,0,0,0,-1,958,1569,-1.8448,-1.03227
-259,-545,0.77417,-1.35193,0.0186478,0.0119203,0.00736722,0.0233828,0.00718525,0.571243,0.0138303,0.0434747,965,1569,0.774152,1.3519
-252,-545,1.323,-0.853882,0.0323311,0.0115345,0.00512899,0.0335273,0.0103384,0.229118,0.0198253,0.0456838,972,1569,1.32301,0.853853
-245,-545,1.86823,-1.06506,0,0,0,0,0,0,0,-1,979,1569,1.86822,1.06509
-238,-545,0,0,0,0,0,0,0,0,0,-1,986,1569,0,0
-231,-545,0,0,0,0,0,0,0,0,0,-1,993,1569,0,0
-224,-545,0,0,0,0,0,0,0,0,0,-1,1000,1569,0,0
-217,-545,0,0,0,0,0,0,0,0,0,-1,1007,1569,0,0
-210,-545,0,0,0,0,0,0,0,0,0,-1,1014,1569,0,0
-203,-545,0,0,0,0,0,0,0,0,0,-1,1021,1569,0,0
-196,-545,0,0,0,0,0,0,0,0,0,-1,1028,1569,0,0
-189,-545,0,0,0,0,0,0,0,0,0,-1,1035,1569,0,0
-182,-545,0,0,0,0,0,0,0,0,0,-1,1042,1569,0,0
-175,-545,0,0,0,0,0,0,0,0,0,-1,1049,1569,0,0
-168,-545,0,0,0,0,0,0,0,0,0,-1,1056,1569,0,0
-161,-545,0,0,0,0,0,0,0,0,0,-1,1063,1569,0,0
-154,-545,0,0,0,0,0,0,0,0,0,-1,1070,1569,0,0
-147,-545,0,0,0,0,0,0,0,0,0,-1,1077,1569,0,0
-140,-545,0,0,0,0,0,0,0,0,0,-1,1084,1569,0,0
-133,-545,0,0,0,0,0,0,0,0,0,-1,1091,1569,0,0
-126,-545,0,0,0,0,0,0,0,0,0,-1,1098,1569,0,0
-119,-545,0,0,0,0,0,0,0,0,0,-1,1105,1569,0,0
-112,-545,0,0,0,0,0,0,0,0,0,-1,1112,1569,0,0
-105,-545,0,0,0,0,0,0,0,0,0,-1,1119,1569,0,0
-98,-545,0,0,0,0,0,0,0,0,0,-1,1126,1569,0,0
-91,-545,0,0,0,0,0,0,0,0,0,-1,1133,1569,0,0
-84,-545,0,0,0,0,0,0,0,0,0,-1,1140,1569,0,0
-77,-545,0,0,0,0,0,0,0,0,0,-1,1147,1569,0,0
-70,-545,0,0,0,0,0,0,0,0,0,-1,1154,1569,0,0
-63,-545,0,0,0,0,0,0,0,0,0,-1,1161,1569,0,0
-56,-545,0,0,0,0,0,0,0,0,0,-1,1168,1569,0,0
-49,-545,0,0,0,0,0,0,0,0,0,-1,1175,1569,0,0
-42,-545,0,0,0,0,0,0,0,0,0,-1,1182,1569,0,0
-35,-545,0,0,0,0,0,0,0,0,0,-1,1189,1569,0,0
-28,-545,0,0,0,0,0,0,0,0,0,-1,1196,1569,0,0
-21,-545,0,0,0,0,0,0,0,0,0,-1,1203,1569,0,0
-14,-545,0,0,0,0,0,0,0,0,0,-1,1210,1569,0,0
-7,-545,0,0,0,0,0,0,0,0,0,-1,1217,1569,0,0
0,-545,0,0,0,0,0,0,0,0,0,-1,1224,1569,0,0
7,-545,0,0,0,0,0,0,0,0,0,-1,1231,1569,0,0
14,-545,0,0,0,0,0,0,0,0,0,-1,1238,1569,0,0
21,-545,0,0,0,0,0,0,0,0,0,-1,1245,1569,0,0
28,-545,0,0,0,0,0,0,0,0,0,-1,1252,1569,0,0
35,-545,0,0,0,0,0,0,0,0,0,-1,1259,1569,0,0
42,-545,0,0,0,0,0,0,0,0,0,-1,1266,1569,0,0
49,-545,0,0,0,0,0,0,0,0,0,-1,1273,1569,0,0
56,-545,0,0,0,0,0,0,0,0,0,-1,1280,1569,0,0
63,-545,0,0,0,0,0,0,0,0,0,-1,1287,1569,0,0
70,-545,0,0,0,0,0,0,0,0,0,-1,1294,1569,0,0
77,-545,0,0,0,0,0,0,0,0,0,-1,1301,1569,0,0
84,-545,0,0,0,0,0,0,0,0,0,-1,1308,1569,0,0
91,-545,0,0,0,0,0,0,0,0,0,-1,1315,1569,0,0
98,-545,0,0,0,0,0,0,0,0,0,-1,1322,1569,0,0
105,-545,0,0,0,0,0,0,0,0,0,-1,1329,1569,0,0
112,-545,0,0,0,0,0,0,0,0,0,-1,1336,1569,0,0
119,-545,0,0,0,0,0,0,0,0,0,-1,1343,1569,0,0
126,-545,0,0,0,0,0,0,0,0,0,-1,1350,1569,0,0
133,-545,0,0,0,0,0,0,0,0,0,-1,1357,1569,0,0
140,-545,0,0,0,0,0,0,0,0,0,-1,1364,1569,0,0
147,-545,0,0,0,0,0,0,0,0,0,-1,1371,1569,0,0
154,-545,0,0,0,0,0,0,0,0,0,-1,1378,1569,0,0
161,-545,0,0,0,0,0,0,0,0,0,-1,1385,1569,0,0
168,-545,0,0,0,0,0,0,0,0,0,-1,1392,1569,0,0
175,-545,0,0,0,0,0,0,0,0,0,-1,1399,1569,0,0
182,-545,0,0,0,0,0,0,0,0,0,-1,1406,1569,0,0
189,-545,0,0,0,0,0,0,0,0,0,-1,1413,1569,0,0
196,-545,0,0,0,0,0,0,0,0,0,-1,1420,1569,0,0
203,-545,0,0,0,0,0,0,0,0,0,-1,1427,1569,0,0
210,-545,0,0,0,0,0,0,0,0,0,-1,1434,1569,0,0
217,-545,0,0,0,0,0,0,0,0,0,-1,1441,1569,0,0
224,-545,0,0,0,0,0,0,0,0,0,-1,1448,1569,0,0
231,-545,0,0,0,0,0,0,0,0,0,-1,1455,1569,0,0
238,-545,0,0,0,0,0,0,0,0,0,-1,1462,1569,0,0
245,-545,0,0,0,0,0,0,0,0,0,-1,1469,1569,0,0
252,-545,0,0,0,0,0,0,0,0,0,-1,1476,1569,0,0
259,-545,0,0,0,0,0,0,0,0,0,-1,1483,1569,0,0
266,-545,0,0,0,0,0,0,0,0,0,-1,1490,1569,0,0
273,-545,0,0,0,0,0,0,0,0,0,-1,1497,1569,0,0
280,-545,0,0,0,0,0,0,0,0,0,-1,1504,1569,0,0
287,-545,0,0,0,0,0,0,0,0,0,-1,1511,1569,0,0
294,-545,0,0,0,0,0,0,0,0,0,-1,1518,1569,0,0
301,-545,0,0,0,0,0,0,0,0,0,-1,1525,1569,0,0
308,-545,0,0,0,0,0,0,0,0,0,-1,1532,1569,0,0
315,-545,0,0,0,0,0,0,0,0,0,-1,1539,1569,0,0
322,-545,0,0,0,0,0,0,0,0,0,-1,1546,1569,0,0
329,-545,0,0,0,0,0,0,0,0,0,-1,1553,1569,0,0
336,-545,0,0,0,0,0,0,0,0,0,-1,1560,1569,0,0
343,-545,0,0,0,0,0,0,0,0,0,-1,1567,1569,0,0
350,-545,0,0,0,0,0,0,0,0,0,-1,1574,1569,0,0
357,-545,0,0,0,0,0,0,0,0,0,-1,1581,1569,0,0
364,-545,0.0478516,0.265259,0,0,0,0,0,0,0,-1,1588,1569,0.0477985,-0.265281
371,-545,-0.0878906,0.0992432,0,0,0,0,0,0,0,-1,1595,1569,-0.0879352,-0.0992768
378,-545,-0.032959,-0.700806,0,0,0,0,0,0,0,-1,1602,1569,-0.0329013,0.700857
385,-545,-0.393433,-0.242065,0.0587608,-0.00256875,-0.0367513,0.0759602,-0.0197682,-0.437718,0.0583565,0.0457537,1609,1569,-0.393467,0.242112
392,-545,1.37939,-0.382202,0.0516526,-0.00558356,-0.0269084,0.0623163,-0.0162472,-0.377309,0.0478877,0.0456832,1616,1569,1.37943,0.382205
399,-545,1.13745,-0.661865,0.0460026,-0.00391739,-0.0185783,0.0521578,-0.0100726,-0.31993,0.0385703,0.0462037,1623,1569,1.13744,0.66181
406,-545,1.01172,-0.786377,0.0392951,-4.0652e-05,-0.0118265,0.042577,-0.00332252,-0.270691,0.0295545,0.0453375,1630,1569,1.01172,0.78635
413,-545,-0.44873,-0.224609,0,0,0,0,0,0,0,-1,1637,1569,-0.448774,0.224586
420,-545,-0.464233,0.0136719,0.0241146,0.00909778,-0.00382816,0.0250342,0.0081782,-0.235748,0.0147401,0.0425151,1644,1569,-0.464282,-0.013727
427,-545,-0.214111,0.0859375,0.017379,0.013406,-0.001506,0.0178853,0.0128996,-0.324339,0.0106577,0.0447094,1651,1569,-0.214122,-0.0858834
434,-545,0.0588379,0.148926,0.011504,0.0166321,0.000206053,0.0166403,0.0114957,1.5307,0.00983779,0.0430935,1658,1569,0.0587961,-0.1489
441,-545,0.237671,1.6217,0.00681132,0.0186092,0.00176836,0.0188685,0.00655196,1.42517,0.0110619,0.0439392,1665,1569,0.237731,-1.62176
448,-545,0.516357,0.847534,0.00232759,0.0194775,0.00374953,0.0202614,0.00154365,1.36469,0.0130236,0.0449234,1672,1569,0.516394,-0.847544
455,-545,0.409058,0.23645,-0.00100431,0.0208335,0.00336784,0.0213411,-0.0015119,1.4212,0.0147572,0.043238,1679,1569,0.409049,-0.23647
462,-545,0.0211182,0.0908203,-0.00192313,0.0207015,0.00272358,0.0210247,-0.00224638,1.45266,0.0148221,0.0384493,1686,1569,0.021165,-0.0907912
469,-545,-0.109741,0.150024,-0.00216281,0.0187013,0.00206727,0.0189041,-0.00236567,1.47298,0.0134608,0.0381766,1693,1569,-0.109781,-0.150022
476,-545,-0.0648193,0.0606689,-0.00274124,0.0162788,0.00187542,0.0164619,-0.00292439,1.47344,0.0120681,0.0263358,1700,1569,-0.0648382,-0.0606617
483,-545,-0.0469971,0.0732422,-0.00287082,0.0136866,0.00148264,0.0138183,-0.00300254,1.48219,0.0103591,0.0116883,1707,1569,-0.046966,-0.073255
490,-545,-0.0410156,0.0701904,-0.00243448,0.010974,0.000972348,0.0110441,-0.00250462,1.49878,0.00832418,0.0101348,1714,1569,-0.0409769,-0.070187
497,-545,-0.0495605,0.0693359,-0.00139876,0.00765414,0.000759494,0.00771741,-0.00146204,1.48768,0.00569519,0.0147912,1721,1569,-0.049561,-0.0692865
504,-545,-0.0310059,0.074707,-0.000187182,0.00571193,0.000834069,0.00582759,-0.000302842,1.433,0.00398984,0.0139656,1728,1569,-0.0309546,-0.0747545
511,-545,-0.0444336,0.0701904,0.000509581,0.0040308,0.000718332,0.0041717,0.000368679,1.3771,0.00266675,0.0102434,1735,1569,-0.0444473,-0.0701958
518,-545,-0.0405273,0.0681152,0.000863235,0.00279465,0.000617741,0.00297533,0.000682559,1.28625,0.00179971,0.0116976,1742,1569,-0.0405541,-0.0681183
525,-545,-0.0506592,0.065918,0.00113607,0.00166421,0.000549135,0.00200947,0.00079081,1.00951,0.0011689,0.0122462,1749,1569,-0.0506565,-0.0658798
532,-545,-0.0313721,0.0499268,0.00106363,0.00105569,8.97565e-05,0.0011495,0.000969817,0.763317,0.000714017,0.0127384,1756,1569,-0.031323,-0.0499642
539,-545,-0.0449219,0.0644531,0.000780355,0.000669809,-0.000622621,0.00135015,0.000100012,-0.741127,0.000868685,0.016051,1763,1569,-0.0448693,-0.0644427
546,-545,-0.0388184,0.0603027,0.000857433,0.00051254,-0.00124311,0.00194,-0.000570031,-0.716477,0.00151942,0.0173507,1770,1569,-0.0388135,-0.0603308
553,-545,-0.0205078,0.0220947,0.00133802,0.000369139,-0.0019399,0.00285306,-0.0011459,-0.663039,0.00237789,0.0237578,1777,1569,-0.0204841,-0.0220521
560,-545,-0.0134277,0.00793457,0.00213842,0.000900999,-0.0026639,0.00425452,-0.00121509,-0.671292,0.00331642,0.0236688,1784,1569,-0.0134363,-0.0079463
567,-545,-0.0583496,0.0299072,0.00289939,0.00130495,-0.00333221,0.00552842,-0.00132408,-0.667982,0.00419718,0.0217531,1791,1569,-0.0583993,-0.029901
574,-545,-0.0557861,0.0579834,0.00358084,0.0018997,-0.00394707,0.00677586,-0.00129531,-0.680486,0.0050052,0.0208287,1798,1569,-0.0557705,-0.0579413
581,-545,-0.026001,0.184448,0.00437682,0.00261171,-0.00453498,0.00811433,-0.0011258,-0.689294,0.00582122,0.030096,1805,1569,-0.0259998,-0.184401
588,-545,-0.280151,0.213501,0.00545496,0.00331765,-0.00491638,0.00941749,-0.000644882,-0.678379,0.00650395,0.0415416,1812,1569,-0.280182,-0.21352
595,-545,-0.465332,-0.132935,0.00665324,0.00440921,-0.0048352,0.0104949,0.000567547,-0.671391,0.0068153,0.0431889,1819,1569,-0.465309,0.132963
602,-545,-0.259888,-0.0980225,0.00729019,0.00538397,-0.00431557,0.0107566,0.00191752,-0.676716,0.00662508,0.0436176,1826,1569,-0.259941,0.0979768
609,-545,0.0614014,-0.183105,0.00766083,0.00542375,-0.00355597,0.01027,0.00281455,-0.633021,0.00612789,0.0416823,1833,1569,0.0613634,0.183083
616,-545,0.0991211,0.0666504,0.00774592,0.00598529,-0.00150548,0.00860957,0.00512163,-0.520837,0.00500048,0.0420397,1840,1569,0.0991716,-0.0666693
623,-545,-0.151855,0.0718994,0.00713735,0.00611309,0.00135352,0.00807239,0.00517805,0.604538,0.00472235,0.0417333,1847,1569,-0.151805,-0.0719465
630,-545,0,0,0,0,0,0,0,0,0,-1,1854,1569,0,0
637,-545,0,0,0,0,0,0,0,0,0,-1,1861,1569,0,0
644,-545,0,0,0,0,0,0,0,0,0,-1,1868,1569,0,0
651,-545,0,0,0,0,0,0,0,0,0,-1,1875,1569,0,0
658,-545,0,0,0,0,0,0,0,0,0,-1,1882,1569,0,0
665,-545,0,0,0,0,0,0,0,0,0,-1,1889,1569,0,0
672,-545,0,0,0,0,0,0,0,0,0,-1,1896,1569,0,0
679,-545,0,0,0,0,0,0,0,0,0,-1,1903,1569,0,0
686,-545,0,0,0,0,0,0,0,0,0,-1,1910,1569,0,0
693,-545,0,0,0,0,0,0,0,0,0,-1,1917,1569,0,0
700,-545,0,0,0,0,0,0,0,0,0,-1,1924,1569,0,0
707,-545,0,0,0,0,0,0,0,0,0,-1,1931,1569,0,0
714,-545,0,0,0,0,0,0,0,0,0,-1,1938,1569,0,0
721,-545,0,0,0,0,0,0,0,0,0,-1,1945,1569,0,0
728,-545,0,0,0,0,0,0,0,0,0,-1,1952,1569,0,0
735,-545,0,0,0,0,0,0,0,0,0,-1,1959,1569,0,0
742,-545,0,0,0,0,0,0,0,0,0,-1,1966,1569,0,0
749,-545,0,0,0,0,0,0,0,0,0,-1,1973,1569,0,0
756,-545,0,0,0,0,0,0,0,0,0,-1,1980,1569,0,0
763,-545,0,0,0,0,0,0,0,0,0,-1,1987,1569,0,0
770,-545,0,0,0,0,0,0,0,0,0,-1,1994,1569,0,0
777,-545,0,0,0,0,0,0,0,0,0,-1,2001,1569,0,0
784,-545,0,0,0,0,0,0,0,0,0,-1,2008,1569,0,0
791,-545,0,0,0,0,0,0,0,0,0,-1,2015,1569,0,0
798,-545,0,0,0,0,0,0,0,0,0,-1,2022,1569,0,0
805,-545,0,0,0,0,0,0,0,0,0,-1,2029,1569,0,0
812,-545,0,0,0,0,0,0,0,0,0,-1,2036,1569,0,0
-700,-552,0,0,0,0,0,0,0,0,0,-1,524,1576,0,0
-693,-552,0,0,0,0,0,0,0,0,0,-1,531,1576,0,0
-686,-552,0,0,0,0,0,0,0,0,0,-1,538,1576,0,0
-679,-552,0,0,0,0,0,0,0,0,0,-1,545,1576,0,0
-672,-552,0,0,0,0,0,0,0,0,0,-1,552,1576,0,0
-665,-552,0,0,0,0,0,0,0,0,0,-1,559,1576,0,0
-658,-552,0,0,0,0,0,0,0,0,0,-1,566,1576,0,0
-651,-552,0,0,0,0,0,0,0,0,0,-1,573,1576,0,0
-644,-552,0,0,0,0,0,0,0,0,0,-1,580,1576,0,0
-637,-552,0,0,0,0,0,0,0,0,0,-1,587,1576,0,0
-630,-552,0,0,0,0,0,0,0,0,0,-1,594,1576,0,0
-623,-552,0,0,0,0,0,0,0,0,0,-1,601,1576,0,0
-616,-552,0,0,0,0,0,0,0,0,0,-1,608,1576,0,0
-609,-552,0,0,0,0,0,0,0,0,0,-1,615,1576,0,0
-602,-552,0,0,0,0,0,0,0,0,0,-1,622,1576,0,0
-595,-552,0,0,0,0,0,0,0,0,0,-1,629,1576,0,0
-588,-552,0,0,0,0,0,0,0,0,0,-1,636,1576,0,0
-581,-552,0,0,0,0,0,0,0,0,0,-1,643,1576,0,0
-574,-552,0,0,0,0,0,0,0,0,0,-1,650,1576,0,0
-567,-552,0,0,0,0,0,0,0,0,0,-1,657,1576,0,0
-560,-552,0,0,0,0,0,0,0,0,0,-1,664,1576,0,0
-553,-552,0,0,0,0,0,0,0,0,0,-1,671,1576,0,0
-546,-552,0,0,0,0,0,0,0,0,0,-1,678,1576,0,0
-539,-552,0,0,0,0,0,0,0,0,0,-1,685,1576,0,0
-532,-552,0,0,0,0,0,0,0,0,0,-1,692,1576,0,0
-525,-552,0,0,0,0,0,0,0,0,0,-1,699,1576,0,0
-518,-552,0,0,0,0,0,0,0,0,0,-1,706,1576,0,0
-511,-552,0,0,0,0,0,0,0,0,0,-1,713,1576,0,0
-504,-552,0,0,0,0,0,0,0,0,0,-1,720,1576,0,0
-497,-552,0.411743,-0.120728,-0.0570113,0.0560722,0.0353886,0.0662337,-0.0671728,1.29118,0.0770229,0.042091,727,1576,0.411728,0.120695
-490,-552,0.0957031,0.52771,-0.0442279,0.0569887,0.0266948,0.0635976,-0.0508368,1.3281,0.0662055,0.0444005,734,1576,0.0956966,-0.52772
-483,-552,-0.200256,1.20251,-0.0342697,0.0562943,0.0200432,0.0605319,-0.0385073,1.36244,0.0576496,0.0457928,741,1576,-0.200283,-1.20246
-476,-552,-0.499329,1.80725,0,0,0,0,0,0,0,-1,748,1576,-0.499344,-1.8073
-469,-552,-0.0982666,0.150879,-0.0216958,0.0478924,0.0115207,0.0497501,-0.0235535,1.41092,0.0432133,0.0470216,755,1576,-0.0982506,-0.150855
-462,-552,-0.159302,0.244141,-0.017386,0.0415289,0.00889805,0.0428435,-0.0187005,1.42412,0.0364324,0.0444811,762,1576,-0.159282,-0.244142
-455,-552,-0.0349731,-0.0452881,-0.0140969,0.0349845,0.0069371,0.0359461,-0.0150585,1.43305,0.0302595,0.041826,769,1576,-0.0349656,0.0452726
-448,-552,0.0135498,-0.0476074,-0.0111004,0.0292666,0.00513391,0.0299093,-0.0117431,1.44626,0.0247987,0.0386373,776,1576,0.0135694,0.0475941
-441,-552,-0.0438843,0.0390625,-0.00875871,0.0236005,0.00382196,0.0240458,-0.00920399,1.45481,0.019824,0.0336304,783,1576,-0.0438609,-0.039083
-434,-552,-0.0383911,0.0626221,-0.00701452,0.0187127,0.00276699,0.0190069,-0.00730875,1.46486,0.0156858,0.01839,790,1576,-0.0383633,-0.0626303
-427,-552,-0.0310059,0.0668945,-0.00564974,0.0147714,0.00192899,0.014952,-0.00583036,1.47744,0.012378,0.0133225,797,1576,-0.0310296,-0.066882
-420,-552,-0.0139771,0.0526123,-0.00492835,0.00693076,0.00220431,0.00732723,-0.00532483,1.39284,0.0073351,0.017403,804,1576,-0.0139565,-0.0525922
-413,-552,-0.0141602,0.0437012,-0.00431032,0.0049235,0.00206827,0.0053656,-0.00475242,1.36021,0.00584522,0.0154311,811,1576,-0.0141416,-0.0437473
-406,-552,-0.0410767,0.0358887,-0.00300911,0.00342832,0.00133189,0.003693,-0.00327379,1.37463,0.00402471,0.0114426,818,1576,-0.0410818,-0.0358308
-399,-552,-0.0355225,0.0560303,-0.00180447,0.0022166,0.000811462,0.00237418,-0.00196205,1.37899,0.00250729,0.0126697,825,1576,-0.0355168,-0.0560078
-392,-552,-0.0513916,0.0639648,-0.000692723,0.00166434,0.000229084,0.0016864,-0.000714782,1.4748,0.00142365,0.0135855,832,1576,-0.0513888,-0.0639379
-385,-552,-0.0526733,0.0770264,7.79722e-05,0.00123883,0.000117733,0.00125065,6.61522e-05,1.47074,0.000812617,0.0124453,839,1576,-0.0526551,-0.0770197
-378,-552,-0.0421143,0.0854492,0.000325364,0.00129143,0.000214241,0.00133681,0.000279984,1.36207,0.00081409,0.0140979,846,1576,-0.042109,-0.0854444
-371,-552,-0.0474854,0.0744629,0.000403301,0.00121946,0.000347615,0.00134744,0.000275316,1.21802,0.000822038,0.0177884,853,1576,-0.0474817,-0.0744593
-364,-552,-0.0302124,0.0732422,-0.000258637,0.000783885,0.00058561,0.00104662,-0.000521374,1.14906,0.000922057,0.014035,860,1576,-0.0302058,-0.0731813
-357,-552,-0.0335083,0.078125,-0.00117874,0.000521242,0.000729078,0.00079109,-0.00144859,1.21631,0.00131152,0.00941516,867,1576,-0.0335115,-0.0781324
-350,-552,-0.0344849,0.0634766,-0.00226395,0.000689517,0.000516388,0.0007772,-0.00235163,1.4026,0.00188112,0.00857199,874,1576,-0.0345063,-0.0634616
-343,-552,-0.0391846,0.0528564,-0.00349799,0.000678675,0.000328299,0.000704323,-0.00352364,1.49283,0.00261567,0.00876716,881,1576,-0.0391772,-0.0528649
-336,-552,-0.0270386,0.0516357,-0.00479654,0.00082332,-3.69967e-05,0.000823564,-0.00479679,-1.56421,0.00350478,0.0128004,888,1576,-0.0270603,-0.0516943
-329,-552,-0.0115967,0.0808105,-0.00645363,0.00160466,-0.000475207,0.00163259,-0.00648156,-1.5121,0.0049557,0.0268607,895,1576,-0.0116108,-0.0808
-322,-552,-0.0367432,0.0667725,-0.00871958,0.00295564,-0.0009629,0.00303452,-0.00879846,-1.48906,0.0070968,0.0413499,902,1576,-0.036767,-0.0668309
-315,-552,-0.106873,0.0777588,-0.00997178,0.00404073,-0.00116151,0.00413636,-0.0100674,-1.48865,0.0084355,0.0474149,909,1576,-0.106848,-0.0778156
-308,-552,-0.566833,0.455444,-0.00960742,0.0048888,-0.00105411,0.00496505,-0.00968367,-1.49859,0.00860246,0.0435189,916,1576,-0.566814,-0.455392
-301,-552,-0.364258,0.227173,-0.00818771,0.00603802,-0.00103175,0.00611246,-0.00826215,-1.49877,0.00833006,0.0451938,923,1576,-0.364241,-0.22723
-294,-552,-0.457642,0.351318,-0.00686046,0.00741045,-0.000223387,0.00741394,-0.00686396,-1.55515,0.00824539,0.0421992,930,1576,-0.457633,-0.351324
-287,-552,-0.739624,0.460693,-0.00474343,0.00858346,0.00129402,0.00870795,-0.00486791,1.47489,0.00794186,0.0403618,937,1576,-0.739654,-0.460711
-280,-552,-1.01056,0.414673,-0.00157122,0.0104086,0.00246624,0.0108965,-0.00205907,1.37551,0.00803904,0.0440694,944,1576,-1.01055,-0.414684
-273,-552,-1.22272,0.400269,0,0,0,0,0,0,0,-1,951,1576,-1.22269,-0.400227
-266,-552,0.165955,-1.39587,0.0111589,0.0108723,0.00502433,0.016042,0.00598924,0.77114,0.00936036,0.0473036,958,1576,0.165926,1.39585
-259,-552,0.810181,-0.821045,0.0213072,0.0104489,0.0045769,0.022979,0.00877709,0.350214,0.0133896,0.0453441,965,1576,0.81016,0.821019
-252,-552,1.37616,-0.80188,0.0341662,0.00972701,0.00126281,0.0342313,0.00966193,0.0514888,0.0203786,0.0444679,972,1576,1.37618,0.80194
-245,-552,1.92316,-1.02075,0,0,0,0,0,0,0,-1,979,1576,1.92315,1.02076
-238,-552,2.6106,-1.45068,0,0,0,0,0,0,0,-1,986,1576,2.61058,1.45068
-231,-552,-1.13794,1.66833,0,0,0,0,0,0,0,-1,993,1576,-1.13792,-1.66831
-224,-552,0,0,0,0,0,0,0,0,0,-1,1000,1576,0,0
-217,-552,0,0,0,0,0,0,0,0,0,-1,1007,1576,0,0
-210,-552,0,0,0,0,0,0,0,0,0,-1,1014,1576,0,0
-203,-552,0,0,0,0,0,0,0,0,0,-1,1021,1576,0,0
-196,-552,0,0,0,0,0,0,0,0,0,-1,1028,1576,0,0
-189,-552,0,0,0,0,0,0,0,0,0,-1,1035,1576,0,0
-182,-552,0,0,0,0,0,0,0,0,0,-1,1042,1576,0,0
-175,-552,0,0,0,0,0,0,0,0,0,-1,1049,1576,0,0
-168,-552,0,0,0,0,0,0,0,0,0,-1,1056,1576,0,0
-161,-552,0,0,0,0,0,0,0,0,0,-1,1063,1576,0,0
-154,-552,0,0,0,0,0,0,0,0,0,-1,1070,1576,0,0
-147,-552,0,0,0,0,0,0,0,0,0,-1,1077,1576,0,0
-140,-552,0,0,0,0,0,0,0,0,0,-1,1084,1576,0,0
-133,-552,0,0,0,0,0,0,0,0,0,-1,1091,1576,0,0
-126,-552,0,0,0,0,0,0,0,0,0,-1,1098,1576,0,0
-119,-552,0,0,0,0,0,0,0,0,0,-1,1105,1576,0,0
-112,-552,0,0,0,0,0,0,0,0,0,-1,1112,1576,0,0
-105,-552,0,0,0,0,0,0,0,0,0,-1,1119,1576,0,0
-98,-552,0,0,0,0,0,0,0,0,0,-1,1126,1576,0,0
-91,-552,0,0,0,0,0,0,0,0,0,-1,1133,1576,0,0
-84,-552,0,0,0,0,0,0,0,0,0,-1,1140,1576,0,0
-77,-552,0,0,0,0,0,0,0,0,0,-1,1147,1576,0,0
-70,-552,0,0,0,0,0,0,0,0,0,-1,1154,1576,0,0
-63,-552,0,0,0,0,0,0,0,0,0,-1,1161,1576,0,0
-56,-552,0,0,0,0,0,0,0,0,0,-1,1168,1576,0,0
-49,-552,0,0,0,0,0,0,0,0,0,-1,1175,1576,0,0
-42,-552,0,0,0,0,0,0,0,0,0,-1,1182,1576,0,0
-35,-552,0,0,0,0,0,0,0,0,0,-1,1189,1576,0,0
-28,-552,0,0,0,0,0,0,0,0,0,-1,1196,1576,0,0
-21,-552,0,0,0,0,0,0,0,0,0,-1,1203,1576,0,0
-14,-552,0,0,0,0,0,0,0,0,0,-1,1210,1576,0,0
-7,-552,0,0,0,0,0,0,0,0,0,-1,1217,1576,0,0
0,-552,0,0,0,0,0,0,0,0,0,-1,1224,1576,0,0
7,-552,0,0,0,0,0,0,0,0,0,-1,1231,1576,0,0
14,-552,0,0,0,0,0,0,0,0,0,-1,1238,1576,0,0
21,-552,0,0,0,0,0,0,0,0,0,-1,1245,1576,0,0
28,-552,0,0,0,0,0,0,0,0,0,-1,1252,1576,0,0
35,-552,0,0,0,0,0,0,0,0,0,-1,1259,1576,0,0
42,-552,0,0,0,0,0,0,0,0,0,-1,1266,1576,0,0
49,-552,0,0,0,0,0,0,0,0,0,-1,1273,1576,0,0
56,-552,0,0,0,0,0,0,0,0,0,-1,1280,1576,0,0
63,-552,0,0,0,0,0,0,0,0,0,-1,1287,1576,0,0
70,-552,0,0,0,0,0,0,0,0,0,-1,1294,1576,0,0
77,-552,0,0,0,0,0,0,0,0,0,-1,1301,1576,0,0
84,-552,0,0,0,0,0,0,0,0,0,-1,1308,1576,0,0
91,-552,0,0,0,0,0,0,0,0,0,-1,1315,1576,0,0
98,-552,0,0,0,0,0,0,0,0,0,-1,1322,1576,0,0
105,-552,0,0,0,0,0,0,0,0,0,-1,1329,1576,0,0
112,-552,0,0,0,0,0,0,0,0,0,-1,1336,1576,0,0
119,-552,0,0,0,0,0,0,0,0,0,-1,1343,1576,0,0
126,-552,0,0,0,0,0,0,0,0,0,-1,1350,1576,0,0
133,-552,0,0,0,0,0,0,0,0,0,-1,1357,1576,0,0
140,-552,0,0,0,0,0,0,0,0,0,-1,1364,1576,0,0
147,-552,0,0,0,0,0,0,0,0,0,-1,1371,1576,0,0
154,-552,0,0,0,0,0,0,0,0,0,-1,1378,1576,0,0
161,-552,0,0,0,0,0,0,0,0,0,-1,1385,1576,0,0
168,-552,0,0,0,0,0,0,0,0,0,-1,1392,1576,0,0
175,-552,0,0,0,0,0,0,0,0,0,-1,1399,1576,0,0
182,-552,0,0,0,0,0,0,0,0,0,-1,1406,1576,0,0
189,-552,0,0,0,0,0,0,0,0,0,-1,1413,1576,0,0
196,-552,0,0,0,0,0,0,0,0,0,-1,1420,1576,0,0
203,-552,0,0,0,0,0,0,0,0,0,-1,1427,1576,0,0
210,-552,0,0,0,0,0,0,0,0,0,-1,1434,1576,0,0
217,-552,0,0,0,0,0,0,0,0,0,-1,1441,1576,0,0
224,-552,0,0,0,0,0,0,0,0,0,-1,1448,1576,0,0
231,-552,0,0,0,0,0,0,0,0,0,-1,1455,1576,0,0
238,-552,0,0,0,0,0,0,0,0,0,-1,1462,1576,0,0
245,-552,0,0,0,0,0,0,0,0,0,-1,1469,1576,0,0
252,-552,0,0,0,0,0,0,0,0,0,-1,1476,1576,0,0
259,-552,0,0,0,0,0,0,0,0,0,-1,1483,1576,0,0
266,-552,0,0,0,0,0,0,0,0,0,-1,1490,1576,0,0
273,-552,0,0,0,0,0,0,0,0,0,-1,1497,1576,0,0
280,-552,0,0,0,0,0,0,0,0,0,-1,1504,1576,0,0
287,-552,0,0,0,0,0,0,0,0,0,-1,1511,1576,0,0
294,-552,0,0,0,0,0,0,0,0,0,-1,1518,1576,0,0
301,-552,0,0,0,0,0,0,0,0,0,-1,1525,1576,0,0
308,-552,0,0,0,0,0,0,0,0,0,-1,1532,1576,0,0
315,-552,0,0,0,0,0,0,0,0,0,-1,1539,1576,0,0
322,-552,0,0,0,0,0,0,0,0,0,-1,1546,1576,0,0
329,-552,0,0,0,0,0,0,0,0,0,-1,1553,1576,0,0
336,-552,0,0,0,0,0,0,0,0,0,-1,1560,1576,0,0
343,-552,0,0,0,0,0,0,0,0,0,-1,1567,1576,0,0
350,-552,-0.47229,-0.010498,0,0,0,0,0,0,0,-1,1574,1576,-0.472251,0.0104777
357,-552,-0.392212,0.152954,0,0,0,0,0,0,0,-1,1581,1576,-0.39223,-0.152913
364,-552,-0.305176,0.342529,0,0,0,0,0,0,0,-1,1588,1576,-0.305212,-0.342536
371,-552,-0.216187,0.429077,0,0,0,0,0,0,0,-1,1595,1576,-0.216168,-0.429038
378,-552,0.453369,-0.434204,0,0,0,0,0,0,0,-1,1602,1576,0.453371,0.434148
385,-552,0.0714111,0.0200195,0.0421171,0.0022217,-0.0286027,0.057041,-0.0127022,-0.480907,0.0428929,0.0403828,1609,1576,0.0714433,-0.0199967
392,-552,-0.34436,0.113037,0.0372773,-0.00148116,-0.0210358,0.0464998,-0.0107037,-0.413182,0.0351158,0.0413479,1616,1576,-0.344381,-0.113066
399,-552,0.542847,-0.400513,0.0331309,-0.00112742,-0.0143962,0.0383771,-0.00637365,-0.349461,0.0279526,0.0461437,1623,1576,0.542882,0.400548
406,-552,0.8302,-0.596802,0.0285626,0.00119004,-0.00903045,0.0312734,-0.00152073,-0.291623,0.0213739,0.0461027,1630,1576,0.830167,0.596836
413,-552,0.664185,-0.609375,0.0234574,0.00474356,-0.00480255,0.0246179,0.00358305,-0.2371,0.0153576,0.0444769,1637,1576,0.664155,0.609387
420,-552,-0.172119,-0.325806,0.0181783,0.00883935,-0.00204162,0.0186051,0.00841253,-0.206091,0.010758,0.0433268,1644,1576,-0.172146,0.325865
427,-552,-0.279907,-0.177734,0.0134398,0.0125069,-0.000161777,0.0134671,0.0124797,-0.166929,0.00866769,0.0418857,1651,1576,-0.279849,0.177787
434,-552,-0.0759277,-0.0479736,0.00914999,0.0152259,0.00109208,0.0154162,0.00895966,1.39825,0.0089396,0.0416906,1658,1576,-0.0759484,0.0479404
441,-552,0.265503,0.140259,0.00559636,0.0169348,0.00225579,0.0173671,0.00516405,1.38145,0.0102977,0.0435928,1665,1576,0.26551,-0.14026
448,-552,-0.114014,0.388062,0.00212362,0.0176578,0.00363106,0.0184646,0.00131678,1.35214,0.0118951,0.0423202,1672,1576,-0.114008,-0.38804
455,-552,-0.146729,-0.221313,0,0,0,0,0,0,0,-1,1679,1576,-0.146722,0.221372
462,-552,-0.055542,0.0330811,-0.00117219,0.0182628,0.00256975,0.0185969,-0.00150623,1.44153,0.0129293,0.0356417,1686,1576,-0.0555082,-0.0331024
469,-552,-0.072998,0.052124,-0.00134904,0.0163828,0.00191954,0.0165883,-0.00155445,1.46419,0.0116117,0.0288423,1693,1576,-0.072957,-0.052173
476,-552,-0.053833,0.0643311,-0.0018184,0.0141351,0.00169977,0.0143142,-0.0019975,1.46582,0.0102736,0.0145775,1700,1576,-0.0538594,-0.064279
483,-552,-0.0396729,0.0717773,-0.00197432,0.0117574,0.00131821,0.0118828,-0.00209972,1.47595,0.00870661,0.013162,1707,1576,-0.0396478,-0.0717484
490,-552,-0.0263672,0.0834961,-0.00169881,0.00932279,0.000836602,0.00938593,-0.00176195,1.49547,0.00691978,0.014047,1714,1576,-0.0263123,-0.0834876
497,-552,-0.0361328,0.0848389,-0.000795325,0.00631909,0.000663056,0.00638036,-0.000856593,1.47865,0.00456597,0.0222014,1721,1576,-0.0361745,-0.0848678
504,-552,-0.0108643,0.0882568,0.000420465,0.00473755,0.00089115,0.00491427,0.000243744,1.37503,0.00319803,0.0223907,1728,1576,-0.0108431,-0.0882646
511,-552,-0.0262451,0.0856934,0.0011447,0.00325857,0.000846735,0.00355592,0.000847355,1.23308,0.0021447,0.0156556,1735,1576,-0.0262928,-0.0857024
518,-552,-0.0472412,0.0653076,0.00150211,0.00209389,0.000714132,0.002571,0.00102499,0.981802,0.0014945,0.0133019,1742,1576,-0.0473008,-0.0652895
525,-552,-0.0450439,0.0633545,0.00186063,0.00113389,0.000617207,0.00221349,0.000781036,0.519352,0.00129628,0.0120362,1749,1576,-0.0450268,-0.0634091
532,-552,-0.0206299,0.0540771,0.00196364,0.000680705,8.61506e-05,0.0019694,0.000674946,0.0667519,0.00115563,0.0130287,1756,1576,-0.0206764,-0.0541173
539,-552,-0.0349121,0.0343018,0.00183223,0.000378423,-0.000726848,0.00213328,7.73689e-05,-0.39268,0.00139711,0.0158983,1763,1576,-0.0348997,-0.0343435
546,-552,-0.0391846,0.0484619,0.00208659,0.000205891,-0.00151134,0.00292625,-0.000633763,-0.507108,0.00219283,0.018684,1770,1576,-0.039204,-0.0484098
553,-552,-0.0360107,0.0628662,0.00275982,0.000130342,-0.00243439,0.00421181,-0.00132165,-0.537805,0.00333684,0.0213214,1777,1576,-0.0360013,-0.062836
560,-552,-0.0421143,0.0522461,0.00366373,0.00065392,-0.00350964,0.00597751,-0.00165985,-0.582859,0.00463837,0.0223675,1784,1576,-0.0420887,-0.0522766
567,-552,-0.0792236,0.0255127,0.00454271,0.00110534,-0.00452108,0.00766077,-0.00201271,-0.60376,0.00589377,0.0276588,1791,1576,-0.0792686,-0.0255614
574,-552,-0.0334473,0.103027,0.0053495,0.00176655,-0.00550882,0.00935082,-0.00223476,-0.628191,0.00709707,0.0353807,1798,1576,-0.0334006,-0.103047
581,-552,-0.0394287,0.308838,0.00628945,0.00266845,-0.00646158,0.0111894,-0.00223148,-0.648804,0.00830397,0.0423764,1805,1576,-0.0394701,-0.308876
588,-552,-0.274414,0.44812,0.0075374,0.00361738,-0.00721373,0.0130526,-0.00189788,-0.652748,0.00939848,0.0416003,1812,1576,-0.274373,-0.448172
595,-552,0.0090332,-0.49353,0.00893379,0.00504441,-0.00745742,0.0146959,-0.000717708,-0.657852,0.0100451,0.0411022,1819,1576,0.00905454,0.493509
602,-552,0.0847168,-0.335449,0.00972607,0.00666103,-0.00717892,0.0155342,0.000852877,-0.680239,0.0100839,0.0396981,1826,1576,0.0847097,0.335444
609,-552,0.0936279,-0.21106,0.00993623,0.00745625,-0.00663023,0.0154414,0.00195105,-0.692956,0.0097095,0.0397728,1833,1576,0.0935762,0.211017
616,-552,-0.0739746,0.0136719,0.00975607,0.00942103,-0.00432644,0.0139182,0.00525887,-0.766048,0.00811525,0.0411998,1840,1576,-0.0740101,-0.0136654
623,-552,0,0,0,0,0,0,0,0,0,-1,1847,1576,0,0
630,-552,0,0,0,0,0,0,0,0,0,-1,1854,1576,0,0
637,-552,0,0,0,0,0,0,0,0,0,-1,1861,1576,0,0
644,-552,0,0,0,0,0,0,0,0,0,-1,1868,1576,0,0
651,-552,0,0,0,0,0,0,0,0,0,-1,1875,1576,0,0
658,-552,0,0,0,0,0,0,0,0,0,-1,1882,1576,0,0
665,-552,0,0,0,0,0,0,0,0,0,-1,1889,1576,0,0
672,-552,0,0,0,0,0,0,0,0,0,-1,1896,1576,0,0
679,-552,0,0,0,0,0,0,0,0,0,-1,1903,1576,0,0
686,-552,0,0,0,0,0,0,0,0,0,-1,1910,1576,0,0
693,-552,0,0,0,0,0,0,0,0,0,-1,1917,1576,0,0
700,-552,0,0,0,0,0,0,0,0,0,-1,1924,1576,0,0
707,-552,0,0,0,0,0,0,0,0,0,-1,1931,1576,0,0
714,-552,0,0,0,0,0,0,0,0,0,-1,1938,1576,0,0
721,-552,0,0,0,0,0,0,0,0,0,-1,1945,1576,0,0
728,-552,0,0,0,0,0,0,0,0,0,-1,1952,1576,0,0
735,-552,0,0,0,0,0,0,0,0,0,-1,1959,1576,0,0
742,-552,0,0,0,0,0,0,0,0,0,-1,1966,1576,0,0
749,-552,0,0,0,0,0,0,0,0,0,-1,1973,1576,0,0
756,-552,0,0,0,0,0,0,0,0,0,-1,1980,1576,0,0
763,-552,0,0,0,0,0,0,0,0,0,-1,1987,1576,0,0
770,-552,0,0,0,0,0,0,0,0,0,-1,1994,1576,0,0
777,-552,0,0,0,0,0,0,0,0,0,-1,2001,1576,0,0
784,-552,0,0,0,0,0,0,0,0,0,-1,2008,1576,0,0
791,-552,0,0,0,0,0,0,0,0,0,-1,2015,1576,0,0
798,-552,0,0,0,0,0,0,0,0,0,-1,2022,1576,0,0
805,-552,0,0,0,0,0,0,0,0,0,-1,2029,1576,0,0
812,-552,0,0,0,0,0,0,0,0,0,-1,2036,1576,0,0
-700,-559,0,0,0,0,0,0,0,0,0,-1,524,1583,0,0
-693,-559,0,0,0,0,0,0,0,0,0,-1,531,1583,0,0
-686,-559,0,0,0,0,0,0,0,0,0,-1,538,1583,0,0
-679,-559,0,0,0,0,0,0,0,0,0,-1,545,1583,0,0
-672,-559,0,0,0,0,0,0,0,0,0,-1,552,1583,0,0
-665,-559,0,0,0,0,0,0,0,0,0,-1,559,1583,0,0
-658,-559,0,0,0,0,0,0,0,0,0,-1,566,1583,0,0
-651,-559,0,0,0,0,0,0,0,0,0,-1,573,1583,0,0
-644,-559,0,0,0,0,0,0,0,0,0,-1,580,1583,0,0
-637,-559,0,0,0,0,0,0,0,0,0,-1,587,1583,0,0
-630,-559,0,0,0,0,0,0,0,0,0,-1,594,1583,0,0
-623,-559,0,0,0,0,0,0,0,0,0,-1,601,1583,0,0
-616,-559,0,0,0,0,0,0,0,0,0,-1,608,1583,0,0
-609,-559,0,0,0,0,0,0,0,0,0,-1,615,1583,0,0
-602,-559,0,0,0,0,0,0,0,0,0,-1,622,1583,0,0
-595,-559,0,0,0,0,0,0,0,0,0,-1,629,1583,0,0
-588,-559,0,0,0,0,0,0,0,0,0,-1,636,1583,0,0
-581,-559,0,0,0,0,0,0,0,0,0,-1,643,1583,0,0
-574,-559,0,0,0,0,0,0,0,0,0,-1,650,1583,0,0
-567,-559,0,0,0,0,0,0,0,0,0,-1,657,1583,0,0
-560,-559,0,0,0,0,0,0,0,0,0,-1,664,1583,0,0
-553,-559,0,0,0,0,0,0,0,0,0,-1,671,1583,0,0
-546,-559,0,0,0,0,0,0,0,0,0,-1,678,1583,0,0
-539,-559,0,0,0,0,0,0,0,0,0,-1,685,1583,0,0
-532,-559,0,0,0,0,0,0,0,0,0,-1,692,1583,0,0
-525,-559,0,0,0,0,0,0,0,0,0,-1,699,1583,0,0
-518,-559,0,0,0,0,0,0,0,0,0,-1,706,1583,0,0
-511,-559,0,0,0,0,0,0,0,0,0,-1,713,1583,0,0
-504,-559,0,0,0,0,0,0,0,0,0,-1,720,1583,0,0
-497,-559,0,0,0,0,0,0,0,0,0,-1,727,1583,0,0
-490,-559,-0.161377,0.971802,-0.047943,0.0853192,0.0319283,0.0925739,-0.0551977,1.34737,0.0862209,0.0457143,734,1583,-0.161358,-0.971756
-483,-559,-0.501282,1.81799,-0.0383,0.0821302,0.024698,0.0869985,-0.0431683,1.37618,0.0765588,0.044072,741,1583,-0.501257,-1.818
-476,-559,-0.859863,2.57849,-0.0315979,0.0754749,0.0194598,0.0789019,-0.0350249,1.39648,0.0673821,0.0470129,748,1583,-0.859857,-2.57843
-469,-559,0.182678,-0.0582275,-0.0264151,0.0668591,0.0156068,0.0694012,-0.0289572,1.40933,0.0583655,0.0474875,755,1583,0.182704,0.0582642
-462,-559,0.181641,0.095459,0,0,0,0,0,0,0,-1,762,1583,0.181632,-0.09541
-455,-559,0.00531006,-0.125977,-0.0184854,0.0474154,0.0103614,0.0490061,-0.0200761,1.41846,0.0410339,0.0415738,769,1583,0.00529484,0.126
-448,-559,-0.0111084,-0.0722656,-0.0151377,0.0389543,0.00819517,0.0401686,-0.016352,1.42369,0.033584,0.0416661,776,1583,-0.0111239,0.0722304
-441,-559,-0.0355835,0.00952148,-0.0123815,0.0311416,0.00645928,0.0320799,-0.0133199,1.42653,0.0269472,0.0399457,783,1583,-0.0355682,-0.00955122
-434,-559,-0.104797,0.104858,-0.0100842,0.0245645,0.00496413,0.0252617,-0.0107814,1.43126,0.0213619,0.0318845,790,1583,-0.104818,-0.104882
-427,-559,-0.0521851,0.085083,-0.00807597,0.0192851,0.00371617,0.0197809,-0.00857172,1.43818,0.0167904,0.0184038,797,1583,-0.0521897,-0.0850869
-420,-559,-0.0228271,0.0595703,-0.00679171,0.00932689,0.0037714,0.0101657,-0.00763049,1.35195,0.0103093,0.015075,804,1583,-0.022829,-0.0595093
-413,-559,-0.0408936,0.0522461,-0.00571951,0.00673689,0.00330522,0.00755958,-0.00654219,1.32685,0.00814872,0.00986776,811,1583,-0.0408763,-0.0522557
-406,-559,-0.0505981,0.0496826,-0.00401113,0.00461,0.00223338,0.00515422,-0.00455535,1.33178,0.00560937,0.00831241,818,1583,-0.0506003,-0.0496845
-399,-559,-0.0430298,0.0539551,-0.00240206,0.0028007,0.00142305,0.00316449,-0.00276585,1.32051,0.00342646,0.0115242,825,1583,-0.0430377,-0.0539097
-392,-559,-0.0742798,0.0472412,-0.00098084,0.00170836,0.000605394,0.00183836,-0.00111084,1.35927,0.00171991,0.0142141,832,1583,-0.0742688,-0.0472285
-385,-559,-0.0776978,0.0635986,-0.000126787,0.00080494,0.000380518,0.000940593,-0.00026244,1.22835,0.00073043,0.0144072,839,1583,-0.0776943,-0.0636359
-378,-559,-0.0518188,0.0872803,0.000132817,0.000674887,0.000405714,0.00089177,-8.40664e-05,1.07988,0.000624425,0.0136623,846,1583,-0.0518419,-0.0872532
-371,-559,-0.0233765,0.092041,0.000303057,0.000439232,0.000527101,0.000902625,-0.000160336,0.849629,0.000661703,0.0205515,853,1583,-0.0233668,-0.0920462
-364,-559,-0.0146484,0.0820313,-0.000196494,-0.000133309,0.000695209,0.000531025,-0.000860828,0.808104,0.000811072,0.0185685,860,1583,-0.0146281,-0.0820083
-357,-559,-0.041626,0.0744629,-0.000977648,-0.000340289,0.000774682,0.0001787,-0.00149664,0.980532,0.00106235,0.0112987,867,1583,-0.0416148,-0.0744042
-350,-559,-0.0249634,0.0490723,-0.00187922,-7.04491e-05,0.000550522,8.39325e-05,-0.0020336,1.29739,0.00138456,0.00876277,874,1583,-0.0249867,-0.0491184
-343,-559,-0.0108643,0.0356445,-0.00284545,0.000168401,0.000359939,0.000210792,-0.00288784,1.45356,0.0019992,0.00950086,881,1583,-0.010876,-0.0356807
-336,-559,-0.0273438,0.0395508,-0.00378906,0.000581071,1.51183e-05,0.000581123,-0.00378911,1.56734,0.0027404,0.0103383,888,1583,-0.0273134,-0.0394981
-329,-559,-0.0298462,0.0549316,-0.00498828,0.00150475,-0.0004211,0.00153195,-0.00501548,-1.5063,0.00395448,0.0128009,895,1583,-0.029843,-0.0548856
-322,-559,-0.0813599,0.0858154,-0.00670076,0.00290464,-0.000892902,0.00298693,-0.00678305,-1.47889,0.00578089,0.0270516,902,1583,-0.0813802,-0.085876
-315,-559,-0.0812988,0.0909424,-0.00737604,0.0039416,-0.0011093,0.0040493,-0.00748374,-1.47401,0.0067563,0.035846,909,1583,-0.0813186,-0.0909536
-308,-559,-0.0609131,0.0356445,-0.00659806,0.00467719,-0.00106508,0.00477692,-0.00669779,-1.47744,0.00665579,0.0372697,916,1583,-0.0609028,-0.0355874
-301,-559,-0.165161,0.00537109,-0.00484569,0.0056283,-0.00108856,0.00574024,-0.00495763,-1.46833,0.00618192,0.0449708,923,1583,-0.165168,-0.00536887
-294,-559,-0.416382,0.0632324,-0.00330326,0.00675521,-0.000279862,0.00676299,-0.00331104,-1.543,0.00592897,0.0447707,930,1583,-0.416357,-0.0631825
-287,-559,-0.319458,0.482422,-0.0013582,0.00759756,0.00124778,0.00776816,-0.0015288,1.43492,0.00575645,0.0400012,937,1583,-0.319444,-0.482432
-280,-559,0.29071,0.0465088,0,0,0,0,0,0,0,-1,944,1583,0.290734,-0.0464614
-273,-559,-0.486145,-1.57727,0,0,0,0,0,0,0,-1,951,1583,-0.486118,1.57724
-266,-559,0.137268,-0.976929,0.0117551,0.00960219,0.00350381,0.0143441,0.0070132,0.636362,0.00828224,0.0482818,958,1583,0.137249,0.976883
-259,-559,0.700439,-0.549805,0.0215229,0.00937405,0.00264684,0.0220745,0.00882244,0.205464,0.01283,0.0464463,965,1583,0.700424,0.549774
-252,-559,1.34064,-0.793457,0.0348484,0.0089361,-0.000978649,0.0348853,0.00889919,-0.0376962,0.0209309,0.0469118,972,1583,1.34065,0.793512
-245,-559,1.81091,-1.46606,0,0,0,0,0,0,0,-1,979,1583,1.81094,1.46603
-238,-559,2.41388,-2.03516,0,0,0,0,0,0,0,-1,986,1583,2.41387,2.03514
-231,-559,-1.38971,1.59314,0,0,0,0,0,0,0,-1,993,1583,-1.38973,-1.59315
-224,-559,-1.31659,1.5094,0,0,0,0,0,0,0,-1,1000,1583,-1.31657,-1.50938
-217,-559,0,0,0,0,0,0,0,0,0,-1,1007,1583,0,0
-210,-559,0,0,0,0,0,0,0,0,0,-1,1014,1583,0,0
-203,-559,0,0,0,0,0,0,0,0,0,-1,1021,1583,0,0
-196,-559,0,0,0,0,0,0,0,0,0,-1,1028,1583,0,0
-189,-559,0,0,0,0,0,0,0,0,0,-1,1035,1583,0,0
-182,-559,0,0,0,0,0,0,0,0,0,-1,1042,1583,0,0
-175,-559,0,0,0,0,0,0,0,0,0,-1,1049,1583,0,0
-168,-559,0,0,0,0,0,0,0,0,0,-1,1056,1583,0,0
-161,-559,0,0,0,0,0,0,0,0,0,-1,1063,1583,0,0
-154,-559,0,0,0,0,0,0,0,0,0,-1,1070,1583,0,0
-147,-559,0,0,0,0,0,0,0,0,0,-1,1077,1583,0,0
-140,-559,0,0,0,0,0,0,0,0,0,-1,1084,1583,0,0
-133,-559,0,0,0,0,0,0,0,0,0,-1,1091,1583,0,0
-126,-559,0,0,0,0,0,0,0,0,0,-1,1098,1583,0,0
-119,-559,0,0,0,0,0,0,0,0,0,-1,1105,1583,0,0
-112,-559,0,0,0,0,0,0,0,0,0,-1,1112,1583,0,0
-105,-559,0,0,0,0,0,0,0,0,0,-1,1119,1583,0,0
-98,-559,0,0,0,0,0,0,0,0,0,-1,1126,1583,0,0
-91,-559,0,0,0,0,0,0,0,0,0,-1,1133,1583,0,0
-84,-559,0,0,0,0,0,0,0,0,0,-1,1140,1583,0,0
-77,-559,0,0,0,0,0,0,0,0,0,-1,1147,1583,0,0
-70,-559,0,0,0,0,0,0,0,0,0,-1,1154,1583,0,0
-63,-559,0,0,0,0,0,0,0,0,0,-1,1161,1583,0,0
-56,-559,0,0,0,0,0,0,0,0,0,-1,1168,1583,0,0
-49,-559,0,0,0,0,0,0,0,0,0,-1,1175,1583,0,0
-42,-559,0,0,0,0,0,0,0,0,0,-1,1182,1583,0,0
-35,-559,0,0,0,0,0,0,0,0,0,-1,1189,1583,0,0
-28,-559,0,0,0,0,0,0,0,0,0,-1,1196,1583,0,0
-21,-559,0,0,0,0,0,0,0,0,0,-1,1203,1583,0,0
-14,-559,0,0,0,0,0,0,0,0,0,-1,1210,1583,0,0
-7,-559,0,0,0,0,0,0,0,0,0,-1,1217,1583,0,0
0,-559,0,0,0,0,0,0,0,0,0,-1,1224,1583,0,0
7,-559,0,0,0,0,0,0,0,0,0,-1,1231,1583,0,0
14,-559,0,0,0,0,0,0,0,0,0,-1,1238,1583,0,0
21,-559,0,0,0,0,0,0,0,0,0,-1,1245,1583,0,0
28,-559,0,0,0,0,0,0,0,0,0,-1,1252,1583,0,0
35,-559,0,0,0,0,0,0,0,0,0,-1,1259,1583,0,0
42,-559,0,0,0,0,0,0,0,0,0,-1,1266,1583,0,0
49,-559,0,0,0,0,0,0,0,0,0,-1,1273,1583,0,0
56,-559,0,0,0,0,0,0,0,0,0,-1,1280,1583,0,0
63,-559,0,0,0,0,0,0,0,0,0,-1,1287,1583,0,0
70,-559,0,0,0,0,0,0,0,0,0,-1,1294,1583,0,0
77,-559,0,0,0,0,0,0,0,0,0,-1,1301,1583,0,0
84,-559,0,0,0,0,0,0,0,0,0,-1,1308,1583,0,0
91,-559,0,0,0,0,0,0,0,0,0,-1,1315,1583,0,0
98,-559,0,0,0,0,0,0,0,0,0,-1,1322,1583,0,0
105,-559,0,0,0,0,0,0,0,0,0,-1,1329,1583,0,0
112,-559,0,0,0,0,0,0,0,0,0,-1,1336,1583,0,0
119,-559,0,0,0,0,0,0,0,0,0,-1,1343,1583,0,0
126,-559,0,0,0,0,0,0,0,0,0,-1,1350,1583,0,0
133,-559,0,0,0,0,0,0,0,0,0,-1,1357,1583,0,0
140,-559,0,0,0,0,0,0,0,0,0,-1,1364,1583,0,0
147,-559,0,0,0,0,0,0,0,0,0,-1,1371,1583,0,0
154,-559,0,0,0,0,0,0,0,0,0,-1,1378,1583,0,0
161,-559,0,0,0,0,0,0,0,0,0,-1,1385,1583,0,0
168,-559,0,0,0,0,0,0,0,0,0,-1,1392,1583,0,0
175,-559,0,0,0,0,0,0,0,0,0,-1,1399,1583,0,0
182,-559,0,0,0,0,0,0,0,0,0,-1,1406,1583,0,0
189,-559,0,0,0,0,0,0,0,0,0,-1,1413,1583,0,0
196,-559,0,0,0,0,0,0,0,0,0,-1,1420,1583,0,0
203,-559,0,0,0,0,0,0,0,0,0,-1,1427,1583,0,0
210,-559,0,0,0,0,0,0,0,0,0,-1,1434,1583,0,0
217,-559,0,0,0,0,0,0,0,0,0,-1,1441,1583,0,0
224,-559,0,0,0,0,0,0,0,0,0,-1,1448,1583,0,0
231,-559,0,0,0,0,0,0,0,0,0,-1,1455,1583,0,0
238,-559,0,0,0,0,0,0,0,0,0,-1,1462,1583,0,0
245,-559,0,0,0,0,0,0,0,0,0,-1,1469,1583,0,0
252,-559,0,0,0,0,0,0,0,0,0,-1,1476,1583,0,0
259,-559,0,0,0,0,0,0,0,0,0,-1,1483,1583,0,0
266,-559,0,0,0,0,0,0,0,0,0,-1,1490,1583,0,0
273,-559,0,0,0,0,0,0,0,0,0,-1,1497,1583,0,0
280,-559,0,0,0,0,0,0,0,0,0,-1,1504,1583,0,0
287,-559,0,0,0,0,0,0,0,0,0,-1,1511,1583,0,0
294,-559,0,0,0,0,0,0,0,0,0,-1,1518,1583,0,0
301,-559,0,0,0,0,0,0,0,0,0,-1,1525,1583,0,0
308,-559,0,0,0,0,0,0,0,0,0,-1,1532,1583,0,0
315,-559,0,0,0,0,0,0,0,0,0,-1,1539,1583,0,0
322,-559,0,0,0,0,0,0,0,0,0,-1,1546,1583,0,0
329,-559,0,0,0,0,0,0,0,0,0,-1,1553,1583,0,0
336,-559,-1.26538,0.699951,0,0,0,0,0,0,0,-1,1560,1583,-1.26535,-0.699973
343,-559,-1.60437,0.299683,0,0,0,0,0,0,0,-1,1567,1583,-1.60437,-0.299653
350,-559,-2.03699,0.189331,0,0,0,0,0,0,0,-1,1574,1583,-2.03694,-0.189316
357,-559,-0.548584,0.0447998,0,0,0,0,0,0,0,-1,1581,1583,-0.548607,-0.0447796
364,-559,-0.409302,0.240112,0,0,0,0,0,0,0,-1,1588,1583,-0.409276,-0.240105
371,-559,-0.385498,0.469116,0,0,0,0,0,0,0,-1,1595,1583,-0.385473,-0.469175
378,-559,0.82019,1.79419,0,0,0,0,0,0,0,-1,1602,1583,0.820238,-1.79415
385,-559,0.535034,0.943726,0,0,0,0,0,0,0,-1,1609,1583,0.535074,-0.943769
392,-559,0.0925293,0.052002,0,0,0,0,0,0,0,-1,1616,1583,0.0925608,-0.0519981
399,-559,1.03894,-0.288696,0,0,0,0,0,0,0,-1,1623,1583,1.039,0.288657
406,-559,0.739746,-0.35083,0.0198721,0.00246274,-0.00683886,0.0222373,9.75775e-05,-0.332965,0.0147924,0.0457709,1630,1583,0.739721,0.350846
413,-559,0.453735,-0.386475,0.0165792,0.00498136,-0.0032322,0.0174192,0.00414141,-0.254245,0.010508,0.0438015,1637,1583,0.453703,0.386509
420,-559,0.0758057,-0.425415,0.0133302,0.00797216,-0.000713436,0.0134235,0.00787879,-0.130133,0.00778903,0.041015,1644,1583,0.0757758,0.425462
427,-559,-0.259888,-0.231689,0.010208,0.0107866,0.000934662,0.0114757,0.00951887,0.935491,0.0070888,0.0408454,1651,1583,-0.259942,0.231662
434,-559,-0.0517578,0.0343018,0.00722062,0.0128662,0.00197869,0.0134906,0.00659619,1.26511,0.00778944,0.0409192,1658,1583,-0.0517339,-0.0343241
441,-559,0.262817,0.185303,0.00463012,0.0142844,0.00287205,0.0150742,0.00384032,1.30244,0.0090453,0.0443896,1665,1583,0.262768,-0.185258
448,-559,-0.0825195,0.0146484,0.00183476,0.0146963,0.0035624,0.015617,0.000913965,1.31786,0.0101205,0.0451839,1672,1583,-0.0825187,-0.0146909
455,-559,-0.0412598,0.0349121,-0.000229686,0.0153202,0.00301494,0.0158843,-0.000793784,1.38583,0.0108638,0.034242,1679,1583,-0.0413048,-0.0349365
462,-559,-0.0102539,0.0483398,-0.000924197,0.014738,0.00228655,0.015065,-0.00125119,1.42875,0.0104853,0.0251528,1686,1583,-0.0103125,-0.0483881
469,-559,-0.0501709,0.0644531,-0.00122051,0.0130777,0.00151019,0.0132355,-0.00137828,1.46671,0.00931713,0.0140663,1693,1583,-0.0501115,-0.0644402
476,-559,-0.0610352,0.0620117,-0.00174205,0.0110941,0.00111812,0.0111908,-0.00183872,1.48456,0.00814294,0.0095034,1700,1583,-0.0609921,-0.062005
483,-559,-0.0524902,0.0584717,-0.00201289,0.00901736,0.000611909,0.0090512,-0.00204673,1.51555,0.00681954,0.0120741,1707,1583,-0.0524879,-0.0584859
490,-559,-0.0377197,0.0788574,-0.00190643,0.00693997,6.16632e-05,0.0069404,-0.00190686,1.56383,0.00537648,0.0149246,1714,1583,-0.0377679,-0.0788268
497,-559,0.00805664,0.105957,-0.00110292,0.00437396,-0.000120904,0.00437663,-0.00110559,-1.54874,0.0033477,0.0181782,1721,1583,0.00807684,-0.105925
504,-559,0.00366211,0.0980225,0.000146341,0.00327747,0.000253481,0.00329786,0.000125953,1.49054,0.00215781,0.0217269,1728,1583,0.00364323,-0.097964
511,-559,-0.0483398,0.0891113,0.000957053,0.00211167,0.0003177,0.00219331,0.000875409,1.31925,0.00127487,0.0187629,1735,1583,-0.0483627,-0.0890702
518,-559,-0.0449219,0.0808105,0.00140384,0.00117511,0.000231686,0.00154785,0.0010311,0.556136,0.000909951,0.011915,1742,1583,-0.0449143,-0.0808147
525,-559,-0.0366211,0.0552979,0.00194679,0.00048872,0.00017057,0.00196648,0.000469032,0.114917,0.00118597,0.00987697,1749,1583,-0.0366076,-0.0553214
532,-559,-0.0378418,0.0457764,0.00236352,0.000275627,-0.000321689,0.00241196,0.000227188,-0.149457,0.00153785,0.0112708,1756,1583,-0.0378728,-0.0457405
539,-559,-0.032959,0.0465088,0.00251086,0.000134702,-0.0011176,0.00295391,-0.00030834,-0.377419,0.00207968,0.0153674,1763,1583,-0.0329977,-0.0464571
546,-559,-0.0463867,0.0405273,0.00304812,2.98571e-05,-0.00196005,0.0040127,-0.000934727,-0.457326,0.00303507,0.0139202,1770,1583,-0.0463661,-0.0404796
553,-559,-0.0405273,0.0793457,0.00401426,0.000106762,-0.0030147,0.00565294,-0.00153192,-0.497888,0.00436971,0.0137281,1777,1583,-0.0405395,-0.0793106
560,-559,-0.0657959,0.0656738,0.00505074,0.000620254,-0.00445371,0.00780971,-0.00213872,-0.554618,0.00604679,0.0223242,1784,1583,-0.0657893,-0.0656886
567,-559,-0.144653,0.0250244,0.00607519,0.00107279,-0.00587896,0.0099629,-0.00281492,-0.584272,0.0077525,0.0340229,1791,1583,-0.144681,-0.0250062
574,-559,-0.277954,0.245117,0.00706278,0.00173695,-0.00735725,0.0122242,-0.00342447,-0.61176,0.00949899,0.0412217,1798,1583,-0.277951,-0.245064
581,-559,-0.407959,0.334473,0.00823653,0.00273104,-0.00883481,0.0147375,-0.00376995,-0.634375,0.0112934,0.0419527,1805,1583,-0.407995,-0.334501
588,-559,-0.342285,-0.581177,0.00974055,0.00384386,-0.0101417,0.0173538,-0.00376935,-0.64394,0.0130089,0.0417392,1812,1583,-0.342295,0.581155
595,-559,-0.460815,-0.683472,0.0114147,0.00555446,-0.0109255,0.0197962,-0.00282705,-0.654386,0.0142337,0.0432712,1819,1583,-0.460821,0.683431
602,-559,0.236328,-0.30603,0.0124793,0.00767199,-0.0111677,0.0214991,-0.00134778,-0.679399,0.0148024,0.0401376,1826,1583,0.236287,0.306088
609,-559,0.444092,-0.558105,0.0126623,0.00913398,-0.011083,0.0221206,-0.000324379,-0.706472,0.0148564,0.0423037,1833,1583,0.444115,0.55813
616,-559,0,0,0,0,0,0,0,0,0,-1,1840,1583,0,0
623,-559,0,0,0,0,0,0,0,0,0,-1,1847,1583,0,0
630,-559,0,0,0,0,0,0,0,0,0,-1,1854,1583,0,0
637,-559,0,0,0,0,0,0,0,0,0,-1,1861,1583,0,0
644,-559,0,0,0,0,0,0,0,0,0,-1,1868,1583,0,0
651,-559,0,0,0,0,0,0,0,0,0,-1,1875,1583,0,0
658,-559,0,0,0,0,0,0,0,0,0,-1,1882,1583,0,0
665,-559,0,0,0,0,0,0,0,0,0,-1,1889,1583,0,0
672,-559,0,0,0,0,0,0,0,0,0,-1,1896,1583,0,0
679,-559,0,0,0,0,0,0,0,0,0,-1,1903,1583,0,0
686,-559,0,0,0,0,0,0,0,0,0,-1,1910,1583,0,0
693,-559,0,0,0,0,0,0,0,0,0,-1,1917,1583,0,0
700,-559,0,0,0,0,0,0,0,0,0,-1,1924,1583,0,0
707,-559,0,0,0,0,0,0,0,0,0,-1,1931,1583,0,0
714,-559,0,0,0,0,0,0,0,0,0,-1,1938,1583,0,0
721,-559,0,0,0,0,0,0,0,0,0,-1,1945,1583,0,0
728,-559,0,0,0,0,0,0,0,0,0,-1,1952,1583,0,0
735,-559,0,0,0,0,0,0,0,0,0,-1,1959,1583,0,0
742,-559,0,0,0,0,0,0,0,0,0,-1,1966,1583,0,0
749,-559,0,0,0,0,0,0,0,0,0,-1,1973,1583,0,0
756,-559,0,0,0,0,0,0,0,0,0,-1,1980,1583,0,0
763,-559,0,0,0,0,0,0,0,0,0,-1,1987,1583,0,0
770,-559,0,0,0,0,0,0,0,0,0,-1,1994,1583,0,0
777,-559,0,0,0,0,0,0,0,0,0,-1,2001,1583,0,0
784,-559,0,0,0,0,0,0,0,0,0,-1,2008,1583,0,0
791,-559,0,0,0,0,0,0,0,0,0,-1,2015,1583,0,0
798,-559,0,0,0,0,0,0,0,0,0,-1,2022,1583,0,0
805,-559,0,0,0,0,0,0,0,0,0,-1,2029,1583,0,0
812,-559,0,0,0,0,0,0,0,0,0,-1,2036,1583,0,0
-700,-566,0,0,0,0,0,0,0,0,0,-1,524,1590,0,0
-693,-566,0,0,0,0,0,0,0,0,0,-1,531,1590,0,0
-686,-566,0,0,0,0,0,0,0,0,0,-1,538,1590,0,0
-679,-566,0,0,0,0,0,0,0,0,0,-1,545,1590,0,0
-672,-566,0,0,0,0,0,0,0,0,0,-1,552,1590,0,0
-665,-566,0,0,0,0,0,0,0,0,0,-1,559,1590,0,0
-658,-566,0,0,0,0,0,0,0,0,0,-1,566,1590,0,0
-651,-566,0,0,0,0,0,0,0,0,0,-1,573,1590,0,0
-644,-566,0,0,0,0,0,0,0,0,0,-1,580,1590,0,0
-637,-566,0,0,0,0,0,0,0,0,0,-1,587,1590,0,0
-630,-566,0,0,0,0,0,0,0,0,0,-1,594,1590,0,0
-623,-566,0,0,0,0,0,0,0,0,0,-1,601,1590,0,0
-616,-566,0,0,0,0,0,0,0,0,0,-1,608,1590,0,0
-609,-566,0,0,0,0,0,0,0,0,0,-1,615,1590,0,0
-602,-566,0,0,0,0,0,0,0,0,0,-1,622,1590,0,0
-595,-566,0,0,0,0,0,0,0,0,0,-1,629,1590,0,0
-588,-566,0,0,0,0,0,0,0,0,0,-1,636,1590,0,0
-581,-566,0,0,0,0,0,0,0,0,0,-1,643,1590,0,0
-574,-566,0,0,0,0,0,0,0,0,0,-1,650,1590,0,0
-567,-566,0,0,0,0,0,0,0,0,0,-1,657,1590,0,0
-560,-566,0,0,0,0,0,0,0,0,0,-1,664,1590,0,0
-553,-566,0,0,0,0,0,0,0,0,0,-1,671,1590,0,0
-546,-566,0,0,0,0,0,0,0,0,0,-1,678,1590,0,0
-539,-566,0,0,0,0,0,0,0,0,0,-1,685,1590,0,0
-532,-566,0,0,0,0,0,0,0,0,0,-1,692,1590,0,0
-525,-566,0,0,0,0,0,0,0,0,0,-1,699,1590,0,0
-518,-566,0,0,0,0,0,0,0,0,0,-1,706,1590,0,0
-511,-566,0,0,0,0,0,0,0,0,0,-1,713,1590,0,0
-504,-566,0,0,0,0,0,0,0,0,0,-1,720,1590,0,0
-497,-566,0,0,0,0,0,0,0,0,0,-1,727,1590,0,0
-490,-566,0,0,0,0,0,0,0,0,0,-1,734,1590,0,0
-483,-566,-0.810181,2.27222,-0.044215,0.114485,0.0312985,0.120435,-0.0501646,1.38295,0.101243,0.0436213,741,1590,-0.810182,-2.27219
-476,-566,-1.16357,2.7843,-0.0382192,0.102674,0.0258734,0.107275,-0.0428203,1.3948,0.089281,0.0447676,748,1590,-1.16356,-2.78426
-469,-566,0.465698,-0.238892,0,0,0,0,0,0,0,-1,755,1590,0.465681,0.238938
-462,-566,1.7691,-1.52673,-0.0286306,0.0744499,0.0181033,0.0775369,-0.0317175,1.4019,0.0649007,0.0423898,762,1590,1.76909,1.52671
-455,-566,1.62823,-1.25122,-0.0246356,0.0607755,0.0151557,0.0633851,-0.0272451,1.40028,0.0536942,0.0419319,769,1590,1.62824,1.25119
-448,-566,1.44043,-1.17761,-0.0207594,0.0490463,0.0123526,0.0511678,-0.0228808,1.40072,0.0437794,0.0415458,776,1590,1.44044,1.17764
-441,-566,-0.0982666,0.0545654,-0.0173491,0.0386905,0.00988948,0.0403845,-0.0190432,1.40115,0.0350403,0.0437704,783,1590,-0.0982746,-0.0545286
-434,-566,-0.389038,0.377686,-0.0142611,0.0302137,0.00764716,0.0314918,-0.0155392,1.40519,0.0276692,0.0437065,790,1590,-0.389011,-0.377645
-427,-566,-0.226868,0.256348,-0.0114313,0.0234869,0.00576375,0.0244137,-0.0123581,1.41136,0.0216072,0.0373921,797,1590,-0.226858,-0.2564
-420,-566,-0.0525513,0.0655518,-0.00939451,0.0113972,0.00540496,0.0127183,-0.0107156,1.33107,0.0135461,0.0238412,804,1590,-0.0525208,-0.0655219
-413,-566,-0.0418701,0.0410156,-0.00767516,0.00832699,0.0044528,0.00948259,-0.00883076,1.31688,0.0105754,0.00938182,811,1590,-0.0418424,-0.0410698
-406,-566,-0.0443115,0.0526123,-0.0054103,0.00571322,0.00302132,0.00648088,-0.00617795,1.32198,0.00730928,0.00714402,818,1590,-0.0443044,-0.0525682
-399,-566,-0.0430298,0.0578613,-0.00328326,0.00354644,0.00185823,0.0040193,-0.00375612,1.32162,0.00448999,0.00881354,825,1590,-0.0430452,-0.0578126
-392,-566,-0.0480347,0.0494385,-0.00149637,0.00214333,0.00079811,0.00231064,-0.00166369,1.36415,0.00230469,0.0104139,832,1590,-0.0480147,-0.0494964
-385,-566,-0.0371704,0.0651855,-0.000515967,0.00093915,0.000518973,0.00110528,-0.000682094,1.261,0.00104154,0.0129728,839,1590,-0.0371828,-0.0651295
-378,-566,-0.0586548,0.0810547,-0.000197018,0.000672853,0.000480701,0.000886179,-0.000410344,1.15313,0.000765167,0.0143223,846,1590,-0.0586764,-0.0810354
-371,-566,-0.0405884,0.081543,0.000105641,0.000357249,0.000562509,0.00080785,-0.00034496,0.895412,0.000683226,0.0195831,853,1590,-0.0405797,-0.0814913
-364,-566,-0.0307007,0.0756836,-0.000204981,-0.00029238,0.000642656,0.000395459,-0.00089282,0.751451,0.000762041,0.0197452,860,1590,-0.0307059,-0.0757179
-357,-566,-0.0315552,0.0772705,-0.000806044,-0.000481034,0.000636387,1.32683e-05,-0.00130035,0.910404,0.000871354,0.0160228,867,1590,-0.0315435,-0.0772801
-350,-566,-0.019104,0.0332031,-0.00149974,-0.000250241,0.000362974,-0.000152452,-0.00159753,1.30763,0.00101801,0.0180674,874,1590,-0.0191158,-0.0331692
-343,-566,-0.0136719,0.027832,-0.00221249,5.20983e-05,0.000108122,5.7249e-05,-0.00221764,1.5232,0.00149787,0.0219098,881,1590,-0.0136801,-0.0277897
-336,-566,-0.0133667,0.00585938,-0.00282424,0.000522218,-0.000273862,0.000544482,-0.0028465,-1.48968,0.00210279,0.0206586,888,1590,-0.0133478,-0.00582437
-329,-566,-0.0218506,0.0296631,-0.00359901,0.00134167,-0.000729,0.00144699,-0.00370433,-1.42732,0.00306782,0.0117484,895,1590,-0.0218229,-0.0296852
-322,-566,-0.0296021,0.0443115,-0.00478715,0.00256237,-0.00120718,0.00275557,-0.00498036,-1.4121,0.00452749,0.0113228,902,1590,-0.0296005,-0.0443199
-315,-566,-0.038269,0.052002,-0.00500844,0.00340156,-0.00143249,0.00363886,-0.00524574,-1.40663,0.00515742,0.0230418,909,1590,-0.0382817,-0.0519811
-308,-566,-0.0637817,0.0535889,-0.00403304,0.00392355,-0.00137032,0.00415294,-0.00426243,-1.40494,0.00485875,0.0325548,916,1590,-0.0637993,-0.0535398
-301,-566,-0.140259,0.0385742,-0.002167,0.00462695,-0.0013882,0.00489965,-0.00243971,-1.37682,0.00431599,0.0394232,923,1590,-0.140274,-0.0386284
-294,-566,-0.292908,0.0645752,-0.000622794,0.00549959,-0.000451544,0.00553272,-0.000655918,-1.49757,0.00392543,0.0408424,930,1590,-0.292894,-0.0645576
-287,-566,-0.119568,0.419556,0.000900977,0.00615291,0.00117085,0.00640211,0.000651776,1.36109,0.00406825,0.0418676,937,1590,-0.11957,-0.419525
-280,-566,0.340454,-0.11438,0.00242064,0.00785835,0.00189451,0.0084533,0.00182569,1.26651,0.00513629,0.0454044,944,1590,0.340466,0.114417
-273,-566,0.549866,-0.491821,0,0,0,0,0,0,0,-1,951,1590,0.549883,0.491836
-266,-566,-0.0338745,-0.683228,0.0107916,0.00870953,0.00231845,0.012292,0.00720911,0.574381,0.00713209,0.0468949,958,1590,-0.0338548,0.683216
-259,-566,0.43866,-0.741699,0.019518,0.00875434,0.0011796,0.0196458,0.00862659,0.107885,0.0113705,0.0484821,965,1590,0.438683,0.741706
-252,-566,0.912476,-0.788452,0,0,0,0,0,0,0,-1,972,1590,0.912469,0.788393
-245,-566,1.67297,-2.08118,0,0,0,0,0,0,0,-1,979,1590,1.67295,2.08123
-238,-566,-1.91107,0.402588,0,0,0,0,0,0,0,-1,986,1590,-1.91107,-0.402532
-231,-566,-1.74658,0.932617,0,0,0,0,0,0,0,-1,993,1590,-1.74656,-0.932606
-224,-566,-1.55908,1.49341,0,0,0,0,0,0,0,-1,1000,1590,-1.55906,-1.49342
-217,-566,0.593445,-0.144531,0,0,0,0,0,0,0,-1,1007,1590,0.593432,0.144546
-210,-566,-0.0354614,-0.25293,0,0,0,0,0,0,0,-1,1014,1590,-0.0354409,0.252875
-203,-566,0,0,0,0,0,0,0,0,0,-1,1021,1590,0,0
-196,-566,0,0,0,0,0,0,0,0,0,-1,1028,1590,0,0
-189,-566,0,0,0,0,0,0,0,0,0,-1,1035,1590,0,0
-182,-566,0,0,0,0,0,0,0,0,0,-1,1042,1590,0,0
-175,-566,0,0,0,0,0,0,0,0,0,-1,1049,1590,0,0
-168,-566,0,0,0,0,0,0,0,0,0,-1,1056,1590,0,0
-161,-566,0,0,0,0,0,0,0,0,0,-1,1063,1590,0,0
-154,-566,0,0,0,0,0,0,0,0,0,-1,1070,1590,0,0
-147,-566,0,0,0,0,0,0,0,0,0,-1,1077,1590,0,0
-140,-566,0,0,0,0,0,0,0,0,0,-1,1084,1590,0,0
-133,-566,0,0,0,0,0,0,0,0,0,-1,1091,1590,0,0
-126,-566,0,0,0,0,0,0,0,0,0,-1,1098,1590,0,0
-119,-566,0,0,0,0,0,0,0,0,0,-1,1105,1590,0,0
-112,-566,0,0,0,0,0,0,0,0,0,-1,1112,1590,0,0
-105,-566,0,0,0,0,0,0,0,0,0,-1,1119,1590,0,0
-98,-566,0,0,0,0,0,0,0,0,0,-1,1126,1590,0,0
-91,-566,0,0,0,0,0,0,0,0,0,-1,1133,1590,0,0
-84,-566,0,0,0,0,0,0,0,0,0,-1,1140,1590,0,0
-77,-566,0,0,0,0,0,0,0,0,0,-1,1147,1590,0,0
-70,-566,0,0,0,0,0,0,0,0,0,-1,1154,1590,0,0
-63,-566,0,0,0,0,0,0,0,0,0,-1,1161,1590,0,0
-56,-566,0,0,0,0,0,0,0,0,0,-1,1168,1590,0,0
-49,-566,0,0,0,0,0,0,0,0,0,-1,1175,1590,0,0
-42,-566,0,0,0,0,0,0,0,0,0,-1,1182,1590,0,0
-35,-566,0,0,0,0,0,0,0,0,0,-1,1189,1590,0,0
-28,-566,0,0,0,0,0,0,0,0,0,-1,1196,1590,0,0
-21,-566,0,0,0,0,0,0,0,0,0,-1,1203,1590,0,0
-14,-566,0,0,0,0,0,0,0,0,0,-1,1210,1590,0,0
-7,-566,0,0,0,0,0,0,0,0,0,-1,1217,1590,0,0
0,-566,0,0,0,0,0,0,0,0,0,-1,1224,1590,0,0
7,-566,0,0,0,0,0,0,0,0,0,-1,1231,1590,0,0
14,-566,0,0,0,0,0,0,0,0,0,-1,1238,1590,0,0
21,-566,0,0,0,0,0,0,0,0,0,-1,1245,1590,0,0
28,-566,0,0,0,0,0,0,0,0,0,-1,1252,1590,0,0
35,-566,0,0,0,0,0,0,0,0,0,-1,1259,1590,0,0
42,-566,0,0,0,0,0,0,0,0,0,-1,1266,1590,0,0
49,-566,0,0,0,0,0,0,0,0,0,-1,1273,1590,0,0
56,-566,0,0,0,0,0,0,0,0,0,-1,1280,1590,0,0
63,-566,0,0,0,0,0,0,0,0,0,-1,1287,1590,0,0
70,-566,0,0,0,0,0,0,0,0,0,-1,1294,1590,0,0
77,-566,0,0,0,0,0,0,0,0,0,-1,1301,1590,0,0
84,-566,0,0,0,0,0,0,0,0,0,-1,1308,1590,0,0
91,-566,0,0,0,0,0,0,0,0,0,-1,1315,1590,0,0
98,-566,0,0,0,0,0,0,0,0,0,-1,1322,1590,0,0
105,-566,0,0,0,0,0,0,0,0,0,-1,1329,1590,0,0
112,-566,0,0,0,0,0,0,0,0,0,-1,1336,1590,0,0
119,-566,0,0,0,0,0,0,0,0,0,-1,1343,1590,0,0
126,-566,0,0,0,0,0,0,0,0,0,-1,1350,1590,0,0
133,-566,0,0,0,0,0,0,0,0,0,-1,1357,1590,0,0
140,-566,0,0,0,0,0,0,0,0,0,-1,1364,1590,0,0
147,-566,0,0,0,0,0,0,0,0,0,-1,1371,1590,0,0
154,-566,0,0,0,0,0,0,0,0,0,-1,1378,1590,0,0
161,-566,0,0,0,0,0,0,0,0,0,-1,1385,1590,0,0
168,-566,0,0,0,0,0,0,0,0,0,-1,1392,1590,0,0
175,-566,0,0,0,0,0,0,0,0,0,-1,1399,1590,0,0
182,-566,0,0,0,0,0,0,0,0,0,-1,1406,1590,0,0
189,-566,0,0,0,0,0,0,0,0,0,-1,1413,1590,0,0
196,-566,0,0,0,0,0,0,0,0,0,-1,1420,1590,0,0
203,-566,0,0,0,0,0,0,0,0,0,-1,1427,1590,0,0
210,-566,0,0,0,0,0,0,0,0,0,-1,1434,1590,0,0
217,-566,0,0,0,0,0,0,0,0,0,-1,1441,1590,0,0
224,-566,0,0,0,0,0,0,0,0,0,-1,1448,1590,0,0
231,-566,0,0,0,0,0,0,0,0,0,-1,1455,1590,0,0
238,-566,0,0,0,0,0,0,0,0,0,-1,1462,1590,0,0
245,-566,0,0,0,0,0,0,0,0,0,-1,1469,1590,0,0
252,-566,0,0,0,0,0,0,0,0,0,-1,1476,1590,0,0
259,-566,0,0,0,0,0,0,0,0,0,-1,1483,1590,0,0
266,-566,0,0,0,0,0,0,0,0,0,-1,1490,1590,0,0
273,-566,0,0,0,0,0,0,0,0,0,-1,1497,1590,0,0
280,-566,0,0,0,0,0,0,0,0,0,-1,1504,1590,0,0
287,-566,0,0,0,0,0,0,0,0,0,-1,1511,1590,0,0
294,-566,0,0,0,0,0,0,0,0,0,-1,1518,1590,0,0
301,-566,0,0,0,0,0,0,0,0,0,-1,1525,1590,0,0
308,-566,0,0,0,0,0,0,0,0,0,-1,1532,1590,0,0
315,-566,0,0,0,0,0,0,0,0,0,-1,1539,1590,0,0
322,-566,-1.9679,1.88525,0,0,0,0,0,0,0,-1,1546,1590,-1.9679,-1.8852
329,-566,-1.49329,1.6698,0,0,0,0,0,0,0,-1,1553,1590,-1.49329,-1.66976
336,-566,-1.29285,1.16858,0,0,0,0,0,0,0,-1,1560,1590,-1.2929,-1.16858
343,-566,-1.42029,0.843384,0,0,0,0,0,0,0,-1,1567,1590,-1.42033,-0.843443
350,-566,-1.85449,0.832764,0,0,0,0,0,0,0,-1,1574,1590,-1.85455,-0.832812
357,-566,-1.93506,0.778809,0,0,0,0,0,0,0,-1,1581,1590,-1.93502,-0.778826
364,-566,-0.377808,0.404297,0,0,0,0,0,0,0,-1,1588,1590,-0.377757,-0.404299
371,-566,0.904175,2.18994,0,0,0,0,0,0,0,-1,1595,1590,0.904153,-2.18995
378,-566,0.685425,1.49768,0,0,0,0,0,0,0,-1,1602,1590,0.685369,-1.49768
385,-566,0.36499,0.75,0.0201226,0.00821145,-0.0164775,0.0316878,-0.00335375,-0.611984,0.0223273,0.0456049,1609,1590,0.364958,-0.749983
392,-566,0.179199,0.0656738,0.0166616,0.00506043,-0.0122416,0.0244074,-0.00268531,-0.564146,0.0172365,0.0448039,1616,1590,0.17922,-0.0656365
399,-566,-0.215576,-0.17981,0.014924,0.003762,-0.00810532,0.0191839,-0.00049792,-0.483894,0.0129584,0.0422798,1623,1590,-0.215528,0.179804
406,-566,0.601074,-0.0758057,0,0,0,0,0,0,0,-1,1630,1590,0.601085,0.0757502
413,-566,-0.189331,-0.255981,0.0109927,0.00500767,-0.00208843,0.0116494,0.00435099,-0.304651,0.00679717,0.043152,1637,1590,-0.189313,0.256016
420,-566,-0.00280762,-0.492554,0.00890985,0.00681018,-9.96521e-05,0.00891457,0.00680546,-0.047319,0.00537964,0.042087,1644,1590,-0.00281901,0.492595
427,-566,-0.0467529,-0.160034,0.00685856,0.00866429,0.00120657,0.0092684,0.00625445,1.1066,0.00545904,0.0395034,1651,1590,-0.0467955,0.160076
434,-566,-0.0708008,0.177856,0.00478915,0.00997928,0.00198976,0.0106543,0.00411412,1.24373,0.0062042,0.0419701,1658,1590,-0.0708317,-0.177901
441,-566,0.148438,0.377441,0.00311145,0.0109637,0.00269525,0.0117998,0.00227534,1.27,0.00722846,0.0391787,1665,1590,0.148476,-0.37744
448,-566,-0.038208,0.106323,0.00122701,0.0111229,0.00306348,0.0119945,0.000355416,1.29361,0.00788052,0.0317631,1672,1590,-0.0382469,-0.10633
455,-566,-0.0510254,0.0566406,-0.000212958,0.0114864,0.00254097,0.0120145,-0.000740994,1.3659,0.00826773,0.0181473,1679,1590,-0.0510205,-0.0566464
462,-566,-0.0377197,0.0571289,-0.000659185,0.010899,0.00190208,0.011204,-0.000964153,1.41181,0.00781056,0.0116354,1686,1590,-0.0377074,-0.0571156
469,-566,-0.0593262,0.0649414,-0.000799327,0.00964214,0.00121945,0.00978267,-0.000939855,1.45606,0.00685657,0.0106204,1693,1590,-0.0593744,-0.0649841
476,-566,-0.0603027,0.0561523,-0.00112634,0.0081126,0.00083721,0.00818785,-0.00120159,1.48115,0.00590003,0.00958652,1700,1590,-0.0603362,-0.0560959
483,-566,-0.0559082,0.0509033,-0.00127688,0.00651378,0.000380792,0.00653235,-0.00129544,1.52207,0.00484479,0.00988284,1707,1590,-0.0559464,-0.0508802
490,-566,-0.050415,0.0627441,-0.00115283,0.00491859,-0.000105837,0.00492044,-0.00115468,-1.55337,0.00372532,0.00981547,1714,1590,-0.0503874,-0.0627389
497,-566,-0.0205078,0.0769043,-0.000373202,0.00291234,-0.000232816,0.00292875,-0.000389618,-1.5004,0.00209449,0.0135392,1721,1590,-0.0204786,-0.0769143
504,-566,-0.0186768,0.0819092,0.000904032,0.00237925,0.000287142,0.00243317,0.000850112,1.38518,0.00142588,0.0178631,1728,1590,-0.0187355,-0.0818841
511,-566,-0.0548096,0.079834,0.00175808,0.00156144,0.000395529,0.00206733,0.00125219,0.663573,0.00120243,0.0170212,1735,1590,-0.0548557,-0.0798877
518,-566,-0.0482178,0.0845947,0.0022282,0.000906824,0.000318243,0.00230085,0.000834173,0.224444,0.00134502,0.0102428,1742,1590,-0.0482052,-0.0846239
525,-566,-0.055542,0.0462646,0.00289526,0.000466109,0.000241289,0.002919,0.000442374,0.0980538,0.00181658,0.00936045,1749,1590,-0.055516,-0.0462376
532,-566,-0.0501709,0.0400391,0.00349396,0.000457093,-0.00033163,0.00352975,0.000421301,-0.107513,0.00222606,0.0114445,1756,1590,-0.050142,-0.0399841
539,-566,-0.0595703,0.0544434,0.0038001,0.000423038,-0.00121404,0.00419124,3.19001e-05,-0.311679,0.00278359,0.0146563,1763,1590,-0.0596095,-0.0544404
546,-566,-0.0705566,0.0357666,0.0045075,0.000360694,-0.00222828,0.00547781,-0.00060962,-0.410693,0.00387112,0.0132598,1770,1590,-0.070572,-0.0358233
553,-566,-0.0644531,0.0611572,0.00567711,0.000496804,-0.00354995,0.00748139,-0.00130747,-0.470229,0.0054757,0.0192097,1777,1590,-0.0644824,-0.0611786
560,-566,0.00891113,0.184692,0.00689231,0.000947088,-0.00540082,0.0100845,-0.00224514,-0.533823,0.00758301,0.0310106,1784,1590,0.00896258,-0.184661
567,-566,-0.0654297,0.137451,0.00810008,0.00133069,-0.00732586,0.0127854,-0.00335458,-0.568996,0.00983436,0.0414174,1791,1590,-0.0654659,-0.137476
574,-566,-0.442383,0.387817,0.00932023,0.00189621,-0.00942461,0.0157375,-0.00452106,-0.597795,0.0122793,0.0437246,1798,1590,-0.442375,-0.387764
581,-566,-0.0893555,-0.201172,0.0108049,0.00281844,-0.0115867,0.0190672,-0.00544387,-0.619453,0.0148623,0.0430944,1805,1590,-0.0893544,0.201151
588,-566,-0.129395,-0.365356,0.0126355,0.00390383,-0.0136993,0.0226478,-0.00610847,-0.63114,0.0174939,0.042635,1812,1590,-0.129434,0.365328
595,-566,-0.198975,-0.327637,0.0146686,0.00570061,-0.0152995,0.0261277,-0.00575849,-0.64285,0.0196217,0.04394,1819,1590,-0.199003,0.327592
602,-566,0.283081,-0.454834,0.0162713,0.0079846,-0.0163848,0.0290285,-0.0047726,-0.661556,0.0211237,0.0432665,1826,1590,0.283101,0.454826
609,-566,0,0,0,0,0,0,0,0,0,-1,1833,1590,0,0
616,-566,0,0,0,0,0,0,0,0,0,-1,1840,1590,0,0
623,-566,0,0,0,0,0,0,0,0,0,-1,1847,1590,0,0
630,-566,0,0,0,0,0,0,0,0,0,-1,1854,1590,0,0
637,-566,0,0,0,0,0,0,0,0,0,-1,1861,1590,0,0
644,-566,0,0,0,0,0,0,0,0,0,-1,1868,1590,0,0
651,-566,0,0,0,0,0,0,0,0,0,-1,1875,1590,0,0
658,-566,0,0,0,0,0,0,0,0,0,-1,1882,1590,0,0
665,-566,0,0,0,0,0,0,0,0,0,-1,1889,1590,0,0
672,-566,0,0,0,0,0,0,0,0,0,-1,1896,1590,0,0
679,-566,0,0,0,0,0,0,0,0,0,-1,1903,1590,0,0
686,-566,0,0,0,0,0,0,0,0,0,-1,1910,1590,0,0
693,-566,0,0,0,0,0,0,0,0,0,-1,1917,1590,0,0
700,-566,0,0,0,0,0,0,0,0,0,-1,1924,1590,0,0
707,-566,0,0,0,0,0,0,0,0,0,-1,1931,1590,0,0
714,-566,0,0,0,0,0,0,0,0,0,-1,1938,1590,0,0
721,-566,0,0,0,0,0,0,0,0,0,-1,1945,1590,0,0
728,-566,0,0,0,0,0,0,0,0,0,-1,1952,1590,0,0
735,-566,0,0,0,0,0,0,0,0,0,-1,1959,1590,0,0
742,-566,0,0,0,0,0,0,0,0,0,-1,1966,1590,0,0
749,-566,0,0,0,0,0,0,0,0,0,-1,1973,1590,0,0
756,-566,0,0,0,0,0,0,0,0,0,-1,1980,1590,0,0
763,-566,0,0,0,0,0,0,0,0,0,-1,1987,1590,0,0
770,-566,0,0,0,0,0,0,0,0,0,-1,1994,1590,0,0
777,-566,0,0,0,0,0,0,0,0,0,-1,2001,1590,0,0
784,-566,0,0,0,0,0,0,0,0,0,-1,2008,1590,0,0
791,-566,0,0,0,0,0,0,0,0,0,-1,2015,1590,0,0
798,-566,0,0,0,0,0,0,0,0,0,-1,2022,1590,0,0
805,-566,0,0,0,0,0,0,0,0,0,-1,2029,1590,0,0
812,-566,0,0,0,0,0,0,0,0,0,-1,2036,1590,0,0
-700,-573,0,0,0,0,0,0,0,0,0,-1,524,1597,0,0
-693,-573,0,0,0,0,0,0,0,0,0,-1,531,1597,0,0
-686,-573,0,0,0,0,0,0,0,0,0,-1,538,1597,0,0
-679,-573,0,0,0,0,0,0,0,0,0,-1,545,1597,0,0
-672,-573,0,0,0,0,0,0,0,0,0,-1,552,1597,0,0
-665,-573,0,0,0,0,0,0,0,0,0,-1,559,1597,0,0
-658,-573,0,0,0,0,0,0,0,0,0,-1,566,1597,0,0
-651,-573,0,0,0,0,0,0,0,0,0,-1,573,1597,0,0
-644,-573,0,0,0,0,0,0,0,0,0,-1,580,1597,0,0
-637,-573,0,0,0,0,0,0,0,0,0,-1,587,1597,0,0
-630,-573,0,0,0,0,0,0,0,0,0,-1,594,1597,0,0
-623,-573,0,0,0,0,0,0,0,0,0,-1,601,1597,0,0
-616,-573,0,0,0,0,0,0,0,0,0,-1,608,1597,0,0
-609,-573,0,0,0,0,0,0,0,0,0,-1,615,1597,0,0
-602,-573,0,0,0,0,0,0,0,0,0,-1,622,1597,0,0
-595,-573,0,0,0,0,0,0,0,0,0,-1,629,1597,0,0
-588,-573,0,0,0,0,0,0,0,0,0,-1,636,1597,0,0
-581,-573,0,0,0,0,0,0,0,0,0,-1,643,1597,0,0
-574,-573,0,0,0,0,0,0,0,0,0,-1,650,1597,0,0
-567,-573,0,0,0,0,0,0,0,0,0,-1,657,1597,0,0
-560,-573,0,0,0,0,0,0,0,0,0,-1,664,1597,0,0
-553,-573,0,0,0,0,0,0,0,0,0,-1,671,1597,0,0
-546,-573,0,0,0,0,0,0,0,0,0,-1,678,1597,0,0
-539,-573,0,0,0,0,0,0,0,0,0,-1,685,1597,0,0
-532,-573,0,0,0,0,0,0,0,0,0,-1,692,1597,0,0
-525,-573,0,0,0,0,0,0,0,0,0,-1,699,1597,0,0
-518,-573,0,0,0,0,0,0,0,0,0,-1,706,1597,0,0
-511,-573,0,0,0,0,0,0,0,0,0,-1,713,1597,0,0
-504,-573,0,0,0,0,0,0,0,0,0,-1,720,1597,0,0
-497,-573,0,0,0,0,0,0,0,0,0,-1,727,1597,0,0
-490,-573,0,0,0,0,0,0,0,0,0,-1,734,1597,0,0
-483,-573,0,0,0,0,0,0,0,0,0,-1,741,1597,0,0
-476,-573,1.86908,-3.25708,-0.0479132,0.133314,0.0349227,0.139811,-0.0544099,1.38687,0.11569,0.0455008,748,1597,1.86906,3.25703
-469,-573,1.83148,-2.69189,-0.0427678,0.113363,0.0302419,0.119016,-0.0484209,1.386,0.0994927,0.0433947,755,1597,1.83148,2.69195
-462,-573,1.61438,-2.26038,-0.0375165,0.0926802,0.0256521,0.097552,-0.0423883,1.38311,0.0828606,0.0466813,762,1597,1.61438,2.26032
-455,-573,1.41492,-1.96069,-0.0325948,0.0742796,0.0216484,0.0784982,-0.0368134,1.37834,0.0680098,0.0465707,769,1597,1.41491,1.96064
-448,-573,1.3219,-1.64624,-0.0277408,0.058849,0.0178933,0.0624008,-0.0312927,1.37484,0.0550789,0.0432916,776,1597,1.32192,1.64618
-441,-573,1.11273,-1.21997,-0.0233746,0.0458829,0.0144231,0.0487665,-0.0262582,1.37347,0.0439605,0.0468191,783,1597,1.11272,1.21999
-434,-573,0.435791,-0.338745,0,0,0,0,0,0,0,-1,790,1597,0.435818,0.338799
-427,-573,0.0593872,0.162354,-0.0152834,0.0272718,0.00846371,0.0288933,-0.016905,1.3815,0.0267419,0.0435369,797,1597,0.0593975,-0.162407
-420,-573,-0.0559692,0.0917969,-0.0123102,0.0131794,0.00752599,0.0152357,-0.0143664,1.30409,0.0170932,0.0383616,804,1597,-0.0559982,-0.0917584
-413,-573,-0.0254517,0.0125732,-0.0097774,0.00968637,0.00595449,0.0113635,-0.0114545,1.29625,0.013174,0.0259429,811,1597,-0.0254742,-0.0125235
-406,-573,-0.036438,0.0412598,-0.00683507,0.00667608,0.00409757,0.00782163,-0.00798063,1.29819,0.00912359,0.0125214,818,1597,-0.0364554,-0.04132
-399,-573,-0.0446777,0.0499268,-0.00409075,0.00429073,0.00253342,0.00499699,-0.004797,1.29893,0.00565495,0.00943788,825,1597,-0.0446986,-0.0499263
-392,-573,-0.0387573,0.050293,-0.0018873,0.00269254,0.00123248,0.00300315,-0.0021979,1.32392,0.0030148,0.00918264,832,1597,-0.0387639,-0.050329
-385,-573,-0.0250244,0.057251,-0.000724856,0.00131323,0.000889299,0.00164671,-0.00105833,1.21204,0.00157402,0.0117833,839,1597,-0.025,-0.057297
-378,-573,-0.038269,0.059082,-0.000278967,0.00102896,0.000767571,0.00138338,-0.000633385,1.13822,0.00119092,0.014566,846,1597,-0.0382989,-0.0590639
-371,-573,-0.0282593,0.069458,0.000159953,0.000727831,0.000785085,0.00127874,-0.000390961,0.958913,0.0010084,0.0146945,853,1597,-0.028239,-0.0694485
-364,-573,-0.0261841,0.0731201,2.38045e-05,5.43877e-05,0.000758549,0.000797799,-0.000719607,0.795476,0.000876462,0.0167997,860,1597,-0.0261967,-0.0731608
-357,-573,-0.017334,0.0544434,-0.000413249,-7.49081e-05,0.000641481,0.000419335,-0.000907492,0.914322,0.000783135,0.0199369,867,1597,-0.0173315,-0.0544147
-350,-573,-0.00585938,0.0562744,-0.000946541,0.000143021,0.000300331,0.000220321,-0.00102384,1.31888,0.000766628,0.0165494,874,1597,-0.00583578,-0.0562921
-343,-573,0.00592041,0.0438232,-0.00147143,0.000502926,-5.17295e-05,0.00050428,-0.00147278,-1.54462,0.00118623,0.019598,881,1597,0.0059227,-0.0438064
-336,-573,-0.0142822,0.0480957,-0.00187103,0.000950252,-0.000483106,0.00103068,-0.00195146,-1.40582,0.00174889,0.0156222,888,1597,-0.0142955,-0.0480772
-329,-573,-0.031311,0.0313721,-0.00238014,0.00157986,-0.000959806,0.00180023,-0.00260051,-1.34511,0.00255473,0.0160398,895,1597,-0.0312812,-0.0314175
-322,-573,-0.043457,0.0386963,-0.00320689,0.00252075,-0.00145336,0.00286843,-0.00355457,-1.33599,0.00371537,0.010992,902,1597,-0.0434618,-0.038696
-315,-573,-0.0314941,0.0527344,-0.0031718,0.0030686,-0.00167615,0.00349031,-0.00359351,-1.32432,0.00408999,0.0150275,909,1597,-0.0315,-0.0527306
-308,-573,-0.0653076,0.0578613,-0.00218837,0.00332482,-0.00159255,0.00375178,-0.00261534,-1.30886,0.00369552,0.022333,916,1597,-0.0652835,-0.0578765
-301,-573,-0.0787354,0.0587158,-0.000429037,0.00374894,-0.00159161,0.00428619,-0.000966283,-1.24526,0.00322812,0.0248574,923,1597,-0.0787058,-0.0587727
-294,-573,-0.0320435,0.0286865,0.000950694,0.00436709,-0.000579825,0.00446281,0.000854969,-1.40718,0.00273513,0.0293955,930,1597,-0.0320272,-0.0287269
-287,-573,0.02948,0.0412598,0.00197375,0.00489326,0.001079,0.00524875,0.00161825,1.25253,0.00310371,0.0411815,937,1597,0.0294566,-0.0413105
-280,-573,0.36377,-0.286743,0.00259499,0.00670537,0.00160925,0.00726045,0.00203991,1.23865,0.00432382,0.0457368,944,1597,0.36374,0.286776
-273,-573,0.476501,-0.449951,0,0,0,0,0,0,0,-1,951,1597,0.476531,0.450002
-266,-573,0.605591,-0.559082,0,0,0,0,0,0,0,-1,958,1597,0.605598,0.559094
-259,-573,0.134827,-0.62915,0,0,0,0,0,0,0,-1,965,1597,0.134844,0.629207
-252,-573,0.592712,-0.631592,0,0,0,0,0,0,0,-1,972,1597,0.592696,0.631567
-245,-573,4.08099,0.905151,0,0,0,0,0,0,0,-1,979,1597,4.08097,-0.905109
-238,-573,3.91229,1.19714,0,0,0,0,0,0,0,-1,986,1597,3.91231,-1.1972
-231,-573,-2.1593,0.263184,0,0,0,0,0,0,0,-1,993,1597,-2.15929,-0.263223
-224,-573,-2.00452,0.843506,0,0,0,0,0,0,0,-1,1000,1597,-2.00452,-0.843563
-217,-573,-1.91345,-0.13916,0,0,0,0,0,0,0,-1,1007,1597,-1.91343,0.139117
-210,-573,-1.2547,-0.598511,0,0,0,0,0,0,0,-1,1014,1597,-1.25469,0.598455
-203,-573,-0.188049,-1.19189,0,0,0,0,0,0,0,-1,1021,1597,-0.188067,1.19188
-196,-573,-1.5116,0.212646,0,0,0,0,0,0,0,-1,1028,1597,-1.51156,-0.212599
-189,-573,-2.25818,0.439575,0,0,0,0,0,0,0,-1,1035,1597,-2.25821,-0.439604
-182,-573,0,0,0,0,0,0,0,0,0,-1,1042,1597,0,0
-175,-573,0,0,0,0,0,0,0,0,0,-1,1049,1597,0,0
-168,-573,0,0,0,0,0,0,0,0,0,-1,1056,1597,0,0
-161,-573,0,0,0,0,0,0,0,0,0,-1,1063,1597,0,0
-154,-573,0,0,0,0,0,0,0,0,0,-1,1070,1597,0,0
-147,-573,0,0,0,0,0,0,0,0,0,-1,1077,1597,0,0
-140,-573,0,0,0,0,0,0,0,0,0,-1,1084,1597,0,0
-133,-573,0,0,0,0,0,0,0,0,0,-1,1091,1597,0,0
-126,-573,0,0,0,0,0,0,0,0,0,-1,1098,1597,0,0
-119,-573,0,0,0,0,0,0,0,0,0,-1,1105,1597,0,0
-112,-573,0,0,0,0,0,0,0,0,0,-1,1112,1597,0,0
-105,-573,0,0,0,0,0,0,0,0,0,-1,1119,1597,0,0
-98,-573,0,0,0,0,0,0,0,0,0,-1,1126,1597,0,0
-91,-573,0,0,0,0,0,0,0,0,0,-1,1133,1597,0,0
-84,-573,0,0,0,0,0,0,0,0,0,-1,1140,1597,0,0
-77,-573,0,0,0,0,0,0,0,0,0,-1,1147,1597,0,0
-70,-573,0,0,0,0,0,0,0,0,0,-1,1154,1597,0,0
-63,-573,0,0,0,0,0,0,0,0,0,-1,1161,1597,0,0
-56,-573,0,0,0,0,0,0,0,0,0,-1,1168,1597,0,0
-49,-573,0,0,0,0,0,0,0,0,0,-1,1175,1597,0,0
-42,-573,0,0,0,0,0,0,0,0,0,-1,1182,1597,0,0
-35,-573,0,0,0,0,0,0,0,0,0,-1,1189,1597,0,0
-28,-573,0,0,0,0,0,0,0,0,0,-1,1196,1597,0,0
-21,-573,0,0,0,0,0,0,0,0,0,-1,1203,1597,0,0
-14,-573,0,0,0,0,0,0,0,0,0,-1,1210,1597,0,0
-7,-573,0,0,0,0,0,0,0,0,0,-1,1217,1597,0,0
0,-573,0,0,0,0,0,0,0,0,0,-1,1224,1597,0,0
7,-573,0,0,0,0,0,0,0,0,0,-1,1231,1597,0,0
14,-573,0,0,0,0,0,0,0,0,0,-1,1238,1597,0,0
21,-573,0,0,0,0,0,0,0,0,0,-1,1245,1597,0,0
28,-573,0,0,0,0,0,0,0,0,0,-1,1252,1597,0,0
35,-573,0,0,0,0,0,0,0,0,0,-1,1259,1597,0,0
42,-573,0,0,0,0,0,0,0,0,0,-1,1266,1597,0,0
49,-573,0,0,0,0,0,0,0,0,0,-1,1273,1597,0,0
56,-573,0,0,0,0,0,0,0,0,0,-1,1280,1597,0,0
63,-573,0,0,0,0,0,0,0,0,0,-1,1287,1597,0,0
70,-573,0,0,0,0,0,0,0,0,0,-1,1294,1597,0,0
77,-573,0,0,0,0,0,0,0,0,0,-1,1301,1597,0,0
84,-573,0,0,0,0,0,0,0,0,0,-1,1308,1597,0,0
91,-573,0,0,0,0,0,0,0,0,0,-1,1315,1597,0,0
98,-573,0,0,0,0,0,0,0,0,0,-1,1322,1597,0,0
105,-573,0,0,0,0,0,0,0,0,0,-1,1329,1597,0,0
112,-573,0,0,0,0,0,0,0,0,0,-1,1336,1597,0,0
119,-573,0,0,0,0,0,0,0,0,0,-1,1343,1597,0,0
126,-573,0,0,0,0,0,0,0,0,0,-1,1350,1597,0,0
133,-573,0,0,0,0,0,0,0,0,0,-1,1357,1597,0,0
140,-573,0,0,0,0,0,0,0,0,0,-1,1364,1597,0,0
147,-573,0,0,0,0,0,0,0,0,0,-1,1371,1597,0,0
154,-573,0,0,0,0,0,0,0,0,0,-1,1378,1597,0,0
161,-573,0,0,0,0,0,0,0,0,0,-1,1385,1597,0,0
168,-573,0,0,0,0,0,0,0,0,0,-1,1392,1597,0,0
175,-573,0,0,0,0,0,0,0,0,0,-1,1399,1597,0,0
182,-573,0,0,0,0,0,0,0,0,0,-1,1406,1597,0,0
189,-573,0,0,0,0,0,0,0,0,0,-1,1413,1597,0,0
196,-573,0,0,0,0,0,0,0,0,0,-1,1420,1597,0,0
203,-573,0,0,0,0,0,0,0,0,0,-1,1427,1597,0,0
210,-573,0,0,0,0,0,0,0,0,0,-1,1434,1597,0,0
217,-573,0,0,0,0,0,0,0,0,0,-1,1441,1597,0,0
224,-573,0,0,0,0,0,0,0,0,0,-1,1448,1597,0,0
231,-573,0,0,0,0,0,0,0,0,0,-1,1455,1597,0,0
238,-573,0,0,0,0,0,0,0,0,0,-1,1462,1597,0,0
245,-573,0,0,0,0,0,0,0,0,0,-1,1469,1597,0,0
252,-573,0,0,0,0,0,0,0,0,0,-1,1476,1597,0,0
259,-573,0,0,0,0,0,0,0,0,0,-1,1483,1597,0,0
266,-573,0,0,0,0,0,0,0,0,0,-1,1490,1597,0,0
273,-573,0,0,0,0,0,0,0,0,0,-1,1497,1597,0,0
280,-573,0,0,0,0,0,0,0,0,0,-1,1504,1597,0,0
287,-573,0,0,0,0,0,0,0,0,0,-1,1511,1597,0,0
294,-573,0,0,0,0,0,0,0,0,0,-1,1518,1597,0,0
301,-573,0,0,0,0,0,0,0,0,0,-1,1525,1597,0,0
308,-573,0.0847168,-0.210205,0,0,0,0,0,0,0,-1,1532,1597,0.0847343,0.210171
315,-573,-0.542236,-0.68335,0,0,0,0,0,0,0,-1,1539,1597,-0.542276,0.683308
322,-573,-1.77039,2.29846,0,0,0,0,0,0,0,-1,1546,1597,-1.77041,-2.29851
329,-573,-1.47302,2.06445,0,0,0,0,0,0,0,-1,1553,1597,-1.47301,-2.06447
336,-573,-1.03442,1.61365,0,0,0,0,0,0,0,-1,1560,1597,-1.03447,-1.61369
343,-573,-1.04211,1.29541,0,0,0,0,0,0,0,-1,1567,1597,-1.0421,-1.29546
350,-573,-1.09338,1.02222,0,0,0,0,0,0,0,-1,1574,1597,-1.09332,-1.02221
357,-573,-0.205811,0.332153,0,0,0,0,0,0,0,-1,1581,1597,-0.205779,-0.332213
364,-573,-0.137695,0.532715,0,0,0,0,0,0,0,-1,1588,1597,-0.137639,-0.532669
371,-573,-0.258789,0.258301,0,0,0,0,0,0,0,-1,1595,1597,-0.258773,-0.258257
378,-573,0.387817,0.859253,0,0,0,0,0,0,0,-1,1602,1597,0.387851,-0.859231
385,-573,0.166016,0.450439,0.0130664,0.00928653,-0.011665,0.0229936,-0.00064065,-0.705087,0.015547,0.0438861,1609,1597,0.166071,-0.450454
392,-573,-0.451904,-0.157593,0.0102299,0.00704227,-0.00859914,0.0173817,-0.000109504,-0.693765,0.0116245,0.0451046,1616,1597,-0.451868,0.157646
399,-573,-0.157349,0.0474854,0.00915936,0.00551088,-0.00555887,0.0131857,0.00148458,-0.626851,0.00833975,0.0428148,1623,1597,-0.157373,-0.0474658
406,-573,-0.273193,-0.379761,0,0,0,0,0,0,0,-1,1630,1597,-0.273146,0.379815
413,-573,-0.610474,-0.127197,0,0,0,0,0,0,0,-1,1637,1597,-0.610442,0.12725
420,-573,-0.194824,-0.0528564,0.00553232,0.00579121,0.00027231,0.00596328,0.00536026,1.00727,0.00379053,0.0441482,1644,1597,-0.194872,0.0528323
427,-573,0.108398,0.0313721,0.00426015,0.00681457,0.00127211,0.00734001,0.00373471,1.1791,0.00423797,0.0397305,1651,1597,0.108444,-0.0314102
434,-573,0.095459,0.12085,0.00285028,0.00745536,0.00183946,0.00809991,0.00220573,1.23377,0.0048354,0.0325493,1658,1597,0.0953999,-0.120878
441,-573,-0.00280762,0.103638,0.00183764,0.00800832,0.00236601,0.00881108,0.00103488,1.2437,0.00556129,0.0221781,1665,1597,-0.00279099,-0.103657
448,-573,-0.0588379,0.0615234,0.000659386,0.0081043,0.00252412,0.00887938,-0.000115696,1.27287,0.00595853,0.0147483,1672,1597,-0.0587846,-0.0615741
455,-573,-0.0426025,0.0614014,-0.000271545,0.00827407,0.00206009,0.00874477,-0.000742245,1.34617,0.00609235,0.0131519,1679,1597,-0.0425846,-0.0613668
462,-573,-0.0593262,0.0541992,-0.000504504,0.00779313,0.00154828,0.00807261,-0.000783989,1.39221,0.0056612,0.0150801,1686,1597,-0.0593395,-0.0542243
469,-573,-0.060791,0.0626221,-0.000503398,0.00699209,0.00100055,0.00712336,-0.00063466,1.44035,0.00497397,0.0124932,1693,1597,-0.0607856,-0.0626656
476,-573,-0.0429688,0.0646973,-0.000642995,0.00595483,0.000657861,0.00601978,-0.00070795,1.47238,0.00426879,0.0123934,1700,1597,-0.0429275,-0.0647309
483,-573,-0.0472412,0.0617676,-0.000654507,0.00484518,0.000271749,0.00485857,-0.000667902,1.52154,0.00348309,0.010459,1707,1597,-0.0472182,-0.061803
490,-573,-0.0529785,0.0621338,-0.000475756,0.00374295,-0.000133992,0.0037472,-0.000480008,-1.53908,0.00267254,0.00875201,1714,1597,-0.0530366,-0.0621652
497,-573,-0.0614014,0.0627441,0.000304198,0.0022941,-0.000195901,0.0023132,0.000285096,-1.47359,0.00145643,0.0139348,1721,1597,-0.0614263,-0.0627178
504,-573,-0.0421143,0.0617676,0.00163694,0.0022796,0.000478029,0.00253426,0.00138228,1.08131,0.00146517,0.0160407,1728,1597,-0.0420965,-0.0617671
511,-573,-0.0262451,0.067749,0.00257138,0.00175562,0.000629523,0.00291361,0.00141339,0.497943,0.00168242,0.016549,1735,1597,-0.0262754,-0.0677388
518,-573,-0.038208,0.0743408,0.00309289,0.00131125,0.000548394,0.00324816,0.00115599,0.275909,0.00190111,0.0125187,1742,1597,-0.0381785,-0.0743915
525,-573,-0.0373535,0.0446777,0.00392091,0.00104836,0.000450407,0.00398988,0.000979394,0.151941,0.00240099,0.0149422,1749,1597,-0.0373366,-0.0446847
532,-573,-0.0357666,0.0672607,0.00474954,0.00117433,-0.000209244,0.00476175,0.00116213,-0.0582612,0.00286675,0.0146871,1756,1597,-0.0357796,-0.0672828
539,-573,-0.0262451,0.086792,0.00526794,0.00118073,-0.00118481,0.00558656,0.000862109,-0.262704,0.00347286,0.0147743,1763,1597,-0.026241,-0.0867437
546,-573,-0.0335693,0.0527344,0.00619835,0.00109673,-0.0023881,0.00714176,0.000153308,-0.376232,0.0047109,0.0206726,1770,1597,-0.0336248,-0.0527104
553,-573,-0.10144,0.029541,0.00761816,0.00117623,-0.0040189,0.00954755,-0.000753161,-0.447584,0.00663036,0.0330518,1777,1597,-0.101498,-0.0295271
560,-573,0.398804,0.595825,0,0,0,0,0,0,0,-1,1784,1597,0.398753,-0.595851
567,-573,0.251709,0.3927,0.0105047,0.00177275,-0.00885205,0.0160089,-0.00373145,-0.556294,0.0121096,0.0461322,1791,1597,0.251736,-0.392727
574,-573,0.122803,0.161255,0.0120516,0.00215751,-0.0116849,0.0197935,-0.00558445,-0.585154,0.0153985,0.044739,1798,1597,0.122765,-0.161205
581,-573,0.0695801,-0.00952148,0.0139108,0.0030326,-0.0146626,0.0241107,-0.00716725,-0.60779,0.0189209,0.0436547,1805,1597,0.069536,0.00956057
588,-573,0.162964,-0.31311,0.016166,0.00405005,-0.0177379,0.0288519,-0.00863583,-0.620845,0.0226683,0.0453668,1812,1597,0.16293,0.313126
595,-573,0.140259,-0.204224,0,0,0,0,0,0,0,-1,1819,1597,0.140242,0.204238
602,-573,0,0,0,0,0,0,0,0,0,-1,1826,1597,0,0
609,-573,0,0,0,0,0,0,0,0,0,-1,1833,1597,0,0
616,-573,0,0,0,0,0,0,0,0,0,-1,1840,1597,0,0
623,-573,0,0,0,0,0,0,0,0,0,-1,1847,1597,0,0
630,-573,0,0,0,0,0,0,0,0,0,-1,1854,1597,0,0
637,-573,0,0,0,0,0,0,0,0,0,-1,1861,1597,0,0
644,-573,0,0,0,0,0,0,0,0,0,-1,1868,1597,0,0
651,-573,0,0,0,0,0,0,0,0,0,-1,1875,1597,0,0
658,-573,0,0,0,0,0,0,0,0,0,-1,1882,1597,0,0
665,-573,0,0,0,0,0,0,0,0,0,-1,1889,1597,0,0
672,-573,0,0,0,0,0,0,0,0,0,-1,1896,1597,0,0
679,-573,0,0,0,0,0,0,0,0,0,-1,1903,1597,0,0
686,-573,0,0,0,0,0,0,0,0,0,-1,1910,1597,0,0
693,-573,0,0,0,0,0,0,0,0,0,-1,1917,1597,0,0
700,-573,0,0,0,0,0,0,0,0,0,-1,1924,1597,0,0
707,-573,0,0,0,0,0,0,0,0,0,-1,1931,1597,0,0
714,-573,0,0,0,0,0,0,0,0,0,-1,1938,1597,0,0
721,-573,0,0,0,0,0,0,0,0,0,-1,1945,1597,0,0
728,-573,0,0,0,0,0,0,0,0,0,-1,1952,1597,0,0
735,-573,0,0,0,0,0,0,0,0,0,-1,1959,1597,0,0
742,-573,0,0,0,0,0,0,0,0,0,-1,1966,1597,0,0
749,-573,0,0,0,0,0,0,0,0,0,-1,1973,1597,0,0
756,-573,0,0,0,0,0,0,0,0,0,-1,1980,1597,0,0
763,-573,0,0,0,0,0,0,0,0,0,-1,1987,1597,0,0
770,-573,0,0,0,0,0,0,0,0,0,-1,1994,1597,0,0
777,-573,0,0,0,0,0,0,0,0,0,-1,2001,1597,0,0
784,-573,0,0,0,0,0,0,0,0,0,-1,2008,1597,0,0
791,-573,0,0,0,0,0,0,0,0,0,-1,2015,1597,0,0
798,-573,0,0,0,0,0,0,0,0,0,-1,2022,1597,0,0
805,-573,0,0,0,0,0,0,0,0,0,-1,2029,1597,0,0
812,-573,0,0,0,0,0,0,0,0,0,-1,2036,1597,0,0
-700,-580,0,0,0,0,0,0,0,0,0,-1,524,1604,0,0
-693,-580,0,0,0,0,0,0,0,0,0,-1,531,1604,0,0
-686,-580,0,0,0,0,0,0,0,0,0,-1,538,1604,0,0
-679,-580,0,0,0,0,0,0,0,0,0,-1,545,1604,0,0
-672,-580,0,0,0,0,0,0,0,0,0,-1,552,1604,0,0
-665,-580,0,0,0,0,0,0,0,0,0,-1,559,1604,0,0
-658,-580,0,0,0,0,0,0,0,0,0,-1,566,1604,0,0
-651,-580,0,0,0,0,0,0,0,0,0,-1,573,1604,0,0
-644,-580,0,0,0,0,0,0,0,0,0,-1,580,1604,0,0
-637,-580,0,0,0,0,0,0,0,0,0,-1,587,1604,0,0
-630,-580,0,0,0,0,0,0,0,0,0,-1,594,1604,0,0
-623,-580,0,0,0,0,0,0,0,0,0,-1,601,1604,0,0
-616,-580,0,0,0,0,0,0,0,0,0,-1,608,1604,0,0
-609,-580,0,0,0,0,0,0,0,0,0,-1,615,1604,0,0
-602,-580,0,0,0,0,0,0,0,0,0,-1,622,1604,0,0
-595,-580,0,0,0,0,0,0,0,0,0,-1,629,1604,0,0
-588,-580,0,0,0,0,0,0,0,0,0,-1,636,1604,0,0
-581,-580,0,0,0,0,0,0,0,0,0,-1,643,1604,0,0
-574,-580,0,0,0,0,0,0,0,0,0,-1,650,1604,0,0
-567,-580,0,0,0,0,0,0,0,0,0,-1,657,1604,0,0
-560,-580,0,0,0,0,0,0,0,0,0,-1,664,1604,0,0
-553,-580,0,0,0,0,0,0,0,0,0,-1,671,1604,0,0
-546,-580,0,0,0,0,0,0,0,0,0,-1,678,1604,0,0
-539,-580,0,0,0,0,0,0,0,0,0,-1,685,1604,0,0
-532,-580,0,0,0,0,0,0,0,0,0,-1,692,1604,0,0
-525,-580,0,0,0,0,0,0,0,0,0,-1,699,1604,0,0
-518,-580,0,0,0,0,0,0,0,0,0,-1,706,1604,0,0
-511,-580,0,0,0,0,0,0,0,0,0,-1,713,1604,0,0
-504,-580,0,0,0,0,0,0,0,0,0,-1,720,1604,0,0
-497,-580,0,0,0,0,0,0,0,0,0,-1,727,1604,0,0
-490,-580,0,0,0,0,0,0,0,0,0,-1,734,1604,0,0
-483,-580,0,0,0,0,0,0,0,0,0,-1,741,1604,0,0
-476,-580,0,0,0,0,0,0,0,0,0,-1,748,1604,0,0
-469,-580,1.49164,-3.3385,0,0,0,0,0,0,0,-1,755,1604,1.49163,3.33852
-462,-580,1.56024,-3.12622,0,0,0,0,0,0,0,-1,762,1604,1.56025,3.12618
-455,-580,1.42084,-2.52954,0,0,0,0,0,0,0,-1,769,1604,1.42086,2.52954
-448,-580,1.28406,-1.89026,-0.0361971,0.0673941,0.0245878,0.0729339,-0.0417368,1.34919,0.0670169,0.0457747,776,1604,1.28407,1.89031
-441,-580,1.07446,-1.224,-0.0304818,0.0518734,0.0197708,0.0563738,-0.0349822,1.34698,0.0532242,0.0488095,783,1604,1.07449,1.22399
-434,-580,0.661499,-0.604248,0,0,0,0,0,0,0,-1,790,1604,0.661521,0.604235
-427,-580,0.314087,-0.060791,-0.0198864,0.0301585,0.0115692,0.0327035,-0.0224315,1.35426,0.0320158,0.0401621,797,1604,0.3141,0.0607984
-420,-580,-0.265991,0.216797,-0.0158526,0.0143791,0.00988447,0.017324,-0.0187975,1.28124,0.0208606,0.0432686,804,1604,-0.266016,-0.216813
-413,-580,-0.0609131,-0.0216064,-0.0123942,0.0105619,0.0075838,0.012841,-0.0146733,1.27886,0.0158972,0.0452381,811,1604,-0.0609126,0.0215966
-406,-580,-0.0272217,0.0236816,-0.0087194,0.00725199,0.00526603,0.00883199,-0.0102994,1.27931,0.0110563,0.0337785,818,1604,-0.0272018,-0.0236427
-399,-580,-0.0267944,0.0488281,-0.0052953,0.00472364,0.00326678,0.0056947,-0.00626635,1.28186,0.00690834,0.0135251,825,1604,-0.0267643,-0.0488695
-392,-580,-0.0343628,0.0512695,-0.00264674,0.00298832,0.00173165,0.00347792,-0.00313634,1.29525,0.00382044,0.00949887,832,1604,-0.0343891,-0.0512381
-385,-580,-0.0193481,0.053833,-0.00125041,0.00148476,0.00131691,0.00201574,-0.00178138,1.18753,0.00219366,0.0108363,839,1604,-0.019376,-0.053822
-378,-580,-0.0183716,0.0697021,-0.000590742,0.0011734,0.00110607,0.00170604,-0.00112339,1.122,0.00164508,0.0140271,846,1604,-0.0183414,-0.0697624
-371,-580,-0.0103149,0.0810547,4.38173e-05,0.000896198,0.00103819,0.00159227,-0.000652255,0.980167,0.00133322,0.0124114,853,1604,-0.0102944,-0.0810512
-364,-580,-0.0253906,0.0716553,0.000137265,0.000206083,0.000896374,0.00106871,-0.00072536,0.804582,0.00104211,0.0179625,860,1604,-0.0253671,-0.0716716
-357,-580,-0.015625,0.0478516,-3.84715e-05,0.000145492,0.000680778,0.000740474,-0.000633454,0.852548,0.000794039,0.0140421,867,1604,-0.0155988,-0.0478031
-350,-580,-0.00823975,0.0581055,-0.000344249,0.00037523,0.000276119,0.000468982,-0.000438,1.24348,0.000523748,0.0107827,874,1604,-0.00824721,-0.0580717
-343,-580,-0.000976563,0.050293,-0.000644106,0.000788318,-0.00015913,0.000805783,-0.000661571,-1.46148,0.00084854,0.0110583,881,1604,-0.000994741,-0.0503427
-336,-580,-0.0116577,0.0357666,-0.000833441,0.00120604,-0.000611405,0.00137529,-0.00100269,-1.30074,0.00137853,0.0186581,888,1604,-0.0116846,-0.0357148
-329,-580,-0.0386353,0.0255127,-0.00111584,0.00165776,-0.00107278,0.00202426,-0.00148234,-1.24159,0.00203258,0.0161311,895,1604,-0.0386212,-0.0255651
-322,-580,-0.0562744,0.0144043,-0.00164448,0.0023425,-0.00155245,0.00287569,-0.00217767,-1.23997,0.00292682,0.0153985,902,1604,-0.0562462,-0.0144429
-315,-580,-0.0579224,0.0440674,-0.00147358,0.00264635,-0.00174117,0.00328364,-0.00211087,-1.21993,0.00313895,0.0131882,909,1604,-0.0579214,-0.044033
-308,-580,-0.0410156,0.0683594,-0.000592121,0.00270121,-0.00163074,0.00337205,-0.00126296,-1.18053,0.00276683,0.0144789,916,1604,-0.0409932,-0.0683381
-301,-580,-0.0183716,0.0505371,0.000930561,0.00292907,-0.00160576,0.0038211,3.85295e-05,-1.06372,0.00253466,0.0122722,923,1604,-0.0183545,-0.0505961
-294,-580,-0.00335693,0.0313721,0.0020298,0.00338451,-0.000550798,0.00358019,0.00183412,-1.22944,0.00206723,0.0173372,930,1604,-0.00338421,-0.0314217
-287,-580,-0.0055542,0.0407715,0.00253594,0.0038346,0.00108691,0.00445136,0.00191918,1.05465,0.00257811,0.0369414,937,1604,-0.00555657,-0.0407106
-280,-580,0.138611,-0.136719,0.00235285,0.00570875,0.00142944,0.00623507,0.00182653,1.218,0.00370128,0.0410241,944,1604,0.138601,0.13676
-273,-580,0.0687256,-0.00305176,0,0,0,0,0,0,0,-1,951,1604,0.0687371,0.00307054
-266,-580,0.0109253,0.0543213,0,0,0,0,0,0,0,-1,958,1604,0.0109483,-0.0542783
-259,-580,-0.0452881,-0.494507,0,0,0,0,0,0,0,-1,965,1604,-0.0452988,0.494564
-252,-580,3.38257,0.733276,0,0,0,0,0,0,0,-1,972,1604,3.38258,-0.733288
-245,-580,3.1593,0.626709,0.0315727,0.00916385,-0.00650497,0.0333241,0.00741243,-0.263006,0.0202037,0.0488372,979,1604,3.15928,-0.626755
-238,-580,3.05048,0.441772,0.0432578,0.00985906,-0.011516,0.0468436,0.00627327,-0.301859,0.0293622,0.0482136,986,1604,3.05045,-0.4418
-231,-580,-2.79993,0.202515,0,0,0,0,0,0,0,-1,993,1604,-2.79995,-0.202513
-224,-580,-2.3963,-0.103638,0.0781664,0.00972822,-0.0258396,0.0868266,0.00106806,-0.323385,0.0575317,0.0460443,1000,1604,-2.39632,0.10358
-217,-580,-1.81512,-0.297729,0.0889583,0.00701718,-0.028608,0.0979577,-0.00198228,-0.304777,0.0659758,0.0458966,1007,1604,-1.81511,0.297752
-210,-580,-1.00446,-0.79541,0.0896157,0.00613307,-0.0289149,0.0986524,-0.00290363,-0.30291,0.0667572,0.0461233,1014,1604,-1.00447,0.795427
-203,-580,0.0389404,-1.42505,0.0849101,0.00473748,-0.0308424,0.0954021,-0.00575452,-0.327901,0.0656037,0.0479977,1021,1604,0.0389254,1.425
-196,-580,0.879272,-2.67065,0,0,0,0,0,0,0,-1,1028,1604,0.879229,2.67065
-189,-580,-2.61365,0.638184,0,0,0,0,0,0,0,-1,1035,1604,-2.61364,-0.638239
-182,-580,1.88501,-2.76184,0,0,0,0,0,0,0,-1,1042,1604,1.88496,2.76183
-175,-580,2.08594,-3.07288,0,0,0,0,0,0,0,-1,1049,1604,2.08595,3.07294
-168,-580,0,0,0,0,0,0,0,0,0,-1,1056,1604,0,0
-161,-580,0,0,0,0,0,0,0,0,0,-1,1063,1604,0,0
-154,-580,0,0,0,0,0,0,0,0,0,-1,1070,1604,0,0
-147,-580,0,0,0,0,0,0,0,0,0,-1,1077,1604,0,0
-140,-580,0,0,0,0,0,0,0,0,0,-1,1084,1604,0,0
-133,-580,0,0,0,0,0,0,0,0,0,-1,1091,1604,0,0
-126,-580,0,0,0,0,0,0,0,0,0,-1,1098,1604,0,0
-119,-580,0,0,0,0,0,0,0,0,0,-1,1105,1604,0,0
-112,-580,0,0,0,0,0,0,0,0,0,-1,1112,1604,0,0
-105,-580,0,0,0,0,0,0,0,0,0,-1,1119,1604,0,0
-98,-580,0,0,0,0,0,0,0,0,0,-1,1126,1604,0,0
-91,-580,0,0,0,0,0,0,0,0,0,-1,1133,1604,0,0
-84,-580,0,0,0,0,0,0,0,0,0,-1,1140,1604,0,0
-77,-580,0,0,0,0,0,0,0,0,0,-1,1147,1604,0,0
-70,-580,0,0,0,0,0,0,0,0,0,-1,1154,1604,0,0
-63,-580,0,0,0,0,0,0,0,0,0,-1,1161,1604,0,0
-56,-580,0,0,0,0,0,0,0,0,0,-1,1168,1604,0,0
-49,-580,0,0,0,0,0,0,0,0,0,-1,1175,1604,0,0
-42,-580,0,0,0,0,0,0,0,0,0,-1,1182,1604,0,0
-35,-580,0,0,0,0,0,0,0,0,0,-1,1189,1604,0,0
-28,-580,0,0,0,0,0,0,0,0,0,-1,1196,1604,0,0
-21,-580,0,0,0,0,0,0,0,0,0,-1,1203,1604,0,0
-14,-580,0,0,0,0,0,0,0,0,0,-1,1210,1604,0,0
-7,-580,0,0,0,0,0,0,0,0,0,-1,1217,1604,0,0
0,-580,0,0,0,0,0,0,0,0,0,-1,1224,1604,0,0
7,-580,0,0,0,0,0,0,0,0,0,-1,1231,1604,0,0
14,-580,0,0,0,0,0,0,0,0,0,-1,1238,1604,0,0
21,-580,0,0,0,0,0,0,0,0,0,-1,1245,1604,0,0
28,-580,0,0,0,0,0,0,0,0,0,-1,1252,1604,0,0
35,-580,0,0,0,0,0,0,0,0,0,-1,1259,1604,0,0
42,-580,0,0,0,0,0,0,0,0,0,-1,1266,1604,0,0
49,-580,0,0,0,0,0,0,0,0,0,-1,1273,1604,0,0
56,-580,0,0,0,0,0,0,0,0,0,-1,1280,1604,0,0
63,-580,0,0,0,0,0,0,0,0,0,-1,1287,1604,0,0
70,-580,0,0,0,0,0,0,0,0,0,-1,1294,1604,0,0
77,-580,0,0,0,0,0,0,0,0,0,-1,1301,1604,0,0
84,-580,0,0,0,0,0,0,0,0,0,-1,1308,1604,0,0
91,-580,0,0,0,0,0,0,0,0,0,-1,1315,1604,0,0
98,-580,0,0,0,0,0,0,0,0,0,-1,1322,1604,0,0
105,-580,0,0,0,0,0,0,0,0,0,-1,1329,1604,0,0
112,-580,0,0,0,0,0,0,0,0,0,-1,1336,1604,0,0
119,-580,0,0,0,0,0,0,0,0,0,-1,1343,1604,0,0
126,-580,0,0,0,0,0,0,0,0,0,-1,1350,1604,0,0
133,-580,0,0,0,0,0,0,0,0,0,-1,1357,1604,0,0
140,-580,0,0,0,0,0,0,0,0,0,-1,1364,1604,0,0
147,-580,0,0,0,0,0,0,0,0,0,-1,1371,1604,0,0
154,-580,0,0,0,0,0,0,0,0,0,-1,1378,1604,0,0
161,-580,0,0,0,0,0,0,0,0,0,-1,1385,1604,0,0
168,-580,0,0,0,0,0,0,0,0,0,-1,1392,1604,0,0
175,-580,0,0,0,0,0,0,0,0,0,-1,1399,1604,0,0
182,-580,0,0,0,0,0,0,0,0,0,-1,1406,1604,0,0
189,-580,0,0,0,0,0,0,0,0,0,-1,1413,1604,0,0
196,-580,0,0,0,0,0,0,0,0,0,-1,1420,1604,0,0
203,-580,0,0,0,0,0,0,0,0,0,-1,1427,1604,0,0
210,-580,0,0,0,0,0,0,0,0,0,-1,1434,1604,0,0
217,-580,0,0,0,0,0,0,0,0,0,-1,1441,1604,0,0
224,-580,0,0,0,0,0,0,0,0,0,-1,1448,1604,0,0
231,-580,0,0,0,0,0,0,0,0,0,-1,1455,1604,0,0
238,-580,0,0,0,0,0,0,0,0,0,-1,1462,1604,0,0
245,-580,0,0,0,0,0,0,0,0,0,-1,1469,1604,0,0
252,-580,0,0,0,0,0,0,0,0,0,-1,1476,1604,0,0
259,-580,0,0,0,0,0,0,0,0,0,-1,1483,1604,0,0
266,-580,0,0,0,0,0,0,0,0,0,-1,1490,1604,0,0
273,-580,0,0,0,0,0,0,0,0,0,-1,1497,1604,0,0
280,-580,0,0,0,0,0,0,0,0,0,-1,1504,1604,0,0
287,-580,0,0,0,0,0,0,0,0,0,-1,1511,1604,0,0
294,-580,-0.272827,0.192993,0,0,0,0,0,0,0,-1,1518,1604,-0.272779,-0.193013
301,-580,0.0152588,-0.0212402,0,0,0,0,0,0,0,-1,1525,1604,0.0152803,0.0212215
308,-580,-0.0234375,-0.111816,0,0,0,0,0,0,0,-1,1532,1604,-0.0233984,0.111846
315,-580,-0.346924,-0.403198,0,0,0,0,0,0,0,-1,1539,1604,-0.346891,0.403249
322,-580,-0.441284,-0.415161,0,0,0,0,0,0,0,-1,1546,1604,-0.441278,0.415185
329,-580,-1.33997,1.92273,0,0,0,0,0,0,0,-1,1553,1604,-1.33996,-1.92268
336,-580,-1.23535,1.69104,0,0,0,0,0,0,0,-1,1560,1604,-1.23538,-1.69102
343,-580,-1.30627,1.47107,0,0,0,0,0,0,0,-1,1567,1604,-1.30628,-1.47107
350,-580,-1.95557,1.24988,0,0,0,0,0,0,0,-1,1574,1604,-1.95557,-1.24986
357,-580,0.414551,4.51099,0,0,0,0,0,0,0,-1,1581,1604,0.414591,-4.51095
364,-580,-0.0394287,0.516235,0,0,0,0,0,0,0,-1,1588,1604,-0.0393968,-0.516246
371,-580,-0.434082,0.400391,0,0,0,0,0,0,0,-1,1595,1604,-0.434104,-0.400448
378,-580,0.283325,0.309082,0,0,0,0,0,0,0,-1,1602,1604,0.283385,-0.309112
385,-580,0.1875,0.0703125,0.00740862,0.00972719,-0.00810507,0.0167555,0.000380341,-0.856432,0.0110457,0.043267,1609,1604,0.187508,-0.0702676
392,-580,-0.0236816,-0.0860596,0.005315,0.00811549,-0.00585015,0.0127306,0.000699849,-0.902865,0.0082637,0.0469106,1616,1604,-0.023725,0.0860077
399,-580,0.57666,1.43811,0,0,0,0,0,0,0,-1,1623,1604,0.576603,-1.43814
406,-580,-0.104248,0.0540771,0,0,0,0,0,0,0,-1,1630,1604,-0.104266,-0.0540741
413,-580,-0.0738525,0.0441895,0.00379011,0.00484849,-0.000631406,0.00514314,0.00349546,-1.13418,0.0030326,0.0465459,1637,1604,-0.0738569,-0.0442307
420,-580,-0.0314941,0.0648193,0.00322388,0.00488731,0.000463355,0.00500767,0.00310352,1.31665,0.00291869,0.0400675,1644,1604,-0.0315455,-0.0648619
427,-580,0.0361328,0.0372314,0.00254235,0.00525038,0.00121864,0.00571802,0.00207471,1.20438,0.00334245,0.0318548,1651,1604,0.0361496,-0.0372452
434,-580,0.00561523,0.0523682,0.00161702,0.00536458,0.00162318,0.00596986,0.00101173,1.21387,0.0036892,0.0211001,1658,1604,0.00559202,-0.052392
441,-580,-0.0654297,0.0511475,0.00108586,0.0055378,0.00201254,0.00631271,0.000310955,1.20325,0.00410875,0.0102553,1665,1604,-0.0654013,-0.0511163
448,-580,-0.0595703,0.0595703,0.00042812,0.0055037,0.00205365,0.00623055,-0.000298728,1.23063,0.00425677,0.0108349,1672,1604,-0.0595768,-0.0595929
455,-580,-0.0476074,0.0731201,-0.000131081,0.00546377,0.0016721,0.00592541,-0.000592719,1.30142,0.00416194,0.016961,1679,1604,-0.0475899,-0.0731592
462,-580,-0.0567627,0.0614014,-0.000207231,0.00504533,0.00129121,0.00534558,-0.000507481,1.34232,0.00374436,0.0186071,1686,1604,-0.0567848,-0.0613525
469,-580,-0.0596924,0.0617676,-9.27487e-05,0.00458362,0.000880092,0.00474377,-0.000252897,1.3908,0.00325009,0.0160205,1693,1604,-0.0597087,-0.0617548
476,-580,-0.0460205,0.0675049,-7.88827e-05,0.00398869,0.000590752,0.00407275,-0.000162943,1.42945,0.00277108,0.012375,1700,1604,-0.0459606,-0.0674611
483,-580,-0.0603027,0.0681152,1.88059e-05,0.00332084,0.000278966,0.00334425,-4.59619e-06,1.4871,0.00223103,0.0111035,1707,1604,-0.0603018,-0.0680906
490,-580,-0.0651855,0.0759277,0.000255657,0.00267518,-5.09414e-05,0.00267626,0.000254585,-1.54975,0.00170565,0.0126025,1714,1604,-0.0651561,-0.0759244
497,-580,-0.0574951,0.0717773,0.00103996,0.00176233,-5.77086e-05,0.00176691,0.00103538,-1.49158,0.00102514,0.0104531,1721,1604,-0.0575556,-0.0717265
504,-580,-0.0267334,0.0499268,0.00242737,0.00227727,0.000736739,0.00309287,0.00161177,0.73464,0.0017862,0.014908,1728,1604,-0.026707,-0.0499693
511,-580,-0.0194092,0.0718994,0.00346775,0.00211697,0.000934124,0.00394507,0.00163965,0.472394,0.00228847,0.015856,1735,1604,-0.0194557,-0.0718971
518,-580,-0.0354004,0.0758057,0.00407413,0.00196285,0.000848538,0.00437289,0.00166409,0.338532,0.00254859,0.0147879,1742,1604,-0.0353781,-0.0758648
525,-580,-0.0561523,0.0629883,0.00509282,0.00196802,0.000737913,0.00525831,0.00180253,0.220619,0.0030855,0.0162012,1749,1604,-0.0561514,-0.0629937
532,-580,-0.0450439,0.0688477,0.00619934,0.00227532,3.58411e-06,0.00619934,0.00227531,0.000913376,0.00362114,0.0170615,1756,1604,-0.045078,-0.0688524
539,-580,-0.0123291,0.0869141,0.00699641,0.00233219,-0.00105647,0.00722455,0.00210406,-0.212677,0.00429057,0.0206876,1763,1604,-0.0123839,-0.0869665
546,-580,0.0701904,0.065918,0.00819854,0.00221659,-0.00245609,0.00907775,0.00133738,-0.343758,0.00565897,0.0337167,1770,1604,0.0701929,-0.0659742
553,-580,1.1582,1.5719,0,0,0,0,0,0,0,-1,1777,1604,1.15819,-1.57188
560,-580,0.659668,1.1322,0.011612,0.00238737,-0.00724079,0.0155847,-0.00158533,-0.501811,0.0109565,0.0446699,1784,1604,0.659668,-1.13225
567,-580,0.301147,0.722778,0.0133329,0.00237774,-0.0104663,0.0196683,-0.00395769,-0.544321,0.0146112,0.0471957,1791,1604,0.301112,-0.722758
574,-580,0.321167,0.30481,0.0152089,0.00244538,-0.014233,0.0244254,-0.00677109,-0.574646,0.0189483,0.0449992,1798,1604,0.321136,-0.30482
581,-580,0.46521,-0.0090332,0.0175328,0.0029296,-0.0183201,0.0299527,-0.00949035,-0.595768,0.023772,0.0412873,1805,1604,0.465159,0.00908188
588,-580,0.291748,-0.0789795,0.0204024,0.00374475,-0.0226217,0.0361798,-0.0120326,-0.60901,0.0289758,0.0457822,1812,1604,0.291802,0.0789694
595,-580,0,0,0,0,0,0,0,0,0,-1,1819,1604,0,0
602,-580,0,0,0,0,0,0,0,0,0,-1,1826,1604,0,0
609,-580,0,0,0,0,0,0,0,0,0,-1,1833,1604,0,0
616,-580,0,0,0,0,0,0,0,0,0,-1,1840,1604,0,0
623,-580,0,0,0,0,0,0,0,0,0,-1,1847,1604,0,0
630,-580,0,0,0,0,0,0,0,0,0,-1,1854,1604,0,0
637,-580,0,0,0,0,0,0,0,0,0,-1,1861,1604,0,0
644,-580,0,0,0,0,0,0,0,0,0,-1,1868,1604,0,0
651,-580,0,0,0,0,0,0,0,0,0,-1,1875,1604,0,0
658,-580,0,0,0,0,0,0,0,0,0,-1,1882,1604,0,0
665,-580,0,0,0,0,0,0,0,0,0,-1,1889,1604,0,0
672,-580,0,0,0,0,0,0,0,0,0,-1,1896,1604,0,0
679,-580,0,0,0,0,0,0,0,0,0,-1,1903,1604,0,0
686,-580,0,0,0,0,0,0,0,0,0,-1,1910,1604,0,0
693,-580,0,0,0,0,0,0,0,0,0,-1,1917,1604,0,0
700,-580,0,0,0,0,0,0,0,0,0,-1,1924,1604,0,0
707,-580,0,0,0,0,0,0,0,0,0,-1,1931,1604,0,0
714,-580,0,0,0,0,0,0,0,0,0,-1,1938,1604,0,0
721,-580,0,0,0,0,0,0,0,0,0,-1,1945,1604,0,0
728,-580,0,0,0,0,0,0,0,0,0,-1,1952,1604,0,0
735,-580,0,0,0,0,0,0,0,0,0,-1,1959,1604,0,0
742,-580,0,0,0,0,0,0,0,0,0,-1,1966,1604,0,0
749,-580,0,0,0,0,0,0,0,0,0,-1,1973,1604,0,0
756,-580,0,0,0,0,0,0,0,0,0,-1,1980,1604,0,0
763,-580,0,0,0,0,0,0,0,0,0,-1,1987,1604,0,0
770,-580,0,0,0,0,0,0,0,0,0,-1,1994,1604,0,0
777,-580,0,0,0,0,0,0,0,0,0,-1,2001,1604,0,0
784,-580,0,0,0,0,0,0,0,0,0,-1,2008,1604,0,0
791,-580,0,0,0,0,0,0,0,0,0,-1,2015,1604,0,0
798,-580,0,0,0,0,0,0,0,0,0,-1,2022,1604,0,0
805,-580,0,0,0,0,0,0,0,0,0,-1,2029,1604,0,0
812,-580,0,0,0,0,0,0,0,0,0,-1,2036,1604,0,0
-700,-587,0,0,0,0,0,0,0,0,0,-1,524,1611,0,0
-693,-587,0,0,0,0,0,0,0,0,0,-1,531,1611,0,0
-686,-587,0,0,0,0,0,0,0,0,0,-1,538,1611,0,0
-679,-587,0,0,0,0,0,0,0,0,0,-1,545,1611,0,0
-672,-587,0,0,0,0,0,0,0,0,0,-1,552,1611,0,0
-665,-587,0,0,0,0,0,0,0,0,0,-1,559,1611,0,0
-658,-587,0,0,0,0,0,0,0,0,0,-1,566,1611,0,0
-651,-587,0,0,0,0,0,0,0,0,0,-1,573,1611,0,0
-644,-587,0,0,0,0,0,0,0,0,0,-1,580,1611,0,0
-637,-587,0,0,0,0,0,0,0,0,0,-1,587,1611,0,0
-630,-587,0,0,0,0,0,0,0,0,0,-1,594,1611,0,0
-623,-587,0,0,0,0,0,0,0,0,0,-1,601,1611,0,0
-616,-587,0,0,0,0,0,0,0,0,0,-1,608,1611,0,0
-609,-587,0,0,0,0,0,0,0,0,0,-1,615,1611,0,0
-602,-587,0,0,0,0,0,0,0,0,0,-1,622,1611,0,0
-595,-587,0,0,0,0,0,0,0,0,0,-1,629,1611,0,0
-588,-587,0,0,0,0,0,0,0,0,0,-1,636,1611,0,0
-581,-587,0,0,0,0,0,0,0,0,0,-1,643,1611,0,0
-574,-587,0,0,0,0,0,0,0,0,0,-1,650,1611,0,0
-567,-587,0,0,0,0,0,0,0,0,0,-1,657,1611,0,0
-560,-587,0,0,0,0,0,0,0,0,0,-1,664,1611,0,0
-553,-587,0,0,0,0,0,0,0,0,0,-1,671,1611,0,0
-546,-587,0,0,0,0,0,0,0,0,0,-1,678,1611,0,0
-539,-587,0,0,0,0,0,0,0,0,0,-1,685,1611,0,0
-532,-587,0,0,0,0,0,0,0,0,0,-1,692,1611,0,0
-525,-587,0,0,0,0,0,0,0,0,0,-1,699,1611,0,0
-518,-587,0,0,0,0,0,0,0,0,0,-1,706,1611,0,0
-511,-587,0,0,0,0,0,0,0,0,0,-1,713,1611,0,0
-504,-587,0,0,0,0,0,0,0,0,0,-1,720,1611,0,0
-497,-587,0,0,0,0,0,0,0,0,0,-1,727,1611,0,0
-490,-587,0,0,0,0,0,0,0,0,0,-1,734,1611,0,0
-483,-587,0,0,0,0,0,0,0,0,0,-1,741,1611,0,0
-476,-587,0,0,0,0,0,0,0,0,0,-1,748,1611,0,0
-469,-587,0,0,0,0,0,0,0,0,0,-1,755,1611,0,0
-462,-587,1.71844,-2.74976,0,0,0,0,0,0,0,-1,762,1611,1.71846,2.7498
-455,-587,1.62482,-2.43213,-0.0545553,0.0970745,0.0394654,0.106731,-0.0642121,1.33082,0.0997067,0.04598,769,1611,1.62484,2.43217
-448,-587,1.44202,-2.12256,-0.0462839,0.0742168,0.0323377,0.0823465,-0.0544136,1.3245,0.0795056,0.0456399,776,1611,1.44202,2.12253
-441,-587,1.33154,-1.60254,-0.0387255,0.0564963,0.0257251,0.0630017,-0.045231,1.32311,0.0627683,0.0489375,783,1611,1.33153,1.60251
-434,-587,0.688843,0.363525,0,0,0,0,0,0,0,-1,790,1611,0.688829,-0.363487
-427,-587,0.303406,0.20752,-0.0250823,0.0323111,0.0147997,0.0359027,-0.0286739,1.33272,0.0373611,0.0417362,797,1611,0.30341,-0.207574
-420,-587,-0.273621,0.134277,-0.0198452,0.0152625,0.0122053,0.0190888,-0.0236714,1.26701,0.0247348,0.0445914,804,1611,-0.273648,-0.13426
-413,-587,-0.328308,0.119873,-0.0153458,0.0112032,0.00910055,0.0140232,-0.0181658,1.27031,0.0186355,0.047796,811,1611,-0.328282,-0.119817
-406,-587,-0.0693359,-0.0288086,-0.0108916,0.00766108,0.00630901,0.00960321,-0.0128338,1.27217,0.0129987,0.0431072,818,1611,-0.0693456,0.0287641
-399,-587,0.00671387,0.0665283,-0.00673881,0.0050669,0.00386705,0.0062208,-0.00789271,1.28082,0.00816747,0.0301921,825,1611,0.00672418,-0.0665017
-392,-587,-0.0219116,0.0571289,-0.00362732,0.00322561,0.00215012,0.00384435,-0.00424606,1.2906,0.00467292,0.0227874,832,1611,-0.0219321,-0.0571267
-385,-587,-0.024231,0.0501709,-0.00198151,0.00159329,0.001716,0.00228368,-0.00267191,1.18829,0.00286404,0.0143924,839,1611,-0.0242268,-0.0501162
-378,-587,-0.0407715,0.067749,-0.00107494,0.00118662,0.001484,0.00192156,-0.00180988,1.11096,0.00215467,0.0122525,846,1611,-0.0407916,-0.067747
-371,-587,-0.0300903,0.0826416,-0.000213775,0.000896165,0.00137894,0.00182762,-0.00114523,0.976712,0.00173138,0.012042,853,1611,-0.0301034,-0.082663
-364,-587,-0.0159912,0.079834,8.12759e-05,0.000142326,0.0011989,0.00131109,-0.00108748,0.798126,0.00138682,0.0155999,860,1611,-0.0159656,-0.0797925
-357,-587,-0.024353,0.036499,0.000101498,9.45299e-05,0.000991382,0.0010894,-0.000893374,0.783641,0.00114662,0.0154067,867,1611,-0.0243593,-0.0365363
-350,-587,-0.0204468,0.0581055,3.21339e-05,0.00028765,0.000618526,0.000791475,-0.000471691,0.887242,0.000737038,0.00870319,874,1611,-0.0204195,-0.0581222
-343,-587,-0.0150146,0.0631104,-9.54416e-05,0.000699513,0.000186344,0.000741026,-0.000136954,1.3516,0.00054543,0.0116102,881,1611,-0.0150238,-0.0630787
-336,-587,-0.0291138,0.039917,-0.000159539,0.00104078,-0.000213168,0.00107751,-0.000196271,-1.40015,0.000791915,0.0116439,888,1611,-0.029097,-0.0399486
-329,-587,-0.0368652,0.0227051,-0.000291778,0.00129328,-0.000612679,0.00150248,-0.000500987,-1.24174,0.00120391,0.0130228,895,1611,-0.0368834,-0.0226753
-322,-587,-0.0322266,0.0291748,-0.000598363,0.00172702,-0.00105606,0.00213503,-0.00100637,-1.20211,0.0018523,0.0149393,902,1611,-0.0322002,-0.0292067
-315,-587,-0.0575562,0.0432129,-0.000310917,0.00180014,-0.00122352,0.00236051,-0.000871288,-1.14131,0.00193078,0.0128466,909,1611,-0.0575591,-0.0432518
-308,-587,-0.0303345,0.0639648,0.000499241,0.001708,-0.00113541,0.00238986,-0.000182622,-1.02998,0.00165747,0.0130834,916,1611,-0.0303134,-0.0639368
-301,-587,-0.0177612,0.045166,0.00187385,0.00178556,-0.00114692,0.00297748,0.000681937,-0.766163,0.00180123,0.0105599,923,1611,-0.0177734,-0.0451725
-294,-587,-0.019104,0.0472412,0.00282702,0.00211633,-0.000148959,0.00285698,0.00208637,-0.19847,0.00170679,0.0112813,930,1611,-0.0191197,-0.0472933
-287,-587,-0.0232544,0.0540771,0.00307904,0.00250619,0.00134589,0.00416864,0.00141658,0.680555,0.00244759,0.0210603,937,1611,-0.0232243,-0.0541036
-280,-587,0.0401001,-0.000732422,0.00249253,0.00439306,0.00144594,0.00517304,0.00171255,1.07611,0.00304296,0.0318828,944,1611,0.0400892,0.000751896
-273,-587,0.0454712,0.0324707,0.00333587,0.00517005,0.00125572,0.00580792,0.002698,1.10079,0.00335601,0.0387626,951,1611,0.0454976,-0.0325192
-266,-587,0.0266724,0.0465088,0.00589188,0.00602855,0.000425789,0.00639145,0.00552898,0.864963,0.00400456,0.0459477,958,1611,0.0266672,-0.0465146
-259,-587,-0.00854492,-0.0600586,0.0111541,0.00651073,-0.000734579,0.0112676,0.00639729,-0.153215,0.00652523,0.0466197,965,1611,-0.00855908,0.060026
-252,-587,0.0985107,0.472168,0,0,0,0,0,0,0,-1,972,1611,0.0984957,-0.472226
-245,-587,2.25763,0.507568,0.0263697,0.00878324,-0.00640936,0.0284577,0.00669526,-0.314929,0.0171805,0.0471059,979,1611,2.25761,-0.507603
-238,-587,2.16193,0.194214,0.0359126,0.00983456,-0.0109188,0.0398805,0.00586663,-0.348566,0.0248633,0.0490479,986,1611,2.16191,-0.194269
-231,-587,-2.81451,1.4469,0,0,0,0,0,0,0,-1,993,1611,-2.81454,-1.44689
-224,-587,-2.4068,0.259766,0.0642346,0.0108251,-0.0234058,0.0730401,0.00201964,-0.35983,0.0480343,0.0497881,1000,1611,-2.40681,-0.259711
-217,-587,-1.65326,-0.407593,0.0736055,0.00901794,-0.0261194,0.0828462,-0.00022275,-0.340044,0.0553052,0.0444778,1007,1611,-1.65323,0.407616
-210,-587,-0.806335,-0.977905,0.0748878,0.00810015,-0.0265237,0.0841397,-0.00115173,-0.335619,0.056481,0.0452913,1014,1611,-0.806335,0.977855
-203,-587,0.180786,-1.7439,0.0717395,0.00565233,-0.0271987,0.0814937,-0.00410185,-0.344339,0.0557467,0.0454313,1021,1611,0.180768,1.74393
-196,-587,0.865112,-2.57397,0,0,0,0,0,0,0,-1,1028,1611,0.865106,2.57399
-189,-587,1.55566,-3.34753,0,0,0,0,0,0,0,-1,1035,1611,1.55565,3.34755
-182,-587,0.846191,-3.01038,0,0,0,0,0,0,0,-1,1042,1611,0.846207,3.01036
-175,-587,3.90491,-0.947021,0,0,0,0,0,0,0,-1,1049,1611,3.90492,0.947007
-168,-587,3.52356,-0.50647,0.0190975,-0.0225741,0.0011326,0.0191283,-0.0226049,0.0271523,0.0241225,0.0466674,1056,1611,3.52353,0.506431
-161,-587,3.1604,-0.55542,-0.000146244,-0.0282894,0.00953587,0.00278048,-0.0312161,0.29779,0.0217968,0.0465454,1063,1611,3.16036,0.555427
-154,-587,2.53845,-1.13721,0,0,0,0,0,0,0,-1,1070,1611,2.53845,1.13721
-147,-587,0,0,0,0,0,0,0,0,0,-1,1077,1611,0,0
-140,-587,0,0,0,0,0,0,0,0,0,-1,1084,1611,0,0
-133,-587,0,0,0,0,0,0,0,0,0,-1,1091,1611,0,0
-126,-587,0,0,0,0,0,0,0,0,0,-1,1098,1611,0,0
-119,-587,0,0,0,0,0,0,0,0,0,-1,1105,1611,0,0
-112,-587,0,0,0,0,0,0,0,0,0,-1,1112,1611,0,0
-105,-587,0,0,0,0,0,0,0,0,0,-1,1119,1611,0,0
-98,-587,0,0,0,0,0,0,0,0,0,-1,1126,1611,0,0
-91,-587,0,0,0,0,0,0,0,0,0,-1,1133,1611,0,0
-84,-587,0,0,0,0,0,0,0,0,0,-1,1140,1611,0,0
-77,-587,0,0,0,0,0,0,0,0,0,-1,1147,1611,0,0
-70,-587,0,0,0,0,0,0,0,0,0,-1,1154,1611,0,0
-63,-587,0,0,0,0,0,0,0,0,0,-1,1161,1611,0,0
-56,-587,0,0,0,0,0,0,0,0,0,-1,1168,1611,0,0
-49,-587,0,0,0,0,0,0,0,0,0,-1,1175,1611,0,0
-42,-587,0,0,0,0,0,0,0,0,0,-1,1182,1611,0,0
-35,-587,0,0,0,0,0,0,0,0,0,-1,1189,1611,0,0
-28,-587,0,0,0,0,0,0,0,0,0,-1,1196,1611,0,0
-21,-587,0,0,0,0,0,0,0,0,0,-1,1203,1611,0,0
-14,-587,0,0,0,0,0,0,0,0,0,-1,1210,1611,0,0
-7,-587,0,0,0,0,0,0,0,0,0,-1,1217,1611,0,0
0,-587,0,0,0,0,0,0,0,0,0,-1,1224,1611,0,0
7,-587,0,0,0,0,0,0,0,0,0,-1,1231,1611,0,0
14,-587,0,0,0,0,0,0,0,0,0,-1,1238,1611,0,0
21,-587,0,0,0,0,0,0,0,0,0,-1,1245,1611,0,0
28,-587,0,0,0,0,0,0,0,0,0,-1,1252,1611,0,0
35,-587,0,0,0,0,0,0,0,0,0,-1,1259,1611,0,0
42,-587,0,0,0,0,0,0,0,0,0,-1,1266,1611,0,0
49,-587,0,0,0,0,0,0,0,0,0,-1,1273,1611,0,0
56,-587,0,0,0,0,0,0,0,0,0,-1,1280,1611,0,0
63,-587,0,0,0,0,0,0,0,0,0,-1,1287,1611,0,0
70,-587,0,0,0,0,0,0,0,0,0,-1,1294,1611,0,0
77,-587,0,0,0,0,0,0,0,0,0,-1,1301,1611,0,0
84,-587,0,0,0,0,0,0,0,0,0,-1,1308,1611,0,0
91,-587,0,0,0,0,0,0,0,0,0,-1,1315,1611,0,0
98,-587,0,0,0,0,0,0,0,0,0,-1,1322,1611,0,0
105,-587,0,0,0,0,0,0,0,0,0,-1,1329,1611,0,0
112,-587,0,0,0,0,0,0,0,0,0,-1,1336,1611,0,0
119,-587,0,0,0,0,0,0,0,0,0,-1,1343,1611,0,0
126,-587,0,0,0,0,0,0,0,0,0,-1,1350,1611,0,0
133,-587,0,0,0,0,0,0,0,0,0,-1,1357,1611,0,0
140,-587,0,0,0,0,0,0,0,0,0,-1,1364,1611,0,0
147,-587,0,0,0,0,0,0,0,0,0,-1,1371,1611,0,0
154,-587,0,0,0,0,0,0,0,0,0,-1,1378,1611,0,0
161,-587,0,0,0,0,0,0,0,0,0,-1,1385,1611,0,0
168,-587,0,0,0,0,0,0,0,0,0,-1,1392,1611,0,0
175,-587,0,0,0,0,0,0,0,0,0,-1,1399,1611,0,0
182,-587,0,0,0,0,0,0,0,0,0,-1,1406,1611,0,0
189,-587,0,0,0,0,0,0,0,0,0,-1,1413,1611,0,0
196,-587,0,0,0,0,0,0,0,0,0,-1,1420,1611,0,0
203,-587,0,0,0,0,0,0,0,0,0,-1,1427,1611,0,0
210,-587,0,0,0,0,0,0,0,0,0,-1,1434,1611,0,0
217,-587,0,0,0,0,0,0,0,0,0,-1,1441,1611,0,0
224,-587,0,0,0,0,0,0,0,0,0,-1,1448,1611,0,0
231,-587,0,0,0,0,0,0,0,0,0,-1,1455,1611,0,0
238,-587,0,0,0,0,0,0,0,0,0,-1,1462,1611,0,0
245,-587,0,0,0,0,0,0,0,0,0,-1,1469,1611,0,0
252,-587,0,0,0,0,0,0,0,0,0,-1,1476,1611,0,0
259,-587,0,0,0,0,0,0,0,0,0,-1,1483,1611,0,0
266,-587,0,0,0,0,0,0,0,0,0,-1,1490,1611,0,0
273,-587,-1.83667,-0.810303,0,0,0,0,0,0,0,-1,1497,1611,-1.83672,0.810263
280,-587,-1.36108,-1.32861,0,0,0,0,0,0,0,-1,1504,1611,-1.36107,1.32863
287,-587,-0.332886,-0.387939,0,0,0,0,0,0,0,-1,1511,1611,-0.332925,0.387896
294,-587,-0.0860596,0.0159912,0,0,0,0,0,0,0,-1,1518,1611,-0.0860208,-0.0160302
301,-587,0.00634766,-0.0109863,0,0,0,0,0,0,0,-1,1525,1611,0.00632851,0.0109598
308,-587,-0.13855,-0.0513916,0,0,0,0,0,0,0,-1,1532,1611,-0.138597,0.0514394
315,-587,0.807007,0.44397,0,0,0,0,0,0,0,-1,1539,1611,0.807049,-0.443974
322,-587,-0.325317,0.0693359,0,0,0,0,0,0,0,-1,1546,1611,-0.325285,-0.0693215
329,-587,-1.29102,1.6377,0,0,0,0,0,0,0,-1,1553,1611,-1.29099,-1.63771
336,-587,-1.3844,1.62109,0,0,0,0,0,0,0,-1,1560,1611,-1.38437,-1.62106
343,-587,-1.44739,1.70605,0,0,0,0,0,0,0,-1,1567,1611,-1.44734,-1.70606
350,-587,0.821045,3.22705,0,0,0,0,0,0,0,-1,1574,1611,0.82102,-3.2271
357,-587,-0.164185,3.77539,0,0,0,0,0,0,0,-1,1581,1611,-0.164242,-3.7754
364,-587,-0.538086,1.64856,0,0,0,0,0,0,0,-1,1588,1611,-0.53805,-1.64852
371,-587,-0.28479,1.07336,0,0,0,0,0,0,0,-1,1595,1611,-0.284735,-1.07332
378,-587,-0.0140381,0.47229,0.00339708,0.0115561,-0.00757058,0.0160764,-0.00112317,-1.03253,0.0111109,0.0446433,1602,1611,-0.0140196,-0.472284
385,-587,0.193726,-0.0137939,0.00323972,0.0103441,-0.00547559,0.0133188,0.000265033,-1.07314,0.00879218,0.0459541,1609,1611,0.193774,0.013794
392,-587,0.197632,0.0137939,0.00163393,0.00897855,-0.00387419,0.0106443,-3.18466e-05,-1.16473,0.00710686,0.0460814,1616,1611,0.19769,-0.0137698
399,-587,0.236328,0.713135,0.00166032,0.00732332,-0.00231978,0.00815225,0.000831385,-1.2276,0.00518,0.0453645,1623,1611,0.236313,-0.713084
406,-587,0.229126,0.585205,0.00187066,0.00557048,-0.00136149,0.00601749,0.00142366,-1.25356,0.00363135,0.0381228,1630,1611,0.229182,-0.585251
413,-587,-0.0393066,0.0959473,0.00134891,0.0048612,-0.000294072,0.00488565,0.00132445,-1.48784,0.0029176,0.0308292,1637,1611,-0.0393631,-0.0959218
420,-587,-0.0201416,0.0646973,0.00124495,0.00440093,0.00049859,0.00447783,0.00116805,1.41778,0.00268204,0.0248226,1644,1611,-0.0201137,-0.0646671
427,-587,-0.0157471,0.0505371,0.000976474,0.00433401,0.00106907,0.00464551,0.00066497,1.28727,0.00290087,0.0185402,1651,1611,-0.0157663,-0.0505107
434,-587,-0.0452881,0.0449219,0.000373166,0.00410201,0.00135232,0.00454081,-6.5634e-05,1.25703,0.00304932,0.0132078,1658,1611,-0.0452854,-0.0449381
441,-587,-0.0620117,0.0639648,0.000153209,0.00402523,0.00162969,0.00461984,-0.000441398,1.22095,0.00323707,0.0153747,1665,1611,-0.0619646,-0.0639607
448,-587,-0.0552979,0.0667725,-0.000132463,0.00390194,0.00160121,0.0044602,-0.000690719,1.23533,0.00322843,0.0144458,1672,1611,-0.055295,-0.0667795
455,-587,-0.0522461,0.0715332,-0.00039832,0.00371117,0.00128247,0.00407855,-0.000765703,1.2918,0.00300694,0.0129205,1679,1611,-0.0523069,-0.071551
462,-587,-0.0568848,0.0716553,-0.000336329,0.00336424,0.00100093,0.00361762,-0.00058971,1.32286,0.00263044,0.0154821,1686,1611,-0.0568893,-0.071651
469,-587,-0.0546875,0.0695801,-0.000106622,0.00318136,0.000695601,0.00332247,-0.000247727,1.37066,0.002302,0.0146383,1693,1611,-0.0546826,-0.069602
476,-587,-0.0341797,0.065918,0.00010664,0.00297006,0.000436437,0.00303511,4.15968e-05,1.42285,0.00200968,0.00979273,1700,1611,-0.0341726,-0.0658584
483,-587,-0.0594482,0.0648193,0.000362967,0.0026661,0.000183768,0.00268067,0.000348396,1.49167,0.00168305,0.0122866,1707,1611,-0.0594681,-0.0648172
490,-587,-0.0664063,0.065918,0.000707064,0.00240037,-8.15691e-05,0.00240429,0.000703144,-1.52277,0.00142742,0.0149535,1714,1611,-0.0664255,-0.0658785
497,-587,-0.0688477,0.0668945,0.00155078,0.00194518,-4.4586e-05,0.00195016,0.00154581,-1.45962,0.00118848,0.0118053,1721,1611,-0.068852,-0.0668619
504,-587,-0.0469971,0.0726318,0.00304752,0.00289723,0.000835556,0.0038113,0.00213344,0.740551,0.00220569,0.0109419,1728,1611,-0.0469685,-0.0726299
511,-587,-0.0452881,0.088623,0.00428068,0.00305832,0.00108789,0.00491732,0.00242168,0.529469,0.00283912,0.0131577,1735,1611,-0.0452413,-0.0886421
518,-587,-0.041748,0.0891113,0.00505883,0.00318004,0.00101122,0.00549967,0.00273921,0.411102,0.00317524,0.0132157,1742,1611,-0.0417583,-0.0890574
525,-587,-0.0574951,0.0786133,0.00634213,0.00342232,0.000912689,0.00660395,0.0031605,0.279361,0.00381396,0.014826,1749,1611,-0.0575333,-0.0786378
532,-587,-0.064209,0.0792236,0.00778519,0.0039091,0.000148414,0.00779086,0.00390342,0.0382151,0.00449806,0.0253839,1756,1611,-0.0641615,-0.0792246
539,-587,-0.0172119,0.0456543,0.00892423,0.00404777,-0.00095629,0.00910506,0.00386695,-0.186885,0.00527664,0.035605,1763,1611,-0.0171859,-0.045644
546,-587,0.101318,0.0385742,0.0104304,0.00392495,-0.00251755,0.0112909,0.00306449,-0.329336,0.00674204,0.0405109,1770,1611,0.101286,-0.03859
553,-587,1.4635,1.84387,0.0124147,0.00381595,-0.00481532,0.0145707,0.00165995,-0.420971,0.00921048,0.0425917,1777,1611,1.46354,-1.84386
560,-587,1.11719,1.453,0.0144213,0.00376815,-0.00816363,0.0188424,-0.000652958,-0.496342,0.0127848,0.0429352,1784,1611,1.11719,-1.45305
567,-587,0.379883,1.21948,0,0,0,0,0,0,0,-1,1791,1611,0.379863,-1.21951
574,-587,0.41687,0.526367,0.0187634,0.00290398,-0.0170557,0.0296426,-0.00797529,-0.567799,0.0228881,0.0404831,1798,1611,0.416845,-0.526376
581,-587,0.911255,-0.155396,0.0215936,0.0024724,-0.0225988,0.036571,-0.0125049,-0.585285,0.0294477,0.0419403,1805,1611,0.911276,0.155337
588,-587,0,0,0,0,0,0,0,0,0,-1,1812,1611,0,0
595,-587,0,0,0,0,0,0,0,0,0,-1,1819,1611,0,0
602,-587,0,0,0,0,0,0,0,0,0,-1,1826,1611,0,0
609,-587,0,0,0,0,0,0,0,0,0,-1,1833,1611,0,0
616,-587,0,0,0,0,0,0,0,0,0,-1,1840,1611,0,0
623,-587,0,0,0,0,0,0,0,0,0,-1,1847,1611,0,0
630,-587,0,0,0,0,0,0,0,0,0,-1,1854,1611,0,0
637,-587,0,0,0,0,0,0,0,0,0,-1,1861,1611,0,0
644,-587,0,0,0,0,0,0,0,0,0,-1,1868,1611,0,0
651,-587,0,0,0,0,0,0,0,0,0,-1,1875,1611,0,0
658,-587,0,0,0,0,0,0,0,0,0,-1,1882,1611,0,0
665,-587,0,0,0,0,0,0,0,0,0,-1,1889,1611,0,0
672,-587,0,0,0,0,0,0,0,0,0,-1,1896,1611,0,0
679,-587,0,0,0,0,0,0,0,0,0,-1,1903,1611,0,0
686,-587,0,0,0,0,0,0,0,0,0,-1,1910,1611,0,0
693,-587,0,0,0,0,0,0,0,0,0,-1,1917,1611,0,0
700,-587,0,0,0,0,0,0,0,0,0,-1,1924,1611,0,0
707,-587,0,0,0,0,0,0,0,0,0,-1,1931,1611,0,0
714,-587,0,0,0,0,0,0,0,0,0,-1,1938,1611,0,0
721,-587,0,0,0,0,0,0,0,0,0,-1,1945,1611,0,0
728,-587,0,0,0,0,0,0,0,0,0,-1,1952,1611,0,0
735,-587,0,0,0,0,0,0,0,0,0,-1,1959,1611,0,0
742,-587,0,0,0,0,0,0,0,0,0,-1,1966,1611,0,0
749,-587,0,0,0,0,0,0,0,0,0,-1,1973,1611,0,0
756,-587,0,0,0,0,0,0,0,0,0,-1,1980,1611,0,0
763,-587,0,0,0,0,0,0,0,0,0,-1,1987,1611,0,0
770,-587,0,0,0,0,0,0,0,0,0,-1,1994,1611,0,0
777,-587,0,0,0,0,0,0,0,0,0,-1,2001,1611,0,0
784,-587,0,0,0,0,0,0,0,0,0,-1,2008,1611,0,0
791,-587,0,0,0,0,0,0,0,0,0,-1,2015,1611,0,0
798,-587,0,0,0,0,0,0,0,0,0,-1,2022,1611,0,0
805,-587,0,0,0,0,0,0,0,0,0,-1,2029,1611,0,0
812,-587,0,0,0,0,0,0,0,0,0,-1,2036,1611,0,0
-700,-594,0,0,0,0,0,0,0,0,0,-1,524,1618,0,0
-693,-594,0,0,0,0,0,0,0,0,0,-1,531,1618,0,0
-686,-594,0,0,0,0,0,0,0,0,0,-1,538,1618,0,0
-679,-594,0,0,0,0,0,0,0,0,0,-1,545,1618,0,0
-672,-594,0,0,0,0,0,0,0,0,0,-1,552,1618,0,0
-665,-594,0,0,0,0,0,0,0,0,0,-1,559,1618,0,0
-658,-594,0,0,0,0,0,0,0,0,0,-1,566,1618,0,0
-651,-594,0,0,0,0,0,0,0,0,0,-1,573,1618,0,0
-644,-594,0,0,0,0,0,0,0,0,0,-1,580,1618,0,0
-637,-594,0,0,0,0,0,0,0,0,0,-1,587,1618,0,0
-630,-594,0,0,0,0,0,0,0,0,0,-1,594,1618,0,0
-623,-594,0,0,0,0,0,0,0,0,0,-1,601,1618,0,0
-616,-594,0,0,0,0,0,0,0,0,0,-1,608,1618,0,0
-609,-594,0,0,0,0,0,0,0,0,0,-1,615,1618,0,0
-602,-594,0,0,0,0,0,0,0,0,0,-1,622,1618,0,0
-595,-594,0,0,0,0,0,0,0,0,0,-1,629,1618,0,0
-588,-594,0,0,0,0,0,0,0,0,0,-1,636,1618,0,0
-581,-594,0,0,0,0,0,0,0,0,0,-1,643,1618,0,0
-574,-594,0,0,0,0,0,0,0,0,0,-1,650,1618,0,0
-567,-594,0,0,0,0,0,0,0,0,0,-1,657,1618,0,0
-560,-594,0,0,0,0,0,0,0,0,0,-1,664,1618,0,0
-553,-594,0,0,0,0,0,0,0,0,0,-1,671,1618,0,0
-546,-594,0,0,0,0,0,0,0,0,0,-1,678,1618,0,0
-539,-594,0,0,0,0,0,0,0,0,0,-1,685,1618,0,0
-532,-594,0,0,0,0,0,0,0,0,0,-1,692,1618,0,0
-525,-594,0,0,0,0,0,0,0,0,0,-1,699,1618,0,0
-518,-594,0,0,0,0,0,0,0,0,0,-1,706,1618,0,0
-511,-594,0,0,0,0,0,0,0,0,0,-1,713,1618,0,0
-504,-594,0,0,0,0,0,0,0,0,0,-1,720,1618,0,0
-497,-594,0,0,0,0,0,0,0,0,0,-1,727,1618,0,0
-490,-594,0,0,0,0,0,0,0,0,0,-1,734,1618,0,0
-483,-594,0,0,0,0,0,0,0,0,0,-1,741,1618,0,0
-476,-594,0,0,0,0,0,0,0,0,0,-1,748,1618,0,0
-469,-594,0,0,0,0,0,0,0,0,0,-1,755,1618,0,0
-462,-594,0,0,0,0,0,0,0,0,0,-1,762,1618,0,0
-455,-594,1.58667,-2.12402,-0.0684838,0.1045,0.0509065,0.118369,-0.0823529,1.30481,0.116507,0.0454781,769,1618,1.58667,2.12397
-448,-594,-2.8877,1.76904,-0.0572003,0.0790104,0.040948,0.0903725,-0.0685624,1.30013,0.0920486,0.043674,776,1618,-2.88767,-1.76909
-441,-594,-2.91205,1.31628,0,0,0,0,0,0,0,-1,783,1618,-2.91203,-1.31626
-434,-594,-2.09167,0.405151,0,0,0,0,0,0,0,-1,790,1618,-2.09167,-0.405161
-427,-594,-0.137939,0.192505,0,0,0,0,0,0,0,-1,797,1618,-0.13796,-0.19246
-420,-594,-0.0861816,0.166504,-0.0239111,0.0159367,0.0144904,0.0206488,-0.0286233,1.25639,0.0285712,0.0451508,804,1618,-0.0861726,-0.166475
-413,-594,-0.0940552,0.139526,-0.0182991,0.0116655,0.0105729,0.0150205,-0.0216541,1.26353,0.0212892,0.0459779,811,1618,-0.0940852,-0.139521
-406,-594,0.0760498,0.0369873,-0.013046,0.00794028,0.00731349,0.0102375,-0.0153433,1.26645,0.0148668,0.0450004,818,1618,0.0760621,-0.0369418
-399,-594,0.134094,0.00805664,-0.00818363,0.00534607,0.00444783,0.00667729,-0.00951485,1.27998,0.00939626,0.0433303,825,1618,0.134102,-0.00802053
-392,-594,0.00793457,0.0418701,-0.00465297,0.00347175,0.00261667,0.00424155,-0.00542277,1.28468,0.00559357,0.0409392,832,1618,0.00792485,-0.0418419
-385,-594,-0.027771,0.0495605,-0.00277772,0.00178129,0.00217384,0.00265167,-0.00364809,1.18996,0.0036523,0.0264107,839,1618,-0.0277721,-0.0495043
-378,-594,-0.046936,0.0626221,-0.00163212,0.00132718,0.00191914,0.00227084,-0.00257578,1.1138,0.00280005,0.011002,846,1618,-0.0469389,-0.0626378
-371,-594,-0.0392456,0.0788574,-0.00057632,0.00105358,0.00177281,0.00218978,-0.00171252,1.00084,0.00225861,0.00988888,853,1618,-0.0392251,-0.0789075
-364,-594,-0.0154419,0.0668945,-8.05693e-05,0.000268031,0.00154385,0.00164739,-0.00145993,0.84161,0.0017951,0.00930603,860,1618,-0.0154617,-0.0669399
-357,-594,-0.0181885,0.050293,0.000171795,0.000260871,0.00132864,0.00154572,-0.00111305,0.802153,0.0015418,0.00910565,867,1618,-0.0181969,-0.0502777
-350,-594,-0.0186157,0.079834,0.000306252,0.000450534,0.000955595,0.00133671,-0.00057992,0.823073,0.00113496,0.0122361,874,1618,-0.0186399,-0.0798654
-343,-594,-0.0182495,0.0925293,0.000341456,0.000876301,0.000503583,0.00117906,3.86937e-05,1.02948,0.000773467,0.013569,881,1618,-0.018263,-0.0925728
-336,-594,-0.0164795,0.0671387,0.000405353,0.00114201,0.000122029,0.0011617,0.000385665,1.41083,0.000683213,0.0112333,888,1618,-0.0164716,-0.0671961
-329,-594,-0.0128174,0.0714111,0.000378596,0.00123152,-0.000239696,0.00129427,0.00031585,-1.31477,0.000779199,0.01196,895,1618,-0.0127939,-0.0713515
-322,-594,-0.0127563,0.0789795,0.000228296,0.00145098,-0.000685157,0.00175788,-7.86099e-05,-1.14966,0.00119899,0.014218,902,1618,-0.0127488,-0.0790064
-315,-594,-0.0310059,0.0725098,0.000549213,0.00132657,-0.000859459,0.00188115,-5.37047e-06,-0.997753,0.00125589,0.0144992,909,1618,-0.0309979,-0.0725275
-308,-594,-0.0150757,0.0574951,0.00122174,0.00111791,-0.000806305,0.0019778,0.00036185,-0.753249,0.001216,0.0137394,916,1618,-0.0150516,-0.0575307
-301,-594,-0.0114136,0.0618896,0.00236291,0.00106397,-0.000842934,0.00277756,0.00064932,-0.457156,0.00167768,0.0109555,923,1618,-0.011406,-0.0618528
-294,-594,-0.0280762,0.0588379,0.00309095,0.00127722,6.93154e-05,0.0030936,0.00127457,0.0381427,0.00179529,0.00943394,930,1618,-0.0281057,-0.0588322
-287,-594,-0.0302734,0.0635986,0.00307241,0.00158698,0.00139978,0.0039143,0.000745079,0.541486,0.00240004,0.0103873,937,1618,-0.0302854,-0.0636308
-280,-594,-0.0168457,0.0720215,0.00213473,0.00337419,0.00136249,0.00425127,0.00125765,0.998837,0.00252176,0.0134918,944,1618,-0.0168442,-0.0720495
-273,-594,0.00231934,0.0566406,0.0024233,0.0041699,0.00105251,0.00466424,0.00192896,1.1317,0.00270628,0.0229979,951,1618,0.00234891,-0.0566551
-266,-594,0.00585938,0.0565186,0.00421699,0.0050318,0.000181495,0.0050704,0.00417839,1.36125,0.00312565,0.0320755,958,1618,0.00586746,-0.0564803
-259,-594,-0.140259,0.317017,0.00833586,0.00555545,-0.000871822,0.00858661,0.0053047,-0.280061,0.00500312,0.037776,965,1618,-0.140238,-0.316991
-252,-594,-0.0845337,0.326782,0,0,0,0,0,0,0,-1,972,1618,-0.0845456,-0.326736
-245,-594,1.39764,0.357544,0.0204591,0.00833633,-0.00598967,0.0229192,0.00587618,-0.389724,0.013746,0.0436906,979,1618,1.39767,-0.357566
-238,-594,0.684937,0.564941,0.0281015,0.00962009,-0.00998207,0.0324634,0.00525813,-0.411973,0.0201199,0.0466628,986,1618,0.684933,-0.56492
-231,-594,-3.11658,0.874634,0.0384939,0.0106078,-0.0150227,0.045047,0.00405473,-0.411328,0.0287751,0.0476129,993,1618,-3.11655,-0.874614
-224,-594,-2.37958,0.124146,0.0510477,0.0112047,-0.0204724,0.0596917,0.00256073,-0.399518,0.0389689,0.0476997,1000,1618,-2.37958,-0.124111
-217,-594,-1.66162,-0.470337,0.0593378,0.00994647,-0.022674,0.0681681,0.00111625,-0.371372,0.0450779,0.0466374,1007,1618,-1.66161,0.470293
-210,-594,-0.848389,-1.01514,0.0614654,0.00892227,-0.0228348,0.0700022,0.000385448,-0.357763,0.0465402,0.0492755,1014,1618,-0.84839,1.01515
-203,-594,0.0177612,-1.51538,0,0,0,0,0,0,0,-1,1021,1618,0.0177894,1.51537
-196,-594,-0.250488,-0.60437,0,0,0,0,0,0,0,-1,1028,1618,-0.250472,0.604418
-189,-594,0.516235,-2.03186,0,0,0,0,0,0,0,-1,1035,1618,0.516281,2.03189
-182,-594,2.9093,0.370117,0,0,0,0,0,0,0,-1,1042,1618,2.90936,-0.370074
-175,-594,3.17981,-0.184204,0,0,0,0,0,0,0,-1,1049,1618,3.17987,0.184188
-168,-594,2.78967,-0.348511,0.0204171,-0.0225455,0.00214502,0.0205239,-0.0226523,0.0497628,0.0249379,0.0479071,1056,1618,2.78968,0.348482
-161,-594,2.32532,-0.670166,0.00579396,-0.0279987,0.00884864,0.00797076,-0.0301755,0.241214,0.0232343,0.0471064,1063,1618,2.32532,0.670209
-154,-594,1.84399,-0.974365,-0.00981709,-0.0340129,0.0136063,-0.00370813,-0.0401219,0.422006,0.0256016,0.0454886,1070,1618,1.84405,0.974361
-147,-594,1.38647,-1.25977,0,0,0,0,0,0,0,-1,1077,1618,1.38645,1.25979
-140,-594,1.62561,-1.23743,0,0,0,0,0,0,0,-1,1084,1618,1.62562,1.23738
-133,-594,0,0,0,0,0,0,0,0,0,-1,1091,1618,0,0
-126,-594,0,0,0,0,0,0,0,0,0,-1,1098,1618,0,0
-119,-594,0,0,0,0,0,0,0,0,0,-1,1105,1618,0,0
-112,-594,0,0,0,0,0,0,0,0,0,-1,1112,1618,0,0
-105,-594,0,0,0,0,0,0,0,0,0,-1,1119,1618,0,0
-98,-594,0,0,0,0,0,0,0,0,0,-1,1126,1618,0,0
-91,-594,0,0,0,0,0,0,0,0,0,-1,1133,1618,0,0
-84,-594,0,0,0,0,0,0,0,0,0,-1,1140,1618,0,0
-77,-594,0,0,0,0,0,0,0,0,0,-1,1147,1618,0,0
-70,-594,0,0,0,0,0,0,0,0,0,-1,1154,1618,0,0
-63,-594,0,0,0,0,0,0,0,0,0,-1,1161,1618,0,0
-56,-594,0,0,0,0,0,0,0,0,0,-1,1168,1618,0,0
-49,-594,0,0,0,0,0,0,0,0,0,-1,1175,1618,0,0
-42,-594,0,0,0,0,0,0,0,0,0,-1,1182,1618,0,0
-35,-594,0,0,0,0,0,0,0,0,0,-1,1189,1618,0,0
-28,-594,0,0,0,0,0,0,0,0,0,-1,1196,1618,0,0
-21,-594,0,0,0,0,0,0,0,0,0,-1,1203,1618,0,0
-14,-594,0,0,0,0,0,0,0,0,0,-1,1210,1618,0,0
-7,-594,0,0,0,0,0,0,0,0,0,-1,1217,1618,0,0
0,-594,0,0,0,0,0,0,0,0,0,-1,1224,1618,0,0
7,-594,0,0,0,0,0,0,0,0,0,-1,1231,1618,0,0
14,-594,0,0,0,0,0,0,0,0,0,-1,1238,1618,0,0
21,-594,0,0,0,0,0,0,0,0,0,-1,1245,1618,0,0
28,-594,0,0,0,0,0,0,0,0,0,-1,1252,1618,0,0
35,-594,0,0,0,0,0,0,0,0,0,-1,1259,1618,0,0
42,-594,0,0,0,0,0,0,0,0,0,-1,1266,1618,0,0
49,-594,0,0,0,0,0,0,0,0,0,-1,1273,1618,0,0
56,-594,0,0,0,0,0,0,0,0,0,-1,1280,1618,0,0
63,-594,0,0,0,0,0,0,0,0,0,-1,1287,1618,0,0
70,-594,0,0,0,0,0,0,0,0,0,-1,1294,1618,0,0
77,-594,0,0,0,0,0,0,0,0,0,-1,1301,1618,0,0
84,-594,0,0,0,0,0,0,0,0,0,-1,1308,1618,0,0
91,-594,0,0,0,0,0,0,0,0,0,-1,1315,1618,0,0
98,-594,0,0,0,0,0,0,0,0,0,-1,1322,1618,0,0
105,-594,0,0,0,0,0,0,0,0,0,-1,1329,1618,0,0
112,-594,0,0,0,0,0,0,0,0,0,-1,1336,1618,0,0
119,-594,0,0,0,0,0,0,0,0,0,-1,1343,1618,0,0
126,-594,0,0,0,0,0,0,0,0,0,-1,1350,1618,0,0
133,-594,0,0,0,0,0,0,0,0,0,-1,1357,1618,0,0
140,-594,0,0,0,0,0,0,0,0,0,-1,1364,1618,0,0
147,-594,0,0,0,0,0,0,0,0,0,-1,1371,1618,0,0
154,-594,0,0,0,0,0,0,0,0,0,-1,1378,1618,0,0
161,-594,0,0,0,0,0,0,0,0,0,-1,1385,1618,0,0
168,-594,0,0,0,0,0,0,0,0,0,-1,1392,1618,0,0
175,-594,0,0,0,0,0,0,0,0,0,-1,1399,1618,0,0
182,-594,0,0,0,0,0,0,0,0,0,-1,1406,1618,0,0
189,-594,0,0,0,0,0,0,0,0,0,-1,1413,1618,0,0
196,-594,0,0,0,0,0,0,0,0,0,-1,1420,1618,0,0
203,-594,0,0,0,0,0,0,0,0,0,-1,1427,1618,0,0
210,-594,0,0,0,0,0,0,0,0,0,-1,1434,1618,0,0
217,-594,0,0,0,0,0,0,0,0,0,-1,1441,1618,0,0
224,-594,0,0,0,0,0,0,0,0,0,-1,1448,1618,0,0
231,-594,0,0,0,0,0,0,0,0,0,-1,1455,1618,0,0
238,-594,0,0,0,0,0,0,0,0,0,-1,1462,1618,0,0
245,-594,0,0,0,0,0,0,0,0,0,-1,1469,1618,0,0
252,-594,0.436646,-1.18494,0,0,0,0,0,0,0,-1,1476,1618,0.436588,1.18497
259,-594,0.640503,-1.76526,0,0,0,0,0,0,0,-1,1483,1618,0.640462,1.7653
266,-594,-1.69983,-0.147217,0,0,0,0,0,0,0,-1,1490,1618,-1.69979,0.147277
273,-594,-1.57727,-0.447632,0.024975,-0.0397795,-0.0325808,0.0385302,-0.0533347,-0.394266,0.0532673,0.0443571,1497,1618,-1.57723,0.44765
280,-594,-1.45947,-0.657715,0.0284525,-0.0336789,-0.0322798,0.042187,-0.0474135,-0.402281,0.0517602,0.0417457,1504,1618,-1.45952,0.657728
287,-594,-1.52612,-0.797607,0,0,0,0,0,0,0,-1,1511,1618,-1.52614,0.797668
294,-594,-1.09021,-0.311035,0,0,0,0,0,0,0,-1,1518,1618,-1.09024,0.311004
301,-594,-0.630127,-0.160278,0,0,0,0,0,0,0,-1,1525,1618,-0.630079,0.160335
308,-594,-0.396362,0.155762,0,0,0,0,0,0,0,-1,1532,1618,-0.396374,-0.155714
315,-594,0.542603,0.370972,0,0,0,0,0,0,0,-1,1539,1618,0.542595,-0.370999
322,-594,1.48157,0.586304,0,0,0,0,0,0,0,-1,1546,1618,1.48156,-0.586283
329,-594,-3.38147,-1.10278,0,0,0,0,0,0,0,-1,1553,1618,-3.38145,1.10279
336,-594,-1.25146,1.63513,0,0,0,0,0,0,0,-1,1560,1618,-1.25143,-1.63517
343,-594,-0.140869,3.17859,0,0,0,0,0,0,0,-1,1567,1618,-0.140852,-3.17861
350,-594,0.817383,2.53796,0,0,0,0,0,0,0,-1,1574,1618,0.817438,-2.53799
357,-594,-0.403564,3.02417,0,0,0,0,0,0,0,-1,1581,1618,-0.403564,-3.02419
364,-594,-1.29504,3.70813,0,0,0,0,0,0,0,-1,1588,1618,-1.29505,-3.70811
371,-594,-0.200928,0.0131836,0,0,0,0,0,0,0,-1,1595,1618,-0.200944,-0.0131272
378,-594,0.0388184,0.00830078,-0.0014788,0.010946,-0.00344147,0.0118355,-0.00236835,-1.31785,0.00878684,0.0493803,1602,1618,0.038786,-0.00829816
385,-594,0.0905762,0.074707,-0.00106185,0.00982867,-0.00200839,0.0101872,-0.00142043,-1.39412,0.00731111,0.0467041,1609,1618,0.0905174,-0.074763
392,-594,0.0716553,0.132446,-0.00211979,0.00869325,-0.00108177,0.00880041,-0.00222695,-1.47206,0.00673316,0.0465017,1616,1618,0.0715988,-0.132415
399,-594,-0.0108643,0.146851,-0.00156036,0.00708574,-0.000257442,0.0070934,-0.00156802,-1.54106,0.00532907,0.0370572,1623,1618,-0.0108741,-0.146865
406,-594,-0.0440674,0.095459,-0.0008438,0.00516569,7.31165e-05,0.00516658,-0.00084469,1.55863,0.00375773,0.023044,1630,1618,-0.0440275,-0.0955077
413,-594,-0.0408936,0.0731201,-0.00083393,0.00416853,0.000580716,0.00423506,-0.000900458,1.45673,0.0031665,0.0159768,1637,1618,-0.0409342,-0.0731516
420,-594,-0.0274658,0.0753174,-0.000401622,0.00343113,0.000969436,0.00366238,-0.000632874,1.33663,0.00267759,0.0123745,1644,1618,-0.0274624,-0.0752679
427,-594,-0.017334,0.0665283,-0.000211151,0.00313852,0.00126689,0.0035637,-0.000636333,1.247,0.00261386,0.0107532,1651,1618,-0.0173254,-0.0665479
434,-594,-0.0350342,0.0592041,-0.000465568,0.00272173,0.00136728,0.00322788,-0.000971721,1.21625,0.0025386,0.015528,1658,1618,-0.0350201,-0.0591441
441,-594,-0.0411377,0.072998,-0.000402909,0.00248465,0.00148611,0.00311283,-0.00103109,1.17087,0.00249109,0.0149708,1665,1618,-0.0411218,-0.0729911
448,-594,-0.0358887,0.0792236,-0.000297409,0.00236197,0.00128154,0.00287901,-0.00081445,1.18732,0.00224072,0.0145259,1672,1618,-0.0358728,-0.0792163
455,-594,-0.0412598,0.0687256,-0.000279802,0.00210314,0.00100507,0.00247045,-0.000647105,1.22043,0.00189976,0.0107271,1679,1618,-0.0412384,-0.0686706
462,-594,-0.0540771,0.0679932,-0.000168091,0.001854,0.000784127,0.00212243,-0.000436525,1.24097,0.00158069,0.0124844,1686,1618,-0.0540419,-0.0679826
469,-594,-0.0458984,0.0661621,8.40652e-05,0.00192261,0.0005487,0.00207391,-6.72388e-05,1.30173,0.00140556,0.0116458,1693,1618,-0.0458805,-0.0661794
476,-594,-0.0352783,0.0692139,0.000379661,0.00204135,0.000300913,0.00209416,0.000326847,1.39706,0.00130092,0.0122715,1700,1618,-0.0352604,-0.0691862
483,-594,-0.043335,0.0700684,0.000679639,0.00207999,7.785e-05,0.0020843,0.000675324,1.51543,0.00122797,0.0152147,1707,1618,-0.0432895,-0.0700779
490,-594,-0.0604248,0.0654297,0.00106568,0.00217505,-0.000154464,0.00219616,0.00104458,-1.435,0.00126845,0.0126072,1714,1618,-0.060416,-0.0654254
497,-594,-0.0605469,0.0568848,0.00187529,0.00215968,-0.000106684,0.00219525,0.00183972,-1.24896,0.00136056,0.00939934,1721,1618,-0.0605542,-0.0568776
504,-594,-0.0372314,0.0577393,0.00337495,0.00353264,0.000801668,0.00425933,0.00264826,0.834416,0.00248331,0.00935462,1728,1618,-0.0372773,-0.0576896
511,-594,-0.0391846,0.0731201,0.00472708,0.00405368,0.00109403,0.00553505,0.00324572,0.636116,0.00321152,0.0113527,1735,1618,-0.0391568,-0.0730748
518,-594,-0.0477295,0.0820313,0.00563462,0.00450176,0.0010202,0.0062351,0.00390129,0.531979,0.00363756,0.014931,1742,1618,-0.0477774,-0.081993
525,-594,0.0172119,0.0782471,0.0071483,0.00501508,0.000941878,0.00750464,0.00465874,0.361688,0.00437474,0.0259488,1749,1618,0.0171842,-0.078276
532,-594,0.115723,0.036377,0.00892355,0.00573426,0.000176327,0.00893327,0.00572454,0.0550635,0.00522536,0.0397697,1756,1618,0.11577,-0.0364273
539,-594,0.138428,0.123535,0.0104209,0.00605815,-0.000936784,0.0106136,0.0058655,-0.202815,0.00613905,0.0440935,1763,1618,0.138431,-0.123592
546,-594,0.0887451,0.123169,0.0122639,0.00602462,-0.00261732,0.0132164,0.0050721,-0.349032,0.00769892,0.0435939,1770,1618,0.0887972,-0.123109
553,-594,0.118042,0.543579,0.0145951,0.00586262,-0.00521868,0.0170332,0.00342456,-0.437049,0.0104036,0.0406455,1777,1618,0.118073,-0.54353
560,-594,1.33374,1.51221,0.0169654,0.00553755,-0.00909243,0.0219903,0.000512703,-0.504868,0.0144923,0.0433485,1784,1618,1.33377,-1.51227
567,-594,0.920654,1.02563,0.0194643,0.00469172,-0.0139188,0.0278353,-0.00367925,-0.541458,0.019897,0.0419423,1791,1618,0.920623,-1.02567
574,-594,0.623413,0.726318,0,0,0,0,0,0,0,-1,1798,1618,0.623376,-0.726281
581,-594,0,0,0,0,0,0,0,0,0,-1,1805,1618,0,0
588,-594,0,0,0,0,0,0,0,0,0,-1,1812,1618,0,0
595,-594,0,0,0,0,0,0,0,0,0,-1,1819,1618,0,0
602,-594,0,0,0,0,0,0,0,0,0,-1,1826,1618,0,0
609,-594,0,0,0,0,0,0,0,0,0,-1,1833,1618,0,0
616,-594,0,0,0,0,0,0,0,0,0,-1,1840,1618,0,0
623,-594,0,0,0,0,0,0,0,0,0,-1,1847,1618,0,0
630,-594,0,0,0,0,0,0,0,0,0,-1,1854,1618,0,0
637,-594,0,0,0,0,0,0,0,0,0,-1,1861,1618,0,0
644,-594,0,0,0,0,0,0,0,0,0,-1,1868,1618,0,0
651,-594,0,0,0,0,0,0,0,0,0,-1,1875,1618,0,0
658,-594,0,0,0,0,0,0,0,0,0,-1,1882,1618,0,0
665,-594,0,0,0,0,0,0,0,0,0,-1,1889,1618,0,0
672,-594,0,0,0,0,0,0,0,0,0,-1,1896,1618,0,0
679,-594,0,0,0,0,0,0,0,0,0,-1,1903,1618,0,0
686,-594,0,0,0,0,0,0,0,0,0,-1,1910,1618,0,0
693,-594,0,0,0,0,0,0,0,0,0,-1,1917,1618,0,0
700,-594,0,0,0,0,0,0,0,0,0,-1,1924,1618,0,0
707,-594,0,0,0,0,0,0,0,0,0,-1,1931,1618,0,0
714,-594,0,0,0,0,0,0,0,0,0,-1,1938,1618,0,0
721,-594,0,0,0,0,0,0,0,0,0,-1,1945,1618,0,0
728,-594,0,0,0,0,0,0,0,0,0,-1,1952,1618,0,0
735,-594,0,0,0,0,0,0,0,0,0,-1,1959,1618,0,0
742,-594,0,0,0,0,0,0,0,0,0,-1,1966,1618,0,0
749,-594,0,0,0,0,0,0,0,0,0,-1,1973,1618,0,0
756,-594,0,0,0,0,0,0,0,0,0,-1,1980,1618,0,0
763,-594,0,0,0,0,0,0,0,0,0,-1,1987,1618,0,0
770,-594,0,0,0,0,0,0,0,0,0,-1,1994,1618,0,0
777,-594,0,0,0,0,0,0,0,0,0,-1,2001,1618,0,0
784,-594,0,0,0,0,0,0,0,0,0,-1,2008,1618,0,0
791,-594,0,0,0,0,0,0,0,0,0,-1,2015,1618,0,0
798,-594,0,0,0,0,0,0,0,0,0,-1,2022,1618,0,0
805,-594,0,0,0,0,0,0,0,0,0,-1,2029,1618,0,0
812,-594,0,0,0,0,0,0,0,0,0,-1,2036,1618,0,0
-700,-601,0,0,0,0,0,0,0,0,0,-1,524,1625,0,0
-693,-601,0,0,0,0,0,0,0,0,0,-1,531,1625,0,0
-686,-601,0,0,0,0,0,0,0,0,0,-1,538,1625,0,0
-679,-601,0,0,0,0,0,0,0,0,0,-1,545,1625,0,0
-672,-601,0,0,0,0,0,0,0,0,0,-1,552,1625,0,0
-665,-601,0,0,0,0,0,0,0,0,0,-1,559,1625,0,0
-658,-601,0,0,0,0,0,0,0,0,0,-1,566,1625,0,0
-651,-601,0,0,0,0,0,0,0,0,0,-1,573,1625,0,0
-644,-601,0,0,0,0,0,0,0,0,0,-1,580,1625,0,0
-637,-601,0,0,0,0,0,0,0,0,0,-1,587,1625,0,0
-630,-601,0,0,0,0,0,0,0,0,0,-1,594,1625,0,0
-623,-601,0,0,0,0,0,0,0,0,0,-1,601,1625,0,0
-616,-601,0,0,0,0,0,0,0,0,0,-1,608,1625,0,0
-609,-601,0,0,0,0,0,0,0,0,0,-1,615,1625,0,0
-602,-601,0,0,0,0,0,0,0,0,0,-1,622,1625,0,0
-595,-601,0,0,0,0,0,0,0,0,0,-1,629,1625,0,0
-588,-601,0,0,0,0,0,0,0,0,0,-1,636,1625,0,0
-581,-601,0,0,0,0,0,0,0,0,0,-1,643,1625,0,0
-574,-601,0,0,0,0,0,0,0,0,0,-1,650,1625,0,0
-567,-601,0,0,0,0,0,0,0,0,0,-1,657,1625,0,0
-560,-601,0,0,0,0,0,0,0,0,0,-1,664,1625,0,0
-553,-601,0,0,0,0,0,0,0,0,0,-1,671,1625,0,0
-546,-601,0,0,0,0,0,0,0,0,0,-1,678,1625,0,0
-539,-601,0,0,0,0,0,0,0,0,0,-1,685,1625,0,0
-532,-601,0,0,0,0,0,0,0,0,0,-1,692,1625,0,0
-525,-601,0,0,0,0,0,0,0,0,0,-1,699,1625,0,0
-518,-601,0,0,0,0,0,0,0,0,0,-1,706,1625,0,0
-511,-601,0,0,0,0,0,0,0,0,0,-1,713,1625,0,0
-504,-601,0,0,0,0,0,0,0,0,0,-1,720,1625,0,0
-497,-601,0,0,0,0,0,0,0,0,0,-1,727,1625,0,0
-490,-601,0,0,0,0,0,0,0,0,0,-1,734,1625,0,0
-483,-601,0,0,0,0,0,0,0,0,0,-1,741,1625,0,0
-476,-601,0,0,0,0,0,0,0,0,0,-1,748,1625,0,0
-469,-601,0,0,0,0,0,0,0,0,0,-1,755,1625,0,0
-462,-601,0,0,0,0,0,0,0,0,0,-1,762,1625,0,0
-455,-601,0,0,0,0,0,0,0,0,0,-1,769,1625,0,0
-448,-601,-1.44763,1.38562,-0.0693441,0.0812423,0.0498505,0.0962493,-0.0843511,1.27838,0.104345,0.0412473,776,1625,-1.44764,-1.38563
-441,-601,-1.45789,1.00671,0,0,0,0,0,0,0,-1,783,1625,-1.45788,-1.00671
-434,-601,-1.14966,0.406006,0,0,0,0,0,0,0,-1,790,1625,-1.14966,-0.406001
-427,-601,-0.610474,0.125488,0,0,0,0,0,0,0,-1,797,1625,-0.610489,-0.125542
-420,-601,0.0998535,0.135132,-0.0282514,0.0159076,0.0166952,0.021509,-0.0338529,1.24709,0.0322269,0.04212,804,1625,0.0998631,-0.135108
-413,-601,0.226318,0.243164,-0.021465,0.0115246,0.0119452,0.0153956,-0.025336,1.25741,0.0237487,0.044029,811,1625,0.226342,-0.243192
-406,-601,0.194824,-0.238403,-0.0154022,0.00771796,0.00820593,0.0103344,-0.0180186,1.26214,0.0165688,0.0443592,818,1625,0.194848,0.238424
-399,-601,0.208801,0.0174561,-0.0098603,0.00519378,0.00493432,0.00666696,-0.0113335,1.28066,0.0105083,0.043801,825,1625,0.208782,-0.0173961
-392,-601,-0.320801,0.394043,-0.00596842,0.00337441,0.00302935,0.00427068,-0.00686469,1.28314,0.00648689,0.0429225,832,1625,-0.320828,-0.39403
-385,-601,-0.296814,0.217041,-0.00387241,0.00172783,0.00256361,0.00272413,-0.0048687,1.20013,0.00444163,0.0400613,839,1625,-0.296784,-0.216987
-378,-601,-0.0795288,0.0648193,-0.00248598,0.00129536,0.00226983,0.00235879,-0.00354942,1.13266,0.00343412,0.0288405,846,1625,-0.0795215,-0.06479
-371,-601,-0.052124,0.0772705,-0.0012522,0.00108323,0.00206517,0.00228796,-0.00245692,1.04271,0.00274004,0.0134703,853,1625,-0.0521112,-0.0772186
-364,-601,-0.0327148,0.0723877,-0.000613117,0.000290659,0.00178539,0.00168046,-0.00200292,0.909346,0.00212932,0.00976629,860,1625,-0.0327204,-0.0724042
-357,-601,-0.0246582,0.0721436,-0.000197116,0.000317637,0.00157777,0.00165888,-0.00153836,0.86625,0.00184636,0.00933768,867,1625,-0.0246855,-0.0721628
-350,-601,0.00811768,0.0966797,9.53477e-05,0.000527393,0.00123266,0.00156282,-0.000940075,0.872142,0.00145988,0.0177798,874,1625,0.00812053,-0.0966281
-343,-601,-0.0160522,0.106689,0.000237361,0.000950057,0.000804157,0.00147328,-0.000285866,0.993962,0.00109005,0.0156188,881,1625,-0.0160545,-0.10671
-336,-601,-0.0205688,0.0911865,0.000365779,0.00112287,0.000499353,0.00137095,0.000117706,1.10972,0.000877364,0.0114778,888,1625,-0.0205644,-0.0911859
-329,-601,-0.00537109,0.0910645,0.000380569,0.00106625,0.000247393,0.00114619,0.00030063,1.25826,0.00068623,0.0113089,895,1625,-0.00534161,-0.0910604
-322,-601,-0.00616455,0.0917969,0.000310764,0.00108135,-0.000123359,0.00110062,0.000291497,-1.41587,0.000658449,0.0115976,902,1625,-0.00614244,-0.0917908
-315,-601,-0.0136108,0.065918,0.000582664,0.000820159,-0.00024127,0.000970321,0.000432502,-1.01408,0.000561314,0.0111652,909,1625,-0.0135978,-0.0659378
-308,-601,-0.00634766,0.0583496,0.00105641,0.0005812,-0.000189942,0.001123,0.000514611,-0.33719,0.000649114,0.010483,916,1625,-0.0063774,-0.0583922
-301,-601,-0.00457764,0.0599365,0.00191034,0.000489846,-0.000227082,0.00194576,0.000454427,-0.154726,0.00117535,0.0096852,923,1625,-0.00456577,-0.0599779
-294,-601,-0.0255737,0.0609131,0.00239144,0.000681741,0.000582045,0.00257078,0.000502403,0.298887,0.00157335,0.00949606,930,1625,-0.025592,-0.0608585
-287,-601,-0.0413208,0.0546875,0.00212166,0.000999187,0.00170541,0.00335581,-0.000234966,0.626434,0.0023195,0.00907609,937,1625,-0.0413216,-0.0547454
-280,-601,-0.0306396,0.0687256,0.000872381,0.00273707,0.00153793,0.00360319,6.25767e-06,1.05789,0.00240004,0.00893649,944,1625,-0.0306257,-0.0686663
-273,-601,-0.0197144,0.0668945,0.00063213,0.00361457,0.00108997,0.00397045,0.000276253,1.25521,0.00255985,0.009306,951,1625,-0.0197246,-0.0669425
-266,-601,-0.0199585,0.0568848,0.00170379,0.00454201,0.000148264,0.00454974,0.00169606,1.51875,0.00265498,0.0117465,958,1625,-0.0199281,-0.0568359
-259,-601,-0.0439453,0.0710449,0.00483277,0.00515686,-0.000868252,0.00587806,0.00411157,-0.877655,0.00348256,0.0217258,965,1625,-0.0439553,-0.0710293
-252,-601,-0.0467529,0.187744,0.0098204,0.0067815,-0.00299665,0.0116608,0.00494109,-0.550763,0.00675843,0.0366461,972,1625,-0.0467299,-0.187708
-245,-601,0.482605,0.204224,0.0143446,0.00826091,-0.0055477,0.0176297,0.00497584,-0.534627,0.0104953,0.0387704,979,1625,0.482602,-0.204259
-238,-601,0.264343,0.310303,0.0204058,0.00961448,-0.00904994,0.0255465,0.0044738,-0.516584,0.0157529,0.0421386,986,1625,0.264319,-0.310334
-231,-601,0.31012,-0.284058,0.0288562,0.0106288,-0.0132631,0.035835,0.00364999,-0.484373,0.0227711,0.043013,993,1625,0.310097,0.284082
-224,-601,-2.33179,-0.165283,0.0390277,0.0112691,-0.0174812,0.0474694,0.00282739,-0.449876,0.0307472,0.0461453,1000,1625,-2.33177,0.165321
-217,-601,-1.53192,-0.291138,0.0464234,0.0103348,-0.0190124,0.054591,0.00216718,-0.405758,0.0356936,0.0461699,1007,1625,-1.53193,0.291123
-210,-601,-0.877441,-0.356567,0.0493479,0.00925142,-0.0189137,0.0568615,0.00173776,-0.378143,0.0373419,0.0483127,1014,1625,-0.877413,0.356559
-203,-601,-0.148926,-0.153198,0.0486683,0.00651154,-0.018286,0.0554946,-0.000314822,-0.35729,0.0371018,0.0476824,1021,1625,-0.148928,0.153246
-196,-601,0.143921,-0.191528,0,0,0,0,0,0,0,-1,1028,1625,0.143905,0.191535
-189,-601,3.02063,0.311646,0,0,0,0,0,0,0,-1,1035,1625,3.02061,-0.311694
-182,-601,2.67078,0.256226,0,0,0,0,0,0,0,-1,1042,1625,2.67073,-0.256167
-175,-601,2.39258,0.131226,0,0,0,0,0,0,0,-1,1049,1625,2.39258,-0.131188
-168,-601,1.85413,-0.133789,0.0200945,-0.0210462,0.00353755,0.0203965,-0.0213482,0.0851536,0.0241034,0.047425,1056,1625,1.85414,0.133839
-161,-601,1.88098,-0.318726,0.00915655,-0.0255307,0.0092815,0.0114839,-0.027858,0.245687,0.0233607,0.0464413,1063,1625,1.88092,0.318739
-154,-601,1.65942,-0.634277,-0.00274437,-0.0300422,0.0125776,0.00216712,-0.0349537,0.372286,0.0240574,0.0455127,1070,1625,1.65936,0.634323
-147,-601,1.55737,-0.998901,0,0,0,0,0,0,0,-1,1077,1625,1.55742,0.998922
-140,-601,1.5376,-0.986694,-0.012283,-0.0351405,0.0109549,-0.00788057,-0.0395429,0.382117,0.0241672,0.0445209,1084,1625,1.53758,0.986687
-133,-601,1.65796,-0.970947,-0.011172,-0.0335267,0.00577813,-0.00976686,-0.0349319,0.238558,0.0208108,0.0422301,1091,1625,1.65801,0.970898
-126,-601,2.0929,-0.734131,0,0,0,0,0,0,0,-1,1098,1625,2.09287,0.73417
-119,-601,2.38501,-0.353027,0,0,0,0,0,0,0,-1,1105,1625,2.38502,0.353078
-112,-601,0,0,0,0,0,0,0,0,0,-1,1112,1625,0,0
-105,-601,0,0,0,0,0,0,0,0,0,-1,1119,1625,0,0
-98,-601,0,0,0,0,0,0,0,0,0,-1,1126,1625,0,0
-91,-601,0,0,0,0,0,0,0,0,0,-1,1133,1625,0,0
-84,-601,0,0,0,0,0,0,0,0,0,-1,1140,1625,0,0
-77,-601,0,0,0,0,0,0,0,0,0,-1,1147,1625,0,0
-70,-601,0,0,0,0,0,0,0,0,0,-1,1154,1625,0,0
-63,-601,0,0,0,0,0,0,0,0,0,-1,1161,1625,0,0
-56,-601,0,0,0,0,0,0,0,0,0,-1,1168,1625,0,0
-49,-601,0,0,0,0,0,0,0,0,0,-1,1175,1625,0,0
-42,-601,0,0,0,0,0,0,0,0,0,-1,1182,1625,0,0
-35,-601,0,0,0,0,0,0,0,0,0,-1,1189,1625,0,0
-28,-601,0,0,0,0,0,0,0,0,0,-1,1196,1625,0,0
-21,-601,0,0,0,0,0,0,0,0,0,-1,1203,1625,0,0
-14,-601,0,0,0,0,0,0,0,0,0,-1,1210,1625,0,0
-7,-601,0,0,0,0,0,0,0,0,0,-1,1217,1625,0,0
0,-601,0,0,0,0,0,0,0,0,0,-1,1224,1625,0,0
7,-601,0,0,0,0,0,0,0,0,0,-1,1231,1625,0,0
14,-601,0,0,0,0,0,0,0,0,0,-1,1238,1625,0,0
21,-601,0,0,0,0,0,0,0,0,0,-1,1245,1625,0,0
28,-601,0,0,0,0,0,0,0,0,0,-1,1252,1625,0,0
35,-601,0,0,0,0,0,0,0,0,0,-1,1259,1625,0,0
42,-601,0,0,0,0,0,0,0,0,0,-1,1266,1625,0,0
49,-601,0,0,0,0,0,0,0,0,0,-1,1273,1625,0,0
56,-601,0,0,0,0,0,0,0,0,0,-1,1280,1625,0,0
63,-601,0,0,0,0,0,0,0,0,0,-1,1287,1625,0,0
70,-601,0,0,0,0,0,0,0,0,0,-1,1294,1625,0,0
77,-601,0,0,0,0,0,0,0,0,0,-1,1301,1625,0,0
84,-601,0,0,0,0,0,0,0,0,0,-1,1308,1625,0,0
91,-601,0,0,0,0,0,0,0,0,0,-1,1315,1625,0,0
98,-601,0,0,0,0,0,0,0,0,0,-1,1322,1625,0,0
105,-601,0,0,0,0,0,0,0,0,0,-1,1329,1625,0,0
112,-601,0,0,0,0,0,0,0,0,0,-1,1336,1625,0,0
119,-601,0,0,0,0,0,0,0,0,0,-1,1343,1625,0,0
126,-601,0,0,0,0,0,0,0,0,0,-1,1350,1625,0,0
133,-601,0,0,0,0,0,0,0,0,0,-1,1357,1625,0,0
140,-601,0,0,0,0,0,0,0,0,0,-1,1364,1625,0,0
147,-601,0,0,0,0,0,0,0,0,0,-1,1371,1625,0,0
154,-601,0,0,0,0,0,0,0,0,0,-1,1378,1625,0,0
161,-601,0,0,0,0,0,0,0,0,0,-1,1385,1625,0,0
168,-601,0,0,0,0,0,0,0,0,0,-1,1392,1625,0,0
175,-601,0,0,0,0,0,0,0,0,0,-1,1399,1625,0,0
182,-601,0,0,0,0,0,0,0,0,0,-1,1406,1625,0,0
189,-601,0,0,0,0,0,0,0,0,0,-1,1413,1625,0,0
196,-601,0,0,0,0,0,0,0,0,0,-1,1420,1625,0,0
203,-601,0,0,0,0,0,0,0,0,0,-1,1427,1625,0,0
210,-601,0,0,0,0,0,0,0,0,0,-1,1434,1625,0,0
217,-601,0,0,0,0,0,0,0,0,0,-1,1441,1625,0,0
224,-601,0,0,0,0,0,0,0,0,0,-1,1448,1625,0,0
231,-601,-0.108765,0.282837,0,0,0,0,0,0,0,-1,1455,1625,-0.10874,-0.282867
238,-601,-0.0782471,0.285767,0,0,0,0,0,0,0,-1,1462,1625,-0.0782963,-0.285762
245,-601,-0.0488281,-0.181152,0.0115047,-0.046531,-0.0258062,0.0213198,-0.0563461,-0.363442,0.0463355,0.0378176,1469,1625,-0.0488872,0.181191
252,-601,0.238403,-0.888062,0.0116485,-0.0431078,-0.0285155,0.0238013,-0.0552606,-0.402872,0.0468354,0.0406876,1476,1625,0.238409,0.888078
259,-601,0.288208,-1.55945,0.0139634,-0.0389766,-0.0294323,0.0270778,-0.0520909,-0.41917,0.0464623,0.0455958,1483,1625,0.288192,1.55948
266,-601,0.275635,-2.00623,0,0,0,0,0,0,0,-1,1490,1625,0.275575,2.00622
273,-601,-1.25256,-0.430664,0.0202245,-0.0300224,-0.0281023,0.0327962,-0.0425941,-0.420652,0.043649,0.0444369,1497,1625,-1.2525,0.430705
280,-601,-1.05444,-0.494873,0.0225545,-0.0258772,-0.0272463,0.0347909,-0.0381136,-0.422109,0.042106,0.0432235,1504,1625,-1.0545,0.49484
287,-601,-1.30994,-0.289551,0,0,0,0,0,0,0,-1,1511,1625,-1.30992,0.289509
294,-601,-0.969849,-0.18811,0,0,0,0,0,0,0,-1,1518,1625,-0.969826,0.188063
301,-601,-0.529175,-0.059082,0,0,0,0,0,0,0,-1,1525,1625,-0.529203,0.0591331
308,-601,-0.189331,0.146606,0.0337534,-0.00802057,-0.018371,0.040683,-0.0149501,-0.360698,0.0332454,0.0429082,1532,1625,-0.189381,-0.146571
315,-601,0.481201,0.305664,0.0323091,-0.000191387,-0.0161205,0.0389486,-0.00683088,-0.390695,0.0285167,0.0447663,1539,1625,0.481235,-0.305699
322,-601,0.979492,0.121704,0,0,0,0,0,0,0,-1,1546,1625,0.979524,-0.121644
329,-601,-2.38708,-1.19055,0,0,0,0,0,0,0,-1,1553,1625,-2.38712,1.19056
336,-601,-1.96436,-0.756592,0,0,0,0,0,0,0,-1,1560,1625,-1.96431,0.756532
343,-601,1.56482,1.74597,0,0,0,0,0,0,0,-1,1567,1625,1.56488,-1.74603
350,-601,0.678467,1.84485,0.00681508,0.0109799,-0.0044869,0.0138441,0.00395091,-1.00266,0.00823465,0.0474055,1574,1625,0.678521,-1.84489
357,-601,-0.39917,2.31995,0,0,0,0,0,0,0,-1,1581,1625,-0.399168,-2.3199
364,-601,1.07678,1.01318,0,0,0,0,0,0,0,-1,1588,1625,1.07683,-1.01324
371,-601,-0.819092,0.0296631,0,0,0,0,0,0,0,-1,1595,1625,-0.819101,-0.0296759
378,-601,-0.393066,-0.012207,-0.00454964,0.0104653,-0.00189454,0.0107006,-0.004785,-1.4472,0.0091555,0.0423261,1602,1625,-0.393017,0.0122286
385,-601,-0.00683594,0.0471191,-0.00364058,0.00936667,-0.000875074,0.00942528,-0.00369919,-1.50392,0.00781411,0.0408431,1609,1625,-0.00686903,-0.0471129
392,-601,0.0162354,0.0571289,-0.00417421,0.00815854,-0.000284305,0.0081651,-0.00418076,-1.54776,0.00725056,0.0356354,1616,1625,0.0162341,-0.0571768
399,-601,-0.0560303,0.043335,-0.00321996,0.00652606,0.000208032,0.0065305,-0.0032244,1.54946,0.0057388,0.0180212,1623,1625,-0.0560862,-0.0433391
406,-601,-0.0251465,0.0592041,-0.00219885,0.00447131,0.00026923,0.00448216,-0.0022097,1.53052,0.00393711,0.0114707,1630,1625,-0.0251988,-0.0592085
413,-601,-0.0323486,0.0650635,-0.00186942,0.00326487,0.000520587,0.00331712,-0.00192168,1.47076,0.00306018,0.0103343,1637,1625,-0.0322988,-0.0650168
420,-601,-0.0457764,0.0836182,-0.00116906,0.00232102,0.000735309,0.00246961,-0.00131765,1.3714,0.00222004,0.00950724,1644,1625,-0.04574,-0.0836142
427,-601,-0.0229492,0.0786133,-0.000790198,0.00188231,0.000947581,0.00218419,-0.00109208,1.26238,0.00192627,0.0135616,1651,1625,-0.0229804,-0.0785631
434,-601,-0.0158691,0.0633545,-0.000922517,0.00135923,0.00101569,0.00174585,-0.00130913,1.20709,0.00176979,0.0142544,1658,1625,-0.0158596,-0.0633334
441,-601,-0.0184326,0.0578613,-0.000644328,0.00101476,0.00107166,0.00154042,-0.00116999,1.11476,0.00156972,0.0161958,1665,1625,-0.0184925,-0.0579006
448,-601,-0.026123,0.0614014,-0.000439392,0.000877207,0.00088806,0.00132435,-0.000886538,1.10435,0.00128477,0.0129833,1672,1625,-0.0260987,-0.0614607
455,-601,-0.0390625,0.0726318,-0.000402502,0.000630906,0.000689566,0.000975877,-0.000747473,1.10693,0.000997885,0.0110877,1679,1625,-0.0390125,-0.0725959
462,-601,-0.0501709,0.0670166,-0.000260126,0.000500103,0.000523858,0.000767224,-0.000527247,1.09925,0.000751632,0.0101108,1686,1625,-0.0501368,-0.0669843
469,-601,-0.0480957,0.0622559,2.6949e-05,0.000766821,0.000353171,0.000908336,-0.000114567,1.18969,0.000647136,0.0105825,1693,1625,-0.0480515,-0.0622709
476,-601,-0.036499,0.078125,0.000409841,0.0011802,0.000120837,0.00119871,0.000391332,1.4188,0.000705834,0.0133038,1700,1625,-0.0364856,-0.0781841
483,-601,-0.0443115,0.0777588,0.000790217,0.00152348,-6.83843e-05,0.00152981,0.000783894,-1.4786,0.000883325,0.0162751,1707,1625,-0.0442518,-0.0776984
490,-601,-0.0656738,0.0754395,0.00127636,0.00194581,-0.000257006,0.00203309,0.00118908,-1.24339,0.00117943,0.0113759,1714,1625,-0.0657246,-0.0754566
497,-601,-0.0362549,0.0528564,0.00213437,0.00239096,-0.000214729,0.0025128,0.00201253,-1.05468,0.00153585,0.00865739,1721,1625,-0.0362094,-0.0528294
504,-601,-0.0358887,0.0488281,0.00369087,0.00410645,0.000662235,0.00459273,0.00320459,0.937419,0.00271987,0.0107826,1728,1625,-0.0359159,-0.0488306
511,-601,-0.0595703,0.0511475,0.00520048,0.00497192,0.000976503,0.00606937,0.00410303,0.72715,0.0035758,0.0197468,1735,1625,-0.059581,-0.0511724
518,-601,-0.0839844,0.0627441,0.00626687,0.00577506,0.000889145,0.00694348,0.00509844,0.650489,0.00415292,0.0298623,1742,1625,-0.0839296,-0.0626925
525,-601,0.164673,0.127686,0.00800435,0.00665885,0.000828709,0.008399,0.00626419,0.444448,0.00504074,0.0405841,1749,1625,0.164615,-0.127671
532,-601,0.41687,0.0570068,0.0100881,0.00772503,6.23751e-05,0.0100897,0.00772338,0.0263718,0.00609284,0.0460143,1756,1625,0.416827,-0.0570333
539,-601,0.282959,0.162964,0.0119265,0.00837643,-0.00104924,0.0122134,0.00808951,-0.266929,0.00717425,0.0461326,1763,1625,0.282949,-0.162956
546,-601,0.136353,0.304565,0.0140524,0.00858306,-0.00279281,0.0152265,0.007409,-0.397958,0.00879205,0.0433004,1770,1625,0.136377,-0.304522
553,-601,0.145264,0.504272,0.0166619,0.00845611,-0.0056044,0.0195047,0.00561328,-0.469431,0.0115942,0.0411392,1777,1625,0.145232,-0.504319
560,-601,1.33948,1.78003,0.0193494,0.00788328,-0.00991985,0.0250737,0.00215896,-0.523379,0.0160446,0.0428519,1784,1625,1.33951,-1.78007
567,-601,1.33008,1.17236,0.0222106,0.00655118,-0.0155669,0.0318059,-0.00304418,-0.552388,0.0222881,0.041792,1791,1625,1.33009,-1.17231
574,-601,0,0,0,0,0,0,0,0,0,-1,1798,1625,0,0
581,-601,0,0,0,0,0,0,0,0,0,-1,1805,1625,0,0
588,-601,0,0,0,0,0,0,0,0,0,-1,1812,1625,0,0
595,-601,0,0,0,0,0,0,0,0,0,-1,1819,1625,0,0
602,-601,0,0,0,0,0,0,0,0,0,-1,1826,1625,0,0
609,-601,0,0,0,0,0,0,0,0,0,-1,1833,1625,0,0
616,-601,0,0,0,0,0,0,0,0,0,-1,1840,1625,0,0
623,-601,0,0,0,0,0,0,0,0,0,-1,1847,1625,0,0
630,-601,0,0,0,0,0,0,0,0,0,-1,1854,1625,0,0
637,-601,0,0,0,0,0,0,0,0,0,-1,1861,1625,0,0
644,-601,0,0,0,0,0,0,0,0,0,-1,1868,1625,0,0
651,-601,0,0,0,0,0,0,0,0,0,-1,1875,1625,0,0
658,-601,0,0,0,0,0,0,0,0,0,-1,1882,1625,0,0
665,-601,0,0,0,0,0,0,0,0,0,-1,1889,1625,0,0
672,-601,0,0,0,0,0,0,0,0,0,-1,1896,1625,0,0
679,-601,0,0,0,0,0,0,0,0,0,-1,1903,1625,0,0
686,-601,0,0,0,0,0,0,0,0,0,-1,1910,1625,0,0
693,-601,0,0,0,0,0,0,0,0,0,-1,1917,1625,0,0
700,-601,0,0,0,0,0,0,0,0,0,-1,1924,1625,0,0
707,-601,0,0,0,0,0,0,0,0,0,-1,1931,1625,0,0
714,-601,0,0,0,0,0,0,0,0,0,-1,1938,1625,0,0
721,-601,0,0,0,0,0,0,0,0,0,-1,1945,1625,0,0
728,-601,0,0,0,0,0,0,0,0,0,-1,1952,1625,0,0
735,-601,0,0,0,0,0,0,0,0,0,-1,1959,1625,0,0
742,-601,0,0,0,0,0,0,0,0,0,-1,1966,1625,0,0
749,-601,0,0,0,0,0,0,0,0,0,-1,1973,1625,0,0
756,-601,0,0,0,0,0,0,0,0,0,-1,1980,1625,0,0
763,-601,0,0,0,0,0,0,0,0,0,-1,1987,1625,0,0
770,-601,0,0,0,0,0,0,0,0,0,-1,1994,1625,0,0
777,-601,0,0,0,0,0,0,0,0,0,-1,2001,1625,0,0
784,-601,0,0,0,0,0,0,0,0,0,-1,2008,1625,0,0
791,-601,0,0,0,0,0,0,0,0,0,-1,2015,1625,0,0
798,-601,0,0,0,0,0,0,0,0,0,-1,2022,1625,0,0
805,-601,0,0,0,0,0,0,0,0,0,-1,2029,1625,0,0
812,-601,0,0,0,0,0,0,0,0,0,-1,2036,1625,0,0
-700,-608,0,0,0,0,0,0,0,0,0,-1,524,1632,0,0
-693,-608,0,0,0,0,0,0,0,0,0,-1,531,1632,0,0
-686,-608,0,0,0,0,0,0,0,0,0,-1,538,1632,0,0
-679,-608,0,0,0,0,0,0,0,0,0,-1,545,1632,0,0
-672,-608,0,0,0,0,0,0,0,0,0,-1,552,1632,0,0
-665,-608,0,0,0,0,0,0,0,0,0,-1,559,1632,0,0
-658,-608,0,0,0,0,0,0,0,0,0,-1,566,1632,0,0
-651,-608,0,0,0,0,0,0,0,0,0,-1,573,1632,0,0
-644,-608,0,0,0,0,0,0,0,0,0,-1,580,1632,0,0
-637,-608,0,0,0,0,0,0,0,0,0,-1,587,1632,0,0
-630,-608,0,0,0,0,0,0,0,0,0,-1,594,1632,0,0
-623,-608,0,0,0,0,0,0,0,0,0,-1,601,1632,0,0
-616,-608,0,0,0,0,0,0,0,0,0,-1,608,1632,0,0
-609,-608,0,0,0,0,0,0,0,0,0,-1,615,1632,0,0
-602,-608,0,0,0,0,0,0,0,0,0,-1,622,1632,0,0
-595,-608,0,0,0,0,0,0,0,0,0,-1,629,1632,0,0
-588,-608,0,0,0,0,0,0,0,0,0,-1,636,1632,0,0
-581,-608,0,0,0,0,0,0,0,0,0,-1,643,1632,0,0
-574,-608,0,0,0,0,0,0,0,0,0,-1,650,1632,0,0
-567,-608,0,0,0,0,0,0,0,0,0,-1,657,1632,0,0
-560,-608,0,0,0,0,0,0,0,0,0,-1,664,1632,0,0
-553,-608,0,0,0,0,0,0,0,0,0,-1,671,1632,0,0
-546,-608,0,0,0,0,0,0,0,0,0,-1,678,1632,0,0
-539,-608,0,0,0,0,0,0,0,0,0,-1,685,1632,0,0
-532,-608,0,0,0,0,0,0,0,0,0,-1,692,1632,0,0
-525,-608,0,0,0,0,0,0,0,0,0,-1,699,1632,0,0
-518,-608,0,0,0,0,0,0,0,0,0,-1,706,1632,0,0
-511,-608,0,0,0,0,0,0,0,0,0,-1,713,1632,0,0
-504,-608,0,0,0,0,0,0,0,0,0,-1,720,1632,0,0
-497,-608,0,0,0,0,0,0,0,0,0,-1,727,1632,0,0
-490,-608,0,0,0,0,0,0,0,0,0,-1,734,1632,0,0
-483,-608,0,0,0,0,0,0,0,0,0,-1,741,1632,0,0
-476,-608,0,0,0,0,0,0,0,0,0,-1,748,1632,0,0
-469,-608,0,0,0,0,0,0,0,0,0,-1,755,1632,0,0
-462,-608,0,0,0,0,0,0,0,0,0,-1,762,1632,0,0
-455,-608,0,0,0,0,0,0,0,0,0,-1,769,1632,0,0
-448,-608,0,0,0,0,0,0,0,0,0,-1,776,1632,0,0
-441,-608,-0.00372314,0.697144,0,0,0,0,0,0,0,-1,783,1632,-0.00374125,-0.697153
-434,-608,-0.207642,0.40686,0,0,0,0,0,0,0,-1,790,1632,-0.20766,-0.406841
-427,-608,0.0261841,-1.66479,0,0,0,0,0,0,0,-1,797,1632,0.0262142,1.66478
-420,-608,0.03479,-1.26648,-0.0329099,0.0148864,0.0185865,0.0212633,-0.0392868,1.24029,0.0354711,0.0455115,804,1632,0.0347905,1.26649
-413,-608,-0.0435791,-0.94104,-0.0248682,0.0106053,0.0130133,0.0148671,-0.02913,1.2543,0.0258429,0.0446024,811,1632,-0.0435624,0.941
-406,-608,0.0317383,-0.344727,-0.0179743,0.00687341,0.0088603,0.00970922,-0.0208101,1.26104,0.0180047,0.0412565,818,1632,0.0317566,0.344687
-399,-608,-0.0981445,0.314575,-0.0118221,0.00452979,0.00523977,0.00606473,-0.013357,1.28583,0.0114736,0.0406363,825,1632,-0.0981259,-0.314516
-392,-608,-0.23114,0.223633,-0.00761113,0.00286473,0.00330653,0.00382107,-0.00856748,1.28925,0.00732543,0.0422305,832,1632,-0.231112,-0.223656
-385,-608,-0.438599,0.315552,-0.00528607,0.00132961,0.00274275,0.0023188,-0.00627527,1.22466,0.00513406,0.0451512,839,1632,-0.43862,-0.315491
-378,-608,-0.356262,0.146362,-0.00363988,0.00095741,0.00235891,0.00195243,-0.0046349,1.17163,0.00390689,0.0455454,846,1632,-0.356254,-0.146331
-371,-608,-0.14563,0.179932,-0.0022254,0.000823073,0.00205371,0.00185638,-0.0032587,1.10464,0.00298996,0.0347322,853,1632,-0.145608,-0.179952
-364,-608,-0.0403442,0.0775146,-0.0014328,2.28758e-05,0.00170081,0.00114504,-0.00255496,0.987576,0.00218728,0.0139502,860,1632,-0.0403666,-0.0774688
-357,-608,-0.0180664,0.0738525,-0.000834024,2.75431e-05,0.00146448,0.00112328,-0.00192976,0.928441,0.00178306,0.0114304,867,1632,-0.0180361,-0.0738192
-350,-608,0.00421143,0.083252,-0.000366317,0.000241163,0.00110951,0.00108776,-0.00121291,0.919005,0.00132895,0.0158713,874,1632,0.00421951,-0.0832189
-343,-608,-0.0022583,0.0869141,-0.000110683,0.000624786,0.00067814,0.00102848,-0.000514377,1.03384,0.000907103,0.0165979,881,1632,-0.00227647,-0.0869487
-336,-608,-0.0216675,0.0799561,8.35866e-05,0.000682292,0.000442157,0.000916901,-0.000151022,1.08297,0.000667329,0.0102635,888,1632,-0.0216685,-0.0799939
-329,-608,-0.0227661,0.0651855,0.000148554,0.000500563,0.00030506,0.00067675,-2.76337e-05,1.04705,0.000460654,0.0101954,895,1632,-0.0227756,-0.0651596
-322,-608,-0.03479,0.0560303,0.000166765,0.000406136,2.42789e-05,0.000408574,0.000164327,1.47073,0.00023739,0.0109702,902,1632,-0.0347962,-0.0559752
-315,-608,-0.0213623,0.0626221,0.000374521,0.000108862,-3.99793e-05,0.000380407,0.000102976,-0.146179,0.000227196,0.00913948,909,1632,-0.0213899,-0.0626709
-308,-608,-0.0196533,0.0651855,0.000686286,-7.31239e-05,3.47458e-05,0.000687873,-7.47103e-05,0.0456266,0.000485405,0.0101751,916,1632,-0.0196248,-0.0651652
-301,-608,-0.00976563,0.0568848,0.00129042,-8.34732e-05,4.17983e-05,0.00129169,-8.47436e-05,0.0303858,0.000890719,0.0105633,923,1632,-0.00977095,-0.0569308
-294,-608,-0.0241089,0.0498047,0.00158934,0.00019472,0.000759598,0.00192316,-0.000139102,0.414064,0.0013309,0.0102695,930,1632,-0.0241259,-0.0497692
-287,-608,-0.0425415,0.0584717,0.00117503,0.000596974,0.00168744,0.00259802,-0.000826014,0.70058,0.00206322,0.00973625,937,1632,-0.0425342,-0.0585287
-280,-608,-0.0431519,0.0556641,-0.000225821,0.00229565,0.00148624,0.00298386,-0.000914023,1.13714,0.00235383,0.00801862,944,1632,-0.0431694,-0.0556044
-273,-608,-0.0272217,0.0571289,-0.000859963,0.00323363,0.000984661,0.00345816,-0.0010845,1.3466,0.00273945,0.00807458,951,1632,-0.0272267,-0.0571726
-266,-608,-0.0266113,0.0567627,-0.000380097,0.00417882,6.4398e-05,0.00417973,-0.000381007,1.55667,0.00292178,0.00783278,958,1632,-0.026632,-0.0567594
-259,-608,-0.031311,0.0537109,0.00185829,0.00481058,-0.000839295,0.0050325,0.00163638,-1.3123,0.00296413,0.010397,965,1632,-0.031287,-0.0536584
-252,-608,-0.0201416,0.0667725,0.00573115,0.00649843,-0.00262705,0.0087697,0.00345988,-0.857903,0.0051006,0.0219174,972,1632,-0.020136,-0.0667937
-245,-608,0.0442505,0.184692,0.00918497,0.00791669,-0.00481613,0.0134085,0.00369313,-0.71994,0.00799745,0.0316103,979,1632,0.0442527,-0.184732
-238,-608,0.0491333,0.218994,0.0139474,0.00915714,-0.00768145,0.0195984,0.00350606,-0.634273,0.0120679,0.0359638,986,1632,0.0491285,-0.218952
-231,-608,0.148499,-0.109619,0.0207315,0.0100568,-0.0109998,0.0276205,0.00316782,-0.559521,0.0174538,0.0398552,993,1632,0.148491,0.109648
-224,-608,-1.33636,0.0679932,0.0288278,0.0106061,-0.0140709,0.0364799,0.00295393,-0.498092,0.0233976,0.0457531,1000,1632,-1.33638,-0.0679778
-217,-608,-1.03992,-0.0195313,0.0352844,0.00991828,-0.0150359,0.0422721,0.00293063,-0.435038,0.0272571,0.0457105,1007,1632,-1.03992,0.0194768
-210,-608,-0.659485,-0.0250244,0.0385351,0.00890665,-0.0146978,0.0445892,0.00285257,-0.390726,0.0288224,0.0441329,1014,1632,-0.659481,0.0249978
-203,-608,2.53131,2.00476,0.0387032,0.00652442,-0.0139111,0.0438832,0.00134439,-0.356459,0.0288178,0.0485664,1021,1632,2.53132,-2.0048
-196,-608,3.20862,0.270386,0,0,0,0,0,0,0,-1,1028,1632,3.20864,-0.270355
-189,-608,2.75183,0.227417,0.0329198,-0.00129825,-0.0083808,0.0348621,-0.00324065,-0.227746,0.0243935,0.0442415,1035,1632,2.7518,-0.227424
-182,-608,2.47644,0.110474,0,0,0,0,0,0,0,-1,1042,1632,2.4765,-0.110504
-175,-608,2.20068,0.0145264,0,0,0,0,0,0,0,-1,1049,1632,2.2007,-0.0145679
-168,-608,1.79688,-0.0460205,0,0,0,0,0,0,0,-1,1056,1632,1.79689,0.0460044
-161,-608,1.66565,-0.203735,0,0,0,0,0,0,0,-1,1063,1632,1.66566,0.203692
-154,-608,1.53442,-0.361328,0,0,0,0,0,0,0,-1,1070,1632,1.53442,0.361379
-147,-608,1.52332,-0.864868,0,0,0,0,0,0,0,-1,1077,1632,1.52337,0.864883
-140,-608,1.40686,-0.694702,-0.0047858,-0.028917,0.0104358,-0.000898842,-0.032804,0.356546,0.021576,0.04842,1084,1632,1.40685,0.694753
-133,-608,1.48779,-0.499634,-0.00357023,-0.0260603,0.00699469,-0.00157228,-0.0280582,0.278229,0.018204,0.0475108,1091,1632,1.48779,0.499668
-126,-608,1.63953,-0.311646,0,0,0,0,0,0,0,-1,1098,1632,1.63958,0.311613
-119,-608,2.10657,0.0240479,0,0,0,0,0,0,0,-1,1105,1632,2.10658,-0.0240147
-112,-608,1.61572,0.0125732,0,0,0,0,0,0,0,-1,1112,1632,1.61577,-0.0125212
-105,-608,2.06812,0.101685,0,0,0,0,0,0,0,-1,1119,1632,2.06808,-0.101676
-98,-608,1.82642,0.723022,-0.032496,0.0103977,-0.0249515,0.0218529,-0.0439512,-1.1404,0.0386995,0.0477096,1126,1632,1.82638,-0.723012
-91,-608,1.02356,0.803467,-0.0390185,0.0154016,-0.0265568,0.0262132,-0.0498302,-1.18417,0.0446039,0.0468929,1133,1632,1.02359,-0.803502
-84,-608,0,0,0,0,0,0,0,0,0,-1,1140,1632,0,0
-77,-608,0,0,0,0,0,0,0,0,0,-1,1147,1632,0,0
-70,-608,0,0,0,0,0,0,0,0,0,-1,1154,1632,0,0
-63,-608,0,0,0,0,0,0,0,0,0,-1,1161,1632,0,0
-56,-608,0,0,0,0,0,0,0,0,0,-1,1168,1632,0,0
-49,-608,0,0,0,0,0,0,0,0,0,-1,1175,1632,0,0
-42,-608,0,0,0,0,0,0,0,0,0,-1,1182,1632,0,0
-35,-608,0,0,0,0,0,0,0,0,0,-1,1189,1632,0,0
-28,-608,0,0,0,0,0,0,0,0,0,-1,1196,1632,0,0
-21,-608,0,0,0,0,0,0,0,0,0,-1,1203,1632,0,0
-14,-608,0,0,0,0,0,0,0,0,0,-1,1210,1632,0,0
-7,-608,0,0,0,0,0,0,0,0,0,-1,1217,1632,0,0
0,-608,0,0,0,0,0,0,0,0,0,-1,1224,1632,0,0
7,-608,0,0,0,0,0,0,0,0,0,-1,1231,1632,0,0
14,-608,0,0,0,0,0,0,0,0,0,-1,1238,1632,0,0
21,-608,0,0,0,0,0,0,0,0,0,-1,1245,1632,0,0
28,-608,0,0,0,0,0,0,0,0,0,-1,1252,1632,0,0
35,-608,0,0,0,0,0,0,0,0,0,-1,1259,1632,0,0
42,-608,0,0,0,0,0,0,0,0,0,-1,1266,1632,0,0
49,-608,0,0,0,0,0,0,0,0,0,-1,1273,1632,0,0
56,-608,0,0,0,0,0,0,0,0,0,-1,1280,1632,0,0
63,-608,0,0,0,0,0,0,0,0,0,-1,1287,1632,0,0
70,-608,0,0,0,0,0,0,0,0,0,-1,1294,1632,0,0
77,-608,0,0,0,0,0,0,0,0,0,-1,1301,1632,0,0
84,-608,0,0,0,0,0,0,0,0,0,-1,1308,1632,0,0
91,-608,0,0,0,0,0,0,0,0,0,-1,1315,1632,0,0
98,-608,0,0,0,0,0,0,0,0,0,-1,1322,1632,0,0
105,-608,0,0,0,0,0,0,0,0,0,-1,1329,1632,0,0
112,-608,0,0,0,0,0,0,0,0,0,-1,1336,1632,0,0
119,-608,0,0,0,0,0,0,0,0,0,-1,1343,1632,0,0
126,-608,0,0,0,0,0,0,0,0,0,-1,1350,1632,0,0
133,-608,0,0,0,0,0,0,0,0,0,-1,1357,1632,0,0
140,-608,0,0,0,0,0,0,0,0,0,-1,1364,1632,0,0
147,-608,0,0,0,0,0,0,0,0,0,-1,1371,1632,0,0
154,-608,0,0,0,0,0,0,0,0,0,-1,1378,1632,0,0
161,-608,0,0,0,0,0,0,0,0,0,-1,1385,1632,0,0
168,-608,0,0,0,0,0,0,0,0,0,-1,1392,1632,0,0
175,-608,0,0,0,0,0,0,0,0,0,-1,1399,1632,0,0
182,-608,0,0,0,0,0,0,0,0,0,-1,1406,1632,0,0
189,-608,0,0,0,0,0,0,0,0,0,-1,1413,1632,0,0
196,-608,0,0,0,0,0,0,0,0,0,-1,1420,1632,0,0
203,-608,0,0,0,0,0,0,0,0,0,-1,1427,1632,0,0
210,-608,-0.276001,-0.418457,0.00425657,-0.0413617,-0.00753643,0.00546939,-0.0425745,-0.15956,0.0303707,0.0437765,1434,1632,-0.276022,0.4185
217,-608,-0.0933838,-0.587036,0.00477227,-0.0396866,-0.0117677,0.00769491,-0.0426093,-0.243435,0.0312882,0.0440468,1441,1632,-0.0934082,0.58702
224,-608,0.241821,0.80542,0,0,0,0,0,0,0,-1,1448,1632,0.241802,-0.805472
231,-608,-0.19812,0.776611,0,0,0,0,0,0,0,-1,1455,1632,-0.198171,-0.776666
238,-608,-0.605469,0.973511,0,0,0,0,0,0,0,-1,1462,1632,-0.605465,-0.973481
245,-608,-0.191772,0.135498,0.00802021,-0.0311224,-0.0245981,0.019883,-0.0429852,-0.449359,0.0371048,0.0371385,1469,1632,-0.191805,-0.13554
252,-608,-0.173096,-0.363403,0.00831555,-0.0300479,-0.0264966,0.0218448,-0.0435771,-0.472095,0.0384598,0.037412,1476,1632,-0.173116,0.363402
259,-608,-0.457886,-0.558228,0.0105064,-0.0278561,-0.0266828,0.0241869,-0.0415366,-0.473762,0.0383837,0.039145,1483,1632,-0.457885,0.558201
266,-608,-0.863525,-0.455322,0.0135568,-0.0257406,-0.0254293,0.026044,-0.0382278,-0.456469,0.037329,0.0444274,1490,1632,-0.863496,0.455293
273,-608,-0.898315,-0.439087,0.0153994,-0.0224049,-0.0244957,0.027438,-0.0344435,-0.456791,0.0358036,0.0463651,1497,1632,-0.898313,0.439074
280,-608,-0.562744,-0.418213,0.0171336,-0.0198527,-0.0232115,0.0283182,-0.0310373,-0.449028,0.0342809,0.0449149,1504,1632,-0.562775,0.418219
287,-608,-0.360962,-0.330811,0,0,0,0,0,0,0,-1,1511,1632,-0.360942,0.330828
294,-608,0.0233154,-0.0302734,0,0,0,0,0,0,0,-1,1518,1632,0.0232694,0.0302833
301,-608,0.105103,0.25708,0,0,0,0,0,0,0,-1,1525,1632,0.105052,-0.257095
308,-608,0.272949,0.428345,0.0266192,-0.00658557,-0.0145132,0.0320684,-0.0120348,-0.359178,0.0263241,0.0481817,1532,1632,0.272982,-0.428386
315,-608,0.496338,0.306763,0.0258846,-0.00073733,-0.0124013,0.0307663,-0.00561907,-0.375018,0.0226178,0.0464839,1539,1632,0.496312,-0.306726
322,-608,0.886719,0.19812,0,0,0,0,0,0,0,-1,1546,1632,0.886724,-0.198105
329,-608,-1.3988,-1.11377,0.0207791,0.00402967,-0.00709514,0.0233806,0.00142819,-0.351436,0.0151335,0.0434984,1553,1632,-1.39884,1.11381
336,-608,-1.35657,-0.816528,0.0155648,0.00693595,-0.00513259,0.0179554,0.00454532,-0.435895,0.0107795,0.0466878,1560,1632,-1.35653,0.816548
343,-608,0.758423,1.06189,0,0,0,0,0,0,0,-1,1567,1632,0.758405,-1.06192
350,-608,0.30481,1.15247,0,0,0,0,0,0,0,-1,1574,1632,0.304819,-1.15249
357,-608,0.884888,0.908813,0,0,0,0,0,0,0,-1,1581,1632,0.884904,-0.908792
364,-608,0.74707,0.747437,-0.00136372,0.0113434,-0.0023877,0.0117772,-0.00179756,-1.39106,0.00851416,0.048495,1588,1632,0.747085,-0.747416
371,-608,-0.176392,0.111084,-0.00372045,0.0107556,-0.00211198,0.0110574,-0.00402229,-1.42884,0.00901658,0.0439042,1595,1632,-0.176425,-0.111037
378,-608,-0.164063,0.0672607,-0.00331741,0.00970371,-0.00159281,0.00989572,-0.00350942,-1.45083,0.00802688,0.0353664,1602,1632,-0.164021,-0.0672507
385,-608,-0.0639648,0.0640869,-0.0026227,0.008714,-0.00079635,0.00876967,-0.00267837,-1.50101,0.00691437,0.0287294,1609,1632,-0.0639868,-0.0640913
392,-608,-0.0377197,0.0446777,-0.00321058,0.00761394,-0.000338146,0.00762449,-0.00322114,-1.5396,0.00643146,0.0183605,1616,1632,-0.0376913,-0.0446694
399,-608,-0.0447998,0.0482178,-0.00244377,0.00613841,-4.6769e-06,0.00613842,-0.00244377,-1.57025,0.00510568,0.00940559,1623,1632,-0.0447447,-0.0481878
406,-608,-0.0340576,0.052124,-0.00162351,0.00425429,-4.57043e-05,0.00425465,-0.00162386,-1.56302,0.00350542,0.00889394,1630,1632,-0.0340554,-0.0521757
413,-608,-0.0466309,0.0667725,-0.00138886,0.0031226,9.74085e-05,0.0031247,-0.00139096,1.54922,0.0026704,0.00916883,1637,1632,-0.0466355,-0.0667172
420,-608,-0.0875244,0.092041,-0.00074604,0.00222503,0.000249798,0.00224589,-0.000766896,1.4875,0.00180795,0.01605,1644,1632,-0.0875716,-0.0920978
427,-608,-0.055542,0.0792236,-0.000425413,0.00183564,0.000450604,0.00192213,-0.000511905,1.38116,0.00148183,0.017601,1651,1632,-0.0555069,-0.0792398
434,-608,-0.0267334,0.0693359,-0.000597921,0.0013588,0.000535691,0.00149585,-0.000734977,1.32032,0.0013127,0.0135204,1658,1632,-0.0266791,-0.0693744
441,-608,-0.0491943,0.0758057,-0.000407766,0.00102892,0.000589952,0.00124013,-0.000618971,1.22701,0.00109314,0.0128499,1665,1632,-0.0491537,-0.0758624
448,-608,-0.0565186,0.0678711,-0.000221092,0.000889635,0.000490273,0.00107508,-0.000406536,1.20918,0.000883962,0.0143918,1672,1632,-0.056492,-0.0679213
455,-608,-0.0465088,0.076416,-0.000179568,0.000659756,0.000379252,0.000805734,-0.000325546,1.20337,0.000672471,0.0105809,1679,1632,-0.0464771,-0.0763701
462,-608,-0.0501709,0.0708008,-8.1456e-05,0.000574368,0.000271666,0.000672283,-0.000179371,1.22487,0.000518428,0.00975307,1686,1632,-0.0501516,-0.0708023
469,-608,-0.0552979,0.0562744,0.00014686,0.000900939,0.000176233,0.000940092,0.000107707,1.35218,0.000594089,0.00807423,1693,1632,-0.0552653,-0.0562329
476,-608,-0.0423584,0.055542,0.00053698,0.00146247,-2.6771e-05,0.00146324,0.000536206,-1.5419,0.000854789,0.00839635,1700,1632,-0.0424118,-0.0555241
483,-608,-0.0534668,0.0611572,0.000944639,0.001956,-0.000175069,0.00198545,0.000915192,-1.40415,0.00114746,0.00785394,1707,1632,-0.0534734,-0.061101
490,-608,-0.0395508,0.0670166,0.00149835,0.0025785,-0.00033517,0.00267405,0.0014028,-1.29308,0.00154449,0.00791105,1714,1632,-0.0395543,-0.0669816
497,-608,-0.0283203,0.071167,0.00235396,0.00331509,-0.000295476,0.00339866,0.00227039,-1.29516,0.00199881,0.0100159,1721,1632,-0.0282723,-0.0711103
504,-608,-0.065918,0.0604248,0.00389701,0.00529352,0.000507879,0.00545869,0.00373184,1.25637,0.00322166,0.0209231,1728,1632,-0.0659201,-0.0603892
511,-608,-0.0909424,0.0441895,0.00553653,0.00647556,0.000814266,0.00694598,0.00506611,1.04692,0.00414852,0.0338511,1735,1632,-0.0909485,-0.0441528
518,-608,0.101929,0.0012207,0.00673404,0.00769074,0.000678835,0.00804283,0.00638194,1.09232,0.00490294,0.0371469,1742,1632,0.101918,-0.00125023
525,-608,0.330811,0.174561,0.00862079,0.00905557,0.000613634,0.00948918,0.00818718,0.955635,0.00593988,0.0401274,1749,1632,0.330803,-0.174519
532,-608,0.316528,0.163574,0.0109399,0.0105451,-0.000146029,0.010988,0.010497,-0.318484,0.00716727,0.0429059,1756,1632,0.316473,-0.163543
539,-608,0.420898,0.00976563,0.0130178,0.0115362,-0.00122979,0.0137127,0.0108413,-0.514316,0.00835088,0.0412908,1763,1632,0.420941,-0.00977582
546,-608,0.415405,0.4823,0.0153018,0.0120104,-0.00300741,0.0170844,0.0102278,-0.535042,0.00992747,0.0424221,1770,1632,0.415357,-0.482247
553,-608,0.215454,0.567139,0.0180786,0.0119578,-0.00600349,0.0217568,0.00827965,-0.54968,0.0126802,0.0405487,1777,1632,0.215515,-0.567132
560,-608,1.40601,2.15076,0,0,0,0,0,0,0,-1,1784,1632,1.40598,-2.15075
567,-608,0,0,0,0,0,0,0,0,0,-1,1791,1632,0,0
574,-608,0,0,0,0,0,0,0,0,0,-1,1798,1632,0,0
581,-608,0,0,0,0,0,0,0,0,0,-1,1805,1632,0,0
588,-608,0,0,0,0,0,0,0,0,0,-1,1812,1632,0,0
595,-608,0,0,0,0,0,0,0,0,0,-1,1819,1632,0,0
602,-608,0,0,0,0,0,0,0,0,0,-1,1826,1632,0,0
609,-608,0,0,0,0,0,0,0,0,0,-1,1833,1632,0,0
616,-608,0,0,0,0,0,0,0,0,0,-1,1840,1632,0,0
623,-608,0,0,0,0,0,0,0,0,0,-1,1847,1632,0,0
630,-608,0,0,0,0,0,0,0,0,0,-1,1854,1632,0,0
637,-608,0,0,0,0,0,0,0,0,0,-1,1861,1632,0,0
644,-608,0,0,0,0,0,0,0,0,0,-1,1868,1632,0,0
651,-608,0,0,0,0,0,0,0,0,0,-1,1875,1632,0,0
658,-608,0,0,0,0,0,0,0,0,0,-1,1882,1632,0,0
665,-608,0,0,0,0,0,0,0,0,0,-1,1889,1632,0,0
672,-608,0,0,0,0,0,0,0,0,0,-1,1896,1632,0,0
679,-608,0,0,0,0,0,0,0,0,0,-1,1903,1632,0,0
686,-608,0,0,0,0,0,0,0,0,0,-1,1910,1632,0,0
693,-608,0,0,0,0,0,0,0,0,0,-1,1917,1632,0,0
700,-608,0,0,0,0,0,0,0,0,0,-1,1924,1632,0,0
707,-608,0,0,0,0,0,0,0,0,0,-1,1931,1632,0,0
714,-608,0,0,0,0,0,0,0,0,0,-1,1938,1632,0,0
721,-608,0,0,0,0,0,0,0,0,0,-1,1945,1632,0,0
728,-608,0,0,0,0,0,0,0,0,0,-1,1952,1632,0,0
735,-608,0,0,0,0,0,0,0,0,0,-1,1959,1632,0,0
742,-608,0,0,0,0,0,0,0,0,0,-1,1966,1632,0,0
749,-608,0,0,0,0,0,0,0,0,0,-1,1973,1632,0,0
756,-608,0,0,0,0,0,0,0,0,0,-1,1980,1632,0,0
763,-608,0,0,0,0,0,0,0,0,0,-1,1987,1632,0,0
770,-608,0,0,0,0,0,0,0,0,0,-1,1994,1632,0,0
777,-608,0,0,0,0,0,0,0,0,0,-1,2001,1632,0,0
784,-608,0,0,0,0,0,0,0,0,0,-1,2008,1632,0,0
791,-608,0,0,0,0,0,0,0,0,0,-1,2015,1632,0,0
798,-608,0,0,0,0,0,0,0,0,0,-1,2022,1632,0,0
805,-608,0,0,0,0,0,0,0,0,0,-1,2029,1632,0,0
812,-608,0,0,0,0,0,0,0,0,0,-1,2036,1632,0,0
-700,-615,0,0,0,0,0,0,0,0,0,-1,524,1639,0,0
-693,-615,0,0,0,0,0,0,0,0,0,-1,531,1639,0,0
-686,-615,0,0,0,0,0,0,0,0,0,-1,538,1639,0,0
-679,-615,0,0,0,0,0,0,0,0,0,-1,545,1639,0,0
-672,-615,0,0,0,0,0,0,0,0,0,-1,552,1639,0,0
-665,-615,0,0,0,0,0,0,0,0,0,-1,559,1639,0,0
-658,-615,0,0,0,0,0,0,0,0,0,-1,566,1639,0,0
-651,-615,0,0,0,0,0,0,0,0,0,-1,573,1639,0,0
-644,-615,0,0,0,0,0,0,0,0,0,-1,580,1639,0,0
-637,-615,0,0,0,0,0,0,0,0,0,-1,587,1639,0,0
-630,-615,0,0,0,0,0,0,0,0,0,-1,594,1639,0,0
-623,-615,0,0,0,0,0,0,0,0,0,-1,601,1639,0,0
-616,-615,0,0,0,0,0,0,0,0,0,-1,608,1639,0,0
-609,-615,0,0,0,0,0,0,0,0,0,-1,615,1639,0,0
-602,-615,0,0,0,0,0,0,0,0,0,-1,622,1639,0,0
-595,-615,0,0,0,0,0,0,0,0,0,-1,629,1639,0,0
-588,-615,0,0,0,0,0,0,0,0,0,-1,636,1639,0,0
-581,-615,0,0,0,0,0,0,0,0,0,-1,643,1639,0,0
-574,-615,0,0,0,0,0,0,0,0,0,-1,650,1639,0,0
-567,-615,0,0,0,0,0,0,0,0,0,-1,657,1639,0,0
-560,-615,0,0,0,0,0,0,0,0,0,-1,664,1639,0,0
-553,-615,0,0,0,0,0,0,0,0,0,-1,671,1639,0,0
-546,-615,0,0,0,0,0,0,0,0,0,-1,678,1639,0,0
-539,-615,0,0,0,0,0,0,0,0,0,-1,685,1639,0,0
-532,-615,0,0,0,0,0,0,0,0,0,-1,692,1639,0,0
-525,-615,0,0,0,0,0,0,0,0,0,-1,699,1639,0,0
-518,-615,0,0,0,0,0,0,0,0,0,-1,706,1639,0,0
-511,-615,0,0,0,0,0,0,0,0,0,-1,713,1639,0,0
-504,-615,0,0,0,0,0,0,0,0,0,-1,720,1639,0,0
-497,-615,0,0,0,0,0,0,0,0,0,-1,727,1639,0,0
-490,-615,0,0,0,0,0,0,0,0,0,-1,734,1639,0,0
-483,-615,0,0,0,0,0,0,0,0,0,-1,741,1639,0,0
-476,-615,0,0,0,0,0,0,0,0,0,-1,748,1639,0,0
-469,-615,0,0,0,0,0,0,0,0,0,-1,755,1639,0,0
-462,-615,0,0,0,0,0,0,0,0,0,-1,762,1639,0,0
-455,-615,0,0,0,0,0,0,0,0,0,-1,769,1639,0,0
-448,-615,0,0,0,0,0,0,0,0,0,-1,776,1639,0,0
-441,-615,0,0,0,0,0,0,0,0,0,-1,783,1639,0,0
-434,-615,0.963867,0.254395,0,0,0,0,0,0,0,-1,790,1639,0.963873,-0.254391
-427,-615,1.57654,-0.174072,0,0,0,0,0,0,0,-1,797,1639,1.57656,0.174058
-420,-615,0.530762,-1.59631,0,0,0,0,0,0,0,-1,804,1639,0.530766,1.59626
-413,-615,0.569275,-0.66748,-0.028246,0.0082606,0.0136045,0.0127727,-0.0327582,1.25055,0.0271183,0.0449383,811,1639,0.569287,0.667477
-406,-615,0.264526,-0.526978,-0.0206468,0.0049527,0.00917289,0.00790019,-0.0235943,1.25989,0.0189209,0.0461763,818,1639,0.264534,0.526919
-399,-615,-0.464661,0.534668,0,0,0,0,0,0,0,-1,825,1639,-0.464678,-0.534619
-392,-615,-0.503113,0.248901,-0.0094953,0.00177938,0.00346373,0.00275846,-0.0104744,1.29532,0.00806129,0.0433083,832,1639,-0.503101,-0.24895
-385,-615,-0.537964,-0.00256348,-0.00691839,0.000548964,0.00286518,0.00152162,-0.00789105,1.24353,0.00583442,0.043815,839,1639,-0.537958,0.00262047
-378,-615,-0.620728,0.218628,0,0,0,0,0,0,0,-1,846,1639,-0.620729,-0.218653
-371,-615,-0.111267,0.0159912,-0.00337365,0.000318583,0.00216091,0.00131459,-0.00436966,1.1389,0.00343617,0.0449301,853,1639,-0.111246,-0.0159439
-364,-615,-0.046936,0.0577393,-0.0023976,-0.000476541,0.00186017,0.000656458,-0.0035306,1.02373,0.00260032,0.0297394,860,1639,-0.0469192,-0.0577292
-357,-615,-0.000793457,0.0441895,-0.0015668,-0.00053501,0.00165908,0.000686536,-0.00278835,0.936135,0.00212504,0.0233335,867,1639,-0.000796808,-0.0442174
-350,-615,-0.0164185,0.0355225,-0.00085267,-0.000325394,0.00130841,0.000745677,-0.00192374,0.884814,0.00159043,0.0194323,874,1639,-0.0163897,-0.0355508
-343,-615,-0.0266113,0.0541992,-0.000465602,-2.3839e-05,0.000902621,0.000684534,-0.00117397,0.905396,0.00108534,0.0158459,881,1639,-0.0265852,-0.0541488
-336,-615,-0.0238037,0.0552979,-0.000215545,-0.000123982,0.000720232,0.000551922,-0.000891449,0.817138,0.000840981,0.00908024,888,1639,-0.0237926,-0.0553194
-329,-615,-0.0300293,0.0516357,-0.0001151,-0.000417381,0.000634841,0.000386344,-0.000918825,0.668536,0.000774161,0.00916804,895,1639,-0.0300443,-0.0516831
-322,-615,-0.0405273,0.0645752,-3.59029e-05,-0.000586816,0.00033559,0.000122803,-0.000745522,0.441746,0.000542601,0.00867146,902,1639,-0.0405521,-0.064633
-315,-615,-0.0335693,0.0733643,0.000121968,-0.000898987,0.000225546,0.000169576,-0.000946594,0.208021,0.000694523,0.00929341,909,1639,-0.033575,-0.0733397
-308,-615,-0.0403442,0.0629883,0.000290805,-0.000988695,0.000209271,0.000324163,-0.00102205,0.158072,0.000811305,0.0148563,916,1639,-0.0403586,-0.0629281
-301,-615,-0.0294189,0.052002,0.000679137,-0.000857976,0.000157655,0.000695141,-0.000873979,0.101162,0.000907891,0.0120199,923,1639,-0.0294171,-0.0519541
-294,-615,-0.0251465,0.0457764,0.00085209,-0.000465598,0.000671054,0.00113367,-0.000747174,0.39729,0.00109352,0.0103269,930,1639,-0.0251655,-0.0458076
-287,-615,-0.0380249,0.0560303,0.000408788,2.1244e-05,0.0013367,0.00156569,-0.00113566,0.713418,0.0015662,0.00790261,937,1639,-0.0380254,-0.0560645
-280,-615,-0.0394897,0.0386963,-0.0009518,0.00161181,0.00113106,0.00203948,-0.00137947,1.20929,0.00198616,0.00790876,944,1639,-0.0395055,-0.0387231
-273,-615,-0.0340576,0.0412598,-0.00177253,0.00253417,0.000647805,0.0026295,-0.00186786,1.42468,0.00260894,0.008109,951,1639,-0.0340332,-0.0413112
-266,-615,-0.029541,0.0511475,-0.00167588,0.003442,-0.000180299,0.00344834,-0.00168222,-1.53563,0.00302007,0.00858366,958,1639,-0.0295172,-0.051146
-259,-615,-0.0184937,0.0629883,-0.000112366,0.00402767,-0.000907284,0.00421777,-0.000302466,-1.36426,0.0029179,0.0105628,965,1639,-0.0185042,-0.0630012
-252,-615,-0.0233765,0.0679932,0.0028181,0.00565049,-0.00224077,0.00688509,0.00158351,-1.06721,0.00416383,0.0118249,972,1639,-0.0233893,-0.0680422
-245,-615,-0.0148315,0.0556641,0.00539549,0.00687971,-0.00393727,0.0101442,0.002131,-0.878547,0.00617625,0.0166895,979,1639,-0.0148553,-0.0557246
-238,-615,-0.0214233,0.0709229,0.00909374,0.00795455,-0.00612198,0.0146726,0.00237572,-0.739011,0.00909384,0.0228106,986,1639,-0.0213976,-0.0709475
-231,-615,-0.0375366,0.0627441,0.0144231,0.00875846,-0.00856866,0.0206154,0.00256614,-0.625779,0.0129731,0.0317987,993,1639,-0.0375269,-0.0627066
-224,-615,-0.110901,-0.12915,0.0206819,0.00925139,-0.0106579,0.0270602,0.00287303,-0.539288,0.0171628,0.0429144,1000,1639,-0.110926,0.129137
-217,-615,-0.515076,-0.00305176,0.026041,0.0088681,-0.011201,0.031568,0.00334113,-0.458384,0.0200247,0.044501,1007,1639,-0.51509,0.00309144
-210,-615,0.0635986,-0.043457,0,0,0,0,0,0,0,-1,1014,1639,0.0635807,0.0435177
-203,-615,3.52124,0.721924,0.0298854,0.00624759,-0.0099823,0.0335369,0.00259611,-0.350676,0.0215448,0.0493745,1021,1639,3.52122,-0.721879
-196,-615,3.4176,0.383545,0,0,0,0,0,0,0,-1,1028,1639,3.41761,-0.383513
-189,-615,3.27698,0.055542,0,0,0,0,0,0,0,-1,1035,1639,3.27696,-0.0555662
-182,-615,2.3064,-0.0588379,0,0,0,0,0,0,0,-1,1042,1639,2.30638,0.0588121
-175,-615,1.99023,-0.0894775,0.0201802,-0.0126586,0.00193745,0.0202942,-0.0127725,0.058727,0.019255,0.0478194,1049,1639,1.99025,0.0894825
-168,-615,1.62537,-0.11792,0,0,0,0,0,0,0,-1,1056,1639,1.62536,0.117952
-161,-615,1.53101,-0.170166,0,0,0,0,0,0,0,-1,1063,1639,1.53098,0.1702
-154,-615,1.45874,-0.34021,0,0,0,0,0,0,0,-1,1070,1639,1.45872,0.340262
-147,-615,1.16858,-0.554199,0,0,0,0,0,0,0,-1,1077,1639,1.16858,0.554205
-140,-615,1.28577,-0.383423,0.000514714,-0.0227143,0.00989602,0.00415891,-0.0263585,0.352838,0.0191101,0.0481349,1084,1639,1.28573,0.383417
-133,-615,1.31763,-0.150879,0.00155277,-0.0192629,0.00776266,0.00412885,-0.0218389,0.32042,0.0161129,0.0483918,1091,1639,1.31758,0.150839
-126,-615,1.4624,0.0557861,0,0,0,0,0,0,0,-1,1098,1639,1.46238,-0.0558079
-119,-615,1.25562,0.352539,-0.00283204,-0.0068568,0.000694557,-0.00271555,-0.00697328,0.16617,0.00405871,0.0416848,1105,1639,1.25564,-0.352536
-112,-615,1.66174,0.473511,0,0,0,0,0,0,0,-1,1112,1639,1.66173,-0.47352
-105,-615,2.06396,0.576538,-0.0138539,0.00928884,-0.0105513,0.0133772,-0.0179422,-1.20114,0.0181462,0.0424255,1119,1639,2.06392,-0.57657
-98,-615,2.18469,0.575928,-0.0211184,0.0174418,-0.0136086,0.0217608,-0.0254374,-1.26348,0.0272775,0.0453578,1126,1639,2.18472,-0.575896
-91,-615,2.23438,0.482422,-0.0266748,0.0221618,-0.0146916,0.0262408,-0.0307538,-1.29997,0.0329402,0.0459884,1133,1639,2.23434,-0.482428
-84,-615,1.08948,0.807617,0,0,0,0,0,0,0,-1,1140,1639,1.08948,-0.807639
-77,-615,0.0865479,1.10327,0,0,0,0,0,0,0,-1,1147,1639,0.0865413,-1.10327
-70,-615,-0.81311,1.50488,0,0,0,0,0,0,0,-1,1154,1639,-0.813138,-1.50494
-63,-615,-1.62378,-1.3501,0,0,0,0,0,0,0,-1,1161,1639,-1.62378,1.35015
-56,-615,0,0,0,0,0,0,0,0,0,-1,1168,1639,0,0
-49,-615,0,0,0,0,0,0,0,0,0,-1,1175,1639,0,0
-42,-615,0,0,0,0,0,0,0,0,0,-1,1182,1639,0,0
-35,-615,0,0,0,0,0,0,0,0,0,-1,1189,1639,0,0
-28,-615,0,0,0,0,0,0,0,0,0,-1,1196,1639,0,0
-21,-615,0,0,0,0,0,0,0,0,0,-1,1203,1639,0,0
-14,-615,0,0,0,0,0,0,0,0,0,-1,1210,1639,0,0
-7,-615,0,0,0,0,0,0,0,0,0,-1,1217,1639,0,0
0,-615,0,0,0,0,0,0,0,0,0,-1,1224,1639,0,0
7,-615,0,0,0,0,0,0,0,0,0,-1,1231,1639,0,0
14,-615,0,0,0,0,0,0,0,0,0,-1,1238,1639,0,0
21,-615,0,0,0,0,0,0,0,0,0,-1,1245,1639,0,0
28,-615,0,0,0,0,0,0,0,0,0,-1,1252,1639,0,0
35,-615,0,0,0,0,0,0,0,0,0,-1,1259,1639,0,0
42,-615,0,0,0,0,0,0,0,0,0,-1,1266,1639,0,0
49,-615,0,0,0,0,0,0,0,0,0,-1,1273,1639,0,0
56,-615,0,0,0,0,0,0,0,0,0,-1,1280,1639,0,0
63,-615,0,0,0,0,0,0,0,0,0,-1,1287,1639,0,0
70,-615,0,0,0,0,0,0,0,0,0,-1,1294,1639,0,0
77,-615,0,0,0,0,0,0,0,0,0,-1,1301,1639,0,0
84,-615,0,0,0,0,0,0,0,0,0,-1,1308,1639,0,0
91,-615,0,0,0,0,0,0,0,0,0,-1,1315,1639,0,0
98,-615,0,0,0,0,0,0,0,0,0,-1,1322,1639,0,0
105,-615,0,0,0,0,0,0,0,0,0,-1,1329,1639,0,0
112,-615,0,0,0,0,0,0,0,0,0,-1,1336,1639,0,0
119,-615,0,0,0,0,0,0,0,0,0,-1,1343,1639,0,0
126,-615,0,0,0,0,0,0,0,0,0,-1,1350,1639,0,0
133,-615,0,0,0,0,0,0,0,0,0,-1,1357,1639,0,0
140,-615,0,0,0,0,0,0,0,0,0,-1,1364,1639,0,0
147,-615,0,0,0,0,0,0,0,0,0,-1,1371,1639,0,0
154,-615,0,0,0,0,0,0,0,0,0,-1,1378,1639,0,0
161,-615,0,0,0,0,0,0,0,0,0,-1,1385,1639,0,0
168,-615,0,0,0,0,0,0,0,0,0,-1,1392,1639,0,0
175,-615,0.176514,0.433594,0.0110934,-0.00766652,-0.00442818,0.0120861,-0.00865924,-0.220536,0.0120317,0.0457775,1399,1639,0.176528,-0.433641
182,-615,0.136963,0.515747,0,0,0,0,0,0,0,-1,1406,1639,0.136937,-0.515711
189,-615,0.0966797,-0.567505,0.00489052,-0.0135348,-0.00183582,0.00507165,-0.013716,-0.0983475,0.0112232,0.0444987,1413,1639,0.0966763,0.567485
196,-615,0.134033,-0.161987,0.00425263,-0.0150391,-0.00345865,0.00485396,-0.0156404,-0.172142,0.0123666,0.0416473,1420,1639,0.133979,0.161944
203,-615,0.0247803,-0.352417,0.00319089,-0.0181398,-0.00569311,0.00461526,-0.0195641,-0.245159,0.0148227,0.0393264,1427,1639,0.0247825,0.352392
210,-615,-0.0544434,-0.553223,0.00231211,-0.0213319,-0.00812193,0.00483324,-0.023853,-0.30098,0.017734,0.0380248,1434,1639,-0.0543832,0.553265
217,-615,-0.079834,-0.598877,0.00257548,-0.0213246,-0.0113498,0.00710638,-0.0258555,-0.379821,0.0200305,0.0418786,1441,1639,-0.0798037,0.598926
224,-615,-0.178833,1.12439,0,0,0,0,0,0,0,-1,1448,1639,-0.17878,-1.12439
231,-615,-0.338501,0.932007,0.00472284,-0.0197475,-0.0170736,0.0134926,-0.0285173,-0.474504,0.0247661,0.0445302,1455,1639,-0.33845,-0.932052
238,-615,-0.552856,0.762085,0.00504073,-0.0203893,-0.0192395,0.0153871,-0.0307357,-0.493405,0.0271161,0.0467023,1462,1639,-0.552849,-0.762113
245,-615,-0.359131,0.485596,0.00535384,-0.0199323,-0.0215536,0.0176989,-0.0322773,-0.520149,0.0292601,0.0443863,1469,1639,-0.359085,-0.485579
252,-615,-0.152222,0.115967,0.00570435,-0.0201461,-0.023025,0.0191839,-0.0336256,-0.529638,0.0308673,0.0420736,1476,1639,-0.152167,-0.115961
259,-615,-0.130127,-0.200195,0.0076052,-0.0192508,-0.0229747,0.0207883,-0.0324339,-0.520937,0.030972,0.0386308,1483,1639,-0.130157,0.200157
266,-615,-0.312866,-0.357178,0.0101124,-0.0183837,-0.0216726,0.021801,-0.0300722,-0.494611,0.0300757,0.0399447,1490,1639,-0.312854,0.357209
273,-615,-0.255493,-0.424194,0.0113817,-0.0163702,-0.0205667,0.0223157,-0.0273042,-0.488633,0.0286963,0.0449395,1497,1639,-0.255452,0.424249
280,-615,-0.277344,-0.394531,0.0127433,-0.01504,-0.0191048,0.0224731,-0.0247698,-0.471047,0.0272864,0.0475844,1504,1639,-0.277344,0.394577
287,-615,-0.348511,-0.052124,0,0,0,0,0,0,0,-1,1511,1639,-0.348539,0.0520736
294,-615,-0.132935,0.0742188,0,0,0,0,0,0,0,-1,1518,1639,-0.132975,-0.0741585
301,-615,0.088501,0.249634,0,0,0,0,0,0,0,-1,1525,1639,0.0885209,-0.249651
308,-615,0.252563,0.415527,0.0205911,-0.0053817,-0.0110427,0.0246514,-0.00944195,-0.352342,0.0203262,0.0479831,1532,1639,0.252544,-0.41552
315,-615,0.330444,0.327759,0.0202567,-0.00111931,-0.00919909,0.0236704,-0.00453296,-0.355334,0.0174882,0.0453658,1539,1639,0.330403,-0.327807
322,-615,0.745361,0.137573,0.0183062,0.000232491,-0.00699226,0.0206955,-0.00215679,-0.329265,0.0145692,0.0459231,1546,1639,0.745348,-0.137573
329,-615,-0.782837,-0.784058,0.0161371,0.00233981,-0.00497243,0.0177424,0.000734557,-0.312269,0.0115912,0.0437262,1553,1639,-0.782874,0.784099
336,-615,-0.661743,-0.765015,0.0123332,0.00464496,-0.00357555,0.013739,0.00323915,-0.374608,0.00829325,0.048801,1560,1639,-0.661702,0.765035
343,-615,-0.600098,-0.639648,0,0,0,0,0,0,0,-1,1567,1639,-0.600099,0.639689
350,-615,-0.312744,0.274536,0.00535473,0.00726331,-0.00232199,0.00881946,0.00379858,-0.980365,0.00510819,0.0458376,1574,1639,-0.312777,-0.274495
357,-615,0.0593262,0.478149,0.00254029,0.00843955,-0.0019811,0.0090431,0.00193674,-1.27508,0.00549806,0.0454342,1581,1639,0.0593395,-0.478202
364,-615,0.353394,0.402588,-0.000414176,0.00881546,-0.00168143,0.00911224,-0.000710952,-1.39609,0.00632514,0.0438555,1588,1639,0.353347,-0.402592
371,-615,0.106934,0.155151,-0.00221655,0.00843494,-0.00147863,0.00863639,-0.002418,-1.43539,0.00671041,0.0353459,1595,1639,0.106947,-0.155163
378,-615,-0.0361328,0.10022,-0.00192013,0.00772076,-0.00113959,0.00785363,-0.002053,-1.45472,0.00603758,0.0182248,1602,1639,-0.0361267,-0.100219
385,-615,-0.0625,0.0628662,-0.00141119,0.00703936,-0.000576943,0.00707857,-0.0014504,-1.50294,0.00526947,0.0110016,1609,1639,-0.0624768,-0.0629175
392,-615,-0.0450439,0.0495605,-0.0019735,0.00636702,-0.000269164,0.0063757,-0.00198218,-1.53857,0.00504276,0.00934075,1616,1639,-0.0450797,-0.0495862
399,-615,-0.0390625,0.0548096,-0.00143624,0.00537719,-9.0341e-05,0.00537839,-0.00143744,-1.55754,0.00414859,0.00998719,1623,1639,-0.0390266,-0.0548358
406,-615,-0.0483398,0.050415,-0.000868914,0.00401376,-0.000251986,0.00402673,-0.000881884,-1.51937,0.00302165,0.0106257,1630,1639,-0.0482962,-0.050372
413,-615,-0.0458984,0.0603027,-0.000765629,0.00325382,-0.000256278,0.0032701,-0.000781904,-1.50738,0.0024821,0.0115891,1637,1639,-0.0458783,-0.0603342
420,-615,-0.0500488,0.0839844,-0.000303861,0.0026539,-0.000192958,0.00266644,-0.000316396,-1.50592,0.00189193,0.0124423,1644,1639,-0.0500744,-0.0839938
427,-615,-0.0462646,0.0841064,-0.000193428,0.00248561,-4.55554e-05,0.00248638,-0.000194202,-1.5538,0.00172597,0.0132423,1651,1639,-0.0462228,-0.0840499
434,-615,-0.0289307,0.0773926,-0.000508805,0.00218105,3.49129e-05,0.0021815,-0.000509258,1.55782,0.00165049,0.0121923,1658,1639,-0.0289346,-0.0773852
441,-615,-0.0274658,0.0507813,-0.000489671,0.00194283,9.97434e-05,0.00194691,-0.000493754,1.52988,0.00149005,0.0131175,1665,1639,-0.027458,-0.0507531
448,-615,-0.0361328,0.0692139,-0.000469925,0.00180087,6.59552e-05,0.00180278,-0.000471839,1.54178,0.00138616,0.0142569,1672,1639,-0.0361811,-0.0692637
455,-615,-0.0447998,0.0952148,-0.00056758,0.00155069,4.32673e-05,0.00155157,-0.000568464,1.55038,0.00126711,0.0134068,1679,1639,-0.0448084,-0.0951743
462,-615,-0.0490723,0.0814209,-0.000587296,0.0014067,3.87417e-06,0.00140671,-0.000587304,1.56885,0.0011832,0.0139103,1686,1639,-0.049061,-0.0814419
469,-615,-0.0523682,0.0540771,-0.000435394,0.00167028,-7.09833e-06,0.00167031,-0.000435418,-1.56743,0.00128354,0.0122743,1693,1639,-0.0523589,-0.0540898
476,-615,-0.057373,0.038208,-3.85677e-05,0.00222453,-0.000163002,0.00223621,-5.02478e-05,-1.49926,0.00150783,0.0104375,1700,1639,-0.0573355,-0.0382473
483,-615,-0.0543213,0.0386963,0.000382956,0.00271763,-0.000262283,0.00274673,0.000353853,-1.46029,0.00172534,0.0132178,1707,1639,-0.054286,-0.0387005
490,-615,-0.0285645,0.0715332,0.000999472,0.00342847,-0.0003886,0.00348912,0.000938816,-1.41596,0.00208483,0.0140587,1714,1639,-0.028595,-0.0715242
497,-615,-0.0258789,0.0863037,0.0019148,0.0043702,-0.000374585,0.00442608,0.00185893,-1.42273,0.00256628,0.0183324,1721,1639,-0.0258746,-0.0863341
504,-615,-0.064209,0.0810547,0.00351532,0.00654838,0.000288988,0.00657567,0.00348803,1.47665,0.00379881,0.0344185,1728,1639,-0.0642305,-0.0810157
511,-615,0.0286865,0.11145,0.00529358,0.00812005,0.000548359,0.0082227,0.00519093,1.38573,0.00480163,0.040337,1735,1639,0.0286278,-0.111441
518,-615,0.175659,0.119385,0.00665678,0.00988295,0.000320013,0.00991439,0.00662535,1.47287,0.00583111,0.0390341,1742,1639,0.175698,-0.119422
525,-615,0.299927,-0.0501709,0.00876539,0.0119054,0.00015496,0.011913,0.00875776,1.52161,0.00712701,0.0373097,1749,1639,0.299985,0.0501485
532,-615,0.090332,-0.0565186,0.0113322,0.0139847,-0.00057474,0.0141039,0.0112131,-1.36633,0.00860245,0.0411251,1756,1639,0.0903224,0.0565275
539,-615,0.347412,0.208618,0.0135476,0.0154732,-0.00160687,0.0163837,0.0126372,-1.05531,0.00991249,0.0402121,1763,1639,0.347361,-0.208668
546,-615,0.500366,0.343994,0.015817,0.0164321,-0.00344143,0.0195797,0.0126694,-0.829963,0.0114662,0.0429423,1770,1639,0.500371,-0.344028
553,-615,0.474121,0.354614,0.0184197,0.0166232,-0.00663027,0.0242123,0.0108306,-0.718071,0.0140048,0.0430235,1777,1639,0.474177,-0.354675
560,-615,0,0,0,0,0,0,0,0,0,-1,1784,1639,0,0
567,-615,0,0,0,0,0,0,0,0,0,-1,1791,1639,0,0
574,-615,0,0,0,0,0,0,0,0,0,-1,1798,1639,0,0
581,-615,0,0,0,0,0,0,0,0,0,-1,1805,1639,0,0
588,-615,0,0,0,0,0,0,0,0,0,-1,1812,1639,0,0
595,-615,0,0,0,0,0,0,0,0,0,-1,1819,1639,0,0
602,-615,0,0,0,0,0,0,0,0,0,-1,1826,1639,0,0
609,-615,0,0,0,0,0,0,0,0,0,-1,1833,1639,0,0
616,-615,0,0,0,0,0,0,0,0,0,-1,1840,1639,0,0
623,-615,0,0,0,0,0,0,0,0,0,-1,1847,1639,0,0
630,-615,0,0,0,0,0,0,0,0,0,-1,1854,1639,0,0
637,-615,0,0,0,0,0,0,0,0,0,-1,1861,1639,0,0
644,-615,0,0,0,0,0,0,0,0,0,-1,1868,1639,0,0
651,-615,0,0,0,0,0,0,0,0,0,-1,1875,1639,0,0
658,-615,0,0,0,0,0,0,0,0,0,-1,1882,1639,0,0
665,-615,0,0,0,0,0,0,0,0,0,-1,1889,1639,0,0
672,-615,0,0,0,0,0,0,0,0,0,-1,1896,1639,0,0
679,-615,0,0,0,0,0,0,0,0,0,-1,1903,1639,0,0
686,-615,0,0,0,0,0,0,0,0,0,-1,1910,1639,0,0
693,-615,0,0,0,0,0,0,0,0,0,-1,1917,1639,0,0
700,-615,0,0,0,0,0,0,0,0,0,-1,1924,1639,0,0
707,-615,0,0,0,0,0,0,0,0,0,-1,1931,1639,0,0
714,-615,0,0,0,0,0,0,0,0,0,-1,1938,1639,0,0
721,-615,0,0,0,0,0,0,0,0,0,-1,1945,1639,0,0
728,-615,0,0,0,0,0,0,0,0,0,-1,1952,1639,0,0
735,-615,0,0,0,0,0,0,0,0,0,-1,1959,1639,0,0
742,-615,0,0,0,0,0,0,0,0,0,-1,1966,1639,0,0
749,-615,0,0,0,0,0,0,0,0,0,-1,1973,1639,0,0
756,-615,0,0,0,0,0,0,0,0,0,-1,1980,1639,0,0
763,-615,0,0,0,0,0,0,0,0,0,-1,1987,1639,0,0
770,-615,0,0,0,0,0,0,0,0,0,-1,1994,1639,0,0
777,-615,0,0,0,0,0,0,0,0,0,-1,2001,1639,0,0
784,-615,0,0,0,0,0,0,0,0,0,-1,2008,1639,0,0
791,-615,0,0,0,0,0,0,0,0,0,-1,2015,1639,0,0
798,-615,0,0,0,0,0,0,0,0,0,-1,2022,1639,0,0
805,-615,0,0,0,0,0,0,0,0,0,-1,2029,1639,0,0
812,-615,0,0,0,0,0,0,0,0,0,-1,2036,1639,0,0
-700,-622,0,0,0,0,0,0,0,0,0,-1,524,1646,0,0
-693,-622,0,0,0,0,0,0,0,0,0,-1,531,1646,0,0
-686,-622,0,0,0,0,0,0,0,0,0,-1,538,1646,0,0
-679,-622,0,0,0,0,0,0,0,0,0,-1,545,1646,0,0
-672,-622,0,0,0,0,0,0,0,0,0,-1,552,1646,0,0
-665,-622,0,0,0,0,0,0,0,0,0,-1,559,1646,0,0
-658,-622,0,0,0,0,0,0,0,0,0,-1,566,1646,0,0
-651,-622,0,0,0,0,0,0,0,0,0,-1,573,1646,0,0
-644,-622,0,0,0,0,0,0,0,0,0,-1,580,1646,0,0
-637,-622,0,0,0,0,0,0,0,0,0,-1,587,1646,0,0
-630,-622,0,0,0,0,0,0,0,0,0,-1,594,1646,0,0
-623,-622,0,0,0,0,0,0,0,0,0,-1,601,1646,0,0
-616,-622,0,0,0,0,0,0,0,0,0,-1,608,1646,0,0
-609,-622,0,0,0,0,0,0,0,0,0,-1,615,1646,0,0
-602,-622,0,0,0,0,0,0,0,0,0,-1,622,1646,0,0
-595,-622,0,0,0,0,0,0,0,0,0,-1,629,1646,0,0
-588,-622,0,0,0,0,0,0,0,0,0,-1,636,1646,0,0
-581,-622,0,0,0,0,0,0,0,0,0,-1,643,1646,0,0
-574,-622,0,0,0,0,0,0,0,0,0,-1,650,1646,0,0
-567,-622,0,0,0,0,0,0,0,0,0,-1,657,1646,0,0
-560,-622,0,0,0,0,0,0,0,0,0,-1,664,1646,0,0
-553,-622,0,0,0,0,0,0,0,0,0,-1,671,1646,0,0
-546,-622,0,0,0,0,0,0,0,0,0,-1,678,1646,0,0
-539,-622,0,0,0,0,0,0,0,0,0,-1,685,1646,0,0
-532,-622,0,0,0,0,0,0,0,0,0,-1,692,1646,0,0
-525,-622,0,0,0,0,0,0,0,0,0,-1,699,1646,0,0
-518,-622,0,0,0,0,0,0,0,0,0,-1,706,1646,0,0
-511,-622,0,0,0,0,0,0,0,0,0,-1,713,1646,0,0
-504,-622,0,0,0,0,0,0,0,0,0,-1,720,1646,0,0
-497,-622,0,0,0,0,0,0,0,0,0,-1,727,1646,0,0
-490,-622,0,0,0,0,0,0,0,0,0,-1,734,1646,0,0
-483,-622,0,0,0,0,0,0,0,0,0,-1,741,1646,0,0
-476,-622,0,0,0,0,0,0,0,0,0,-1,748,1646,0,0
-469,-622,0,0,0,0,0,0,0,0,0,-1,755,1646,0,0
-462,-622,0,0,0,0,0,0,0,0,0,-1,762,1646,0,0
-455,-622,0,0,0,0,0,0,0,0,0,-1,769,1646,0,0
-448,-622,0,0,0,0,0,0,0,0,0,-1,776,1646,0,0
-441,-622,0,0,0,0,0,0,0,0,0,-1,783,1646,0,0
-434,-622,0,0,0,0,0,0,0,0,0,-1,790,1646,0,0
-427,-622,1.38654,-0.47168,0,0,0,0,0,0,0,-1,797,1646,1.38654,0.471718
-420,-622,0.951172,-0.648926,0,0,0,0,0,0,0,-1,804,1646,0.951158,0.648901
-413,-622,0.516357,-0.641479,-0.0311573,0.00402435,0.0132914,0.00848117,-0.0356141,1.24726,0.0270172,0.0451417,811,1646,0.516334,0.641484
-406,-622,0.296204,-0.564941,-0.0230484,0.00164576,0.00881055,0.00446695,-0.0258696,1.26091,0.018912,0.0483732,818,1646,0.296229,0.564885
-399,-622,0.186279,-0.499878,-0.0161495,0.000497773,0.00497823,0.00187289,-0.0175246,1.30129,0.0123548,0.0461873,825,1646,0.186298,0.499841
-392,-622,-0.444153,-0.0545654,0,0,0,0,0,0,0,-1,832,1646,-0.444134,0.0545695
-385,-622,-0.246094,-0.147461,-0.00903664,-0.000950426,0.00254797,-0.000214528,-0.00977254,1.28963,0.00644471,0.0446528,839,1646,-0.246073,0.147471
-378,-622,-0.0645752,-0.0400391,-0.0069233,-0.000824238,0.00206386,-0.000191493,-0.00755605,1.27331,0.00497476,0.0458192,846,1646,-0.0645918,0.04004
-371,-622,-0.143311,-0.0284424,-0.0051778,-0.000824519,0.00180647,-0.000172539,-0.00582978,1.22443,0.0038303,0.0473729,853,1646,-0.14328,0.0284308
-364,-622,-0.149048,0.00195313,-0.00402915,-0.00166043,0.00161546,-0.000841687,-0.00484789,1.10171,0.0029911,0.0423969,860,1646,-0.149054,-0.00200942
-357,-622,-0.0217285,-0.024292,-0.00299062,-0.0017717,0.00147106,-0.000788848,-0.00397348,0.981784,0.00242912,0.0393993,867,1646,-0.0217345,0.0243353
-350,-622,0.0539551,0.0152588,-0.00207323,-0.00173903,0.00118194,-0.000712438,-0.00309983,0.855622,0.00187475,0.0297627,874,1646,0.0539366,-0.0152167
-343,-622,-0.0203247,0.043457,-0.00156368,-0.00158636,0.000870233,-0.000704713,-0.00244533,0.778883,0.00145342,0.0183488,881,1646,-0.0203265,-0.0434375
-336,-622,-0.0388184,0.0494385,-0.00123883,-0.00189225,0.000812141,-0.000690147,-0.00244093,0.594162,0.00145294,0.00851004,888,1646,-0.0387924,-0.0494044
-329,-622,-0.0322266,0.0570068,-0.00106036,-0.00227795,0.000849277,-0.000624217,-0.0027141,0.474429,0.00164138,0.0084064,895,1646,-0.0322434,-0.0569607
-322,-622,-0.0422974,0.072998,-0.000863564,-0.00249038,0.000619123,-0.000654746,-0.0026992,0.325298,0.00162578,0.00908927,902,1646,-0.0422832,-0.0729653
-315,-622,-0.0448608,0.0871582,-0.000663441,-0.00278306,0.000552848,-0.000527911,-0.00291859,0.240408,0.00179581,0.0122353,909,1646,-0.0448809,-0.0871197
-308,-622,-0.0454102,0.0617676,-0.000514498,-0.00272017,0.000524685,-0.000396047,-0.00283862,0.222034,0.00177519,0.01227,916,1646,-0.0454301,-0.0617736
-301,-622,-0.0478516,0.0510254,-0.000170569,-0.0023817,0.000458214,-7.93736e-05,-0.00247289,0.196455,0.00162278,0.0113864,923,1646,-0.047879,-0.0510072
-294,-622,-0.0496826,0.0560303,2.4787e-05,-0.00180478,0.000808377,0.000330783,-0.00211077,0.361863,0.00152941,0.00933657,930,1646,-0.0496653,-0.0559893
-287,-622,-0.041748,0.0450439,-0.000258558,-0.00115243,0.00126438,0.000635556,-0.00204654,0.615512,0.00161836,0.00775285,937,1646,-0.0417365,-0.0450801
-280,-622,-0.031311,0.0397949,-0.00135458,0.000403757,0.0010641,0.000904895,-0.00185572,1.13066,0.00162505,0.00784431,944,1646,-0.0313347,-0.0397904
-273,-622,-0.046936,0.0335693,-0.00211497,0.00134703,0.000586282,0.00144362,-0.00221156,1.40751,0.00212579,0.0099221,951,1646,-0.0469612,-0.0335343
-266,-622,-0.048584,0.0471191,-0.00216711,0.00229838,-0.000171363,0.00230495,-0.00217368,-1.5325,0.00258611,0.010204,958,1646,-0.0485672,-0.0471306
-259,-622,-0.0140381,0.0789795,-0.00108202,0.00292366,-0.000775964,0.00306872,-0.00122708,-1.38598,0.00255503,0.0110735,965,1646,-0.0140518,-0.0790042
-252,-622,-0.0250854,0.0666504,0.00107712,0.0044478,-0.0017031,0.00515848,0.000366444,-1.17548,0.00332358,0.0117367,972,1646,-0.0250869,-0.066691
-245,-622,-0.0111084,0.0446777,0.00297699,0.00556055,-0.00295894,0.00749739,0.00104014,-0.991212,0.00469015,0.00857882,979,1646,-0.0110861,-0.044637
-238,-622,-0.026062,0.0338135,0.00577066,0.00646518,-0.0045753,0.0107064,0.00152946,-0.823275,0.00668633,0.00858296,986,1646,-0.0260333,-0.0338167
-231,-622,-0.0322266,0.0511475,0.00981209,0.00719964,-0.00632566,0.014965,0.00204675,-0.683581,0.00936923,0.0128191,993,1646,-0.0322558,-0.0511776
-224,-622,-0.0175781,0.032959,0.0144769,0.007636,-0.0076674,0.0194522,0.00266071,-0.575593,0.0121785,0.0208082,1000,1646,-0.0175996,-0.032927
-217,-622,-0.0189209,0.0194092,0.0186865,0.00750793,-0.00789323,0.022769,0.00342545,-0.477324,0.0141761,0.0300322,1007,1646,-0.0189476,-0.0193683
-210,-622,0.0238647,0.00634766,0.0214372,0.00701382,-0.00742148,0.0245738,0.00387723,-0.399867,0.0152553,0.0434278,1014,1646,0.0238715,-0.00631427
-203,-622,-0.794373,0.278442,0.0223394,0.00565046,-0.00668551,0.0246873,0.00330258,-0.337733,0.0154752,0.0423679,1021,1646,-0.794396,-0.278457
-196,-622,4.22876,-0.0179443,0,0,0,0,0,0,0,-1,1028,1646,4.22871,0.0178871
-189,-622,3.75696,-0.0793457,0,0,0,0,0,0,0,-1,1035,1646,3.75692,0.0793668
-182,-622,0.235718,0.104614,0,0,0,0,0,0,0,-1,1042,1646,0.235751,-0.104585
-175,-622,1.33301,-0.308472,0,0,0,0,0,0,0,-1,1049,1646,1.33297,0.308455
-168,-622,1.33752,0.0797119,0,0,0,0,0,0,0,-1,1056,1646,1.33755,-0.0797401
-161,-622,1.31885,-0.127563,0,0,0,0,0,0,0,-1,1063,1646,1.3189,0.127519
-154,-622,1.30029,-0.334839,0,0,0,0,0,0,0,-1,1070,1646,1.30026,0.334778
-147,-622,0.695679,0.502686,0,0,0,0,0,0,0,-1,1077,1646,0.695683,-0.502694
-140,-622,1.09253,0.57605,0.00400599,-0.0168,0.00935467,0.00759343,-0.0203874,0.366195,0.0167082,0.0488723,1084,1646,1.09252,-0.576109
-133,-622,1.16565,0.787842,0.0047229,-0.0131713,0.00823738,0.00793742,-0.0163858,0.372061,0.0143226,0.046727,1091,1646,1.16564,-0.787793
-126,-622,1.4314,0.977783,0.00304941,-0.00800585,0.00659773,0.00612903,-0.0110855,0.436711,0.0100752,0.0430255,1098,1646,1.43145,-0.977824
-119,-622,1.73926,0.84375,0.000880244,-0.00170093,0.00371487,0.00352233,-0.00434301,0.618215,0.00454929,0.0457197,1105,1646,1.7392,-0.843759
-112,-622,2.07874,0.863159,0,0,0,0,0,0,0,-1,1112,1646,2.07871,-0.86316
-105,-622,2.4823,1.06885,0,0,0,0,0,0,0,-1,1119,1646,2.48235,-1.06882
-98,-622,3.08228,1.29968,0,0,0,0,0,0,0,-1,1126,1646,3.08232,-1.29973
-91,-622,2.16565,1.05066,0,0,0,0,0,0,0,-1,1133,1646,2.16563,-1.05065
-84,-622,1.8855,0.841919,0,0,0,0,0,0,0,-1,1140,1646,1.88547,-0.841941
-77,-622,1.28369,0.432373,0,0,0,0,0,0,0,-1,1147,1646,1.28365,-0.432432
-70,-622,0.87915,0.518921,0,0,0,0,0,0,0,-1,1154,1646,0.879141,-0.518876
-63,-622,-1.75671,-0.97229,0,0,0,0,0,0,0,-1,1161,1646,-1.7567,0.972325
-56,-622,-1.13635,-1.47876,0,0,0,0,0,0,0,-1,1168,1646,-1.13637,1.47873
-49,-622,-0.150635,-0.653687,0,0,0,0,0,0,0,-1,1175,1646,-0.150578,0.653641
-42,-622,-0.126099,-0.225586,-0.00884501,0.0433538,-0.00315644,0.043544,-0.00903518,-1.51062,0.0324629,0.0458349,1182,1646,-0.126134,0.22563
-35,-622,-0.057251,0.151123,0,0,0,0,0,0,0,-1,1189,1646,-0.0572014,-0.151166
-28,-622,-0.0174561,0.480957,0,0,0,0,0,0,0,-1,1196,1646,-0.0173981,-0.480924
-21,-622,-0.979614,3.02222,0,0,0,0,0,0,0,-1,1203,1646,-0.979555,-3.02221
-14,-622,-0.996338,2.84094,0.0192858,0.0551008,-0.0159112,0.0611484,0.0132382,-1.20758,0.0371476,0.047574,1210,1646,-0.99633,-2.84099
-7,-622,-0.642822,1.99524,0,0,0,0,0,0,0,-1,1217,1646,-0.642834,-1.99528
0,-622,0,0,0,0,0,0,0,0,0,-1,1224,1646,0,0
7,-622,0,0,0,0,0,0,0,0,0,-1,1231,1646,0,0
14,-622,0,0,0,0,0,0,0,0,0,-1,1238,1646,0,0
21,-622,0,0,0,0,0,0,0,0,0,-1,1245,1646,0,0
28,-622,0,0,0,0,0,0,0,0,0,-1,1252,1646,0,0
35,-622,0,0,0,0,0,0,0,0,0,-1,1259,1646,0,0
42,-622,0,0,0,0,0,0,0,0,0,-1,1266,1646,0,0
49,-622,0,0,0,0,0,0,0,0,0,-1,1273,1646,0,0
56,-622,0,0,0,0,0,0,0,0,0,-1,1280,1646,0,0
63,-622,0,0,0,0,0,0,0,0,0,-1,1287,1646,0,0
70,-622,0,0,0,0,0,0,0,0,0,-1,1294,1646,0,0
77,-622,0,0,0,0,0,0,0,0,0,-1,1301,1646,0,0
84,-622,0,0,0,0,0,0,0,0,0,-1,1308,1646,0,0
91,-622,0,0,0,0,0,0,0,0,0,-1,1315,1646,0,0
98,-622,0,0,0,0,0,0,0,0,0,-1,1322,1646,0,0
105,-622,0,0,0,0,0,0,0,0,0,-1,1329,1646,0,0
112,-622,0,0,0,0,0,0,0,0,0,-1,1336,1646,0,0
119,-622,0,0,0,0,0,0,0,0,0,-1,1343,1646,0,0
126,-622,-1.14172,-0.478638,0.000338646,0.0628027,-0.0139597,0.0657805,-0.00263916,-1.36063,0.0447593,0.0478928,1350,1646,-1.14176,0.478622
133,-622,-1.12903,-0.2229,0.00591339,0.0573656,-0.0199573,0.0641991,-0.000920061,-1.2409,0.0431093,0.0482865,1357,1646,-1.12903,0.222854
140,-622,-0.987793,-0.137817,0.00956875,0.0417075,-0.0196595,0.0510295,0.000246763,-1.12802,0.0339377,0.0465223,1364,1646,-0.987751,0.137873
147,-622,-0.640259,0.149048,0.0100572,0.0282063,-0.0154701,0.0370669,0.00119654,-1.05065,0.0243222,0.0435043,1371,1646,-0.640203,-0.149054
154,-622,0.109863,0.564819,0.0103036,0.0108133,-0.0115495,0.0221107,-0.000993801,-0.796428,0.0150827,0.0432515,1378,1646,0.109849,-0.564767
161,-622,0.338257,0.331665,0.0108998,0.00771631,-0.00657812,0.016076,0.00254011,-0.66669,0.00997901,0.0428304,1385,1646,0.338247,-0.331647
168,-622,0.169556,0.364014,0.0109776,0.00349877,-0.00407735,0.0127706,0.00170573,-0.414302,0.00800596,0.0446914,1392,1646,0.1695,-0.364025
175,-622,0.12146,0.457031,0.00870892,0.000897323,-0.00227064,0.00932098,0.000285259,-0.263297,0.00612112,0.0451526,1399,1646,0.121408,-0.457034
182,-622,0.0943604,-0.725708,0,0,0,0,0,0,0,-1,1406,1646,0.0943971,0.725734
189,-622,0.101318,-0.35791,0.00371443,-0.002218,-0.00155227,0.00409605,-0.00259962,-0.241064,0.00389779,0.0414534,1413,1646,0.101363,0.357854
196,-622,0.0224609,0.110718,0.00341144,-0.00267881,-0.00350833,0.00501187,-0.00427924,-0.427981,0.00536978,0.0398501,1420,1646,0.0224079,-0.110761
203,-622,0.0856934,0.0718994,0.00279693,-0.00553945,-0.00578428,0.00575838,-0.00850089,-0.473187,0.0082832,0.0413714,1427,1646,0.0856658,-0.0719016
210,-622,0.0241699,0.783325,0,0,0,0,0,0,0,-1,1434,1646,0.0241248,-0.783317
217,-622,-0.445679,1.43604,0.00209872,-0.00946286,-0.0101631,0.00801008,-0.0153742,-0.526817,0.0137223,0.0434869,1441,1646,-0.44571,-1.43604
224,-622,-0.0845947,0.955322,0.00288402,-0.00975869,-0.0124895,0.0105608,-0.0174354,-0.551127,0.0163252,0.0462617,1448,1646,-0.084632,-0.955381
231,-622,-0.302246,0.721558,0.00364184,-0.0102645,-0.0146447,0.0129002,-0.0195229,-0.563759,0.0188492,0.0479276,1455,1646,-0.302305,-0.721526
238,-622,-0.526978,0.504761,0.00375142,-0.0116064,-0.0163162,0.0141054,-0.0219603,-0.56546,0.0209865,0.0463148,1462,1646,-0.527003,-0.504792
245,-622,0.174683,0.492065,0,0,0,0,0,0,0,-1,1469,1646,0.174686,-0.492091
252,-622,0.203247,0.730347,0.0042031,-0.0126398,-0.0193044,0.016843,-0.0252797,-0.579719,0.0244816,0.046155,1476,1646,0.203251,-0.730322
259,-622,0.100586,0.210327,0.00571508,-0.0125665,-0.0191614,0.0178043,-0.0246557,-0.562841,0.0246205,0.0442991,1483,1646,0.100572,-0.21032
266,-622,0.212036,-0.45105,0.00761409,-0.012522,-0.0179246,0.0181047,-0.0230126,-0.529512,0.0237954,0.0416662,1490,1646,0.212021,0.450989
273,-622,-0.182495,-0.773193,0,0,0,0,0,0,0,-1,1497,1646,-0.182453,0.773226
280,-622,-0.203857,-0.705811,0,0,0,0,0,0,0,-1,1504,1646,-0.203812,0.705767
287,-622,-0.488647,-0.178833,0,0,0,0,0,0,0,-1,1511,1646,-0.488703,0.178853
294,-622,-0.559692,-0.273438,0,0,0,0,0,0,0,-1,1518,1646,-0.559682,0.27346
301,-622,-0.687012,-0.209717,0,0,0,0,0,0,0,-1,1525,1646,-0.68698,0.20966
308,-622,0.132324,-0.0640869,0.0156314,-0.00428304,-0.0080692,0.0184905,-0.00714215,-0.340522,0.0152748,0.0467084,1532,1646,0.132272,0.06413
315,-622,0.329956,0.182251,0.0154864,-0.00130396,-0.00654134,0.017734,-0.00355153,-0.330958,0.0131671,0.0440304,1539,1646,0.329984,-0.182193
322,-622,0.609375,0.112549,0.0140957,-0.00035331,-0.00475183,0.0155184,-0.00177596,-0.290897,0.0109855,0.0448949,1546,1646,0.609409,-0.112572
329,-622,-0.455078,-0.547974,0,0,0,0,0,0,0,-1,1553,1646,-0.455125,0.547924
336,-622,-0.453125,-0.46167,0.00957522,0.00292587,-0.00230566,0.0102965,0.00220462,-0.303175,0.00626021,0.0483553,1560,1646,-0.453076,0.461675
343,-622,-0.363892,-0.373779,0.00693983,0.00396706,-0.00189478,0.00786167,0.00304522,-0.4528,0.00457717,0.0486388,1567,1646,-0.363897,0.373821
350,-622,-0.27356,-0.23938,0.00468759,0.00519798,-0.00142278,0.00638827,0.0034973,-0.874136,0.0036938,0.0371876,1574,1646,-0.273566,0.239404
357,-622,-0.164917,0.0767822,0.0025396,0.00613323,-0.00117147,0.00648139,0.00219145,-1.28192,0.00380685,0.0317724,1581,1646,-0.164969,-0.0767707
364,-622,0.0438232,0.124268,0.000198601,0.006449,-0.00101713,0.00661035,3.72489e-05,-1.41347,0.00439454,0.0273405,1588,1646,0.0437898,-0.124327
371,-622,-0.00390625,0.0983887,-0.00122305,0.00624198,-0.000884975,0.00634546,-0.00132653,-1.4544,0.00473483,0.0179286,1595,1646,-0.00384889,-0.0983392
378,-622,-0.0330811,0.101807,-0.00100813,0.0057994,-0.000700006,0.00587064,-0.00107936,-1.46938,0.00431874,0.0100371,1602,1646,-0.0330372,-0.101853
385,-622,-0.067749,0.0720215,-0.000610532,0.00537227,-0.000362462,0.00539415,-0.000632412,-1.51051,0.00382438,0.00888078,1609,1646,-0.0677425,-0.0720765
392,-622,-0.064209,0.0578613,-0.00111968,0.00504862,-0.000223429,0.0050567,-0.00112776,-1.53464,0.00380321,0.0102259,1616,1646,-0.0642299,-0.0578802
399,-622,-0.0529785,0.052002,-0.000741384,0.00453668,-0.000247414,0.00454825,-0.000752956,-1.52406,0.00331181,0.0101775,1623,1646,-0.0529335,-0.052036
406,-622,-0.0592041,0.064209,-0.000333864,0.00368006,-0.000563434,0.00375765,-0.000411453,-1.43395,0.00265291,0.0133638,1630,1646,-0.0591563,-0.0641574
413,-622,-0.0490723,0.0617676,-0.000268956,0.00331234,-0.000757104,0.00346582,-0.000422434,-1.37079,0.00246346,0.0150513,1637,1646,-0.0490938,-0.061755
420,-622,-0.038208,0.0518799,0.000110894,0.00305554,-0.000842541,0.00327957,-0.000113135,-1.31091,0.00222505,0.0146903,1644,1646,-0.0382164,-0.051859
427,-622,-0.0421143,0.0734863,0.000124718,0.00317072,-0.000813379,0.00337431,-7.88717e-05,-1.32553,0.00227629,0.0113826,1651,1646,-0.0421101,-0.0734667
434,-622,-0.0219727,0.060791,-0.000233246,0.00311019,-0.000786972,0.00328617,-0.00040922,-1.35081,0.00233915,0.0123022,1658,1646,-0.0219932,-0.0607563
441,-622,-0.0130615,0.0402832,-0.000302031,0.00304063,-0.000750744,0.0032015,-0.000462902,-1.35971,0.00230418,0.0136189,1665,1646,-0.0130286,-0.0402455
448,-622,-0.0539551,0.0783691,-0.000395155,0.0029604,-0.000730998,0.00311273,-0.000547485,-1.36535,0.00227967,0.0123637,1672,1646,-0.0539195,-0.0783643
455,-622,-0.0837402,0.0805664,-0.000603469,0.00273457,-0.000670371,0.00286416,-0.000733066,-1.37983,0.00219499,0.0146001,1679,1646,-0.0836872,-0.0805945
462,-622,-0.0583496,0.0799561,-0.000706788,0.00257511,-0.000634697,0.00269358,-0.000825257,-1.38626,0.00212491,0.0166755,1686,1646,-0.0583086,-0.0799119
469,-622,-0.0390625,0.0753174,-0.00064382,0.00278855,-0.000539183,0.00287125,-0.000726527,-1.41859,0.00219676,0.0180312,1693,1646,-0.0390922,-0.0752746
476,-622,-0.0751953,0.0305176,-0.000295492,0.00332707,-0.000602987,0.0034248,-0.000393225,-1.41011,0.00242493,0.0169278,1700,1646,-0.0752281,-0.0305257
483,-622,-0.0739746,0.0350342,3.43362e-05,0.0037842,-0.000603872,0.00387904,-6.05114e-05,-1.415,0.00260643,0.0222832,1707,1646,-0.0739405,-0.0350731
490,-622,0.0255127,0.132568,0.000608909,0.00454467,-0.000656212,0.0046512,0.000502382,-1.40986,0.00294764,0.0275507,1714,1646,0.0255655,-0.132526
497,-622,0.0657959,0.0792236,0.00148334,0.00568957,-0.000653458,0.00578875,0.00138417,-1.42017,0.00349049,0.0354322,1721,1646,0.0658079,-0.0791778
504,-622,0.0281982,0.0264893,0.00300179,0.00796165,-0.000119998,0.00796456,0.00299889,-1.54662,0.00464484,0.0435654,1728,1646,0.0281386,-0.0264867
511,-622,0.168823,0.246704,0.00481139,0.0100185,2.56344e-05,0.0100186,0.00481127,1.56587,0.00578574,0.0421814,1735,1646,0.168841,-0.246662
518,-622,0.119385,0.162354,0.00626505,0.012455,-0.000334545,0.012473,0.00624702,-1.51696,0.00720129,0.0408402,1742,1646,0.119343,-0.162389
525,-622,0.0897217,0.209961,0,0,0,0,0,0,0,-1,1749,1646,0.0897097,-0.210015
532,-622,0.437378,0.0078125,0,0,0,0,0,0,0,-1,1756,1646,0.437429,-0.00775987
539,-622,0.483643,0.0222168,0.0132807,0.0203721,-0.00234181,0.0210757,0.0125771,-1.27895,0.0122438,0.041261,1763,1646,0.483629,-0.0222025
546,-622,0.505737,0.0456543,0.0153591,0.0221523,-0.00419059,0.02415,0.0133614,-1.12597,0.0139693,0.0428334,1770,1646,0.505707,-0.0456852
553,-622,0,0,0,0,0,0,0,0,0,-1,1777,1646,0,0
560,-622,0,0,0,0,0,0,0,0,0,-1,1784,1646,0,0
567,-622,0,0,0,0,0,0,0,0,0,-1,1791,1646,0,0
574,-622,0,0,0,0,0,0,0,0,0,-1,1798,1646,0,0
581,-622,0,0,0,0,0,0,0,0,0,-1,1805,1646,0,0
588,-622,0,0,0,0,0,0,0,0,0,-1,1812,1646,0,0
595,-622,0,0,0,0,0,0,0,0,0,-1,1819,1646,0,0
602,-622,0,0,0,0,0,0,0,0,0,-1,1826,1646,0,0
609,-622,0,0,0,0,0,0,0,0,0,-1,1833,1646,0,0
616,-622,0,0,0,0,0,0,0,0,0,-1,1840,1646,0,0
623,-622,0,0,0,0,0,0,0,0,0,-1,1847,1646,0,0
630,-622,0,0,0,0,0,0,0,0,0,-1,1854,1646,0,0
637,-622,0,0,0,0,0,0,0,0,0,-1,1861,1646,0,0
644,-622,0,0,0,0,0,0,0,0,0,-1,1868,1646,0,0
651,-622,0,0,0,0,0,0,0,0,0,-1,1875,1646,0,0
658,-622,0,0,0,0,0,0,0,0,0,-1,1882,1646,0,0
665,-622,0,0,0,0,0,0,0,0,0,-1,1889,1646,0,0
672,-622,0,0,0,0,0,0,0,0,0,-1,1896,1646,0,0
679,-622,0,0,0,0,0,0,0,0,0,-1,1903,1646,0,0
686,-622,0,0,0,0,0,0,0,0,0,-1,1910,1646,0,0
693,-622,0,0,0,0,0,0,0,0,0,-1,1917,1646,0,0
700,-622,0,0,0,0,0,0,0,0,0,-1,1924,1646,0,0
707,-622,0,0,0,0,0,0,0,0,0,-1,1931,1646,0,0
714,-622,0,0,0,0,0,0,0,0,0,-1,1938,1646,0,0
721,-622,0,0,0,0,0,0,0,0,0,-1,1945,1646,0,0
728,-622,0,0,0,0,0,0,0,0,0,-1,1952,1646,0,0
735,-622,0,0,0,0,0,0,0,0,0,-1,1959,1646,0,0
742,-622,0,0,0,0,0,0,0,0,0,-1,1966,1646,0,0
749,-622,0,0,0,0,0,0,0,0,0,-1,1973,1646,0,0
756,-622,0,0,0,0,0,0,0,0,0,-1,1980,1646,0,0
763,-622,0,0,0,0,0,0,0,0,0,-1,1987,1646,0,0
770,-622,0,0,0,0,0,0,0,0,0,-1,1994,1646,0,0
777,-622,0,0,0,0,0,0,0,0,0,-1,2001,1646,0,0
784,-622,0,0,0,0,0,0,0,0,0,-1,2008,1646,0,0
791,-622,0,0,0,0,0,0,0,0,0,-1,2015,1646,0,0
798,-622,0,0,0,0,0,0,0,0,0,-1,2022,1646,0,0
805,-622,0,0,0,0,0,0,0,0,0,-1,2029,1646,0,0
812,-622,0,0,0,0,0,0,0,0,0,-1,2036,1646,0,0
-700,-629,0,0,0,0,0,0,0,0,0,-1,524,1653,0,0
-693,-629,0,0,0,0,0,0,0,0,0,-1,531,1653,0,0
-686,-629,0,0,0,0,0,0,0,0,0,-1,538,1653,0,0
-679,-629,0,0,0,0,0,0,0,0,0,-1,545,1653,0,0
-672,-629,0,0,0,0,0,0,0,0,0,-1,552,1653,0,0
-665,-629,0,0,0,0,0,0,0,0,0,-1,559,1653,0,0
-658,-629,0,0,0,0,0,0,0,0,0,-1,566,1653,0,0
-651,-629,0,0,0,0,0,0,0,0,0,-1,573,1653,0,0
-644,-629,0,0,0,0,0,0,0,0,0,-1,580,1653,0,0
-637,-629,0,0,0,0,0,0,0,0,0,-1,587,1653,0,0
-630,-629,0,0,0,0,0,0,0,0,0,-1,594,1653,0,0
-623,-629,0,0,0,0,0,0,0,0,0,-1,601,1653,0,0
-616,-629,0,0,0,0,0,0,0,0,0,-1,608,1653,0,0
-609,-629,0,0,0,0,0,0,0,0,0,-1,615,1653,0,0
-602,-629,0,0,0,0,0,0,0,0,0,-1,622,1653,0,0
-595,-629,0,0,0,0,0,0,0,0,0,-1,629,1653,0,0
-588,-629,0,0,0,0,0,0,0,0,0,-1,636,1653,0,0
-581,-629,0,0,0,0,0,0,0,0,0,-1,643,1653,0,0
-574,-629,0,0,0,0,0,0,0,0,0,-1,650,1653,0,0
-567,-629,0,0,0,0,0,0,0,0,0,-1,657,1653,0,0
-560,-629,0,0,0,0,0,0,0,0,0,-1,664,1653,0,0
-553,-629,0,0,0,0,0,0,0,0,0,-1,671,1653,0,0
-546,-629,0,0,0,0,0,0,0,0,0,-1,678,1653,0,0
-539,-629,0,0,0,0,0,0,0,0,0,-1,685,1653,0,0
-532,-629,0,0,0,0,0,0,0,0,0,-1,692,1653,0,0
-525,-629,0,0,0,0,0,0,0,0,0,-1,699,1653,0,0
-518,-629,0,0,0,0,0,0,0,0,0,-1,706,1653,0,0
-511,-629,0,0,0,0,0,0,0,0,0,-1,713,1653,0,0
-504,-629,0,0,0,0,0,0,0,0,0,-1,720,1653,0,0
-497,-629,0,0,0,0,0,0,0,0,0,-1,727,1653,0,0
-490,-629,0,0,0,0,0,0,0,0,0,-1,734,1653,0,0
-483,-629,0,0,0,0,0,0,0,0,0,-1,741,1653,0,0
-476,-629,0,0,0,0,0,0,0,0,0,-1,748,1653,0,0
-469,-629,0,0,0,0,0,0,0,0,0,-1,755,1653,0,0
-462,-629,0,0,0,0,0,0,0,0,0,-1,762,1653,0,0
-455,-629,0,0,0,0,0,0,0,0,0,-1,769,1653,0,0
-448,-629,0,0,0,0,0,0,0,0,0,-1,776,1653,0,0
-441,-629,0,0,0,0,0,0,0,0,0,-1,783,1653,0,0
-434,-629,0,0,0,0,0,0,0,0,0,-1,790,1653,0,0
-427,-629,0,0,0,0,0,0,0,0,0,-1,797,1653,0,0
-420,-629,0.630249,-0.570801,0,0,0,0,0,0,0,-1,804,1653,0.630242,0.570814
-413,-629,0.62561,-0.477539,-0.0344331,-0.00159637,0.0119698,0.00230371,-0.0383332,1.25582,0.0263569,0.0432329,811,1653,0.62563,0.477583
-406,-629,0.33197,-0.303955,-0.0256731,-0.00282744,0.0077135,-0.00046698,-0.0280336,1.27383,0.0185353,0.0444401,818,1653,0.331945,0.303974
-399,-629,-0.081543,-0.135498,-0.0186183,-0.0031435,0.00418795,-0.00208281,-0.019679,1.32274,0.0124831,0.0433707,825,1653,-0.0815659,0.135543
-392,-629,-0.128662,-0.135376,-0.0144181,-0.00305603,0.00256715,-0.00250293,-0.0149712,1.35859,0.00925995,0.0417166,832,1653,-0.128687,0.135386
-385,-629,-0.148254,-0.124512,-0.011843,-0.00311375,0.0016561,-0.00281011,-0.0121466,1.38947,0.00734254,0.0411327,839,1653,-0.148279,0.124554
-378,-629,-0.251953,-0.00512695,-0.00975102,-0.00248434,0.00114326,-0.00230872,-0.00992664,1.41837,0.00599817,0.0453537,846,1653,-0.251952,0.00508268
-371,-629,-0.440857,0.0861816,-0.00799711,-0.00242798,0.00104691,-0.00223768,-0.00818741,1.39099,0.00488627,0.0467892,853,1653,-0.440844,-0.0861318
-364,-629,-0.229858,-0.266602,-0.00669175,-0.003326,0.00112508,-0.00298456,-0.00703319,1.27615,0.00407608,0.0427817,860,1653,-0.22983,0.266607
-357,-629,-0.141479,-0.230347,-0.00540161,-0.00353635,0.00119418,-0.00295377,-0.00598419,1.11692,0.00345507,0.0397832,867,1653,-0.141479,0.230293
-350,-629,0.0457153,-0.0606689,-0.0041817,-0.00380311,0.00112577,-0.00285084,-0.00513398,0.868693,0.00297014,0.0360813,874,1653,0.0456863,0.0607028
-343,-629,0.0109253,0.0314941,-0.00346193,-0.00387729,0.00104151,-0.0026076,-0.00473162,0.686989,0.00273656,0.0289208,881,1653,0.0109083,-0.0314839
-336,-629,-0.0426025,0.048584,-0.0029247,-0.0044566,0.00122336,-0.00224729,-0.00513401,0.505703,0.00297178,0.0165692,888,1653,-0.0425764,-0.0485487
-329,-629,-0.0311279,0.0598145,-0.00249328,-0.0049234,0.00147128,-0.00180019,-0.00561649,0.440245,0.00331159,0.0105414,895,1653,-0.0311411,-0.0597684
-322,-629,-0.0217896,0.0539551,-0.00200522,-0.00521087,0.00140258,-0.00147819,-0.0057379,0.359435,0.00344008,0.0104958,902,1653,-0.0218114,-0.0539363
-315,-629,-0.0397949,0.0609131,-0.00157683,-0.00549744,0.00141172,-0.0011214,-0.00595286,0.312062,0.00365261,0.0143078,909,1653,-0.0398107,-0.0609279
-308,-629,-0.0377197,0.0662842,-0.00125232,-0.00526432,0.00138046,-0.000823218,-0.00569342,0.30137,0.00355314,0.0117498,916,1653,-0.0377025,-0.0662257
-301,-629,-0.0239868,0.0629883,-0.000786671,-0.00468119,0.00126895,-0.000409701,-0.00505816,0.288769,0.00324418,0.0100117,923,1653,-0.023966,-0.0630037
-294,-629,-0.0388184,0.057373,-0.000434104,-0.00385305,0.00141769,7.72683e-05,-0.00436443,0.346181,0.00293571,0.0105626,930,1653,-0.0388474,-0.0573443
-287,-629,-0.0460205,0.0567627,-0.000419118,-0.00297361,0.00163474,0.000378183,-0.00377091,0.453777,0.00264901,0.00867879,937,1653,-0.0460293,-0.0567985
-280,-629,-0.0299072,0.0662842,-0.00114479,-0.00132737,0.00136747,0.000134433,-0.00260659,0.752068,0.00178423,0.00931294,944,1653,-0.0298805,-0.066275
-273,-629,-0.0466309,0.0391846,-0.00175009,-0.000255348,0.000807431,9.75115e-05,-0.00210295,1.15879,0.00143557,0.0110412,951,1653,-0.0466189,-0.0391597
-266,-629,-0.0584717,0.0458984,-0.00186984,0.000888144,3.19388e-05,0.000888514,-0.00187021,1.55922,0.00162601,0.0114201,958,1653,-0.0584575,-0.0458382
-259,-629,-0.043396,0.0592041,-0.00118742,0.00168864,-0.000540504,0.00178687,-0.00128564,-1.39103,0.00178176,0.0131223,965,1653,-0.0433745,-0.0592209
-252,-629,-0.0374146,0.0397949,0.000269145,0.00316426,-0.00117399,0.00358048,-0.000147078,-1.23009,0.0024375,0.0105765,972,1653,-0.0374364,-0.0398096
-245,-629,-0.0283813,0.0384521,0.00158137,0.00426416,-0.00207248,0.00539147,0.000454061,-1.07262,0.00345293,0.00797112,979,1653,-0.0284035,-0.0385129
-238,-629,-0.031311,0.0615234,0.00359442,0.00500775,-0.00322477,0.00760238,0.000999792,-0.893261,0.00477004,0.00921856,986,1653,-0.0313314,-0.0614704
-231,-629,-0.0315552,0.0780029,0.00651689,0.00565654,-0.00442673,0.0105343,0.00163913,-0.736962,0.00654526,0.00938393,993,1653,-0.0315259,-0.0780057
-224,-629,-0.0273438,0.0751953,0.00984069,0.00599878,-0.00521408,0.0134764,0.00236305,-0.608905,0.00830936,0.00916402,1000,1653,-0.0273447,-0.0752434
-217,-629,-0.0327148,0.0594482,0.012996,0.00605701,-0.00522803,0.015801,0.00325197,-0.492449,0.00963472,0.0124296,1007,1653,-0.0327254,-0.0594385
-210,-629,-0.114014,0.0639648,0.0152111,0.00580522,-0.00475937,0.0171991,0.00381718,-0.39568,0.0104292,0.0249761,1014,1653,-0.114043,-0.0639866
-203,-629,-0.331909,0.174438,0.0161044,0.00484605,-0.00409781,0.017438,0.00351249,-0.314622,0.0106494,0.0340949,1021,1653,-0.331918,-0.17444
-196,-629,-0.41394,0.277954,0.0163409,0.0037291,-0.00274195,0.0169112,0.00315877,-0.20508,0.0103827,0.035839,1028,1653,-0.413908,-0.277961
-189,-629,0.0673828,0.0570068,0.0153353,0.000701499,-0.001028,0.0154071,0.000629637,-0.0697914,0.0100681,0.0387825,1035,1653,0.0673241,-0.0569798
-182,-629,0.182373,0.0150146,0.0140064,-0.00337348,0.000971245,0.0140605,-0.00342759,0.0556524,0.0107008,0.0417983,1042,1653,0.182356,-0.0150476
-175,-629,0.562622,-0.382202,0.0127417,-0.00814874,0.00347307,0.013304,-0.008711,0.160502,0.0128022,0.0421384,1049,1653,0.562606,0.382229
-168,-629,0.788818,-0.0223389,0.0112513,-0.010198,0.00583169,0.0127343,-0.011681,0.249022,0.0141005,0.0433963,1056,1653,0.788776,0.0223489
-161,-629,0.835449,-0.0603027,0.00881844,-0.0114016,0.00890461,0.0121808,-0.014764,0.361044,0.0155804,0.042138,1063,1653,0.835431,0.0602824
-154,-629,0.380127,-0.245605,0.00661901,-0.011864,0.00958299,0.0106906,-0.0159356,0.401768,0.0154718,0.042432,1070,1653,0.380073,0.245638
-147,-629,0.122559,-0.187622,0,0,0,0,0,0,0,-1,1077,1653,0.122568,0.187588
-140,-629,0.09729,0.0150146,0,0,0,0,0,0,0,-1,1084,1653,0.0973497,-0.0150513
-133,-629,1.12231,1.4425,0,0,0,0,0,0,0,-1,1091,1653,1.12234,-1.4425
-126,-629,1.59412,1.46094,0.00472627,-0.00347079,0.00757684,0.00924205,-0.00798657,0.537472,0.00995575,0.0480344,1098,1653,1.59415,-1.46088
-119,-629,1.92053,1.2511,0.00290538,0.00188443,0.00571181,0.00812948,-0.00333967,0.740831,0.00681149,0.047043,1105,1653,1.92056,-1.25105
-112,-629,2.23254,1.28418,-1.11037e-05,0.00749229,0.00315127,0.00864016,-0.00115897,1.22148,0.00618275,0.045135,1112,1653,2.23255,-1.28421
-105,-629,2.15247,1.94348,-0.00413183,0.0128822,0.000908206,0.0129305,-0.00418017,1.51762,0.0103005,0.0450176,1119,1653,2.15252,-1.94352
-98,-629,3.00977,0.840942,-0.00837811,0.0172861,1.13299e-05,0.0172861,-0.00837811,1.57035,0.0151119,0.0491455,1126,1653,3.00979,-0.8409
-91,-629,2.5321,0.617798,0,0,0,0,0,0,0,-1,1133,1653,2.53208,-0.617765
-84,-629,2.24036,0.174805,-0.0169664,0.0230185,-0.00220119,0.0231393,-0.0170873,-1.51597,0.0233123,0.046233,1140,1653,2.24032,-0.174831
-77,-629,2.05566,-0.508545,-0.0199599,0.0256037,-0.00325229,0.0258347,-0.0201909,-1.4999,0.0266394,0.0469534,1147,1653,2.05561,0.508582
-70,-629,2.02979,-0.915283,0,0,0,0,0,0,0,-1,1154,1653,2.02973,0.915247
-63,-629,-1.85461,-0.35498,0,0,0,0,0,0,0,-1,1161,1653,-1.85464,0.355037
-56,-629,-0.0703125,-0.899902,0,0,0,0,0,0,0,-1,1168,1653,-0.0703301,0.899948
-49,-629,-0.0460205,-0.56311,-0.00621238,0.0232177,-0.00150736,0.0232947,-0.00628938,-1.51976,0.0179964,0.0498856,1175,1653,-0.0460169,0.563116
-42,-629,-0.0220947,-0.190186,-0.00295813,0.0273041,-0.00139177,0.027368,-0.003022,-1.52494,0.0193315,0.0486303,1182,1653,-0.0221393,0.190126
-35,-629,-0.0367432,0.154419,0,0,0,0,0,0,0,-1,1189,1653,-0.0367736,-0.154368
-28,-629,-0.227051,-0.962158,0,0,0,0,0,0,0,-1,1196,1653,-0.227014,0.962102
-21,-629,-0.705933,1.86389,0,0,0,0,0,0,0,-1,1203,1653,-0.705962,-1.86395
-14,-629,-0.704956,1.9447,0,0,0,0,0,0,0,-1,1210,1653,-0.704996,-1.94473
-7,-629,0.424438,1.85608,0,0,0,0,0,0,0,-1,1217,1653,0.424413,-1.85613
0,-629,0.401733,1.56641,0.0176378,0.0221952,-0.00604228,0.0263742,0.0134588,-0.965716,0.0152282,0.0453042,1224,1653,0.401676,-1.56644
7,-629,0.230103,1.30847,0.0216491,0.0112167,-0.00440708,0.0232616,0.00960417,-0.350757,0.0134979,0.0447664,1231,1653,0.230088,-1.30849
14,-629,0.0163574,1.07739,0,0,0,0,0,0,0,-1,1238,1653,0.0163364,-1.07742
21,-629,0.115601,1.13293,0,0,0,0,0,0,0,-1,1245,1653,0.115567,-1.13298
28,-629,0.661499,-2.27698,0,0,0,0,0,0,0,-1,1252,1653,0.66147,2.277
35,-629,0.52771,-2.48535,0,0,0,0,0,0,0,-1,1259,1653,0.527655,2.48529
42,-629,0.414917,-2.8877,0,0,0,0,0,0,0,-1,1266,1653,0.414884,2.88768
49,-629,0.78186,-2.99719,0,0,0,0,0,0,0,-1,1273,1653,0.781827,2.9972
56,-629,1.23669,-2.6062,0,0,0,0,0,0,0,-1,1280,1653,1.23671,2.60626
63,-629,1.87439,-2.26697,0.0318624,-0.0465925,0.0654041,0.0689008,-0.0836309,0.515273,0.088201,0.043649,1287,1653,1.87441,2.26694
70,-629,2.73474,-2.13525,0,0,0,0,0,0,0,-1,1294,1653,2.73473,2.13529
77,-629,3.76086,-2.12354,0.0169633,-0.00503012,0.0482056,0.0554105,-0.0434774,0.673257,0.0572314,0.0470657,1301,1653,3.7609,2.12348
84,-629,2.35034,2.29028,0.0108646,0.0149855,0.0341943,0.0471814,-0.0213313,0.81549,0.0404835,0.043202,1308,1653,2.35037,-2.29034
91,-629,1.77856,2.83618,0.00551421,0.0308737,0.0203517,0.0421725,-0.00578455,1.06399,0.0302282,0.0430285,1315,1653,1.77858,-2.83616
98,-629,1.80676,3.6095,0.000478151,0.0397733,0.0107327,0.0425136,-0.00226217,1.32081,0.0291258,0.0433795,1322,1653,1.80678,-3.60952
105,-629,-0.678345,0.775391,0,0,0,0,0,0,0,-1,1329,1653,-0.678353,-0.775419
112,-629,-0.568237,0.128174,-0.000753637,0.0469576,-0.0096674,0.048842,-0.00263805,-1.37829,0.0334754,0.0463433,1336,1653,-0.568295,-0.128122
119,-629,-0.666626,-0.403809,-0.000860028,0.0446376,-0.0180044,0.0509003,-0.00712273,-1.23605,0.0365399,0.0439733,1343,1653,-0.666568,0.403842
126,-629,-0.448364,-0.719482,0.00410711,0.0371272,-0.021416,0.0476583,-0.00642404,-1.11378,0.0341158,0.042218,1350,1653,-0.448308,0.719495
133,-629,-0.256226,-0.602539,0.00883461,0.036529,-0.0256717,0.0518499,-0.00648632,-1.03273,0.0369192,0.0453177,1357,1653,-0.256166,0.602531
140,-629,-0.279663,-0.489014,0.0118932,0.0286691,-0.0251697,0.0468117,-0.00624944,-0.946238,0.0334859,0.044588,1364,1653,-0.279663,0.489027
147,-629,-0.0697021,-0.264893,0.012329,0.0221412,-0.0217478,0.0395294,-0.00505924,-0.896336,0.0281911,0.0445886,1371,1653,-0.0697045,0.264919
154,-629,0.264771,0.081543,0.012207,0.0118759,-0.018123,0.0301652,-0.00608223,-0.780831,0.0224143,0.0453425,1378,1653,0.264803,-0.0815693
161,-629,0.330444,0.414673,0.012264,0.0116271,-0.0125787,0.0245283,-0.000637152,-0.772744,0.0165686,0.0462529,1385,1653,0.330481,-0.414717
168,-629,0.260986,0.459595,0.0119602,0.0105616,-0.00894673,0.020235,0.00228692,-0.746396,0.012796,0.0465161,1392,1653,0.260999,-0.45959
175,-629,0.200317,0.52002,0.00942521,0.00979005,-0.00622279,0.0158331,0.00338216,-0.800051,0.0096281,0.0427133,1399,1653,0.200298,-0.519997
182,-629,0.0778809,0.829834,0.00599233,0.00799823,-0.00470413,0.0118051,0.00218543,-0.890429,0.00725222,0.0437648,1406,1653,0.0778616,-0.829838
189,-629,0.0765381,0.602661,0.00377567,0.00628495,-0.00383675,0.00906699,0.000993638,-0.943421,0.00574218,0.0393343,1413,1653,0.0764858,-0.602714
196,-629,-0.130371,0.517456,0.00320194,0.00572009,-0.0049227,0.00954218,-0.000620147,-0.910599,0.00657792,0.040934,1420,1653,-0.130399,-0.517412
203,-629,-0.250244,0.991089,0.00236235,0.00221171,-0.0059963,0.0082838,-0.00370975,-0.779118,0.00709035,0.0456216,1427,1653,-0.250193,-0.991048
210,-629,-0.385864,1.30127,0,0,0,0,0,0,0,-1,1434,1653,-0.385819,-1.30133
217,-629,-0.334229,1.35913,0.00172902,-0.00214834,-0.00878555,0.00878725,-0.00920657,-0.676805,0.0103897,0.0448267,1441,1653,-0.33426,-1.35909
224,-629,-0.109131,1.64246,0.00235635,-0.00313909,-0.0105008,0.010463,-0.0112457,-0.657433,0.0125362,0.0452168,1448,1653,-0.109115,-1.64249
231,-629,-0.217773,0.526978,0.00290039,-0.00418154,-0.0121173,0.0119835,-0.0132646,-0.643244,0.0145832,0.0477056,1455,1653,-0.217779,-0.527037
238,-629,-0.0831299,0.297363,0.00286612,-0.00572174,-0.0133883,0.0126322,-0.0154879,-0.630219,0.016263,0.0437769,1462,1653,-0.0831704,-0.29733
245,-629,-0.036377,0.300781,0.00296884,-0.00616771,-0.0148273,0.0139156,-0.0171145,-0.635963,0.017947,0.043608,1469,1653,-0.0363827,-0.300811
252,-629,0.039917,0.0476074,0,0,0,0,0,0,0,-1,1476,1653,0.0398673,-0.0476579
259,-629,0.444702,0.434326,0,0,0,0,0,0,0,-1,1483,1653,0.444659,-0.434268
266,-629,0.267456,0.409912,0,0,0,0,0,0,0,-1,1490,1653,0.26748,-0.409962
273,-629,0.227783,-1.09595,0,0,0,0,0,0,0,-1,1497,1653,0.227843,1.09592
280,-629,-0.39856,-0.269775,0,0,0,0,0,0,0,-1,1504,1653,-0.398564,0.269757
287,-629,-0.40564,-0.276489,0.00898667,-0.00776059,-0.0103458,0.0139229,-0.0126968,-0.445182,0.0153744,0.04743,1511,1653,-0.405601,0.276442
294,-629,-0.448975,-0.302368,0.0103156,-0.00766443,-0.0090716,0.0140972,-0.011446,-0.394958,0.0147738,0.0474989,1518,1653,-0.44897,0.302395
301,-629,-0.559937,-0.251465,0.0106425,-0.00571398,-0.00745086,0.0135277,-0.00859915,-0.369446,0.0128801,0.0485724,1525,1653,-0.559992,0.251439
308,-629,0.0463867,0.302734,0.0115817,-0.00333991,-0.00561437,0.0134582,-0.00521638,-0.322554,0.0111263,0.0474918,1532,1653,0.0463646,-0.302758
315,-629,0.37146,0.157837,0.0115315,-0.00136343,-0.00441547,0.0128985,-0.00273045,-0.300238,0.00963895,0.0453898,1539,1653,0.371448,-0.157802
322,-629,0.413574,0.126465,0.0105591,-0.000691584,-0.00302621,0.0113215,-0.00145392,-0.246776,0.00807602,0.0425428,1546,1653,0.413528,-0.126425
329,-629,0.321167,0.27771,0.00910786,0.000454413,-0.00200818,0.00955118,1.10925e-05,-0.217273,0.00636376,0.0374473,1553,1653,0.321219,-0.277733
336,-629,0.289185,0.244263,0.00729278,0.00173053,-0.00136134,0.00760809,0.00141522,-0.227603,0.00467232,0.0385573,1560,1653,0.289157,-0.24424
343,-629,0.250732,0.0911865,0.00550757,0.00259331,-0.00108889,0.00586948,0.0022314,-0.320881,0.00342103,0.0362807,1567,1653,0.250775,-0.0912053
350,-629,-0.0262451,0.0198975,0.00387096,0.00358628,-0.000761566,0.00450337,0.00295387,-0.693012,0.00264183,0.0229594,1574,1653,-0.0261939,-0.0199151
357,-629,-0.0192871,0.0515137,0.00225966,0.00430203,-0.000595096,0.00446278,0.00209892,-1.30698,0.0025781,0.0136332,1581,1653,-0.0192616,-0.0515572
364,-629,-0.0256348,0.0463867,0.000471389,0.00451244,-0.000516304,0.00457736,0.000406467,-1.44571,0.00292551,0.0118383,1588,1653,-0.0256095,-0.0464191
371,-629,-0.0360107,0.0588379,-0.000622158,0.00440446,-0.000438143,0.00444237,-0.000660062,-1.4845,0.00320434,0.00975843,1595,1653,-0.0360415,-0.0588798
378,-629,-0.0412598,0.0673828,-0.000441294,0.00414636,-0.000377837,0.00417727,-0.000472204,-1.48917,0.00295485,0.0086802,1602,1653,-0.0412113,-0.0673451
385,-629,-0.0634766,0.0640869,-6.52251e-05,0.00390848,-0.000245325,0.00392357,-8.03135e-05,-1.50937,0.00264289,0.0106867,1609,1653,-0.0634826,-0.0640965
392,-629,-0.0655518,0.0638428,-0.000437288,0.00383528,-0.000260234,0.00385107,-0.00045308,-1.51019,0.00273097,0.0101473,1616,1653,-0.0655042,-0.0638509
399,-629,-0.0666504,0.0621338,-0.00013063,0.00369381,-0.000473617,0.00375159,-0.00018841,-1.4494,0.00256617,0.0107055,1623,1653,-0.0665959,-0.062156
406,-629,-0.0715332,0.0594482,0.000206997,0.00327898,-0.000924479,0.00353573,-4.97549e-05,-1.2999,0.00237392,0.0135945,1630,1653,-0.0715457,-0.0594799
413,-629,-0.0684814,0.0740967,0.000322509,0.00325167,-0.00129089,0.00373937,-0.000165186,-1.20957,0.00254976,0.0209408,1637,1653,-0.0684261,-0.0741531
420,-629,-0.048584,0.0797119,0.000666301,0.00330795,-0.0015168,0.00399841,-2.41548e-05,-1.14362,0.0026737,0.0183572,1644,1653,-0.0485967,-0.0796935
427,-629,-0.0296631,0.0755615,0.000609204,0.00368509,-0.00161793,0.0043794,-8.51054e-05,-1.16543,0.00294838,0.0114644,1651,1653,-0.0296984,-0.0755162
434,-629,-0.0316162,0.0638428,0.000231148,0.00387879,-0.00165737,0.00451936,-0.000409419,-1.20199,0.00315824,0.0102561,1658,1653,-0.0316558,-0.0638381
441,-629,-0.0256348,0.0699463,7.192e-05,0.00399438,-0.00164891,0.00459544,-0.00052914,-1.22125,0.00325438,0.0139984,1665,1653,-0.0256584,-0.0699088
448,-629,-0.0524902,0.0826416,-0.000144238,0.00400981,-0.00158801,0.00454732,-0.00068175,-1.24442,0.00328248,0.0129265,1672,1653,-0.0524658,-0.0826228
455,-629,-0.0778809,0.0675049,-0.000490573,0.00387607,-0.0014421,0.00430935,-0.000923843,-1.27893,0.00322525,0.0126417,1679,1653,-0.0778392,-0.0675042
462,-629,-0.0435791,0.0828857,-0.000755778,0.00374917,-0.00134271,0.004119,-0.00112561,-1.30202,0.00318814,0.0161918,1686,1653,-0.0435452,-0.0829256
469,-629,-0.0406494,0.0625,-0.000887525,0.00396608,-0.00115613,0.0042274,-0.00114885,-1.3485,0.00326921,0.0192127,1693,1653,-0.0406049,-0.0624512
476,-629,-0.0515137,0.0373535,-0.000691657,0.00452533,-0.00111386,0.00475319,-0.000919522,-1.36901,0.00351562,0.025493,1700,1653,-0.051567,-0.0373725
483,-629,-0.132813,0.0948486,-0.000581841,0.00494837,-0.000995699,0.00512218,-0.000755652,-1.39798,0.00369253,0.035282,1707,1653,-0.132779,-0.0948498
490,-629,-0.141602,0.0826416,-0.000171402,0.00571345,-0.000942904,0.00586083,-0.000318788,-1.41574,0.0040177,0.0398405,1714,1653,-0.141652,-0.0826903
497,-629,0.192139,0.09729,0.000657328,0.0070328,-0.00099837,0.00718549,0.000504644,-1.41904,0.00463128,0.0407981,1721,1653,0.192096,-0.0973008
504,-629,0.102905,0.158447,0.00206417,0.0093904,-0.000687779,0.0094544,0.00200016,-1.478,0.0057533,0.042348,1728,1653,0.102925,-0.158446
511,-629,-0.0892334,0.0469971,0.0038322,0.0119585,-0.000749622,0.012027,0.00376363,-1.47958,0.00710396,0.0437119,1735,1653,-0.0892691,-0.0469461
518,-629,-0.101196,-0.176025,0.00532692,0.0151865,-0.00132058,0.0153603,0.00515311,-1.43993,0.00902686,0.0420525,1742,1653,-0.101256,0.176081
525,-629,0.0905762,-0.264893,0.00753057,0.0189543,-0.00182336,0.0192382,0.0072466,-1.4163,0.0112192,0.0413063,1749,1653,0.0905688,0.264948
532,-629,0.259888,-0.399292,0,0,0,0,0,0,0,-1,1756,1653,0.259927,0.399307
539,-629,0.474609,-0.395508,0,0,0,0,0,0,0,-1,1763,1653,0.47455,0.395555
546,-629,0,0,0,0,0,0,0,0,0,-1,1770,1653,0,0
553,-629,0,0,0,0,0,0,0,0,0,-1,1777,1653,0,0
560,-629,0,0,0,0,0,0,0,0,0,-1,1784,1653,0,0
567,-629,0,0,0,0,0,0,0,0,0,-1,1791,1653,0,0
574,-629,0,0,0,0,0,0,0,0,0,-1,1798,1653,0,0
581,-629,0,0,0,0,0,0,0,0,0,-1,1805,1653,0,0
588,-629,0,0,0,0,0,0,0,0,0,-1,1812,1653,0,0
595,-629,0,0,0,0,0,0,0,0,0,-1,1819,1653,0,0
602,-629,0,0,0,0,0,0,0,0,0,-1,1826,1653,0,0
609,-629,0,0,0,0,0,0,0,0,0,-1,1833,1653,0,0
616,-629,0,0,0,0,0,0,0,0,0,-1,1840,1653,0,0
623,-629,0,0,0,0,0,0,0,0,0,-1,1847,1653,0,0
630,-629,0,0,0,0,0,0,0,0,0,-1,1854,1653,0,0
637,-629,0,0,0,0,0,0,0,0,0,-1,1861,1653,0,0
644,-629,0,0,0,0,0,0,0,0,0,-1,1868,1653,0,0
651,-629,0,0,0,0,0,0,0,0,0,-1,1875,1653,0,0
658,-629,0,0,0,0,0,0,0,0,0,-1,1882,1653,0,0
665,-629,0,0,0,0,0,0,0,0,0,-1,1889,1653,0,0
672,-629,0,0,0,0,0,0,0,0,0,-1,1896,1653,0,0
679,-629,0,0,0,0,0,0,0,0,0,-1,1903,1653,0,0
686,-629,0,0,0,0,0,0,0,0,0,-1,1910,1653,0,0
693,-629,0,0,0,0,0,0,0,0,0,-1,1917,1653,0,0
700,-629,0,0,0,0,0,0,0,0,0,-1,1924,1653,0,0
707,-629,0,0,0,0,0,0,0,0,0,-1,1931,1653,0,0
714,-629,0,0,0,0,0,0,0,0,0,-1,1938,1653,0,0
721,-629,0,0,0,0,0,0,0,0,0,-1,1945,1653,0,0
728,-629,0,0,0,0,0,0,0,0,0,-1,1952,1653,0,0
735,-629,0,0,0,0,0,0,0,0,0,-1,1959,1653,0,0
742,-629,0,0,0,0,0,0,0,0,0,-1,1966,1653,0,0
749,-629,0,0,0,0,0,0,0,0,0,-1,1973,1653,0,0
756,-629,0,0,0,0,0,0,0,0,0,-1,1980,1653,0,0
763,-629,0,0,0,0,0,0,0,0,0,-1,1987,1653,0,0
770,-629,0,0,0,0,0,0,0,0,0,-1,1994,1653,0,0
777,-629,0,0,0,0,0,0,0,0,0,-1,2001,1653,0,0
784,-629,0,0,0,0,0,0,0,0,0,-1,2008,1653,0,0
791,-629,0,0,0,0,0,0,0,0,0,-1,2015,1653,0,0
798,-629,0,0,0,0,0,0,0,0,0,-1,2022,1653,0,0
805,-629,0,0,0,0,0,0,0,0,0,-1,2029,1653,0,0
812,-629,0,0,0,0,0,0,0,0,0,-1,2036,1653,0,0
-700,-636,0,0,0,0,0,0,0,0,0,-1,524,1660,0,0
-693,-636,0,0,0,0,0,0,0,0,0,-1,531,1660,0,0
-686,-636,0,0,0,0,0,0,0,0,0,-1,538,1660,0,0
-679,-636,0,0,0,0,0,0,0,0,0,-1,545,1660,0,0
-672,-636,0,0,0,0,0,0,0,0,0,-1,552,1660,0,0
-665,-636,0,0,0,0,0,0,0,0,0,-1,559,1660,0,0
-658,-636,0,0,0,0,0,0,0,0,0,-1,566,1660,0,0
-651,-636,0,0,0,0,0,0,0,0,0,-1,573,1660,0,0
-644,-636,0,0,0,0,0,0,0,0,0,-1,580,1660,0,0
-637,-636,0,0,0,0,0,0,0,0,0,-1,587,1660,0,0
-630,-636,0,0,0,0,0,0,0,0,0,-1,594,1660,0,0
-623,-636,0,0,0,0,0,0,0,0,0,-1,601,1660,0,0
-616,-636,0,0,0,0,0,0,0,0,0,-1,608,1660,0,0
-609,-636,0,0,0,0,0,0,0,0,0,-1,615,1660,0,0
-602,-636,0,0,0,0,0,0,0,0,0,-1,622,1660,0,0
-595,-636,0,0,0,0,0,0,0,0,0,-1,629,1660,0,0
-588,-636,0,0,0,0,0,0,0,0,0,-1,636,1660,0,0
-581,-636,0,0,0,0,0,0,0,0,0,-1,643,1660,0,0
-574,-636,0,0,0,0,0,0,0,0,0,-1,650,1660,0,0
-567,-636,0,0,0,0,0,0,0,0,0,-1,657,1660,0,0
-560,-636,0,0,0,0,0,0,0,0,0,-1,664,1660,0,0
-553,-636,0,0,0,0,0,0,0,0,0,-1,671,1660,0,0
-546,-636,0,0,0,0,0,0,0,0,0,-1,678,1660,0,0
-539,-636,0,0,0,0,0,0,0,0,0,-1,685,1660,0,0
-532,-636,0,0,0,0,0,0,0,0,0,-1,692,1660,0,0
-525,-636,0,0,0,0,0,0,0,0,0,-1,699,1660,0,0
-518,-636,0,0,0,0,0,0,0,0,0,-1,706,1660,0,0
-511,-636,0,0,0,0,0,0,0,0,0,-1,713,1660,0,0
-504,-636,0,0,0,0,0,0,0,0,0,-1,720,1660,0,0
-497,-636,0,0,0,0,0,0,0,0,0,-1,727,1660,0,0
-490,-636,0,0,0,0,0,0,0,0,0,-1,734,1660,0,0
-483,-636,0,0,0,0,0,0,0,0,0,-1,741,1660,0,0
-476,-636,0,0,0,0,0,0,0,0,0,-1,748,1660,0,0
-469,-636,0,0,0,0,0,0,0,0,0,-1,755,1660,0,0
-462,-636,0,0,0,0,0,0,0,0,0,-1,762,1660,0,0
-455,-636,0,0,0,0,0,0,0,0,0,-1,769,1660,0,0
-448,-636,0,0,0,0,0,0,0,0,0,-1,776,1660,0,0
-441,-636,0,0,0,0,0,0,0,0,0,-1,783,1660,0,0
-434,-636,0,0,0,0,0,0,0,0,0,-1,790,1660,0,0
-427,-636,0,0,0,0,0,0,0,0,0,-1,797,1660,0,0
-420,-636,0,0,0,0,0,0,0,0,0,-1,804,1660,0,0
-413,-636,0,0,0,0,0,0,0,0,0,-1,811,1660,0,0
-406,-636,0.342651,0.0782471,-0.0279576,-0.00827635,0.00574339,-0.00672292,-0.029511,1.30664,0.0178599,0.0429304,818,1660,0.342626,-0.0782649
-399,-636,-0.0704956,-0.0152588,-0.0211213,-0.00779306,0.00270421,-0.00726529,-0.0216491,1.37805,0.0127223,0.0429059,825,1660,-0.0705243,0.0152409
-392,-636,-0.0913086,0.0123291,-0.0175717,-0.0064787,0.00123271,-0.00634337,-0.017707,1.46145,0.0103592,0.0402914,832,1660,-0.0913269,-0.0123088
-385,-636,-0.205872,0.00012207,-0.0153429,-0.00569988,0.000144373,-0.00569772,-0.0153451,1.55583,0.00895676,0.0364072,839,1660,-0.205843,-7.92936e-05
-378,-636,-0.455444,0.0670166,0,0,0,0,0,0,0,-1,846,1660,-0.455472,-0.0669944
-371,-636,-0.187683,-0.265015,-0.0115763,-0.00440766,-1.54598e-05,-0.00440763,-0.0115764,-1.56864,0.0067467,0.0456123,853,1660,-0.18768,0.265055
-364,-636,-0.181458,-0.212158,-0.0100078,-0.00541461,0.000509174,-0.00535885,-0.0100636,1.46171,0.00581432,0.0437946,860,1660,-0.181436,0.212139
-357,-636,-0.114746,-0.151489,-0.00835854,-0.0057899,0.000851724,-0.00553315,-0.00861529,1.27801,0.00504069,0.0405988,867,1660,-0.114754,0.151484
-350,-636,-0.079895,-0.0552979,-0.00673479,-0.00579686,0.00115882,-0.00501571,-0.00751594,0.977669,0.0044196,0.0423177,874,1660,-0.0798981,0.0553497
-343,-636,-0.059021,0.0594482,-0.00571391,-0.00597209,0.00138604,-0.00445096,-0.00723504,0.738963,0.00421394,0.0427674,881,1660,-0.0590451,-0.0594767
-336,-636,-0.0529785,0.0894775,-0.00452587,-0.00665607,0.00184142,-0.0034637,-0.00771824,0.523201,0.00446392,0.0326188,888,1660,-0.0529689,-0.0894686
-329,-636,-0.0418091,0.0584717,-0.00352266,-0.00706741,0.00237625,-0.0023306,-0.00825947,0.464971,0.00491714,0.0174407,895,1660,-0.0417999,-0.0584517
-322,-636,-0.0181885,0.0452881,-0.00250235,-0.00727714,0.00254856,-0.00139764,-0.00838185,0.409019,0.00518519,0.0104338,902,1660,-0.0181766,-0.0452678
-315,-636,-0.0409546,0.0510254,-0.0015955,-0.0074308,0.00266559,-0.000561186,-0.00846512,0.370141,0.00546596,0.0114028,909,1660,-0.0409382,-0.0510707
-308,-636,-0.0296631,0.0421143,-0.000894521,-0.00695552,0.00264035,9.43518e-05,-0.0079444,0.358353,0.00532799,0.0109182,916,1660,-0.0296695,-0.0420706
-301,-636,-0.0132446,0.0565186,-0.000149106,-0.00612235,0.00249537,0.000756159,-0.00702761,0.348012,0.00495639,0.0109644,923,1660,-0.013216,-0.0565233
-294,-636,-0.0289917,0.0617676,0.000447594,-0.00507702,0.00245292,0.00137949,-0.00600892,0.363072,0.00453625,0.01332,930,1660,-0.0290019,-0.0617488
-287,-636,-0.0435791,0.0579834,0.00075835,-0.00409199,0.00244389,0.00177615,-0.00510979,0.394622,0.00412798,0.0115211,937,1660,-0.0435722,-0.0579954
-280,-636,-0.0376587,0.0720215,0.0002901,-0.00243538,0.00207067,0.00140622,-0.0035515,0.494369,0.00295031,0.0114421,944,1660,-0.0376862,-0.0720555
-273,-636,-0.0465088,0.0413818,-0.000349923,-0.00130258,0.00135836,0.0006132,-0.0022657,0.616765,0.00175103,0.011578,951,1660,-0.0464878,-0.0413986
-266,-636,-0.043457,0.0306396,-0.00072171,-2.48014e-05,0.000455898,0.000200559,-0.000947071,1.1117,0.00070777,0.0121047,958,1660,-0.0434601,-0.0305924
-259,-636,-0.0252686,0.0443115,-0.0005942,0.000870991,-0.000173463,0.000891248,-0.000614456,-1.45455,0.000874201,0.0129993,965,1660,-0.0252785,-0.044254
-252,-636,-0.0263672,0.0375977,4.26445e-05,0.00221792,-0.000632687,0.00238855,-0.00012799,-1.30737,0.0016367,0.0104968,972,1660,-0.0263844,-0.0375601
-245,-636,-0.0223389,0.0484619,0.000638784,0.00305261,-0.00133824,0.00364779,4.36082e-05,-1.15232,0.00241745,0.0105556,979,1660,-0.022327,-0.0485102
-238,-636,-0.0234985,0.0599365,0.00178778,0.00368368,-0.00215811,0.00509286,0.000378608,-0.992338,0.00327633,0.0112329,986,1660,-0.023495,-0.0599234
-231,-636,-0.0324097,0.0742188,0.00351892,0.00426026,-0.0029511,0.00686387,0.000915304,-0.847872,0.00430339,0.01013,993,1660,-0.0324096,-0.074179
-224,-636,-0.0257568,0.0823975,0.00570138,0.00451528,-0.00337046,0.00853057,0.00168609,-0.698312,0.00521665,0.00797411,1000,1660,-0.0257845,-0.0823365
-217,-636,-0.03125,0.0822754,0.00792939,0.00467022,-0.00321754,0.00990648,0.00269313,-0.550993,0.00591465,0.00862301,1007,1660,-0.0312537,-0.0822669
-210,-636,-0.0238037,0.048584,0.00955783,0.00456107,-0.00269386,0.0107335,0.00338538,-0.411514,0.00633622,0.0120943,1014,1660,-0.0238252,-0.0485548
-203,-636,-0.0387573,0.0411377,0.0102881,0.00387422,-0.00203631,0.01088,0.00328234,-0.282867,0.00644416,0.0157591,1021,1660,-0.0387326,-0.0411675
-196,-636,-0.00012207,0.0661621,0.0106038,0.00304421,-0.000867412,0.010702,0.00294595,-0.112791,0.00638346,0.015844,1028,1660,-0.000141347,-0.0662223
-189,-636,0.000854492,0.0600586,0.0101035,0.000707467,0.000579092,0.010139,0.00067191,0.0613223,0.00654689,0.0180805,1035,1660,0.000826116,-0.0600488
-182,-636,0.0626221,-0.0163574,0.00935762,-0.00252368,0.00219298,0.00974946,-0.00291553,0.176815,0.00765876,0.0335819,1042,1660,0.06259,0.0163238
-175,-636,0.403076,-0.157593,0.00880929,-0.00637622,0.00398778,0.0097928,-0.00735973,0.241805,0.00993617,0.0411109,1049,1660,0.403017,0.157549
-168,-636,0.556152,-0.112061,0.00819857,-0.00782199,0.00580978,0.0100836,-0.00970707,0.313749,0.0114269,0.0425285,1056,1660,0.556092,0.112056
-161,-636,0.609375,-0.0891113,0.00703524,-0.00834216,0.00826022,0.0106314,-0.0119383,0.410609,0.0130379,0.0421464,1063,1660,0.609356,0.0891072
-154,-636,0.452026,-0.127197,0.00625873,-0.00816558,0.00861713,0.0102836,-0.0121904,0.436962,0.0129909,0.0439157,1070,1660,0.452075,0.127172
-147,-636,0.311768,0.0134277,0.00574159,-0.00906859,0.0086983,0.00975998,-0.013087,0.432767,0.0132372,0.0486993,1077,1660,0.311749,-0.0134131
-140,-636,0.271118,0.150635,0,0,0,0,0,0,0,-1,1084,1660,0.271144,-0.150623
-133,-636,0.22876,0.300049,0,0,0,0,0,0,0,-1,1091,1660,0.228703,-0.300026
-126,-636,1.53784,1.80334,0,0,0,0,0,0,0,-1,1098,1660,1.53781,-1.80335
-119,-636,1.7074,1.12585,0.00380633,0.00394527,0.00685604,0.0107322,-0.00298059,0.790464,0.00832806,0.0428553,1105,1660,1.70743,-1.12581
-112,-636,1.90332,0.685547,0.00142617,0.00818218,0.00521066,0.011014,-0.00140565,1.07298,0.00785326,0.044164,1112,1660,1.90333,-0.685525
-105,-636,2.4325,0.805786,-0.00180375,0.0119605,0.00381748,0.0129484,-0.00279162,1.31758,0.00969765,0.0452466,1119,1660,2.4325,-0.805748
-98,-636,2.84448,0.660034,-0.0050885,0.0147805,0.00335335,0.0153312,-0.00563919,1.40803,0.0125309,0.047532,1126,1660,2.8445,-0.660077
-91,-636,3.23218,0.505859,0,0,0,0,0,0,0,-1,1133,1660,3.23219,-0.505801
-84,-636,2.59241,-0.498291,-0.0120093,0.0173319,0.00122631,0.0173831,-0.0120605,1.5291,0.0170916,0.0468216,1140,1660,2.59241,0.498342
-77,-636,0.291992,-0.538574,-0.0142373,0.017761,0.000167225,0.0177619,-0.0142381,1.56557,0.0185125,0.0371822,1147,1660,0.291955,0.538631
-70,-636,-1.90393,-0.0488281,0,0,0,0,0,0,0,-1,1154,1660,-1.90394,0.0488138
-63,-636,-1.31592,-0.248413,0,0,0,0,0,0,0,-1,1161,1660,-1.31594,0.248402
-56,-636,-0.166382,-0.854858,0,0,0,0,0,0,0,-1,1168,1660,-0.166422,0.85488
-49,-636,-0.057251,-0.581665,-0.00245761,0.0101191,-0.000628721,0.0101505,-0.00248897,-1.52097,0.00773135,0.0477096,1175,1660,-0.057271,0.581671
-42,-636,0.0717773,-0.243652,0.000793333,0.0132623,-0.000799878,0.0133134,0.000742231,-1.507,0.00863885,0.0468701,1182,1660,0.0718127,0.243639
-35,-636,0.0147705,0.0880127,0,0,0,0,0,0,0,-1,1189,1660,0.0147805,-0.087959
-28,-636,-0.119873,-0.720581,0,0,0,0,0,0,0,-1,1196,1660,-0.119823,0.720641
-21,-636,-0.741699,1.00378,0,0,0,0,0,0,0,-1,1203,1660,-0.741723,-1.00374
-14,-636,-0.678345,1.26282,0,0,0,0,0,0,0,-1,1210,1660,-0.678287,-1.26281
-7,-636,-0.342285,1.38855,0.0111534,0.0176269,-0.00165091,0.0180236,0.0107567,-1.33497,0.0104708,0.0434667,1217,1660,-0.34231,-1.38861
0,-636,0.0372314,1.24707,0.0124392,0.010659,0.00020093,0.0124616,0.0106366,0.111009,0.00777115,0.0453835,1224,1660,0.0372138,-1.24712
7,-636,0.175659,1.08728,0.0150061,0.00191299,0.00196357,0.0152943,0.00162486,0.1457,0.00970003,0.0482776,1231,1660,0.175619,-1.08725
14,-636,0.171997,1.04163,0.0211709,-0.00774349,0.00649907,0.0225645,-0.00913711,0.211235,0.0188422,0.0472134,1238,1660,0.172024,-1.04166
21,-636,0.112549,1.04614,0,0,0,0,0,0,0,-1,1245,1660,0.112576,-1.04609
28,-636,0.0822754,1.02051,0,0,0,0,0,0,0,-1,1252,1660,0.0822984,-1.02055
35,-636,0.220825,-1.86536,0,0,0,0,0,0,0,-1,1259,1660,0.220855,1.86541
42,-636,0.095459,-2.13232,0.0340835,-0.062345,0.0419754,0.0497953,-0.0780569,0.358167,0.0744142,0.0493752,1266,1660,0.095443,2.13228
49,-636,0.57605,-2.38794,0.0348659,-0.0541129,0.0478048,0.0556805,-0.0749274,0.410652,0.075679,0.048216,1273,1660,0.57611,2.38798
56,-636,1.02393,-2.04431,0.0331424,-0.0519789,0.0491493,0.0555976,-0.0744341,0.428559,0.075336,0.0474461,1280,1660,1.02399,2.04431
63,-636,1.57971,-1.65833,0.0305061,-0.0452807,0.0489917,0.0545489,-0.0693235,0.456222,0.0716872,0.0443264,1287,1660,1.57967,1.65834
70,-636,2.18054,-1.20593,0,0,0,0,0,0,0,-1,1294,1660,2.1806,1.20589
77,-636,2.48376,1.25049,0.0185601,-0.0145182,0.0346033,0.0403737,-0.0363318,0.562466,0.0443064,0.0477375,1301,1660,2.48379,-1.25046
84,-636,1.7998,1.87512,0.0141191,0.00163794,0.0229243,0.0316371,-0.01588,0.652505,0.0279323,0.0434969,1308,1660,1.79985,-1.87516
91,-636,1.02124,2.17944,0.00877722,0.0130811,0.012266,0.0233825,-0.00152418,0.872234,0.0161204,0.0395797,1315,1660,1.0212,-2.1795
98,-636,2.16528,-0.328491,0.0036455,0.0214881,0.0033489,0.0220959,0.00303765,1.39124,0.0138297,0.0478135,1322,1660,2.1653,0.328511
105,-636,-0.527466,0.64502,0.00185675,0.0271329,-0.00573907,0.0283749,0.000614696,-1.35766,0.0187151,0.0495815,1329,1660,-0.527469,-0.645056
112,-636,-0.361816,-0.0358887,0.00232722,0.0299484,-0.0140698,0.035853,-0.00357745,-1.17345,0.0251794,0.0491795,1336,1660,-0.361831,0.0358526
119,-636,-0.213135,-0.615356,0.00236786,0.0306537,-0.0209572,0.0417937,-0.00877219,-1.08222,0.0312004,0.0465073,1343,1660,-0.213099,0.615361
126,-636,0.146484,-0.678223,0.00599583,0.0281454,-0.0236826,0.0432148,-0.00907358,-1.00411,0.0322625,0.0424897,1350,1660,0.146532,0.678277
133,-636,0.604858,-0.690918,0.00972791,0.030168,-0.0269897,0.0488079,-0.00891192,-0.966388,0.0358801,0.0432352,1357,1660,0.604883,0.690928
140,-636,0.279053,-0.974243,0,0,0,0,0,0,0,-1,1364,1660,0.279047,0.974272
147,-636,0.656982,-0.972046,0,0,0,0,0,0,0,-1,1371,1660,0.657016,0.972005
154,-636,0.386475,-0.414673,0,0,0,0,0,0,0,-1,1378,1660,0.386423,0.414656
161,-636,0.154907,0.0611572,0,0,0,0,0,0,0,-1,1385,1660,0.154861,-0.0612146
168,-636,0.341553,0.541748,0,0,0,0,0,0,0,-1,1392,1660,0.341553,-0.541774
175,-636,0.305054,0.509888,0.00892541,0.0170753,-0.00886951,0.0227612,0.00323955,-1.00073,0.0142178,0.0460512,1399,1660,0.305031,-0.509922
182,-636,0.315918,0.32312,0.00540904,0.0142225,-0.0069297,0.018028,0.00160359,-1.06861,0.0115214,0.0383518,1406,1660,0.315934,-0.323086
189,-636,0.151001,0.191406,0.00334378,0.0118221,-0.00536963,0.0144242,0.000741634,-1.11954,0.00937873,0.0387504,1413,1660,0.15095,-0.191403
196,-636,-0.0576172,0.555176,0.00272959,0.010847,-0.00569078,0.0137781,-0.000201561,-1.09516,0.00925334,0.0420009,1420,1660,-0.0576296,-0.555211
203,-636,-0.317261,1.02734,0.00182913,0.00665276,-0.00573101,0.0104588,-0.00197687,-0.984567,0.00771635,0.0465604,1427,1660,-0.31722,-1.02733
210,-636,-0.604492,1.45996,0,0,0,0,0,0,0,-1,1434,1660,-0.604493,-1.45999
217,-636,-0.178711,0.689209,0.00144954,0.00216075,-0.00727046,0.0090843,-0.00547401,-0.809834,0.00849096,0.0457462,1441,1660,-0.178674,-0.689219
224,-636,0.133789,0.318359,0.00198521,0.000870073,-0.00850546,0.00995136,-0.00709607,-0.752668,0.00988825,0.042328,1448,1660,0.133844,-0.318373
231,-636,-0.109741,0.304688,0.0023747,-0.00037223,-0.00969743,0.0107954,-0.00879297,-0.71505,0.0113291,0.0423239,1455,1660,-0.10969,-0.304666
238,-636,-0.103516,0.233521,0.00224923,-0.00185832,-0.0106548,0.0110464,-0.0106555,-0.690188,0.0125303,0.0446014,1462,1660,-0.10355,-0.233576
245,-636,-0.148804,0.153442,0.00230047,-0.00232609,-0.01173,0.0119431,-0.0119688,-0.688042,0.0138055,0.0441666,1469,1660,-0.148801,-0.153449
252,-636,0.0836182,-0.0125732,0.00240696,-0.00334538,-0.0123301,0.0121919,-0.0131303,-0.670815,0.0146231,0.0462494,1476,1660,0.0836653,0.0126292
259,-636,0.295166,0.401245,0.00326392,-0.00397092,-0.0121257,0.0123003,-0.0130073,-0.640438,0.0146133,0.0475957,1483,1660,0.29514,-0.401252
266,-636,0.187622,0.382935,0.00419219,-0.00464579,-0.0111216,0.0117406,-0.0121942,-0.596296,0.0138196,0.0477783,1490,1660,0.187648,-0.382894
273,-636,0.0817871,0.334351,0,0,0,0,0,0,0,-1,1497,1660,0.081733,-0.334367
280,-636,-0.202637,-0.22168,0,0,0,0,0,0,0,-1,1504,1660,-0.202679,0.221649
287,-636,-0.25293,-0.27832,0.00633457,-0.00543715,-0.00750595,0.0099872,-0.00908977,-0.452895,0.0110182,0.0477311,1511,1660,-0.252912,0.27832
294,-636,-0.318604,-0.295288,0.00726145,-0.00557153,-0.00644204,0.00993733,-0.00824741,-0.393693,0.0105141,0.0484236,1518,1660,-0.318547,0.295288
301,-636,-0.391113,-0.223877,0.00759449,-0.00429888,-0.00518134,0.00953509,-0.00623948,-0.358365,0.00917347,0.0456375,1525,1660,-0.391144,0.223852
308,-636,-0.284424,0.178833,0.00833232,-0.0025772,-0.00369263,0.00946466,-0.00370954,-0.297546,0.00784432,0.0442688,1532,1660,-0.284415,-0.178838
315,-636,0.225586,-0.116577,0.00833953,-0.00133929,-0.00281173,0.00909706,-0.00209681,-0.263168,0.00687113,0.0430617,1539,1660,0.225631,0.116576
322,-636,0.102051,0.0213623,0.00768882,-0.000855616,-0.00177652,0.00804347,-0.00121026,-0.197039,0.00580792,0.0349101,1546,1660,0.102066,-0.0213849
329,-636,0.0144043,0.0560303,0.00660615,1.57917e-06,-0.00108739,0.00678058,-0.000172844,-0.159051,0.00457909,0.0242337,1553,1660,0.0144541,-0.0560443
336,-636,-0.0505371,0.0631104,0.00534001,0.000971083,-0.000717866,0.00545494,0.000856153,-0.158753,0.0033875,0.0198997,1560,1660,-0.0505594,-0.0630847
343,-636,-0.055542,0.0506592,0.0041476,0.00167998,-0.00053593,0.00425897,0.00156861,-0.20489,0.00248719,0.0172128,1567,1660,-0.0555213,-0.0507196
350,-636,-0.0465088,0.0583496,0.00298448,0.00241725,-0.000332182,0.00313765,0.00226408,-0.432051,0.00186988,0.0100212,1574,1660,-0.0464713,-0.0583235
357,-636,-0.0319824,0.0449219,0.00179864,0.00294175,-0.0002403,0.00299021,0.00175018,-1.3718,0.00173475,0.00882568,1581,1660,-0.0319291,-0.0449145
364,-636,-0.0313721,0.0314941,0.000458522,0.003072,-0.000227398,0.00309164,0.000438883,-1.48465,0.00193149,0.00922813,1588,1660,-0.0313231,-0.0314694
371,-636,-0.0350342,0.0454102,-0.000306912,0.00298482,-0.000208238,0.00299794,-0.000320033,-1.50787,0.00211339,0.00823813,1595,1660,-0.0350038,-0.0454228
378,-636,-0.0266113,0.0632324,-7.05044e-05,0.00282651,-0.00026876,0.00285124,-9.52267e-05,-1.47907,0.00193335,0.00836269,1602,1660,-0.0266401,-0.0632381
385,-636,-0.0327148,0.0657959,0.000346796,0.00272715,-0.000331602,0.00277248,0.000301465,-1.43493,0.00175648,0.0132282,1609,1660,-0.0326905,-0.0657914
392,-636,-0.0445557,0.0595703,0.000150581,0.00284464,-0.000492576,0.00293188,6.33445e-05,-1.39551,0.00193382,0.0144925,1616,1660,-0.0445429,-0.0595494
399,-636,-0.0545654,0.0698242,0.000443237,0.00301587,-0.000885217,0.00329103,0.000168074,-1.26942,0.0021402,0.0113293,1623,1660,-0.05459,-0.0697895
406,-636,-0.059082,0.0805664,0.000763352,0.00300956,-0.00145951,0.00372807,4.48452e-05,-1.11333,0.00247057,0.0133668,1630,1660,-0.0590807,-0.0806036
413,-636,-0.0570068,0.0776367,0.000958216,0.00331639,-0.00198286,0.00444425,-0.000169635,-1.05363,0.00302096,0.0200473,1637,1660,-0.0570113,-0.0776444
420,-636,-0.0491943,0.0887451,0.00126734,0.00369418,-0.00233869,0.0051155,-0.000153976,-1.0247,0.0034628,0.0187323,1644,1660,-0.0492153,-0.0887569
427,-636,-0.029541,0.069458,0.00112415,0.00435014,-0.00257672,0.00577709,-0.000302798,-1.06505,0.00395619,0.0111426,1651,1660,-0.029557,-0.0694666
434,-636,-0.0426025,0.0582275,0.000712568,0.00483608,-0.00269889,0.00617062,-0.000621978,-1.11158,0.00433597,0.0104756,1658,1660,-0.0425982,-0.0581962
441,-636,-0.0333252,0.0472412,0.000466591,0.00516711,-0.00272276,0.00641367,-0.000779974,-1.14145,0.00455807,0.0105101,1665,1660,-0.0333153,-0.0472602
448,-636,-0.019165,0.0800781,8.7916e-05,0.00532575,-0.00264007,0.00642553,-0.00101187,-1.17609,0.00465776,0.0119355,1672,1660,-0.0191823,-0.0801001
455,-636,-0.0522461,0.071167,-0.00044497,0.00532257,-0.00241733,0.00620173,-0.00132413,-1.22198,0.00463928,0.0126925,1679,1660,-0.0522171,-0.0712172
462,-636,-0.0690918,0.0516357,-0.00092898,0.00524664,-0.00226821,0.00599019,-0.00167253,-1.25402,0.00465229,0.0163879,1686,1660,-0.0690631,-0.0516357
469,-636,-0.0269775,0.0456543,-0.00133847,0.00547144,-0.00198638,0.00600849,-0.00187552,-1.30674,0.00475575,0.0260205,1693,1660,-0.0269543,-0.045663
476,-636,0.0734863,0.214844,-0.00138688,0.0060244,-0.00181644,0.00644565,-0.00180813,-1.34292,0.00500978,0.0405186,1700,1660,0.0734813,-0.214817
483,-636,-0.188232,0.146118,-0.00159839,0.00635027,-0.00155764,0.0066446,-0.00189273,-1.38403,0.00517728,0.0459247,1707,1660,-0.188261,-0.146152
490,-636,-0.326416,0.102905,-0.00141058,0.00697573,-0.00139412,0.00720141,-0.00163626,-1.41031,0.00542918,0.0464357,1714,1660,-0.326364,-0.102876
497,-636,-0.255371,0.0228271,-0.000669558,0.0083425,-0.00151852,0.00859149,-0.000918547,-1.40827,0.00605711,0.0448549,1721,1660,-0.255341,-0.0228735
504,-636,-0.122314,-0.0374756,0.000555127,0.010638,-0.00145697,0.0108443,0.000348817,-1.43013,0.00711614,0.0430374,1728,1660,-0.122274,0.037446
511,-636,-0.280029,-0.251587,0.00224483,0.0137485,-0.00181684,0.0140287,0.00196471,-1.41782,0.00877119,0.0459507,1735,1660,-0.28,0.251577
518,-636,-0.30542,-0.467651,0.00377983,0.0178945,-0.00270827,0.0183963,0.00327801,-1.38759,0.0113307,0.043441,1742,1660,-0.305479,0.467704
525,-636,0.0264893,-0.723389,0.00601096,0.0228607,-0.00362369,0.023607,0.0052647,-1.3677,0.0143096,0.0435631,1749,1660,0.0265137,0.723338
532,-636,0,0,0,0,0,0,0,0,0,-1,1756,1660,0,0
539,-636,0,0,0,0,0,0,0,0,0,-1,1763,1660,0,0
546,-636,0,0,0,0,0,0,0,0,0,-1,1770,1660,0,0
553,-636,0,0,0,0,0,0,0,0,0,-1,1777,1660,0,0
560,-636,0,0,0,0,0,0,0,0,0,-1,1784,1660,0,0
567,-636,0,0,0,0,0,0,0,0,0,-1,1791,1660,0,0
574,-636,0,0,0,0,0,0,0,0,0,-1,1798,1660,0,0
581,-636,0,0,0,0,0,0,0,0,0,-1,1805,1660,0,0
588,-636,0,0,0,0,0,0,0,0,0,-1,1812,1660,0,0
595,-636,0,0,0,0,0,0,0,0,0,-1,1819,1660,0,0
602,-636,0,0,0,0,0,0,0,0,0,-1,1826,1660,0,0
609,-636,0,0,0,0,0,0,0,0,0,-1,1833,1660,0,0
616,-636,0,0,0,0,0,0,0,0,0,-1,1840,1660,0,0
623,-636,0,0,0,0,0,0,0,0,0,-1,1847,1660,0,0
630,-636,0,0,0,0,0,0,0,0,0,-1,1854,1660,0,0
637,-636,0,0,0,0,0,0,0,0,0,-1,1861,1660,0,0
644,-636,0,0,0,0,0,0,0,0,0,-1,1868,1660,0,0
651,-636,0,0,0,0,0,0,0,0,0,-1,1875,1660,0,0
658,-636,0,0,0,0,0,0,0,0,0,-1,1882,1660,0,0
665,-636,0,0,0,0,0,0,0,0,0,-1,1889,1660,0,0
672,-636,0,0,0,0,0,0,0,0,0,-1,1896,1660,0,0
679,-636,0,0,0,0,0,0,0,0,0,-1,1903,1660,0,0
686,-636,0,0,0,0,0,0,0,0,0,-1,1910,1660,0,0
693,-636,0,0,0,0,0,0,0,0,0,-1,1917,1660,0,0
700,-636,0,0,0,0,0,0,0,0,0,-1,1924,1660,0,0
707,-636,0,0,0,0,0,0,0,0,0,-1,1931,1660,0,0
714,-636,0,0,0,0,0,0,0,0,0,-1,1938,1660,0,0
721,-636,0,0,0,0,0,0,0,0,0,-1,1945,1660,0,0
728,-636,0,0,0,0,0,0,0,0,0,-1,1952,1660,0,0
735,-636,0,0,0,0,0,0,0,0,0,-1,1959,1660,0,0
742,-636,0,0,0,0,0,0,0,0,0,-1,1966,1660,0,0
749,-636,0,0,0,0,0,0,0,0,0,-1,1973,1660,0,0
756,-636,0,0,0,0,0,0,0,0,0,-1,1980,1660,0,0
763,-636,0,0,0,0,0,0,0,0,0,-1,1987,1660,0,0
770,-636,0,0,0,0,0,0,0,0,0,-1,1994,1660,0,0
777,-636,0,0,0,0,0,0,0,0,0,-1,2001,1660,0,0
784,-636,0,0,0,0,0,0,0,0,0,-1,2008,1660,0,0
791,-636,0,0,0,0,0,0,0,0,0,-1,2015,1660,0,0
798,-636,0,0,0,0,0,0,0,0,0,-1,2022,1660,0,0
805,-636,0,0,0,0,0,0,0,0,0,-1,2029,1660,0,0
812,-636,0,0,0,0,0,0,0,0,0,-1,2036,1660,0,0
-700,-643,0,0,0,0,0,0,0,0,0,-1,524,1667,0,0
-693,-643,0,0,0,0,0,0,0,0,0,-1,531,1667,0,0
-686,-643,0,0,0,0,0,0,0,0,0,-1,538,1667,0,0
-679,-643,0,0,0,0,0,0,0,0,0,-1,545,1667,0,0
-672,-643,0,0,0,0,0,0,0,0,0,-1,552,1667,0,0
-665,-643,0,0,0,0,0,0,0,0,0,-1,559,1667,0,0
-658,-643,0,0,0,0,0,0,0,0,0,-1,566,1667,0,0
-651,-643,0,0,0,0,0,0,0,0,0,-1,573,1667,0,0
-644,-643,0,0,0,0,0,0,0,0,0,-1,580,1667,0,0
-637,-643,0,0,0,0,0,0,0,0,0,-1,587,1667,0,0
-630,-643,0,0,0,0,0,0,0,0,0,-1,594,1667,0,0
-623,-643,0,0,0,0,0,0,0,0,0,-1,601,1667,0,0
-616,-643,0,0,0,0,0,0,0,0,0,-1,608,1667,0,0
-609,-643,0,0,0,0,0,0,0,0,0,-1,615,1667,0,0
-602,-643,0,0,0,0,0,0,0,0,0,-1,622,1667,0,0
-595,-643,0,0,0,0,0,0,0,0,0,-1,629,1667,0,0
-588,-643,0,0,0,0,0,0,0,0,0,-1,636,1667,0,0
-581,-643,0,0,0,0,0,0,0,0,0,-1,643,1667,0,0
-574,-643,0,0,0,0,0,0,0,0,0,-1,650,1667,0,0
-567,-643,0,0,0,0,0,0,0,0,0,-1,657,1667,0,0
-560,-643,0,0,0,0,0,0,0,0,0,-1,664,1667,0,0
-553,-643,0,0,0,0,0,0,0,0,0,-1,671,1667,0,0
-546,-643,0,0,0,0,0,0,0,0,0,-1,678,1667,0,0
-539,-643,0,0,0,0,0,0,0,0,0,-1,685,1667,0,0
-532,-643,0,0,0,0,0,0,0,0,0,-1,692,1667,0,0
-525,-643,0,0,0,0,0,0,0,0,0,-1,699,1667,0,0
-518,-643,0,0,0,0,0,0,0,0,0,-1,706,1667,0,0
-511,-643,0,0,0,0,0,0,0,0,0,-1,713,1667,0,0
-504,-643,0,0,0,0,0,0,0,0,0,-1,720,1667,0,0
-497,-643,0,0,0,0,0,0,0,0,0,-1,727,1667,0,0
-490,-643,0,0,0,0,0,0,0,0,0,-1,734,1667,0,0
-483,-643,0,0,0,0,0,0,0,0,0,-1,741,1667,0,0
-476,-643,0,0,0,0,0,0,0,0,0,-1,748,1667,0,0
-469,-643,0,0,0,0,0,0,0,0,0,-1,755,1667,0,0
-462,-643,0,0,0,0,0,0,0,0,0,-1,762,1667,0,0
-455,-643,0,0,0,0,0,0,0,0,0,-1,769,1667,0,0
-448,-643,0,0,0,0,0,0,0,0,0,-1,776,1667,0,0
-441,-643,0,0,0,0,0,0,0,0,0,-1,783,1667,0,0
-434,-643,0,0,0,0,0,0,0,0,0,-1,790,1667,0,0
-427,-643,0,0,0,0,0,0,0,0,0,-1,797,1667,0,0
-420,-643,0,0,0,0,0,0,0,0,0,-1,804,1667,0,0
-413,-643,0,0,0,0,0,0,0,0,0,-1,811,1667,0,0
-406,-643,0,0,0,0,0,0,0,0,0,-1,818,1667,0,0
-399,-643,-0.0794067,0.0723877,-0.0236962,-0.0137162,0.000342934,-0.0137044,-0.0237079,1.53649,0.0137433,0.0453652,825,1667,-0.0794071,-0.0723279
-392,-643,-0.0386353,0.0787354,-0.0213575,-0.0108771,-0.00102317,-0.0107782,-0.0214565,-1.47438,0.0123879,0.043509,832,1667,-0.0386353,-0.0787079
-385,-643,-0.240479,0.0997314,-0.01971,-0.00913806,-0.00231749,-0.00865235,-0.0201957,-1.36421,0.0116998,0.0429898,839,1667,-0.240482,-0.0997366
-378,-643,-0.137939,-0.300293,0,0,0,0,0,0,0,-1,846,1667,-0.137946,0.300338
-371,-643,0.0765381,-0.454468,-0.015883,-0.00745823,-0.00151157,-0.00719524,-0.016146,-1.39853,0.00934026,0.0448415,853,1667,0.0765306,0.454521
-364,-643,-0.0509644,-0.119385,-0.0136701,-0.00870857,-0.000269134,-0.00869402,-0.0136846,-1.51676,0.00799668,0.0445036,860,1667,-0.0509595,0.119385
-357,-643,-0.0679932,-0.0447998,-0.0114584,-0.00933022,0.000136128,-0.00932155,-0.0114671,1.50718,0.0070394,0.0458819,867,1667,-0.0679838,0.0448583
-350,-643,-0.155579,-0.216064,-0.00931893,-0.0089531,0.000493826,-0.0086094,-0.00966263,0.962767,0.00612096,0.0447516,874,1667,-0.155581,0.216121
-343,-643,-0.257751,0.21936,-0.00785991,-0.00924405,0.000934352,-0.00738924,-0.00971472,0.466639,0.00585728,0.0486948,881,1667,-0.257776,-0.219404
-336,-643,-0.192566,0.150757,-0.00599321,-0.0100176,0.00158241,-0.00544553,-0.0105652,0.333202,0.00610081,0.0495488,888,1667,-0.192578,-0.150804
-329,-643,-0.115967,0.00500488,-0.00436019,-0.0103881,0.00234894,-0.00355296,-0.0111953,0.331014,0.00660579,0.0379179,895,1667,-0.115956,-0.00500599
-322,-643,-0.0665894,0.0339355,-0.00272938,-0.0104481,0.00268885,-0.00188506,-0.0112924,0.304257,0.00698523,0.0227806,902,1667,-0.0666197,-0.0339304
-315,-643,-0.0634766,0.0439453,-0.00131866,-0.0103807,0.00289517,-0.000472684,-0.0112267,0.284289,0.00733199,0.0152367,909,1667,-0.0634783,-0.0438855
-308,-643,-0.0372925,0.0224609,-0.000245625,-0.00956105,0.00289479,0.000580646,-0.0103873,0.278041,0.00712632,0.0118754,916,1667,-0.0373039,-0.022442
-301,-643,-0.0180054,0.0444336,0.000788767,-0.00837382,0.002799,0.00157615,-0.0091612,0.274221,0.00669498,0.0131234,923,1667,-0.0180109,-0.044424
-294,-643,-0.0155029,0.0614014,0.00161081,-0.00699081,0.00272766,0.00240284,-0.00778285,0.282601,0.00614808,0.0112842,930,1667,-0.0155084,-0.0613742
-287,-643,-0.0308838,0.0592041,0.00217151,-0.00574343,0.00270424,0.00300721,-0.00657913,0.299723,0.00566129,0.00961092,937,1667,-0.0308778,-0.0591748
-280,-643,-0.036438,0.0594482,0.00191082,-0.00389848,0.00240619,0.002778,-0.00476567,0.345907,0.00440545,0.0132238,944,1667,-0.0364663,-0.0595062
-273,-643,-0.0308228,0.0360107,0.00125816,-0.00258453,0.00172906,0.00192162,-0.00324799,0.366387,0.00301725,0.0120999,951,1667,-0.0308253,-0.0360519
-266,-643,-0.0241089,0.0343018,0.000695183,-0.00102289,0.000830562,0.00103104,-0.00135875,0.384274,0.00138406,0.0110948,958,1667,-0.0241293,-0.0343524
-259,-643,-0.0175781,0.0430908,0.000375607,9.38855e-05,0.00022483,0.000500058,-3.05656e-05,0.505552,0.000344013,0.0100166,965,1667,-0.0175516,-0.0430374
-252,-643,-0.0291138,0.0460205,0.000388123,0.00141226,4.45693e-05,0.0014142,0.000386187,1.52739,0.000844052,0.0113007,972,1667,-0.0291235,-0.0460589
-245,-643,-0.020752,0.0598145,0.000437452,0.00203229,-0.000393544,0.00212412,0.000345628,-1.34157,0.00131609,0.0113592,979,1667,-0.0207593,-0.0598754
-238,-643,-0.0155029,0.0577393,0.000861377,0.00258938,-0.00101537,0.0030586,0.00039216,-1.13791,0.00192173,0.0138838,986,1667,-0.0155022,-0.0576864
-231,-643,-0.0367432,0.0603027,0.00162066,0.00310946,-0.00156605,0.00409903,0.000631089,-1.00726,0.0025485,0.0104511,993,1667,-0.0367475,-0.0603533
-224,-643,-0.0350342,0.0646973,0.0028867,0.00329105,-0.00180064,0.00490083,0.00127692,-0.841303,0.00293566,0.0087493,1000,1667,-0.0350282,-0.0647528
-217,-643,-0.0299072,0.0583496,0.0044041,0.00349467,-0.00162619,0.00563795,0.00226082,-0.64907,0.00327627,0.00755316,1007,1667,-0.0298962,-0.0583066
-210,-643,-0.0255127,0.0638428,0.0056098,0.003463,-0.00117443,0.00612746,0.00294535,-0.415156,0.00353857,0.00976357,1014,1667,-0.0254853,-0.0638867
-203,-643,-0.0215454,0.0556641,0.00623418,0.00294198,-0.000589021,0.0063364,0.00283977,-0.171816,0.00366487,0.0111552,1021,1667,-0.0215267,-0.0556718
-196,-643,-0.0418701,0.0512695,0.00663678,0.00233137,0.000315447,0.00665977,0.00230838,0.0727498,0.00390486,0.0103016,1028,1667,-0.0419162,-0.0512472
-189,-643,-0.0415039,0.0472412,0.00655073,0.000578989,0.00142368,0.00687278,0.000256946,0.22246,0.00449865,0.00974612,1035,1667,-0.0414512,-0.0472331
-182,-643,0.0147705,0.0402832,0.00630474,-0.00193543,0.00260555,0.00705948,-0.00269018,0.281952,0.00581433,0.0161521,1042,1667,0.0147829,-0.0402243
-175,-643,0.162598,0.0240479,0.00629395,-0.00496574,0.00376481,0.00743677,-0.00610855,0.294713,0.00783292,0.0281689,1049,1667,0.162538,-0.0240017
-168,-643,0.266235,-0.00634766,0.00635072,-0.00585847,0.00506618,0.00817911,-0.00768686,0.346353,0.00916169,0.036452,1056,1667,0.266224,0.00631375
-161,-643,0.341675,-0.0367432,0.00605318,-0.00590933,0.00699195,0.00927317,-0.00912931,0.431574,0.0106248,0.0406385,1063,1667,0.34169,0.0367386
-154,-643,0.337769,0.0405273,0.00609318,-0.00538794,0.0071954,0.00955739,-0.00885215,0.448696,0.0106314,0.0418877,1070,1667,0.337732,-0.0405548
-147,-643,0.286255,0.201172,0.00626999,-0.00578578,0.00719079,0.00962522,-0.00914101,0.436573,0.0108359,0.0481698,1077,1667,0.286276,-0.201132
-140,-643,0.0874023,0.0783691,0,0,0,0,0,0,0,-1,1084,1667,0.0874233,-0.0784215
-133,-643,-0.421509,-0.0633545,0.00707984,-0.00166582,0.00758838,0.0114652,-0.00605114,0.52401,0.0102728,0.0444462,1091,1667,-0.421485,0.0633784
-126,-643,-0.244141,-0.193359,0.00548413,0.00136791,0.00771059,0.0114066,-0.00455452,0.654979,0.00949396,0.0440133,1098,1667,-0.244186,0.193397
-119,-643,0.0614014,-0.371948,0.00415361,0.0046118,0.00713572,0.0115221,-0.00275669,0.801446,0.00874632,0.0412908,1105,1667,0.0613731,0.371933
-112,-643,0.301514,-0.375854,0.00214151,0.00756869,0.00618064,0.0116052,-0.001895,0.992252,0.00843968,0.0417764,1112,1667,0.301556,0.375894
-105,-643,0.736694,-0.875488,0,0,0,0,0,0,0,-1,1119,1667,0.736734,0.875517
-98,-643,0.809937,-0.991943,0,0,0,0,0,0,0,-1,1126,1667,0.809905,0.991979
-91,-643,0.77417,-0.875,0,0,0,0,0,0,0,-1,1133,1667,0.774202,0.875047
-84,-643,-0.201172,-0.0549316,-0.0083773,0.0115906,0.00294546,0.012016,-0.00880272,1.42736,0.0120673,0.0414412,1140,1667,-0.201172,0.0548885
-77,-643,0.0383301,-0.265137,-0.00993198,0.010478,0.00178836,0.0106335,-0.0100875,1.48406,0.0119647,0.0390193,1147,1667,0.0382803,0.265079
-70,-643,-0.657349,-0.319458,-0.00958275,0.00709745,0.00185728,0.00730175,-0.00978705,1.46124,0.00990094,0.0432594,1154,1667,-0.657296,0.319505
-63,-643,-0.863037,-0.439331,-0.00791042,0.00378648,0.000688661,0.00382689,-0.00795082,1.51219,0.00693742,0.0427499,1161,1667,-0.863019,0.439348
-56,-643,-0.419922,-0.54126,-0.0033793,0.000197547,-0.00120085,0.000563307,-0.00374506,-1.27514,0.00270411,0.0416089,1168,1667,-0.419919,0.541215
-49,-643,-0.0944824,-0.478394,0.000329622,-0.000172576,-0.00057407,0.000705106,-0.00054806,-0.579234,0.000725407,0.0445605,1175,1667,-0.0944241,0.478356
-42,-643,0.0245361,-0.226929,0.00328181,0.0022078,-0.00075995,0.00367534,0.00181427,-0.477817,0.00212202,0.0459436,1182,1667,0.0245911,0.226966
-35,-643,-0.0203857,-0.199463,0,0,0,0,0,0,0,-1,1189,1667,-0.020385,0.199459
-28,-643,-0.0718994,-0.57019,0.0119626,0.00782597,-0.00326788,0.0137617,0.00602686,-0.503261,0.00796569,0.0417269,1196,1667,-0.0719302,0.570164
-21,-643,0.0162354,-1.40381,0,0,0,0,0,0,0,-1,1203,1667,0.0162043,1.40386
-14,-643,-0.516235,0.352417,0,0,0,0,0,0,0,-1,1210,1667,-0.516283,-0.352372
-7,-643,0.0366211,0.749023,0,0,0,0,0,0,0,-1,1217,1667,0.0366497,-0.74907
0,-643,0.147339,0.963013,0,0,0,0,0,0,0,-1,1224,1667,0.147314,-0.963003
7,-643,0.170166,0.946777,0.00990458,-0.00310609,0.00575975,0.012088,-0.00528948,0.362342,0.0102856,0.0471805,1231,1667,0.170133,-0.9468
14,-643,0.194336,0.902588,0.0142953,-0.0108069,0.010064,0.0178319,-0.0143434,0.33793,0.0186128,0.0455033,1238,1667,0.194336,-0.902636
21,-643,0.171387,0.423218,0,0,0,0,0,0,0,-1,1245,1667,0.171417,-0.423206
28,-643,3.39526,-1.70654,0,0,0,0,0,0,0,-1,1252,1667,3.39523,1.70652
35,-643,-0.206543,-1.38757,0,0,0,0,0,0,0,-1,1259,1667,-0.206578,1.38752
42,-643,-0.116821,-1.44189,0.027709,-0.0515088,0.0337513,0.0401387,-0.0639385,0.35286,0.0606104,0.0472774,1266,1667,-0.116801,1.44194
49,-643,0.342651,-1.54358,0.0300704,-0.046836,0.0376438,0.045429,-0.0621945,0.387381,0.0623873,0.0468979,1273,1667,0.342672,1.54354
56,-643,0.767334,-1.43298,0.0301273,-0.045056,0.0380103,0.0459951,-0.0609239,0.395468,0.06193,0.0467266,1280,1667,0.767362,1.43301
63,-643,1.44055,-1.97437,0.0283472,-0.040346,0.0369378,0.0444396,-0.0564384,0.410866,0.0583791,0.0460391,1287,1667,1.44055,1.97442
70,-643,2.81018,0.505859,0,0,0,0,0,0,0,-1,1294,1667,2.81013,-0.50589
77,-643,2.29724,0.490356,0,0,0,0,0,0,0,-1,1301,1667,2.29726,-0.490388
84,-643,1.91992,-0.652344,0,0,0,0,0,0,0,-1,1308,1667,1.91988,0.65231
91,-643,2.09253,-0.26355,0,0,0,0,0,0,0,-1,1315,1667,2.09249,0.263493
98,-643,2.18494,0.226074,0.00665443,0.0126441,0.000575874,0.0126989,0.00659956,1.47581,0.00733362,0.0459596,1322,1667,2.18498,-0.226075
105,-643,2.25806,0.815796,0.00503893,0.0179893,-0.00712251,0.0211401,0.00188821,-1.15431,0.013508,0.0467872,1329,1667,2.25808,-0.815738
112,-643,-0.193359,-0.656006,0.00518953,0.02248,-0.0142132,0.0304707,-0.00280123,-1.05863,0.021309,0.0468789,1336,1667,-0.193306,0.656006
119,-643,-0.203857,-1.06995,0.00519062,0.0251795,-0.0200951,0.0376283,-0.0072582,-1.01616,0.0278223,0.0465612,1343,1667,-0.203824,1.06996
126,-643,0.817383,-0.960693,0.00773247,0.0255641,-0.0226049,0.040948,-0.00765135,-0.973242,0.0301742,0.0449364,1350,1667,0.81735,0.960703
133,-643,1.36609,-0.71814,0.0105973,0.0287891,-0.0254539,0.0467235,-0.00733707,-0.957001,0.0338607,0.0456616,1357,1667,1.36611,0.718079
140,-643,1.09314,-0.242554,0.0125411,0.0274401,-0.0258844,0.0469257,-0.00694447,-0.92551,0.033837,0.0401858,1364,1667,1.09319,0.242515
147,-643,1.29456,-1.54639,0,0,0,0,0,0,0,-1,1371,1667,1.29455,1.54635
154,-643,-0.609009,1.91101,0.0119759,0.0220375,-0.021924,0.0395005,-0.00548714,-0.898179,0.0283404,0.0434374,1378,1667,-0.608962,-1.91106
161,-643,-0.480957,1.46692,0.0111128,0.0222337,-0.0174236,0.0349626,-0.00161613,-0.939857,0.0238654,0.045788,1385,1667,-0.480925,-1.46691
168,-643,-0.0629883,1.09644,0.0105703,0.0225489,-0.0134951,0.031324,0.00179516,-0.994247,0.0203108,0.0488151,1392,1667,-0.0630459,-1.09645
175,-643,-0.110718,0.639038,0.0081959,0.0220089,-0.0102989,0.0275027,0.00270213,-1.08076,0.0175041,0.0466581,1399,1667,-0.110685,-0.639025
182,-643,0.321655,-0.838989,0.00477062,0.0180383,-0.00828765,0.0220202,0.000788772,-1.12291,0.0144244,0.0421922,1406,1667,0.321623,0.839004
189,-643,0.320801,-0.1875,0.00289628,0.0150316,-0.00627016,0.0176893,0.000238615,-1.16989,0.0117141,0.0400111,1413,1667,0.320838,0.187554
196,-643,0.168457,0.117432,0.00227251,0.0136163,-0.00600212,0.0162025,-0.000313672,-1.16396,0.0109077,0.0395215,1420,1667,0.168511,-0.117486
203,-643,0.202271,-0.126587,0.00132493,0.00888595,-0.0052334,0.0115615,-0.00135062,-1.09819,0.00819506,0.0441884,1427,1667,0.202263,0.126577
210,-643,0.304321,-0.260376,0,0,0,0,0,0,0,-1,1434,1667,0.304263,0.260431
217,-643,0.328247,-0.140747,0,0,0,0,0,0,0,-1,1441,1667,0.328249,0.140703
224,-643,0.194092,0.060791,0,0,0,0,0,0,0,-1,1448,1667,0.19406,-0.0607619
231,-643,-0.0788574,0.173462,0,0,0,0,0,0,0,-1,1455,1667,-0.0788788,-0.17345
238,-643,-0.132324,0.128418,0,0,0,0,0,0,0,-1,1462,1667,-0.132333,-0.128418
245,-643,0.114868,0.12439,0,0,0,0,0,0,0,-1,1469,1667,0.114856,-0.124397
252,-643,0.210205,-0.0736084,0.00187675,-0.000806535,-0.00933269,0.00996374,-0.00889352,-0.714009,0.0108931,0.042528,1476,1667,0.210256,0.0735596
259,-643,0.230347,-0.177002,0.00248772,-0.00151938,-0.00911208,0.00981392,-0.00884558,-0.677181,0.0107779,0.0442537,1483,1667,0.230318,0.177022
266,-643,0.0926514,0.334473,0.003071,-0.00227696,-0.00824765,0.00906731,-0.00827327,-0.628639,0.0100151,0.0453937,1490,1667,0.0926226,-0.334493
273,-643,0.19519,0.0317383,0.00291675,-0.00258094,-0.00722224,0.00789557,-0.00755976,-0.603559,0.00892385,0.0455458,1497,1667,0.195168,-0.0317157
280,-643,0.15271,-0.262817,0.00303897,-0.0032521,-0.0061313,0.00678453,-0.00699767,-0.54839,0.00795747,0.0444167,1504,1667,0.15274,0.262809
287,-643,-0.0916748,-0.090332,0.00427202,-0.0036454,-0.00517209,0.00682652,-0.0061999,-0.458756,0.00752371,0.0452274,1511,1667,-0.0916862,0.090317
294,-643,-0.210693,-0.101929,0.00488599,-0.00392478,-0.00434415,0.00666762,-0.0057064,-0.3892,0.00715132,0.0455608,1518,1667,-0.210677,0.101969
301,-643,-0.210327,0.019165,0.00520335,-0.00316691,-0.00341789,0.00642167,-0.00438523,-0.342413,0.00627618,0.0384238,1525,1667,-0.210316,-0.019171
308,-643,-0.13855,0.0238037,0.00578876,-0.00196984,-0.0022736,0.00640592,-0.00258701,-0.265063,0.00534585,0.0314054,1532,1667,-0.138582,-0.0238183
315,-643,-0.0880127,0.0374756,0.0058387,-0.00124379,-0.00167228,0.0062137,-0.00161879,-0.220592,0.00477443,0.02349,1539,1667,-0.087978,-0.0374875
322,-643,-0.0397949,0.0480957,0.00543573,-0.000886914,-0.00092774,0.00556905,-0.00102023,-0.142726,0.00409536,0.0135824,1546,1667,-0.039842,-0.0481022
329,-643,-0.0406494,0.0638428,0.00465745,-0.000279775,-0.00044099,0.00469653,-0.000318855,-0.088387,0.00324254,0.0104244,1553,1667,-0.040657,-0.0638606
336,-643,-0.0738525,0.0769043,0.00376124,0.000474711,-0.000228654,0.00377707,0.000458879,-0.0691292,0.00237988,0.0103657,1560,1667,-0.07383,-0.076872
343,-643,-0.0802002,0.0628662,0.00293349,0.00103017,-0.000135636,0.00294311,0.00102056,-0.0707864,0.0017256,0.0124176,1567,1667,-0.0802118,-0.062912
350,-643,-0.053833,0.0618896,0.00208349,0.00153157,-3.9876e-05,0.00208636,0.0015287,-0.071752,0.00124729,0.0113448,1574,1667,-0.0538207,-0.0619248
357,-643,-0.0355225,0.0610352,0.00121859,0.00184968,-9.78077e-06,0.00184983,0.00121843,-1.5553,0.00108578,0.0095796,1581,1667,-0.0354633,-0.0610774
364,-643,-0.0286865,0.0511475,0.000234424,0.00186808,-4.69741e-05,0.00186943,0.000233075,-1.54207,0.00117632,0.00842153,1588,1667,-0.0286932,-0.0511343
371,-643,-0.0408936,0.0583496,-0.000282095,0.00171926,-9.72048e-05,0.00172397,-0.000286805,-1.52238,0.00125588,0.00726881,1595,1667,-0.0408942,-0.0583189
378,-643,-0.0385742,0.0755615,1.57586e-05,0.00156335,-0.000276752,0.00161136,-3.22432e-05,-1.39906,0.00108514,0.00890612,1602,1667,-0.0386341,-0.075596
385,-643,-0.0258789,0.0899658,0.000487771,0.00152771,-0.000527803,0.00174864,0.000266832,-1.17436,0.00108778,0.0144123,1609,1667,-0.0259006,-0.0900186
392,-643,-0.0400391,0.0704346,0.000457143,0.00174637,-0.00083632,0.00215767,4.58407e-05,-1.11373,0.00142341,0.0154047,1616,1667,-0.0400538,-0.0704787
399,-643,-0.0579834,0.09021,0.000779316,0.00214581,-0.00140415,0.00302413,-9.89971e-05,-1.01183,0.00204988,0.0129903,1623,1667,-0.0579243,-0.090203
406,-643,-0.0445557,0.105347,0.0011373,0.00247051,-0.00210492,0.00401186,-0.000404051,-0.938746,0.00281893,0.0119176,1630,1667,-0.0445666,-0.105368
413,-643,-0.0490723,0.0841064,0.00144596,0.00308301,-0.00278575,0.005168,-0.000639026,-0.92829,0.0036769,0.0161385,1637,1667,-0.0490733,-0.0840832
420,-643,-0.0445557,0.0634766,0.00175172,0.0037811,-0.00327713,0.00619703,-0.000664216,-0.935531,0.00436962,0.0149026,1644,1667,-0.044573,-0.0634515
427,-643,-0.0388184,0.0688477,0.00154465,0.00474787,-0.00366707,0.00714783,-0.000855313,-0.99129,0.00507441,0.0127231,1651,1667,-0.0387745,-0.0688719
434,-643,-0.0302734,0.0753174,0.00111329,0.00559813,-0.00391032,0.00786337,-0.00115195,-1.04574,0.00566541,0.0130191,1658,1667,-0.0302615,-0.075335
441,-643,-0.019165,0.0672607,0.00078655,0.00620156,-0.00399779,0.00832241,-0.00133429,-1.08305,0.00604234,0.0121482,1665,1667,-0.0191579,-0.0672283
448,-643,-0.0244141,0.0644531,0.000231306,0.00657163,-0.00391165,0.00843644,-0.0016335,-1.12594,0.00624047,0.0157281,1672,1667,-0.0244309,-0.0644958
455,-643,-0.0921631,0.0479736,-0.000509677,0.00673052,-0.00366597,0.00826255,-0.00204171,-1.17495,0.0063002,0.0248388,1679,1667,-0.0921991,-0.048019
462,-643,-0.100098,0.0119629,-0.00125443,0.00674631,-0.00350212,0.00806268,-0.0025708,-1.21125,0.00640637,0.0346452,1686,1667,-0.100154,-0.0120008
469,-643,-0.0167236,0.0408936,-0.00200415,0.00706018,-0.00314553,0.0080448,-0.00298876,-1.26744,0.0065894,0.0396993,1693,1667,-0.01675,-0.0409483
476,-643,0.0534668,0.00476074,-0.00234866,0.00769666,-0.00287177,0.00845969,-0.00311169,-1.3111,0.00691449,0.0465394,1700,1667,0.0535075,-0.00471377
483,-643,-0.207275,0.189453,-0.00301993,0.00793018,-0.00243646,0.00844783,-0.00353759,-1.36145,0.00711072,0.0489938,1707,1667,-0.207311,-0.189458
490,-643,-0.110596,-0.0670166,-0.0032626,0.00828144,-0.00208531,0.00864658,-0.00362774,-1.39745,0.00728138,0.0476554,1714,1667,-0.110555,0.0669883
497,-643,-0.248535,-0.0574951,-0.00267237,0.00949488,-0.00228087,0.0099084,-0.00308589,-1.39145,0.00783937,0.0449116,1721,1667,-0.248486,0.0574569
504,-643,-0.329102,-0.188354,-0.00167538,0.0114591,-0.00247392,0.0119097,-0.0021259,-1.39066,0.00873507,0.0453545,1728,1667,-0.329076,0.1883
511,-643,-0.243164,-0.467163,-0.00012008,0.015026,-0.00331396,0.0157193,-0.000813435,-1.36455,0.0107609,0.0476727,1735,1667,-0.243146,0.467158
518,-643,-0.548706,-0.756348,0.00147649,0.0201286,-0.00473321,0.0212609,0.00034412,-1.33597,0.0140607,0.0450144,1742,1667,-0.548652,0.756306
525,-643,0,0,0,0,0,0,0,0,0,-1,1749,1667,0,0
532,-643,0,0,0,0,0,0,0,0,0,-1,1756,1667,0,0
539,-643,0,0,0,0,0,0,0,0,0,-1,1763,1667,0,0
546,-643,0,0,0,0,0,0,0,0,0,-1,1770,1667,0,0
553,-643,0,0,0,0,0,0,0,0,0,-1,1777,1667,0,0
560,-643,0,0,0,0,0,0,0,0,0,-1,1784,1667,0,0
567,-643,0,0,0,0,0,0,0,0,0,-1,1791,1667,0,0
574,-643,0,0,0,0,0,0,0,0,0,-1,1798,1667,0,0
581,-643,0,0,0,0,0,0,0,0,0,-1,1805,1667,0,0
588,-643,0,0,0,0,0,0,0,0,0,-1,1812,1667,0,0
595,-643,0,0,0,0,0,0,0,0,0,-1,1819,1667,0,0
602,-643,0,0,0,0,0,0,0,0,0,-1,1826,1667,0,0
609,-643,0,0,0,0,0,0,0,0,0,-1,1833,1667,0,0
616,-643,0,0,0,0,0,0,0,0,0,-1,1840,1667,0,0
623,-643,0,0,0,0,0,0,0,0,0,-1,1847,1667,0,0
630,-643,0,0,0,0,0,0,0,0,0,-1,1854,1667,0,0
637,-643,0,0,0,0,0,0,0,0,0,-1,1861,1667,0,0
644,-643,0,0,0,0,0,0,0,0,0,-1,1868,1667,0,0
651,-643,0,0,0,0,0,0,0,0,0,-1,1875,1667,0,0
658,-643,0,0,0,0,0,0,0,0,0,-1,1882,1667,0,0
665,-643,0,0,0,0,0,0,0,0,0,-1,1889,1667,0,0
672,-643,0,0,0,0,0,0,0,0,0,-1,1896,1667,0,0
679,-643,0,0,0,0,0,0,0,0,0,-1,1903,1667,0,0
686,-643,0,0,0,0,0,0,0,0,0,-1,1910,1667,0,0
693,-643,0,0,0,0,0,0,0,0,0,-1,1917,1667,0,0
700,-643,0,0,0,0,0,0,0,0,0,-1,1924,1667,0,0
707,-643,0,0,0,0,0,0,0,0,0,-1,1931,1667,0,0
714,-643,0,0,0,0,0,0,0,0,0,-1,1938,1667,0,0
721,-643,0,0,0,0,0,0,0,0,0,-1,1945,1667,0,0
728,-643,0,0,0,0,0,0,0,0,0,-1,1952,1667,0,0
735,-643,0,0,0,0,0,0,0,0,0,-1,1959,1667,0,0
742,-643,0,0,0,0,0,0,0,0,0,-1,1966,1667,0,0
749,-643,0,0,0,0,0,0,0,0,0,-1,1973,1667,0,0
756,-643,0,0,0,0,0,0,0,0,0,-1,1980,1667,0,0
763,-643,0,0,0,0,0,0,0,0,0,-1,1987,1667,0,0
770,-643,0,0,0,0,0,0,0,0,0,-1,1994,1667,0,0
777,-643,0,0,0,0,0,0,0,0,0,-1,2001,1667,0,0
784,-643,0,0,0,0,0,0,0,0,0,-1,2008,1667,0,0
791,-643,0,0,0,0,0,0,0,0,0,-1,2015,1667,0,0
798,-643,0,0,0,0,0,0,0,0,0,-1,2022,1667,0,0
805,-643,0,0,0,0,0,0,0,0,0,-1,2029,1667,0,0
812,-643,0,0,0,0,0,0,0,0,0,-1,2036,1667,0,0
-700,-650,0,0,0,0,0,0,0,0,0,-1,524,1674,0,0
-693,-650,0,0,0,0,0,0,0,0,0,-1,531,1674,0,0
-686,-650,0,0,0,0,0,0,0,0,0,-1,538,1674,0,0
-679,-650,0,0,0,0,0,0,0,0,0,-1,545,1674,0,0
-672,-650,0,0,0,0,0,0,0,0,0,-1,552,1674,0,0
-665,-650,0,0,0,0,0,0,0,0,0,-1,559,1674,0,0
-658,-650,0,0,0,0,0,0,0,0,0,-1,566,1674,0,0
-651,-650,0,0,0,0,0,0,0,0,0,-1,573,1674,0,0
-644,-650,0,0,0,0,0,0,0,0,0,-1,580,1674,0,0
-637,-650,0,0,0,0,0,0,0,0,0,-1,587,1674,0,0
-630,-650,0,0,0,0,0,0,0,0,0,-1,594,1674,0,0
-623,-650,0,0,0,0,0,0,0,0,0,-1,601,1674,0,0
-616,-650,0,0,0,0,0,0,0,0,0,-1,608,1674,0,0
-609,-650,0,0,0,0,0,0,0,0,0,-1,615,1674,0,0
-602,-650,0,0,0,0,0,0,0,0,0,-1,622,1674,0,0
-595,-650,0,0,0,0,0,0,0,0,0,-1,629,1674,0,0
-588,-650,0,0,0,0,0,0,0,0,0,-1,636,1674,0,0
-581,-650,0,0,0,0,0,0,0,0,0,-1,643,1674,0,0
-574,-650,0,0,0,0,0,0,0,0,0,-1,650,1674,0,0
-567,-650,0,0,0,0,0,0,0,0,0,-1,657,1674,0,0
-560,-650,0,0,0,0,0,0,0,0,0,-1,664,1674,0,0
-553,-650,0,0,0,0,0,0,0,0,0,-1,671,1674,0,0
-546,-650,0,0,0,0,0,0,0,0,0,-1,678,1674,0,0
-539,-650,0,0,0,0,0,0,0,0,0,-1,685,1674,0,0
-532,-650,0,0,0,0,0,0,0,0,0,-1,692,1674,0,0
-525,-650,0,0,0,0,0,0,0,0,0,-1,699,1674,0,0
-518,-650,0,0,0,0,0,0,0,0,0,-1,706,1674,0,0
-511,-650,0,0,0,0,0,0,0,0,0,-1,713,1674,0,0
-504,-650,0,0,0,0,0,0,0,0,0,-1,720,1674,0,0
-497,-650,0,0,0,0,0,0,0,0,0,-1,727,1674,0,0
-490,-650,0,0,0,0,0,0,0,0,0,-1,734,1674,0,0
-483,-650,0,0,0,0,0,0,0,0,0,-1,741,1674,0,0
-476,-650,0,0,0,0,0,0,0,0,0,-1,748,1674,0,0
-469,-650,0,0,0,0,0,0,0,0,0,-1,755,1674,0,0
-462,-650,0,0,0,0,0,0,0,0,0,-1,762,1674,0,0
-455,-650,0,0,0,0,0,0,0,0,0,-1,769,1674,0,0
-448,-650,0,0,0,0,0,0,0,0,0,-1,776,1674,0,0
-441,-650,0,0,0,0,0,0,0,0,0,-1,783,1674,0,0
-434,-650,0,0,0,0,0,0,0,0,0,-1,790,1674,0,0
-427,-650,0,0,0,0,0,0,0,0,0,-1,797,1674,0,0
-420,-650,0,0,0,0,0,0,0,0,0,-1,804,1674,0,0
-413,-650,0,0,0,0,0,0,0,0,0,-1,811,1674,0,0
-406,-650,0,0,0,0,0,0,0,0,0,-1,818,1674,0,0
-399,-650,0,0,0,0,0,0,0,0,0,-1,825,1674,0,0
-392,-650,-0.0657959,0.113037,-0.0261167,-0.0163076,-0.00460982,-0.0144812,-0.0279431,-1.19358,0.0161365,0.046405,832,1674,-0.0657819,-0.112996
-385,-650,-0.0686035,0.148071,-0.0254395,-0.0133898,-0.0059425,-0.0109522,-0.027877,-1.18154,0.0162175,0.0488088,839,1674,-0.0685982,-0.14804
-378,-650,-0.041748,-0.427124,0,0,0,0,0,0,0,-1,846,1674,-0.0417343,0.4271
-371,-650,0.201843,-0.716309,0,0,0,0,0,0,0,-1,853,1674,0.201868,0.716369
-364,-650,0.0443115,-0.000488281,0,0,0,0,0,0,0,-1,860,1674,0.0442899,0.000441929
-357,-650,-0.00128174,0.0534668,-0.0154899,-0.0134691,-0.000998548,-0.013059,-0.0159,-1.18104,0.00979137,0.0463648,867,1674,-0.00128027,-0.053512
-350,-650,-0.366577,-0.0743408,-0.0126297,-0.0132609,-0.00090673,-0.0119852,-0.0139054,-0.617922,0.00870113,0.0465919,874,1674,-0.366568,0.074324
-343,-650,-0.616577,-0.258667,-0.0106096,-0.0138751,-0.000252267,-0.0105903,-0.0138944,-0.0766476,0.00838155,0.04727,881,1674,-0.61658,0.25872
-336,-650,-0.329102,0.154175,0,0,0,0,0,0,0,-1,888,1674,-0.32908,-0.154196
-329,-650,-0.11145,-0.0778809,-0.00521879,-0.0154235,0.00161211,-0.00497017,-0.0156722,0.153014,0.00924784,0.046157,895,1674,-0.111447,0.0778733
-322,-650,-0.0551147,0.00732422,-0.00269695,-0.0154425,0.00212993,-0.00235043,-0.015789,0.161276,0.00983656,0.0394875,902,1674,-0.05513,-0.00732046
-315,-650,-0.0447998,0.0285645,-0.000552493,-0.0151876,0.00243673,-0.000157444,-0.0155827,0.160724,0.0103364,0.0368772,909,1674,-0.0448216,-0.0285387
-308,-650,-0.0751343,0.0565186,0.00109451,-0.0140357,0.0024878,0.00149307,-0.0144343,0.158856,0.0101572,0.0218124,916,1674,-0.0751395,-0.0565513
-301,-650,-0.0331421,0.0633545,0.0025393,-0.0124237,0.00247335,0.00293755,-0.0128219,0.159643,0.00967689,0.0121578,923,1674,-0.033123,-0.0633726
-294,-650,-0.0246582,0.0615234,0.00366631,-0.010563,0.00243804,0.00407245,-0.0109692,0.165068,0.00898342,0.00933365,930,1674,-0.0246643,-0.0615702
-287,-650,-0.0366211,0.0548096,0.00457814,-0.00889205,0.00249424,0.00502516,-0.00933907,0.177337,0.00841693,0.0125669,937,1674,-0.0366496,-0.0548169
-280,-650,-0.0294189,0.0593262,0.00455877,-0.00668624,0.00241121,0.00505399,-0.00718146,0.202564,0.00709964,0.0133521,944,1674,-0.0294257,-0.0592703
-273,-650,-0.0247192,0.0419922,0.00391119,-0.00498357,0.0018835,0.00429359,-0.00536597,0.200303,0.00558839,0.0131263,951,1674,-0.0247341,-0.0419353
-266,-650,-0.0196533,0.0585938,0.00320706,-0.00295069,0.00108663,0.00339318,-0.00313682,0.169642,0.00377106,0.0108613,958,1674,-0.0196437,-0.058558
-259,-650,-0.0244141,0.043335,0.00254739,-0.00143359,0.000576858,0.00262929,-0.0015155,0.14104,0.00242162,0.0126972,965,1674,-0.024428,-0.0432941
-252,-650,-0.0322876,0.0340576,0.00209325,3.27265e-05,0.000677727,0.00229618,-0.0001702,0.290927,0.00159056,0.0114075,972,1674,-0.0322884,-0.0340843
-245,-650,-0.0288086,0.0412598,0.00173324,0.000736398,0.000624912,0.00203416,0.000435483,0.448764,0.00123677,0.0109446,979,1674,-0.028807,-0.0413099
-238,-650,-0.0494995,0.0670166,0.00162708,0.00121008,0.000133765,0.0016663,0.00117086,0.285206,0.000988033,0.0122638,986,1674,-0.0494772,-0.0669886
-231,-650,-0.0519409,0.0792236,0.00159142,0.00170057,-0.000288304,0.00193942,0.00135257,-0.87894,0.00114845,0.0169366,993,1674,-0.0519678,-0.0792186
-224,-650,-0.0406494,0.0742188,0.00216833,0.00185499,-0.000485506,0.00252182,0.0015015,-0.629323,0.00146478,0.0139482,1000,1674,-0.0406513,-0.0741913
-217,-650,-0.03302,0.0568848,0.00311604,0.00213865,-0.000393842,0.00325499,0.0019997,-0.339166,0.00189558,0.00941208,1007,1674,-0.033036,-0.0568445
-210,-650,-0.0325928,0.0523682,0.00389179,0.00226536,-5.16578e-05,0.00389343,0.00226372,-0.0317189,0.00225778,0.00893303,1014,1674,-0.0326044,-0.0524207
-203,-650,-0.0332642,0.0600586,0.00438173,0.00202011,0.00041648,0.00445303,0.00194882,0.169542,0.00257761,0.0128255,1021,1674,-0.0332564,-0.060045
-196,-650,-0.0465088,0.0478516,0.00471676,0.00167619,0.00107138,0.00505635,0.0013366,0.306943,0.00302543,0.0120666,1028,1674,-0.0465126,-0.0478778
-189,-650,-0.0447998,0.0367432,0.0047325,0.000528271,0.00190165,0.00546502,-0.000204248,0.367685,0.0037133,0.00984803,1035,1674,-0.04482,-0.0366862
-182,-650,-0.0318604,0.0571289,0.00460632,-0.00123687,0.00272617,0.00568069,-0.00231124,0.375405,0.00474887,0.00891592,1042,1674,-0.0318235,-0.0571127
-175,-650,-0.0217285,0.0571289,0.00477343,-0.00327517,0.00331896,0.0059655,-0.00446724,0.34482,0.00604402,0.0133594,1049,1674,-0.0217524,-0.0571513
-168,-650,-0.00939941,0.0679932,0.00519472,-0.0036855,0.00426651,0.00691235,-0.00540312,0.382731,0.00712812,0.0185212,1056,1674,-0.00943945,-0.068
-161,-650,0.0692139,0.0281982,0.00539817,-0.00346487,0.00581538,0.00827809,-0.00634479,0.459819,0.00846708,0.0262409,1063,1674,0.0691606,-0.0282417
-154,-650,0.0281982,0.0643311,0.00585542,-0.00287163,0.00600435,0.00891433,-0.00593054,0.471179,0.00862821,0.0285903,1070,1674,0.0281746,-0.0643403
-147,-650,0.0198975,0.0760498,0.00629294,-0.00305045,0.00606696,0.00927845,-0.00603596,0.457302,0.00890759,0.0361724,1077,1674,0.0198457,-0.0760444
-140,-650,0.0157471,0.0467529,0.00696147,-0.00188995,0.00612183,0.0100898,-0.00501829,0.47242,0.00888497,0.044292,1084,1674,0.0157634,-0.0467031
-133,-650,-0.324585,0.0787354,0.00674012,2.77661e-05,0.0069194,0.0110743,-0.00430644,0.559595,0.00916217,0.0428744,1091,1674,-0.324538,-0.0787344
-126,-650,-0.296265,0.00170898,0.00525832,0.00223034,0.00721785,0.0111193,-0.0036306,0.682019,0.00887415,0.0429619,1098,1674,-0.296214,-0.00172478
-119,-650,-0.185181,0.221924,0,0,0,0,0,0,0,-1,1105,1674,-0.185224,-0.221874
-112,-650,0.598511,-0.52417,0,0,0,0,0,0,0,-1,1112,1674,0.598473,0.524123
-105,-650,0.61145,-0.654541,0.0003435,0.00748321,0.00593659,0.0108406,-0.00301391,1.0561,0.00841362,0.0440617,1119,1674,0.611495,0.65454
-98,-650,0.638062,-0.758423,-0.00168634,0.00800114,0.0057511,0.0106765,-0.00436171,1.13538,0.00893383,0.0437854,1126,1674,0.638002,0.75846
-91,-650,0.575806,-0.754395,-0.00373309,0.007545,0.00488805,0.00936866,-0.00555674,1.21371,0.00871036,0.0450414,1133,1674,0.575849,0.754436
-84,-650,0.379517,-0.566162,0,0,0,0,0,0,0,-1,1140,1674,0.379469,0.566174
-77,-650,0.177124,-0.448853,-0.00673036,0.00431548,0.00225965,0.00475986,-0.00717474,1.37662,0.00693731,0.0422408,1147,1674,0.177166,0.448885
-70,-650,-0.17749,-0.68042,-0.00614366,0.000738642,0.00196676,0.00126104,-0.00666605,1.31118,0.00491856,0.0457747,1154,1674,-0.177477,0.680417
-63,-650,-0.422852,-0.727417,-0.00461335,-0.00309602,0.000695998,-0.00282513,-0.00488424,1.19962,0.00283146,0.0429914,1161,1674,-0.422868,0.727389
-56,-650,-0.256348,-0.625,-0.000994106,-0.00657231,-0.00112987,-0.00077394,-0.00679248,-0.192448,0.00429365,0.0377357,1168,1674,-0.256392,0.624978
-49,-650,-0.117798,-0.371216,0.00210886,-0.0073499,-0.000732469,0.00216525,-0.00740629,-0.0768277,0.0057957,0.0430684,1175,1674,-0.117845,0.371174
-42,-650,-0.0490723,-0.147949,0.00462055,-0.0055498,-0.000794129,0.00468219,-0.00561144,-0.0774571,0.00595109,0.0460025,1182,1674,-0.0490977,0.147897
-35,-650,-0.399536,-3.3186,0,0,0,0,0,0,0,-1,1189,1674,-0.399476,3.31861
-28,-650,-0.0574951,-0.513306,0,0,0,0,0,0,0,-1,1196,1674,-0.0574873,0.513311
-21,-650,0.217773,-2.4696,0,0,0,0,0,0,0,-1,1203,1674,0.217733,2.46955
-14,-650,1.13892,0.777466,0,0,0,0,0,0,0,-1,1210,1674,1.13888,-0.7775
-7,-650,0.92334,0.443237,0,0,0,0,0,0,0,-1,1217,1674,0.923386,-0.443237
0,-650,0.174438,0.741699,0,0,0,0,0,0,0,-1,1224,1674,0.174434,-0.741668
7,-650,0.146362,0.77417,0.00602118,-0.00557893,0.00771494,0.00987312,-0.00943086,0.463074,0.0111461,0.0462127,1231,1674,0.146388,-0.774143
14,-650,0.0932617,0.592163,0.00917351,-0.0113354,0.0114495,0.0142893,-0.0164512,0.420202,0.0177627,0.0448105,1238,1674,0.0932103,-0.592177
21,-650,-0.00292969,0.302368,0,0,0,0,0,0,0,-1,1245,1674,-0.00288586,-0.302348
28,-650,-0.0845947,0.0549316,0,0,0,0,0,0,0,-1,1252,1674,-0.0845345,-0.0549336
35,-650,-0.155884,-1.44971,0.0179717,-0.0340812,0.0229393,0.026638,-0.0427475,0.361217,0.0404181,0.0448987,1259,1674,-0.155842,1.44974
42,-650,-0.185791,-1.21387,0.022227,-0.040594,0.0266524,0.0320108,-0.0503777,0.351817,0.0479594,0.042953,1266,1674,-0.185778,1.2139
49,-650,0.114136,-1.04858,0.0254038,-0.0381622,0.0291836,0.0367698,-0.0495282,0.371393,0.0500054,0.0444634,1273,1674,0.114147,1.04858
56,-650,0.456909,-0.933716,0.0266709,-0.0367511,0.029148,0.0380319,-0.0481121,0.371655,0.0498486,0.0465314,1280,1674,0.456915,0.933693
63,-650,0.746704,-1.01489,0.0256832,-0.0336448,0.0278442,0.036704,-0.0446656,0.376883,0.0470536,0.0425888,1287,1674,0.746644,1.01485
70,-650,0.752686,-0.786255,0,0,0,0,0,0,0,-1,1294,1674,0.752667,0.786223
77,-650,2.17468,-0.467529,0.0189533,-0.0166744,0.0196369,0.0276525,-0.0253736,0.417019,0.030624,0.0467596,1301,1674,2.17463,0.467498
84,-650,1.71777,-0.268677,0.0169269,-0.00639713,0.0124602,0.0223312,-0.0118015,0.409239,0.0200166,0.0477898,1308,1674,1.71775,0.26865
91,-650,1.86328,0.135132,0.0127337,-3.4262e-05,0.00666042,0.0155756,-0.00287613,0.403293,0.0114633,0.0452054,1315,1674,1.86329,-0.135188
98,-650,1.9856,0.497437,0.00885445,0.00837994,-0.000128312,0.00888692,0.00834746,-0.247885,0.00575323,0.0456563,1322,1674,1.98557,-0.497406
105,-650,1.96008,0.767334,0,0,0,0,0,0,0,-1,1329,1674,1.96012,-0.767361
112,-650,1.27441,0.213013,0.007285,0.0189988,-0.0127078,0.0271344,-0.00085064,-1.00133,0.0183797,0.0404313,1336,1674,1.27438,-0.212985
119,-650,-0.041626,-1.23889,0.00719894,0.0229015,-0.0178812,0.0345792,-0.00447872,-0.992267,0.0246815,0.043386,1343,1674,-0.0415744,1.23889
126,-650,0.111572,-1.24414,0,0,0,0,0,0,0,-1,1350,1674,0.111544,1.24412
133,-650,2.19714,-0.836182,0,0,0,0,0,0,0,-1,1357,1674,2.19717,0.836123
140,-650,-0.509155,2.69263,0.0125791,0.028659,-0.0237983,0.0457388,-0.00450068,-0.948298,0.0320981,0.0445729,1364,1674,-0.509097,-2.69262
147,-650,-0.584229,2.53503,0.012725,0.0283886,-0.0230023,0.0448558,-0.00374228,-0.949482,0.0312262,0.045379,1371,1674,-0.584211,-2.53501
154,-650,-0.616333,2.12219,0.0115455,0.0256693,-0.0211028,0.0408605,-0.00364564,-0.946862,0.0285333,0.0489542,1378,1674,-0.616295,-2.12217
161,-650,-0.216187,1.50574,0.0102305,0.025542,-0.0174699,0.03696,-0.00118753,-0.991907,0.0250452,0.0444342,1385,1674,-0.216145,-1.5057
168,-650,0.0845947,0.710571,0.00953436,0.0257833,-0.013933,0.0337875,0.00153014,-1.04935,0.0220327,0.0442065,1392,1674,0.0845935,-0.71053
175,-650,-0.0891113,0.528931,0.00730065,0.0248891,-0.0109174,0.0301137,0.00207606,-1.12445,0.0194208,0.0443159,1399,1674,-0.0891007,-0.528915
182,-650,-0.0888672,0.230591,0.0040932,0.0199626,-0.00902723,0.0240466,9.14279e-06,-1.14594,0.016028,0.0455312,1406,1674,-0.0889102,-0.230588
189,-650,-0.0273438,0.0194092,0.002434,0.016511,-0.0067356,0.0192146,-0.000269618,-1.18909,0.0129005,0.0455891,1413,1674,-0.0273309,-0.0194591
196,-650,0.0927734,-0.12915,0.00182597,0.0147106,-0.00602127,0.0170864,-0.000549829,-1.19498,0.0115786,0.0426282,1420,1674,0.0927766,0.129147
203,-650,0.207031,-0.200684,0.000847952,0.00960305,-0.00461928,0.0115895,-0.00113852,-1.16467,0.00813246,0.0429404,1427,1674,0.207012,0.200742
210,-650,0.421265,-0.15918,0,0,0,0,0,0,0,-1,1434,1674,0.421295,0.15915
217,-650,0.233154,0.029541,0,0,0,0,0,0,0,-1,1441,1674,0.233127,-0.0294846
224,-650,-1.33789,-0.530396,0,0,0,0,0,0,0,-1,1448,1674,-1.33787,0.530364
231,-650,-0.817017,-0.127197,0,0,0,0,0,0,0,-1,1455,1674,-0.817003,0.127235
238,-650,0.924927,0.595215,0,0,0,0,0,0,0,-1,1462,1674,0.924949,-0.595201
245,-650,0.536011,0.233398,0.00143181,0.00149445,-0.00647889,0.00794209,-0.00501583,-0.787815,0.00754458,0.0386754,1469,1674,0.536016,-0.233407
252,-650,0.326294,-0.191528,0.00141832,0.000690346,-0.00666197,0.00772624,-0.00561757,-0.758107,0.00773605,0.0397672,1476,1674,0.326255,0.191485
259,-650,0.422607,-0.0227051,0,0,0,0,0,0,0,-1,1483,1674,0.422632,0.022705
266,-650,-0.0222168,0.284424,0.00218017,-0.000745982,-0.00568918,0.00659139,-0.00515721,-0.659542,0.00679988,0.0427893,1490,1674,-0.0222039,-0.284462
273,-650,-0.0322266,-0.0375977,0.00188526,-0.00117287,-0.00478125,0.00537599,-0.0046636,-0.630635,0.00580123,0.0439422,1497,1674,-0.0322289,0.0376553
280,-650,0.00891113,-0.100708,0.00181872,-0.00188731,-0.00390939,0.00429202,-0.00436061,-0.564086,0.00499565,0.0418046,1504,1674,0.00885341,0.100762
287,-650,-0.0806885,0.0515137,0.00268539,-0.00233146,-0.00321433,0.00425423,-0.0039003,-0.454064,0.0047095,0.0377294,1511,1674,-0.0807413,-0.0514691
294,-650,-0.11792,0.0578613,0.00307667,-0.00268434,-0.0026285,0.00409569,-0.00370336,-0.369843,0.00450468,0.0337802,1518,1674,-0.117952,-0.0579126
301,-650,-0.114136,0.00109863,0.00336925,-0.00228591,-0.00200813,0.00400979,-0.00292644,-0.308768,0.00402088,0.0260904,1525,1674,-0.114139,-0.00110473
308,-650,-0.0693359,0.026001,0.00384421,-0.00148121,-0.00118776,0.00409711,-0.00173411,-0.209792,0.00345757,0.0147629,1532,1674,-0.0693595,-0.0260025
315,-650,-0.0454102,0.067627,0.00393615,-0.00108593,-0.00083546,0.00407149,-0.00122126,-0.160597,0.00320006,0.00949818,1539,1674,-0.0454209,-0.0676039
322,-650,-0.0274658,0.0634766,0.00372376,-0.000810906,-0.00033388,0.00374821,-0.000835357,-0.0731029,0.00281883,0.0089681,1546,1674,-0.0274226,-0.0635079
329,-650,-0.0471191,0.0535889,0.00320397,-0.0003215,-5.94706e-05,0.00320497,-0.000322503,-0.0168624,0.00225186,0.0153726,1553,1674,-0.0471515,-0.0535739
336,-650,-0.0611572,0.078125,0.00260492,0.000308215,1.02529e-05,0.00260497,0.000308169,0.00446404,0.00164358,0.0145669,1560,1674,-0.0611932,-0.0780757
343,-650,-0.0517578,0.0827637,0.00208881,0.000785299,5.27505e-05,0.00209094,0.000783168,0.04038,0.0012198,0.0132867,1567,1674,-0.0518033,-0.082751
350,-650,-0.0352783,0.0629883,0.00153189,0.00121553,8.86382e-05,0.00155503,0.00119239,0.255387,0.000939434,0.0147763,1574,1674,-0.0352929,-0.0630448
357,-650,-0.0335693,0.0585938,0.000949546,0.00147529,7.74372e-05,0.00148646,0.000938378,1.42756,0.000868011,0.0119067,1581,1674,-0.0335738,-0.0586314
364,-650,-0.0411377,0.0631104,0.000257351,0.00146647,1.50586e-05,0.00146666,0.000257163,1.55834,0.000904322,0.00828836,1588,1674,-0.0411369,-0.0630871
371,-650,-0.0621338,0.0551758,-6.41674e-05,0.00130622,-7.99923e-05,0.00131088,-6.88209e-05,-1.51269,0.000897737,0.0101737,1595,1674,-0.0621047,-0.055225
378,-650,-0.0545654,0.0579834,0.000287558,0.00115102,-0.000351227,0.00127584,0.000162736,-1.22933,0.00080184,0.0114619,1602,1674,-0.0545181,-0.0579665
385,-650,-0.0649414,0.0528564,0.000783214,0.00115708,-0.000754265,0.00174723,0.000193064,-0.906868,0.0011061,0.0133844,1609,1674,-0.0649219,-0.0529153
392,-650,-0.0566406,0.0614014,0.000857437,0.00140701,-0.00118758,0.00235118,-8.67324e-05,-0.899089,0.00159715,0.0170328,1616,1674,-0.0566695,-0.0613738
399,-650,-0.0513916,0.0877686,0.00116619,0.00192428,-0.00191674,0.0034991,-0.000408622,-0.883017,0.00248018,0.0144057,1623,1674,-0.05143,-0.0878159
406,-650,-0.0582275,0.0964355,0.00151992,0.00245007,-0.00274759,0.00477166,-0.000801674,-0.869237,0.00347926,0.0128443,1630,1674,-0.0582463,-0.0964334
413,-650,-0.0526123,0.0931396,0.00187753,0.00324254,-0.00359864,0.00622282,-0.00110275,-0.879113,0.00456079,0.0133681,1637,1674,-0.0526683,-0.0931947
420,-650,-0.0456543,0.0716553,0.00211757,0.00413353,-0.00424731,0.00749083,-0.00123973,-0.901904,0.00545429,0.0137795,1644,1674,-0.0456827,-0.0716957
427,-650,-0.0429688,0.0620117,0.00179826,0.00529203,-0.00482951,0.00868088,-0.00159058,-0.958933,0.00638384,0.0132896,1651,1674,-0.0429121,-0.0620452
434,-650,-0.0336914,0.0858154,0.00131011,0.00638465,-0.00523757,0.00966716,-0.0019724,-1.01096,0.00719296,0.0150856,1658,1674,-0.0336782,-0.0858268
441,-650,-0.0715332,0.0671387,0.000878726,0.00718906,-0.00544963,0.010331,-0.00226321,-1.0478,0.00775265,0.0230342,1665,1674,-0.0714862,-0.0671481
448,-650,-0.0882568,0.0670166,9.11505e-05,0.00772445,-0.0054424,0.0105551,-0.00273949,-1.09119,0.0081057,0.0344938,1672,1674,-0.0882572,-0.0670736
455,-650,-0.110962,-0.00622559,-0.000905268,0.00797516,-0.00522337,0.0103905,-0.00332064,-1.13766,0.00825949,0.0406748,1679,1674,-0.110954,0.00622537
462,-650,-0.0994873,-0.0469971,-0.0018903,0.00806457,-0.00512313,0.0102301,-0.00405578,-1.17089,0.00850083,0.046845,1686,1674,-0.0994354,0.0470472
469,-650,0.0102539,0.0147705,-0.00296802,0.00855737,-0.00480237,0.0102961,-0.00470675,-1.22342,0.00886001,0.0468722,1693,1674,0.0102249,-0.0147433
476,-650,0.0269775,-0.0192871,-0.00363584,0.00938186,-0.00448373,0.0107767,-0.00503072,-1.26919,0.00932526,0.047512,1700,1674,0.0270201,0.0192433
483,-650,-0.276123,0.289429,-0.00498175,0.00965858,-0.00381335,0.0105923,-0.00591546,-1.33067,0.00965741,0.0463519,1707,1674,-0.276118,-0.289457
490,-650,-0.234619,0.259277,-0.00594325,0.00959851,-0.00314781,0.0102119,-0.0065566,-1.37836,0.00975764,0.0421485,1714,1674,-0.234641,-0.259263
497,-650,-0.00805664,0.137939,-0.00553081,0.0103199,-0.0033701,0.0110067,-0.00621758,-1.36976,0.0100718,0.0397058,1721,1674,-0.00810846,-0.137886
504,-650,-0.340942,-0.171143,-0.0047359,0.0116211,-0.00364558,0.0123968,-0.00551163,-1.36114,0.0105911,0.0410052,1728,1674,-0.340953,0.171089
511,-650,-0.152344,-0.356445,-0.00334434,0.0155118,-0.00515382,0.0168285,-0.00466105,-1.32066,0.0130531,0.0436888,1735,1674,-0.152307,0.356439
518,-650,0,0,0,0,0,0,0,0,0,-1,1742,1674,0,0
525,-650,0,0,0,0,0,0,0,0,0,-1,1749,1674,0,0
532,-650,0,0,0,0,0,0,0,0,0,-1,1756,1674,0,0
539,-650,0,0,0,0,0,0,0,0,0,-1,1763,1674,0,0
546,-650,0,0,0,0,0,0,0,0,0,-1,1770,1674,0,0
553,-650,0,0,0,0,0,0,0,0,0,-1,1777,1674,0,0
560,-650,0,0,0,0,0,0,0,0,0,-1,1784,1674,0,0
567,-650,0,0,0,0,0,0,0,0,0,-1,1791,1674,0,0
574,-650,0,0,0,0,0,0,0,0,0,-1,1798,1674,0,0
581,-650,0,0,0,0,0,0,0,0,0,-1,1805,1674,0,0
588,-650,0,0,0,0,0,0,0,0,0,-1,1812,1674,0,0
595,-650,0,0,0,0,0,0,0,0,0,-1,1819,1674,0,0
602,-650,0,0,0,0,0,0,0,0,0,-1,1826,1674,0,0
609,-650,0,0,0,0,0,0,0,0,0,-1,1833,1674,0,0
616,-650,0,0,0,0,0,0,0,0,0,-1,1840,1674,0,0
623,-650,0,0,0,0,0,0,0,0,0,-1,1847,1674,0,0
630,-650,0,0,0,0,0,0,0,0,0,-1,1854,1674,0,0
637,-650,0,0,0,0,0,0,0,0,0,-1,1861,1674,0,0
644,-650,0,0,0,0,0,0,0,0,0,-1,1868,1674,0,0
651,-650,0,0,0,0,0,0,0,0,0,-1,1875,1674,0,0
658,-650,0,0,0,0,0,0,0,0,0,-1,1882,1674,0,0
665,-650,0,0,0,0,0,0,0,0,0,-1,1889,1674,0,0
672,-650,0,0,0,0,0,0,0,0,0,-1,1896,1674,0,0
679,-650,0,0,0,0,0,0,0,0,0,-1,1903,1674,0,0
686,-650,0,0,0,0,0,0,0,0,0,-1,1910,1674,0,0
693,-650,0,0,0,0,0,0,0,0,0,-1,1917,1674,0,0
700,-650,0,0,0,0,0,0,0,0,0,-1,1924,1674,0,0
707,-650,0,0,0,0,0,0,0,0,0,-1,1931,1674,0,0
714,-650,0,0,0,0,0,0,0,0,0,-1,1938,1674,0,0
721,-650,0,0,0,0,0,0,0,0,0,-1,1945,1674,0,0
728,-650,0,0,0,0,0,0,0,0,0,-1,1952,1674,0,0
735,-650,0,0,0,0,0,0,0,0,0,-1,1959,1674,0,0
742,-650,0,0,0,0,0,0,0,0,0,-1,1966,1674,0,0
749,-650,0,0,0,0,0,0,0,0,0,-1,1973,1674,0,0
756,-650,0,0,0,0,0,0,0,0,0,-1,1980,1674,0,0
763,-650,0,0,0,0,0,0,0,0,0,-1,1987,1674,0,0
770,-650,0,0,0,0,0,0,0,0,0,-1,1994,1674,0,0
777,-650,0,0,0,0,0,0,0,0,0,-1,2001,1674,0,0
784,-650,0,0,0,0,0,0,0,0,0,-1,2008,1674,0,0
791,-650,0,0,0,0,0,0,0,0,0,-1,2015,1674,0,0
798,-650,0,0,0,0,0,0,0,0,0,-1,2022,1674,0,0
805,-650,0,0,0,0,0,0,0,0,0,-1,2029,1674,0,0
812,-650,0,0,0,0,0,0,0,0,0,-1,2036,1674,0,0
-700,-657,0,0,0,0,0,0,0,0,0,-1,524,1681,0,0
-693,-657,0,0,0,0,0,0,0,0,0,-1,531,1681,0,0
-686,-657,0,0,0,0,0,0,0,0,0,-1,538,1681,0,0
-679,-657,0,0,0,0,0,0,0,0,0,-1,545,1681,0,0
-672,-657,0,0,0,0,0,0,0,0,0,-1,552,1681,0,0
-665,-657,0,0,0,0,0,0,0,0,0,-1,559,1681,0,0
-658,-657,0,0,0,0,0,0,0,0,0,-1,566,1681,0,0
-651,-657,0,0,0,0,0,0,0,0,0,-1,573,1681,0,0
-644,-657,0,0,0,0,0,0,0,0,0,-1,580,1681,0,0
-637,-657,0,0,0,0,0,0,0,0,0,-1,587,1681,0,0
-630,-657,0,0,0,0,0,0,0,0,0,-1,594,1681,0,0
-623,-657,0,0,0,0,0,0,0,0,0,-1,601,1681,0,0
-616,-657,0,0,0,0,0,0,0,0,0,-1,608,1681,0,0
-609,-657,0,0,0,0,0,0,0,0,0,-1,615,1681,0,0
-602,-657,0,0,0,0,0,0,0,0,0,-1,622,1681,0,0
-595,-657,0,0,0,0,0,0,0,0,0,-1,629,1681,0,0
-588,-657,0,0,0,0,0,0,0,0,0,-1,636,1681,0,0
-581,-657,0,0,0,0,0,0,0,0,0,-1,643,1681,0,0
-574,-657,0,0,0,0,0,0,0,0,0,-1,650,1681,0,0
-567,-657,0,0,0,0,0,0,0,0,0,-1,657,1681,0,0
-560,-657,0,0,0,0,0,0,0,0,0,-1,664,1681,0,0
-553,-657,0,0,0,0,0,0,0,0,0,-1,671,1681,0,0
-546,-657,0,0,0,0,0,0,0,0,0,-1,678,1681,0,0
-539,-657,0,0,0,0,0,0,0,0,0,-1,685,1681,0,0
-532,-657,0,0,0,0,0,0,0,0,0,-1,692,1681,0,0
-525,-657,0,0,0,0,0,0,0,0,0,-1,699,1681,0,0
-518,-657,0,0,0,0,0,0,0,0,0,-1,706,1681,0,0
-511,-657,0,0,0,0,0,0,0,0,0,-1,713,1681,0,0
-504,-657,0,0,0,0,0,0,0,0,0,-1,720,1681,0,0
-497,-657,0,0,0,0,0,0,0,0,0,-1,727,1681,0,0
-490,-657,0,0,0,0,0,0,0,0,0,-1,734,1681,0,0
-483,-657,0,0,0,0,0,0,0,0,0,-1,741,1681,0,0
-476,-657,0,0,0,0,0,0,0,0,0,-1,748,1681,0,0
-469,-657,0,0,0,0,0,0,0,0,0,-1,755,1681,0,0
-462,-657,0,0,0,0,0,0,0,0,0,-1,762,1681,0,0
-455,-657,0,0,0,0,0,0,0,0,0,-1,769,1681,0,0
-448,-657,0,0,0,0,0,0,0,0,0,-1,776,1681,0,0
-441,-657,0,0,0,0,0,0,0,0,0,-1,783,1681,0,0
-434,-657,0,0,0,0,0,0,0,0,0,-1,790,1681,0,0
-427,-657,0,0,0,0,0,0,0,0,0,-1,797,1681,0,0
-420,-657,0,0,0,0,0,0,0,0,0,-1,804,1681,0,0
-413,-657,0,0,0,0,0,0,0,0,0,-1,811,1681,0,0
-406,-657,0,0,0,0,0,0,0,0,0,-1,818,1681,0,0
-399,-657,0,0,0,0,0,0,0,0,0,-1,825,1681,0,0
-392,-657,0,0,0,0,0,0,0,0,0,-1,832,1681,0,0
-385,-657,-0.0737305,0.258301,0,0,0,0,0,0,0,-1,839,1681,-0.0737046,-0.258336
-378,-657,-0.113708,0.221802,0,0,0,0,0,0,0,-1,846,1681,-0.113732,-0.221757
-371,-657,0.171631,-0.791138,0,0,0,0,0,0,0,-1,853,1681,0.171636,0.7911
-364,-657,-2.69727,1.8252,0,0,0,0,0,0,0,-1,860,1681,-2.69727,-1.82514
-357,-657,0.370178,0.380127,0,0,0,0,0,0,0,-1,867,1681,0.370203,-0.380127
-350,-657,-0.106384,0.139648,-0.016686,-0.0175777,-0.00232987,-0.0147597,-0.019504,-0.690858,0.0117451,0.0485679,874,1681,-0.106383,-0.139646
-343,-657,-0.477234,-0.296997,-0.0140309,-0.0185301,-0.00127993,-0.0136923,-0.0188687,-0.258644,0.0112576,0.0466309,881,1681,-0.477241,0.29697
-336,-657,-0.691772,-0.887329,-0.0101258,-0.0198803,-5.16782e-05,-0.0101255,-0.0198806,-0.00529768,0.0114787,0.0481793,888,1681,-0.691761,0.887332
-329,-657,0.101257,-0.252686,0,0,0,0,0,0,0,-1,895,1681,0.101246,0.252659
-322,-657,0.0131226,-0.0843506,0,0,0,0,0,0,0,-1,902,1681,0.0131067,0.084335
-315,-657,0.06604,-0.00354004,0.00026109,-0.019479,0.00258844,0.000594858,-0.0198128,0.128238,0.0134112,0.0414151,909,1681,0.0660216,0.00348491
-308,-657,-0.104919,0.237793,0.00261128,-0.017846,0.00274337,0.00297279,-0.0182075,0.131019,0.013241,0.0371057,916,1681,-0.104917,-0.237746
-301,-657,-0.0623779,0.0698242,0.00441968,-0.0157693,0.00289797,0.00482742,-0.016177,0.139783,0.0127033,0.0305213,923,1681,-0.0623568,-0.0698152
-294,-657,-0.0324707,0.0424805,0.00571222,-0.0133518,0.00296535,0.00616282,-0.0138024,0.150802,0.0118048,0.0162317,930,1681,-0.0324675,-0.0424495
-287,-657,-0.0466309,0.0524902,0.0067495,-0.0112891,0.00317401,0.00729169,-0.0118313,0.169189,0.0111439,0.0108175,937,1681,-0.046653,-0.0525248
-280,-657,-0.0394287,0.0482178,0.00672671,-0.00869204,0.00325024,0.00738385,-0.00934918,0.199492,0.009683,0.0119452,944,1681,-0.0394294,-0.0482308
-273,-657,-0.0366821,0.0480957,0.00591883,-0.00666766,0.00281014,0.00651774,-0.00726657,0.209983,0.00796229,0.00947478,951,1681,-0.0366518,-0.0481381
-266,-657,-0.0391235,0.0543213,0.0049193,-0.00424526,0.00202347,0.00534619,-0.00467215,0.207917,0.00578845,0.0139125,958,1681,-0.0391525,-0.0543573
-259,-657,-0.0584106,0.0279541,0.0038242,-0.00239812,0.0014837,0.00415987,-0.0027338,0.222497,0.00400835,0.0173199,965,1681,-0.0584131,-0.0279365
-252,-657,-0.045166,0.0158691,0.00287094,-0.000784971,0.00177023,0.00358761,-0.00150164,0.384678,0.00301943,0.0121874,972,1681,-0.045183,-0.0159269
-245,-657,-0.0525513,0.0498047,0.00215463,-6.81352e-05,0.0018885,0.00323451,-0.00114801,0.519438,0.0026241,0.0142447,979,1681,-0.0525219,-0.0498099
-238,-657,-0.0327759,0.0679932,0.00165635,0.000465698,0.00138569,0.00256919,-0.00044714,0.582508,0.00187965,0.0193491,986,1681,-0.0327726,-0.0679472
-231,-657,-0.0370483,0.0744629,0.00108833,0.00106617,0.000957995,0.00203531,0.000119189,0.779616,0.00131894,0.0209073,993,1681,-0.0370196,-0.0744351
-224,-657,-0.0363159,0.0686035,0.00124467,0.00128083,0.000690675,0.00195366,0.000571839,0.798484,0.00115981,0.0159951,1000,1681,-0.036316,-0.0686318
-217,-657,-0.0290527,0.0648193,0.00183828,0.0017171,0.000629133,0.00240973,0.00114565,0.737394,0.00139182,0.0100092,1007,1681,-0.0290624,-0.0648149
-210,-657,-0.0308838,0.0527344,0.00232405,0.00205446,0.000836156,0.00303621,0.0013423,0.705482,0.00175687,0.0102113,1014,1681,-0.0308584,-0.0527008
-203,-657,-0.0481567,0.0583496,0.00269221,0.00203948,0.00119194,0.00360165,0.00113004,0.651769,0.00212696,0.0117053,1021,1681,-0.0481519,-0.0583549
-196,-657,-0.0437012,0.0532227,0.0029431,0.00190599,0.00161906,0.00412462,0.000724476,0.630419,0.00254289,0.0122455,1028,1681,-0.0436853,-0.0532111
-189,-657,-0.0267334,0.0418701,0.00297169,0.00115093,0.00220614,0.00444791,-0.000325287,0.589714,0.00307944,0.00957875,1035,1681,-0.0267395,-0.0418991
-182,-657,-0.0307617,0.0537109,0.00289378,-4.27357e-05,0.00270676,0.00450486,-0.00165382,0.536888,0.00368053,0.00802687,1042,1681,-0.0307145,-0.0536551
-175,-657,-0.0313721,0.050293,0.00299973,-0.00148252,0.00295536,0.00446762,-0.00295042,0.460994,0.00431256,0.00943409,1049,1681,-0.0313148,-0.0502742
-168,-657,-0.0289307,0.0441895,0.0033723,-0.00160643,0.00358631,0.00524855,-0.00348268,0.48201,0.00507523,0.0114983,1056,1681,-0.0289484,-0.044148
-161,-657,-0.0175781,0.0472412,0.00377694,-0.00128385,0.00476284,0.00663983,-0.00414674,0.54122,0.00628283,0.0111015,1063,1681,-0.0175507,-0.0472033
-154,-657,-0.0308838,0.065918,0.0044212,-0.000766143,0.0049159,0.00738569,-0.00373063,0.542653,0.00653263,0.0104074,1070,1681,-0.0309378,-0.0659568
-147,-657,-0.0428467,0.0340576,0.00506242,-0.000941982,0.00487212,0.00778305,-0.00366261,0.509275,0.00674938,0.0143983,1077,1681,-0.0427896,-0.0340093
-140,-657,-0.0716553,0.00402832,0.00563921,-0.000138293,0.0050928,0.00860549,-0.00310458,0.527413,0.00700506,0.0251511,1084,1681,-0.0717004,-0.00403559
-133,-657,-0.188843,0.15918,0.00543183,0.00117274,0.00596284,0.00963398,-0.00302941,0.613889,0.00763548,0.0324247,1091,1681,-0.188825,-0.159157
-126,-657,-0.171265,0.185791,0.00422002,0.00263853,0.00633924,0.00981764,-0.00295909,0.723349,0.0077228,0.0351014,1098,1681,-0.17127,-0.185835
-119,-657,-0.14917,0.137085,0.00333679,0.00399436,0.00630001,0.00997416,-0.00264301,0.811468,0.0076835,0.044957,1105,1681,-0.149113,-0.137094
-112,-657,0.407959,-0.276367,0.00208879,0.00485721,0.00601577,0.00964597,-0.00269997,0.898478,0.00749454,0.045126,1112,1681,0.40797,0.27639
-105,-657,0.438721,-0.438599,0.000538698,0.00519245,0.00570397,0.0090259,-0.00329476,0.979064,0.0073654,0.0469707,1119,1681,0.43874,0.438622
-98,-657,0.467529,-0.50769,-0.000996656,0.00498694,0.00553199,0.00828432,-0.00429404,1.03328,0.00738292,0.0443109,1126,1681,0.467477,0.507668
-91,-657,0.494507,-0.599976,-0.00254263,0.00407852,0.00464509,0.00647204,-0.00493616,1.095,0.00660639,0.0422008,1133,1681,0.494553,0.599951
-84,-657,0.388794,-0.616821,-0.00388348,0.00215952,0.0032708,0.00359084,-0.0053148,1.1583,0.00517368,0.0429562,1140,1681,0.38878,0.616792
-77,-657,-0.471313,0.00146484,0,0,0,0,0,0,0,-1,1147,1681,-0.47135,-0.00140619
-70,-657,-0.108398,-0.583862,-0.00364421,-0.00394073,0.0015579,-0.00222754,-0.00535741,0.737958,0.00310769,0.047946,1154,1681,-0.10836,0.583812
-63,-657,0.290771,-0.294922,-0.00224686,-0.0077207,0.000370208,-0.00222193,-0.00774563,0.0672241,0.00460538,0.0439657,1161,1681,0.290832,0.294884
-56,-657,-0.143677,-0.356079,0.000595976,-0.0108378,-0.00121176,0.00072299,-0.0109648,-0.104435,0.0075624,0.0388831,1168,1681,-0.143661,0.35606
-49,-657,-0.106445,-0.186768,0.00308515,-0.0117852,-0.00091813,0.00314162,-0.0118417,-0.0614313,0.00912377,0.045353,1175,1681,-0.106447,0.186776
-42,-657,-0.0803223,-0.0483398,0.00512884,-0.0104605,-0.000818987,0.00517174,-0.0105034,-0.0523431,0.00922289,0.0465316,1182,1681,-0.080354,0.0483277
-35,-657,-0.377075,-2.67358,0.00758682,-0.00797914,-0.000919213,0.00764092,-0.00803323,-0.0587804,0.00905042,0.0492175,1189,1681,-0.377121,2.67361
-28,-657,-0.21521,-2.42688,0.0101976,-0.00542666,-0.00159715,0.0103592,-0.00558826,-0.100832,0.00934361,0.0448228,1196,1681,-0.215186,2.42682
-21,-657,0.182739,-2.09985,0.00707939,-0.00322279,0.000577294,0.00711164,-0.00325503,0.0558033,0.0061217,0.0444669,1203,1681,0.182711,2.09988
-14,-657,1.16296,0.198853,0,0,0,0,0,0,0,-1,1210,1681,1.163,-0.198809
-7,-657,0.783203,0.319458,0,0,0,0,0,0,0,-1,1217,1681,0.783145,-0.319447
0,-657,0.270752,0.461182,0.00279026,-0.00342588,0.00701052,0.00735079,-0.00798641,0.576746,0.00885747,0.0455992,1224,1681,0.270712,-0.461239
7,-657,0.119019,0.603271,0.00318985,-0.00620492,0.00831581,0.00804328,-0.0110584,0.528303,0.011074,0.0444546,1231,1681,0.119021,-0.603306
14,-657,0.0836182,0.727295,0.00546505,-0.0101247,0.0112968,0.0113952,-0.0160549,0.483404,0.0159243,0.0426088,1238,1681,0.0836734,-0.727325
21,-657,0.111328,0.699341,0,0,0,0,0,0,0,-1,1245,1681,0.111379,-0.699301
28,-657,1.12366,-0.942383,0.01105,-0.0205916,0.016242,0.017903,-0.0274446,0.399267,0.026374,0.0421071,1252,1681,1.1237,0.942325
35,-657,-2.41931,1.4729,0.0136088,-0.0254071,0.0182868,0.0208397,-0.0326381,0.37655,0.0311249,0.0430025,1259,1681,-2.41929,-1.47286
42,-657,-1.46338,1.24561,0.017605,-0.0304091,0.0204967,0.0251646,-0.0379687,0.353341,0.036699,0.0431029,1266,1681,-1.4634,-1.24558
49,-657,0.0699463,-0.639648,0.0210716,-0.0294181,0.0220958,0.0293757,-0.0377221,0.359488,0.0388387,0.0434107,1273,1681,0.0699552,0.639708
56,-657,0.25061,-0.448608,0.0230718,-0.0283532,0.0219648,0.0311763,-0.0364576,0.353477,0.0390881,0.0441916,1280,1681,0.250557,0.448575
63,-657,0.134888,-0.268433,0.0227313,-0.0264969,0.020777,0.0303281,-0.0340936,0.350532,0.037215,0.0470774,1287,1681,0.134929,0.268461
70,-657,0.849487,-0.26123,0.0210006,-0.0227962,0.0185842,0.0278235,-0.0296191,0.351856,0.0331699,0.0488498,1294,1681,0.849548,0.261199
77,-657,1.62341,-0.180664,0.018011,-0.0141243,0.0152303,0.0240823,-0.0201955,0.379325,0.0255966,0.0479488,1301,1681,1.62336,0.180723
84,-657,1.5592,0.154907,0.01686,-0.00616965,0.00992478,0.0205469,-0.00985655,0.355684,0.0179115,0.0451579,1308,1681,1.55926,-0.154936
91,-657,1.66296,0.50293,0.0134102,-0.00143234,0.00588627,0.0154612,-0.00348332,0.335279,0.0116436,0.0435694,1315,1681,1.66291,-0.502949
98,-657,1.75415,0.753174,0.0102939,0.00676281,0.000169642,0.0103021,0.00675468,0.0478949,0.00604322,0.0437632,1322,1681,1.7542,-0.753142
105,-657,1.5979,0.744385,0.00905795,0.0117533,-0.00517381,0.0157521,0.00505916,-0.912805,0.00928632,0.0437892,1329,1681,1.59793,-0.744433
112,-657,1.63562,0.863892,0.00868184,0.0176006,-0.0104376,0.0244915,0.00179095,-0.987283,0.0157646,0.0411037,1336,1681,1.63568,-0.86385
119,-657,1.64185,1.04492,0.0085054,0.0221348,-0.0150411,0.031833,-0.00119276,-0.998101,0.0216306,0.0462765,1343,1681,1.64185,-1.04487
126,-657,1.65259,1.25525,0,0,0,0,0,0,0,-1,1350,1681,1.65264,-1.25531
133,-657,0.0994873,0.588013,0,0,0,0,0,0,0,-1,1357,1681,0.0994718,-0.588069
140,-657,-0.570313,3.41028,0,0,0,0,0,0,0,-1,1364,1681,-0.570275,-3.4103
147,-657,-0.697876,3.31812,0,0,0,0,0,0,0,-1,1371,1681,-0.697869,-3.31806
154,-657,0.765747,-1.36658,0,0,0,0,0,0,0,-1,1378,1681,0.765762,1.36654
161,-657,0.524414,-0.733643,0.00919577,0.0274946,-0.0165923,0.0372929,-0.000602564,-1.03737,0.0250652,0.044677,1385,1681,0.52445,0.733653
168,-657,0.290161,-0.353516,0.00834572,0.0274339,-0.0135498,0.0344635,0.00131617,-1.09223,0.0225497,0.0394195,1392,1681,0.290142,0.353559
175,-657,-0.0561523,-0.60022,0.00627677,0.0260717,-0.010843,0.0308552,0.00149332,-1.15532,0.0200909,0.0423534,1399,1681,-0.0561742,0.600258
182,-657,-0.0743408,-0.153809,0.00337969,0.0204081,-0.00920765,0.0244347,-0.000646944,-1.15854,0.0165097,0.0447798,1406,1681,-0.0743566,0.153829
189,-657,-0.0754395,0.177612,0.00195374,0.0166903,-0.00682235,0.0193638,-0.000719685,-1.19732,0.0131556,0.0442731,1413,1681,-0.0754262,-0.177625
196,-657,-0.0389404,0.0643311,0.0013465,0.0146126,-0.00577449,0.016774,-0.000814889,-1.21264,0.0114639,0.0431134,1420,1681,-0.0389999,-0.064341
203,-657,-0.0440674,-0.0244141,0.000336223,0.00936732,-0.00391909,0.0108309,-0.00112731,-1.2134,0.00762418,0.0421555,1427,1681,-0.0440209,0.0243976
210,-657,-0.166016,0.0245361,0.000265894,0.00776356,-0.00336695,0.00905358,-0.00102413,-1.20491,0.00640445,0.0404276,1434,1681,-0.166,-0.0245295
217,-657,-0.451538,-0.211182,0.000699036,0.00569372,-0.00327143,0.00731208,-0.000919323,-1.1114,0.00520828,0.0383574,1441,1681,-0.451537,0.211192
224,-657,-0.159302,-0.418579,0,0,0,0,0,0,0,-1,1448,1681,-0.159324,0.418599
231,-657,-0.724121,-0.304565,0,0,0,0,0,0,0,-1,1455,1681,-0.724092,0.304518
238,-657,-0.0178223,0.135254,0.000911077,0.00289747,-0.00421603,0.00623571,-0.00242716,-0.901077,0.00516012,0.0405784,1462,1681,-0.0178509,-0.135201
245,-657,0.280396,0.218384,0.000870376,0.0027532,-0.0044615,0.00637153,-0.00274796,-0.889377,0.00540191,0.0380335,1469,1681,0.280449,-0.21843
252,-657,0.362305,-0.00134277,0.000804547,0.00212255,-0.00451631,0.00602769,-0.00310059,-0.857845,0.00535977,0.0419358,1476,1681,0.362357,0.00138193
259,-657,0.296997,0.0800781,0.0010241,0.00150342,-0.00427469,0.00554517,-0.00301765,-0.813401,0.00501502,0.0448491,1483,1681,0.297015,-0.0800328
266,-657,0.0583496,0.233765,0.00113084,0.000786787,-0.00370384,0.00466665,-0.00274902,-0.762192,0.00432889,0.0412412,1490,1681,0.0584031,-0.233782
273,-657,-0.0957031,0.145264,0.000716358,0.000265552,-0.00294248,0.00344205,-0.00246015,-0.747171,0.00342332,0.0408654,1497,1681,-0.0957246,-0.145218
280,-657,-0.151733,0.0206299,0.000483729,-0.000500492,-0.0022954,0.00233918,-0.00235594,-0.679802,0.00271073,0.0344882,1504,1681,-0.151684,-0.0205822
287,-657,-0.0720215,0.0611572,0.00105027,-0.00103556,-0.00185191,0.00213273,-0.00211803,-0.528954,0.00245418,0.02652,1511,1681,-0.0720763,-0.0611802
294,-657,-0.0290527,0.0605469,0.00126679,-0.00147805,-0.00147577,0.00190967,-0.00212093,-0.410834,0.00232813,0.0194983,1518,1681,-0.0290003,-0.0605893
301,-657,-0.0231934,0.055542,0.00163686,-0.00146227,-0.00114257,0.00201255,-0.00183796,-0.317677,0.00222386,0.0138709,1525,1681,-0.0232281,-0.0556002
308,-657,-0.0288086,0.057373,0.0020747,-0.00102875,-0.000588666,0.0021826,-0.00113665,-0.181295,0.00194783,0.0109708,1532,1681,-0.0287991,-0.0574167
315,-657,-0.0362549,0.072998,0.00226988,-0.000914452,-0.000413883,0.0023228,-0.000967367,-0.12716,0.00195257,0.00969714,1539,1681,-0.0362679,-0.0729668
322,-657,-0.020874,0.0646973,0.00227936,-0.000685182,-9.7814e-05,0.00228259,-0.000688406,-0.0329469,0.00179573,0.0122816,1546,1681,-0.0209094,-0.0646394
329,-657,-0.0402832,0.0529785,0.00201987,-0.000235891,5.03166e-05,0.00202099,-0.000237013,0.022291,0.00143288,0.0189353,1553,1681,-0.0402314,-0.0529606
336,-657,-0.0489502,0.0678711,0.00169347,0.00034189,5.88012e-05,0.00169603,0.000339337,0.0433962,0.00103626,0.0166063,1560,1681,-0.0489641,-0.0678754
343,-657,-0.0216064,0.0788574,0.0015052,0.000787714,8.95257e-05,0.0015162,0.000776712,0.122279,0.000875469,0.0124851,1567,1681,-0.0215643,-0.0788114
350,-657,-0.0247803,0.0533447,0.00134138,0.00124701,9.25364e-05,0.00139807,0.00119032,0.549616,0.000871093,0.0139308,1574,1681,-0.0247797,-0.0533606
357,-657,-0.0314941,0.0457764,0.00107096,0.00153947,8.01382e-05,0.0015528,0.00105763,1.40599,0.000915904,0.0129503,1581,1681,-0.0314332,-0.0457838
364,-657,-0.0341797,0.0629883,0.000684571,0.00156597,3.15802e-05,0.0015671,0.000683441,1.53503,0.000907223,0.0097579,1588,1681,-0.0342388,-0.0629904
371,-657,-0.0385742,0.0701904,0.000551261,0.00146836,-6.3077e-05,0.00147268,0.000546943,-1.50245,0.000859577,0.0133884,1595,1681,-0.0385607,-0.0701871
378,-657,-0.057373,0.0690918,0.000969039,0.001345,-0.000384432,0.00158495,0.000729089,-1.0128,0.000916048,0.0133938,1602,1681,-0.0574254,-0.0690706
385,-657,-0.0755615,0.0568848,0.00150326,0.0014095,-0.0008973,0.00235491,0.000557857,-0.759298,0.00142097,0.0128629,1609,1681,-0.0755403,-0.0568454
392,-657,-0.0626221,0.0581055,0.00167882,0.00168441,-0.00143926,0.00312087,0.000242356,-0.786369,0.00200469,0.0132075,1616,1681,-0.0626116,-0.058104
399,-657,-0.0285645,0.0740967,0.00198627,0.0022816,-0.00233826,0.00447686,-0.000208985,-0.816932,0.00305662,0.0121566,1623,1681,-0.028624,-0.0740373
406,-657,-0.0224609,0.0668945,0.00229963,0.00300119,-0.00331578,0.0059847,-0.000683876,-0.838098,0.0042362,0.0128954,1630,1681,-0.0224451,-0.0668634
413,-657,-0.0361328,0.0703125,0.00268553,0.00393439,-0.0043755,0.00772979,-0.00110987,-0.856275,0.0055602,0.0123744,1637,1681,-0.0360788,-0.0702604
420,-657,-0.045166,0.0533447,0.00281075,0.00497284,-0.00521926,0.00922183,-0.00143825,-0.887517,0.00667912,0.0133096,1644,1681,-0.0451894,-0.0533426
427,-657,-0.0479736,0.0385742,0.00231521,0.00626998,-0.00603948,0.0106475,-0.00206235,-0.943603,0.00787634,0.016718,1651,1681,-0.0479325,-0.0386221
434,-657,-0.0476074,0.0518799,0.00168713,0.00755381,-0.00666888,0.011906,-0.00266502,-0.992591,0.00895877,0.0233489,1658,1681,-0.047621,-0.0519393
441,-657,-0.277832,-0.0366211,0.00104325,0.00851296,-0.00705985,0.012765,-0.0032088,-1.0287,0.0097571,0.0370922,1665,1681,-0.277874,0.0366131
448,-657,-0.228882,-0.103638,-0.000176303,0.00916663,-0.00717245,0.0130548,-0.00406443,-1.07405,0.0103281,0.0448553,1672,1681,-0.228861,0.103668
455,-657,-0.142578,-0.24707,-0.00177337,0.00942089,-0.00698383,0.0127737,-0.0051262,-1.12321,0.0106443,0.0480359,1679,1681,-0.142628,0.247045
462,-657,-0.161621,-0.194946,-0.00304475,0.00950267,-0.00698017,0.0126142,-0.00615625,-1.15147,0.0110488,0.0497806,1686,1681,-0.161642,0.194971
469,-657,-0.00402832,-0.0323486,-0.00436194,0.0101666,-0.00686396,0.0128965,-0.00709185,-1.19226,0.0117014,0.0483945,1693,1681,-0.00400278,0.032331
476,-657,0.0268555,-0.0419922,0,0,0,0,0,0,0,-1,1700,1681,0.0268075,0.0419715
483,-657,-0.296997,0.40625,0,0,0,0,0,0,0,-1,1707,1681,-0.296962,-0.406211
490,-657,-0.0950928,0.33728,0,0,0,0,0,0,0,-1,1714,1681,-0.0950681,-0.337331
497,-657,-0.150513,0.20874,0,0,0,0,0,0,0,-1,1721,1681,-0.150565,-0.208687
504,-657,0,0,0,0,0,0,0,0,0,-1,1728,1681,0,0
511,-657,0,0,0,0,0,0,0,0,0,-1,1735,1681,0,0
518,-657,0,0,0,0,0,0,0,0,0,-1,1742,1681,0,0
525,-657,0,0,0,0,0,0,0,0,0,-1,1749,1681,0,0
532,-657,0,0,0,0,0,0,0,0,0,-1,1756,1681,0,0
539,-657,0,0,0,0,0,0,0,0,0,-1,1763,1681,0,0
546,-657,0,0,0,0,0,0,0,0,0,-1,1770,1681,0,0
553,-657,0,0,0,0,0,0,0,0,0,-1,1777,1681,0,0
560,-657,0,0,0,0,0,0,0,0,0,-1,1784,1681,0,0
567,-657,0,0,0,0,0,0,0,0,0,-1,1791,1681,0,0
574,-657,0,0,0,0,0,0,0,0,0,-1,1798,1681,0,0
581,-657,0,0,0,0,0,0,0,0,0,-1,1805,1681,0,0
588,-657,0,0,0,0,0,0,0,0,0,-1,1812,1681,0,0
595,-657,0,0,0,0,0,0,0,0,0,-1,1819,1681,0,0
602,-657,0,0,0,0,0,0,0,0,0,-1,1826,1681,0,0
609,-657,0,0,0,0,0,0,0,0,0,-1,1833,1681,0,0
616,-657,0,0,0,0,0,0,0,0,0,-1,1840,1681,0,0
623,-657,0,0,0,0,0,0,0,0,0,-1,1847,1681,0,0
630,-657,0,0,0,0,0,0,0,0,0,-1,1854,1681,0,0
637,-657,0,0,0,0,0,0,0,0,0,-1,1861,1681,0,0
644,-657,0,0,0,0,0,0,0,0,0,-1,1868,1681,0,0
651,-657,0,0,0,0,0,0,0,0,0,-1,1875,1681,0,0
658,-657,0,0,0,0,0,0,0,0,0,-1,1882,1681,0,0
665,-657,0,0,0,0,0,0,0,0,0,-1,1889,1681,0,0
672,-657,0,0,0,0,0,0,0,0,0,-1,1896,1681,0,0
679,-657,0,0,0,0,0,0,0,0,0,-1,1903,1681,0,0
686,-657,0,0,0,0,0,0,0,0,0,-1,1910,1681,0,0
693,-657,0,0,0,0,0,0,0,0,0,-1,1917,1681,0,0
700,-657,0,0,0,0,0,0,0,0,0,-1,1924,1681,0,0
707,-657,0,0,0,0,0,0,0,0,0,-1,1931,1681,0,0
714,-657,0,0,0,0,0,0,0,0,0,-1,1938,1681,0,0
721,-657,0,0,0,0,0,0,0,0,0,-1,1945,1681,0,0
728,-657,0,0,0,0,0,0,0,0,0,-1,1952,1681,0,0
735,-657,0,0,0,0,0,0,0,0,0,-1,1959,1681,0,0
742,-657,0,0,0,0,0,0,0,0,0,-1,1966,1681,0,0
749,-657,0,0,0,0,0,0,0,0,0,-1,1973,1681,0,0
756,-657,0,0,0,0,0,0,0,0,0,-1,1980,1681,0,0
763,-657,0,0,0,0,0,0,0,0,0,-1,1987,1681,0,0
770,-657,0,0,0,0,0,0,0,0,0,-1,1994,1681,0,0
777,-657,0,0,0,0,0,0,0,0,0,-1,2001,1681,0,0
784,-657,0,0,0,0,0,0,0,0,0,-1,2008,1681,0,0
791,-657,0,0,0,0,0,0,0,0,0,-1,2015,1681,0,0
798,-657,0,0,0,0,0,0,0,0,0,-1,2022,1681,0,0
805,-657,0,0,0,0,0,0,0,0,0,-1,2029,1681,0,0
812,-657,0,0,0,0,0,0,0,0,0,-1,2036,1681,0,0
-700,-664,0,0,0,0,0,0,0,0,0,-1,524,1688,0,0
-693,-664,0,0,0,0,0,0,0,0,0,-1,531,1688,0,0
-686,-664,0,0,0,0,0,0,0,0,0,-1,538,1688,0,0
-679,-664,0,0,0,0,0,0,0,0,0,-1,545,1688,0,0
-672,-664,0,0,0,0,0,0,0,0,0,-1,552,1688,0,0
-665,-664,0,0,0,0,0,0,0,0,0,-1,559,1688,0,0
-658,-664,0,0,0,0,0,0,0,0,0,-1,566,1688,0,0
-651,-664,0,0,0,0,0,0,0,0,0,-1,573,1688,0,0
-644,-664,0,0,0,0,0,0,0,0,0,-1,580,1688,0,0
-637,-664,0,0,0,0,0,0,0,0,0,-1,587,1688,0,0
-630,-664,0,0,0,0,0,0,0,0,0,-1,594,1688,0,0
-623,-664,0,0,0,0,0,0,0,0,0,-1,601,1688,0,0
-616,-664,0,0,0,0,0,0,0,0,0,-1,608,1688,0,0
-609,-664,0,0,0,0,0,0,0,0,0,-1,615,1688,0,0
-602,-664,0,0,0,0,0,0,0,0,0,-1,622,1688,0,0
-595,-664,0,0,0,0,0,0,0,0,0,-1,629,1688,0,0
-588,-664,0,0,0,0,0,0,0,0,0,-1,636,1688,0,0
-581,-664,0,0,0,0,0,0,0,0,0,-1,643,1688,0,0
-574,-664,0,0,0,0,0,0,0,0,0,-1,650,1688,0,0
-567,-664,0,0,0,0,0,0,0,0,0,-1,657,1688,0,0
-560,-664,0,0,0,0,0,0,0,0,0,-1,664,1688,0,0
-553,-664,0,0,0,0,0,0,0,0,0,-1,671,1688,0,0
-546,-664,0,0,0,0,0,0,0,0,0,-1,678,1688,0,0
-539,-664,0,0,0,0,0,0,0,0,0,-1,685,1688,0,0
-532,-664,0,0,0,0,0,0,0,0,0,-1,692,1688,0,0
-525,-664,0,0,0,0,0,0,0,0,0,-1,699,1688,0,0
-518,-664,0,0,0,0,0,0,0,0,0,-1,706,1688,0,0
-511,-664,0,0,0,0,0,0,0,0,0,-1,713,1688,0,0
-504,-664,0,0,0,0,0,0,0,0,0,-1,720,1688,0,0
-497,-664,0,0,0,0,0,0,0,0,0,-1,727,1688,0,0
-490,-664,0,0,0,0,0,0,0,0,0,-1,734,1688,0,0
-483,-664,0,0,0,0,0,0,0,0,0,-1,741,1688,0,0
-476,-664,0,0,0,0,0,0,0,0,0,-1,748,1688,0,0
-469,-664,0,0,0,0,0,0,0,0,0,-1,755,1688,0,0
-462,-664,0,0,0,0,0,0,0,0,0,-1,762,1688,0,0
-455,-664,0,0,0,0,0,0,0,0,0,-1,769,1688,0,0
-448,-664,0,0,0,0,0,0,0,0,0,-1,776,1688,0,0
-441,-664,0,0,0,0,0,0,0,0,0,-1,783,1688,0,0
-434,-664,0,0,0,0,0,0,0,0,0,-1,790,1688,0,0
-427,-664,0,0,0,0,0,0,0,0,0,-1,797,1688,0,0
-420,-664,0,0,0,0,0,0,0,0,0,-1,804,1688,0,0
-413,-664,0,0,0,0,0,0,0,0,0,-1,811,1688,0,0
-406,-664,0,0,0,0,0,0,0,0,0,-1,818,1688,0,0
-399,-664,0,0,0,0,0,0,0,0,0,-1,825,1688,0,0
-392,-664,0,0,0,0,0,0,0,0,0,-1,832,1688,0,0
-385,-664,0,0,0,0,0,0,0,0,0,-1,839,1688,0,0
-378,-664,0,0,0,0,0,0,0,0,0,-1,846,1688,0,0
-371,-664,-3.95789,1.95496,0,0,0,0,0,0,0,-1,853,1688,-3.95788,-1.95495
-364,-664,-3.7135,2.05725,0,0,0,0,0,0,0,-1,860,1688,-3.71351,-2.0572
-357,-664,-3.38348,2.18872,0,0,0,0,0,0,0,-1,867,1688,-3.38348,-2.18875
-350,-664,0.146729,0.288696,0,0,0,0,0,0,0,-1,874,1688,0.146729,-0.288748
-343,-664,-0.050354,-0.245483,0,0,0,0,0,0,0,-1,881,1688,-0.050361,0.245451
-336,-664,-0.418945,-0.419922,0,0,0,0,0,0,0,-1,888,1688,-0.418925,0.419968
-329,-664,-0.677185,-0.875366,0,0,0,0,0,0,0,-1,895,1688,-0.67716,0.875362
-322,-664,-0.0467529,-0.295044,-0.0026712,-0.0249537,0.00180008,-0.00252672,-0.0250982,0.080092,0.0159567,0.0463866,902,1688,-0.0467664,0.295063
-315,-664,-0.0845337,0.46521,0.00139289,-0.0238938,0.00256992,0.00165143,-0.0241523,0.100266,0.0166793,0.0426618,909,1688,-0.0845169,-0.465196
-308,-664,-0.0823364,0.789063,0.00454267,-0.0216725,0.00291431,0.00486275,-0.0219926,0.10939,0.0165229,0.0444461,916,1688,-0.0823289,-0.789096
-301,-664,-0.000854492,0.0889893,0.0067138,-0.019015,0.00331198,0.0071333,-0.0194345,0.125991,0.0158775,0.0472683,923,1688,-0.000835889,-0.089001
-294,-664,-0.222778,0.456055,0,0,0,0,0,0,0,-1,930,1688,-0.222751,-0.456
-287,-664,-0.137695,0.125122,0,0,0,0,0,0,0,-1,937,1688,-0.13767,-0.125128
-280,-664,-0.055542,0.072876,0.00910719,-0.0104129,0.0042343,0.00998612,-0.0112919,0.204667,0.0122926,0.015697,944,1688,-0.0555337,-0.0728946
-273,-664,-0.0146484,0.0452881,0.00803803,-0.00803887,0.00387471,0.00892314,-0.00892398,0.224581,0.010304,0.0130729,951,1688,-0.0146645,-0.0453035
-266,-664,0.00634766,0.0460205,0.00675395,-0.00526842,0.00304982,0.00748337,-0.00599784,0.234758,0.00779912,0.0200781,958,1688,0.00637618,-0.045975
-259,-664,-0.0487061,0.039917,0.00518486,-0.00313098,0.00239629,0.00582595,-0.00377207,0.261412,0.00558355,0.0180838,965,1688,-0.0486991,-0.0399762
-252,-664,-0.0500488,0.0235596,0.00357174,-0.00149051,0.00271201,0.00475027,-0.00266905,0.409942,0.00433936,0.0155751,972,1688,-0.050071,-0.0236155
-245,-664,-0.0522461,0.0716553,0.00238638,-0.000857875,0.00287525,0.00406552,-0.00253701,0.52857,0.00384587,0.0192449,979,1688,-0.0522544,-0.0716191
-238,-664,-0.020752,0.078125,0.00132531,-0.00038308,0.00217154,0.00280461,-0.00186239,0.598014,0.00271274,0.0224188,986,1688,-0.0207417,-0.0781201
-231,-664,-0.0300293,0.0479736,6.2153e-05,0.000197005,0.00157352,0.00170454,-0.00144538,0.80681,0.00182066,0.0198238,993,1688,-0.0300443,-0.048015
-224,-664,-0.0293579,0.0635986,-0.000303306,0.000315257,0.00108854,0.0011376,-0.00112565,0.923813,0.00130669,0.0138,1000,1688,-0.0293433,-0.0635411
-217,-664,-0.0241699,0.0560303,-0.000156778,0.000745295,0.000818928,0.00122918,-0.000640662,1.03711,0.00109723,0.00997901,1007,1688,-0.0241594,-0.0560569
-210,-664,-0.0389404,0.0499268,-4.88029e-05,0.0011409,0.000882317,0.00161016,-0.000518062,1.082,0.00128152,0.0110895,1014,1688,-0.0389594,-0.0499283
-203,-664,-0.0435791,0.0576172,0.000114847,0.00118669,0.00113258,0.00190374,-0.000602209,1.00638,0.00151046,0.0129877,1021,1688,-0.0435925,-0.0575769
-196,-664,-0.0323486,0.0491943,0.000280356,0.00115946,0.00138314,0.00217121,-0.000731396,0.939248,0.00174319,0.0126952,1028,1688,-0.0323865,-0.0492047
-189,-664,-0.026123,0.038208,0.000360118,0.000655417,0.00180497,0.00231876,-0.00130323,0.826208,0.00211838,0.00890133,1035,1688,-0.0260687,-0.0381811
-182,-664,-0.0311279,0.0421143,0.000464831,-9.3279e-05,0.00212451,0.00232854,-0.00195699,0.720097,0.00247735,0.00870277,1042,1688,-0.0310777,-0.0420728
-175,-664,-0.0338135,0.0285645,0.000720172,-0.00107394,0.00226133,0.00225587,-0.00260964,0.596571,0.00281158,0.0116031,1049,1688,-0.0338471,-0.0285138
-168,-664,-0.0351563,0.0275879,0.00119975,-0.000953137,0.00267405,0.00300589,-0.00275928,0.594047,0.00332954,0.0134568,1056,1688,-0.0351851,-0.0276272
-161,-664,-0.0194092,0.0234375,0.00178621,-0.000536958,0.00354696,0.00435694,-0.00310769,0.627158,0.00432978,0.00991059,1063,1688,-0.0194583,-0.0234517
-154,-664,-0.0338135,0.0432129,0.00272928,-8.33458e-05,0.0037373,0.0053161,-0.00267016,0.605447,0.00469447,0.00867481,1070,1688,-0.0337729,-0.0432298
-147,-664,-0.0643311,0.048584,0.00387385,-0.000115552,0.00376268,0.00613786,-0.00237956,0.541669,0.0050746,0.00943665,1077,1688,-0.0642978,-0.0485828
-140,-664,-0.0623779,0.0334473,0.00450991,0.000350838,0.00411191,0.00703822,-0.00217748,0.551286,0.00556192,0.0100426,1084,1688,-0.0623465,-0.033455
-133,-664,-0.0501709,0.0560303,0.00443026,0.00115256,0.00495536,0.00801074,-0.00242792,0.625698,0.00630754,0.0108096,1091,1688,-0.0502044,-0.0560591
-126,-664,-0.0286865,0.0393066,0.00360351,0.00202512,0.00538913,0.00826093,-0.0026323,0.712694,0.0065631,0.0182559,1098,1688,-0.0286499,-0.0392596
-119,-664,-0.109985,0.0450439,0.00306234,0.00270851,0.00552851,0.00841676,-0.00264591,0.769403,0.00667042,0.03401,1105,1688,-0.109998,-0.0449852
-112,-664,-0.271973,0.245117,0.00227019,0.00295621,0.00544523,0.00806922,-0.00284282,0.816853,0.0065365,0.0387262,1112,1688,-0.271981,-0.245082
-105,-664,-0.133057,0.160767,0.00121732,0.00276824,0.00529562,0.00734487,-0.00335931,0.858098,0.00632125,0.0407939,1119,1688,-0.133038,-0.160827
-98,-664,0.269165,-0.247437,0.000121298,0.00220723,0.00516526,0.00643377,-0.00410524,0.885018,0.00613401,0.042366,1126,1688,0.26916,0.247489
-91,-664,0.303101,-0.314819,-0.00102786,0.00108988,0.00430032,0.00445978,-0.00439775,0.906112,0.00511394,0.0423342,1133,1688,0.303144,0.314773
-84,-664,-0.0400391,0.120361,-0.00191021,-0.00109985,0.00300567,0.00152782,-0.00453789,0.852397,0.00364294,0.0451396,1140,1688,-0.0400839,-0.120356
-77,-664,-0.267944,-0.00146484,-0.00218969,-0.00374674,0.00182649,-0.000982723,-0.00495371,0.583937,0.00302852,0.0456057,1147,1688,-0.26789,0.00143673
-70,-664,-0.201782,-0.0317383,-0.00143927,-0.00701859,0.00125118,-0.00117153,-0.00728633,0.210806,0.00451796,0.0471948,1154,1688,-0.201756,0.0317485
-63,-664,-0.00402832,0.0125732,-0.000288313,-0.0104262,0.000194937,-0.000284566,-0.0104299,0.0192191,0.0068604,0.0449719,1161,1688,-0.00405847,-0.0125767
-56,-664,0.0881348,-0.00805664,0.00182079,-0.0130821,-0.00113901,0.00190734,-0.0131687,-0.0758414,0.00947909,0.0412244,1168,1688,0.0881712,0.00808849
-49,-664,-0.115479,-0.0595703,0.00368036,-0.0140415,-0.000931225,0.00372916,-0.0140903,-0.0523544,0.0108523,0.0444695,1175,1688,-0.115427,0.0595907
-42,-664,-0.114502,-0.23584,0.00516147,-0.0130641,-0.000743254,0.00519173,-0.0130943,-0.0406908,0.0108811,0.0478055,1182,1688,-0.114501,0.235822
-35,-664,-0.292358,-1.9679,0.00691602,-0.0108418,-0.000754686,0.00694804,-0.0108738,-0.042397,0.0103723,0.0473568,1189,1688,-0.292389,1.96787
-28,-664,-0.17688,-1.61719,0.00886544,-0.00861039,-0.000993412,0.00892173,-0.00866668,-0.0566019,0.010155,0.0432438,1196,1688,-0.176879,1.61724
-21,-664,0.0904541,-1.75488,0.00561723,-0.00668693,0.00137368,0.00576873,-0.00683843,0.109842,0.00728747,0.0445572,1203,1688,0.090509,1.75488
-14,-664,0.248413,-1.78967,0,0,0,0,0,0,0,-1,1210,1688,0.24843,1.78968
-7,-664,0.383301,-0.0106201,0,0,0,0,0,0,0,-1,1217,1688,0.38336,0.0105901
0,-664,0.312866,0.0985107,0.0011199,-0.0042786,0.00699995,0.005923,-0.0090817,0.601378,0.00872672,0.0488202,1224,1688,0.312846,-0.0985165
7,-664,0.067627,0.432861,0.0012621,-0.00559722,0.00796257,0.00650222,-0.0108373,0.582044,0.0101148,0.0457319,1231,1688,0.0676786,-0.432913
14,-664,0.310791,0.255859,0.00290513,-0.00792517,0.0101618,0.00900456,-0.0140246,0.54059,0.0134008,0.0436502,1238,1688,0.310767,-0.255825
21,-664,0.454346,0.214722,0,0,0,0,0,0,0,-1,1245,1688,0.454385,-0.214719
28,-664,0.795776,-0.0844727,0.00790964,-0.0143435,0.0129747,0.0138753,-0.0203092,0.430965,0.0198526,0.0421242,1252,1688,0.795819,0.0844993
35,-664,-2.0249,1.3092,0.0102687,-0.01766,0.0140436,0.016109,-0.0235003,0.394114,0.0230008,0.0443163,1259,1688,-2.02492,-1.30922
42,-664,-1.07983,0.978271,0.0137657,-0.0214422,0.0153064,0.0194895,-0.027166,0.35785,0.0270578,0.0448913,1266,1688,-1.07978,-0.978312
49,-664,-0.544434,1.13647,0,0,0,0,0,0,0,-1,1273,1688,-0.544485,-1.13642
56,-664,0.20166,0.395264,0.0195124,-0.0205851,0.0162144,0.0252485,-0.0263212,0.340027,0.0297759,0.0462553,1280,1688,0.201616,-0.395237
63,-664,0.446167,0.0773926,0.0196478,-0.019659,0.0152972,0.0248994,-0.0249106,0.3307,0.0287578,0.0499084,1287,1688,0.446206,-0.0774303
70,-664,0.972046,0.0897217,0.0185621,-0.0175382,0.0137623,0.0232102,-0.0221862,0.32571,0.0262118,0.0491272,1294,1688,0.972058,-0.0897442
77,-664,1.50513,0.298096,0.0165238,-0.0107068,0.0119651,0.0210342,-0.0152171,0.360487,0.0210193,0.0443465,1301,1688,1.50509,-0.298106
84,-664,1.55078,0.540283,0.0160465,-0.00466976,0.00822421,0.0189144,-0.00753768,0.335532,0.0157359,0.0446791,1308,1688,1.55077,-0.540303
91,-664,1.1792,0.71228,0.0133599,-0.00115843,0.00557984,0.0152566,-0.00305514,0.327669,0.0113276,0.0430408,1315,1688,1.17917,-0.712264
98,-664,0.961548,0.858398,0,0,0,0,0,0,0,-1,1322,1688,0.961554,-0.858349
105,-664,1.83276,1.05518,0.00995097,0.0113664,-0.00339125,0.014123,0.00719437,-0.888265,0.00815439,0.0471331,1329,1688,1.83278,-1.05515
112,-664,2.10474,1.49609,0.00941422,0.0172074,-0.00785538,0.0220796,0.0045421,-1.01564,0.0134635,0.0425874,1336,1688,2.10477,-1.49612
119,-664,2.16235,2.21143,0.00917679,0.0219587,-0.011936,0.029107,0.0020285,-1.0312,0.0187651,0.0472952,1343,1688,2.16237,-2.21144
126,-664,1.9917,2.74219,0,0,0,0,0,0,0,-1,1350,1688,1.99165,-2.74215
133,-664,1.93945,4.20496,0,0,0,0,0,0,0,-1,1357,1688,1.93949,-4.20499
140,-664,-0.839355,4.65234,0,0,0,0,0,0,0,-1,1364,1688,-0.839369,-4.65236
147,-664,-0.901367,4.14294,0,0,0,0,0,0,0,-1,1371,1688,-0.901379,-4.14292
154,-664,-0.962036,3.65723,0,0,0,0,0,0,0,-1,1378,1688,-0.962069,-3.65726
161,-664,0.179688,-0.23938,0,0,0,0,0,0,0,-1,1385,1688,0.179718,0.239409
168,-664,-0.177002,-0.76416,0.00702964,0.0276792,-0.0125084,0.0335735,0.00113527,-1.13043,0.0220137,0.0406626,1392,1688,-0.177062,0.764193
175,-664,-0.112915,-1.42383,0.0051335,0.0258055,-0.0101663,0.0299673,0.000971677,-1.18224,0.0196623,0.0435996,1399,1688,-0.112904,1.4238
182,-664,0.0906982,-0.0854492,0.00259056,0.0196874,-0.00883634,0.0234336,-0.00115558,-1.16982,0.0160215,0.046318,1406,1688,0.0907144,0.0855048
189,-664,-0.00732422,0.120239,0.00138991,0.0158974,-0.00650613,0.0183877,-0.00110039,-1.20524,0.0126413,0.0431384,1413,1688,-0.00732768,-0.120179
196,-664,0.0217285,0.0772705,0.000831524,0.013661,-0.00528699,0.0155589,-0.00106645,-1.22614,0.0107458,0.0410732,1420,1688,0.0217136,-0.077242
203,-664,-0.209106,0.0224609,-0.000135652,0.0084321,-0.00318769,0.00948798,-0.00119153,-1.25093,0.0067576,0.0399798,1427,1688,-0.209155,-0.0224445
210,-664,-0.613892,0.0404053,-4.38674e-05,0.00708091,-0.00250553,0.00787378,-0.00083674,-1.26432,0.00554917,0.0384212,1434,1688,-0.613926,-0.0404129
217,-664,-0.387573,-0.150635,0.000540015,0.00525115,-0.00221444,0.00612861,-0.000337444,-1.19353,0.00420274,0.039505,1441,1688,-0.387564,0.15065
224,-664,-0.0975342,-0.276489,0.000936399,0.00437909,-0.00231262,0.00554067,-0.000225179,-1.10533,0.00377108,0.0444983,1448,1688,-0.0974883,0.276515
231,-664,0.763062,-0.161255,0,0,0,0,0,0,0,-1,1455,1688,0.763044,0.161261
238,-664,-0.26355,-0.0263672,0.000859811,0.00313425,-0.00268768,0.0049154,-0.000921341,-0.985538,0.0036233,0.0412486,1462,1688,-0.263525,0.0263189
245,-664,0.156128,0.142578,0.000870233,0.0031171,-0.00275812,0.0049718,-0.000984472,-0.978798,0.00368677,0.039769,1469,1688,0.156073,-0.142637
252,-664,-0.0368652,0.113159,0.000815841,0.00263391,-0.00271953,0.00459231,-0.00114256,-0.946691,0.00350503,0.0394081,1476,1688,-0.036878,-0.113105
259,-664,-0.0288086,0.14502,0.000947121,0.00210964,-0.00249476,0.00408997,-0.0010332,-0.899853,0.00312844,0.0369124,1483,1688,-0.0288248,-0.14504
266,-664,0.0235596,0.123291,0.000946402,0.00146651,-0.00207868,0.00330134,-0.000888426,-0.847628,0.00254917,0.028562,1490,1688,0.0235166,-0.123271
273,-664,-0.0804443,0.0654297,0.000490463,0.000933313,-0.00149016,0.00221841,-0.000794637,-0.859154,0.00180316,0.0238719,1497,1688,-0.0804007,-0.0654409
280,-664,-0.0834961,0.053833,0.000139876,0.000248303,-0.0010679,0.00126337,-0.000875187,-0.81076,0.00124146,0.0191287,1504,1688,-0.0834998,-0.0538812
287,-664,-0.0662842,0.057251,0.000346488,-0.000268607,-0.000887928,0.000978622,-0.000900741,-0.618682,0.00108536,0.0177001,1511,1688,-0.0662368,-0.0572784
294,-664,-0.0223389,0.0632324,0.000365525,-0.000699591,-0.0007324,0.000738521,-0.00107259,-0.471043,0.00105156,0.0124328,1518,1688,-0.0223288,-0.0632161
301,-664,-0.0117188,0.0666504,0.000572045,-0.000809475,-0.000604535,0.000799224,-0.00103665,-0.359464,0.0010629,0.00890957,1525,1688,-0.0116627,-0.0665955
308,-664,-0.0161133,0.0614014,0.00082365,-0.000530886,-0.000304598,0.000888994,-0.00059623,-0.211321,0.000863029,0.00984451,1532,1688,-0.0161105,-0.0614474
315,-664,-0.0131836,0.0629883,0.000991101,-0.000476432,-0.000291081,0.00104673,-0.000532059,-0.188827,0.000927517,0.0102455,1539,1688,-0.0132422,-0.0629781
322,-664,-0.0200195,0.0678711,0.00106092,-0.000187687,-0.000127831,0.00107387,-0.00020064,-0.100983,0.000791318,0.0135591,1546,1688,-0.019995,-0.0678912
329,-664,-0.052124,0.0477295,0.000912336,0.000293352,-5.75008e-05,0.000917632,0.000288056,-0.0918483,0.000541888,0.0168039,1553,1688,-0.0520841,-0.0477693
336,-664,-0.0405273,0.0489502,0.000733722,0.000883207,-5.71172e-05,0.000902533,0.000714396,-1.24454,0.000549813,0.0138404,1560,1688,-0.0405306,-0.0489255
343,-664,-0.0340576,0.071167,0.000755597,0.00133641,2.57313e-06,0.00133642,0.000755585,1.56637,0.000773778,0.0100901,1567,1688,-0.0341003,-0.0712081
350,-664,-0.0308838,0.0500488,0.000868876,0.00183293,2.41843e-05,0.00183354,0.00086827,1.54573,0.00105909,0.011779,1574,1688,-0.0308533,-0.0500347
357,-664,-0.0343018,0.052124,0.000870962,0.00213711,6.47765e-05,0.00214041,0.000867656,1.51981,0.00124312,0.0117656,1581,1688,-0.0342667,-0.0521635
364,-664,-0.0388184,0.0693359,0.000751786,0.00216729,9.25131e-05,0.00217331,0.000745765,1.50581,0.00127518,0.0102555,1588,1688,-0.0387961,-0.0693537
371,-664,-0.0270996,0.0733643,0.000801051,0.00204869,4.61575e-05,0.00205039,0.000799345,1.53387,0.00119333,0.0127752,1595,1688,-0.0270418,-0.0733909
378,-664,-0.0489502,0.078125,0.00133789,0.00184523,-0.000273062,0.00196427,0.00121885,-1.15969,0.001145,0.0119202,1602,1688,-0.0489372,-0.0781001
385,-664,-0.0596924,0.079834,0.00195832,0.00184482,-0.000862199,0.00276564,0.00103751,-0.752536,0.00161325,0.013012,1609,1688,-0.0596932,-0.0798705
392,-664,-0.0581055,0.0734863,0.00230998,0.00203148,-0.00149013,0.00366735,0.000674099,-0.73881,0.00225406,0.016181,1616,1688,-0.0580551,-0.0734653
399,-664,-0.0283203,0.0650635,0.00264042,0.00261217,-0.0025592,0.00518553,6.70617e-05,-0.782639,0.00343489,0.0132916,1623,1688,-0.0282867,-0.0650441
406,-664,-0.00305176,0.0689697,0.00296184,0.0033689,-0.00376019,0.00693106,-0.000600322,-0.812436,0.00483326,0.0114101,1630,1688,-0.00302461,-0.0689831
413,-664,-0.0161133,0.0703125,0.00335884,0.00434542,-0.00508142,0.00895744,-0.00125318,-0.833785,0.00643019,0.0099562,1637,1688,-0.0161412,-0.0702884
420,-664,-0.0703125,0.0286865,0.00337562,0.00546593,-0.00618886,0.0106973,-0.00185572,-0.869047,0.0078238,0.0211454,1644,1688,-0.0702696,-0.028695
427,-664,-0.0316162,-0.0579834,0.00272119,0.00684883,-0.00732447,0.0123947,-0.00282467,-0.922723,0.00934803,0.0386511,1651,1688,-0.0316393,0.0580387
434,-664,0.111084,-0.173096,0.00195876,0.00832331,-0.00825228,0.0139856,-0.00370357,-0.969424,0.0107726,0.0386961,1658,1688,0.111074,0.173129
441,-664,0.459595,-0.601929,0.00109228,0.00941965,-0.0088893,0.0150721,-0.00456013,-1.00442,0.0118639,0.0416354,1665,1688,0.459571,0.601957
448,-664,-0.235229,-0.244507,-0.000585017,0.0101483,-0.00919338,0.0154268,-0.00586351,-1.04959,0.0126986,0.0437265,1672,1688,-0.235185,0.24446
455,-664,-0.235718,-0.640747,-0.00282003,0.0103153,-0.0090387,0.0149205,-0.0074252,-1.09958,0.013141,0.0476526,1679,1688,-0.235673,0.640753
462,-664,-0.279419,-0.368408,0,0,0,0,0,0,0,-1,1686,1688,-0.279479,0.368434
469,-664,0.102661,0.0736084,-0.00613539,0.0111003,-0.00938317,0.0152226,-0.0102577,-1.15685,0.0148039,0.0443682,1693,1688,0.102621,-0.0736597
476,-664,-0.516479,0.845459,-0.00720128,0.0123913,-0.00959995,0.0163109,-0.0111209,-1.18316,0.015932,0.0429753,1700,1688,-0.516463,-0.845419
483,-664,-1.11572,1.36682,0,0,0,0,0,0,0,-1,1707,1688,-1.11578,-1.36684
490,-664,-1.86719,1.86548,0,0,0,0,0,0,0,-1,1714,1688,-1.86715,-1.8655
497,-664,0,0,0,0,0,0,0,0,0,-1,1721,1688,0,0
504,-664,0,0,0,0,0,0,0,0,0,-1,1728,1688,0,0
511,-664,0,0,0,0,0,0,0,0,0,-1,1735,1688,0,0
518,-664,0,0,0,0,0,0,0,0,0,-1,1742,1688,0,0
525,-664,0,0,0,0,0,0,0,0,0,-1,1749,1688,0,0
532,-664,0,0,0,0,0,0,0,0,0,-1,1756,1688,0,0
539,-664,0,0,0,0,0,0,0,0,0,-1,1763,1688,0,0
546,-664,0,0,0,0,0,0,0,0,0,-1,1770,1688,0,0
553,-664,0,0,0,0,0,0,0,0,0,-1,1777,1688,0,0
560,-664,0,0,0,0,0,0,0,0,0,-1,1784,1688,0,0
567,-664,0,0,0,0,0,0,0,0,0,-1,1791,1688,0,0
574,-664,0,0,0,0,0,0,0,0,0,-1,1798,1688,0,0
581,-664,0,0,0,0,0,0,0,0,0,-1,1805,1688,0,0
588,-664,0,0,0,0,0,0,0,0,0,-1,1812,1688,0,0
595,-664,0,0,0,0,0,0,0,0,0,-1,1819,1688,0,0
602,-664,0,0,0,0,0,0,0,0,0,-1,1826,1688,0,0
609,-664,0,0,0,0,0,0,0,0,0,-1,1833,1688,0,0
616,-664,0,0,0,0,0,0,0,0,0,-1,1840,1688,0,0
623,-664,0,0,0,0,0,0,0,0,0,-1,1847,1688,0,0
630,-664,0,0,0,0,0,0,0,0,0,-1,1854,1688,0,0
637,-664,0,0,0,0,0,0,0,0,0,-1,1861,1688,0,0
644,-664,0,0,0,0,0,0,0,0,0,-1,1868,1688,0,0
651,-664,0,0,0,0,0,0,0,0,0,-1,1875,1688,0,0
658,-664,0,0,0,0,0,0,0,0,0,-1,1882,1688,0,0
665,-664,0,0,0,0,0,0,0,0,0,-1,1889,1688,0,0
672,-664,0,0,0,0,0,0,0,0,0,-1,1896,1688,0,0
679,-664,0,0,0,0,0,0,0,0,0,-1,1903,1688,0,0
686,-664,0,0,0,0,0,0,0,0,0,-1,1910,1688,0,0
693,-664,0,0,0,0,0,0,0,0,0,-1,1917,1688,0,0
700,-664,0,0,0,0,0,0,0,0,0,-1,1924,1688,0,0
707,-664,0,0,0,0,0,0,0,0,0,-1,1931,1688,0,0
714,-664,0,0,0,0,0,0,0,0,0,-1,1938,1688,0,0
721,-664,0,0,0,0,0,0,0,0,0,-1,1945,1688,0,0
728,-664,0,0,0,0,0,0,0,0,0,-1,1952,1688,0,0
735,-664,0,0,0,0,0,0,0,0,0,-1,1959,1688,0,0
742,-664,0,0,0,0,0,0,0,0,0,-1,1966,1688,0,0
749,-664,0,0,0,0,0,0,0,0,0,-1,1973,1688,0,0
756,-664,0,0,0,0,0,0,0,0,0,-1,1980,1688,0,0
763,-664,0,0,0,0,0,0,0,0,0,-1,1987,1688,0,0
770,-664,0,0,0,0,0,0,0,0,0,-1,1994,1688,0,0
777,-664,0,0,0,0,0,0,0,0,0,-1,2001,1688,0,0
784,-664,0,0,0,0,0,0,0,0,0,-1,2008,1688,0,0
791,-664,0,0,0,0,0,0,0,0,0,-1,2015,1688,0,0
798,-664,0,0,0,0,0,0,0,0,0,-1,2022,1688,0,0
805,-664,0,0,0,0,0,0,0,0,0,-1,2029,1688,0,0
812,-664,0,0,0,0,0,0,0,0,0,-1,2036,1688,0,0
-700,-671,0,0,0,0,0,0,0,0,0,-1,524,1695,0,0
-693,-671,0,0,0,0,0,0,0,0,0,-1,531,1695,0,0
-686,-671,0,0,0,0,0,0,0,0,0,-1,538,1695,0,0
-679,-671,0,0,0,0,0,0,0,0,0,-1,545,1695,0,0
-672,-671,0,0,0,0,0,0,0,0,0,-1,552,1695,0,0
-665,-671,0,0,0,0,0,0,0,0,0,-1,559,1695,0,0
-658,-671,0,0,0,0,0,0,0,0,0,-1,566,1695,0,0
-651,-671,0,0,0,0,0,0,0,0,0,-1,573,1695,0,0
-644,-671,0,0,0,0,0,0,0,0,0,-1,580,1695,0,0
-637,-671,0,0,0,0,0,0,0,0,0,-1,587,1695,0,0
-630,-671,0,0,0,0,0,0,0,0,0,-1,594,1695,0,0
-623,-671,0,0,0,0,0,0,0,0,0,-1,601,1695,0,0
-616,-671,0,0,0,0,0,0,0,0,0,-1,608,1695,0,0
-609,-671,0,0,0,0,0,0,0,0,0,-1,615,1695,0,0
-602,-671,0,0,0,0,0,0,0,0,0,-1,622,1695,0,0
-595,-671,0,0,0,0,0,0,0,0,0,-1,629,1695,0,0
-588,-671,0,0,0,0,0,0,0,0,0,-1,636,1695,0,0
-581,-671,0,0,0,0,0,0,0,0,0,-1,643,1695,0,0
-574,-671,0,0,0,0,0,0,0,0,0,-1,650,1695,0,0
-567,-671,0,0,0,0,0,0,0,0,0,-1,657,1695,0,0
-560,-671,0,0,0,0,0,0,0,0,0,-1,664,1695,0,0
-553,-671,0,0,0,0,0,0,0,0,0,-1,671,1695,0,0
-546,-671,0,0,0,0,0,0,0,0,0,-1,678,1695,0,0
-539,-671,0,0,0,0,0,0,0,0,0,-1,685,1695,0,0
-532,-671,0,0,0,0,0,0,0,0,0,-1,692,1695,0,0
-525,-671,0,0,0,0,0,0,0,0,0,-1,699,1695,0,0
-518,-671,0,0,0,0,0,0,0,0,0,-1,706,1695,0,0
-511,-671,0,0,0,0,0,0,0,0,0,-1,713,1695,0,0
-504,-671,0,0,0,0,0,0,0,0,0,-1,720,1695,0,0
-497,-671,0,0,0,0,0,0,0,0,0,-1,727,1695,0,0
-490,-671,0,0,0,0,0,0,0,0,0,-1,734,1695,0,0
-483,-671,0,0,0,0,0,0,0,0,0,-1,741,1695,0,0
-476,-671,0,0,0,0,0,0,0,0,0,-1,748,1695,0,0
-469,-671,0,0,0,0,0,0,0,0,0,-1,755,1695,0,0
-462,-671,0,0,0,0,0,0,0,0,0,-1,762,1695,0,0
-455,-671,0,0,0,0,0,0,0,0,0,-1,769,1695,0,0
-448,-671,0,0,0,0,0,0,0,0,0,-1,776,1695,0,0
-441,-671,0,0,0,0,0,0,0,0,0,-1,783,1695,0,0
-434,-671,0,0,0,0,0,0,0,0,0,-1,790,1695,0,0
-427,-671,0,0,0,0,0,0,0,0,0,-1,797,1695,0,0
-420,-671,0,0,0,0,0,0,0,0,0,-1,804,1695,0,0
-413,-671,0,0,0,0,0,0,0,0,0,-1,811,1695,0,0
-406,-671,0,0,0,0,0,0,0,0,0,-1,818,1695,0,0
-399,-671,0,0,0,0,0,0,0,0,0,-1,825,1695,0,0
-392,-671,0,0,0,0,0,0,0,0,0,-1,832,1695,0,0
-385,-671,0,0,0,0,0,0,0,0,0,-1,839,1695,0,0
-378,-671,0,0,0,0,0,0,0,0,0,-1,846,1695,0,0
-371,-671,0,0,0,0,0,0,0,0,0,-1,853,1695,0,0
-364,-671,-4.72766,2.07361,0,0,0,0,0,0,0,-1,860,1695,-4.72764,-2.07364
-357,-671,-4.39221,2.28625,0,0,0,0,0,0,0,-1,867,1695,-4.39221,-2.2863
-350,-671,0.730286,0.935547,0,0,0,0,0,0,0,-1,874,1695,0.730265,-0.935562
-343,-671,0.390198,0.564697,-0.0217416,-0.0280925,-0.00484816,-0.0191215,-0.0307125,-0.495465,0.0179087,0.0473374,881,1695,0.390182,-0.56475
-336,-671,0.013916,0.163696,-0.0152603,-0.0304872,-0.00285053,-0.0147442,-0.0310033,-0.179125,0.0179069,0.0453839,888,1695,0.013919,-0.163663
-329,-671,-0.0875854,0.356201,-0.00863176,-0.0308023,-0.0006464,-0.00861293,-0.0308211,-0.0291228,0.0183626,0.0462032,895,1695,-0.087613,-0.356209
-322,-671,-0.362915,0.512085,-0.00220938,-0.0298596,0.00104546,-0.00216991,-0.0298991,0.0377385,0.0192502,0.0462704,902,1695,-0.362939,-0.512131
-315,-671,-0.302124,1.19604,0.00302426,-0.0283022,0.00217382,0.00317438,-0.0284523,0.0689522,0.02011,0.0454453,909,1695,-0.302149,-1.19606
-308,-671,-0.0283813,1.16382,0,0,0,0,0,0,0,-1,916,1695,-0.0283872,-1.16378
-301,-671,0.169067,-0.0236816,0.00953859,-0.0221134,0.00332953,0.00988503,-0.0224598,0.10368,0.0191389,0.0476905,923,1695,0.169092,0.0237277
-294,-671,-0.0700684,-0.149414,0,0,0,0,0,0,0,-1,930,1695,-0.0700739,0.149358
-287,-671,-0.00524902,-0.211548,0,0,0,0,0,0,0,-1,937,1695,-0.00525883,0.211598
-280,-671,0.0861206,-0.139648,0.0118975,-0.0121466,0.00488191,0.0128509,-0.0131,0.192868,0.014983,0.0316141,944,1695,0.0861065,0.139666
-273,-671,0.126526,-0.0340576,0.0105246,-0.00947853,0.00457508,0.0115213,-0.0104753,0.21451,0.0127045,0.0287417,951,1695,0.126552,0.0341006
-266,-671,0.0205078,0.0322266,0.00892892,-0.00641283,0.00370515,0.00977687,-0.00726078,0.224984,0.00987238,0.0240528,958,1695,0.0205243,-0.0322297
-259,-671,-0.0194702,0.0137939,0.00698177,-0.00407489,0.00300752,0.0077469,-0.00484002,0.24912,0.00733137,0.021753,965,1695,-0.0194836,-0.0138518
-252,-671,-0.0511475,0.0407715,0.00506623,-0.0024834,0.00334891,0.00633765,-0.00375481,0.362841,0.00589015,0.0151978,972,1695,-0.0511352,-0.0407295
-245,-671,-0.0516357,0.0725098,0.00364893,-0.0019793,0.00357435,0.00538401,-0.00371438,0.451921,0.00528236,0.0180378,979,1695,-0.0516336,-0.0725611
-238,-671,-0.0333862,0.0953369,0.00233769,-0.0016115,0.00265707,0.00367354,-0.00294735,0.465847,0.00383023,0.019392,986,1695,-0.0333562,-0.0953791
-231,-671,-0.0424194,0.0876465,0.000726464,-0.00108795,0.00190014,0.00192486,-0.00228634,0.562679,0.00243432,0.015611,993,1695,-0.042447,-0.0876895
-224,-671,-0.0452271,0.0699463,0.000183244,-0.00109249,0.00118114,0.000887747,-0.001797,0.537814,0.00157939,0.0121799,1000,1695,-0.0452172,-0.0699415
-217,-671,-0.0352783,0.065918,0.000210234,-0.000692568,0.000701543,0.000593054,-0.00107539,0.499523,0.000976601,0.0112294,1007,1695,-0.0352505,-0.065875
-210,-671,-0.0336914,0.0513916,0.000209679,-0.000223549,0.000624054,0.000653645,-0.000667515,0.61835,0.000762786,0.0110459,1014,1695,-0.0337162,-0.0514187
-203,-671,-0.0484009,0.0581055,0.000327491,-9.69809e-05,0.000814626,0.000957074,-0.000726564,0.657965,0.000975081,0.0184746,1021,1695,-0.0484073,-0.058061
-196,-671,-0.0318604,0.0609131,0.000414997,3.55315e-05,0.000892773,0.00113798,-0.000687447,0.680696,0.00106455,0.0153351,1028,1695,-0.0318864,-0.0608717
-189,-671,-0.00708008,0.0588379,0.000415828,-0.00018484,0.00116157,0.00131527,-0.00108428,0.65889,0.00138752,0.0103856,1035,1695,-0.00713868,-0.0588762
-182,-671,-0.0461426,0.0491943,0.000451773,-0.000501759,0.00135819,0.00141444,-0.00146443,0.616601,0.0016622,0.00843155,1042,1695,-0.0461466,-0.0491572
-175,-671,-0.0535889,0.0446777,0.000581667,-0.00103597,0.00143992,0.00142438,-0.00187868,0.529503,0.00191303,0.0119066,1049,1695,-0.0535787,-0.0446735
-168,-671,-0.0596924,0.0426025,0.000798426,-0.000658224,0.00176471,0.0019792,-0.001839,0.589688,0.00220493,0.0131346,1056,1695,-0.0596337,-0.0425875
-161,-671,-0.0457764,0.0389404,0.00115143,-0.000128498,0.00244251,0.00303642,-0.0020135,0.657274,0.00293544,0.00893258,1063,1695,-0.0457445,-0.0389
-154,-671,-0.0314941,0.0362549,0.00185702,0.000365911,0.00267834,0.00389164,-0.00166871,0.649653,0.00329467,0.0080397,1070,1695,-0.0315128,-0.0362277
-147,-671,-0.0383301,0.0566406,0.00272879,0.000562018,0.00284984,0.00469423,-0.00140342,0.603757,0.00368742,0.00940163,1077,1695,-0.0382924,-0.0566736
-140,-671,-0.0335693,0.0585938,0.0032563,0.000837865,0.00326829,0.00553189,-0.00143773,0.608215,0.00424904,0.0102927,1084,1695,-0.0335645,-0.0586145
-133,-671,-0.0360107,0.0600586,0.00321328,0.00129552,0.00408009,0.00644566,-0.00193685,0.669985,0.00506764,0.0112389,1091,1695,-0.036042,-0.0600191
-126,-671,-0.0405273,0.0223389,0.00259009,0.00177645,0.00451671,0.00671826,-0.00235173,0.740485,0.00543508,0.0130637,1098,1695,-0.0405661,-0.0223222
-119,-671,-0.00231934,0.0102539,0.0021568,0.00202821,0.0047654,0.00685833,-0.00267333,0.778653,0.00567717,0.0231856,1105,1695,-0.00227626,-0.0102956
-112,-671,-0.0649414,0.0855713,0.00160381,0.00188556,0.00480121,0.00654796,-0.00305859,0.800065,0.00566699,0.0286101,1112,1695,-0.0648813,-0.0855125
-105,-671,-0.0332031,0.0831299,0.000841918,0.00137821,0.00473998,0.00585762,-0.0036375,0.813653,0.00553174,0.0301032,1119,1695,-0.0331657,-0.0830992
-98,-671,-0.0112305,0.0290527,4.75397e-05,0.000610441,0.0046079,0.00494548,-0.0042875,0.8159,0.00533517,0.0298582,1126,1695,-0.0112125,-0.029039
-91,-671,-0.0169678,0.0358887,-0.000757976,-0.000618222,0.00377442,0.00308697,-0.00446317,0.794654,0.00438315,0.0310087,1133,1695,-0.0169643,-0.0358773
-84,-671,-0.0183105,0.0853271,-0.00126998,-0.0028755,0.00257378,0.00062332,-0.00476881,0.634229,0.00340604,0.037066,1140,1695,-0.0182897,-0.0852762
-77,-671,-0.0765381,0.143921,-0.00133213,-0.00541119,0.00147399,-0.000855249,-0.00588807,0.312902,0.00367363,0.041978,1147,1695,-0.0765131,-0.14389
-70,-671,-0.270874,0.222168,-0.00055604,-0.00836483,0.000870769,-0.000460118,-0.00846075,0.109716,0.00549355,0.042265,1154,1695,-0.270822,-0.22217
-63,-671,-0.231323,0.232056,0.000500316,-0.0113261,-3.39428e-05,0.000500414,-0.0113262,-0.00287006,0.00772298,0.0419552,1161,1695,-0.231354,-0.232014
-56,-671,-0.262695,0.0899658,0.00211461,-0.0135173,-0.00108505,0.00218957,-0.0135923,-0.0689715,0.00987265,0.0393952,1168,1695,-0.262642,-0.0899587
-49,-671,-0.249146,-0.135254,0.00354698,-0.0144538,-0.000932604,0.00359517,-0.014502,-0.0516247,0.0110629,0.0490064,1175,1695,-0.249116,0.135266
-42,-671,-0.511841,-1.47681,0,0,0,0,0,0,0,-1,1182,1695,-0.511858,1.47685
-35,-671,-0.262939,-1.46814,0.00599484,-0.0118939,-0.000587923,0.00601415,-0.0119132,-0.0328183,0.0105355,0.0496495,1189,1695,-0.262931,1.46809
-28,-671,-0.010498,-1.39844,0.00741705,-0.0100286,-0.00054255,0.0074339,-0.0100455,-0.0310594,0.0101292,0.0451023,1196,1695,-0.0104804,1.39842
-21,-671,0.15979,-1.34778,0.00439433,-0.00836121,0.00173395,0.00462584,-0.00859271,0.132729,0.00774544,0.0477771,1203,1695,0.159736,1.34776
-14,-671,0.616943,0.388672,0.00110586,-0.00637888,0.00411539,0.00292603,-0.00819904,0.416417,0.00665921,0.0443092,1210,1695,0.616998,-0.388641
-7,-671,0.256104,0.537842,0.000509937,-0.00519167,0.00540605,0.0037708,-0.00845253,0.54276,0.00722763,0.0472357,1217,1695,0.256162,-0.537894
0,-671,0.0817871,0.358887,6.92817e-05,-0.00417148,0.00638616,0.00467787,-0.00878007,0.625111,0.00788935,0.0474696,1224,1695,0.0817919,-0.358934
7,-671,0.0371094,0.379517,8.16541e-05,-0.00436077,0.00700962,0.00521358,-0.00949269,0.631963,0.00860965,0.0464611,1231,1695,0.0371231,-0.37948
14,-671,-0.500732,0.670654,0,0,0,0,0,0,0,-1,1238,1695,-0.500758,-0.670628
21,-671,-0.159302,0.126343,0,0,0,0,0,0,0,-1,1245,1695,-0.159277,-0.126312
28,-671,0.241211,0.210205,0.00563405,-0.00898291,0.00986016,0.010599,-0.0139478,0.466471,0.014216,0.0440831,1252,1695,0.241272,-0.210151
35,-671,-1.50464,1.18359,0.00770953,-0.0111783,0.0103572,0.012282,-0.0157507,0.415744,0.016226,0.0438788,1259,1695,-1.50466,-1.18354
42,-671,-0.91394,0.949829,0.010603,-0.0139948,0.0110596,0.0148443,-0.018236,0.366195,0.0191324,0.0483314,1266,1695,-0.913898,-0.949797
49,-671,-0.311523,0.787842,0.0136896,-0.0144201,0.0116529,0.017892,-0.0186225,0.346118,0.0210831,0.0473618,1273,1695,-0.311527,-0.787896
56,-671,0.351563,0.515381,0.0161015,-0.0138843,0.0116832,0.0201161,-0.0178988,0.330979,0.0219603,0.044863,1280,1695,0.351515,-0.515416
63,-671,0.837158,-0.105591,0.0165449,-0.0136005,0.0110758,0.0201767,-0.0172323,0.316859,0.0216204,0.0485054,1287,1695,0.837213,0.105574
70,-671,1.15674,0.00170898,0.0159408,-0.0125446,0.0101128,0.0191658,-0.0157697,0.308715,0.0202018,0.0471418,1294,1695,1.1567,-0.00170778
77,-671,1.54492,0.239136,0,0,0,0,0,0,0,-1,1301,1695,1.5449,-0.239176
84,-671,1.01843,0.53772,0.014636,-0.00263599,0.00697063,0.0170982,-0.0050982,0.339546,0.0134248,0.0479246,1308,1695,1.01847,-0.537758
91,-671,0.453857,0.807251,0.012674,-4.10075e-05,0.00538719,0.0146495,-0.00201655,0.351485,0.0105033,0.0447805,1315,1695,0.453838,-0.807278
98,-671,-0.536743,0.181885,0.0109805,0.00714317,0.00170799,0.0116306,0.00649307,0.363688,0.00673009,0.0407283,1322,1695,-0.536791,-0.18193
105,-671,2.2478,1.31433,0.010141,0.0115524,-0.00163166,0.0126244,0.00906895,-0.989513,0.00751686,0.0432205,1329,1695,2.24786,-1.31432
112,-671,2.86926,1.64075,0.00952904,0.0170908,-0.00531228,0.0198303,0.00678955,-1.09468,0.0116371,0.0430084,1336,1695,2.86923,-1.64073
119,-671,3.15796,2.32092,0.0092727,0.0217607,-0.00886077,0.0263565,0.00467692,-1.09233,0.0162381,0.0466968,1343,1695,3.15802,-2.32095
126,-671,3.15955,3.27441,0.00965407,0.0253042,-0.0112765,0.0312047,0.00375356,-1.08872,0.0196717,0.049717,1350,1695,3.15952,-3.27447
133,-671,3.10388,4.18433,0,0,0,0,0,0,0,-1,1357,1695,3.10386,-4.18437
140,-671,3.10388,5.0282,0,0,0,0,0,0,0,-1,1364,1695,3.10387,-5.02817
147,-671,-0.56543,4.65344,0.0107498,0.0303149,-0.0155219,0.0388798,0.00218488,-1.06658,0.0252231,0.0448514,1371,1695,-0.565386,-4.65343
154,-671,1.13586,0.80127,0.00901538,0.0293934,-0.0147303,0.0371152,0.00129353,-1.08797,0.0243238,0.0471753,1378,1695,1.1359,-0.801241
161,-671,0.526001,0.0124512,0.00690094,0.0280296,-0.0132558,0.0344158,0.000514703,-1.12184,0.0227743,0.042502,1385,1695,0.52595,-0.012419
168,-671,0.0769043,-0.785034,0,0,0,0,0,0,0,-1,1392,1695,0.0769355,0.785033
175,-671,0.0251465,-0.293579,0,0,0,0,0,0,0,-1,1399,1695,0.0251982,0.29358
182,-671,0.116577,0.421265,0,0,0,0,0,0,0,-1,1406,1695,0.11657,-0.421209
189,-671,0.293823,0.357544,0.00110127,0.0151909,-0.00615265,0.0174994,-0.00120724,-1.21185,0.0120888,0.0445388,1413,1695,0.293873,-0.35759
196,-671,0.0290527,0.0284424,0.000623032,0.0129746,-0.00488749,0.0146745,-0.00107697,-1.23606,0.0101611,0.0421687,1420,1695,0.0290317,-0.0284198
203,-671,0.0388184,-0.123169,-0.000301032,0.00788224,-0.002664,0.00867306,-0.00109185,-1.28223,0.00617823,0.0414775,1427,1695,0.0387771,0.1232
210,-671,-0.206177,-0.10498,-0.000126467,0.00669297,-0.00186454,0.00716947,-0.000602967,-1.32059,0.00499279,0.0449426,1434,1695,-0.206165,0.105034
217,-671,-0.295288,-0.0765381,0.000522224,0.00502341,-0.00139381,0.00542006,0.000125576,-1.29355,0.00357225,0.0428768,1441,1695,-0.295242,0.0765459
224,-671,-0.108276,-0.0725098,0.0009085,0.00425199,-0.0012961,0.00469557,0.000464918,-1.24105,0.00298749,0.0391185,1448,1695,-0.108292,0.0724823
231,-671,0.375,-0.0284424,0.000999745,0.00362733,-0.00126861,0.00413985,0.000487223,-1.18684,0.00261268,0.0319647,1455,1695,0.37505,0.0284222
238,-671,0.251831,0.0701904,0.000834785,0.00315676,-0.00135292,0.00377854,0.000213,-1.14,0.00245112,0.031481,1462,1695,0.251786,-0.0702196
245,-671,0.0233154,0.09021,0.000856919,0.00310501,-0.00123792,0.00365307,0.000308863,-1.15401,0.00233923,0.0257431,1469,1695,0.0233529,-0.0901964
252,-671,-0.0253906,0.0921631,0.000783608,0.00263508,-0.0011191,0.00316172,0.000256973,-1.13096,0.00202759,0.0237536,1476,1695,-0.0253536,-0.0921244
259,-671,-0.0178223,0.0638428,0.000835446,0.00209193,-0.000962451,0.00261304,0.000314341,-1.07455,0.00164727,0.0198931,1483,1695,-0.017796,-0.0638477
266,-671,-0.0032959,0.0537109,0.00076428,0.00150956,-0.000747309,0.00197198,0.000301856,-1.01668,0.00122648,0.0110902,1490,1695,-0.00333605,-0.0537328
273,-671,-0.0246582,0.0562744,0.000367947,0.0009519,-0.000385942,0.00114387,0.00017598,-1.10923,0.000711213,0.0074164,1497,1695,-0.024644,-0.0563057
280,-671,-0.0349121,0.0683594,7.50361e-05,0.00042058,-0.000218209,0.000526134,-3.05178e-05,-1.12025,0.000361358,0.00785578,1504,1695,-0.034967,-0.0683887
287,-671,-0.0415039,0.0511475,0.000221173,2.87651e-05,-0.000289471,0.000430007,-0.00018007,-0.624968,0.000361947,0.00972521,1511,1695,-0.041454,-0.0511717
294,-671,-0.0568848,0.0373535,0.000234081,-0.000336053,-0.000359154,0.000407549,-0.000509521,-0.449949,0.000530561,0.00965966,1518,1695,-0.0569278,-0.037388
301,-671,-0.0445557,0.0605469,0.000398511,-0.000503026,-0.000407582,0.000555455,-0.000659971,-0.367563,0.000702591,0.00882471,1525,1695,-0.0445952,-0.0605249
308,-671,-0.0164795,0.0689697,0.000567526,-0.000297899,-0.000341414,0.000685998,-0.00041637,-0.334001,0.000642767,0.0104083,1532,1695,-0.0164261,-0.0689681
315,-671,0.00158691,0.067749,0.000682925,-0.000185701,-0.000482438,0.000897745,-0.000400522,-0.418923,0.000767661,0.0122664,1539,1695,0.00152892,-0.0677176
322,-671,-0.022583,0.0703125,0.000738819,0.000194897,-0.000426292,0.000972514,-3.87976e-05,-0.501463,0.000661655,0.0140147,1546,1695,-0.0226425,-0.0703291
329,-671,-0.0651855,0.0554199,0.00055704,0.000751049,-0.000392882,0.00105873,0.000249364,-0.90643,0.000639122,0.0133447,1553,1695,-0.0651626,-0.0554523
336,-671,-0.0402832,0.045166,0.000316829,0.00140438,-0.000362742,0.00151427,0.000206943,-1.27665,0.000948089,0.0102718,1560,1695,-0.0402874,-0.0452228
343,-671,-0.0334473,0.052002,0.000340053,0.00193264,-0.000250392,0.00197108,0.000301613,-1.41847,0.00122595,0.00889949,1567,1695,-0.0334807,-0.0520074
350,-671,-0.0322266,0.0539551,0.000523363,0.0025385,-0.000198195,0.00255781,0.000504054,-1.47368,0.00156449,0.00854538,1574,1695,-0.0321769,-0.0539995
357,-671,-0.0405273,0.0578613,0.000598306,0.00293444,-9.05632e-05,0.00293794,0.0005948,-1.53211,0.00179355,0.00883398,1581,1695,-0.040555,-0.0578681
364,-671,-0.0476074,0.0657959,0.000577065,0.00305347,3.83783e-05,0.00305406,0.000576471,1.5553,0.00187368,0.0117893,1588,1695,-0.0475959,-0.0658372
371,-671,-0.0401611,0.0739746,0.00068261,0.00297627,6.92299e-05,0.00297835,0.000680522,1.54065,0.00180208,0.0136211,1595,1695,-0.0401414,-0.0739209
378,-671,-0.036377,0.0831299,0.00126063,0.00272526,-0.000210677,0.00275496,0.00123092,-1.43074,0.00159357,0.0116613,1602,1695,-0.036389,-0.0831743
385,-671,-0.0603027,0.074707,0.0019375,0.00267187,-0.000822508,0.00320543,0.00140394,-0.995335,0.00185539,0.0129789,1609,1695,-0.0603067,-0.0747042
392,-671,-0.0524902,0.0648193,0.00240754,0.00274593,-0.00149251,0.0040788,0.00107467,-0.84184,0.00244115,0.0162337,1616,1695,-0.0524358,-0.0647679
399,-671,-0.0292969,0.0610352,0.00284532,0.00328855,-0.00265579,0.00573196,0.000401915,-0.827024,0.00369463,0.0129268,1623,1695,-0.0292885,-0.0610419
406,-671,-0.00769043,0.0692139,0.00326285,0.00394389,-0.00403794,0.00765564,-0.000448903,-0.827464,0.00525979,0.0167325,1630,1695,-0.00766647,-0.069232
413,-671,-0.0184326,0.0717773,0.00369311,0.00478994,-0.00559335,0.0098617,-0.00137865,-0.834266,0.00707891,0.0250417,1637,1695,-0.0183888,-0.0717776
420,-671,-0.0744629,0.0368652,0.00361396,0.00582198,-0.00695427,0.0117593,-0.00232338,-0.864118,0.00871783,0.0384438,1644,1695,-0.0744696,-0.0368991
427,-671,0.253296,-0.205688,0.00277005,0.00716152,-0.00843587,0.0136827,-0.00375115,-0.912716,0.0105959,0.0449428,1651,1695,0.253306,0.205745
434,-671,0.491211,-0.547729,0.00181542,0.00869445,-0.00971551,0.0155613,-0.00505144,-0.955525,0.0124057,0.0424759,1658,1695,0.491155,0.547742
441,-671,0.641479,-0.732056,0.00067362,0.00981885,-0.0106386,0.0168259,-0.00633345,-0.988368,0.0138209,0.0446297,1665,1695,0.64143,0.73204
448,-671,0.783569,-0.91626,-0.00156199,0.0104576,-0.0111806,0.0171412,-0.0082456,-1.032,0.014954,0.0470866,1672,1695,0.783543,0.916288
455,-671,0.897949,-1.12561,0,0,0,0,0,0,0,-1,1679,1695,0.897895,1.12566
462,-671,-0.162964,0.228394,0,0,0,0,0,0,0,-1,1686,1695,-0.163,-0.228398
469,-671,0.32251,0.266113,0,0,0,0,0,0,0,-1,1693,1695,0.322538,-0.266146
476,-671,0.124512,1.03479,0,0,0,0,0,0,0,-1,1700,1695,0.124471,-1.03484
483,-671,-0.43811,1.63086,0,0,0,0,0,0,0,-1,1707,1695,-0.438114,-1.63086
490,-671,0,0,0,0,0,0,0,0,0,-1,1714,1695,0,0
497,-671,0,0,0,0,0,0,0,0,0,-1,1721,1695,0,0
504,-671,0,0,0,0,0,0,0,0,0,-1,1728,1695,0,0
511,-671,0,0,0,0,0,0,0,0,0,-1,1735,1695,0,0
518,-671,0,0,0,0,0,0,0,0,0,-1,1742,1695,0,0
525,-671,0,0,0,0,0,0,0,0,0,-1,1749,1695,0,0
532,-671,0,0,0,0,0,0,0,0,0,-1,1756,1695,0,0
539,-671,0,0,0,0,0,0,0,0,0,-1,1763,1695,0,0
546,-671,0,0,0,0,0,0,0,0,0,-1,1770,1695,0,0
553,-671,0,0,0,0,0,0,0,0,0,-1,1777,1695,0,0
560,-671,0,0,0,0,0,0,0,0,0,-1,1784,1695,0,0
567,-671,0,0,0,0,0,0,0,0,0,-1,1791,1695,0,0
574,-671,0,0,0,0,0,0,0,0,0,-1,1798,1695,0,0
581,-671,0,0,0,0,0,0,0,0,0,-1,1805,1695,0,0
588,-671,0,0,0,0,0,0,0,0,0,-1,1812,1695,0,0
595,-671,0,0,0,0,0,0,0,0,0,-1,1819,1695,0,0
602,-671,0,0,0,0,0,0,0,0,0,-1,1826,1695,0,0
609,-671,0,0,0,0,0,0,0,0,0,-1,1833,1695,0,0
616,-671,0,0,0,0,0,0,0,0,0,-1,1840,1695,0,0
623,-671,0,0,0,0,0,0,0,0,0,-1,1847,1695,0,0
630,-671,0,0,0,0,0,0,0,0,0,-1,1854,1695,0,0
637,-671,0,0,0,0,0,0,0,0,0,-1,1861,1695,0,0
644,-671,0,0,0,0,0,0,0,0,0,-1,1868,1695,0,0
651,-671,0,0,0,0,0,0,0,0,0,-1,1875,1695,0,0
658,-671,0,0,0,0,0,0,0,0,0,-1,1882,1695,0,0
665,-671,0,0,0,0,0,0,0,0,0,-1,1889,1695,0,0
672,-671,0,0,0,0,0,0,0,0,0,-1,1896,1695,0,0
679,-671,0,0,0,0,0,0,0,0,0,-1,1903,1695,0,0
686,-671,0,0,0,0,0,0,0,0,0,-1,1910,1695,0,0
693,-671,0,0,0,0,0,0,0,0,0,-1,1917,1695,0,0
700,-671,0,0,0,0,0,0,0,0,0,-1,1924,1695,0,0
707,-671,0,0,0,0,0,0,0,0,0,-1,1931,1695,0,0
714,-671,0,0,0,0,0,0,0,0,0,-1,1938,1695,0,0
721,-671,0,0,0,0,0,0,0,0,0,-1,1945,1695,0,0
728,-671,0,0,0,0,0,0,0,0,0,-1,1952,1695,0,0
735,-671,0,0,0,0,0,0,0,0,0,-1,1959,1695,0,0
742,-671,0,0,0,0,0,0,0,0,0,-1,1966,1695,0,0
749,-671,0,0,0,0,0,0,0,0,0,-1,1973,1695,0,0
756,-671,0,0,0,0,0,0,0,0,0,-1,1980,1695,0,0
763,-671,0,0,0,0,0,0,0,0,0,-1,1987,1695,0,0
770,-671,0,0,0,0,0,0,0,0,0,-1,1994,1695,0,0
777,-671,0,0,0,0,0,0,0,0,0,-1,2001,1695,0,0
784,-671,0,0,0,0,0,0,0,0,0,-1,2008,1695,0,0
791,-671,0,0,0,0,0,0,0,0,0,-1,2015,1695,0,0
798,-671,0,0,0,0,0,0,0,0,0,-1,2022,1695,0,0
805,-671,0,0,0,0,0,0,0,0,0,-1,2029,1695,0,0
812,-671,0,0,0,0,0,0,0,0,0,-1,2036,1695,0,0
-700,-678,0,0,0,0,0,0,0,0,0,-1,524,1702,0,0
-693,-678,0,0,0,0,0,0,0,0,0,-1,531,1702,0,0
-686,-678,0,0,0,0,0,0,0,0,0,-1,538,1702,0,0
-679,-678,0,0,0,0,0,0,0,0,0,-1,545,1702,0,0
-672,-678,0,0,0,0,0,0,0,0,0,-1,552,1702,0,0
-665,-678,0,0,0,0,0,0,0,0,0,-1,559,1702,0,0
-658,-678,0,0,0,0,0,0,0,0,0,-1,566,1702,0,0
-651,-678,0,0,0,0,0,0,0,0,0,-1,573,1702,0,0
-644,-678,0,0,0,0,0,0,0,0,0,-1,580,1702,0,0
-637,-678,0,0,0,0,0,0,0,0,0,-1,587,1702,0,0
-630,-678,0,0,0,0,0,0,0,0,0,-1,594,1702,0,0
-623,-678,0,0,0,0,0,0,0,0,0,-1,601,1702,0,0
-616,-678,0,0,0,0,0,0,0,0,0,-1,608,1702,0,0
-609,-678,0,0,0,0,0,0,0,0,0,-1,615,1702,0,0
-602,-678,0,0,0,0,0,0,0,0,0,-1,622,1702,0,0
-595,-678,0,0,0,0,0,0,0,0,0,-1,629,1702,0,0
-588,-678,0,0,0,0,0,0,0,0,0,-1,636,1702,0,0
-581,-678,0,0,0,0,0,0,0,0,0,-1,643,1702,0,0
-574,-678,0,0,0,0,0,0,0,0,0,-1,650,1702,0,0
-567,-678,0,0,0,0,0,0,0,0,0,-1,657,1702,0,0
-560,-678,0,0,0,0,0,0,0,0,0,-1,664,1702,0,0
-553,-678,0,0,0,0,0,0,0,0,0,-1,671,1702,0,0
-546,-678,0,0,0,0,0,0,0,0,0,-1,678,1702,0,0
-539,-678,0,0,0,0,0,0,0,0,0,-1,685,1702,0,0
-532,-678,0,0,0,0,0,0,0,0,0,-1,692,1702,0,0
-525,-678,0,0,0,0,0,0,0,0,0,-1,699,1702,0,0
-518,-678,0,0,0,0,0,0,0,0,0,-1,706,1702,0,0
-511,-678,0,0,0,0,0,0,0,0,0,-1,713,1702,0,0
-504,-678,0,0,0,0,0,0,0,0,0,-1,720,1702,0,0
-497,-678,0,0,0,0,0,0,0,0,0,-1,727,1702,0,0
-490,-678,0,0,0,0,0,0,0,0,0,-1,734,1702,0,0
-483,-678,0,0,0,0,0,0,0,0,0,-1,741,1702,0,0
-476,-678,0,0,0,0,0,0,0,0,0,-1,748,1702,0,0
-469,-678,0,0,0,0,0,0,0,0,0,-1,755,1702,0,0
-462,-678,0,0,0,0,0,0,0,0,0,-1,762,1702,0,0
-455,-678,0,0,0,0,0,0,0,0,0,-1,769,1702,0,0
-448,-678,0,0,0,0,0,0,0,0,0,-1,776,1702,0,0
-441,-678,0,0,0,0,0,0,0,0,0,-1,783,1702,0,0
-434,-678,0,0,0,0,0,0,0,0,0,-1,790,1702,0,0
-427,-678,0,0,0,0,0,0,0,0,0,-1,797,1702,0,0
-420,-678,0,0,0,0,0,0,0,0,0,-1,804,1702,0,0
-413,-678,0,0,0,0,0,0,0,0,0,-1,811,1702,0,0
-406,-678,0,0,0,0,0,0,0,0,0,-1,818,1702,0,0
-399,-678,0,0,0,0,0,0,0,0,0,-1,825,1702,0,0
-392,-678,0,0,0,0,0,0,0,0,0,-1,832,1702,0,0
-385,-678,0,0,0,0,0,0,0,0,0,-1,839,1702,0,0
-378,-678,0,0,0,0,0,0,0,0,0,-1,846,1702,0,0
-371,-678,0,0,0,0,0,0,0,0,0,-1,853,1702,0,0
-364,-678,0,0,0,0,0,0,0,0,0,-1,860,1702,0,0
-357,-678,0,0,0,0,0,0,0,0,0,-1,867,1702,0,0
-350,-678,0.839172,1.90723,0,0,0,0,0,0,0,-1,874,1702,0.839159,-1.90723
-343,-678,0.858643,0.945679,-0.0258804,-0.0320094,-0.00793334,-0.0204403,-0.0374495,-0.601087,0.0216517,0.0445027,881,1702,0.85862,-0.945651
-336,-678,0.136108,0.396606,-0.018028,-0.0354425,-0.0055575,-0.0164056,-0.0370649,-0.284039,0.0214464,0.0422506,888,1702,0.13608,-0.396642
-329,-678,-0.162048,0.354004,-0.00938291,-0.0360851,-0.00290776,-0.00906993,-0.0363981,-0.107222,0.021878,0.041118,895,1702,-0.16205,-0.354028
-322,-678,-0.342285,0.991577,-0.0011752,-0.0347829,-0.000733572,-0.00115919,-0.0347989,-0.0218136,0.0228227,0.0443137,902,1702,-0.342269,-0.991594
-315,-678,-0.383301,1.93689,0.0054124,-0.0326955,0.000831255,0.00543052,-0.0327137,0.0217994,0.0238265,0.0464684,909,1702,-0.383309,-1.93688
-308,-678,-0.238403,2.87427,0.0102008,-0.0289783,0.00146804,0.0102557,-0.0290333,0.0373999,0.0235312,0.0453099,916,1702,-0.238419,-2.87425
-301,-678,-0.108154,3.53198,0.0128692,-0.0251681,0.00252668,0.0130364,-0.0253352,0.0660396,0.0225299,0.0477603,923,1702,-0.108164,-3.53194
-294,-678,0.0825806,-0.754761,0,0,0,0,0,0,0,-1,930,1702,0.0826032,0.754717
-287,-678,0.127136,-0.54834,0,0,0,0,0,0,0,-1,937,1702,0.127152,0.548323
-280,-678,0.310242,-0.438599,0.0145099,-0.0139889,0.00501727,0.0153674,-0.0148464,0.169274,0.0174448,0.0423952,944,1702,0.310219,0.438587
-273,-678,0.179443,0.122803,0.0126384,-0.0110339,0.00486134,0.0135978,-0.0119934,0.194856,0.0147848,0.0410425,951,1702,0.17942,-0.122837
-266,-678,0.0942383,0.0958252,0.0105486,-0.00770146,0.00401338,0.0113922,-0.00854505,0.207178,0.0115498,0.0372735,958,1702,0.0942274,-0.0958231
-259,-678,-0.0379639,0.0780029,0.00809293,-0.00517943,0.00332084,0.00887746,-0.00596395,0.23199,0.00862355,0.0229598,965,1702,-0.0379859,-0.0779932
-252,-678,-0.0393066,0.0733643,0.00579856,-0.00353587,0.00374019,0.0071123,-0.00484962,0.337789,0.00694728,0.0156493,972,1702,-0.0393371,-0.0733668
-245,-678,-0.0166016,0.0546875,0.00411523,-0.00308405,0.0040447,0.00593011,-0.00489892,0.421777,0.00626159,0.0157503,979,1702,-0.0166185,-0.0547366
-238,-678,-0.0161133,0.0633545,0.0024936,-0.00269774,0.00288305,0.00377729,-0.00398144,0.418902,0.00448002,0.0140811,986,1702,-0.0161334,-0.0633526
-231,-678,-0.0441895,0.0775146,0.000547077,-0.00211416,0.00192664,0.00155793,-0.00312501,0.483189,0.0027537,0.0128357,993,1702,-0.0442019,-0.0774596
-224,-678,-0.0529785,0.0606689,-0.000170916,-0.00210502,0.00102074,0.000268123,-0.00254406,0.4062,0.00179211,0.0131155,1000,1702,-0.052961,-0.060711
-217,-678,-0.0401001,0.0734863,-0.000232068,-0.00160663,0.000349459,-0.000148326,-0.00169037,0.235198,0.00108087,0.0133011,1007,1702,-0.0401164,-0.0735237
-210,-678,-0.0313721,0.069458,-0.000287247,-0.000943674,0.000153448,-0.000253148,-0.000977773,0.218667,0.000585985,0.0135692,1014,1702,-0.0313898,-0.069424
-203,-678,-0.0608521,0.0583496,-0.00014754,-0.000652154,0.000358129,3.8235e-05,-0.000837928,0.478524,0.00057179,0.0177119,1021,1702,-0.0608594,-0.058392
-196,-678,-0.0583496,0.0554199,-5.58882e-05,-0.000276944,0.00031402,0.000166488,-0.00049932,0.616181,0.000400094,0.0176497,1028,1702,-0.0583407,-0.0554456
-189,-678,-0.0249023,0.0668945,-5.03088e-05,-0.000243435,0.000500391,0.000362751,-0.000656495,0.690082,0.000596553,0.00943365,1035,1702,-0.0249444,-0.0669196
-182,-678,-0.0401611,0.0565186,-1.5618e-05,-0.000246919,0.000659944,0.000538732,-0.000801269,0.698657,0.000778584,0.00897806,1042,1702,-0.0401976,-0.0565221
-175,-678,-0.057251,0.0662842,6.07791e-05,-0.000464933,0.000765815,0.000607594,-0.00101175,0.62008,0.000944583,0.0107683,1049,1702,-0.0572034,-0.0662856
-168,-678,-0.0582275,0.0739746,0.000167155,1.47121e-06,0.00107349,0.00116099,-0.000992366,0.746889,0.00124451,0.00999341,1056,1702,-0.0582488,-0.073952
-161,-678,-0.050415,0.0657959,0.000417698,0.000543511,0.0016164,0.00209823,-0.00113702,0.804847,0.00189515,0.00819743,1063,1702,-0.0504459,-0.0658289
-154,-678,-0.0400391,0.0541992,0.000973071,0.000937642,0.00186295,0.00281839,-0.000907675,0.780644,0.00224355,0.0076372,1070,1702,-0.0400551,-0.0542323
-147,-678,-0.0228271,0.0423584,0.00165423,0.00116741,0.00208145,0.00350645,-0.000684813,0.727191,0.00259619,0.0095847,1077,1702,-0.0228586,-0.0423061
-140,-678,-0.0281982,0.0478516,0.00206815,0.00131021,0.00241359,0.00413235,-0.000753979,0.707527,0.00303758,0.0108658,1084,1702,-0.0281963,-0.0478416
-133,-678,-0.0335693,0.0539551,0.00212087,0.00149564,0.00306049,0.00488466,-0.00126816,0.734502,0.00375131,0.0109464,1091,1702,-0.0335446,-0.0539875
-126,-678,-0.0330811,0.052124,0.00168662,0.00166461,0.0033804,0.00505603,-0.00170481,0.78377,0.00406007,0.00835615,1098,1702,-0.033054,-0.0521197
-119,-678,-0.0115967,0.0507813,0.00134728,0.0015786,0.00356138,0.0050262,-0.00210032,0.80163,0.00422851,0.0149785,1105,1702,-0.0116242,-0.0507484
-112,-678,0.0285645,0.0449219,0.000948129,0.0011757,0.00360111,0.00466483,-0.00254099,0.801192,0.00422009,0.0205396,1112,1702,0.0286201,-0.0449178
-105,-678,0.00256348,0.0457764,0.000389655,0.000496326,0.00354057,0.00398396,-0.00309798,0.79293,0.00409941,0.020773,1119,1702,0.00261799,-0.0457564
-98,-678,-0.0407715,0.0216064,-0.00017669,-0.000336429,0.00337749,0.00312187,-0.00363499,0.773577,0.00390482,0.0137411,1126,1702,-0.0407531,-0.0215997
-91,-678,-0.0281982,0.00866699,-0.000712338,-0.0015405,0.00262801,0.00153401,-0.00378685,0.707258,0.00316245,0.0136919,1133,1702,-0.0281622,-0.00869664
-84,-678,0.000732422,0.0522461,-0.00094597,-0.00366256,0.00160013,-0.000205366,-0.00440316,0.43348,0.00286944,0.020942,1140,1702,0.000776305,-0.0522397
-77,-678,-0.0379639,0.102783,-0.000854485,-0.00592859,0.000672548,-0.000766856,-0.00601622,0.129565,0.0037812,0.0267178,1147,1702,-0.0380134,-0.102826
-70,-678,-0.112183,0.15979,-9.42854e-05,-0.00851355,0.000151767,-9.15504e-05,-0.00851629,0.0180184,0.00564726,0.0276387,1154,1702,-0.112137,-0.159823
-63,-678,-0.126221,0.138062,0.000779462,-0.0110423,-0.000432839,0.000795288,-0.0110582,-0.0365484,0.00765099,0.0315585,1161,1702,-0.126224,-0.138004
-56,-678,-0.144775,0.069458,0.00198349,-0.0128684,-0.00111469,0.00206669,-0.0129516,-0.0744978,0.00939934,0.0340658,1168,1702,-0.144723,-0.0694532
-49,-678,-0.227417,-0.0930176,0.0030269,-0.0137823,-0.00088413,0.00307327,-0.0138286,-0.0524054,0.0103961,0.0429133,1175,1702,-0.227476,0.0930389
-42,-678,-0.312012,-0.773682,0.00388127,-0.0134348,-0.000508954,0.00389622,-0.0134498,-0.0293581,0.0105088,0.0454872,1182,1702,-0.311984,0.773647
-35,-678,-0.0682373,-0.834595,0.00485345,-0.0120446,-0.000271485,0.00485781,-0.012049,-0.0160605,0.0100511,0.0467245,1189,1702,-0.068186,0.834548
-28,-678,0.0672607,-0.827393,0.00585803,-0.0106144,-2.24279e-05,0.00585806,-0.0106145,-0.00136153,0.00964167,0.0451125,1196,1702,0.0673203,0.827438
-21,-678,0.0187988,0.0272217,0.00321781,-0.00924182,0.00204985,0.00354639,-0.00957039,0.15894,0.00783467,0.044543,1203,1702,0.0188037,-0.0271892
-14,-678,0.0336914,0.0350342,0.000442568,-0.00724732,0.00400788,0.00215161,-0.00895636,0.403072,0.00680249,0.0414049,1210,1702,0.0336494,-0.0350218
-7,-678,0.09729,0.255981,-0.000217632,-0.00565538,0.00505078,0.00279958,-0.00867259,0.538487,0.00690671,0.0433883,1217,1702,0.0972903,-0.255956
0,-678,0.0626221,0.276245,-0.000664226,-0.00408361,0.00575166,0.00362646,-0.0083743,0.640931,0.0071071,0.0467309,1224,1702,0.0625632,-0.276211
7,-678,0.00500488,0.27832,-0.000688636,-0.0034375,0.00605931,0.00415017,-0.00827631,0.673871,0.00730508,0.0455527,1231,1702,0.00498683,-0.278328
14,-678,-0.291138,0.356079,0.000174287,-0.00351509,0.00694725,0.00551758,-0.00885839,0.655629,0.00837434,0.0449273,1238,1702,-0.29116,-0.35612
21,-678,-0.119751,0.0697021,0.00174398,-0.00330781,0.00708659,0.00674138,-0.00830521,0.614201,0.00870278,0.0427249,1245,1702,-0.119735,-0.0697396
28,-678,0.0137939,-0.0701904,0.00391079,-0.00495408,0.00726602,0.00798962,-0.0090329,0.51152,0.00983411,0.0418574,1252,1702,0.0137818,0.0702287
35,-678,0.22168,-0.290649,0.00568371,-0.0062705,0.00740418,0.00922226,-0.00980905,0.445822,0.0109895,0.0444955,1259,1702,0.22162,0.290636
42,-678,-0.431274,0.517212,0.00801897,-0.00819519,0.0076977,0.0110913,-0.0112675,0.379751,0.012909,0.0438224,1266,1702,-0.431287,-0.517222
49,-678,-0.0947266,0.36499,0.0106631,-0.00885553,0.00805102,0.0135554,-0.0117478,0.344888,0.0146212,0.0451932,1273,1702,-0.0946931,-0.365029
56,-678,0.761108,-0.0235596,0.0129253,-0.00849019,0.00818327,0.0156943,-0.0112592,0.326276,0.0156316,0.0459743,1280,1702,0.761071,0.0236031
63,-678,1.35437,-0.269775,0,0,0,0,0,0,0,-1,1287,1702,1.35438,0.269741
70,-678,1.31946,0.4552,0,0,0,0,0,0,0,-1,1294,1702,1.3194,-0.455242
77,-678,0.333496,0.539673,0,0,0,0,0,0,0,-1,1301,1702,0.333479,-0.539693
84,-678,0.309692,0.259399,0.0128042,-0.000671603,0.00600886,0.0150944,-0.00296175,0.364132,0.0111817,0.046207,1308,1702,0.309652,-0.259408
91,-678,0.0574951,0.606201,0.0114543,0.00119489,0.00524111,0.0136583,-0.00100911,0.398071,0.00945983,0.0447916,1315,1702,0.0575249,-0.606197
98,-678,-0.43042,0.585693,0.0103026,0.00762567,0.00244819,0.0117543,0.00617394,0.535243,0.00678922,0.0389606,1322,1702,-0.430363,-0.585715
105,-678,-0.480225,-0.889282,0.00961231,0.0115764,-7.57461e-05,0.0115793,0.0096094,-1.53231,0.00715388,0.036997,1329,1702,-0.480168,0.889282
112,-678,3.4043,1.72327,0,0,0,0,0,0,0,-1,1336,1702,3.40426,-1.72321
119,-678,4.0553,2.10632,0.00870136,0.0210885,-0.00618676,0.0236492,0.00614072,-1.17837,0.0141699,0.0420152,1343,1702,4.05526,-2.1063
126,-678,4.29089,3.47742,0.00885256,0.024527,-0.00849986,0.0282513,0.00512822,-1.15783,0.0173789,0.0430553,1350,1702,4.29091,-3.47747
133,-678,-0.0858154,0.0144043,0,0,0,0,0,0,0,-1,1357,1702,-0.0857818,-0.014439
140,-678,-1.01904,0.31604,0,0,0,0,0,0,0,-1,1364,1702,-1.01901,-0.316022
147,-678,1.79834,1.04175,0.00939563,0.0293124,-0.0129825,0.035716,0.00299202,-1.11256,0.0228786,0.0434132,1371,1702,1.7984,-1.04171
154,-678,1.01477,0.760132,0.00764213,0.0286177,-0.0124503,0.0344089,0.00185101,-1.13542,0.0223478,0.0416596,1378,1702,1.01474,-0.760128
161,-678,0.570923,0.373657,0.00551213,0.0270877,-0.0114435,0.0320267,0.000573158,-1.16335,0.0211627,0.0433161,1385,1702,0.570979,-0.373641
168,-678,0.253174,-0.235352,0.00443008,0.0260651,-0.00987943,0.0298976,0.000597623,-1.20074,0.0197355,0.0426149,1392,1702,0.253225,0.235348
175,-678,-0.0117188,0.0153809,0.00297219,0.0237688,-0.00829795,0.0266739,6.70869e-05,-1.23403,0.0177603,0.0442278,1399,1702,-0.0117015,-0.0154144
182,-678,0.0224609,0.264893,0.00121473,0.0176941,-0.00761111,0.0206714,-0.0017626,-1.19791,0.0144045,0.0442161,1406,1702,0.0224865,-0.264871
189,-678,0.00878906,0.243896,0,0,0,0,0,0,0,-1,1413,1702,0.00882412,-0.243841
196,-678,0.0106201,0.0435791,0.000157258,0.0121434,-0.00438903,0.0135787,-0.00127802,-1.25474,0.00950714,0.0352411,1420,1702,0.0105887,-0.043522
203,-678,0.0720215,0.0501709,-0.000637161,0.00726906,-0.00212802,0.00780544,-0.00117354,-1.32388,0.00563569,0.0334978,1427,1702,0.0720153,-0.0501892
210,-678,-0.048584,0.0548096,-0.000350054,0.00622488,-0.00125759,0.00645722,-0.000582385,-1.38811,0.00451149,0.0356129,1434,1702,-0.0485254,-0.0547979
217,-678,-0.112793,0.0344238,0.000344481,0.00471019,-0.000632842,0.00480008,0.000254596,-1.42971,0.00311865,0.0345286,1441,1702,-0.112782,-0.0344639
224,-678,-0.0706787,0.0429688,0.00072976,0.00399591,-0.000398329,0.00404379,0.000681883,-1.45118,0.00249976,0.0246143,1448,1702,-0.0706719,-0.0430169
231,-678,-0.0469971,0.0754395,0.000847038,0.00338938,-0.000243454,0.00341248,0.000823935,-1.47618,0.00205613,0.0181351,1455,1702,-0.0470071,-0.0754237
238,-678,-0.0343018,0.0809326,0.000755381,0.00294106,-0.000234169,0.00296586,0.000730574,-1.46525,0.00178429,0.0145081,1462,1702,-0.0342655,-0.0809105
245,-678,-0.0344238,0.0737305,0.000828534,0.00277088,-3.05552e-05,0.00277136,0.000828054,-1.55507,0.00164266,0.0107838,1469,1702,-0.0344823,-0.0737597
252,-678,-0.0155029,0.053833,0.000794804,0.00229161,5.89657e-05,0.00229393,0.000792485,1.53148,0.00134532,0.00934428,1476,1702,-0.0155242,-0.0538665
259,-678,-0.0279541,0.0477295,0.000813218,0.00175947,5.27583e-05,0.0017624,0.000810286,1.51527,0.00101862,0.0103965,1483,1702,-0.0278945,-0.0476835
266,-678,-0.0238037,0.0588379,0.000723855,0.00126912,-1.1024e-05,0.00126935,0.000723633,-1.55059,0.000735253,0.00987526,1490,1702,-0.0237633,-0.0588797
273,-678,-0.0166016,0.0640869,0.000386611,0.000779451,-2.56839e-05,0.000781123,0.000384939,-1.50579,0.000450997,0.0085656,1497,1702,-0.0165462,-0.0640486
280,-678,-0.0368652,0.057251,9.31414e-05,0.000366907,-0.0002295,0.000497245,-3.71968e-05,-1.0543,0.000344565,0.00901483,1504,1702,-0.0369075,-0.0572299
287,-678,-0.050415,0.027832,0.000141631,0.000155717,-0.000610105,0.00075882,-0.000461471,-0.79117,0.000711474,0.0104492,1511,1702,-0.0503549,-0.0277866
294,-678,-0.0509033,0.0274658,7.03386e-05,-5.34702e-05,-0.000927542,0.000938039,-0.000921171,-0.752077,0.00107343,0.011311,1518,1702,-0.050917,-0.0274669
301,-678,-0.0421143,0.0512695,0.000134951,-0.000114231,-0.00118785,0.00120472,-0.001184,-0.733145,0.00137915,0.0107136,1525,1702,-0.0421297,-0.0512349
308,-678,-0.0285645,0.0610352,0.000180864,0.00019869,-0.00137876,0.00156856,-0.00118901,-0.78863,0.0015971,0.0119186,1532,1702,-0.028541,-0.0609855
315,-678,-0.038208,0.0606689,0.000235504,0.000504617,-0.00165611,0.00203162,-0.0012915,-0.825934,0.0019344,0.0138378,1539,1702,-0.0381958,-0.0606992
322,-678,-0.0737305,0.0699463,0.000271823,0.00109898,-0.0016796,0.00241518,-0.00104437,-0.906115,0.00204897,0.0168962,1546,1702,-0.0737756,-0.0699544
329,-678,-0.0571289,0.0541992,3.38128e-05,0.00187113,-0.00159031,0.00278905,-0.000884107,-1.04731,0.00221372,0.014112,1553,1702,-0.0571719,-0.054154
336,-678,-0.0515137,0.036499,-0.000304911,0.00270974,-0.00140964,0.00326618,-0.000861344,-1.19484,0.00251424,0.0115153,1560,1702,-0.0515133,-0.0365186
343,-678,-0.0549316,0.0618896,-0.000261165,0.00341868,-0.00114002,0.00374324,-0.000585719,-1.29344,0.0027119,0.0102059,1567,1702,-0.054985,-0.0618649
350,-678,-0.048584,0.0593262,2.79693e-05,0.00422545,-0.000939307,0.00442606,-0.00017264,-1.36039,0.00300991,0.00934674,1574,1702,-0.0485539,-0.0592799
357,-678,-0.0308838,0.0487061,0.000190056,0.00477177,-0.000626582,0.00485591,0.000105912,-1.4373,0.00320255,0.00800316,1581,1702,-0.0308381,-0.048706
364,-678,-0.0452881,0.0628662,0.00027071,0.0049819,-0.000257879,0.00499598,0.000256637,-1.51628,0.00324849,0.0107773,1588,1702,-0.0453234,-0.0628329
371,-678,-0.0501709,0.0681152,0.000400173,0.00492228,-1.60365e-05,0.00492234,0.000400116,-1.56725,0.00315665,0.0119705,1595,1702,-0.0501146,-0.0680603
378,-678,-0.0495605,0.0799561,0.00100645,0.00458623,-0.000116404,0.00459001,0.00100267,-1.53833,0.00278658,0.0123854,1602,1702,-0.0495766,-0.079907
385,-678,-0.0523682,0.0689697,0.00171644,0.00439927,-0.000630548,0.00454008,0.00157563,-1.35109,0.00266178,0.0117038,1609,1702,-0.0523968,-0.0689329
392,-678,-0.0102539,0.0979004,0.0022421,0.00423288,-0.00125219,0.0048371,0.00163787,-1.12122,0.00284079,0.0187999,1616,1702,-0.0102675,-0.0979276
399,-678,-0.0175781,0.117188,0.00273046,0.00454556,-0.00244479,0.00624581,0.00103021,-0.963124,0.00386649,0.0295922,1623,1702,-0.0175395,-0.117172
406,-678,-0.0703125,0.126709,0.00315388,0.00488885,-0.00390715,0.00802366,1.90758e-05,-0.894639,0.00534276,0.0352285,1630,1702,-0.0703026,-0.126732
413,-678,0.0233154,0.136475,0.0035339,0.00533745,-0.00564665,0.0101539,-0.00128253,-0.86458,0.00723475,0.0375951,1637,1702,0.0233524,-0.13651
420,-678,-0.0440674,0.385376,0.00328595,0.00610496,-0.00728423,0.0121148,-0.00272389,-0.880967,0.0091211,0.0408579,1644,1702,-0.0440676,-0.385362
427,-678,0.335693,-0.165161,0.00217968,0.00719596,-0.00914193,0.0141676,-0.00479193,-0.919282,0.0113837,0.0419497,1651,1702,0.335667,0.165204
434,-678,0.773193,-0.706177,0.000971635,0.00851505,-0.0108328,0.0162139,-0.00672726,-0.952923,0.0136174,0.0481423,1658,1702,0.773152,0.706203
441,-678,0.814575,-0.826538,0,0,0,0,0,0,0,-1,1665,1702,0.814585,0.826507
448,-678,0.950806,-0.951172,0,0,0,0,0,0,0,-1,1672,1702,0.950811,0.951203
455,-678,-0.119263,-0.374512,0,0,0,0,0,0,0,-1,1679,1702,-0.119273,0.374549
462,-678,-0.310425,0.0819092,0,0,0,0,0,0,0,-1,1686,1702,-0.310453,-0.081866
469,-678,-0.757813,0.99707,0,0,0,0,0,0,0,-1,1693,1702,-0.757787,-0.997075
476,-678,0,0,0,0,0,0,0,0,0,-1,1700,1702,0,0
483,-678,0,0,0,0,0,0,0,0,0,-1,1707,1702,0,0
490,-678,0,0,0,0,0,0,0,0,0,-1,1714,1702,0,0
497,-678,0,0,0,0,0,0,0,0,0,-1,1721,1702,0,0
504,-678,0,0,0,0,0,0,0,0,0,-1,1728,1702,0,0
511,-678,0,0,0,0,0,0,0,0,0,-1,1735,1702,0,0
518,-678,0,0,0,0,0,0,0,0,0,-1,1742,1702,0,0
525,-678,0,0,0,0,0,0,0,0,0,-1,1749,1702,0,0
532,-678,0,0,0,0,0,0,0,0,0,-1,1756,1702,0,0
539,-678,0,0,0,0,0,0,0,0,0,-1,1763,1702,0,0
546,-678,0,0,0,0,0,0,0,0,0,-1,1770,1702,0,0
553,-678,0,0,0,0,0,0,0,0,0,-1,1777,1702,0,0
560,-678,0,0,0,0,0,0,0,0,0,-1,1784,1702,0,0
567,-678,0,0,0,0,0,0,0,0,0,-1,1791,1702,0,0
574,-678,0,0,0,0,0,0,0,0,0,-1,1798,1702,0,0
581,-678,0,0,0,0,0,0,0,0,0,-1,1805,1702,0,0
588,-678,0,0,0,0,0,0,0,0,0,-1,1812,1702,0,0
595,-678,0,0,0,0,0,0,0,0,0,-1,1819,1702,0,0
602,-678,0,0,0,0,0,0,0,0,0,-1,1826,1702,0,0
609,-678,0,0,0,0,0,0,0,0,0,-1,1833,1702,0,0
616,-678,0,0,0,0,0,0,0,0,0,-1,1840,1702,0,0
623,-678,0,0,0,0,0,0,0,0,0,-1,1847,1702,0,0
630,-678,0,0,0,0,0,0,0,0,0,-1,1854,1702,0,0
637,-678,0,0,0,0,0,0,0,0,0,-1,1861,1702,0,0
644,-678,0,0,0,0,0,0,0,0,0,-1,1868,1702,0,0
651,-678,0,0,0,0,0,0,0,0,0,-1,1875,1702,0,0
658,-678,0,0,0,0,0,0,0,0,0,-1,1882,1702,0,0
665,-678,0,0,0,0,0,0,0,0,0,-1,1889,1702,0,0
672,-678,0,0,0,0,0,0,0,0,0,-1,1896,1702,0,0
679,-678,0,0,0,0,0,0,0,0,0,-1,1903,1702,0,0
686,-678,0,0,0,0,0,0,0,0,0,-1,1910,1702,0,0
693,-678,0,0,0,0,0,0,0,0,0,-1,1917,1702,0,0
700,-678,0,0,0,0,0,0,0,0,0,-1,1924,1702,0,0
707,-678,0,0,0,0,0,0,0,0,0,-1,1931,1702,0,0
714,-678,0,0,0,0,0,0,0,0,0,-1,1938,1702,0,0
721,-678,0,0,0,0,0,0,0,0,0,-1,1945,1702,0,0
728,-678,0,0,0,0,0,0,0,0,0,-1,1952,1702,0,0
735,-678,0,0,0,0,0,0,0,0,0,-1,1959,1702,0,0
742,-678,0,0,0,0,0,0,0,0,0,-1,1966,1702,0,0
749,-678,0,0,0,0,0,0,0,0,0,-1,1973,1702,0,0
756,-678,0,0,0,0,0,0,0,0,0,-1,1980,1702,0,0
763,-678,0,0,0,0,0,0,0,0,0,-1,1987,1702,0,0
770,-678,0,0,0,0,0,0,0,0,0,-1,1994,1702,0,0
777,-678,0,0,0,0,0,0,0,0,0,-1,2001,1702,0,0
784,-678,0,0,0,0,0,0,0,0,0,-1,2008,1702,0,0
791,-678,0,0,0,0,0,0,0,0,0,-1,2015,1702,0,0
798,-678,0,0,0,0,0,0,0,0,0,-1,2022,1702,0,0
805,-678,0,0,0,0,0,0,0,0,0,-1,2029,1702,0,0
812,-678,0,0,0,0,0,0,0,0,0,-1,2036,1702,0,0
-700,-685,0,0,0,0,0,0,0,0,0,-1,524,1709,0,0
-693,-685,0,0,0,0,0,0,0,0,0,-1,531,1709,0,0
-686,-685,0,0,0,0,0,0,0,0,0,-1,538,1709,0,0
-679,-685,0,0,0,0,0,0,0,0,0,-1,545,1709,0,0
-672,-685,0,0,0,0,0,0,0,0,0,-1,552,1709,0,0
-665,-685,0,0,0,0,0,0,0,0,0,-1,559,1709,0,0
-658,-685,0,0,0,0,0,0,0,0,0,-1,566,1709,0,0
-651,-685,0,0,0,0,0,0,0,0,0,-1,573,1709,0,0
-644,-685,0,0,0,0,0,0,0,0,0,-1,580,1709,0,0
-637,-685,0,0,0,0,0,0,0,0,0,-1,587,1709,0,0
-630,-685,0,0,0,0,0,0,0,0,0,-1,594,1709,0,0
-623,-685,0,0,0,0,0,0,0,0,0,-1,601,1709,0,0
-616,-685,0,0,0,0,0,0,0,0,0,-1,608,1709,0,0
-609,-685,0,0,0,0,0,0,0,0,0,-1,615,1709,0,0
-602,-685,0,0,0,0,0,0,0,0,0,-1,622,1709,0,0
-595,-685,0,0,0,0,0,0,0,0,0,-1,629,1709,0,0
-588,-685,0,0,0,0,0,0,0,0,0,-1,636,1709,0,0
-581,-685,0,0,0,0,0,0,0,0,0,-1,643,1709,0,0
-574,-685,0,0,0,0,0,0,0,0,0,-1,650,1709,0,0
-567,-685,0,0,0,0,0,0,0,0,0,-1,657,1709,0,0
-560,-685,0,0,0,0,0,0,0,0,0,-1,664,1709,0,0
-553,-685,0,0,0,0,0,0,0,0,0,-1,671,1709,0,0
-546,-685,0,0,0,0,0,0,0,0,0,-1,678,1709,0,0
-539,-685,0,0,0,0,0,0,0,0,0,-1,685,1709,0,0
-532,-685,0,0,0,0,0,0,0,0,0,-1,692,1709,0,0
-525,-685,0,0,0,0,0,0,0,0,0,-1,699,1709,0,0
-518,-685,0,0,0,0,0,0,0,0,0,-1,706,1709,0,0
-511,-685,0,0,0,0,0,0,0,0,0,-1,713,1709,0,0
-504,-685,0,0,0,0,0,0,0,0,0,-1,720,1709,0,0
-497,-685,0,0,0,0,0,0,0,0,0,-1,727,1709,0,0
-490,-685,0,0,0,0,0,0,0,0,0,-1,734,1709,0,0
-483,-685,0,0,0,0,0,0,0,0,0,-1,741,1709,0,0
-476,-685,0,0,0,0,0,0,0,0,0,-1,748,1709,0,0
-469,-685,0,0,0,0,0,0,0,0,0,-1,755,1709,0,0
-462,-685,0,0,0,0,0,0,0,0,0,-1,762,1709,0,0
-455,-685,0,0,0,0,0,0,0,0,0,-1,769,1709,0,0
-448,-685,0,0,0,0,0,0,0,0,0,-1,776,1709,0,0
-441,-685,0,0,0,0,0,0,0,0,0,-1,783,1709,0,0
-434,-685,0,0,0,0,0,0,0,0,0,-1,790,1709,0,0
-427,-685,0,0,0,0,0,0,0,0,0,-1,797,1709,0,0
-420,-685,0,0,0,0,0,0,0,0,0,-1,804,1709,0,0
-413,-685,0,0,0,0,0,0,0,0,0,-1,811,1709,0,0
-406,-685,0,0,0,0,0,0,0,0,0,-1,818,1709,0,0
-399,-685,0,0,0,0,0,0,0,0,0,-1,825,1709,0,0
-392,-685,0,0,0,0,0,0,0,0,0,-1,832,1709,0,0
-385,-685,0,0,0,0,0,0,0,0,0,-1,839,1709,0,0
-378,-685,0,0,0,0,0,0,0,0,0,-1,846,1709,0,0
-371,-685,0,0,0,0,0,0,0,0,0,-1,853,1709,0,0
-364,-685,0,0,0,0,0,0,0,0,0,-1,860,1709,0,0
-357,-685,0,0,0,0,0,0,0,0,0,-1,867,1709,0,0
-350,-685,0,0,0,0,0,0,0,0,0,-1,874,1709,0,0
-343,-685,0.459473,0.676025,-0.0298363,-0.0345078,-0.0121978,-0.0197526,-0.0445915,-0.690799,0.0258007,0.0484204,881,1709,0.459471,-0.675966
-336,-685,0.0960693,0.385254,-0.0205967,-0.0397225,-0.0095898,-0.0166166,-0.0437027,-0.393401,0.0254719,0.0425893,888,1709,0.0960685,-0.385304
-329,-685,-0.279297,0.124756,0,0,0,0,0,0,0,-1,895,1709,-0.279272,-0.12475
-322,-685,-0.377625,1.58044,0.000458683,-0.0391109,-0.00381163,0.000822501,-0.0394747,-0.0951613,0.0265949,0.0443678,902,1709,-0.377627,-1.5804
-315,-685,-0.379333,2.54956,0.00851157,-0.0364282,-0.0016715,0.00857366,-0.0364902,-0.0371258,0.0276317,0.0436882,909,1709,-0.379317,-2.5495
-308,-685,-0.264893,3.19312,0.0141076,-0.0319063,-0.000697504,0.0141182,-0.0319169,-0.0151539,0.0272325,0.0436452,916,1709,-0.264893,-3.19313
-301,-685,-0.212891,3.54834,0.0165971,-0.0276963,0.00107869,0.0166234,-0.0277225,0.0243341,0.025869,0.0475029,923,1709,-0.212869,-3.54828
-294,-685,-1.3175,-0.238525,0,0,0,0,0,0,0,-1,930,1709,-1.31749,0.238525
-287,-685,-0.850037,-0.0894775,0.0181109,-0.0196752,0.00404057,0.0185381,-0.0201024,0.105346,0.0223152,0.0476408,937,1709,-0.850011,0.0895277
-280,-685,0.999207,-0.908325,0.0170303,-0.0156184,0.00507118,0.0177999,-0.016388,0.1506,0.019744,0.0455274,944,1709,0.999204,0.908282
-273,-685,-0.160645,0.362305,0.0145934,-0.0124547,0.00518947,0.0155548,-0.0134162,0.183197,0.0167416,0.0474876,951,1709,-0.160621,-0.362304
-266,-685,0.236877,0.212524,0.0119571,-0.00895113,0.00444732,0.0128637,-0.00985779,0.201111,0.0131565,0.0445282,958,1709,0.236868,-0.21257
-259,-685,0.0285645,0.182007,0.00893912,-0.00633946,0.00381756,0.00983988,-0.00724022,0.231715,0.0098992,0.0398676,965,1709,0.0285689,-0.18205
-252,-685,0.00848389,0.0296631,0.00619727,-0.00464763,0.0043685,0.00773806,-0.00618842,0.339083,0.00805704,0.0324947,972,1709,0.00849777,-0.029677
-245,-685,0.0575562,-0.0137939,0.0041938,-0.0042345,0.00475087,0.00633023,-0.00637093,0.422598,0.00733303,0.0288174,979,1709,0.057548,0.0138317
-238,-685,0.0263672,0.0170898,0.00224172,-0.003769,0.00337453,0.00375517,-0.00528245,0.421599,0.00524264,0.0230884,986,1709,0.0263473,-0.0171385
-231,-685,-0.0256958,0.0712891,-2.9904e-05,-0.00305299,0.00225303,0.00117165,-0.00425454,0.489937,0.00329705,0.0161154,993,1709,-0.0256959,-0.0712537
-224,-685,-0.0319214,0.0524902,-0.000952398,-0.00296232,0.00120377,-0.000389235,-0.00352548,0.437584,0.00223192,0.0147347,1000,1709,-0.0319232,-0.0525066
-217,-685,-0.0319824,0.0638428,-0.00113283,-0.00228345,0.000385065,-0.00101586,-0.00240042,0.294918,0.00139132,0.011009,1007,1709,-0.0320028,-0.0638241
-210,-685,-0.0377197,0.074585,-0.00125269,-0.00135846,0.000116237,-0.00117787,-0.00143328,0.571906,0.000882787,0.0138306,1014,1709,-0.037731,-0.074587
-203,-685,-0.0519409,0.0697021,-0.00107036,-0.000841284,0.000335957,-0.000600875,-0.00131076,0.949681,0.000757642,0.014967,1021,1709,-0.051914,-0.0696951
-196,-685,-0.0568848,0.0703125,-0.000897083,-0.00018659,0.000147656,-0.000157125,-0.000926547,1.37384,0.000572555,0.0130951,1028,1709,-0.0568899,-0.0703143
-189,-685,-0.0325928,0.0491943,-0.000822279,4.75169e-06,0.000240351,6.95288e-05,-0.000887056,1.30754,0.000615857,0.00823767,1035,1709,-0.0325822,-0.0491778
-182,-685,-0.0313721,0.0627441,-0.000701611,0.000107504,0.000339477,0.000231067,-0.000825174,1.22172,0.00064117,0.0120239,1042,1709,-0.0313123,-0.0627665
-175,-685,-0.0349121,0.0587158,-0.000570285,-2.68579e-05,0.000404368,0.000188606,-0.000785749,1.08122,0.000596721,0.0130594,1049,1709,-0.0348795,-0.0587234
-168,-685,-0.0452881,0.0491943,-0.000449859,0.000316461,0.000616941,0.000659543,-0.000792941,1.06328,0.00083977,0.00998811,1056,1709,-0.0452903,-0.0492384
-161,-685,-0.0443115,0.0494385,-0.000188643,0.00063524,0.000977568,0.00128412,-0.000837519,0.984804,0.00123394,0.0100822,1063,1709,-0.0443435,-0.0493937
-154,-685,-0.0316162,0.065918,0.00032951,0.000667093,0.00117814,0.00168847,-0.000691869,0.856549,0.00141387,0.00886049,1070,1709,-0.0315608,-0.0659369
-147,-685,-0.0288086,0.0533447,0.000941793,0.00064349,0.00133675,0.00213769,-0.000552407,0.729839,0.00164056,0.00807754,1077,1709,-0.028785,-0.0533219
-140,-685,-0.0234375,0.0527344,0.00127985,0.000521637,0.00157976,0.00252536,-0.000723868,0.667636,0.00196971,0.0103898,1084,1709,-0.0234264,-0.0526937
-133,-685,-0.0325928,0.0595703,0.00140545,0.00032794,0.00212337,0.00305735,-0.00132396,0.661157,0.0025947,0.00985719,1091,1709,-0.0326297,-0.0595257
-126,-685,-0.0327148,0.0618896,0.00109249,0.000160428,0.00235556,0.00302768,-0.00177476,0.687738,0.00280396,0.00831693,1098,1709,-0.0327249,-0.0618923
-119,-685,-0.0255127,0.0626221,0.000770383,-0.000192598,0.00251656,0.0028511,-0.00227332,0.690876,0.00296484,0.0114037,1105,1709,-0.0255655,-0.0625912
-112,-685,-0.0440674,0.0581055,0.000422046,-0.000728486,0.00259891,0.0025086,-0.00281504,0.67648,0.0030753,0.0115629,1112,1709,-0.0440106,-0.0581004
-105,-685,-0.0646973,0.0396729,-4.50829e-05,-0.0014025,0.00256687,0.00193129,-0.00337887,0.656151,0.00310357,0.0103177,1119,1709,-0.0646985,-0.0396702
-98,-685,-0.0292969,0.0101318,-0.000503668,-0.00211032,0.00240538,0.00122899,-0.00384297,0.624237,0.00305518,0.0124314,1126,1709,-0.0293046,-0.0101704
-91,-685,-0.02771,0.0148926,-0.000839448,-0.00308197,0.00177077,0.000135202,-0.00405662,0.503159,0.00275059,0.0146218,1133,1709,-0.0277149,-0.0149478
-84,-685,-0.0231934,0.0172119,-0.000865811,-0.00476727,0.000915281,-0.000661758,-0.00497132,0.219352,0.00311713,0.0133797,1140,1709,-0.0231673,-0.0172588
-77,-685,-0.0227051,0.0588379,-0.000669525,-0.00651892,0.000148666,-0.000665749,-0.00652269,0.0253938,0.00414441,0.0113709,1147,1709,-0.022646,-0.0587934
-70,-685,-0.017334,0.0723877,4.78959e-05,-0.00857065,-0.000292913,5.78398e-05,-0.00858059,-0.0339342,0.00573977,0.0130712,1154,1709,-0.0173086,-0.0723933
-63,-685,0.0078125,0.0462646,0.000810223,-0.0104121,-0.000714739,0.000855562,-0.0104574,-0.0633479,0.0072736,0.0185036,1161,1709,0.00785455,-0.0463087
-56,-685,-0.017334,0.0343018,0.00174891,-0.0116932,-0.00118011,0.00185172,-0.011796,-0.0869063,0.00854837,0.0254876,1168,1709,-0.0173551,-0.0342638
-49,-685,-0.0935059,0.0133057,0.00258713,-0.0123626,-0.00100463,0.00265434,-0.0124298,-0.0668006,0.00929845,0.027073,1175,1709,-0.0935441,-0.0132452
-42,-685,-0.0633545,-0.0673828,0.00327928,-0.0121643,-0.000642347,0.00330595,-0.012191,-0.0414975,0.00942462,0.0279749,1182,1709,-0.0633033,0.0673679
-35,-685,0.0205078,-0.0389404,0.00403882,-0.01109,-0.000368865,0.0040478,-0.011099,-0.0243622,0.00905538,0.0313708,1189,1709,0.0205369,0.0388821
-28,-685,0.208374,-0.0594482,0,0,0,0,0,0,0,-1,1196,1709,0.208404,0.0594711
-21,-685,-0.0134277,0.0511475,0.00261285,-0.00869626,0.00170753,0.00286504,-0.00894845,0.146633,0.00711558,0.0304792,1203,1709,-0.0134326,-0.0511208
-14,-685,-0.0102539,0.0412598,0.000396616,-0.00682244,0.003254,0.00164684,-0.00807266,0.366823,0.00600646,0.0225204,1210,1709,-0.0102483,-0.0412235
-7,-685,-0.038208,0.032959,-0.000237431,-0.00511624,0.00407817,0.00207524,-0.00742891,0.515865,0.00577012,0.0369618,1217,1709,-0.038211,-0.0329589
0,-685,0.0145264,0.0561523,-0.000640073,-0.00336654,0.00457678,0.00277218,-0.00677879,0.640653,0.00567368,0.0421935,1224,1709,0.0145361,-0.0561468
7,-685,-0.0568848,0.100708,-0.000673898,-0.00229021,0.00470127,0.00328817,-0.00625228,0.700279,0.00559609,0.0380951,1231,1709,-0.0568649,-0.100699
14,-685,-0.0465088,0.0528564,-0.000173146,-0.00178377,0.00520073,0.00428425,-0.00624117,0.708585,0.00611176,0.0392711,1238,1709,-0.0465682,-0.0528975
21,-685,-0.0345459,0.0189209,0.00100687,-0.0011647,0.0051322,0.00516689,-0.00532472,0.681154,0.00605756,0.0353178,1245,1709,-0.0345229,-0.0189524
28,-685,-0.0992432,-0.0675049,0.00273162,-0.00176205,0.00488772,0.00586419,-0.00489462,0.569957,0.00622001,0.0355935,1252,1709,-0.0993041,0.0674591
35,-685,0.00219727,-0.098999,0.00414758,-0.00246427,0.00469533,0.00658406,-0.00490075,0.478666,0.00665445,0.0378582,1259,1709,0.00218139,0.0989795
42,-685,-0.10437,0.186279,0.00592584,-0.00384172,0.00469268,0.00781499,-0.00573087,0.382723,0.0078515,0.0413951,1266,1709,-0.104407,-0.186276
49,-685,-0.00268555,0.0653076,0.00811707,-0.0049327,0.00471907,0.00964475,-0.00646038,0.313078,0.00935869,0.0460723,1273,1709,-0.00265991,-0.0653
56,-685,0.00634766,-0.0032959,0,0,0,0,0,0,0,-1,1280,1709,0.00635062,0.00335191
63,-685,0.198486,-0.299438,0.0107787,-0.00526157,0.00447057,0.0119406,-0.00642341,0.25426,0.0107608,0.0456606,1287,1709,0.198533,0.299484
70,-685,0.167358,0.0987549,0.0107728,-0.00554396,0.00419967,0.0117903,-0.00656144,0.237696,0.0107378,0.0465506,1294,1709,0.167353,-0.0987308
77,-685,0.201782,0.310913,0.0104,-0.00231994,0.00481028,0.0120142,-0.00393418,0.323773,0.00959363,0.0444372,1301,1709,0.201817,-0.310905
84,-685,0.157715,0.446655,0.0109344,-0.000197313,0.0039696,0.012205,-0.00146786,0.309767,0.00866746,0.0439758,1308,1709,0.157666,-0.446674
91,-685,0.0718994,0.421387,0.0101209,0.00089972,0.00379344,0.0114808,-0.000460268,0.344236,0.00781184,0.0440315,1315,1709,0.0718892,-0.421415
98,-685,-0.206787,0.37146,0.00942784,0.00637863,0.00185847,0.010307,0.00549942,0.441883,0.00595524,0.0385984,1322,1709,-0.206826,-0.371452
105,-685,0.129761,-0.129028,0.00891372,0.00978389,0.000216964,0.00983498,0.00886263,1.3395,0.00625777,0.0387871,1329,1709,0.129797,0.12905
112,-685,0.185425,-0.173584,0.00831787,0.0143394,-0.00194439,0.0149126,0.00774459,-1.28408,0.00861196,0.0396364,1336,1709,0.185432,0.173592
119,-685,5.05237,1.77112,0,0,0,0,0,0,0,-1,1343,1709,5.0524,-1.77112
126,-685,-0.116211,0.0159912,0.008177,0.0219596,-0.00626551,0.024382,0.00575451,-1.20186,0.0147165,0.0423733,1350,1709,-0.116164,-0.0160461
133,-685,-0.0712891,0.0196533,0.00848793,0.0247402,-0.00792834,0.0279672,0.00526098,-1.18426,0.017162,0.0482961,1357,1709,-0.0713185,-0.0197133
140,-685,-0.546631,0.201294,0.00863963,0.0262539,-0.00950763,0.0304067,0.0044868,-1.15898,0.0189534,0.0446435,1364,1709,-0.546597,-0.201275
147,-685,0.726196,0.536377,0.00832918,0.0268574,-0.0102487,0.0314085,0.00377808,-1.15289,0.0198001,0.0421239,1371,1709,0.726151,-0.536393
154,-685,0.5271,0.499756,0.0066174,0.0267251,-0.00991757,0.0307935,0.00254899,-1.18151,0.0197343,0.0421344,1378,1709,0.527078,-0.499726
161,-685,0.180664,0.318604,0.00455019,0.0249602,-0.00932592,0.0285796,0.00093076,-1.20059,0.0187505,0.0417738,1385,1709,0.180628,-0.318596
168,-685,-0.0635986,0.0599365,0.00347668,0.0235189,-0.00821084,0.0264531,0.000542461,-1.22758,0.0174574,0.0376181,1392,1709,-0.0636238,-0.0599143
175,-685,-0.0258789,0.0216064,0.00222944,0.0209322,-0.00699952,0.0232616,-9.99998e-05,-1.24953,0.0155412,0.0345364,1399,1709,-0.025833,-0.0215631
182,-685,-0.0251465,0.057373,0.000816445,0.0150543,-0.00659152,0.0176373,-0.00176655,-1.19732,0.0123891,0.0285067,1406,1709,-0.0251134,-0.057416
189,-685,-0.0162354,0.0931396,0.000284118,0.0119267,-0.00488531,0.013705,-0.00149417,-1.2217,0.00967327,0.0250647,1413,1709,-0.0161843,-0.093171
196,-685,-0.0192871,0.0611572,-4.54996e-05,0.0097646,-0.0037218,0.0110168,-0.00129767,-1.24625,0.00781307,0.0215413,1420,1709,-0.019242,-0.061101
203,-685,-0.0108643,0.0687256,-0.000778749,0.00518418,-0.00162798,0.0055997,-0.00119426,-1.3209,0.00418836,0.0167593,1427,1709,-0.0108541,-0.0686914
210,-685,-0.0297852,0.0863037,-0.000485569,0.00417949,-0.000822429,0.00432024,-0.000626313,-1.40131,0.00311002,0.0184989,1434,1709,-0.0297345,-0.086312
217,-685,-0.0570068,0.069458,0.000187902,0.00286448,-0.000229843,0.00288408,0.000168308,-1.48575,0.00186914,0.0183574,1441,1709,-0.0570121,-0.0694754
224,-685,-0.0456543,0.0733643,0.000532984,0.00225139,-1.10903e-05,0.00225146,0.000532912,-1.56434,0.00135863,0.0135447,1448,1709,-0.0455999,-0.0734157
231,-685,-0.0523682,0.0714111,0.000638142,0.0017586,0.00012421,0.00177221,0.000624538,1.46171,0.00103794,0.0147471,1455,1709,-0.0523218,-0.0713556
238,-685,-0.0541992,0.0373535,0.000601176,0.00149061,0.000118788,0.0015062,0.000585585,1.44029,0.000876747,0.0178021,1462,1709,-0.054222,-0.0373621
245,-685,-0.0218506,0.0374756,0.000766973,0.00140898,0.000242416,0.00149023,0.000685722,1.24739,0.000861295,0.0184697,1469,1709,-0.0219103,-0.0374405
252,-685,-0.0163574,0.0460205,0.000796365,0.00111761,0.000196854,0.00121106,0.000702919,1.1276,0.000702214,0.0135143,1476,1709,-0.0164032,-0.0460364
259,-685,-0.0228271,0.0655518,0.000805273,0.000829075,5.59553e-06,0.000830325,0.000804024,1.35104,0.000544994,0.00971849,1483,1709,-0.0227802,-0.0655751
266,-685,-0.0214844,0.0727539,0.000760884,0.000628963,-0.000295061,0.000997268,0.000392579,-0.675432,0.000580097,0.0102771,1490,1709,-0.0214602,-0.0727633
273,-685,-0.0181885,0.0700684,0.000534809,0.000444343,-0.000603878,0.00109515,-0.000115994,-0.748016,0.000771673,0.0103759,1497,1709,-0.0182031,-0.0700562
280,-685,-0.038208,0.0605469,0.00030855,0.000295808,-0.00109524,0.00139744,-0.000793083,-0.78249,0.00128064,0.01166,1504,1709,-0.0382201,-0.0605809
287,-685,-0.045166,0.0581055,0.00032459,0.000275847,-0.00169448,0.00199487,-0.00139443,-0.778207,0.00196702,0.0113527,1511,1709,-0.0451602,-0.0581373
294,-685,-0.0328369,0.0588379,0.000192384,0.000220735,-0.00220192,0.00240853,-0.00199541,-0.788617,0.00254634,0.0101534,1518,1709,-0.0328864,-0.0588256
301,-685,-0.0255127,0.0650635,0.000140328,0.000316249,-0.0026069,0.00283667,-0.0023801,-0.802262,0.00301575,0.0120659,1525,1709,-0.0255493,-0.0650622
308,-685,-0.0299072,0.0635986,5.81644e-05,0.000786124,-0.00295453,0.00339901,-0.00255473,-0.846686,0.00344889,0.0125298,1532,1709,-0.0299516,-0.0636428
315,-685,-0.0432129,0.050293,3.28981e-05,0.00129989,-0.00330514,0.0040317,-0.00269891,-0.880085,0.00391123,0.0109808,1539,1709,-0.0432421,-0.0503273
322,-685,-0.0750732,0.053833,6.54537e-06,0.00208066,-0.00333972,0.00454063,-0.00245342,-0.93594,0.00409752,0.0184389,1546,1709,-0.0750783,-0.0537787
329,-685,-0.0670166,0.0472412,-0.000314009,0.0030501,-0.00318386,0.00496891,-0.00223282,-1.02842,0.00425677,0.0182127,1553,1709,-0.0670146,-0.047299
336,-685,-0.0390625,0.0372314,-0.000754215,0.00406948,-0.0028556,0.00539547,-0.00208021,-1.13607,0.00445531,0.0124301,1560,1709,-0.0391043,-0.0372494
343,-685,-0.0563965,0.0567627,-0.000695985,0.00497602,-0.00240049,0.00585556,-0.00157553,-1.21959,0.00452133,0.0109639,1567,1709,-0.0564143,-0.0568213
350,-685,-0.0452881,0.0506592,-0.000330811,0.00602426,-0.00199407,0.00659813,-0.000904683,-1.29058,0.00472925,0.0115706,1574,1709,-0.0453137,-0.0506221
357,-685,-0.0299072,0.0494385,-7.24599e-05,0.00676709,-0.00142471,0.00705199,-0.000357367,-1.37342,0.00482486,0.0092149,1581,1709,-0.0298608,-0.0494132
364,-685,-0.0457764,0.0539551,0.00012226,0.00709437,-0.00076094,0.00717646,4.01768e-05,-1.46334,0.00477097,0.00843469,1588,1709,-0.045722,-0.0539118
371,-685,-0.0487061,0.0437012,0.000249746,0.00707242,-0.000246531,0.00708132,0.00024085,-1.53472,0.00464268,0.0136875,1595,1709,-0.0486472,-0.0437172
378,-685,-0.0454102,0.0410156,0.000845691,0.00669815,-0.000116539,0.00670047,0.000843371,-1.55089,0.00421408,0.01845,1602,1709,-0.0454598,-0.0409627
385,-685,-0.0372314,0.0571289,0.00154329,0.006363,-0.000454848,0.00640555,0.00150074,-1.47752,0.0038684,0.0298217,1609,1709,-0.0372844,-0.0571663
392,-685,0.0708008,0.126221,0.0020659,0.00592307,-0.000939703,0.00613983,0.00184914,-1.3441,0.00363706,0.0335378,1616,1709,0.0708142,-0.126226
399,-685,-0.0428467,0.143433,0.00253923,0.00591728,-0.0020218,0.00686273,0.00159378,-1.13338,0.00414726,0.0377756,1623,1709,-0.0427877,-0.143415
406,-685,-0.113892,0.170044,0.00287093,0.00579506,-0.00347682,0.00810472,0.00056127,-0.984432,0.00522611,0.0428832,1630,1709,-0.11386,-0.170013
413,-685,0.0933838,0.256104,0.003046,0.00566579,-0.00534267,0.0098568,-0.00114501,-0.905614,0.00698422,0.0413018,1637,1709,0.093444,-0.256119
420,-685,0.0986328,0.361572,0.00247172,0.00597371,-0.00721927,0.0116513,-0.00320587,-0.904373,0.00902793,0.0390648,1644,1709,0.0986443,-0.361596
427,-685,0.212524,-0.0477295,0.000931357,0.00664753,-0.00942662,0.0136398,-0.00606093,-0.93259,0.0116514,0.0425273,1651,1709,0.212526,0.0477231
434,-685,0.629272,-0.595337,0,0,0,0,0,0,0,-1,1658,1709,0.629217,0.595369
441,-685,-0.383545,0.493042,0,0,0,0,0,0,0,-1,1665,1709,-0.383485,-0.493055
448,-685,-0.375977,0.491333,0,0,0,0,0,0,0,-1,1672,1709,-0.375921,-0.491294
455,-685,-0.503052,0.407227,0,0,0,0,0,0,0,-1,1679,1709,-0.503068,-0.407265
462,-685,0,0,0,0,0,0,0,0,0,-1,1686,1709,0,0
469,-685,0,0,0,0,0,0,0,0,0,-1,1693,1709,0,0
476,-685,0,0,0,0,0,0,0,0,0,-1,1700,1709,0,0
483,-685,0,0,0,0,0,0,0,0,0,-1,1707,1709,0,0
490,-685,0,0,0,0,0,0,0,0,0,-1,1714,1709,0,0
497,-685,0,0,0,0,0,0,0,0,0,-1,1721,1709,0,0
504,-685,0,0,0,0,0,0,0,0,0,-1,1728,1709,0,0
511,-685,0,0,0,0,0,0,0,0,0,-1,1735,1709,0,0
518,-685,0,0,0,0,0,0,0,0,0,-1,1742,1709,0,0
525,-685,0,0,0,0,0,0,0,0,0,-1,1749,1709,0,0
532,-685,0,0,0,0,0,0,0,0,0,-1,1756,1709,0,0
539,-685,0,0,0,0,0,0,0,0,0,-1,1763,1709,0,0
546,-685,0,0,0,0,0,0,0,0,0,-1,1770,1709,0,0
553,-685,0,0,0,0,0,0,0,0,0,-1,1777,1709,0,0
560,-685,0,0,0,0,0,0,0,0,0,-1,1784,1709,0,0
567,-685,0,0,0,0,0,0,0,0,0,-1,1791,1709,0,0
574,-685,0,0,0,0,0,0,0,0,0,-1,1798,1709,0,0
581,-685,0,0,0,0,0,0,0,0,0,-1,1805,1709,0,0
588,-685,0,0,0,0,0,0,0,0,0,-1,1812,1709,0,0
595,-685,0,0,0,0,0,0,0,0,0,-1,1819,1709,0,0
602,-685,0,0,0,0,0,0,0,0,0,-1,1826,1709,0,0
609,-685,0,0,0,0,0,0,0,0,0,-1,1833,1709,0,0
616,-685,0,0,0,0,0,0,0,0,0,-1,1840,1709,0,0
623,-685,0,0,0,0,0,0,0,0,0,-1,1847,1709,0,0
630,-685,0,0,0,0,0,0,0,0,0,-1,1854,1709,0,0
637,-685,0,0,0,0,0,0,0,0,0,-1,1861,1709,0,0
644,-685,0,0,0,0,0,0,0,0,0,-1,1868,1709,0,0
651,-685,0,0,0,0,0,0,0,0,0,-1,1875,1709,0,0
658,-685,0,0,0,0,0,0,0,0,0,-1,1882,1709,0,0
665,-685,0,0,0,0,0,0,0,0,0,-1,1889,1709,0,0
672,-685,0,0,0,0,0,0,0,0,0,-1,1896,1709,0,0
679,-685,0,0,0,0,0,0,0,0,0,-1,1903,1709,0,0
686,-685,0,0,0,0,0,0,0,0,0,-1,1910,1709,0,0
693,-685,0,0,0,0,0,0,0,0,0,-1,1917,1709,0,0
700,-685,0,0,0,0,0,0,0,0,0,-1,1924,1709,0,0
707,-685,0,0,0,0,0,0,0,0,0,-1,1931,1709,0,0
714,-685,0,0,0,0,0,0,0,0,0,-1,1938,1709,0,0
721,-685,0,0,0,0,0,0,0,0,0,-1,1945,1709,0,0
728,-685,0,0,0,0,0,0,0,0,0,-1,1952,1709,0,0
735,-685,0,0,0,0,0,0,0,0,0,-1,1959,1709,0,0
742,-685,0,0,0,0,0,0,0,0,0,-1,1966,1709,0,0
749,-685,0,0,0,0,0,0,0,0,0,-1,1973,1709,0,0
756,-685,0,0,0,0,0,0,0,0,0,-1,1980,1709,0,0
763,-685,0,0,0,0,0,0,0,0,0,-1,1987,1709,0,0
770,-685,0,0,0,0,0,0,0,0,0,-1,1994,1709,0,0
777,-685,0,0,0,0,0,0,0,0,0,-1,2001,1709,0,0
784,-685,0,0,0,0,0,0,0,0,0,-1,2008,1709,0,0
791,-685,0,0,0,0,0,0,0,0,0,-1,2015,1709,0,0
798,-685,0,0,0,0,0,0,0,0,0,-1,2022,1709,0,0
805,-685,0,0,0,0,0,0,0,0,0,-1,2029,1709,0,0
812,-685,0,0,0,0,0,0,0,0,0,-1,2036,1709,0,0
-700,-692,0,0,0,0,0,0,0,0,0,-1,524,1716,0,0
-693,-692,0,0,0,0,0,0,0,0,0,-1,531,1716,0,0
-686,-692,0,0,0,0,0,0,0,0,0,-1,538,1716,0,0
-679,-692,0,0,0,0,0,0,0,0,0,-1,545,1716,0,0
-672,-692,0,0,0,0,0,0,0,0,0,-1,552,1716,0,0
-665,-692,0,0,0,0,0,0,0,0,0,-1,559,1716,0,0
-658,-692,0,0,0,0,0,0,0,0,0,-1,566,1716,0,0
-651,-692,0,0,0,0,0,0,0,0,0,-1,573,1716,0,0
-644,-692,0,0,0,0,0,0,0,0,0,-1,580,1716,0,0
-637,-692,0,0,0,0,0,0,0,0,0,-1,587,1716,0,0
-630,-692,0,0,0,0,0,0,0,0,0,-1,594,1716,0,0
-623,-692,0,0,0,0,0,0,0,0,0,-1,601,1716,0,0
-616,-692,0,0,0,0,0,0,0,0,0,-1,608,1716,0,0
-609,-692,0,0,0,0,0,0,0,0,0,-1,615,1716,0,0
-602,-692,0,0,0,0,0,0,0,0,0,-1,622,1716,0,0
-595,-692,0,0,0,0,0,0,0,0,0,-1,629,1716,0,0
-588,-692,0,0,0,0,0,0,0,0,0,-1,636,1716,0,0
-581,-692,0,0,0,0,0,0,0,0,0,-1,643,1716,0,0
-574,-692,0,0,0,0,0,0,0,0,0,-1,650,1716,0,0
-567,-692,0,0,0,0,0,0,0,0,0,-1,657,1716,0,0
-560,-692,0,0,0,0,0,0,0,0,0,-1,664,1716,0,0
-553,-692,0,0,0,0,0,0,0,0,0,-1,671,1716,0,0
-546,-692,0,0,0,0,0,0,0,0,0,-1,678,1716,0,0
-539,-692,0,0,0,0,0,0,0,0,0,-1,685,1716,0,0
-532,-692,0,0,0,0,0,0,0,0,0,-1,692,1716,0,0
-525,-692,0,0,0,0,0,0,0,0,0,-1,699,1716,0,0
-518,-692,0,0,0,0,0,0,0,0,0,-1,706,1716,0,0
-511,-692,0,0,0,0,0,0,0,0,0,-1,713,1716,0,0
-504,-692,0,0,0,0,0,0,0,0,0,-1,720,1716,0,0
-497,-692,0,0,0,0,0,0,0,0,0,-1,727,1716,0,0
-490,-692,0,0,0,0,0,0,0,0,0,-1,734,1716,0,0
-483,-692,0,0,0,0,0,0,0,0,0,-1,741,1716,0,0
-476,-692,0,0,0,0,0,0,0,0,0,-1,748,1716,0,0
-469,-692,0,0,0,0,0,0,0,0,0,-1,755,1716,0,0
-462,-692,0,0,0,0,0,0,0,0,0,-1,762,1716,0,0
-455,-692,0,0,0,0,0,0,0,0,0,-1,769,1716,0,0
-448,-692,0,0,0,0,0,0,0,0,0,-1,776,1716,0,0
-441,-692,0,0,0,0,0,0,0,0,0,-1,783,1716,0,0
-434,-692,0,0,0,0,0,0,0,0,0,-1,790,1716,0,0
-427,-692,0,0,0,0,0,0,0,0,0,-1,797,1716,0,0
-420,-692,0,0,0,0,0,0,0,0,0,-1,804,1716,0,0
-413,-692,0,0,0,0,0,0,0,0,0,-1,811,1716,0,0
-406,-692,0,0,0,0,0,0,0,0,0,-1,818,1716,0,0
-399,-692,0,0,0,0,0,0,0,0,0,-1,825,1716,0,0
-392,-692,0,0,0,0,0,0,0,0,0,-1,832,1716,0,0
-385,-692,0,0,0,0,0,0,0,0,0,-1,839,1716,0,0
-378,-692,0,0,0,0,0,0,0,0,0,-1,846,1716,0,0
-371,-692,0,0,0,0,0,0,0,0,0,-1,853,1716,0,0
-364,-692,0,0,0,0,0,0,0,0,0,-1,860,1716,0,0
-357,-692,0,0,0,0,0,0,0,0,0,-1,867,1716,0,0
-350,-692,0,0,0,0,0,0,0,0,0,-1,874,1716,0,0
-343,-692,0,0,0,0,0,0,0,0,0,-1,881,1716,0,0
-336,-692,0,0,0,0,0,0,0,0,0,-1,888,1716,0,0
-329,-692,-0.466736,1.27271,0,0,0,0,0,0,0,-1,895,1716,-0.466739,-1.27274
-322,-692,-0.396667,2.2334,0.00291173,-0.0421953,-0.00878088,0.0045608,-0.0438444,-0.185639,0.0308624,0.0455231,902,1716,-0.396654,-2.23336
-315,-692,-0.146362,3.02515,0.012368,-0.0389156,-0.00578389,0.0130123,-0.0395598,-0.110926,0.0316162,0.0423707,909,1716,-0.146393,-3.02512
-308,-692,0.605286,3.96863,0.018455,-0.0336385,-0.00428567,0.0188052,-0.0339887,-0.0815382,0.0308979,0.0421227,916,1716,0.605294,-3.96862
-301,-692,-1.8385,-0.323975,0.0204729,-0.0292586,-0.00149936,0.0205181,-0.0293038,-0.0301126,0.0289134,0.0452117,923,1716,-1.83852,0.32397
-294,-692,-1.65497,-0.071167,0,0,0,0,0,0,0,-1,930,1716,-1.65497,0.0712065
-287,-692,-1.2063,0.10144,0.0208902,-0.0209364,0.00297532,0.0211008,-0.021147,0.0706604,0.0243917,0.0495012,937,1716,-1.2063,-0.101463
-280,-692,-0.820068,0.217285,0.019276,-0.0167276,0.00452447,0.0198359,-0.0172874,0.123117,0.02145,0.0477852,944,1716,-0.820043,-0.217282
-273,-692,-0.513123,0.355469,0.0162237,-0.0134509,0.00503533,0.0170549,-0.014282,0.163587,0.018116,0.0465532,951,1716,-0.513112,-0.355524
-266,-692,-0.239685,0.521973,0.0129959,-0.00990106,0.00449216,0.0138457,-0.0107508,0.186961,0.0142382,0.0461985,958,1716,-0.239669,-0.521976
-259,-692,-0.680542,0.190796,0,0,0,0,0,0,0,-1,965,1716,-0.680534,-0.190813
-252,-692,-0.368652,0.123291,0.00617219,-0.00558691,0.00474183,0.00784606,-0.00726077,0.339344,0.00872411,0.0437949,972,1716,-0.368677,-0.123273
-245,-692,-0.0579224,0.017334,0.00383593,-0.00516379,0.00525183,0.00625203,-0.00757989,0.431179,0.00799812,0.0425122,979,1716,-0.0578959,-0.0173905
-238,-692,-0.050415,-0.0151367,0.00155796,-0.00458262,0.00372895,0.00331797,-0.00634263,0.440984,0.00566794,0.0408356,986,1716,-0.0504307,0.0151925
-231,-692,-0.0179443,0.0461426,-0.00097947,-0.00367264,0.00253599,0.000545278,-0.00519739,0.541333,0.00366025,0.0328654,993,1716,-0.0179168,-0.046166
-224,-692,-0.0408325,0.0383301,-0.00206991,-0.00343976,0.00143462,-0.0011651,-0.00434457,0.562685,0.00259665,0.0165898,1000,1716,-0.0408424,-0.0383212
-217,-692,-0.0513916,0.0639648,-0.00234402,-0.00253031,0.00056555,-0.00186399,-0.00301033,0.70378,0.0017544,0.0112986,1007,1716,-0.0513937,-0.0639117
-210,-692,-0.0406494,0.0831299,-0.00249642,-0.00130075,0.000297676,-0.00123074,-0.00256643,1.3398,0.00148214,0.0119969,1014,1716,-0.0406422,-0.0831097
-203,-692,-0.038147,0.0683594,-0.00228716,-0.000535436,0.000539585,-0.000382567,-0.00244003,1.29472,0.00151535,0.0145297,1021,1716,-0.0381263,-0.0684178
-196,-692,-0.0432129,0.0649414,-0.00203703,0.000403439,0.000222491,0.000423557,-0.00205715,1.48062,0.00153226,0.0162853,1028,1716,-0.0432412,-0.0649415
-189,-692,-0.046875,0.0495605,-0.00189925,0.000726931,0.000205706,0.000742946,-0.00191527,1.4931,0.00158369,0.0078403,1035,1716,-0.046876,-0.0495609
-182,-692,-0.0454102,0.0549316,-0.0016885,0.000883126,0.000208714,0.000899955,-0.00170533,1.49034,0.00152793,0.0116544,1042,1716,-0.0454658,-0.0549086
-175,-692,-0.0496826,0.0643311,-0.00148037,0.000719691,0.000160468,0.000731334,-0.00149202,1.49837,0.00130846,0.0135712,1049,1716,-0.0497268,-0.0642782
-168,-692,-0.041748,0.050415,-0.00132422,0.000786404,0.000189925,0.000803359,-0.00134118,1.48176,0.00125106,0.0105516,1056,1716,-0.0417798,-0.0504265
-161,-692,-0.0351563,0.0389404,-0.00103606,0.000743526,0.000305696,0.000794574,-0.00108711,1.40533,0.00109076,0.0119845,1063,1716,-0.0352016,-0.0389389
-154,-692,-0.0423584,0.0527344,-0.000495975,0.000322132,0.000336256,0.0004426,-0.000616443,1.22678,0.000614178,0.0123491,1070,1716,-0.0423894,-0.0526922
-147,-692,-0.0516357,0.043457,0.000114695,-5.66948e-05,0.000351649,0.000390941,-0.00033294,0.665881,0.00041838,0.010918,1077,1716,-0.0516736,-0.0434069
-140,-692,-0.0316162,0.0423584,0.000434171,-0.000533714,0.000440457,0.0006046,-0.000704144,0.369195,0.000756332,0.00854537,1084,1716,-0.0316609,-0.0424067
-133,-692,-0.0233154,0.05896,0.000783294,-0.00108189,0.000757372,0.00105209,-0.00135069,0.341042,0.00139081,0.00844244,1091,1716,-0.0232856,-0.0589008
-126,-692,-0.026001,0.0595703,0.000789807,-0.00153204,0.000855955,0.00107124,-0.00181348,0.317663,0.00168377,0.00729968,1098,1716,-0.0260049,-0.05956
-119,-692,-0.0297852,0.0614014,0.000620872,-0.0020433,0.000937681,0.000917804,-0.00234023,0.306676,0.00193986,0.0106129,1105,1716,-0.0297473,-0.0613457
-112,-692,-0.0482178,0.0461426,0.000458624,-0.00257996,0.0010217,0.000770209,-0.00289154,0.296009,0.00222923,0.0104852,1112,1716,-0.0482297,-0.0461641
-105,-692,-0.0354004,0.0252686,0.000226808,-0.00310529,0.00101688,0.000512622,-0.0033911,0.274,0.00244955,0.0151267,1119,1716,-0.0354057,-0.0252612
-98,-692,-0.00671387,0.0330811,1.03424e-05,-0.00354914,0.000926215,0.00023693,-0.00377573,0.239926,0.00259973,0.0151256,1126,1716,-0.00675227,-0.0331308
-91,-692,-0.0166016,0.0214844,-8.51369e-05,-0.00417573,0.000453683,-3.54236e-05,-0.00422545,0.109142,0.00280523,0.0165598,1133,1716,-0.0165598,-0.0215343
-84,-692,-0.0321045,-0.00012207,7.30462e-05,-0.00531459,-0.000172443,7.85603e-05,-0.0053201,-0.0319636,0.00357321,0.0186244,1140,1716,-0.0321059,0.000101524
-77,-692,-0.0241699,0.0419922,0.000321751,-0.00648177,-0.000708722,0.000394794,-0.00655482,-0.102701,0.00450724,0.0121762,1147,1716,-0.0241256,-0.0420289
-70,-692,-0.0397949,0.0548096,0.000881024,-0.0079157,-0.000970525,0.000986828,-0.0080215,-0.108588,0.00570513,0.0132468,1154,1716,-0.0398466,-0.0547906
-63,-692,-0.041748,0.0531006,0.00142913,-0.00905365,-0.00115282,0.00155441,-0.00917893,-0.108249,0.00669782,0.0136263,1161,1716,-0.0417754,-0.0530604
-56,-692,-0.0158691,0.0473633,0.00202845,-0.00993243,-0.00134067,0.00217688,-0.0100809,-0.110265,0.00755153,0.0145543,1168,1716,-0.0159286,-0.0474074
-49,-692,-0.0125732,0.0419922,0.00250499,-0.0104448,-0.00112672,0.00260229,-0.0105421,-0.0861439,0.00803721,0.0190202,1175,1716,-0.0125314,-0.0420197
-42,-692,-0.0255127,0.0531006,0.00286301,-0.0103884,-0.000733007,0.00290344,-0.0104288,-0.0550915,0.00809579,0.0203558,1182,1716,-0.0255385,-0.0531599
-35,-692,-0.0194092,0.0150146,0.00328665,-0.00966391,-0.000413656,0.00329984,-0.00967711,-0.0318979,0.00778798,0.0212527,1189,1716,-0.0194577,-0.0149937
-28,-692,-0.0113525,0.0384521,0.00354322,-0.00875552,-5.63867e-05,0.00354348,-0.00875578,-0.00458463,0.00731044,0.0226606,1196,1716,-0.0113835,-0.0384527
-21,-692,-0.03125,0.0655518,0.00167396,-0.00782535,0.00141752,0.00188097,-0.00803236,0.145015,0.00607968,0.0177234,1203,1716,-0.0312937,-0.0655748
-14,-692,-0.0476074,0.0582275,-5.97208e-05,-0.00620526,0.00260614,0.000896639,-0.00716162,0.351707,0.00509963,0.012206,1210,1716,-0.04762,-0.0582836
-7,-692,-0.0559082,0.0643311,-0.000682708,-0.00452524,0.00324007,0.0011629,-0.00637085,0.517781,0.00468324,0.0141449,1217,1716,-0.05586,-0.0643749
0,-692,-0.0310059,0.0505371,-0.00108182,-0.00271552,0.00356764,0.00176129,-0.00555862,0.672857,0.00441164,0.0174561,1224,1716,-0.0310538,-0.0505246
7,-692,-0.0570068,0.0397949,-0.00115945,-0.00136234,0.00353757,0.00227813,-0.00479992,0.771063,0.00417207,0.0210907,1231,1716,-0.0569691,-0.0397832
14,-692,-0.0385742,0.0501709,-0.000868162,-0.000507481,0.0037608,0.0030773,-0.00445294,0.809356,0.0043717,0.0225723,1238,1716,-0.0386145,-0.0501972
21,-692,-0.0146484,0.0141602,9.6533e-06,0.000391218,0.00356636,0.00377189,-0.00337102,0.81212,0.00412613,0.0240896,1245,1716,-0.0146426,-0.0142075
28,-692,-0.0671387,-0.00524902,0.00141816,0.000390497,0.00319133,0.00413676,-0.0023281,0.705579,0.00378087,0.0232328,1252,1716,-0.0671512,0.00525311
35,-692,-0.0914307,0.0556641,0.00260363,0.000129568,0.00294666,0.00456238,-0.00182918,0.586666,0.00380098,0.0221588,1259,1716,-0.0914332,-0.0556437
42,-692,-0.0407715,0.0891113,0.00394268,-0.000828451,0.00291944,0.00532726,-0.00221304,0.442848,0.00447545,0.0207174,1266,1716,-0.0407888,-0.0891415
49,-692,-0.0168457,0.0484619,0.00580446,-0.00182406,0.00291526,0.00679096,-0.00281056,0.326296,0.00570001,0.0237679,1273,1716,-0.0168972,-0.0484834
56,-692,-0.0765381,0.0218506,0.00768961,-0.00179741,0.00312159,0.00862459,-0.00273239,0.291016,0.00684479,0.0288693,1280,1716,-0.0765422,-0.0218794
63,-692,-0.067627,0.0533447,0.00843325,-0.00251558,0.00312426,0.00926203,-0.00334436,0.259299,0.00754086,0.0273567,1287,1716,-0.0676321,-0.0533679
70,-692,-0.0384521,0.0198975,0.00864025,-0.00313329,0.0031879,0.00944802,-0.00394105,0.248161,0.00794514,0.0245707,1294,1716,-0.0384027,-0.0198656
77,-692,-0.0264893,0.0262451,0.00857921,-0.000687972,0.00418362,0.0101884,-0.00229721,0.367205,0.00767352,0.0280022,1301,1716,-0.0264856,-0.0262994
84,-692,0.0343018,0.20166,0.00923729,0.000674609,0.0039469,0.010779,-0.000867102,0.372388,0.00749178,0.0319315,1308,1716,0.0342998,-0.201649
91,-692,-0.0137939,0.223511,0.00883225,0.00133785,0.00420931,0.0107206,-0.000550532,0.421706,0.00733749,0.0302176,1315,1716,-0.0138503,-0.223467
98,-692,-0.0720215,0.171997,0.00846934,0.00591972,0.00299107,0.0104459,0.00394312,0.583953,0.00609102,0.0259655,1322,1716,-0.0719884,-0.172003
105,-692,-0.0272217,0.0864258,0.00805821,0.00882076,0.00202319,0.0104983,0.00638069,0.878532,0.00610795,0.0314015,1329,1716,-0.0272255,-0.0863901
112,-692,-0.0356445,0.0477295,0.00746958,0.0127133,0.000552099,0.0127708,0.00741208,1.46703,0.00740493,0.0325565,1336,1716,-0.0356737,-0.0477182
119,-692,-0.0524902,0.0489502,0.0072548,0.0164209,-0.00127595,0.0165952,0.0070805,-1.43503,0.00961553,0.0261613,1343,1716,-0.0525148,-0.0489974
126,-692,-0.0820313,0.0418701,0.00711606,0.019544,-0.00293472,0.0202021,0.00645791,-1.35018,0.0119139,0.0255289,1350,1716,-0.082025,-0.041819
133,-692,-0.0505371,0.0377197,0.00714695,0.0218771,-0.00441927,0.0231012,0.00592283,-1.30057,0.0138551,0.0219776,1357,1716,-0.0505896,-0.037765
140,-692,-0.0197754,0.0430908,0.00710294,0.023203,-0.00596516,0.0251723,0.00513369,-1.25194,0.015359,0.0261945,1364,1716,-0.0197278,-0.0430632
147,-692,-0.0554199,0.114746,0.00680058,0.0235728,-0.00687735,0.0260321,0.00434119,-1.22736,0.0161039,0.027181,1371,1716,-0.0554808,-0.114724
154,-692,-0.0196533,0.119629,0.00523533,0.0231927,-0.00687234,0.0255209,0.00290711,-1.24415,0.0161324,0.0237497,1378,1716,-0.0196365,-0.119594
161,-692,-0.0317383,0.0917969,0.0033243,0.0211723,-0.0067279,0.0234243,0.00107233,-1.2478,0.0152713,0.0278418,1385,1716,-0.0316847,-0.0917769
168,-692,-0.0682373,0.0726318,0.00241164,0.0193063,-0.00603437,0.0212403,0.00047769,-1.26065,0.0140037,0.0220736,1392,1716,-0.068194,-0.0726261
175,-692,-0.0200195,0.0469971,0.00148573,0.0164731,-0.00520095,0.0181012,-0.000142267,-1.26744,0.0121151,0.0186997,1399,1716,-0.0199669,-0.0469445
182,-692,-0.0251465,0.0672607,0.000504787,0.0111585,-0.00506506,0.0131822,-0.00151889,-1.19069,0.00933568,0.0123121,1406,1716,-0.0251502,-0.0672218
189,-692,-0.0202637,0.0765381,0.00019184,0.00839822,-0.00376189,0.00986171,-0.00127166,-1.19978,0.00703677,0.012699,1413,1716,-0.0202781,-0.0765239
196,-692,-0.0378418,0.0822754,-9.03379e-05,0.00638369,-0.00279713,0.00742478,-0.00113143,-1.21448,0.0053669,0.0101551,1420,1716,-0.0377816,-0.0822427
203,-692,-0.0476074,0.088501,-0.000746196,0.00239717,-0.00105132,0.00271638,-0.0010654,-1.27602,0.0022517,0.0118015,1427,1716,-0.0476202,-0.0884984
210,-692,-0.0307617,0.0941162,-0.000472758,0.00148885,-0.000406899,0.00156991,-0.000553813,-1.37417,0.00127205,0.0149744,1434,1716,-0.0307387,-0.0941493
217,-692,-0.0197754,0.0947266,0.000151205,0.000523706,7.3545e-05,0.000537701,0.00013721,1.38276,0.000322608,0.0148075,1441,1716,-0.0197768,-0.0947444
224,-692,-0.0119629,0.0870361,0.000444597,0.000171404,0.000238727,0.000583044,3.29567e-05,0.525539,0.00037819,0.0116013,1448,1716,-0.0119466,-0.0870377
231,-692,-0.0512695,0.0667725,0.000532057,-5.50922e-05,0.000319875,0.000672655,-0.00019569,0.414123,0.000525945,0.0108493,1455,1716,-0.0512826,-0.0667457
238,-692,-0.0665283,0.0045166,0.000526212,-3.7077e-06,0.000276818,0.000644439,-0.000121934,0.403641,0.000475511,0.016805,1462,1716,-0.0665267,-0.00455357
245,-692,-0.0324707,0.00683594,0.000709968,0.000170369,0.000275232,0.000825583,5.47543e-05,0.397683,0.000533076,0.0198838,1469,1716,-0.0324177,-0.00678812
252,-692,-0.0179443,0.039917,0.000763212,0.000164842,7.00692e-05,0.000771307,0.000156747,0.115027,0.000470737,0.016745,1476,1716,-0.0179723,-0.0399695
259,-692,-0.0231934,0.0622559,0.000720523,0.000190007,-0.000313562,0.000865976,4.4555e-05,-0.434329,0.000563053,0.00892656,1483,1716,-0.0231667,-0.0622298
266,-692,-0.0350342,0.0708008,0.000671831,0.000248249,-0.000821953,0.00130884,-0.000388761,-0.659307,0.00102697,0.00934729,1490,1716,-0.0349848,-0.0707921
273,-692,-0.0405273,0.05896,0.000515847,0.000324774,-0.00141272,0.00183626,-0.00099564,-0.751637,0.00165884,0.0119575,1497,1716,-0.0405724,-0.0589796
280,-692,-0.0318604,0.0688477,0.000310746,0.000410169,-0.00212898,0.00249002,-0.00176911,-0.797071,0.00247072,0.0113098,1504,1716,-0.0318196,-0.0689012
287,-692,-0.0400391,0.0780029,0.000261281,0.000472216,-0.00291653,0.00328518,-0.00255169,-0.803471,0.00337878,0.0102331,1511,1716,-0.0400604,-0.078044
294,-692,-0.0356445,0.0732422,5.08495e-05,0.000483749,-0.00363688,0.00391062,-0.00337602,-0.815121,0.00421071,0.00988816,1518,1716,-0.0356408,-0.0731866
301,-692,-0.012207,0.0782471,-9.34227e-05,0.000649058,-0.00421385,0.00450799,-0.00395235,-0.829335,0.00488809,0.0122824,1525,1716,-0.0122272,-0.07824
308,-692,-0.0234375,0.060791,-0.000262449,0.00121212,-0.00475972,0.00529132,-0.00434165,-0.862238,0.0055706,0.0151213,1532,1716,-0.0233884,-0.0608031
315,-692,-0.0563965,0.0330811,-0.000357301,0.00188656,-0.00521601,0.00609993,-0.00457068,-0.891331,0.00618173,0.0140066,1539,1716,-0.0564376,-0.0330885
322,-692,-0.113403,0.0118408,-0.000428867,0.00280714,-0.00527608,0.00670773,-0.00432946,-0.93418,0.00642145,0.0189314,1546,1716,-0.113411,-0.0118309
329,-692,-0.0980225,0.0301514,-0.000803937,0.00396864,-0.0050523,0.00716984,-0.00400514,-1.00603,0.00653755,0.0175452,1553,1716,-0.0980092,-0.0300984
336,-692,-0.0489502,0.053833,-0.00134278,0.00518847,-0.00456782,0.00753795,-0.00369225,-1.09573,0.00660926,0.0117481,1560,1716,-0.0489868,-0.0538302
343,-692,-0.0255127,0.0631104,-0.00127282,0.00634048,-0.00391227,0.00799244,-0.00292478,-1.17126,0.00652549,0.0118904,1567,1716,-0.0255457,-0.0630728
350,-692,-0.0152588,0.0576172,-0.000783399,0.00769451,-0.00326815,0.00880808,-0.00189697,-1.2424,0.00659594,0.0132497,1574,1716,-0.0152839,-0.0575787
357,-692,-0.043457,0.0418701,-0.000447742,0.00874702,-0.00241287,0.00934173,-0.00104246,-1.32914,0.0066028,0.0156862,1581,1716,-0.0434887,-0.0418496
364,-692,-0.100708,0.0246582,-0.0001877,0.00933126,-0.00140666,0.00953478,-0.000391217,-1.42711,0.00649085,0.0193633,1588,1716,-0.10072,-0.024635
371,-692,-0.0487061,0.0108643,-0.000130013,0.00947012,-0.000549267,0.00950145,-0.000161337,-1.51383,0.00638876,0.0291894,1595,1716,-0.0487156,-0.01092
378,-692,-0.0397949,0.0167236,0.000385756,0.00918497,-9.61496e-05,0.00918602,0.000384705,-1.55987,0.00599989,0.0376487,1602,1716,-0.0398109,-0.0166888
385,-692,-0.0290527,0.0361328,0.00101326,0.0087906,-0.000150009,0.00879349,0.00101037,-1.55152,0.00555624,0.0423685,1609,1716,-0.0290644,-0.0361017
392,-692,0.149902,0.155518,0,0,0,0,0,0,0,-1,1616,1716,0.149953,-0.155483
399,-692,0.126343,-0.0333252,0.00182953,0.0077106,-0.00114733,0.0079265,0.00161363,-1.38479,0.00483702,0.0419944,1623,1716,0.126297,0.0333129
406,-692,0.0355225,0.266968,0.00194418,0.00695168,-0.00248011,0.00797209,0.000923768,-1.18047,0.00503513,0.0419693,1630,1716,0.0354775,-0.266966
413,-692,0.360352,0.227051,0.00173984,0.00598909,-0.0043527,0.00870802,-0.000979089,-1.01245,0.00615771,0.0419961,1637,1716,0.360359,-0.227064
420,-692,0.169678,0.386963,0.000650982,0.00560479,-0.00642695,0.0100156,-0.00375984,-0.969324,0.00822208,0.042662,1644,1716,0.169676,-0.386927
427,-692,-0.0526123,0.133179,-0.0015375,0.0055974,-0.00897693,0.0116898,-0.00762987,-0.974531,0.011236,0.0448627,1651,1716,-0.0526037,-0.133124
434,-692,-0.0717773,-0.371338,-0.00394097,0.0059161,-0.0114445,0.0134482,-0.011473,-0.988721,0.0144033,0.0475214,1658,1716,-0.0718297,0.371316
441,-692,-0.0566406,-0.88855,0,0,0,0,0,0,0,-1,1665,1716,-0.0566279,0.888557
448,-692,-0.968994,0.135498,0,0,0,0,0,0,0,-1,1672,1716,-0.969045,-0.135528
455,-692,0,0,0,0,0,0,0,0,0,-1,1679,1716,0,0
462,-692,0,0,0,0,0,0,0,0,0,-1,1686,1716,0,0
469,-692,0,0,0,0,0,0,0,0,0,-1,1693,1716,0,0
476,-692,0,0,0,0,0,0,0,0,0,-1,1700,1716,0,0
483,-692,0,0,0,0,0,0,0,0,0,-1,1707,1716,0,0
490,-692,0,0,0,0,0,0,0,0,0,-1,1714,1716,0,0
497,-692,0,0,0,0,0,0,0,0,0,-1,1721,1716,0,0
504,-692,0,0,0,0,0,0,0,0,0,-1,1728,1716,0,0
511,-692,0,0,0,0,0,0,0,0,0,-1,1735,1716,0,0
518,-692,0,0,0,0,0,0,0,0,0,-1,1742,1716,0,0
525,-692,0,0,0,0,0,0,0,0,0,-1,1749,1716,0,0
532,-692,0,0,0,0,0,0,0,0,0,-1,1756,1716,0,0
539,-692,0,0,0,0,0,0,0,0,0,-1,1763,1716,0,0
546,-692,0,0,0,0,0,0,0,0,0,-1,1770,1716,0,0
553,-692,0,0,0,0,0,0,0,0,0,-1,1777,1716,0,0
560,-692,0,0,0,0,0,0,0,0,0,-1,1784,1716,0,0
567,-692,0,0,0,0,0,0,0,0,0,-1,1791,1716,0,0
574,-692,0,0,0,0,0,0,0,0,0,-1,1798,1716,0,0
581,-692,0,0,0,0,0,0,0,0,0,-1,1805,1716,0,0
588,-692,0,0,0,0,0,0,0,0,0,-1,1812,1716,0,0
595,-692,0,0,0,0,0,0,0,0,0,-1,1819,1716,0,0
602,-692,0,0,0,0,0,0,0,0,0,-1,1826,1716,0,0
609,-692,0,0,0,0,0,0,0,0,0,-1,1833,1716,0,0
616,-692,0,0,0,0,0,0,0,0,0,-1,1840,1716,0,0
623,-692,0,0,0,0,0,0,0,0,0,-1,1847,1716,0,0
630,-692,0,0,0,0,0,0,0,0,0,-1,1854,1716,0,0
637,-692,0,0,0,0,0,0,0,0,0,-1,1861,1716,0,0
644,-692,0,0,0,0,0,0,0,0,0,-1,1868,1716,0,0
651,-692,0,0,0,0,0,0,0,0,0,-1,1875,1716,0,0
658,-692,0,0,0,0,0,0,0,0,0,-1,1882,1716,0,0
665,-692,0,0,0,0,0,0,0,0,0,-1,1889,1716,0,0
672,-692,0,0,0,0,0,0,0,0,0,-1,1896,1716,0,0
679,-692,0,0,0,0,0,0,0,0,0,-1,1903,1716,0,0
686,-692,0,0,0,0,0,0,0,0,0,-1,1910,1716,0,0
693,-692,0,0,0,0,0,0,0,0,0,-1,1917,1716,0,0
700,-692,0,0,0,0,0,0,0,0,0,-1,1924,1716,0,0
707,-692,0,0,0,0,0,0,0,0,0,-1,1931,1716,0,0
714,-692,0,0,0,0,0,0,0,0,0,-1,1938,1716,0,0
721,-692,0,0,0,0,0,0,0,0,0,-1,1945,1716,0,0
728,-692,0,0,0,0,0,0,0,0,0,-1,1952,1716,0,0
735,-692,0,0,0,0,0,0,0,0,0,-1,1959,1716,0,0
742,-692,0,0,0,0,0,0,0,0,0,-1,1966,1716,0,0
749,-692,0,0,0,0,0,0,0,0,0,-1,1973,1716,0,0
756,-692,0,0,0,0,0,0,0,0,0,-1,1980,1716,0,0
763,-692,0,0,0,0,0,0,0,0,0,-1,1987,1716,0,0
770,-692,0,0,0,0,0,0,0,0,0,-1,1994,1716,0,0
777,-692,0,0,0,0,0,0,0,0,0,-1,2001,1716,0,0
784,-692,0,0,0,0,0,0,0,0,0,-1,2008,1716,0,0
791,-692,0,0,0,0,0,0,0,0,0,-1,2015,1716,0,0
798,-692,0,0,0,0,0,0,0,0,0,-1,2022,1716,0,0
805,-692,0,0,0,0,0,0,0,0,0,-1,2029,1716,0,0
812,-692,0,0,0,0,0,0,0,0,0,-1,2036,1716,0,0
-700,-699,0,0,0,0,0,0,0,0,0,-1,524,1723,0,0
-693,-699,0,0,0,0,0,0,0,0,0,-1,531,1723,0,0
-686,-699,0,0,0,0,0,0,0,0,0,-1,538,1723,0,0
-679,-699,0,0,0,0,0,0,0,0,0,-1,545,1723,0,0
-672,-699,0,0,0,0,0,0,0,0,0,-1,552,1723,0,0
-665,-699,0,0,0,0,0,0,0,0,0,-1,559,1723,0,0
-658,-699,0,0,0,0,0,0,0,0,0,-1,566,1723,0,0
-651,-699,0,0,0,0,0,0,0,0,0,-1,573,1723,0,0
-644,-699,0,0,0,0,0,0,0,0,0,-1,580,1723,0,0
-637,-699,0,0,0,0,0,0,0,0,0,-1,587,1723,0,0
-630,-699,0,0,0,0,0,0,0,0,0,-1,594,1723,0,0
-623,-699,0,0,0,0,0,0,0,0,0,-1,601,1723,0,0
-616,-699,0,0,0,0,0,0,0,0,0,-1,608,1723,0,0
-609,-699,0,0,0,0,0,0,0,0,0,-1,615,1723,0,0
-602,-699,0,0,0,0,0,0,0,0,0,-1,622,1723,0,0
-595,-699,0,0,0,0,0,0,0,0,0,-1,629,1723,0,0
-588,-699,0,0,0,0,0,0,0,0,0,-1,636,1723,0,0
-581,-699,0,0,0,0,0,0,0,0,0,-1,643,1723,0,0
-574,-699,0,0,0,0,0,0,0,0,0,-1,650,1723,0,0
-567,-699,0,0,0,0,0,0,0,0,0,-1,657,1723,0,0
-560,-699,0,0,0,0,0,0,0,0,0,-1,664,1723,0,0
-553,-699,0,0,0,0,0,0,0,0,0,-1,671,1723,0,0
-546,-699,0,0,0,0,0,0,0,0,0,-1,678,1723,0,0
-539,-699,0,0,0,0,0,0,0,0,0,-1,685,1723,0,0
-532,-699,0,0,0,0,0,0,0,0,0,-1,692,1723,0,0
-525,-699,0,0,0,0,0,0,0,0,0,-1,699,1723,0,0
-518,-699,0,0,0,0,0,0,0,0,0,-1,706,1723,0,0
-511,-699,0,0,0,0,0,0,0,0,0,-1,713,1723,0,0
-504,-699,0,0,0,0,0,0,0,0,0,-1,720,1723,0,0
-497,-699,0,0,0,0,0,0,0,0,0,-1,727,1723,0,0
-490,-699,0,0,0,0,0,0,0,0,0,-1,734,1723,0,0
-483,-699,0,0,0,0,0,0,0,0,0,-1,741,1723,0,0
-476,-699,0,0,0,0,0,0,0,0,0,-1,748,1723,0,0
-469,-699,0,0,0,0,0,0,0,0,0,-1,755,1723,0,0
-462,-699,0,0,0,0,0,0,0,0,0,-1,762,1723,0,0
-455,-699,0,0,0,0,0,0,0,0,0,-1,769,1723,0,0
-448,-699,0,0,0,0,0,0,0,0,0,-1,776,1723,0,0
-441,-699,0,0,0,0,0,0,0,0,0,-1,783,1723,0,0
-434,-699,0,0,0,0,0,0,0,0,0,-1,790,1723,0,0
-427,-699,0,0,0,0,0,0,0,0,0,-1,797,1723,0,0
-420,-699,0,0,0,0,0,0,0,0,0,-1,804,1723,0,0
-413,-699,0,0,0,0,0,0,0,0,0,-1,811,1723,0,0
-406,-699,0,0,0,0,0,0,0,0,0,-1,818,1723,0,0
-399,-699,0,0,0,0,0,0,0,0,0,-1,825,1723,0,0
-392,-699,0,0,0,0,0,0,0,0,0,-1,832,1723,0,0
-385,-699,0,0,0,0,0,0,0,0,0,-1,839,1723,0,0
-378,-699,0,0,0,0,0,0,0,0,0,-1,846,1723,0,0
-371,-699,0,0,0,0,0,0,0,0,0,-1,853,1723,0,0
-364,-699,0,0,0,0,0,0,0,0,0,-1,860,1723,0,0
-357,-699,0,0,0,0,0,0,0,0,0,-1,867,1723,0,0
-350,-699,0,0,0,0,0,0,0,0,0,-1,874,1723,0,0
-343,-699,0,0,0,0,0,0,0,0,0,-1,881,1723,0,0
-336,-699,0,0,0,0,0,0,0,0,0,-1,888,1723,0,0
-329,-699,0,0,0,0,0,0,0,0,0,-1,895,1723,0,0
-322,-699,0,0,0,0,0,0,0,0,0,-1,902,1723,0,0
-315,-699,-0.0689087,3.24414,0,0,0,0,0,0,0,-1,909,1723,-0.0689273,-3.24408
-308,-699,1.60962,4.60681,0.0228128,-0.0334595,-0.00975171,0.0244549,-0.0351015,-0.166817,0.0345676,0.0478853,916,1723,1.60961,-4.60683
-301,-699,1.89734,4.88782,0.0238062,-0.0294669,-0.00546496,0.0243611,-0.0300217,-0.10118,0.0314546,0.0475721,923,1723,1.89736,-4.88787
-294,-699,-2.3855,-0.0181885,0,0,0,0,0,0,0,-1,930,1723,-2.38552,0.0181909
-287,-699,-1.5874,0.332886,0.0229029,-0.0215272,0.00111713,0.022931,-0.0215552,0.0251224,0.0256882,0.0482924,937,1723,-1.58739,-0.332846
-280,-699,-0.88269,0.438232,0.0208256,-0.0173496,0.00336166,0.0211194,-0.0176434,0.0871648,0.0224097,0.0447108,944,1723,-0.882692,-0.438202
-273,-699,-0.581604,0.443848,0.0171635,-0.0141234,0.00441364,0.0177742,-0.0147341,0.137496,0.018796,0.044484,951,1723,-0.581588,-0.443878
-266,-699,-0.399841,0.640015,0.0133497,-0.0107239,0.0041941,0.0140595,-0.0114337,0.167642,0.0147445,0.0466425,958,1723,-0.399867,-0.639968
-259,-699,-0.0810547,0.864746,0,0,0,0,0,0,0,-1,965,1723,-0.0810675,-0.864774
-252,-699,-0.629089,0.185547,0,0,0,0,0,0,0,-1,972,1723,-0.62909,-0.185574
-245,-699,-0.220154,0.0426025,0,0,0,0,0,0,0,-1,979,1723,-0.220168,-0.0426387
-238,-699,0.0266113,-0.149292,0,0,0,0,0,0,0,-1,986,1723,0.0266013,0.149338
-231,-699,-0.158569,-0.0386963,-0.00213857,-0.00462864,0.00255836,-0.000538382,-0.00622883,0.558941,0.00398524,0.0377457,993,1723,-0.158568,0.0386362
-224,-699,-0.121155,-0.0437012,-0.00324437,-0.00422332,0.00146549,-0.00218877,-0.00527892,0.624224,0.00306256,0.0341271,1000,1723,-0.121146,0.0436521
-217,-699,-0.0719604,0.0388184,-0.00350585,-0.00298024,0.000605957,-0.00258256,-0.00390354,0.990006,0.00229261,0.0235193,1007,1723,-0.0719425,-0.0387666
-210,-699,-0.0352783,0.0679932,-0.00359554,-0.00129051,0.000402506,-0.00122224,-0.0036638,1.4028,0.00215399,0.0157561,1014,1723,-0.0352922,-0.0679615
-203,-699,-0.0252075,0.0644531,-0.00326965,-0.000166554,0.000758947,9.12114e-06,-0.00344533,1.34333,0.00229993,0.018797,1021,1723,-0.0251996,-0.0644574
-196,-699,-0.0330811,0.053833,-0.00284677,0.00117835,0.000362141,0.00121067,-0.00287909,1.48178,0.00242584,0.0159692,1028,1723,-0.0331075,-0.0538448
-189,-699,-0.0523682,0.0562744,-0.00257925,0.00175345,0.000287922,0.0017725,-0.0025983,1.50473,0.00253845,0.00821543,1035,1723,-0.0523223,-0.0562233
-182,-699,-0.0601807,0.0509033,-0.00226498,0.00202829,0.000245917,0.00204233,-0.00227902,1.51377,0.00249618,0.0113996,1042,1723,-0.0601853,-0.0508909
-175,-699,-0.0478516,0.0692139,-0.00201034,0.00188457,0.000124795,0.00188856,-0.00201434,1.5388,0.00225373,0.013424,1049,1723,-0.0479066,-0.0692607
-168,-699,-0.0219727,0.0554199,-0.00185296,0.00174196,-5.05719e-06,0.00174197,-0.00185296,-1.56939,0.00207586,0.0134201,1056,1723,-0.0219163,-0.0553804
-161,-699,-0.0288086,0.024292,-0.00157494,0.00134285,-0.000165599,0.00135222,-0.00158431,-1.51428,0.00169717,0.0114096,1063,1723,-0.0287735,-0.024237
-154,-699,-0.0505371,0.0352783,-0.00102894,0.000527182,-0.00037086,0.000611047,-0.0011128,-1.3484,0.00100922,0.0120541,1070,1723,-0.050586,-0.0352282
-147,-699,-0.0626221,0.0350342,-0.00042236,-0.000185576,-0.000568279,0.000276513,-0.000884449,-0.888097,0.000700245,0.0132621,1077,1723,-0.0625862,-0.0349746
-140,-699,-0.0513916,0.0316162,-0.000140361,-0.00099047,-0.0006938,0.000248236,-0.00137907,-0.510564,0.00101232,0.00848325,1084,1723,-0.0513729,-0.0315838
-133,-699,-0.0391846,0.05896,0.000229832,-0.00182975,-0.000704352,0.000447671,-0.00204759,-0.299945,0.00153618,0.00791395,1091,1723,-0.039179,-0.0589732
-126,-699,-0.0255127,0.0625,0.000255441,-0.00252275,-0.000817118,0.000477949,-0.00274526,-0.265863,0.00200853,0.0107399,1098,1723,-0.0255005,-0.0624408
-119,-699,-0.0142822,0.0631104,5.77992e-05,-0.00319432,-0.000877885,0.000279644,-0.00341617,-0.247522,0.00237615,0.0157501,1105,1723,-0.0142485,-0.0630827
-112,-699,-0.0335693,0.0626221,-0.000115726,-0.00380404,-0.000828418,6.17972e-05,-0.00398156,-0.2111,0.00267521,0.0109025,1112,1723,-0.033531,-0.0626827
-105,-699,-0.0333252,0.0483398,-0.000320659,-0.00426975,-0.000807597,-0.000161887,-0.00442852,-0.194122,0.00289989,0.0103663,1119,1723,-0.0333666,-0.0483125
-98,-699,-0.0192871,0.0565186,-0.000495888,-0.00450939,-0.000774508,-0.000351613,-0.00465367,-0.184169,0.00299213,0.0122265,1126,1723,-0.0193243,-0.0565353
-91,-699,-0.0119629,0.0355225,-0.00053112,-0.00486681,-0.00101299,-0.00030612,-0.00509181,-0.218566,0.00329724,0.017529,1133,1723,-0.0120057,-0.0355428
-84,-699,-0.0307617,0.0268555,-0.000338812,-0.00559865,-0.00134857,-1.32062e-05,-0.00592426,-0.23691,0.00394511,0.0193689,1140,1723,-0.0307416,-0.0268742
-77,-699,-0.036377,0.0517578,-9.78904e-05,-0.00633909,-0.00157009,0.000274834,-0.00671181,-0.233077,0.00456891,0.0138755,1147,1723,-0.0363851,-0.0517109
-70,-699,-0.0412598,0.057373,0.000352108,-0.00731688,-0.00157628,0.000663455,-0.00762823,-0.19501,0.00532044,0.0158955,1154,1723,-0.0412863,-0.0573225
-63,-699,-0.0384521,0.067749,0.000783269,-0.00791633,-0.0014567,0.00102071,-0.00815377,-0.161575,0.00580607,0.013861,1161,1723,-0.0384369,-0.0676959
-56,-699,-0.0373535,0.052124,0.00124886,-0.00835965,-0.00134339,0.00143315,-0.00854394,-0.136331,0.00622888,0.00975184,1168,1723,-0.0373167,-0.0520668
-49,-699,-0.0311279,0.0587158,0.00159597,-0.00866729,-0.00103751,0.0016998,-0.00877112,-0.0997448,0.00648866,0.0177446,1175,1723,-0.0310698,-0.0586717
-42,-699,-0.0338135,0.0684814,0.00186194,-0.00860402,-0.000633042,0.00190009,-0.00864217,-0.0601933,0.00648822,0.018163,1182,1723,-0.0337765,-0.0685268
-35,-699,-0.0435791,0.0605469,0.00221498,-0.00802019,-0.000303914,0.002224,-0.00802921,-0.0296583,0.00622794,0.0178036,1189,1723,-0.0435227,-0.0604902
-28,-699,-0.03125,0.0661621,0.00243221,-0.00722492,0.000113028,0.00243353,-0.00722624,0.011702,0.00580138,0.0135372,1196,1723,-0.0312383,-0.0661217
-21,-699,-0.0310059,0.0762939,0.00109753,-0.0064011,0.00121022,0.00128801,-0.00659158,0.156114,0.00488071,0.00991628,1203,1723,-0.0310432,-0.076311
-14,-699,-0.0406494,0.0618896,-0.000146306,-0.00496102,0.00203429,0.000598114,-0.00570544,0.350801,0.00401786,0.00967765,1210,1723,-0.0406815,-0.0618401
-7,-699,-0.0449219,0.0609131,-0.000636908,-0.00339983,0.00244401,0.000789049,-0.00482579,0.528162,0.0035099,0.00778704,1217,1723,-0.0448907,-0.0608964
0,-699,-0.0324707,0.0732422,-0.000941304,-0.00174023,0.00260784,0.00129749,-0.00397902,0.7094,0.00317482,0.00960427,1224,1723,-0.0324716,-0.0731931
7,-699,-0.0332031,0.0654297,-0.00103777,-0.000423075,0.00248505,0.00177356,-0.0032344,0.846925,0.00293206,0.0147906,1231,1723,-0.0331991,-0.0654456
14,-699,-0.0336914,0.0649414,-0.000999078,0.000490437,0.00249318,0.00234772,-0.00285636,0.930538,0.00300935,0.015421,1238,1723,-0.033704,-0.0649987
21,-699,-0.0213623,0.0480957,-0.000450079,0.00139109,0.00224221,0.00289434,-0.00195333,0.980191,0.00281632,0.0158197,1245,1723,-0.0213356,-0.0480721
28,-699,-0.0406494,0.0462646,0.00050094,0.00161939,0.00184758,0.00299052,-0.000870189,0.932356,0.00233835,0.01493,1252,1723,-0.0406053,-0.0463005
35,-699,-0.0546875,0.0704346,0.00125989,0.00163132,0.00166598,0.00312191,-0.000230696,0.840907,0.00216228,0.0129201,1259,1723,-0.0546707,-0.070469
42,-699,-0.0299072,0.0710449,0.00210395,0.00106239,0.00164934,0.00331277,-0.000146432,0.632476,0.00225891,0.0121406,1266,1723,-0.0298816,-0.0710526
49,-699,-0.0107422,0.0603027,0.00341915,0.000425002,0.00160532,0.00411713,-0.000272986,0.410138,0.00284013,0.0142591,1273,1723,-0.0107715,-0.0602833
56,-699,-0.0279541,0.0609131,0.00492681,0.000469316,0.00191182,0.00563445,-0.000238323,0.354502,0.00383821,0.0148365,1280,1723,-0.0278989,-0.0609184
63,-699,-0.0305176,0.0679932,0.00565411,-8.87216e-05,0.00210958,0.00634575,-0.000780362,0.316813,0.00451316,0.0114337,1287,1723,-0.030561,-0.0679327
70,-699,-0.03479,0.0606689,0.00594913,-0.000627041,0.00237152,0.00671513,-0.00139304,0.312421,0.00500613,0.00957204,1294,1723,-0.0347508,-0.0606963
77,-699,-0.0422363,0.0394287,0.00606939,0.00132363,0.00348718,0.00791444,-0.000521426,0.486653,0.00545841,0.00952624,1301,1723,-0.0422656,-0.0394803
84,-699,-0.0686035,0.0437012,0.00676671,0.00231348,0.00361776,0.00878816,0.000292032,0.50954,0.00576389,0.0122399,1308,1723,-0.0686438,-0.0437094
91,-699,-0.0845947,0.0667725,0.00675478,0.00302702,0.00402484,0.00932637,0.000455431,0.568553,0.00607146,0.0122466,1315,1723,-0.0846318,-0.0667666
98,-699,-0.0324707,0.0782471,0.00676312,0.006824,0.00330852,0.0101022,0.0034849,0.789998,0.00592524,0.0106357,1322,1723,-0.0324382,-0.0782628
105,-699,-0.0386963,0.0754395,0.00660178,0.00934479,0.00278479,0.0110775,0.00486908,1.01421,0.00641115,0.0149211,1329,1723,-0.0387561,-0.07538
112,-699,-0.0793457,0.0615234,0.00619631,0.0126066,0.00180634,0.0130806,0.00572235,1.31419,0.00757172,0.0199907,1336,1723,-0.0793304,-0.0614897
119,-699,-0.0797119,0.0531006,0.00610805,0.0157354,0.000471546,0.0157585,0.006085,1.52197,0.00917646,0.0139907,1343,1723,-0.0797319,-0.0530801
126,-699,-0.0556641,0.0522461,0.00589292,0.0183862,-0.000867093,0.0184461,0.00583303,-1.50183,0.010887,0.0149865,1350,1723,-0.0556698,-0.052271
133,-699,-0.0264893,0.0535889,0.00574676,0.0203106,-0.00214778,0.0206208,0.00543662,-1.42739,0.0123408,0.0137855,1357,1723,-0.0264883,-0.0535582
140,-699,-0.00354004,0.0489502,0.00555636,0.0213292,-0.00357264,0.0221007,0.00478487,-1.35812,0.0134261,0.0155445,1364,1723,-0.00353402,-0.0490035
147,-699,-0.0306396,0.0653076,0.005155,0.0213487,-0.00444423,0.0224882,0.0040155,-1.3198,0.0138491,0.0136532,1371,1723,-0.0306457,-0.0652894
154,-699,-0.0450439,0.0722656,0.00372738,0.0204884,-0.00448392,0.0216125,0.00260324,-1.32515,0.0136238,0.0127397,1378,1723,-0.0450871,-0.0722987
161,-699,-0.0336914,0.0460205,0.00198702,0.0183594,-0.00458858,0.0195577,0.00078871,-1.31535,0.0127837,0.00940188,1385,1723,-0.0336696,-0.0459617
168,-699,-0.0401611,0.0505371,0.00113261,0.0162931,-0.0041848,0.0173715,5.4176e-05,-1.31858,0.011563,0.0101405,1392,1723,-0.0401234,-0.0505795
175,-699,-0.0422363,0.0539551,0.000480119,0.0135466,-0.00358876,0.0144674,-0.000440663,-1.31964,0.00979511,0.0110147,1399,1723,-0.0422834,-0.0540057
182,-699,-0.0246582,0.0649414,-0.000145718,0.008918,-0.00361789,0.010185,-0.00141273,-1.23394,0.00730659,0.01185,1406,1723,-0.0246944,-0.0649581
189,-699,-0.0151367,0.0566406,-0.000288096,0.00660235,-0.00264522,0.00750071,-0.00118646,-1.2434,0.00543927,0.0152456,1413,1723,-0.0151294,-0.0566758
196,-699,-0.0313721,0.0507813,-0.000470235,0.00477532,-0.00184082,0.00535685,-0.00105177,-1.26481,0.00396855,0.0147697,1420,1723,-0.0313195,-0.0507584
203,-699,-0.0419922,0.0625,-0.000924046,0.00157546,-0.00050888,0.0016751,-0.00102368,-1.37745,0.0015732,0.0120733,1427,1723,-0.0419589,-0.0625468
210,-699,-0.036499,0.0650635,-0.000565863,0.000895871,-8.39454e-05,0.000900676,-0.000570668,-1.51362,0.000856574,0.0121879,1434,1723,-0.0365192,-0.0650441
217,-699,-0.0255127,0.0686035,7.08373e-05,0.000332881,0.000224553,0.000461842,-5.81234e-05,1.04949,0.000328985,0.012513,1441,1723,-0.0255366,-0.0686169
224,-699,-0.0351563,0.0778809,0.0003962,0.000254022,0.000308325,0.000641525,8.69698e-06,0.672096,0.000424814,0.0139998,1448,1723,-0.0351129,-0.0778445
231,-699,-0.0217285,0.0625,0.000559667,0.00022743,0.000325996,0.000759429,2.76671e-05,0.54976,0.00049732,0.0112191,1455,1723,-0.0217383,-0.0625556
238,-699,-0.0458984,0.050293,0.000587377,0.000376845,0.000252577,0.000755746,0.000208476,0.587959,0.000450708,0.00992741,1462,1723,-0.0459583,-0.0503356
245,-699,-0.0379639,0.0340576,0.00073901,0.000592654,0.00011468,0.000801871,0.000529793,0.501415,0.000470863,0.0117036,1469,1723,-0.0379851,-0.0341063
252,-699,-0.0203857,0.0450439,0.000724934,0.000653327,-0.000275973,0.000967416,0.000410844,-0.72089,0.000560646,0.0101091,1476,1723,-0.0203526,-0.0450354
259,-699,-0.0338135,0.0635986,0.000503606,0.00072816,-0.000858874,0.00148206,-0.000250299,-0.850392,0.00108118,0.00995424,1483,1723,-0.0338246,-0.0635902
266,-699,-0.0472412,0.0501709,0.000281714,0.000821512,-0.00153277,0.00210796,-0.00100474,-0.872548,0.00183436,0.012061,1490,1723,-0.0472109,-0.0501731
273,-699,-0.0510254,0.0571289,2.72976e-05,0.000882869,-0.00228414,0.00277894,-0.00186878,-0.877968,0.00270046,0.0113704,1497,1723,-0.0510395,-0.0571047
280,-699,-0.0294189,0.079834,-0.000288422,0.000933707,-0.00312686,0.00350865,-0.00286337,-0.881894,0.00368517,0.0114291,1504,1723,-0.0294206,-0.0798708
287,-699,-0.0450439,0.0687256,-0.000489035,0.000955008,-0.00402359,0.00432084,-0.00385487,-0.874177,0.00472281,0.0100624,1511,1723,-0.0450272,-0.0687369
294,-699,-0.0490723,0.0562744,-0.000829911,0.000914884,-0.0048862,0.00500596,-0.00492098,-0.873739,0.00573139,0.0104623,1518,1723,-0.0491065,-0.0562203
301,-699,-0.0283203,0.069458,-0.00107106,0.0010338,-0.00558585,0.0056655,-0.00570275,-0.878512,0.00656348,0.0122691,1525,1723,-0.0283511,-0.0694031
308,-699,-0.0272217,0.0526123,-0.00128459,0.00162829,-0.00626432,0.00660325,-0.00625955,-0.899618,0.00742722,0.0171754,1532,1723,-0.0272411,-0.0526478
315,-699,-0.0418701,0.0335693,-0.00136513,0.00237074,-0.0067924,0.00754737,-0.00654176,-0.919583,0.00814127,0.0192527,1539,1723,-0.0418505,-0.0335646
322,-699,-0.0772705,0.0501709,-0.00136382,0.00338433,-0.00686985,0.00827875,-0.00625824,-0.951764,0.00841992,0.0191324,1546,1723,-0.0772213,-0.050128
329,-699,-0.0928955,0.0384521,-0.00168798,0.00472464,-0.00660848,0.00886356,-0.00582691,-1.01126,0.00854173,0.0151065,1553,1723,-0.0928828,-0.038428
336,-699,-0.0510254,0.0540771,-0.00225147,0.00614731,-0.00601172,0.00928111,-0.00538527,-1.09027,0.00856664,0.0123246,1560,1723,-0.0510121,-0.054132
343,-699,-0.0571289,0.0643311,-0.00203746,0.00755604,-0.00520709,0.00983902,-0.00432045,-1.1576,0.00837938,0.0164292,1567,1723,-0.0570968,-0.0643553
350,-699,-0.0662842,0.0767822,-0.00135522,0.00924055,-0.00439459,0.010826,-0.00294065,-1.22456,0.0083715,0.0276381,1574,1723,-0.0662532,-0.0767395
357,-699,-0.194214,0.0743408,-0.000930888,0.0106889,-0.00331008,0.0115657,-0.00180766,-1.31186,0.00837825,0.0360487,1581,1723,-0.194155,-0.0743797
364,-699,-0.187256,-0.0650635,-0.000638832,0.0116586,-0.00199521,0.0119742,-0.000954448,-1.41391,0.0083192,0.0371822,1588,1723,-0.187205,0.0650653
371,-699,0.0661621,-0.0891113,-0.000716222,0.0121268,-0.000788256,0.012175,-0.000764421,-1.50973,0.0083831,0.0413156,1595,1723,0.0661937,0.0891337
378,-699,0.0167236,-0.00817871,-0.000402726,0.0120805,1.86062e-05,0.0120805,-0.000402754,1.56931,0.00819121,0.0440892,1602,1723,0.0167342,0.00814365
385,-699,-0.13208,-0.0358887,6.51815e-06,0.0117313,0.000356852,0.0117421,-4.33251e-06,1.5404,0.00782954,0.0417923,1609,1723,-0.132122,0.0358339
392,-699,-0.193359,-0.236938,0.000230446,0.0109106,0.000603635,0.0109446,0.000196437,1.51452,0.00723183,0.0429829,1616,1723,-0.193341,0.236886
399,-699,0.500122,-0.224731,0.000357025,0.0100228,0.000262663,0.0100299,0.000349892,1.54365,0.00657309,0.0434888,1623,1723,0.500121,0.224773
406,-699,0.303223,0.259277,8.21877e-05,0.00848087,-0.000750094,0.00854733,1.57217e-05,-1.48242,0.00569299,0.0442343,1630,1723,0.303209,-0.259324
413,-699,0.328491,0.514038,-0.000739862,0.00644652,-0.00245188,0.00720336,-0.0014967,-1.2714,0.0053711,0.0430227,1637,1723,0.328496,-0.51402
420,-699,-0.250854,0.94104,-0.00257682,0.00513411,-0.00463004,0.00730375,-0.00474646,-1.13258,0.00700922,0.0453878,1644,1723,-0.250843,-0.940993
427,-699,-0.340454,0.361084,-0.00570441,0.00415314,-0.00747433,0.00817749,-0.00972875,-1.07689,0.0103511,0.0462614,1651,1723,-0.3404,-0.361136
434,-699,-0.466309,-0.286987,-0.00926278,0.00346272,-0.0103418,0.00924236,-0.0150424,-1.06118,0.0141535,0.0473679,1658,1723,-0.466321,0.287007
441,-699,0,0,0,0,0,0,0,0,0,-1,1665,1723,0,0
448,-699,0,0,0,0,0,0,0,0,0,-1,1672,1723,0,0
455,-699,0,0,0,0,0,0,0,0,0,-1,1679,1723,0,0
462,-699,0,0,0,0,0,0,0,0,0,-1,1686,1723,0,0
469,-699,0,0,0,0,0,0,0,0,0,-1,1693,1723,0,0
476,-699,0,0,0,0,0,0,0,0,0,-1,1700,1723,0,0
483,-699,0,0,0,0,0,0,0,0,0,-1,1707,1723,0,0
490,-699,0,0,0,0,0,0,0,0,0,-1,1714,1723,0,0
497,-699,0,0,0,0,0,0,0,0,0,-1,1721,1723,0,0
504,-699,0,0,0,0,0,0,0,0,0,-1,1728,1723,0,0
511,-699,0,0,0,0,0,0,0,0,0,-1,1735,1723,0,0
518,-699,0,0,0,0,0,0,0,0,0,-1,1742,1723,0,0
525,-699,0,0,0,0,0,0,0,0,0,-1,1749,1723,0,0
532,-699,0,0,0,0,0,0,0,0,0,-1,1756,1723,0,0
539,-699,0,0,0,0,0,0,0,0,0,-1,1763,1723,0,0
546,-699,0,0,0,0,0,0,0,0,0,-1,1770,1723,0,0
553,-699,0,0,0,0,0,0,0,0,0,-1,1777,1723,0,0
560,-699,0,0,0,0,0,0,0,0,0,-1,1784,1723,0,0
567,-699,0,0,0,0,0,0,0,0,0,-1,1791,1723,0,0
574,-699,0,0,0,0,0,0,0,0,0,-1,1798,1723,0,0
581,-699,0,0,0,0,0,0,0,0,0,-1,1805,1723,0,0
588,-699,0,0,0,0,0,0,0,0,0,-1,1812,1723,0,0
595,-699,0,0,0,0,0,0,0,0,0,-1,1819,1723,0,0
602,-699,0,0,0,0,0,0,0,0,0,-1,1826,1723,0,0
609,-699,0,0,0,0,0,0,0,0,0,-1,1833,1723,0,0
616,-699,0,0,0,0,0,0,0,0,0,-1,1840,1723,0,0
623,-699,0,0,0,0,0,0,0,0,0,-1,1847,1723,0,0
630,-699,0,0,0,0,0,0,0,0,0,-1,1854,1723,0,0
637,-699,0,0,0,0,0,0,0,0,0,-1,1861,1723,0,0
644,-699,0,0,0,0,0,0,0,0,0,-1,1868,1723,0,0
651,-699,0,0,0,0,0,0,0,0,0,-1,1875,1723,0,0
658,-699,0,0,0,0,0,0,0,0,0,-1,1882,1723,0,0
665,-699,0,0,0,0,0,0,0,0,0,-1,1889,1723,0,0
672,-699,0,0,0,0,0,0,0,0,0,-1,1896,1723,0,0
679,-699,0,0,0,0,0,0,0,0,0,-1,1903,1723,0,0
686,-699,0,0,0,0,0,0,0,0,0,-1,1910,1723,0,0
693,-699,0,0,0,0,0,0,0,0,0,-1,1917,1723,0,0
700,-699,0,0,0,0,0,0,0,0,0,-1,1924,1723,0,0
707,-699,0,0,0,0,0,0,0,0,0,-1,1931,1723,0,0
714,-699,0,0,0,0,0,0,0,0,0,-1,1938,1723,0,0
721,-699,0,0,0,0,0,0,0,0,0,-1,1945,1723,0,0
728,-699,0,0,0,0,0,0,0,0,0,-1,1952,1723,0,0
735,-699,0,0,0,0,0,0,0,0,0,-1,1959,1723,0,0
742,-699,0,0,0,0,0,0,0,0,0,-1,1966,1723,0,0
749,-699,0,0,0,0,0,0,0,0,0,-1,1973,1723,0,0
756,-699,0,0,0,0,0,0,0,0,0,-1,1980,1723,0,0
763,-699,0,0,0,0,0,0,0,0,0,-1,1987,1723,0,0
770,-699,0,0,0,0,0,0,0,0,0,-1,1994,1723,0,0
777,-699,0,0,0,0,0,0,0,0,0,-1,2001,1723,0,0
784,-699,0,0,0,0,0,0,0,0,0,-1,2008,1723,0,0
791,-699,0,0,0,0,0,0,0,0,0,-1,2015,1723,0,0
798,-699,0,0,0,0,0,0,0,0,0,-1,2022,1723,0,0
805,-699,0,0,0,0,0,0,0,0,0,-1,2029,1723,0,0
812,-699,0,0,0,0,0,0,0,0,0,-1,2036,1723,0,0
-700,-706,0,0,0,0,0,0,0,0,0,-1,524,1730,0,0
-693,-706,0,0,0,0,0,0,0,0,0,-1,531,1730,0,0
-686,-706,0,0,0,0,0,0,0,0,0,-1,538,1730,0,0
-679,-706,0,0,0,0,0,0,0,0,0,-1,545,1730,0,0
-672,-706,0,0,0,0,0,0,0,0,0,-1,552,1730,0,0
-665,-706,0,0,0,0,0,0,0,0,0,-1,559,1730,0,0
-658,-706,0,0,0,0,0,0,0,0,0,-1,566,1730,0,0
-651,-706,0,0,0,0,0,0,0,0,0,-1,573,1730,0,0
-644,-706,0,0,0,0,0,0,0,0,0,-1,580,1730,0,0
-637,-706,0,0,0,0,0,0,0,0,0,-1,587,1730,0,0
-630,-706,0,0,0,0,0,0,0,0,0,-1,594,1730,0,0
-623,-706,0,0,0,0,0,0,0,0,0,-1,601,1730,0,0
-616,-706,0,0,0,0,0,0,0,0,0,-1,608,1730,0,0
-609,-706,0,0,0,0,0,0,0,0,0,-1,615,1730,0,0
-602,-706,0,0,0,0,0,0,0,0,0,-1,622,1730,0,0
-595,-706,0,0,0,0,0,0,0,0,0,-1,629,1730,0,0
-588,-706,0,0,0,0,0,0,0,0,0,-1,636,1730,0,0
-581,-706,0,0,0,0,0,0,0,0,0,-1,643,1730,0,0
-574,-706,0,0,0,0,0,0,0,0,0,-1,650,1730,0,0
-567,-706,0,0,0,0,0,0,0,0,0,-1,657,1730,0,0
-560,-706,0,0,0,0,0,0,0,0,0,-1,664,1730,0,0
-553,-706,0,0,0,0,0,0,0,0,0,-1,671,1730,0,0
-546,-706,0,0,0,0,0,0,0,0,0,-1,678,1730,0,0
-539,-706,0,0,0,0,0,0,0,0,0,-1,685,1730,0,0
-532,-706,0,0,0,0,0,0,0,0,0,-1,692,1730,0,0
-525,-706,0,0,0,0,0,0,0,0,0,-1,699,1730,0,0
-518,-706,0,0,0,0,0,0,0,0,0,-1,706,1730,0,0
-511,-706,0,0,0,0,0,0,0,0,0,-1,713,1730,0,0
-504,-706,0,0,0,0,0,0,0,0,0,-1,720,1730,0,0
-497,-706,0,0,0,0,0,0,0,0,0,-1,727,1730,0,0
-490,-706,0,0,0,0,0,0,0,0,0,-1,734,1730,0,0
-483,-706,0,0,0,0,0,0,0,0,0,-1,741,1730,0,0
-476,-706,0,0,0,0,0,0,0,0,0,-1,748,1730,0,0
-469,-706,0,0,0,0,0,0,0,0,0,-1,755,1730,0,0
-462,-706,0,0,0,0,0,0,0,0,0,-1,762,1730,0,0
-455,-706,0,0,0,0,0,0,0,0,0,-1,769,1730,0,0
-448,-706,0,0,0,0,0,0,0,0,0,-1,776,1730,0,0
-441,-706,0,0,0,0,0,0,0,0,0,-1,783,1730,0,0
-434,-706,0,0,0,0,0,0,0,0,0,-1,790,1730,0,0
-427,-706,0,0,0,0,0,0,0,0,0,-1,797,1730,0,0
-420,-706,0,0,0,0,0,0,0,0,0,-1,804,1730,0,0
-413,-706,0,0,0,0,0,0,0,0,0,-1,811,1730,0,0
-406,-706,0,0,0,0,0,0,0,0,0,-1,818,1730,0,0
-399,-706,0,0,0,0,0,0,0,0,0,-1,825,1730,0,0
-392,-706,0,0,0,0,0,0,0,0,0,-1,832,1730,0,0
-385,-706,0,0,0,0,0,0,0,0,0,-1,839,1730,0,0
-378,-706,0,0,0,0,0,0,0,0,0,-1,846,1730,0,0
-371,-706,0,0,0,0,0,0,0,0,0,-1,853,1730,0,0
-364,-706,0,0,0,0,0,0,0,0,0,-1,860,1730,0,0
-357,-706,0,0,0,0,0,0,0,0,0,-1,867,1730,0,0
-350,-706,0,0,0,0,0,0,0,0,0,-1,874,1730,0,0
-343,-706,0,0,0,0,0,0,0,0,0,-1,881,1730,0,0
-336,-706,0,0,0,0,0,0,0,0,0,-1,888,1730,0,0
-329,-706,0,0,0,0,0,0,0,0,0,-1,895,1730,0,0
-322,-706,0,0,0,0,0,0,0,0,0,-1,902,1730,0,0
-315,-706,0,0,0,0,0,0,0,0,0,-1,909,1730,0,0
-308,-706,2.63989,5.20532,0,0,0,0,0,0,0,-1,916,1730,2.63987,-5.2053
-301,-706,2.84113,5.2605,0,0,0,0,0,0,0,-1,923,1730,2.84111,-5.26049
-294,-706,-0.249817,1.27185,0,0,0,0,0,0,0,-1,930,1730,-0.24982,-1.27179
-287,-706,-1.92529,0.523926,0,0,0,0,0,0,0,-1,937,1730,-1.9253,-0.523896
-280,-706,-0.956055,0.304321,0.0210875,-0.0172759,0.00139356,0.0211381,-0.0173264,0.0362615,0.0222438,0.0490649,944,1730,-0.956025,-0.304289
-273,-706,-0.489685,0.251709,0.0168592,-0.0142865,0.00313841,0.0171723,-0.0145996,0.0994337,0.0183635,0.0435522,951,1730,-0.48969,-0.251704
-266,-706,-0.358093,0.839722,0.0124856,-0.0112332,0.00335731,0.0129517,-0.0116992,0.137937,0.0142383,0.0447449,958,1730,-0.358067,-0.839721
-259,-706,-0.158447,1.40015,0,0,0,0,0,0,0,-1,965,1730,-0.15843,-1.40011
-252,-706,0.682983,-1.03149,0.00399161,-0.00794048,0.00447355,0.00548253,-0.0094314,0.321698,0.00871059,0.044888,972,1730,0.682998,1.03147
-245,-706,-0.0827637,-0.328979,0.00125054,-0.00759185,0.00512797,0.0036001,-0.00994141,0.429639,0.0080989,0.0441157,979,1730,-0.0827912,0.329032
-238,-706,-0.130005,-0.440063,-0.00144605,-0.00684816,0.00346629,0.000247308,-0.00854152,0.454423,0.00577855,0.0444079,986,1730,-0.130018,0.44004
-231,-706,-0.234009,-0.263428,-0.00391669,-0.00554593,0.00232944,-0.00226354,-0.00719908,0.617192,0.00425075,0.0398866,993,1730,-0.234011,0.263409
-224,-706,-0.202026,-0.0914307,-0.00488576,-0.00485734,0.00139411,-0.00347737,-0.00626573,0.790493,0.00362481,0.041101,1000,1730,-0.202014,0.0913877
-217,-706,0.125854,-0.142334,-0.00500384,-0.00317991,0.000661827,-0.00296506,-0.00521868,1.25691,0.00302233,0.0385433,1007,1730,0.125843,0.142331
-210,-706,0.202026,-0.126099,-0.00490636,-0.000985415,0.000617991,-0.000890318,-0.00500146,1.41811,0.00308072,0.0347068,1014,1730,0.202033,0.12611
-203,-706,0.114624,-0.0238037,-0.00437645,0.000534549,0.00115912,0.000794384,-0.00463629,1.35028,0.00338685,0.0284894,1021,1730,0.114619,0.0237495
-196,-706,-0.00891113,0.0292969,-0.00369937,0.00232448,0.000724706,0.00241044,-0.00378533,1.45273,0.00360637,0.0218066,1028,1730,-0.00887591,-0.029304
-189,-706,-0.0484619,0.0501709,-0.00322819,0.00317905,0.000615315,0.00323761,-0.00328674,1.47592,0.00376687,0.0158811,1035,1730,-0.0484506,-0.0501783
-182,-706,-0.0605469,0.0587158,-0.00272225,0.00353184,0.000515164,0.00357399,-0.0027644,1.48916,0.00366941,0.0117615,1042,1730,-0.060503,-0.0587082
-175,-706,-0.0366211,0.0688477,-0.00236147,0.0033542,0.000304032,0.00337032,-0.0023776,1.5178,0.00333502,0.0132114,1049,1730,-0.0365973,-0.06886
-168,-706,-0.0162354,0.050415,-0.00212492,0.00308567,4.53367e-05,0.00308606,-0.00212531,1.5621,0.00302578,0.0143759,1056,1730,-0.016207,-0.0504551
-161,-706,-0.0214844,0.0327148,-0.00175245,0.00243152,-0.00030432,0.00245354,-0.00177447,-1.49857,0.00245152,0.0116778,1063,1730,-0.0215279,-0.0327535
-154,-706,-0.0343018,0.0532227,-0.00113963,0.00119171,-0.000752745,0.00141363,-0.00136155,-1.2841,0.00160235,0.0123304,1070,1730,-0.0343606,-0.0532128
-147,-706,-0.0446777,0.0424805,-0.000504264,0.000217076,-0.00116843,0.00107923,-0.00136642,-0.935099,0.00141524,0.0122522,1077,1730,-0.0446968,-0.0424819
-140,-706,-0.0638428,0.029541,-0.000232704,-0.000830359,-0.00147829,0.000976664,-0.00203973,-0.68567,0.0017772,0.0104191,1084,1730,-0.0638655,-0.029507
-133,-706,-0.0477295,0.045166,0.000211374,-0.00186475,-0.00165389,0.00112598,-0.00277936,-0.505147,0.00232113,0.00794213,1091,1730,-0.0477774,-0.0451972
-126,-706,-0.0274658,0.0505371,0.000276813,-0.00273591,-0.00188943,0.00118687,-0.00364597,-0.448865,0.00290815,0.0126695,1098,1730,-0.0274366,-0.0505283
-119,-706,-0.0032959,0.0562744,7.88803e-06,-0.00352683,-0.00203628,0.000936823,-0.00445577,-0.427991,0.00332704,0.0167815,1105,1730,-0.00327437,-0.0562281
-112,-706,-0.00732422,0.0751953,-0.000188917,-0.00416811,-0.00197106,0.000622127,-0.00497916,-0.390359,0.00354506,0.0116216,1112,1730,-0.00734293,-0.0751705
-105,-706,-0.026123,0.0765381,-0.000375941,-0.00459254,-0.00192451,0.000370345,-0.00533882,-0.369928,0.00368886,0.00783463,1119,1730,-0.0261588,-0.076592
-98,-706,-0.00341797,0.074585,-0.000529583,-0.00468067,-0.0017629,0.000118054,-0.00532831,-0.352064,0.0035922,0.00986477,1126,1730,-0.0034413,-0.0746098
-91,-706,0.00305176,0.0654297,-0.000534797,-0.00483712,-0.00180074,0.000119423,-0.00549134,-0.348479,0.00370135,0.0133711,1133,1730,0.00303528,-0.0653871
-84,-706,-0.0327148,0.0626221,-0.000361874,-0.00524979,-0.00191271,0.000297618,-0.00590928,-0.332029,0.00404238,0.0146693,1140,1730,-0.0326913,-0.0626543
-77,-706,-0.0369873,0.0749512,-0.000178911,-0.00565346,-0.00193286,0.000434725,-0.00626709,-0.307412,0.00433025,0.014406,1147,1730,-0.0370076,-0.0749531
-70,-706,-0.0507813,0.0836182,0.000143248,-0.00626799,-0.00180763,0.000617782,-0.00674253,-0.256724,0.00471446,0.0167903,1154,1730,-0.0508082,-0.08357
-63,-706,-0.0594482,0.0717773,0.000437512,-0.00656555,-0.00157934,0.000777207,-0.00690525,-0.21186,0.00488323,0.0126885,1161,1730,-0.0594354,-0.0717728
-56,-706,-0.0461426,0.0498047,0.000751625,-0.00672481,-0.00134701,0.000986906,-0.00696009,-0.172925,0.00500159,0.0119991,1168,1730,-0.0461292,-0.0498555
-49,-706,-0.0454102,0.0565186,0.000986102,-0.00678942,-0.000986409,0.00110929,-0.00691261,-0.124239,0.0050192,0.0117509,1175,1730,-0.0453616,-0.0565759
-42,-706,-0.0379639,0.0646973,0.00117174,-0.00674281,-0.000593452,0.001216,-0.00678706,-0.0744278,0.00497977,0.0153615,1182,1730,-0.0379381,-0.0647025
-35,-706,-0.0374756,0.0655518,0.00145291,-0.00629411,-0.000295604,0.00146417,-0.00630537,-0.0380833,0.00476719,0.0152076,1189,1730,-0.0375096,-0.0655495
-28,-706,-0.0397949,0.0584717,0.00160838,-0.00565824,5.66501e-05,0.00160882,-0.00565868,0.00779531,0.00440771,0.00917323,1196,1730,-0.0398217,-0.0584302
-21,-706,-0.0206299,0.0628662,0.000694972,-0.0049748,0.0008725,0.0008262,-0.00510603,0.149286,0.00371021,0.00899305,1203,1730,-0.0206805,-0.0628611
-14,-706,-0.0245361,0.0430908,-0.000119222,-0.00368778,0.00137324,0.000348042,-0.00415504,0.327975,0.00289303,0.00875662,1210,1730,-0.0245111,-0.043079
-7,-706,-0.0394287,0.0422363,-0.000449939,-0.00229559,0.00158766,0.00046361,-0.00320914,0.522139,0.00230953,0.00733618,1217,1730,-0.0394317,-0.0422534
0,-706,-0.0303955,0.0543213,-0.000637722,-0.000824122,0.00165143,0.00092314,-0.00238498,0.75721,0.00197113,0.0108434,1224,1730,-0.0304493,-0.0543393
7,-706,-0.0168457,0.0574951,-0.000690852,0.000412109,0.00144918,0.0014112,-0.00168994,0.96721,0.00179285,0.013256,1231,1730,-0.0168925,-0.0575108
14,-706,-0.0311279,0.057373,-0.000699365,0.00138911,0.00132533,0.00203216,-0.00134241,1.11906,0.00196183,0.0136061,1238,1730,-0.0310884,-0.0573959
21,-706,-0.0281982,0.0406494,-0.000335862,0.00230013,0.0010261,0.00265246,-0.000688195,1.24004,0.00203683,0.0113746,1245,1730,-0.0282264,-0.0406703
28,-706,-0.0244141,0.0383301,0.0003412,0.00275002,0.000622383,0.00290132,0.000189894,1.33232,0.00187413,0.0115379,1252,1730,-0.0244703,-0.0383175
35,-706,-0.0358887,0.0581055,0.000867001,0.00301642,0.000439238,0.00310272,0.000780706,1.3768,0.00186358,0.0135275,1259,1730,-0.0358823,-0.0581017
42,-706,-0.032959,0.0782471,0.00141521,0.00280224,0.00039399,0.00290634,0.00131111,1.31248,0.00168065,0.0119228,1266,1730,-0.033015,-0.0782778
49,-706,-0.00976563,0.0695801,0.00234725,0.00245599,0.000324395,0.00273054,0.0020727,0.868422,0.00164551,0.0133472,1273,1730,-0.00971704,-0.06961
56,-706,-0.0142822,0.0565186,0.00346179,0.00253427,0.000568663,0.00373183,0.00226424,0.443329,0.00217087,0.0126423,1280,1730,-0.0142419,-0.056509
63,-706,-0.0328369,0.0594482,0.00409501,0.00214727,0.000857974,0.00441904,0.00182324,0.361107,0.0025643,0.0108008,1287,1730,-0.032868,-0.0594945
70,-706,-0.0446777,0.0432129,0.00447044,0.00176108,0.00126286,0.00496778,0.00126374,0.375167,0.00298127,0.0114164,1294,1730,-0.0446408,-0.0431948
77,-706,-0.0411377,0.0483398,0.00469354,0.00330258,0.00234185,0.00644101,0.00155512,0.641057,0.00388092,0.00981108,1301,1730,-0.0411605,-0.0483295
84,-706,-0.0518799,0.053833,0.00533991,0.00404091,0.002638,0.00740719,0.00197363,0.664695,0.00442933,0.00854664,1308,1730,-0.0518253,-0.0537794
91,-706,-0.0178223,0.0839844,0.00551756,0.00466613,0.00313896,0.00825954,0.00192415,0.717998,0.00499021,0.00965468,1315,1730,-0.017869,-0.0840241
98,-706,-0.00512695,0.0887451,0.0057144,0.00769255,0.00282118,0.00969301,0.00371394,0.953997,0.00564697,0.0122762,1322,1730,-0.00517067,-0.0887242
105,-706,-0.0118408,0.0811768,0.00569629,0.0097973,0.00263233,0.0110835,0.00441007,1.11629,0.0064434,0.0144483,1329,1730,-0.0118965,-0.0811482
112,-706,-0.0446777,0.0593262,0.00542425,0.0122487,0.002126,0.0128569,0.00481614,1.2922,0.00750033,0.0140721,1336,1730,-0.0446597,-0.0592898
119,-706,-0.0582275,0.081665,0.00537519,0.0145881,0.00127818,0.0147621,0.00520115,1.43546,0.00864594,0.0115789,1343,1730,-0.058287,-0.0816162
126,-706,-0.0494385,0.0965576,0.00517503,0.0165079,0.000349363,0.0165187,0.00516427,1.54001,0.00975773,0.0124668,1350,1730,-0.0493807,-0.0965145
133,-706,-0.0290527,0.0703125,0.00490887,0.0178055,-0.000572812,0.0178309,0.00488348,-1.5265,0.0106398,0.0105568,1357,1730,-0.0289965,-0.070299
140,-706,-0.0230713,0.050293,0.00458602,0.0183264,-0.0016657,0.0185254,0.00438697,-1.45186,0.0111787,0.0111907,1364,1730,-0.0231026,-0.0502533
147,-706,-0.0161133,0.0509033,0.00409832,0.0179529,-0.00235882,0.0183435,0.00370773,-1.4067,0.0111995,0.0216414,1371,1730,-0.0161486,-0.0509558
154,-706,-0.0159912,0.0617676,0.00285983,0.0168646,-0.00244923,0.0172806,0.00244385,-1.40256,0.0107983,0.0205227,1378,1730,-0.0159433,-0.0618199
161,-706,-0.0367432,0.0568848,0.00141105,0.01486,-0.00263438,0.0153576,0.000913438,-1.3841,0.00994793,0.0104623,1385,1730,-0.0367032,-0.0568953
168,-706,-0.0383301,0.0493164,0.000571784,0.0128456,-0.00253001,0.0133467,7.07256e-05,-1.37528,0.0088743,0.00950247,1392,1730,-0.0382917,-0.0493278
175,-706,-0.0368652,0.0561523,-2.71776e-05,0.0104155,-0.00223938,0.0108755,-0.000487141,-1.36822,0.00741805,0.00950269,1399,1730,-0.0368097,-0.0561872
182,-706,-0.0289307,0.0522461,-0.00046019,0.00675645,-0.00238122,0.00747134,-0.00117509,-1.27914,0.00541526,0.0105843,1406,1730,-0.028909,-0.0522817
189,-706,-0.0238037,0.0378418,-0.000517331,0.00504698,-0.00172173,0.00553663,-0.00100699,-1.29371,0.00406851,0.0137982,1413,1730,-0.023773,-0.0378905
196,-706,-0.0374756,0.0412598,-0.000626429,0.00361117,-0.00111082,0.00388469,-0.000899956,-1.32936,0.00293612,0.0111856,1420,1730,-0.0374482,-0.04132
203,-706,-0.0449219,0.0545654,-0.000915202,0.00124998,-0.000159676,0.00126169,-0.000926914,-1.49758,0.00126851,0.0116077,1427,1730,-0.0449357,-0.0546017
210,-706,-0.0480957,0.0439453,-0.000536073,0.000898554,0.000116678,0.000907981,-0.000545501,1.49017,0.000847822,0.0115512,1434,1730,-0.0481552,-0.0439298
217,-706,-0.0574951,0.0373535,6.43519e-05,0.000773546,0.000326887,0.000901229,-6.33312e-05,1.19842,0.000623003,0.0123624,1441,1730,-0.0574492,-0.0372925
224,-706,-0.0565186,0.0561523,0.000390141,0.000917831,0.000389315,0.00112428,0.000183688,1.0832,0.000696416,0.0171148,1448,1730,-0.0564966,-0.0561936
231,-706,-0.0389404,0.0576172,0.00059051,0.00106536,0.00041281,0.00130416,0.000351719,1.04637,0.000779125,0.0128614,1455,1730,-0.0388854,-0.0575808
238,-706,-0.0369873,0.0539551,0.000554124,0.00126643,0.00032593,0.00139306,0.000427498,1.20024,0.000824038,0.00826903,1462,1730,-0.0369778,-0.0539585
245,-706,-0.0356445,0.0533447,0.000579836,0.00152012,4.55886e-05,0.00152232,0.000577631,1.52246,0.000887389,0.0104326,1469,1730,-0.0356102,-0.0533659
252,-706,-0.0286865,0.0496826,0.000360038,0.00161696,-0.000483042,0.00178115,0.00019585,-1.24314,0.00112783,0.0108205,1476,1730,-0.0286865,-0.0496367
259,-706,-0.0231934,0.057373,-0.000190028,0.00167757,-0.00121621,0.00227712,-0.000789579,-1.11279,0.00183868,0.0113347,1483,1730,-0.0231693,-0.0573907
266,-706,-0.0321045,0.0595703,-0.00072208,0.00176756,-0.00206085,0.00293037,-0.00188489,-1.05709,0.00280185,0.0110474,1490,1730,-0.0321208,-0.0595912
273,-706,-0.0405273,0.069458,-0.00119244,0.00178113,-0.00298578,0.00362983,-0.00304113,-1.0164,0.00385648,0.0109851,1497,1730,-0.0405583,-0.0694117
280,-706,-0.0302734,0.0810547,-0.00175284,0.00174684,-0.00397578,0.00434082,-0.00434682,-0.992704,0.00501581,0.0097236,1504,1730,-0.0302318,-0.0810907
287,-706,-0.0477295,0.05896,-0.00221421,0.00166525,-0.00499968,0.00508829,-0.00563726,-0.970445,0.0061951,0.0103624,1511,1730,-0.0476865,-0.0589526
294,-706,-0.0375977,0.0634766,-0.00274884,0.00151673,-0.00603877,0.00578829,-0.00702039,-0.955152,0.00740649,0.00995348,1518,1730,-0.0376402,-0.0634549
301,-706,-0.0229492,0.0722656,-0.0031357,0.00153948,-0.00691904,0.00650514,-0.00810136,-0.948303,0.00844984,0.00980644,1525,1730,-0.0229576,-0.0722667
308,-706,-0.0212402,0.0554199,-0.00340485,0.00213401,-0.0077941,0.00763608,-0.00890692,-0.956103,0.00956049,0.0122026,1532,1730,-0.0211901,-0.0554782
315,-706,-0.0146484,0.0511475,-0.00343964,0.00290026,-0.00846849,0.00877265,-0.00931203,-0.964487,0.0104427,0.0184087,1539,1730,-0.0146419,-0.0512057
322,-706,-0.0249023,0.072876,-0.00329875,0.00401166,-0.00862835,0.0097271,-0.00901418,-0.985752,0.0108229,0.0179826,1546,1730,-0.0249265,-0.0728286
329,-706,-0.0487061,0.0594482,-0.0034639,0.00557122,-0.00834268,0.0105409,-0.00843363,-1.03355,0.0109775,0.0152597,1553,1730,-0.0486535,-0.0594682
336,-706,-0.0332031,0.0577393,-0.00395634,0.00724487,-0.00763923,0.0111166,-0.00782805,-1.10171,0.0109925,0.0205532,1560,1730,-0.0332491,-0.057746
343,-706,-0.0964355,0.0386963,-0.00345095,0.00894187,-0.00669179,0.0118655,-0.0063746,-1.15889,0.0106888,0.0303395,1567,1730,-0.0964437,-0.038649
350,-706,-0.0627441,0.140625,-0.00245538,0.0109805,-0.00570313,0.0130748,-0.00454973,-1.21886,0.0105649,0.0370557,1574,1730,-0.0627927,-0.140606
357,-706,-0.258789,-0.0860596,0,0,0,0,0,0,0,-1,1581,1730,-0.258749,0.0860627
364,-706,-0.159546,-0.252075,-0.0015229,0.0143818,-0.00274732,0.014843,-0.00198408,-1.40448,0.0106187,0.0444534,1588,1730,-0.159518,0.252125
371,-706,0.0297852,-0.390747,-0.00179099,0.0153213,-0.00109171,0.0153907,-0.00186036,-1.50734,0.0109335,0.0463818,1595,1730,0.0297354,0.390734
378,-706,-0.0966797,-0.523804,-0.00179986,0.0155917,0.000215241,0.0155943,-0.00180252,1.55842,0.0110462,0.0426218,1602,1730,-0.0966755,0.52386
385,-706,-0.386719,-0.42627,-0.00173359,0.0153267,0.00110441,0.0153979,-0.00180479,1.50642,0.0109167,0.0419595,1609,1730,-0.386746,0.426279
392,-706,-0.486328,-0.40625,-0.00189479,0.0143823,0.00197298,0.014618,-0.00213053,1.45188,0.0105276,0.0432846,1616,1730,-0.486318,0.406309
399,-706,0.875854,-0.372925,-0.00221315,0.0129816,0.00234003,0.0133338,-0.00256536,1.4214,0.00985623,0.0464596,1623,1730,0.875861,0.372959
406,-706,0.428345,0.221558,0,0,0,0,0,0,0,-1,1630,1730,0.428322,-0.221528
413,-706,0.277588,0.546997,-0.00488184,0.00724447,0.000609823,0.00727506,-0.00491244,1.52068,0.00708039,0.0410356,1637,1730,0.277586,-0.547049
420,-706,-0.245483,0.662842,-0.00777624,0.00479564,-0.00155182,0.00498435,-0.00796496,-1.44978,0.00754202,0.0405749,1644,1730,-0.245427,-0.66288
427,-706,0,0,0,0,0,0,0,0,0,-1,1651,1730,0,0
434,-706,0,0,0,0,0,0,0,0,0,-1,1658,1730,0,0
441,-706,0,0,0,0,0,0,0,0,0,-1,1665,1730,0,0
448,-706,0,0,0,0,0,0,0,0,0,-1,1672,1730,0,0
455,-706,0,0,0,0,0,0,0,0,0,-1,1679,1730,0,0
462,-706,0,0,0,0,0,0,0,0,0,-1,1686,1730,0,0
469,-706,0,0,0,0,0,0,0,0,0,-1,1693,1730,0,0
476,-706,0,0,0,0,0,0,0,0,0,-1,1700,1730,0,0
483,-706,0,0,0,0,0,0,0,0,0,-1,1707,1730,0,0
490,-706,0,0,0,0,0,0,0,0,0,-1,1714,1730,0,0
497,-706,0,0,0,0,0,0,0,0,0,-1,1721,1730,0,0
504,-706,0,0,0,0,0,0,0,0,0,-1,1728,1730,0,0
511,-706,0,0,0,0,0,0,0,0,0,-1,1735,1730,0,0
518,-706,0,0,0,0,0,0,0,0,0,-1,1742,1730,0,0
525,-706,0,0,0,0,0,0,0,0,0,-1,1749,1730,0,0
532,-706,0,0,0,0,0,0,0,0,0,-1,1756,1730,0,0
539,-706,0,0,0,0,0,0,0,0,0,-1,1763,1730,0,0
546,-706,0,0,0,0,0,0,0,0,0,-1,1770,1730,0,0
553,-706,0,0,0,0,0,0,0,0,0,-1,1777,1730,0,0
560,-706,0,0,0,0,0,0,0,0,0,-1,1784,1730,0,0
567,-706,0,0,0,0,0,0,0,0,0,-1,1791,1730,0,0
574,-706,0,0,0,0,0,0,0,0,0,-1,1798,1730,0,0
581,-706,0,0,0,0,0,0,0,0,0,-1,1805,1730,0,0
588,-706,0,0,0,0,0,0,0,0,0,-1,1812,1730,0,0
595,-706,0,0,0,0,0,0,0,0,0,-1,1819,1730,0,0
602,-706,0,0,0,0,0,0,0,0,0,-1,1826,1730,0,0
609,-706,0,0,0,0,0,0,0,0,0,-1,1833,1730,0,0
616,-706,0,0,0,0,0,0,0,0,0,-1,1840,1730,0,0
623,-706,0,0,0,0,0,0,0,0,0,-1,1847,1730,0,0
630,-706,0,0,0,0,0,0,0,0,0,-1,1854,1730,0,0
637,-706,0,0,0,0,0,0,0,0,0,-1,1861,1730,0,0
644,-706,0,0,0,0,0,0,0,0,0,-1,1868,1730,0,0
651,-706,0,0,0,0,0,0,0,0,0,-1,1875,1730,0,0
658,-706,0,0,0,0,0,0,0,0,0,-1,1882,1730,0,0
665,-706,0,0,0,0,0,0,0,0,0,-1,1889,1730,0,0
672,-706,0,0,0,0,0,0,0,0,0,-1,1896,1730,0,0
679,-706,0,0,0,0,0,0,0,0,0,-1,1903,1730,0,0
686,-706,0,0,0,0,0,0,0,0,0,-1,1910,1730,0,0
693,-706,0,0,0,0,0,0,0,0,0,-1,1917,1730,0,0
700,-706,0,0,0,0,0,0,0,0,0,-1,1924,1730,0,0
707,-706,0,0,0,0,0,0,0,0,0,-1,1931,1730,0,0
714,-706,0,0,0,0,0,0,0,0,0,-1,1938,1730,0,0
721,-706,0,0,0,0,0,0,0,0,0,-1,1945,1730,0,0
728,-706,0,0,0,0,0,0,0,0,0,-1,1952,1730,0,0
735,-706,0,0,0,0,0,0,0,0,0,-1,1959,1730,0,0
742,-706,0,0,0,0,0,0,0,0,0,-1,1966,1730,0,0
749,-706,0,0,0,0,0,0,0,0,0,-1,1973,1730,0,0
756,-706,0,0,0,0,0,0,0,0,0,-1,1980,1730,0,0
763,-706,0,0,0,0,0,0,0,0,0,-1,1987,1730,0,0
770,-706,0,0,0,0,0,0,0,0,0,-1,1994,1730,0,0
777,-706,0,0,0,0,0,0,0,0,0,-1,2001,1730,0,0
784,-706,0,0,0,0,0,0,0,0,0,-1,2008,1730,0,0
791,-706,0,0,0,0,0,0,0,0,0,-1,2015,1730,0,0
798,-706,0,0,0,0,0,0,0,0,0,-1,2022,1730,0,0
805,-706,0,0,0,0,0,0,0,0,0,-1,2029,1730,0,0
812,-706,0,0,0,0,0,0,0,0,0,-1,2036,1730,0,0
-700,-713,0,0,0,0,0,0,0,0,0,-1,524,1737,0,0
-693,-713,0,0,0,0,0,0,0,0,0,-1,531,1737,0,0
-686,-713,0,0,0,0,0,0,0,0,0,-1,538,1737,0,0
-679,-713,0,0,0,0,0,0,0,0,0,-1,545,1737,0,0
-672,-713,0,0,0,0,0,0,0,0,0,-1,552,1737,0,0
-665,-713,0,0,0,0,0,0,0,0,0,-1,559,1737,0,0
-658,-713,0,0,0,0,0,0,0,0,0,-1,566,1737,0,0
-651,-713,0,0,0,0,0,0,0,0,0,-1,573,1737,0,0
-644,-713,0,0,0,0,0,0,0,0,0,-1,580,1737,0,0
-637,-713,0,0,0,0,0,0,0,0,0,-1,587,1737,0,0
-630,-713,0,0,0,0,0,0,0,0,0,-1,594,1737,0,0
-623,-713,0,0,0,0,0,0,0,0,0,-1,601,1737,0,0
-616,-713,0,0,0,0,0,0,0,0,0,-1,608,1737,0,0
-609,-713,0,0,0,0,0,0,0,0,0,-1,615,1737,0,0
-602,-713,0,0,0,0,0,0,0,0,0,-1,622,1737,0,0
-595,-713,0,0,0,0,0,0,0,0,0,-1,629,1737,0,0
-588,-713,0,0,0,0,0,0,0,0,0,-1,636,1737,0,0
-581,-713,0,0,0,0,0,0,0,0,0,-1,643,1737,0,0
-574,-713,0,0,0,0,0,0,0,0,0,-1,650,1737,0,0
-567,-713,0,0,0,0,0,0,0,0,0,-1,657,1737,0,0
-560,-713,0,0,0,0,0,0,0,0,0,-1,664,1737,0,0
-553,-713,0,0,0,0,0,0,0,0,0,-1,671,1737,0,0
-546,-713,0,0,0,0,0,0,0,0,0,-1,678,1737,0,0
-539,-713,0,0,0,0,0,0,0,0,0,-1,685,1737,0,0
-532,-713,0,0,0,0,0,0,0,0,0,-1,692,1737,0,0
-525,-713,0,0,0,0,0,0,0,0,0,-1,699,1737,0,0
-518,-713,0,0,0,0,0,0,0,0,0,-1,706,1737,0,0
-511,-713,0,0,0,0,0,0,0,0,0,-1,713,1737,0,0
-504,-713,0,0,0,0,0,0,0,0,0,-1,720,1737,0,0
-497,-713,0,0,0,0,0,0,0,0,0,-1,727,1737,0,0
-490,-713,0,0,0,0,0,0,0,0,0,-1,734,1737,0,0
-483,-713,0,0,0,0,0,0,0,0,0,-1,741,1737,0,0
-476,-713,0,0,0,0,0,0,0,0,0,-1,748,1737,0,0
-469,-713,0,0,0,0,0,0,0,0,0,-1,755,1737,0,0
-462,-713,0,0,0,0,0,0,0,0,0,-1,762,1737,0,0
-455,-713,0,0,0,0,0,0,0,0,0,-1,769,1737,0,0
-448,-713,0,0,0,0,0,0,0,0,0,-1,776,1737,0,0
-441,-713,0,0,0,0,0,0,0,0,0,-1,783,1737,0,0
-434,-713,0,0,0,0,0,0,0,0,0,-1,790,1737,0,0
-427,-713,0,0,0,0,0,0,0,0,0,-1,797,1737,0,0
-420,-713,0,0,0,0,0,0,0,0,0,-1,804,1737,0,0
-413,-713,0,0,0,0,0,0,0,0,0,-1,811,1737,0,0
-406,-713,0,0,0,0,0,0,0,0,0,-1,818,1737,0,0
-399,-713,0,0,0,0,0,0,0,0,0,-1,825,1737,0,0
-392,-713,0,0,0,0,0,0,0,0,0,-1,832,1737,0,0
-385,-713,0,0,0,0,0,0,0,0,0,-1,839,1737,0,0
-378,-713,0,0,0,0,0,0,0,0,0,-1,846,1737,0,0
-371,-713,0,0,0,0,0,0,0,0,0,-1,853,1737,0,0
-364,-713,0,0,0,0,0,0,0,0,0,-1,860,1737,0,0
-357,-713,0,0,0,0,0,0,0,0,0,-1,867,1737,0,0
-350,-713,0,0,0,0,0,0,0,0,0,-1,874,1737,0,0
-343,-713,0,0,0,0,0,0,0,0,0,-1,881,1737,0,0
-336,-713,0,0,0,0,0,0,0,0,0,-1,888,1737,0,0
-329,-713,0,0,0,0,0,0,0,0,0,-1,895,1737,0,0
-322,-713,0,0,0,0,0,0,0,0,0,-1,902,1737,0,0
-315,-713,0,0,0,0,0,0,0,0,0,-1,909,1737,0,0
-308,-713,0,0,0,0,0,0,0,0,0,-1,916,1737,0,0
-301,-713,0,0,0,0,0,0,0,0,0,-1,923,1737,0,0
-294,-713,-0.00823975,0.925537,0,0,0,0,0,0,0,-1,930,1737,-0.00826804,-0.925535
-287,-713,-0.496277,-1.52966,0,0,0,0,0,0,0,-1,937,1737,-0.496264,1.52962
-280,-713,-0.548828,-0.782104,0.0194105,-0.0162214,-0.00158284,0.0194807,-0.0162916,-0.0443056,0.0206805,0.0490392,944,1737,-0.548825,0.782068
-273,-713,-0.557739,0.00854492,0.0148029,-0.013732,0.00104102,0.0148408,-0.01377,0.0364178,0.0165223,0.0450929,951,1737,-0.557718,-0.00853479
-266,-713,-0.277283,0.610596,0,0,0,0,0,0,0,-1,958,1737,-0.277299,-0.610569
-259,-713,0.56958,-0.0756836,0,0,0,0,0,0,0,-1,965,1737,0.569553,0.0757426
-252,-713,0.249573,-0.26123,0.00107959,-0.00902852,0.00352705,0.00218862,-0.0101376,0.304646,0.00759377,0.048902,972,1737,0.249554,0.261185
-245,-713,-0.0657959,-0.507324,-0.00165775,-0.008697,0.0042234,0.000320343,-0.0106751,0.43802,0.00722588,0.046522,979,1737,-0.0658014,0.507343
-238,-713,-0.215637,-0.319458,-0.00437328,-0.00781102,0.00271754,-0.00287664,-0.00930767,0.503407,0.00550284,0.0449594,986,1737,-0.215654,0.319431
-231,-713,-0.297791,-0.103149,-0.00646111,-0.0062543,0.00184448,-0.00451033,-0.00820508,0.8134,0.004745,0.0432308,993,1737,-0.297794,0.103198
-224,-713,-0.130005,0.133911,-0.0071376,-0.00520922,0.00123072,-0.00460997,-0.00773685,1.11768,0.00449415,0.0449,1000,1737,-0.12999,-0.133964
-217,-713,0.0769043,0.379272,-0.00702313,-0.00304971,0.000753751,-0.00291153,-0.00716131,1.38949,0.00415858,0.0480455,1007,1737,0.076926,-0.379224
-210,-713,0.762695,-0.266602,-0.00664677,-0.000401865,0.00100657,-0.000243634,-0.006805,1.41487,0.00445768,0.0464717,1014,1737,0.762674,0.266585
-203,-713,0.357239,-0.10022,-0.00586163,0.0015899,0.00179225,0.00199857,-0.00627029,1.34661,0.00498185,0.0422888,1021,1737,0.357236,0.100178
-196,-713,0.174438,0.020874,-0.00488847,0.00385415,0.00135448,0.00405919,-0.00509351,1.42056,0.00529555,0.040315,1028,1737,0.174492,-0.0208917
-189,-713,0.0618896,0.0661621,-0.004187,0.00502611,0.00122531,0.00518629,-0.00434718,1.44081,0.00551125,0.0358845,1035,1737,0.0618724,-0.0662047
-182,-713,-0.0541992,0.0836182,-0.0034711,0.00541221,0.00104951,0.00553452,-0.00359341,1.45478,0.00530959,0.022957,1042,1737,-0.0542414,-0.0836395
-175,-713,-0.0166016,0.0732422,-0.00298922,0.00511834,0.000704494,0.0051791,-0.00304998,1.48476,0.00480377,0.019205,1049,1737,-0.0166123,-0.0732952
-168,-713,0.000732422,0.0622559,-0.00266163,0.00465275,0.000263024,0.00466219,-0.00267108,1.5349,0.00428557,0.0227371,1056,1737,0.000735392,-0.0622543
-161,-713,-0.0101318,0.0655518,-0.00219434,0.00365999,-0.000349894,0.00368083,-0.00221518,-1.51131,0.00343894,0.0118374,1063,1737,-0.0101073,-0.0655458
-154,-713,-0.0177002,0.0357666,-0.00152429,0.0019646,-0.00110008,0.0022825,-0.00184219,-1.28948,0.00238591,0.0106516,1070,1737,-0.0177366,-0.0357991
-147,-713,-0.0441895,0.015625,-0.000875414,0.000654066,-0.0017731,0.00182032,-0.00204166,-0.988995,0.00223094,0.0175345,1077,1737,-0.0442211,-0.0155715
-140,-713,-0.0512695,0.0371094,-0.000627975,-0.000681031,-0.00230247,0.00164812,-0.00295712,-0.779638,0.0026944,0.016205,1084,1737,-0.051284,-0.0371101
-133,-713,-0.0483398,0.0495605,-0.000120577,-0.00189021,-0.00266381,0.00180153,-0.00381231,-0.625051,0.00330973,0.00984052,1091,1737,-0.0483708,-0.0496068
-126,-713,-0.0303955,0.0391846,-6.27376e-05,-0.00289415,-0.00304737,0.00188171,-0.0048386,-0.567947,0.00400321,0.01562,1098,1737,-0.0304381,-0.0391547
-119,-713,-0.000244141,0.0395508,-0.000469235,-0.00372219,-0.00331861,0.00160005,-0.00579147,-0.557547,0.00449038,0.0247097,1105,1737,-0.000207602,-0.0396008
-112,-713,-0.029541,0.0795898,-0.000754653,-0.00428834,-0.00328162,0.00120553,-0.00624853,-0.538449,0.00462025,0.0131228,1112,1737,-0.029561,-0.0795703
-105,-713,-0.0228271,0.0795898,-0.000944721,-0.00456425,-0.00325457,0.000969423,-0.00647839,-0.531653,0.00467569,0.00988552,1119,1737,-0.0228581,-0.079548
-98,-713,0.0183105,0.0755615,-0.00107872,-0.00446853,-0.00297304,0.000648604,-0.00619585,-0.526329,0.00436287,0.00925722,1126,1737,0.0182803,-0.0756012
-91,-713,0.000732422,0.0673828,-0.00105643,-0.00434383,-0.00277387,0.000524165,-0.00592443,-0.51793,0.00413543,0.00978083,1133,1737,0.000716326,-0.0673798
-84,-713,-0.0286865,0.0632324,-0.000889123,-0.00435501,-0.00262201,0.000520863,-0.005765,-0.49339,0.0040282,0.0086902,1140,1737,-0.0287267,-0.0631857
-77,-713,-0.026001,0.0681152,-0.000737132,-0.00434591,-0.00239546,0.000457488,-0.00554053,-0.462608,0.00385524,0.0117176,1147,1737,-0.0259695,-0.0681147
-70,-713,-0.0415039,0.0717773,-0.000546218,-0.00456564,-0.00209963,0.000350507,-0.00546236,-0.403638,0.00376385,0.0137142,1154,1737,-0.041547,-0.0717289
-63,-713,-0.0491943,0.0635986,-0.000322561,-0.00460244,-0.00169064,0.000264697,-0.00518969,-0.33432,0.00355132,0.0118885,1161,1737,-0.0491705,-0.0635881
-56,-713,-0.0400391,0.0562744,-6.62795e-05,-0.00459156,-0.00125482,0.000258379,-0.00491622,-0.253177,0.00336691,0.0121523,1168,1737,-0.0400303,-0.0562195
-49,-713,-0.0465088,0.059082,0.000140025,-0.00457299,-0.000777906,0.000265103,-0.00469807,-0.159423,0.00322405,0.0146124,1175,1737,-0.0464627,-0.0590486
-42,-713,-0.026001,0.0438232,0.000307165,-0.00459815,-0.000350339,0.00033206,-0.00462304,-0.0709404,0.00319847,0.0168199,1182,1737,-0.0260041,-0.0437867
-35,-713,-0.0167236,0.0407715,0.000564435,-0.0043628,-5.48318e-05,0.000565045,-0.00436341,-0.0111265,0.00311442,0.013425,1189,1737,-0.0167698,-0.0407281
-28,-713,-0.0114746,0.0484619,0.000701287,-0.00402234,0.000267988,0.000716443,-0.0040375,0.0564919,0.00295953,0.010885,1196,1737,-0.0114755,-0.0484732
-21,-713,-0.0175781,0.0621338,0.00030462,-0.00357914,0.000808127,0.000466062,-0.00374058,0.197178,0.00266271,0.00781799,1203,1737,-0.0175482,-0.0621597
-14,-713,-0.0272217,0.0384521,-2.26474e-06,-0.00270319,0.00108791,0.000381431,-0.00308689,0.339069,0.00219614,0.00887071,1210,1737,-0.0272069,-0.0384498
-7,-713,-0.0338135,0.0355225,-0.00015288,-0.00171486,0.00116866,0.000471734,-0.00233947,0.49084,0.00173836,0.00816112,1217,1737,-0.0338179,-0.0355071
0,-713,-0.0266113,0.0407715,-0.000233687,-0.000630124,0.00115923,0.000744147,-0.00160796,0.700721,0.00138818,0.0127456,1224,1737,-0.0266059,-0.040739
7,-713,-0.00878906,0.0307617,-0.000185555,0.000331871,0.00090201,0.00101154,-0.000865221,0.925058,0.00108464,0.0165979,1231,1737,-0.0088369,-0.0307578
14,-713,-0.00805664,0.0339355,-0.000181783,0.00114563,0.000689307,0.00143882,-0.000474972,1.16864,0.00115069,0.0123447,1238,1737,-0.0080352,-0.0338793
21,-713,-0.0230713,0.0444336,2.3016e-05,0.00188968,0.00038725,0.00196683,-5.41326e-05,1.37415,0.00132963,0.0098642,1245,1737,-0.0230235,-0.0444617
28,-713,-0.0247803,0.0650635,0.000405234,0.00235071,5.48999e-05,0.00235226,0.000403686,1.54261,0.00145243,0.00989164,1252,1737,-0.0247963,-0.0650664
35,-713,-0.0423584,0.0687256,0.00068704,0.00274144,-4.91734e-05,0.00274261,0.000685864,-1.54688,0.00164807,0.0106486,1259,1737,-0.0423929,-0.0687379
42,-713,-0.0477295,0.0766602,0.000872946,0.00285873,-9.89056e-05,0.00286365,0.000868032,-1.52115,0.00169551,0.010529,1266,1737,-0.0477152,-0.0766881
49,-713,-0.0245361,0.0571289,0.00134215,0.00282672,-0.000147197,0.00284118,0.00132769,-1.47292,0.00164152,0.00929809,1273,1737,-0.0245458,-0.0570853
56,-713,-0.0134277,0.0389404,0.00198173,0.00306158,6.96726e-05,0.00306606,0.00197726,1.50663,0.00179479,0.0093717,1280,1737,-0.0134716,-0.0389746
63,-713,-0.0419922,0.0467529,0.00231957,0.00293448,0.000345788,0.00308973,0.00216432,1.14879,0.00183104,0.0109481,1287,1737,-0.0419878,-0.0467021
70,-713,-0.0500488,0.0377197,0.00255344,0.00287254,0.000745616,0.00347549,0.0019505,0.8908,0.00201158,0.011341,1294,1737,-0.0500715,-0.0377544
77,-713,-0.0385742,0.0401611,0.00273762,0.00419713,0.0016473,0.00526908,0.00166567,0.993907,0.00310992,0.0110717,1301,1737,-0.0386021,-0.0401158
84,-713,-0.0350342,0.0454102,0.00309291,0.00480731,0.00198989,0.00611678,0.00178344,0.988776,0.00363237,0.0115427,1308,1737,-0.0350279,-0.0454261
91,-713,-0.0206299,0.0734863,0.00328374,0.00529692,0.00240946,0.0069016,0.00167906,0.983262,0.00415602,0.0116361,1315,1737,-0.0205813,-0.0734473
98,-713,-0.0262451,0.0771484,0.00361337,0.00748799,0.00222616,0.00850177,0.00259958,1.14346,0.00503044,0.0106636,1322,1737,-0.0262234,-0.0771909
105,-713,-0.0393066,0.0670166,0.00368557,0.00896834,0.00213858,0.00972555,0.00292836,1.2305,0.00576124,0.0120365,1329,1737,-0.0393624,-0.0669926
112,-713,-0.0385742,0.071167,0.00353357,0.0103696,0.00186315,0.0108445,0.00305876,1.32126,0.00645627,0.0121966,1336,1737,-0.0385791,-0.0711629
119,-713,-0.0310059,0.105591,0.0035742,0.0117423,0.00128782,0.0119405,0.00337597,1.41807,0.00710749,0.012354,1343,1737,-0.0310218,-0.105647
126,-713,-0.0402832,0.115845,0.00350455,0.0126718,0.000646383,0.0127172,0.00345919,1.50075,0.00759242,0.0121118,1350,1737,-0.0402639,-0.1159
133,-713,-0.0588379,0.088501,0.00333785,0.013137,-1.0447e-05,0.013137,0.00333783,-1.56973,0.00788451,0.0112508,1357,1737,-0.0588424,-0.0885547
140,-713,-0.0532227,0.0722656,0.003088,0.0130714,-0.000818335,0.013138,0.00302136,-1.48955,0.0079454,0.0129959,1364,1737,-0.0532688,-0.0723169
147,-713,-0.0482178,0.0756836,0.00274119,0.012397,-0.00134171,0.0125799,0.00255822,-1.43526,0.0076773,0.0141689,1371,1737,-0.0482266,-0.0757259
154,-713,-0.0386963,0.0928955,0.00191411,0.0113372,-0.00147578,0.0115629,0.00168839,-1.41902,0.00721199,0.0138175,1378,1737,-0.0387447,-0.0929362
161,-713,-0.0473633,0.0767822,0.000936354,0.00973277,-0.00170172,0.0100505,0.000618624,-1.38621,0.00650394,0.00979093,1385,1737,-0.0473744,-0.076731
168,-713,-0.043457,0.0671387,0.00037214,0.00820605,-0.00171299,0.00856424,1.39503e-05,-1.36466,0.00570485,0.00891648,1392,1737,-0.0435016,-0.0671937
175,-713,-0.0102539,0.05896,-2.63258e-05,0.00644913,-0.00160595,0.00682553,-0.00040273,-1.34057,0.00469036,0.0119562,1399,1737,-0.0102327,-0.0589973
182,-713,-0.0181885,0.0517578,-0.000294177,0.00401593,-0.00177433,0.00465238,-0.000930629,-1.22639,0.00345384,0.0113686,1406,1737,-0.0182431,-0.051806
189,-713,-0.0291748,0.0257568,-0.000321354,0.00305637,-0.00133622,0.00352105,-0.000786031,-1.23612,0.00264854,0.0106282,1413,1737,-0.0291719,-0.0257954
196,-713,-0.0344238,0.039917,-0.000420637,0.00229252,-0.000902387,0.00256524,-0.000693355,-1.27731,0.00198212,0.0110506,1420,1737,-0.0343802,-0.039931
203,-713,-0.0437012,0.0655518,-0.000643852,0.000803617,-0.00022891,0.000838956,-0.000679191,-1.41763,0.000878118,0.0139241,1427,1737,-0.0437514,-0.0655964
210,-713,-0.045166,0.0544434,-0.000334376,0.000745296,-2.50214e-05,0.000745875,-0.000334956,-1.54764,0.000638874,0.012102,1434,1737,-0.0452241,-0.0545007
217,-713,-0.0477295,0.0490723,0.000137989,0.000993189,0.000150875,0.00101903,0.000112152,1.40119,0.000645224,0.0100672,1441,1737,-0.0477042,-0.0491076
224,-713,-0.0327148,0.0616455,0.000405282,0.00125789,0.000225609,0.00131391,0.000349264,1.32742,0.000785828,0.0109764,1448,1737,-0.0327641,-0.0616184
231,-713,-0.0305176,0.0718994,0.000608371,0.00152709,0.000241629,0.00158676,0.000548696,1.32868,0.000930527,0.0102885,1455,1737,-0.0305029,-0.0719042
238,-713,-0.024292,0.0483398,0.000485234,0.0017832,0.00014584,0.00179938,0.000469049,1.46027,0.00107782,0.0076067,1462,1737,-0.0242978,-0.048395
245,-713,-0.0157471,0.057251,0.000387527,0.00207362,-0.000252239,0.00211055,0.000350601,-1.42544,0.00130595,0.00971219,1469,1737,-0.0157832,-0.0573105
252,-713,-0.0194092,0.0524902,-1.35475e-05,0.00221245,-0.00090142,0.00253169,-0.000332793,-1.23042,0.00180896,0.010756,1476,1737,-0.0194427,-0.0524528
259,-713,-0.0131836,0.0428467,-0.00084158,0.00229362,-0.00176811,0.00308898,-0.00163694,-1.14808,0.00277111,0.0111537,1483,1737,-0.0131881,-0.0428205
266,-713,-0.020752,0.0681152,-0.00163206,0.00243014,-0.00276614,0.00383079,-0.00303271,-1.10208,0.00397156,0.00986743,1490,1737,-0.020778,-0.0680798
273,-713,-0.0316162,0.0928955,-0.00230879,0.00245694,-0.00386539,0.00461492,-0.00446677,-1.06162,0.00524355,0.00865305,1497,1737,-0.031675,-0.0929512
280,-713,-0.0343018,0.085083,-0.00309739,0.00237417,-0.00498738,0.00532684,-0.00605006,-1.03626,0.00657288,0.00967206,1504,1737,-0.0342879,-0.0851256
287,-713,-0.0472412,0.0637207,-0.00379677,0.00221603,-0.00614547,0.00605106,-0.00763181,-1.01289,0.00791736,0.0104939,1511,1737,-0.0472834,-0.0637099
294,-713,-0.0168457,0.0805664,-0.00452699,0.00201283,-0.00738659,0.00682092,-0.00933508,-0.993774,0.00936524,0.0140409,1518,1737,-0.0168424,-0.0805534
301,-713,-0.00671387,0.0908203,-0.00505279,0.00197124,-0.0084686,0.00762718,-0.0107087,-0.981959,0.010636,0.0158565,1525,1737,-0.00671113,-0.0907793
308,-713,-0.0167236,0.0684814,-0.00538779,0.0025626,-0.0095789,0.0089584,-0.0117836,-0.982081,0.0120124,0.0175972,1532,1737,-0.016773,-0.0684954
315,-713,-0.0163574,0.0970459,-0.00543149,0.00334133,-0.0104529,0.0102909,-0.012381,-0.984057,0.0131082,0.0235638,1539,1737,-0.0163915,-0.0969964
322,-713,0.0161133,0.0666504,-0.0051875,0.00452961,-0.0107206,0.0114413,-0.0120991,-0.998153,0.0135928,0.0304666,1546,1737,0.0161628,-0.0666604
329,-713,0.0665283,0.0162354,-0.00521739,0.00631344,-0.0104369,0.0124715,-0.0113755,-1.03774,0.0137729,0.032753,1553,1737,0.0664699,-0.0162911
336,-713,0.0915527,-0.0396729,-0.00567328,0.00825572,-0.00957786,0.0131335,-0.0105511,-1.09975,0.0137014,0.0358514,1560,1737,0.0915654,0.0396241
343,-713,-0.180786,-0.420532,-0.00494569,0.0102579,-0.00844299,0.014017,-0.00870486,-1.15191,0.0132375,0.0417055,1567,1737,-0.180761,0.42048
350,-713,-0.057373,0.192993,0,0,0,0,0,0,0,-1,1574,1737,-0.0573983,-0.192939
357,-713,-0.180176,0.0639648,-0.00303233,0.0150899,-0.00561651,0.0166895,-0.00463184,-1.29335,0.0129494,0.0396251,1581,1737,-0.180145,-0.0640132
364,-713,-0.231201,-0.35022,-0.00274032,0.017166,-0.00357137,0.0177873,-0.00336166,-1.39854,0.0131231,0.0406613,1588,1737,-0.231249,0.350186
371,-713,-0.171753,-0.63208,-0.00333338,0.0186834,-0.00138947,0.0187707,-0.00342072,-1.50802,0.0137961,0.0445573,1595,1737,-0.171699,0.632103
378,-713,-0.163574,-0.578491,-0.00387009,0.0194706,0.000517422,0.0194821,-0.00388155,1.54864,0.0144567,0.0432795,1602,1737,-0.163596,0.578492
385,-713,-0.475342,-0.501831,-0.004395,0.0194816,0.00212651,0.0196696,-0.00458291,1.48266,0.0148778,0.0441551,1609,1737,-0.475382,0.501793
392,-713,-0.482422,-0.306885,-0.005253,0.0185948,0.00385707,0.0192031,-0.00586132,1.41437,0.0151389,0.0409662,1616,1737,-0.482397,0.306847
399,-713,1.21045,-0.498413,0,0,0,0,0,0,0,-1,1623,1737,1.2104,0.498357
406,-713,-0.205688,0.0216064,0,0,0,0,0,0,0,-1,1630,1737,-0.205664,-0.021643
413,-713,-0.0284424,0.400269,0,0,0,0,0,0,0,-1,1637,1737,-0.0283899,-0.40024
420,-713,0,0,0,0,0,0,0,0,0,-1,1644,1737,0,0
427,-713,0,0,0,0,0,0,0,0,0,-1,1651,1737,0,0
434,-713,0,0,0,0,0,0,0,0,0,-1,1658,1737,0,0
441,-713,0,0,0,0,0,0,0,0,0,-1,1665,1737,0,0
448,-713,0,0,0,0,0,0,0,0,0,-1,1672,1737,0,0
455,-713,0,0,0,0,0,0,0,0,0,-1,1679,1737,0,0
462,-713,0,0,0,0,0,0,0,0,0,-1,1686,1737,0,0
469,-713,0,0,0,0,0,0,0,0,0,-1,1693,1737,0,0
476,-713,0,0,0,0,0,0,0,0,0,-1,1700,1737,0,0
483,-713,0,0,0,0,0,0,0,0,0,-1,1707,1737,0,0
490,-713,0,0,0,0,0,0,0,0,0,-1,1714,1737,0,0
497,-713,0,0,0,0,0,0,0,0,0,-1,1721,1737,0,0
504,-713,0,0,0,0,0,0,0,0,0,-1,1728,1737,0,0
511,-713,0,0,0,0,0,0,0,0,0,-1,1735,1737,0,0
518,-713,0,0,0,0,0,0,0,0,0,-1,1742,1737,0,0
525,-713,0,0,0,0,0,0,0,0,0,-1,1749,1737,0,0
532,-713,0,0,0,0,0,0,0,0,0,-1,1756,1737,0,0
539,-713,0,0,0,0,0,0,0,0,0,-1,1763,1737,0,0
546,-713,0,0,0,0,0,0,0,0,0,-1,1770,1737,0,0
553,-713,0,0,0,0,0,0,0,0,0,-1,1777,1737,0,0
560,-713,0,0,0,0,0,0,0,0,0,-1,1784,1737,0,0
567,-713,0,0,0,0,0,0,0,0,0,-1,1791,1737,0,0
574,-713,0,0,0,0,0,0,0,0,0,-1,1798,1737,0,0
581,-713,0,0,0,0,0,0,0,0,0,-1,1805,1737,0,0
588,-713,0,0,0,0,0,0,0,0,0,-1,1812,1737,0,0
595,-713,0,0,0,0,0,0,0,0,0,-1,1819,1737,0,0
602,-713,0,0,0,0,0,0,0,0,0,-1,1826,1737,0,0
609,-713,0,0,0,0,0,0,0,0,0,-1,1833,1737,0,0
616,-713,0,0,0,0,0,0,0,0,0,-1,1840,1737,0,0
623,-713,0,0,0,0,0,0,0,0,0,-1,1847,1737,0,0
630,-713,0,0,0,0,0,0,0,0,0,-1,1854,1737,0,0
637,-713,0,0,0,0,0,0,0,0,0,-1,1861,1737,0,0
644,-713,0,0,0,0,0,0,0,0,0,-1,1868,1737,0,0
651,-713,0,0,0,0,0,0,0,0,0,-1,1875,1737,0,0
658,-713,0,0,0,0,0,0,0,0,0,-1,1882,1737,0,0
665,-713,0,0,0,0,0,0,0,0,0,-1,1889,1737,0,0
672,-713,0,0,0,0,0,0,0,0,0,-1,1896,1737,0,0
679,-713,0,0,0,0,0,0,0,0,0,-1,1903,1737,0,0
686,-713,0,0,0,0,0,0,0,0,0,-1,1910,1737,0,0
693,-713,0,0,0,0,0,0,0,0,0,-1,1917,1737,0,0
700,-713,0,0,0,0,0,0,0,0,0,-1,1924,1737,0,0
707,-713,0,0,0,0,0,0,0,0,0,-1,1931,1737,0,0
714,-713,0,0,0,0,0,0,0,0,0,-1,1938,1737,0,0
721,-713,0,0,0,0,0,0,0,0,0,-1,1945,1737,0,0
728,-713,0,0,0,0,0,0,0,0,0,-1,1952,1737,0,0
735,-713,0,0,0,0,0,0,0,0,0,-1,1959,1737,0,0
742,-713,0,0,0,0,0,0,0,0,0,-1,1966,1737,0,0
749,-713,0,0,0,0,0,0,0,0,0,-1,1973,1737,0,0
756,-713,0,0,0,0,0,0,0,0,0,-1,1980,1737,0,0
763,-713,0,0,0,0,0,0,0,0,0,-1,1987,1737,0,0
770,-713,0,0,0,0,0,0,0,0,0,-1,1994,1737,0,0
777,-713,0,0,0,0,0,0,0,0,0,-1,2001,1737,0,0
784,-713,0,0,0,0,0,0,0,0,0,-1,2008,1737,0,0
791,-713,0,0,0,0,0,0,0,0,0,-1,2015,1737,0,0
798,-713,0,0,0,0,0,0,0,0,0,-1,2022,1737,0,0
805,-713,0,0,0,0,0,0,0,0,0,-1,2029,1737,0,0
812,-713,0,0,0,0,0,0,0,0,0,-1,2036,1737,0,0
-700,-720,0,0,0,0,0,0,0,0,0,-1,524,1744,0,0
-693,-720,0,0,0,0,0,0,0,0,0,-1,531,1744,0,0
-686,-720,0,0,0,0,0,0,0,0,0,-1,538,1744,0,0
-679,-720,0,0,0,0,0,0,0,0,0,-1,545,1744,0,0
-672,-720,0,0,0,0,0,0,0,0,0,-1,552,1744,0,0
-665,-720,0,0,0,0,0,0,0,0,0,-1,559,1744,0,0
-658,-720,0,0,0,0,0,0,0,0,0,-1,566,1744,0,0
-651,-720,0,0,0,0,0,0,0,0,0,-1,573,1744,0,0
-644,-720,0,0,0,0,0,0,0,0,0,-1,580,1744,0,0
-637,-720,0,0,0,0,0,0,0,0,0,-1,587,1744,0,0
-630,-720,0,0,0,0,0,0,0,0,0,-1,594,1744,0,0
-623,-720,0,0,0,0,0,0,0,0,0,-1,601,1744,0,0
-616,-720,0,0,0,0,0,0,0,0,0,-1,608,1744,0,0
-609,-720,0,0,0,0,0,0,0,0,0,-1,615,1744,0,0
-602,-720,0,0,0,0,0,0,0,0,0,-1,622,1744,0,0
-595,-720,0,0,0,0,0,0,0,0,0,-1,629,1744,0,0
-588,-720,0,0,0,0,0,0,0,0,0,-1,636,1744,0,0
-581,-720,0,0,0,0,0,0,0,0,0,-1,643,1744,0,0
-574,-720,0,0,0,0,0,0,0,0,0,-1,650,1744,0,0
-567,-720,0,0,0,0,0,0,0,0,0,-1,657,1744,0,0
-560,-720,0,0,0,0,0,0,0,0,0,-1,664,1744,0,0
-553,-720,0,0,0,0,0,0,0,0,0,-1,671,1744,0,0
-546,-720,0,0,0,0,0,0,0,0,0,-1,678,1744,0,0
-539,-720,0,0,0,0,0,0,0,0,0,-1,685,1744,0,0
-532,-720,0,0,0,0,0,0,0,0,0,-1,692,1744,0,0
-525,-720,0,0,0,0,0,0,0,0,0,-1,699,1744,0,0
-518,-720,0,0,0,0,0,0,0,0,0,-1,706,1744,0,0
-511,-720,0,0,0,0,0,0,0,0,0,-1,713,1744,0,0
-504,-720,0,0,0,0,0,0,0,0,0,-1,720,1744,0,0
-497,-720,0,0,0,0,0,0,0,0,0,-1,727,1744,0,0
-490,-720,0,0,0,0,0,0,0,0,0,-1,734,1744,0,0
-483,-720,0,0,0,0,0,0,0,0,0,-1,741,1744,0,0
-476,-720,0,0,0,0,0,0,0,0,0,-1,748,1744,0,0
-469,-720,0,0,0,0,0,0,0,0,0,-1,755,1744,0,0
-462,-720,0,0,0,0,0,0,0,0,0,-1,762,1744,0,0
-455,-720,0,0,0,0,0,0,0,0,0,-1,769,1744,0,0
-448,-720,0,0,0,0,0,0,0,0,0,-1,776,1744,0,0
-441,-720,0,0,0,0,0,0,0,0,0,-1,783,1744,0,0
-434,-720,0,0,0,0,0,0,0,0,0,-1,790,1744,0,0
-427,-720,0,0,0,0,0,0,0,0,0,-1,797,1744,0,0
-420,-720,0,0,0,0,0,0,0,0,0,-1,804,1744,0,0
-413,-720,0,0,0,0,0,0,0,0,0,-1,811,1744,0,0
-406,-720,0,0,0,0,0,0,0,0,0,-1,818,1744,0,0
-399,-720,0,0,0,0,0,0,0,0,0,-1,825,1744,0,0
-392,-720,0,0,0,0,0,0,0,0,0,-1,832,1744,0,0
-385,-720,0,0,0,0,0,0,0,0,0,-1,839,1744,0,0
-378,-720,0,0,0,0,0,0,0,0,0,-1,846,1744,0,0
-371,-720,0,0,0,0,0,0,0,0,0,-1,853,1744,0,0
-364,-720,0,0,0,0,0,0,0,0,0,-1,860,1744,0,0
-357,-720,0,0,0,0,0,0,0,0,0,-1,867,1744,0,0
-350,-720,0,0,0,0,0,0,0,0,0,-1,874,1744,0,0
-343,-720,0,0,0,0,0,0,0,0,0,-1,881,1744,0,0
-336,-720,0,0,0,0,0,0,0,0,0,-1,888,1744,0,0
-329,-720,0,0,0,0,0,0,0,0,0,-1,895,1744,0,0
-322,-720,0,0,0,0,0,0,0,0,0,-1,902,1744,0,0
-315,-720,0,0,0,0,0,0,0,0,0,-1,909,1744,0,0
-308,-720,0,0,0,0,0,0,0,0,0,-1,916,1744,0,0
-301,-720,0,0,0,0,0,0,0,0,0,-1,923,1744,0,0
-294,-720,0,0,0,0,0,0,0,0,0,-1,930,1744,0,0
-287,-720,0,0,0,0,0,0,0,0,0,-1,937,1744,0,0
-280,-720,-0.359497,-0.934692,0.0155828,-0.0140464,-0.00599953,0.0167515,-0.0152151,-0.192394,0.018463,0.0460544,944,1744,-0.359477,0.934682
-273,-720,-0.371277,-0.0332031,0.0106094,-0.0122435,-0.00217383,0.0108144,-0.0124485,-0.0939993,0.0134418,0.0448229,951,1744,-0.371279,0.0332415
-266,-720,-0.703369,0.823486,0,0,0,0,0,0,0,-1,958,1744,-0.703355,-0.823479
-259,-720,-0.235168,-0.284424,0.000420843,-0.0101167,0.000656257,0.000461556,-0.0101575,0.0619586,0.00693061,0.0475455,965,1744,-0.235184,0.284469
-252,-720,-0.201843,-0.464722,-0.00347283,-0.00987907,0.00183651,-0.00298369,-0.0103682,0.260297,0.00616321,0.0476907,972,1744,-0.201815,0.464764
-245,-720,0.15094,-0.283203,-0.00598074,-0.00952317,0.00258369,-0.00461944,-0.0108845,0.484921,0.00630805,0.0455587,979,1744,0.150946,0.283253
-238,-720,0.0806274,-0.000366211,-0.00852244,-0.00839601,0.00146712,-0.00699074,-0.00992771,0.80693,0.00588889,0.0474357,986,1744,0.0806052,0.000362886
-231,-720,-0.083252,0.185425,-0.00987188,-0.00651238,0.00109816,-0.00618526,-0.010199,1.28129,0.00593272,0.0442433,993,1744,-0.0832349,-0.185385
-224,-720,0.233398,0.348022,-0.00996811,-0.00495321,0.00102502,-0.00475179,-0.0101695,1.37677,0.00587557,0.0466865,1000,1744,0.233376,-0.348041
-217,-720,3.05273,-0.0664063,0,0,0,0,0,0,0,-1,1007,1744,3.05272,0.0664603
-210,-720,0.549377,-0.293945,-0.00845122,0.000789661,0.00151981,0.0010332,-0.00869476,1.4119,0.00616981,0.0481003,1014,1744,0.549367,0.293894
-203,-720,0.361511,-0.0130615,-0.00720091,0.00330478,0.00243464,0.00384157,-0.0077377,1.35379,0.00681027,0.0450225,1021,1744,0.361537,0.0130035
-196,-720,0.339111,0.0202637,-0.00581194,0.00605056,0.00194988,0.00636285,-0.00612423,1.41199,0.00720986,0.0458775,1028,1744,0.339169,-0.0202473
-189,-720,0.296509,0.15686,-0.00477186,0.00756474,0.00173738,0.00780475,-0.00501187,1.43352,0.00745801,0.0425179,1035,1744,0.296468,-0.156903
-182,-720,-0.19104,0.141113,-0.00377266,0.00791615,0.00143134,0.00808887,-0.00394538,1.45071,0.00708393,0.0382312,1042,1744,-0.191027,-0.141057
-175,-720,-0.13269,0.152344,-0.00314162,0.00741007,0.000931686,0.00749171,-0.00322326,1.4834,0.0063478,0.0367885,1049,1744,-0.132685,-0.152366
-168,-720,-0.132813,0.169067,-0.00269721,0.00666788,0.000245779,0.00667433,-0.00270366,1.54458,0.00557381,0.0327375,1056,1744,-0.132758,-0.169067
-161,-720,-0.102905,0.0787354,-0.00212156,0.00518892,-0.000655187,0.00524717,-0.00217982,-1.48212,0.00440819,0.0231974,1063,1744,-0.102922,-0.0786747
-154,-720,-0.0102539,0.00219727,-0.00142478,0.00286802,-0.00172558,0.00347565,-0.0020324,-1.23223,0.00321626,0.0163724,1070,1744,-0.010239,-0.00223015
-147,-720,-0.0142822,0.0241699,-0.000824136,0.00105208,-0.00264273,0.00291827,-0.00269032,-0.955949,0.00323901,0.0157665,1077,1744,-0.0142385,-0.0242039
-140,-720,-0.0375977,0.0592041,-0.000668231,-0.000698681,-0.0033523,0.00266888,-0.0040358,-0.783127,0.00389767,0.0128911,1084,1744,-0.0375926,-0.0592557
-133,-720,-0.0584717,0.0576172,-0.000156871,-0.00221641,-0.00383536,0.00278456,-0.00515784,-0.654245,0.00465329,0.010329,1091,1744,-0.0585001,-0.0576727
-126,-720,-0.0360107,0.0628662,-0.000140834,-0.00342778,-0.00429405,0.0028135,-0.00638212,-0.602632,0.00544072,0.011378,1098,1744,-0.0359948,-0.062886
-119,-720,-0.0256348,0.0670166,-0.000695804,-0.00437718,-0.00460676,0.00242439,-0.00749737,-0.595334,0.00597271,0.0140391,1105,1744,-0.0255867,-0.0670493
-112,-720,-0.0394287,0.0578613,-0.00109064,-0.00495316,-0.00456438,0.00193424,-0.00797804,-0.585261,0.00606711,0.0133801,1112,1744,-0.0394722,-0.0578314
-105,-720,-0.0351563,0.0471191,-0.00133162,-0.00517467,-0.00452701,0.00166479,-0.00817108,-0.584693,0.00607879,0.0119217,1119,1744,-0.0351831,-0.0470986
-98,-720,-0.00463867,0.0771484,-0.00147273,-0.00495639,-0.00408386,0.00122524,-0.00765437,-0.583822,0.00555654,0.0093986,1126,1744,-0.00463769,-0.077094
-91,-720,-0.0170898,0.0631104,-0.00140769,-0.00455864,-0.00374641,0.00108104,-0.00704736,-0.586359,0.00509694,0.00891867,1133,1744,-0.0170881,-0.0631123
-84,-720,-0.0257568,0.0598145,-0.00121418,-0.0042378,-0.00347888,0.00106718,-0.00651916,-0.580424,0.00474203,0.00941033,1140,1744,-0.0257468,-0.0598174
-77,-720,-0.0235596,0.0749512,-0.00106648,-0.00392232,-0.00312354,0.000940053,-0.00592885,-0.571007,0.0043003,0.012176,1147,1744,-0.0235887,-0.0748972
-70,-720,-0.0285645,0.0689697,-0.000913025,-0.00383139,-0.00273084,0.000724028,-0.00546844,-0.54003,0.00390938,0.0108603,1154,1744,-0.0285348,-0.068944
-63,-720,-0.0532227,0.0654297,-0.00072649,-0.00370101,-0.00222467,0.000462272,-0.00488977,-0.490752,0.00342435,0.00997358,1161,1744,-0.0532398,-0.0654759
-56,-720,-0.0362549,0.0725098,-0.000486738,-0.00356554,-0.0016755,0.000249174,-0.00430145,-0.413853,0.0029542,0.012006,1168,1744,-0.036219,-0.0725441
-49,-720,-0.0404053,0.0645752,-0.000243021,-0.00344058,-0.0011332,0.000117851,-0.00380146,-0.3083,0.00257449,0.0185872,1175,1744,-0.0403451,-0.0646106
-42,-720,-0.0427246,0.0526123,-5.18046e-05,-0.00351012,-0.00067183,7.41234e-05,-0.00363604,-0.18529,0.00244911,0.020136,1182,1744,-0.0427326,-0.0525755
-35,-720,-0.0178223,0.0467529,0.000157305,-0.00344975,-0.000315736,0.000184733,-0.00347718,-0.0866548,0.00238208,0.0167289,1189,1744,-0.0178591,-0.0468074
-28,-720,-0.0290527,0.0462646,0.000236839,-0.00320791,2.4415e-05,0.000237012,-0.00320809,0.00708713,0.00222195,0.00977791,1196,1744,-0.0290095,-0.0462962
-21,-720,-0.0438232,0.0576172,0.000132887,-0.00294868,0.000481875,0.000206482,-0.00302227,0.151555,0.00208708,0.00804874,1203,1744,-0.0438213,-0.0576407
-14,-720,-0.052124,0.048584,0.000133068,-0.00243303,0.000736398,0.000329375,-0.00262934,0.26052,0.00187237,0.00951462,1210,1744,-0.0521131,-0.0485467
-7,-720,-0.0532227,0.0529785,0.000117741,-0.00186842,0.000877124,0.000449634,-0.00220032,0.361737,0.00163746,0.0104043,1217,1744,-0.0532025,-0.0529298
0,-720,-0.0338135,0.0628662,0.000148053,-0.0011803,0.000930782,0.000627329,-0.00165958,0.47551,0.00136445,0.0114784,1224,1744,-0.0337698,-0.0628065
7,-720,-0.0262451,0.0488281,0.000212078,-0.000624695,0.000749752,0.000652281,-0.0010649,0.530903,0.00100091,0.0144228,1231,1744,-0.0261851,-0.0487798
14,-720,-0.0113525,0.0290527,0.000196428,-0.000143523,0.000626777,0.000675869,-0.000622964,0.652988,0.000750089,0.0140685,1238,1744,-0.0113377,-0.0290566
21,-720,-0.0214844,0.0483398,0.000318711,0.000269135,0.0004239,0.000718547,-0.000130701,0.756194,0.000528019,0.0106437,1245,1744,-0.0215381,-0.0483175
28,-720,-0.0391846,0.072876,0.00054128,0.000555625,0.000152042,0.000700664,0.000396242,0.808968,0.000405684,0.0097617,1252,1744,-0.0392096,-0.0729053
35,-720,-0.041748,0.0587158,0.00074079,0.000880381,2.5603e-05,0.000884929,0.000736242,1.395,0.000547167,0.0107393,1259,1744,-0.041695,-0.0586688
42,-720,-0.0562744,0.0491943,0.000865219,0.00122056,-9.75762e-05,0.00124559,0.000840188,-1.31968,0.0007336,0.0110999,1266,1744,-0.0562436,-0.0492508
49,-720,-0.0367432,0.0457764,0.00111271,0.0014025,-0.000161339,0.00147446,0.00104075,-1.15128,0.000874997,0.00982441,1273,1744,-0.0367997,-0.0458099
56,-720,-0.0310059,0.0430908,0.00145593,0.00178896,-3.87016e-05,0.0017934,0.0014515,-1.45661,0.0010995,0.00839706,1280,1744,-0.0309521,-0.0431015
63,-720,-0.0480957,0.0446777,0.00162634,0.00196716,0.000125671,0.00200849,0.00158501,1.25309,0.00122253,0.0104762,1287,1744,-0.0480637,-0.0446918
70,-720,-0.041748,0.0373535,0.00183927,0.00229009,0.000384631,0.00251049,0.00161886,1.05045,0.00146956,0.0115271,1294,1744,-0.0417271,-0.0374115
77,-720,-0.0350342,0.039917,0.00206006,0.00349153,0.00104592,0.00404317,0.00150842,1.08546,0.00235926,0.0134069,1301,1744,-0.0349892,-0.0399166
84,-720,-0.0317383,0.0383301,0.00224463,0.00416677,0.00137942,0.0048869,0.00152449,1.08966,0.0028872,0.0138398,1308,1744,-0.0316836,-0.0383154
91,-720,-0.03125,0.0528564,0.00240666,0.00468248,0.00167988,0.00557357,0.00151557,1.08309,0.00332763,0.0129635,1315,1744,-0.0313017,-0.0528076
98,-720,-0.0465088,0.0645752,0.00275402,0.00627719,0.00162053,0.0069092,0.00212201,1.19894,0.00408676,0.0116333,1322,1744,-0.0464881,-0.0646206
105,-720,-0.0532227,0.0672607,0.00281631,0.00729107,0.00167327,0.00784756,0.00225983,1.24973,0.00466461,0.0109698,1329,1744,-0.0532512,-0.0672054
112,-720,-0.0423584,0.0759277,0.00273736,0.00812454,0.00158533,0.00855644,0.00230546,1.30481,0.00511214,0.0104314,1336,1744,-0.0423955,-0.0759388
119,-720,-0.0325928,0.0910645,0.00274823,0.00891832,0.00126961,0.00916935,0.00249719,1.37559,0.00547379,0.0101772,1343,1744,-0.0326021,-0.091055
126,-720,-0.0415039,0.0882568,0.0026186,0.00936656,0.000909439,0.00948698,0.00249819,1.43915,0.00567816,0.0104267,1350,1744,-0.0414649,-0.0882076
133,-720,-0.050293,0.0870361,0.00239456,0.00946809,0.0005004,0.00950331,0.00235933,1.50052,0.00571384,0.0121609,1357,1744,-0.0502558,-0.087093
140,-720,-0.0499268,0.103271,0.00202576,0.00923228,-1.49739e-05,0.00923231,0.00202573,-1.56872,0.00560305,0.0185577,1364,1744,-0.0499283,-0.103304
147,-720,-0.0450439,0.0983887,0.00163117,0.00856434,-0.000354064,0.00858237,0.00161314,-1.5199,0.00526687,0.0188682,1371,1744,-0.0450791,-0.0983414
154,-720,-0.0395508,0.0739746,0.00107617,0.0078641,-0.000533914,0.00790584,0.00103443,-1.49278,0.00496182,0.0123926,1378,1744,-0.0395819,-0.0739662
161,-720,-0.0390625,0.0634766,0.000406982,0.00682768,-0.000769798,0.00691869,0.000315978,-1.45312,0.00451082,0.00900671,1385,1744,-0.0390101,-0.0635333
168,-720,-0.0288086,0.0684814,-4.63202e-05,0.00582596,-0.000867453,0.00595142,-0.00017178,-1.42716,0.00402609,0.00899086,1392,1744,-0.0287975,-0.0685116
175,-720,-0.045166,0.0509033,-0.000376411,0.00472292,-0.000917684,0.00488304,-0.000536531,-1.39805,0.00344815,0.0143776,1399,1744,-0.0452098,-0.0508441
182,-720,-0.0343018,0.0623779,-0.000579889,0.00321172,-0.00112713,0.00352147,-0.000889645,-1.3026,0.00269362,0.0144854,1406,1744,-0.0343558,-0.062368
189,-720,-0.027832,0.0634766,-0.000589685,0.00267517,-0.000944086,0.00292851,-0.000843024,-1.30863,0.00228577,0.0114813,1413,1744,-0.0278534,-0.0634636
196,-720,-0.0372314,0.0435791,-0.000635731,0.00227306,-0.000680765,0.0024245,-0.00078717,-1.3519,0.00193291,0.0110334,1420,1744,-0.0371943,-0.0436257
203,-720,-0.0446777,0.0324707,-0.000796748,0.00133941,-0.000257835,0.00137009,-0.000827429,-1.45236,0.00128157,0.0126067,1427,1744,-0.0446949,-0.0324545
210,-720,-0.0384521,0.0566406,-0.000546427,0.00131822,-0.000108959,0.00132457,-0.000552773,-1.51263,0.001114,0.0116611,1434,1744,-0.0385038,-0.0566897
217,-720,-0.0449219,0.0678711,-0.000163452,0.00154,4.40284e-05,0.00154113,-0.000164589,1.54497,0.00108645,0.0116807,1441,1744,-0.0449674,-0.0678957
224,-720,-0.0412598,0.0574951,8.4611e-05,0.00177498,0.000118853,0.00178329,7.62951e-05,1.50094,0.00116426,0.00871761,1448,1744,-0.0412755,-0.0575269
231,-720,-0.0351563,0.0546875,0.000314369,0.00200286,0.000136191,0.00201377,0.000303455,1.49083,0.00125366,0.0090423,1455,1744,-0.0351271,-0.0547008
238,-720,-0.0389404,0.0423584,9.62208e-05,0.00225753,3.4262e-05,0.00225807,9.56777e-05,1.55495,0.00147452,0.00807454,1462,1744,-0.0388911,-0.0423094
245,-720,-0.0401611,0.0653076,-0.000161908,0.00257131,-0.000471837,0.00265047,-0.000241069,-1.40457,0.00185257,0.00961747,1469,1744,-0.0401398,-0.0652899
252,-720,-0.0335693,0.0671387,-0.000799693,0.00274826,-0.00121433,0.00312407,-0.00117551,-1.27066,0.00256593,0.0103196,1476,1744,-0.033523,-0.0670965
259,-720,-0.0307617,0.0423584,-0.0019545,0.00282986,-0.00219019,0.00368105,-0.00280569,-1.20012,0.00375647,0.00958568,1483,1744,-0.0308126,-0.042399
266,-720,-0.0324707,0.0511475,-0.00306257,0.00300266,-0.0033165,0.00446404,-0.00452395,-1.15576,0.00518925,0.00777523,1490,1744,-0.0325036,-0.0511732
273,-720,-0.03479,0.0682373,-0.00401765,0.00304964,-0.00454513,0.00527316,-0.00624117,-1.11582,0.00665562,0.010487,1497,1744,-0.0347494,-0.0682587
280,-720,-0.0411377,0.0692139,-0.00515936,0.00292844,-0.00578103,0.00593957,-0.00817049,-1.0906,0.00818032,0.0117441,1504,1744,-0.0411196,-0.0692145
287,-720,-0.0645752,0.0612793,-0.00619741,0.0027122,-0.0070695,0.00661341,-0.0100986,-1.06654,0.00971839,0.0191325,1511,1744,-0.0645233,-0.0612402
294,-720,0.00415039,0.0925293,-0.00721288,0.00246615,-0.00851208,0.00741829,-0.012165,-1.04388,0.0114166,0.0273185,1518,1744,0.00420579,-0.0925008
301,-720,0.178711,0.108032,-0.00791017,0.00233736,-0.0097823,0.00825653,-0.0138293,-1.02664,0.0128859,0.0305495,1525,1744,0.178666,-0.108013
308,-720,0.13147,0.0369873,-0.00827756,0.00284914,-0.0111367,0.00973477,-0.0151632,-1.01704,0.0144883,0.0316032,1532,1744,0.131528,-0.037026
315,-720,0.00463867,0.138916,-0.00828604,0.00355982,-0.0122491,0.0112428,-0.015969,-1.01059,0.0157896,0.0377064,1539,1744,0.00469904,-0.138966
322,-720,0.223999,-0.170776,-0.00786707,0.00473211,-0.0126653,0.012578,-0.015713,-1.01618,0.0163672,0.0430948,1546,1744,0.22401,0.170814
329,-720,0.230103,-0.172363,-0.00764955,0.00667218,-0.0124222,0.0138497,-0.0148271,-1.04686,0.0165598,0.0426595,1553,1744,0.230146,0.172361
336,-720,0.25415,-0.200317,-0.00794985,0.00884889,-0.011392,0.0146032,-0.0137042,-1.10306,0.0163461,0.0412569,1560,1744,0.254141,0.200335
343,-720,0.408203,0.19104,-0.00688385,0.0111143,-0.010075,0.0156241,-0.0113936,-1.14992,0.0156623,0.0451208,1567,1744,0.408198,-0.190987
350,-720,0.0560303,0.141479,-0.00533883,0.0138331,-0.00859751,0.0171238,-0.00862951,-1.20525,0.0151359,0.0434005,1574,1744,0.0559786,-0.141519
357,-720,-0.106689,-0.235596,-0.00452443,0.0168001,-0.00674947,0.0187568,-0.00648117,-1.28862,0.0151348,0.0436903,1581,1744,-0.106644,0.235601
364,-720,-0.179443,-0.653198,-0.00432495,0.0196089,-0.00431925,0.0203645,-0.00508058,-1.39761,0.0155491,0.0453093,1588,1744,-0.179472,0.653202
371,-720,-0.295776,-0.81311,-0.00538983,0.0219206,-0.0015695,0.0220105,-0.00547973,-1.51358,0.0168008,0.0473393,1595,1744,-0.295818,0.813134
378,-720,-0.208618,-0.331055,-0.00673391,0.0234851,0.00101376,0.023519,-0.00676788,1.5373,0.018356,0.0454317,1602,1744,-0.208561,0.331068
385,-720,-0.491089,-0.4198,-0.0082274,0.0240939,0.00351598,0.024472,-0.00860546,1.46368,0.0198161,0.0427188,1609,1744,-0.491041,0.419838
392,-720,-0.671265,-0.425293,-0.0102768,0.023648,0.00637203,0.0248054,-0.0114342,1.39112,0.0213924,0.0411504,1616,1744,-0.671298,0.425326
399,-720,-0.856201,-0.446655,0,0,0,0,0,0,0,-1,1623,1744,-0.856172,0.446637
406,-720,0,0,0,0,0,0,0,0,0,-1,1630,1744,0,0
413,-720,0,0,0,0,0,0,0,0,0,-1,1637,1744,0,0
420,-720,0,0,0,0,0,0,0,0,0,-1,1644,1744,0,0
427,-720,0,0,0,0,0,0,0,0,0,-1,1651,1744,0,0
434,-720,0,0,0,0,0,0,0,0,0,-1,1658,1744,0,0
441,-720,0,0,0,0,0,0,0,0,0,-1,1665,1744,0,0
448,-720,0,0,0,0,0,0,0,0,0,-1,1672,1744,0,0
455,-720,0,0,0,0,0,0,0,0,0,-1,1679,1744,0,0
462,-720,0,0,0,0,0,0,0,0,0,-1,1686,1744,0,0
469,-720,0,0,0,0,0,0,0,0,0,-1,1693,1744,0,0
476,-720,0,0,0,0,0,0,0,0,0,-1,1700,1744,0,0
483,-720,0,0,0,0,0,0,0,0,0,-1,1707,1744,0,0
490,-720,0,0,0,0,0,0,0,0,0,-1,1714,1744,0,0
497,-720,0,0,0,0,0,0,0,0,0,-1,1721,1744,0,0
504,-720,0,0,0,0,0,0,0,0,0,-1,1728,1744,0,0
511,-720,0,0,0,0,0,0,0,0,0,-1,1735,1744,0,0
518,-720,0,0,0,0,0,0,0,0,0,-1,1742,1744,0,0
525,-720,0,0,0,0,0,0,0,0,0,-1,1749,1744,0,0
532,-720,0,0,0,0,0,0,0,0,0,-1,1756,1744,0,0
539,-720,0,0,0,0,0,0,0,0,0,-1,1763,1744,0,0
546,-720,0,0,0,0,0,0,0,0,0,-1,1770,1744,0,0
553,-720,0,0,0,0,0,0,0,0,0,-1,1777,1744,0,0
560,-720,0,0,0,0,0,0,0,0,0,-1,1784,1744,0,0
567,-720,0,0,0,0,0,0,0,0,0,-1,1791,1744,0,0
574,-720,0,0,0,0,0,0,0,0,0,-1,1798,1744,0,0
581,-720,0,0,0,0,0,0,0,0,0,-1,1805,1744,0,0
588,-720,0,0,0,0,0,0,0,0,0,-1,1812,1744,0,0
595,-720,0,0,0,0,0,0,0,0,0,-1,1819,1744,0,0
602,-720,0,0,0,0,0,0,0,0,0,-1,1826,1744,0,0
609,-720,0,0,0,0,0,0,0,0,0,-1,1833,1744,0,0
616,-720,0,0,0,0,0,0,0,0,0,-1,1840,1744,0,0
623,-720,0,0,0,0,0,0,0,0,0,-1,1847,1744,0,0
630,-720,0,0,0,0,0,0,0,0,0,-1,1854,1744,0,0
637,-720,0,0,0,0,0,0,0,0,0,-1,1861,1744,0,0
644,-720,0,0,0,0,0,0,0,0,0,-1,1868,1744,0,0
651,-720,0,0,0,0,0,0,0,0,0,-1,1875,1744,0,0
658,-720,0,0,0,0,0,0,0,0,0,-1,1882,1744,0,0
665,-720,0,0,0,0,0,0,0,0,0,-1,1889,1744,0,0
672,-720,0,0,0,0,0,0,0,0,0,-1,1896,1744,0,0
679,-720,0,0,0,0,0,0,0,0,0,-1,1903,1744,0,0
686,-720,0,0,0,0,0,0,0,0,0,-1,1910,1744,0,0
693,-720,0,0,0,0,0,0,0,0,0,-1,1917,1744,0,0
700,-720,0,0,0,0,0,0,0,0,0,-1,1924,1744,0,0
707,-720,0,0,0,0,0,0,0,0,0,-1,1931,1744,0,0
714,-720,0,0,0,0,0,0,0,0,0,-1,1938,1744,0,0
721,-720,0,0,0,0,0,0,0,0,0,-1,1945,1744,0,0
728,-720,0,0,0,0,0,0,0,0,0,-1,1952,1744,0,0
735,-720,0,0,0,0,0,0,0,0,0,-1,1959,1744,0,0
742,-720,0,0,0,0,0,0,0,0,0,-1,1966,1744,0,0
749,-720,0,0,0,0,0,0,0,0,0,-1,1973,1744,0,0
756,-720,0,0,0,0,0,0,0,0,0,-1,1980,1744,0,0
763,-720,0,0,0,0,0,0,0,0,0,-1,1987,1744,0,0
770,-720,0,0,0,0,0,0,0,0,0,-1,1994,1744,0,0
777,-720,0,0,0,0,0,0,0,0,0,-1,2001,1744,0,0
784,-720,0,0,0,0,0,0,0,0,0,-1,2008,1744,0,0
791,-720,0,0,0,0,0,0,0,0,0,-1,2015,1744,0,0
798,-720,0,0,0,0,0,0,0,0,0,-1,2022,1744,0,0
805,-720,0,0,0,0,0,0,0,0,0,-1,2029,1744,0,0
812,-720,0,0,0,0,0,0,0,0,0,-1,2036,1744,0,0
-700,-727,0,0,0,0,0,0,0,0,0,-1,524,1751,0,0
-693,-727,0,0,0,0,0,0,0,0,0,-1,531,1751,0,0
-686,-727,0,0,0,0,0,0,0,0,0,-1,538,1751,0,0
-679,-727,0,0,0,0,0,0,0,0,0,-1,545,1751,0,0
-672,-727,0,0,0,0,0,0,0,0,0,-1,552,1751,0,0
-665,-727,0,0,0,0,0,0,0,0,0,-1,559,1751,0,0
-658,-727,0,0,0,0,0,0,0,0,0,-1,566,1751,0,0
-651,-727,0,0,0,0,0,0,0,0,0,-1,573,1751,0,0
-644,-727,0,0,0,0,0,0,0,0,0,-1,580,1751,0,0
-637,-727,0,0,0,0,0,0,0,0,0,-1,587,1751,0,0
-630,-727,0,0,0,0,0,0,0,0,0,-1,594,1751,0,0
-623,-727,0,0,0,0,0,0,0,0,0,-1,601,1751,0,0
-616,-727,0,0,0,0,0,0,0,0,0,-1,608,1751,0,0
-609,-727,0,0,0,0,0,0,0,0,0,-1,615,1751,0,0
-602,-727,0,0,0,0,0,0,0,0,0,-1,622,1751,0,0
-595,-727,0,0,0,0,0,0,0,0,0,-1,629,1751,0,0
-588,-727,0,0,0,0,0,0,0,0,0,-1,636,1751,0,0
-581,-727,0,0,0,0,0,0,0,0,0,-1,643,1751,0,0
-574,-727,0,0,0,0,0,0,0,0,0,-1,650,1751,0,0
-567,-727,0,0,0,0,0,0,0,0,0,-1,657,1751,0,0
-560,-727,0,0,0,0,0,0,0,0,0,-1,664,1751,0,0
-553,-727,0,0,0,0,0,0,0,0,0,-1,671,1751,0,0
-546,-727,0,0,0,0,0,0,0,0,0,-1,678,1751,0,0
-539,-727,0,0,0,0,0,0,0,0,0,-1,685,1751,0,0
-532,-727,0,0,0,0,0,0,0,0,0,-1,692,1751,0,0
-525,-727,0,0,0,0,0,0,0,0,0,-1,699,1751,0,0
-518,-727,0,0,0,0,0,0,0,0,0,-1,706,1751,0,0
-511,-727,0,0,0,0,0,0,0,0,0,-1,713,1751,0,0
-504,-727,0,0,0,0,0,0,0,0,0,-1,720,1751,0,0
-497,-727,0,0,0,0,0,0,0,0,0,-1,727,1751,0,0
-490,-727,0,0,0,0,0,0,0,0,0,-1,734,1751,0,0
-483,-727,0,0,0,0,0,0,0,0,0,-1,741,1751,0,0
-476,-727,0,0,0,0,0,0,0,0,0,-1,748,1751,0,0
-469,-727,0,0,0,0,0,0,0,0,0,-1,755,1751,0,0
-462,-727,0,0,0,0,0,0,0,0,0,-1,762,1751,0,0
-455,-727,0,0,0,0,0,0,0,0,0,-1,769,1751,0,0
-448,-727,0,0,0,0,0,0,0,0,0,-1,776,1751,0,0
-441,-727,0,0,0,0,0,0,0,0,0,-1,783,1751,0,0
-434,-727,0,0,0,0,0,0,0,0,0,-1,790,1751,0,0
-427,-727,0,0,0,0,0,0,0,0,0,-1,797,1751,0,0
-420,-727,0,0,0,0,0,0,0,0,0,-1,804,1751,0,0
-413,-727,0,0,0,0,0,0,0,0,0,-1,811,1751,0,0
-406,-727,0,0,0,0,0,0,0,0,0,-1,818,1751,0,0
-399,-727,0,0,0,0,0,0,0,0,0,-1,825,1751,0,0
-392,-727,0,0,0,0,0,0,0,0,0,-1,832,1751,0,0
-385,-727,0,0,0,0,0,0,0,0,0,-1,839,1751,0,0
-378,-727,0,0,0,0,0,0,0,0,0,-1,846,1751,0,0
-371,-727,0,0,0,0,0,0,0,0,0,-1,853,1751,0,0
-364,-727,0,0,0,0,0,0,0,0,0,-1,860,1751,0,0
-357,-727,0,0,0,0,0,0,0,0,0,-1,867,1751,0,0
-350,-727,0,0,0,0,0,0,0,0,0,-1,874,1751,0,0
-343,-727,0,0,0,0,0,0,0,0,0,-1,881,1751,0,0
-336,-727,0,0,0,0,0,0,0,0,0,-1,888,1751,0,0
-329,-727,0,0,0,0,0,0,0,0,0,-1,895,1751,0,0
-322,-727,0,0,0,0,0,0,0,0,0,-1,902,1751,0,0
-315,-727,0,0,0,0,0,0,0,0,0,-1,909,1751,0,0
-308,-727,0,0,0,0,0,0,0,0,0,-1,916,1751,0,0
-301,-727,0,0,0,0,0,0,0,0,0,-1,923,1751,0,0
-294,-727,0,0,0,0,0,0,0,0,0,-1,930,1751,0,0
-287,-727,0,0,0,0,0,0,0,0,0,-1,937,1751,0,0
-280,-727,0,0,0,0,0,0,0,0,0,-1,944,1751,0,0
-273,-727,0,0,0,0,0,0,0,0,0,-1,951,1751,0,0
-266,-727,0.826538,-0.299927,0,0,0,0,0,0,0,-1,958,1751,0.826548,0.29988
-259,-727,1.01538,-0.190674,-0.00661363,-0.00982672,-0.00205562,-0.00561124,-0.0108291,-0.453707,0.00625356,0.0448502,965,1751,1.01539,0.190673
-252,-727,0.837952,0.0457764,-0.0100334,-0.0102699,-0.000754179,-0.00938824,-0.010915,-0.707616,0.00682492,0.041994,972,1751,0.837977,-0.0457425
-245,-727,0.518372,0.19104,-0.0120186,-0.00979183,0.000136511,-0.00978349,-0.0120269,1.50979,0.0073846,0.0432905,979,1751,0.518353,-0.191011
-238,-727,0.14386,0.258545,-0.0141528,-0.0082753,-0.000297608,-0.00826026,-0.0141678,-1.52033,0.0082173,0.0478971,986,1751,0.143885,-0.258491
-231,-727,0.0543823,0.0722656,-0.0142692,-0.00599286,0.000141384,-0.00599044,-0.0142716,1.55372,0.00827502,0.0446681,993,1751,0.0543826,-0.0722909
-224,-727,3.81891,-0.72168,0,0,0,0,0,0,0,-1,1000,1751,3.81889,0.721703
-217,-727,2.68225,-0.179077,0,0,0,0,0,0,0,-1,1007,1751,2.68224,0.179124
-210,-727,1.41718,0.479248,0,0,0,0,0,0,0,-1,1014,1751,1.41715,-0.479301
-203,-727,0.384277,0.11731,0,0,0,0,0,0,0,-1,1021,1751,0.384248,-0.11734
-196,-727,0.466675,0.0332031,0,0,0,0,0,0,0,-1,1028,1751,0.466644,-0.0331616
-189,-727,0.387573,0.296753,-0.0052925,0.0109273,0.00264262,0.011347,-0.00571219,1.4133,0.0100266,0.042983,1035,1751,0.387604,-0.296732
-182,-727,-0.774902,0.0738525,-0.00400515,0.0111914,0.00220228,0.0115041,-0.00431787,1.42974,0.00944365,0.0431368,1042,1751,-0.77495,-0.0737995
-175,-727,-0.5979,0.0617676,-0.00324477,0.010448,0.00150273,0.010611,-0.00340775,1.46276,0.00844239,0.0442577,1049,1751,-0.597842,-0.0617655
-168,-727,-0.562744,-0.0235596,-0.00270248,0.0093421,0.000475169,0.00936082,-0.0027212,1.53143,0.00731824,0.0419187,1056,1751,-0.562799,0.0235419
-161,-727,-0.341797,-0.182739,-0.00211437,0.00719544,-0.000815944,0.00726641,-0.00218534,-1.48403,0.00571376,0.040786,1063,1751,-0.341779,0.182762
-154,-727,-0.0849609,-0.013916,-0.0014898,0.00404905,-0.00231826,0.00489128,-0.00233203,-1.22232,0.00425674,0.0349926,1070,1751,-0.0849189,0.013942
-147,-727,-0.000244141,0.0198975,-0.00100527,0.00155006,-0.00353553,0.0040317,-0.00348691,-0.958786,0.00434467,0.0291964,1077,1751,-0.000230581,-0.0198776
-140,-727,-0.00598145,0.0476074,-0.000977708,-0.000736999,-0.00442735,0.00357164,-0.00528634,-0.798987,0.005146,0.0184017,1084,1751,-0.00599803,-0.0475671
-133,-727,-0.0664063,0.0650635,-0.000492676,-0.00265528,-0.00501841,0.00355961,-0.00670756,-0.679287,0.00601991,0.0134896,1091,1751,-0.0663791,-0.0650321
-126,-727,-0.0447998,0.0612793,-0.000540151,-0.00414193,-0.00553169,0.00347642,-0.0081585,-0.62803,0.00689634,0.0112527,1098,1751,-0.0448042,-0.061261
-119,-727,-0.0335693,0.0737305,-0.00122544,-0.005343,-0.00584018,0.00290822,-0.00947666,-0.615939,0.00747811,0.00996194,1105,1751,-0.0335137,-0.0736867
-112,-727,-0.0345459,0.0552979,-0.00169306,-0.00606327,-0.00572601,0.00225061,-0.0100069,-0.603121,0.00753439,0.0115364,1112,1751,-0.0345827,-0.0553381
-105,-727,-0.0357666,0.0471191,-0.00195625,-0.00635795,-0.005615,0.00187382,-0.010188,-0.59862,0.0074951,0.0123602,1119,1751,-0.0357071,-0.0470658
-98,-727,-0.0362549,0.059082,-0.00207513,-0.00608619,-0.00496295,0.00127219,-0.00943351,-0.59338,0.00675313,0.010265,1126,1751,-0.0362086,-0.0590978
-91,-727,-0.0203857,0.0489502,-0.0019331,-0.00550501,-0.00451297,0.00113446,-0.00857257,-0.596985,0.0061283,0.0093205,1133,1751,-0.0204204,-0.0489868
-84,-727,-0.0268555,0.0458984,-0.00168731,-0.00494374,-0.00419025,0.00117995,-0.00781099,-0.60009,0.00564192,0.00994016,1140,1751,-0.0268393,-0.0458925
-77,-727,-0.0270996,0.0596924,-0.00150093,-0.00444192,-0.00380394,0.00110685,-0.0070497,-0.60096,0.00510887,0.0116903,1147,1751,-0.0271371,-0.0596561
-70,-727,-0.0279541,0.0664063,-0.0013443,-0.00411463,-0.00343036,0.00097,-0.00642893,-0.593511,0.00464318,0.012701,1154,1751,-0.0279601,-0.0663907
-63,-727,-0.0457764,0.0649414,-0.00116013,-0.00386461,-0.00300794,0.000785548,-0.00581028,-0.574155,0.00416017,0.0101147,1161,1751,-0.0458225,-0.0649737
-56,-727,-0.0440674,0.0709229,-0.000873138,-0.00362034,-0.00252679,0.000629277,-0.00512276,-0.536435,0.00364309,0.00996897,1168,1751,-0.0440192,-0.0709262
-49,-727,-0.0389404,0.0805664,-0.000671312,-0.00347476,-0.00203638,0.000399141,-0.00454522,-0.483968,0.00317157,0.0130986,1175,1751,-0.0389899,-0.0805124
-42,-727,-0.0471191,0.0681152,-0.000568562,-0.00371538,-0.00164242,0.000132485,-0.00441643,-0.403427,0.00298943,0.0158093,1182,1751,-0.0471661,-0.0681425
-35,-727,-0.0565186,0.0472412,-0.000425632,-0.00384135,-0.00133351,3.33111e-05,-0.00430029,-0.331464,0.00287803,0.0137194,1189,1751,-0.0565023,-0.0472342
-28,-727,-0.0487061,0.0386963,-0.000437562,-0.00376503,-0.000989494,-0.000165551,-0.00403704,-0.268273,0.00263791,0.00817033,1196,1751,-0.04876,-0.0386491
-21,-727,-0.057251,0.0488281,-0.000481721,-0.00375025,-0.000514176,-0.000402743,-0.00382922,-0.152409,0.00242972,0.00866989,1203,1751,-0.0572033,-0.048781
-14,-727,-0.0657959,0.0598145,-0.000457657,-0.00360059,-0.000143457,-0.000451123,-0.00360713,-0.0455181,0.00226937,0.0101349,1210,1751,-0.0658467,-0.0598186
-7,-727,-0.0435791,0.0756836,-0.00049189,-0.003441,0.000163917,-0.000482807,-0.00345008,0.0553546,0.00215721,0.0138201,1217,1751,-0.0435418,-0.0757041
0,-727,-0.0328369,0.0845947,-0.000517702,-0.00308542,0.00042065,-0.000450547,-0.00315257,0.158311,0.00196879,0.0140959,1224,1751,-0.0328483,-0.0845433
7,-727,-0.0421143,0.0776367,-0.000573698,-0.00295537,0.000465972,-0.000485777,-0.00304329,0.186491,0.00188788,0.0132898,1231,1751,-0.0420665,-0.077587
14,-727,-0.0255127,0.053833,-0.000691061,-0.00280406,0.000610203,-0.000527503,-0.00296761,0.261883,0.00182812,0.0130904,1238,1751,-0.0254612,-0.0538474
21,-727,-0.029541,0.048584,-0.000615871,-0.00268073,0.000623359,-0.00044228,-0.00285433,0.271596,0.00177393,0.0114779,1245,1751,-0.0295423,-0.0486302
28,-727,-0.0328369,0.0529785,-0.000475867,-0.00257143,0.000492128,-0.00036605,-0.00268125,0.219552,0.00167884,0.00991355,1252,1751,-0.0328723,-0.0529354
35,-727,-0.0142822,0.0419922,-0.000128142,-0.0023056,0.00031264,-8.41419e-05,-0.0023496,0.139818,0.00153912,0.0110313,1259,1751,-0.0142469,-0.0419411
42,-727,-0.0255127,0.0358887,6.12976e-05,-0.00159935,0.000188008,8.23166e-05,-0.00162037,0.111336,0.0011087,0.0114122,1266,1751,-0.0255733,-0.0358708
49,-727,-0.0373535,0.0369873,0.000130749,-0.00108852,7.82389e-05,0.000135749,-0.00109352,0.06382,0.000778217,0.00992461,1273,1751,-0.0373703,-0.0370122
56,-727,-0.0455322,0.0628662,0.000307278,-0.00046144,-1.81873e-06,0.000307282,-0.000461445,-0.0023659,0.000446789,0.0086227,1280,1751,-0.0454902,-0.0628691
63,-727,-0.0469971,0.0632324,0.000467974,0.000171551,2.37309e-05,0.000469862,0.000169664,0.079384,0.000274742,0.010138,1287,1751,-0.0469463,-0.0632679
70,-727,-0.03479,0.0579834,0.000679533,0.000875122,0.000164397,0.000968613,0.000586042,1.05372,0.000563327,0.0119626,1294,1751,-0.0348175,-0.0579933
77,-727,-0.0241699,0.045166,0.000927328,0.00213752,0.00063256,0.00240779,0.000657053,1.167,0.00143715,0.0148115,1301,1751,-0.0242241,-0.0451982
84,-727,-0.02771,0.0401611,0.00104598,0.00306376,0.000977847,0.00345988,0.000649861,1.18591,0.00212337,0.0155972,1308,1751,-0.0276632,-0.040122
91,-727,-0.0306396,0.0380859,0.0012229,0.00376445,0.00119474,0.00423789,0.000749467,1.19351,0.00261153,0.0153571,1315,1751,-0.0306244,-0.038089
98,-727,-0.0357666,0.071167,0.00138156,0.00475313,0.00156969,0.00537077,0.000763912,1.19592,0.003355,0.012941,1322,1751,-0.0357429,-0.0711709
105,-727,-0.0299072,0.0904541,0.00136148,0.00540631,0.00197155,0.00620828,0.000559507,1.18446,0.00396553,0.0121572,1329,1751,-0.0298501,-0.0904811
112,-727,-0.0302734,0.0848389,0.00132023,0.00584869,0.00225611,0.00678083,0.000388093,1.179,0.0043969,0.0108218,1336,1751,-0.0302774,-0.0848341
119,-727,-0.041626,0.0739746,0.00124293,0.00617005,0.00235566,0.00711505,0.000297928,1.18929,0.00464724,0.00893867,1343,1751,-0.0415704,-0.0739964
126,-727,-0.0350342,0.0772705,0.00101254,0.00612329,0.00242159,0.00708843,4.73943e-05,1.19153,0.0047099,0.0101678,1350,1751,-0.0350039,-0.0772489
133,-727,-0.0256348,0.101563,0.00072652,0.00586514,0.00236293,0.0067865,-0.000194844,1.19901,0.00459066,0.0140374,1357,1751,-0.0256482,-0.101548
140,-727,-0.0256348,0.104004,0.000220391,0.00538923,0.00218606,0.00618979,-0.000580168,1.21975,0.00433288,0.0198104,1364,1751,-0.0256285,-0.103949
147,-727,-0.0241699,0.0804443,-5.4952e-05,0.00454272,0.00191055,0.005233,-0.000745237,1.22409,0.00376177,0.0171202,1371,1751,-0.0242132,-0.0803851
154,-727,-0.0166016,0.0488281,-0.000254981,0.00411479,0.00163078,0.00465629,-0.000796476,1.2502,0.00340092,0.0110939,1378,1751,-0.0166184,-0.048856
161,-727,-0.0251465,0.046875,-0.000633933,0.0036175,0.00127409,0.00397009,-0.000986519,1.30082,0.00302958,0.0089601,1385,1751,-0.0251361,-0.0468486
168,-727,-0.0324707,0.0621338,-0.000997987,0.00307181,0.000893764,0.00325944,-0.00118562,1.36387,0.00265782,0.0109995,1392,1751,-0.0325264,-0.0621419
175,-727,-0.0557861,0.0678711,-0.00121535,0.00253101,0.000494799,0.00259526,-0.0012796,1.44167,0.00227973,0.0157933,1399,1751,-0.0558154,-0.0678505
182,-727,-0.0378418,0.069458,-0.00125821,0.00173965,4.17811e-05,0.00174024,-0.0012588,1.55686,0.00173891,0.0180346,1406,1751,-0.0378753,-0.0694336
189,-727,-0.0423584,0.0629883,-0.00106946,0.00157832,-0.000138213,0.00158552,-0.00107666,-1.51879,0.00154634,0.0107008,1413,1751,-0.0424168,-0.0630127
196,-727,-0.045166,0.0499268,-0.00091559,0.00159754,-0.000114618,0.00160275,-0.000920806,-1.52531,0.0014746,0.0111538,1420,1751,-0.0451083,-0.0498996
203,-727,-0.0592041,0.0281982,-0.000770739,0.00144257,-0.000143349,0.00145182,-0.000779984,-1.50639,0.00130785,0.0133634,1427,1751,-0.0592044,-0.0282231
210,-727,-0.0592041,0.050415,-0.000442105,0.00153535,-8.54851e-05,0.00153904,-0.000445794,-1.52767,0.00120249,0.0134825,1434,1751,-0.0592606,-0.0503895
217,-727,-0.0372314,0.057251,-9.12671e-05,0.00180942,4.17291e-05,0.00181034,-9.21828e-05,1.54886,0.00123876,0.0108248,1441,1751,-0.0371812,-0.0572474
224,-727,-0.0372314,0.0284424,0.000187076,0.00208518,0.000140732,0.00209555,0.000176699,1.49719,0.00134202,0.0117685,1448,1751,-0.0372916,-0.0284489
231,-727,-0.0396729,0.034668,0.00046439,0.00238126,0.000176141,0.00239731,0.000448339,1.47992,0.00147171,0.00978188,1455,1751,-0.0397219,-0.0346133
238,-727,-0.0546875,0.0498047,0.000121506,0.00271449,7.86778e-05,0.00271687,0.000119121,1.54049,0.00177288,0.00977783,1462,1751,-0.0547366,-0.049747
245,-727,-0.0469971,0.0640869,-0.000388495,0.00313763,-0.000520624,0.00321289,-0.000463757,-1.42723,0.00231207,0.00897414,1469,1751,-0.0470454,-0.0641387
252,-727,-0.0407715,0.0678711,-0.00142355,0.00342244,-0.00135359,0.00377489,-0.001776,-1.31607,0.00327334,0.00965647,1476,1751,-0.0407402,-0.0679314
259,-727,-0.0354004,0.0496826,-0.00309588,0.00351049,-0.00245266,0.0043215,-0.00390688,-1.25145,0.00475267,0.0120229,1483,1751,-0.035366,-0.0496981
266,-727,-0.0170898,0.0644531,-0.00472249,0.00370963,-0.00370993,0.0051095,-0.00612236,-1.20998,0.0064935,0.0150546,1490,1751,-0.0170757,-0.0644803
273,-727,0.012207,0.0661621,-0.00616937,0.00376462,-0.00506347,0.00589057,-0.00829532,-1.17329,0.00822935,0.0221382,1497,1751,0.0121865,-0.0661717
280,-727,0.0687256,0.0650635,-0.0079021,0.00360685,-0.00639598,0.00645601,-0.0107513,-1.15172,0.0100373,0.031698,1504,1751,0.06878,-0.0651059
287,-727,0.268188,0.114014,-0.00950998,0.00331519,-0.00780854,0.00700679,-0.0132016,-1.12917,0.0118486,0.038054,1511,1751,0.26814,-0.114015
294,-727,0.37207,0.22876,-0.0110277,0.00302487,-0.0094136,0.00774527,-0.0157481,-1.10599,0.0138237,0.0411215,1518,1751,0.372118,-0.228719
301,-727,0.576538,0.192871,-0.0119668,0.00268998,-0.0108312,0.0084391,-0.0177159,-1.08282,0.015414,0.04141,1525,1751,0.576551,-0.192868
308,-727,0.553223,0.00268555,-0.0123681,0.00298062,-0.0123701,0.00986352,-0.019251,-1.06304,0.0170981,0.0413223,1532,1751,0.553211,-0.00267005
315,-727,0.325073,0.0755615,-0.0122916,0.00345641,-0.013661,0.0113502,-0.0201854,-1.04684,0.0184437,0.0425412,1539,1751,0.325118,-0.075579
322,-727,0.471191,-0.368042,-0.0115828,0.00443917,-0.0141875,0.0127211,-0.0198648,-1.04241,0.0189636,0.0419365,1546,1751,0.471168,0.368084
329,-727,0.259888,-0.328369,0,0,0,0,0,0,0,-1,1553,1751,0.259939,0.32831
336,-727,0.192383,-0.221924,0,0,0,0,0,0,0,-1,1560,1751,0.192348,0.221889
343,-727,0.177979,-0.0422363,0,0,0,0,0,0,0,-1,1567,1751,0.177992,0.0422784
350,-727,-0.230957,-0.109131,-0.00731432,0.014093,-0.00954673,0.0177319,-0.0109532,-1.20663,0.0167148,0.0408518,1574,1751,-0.230994,0.109124
357,-727,-0.254639,-0.873413,-0.00629466,0.017565,-0.00751274,0.0197335,-0.00846313,-1.28979,0.0167072,0.0456575,1581,1751,-0.254601,0.873402
364,-727,-0.468262,-1.02991,0,0,0,0,0,0,0,-1,1588,1751,-0.468275,1.02989
371,-727,-0.440552,-0.975952,-0.00796456,0.0245703,-0.00143948,0.0246339,-0.00802813,-1.52667,0.019653,0.0450904,1595,1751,-0.440505,0.975926
378,-727,-0.396118,-0.880249,-0.0104658,0.0271832,0.00183567,0.0272725,-0.0105551,1.52219,0.0225395,0.0444794,1602,1751,-0.396175,0.880191
385,-727,-0.983398,-0.599609,-0.0134496,0.0288074,0.00538086,0.0294818,-0.014124,1.44611,0.025691,0.039294,1609,1751,-0.983347,0.599606
392,-727,0,0,0,0,0,0,0,0,0,-1,1616,1751,0,0
399,-727,0,0,0,0,0,0,0,0,0,-1,1623,1751,0,0
406,-727,0,0,0,0,0,0,0,0,0,-1,1630,1751,0,0
413,-727,0,0,0,0,0,0,0,0,0,-1,1637,1751,0,0
420,-727,0,0,0,0,0,0,0,0,0,-1,1644,1751,0,0
427,-727,0,0,0,0,0,0,0,0,0,-1,1651,1751,0,0
434,-727,0,0,0,0,0,0,0,0,0,-1,1658,1751,0,0
441,-727,0,0,0,0,0,0,0,0,0,-1,1665,1751,0,0
448,-727,0,0,0,0,0,0,0,0,0,-1,1672,1751,0,0
455,-727,0,0,0,0,0,0,0,0,0,-1,1679,1751,0,0
462,-727,0,0,0,0,0,0,0,0,0,-1,1686,1751,0,0
469,-727,0,0,0,0,0,0,0,0,0,-1,1693,1751,0,0
476,-727,0,0,0,0,0,0,0,0,0,-1,1700,1751,0,0
483,-727,0,0,0,0,0,0,0,0,0,-1,1707,1751,0,0
490,-727,0,0,0,0,0,0,0,0,0,-1,1714,1751,0,0
497,-727,0,0,0,0,0,0,0,0,0,-1,1721,1751,0,0
504,-727,0,0,0,0,0,0,0,0,0,-1,1728,1751,0,0
511,-727,0,0,0,0,0,0,0,0,0,-1,1735,1751,0,0
518,-727,0,0,0,0,0,0,0,0,0,-1,1742,1751,0,0
525,-727,0,0,0,0,0,0,0,0,0,-1,1749,1751,0,0
532,-727,0,0,0,0,0,0,0,0,0,-1,1756,1751,0,0
539,-727,0,0,0,0,0,0,0,0,0,-1,1763,1751,0,0
546,-727,0,0,0,0,0,0,0,0,0,-1,1770,1751,0,0
553,-727,0,0,0,0,0,0,0,0,0,-1,1777,1751,0,0
560,-727,0,0,0,0,0,0,0,0,0,-1,1784,1751,0,0
567,-727,0,0,0,0,0,0,0,0,0,-1,1791,1751,0,0
574,-727,0,0,0,0,0,0,0,0,0,-1,1798,1751,0,0
581,-727,0,0,0,0,0,0,0,0,0,-1,1805,1751,0,0
588,-727,0,0,0,0,0,0,0,0,0,-1,1812,1751,0,0
595,-727,0,0,0,0,0,0,0,0,0,-1,1819,1751,0,0
602,-727,0,0,0,0,0,0,0,0,0,-1,1826,1751,0,0
609,-727,0,0,0,0,0,0,0,0,0,-1,1833,1751,0,0
616,-727,0,0,0,0,0,0,0,0,0,-1,1840,1751,0,0
623,-727,0,0,0,0,0,0,0,0,0,-1,1847,1751,0,0
630,-727,0,0,0,0,0,0,0,0,0,-1,1854,1751,0,0
637,-727,0,0,0,0,0,0,0,0,0,-1,1861,1751,0,0
644,-727,0,0,0,0,0,0,0,0,0,-1,1868,1751,0,0
651,-727,0,0,0,0,0,0,0,0,0,-1,1875,1751,0,0
658,-727,0,0,0,0,0,0,0,0,0,-1,1882,1751,0,0
665,-727,0,0,0,0,0,0,0,0,0,-1,1889,1751,0,0
672,-727,0,0,0,0,0,0,0,0,0,-1,1896,1751,0,0
679,-727,0,0,0,0,0,0,0,0,0,-1,1903,1751,0,0
686,-727,0,0,0,0,0,0,0,0,0,-1,1910,1751,0,0
693,-727,0,0,0,0,0,0,0,0,0,-1,1917,1751,0,0
700,-727,0,0,0,0,0,0,0,0,0,-1,1924,1751,0,0
707,-727,0,0,0,0,0,0,0,0,0,-1,1931,1751,0,0
714,-727,0,0,0,0,0,0,0,0,0,-1,1938,1751,0,0
721,-727,0,0,0,0,0,0,0,0,0,-1,1945,1751,0,0
728,-727,0,0,0,0,0,0,0,0,0,-1,1952,1751,0,0
735,-727,0,0,0,0,0,0,0,0,0,-1,1959,1751,0,0
742,-727,0,0,0,0,0,0,0,0,0,-1,1966,1751,0,0
749,-727,0,0,0,0,0,0,0,0,0,-1,1973,1751,0,0
756,-727,0,0,0,0,0,0,0,0,0,-1,1980,1751,0,0
763,-727,0,0,0,0,0,0,0,0,0,-1,1987,1751,0,0
770,-727,0,0,0,0,0,0,0,0,0,-1,1994,1751,0,0
777,-727,0,0,0,0,0,0,0,0,0,-1,2001,1751,0,0
784,-727,0,0,0,0,0,0,0,0,0,-1,2008,1751,0,0
791,-727,0,0,0,0,0,0,0,0,0,-1,2015,1751,0,0
798,-727,0,0,0,0,0,0,0,0,0,-1,2022,1751,0,0
805,-727,0,0,0,0,0,0,0,0,0,-1,2029,1751,0,0
812,-727,0,0,0,0,0,0,0,0,0,-1,2036,1751,0,0
-700,-734,0,0,0,0,0,0,0,0,0,-1,524,1758,0,0
-693,-734,0,0,0,0,0,0,0,0,0,-1,531,1758,0,0
-686,-734,0,0,0,0,0,0,0,0,0,-1,538,1758,0,0
-679,-734,0,0,0,0,0,0,0,0,0,-1,545,1758,0,0
-672,-734,0,0,0,0,0,0,0,0,0,-1,552,1758,0,0
-665,-734,0,0,0,0,0,0,0,0,0,-1,559,1758,0,0
-658,-734,0,0,0,0,0,0,0,0,0,-1,566,1758,0,0
-651,-734,0,0,0,0,0,0,0,0,0,-1,573,1758,0,0
-644,-734,0,0,0,0,0,0,0,0,0,-1,580,1758,0,0
-637,-734,0,0,0,0,0,0,0,0,0,-1,587,1758,0,0
-630,-734,0,0,0,0,0,0,0,0,0,-1,594,1758,0,0
-623,-734,0,0,0,0,0,0,0,0,0,-1,601,1758,0,0
-616,-734,0,0,0,0,0,0,0,0,0,-1,608,1758,0,0
-609,-734,0,0,0,0,0,0,0,0,0,-1,615,1758,0,0
-602,-734,0,0,0,0,0,0,0,0,0,-1,622,1758,0,0
-595,-734,0,0,0,0,0,0,0,0,0,-1,629,1758,0,0
-588,-734,0,0,0,0,0,0,0,0,0,-1,636,1758,0,0
-581,-734,0,0,0,0,0,0,0,0,0,-1,643,1758,0,0
-574,-734,0,0,0,0,0,0,0,0,0,-1,650,1758,0,0
-567,-734,0,0,0,0,0,0,0,0,0,-1,657,1758,0,0
-560,-734,0,0,0,0,0,0,0,0,0,-1,664,1758,0,0
-553,-734,0,0,0,0,0,0,0,0,0,-1,671,1758,0,0
-546,-734,0,0,0,0,0,0,0,0,0,-1,678,1758,0,0
-539,-734,0,0,0,0,0,0,0,0,0,-1,685,1758,0,0
-532,-734,0,0,0,0,0,0,0,0,0,-1,692,1758,0,0
-525,-734,0,0,0,0,0,0,0,0,0,-1,699,1758,0,0
-518,-734,0,0,0,0,0,0,0,0,0,-1,706,1758,0,0
-511,-734,0,0,0,0,0,0,0,0,0,-1,713,1758,0,0
-504,-734,0,0,0,0,0,0,0,0,0,-1,720,1758,0,0
-497,-734,0,0,0,0,0,0,0,0,0,-1,727,1758,0,0
-490,-734,0,0,0,0,0,0,0,0,0,-1,734,1758,0,0
-483,-734,0,0,0,0,0,0,0,0,0,-1,741,1758,0,0
-476,-734,0,0,0,0,0,0,0,0,0,-1,748,1758,0,0
-469,-734,0,0,0,0,0,0,0,0,0,-1,755,1758,0,0
-462,-734,0,0,0,0,0,0,0,0,0,-1,762,1758,0,0
-455,-734,0,0,0,0,0,0,0,0,0,-1,769,1758,0,0
-448,-734,0,0,0,0,0,0,0,0,0,-1,776,1758,0,0
-441,-734,0,0,0,0,0,0,0,0,0,-1,783,1758,0,0
-434,-734,0,0,0,0,0,0,0,0,0,-1,790,1758,0,0
-427,-734,0,0,0,0,0,0,0,0,0,-1,797,1758,0,0
-420,-734,0,0,0,0,0,0,0,0,0,-1,804,1758,0,0
-413,-734,0,0,0,0,0,0,0,0,0,-1,811,1758,0,0
-406,-734,0,0,0,0,0,0,0,0,0,-1,818,1758,0,0
-399,-734,0,0,0,0,0,0,0,0,0,-1,825,1758,0,0
-392,-734,0,0,0,0,0,0,0,0,0,-1,832,1758,0,0
-385,-734,0,0,0,0,0,0,0,0,0,-1,839,1758,0,0
-378,-734,0,0,0,0,0,0,0,0,0,-1,846,1758,0,0
-371,-734,0,0,0,0,0,0,0,0,0,-1,853,1758,0,0
-364,-734,0,0,0,0,0,0,0,0,0,-1,860,1758,0,0
-357,-734,0,0,0,0,0,0,0,0,0,-1,867,1758,0,0
-350,-734,0,0,0,0,0,0,0,0,0,-1,874,1758,0,0
-343,-734,0,0,0,0,0,0,0,0,0,-1,881,1758,0,0
-336,-734,0,0,0,0,0,0,0,0,0,-1,888,1758,0,0
-329,-734,0,0,0,0,0,0,0,0,0,-1,895,1758,0,0
-322,-734,0,0,0,0,0,0,0,0,0,-1,902,1758,0,0
-315,-734,0,0,0,0,0,0,0,0,0,-1,909,1758,0,0
-308,-734,0,0,0,0,0,0,0,0,0,-1,916,1758,0,0
-301,-734,0,0,0,0,0,0,0,0,0,-1,923,1758,0,0
-294,-734,0,0,0,0,0,0,0,0,0,-1,930,1758,0,0
-287,-734,0,0,0,0,0,0,0,0,0,-1,937,1758,0,0
-280,-734,0,0,0,0,0,0,0,0,0,-1,944,1758,0,0
-273,-734,0,0,0,0,0,0,0,0,0,-1,951,1758,0,0
-266,-734,0,0,0,0,0,0,0,0,0,-1,958,1758,0,0
-259,-734,0,0,0,0,0,0,0,0,0,-1,965,1758,0,0
-252,-734,0.47699,0.391357,-0.0194357,-0.00996417,-0.00435713,-0.00826471,-0.0211352,-1.19891,0.0122986,0.0422718,972,1758,0.476968,-0.391324
-245,-734,0.23999,0.465942,-0.0204218,-0.00902254,-0.00323704,-0.00816747,-0.0212769,-1.31254,0.0123942,0.0438556,979,1758,0.240006,-0.465962
-238,-734,-0.0258179,0.158203,-0.0217379,-0.00689415,-0.0025911,-0.00645486,-0.0221772,-1.40285,0.0131714,0.0453972,986,1758,-0.0258297,-0.158257
-231,-734,-0.135742,-0.197388,-0.0198178,-0.00418656,-0.000962488,-0.00412752,-0.0198768,-1.50953,0.0121121,0.0440453,993,1758,-0.135716,0.197336
-224,-734,3.36279,-1.09253,0,0,0,0,0,0,0,-1,1000,1758,3.36279,1.09254
-217,-734,2.17651,-0.479736,0,0,0,0,0,0,0,-1,1007,1758,2.17649,0.479789
-210,-734,0.962585,0.317749,0,0,0,0,0,0,0,-1,1014,1758,0.962594,-0.317771
-203,-734,0.942932,-0.0134277,0,0,0,0,0,0,0,-1,1021,1758,0.942938,0.0134447
-196,-734,0.605103,-0.156006,0,0,0,0,0,0,0,-1,1028,1758,0.605068,0.155974
-189,-734,0.425049,0.131226,-0.00531986,0.01515,0.00375993,0.0158188,-0.00598864,1.39477,0.0130099,0.0466526,1035,1758,0.425074,-0.131178
-182,-734,0.224731,0.309937,-0.00374302,0.0152363,0.00316232,0.0157493,-0.00425606,1.40996,0.0121689,0.0414929,1042,1758,0.224743,-0.309883
-175,-734,-0.382935,-0.216919,0,0,0,0,0,0,0,-1,1049,1758,-0.382928,0.216973
-168,-734,-0.340698,-0.231689,-0.0022765,0.0126105,0.000765724,0.0126498,-0.00231578,1.51954,0.00930172,0.0465459,1056,1758,-0.340723,0.231698
-161,-734,-0.247803,-0.218994,-0.00178156,0.00964128,-0.000988721,0.00972623,-0.0018665,-1.48509,0.00718757,0.0429085,1063,1758,-0.247822,0.21899
-154,-734,-0.183105,-0.00256348,-0.00137704,0.00554049,-0.0029803,0.00664738,-0.00248393,-1.21518,0.00545157,0.0410594,1070,1758,-0.183164,0.0025633
-147,-734,0.23877,0.0568848,-0.00116784,0.00224239,-0.00450451,0.00535371,-0.00427916,-0.966331,0.00557306,0.0426745,1077,1758,0.238785,-0.0568306
-140,-734,0.259521,-0.03125,-0.00131829,-0.000637312,-0.00554389,0.00457654,-0.00653214,-0.816068,0.00644664,0.0374632,1084,1758,0.259476,0.0312052
-133,-734,-0.0032959,0.0882568,-0.000864361,-0.00295467,-0.00622428,0.0044019,-0.00822093,-0.702216,0.00739814,0.031529,1091,1758,-0.00334084,-0.0882816
-126,-734,0.024292,0.142456,-0.000986217,-0.00474056,-0.00674919,0.00414199,-0.00986877,-0.64976,0.00831131,0.0280877,1098,1758,0.024284,-0.142423
-119,-734,-0.0494385,0.0576172,-0.00181453,-0.00626289,-0.00700962,0.00331531,-0.0113927,-0.63177,0.00890833,0.0298794,1105,1758,-0.0493797,-0.0576148
-112,-734,-0.00292969,0.0209961,-0.00237544,-0.00719516,-0.00677351,0.00240412,-0.0119747,-0.614492,0.00889351,0.0243647,1112,1758,-0.00298028,-0.0210426
-105,-734,-0.0251465,0.0367432,-0.00264973,-0.00758313,-0.00656639,0.00189799,-0.0121309,-0.605725,0.00878849,0.0179591,1119,1758,-0.0251217,-0.036767
-98,-734,-0.0279541,0.0548096,-0.00273581,-0.00731154,-0.00566562,0.00108645,-0.0111338,-0.593503,0.00780991,0.0134569,1126,1758,-0.0279377,-0.0547685
-91,-734,-0.0206299,0.0550537,-0.00252395,-0.00653219,-0.00503723,0.000893196,-0.00994934,-0.596067,0.00694978,0.0129034,1133,1758,-0.0206199,-0.0550327
-84,-734,-0.0383301,0.0548096,-0.00221211,-0.00573524,-0.00462675,0.000977078,-0.00892443,-0.603504,0.00630062,0.0104932,1140,1758,-0.0383626,-0.0548007
-77,-734,-0.0333252,0.0493164,-0.00195827,-0.00506023,-0.00419859,0.000966654,-0.00798515,-0.60847,0.00567317,0.0105746,1147,1758,-0.0333094,-0.0492588
-70,-734,-0.0361328,0.0551758,-0.00174301,-0.00453566,-0.00381565,0.000923784,-0.00720245,-0.609993,0.00513732,0.0102689,1154,1758,-0.0361324,-0.0551824
-63,-734,-0.0487061,0.0644531,-0.00149875,-0.00416036,-0.00342523,0.000845123,-0.00650424,-0.600109,0.00464357,0.010453,1161,1758,-0.0487565,-0.0644419
-56,-734,-0.0535889,0.0671387,-0.00121727,-0.00383671,-0.00299822,0.000744813,-0.00579879,-0.579473,0.00413655,0.010571,1168,1758,-0.0536164,-0.0671268
-49,-734,-0.0357666,0.0842285,-0.00109341,-0.00375941,-0.00254976,0.000450775,-0.00530359,-0.54454,0.00369516,0.0112958,1175,1758,-0.0357507,-0.0841794
-42,-734,-0.0605469,0.0726318,-0.00114234,-0.00428415,-0.00221486,2.15136e-06,-0.00542864,-0.476942,0.00361981,0.0127678,1182,1758,-0.0605795,-0.0725719
-35,-734,-0.0618896,0.0339355,-0.00125511,-0.00483446,-0.00192706,-0.000414857,-0.00567471,-0.411173,0.00365271,0.0131589,1189,1758,-0.0618355,-0.0339415
-28,-734,-0.0415039,0.038208,-0.00152868,-0.00511225,-0.00154976,-0.000951448,-0.00568948,-0.356548,0.00351898,0.00902768,1196,1758,-0.0414914,-0.0381911
-21,-734,-0.0245361,0.0549316,-0.00184719,-0.00557764,-0.000950156,-0.00161913,-0.0058057,-0.235572,0.00345945,0.012417,1203,1758,-0.0245035,-0.0549098
-14,-734,-0.0404053,0.0783691,-0.00205249,-0.00594955,-0.000423528,-0.00200699,-0.00599505,-0.107014,0.00352368,0.0140165,1210,1758,-0.0404524,-0.0783985
-7,-734,-0.0240479,0.0775146,-0.00225598,-0.00633669,2.83032e-05,-0.00225578,-0.00633688,0.0069354,0.00370885,0.0169491,1217,1758,-0.0240079,-0.0775603
0,-734,-0.0269775,0.0662842,-0.00250757,-0.00640273,0.000479164,-0.0024495,-0.00646081,0.12062,0.00376631,0.0161284,1224,1758,-0.0269741,-0.0662621
7,-734,-0.0375977,0.0699463,-0.00280253,-0.00672843,0.000715816,-0.00267608,-0.00685488,0.174839,0.00398924,0.0116778,1231,1758,-0.037627,-0.0700007
14,-734,-0.0264893,0.071167,-0.00300634,-0.00692197,0.001022,-0.00275564,-0.00717267,0.240551,0.00417801,0.0114495,1238,1758,-0.0265098,-0.0711165
21,-734,-0.0321045,0.0579834,-0.00287876,-0.00702351,0.00116998,-0.00257131,-0.00733096,0.256976,0.00429493,0.0109608,1245,1758,-0.0321554,-0.0579646
28,-734,-0.0394287,0.0517578,-0.00268612,-0.00700214,0.00108462,-0.00242889,-0.00725938,0.232863,0.00426697,0.0106288,1252,1758,-0.0394391,-0.0517841
35,-734,-0.0291748,0.0489502,-0.00207385,-0.00664686,0.000764129,-0.00194955,-0.00677116,0.161261,0.00402485,0.0122651,1259,1758,-0.0291232,-0.0489337
42,-734,-0.0180664,0.052002,-0.00151315,-0.00544842,0.000643166,-0.0014107,-0.00555087,0.157963,0.00333144,0.0107224,1266,1758,-0.0180109,-0.0519993
49,-734,-0.0325928,0.0533447,-0.00100795,-0.00451581,0.000550672,-0.000923536,-0.00460022,0.152109,0.00281002,0.00931257,1273,1758,-0.0326216,-0.0533718
56,-734,-0.0368652,0.0635986,-0.000412512,-0.003387,0.000463848,-0.000341857,-0.00345766,0.151162,0.00220003,0.00861477,1280,1758,-0.0368622,-0.0636572
63,-734,-0.0290527,0.0653076,0.000216996,-0.00211941,0.000509746,0.000323366,-0.00222578,0.205722,0.00160256,0.0109442,1287,1758,-0.0289953,-0.0652574
70,-734,-0.0524902,0.0736084,0.000897769,-0.000818285,0.000736913,0.00117078,-0.0010913,0.354804,0.00130628,0.0117181,1294,1758,-0.0525475,-0.0735843
77,-734,-0.0275879,0.0566406,0.00155414,0.000470652,0.00115221,0.00228561,-0.000260816,0.565645,0.0016177,0.0161221,1301,1758,-0.0275744,-0.0566754
84,-734,-0.0368652,0.0592041,0.00210395,0.00180936,0.00161228,0.00357565,0.00033766,0.739846,0.00227956,0.0162776,1308,1758,-0.0368101,-0.0591908
91,-734,-0.0236816,0.0480957,0.00253912,0.00275887,0.00189123,0.00454342,0.000754571,0.814415,0.00281138,0.016778,1315,1758,-0.0236553,-0.0480903
98,-734,-0.0150146,0.0598145,0.00292656,0.00363454,0.00235744,0.00566441,0.000896678,0.859921,0.00351571,0.0128638,1322,1758,-0.0150343,-0.0598561
105,-734,-0.0100098,0.0776367,0.00312731,0.00418208,0.00280345,0.00650732,0.000802064,0.878371,0.00409711,0.013527,1329,1758,-0.0100628,-0.0776617
112,-734,-0.0153809,0.0761719,0.00322665,0.0044814,0.00305127,0.00696913,0.000738924,0.886791,0.00442041,0.011667,1336,1758,-0.0153201,-0.0761124
119,-734,-0.0466309,0.0673828,0.00307913,0.00462651,0.00312454,0.00707173,0.00063392,0.906766,0.00451803,0.0126109,1343,1758,-0.0466095,-0.0673756
126,-734,-0.0352783,0.0603027,0.00267846,0.00433417,0.00314064,0.00675424,0.000258398,0.914264,0.00441921,0.0153865,1350,1758,-0.0352632,-0.0602844
133,-734,-0.0310059,0.0524902,0.00220992,0.00389117,0.00295742,0.00612512,-2.40253e-05,0.923868,0.00409144,0.0136854,1357,1758,-0.0310656,-0.0525368
140,-734,-0.0373535,0.0322266,0.0014445,0.00328508,0.00268933,0.00520722,-0.000477646,0.950253,0.00364115,0.0179011,1364,1758,-0.0373663,-0.0321959
147,-734,-0.0267334,0.0405273,0.000950483,0.00222106,0.00213981,0.00381789,-0.000646347,0.9297,0.00278582,0.0129841,1371,1758,-0.0267118,-0.0405621
154,-734,-0.0288086,0.0703125,0.000593874,0.00197119,0.00165365,0.00307385,-0.000508786,0.9827,0.00223819,0.00906238,1378,1758,-0.0287554,-0.0703438
161,-734,-0.0328369,0.0688477,5.08095e-05,0.00170965,0.00115777,0.00230444,-0.000543981,1.09622,0.0017461,0.00833954,1385,1758,-0.032786,-0.0688634
168,-734,-0.0526123,0.0771484,-0.000576315,0.00135559,0.000696944,0.00158077,-0.000801494,1.25829,0.00139971,0.0128239,1392,1758,-0.0526549,-0.0771471
175,-734,-0.0556641,0.0880127,-0.000976747,0.00103952,0.000172382,0.00105415,-0.000991379,1.48612,0.00118117,0.0155397,1399,1758,-0.0556079,-0.0879533
182,-734,-0.0252686,0.0585938,-0.00117874,0.000735482,-0.000240553,0.000765248,-0.0012085,-1.44768,0.00114909,0.0139661,1406,1758,-0.0252481,-0.0586481
189,-734,-0.039917,0.0509033,-0.00113352,0.000659786,-0.000544528,0.000812179,-0.00128591,-1.29791,0.00122158,0.00990601,1413,1758,-0.0399404,-0.0508578
196,-734,-0.048584,0.0627441,-0.00101706,0.000946286,-0.000554655,0.00109214,-0.00116291,-1.31365,0.00130217,0.0101341,1420,1758,-0.0486353,-0.0626915
203,-734,-0.048584,0.0495605,-0.000986801,0.00122115,-0.000600116,0.00137372,-0.00113937,-1.32184,0.00145303,0.0100317,1427,1758,-0.0486119,-0.0496101
210,-734,-0.050293,0.0527344,-0.000725163,0.00147684,-0.000522387,0.00159449,-0.000842805,-1.34929,0.0014293,0.0111392,1434,1758,-0.0503126,-0.0527869
217,-734,-0.0410156,0.0643311,-0.000378993,0.00189507,-0.000360041,0.00195071,-0.000434635,-1.41747,0.00146697,0.00965449,1441,1758,-0.0410132,-0.0643841
224,-734,-0.0385742,0.0626221,-8.65754e-05,0.00228161,-0.000185553,0.00229606,-0.000101026,-1.49308,0.00156547,0.0112333,1448,1758,-0.038552,-0.062573
231,-734,-0.0472412,0.0546875,0.000241493,0.00272912,-6.28314e-05,0.00273071,0.000239907,-1.54556,0.00174601,0.0126023,1455,1758,-0.0472894,-0.0546903
238,-734,-0.0422363,0.0582275,-0.000253779,0.00320127,-7.8466e-05,0.00320305,-0.00025556,-1.5481,0.00222545,0.0148898,1462,1758,-0.0422964,-0.0582235
245,-734,-0.0189209,0.0534668,-0.00108298,0.00380241,-0.000682471,0.00389596,-0.00117652,-1.43457,0.00306568,0.0194725,1469,1758,-0.0189616,-0.0535224
252,-734,-0.0240479,0.0499268,-0.0026232,0.00425328,-0.00151376,0.00457176,-0.00294168,-1.36343,0.00437178,0.0238069,1476,1758,-0.0240183,-0.0499027
259,-734,-0.0209961,0.0982666,-0.00491322,0.00434444,-0.00263981,0.00504427,-0.00561306,-1.31165,0.00615593,0.0310156,1483,1758,-0.0209501,-0.0983264
266,-734,0.0288086,0.113403,-0.00713795,0.00452762,-0.00392717,0.00572648,-0.00833681,-1.27451,0.00816593,0.0370131,1490,1758,0.0288597,-0.113353
273,-734,0.254883,0.0212402,-0.00916062,0.00456149,-0.00530168,0.00637119,-0.0109703,-1.24185,0.0101288,0.0397018,1497,1758,0.254911,-0.0211963
280,-734,0.310913,0.128052,-0.0116578,0.00434661,-0.00661586,0.00672732,-0.0140385,-1.22537,0.0122343,0.0446164,1504,1758,0.310882,-0.128034
287,-734,0.477295,0.252197,0,0,0,0,0,0,0,-1,1511,1758,0.477316,-0.252223
294,-734,0.792969,0.396851,-0.0160924,0.00355938,-0.00968432,0.00752965,-0.0200627,-1.18173,0.0164691,0.0488801,1518,1758,0.792955,-0.396802
301,-734,1.28174,0.362915,-0.0173639,0.00293503,-0.0111402,0.00785593,-0.0222848,-1.15485,0.0180542,0.0451766,1525,1758,1.28173,-0.362954
308,-734,1.01819,-0.0147705,-0.0178361,0.00282842,-0.0127716,0.00892387,-0.0239315,-1.1255,0.0196176,0.0446129,1532,1758,1.01823,0.0147107
315,-734,0.786743,-0.373779,-0.0176447,0.00286151,-0.0141872,0.0101128,-0.024896,-1.0983,0.0208043,0.0443273,1539,1758,0.786737,0.373829
322,-734,0.641235,-0.252563,-0.0165341,0.00342603,-0.0148207,0.0113137,-0.0244218,-1.08172,0.0210895,0.044206,1546,1758,0.641248,0.252559
329,-734,0.559814,-0.509277,0,0,0,0,0,0,0,-1,1553,1758,0.559812,0.509257
336,-734,0.971069,-0.622192,0,0,0,0,0,0,0,-1,1560,1758,0.971061,0.622242
343,-734,0.335449,-0.215332,-0.0122728,0.00998748,-0.0115441,0.0148931,-0.0171785,-1.16897,0.0185322,0.0443004,1567,1758,0.335439,0.215291
350,-734,0.236816,-0.201172,-0.00960213,0.0129206,-0.00963828,0.016482,-0.0131635,-1.21685,0.0171516,0.0422459,1574,1758,0.236841,0.201113
357,-734,-0.434692,-1.38501,0,0,0,0,0,0,0,-1,1581,1758,-0.434736,1.38501
364,-734,-0.812866,-0.57666,0,0,0,0,0,0,0,-1,1588,1758,-0.812861,0.576642
371,-734,-0.674805,-1.13293,0,0,0,0,0,0,0,-1,1595,1758,-0.674803,1.1329
378,-734,0,0,0,0,0,0,0,0,0,-1,1602,1758,0,0
385,-734,0,0,0,0,0,0,0,0,0,-1,1609,1758,0,0
392,-734,0,0,0,0,0,0,0,0,0,-1,1616,1758,0,0
399,-734,0,0,0,0,0,0,0,0,0,-1,1623,1758,0,0
406,-734,0,0,0,0,0,0,0,0,0,-1,1630,1758,0,0
413,-734,0,0,0,0,0,0,0,0,0,-1,1637,1758,0,0
420,-734,0,0,0,0,0,0,0,0,0,-1,1644,1758,0,0
427,-734,0,0,0,0,0,0,0,0,0,-1,1651,1758,0,0
434,-734,0,0,0,0,0,0,0,0,0,-1,1658,1758,0,0
441,-734,0,0,0,0,0,0,0,0,0,-1,1665,1758,0,0
448,-734,0,0,0,0,0,0,0,0,0,-1,1672,1758,0,0
455,-734,0,0,0,0,0,0,0,0,0,-1,1679,1758,0,0
462,-734,0,0,0,0,0,0,0,0,0,-1,1686,1758,0,0
469,-734,0,0,0,0,0,0,0,0,0,-1,1693,1758,0,0
476,-734,0,0,0,0,0,0,0,0,0,-1,1700,1758,0,0
483,-734,0,0,0,0,0,0,0,0,0,-1,1707,1758,0,0
490,-734,0,0,0,0,0,0,0,0,0,-1,1714,1758,0,0
497,-734,0,0,0,0,0,0,0,0,0,-1,1721,1758,0,0
504,-734,0,0,0,0,0,0,0,0,0,-1,1728,1758,0,0
511,-734,0,0,0,0,0,0,0,0,0,-1,1735,1758,0,0
518,-734,0,0,0,0,0,0,0,0,0,-1,1742,1758,0,0
525,-734,0,0,0,0,0,0,0,0,0,-1,1749,1758,0,0
532,-734,0,0,0,0,0,0,0,0,0,-1,1756,1758,0,0
539,-734,0,0,0,0,0,0,0,0,0,-1,1763,1758,0,0
546,-734,0,0,0,0,0,0,0,0,0,-1,1770,1758,0,0
553,-734,0,0,0,0,0,0,0,0,0,-1,1777,1758,0,0
560,-734,0,0,0,0,0,0,0,0,0,-1,1784,1758,0,0
567,-734,0,0,0,0,0,0,0,0,0,-1,1791,1758,0,0
574,-734,0,0,0,0,0,0,0,0,0,-1,1798,1758,0,0
581,-734,0,0,0,0,0,0,0,0,0,-1,1805,1758,0,0
588,-734,0,0,0,0,0,0,0,0,0,-1,1812,1758,0,0
595,-734,0,0,0,0,0,0,0,0,0,-1,1819,1758,0,0
602,-734,0,0,0,0,0,0,0,0,0,-1,1826,1758,0,0
609,-734,0,0,0,0,0,0,0,0,0,-1,1833,1758,0,0
616,-734,0,0,0,0,0,0,0,0,0,-1,1840,1758,0,0
623,-734,0,0,0,0,0,0,0,0,0,-1,1847,1758,0,0
630,-734,0,0,0,0,0,0,0,0,0,-1,1854,1758,0,0
637,-734,0,0,0,0,0,0,0,0,0,-1,1861,1758,0,0
644,-734,0,0,0,0,0,0,0,0,0,-1,1868,1758,0,0
651,-734,0,0,0,0,0,0,0,0,0,-1,1875,1758,0,0
658,-734,0,0,0,0,0,0,0,0,0,-1,1882,1758,0,0
665,-734,0,0,0,0,0,0,0,0,0,-1,1889,1758,0,0
672,-734,0,0,0,0,0,0,0,0,0,-1,1896,1758,0,0
679,-734,0,0,0,0,0,0,0,0,0,-1,1903,1758,0,0
686,-734,0,0,0,0,0,0,0,0,0,-1,1910,1758,0,0
693,-734,0,0,0,0,0,0,0,0,0,-1,1917,1758,0,0
700,-734,0,0,0,0,0,0,0,0,0,-1,1924,1758,0,0
707,-734,0,0,0,0,0,0,0,0,0,-1,1931,1758,0,0
714,-734,0,0,0,0,0,0,0,0,0,-1,1938,1758,0,0
721,-734,0,0,0,0,0,0,0,0,0,-1,1945,1758,0,0
728,-734,0,0,0,0,0,0,0,0,0,-1,1952,1758,0,0
735,-734,0,0,0,0,0,0,0,0,0,-1,1959,1758,0,0
742,-734,0,0,0,0,0,0,0,0,0,-1,1966,1758,0,0
749,-734,0,0,0,0,0,0,0,0,0,-1,1973,1758,0,0
756,-734,0,0,0,0,0,0,0,0,0,-1,1980,1758,0,0
763,-734,0,0,0,0,0,0,0,0,0,-1,1987,1758,0,0
770,-734,0,0,0,0,0,0,0,0,0,-1,1994,1758,0,0
777,-734,0,0,0,0,0,0,0,0,0,-1,2001,1758,0,0
784,-734,0,0,0,0,0,0,0,0,0,-1,2008,1758,0,0
791,-734,0,0,0,0,0,0,0,0,0,-1,2015,1758,0,0
798,-734,0,0,0,0,0,0,0,0,0,-1,2022,1758,0,0
805,-734,0,0,0,0,0,0,0,0,0,-1,2029,1758,0,0
812,-734,0,0,0,0,0,0,0,0,0,-1,2036,1758,0,0
-700,-741,0,0,0,0,0,0,0,0,0,-1,524,1765,0,0
-693,-741,0,0,0,0,0,0,0,0,0,-1,531,1765,0,0
-686,-741,0,0,0,0,0,0,0,0,0,-1,538,1765,0,0
-679,-741,0,0,0,0,0,0,0,0,0,-1,545,1765,0,0
-672,-741,0,0,0,0,0,0,0,0,0,-1,552,1765,0,0
-665,-741,0,0,0,0,0,0,0,0,0,-1,559,1765,0,0
-658,-741,0,0,0,0,0,0,0,0,0,-1,566,1765,0,0
-651,-741,0,0,0,0,0,0,0,0,0,-1,573,1765,0,0
-644,-741,0,0,0,0,0,0,0,0,0,-1,580,1765,0,0
-637,-741,0,0,0,0,0,0,0,0,0,-1,587,1765,0,0
-630,-741,0,0,0,0,0,0,0,0,0,-1,594,1765,0,0
-623,-741,0,0,0,0,0,0,0,0,0,-1,601,1765,0,0
-616,-741,0,0,0,0,0,0,0,0,0,-1,608,1765,0,0
-609,-741,0,0,0,0,0,0,0,0,0,-1,615,1765,0,0
-602,-741,0,0,0,0,0,0,0,0,0,-1,622,1765,0,0
-595,-741,0,0,0,0,0,0,0,0,0,-1,629,1765,0,0
-588,-741,0,0,0,0,0,0,0,0,0,-1,636,1765,0,0
-581,-741,0,0,0,0,0,0,0,0,0,-1,643,1765,0,0
-574,-741,0,0,0,0,0,0,0,0,0,-1,650,1765,0,0
-567,-741,0,0,0,0,0,0,0,0,0,-1,657,1765,0,0
-560,-741,0,0,0,0,0,0,0,0,0,-1,664,1765,0,0
-553,-741,0,0,0,0,0,0,0,0,0,-1,671,1765,0,0
-546,-741,0,0,0,0,0,0,0,0,0,-1,678,1765,0,0
-539,-741,0,0,0,0,0,0,0,0,0,-1,685,1765,0,0
-532,-741,0,0,0,0,0,0,0,0,0,-1,692,1765,0,0
-525,-741,0,0,0,0,0,0,0,0,0,-1,699,1765,0,0
-518,-741,0,0,0,0,0,0,0,0,0,-1,706,1765,0,0
-511,-741,0,0,0,0,0,0,0,0,0,-1,713,1765,0,0
-504,-741,0,0,0,0,0,0,0,0,0,-1,720,1765,0,0
-497,-741,0,0,0,0,0,0,0,0,0,-1,727,1765,0,0
-490,-741,0,0,0,0,0,0,0,0,0,-1,734,1765,0,0
-483,-741,0,0,0,0,0,0,0,0,0,-1,741,1765,0,0
-476,-741,0,0,0,0,0,0,0,0,0,-1,748,1765,0,0
-469,-741,0,0,0,0,0,0,0,0,0,-1,755,1765,0,0
-462,-741,0,0,0,0,0,0,0,0,0,-1,762,1765,0,0
-455,-741,0,0,0,0,0,0,0,0,0,-1,769,1765,0,0
-448,-741,0,0,0,0,0,0,0,0,0,-1,776,1765,0,0
-441,-741,0,0,0,0,0,0,0,0,0,-1,783,1765,0,0
-434,-741,0,0,0,0,0,0,0,0,0,-1,790,1765,0,0
-427,-741,0,0,0,0,0,0,0,0,0,-1,797,1765,0,0
-420,-741,0,0,0,0,0,0,0,0,0,-1,804,1765,0,0
-413,-741,0,0,0,0,0,0,0,0,0,-1,811,1765,0,0
-406,-741,0,0,0,0,0,0,0,0,0,-1,818,1765,0,0
-399,-741,0,0,0,0,0,0,0,0,0,-1,825,1765,0,0
-392,-741,0,0,0,0,0,0,0,0,0,-1,832,1765,0,0
-385,-741,0,0,0,0,0,0,0,0,0,-1,839,1765,0,0
-378,-741,0,0,0,0,0,0,0,0,0,-1,846,1765,0,0
-371,-741,0,0,0,0,0,0,0,0,0,-1,853,1765,0,0
-364,-741,0,0,0,0,0,0,0,0,0,-1,860,1765,0,0
-357,-741,0,0,0,0,0,0,0,0,0,-1,867,1765,0,0
-350,-741,0,0,0,0,0,0,0,0,0,-1,874,1765,0,0
-343,-741,0,0,0,0,0,0,0,0,0,-1,881,1765,0,0
-336,-741,0,0,0,0,0,0,0,0,0,-1,888,1765,0,0
-329,-741,0,0,0,0,0,0,0,0,0,-1,895,1765,0,0
-322,-741,0,0,0,0,0,0,0,0,0,-1,902,1765,0,0
-315,-741,0,0,0,0,0,0,0,0,0,-1,909,1765,0,0
-308,-741,0,0,0,0,0,0,0,0,0,-1,916,1765,0,0
-301,-741,0,0,0,0,0,0,0,0,0,-1,923,1765,0,0
-294,-741,0,0,0,0,0,0,0,0,0,-1,930,1765,0,0
-287,-741,0,0,0,0,0,0,0,0,0,-1,937,1765,0,0
-280,-741,0,0,0,0,0,0,0,0,0,-1,944,1765,0,0
-273,-741,0,0,0,0,0,0,0,0,0,-1,951,1765,0,0
-266,-741,0,0,0,0,0,0,0,0,0,-1,958,1765,0,0
-259,-741,0,0,0,0,0,0,0,0,0,-1,965,1765,0,0
-252,-741,0,0,0,0,0,0,0,0,0,-1,972,1765,0,0
-245,-741,0,0,0,0,0,0,0,0,0,-1,979,1765,0,0
-238,-741,-0.0727539,0.0413818,-0.0306397,-0.00385047,-0.00482735,-0.00300715,-0.031483,-1.39784,0.0200616,0.0461191,986,1765,-0.0727679,-0.0413504
-231,-741,-0.333984,-0.252197,-0.0263937,-0.000669499,-0.00164578,-0.000564632,-0.0264986,-1.50716,0.0174805,0.0437811,993,1765,-0.333973,0.252194
-224,-741,-0.559265,-0.503296,0,0,0,0,0,0,0,-1,1000,1765,-0.559281,0.503312
-217,-741,0.4151,-0.0699463,0,0,0,0,0,0,0,-1,1007,1765,0.415129,0.06997
-210,-741,0.291443,-0.126709,-0.0129354,0.0101619,0.00487904,0.0111502,-0.0139238,1.37093,0.014506,0.0438204,1014,1765,0.291449,0.1267
-203,-741,0.212952,-0.248047,0,0,0,0,0,0,0,-1,1021,1765,0.21298,0.248074
-196,-741,0.384766,-0.279297,-0.00687656,0.0177297,0.00547733,0.0188939,-0.00804073,1.36137,0.015966,0.0450051,1028,1765,0.384716,0.279315
-189,-741,0.25769,-0.149048,-0.00458362,0.0202257,0.00504904,0.0212138,-0.00557181,1.37752,0.01632,0.043444,1035,1765,0.257655,0.149057
-182,-741,0.0667725,-0.0949707,-0.00275025,0.0200398,0.00428378,0.0208184,-0.00352886,1.391,0.0151925,0.0442241,1042,1765,0.0667134,0.0949975
-175,-741,-0.0123291,0.182007,-0.0018442,0.0186016,0.00308569,0.0190572,-0.00229974,1.42422,0.0135366,0.0441905,1049,1765,-0.0122929,-0.182057
-168,-741,-0.244507,-0.202637,0,0,0,0,0,0,0,-1,1056,1765,-0.244529,0.202586
-161,-741,0.888428,0.0090332,0,0,0,0,0,0,0,-1,1063,1765,0.888447,-0.00900396
-154,-741,0.743042,0.0332031,-0.000917673,0.00742379,-0.00367935,0.00881477,-0.00230865,-1.20935,0.0067784,0.0462791,1070,1765,0.743024,-0.0332628
-147,-741,0.599365,0.0778809,-0.00109795,0.00322086,-0.00553801,0.00700558,-0.00488267,-0.971293,0.00690006,0.0481185,1077,1765,0.59937,-0.0779259
-140,-741,0.426392,0.11731,-0.00151665,-0.000291862,-0.00672744,0.005851,-0.00765951,-0.830788,0.00782356,0.0457822,1084,1765,0.426363,-0.117287
-133,-741,0.281372,0.262329,-0.00120026,-0.00303151,-0.00750356,0.00544333,-0.00967511,-0.724686,0.00884188,0.0429265,1091,1765,0.281432,-0.26237
-126,-741,0.229492,0.45813,-0.00145002,-0.00512383,-0.00797131,0.0048933,-0.0114671,-0.672155,0.00969655,0.0392408,1098,1765,0.229449,-0.458139
-119,-741,0.260864,0.526611,-0.00248102,-0.00700633,-0.00813172,0.00369697,-0.0131843,-0.649705,0.0102466,0.0401437,1105,1765,0.260816,-0.526567
-112,-741,0.234619,0.372803,-0.00321124,-0.0081719,-0.00774086,0.00243696,-0.0138201,-0.630356,0.010124,0.0371676,1112,1765,0.234563,-0.372828
-105,-741,0.0734863,0.0849609,-0.00355408,-0.00867876,-0.00742328,0.00173665,-0.0139695,-0.619213,0.00994255,0.0300706,1119,1765,0.0734911,-0.0849517
-98,-741,0.0545654,0.0592041,-0.00365911,-0.00844805,-0.00623464,0.000625062,-0.0127322,-0.602054,0.00870398,0.0268956,1126,1765,0.05456,-0.0591962
-91,-741,0.104858,0.0609131,-0.00340521,-0.0074807,-0.00543391,0.000360472,-0.0112464,-0.606011,0.00762058,0.0284009,1133,1765,0.104905,-0.0609386
-84,-741,-0.0411377,0.0891113,-0.00304922,-0.00650698,-0.00494957,0.000464731,-0.0100209,-0.617373,0.0068408,0.0282066,1140,1765,-0.0411789,-0.0891641
-77,-741,0.0316162,0.0499268,-0.00275022,-0.00575674,-0.00448528,0.000477009,-0.00898397,-0.623704,0.00615448,0.0251207,1147,1765,0.0316341,-0.0499795
-70,-741,0.0672607,0.0407715,-0.00247501,-0.00518515,-0.00410961,0.000497172,-0.00815733,-0.626145,0.00561129,0.0242505,1154,1765,0.0672189,-0.0407474
-63,-741,-0.0280762,0.0662842,-0.00223358,-0.00482591,-0.00374306,0.000431387,-0.00749088,-0.618718,0.00514375,0.0229603,1161,1765,-0.0280429,-0.0663124
-56,-741,-0.0839844,0.0615234,-0.00202731,-0.0045642,-0.00333816,0.000275283,-0.00686679,-0.603832,0.00467232,0.0197932,1168,1765,-0.0840273,-0.061535
-49,-741,-0.0570068,0.0622559,-0.00207798,-0.00475026,-0.00285876,-0.00025853,-0.00656971,-0.56679,0.00429623,0.0156844,1175,1765,-0.0569862,-0.0622922
-42,-741,-0.052124,0.0639648,-0.00242578,-0.00577283,-0.00247962,-0.00110779,-0.00709082,-0.488554,0.00440464,0.0119253,1182,1765,-0.0520776,-0.0639194
-35,-741,-0.0391846,0.0593262,-0.0029722,-0.00692501,-0.00210468,-0.00206142,-0.00783579,-0.40841,0.00469024,0.0079935,1189,1765,-0.039222,-0.0593262
-28,-741,-0.0301514,0.0563965,-0.00362825,-0.00765614,-0.00160727,-0.00306552,-0.00821888,-0.336781,0.00479594,0.0114142,1196,1765,-0.0301987,-0.0564016
-21,-741,-0.0195313,0.0632324,-0.00433248,-0.00869246,-0.000786408,-0.00419497,-0.00882996,-0.173105,0.00510009,0.0151785,1203,1765,-0.0194959,-0.0632064
-14,-741,-0.0316162,0.0794678,-0.00484896,-0.00957717,-4.6816e-05,-0.0048485,-0.00957763,-0.00990014,0.00552979,0.0159572,1210,1765,-0.0316037,-0.0795062
-7,-741,-0.0264893,0.0675049,-0.00524538,-0.0103718,0.000543573,-0.00518837,-0.0104288,0.104485,0.00602112,0.0144804,1217,1765,-0.0264325,-0.0675408
0,-741,-0.0289307,0.052124,-0.00568028,-0.0106871,0.0011413,-0.0054324,-0.0109349,0.213875,0.00631334,0.013896,1224,1765,-0.0289508,-0.0521559
7,-741,-0.0327148,0.0562744,-0.00611181,-0.0112246,0.00144834,-0.00573004,-0.0116063,0.257733,0.00670111,0.0149047,1231,1765,-0.0327128,-0.0562166
14,-741,-0.02771,0.0733643,-0.00630837,-0.0115104,0.00179285,-0.00575034,-0.0120684,0.30175,0.00697028,0.013911,1238,1765,-0.0276586,-0.0733392
21,-741,-0.0343018,0.0626221,-0.00615124,-0.0115504,0.00165884,-0.0056823,-0.0120194,0.275498,0.00694281,0.0118572,1245,1765,-0.0342618,-0.0626383
28,-741,-0.0506592,0.0439453,-0.00582312,-0.0113936,0.0013014,-0.00553408,-0.0116826,0.218554,0.00674806,0.0127543,1252,1765,-0.0507021,-0.0439502
35,-741,-0.0350342,0.0327148,-0.00479645,-0.0107092,0.000569362,-0.00474212,-0.0107636,0.0951284,0.00622897,0.0142158,1259,1765,-0.0349992,-0.03269
42,-741,-0.0197754,0.052124,-0.00374271,-0.00896956,0.000139928,-0.00373897,-0.0089733,0.0267454,0.00520466,0.0136299,1266,1765,-0.0197277,-0.0521498
49,-741,-0.0351563,0.0627441,-0.00274332,-0.0076129,-0.000185014,-0.0027363,-0.00761992,-0.0379209,0.00445721,0.00961695,1273,1765,-0.03511,-0.062748
56,-741,-0.0445557,0.0616455,-0.00162364,-0.00589079,-0.000496126,-0.00156672,-0.00594771,-0.114236,0.00355974,0.0097701,1280,1765,-0.0445747,-0.0616732
63,-741,-0.0404053,0.0643311,-0.000369798,-0.00410682,-0.000612346,-0.000272018,-0.0042046,-0.158344,0.00271694,0.0135445,1287,1765,-0.0404369,-0.0643916
70,-741,-0.0511475,0.0559082,0.000943755,-0.00230807,-0.000337995,0.000978515,-0.00234283,-0.102481,0.00197077,0.0149367,1294,1765,-0.0511815,-0.0559545
77,-741,-0.0482178,0.0762939,0.00215928,-0.000985432,0.000169296,0.00216836,-0.00099452,0.0536285,0.00186754,0.0122216,1301,1765,-0.0482496,-0.0763065
84,-741,-0.0396729,0.0715332,0.00330776,0.000667387,0.000850909,0.00355822,0.000416925,0.286262,0.00224611,0.015222,1308,1765,-0.0397202,-0.071552
91,-741,-0.0406494,0.0760498,0.00419798,0.00176636,0.00137865,0.00482034,0.001144,0.42404,0.00290822,0.012523,1315,1765,-0.0406913,-0.0760182
98,-741,-0.0327148,0.0749512,0.0048771,0.00270221,0.00210522,0.00615914,0.00142016,0.546999,0.00372409,0.00984987,1322,1765,-0.0326892,-0.0749187
105,-741,-0.0245361,0.0684814,0.00531075,0.00331876,0.00283076,0.00731562,0.00131388,0.616239,0.00450347,0.00978116,1329,1765,-0.0245506,-0.0685185
112,-741,-0.0236816,0.0699463,0.00550551,0.00361012,0.00325924,0.00795204,0.00116359,0.643914,0.00495921,0.00945597,1336,1765,-0.0236741,-0.0698985
119,-741,-0.0344238,0.052124,0.00518521,0.00374604,0.00347898,0.00801825,0.000913003,0.683418,0.00506865,0.012768,1343,1765,-0.0344015,-0.052163
126,-741,-0.0360107,0.0290527,0.00457857,0.00330978,0.00374047,0.00773806,0.000150288,0.701396,0.00510935,0.0189798,1350,1765,-0.0359755,-0.0291006
133,-741,-0.0357666,0.0170898,0.00365248,0.00277094,0.00343578,0.00667565,-0.000252231,0.721603,0.00453685,0.0146367,1357,1765,-0.0357086,-0.0170582
140,-741,-0.0455322,0.0161133,0.00235683,0.00205074,0.00304998,0.0052576,-0.000850033,0.76033,0.00382007,0.0116077,1364,1765,-0.0455535,-0.0160712
147,-741,-0.0335693,0.0446777,0.00149922,0.000703052,0.00225337,0.00338939,-0.00118712,0.697969,0.00274233,0.010136,1371,1765,-0.0335492,-0.0447376
154,-741,-0.0230713,0.0803223,0.00086211,0.000530603,0.00155138,0.00225657,-0.000863856,0.732179,0.00186043,0.00802797,1378,1765,-0.0230993,-0.0802635
161,-741,-0.0290527,0.0804443,4.03469e-05,0.000252909,0.000915599,0.00106838,-0.000775119,0.843179,0.00106882,0.00933226,1385,1765,-0.0290888,-0.0804163
168,-741,-0.0437012,0.0739746,-0.00085583,-5.98295e-05,0.000393292,0.000101708,-0.00101737,1.18107,0.000714565,0.0133894,1392,1765,-0.0436689,-0.0739419
175,-741,-0.0466309,0.064209,-0.00135729,-0.000422261,-0.000304343,-0.000331928,-0.00144762,-1.28226,0.000875667,0.0143903,1399,1765,-0.0466406,-0.0642603
182,-741,-0.0249023,0.0533447,-0.00160277,-0.000546875,-0.00074746,-0.000159714,-0.00198993,-1.09288,0.00127672,0.0119001,1406,1765,-0.0248744,-0.0533801
189,-741,-0.043457,0.0498047,-0.00154762,-0.000663833,-0.00114501,0.000121593,-0.00233305,-0.969558,0.00159744,0.0147201,1413,1765,-0.0434042,-0.0498471
196,-741,-0.0791016,0.0527344,-0.00132477,-0.000218832,-0.00114899,0.000503331,-0.00204693,-1.00967,0.00155971,0.015386,1420,1765,-0.0791197,-0.0527327
203,-741,-0.0429688,0.0614014,-0.00123334,0.000248055,-0.00113071,0.000859073,-0.00184436,-1.07536,0.00159501,0.0136665,1427,1765,-0.0429748,-0.0613562
210,-741,-0.0275879,0.0661621,-0.000957122,0.000676825,-0.00102124,0.00116766,-0.00144796,-1.12276,0.00151302,0.016768,1434,1765,-0.0275799,-0.0661343
217,-741,-0.0472412,0.0727539,-0.000580536,0.00129274,-0.000799822,0.00158777,-0.000875566,-1.21741,0.00144189,0.0176147,1441,1765,-0.0471859,-0.0727563
224,-741,-0.0552979,0.06604,-0.000258358,0.00185452,-0.000516078,0.00197384,-0.000377674,-1.34359,0.00145818,0.0225255,1448,1765,-0.055321,-0.0660258
231,-741,-0.0343018,0.0389404,0.000110868,0.0025486,-0.000273454,0.0025789,8.05698e-05,-1.46045,0.00169305,0.0287881,1455,1765,-0.0343103,-0.0389568
238,-741,0.0328369,0.0125732,-0.000601531,0.00322325,-0.000182522,0.00323194,-0.000610221,-1.52322,0.00238421,0.0327864,1462,1765,0.0327923,-0.0126198
245,-741,0.0748291,0.00195313,-0.00186775,0.00409096,-0.000747081,0.0041832,-0.00195999,-1.44795,0.00362337,0.0377281,1469,1765,0.07482,-0.0019503
252,-741,-0.337646,-0.18689,-0.00406718,0.00482704,-0.00151796,0.00507897,-0.00431911,-1.40633,0.0054319,0.0386903,1476,1765,-0.337646,0.186945
259,-741,-0.261475,0.00366211,-0.00710414,0.00494331,-0.00260078,0.00548079,-0.00764161,-1.36701,0.00761038,0.0413179,1483,1765,-0.261532,-0.00363463
266,-741,-0.112427,-0.0721436,-0.010088,0.00511075,-0.00382324,0.0060183,-0.0109955,-1.33773,0.00996205,0.0436656,1490,1765,-0.112487,0.0721804
273,-741,0.4823,-0.0489502,0,0,0,0,0,0,0,-1,1497,1765,0.482318,0.0489308
280,-741,0.332153,-0.0327148,0,0,0,0,0,0,0,-1,1504,1765,0.332123,0.0327676
287,-741,0.268555,-0.0793457,0,0,0,0,0,0,0,-1,1511,1765,0.268526,0.0793598
294,-741,2.03564,0.55603,-0.0224887,0.00393278,-0.00904212,0.0067309,-0.0252868,-1.27069,0.0194928,0.0440087,1518,1765,2.0357,-0.556084
301,-741,1.60388,0.341187,-0.0242327,0.00294571,-0.0103499,0.00643826,-0.0277252,-1.24535,0.0209618,0.0452577,1525,1765,1.60393,-0.341162
308,-741,1.23926,-0.163452,-0.0248631,0.00224213,-0.0119083,0.00673063,-0.0293516,-1.21034,0.0221547,0.0429619,1532,1765,1.23923,0.16347
315,-741,1.10315,-0.585693,0,0,0,0,0,0,0,-1,1539,1765,1.10313,0.585741
322,-741,0.770142,-0.193237,-0.0229414,0.00141324,-0.0140452,0.00782501,-0.0293532,-1.14254,0.0226326,0.0449022,1546,1765,0.770084,0.193227
329,-741,0.794556,-0.290283,-0.020745,0.00269168,-0.0139356,0.00918101,-0.0272344,-1.13499,0.0218687,0.0419611,1553,1765,0.794597,0.290238
336,-741,0.784668,-0.46167,-0.0190899,0.00480274,-0.0122416,0.00996113,-0.0242483,-1.17199,0.0203169,0.0429102,1560,1765,0.784647,0.461649
343,-741,0.836304,-0.425659,-0.0157572,0.0069582,-0.0103605,0.0109738,-0.0197728,-1.20104,0.0179922,0.0443272,1567,1765,0.836267,0.425711
350,-741,0.966431,-0.0656738,0,0,0,0,0,0,0,-1,1574,1765,0.966432,0.0656316
357,-741,4.79004,1.20508,0,0,0,0,0,0,0,-1,1581,1765,4.79008,-1.20509
364,-741,0,0,0,0,0,0,0,0,0,-1,1588,1765,0,0
371,-741,0,0,0,0,0,0,0,0,0,-1,1595,1765,0,0
378,-741,0,0,0,0,0,0,0,0,0,-1,1602,1765,0,0
385,-741,0,0,0,0,0,0,0,0,0,-1,1609,1765,0,0
392,-741,0,0,0,0,0,0,0,0,0,-1,1616,1765,0,0
399,-741,0,0,0,0,0,0,0,0,0,-1,1623,1765,0,0
406,-741,0,0,0,0,0,0,0,0,0,-1,1630,1765,0,0
413,-741,0,0,0,0,0,0,0,0,0,-1,1637,1765,0,0
420,-741,0,0,0,0,0,0,0,0,0,-1,1644,1765,0,0
427,-741,0,0,0,0,0,0,0,0,0,-1,1651,1765,0,0
434,-741,0,0,0,0,0,0,0,0,0,-1,1658,1765,0,0
441,-741,0,0,0,0,0,0,0,0,0,-1,1665,1765,0,0
448,-741,0,0,0,0,0,0,0,0,0,-1,1672,1765,0,0
455,-741,0,0,0,0,0,0,0,0,0,-1,1679,1765,0,0
462,-741,0,0,0,0,0,0,0,0,0,-1,1686,1765,0,0
469,-741,0,0,0,0,0,0,0,0,0,-1,1693,1765,0,0
476,-741,0,0,0,0,0,0,0,0,0,-1,1700,1765,0,0
483,-741,0,0,0,0,0,0,0,0,0,-1,1707,1765,0,0
490,-741,0,0,0,0,0,0,0,0,0,-1,1714,1765,0,0
497,-741,0,0,0,0,0,0,0,0,0,-1,1721,1765,0,0
504,-741,0,0,0,0,0,0,0,0,0,-1,1728,1765,0,0
511,-741,0,0,0,0,0,0,0,0,0,-1,1735,1765,0,0
518,-741,0,0,0,0,0,0,0,0,0,-1,1742,1765,0,0
525,-741,0,0,0,0,0,0,0,0,0,-1,1749,1765,0,0
532,-741,0,0,0,0,0,0,0,0,0,-1,1756,1765,0,0
539,-741,0,0,0,0,0,0,0,0,0,-1,1763,1765,0,0
546,-741,0,0,0,0,0,0,0,0,0,-1,1770,1765,0,0
553,-741,0,0,0,0,0,0,0,0,0,-1,1777,1765,0,0
560,-741,0,0,0,0,0,0,0,0,0,-1,1784,1765,0,0
567,-741,0,0,0,0,0,0,0,0,0,-1,1791,1765,0,0
574,-741,0,0,0,0,0,0,0,0,0,-1,1798,1765,0,0
581,-741,0,0,0,0,0,0,0,0,0,-1,1805,1765,0,0
588,-741,0,0,0,0,0,0,0,0,0,-1,1812,1765,0,0
595,-741,0,0,0,0,0,0,0,0,0,-1,1819,1765,0,0
602,-741,0,0,0,0,0,0,0,0,0,-1,1826,1765,0,0
609,-741,0,0,0,0,0,0,0,0,0,-1,1833,1765,0,0
616,-741,0,0,0,0,0,0,0,0,0,-1,1840,1765,0,0
623,-741,0,0,0,0,0,0,0,0,0,-1,1847,1765,0,0
630,-741,0,0,0,0,0,0,0,0,0,-1,1854,1765,0,0
637,-741,0,0,0,0,0,0,0,0,0,-1,1861,1765,0,0
644,-741,0,0,0,0,0,0,0,0,0,-1,1868,1765,0,0
651,-741,0,0,0,0,0,0,0,0,0,-1,1875,1765,0,0
658,-741,0,0,0,0,0,0,0,0,0,-1,1882,1765,0,0
665,-741,0,0,0,0,0,0,0,0,0,-1,1889,1765,0,0
672,-741,0,0,0,0,0,0,0,0,0,-1,1896,1765,0,0
679,-741,0,0,0,0,0,0,0,0,0,-1,1903,1765,0,0
686,-741,0,0,0,0,0,0,0,0,0,-1,1910,1765,0,0
693,-741,0,0,0,0,0,0,0,0,0,-1,1917,1765,0,0
700,-741,0,0,0,0,0,0,0,0,0,-1,1924,1765,0,0
707,-741,0,0,0,0,0,0,0,0,0,-1,1931,1765,0,0
714,-741,0,0,0,0,0,0,0,0,0,-1,1938,1765,0,0
721,-741,0,0,0,0,0,0,0,0,0,-1,1945,1765,0,0
728,-741,0,0,0,0,0,0,0,0,0,-1,1952,1765,0,0
735,-741,0,0,0,0,0,0,0,0,0,-1,1959,1765,0,0
742,-741,0,0,0,0,0,0,0,0,0,-1,1966,1765,0,0
749,-741,0,0,0,0,0,0,0,0,0,-1,1973,1765,0,0
756,-741,0,0,0,0,0,0,0,0,0,-1,1980,1765,0,0
763,-741,0,0,0,0,0,0,0,0,0,-1,1987,1765,0,0
770,-741,0,0,0,0,0,0,0,0,0,-1,1994,1765,0,0
777,-741,0,0,0,0,0,0,0,0,0,-1,2001,1765,0,0
784,-741,0,0,0,0,0,0,0,0,0,-1,2008,1765,0,0
791,-741,0,0,0,0,0,0,0,0,0,-1,2015,1765,0,0
798,-741,0,0,0,0,0,0,0,0,0,-1,2022,1765,0,0
805,-741,0,0,0,0,0,0,0,0,0,-1,2029,1765,0,0
812,-741,0,0,0,0,0,0,0,0,0,-1,2036,1765,0,0
-700,-748,0,0,0,0,0,0,0,0,0,-1,524,1772,0,0
-693,-748,0,0,0,0,0,0,0,0,0,-1,531,1772,0,0
-686,-748,0,0,0,0,0,0,0,0,0,-1,538,1772,0,0
-679,-748,0,0,0,0,0,0,0,0,0,-1,545,1772,0,0
-672,-748,0,0,0,0,0,0,0,0,0,-1,552,1772,0,0
-665,-748,0,0,0,0,0,0,0,0,0,-1,559,1772,0,0
-658,-748,0,0,0,0,0,0,0,0,0,-1,566,1772,0,0
-651,-748,0,0,0,0,0,0,0,0,0,-1,573,1772,0,0
-644,-748,0,0,0,0,0,0,0,0,0,-1,580,1772,0,0
-637,-748,0,0,0,0,0,0,0,0,0,-1,587,1772,0,0
-630,-748,0,0,0,0,0,0,0,0,0,-1,594,1772,0,0
-623,-748,0,0,0,0,0,0,0,0,0,-1,601,1772,0,0
-616,-748,0,0,0,0,0,0,0,0,0,-1,608,1772,0,0
-609,-748,0,0,0,0,0,0,0,0,0,-1,615,1772,0,0
-602,-748,0,0,0,0,0,0,0,0,0,-1,622,1772,0,0
-595,-748,0,0,0,0,0,0,0,0,0,-1,629,1772,0,0
-588,-748,0,0,0,0,0,0,0,0,0,-1,636,1772,0,0
-581,-748,0,0,0,0,0,0,0,0,0,-1,643,1772,0,0
-574,-748,0,0,0,0,0,0,0,0,0,-1,650,1772,0,0
-567,-748,0,0,0,0,0,0,0,0,0,-1,657,1772,0,0
-560,-748,0,0,0,0,0,0,0,0,0,-1,664,1772,0,0
-553,-748,0,0,0,0,0,0,0,0,0,-1,671,1772,0,0
-546,-748,0,0,0,0,0,0,0,0,0,-1,678,1772,0,0
-539,-748,0,0,0,0,0,0,0,0,0,-1,685,1772,0,0
-532,-748,0,0,0,0,0,0,0,0,0,-1,692,1772,0,0
-525,-748,0,0,0,0,0,0,0,0,0,-1,699,1772,0,0
-518,-748,0,0,0,0,0,0,0,0,0,-1,706,1772,0,0
-511,-748,0,0,0,0,0,0,0,0,0,-1,713,1772,0,0
-504,-748,0,0,0,0,0,0,0,0,0,-1,720,1772,0,0
-497,-748,0,0,0,0,0,0,0,0,0,-1,727,1772,0,0
-490,-748,0,0,0,0,0,0,0,0,0,-1,734,1772,0,0
-483,-748,0,0,0,0,0,0,0,0,0,-1,741,1772,0,0
-476,-748,0,0,0,0,0,0,0,0,0,-1,748,1772,0,0
-469,-748,0,0,0,0,0,0,0,0,0,-1,755,1772,0,0
-462,-748,0,0,0,0,0,0,0,0,0,-1,762,1772,0,0
-455,-748,0,0,0,0,0,0,0,0,0,-1,769,1772,0,0
-448,-748,0,0,0,0,0,0,0,0,0,-1,776,1772,0,0
-441,-748,0,0,0,0,0,0,0,0,0,-1,783,1772,0,0
-434,-748,0,0,0,0,0,0,0,0,0,-1,790,1772,0,0
-427,-748,0,0,0,0,0,0,0,0,0,-1,797,1772,0,0
-420,-748,0,0,0,0,0,0,0,0,0,-1,804,1772,0,0
-413,-748,0,0,0,0,0,0,0,0,0,-1,811,1772,0,0
-406,-748,0,0,0,0,0,0,0,0,0,-1,818,1772,0,0
-399,-748,0,0,0,0,0,0,0,0,0,-1,825,1772,0,0
-392,-748,0,0,0,0,0,0,0,0,0,-1,832,1772,0,0
-385,-748,0,0,0,0,0,0,0,0,0,-1,839,1772,0,0
-378,-748,0,0,0,0,0,0,0,0,0,-1,846,1772,0,0
-371,-748,0,0,0,0,0,0,0,0,0,-1,853,1772,0,0
-364,-748,0,0,0,0,0,0,0,0,0,-1,860,1772,0,0
-357,-748,0,0,0,0,0,0,0,0,0,-1,867,1772,0,0
-350,-748,0,0,0,0,0,0,0,0,0,-1,874,1772,0,0
-343,-748,0,0,0,0,0,0,0,0,0,-1,881,1772,0,0
-336,-748,0,0,0,0,0,0,0,0,0,-1,888,1772,0,0
-329,-748,0,0,0,0,0,0,0,0,0,-1,895,1772,0,0
-322,-748,0,0,0,0,0,0,0,0,0,-1,902,1772,0,0
-315,-748,0,0,0,0,0,0,0,0,0,-1,909,1772,0,0
-308,-748,0,0,0,0,0,0,0,0,0,-1,916,1772,0,0
-301,-748,0,0,0,0,0,0,0,0,0,-1,923,1772,0,0
-294,-748,0,0,0,0,0,0,0,0,0,-1,930,1772,0,0
-287,-748,0,0,0,0,0,0,0,0,0,-1,937,1772,0,0
-280,-748,0,0,0,0,0,0,0,0,0,-1,944,1772,0,0
-273,-748,0,0,0,0,0,0,0,0,0,-1,951,1772,0,0
-266,-748,0,0,0,0,0,0,0,0,0,-1,958,1772,0,0
-259,-748,0,0,0,0,0,0,0,0,0,-1,965,1772,0,0
-252,-748,0,0,0,0,0,0,0,0,0,-1,972,1772,0,0
-245,-748,0,0,0,0,0,0,0,0,0,-1,979,1772,0,0
-238,-748,0,0,0,0,0,0,0,0,0,-1,986,1772,0,0
-231,-748,0,0,0,0,0,0,0,0,0,-1,993,1772,0,0
-224,-748,0,0,0,0,0,0,0,0,0,-1,1000,1772,0,0
-217,-748,-0.146912,-0.140625,0,0,0,0,0,0,0,-1,1007,1772,-0.146912,0.140602
-210,-748,-0.388367,-0.387207,0,0,0,0,0,0,0,-1,1014,1772,-0.388391,0.387243
-203,-748,0.258179,-0.459595,0,0,0,0,0,0,0,-1,1021,1772,0.258202,0.459624
-196,-748,0.0112305,-0.496094,0,0,0,0,0,0,0,-1,1028,1772,0.0112833,0.496093
-189,-748,0.0825195,-0.275024,0,0,0,0,0,0,0,-1,1035,1772,0.082549,0.274989
-182,-748,-0.0471191,-0.197266,-0.000751173,0.0254803,0.00550683,0.0265895,-0.00186033,1.37204,0.0183778,0.0467874,1042,1772,-0.0470808,0.197224
-175,-748,0.264038,0.032959,0.000111012,0.0236061,0.00402531,0.0242766,-0.000559489,1.40574,0.0163741,0.0446086,1049,1772,0.264024,-0.0329119
-168,-748,0.501953,0.0704346,0.000579346,0.0208361,0.00142295,0.0209356,0.000479879,1.50101,0.0137999,0.0437478,1056,1772,0.501896,-0.0704399
-161,-748,0.368408,0.235718,0.000404876,0.0159537,-0.00133527,0.0160675,0.000291041,-1.48575,0.010616,0.0435243,1063,1772,0.368388,-0.235714
-154,-748,0.858521,0.175171,0,0,0,0,0,0,0,-1,1070,1772,0.858539,-0.175164
-147,-748,0.68689,0.248535,0,0,0,0,0,0,0,-1,1077,1772,0.68688,-0.248572
-140,-748,0.544189,0.335693,0,0,0,0,0,0,0,-1,1084,1772,0.544206,-0.335749
-133,-748,0.41626,0.4198,-0.00152877,-0.00268043,-0.00857104,0.00648576,-0.010695,-0.751857,0.010018,0.0430411,1091,1772,0.416289,-0.419844
-126,-748,0.305054,0.476318,-0.00197337,-0.00506145,-0.0089545,0.00556924,-0.0126041,-0.700022,0.0107512,0.040099,1098,1772,0.305046,-0.476357
-119,-748,0.470703,0.898804,0,0,0,0,0,0,0,-1,1105,1772,0.47066,-0.898789
-112,-748,0.325806,0.988647,-0.00412088,-0.00881254,-0.00850424,0.00235514,-0.0152886,-0.650823,0.0110613,0.039512,1112,1772,0.325772,-0.988692
-105,-748,0.140625,0.0845947,-0.00453865,-0.00946157,-0.00809327,0.0014592,-0.0154594,-0.637774,0.0108255,0.0426723,1119,1772,0.140574,-0.0846519
-98,-748,0.177368,0.0756836,-0.00465542,-0.00933914,-0.0066262,3.05804e-05,-0.0140251,-0.615537,0.0093603,0.0426452,1126,1772,0.177312,-0.0756273
-91,-748,0.203369,0.092041,-0.00433947,-0.00821828,-0.00569499,-0.000262714,-0.012295,-0.621284,0.00811054,0.0429203,1133,1772,0.203334,-0.0920407
-84,-748,-0.0449219,0.260498,-0.00391228,-0.00715408,-0.00521002,-7.68425e-05,-0.0109895,-0.634588,0.00730087,0.041096,1140,1772,-0.0448893,-0.260522
-77,-748,0.259766,0.09729,-0.00353487,-0.00643224,-0.00479954,2.98549e-05,-0.00999696,-0.638827,0.00667462,0.03767,1147,1772,0.259745,-0.0972334
-70,-748,0.325195,0.059082,-0.00316535,-0.00593205,-0.00452656,0.000184523,-0.00928193,-0.637101,0.00625037,0.0368469,1154,1772,0.325158,-0.0590771
-63,-748,0.0620117,0.115479,-0.00297792,-0.0057286,-0.00425276,0.000116358,-0.00882288,-0.629007,0.00592109,0.0391759,1161,1772,0.0620324,-0.115454
-56,-748,0.052124,0.113403,-0.00297672,-0.0056245,-0.00390432,-0.000177941,-0.00842328,-0.62194,0.00555716,0.0376385,1168,1772,0.0520926,-0.113404
-49,-748,-0.064209,0.0369873,-0.00332101,-0.00617942,-0.00342677,-0.00103734,-0.00846308,-0.587831,0.00533003,0.0330384,1175,1772,-0.0641561,-0.036954
-42,-748,0.0151367,0.0450439,-0.00422391,-0.00787923,-0.00296021,-0.00257261,-0.00953053,-0.508837,0.00569331,0.0213015,1182,1772,0.0151537,-0.0450145
-35,-748,-0.0180664,0.078125,-0.00547214,-0.00979888,-0.00244267,-0.00437256,-0.0108985,-0.422982,0.00633303,0.012973,1189,1772,-0.0180873,-0.0781066
-28,-748,-0.0529785,0.079834,-0.00672696,-0.011072,-0.00177585,-0.0060935,-0.0117054,-0.342635,0.00676005,0.0109357,1196,1772,-0.0530312,-0.0797949
-21,-748,-0.0449219,0.0871582,-0.00797312,-0.0127243,-0.000692657,-0.0078742,-0.0128232,-0.141855,0.0074674,0.0155601,1203,1772,-0.0449657,-0.0871843
-14,-748,-0.043457,0.0738525,-0.0088275,-0.0141738,0.000199754,-0.00882005,-0.0141812,0.037294,0.00826831,0.0153191,1210,1772,-0.0434791,-0.0738617
-7,-748,-0.0523682,0.0582275,-0.00944742,-0.0151797,0.000868066,-0.00931885,-0.0153083,0.147043,0.00890765,0.0150182,1217,1772,-0.0523769,-0.0581912
0,-748,-0.0465088,0.0537109,-0.0100694,-0.0156577,0.00158135,-0.00965299,-0.0160741,0.257506,0.00934273,0.014698,1224,1772,-0.0465053,-0.0537044
7,-748,-0.0410156,0.0565186,-0.0106005,-0.0162891,0.00188624,-0.0100319,-0.0168577,0.292785,0.00979131,0.0136632,1231,1772,-0.041056,-0.0564713
14,-748,-0.0350342,0.0628662,-0.0107387,-0.0165835,0.00223889,-0.00997968,-0.0173426,0.326866,0.0100507,0.0144509,1238,1772,-0.035077,-0.0628663
21,-748,-0.0391846,0.0571289,-0.010406,-0.0164911,0.00191819,-0.00985185,-0.0170453,0.281259,0.0098809,0.0112082,1245,1772,-0.0391464,-0.0571507
28,-748,-0.0449219,0.0455322,-0.0098315,-0.0161236,0.00130173,-0.00957283,-0.0163823,0.196158,0.00950306,0.0118066,1252,1772,-0.044913,-0.0455199
35,-748,-0.0194092,0.0465088,-0.00821279,-0.0150097,0.000211826,-0.00820619,-0.0150163,0.0311247,0.00868216,0.0126316,1259,1772,-0.0194125,-0.0464836
42,-748,0.00012207,0.0654297,-0.00648589,-0.0126446,-0.000397386,-0.00646036,-0.0126701,-0.0641696,0.00731558,0.012918,1266,1772,0.00014997,-0.0654846
49,-748,-0.0205078,0.0622559,-0.00477994,-0.0108345,-0.000809955,-0.00467346,-0.010941,-0.130715,0.00633908,0.0103525,1273,1772,-0.0205686,-0.0622252
56,-748,-0.0412598,0.0625,-0.00291416,-0.00852871,-0.00113703,-0.00269263,-0.00875024,-0.192417,0.00517497,0.010309,1280,1772,-0.0412355,-0.062476
63,-748,-0.0437012,0.0583496,-0.00076399,-0.00641075,-0.00119104,-0.000523052,-0.00665169,-0.199599,0.0042708,0.011752,1287,1772,-0.0436666,-0.0583967
70,-748,-0.0406494,0.0561523,0.00140807,-0.00421219,-0.000682484,0.00148976,-0.00429388,-0.119126,0.00346754,0.0128897,1294,1772,-0.040623,-0.0561664
77,-748,-0.0435791,0.0596924,0.00337182,-0.00275968,0.000186274,0.00337747,-0.00276533,0.0303425,0.00355241,0.011515,1301,1772,-0.0436388,-0.0596682
84,-748,-0.0587158,0.081543,0.00526483,-0.000872386,0.00126954,0.00551708,-0.00112464,0.196139,0.00410461,0.0133554,1308,1772,-0.0587524,-0.0815481
91,-748,-0.0541992,0.0823975,0.00678173,0.000362295,0.00220766,0.00746766,-0.000323634,0.301248,0.00508975,0.0107784,1315,1772,-0.0541734,-0.0823441
98,-748,-0.0510254,0.0725098,0.00798421,0.00127026,0.00332843,0.00935457,-0.000100103,0.390565,0.00627002,0.0100651,1322,1772,-0.0510474,-0.0724547
105,-748,-0.0487061,0.0670166,0.00881604,0.00205372,0.00436635,0.0109573,-8.75518e-05,0.455941,0.00733423,0.0109775,1329,1772,-0.0486691,-0.067075
112,-748,-0.0275879,0.0628662,0.00919026,0.00247685,0.00499031,0.0118478,-0.000180655,0.489333,0.00795941,0.0126251,1336,1772,-0.0275704,-0.0628994
119,-748,-0.0302734,0.050415,0.0086362,0.0027556,0.00529617,0.0117535,-0.000361716,0.531994,0.00795899,0.0119928,1343,1772,-0.0303224,-0.0503819
126,-748,-0.0250244,0.0355225,0.00767104,0.00233074,0.00565332,0.0112531,-0.00125129,0.56477,0.00795202,0.0146276,1350,1772,-0.0250321,-0.0354656
133,-748,-0.0479736,0.0565186,0.00614677,0.00185706,0.00515275,0.00958325,-0.00157941,0.588179,0.00697516,0.00891386,1357,1772,-0.0480087,-0.0565774
140,-748,-0.041626,0.0522461,0.00416461,0.00112583,0.00455183,0.00744394,-0.0021535,0.624314,0.00581493,0.0119895,1364,1772,-0.0416643,-0.0522985
147,-748,0.00354004,0.0528564,0.00277471,-0.000499671,0.00334073,0.00485785,-0.00258281,0.557562,0.00436229,0.0129998,1371,1772,0.00353716,-0.0528655
154,-748,-0.00476074,0.06604,0.00163859,-0.000517081,0.00227717,0.00308013,-0.00195862,0.564359,0.00293304,0.0109903,1378,1772,-0.00476842,-0.0659802
161,-748,-0.0157471,0.0716553,0.000282831,-0.000757591,0.00132938,0.00119016,-0.00166492,0.598899,0.00165596,0.0116604,1385,1772,-0.0157767,-0.0717141
168,-748,-0.0108643,0.0515137,-0.00109583,-0.000898197,0.000572975,-0.000415581,-0.00157845,0.87079,0.000944748,0.0142013,1392,1772,-0.0108733,-0.0515046
175,-748,-0.052124,0.0307617,-0.00180997,-0.00148051,-0.00045283,-0.00116338,-0.0021271,-0.959845,0.00122988,0.0164327,1399,1772,-0.0521375,-0.0308206
182,-748,-0.0665283,0.0578613,-0.00218717,-0.00173683,-0.00110861,-0.000830753,-0.00309325,-0.885589,0.00184856,0.0237726,1406,1772,-0.0664786,-0.0578356
189,-748,-0.100464,0.0496826,-0.00215155,-0.00198234,-0.00168495,-0.000379877,-0.00375402,-0.810484,0.00238615,0.0281434,1413,1772,-0.100517,-0.0496963
196,-748,-0.188354,-0.0354004,-0.00184208,-0.001413,-0.00171468,0.000100511,-0.00335559,-0.847634,0.00227131,0.0290886,1420,1772,-0.188393,0.0354135
203,-748,-0.0725098,-0.00183105,-0.00171516,-0.000810884,-0.00170695,0.000502792,-0.00302884,-0.914866,0.00220601,0.0305197,1427,1772,-0.0725485,0.00180996
210,-748,0.154541,0.0167236,-0.00137914,-0.00024503,-0.00159871,0.000884214,-0.00250838,-0.955824,0.00203216,0.0328572,1434,1772,0.154552,-0.0167311
217,-748,0.0401611,-0.026001,-0.000934651,0.000526294,-0.00133158,0.00131461,-0.00172296,-1.03627,0.00175902,0.0340134,1441,1772,0.0402143,0.0259938
224,-748,-0.0987549,-0.0935059,-0.00056836,0.00124725,-0.000934994,0.00164264,-0.000963752,-1.17072,0.00152172,0.036223,1448,1772,-0.0986941,0.0935551
231,-748,-0.050415,-0.120483,-0.000161923,0.00214378,-0.00056433,0.00227449,-0.000292635,-1.34319,0.00162269,0.0365164,1455,1772,-0.0503833,0.120429
238,-748,0.137573,-0.0983887,-0.00111023,0.00296786,-0.000338393,0.00299575,-0.00113812,-1.48857,0.00246571,0.0396643,1462,1772,0.137533,0.09835
245,-748,0.167358,-0.0500488,-0.00288271,0.00407695,-0.000790588,0.00416563,-0.00297139,-1.4591,0.00413974,0.0435189,1469,1772,0.167301,0.0500135
252,-748,-0.64209,-0.388184,0,0,0,0,0,0,0,-1,1476,1772,-0.642088,0.388144
259,-748,-0.212646,-0.557983,0,0,0,0,0,0,0,-1,1483,1772,-0.212686,0.557999
266,-748,0.0447998,-0.280518,0,0,0,0,0,0,0,-1,1490,1772,0.0447661,0.280508
273,-748,-0.401978,-0.666016,0,0,0,0,0,0,0,-1,1497,1772,-0.401945,0.666017
280,-748,0.333618,0.0616455,0,0,0,0,0,0,0,-1,1504,1772,0.33366,-0.061602
287,-748,3.08801,0.273071,-0.0262315,0.00438218,-0.00607602,0.00554402,-0.0273933,-1.38186,0.0203634,0.0438218,1511,1772,3.08797,-0.273083
294,-748,2.21936,0.153076,-0.0302338,0.00399822,-0.00715987,0.00543542,-0.031671,-1.3727,0.0231396,0.044051,1518,1772,2.2194,-0.153078
301,-748,1.4801,0.165771,-0.0326362,0.00258787,-0.00802628,0.00433054,-0.0343789,-1.35699,0.0244907,0.0444034,1525,1772,1.48006,-0.165743
308,-748,1.04199,-0.133789,-0.0335831,0.00105648,-0.00921959,0.00335749,-0.0358841,-1.32621,0.0251168,0.0450152,1532,1772,1.04201,0.133849
315,-748,0.505249,-0.353027,-0.0332394,-0.000632783,-0.0104404,0.00242367,-0.0362959,-1.286,0.0250443,0.0447361,1539,1772,0.505284,0.352981
322,-748,0.490234,0.0402832,-0.0310471,-0.0019518,-0.011103,0.00180114,-0.0348,-1.24484,0.0238231,0.0451624,1546,1772,0.49018,-0.0402373
329,-748,0.596802,-0.00183105,-0.0277139,-0.00172752,-0.0110261,0.00232035,-0.0317617,-1.21895,0.0219888,0.042077,1553,1772,0.596823,0.00182214
336,-748,0.819946,-0.212891,-0.0245022,-0.00026206,-0.00893464,0.00267523,-0.0274395,-1.25317,0.0192468,0.0428051,1560,1772,0.819895,0.212861
343,-748,0,0,0,0,0,0,0,0,0,-1,1567,1772,0,0
350,-748,0,0,0,0,0,0,0,0,0,-1,1574,1772,0,0
357,-748,0,0,0,0,0,0,0,0,0,-1,1581,1772,0,0
364,-748,0,0,0,0,0,0,0,0,0,-1,1588,1772,0,0
371,-748,0,0,0,0,0,0,0,0,0,-1,1595,1772,0,0
378,-748,0,0,0,0,0,0,0,0,0,-1,1602,1772,0,0
385,-748,0,0,0,0,0,0,0,0,0,-1,1609,1772,0,0
392,-748,0,0,0,0,0,0,0,0,0,-1,1616,1772,0,0
399,-748,0,0,0,0,0,0,0,0,0,-1,1623,1772,0,0
406,-748,0,0,0,0,0,0,0,0,0,-1,1630,1772,0,0
413,-748,0,0,0,0,0,0,0,0,0,-1,1637,1772,0,0
420,-748,0,0,0,0,0,0,0,0,0,-1,1644,1772,0,0
427,-748,0,0,0,0,0,0,0,0,0,-1,1651,1772,0,0
434,-748,0,0,0,0,0,0,0,0,0,-1,1658,1772,0,0
441,-748,0,0,0,0,0,0,0,0,0,-1,1665,1772,0,0
448,-748,0,0,0,0,0,0,0,0,0,-1,1672,1772,0,0
455,-748,0,0,0,0,0,0,0,0,0,-1,1679,1772,0,0
462,-748,0,0,0,0,0,0,0,0,0,-1,1686,1772,0,0
469,-748,0,0,0,0,0,0,0,0,0,-1,1693,1772,0,0
476,-748,0,0,0,0,0,0,0,0,0,-1,1700,1772,0,0
483,-748,0,0,0,0,0,0,0,0,0,-1,1707,1772,0,0
490,-748,0,0,0,0,0,0,0,0,0,-1,1714,1772,0,0
497,-748,0,0,0,0,0,0,0,0,0,-1,1721,1772,0,0
504,-748,0,0,0,0,0,0,0,0,0,-1,1728,1772,0,0
511,-748,0,0,0,0,0,0,0,0,0,-1,1735,1772,0,0
518,-748,0,0,0,0,0,0,0,0,0,-1,1742,1772,0,0
525,-748,0,0,0,0,0,0,0,0,0,-1,1749,1772,0,0
532,-748,0,0,0,0,0,0,0,0,0,-1,1756,1772,0,0
539,-748,0,0,0,0,0,0,0,0,0,-1,1763,1772,0,0
546,-748,0,0,0,0,0,0,0,0,0,-1,1770,1772,0,0
553,-748,0,0,0,0,0,0,0,0,0,-1,1777,1772,0,0
560,-748,0,0,0,0,0,0,0,0,0,-1,1784,1772,0,0
567,-748,0,0,0,0,0,0,0,0,0,-1,1791,1772,0,0
574,-748,0,0,0,0,0,0,0,0,0,-1,1798,1772,0,0
581,-748,0,0,0,0,0,0,0,0,0,-1,1805,1772,0,0
588,-748,0,0,0,0,0,0,0,0,0,-1,1812,1772,0,0
595,-748,0,0,0,0,0,0,0,0,0,-1,1819,1772,0,0
602,-748,0,0,0,0,0,0,0,0,0,-1,1826,1772,0,0
609,-748,0,0,0,0,0,0,0,0,0,-1,1833,1772,0,0
616,-748,0,0,0,0,0,0,0,0,0,-1,1840,1772,0,0
623,-748,0,0,0,0,0,0,0,0,0,-1,1847,1772,0,0
630,-748,0,0,0,0,0,0,0,0,0,-1,1854,1772,0,0
637,-748,0,0,0,0,0,0,0,0,0,-1,1861,1772,0,0
644,-748,0,0,0,0,0,0,0,0,0,-1,1868,1772,0,0
651,-748,0,0,0,0,0,0,0,0,0,-1,1875,1772,0,0
658,-748,0,0,0,0,0,0,0,0,0,-1,1882,1772,0,0
665,-748,0,0,0,0,0,0,0,0,0,-1,1889,1772,0,0
672,-748,0,0,0,0,0,0,0,0,0,-1,1896,1772,0,0
679,-748,0,0,0,0,0,0,0,0,0,-1,1903,1772,0,0
686,-748,0,0,0,0,0,0,0,0,0,-1,1910,1772,0,0
693,-748,0,0,0,0,0,0,0,0,0,-1,1917,1772,0,0
700,-748,0,0,0,0,0,0,0,0,0,-1,1924,1772,0,0
707,-748,0,0,0,0,0,0,0,0,0,-1,1931,1772,0,0
714,-748,0,0,0,0,0,0,0,0,0,-1,1938,1772,0,0
721,-748,0,0,0,0,0,0,0,0,0,-1,1945,1772,0,0
728,-748,0,0,0,0,0,0,0,0,0,-1,1952,1772,0,0
735,-748,0,0,0,0,0,0,0,0,0,-1,1959,1772,0,0
742,-748,0,0,0,0,0,0,0,0,0,-1,1966,1772,0,0
749,-748,0,0,0,0,0,0,0,0,0,-1,1973,1772,0,0
756,-748,0,0,0,0,0,0,0,0,0,-1,1980,1772,0,0
763,-748,0,0,0,0,0,0,0,0,0,-1,1987,1772,0,0
770,-748,0,0,0,0,0,0,0,0,0,-1,1994,1772,0,0
777,-748,0,0,0,0,0,0,0,0,0,-1,2001,1772,0,0
784,-748,0,0,0,0,0,0,0,0,0,-1,2008,1772,0,0
791,-748,0,0,0,0,0,0,0,0,0,-1,2015,1772,0,0
798,-748,0,0,0,0,0,0,0,0,0,-1,2022,1772,0,0
805,-748,0,0,0,0,0,0,0,0,0,-1,2029,1772,0,0
812,-748,0,0,0,0,0,0,0,0,0,-1,2036,1772,0,0
-700,-755,0,0,0,0,0,0,0,0,0,-1,524,1779,0,0
-693,-755,0,0,0,0,0,0,0,0,0,-1,531,1779,0,0
-686,-755,0,0,0,0,0,0,0,0,0,-1,538,1779,0,0
-679,-755,0,0,0,0,0,0,0,0,0,-1,545,1779,0,0
-672,-755,0,0,0,0,0,0,0,0,0,-1,552,1779,0,0
-665,-755,0,0,0,0,0,0,0,0,0,-1,559,1779,0,0
-658,-755,0,0,0,0,0,0,0,0,0,-1,566,1779,0,0
-651,-755,0,0,0,0,0,0,0,0,0,-1,573,1779,0,0
-644,-755,0,0,0,0,0,0,0,0,0,-1,580,1779,0,0
-637,-755,0,0,0,0,0,0,0,0,0,-1,587,1779,0,0
-630,-755,0,0,0,0,0,0,0,0,0,-1,594,1779,0,0
-623,-755,0,0,0,0,0,0,0,0,0,-1,601,1779,0,0
-616,-755,0,0,0,0,0,0,0,0,0,-1,608,1779,0,0
-609,-755,0,0,0,0,0,0,0,0,0,-1,615,1779,0,0
-602,-755,0,0,0,0,0,0,0,0,0,-1,622,1779,0,0
-595,-755,0,0,0,0,0,0,0,0,0,-1,629,1779,0,0
-588,-755,0,0,0,0,0,0,0,0,0,-1,636,1779,0,0
-581,-755,0,0,0,0,0,0,0,0,0,-1,643,1779,0,0
-574,-755,0,0,0,0,0,0,0,0,0,-1,650,1779,0,0
-567,-755,0,0,0,0,0,0,0,0,0,-1,657,1779,0,0
-560,-755,0,0,0,0,0,0,0,0,0,-1,664,1779,0,0
-553,-755,0,0,0,0,0,0,0,0,0,-1,671,1779,0,0
-546,-755,0,0,0,0,0,0,0,0,0,-1,678,1779,0,0
-539,-755,0,0,0,0,0,0,0,0,0,-1,685,1779,0,0
-532,-755,0,0,0,0,0,0,0,0,0,-1,692,1779,0,0
-525,-755,0,0,0,0,0,0,0,0,0,-1,699,1779,0,0
-518,-755,0,0,0,0,0,0,0,0,0,-1,706,1779,0,0
-511,-755,0,0,0,0,0,0,0,0,0,-1,713,1779,0,0
-504,-755,0,0,0,0,0,0,0,0,0,-1,720,1779,0,0
-497,-755,0,0,0,0,0,0,0,0,0,-1,727,1779,0,0
-490,-755,0,0,0,0,0,0,0,0,0,-1,734,1779,0,0
-483,-755,0,0,0,0,0,0,0,0,0,-1,741,1779,0,0
-476,-755,0,0,0,0,0,0,0,0,0,-1,748,1779,0,0
-469,-755,0,0,0,0,0,0,0,0,0,-1,755,1779,0,0
-462,-755,0,0,0,0,0,0,0,0,0,-1,762,1779,0,0
-455,-755,0,0,0,0,0,0,0,0,0,-1,769,1779,0,0
-448,-755,0,0,0,0,0,0,0,0,0,-1,776,1779,0,0
-441,-755,0,0,0,0,0,0,0,0,0,-1,783,1779,0,0
-434,-755,0,0,0,0,0,0,0,0,0,-1,790,1779,0,0
-427,-755,0,0,0,0,0,0,0,0,0,-1,797,1779,0,0
-420,-755,0,0,0,0,0,0,0,0,0,-1,804,1779,0,0
-413,-755,0,0,0,0,0,0,0,0,0,-1,811,1779,0,0
-406,-755,0,0,0,0,0,0,0,0,0,-1,818,1779,0,0
-399,-755,0,0,0,0,0,0,0,0,0,-1,825,1779,0,0
-392,-755,0,0,0,0,0,0,0,0,0,-1,832,1779,0,0
-385,-755,0,0,0,0,0,0,0,0,0,-1,839,1779,0,0
-378,-755,0,0,0,0,0,0,0,0,0,-1,846,1779,0,0
-371,-755,0,0,0,0,0,0,0,0,0,-1,853,1779,0,0
-364,-755,0,0,0,0,0,0,0,0,0,-1,860,1779,0,0
-357,-755,0,0,0,0,0,0,0,0,0,-1,867,1779,0,0
-350,-755,0,0,0,0,0,0,0,0,0,-1,874,1779,0,0
-343,-755,0,0,0,0,0,0,0,0,0,-1,881,1779,0,0
-336,-755,0,0,0,0,0,0,0,0,0,-1,888,1779,0,0
-329,-755,0,0,0,0,0,0,0,0,0,-1,895,1779,0,0
-322,-755,0,0,0,0,0,0,0,0,0,-1,902,1779,0,0
-315,-755,0,0,0,0,0,0,0,0,0,-1,909,1779,0,0
-308,-755,0,0,0,0,0,0,0,0,0,-1,916,1779,0,0
-301,-755,0,0,0,0,0,0,0,0,0,-1,923,1779,0,0
-294,-755,0,0,0,0,0,0,0,0,0,-1,930,1779,0,0
-287,-755,0,0,0,0,0,0,0,0,0,-1,937,1779,0,0
-280,-755,0,0,0,0,0,0,0,0,0,-1,944,1779,0,0
-273,-755,0,0,0,0,0,0,0,0,0,-1,951,1779,0,0
-266,-755,0,0,0,0,0,0,0,0,0,-1,958,1779,0,0
-259,-755,0,0,0,0,0,0,0,0,0,-1,965,1779,0,0
-252,-755,0,0,0,0,0,0,0,0,0,-1,972,1779,0,0
-245,-755,0,0,0,0,0,0,0,0,0,-1,979,1779,0,0
-238,-755,0,0,0,0,0,0,0,0,0,-1,986,1779,0,0
-231,-755,0,0,0,0,0,0,0,0,0,-1,993,1779,0,0
-224,-755,0,0,0,0,0,0,0,0,0,-1,1000,1779,0,0
-217,-755,0,0,0,0,0,0,0,0,0,-1,1007,1779,0,0
-210,-755,0,0,0,0,0,0,0,0,0,-1,1014,1779,0,0
-203,-755,-0.130493,-0.561035,0,0,0,0,0,0,0,-1,1021,1779,-0.130478,0.56105
-196,-755,-0.290405,-0.689819,0,0,0,0,0,0,0,-1,1028,1779,-0.290347,0.68981
-189,-755,-0.511719,-0.792603,0,0,0,0,0,0,0,-1,1035,1779,-0.511773,0.792642
-182,-755,-0.0643311,-0.233398,0.00259881,0.031362,0.0066528,0.0328262,0.00113459,1.35416,0.0215159,0.0452022,1042,1779,-0.0642846,0.233425
-175,-755,-0.0545654,-0.374878,0.00326968,0.0289906,0.00490749,0.0298951,0.00236516,1.38853,0.0191903,0.0453278,1049,1779,-0.0546023,0.37492
-168,-755,0.350708,-0.298828,0.00343629,0.0255474,0.00163553,0.0256678,0.00331597,1.49736,0.0161206,0.0475513,1056,1779,0.350753,0.298816
-161,-755,0.348633,-0.220337,0.00248455,0.0196496,-0.00153645,0.019786,0.0023481,-1.48222,0.0124818,0.0464896,1063,1779,0.348671,0.220377
-154,-755,0.218384,-0.0297852,0,0,0,0,0,0,0,-1,1070,1779,0.218336,0.0298391
-147,-755,0.284058,-0.630737,0,0,0,0,0,0,0,-1,1077,1779,0.284009,0.630724
-140,-755,0.6875,0.519653,0,0,0,0,0,0,0,-1,1084,1779,0.687481,-0.51968
-133,-755,0.631592,0.490845,-0.00181228,-0.00175899,-0.00923211,0.00744651,-0.0110178,-0.786841,0.0107266,0.047339,1091,1779,0.631568,-0.490828
-126,-755,0.661621,0.272339,-0.00252396,-0.00440337,-0.00945135,0.00603429,-0.0129616,-0.735848,0.0112077,0.043236,1098,1779,0.661641,-0.272315
-119,-755,0.307373,0.63208,0,0,0,0,0,0,0,-1,1105,1779,0.30733,-0.632057
-112,-755,0.441772,1.38953,-0.00512348,-0.00895792,-0.00873735,0.00190453,-0.0159859,-0.677396,0.0113455,0.0427805,1112,1779,0.441805,-1.38954
-105,-755,0.600098,1.48914,-0.00564203,-0.00976338,-0.00821341,0.00076526,-0.0161707,-0.662489,0.0110444,0.0443071,1119,1779,0.600112,-1.4891
-98,-755,0.3125,-0.00354004,-0.00578277,-0.00983218,-0.00644864,-0.00104845,-0.0145665,-0.633284,0.00938106,0.0462291,1126,1779,0.312486,0.0035263
-91,-755,0.199341,-0.000488281,-0.00541604,-0.00858147,-0.00538922,-0.00138193,-0.0126156,-0.642573,0.00798968,0.0459762,1133,1779,0.199393,0.00054651
-84,-755,0.000244141,0.396973,-0.00491963,-0.00749639,-0.0049474,-0.0010956,-0.0113204,-0.65802,0.00720955,0.0423795,1140,1779,0.00025492,-0.39703
-77,-755,0.392578,0.238403,-0.00445224,-0.00690704,-0.00467503,-0.000846164,-0.0105131,-0.657023,0.0067444,0.0384598,1147,1779,0.392607,-0.238455
-70,-755,0.276611,0.174438,-0.00397339,-0.00658934,-0.00460812,-0.000491211,-0.0100715,-0.647115,0.00655675,0.0405673,1154,1779,0.276653,-0.174421
-63,-755,0.311646,0.620117,-0.00382646,-0.00668124,-0.00456062,-0.000475076,-0.0100326,-0.633736,0.00653582,0.0447714,1161,1779,0.311635,-0.620162
-56,-755,0.432739,0.441406,-0.00406034,-0.00686921,-0.00439721,-0.000848723,-0.0100808,-0.630822,0.00645626,0.0422971,1168,1779,0.432697,-0.441427
-49,-755,-0.0229492,0.0194092,-0.00480477,-0.00802583,-0.00400935,-0.00209457,-0.010736,-0.594415,0.00657139,0.0419279,1175,1779,-0.0228982,-0.0194693
-42,-755,0.0980225,0.0620117,-0.00637315,-0.0105819,-0.00352509,-0.00437209,-0.012583,-0.516303,0.00737661,0.03861,1182,1779,0.0979997,-0.0620105
-35,-755,-0.0198975,0.00378418,-0.00844093,-0.0134331,-0.00290882,-0.00710404,-0.01477,-0.430807,0.0085295,0.0318906,1189,1779,-0.0198685,-0.00383315
-28,-755,-0.110718,0.124023,-0.0104036,-0.0153995,-0.00210488,-0.00963503,-0.0161681,-0.350107,0.00939174,0.0271839,1196,1779,-0.110667,-0.124081
-21,-755,-0.112915,0.103149,-0.0122862,-0.0178367,-0.000764679,-0.0121828,-0.0179401,-0.134432,0.0105768,0.0317707,1203,1779,-0.112874,-0.103149
-14,-755,-0.00952148,0.0499268,-0.0135816,-0.0199605,0.000339188,-0.0135636,-0.0199784,0.0529744,0.0117781,0.032814,1210,1779,-0.00949874,-0.0499809
-7,-755,-0.0465088,0.0217285,-0.01448,-0.0213043,0.00114251,-0.0142938,-0.0214905,0.161551,0.0126311,0.0240464,1217,1779,-0.0465578,-0.0217302
0,-755,-0.0532227,0.0610352,-0.0153354,-0.0219679,0.00205685,-0.0147494,-0.0225539,0.277584,0.0132257,0.014302,1224,1779,-0.0532663,-0.0610533
7,-755,-0.0412598,0.0866699,-0.0159875,-0.0227226,0.0024591,-0.0151853,-0.0235249,0.315365,0.0137725,0.0122193,1231,1779,-0.0412869,-0.0866715
14,-755,-0.0323486,0.0777588,-0.0160779,-0.0230581,0.00291474,-0.0150209,-0.0241152,0.347902,0.0140624,0.0108683,1238,1779,-0.032388,-0.0777669
21,-755,-0.0526123,0.064209,-0.0155797,-0.0228211,0.00240594,-0.0148532,-0.0235476,0.293249,0.0137493,0.0151421,1245,1779,-0.0526635,-0.0641847
28,-755,-0.0341797,0.0650635,-0.0147081,-0.0221955,0.00151621,-0.0144127,-0.0224909,0.192407,0.0131557,0.0182439,1252,1779,-0.0341777,-0.0650812
35,-755,-0.0057373,0.103149,-0.0123496,-0.0205248,-2.60352e-05,-0.0123495,-0.0205249,-0.00318462,0.0119314,0.0180572,1259,1779,-0.00568458,-0.103089
42,-755,0.0118408,0.0758057,-0.0098192,-0.0173187,-0.000853144,-0.00972337,-0.0174145,-0.111856,0.0100771,0.0139985,1266,1779,0.0118804,-0.0758028
49,-755,-0.0118408,0.0616455,-0.00726678,-0.0148644,-0.00141099,-0.00701321,-0.015118,-0.177818,0.00873596,0.00972903,1273,1779,-0.0117998,-0.0617059
56,-755,-0.0366211,0.0596924,-0.00449057,-0.0117297,-0.00183442,-0.00405226,-0.012168,-0.23454,0.00715458,0.00882819,1280,1779,-0.036592,-0.0596714
63,-755,-0.043457,0.0584717,-0.00130025,-0.00901273,-0.00187461,-0.000868742,-0.00944423,-0.226243,0.00602748,0.00901049,1287,1779,-0.043413,-0.0585031
70,-755,-0.0344238,0.0489502,0.00187076,-0.00619099,-0.00112364,0.00202444,-0.00634467,-0.135928,0.00504194,0.0113973,1294,1779,-0.0344611,-0.0489247
77,-755,-0.0422363,0.0421143,0.00472464,-0.00441698,0.000146332,0.00472698,-0.00441933,0.0160018,0.00528162,0.0106802,1301,1779,-0.0422204,-0.0421405
84,-755,-0.0430908,0.0455322,0.00750856,-0.00206759,0.00167595,0.0077934,-0.00235243,0.168348,0.00613204,0.0107953,1308,1779,-0.0431405,-0.0454969
91,-755,-0.036377,0.0460205,0.00978932,-0.000543658,0.00304484,0.0106198,-0.00137414,0.266274,0.00757955,0.0100627,1315,1779,-0.036347,-0.0460033
98,-755,-0.0462646,0.0507813,0.0115816,0.000509776,0.00465422,0.0132781,-0.00118674,0.349544,0.00927302,0.0113011,1322,1779,-0.0462081,-0.0507458
105,-755,-0.0499268,0.0559082,0.0128484,0.00155796,0.00612236,0.0155309,-0.0011246,0.412962,0.0107485,0.0153341,1329,1779,-0.0499326,-0.0558812
112,-755,-0.0396729,0.0482178,0.0134107,0.00217129,0.00700885,0.0167746,-0.00119261,0.447479,0.0116011,0.0192239,1336,1779,-0.0396375,-0.0482272
119,-755,-0.0200195,0.0310059,0.0125891,0.00261024,0.00746955,0.0165824,-0.00138302,0.490946,0.0115436,0.0182729,1343,1779,-0.0200345,-0.0309701
126,-755,-0.0108643,0.0432129,0.0112411,0.0020893,0.00802162,0.0159002,-0.00256981,0.526197,0.0115524,0.0217144,1350,1779,-0.0109237,-0.0432119
133,-755,-0.013916,0.0871582,0.00899601,0.00155352,0.00728885,0.0134586,-0.00290906,0.549377,0.0100829,0.0234855,1357,1779,-0.0139723,-0.0871656
140,-755,-0.00463867,0.0821533,0.00623042,0.000648782,0.0064493,0.0104668,-0.00358764,0.581197,0.00843214,0.0291127,1364,1779,-0.00466888,-0.0821586
147,-755,0.050415,0.0651855,0.00425772,-0.00149763,0.00474345,0.00692814,-0.00416805,0.512746,0.00647211,0.0308549,1371,1779,0.0504029,-0.0652325
154,-755,0.0338135,0.0462646,0.00256292,-0.00148111,0.00327275,0.00438791,-0.0033061,0.508683,0.00445675,0.0317358,1378,1779,0.0338594,-0.046276
161,-755,-0.00671387,0.053833,0.000602595,-0.00181092,0.0019612,0.00169857,-0.00290689,0.509596,0.0026893,0.0301022,1385,1779,-0.00670915,-0.0538118
168,-755,0.0153809,0.0646973,-0.00133045,-0.00193359,0.000910512,-0.00067287,-0.00259118,0.62548,0.00155255,0.0268782,1392,1779,0.0153915,-0.0647229
175,-755,-0.0467529,0.0422363,-0.00230895,-0.00285937,-0.000549742,-0.00196938,-0.00319894,-0.55333,0.0018633,0.0363224,1399,1779,-0.0467451,-0.0421869
182,-755,-0.0889893,0.00671387,-0.00286146,-0.00335332,-0.00149838,-0.00158896,-0.00462582,-0.704059,0.00271398,0.0435904,1406,1779,-0.0890317,-0.00665555
189,-755,-0.165405,0.0153809,-0.0028679,-0.00383072,-0.00232287,-0.000977077,-0.00572155,-0.683221,0.00353399,0.040089,1413,1779,-0.165434,-0.0153551
196,-755,-0.185669,-0.0743408,-0.00245719,-0.00316992,-0.0024154,-0.000372007,-0.0052551,-0.712157,0.00338622,0.0367111,1420,1779,-0.185682,0.0743283
203,-755,-0.071167,-0.12439,-0.00229284,-0.00246415,-0.00247077,9.37649e-05,-0.00485075,-0.768071,0.00326554,0.0379334,1427,1779,-0.0711691,0.12442
210,-755,0.238647,0.0871582,-0.00190256,-0.00176351,-0.00239763,0.000565604,-0.00423167,-0.799893,0.00302731,0.041934,1434,1779,0.238641,-0.0871713
217,-755,0.088623,-0.149048,-0.00139518,-0.000824578,-0.00208919,0.000998705,-0.00321846,-0.853259,0.00254473,0.043349,1441,1779,0.0886536,0.14899
224,-755,-0.126465,-0.166992,-0.00099759,9.92907e-05,-0.00155026,0.00119526,-0.00209356,-0.955414,0.00192227,0.040922,1448,1779,-0.12649,0.166977
231,-755,-0.0759277,-0.246582,-0.000576923,0.00124416,-0.00100441,0.00168932,-0.00102208,-1.15361,0.00158115,0.0381993,1455,1779,-0.0759788,0.246574
238,-755,-0.234375,-0.500122,-0.00177429,0.00221127,-0.000577899,0.00229337,-0.00185639,-1.42967,0.00240029,0.0378789,1462,1779,-0.23439,0.500133
245,-755,-0.410889,-0.664673,-0.00410741,0.00355553,-0.000804887,0.00363916,-0.00419104,-1.46727,0.00452451,0.0404541,1469,1779,-0.410829,0.664625
252,-755,-0.333618,-0.63623,-0.00791486,0.00487537,-0.00111758,0.00497228,-0.00801178,-1.48429,0.00756451,0.0436457,1476,1779,-0.333636,0.636223
259,-755,-0.208252,-0.608276,-0.0127001,0.00492358,-0.00170205,0.00508645,-0.012863,-1.47539,0.0106824,0.0477762,1483,1779,-0.20821,0.608216
266,-755,-0.0996094,-0.541382,-0.0175044,0.00483942,-0.0023031,0.00507434,-0.0177393,-1.46914,0.0138315,0.0474703,1490,1779,-0.0995717,0.541371
273,-755,-0.260864,-0.168457,0,0,0,0,0,0,0,-1,1497,1779,-0.26088,0.168441
280,-755,3.98962,0.299927,0,0,0,0,0,0,0,-1,1504,1779,3.98965,-0.299938
287,-755,3.30029,0.0203857,-0.0339273,0.0037691,-0.00336481,0.00406709,-0.0342253,-1.48247,0.0242864,0.0417168,1511,1779,3.30032,-0.0204032
294,-755,2.33228,-0.22937,-0.0392783,0.0035022,-0.00364777,0.00381101,-0.0395871,-1.48634,0.0277491,0.0431406,1518,1779,2.33226,0.229337
301,-755,1.30847,-0.0125732,-0.0425704,0.00159465,-0.00361723,0.00188896,-0.0428647,-1.48961,0.0292265,0.0451371,1525,1779,1.30842,0.0125356
308,-755,0.606201,0.160034,-0.0440795,-0.00106814,-0.00394281,-0.000709696,-0.044438,-1.48013,0.0293916,0.0423545,1532,1779,0.606233,-0.160059
315,-755,0.373535,-0.000854492,-0.0438748,-0.00420977,-0.00451761,-0.00370175,-0.0443829,-1.45881,0.0284351,0.0429225,1539,1779,0.373584,0.00090404
322,-755,0,0,0,0,0,0,0,0,0,-1,1546,1779,0,0
329,-755,0,0,0,0,0,0,0,0,0,-1,1553,1779,0,0
336,-755,0,0,0,0,0,0,0,0,0,-1,1560,1779,0,0
343,-755,0,0,0,0,0,0,0,0,0,-1,1567,1779,0,0
350,-755,0,0,0,0,0,0,0,0,0,-1,1574,1779,0,0
357,-755,0,0,0,0,0,0,0,0,0,-1,1581,1779,0,0
364,-755,0,0,0,0,0,0,0,0,0,-1,1588,1779,0,0
371,-755,0,0,0,0,0,0,0,0,0,-1,1595,1779,0,0
378,-755,0,0,0,0,0,0,0,0,0,-1,1602,1779,0,0
385,-755,0,0,0,0,0,0,0,0,0,-1,1609,1779,0,0
392,-755,0,0,0,0,0,0,0,0,0,-1,1616,1779,0,0
399,-755,0,0,0,0,0,0,0,0,0,-1,1623,1779,0,0
406,-755,0,0,0,0,0,0,0,0,0,-1,1630,1779,0,0
413,-755,0,0,0,0,0,0,0,0,0,-1,1637,1779,0,0
420,-755,0,0,0,0,0,0,0,0,0,-1,1644,1779,0,0
427,-755,0,0,0,0,0,0,0,0,0,-1,1651,1779,0,0
434,-755,0,0,0,0,0,0,0,0,0,-1,1658,1779,0,0
441,-755,0,0,0,0,0,0,0,0,0,-1,1665,1779,0,0
448,-755,0,0,0,0,0,0,0,0,0,-1,1672,1779,0,0
455,-755,0,0,0,0,0,0,0,0,0,-1,1679,1779,0,0
462,-755,0,0,0,0,0,0,0,0,0,-1,1686,1779,0,0
469,-755,0,0,0,0,0,0,0,0,0,-1,1693,1779,0,0
476,-755,0,0,0,0,0,0,0,0,0,-1,1700,1779,0,0
483,-755,0,0,0,0,0,0,0,0,0,-1,1707,1779,0,0
490,-755,0,0,0,0,0,0,0,0,0,-1,1714,1779,0,0
497,-755,0,0,0,0,0,0,0,0,0,-1,1721,1779,0,0
504,-755,0,0,0,0,0,0,0,0,0,-1,1728,1779,0,0
511,-755,0,0,0,0,0,0,0,0,0,-1,1735,1779,0,0
518,-755,0,0,0,0,0,0,0,0,0,-1,1742,1779,0,0
525,-755,0,0,0,0,0,0,0,0,0,-1,1749,1779,0,0
532,-755,0,0,0,0,0,0,0,0,0,-1,1756,1779,0,0
539,-755,0,0,0,0,0,0,0,0,0,-1,1763,1779,0,0
546,-755,0,0,0,0,0,0,0,0,0,-1,1770,1779,0,0
553,-755,0,0,0,0,0,0,0,0,0,-1,1777,1779,0,0
560,-755,0,0,0,0,0,0,0,0,0,-1,1784,1779,0,0
567,-755,0,0,0,0,0,0,0,0,0,-1,1791,1779,0,0
574,-755,0,0,0,0,0,0,0,0,0,-1,1798,1779,0,0
581,-755,0,0,0,0,0,0,0,0,0,-1,1805,1779,0,0
588,-755,0,0,0,0,0,0,0,0,0,-1,1812,1779,0,0
595,-755,0,0,0,0,0,0,0,0,0,-1,1819,1779,0,0
602,-755,0,0,0,0,0,0,0,0,0,-1,1826,1779,0,0
609,-755,0,0,0,0,0,0,0,0,0,-1,1833,1779,0,0
616,-755,0,0,0,0,0,0,0,0,0,-1,1840,1779,0,0
623,-755,0,0,0,0,0,0,0,0,0,-1,1847,1779,0,0
630,-755,0,0,0,0,0,0,0,0,0,-1,1854,1779,0,0
637,-755,0,0,0,0,0,0,0,0,0,-1,1861,1779,0,0
644,-755,0,0,0,0,0,0,0,0,0,-1,1868,1779,0,0
651,-755,0,0,0,0,0,0,0,0,0,-1,1875,1779,0,0
658,-755,0,0,0,0,0,0,0,0,0,-1,1882,1779,0,0
665,-755,0,0,0,0,0,0,0,0,0,-1,1889,1779,0,0
672,-755,0,0,0,0,0,0,0,0,0,-1,1896,1779,0,0
679,-755,0,0,0,0,0,0,0,0,0,-1,1903,1779,0,0
686,-755,0,0,0,0,0,0,0,0,0,-1,1910,1779,0,0
693,-755,0,0,0,0,0,0,0,0,0,-1,1917,1779,0,0
700,-755,0,0,0,0,0,0,0,0,0,-1,1924,1779,0,0
707,-755,0,0,0,0,0,0,0,0,0,-1,1931,1779,0,0
714,-755,0,0,0,0,0,0,0,0,0,-1,1938,1779,0,0
721,-755,0,0,0,0,0,0,0,0,0,-1,1945,1779,0,0
728,-755,0,0,0,0,0,0,0,0,0,-1,1952,1779,0,0
735,-755,0,0,0,0,0,0,0,0,0,-1,1959,1779,0,0
742,-755,0,0,0,0,0,0,0,0,0,-1,1966,1779,0,0
749,-755,0,0,0,0,0,0,0,0,0,-1,1973,1779,0,0
756,-755,0,0,0,0,0,0,0,0,0,-1,1980,1779,0,0
763,-755,0,0,0,0,0,0,0,0,0,-1,1987,1779,0,0
770,-755,0,0,0,0,0,0,0,0,0,-1,1994,1779,0,0
777,-755,0,0,0,0,0,0,0,0,0,-1,2001,1779,0,0
784,-755,0,0,0,0,0,0,0,0,0,-1,2008,1779,0,0
791,-755,0,0,0,0,0,0,0,0,0,-1,2015,1779,0,0
798,-755,0,0,0,0,0,0,0,0,0,-1,2022,1779,0,0
805,-755,0,0,0,0,0,0,0,0,0,-1,2029,1779,0,0
812,-755,0,0,0,0,0,0,0,0,0,-1,2036,1779,0,0
-700,-762,0,0,0,0,0,0,0,0,0,-1,524,1786,0,0
-693,-762,0,0,0,0,0,0,0,0,0,-1,531,1786,0,0
-686,-762,0,0,0,0,0,0,0,0,0,-1,538,1786,0,0
-679,-762,0,0,0,0,0,0,0,0,0,-1,545,1786,0,0
-672,-762,0,0,0,0,0,0,0,0,0,-1,552,1786,0,0
-665,-762,0,0,0,0,0,0,0,0,0,-1,559,1786,0,0
-658,-762,0,0,0,0,0,0,0,0,0,-1,566,1786,0,0
-651,-762,0,0,0,0,0,0,0,0,0,-1,573,1786,0,0
-644,-762,0,0,0,0,0,0,0,0,0,-1,580,1786,0,0
-637,-762,0,0,0,0,0,0,0,0,0,-1,587,1786,0,0
-630,-762,0,0,0,0,0,0,0,0,0,-1,594,1786,0,0
-623,-762,0,0,0,0,0,0,0,0,0,-1,601,1786,0,0
-616,-762,0,0,0,0,0,0,0,0,0,-1,608,1786,0,0
-609,-762,0,0,0,0,0,0,0,0,0,-1,615,1786,0,0
-602,-762,0,0,0,0,0,0,0,0,0,-1,622,1786,0,0
-595,-762,0,0,0,0,0,0,0,0,0,-1,629,1786,0,0
-588,-762,0,0,0,0,0,0,0,0,0,-1,636,1786,0,0
-581,-762,0,0,0,0,0,0,0,0,0,-1,643,1786,0,0
-574,-762,0,0,0,0,0,0,0,0,0,-1,650,1786,0,0
-567,-762,0,0,0,0,0,0,0,0,0,-1,657,1786,0,0
-560,-762,0,0,0,0,0,0,0,0,0,-1,664,1786,0,0
-553,-762,0,0,0,0,0,0,0,0,0,-1,671,1786,0,0
-546,-762,0,0,0,0,0,0,0,0,0,-1,678,1786,0,0
-539,-762,0,0,0,0,0,0,0,0,0,-1,685,1786,0,0
-532,-762,0,0,0,0,0,0,0,0,0,-1,692,1786,0,0
-525,-762,0,0,0,0,0,0,0,0,0,-1,699,1786,0,0
-518,-762,0,0,0,0,0,0,0,0,0,-1,706,1786,0,0
-511,-762,0,0,0,0,0,0,0,0,0,-1,713,1786,0,0
-504,-762,0,0,0,0,0,0,0,0,0,-1,720,1786,0,0
-497,-762,0,0,0,0,0,0,0,0,0,-1,727,1786,0,0
-490,-762,0,0,0,0,0,0,0,0,0,-1,734,1786,0,0
-483,-762,0,0,0,0,0,0,0,0,0,-1,741,1786,0,0
-476,-762,0,0,0,0,0,0,0,0,0,-1,748,1786,0,0
-469,-762,0,0,0,0,0,0,0,0,0,-1,755,1786,0,0
-462,-762,0,0,0,0,0,0,0,0,0,-1,762,1786,0,0
-455,-762,0,0,0,0,0,0,0,0,0,-1,769,1786,0,0
-448,-762,0,0,0,0,0,0,0,0,0,-1,776,1786,0,0
-441,-762,0,0,0,0,0,0,0,0,0,-1,783,1786,0,0
-434,-762,0,0,0,0,0,0,0,0,0,-1,790,1786,0,0
-427,-762,0,0,0,0,0,0,0,0,0,-1,797,1786,0,0
-420,-762,0,0,0,0,0,0,0,0,0,-1,804,1786,0,0
-413,-762,0,0,0,0,0,0,0,0,0,-1,811,1786,0,0
-406,-762,0,0,0,0,0,0,0,0,0,-1,818,1786,0,0
-399,-762,0,0,0,0,0,0,0,0,0,-1,825,1786,0,0
-392,-762,0,0,0,0,0,0,0,0,0,-1,832,1786,0,0
-385,-762,0,0,0,0,0,0,0,0,0,-1,839,1786,0,0
-378,-762,0,0,0,0,0,0,0,0,0,-1,846,1786,0,0
-371,-762,0,0,0,0,0,0,0,0,0,-1,853,1786,0,0
-364,-762,0,0,0,0,0,0,0,0,0,-1,860,1786,0,0
-357,-762,0,0,0,0,0,0,0,0,0,-1,867,1786,0,0
-350,-762,0,0,0,0,0,0,0,0,0,-1,874,1786,0,0
-343,-762,0,0,0,0,0,0,0,0,0,-1,881,1786,0,0
-336,-762,0,0,0,0,0,0,0,0,0,-1,888,1786,0,0
-329,-762,0,0,0,0,0,0,0,0,0,-1,895,1786,0,0
-322,-762,0,0,0,0,0,0,0,0,0,-1,902,1786,0,0
-315,-762,0,0,0,0,0,0,0,0,0,-1,909,1786,0,0
-308,-762,0,0,0,0,0,0,0,0,0,-1,916,1786,0,0
-301,-762,0,0,0,0,0,0,0,0,0,-1,923,1786,0,0
-294,-762,0,0,0,0,0,0,0,0,0,-1,930,1786,0,0
-287,-762,0,0,0,0,0,0,0,0,0,-1,937,1786,0,0
-280,-762,0,0,0,0,0,0,0,0,0,-1,944,1786,0,0
-273,-762,0,0,0,0,0,0,0,0,0,-1,951,1786,0,0
-266,-762,0,0,0,0,0,0,0,0,0,-1,958,1786,0,0
-259,-762,0,0,0,0,0,0,0,0,0,-1,965,1786,0,0
-252,-762,0,0,0,0,0,0,0,0,0,-1,972,1786,0,0
-245,-762,0,0,0,0,0,0,0,0,0,-1,979,1786,0,0
-238,-762,0,0,0,0,0,0,0,0,0,-1,986,1786,0,0
-231,-762,0,0,0,0,0,0,0,0,0,-1,993,1786,0,0
-224,-762,0,0,0,0,0,0,0,0,0,-1,1000,1786,0,0
-217,-762,0,0,0,0,0,0,0,0,0,-1,1007,1786,0,0
-210,-762,0,0,0,0,0,0,0,0,0,-1,1014,1786,0,0
-203,-762,0,0,0,0,0,0,0,0,0,-1,1021,1786,0,0
-196,-762,0,0,0,0,0,0,0,0,0,-1,1028,1786,0,0
-189,-762,0,0,0,0,0,0,0,0,0,-1,1035,1786,0,0
-182,-762,-0.117798,-0.176147,0,0,0,0,0,0,0,-1,1042,1786,-0.117818,0.176101
-175,-762,-0.227051,0.0166016,0,0,0,0,0,0,0,-1,1049,1786,-0.227005,-0.0165847
-168,-762,0.200195,-0.484375,0,0,0,0,0,0,0,-1,1056,1786,0.200184,0.484432
-161,-762,0.21875,-0.115601,0.00538041,0.0235081,-0.00185382,0.0236957,0.00519277,-1.46992,0.0143822,0.0495806,1063,1786,0.218748,0.115552
-154,-762,0.123901,0.185059,0.00281643,0.0154667,-0.00531799,0.0174052,0.000877891,-1.22124,0.0113222,0.0465403,1070,1786,0.123892,-0.185015
-147,-762,0.966187,-0.244629,0,0,0,0,0,0,0,-1,1077,1786,0.966232,0.244669
-140,-762,0.744507,0.187744,0,0,0,0,0,0,0,-1,1084,1786,0.744448,-0.18772
-133,-762,0.758545,0.531006,-0.00202093,-0.000106889,-0.00927351,0.00825885,-0.0103867,-0.836816,0.0107883,0.0482698,1091,1786,0.758546,-0.530984
-126,-762,0.752075,0.208374,-0.00308489,-0.0030063,-0.00924228,0.00619677,-0.012288,-0.787524,0.0108636,0.0450873,1098,1786,0.752031,-0.208406
-119,-762,0.445313,1.25708,0,0,0,0,0,0,0,-1,1105,1786,0.445312,-1.25708
-112,-762,0.645752,1.47302,0,0,0,0,0,0,0,-1,1112,1786,0.645811,-1.47301
-105,-762,0.846313,1.68896,0,0,0,0,0,0,0,-1,1119,1786,0.846311,-1.68893
-98,-762,0.467163,0.0615234,-0.00703591,-0.00981271,-0.00549969,-0.00275207,-0.0140965,-0.661756,0.00862791,0.0428876,1126,1786,0.467217,-0.0615303
-91,-762,0.466309,-0.00244141,-0.00664125,-0.00846512,-0.00430313,-0.00315448,-0.0119519,-0.680981,0.00715219,0.0436447,1133,1786,0.466331,0.00246315
-84,-762,0.380249,0.210083,-0.00608461,-0.00744512,-0.00394811,-0.00275858,-0.0107712,-0.700086,0.00646063,0.0406653,1140,1786,0.380228,-0.210083
-77,-762,0.368042,0.248901,-0.00551587,-0.0071113,-0.00392042,-0.00231283,-0.0103143,-0.68503,0.0062496,0.0382493,1147,1786,0.368081,-0.24895
-70,-762,0.162109,0.179077,-0.00491381,-0.00710313,-0.00419039,-0.00167745,-0.0103395,-0.657638,0.00640745,0.0417057,1154,1786,0.162084,-0.179045
-63,-762,-0.0792236,0.0969238,-0.00490317,-0.00761462,-0.00449547,-0.00156345,-0.0109543,-0.638947,0.00684155,0.0453384,1161,1786,-0.0791769,-0.0969061
-56,-762,0.559082,0.71582,0,0,0,0,0,0,0,-1,1168,1786,0.559035,-0.715768
-49,-762,-0.00463867,0.214233,-0.00693878,-0.0101737,-0.0043799,-0.00388722,-0.0132253,-0.60852,0.00784881,0.0457395,1175,1786,-0.00467666,-0.214273
-42,-762,0.160278,0.295288,-0.00945436,-0.0138333,-0.00389396,-0.00717653,-0.0161111,-0.529292,0.00932019,0.0428486,1182,1786,0.160219,-0.295261
-35,-762,-0.057251,-0.0566406,0,0,0,0,0,0,0,-1,1189,1786,-0.0572207,0.0565914
-28,-762,-0.309204,-0.0227051,-0.0155056,-0.0207134,-0.0022389,-0.0146754,-0.0215436,-0.355086,0.0127075,0.0469665,1196,1786,-0.309165,0.0227214
-21,-762,-0.318481,-0.00878906,-0.0181928,-0.0241207,-0.000650831,-0.0181222,-0.0241913,-0.108077,0.0145332,0.0416008,1203,1786,-0.318437,0.00874335
-14,-762,-0.389771,0.23584,-0.0199973,-0.027086,0.000634934,-0.0199409,-0.0271425,0.0886297,0.0162359,0.0492885,1210,1786,-0.389797,-0.235854
-7,-762,-0.307251,0.217773,-0.0212096,-0.028788,0.00153408,-0.0209108,-0.0290868,0.192343,0.0173215,0.0482229,1217,1786,-0.307261,-0.217822
0,-762,-0.139648,0.14624,-0.022332,-0.029697,0.00266068,-0.0214713,-0.0305576,0.312841,0.018119,0.0354328,1224,1786,-0.139688,-0.146221
7,-762,-0.0306396,0.130615,-0.0230918,-0.0305853,0.00315006,-0.0219435,-0.0317335,0.349549,0.0187639,0.0206701,1231,1786,-0.0306062,-0.130577
14,-762,-0.0323486,0.188354,-0.023087,-0.0309656,0.00368553,-0.0216317,-0.0324209,0.376062,0.0190639,0.0345349,1238,1786,-0.0323121,-0.188336
21,-762,-0.204712,0.158691,-0.0223959,-0.0305381,0.00288649,-0.0214764,-0.0314576,0.308377,0.0185618,0.0389485,1245,1786,-0.204678,-0.158663
28,-762,-0.140991,0.219971,-0.0211467,-0.0295548,0.0016109,-0.0208486,-0.0298528,0.182962,0.017682,0.0366379,1252,1786,-0.140947,-0.219942
35,-762,-0.129639,0.241821,-0.0178643,-0.0271527,-0.000510913,-0.0178363,-0.0271807,-0.0547856,0.015946,0.0389144,1259,1786,-0.129595,-0.241857
42,-762,-0.0471191,0.0911865,-0.0143154,-0.0229674,-0.00160148,-0.0140285,-0.0232543,-0.177278,0.013521,0.0390973,1266,1786,-0.0470764,-0.0911722
49,-762,-0.0625,0.0460205,-0.0106562,-0.0197557,-0.00232661,-0.0100959,-0.0203161,-0.236353,0.0117296,0.031154,1273,1786,-0.0625545,-0.046075
56,-762,-0.00891113,0.0268555,-0.00668038,-0.0156321,-0.00284008,-0.00585536,-0.0164571,-0.282712,0.00963234,0.0216465,1280,1786,-0.00890504,-0.0268732
63,-762,-0.0493164,0.0491943,-0.00212681,-0.0123075,-0.00283545,-0.00139038,-0.0130439,-0.25411,0.00827154,0.0203678,1287,1786,-0.049366,-0.0491877
70,-762,-0.0734863,0.0585938,0.00235158,-0.00883003,-0.0017602,0.00262212,-0.00910057,-0.152507,0.00710426,0.0200729,1294,1786,-0.0734395,-0.058547
77,-762,-0.0283203,0.0482178,0.00638168,-0.00678137,3.79912e-05,0.00638179,-0.00678148,0.00288617,0.00760098,0.0273048,1301,1786,-0.0283713,-0.0482454
84,-762,0.00561523,0.00622559,0.0103427,-0.0040156,0.00212116,0.0106495,-0.0043224,0.143643,0.00889762,0.0317748,1308,1786,0.00564259,-0.00624325
91,-762,0.11499,-0.041626,0.0136562,-0.00225911,0.00405329,0.014629,-0.00323193,0.235553,0.0109895,0.0366993,1315,1786,0.115051,0.0416367
98,-762,-0.0153809,0.0939941,0.0162341,-0.00116638,0.00627389,0.0182602,-0.00319255,0.31238,0.0133654,0.0385288,1322,1786,-0.0154347,-0.0940464
105,-762,-0.0963135,0.106812,0.0180914,0.000169495,0.00825624,0.021315,-0.00305414,0.372245,0.0153298,0.0399608,1329,1786,-0.0962947,-0.106801
112,-762,-0.233276,-0.00256348,0.0189038,0.00101241,0.00945121,0.0229715,-0.00305539,0.406435,0.0164278,0.0426513,1336,1786,-0.233337,0.00261856
119,-762,-0.19873,-0.0218506,0.0177169,0.00167346,0.0100942,0.0225887,-0.00319827,0.449652,0.0162306,0.042426,1343,1786,-0.198764,0.0218637
126,-762,-0.13855,0.233276,0.0158896,0.00107813,0.0108865,0.0216505,-0.00468284,0.48672,0.0162215,0.0443435,1350,1786,-0.138572,-0.233233
133,-762,0.540894,0.24585,0,0,0,0,0,0,0,-1,1357,1786,0.540947,-0.245862
140,-762,0.298584,0.206299,0.0089789,-0.000465159,0.00869286,0.0141495,-0.00563572,0.536591,0.0117702,0.0440933,1364,1786,0.29857,-0.206295
147,-762,0.131714,0.0670166,0.00626495,-0.00313136,0.00638459,0.00949369,-0.0063601,0.468204,0.0092126,0.0435677,1371,1786,0.131691,-0.0669593
154,-762,0.123047,-0.00769043,0.00382997,-0.00300608,0.00443834,0.00601389,-0.00519,0.457274,0.00647439,0.045414,1378,1786,0.123017,0.00773255
161,-762,0.0404053,0.0356445,0.00109233,-0.00340001,0.00270405,0.00236144,-0.00466912,0.438817,0.00413134,0.0439311,1385,1786,0.0404349,-0.0356883
168,-762,0.180664,-0.210205,-0.00153504,-0.00340261,0.00131597,-0.000855218,-0.00408243,0.476834,0.00248607,0.0443839,1392,1786,0.180605,0.210213
175,-762,-0.0224609,0.0311279,-0.00282872,-0.00479252,-0.000680346,-0.00261605,-0.00500519,-0.302969,0.00289074,0.0463151,1399,1786,-0.0224362,-0.0311464
182,-762,-0.0413818,-0.0394287,0,0,0,0,0,0,0,-1,1406,1786,-0.0413308,0.0394299
189,-762,-0.0739746,-0.0195313,-0.0036657,-0.00641737,-0.00312139,-0.00163038,-0.00845269,-0.57782,0.00517795,0.0463797,1413,1786,-0.0739489,0.0195707
196,-762,-0.0821533,-0.0754395,-0.00314611,-0.00567557,-0.00332007,-0.000858043,-0.00796364,-0.603416,0.00504745,0.0411121,1420,1786,-0.0821982,0.0754235
203,-762,-0.0163574,0.155396,-0.00294784,-0.00487438,-0.00347287,-0.000307125,-0.0075151,-0.650114,0.00491089,0.0380351,1427,1786,-0.0163018,-0.155363
210,-762,-0.26709,0.188354,-0.00251942,-0.00402733,-0.00346182,0.000269597,-0.00681635,-0.678177,0.00463671,0.0422355,1434,1786,-0.26708,-0.188307
217,-762,-0.406738,0.0748291,-0.00196703,-0.00290758,-0.00311681,0.000714791,-0.00558939,-0.710522,0.00398595,0.0443558,1441,1786,-0.406733,-0.0747781
224,-762,-0.24292,-0.086792,-0.00156247,-0.00173937,-0.00240612,0.000756824,-0.00405867,-0.767026,0.00299015,0.0414481,1448,1786,-0.242966,0.0868519
231,-762,-0.06604,-0.272583,-0.00116455,-0.000306482,-0.00163106,0.000951025,-0.00242206,-0.914005,0.00200824,0.0399508,1455,1786,-0.0660092,0.27257
238,-762,-0.0654297,-0.341187,-0.00260763,0.000775454,-0.00092964,0.00101408,-0.00284626,-1.31954,0.00231093,0.040348,1462,1786,-0.0653884,0.341181
245,-762,-0.108521,-0.464478,-0.00552136,0.00231893,-0.000796616,0.00239906,-0.00560148,-1.47056,0.00474086,0.0410424,1469,1786,-0.108489,0.464478
252,-762,-0.290283,-0.619019,-0.0102167,0.00396374,-0.000648782,0.00399336,-0.0102463,-1.52517,0.00848137,0.042236,1476,1786,-0.290318,0.619004
259,-762,-0.24292,-0.604248,-0.0159135,0.00384714,-0.000698975,0.00387183,-0.0159382,-1.53548,0.012124,0.0442546,1483,1786,-0.242921,0.604283
266,-762,-0.229736,-0.649414,-0.0216881,0.00343021,-0.000642605,0.00344664,-0.0217045,-1.54524,0.0157448,0.0434616,1490,1786,-0.229779,0.649382
273,-762,-0.268555,-0.319092,-0.0277581,0.00320045,-0.000436027,0.00320659,-0.0277643,-1.55672,0.0196657,0.0419692,1497,1786,-0.268499,0.319106
280,-762,-0.0793457,0.0743408,0,0,0,0,0,0,0,-1,1504,1786,-0.0793474,-0.0743888
287,-762,3.26721,-0.233154,0,0,0,0,0,0,0,-1,1511,1786,3.26719,0.233135
294,-762,2.12988,-0.287598,0,0,0,0,0,0,0,-1,1518,1786,2.12992,0.287543
301,-762,1.06555,-0.0828857,0,0,0,0,0,0,0,-1,1525,1786,1.06559,0.0828929
308,-762,0,0,0,0,0,0,0,0,0,-1,1532,1786,0,0
315,-762,0,0,0,0,0,0,0,0,0,-1,1539,1786,0,0
322,-762,0,0,0,0,0,0,0,0,0,-1,1546,1786,0,0
329,-762,0,0,0,0,0,0,0,0,0,-1,1553,1786,0,0
336,-762,0,0,0,0,0,0,0,0,0,-1,1560,1786,0,0
343,-762,0,0,0,0,0,0,0,0,0,-1,1567,1786,0,0
350,-762,0,0,0,0,0,0,0,0,0,-1,1574,1786,0,0
357,-762,0,0,0,0,0,0,0,0,0,-1,1581,1786,0,0
364,-762,0,0,0,0,0,0,0,0,0,-1,1588,1786,0,0
371,-762,0,0,0,0,0,0,0,0,0,-1,1595,1786,0,0
378,-762,0,0,0,0,0,0,0,0,0,-1,1602,1786,0,0
385,-762,0,0,0,0,0,0,0,0,0,-1,1609,1786,0,0
392,-762,0,0,0,0,0,0,0,0,0,-1,1616,1786,0,0
399,-762,0,0,0,0,0,0,0,0,0,-1,1623,1786,0,0
406,-762,0,0,0,0,0,0,0,0,0,-1,1630,1786,0,0
413,-762,0,0,0,0,0,0,0,0,0,-1,1637,1786,0,0
420,-762,0,0,0,0,0,0,0,0,0,-1,1644,1786,0,0
427,-762,0,0,0,0,0,0,0,0,0,-1,1651,1786,0,0
434,-762,0,0,0,0,0,0,0,0,0,-1,1658,1786,0,0
441,-762,0,0,0,0,0,0,0,0,0,-1,1665,1786,0,0
448,-762,0,0,0,0,0,0,0,0,0,-1,1672,1786,0,0
455,-762,0,0,0,0,0,0,0,0,0,-1,1679,1786,0,0
462,-762,0,0,0,0,0,0,0,0,0,-1,1686,1786,0,0
469,-762,0,0,0,0,0,0,0,0,0,-1,1693,1786,0,0
476,-762,0,0,0,0,0,0,0,0,0,-1,1700,1786,0,0
483,-762,0,0,0,0,0,0,0,0,0,-1,1707,1786,0,0
490,-762,0,0,0,0,0,0,0,0,0,-1,1714,1786,0,0
497,-762,0,0,0,0,0,0,0,0,0,-1,1721,1786,0,0
504,-762,0,0,0,0,0,0,0,0,0,-1,1728,1786,0,0
511,-762,0,0,0,0,0,0,0,0,0,-1,1735,1786,0,0
518,-762,0,0,0,0,0,0,0,0,0,-1,1742,1786,0,0
525,-762,0,0,0,0,0,0,0,0,0,-1,1749,1786,0,0
532,-762,0,0,0,0,0,0,0,0,0,-1,1756,1786,0,0
539,-762,0,0,0,0,0,0,0,0,0,-1,1763,1786,0,0
546,-762,0,0,0,0,0,0,0,0,0,-1,1770,1786,0,0
553,-762,0,0,0,0,0,0,0,0,0,-1,1777,1786,0,0
560,-762,0,0,0,0,0,0,0,0,0,-1,1784,1786,0,0
567,-762,0,0,0,0,0,0,0,0,0,-1,1791,1786,0,0
574,-762,0,0,0,0,0,0,0,0,0,-1,1798,1786,0,0
581,-762,0,0,0,0,0,0,0,0,0,-1,1805,1786,0,0
588,-762,0,0,0,0,0,0,0,0,0,-1,1812,1786,0,0
595,-762,0,0,0,0,0,0,0,0,0,-1,1819,1786,0,0
602,-762,0,0,0,0,0,0,0,0,0,-1,1826,1786,0,0
609,-762,0,0,0,0,0,0,0,0,0,-1,1833,1786,0,0
616,-762,0,0,0,0,0,0,0,0,0,-1,1840,1786,0,0
623,-762,0,0,0,0,0,0,0,0,0,-1,1847,1786,0,0
630,-762,0,0,0,0,0,0,0,0,0,-1,1854,1786,0,0
637,-762,0,0,0,0,0,0,0,0,0,-1,1861,1786,0,0
644,-762,0,0,0,0,0,0,0,0,0,-1,1868,1786,0,0
651,-762,0,0,0,0,0,0,0,0,0,-1,1875,1786,0,0
658,-762,0,0,0,0,0,0,0,0,0,-1,1882,1786,0,0
665,-762,0,0,0,0,0,0,0,0,0,-1,1889,1786,0,0
672,-762,0,0,0,0,0,0,0,0,0,-1,1896,1786,0,0
679,-762,0,0,0,0,0,0,0,0,0,-1,1903,1786,0,0
686,-762,0,0,0,0,0,0,0,0,0,-1,1910,1786,0,0
693,-762,0,0,0,0,0,0,0,0,0,-1,1917,1786,0,0
700,-762,0,0,0,0,0,0,0,0,0,-1,1924,1786,0,0
707,-762,0,0,0,0,0,0,0,0,0,-1,1931,1786,0,0
714,-762,0,0,0,0,0,0,0,0,0,-1,1938,1786,0,0
721,-762,0,0,0,0,0,0,0,0,0,-1,1945,1786,0,0
728,-762,0,0,0,0,0,0,0,0,0,-1,1952,1786,0,0
735,-762,0,0,0,0,0,0,0,0,0,-1,1959,1786,0,0
742,-762,0,0,0,0,0,0,0,0,0,-1,1966,1786,0,0
749,-762,0,0,0,0,0,0,0,0,0,-1,1973,1786,0,0
756,-762,0,0,0,0,0,0,0,0,0,-1,1980,1786,0,0
763,-762,0,0,0,0,0,0,0,0,0,-1,1987,1786,0,0
770,-762,0,0,0,0,0,0,0,0,0,-1,1994,1786,0,0
777,-762,0,0,0,0,0,0,0,0,0,-1,2001,1786,0,0
784,-762,0,0,0,0,0,0,0,0,0,-1,2008,1786,0,0
791,-762,0,0,0,0,0,0,0,0,0,-1,2015,1786,0,0
798,-762,0,0,0,0,0,0,0,0,0,-1,2022,1786,0,0
805,-762,0,0,0,0,0,0,0,0,0,-1,2029,1786,0,0
812,-762,0,0,0,0,0,0,0,0,0,-1,2036,1786,0,0
-700,-769,0,0,0,0,0,0,0,0,0,-1,524,1793,0,0
-693,-769,0,0,0,0,0,0,0,0,0,-1,531,1793,0,0
-686,-769,0,0,0,0,0,0,0,0,0,-1,538,1793,0,0
-679,-769,0,0,0,0,0,0,0,0,0,-1,545,1793,0,0
-672,-769,0,0,0,0,0,0,0,0,0,-1,552,1793,0,0
-665,-769,0,0,0,0,0,0,0,0,0,-1,559,1793,0,0
-658,-769,0,0,0,0,0,0,0,0,0,-1,566,1793,0,0
-651,-769,0,0,0,0,0,0,0,0,0,-1,573,1793,0,0
-644,-769,0,0,0,0,0,0,0,0,0,-1,580,1793,0,0
-637,-769,0,0,0,0,0,0,0,0,0,-1,587,1793,0,0
-630,-769,0,0,0,0,0,0,0,0,0,-1,594,1793,0,0
-623,-769,0,0,0,0,0,0,0,0,0,-1,601,1793,0,0
-616,-769,0,0,0,0,0,0,0,0,0,-1,608,1793,0,0
-609,-769,0,0,0,0,0,0,0,0,0,-1,615,1793,0,0
-602,-769,0,0,0,0,0,0,0,0,0,-1,622,1793,0,0
-595,-769,0,0,0,0,0,0,0,0,0,-1,629,1793,0,0
-588,-769,0,0,0,0,0,0,0,0,0,-1,636,1793,0,0
-581,-769,0,0,0,0,0,0,0,0,0,-1,643,1793,0,0
-574,-769,0,0,0,0,0,0,0,0,0,-1,650,1793,0,0
-567,-769,0,0,0,0,0,0,0,0,0,-1,657,1793,0,0
-560,-769,0,0,0,0,0,0,0,0,0,-1,664,1793,0,0
-553,-769,0,0,0,0,0,0,0,0,0,-1,671,1793,0,0
-546,-769,0,0,0,0,0,0,0,0,0,-1,678,1793,0,0
-539,-769,0,0,0,0,0,0,0,0,0,-1,685,1793,0,0
-532,-769,0,0,0,0,0,0,0,0,0,-1,692,1793,0,0
-525,-769,0,0,0,0,0,0,0,0,0,-1,699,1793,0,0
-518,-769,0,0,0,0,0,0,0,0,0,-1,706,1793,0,0
-511,-769,0,0,0,0,0,0,0,0,0,-1,713,1793,0,0
-504,-769,0,0,0,0,0,0,0,0,0,-1,720,1793,0,0
-497,-769,0,0,0,0,0,0,0,0,0,-1,727,1793,0,0
-490,-769,0,0,0,0,0,0,0,0,0,-1,734,1793,0,0
-483,-769,0,0,0,0,0,0,0,0,0,-1,741,1793,0,0
-476,-769,0,0,0,0,0,0,0,0,0,-1,748,1793,0,0
-469,-769,0,0,0,0,0,0,0,0,0,-1,755,1793,0,0
-462,-769,0,0,0,0,0,0,0,0,0,-1,762,1793,0,0
-455,-769,0,0,0,0,0,0,0,0,0,-1,769,1793,0,0
-448,-769,0,0,0,0,0,0,0,0,0,-1,776,1793,0,0
-441,-769,0,0,0,0,0,0,0,0,0,-1,783,1793,0,0
-434,-769,0,0,0,0,0,0,0,0,0,-1,790,1793,0,0
-427,-769,0,0,0,0,0,0,0,0,0,-1,797,1793,0,0
-420,-769,0,0,0,0,0,0,0,0,0,-1,804,1793,0,0
-413,-769,0,0,0,0,0,0,0,0,0,-1,811,1793,0,0
-406,-769,0,0,0,0,0,0,0,0,0,-1,818,1793,0,0
-399,-769,0,0,0,0,0,0,0,0,0,-1,825,1793,0,0
-392,-769,0,0,0,0,0,0,0,0,0,-1,832,1793,0,0
-385,-769,0,0,0,0,0,0,0,0,0,-1,839,1793,0,0
-378,-769,0,0,0,0,0,0,0,0,0,-1,846,1793,0,0
-371,-769,0,0,0,0,0,0,0,0,0,-1,853,1793,0,0
-364,-769,0,0,0,0,0,0,0,0,0,-1,860,1793,0,0
-357,-769,0,0,0,0,0,0,0,0,0,-1,867,1793,0,0
-350,-769,0,0,0,0,0,0,0,0,0,-1,874,1793,0,0
-343,-769,0,0,0,0,0,0,0,0,0,-1,881,1793,0,0
-336,-769,0,0,0,0,0,0,0,0,0,-1,888,1793,0,0
-329,-769,0,0,0,0,0,0,0,0,0,-1,895,1793,0,0
-322,-769,0,0,0,0,0,0,0,0,0,-1,902,1793,0,0
-315,-769,0,0,0,0,0,0,0,0,0,-1,909,1793,0,0
-308,-769,0,0,0,0,0,0,0,0,0,-1,916,1793,0,0
-301,-769,0,0,0,0,0,0,0,0,0,-1,923,1793,0,0
-294,-769,0,0,0,0,0,0,0,0,0,-1,930,1793,0,0
-287,-769,0,0,0,0,0,0,0,0,0,-1,937,1793,0,0
-280,-769,0,0,0,0,0,0,0,0,0,-1,944,1793,0,0
-273,-769,0,0,0,0,0,0,0,0,0,-1,951,1793,0,0
-266,-769,0,0,0,0,0,0,0,0,0,-1,958,1793,0,0
-259,-769,0,0,0,0,0,0,0,0,0,-1,965,1793,0,0
-252,-769,0,0,0,0,0,0,0,0,0,-1,972,1793,0,0
-245,-769,0,0,0,0,0,0,0,0,0,-1,979,1793,0,0
-238,-769,0,0,0,0,0,0,0,0,0,-1,986,1793,0,0
-231,-769,0,0,0,0,0,0,0,0,0,-1,993,1793,0,0
-224,-769,0,0,0,0,0,0,0,0,0,-1,1000,1793,0,0
-217,-769,0,0,0,0,0,0,0,0,0,-1,1007,1793,0,0
-210,-769,0,0,0,0,0,0,0,0,0,-1,1014,1793,0,0
-203,-769,0,0,0,0,0,0,0,0,0,-1,1021,1793,0,0
-196,-769,0,0,0,0,0,0,0,0,0,-1,1028,1793,0,0
-189,-769,0,0,0,0,0,0,0,0,0,-1,1035,1793,0,0
-182,-769,0,0,0,0,0,0,0,0,0,-1,1042,1793,0,0
-175,-769,0,0,0,0,0,0,0,0,0,-1,1049,1793,0,0
-168,-769,0,0,0,0,0,0,0,0,0,-1,1056,1793,0,0
-161,-769,0.133545,0.0734863,0.00909294,0.0269634,-0.00221885,0.0272348,0.00882156,-1.4491,0.0160458,0.0436884,1063,1793,0.133589,-0.073524
-154,-769,0.427612,-0.370483,0.00491138,0.018814,-0.00531793,0.0206149,0.00311049,-1.24427,0.0128327,0.0458072,1070,1793,0.427621,0.370519
-147,-769,0.463013,-0.664551,0,0,0,0,0,0,0,-1,1077,1793,0.462974,0.664583
-140,-769,0.067749,0.51355,0,0,0,0,0,0,0,-1,1084,1793,0.0677991,-0.513514
-133,-769,0.784668,0.622314,-0.00214153,0.00242556,-0.00839572,0.00884275,-0.00855871,-0.91818,0.0100472,0.047885,1091,1793,0.784645,-0.62226
-126,-769,0.787354,0.606445,-0.0036475,-0.00073962,-0.00805289,0.00598953,-0.0103766,-0.874711,0.00956151,0.0463375,1098,1793,0.787333,-0.606454
-119,-769,0.789063,1.2157,0,0,0,0,0,0,0,-1,1105,1793,0.789042,-1.21575
-112,-769,0.794434,1.52942,0,0,0,0,0,0,0,-1,1112,1793,0.794477,-1.52947
-105,-769,0.193481,-0.328491,0,0,0,0,0,0,0,-1,1119,1793,0.193491,0.328432
-98,-769,0.506226,0.248779,0,0,0,0,0,0,0,-1,1126,1793,0.506254,-0.248788
-91,-769,0.442017,-0.133667,-0.00801992,-0.00773577,-0.00220333,-0.00566994,-0.0100857,-0.817596,0.005838,0.0414219,1133,1793,0.442002,0.133652
-84,-769,0.343628,-0.171265,-0.00742091,-0.00688022,-0.00197455,-0.0051576,-0.00914353,-0.853433,0.00529345,0.0402947,1140,1793,0.343619,0.171212
-77,-769,0.388794,0.0146484,-0.00674178,-0.00694531,-0.00232286,-0.00451846,-0.00916863,-0.763507,0.00529369,0.0384544,1147,1793,0.388826,-0.0146587
-70,-769,0.332642,0.133545,-0.00600509,-0.00739476,-0.00309109,-0.0035317,-0.00986815,-0.674843,0.00577358,0.044926,1154,1793,0.332609,-0.133523
-63,-769,0.0552979,0.209351,-0.006298,-0.00843418,-0.0038816,-0.00334022,-0.011392,-0.651138,0.00676206,0.0453836,1161,1793,0.0553169,-0.209393
-56,-769,0.131226,-0.325562,-0.0076942,-0.00947663,-0.00435666,-0.00413854,-0.0130323,-0.684508,0.00768935,0.044539,1168,1793,0.131206,0.325552
-49,-769,-0.0390625,1.54858,0,0,0,0,0,0,0,-1,1175,1793,-0.0390634,-1.54864
-42,-769,0.0194092,0.506104,-0.013736,-0.0175208,-0.00386269,-0.0113271,-0.0199298,-0.557622,0.0115422,0.0427267,1182,1793,0.0194245,-0.506054
-35,-769,0.0396729,-0.571899,-0.018258,-0.0229493,-0.00305605,-0.0167511,-0.0244561,-0.458077,0.0144381,0.0482464,1189,1793,0.0396687,0.571867
-28,-769,-0.320435,-0.157715,0,0,0,0,0,0,0,-1,1196,1793,-0.320429,0.157772
-21,-769,-0.937622,0.182861,0,0,0,0,0,0,0,-1,1203,1793,-0.93763,-0.182865
-14,-769,-0.87085,0.307617,0,0,0,0,0,0,0,-1,1210,1793,-0.870895,-0.30761
-7,-769,-0.533691,0.38623,0,0,0,0,0,0,0,-1,1217,1793,-0.533631,-0.386213
0,-769,3.23438,-3.91772,0,0,0,0,0,0,0,-1,1224,1793,3.23437,3.91775
7,-769,2.36304,-3.42456,0,0,0,0,0,0,0,-1,1231,1793,2.36308,3.42452
14,-769,-0.0632324,0.391846,-0.0318917,-0.0401629,0.00455169,-0.0298774,-0.0421772,0.416629,0.025046,0.042931,1238,1793,-0.0632434,-0.391798
21,-769,-0.439331,0.725708,-0.030988,-0.0394972,0.00331754,-0.0298475,-0.0406378,0.331137,0.024307,0.0449087,1245,1793,-0.439299,-0.725691
28,-769,-0.439331,0.718628,-0.0292851,-0.0380402,0.00150864,-0.0290324,-0.0382929,0.165942,0.0230698,0.0411008,1252,1793,-0.439378,-0.718568
35,-769,-0.264771,0.602783,-0.0249105,-0.0347289,-0.00133476,-0.0247323,-0.0349072,-0.132736,0.0207296,0.0419887,1259,1793,-0.264828,-0.602804
42,-769,-0.364624,0.612793,-0.0201354,-0.029485,-0.00273468,-0.0193943,-0.0302261,-0.264652,0.0176829,0.0436099,1266,1793,-0.364663,-0.612789
49,-769,-0.143921,0.55603,-0.015096,-0.0254598,-0.00364066,-0.0139449,-0.0266108,-0.306225,0.0153697,0.0421676,1273,1793,-0.14391,-0.556041
56,-769,-0.0947266,0.275024,-0.00960036,-0.0202436,-0.00422068,-0.0081298,-0.0217142,-0.335265,0.0126679,0.0433179,1280,1793,-0.0946773,-0.275035
63,-769,-0.247192,0.184326,-0.00333415,-0.0164099,-0.00413346,-0.00213709,-0.017607,-0.281891,0.0110945,0.0454044,1287,1793,-0.24722,-0.184363
70,-769,-0.19873,0.215454,0.00279682,-0.0123243,-0.00264883,0.0032474,-0.0127749,-0.168492,0.00978045,0.0469215,1294,1793,-0.198748,-0.215416
77,-769,-0.0223389,0.0654297,0,0,0,0,0,0,0,-1,1301,1793,-0.0223917,-0.0654042
84,-769,-0.241211,0.0784912,0.0137962,-0.00709642,0.00255926,0.0141052,-0.00740535,0.12013,0.0126183,0.0489883,1308,1793,-0.241269,-0.0784946
91,-769,0.191895,-0.641479,0.0184603,-0.00523993,0.0052053,0.0195532,-0.00633278,0.206944,0.0155814,0.0424095,1315,1793,0.191869,0.641509
98,-769,0.00732422,0.149414,0,0,0,0,0,0,0,-1,1322,1793,0.00726946,-0.149443
105,-769,-0.12561,0.163696,0,0,0,0,0,0,0,-1,1329,1793,-0.125596,-0.163685
112,-769,-0.390259,-0.0513916,0,0,0,0,0,0,0,-1,1336,1793,-0.390307,0.0513786
119,-769,-0.562256,-0.244873,0.0241262,-0.000610013,0.0131164,0.0297861,-0.00626991,0.407375,0.0222439,0.0476549,1343,1793,-0.562212,0.244897
126,-769,-0.105835,0.036499,0.0217098,-0.00122309,0.0141818,0.0284807,-0.00799403,0.445437,0.0221383,0.0492926,1350,1793,-0.105781,-0.0364769
133,-769,0.842773,0.110229,0.0173425,-0.00156366,0.0127248,0.0237412,-0.00796242,0.465932,0.0190448,0.0486979,1357,1793,0.842802,-0.110197
140,-769,0.552002,0.297241,0.0124999,-0.00260042,0.0112017,0.0184583,-0.00855887,0.48886,0.0159436,0.0489457,1364,1793,0.552031,-0.297262
147,-769,0.226563,0.0800781,0,0,0,0,0,0,0,-1,1371,1793,0.226617,-0.0800372
154,-769,0.194702,-0.041748,0,0,0,0,0,0,0,-1,1378,1793,0.19473,0.0417104
161,-769,0.128296,-0.0863037,0,0,0,0,0,0,0,-1,1385,1793,0.128346,0.086348
168,-769,0.270264,-0.446777,0,0,0,0,0,0,0,-1,1392,1793,0.27032,0.4468
175,-769,-0.0777588,-0.126465,0,0,0,0,0,0,0,-1,1399,1793,-0.0777151,0.126491
182,-769,0.0244141,-0.263306,0,0,0,0,0,0,0,-1,1406,1793,0.0244443,0.263292
189,-769,-0.227783,-1.00977,0,0,0,0,0,0,0,-1,1413,1793,-0.227746,1.00981
196,-769,-0.15271,-1.15405,0,0,0,0,0,0,0,-1,1420,1793,-0.152694,1.15403
203,-769,-0.0209961,-0.135376,-0.00364416,-0.00823784,-0.00476985,-0.000646946,-0.0112351,-0.561016,0.00728397,0.0408915,1427,1793,-0.0209423,0.135427
210,-769,-0.28125,-0.0151367,-0.00320407,-0.0072332,-0.00485555,3.82508e-05,-0.0104755,-0.588756,0.00699647,0.0390992,1434,1793,-0.28124,0.0151695
217,-769,-0.667847,0.107422,0,0,0,0,0,0,0,-1,1441,1793,-0.667844,-0.107421
224,-769,-0.24585,-0.122681,-0.00227105,-0.00446384,-0.00356494,0.000362289,-0.00709717,-0.636214,0.00485672,0.0402437,1448,1793,-0.245807,0.122642
231,-769,-0.0332031,-0.2323,-0.00195542,-0.00270415,-0.0024977,0.000195815,-0.00485539,-0.71101,0.00330413,0.0408875,1455,1793,-0.0332112,0.232327
238,-769,0.0531006,-0.0732422,-0.0036226,-0.00155514,-0.00143362,-0.00082143,-0.00435632,-1.09776,0.00267281,0.0398126,1462,1793,0.0531414,0.0732171
245,-769,0.221558,-0.20459,-0.00709734,0.000117194,-0.000770875,0.000198642,-0.00717878,-1.46553,0.00485342,0.0417753,1469,1793,0.221534,0.204591
252,-769,-0.206177,-0.570557,-0.0126651,0.00208535,4.84288e-05,0.00208551,-0.0126653,1.56751,0.00921767,0.0425146,1476,1793,-0.206167,0.570587
259,-769,-0.324585,-0.575928,-0.0191927,0.0016143,0.000814556,0.00164614,-0.0192246,1.53173,0.0133988,0.0426209,1483,1793,-0.324597,0.575955
266,-769,-0.424683,-0.590576,-0.0258508,0.000600603,0.00189533,0.000735721,-0.025986,1.49963,0.0175743,0.0424012,1490,1793,-0.424648,0.590558
273,-769,-0.447754,-0.366089,-0.0331721,-2.15795e-05,0.00326754,0.000297422,-0.0334911,1.47348,0.0224272,0.0419354,1497,1793,-0.447724,0.366096
280,-769,-0.461304,-0.140137,0,0,0,0,0,0,0,-1,1504,1793,-0.461276,0.140197
287,-769,0,0,0,0,0,0,0,0,0,-1,1511,1793,0,0
294,-769,0,0,0,0,0,0,0,0,0,-1,1518,1793,0,0
301,-769,0,0,0,0,0,0,0,0,0,-1,1525,1793,0,0
308,-769,0,0,0,0,0,0,0,0,0,-1,1532,1793,0,0
315,-769,0,0,0,0,0,0,0,0,0,-1,1539,1793,0,0
322,-769,0,0,0,0,0,0,0,0,0,-1,1546,1793,0,0
329,-769,0,0,0,0,0,0,0,0,0,-1,1553,1793,0,0
336,-769,0,0,0,0,0,0,0,0,0,-1,1560,1793,0,0
343,-769,0,0,0,0,0,0,0,0,0,-1,1567,1793,0,0
350,-769,0,0,0,0,0,0,0,0,0,-1,1574,1793,0,0
357,-769,0,0,0,0,0,0,0,0,0,-1,1581,1793,0,0
364,-769,0,0,0,0,0,0,0,0,0,-1,1588,1793,0,0
371,-769,0,0,0,0,0,0,0,0,0,-1,1595,1793,0,0
378,-769,0,0,0,0,0,0,0,0,0,-1,1602,1793,0,0
385,-769,0,0,0,0,0,0,0,0,0,-1,1609,1793,0,0
392,-769,0,0,0,0,0,0,0,0,0,-1,1616,1793,0,0
399,-769,0,0,0,0,0,0,0,0,0,-1,1623,1793,0,0
406,-769,0,0,0,0,0,0,0,0,0,-1,1630,1793,0,0
413,-769,0,0,0,0,0,0,0,0,0,-1,1637,1793,0,0
420,-769,0,0,0,0,0,0,0,0,0,-1,1644,1793,0,0
427,-769,0,0,0,0,0,0,0,0,0,-1,1651,1793,0,0
434,-769,0,0,0,0,0,0,0,0,0,-1,1658,1793,0,0
441,-769,0,0,0,0,0,0,0,0,0,-1,1665,1793,0,0
448,-769,0,0,0,0,0,0,0,0,0,-1,1672,1793,0,0
455,-769,0,0,0,0,0,0,0,0,0,-1,1679,1793,0,0
462,-769,0,0,0,0,0,0,0,0,0,-1,1686,1793,0,0
469,-769,0,0,0,0,0,0,0,0,0,-1,1693,1793,0,0
476,-769,0,0,0,0,0,0,0,0,0,-1,1700,1793,0,0
483,-769,0,0,0,0,0,0,0,0,0,-1,1707,1793,0,0
490,-769,0,0,0,0,0,0,0,0,0,-1,1714,1793,0,0
497,-769,0,0,0,0,0,0,0,0,0,-1,1721,1793,0,0
504,-769,0,0,0,0,0,0,0,0,0,-1,1728,1793,0,0
511,-769,0,0,0,0,0,0,0,0,0,-1,1735,1793,0,0
518,-769,0,0,0,0,0,0,0,0,0,-1,1742,1793,0,0
525,-769,0,0,0,0,0,0,0,0,0,-1,1749,1793,0,0
532,-769,0,0,0,0,0,0,0,0,0,-1,1756,1793,0,0
539,-769,0,0,0,0,0,0,0,0,0,-1,1763,1793,0,0
546,-769,0,0,0,0,0,0,0,0,0,-1,1770,1793,0,0
553,-769,0,0,0,0,0,0,0,0,0,-1,1777,1793,0,0
560,-769,0,0,0,0,0,0,0,0,0,-1,1784,1793,0,0
567,-769,0,0,0,0,0,0,0,0,0,-1,1791,1793,0,0
574,-769,0,0,0,0,0,0,0,0,0,-1,1798,1793,0,0
581,-769,0,0,0,0,0,0,0,0,0,-1,1805,1793,0,0
588,-769,0,0,0,0,0,0,0,0,0,-1,1812,1793,0,0
595,-769,0,0,0,0,0,0,0,0,0,-1,1819,1793,0,0
602,-769,0,0,0,0,0,0,0,0,0,-1,1826,1793,0,0
609,-769,0,0,0,0,0,0,0,0,0,-1,1833,1793,0,0
616,-769,0,0,0,0,0,0,0,0,0,-1,1840,1793,0,0
623,-769,0,0,0,0,0,0,0,0,0,-1,1847,1793,0,0
630,-769,0,0,0,0,0,0,0,0,0,-1,1854,1793,0,0
637,-769,0,0,0,0,0,0,0,0,0,-1,1861,1793,0,0
644,-769,0,0,0,0,0,0,0,0,0,-1,1868,1793,0,0
651,-769,0,0,0,0,0,0,0,0,0,-1,1875,1793,0,0
658,-769,0,0,0,0,0,0,0,0,0,-1,1882,1793,0,0
665,-769,0,0,0,0,0,0,0,0,0,-1,1889,1793,0,0
672,-769,0,0,0,0,0,0,0,0,0,-1,1896,1793,0,0
679,-769,0,0,0,0,0,0,0,0,0,-1,1903,1793,0,0
686,-769,0,0,0,0,0,0,0,0,0,-1,1910,1793,0,0
693,-769,0,0,0,0,0,0,0,0,0,-1,1917,1793,0,0
700,-769,0,0,0,0,0,0,0,0,0,-1,1924,1793,0,0
707,-769,0,0,0,0,0,0,0,0,0,-1,1931,1793,0,0
714,-769,0,0,0,0,0,0,0,0,0,-1,1938,1793,0,0
721,-769,0,0,0,0,0,0,0,0,0,-1,1945,1793,0,0
728,-769,0,0,0,0,0,0,0,0,0,-1,1952,1793,0,0
735,-769,0,0,0,0,0,0,0,0,0,-1,1959,1793,0,0
742,-769,0,0,0,0,0,0,0,0,0,-1,1966,1793,0,0
749,-769,0,0,0,0,0,0,0,0,0,-1,1973,1793,0,0
756,-769,0,0,0,0,0,0,0,0,0,-1,1980,1793,0,0
763,-769,0,0,0,0,0,0,0,0,0,-1,1987,1793,0,0
770,-769,0,0,0,0,0,0,0,0,0,-1,1994,1793,0,0
777,-769,0,0,0,0,0,0,0,0,0,-1,2001,1793,0,0
784,-769,0,0,0,0,0,0,0,0,0,-1,2008,1793,0,0
791,-769,0,0,0,0,0,0,0,0,0,-1,2015,1793,0,0
798,-769,0,0,0,0,0,0,0,0,0,-1,2022,1793,0,0
805,-769,0,0,0,0,0,0,0,0,0,-1,2029,1793,0,0
812,-769,0,0,0,0,0,0,0,0,0,-1,2036,1793,0,0
-700,-776,0,0,0,0,0,0,0,0,0,-1,524,1800,0,0
-693,-776,0,0,0,0,0,0,0,0,0,-1,531,1800,0,0
-686,-776,0,0,0,0,0,0,0,0,0,-1,538,1800,0,0
-679,-776,0,0,0,0,0,0,0,0,0,-1,545,1800,0,0
-672,-776,0,0,0,0,0,0,0,0,0,-1,552,1800,0,0
-665,-776,0,0,0,0,0,0,0,0,0,-1,559,1800,0,0
-658,-776,0,0,0,0,0,0,0,0,0,-1,566,1800,0,0
-651,-776,0,0,0,0,0,0,0,0,0,-1,573,1800,0,0
-644,-776,0,0,0,0,0,0,0,0,0,-1,580,1800,0,0
-637,-776,0,0,0,0,0,0,0,0,0,-1,587,1800,0,0
-630,-776,0,0,0,0,0,0,0,0,0,-1,594,1800,0,0
-623,-776,0,0,0,0,0,0,0,0,0,-1,601,1800,0,0
-616,-776,0,0,0,0,0,0,0,0,0,-1,608,1800,0,0
-609,-776,0,0,0,0,0,0,0,0,0,-1,615,1800,0,0
-602,-776,0,0,0,0,0,0,0,0,0,-1,622,1800,0,0
-595,-776,0,0,0,0,0,0,0,0,0,-1,629,1800,0,0
-588,-776,0,0,0,0,0,0,0,0,0,-1,636,1800,0,0
-581,-776,0,0,0,0,0,0,0,0,0,-1,643,1800,0,0
-574,-776,0,0,0,0,0,0,0,0,0,-1,650,1800,0,0
-567,-776,0,0,0,0,0,0,0,0,0,-1,657,1800,0,0
-560,-776,0,0,0,0,0,0,0,0,0,-1,664,1800,0,0
-553,-776,0,0,0,0,0,0,0,0,0,-1,671,1800,0,0
-546,-776,0,0,0,0,0,0,0,0,0,-1,678,1800,0,0
-539,-776,0,0,0,0,0,0,0,0,0,-1,685,1800,0,0
-532,-776,0,0,0,0,0,0,0,0,0,-1,692,1800,0,0
-525,-776,0,0,0,0,0,0,0,0,0,-1,699,1800,0,0
-518,-776,0,0,0,0,0,0,0,0,0,-1,706,1800,0,0
-511,-776,0,0,0,0,0,0,0,0,0,-1,713,1800,0,0
-504,-776,0,0,0,0,0,0,0,0,0,-1,720,1800,0,0
-497,-776,0,0,0,0,0,0,0,0,0,-1,727,1800,0,0
-490,-776,0,0,0,0,0,0,0,0,0,-1,734,1800,0,0
-483,-776,0,0,0,0,0,0,0,0,0,-1,741,1800,0,0
-476,-776,0,0,0,0,0,0,0,0,0,-1,748,1800,0,0
-469,-776,0,0,0,0,0,0,0,0,0,-1,755,1800,0,0
-462,-776,0,0,0,0,0,0,0,0,0,-1,762,1800,0,0
-455,-776,0,0,0,0,0,0,0,0,0,-1,769,1800,0,0
-448,-776,0,0,0,0,0,0,0,0,0,-1,776,1800,0,0
-441,-776,0,0,0,0,0,0,0,0,0,-1,783,1800,0,0
-434,-776,0,0,0,0,0,0,0,0,0,-1,790,1800,0,0
-427,-776,0,0,0,0,0,0,0,0,0,-1,797,1800,0,0
-420,-776,0,0,0,0,0,0,0,0,0,-1,804,1800,0,0
-413,-776,0,0,0,0,0,0,0,0,0,-1,811,1800,0,0
-406,-776,0,0,0,0,0,0,0,0,0,-1,818,1800,0,0
-399,-776,0,0,0,0,0,0,0,0,0,-1,825,1800,0,0
-392,-776,0,0,0,0,0,0,0,0,0,-1,832,1800,0,0
-385,-776,0,0,0,0,0,0,0,0,0,-1,839,1800,0,0
-378,-776,0,0,0,0,0,0,0,0,0,-1,846,1800,0,0
-371,-776,0,0,0,0,0,0,0,0,0,-1,853,1800,0,0
-364,-776,0,0,0,0,0,0,0,0,0,-1,860,1800,0,0
-357,-776,0,0,0,0,0,0,0,0,0,-1,867,1800,0,0
-350,-776,0,0,0,0,0,0,0,0,0,-1,874,1800,0,0
-343,-776,0,0,0,0,0,0,0,0,0,-1,881,1800,0,0
-336,-776,0,0,0,0,0,0,0,0,0,-1,888,1800,0,0
-329,-776,0,0,0,0,0,0,0,0,0,-1,895,1800,0,0
-322,-776,0,0,0,0,0,0,0,0,0,-1,902,1800,0,0
-315,-776,0,0,0,0,0,0,0,0,0,-1,909,1800,0,0
-308,-776,0,0,0,0,0,0,0,0,0,-1,916,1800,0,0
-301,-776,0,0,0,0,0,0,0,0,0,-1,923,1800,0,0
-294,-776,0,0,0,0,0,0,0,0,0,-1,930,1800,0,0
-287,-776,0,0,0,0,0,0,0,0,0,-1,937,1800,0,0
-280,-776,0,0,0,0,0,0,0,0,0,-1,944,1800,0,0
-273,-776,0,0,0,0,0,0,0,0,0,-1,951,1800,0,0
-266,-776,0,0,0,0,0,0,0,0,0,-1,958,1800,0,0
-259,-776,0,0,0,0,0,0,0,0,0,-1,965,1800,0,0
-252,-776,0,0,0,0,0,0,0,0,0,-1,972,1800,0,0
-245,-776,0,0,0,0,0,0,0,0,0,-1,979,1800,0,0
-238,-776,0,0,0,0,0,0,0,0,0,-1,986,1800,0,0
-231,-776,0,0,0,0,0,0,0,0,0,-1,993,1800,0,0
-224,-776,0,0,0,0,0,0,0,0,0,-1,1000,1800,0,0
-217,-776,0,0,0,0,0,0,0,0,0,-1,1007,1800,0,0
-210,-776,0,0,0,0,0,0,0,0,0,-1,1014,1800,0,0
-203,-776,0,0,0,0,0,0,0,0,0,-1,1021,1800,0,0
-196,-776,0,0,0,0,0,0,0,0,0,-1,1028,1800,0,0
-189,-776,0,0,0,0,0,0,0,0,0,-1,1035,1800,0,0
-182,-776,0,0,0,0,0,0,0,0,0,-1,1042,1800,0,0
-175,-776,0,0,0,0,0,0,0,0,0,-1,1049,1800,0,0
-168,-776,0,0,0,0,0,0,0,0,0,-1,1056,1800,0,0
-161,-776,0,0,0,0,0,0,0,0,0,-1,1063,1800,0,0
-154,-776,0,0,0,0,0,0,0,0,0,-1,1070,1800,0,0
-147,-776,0,0,0,0,0,0,0,0,0,-1,1077,1800,0,0
-140,-776,-0.251709,0.0443115,0,0,0,0,0,0,0,-1,1084,1800,-0.251675,-0.0443278
-133,-776,1.07007,0.90625,0,0,0,0,0,0,0,-1,1091,1800,1.07002,-0.906279
-126,-776,0.731079,0.910034,0,0,0,0,0,0,0,-1,1098,1800,0.731025,-0.909994
-119,-776,0.873535,-0.117798,0,0,0,0,0,0,0,-1,1105,1800,0.873592,0.117742
-112,-776,0.597778,-0.176147,-0.00854447,-0.00523252,-0.00401742,-0.00254316,-0.0112338,-0.980887,0.00680186,0.043305,1112,1800,0.597735,0.176147
-105,-776,0.301025,-0.329834,-0.00954735,-0.00645281,-0.00301038,-0.00461534,-0.0113848,-1.02278,0.00661213,0.0389808,1119,1800,0.301063,0.329821
-98,-776,0.238159,-0.345703,-0.00987214,-0.00768178,-0.00034293,-0.00762934,-0.00992458,-1.41907,0.00599949,0.0403708,1126,1800,0.238158,0.345751
-91,-776,0.317505,-0.419067,-0.00955304,-0.0062795,0.00121702,-0.00587663,-0.00995592,1.25112,0.00577919,0.0426104,1133,1800,0.317526,0.419091
-84,-776,0.35022,-0.501709,-0.00894184,-0.005701,0.0012914,-0.00524935,-0.00939349,1.23436,0.00543583,0.0415185,1140,1800,0.350235,0.501734
-77,-776,0.282593,-0.267578,-0.0081485,-0.006331,0.000413303,-0.00624143,-0.00823808,1.35738,0.00496226,0.0407755,1147,1800,0.282583,0.267532
-70,-776,0.142334,0.0214844,-0.00727322,-0.00741139,-0.00104301,-0.00629701,-0.0083876,-0.752327,0.00504149,0.0464241,1154,1800,0.142358,-0.0214503
-63,-776,0.115356,0.323975,-0.0081508,-0.00905541,-0.00243647,-0.00612501,-0.0110812,-0.693623,0.00640959,0.0439949,1161,1800,0.115366,-0.324011
-56,-776,-0.0426025,0.239136,-0.010696,-0.0105948,-0.00331276,-0.00733229,-0.0139586,-0.793036,0.00806243,0.0429032,1168,1800,-0.0425788,-0.239152
-49,-776,-0.090332,1.86182,0,0,0,0,0,0,0,-1,1175,1800,-0.0903118,-1.86183
-42,-776,-0.0192871,0.79895,-0.01952,-0.0214813,-0.0030992,-0.01725,-0.0237513,-0.632174,0.0141732,0.0458866,1182,1800,-0.019265,-0.798931
-35,-776,0.0362549,-0.255005,-0.0256226,-0.0285216,-0.00224837,-0.024397,-0.0297472,-0.499076,0.0183105,0.0451576,1189,1800,0.0362317,0.255036
-28,-776,0.119751,-1.33301,-0.0309655,-0.0337472,-0.00111679,-0.0305726,-0.0341401,-0.338269,0.021669,0.0478884,1196,1800,0.119742,1.33297
-21,-776,-1.5343,0.434448,0,0,0,0,0,0,0,-1,1203,1800,-1.53426,-0.434464
-14,-776,-1.73145,0.189209,0,0,0,0,0,0,0,-1,1210,1800,-1.73148,-0.189208
-7,-776,4.40393,-3.22766,0,0,0,0,0,0,0,-1,1217,1800,4.40389,3.22763
0,-776,3.57092,-2.7323,-0.0420865,-0.0487237,0.00454139,-0.0397804,-0.0510298,0.469866,0.030959,0.0487743,1224,1800,3.57087,2.73225
7,-776,2.70239,-2.27783,-0.0429569,-0.0499561,0.00505942,-0.0403047,-0.0526083,0.48283,0.0317752,0.0437937,1231,1800,2.70243,2.27782
14,-776,1.56653,-1.30347,0,0,0,0,0,0,0,-1,1238,1800,1.56659,1.30341
21,-776,0.96814,-0.76001,0,0,0,0,0,0,0,-1,1245,1800,0.968093,0.760011
28,-776,-0.345947,0.69397,0,0,0,0,0,0,0,-1,1252,1800,-0.345917,-0.693967
35,-776,0.553833,0.447754,-0.0335836,-0.0430039,-0.00262957,-0.0328993,-0.0436882,-0.254589,0.0262781,0.040402,1259,1800,0.553887,-0.447753
42,-776,-0.123901,1.15405,-0.0274057,-0.0366902,-0.00437613,-0.0256682,-0.0384277,-0.377949,0.0225996,0.0418896,1266,1800,-0.123853,-1.15402
49,-776,-0.0065918,0.5271,-0.020721,-0.0318656,-0.00545894,-0.0184926,-0.034094,-0.38756,0.0197078,0.0459899,1273,1800,-0.0065618,-0.527092
56,-776,-0.224487,0.491089,-0.0133745,-0.0255293,-0.00605203,-0.0108751,-0.0280287,-0.391654,0.0163172,0.0461658,1280,1800,-0.224452,-0.491105
63,-776,-0.44751,0.429443,-0.0050442,-0.0214135,-0.00583291,-0.00317841,-0.0232792,-0.309588,0.014576,0.0464356,1287,1800,-0.447561,-0.429405
70,-776,-0.318848,0.323486,0.00311118,-0.016856,-0.00385208,0.00382855,-0.0175734,-0.184121,0.0131785,0.0482413,1294,1800,-0.318816,-0.323456
77,-776,-1.18103,0.80603,0,0,0,0,0,0,0,-1,1301,1800,-1.18099,-0.806041
84,-776,-0.331421,-0.2229,0.0178594,-0.0117109,0.00294169,0.0181492,-0.0120007,0.0981987,0.0175273,0.0499623,1308,1800,-0.331377,0.222851
91,-776,0.539551,-1.53247,0.0242453,-0.0099871,0.00647312,0.0254284,-0.0111702,0.180781,0.0216581,0.0431063,1315,1800,0.539573,1.53245
98,-776,-2.6803,-1.72791,0.0291169,-0.00950546,0.0102889,0.0316868,-0.0120754,0.244768,0.0260981,0.0444075,1322,1800,-2.68028,1.72792
105,-776,-2.02368,-1.25989,0,0,0,0,0,0,0,-1,1329,1800,-2.0237,1.25985
112,-776,-1.47046,-0.816772,0.0342185,-0.00626277,0.0153878,0.0394036,-0.0114479,0.325012,0.0308025,0.0447595,1336,1800,-1.47048,0.816733
119,-776,-0.949585,-0.441162,0.0319002,-0.00488986,0.0164352,0.0381728,-0.0111625,0.364595,0.0298728,0.0452182,1343,1800,-0.94955,0.441109
126,-776,-0.682495,-0.192017,0.0287706,-0.00541902,0.0177758,0.0363377,-0.0129862,0.402463,0.0295218,0.0457627,1350,1800,-0.682524,0.192029
133,-776,-0.5625,0.146973,0.0229902,-0.0053579,0.015804,0.0300452,-0.0124129,0.419858,0.0252079,0.0459741,1357,1800,-0.56249,-0.146961
140,-776,0.800049,0.388794,0,0,0,0,0,0,0,-1,1364,1800,0.799994,-0.388757
147,-776,0.384277,0.146729,0,0,0,0,0,0,0,-1,1371,1800,0.384258,-0.146743
154,-776,0.695557,0.189575,0,0,0,0,0,0,0,-1,1378,1800,0.695616,-0.189609
161,-776,0.534546,-0.199097,0.00274376,-0.00898718,0.00432379,0.00416519,-0.0104086,0.317616,0.00866774,0.045909,1385,1800,0.534571,0.199103
168,-776,0.283081,-0.213745,-0.00174707,-0.00810131,0.00221347,-0.00105203,-0.00879634,0.304251,0.0055469,0.0494266,1392,1800,0.283073,0.213689
175,-776,0.0550537,-0.00317383,-0.00378184,-0.0109218,-0.00117943,-0.00359206,-0.0111115,-0.159544,0.00654746,0.0494831,1399,1800,0.0551098,0.00315953
182,-776,0.050293,-0.0170898,-0.005033,-0.0128038,-0.0034623,-0.00371419,-0.0141227,-0.363938,0.00845354,0.0436498,1406,1800,0.0502476,0.0170748
189,-776,-0.0999756,-0.394897,-0.00525931,-0.014523,-0.00531747,-0.00283924,-0.0169431,-0.4271,0.010478,0.0417973,1413,1800,-0.0999293,0.394952
196,-776,0.00305176,-0.692627,-0.00454522,-0.0136831,-0.00592905,-0.00162892,-0.0165994,-0.457119,0.0105652,0.0430816,1420,1800,0.00307482,0.692607
203,-776,0.263184,-0.442871,-0.00432165,-0.0127313,-0.00641896,-0.000852913,-0.0162001,-0.495435,0.0105273,0.0421795,1427,1800,0.2632,0.442839
210,-776,0.169312,-0.293091,-0.00391647,-0.0115624,-0.00663548,-8.14712e-05,-0.0153974,-0.524051,0.0102379,0.0396335,1434,1800,0.169278,0.293134
217,-776,-0.088501,-0.251343,-0.00339989,-0.0100512,-0.00622982,0.000336368,-0.0137875,-0.540226,0.00930581,0.0394999,1441,1800,-0.0884854,0.251311
224,-776,-0.170288,-0.167725,-0.0031398,-0.00825694,-0.00506667,-2.23313e-05,-0.0113744,-0.551586,0.00757551,0.041431,1448,1800,-0.170268,0.167753
231,-776,-0.0941162,0.0799561,-0.00300232,-0.00613822,-0.00363183,-0.000614435,-0.00852611,-0.581622,0.00549073,0.044126,1455,1800,-0.0941379,-0.0799894
238,-776,0.153442,0.291992,-0.00486827,-0.00500461,-0.0021111,-0.00282424,-0.00704864,-0.769258,0.00409621,0.0449216,1462,1800,0.153399,-0.292013
245,-776,-0.101074,-0.793945,0,0,0,0,0,0,0,-1,1469,1800,-0.101059,0.793921
252,-776,-0.159058,-0.838989,0,0,0,0,0,0,0,-1,1476,1800,-0.159013,0.83901
259,-776,-0.216919,-0.884155,0,0,0,0,0,0,0,-1,1483,1800,-0.216967,0.8841
266,-776,0,0,0,0,0,0,0,0,0,-1,1490,1800,0,0
273,-776,0,0,0,0,0,0,0,0,0,-1,1497,1800,0,0
280,-776,0,0,0,0,0,0,0,0,0,-1,1504,1800,0,0
287,-776,0,0,0,0,0,0,0,0,0,-1,1511,1800,0,0
294,-776,0,0,0,0,0,0,0,0,0,-1,1518,1800,0,0
301,-776,0,0,0,0,0,0,0,0,0,-1,1525,1800,0,0
308,-776,0,0,0,0,0,0,0,0,0,-1,1532,1800,0,0
315,-776,0,0,0,0,0,0,0,0,0,-1,1539,1800,0,0
322,-776,0,0,0,0,0,0,0,0,0,-1,1546,1800,0,0
329,-776,0,0,0,0,0,0,0,0,0,-1,1553,1800,0,0
336,-776,0,0,0,0,0,0,0,0,0,-1,1560,1800,0,0
343,-776,0,0,0,0,0,0,0,0,0,-1,1567,1800,0,0
350,-776,0,0,0,0,0,0,0,0,0,-1,1574,1800,0,0
357,-776,0,0,0,0,0,0,0,0,0,-1,1581,1800,0,0
364,-776,0,0,0,0,0,0,0,0,0,-1,1588,1800,0,0
371,-776,0,0,0,0,0,0,0,0,0,-1,1595,1800,0,0
378,-776,0,0,0,0,0,0,0,0,0,-1,1602,1800,0,0
385,-776,0,0,0,0,0,0,0,0,0,-1,1609,1800,0,0
392,-776,0,0,0,0,0,0,0,0,0,-1,1616,1800,0,0
399,-776,0,0,0,0,0,0,0,0,0,-1,1623,1800,0,0
406,-776,0,0,0,0,0,0,0,0,0,-1,1630,1800,0,0
413,-776,0,0,0,0,0,0,0,0,0,-1,1637,1800,0,0
420,-776,0,0,0,0,0,0,0,0,0,-1,1644,1800,0,0
427,-776,0,0,0,0,0,0,0,0,0,-1,1651,1800,0,0
434,-776,0,0,0,0,0,0,0,0,0,-1,1658,1800,0,0
441,-776,0,0,0,0,0,0,0,0,0,-1,1665,1800,0,0
448,-776,0,0,0,0,0,0,0,0,0,-1,1672,1800,0,0
455,-776,0,0,0,0,0,0,0,0,0,-1,1679,1800,0,0
462,-776,0,0,0,0,0,0,0,0,0,-1,1686,1800,0,0
469,-776,0,0,0,0,0,0,0,0,0,-1,1693,1800,0,0
476,-776,0,0,0,0,0,0,0,0,0,-1,1700,1800,0,0
483,-776,0,0,0,0,0,0,0,0,0,-1,1707,1800,0,0
490,-776,0,0,0,0,0,0,0,0,0,-1,1714,1800,0,0
497,-776,0,0,0,0,0,0,0,0,0,-1,1721,1800,0,0
504,-776,0,0,0,0,0,0,0,0,0,-1,1728,1800,0,0
511,-776,0,0,0,0,0,0,0,0,0,-1,1735,1800,0,0
518,-776,0,0,0,0,0,0,0,0,0,-1,1742,1800,0,0
525,-776,0,0,0,0,0,0,0,0,0,-1,1749,1800,0,0
532,-776,0,0,0,0,0,0,0,0,0,-1,1756,1800,0,0
539,-776,0,0,0,0,0,0,0,0,0,-1,1763,1800,0,0
546,-776,0,0,0,0,0,0,0,0,0,-1,1770,1800,0,0
553,-776,0,0,0,0,0,0,0,0,0,-1,1777,1800,0,0
560,-776,0,0,0,0,0,0,0,0,0,-1,1784,1800,0,0
567,-776,0,0,0,0,0,0,0,0,0,-1,1791,1800,0,0
574,-776,0,0,0,0,0,0,0,0,0,-1,1798,1800,0,0
581,-776,0,0,0,0,0,0,0,0,0,-1,1805,1800,0,0
588,-776,0,0,0,0,0,0,0,0,0,-1,1812,1800,0,0
595,-776,0,0,0,0,0,0,0,0,0,-1,1819,1800,0,0
602,-776,0,0,0,0,0,0,0,0,0,-1,1826,1800,0,0
609,-776,0,0,0,0,0,0,0,0,0,-1,1833,1800,0,0
616,-776,0,0,0,0,0,0,0,0,0,-1,1840,1800,0,0
623,-776,0,0,0,0,0,0,0,0,0,-1,1847,1800,0,0
630,-776,0,0,0,0,0,0,0,0,0,-1,1854,1800,0,0
637,-776,0,0,0,0,0,0,0,0,0,-1,1861,1800,0,0
644,-776,0,0,0,0,0,0,0,0,0,-1,1868,1800,0,0
651,-776,0,0,0,0,0,0,0,0,0,-1,1875,1800,0,0
658,-776,0,0,0,0,0,0,0,0,0,-1,1882,1800,0,0
665,-776,0,0,0,0,0,0,0,0,0,-1,1889,1800,0,0
672,-776,0,0,0,0,0,0,0,0,0,-1,1896,1800,0,0
679,-776,0,0,0,0,0,0,0,0,0,-1,1903,1800,0,0
686,-776,0,0,0,0,0,0,0,0,0,-1,1910,1800,0,0
693,-776,0,0,0,0,0,0,0,0,0,-1,1917,1800,0,0
700,-776,0,0,0,0,0,0,0,0,0,-1,1924,1800,0,0
707,-776,0,0,0,0,0,0,0,0,0,-1,1931,1800,0,0
714,-776,0,0,0,0,0,0,0,0,0,-1,1938,1800,0,0
721,-776,0,0,0,0,0,0,0,0,0,-1,1945,1800,0,0
728,-776,0,0,0,0,0,0,0,0,0,-1,1952,1800,0,0
735,-776,0,0,0,0,0,0,0,0,0,-1,1959,1800,0,0
742,-776,0,0,0,0,0,0,0,0,0,-1,1966,1800,0,0
749,-776,0,0,0,0,0,0,0,0,0,-1,1973,1800,0,0
756,-776,0,0,0,0,0,0,0,0,0,-1,1980,1800,0,0
763,-776,0,0,0,0,0,0,0,0,0,-1,1987,1800,0,0
770,-776,0,0,0,0,0,0,0,0,0,-1,1994,1800,0,0
777,-776,0,0,0,0,0,0,0,0,0,-1,2001,1800,0,0
784,-776,0,0,0,0,0,0,0,0,0,-1,2008,1800,0,0
791,-776,0,0,0,0,0,0,0,0,0,-1,2015,1800,0,0
798,-776,0,0,0,0,0,0,0,0,0,-1,2022,1800,0,0
805,-776,0,0,0,0,0,0,0,0,0,-1,2029,1800,0,0
812,-776,0,0,0,0,0,0,0,0,0,-1,2036,1800,0,0
-700,-783,0,0,0,0,0,0,0,0,0,-1,524,1807,0,0
-693,-783,0,0,0,0,0,0,0,0,0,-1,531,1807,0,0
-686,-783,0,0,0,0,0,0,0,0,0,-1,538,1807,0,0
-679,-783,0,0,0,0,0,0,0,0,0,-1,545,1807,0,0
-672,-783,0,0,0,0,0,0,0,0,0,-1,552,1807,0,0
-665,-783,0,0,0,0,0,0,0,0,0,-1,559,1807,0,0
-658,-783,0,0,0,0,0,0,0,0,0,-1,566,1807,0,0
-651,-783,0,0,0,0,0,0,0,0,0,-1,573,1807,0,0
-644,-783,0,0,0,0,0,0,0,0,0,-1,580,1807,0,0
-637,-783,0,0,0,0,0,0,0,0,0,-1,587,1807,0,0
-630,-783,0,0,0,0,0,0,0,0,0,-1,594,1807,0,0
-623,-783,0,0,0,0,0,0,0,0,0,-1,601,1807,0,0
-616,-783,0,0,0,0,0,0,0,0,0,-1,608,1807,0,0
-609,-783,0,0,0,0,0,0,0,0,0,-1,615,1807,0,0
-602,-783,0,0,0,0,0,0,0,0,0,-1,622,1807,0,0
-595,-783,0,0,0,0,0,0,0,0,0,-1,629,1807,0,0
-588,-783,0,0,0,0,0,0,0,0,0,-1,636,1807,0,0
-581,-783,0,0,0,0,0,0,0,0,0,-1,643,1807,0,0
-574,-783,0,0,0,0,0,0,0,0,0,-1,650,1807,0,0
-567,-783,0,0,0,0,0,0,0,0,0,-1,657,1807,0,0
-560,-783,0,0,0,0,0,0,0,0,0,-1,664,1807,0,0
-553,-783,0,0,0,0,0,0,0,0,0,-1,671,1807,0,0
-546,-783,0,0,0,0,0,0,0,0,0,-1,678,1807,0,0
-539,-783,0,0,0,0,0,0,0,0,0,-1,685,1807,0,0
-532,-783,0,0,0,0,0,0,0,0,0,-1,692,1807,0,0
-525,-783,0,0,0,0,0,0,0,0,0,-1,699,1807,0,0
-518,-783,0,0,0,0,0,0,0,0,0,-1,706,1807,0,0
-511,-783,0,0,0,0,0,0,0,0,0,-1,713,1807,0,0
-504,-783,0,0,0,0,0,0,0,0,0,-1,720,1807,0,0
-497,-783,0,0,0,0,0,0,0,0,0,-1,727,1807,0,0
-490,-783,0,0,0,0,0,0,0,0,0,-1,734,1807,0,0
-483,-783,0,0,0,0,0,0,0,0,0,-1,741,1807,0,0
-476,-783,0,0,0,0,0,0,0,0,0,-1,748,1807,0,0
-469,-783,0,0,0,0,0,0,0,0,0,-1,755,1807,0,0
-462,-783,0,0,0,0,0,0,0,0,0,-1,762,1807,0,0
-455,-783,0,0,0,0,0,0,0,0,0,-1,769,1807,0,0
-448,-783,0,0,0,0,0,0,0,0,0,-1,776,1807,0,0
-441,-783,0,0,0,0,0,0,0,0,0,-1,783,1807,0,0
-434,-783,0,0,0,0,0,0,0,0,0,-1,790,1807,0,0
-427,-783,0,0,0,0,0,0,0,0,0,-1,797,1807,0,0
-420,-783,0,0,0,0,0,0,0,0,0,-1,804,1807,0,0
-413,-783,0,0,0,0,0,0,0,0,0,-1,811,1807,0,0
-406,-783,0,0,0,0,0,0,0,0,0,-1,818,1807,0,0
-399,-783,0,0,0,0,0,0,0,0,0,-1,825,1807,0,0
-392,-783,0,0,0,0,0,0,0,0,0,-1,832,1807,0,0
-385,-783,0,0,0,0,0,0,0,0,0,-1,839,1807,0,0
-378,-783,0,0,0,0,0,0,0,0,0,-1,846,1807,0,0
-371,-783,0,0,0,0,0,0,0,0,0,-1,853,1807,0,0
-364,-783,0,0,0,0,0,0,0,0,0,-1,860,1807,0,0
-357,-783,0,0,0,0,0,0,0,0,0,-1,867,1807,0,0
-350,-783,0,0,0,0,0,0,0,0,0,-1,874,1807,0,0
-343,-783,0,0,0,0,0,0,0,0,0,-1,881,1807,0,0
-336,-783,0,0,0,0,0,0,0,0,0,-1,888,1807,0,0
-329,-783,0,0,0,0,0,0,0,0,0,-1,895,1807,0,0
-322,-783,0,0,0,0,0,0,0,0,0,-1,902,1807,0,0
-315,-783,0,0,0,0,0,0,0,0,0,-1,909,1807,0,0
-308,-783,0,0,0,0,0,0,0,0,0,-1,916,1807,0,0
-301,-783,0,0,0,0,0,0,0,0,0,-1,923,1807,0,0
-294,-783,0,0,0,0,0,0,0,0,0,-1,930,1807,0,0
-287,-783,0,0,0,0,0,0,0,0,0,-1,937,1807,0,0
-280,-783,0,0,0,0,0,0,0,0,0,-1,944,1807,0,0
-273,-783,0,0,0,0,0,0,0,0,0,-1,951,1807,0,0
-266,-783,0,0,0,0,0,0,0,0,0,-1,958,1807,0,0
-259,-783,0,0,0,0,0,0,0,0,0,-1,965,1807,0,0
-252,-783,0,0,0,0,0,0,0,0,0,-1,972,1807,0,0
-245,-783,0,0,0,0,0,0,0,0,0,-1,979,1807,0,0
-238,-783,0,0,0,0,0,0,0,0,0,-1,986,1807,0,0
-231,-783,0,0,0,0,0,0,0,0,0,-1,993,1807,0,0
-224,-783,0,0,0,0,0,0,0,0,0,-1,1000,1807,0,0
-217,-783,0,0,0,0,0,0,0,0,0,-1,1007,1807,0,0
-210,-783,0,0,0,0,0,0,0,0,0,-1,1014,1807,0,0
-203,-783,0,0,0,0,0,0,0,0,0,-1,1021,1807,0,0
-196,-783,0,0,0,0,0,0,0,0,0,-1,1028,1807,0,0
-189,-783,0,0,0,0,0,0,0,0,0,-1,1035,1807,0,0
-182,-783,0,0,0,0,0,0,0,0,0,-1,1042,1807,0,0
-175,-783,0,0,0,0,0,0,0,0,0,-1,1049,1807,0,0
-168,-783,0,0,0,0,0,0,0,0,0,-1,1056,1807,0,0
-161,-783,0,0,0,0,0,0,0,0,0,-1,1063,1807,0,0
-154,-783,0,0,0,0,0,0,0,0,0,-1,1070,1807,0,0
-147,-783,0,0,0,0,0,0,0,0,0,-1,1077,1807,0,0
-140,-783,0,0,0,0,0,0,0,0,0,-1,1084,1807,0,0
-133,-783,0,0,0,0,0,0,0,0,0,-1,1091,1807,0,0
-126,-783,0,0,0,0,0,0,0,0,0,-1,1098,1807,0,0
-119,-783,0,0,0,0,0,0,0,0,0,-1,1105,1807,0,0
-112,-783,0.524658,-0.0369873,-0.00971834,-0.00212289,0.000413828,-0.00210041,-0.00974082,1.51653,0.00591929,0.046437,1112,1807,0.524642,0.0369712
-105,-783,0.361816,-0.259766,-0.0109695,-0.00342838,0.00163261,-0.00309011,-0.0113078,1.36649,0.00674857,0.0419611,1119,1807,0.361813,0.259779
-98,-783,0.081543,-0.21936,-0.011409,-0.00525317,0.00453374,-0.00285128,-0.0138109,1.08361,0.00841936,0.0425209,1126,1807,0.081565,0.219337
-91,-783,-0.03479,-0.395508,-0.0112485,-0.00392592,0.00636579,-0.000243616,-0.0149308,1.04637,0.00987367,0.0412041,1133,1807,-0.0348445,0.395522
-84,-783,0.43396,-0.655151,-0.010675,-0.00376234,0.00628192,-4.86714e-05,-0.0143886,1.0369,0.00957623,0.0408657,1140,1807,0.433983,0.65521
-77,-783,0.54834,-0.421753,-0.0097694,-0.00514905,0.00469895,-0.00222309,-0.0126954,1.01387,0.00782847,0.0410605,1147,1807,0.548356,0.421724
-70,-783,0.496582,0.26001,-0.00876748,-0.00705435,0.00233775,-0.00542118,-0.0104006,0.961006,0.00600662,0.0447424,1154,1807,0.496642,-0.260034
-63,-783,0.113892,0.878052,-0.0106876,-0.00931785,0.000256694,-0.00927132,-0.0107342,1.3915,0.00672177,0.043192,1161,1807,0.113873,-0.877996
-56,-783,-0.425537,1.23584,0,0,0,0,0,0,0,-1,1168,1807,-0.425498,-1.23584
-49,-783,-0.277344,2.27625,0,0,0,0,0,0,0,-1,1175,1807,-0.277335,-2.27623
-42,-783,-0.0528564,1.0946,0,0,0,0,0,0,0,-1,1182,1807,-0.0527997,-1.09464
-35,-783,0.0306396,-0.366211,-0.0349814,-0.0341801,-0.000372686,-0.0340336,-0.035128,-1.19618,0.0230625,0.0476633,1189,1807,0.0306047,0.36618
-28,-783,0.141235,-1.06116,-0.0417629,-0.040873,0.000732458,-0.040461,-0.042175,1.05833,0.0275631,0.0486221,1196,1807,0.1412,1.0612
-21,-783,0.381348,-1.84326,0,0,0,0,0,0,0,-1,1203,1807,0.381305,1.84331
-14,-783,-2.47253,0.146484,0,0,0,0,0,0,0,-1,1210,1807,-2.4725,-0.146543
-7,-783,4.495,-1.66162,-0.053017,-0.0571488,0.00436603,-0.0502528,-0.0599131,0.56442,0.0371431,0.0459722,1217,1807,4.49499,1.66161
0,-783,3.73279,-1.64661,-0.0549957,-0.0594553,0.00603229,-0.0507943,-0.0636567,0.608365,0.0388664,0.0445802,1224,1807,3.73273,1.64658
7,-783,2.99194,-1.18347,-0.0558136,-0.060937,0.00639051,-0.0514905,-0.0652601,0.594776,0.0397206,0.0429687,1231,1807,2.9919,1.18342
14,-783,2.11975,-0.477661,-0.0550059,-0.0614876,0.00653418,-0.050953,-0.0655405,0.555182,0.039734,0.0459414,1238,1807,2.11971,0.477698
21,-783,1.2959,0.0626221,0,0,0,0,0,0,0,-1,1245,1807,1.29587,-0.0625764
28,-783,0.873535,0.661743,-0.0508084,-0.0572599,0.000139236,-0.0508054,-0.0572629,0.0215685,0.0362152,0.0462552,1252,1807,0.873531,-0.661783
35,-783,0.489502,1.25513,-0.0439124,-0.0515759,-0.00459985,-0.0417574,-0.0537309,-0.438125,0.0325715,0.0463847,1259,1807,0.489493,-1.25508
42,-783,0.048584,1.79407,-0.0362049,-0.044288,-0.00670749,-0.0324155,-0.0480775,-0.514254,0.0283137,0.0444531,1266,1807,0.0486307,-1.79409
49,-783,0.224121,0.716187,-0.0276393,-0.0387924,-0.0079319,-0.0235198,-0.0429119,-0.479012,0.0248134,0.0458797,1273,1807,0.224138,-0.716145
56,-783,-0.496704,0.779663,-0.0181259,-0.0314371,-0.00844408,-0.0140298,-0.0355332,-0.451647,0.0206658,0.046212,1280,1807,-0.496665,-0.779614
63,-783,-0.758545,0.738525,-0.00741194,-0.0274404,-0.00803712,-0.0045856,-0.0302667,-0.338153,0.0188363,0.0449658,1287,1807,-0.758554,-0.738468
70,-783,-0.425781,0.363647,0.00315094,-0.0226667,-0.00548094,0.00426632,-0.0237821,-0.200761,0.0174516,0.0438091,1294,1807,-0.42573,-0.363611
77,-783,-0.280151,0.306152,0,0,0,0,0,0,0,-1,1301,1807,-0.280199,-0.306189
84,-783,-0.307373,-0.246338,0,0,0,0,0,0,0,-1,1308,1807,-0.307419,0.246386
91,-783,-3.24524,-2.64929,0.0310263,-0.0171757,0.00777858,0.0322505,-0.0183999,0.156097,0.0296052,0.0474814,1315,1807,-3.24524,2.64931
98,-783,-2.48999,-1.52051,0.0374986,-0.0176057,0.0125659,0.0402288,-0.020336,0.213949,0.0355903,0.044448,1322,1807,-2.48999,1.52056
105,-783,-1.77417,-1.43469,0,0,0,0,0,0,0,-1,1329,1807,-1.77422,1.43475
112,-783,-1.36987,-1.03113,0.0442655,-0.0139581,0.0186522,0.0497282,-0.0194209,0.284908,0.0411816,0.0480908,1336,1807,-1.36982,1.03112
119,-783,-1.29517,-0.466431,0.0411146,-0.0120551,0.0198755,0.047723,-0.0186635,0.32099,0.0395333,0.0457301,1343,1807,-1.29513,0.466385
126,-783,-1.04504,-0.178345,0.0371228,-0.0123405,0.0214489,0.0451281,-0.0203458,0.357216,0.0386935,0.0461678,1350,1807,-1.04505,0.178314
133,-783,-0.558716,-0.480225,0.0297202,-0.0115579,0.0188501,0.0370328,-0.0188706,0.370063,0.0328387,0.0470291,1357,1807,-0.558758,0.480231
140,-783,-0.0372314,-0.205444,0,0,0,0,0,0,0,-1,1364,1807,-0.0371981,0.205481
147,-783,0.443726,-0.227295,0.0163769,-0.0150111,0.0117339,0.0202784,-0.0189126,0.321003,0.0226315,0.0481804,1371,1807,0.443743,0.227296
154,-783,0.552612,-0.188721,0.0103625,-0.0134815,0.00812637,0.0128687,-0.0159877,0.299145,0.0166926,0.0451174,1378,1807,0.552626,0.188679
161,-783,0.358398,-0.255981,0.00400075,-0.0134566,0.00499925,0.00533101,-0.0147869,0.260066,0.0120351,0.0448711,1385,1807,0.358459,0.25602
168,-783,0.214966,-0.0281982,-0.00169477,-0.0115026,0.00258075,-0.00105715,-0.0121402,0.242218,0.00776513,0.0488024,1392,1807,0.21496,0.0281535
175,-783,0.173706,0.509888,-0.00411507,-0.0154083,-0.00168026,-0.00387037,-0.015653,-0.144613,0.00941426,0.0433111,1399,1807,0.173654,-0.509847
182,-783,0.0906982,0.342407,-0.00558203,-0.018091,-0.00457043,-0.00409006,-0.0195829,-0.315532,0.011928,0.042029,1406,1807,0.0907408,-0.342413
189,-783,0.012207,0.0800781,-0.00586244,-0.0204228,-0.00681143,-0.00317283,-0.0231124,-0.376073,0.0144671,0.0397338,1413,1807,0.0121548,-0.0801246
196,-783,0.200928,-0.292358,-0.00509372,-0.0196176,-0.00777349,-0.00171786,-0.0229935,-0.409703,0.0147897,0.0397674,1420,1807,0.200877,0.292364
203,-783,0.417236,-0.514648,-0.00489716,-0.0186362,-0.00852022,-0.000822061,-0.0227112,-0.446126,0.0148744,0.0426853,1427,1807,0.417219,0.514617
210,-783,0.413086,-0.546753,-0.00459426,-0.0173087,-0.00891169,-4.68176e-06,-0.0218983,-0.475581,0.0145973,0.0422153,1434,1807,0.413051,0.546809
217,-783,-0.127808,-0.56604,-0.00421653,-0.0156152,-0.00848302,0.00030391,-0.0201357,-0.489605,0.0135262,0.0405779,1441,1807,-0.127754,0.566097
224,-783,-0.773071,-0.0998535,0,0,0,0,0,0,0,-1,1448,1807,-0.773019,0.0998035
231,-783,-0.309692,0.211914,0,0,0,0,0,0,0,-1,1455,1807,-0.309729,-0.21187
238,-783,0,0,0,0,0,0,0,0,0,-1,1462,1807,0,0
245,-783,0,0,0,0,0,0,0,0,0,-1,1469,1807,0,0
252,-783,0,0,0,0,0,0,0,0,0,-1,1476,1807,0,0
259,-783,0,0,0,0,0,0,0,0,0,-1,1483,1807,0,0
266,-783,0,0,0,0,0,0,0,0,0,-1,1490,1807,0,0
273,-783,0,0,0,0,0,0,0,0,0,-1,1497,1807,0,0
280,-783,0,0,0,0,0,0,0,0,0,-1,1504,1807,0,0
287,-783,0,0,0,0,0,0,0,0,0,-1,1511,1807,0,0
294,-783,0,0,0,0,0,0,0,0,0,-1,1518,1807,0,0
301,-783,0,0,0,0,0,0,0,0,0,-1,1525,1807,0,0
308,-783,0,0,0,0,0,0,0,0,0,-1,1532,1807,0,0
315,-783,0,0,0,0,0,0,0,0,0,-1,1539,1807,0,0
322,-783,0,0,0,0,0,0,0,0,0,-1,1546,1807,0,0
329,-783,0,0,0,0,0,0,0,0,0,-1,1553,1807,0,0
336,-783,0,0,0,0,0,0,0,0,0,-1,1560,1807,0,0
343,-783,0,0,0,0,0,0,0,0,0,-1,1567,1807,0,0
350,-783,0,0,0,0,0,0,0,0,0,-1,1574,1807,0,0
357,-783,0,0,0,0,0,0,0,0,0,-1,1581,1807,0,0
364,-783,0,0,0,0,0,0,0,0,0,-1,1588,1807,0,0
371,-783,0,0,0,0,0,0,0,0,0,-1,1595,1807,0,0
378,-783,0,0,0,0,0,0,0,0,0,-1,1602,1807,0,0
385,-783,0,0,0,0,0,0,0,0,0,-1,1609,1807,0,0
392,-783,0,0,0,0,0,0,0,0,0,-1,1616,1807,0,0
399,-783,0,0,0,0,0,0,0,0,0,-1,1623,1807,0,0
406,-783,0,0,0,0,0,0,0,0,0,-1,1630,1807,0,0
413,-783,0,0,0,0,0,0,0,0,0,-1,1637,1807,0,0
420,-783,0,0,0,0,0,0,0,0,0,-1,1644,1807,0,0
427,-783,0,0,0,0,0,0,0,0,0,-1,1651,1807,0,0
434,-783,0,0,0,0,0,0,0,0,0,-1,1658,1807,0,0
441,-783,0,0,0,0,0,0,0,0,0,-1,1665,1807,0,0
448,-783,0,0,0,0,0,0,0,0,0,-1,1672,1807,0,0
455,-783,0,0,0,0,0,0,0,0,0,-1,1679,1807,0,0
462,-783,0,0,0,0,0,0,0,0,0,-1,1686,1807,0,0
469,-783,0,0,0,0,0,0,0,0,0,-1,1693,1807,0,0
476,-783,0,0,0,0,0,0,0,0,0,-1,1700,1807,0,0
483,-783,0,0,0,0,0,0,0,0,0,-1,1707,1807,0,0
490,-783,0,0,0,0,0,0,0,0,0,-1,1714,1807,0,0
497,-783,0,0,0,0,0,0,0,0,0,-1,1721,1807,0,0
504,-783,0,0,0,0,0,0,0,0,0,-1,1728,1807,0,0
511,-783,0,0,0,0,0,0,0,0,0,-1,1735,1807,0,0
518,-783,0,0,0,0,0,0,0,0,0,-1,1742,1807,0,0
525,-783,0,0,0,0,0,0,0,0,0,-1,1749,1807,0,0
532,-783,0,0,0,0,0,0,0,0,0,-1,1756,1807,0,0
539,-783,0,0,0,0,0,0,0,0,0,-1,1763,1807,0,0
546,-783,0,0,0,0,0,0,0,0,0,-1,1770,1807,0,0
553,-783,0,0,0,0,0,0,0,0,0,-1,1777,1807,0,0
560,-783,0,0,0,0,0,0,0,0,0,-1,1784,1807,0,0
567,-783,0,0,0,0,0,0,0,0,0,-1,1791,1807,0,0
574,-783,0,0,0,0,0,0,0,0,0,-1,1798,1807,0,0
581,-783,0,0,0,0,0,0,0,0,0,-1,1805,1807,0,0
588,-783,0,0,0,0,0,0,0,0,0,-1,1812,1807,0,0
595,-783,0,0,0,0,0,0,0,0,0,-1,1819,1807,0,0
602,-783,0,0,0,0,0,0,0,0,0,-1,1826,1807,0,0
609,-783,0,0,0,0,0,0,0,0,0,-1,1833,1807,0,0
616,-783,0,0,0,0,0,0,0,0,0,-1,1840,1807,0,0
623,-783,0,0,0,0,0,0,0,0,0,-1,1847,1807,0,0
630,-783,0,0,0,0,0,0,0,0,0,-1,1854,1807,0,0
637,-783,0,0,0,0,0,0,0,0,0,-1,1861,1807,0,0
644,-783,0,0,0,0,0,0,0,0,0,-1,1868,1807,0,0
651,-783,0,0,0,0,0,0,0,0,0,-1,1875,1807,0,0
658,-783,0,0,0,0,0,0,0,0,0,-1,1882,1807,0,0
665,-783,0,0,0,0,0,0,0,0,0,-1,1889,1807,0,0
672,-783,0,0,0,0,0,0,0,0,0,-1,1896,1807,0,0
679,-783,0,0,0,0,0,0,0,0,0,-1,1903,1807,0,0
686,-783,0,0,0,0,0,0,0,0,0,-1,1910,1807,0,0
693,-783,0,0,0,0,0,0,0,0,0,-1,1917,1807,0,0
700,-783,0,0,0,0,0,0,0,0,0,-1,1924,1807,0,0
707,-783,0,0,0,0,0,0,0,0,0,-1,1931,1807,0,0
714,-783,0,0,0,0,0,0,0,0,0,-1,1938,1807,0,0
721,-783,0,0,0,0,0,0,0,0,0,-1,1945,1807,0,0
728,-783,0,0,0,0,0,0,0,0,0,-1,1952,1807,0,0
735,-783,0,0,0,0,0,0,0,0,0,-1,1959,1807,0,0
742,-783,0,0,0,0,0,0,0,0,0,-1,1966,1807,0,0
749,-783,0,0,0,0,0,0,0,0,0,-1,1973,1807,0,0
756,-783,0,0,0,0,0,0,0,0,0,-1,1980,1807,0,0
763,-783,0,0,0,0,0,0,0,0,0,-1,1987,1807,0,0
770,-783,0,0,0,0,0,0,0,0,0,-1,1994,1807,0,0
777,-783,0,0,0,0,0,0,0,0,0,-1,2001,1807,0,0
784,-783,0,0,0,0,0,0,0,0,0,-1,2008,1807,0,0
791,-783,0,0,0,0,0,0,0,0,0,-1,2015,1807,0,0
798,-783,0,0,0,0,0,0,0,0,0,-1,2022,1807,0,0
805,-783,0,0,0,0,0,0,0,0,0,-1,2029,1807,0,0
812,-783,0,0,0,0,0,0,0,0,0,-1,2036,1807,0,0
-700,-790,0,0,0,0,0,0,0,0,0,-1,524,1814,0,0
-693,-790,0,0,0,0,0,0,0,0,0,-1,531,1814,0,0
-686,-790,0,0,0,0,0,0,0,0,0,-1,538,1814,0,0
-679,-790,0,0,0,0,0,0,0,0,0,-1,545,1814,0,0
-672,-790,0,0,0,0,0,0,0,0,0,-1,552,1814,0,0
-665,-790,0,0,0,0,0,0,0,0,0,-1,559,1814,0,0
-658,-790,0,0,0,0,0,0,0,0,0,-1,566,1814,0,0
-651,-790,0,0,0,0,0,0,0,0,0,-1,573,1814,0,0
-644,-790,0,0,0,0,0,0,0,0,0,-1,580,1814,0,0
-637,-790,0,0,0,0,0,0,0,0,0,-1,587,1814,0,0
-630,-790,0,0,0,0,0,0,0,0,0,-1,594,1814,0,0
-623,-790,0,0,0,0,0,0,0,0,0,-1,601,1814,0,0
-616,-790,0,0,0,0,0,0,0,0,0,-1,608,1814,0,0
-609,-790,0,0,0,0,0,0,0,0,0,-1,615,1814,0,0
-602,-790,0,0,0,0,0,0,0,0,0,-1,622,1814,0,0
-595,-790,0,0,0,0,0,0,0,0,0,-1,629,1814,0,0
-588,-790,0,0,0,0,0,0,0,0,0,-1,636,1814,0,0
-581,-790,0,0,0,0,0,0,0,0,0,-1,643,1814,0,0
-574,-790,0,0,0,0,0,0,0,0,0,-1,650,1814,0,0
-567,-790,0,0,0,0,0,0,0,0,0,-1,657,1814,0,0
-560,-790,0,0,0,0,0,0,0,0,0,-1,664,1814,0,0
-553,-790,0,0,0,0,0,0,0,0,0,-1,671,1814,0,0
-546,-790,0,0,0,0,0,0,0,0,0,-1,678,1814,0,0
-539,-790,0,0,0,0,0,0,0,0,0,-1,685,1814,0,0
-532,-790,0,0,0,0,0,0,0,0,0,-1,692,1814,0,0
-525,-790,0,0,0,0,0,0,0,0,0,-1,699,1814,0,0
-518,-790,0,0,0,0,0,0,0,0,0,-1,706,1814,0,0
-511,-790,0,0,0,0,0,0,0,0,0,-1,713,1814,0,0
-504,-790,0,0,0,0,0,0,0,0,0,-1,720,1814,0,0
-497,-790,0,0,0,0,0,0,0,0,0,-1,727,1814,0,0
-490,-790,0,0,0,0,0,0,0,0,0,-1,734,1814,0,0
-483,-790,0,0,0,0,0,0,0,0,0,-1,741,1814,0,0
-476,-790,0,0,0,0,0,0,0,0,0,-1,748,1814,0,0
-469,-790,0,0,0,0,0,0,0,0,0,-1,755,1814,0,0
-462,-790,0,0,0,0,0,0,0,0,0,-1,762,1814,0,0
-455,-790,0,0,0,0,0,0,0,0,0,-1,769,1814,0,0
-448,-790,0,0,0,0,0,0,0,0,0,-1,776,1814,0,0
-441,-790,0,0,0,0,0,0,0,0,0,-1,783,1814,0,0
-434,-790,0,0,0,0,0,0,0,0,0,-1,790,1814,0,0
-427,-790,0,0,0,0,0,0,0,0,0,-1,797,1814,0,0
-420,-790,0,0,0,0,0,0,0,0,0,-1,804,1814,0,0
-413,-790,0,0,0,0,0,0,0,0,0,-1,811,1814,0,0
-406,-790,0,0,0,0,0,0,0,0,0,-1,818,1814,0,0
-399,-790,0,0,0,0,0,0,0,0,0,-1,825,1814,0,0
-392,-790,0,0,0,0,0,0,0,0,0,-1,832,1814,0,0
-385,-790,0,0,0,0,0,0,0,0,0,-1,839,1814,0,0
-378,-790,0,0,0,0,0,0,0,0,0,-1,846,1814,0,0
-371,-790,0,0,0,0,0,0,0,0,0,-1,853,1814,0,0
-364,-790,0,0,0,0,0,0,0,0,0,-1,860,1814,0,0
-357,-790,0,0,0,0,0,0,0,0,0,-1,867,1814,0,0
-350,-790,0,0,0,0,0,0,0,0,0,-1,874,1814,0,0
-343,-790,0,0,0,0,0,0,0,0,0,-1,881,1814,0,0
-336,-790,0,0,0,0,0,0,0,0,0,-1,888,1814,0,0
-329,-790,0,0,0,0,0,0,0,0,0,-1,895,1814,0,0
-322,-790,0,0,0,0,0,0,0,0,0,-1,902,1814,0,0
-315,-790,0,0,0,0,0,0,0,0,0,-1,909,1814,0,0
-308,-790,0,0,0,0,0,0,0,0,0,-1,916,1814,0,0
-301,-790,0,0,0,0,0,0,0,0,0,-1,923,1814,0,0
-294,-790,0,0,0,0,0,0,0,0,0,-1,930,1814,0,0
-287,-790,0,0,0,0,0,0,0,0,0,-1,937,1814,0,0
-280,-790,0,0,0,0,0,0,0,0,0,-1,944,1814,0,0
-273,-790,0,0,0,0,0,0,0,0,0,-1,951,1814,0,0
-266,-790,0,0,0,0,0,0,0,0,0,-1,958,1814,0,0
-259,-790,0,0,0,0,0,0,0,0,0,-1,965,1814,0,0
-252,-790,0,0,0,0,0,0,0,0,0,-1,972,1814,0,0
-245,-790,0,0,0,0,0,0,0,0,0,-1,979,1814,0,0
-238,-790,0,0,0,0,0,0,0,0,0,-1,986,1814,0,0
-231,-790,0,0,0,0,0,0,0,0,0,-1,993,1814,0,0
-224,-790,0,0,0,0,0,0,0,0,0,-1,1000,1814,0,0
-217,-790,0,0,0,0,0,0,0,0,0,-1,1007,1814,0,0
-210,-790,0,0,0,0,0,0,0,0,0,-1,1014,1814,0,0
-203,-790,0,0,0,0,0,0,0,0,0,-1,1021,1814,0,0
-196,-790,0,0,0,0,0,0,0,0,0,-1,1028,1814,0,0
-189,-790,0,0,0,0,0,0,0,0,0,-1,1035,1814,0,0
-182,-790,0,0,0,0,0,0,0,0,0,-1,1042,1814,0,0
-175,-790,0,0,0,0,0,0,0,0,0,-1,1049,1814,0,0
-168,-790,0,0,0,0,0,0,0,0,0,-1,1056,1814,0,0
-161,-790,0,0,0,0,0,0,0,0,0,-1,1063,1814,0,0
-154,-790,0,0,0,0,0,0,0,0,0,-1,1070,1814,0,0
-147,-790,0,0,0,0,0,0,0,0,0,-1,1077,1814,0,0
-140,-790,0,0,0,0,0,0,0,0,0,-1,1084,1814,0,0
-133,-790,0,0,0,0,0,0,0,0,0,-1,1091,1814,0,0
-126,-790,0,0,0,0,0,0,0,0,0,-1,1098,1814,0,0
-119,-790,0,0,0,0,0,0,0,0,0,-1,1105,1814,0,0
-112,-790,0,0,0,0,0,0,0,0,0,-1,1112,1814,0,0
-105,-790,0,0,0,0,0,0,0,0,0,-1,1119,1814,0,0
-98,-790,0,0,0,0,0,0,0,0,0,-1,1126,1814,0,0
-91,-790,0,0,0,0,0,0,0,0,0,-1,1133,1814,0,0
-84,-790,0,0,0,0,0,0,0,0,0,-1,1140,1814,0,0
-77,-790,0.709961,-0.333862,-0.0116736,-0.00357138,0.010941,0.00404444,-0.0192895,0.962707,0.0143984,0.0434825,1147,1814,0.709997,0.333832
-70,-790,0.680786,0.265259,-0.0105637,-0.00642129,0.00746166,-0.000748715,-0.0162363,0.920781,0.0105835,0.0436477,1154,1814,0.68082,-0.265256
-63,-790,0.260254,0.854126,-0.014248,-0.00904965,0.00473238,-0.00624964,-0.017048,1.03652,0.00995876,0.0437235,1161,1814,0.260256,-0.854098
-56,-790,-0.309326,1.1936,0,0,0,0,0,0,0,-1,1168,1814,-0.309309,-1.19356
-49,-790,-0.235229,2.08508,0,0,0,0,0,0,0,-1,1175,1814,-0.235169,-2.08503
-42,-790,-0.205566,1.8833,0,0,0,0,0,0,0,-1,1182,1814,-0.205575,-1.88329
-35,-790,0.0913086,-0.45459,0,0,0,0,0,0,0,-1,1189,1814,0.0913172,0.45457
-28,-790,0.174194,-0.90625,0,0,0,0,0,0,0,-1,1196,1814,0.174247,0.90621
-21,-790,5.82446,-2.0636,0,0,0,0,0,0,0,-1,1203,1814,5.82446,2.0636
-14,-790,5.10742,-1.7666,-0.065468,-0.0640807,0.00612455,-0.0586106,-0.070938,0.841786,0.0437655,0.0460127,1210,1814,5.10742,1.76664
-7,-790,4.36951,-1.4585,-0.0678418,-0.0670938,0.00638987,-0.061067,-0.0738686,0.814629,0.0455818,0.044595,1217,1814,4.36955,1.45854
0,-790,3.672,-0.973999,-0.0700029,-0.0703063,0.00808645,-0.0620667,-0.0782425,0.77602,0.047693,0.0447723,1224,1814,3.67194,0.973957
7,-790,3.31909,-0.102905,-0.0706168,-0.0721061,0.00804517,-0.0632819,-0.079441,0.73925,0.0484804,0.0433481,1231,1814,3.31914,0.102851
14,-790,2.48254,0.636597,-0.0692021,-0.0726917,0.00754012,-0.0632075,-0.0786863,0.671696,0.0481348,0.0447784,1238,1814,2.48257,-0.636564
21,-790,1.31421,0.583252,0,0,0,0,0,0,0,-1,1245,1814,1.31425,-0.583292
28,-790,0.898682,1.25867,-0.0640657,-0.0668859,-0.00164815,-0.0633067,-0.0676448,-0.431538,0.0437223,0.0457238,1252,1814,0.898727,-1.2587
35,-790,0.547852,2.05945,-0.055874,-0.0597507,-0.00752297,-0.0500437,-0.065581,-0.659313,0.0395717,0.0456919,1259,1814,0.547796,-2.05945
42,-790,0.36145,2.47852,-0.0465719,-0.0517507,-0.00995394,-0.0388761,-0.0594466,-0.658149,0.0348597,0.0437459,1266,1814,0.361424,-2.47851
49,-790,0.169556,1.30603,-0.0359372,-0.0458861,-0.0112298,-0.0286294,-0.0531939,-0.576902,0.0307414,0.0482957,1273,1814,0.169532,-1.30607
56,-790,-0.656494,1.06213,-0.0239883,-0.0378105,-0.0115061,-0.0174773,-0.0443215,-0.514951,0.0257788,0.044182,1280,1814,-0.65652,-1.06219
63,-790,-1.05444,0.772583,0,0,0,0,0,0,0,-1,1287,1814,-1.05438,-0.772639
70,-790,-0.480103,0.0860596,0.00270321,-0.0300114,-0.00765803,0.00440711,-0.0317153,-0.218931,0.0227553,0.0420461,1294,1814,-0.480157,-0.0860725
77,-790,-3.8584,-4.01379,0,0,0,0,0,0,0,-1,1301,1814,-3.85839,4.01377
84,-790,-3.24915,-2.94653,0.0275739,-0.0278682,0.00312027,0.0277489,-0.0280432,0.056044,0.0322118,0.0490382,1308,1814,-3.24914,2.94657
91,-790,-2.76331,-2.01062,0.0387772,-0.0276905,0.00903396,0.0399832,-0.0288964,0.132708,0.039939,0.0488005,1315,1814,-2.76328,2.0106
98,-790,-2.21509,-1.02039,0.0472475,-0.0297209,0.0148977,0.0500304,-0.0325038,0.184674,0.048008,0.0441867,1322,1814,-2.21505,1.02033
105,-790,-1.68042,0.0328369,0.0536023,-0.0277776,0.0193297,0.0579602,-0.0321355,0.221745,0.0527242,0.0479319,1329,1814,-1.68043,-0.0328261
112,-790,-1.1012,-0.934692,0.0560515,-0.0259762,0.0218891,0.0615271,-0.0314518,0.245121,0.0546095,0.0499753,1336,1814,-1.10118,0.934671
119,-790,-1.40698,-0.498413,0,0,0,0,0,0,0,-1,1343,1814,-1.40696,0.498357
126,-790,0.271729,2.86621,0,0,0,0,0,0,0,-1,1350,1814,0.271699,-2.86621
133,-790,-0.533081,-1.22107,0,0,0,0,0,0,0,-1,1357,1814,-0.533041,1.22103
140,-790,-0.117676,-0.891479,0,0,0,0,0,0,0,-1,1364,1814,-0.117699,0.891533
147,-790,0.453735,-0.508545,0.0215632,-0.023019,0.0130047,0.0250794,-0.0265352,0.264064,0.0298036,0.0444973,1371,1814,0.453789,0.508511
154,-790,0.314819,-0.45813,0.0137674,-0.0203234,0.00885843,0.0159318,-0.0224878,0.23964,0.022289,0.0410966,1378,1814,0.314878,0.458089
161,-790,0.238647,-0.335449,0.00564743,-0.0196443,0.00536596,0.00673879,-0.0207356,0.20065,0.0165343,0.0469263,1385,1814,0.238667,0.335412
168,-790,0.116333,-0.216309,0,0,0,0,0,0,0,-1,1392,1814,0.116354,0.216322
175,-790,0.15271,1.15784,-0.00422717,-0.0212006,-0.00248858,-0.00386982,-0.021558,-0.142618,0.0132715,0.0489989,1399,1814,0.152691,-1.15786
182,-790,0.11377,0.661499,-0.0058215,-0.0249604,-0.00607895,-0.00405393,-0.026728,-0.282966,0.0166329,0.0451157,1406,1814,0.113776,-0.661506
189,-790,0.0926514,0.354004,-0.00608005,-0.0280012,-0.00868095,-0.00305874,-0.0310225,-0.334927,0.0197413,0.0415793,1413,1814,0.0925984,-0.353996
196,-790,0.205078,0.259766,-0.00531293,-0.0273449,-0.0101555,-0.00134606,-0.0313118,-0.372388,0.0204406,0.0405913,1420,1814,0.205127,-0.259719
203,-790,0,0,0,0,0,0,0,0,0,-1,1427,1814,0,0
210,-790,0,0,0,0,0,0,0,0,0,-1,1434,1814,0,0
217,-790,0,0,0,0,0,0,0,0,0,-1,1441,1814,0,0
224,-790,0,0,0,0,0,0,0,0,0,-1,1448,1814,0,0
231,-790,0,0,0,0,0,0,0,0,0,-1,1455,1814,0,0
238,-790,0,0,0,0,0,0,0,0,0,-1,1462,1814,0,0
245,-790,0,0,0,0,0,0,0,0,0,-1,1469,1814,0,0
252,-790,0,0,0,0,0,0,0,0,0,-1,1476,1814,0,0
259,-790,0,0,0,0,0,0,0,0,0,-1,1483,1814,0,0
266,-790,0,0,0,0,0,0,0,0,0,-1,1490,1814,0,0
273,-790,0,0,0,0,0,0,0,0,0,-1,1497,1814,0,0
280,-790,0,0,0,0,0,0,0,0,0,-1,1504,1814,0,0
287,-790,0,0,0,0,0,0,0,0,0,-1,1511,1814,0,0
294,-790,0,0,0,0,0,0,0,0,0,-1,1518,1814,0,0
301,-790,0,0,0,0,0,0,0,0,0,-1,1525,1814,0,0
308,-790,0,0,0,0,0,0,0,0,0,-1,1532,1814,0,0
315,-790,0,0,0,0,0,0,0,0,0,-1,1539,1814,0,0
322,-790,0,0,0,0,0,0,0,0,0,-1,1546,1814,0,0
329,-790,0,0,0,0,0,0,0,0,0,-1,1553,1814,0,0
336,-790,0,0,0,0,0,0,0,0,0,-1,1560,1814,0,0
343,-790,0,0,0,0,0,0,0,0,0,-1,1567,1814,0,0
350,-790,0,0,0,0,0,0,0,0,0,-1,1574,1814,0,0
357,-790,0,0,0,0,0,0,0,0,0,-1,1581,1814,0,0
364,-790,0,0,0,0,0,0,0,0,0,-1,1588,1814,0,0
371,-790,0,0,0,0,0,0,0,0,0,-1,1595,1814,0,0
378,-790,0,0,0,0,0,0,0,0,0,-1,1602,1814,0,0
385,-790,0,0,0,0,0,0,0,0,0,-1,1609,1814,0,0
392,-790,0,0,0,0,0,0,0,0,0,-1,1616,1814,0,0
399,-790,0,0,0,0,0,0,0,0,0,-1,1623,1814,0,0
406,-790,0,0,0,0,0,0,0,0,0,-1,1630,1814,0,0
413,-790,0,0,0,0,0,0,0,0,0,-1,1637,1814,0,0
420,-790,0,0,0,0,0,0,0,0,0,-1,1644,1814,0,0
427,-790,0,0,0,0,0,0,0,0,0,-1,1651,1814,0,0
434,-790,0,0,0,0,0,0,0,0,0,-1,1658,1814,0,0
441,-790,0,0,0,0,0,0,0,0,0,-1,1665,1814,0,0
448,-790,0,0,0,0,0,0,0,0,0,-1,1672,1814,0,0
455,-790,0,0,0,0,0,0,0,0,0,-1,1679,1814,0,0
462,-790,0,0,0,0,0,0,0,0,0,-1,1686,1814,0,0
469,-790,0,0,0,0,0,0,0,0,0,-1,1693,1814,0,0
476,-790,0,0,0,0,0,0,0,0,0,-1,1700,1814,0,0
483,-790,0,0,0,0,0,0,0,0,0,-1,1707,1814,0,0
490,-790,0,0,0,0,0,0,0,0,0,-1,1714,1814,0,0
497,-790,0,0,0,0,0,0,0,0,0,-1,1721,1814,0,0
504,-790,0,0,0,0,0,0,0,0,0,-1,1728,1814,0,0
511,-790,0,0,0,0,0,0,0,0,0,-1,1735,1814,0,0
518,-790,0,0,0,0,0,0,0,0,0,-1,1742,1814,0,0
525,-790,0,0,0,0,0,0,0,0,0,-1,1749,1814,0,0
532,-790,0,0,0,0,0,0,0,0,0,-1,1756,1814,0,0
539,-790,0,0,0,0,0,0,0,0,0,-1,1763,1814,0,0
546,-790,0,0,0,0,0,0,0,0,0,-1,1770,1814,0,0
553,-790,0,0,0,0,0,0,0,0,0,-1,1777,1814,0,0
560,-790,0,0,0,0,0,0,0,0,0,-1,1784,1814,0,0
567,-790,0,0,0,0,0,0,0,0,0,-1,1791,1814,0,0
574,-790,0,0,0,0,0,0,0,0,0,-1,1798,1814,0,0
581,-790,0,0,0,0,0,0,0,0,0,-1,1805,1814,0,0
588,-790,0,0,0,0,0,0,0,0,0,-1,1812,1814,0,0
595,-790,0,0,0,0,0,0,0,0,0,-1,1819,1814,0,0
602,-790,0,0,0,0,0,0,0,0,0,-1,1826,1814,0,0
609,-790,0,0,0,0,0,0,0,0,0,-1,1833,1814,0,0
616,-790,0,0,0,0,0,0,0,0,0,-1,1840,1814,0,0
623,-790,0,0,0,0,0,0,0,0,0,-1,1847,1814,0,0
630,-790,0,0,0,0,0,0,0,0,0,-1,1854,1814,0,0
637,-790,0,0,0,0,0,0,0,0,0,-1,1861,1814,0,0
644,-790,0,0,0,0,0,0,0,0,0,-1,1868,1814,0,0
651,-790,0,0,0,0,0,0,0,0,0,-1,1875,1814,0,0
658,-790,0,0,0,0,0,0,0,0,0,-1,1882,1814,0,0
665,-790,0,0,0,0,0,0,0,0,0,-1,1889,1814,0,0
672,-790,0,0,0,0,0,0,0,0,0,-1,1896,1814,0,0
679,-790,0,0,0,0,0,0,0,0,0,-1,1903,1814,0,0
686,-790,0,0,0,0,0,0,0,0,0,-1,1910,1814,0,0
693,-790,0,0,0,0,0,0,0,0,0,-1,1917,1814,0,0
700,-790,0,0,0,0,0,0,0,0,0,-1,1924,1814,0,0
707,-790,0,0,0,0,0,0,0,0,0,-1,1931,1814,0,0
714,-790,0,0,0,0,0,0,0,0,0,-1,1938,1814,0,0
721,-790,0,0,0,0,0,0,0,0,0,-1,1945,1814,0,0
728,-790,0,0,0,0,0,0,0,0,0,-1,1952,1814,0,0
735,-790,0,0,0,0,0,0,0,0,0,-1,1959,1814,0,0
742,-790,0,0,0,0,0,0,0,0,0,-1,1966,1814,0,0
749,-790,0,0,0,0,0,0,0,0,0,-1,1973,1814,0,0
756,-790,0,0,0,0,0,0,0,0,0,-1,1980,1814,0,0
763,-790,0,0,0,0,0,0,0,0,0,-1,1987,1814,0,0
770,-790,0,0,0,0,0,0,0,0,0,-1,1994,1814,0,0
777,-790,0,0,0,0,0,0,0,0,0,-1,2001,1814,0,0
784,-790,0,0,0,0,0,0,0,0,0,-1,2008,1814,0,0
791,-790,0,0,0,0,0,0,0,0,0,-1,2015,1814,0,0
798,-790,0,0,0,0,0,0,0,0,0,-1,2022,1814,0,0
805,-790,0,0,0,0,0,0,0,0,0,-1,2029,1814,0,0
812,-790,0,0,0,0,0,0,0,0,0,-1,2036,1814,0,0
-700,-797,0,0,0,0,0,0,0,0,0,-1,524,1821,0,0
-693,-797,0,0,0,0,0,0,0,0,0,-1,531,1821,0,0
-686,-797,0,0,0,0,0,0,0,0,0,-1,538,1821,0,0
-679,-797,0,0,0,0,0,0,0,0,0,-1,545,1821,0,0
-672,-797,0,0,0,0,0,0,0,0,0,-1,552,1821,0,0
-665,-797,0,0,0,0,0,0,0,0,0,-1,559,1821,0,0
-658,-797,0,0,0,0,0,0,0,0,0,-1,566,1821,0,0
-651,-797,0,0,0,0,0,0,0,0,0,-1,573,1821,0,0
-644,-797,0,0,0,0,0,0,0,0,0,-1,580,1821,0,0
-637,-797,0,0,0,0,0,0,0,0,0,-1,587,1821,0,0
-630,-797,0,0,0,0,0,0,0,0,0,-1,594,1821,0,0
-623,-797,0,0,0,0,0,0,0,0,0,-1,601,1821,0,0
-616,-797,0,0,0,0,0,0,0,0,0,-1,608,1821,0,0
-609,-797,0,0,0,0,0,0,0,0,0,-1,615,1821,0,0
-602,-797,0,0,0,0,0,0,0,0,0,-1,622,1821,0,0
-595,-797,0,0,0,0,0,0,0,0,0,-1,629,1821,0,0
-588,-797,0,0,0,0,0,0,0,0,0,-1,636,1821,0,0
-581,-797,0,0,0,0,0,0,0,0,0,-1,643,1821,0,0
-574,-797,0,0,0,0,0,0,0,0,0,-1,650,1821,0,0
-567,-797,0,0,0,0,0,0,0,0,0,-1,657,1821,0,0
-560,-797,0,0,0,0,0,0,0,0,0,-1,664,1821,0,0
-553,-797,0,0,0,0,0,0,0,0,0,-1,671,1821,0,0
-546,-797,0,0,0,0,0,0,0,0,0,-1,678,1821,0,0
-539,-797,0,0,0,0,0,0,0,0,0,-1,685,1821,0,0
-532,-797,0,0,0,0,0,0,0,0,0,-1,692,1821,0,0
-525,-797,0,0,0,0,0,0,0,0,0,-1,699,1821,0,0
-518,-797,0,0,0,0,0,0,0,0,0,-1,706,1821,0,0
-511,-797,0,0,0,0,0,0,0,0,0,-1,713,1821,0,0
-504,-797,0,0,0,0,0,0,0,0,0,-1,720,1821,0,0
-497,-797,0,0,0,0,0,0,0,0,0,-1,727,1821,0,0
-490,-797,0,0,0,0,0,0,0,0,0,-1,734,1821,0,0
-483,-797,0,0,0,0,0,0,0,0,0,-1,741,1821,0,0
-476,-797,0,0,0,0,0,0,0,0,0,-1,748,1821,0,0
-469,-797,0,0,0,0,0,0,0,0,0,-1,755,1821,0,0
-462,-797,0,0,0,0,0,0,0,0,0,-1,762,1821,0,0
-455,-797,0,0,0,0,0,0,0,0,0,-1,769,1821,0,0
-448,-797,0,0,0,0,0,0,0,0,0,-1,776,1821,0,0
-441,-797,0,0,0,0,0,0,0,0,0,-1,783,1821,0,0
-434,-797,0,0,0,0,0,0,0,0,0,-1,790,1821,0,0
-427,-797,0,0,0,0,0,0,0,0,0,-1,797,1821,0,0
-420,-797,0,0,0,0,0,0,0,0,0,-1,804,1821,0,0
-413,-797,0,0,0,0,0,0,0,0,0,-1,811,1821,0,0
-406,-797,0,0,0,0,0,0,0,0,0,-1,818,1821,0,0
-399,-797,0,0,0,0,0,0,0,0,0,-1,825,1821,0,0
-392,-797,0,0,0,0,0,0,0,0,0,-1,832,1821,0,0
-385,-797,0,0,0,0,0,0,0,0,0,-1,839,1821,0,0
-378,-797,0,0,0,0,0,0,0,0,0,-1,846,1821,0,0
-371,-797,0,0,0,0,0,0,0,0,0,-1,853,1821,0,0
-364,-797,0,0,0,0,0,0,0,0,0,-1,860,1821,0,0
-357,-797,0,0,0,0,0,0,0,0,0,-1,867,1821,0,0
-350,-797,0,0,0,0,0,0,0,0,0,-1,874,1821,0,0
-343,-797,0,0,0,0,0,0,0,0,0,-1,881,1821,0,0
-336,-797,0,0,0,0,0,0,0,0,0,-1,888,1821,0,0
-329,-797,0,0,0,0,0,0,0,0,0,-1,895,1821,0,0
-322,-797,0,0,0,0,0,0,0,0,0,-1,902,1821,0,0
-315,-797,0,0,0,0,0,0,0,0,0,-1,909,1821,0,0
-308,-797,0,0,0,0,0,0,0,0,0,-1,916,1821,0,0
-301,-797,0,0,0,0,0,0,0,0,0,-1,923,1821,0,0
-294,-797,0,0,0,0,0,0,0,0,0,-1,930,1821,0,0
-287,-797,0,0,0,0,0,0,0,0,0,-1,937,1821,0,0
-280,-797,0,0,0,0,0,0,0,0,0,-1,944,1821,0,0
-273,-797,0,0,0,0,0,0,0,0,0,-1,951,1821,0,0
-266,-797,0,0,0,0,0,0,0,0,0,-1,958,1821,0,0
-259,-797,0,0,0,0,0,0,0,0,0,-1,965,1821,0,0
-252,-797,0,0,0,0,0,0,0,0,0,-1,972,1821,0,0
-245,-797,0,0,0,0,0,0,0,0,0,-1,979,1821,0,0
-238,-797,0,0,0,0,0,0,0,0,0,-1,986,1821,0,0
-231,-797,0,0,0,0,0,0,0,0,0,-1,993,1821,0,0
-224,-797,0,0,0,0,0,0,0,0,0,-1,1000,1821,0,0
-217,-797,0,0,0,0,0,0,0,0,0,-1,1007,1821,0,0
-210,-797,0,0,0,0,0,0,0,0,0,-1,1014,1821,0,0
-203,-797,0,0,0,0,0,0,0,0,0,-1,1021,1821,0,0
-196,-797,0,0,0,0,0,0,0,0,0,-1,1028,1821,0,0
-189,-797,0,0,0,0,0,0,0,0,0,-1,1035,1821,0,0
-182,-797,0,0,0,0,0,0,0,0,0,-1,1042,1821,0,0
-175,-797,0,0,0,0,0,0,0,0,0,-1,1049,1821,0,0
-168,-797,0,0,0,0,0,0,0,0,0,-1,1056,1821,0,0
-161,-797,0,0,0,0,0,0,0,0,0,-1,1063,1821,0,0
-154,-797,0,0,0,0,0,0,0,0,0,-1,1070,1821,0,0
-147,-797,0,0,0,0,0,0,0,0,0,-1,1077,1821,0,0
-140,-797,0,0,0,0,0,0,0,0,0,-1,1084,1821,0,0
-133,-797,0,0,0,0,0,0,0,0,0,-1,1091,1821,0,0
-126,-797,0,0,0,0,0,0,0,0,0,-1,1098,1821,0,0
-119,-797,0,0,0,0,0,0,0,0,0,-1,1105,1821,0,0
-112,-797,0,0,0,0,0,0,0,0,0,-1,1112,1821,0,0
-105,-797,0,0,0,0,0,0,0,0,0,-1,1119,1821,0,0
-98,-797,0,0,0,0,0,0,0,0,0,-1,1126,1821,0,0
-91,-797,0,0,0,0,0,0,0,0,0,-1,1133,1821,0,0
-84,-797,0,0,0,0,0,0,0,0,0,-1,1140,1821,0,0
-77,-797,0,0,0,0,0,0,0,0,0,-1,1147,1821,0,0
-70,-797,0,0,0,0,0,0,0,0,0,-1,1154,1821,0,0
-63,-797,0,0,0,0,0,0,0,0,0,-1,1161,1821,0,0
-56,-797,0,0,0,0,0,0,0,0,0,-1,1168,1821,0,0
-49,-797,0,0,0,0,0,0,0,0,0,-1,1175,1821,0,0
-42,-797,-0.0227051,1.80505,0,0,0,0,0,0,0,-1,1182,1821,-0.0227625,-1.80499
-35,-797,0.0488281,0.609985,0,0,0,0,0,0,0,-1,1189,1821,0.0487763,-0.609999
-28,-797,0.0327148,-0.508667,0,0,0,0,0,0,0,-1,1196,1821,0.0326852,0.508618
-21,-797,5.61987,-2.17871,0,0,0,0,0,0,0,-1,1203,1821,5.61984,2.17866
-14,-797,4.98535,-1.77844,-0.0825824,-0.0723807,0.00986683,-0.0663742,-0.0885889,1.02396,0.0532228,0.0460238,1210,1821,4.9853,1.77841
-7,-797,4.23291,-1.4751,-0.0850083,-0.0757734,0.00947189,-0.0698534,-0.0909283,1.01219,0.0549578,0.0466357,1217,1821,4.23295,1.47512
0,-797,3.64185,-0.443848,0,0,0,0,0,0,0,-1,1224,1821,3.64187,0.443802
7,-797,3.57947,0.946167,-0.0872882,-0.0824659,0.0100883,-0.0745046,-0.0952495,0.902699,0.0578384,0.0473275,1231,1821,3.57941,-0.946112
14,-797,2.78894,1.73804,-0.0849273,-0.0830055,0.0083714,-0.0755401,-0.0923928,0.84254,0.0568169,0.0457919,1238,1821,2.78894,-1.73801
21,-797,1.9314,2.47424,0,0,0,0,0,0,0,-1,1245,1821,1.93136,-2.47423
28,-797,0.940918,1.83594,0,0,0,0,0,0,0,-1,1252,1821,0.940857,-1.83599
35,-797,0.636597,2.74475,-0.0693457,-0.0662849,-0.011855,-0.0558619,-0.0797686,-0.84959,0.0472702,0.0478705,1259,1821,0.636636,-2.7447
42,-797,0.851685,1.46338,-0.0584843,-0.058112,-0.0144717,-0.0438253,-0.0727711,-0.791829,0.0423061,0.04979,1266,1821,0.851627,-1.4634
49,-797,0.0924072,1.86487,-0.0456822,-0.0524541,-0.0156163,-0.033089,-0.0650473,-0.67864,0.037557,0.0497161,1273,1821,0.0924158,-1.86492
56,-797,-0.822754,1.25281,-0.0311391,-0.0442747,-0.015405,-0.0209603,-0.0544536,-0.583895,0.0317152,0.0441515,1280,1821,-0.822753,-1.25278
63,-797,-1.02393,0.0618896,0,0,0,0,0,0,0,-1,1287,1821,-1.02395,-0.061895
70,-797,-0.690063,-0.067627,0,0,0,0,0,0,0,-1,1294,1821,-0.690066,0.0675893
77,-797,-0.356201,-0.197021,0,0,0,0,0,0,0,-1,1301,1821,-0.356186,0.197074
84,-797,-2.57385,-2.83679,0.0329025,-0.0411151,0.00261808,0.032995,-0.0412076,0.0353122,0.0429282,0.0475279,1308,1821,-2.57388,2.83683
91,-797,-2.32397,-1.68359,0.0473707,-0.0428985,0.0101004,0.048487,-0.0440149,0.110078,0.0534268,0.0448038,1315,1821,-2.324,1.68354
98,-797,-1.89087,-0.546631,0.0583682,-0.0476671,0.0171236,0.0610649,-0.0503638,0.156201,0.0644322,0.0442843,1322,1821,-1.8909,0.546645
105,-797,-1.27258,0.502075,0.0666725,-0.0462539,0.0220197,0.0708142,-0.0503957,0.185921,0.0703108,0.0477473,1329,1821,-1.27259,-0.502043
112,-797,-0.644287,1.68811,0.0697026,-0.0445993,0.0247743,0.0748413,-0.0497379,0.204519,0.0724109,0.047758,1336,1821,-0.644269,-1.68813
119,-797,-0.24707,2.75171,0,0,0,0,0,0,0,-1,1343,1821,-0.247023,-2.75173
126,-797,-0.0289307,3.46033,0,0,0,0,0,0,0,-1,1350,1821,-0.0289833,-3.46033
133,-797,0.202148,4.19775,0,0,0,0,0,0,0,-1,1357,1821,0.202115,-4.19772
140,-797,0.468628,-0.680542,0,0,0,0,0,0,0,-1,1364,1821,0.46858,0.680547
147,-797,0.476807,-0.547852,0,0,0,0,0,0,0,-1,1371,1821,0.476748,0.547913
154,-797,0.390015,-0.470947,0,0,0,0,0,0,0,-1,1378,1821,0.389995,0.47099
161,-797,0.13916,-0.289429,0,0,0,0,0,0,0,-1,1385,1821,0.139106,0.28937
168,-797,0,0,0,0,0,0,0,0,0,-1,1392,1821,0,0
175,-797,0,0,0,0,0,0,0,0,0,-1,1399,1821,0,0
182,-797,0,0,0,0,0,0,0,0,0,-1,1406,1821,0,0
189,-797,0,0,0,0,0,0,0,0,0,-1,1413,1821,0,0
196,-797,0,0,0,0,0,0,0,0,0,-1,1420,1821,0,0
203,-797,0,0,0,0,0,0,0,0,0,-1,1427,1821,0,0
210,-797,0,0,0,0,0,0,0,0,0,-1,1434,1821,0,0
217,-797,0,0,0,0,0,0,0,0,0,-1,1441,1821,0,0
224,-797,0,0,0,0,0,0,0,0,0,-1,1448,1821,0,0
231,-797,0,0,0,0,0,0,0,0,0,-1,1455,1821,0,0
238,-797,0,0,0,0,0,0,0,0,0,-1,1462,1821,0,0
245,-797,0,0,0,0,0,0,0,0,0,-1,1469,1821,0,0
252,-797,0,0,0,0,0,0,0,0,0,-1,1476,1821,0,0
259,-797,0,0,0,0,0,0,0,0,0,-1,1483,1821,0,0
266,-797,0,0,0,0,0,0,0,0,0,-1,1490,1821,0,0
273,-797,0,0,0,0,0,0,0,0,0,-1,1497,1821,0,0
280,-797,0,0,0,0,0,0,0,0,0,-1,1504,1821,0,0
287,-797,0,0,0,0,0,0,0,0,0,-1,1511,1821,0,0
294,-797,0,0,0,0,0,0,0,0,0,-1,1518,1821,0,0
301,-797,0,0,0,0,0,0,0,0,0,-1,1525,1821,0,0
308,-797,0,0,0,0,0,0,0,0,0,-1,1532,1821,0,0
315,-797,0,0,0,0,0,0,0,0,0,-1,1539,1821,0,0
322,-797,0,0,0,0,0,0,0,0,0,-1,1546,1821,0,0
329,-797,0,0,0,0,0,0,0,0,0,-1,1553,1821,0,0
336,-797,0,0,0,0,0,0,0,0,0,-1,1560,1821,0,0
343,-797,0,0,0,0,0,0,0,0,0,-1,1567,1821,0,0
350,-797,0,0,0,0,0,0,0,0,0,-1,1574,1821,0,0
357,-797,0,0,0,0,0,0,0,0,0,-1,1581,1821,0,0
364,-797,0,0,0,0,0,0,0,0,0,-1,1588,1821,0,0
371,-797,0,0,0,0,0,0,0,0,0,-1,1595,1821,0,0
378,-797,0,0,0,0,0,0,0,0,0,-1,1602,1821,0,0
385,-797,0,0,0,0,0,0,0,0,0,-1,1609,1821,0,0
392,-797,0,0,0,0,0,0,0,0,0,-1,1616,1821,0,0
399,-797,0,0,0,0,0,0,0,0,0,-1,1623,1821,0,0
406,-797,0,0,0,0,0,0,0,0,0,-1,1630,1821,0,0
413,-797,0,0,0,0,0,0,0,0,0,-1,1637,1821,0,0
420,-797,0,0,0,0,0,0,0,0,0,-1,1644,1821,0,0
427,-797,0,0,0,0,0,0,0,0,0,-1,1651,1821,0,0
434,-797,0,0,0,0,0,0,0,0,0,-1,1658,1821,0,0
441,-797,0,0,0,0,0,0,0,0,0,-1,1665,1821,0,0
448,-797,0,0,0,0,0,0,0,0,0,-1,1672,1821,0,0
455,-797,0,0,0,0,0,0,0,0,0,-1,1679,1821,0,0
462,-797,0,0,0,0,0,0,0,0,0,-1,1686,1821,0,0
469,-797,0,0,0,0,0,0,0,0,0,-1,1693,1821,0,0
476,-797,0,0,0,0,0,0,0,0,0,-1,1700,1821,0,0
483,-797,0,0,0,0,0,0,0,0,0,-1,1707,1821,0,0
490,-797,0,0,0,0,0,0,0,0,0,-1,1714,1821,0,0
497,-797,0,0,0,0,0,0,0,0,0,-1,1721,1821,0,0
504,-797,0,0,0,0,0,0,0,0,0,-1,1728,1821,0,0
511,-797,0,0,0,0,0,0,0,0,0,-1,1735,1821,0,0
518,-797,0,0,0,0,0,0,0,0,0,-1,1742,1821,0,0
525,-797,0,0,0,0,0,0,0,0,0,-1,1749,1821,0,0
532,-797,0,0,0,0,0,0,0,0,0,-1,1756,1821,0,0
539,-797,0,0,0,0,0,0,0,0,0,-1,1763,1821,0,0
546,-797,0,0,0,0,0,0,0,0,0,-1,1770,1821,0,0
553,-797,0,0,0,0,0,0,0,0,0,-1,1777,1821,0,0
560,-797,0,0,0,0,0,0,0,0,0,-1,1784,1821,0,0
567,-797,0,0,0,0,0,0,0,0,0,-1,1791,1821,0,0
574,-797,0,0,0,0,0,0,0,0,0,-1,1798,1821,0,0
581,-797,0,0,0,0,0,0,0,0,0,-1,1805,1821,0,0
588,-797,0,0,0,0,0,0,0,0,0,-1,1812,1821,0,0
595,-797,0,0,0,0,0,0,0,0,0,-1,1819,1821,0,0
602,-797,0,0,0,0,0,0,0,0,0,-1,1826,1821,0,0
609,-797,0,0,0,0,0,0,0,0,0,-1,1833,1821,0,0
616,-797,0,0,0,0,0,0,0,0,0,-1,1840,1821,0,0
623,-797,0,0,0,0,0,0,0,0,0,-1,1847,1821,0,0
630,-797,0,0,0,0,0,0,0,0,0,-1,1854,1821,0,0
637,-797,0,0,0,0,0,0,0,0,0,-1,1861,1821,0,0
644,-797,0,0,0,0,0,0,0,0,0,-1,1868,1821,0,0
651,-797,0,0,0,0,0,0,0,0,0,-1,1875,1821,0,0
658,-797,0,0,0,0,0,0,0,0,0,-1,1882,1821,0,0
665,-797,0,0,0,0,0,0,0,0,0,-1,1889,1821,0,0
672,-797,0,0,0,0,0,0,0,0,0,-1,1896,1821,0,0
679,-797,0,0,0,0,0,0,0,0,0,-1,1903,1821,0,0
686,-797,0,0,0,0,0,0,0,0,0,-1,1910,1821,0,0
693,-797,0,0,0,0,0,0,0,0,0,-1,1917,1821,0,0
700,-797,0,0,0,0,0,0,0,0,0,-1,1924,1821,0,0
707,-797,0,0,0,0,0,0,0,0,0,-1,1931,1821,0,0
714,-797,0,0,0,0,0,0,0,0,0,-1,1938,1821,0,0
721,-797,0,0,0,0,0,0,0,0,0,-1,1945,1821,0,0
728,-797,0,0,0,0,0,0,0,0,0,-1,1952,1821,0,0
735,-797,0,0,0,0,0,0,0,0,0,-1,1959,1821,0,0
742,-797,0,0,0,0,0,0,0,0,0,-1,1966,1821,0,0
749,-797,0,0,0,0,0,0,0,0,0,-1,1973,1821,0,0
756,-797,0,0,0,0,0,0,0,0,0,-1,1980,1821,0,0
763,-797,0,0,0,0,0,0,0,0,0,-1,1987,1821,0,0
770,-797,0,0,0,0,0,0,0,0,0,-1,1994,1821,0,0
777,-797,0,0,0,0,0,0,0,0,0,-1,2001,1821,0,0
784,-797,0,0,0,0,0,0,0,0,0,-1,2008,1821,0,0
791,-797,0,0,0,0,0,0,0,0,0,-1,2015,1821,0,0
798,-797,0,0,0,0,0,0,0,0,0,-1,2022,1821,0,0
805,-797,0,0,0,0,0,0,0,0,0,-1,2029,1821,0,0
812,-797,0,0,0,0,0,0,0,0,0,-1,2036,1821,0,0
-700,-804,0,0,0,0,0,0,0,0,0,-1,524,1828,0,0
-693,-804,0,0,0,0,0,0,0,0,0,-1,531,1828,0,0
-686,-804,0,0,0,0,0,0,0,0,0,-1,538,1828,0,0
-679,-804,0,0,0,0,0,0,0,0,0,-1,545,1828,0,0
-672,-804,0,0,0,0,0,0,0,0,0,-1,552,1828,0,0
-665,-804,0,0,0,0,0,0,0,0,0,-1,559,1828,0,0
-658,-804,0,0,0,0,0,0,0,0,0,-1,566,1828,0,0
-651,-804,0,0,0,0,0,0,0,0,0,-1,573,1828,0,0
-644,-804,0,0,0,0,0,0,0,0,0,-1,580,1828,0,0
-637,-804,0,0,0,0,0,0,0,0,0,-1,587,1828,0,0
-630,-804,0,0,0,0,0,0,0,0,0,-1,594,1828,0,0
-623,-804,0,0,0,0,0,0,0,0,0,-1,601,1828,0,0
-616,-804,0,0,0,0,0,0,0,0,0,-1,608,1828,0,0
-609,-804,0,0,0,0,0,0,0,0,0,-1,615,1828,0,0
-602,-804,0,0,0,0,0,0,0,0,0,-1,622,1828,0,0
-595,-804,0,0,0,0,0,0,0,0,0,-1,629,1828,0,0
-588,-804,0,0,0,0,0,0,0,0,0,-1,636,1828,0,0
-581,-804,0,0,0,0,0,0,0,0,0,-1,643,1828,0,0
-574,-804,0,0,0,0,0,0,0,0,0,-1,650,1828,0,0
-567,-804,0,0,0,0,0,0,0,0,0,-1,657,1828,0,0
-560,-804,0,0,0,0,0,0,0,0,0,-1,664,1828,0,0
-553,-804,0,0,0,0,0,0,0,0,0,-1,671,1828,0,0
-546,-804,0,0,0,0,0,0,0,0,0,-1,678,1828,0,0
-539,-804,0,0,0,0,0,0,0,0,0,-1,685,1828,0,0
-532,-804,0,0,0,0,0,0,0,0,0,-1,692,1828,0,0
-525,-804,0,0,0,0,0,0,0,0,0,-1,699,1828,0,0
-518,-804,0,0,0,0,0,0,0,0,0,-1,706,1828,0,0
-511,-804,0,0,0,0,0,0,0,0,0,-1,713,1828,0,0
-504,-804,0,0,0,0,0,0,0,0,0,-1,720,1828,0,0
-497,-804,0,0,0,0,0,0,0,0,0,-1,727,1828,0,0
-490,-804,0,0,0,0,0,0,0,0,0,-1,734,1828,0,0
-483,-804,0,0,0,0,0,0,0,0,0,-1,741,1828,0,0
-476,-804,0,0,0,0,0,0,0,0,0,-1,748,1828,0,0
-469,-804,0,0,0,0,0,0,0,0,0,-1,755,1828,0,0
-462,-804,0,0,0,0,0,0,0,0,0,-1,762,1828,0,0
-455,-804,0,0,0,0,0,0,0,0,0,-1,769,1828,0,0
-448,-804,0,0,0,0,0,0,0,0,0,-1,776,1828,0,0
-441,-804,0,0,0,0,0,0,0,0,0,-1,783,1828,0,0
-434,-804,0,0,0,0,0,0,0,0,0,-1,790,1828,0,0
-427,-804,0,0,0,0,0,0,0,0,0,-1,797,1828,0,0
-420,-804,0,0,0,0,0,0,0,0,0,-1,804,1828,0,0
-413,-804,0,0,0,0,0,0,0,0,0,-1,811,1828,0,0
-406,-804,0,0,0,0,0,0,0,0,0,-1,818,1828,0,0
-399,-804,0,0,0,0,0,0,0,0,0,-1,825,1828,0,0
-392,-804,0,0,0,0,0,0,0,0,0,-1,832,1828,0,0
-385,-804,0,0,0,0,0,0,0,0,0,-1,839,1828,0,0
-378,-804,0,0,0,0,0,0,0,0,0,-1,846,1828,0,0
-371,-804,0,0,0,0,0,0,0,0,0,-1,853,1828,0,0
-364,-804,0,0,0,0,0,0,0,0,0,-1,860,1828,0,0
-357,-804,0,0,0,0,0,0,0,0,0,-1,867,1828,0,0
-350,-804,0,0,0,0,0,0,0,0,0,-1,874,1828,0,0
-343,-804,0,0,0,0,0,0,0,0,0,-1,881,1828,0,0
-336,-804,0,0,0,0,0,0,0,0,0,-1,888,1828,0,0
-329,-804,0,0,0,0,0,0,0,0,0,-1,895,1828,0,0
-322,-804,0,0,0,0,0,0,0,0,0,-1,902,1828,0,0
-315,-804,0,0,0,0,0,0,0,0,0,-1,909,1828,0,0
-308,-804,0,0,0,0,0,0,0,0,0,-1,916,1828,0,0
-301,-804,0,0,0,0,0,0,0,0,0,-1,923,1828,0,0
-294,-804,0,0,0,0,0,0,0,0,0,-1,930,1828,0,0
-287,-804,0,0,0,0,0,0,0,0,0,-1,937,1828,0,0
-280,-804,0,0,0,0,0,0,0,0,0,-1,944,1828,0,0
-273,-804,0,0,0,0,0,0,0,0,0,-1,951,1828,0,0
-266,-804,0,0,0,0,0,0,0,0,0,-1,958,1828,0,0
-259,-804,0,0,0,0,0,0,0,0,0,-1,965,1828,0,0
-252,-804,0,0,0,0,0,0,0,0,0,-1,972,1828,0,0
-245,-804,0,0,0,0,0,0,0,0,0,-1,979,1828,0,0
-238,-804,0,0,0,0,0,0,0,0,0,-1,986,1828,0,0
-231,-804,0,0,0,0,0,0,0,0,0,-1,993,1828,0,0
-224,-804,0,0,0,0,0,0,0,0,0,-1,1000,1828,0,0
-217,-804,0,0,0,0,0,0,0,0,0,-1,1007,1828,0,0
-210,-804,0,0,0,0,0,0,0,0,0,-1,1014,1828,0,0
-203,-804,0,0,0,0,0,0,0,0,0,-1,1021,1828,0,0
-196,-804,0,0,0,0,0,0,0,0,0,-1,1028,1828,0,0
-189,-804,0,0,0,0,0,0,0,0,0,-1,1035,1828,0,0
-182,-804,0,0,0,0,0,0,0,0,0,-1,1042,1828,0,0
-175,-804,0,0,0,0,0,0,0,0,0,-1,1049,1828,0,0
-168,-804,0,0,0,0,0,0,0,0,0,-1,1056,1828,0,0
-161,-804,0,0,0,0,0,0,0,0,0,-1,1063,1828,0,0
-154,-804,0,0,0,0,0,0,0,0,0,-1,1070,1828,0,0
-147,-804,0,0,0,0,0,0,0,0,0,-1,1077,1828,0,0
-140,-804,0,0,0,0,0,0,0,0,0,-1,1084,1828,0,0
-133,-804,0,0,0,0,0,0,0,0,0,-1,1091,1828,0,0
-126,-804,0,0,0,0,0,0,0,0,0,-1,1098,1828,0,0
-119,-804,0,0,0,0,0,0,0,0,0,-1,1105,1828,0,0
-112,-804,0,0,0,0,0,0,0,0,0,-1,1112,1828,0,0
-105,-804,0,0,0,0,0,0,0,0,0,-1,1119,1828,0,0
-98,-804,0,0,0,0,0,0,0,0,0,-1,1126,1828,0,0
-91,-804,0,0,0,0,0,0,0,0,0,-1,1133,1828,0,0
-84,-804,0,0,0,0,0,0,0,0,0,-1,1140,1828,0,0
-77,-804,0,0,0,0,0,0,0,0,0,-1,1147,1828,0,0
-70,-804,0,0,0,0,0,0,0,0,0,-1,1154,1828,0,0
-63,-804,0,0,0,0,0,0,0,0,0,-1,1161,1828,0,0
-56,-804,0,0,0,0,0,0,0,0,0,-1,1168,1828,0,0
-49,-804,0,0,0,0,0,0,0,0,0,-1,1175,1828,0,0
-42,-804,0,0,0,0,0,0,0,0,0,-1,1182,1828,0,0
-35,-804,0,0,0,0,0,0,0,0,0,-1,1189,1828,0,0
-28,-804,0,0,0,0,0,0,0,0,0,-1,1196,1828,0,0
-21,-804,0,0,0,0,0,0,0,0,0,-1,1203,1828,0,0
-14,-804,0,0,0,0,0,0,0,0,0,-1,1210,1828,0,0
-7,-804,0,0,0,0,0,0,0,0,0,-1,1217,1828,0,0
0,-804,0,0,0,0,0,0,0,0,0,-1,1224,1828,0,0
7,-804,0,0,0,0,0,0,0,0,0,-1,1231,1828,0,0
14,-804,0,0,0,0,0,0,0,0,0,-1,1238,1828,0,0
21,-804,0,0,0,0,0,0,0,0,0,-1,1245,1828,0,0
28,-804,0,0,0,0,0,0,0,0,0,-1,1252,1828,0,0
35,-804,0.665527,3.42053,0,0,0,0,0,0,0,-1,1259,1828,0.665485,-3.42053
42,-804,0.713379,2.01794,0,0,0,0,0,0,0,-1,1266,1828,0.7134,-2.01798
49,-804,-0.0235596,2.40417,0,0,0,0,0,0,0,-1,1273,1828,-0.0236174,-2.40423
56,-804,-0.780884,2.78479,0,0,0,0,0,0,0,-1,1280,1828,-0.780837,-2.78476
63,-804,1.18445,3.78882,0,0,0,0,0,0,0,-1,1287,1828,1.18447,-3.78878
70,-804,-0.820313,-0.174683,0,0,0,0,0,0,0,-1,1294,1828,-0.82036,0.174667
77,-804,-2.60498,-3.61597,0,0,0,0,0,0,0,-1,1301,1828,-2.60493,3.61603
84,-804,-1.90491,-2.74451,0,0,0,0,0,0,0,-1,1308,1828,-1.9049,2.74449
91,-804,0,0,0,0,0,0,0,0,0,-1,1315,1828,0,0
98,-804,0,0,0,0,0,0,0,0,0,-1,1322,1828,0,0
105,-804,0,0,0,0,0,0,0,0,0,-1,1329,1828,0,0
112,-804,0,0,0,0,0,0,0,0,0,-1,1336,1828,0,0
119,-804,0,0,0,0,0,0,0,0,0,-1,1343,1828,0,0
126,-804,0,0,0,0,0,0,0,0,0,-1,1350,1828,0,0
133,-804,0,0,0,0,0,0,0,0,0,-1,1357,1828,0,0
140,-804,0,0,0,0,0,0,0,0,0,-1,1364,1828,0,0
147,-804,0,0,0,0,0,0,0,0,0,-1,1371,1828,0,0
154,-804,0,0,0,0,0,0,0,0,0,-1,1378,1828,0,0
161,-804,0,0,0,0,0,0,0,0,0,-1,1385,1828,0,0
168,-804,0,0,0,0,0,0,0,0,0,-1,1392,1828,0,0
175,-804,0,0,0,0,0,0,0,0,0,-1,1399,1828,0,0
182,-804,0,0,0,0,0,0,0,0,0,-1,1406,1828,0,0
189,-804,0,0,0,0,0,0,0,0,0,-1,1413,1828,0,0
196,-804,0,0,0,0,0,0,0,0,0,-1,1420,1828,0,0
203,-804,0,0,0,0,0,0,0,0,0,-1,1427,1828,0,0
210,-804,0,0,0,0,0,0,0,0,0,-1,1434,1828,0,0
217,-804,0,0,0,0,0,0,0,0,0,-1,1441,1828,0,0
224,-804,0,0,0,0,0,0,0,0,0,-1,1448,1828,0,0
231,-804,0,0,0,0,0,0,0,0,0,-1,1455,1828,0,0
238,-804,0,0,0,0,0,0,0,0,0,-1,1462,1828,0,0
245,-804,0,0,0,0,0,0,0,0,0,-1,1469,1828,0,0
252,-804,0,0,0,0,0,0,0,0,0,-1,1476,1828,0,0
259,-804,0,0,0,0,0,0,0,0,0,-1,1483,1828,0,0
266,-804,0,0,0,0,0,0,0,0,0,-1,1490,1828,0,0
273,-804,0,0,0,0,0,0,0,0,0,-1,1497,1828,0,0
280,-804,0,0,0,0,0,0,0,0,0,-1,1504,1828,0,0
287,-804,0,0,0,0,0,0,0,0,0,-1,1511,1828,0,0
294,-804,0,0,0,0,0,0,0,0,0,-1,1518,1828,0,0
301,-804,0,0,0,0,0,0,0,0,0,-1,1525,1828,0,0
308,-804,0,0,0,0,0,0,0,0,0,-1,1532,1828,0,0
315,-804,0,0,0,0,0,0,0,0,0,-1,1539,1828,0,0
322,-804,0,0,0,0,0,0,0,0,0,-1,1546,1828,0,0
329,-804,0,0,0,0,0,0,0,0,0,-1,1553,1828,0,0
336,-804,0,0,0,0,0,0,0,0,0,-1,1560,1828,0,0
343,-804,0,0,0,0,0,0,0,0,0,-1,1567,1828,0,0
350,-804,0,0,0,0,0,0,0,0,0,-1,1574,1828,0,0
357,-804,0,0,0,0,0,0,0,0,0,-1,1581,1828,0,0
364,-804,0,0,0,0,0,0,0,0,0,-1,1588,1828,0,0
371,-804,0,0,0,0,0,0,0,0,0,-1,1595,1828,0,0
378,-804,0,0,0,0,0,0,0,0,0,-1,1602,1828,0,0
385,-804,0,0,0,0,0,0,0,0,0,-1,1609,1828,0,0
392,-804,0,0,0,0,0,0,0,0,0,-1,1616,1828,0,0
399,-804,0,0,0,0,0,0,0,0,0,-1,1623,1828,0,0
406,-804,0,0,0,0,0,0,0,0,0,-1,1630,1828,0,0
413,-804,0,0,0,0,0,0,0,0,0,-1,1637,1828,0,0
420,-804,0,0,0,0,0,0,0,0,0,-1,1644,1828,0,0
427,-804,0,0,0,0,0,0,0,0,0,-1,1651,1828,0,0
434,-804,0,0,0,0,0,0,0,0,0,-1,1658,1828,0,0
441,-804,0,0,0,0,0,0,0,0,0,-1,1665,1828,0,0
448,-804,0,0,0,0,0,0,0,0,0,-1,1672,1828,0,0
455,-804,0,0,0,0,0,0,0,0,0,-1,1679,1828,0,0
462,-804,0,0,0,0,0,0,0,0,0,-1,1686,1828,0,0
469,-804,0,0,0,0,0,0,0,0,0,-1,1693,1828,0,0
476,-804,0,0,0,0,0,0,0,0,0,-1,1700,1828,0,0
483,-804,0,0,0,0,0,0,0,0,0,-1,1707,1828,0,0
490,-804,0,0,0,0,0,0,0,0,0,-1,1714,1828,0,0
497,-804,0,0,0,0,0,0,0,0,0,-1,1721,1828,0,0
504,-804,0,0,0,0,0,0,0,0,0,-1,1728,1828,0,0
511,-804,0,0,0,0,0,0,0,0,0,-1,1735,1828,0,0
518,-804,0,0,0,0,0,0,0,0,0,-1,1742,1828,0,0
525,-804,0,0,0,0,0,0,0,0,0,-1,1749,1828,0,0
532,-804,0,0,0,0,0,0,0,0,0,-1,1756,1828,0,0
539,-804,0,0,0,0,0,0,0,0,0,-1,1763,1828,0,0
546,-804,0,0,0,0,0,0,0,0,0,-1,1770,1828,0,0
553,-804,0,0,0,0,0,0,0,0,0,-1,1777,1828,0,0
560,-804,0,0,0,0,0,0,0,0,0,-1,1784,1828,0,0
567,-804,0,0,0,0,0,0,0,0,0,-1,1791,1828,0,0
574,-804,0,0,0,0,0,0,0,0,0,-1,1798,1828,0,0
581,-804,0,0,0,0,0,0,0,0,0,-1,1805,1828,0,0
588,-804,0,0,0,0,0,0,0,0,0,-1,1812,1828,0,0
595,-804,0,0,0,0,0,0,0,0,0,-1,1819,1828,0,0
602,-804,0,0,0,0,0,0,0,0,0,-1,1826,1828,0,0
609,-804,0,0,0,0,0,0,0,0,0,-1,1833,1828,0,0
616,-804,0,0,0,0,0,0,0,0,0,-1,1840,1828,0,0
623,-804,0,0,0,0,0,0,0,0,0,-1,1847,1828,0,0
630,-804,0,0,0,0,0,0,0,0,0,-1,1854,1828,0,0
637,-804,0,0,0,0,0,0,0,0,0,-1,1861,1828,0,0
644,-804,0,0,0,0,0,0,0,0,0,-1,1868,1828,0,0
651,-804,0,0,0,0,0,0,0,0,0,-1,1875,1828,0,0
658,-804,0,0,0,0,0,0,0,0,0,-1,1882,1828,0,0
665,-804,0,0,0,0,0,0,0,0,0,-1,1889,1828,0,0
672,-804,0,0,0,0,0,0,0,0,0,-1,1896,1828,0,0
679,-804,0,0,0,0,0,0,0,0,0,-1,1903,1828,0,0
686,-804,0,0,0,0,0,0,0,0,0,-1,1910,1828,0,0
693,-804,0,0,0,0,0,0,0,0,0,-1,1917,1828,0,0
700,-804,0,0,0,0,0,0,0,0,0,-1,1924,1828,0,0
707,-804,0,0,0,0,0,0,0,0,0,-1,1931,1828,0,0
714,-804,0,0,0,0,0,0,0,0,0,-1,1938,1828,0,0
721,-804,0,0,0,0,0,0,0,0,0,-1,1945,1828,0,0
728,-804,0,0,0,0,0,0,0,0,0,-1,1952,1828,0,0
735,-804,0,0,0,0,0,0,0,0,0,-1,1959,1828,0,0
742,-804,0,0,0,0,0,0,0,0,0,-1,1966,1828,0,0
749,-804,0,0,0,0,0,0,0,0,0,-1,1973,1828,0,0
756,-804,0,0,0,0,0,0,0,0,0,-1,1980,1828,0,0
763,-804,0,0,0,0,0,0,0,0,0,-1,1987,1828,0,0
770,-804,0,0,0,0,0,0,0,0,0,-1,1994,1828,0,0
777,-804,0,0,0,0,0,0,0,0,0,-1,2001,1828,0,0
784,-804,0,0,0,0,0,0,0,0,0,-1,2008,1828,0,0
791,-804,0,0,0,0,0,0,0,0,0,-1,2015,1828,0,0
798,-804,0,0,0,0,0,0,0,0,0,-1,2022,1828,0,0
805,-804,0,0,0,0,0,0,0,0,0,-1,2029,1828,0,0
812,-804,0,0,0,0,0,0,0,0,0,-1,2036,1828,0,0

