 "x_c",  "y_c",  "u_c",  "v_c",  "exx",  "eyy",  "exy",  "e1",  "e2",  "gamma",  "e_vonmises",  "sigma",  "x",  "y",  "u",  "v"
-700,715,0,0,0,0,0,0,0,0,0,-1,524,309,0,0
-693,715,0,0,0,0,0,0,0,0,0,-1,531,309,0,0
-686,715,0,0,0,0,0,0,0,0,0,-1,538,309,0,0
-679,715,0,0,0,0,0,0,0,0,0,-1,545,309,0,0
-672,715,0,0,0,0,0,0,0,0,0,-1,552,309,0,0
-665,715,0,0,0,0,0,0,0,0,0,-1,559,309,0,0
-658,715,0,0,0,0,0,0,0,0,0,-1,566,309,0,0
-651,715,0,0,0,0,0,0,0,0,0,-1,573,309,0,0
-644,715,0,0,0,0,0,0,0,0,0,-1,580,309,0,0
-637,715,0,0,0,0,0,0,0,0,0,-1,587,309,0,0
-630,715,0,0,0,0,0,0,0,0,0,-1,594,309,0,0
-623,715,0,0,0,0,0,0,0,0,0,-1,601,309,0,0
-616,715,0,0,0,0,0,0,0,0,0,-1,608,309,0,0
-609,715,0,0,0,0,0,0,0,0,0,-1,615,309,0,0
-602,715,0,0,0,0,0,0,0,0,0,-1,622,309,0,0
-595,715,0,0,0,0,0,0,0,0,0,-1,629,309,0,0
-588,715,0,0,0,0,0,0,0,0,0,-1,636,309,0,0
-581,715,0,0,0,0,0,0,0,0,0,-1,643,309,0,0
-574,715,0,0,0,0,0,0,0,0,0,-1,650,309,0,0
-567,715,0,0,0,0,0,0,0,0,0,-1,657,309,0,0
-560,715,0,0,0,0,0,0,0,0,0,-1,664,309,0,0
-553,715,0,0,0,0,0,0,0,0,0,-1,671,309,0,0
-546,715,0,0,0,0,0,0,0,0,0,-1,678,309,0,0
-539,715,0,0,0,0,0,0,0,0,0,-1,685,309,0,0
-532,715,0,0,0,0,0,0,0,0,0,-1,692,309,0,0
-525,715,0,0,0,0,0,0,0,0,0,-1,699,309,0,0
-518,715,0,0,0,0,0,0,0,0,0,-1,706,309,0,0
-511,715,0,0,0,0,0,0,0,0,0,-1,713,309,0,0
-504,715,0,0,0,0,0,0,0,0,0,-1,720,309,0,0
-497,715,0,0,0,0,0,0,0,0,0,-1,727,309,0,0
-490,715,0,0,0,0,0,0,0,0,0,-1,734,309,0,0
-483,715,0,0,0,0,0,0,0,0,0,-1,741,309,0,0
-476,715,0,0,0,0,0,0,0,0,0,-1,748,309,0,0
-469,715,0,0,0,0,0,0,0,0,0,-1,755,309,0,0
-462,715,0,0,0,0,0,0,0,0,0,-1,762,309,0,0
-455,715,0,0,0,0,0,0,0,0,0,-1,769,309,0,0
-448,715,0,0,0,0,0,0,0,0,0,-1,776,309,0,0
-441,715,0,0,0,0,0,0,0,0,0,-1,783,309,0,0
-434,715,0,0,0,0,0,0,0,0,0,-1,790,309,0,0
-427,715,0,0,0,0,0,0,0,0,0,-1,797,309,0,0
-420,715,0,0,0,0,0,0,0,0,0,-1,804,309,0,0
-413,715,0,0,0,0,0,0,0,0,0,-1,811,309,0,0
-406,715,0,0,0,0,0,0,0,0,0,-1,818,309,0,0
-399,715,0,0,0,0,0,0,0,0,0,-1,825,309,0,0
-392,715,0,0,0,0,0,0,0,0,0,-1,832,309,0,0
-385,715,0,0,0,0,0,0,0,0,0,-1,839,309,0,0
-378,715,0,0,0,0,0,0,0,0,0,-1,846,309,0,0
-371,715,0,0,0,0,0,0,0,0,0,-1,853,309,0,0
-364,715,0,0,0,0,0,0,0,0,0,-1,860,309,0,0
-357,715,0,0,0,0,0,0,0,0,0,-1,867,309,0,0
-350,715,0,0,0,0,0,0,0,0,0,-1,874,309,0,0
-343,715,0,0,0,0,0,0,0,0,0,-1,881,309,0,0
-336,715,0,0,0,0,0,0,0,0,0,-1,888,309,0,0
-329,715,0,0,0,0,0,0,0,0,0,-1,895,309,0,0
-322,715,0,0,0,0,0,0,0,0,0,-1,902,309,0,0
-315,715,0,0,0,0,0,0,0,0,0,-1,909,309,0,0
-308,715,0,0,0,0,0,0,0,0,0,-1,916,309,0,0
-301,715,0,0,0,0,0,0,0,0,0,-1,923,309,0,0
-294,715,0,0,0,0,0,0,0,0,0,-1,930,309,0,0
-287,715,0,0,0,0,0,0,0,0,0,-1,937,309,0,0
-280,715,0,0,0,0,0,0,0,0,0,-1,944,309,0,0
-273,715,0,0,0,0,0,0,0,0,0,-1,951,309,0,0
-266,715,0,0,0,0,0,0,0,0,0,-1,958,309,0,0
-259,715,0,0,0,0,0,0,0,0,0,-1,965,309,0,0
-252,715,0,0,0,0,0,0,0,0,0,-1,972,309,0,0
-245,715,0,0,0,0,0,0,0,0,0,-1,979,309,0,0
-238,715,0,0,0,0,0,0,0,0,0,-1,986,309,0,0
-231,715,0,0,0,0,0,0,0,0,0,-1,993,309,0,0
-224,715,0,0,0,0,0,0,0,0,0,-1,1000,309,0,0
-217,715,0,0,0,0,0,0,0,0,0,-1,1007,309,0,0
-210,715,0,0,0,0,0,0,0,0,0,-1,1014,309,0,0
-203,715,0,0,0,0,0,0,0,0,0,-1,1021,309,0,0
-196,715,0,0,0,0,0,0,0,0,0,-1,1028,309,0,0
-189,715,0,0,0,0,0,0,0,0,0,-1,1035,309,0,0
-182,715,0,0,0,0,0,0,0,0,0,-1,1042,309,0,0
-175,715,0,0,0,0,0,0,0,0,0,-1,1049,309,0,0
-168,715,0,0,0,0,0,0,0,0,0,-1,1056,309,0,0
-161,715,0,0,0,0,0,0,0,0,0,-1,1063,309,0,0
-154,715,0,0,0,0,0,0,0,0,0,-1,1070,309,0,0
-147,715,0,0,0,0,0,0,0,0,0,-1,1077,309,0,0
-140,715,0,0,0,0,0,0,0,0,0,-1,1084,309,0,0
-133,715,0,0,0,0,0,0,0,0,0,-1,1091,309,0,0
-126,715,0,0,0,0,0,0,0,0,0,-1,1098,309,0,0
-119,715,0,0,0,0,0,0,0,0,0,-1,1105,309,0,0
-112,715,0,0,0,0,0,0,0,0,0,-1,1112,309,0,0
-105,715,0,0,0,0,0,0,0,0,0,-1,1119,309,0,0
-98,715,0,0,0,0,0,0,0,0,0,-1,1126,309,0,0
-91,715,0,0,0,0,0,0,0,0,0,-1,1133,309,0,0
-84,715,0,0,0,0,0,0,0,0,0,-1,1140,309,0,0
-77,715,0,0,0,0,0,0,0,0,0,-1,1147,309,0,0
-70,715,0,0,0,0,0,0,0,0,0,-1,1154,309,0,0
-63,715,0,0,0,0,0,0,0,0,0,-1,1161,309,0,0
-56,715,0,0,0,0,0,0,0,0,0,-1,1168,309,0,0
-49,715,0,0,0,0,0,0,0,0,0,-1,1175,309,0,0
-42,715,0,0,0,0,0,0,0,0,0,-1,1182,309,0,0
-35,715,0,0,0,0,0,0,0,0,0,-1,1189,309,0,0
-28,715,0,0,0,0,0,0,0,0,0,-1,1196,309,0,0
-21,715,0,0,0,0,0,0,0,0,0,-1,1203,309,0,0
-14,715,0,0,0,0,0,0,0,0,0,-1,1210,309,0,0
-7,715,0,0,0,0,0,0,0,0,0,-1,1217,309,0,0
0,715,0,0,0,0,0,0,0,0,0,-1,1224,309,0,0
7,715,0,0,0,0,0,0,0,0,0,-1,1231,309,0,0
14,715,0,0,0,0,0,0,0,0,0,-1,1238,309,0,0
21,715,0,0,0,0,0,0,0,0,0,-1,1245,309,0,0
28,715,0,0,0,0,0,0,0,0,0,-1,1252,309,0,0
35,715,0,0,0,0,0,0,0,0,0,-1,1259,309,0,0
42,715,0,0,0,0,0,0,0,0,0,-1,1266,309,0,0
49,715,0,0,0,0,0,0,0,0,0,-1,1273,309,0,0
56,715,0,0,0,0,0,0,0,0,0,-1,1280,309,0,0
63,715,0.566895,-26.7488,0,0,0,0,0,0,0,-1,1287,309,0.566942,26.7488
70,715,-3.34778,-31.7548,0,0,0,0,0,0,0,-1,1294,309,-3.34774,31.7548
77,715,0,0,0,0,0,0,0,0,0,-1,1301,309,0,0
84,715,0,0,0,0,0,0,0,0,0,-1,1308,309,0,0
91,715,0,0,0,0,0,0,0,0,0,-1,1315,309,0,0
98,715,0,0,0,0,0,0,0,0,0,-1,1322,309,0,0
105,715,0,0,0,0,0,0,0,0,0,-1,1329,309,0,0
112,715,0,0,0,0,0,0,0,0,0,-1,1336,309,0,0
119,715,0,0,0,0,0,0,0,0,0,-1,1343,309,0,0
126,715,0,0,0,0,0,0,0,0,0,-1,1350,309,0,0
133,715,0,0,0,0,0,0,0,0,0,-1,1357,309,0,0
140,715,0,0,0,0,0,0,0,0,0,-1,1364,309,0,0
147,715,0,0,0,0,0,0,0,0,0,-1,1371,309,0,0
154,715,0,0,0,0,0,0,0,0,0,-1,1378,309,0,0
161,715,0,0,0,0,0,0,0,0,0,-1,1385,309,0,0
168,715,0,0,0,0,0,0,0,0,0,-1,1392,309,0,0
175,715,0,0,0,0,0,0,0,0,0,-1,1399,309,0,0
182,715,0,0,0,0,0,0,0,0,0,-1,1406,309,0,0
189,715,0,0,0,0,0,0,0,0,0,-1,1413,309,0,0
196,715,0,0,0,0,0,0,0,0,0,-1,1420,309,0,0
203,715,0,0,0,0,0,0,0,0,0,-1,1427,309,0,0
210,715,0,0,0,0,0,0,0,0,0,-1,1434,309,0,0
217,715,0,0,0,0,0,0,0,0,0,-1,1441,309,0,0
224,715,0,0,0,0,0,0,0,0,0,-1,1448,309,0,0
231,715,0,0,0,0,0,0,0,0,0,-1,1455,309,0,0
238,715,0,0,0,0,0,0,0,0,0,-1,1462,309,0,0
245,715,0,0,0,0,0,0,0,0,0,-1,1469,309,0,0
252,715,0,0,0,0,0,0,0,0,0,-1,1476,309,0,0
259,715,0,0,0,0,0,0,0,0,0,-1,1483,309,0,0
266,715,0,0,0,0,0,0,0,0,0,-1,1490,309,0,0
273,715,0,0,0,0,0,0,0,0,0,-1,1497,309,0,0
280,715,0,0,0,0,0,0,0,0,0,-1,1504,309,0,0
287,715,0,0,0,0,0,0,0,0,0,-1,1511,309,0,0
294,715,0,0,0,0,0,0,0,0,0,-1,1518,309,0,0
301,715,0,0,0,0,0,0,0,0,0,-1,1525,309,0,0
308,715,0,0,0,0,0,0,0,0,0,-1,1532,309,0,0
315,715,0,0,0,0,0,0,0,0,0,-1,1539,309,0,0
322,715,0,0,0,0,0,0,0,0,0,-1,1546,309,0,0
329,715,0,0,0,0,0,0,0,0,0,-1,1553,309,0,0
336,715,0,0,0,0,0,0,0,0,0,-1,1560,309,0,0
343,715,0,0,0,0,0,0,0,0,0,-1,1567,309,0,0
350,715,0,0,0,0,0,0,0,0,0,-1,1574,309,0,0
357,715,0,0,0,0,0,0,0,0,0,-1,1581,309,0,0
364,715,0,0,0,0,0,0,0,0,0,-1,1588,309,0,0
371,715,0,0,0,0,0,0,0,0,0,-1,1595,309,0,0
378,715,0,0,0,0,0,0,0,0,0,-1,1602,309,0,0
385,715,0,0,0,0,0,0,0,0,0,-1,1609,309,0,0
392,715,0,0,0,0,0,0,0,0,0,-1,1616,309,0,0
399,715,0,0,0,0,0,0,0,0,0,-1,1623,309,0,0
406,715,0,0,0,0,0,0,0,0,0,-1,1630,309,0,0
413,715,0,0,0,0,0,0,0,0,0,-1,1637,309,0,0
420,715,0,0,0,0,0,0,0,0,0,-1,1644,309,0,0
427,715,0,0,0,0,0,0,0,0,0,-1,1651,309,0,0
434,715,0,0,0,0,0,0,0,0,0,-1,1658,309,0,0
441,715,0,0,0,0,0,0,0,0,0,-1,1665,309,0,0
448,715,0,0,0,0,0,0,0,0,0,-1,1672,309,0,0
455,715,0,0,0,0,0,0,0,0,0,-1,1679,309,0,0
462,715,0,0,0,0,0,0,0,0,0,-1,1686,309,0,0
469,715,0,0,0,0,0,0,0,0,0,-1,1693,309,0,0
476,715,0,0,0,0,0,0,0,0,0,-1,1700,309,0,0
483,715,0,0,0,0,0,0,0,0,0,-1,1707,309,0,0
490,715,0,0,0,0,0,0,0,0,0,-1,1714,309,0,0
497,715,0,0,0,0,0,0,0,0,0,-1,1721,309,0,0
504,715,0,0,0,0,0,0,0,0,0,-1,1728,309,0,0
511,715,0,0,0,0,0,0,0,0,0,-1,1735,309,0,0
518,715,0,0,0,0,0,0,0,0,0,-1,1742,309,0,0
525,715,0,0,0,0,0,0,0,0,0,-1,1749,309,0,0
532,715,0,0,0,0,0,0,0,0,0,-1,1756,309,0,0
539,715,0,0,0,0,0,0,0,0,0,-1,1763,309,0,0
546,715,0,0,0,0,0,0,0,0,0,-1,1770,309,0,0
553,715,0,0,0,0,0,0,0,0,0,-1,1777,309,0,0
560,715,0,0,0,0,0,0,0,0,0,-1,1784,309,0,0
567,715,0,0,0,0,0,0,0,0,0,-1,1791,309,0,0
574,715,0,0,0,0,0,0,0,0,0,-1,1798,309,0,0
581,715,0,0,0,0,0,0,0,0,0,-1,1805,309,0,0
588,715,0,0,0,0,0,0,0,0,0,-1,1812,309,0,0
595,715,0,0,0,0,0,0,0,0,0,-1,1819,309,0,0
602,715,0,0,0,0,0,0,0,0,0,-1,1826,309,0,0
609,715,0,0,0,0,0,0,0,0,0,-1,1833,309,0,0
616,715,0,0,0,0,0,0,0,0,0,-1,1840,309,0,0
623,715,0,0,0,0,0,0,0,0,0,-1,1847,309,0,0
630,715,0,0,0,0,0,0,0,0,0,-1,1854,309,0,0
637,715,0,0,0,0,0,0,0,0,0,-1,1861,309,0,0
644,715,0,0,0,0,0,0,0,0,0,-1,1868,309,0,0
651,715,0,0,0,0,0,0,0,0,0,-1,1875,309,0,0
658,715,0,0,0,0,0,0,0,0,0,-1,1882,309,0,0
665,715,0,0,0,0,0,0,0,0,0,-1,1889,309,0,0
672,715,0,0,0,0,0,0,0,0,0,-1,1896,309,0,0
679,715,0,0,0,0,0,0,0,0,0,-1,1903,309,0,0
686,715,0,0,0,0,0,0,0,0,0,-1,1910,309,0,0
693,715,0,0,0,0,0,0,0,0,0,-1,1917,309,0,0
700,715,0,0,0,0,0,0,0,0,0,-1,1924,309,0,0
707,715,0,0,0,0,0,0,0,0,0,-1,1931,309,0,0
714,715,0,0,0,0,0,0,0,0,0,-1,1938,309,0,0
721,715,0,0,0,0,0,0,0,0,0,-1,1945,309,0,0
728,715,0,0,0,0,0,0,0,0,0,-1,1952,309,0,0
735,715,0,0,0,0,0,0,0,0,0,-1,1959,309,0,0
742,715,0,0,0,0,0,0,0,0,0,-1,1966,309,0,0
749,715,0,0,0,0,0,0,0,0,0,-1,1973,309,0,0
756,715,0,0,0,0,0,0,0,0,0,-1,1980,309,0,0
763,715,0,0,0,0,0,0,0,0,0,-1,1987,309,0,0
770,715,0,0,0,0,0,0,0,0,0,-1,1994,309,0,0
777,715,0,0,0,0,0,0,0,0,0,-1,2001,309,0,0
784,715,0,0,0,0,0,0,0,0,0,-1,2008,309,0,0
791,715,0,0,0,0,0,0,0,0,0,-1,2015,309,0,0
798,715,0,0,0,0,0,0,0,0,0,-1,2022,309,0,0
805,715,0,0,0,0,0,0,0,0,0,-1,2029,309,0,0
812,715,0,0,0,0,0,0,0,0,0,-1,2036,309,0,0
-700,708,0,0,0,0,0,0,0,0,0,-1,524,316,0,0
-693,708,0,0,0,0,0,0,0,0,0,-1,531,316,0,0
-686,708,0,0,0,0,0,0,0,0,0,-1,538,316,0,0
-679,708,0,0,0,0,0,0,0,0,0,-1,545,316,0,0
-672,708,0,0,0,0,0,0,0,0,0,-1,552,316,0,0
-665,708,0,0,0,0,0,0,0,0,0,-1,559,316,0,0
-658,708,0,0,0,0,0,0,0,0,0,-1,566,316,0,0
-651,708,0,0,0,0,0,0,0,0,0,-1,573,316,0,0
-644,708,0,0,0,0,0,0,0,0,0,-1,580,316,0,0
-637,708,0,0,0,0,0,0,0,0,0,-1,587,316,0,0
-630,708,0,0,0,0,0,0,0,0,0,-1,594,316,0,0
-623,708,0,0,0,0,0,0,0,0,0,-1,601,316,0,0
-616,708,0,0,0,0,0,0,0,0,0,-1,608,316,0,0
-609,708,0,0,0,0,0,0,0,0,0,-1,615,316,0,0
-602,708,0,0,0,0,0,0,0,0,0,-1,622,316,0,0
-595,708,0,0,0,0,0,0,0,0,0,-1,629,316,0,0
-588,708,0,0,0,0,0,0,0,0,0,-1,636,316,0,0
-581,708,0,0,0,0,0,0,0,0,0,-1,643,316,0,0
-574,708,0,0,0,0,0,0,0,0,0,-1,650,316,0,0
-567,708,0,0,0,0,0,0,0,0,0,-1,657,316,0,0
-560,708,0,0,0,0,0,0,0,0,0,-1,664,316,0,0
-553,708,0,0,0,0,0,0,0,0,0,-1,671,316,0,0
-546,708,0,0,0,0,0,0,0,0,0,-1,678,316,0,0
-539,708,0,0,0,0,0,0,0,0,0,-1,685,316,0,0
-532,708,0,0,0,0,0,0,0,0,0,-1,692,316,0,0
-525,708,0,0,0,0,0,0,0,0,0,-1,699,316,0,0
-518,708,0,0,0,0,0,0,0,0,0,-1,706,316,0,0
-511,708,0,0,0,0,0,0,0,0,0,-1,713,316,0,0
-504,708,0,0,0,0,0,0,0,0,0,-1,720,316,0,0
-497,708,0,0,0,0,0,0,0,0,0,-1,727,316,0,0
-490,708,0,0,0,0,0,0,0,0,0,-1,734,316,0,0
-483,708,0,0,0,0,0,0,0,0,0,-1,741,316,0,0
-476,708,0,0,0,0,0,0,0,0,0,-1,748,316,0,0
-469,708,0,0,0,0,0,0,0,0,0,-1,755,316,0,0
-462,708,0,0,0,0,0,0,0,0,0,-1,762,316,0,0
-455,708,0,0,0,0,0,0,0,0,0,-1,769,316,0,0
-448,708,0,0,0,0,0,0,0,0,0,-1,776,316,0,0
-441,708,0,0,0,0,0,0,0,0,0,-1,783,316,0,0
-434,708,0,0,0,0,0,0,0,0,0,-1,790,316,0,0
-427,708,0,0,0,0,0,0,0,0,0,-1,797,316,0,0
-420,708,0,0,0,0,0,0,0,0,0,-1,804,316,0,0
-413,708,0,0,0,0,0,0,0,0,0,-1,811,316,0,0
-406,708,0,0,0,0,0,0,0,0,0,-1,818,316,0,0
-399,708,0,0,0,0,0,0,0,0,0,-1,825,316,0,0
-392,708,0,0,0,0,0,0,0,0,0,-1,832,316,0,0
-385,708,0,0,0,0,0,0,0,0,0,-1,839,316,0,0
-378,708,0,0,0,0,0,0,0,0,0,-1,846,316,0,0
-371,708,0,0,0,0,0,0,0,0,0,-1,853,316,0,0
-364,708,0,0,0,0,0,0,0,0,0,-1,860,316,0,0
-357,708,0,0,0,0,0,0,0,0,0,-1,867,316,0,0
-350,708,0,0,0,0,0,0,0,0,0,-1,874,316,0,0
-343,708,0,0,0,0,0,0,0,0,0,-1,881,316,0,0
-336,708,0,0,0,0,0,0,0,0,0,-1,888,316,0,0
-329,708,0,0,0,0,0,0,0,0,0,-1,895,316,0,0
-322,708,0,0,0,0,0,0,0,0,0,-1,902,316,0,0
-315,708,0,0,0,0,0,0,0,0,0,-1,909,316,0,0
-308,708,0,0,0,0,0,0,0,0,0,-1,916,316,0,0
-301,708,0,0,0,0,0,0,0,0,0,-1,923,316,0,0
-294,708,0,0,0,0,0,0,0,0,0,-1,930,316,0,0
-287,708,0,0,0,0,0,0,0,0,0,-1,937,316,0,0
-280,708,0,0,0,0,0,0,0,0,0,-1,944,316,0,0
-273,708,0,0,0,0,0,0,0,0,0,-1,951,316,0,0
-266,708,0,0,0,0,0,0,0,0,0,-1,958,316,0,0
-259,708,0,0,0,0,0,0,0,0,0,-1,965,316,0,0
-252,708,0,0,0,0,0,0,0,0,0,-1,972,316,0,0
-245,708,0,0,0,0,0,0,0,0,0,-1,979,316,0,0
-238,708,0,0,0,0,0,0,0,0,0,-1,986,316,0,0
-231,708,0,0,0,0,0,0,0,0,0,-1,993,316,0,0
-224,708,0,0,0,0,0,0,0,0,0,-1,1000,316,0,0
-217,708,0,0,0,0,0,0,0,0,0,-1,1007,316,0,0
-210,708,0,0,0,0,0,0,0,0,0,-1,1014,316,0,0
-203,708,0,0,0,0,0,0,0,0,0,-1,1021,316,0,0
-196,708,0,0,0,0,0,0,0,0,0,-1,1028,316,0,0
-189,708,0,0,0,0,0,0,0,0,0,-1,1035,316,0,0
-182,708,0,0,0,0,0,0,0,0,0,-1,1042,316,0,0
-175,708,0,0,0,0,0,0,0,0,0,-1,1049,316,0,0
-168,708,0,0,0,0,0,0,0,0,0,-1,1056,316,0,0
-161,708,0,0,0,0,0,0,0,0,0,-1,1063,316,0,0
-154,708,0,0,0,0,0,0,0,0,0,-1,1070,316,0,0
-147,708,0,0,0,0,0,0,0,0,0,-1,1077,316,0,0
-140,708,0,0,0,0,0,0,0,0,0,-1,1084,316,0,0
-133,708,0,0,0,0,0,0,0,0,0,-1,1091,316,0,0
-126,708,0,0,0,0,0,0,0,0,0,-1,1098,316,0,0
-119,708,0,0,0,0,0,0,0,0,0,-1,1105,316,0,0
-112,708,0,0,0,0,0,0,0,0,0,-1,1112,316,0,0
-105,708,0,0,0,0,0,0,0,0,0,-1,1119,316,0,0
-98,708,0,0,0,0,0,0,0,0,0,-1,1126,316,0,0
-91,708,0,0,0,0,0,0,0,0,0,-1,1133,316,0,0
-84,708,0,0,0,0,0,0,0,0,0,-1,1140,316,0,0
-77,708,0,0,0,0,0,0,0,0,0,-1,1147,316,0,0
-70,708,0,0,0,0,0,0,0,0,0,-1,1154,316,0,0
-63,708,0,0,0,0,0,0,0,0,0,-1,1161,316,0,0
-56,708,0,0,0,0,0,0,0,0,0,-1,1168,316,0,0
-49,708,0,0,0,0,0,0,0,0,0,-1,1175,316,0,0
-42,708,0,0,0,0,0,0,0,0,0,-1,1182,316,0,0
-35,708,-2.71204,-6.31558,0,0,0,0,0,0,0,-1,1189,316,-2.712,6.3156
-28,708,-2.92371,-5.53253,0,0,0,0,0,0,0,-1,1196,316,-2.92375,5.53254
-21,708,-0.417969,-24.5911,0,0,0,0,0,0,0,-1,1203,316,-0.418022,24.5911
-14,708,5.59241,-27.8311,0,0,0,0,0,0,0,-1,1210,316,5.59245,27.8311
-7,708,6.82532,-27.2141,0,0,0,0,0,0,0,-1,1217,316,6.82534,27.2141
0,708,8.05823,-26.5971,0,0,0,0,0,0,0,-1,1224,316,8.05823,26.5971
7,708,-4.32239,-21.5904,0,0,0,0,0,0,0,-1,1231,316,-4.32239,21.5904
14,708,-3.29761,-22.888,0,0,0,0,0,0,0,-1,1238,316,-3.29763,22.888
21,708,-2.02527,-24.1272,0,0,0,0,0,0,0,-1,1245,316,-2.02524,24.1272
28,708,-0.641113,-25.2488,0,0,0,0,0,0,0,-1,1252,316,-0.641142,25.2488
35,708,0.737915,-25.8402,0,0,0,0,0,0,0,-1,1259,316,0.737867,25.8402
42,708,1.95178,-26.1621,0,0,0,0,0,0,0,-1,1266,316,1.95179,26.1621
49,708,3.2782,-26.2108,0,0,0,0,0,0,0,-1,1273,316,3.2782,26.2108
56,708,4.19897,-26.0041,0,0,0,0,0,0,0,-1,1280,316,4.19902,26.0041
63,708,6.03088,-24.6608,0,0,0,0,0,0,0,-1,1287,316,6.03094,24.6608
70,708,0.0516357,-27.1274,0,0,0,0,0,0,0,-1,1294,316,0.0515869,27.1274
77,708,5.71277,-28.4291,0,0,0,0,0,0,0,-1,1301,316,5.71281,28.4291
84,708,4.90942,-25.4923,0,0,0,0,0,0,0,-1,1308,316,4.90947,25.4923
91,708,4.62024,-25.3264,0,0,0,0,0,0,0,-1,1315,316,4.62021,25.3264
98,708,4.33093,-25.1605,0,0,0,0,0,0,0,-1,1322,316,4.33096,25.1605
105,708,1.29895,-24.5469,0,0,0,0,0,0,0,-1,1329,316,1.29894,24.5469
112,708,1.34558,-25.3457,0,0,0,0,0,0,0,-1,1336,316,1.34561,25.3457
119,708,1.00317,-25.404,0,0,0,0,0,0,0,-1,1343,316,1.00322,25.404
126,708,1.20898,-26.1003,0,0,0,0,0,0,0,-1,1350,316,1.20896,26.1003
133,708,1.23035,-26.5103,0,0,0,0,0,0,0,-1,1357,316,1.23039,26.5103
140,708,5.24536,-25.7504,0,0,0,0,0,0,0,-1,1364,316,5.24534,25.7504
147,708,3.61743,-24.5245,0,0,0,0,0,0,0,-1,1371,316,3.61744,24.5245
154,708,0,0,0,0,0,0,0,0,0,-1,1378,316,0,0
161,708,0,0,0,0,0,0,0,0,0,-1,1385,316,0,0
168,708,0,0,0,0,0,0,0,0,0,-1,1392,316,0,0
175,708,0,0,0,0,0,0,0,0,0,-1,1399,316,0,0
182,708,0,0,0,0,0,0,0,0,0,-1,1406,316,0,0
189,708,0,0,0,0,0,0,0,0,0,-1,1413,316,0,0
196,708,0,0,0,0,0,0,0,0,0,-1,1420,316,0,0
203,708,0,0,0,0,0,0,0,0,0,-1,1427,316,0,0
210,708,0,0,0,0,0,0,0,0,0,-1,1434,316,0,0
217,708,0,0,0,0,0,0,0,0,0,-1,1441,316,0,0
224,708,0,0,0,0,0,0,0,0,0,-1,1448,316,0,0
231,708,0,0,0,0,0,0,0,0,0,-1,1455,316,0,0
238,708,0,0,0,0,0,0,0,0,0,-1,1462,316,0,0
245,708,0,0,0,0,0,0,0,0,0,-1,1469,316,0,0
252,708,0,0,0,0,0,0,0,0,0,-1,1476,316,0,0
259,708,0,0,0,0,0,0,0,0,0,-1,1483,316,0,0
266,708,0,0,0,0,0,0,0,0,0,-1,1490,316,0,0
273,708,0,0,0,0,0,0,0,0,0,-1,1497,316,0,0
280,708,0,0,0,0,0,0,0,0,0,-1,1504,316,0,0
287,708,0,0,0,0,0,0,0,0,0,-1,1511,316,0,0
294,708,0,0,0,0,0,0,0,0,0,-1,1518,316,0,0
301,708,0,0,0,0,0,0,0,0,0,-1,1525,316,0,0
308,708,0,0,0,0,0,0,0,0,0,-1,1532,316,0,0
315,708,0,0,0,0,0,0,0,0,0,-1,1539,316,0,0
322,708,0,0,0,0,0,0,0,0,0,-1,1546,316,0,0
329,708,0,0,0,0,0,0,0,0,0,-1,1553,316,0,0
336,708,0,0,0,0,0,0,0,0,0,-1,1560,316,0,0
343,708,0,0,0,0,0,0,0,0,0,-1,1567,316,0,0
350,708,0,0,0,0,0,0,0,0,0,-1,1574,316,0,0
357,708,0,0,0,0,0,0,0,0,0,-1,1581,316,0,0
364,708,0,0,0,0,0,0,0,0,0,-1,1588,316,0,0
371,708,0,0,0,0,0,0,0,0,0,-1,1595,316,0,0
378,708,0,0,0,0,0,0,0,0,0,-1,1602,316,0,0
385,708,0,0,0,0,0,0,0,0,0,-1,1609,316,0,0
392,708,0,0,0,0,0,0,0,0,0,-1,1616,316,0,0
399,708,0,0,0,0,0,0,0,0,0,-1,1623,316,0,0
406,708,0,0,0,0,0,0,0,0,0,-1,1630,316,0,0
413,708,0,0,0,0,0,0,0,0,0,-1,1637,316,0,0
420,708,0,0,0,0,0,0,0,0,0,-1,1644,316,0,0
427,708,0,0,0,0,0,0,0,0,0,-1,1651,316,0,0
434,708,0,0,0,0,0,0,0,0,0,-1,1658,316,0,0
441,708,0,0,0,0,0,0,0,0,0,-1,1665,316,0,0
448,708,0,0,0,0,0,0,0,0,0,-1,1672,316,0,0
455,708,0,0,0,0,0,0,0,0,0,-1,1679,316,0,0
462,708,0,0,0,0,0,0,0,0,0,-1,1686,316,0,0
469,708,0,0,0,0,0,0,0,0,0,-1,1693,316,0,0
476,708,0,0,0,0,0,0,0,0,0,-1,1700,316,0,0
483,708,0,0,0,0,0,0,0,0,0,-1,1707,316,0,0
490,708,0,0,0,0,0,0,0,0,0,-1,1714,316,0,0
497,708,0,0,0,0,0,0,0,0,0,-1,1721,316,0,0
504,708,0,0,0,0,0,0,0,0,0,-1,1728,316,0,0
511,708,0,0,0,0,0,0,0,0,0,-1,1735,316,0,0
518,708,0,0,0,0,0,0,0,0,0,-1,1742,316,0,0
525,708,0,0,0,0,0,0,0,0,0,-1,1749,316,0,0
532,708,0,0,0,0,0,0,0,0,0,-1,1756,316,0,0
539,708,0,0,0,0,0,0,0,0,0,-1,1763,316,0,0
546,708,0,0,0,0,0,0,0,0,0,-1,1770,316,0,0
553,708,0,0,0,0,0,0,0,0,0,-1,1777,316,0,0
560,708,0,0,0,0,0,0,0,0,0,-1,1784,316,0,0
567,708,0,0,0,0,0,0,0,0,0,-1,1791,316,0,0
574,708,0,0,0,0,0,0,0,0,0,-1,1798,316,0,0
581,708,0,0,0,0,0,0,0,0,0,-1,1805,316,0,0
588,708,0,0,0,0,0,0,0,0,0,-1,1812,316,0,0
595,708,0,0,0,0,0,0,0,0,0,-1,1819,316,0,0
602,708,0,0,0,0,0,0,0,0,0,-1,1826,316,0,0
609,708,0,0,0,0,0,0,0,0,0,-1,1833,316,0,0
616,708,0,0,0,0,0,0,0,0,0,-1,1840,316,0,0
623,708,0,0,0,0,0,0,0,0,0,-1,1847,316,0,0
630,708,0,0,0,0,0,0,0,0,0,-1,1854,316,0,0
637,708,0,0,0,0,0,0,0,0,0,-1,1861,316,0,0
644,708,0,0,0,0,0,0,0,0,0,-1,1868,316,0,0
651,708,0,0,0,0,0,0,0,0,0,-1,1875,316,0,0
658,708,0,0,0,0,0,0,0,0,0,-1,1882,316,0,0
665,708,0,0,0,0,0,0,0,0,0,-1,1889,316,0,0
672,708,0,0,0,0,0,0,0,0,0,-1,1896,316,0,0
679,708,0,0,0,0,0,0,0,0,0,-1,1903,316,0,0
686,708,0,0,0,0,0,0,0,0,0,-1,1910,316,0,0
693,708,0,0,0,0,0,0,0,0,0,-1,1917,316,0,0
700,708,0,0,0,0,0,0,0,0,0,-1,1924,316,0,0
707,708,0,0,0,0,0,0,0,0,0,-1,1931,316,0,0
714,708,0,0,0,0,0,0,0,0,0,-1,1938,316,0,0
721,708,0,0,0,0,0,0,0,0,0,-1,1945,316,0,0
728,708,0,0,0,0,0,0,0,0,0,-1,1952,316,0,0
735,708,0,0,0,0,0,0,0,0,0,-1,1959,316,0,0
742,708,0,0,0,0,0,0,0,0,0,-1,1966,316,0,0
749,708,0,0,0,0,0,0,0,0,0,-1,1973,316,0,0
756,708,0,0,0,0,0,0,0,0,0,-1,1980,316,0,0
763,708,0,0,0,0,0,0,0,0,0,-1,1987,316,0,0
770,708,0,0,0,0,0,0,0,0,0,-1,1994,316,0,0
777,708,0,0,0,0,0,0,0,0,0,-1,2001,316,0,0
784,708,0,0,0,0,0,0,0,0,0,-1,2008,316,0,0
791,708,0,0,0,0,0,0,0,0,0,-1,2015,316,0,0
798,708,0,0,0,0,0,0,0,0,0,-1,2022,316,0,0
805,708,0,0,0,0,0,0,0,0,0,-1,2029,316,0,0
812,708,0,0,0,0,0,0,0,0,0,-1,2036,316,0,0
-700,701,0,0,0,0,0,0,0,0,0,-1,524,323,0,0
-693,701,0,0,0,0,0,0,0,0,0,-1,531,323,0,0
-686,701,0,0,0,0,0,0,0,0,0,-1,538,323,0,0
-679,701,0,0,0,0,0,0,0,0,0,-1,545,323,0,0
-672,701,0,0,0,0,0,0,0,0,0,-1,552,323,0,0
-665,701,0,0,0,0,0,0,0,0,0,-1,559,323,0,0
-658,701,0,0,0,0,0,0,0,0,0,-1,566,323,0,0
-651,701,0,0,0,0,0,0,0,0,0,-1,573,323,0,0
-644,701,0,0,0,0,0,0,0,0,0,-1,580,323,0,0
-637,701,0,0,0,0,0,0,0,0,0,-1,587,323,0,0
-630,701,0,0,0,0,0,0,0,0,0,-1,594,323,0,0
-623,701,0,0,0,0,0,0,0,0,0,-1,601,323,0,0
-616,701,0,0,0,0,0,0,0,0,0,-1,608,323,0,0
-609,701,0,0,0,0,0,0,0,0,0,-1,615,323,0,0
-602,701,0,0,0,0,0,0,0,0,0,-1,622,323,0,0
-595,701,0,0,0,0,0,0,0,0,0,-1,629,323,0,0
-588,701,0,0,0,0,0,0,0,0,0,-1,636,323,0,0
-581,701,0,0,0,0,0,0,0,0,0,-1,643,323,0,0
-574,701,0,0,0,0,0,0,0,0,0,-1,650,323,0,0
-567,701,0,0,0,0,0,0,0,0,0,-1,657,323,0,0
-560,701,0,0,0,0,0,0,0,0,0,-1,664,323,0,0
-553,701,0,0,0,0,0,0,0,0,0,-1,671,323,0,0
-546,701,0,0,0,0,0,0,0,0,0,-1,678,323,0,0
-539,701,0,0,0,0,0,0,0,0,0,-1,685,323,0,0
-532,701,0,0,0,0,0,0,0,0,0,-1,692,323,0,0
-525,701,0,0,0,0,0,0,0,0,0,-1,699,323,0,0
-518,701,0,0,0,0,0,0,0,0,0,-1,706,323,0,0
-511,701,0,0,0,0,0,0,0,0,0,-1,713,323,0,0
-504,701,0,0,0,0,0,0,0,0,0,-1,720,323,0,0
-497,701,0,0,0,0,0,0,0,0,0,-1,727,323,0,0
-490,701,0,0,0,0,0,0,0,0,0,-1,734,323,0,0
-483,701,0,0,0,0,0,0,0,0,0,-1,741,323,0,0
-476,701,0,0,0,0,0,0,0,0,0,-1,748,323,0,0
-469,701,0,0,0,0,0,0,0,0,0,-1,755,323,0,0
-462,701,0,0,0,0,0,0,0,0,0,-1,762,323,0,0
-455,701,0,0,0,0,0,0,0,0,0,-1,769,323,0,0
-448,701,0,0,0,0,0,0,0,0,0,-1,776,323,0,0
-441,701,0,0,0,0,0,0,0,0,0,-1,783,323,0,0
-434,701,0,0,0,0,0,0,0,0,0,-1,790,323,0,0
-427,701,0,0,0,0,0,0,0,0,0,-1,797,323,0,0
-420,701,0,0,0,0,0,0,0,0,0,-1,804,323,0,0
-413,701,0,0,0,0,0,0,0,0,0,-1,811,323,0,0
-406,701,0,0,0,0,0,0,0,0,0,-1,818,323,0,0
-399,701,0,0,0,0,0,0,0,0,0,-1,825,323,0,0
-392,701,0,0,0,0,0,0,0,0,0,-1,832,323,0,0
-385,701,0,0,0,0,0,0,0,0,0,-1,839,323,0,0
-378,701,0,0,0,0,0,0,0,0,0,-1,846,323,0,0
-371,701,0,0,0,0,0,0,0,0,0,-1,853,323,0,0
-364,701,0,0,0,0,0,0,0,0,0,-1,860,323,0,0
-357,701,0,0,0,0,0,0,0,0,0,-1,867,323,0,0
-350,701,0,0,0,0,0,0,0,0,0,-1,874,323,0,0
-343,701,0,0,0,0,0,0,0,0,0,-1,881,323,0,0
-336,701,0,0,0,0,0,0,0,0,0,-1,888,323,0,0
-329,701,0,0,0,0,0,0,0,0,0,-1,895,323,0,0
-322,701,0,0,0,0,0,0,0,0,0,-1,902,323,0,0
-315,701,0,0,0,0,0,0,0,0,0,-1,909,323,0,0
-308,701,0,0,0,0,0,0,0,0,0,-1,916,323,0,0
-301,701,0,0,0,0,0,0,0,0,0,-1,923,323,0,0
-294,701,0,0,0,0,0,0,0,0,0,-1,930,323,0,0
-287,701,0,0,0,0,0,0,0,0,0,-1,937,323,0,0
-280,701,0,0,0,0,0,0,0,0,0,-1,944,323,0,0
-273,701,0,0,0,0,0,0,0,0,0,-1,951,323,0,0
-266,701,0,0,0,0,0,0,0,0,0,-1,958,323,0,0
-259,701,0,0,0,0,0,0,0,0,0,-1,965,323,0,0
-252,701,0,0,0,0,0,0,0,0,0,-1,972,323,0,0
-245,701,0,0,0,0,0,0,0,0,0,-1,979,323,0,0
-238,701,0,0,0,0,0,0,0,0,0,-1,986,323,0,0
-231,701,0,0,0,0,0,0,0,0,0,-1,993,323,0,0
-224,701,0,0,0,0,0,0,0,0,0,-1,1000,323,0,0
-217,701,0,0,0,0,0,0,0,0,0,-1,1007,323,0,0
-210,701,0,0,0,0,0,0,0,0,0,-1,1014,323,0,0
-203,701,0,0,0,0,0,0,0,0,0,-1,1021,323,0,0
-196,701,0,0,0,0,0,0,0,0,0,-1,1028,323,0,0
-189,701,0,0,0,0,0,0,0,0,0,-1,1035,323,0,0
-182,701,0,0,0,0,0,0,0,0,0,-1,1042,323,0,0
-175,701,0,0,0,0,0,0,0,0,0,-1,1049,323,0,0
-168,701,0,0,0,0,0,0,0,0,0,-1,1056,323,0,0
-161,701,0,0,0,0,0,0,0,0,0,-1,1063,323,0,0
-154,701,0,0,0,0,0,0,0,0,0,-1,1070,323,0,0
-147,701,0,0,0,0,0,0,0,0,0,-1,1077,323,0,0
-140,701,0,0,0,0,0,0,0,0,0,-1,1084,323,0,0
-133,701,0,0,0,0,0,0,0,0,0,-1,1091,323,0,0
-126,701,0,0,0,0,0,0,0,0,0,-1,1098,323,0,0
-119,701,0,0,0,0,0,0,0,0,0,-1,1105,323,0,0
-112,701,0,0,0,0,0,0,0,0,0,-1,1112,323,0,0
-105,701,0,0,0,0,0,0,0,0,0,-1,1119,323,0,0
-98,701,0,0,0,0,0,0,0,0,0,-1,1126,323,0,0
-91,701,0,0,0,0,0,0,0,0,0,-1,1133,323,0,0
-84,701,0,0,0,0,0,0,0,0,0,-1,1140,323,0,0
-77,701,0,0,0,0,0,0,0,0,0,-1,1147,323,0,0
-70,701,-11.5446,-19.509,0,0,0,0,0,0,0,-1,1154,323,-11.5445,19.509
-63,701,-17.0184,-14.0584,0,0,0,0,0,0,0,-1,1161,323,-17.0185,14.0584
-56,701,-0.420166,-0.101776,0,0,0,0,0,0,0,-1,1168,323,-0.420119,0.101777
-49,701,-1.09021,-0.155762,0,0,0,0,0,0,0,-1,1175,323,-1.09024,0.155768
-42,701,-0.210327,-0.299133,0,0,0,0,0,0,0,-1,1182,323,-0.210379,0.29914
-35,701,-2.9635,-7.98676,0,0,0,0,0,0,0,-1,1189,323,-2.9635,7.98676
-28,701,-6.64417,-5.4917,0,0,0,0,0,0,0,-1,1196,323,-6.64411,5.4917
-21,701,0.563477,-18.3431,0,0,0,0,0,0,0,-1,1203,323,0.5635,18.3431
-14,701,4.79663,-28.3412,0,0,0,0,0,0,0,-1,1210,323,4.79667,28.3412
-7,701,5.95959,-27.9406,0,0,0,0,0,0,0,-1,1217,323,5.95956,27.9406
0,701,5.81604,-28.4189,0,0,0,0,0,0,0,-1,1224,323,5.81599,28.4189
7,701,5.88354,-28.2283,0,0,0,0,0,0,0,-1,1231,323,5.88349,28.2283
14,701,5.99377,-27.9251,0,0,0,0,0,0,0,-1,1238,323,5.99376,27.9251
21,701,-1.89514,-24.177,0,0,0,0,0,0,0,-1,1245,323,-1.89513,24.177
28,701,-0.658203,-25.2731,0,0,0,0,0,0,0,-1,1252,323,-0.658212,25.2731
35,701,0.374023,-26.496,0,0,0,0,0,0,0,-1,1259,323,0.374082,26.496
42,701,1.52844,-26.4231,0,0,0,0,0,0,0,-1,1266,323,1.52842,26.4231
49,701,2.81067,-26.5327,0,0,0,0,0,0,0,-1,1273,323,2.81064,26.5327
56,701,3.93274,-26.531,0,0,0,0,0,0,0,-1,1280,323,3.93276,26.531
63,701,5.62207,-25.6076,0,0,0,0,0,0,0,-1,1287,323,5.62202,25.6076
70,701,7.09119,-25.2703,0,0,0,0,0,0,0,-1,1294,323,7.09118,25.2703
77,701,5.51355,-27.8619,0,0,0,0,0,0,0,-1,1301,323,5.51349,27.8619
84,701,4.6853,-24.6979,0,0,0,0,0,0,0,-1,1308,323,4.68532,24.6979
91,701,4.50098,-26.1172,0,0,0,0,0,0,0,-1,1315,323,4.50096,26.1172
98,701,4.10327,-25.9274,0,0,0,0,0,0,0,-1,1322,323,4.10325,25.9274
105,701,1.12805,-25.2396,0,0,0,0,0,0,0,-1,1329,323,1.12806,25.2396
112,701,1.56763,-25.8563,0,0,0,0,0,0,0,-1,1336,323,1.56763,25.8563
119,701,1.46985,-26.1217,0,0,0,0,0,0,0,-1,1343,323,1.46981,26.1217
126,701,1.43945,-26.4809,0,0,0,0,0,0,0,-1,1350,323,1.43943,26.4809
133,701,5.49487,-26.3397,0,0,0,0,0,0,0,-1,1357,323,5.49492,26.3397
140,701,4.87219,-25.5686,0,0,0,0,0,0,0,-1,1364,323,4.87223,25.5686
147,701,4.84558,-25.0323,0,0,0,0,0,0,0,-1,1371,323,4.84562,25.0323
154,701,6.56934,-24.7236,0,0,0,0,0,0,0,-1,1378,323,6.56939,24.7236
161,701,4.03259,-20.648,0,0,0,0,0,0,0,-1,1385,323,4.0326,20.648
168,701,30.7272,1.76184,0,0,0,0,0,0,0,-1,1392,323,30.7272,-1.76184
175,701,31.5035,2.25711,0,0,0,0,0,0,0,-1,1399,323,31.5036,-2.25712
182,701,8.80652,5.42807,0,0,0,0,0,0,0,-1,1406,323,8.8065,-5.42808
189,701,8.58081,4.24493,0,0,0,0,0,0,0,-1,1413,323,8.58082,-4.24494
196,701,0,0,0,0,0,0,0,0,0,-1,1420,323,0,0
203,701,0,0,0,0,0,0,0,0,0,-1,1427,323,0,0
210,701,0,0,0,0,0,0,0,0,0,-1,1434,323,0,0
217,701,0,0,0,0,0,0,0,0,0,-1,1441,323,0,0
224,701,0,0,0,0,0,0,0,0,0,-1,1448,323,0,0
231,701,0,0,0,0,0,0,0,0,0,-1,1455,323,0,0
238,701,0,0,0,0,0,0,0,0,0,-1,1462,323,0,0
245,701,0,0,0,0,0,0,0,0,0,-1,1469,323,0,0
252,701,0,0,0,0,0,0,0,0,0,-1,1476,323,0,0
259,701,0,0,0,0,0,0,0,0,0,-1,1483,323,0,0
266,701,0,0,0,0,0,0,0,0,0,-1,1490,323,0,0
273,701,0,0,0,0,0,0,0,0,0,-1,1497,323,0,0
280,701,0,0,0,0,0,0,0,0,0,-1,1504,323,0,0
287,701,0,0,0,0,0,0,0,0,0,-1,1511,323,0,0
294,701,0,0,0,0,0,0,0,0,0,-1,1518,323,0,0
301,701,0,0,0,0,0,0,0,0,0,-1,1525,323,0,0
308,701,0,0,0,0,0,0,0,0,0,-1,1532,323,0,0
315,701,0,0,0,0,0,0,0,0,0,-1,1539,323,0,0
322,701,0,0,0,0,0,0,0,0,0,-1,1546,323,0,0
329,701,0,0,0,0,0,0,0,0,0,-1,1553,323,0,0
336,701,0,0,0,0,0,0,0,0,0,-1,1560,323,0,0
343,701,0,0,0,0,0,0,0,0,0,-1,1567,323,0,0
350,701,0,0,0,0,0,0,0,0,0,-1,1574,323,0,0
357,701,0,0,0,0,0,0,0,0,0,-1,1581,323,0,0
364,701,0,0,0,0,0,0,0,0,0,-1,1588,323,0,0
371,701,0,0,0,0,0,0,0,0,0,-1,1595,323,0,0
378,701,0,0,0,0,0,0,0,0,0,-1,1602,323,0,0
385,701,0,0,0,0,0,0,0,0,0,-1,1609,323,0,0
392,701,0,0,0,0,0,0,0,0,0,-1,1616,323,0,0
399,701,0,0,0,0,0,0,0,0,0,-1,1623,323,0,0
406,701,0,0,0,0,0,0,0,0,0,-1,1630,323,0,0
413,701,0,0,0,0,0,0,0,0,0,-1,1637,323,0,0
420,701,0,0,0,0,0,0,0,0,0,-1,1644,323,0,0
427,701,0,0,0,0,0,0,0,0,0,-1,1651,323,0,0
434,701,0,0,0,0,0,0,0,0,0,-1,1658,323,0,0
441,701,0,0,0,0,0,0,0,0,0,-1,1665,323,0,0
448,701,0,0,0,0,0,0,0,0,0,-1,1672,323,0,0
455,701,0,0,0,0,0,0,0,0,0,-1,1679,323,0,0
462,701,0,0,0,0,0,0,0,0,0,-1,1686,323,0,0
469,701,0,0,0,0,0,0,0,0,0,-1,1693,323,0,0
476,701,0,0,0,0,0,0,0,0,0,-1,1700,323,0,0
483,701,0,0,0,0,0,0,0,0,0,-1,1707,323,0,0
490,701,0,0,0,0,0,0,0,0,0,-1,1714,323,0,0
497,701,0,0,0,0,0,0,0,0,0,-1,1721,323,0,0
504,701,0,0,0,0,0,0,0,0,0,-1,1728,323,0,0
511,701,0,0,0,0,0,0,0,0,0,-1,1735,323,0,0
518,701,0,0,0,0,0,0,0,0,0,-1,1742,323,0,0
525,701,0,0,0,0,0,0,0,0,0,-1,1749,323,0,0
532,701,0,0,0,0,0,0,0,0,0,-1,1756,323,0,0
539,701,0,0,0,0,0,0,0,0,0,-1,1763,323,0,0
546,701,0,0,0,0,0,0,0,0,0,-1,1770,323,0,0
553,701,0,0,0,0,0,0,0,0,0,-1,1777,323,0,0
560,701,0,0,0,0,0,0,0,0,0,-1,1784,323,0,0
567,701,0,0,0,0,0,0,0,0,0,-1,1791,323,0,0
574,701,0,0,0,0,0,0,0,0,0,-1,1798,323,0,0
581,701,0,0,0,0,0,0,0,0,0,-1,1805,323,0,0
588,701,0,0,0,0,0,0,0,0,0,-1,1812,323,0,0
595,701,0,0,0,0,0,0,0,0,0,-1,1819,323,0,0
602,701,0,0,0,0,0,0,0,0,0,-1,1826,323,0,0
609,701,0,0,0,0,0,0,0,0,0,-1,1833,323,0,0
616,701,0,0,0,0,0,0,0,0,0,-1,1840,323,0,0
623,701,0,0,0,0,0,0,0,0,0,-1,1847,323,0,0
630,701,0,0,0,0,0,0,0,0,0,-1,1854,323,0,0
637,701,0,0,0,0,0,0,0,0,0,-1,1861,323,0,0
644,701,0,0,0,0,0,0,0,0,0,-1,1868,323,0,0
651,701,0,0,0,0,0,0,0,0,0,-1,1875,323,0,0
658,701,0,0,0,0,0,0,0,0,0,-1,1882,323,0,0
665,701,0,0,0,0,0,0,0,0,0,-1,1889,323,0,0
672,701,0,0,0,0,0,0,0,0,0,-1,1896,323,0,0
679,701,0,0,0,0,0,0,0,0,0,-1,1903,323,0,0
686,701,0,0,0,0,0,0,0,0,0,-1,1910,323,0,0
693,701,0,0,0,0,0,0,0,0,0,-1,1917,323,0,0
700,701,0,0,0,0,0,0,0,0,0,-1,1924,323,0,0
707,701,0,0,0,0,0,0,0,0,0,-1,1931,323,0,0
714,701,0,0,0,0,0,0,0,0,0,-1,1938,323,0,0
721,701,0,0,0,0,0,0,0,0,0,-1,1945,323,0,0
728,701,0,0,0,0,0,0,0,0,0,-1,1952,323,0,0
735,701,0,0,0,0,0,0,0,0,0,-1,1959,323,0,0
742,701,0,0,0,0,0,0,0,0,0,-1,1966,323,0,0
749,701,0,0,0,0,0,0,0,0,0,-1,1973,323,0,0
756,701,0,0,0,0,0,0,0,0,0,-1,1980,323,0,0
763,701,0,0,0,0,0,0,0,0,0,-1,1987,323,0,0
770,701,0,0,0,0,0,0,0,0,0,-1,1994,323,0,0
777,701,0,0,0,0,0,0,0,0,0,-1,2001,323,0,0
784,701,0,0,0,0,0,0,0,0,0,-1,2008,323,0,0
791,701,0,0,0,0,0,0,0,0,0,-1,2015,323,0,0
798,701,0,0,0,0,0,0,0,0,0,-1,2022,323,0,0
805,701,0,0,0,0,0,0,0,0,0,-1,2029,323,0,0
812,701,0,0,0,0,0,0,0,0,0,-1,2036,323,0,0
-700,694,0,0,0,0,0,0,0,0,0,-1,524,330,0,0
-693,694,0,0,0,0,0,0,0,0,0,-1,531,330,0,0
-686,694,0,0,0,0,0,0,0,0,0,-1,538,330,0,0
-679,694,0,0,0,0,0,0,0,0,0,-1,545,330,0,0
-672,694,0,0,0,0,0,0,0,0,0,-1,552,330,0,0
-665,694,0,0,0,0,0,0,0,0,0,-1,559,330,0,0
-658,694,0,0,0,0,0,0,0,0,0,-1,566,330,0,0
-651,694,0,0,0,0,0,0,0,0,0,-1,573,330,0,0
-644,694,0,0,0,0,0,0,0,0,0,-1,580,330,0,0
-637,694,0,0,0,0,0,0,0,0,0,-1,587,330,0,0
-630,694,0,0,0,0,0,0,0,0,0,-1,594,330,0,0
-623,694,0,0,0,0,0,0,0,0,0,-1,601,330,0,0
-616,694,0,0,0,0,0,0,0,0,0,-1,608,330,0,0
-609,694,0,0,0,0,0,0,0,0,0,-1,615,330,0,0
-602,694,0,0,0,0,0,0,0,0,0,-1,622,330,0,0
-595,694,0,0,0,0,0,0,0,0,0,-1,629,330,0,0
-588,694,0,0,0,0,0,0,0,0,0,-1,636,330,0,0
-581,694,0,0,0,0,0,0,0,0,0,-1,643,330,0,0
-574,694,0,0,0,0,0,0,0,0,0,-1,650,330,0,0
-567,694,0,0,0,0,0,0,0,0,0,-1,657,330,0,0
-560,694,0,0,0,0,0,0,0,0,0,-1,664,330,0,0
-553,694,0,0,0,0,0,0,0,0,0,-1,671,330,0,0
-546,694,0,0,0,0,0,0,0,0,0,-1,678,330,0,0
-539,694,0,0,0,0,0,0,0,0,0,-1,685,330,0,0
-532,694,0,0,0,0,0,0,0,0,0,-1,692,330,0,0
-525,694,0,0,0,0,0,0,0,0,0,-1,699,330,0,0
-518,694,0,0,0,0,0,0,0,0,0,-1,706,330,0,0
-511,694,0,0,0,0,0,0,0,0,0,-1,713,330,0,0
-504,694,0,0,0,0,0,0,0,0,0,-1,720,330,0,0
-497,694,0,0,0,0,0,0,0,0,0,-1,727,330,0,0
-490,694,0,0,0,0,0,0,0,0,0,-1,734,330,0,0
-483,694,0,0,0,0,0,0,0,0,0,-1,741,330,0,0
-476,694,0,0,0,0,0,0,0,0,0,-1,748,330,0,0
-469,694,0,0,0,0,0,0,0,0,0,-1,755,330,0,0
-462,694,0,0,0,0,0,0,0,0,0,-1,762,330,0,0
-455,694,0,0,0,0,0,0,0,0,0,-1,769,330,0,0
-448,694,0,0,0,0,0,0,0,0,0,-1,776,330,0,0
-441,694,0,0,0,0,0,0,0,0,0,-1,783,330,0,0
-434,694,0,0,0,0,0,0,0,0,0,-1,790,330,0,0
-427,694,0,0,0,0,0,0,0,0,0,-1,797,330,0,0
-420,694,0,0,0,0,0,0,0,0,0,-1,804,330,0,0
-413,694,0,0,0,0,0,0,0,0,0,-1,811,330,0,0
-406,694,0,0,0,0,0,0,0,0,0,-1,818,330,0,0
-399,694,0,0,0,0,0,0,0,0,0,-1,825,330,0,0
-392,694,0,0,0,0,0,0,0,0,0,-1,832,330,0,0
-385,694,0,0,0,0,0,0,0,0,0,-1,839,330,0,0
-378,694,0,0,0,0,0,0,0,0,0,-1,846,330,0,0
-371,694,0,0,0,0,0,0,0,0,0,-1,853,330,0,0
-364,694,0,0,0,0,0,0,0,0,0,-1,860,330,0,0
-357,694,0,0,0,0,0,0,0,0,0,-1,867,330,0,0
-350,694,0,0,0,0,0,0,0,0,0,-1,874,330,0,0
-343,694,0,0,0,0,0,0,0,0,0,-1,881,330,0,0
-336,694,0,0,0,0,0,0,0,0,0,-1,888,330,0,0
-329,694,0,0,0,0,0,0,0,0,0,-1,895,330,0,0
-322,694,0,0,0,0,0,0,0,0,0,-1,902,330,0,0
-315,694,0,0,0,0,0,0,0,0,0,-1,909,330,0,0
-308,694,0,0,0,0,0,0,0,0,0,-1,916,330,0,0
-301,694,0,0,0,0,0,0,0,0,0,-1,923,330,0,0
-294,694,0,0,0,0,0,0,0,0,0,-1,930,330,0,0
-287,694,0,0,0,0,0,0,0,0,0,-1,937,330,0,0
-280,694,0,0,0,0,0,0,0,0,0,-1,944,330,0,0
-273,694,0,0,0,0,0,0,0,0,0,-1,951,330,0,0
-266,694,0,0,0,0,0,0,0,0,0,-1,958,330,0,0
-259,694,0,0,0,0,0,0,0,0,0,-1,965,330,0,0
-252,694,0,0,0,0,0,0,0,0,0,-1,972,330,0,0
-245,694,0,0,0,0,0,0,0,0,0,-1,979,330,0,0
-238,694,0,0,0,0,0,0,0,0,0,-1,986,330,0,0
-231,694,0,0,0,0,0,0,0,0,0,-1,993,330,0,0
-224,694,0,0,0,0,0,0,0,0,0,-1,1000,330,0,0
-217,694,0,0,0,0,0,0,0,0,0,-1,1007,330,0,0
-210,694,0,0,0,0,0,0,0,0,0,-1,1014,330,0,0
-203,694,0,0,0,0,0,0,0,0,0,-1,1021,330,0,0
-196,694,0,0,0,0,0,0,0,0,0,-1,1028,330,0,0
-189,694,0,0,0,0,0,0,0,0,0,-1,1035,330,0,0
-182,694,0,0,0,0,0,0,0,0,0,-1,1042,330,0,0
-175,694,0,0,0,0,0,0,0,0,0,-1,1049,330,0,0
-168,694,0,0,0,0,0,0,0,0,0,-1,1056,330,0,0
-161,694,0,0,0,0,0,0,0,0,0,-1,1063,330,0,0
-154,694,0,0,0,0,0,0,0,0,0,-1,1070,330,0,0
-147,694,0,0,0,0,0,0,0,0,0,-1,1077,330,0,0
-140,694,0,0,0,0,0,0,0,0,0,-1,1084,330,0,0
-133,694,0,0,0,0,0,0,0,0,0,-1,1091,330,0,0
-126,694,0,0,0,0,0,0,0,0,0,-1,1098,330,0,0
-119,694,0,0,0,0,0,0,0,0,0,-1,1105,330,0,0
-112,694,0,0,0,0,0,0,0,0,0,-1,1112,330,0,0
-105,694,2.5188,-19.3963,0,0,0,0,0,0,0,-1,1119,330,2.51882,19.3963
-98,694,1.34875,-10.1051,0,0,0,0,0,0,0,-1,1126,330,1.34874,10.1051
-91,694,6.86755,-33.359,0,0,0,0,0,0,0,-1,1133,330,6.86759,33.359
-84,694,1.17896,-28.0219,0,0,0,0,0,0,0,-1,1140,330,1.17896,28.0219
-77,694,-4.61255,-22.77,0,0,0,0,0,0,0,-1,1147,330,-4.61256,22.77
-70,694,-10.2438,-17.4885,0,0,0,0,0,0,0,-1,1154,330,-10.2437,17.4885
-63,694,-15.7178,-11.9616,0,0,0,0,0,0,0,-1,1161,330,-15.7178,11.9616
-56,694,-6.50623,-0.649139,0,0,0,0,0,0,0,-1,1168,330,-6.5062,0.649126
-49,694,-1.11426,0.0341797,0,0,0,0,0,0,0,-1,1175,330,-1.11424,-0.0341846
-42,694,-0.346313,-0.709595,0,0,0,0,0,0,0,-1,1182,330,-0.346298,0.709581
-35,694,-0.459106,-1.24713,0,0,0,0,0,0,0,-1,1189,330,-0.459142,1.24714
-28,694,-6.48413,-3.95972,0,0,0,0,0,0,0,-1,1196,330,-6.48414,3.9597
-21,694,3.00366,-26.7859,0,0,0,0,0,0,0,-1,1203,330,3.00368,26.7859
-14,694,4.9917,-27.086,0,0,0,0,0,0,0,-1,1210,330,4.99167,27.086
-7,694,5.23584,-28.8778,0,0,0,0,0,0,0,-1,1217,330,5.23586,28.8778
0,694,5.50684,-28.6404,-0.0058953,0.0287431,0.0200153,0.0378921,-0.0150443,1.14205,0.0314975,0.0439474,1224,330,5.5068,28.6404
7,694,5.58472,-28.3946,-0.00533809,0.0298987,0.0209317,0.0396398,-0.0150792,1.13523,0.0326356,0.0446727,1231,330,5.58467,28.3946
14,694,5.72644,-28.1493,0,0,0,0,0,0,0,-1,1238,330,5.7264,28.1493
21,694,5.83313,-27.9356,0,0,0,0,0,0,0,-1,1245,330,5.83312,27.9356
28,694,-0.600342,-25.5614,0,0,0,0,0,0,0,-1,1252,330,-0.600328,25.5614
35,694,2.67432,-28.5204,0,0,0,0,0,0,0,-1,1259,330,2.67427,28.5204
42,694,3.14197,-28.563,0,0,0,0,0,0,0,-1,1266,330,3.14202,28.5631
49,694,2.38965,-26.9969,0,0,0,0,0,0,0,-1,1273,330,2.3896,26.9969
56,694,3.77478,-27.0772,0,0,0,0,0,0,0,-1,1280,330,3.77479,27.0772
63,694,5.10413,-26.6775,0,0,0,0,0,0,0,-1,1287,330,5.10413,26.6775
70,694,5.5498,-26.8696,0,0,0,0,0,0,0,-1,1294,330,5.54977,26.8696
77,694,4.16174,-26.2788,0,0,0,0,0,0,0,-1,1301,330,4.16172,26.2788
84,694,4.33813,-25.2798,0,0,0,0,0,0,0,-1,1308,330,4.33815,25.2798
91,694,4.40601,-27.0564,0,0,0,0,0,0,0,-1,1315,330,4.40607,27.0564
98,694,3.97156,-26.9263,0,0,0,0,0,0,0,-1,1322,330,3.97154,26.9263
105,694,3.95374,-26.9968,0,0,0,0,0,0,0,-1,1329,330,3.95371,26.9968
112,694,1.86584,-26.5626,0,0,0,0,0,0,0,-1,1336,330,1.8659,26.5626
119,694,2.10095,-26.6868,0,0,0,0,0,0,0,-1,1343,330,2.10095,26.6868
126,694,0.0693359,-24.2196,0,0,0,0,0,0,0,-1,1350,330,0.0693393,24.2196
133,694,-0.865601,-23.3458,0,0,0,0,0,0,0,-1,1357,330,-0.865558,23.3457
140,694,1.3833,-27.6913,0,0,0,0,0,0,0,-1,1364,330,1.3833,27.6913
147,694,2.2146,-27.62,0,0,0,0,0,0,0,-1,1371,330,2.2146,27.62
154,694,4.64099,-25.317,0,0,0,0,0,0,0,-1,1378,330,4.64098,25.317
161,694,3.92969,-26.2193,0,0,0,0,0,0,0,-1,1385,330,3.92966,26.2193
168,694,30.451,0.196686,0,0,0,0,0,0,0,-1,1392,330,30.4511,-0.196674
175,694,31.0701,0.869873,0,0,0,0,0,0,0,-1,1399,330,31.07,-0.869874
182,694,8.29028,5.75238,0,0,0,0,0,0,0,-1,1406,330,8.29034,-5.75237
189,694,7.9801,4.46118,0,0,0,0,0,0,0,-1,1413,330,7.9801,-4.46118
196,694,7.39331,3.32632,0,0,0,0,0,0,0,-1,1420,330,7.39329,-3.32633
203,694,7.04492,2.20529,0,0,0,0,0,0,0,-1,1427,330,7.04496,-2.20529
210,694,6.44714,0.646912,0,0,0,0,0,0,0,-1,1434,330,6.44717,-0.646903
217,694,7.12061,-0.644958,0,0,0,0,0,0,0,-1,1441,330,7.12059,0.644961
224,694,6.74011,-1.70544,0,0,0,0,0,0,0,-1,1448,330,6.74013,1.70546
231,694,0,0,0,0,0,0,0,0,0,-1,1455,330,0,0
238,694,0,0,0,0,0,0,0,0,0,-1,1462,330,0,0
245,694,0,0,0,0,0,0,0,0,0,-1,1469,330,0,0
252,694,0,0,0,0,0,0,0,0,0,-1,1476,330,0,0
259,694,0,0,0,0,0,0,0,0,0,-1,1483,330,0,0
266,694,0,0,0,0,0,0,0,0,0,-1,1490,330,0,0
273,694,0,0,0,0,0,0,0,0,0,-1,1497,330,0,0
280,694,0,0,0,0,0,0,0,0,0,-1,1504,330,0,0
287,694,0,0,0,0,0,0,0,0,0,-1,1511,330,0,0
294,694,0,0,0,0,0,0,0,0,0,-1,1518,330,0,0
301,694,0,0,0,0,0,0,0,0,0,-1,1525,330,0,0
308,694,0,0,0,0,0,0,0,0,0,-1,1532,330,0,0
315,694,0,0,0,0,0,0,0,0,0,-1,1539,330,0,0
322,694,0,0,0,0,0,0,0,0,0,-1,1546,330,0,0
329,694,0,0,0,0,0,0,0,0,0,-1,1553,330,0,0
336,694,0,0,0,0,0,0,0,0,0,-1,1560,330,0,0
343,694,0,0,0,0,0,0,0,0,0,-1,1567,330,0,0
350,694,0,0,0,0,0,0,0,0,0,-1,1574,330,0,0
357,694,0,0,0,0,0,0,0,0,0,-1,1581,330,0,0
364,694,0,0,0,0,0,0,0,0,0,-1,1588,330,0,0
371,694,0,0,0,0,0,0,0,0,0,-1,1595,330,0,0
378,694,0,0,0,0,0,0,0,0,0,-1,1602,330,0,0
385,694,0,0,0,0,0,0,0,0,0,-1,1609,330,0,0
392,694,0,0,0,0,0,0,0,0,0,-1,1616,330,0,0
399,694,0,0,0,0,0,0,0,0,0,-1,1623,330,0,0
406,694,0,0,0,0,0,0,0,0,0,-1,1630,330,0,0
413,694,0,0,0,0,0,0,0,0,0,-1,1637,330,0,0
420,694,0,0,0,0,0,0,0,0,0,-1,1644,330,0,0
427,694,0,0,0,0,0,0,0,0,0,-1,1651,330,0,0
434,694,0,0,0,0,0,0,0,0,0,-1,1658,330,0,0
441,694,0,0,0,0,0,0,0,0,0,-1,1665,330,0,0
448,694,0,0,0,0,0,0,0,0,0,-1,1672,330,0,0
455,694,0,0,0,0,0,0,0,0,0,-1,1679,330,0,0
462,694,0,0,0,0,0,0,0,0,0,-1,1686,330,0,0
469,694,0,0,0,0,0,0,0,0,0,-1,1693,330,0,0
476,694,0,0,0,0,0,0,0,0,0,-1,1700,330,0,0
483,694,0,0,0,0,0,0,0,0,0,-1,1707,330,0,0
490,694,0,0,0,0,0,0,0,0,0,-1,1714,330,0,0
497,694,0,0,0,0,0,0,0,0,0,-1,1721,330,0,0
504,694,0,0,0,0,0,0,0,0,0,-1,1728,330,0,0
511,694,0,0,0,0,0,0,0,0,0,-1,1735,330,0,0
518,694,0,0,0,0,0,0,0,0,0,-1,1742,330,0,0
525,694,0,0,0,0,0,0,0,0,0,-1,1749,330,0,0
532,694,0,0,0,0,0,0,0,0,0,-1,1756,330,0,0
539,694,0,0,0,0,0,0,0,0,0,-1,1763,330,0,0
546,694,0,0,0,0,0,0,0,0,0,-1,1770,330,0,0
553,694,0,0,0,0,0,0,0,0,0,-1,1777,330,0,0
560,694,0,0,0,0,0,0,0,0,0,-1,1784,330,0,0
567,694,0,0,0,0,0,0,0,0,0,-1,1791,330,0,0
574,694,0,0,0,0,0,0,0,0,0,-1,1798,330,0,0
581,694,0,0,0,0,0,0,0,0,0,-1,1805,330,0,0
588,694,0,0,0,0,0,0,0,0,0,-1,1812,330,0,0
595,694,0,0,0,0,0,0,0,0,0,-1,1819,330,0,0
602,694,0,0,0,0,0,0,0,0,0,-1,1826,330,0,0
609,694,0,0,0,0,0,0,0,0,0,-1,1833,330,0,0
616,694,0,0,0,0,0,0,0,0,0,-1,1840,330,0,0
623,694,0,0,0,0,0,0,0,0,0,-1,1847,330,0,0
630,694,0,0,0,0,0,0,0,0,0,-1,1854,330,0,0
637,694,0,0,0,0,0,0,0,0,0,-1,1861,330,0,0
644,694,0,0,0,0,0,0,0,0,0,-1,1868,330,0,0
651,694,0,0,0,0,0,0,0,0,0,-1,1875,330,0,0
658,694,0,0,0,0,0,0,0,0,0,-1,1882,330,0,0
665,694,0,0,0,0,0,0,0,0,0,-1,1889,330,0,0
672,694,0,0,0,0,0,0,0,0,0,-1,1896,330,0,0
679,694,0,0,0,0,0,0,0,0,0,-1,1903,330,0,0
686,694,0,0,0,0,0,0,0,0,0,-1,1910,330,0,0
693,694,0,0,0,0,0,0,0,0,0,-1,1917,330,0,0
700,694,0,0,0,0,0,0,0,0,0,-1,1924,330,0,0
707,694,0,0,0,0,0,0,0,0,0,-1,1931,330,0,0
714,694,0,0,0,0,0,0,0,0,0,-1,1938,330,0,0
721,694,0,0,0,0,0,0,0,0,0,-1,1945,330,0,0
728,694,0,0,0,0,0,0,0,0,0,-1,1952,330,0,0
735,694,0,0,0,0,0,0,0,0,0,-1,1959,330,0,0
742,694,0,0,0,0,0,0,0,0,0,-1,1966,330,0,0
749,694,0,0,0,0,0,0,0,0,0,-1,1973,330,0,0
756,694,0,0,0,0,0,0,0,0,0,-1,1980,330,0,0
763,694,0,0,0,0,0,0,0,0,0,-1,1987,330,0,0
770,694,0,0,0,0,0,0,0,0,0,-1,1994,330,0,0
777,694,0,0,0,0,0,0,0,0,0,-1,2001,330,0,0
784,694,0,0,0,0,0,0,0,0,0,-1,2008,330,0,0
791,694,0,0,0,0,0,0,0,0,0,-1,2015,330,0,0
798,694,0,0,0,0,0,0,0,0,0,-1,2022,330,0,0
805,694,0,0,0,0,0,0,0,0,0,-1,2029,330,0,0
812,694,0,0,0,0,0,0,0,0,0,-1,2036,330,0,0
-700,687,0,0,0,0,0,0,0,0,0,-1,524,337,0,0
-693,687,0,0,0,0,0,0,0,0,0,-1,531,337,0,0
-686,687,0,0,0,0,0,0,0,0,0,-1,538,337,0,0
-679,687,0,0,0,0,0,0,0,0,0,-1,545,337,0,0
-672,687,0,0,0,0,0,0,0,0,0,-1,552,337,0,0
-665,687,0,0,0,0,0,0,0,0,0,-1,559,337,0,0
-658,687,0,0,0,0,0,0,0,0,0,-1,566,337,0,0
-651,687,0,0,0,0,0,0,0,0,0,-1,573,337,0,0
-644,687,0,0,0,0,0,0,0,0,0,-1,580,337,0,0
-637,687,0,0,0,0,0,0,0,0,0,-1,587,337,0,0
-630,687,0,0,0,0,0,0,0,0,0,-1,594,337,0,0
-623,687,0,0,0,0,0,0,0,0,0,-1,601,337,0,0
-616,687,0,0,0,0,0,0,0,0,0,-1,608,337,0,0
-609,687,0,0,0,0,0,0,0,0,0,-1,615,337,0,0
-602,687,0,0,0,0,0,0,0,0,0,-1,622,337,0,0
-595,687,0,0,0,0,0,0,0,0,0,-1,629,337,0,0
-588,687,0,0,0,0,0,0,0,0,0,-1,636,337,0,0
-581,687,0,0,0,0,0,0,0,0,0,-1,643,337,0,0
-574,687,0,0,0,0,0,0,0,0,0,-1,650,337,0,0
-567,687,0,0,0,0,0,0,0,0,0,-1,657,337,0,0
-560,687,0,0,0,0,0,0,0,0,0,-1,664,337,0,0
-553,687,0,0,0,0,0,0,0,0,0,-1,671,337,0,0
-546,687,0,0,0,0,0,0,0,0,0,-1,678,337,0,0
-539,687,0,0,0,0,0,0,0,0,0,-1,685,337,0,0
-532,687,0,0,0,0,0,0,0,0,0,-1,692,337,0,0
-525,687,0,0,0,0,0,0,0,0,0,-1,699,337,0,0
-518,687,0,0,0,0,0,0,0,0,0,-1,706,337,0,0
-511,687,0,0,0,0,0,0,0,0,0,-1,713,337,0,0
-504,687,0,0,0,0,0,0,0,0,0,-1,720,337,0,0
-497,687,0,0,0,0,0,0,0,0,0,-1,727,337,0,0
-490,687,0,0,0,0,0,0,0,0,0,-1,734,337,0,0
-483,687,0,0,0,0,0,0,0,0,0,-1,741,337,0,0
-476,687,0,0,0,0,0,0,0,0,0,-1,748,337,0,0
-469,687,0,0,0,0,0,0,0,0,0,-1,755,337,0,0
-462,687,0,0,0,0,0,0,0,0,0,-1,762,337,0,0
-455,687,0,0,0,0,0,0,0,0,0,-1,769,337,0,0
-448,687,0,0,0,0,0,0,0,0,0,-1,776,337,0,0
-441,687,0,0,0,0,0,0,0,0,0,-1,783,337,0,0
-434,687,0,0,0,0,0,0,0,0,0,-1,790,337,0,0
-427,687,0,0,0,0,0,0,0,0,0,-1,797,337,0,0
-420,687,0,0,0,0,0,0,0,0,0,-1,804,337,0,0
-413,687,0,0,0,0,0,0,0,0,0,-1,811,337,0,0
-406,687,0,0,0,0,0,0,0,0,0,-1,818,337,0,0
-399,687,0,0,0,0,0,0,0,0,0,-1,825,337,0,0
-392,687,0,0,0,0,0,0,0,0,0,-1,832,337,0,0
-385,687,0,0,0,0,0,0,0,0,0,-1,839,337,0,0
-378,687,0,0,0,0,0,0,0,0,0,-1,846,337,0,0
-371,687,0,0,0,0,0,0,0,0,0,-1,853,337,0,0
-364,687,0,0,0,0,0,0,0,0,0,-1,860,337,0,0
-357,687,0,0,0,0,0,0,0,0,0,-1,867,337,0,0
-350,687,0,0,0,0,0,0,0,0,0,-1,874,337,0,0
-343,687,0,0,0,0,0,0,0,0,0,-1,881,337,0,0
-336,687,0,0,0,0,0,0,0,0,0,-1,888,337,0,0
-329,687,0,0,0,0,0,0,0,0,0,-1,895,337,0,0
-322,687,0,0,0,0,0,0,0,0,0,-1,902,337,0,0
-315,687,0,0,0,0,0,0,0,0,0,-1,909,337,0,0
-308,687,0,0,0,0,0,0,0,0,0,-1,916,337,0,0
-301,687,0,0,0,0,0,0,0,0,0,-1,923,337,0,0
-294,687,0,0,0,0,0,0,0,0,0,-1,930,337,0,0
-287,687,0,0,0,0,0,0,0,0,0,-1,937,337,0,0
-280,687,0,0,0,0,0,0,0,0,0,-1,944,337,0,0
-273,687,0,0,0,0,0,0,0,0,0,-1,951,337,0,0
-266,687,0,0,0,0,0,0,0,0,0,-1,958,337,0,0
-259,687,0,0,0,0,0,0,0,0,0,-1,965,337,0,0
-252,687,0,0,0,0,0,0,0,0,0,-1,972,337,0,0
-245,687,0,0,0,0,0,0,0,0,0,-1,979,337,0,0
-238,687,0,0,0,0,0,0,0,0,0,-1,986,337,0,0
-231,687,0,0,0,0,0,0,0,0,0,-1,993,337,0,0
-224,687,0,0,0,0,0,0,0,0,0,-1,1000,337,0,0
-217,687,0,0,0,0,0,0,0,0,0,-1,1007,337,0,0
-210,687,0,0,0,0,0,0,0,0,0,-1,1014,337,0,0
-203,687,0,0,0,0,0,0,0,0,0,-1,1021,337,0,0
-196,687,0,0,0,0,0,0,0,0,0,-1,1028,337,0,0
-189,687,0,0,0,0,0,0,0,0,0,-1,1035,337,0,0
-182,687,0,0,0,0,0,0,0,0,0,-1,1042,337,0,0
-175,687,0,0,0,0,0,0,0,0,0,-1,1049,337,0,0
-168,687,0,0,0,0,0,0,0,0,0,-1,1056,337,0,0
-161,687,0,0,0,0,0,0,0,0,0,-1,1063,337,0,0
-154,687,0,0,0,0,0,0,0,0,0,-1,1070,337,0,0
-147,687,0,0,0,0,0,0,0,0,0,-1,1077,337,0,0
-140,687,0,0,0,0,0,0,0,0,0,-1,1084,337,0,0
-133,687,3.83386,-27.4944,0,0,0,0,0,0,0,-1,1091,337,3.83392,27.4944
-126,687,4.10608,-27.6079,0,0,0,0,0,0,0,-1,1098,337,4.10612,27.6079
-119,687,4.83997,-27.637,0,0,0,0,0,0,0,-1,1105,337,4.83993,27.637
-112,687,5.35901,-25.5432,0,0,0,0,0,0,0,-1,1112,337,5.35898,25.5432
-105,687,6.43494,-23.3701,0,0,0,0,0,0,0,-1,1119,337,6.43489,23.3701
-98,687,13.0936,-35.7905,0,0,0,0,0,0,0,-1,1126,337,13.0936,35.7905
-91,687,7.62842,-30.6922,0,0,0,0,0,0,0,-1,1133,337,7.62845,30.6922
-84,687,2.10876,-25.7283,0,0,0,0,0,0,0,-1,1140,337,2.10882,25.7283
-77,687,-3.47437,-20.7021,0,0,0,0,0,0,0,-1,1147,337,-3.47434,20.7021
-70,687,-9.14441,-16.702,0,0,0,0,0,0,0,-1,1154,337,-9.14439,16.702
-63,687,-12.9957,-4.52802,0,0,0,0,0,0,0,-1,1161,337,-12.9958,4.52801
-56,687,-18.104,7.81931,0,0,0,0,0,0,0,-1,1168,337,-18.104,-7.81931
-49,687,-15.6449,-9.94391,0,0,0,0,0,0,0,-1,1175,337,-15.6449,9.94392
-42,687,-4.2019,-0.405609,0,0,0,0,0,0,0,-1,1182,337,-4.20192,0.405614
-35,687,-4.42273,-0.688171,0,0,0,0,0,0,0,-1,1189,337,-4.42276,0.688178
-28,687,-1.14038,-1.39072,0,0,0,0,0,0,0,-1,1196,337,-1.14035,1.3907
-21,687,4.83374,-26.9541,0,0,0,0,0,0,0,-1,1203,337,4.83377,26.9541
-14,687,4.6051,-27.5629,0,0,0,0,0,0,0,-1,1210,337,4.60516,27.5629
-7,687,4.88013,-29.1172,0,0,0,0,0,0,0,-1,1217,337,4.88017,29.1173
0,687,5.18079,-28.7541,-0.00703739,0.0260948,0.0126288,0.0303595,-0.0113021,1.24512,0.024878,0.0483296,1224,337,5.18083,28.7541
7,687,5.19128,-28.4478,-0.00650784,0.0270866,0.0134074,0.0317814,-0.0112026,1.23398,0.0257474,0.0470587,1231,337,5.19131,28.4478
14,687,4.73169,-28.0547,0,0,0,0,0,0,0,-1,1238,337,4.73174,28.0548
21,687,4.42163,-28.2846,0,0,0,0,0,0,0,-1,1245,337,4.42164,28.2846
28,687,4.30225,-28.4204,0,0,0,0,0,0,0,-1,1252,337,4.30223,28.4204
35,687,4.28296,-28.254,0,0,0,0,0,0,0,-1,1259,337,4.28301,28.254
42,687,4.12781,-28.169,0,0,0,0,0,0,0,-1,1266,337,4.1278,28.169
49,687,3.86414,-28.4518,0,0,0,0,0,0,0,-1,1273,337,3.86416,28.4517
56,687,3.91174,-28.3558,0,0,0,0,0,0,0,-1,1280,337,3.91177,28.3558
63,687,4.05762,-27.9534,0,0,0,0,0,0,0,-1,1287,337,4.05766,27.9534
70,687,4.1864,-27.7203,0,0,0,0,0,0,0,-1,1294,337,4.18643,27.7203
77,687,4.18896,-27.4875,0,0,0,0,0,0,0,-1,1301,337,4.18891,27.4876
84,687,4.6792,-27.0175,0,0,0,0,0,0,0,-1,1308,337,4.67924,27.0175
91,687,4.30225,-27.6751,0,0,0,0,0,0,0,-1,1315,337,4.30228,27.6751
98,687,4.31335,-27.4369,0,0,0,0,0,0,0,-1,1322,337,4.31333,27.4369
105,687,4.24963,-27.3543,0,0,0,0,0,0,0,-1,1329,337,4.24961,27.3543
112,687,1.9093,-26.7987,0,0,0,0,0,0,0,-1,1336,337,1.90929,26.7987
119,687,2.3866,-27.0873,0,0,0,0,0,0,0,-1,1343,337,2.38665,27.0873
126,687,3.03979,-27.0749,0,0,0,0,0,0,0,-1,1350,337,3.03978,27.0749
133,687,2.48633,-26.6192,0,0,0,0,0,0,0,-1,1357,337,2.48638,26.6192
140,687,1.96594,-27.592,0.0162714,0.0411259,-0.0250703,0.05668,0.000717301,-1.0155,0.0375498,0.0492785,1364,337,1.96589,27.592
147,687,2.56494,-27.6677,0.0205105,0.0383093,-0.0267987,0.0576476,0.00117213,-0.945711,0.038047,0.0484829,1371,337,2.5649,27.6677
154,687,2.83557,-27.5715,0,0,0,0,0,0,0,-1,1378,337,2.83551,27.5715
161,687,29.3895,-1.90628,0,0,0,0,0,0,0,-1,1385,337,29.3895,1.90628
168,687,29.8564,-1.19434,0,0,0,0,0,0,0,-1,1392,337,29.8564,1.19434
175,687,30.3419,-0.453583,0,0,0,0,0,0,0,-1,1399,337,30.3419,0.45357
182,687,6.67249,0.289917,0,0,0,0,0,0,0,-1,1406,337,6.67247,-0.289916
189,687,7.76062,4.53635,0,0,0,0,0,0,0,-1,1413,337,7.76064,-4.53636
196,687,6.99048,3.2966,0,0,0,0,0,0,0,-1,1420,337,6.99046,-3.2966
203,687,6.36499,2.1445,0,0,0,0,0,0,0,-1,1427,337,6.36499,-2.14451
210,687,6.68066,0.674652,0,0,0,0,0,0,0,-1,1434,337,6.68062,-0.674655
217,687,5.99683,-0.630493,0,0,0,0,0,0,0,-1,1441,337,5.99684,0.630497
224,687,5.52917,0.524902,0,0,0,0,0,0,0,-1,1448,337,5.5292,-0.524915
231,687,5.85583,-1.73651,0,0,0,0,0,0,0,-1,1455,337,5.85577,1.73651
238,687,5.96582,-2.96774,0,0,0,0,0,0,0,-1,1462,337,5.96577,2.96773
245,687,1.28259,2.32211,0,0,0,0,0,0,0,-1,1469,337,1.28258,-2.32211
252,687,1.97278,3.88422,0,0,0,0,0,0,0,-1,1476,337,1.97281,-3.88421
259,687,0,0,0,0,0,0,0,0,0,-1,1483,337,0,0
266,687,0,0,0,0,0,0,0,0,0,-1,1490,337,0,0
273,687,0,0,0,0,0,0,0,0,0,-1,1497,337,0,0
280,687,0,0,0,0,0,0,0,0,0,-1,1504,337,0,0
287,687,0,0,0,0,0,0,0,0,0,-1,1511,337,0,0
294,687,0,0,0,0,0,0,0,0,0,-1,1518,337,0,0
301,687,0,0,0,0,0,0,0,0,0,-1,1525,337,0,0
308,687,0,0,0,0,0,0,0,0,0,-1,1532,337,0,0
315,687,0,0,0,0,0,0,0,0,0,-1,1539,337,0,0
322,687,0,0,0,0,0,0,0,0,0,-1,1546,337,0,0
329,687,0,0,0,0,0,0,0,0,0,-1,1553,337,0,0
336,687,0,0,0,0,0,0,0,0,0,-1,1560,337,0,0
343,687,0,0,0,0,0,0,0,0,0,-1,1567,337,0,0
350,687,0,0,0,0,0,0,0,0,0,-1,1574,337,0,0
357,687,0,0,0,0,0,0,0,0,0,-1,1581,337,0,0
364,687,0,0,0,0,0,0,0,0,0,-1,1588,337,0,0
371,687,0,0,0,0,0,0,0,0,0,-1,1595,337,0,0
378,687,0,0,0,0,0,0,0,0,0,-1,1602,337,0,0
385,687,0,0,0,0,0,0,0,0,0,-1,1609,337,0,0
392,687,0,0,0,0,0,0,0,0,0,-1,1616,337,0,0
399,687,0,0,0,0,0,0,0,0,0,-1,1623,337,0,0
406,687,0,0,0,0,0,0,0,0,0,-1,1630,337,0,0
413,687,0,0,0,0,0,0,0,0,0,-1,1637,337,0,0
420,687,0,0,0,0,0,0,0,0,0,-1,1644,337,0,0
427,687,0,0,0,0,0,0,0,0,0,-1,1651,337,0,0
434,687,0,0,0,0,0,0,0,0,0,-1,1658,337,0,0
441,687,0,0,0,0,0,0,0,0,0,-1,1665,337,0,0
448,687,0,0,0,0,0,0,0,0,0,-1,1672,337,0,0
455,687,0,0,0,0,0,0,0,0,0,-1,1679,337,0,0
462,687,0,0,0,0,0,0,0,0,0,-1,1686,337,0,0
469,687,0,0,0,0,0,0,0,0,0,-1,1693,337,0,0
476,687,0,0,0,0,0,0,0,0,0,-1,1700,337,0,0
483,687,0,0,0,0,0,0,0,0,0,-1,1707,337,0,0
490,687,0,0,0,0,0,0,0,0,0,-1,1714,337,0,0
497,687,0,0,0,0,0,0,0,0,0,-1,1721,337,0,0
504,687,0,0,0,0,0,0,0,0,0,-1,1728,337,0,0
511,687,0,0,0,0,0,0,0,0,0,-1,1735,337,0,0
518,687,0,0,0,0,0,0,0,0,0,-1,1742,337,0,0
525,687,0,0,0,0,0,0,0,0,0,-1,1749,337,0,0
532,687,0,0,0,0,0,0,0,0,0,-1,1756,337,0,0
539,687,0,0,0,0,0,0,0,0,0,-1,1763,337,0,0
546,687,0,0,0,0,0,0,0,0,0,-1,1770,337,0,0
553,687,0,0,0,0,0,0,0,0,0,-1,1777,337,0,0
560,687,0,0,0,0,0,0,0,0,0,-1,1784,337,0,0
567,687,0,0,0,0,0,0,0,0,0,-1,1791,337,0,0
574,687,0,0,0,0,0,0,0,0,0,-1,1798,337,0,0
581,687,0,0,0,0,0,0,0,0,0,-1,1805,337,0,0
588,687,0,0,0,0,0,0,0,0,0,-1,1812,337,0,0
595,687,0,0,0,0,0,0,0,0,0,-1,1819,337,0,0
602,687,0,0,0,0,0,0,0,0,0,-1,1826,337,0,0
609,687,0,0,0,0,0,0,0,0,0,-1,1833,337,0,0
616,687,0,0,0,0,0,0,0,0,0,-1,1840,337,0,0
623,687,0,0,0,0,0,0,0,0,0,-1,1847,337,0,0
630,687,0,0,0,0,0,0,0,0,0,-1,1854,337,0,0
637,687,0,0,0,0,0,0,0,0,0,-1,1861,337,0,0
644,687,0,0,0,0,0,0,0,0,0,-1,1868,337,0,0
651,687,0,0,0,0,0,0,0,0,0,-1,1875,337,0,0
658,687,0,0,0,0,0,0,0,0,0,-1,1882,337,0,0
665,687,0,0,0,0,0,0,0,0,0,-1,1889,337,0,0
672,687,0,0,0,0,0,0,0,0,0,-1,1896,337,0,0
679,687,0,0,0,0,0,0,0,0,0,-1,1903,337,0,0
686,687,0,0,0,0,0,0,0,0,0,-1,1910,337,0,0
693,687,0,0,0,0,0,0,0,0,0,-1,1917,337,0,0
700,687,0,0,0,0,0,0,0,0,0,-1,1924,337,0,0
707,687,0,0,0,0,0,0,0,0,0,-1,1931,337,0,0
714,687,0,0,0,0,0,0,0,0,0,-1,1938,337,0,0
721,687,0,0,0,0,0,0,0,0,0,-1,1945,337,0,0
728,687,0,0,0,0,0,0,0,0,0,-1,1952,337,0,0
735,687,0,0,0,0,0,0,0,0,0,-1,1959,337,0,0
742,687,0,0,0,0,0,0,0,0,0,-1,1966,337,0,0
749,687,0,0,0,0,0,0,0,0,0,-1,1973,337,0,0
756,687,0,0,0,0,0,0,0,0,0,-1,1980,337,0,0
763,687,0,0,0,0,0,0,0,0,0,-1,1987,337,0,0
770,687,0,0,0,0,0,0,0,0,0,-1,1994,337,0,0
777,687,0,0,0,0,0,0,0,0,0,-1,2001,337,0,0
784,687,0,0,0,0,0,0,0,0,0,-1,2008,337,0,0
791,687,0,0,0,0,0,0,0,0,0,-1,2015,337,0,0
798,687,0,0,0,0,0,0,0,0,0,-1,2022,337,0,0
805,687,0,0,0,0,0,0,0,0,0,-1,2029,337,0,0
812,687,0,0,0,0,0,0,0,0,0,-1,2036,337,0,0
-700,680,0,0,0,0,0,0,0,0,0,-1,524,344,0,0
-693,680,0,0,0,0,0,0,0,0,0,-1,531,344,0,0
-686,680,0,0,0,0,0,0,0,0,0,-1,538,344,0,0
-679,680,0,0,0,0,0,0,0,0,0,-1,545,344,0,0
-672,680,0,0,0,0,0,0,0,0,0,-1,552,344,0,0
-665,680,0,0,0,0,0,0,0,0,0,-1,559,344,0,0
-658,680,0,0,0,0,0,0,0,0,0,-1,566,344,0,0
-651,680,0,0,0,0,0,0,0,0,0,-1,573,344,0,0
-644,680,0,0,0,0,0,0,0,0,0,-1,580,344,0,0
-637,680,0,0,0,0,0,0,0,0,0,-1,587,344,0,0
-630,680,0,0,0,0,0,0,0,0,0,-1,594,344,0,0
-623,680,0,0,0,0,0,0,0,0,0,-1,601,344,0,0
-616,680,0,0,0,0,0,0,0,0,0,-1,608,344,0,0
-609,680,0,0,0,0,0,0,0,0,0,-1,615,344,0,0
-602,680,0,0,0,0,0,0,0,0,0,-1,622,344,0,0
-595,680,0,0,0,0,0,0,0,0,0,-1,629,344,0,0
-588,680,0,0,0,0,0,0,0,0,0,-1,636,344,0,0
-581,680,0,0,0,0,0,0,0,0,0,-1,643,344,0,0
-574,680,0,0,0,0,0,0,0,0,0,-1,650,344,0,0
-567,680,0,0,0,0,0,0,0,0,0,-1,657,344,0,0
-560,680,0,0,0,0,0,0,0,0,0,-1,664,344,0,0
-553,680,0,0,0,0,0,0,0,0,0,-1,671,344,0,0
-546,680,0,0,0,0,0,0,0,0,0,-1,678,344,0,0
-539,680,0,0,0,0,0,0,0,0,0,-1,685,344,0,0
-532,680,0,0,0,0,0,0,0,0,0,-1,692,344,0,0
-525,680,0,0,0,0,0,0,0,0,0,-1,699,344,0,0
-518,680,0,0,0,0,0,0,0,0,0,-1,706,344,0,0
-511,680,0,0,0,0,0,0,0,0,0,-1,713,344,0,0
-504,680,0,0,0,0,0,0,0,0,0,-1,720,344,0,0
-497,680,0,0,0,0,0,0,0,0,0,-1,727,344,0,0
-490,680,0,0,0,0,0,0,0,0,0,-1,734,344,0,0
-483,680,0,0,0,0,0,0,0,0,0,-1,741,344,0,0
-476,680,0,0,0,0,0,0,0,0,0,-1,748,344,0,0
-469,680,0,0,0,0,0,0,0,0,0,-1,755,344,0,0
-462,680,0,0,0,0,0,0,0,0,0,-1,762,344,0,0
-455,680,0,0,0,0,0,0,0,0,0,-1,769,344,0,0
-448,680,0,0,0,0,0,0,0,0,0,-1,776,344,0,0
-441,680,0,0,0,0,0,0,0,0,0,-1,783,344,0,0
-434,680,0,0,0,0,0,0,0,0,0,-1,790,344,0,0
-427,680,0,0,0,0,0,0,0,0,0,-1,797,344,0,0
-420,680,0,0,0,0,0,0,0,0,0,-1,804,344,0,0
-413,680,0,0,0,0,0,0,0,0,0,-1,811,344,0,0
-406,680,0,0,0,0,0,0,0,0,0,-1,818,344,0,0
-399,680,0,0,0,0,0,0,0,0,0,-1,825,344,0,0
-392,680,0,0,0,0,0,0,0,0,0,-1,832,344,0,0
-385,680,0,0,0,0,0,0,0,0,0,-1,839,344,0,0
-378,680,0,0,0,0,0,0,0,0,0,-1,846,344,0,0
-371,680,0,0,0,0,0,0,0,0,0,-1,853,344,0,0
-364,680,0,0,0,0,0,0,0,0,0,-1,860,344,0,0
-357,680,0,0,0,0,0,0,0,0,0,-1,867,344,0,0
-350,680,0,0,0,0,0,0,0,0,0,-1,874,344,0,0
-343,680,0,0,0,0,0,0,0,0,0,-1,881,344,0,0
-336,680,0,0,0,0,0,0,0,0,0,-1,888,344,0,0
-329,680,0,0,0,0,0,0,0,0,0,-1,895,344,0,0
-322,680,0,0,0,0,0,0,0,0,0,-1,902,344,0,0
-315,680,0,0,0,0,0,0,0,0,0,-1,909,344,0,0
-308,680,0,0,0,0,0,0,0,0,0,-1,916,344,0,0
-301,680,0,0,0,0,0,0,0,0,0,-1,923,344,0,0
-294,680,0,0,0,0,0,0,0,0,0,-1,930,344,0,0
-287,680,0,0,0,0,0,0,0,0,0,-1,937,344,0,0
-280,680,0,0,0,0,0,0,0,0,0,-1,944,344,0,0
-273,680,0,0,0,0,0,0,0,0,0,-1,951,344,0,0
-266,680,0,0,0,0,0,0,0,0,0,-1,958,344,0,0
-259,680,0,0,0,0,0,0,0,0,0,-1,965,344,0,0
-252,680,0,0,0,0,0,0,0,0,0,-1,972,344,0,0
-245,680,0,0,0,0,0,0,0,0,0,-1,979,344,0,0
-238,680,0,0,0,0,0,0,0,0,0,-1,986,344,0,0
-231,680,0,0,0,0,0,0,0,0,0,-1,993,344,0,0
-224,680,0,0,0,0,0,0,0,0,0,-1,1000,344,0,0
-217,680,0,0,0,0,0,0,0,0,0,-1,1007,344,0,0
-210,680,0,0,0,0,0,0,0,0,0,-1,1014,344,0,0
-203,680,0,0,0,0,0,0,0,0,0,-1,1021,344,0,0
-196,680,0,0,0,0,0,0,0,0,0,-1,1028,344,0,0
-189,680,0,0,0,0,0,0,0,0,0,-1,1035,344,0,0
-182,680,0,0,0,0,0,0,0,0,0,-1,1042,344,0,0
-175,680,0,0,0,0,0,0,0,0,0,-1,1049,344,0,0
-168,680,0,0,0,0,0,0,0,0,0,-1,1056,344,0,0
-161,680,0,0,0,0,0,0,0,0,0,-1,1063,344,0,0
-154,680,6.81116,-27.1313,0,0,0,0,0,0,0,-1,1070,344,6.81122,27.1313
-147,680,1.50195,-28.7814,0,0,0,0,0,0,0,-1,1077,344,1.50194,28.7814
-140,680,2.15466,-28.344,0,0,0,0,0,0,0,-1,1084,344,2.15466,28.344
-133,680,2.78308,-27.9986,0,0,0,0,0,0,0,-1,1091,344,2.78304,27.9986
-126,680,4.16284,-27.1758,0,0,0,0,0,0,0,-1,1098,344,4.1628,27.1758
-119,680,7.0354,-26.339,0,0,0,0,0,0,0,-1,1105,344,7.0354,26.339
-112,680,6.25879,-25.2983,0,0,0,0,0,0,0,-1,1112,344,6.25878,25.2983
-105,680,5.66675,-23.9672,0,0,0,0,0,0,0,-1,1119,344,5.66677,23.9672
-98,680,13.3525,-32.7397,0,0,0,0,0,0,0,-1,1126,344,13.3525,32.7397
-91,680,8.26062,-28.3457,0,0,0,0,0,0,0,-1,1133,344,8.26058,28.3457
-84,680,2.97107,-23.7054,0,0,0,0,0,0,0,-1,1140,344,2.97105,23.7053
-77,680,-2.72839,-20.1797,0,0,0,0,0,0,0,-1,1147,344,-2.72841,20.1797
-70,680,-8.13635,-13.6907,0,0,0,0,0,0,0,-1,1154,344,-8.13641,13.6907
-63,680,-14.5985,-1.39774,0,0,0,0,0,0,0,-1,1161,344,-14.5985,1.39774
-56,680,-6.96912,-8.83356,0,0,0,0,0,0,0,-1,1168,344,-6.96907,8.83354
-49,680,-6.7677,-2.24063,0,0,0,0,0,0,0,-1,1175,344,-6.76772,2.24063
-42,680,-1.02368,0.618805,0,0,0,0,0,0,0,-1,1182,344,-1.0237,-0.618797
-35,680,-0.947876,-0.942719,0,0,0,0,0,0,0,-1,1189,344,-0.947842,0.942731
-28,680,-1.46118,-1.10574,0,0,0,0,0,0,0,-1,1196,344,-1.4612,1.10575
-21,680,4.6123,-27.5056,0,0,0,0,0,0,0,-1,1203,344,4.61227,27.5056
-14,680,4.3623,-27.9313,-0.00822843,0.0215447,0.00534025,0.0224736,-0.0091573,1.39858,0.0187938,0.0457669,1210,344,4.36235,27.9313
-7,680,4.07056,-28.3777,-0.00764514,0.0220844,0.00676236,0.0235503,-0.00911104,1.35733,0.0194616,0.045812,1217,344,4.0706,28.3777
0,680,4.43762,-28.4686,0,0,0,0,0,0,0,-1,1224,344,4.43757,28.4686
7,680,4.50281,-28.4398,-0.0066798,0.0235218,0.0084284,0.0257147,-0.0088727,1.31626,0.0207432,0.0482849,1231,344,4.50282,28.4398
14,680,4.54309,-28.353,-0.00624886,0.0247797,0.00874386,0.0270741,-0.00854323,1.31418,0.0214713,0.0439639,1238,344,4.54307,28.353
21,680,4.31909,-28.5139,-0.00592304,0.0267106,0.00879395,0.0289295,-0.00814192,1.32364,0.0224969,0.0431361,1245,344,4.31908,28.5139
28,680,4.23376,-28.6492,-0.00536643,0.0291785,0.00872013,0.0312549,-0.00744284,1.33703,0.0237102,0.0446251,1252,344,4.23374,28.6492
35,680,4.18701,-28.5544,-0.0044185,0.0328797,0.00883525,0.0348667,-0.00640555,1.34958,0.0256477,0.047439,1259,344,4.187,28.5544
42,680,4.06311,-28.5216,-0.00338391,0.0353002,0.00923248,0.0373907,-0.0054744,1.34812,0.026938,0.0469556,1266,344,4.06312,28.5216
49,680,3.91943,-28.6875,-0.00253996,0.0379887,0.00993157,0.0402916,-0.00484285,1.34295,0.0286123,0.0428316,1273,344,3.9194,28.6875
56,680,3.95959,-28.627,-0.00240312,0.040942,0.009625,0.0429831,-0.00444428,1.36182,0.0302459,0.0420738,1280,344,3.95955,28.627
63,680,4.06519,-28.4173,-0.00210399,0.0441854,0.00922908,0.0459577,-0.00387621,1.38108,0.0320088,0.0417178,1287,344,4.06516,28.4173
70,680,4.09387,-28.2506,-0.0013122,0.0457648,0.0106746,0.0480722,-0.00361957,1.35792,0.0333202,0.0395641,1294,344,4.09391,28.2506
77,680,4.11401,-28.1164,-0.00211477,0.0477269,0.0117174,0.0503441,-0.00473199,1.35104,0.0352461,0.0422547,1301,344,4.11406,28.1164
84,680,4.32874,-27.874,-0.0037472,0.0503511,0.0111416,0.0525559,-0.00595197,1.37543,0.0371804,0.0447813,1308,344,4.32867,27.874
91,680,4.12402,-28.8715,0,0,0,0,0,0,0,-1,1315,344,4.12407,28.8715
98,680,4.18518,-28.8177,0,0,0,0,0,0,0,-1,1322,344,4.18522,28.8177
105,680,3.95337,-28.6752,0,0,0,0,0,0,0,-1,1329,344,3.95339,28.6752
112,680,2.3772,-27.3611,0,0,0,0,0,0,0,-1,1336,344,2.37718,27.3611
119,680,3.05994,-27.687,0,0,0,0,0,0,0,-1,1343,344,3.05991,27.6869
126,680,3.12073,-27.4208,0.00423835,0.0409675,-0.0109226,0.0439702,0.00123563,-1.30252,0.0289104,0.0452261,1350,344,3.12071,27.4208
133,680,2.77014,-27.1224,0.00638383,0.0386312,-0.0145389,0.0442182,0.00079686,-1.20392,0.0292168,0.0464896,1357,344,2.77011,27.1224
140,680,2.60889,-27.4052,0.0087858,0.0355874,-0.0174254,0.044169,0.0002042,-1.11319,0.0293782,0.0494379,1364,344,2.60894,27.4053
147,680,2.99609,-27.7875,0.011766,0.0336242,-0.0187463,0.0443946,0.000995558,-1.04931,0.0292702,0.0467198,1371,344,2.9961,27.7875
154,680,3.07947,-27.7197,0.0145949,0.0305981,-0.0192013,0.0433984,0.00179469,-0.982817,0.028353,0.0469605,1378,344,3.07943,27.7197
161,680,3.10229,-27.5774,0,0,0,0,0,0,0,-1,1385,344,3.10226,27.5774
168,680,29.4142,-2.51651,0,0,0,0,0,0,0,-1,1392,344,29.4142,2.51652
175,680,6.66541,0.942078,0,0,0,0,0,0,0,-1,1399,344,6.66538,-0.942088
182,680,6.52917,0.532379,0,0,0,0,0,0,0,-1,1406,344,6.52922,-0.532385
189,680,7.55884,4.77695,0,0,0,0,0,0,0,-1,1413,344,7.55886,-4.77694
196,680,6.55627,3.35254,0,0,0,0,0,0,0,-1,1420,344,6.55622,-3.35255
203,680,5.7334,1.90753,0,0,0,0,0,0,0,-1,1427,344,5.73341,-1.90754
210,680,5.27515,0.493622,0,0,0,0,0,0,0,-1,1434,344,5.27514,-0.493632
217,680,6.56384,-0.374176,0,0,0,0,0,0,0,-1,1441,344,6.56379,0.374176
224,680,3.9491,-0.640228,0,0,0,0,0,0,0,-1,1448,344,3.94908,0.64024
231,680,4.24866,-1.96881,0,0,0,0,0,0,0,-1,1455,344,4.2486,1.96882
238,680,4.29333,-3.23984,0,0,0,0,0,0,0,-1,1462,344,4.29332,3.23984
245,680,2.44397,0.985382,0,0,0,0,0,0,0,-1,1469,344,2.44402,-0.985394
252,680,3.07349,2.18951,0,0,0,0,0,0,0,-1,1476,344,3.0735,-2.18952
259,680,2.82971,1.30682,0,0,0,0,0,0,0,-1,1483,344,2.82972,-1.30684
266,680,2.67554,1.44067,0,0,0,0,0,0,0,-1,1490,344,2.67551,-1.44066
273,680,2.46411,1.54666,0,0,0,0,0,0,0,-1,1497,344,2.46407,-1.54666
280,680,0,0,0,0,0,0,0,0,0,-1,1504,344,0,0
287,680,0,0,0,0,0,0,0,0,0,-1,1511,344,0,0
294,680,0,0,0,0,0,0,0,0,0,-1,1518,344,0,0
301,680,0,0,0,0,0,0,0,0,0,-1,1525,344,0,0
308,680,0,0,0,0,0,0,0,0,0,-1,1532,344,0,0
315,680,0,0,0,0,0,0,0,0,0,-1,1539,344,0,0
322,680,0,0,0,0,0,0,0,0,0,-1,1546,344,0,0
329,680,0,0,0,0,0,0,0,0,0,-1,1553,344,0,0
336,680,0,0,0,0,0,0,0,0,0,-1,1560,344,0,0
343,680,0,0,0,0,0,0,0,0,0,-1,1567,344,0,0
350,680,0,0,0,0,0,0,0,0,0,-1,1574,344,0,0
357,680,0,0,0,0,0,0,0,0,0,-1,1581,344,0,0
364,680,0,0,0,0,0,0,0,0,0,-1,1588,344,0,0
371,680,0,0,0,0,0,0,0,0,0,-1,1595,344,0,0
378,680,0,0,0,0,0,0,0,0,0,-1,1602,344,0,0
385,680,0,0,0,0,0,0,0,0,0,-1,1609,344,0,0
392,680,0,0,0,0,0,0,0,0,0,-1,1616,344,0,0
399,680,0,0,0,0,0,0,0,0,0,-1,1623,344,0,0
406,680,0,0,0,0,0,0,0,0,0,-1,1630,344,0,0
413,680,0,0,0,0,0,0,0,0,0,-1,1637,344,0,0
420,680,0,0,0,0,0,0,0,0,0,-1,1644,344,0,0
427,680,0,0,0,0,0,0,0,0,0,-1,1651,344,0,0
434,680,0,0,0,0,0,0,0,0,0,-1,1658,344,0,0
441,680,0,0,0,0,0,0,0,0,0,-1,1665,344,0,0
448,680,0,0,0,0,0,0,0,0,0,-1,1672,344,0,0
455,680,0,0,0,0,0,0,0,0,0,-1,1679,344,0,0
462,680,0,0,0,0,0,0,0,0,0,-1,1686,344,0,0
469,680,0,0,0,0,0,0,0,0,0,-1,1693,344,0,0
476,680,0,0,0,0,0,0,0,0,0,-1,1700,344,0,0
483,680,0,0,0,0,0,0,0,0,0,-1,1707,344,0,0
490,680,0,0,0,0,0,0,0,0,0,-1,1714,344,0,0
497,680,0,0,0,0,0,0,0,0,0,-1,1721,344,0,0
504,680,0,0,0,0,0,0,0,0,0,-1,1728,344,0,0
511,680,0,0,0,0,0,0,0,0,0,-1,1735,344,0,0
518,680,0,0,0,0,0,0,0,0,0,-1,1742,344,0,0
525,680,0,0,0,0,0,0,0,0,0,-1,1749,344,0,0
532,680,0,0,0,0,0,0,0,0,0,-1,1756,344,0,0
539,680,0,0,0,0,0,0,0,0,0,-1,1763,344,0,0
546,680,0,0,0,0,0,0,0,0,0,-1,1770,344,0,0
553,680,0,0,0,0,0,0,0,0,0,-1,1777,344,0,0
560,680,0,0,0,0,0,0,0,0,0,-1,1784,344,0,0
567,680,0,0,0,0,0,0,0,0,0,-1,1791,344,0,0
574,680,0,0,0,0,0,0,0,0,0,-1,1798,344,0,0
581,680,0,0,0,0,0,0,0,0,0,-1,1805,344,0,0
588,680,0,0,0,0,0,0,0,0,0,-1,1812,344,0,0
595,680,0,0,0,0,0,0,0,0,0,-1,1819,344,0,0
602,680,0,0,0,0,0,0,0,0,0,-1,1826,344,0,0
609,680,0,0,0,0,0,0,0,0,0,-1,1833,344,0,0
616,680,0,0,0,0,0,0,0,0,0,-1,1840,344,0,0
623,680,0,0,0,0,0,0,0,0,0,-1,1847,344,0,0
630,680,0,0,0,0,0,0,0,0,0,-1,1854,344,0,0
637,680,0,0,0,0,0,0,0,0,0,-1,1861,344,0,0
644,680,0,0,0,0,0,0,0,0,0,-1,1868,344,0,0
651,680,0,0,0,0,0,0,0,0,0,-1,1875,344,0,0
658,680,0,0,0,0,0,0,0,0,0,-1,1882,344,0,0
665,680,0,0,0,0,0,0,0,0,0,-1,1889,344,0,0
672,680,0,0,0,0,0,0,0,0,0,-1,1896,344,0,0
679,680,0,0,0,0,0,0,0,0,0,-1,1903,344,0,0
686,680,0,0,0,0,0,0,0,0,0,-1,1910,344,0,0
693,680,0,0,0,0,0,0,0,0,0,-1,1917,344,0,0
700,680,0,0,0,0,0,0,0,0,0,-1,1924,344,0,0
707,680,0,0,0,0,0,0,0,0,0,-1,1931,344,0,0
714,680,0,0,0,0,0,0,0,0,0,-1,1938,344,0,0
721,680,0,0,0,0,0,0,0,0,0,-1,1945,344,0,0
728,680,0,0,0,0,0,0,0,0,0,-1,1952,344,0,0
735,680,0,0,0,0,0,0,0,0,0,-1,1959,344,0,0
742,680,0,0,0,0,0,0,0,0,0,-1,1966,344,0,0
749,680,0,0,0,0,0,0,0,0,0,-1,1973,344,0,0
756,680,0,0,0,0,0,0,0,0,0,-1,1980,344,0,0
763,680,0,0,0,0,0,0,0,0,0,-1,1987,344,0,0
770,680,0,0,0,0,0,0,0,0,0,-1,1994,344,0,0
777,680,0,0,0,0,0,0,0,0,0,-1,2001,344,0,0
784,680,0,0,0,0,0,0,0,0,0,-1,2008,344,0,0
791,680,0,0,0,0,0,0,0,0,0,-1,2015,344,0,0
798,680,0,0,0,0,0,0,0,0,0,-1,2022,344,0,0
805,680,0,0,0,0,0,0,0,0,0,-1,2029,344,0,0
812,680,0,0,0,0,0,0,0,0,0,-1,2036,344,0,0
-700,673,0,0,0,0,0,0,0,0,0,-1,524,351,0,0
-693,673,0,0,0,0,0,0,0,0,0,-1,531,351,0,0
-686,673,0,0,0,0,0,0,0,0,0,-1,538,351,0,0
-679,673,0,0,0,0,0,0,0,0,0,-1,545,351,0,0
-672,673,0,0,0,0,0,0,0,0,0,-1,552,351,0,0
-665,673,0,0,0,0,0,0,0,0,0,-1,559,351,0,0
-658,673,0,0,0,0,0,0,0,0,0,-1,566,351,0,0
-651,673,0,0,0,0,0,0,0,0,0,-1,573,351,0,0
-644,673,0,0,0,0,0,0,0,0,0,-1,580,351,0,0
-637,673,0,0,0,0,0,0,0,0,0,-1,587,351,0,0
-630,673,0,0,0,0,0,0,0,0,0,-1,594,351,0,0
-623,673,0,0,0,0,0,0,0,0,0,-1,601,351,0,0
-616,673,0,0,0,0,0,0,0,0,0,-1,608,351,0,0
-609,673,0,0,0,0,0,0,0,0,0,-1,615,351,0,0
-602,673,0,0,0,0,0,0,0,0,0,-1,622,351,0,0
-595,673,0,0,0,0,0,0,0,0,0,-1,629,351,0,0
-588,673,0,0,0,0,0,0,0,0,0,-1,636,351,0,0
-581,673,0,0,0,0,0,0,0,0,0,-1,643,351,0,0
-574,673,0,0,0,0,0,0,0,0,0,-1,650,351,0,0
-567,673,0,0,0,0,0,0,0,0,0,-1,657,351,0,0
-560,673,0,0,0,0,0,0,0,0,0,-1,664,351,0,0
-553,673,0,0,0,0,0,0,0,0,0,-1,671,351,0,0
-546,673,0,0,0,0,0,0,0,0,0,-1,678,351,0,0
-539,673,0,0,0,0,0,0,0,0,0,-1,685,351,0,0
-532,673,0,0,0,0,0,0,0,0,0,-1,692,351,0,0
-525,673,0,0,0,0,0,0,0,0,0,-1,699,351,0,0
-518,673,0,0,0,0,0,0,0,0,0,-1,706,351,0,0
-511,673,0,0,0,0,0,0,0,0,0,-1,713,351,0,0
-504,673,0,0,0,0,0,0,0,0,0,-1,720,351,0,0
-497,673,0,0,0,0,0,0,0,0,0,-1,727,351,0,0
-490,673,0,0,0,0,0,0,0,0,0,-1,734,351,0,0
-483,673,0,0,0,0,0,0,0,0,0,-1,741,351,0,0
-476,673,0,0,0,0,0,0,0,0,0,-1,748,351,0,0
-469,673,0,0,0,0,0,0,0,0,0,-1,755,351,0,0
-462,673,0,0,0,0,0,0,0,0,0,-1,762,351,0,0
-455,673,0,0,0,0,0,0,0,0,0,-1,769,351,0,0
-448,673,0,0,0,0,0,0,0,0,0,-1,776,351,0,0
-441,673,0,0,0,0,0,0,0,0,0,-1,783,351,0,0
-434,673,0,0,0,0,0,0,0,0,0,-1,790,351,0,0
-427,673,0,0,0,0,0,0,0,0,0,-1,797,351,0,0
-420,673,0,0,0,0,0,0,0,0,0,-1,804,351,0,0
-413,673,0,0,0,0,0,0,0,0,0,-1,811,351,0,0
-406,673,0,0,0,0,0,0,0,0,0,-1,818,351,0,0
-399,673,0,0,0,0,0,0,0,0,0,-1,825,351,0,0
-392,673,0,0,0,0,0,0,0,0,0,-1,832,351,0,0
-385,673,0,0,0,0,0,0,0,0,0,-1,839,351,0,0
-378,673,0,0,0,0,0,0,0,0,0,-1,846,351,0,0
-371,673,0,0,0,0,0,0,0,0,0,-1,853,351,0,0
-364,673,0,0,0,0,0,0,0,0,0,-1,860,351,0,0
-357,673,0,0,0,0,0,0,0,0,0,-1,867,351,0,0
-350,673,0,0,0,0,0,0,0,0,0,-1,874,351,0,0
-343,673,0,0,0,0,0,0,0,0,0,-1,881,351,0,0
-336,673,0,0,0,0,0,0,0,0,0,-1,888,351,0,0
-329,673,0,0,0,0,0,0,0,0,0,-1,895,351,0,0
-322,673,0,0,0,0,0,0,0,0,0,-1,902,351,0,0
-315,673,0,0,0,0,0,0,0,0,0,-1,909,351,0,0
-308,673,0,0,0,0,0,0,0,0,0,-1,916,351,0,0
-301,673,0,0,0,0,0,0,0,0,0,-1,923,351,0,0
-294,673,0,0,0,0,0,0,0,0,0,-1,930,351,0,0
-287,673,0,0,0,0,0,0,0,0,0,-1,937,351,0,0
-280,673,0,0,0,0,0,0,0,0,0,-1,944,351,0,0
-273,673,0,0,0,0,0,0,0,0,0,-1,951,351,0,0
-266,673,0,0,0,0,0,0,0,0,0,-1,958,351,0,0
-259,673,0,0,0,0,0,0,0,0,0,-1,965,351,0,0
-252,673,0,0,0,0,0,0,0,0,0,-1,972,351,0,0
-245,673,0,0,0,0,0,0,0,0,0,-1,979,351,0,0
-238,673,0,0,0,0,0,0,0,0,0,-1,986,351,0,0
-231,673,0,0,0,0,0,0,0,0,0,-1,993,351,0,0
-224,673,0,0,0,0,0,0,0,0,0,-1,1000,351,0,0
-217,673,0,0,0,0,0,0,0,0,0,-1,1007,351,0,0
-210,673,0,0,0,0,0,0,0,0,0,-1,1014,351,0,0
-203,673,0,0,0,0,0,0,0,0,0,-1,1021,351,0,0
-196,673,0,0,0,0,0,0,0,0,0,-1,1028,351,0,0
-189,673,0,0,0,0,0,0,0,0,0,-1,1035,351,0,0
-182,673,0,0,0,0,0,0,0,0,0,-1,1042,351,0,0
-175,673,1.60974,-23.5722,0,0,0,0,0,0,0,-1,1049,351,1.60975,23.5722
-168,673,6.62671,-27.0157,0,0,0,0,0,0,0,-1,1056,351,6.62669,27.0158
-161,673,7.53357,-28.8507,0,0,0,0,0,0,0,-1,1063,351,7.53361,28.8507
-154,673,0.995239,-28.5706,0,0,0,0,0,0,0,-1,1070,351,0.995266,28.5706
-147,673,1.82092,-28.2404,0,0,0,0,0,0,0,-1,1077,351,1.82093,28.2404
-140,673,2.53345,-27.7802,0,0,0,0,0,0,0,-1,1084,351,2.53351,27.7802
-133,673,3.24023,-27.4324,0,0,0,0,0,0,0,-1,1091,351,3.24028,27.4324
-126,673,7.26111,-27.7425,0,0,0,0,0,0,0,-1,1098,351,7.26111,27.7425
-119,673,6.60156,-26.766,0,0,0,0,0,0,0,-1,1105,351,6.6016,26.766
-112,673,5.66418,-25.6477,-0.0611935,0.0268256,0.0731086,0.068149,-0.102517,1.05633,0.0991976,0.0433583,1112,351,5.66416,25.6477
-105,673,4.95178,-24.3763,-0.0623231,0.0307765,0.0774657,0.0746027,-0.106149,1.05594,0.104886,0.0431473,1119,351,4.95178,24.3763
-98,673,4.19348,-22.9196,0,0,0,0,0,0,0,-1,1126,351,4.19349,22.9196
-91,673,8.84436,-25.6321,0,0,0,0,0,0,0,-1,1133,351,8.8443,25.6321
-84,673,3.66992,-23.3761,0,0,0,0,0,0,0,-1,1140,351,3.66988,23.3761
-77,673,-1.69958,-17.2119,0,0,0,0,0,0,0,-1,1147,351,-1.69959,17.212
-70,673,-7.15796,-10.6591,0,0,0,0,0,0,0,-1,1154,351,-7.15792,10.6591
-63,673,-12.606,-3.97971,0,0,0,0,0,0,0,-1,1161,351,-12.606,3.97969
-56,673,-18.0282,2.79053,0,0,0,0,0,0,0,-1,1168,351,-18.0283,-2.79052
-49,673,-0.926758,-0.115448,0,0,0,0,0,0,0,-1,1175,351,-0.926732,0.115444
-42,673,-1.15015,0.289917,0,0,0,0,0,0,0,-1,1182,351,-1.15017,-0.289932
-35,673,-0.919556,-1.00711,0,0,0,0,0,0,0,-1,1189,351,-0.919514,1.00711
-28,673,3.19104,-25.0986,0,0,0,0,0,0,0,-1,1196,351,3.19099,25.0986
-21,673,4.55933,-28.2037,0,0,0,0,0,0,0,-1,1203,351,4.55934,28.2037
-14,673,4.43042,-28.2342,-0.00747343,0.0178597,0.00284766,0.0181758,-0.00778958,1.46023,0.0153857,0.0431094,1210,351,4.43047,28.2342
-7,673,4.30237,-28.6118,-0.00704812,0.0184466,0.00386685,0.0190202,-0.00762172,1.42353,0.015844,0.0404022,1217,351,4.30233,28.6118
0,673,4.25928,-28.7466,-0.00665579,0.0189906,0.00462114,0.0197978,-0.00746305,1.39785,0.0162672,0.0455327,1224,351,4.25923,28.7466
7,673,4.35303,-28.605,-0.00621323,0.0196894,0.00514909,0.0206754,-0.00719927,1.38159,0.0167086,0.0466142,1231,351,4.35308,28.605
14,673,4.34949,-28.5892,-0.00581996,0.0206758,0.00547005,0.0217606,-0.00690483,1.37501,0.017275,0.037939,1238,351,4.34955,28.5892
21,673,4.21948,-28.735,-0.0055297,0.0221522,0.00562821,0.0232527,-0.00663026,1.37769,0.0181209,0.0258552,1245,351,4.21949,28.735
28,673,4.16687,-28.8336,-0.00505644,0.0239658,0.00570158,0.0250457,-0.00613636,1.38361,0.0190745,0.0189125,1252,351,4.16683,28.8336
35,673,4.12903,-28.8303,-0.00429723,0.0266271,0.00590486,0.0277163,-0.00538638,1.3884,0.0205101,0.0275014,1259,351,4.12908,28.8303
42,673,3.99976,-28.8454,-0.00349992,0.0282601,0.00634919,0.0294824,-0.00472216,1.38062,0.0214033,0.0301819,1266,351,3.99981,28.8454
49,673,3.96265,-28.8719,-0.00288242,0.030094,0.00701653,0.0315248,-0.00431327,1.36963,0.022592,0.0187169,1273,351,3.96263,28.8719
56,673,3.97351,-28.8538,-0.00278068,0.0320294,0.00695752,0.0333685,-0.00411977,1.38065,0.0237384,0.0156846,1280,351,3.97349,28.8538
63,673,4.04456,-28.7476,-0.00255848,0.0340797,0.00683154,0.035312,-0.00379084,1.39232,0.0249013,0.0192573,1287,351,4.04451,28.7476
70,673,3.98535,-28.6942,-0.0020554,0.0351017,0.00789579,0.03671,-0.00366363,1.36986,0.0257814,0.0298913,1294,351,3.98534,28.6942
77,673,3.99341,-28.5774,-0.0026437,0.0364587,0.00871121,0.0383116,-0.00449658,1.36122,0.0271643,0.0375302,1301,351,3.99345,28.5774
84,673,3.97461,-28.6743,-0.00381423,0.0383309,0.00837556,0.0399344,-0.00541771,1.38164,0.0286004,0.0442261,1308,351,3.97463,28.6743
91,673,4.01904,-28.9395,-0.00318415,0.0380229,0.00583919,0.0388344,-0.0039956,1.43271,0.027319,0.0497077,1315,351,4.01905,28.9395
98,673,3.99219,-28.8893,-0.00181438,0.0372186,0.00341183,0.0375145,-0.00211036,1.48426,0.025742,0.0469194,1322,351,3.99222,28.8893
105,673,3.80627,-28.7823,-0.00146038,0.0364801,0.00140937,0.0365323,-0.00151266,1.53372,0.0248744,0.0438877,1329,351,3.80633,28.7822
112,673,3.69543,-28.7242,0,0,0,0,0,0,0,-1,1336,351,3.69547,28.7242
119,673,3.72778,-27.8114,0,0,0,0,0,0,0,-1,1343,351,3.72778,27.8114
126,673,3.34338,-27.9174,0.000974953,0.0334119,-0.00715722,0.0349209,-0.000534086,-1.363,0.0234607,0.0424531,1350,351,3.34334,27.9174
133,673,3.15942,-27.7015,0.00247374,0.0318777,-0.0097914,0.0348398,-0.000488369,-1.27703,0.023391,0.0409584,1357,351,3.15938,27.7015
140,673,3.00244,-27.7682,0.00413434,0.0297282,-0.0118577,0.0343774,-0.000514816,-1.19714,0.0230918,0.041762,1364,351,3.0024,27.7682
147,673,3.16687,-27.953,0.00616364,0.0283613,-0.0128319,0.0342284,0.000296595,-1.14195,0.0227207,0.042293,1371,351,3.16689,27.953
154,673,3.12231,-27.7555,0.00804014,0.0262257,-0.0131824,0.0331471,0.0011187,-1.08731,0.0217348,0.0395873,1378,351,3.12226,27.7555
161,673,3.30396,-27.4927,0,0,0,0,0,0,0,-1,1385,351,3.30399,27.4927
168,673,6.87061,1.83954,0,0,0,0,0,0,0,-1,1392,351,6.87063,-1.83953
175,673,6.6228,1.1459,0,0,0,0,0,0,0,-1,1399,351,6.62276,-1.14591
182,673,6.37244,0.796112,0,0,0,0,0,0,0,-1,1406,351,6.3724,-0.796102
189,673,6.12097,0.265472,0,0,0,0,0,0,0,-1,1413,351,6.121,-0.265482
196,673,6.02173,3.12717,0,0,0,0,0,0,0,-1,1420,351,6.02176,-3.12717
203,673,5.04456,1.6351,0,0,0,0,0,0,0,-1,1427,351,5.04455,-1.63509
210,673,4.79224,0.447479,0,0,0,0,0,0,0,-1,1434,351,4.79229,-0.447469
217,673,2.01648,0.972687,0,0,0,0,0,0,0,-1,1441,351,2.01644,-0.972691
224,673,2.3689,-1.80539,0,0,0,0,0,0,0,-1,1448,351,2.36896,1.80539
231,673,2.65857,-2.18497,0,0,0,0,0,0,0,-1,1455,351,2.65852,2.18496
238,673,3.77844,-2.06088,0,0,0,0,0,0,0,-1,1462,351,3.77839,2.06088
245,673,3.5376,-0.190399,0,0,0,0,0,0,0,-1,1469,351,3.53759,0.1904
252,673,3.80518,0.55603,0,0,0,0,0,0,0,-1,1476,351,3.80519,-0.556022
259,673,3.88562,1.29617,0,0,0,0,0,0,0,-1,1483,351,3.88562,-1.29618
266,673,4.22424,2.04834,0,0,0,0,0,0,0,-1,1490,351,4.22429,-2.04834
273,673,6.07886,0.385895,0,0,0,0,0,0,0,-1,1497,351,6.0789,-0.385906
280,673,6.97534,-0.0820007,0,0,0,0,0,0,0,-1,1504,351,6.97536,0.0820122
287,673,7.66968,-0.348541,0,0,0,0,0,0,0,-1,1511,351,7.66969,0.348534
294,673,8.20996,0.28537,0,0,0,0,0,0,0,-1,1518,351,8.20993,-0.28536
301,673,0,0,0,0,0,0,0,0,0,-1,1525,351,0,0
308,673,0,0,0,0,0,0,0,0,0,-1,1532,351,0,0
315,673,0,0,0,0,0,0,0,0,0,-1,1539,351,0,0
322,673,0,0,0,0,0,0,0,0,0,-1,1546,351,0,0
329,673,0,0,0,0,0,0,0,0,0,-1,1553,351,0,0
336,673,0,0,0,0,0,0,0,0,0,-1,1560,351,0,0
343,673,0,0,0,0,0,0,0,0,0,-1,1567,351,0,0
350,673,0,0,0,0,0,0,0,0,0,-1,1574,351,0,0
357,673,0,0,0,0,0,0,0,0,0,-1,1581,351,0,0
364,673,0,0,0,0,0,0,0,0,0,-1,1588,351,0,0
371,673,0,0,0,0,0,0,0,0,0,-1,1595,351,0,0
378,673,0,0,0,0,0,0,0,0,0,-1,1602,351,0,0
385,673,0,0,0,0,0,0,0,0,0,-1,1609,351,0,0
392,673,0,0,0,0,0,0,0,0,0,-1,1616,351,0,0
399,673,0,0,0,0,0,0,0,0,0,-1,1623,351,0,0
406,673,0,0,0,0,0,0,0,0,0,-1,1630,351,0,0
413,673,0,0,0,0,0,0,0,0,0,-1,1637,351,0,0
420,673,0,0,0,0,0,0,0,0,0,-1,1644,351,0,0
427,673,0,0,0,0,0,0,0,0,0,-1,1651,351,0,0
434,673,0,0,0,0,0,0,0,0,0,-1,1658,351,0,0
441,673,0,0,0,0,0,0,0,0,0,-1,1665,351,0,0
448,673,0,0,0,0,0,0,0,0,0,-1,1672,351,0,0
455,673,0,0,0,0,0,0,0,0,0,-1,1679,351,0,0
462,673,0,0,0,0,0,0,0,0,0,-1,1686,351,0,0
469,673,0,0,0,0,0,0,0,0,0,-1,1693,351,0,0
476,673,0,0,0,0,0,0,0,0,0,-1,1700,351,0,0
483,673,0,0,0,0,0,0,0,0,0,-1,1707,351,0,0
490,673,0,0,0,0,0,0,0,0,0,-1,1714,351,0,0
497,673,0,0,0,0,0,0,0,0,0,-1,1721,351,0,0
504,673,0,0,0,0,0,0,0,0,0,-1,1728,351,0,0
511,673,0,0,0,0,0,0,0,0,0,-1,1735,351,0,0
518,673,0,0,0,0,0,0,0,0,0,-1,1742,351,0,0
525,673,0,0,0,0,0,0,0,0,0,-1,1749,351,0,0
532,673,0,0,0,0,0,0,0,0,0,-1,1756,351,0,0
539,673,0,0,0,0,0,0,0,0,0,-1,1763,351,0,0
546,673,0,0,0,0,0,0,0,0,0,-1,1770,351,0,0
553,673,0,0,0,0,0,0,0,0,0,-1,1777,351,0,0
560,673,0,0,0,0,0,0,0,0,0,-1,1784,351,0,0
567,673,0,0,0,0,0,0,0,0,0,-1,1791,351,0,0
574,673,0,0,0,0,0,0,0,0,0,-1,1798,351,0,0
581,673,0,0,0,0,0,0,0,0,0,-1,1805,351,0,0
588,673,0,0,0,0,0,0,0,0,0,-1,1812,351,0,0
595,673,0,0,0,0,0,0,0,0,0,-1,1819,351,0,0
602,673,0,0,0,0,0,0,0,0,0,-1,1826,351,0,0
609,673,0,0,0,0,0,0,0,0,0,-1,1833,351,0,0
616,673,0,0,0,0,0,0,0,0,0,-1,1840,351,0,0
623,673,0,0,0,0,0,0,0,0,0,-1,1847,351,0,0
630,673,0,0,0,0,0,0,0,0,0,-1,1854,351,0,0
637,673,0,0,0,0,0,0,0,0,0,-1,1861,351,0,0
644,673,0,0,0,0,0,0,0,0,0,-1,1868,351,0,0
651,673,0,0,0,0,0,0,0,0,0,-1,1875,351,0,0
658,673,0,0,0,0,0,0,0,0,0,-1,1882,351,0,0
665,673,0,0,0,0,0,0,0,0,0,-1,1889,351,0,0
672,673,0,0,0,0,0,0,0,0,0,-1,1896,351,0,0
679,673,0,0,0,0,0,0,0,0,0,-1,1903,351,0,0
686,673,0,0,0,0,0,0,0,0,0,-1,1910,351,0,0
693,673,0,0,0,0,0,0,0,0,0,-1,1917,351,0,0
700,673,0,0,0,0,0,0,0,0,0,-1,1924,351,0,0
707,673,0,0,0,0,0,0,0,0,0,-1,1931,351,0,0
714,673,0,0,0,0,0,0,0,0,0,-1,1938,351,0,0
721,673,0,0,0,0,0,0,0,0,0,-1,1945,351,0,0
728,673,0,0,0,0,0,0,0,0,0,-1,1952,351,0,0
735,673,0,0,0,0,0,0,0,0,0,-1,1959,351,0,0
742,673,0,0,0,0,0,0,0,0,0,-1,1966,351,0,0
749,673,0,0,0,0,0,0,0,0,0,-1,1973,351,0,0
756,673,0,0,0,0,0,0,0,0,0,-1,1980,351,0,0
763,673,0,0,0,0,0,0,0,0,0,-1,1987,351,0,0
770,673,0,0,0,0,0,0,0,0,0,-1,1994,351,0,0
777,673,0,0,0,0,0,0,0,0,0,-1,2001,351,0,0
784,673,0,0,0,0,0,0,0,0,0,-1,2008,351,0,0
791,673,0,0,0,0,0,0,0,0,0,-1,2015,351,0,0
798,673,0,0,0,0,0,0,0,0,0,-1,2022,351,0,0
805,673,0,0,0,0,0,0,0,0,0,-1,2029,351,0,0
812,673,0,0,0,0,0,0,0,0,0,-1,2036,351,0,0
-700,666,0,0,0,0,0,0,0,0,0,-1,524,358,0,0
-693,666,0,0,0,0,0,0,0,0,0,-1,531,358,0,0
-686,666,0,0,0,0,0,0,0,0,0,-1,538,358,0,0
-679,666,0,0,0,0,0,0,0,0,0,-1,545,358,0,0
-672,666,0,0,0,0,0,0,0,0,0,-1,552,358,0,0
-665,666,0,0,0,0,0,0,0,0,0,-1,559,358,0,0
-658,666,0,0,0,0,0,0,0,0,0,-1,566,358,0,0
-651,666,0,0,0,0,0,0,0,0,0,-1,573,358,0,0
-644,666,0,0,0,0,0,0,0,0,0,-1,580,358,0,0
-637,666,0,0,0,0,0,0,0,0,0,-1,587,358,0,0
-630,666,0,0,0,0,0,0,0,0,0,-1,594,358,0,0
-623,666,0,0,0,0,0,0,0,0,0,-1,601,358,0,0
-616,666,0,0,0,0,0,0,0,0,0,-1,608,358,0,0
-609,666,0,0,0,0,0,0,0,0,0,-1,615,358,0,0
-602,666,0,0,0,0,0,0,0,0,0,-1,622,358,0,0
-595,666,0,0,0,0,0,0,0,0,0,-1,629,358,0,0
-588,666,0,0,0,0,0,0,0,0,0,-1,636,358,0,0
-581,666,0,0,0,0,0,0,0,0,0,-1,643,358,0,0
-574,666,0,0,0,0,0,0,0,0,0,-1,650,358,0,0
-567,666,0,0,0,0,0,0,0,0,0,-1,657,358,0,0
-560,666,0,0,0,0,0,0,0,0,0,-1,664,358,0,0
-553,666,0,0,0,0,0,0,0,0,0,-1,671,358,0,0
-546,666,0,0,0,0,0,0,0,0,0,-1,678,358,0,0
-539,666,0,0,0,0,0,0,0,0,0,-1,685,358,0,0
-532,666,0,0,0,0,0,0,0,0,0,-1,692,358,0,0
-525,666,0,0,0,0,0,0,0,0,0,-1,699,358,0,0
-518,666,0,0,0,0,0,0,0,0,0,-1,706,358,0,0
-511,666,0,0,0,0,0,0,0,0,0,-1,713,358,0,0
-504,666,0,0,0,0,0,0,0,0,0,-1,720,358,0,0
-497,666,0,0,0,0,0,0,0,0,0,-1,727,358,0,0
-490,666,0,0,0,0,0,0,0,0,0,-1,734,358,0,0
-483,666,0,0,0,0,0,0,0,0,0,-1,741,358,0,0
-476,666,0,0,0,0,0,0,0,0,0,-1,748,358,0,0
-469,666,0,0,0,0,0,0,0,0,0,-1,755,358,0,0
-462,666,0,0,0,0,0,0,0,0,0,-1,762,358,0,0
-455,666,0,0,0,0,0,0,0,0,0,-1,769,358,0,0
-448,666,0,0,0,0,0,0,0,0,0,-1,776,358,0,0
-441,666,0,0,0,0,0,0,0,0,0,-1,783,358,0,0
-434,666,0,0,0,0,0,0,0,0,0,-1,790,358,0,0
-427,666,0,0,0,0,0,0,0,0,0,-1,797,358,0,0
-420,666,0,0,0,0,0,0,0,0,0,-1,804,358,0,0
-413,666,0,0,0,0,0,0,0,0,0,-1,811,358,0,0
-406,666,0,0,0,0,0,0,0,0,0,-1,818,358,0,0
-399,666,0,0,0,0,0,0,0,0,0,-1,825,358,0,0
-392,666,0,0,0,0,0,0,0,0,0,-1,832,358,0,0
-385,666,0,0,0,0,0,0,0,0,0,-1,839,358,0,0
-378,666,0,0,0,0,0,0,0,0,0,-1,846,358,0,0
-371,666,0,0,0,0,0,0,0,0,0,-1,853,358,0,0
-364,666,0,0,0,0,0,0,0,0,0,-1,860,358,0,0
-357,666,0,0,0,0,0,0,0,0,0,-1,867,358,0,0
-350,666,0,0,0,0,0,0,0,0,0,-1,874,358,0,0
-343,666,0,0,0,0,0,0,0,0,0,-1,881,358,0,0
-336,666,0,0,0,0,0,0,0,0,0,-1,888,358,0,0
-329,666,0,0,0,0,0,0,0,0,0,-1,895,358,0,0
-322,666,0,0,0,0,0,0,0,0,0,-1,902,358,0,0
-315,666,0,0,0,0,0,0,0,0,0,-1,909,358,0,0
-308,666,0,0,0,0,0,0,0,0,0,-1,916,358,0,0
-301,666,0,0,0,0,0,0,0,0,0,-1,923,358,0,0
-294,666,0,0,0,0,0,0,0,0,0,-1,930,358,0,0
-287,666,0,0,0,0,0,0,0,0,0,-1,937,358,0,0
-280,666,0,0,0,0,0,0,0,0,0,-1,944,358,0,0
-273,666,0,0,0,0,0,0,0,0,0,-1,951,358,0,0
-266,666,0,0,0,0,0,0,0,0,0,-1,958,358,0,0
-259,666,0,0,0,0,0,0,0,0,0,-1,965,358,0,0
-252,666,0,0,0,0,0,0,0,0,0,-1,972,358,0,0
-245,666,0,0,0,0,0,0,0,0,0,-1,979,358,0,0
-238,666,0,0,0,0,0,0,0,0,0,-1,986,358,0,0
-231,666,0,0,0,0,0,0,0,0,0,-1,993,358,0,0
-224,666,0,0,0,0,0,0,0,0,0,-1,1000,358,0,0
-217,666,0,0,0,0,0,0,0,0,0,-1,1007,358,0,0
-210,666,0,0,0,0,0,0,0,0,0,-1,1014,358,0,0
-203,666,0,0,0,0,0,0,0,0,0,-1,1021,358,0,0
-196,666,6.83093,-24.8537,0,0,0,0,0,0,0,-1,1028,358,6.8309,24.8537
-189,666,7.09094,-25.2655,0,0,0,0,0,0,0,-1,1035,358,7.09098,25.2655
-182,666,7.23523,-25.5973,0,0,0,0,0,0,0,-1,1042,358,7.2352,25.5973
-175,666,7.39246,-25.2423,0,0,0,0,0,0,0,-1,1049,358,7.3924,25.2423
-168,666,6.18872,-26.2563,0,0,0,0,0,0,0,-1,1056,358,6.18873,26.2563
-161,666,4.93958,-26.986,0,0,0,0,0,0,0,-1,1063,358,4.93955,26.9859
-154,666,4.24207,-27.9071,0,0,0,0,0,0,0,-1,1070,358,4.24208,27.9071
-147,666,1.67139,-28.1661,0,0,0,0,0,0,0,-1,1077,358,1.67143,28.1661
-140,666,3.71887,-26.9036,0,0,0,0,0,0,0,-1,1084,358,3.71893,26.9036
-133,666,3.9585,-26.6792,-0.0400507,0.0117811,0.0384925,0.032269,-0.0605385,1.08168,0.0544047,0.041227,1091,358,3.95846,26.6792
-126,666,4.18518,-26.7988,0,0,0,0,0,0,0,-1,1098,358,4.18522,26.7988
-119,666,5.88611,-27.0015,0,0,0,0,0,0,0,-1,1105,358,5.88617,27.0015
-112,666,5.13477,-25.9094,-0.045497,0.0225872,0.0502779,0.0492636,-0.0721734,1.08299,0.0705264,0.0435342,1112,358,5.13479,25.9094
-105,666,4.36072,-24.7456,-0.0457769,0.0250204,0.052723,0.0531259,-0.0738824,1.08104,0.073654,0.0436176,1119,358,4.36076,24.7456
-98,666,3.5968,-23.5447,0,0,0,0,0,0,0,-1,1126,358,3.59686,23.5447
-91,666,9.36877,-22.9226,0,0,0,0,0,0,0,-1,1133,358,9.36872,22.9226
-84,666,4.49243,-18.558,0,0,0,0,0,0,0,-1,1140,358,4.49245,18.558
-77,666,-0.874268,-14.3246,0,0,0,0,0,0,0,-1,1147,358,-0.87424,14.3246
-70,666,-6.32251,-7.67145,0,0,0,0,0,0,0,-1,1154,358,-6.3225,7.67145
-63,666,-11.7778,-0.975189,0,0,0,0,0,0,0,-1,1161,358,-11.7778,0.97519
-56,666,0.424683,-2.04132,0,0,0,0,0,0,0,-1,1168,358,0.424665,2.04132
-49,666,0.754395,-2.23169,0,0,0,0,0,0,0,-1,1175,358,0.754383,2.23169
-42,666,1.34473,-3.53897,0,0,0,0,0,0,0,-1,1182,358,1.34476,3.53896
-35,666,4.20581,-28.507,0,0,0,0,0,0,0,-1,1189,358,4.20578,28.507
-28,666,4.40613,-28.444,0,0,0,0,0,0,0,-1,1196,358,4.40608,28.444
-21,666,4.41809,-28.3997,-0.00676893,0.0138089,0.000618098,0.0138274,-0.00678748,1.5408,0.0121311,0.0310301,1203,358,4.41814,28.3997
-14,666,4.34583,-28.5095,-0.00637755,0.0143718,0.00139919,0.0144657,-0.00647148,1.50377,0.0123783,0.0249319,1210,358,4.34586,28.5095
-7,666,4.26489,-28.6493,-0.00606233,0.0149427,0.00210627,0.0151519,-0.00627145,1.47183,0.012718,0.0172659,1217,358,4.26492,28.6493
0,666,4.24963,-28.7729,-0.00573288,0.0154112,0.00264868,0.015738,-0.00605963,1.44805,0.0129918,0.0123926,1224,358,4.24966,28.7729
7,666,4.20728,-28.794,-0.00534789,0.0159904,0.00305809,0.01642,-0.00577751,1.43122,0.0132977,0.0165644,1231,358,4.20726,28.794
14,666,4.18018,-28.7892,-0.00500109,0.0167527,0.00334839,0.0172564,-0.00550482,1.42148,0.0137126,0.0159525,1238,358,4.18021,28.7892
21,666,4.13696,-28.8988,-0.00475051,0.0178715,0.00355119,0.0184159,-0.00529488,1.41869,0.0143711,0.0119978,1245,358,4.13694,28.8988
28,666,4.09875,-28.9743,-0.00435985,0.0191906,0.00369332,0.0197562,-0.00492547,1.41883,0.0150831,0.0124837,1252,358,4.09877,28.9743
35,666,4.10425,-28.96,-0.00377039,0.0210855,0.00391868,0.0216887,-0.00437356,1.41807,0.016116,0.011399,1259,358,4.10419,28.96
42,666,4.06616,-28.9952,-0.00317733,0.0221778,0.00433863,0.0228997,-0.00389918,1.40593,0.0167184,0.0122274,1266,358,4.06611,28.9952
49,666,4.00598,-29.0124,-0.00273764,0.0234222,0.00491947,0.0243168,-0.00363218,1.39093,0.0175477,0.0109254,1273,358,4.00593,29.0124
56,666,3.97278,-29.0284,-0.00265835,0.0246914,0.00498486,0.0255717,-0.00353858,1.39602,0.0183414,0.0127706,1280,358,3.97282,29.0283
63,666,3.94031,-29.0738,-0.00249098,0.0259889,0.00499683,0.0268402,-0.00334224,1.40206,0.0191052,0.0146166,1287,358,3.94032,29.0738
70,666,3.93054,-29.0524,-0.00217805,0.0266533,0.0057793,0.0277687,-0.00329338,1.38015,0.0197022,0.0141576,1294,358,3.93058,29.0524
77,666,3.90466,-28.9504,-0.00260588,0.0276025,0.00640578,0.0289047,-0.00390811,1.37024,0.0206959,0.0176775,1301,358,3.90462,28.9504
84,666,3.91565,-28.9543,-0.00343913,0.0289439,0.00621906,0.0300972,-0.00459241,1.38744,0.0217577,0.0257744,1308,358,3.9157,28.9543
91,666,3.87195,-28.9638,-0.00315768,0.0289533,0.00457468,0.0295923,-0.0037967,1.43201,0.0211079,0.023287,1315,358,3.87201,28.9638
98,666,3.75024,-28.9033,-0.00236966,0.0286008,0.00294717,0.0288788,-0.00264762,1.47676,0.020193,0.0181315,1322,358,3.75025,28.9033
105,666,3.65601,-28.802,-0.00219649,0.028291,0.00153293,0.0283679,-0.00227337,1.52068,0.0197135,0.0195207,1329,358,3.65599,28.802
112,666,3.69946,-28.543,-0.0019894,0.0281234,-0.000325625,0.0281269,-0.00199292,-1.55998,0.0194496,0.0434045,1336,358,3.69943,28.543
119,666,3.68408,-28.333,-0.00151116,0.0275219,-0.00242067,0.0277224,-0.0017116,-1.48818,0.0190777,0.0465604,1343,358,3.6841,28.333
126,666,3.5769,-28.3193,-0.000666832,0.0266437,-0.00449613,0.0273649,-0.00138799,-1.41176,0.0187231,0.0278441,1350,358,3.57694,28.3193
133,666,3.51538,-28.2594,0.000333553,0.0256501,-0.00636242,0.0271591,-0.00117547,-1.33792,0.0185104,0.0239348,1357,358,3.51534,28.2594
140,666,3.45972,-28.244,0.00143148,0.0241456,-0.00779024,0.0265606,-0.000983557,-1.27018,0.0180439,0.0240727,1364,358,3.45976,28.2441
147,666,3.3761,-28.1408,0.00276494,0.0232051,-0.00847367,0.026261,-0.000291021,-1.22467,0.0176052,0.0228087,1371,358,3.37609,28.1408
154,666,3.35999,-27.888,0.00396832,0.0217019,-0.00872196,0.0252726,0.000397558,-1.18221,0.0167175,0.0202152,1378,358,3.35997,27.888
161,666,3.42126,-27.7401,0.00486338,0.0200021,-0.00843347,0.0237649,0.00110055,-1.15112,0.0154895,0.0268899,1385,358,3.42126,27.7401
168,666,3.4668,-27.6001,0,0,0,0,0,0,0,-1,1392,358,3.46682,27.6001
175,666,3.54651,-27.7249,0,0,0,0,0,0,0,-1,1399,358,3.54655,27.7248
182,666,2.60876,-5.17068,0,0,0,0,0,0,0,-1,1406,358,2.6088,5.17068
189,666,2.46973,-5.49979,0,0,0,0,0,0,0,-1,1413,358,2.46975,5.49979
196,666,2.32458,-5.23651,0,0,0,0,0,0,0,-1,1420,358,2.32461,5.23653
203,666,2.28064,-3.88004,0,0,0,0,0,0,0,-1,1427,358,2.28059,3.88003
210,666,3.02576,-5.83548,0,0,0,0,0,0,0,-1,1434,358,3.02581,5.83547
217,666,2.30444,-5.36011,0,0,0,0,0,0,0,-1,1441,358,2.30447,5.3601
224,666,1.82324,-6.03101,0,0,0,0,0,0,0,-1,1448,358,1.82322,6.031
231,666,2.29797,-10.1093,0,0,0,0,0,0,0,-1,1455,358,2.29801,10.1093
238,666,2.52429,-6.10568,0,0,0,0,0,0,0,-1,1462,358,2.52423,6.10567
245,666,4.53345,-1.38205,0,0,0,0,0,0,0,-1,1469,358,4.53349,1.38204
252,666,4.77405,-0.246979,0,0,0,0,0,0,0,-1,1476,358,4.77405,0.246993
259,666,4.83655,1.14087,0,0,0,0,0,0,0,-1,1483,358,4.83652,-1.14087
266,666,6.14148,0.749512,0,0,0,0,0,0,0,-1,1490,358,6.14144,-0.749519
273,666,2.61304,-1.53772,0,0,0,0,0,0,0,-1,1497,358,2.613,1.53773
280,666,8.70898,-0.836975,0,0,0,0,0,0,0,-1,1504,358,8.70894,0.836988
287,666,-7.06934,-20.3464,0,0,0,0,0,0,0,-1,1511,358,-7.06933,20.3464
294,666,-5.98657,-22.7841,0,0,0,0,0,0,0,-1,1518,358,-5.98659,22.7842
301,666,-6.94861,-23.4221,0,0,0,0,0,0,0,-1,1525,358,-6.94857,23.4221
308,666,1.08496,-1.87576,0,0,0,0,0,0,0,-1,1532,358,1.08491,1.87575
315,666,1.76294,-0.284027,0,0,0,0,0,0,0,-1,1539,358,1.76291,0.284016
322,666,0,0,0,0,0,0,0,0,0,-1,1546,358,0,0
329,666,0,0,0,0,0,0,0,0,0,-1,1553,358,0,0
336,666,0,0,0,0,0,0,0,0,0,-1,1560,358,0,0
343,666,0,0,0,0,0,0,0,0,0,-1,1567,358,0,0
350,666,0,0,0,0,0,0,0,0,0,-1,1574,358,0,0
357,666,0,0,0,0,0,0,0,0,0,-1,1581,358,0,0
364,666,0,0,0,0,0,0,0,0,0,-1,1588,358,0,0
371,666,0,0,0,0,0,0,0,0,0,-1,1595,358,0,0
378,666,0,0,0,0,0,0,0,0,0,-1,1602,358,0,0
385,666,0,0,0,0,0,0,0,0,0,-1,1609,358,0,0
392,666,0,0,0,0,0,0,0,0,0,-1,1616,358,0,0
399,666,0,0,0,0,0,0,0,0,0,-1,1623,358,0,0
406,666,0,0,0,0,0,0,0,0,0,-1,1630,358,0,0
413,666,0,0,0,0,0,0,0,0,0,-1,1637,358,0,0
420,666,0,0,0,0,0,0,0,0,0,-1,1644,358,0,0
427,666,0,0,0,0,0,0,0,0,0,-1,1651,358,0,0
434,666,0,0,0,0,0,0,0,0,0,-1,1658,358,0,0
441,666,0,0,0,0,0,0,0,0,0,-1,1665,358,0,0
448,666,0,0,0,0,0,0,0,0,0,-1,1672,358,0,0
455,666,0,0,0,0,0,0,0,0,0,-1,1679,358,0,0
462,666,0,0,0,0,0,0,0,0,0,-1,1686,358,0,0
469,666,0,0,0,0,0,0,0,0,0,-1,1693,358,0,0
476,666,0,0,0,0,0,0,0,0,0,-1,1700,358,0,0
483,666,0,0,0,0,0,0,0,0,0,-1,1707,358,0,0
490,666,0,0,0,0,0,0,0,0,0,-1,1714,358,0,0
497,666,0,0,0,0,0,0,0,0,0,-1,1721,358,0,0
504,666,0,0,0,0,0,0,0,0,0,-1,1728,358,0,0
511,666,0,0,0,0,0,0,0,0,0,-1,1735,358,0,0
518,666,0,0,0,0,0,0,0,0,0,-1,1742,358,0,0
525,666,0,0,0,0,0,0,0,0,0,-1,1749,358,0,0
532,666,0,0,0,0,0,0,0,0,0,-1,1756,358,0,0
539,666,0,0,0,0,0,0,0,0,0,-1,1763,358,0,0
546,666,0,0,0,0,0,0,0,0,0,-1,1770,358,0,0
553,666,0,0,0,0,0,0,0,0,0,-1,1777,358,0,0
560,666,0,0,0,0,0,0,0,0,0,-1,1784,358,0,0
567,666,0,0,0,0,0,0,0,0,0,-1,1791,358,0,0
574,666,0,0,0,0,0,0,0,0,0,-1,1798,358,0,0
581,666,0,0,0,0,0,0,0,0,0,-1,1805,358,0,0
588,666,0,0,0,0,0,0,0,0,0,-1,1812,358,0,0
595,666,0,0,0,0,0,0,0,0,0,-1,1819,358,0,0
602,666,0,0,0,0,0,0,0,0,0,-1,1826,358,0,0
609,666,0,0,0,0,0,0,0,0,0,-1,1833,358,0,0
616,666,0,0,0,0,0,0,0,0,0,-1,1840,358,0,0
623,666,0,0,0,0,0,0,0,0,0,-1,1847,358,0,0
630,666,0,0,0,0,0,0,0,0,0,-1,1854,358,0,0
637,666,0,0,0,0,0,0,0,0,0,-1,1861,358,0,0
644,666,0,0,0,0,0,0,0,0,0,-1,1868,358,0,0
651,666,0,0,0,0,0,0,0,0,0,-1,1875,358,0,0
658,666,0,0,0,0,0,0,0,0,0,-1,1882,358,0,0
665,666,0,0,0,0,0,0,0,0,0,-1,1889,358,0,0
672,666,0,0,0,0,0,0,0,0,0,-1,1896,358,0,0
679,666,0,0,0,0,0,0,0,0,0,-1,1903,358,0,0
686,666,0,0,0,0,0,0,0,0,0,-1,1910,358,0,0
693,666,0,0,0,0,0,0,0,0,0,-1,1917,358,0,0
700,666,0,0,0,0,0,0,0,0,0,-1,1924,358,0,0
707,666,0,0,0,0,0,0,0,0,0,-1,1931,358,0,0
714,666,0,0,0,0,0,0,0,0,0,-1,1938,358,0,0
721,666,0,0,0,0,0,0,0,0,0,-1,1945,358,0,0
728,666,0,0,0,0,0,0,0,0,0,-1,1952,358,0,0
735,666,0,0,0,0,0,0,0,0,0,-1,1959,358,0,0
742,666,0,0,0,0,0,0,0,0,0,-1,1966,358,0,0
749,666,0,0,0,0,0,0,0,0,0,-1,1973,358,0,0
756,666,0,0,0,0,0,0,0,0,0,-1,1980,358,0,0
763,666,0,0,0,0,0,0,0,0,0,-1,1987,358,0,0
770,666,0,0,0,0,0,0,0,0,0,-1,1994,358,0,0
777,666,0,0,0,0,0,0,0,0,0,-1,2001,358,0,0
784,666,0,0,0,0,0,0,0,0,0,-1,2008,358,0,0
791,666,0,0,0,0,0,0,0,0,0,-1,2015,358,0,0
798,666,0,0,0,0,0,0,0,0,0,-1,2022,358,0,0
805,666,0,0,0,0,0,0,0,0,0,-1,2029,358,0,0
812,666,0,0,0,0,0,0,0,0,0,-1,2036,358,0,0
-700,659,0,0,0,0,0,0,0,0,0,-1,524,365,0,0
-693,659,0,0,0,0,0,0,0,0,0,-1,531,365,0,0
-686,659,0,0,0,0,0,0,0,0,0,-1,538,365,0,0
-679,659,0,0,0,0,0,0,0,0,0,-1,545,365,0,0
-672,659,0,0,0,0,0,0,0,0,0,-1,552,365,0,0
-665,659,0,0,0,0,0,0,0,0,0,-1,559,365,0,0
-658,659,0,0,0,0,0,0,0,0,0,-1,566,365,0,0
-651,659,0,0,0,0,0,0,0,0,0,-1,573,365,0,0
-644,659,0,0,0,0,0,0,0,0,0,-1,580,365,0,0
-637,659,0,0,0,0,0,0,0,0,0,-1,587,365,0,0
-630,659,0,0,0,0,0,0,0,0,0,-1,594,365,0,0
-623,659,0,0,0,0,0,0,0,0,0,-1,601,365,0,0
-616,659,0,0,0,0,0,0,0,0,0,-1,608,365,0,0
-609,659,0,0,0,0,0,0,0,0,0,-1,615,365,0,0
-602,659,0,0,0,0,0,0,0,0,0,-1,622,365,0,0
-595,659,0,0,0,0,0,0,0,0,0,-1,629,365,0,0
-588,659,0,0,0,0,0,0,0,0,0,-1,636,365,0,0
-581,659,0,0,0,0,0,0,0,0,0,-1,643,365,0,0
-574,659,0,0,0,0,0,0,0,0,0,-1,650,365,0,0
-567,659,0,0,0,0,0,0,0,0,0,-1,657,365,0,0
-560,659,0,0,0,0,0,0,0,0,0,-1,664,365,0,0
-553,659,0,0,0,0,0,0,0,0,0,-1,671,365,0,0
-546,659,0,0,0,0,0,0,0,0,0,-1,678,365,0,0
-539,659,0,0,0,0,0,0,0,0,0,-1,685,365,0,0
-532,659,0,0,0,0,0,0,0,0,0,-1,692,365,0,0
-525,659,0,0,0,0,0,0,0,0,0,-1,699,365,0,0
-518,659,0,0,0,0,0,0,0,0,0,-1,706,365,0,0
-511,659,0,0,0,0,0,0,0,0,0,-1,713,365,0,0
-504,659,0,0,0,0,0,0,0,0,0,-1,720,365,0,0
-497,659,0,0,0,0,0,0,0,0,0,-1,727,365,0,0
-490,659,0,0,0,0,0,0,0,0,0,-1,734,365,0,0
-483,659,0,0,0,0,0,0,0,0,0,-1,741,365,0,0
-476,659,0,0,0,0,0,0,0,0,0,-1,748,365,0,0
-469,659,0,0,0,0,0,0,0,0,0,-1,755,365,0,0
-462,659,0,0,0,0,0,0,0,0,0,-1,762,365,0,0
-455,659,0,0,0,0,0,0,0,0,0,-1,769,365,0,0
-448,659,0,0,0,0,0,0,0,0,0,-1,776,365,0,0
-441,659,0,0,0,0,0,0,0,0,0,-1,783,365,0,0
-434,659,0,0,0,0,0,0,0,0,0,-1,790,365,0,0
-427,659,0,0,0,0,0,0,0,0,0,-1,797,365,0,0
-420,659,0,0,0,0,0,0,0,0,0,-1,804,365,0,0
-413,659,0,0,0,0,0,0,0,0,0,-1,811,365,0,0
-406,659,0,0,0,0,0,0,0,0,0,-1,818,365,0,0
-399,659,0,0,0,0,0,0,0,0,0,-1,825,365,0,0
-392,659,0,0,0,0,0,0,0,0,0,-1,832,365,0,0
-385,659,0,0,0,0,0,0,0,0,0,-1,839,365,0,0
-378,659,0,0,0,0,0,0,0,0,0,-1,846,365,0,0
-371,659,0,0,0,0,0,0,0,0,0,-1,853,365,0,0
-364,659,0,0,0,0,0,0,0,0,0,-1,860,365,0,0
-357,659,0,0,0,0,0,0,0,0,0,-1,867,365,0,0
-350,659,0,0,0,0,0,0,0,0,0,-1,874,365,0,0
-343,659,0,0,0,0,0,0,0,0,0,-1,881,365,0,0
-336,659,0,0,0,0,0,0,0,0,0,-1,888,365,0,0
-329,659,0,0,0,0,0,0,0,0,0,-1,895,365,0,0
-322,659,0,0,0,0,0,0,0,0,0,-1,902,365,0,0
-315,659,0,0,0,0,0,0,0,0,0,-1,909,365,0,0
-308,659,0,0,0,0,0,0,0,0,0,-1,916,365,0,0
-301,659,0,0,0,0,0,0,0,0,0,-1,923,365,0,0
-294,659,0,0,0,0,0,0,0,0,0,-1,930,365,0,0
-287,659,0,0,0,0,0,0,0,0,0,-1,937,365,0,0
-280,659,0,0,0,0,0,0,0,0,0,-1,944,365,0,0
-273,659,0,0,0,0,0,0,0,0,0,-1,951,365,0,0
-266,659,0,0,0,0,0,0,0,0,0,-1,958,365,0,0
-259,659,0,0,0,0,0,0,0,0,0,-1,965,365,0,0
-252,659,0,0,0,0,0,0,0,0,0,-1,972,365,0,0
-245,659,0,0,0,0,0,0,0,0,0,-1,979,365,0,0
-238,659,0,0,0,0,0,0,0,0,0,-1,986,365,0,0
-231,659,0,0,0,0,0,0,0,0,0,-1,993,365,0,0
-224,659,0,0,0,0,0,0,0,0,0,-1,1000,365,0,0
-217,659,7.31036,-23.9331,0,0,0,0,0,0,0,-1,1007,365,7.31037,23.9331
-210,659,6.67468,-24.0161,0,0,0,0,0,0,0,-1,1014,365,6.67468,24.0161
-203,659,6.03931,-23.7853,0,0,0,0,0,0,0,-1,1021,365,6.03925,23.7853
-196,659,4.90088,-24.0429,0,0,0,0,0,0,0,-1,1028,365,4.90086,24.0429
-189,659,5.55908,-23.1929,0,0,0,0,0,0,0,-1,1035,365,5.55905,23.1929
-182,659,7.68726,-23.745,0,0,0,0,0,0,0,-1,1042,365,7.6872,23.745
-175,659,6.72241,-24.4272,0,0,0,0,0,0,0,-1,1049,365,6.72236,24.4272
-168,659,5.5863,-25.2993,0,0,0,0,0,0,0,-1,1056,365,5.58625,25.2993
-161,659,4.52441,-25.9107,0,0,0,0,0,0,0,-1,1063,365,4.52435,25.9107
-154,659,3.54175,-26.6486,0,0,0,0,0,0,0,-1,1070,365,3.54174,26.6486
-147,659,2.6864,-27.1892,0,0,0,0,0,0,0,-1,1077,365,2.68639,27.1892
-140,659,4.42712,-26.1631,0,0,0,0,0,0,0,-1,1084,365,4.42713,26.1631
-133,659,4.88574,-25.8396,0,0,0,0,0,0,0,-1,1091,365,4.8857,25.8396
-126,659,4.89819,-25.5017,0,0,0,0,0,0,0,-1,1098,365,4.8982,25.5017
-119,659,5.22632,-26.0948,-0.0326455,0.0167985,0.0315982,0.0321966,-0.0480437,1.11735,0.0466269,0.0419277,1105,365,5.22626,26.0948
-112,659,4.83728,-26.192,-0.0331031,0.0186143,0.0336307,0.0351784,-0.0496672,1.11314,0.0492231,0.0399856,1112,365,4.83725,26.192
-105,659,4.65527,-26.0045,0,0,0,0,0,0,0,-1,1119,365,4.65526,26.0045
-98,659,4.68042,-26.2438,0,0,0,0,0,0,0,-1,1126,365,4.68041,26.2438
-91,659,4.20776,-20.8654,0,0,0,0,0,0,0,-1,1133,365,4.20777,20.8654
-84,659,2.8584,-17.8303,0,0,0,0,0,0,0,-1,1140,365,2.85836,17.8303
-77,659,2.80139,-15.3457,0,0,0,0,0,0,0,-1,1147,365,2.80139,15.3457
-70,659,2.9353,-12.7028,0,0,0,0,0,0,0,-1,1154,365,2.93533,12.7028
-63,659,2.11267,-9.7796,0,0,0,0,0,0,0,-1,1161,365,2.11266,9.7796
-56,659,2.11182,-9.91541,0,0,0,0,0,0,0,-1,1168,365,2.11178,9.91541
-49,659,4.37427,-28.0396,0,0,0,0,0,0,0,-1,1175,365,4.37423,28.0397
-42,659,4.08325,-28.4897,0,0,0,0,0,0,0,-1,1182,365,4.08328,28.4897
-35,659,4.30957,-28.3952,-0.00593562,0.00978779,-0.000804005,0.0098288,-0.00597662,-1.51984,0.00921516,0.0434145,1189,365,4.30961,28.3952
-28,659,4.34399,-28.4319,-0.00576474,0.0103458,-0.000450523,0.0103583,-0.00577733,-1.54286,0.00944026,0.0154881,1196,365,4.34394,28.4319
-21,659,4.29883,-28.5396,-0.00541562,0.0108664,4.98937e-05,0.0108666,-0.00541577,1.56773,0.00957458,0.0112849,1203,365,4.29887,28.5396
-14,659,4.24573,-28.6619,-0.00511064,0.0113403,0.000598477,0.011362,-0.00513238,1.53448,0.00974682,0.00869927,1210,365,4.24574,28.6619
-7,659,4.21985,-28.7529,-0.00484851,0.0117812,0.00107911,0.0118509,-0.00491824,1.50627,0.00995365,0.00840671,1217,365,4.21983,28.7529
0,659,4.19177,-28.8263,-0.00456853,0.0121023,0.00145833,0.0122289,-0.00469514,1.48419,0.0100886,0.00773619,1224,365,4.19176,28.8263
7,659,4.16516,-28.8923,-0.00424157,0.012519,0.001757,0.0127012,-0.00442377,1.46746,0.0102649,0.00759801,1231,365,4.16515,28.8923
14,659,4.1405,-28.9276,-0.00394341,0.0130544,0.00199447,0.0132853,-0.0041743,1.45555,0.0105279,0.00991786,1238,365,4.14047,28.9276
21,659,4.11072,-28.9824,-0.00373049,0.0138598,0.00219678,0.01413,-0.00400069,1.44841,0.0109988,0.0100926,1245,365,4.11075,28.9824
28,659,4.06763,-29.0363,-0.00341442,0.0147928,0.00235524,0.0150926,-0.00371416,1.44421,0.0115014,0.00968551,1252,365,4.0676,29.0364
35,659,4.05725,-29.0513,-0.00296941,0.0161209,0.00256633,0.0164599,-0.00330839,1.43947,0.0122262,0.0102601,1259,365,4.05731,29.0513
42,659,4.04443,-29.086,-0.0025378,0.0168466,0.00293253,0.0172805,-0.00297173,1.42389,0.012628,0.0106054,1266,365,4.04441,29.086
49,659,3.99939,-29.1094,-0.00223103,0.0176906,0.00340826,0.0182575,-0.00279799,1.40596,0.0132035,0.0106891,1273,365,3.99934,29.1094
56,659,3.93811,-29.1013,-0.00217034,0.0185255,0.00352174,0.0191084,-0.00275321,1.40678,0.0137488,0.0146979,1280,365,3.93807,29.1014
63,659,3.94983,-29.1463,-0.0020443,0.0193521,0.00359364,0.0199395,-0.00263174,1.40876,0.0142515,0.016276,1287,365,3.94983,29.1463
70,659,3.94592,-29.1763,-0.00185608,0.0197949,0.00416148,0.0205672,-0.0026284,1.3873,0.0146663,0.0164648,1294,365,3.9459,29.1763
77,659,3.86792,-29.1005,-0.00216744,0.0204672,0.00462942,0.0213774,-0.00307768,1.37665,0.0153805,0.0183809,1301,365,3.8679,29.1005
84,659,3.84216,-29.0771,-0.0027547,0.0214319,0.00452881,0.0222521,-0.00357488,1.39164,0.0161587,0.0142915,1308,365,3.84217,29.0771
91,659,3.78796,-29.047,-0.00266768,0.0215859,0.00347484,0.0220739,-0.0031557,1.43126,0.0158727,0.0114621,1315,365,3.78801,29.047
98,659,3.7677,-28.9901,-0.00224187,0.0214954,0.00240774,0.0217372,-0.00248364,1.47072,0.0153863,0.00749836,1322,365,3.76769,28.9902
105,659,3.75439,-28.8913,-0.00216302,0.0214435,0.0014369,0.0215307,-0.00225016,1.51023,0.0151596,0.00845456,1329,365,3.75434,28.8913
112,659,3.73035,-28.8063,-0.00205564,0.0214869,0.000172527,0.0214881,-0.00205691,1.56347,0.015058,0.0128602,1336,365,3.73029,28.8063
119,659,3.71436,-28.7032,-0.00177596,0.0211994,-0.00126078,0.0212684,-0.00184494,-1.51614,0.0148322,0.0148951,1343,365,3.71432,28.7032
126,659,3.6687,-28.5692,-0.00123939,0.0206921,-0.00268979,0.0210172,-0.00156446,-1.45053,0.014561,0.0130846,1350,365,3.66868,28.5692
133,659,3.61548,-28.4601,-0.00060473,0.0200725,-0.00396714,0.0208075,-0.00133974,-1.3876,0.0143391,0.0115675,1357,365,3.61547,28.4601
140,659,3.58398,-28.3826,8.81205e-05,0.0190578,-0.0049093,0.020253,-0.00110709,-1.33198,0.0138858,0.0100358,1364,365,3.58396,28.3826
147,659,3.5647,-28.2622,0.000935241,0.018458,-0.00534924,0.0199619,-0.000568669,-1.29673,0.0135015,0.00916754,1371,365,3.5647,28.2622
154,659,3.53186,-28.1108,0.00168298,0.0174768,-0.00549591,0.019201,-4.12501e-05,-1.26679,0.0128145,0.00961553,1378,365,3.53188,28.1108
161,659,3.52844,-27.9787,0.00218479,0.0163653,-0.00525333,0.0180994,0.000450689,-1.25196,0.0119189,0.0110685,1385,365,3.52847,27.9787
168,659,3.52417,-27.831,0.00225277,0.0150072,-0.00469031,0.0165463,0.000713678,-1.25372,0.0108008,0.0183269,1392,365,3.52421,27.831
175,659,3.5033,-27.6652,0.00202646,0.013453,-0.00391098,0.0146634,0.000816066,-1.27066,0.00951526,0.0423815,1399,365,3.50328,27.6651
182,659,3.37378,-27.5635,0,0,0,0,0,0,0,-1,1406,365,3.37383,27.5635
189,659,3.50232,-27.1681,0,0,0,0,0,0,0,-1,1413,365,3.50226,27.1681
196,659,2.41248,-13.4371,0,0,0,0,0,0,0,-1,1420,365,2.41243,13.4371
203,659,2.38623,-12.2163,0,0,0,0,0,0,0,-1,1427,365,2.38617,12.2163
210,659,2.20789,-13.9792,0,0,0,0,0,0,0,-1,1434,365,2.20794,13.9792
217,659,2.24121,-13.487,0,0,0,0,0,0,0,-1,1441,365,2.24116,13.487
224,659,2.3479,-15.2926,0,0,0,0,0,0,0,-1,1448,365,2.34793,15.2926
231,659,2.47974,-17.8629,0,0,0,0,0,0,0,-1,1455,365,2.47976,17.8628
238,659,3.57886,-21.1258,0,0,0,0,0,0,0,-1,1462,365,3.57889,21.1258
245,659,3.29883,-25.0283,0,0,0,0,0,0,0,-1,1469,365,3.29889,25.0283
252,659,2.81909,-24.1604,0,0,0,0,0,0,0,-1,1476,365,2.81905,24.1604
259,659,2.33069,-3.36703,0,0,0,0,0,0,0,-1,1483,365,2.33073,3.36702
266,659,1.72681,-17.183,0,0,0,0,0,0,0,-1,1490,365,1.72683,17.183
273,659,2.4375,-14.5841,0,0,0,0,0,0,0,-1,1497,365,2.43748,14.5841
280,659,-6.90784,-17.1906,0,0,0,0,0,0,0,-1,1504,365,-6.90789,17.1906
287,659,-5.92737,-19.4511,0,0,0,0,0,0,0,-1,1511,365,-5.92734,19.4511
294,659,-4.90845,-21.6836,0,0,0,0,0,0,0,-1,1518,365,-4.90846,21.6836
301,659,-4.72278,-23.4255,0,0,0,0,0,0,0,-1,1525,365,-4.72279,23.4255
308,659,-3.77832,-24.1487,0,0,0,0,0,0,0,-1,1532,365,-3.77827,24.1487
315,659,2.17102,-2.98474,0,0,0,0,0,0,0,-1,1539,365,2.171,2.98473
322,659,0.382813,-2.2424,0,0,0,0,0,0,0,-1,1546,365,0.382801,2.2424
329,659,0.604004,-1.75998,0,0,0,0,0,0,0,-1,1553,365,0.603966,1.75998
336,659,4.55933,-25.2647,0,0,0,0,0,0,0,-1,1560,365,4.55935,25.2647
343,659,0,0,0,0,0,0,0,0,0,-1,1567,365,0,0
350,659,0,0,0,0,0,0,0,0,0,-1,1574,365,0,0
357,659,0,0,0,0,0,0,0,0,0,-1,1581,365,0,0
364,659,0,0,0,0,0,0,0,0,0,-1,1588,365,0,0
371,659,0,0,0,0,0,0,0,0,0,-1,1595,365,0,0
378,659,0,0,0,0,0,0,0,0,0,-1,1602,365,0,0
385,659,0,0,0,0,0,0,0,0,0,-1,1609,365,0,0
392,659,0,0,0,0,0,0,0,0,0,-1,1616,365,0,0
399,659,0,0,0,0,0,0,0,0,0,-1,1623,365,0,0
406,659,0,0,0,0,0,0,0,0,0,-1,1630,365,0,0
413,659,0,0,0,0,0,0,0,0,0,-1,1637,365,0,0
420,659,0,0,0,0,0,0,0,0,0,-1,1644,365,0,0
427,659,0,0,0,0,0,0,0,0,0,-1,1651,365,0,0
434,659,0,0,0,0,0,0,0,0,0,-1,1658,365,0,0
441,659,0,0,0,0,0,0,0,0,0,-1,1665,365,0,0
448,659,0,0,0,0,0,0,0,0,0,-1,1672,365,0,0
455,659,0,0,0,0,0,0,0,0,0,-1,1679,365,0,0
462,659,0,0,0,0,0,0,0,0,0,-1,1686,365,0,0
469,659,0,0,0,0,0,0,0,0,0,-1,1693,365,0,0
476,659,0,0,0,0,0,0,0,0,0,-1,1700,365,0,0
483,659,0,0,0,0,0,0,0,0,0,-1,1707,365,0,0
490,659,0,0,0,0,0,0,0,0,0,-1,1714,365,0,0
497,659,0,0,0,0,0,0,0,0,0,-1,1721,365,0,0
504,659,0,0,0,0,0,0,0,0,0,-1,1728,365,0,0
511,659,0,0,0,0,0,0,0,0,0,-1,1735,365,0,0
518,659,0,0,0,0,0,0,0,0,0,-1,1742,365,0,0
525,659,0,0,0,0,0,0,0,0,0,-1,1749,365,0,0
532,659,0,0,0,0,0,0,0,0,0,-1,1756,365,0,0
539,659,0,0,0,0,0,0,0,0,0,-1,1763,365,0,0
546,659,0,0,0,0,0,0,0,0,0,-1,1770,365,0,0
553,659,0,0,0,0,0,0,0,0,0,-1,1777,365,0,0
560,659,0,0,0,0,0,0,0,0,0,-1,1784,365,0,0
567,659,0,0,0,0,0,0,0,0,0,-1,1791,365,0,0
574,659,0,0,0,0,0,0,0,0,0,-1,1798,365,0,0
581,659,0,0,0,0,0,0,0,0,0,-1,1805,365,0,0
588,659,0,0,0,0,0,0,0,0,0,-1,1812,365,0,0
595,659,0,0,0,0,0,0,0,0,0,-1,1819,365,0,0
602,659,0,0,0,0,0,0,0,0,0,-1,1826,365,0,0
609,659,0,0,0,0,0,0,0,0,0,-1,1833,365,0,0
616,659,0,0,0,0,0,0,0,0,0,-1,1840,365,0,0
623,659,0,0,0,0,0,0,0,0,0,-1,1847,365,0,0
630,659,0,0,0,0,0,0,0,0,0,-1,1854,365,0,0
637,659,0,0,0,0,0,0,0,0,0,-1,1861,365,0,0
644,659,0,0,0,0,0,0,0,0,0,-1,1868,365,0,0
651,659,0,0,0,0,0,0,0,0,0,-1,1875,365,0,0
658,659,0,0,0,0,0,0,0,0,0,-1,1882,365,0,0
665,659,0,0,0,0,0,0,0,0,0,-1,1889,365,0,0
672,659,0,0,0,0,0,0,0,0,0,-1,1896,365,0,0
679,659,0,0,0,0,0,0,0,0,0,-1,1903,365,0,0
686,659,0,0,0,0,0,0,0,0,0,-1,1910,365,0,0
693,659,0,0,0,0,0,0,0,0,0,-1,1917,365,0,0
700,659,0,0,0,0,0,0,0,0,0,-1,1924,365,0,0
707,659,0,0,0,0,0,0,0,0,0,-1,1931,365,0,0
714,659,0,0,0,0,0,0,0,0,0,-1,1938,365,0,0
721,659,0,0,0,0,0,0,0,0,0,-1,1945,365,0,0
728,659,0,0,0,0,0,0,0,0,0,-1,1952,365,0,0
735,659,0,0,0,0,0,0,0,0,0,-1,1959,365,0,0
742,659,0,0,0,0,0,0,0,0,0,-1,1966,365,0,0
749,659,0,0,0,0,0,0,0,0,0,-1,1973,365,0,0
756,659,0,0,0,0,0,0,0,0,0,-1,1980,365,0,0
763,659,0,0,0,0,0,0,0,0,0,-1,1987,365,0,0
770,659,0,0,0,0,0,0,0,0,0,-1,1994,365,0,0
777,659,0,0,0,0,0,0,0,0,0,-1,2001,365,0,0
784,659,0,0,0,0,0,0,0,0,0,-1,2008,365,0,0
791,659,0,0,0,0,0,0,0,0,0,-1,2015,365,0,0
798,659,0,0,0,0,0,0,0,0,0,-1,2022,365,0,0
805,659,0,0,0,0,0,0,0,0,0,-1,2029,365,0,0
812,659,0,0,0,0,0,0,0,0,0,-1,2036,365,0,0
-700,652,0,0,0,0,0,0,0,0,0,-1,524,372,0,0
-693,652,0,0,0,0,0,0,0,0,0,-1,531,372,0,0
-686,652,0,0,0,0,0,0,0,0,0,-1,538,372,0,0
-679,652,0,0,0,0,0,0,0,0,0,-1,545,372,0,0
-672,652,0,0,0,0,0,0,0,0,0,-1,552,372,0,0
-665,652,0,0,0,0,0,0,0,0,0,-1,559,372,0,0
-658,652,0,0,0,0,0,0,0,0,0,-1,566,372,0,0
-651,652,0,0,0,0,0,0,0,0,0,-1,573,372,0,0
-644,652,0,0,0,0,0,0,0,0,0,-1,580,372,0,0
-637,652,0,0,0,0,0,0,0,0,0,-1,587,372,0,0
-630,652,0,0,0,0,0,0,0,0,0,-1,594,372,0,0
-623,652,0,0,0,0,0,0,0,0,0,-1,601,372,0,0
-616,652,0,0,0,0,0,0,0,0,0,-1,608,372,0,0
-609,652,0,0,0,0,0,0,0,0,0,-1,615,372,0,0
-602,652,0,0,0,0,0,0,0,0,0,-1,622,372,0,0
-595,652,0,0,0,0,0,0,0,0,0,-1,629,372,0,0
-588,652,0,0,0,0,0,0,0,0,0,-1,636,372,0,0
-581,652,0,0,0,0,0,0,0,0,0,-1,643,372,0,0
-574,652,0,0,0,0,0,0,0,0,0,-1,650,372,0,0
-567,652,0,0,0,0,0,0,0,0,0,-1,657,372,0,0
-560,652,0,0,0,0,0,0,0,0,0,-1,664,372,0,0
-553,652,0,0,0,0,0,0,0,0,0,-1,671,372,0,0
-546,652,0,0,0,0,0,0,0,0,0,-1,678,372,0,0
-539,652,0,0,0,0,0,0,0,0,0,-1,685,372,0,0
-532,652,0,0,0,0,0,0,0,0,0,-1,692,372,0,0
-525,652,0,0,0,0,0,0,0,0,0,-1,699,372,0,0
-518,652,0,0,0,0,0,0,0,0,0,-1,706,372,0,0
-511,652,0,0,0,0,0,0,0,0,0,-1,713,372,0,0
-504,652,0,0,0,0,0,0,0,0,0,-1,720,372,0,0
-497,652,0,0,0,0,0,0,0,0,0,-1,727,372,0,0
-490,652,0,0,0,0,0,0,0,0,0,-1,734,372,0,0
-483,652,0,0,0,0,0,0,0,0,0,-1,741,372,0,0
-476,652,0,0,0,0,0,0,0,0,0,-1,748,372,0,0
-469,652,0,0,0,0,0,0,0,0,0,-1,755,372,0,0
-462,652,0,0,0,0,0,0,0,0,0,-1,762,372,0,0
-455,652,0,0,0,0,0,0,0,0,0,-1,769,372,0,0
-448,652,0,0,0,0,0,0,0,0,0,-1,776,372,0,0
-441,652,0,0,0,0,0,0,0,0,0,-1,783,372,0,0
-434,652,0,0,0,0,0,0,0,0,0,-1,790,372,0,0
-427,652,0,0,0,0,0,0,0,0,0,-1,797,372,0,0
-420,652,0,0,0,0,0,0,0,0,0,-1,804,372,0,0
-413,652,0,0,0,0,0,0,0,0,0,-1,811,372,0,0
-406,652,0,0,0,0,0,0,0,0,0,-1,818,372,0,0
-399,652,0,0,0,0,0,0,0,0,0,-1,825,372,0,0
-392,652,0,0,0,0,0,0,0,0,0,-1,832,372,0,0
-385,652,0,0,0,0,0,0,0,0,0,-1,839,372,0,0
-378,652,0,0,0,0,0,0,0,0,0,-1,846,372,0,0
-371,652,0,0,0,0,0,0,0,0,0,-1,853,372,0,0
-364,652,0,0,0,0,0,0,0,0,0,-1,860,372,0,0
-357,652,0,0,0,0,0,0,0,0,0,-1,867,372,0,0
-350,652,0,0,0,0,0,0,0,0,0,-1,874,372,0,0
-343,652,0,0,0,0,0,0,0,0,0,-1,881,372,0,0
-336,652,0,0,0,0,0,0,0,0,0,-1,888,372,0,0
-329,652,0,0,0,0,0,0,0,0,0,-1,895,372,0,0
-322,652,0,0,0,0,0,0,0,0,0,-1,902,372,0,0
-315,652,0,0,0,0,0,0,0,0,0,-1,909,372,0,0
-308,652,0,0,0,0,0,0,0,0,0,-1,916,372,0,0
-301,652,0,0,0,0,0,0,0,0,0,-1,923,372,0,0
-294,652,0,0,0,0,0,0,0,0,0,-1,930,372,0,0
-287,652,0,0,0,0,0,0,0,0,0,-1,937,372,0,0
-280,652,0,0,0,0,0,0,0,0,0,-1,944,372,0,0
-273,652,0,0,0,0,0,0,0,0,0,-1,951,372,0,0
-266,652,0,0,0,0,0,0,0,0,0,-1,958,372,0,0
-259,652,0,0,0,0,0,0,0,0,0,-1,965,372,0,0
-252,652,0,0,0,0,0,0,0,0,0,-1,972,372,0,0
-245,652,0,0,0,0,0,0,0,0,0,-1,979,372,0,0
-238,652,0,0,0,0,0,0,0,0,0,-1,986,372,0,0
-231,652,8.68457,-21.315,0,0,0,0,0,0,0,-1,993,372,8.68455,21.315
-224,652,9.47449,-18.002,0,0,0,0,0,0,0,-1,1000,372,9.47449,18.002
-217,652,2.88489,-16.6299,0,0,0,0,0,0,0,-1,1007,372,2.88488,16.6299
-210,652,5.57764,-24.9025,0,0,0,0,0,0,0,-1,1014,372,5.57762,24.9025
-203,652,4.62231,-25.3057,0,0,0,0,0,0,0,-1,1021,372,4.6223,25.3057
-196,652,4.64233,-24.0681,0,0,0,0,0,0,0,-1,1028,372,4.64235,24.0681
-189,652,4.58655,-23.4382,0,0,0,0,0,0,0,-1,1035,372,4.58656,23.4382
-182,652,4.40625,-23.4441,0,0,0,0,0,0,0,-1,1042,372,4.40631,23.4441
-175,652,6.42456,-23.5061,0,0,0,0,0,0,0,-1,1049,372,6.42452,23.5061
-168,652,4.64087,-24.3798,0,0,0,0,0,0,0,-1,1056,372,4.6409,24.3798
-161,652,5.14819,-25.1193,0,0,0,0,0,0,0,-1,1063,372,5.14815,25.1193
-154,652,5.43909,-24.9955,0,0,0,0,0,0,0,-1,1070,372,5.43905,24.9955
-147,652,5.83936,-25.2072,0,0,0,0,0,0,0,-1,1077,372,5.8393,25.2071
-140,652,4.57056,-25.0793,0,0,0,0,0,0,0,-1,1084,372,4.57054,25.0793
-133,652,4.73669,-25.0917,0,0,0,0,0,0,0,-1,1091,372,4.73668,25.0917
-126,652,4.69092,-25.4912,-0.0229393,0.012952,0.0188603,0.0210401,-0.0310274,1.16567,0.030245,0.0406498,1098,372,4.69096,25.4912
-119,652,4.66064,-25.9835,-0.0235104,0.0140006,0.0206021,0.0231058,-0.0326156,1.15466,0.0323265,0.0367391,1105,372,4.66059,25.9834
-112,652,4.5675,-26.1868,-0.0236042,0.0149741,0.0218342,0.0248191,-0.0334493,1.14719,0.0337641,0.0282841,1112,372,4.5675,26.1868
-105,652,4.49451,-26.2626,-0.0231903,0.0156715,0.0224482,0.0259303,-0.0334491,1.14214,0.0343742,0.0288373,1119,372,4.4945,26.2626
-98,652,4.51685,-26.523,-0.0224042,0.015602,0.0221536,0.0257863,-0.0325884,1.1399,0.0337788,0.0465556,1126,372,4.51688,26.523
-91,652,4.61426,-26.5916,0,0,0,0,0,0,0,-1,1133,372,4.61425,26.5916
-84,652,4.50378,-26.9241,0,0,0,0,0,0,0,-1,1140,372,4.5038,26.9241
-77,652,4.39954,-27.2354,0,0,0,0,0,0,0,-1,1147,372,4.39951,27.2353
-70,652,4.37122,-27.5359,0,0,0,0,0,0,0,-1,1154,372,4.37127,27.5359
-63,652,4.36621,-27.7299,0,0,0,0,0,0,0,-1,1161,372,4.36619,27.7299
-56,652,4.31458,-27.9184,0,0,0,0,0,0,0,-1,1168,372,4.31458,27.9184
-49,652,4.32739,-28.0826,-0.00488512,0.0072343,-0.00204778,0.00757095,-0.00522178,-1.40785,0.00742728,0.0380264,1175,372,4.32741,28.0825
-42,652,4.25903,-28.1902,-0.00455229,0.00710265,-0.00113755,0.00721264,-0.00466228,-1.47441,0.00690849,0.0116304,1182,372,4.25907,28.1902
-35,652,4.24609,-28.3164,-0.00445661,0.00752046,-0.000855927,0.00758132,-0.00451747,-1.49981,0.0070595,0.00891777,1189,372,4.24615,28.3164
-28,652,4.22827,-28.4431,-0.00428715,0.00786053,-0.000593189,0.00788943,-0.00431604,-1.52212,0.00714679,0.00775366,1196,372,4.22832,28.4431
-21,652,4.18347,-28.5663,-0.00399761,0.00814191,-0.00021083,0.00814557,-0.00400127,-1.55344,0.00714775,0.00785363,1203,372,4.18343,28.5663
-14,652,4.15845,-28.6711,-0.00374329,0.00837214,0.000210238,0.00837578,-0.00374694,1.55345,0.00716711,0.00930206,1210,372,4.15843,28.6711
-7,652,4.14233,-28.7781,-0.00350042,0.00859832,0.0005514,0.0086234,-0.0035255,1.52535,0.00721707,0.0119833,1217,372,4.14237,28.7781
0,652,4.12036,-28.8405,-0.00325172,0.00873032,0.000816396,0.00878569,-0.00330709,1.50308,0.00721665,0.0118164,1224,372,4.12035,28.8405
7,652,4.09766,-28.8855,-0.00297892,0.0089558,0.00102353,0.00904294,-0.00306607,1.48586,0.00726947,0.0121628,1231,372,4.09763,28.8855
14,652,4.06396,-28.9701,-0.00273199,0.00926652,0.00119749,0.00938487,-0.00285034,1.47229,0.00739219,0.0102309,1238,372,4.06393,28.9701
21,652,4.04858,-29.0396,-0.00255791,0.00979018,0.00136032,0.00993826,-0.00270599,1.46236,0.00768792,0.00925737,1245,372,4.04862,29.0396
28,652,4.0376,-29.1021,-0.00231477,0.0104157,0.00148939,0.0105877,-0.0024867,1.45587,0.00801695,0.00893319,1252,372,4.03763,29.102
35,652,4.00928,-29.1199,-0.00199764,0.0113324,0.00165259,0.0115342,-0.00219947,1.44927,0.00851782,0.00998226,1259,372,4.00923,29.1199
42,652,3.98352,-29.1404,-0.00166357,0.0118124,0.00195528,0.0120904,-0.00194153,1.42958,0.00877929,0.0104583,1266,372,3.98355,29.1404
49,652,3.9873,-29.1573,-0.0014171,0.0123999,0.00232423,0.0127804,-0.0017976,1.40853,0.00917834,0.0126872,1273,372,3.98726,29.1573
56,652,3.95105,-29.1506,-0.00134545,0.0129552,0.00243834,0.0133595,-0.00174977,1.40647,0.00954324,0.014938,1280,372,3.95099,29.1506
63,652,3.92786,-29.1803,-0.0012372,0.013492,0.00252023,0.0139113,-0.00165649,1.40594,0.00987277,0.0184486,1287,372,3.92788,29.1803
70,652,3.94153,-29.1747,-0.00110923,0.0138215,0.00291787,0.0143715,-0.0016592,1.3845,0.0101792,0.0161728,1294,372,3.94153,29.1748
77,652,3.88379,-29.1251,-0.00131299,0.0143151,0.00324852,0.0149635,-0.00196134,1.3738,0.0106896,0.0177404,1301,372,3.88384,29.1251
84,652,3.86755,-29.0934,-0.00171266,0.0150103,0.00318695,0.015597,-0.00229942,1.38872,0.0112431,0.0154056,1308,372,3.86761,29.0934
91,652,3.83069,-29.0934,-0.00173742,0.0152149,0.00250879,0.0155784,-0.00210091,1.42691,0.0111521,0.0171524,1315,372,3.83068,29.0934
98,652,3.83936,-29.0109,-0.00154963,0.0152427,0.00181538,0.0154367,-0.00174364,1.46433,0.0109188,0.0129306,1322,372,3.83938,29.0109
105,652,3.81873,-28.9071,-0.00153371,0.0153029,0.00116151,0.0153826,-0.00161346,1.50224,0.010833,0.0100139,1329,372,3.81871,28.9071
112,652,3.78381,-28.8536,-0.00149801,0.0154326,0.000321323,0.0154387,-0.0015041,1.55183,0.0108287,0.00890448,1336,372,3.78384,28.8536
119,652,3.77441,-28.756,-0.00137186,0.0153218,-0.000637455,0.0153461,-0.00139617,-1.53268,0.0107264,0.0100692,1343,372,3.77445,28.756
126,652,3.73987,-28.6283,-0.00107355,0.0150545,-0.00160172,0.0152121,-0.00123108,-1.47276,0.0105757,0.0121775,1350,372,3.73982,28.6283
133,652,3.70361,-28.5163,-0.000721497,0.0147026,-0.00244565,0.0150811,-0.00109999,-1.41725,0.0104401,0.0127847,1357,372,3.70363,28.5163
140,652,3.69141,-28.4172,-0.000333629,0.0140844,-0.00303407,0.0146969,-0.000946088,-1.37161,0.010128,0.00975475,1364,372,3.69146,28.4172
147,652,3.68518,-28.2887,0.000163686,0.0138078,-0.00329194,0.0145605,-0.000589036,-1.346,0.00990921,0.00899971,1371,372,3.68521,28.2887
154,652,3.67139,-28.1526,0.000619409,0.0133155,-0.00334607,0.0141433,-0.000208471,-1.32825,0.00949915,0.00924108,1378,372,3.67133,28.1526
161,652,3.64954,-28.005,0.000884633,0.0127659,-0.00311679,0.0135339,0.000116651,-1.32921,0.00898395,0.0107232,1385,372,3.64957,28.005
168,652,3.61877,-27.8499,0.000797511,0.0119559,-0.00266588,0.0125601,0.000193312,-1.34792,0.00830971,0.0114802,1392,372,3.61873,27.8499
175,652,3.58972,-27.6678,0.000529629,0.0109254,-0.00205146,0.0113156,0.000139445,-1.38284,0.00749766,0.0122458,1399,372,3.58977,27.6678
182,652,3.55383,-27.5135,0.000449414,0.00967414,-0.00136216,0.00987107,0.000252476,-1.42721,0.00649819,0.0179331,1406,372,3.55387,27.5135
189,652,3.57446,-27.3266,0.000246306,0.00816322,-0.000264698,0.00817207,0.000237465,-1.53741,0.00537064,0.0299713,1413,372,3.57445,27.3266
196,652,3.50928,-27.1138,0,0,0,0,0,0,0,-1,1420,372,3.50925,27.1138
203,652,3.48669,-26.8789,0,0,0,0,0,0,0,-1,1427,372,3.48672,26.8789
210,652,3.55713,-26.5905,0,0,0,0,0,0,0,-1,1434,372,3.5571,26.5905
217,652,3.49927,-26.4411,0,0,0,0,0,0,0,-1,1441,372,3.49926,26.4411
224,652,3.29822,-26.1487,0,0,0,0,0,0,0,-1,1448,372,3.29818,26.1487
231,652,3.31775,-25.6079,0,0,0,0,0,0,0,-1,1455,372,3.31772,25.6079
238,652,3.38123,-25.5654,0,0,0,0,0,0,0,-1,1462,372,3.38125,25.5654
245,652,3.37744,-25.3895,0,0,0,0,0,0,0,-1,1469,372,3.37743,25.3895
252,652,3.41797,-25.1131,0,0,0,0,0,0,0,-1,1476,372,3.41797,25.1131
259,652,3.10229,-24.6041,0,0,0,0,0,0,0,-1,1483,372,3.10235,24.6041
266,652,2.95276,-24.4179,0,0,0,0,0,0,0,-1,1490,372,2.95271,24.4179
273,652,3.12549,-24.2582,0,0,0,0,0,0,0,-1,1497,372,3.12545,24.2582
280,652,3.06665,-23.8476,0,0,0,0,0,0,0,-1,1504,372,3.0667,23.8476
287,652,-4.71191,-19.5709,0,0,0,0,0,0,0,-1,1511,372,-4.71192,19.5709
294,652,-3.67712,-20.9472,0,0,0,0,0,0,0,-1,1518,372,-3.67711,20.9472
301,652,-2.73926,-22.253,0,0,0,0,0,0,0,-1,1525,372,-2.73924,22.253
308,652,-1.78748,-23.5141,0,0,0,0,0,0,0,-1,1532,372,-1.78745,23.5141
315,652,-1.34546,-20.7169,0,0,0,0,0,0,0,-1,1539,372,-1.34546,20.7169
322,652,1.95398,-18.5313,0,0,0,0,0,0,0,-1,1546,372,1.95404,18.5313
329,652,3.6593,-22.1693,0,0,0,0,0,0,0,-1,1553,372,3.65935,22.1693
336,652,4.33569,-23.2715,0,0,0,0,0,0,0,-1,1560,372,4.33567,23.2715
343,652,4.85767,-24.4762,0,0,0,0,0,0,0,-1,1567,372,4.85772,24.4762
350,652,5.28394,-25.6715,0,0,0,0,0,0,0,-1,1574,372,5.28393,25.6715
357,652,0,0,0,0,0,0,0,0,0,-1,1581,372,0,0
364,652,0,0,0,0,0,0,0,0,0,-1,1588,372,0,0
371,652,0,0,0,0,0,0,0,0,0,-1,1595,372,0,0
378,652,0,0,0,0,0,0,0,0,0,-1,1602,372,0,0
385,652,0,0,0,0,0,0,0,0,0,-1,1609,372,0,0
392,652,0,0,0,0,0,0,0,0,0,-1,1616,372,0,0
399,652,0,0,0,0,0,0,0,0,0,-1,1623,372,0,0
406,652,0,0,0,0,0,0,0,0,0,-1,1630,372,0,0
413,652,0,0,0,0,0,0,0,0,0,-1,1637,372,0,0
420,652,0,0,0,0,0,0,0,0,0,-1,1644,372,0,0
427,652,0,0,0,0,0,0,0,0,0,-1,1651,372,0,0
434,652,0,0,0,0,0,0,0,0,0,-1,1658,372,0,0
441,652,0,0,0,0,0,0,0,0,0,-1,1665,372,0,0
448,652,0,0,0,0,0,0,0,0,0,-1,1672,372,0,0
455,652,0,0,0,0,0,0,0,0,0,-1,1679,372,0,0
462,652,0,0,0,0,0,0,0,0,0,-1,1686,372,0,0
469,652,0,0,0,0,0,0,0,0,0,-1,1693,372,0,0
476,652,0,0,0,0,0,0,0,0,0,-1,1700,372,0,0
483,652,0,0,0,0,0,0,0,0,0,-1,1707,372,0,0
490,652,0,0,0,0,0,0,0,0,0,-1,1714,372,0,0
497,652,0,0,0,0,0,0,0,0,0,-1,1721,372,0,0
504,652,0,0,0,0,0,0,0,0,0,-1,1728,372,0,0
511,652,0,0,0,0,0,0,0,0,0,-1,1735,372,0,0
518,652,0,0,0,0,0,0,0,0,0,-1,1742,372,0,0
525,652,0,0,0,0,0,0,0,0,0,-1,1749,372,0,0
532,652,0,0,0,0,0,0,0,0,0,-1,1756,372,0,0
539,652,0,0,0,0,0,0,0,0,0,-1,1763,372,0,0
546,652,0,0,0,0,0,0,0,0,0,-1,1770,372,0,0
553,652,0,0,0,0,0,0,0,0,0,-1,1777,372,0,0
560,652,0,0,0,0,0,0,0,0,0,-1,1784,372,0,0
567,652,0,0,0,0,0,0,0,0,0,-1,1791,372,0,0
574,652,0,0,0,0,0,0,0,0,0,-1,1798,372,0,0
581,652,0,0,0,0,0,0,0,0,0,-1,1805,372,0,0
588,652,0,0,0,0,0,0,0,0,0,-1,1812,372,0,0
595,652,0,0,0,0,0,0,0,0,0,-1,1819,372,0,0
602,652,0,0,0,0,0,0,0,0,0,-1,1826,372,0,0
609,652,0,0,0,0,0,0,0,0,0,-1,1833,372,0,0
616,652,0,0,0,0,0,0,0,0,0,-1,1840,372,0,0
623,652,0,0,0,0,0,0,0,0,0,-1,1847,372,0,0
630,652,0,0,0,0,0,0,0,0,0,-1,1854,372,0,0
637,652,0,0,0,0,0,0,0,0,0,-1,1861,372,0,0
644,652,0,0,0,0,0,0,0,0,0,-1,1868,372,0,0
651,652,0,0,0,0,0,0,0,0,0,-1,1875,372,0,0
658,652,0,0,0,0,0,0,0,0,0,-1,1882,372,0,0
665,652,0,0,0,0,0,0,0,0,0,-1,1889,372,0,0
672,652,0,0,0,0,0,0,0,0,0,-1,1896,372,0,0
679,652,0,0,0,0,0,0,0,0,0,-1,1903,372,0,0
686,652,0,0,0,0,0,0,0,0,0,-1,1910,372,0,0
693,652,0,0,0,0,0,0,0,0,0,-1,1917,372,0,0
700,652,0,0,0,0,0,0,0,0,0,-1,1924,372,0,0
707,652,0,0,0,0,0,0,0,0,0,-1,1931,372,0,0
714,652,0,0,0,0,0,0,0,0,0,-1,1938,372,0,0
721,652,0,0,0,0,0,0,0,0,0,-1,1945,372,0,0
728,652,0,0,0,0,0,0,0,0,0,-1,1952,372,0,0
735,652,0,0,0,0,0,0,0,0,0,-1,1959,372,0,0
742,652,0,0,0,0,0,0,0,0,0,-1,1966,372,0,0
749,652,0,0,0,0,0,0,0,0,0,-1,1973,372,0,0
756,652,0,0,0,0,0,0,0,0,0,-1,1980,372,0,0
763,652,0,0,0,0,0,0,0,0,0,-1,1987,372,0,0
770,652,0,0,0,0,0,0,0,0,0,-1,1994,372,0,0
777,652,0,0,0,0,0,0,0,0,0,-1,2001,372,0,0
784,652,0,0,0,0,0,0,0,0,0,-1,2008,372,0,0
791,652,0,0,0,0,0,0,0,0,0,-1,2015,372,0,0
798,652,0,0,0,0,0,0,0,0,0,-1,2022,372,0,0
805,652,0,0,0,0,0,0,0,0,0,-1,2029,372,0,0
812,652,0,0,0,0,0,0,0,0,0,-1,2036,372,0,0
-700,645,0,0,0,0,0,0,0,0,0,-1,524,379,0,0
-693,645,0,0,0,0,0,0,0,0,0,-1,531,379,0,0
-686,645,0,0,0,0,0,0,0,0,0,-1,538,379,0,0
-679,645,0,0,0,0,0,0,0,0,0,-1,545,379,0,0
-672,645,0,0,0,0,0,0,0,0,0,-1,552,379,0,0
-665,645,0,0,0,0,0,0,0,0,0,-1,559,379,0,0
-658,645,0,0,0,0,0,0,0,0,0,-1,566,379,0,0
-651,645,0,0,0,0,0,0,0,0,0,-1,573,379,0,0
-644,645,0,0,0,0,0,0,0,0,0,-1,580,379,0,0
-637,645,0,0,0,0,0,0,0,0,0,-1,587,379,0,0
-630,645,0,0,0,0,0,0,0,0,0,-1,594,379,0,0
-623,645,0,0,0,0,0,0,0,0,0,-1,601,379,0,0
-616,645,0,0,0,0,0,0,0,0,0,-1,608,379,0,0
-609,645,0,0,0,0,0,0,0,0,0,-1,615,379,0,0
-602,645,0,0,0,0,0,0,0,0,0,-1,622,379,0,0
-595,645,0,0,0,0,0,0,0,0,0,-1,629,379,0,0
-588,645,0,0,0,0,0,0,0,0,0,-1,636,379,0,0
-581,645,0,0,0,0,0,0,0,0,0,-1,643,379,0,0
-574,645,0,0,0,0,0,0,0,0,0,-1,650,379,0,0
-567,645,0,0,0,0,0,0,0,0,0,-1,657,379,0,0
-560,645,0,0,0,0,0,0,0,0,0,-1,664,379,0,0
-553,645,0,0,0,0,0,0,0,0,0,-1,671,379,0,0
-546,645,0,0,0,0,0,0,0,0,0,-1,678,379,0,0
-539,645,0,0,0,0,0,0,0,0,0,-1,685,379,0,0
-532,645,0,0,0,0,0,0,0,0,0,-1,692,379,0,0
-525,645,0,0,0,0,0,0,0,0,0,-1,699,379,0,0
-518,645,0,0,0,0,0,0,0,0,0,-1,706,379,0,0
-511,645,0,0,0,0,0,0,0,0,0,-1,713,379,0,0
-504,645,0,0,0,0,0,0,0,0,0,-1,720,379,0,0
-497,645,0,0,0,0,0,0,0,0,0,-1,727,379,0,0
-490,645,0,0,0,0,0,0,0,0,0,-1,734,379,0,0
-483,645,0,0,0,0,0,0,0,0,0,-1,741,379,0,0
-476,645,0,0,0,0,0,0,0,0,0,-1,748,379,0,0
-469,645,0,0,0,0,0,0,0,0,0,-1,755,379,0,0
-462,645,0,0,0,0,0,0,0,0,0,-1,762,379,0,0
-455,645,0,0,0,0,0,0,0,0,0,-1,769,379,0,0
-448,645,0,0,0,0,0,0,0,0,0,-1,776,379,0,0
-441,645,0,0,0,0,0,0,0,0,0,-1,783,379,0,0
-434,645,0,0,0,0,0,0,0,0,0,-1,790,379,0,0
-427,645,0,0,0,0,0,0,0,0,0,-1,797,379,0,0
-420,645,0,0,0,0,0,0,0,0,0,-1,804,379,0,0
-413,645,0,0,0,0,0,0,0,0,0,-1,811,379,0,0
-406,645,0,0,0,0,0,0,0,0,0,-1,818,379,0,0
-399,645,0,0,0,0,0,0,0,0,0,-1,825,379,0,0
-392,645,0,0,0,0,0,0,0,0,0,-1,832,379,0,0
-385,645,0,0,0,0,0,0,0,0,0,-1,839,379,0,0
-378,645,0,0,0,0,0,0,0,0,0,-1,846,379,0,0
-371,645,0,0,0,0,0,0,0,0,0,-1,853,379,0,0
-364,645,0,0,0,0,0,0,0,0,0,-1,860,379,0,0
-357,645,0,0,0,0,0,0,0,0,0,-1,867,379,0,0
-350,645,0,0,0,0,0,0,0,0,0,-1,874,379,0,0
-343,645,0,0,0,0,0,0,0,0,0,-1,881,379,0,0
-336,645,0,0,0,0,0,0,0,0,0,-1,888,379,0,0
-329,645,0,0,0,0,0,0,0,0,0,-1,895,379,0,0
-322,645,0,0,0,0,0,0,0,0,0,-1,902,379,0,0
-315,645,0,0,0,0,0,0,0,0,0,-1,909,379,0,0
-308,645,0,0,0,0,0,0,0,0,0,-1,916,379,0,0
-301,645,0,0,0,0,0,0,0,0,0,-1,923,379,0,0
-294,645,0,0,0,0,0,0,0,0,0,-1,930,379,0,0
-287,645,0,0,0,0,0,0,0,0,0,-1,937,379,0,0
-280,645,0,0,0,0,0,0,0,0,0,-1,944,379,0,0
-273,645,0,0,0,0,0,0,0,0,0,-1,951,379,0,0
-266,645,0,0,0,0,0,0,0,0,0,-1,958,379,0,0
-259,645,0,0,0,0,0,0,0,0,0,-1,965,379,0,0
-252,645,7.61414,-21.9233,0.140374,0.042935,0.141742,0.241536,-0.0582272,0.619865,0.183538,0.0459259,972,379,7.61413,21.9233
-245,645,8.70581,-21.8434,0.137236,0.044518,0.134944,0.233563,-0.051808,0.619942,0.175545,0.040252,979,379,8.70582,21.8434
-238,645,9.94202,-21.534,0.13247,0.0463733,0.128328,0.224778,-0.0459344,0.623568,0.167279,0.0424981,986,379,9.94199,21.534
-231,645,11.1202,-20.9215,0,0,0,0,0,0,0,-1,993,379,11.1202,20.9215
-224,645,9.92029,-21.3227,0,0,0,0,0,0,0,-1,1000,379,9.92026,21.3227
-217,645,8.09961,-19.0991,0,0,0,0,0,0,0,-1,1007,379,8.0996,19.0991
-210,645,4.53271,-26.621,0,0,0,0,0,0,0,-1,1014,379,4.53272,26.621
-203,645,4.38184,-25.4848,0,0,0,0,0,0,0,-1,1021,379,4.38181,25.4848
-196,645,4.38525,-24.1512,0,0,0,0,0,0,0,-1,1028,379,4.38521,24.1512
-189,645,4.39978,-23.2085,0,0,0,0,0,0,0,-1,1035,379,4.39973,23.2085
-182,645,4.33032,-22.3954,0,0,0,0,0,0,0,-1,1042,379,4.33027,22.3954
-175,645,4.64587,-21.6154,0,0,0,0,0,0,0,-1,1049,379,4.64583,21.6155
-168,645,4.81506,-24.1642,0,0,0,0,0,0,0,-1,1056,379,4.81507,24.1642
-161,645,4.76501,-24.5105,0,0,0,0,0,0,0,-1,1063,379,4.76496,24.5105
-154,645,4.9071,-24.8073,-0.0110782,0.0119289,0.00590513,0.013356,-0.0125053,1.33367,0.0149337,0.0434656,1070,379,4.90709,24.8073
-147,645,5.14063,-25.0593,-0.0132798,0.0113918,0.00753407,0.0135105,-0.0153986,1.29665,0.0167025,0.0392459,1077,379,5.14056,25.0593
-140,645,4.46021,-25.1462,-0.014727,0.0107819,0.00895799,0.0136134,-0.0175585,1.26465,0.0180451,0.0385917,1084,379,4.46021,25.1462
-133,645,4.2478,-25.3986,0,0,0,0,0,0,0,-1,1091,379,4.24781,25.3986
-126,645,4.47961,-25.6879,-0.0162743,0.0109977,0.0118118,0.0154022,-0.0206787,1.21388,0.0209054,0.0314812,1098,379,4.47964,25.6879
-119,645,4.43408,-26.0408,-0.0164989,0.0114758,0.0129195,0.0165295,-0.0215526,1.19793,0.0220503,0.0191513,1105,379,4.43412,26.0408
-112,645,4.38367,-26.3037,-0.0163566,0.0119385,0.0136285,0.017435,-0.0218532,1.18744,0.0227308,0.0130568,1112,379,4.38372,26.3037
-105,645,4.35315,-26.5108,-0.0158428,0.0122347,0.0138636,0.0179263,-0.0215344,1.18124,0.0228144,0.0139509,1119,379,4.35318,26.5108
-98,645,4.30627,-26.6846,-0.0151483,0.0120172,0.013499,0.0175842,-0.0207154,1.17964,0.0221369,0.0179516,1126,379,4.30629,26.6846
-91,645,4.31763,-26.916,-0.0138679,0.0113877,0.012544,0.0165592,-0.0190393,1.17976,0.0205694,0.0256608,1133,379,4.31758,26.916
-84,645,4.32446,-27.1487,-0.0120192,0.0100279,0.0112429,0.0147498,-0.0167412,1.17317,0.0181935,0.030744,1140,379,4.32443,27.1487
-77,645,4.26086,-27.4178,-0.0108453,0.00944069,0.0101763,0.0136656,-0.0150703,1.17728,0.0165973,0.0217865,1147,379,4.26089,27.4178
-70,645,4.23145,-27.6037,-0.00928089,0.00793251,0.0082791,0.0112681,-0.0126165,1.1878,0.0137971,0.0126139,1154,379,4.2315,27.6037
-63,645,4.21973,-27.7482,-0.00764993,0.00779712,0.00536328,0.00947665,-0.00932947,1.26731,0.0108578,0.0105288,1161,379,4.21976,27.7482
-56,645,4.20068,-27.8814,-0.00525958,0.00685243,0.00123914,0.0069779,-0.00538506,1.46988,0.00715748,0.0124522,1168,379,4.20073,27.8814
-49,645,4.18518,-28.0372,-0.0034893,0.00542898,-0.00133334,0.00562406,-0.00368437,-1.42552,0.00541298,0.0106528,1175,379,4.18515,28.0372
-42,645,4.14575,-28.1862,-0.00323929,0.00519911,-0.000834749,0.00528089,-0.00332107,-1.47313,0.00500913,0.00988077,1182,379,4.14572,28.1862
-35,645,4.12122,-28.3439,-0.00305177,0.00527332,-0.000645023,0.005323,-0.00310145,-1.49393,0.0049199,0.0103976,1189,379,4.12122,28.3439
-28,645,4.08887,-28.4957,-0.00278717,0.00528567,-0.000448017,0.00531045,-0.00281196,-1.51553,0.00476286,0.00889483,1196,379,4.08891,28.4957
-21,645,4.06213,-28.5978,-0.00244404,0.00527045,-0.000154288,0.00527354,-0.00244713,-1.55081,0.00455601,0.00997217,1203,379,4.06213,28.5978
-14,645,4.06384,-28.6901,-0.00214702,0.00522027,0.000126889,0.00522245,-0.00214921,1.55358,0.00437758,0.00942444,1210,379,4.06384,28.6901
-7,645,4.06384,-28.7986,-0.00186567,0.005242,0.000314739,0.00525591,-0.00187958,1.52663,0.00427064,0.0129712,1217,379,4.0638,28.7986
0,645,4.06897,-28.8424,-0.00162608,0.00523265,0.000445019,0.0052614,-0.00165483,1.50627,0.00417013,0.0241353,1224,379,4.06897,28.8424
7,645,4.0376,-28.9202,-0.00141274,0.00531764,0.000535393,0.00535996,-0.00145506,1.49191,0.00414437,0.0167448,1231,379,4.03765,28.9202
14,645,4.00134,-28.9932,-0.00123555,0.00546836,0.000608974,0.00552323,-0.00129042,1.48094,0.00417924,0.0156322,1238,379,4.00132,28.9932
21,645,3.98035,-29.0683,-0.00112444,0.00577998,0.000691831,0.00584862,-0.00119308,1.47191,0.00435164,0.0102472,1245,379,3.98035,29.0683
28,645,3.9812,-29.1178,-0.0009223,0.00647805,0.000541003,0.00651739,-0.000961641,1.49821,0.0046984,0.00917371,1252,379,3.98117,29.1178
35,645,3.96814,-29.1533,-0.00073416,0.00726053,0.000528372,0.0072953,-0.000768929,1.50509,0.00513905,0.00922595,1259,379,3.96813,29.1533
42,645,3.95544,-29.1851,-0.000473825,0.00772783,0.000656835,0.0077801,-0.000526095,1.49139,0.0053707,0.00828748,1266,379,3.95544,29.1851
49,645,3.97363,-29.1964,-0.000232243,0.00830655,0.000810797,0.00838285,-0.00030855,1.47696,0.00569421,0.0110274,1273,379,3.97363,29.1963
56,645,3.96851,-29.1825,-0.00011403,0.00878576,0.000811368,0.00885913,-0.000187395,1.48062,0.00596953,0.0112907,1280,379,3.9685,29.1825
63,645,3.95776,-29.198,2.0503e-06,0.00919012,0.000803325,0.00925982,-6.76569e-05,1.48424,0.00619589,0.0113665,1287,379,3.95773,29.198
70,645,3.92957,-29.1799,0.000117443,0.00948379,0.00103737,0.00959731,3.92459e-06,1.4618,0.0063969,0.0149741,1294,379,3.92957,29.1799
77,645,3.90894,-29.1487,3.16385e-05,0.00981677,0.00127949,0.00998131,-0.000132899,1.4429,0.00669894,0.0189539,1301,379,3.90898,29.1487
84,645,3.92651,-29.1179,-0.000200921,0.0102008,0.00132497,0.0103669,-0.000367043,1.44607,0.00703679,0.0144612,1308,379,3.92649,29.1179
91,645,3.90894,-29.0899,-0.000287663,0.0102743,0.000971384,0.0103629,-0.000376259,1.47984,0.00703735,0.0156973,1315,379,3.90899,29.0899
98,645,3.90002,-29.0007,-0.000291171,0.010155,0.000625989,0.0101924,-0.00032855,1.51116,0.00690703,0.0139804,1322,379,3.89998,29.0007
105,645,3.88049,-28.9177,-0.000362499,0.0100464,0.000299111,0.010055,-0.000371087,1.54209,0.00683038,0.00992515,1329,379,3.8805,28.9177
112,645,3.86304,-28.8591,-0.000424235,0.00999626,-0.000128014,0.00999784,-0.000425808,-1.55851,0.0068116,0.00761066,1336,379,3.86308,28.8591
119,645,3.86047,-28.7601,-0.000461282,0.00980841,-0.000638762,0.00984799,-0.00050086,-1.50892,0.00673849,0.00791281,1343,379,3.86048,28.7601
126,645,3.8385,-28.6369,-0.00038236,0.00955561,-0.00117898,0.00969356,-0.000520311,-1.45432,0.00664261,0.0117886,1350,379,3.83848,28.6369
133,645,3.83374,-28.5415,-0.000294354,0.00915096,-0.00154043,0.00939584,-0.000539233,-1.41315,0.00645115,0.0133617,1357,379,3.83368,28.5415
140,645,3.82373,-28.4398,-0.000131838,0.00883163,-0.001882,0.00921075,-0.000510956,-1.37201,0.00631771,0.0122778,1364,379,3.82375,28.4398
147,645,3.81238,-28.3113,7.93425e-05,0.00880215,-0.00202194,0.00924804,-0.000366549,-1.35374,0.0062911,0.0124294,1371,379,3.81235,28.3113
154,645,3.81262,-28.1849,0.000305132,0.00868587,-0.00201193,0.00914385,-0.000152839,-1.34698,0.00614748,0.0119461,1378,379,3.81262,28.1849
161,645,3.79102,-28.0291,0.000433009,0.00862023,-0.0018032,0.00899978,5.34551e-05,-1.36334,0.00598212,0.0141821,1385,379,3.79096,28.0291
168,645,3.75305,-27.8628,0.000317591,0.00836029,-0.0014607,0.00861736,6.05173e-05,-1.39659,0.00572484,0.0160734,1392,379,3.75301,27.8628
175,645,3.75049,-27.7008,8.55165e-05,0.00791431,-0.00101765,0.00804443,-4.46034e-05,-1.44362,0.00537788,0.0140016,1399,379,3.75047,27.7008
182,645,3.73743,-27.5247,-3.16282e-05,0.00729232,-0.000504368,0.00732689,-6.61986e-05,-1.50236,0.00490681,0.010167,1406,379,3.73748,27.5247
189,645,3.71704,-27.3202,-0.000243773,0.0064472,0.000284119,0.00645925,-0.000255816,1.52843,0.00439392,0.0104603,1413,379,3.71708,27.3202
196,645,3.68567,-27.1417,-0.0011116,0.00597867,0.00155993,0.00630669,-0.00143963,1.36353,0.0047575,0.0117539,1420,379,3.68567,27.1417
203,645,3.64441,-26.9261,-0.00224807,0.00552734,0.00257594,0.00630329,-0.00302402,1.27821,0.00549495,0.0121431,1427,379,3.64436,26.9261
210,645,3.67615,-26.6432,-0.0027514,0.0055278,0.00291625,0.00645187,-0.00367548,1.26393,0.00591982,0.0189595,1434,379,3.67618,26.6432
217,645,3.65344,-26.4848,-0.00299977,0.0056408,0.00295902,0.00655699,-0.00391596,1.27053,0.00611031,0.0280959,1441,379,3.65348,26.4848
224,645,3.59619,-26.38,-0.00287319,0.00647435,0.00297157,0.00733903,-0.00373786,1.28763,0.00650693,0.030644,1448,379,3.59623,26.38
231,645,3.51208,-26.0162,-0.00273374,0.00738736,0.00311002,0.00826663,-0.003613,1.29527,0.00703194,0.0250278,1455,379,3.51205,26.0162
238,645,3.52893,-25.7099,-0.00275513,0.00867953,0.00348403,0.00965744,-0.00373305,1.29715,0.00797924,0.0149119,1462,379,3.52887,25.7099
245,645,3.52026,-25.4504,-0.0032195,0.00999943,0.00356568,0.0108999,-0.00411997,1.32343,0.00896138,0.0143409,1469,379,3.52032,25.4504
252,645,3.53979,-25.1127,-0.00325708,0.0113494,0.00380399,0.0122807,-0.00418838,1.3307,0.00988365,0.0228292,1476,379,3.53975,25.1127
259,645,3.42859,-24.7791,-0.00325225,0.0129422,0.00412277,0.0139313,-0.0042414,1.33532,0.010978,0.0392621,1483,379,3.42855,24.7791
266,645,3.29578,-24.5721,-0.00360323,0.0144159,0.00445639,0.0154578,-0.00464511,1.34113,0.0121532,0.0295144,1490,379,3.29575,24.5721
273,645,3.38611,-24.344,-0.00436969,0.0157383,0.00459484,0.0167385,-0.00536989,1.35646,0.013315,0.0269358,1497,379,3.38609,24.344
280,645,3.49634,-24.0056,0,0,0,0,0,0,0,-1,1504,379,3.49638,24.0055
287,645,3.67773,-23.5039,0,0,0,0,0,0,0,-1,1511,379,3.67778,23.5039
294,645,3.08191,-23.5159,0,0,0,0,0,0,0,-1,1518,379,3.08193,23.5159
301,645,-0.755737,-21.0804,0,0,0,0,0,0,0,-1,1525,379,-0.755687,21.0804
308,645,1.8075,-19.3919,0,0,0,0,0,0,0,-1,1532,379,1.80747,19.3919
315,645,2.49463,-18.0919,0,0,0,0,0,0,0,-1,1539,379,2.49463,18.0919
322,645,2.62305,-23.2779,0,0,0,0,0,0,0,-1,1546,379,2.62308,23.2778
329,645,3.12939,-21.2195,0,0,0,0,0,0,0,-1,1553,379,3.12944,21.2195
336,645,3.08777,-22.6366,0,0,0,0,0,0,0,-1,1560,379,3.08771,22.6366
343,645,4.9165,-22.1625,0,0,0,0,0,0,0,-1,1567,379,4.91647,22.1625
350,645,4.76404,-22.1987,0,0,0,0,0,0,0,-1,1574,379,4.76399,22.1987
357,645,4.61316,-21.967,0,0,0,0,0,0,0,-1,1581,379,4.61316,21.967
364,645,-0.0794678,-3.22021,0,0,0,0,0,0,0,-1,1588,379,-0.0794987,3.22021
371,645,0,0,0,0,0,0,0,0,0,-1,1595,379,0,0
378,645,0,0,0,0,0,0,0,0,0,-1,1602,379,0,0
385,645,0,0,0,0,0,0,0,0,0,-1,1609,379,0,0
392,645,0,0,0,0,0,0,0,0,0,-1,1616,379,0,0
399,645,0,0,0,0,0,0,0,0,0,-1,1623,379,0,0
406,645,0,0,0,0,0,0,0,0,0,-1,1630,379,0,0
413,645,0,0,0,0,0,0,0,0,0,-1,1637,379,0,0
420,645,0,0,0,0,0,0,0,0,0,-1,1644,379,0,0
427,645,0,0,0,0,0,0,0,0,0,-1,1651,379,0,0
434,645,0,0,0,0,0,0,0,0,0,-1,1658,379,0,0
441,645,0,0,0,0,0,0,0,0,0,-1,1665,379,0,0
448,645,0,0,0,0,0,0,0,0,0,-1,1672,379,0,0
455,645,0,0,0,0,0,0,0,0,0,-1,1679,379,0,0
462,645,0,0,0,0,0,0,0,0,0,-1,1686,379,0,0
469,645,0,0,0,0,0,0,0,0,0,-1,1693,379,0,0
476,645,0,0,0,0,0,0,0,0,0,-1,1700,379,0,0
483,645,0,0,0,0,0,0,0,0,0,-1,1707,379,0,0
490,645,0,0,0,0,0,0,0,0,0,-1,1714,379,0,0
497,645,0,0,0,0,0,0,0,0,0,-1,1721,379,0,0
504,645,0,0,0,0,0,0,0,0,0,-1,1728,379,0,0
511,645,0,0,0,0,0,0,0,0,0,-1,1735,379,0,0
518,645,0,0,0,0,0,0,0,0,0,-1,1742,379,0,0
525,645,0,0,0,0,0,0,0,0,0,-1,1749,379,0,0
532,645,0,0,0,0,0,0,0,0,0,-1,1756,379,0,0
539,645,0,0,0,0,0,0,0,0,0,-1,1763,379,0,0
546,645,0,0,0,0,0,0,0,0,0,-1,1770,379,0,0
553,645,0,0,0,0,0,0,0,0,0,-1,1777,379,0,0
560,645,0,0,0,0,0,0,0,0,0,-1,1784,379,0,0
567,645,0,0,0,0,0,0,0,0,0,-1,1791,379,0,0
574,645,0,0,0,0,0,0,0,0,0,-1,1798,379,0,0
581,645,0,0,0,0,0,0,0,0,0,-1,1805,379,0,0
588,645,0,0,0,0,0,0,0,0,0,-1,1812,379,0,0
595,645,0,0,0,0,0,0,0,0,0,-1,1819,379,0,0
602,645,0,0,0,0,0,0,0,0,0,-1,1826,379,0,0
609,645,0,0,0,0,0,0,0,0,0,-1,1833,379,0,0
616,645,0,0,0,0,0,0,0,0,0,-1,1840,379,0,0
623,645,0,0,0,0,0,0,0,0,0,-1,1847,379,0,0
630,645,0,0,0,0,0,0,0,0,0,-1,1854,379,0,0
637,645,0,0,0,0,0,0,0,0,0,-1,1861,379,0,0
644,645,0,0,0,0,0,0,0,0,0,-1,1868,379,0,0
651,645,0,0,0,0,0,0,0,0,0,-1,1875,379,0,0
658,645,0,0,0,0,0,0,0,0,0,-1,1882,379,0,0
665,645,0,0,0,0,0,0,0,0,0,-1,1889,379,0,0
672,645,0,0,0,0,0,0,0,0,0,-1,1896,379,0,0
679,645,0,0,0,0,0,0,0,0,0,-1,1903,379,0,0
686,645,0,0,0,0,0,0,0,0,0,-1,1910,379,0,0
693,645,0,0,0,0,0,0,0,0,0,-1,1917,379,0,0
700,645,0,0,0,0,0,0,0,0,0,-1,1924,379,0,0
707,645,0,0,0,0,0,0,0,0,0,-1,1931,379,0,0
714,645,0,0,0,0,0,0,0,0,0,-1,1938,379,0,0
721,645,0,0,0,0,0,0,0,0,0,-1,1945,379,0,0
728,645,0,0,0,0,0,0,0,0,0,-1,1952,379,0,0
735,645,0,0,0,0,0,0,0,0,0,-1,1959,379,0,0
742,645,0,0,0,0,0,0,0,0,0,-1,1966,379,0,0
749,645,0,0,0,0,0,0,0,0,0,-1,1973,379,0,0
756,645,0,0,0,0,0,0,0,0,0,-1,1980,379,0,0
763,645,0,0,0,0,0,0,0,0,0,-1,1987,379,0,0
770,645,0,0,0,0,0,0,0,0,0,-1,1994,379,0,0
777,645,0,0,0,0,0,0,0,0,0,-1,2001,379,0,0
784,645,0,0,0,0,0,0,0,0,0,-1,2008,379,0,0
791,645,0,0,0,0,0,0,0,0,0,-1,2015,379,0,0
798,645,0,0,0,0,0,0,0,0,0,-1,2022,379,0,0
805,645,0,0,0,0,0,0,0,0,0,-1,2029,379,0,0
812,645,0,0,0,0,0,0,0,0,0,-1,2036,379,0,0
-700,638,0,0,0,0,0,0,0,0,0,-1,524,386,0,0
-693,638,0,0,0,0,0,0,0,0,0,-1,531,386,0,0
-686,638,0,0,0,0,0,0,0,0,0,-1,538,386,0,0
-679,638,0,0,0,0,0,0,0,0,0,-1,545,386,0,0
-672,638,0,0,0,0,0,0,0,0,0,-1,552,386,0,0
-665,638,0,0,0,0,0,0,0,0,0,-1,559,386,0,0
-658,638,0,0,0,0,0,0,0,0,0,-1,566,386,0,0
-651,638,0,0,0,0,0,0,0,0,0,-1,573,386,0,0
-644,638,0,0,0,0,0,0,0,0,0,-1,580,386,0,0
-637,638,0,0,0,0,0,0,0,0,0,-1,587,386,0,0
-630,638,0,0,0,0,0,0,0,0,0,-1,594,386,0,0
-623,638,0,0,0,0,0,0,0,0,0,-1,601,386,0,0
-616,638,0,0,0,0,0,0,0,0,0,-1,608,386,0,0
-609,638,0,0,0,0,0,0,0,0,0,-1,615,386,0,0
-602,638,0,0,0,0,0,0,0,0,0,-1,622,386,0,0
-595,638,0,0,0,0,0,0,0,0,0,-1,629,386,0,0
-588,638,0,0,0,0,0,0,0,0,0,-1,636,386,0,0
-581,638,0,0,0,0,0,0,0,0,0,-1,643,386,0,0
-574,638,0,0,0,0,0,0,0,0,0,-1,650,386,0,0
-567,638,0,0,0,0,0,0,0,0,0,-1,657,386,0,0
-560,638,0,0,0,0,0,0,0,0,0,-1,664,386,0,0
-553,638,0,0,0,0,0,0,0,0,0,-1,671,386,0,0
-546,638,0,0,0,0,0,0,0,0,0,-1,678,386,0,0
-539,638,0,0,0,0,0,0,0,0,0,-1,685,386,0,0
-532,638,0,0,0,0,0,0,0,0,0,-1,692,386,0,0
-525,638,0,0,0,0,0,0,0,0,0,-1,699,386,0,0
-518,638,0,0,0,0,0,0,0,0,0,-1,706,386,0,0
-511,638,0,0,0,0,0,0,0,0,0,-1,713,386,0,0
-504,638,0,0,0,0,0,0,0,0,0,-1,720,386,0,0
-497,638,0,0,0,0,0,0,0,0,0,-1,727,386,0,0
-490,638,0,0,0,0,0,0,0,0,0,-1,734,386,0,0
-483,638,0,0,0,0,0,0,0,0,0,-1,741,386,0,0
-476,638,0,0,0,0,0,0,0,0,0,-1,748,386,0,0
-469,638,0,0,0,0,0,0,0,0,0,-1,755,386,0,0
-462,638,0,0,0,0,0,0,0,0,0,-1,762,386,0,0
-455,638,0,0,0,0,0,0,0,0,0,-1,769,386,0,0
-448,638,0,0,0,0,0,0,0,0,0,-1,776,386,0,0
-441,638,0,0,0,0,0,0,0,0,0,-1,783,386,0,0
-434,638,0,0,0,0,0,0,0,0,0,-1,790,386,0,0
-427,638,0,0,0,0,0,0,0,0,0,-1,797,386,0,0
-420,638,0,0,0,0,0,0,0,0,0,-1,804,386,0,0
-413,638,0,0,0,0,0,0,0,0,0,-1,811,386,0,0
-406,638,0,0,0,0,0,0,0,0,0,-1,818,386,0,0
-399,638,0,0,0,0,0,0,0,0,0,-1,825,386,0,0
-392,638,0,0,0,0,0,0,0,0,0,-1,832,386,0,0
-385,638,0,0,0,0,0,0,0,0,0,-1,839,386,0,0
-378,638,0,0,0,0,0,0,0,0,0,-1,846,386,0,0
-371,638,0,0,0,0,0,0,0,0,0,-1,853,386,0,0
-364,638,0,0,0,0,0,0,0,0,0,-1,860,386,0,0
-357,638,0,0,0,0,0,0,0,0,0,-1,867,386,0,0
-350,638,0,0,0,0,0,0,0,0,0,-1,874,386,0,0
-343,638,0,0,0,0,0,0,0,0,0,-1,881,386,0,0
-336,638,0,0,0,0,0,0,0,0,0,-1,888,386,0,0
-329,638,0,0,0,0,0,0,0,0,0,-1,895,386,0,0
-322,638,0,0,0,0,0,0,0,0,0,-1,902,386,0,0
-315,638,0,0,0,0,0,0,0,0,0,-1,909,386,0,0
-308,638,0,0,0,0,0,0,0,0,0,-1,916,386,0,0
-301,638,0,0,0,0,0,0,0,0,0,-1,923,386,0,0
-294,638,0,0,0,0,0,0,0,0,0,-1,930,386,0,0
-287,638,0,0,0,0,0,0,0,0,0,-1,937,386,0,0
-280,638,0,0,0,0,0,0,0,0,0,-1,944,386,0,0
-273,638,0,0,0,0,0,0,0,0,0,-1,951,386,0,0
-266,638,1.94666,-22.1545,0,0,0,0,0,0,0,-1,958,386,1.94668,22.1545
-259,638,5.78125,-22.0906,0,0,0,0,0,0,0,-1,965,386,5.78124,22.0906
-252,638,6.48108,-21.9329,0.111108,0.0363806,0.116548,0.196135,-0.0486458,0.63028,0.149631,0.0474664,972,386,6.48107,21.9329
-245,638,7.14435,-22.0479,0.10731,0.0368196,0.109386,0.186989,-0.042859,0.629545,0.141132,0.0431085,979,386,7.14438,22.0479
-238,638,7.8316,-22.0596,0.10237,0.0377481,0.10204,0.177092,-0.0369739,0.632067,0.132122,0.0468603,986,386,7.83158,22.0596
-231,638,8.15698,-21.6695,0,0,0,0,0,0,0,-1,993,386,8.157,21.6695
-224,638,8.3988,-21.4053,0,0,0,0,0,0,0,-1,1000,386,8.39878,21.4053
-217,638,6.53162,-18.8751,0,0,0,0,0,0,0,-1,1007,386,6.5316,18.8751
-210,638,4.01251,-26.467,0,0,0,0,0,0,0,-1,1014,386,4.01254,26.467
-203,638,3.9856,-25.1281,0,0,0,0,0,0,0,-1,1021,386,3.98559,25.1281
-196,638,4.08179,-23.9539,0,0,0,0,0,0,0,-1,1028,386,4.08173,23.9538
-189,638,4.22437,-22.9237,0,0,0,0,0,0,0,-1,1035,386,4.22431,22.9237
-182,638,3.39355,-22.6486,0,0,0,0,0,0,0,-1,1042,386,3.39361,22.6486
-175,638,4.35791,-23.7015,0,0,0,0,0,0,0,-1,1049,386,4.35787,23.7015
-168,638,4.4281,-24.1517,-0.00265393,0.0130608,-0.00197548,0.0133053,-0.00289846,-1.44764,0.00997771,0.0352155,1056,386,4.42807,24.1517
-161,638,4.40808,-24.5303,-0.00574049,0.0117588,0.000705234,0.0117872,-0.00576887,1.53058,0.0103326,0.0324658,1063,386,4.40804,24.5303
-154,638,4.39355,-24.7882,-0.00794447,0.0111637,0.00313433,0.0116647,-0.00844546,1.4123,0.0116601,0.0264381,1070,386,4.39355,24.7882
-147,638,4.35535,-25.0416,-0.00951751,0.0104393,0.00428107,0.0113189,-0.0103971,1.36815,0.0125415,0.0213186,1077,386,4.35531,25.0416
-140,638,4.28467,-25.3178,-0.0104454,0.00959439,0.005205,0.0108657,-0.0117167,1.33125,0.013041,0.0174019,1084,386,4.28473,25.3178
-133,638,4.2428,-25.6446,-0.0109468,0.00906426,0.00619436,0.0108265,-0.012709,1.29363,0.0136027,0.0160744,1091,386,4.24279,25.6446
-126,638,4.22913,-25.8827,-0.0112376,0.00904047,0.00704694,0.0112489,-0.013446,1.2671,0.0142764,0.0158961,1098,386,4.22917,25.8827
-119,638,4.21802,-26.1298,-0.0112023,0.00918425,0.00770574,0.0117691,-0.0137872,1.24714,0.0147703,0.0153727,1105,386,4.21798,26.1298
-112,638,4.19885,-26.369,-0.0108933,0.00933692,0.00806325,0.0121575,-0.0137138,1.2343,0.0149458,0.0138322,1112,386,4.19882,26.369
-105,638,4.15198,-26.5974,-0.0103247,0.00939993,0.00806265,0.0122762,-0.013201,1.22813,0.0147125,0.0159002,1119,386,4.15193,26.5974
-98,638,4.11902,-26.8134,-0.00968568,0.0091229,0.00766441,0.0118505,-0.0124133,1.22889,0.01401,0.0165848,1126,386,4.11898,26.8134
-91,638,4.07043,-27.0271,-0.00863023,0.00857233,0.00690718,0.0110024,-0.0110603,1.2325,0.0127379,0.0130445,1133,386,4.07046,27.0271
-84,638,4.04785,-27.2293,-0.00725457,0.00751529,0.00610237,0.00971034,-0.00944962,1.2255,0.0110624,0.0140753,1140,386,4.04782,27.2293
-77,638,4.05969,-27.4231,-0.0064223,0.00693965,0.00544781,0.00887923,-0.00836189,1.22876,0.00995566,0.0108805,1147,386,4.05964,27.4231
-70,638,4.06201,-27.6017,-0.00539377,0.00573311,0.0044256,0.00727867,-0.00693933,1.23481,0.00820955,0.0103991,1154,386,4.06204,27.6017
-63,638,4.05859,-27.7723,-0.00430025,0.00539424,0.00281631,0.00615301,-0.00505902,1.30763,0.00648353,0.0108478,1161,386,4.05865,27.7724
-56,638,4.06738,-27.9239,-0.00280227,0.00459637,0.000541171,0.00463575,-0.00284164,1.49817,0.0043583,0.0141067,1168,386,4.0674,27.9239
-49,638,4.03723,-28.0596,-0.00177878,0.00352994,-0.000894476,0.0036766,-0.00192544,-1.40828,0.00328659,0.0125594,1175,386,4.03723,28.0596
-42,638,4.02515,-28.2073,-0.00157914,0.00315233,-0.000639268,0.00323718,-0.00166399,-1.43884,0.00287787,0.011664,1182,386,4.02511,28.2073
-35,638,4.00122,-28.3572,-0.00135848,0.00292796,-0.000483974,0.00298192,-0.00141244,-1.45975,0.00259046,0.0110838,1189,386,4.0012,28.3572
-28,638,3.9762,-28.5016,-0.00106142,0.00267158,-0.000336713,0.00270171,-0.00109155,-1.48156,0.00225485,0.0107982,1196,386,3.97617,28.5016
-21,638,3.95447,-28.601,-0.000631706,0.00243409,-0.000215978,0.00244923,-0.000646846,-1.50081,0.00188578,0.0111324,1203,386,3.95449,28.601
-14,638,3.95483,-28.7077,-0.000189821,0.00215489,-9.52125e-05,0.00215875,-0.000193681,-1.53028,0.00150788,0.0107571,1210,386,3.95479,28.7077
-7,638,3.96936,-28.8344,0.000296288,0.00202122,-0.000102102,0.00202724,0.000290266,-1.51188,0.00126588,0.0164322,1217,386,3.96939,28.8344
0,638,4.00073,-28.8757,0.000733163,0.00190702,-0.000159338,0.00192827,0.00071192,-1.43825,0.00112591,0.0303844,1224,386,4.00072,28.8757
7,638,3.95435,-28.9497,0.0010912,0.00187472,-0.000236317,0.00194048,0.00102544,-1.29941,0.00112094,0.0238917,1231,386,3.95439,28.9497
14,638,3.922,-29.0278,0.00138212,0.00188898,-0.000309925,0.0020359,0.0012352,-1.12812,0.00118432,0.013267,1238,386,3.92203,29.0278
21,638,3.93359,-29.0851,0.00162574,0.00191433,-0.000305366,0.00210778,0.00143229,-1.00611,0.0012428,0.0113423,1245,386,3.93357,29.0852
28,638,3.9314,-29.1268,0.00194018,0.00278246,-0.000780464,0.00324816,0.00147448,-1.03281,0.00187797,0.00895821,1252,386,3.93134,29.1268
35,638,3.93469,-29.1577,0.00207741,0.00348867,-0.000954756,0.00397025,0.00159583,-1.10363,0.00230687,0.0102096,1259,386,3.93473,29.1578
42,638,3.95776,-29.1932,0.00211759,0.00392419,-0.000952689,0.00433374,0.00170804,-1.1648,0.00252071,0.0092063,1266,386,3.95782,29.1932
49,638,3.97095,-29.1803,0.00217795,0.00446281,-0.00101611,0.00484931,0.00179146,-1.20733,0.00283139,0.00795587,1273,386,3.97099,29.1803
56,638,3.96094,-29.1723,0.00217442,0.00485715,-0.00110345,0.00525269,0.00177887,-1.2266,0.00308482,0.0106516,1280,386,3.961,29.1723
63,638,3.95435,-29.2039,0.00210629,0.00513003,-0.00123761,0.00557198,0.00166434,-1.22781,0.00330275,0.0128167,1287,386,3.95432,29.2039
70,638,3.93567,-29.205,0.00198432,0.00538893,-0.00118193,0.00575901,0.00161424,-1.26735,0.0034303,0.0178765,1294,386,3.93568,29.205
77,638,3.94507,-29.1683,0.00172694,0.00557203,-0.00102655,0.00582893,0.00147004,-1.32558,0.00350039,0.0193689,1301,386,3.94504,29.1683
84,638,3.96802,-29.1293,0.00140409,0.00566725,-0.000825078,0.00582136,0.00124998,-1.38614,0.00353862,0.0143509,1308,386,3.96798,29.1293
91,638,3.9519,-29.0735,0.00122324,0.00554718,-0.000979139,0.00575857,0.00101185,-1.35817,0.00355016,0.0152009,1315,386,3.95196,29.0735
98,638,3.93921,-28.9909,0.00103101,0.00515588,-0.00104291,0.00540457,0.000782322,-1.33671,0.00337265,0.0134225,1322,386,3.93925,28.9909
105,638,3.93958,-28.9213,0.000853149,0.00475001,-0.00108303,0.00503078,0.00057238,-1.31714,0.00318027,0.00943421,1329,386,3.93959,28.9213
112,638,3.95203,-28.8579,0.00070414,0.00443817,-0.00115321,0.00476561,0.000376697,-1.29414,0.00305925,0.00836714,1336,386,3.95208,28.8579
119,638,3.96118,-28.7578,0.000549563,0.00411565,-0.00126729,0.00452013,0.000145082,-1.26185,0.00296624,0.0106041,1343,386,3.96115,28.7578
126,638,3.9502,-28.6463,0.00043835,0.00389297,-0.00144828,0.00441979,-8.84738e-05,-1.22192,0.00297646,0.0154068,1350,386,3.95019,28.6463
133,638,3.93909,-28.5552,0.00032179,0.00326501,-0.00128206,0.00374514,-0.000158344,-1.21246,0.00255118,0.0163798,1357,386,3.93913,28.5552
140,638,3.93188,-28.4561,0.000378626,0.00322589,-0.00140463,0.00380218,-0.000197668,-1.18146,0.00260318,0.0160301,1364,386,3.93184,28.4561
147,638,3.94849,-28.326,0.000463534,0.00345179,-0.00142225,0.00402048,-0.000105152,-1.19042,0.00271605,0.0167464,1371,386,3.94846,28.326
154,638,3.97388,-28.215,0.000520722,0.00365919,-0.00130551,0.00413124,4.86714e-05,-1.22384,0.00273808,0.0161604,1378,386,3.97382,28.215
161,638,3.92615,-28.0602,0.000523237,0.0040112,-0.00109213,0.00432495,0.000209496,-1.29106,0.00281606,0.0185709,1385,386,3.92621,28.0602
168,638,3.92151,-27.8794,0.000387201,0.00425223,-0.000796201,0.00440982,0.000229608,-1.37539,0.00286641,0.0231735,1392,386,3.92154,27.8794
175,638,3.93506,-27.702,0.00018146,0.00433389,-0.000469659,0.00438635,0.000129002,-1.45956,0.00288219,0.0195054,1399,386,3.93509,27.702
182,638,3.92126,-27.5342,2.85943e-05,0.00432394,-8.90858e-05,0.00432579,2.67476e-05,-1.55007,0.00287498,0.012723,1406,386,3.92125,27.5342
189,638,3.88953,-27.3411,-0.000182168,0.00416764,0.000460943,0.00421595,-0.000230476,1.46637,0.00289052,0.0103442,1413,386,3.88953,27.3411
196,638,3.87207,-27.1526,-0.000729994,0.00414275,0.00126007,0.00444931,-0.00103656,1.33214,0.00336536,0.0137635,1420,386,3.87212,27.1526
203,638,3.83167,-26.9801,-0.00142686,0.00408725,0.00190218,0.00467977,-0.00201938,1.26883,0.00396811,0.0198828,1427,386,3.83169,26.9801
210,638,3.82434,-26.7638,-0.00182526,0.0042459,0.00213505,0.00492154,-0.0025009,1.26431,0.00436065,0.0159735,1434,386,3.82438,26.7638
217,638,3.81042,-26.5307,-0.00203655,0.00446941,0.00217647,0.00513037,-0.00269751,1.27596,0.00459161,0.0117718,1441,386,3.81042,26.5307
224,638,3.79443,-26.2779,-0.00198473,0.00514114,0.00224189,0.00578779,-0.00263138,1.28998,0.00497337,0.0109498,1448,386,3.79445,26.2779
231,638,3.76379,-26.0164,-0.00191095,0.00585104,0.00241324,0.00654015,-0.00260006,1.29265,0.00543808,0.0116537,1455,386,3.76383,26.0163
238,638,3.73962,-25.7636,-0.00196337,0.00685788,0.00276034,0.00765044,-0.00275592,1.2912,0.00622569,0.0123918,1462,386,3.73959,25.7636
245,638,3.70605,-25.4946,-0.00235942,0.00786809,0.00288493,0.00862573,-0.00311706,1.31398,0.00702397,0.0141138,1469,386,3.70604,25.4946
252,638,3.69751,-25.2355,-0.00243367,0.00892405,0.00312966,0.00972935,-0.00323897,1.31895,0.00779356,0.0172474,1476,386,3.69751,25.2355
259,638,3.70569,-25.0089,-0.00247151,0.0101864,0.0034503,0.0110658,-0.0033509,1.32124,0.00871171,0.0176196,1483,386,3.70565,25.0089
266,638,3.64185,-24.692,-0.00279626,0.0113215,0.00377619,0.0122681,-0.00374285,1.32519,0.00967084,0.0129776,1490,386,3.64184,24.692
273,638,3.62756,-24.4259,-0.00342751,0.0123182,0.00392343,0.0132416,-0.00435097,1.33963,0.0105806,0.0119293,1497,386,3.62754,24.4259
280,638,3.67871,-24.1011,-0.00373112,0.013631,0.0043193,0.0146462,-0.00474631,1.33995,0.0116724,0.0207425,1504,386,3.67869,24.1011
287,638,3.81262,-23.6275,-0.00395438,0.0146023,0.00488337,0.0158089,-0.00516103,1.32856,0.0126165,0.0376256,1511,386,3.81266,23.6275
294,638,3.49573,-23.3777,-0.00443097,0.0155583,0.00536057,0.0169051,-0.00577778,1.32465,0.0136111,0.0478943,1518,386,3.49573,23.3777
301,638,3.41931,-22.9979,0,0,0,0,0,0,0,-1,1525,386,3.41932,22.9979
308,638,3.62781,-22.4351,0,0,0,0,0,0,0,-1,1532,386,3.62781,22.4351
315,638,3.71887,-22.3795,0,0,0,0,0,0,0,-1,1539,386,3.71886,22.3795
322,638,3.04407,-22.7065,0,0,0,0,0,0,0,-1,1546,386,3.04408,22.7065
329,638,2.22095,-21.2813,0,0,0,0,0,0,0,-1,1553,386,2.22089,21.2813
336,638,3.45276,-22.0662,0,0,0,0,0,0,0,-1,1560,386,3.45271,22.0662
343,638,3.57617,-21.3767,0,0,0,0,0,0,0,-1,1567,386,3.57619,21.3767
350,638,5.91162,-19.0222,0,0,0,0,0,0,0,-1,1574,386,5.91165,19.0222
357,638,0.387329,-3.01077,0,0,0,0,0,0,0,-1,1581,386,0.387332,3.01077
364,638,3.78149,-6.45215,0,0,0,0,0,0,0,-1,1588,386,3.78155,6.45216
371,638,4.18604,-6.71164,0,0,0,0,0,0,0,-1,1595,386,4.18598,6.71164
378,638,4.59045,-6.97113,0,0,0,0,0,0,0,-1,1602,386,4.5904,6.97112
385,638,0,0,0,0,0,0,0,0,0,-1,1609,386,0,0
392,638,0,0,0,0,0,0,0,0,0,-1,1616,386,0,0
399,638,0,0,0,0,0,0,0,0,0,-1,1623,386,0,0
406,638,0,0,0,0,0,0,0,0,0,-1,1630,386,0,0
413,638,0,0,0,0,0,0,0,0,0,-1,1637,386,0,0
420,638,0,0,0,0,0,0,0,0,0,-1,1644,386,0,0
427,638,0,0,0,0,0,0,0,0,0,-1,1651,386,0,0
434,638,0,0,0,0,0,0,0,0,0,-1,1658,386,0,0
441,638,0,0,0,0,0,0,0,0,0,-1,1665,386,0,0
448,638,0,0,0,0,0,0,0,0,0,-1,1672,386,0,0
455,638,0,0,0,0,0,0,0,0,0,-1,1679,386,0,0
462,638,0,0,0,0,0,0,0,0,0,-1,1686,386,0,0
469,638,0,0,0,0,0,0,0,0,0,-1,1693,386,0,0
476,638,0,0,0,0,0,0,0,0,0,-1,1700,386,0,0
483,638,0,0,0,0,0,0,0,0,0,-1,1707,386,0,0
490,638,0,0,0,0,0,0,0,0,0,-1,1714,386,0,0
497,638,0,0,0,0,0,0,0,0,0,-1,1721,386,0,0
504,638,0,0,0,0,0,0,0,0,0,-1,1728,386,0,0
511,638,0,0,0,0,0,0,0,0,0,-1,1735,386,0,0
518,638,0,0,0,0,0,0,0,0,0,-1,1742,386,0,0
525,638,0,0,0,0,0,0,0,0,0,-1,1749,386,0,0
532,638,0,0,0,0,0,0,0,0,0,-1,1756,386,0,0
539,638,0,0,0,0,0,0,0,0,0,-1,1763,386,0,0
546,638,0,0,0,0,0,0,0,0,0,-1,1770,386,0,0
553,638,0,0,0,0,0,0,0,0,0,-1,1777,386,0,0
560,638,0,0,0,0,0,0,0,0,0,-1,1784,386,0,0
567,638,0,0,0,0,0,0,0,0,0,-1,1791,386,0,0
574,638,0,0,0,0,0,0,0,0,0,-1,1798,386,0,0
581,638,0,0,0,0,0,0,0,0,0,-1,1805,386,0,0
588,638,0,0,0,0,0,0,0,0,0,-1,1812,386,0,0
595,638,0,0,0,0,0,0,0,0,0,-1,1819,386,0,0
602,638,0,0,0,0,0,0,0,0,0,-1,1826,386,0,0
609,638,0,0,0,0,0,0,0,0,0,-1,1833,386,0,0
616,638,0,0,0,0,0,0,0,0,0,-1,1840,386,0,0
623,638,0,0,0,0,0,0,0,0,0,-1,1847,386,0,0
630,638,0,0,0,0,0,0,0,0,0,-1,1854,386,0,0
637,638,0,0,0,0,0,0,0,0,0,-1,1861,386,0,0
644,638,0,0,0,0,0,0,0,0,0,-1,1868,386,0,0
651,638,0,0,0,0,0,0,0,0,0,-1,1875,386,0,0
658,638,0,0,0,0,0,0,0,0,0,-1,1882,386,0,0
665,638,0,0,0,0,0,0,0,0,0,-1,1889,386,0,0
672,638,0,0,0,0,0,0,0,0,0,-1,1896,386,0,0
679,638,0,0,0,0,0,0,0,0,0,-1,1903,386,0,0
686,638,0,0,0,0,0,0,0,0,0,-1,1910,386,0,0
693,638,0,0,0,0,0,0,0,0,0,-1,1917,386,0,0
700,638,0,0,0,0,0,0,0,0,0,-1,1924,386,0,0
707,638,0,0,0,0,0,0,0,0,0,-1,1931,386,0,0
714,638,0,0,0,0,0,0,0,0,0,-1,1938,386,0,0
721,638,0,0,0,0,0,0,0,0,0,-1,1945,386,0,0
728,638,0,0,0,0,0,0,0,0,0,-1,1952,386,0,0
735,638,0,0,0,0,0,0,0,0,0,-1,1959,386,0,0
742,638,0,0,0,0,0,0,0,0,0,-1,1966,386,0,0
749,638,0,0,0,0,0,0,0,0,0,-1,1973,386,0,0
756,638,0,0,0,0,0,0,0,0,0,-1,1980,386,0,0
763,638,0,0,0,0,0,0,0,0,0,-1,1987,386,0,0
770,638,0,0,0,0,0,0,0,0,0,-1,1994,386,0,0
777,638,0,0,0,0,0,0,0,0,0,-1,2001,386,0,0
784,638,0,0,0,0,0,0,0,0,0,-1,2008,386,0,0
791,638,0,0,0,0,0,0,0,0,0,-1,2015,386,0,0
798,638,0,0,0,0,0,0,0,0,0,-1,2022,386,0,0
805,638,0,0,0,0,0,0,0,0,0,-1,2029,386,0,0
812,638,0,0,0,0,0,0,0,0,0,-1,2036,386,0,0
-700,631,0,0,0,0,0,0,0,0,0,-1,524,393,0,0
-693,631,0,0,0,0,0,0,0,0,0,-1,531,393,0,0
-686,631,0,0,0,0,0,0,0,0,0,-1,538,393,0,0
-679,631,0,0,0,0,0,0,0,0,0,-1,545,393,0,0
-672,631,0,0,0,0,0,0,0,0,0,-1,552,393,0,0
-665,631,0,0,0,0,0,0,0,0,0,-1,559,393,0,0
-658,631,0,0,0,0,0,0,0,0,0,-1,566,393,0,0
-651,631,0,0,0,0,0,0,0,0,0,-1,573,393,0,0
-644,631,0,0,0,0,0,0,0,0,0,-1,580,393,0,0
-637,631,0,0,0,0,0,0,0,0,0,-1,587,393,0,0
-630,631,0,0,0,0,0,0,0,0,0,-1,594,393,0,0
-623,631,0,0,0,0,0,0,0,0,0,-1,601,393,0,0
-616,631,0,0,0,0,0,0,0,0,0,-1,608,393,0,0
-609,631,0,0,0,0,0,0,0,0,0,-1,615,393,0,0
-602,631,0,0,0,0,0,0,0,0,0,-1,622,393,0,0
-595,631,0,0,0,0,0,0,0,0,0,-1,629,393,0,0
-588,631,0,0,0,0,0,0,0,0,0,-1,636,393,0,0
-581,631,0,0,0,0,0,0,0,0,0,-1,643,393,0,0
-574,631,0,0,0,0,0,0,0,0,0,-1,650,393,0,0
-567,631,0,0,0,0,0,0,0,0,0,-1,657,393,0,0
-560,631,0,0,0,0,0,0,0,0,0,-1,664,393,0,0
-553,631,0,0,0,0,0,0,0,0,0,-1,671,393,0,0
-546,631,0,0,0,0,0,0,0,0,0,-1,678,393,0,0
-539,631,0,0,0,0,0,0,0,0,0,-1,685,393,0,0
-532,631,0,0,0,0,0,0,0,0,0,-1,692,393,0,0
-525,631,0,0,0,0,0,0,0,0,0,-1,699,393,0,0
-518,631,0,0,0,0,0,0,0,0,0,-1,706,393,0,0
-511,631,0,0,0,0,0,0,0,0,0,-1,713,393,0,0
-504,631,0,0,0,0,0,0,0,0,0,-1,720,393,0,0
-497,631,0,0,0,0,0,0,0,0,0,-1,727,393,0,0
-490,631,0,0,0,0,0,0,0,0,0,-1,734,393,0,0
-483,631,0,0,0,0,0,0,0,0,0,-1,741,393,0,0
-476,631,0,0,0,0,0,0,0,0,0,-1,748,393,0,0
-469,631,0,0,0,0,0,0,0,0,0,-1,755,393,0,0
-462,631,0,0,0,0,0,0,0,0,0,-1,762,393,0,0
-455,631,0,0,0,0,0,0,0,0,0,-1,769,393,0,0
-448,631,0,0,0,0,0,0,0,0,0,-1,776,393,0,0
-441,631,0,0,0,0,0,0,0,0,0,-1,783,393,0,0
-434,631,0,0,0,0,0,0,0,0,0,-1,790,393,0,0
-427,631,0,0,0,0,0,0,0,0,0,-1,797,393,0,0
-420,631,0,0,0,0,0,0,0,0,0,-1,804,393,0,0
-413,631,0,0,0,0,0,0,0,0,0,-1,811,393,0,0
-406,631,0,0,0,0,0,0,0,0,0,-1,818,393,0,0
-399,631,0,0,0,0,0,0,0,0,0,-1,825,393,0,0
-392,631,0,0,0,0,0,0,0,0,0,-1,832,393,0,0
-385,631,0,0,0,0,0,0,0,0,0,-1,839,393,0,0
-378,631,0,0,0,0,0,0,0,0,0,-1,846,393,0,0
-371,631,0,0,0,0,0,0,0,0,0,-1,853,393,0,0
-364,631,0,0,0,0,0,0,0,0,0,-1,860,393,0,0
-357,631,0,0,0,0,0,0,0,0,0,-1,867,393,0,0
-350,631,0,0,0,0,0,0,0,0,0,-1,874,393,0,0
-343,631,0,0,0,0,0,0,0,0,0,-1,881,393,0,0
-336,631,0,0,0,0,0,0,0,0,0,-1,888,393,0,0
-329,631,0,0,0,0,0,0,0,0,0,-1,895,393,0,0
-322,631,0,0,0,0,0,0,0,0,0,-1,902,393,0,0
-315,631,0,0,0,0,0,0,0,0,0,-1,909,393,0,0
-308,631,0,0,0,0,0,0,0,0,0,-1,916,393,0,0
-301,631,0,0,0,0,0,0,0,0,0,-1,923,393,0,0
-294,631,0,0,0,0,0,0,0,0,0,-1,930,393,0,0
-287,631,0,0,0,0,0,0,0,0,0,-1,937,393,0,0
-280,631,1.55042,-14.0146,0,0,0,0,0,0,0,-1,944,393,1.55041,14.0146
-273,631,0.083313,-20.814,0,0,0,0,0,0,0,-1,951,393,0.0832872,20.814
-266,631,1.76367,-20.7468,0,0,0,0,0,0,0,-1,958,393,1.76366,20.7468
-259,631,3.44403,-20.6796,0,0,0,0,0,0,0,-1,965,393,3.44404,20.6796
-252,631,5.59918,-22.1391,0,0,0,0,0,0,0,-1,972,393,5.5992,22.1391
-245,631,6.03522,-22.0255,0.0815875,0.0304578,0.0859244,0.14567,-0.0336242,0.640805,0.110047,0.0462928,979,393,6.0352,22.0254
-238,631,6.32037,-21.8974,0.0768389,0.0307939,0.0785673,0.135687,-0.0280546,0.642874,0.101115,0.0475126,986,393,6.32038,21.8974
-231,631,6.25067,-21.6809,0,0,0,0,0,0,0,-1,993,393,6.25064,21.6809
-224,631,6.83575,-19.7909,0,0,0,0,0,0,0,-1,1000,393,6.83575,19.7909
-217,631,5.05188,-18.3867,0,0,0,0,0,0,0,-1,1007,393,5.0519,18.3866
-210,631,3.94629,-18.0287,0,0,0,0,0,0,0,-1,1014,393,3.94627,18.0286
-203,631,3.55408,-23.0762,0,0,0,0,0,0,0,-1,1021,393,3.55411,23.0762
-196,631,4.28931,-22.7332,0,0,0,0,0,0,0,-1,1028,393,4.28925,22.7332
-189,631,4.25903,-22.4421,0,0,0,0,0,0,0,-1,1035,393,4.25898,22.4421
-182,631,4.18018,-23.4775,0,0,0,0,0,0,0,-1,1042,393,4.18021,23.4775
-175,631,4.16931,-23.8495,-0.000453117,0.0143096,-0.00283937,0.0148369,-0.000980391,-1.38719,0.0102337,0.0372153,1049,393,4.16925,23.8495
-168,631,4.13159,-24.2745,-0.00218547,0.0120214,-0.00181944,0.0122507,-0.00241478,-1.44542,0.00907971,0.0184901,1056,393,4.13157,24.2745
-161,631,4.10718,-24.6089,-0.00415399,0.0107803,-0.000136384,0.0107816,-0.00415524,-1.56167,0.00890214,0.00961681,1063,393,4.1072,24.6088
-154,631,4.0863,-24.8965,-0.00557087,0.00994309,0.00144427,0.0100764,-0.00570417,1.47876,0.00922675,0.00998199,1070,393,4.08635,24.8965
-147,631,4.07227,-25.1637,-0.00664508,0.00910437,0.00226755,0.00942434,-0.00696506,1.43061,0.00949787,0.0105544,1077,393,4.07225,25.1637
-140,631,4.05176,-25.4415,-0.00718689,0.00809931,0.00285614,0.00861553,-0.00770311,1.39199,0.00942648,0.00970272,1084,393,4.05174,25.4415
-133,631,4.0083,-25.6975,-0.00737916,0.00730763,0.00348611,0.0080931,-0.00816463,1.34918,0.00938643,0.00849902,1091,393,4.00826,25.6975
-126,631,3.99805,-25.914,-0.00741511,0.00697933,0.00399425,0.00801339,-0.00844917,1.31747,0.00950578,0.0122578,1098,393,3.99802,25.914
-119,631,3.98621,-26.1432,-0.00717872,0.00690221,0.00432665,0.0081254,-0.00840192,1.29528,0.0095425,0.015163,1105,393,3.98621,26.1431
-112,631,3.97876,-26.3819,-0.0067406,0.0068647,0.00443846,0.00818461,-0.00806051,1.28174,0.00937922,0.0134697,1112,393,3.97881,26.3819
-105,631,3.98157,-26.6084,-0.0061244,0.00681422,0.00428048,0.00810213,-0.00741231,1.27853,0.00896022,0.0184925,1119,393,3.9816,26.6084
-98,631,3.94116,-26.8281,-0.00549117,0.00655405,0.00385735,0.00768343,-0.00662055,1.28597,0.008266,0.017369,1126,393,3.94122,26.8281
-91,631,3.90515,-27.0352,-0.004595,0.00612647,0.00323282,0.00702581,-0.00549435,1.29946,0.00724652,0.0181109,1133,393,3.9051,27.0353
-84,631,3.90344,-27.2318,-0.00356331,0.00535084,0.00270291,0.00610637,-0.00431884,1.29823,0.00604842,0.0165617,1140,393,3.90345,27.2318
-77,631,3.89282,-27.424,-0.00293542,0.00483394,0.00228253,0.00545489,-0.00355636,1.30518,0.005241,0.0105017,1147,393,3.89284,27.424
-70,631,3.88892,-27.5949,-0.00220436,0.00385099,0.00180612,0.00434877,-0.00270215,1.30186,0.00410769,0.0113128,1154,393,3.88892,27.5949
-63,631,3.89075,-27.7807,-0.00142994,0.00337306,0.00105151,0.00359317,-0.00165006,1.36444,0.0030957,0.0121217,1161,393,3.89078,27.7807
-56,631,3.87634,-27.9603,-0.00053324,0.00266814,4.43199e-05,0.00266875,-0.000533853,1.55696,0.00198124,0.0131425,1168,393,3.87636,27.9603
-49,631,3.86487,-28.0849,6.0182e-05,0.00175971,-0.000527462,0.00191011,-9.0211e-05,-1.29304,0.00130452,0.0106095,1175,393,3.86487,28.0849
-42,631,3.87769,-28.2134,0.00040373,0.00115334,-0.000300524,0.00125894,0.000298125,-1.23287,0.000759676,0.00921561,1182,393,3.87765,28.2134
-35,631,3.86951,-28.3494,0.000904488,0.000571597,-6.18404e-05,0.000915605,0.000560481,-0.177865,0.000533038,0.0102609,1189,393,3.86952,28.3494
-28,631,3.8457,-28.4813,0.00161906,2.14866e-05,8.31881e-05,0.00162338,1.71664e-05,0.0518846,0.00107657,0.0125588,1196,393,3.84567,28.4813
-21,631,3.83972,-28.5995,0.00244151,-0.000445801,-8.04757e-06,0.00244153,-0.000445824,-0.0027872,0.00179485,0.0109555,1203,393,3.83977,28.5995
-14,631,3.85547,-28.7069,0.00323001,-0.000977094,3.32338e-05,0.00323027,-0.000977357,0.00789878,0.0025427,0.0134592,1210,393,3.85547,28.7069
-7,631,3.89404,-28.833,0.00411544,-0.00125,-5.72622e-05,0.00411605,-0.00125061,-0.0106708,0.00324232,0.020705,1217,393,3.89407,28.833
0,631,3.92029,-28.8883,0.00487447,-0.00145401,-0.00021682,0.00488189,-0.00146143,-0.0342075,0.00383569,0.022168,1224,393,3.92032,28.8883
7,631,3.88049,-28.9445,0.00544361,-0.00158552,-0.000388349,0.005465,-0.00160691,-0.0550253,0.00428071,0.0177923,1231,393,3.88046,28.9445
14,631,3.87122,-29.0437,0.00586438,-0.00167629,-0.000554421,0.00590492,-0.00171683,-0.073001,0.00461656,0.00983191,1238,393,3.87116,29.0437
21,631,3.91003,-29.0899,0.00616184,-0.00199145,-0.00056665,0.00620103,-0.00203065,-0.0690571,0.0049517,0.0127221,1245,393,3.91005,29.0899
28,631,3.91626,-29.1113,0.00642916,-0.00102471,-0.00131171,0.00665326,-0.0012488,-0.169208,0.00490505,0.0140117,1252,393,3.91624,29.1113
35,631,3.93335,-29.1447,0.00633442,-0.000575824,-0.0015479,0.0066653,-0.00090671,-0.210595,0.00477456,0.0129405,1259,393,3.93341,29.1446
42,631,3.95215,-29.1892,0.00599922,-0.000384919,-0.0015764,0.00636726,-0.000752952,-0.229357,0.00451679,0.0123646,1266,393,3.9521,29.1892
49,631,3.95679,-29.1831,0.00561541,-0.000152224,-0.00180708,0.00613482,-0.000671633,-0.279885,0.00433115,0.0110058,1273,393,3.95677,29.1831
56,631,3.96021,-29.1983,0.00522806,-0.000138664,-0.00198238,0.0058809,-0.000791505,-0.318136,0.00420931,0.0124446,1280,393,3.96024,29.1983
63,631,3.94836,-29.2345,0.00479154,-0.000296933,-0.00229163,0.00567143,-0.00117683,-0.366605,0.00422818,0.0139081,1287,393,3.94831,29.2345
70,631,3.96204,-29.2086,0.0042763,-0.000306237,-0.00242896,0.00532416,-0.0013541,-0.40728,0.00407647,0.0150375,1294,393,3.96205,29.2086
77,631,3.97351,-29.1535,0.0037251,-0.000434897,-0.00237933,0.00480543,-0.00151522,-0.426211,0.00381047,0.0162,1301,393,3.97345,29.1535
84,631,3.99438,-29.129,0.00337364,-0.000600157,-0.00211558,0.00428906,-0.00151557,-0.408377,0.00347649,0.0133011,1308,393,3.99444,29.129
91,631,3.99121,-29.0858,0.00318258,-0.000787667,-0.00223661,0.00418796,-0.00179305,-0.422449,0.00354421,0.0164697,1315,393,3.99116,29.0858
98,631,4.00867,-29.0127,0.00290007,-0.00127636,-0.00221227,0.00385402,-0.00223031,-0.407118,0.00355424,0.0137083,1322,393,4.00872,29.0127
105,631,4.02112,-28.9423,0.00279173,-0.00172406,-0.00212351,0.00363341,-0.00256574,-0.377368,0.00359673,0.0100268,1329,393,4.02115,28.9423
112,631,4.04883,-28.8734,0.00266422,-0.00198487,-0.00200754,0.00341111,-0.00273176,-0.356176,0.00355381,0.0103051,1336,393,4.04877,28.8735
119,631,4.0481,-28.7952,0.00250141,-0.00212809,-0.00188972,0.00317483,-0.0028015,-0.342325,0.00345268,0.0116951,1343,393,4.04807,28.7952
126,631,4.05298,-28.7006,0.00231734,-0.00200144,-0.0018779,0.00301967,-0.00270378,-0.357894,0.00330612,0.0166466,1350,393,4.05303,28.7006
133,631,4.0603,-28.6075,0.00207787,-0.00259315,-0.00133517,0.00243258,-0.00294786,-0.25967,0.00311114,0.0182397,1357,393,4.06027,28.6075
140,631,4.0603,-28.4867,0.00203545,-0.00219273,-0.00132895,0.00241846,-0.00257573,-0.280598,0.00288387,0.0190075,1364,393,4.06025,28.4867
147,631,4.05774,-28.3428,0.00197216,-0.00166818,-0.00125766,0.00236439,-0.00206041,-0.302315,0.00255667,0.020553,1371,393,4.05778,28.3428
154,631,4.08337,-28.2036,0.00182566,-0.00117538,-0.000997184,0.00212679,-0.00147651,-0.293271,0.00209163,0.0214431,1378,393,4.08332,28.2036
161,631,4.10791,-28.0063,0.00155548,-0.000509475,-0.00075982,0.00180493,-0.000758924,-0.317214,0.00152075,0.0241991,1385,393,4.10788,28.0063
168,631,4.09424,-27.8205,0.00116835,0.000106346,-0.000458155,0.00133868,-6.39864e-05,-0.355943,0.000914529,0.0285188,1392,393,4.09426,27.8205
175,631,4.09741,-27.7046,0.000814101,0.000561597,-0.000224347,0.000945281,0.000430417,-0.529107,0.000546484,0.0215966,1399,393,4.09741,27.7046
182,631,4.07312,-27.5638,0.000490491,0.00103821,3.86133e-05,0.00104092,0.000487783,1.50076,0.000601371,0.0109663,1406,393,4.07314,27.5638
189,631,4.047,-27.35,0.000174907,0.00147717,0.0004011,0.00159079,6.12816e-05,1.29474,0.0010407,0.0102811,1413,393,4.04705,27.35
196,631,4.03857,-27.1577,-0.000151958,0.00190669,0.000841329,0.00220678,-0.000452049,1.22818,0.00164274,0.0109494,1420,393,4.03857,27.1577
203,631,4.04443,-26.9752,-0.00050342,0.00242649,0.00119289,0.00285073,-0.000927666,1.2291,0.00227369,0.0131621,1427,393,4.04446,26.9752
210,631,4.02478,-26.7683,-0.000835852,0.00293534,0.00140038,0.00339848,-0.00129899,1.2514,0.00280092,0.0151311,1434,393,4.02473,26.7683
217,631,4.00964,-26.5651,-0.00105971,0.0033757,0.00149725,0.0038338,-0.00151782,1.27388,0.00318474,0.0161259,1441,393,4.00962,26.5651
224,631,3.99756,-26.3144,-0.00108989,0.00395408,0.00163065,0.00443534,-0.00157115,1.28381,0.00359687,0.0131084,1448,393,3.99753,26.3144
231,631,3.98962,-26.05,-0.00108773,0.00454229,0.00184733,0.00509431,-0.00163976,1.28042,0.00405486,0.0109882,1455,393,3.98958,26.05
238,631,3.96191,-25.7601,-0.0011693,0.00534017,0.00217125,0.00599793,-0.00182706,1.27664,0.00472684,0.0170029,1462,393,3.96188,25.7601
245,631,3.95715,-25.523,-0.00149705,0.00613127,0.00232271,0.00678285,-0.00214863,1.2973,0.00538299,0.0182841,1469,393,3.9571,25.523
252,631,3.91772,-25.2927,-0.00159591,0.00696831,0.00255366,0.00767194,-0.00229954,1.30193,0.00602914,0.0175223,1476,393,3.91768,25.2927
259,631,3.91553,-25.0197,-0.0016708,0.00796051,0.00284859,0.00873994,-0.00245023,1.30371,0.00679232,0.012963,1483,393,3.91554,25.0197
266,631,3.94409,-24.7414,-0.00196904,0.00882252,0.00314283,0.00967108,-0.0028176,1.30708,0.00756359,0.0122812,1490,393,3.94415,24.7414
273,631,3.91931,-24.4471,-0.00249143,0.0095609,0.00328233,0.0103968,-0.00332736,1.32142,0.00826665,0.015666,1497,393,3.91927,24.4471
280,631,3.89368,-24.1443,-0.00273922,0.010516,0.00363546,0.0114476,-0.00367083,1.31994,0.00910541,0.013303,1504,393,3.89364,24.1443
287,631,3.8811,-23.8421,-0.00288287,0.0112362,0.00414176,0.0123614,-0.00400816,1.30551,0.00985263,0.0127591,1511,393,3.8811,23.8421
294,631,3.82666,-23.4731,-0.00319605,0.0119264,0.00455517,0.0131925,-0.00446215,1.29969,0.0106002,0.0167264,1518,393,3.82667,23.4731
301,631,3.73608,-23.0918,-0.00343428,0.0124916,0.00499467,0.0139284,-0.00487108,1.29069,0.011266,0.0270394,1525,393,3.7361,23.0918
308,631,3.87732,-22.6252,-0.00353903,0.0130208,0.00544671,0.0146516,-0.0051699,1.27987,0.0118724,0.0357452,1532,393,3.8773,22.6253
315,631,3.91919,-22.4266,-0.00339775,0.0133011,0.00605791,0.0152673,-0.0053639,1.25696,0.0123604,0.0412755,1539,393,3.91914,22.4266
322,631,3.59265,-22.2593,-0.00313315,0.0136244,0.0068615,0.0160754,-0.00558415,1.22771,0.0129849,0.0445326,1546,393,3.5927,22.2593
329,631,3.20947,-21.7794,0,0,0,0,0,0,0,-1,1553,393,3.20952,21.7794
336,631,3.97192,-21.6227,0,0,0,0,0,0,0,-1,1560,393,3.97187,21.6226
343,631,4.0033,-20.6798,0,0,0,0,0,0,0,-1,1567,393,4.00328,20.6798
350,631,2.1344,-9.23401,0,0,0,0,0,0,0,-1,1574,393,2.13439,9.23401
357,631,2.6449,-9.60303,0,0,0,0,0,0,0,-1,1581,393,2.64491,9.60304
364,631,3.39136,-5.7594,0,0,0,0,0,0,0,-1,1588,393,3.39137,5.75939
371,631,3.72839,-6.0574,0,0,0,0,0,0,0,-1,1595,393,3.72845,6.05742
378,631,4.06555,-6.35544,0,0,0,0,0,0,0,-1,1602,393,4.06553,6.35544
385,631,3.90442,-3.58298,0,0,0,0,0,0,0,-1,1609,393,3.90437,3.58299
392,631,0.352295,-2.21301,0,0,0,0,0,0,0,-1,1616,393,0.352345,2.213
399,631,0,0,0,0,0,0,0,0,0,-1,1623,393,0,0
406,631,0,0,0,0,0,0,0,0,0,-1,1630,393,0,0
413,631,0,0,0,0,0,0,0,0,0,-1,1637,393,0,0
420,631,0,0,0,0,0,0,0,0,0,-1,1644,393,0,0
427,631,0,0,0,0,0,0,0,0,0,-1,1651,393,0,0
434,631,0,0,0,0,0,0,0,0,0,-1,1658,393,0,0
441,631,0,0,0,0,0,0,0,0,0,-1,1665,393,0,0
448,631,0,0,0,0,0,0,0,0,0,-1,1672,393,0,0
455,631,0,0,0,0,0,0,0,0,0,-1,1679,393,0,0
462,631,0,0,0,0,0,0,0,0,0,-1,1686,393,0,0
469,631,0,0,0,0,0,0,0,0,0,-1,1693,393,0,0
476,631,0,0,0,0,0,0,0,0,0,-1,1700,393,0,0
483,631,0,0,0,0,0,0,0,0,0,-1,1707,393,0,0
490,631,0,0,0,0,0,0,0,0,0,-1,1714,393,0,0
497,631,0,0,0,0,0,0,0,0,0,-1,1721,393,0,0
504,631,0,0,0,0,0,0,0,0,0,-1,1728,393,0,0
511,631,0,0,0,0,0,0,0,0,0,-1,1735,393,0,0
518,631,0,0,0,0,0,0,0,0,0,-1,1742,393,0,0
525,631,0,0,0,0,0,0,0,0,0,-1,1749,393,0,0
532,631,0,0,0,0,0,0,0,0,0,-1,1756,393,0,0
539,631,0,0,0,0,0,0,0,0,0,-1,1763,393,0,0
546,631,0,0,0,0,0,0,0,0,0,-1,1770,393,0,0
553,631,0,0,0,0,0,0,0,0,0,-1,1777,393,0,0
560,631,0,0,0,0,0,0,0,0,0,-1,1784,393,0,0
567,631,0,0,0,0,0,0,0,0,0,-1,1791,393,0,0
574,631,0,0,0,0,0,0,0,0,0,-1,1798,393,0,0
581,631,0,0,0,0,0,0,0,0,0,-1,1805,393,0,0
588,631,0,0,0,0,0,0,0,0,0,-1,1812,393,0,0
595,631,0,0,0,0,0,0,0,0,0,-1,1819,393,0,0
602,631,0,0,0,0,0,0,0,0,0,-1,1826,393,0,0
609,631,0,0,0,0,0,0,0,0,0,-1,1833,393,0,0
616,631,0,0,0,0,0,0,0,0,0,-1,1840,393,0,0
623,631,0,0,0,0,0,0,0,0,0,-1,1847,393,0,0
630,631,0,0,0,0,0,0,0,0,0,-1,1854,393,0,0
637,631,0,0,0,0,0,0,0,0,0,-1,1861,393,0,0
644,631,0,0,0,0,0,0,0,0,0,-1,1868,393,0,0
651,631,0,0,0,0,0,0,0,0,0,-1,1875,393,0,0
658,631,0,0,0,0,0,0,0,0,0,-1,1882,393,0,0
665,631,0,0,0,0,0,0,0,0,0,-1,1889,393,0,0
672,631,0,0,0,0,0,0,0,0,0,-1,1896,393,0,0
679,631,0,0,0,0,0,0,0,0,0,-1,1903,393,0,0
686,631,0,0,0,0,0,0,0,0,0,-1,1910,393,0,0
693,631,0,0,0,0,0,0,0,0,0,-1,1917,393,0,0
700,631,0,0,0,0,0,0,0,0,0,-1,1924,393,0,0
707,631,0,0,0,0,0,0,0,0,0,-1,1931,393,0,0
714,631,0,0,0,0,0,0,0,0,0,-1,1938,393,0,0
721,631,0,0,0,0,0,0,0,0,0,-1,1945,393,0,0
728,631,0,0,0,0,0,0,0,0,0,-1,1952,393,0,0
735,631,0,0,0,0,0,0,0,0,0,-1,1959,393,0,0
742,631,0,0,0,0,0,0,0,0,0,-1,1966,393,0,0
749,631,0,0,0,0,0,0,0,0,0,-1,1973,393,0,0
756,631,0,0,0,0,0,0,0,0,0,-1,1980,393,0,0
763,631,0,0,0,0,0,0,0,0,0,-1,1987,393,0,0
770,631,0,0,0,0,0,0,0,0,0,-1,1994,393,0,0
777,631,0,0,0,0,0,0,0,0,0,-1,2001,393,0,0
784,631,0,0,0,0,0,0,0,0,0,-1,2008,393,0,0
791,631,0,0,0,0,0,0,0,0,0,-1,2015,393,0,0
798,631,0,0,0,0,0,0,0,0,0,-1,2022,393,0,0
805,631,0,0,0,0,0,0,0,0,0,-1,2029,393,0,0
812,631,0,0,0,0,0,0,0,0,0,-1,2036,393,0,0
-700,624,0,0,0,0,0,0,0,0,0,-1,524,400,0,0
-693,624,0,0,0,0,0,0,0,0,0,-1,531,400,0,0
-686,624,0,0,0,0,0,0,0,0,0,-1,538,400,0,0
-679,624,0,0,0,0,0,0,0,0,0,-1,545,400,0,0
-672,624,0,0,0,0,0,0,0,0,0,-1,552,400,0,0
-665,624,0,0,0,0,0,0,0,0,0,-1,559,400,0,0
-658,624,0,0,0,0,0,0,0,0,0,-1,566,400,0,0
-651,624,0,0,0,0,0,0,0,0,0,-1,573,400,0,0
-644,624,0,0,0,0,0,0,0,0,0,-1,580,400,0,0
-637,624,0,0,0,0,0,0,0,0,0,-1,587,400,0,0
-630,624,0,0,0,0,0,0,0,0,0,-1,594,400,0,0
-623,624,0,0,0,0,0,0,0,0,0,-1,601,400,0,0
-616,624,0,0,0,0,0,0,0,0,0,-1,608,400,0,0
-609,624,0,0,0,0,0,0,0,0,0,-1,615,400,0,0
-602,624,0,0,0,0,0,0,0,0,0,-1,622,400,0,0
-595,624,0,0,0,0,0,0,0,0,0,-1,629,400,0,0
-588,624,0,0,0,0,0,0,0,0,0,-1,636,400,0,0
-581,624,0,0,0,0,0,0,0,0,0,-1,643,400,0,0
-574,624,0,0,0,0,0,0,0,0,0,-1,650,400,0,0
-567,624,0,0,0,0,0,0,0,0,0,-1,657,400,0,0
-560,624,0,0,0,0,0,0,0,0,0,-1,664,400,0,0
-553,624,0,0,0,0,0,0,0,0,0,-1,671,400,0,0
-546,624,0,0,0,0,0,0,0,0,0,-1,678,400,0,0
-539,624,0,0,0,0,0,0,0,0,0,-1,685,400,0,0
-532,624,0,0,0,0,0,0,0,0,0,-1,692,400,0,0
-525,624,0,0,0,0,0,0,0,0,0,-1,699,400,0,0
-518,624,0,0,0,0,0,0,0,0,0,-1,706,400,0,0
-511,624,0,0,0,0,0,0,0,0,0,-1,713,400,0,0
-504,624,0,0,0,0,0,0,0,0,0,-1,720,400,0,0
-497,624,0,0,0,0,0,0,0,0,0,-1,727,400,0,0
-490,624,0,0,0,0,0,0,0,0,0,-1,734,400,0,0
-483,624,0,0,0,0,0,0,0,0,0,-1,741,400,0,0
-476,624,0,0,0,0,0,0,0,0,0,-1,748,400,0,0
-469,624,0,0,0,0,0,0,0,0,0,-1,755,400,0,0
-462,624,0,0,0,0,0,0,0,0,0,-1,762,400,0,0
-455,624,0,0,0,0,0,0,0,0,0,-1,769,400,0,0
-448,624,0,0,0,0,0,0,0,0,0,-1,776,400,0,0
-441,624,0,0,0,0,0,0,0,0,0,-1,783,400,0,0
-434,624,0,0,0,0,0,0,0,0,0,-1,790,400,0,0
-427,624,0,0,0,0,0,0,0,0,0,-1,797,400,0,0
-420,624,0,0,0,0,0,0,0,0,0,-1,804,400,0,0
-413,624,0,0,0,0,0,0,0,0,0,-1,811,400,0,0
-406,624,0,0,0,0,0,0,0,0,0,-1,818,400,0,0
-399,624,0,0,0,0,0,0,0,0,0,-1,825,400,0,0
-392,624,0,0,0,0,0,0,0,0,0,-1,832,400,0,0
-385,624,0,0,0,0,0,0,0,0,0,-1,839,400,0,0
-378,624,0,0,0,0,0,0,0,0,0,-1,846,400,0,0
-371,624,0,0,0,0,0,0,0,0,0,-1,853,400,0,0
-364,624,0,0,0,0,0,0,0,0,0,-1,860,400,0,0
-357,624,0,0,0,0,0,0,0,0,0,-1,867,400,0,0
-350,624,0,0,0,0,0,0,0,0,0,-1,874,400,0,0
-343,624,0,0,0,0,0,0,0,0,0,-1,881,400,0,0
-336,624,0,0,0,0,0,0,0,0,0,-1,888,400,0,0
-329,624,0,0,0,0,0,0,0,0,0,-1,895,400,0,0
-322,624,0,0,0,0,0,0,0,0,0,-1,902,400,0,0
-315,624,0,0,0,0,0,0,0,0,0,-1,909,400,0,0
-308,624,0,0,0,0,0,0,0,0,0,-1,916,400,0,0
-301,624,0,0,0,0,0,0,0,0,0,-1,923,400,0,0
-294,624,-0.912903,-12.9461,0,0,0,0,0,0,0,-1,930,400,-0.912926,12.9461
-287,624,0.12146,-15.0862,0,0,0,0,0,0,0,-1,937,400,0.121451,15.0862
-280,624,1.51831,-12.2324,0,0,0,0,0,0,0,-1,944,400,1.51834,12.2324
-273,624,-0.136536,-19.7625,0,0,0,0,0,0,0,-1,951,400,-0.136554,19.7626
-266,624,1.67944,-19.7028,0,0,0,0,0,0,0,-1,958,400,1.67945,19.7028
-259,624,4.19537,-21.6596,0,0,0,0,0,0,0,-1,965,400,4.19537,21.6596
-252,624,4.69324,-21.7945,0,0,0,0,0,0,0,-1,972,400,4.69323,21.7945
-245,624,5.10236,-21.7495,0,0,0,0,0,0,0,-1,979,400,5.10236,21.7495
-238,624,5.48181,-21.7511,0,0,0,0,0,0,0,-1,986,400,5.48179,21.7511
-231,624,4.95148,-20.7456,0,0,0,0,0,0,0,-1,993,400,4.95146,20.7456
-224,624,4.01495,-21.239,0,0,0,0,0,0,0,-1,1000,400,4.01498,21.239
-217,624,4.3147,-22.035,0,0,0,0,0,0,0,-1,1007,400,4.31469,22.035
-210,624,3.99445,-22.5757,0,0,0,0,0,0,0,-1,1014,400,3.99446,22.5757
-203,624,3.61145,-22.9055,0.0227467,0.020021,0.0176492,0.0390855,0.00368213,0.746865,0.0249205,0.044663,1021,400,3.61142,22.9055
-196,624,4.01709,-22.8959,0.0142138,0.0185462,0.0110699,0.0276599,0.00510016,0.882018,0.0169969,0.0425019,1028,400,4.01705,22.8959
-189,624,3.95837,-22.9832,0.00600718,0.0172768,0.00375464,0.0184132,0.00487084,1.27691,0.0110168,0.039559,1035,400,3.95837,22.9832
-182,624,3.97095,-23.4889,0.000606672,0.0135708,-0.00323787,0.0143345,-0.000157021,-1.33917,0.00960909,0.0341403,1042,400,3.97095,23.4889
-175,624,3.9751,-24.0087,-0.00044974,0.0119126,-0.00253838,0.0124135,-0.000950656,-1.37596,0.00861004,0.0214918,1049,400,3.97507,24.0087
-168,624,3.89099,-24.3264,-0.00165315,0.010165,-0.00169943,0.0104045,-0.00189268,-1.43078,0.00764574,0.0129192,1056,400,3.89102,24.3264
-161,624,3.854,-24.6391,-0.00287392,0.00902332,-0.000592157,0.00905272,-0.00290332,-1.52119,0.00720074,0.0103264,1063,400,3.85404,24.6391
-154,624,3.85132,-24.907,-0.00371034,0.00806308,0.000459442,0.00808098,-0.00372824,1.53185,0.00697073,0.0105312,1070,400,3.85127,24.907
-147,624,3.83508,-25.1718,-0.00440079,0.00711495,0.00108512,0.0072163,-0.00450215,1.47766,0.00682587,0.0112952,1077,400,3.83505,25.1718
-140,624,3.80042,-25.4466,-0.00465999,0.00596902,0.00148525,0.00617266,-0.00486363,1.43454,0.00638673,0.00995325,1084,400,3.80038,25.4466
-133,624,3.7832,-25.6968,-0.00463524,0.00494987,0.0019041,0.00531427,-0.00499963,1.38171,0.00595566,0.0110019,1091,400,3.78315,25.6968
-126,624,3.77502,-25.9281,-0.00448952,0.0043529,0.00220146,0.00487067,-0.00500729,1.3398,0.00570323,0.0128298,1098,400,3.77505,25.9281
-119,624,3.74817,-26.1611,-0.0041071,0.00409392,0.00231229,0.00470094,-0.00471412,1.31407,0.00543579,0.0148743,1105,400,3.74814,26.1611
-112,624,3.74573,-26.3978,-0.00357386,0.00391544,0.00225317,0.00454106,-0.00419947,1.29996,0.00504763,0.016221,1112,400,3.74571,26.3978
-105,624,3.77576,-26.6164,-0.00291149,0.00381184,0.00197686,0.00435001,-0.00344966,1.305,0.00451313,0.0126177,1119,400,3.7758,26.6164
-98,624,3.71924,-26.8383,-0.00224455,0.00361479,0.00151822,0.00398481,-0.00261457,1.33174,0.00383743,0.0135802,1126,400,3.7193,26.8383
-91,624,3.72986,-27.0432,-0.00144461,0.00336049,0.000961675,0.00354581,-0.00162993,1.38043,0.0030557,0.0195889,1133,400,3.72982,27.0431
-84,624,3.75879,-27.2455,-0.000655172,0.00290393,0.000548917,0.00298667,-0.000737908,1.4212,0.00227729,0.0187481,1140,400,3.75884,27.2455
-77,624,3.72974,-27.4421,-0.000138091,0.00256649,0.000231553,0.00258617,-0.000157773,1.486,0.00177904,0.0133662,1147,400,3.72968,27.4421
-70,624,3.71655,-27.6043,0.000479362,0.00186287,7.22007e-05,0.00186663,0.000475605,1.5188,0.00112006,0.0139909,1154,400,3.71655,27.6043
-63,624,3.73193,-27.7763,0.00124912,0.00144482,-0.00011902,0.00150105,0.00119289,-1.12944,0.000915435,0.0151938,1161,400,3.73191,27.7763
-56,624,3.72205,-27.9555,0.00169176,0.000933947,-0.000335791,0.00181914,0.000806567,-0.362572,0.00105252,0.0125165,1168,400,3.72208,27.9555
-49,624,3.72998,-28.1058,0.00188431,-4.2784e-05,-0.00060284,0.00205735,-0.000215828,-0.279533,0.00144888,0.0100996,1175,400,3.72995,28.1058
-42,624,3.73926,-28.2231,0.00256349,-0.000933371,-0.000321773,0.00259285,-0.000962733,-0.0909995,0.00212352,0.00961485,1182,400,3.73931,28.2231
-35,624,3.72253,-28.3531,0.00338219,-0.00190542,-5.03014e-05,0.00338267,-0.0019059,-0.00951191,0.00309278,0.0153214,1189,400,3.72252,28.3531
-28,624,3.69458,-28.5164,0.0045994,-0.00275295,5.39439e-05,0.0045998,-0.00275335,0.00733643,0.00428972,0.0190328,1196,400,3.69461,28.5164
-21,624,3.72021,-28.6195,0.0057382,-0.00345457,-0.000324792,0.00574966,-0.00346603,-0.0352727,0.00537485,0.0132921,1203,400,3.7202,28.6195
-14,624,3.7738,-28.712,0.00684934,-0.00422707,-0.000353647,0.00686062,-0.00423835,-0.0318846,0.00646733,0.0150808,1210,400,3.77385,28.712
-7,624,3.79004,-28.782,0.0081467,-0.00460078,-0.000472879,0.00816422,-0.00461829,-0.037028,0.00747404,0.0196459,1217,400,3.79,28.782
0,624,3.83752,-28.8549,0.00924852,-0.0048724,-0.000679002,0.00928109,-0.00490498,-0.0479374,0.00831922,0.0195006,1224,400,3.83749,28.8549
7,624,3.81335,-28.9479,0.0102156,-0.00506834,-0.00085275,0.010263,-0.00511577,-0.055564,0.0090432,0.0144309,1231,400,3.81332,28.9479
14,624,3.84509,-29.0451,0.010863,-0.00507428,-0.000955931,0.0109202,-0.00513141,-0.0596954,0.00946614,0.0116122,1238,400,3.84512,29.0451
21,624,3.85962,-29.0795,0.0112236,-0.00569932,-0.0008529,0.0112664,-0.0057422,-0.0502295,0.00999111,0.0128821,1245,400,3.85964,29.0795
28,624,3.86218,-29.1209,0.0115187,-0.00461823,-0.00169871,0.0116956,-0.00479511,-0.103753,0.00979483,0.0120941,1252,400,3.86224,29.1209
35,624,3.87878,-29.1487,0.0112481,-0.00448493,-0.00182777,0.0114577,-0.00469448,-0.114149,0.00959407,0.014201,1259,400,3.87876,29.1487
42,624,3.9231,-29.185,0.0104867,-0.00467384,-0.00173996,0.0106839,-0.00487097,-0.112814,0.00918725,0.017032,1266,400,3.92306,29.185
49,624,3.96729,-29.1825,0.00970495,-0.00494396,-0.00194878,0.00995977,-0.00519878,-0.13002,0.00889452,0.0188872,1273,400,3.96734,29.1825
56,624,3.95032,-29.2083,0.00891189,-0.00548681,-0.00201188,0.00918772,-0.00576264,-0.136251,0.00870677,0.0178665,1280,400,3.95036,29.2083
63,624,3.97864,-29.2163,0.00795522,-0.00631698,-0.00252553,0.00838894,-0.00675071,-0.170077,0.00875792,0.0138068,1287,400,3.97865,29.2163
70,624,3.98462,-29.2075,0.00702238,-0.00694059,-0.00282517,0.00757235,-0.00749055,-0.192261,0.00869661,0.0124599,1294,400,3.98466,29.2075
77,624,4.00488,-29.1601,0.00601469,-0.00767,-0.00293808,0.00661882,-0.00827413,-0.202794,0.00861613,0.0137982,1301,400,4.00484,29.1601
84,624,4.03699,-29.1275,0.00559032,-0.00829161,-0.00267763,0.00608889,-0.00879018,-0.18409,0.00863749,0.0123643,1308,400,4.03705,29.1275
91,624,4.05225,-29.0837,0.00541682,-0.00870659,-0.00296157,0.0060127,-0.00930247,-0.198552,0.00890996,0.0131138,1315,400,4.05225,29.0837
98,624,4.07935,-29.0373,0.00519152,-0.00933739,-0.00300827,0.00578976,-0.00993563,-0.196305,0.00918363,0.013043,1322,400,4.07936,29.0373
105,624,4.10242,-28.9879,0.00531115,-0.00975804,-0.00291977,0.0058571,-0.010304,-0.184849,0.00944761,0.013683,1329,400,4.10248,28.9879
112,624,4.12708,-28.9146,0.0053187,-0.00986736,-0.00275825,0.00580416,-0.0103528,-0.17422,0.00945066,0.0141967,1336,400,4.1271,28.9146
119,624,4.12402,-28.8371,0.005409,-0.00976334,-0.00256439,0.00583071,-0.010185,-0.162988,0.00935992,0.0149552,1343,400,4.12406,28.8371
126,624,4.1488,-28.7372,0.00539894,-0.00903337,-0.00245626,0.00580553,-0.00943996,-0.164041,0.00888497,0.0183333,1350,400,4.14874,28.7372
133,624,4.19275,-28.6249,0.00513956,-0.0093492,-0.00166083,0.0053275,-0.00953714,-0.112682,0.00869607,0.0183366,1357,400,4.19273,28.6249
140,624,4.18433,-28.4891,0.00505999,-0.00826726,-0.00161645,0.00525324,-0.00846052,-0.118991,0.0079895,0.017877,1364,400,4.18432,28.4891
147,624,4.14197,-28.3403,0.00490917,-0.00725657,-0.00152315,0.00509697,-0.00744437,-0.122677,0.0072829,0.0218398,1371,400,4.14192,28.3403
154,624,4.17297,-28.1891,0.00459796,-0.00632345,-0.0011686,0.0047216,-0.00644709,-0.105411,0.00647384,0.0257371,1378,400,4.173,28.1891
161,624,4.2406,-27.9872,0.00405264,-0.00522064,-0.000908644,0.00414083,-0.00530883,-0.0967591,0.00546964,0.0247205,1385,400,4.24059,27.9872
168,624,4.27295,-27.8146,0.0033313,-0.00414032,-0.000573794,0.0033751,-0.00418413,-0.076201,0.00437265,0.0230172,1392,400,4.27299,27.8146
175,624,4.25281,-27.733,0.00272456,-0.0032679,-0.000396823,0.00275073,-0.00329406,-0.0658372,0.00349466,0.0169555,1399,400,4.25282,27.733
182,624,4.24524,-27.5939,0.00216931,-0.00235314,-0.000223912,0.00218037,-0.0023642,-0.0493502,0.00262452,0.0102997,1406,400,4.24519,27.5939
189,624,4.23254,-27.3725,0.00156774,-0.0014244,2.42709e-05,0.00156794,-0.00142459,0.00811085,0.0017284,0.0103604,1413,400,4.23257,27.3725
196,624,4.22681,-27.1671,0.00108033,-0.000576245,0.00030735,0.00113551,-0.00063143,0.177659,0.00103389,0.0109215,1420,400,4.22678,27.1671
203,624,4.26208,-26.9624,0.000645209,0.000604414,0.000454468,0.00107974,0.000169885,0.762972,0.00067041,0.0133452,1427,400,4.26212,26.9624
210,624,4.26355,-26.7739,0.000183489,0.00163354,0.000690013,0.0019094,-9.23755e-05,1.19047,0.00130482,0.0172196,1434,400,4.26355,26.7739
217,624,4.23181,-26.5346,-0.000102941,0.00237758,0.000858791,0.00264589,-0.000371246,1.26798,0.0018998,0.0205845,1441,400,4.23179,26.5346
224,624,4.21973,-26.2783,-0.000236737,0.00294443,0.00106424,0.00326763,-0.000559934,1.27596,0.00238706,0.0163893,1448,400,4.21968,26.2783
231,624,4.23157,-26.0753,-0.000326418,0.00350116,0.00133467,0.00392059,-0.000745851,1.26631,0.00289455,0.0115112,1455,400,4.23154,26.0753
238,624,4.21582,-25.8329,-0.000440615,0.00417899,0.0016446,0.00470466,-0.000966283,1.26143,0.00350324,0.0171768,1462,400,4.21584,25.8329
245,624,4.21497,-25.5977,-0.000705401,0.00484156,0.00181736,0.00538395,-0.00124779,1.28076,0.0040695,0.0181771,1469,400,4.21493,25.5977
252,624,4.19214,-25.3184,-0.000826585,0.00553913,0.00203046,0.00613163,-0.00141909,1.28687,0.00463379,0.0132862,1476,400,4.19216,25.3184
259,624,4.17456,-25.0531,-0.000942055,0.00633476,0.00229377,0.00699744,-0.00160474,1.28955,0.00528177,0.00915415,1483,400,4.17456,25.0531
266,624,4.19202,-24.7568,-0.00122092,0.00700677,0.00255485,0.00773555,-0.00194969,1.29292,0.00591503,0.0135559,1490,400,4.19201,24.7568
273,624,4.18384,-24.4611,-0.00165817,0.0075797,0.00269085,0.00830634,-0.00238482,1.30704,0.00648046,0.0175785,1497,400,4.18384,24.4611
280,624,4.14758,-24.1883,-0.00188451,0.00829541,0.00299851,0.00911297,-0.00270206,1.30461,0.00714831,0.0156416,1504,400,4.14761,24.1883
287,624,4.11108,-23.9154,-0.00199963,0.00885363,0.0034411,0.00985269,-0.00299869,1.28823,0.00776352,0.0111275,1511,400,4.11105,23.9154
294,624,4.07898,-23.5896,-0.0022263,0.00936867,0.00379245,0.0104989,-0.00335655,1.28115,0.00834623,0.00956168,1518,400,4.07903,23.5896
301,624,4.05603,-23.2343,-0.00238134,0.00979571,0.00417391,0.011089,-0.00367466,1.27032,0.00887489,0.0112405,1525,400,4.05606,23.2343
308,624,4.08081,-22.8745,-0.00242498,0.0102052,0.00459298,0.0116988,-0.0039186,1.25639,0.00938226,0.0152807,1532,400,4.0808,22.8745
315,624,4.07556,-22.54,-0.00230776,0.010448,0.00511029,0.0122428,-0.00410254,1.23304,0.00981933,0.0185632,1539,400,4.07551,22.54
322,624,4.02686,-22.2263,-0.00211084,0.0107111,0.00574542,0.0129089,-0.00430861,1.20545,0.0103457,0.0281184,1546,400,4.02691,22.2263
329,624,4.10461,-21.8518,-0.00193296,0.0108089,0.00632602,0.0134161,-0.00454019,1.17987,0.010781,0.0416353,1553,400,4.10458,21.8518
336,624,4.25037,-21.4767,-0.00158543,0.0108528,0.006819,0.0138628,-0.00459541,1.15511,0.0110955,0.0431926,1560,400,4.25033,21.4767
343,624,4.36865,-20.9861,0,0,0,0,0,0,0,-1,1567,400,4.36863,20.9861
350,624,1.99194,-7.29742,0,0,0,0,0,0,0,-1,1574,400,1.99198,7.29741
357,624,2.64075,-3.13092,0,0,0,0,0,0,0,-1,1581,400,2.64076,3.13091
364,624,3.16565,-4.9458,0,0,0,0,0,0,0,-1,1588,400,3.16564,4.94579
371,624,3.37561,-5.23529,0,0,0,0,0,0,0,-1,1595,400,3.37563,5.23529
378,624,1.50439,-5.22165,0,0,0,0,0,0,0,-1,1602,400,1.50438,5.22164
385,624,1.2301,-10.5866,0,0,0,0,0,0,0,-1,1609,400,1.2301,10.5866
392,624,4.26819,-5.14236,0,0,0,0,0,0,0,-1,1616,400,4.26818,5.14236
399,624,3.86841,-2.36917,0,0,0,0,0,0,0,-1,1623,400,3.86838,2.36916
406,624,4.35376,-2.6962,0,0,0,0,0,0,0,-1,1630,400,4.35373,2.69619
413,624,0,0,0,0,0,0,0,0,0,-1,1637,400,0,0
420,624,0,0,0,0,0,0,0,0,0,-1,1644,400,0,0
427,624,0,0,0,0,0,0,0,0,0,-1,1651,400,0,0
434,624,0,0,0,0,0,0,0,0,0,-1,1658,400,0,0
441,624,0,0,0,0,0,0,0,0,0,-1,1665,400,0,0
448,624,0,0,0,0,0,0,0,0,0,-1,1672,400,0,0
455,624,0,0,0,0,0,0,0,0,0,-1,1679,400,0,0
462,624,0,0,0,0,0,0,0,0,0,-1,1686,400,0,0
469,624,0,0,0,0,0,0,0,0,0,-1,1693,400,0,0
476,624,0,0,0,0,0,0,0,0,0,-1,1700,400,0,0
483,624,0,0,0,0,0,0,0,0,0,-1,1707,400,0,0
490,624,0,0,0,0,0,0,0,0,0,-1,1714,400,0,0
497,624,0,0,0,0,0,0,0,0,0,-1,1721,400,0,0
504,624,0,0,0,0,0,0,0,0,0,-1,1728,400,0,0
511,624,0,0,0,0,0,0,0,0,0,-1,1735,400,0,0
518,624,0,0,0,0,0,0,0,0,0,-1,1742,400,0,0
525,624,0,0,0,0,0,0,0,0,0,-1,1749,400,0,0
532,624,0,0,0,0,0,0,0,0,0,-1,1756,400,0,0
539,624,0,0,0,0,0,0,0,0,0,-1,1763,400,0,0
546,624,0,0,0,0,0,0,0,0,0,-1,1770,400,0,0
553,624,0,0,0,0,0,0,0,0,0,-1,1777,400,0,0
560,624,0,0,0,0,0,0,0,0,0,-1,1784,400,0,0
567,624,0,0,0,0,0,0,0,0,0,-1,1791,400,0,0
574,624,0,0,0,0,0,0,0,0,0,-1,1798,400,0,0
581,624,0,0,0,0,0,0,0,0,0,-1,1805,400,0,0
588,624,0,0,0,0,0,0,0,0,0,-1,1812,400,0,0
595,624,0,0,0,0,0,0,0,0,0,-1,1819,400,0,0
602,624,0,0,0,0,0,0,0,0,0,-1,1826,400,0,0
609,624,0,0,0,0,0,0,0,0,0,-1,1833,400,0,0
616,624,0,0,0,0,0,0,0,0,0,-1,1840,400,0,0
623,624,0,0,0,0,0,0,0,0,0,-1,1847,400,0,0
630,624,0,0,0,0,0,0,0,0,0,-1,1854,400,0,0
637,624,0,0,0,0,0,0,0,0,0,-1,1861,400,0,0
644,624,0,0,0,0,0,0,0,0,0,-1,1868,400,0,0
651,624,0,0,0,0,0,0,0,0,0,-1,1875,400,0,0
658,624,0,0,0,0,0,0,0,0,0,-1,1882,400,0,0
665,624,0,0,0,0,0,0,0,0,0,-1,1889,400,0,0
672,624,0,0,0,0,0,0,0,0,0,-1,1896,400,0,0
679,624,0,0,0,0,0,0,0,0,0,-1,1903,400,0,0
686,624,0,0,0,0,0,0,0,0,0,-1,1910,400,0,0
693,624,0,0,0,0,0,0,0,0,0,-1,1917,400,0,0
700,624,0,0,0,0,0,0,0,0,0,-1,1924,400,0,0
707,624,0,0,0,0,0,0,0,0,0,-1,1931,400,0,0
714,624,0,0,0,0,0,0,0,0,0,-1,1938,400,0,0
721,624,0,0,0,0,0,0,0,0,0,-1,1945,400,0,0
728,624,0,0,0,0,0,0,0,0,0,-1,1952,400,0,0
735,624,0,0,0,0,0,0,0,0,0,-1,1959,400,0,0
742,624,0,0,0,0,0,0,0,0,0,-1,1966,400,0,0
749,624,0,0,0,0,0,0,0,0,0,-1,1973,400,0,0
756,624,0,0,0,0,0,0,0,0,0,-1,1980,400,0,0
763,624,0,0,0,0,0,0,0,0,0,-1,1987,400,0,0
770,624,0,0,0,0,0,0,0,0,0,-1,1994,400,0,0
777,624,0,0,0,0,0,0,0,0,0,-1,2001,400,0,0
784,624,0,0,0,0,0,0,0,0,0,-1,2008,400,0,0
791,624,0,0,0,0,0,0,0,0,0,-1,2015,400,0,0
798,624,0,0,0,0,0,0,0,0,0,-1,2022,400,0,0
805,624,0,0,0,0,0,0,0,0,0,-1,2029,400,0,0
812,624,0,0,0,0,0,0,0,0,0,-1,2036,400,0,0
-700,617,0,0,0,0,0,0,0,0,0,-1,524,407,0,0
-693,617,0,0,0,0,0,0,0,0,0,-1,531,407,0,0
-686,617,0,0,0,0,0,0,0,0,0,-1,538,407,0,0
-679,617,0,0,0,0,0,0,0,0,0,-1,545,407,0,0
-672,617,0,0,0,0,0,0,0,0,0,-1,552,407,0,0
-665,617,0,0,0,0,0,0,0,0,0,-1,559,407,0,0
-658,617,0,0,0,0,0,0,0,0,0,-1,566,407,0,0
-651,617,0,0,0,0,0,0,0,0,0,-1,573,407,0,0
-644,617,0,0,0,0,0,0,0,0,0,-1,580,407,0,0
-637,617,0,0,0,0,0,0,0,0,0,-1,587,407,0,0
-630,617,0,0,0,0,0,0,0,0,0,-1,594,407,0,0
-623,617,0,0,0,0,0,0,0,0,0,-1,601,407,0,0
-616,617,0,0,0,0,0,0,0,0,0,-1,608,407,0,0
-609,617,0,0,0,0,0,0,0,0,0,-1,615,407,0,0
-602,617,0,0,0,0,0,0,0,0,0,-1,622,407,0,0
-595,617,0,0,0,0,0,0,0,0,0,-1,629,407,0,0
-588,617,0,0,0,0,0,0,0,0,0,-1,636,407,0,0
-581,617,0,0,0,0,0,0,0,0,0,-1,643,407,0,0
-574,617,0,0,0,0,0,0,0,0,0,-1,650,407,0,0
-567,617,0,0,0,0,0,0,0,0,0,-1,657,407,0,0
-560,617,0,0,0,0,0,0,0,0,0,-1,664,407,0,0
-553,617,0,0,0,0,0,0,0,0,0,-1,671,407,0,0
-546,617,0,0,0,0,0,0,0,0,0,-1,678,407,0,0
-539,617,0,0,0,0,0,0,0,0,0,-1,685,407,0,0
-532,617,0,0,0,0,0,0,0,0,0,-1,692,407,0,0
-525,617,0,0,0,0,0,0,0,0,0,-1,699,407,0,0
-518,617,0,0,0,0,0,0,0,0,0,-1,706,407,0,0
-511,617,0,0,0,0,0,0,0,0,0,-1,713,407,0,0
-504,617,0,0,0,0,0,0,0,0,0,-1,720,407,0,0
-497,617,0,0,0,0,0,0,0,0,0,-1,727,407,0,0
-490,617,0,0,0,0,0,0,0,0,0,-1,734,407,0,0
-483,617,0,0,0,0,0,0,0,0,0,-1,741,407,0,0
-476,617,0,0,0,0,0,0,0,0,0,-1,748,407,0,0
-469,617,0,0,0,0,0,0,0,0,0,-1,755,407,0,0
-462,617,0,0,0,0,0,0,0,0,0,-1,762,407,0,0
-455,617,0,0,0,0,0,0,0,0,0,-1,769,407,0,0
-448,617,0,0,0,0,0,0,0,0,0,-1,776,407,0,0
-441,617,0,0,0,0,0,0,0,0,0,-1,783,407,0,0
-434,617,0,0,0,0,0,0,0,0,0,-1,790,407,0,0
-427,617,0,0,0,0,0,0,0,0,0,-1,797,407,0,0
-420,617,0,0,0,0,0,0,0,0,0,-1,804,407,0,0
-413,617,0,0,0,0,0,0,0,0,0,-1,811,407,0,0
-406,617,0,0,0,0,0,0,0,0,0,-1,818,407,0,0
-399,617,0,0,0,0,0,0,0,0,0,-1,825,407,0,0
-392,617,0,0,0,0,0,0,0,0,0,-1,832,407,0,0
-385,617,0,0,0,0,0,0,0,0,0,-1,839,407,0,0
-378,617,0,0,0,0,0,0,0,0,0,-1,846,407,0,0
-371,617,0,0,0,0,0,0,0,0,0,-1,853,407,0,0
-364,617,0,0,0,0,0,0,0,0,0,-1,860,407,0,0
-357,617,0,0,0,0,0,0,0,0,0,-1,867,407,0,0
-350,617,0,0,0,0,0,0,0,0,0,-1,874,407,0,0
-343,617,0,0,0,0,0,0,0,0,0,-1,881,407,0,0
-336,617,0,0,0,0,0,0,0,0,0,-1,888,407,0,0
-329,617,0,0,0,0,0,0,0,0,0,-1,895,407,0,0
-322,617,0,0,0,0,0,0,0,0,0,-1,902,407,0,0
-315,617,0,0,0,0,0,0,0,0,0,-1,909,407,0,0
-308,617,0,0,0,0,0,0,0,0,0,-1,916,407,0,0
-301,617,3.0321,-13.8866,0,0,0,0,0,0,0,-1,923,407,3.03209,13.8866
-294,617,-0.867493,-11.1655,0,0,0,0,0,0,0,-1,930,407,-0.867487,11.1655
-287,617,-0.212524,-10.7744,0,0,0,0,0,0,0,-1,937,407,-0.212541,10.7743
-280,617,2.19739,-11.6377,0,0,0,0,0,0,0,-1,944,407,2.19737,11.6377
-273,617,2.42114,-9.26978,0,0,0,0,0,0,0,-1,951,407,2.42112,9.26979
-266,617,1.25659,-18.489,0,0,0,0,0,0,0,-1,958,407,1.25662,18.489
-259,617,2.80859,-20.0673,0,0,0,0,0,0,0,-1,965,407,2.80857,20.0673
-252,617,3.94702,-20.9998,0,0,0,0,0,0,0,-1,972,407,3.94699,20.9998
-245,617,4.20435,-21.4792,0,0,0,0,0,0,0,-1,979,407,4.20437,21.4792
-238,617,4.46173,-21.9587,0,0,0,0,0,0,0,-1,986,407,4.46174,21.9587
-231,617,3.6618,-20.8653,0,0,0,0,0,0,0,-1,993,407,3.66182,20.8652
-224,617,3.71814,-21.4326,0.0292018,0.0187703,0.02803,0.0524971,-0.00452507,0.693411,0.0365998,0.0496076,1000,407,3.71816,21.4326
-217,617,3.87512,-22.0529,0.0241191,0.017828,0.021217,0.0424224,-0.000475381,0.711806,0.0284414,0.0424246,1007,407,3.87513,22.0529
-210,617,3.75391,-22.5353,0.0191083,0.0167505,0.0149048,0.0328808,0.00297811,0.745933,0.0209983,0.0282593,1014,407,3.75389,22.5353
-203,617,3.70947,-22.8357,0.0145803,0.0154027,0.00986976,0.0248698,0.00511316,0.806216,0.0151656,0.020963,1021,407,3.7095,22.8357
-196,617,3.71802,-23.1101,0.00895794,0.0141756,0.00568438,0.0178212,0.00531233,1.00053,0.010565,0.0165661,1028,407,3.71804,23.1101
-189,617,3.67004,-23.421,0.0037627,0.0131545,0.00120652,0.013307,0.00361018,1.44505,0.00794618,0.0137381,1035,407,3.67002,23.421
-182,617,3.66699,-23.7393,0.000488554,0.0106448,-0.00274662,0.01134,-0.000206641,-1.32289,0.00762983,0.0153856,1042,407,3.66697,23.7393
-175,617,3.67188,-24.0219,-0.000206781,0.00921644,-0.00208966,0.00965904,-0.000649388,-1.36207,0.00666638,0.0145311,1049,407,3.67185,24.0219
-168,617,3.63684,-24.3412,-0.00103344,0.00772309,-0.00137467,0.00793383,-0.00124418,-1.41868,0.005749,0.0107295,1056,407,3.63679,24.3412
-161,617,3.58667,-24.6589,-0.0017224,0.00656938,-0.000744168,0.00663564,-0.00178866,-1.48199,0.00512509,0.0109429,1063,407,3.58668,24.6589
-154,617,3.57275,-24.9239,-0.00211519,0.00554224,-0.000184713,0.0055467,-0.00211965,-1.54669,0.0045712,0.0115768,1070,407,3.57272,24.9239
-147,617,3.54932,-25.1885,-0.00250071,0.00454471,0.000213133,0.00455116,-0.00250715,1.54058,0.00413168,0.0159611,1077,407,3.54931,25.1885
-140,617,3.54419,-25.473,-0.00253316,0.00335796,0.000399414,0.00338492,-0.00256011,1.50341,0.00344336,0.0122239,1084,407,3.54418,25.473
-133,617,3.54626,-25.7078,-0.00232979,0.00223923,0.000593372,0.00231503,-0.0024056,1.44374,0.00272562,0.0140222,1091,407,3.54621,25.7078
-126,617,3.54089,-25.9238,-0.00202529,0.00148874,0.000688054,0.00161866,-0.00215521,1.38417,0.00218617,0.0138407,1098,407,3.54088,25.9238
-119,617,3.50903,-26.1861,-0.00151171,0.00112889,0.000612673,0.00126412,-0.00164694,1.35356,0.00168554,0.014044,1105,407,3.50906,26.1861
-112,617,3.49658,-26.4114,-0.000902764,0.000858017,0.000456256,0.000969219,-0.00101397,1.33173,0.00114509,0.014668,1112,407,3.49659,26.4114
-105,617,3.49646,-26.6227,-0.000223604,0.000737806,0.000180011,0.000770405,-0.000256203,1.39164,0.000616998,0.01562,1119,407,3.4965,26.6227
-98,617,3.51599,-26.8304,0.00044521,0.000601267,-0.0001748,0.000714663,0.000331814,-0.995321,0.000412962,0.0135224,1126,407,3.51605,26.8304
-91,617,3.53259,-27.0297,0.00114973,0.000522448,-0.00055022,0.00146942,0.000202754,-0.526354,0.000919511,0.0189665,1133,407,3.53265,27.0297
-84,617,3.55945,-27.242,0.00174835,0.000389295,-0.000814601,0.00212964,8.00553e-06,-0.437778,0.0014171,0.0189352,1140,407,3.55951,27.242
-77,617,3.55359,-27.4357,0.0021583,0.000319604,-0.000993288,0.0025924,-0.000114496,-0.412019,0.00176767,0.0143729,1147,407,3.55364,27.4357
-70,617,3.56262,-27.6104,0.00278385,-0.000120524,-0.000924239,0.00305302,-0.000389692,-0.283394,0.0021769,0.0157871,1154,407,3.56259,27.6104
-63,617,3.57532,-27.7892,0.00390999,-0.000362196,-0.000828533,0.00406504,-0.000517251,-0.185004,0.00289788,0.0174027,1161,407,3.57537,27.7892
-56,617,3.57251,-27.9474,0.00423017,-0.000599102,-0.000734227,0.00433933,-0.000708264,-0.147595,0.00315558,0.0128152,1168,407,3.57252,27.9474
-49,617,3.59131,-28.1111,0.00390012,-0.00192923,-0.00162809,0.00432401,-0.00235312,-0.254705,0.00391062,0.0101052,1175,407,3.59135,28.1111
-42,617,3.6123,-28.2638,0.00491337,-0.0030987,-0.00135447,0.00513616,-0.00332148,-0.163021,0.00492034,0.0115389,1182,407,3.6123,28.2638
-35,617,3.62134,-28.378,0.00608403,-0.00443568,-0.00109847,0.0061975,-0.00454916,-0.10294,0.00622887,0.0173491,1189,407,3.62138,28.378
-28,617,3.59851,-28.5011,0.00780905,-0.00554189,-0.00105523,0.00789193,-0.00562478,-0.0783896,0.00784038,0.0193352,1196,407,3.59854,28.5011
-21,617,3.64734,-28.6014,0.00924135,-0.00645597,-0.00171924,0.00942745,-0.00664207,-0.107822,0.00932408,0.013529,1203,407,3.64737,28.6014
-14,617,3.66626,-28.6977,0.0107195,-0.00741626,-0.00174323,0.0108855,-0.0075823,-0.0949625,0.0107191,0.0144978,1210,407,3.66629,28.6977
-7,617,3.65588,-28.7822,0.0124834,-0.00781356,-0.00178132,0.0126386,-0.00796871,-0.0868781,0.011999,0.0179756,1217,407,3.65591,28.7822
0,617,3.71338,-28.8601,0.0139733,-0.00809452,-0.00189159,0.0141342,-0.00825548,-0.084892,0.0130744,0.0163225,1224,407,3.71335,28.8601
7,617,3.75879,-28.9706,0.0153042,-0.00832542,-0.00191426,0.0154582,-0.00847949,-0.0803133,0.0140149,0.011848,1231,407,3.75878,28.9706
14,617,3.78296,-29.0309,0.0161799,-0.00809779,-0.00170089,0.0162984,-0.00821638,-0.0696068,0.0144077,0.0136047,1238,407,3.78295,29.0309
21,617,3.80371,-29.0579,0.0166102,-0.00905055,-0.00120322,0.0166665,-0.00910684,-0.0467529,0.0150921,0.0124716,1245,407,3.80365,29.0579
28,617,3.82739,-29.1336,0.016905,-0.00790906,-0.00186172,0.0170439,-0.00804796,-0.0744713,0.0147939,0.0112091,1252,407,3.82743,29.1336
35,617,3.8219,-29.182,0.0164778,-0.0080046,-0.00163253,0.0165861,-0.00811299,-0.0662906,0.0145371,0.0126466,1259,407,3.82195,29.182
42,617,3.92175,-29.1595,0.0152415,-0.00866297,-0.00118182,0.0152998,-0.00872125,-0.0492792,0.0140408,0.0192599,1266,407,3.92177,29.1595
49,617,3.96716,-29.1617,0.0139607,-0.00955493,-0.00120923,0.0140227,-0.00961695,-0.0512423,0.0137271,0.0204089,1273,407,3.96719,29.1617
56,617,3.93335,-29.1754,0.0128677,-0.0107189,-0.000978511,0.0129083,-0.0107594,-0.041391,0.0136833,0.0142921,1280,407,3.9333,29.1754
63,617,3.97681,-29.1942,0.0115433,-0.0122791,-0.00163863,0.0116555,-0.0123913,-0.0683561,0.0138856,0.0103065,1287,407,3.97675,29.1943
70,617,3.99304,-29.1954,0.0102365,-0.0136061,-0.00208356,0.0104172,-0.0137868,-0.0865145,0.0140192,0.0144961,1294,407,3.99304,29.1954
77,617,4.04944,-29.1559,0.00882913,-0.0150331,-0.00235399,0.00905913,-0.0152631,-0.0973984,0.0141939,0.0136267,1301,407,4.04941,29.1559
84,617,4.08862,-29.1356,0.00841567,-0.0161526,-0.00224701,0.00861949,-0.0163564,-0.0904599,0.0146487,0.0109421,1308,407,4.08865,29.1356
91,617,4.10339,-29.0856,0.00838845,-0.0168566,-0.00293384,0.00872492,-0.017193,-0.114187,0.0152276,0.0101552,1315,407,4.10338,29.0856
98,617,4.14844,-29.0291,0.00833482,-0.0177181,-0.00328604,0.00874289,-0.0181261,-0.123552,0.015825,0.0115177,1322,407,4.14844,29.0291
105,617,4.17273,-28.9684,0.00884384,-0.0181446,-0.00345097,0.00927812,-0.0185789,-0.125186,0.0163793,0.0135658,1329,407,4.17279,28.9684
112,617,4.19983,-28.8882,0.00921635,-0.0180849,-0.00346171,0.00964845,-0.018517,-0.124179,0.0165278,0.0165763,1336,407,4.19985,28.8881
119,617,4.20374,-28.802,0.00970849,-0.0177751,-0.00345262,0.0101356,-0.0182022,-0.123077,0.0165803,0.0195605,1343,407,4.2037,28.802
126,617,4.21912,-28.7229,0.0099966,-0.0163597,-0.00346499,0.0104445,-0.0168076,-0.128557,0.0158764,0.0216401,1350,407,4.21909,28.7229
133,617,4.26904,-28.6091,0.00984728,-0.0163102,-0.00260361,0.0101039,-0.0165669,-0.0982516,0.0155483,0.0183055,1357,407,4.26906,28.6091
140,617,4.302,-28.4712,0.00978053,-0.0145387,-0.00262605,0.0100609,-0.014819,-0.106349,0.0144517,0.0156859,1364,407,4.30203,28.4712
147,617,4.28296,-28.317,0.00962226,-0.0129144,-0.00259621,0.00991747,-0.0132096,-0.113224,0.0133974,0.0189648,1371,407,4.28297,28.317
154,617,4.30847,-28.1902,0.00915144,-0.0114224,-0.00216651,0.00937711,-0.0116481,-0.103787,0.0121625,0.022968,1378,407,4.30843,28.1902
161,617,4.38831,-28.0485,0.00822985,-0.00980114,-0.00186437,0.00842061,-0.0099919,-0.101961,0.0106434,0.0251761,1385,407,4.38825,28.0485
168,617,4.40271,-27.9208,0.00695662,-0.00821162,-0.00143794,0.00709173,-0.00834673,-0.0936873,0.00892321,0.0221732,1392,407,4.40277,27.9208
175,617,4.39026,-27.7832,0.00583373,-0.00687221,-0.00122567,0.00595089,-0.00698936,-0.0952935,0.00747907,0.017976,1399,407,4.39021,27.7832
182,617,4.42615,-27.6008,0.00490706,-0.00563339,-0.00102598,0.005006,-0.00573233,-0.0961352,0.0062045,0.0116282,1406,407,4.42613,27.6008
189,617,4.43604,-27.3897,0.00370616,-0.00441477,-0.000687939,0.00376403,-0.00447263,-0.083915,0.0047613,0.011185,1413,407,4.43598,27.3897
196,617,4.43701,-27.1974,0.00268816,-0.00335274,-0.000291719,0.00270221,-0.0033668,-0.0481413,0.00351094,0.0150627,1420,407,4.43705,27.1975
203,617,4.45276,-26.996,0.00196919,-0.0014093,-0.000314533,0.00199822,-0.00143833,-0.0920448,0.00199285,0.0151467,1427,407,4.45279,26.996
210,617,4.47034,-26.7883,0.00123279,0.000304639,3.62477e-07,0.00123279,0.000304639,0.000390538,0.000741473,0.0146839,1434,407,4.47038,26.7883
217,617,4.45605,-26.5337,0.000850071,0.00144494,0.000257072,0.00154064,0.000754373,1.21443,0.000889552,0.0199188,1441,407,4.45606,26.5337
224,617,4.46167,-26.3082,0.000603858,0.0020501,0.000536674,0.00222749,0.000426466,1.25156,0.00136522,0.019056,1448,407,4.46165,26.3082
231,617,4.47852,-26.1204,0.000418265,0.00262257,0.000866535,0.00292243,0.000118411,1.23766,0.00191004,0.0133001,1455,407,4.47857,26.1204
238,617,4.47546,-25.8923,0.00028121,0.00322838,0.00117008,0.00363642,-0.000126838,1.23525,0.00246765,0.0147595,1462,407,4.47541,25.8923
245,617,4.47559,-25.64,7.83625e-05,0.00378867,0.00135693,0.00423196,-0.000364928,1.25504,0.00295048,0.0130309,1469,407,4.47562,25.6401
252,617,4.44897,-25.3213,-6.07336e-05,0.00436118,0.00154675,0.00484851,-0.000548067,1.26557,0.00342966,0.0139141,1476,407,4.44896,25.3213
259,617,4.42139,-25.0598,-0.000214091,0.00496782,0.00177274,0.00551624,-0.000762506,1.27077,0.00395623,0.0113051,1483,407,4.42136,25.0598
266,617,4.42627,-24.7842,-0.000470941,0.00546504,0.00199668,0.00607416,-0.00108006,1.2747,0.00445333,0.0137035,1490,407,4.42624,24.7842
273,617,4.44006,-24.4715,-0.000826243,0.00590098,0.0021303,0.00651883,-0.0014441,1.28851,0.00489873,0.0150873,1497,407,4.44003,24.4715
280,617,4.41272,-24.2022,-0.00103917,0.00642517,0.00239209,0.00712596,-0.00173996,1.28581,0.00542446,0.0135224,1504,407,4.41271,24.2022
287,617,4.38831,-23.9051,-0.00114282,0.00686451,0.0027712,0.00773002,-0.00200833,1.26807,0.00593711,0.012192,1511,407,4.38831,23.9051
294,617,4.3739,-23.5899,-0.00130845,0.00725886,0.00307058,0.00824571,-0.0022953,1.25984,0.00640092,0.0099784,1518,407,4.37385,23.5899
301,617,4.35815,-23.2674,-0.00141501,0.00761358,0.00340462,0.00875351,-0.00255494,1.24771,0.00684808,0.00773143,1525,407,4.35816,23.2674
308,617,4.33948,-22.9508,-0.00143153,0.00796251,0.00379471,0.00930385,-0.00277287,1.23103,0.00730446,0.00776966,1532,407,4.33946,22.9508
315,617,4.31775,-22.6377,-0.00135041,0.00821572,0.0042386,0.00982354,-0.00295823,1.20824,0.00772624,0.00922289,1539,407,4.31773,22.6377
322,617,4.29761,-22.3012,-0.00123089,0.00848401,0.00475089,0.0104211,-0.00316798,1.18364,0.00820973,0.0124411,1546,407,4.29755,22.3012
329,617,4.30127,-21.9313,-0.00114359,0.00859515,0.00522192,0.0108658,-0.00341419,1.16064,0.00861057,0.0135124,1553,407,4.30121,21.9314
336,617,4.35083,-21.5141,-0.000972997,0.00869741,0.00562494,0.0112797,-0.00355529,1.14042,0.00894363,0.0249058,1560,407,4.35085,21.5141
343,617,4.41675,-21.0905,0,0,0,0,0,0,0,-1,1567,407,4.41674,21.0905
350,617,2.88098,-10.0063,0,0,0,0,0,0,0,-1,1574,407,2.88098,10.0063
357,617,2.1748,-7.16504,0,0,0,0,0,0,0,-1,1581,407,2.1748,7.16505
364,617,2.30127,-7.60257,0,0,0,0,0,0,0,-1,1588,407,2.30125,7.60258
371,617,2.60266,-6.20667,0,0,0,0,0,0,0,-1,1595,407,2.60261,6.20668
378,617,1.56921,-10.3601,0,0,0,0,0,0,0,-1,1602,407,1.56918,10.3601
385,617,1.74146,-10.3561,0,0,0,0,0,0,0,-1,1609,407,1.7414,10.3561
392,617,1.91357,-10.3521,0,0,0,0,0,0,0,-1,1616,407,1.91362,10.3521
399,617,3.25,-2.14835,0,0,0,0,0,0,0,-1,1623,407,3.25006,2.14836
406,617,3.02429,-3.19577,0,0,0,0,0,0,0,-1,1630,407,3.02431,3.19577
413,617,2.92786,-3.80649,0,0,0,0,0,0,0,-1,1637,407,2.92788,3.8065
420,617,3.42737,-4.47391,0,0,0,0,0,0,0,-1,1644,407,3.42737,4.47391
427,617,0,0,0,0,0,0,0,0,0,-1,1651,407,0,0
434,617,0,0,0,0,0,0,0,0,0,-1,1658,407,0,0
441,617,0,0,0,0,0,0,0,0,0,-1,1665,407,0,0
448,617,0,0,0,0,0,0,0,0,0,-1,1672,407,0,0
455,617,0,0,0,0,0,0,0,0,0,-1,1679,407,0,0
462,617,0,0,0,0,0,0,0,0,0,-1,1686,407,0,0
469,617,0,0,0,0,0,0,0,0,0,-1,1693,407,0,0
476,617,0,0,0,0,0,0,0,0,0,-1,1700,407,0,0
483,617,0,0,0,0,0,0,0,0,0,-1,1707,407,0,0
490,617,0,0,0,0,0,0,0,0,0,-1,1714,407,0,0
497,617,0,0,0,0,0,0,0,0,0,-1,1721,407,0,0
504,617,0,0,0,0,0,0,0,0,0,-1,1728,407,0,0
511,617,0,0,0,0,0,0,0,0,0,-1,1735,407,0,0
518,617,0,0,0,0,0,0,0,0,0,-1,1742,407,0,0
525,617,0,0,0,0,0,0,0,0,0,-1,1749,407,0,0
532,617,0,0,0,0,0,0,0,0,0,-1,1756,407,0,0
539,617,0,0,0,0,0,0,0,0,0,-1,1763,407,0,0
546,617,0,0,0,0,0,0,0,0,0,-1,1770,407,0,0
553,617,0,0,0,0,0,0,0,0,0,-1,1777,407,0,0
560,617,0,0,0,0,0,0,0,0,0,-1,1784,407,0,0
567,617,0,0,0,0,0,0,0,0,0,-1,1791,407,0,0
574,617,0,0,0,0,0,0,0,0,0,-1,1798,407,0,0
581,617,0,0,0,0,0,0,0,0,0,-1,1805,407,0,0
588,617,0,0,0,0,0,0,0,0,0,-1,1812,407,0,0
595,617,0,0,0,0,0,0,0,0,0,-1,1819,407,0,0
602,617,0,0,0,0,0,0,0,0,0,-1,1826,407,0,0
609,617,0,0,0,0,0,0,0,0,0,-1,1833,407,0,0
616,617,0,0,0,0,0,0,0,0,0,-1,1840,407,0,0
623,617,0,0,0,0,0,0,0,0,0,-1,1847,407,0,0
630,617,0,0,0,0,0,0,0,0,0,-1,1854,407,0,0
637,617,0,0,0,0,0,0,0,0,0,-1,1861,407,0,0
644,617,0,0,0,0,0,0,0,0,0,-1,1868,407,0,0
651,617,0,0,0,0,0,0,0,0,0,-1,1875,407,0,0
658,617,0,0,0,0,0,0,0,0,0,-1,1882,407,0,0
665,617,0,0,0,0,0,0,0,0,0,-1,1889,407,0,0
672,617,0,0,0,0,0,0,0,0,0,-1,1896,407,0,0
679,617,0,0,0,0,0,0,0,0,0,-1,1903,407,0,0
686,617,0,0,0,0,0,0,0,0,0,-1,1910,407,0,0
693,617,0,0,0,0,0,0,0,0,0,-1,1917,407,0,0
700,617,0,0,0,0,0,0,0,0,0,-1,1924,407,0,0
707,617,0,0,0,0,0,0,0,0,0,-1,1931,407,0,0
714,617,0,0,0,0,0,0,0,0,0,-1,1938,407,0,0
721,617,0,0,0,0,0,0,0,0,0,-1,1945,407,0,0
728,617,0,0,0,0,0,0,0,0,0,-1,1952,407,0,0
735,617,0,0,0,0,0,0,0,0,0,-1,1959,407,0,0
742,617,0,0,0,0,0,0,0,0,0,-1,1966,407,0,0
749,617,0,0,0,0,0,0,0,0,0,-1,1973,407,0,0
756,617,0,0,0,0,0,0,0,0,0,-1,1980,407,0,0
763,617,0,0,0,0,0,0,0,0,0,-1,1987,407,0,0
770,617,0,0,0,0,0,0,0,0,0,-1,1994,407,0,0
777,617,0,0,0,0,0,0,0,0,0,-1,2001,407,0,0
784,617,0,0,0,0,0,0,0,0,0,-1,2008,407,0,0
791,617,0,0,0,0,0,0,0,0,0,-1,2015,407,0,0
798,617,0,0,0,0,0,0,0,0,0,-1,2022,407,0,0
805,617,0,0,0,0,0,0,0,0,0,-1,2029,407,0,0
812,617,0,0,0,0,0,0,0,0,0,-1,2036,407,0,0
-700,610,0,0,0,0,0,0,0,0,0,-1,524,414,0,0
-693,610,0,0,0,0,0,0,0,0,0,-1,531,414,0,0
-686,610,0,0,0,0,0,0,0,0,0,-1,538,414,0,0
-679,610,0,0,0,0,0,0,0,0,0,-1,545,414,0,0
-672,610,0,0,0,0,0,0,0,0,0,-1,552,414,0,0
-665,610,0,0,0,0,0,0,0,0,0,-1,559,414,0,0
-658,610,0,0,0,0,0,0,0,0,0,-1,566,414,0,0
-651,610,0,0,0,0,0,0,0,0,0,-1,573,414,0,0
-644,610,0,0,0,0,0,0,0,0,0,-1,580,414,0,0
-637,610,0,0,0,0,0,0,0,0,0,-1,587,414,0,0
-630,610,0,0,0,0,0,0,0,0,0,-1,594,414,0,0
-623,610,0,0,0,0,0,0,0,0,0,-1,601,414,0,0
-616,610,0,0,0,0,0,0,0,0,0,-1,608,414,0,0
-609,610,0,0,0,0,0,0,0,0,0,-1,615,414,0,0
-602,610,0,0,0,0,0,0,0,0,0,-1,622,414,0,0
-595,610,0,0,0,0,0,0,0,0,0,-1,629,414,0,0
-588,610,0,0,0,0,0,0,0,0,0,-1,636,414,0,0
-581,610,0,0,0,0,0,0,0,0,0,-1,643,414,0,0
-574,610,0,0,0,0,0,0,0,0,0,-1,650,414,0,0
-567,610,0,0,0,0,0,0,0,0,0,-1,657,414,0,0
-560,610,0,0,0,0,0,0,0,0,0,-1,664,414,0,0
-553,610,0,0,0,0,0,0,0,0,0,-1,671,414,0,0
-546,610,0,0,0,0,0,0,0,0,0,-1,678,414,0,0
-539,610,0,0,0,0,0,0,0,0,0,-1,685,414,0,0
-532,610,0,0,0,0,0,0,0,0,0,-1,692,414,0,0
-525,610,0,0,0,0,0,0,0,0,0,-1,699,414,0,0
-518,610,0,0,0,0,0,0,0,0,0,-1,706,414,0,0
-511,610,0,0,0,0,0,0,0,0,0,-1,713,414,0,0
-504,610,0,0,0,0,0,0,0,0,0,-1,720,414,0,0
-497,610,0,0,0,0,0,0,0,0,0,-1,727,414,0,0
-490,610,0,0,0,0,0,0,0,0,0,-1,734,414,0,0
-483,610,0,0,0,0,0,0,0,0,0,-1,741,414,0,0
-476,610,0,0,0,0,0,0,0,0,0,-1,748,414,0,0
-469,610,0,0,0,0,0,0,0,0,0,-1,755,414,0,0
-462,610,0,0,0,0,0,0,0,0,0,-1,762,414,0,0
-455,610,0,0,0,0,0,0,0,0,0,-1,769,414,0,0
-448,610,0,0,0,0,0,0,0,0,0,-1,776,414,0,0
-441,610,0,0,0,0,0,0,0,0,0,-1,783,414,0,0
-434,610,0,0,0,0,0,0,0,0,0,-1,790,414,0,0
-427,610,0,0,0,0,0,0,0,0,0,-1,797,414,0,0
-420,610,0,0,0,0,0,0,0,0,0,-1,804,414,0,0
-413,610,0,0,0,0,0,0,0,0,0,-1,811,414,0,0
-406,610,0,0,0,0,0,0,0,0,0,-1,818,414,0,0
-399,610,0,0,0,0,0,0,0,0,0,-1,825,414,0,0
-392,610,0,0,0,0,0,0,0,0,0,-1,832,414,0,0
-385,610,0,0,0,0,0,0,0,0,0,-1,839,414,0,0
-378,610,0,0,0,0,0,0,0,0,0,-1,846,414,0,0
-371,610,0,0,0,0,0,0,0,0,0,-1,853,414,0,0
-364,610,0,0,0,0,0,0,0,0,0,-1,860,414,0,0
-357,610,0,0,0,0,0,0,0,0,0,-1,867,414,0,0
-350,610,0,0,0,0,0,0,0,0,0,-1,874,414,0,0
-343,610,0,0,0,0,0,0,0,0,0,-1,881,414,0,0
-336,610,0,0,0,0,0,0,0,0,0,-1,888,414,0,0
-329,610,0,0,0,0,0,0,0,0,0,-1,895,414,0,0
-322,610,0,0,0,0,0,0,0,0,0,-1,902,414,0,0
-315,610,4.10345,-18.3749,0,0,0,0,0,0,0,-1,909,414,4.10345,18.3749
-308,610,4.0119,-18.398,0,0,0,0,0,0,0,-1,916,414,4.0119,18.398
-301,610,5.73285,-14.3911,0,0,0,0,0,0,0,-1,923,414,5.73285,14.3911
-294,610,2.37964,-12.4347,0,0,0,0,0,0,0,-1,930,414,2.37964,12.4347
-287,610,2.08557,-11.9136,0,0,0,0,0,0,0,-1,937,414,2.08555,11.9136
-280,610,2.25854,-11.0924,0,0,0,0,0,0,0,-1,944,414,2.25856,11.0924
-273,610,4.5705,-19.8972,0,0,0,0,0,0,0,-1,951,414,4.57051,19.8972
-266,610,4.94086,-19.9552,0,0,0,0,0,0,0,-1,958,414,4.94088,19.9552
-259,610,3.71692,-19.5529,0,0,0,0,0,0,0,-1,965,414,3.7169,19.5529
-252,610,3.57715,-20.3759,0.0275955,0.016356,0.035425,0.0578438,-0.0138923,0.706734,0.0439316,0.0490977,972,414,3.57714,20.3759
-245,610,3.77332,-21.0723,0.0258716,0.015498,0.0313365,0.0524477,-0.0110781,0.703382,0.0391834,0.0457747,979,414,3.77331,21.0723
-238,610,3.45984,-20.7571,0,0,0,0,0,0,0,-1,986,414,3.45982,20.7571
-231,610,3.42316,-21.1789,0.0211808,0.0147063,0.0221588,0.0403376,-0.00445051,0.712865,0.0284913,0.0379659,993,414,3.42316,21.1789
-224,610,3.43616,-21.6944,0.0181835,0.0142022,0.0173473,0.033654,-0.00126831,0.728272,0.0228705,0.0253213,1000,414,3.43614,21.6944
-217,610,3.4718,-22.1258,0.0149715,0.0133924,0.012431,0.026638,0.00172589,0.753684,0.0172123,0.0173555,1007,414,3.47179,22.1258
-210,610,3.46973,-22.5122,0.0118856,0.0125082,0.00811683,0.0203197,0.0040741,0.804567,0.0124133,0.0114654,1014,414,3.4697,22.5122
-203,610,3.44702,-22.8573,0.00915653,0.0115282,0.00497797,0.0154596,0.00522509,0.902326,0.00908047,0.0132873,1021,414,3.44698,22.8573
-196,610,3.42432,-23.1969,0.00564826,0.0105639,0.00254692,0.0116455,0.00456663,1.1692,0.00677548,0.0144222,1028,414,3.42437,23.1969
-189,610,3.41333,-23.485,0.00242687,0.00978244,-2.66117e-05,0.00978253,0.00242677,-1.56718,0.00588207,0.0115565,1035,414,3.41331,23.485
-182,610,3.38818,-23.7727,0.000423893,0.00816327,-0.00207522,0.0086846,-9.74359e-05,-1.32467,0.00582249,0.0121049,1042,414,3.38813,23.7727
-175,610,3.37415,-24.0521,-4.53282e-05,0.00692433,-0.00143645,0.00720877,-0.000329772,-1.37531,0.00491946,0.0130658,1049,414,3.37412,24.0521
-168,610,3.34119,-24.3507,-0.000623994,0.00558559,-0.000788497,0.00568414,-0.000722554,-1.44644,0.00405181,0.011775,1056,414,3.34122,24.3507
-161,610,3.30542,-24.6804,-0.000993188,0.00438261,-0.000352401,0.00440562,-0.00101619,-1.50561,0.00332793,0.0110822,1063,414,3.30544,24.6804
-154,610,3.29797,-24.9414,-0.00108553,0.00328288,-2.2785e-05,0.003283,-0.00108565,-1.56558,0.00262644,0.0133521,1070,414,3.29802,24.9414
-147,610,3.29785,-25.1692,-0.00121319,0.0021736,0.000252778,0.00219236,-0.00123195,1.49671,0.00200278,0.0149079,1077,414,3.29788,25.1692
-140,610,3.31934,-25.4453,-0.00105489,0.000879963,0.000329396,0.000934503,-0.00110943,1.40671,0.00118151,0.0124214,1084,414,3.31933,25.4452
-133,610,3.31311,-25.6965,-0.000704302,-0.000404194,0.00039314,-0.000133444,-0.000975052,0.967706,0.000610434,0.0141661,1091,414,3.3131,25.6965
-126,610,3.30396,-25.9234,-0.000264576,-0.00139186,0.000362121,-0.000158275,-0.00149816,0.28553,0.000950421,0.0124789,1098,414,3.30401,25.9234
-119,610,3.28784,-26.1599,0.000360981,-0.00193693,0.00015507,0.000371398,-0.00194735,0.0670776,0.00143811,0.0108291,1105,414,3.28779,26.1598
-112,610,3.27356,-26.392,0.00102904,-0.00238434,-6.87268e-05,0.00103042,-0.00238573,-0.0201236,0.00202339,0.0179562,1112,414,3.2736,26.392
-105,610,3.26379,-26.6087,0.00171362,-0.00255435,-0.000337671,0.00174017,-0.0025809,-0.078467,0.00251046,0.0173272,1119,414,3.26374,26.6087
-98,610,3.31226,-26.8239,0.00238359,-0.00264902,-0.000602592,0.00245474,-0.00272017,-0.117524,0.00298905,0.0124771,1126,414,3.31221,26.8239
-91,610,3.32153,-27.0199,0.00301221,-0.00254705,-0.000840979,0.00313665,-0.00267148,-0.146898,0.00335691,0.0137249,1133,414,3.32157,27.0199
-84,610,3.34595,-27.2311,0.00346791,-0.00234593,-0.00104718,0.00365077,-0.00252879,-0.172882,0.00358732,0.0146286,1140,414,3.34597,27.2311
-77,610,3.36011,-27.4294,0.00379437,-0.00200532,-0.0011437,0.00401176,-0.0022227,-0.187835,0.00364854,0.0117513,1147,414,3.36012,27.4294
-70,610,3.38806,-27.6197,0.00460725,-0.00223455,-0.00103051,0.0047591,-0.00238639,-0.146297,0.00420058,0.0141637,1154,414,3.38803,27.6197
-63,610,3.39014,-27.7906,0.00682266,-0.00221823,-0.000984512,0.00692863,-0.0023242,-0.107221,0.00555823,0.0134248,1161,414,3.39016,27.7907
-56,610,3.41199,-27.929,0.0076069,-0.0020851,-0.00106283,0.00772208,-0.00220028,-0.107951,0.00601711,0.011319,1168,414,3.41201,27.929
-49,610,3.44287,-28.0834,0.00695624,-0.00391117,-0.00304694,0.00775223,-0.00470715,-0.255529,0.00726468,0.011534,1175,414,3.44286,28.0834
-42,610,3.45581,-28.2515,0.00852736,-0.00531382,-0.00272387,0.00904411,-0.00583058,-0.187484,0.00865445,0.0152337,1182,414,3.45583,28.2515
-35,610,3.46155,-28.397,0.0101929,-0.00696632,-0.0024397,0.010533,-0.00730645,-0.138524,0.0103556,0.0158485,1189,414,3.46155,28.397
-28,610,3.49512,-28.502,0.0125343,-0.00827966,-0.00238584,0.0128043,-0.00854964,-0.11268,0.01241,0.0136775,1196,414,3.49506,28.502
-21,610,3.54297,-28.5869,0.0144493,-0.00925318,-0.00318729,0.0148704,-0.0096743,-0.131363,0.0142763,0.0114766,1203,414,3.54292,28.5868
-14,610,3.5625,-28.6585,0.0164607,-0.0102784,-0.00305929,0.0168063,-0.010624,-0.112476,0.0159704,0.0117627,1210,414,3.56249,28.6585
-7,610,3.59961,-28.7513,0.0188491,-0.0105744,-0.00286352,0.0191251,-0.0108504,-0.0961192,0.0175248,0.0140283,1217,414,3.59966,28.7512
0,610,3.6377,-28.8597,0.0208231,-0.0107334,-0.00268597,0.0210501,-0.0109604,-0.084308,0.0187848,0.0118244,1224,414,3.63776,28.8597
7,610,3.68079,-28.9496,0.0224822,-0.0107223,-0.00237207,0.0226508,-0.0108909,-0.0709578,0.0197581,0.0122582,1231,414,3.68073,28.9496
14,610,3.76587,-28.9761,0.0236093,-0.0101323,-0.00174315,0.0236991,-0.0102221,-0.0514791,0.0200931,0.0146215,1238,414,3.7659,28.9761
21,610,3.8009,-28.9978,0.0240465,-0.0112042,-0.000788184,0.0240641,-0.0112218,-0.0223445,0.0208172,0.0137267,1245,414,3.80093,28.9978
28,610,3.77747,-29.0817,0.0242175,-0.00987995,-0.00120922,0.0242603,-0.00992278,-0.0354044,0.020306,0.0137307,1252,414,3.77747,29.0817
35,610,3.84155,-29.1287,0.023508,-0.0102652,-0.000537226,0.0235166,-0.0102737,-0.0159015,0.020002,0.0171302,1259,414,3.84159,29.1287
42,610,3.88904,-29.1116,0.0217175,-0.0114857,0.000309243,0.0217204,-0.0114885,0.00931258,0.0194742,0.0157458,1266,414,3.88899,29.1116
49,610,3.91467,-29.1541,0.0198785,-0.0132043,0.000426212,0.019884,-0.0132097,0.0128803,0.0192358,0.0158439,1273,414,3.91469,29.1541
56,610,3.96606,-29.1699,0.0183442,-0.0152333,0.000773122,0.018362,-0.0152511,0.0230087,0.0194342,0.0147177,1280,414,3.96611,29.1699
63,610,3.96277,-29.1126,0.0165756,-0.0177209,-8.50049e-05,0.0165758,-0.0177212,-0.00247851,0.019805,0.019234,1287,414,3.96275,29.1126
70,610,4.00244,-29.061,0.0149123,-0.01998,-0.000730269,0.0149276,-0.0199953,-0.020917,0.0202334,0.0271576,1294,414,4.0024,29.061
77,610,4.08826,-29.0905,0.0128996,-0.022326,-0.00127652,0.0129458,-0.0223722,-0.0361752,0.0206315,0.032258,1301,414,4.08823,29.0905
84,610,4.08337,-29.0948,0.0117654,-0.0240592,-0.00153483,0.011831,-0.0241248,-0.0427385,0.0211597,0.0324334,1308,414,4.08333,29.0948
91,610,4.15747,-29.044,0.0114452,-0.0252405,-0.00274478,0.0116494,-0.0254447,-0.0742679,0.0219044,0.0254214,1315,414,4.15748,29.044
98,610,4.30518,-29.0126,0.0112172,-0.0263497,-0.00347457,0.0115359,-0.0266683,-0.0914564,0.0226266,0.023724,1322,414,4.30523,29.0126
105,610,4.31042,-28.9259,0.0118007,-0.0266652,-0.00396672,0.0122055,-0.02707,-0.101697,0.0232108,0.0198327,1329,414,4.31043,28.9259
112,610,4.30554,-28.8622,0.0121938,-0.0263818,-0.00422874,0.0126519,-0.0268399,-0.107915,0.0232859,0.0133091,1336,414,4.30553,28.8622
119,610,4.28674,-28.7845,0.012716,-0.0255575,-0.00438039,0.0132109,-0.0260524,-0.112512,0.0230693,0.019152,1343,414,4.28671,28.7845
126,610,4.34802,-28.7025,0.0130502,-0.0233211,-0.0044802,0.0135939,-0.0238649,-0.120774,0.0218962,0.0265689,1350,414,4.34806,28.7025
133,610,4.41443,-28.5781,0.0129388,-0.0226376,-0.0035815,0.0132957,-0.0229946,-0.0993427,0.0212002,0.0210343,1357,414,4.41449,28.5781
140,610,4.4541,-28.4485,0.0129671,-0.0200134,-0.0036498,0.0133661,-0.0204125,-0.108909,0.0196431,0.0166774,1364,414,4.45406,28.4484
147,610,4.41089,-28.2962,0.0130024,-0.0176896,-0.00361246,0.0134218,-0.0181091,-0.115596,0.0182713,0.0167193,1371,414,4.41093,28.2962
154,610,4.42383,-28.1645,0.0127385,-0.015563,-0.00303323,0.0130599,-0.0158845,-0.105578,0.0167376,0.0213317,1378,414,4.42387,28.1645
161,610,4.49585,-28.0265,0.0119114,-0.0134246,-0.00257916,0.0121713,-0.0136845,-0.100425,0.0149364,0.0275116,1385,414,4.4959,28.0265
168,610,4.51135,-27.8824,0.0105022,-0.0114209,-0.00203883,0.0106902,-0.0116089,-0.0919485,0.012878,0.0271624,1392,414,4.51135,27.8823
175,610,4.5376,-27.7422,0.00912796,-0.00973728,-0.00178791,0.00929591,-0.00990523,-0.0936615,0.0110876,0.0214141,1399,414,4.53757,27.7423
182,610,4.60986,-27.578,0.00842051,-0.00838719,-0.00144171,0.00854327,-0.00850996,-0.0849496,0.00984569,0.0154356,1406,414,4.60992,27.578
189,610,4.6272,-27.3892,0.00755749,-0.00742884,-0.000777721,0.00759774,-0.00746909,-0.0517102,0.00869894,0.0139313,1413,414,4.62718,27.3892
196,610,4.63013,-27.2063,0.00562826,-0.00635373,-0.000321474,0.00563688,-0.00636235,-0.0268041,0.00693198,0.0139568,1420,414,4.63018,27.2063
203,610,4.6394,-27.0012,0.00393201,-0.00355772,-0.000884311,0.004035,-0.00366071,-0.115946,0.00444487,0.0143998,1427,414,4.63941,27.0012
210,610,4.63757,-26.7981,0.00230283,-0.00104247,-0.000671968,0.00243276,-0.0011724,-0.191002,0.00212342,0.0108878,1434,414,4.63762,26.7981
217,610,4.65771,-26.5431,0.00178835,0.000607571,-0.000308782,0.00186422,0.000531698,-0.240944,0.00110892,0.0166146,1441,414,4.65766,26.5431
224,610,4.66797,-26.3241,0.00142069,0.001302,4.72912e-05,0.00143723,0.00128546,0.336419,0.000911783,0.0194562,1448,414,4.66795,26.3241
231,610,4.70044,-26.127,0.00113674,0.0019362,0.000443358,0.00213342,0.000939517,1.15225,0.00123465,0.0149026,1455,414,4.70047,26.127
238,610,4.70398,-25.8666,0.000986065,0.00251458,0.00074768,0.00281949,0.000681157,1.18358,0.00169875,0.010965,1462,414,4.70392,25.8666
245,610,4.71021,-25.5972,0.000843646,0.00299736,0.000941741,0.00335106,0.000489944,1.21151,0.00208995,0.0124519,1469,414,4.71025,25.5972
252,610,4.68982,-25.3381,0.000682552,0.0034269,0.00109488,0.00381018,0.000299269,1.23406,0.00244647,0.0140077,1476,414,4.68984,25.3381
259,610,4.69263,-25.0646,0.000488788,0.00382322,0.00126841,0.00425087,6.11385e-05,1.24561,0.00281375,0.011623,1483,414,4.69258,25.0646
266,610,4.70837,-24.7872,0.000248996,0.00413742,0.00143831,0.00461162,-0.000225201,1.25233,0.00315216,0.0116592,1490,414,4.70839,24.7872
273,610,4.69556,-24.5023,-4.12096e-05,0.00443756,0.00155874,0.00492664,-0.000530286,1.26676,0.0034747,0.010013,1497,414,4.69559,24.5022
280,610,4.6814,-24.2064,-0.000260214,0.0047694,0.00176702,0.00532813,-0.00081894,1.26455,0.00385418,0.00945861,1504,414,4.68144,24.2064
287,610,4.67236,-23.8826,-0.000378848,0.0050874,0.00207678,0.00578691,-0.00107836,1.24591,0.0042631,0.0125899,1511,414,4.67233,23.8826
294,610,4.67505,-23.5734,-0.000518872,0.0053687,0.00232665,0.00617714,-0.00132731,1.23638,0.00462446,0.011138,1518,414,4.67508,23.5734
301,610,4.65723,-23.2922,-0.000615883,0.00566533,0.00261949,0.00661436,-0.00156492,1.22321,0.0050133,0.0100389,1525,414,4.65726,23.2922
308,610,4.64185,-22.9783,-0.000638284,0.00596094,0.00298428,0.00711029,-0.00178764,1.20317,0.00543497,0.0116219,1532,414,4.64183,22.9783
315,610,4.61304,-22.6682,-0.000605988,0.00622779,0.00337586,0.00761419,-0.00199239,1.18112,0.00585438,0.0127932,1539,414,4.61309,22.6682
322,610,4.61023,-22.3179,-0.000565946,0.00652105,0.00380948,0.0081803,-0.00222519,1.16002,0.00632706,0.0121936,1546,414,4.61028,22.3179
329,610,4.5896,-21.9681,-0.000562098,0.006678,0.00421504,0.00861415,-0.00249825,1.1402,0.00673185,0.0110177,1553,414,4.58958,21.9681
336,610,4.58313,-21.5979,-0.000515341,0.00685151,0.00456321,0.00903243,-0.00269626,1.12496,0.00709329,0.010122,1560,414,4.58309,21.5979
343,610,4.5708,-21.2375,-0.000300753,0.00677482,0.00486804,0.00925481,-0.00278075,1.09962,0.00727613,0.0200259,1567,414,4.57082,21.2374
350,610,4.5863,-20.8758,0,0,0,0,0,0,0,-1,1574,414,4.58631,20.8758
357,610,4.66101,-20.2709,0,0,0,0,0,0,0,-1,1581,414,4.66104,20.2709
364,610,4.34302,-15.9496,0,0,0,0,0,0,0,-1,1588,414,4.34299,15.9496
371,610,3.54138,-13.3788,0,0,0,0,0,0,0,-1,1595,414,3.54137,13.3788
378,610,3.5752,-12.1958,0,0,0,0,0,0,0,-1,1602,414,3.57517,12.1958
385,610,2.57104,-10.3878,0,0,0,0,0,0,0,-1,1609,414,2.57109,10.3878
392,610,2.35229,-10.3207,0,0,0,0,0,0,0,-1,1616,414,2.35227,10.3207
399,610,3.03833,-2.82547,0,0,0,0,0,0,0,-1,1623,414,3.03827,2.82546
406,610,2.91687,-2.9166,0,0,0,0,0,0,0,-1,1630,414,2.91688,2.91659
413,610,3.01929,-3.20306,0,0,0,0,0,0,0,-1,1637,414,3.01929,3.20306
420,610,4.78149,-3.64041,0,0,0,0,0,0,0,-1,1644,414,4.78152,3.64042
427,610,5.20764,-4.67545,0,0,0,0,0,0,0,-1,1651,414,5.20759,4.67545
434,610,5.39233,-5.45441,0,0,0,0,0,0,0,-1,1658,414,5.39228,5.4544
441,610,0,0,0,0,0,0,0,0,0,-1,1665,414,0,0
448,610,0,0,0,0,0,0,0,0,0,-1,1672,414,0,0
455,610,0,0,0,0,0,0,0,0,0,-1,1679,414,0,0
462,610,0,0,0,0,0,0,0,0,0,-1,1686,414,0,0
469,610,0,0,0,0,0,0,0,0,0,-1,1693,414,0,0
476,610,0,0,0,0,0,0,0,0,0,-1,1700,414,0,0
483,610,0,0,0,0,0,0,0,0,0,-1,1707,414,0,0
490,610,0,0,0,0,0,0,0,0,0,-1,1714,414,0,0
497,610,0,0,0,0,0,0,0,0,0,-1,1721,414,0,0
504,610,0,0,0,0,0,0,0,0,0,-1,1728,414,0,0
511,610,0,0,0,0,0,0,0,0,0,-1,1735,414,0,0
518,610,0,0,0,0,0,0,0,0,0,-1,1742,414,0,0
525,610,0,0,0,0,0,0,0,0,0,-1,1749,414,0,0
532,610,0,0,0,0,0,0,0,0,0,-1,1756,414,0,0
539,610,0,0,0,0,0,0,0,0,0,-1,1763,414,0,0
546,610,0,0,0,0,0,0,0,0,0,-1,1770,414,0,0
553,610,0,0,0,0,0,0,0,0,0,-1,1777,414,0,0
560,610,0,0,0,0,0,0,0,0,0,-1,1784,414,0,0
567,610,0,0,0,0,0,0,0,0,0,-1,1791,414,0,0
574,610,0,0,0,0,0,0,0,0,0,-1,1798,414,0,0
581,610,0,0,0,0,0,0,0,0,0,-1,1805,414,0,0
588,610,0,0,0,0,0,0,0,0,0,-1,1812,414,0,0
595,610,0,0,0,0,0,0,0,0,0,-1,1819,414,0,0
602,610,0,0,0,0,0,0,0,0,0,-1,1826,414,0,0
609,610,0,0,0,0,0,0,0,0,0,-1,1833,414,0,0
616,610,0,0,0,0,0,0,0,0,0,-1,1840,414,0,0
623,610,0,0,0,0,0,0,0,0,0,-1,1847,414,0,0
630,610,0,0,0,0,0,0,0,0,0,-1,1854,414,0,0
637,610,0,0,0,0,0,0,0,0,0,-1,1861,414,0,0
644,610,0,0,0,0,0,0,0,0,0,-1,1868,414,0,0
651,610,0,0,0,0,0,0,0,0,0,-1,1875,414,0,0
658,610,0,0,0,0,0,0,0,0,0,-1,1882,414,0,0
665,610,0,0,0,0,0,0,0,0,0,-1,1889,414,0,0
672,610,0,0,0,0,0,0,0,0,0,-1,1896,414,0,0
679,610,0,0,0,0,0,0,0,0,0,-1,1903,414,0,0
686,610,0,0,0,0,0,0,0,0,0,-1,1910,414,0,0
693,610,0,0,0,0,0,0,0,0,0,-1,1917,414,0,0
700,610,0,0,0,0,0,0,0,0,0,-1,1924,414,0,0
707,610,0,0,0,0,0,0,0,0,0,-1,1931,414,0,0
714,610,0,0,0,0,0,0,0,0,0,-1,1938,414,0,0
721,610,0,0,0,0,0,0,0,0,0,-1,1945,414,0,0
728,610,0,0,0,0,0,0,0,0,0,-1,1952,414,0,0
735,610,0,0,0,0,0,0,0,0,0,-1,1959,414,0,0
742,610,0,0,0,0,0,0,0,0,0,-1,1966,414,0,0
749,610,0,0,0,0,0,0,0,0,0,-1,1973,414,0,0
756,610,0,0,0,0,0,0,0,0,0,-1,1980,414,0,0
763,610,0,0,0,0,0,0,0,0,0,-1,1987,414,0,0
770,610,0,0,0,0,0,0,0,0,0,-1,1994,414,0,0
777,610,0,0,0,0,0,0,0,0,0,-1,2001,414,0,0
784,610,0,0,0,0,0,0,0,0,0,-1,2008,414,0,0
791,610,0,0,0,0,0,0,0,0,0,-1,2015,414,0,0
798,610,0,0,0,0,0,0,0,0,0,-1,2022,414,0,0
805,610,0,0,0,0,0,0,0,0,0,-1,2029,414,0,0
812,610,0,0,0,0,0,0,0,0,0,-1,2036,414,0,0
-700,603,0,0,0,0,0,0,0,0,0,-1,524,421,0,0
-693,603,0,0,0,0,0,0,0,0,0,-1,531,421,0,0
-686,603,0,0,0,0,0,0,0,0,0,-1,538,421,0,0
-679,603,0,0,0,0,0,0,0,0,0,-1,545,421,0,0
-672,603,0,0,0,0,0,0,0,0,0,-1,552,421,0,0
-665,603,0,0,0,0,0,0,0,0,0,-1,559,421,0,0
-658,603,0,0,0,0,0,0,0,0,0,-1,566,421,0,0
-651,603,0,0,0,0,0,0,0,0,0,-1,573,421,0,0
-644,603,0,0,0,0,0,0,0,0,0,-1,580,421,0,0
-637,603,0,0,0,0,0,0,0,0,0,-1,587,421,0,0
-630,603,0,0,0,0,0,0,0,0,0,-1,594,421,0,0
-623,603,0,0,0,0,0,0,0,0,0,-1,601,421,0,0
-616,603,0,0,0,0,0,0,0,0,0,-1,608,421,0,0
-609,603,0,0,0,0,0,0,0,0,0,-1,615,421,0,0
-602,603,0,0,0,0,0,0,0,0,0,-1,622,421,0,0
-595,603,0,0,0,0,0,0,0,0,0,-1,629,421,0,0
-588,603,0,0,0,0,0,0,0,0,0,-1,636,421,0,0
-581,603,0,0,0,0,0,0,0,0,0,-1,643,421,0,0
-574,603,0,0,0,0,0,0,0,0,0,-1,650,421,0,0
-567,603,0,0,0,0,0,0,0,0,0,-1,657,421,0,0
-560,603,0,0,0,0,0,0,0,0,0,-1,664,421,0,0
-553,603,0,0,0,0,0,0,0,0,0,-1,671,421,0,0
-546,603,0,0,0,0,0,0,0,0,0,-1,678,421,0,0
-539,603,0,0,0,0,0,0,0,0,0,-1,685,421,0,0
-532,603,0,0,0,0,0,0,0,0,0,-1,692,421,0,0
-525,603,0,0,0,0,0,0,0,0,0,-1,699,421,0,0
-518,603,0,0,0,0,0,0,0,0,0,-1,706,421,0,0
-511,603,0,0,0,0,0,0,0,0,0,-1,713,421,0,0
-504,603,0,0,0,0,0,0,0,0,0,-1,720,421,0,0
-497,603,0,0,0,0,0,0,0,0,0,-1,727,421,0,0
-490,603,0,0,0,0,0,0,0,0,0,-1,734,421,0,0
-483,603,0,0,0,0,0,0,0,0,0,-1,741,421,0,0
-476,603,0,0,0,0,0,0,0,0,0,-1,748,421,0,0
-469,603,0,0,0,0,0,0,0,0,0,-1,755,421,0,0
-462,603,0,0,0,0,0,0,0,0,0,-1,762,421,0,0
-455,603,0,0,0,0,0,0,0,0,0,-1,769,421,0,0
-448,603,0,0,0,0,0,0,0,0,0,-1,776,421,0,0
-441,603,0,0,0,0,0,0,0,0,0,-1,783,421,0,0
-434,603,0,0,0,0,0,0,0,0,0,-1,790,421,0,0
-427,603,0,0,0,0,0,0,0,0,0,-1,797,421,0,0
-420,603,0,0,0,0,0,0,0,0,0,-1,804,421,0,0
-413,603,0,0,0,0,0,0,0,0,0,-1,811,421,0,0
-406,603,0,0,0,0,0,0,0,0,0,-1,818,421,0,0
-399,603,0,0,0,0,0,0,0,0,0,-1,825,421,0,0
-392,603,0,0,0,0,0,0,0,0,0,-1,832,421,0,0
-385,603,0,0,0,0,0,0,0,0,0,-1,839,421,0,0
-378,603,0,0,0,0,0,0,0,0,0,-1,846,421,0,0
-371,603,0,0,0,0,0,0,0,0,0,-1,853,421,0,0
-364,603,0,0,0,0,0,0,0,0,0,-1,860,421,0,0
-357,603,0,0,0,0,0,0,0,0,0,-1,867,421,0,0
-350,603,0,0,0,0,0,0,0,0,0,-1,874,421,0,0
-343,603,0,0,0,0,0,0,0,0,0,-1,881,421,0,0
-336,603,0,0,0,0,0,0,0,0,0,-1,888,421,0,0
-329,603,4.09686,-17.9702,0,0,0,0,0,0,0,-1,895,421,4.09687,17.9702
-322,603,3.75189,-17.8196,0,0,0,0,0,0,0,-1,902,421,3.75191,17.8196
-315,603,3.48389,-17.7861,0,0,0,0,0,0,0,-1,909,421,3.48386,17.7861
-308,603,3.47455,-18.197,0,0,0,0,0,0,0,-1,916,421,3.47453,18.197
-301,603,3.13489,-18.5771,0,0,0,0,0,0,0,-1,923,421,3.13487,18.5771
-294,603,2.65363,-17.7957,0,0,0,0,0,0,0,-1,930,421,2.6536,17.7958
-287,603,2.86243,-17.5119,0,0,0,0,0,0,0,-1,937,421,2.86241,17.5119
-280,603,4.0448,-18.8199,0,0,0,0,0,0,0,-1,944,421,4.04479,18.8199
-273,603,4.39441,-19.3247,0.0161077,0.0182135,0.02632,0.0435016,-0.0091804,0.80539,0.0324964,0.0459315,951,421,4.39444,19.3247
-266,603,4.513,-19.629,0.0162569,0.0158699,0.0260993,0.0421634,-0.0100366,0.781691,0.0319838,0.0472515,958,421,4.51301,19.629
-259,603,3.88489,-20.0496,0.0164583,0.0142189,0.0250726,0.0404362,-0.00975902,0.763084,0.0307314,0.0489659,965,421,3.88488,20.0496
-252,603,3.3606,-20.4696,0.0160975,0.0127558,0.0228177,0.0373054,-0.00845216,0.74885,0.0281144,0.0423857,972,421,3.3606,20.4696
-245,603,3.34283,-20.8649,0.0151545,0.0119024,0.0199058,0.0335006,-0.00644373,0.744645,0.0247627,0.0309664,979,421,3.34285,20.8649
-238,603,3.26105,-21.1522,0.0138573,0.0113993,0.0166644,0.0293379,-0.00408141,0.74859,0.0210514,0.0215651,986,421,3.26103,21.1522
-231,603,3.19653,-21.5158,0.0124098,0.0109578,0.0133781,0.0250815,-0.00171397,0.75829,0.0173206,0.0138818,993,421,3.19653,21.5158
-224,603,3.15845,-21.8707,0.0106802,0.0104652,0.0101096,0.0206829,0.000462528,0.780082,0.0136371,0.0129988,1000,421,3.15846,21.8707
-217,603,3.16992,-22.196,0.00886693,0.00976722,0.00678621,0.0161182,0.00251595,0.818516,0.0100127,0.0124199,1007,421,3.16993,22.196
-210,603,3.17682,-22.5303,0.00713322,0.00899072,0.00400233,0.0121706,0.00395329,0.899407,0.00716904,0.0108441,1014,421,3.17679,22.5303
-203,603,3.16199,-22.8843,0.00561554,0.00822,0.00219226,0.00946763,0.0043679,1.0534,0.00547158,0.0164465,1021,421,3.16203,22.8843
-196,603,3.16711,-23.2406,0.00352422,0.00742621,0.000945641,0.00764331,0.00330712,1.34513,0.00442618,0.0184086,1028,421,3.16708,23.2406
-189,603,3.13623,-23.5032,0.00158173,0.00677493,-0.000374793,0.00680184,0.00155482,-1.49912,0.00411538,0.0155757,1035,421,3.13621,23.5032
-182,603,3.10583,-23.7905,0.000451008,0.00551854,-0.00133264,0.00584762,0.000121925,-1.3287,0.00385841,0.0112463,1042,421,3.10589,23.7905
-175,603,3.08838,-24.0703,0.000179,0.00434613,-0.000748457,0.00447648,4.86474e-05,-1.39836,0.00296824,0.011237,1049,421,3.08844,24.0702
-168,603,3.0686,-24.3569,-0.000150003,0.00303174,-0.000216435,0.00304639,-0.000164659,-1.50319,0.00208798,0.0137577,1056,421,3.06864,24.3569
-161,603,3.03992,-24.6678,-0.000307415,0.00169425,0.000139965,0.00170399,-0.000317154,1.50132,0.00125514,0.0132015,1063,421,3.03994,24.6678
-154,603,3.04199,-24.9458,-0.000229742,0.000510065,0.000401678,0.000686214,-0.000405891,1.15752,0.000637413,0.0124599,1070,421,3.04203,24.9458
-147,603,3.05725,-25.1804,-0.00015901,-0.00073902,0.000617369,0.000233075,-0.00113111,0.565823,0.000842577,0.0134481,1077,421,3.05721,25.1804
-140,603,3.09546,-25.4303,0.000113556,-0.00216044,0.000666126,0.000294317,-0.0023412,0.264981,0.00166758,0.0116985,1084,421,3.09544,25.4303
-133,603,3.07153,-25.6751,0.000519771,-0.00361509,0.000694487,0.0006333,-0.00372861,0.162038,0.00272152,0.0121466,1091,421,3.07156,25.6751
-126,603,3.05823,-25.9115,0.0010116,-0.0048412,0.000650342,0.001083,-0.00491259,0.109339,0.00368943,0.0110814,1098,421,3.05828,25.9115
-119,603,3.08411,-26.1442,0.0016828,-0.0055726,0.000391158,0.00170383,-0.00559362,0.0537052,0.00440819,0.0109071,1105,421,3.08406,26.1442
-112,603,3.08154,-26.3953,0.00237085,-0.00618895,0.000124634,0.00237267,-0.00619077,0.0145563,0.00510528,0.0151986,1112,421,3.08153,26.3953
-105,603,3.09534,-26.6287,0.00306338,-0.00639258,-0.000178001,0.00306673,-0.00639592,-0.0188153,0.00557483,0.015394,1119,421,3.09535,26.6287
-98,603,3.10205,-26.8216,0.003775,-0.00645071,-0.000456756,0.00379536,-0.00647107,-0.0445492,0.00599406,0.0114575,1126,421,3.10205,26.8215
-91,603,3.10596,-27.0198,0.0044292,-0.00617929,-0.00072515,0.00447854,-0.00622863,-0.0679345,0.00620925,0.0083503,1133,421,3.1059,27.0198
-84,603,3.1366,-27.2441,0.00488548,-0.00567913,-0.00105502,0.00498981,-0.00578346,-0.098567,0.00622557,0.0097911,1140,421,3.13663,27.2442
-77,603,3.1731,-27.4856,0.0052444,-0.00497028,-0.00123162,0.0053908,-0.00511669,-0.118314,0.00606719,0.0159087,1147,421,3.17307,27.4856
-70,603,3.3407,-27.8635,0.00641864,-0.005054,-0.00114744,0.00653228,-0.00516764,-0.0987123,0.00677025,0.0448573,1154,421,3.34065,27.8635
-63,603,3.15857,-27.7378,0,0,0,0,0,0,0,-1,1161,421,3.15861,27.7378
-56,603,3.23035,-27.9043,0,0,0,0,0,0,0,-1,1168,421,3.23038,27.9043
-49,603,3.31421,-28.0497,0,0,0,0,0,0,0,-1,1175,421,3.3142,28.0497
-42,603,3.32092,-28.1917,0,0,0,0,0,0,0,-1,1182,421,3.32091,28.1917
-35,603,3.28418,-28.3188,0.0144926,-0.00973765,-0.00468626,0.0153674,-0.0106124,-0.184542,0.015083,0.042617,1189,421,3.2842,28.3188
-28,603,3.31714,-28.4112,0.0174308,-0.0112,-0.00461657,0.0181568,-0.011926,-0.15598,0.017492,0.0263997,1196,421,3.31713,28.4112
-21,603,3.36975,-28.5242,0.0198664,-0.0120463,-0.00538562,0.0207508,-0.0129307,-0.162758,0.0196199,0.0227722,1203,421,3.3698,28.5242
-14,603,3.4856,-28.5955,0.0225135,-0.0129753,-0.00492532,0.0231844,-0.0136462,-0.135377,0.0215005,0.0213984,1210,421,3.48563,28.5955
-7,603,3.53137,-28.6833,0.025608,-0.0130705,-0.00438784,0.0260995,-0.013562,-0.111555,0.0232768,0.0241658,1217,421,3.53136,28.6833
0,603,3.44299,-28.8082,0.0284563,-0.0129659,-0.00377391,0.0287973,-0.0133069,-0.0901195,0.0248513,0.0294524,1224,421,3.44301,28.8082
7,603,3.56836,-28.7829,0.0309714,-0.0122744,-0.00323528,0.0312121,-0.0125151,-0.0742607,0.0260038,0.0367922,1231,421,3.56832,28.7829
14,603,3.75623,-28.6516,0.0327177,-0.0110569,-0.0021629,0.0328243,-0.0111635,-0.0492501,0.0264028,0.0337332,1238,421,3.75622,28.6517
21,603,3.77527,-28.7004,0.0334723,-0.0120042,-0.00077911,0.0334856,-0.0120176,-0.0171254,0.0272284,0.0259356,1245,421,3.77527,28.7004
28,603,3.81641,-28.7838,0.0337567,-0.0104448,-0.000921764,0.0337759,-0.010464,-0.0208416,0.0266978,0.0307762,1252,421,3.81646,28.7839
35,603,3.84387,-28.7574,0.0329324,-0.0111105,0.000115305,0.0329327,-0.0111108,0.00261799,0.0264485,0.0406083,1259,421,3.84384,28.7573
42,603,3.85449,-28.9007,0.0306891,-0.0129141,0.0012713,0.0307261,-0.0129511,0.0291233,0.0259038,0.0349514,1266,421,3.85454,28.9007
49,603,3.94397,-29.0654,0.0282857,-0.0154419,0.00152755,0.028339,-0.0154952,0.0348766,0.0256672,0.0192437,1273,421,3.94395,29.0654
56,603,3.91345,-28.9915,0.0261897,-0.0183906,0.00208578,0.0262871,-0.018488,0.0466513,0.0259813,0.0368249,1280,421,3.91349,28.9915
63,603,3.89648,-28.9104,0,0,0,0,0,0,0,-1,1287,421,3.89654,28.9104
70,603,3.98511,-28.8891,0,0,0,0,0,0,0,-1,1294,421,3.98517,28.8891
77,603,4.12317,-29.0211,0,0,0,0,0,0,0,-1,1301,421,4.12317,29.0212
84,603,4.06641,-29.0493,0,0,0,0,0,0,0,-1,1308,421,4.06635,29.0493
91,603,3.79028,-28.8304,0.0165722,-0.0329369,-0.00267647,0.0167164,-0.0330812,-0.0538511,0.0292636,0.0482775,1315,421,3.79033,28.8304
98,603,4.37109,-28.9991,0.0164129,-0.0342596,-0.00374253,0.0166879,-0.0345345,-0.073327,0.0301656,0.0469845,1322,421,4.37108,28.9991
105,603,4.66077,-28.796,0.0172711,-0.0344239,-0.00459618,0.0176766,-0.0348293,-0.08799,0.0308488,0.0431813,1329,421,4.66082,28.796
112,603,4.51611,-28.586,0.0179538,-0.0339434,-0.00507799,0.018446,-0.0344356,-0.096626,0.0309929,0.036418,1336,421,4.51608,28.586
119,603,4.52185,-28.5773,0.0190577,-0.0323158,-0.00556441,0.0196535,-0.0329116,-0.106665,0.0306686,0.0402896,1343,421,4.52179,28.5773
126,603,4.60449,-28.4001,0.0199513,-0.0290095,-0.0058769,0.0206468,-0.029705,-0.117804,0.029227,0.0470433,1350,421,4.60455,28.4001
133,603,4.61316,-28.285,0.0203348,-0.0274023,-0.00510057,0.0208737,-0.0279412,-0.105264,0.0282816,0.0401044,1357,421,4.61311,28.285
140,603,4.67456,-28.1995,0.0207783,-0.0238391,-0.00524729,0.0213871,-0.0244479,-0.115507,0.0264825,0.0281363,1364,421,4.67461,28.1995
147,603,4.54626,-28.1451,0.0212337,-0.0208263,-0.0051836,0.0218631,-0.0214557,-0.120834,0.0250105,0.0215843,1371,421,4.54627,28.1451
154,603,4.46204,-28.0861,0.0212998,-0.0181928,-0.00443007,0.0217907,-0.0186836,-0.110348,0.0233908,0.0273872,1378,421,4.46202,28.0861
161,603,4.55359,-27.9684,0.0206091,-0.0157285,-0.00376339,0.0209947,-0.0161142,-0.102123,0.0214865,0.0298144,1385,421,4.55361,27.9684
168,603,4.69629,-27.8112,0.0189404,-0.0134412,-0.00306867,0.0192286,-0.0137294,-0.093655,0.0191164,0.0315695,1392,421,4.69628,27.8112
175,603,4.87317,-27.6705,0.0169687,-0.0116489,-0.00263526,0.0172094,-0.0118895,-0.0910648,0.0168936,0.0348037,1399,421,4.87316,27.6705
182,603,4.93762,-27.5266,0.0158899,-0.010434,-0.00210434,0.016057,-0.0106012,-0.0792694,0.0154982,0.0417324,1406,421,4.93758,27.5266
189,603,4.94153,-27.3224,0.0146022,-0.0103544,-0.000257268,0.0146049,-0.0103571,-0.0103071,0.0144812,0.0371956,1413,421,4.94151,27.3224
196,603,4.84937,-27.0889,0.0111683,-0.00953694,0.000279338,0.0111721,-0.00954071,0.0134879,0.0119709,0.0277052,1420,421,4.84933,27.0889
203,603,4.82874,-26.934,0.00730058,-0.00581983,-0.00124194,0.0074171,-0.00593635,-0.0935503,0.0077254,0.0160675,1427,421,4.82869,26.934
210,603,4.85803,-26.8091,0.00337972,-0.00240865,-0.00132073,0.00366683,-0.00269576,-0.214056,0.00368767,0.0125121,1434,421,4.85801,26.809
217,603,4.87524,-26.5546,0.00270139,-0.000100532,-0.000833188,0.00293043,-0.000329569,-0.268266,0.00207223,0.0134549,1441,421,4.8752,26.5546
224,603,4.89673,-26.323,0.00220159,0.000734594,-0.000402554,0.00230479,0.00063139,-0.250966,0.00137526,0.0168602,1448,421,4.89672,26.323
231,603,4.91455,-26.0977,0.00181787,0.00147548,6.57834e-05,0.00183007,0.00146327,0.183431,0.00111802,0.0150443,1455,421,4.91452,26.0976
238,603,4.94568,-25.8434,0.00166639,0.00206974,0.00037958,0.0022979,0.00143824,1.02959,0.00134064,0.0110955,1462,421,4.94568,25.8434
245,603,4.96008,-25.5904,0.00158279,0.00248913,0.000574052,0.00276733,0.00130459,1.11953,0.00159859,0.0116069,1469,421,4.96007,25.5904
252,603,4.9696,-25.3224,0.00140261,0.00277175,0.00068557,0.00305601,0.00111834,1.17773,0.0017854,0.0102578,1476,421,4.96956,25.3224
259,603,4.97412,-25.0677,0.00117175,0.00294837,0.000802494,0.00325717,0.00086294,1.20345,0.00194857,0.00982972,1483,421,4.9741,25.0677
266,603,4.96399,-24.7911,0.000947117,0.00306983,0.000913187,0.00340861,0.000608335,1.21555,0.00209922,0.0115829,1490,421,4.96396,24.7911
273,603,4.96411,-24.5023,0.000710709,0.00322228,0.00101259,0.00357967,0.000353316,1.2315,0.00227783,0.0106626,1497,421,4.96415,24.5023
280,603,4.97644,-24.2083,0.000467781,0.00332384,0.00114538,0.00372642,6.5193e-05,1.2328,0.00246284,0.0117136,1504,421,4.97639,24.2083
287,603,4.97864,-23.8948,0.000315376,0.00349597,0.00136837,0.00400365,-0.000192299,1.21553,0.00273545,0.0114855,1511,421,4.97865,23.8948
294,603,4.95374,-23.5874,0.000178594,0.00365455,0.00155262,0.00424707,-0.000413923,1.20623,0.00297895,0.00973054,1518,421,4.95376,23.5874
301,603,4.94336,-23.2894,6.73076e-05,0.00388584,0.00179093,0.00459435,-0.000641196,1.19408,0.00329748,0.0110182,1525,421,4.94336,23.2894
308,603,4.94556,-22.9781,1.99309e-05,0.0041146,0.00211362,0.00500988,-0.000875348,1.17013,0.0036667,0.0155958,1532,421,4.9456,22.9781
315,603,4.93164,-22.6573,-1.3093e-06,0.00438166,0.00245003,0.00547731,-0.00109696,1.15027,0.00406681,0.0151884,1539,421,4.93167,22.6574
322,603,4.94128,-22.3129,-3.26023e-05,0.00469927,0.00282495,0.00601817,-0.0013515,1.134,0.00453031,0.0141561,1546,421,4.94129,22.3129
329,603,4.91138,-21.9661,-9.36526e-05,0.00491501,0.0031974,0.00647209,-0.00165073,1.11762,0.00495744,0.0104238,1553,421,4.91142,21.9661
336,603,4.88586,-21.6508,-0.000128603,0.00516133,0.00353357,0.0069302,-0.00189748,1.10668,0.00536565,0.00930575,1560,421,4.88588,21.6508
343,603,4.89026,-21.2887,-5.91011e-05,0.00521904,0.00384195,0.00724101,-0.00208107,1.08634,0.00565025,0.0117251,1567,421,4.89029,21.2887
350,603,4.88354,-20.9177,1.44352e-05,0.00567618,0.00427899,0.00797596,-0.00228535,1.07763,0.00622063,0.0239224,1574,421,4.88354,20.9177
357,603,4.89478,-20.4661,-0.000300946,0.00592064,0.00459347,0.00835755,-0.00273785,1.08303,0.0066742,0.0367836,1581,421,4.89479,20.4661
364,603,4.93359,-19.9358,0,0,0,0,0,0,0,-1,1588,421,4.93358,19.9358
371,603,4.80212,-19.5818,0,0,0,0,0,0,0,-1,1595,421,4.80211,19.5818
378,603,4.6698,-19.4785,0,0,0,0,0,0,0,-1,1602,421,4.66984,19.4785
385,603,4.50281,-18.8714,0,0,0,0,0,0,0,-1,1609,421,4.50286,18.8714
392,603,4.68127,-18.6477,0,0,0,0,0,0,0,-1,1616,421,4.68122,18.6477
399,603,2.38013,-5.37076,0,0,0,0,0,0,0,-1,1623,421,2.38016,5.37075
406,603,3.01917,-2.37219,0,0,0,0,0,0,0,-1,1630,421,3.01915,2.37219
413,603,2.38928,-2.41275,0,0,0,0,0,0,0,-1,1637,421,2.38926,2.41274
420,603,2.74866,-2.30066,0,0,0,0,0,0,0,-1,1644,421,2.74867,2.30065
427,603,7.11548,-3.35352,0,0,0,0,0,0,0,-1,1651,421,7.11549,3.35351
434,603,7.32153,-4.50525,0,0,0,0,0,0,0,-1,1658,421,7.32149,4.50525
441,603,3.18213,-0.250946,0,0,0,0,0,0,0,-1,1665,421,3.18212,0.250944
448,603,2.95667,-0.066925,0,0,0,0,0,0,0,-1,1672,421,2.95662,0.0669226
455,603,0,0,0,0,0,0,0,0,0,-1,1679,421,0,0
462,603,0,0,0,0,0,0,0,0,0,-1,1686,421,0,0
469,603,0,0,0,0,0,0,0,0,0,-1,1693,421,0,0
476,603,0,0,0,0,0,0,0,0,0,-1,1700,421,0,0
483,603,0,0,0,0,0,0,0,0,0,-1,1707,421,0,0
490,603,0,0,0,0,0,0,0,0,0,-1,1714,421,0,0
497,603,0,0,0,0,0,0,0,0,0,-1,1721,421,0,0
504,603,0,0,0,0,0,0,0,0,0,-1,1728,421,0,0
511,603,0,0,0,0,0,0,0,0,0,-1,1735,421,0,0
518,603,0,0,0,0,0,0,0,0,0,-1,1742,421,0,0
525,603,0,0,0,0,0,0,0,0,0,-1,1749,421,0,0
532,603,0,0,0,0,0,0,0,0,0,-1,1756,421,0,0
539,603,0,0,0,0,0,0,0,0,0,-1,1763,421,0,0
546,603,0,0,0,0,0,0,0,0,0,-1,1770,421,0,0
553,603,0,0,0,0,0,0,0,0,0,-1,1777,421,0,0
560,603,0,0,0,0,0,0,0,0,0,-1,1784,421,0,0
567,603,0,0,0,0,0,0,0,0,0,-1,1791,421,0,0
574,603,0,0,0,0,0,0,0,0,0,-1,1798,421,0,0
581,603,0,0,0,0,0,0,0,0,0,-1,1805,421,0,0
588,603,0,0,0,0,0,0,0,0,0,-1,1812,421,0,0
595,603,0,0,0,0,0,0,0,0,0,-1,1819,421,0,0
602,603,0,0,0,0,0,0,0,0,0,-1,1826,421,0,0
609,603,0,0,0,0,0,0,0,0,0,-1,1833,421,0,0
616,603,0,0,0,0,0,0,0,0,0,-1,1840,421,0,0
623,603,0,0,0,0,0,0,0,0,0,-1,1847,421,0,0
630,603,0,0,0,0,0,0,0,0,0,-1,1854,421,0,0
637,603,0,0,0,0,0,0,0,0,0,-1,1861,421,0,0
644,603,0,0,0,0,0,0,0,0,0,-1,1868,421,0,0
651,603,0,0,0,0,0,0,0,0,0,-1,1875,421,0,0
658,603,0,0,0,0,0,0,0,0,0,-1,1882,421,0,0
665,603,0,0,0,0,0,0,0,0,0,-1,1889,421,0,0
672,603,0,0,0,0,0,0,0,0,0,-1,1896,421,0,0
679,603,0,0,0,0,0,0,0,0,0,-1,1903,421,0,0
686,603,0,0,0,0,0,0,0,0,0,-1,1910,421,0,0
693,603,0,0,0,0,0,0,0,0,0,-1,1917,421,0,0
700,603,0,0,0,0,0,0,0,0,0,-1,1924,421,0,0
707,603,0,0,0,0,0,0,0,0,0,-1,1931,421,0,0
714,603,0,0,0,0,0,0,0,0,0,-1,1938,421,0,0
721,603,0,0,0,0,0,0,0,0,0,-1,1945,421,0,0
728,603,0,0,0,0,0,0,0,0,0,-1,1952,421,0,0
735,603,0,0,0,0,0,0,0,0,0,-1,1959,421,0,0
742,603,0,0,0,0,0,0,0,0,0,-1,1966,421,0,0
749,603,0,0,0,0,0,0,0,0,0,-1,1973,421,0,0
756,603,0,0,0,0,0,0,0,0,0,-1,1980,421,0,0
763,603,0,0,0,0,0,0,0,0,0,-1,1987,421,0,0
770,603,0,0,0,0,0,0,0,0,0,-1,1994,421,0,0
777,603,0,0,0,0,0,0,0,0,0,-1,2001,421,0,0
784,603,0,0,0,0,0,0,0,0,0,-1,2008,421,0,0
791,603,0,0,0,0,0,0,0,0,0,-1,2015,421,0,0
798,603,0,0,0,0,0,0,0,0,0,-1,2022,421,0,0
805,603,0,0,0,0,0,0,0,0,0,-1,2029,421,0,0
812,603,0,0,0,0,0,0,0,0,0,-1,2036,421,0,0
-700,596,0,0,0,0,0,0,0,0,0,-1,524,428,0,0
-693,596,0,0,0,0,0,0,0,0,0,-1,531,428,0,0
-686,596,0,0,0,0,0,0,0,0,0,-1,538,428,0,0
-679,596,0,0,0,0,0,0,0,0,0,-1,545,428,0,0
-672,596,0,0,0,0,0,0,0,0,0,-1,552,428,0,0
-665,596,0,0,0,0,0,0,0,0,0,-1,559,428,0,0
-658,596,0,0,0,0,0,0,0,0,0,-1,566,428,0,0
-651,596,0,0,0,0,0,0,0,0,0,-1,573,428,0,0
-644,596,0,0,0,0,0,0,0,0,0,-1,580,428,0,0
-637,596,0,0,0,0,0,0,0,0,0,-1,587,428,0,0
-630,596,0,0,0,0,0,0,0,0,0,-1,594,428,0,0
-623,596,0,0,0,0,0,0,0,0,0,-1,601,428,0,0
-616,596,0,0,0,0,0,0,0,0,0,-1,608,428,0,0
-609,596,0,0,0,0,0,0,0,0,0,-1,615,428,0,0
-602,596,0,0,0,0,0,0,0,0,0,-1,622,428,0,0
-595,596,0,0,0,0,0,0,0,0,0,-1,629,428,0,0
-588,596,0,0,0,0,0,0,0,0,0,-1,636,428,0,0
-581,596,0,0,0,0,0,0,0,0,0,-1,643,428,0,0
-574,596,0,0,0,0,0,0,0,0,0,-1,650,428,0,0
-567,596,0,0,0,0,0,0,0,0,0,-1,657,428,0,0
-560,596,0,0,0,0,0,0,0,0,0,-1,664,428,0,0
-553,596,0,0,0,0,0,0,0,0,0,-1,671,428,0,0
-546,596,0,0,0,0,0,0,0,0,0,-1,678,428,0,0
-539,596,0,0,0,0,0,0,0,0,0,-1,685,428,0,0
-532,596,0,0,0,0,0,0,0,0,0,-1,692,428,0,0
-525,596,0,0,0,0,0,0,0,0,0,-1,699,428,0,0
-518,596,0,0,0,0,0,0,0,0,0,-1,706,428,0,0
-511,596,0,0,0,0,0,0,0,0,0,-1,713,428,0,0
-504,596,0,0,0,0,0,0,0,0,0,-1,720,428,0,0
-497,596,0,0,0,0,0,0,0,0,0,-1,727,428,0,0
-490,596,0,0,0,0,0,0,0,0,0,-1,734,428,0,0
-483,596,0,0,0,0,0,0,0,0,0,-1,741,428,0,0
-476,596,0,0,0,0,0,0,0,0,0,-1,748,428,0,0
-469,596,0,0,0,0,0,0,0,0,0,-1,755,428,0,0
-462,596,0,0,0,0,0,0,0,0,0,-1,762,428,0,0
-455,596,0,0,0,0,0,0,0,0,0,-1,769,428,0,0
-448,596,0,0,0,0,0,0,0,0,0,-1,776,428,0,0
-441,596,0,0,0,0,0,0,0,0,0,-1,783,428,0,0
-434,596,0,0,0,0,0,0,0,0,0,-1,790,428,0,0
-427,596,0,0,0,0,0,0,0,0,0,-1,797,428,0,0
-420,596,0,0,0,0,0,0,0,0,0,-1,804,428,0,0
-413,596,0,0,0,0,0,0,0,0,0,-1,811,428,0,0
-406,596,0,0,0,0,0,0,0,0,0,-1,818,428,0,0
-399,596,0,0,0,0,0,0,0,0,0,-1,825,428,0,0
-392,596,0,0,0,0,0,0,0,0,0,-1,832,428,0,0
-385,596,0,0,0,0,0,0,0,0,0,-1,839,428,0,0
-378,596,0,0,0,0,0,0,0,0,0,-1,846,428,0,0
-371,596,0,0,0,0,0,0,0,0,0,-1,853,428,0,0
-364,596,0,0,0,0,0,0,0,0,0,-1,860,428,0,0
-357,596,0,0,0,0,0,0,0,0,0,-1,867,428,0,0
-350,596,0,0,0,0,0,0,0,0,0,-1,874,428,0,0
-343,596,0,0,0,0,0,0,0,0,0,-1,881,428,0,0
-336,596,-0.823181,-19.3383,0,0,0,0,0,0,0,-1,888,428,-0.823181,19.3383
-329,596,3.336,-17.6245,0,0,0,0,0,0,0,-1,895,428,3.33598,17.6245
-322,596,3.06299,-17.1667,0,0,0,0,0,0,0,-1,902,428,3.06296,17.1667
-315,596,2.78992,-16.7089,0,0,0,0,0,0,0,-1,909,428,2.78994,16.7089
-308,596,1.96661,-17.6277,0,0,0,0,0,0,0,-1,916,428,1.96661,17.6277
-301,596,2.55426,-18.8873,0,0,0,0,0,0,0,-1,923,428,2.55429,18.8873
-294,596,3.2229,-17.8612,0,0,0,0,0,0,0,-1,930,428,3.2229,17.8612
-287,596,3.24719,-18.4128,0,0,0,0,0,0,0,-1,937,428,3.24721,18.4128
-280,596,3.12158,-18.9908,0,0,0,0,0,0,0,-1,944,428,3.12156,18.9907
-273,596,3.10968,-19.5076,0.00745976,0.0146821,0.0152322,0.0267254,-0.00458349,0.901787,0.0195249,0.0404016,951,428,3.1097,19.5076
-266,596,2.87683,-19.5225,0.00785931,0.0125919,0.0154938,0.025899,-0.00544785,0.861175,0.0193395,0.0401789,958,428,2.87682,19.5225
-259,596,2.91962,-19.9238,0.0084038,0.0111087,0.0151172,0.0249339,-0.00542135,0.830012,0.0186936,0.0349811,965,428,2.91964,19.9238
-252,596,2.94049,-20.4545,0.00852002,0.00978055,0.013796,0.0229606,-0.00466008,0.808225,0.0170738,0.0174542,972,428,2.94051,20.4545
-245,596,2.94275,-20.8539,0.00813162,0.0089262,0.0119283,0.0204639,-0.00340604,0.802045,0.0149082,0.0126711,979,428,2.94273,20.8539
-238,596,2.9292,-21.2111,0.00749162,0.00830875,0.00980402,0.0177127,-0.00191234,0.806223,0.0124948,0.0115668,986,428,2.9292,21.2111
-231,596,2.87622,-21.5517,0.00676797,0.00777453,0.00768829,0.014976,-0.000433495,0.818082,0.0101316,0.0127461,993,428,2.87621,21.5517
-224,596,2.87146,-21.9089,0.00588806,0.00722941,0.00565653,0.0122549,0.00086259,0.844406,0.00789811,0.0131502,1000,428,2.87146,21.9089
-217,596,2.87006,-22.2563,0.00496048,0.00655219,0.00356221,0.00940636,0.0021063,0.895302,0.00570004,0.0139735,1007,428,2.87003,22.2564
-210,596,2.88,-22.5705,0.00405699,0.00577449,0.00190662,0.00700682,0.00282466,0.996994,0.00407062,0.0122617,1014,428,2.88,22.5705
-203,596,2.85419,-22.8824,0.00326403,0.0050787,0.00100132,0.00552263,0.00282011,1.1535,0.00318873,0.0158697,1021,428,2.85416,22.8824
-196,596,2.84619,-23.201,0.00205537,0.00437626,0.000524751,0.00448939,0.00194224,1.35846,0.00259978,0.0157888,1028,428,2.84617,23.201
-189,596,2.81421,-23.4942,0.000898883,0.00379604,1.62921e-05,0.00379613,0.000898792,1.56517,0.00229071,0.0129485,1035,428,2.81424,23.4942
-182,596,2.80774,-23.7791,0.000302496,0.00279884,-0.000261808,0.002826,0.000275334,-1.46742,0.00179926,0.0114738,1042,428,2.8077,23.7791
-175,596,2.81274,-24.078,0.000170361,0.00170357,0.000270228,0.00174981,0.000124128,1.40135,0.00112744,0.0130235,1049,428,2.81271,24.078
-168,596,2.81287,-24.3865,-1.92235e-06,0.000378661,0.000717383,0.000930562,-0.000553823,0.915042,0.000866162,0.0157182,1056,428,2.81292,24.3865
-161,596,2.80518,-24.6759,-2.89654e-05,-0.00110048,0.000996047,0.00056627,-0.00169572,0.538651,0.00135914,0.0151179,1063,428,2.80515,24.6759
-154,596,2.79272,-24.9424,0.000193046,-0.00238073,0.00117194,0.000646714,-0.00283439,0.369343,0.00213802,0.0131539,1070,428,2.79278,24.9424
-147,596,2.83301,-25.1829,0.000458812,-0.00379461,0.00130867,0.0008292,-0.004165,0.275814,0.00309037,0.0138539,1077,428,2.83301,25.1829
-140,596,2.84753,-25.4186,0.000858994,-0.00539802,0.00131195,0.00112295,-0.00566198,0.19854,0.00419932,0.0145785,1084,428,2.84756,25.4186
-133,596,2.81555,-25.6647,0.00133927,-0.00712222,0.00126909,0.00152551,-0.00730846,0.145714,0.00545242,0.0148464,1091,428,2.81559,25.6647
-126,596,2.82178,-25.9016,0.00189876,-0.00870261,0.00119705,0.00203224,-0.0088361,0.111052,0.00667212,0.0115581,1098,428,2.82179,25.9017
-119,596,2.87231,-26.1644,0.00266485,-0.00974429,0.000853019,0.00272321,-0.00980266,0.068313,0.00760709,0.0136603,1105,428,2.87233,26.1644
-112,596,2.85547,-26.3932,0.00345837,-0.0106417,0.000484594,0.00347501,-0.0106583,0.0343142,0.00850395,0.014648,1112,428,2.85547,26.3932
-105,596,2.87231,-26.6352,0.00427415,-0.0109325,7.61872e-05,0.00427453,-0.0109329,0.00500994,0.00905621,0.0153899,1119,428,2.87228,26.6352
-98,596,2.91052,-26.8097,0.00517004,-0.0109728,-0.000294536,0.00517542,-0.0109782,-0.0182375,0.00952476,0.0107105,1126,428,2.91046,26.8097
-91,596,2.91284,-27.0678,0.00602327,-0.0105109,-0.000678771,0.00605109,-0.0105387,-0.0409607,0.00969426,0.0202752,1133,428,2.9128,27.0678
-84,596,3.03711,-27.4775,0,0,0,0,0,0,0,-1,1140,428,3.0371,27.4775
-77,596,3.01147,-27.5674,0,0,0,0,0,0,0,-1,1147,428,3.01149,27.5674
-70,596,3.1272,-28.0384,0,0,0,0,0,0,0,-1,1154,428,3.12723,28.0384
-63,596,1.95569,-12.2758,0,0,0,0,0,0,0,-1,1161,428,1.95563,12.2759
-56,596,1.60107,-10.5827,0,0,0,0,0,0,0,-1,1168,428,1.60108,10.5827
-49,596,1.59473,-10.0393,0,0,0,0,0,0,0,-1,1175,428,1.59472,10.0393
-42,596,1.99585,-6.6246,0,0,0,0,0,0,0,-1,1182,428,1.99586,6.62459
-35,596,2.95654,-28.0898,0,0,0,0,0,0,0,-1,1189,428,2.95649,28.0898
-28,596,3.17041,-28.275,0,0,0,0,0,0,0,-1,1196,428,3.17043,28.275
-21,596,3.005,-28.0303,0.025516,-0.0149377,-0.00846846,0.0272172,-0.016639,-0.19825,0.0255647,0.0491592,1203,428,3.00498,28.0303
-14,596,3.354,-28.3751,0.0287246,-0.0157193,-0.00758811,0.0299844,-0.0169791,-0.164527,0.0274588,0.0482385,1210,428,3.35404,28.3751
-7,596,3.44568,-28.5759,0,0,0,0,0,0,0,-1,1217,428,3.44567,28.5759
0,596,3.20801,-28.7283,0,0,0,0,0,0,0,-1,1224,428,3.20804,28.7283
7,596,3.43359,-28.6686,0.0397296,-0.0139176,-0.00440766,0.0400894,-0.0142773,-0.0814324,0.0325465,0.0475199,1231,428,3.43355,28.6686
14,596,3.6355,-28.4644,0.0421179,-0.0120524,-0.00265254,0.0422475,-0.0121819,-0.048811,0.0329842,0.0468467,1238,428,3.63553,28.4644
21,596,3.75732,-28.4272,0.0430916,-0.012944,-0.000610003,0.0430982,-0.0129506,-0.0108843,0.0338843,0.0471551,1245,428,3.75731,28.4272
28,596,3.81128,-28.5565,0.0433446,-0.0113721,-0.000180264,0.0433452,-0.0113727,-0.00329444,0.0333407,0.0460219,1252,428,3.81134,28.5565
35,596,6.86011,-27.7663,0,0,0,0,0,0,0,-1,1259,428,6.86015,27.7663
42,596,7.92651,-28.1959,0,0,0,0,0,0,0,-1,1266,428,7.92656,28.1959
49,596,3.87292,-28.9691,0,0,0,0,0,0,0,-1,1273,428,3.87294,28.9691
56,596,9.82019,-28.9455,0,0,0,0,0,0,0,-1,1280,428,9.82021,28.9455
63,596,3.59546,-27.9447,0,0,0,0,0,0,0,-1,1287,428,3.59542,27.9447
70,596,0.93457,-29.5606,0,0,0,0,0,0,0,-1,1294,428,0.934603,29.5606
77,596,1.85913,-29.4137,0.0242138,-0.0360306,0.00153488,0.0242529,-0.0360696,0.0254556,0.0350492,0.045313,1301,428,1.85913,29.4137
84,596,2.51697,-29.0395,0,0,0,0,0,0,0,-1,1308,428,2.51694,29.0395
91,596,3.47937,-28.8017,0,0,0,0,0,0,0,-1,1315,428,3.47937,28.8017
98,596,4.4552,-29.0363,0,0,0,0,0,0,0,-1,1322,428,4.45519,29.0363
105,596,4.88745,-28.3008,0.022163,-0.0423282,-0.00448558,0.0224735,-0.0426387,-0.0691098,0.0381888,0.043912,1329,428,4.88745,28.3008
112,596,4.97607,-27.9887,0.0232172,-0.0412362,-0.00525394,0.0236427,-0.0416617,-0.0808043,0.0381789,0.0433733,1336,428,4.97604,27.9887
119,596,5.09253,-28.1564,0,0,0,0,0,0,0,-1,1343,428,5.09252,28.1564
126,596,4.91638,-27.954,0,0,0,0,0,0,0,-1,1350,428,4.91642,27.954
133,596,4.80774,-27.8838,0,0,0,0,0,0,0,-1,1357,428,4.8077,27.8838
140,596,4.92676,-27.7845,0,0,0,0,0,0,0,-1,1364,428,4.92671,27.7845
147,596,4.52063,-27.4944,0.0289079,-0.0227862,-0.00587909,0.0295681,-0.0234464,-0.111826,0.0306759,0.0494504,1371,428,4.52059,27.4944
154,596,4.47498,-27.5385,0.0293901,-0.0196861,-0.00499528,0.0298934,-0.0201894,-0.100414,0.0290957,0.0477926,1378,428,4.47503,27.5385
161,596,4.54395,-27.5728,0.0290522,-0.017007,-0.00415475,0.0294239,-0.0173788,-0.0892447,0.0273182,0.0469411,1385,428,4.54399,27.5728
168,596,4.70667,-27.4125,0,0,0,0,0,0,0,-1,1392,428,4.70667,27.4125
175,596,5.15356,-27.4028,0,0,0,0,0,0,0,-1,1399,428,5.15359,27.4028
182,596,5.21289,-27.4257,0,0,0,0,0,0,0,-1,1406,428,5.2129,27.4257
189,596,5.16418,-27.2755,0,0,0,0,0,0,0,-1,1413,428,5.16421,27.2754
196,596,5.09924,-26.8654,0,0,0,0,0,0,0,-1,1420,428,5.09927,26.8654
203,596,5.02332,-26.8643,0,0,0,0,0,0,0,-1,1427,428,5.02337,26.8643
210,596,5.0625,-26.8314,0,0,0,0,0,0,0,-1,1434,428,5.06251,26.8314
217,596,5.11829,-26.5599,0,0,0,0,0,0,0,-1,1441,428,5.11831,26.5599
224,596,5.12817,-26.3746,0.00294265,0.00038795,-0.000811769,0.00317877,0.00015183,-0.283061,0.00207042,0.0319492,1448,428,5.12814,26.3746
231,596,5.18945,-26.0967,0.00245391,0.00127718,-0.000264726,0.00251072,0.00122036,-0.2114,0.00144975,0.0157922,1455,428,5.18951,26.0967
238,596,5.20959,-25.8419,0.0023149,0.00192863,6.89002e-05,0.00232682,0.0019167,0.171335,0.00143419,0.0150704,1462,428,5.20961,25.8419
245,596,5.23206,-25.595,0.00228708,0.00228682,0.000256285,0.00254324,0.00203066,0.785146,0.00155309,0.0130584,1469,428,5.23209,25.595
252,596,5.24829,-25.3199,0.00208655,0.00238743,0.00031662,0.00258753,0.00188645,1.00718,0.00154528,0.0100429,1476,428,5.24831,25.3199
259,596,5.24756,-25.0563,0.00182192,0.00231347,0.000368664,0.00251077,0.00162462,1.07939,0.00147035,0.00892854,1483,428,5.24759,25.0563
266,596,5.22717,-24.7858,0.00161188,0.00222276,0.000409842,0.00242846,0.00140618,1.10563,0.0014079,0.0101889,1490,428,5.2272,24.7858
273,596,5.2373,-24.5001,0.001419,0.00221245,0.000478159,0.00243703,0.00119441,1.13169,0.00140711,0.0115949,1497,428,5.23728,24.5
280,596,5.26038,-24.2104,0.00114785,0.002071,0.000531913,0.00231368,0.000905166,1.14276,0.0013463,0.0128081,1504,428,5.26042,24.2105
287,596,5.26636,-23.9091,0.000956676,0.00207796,0.000665559,0.00238754,0.000647095,1.13542,0.00142581,0.0121533,1511,428,5.26639,23.9091
294,596,5.23767,-23.605,0.000795104,0.00212595,0.000780354,0.00248607,0.000434983,1.13843,0.00153309,0.00911108,1518,428,5.23768,23.605
301,596,5.23694,-23.2942,0.000645202,0.00230139,0.000965062,0.00274494,0.000201651,1.13998,0.00176659,0.0100632,1525,428,5.23694,23.2942
308,596,5.27014,-22.9767,0.00055781,0.00245142,0.0012379,0.00306309,-5.38594e-05,1.11187,0.00206025,0.0162033,1532,428,5.27011,22.9767
315,596,5.25232,-22.6511,0.000477934,0.00270552,0.00151909,0.00347539,-0.000291929,1.10173,0.00242011,0.016893,1539,428,5.25234,22.6511
322,596,5.24805,-22.2922,0.000379017,0.00303449,0.00184014,0.0039759,-0.000562391,1.09792,0.00285658,0.0132251,1546,428,5.24803,22.2922
329,596,5.23792,-21.9597,0.000266068,0.00329862,0.00217839,0.00443648,-0.000871799,1.08943,0.00328702,0.0101083,1553,428,5.23798,21.9598
336,596,5.19946,-21.6579,0.000179936,0.00359388,0.00249315,0.00490843,-0.00113461,1.08558,0.00370879,0.00893753,1560,428,5.19944,21.6579
343,596,5.21313,-21.3034,0.000161372,0.0037436,0.00278767,0.00526597,-0.001361,1.07095,0.00404144,0.0114481,1567,428,5.21308,21.3034
350,596,5.22937,-20.9282,0.000140635,0.00423359,0.00317662,0.00596586,-0.00159164,1.07155,0.0046005,0.0121415,1574,428,5.22943,20.9282
357,596,5.1897,-20.5524,-0.000150364,0.0045779,0.0034712,0.00641357,-0.00198603,1.08435,0.00506911,0.00970421,1581,428,5.18973,20.5524
364,596,5.15698,-20.1416,-0.000644317,0.00490467,0.00351008,0.00660438,-0.00234403,1.11984,0.00535799,0.0155268,1588,428,5.15704,20.1416
371,596,5.14978,-19.7886,-0.000943061,0.00543174,0.0035759,0.0070346,-0.00254592,1.14941,0.00573011,0.0225192,1595,428,5.14976,19.7886
378,596,5.06433,-19.5011,-0.00128622,0.00626365,0.00370054,0.00777493,-0.0027975,1.18307,0.00632547,0.0290023,1602,428,5.06436,19.5011
385,596,4.99707,-18.9987,-0.0023033,0.00668565,0.00320347,0.00771046,-0.00332811,1.26118,0.00653839,0.0383059,1609,428,4.99706,18.9987
392,596,5.04419,-18.5836,-0.00344894,0.00736384,0.00266545,0.00798519,-0.00407029,1.34177,0.00708151,0.0463441,1616,428,5.04417,18.5837
399,596,4.91541,-17.7203,0,0,0,0,0,0,0,-1,1623,428,4.91541,17.7203
406,596,3.60034,-10.1525,0,0,0,0,0,0,0,-1,1630,428,3.60028,10.1525
413,596,3.39124,-2.63528,0,0,0,0,0,0,0,-1,1637,428,3.39122,2.6353
420,596,2.6344,-3.06308,0,0,0,0,0,0,0,-1,1644,428,2.63439,3.06308
427,596,2.99329,-1.90512,0,0,0,0,0,0,0,-1,1651,428,2.99327,1.90512
434,596,3.80896,-0.253998,0,0,0,0,0,0,0,-1,1658,428,3.80902,0.254004
441,596,3.86401,-0.131622,0,0,0,0,0,0,0,-1,1665,428,3.86406,0.131613
448,596,1.0769,0.0083313,0,0,0,0,0,0,0,-1,1672,428,1.07684,-0.00832231
455,596,2.00769,-1.43329,0,0,0,0,0,0,0,-1,1679,428,2.00765,1.4333
462,596,0,0,0,0,0,0,0,0,0,-1,1686,428,0,0
469,596,0,0,0,0,0,0,0,0,0,-1,1693,428,0,0
476,596,0,0,0,0,0,0,0,0,0,-1,1700,428,0,0
483,596,0,0,0,0,0,0,0,0,0,-1,1707,428,0,0
490,596,0,0,0,0,0,0,0,0,0,-1,1714,428,0,0
497,596,0,0,0,0,0,0,0,0,0,-1,1721,428,0,0
504,596,0,0,0,0,0,0,0,0,0,-1,1728,428,0,0
511,596,0,0,0,0,0,0,0,0,0,-1,1735,428,0,0
518,596,0,0,0,0,0,0,0,0,0,-1,1742,428,0,0
525,596,0,0,0,0,0,0,0,0,0,-1,1749,428,0,0
532,596,0,0,0,0,0,0,0,0,0,-1,1756,428,0,0
539,596,0,0,0,0,0,0,0,0,0,-1,1763,428,0,0
546,596,0,0,0,0,0,0,0,0,0,-1,1770,428,0,0
553,596,0,0,0,0,0,0,0,0,0,-1,1777,428,0,0
560,596,0,0,0,0,0,0,0,0,0,-1,1784,428,0,0
567,596,0,0,0,0,0,0,0,0,0,-1,1791,428,0,0
574,596,0,0,0,0,0,0,0,0,0,-1,1798,428,0,0
581,596,0,0,0,0,0,0,0,0,0,-1,1805,428,0,0
588,596,0,0,0,0,0,0,0,0,0,-1,1812,428,0,0
595,596,0,0,0,0,0,0,0,0,0,-1,1819,428,0,0
602,596,0,0,0,0,0,0,0,0,0,-1,1826,428,0,0
609,596,0,0,0,0,0,0,0,0,0,-1,1833,428,0,0
616,596,0,0,0,0,0,0,0,0,0,-1,1840,428,0,0
623,596,0,0,0,0,0,0,0,0,0,-1,1847,428,0,0
630,596,0,0,0,0,0,0,0,0,0,-1,1854,428,0,0
637,596,0,0,0,0,0,0,0,0,0,-1,1861,428,0,0
644,596,0,0,0,0,0,0,0,0,0,-1,1868,428,0,0
651,596,0,0,0,0,0,0,0,0,0,-1,1875,428,0,0
658,596,0,0,0,0,0,0,0,0,0,-1,1882,428,0,0
665,596,0,0,0,0,0,0,0,0,0,-1,1889,428,0,0
672,596,0,0,0,0,0,0,0,0,0,-1,1896,428,0,0
679,596,0,0,0,0,0,0,0,0,0,-1,1903,428,0,0
686,596,0,0,0,0,0,0,0,0,0,-1,1910,428,0,0
693,596,0,0,0,0,0,0,0,0,0,-1,1917,428,0,0
700,596,0,0,0,0,0,0,0,0,0,-1,1924,428,0,0
707,596,0,0,0,0,0,0,0,0,0,-1,1931,428,0,0
714,596,0,0,0,0,0,0,0,0,0,-1,1938,428,0,0
721,596,0,0,0,0,0,0,0,0,0,-1,1945,428,0,0
728,596,0,0,0,0,0,0,0,0,0,-1,1952,428,0,0
735,596,0,0,0,0,0,0,0,0,0,-1,1959,428,0,0
742,596,0,0,0,0,0,0,0,0,0,-1,1966,428,0,0
749,596,0,0,0,0,0,0,0,0,0,-1,1973,428,0,0
756,596,0,0,0,0,0,0,0,0,0,-1,1980,428,0,0
763,596,0,0,0,0,0,0,0,0,0,-1,1987,428,0,0
770,596,0,0,0,0,0,0,0,0,0,-1,1994,428,0,0
777,596,0,0,0,0,0,0,0,0,0,-1,2001,428,0,0
784,596,0,0,0,0,0,0,0,0,0,-1,2008,428,0,0
791,596,0,0,0,0,0,0,0,0,0,-1,2015,428,0,0
798,596,0,0,0,0,0,0,0,0,0,-1,2022,428,0,0
805,596,0,0,0,0,0,0,0,0,0,-1,2029,428,0,0
812,596,0,0,0,0,0,0,0,0,0,-1,2036,428,0,0
-700,589,0,0,0,0,0,0,0,0,0,-1,524,435,0,0
-693,589,0,0,0,0,0,0,0,0,0,-1,531,435,0,0
-686,589,0,0,0,0,0,0,0,0,0,-1,538,435,0,0
-679,589,0,0,0,0,0,0,0,0,0,-1,545,435,0,0
-672,589,0,0,0,0,0,0,0,0,0,-1,552,435,0,0
-665,589,0,0,0,0,0,0,0,0,0,-1,559,435,0,0
-658,589,0,0,0,0,0,0,0,0,0,-1,566,435,0,0
-651,589,0,0,0,0,0,0,0,0,0,-1,573,435,0,0
-644,589,0,0,0,0,0,0,0,0,0,-1,580,435,0,0
-637,589,0,0,0,0,0,0,0,0,0,-1,587,435,0,0
-630,589,0,0,0,0,0,0,0,0,0,-1,594,435,0,0
-623,589,0,0,0,0,0,0,0,0,0,-1,601,435,0,0
-616,589,0,0,0,0,0,0,0,0,0,-1,608,435,0,0
-609,589,0,0,0,0,0,0,0,0,0,-1,615,435,0,0
-602,589,0,0,0,0,0,0,0,0,0,-1,622,435,0,0
-595,589,0,0,0,0,0,0,0,0,0,-1,629,435,0,0
-588,589,0,0,0,0,0,0,0,0,0,-1,636,435,0,0
-581,589,0,0,0,0,0,0,0,0,0,-1,643,435,0,0
-574,589,0,0,0,0,0,0,0,0,0,-1,650,435,0,0
-567,589,0,0,0,0,0,0,0,0,0,-1,657,435,0,0
-560,589,0,0,0,0,0,0,0,0,0,-1,664,435,0,0
-553,589,0,0,0,0,0,0,0,0,0,-1,671,435,0,0
-546,589,0,0,0,0,0,0,0,0,0,-1,678,435,0,0
-539,589,0,0,0,0,0,0,0,0,0,-1,685,435,0,0
-532,589,0,0,0,0,0,0,0,0,0,-1,692,435,0,0
-525,589,0,0,0,0,0,0,0,0,0,-1,699,435,0,0
-518,589,0,0,0,0,0,0,0,0,0,-1,706,435,0,0
-511,589,0,0,0,0,0,0,0,0,0,-1,713,435,0,0
-504,589,0,0,0,0,0,0,0,0,0,-1,720,435,0,0
-497,589,0,0,0,0,0,0,0,0,0,-1,727,435,0,0
-490,589,0,0,0,0,0,0,0,0,0,-1,734,435,0,0
-483,589,0,0,0,0,0,0,0,0,0,-1,741,435,0,0
-476,589,0,0,0,0,0,0,0,0,0,-1,748,435,0,0
-469,589,0,0,0,0,0,0,0,0,0,-1,755,435,0,0
-462,589,0,0,0,0,0,0,0,0,0,-1,762,435,0,0
-455,589,0,0,0,0,0,0,0,0,0,-1,769,435,0,0
-448,589,0,0,0,0,0,0,0,0,0,-1,776,435,0,0
-441,589,0,0,0,0,0,0,0,0,0,-1,783,435,0,0
-434,589,0,0,0,0,0,0,0,0,0,-1,790,435,0,0
-427,589,0,0,0,0,0,0,0,0,0,-1,797,435,0,0
-420,589,0,0,0,0,0,0,0,0,0,-1,804,435,0,0
-413,589,0,0,0,0,0,0,0,0,0,-1,811,435,0,0
-406,589,0,0,0,0,0,0,0,0,0,-1,818,435,0,0
-399,589,0,0,0,0,0,0,0,0,0,-1,825,435,0,0
-392,589,0,0,0,0,0,0,0,0,0,-1,832,435,0,0
-385,589,0,0,0,0,0,0,0,0,0,-1,839,435,0,0
-378,589,0,0,0,0,0,0,0,0,0,-1,846,435,0,0
-371,589,0,0,0,0,0,0,0,0,0,-1,853,435,0,0
-364,589,0,0,0,0,0,0,0,0,0,-1,860,435,0,0
-357,589,0,0,0,0,0,0,0,0,0,-1,867,435,0,0
-350,589,-0.799927,-20.664,0,0,0,0,0,0,0,-1,874,435,-0.799952,20.664
-343,589,-0.370911,-19.1543,0,0,0,0,0,0,0,-1,881,435,-0.370922,19.1543
-336,589,-0.623535,-17.9999,0,0,0,0,0,0,0,-1,888,435,-0.623509,17.9999
-329,589,2.58252,-16.902,0,0,0,0,0,0,0,-1,895,435,2.58251,16.902
-322,589,2.31152,-16.4142,0,0,0,0,0,0,0,-1,902,435,2.31153,16.4142
-315,589,2.49976,-16.5115,0,0,0,0,0,0,0,-1,909,435,2.49974,16.5115
-308,589,1.84845,-17.0324,0,0,0,0,0,0,0,-1,916,435,1.84843,17.0325
-301,589,2.01349,-17.45,0,0,0,0,0,0,0,-1,923,435,2.01351,17.4499
-294,589,2.72064,-17.8585,-0.00276414,0.0189651,-0.00158368,0.0190799,-0.00287896,-1.49842,0.0137802,0.046355,930,435,2.72066,17.8585
-287,589,2.79285,-18.4132,-0.00146299,0.0157203,0.0028291,0.0161741,-0.0019168,1.41174,0.0114752,0.0448206,937,435,2.79283,18.4132
-280,589,2.75787,-18.9265,-0.000777355,0.0132346,0.00506798,0.0148755,-0.00241823,1.25767,0.0108136,0.0335861,944,435,2.75789,18.9265
-273,589,2.71844,-19.381,-0.000108754,0.0112805,0.00615719,0.0139728,-0.002801,1.15859,0.0103757,0.0185753,951,435,2.71844,19.381
-266,589,2.67981,-19.734,0.000297634,0.00935802,0.00661796,0.0128478,-0.00319215,1.08553,0.00980404,0.016331,958,435,2.67984,19.734
-259,589,2.62036,-20.0954,0.0010126,0.00796029,0.00666623,0.0120035,-0.00303061,1.02559,0.00918082,0.0145109,965,435,2.62034,20.0954
-252,589,2.62067,-20.5261,0.00150828,0.00668129,0.00608865,0.01071,-0.00252047,0.986252,0.00811178,0.0100689,972,435,2.62067,20.5261
-245,589,2.63544,-20.8949,0.00163257,0.0057781,0.00514486,0.00925204,-0.00184137,0.976892,0.00686464,0.0100979,979,435,2.63543,20.8949
-238,589,2.61182,-21.2492,0.00163169,0.00505435,0.00404704,0.00773701,-0.00105098,0.985426,0.00554165,0.0136218,986,435,2.61183,21.2492
-231,589,2.57178,-21.5562,0.0016366,0.00444299,0.00301068,0.00636141,-0.000281822,1.00347,0.00433794,0.0142443,993,435,2.5718,21.5563
-224,589,2.54248,-21.9122,0.00157839,0.00385457,0.00212167,0.00512412,0.000308846,1.03157,0.00331793,0.0143437,1000,435,2.54247,21.9122
-217,589,2.54834,-22.2605,0.00145115,0.00319488,0.00115775,0.00377234,0.00087369,1.10813,0.00228016,0.0152048,1007,435,2.54832,22.2605
-210,589,2.5448,-22.5823,0.00129585,0.00242326,0.000543865,0.00264285,0.00107626,1.18705,0.00153458,0.0142757,1014,435,2.54477,22.5824
-203,589,2.5354,-22.8836,0.00113405,0.00181342,0.000435656,0.00202617,0.000921307,1.11652,0.00117141,0.011246,1021,435,2.53538,22.8836
-196,589,2.52637,-23.182,0.000707395,0.00123257,0.000605653,0.00163011,0.000309856,0.989948,0.000999593,0.013483,1028,435,2.5264,23.182
-189,589,2.48767,-23.5047,0.000232214,0.000772029,0.000734235,0.00128439,-0.000280152,0.961533,0.000963323,0.0175926,1035,435,2.48767,23.5047
-182,589,2.50391,-23.7669,7.22113e-05,4.97213e-05,0.000946763,0.0010078,-0.000885863,0.77946,0.00109406,0.0126101,1042,435,2.50393,23.7669
-175,589,2.51392,-24.0606,7.43455e-05,-0.000917799,0.00140878,0.00107184,-0.00191529,0.616113,0.00174739,0.0153968,1049,435,2.51395,24.0606
-168,589,2.53796,-24.3891,4.70817e-05,-0.0022463,0.00176827,0.00100792,-0.00320714,0.497744,0.00254158,0.0135127,1056,435,2.53797,24.3891
-161,589,2.53821,-24.6721,0.000121593,-0.00388059,0.00197664,0.000933236,-0.00469224,0.389626,0.00348119,0.0130623,1063,435,2.53821,24.6722
-154,589,2.53162,-24.9122,0.000471317,-0.00525438,0.00209038,0.00115327,-0.00593633,0.315346,0.00439273,0.0128632,1070,435,2.53159,24.9122
-147,589,2.56897,-25.1469,0.00093266,-0.00687477,0.00215739,0.00148914,-0.00743125,0.252438,0.00551794,0.0131755,1077,435,2.56902,25.1469
-140,589,2.57874,-25.3921,0.00140297,-0.008766,0.00214873,0.00183836,-0.00920139,0.19992,0.00683002,0.0147617,1084,435,2.57869,25.3921
-133,589,2.5636,-25.6403,0.00189969,-0.0108912,0.00206917,0.00222609,-0.0112176,0.156454,0.00832031,0.0143387,1091,435,2.5636,25.6403
-126,589,2.59021,-25.9013,0.00248785,-0.0130062,0.00200364,0.00274277,-0.0132611,0.126544,0.00988269,0.0113342,1098,435,2.59015,25.9013
-119,589,2.61768,-26.151,0.00331895,-0.0145622,0.00159305,0.00345976,-0.014703,0.0881657,0.0111359,0.0170502,1105,435,2.61771,26.151
-112,589,2.60999,-26.3707,0.0041986,-0.0159455,0.00111423,0.00426005,-0.0160069,0.0550891,0.0123389,0.0173886,1112,435,2.61001,26.3707
-105,589,2.60864,-26.6008,0.00513327,-0.0164629,0.000574754,0.00514856,-0.0164782,0.0265887,0.0130448,0.0190658,1119,435,2.60865,26.6008
-98,589,2.72571,-26.8161,0.00614537,-0.0165924,4.65008e-05,0.00614547,-0.0165925,0.00204508,0.0135818,0.0268389,1126,435,2.72574,26.8161
-91,589,2.68481,-27.1015,0,0,0,0,0,0,0,-1,1133,435,2.68479,27.1015
-84,589,2.76538,-22.6013,0,0,0,0,0,0,0,-1,1140,435,2.76539,22.6014
-77,589,2.18152,-14.8023,0,0,0,0,0,0,0,-1,1147,435,2.18155,14.8023
-70,589,1.48267,-9.90961,0,0,0,0,0,0,0,-1,1154,435,1.48264,9.9096
-63,589,0.880127,-5.50586,0,0,0,0,0,0,0,-1,1161,435,0.880186,5.50587
-56,589,-2.78052,-7.28082,0,0,0,0,0,0,0,-1,1168,435,-2.78053,7.28082
-49,589,-0.525757,-2.76703,0,0,0,0,0,0,0,-1,1175,435,-0.525771,2.76702
-42,589,-2.7738,-2.87921,0,0,0,0,0,0,0,-1,1182,435,-2.77383,2.87922
-35,589,-2.55225,-3.27551,0,0,0,0,0,0,0,-1,1189,435,-2.55223,3.27552
-28,589,-0.0632324,-3.42938,0,0,0,0,0,0,0,-1,1196,435,-0.063241,3.42938
-21,589,2.65576,-27.5358,0,0,0,0,0,0,0,-1,1203,435,2.65573,27.5358
-14,589,3.1759,-28.1212,0,0,0,0,0,0,0,-1,1210,435,3.1759,28.1212
-7,589,3.49854,-28.1201,0,0,0,0,0,0,0,-1,1217,435,3.49848,28.1201
0,589,2.63623,-26.995,0,0,0,0,0,0,0,-1,1224,435,2.6362,26.995
7,589,3.37036,-28.669,0,0,0,0,0,0,0,-1,1231,435,3.37042,28.669
14,589,3.52771,-28.415,0.0520626,-0.012382,-0.0031844,0.0522195,-0.012539,-0.0492531,0.039659,0.0454018,1238,435,3.52773,28.415
21,589,3.99634,-28.3858,0.0534118,-0.0129964,-0.000344215,0.0534135,-0.0129982,-0.00518314,0.0406406,0.0438181,1245,435,3.99636,28.3858
28,589,5.94019,-28.2635,0.0537088,-0.0115308,0.000937905,0.0537222,-0.0115443,0.0143724,0.040219,0.0485555,1252,435,5.94015,28.2635
35,589,6.62402,-28.0815,0,0,0,0,0,0,0,-1,1259,435,6.62404,28.0815
42,589,7.41492,-28.0778,0,0,0,0,0,0,0,-1,1266,435,7.41497,28.0778
49,589,8.23657,-28.0092,0,0,0,0,0,0,0,-1,1273,435,8.23652,28.0092
56,589,8.96289,-28.4318,0,0,0,0,0,0,0,-1,1280,435,8.96293,28.4318
63,589,9.69177,-28.643,0,0,0,0,0,0,0,-1,1287,435,9.69176,28.643
70,589,6.18445,-31.7363,0.0346815,-0.038264,0.00518402,0.0350481,-0.0386306,0.0705942,0.0425551,0.0447097,1294,435,6.18442,31.7363
77,589,6.85266,-30.7884,0.0303158,-0.043881,0.00411884,0.0305437,-0.0441089,0.0552859,0.0433373,0.0423493,1301,435,6.85261,30.7884
84,589,6.70081,-29.669,0,0,0,0,0,0,0,-1,1308,435,6.70078,29.669
91,589,6.31506,-28.5006,0.0261305,-0.0505473,-0.000307464,0.0261318,-0.0505485,-0.00400973,0.0450133,0.0436844,1315,435,6.31505,28.5006
98,589,4.87341,-28.4836,0.0260627,-0.0519676,-0.00235018,0.0261334,-0.0520383,-0.0300825,0.0459511,0.0442621,1322,435,4.87347,28.4836
105,589,5.14819,-27.8425,0.0276697,-0.0511741,-0.00419523,0.0278923,-0.0513967,-0.0530099,0.0464431,0.043013,1329,435,5.14816,27.8425
112,589,5.50317,-27.6873,0.0291604,-0.0493562,-0.00539409,0.0295293,-0.049725,-0.0682725,0.04625,0.0406247,1336,435,5.50321,27.6873
119,589,5.646,-27.876,0,0,0,0,0,0,0,-1,1343,435,5.64605,27.876
126,589,5.77832,-28.0568,0,0,0,0,0,0,0,-1,1350,435,5.77838,28.0568
133,589,3.16956,-25.4052,0,0,0,0,0,0,0,-1,1357,435,3.1695,25.4051
140,589,5.11584,-27.6838,0,0,0,0,0,0,0,-1,1364,435,5.11585,27.6838
147,589,4.50989,-26.9094,0.037937,-0.0239179,-0.00677197,0.0386697,-0.0246506,-0.107781,0.0368555,0.0459027,1371,435,4.50988,26.9094
154,589,4.52954,-27.0176,0.0389885,-0.0202312,-0.00564004,0.0395208,-0.0207636,-0.0941119,0.0353623,0.0448136,1378,435,4.52959,27.0176
161,589,4.58911,-27.2247,0.0392574,-0.0173476,-0.00447234,0.0396086,-0.0176987,-0.0783617,0.0338829,0.0460861,1385,435,4.58908,27.2247
168,589,4.82312,-27.0392,0,0,0,0,0,0,0,-1,1392,435,4.82309,27.0392
175,589,8.66992,-7.65527,0,0,0,0,0,0,0,-1,1399,435,8.66994,7.65528
182,589,3.8136,-2.45389,0,0,0,0,0,0,0,-1,1406,435,3.81363,2.4539
189,589,3.69983,-3.68149,0,0,0,0,0,0,0,-1,1413,435,3.69987,3.68147
196,589,3.31055,-5.31677,0,0,0,0,0,0,0,-1,1420,435,3.31059,5.31678
203,589,2.72559,-8.84338,0,0,0,0,0,0,0,-1,1427,435,2.72558,8.84338
210,589,3.62378,-14.4032,0,0,0,0,0,0,0,-1,1434,435,3.62378,14.4032
217,589,4.65601,-22.3745,0,0,0,0,0,0,0,-1,1441,435,4.65607,22.3745
224,589,5.41235,-26.466,0,0,0,0,0,0,0,-1,1448,435,5.41241,26.466
231,589,5.48499,-26.2622,0,0,0,0,0,0,0,-1,1455,435,5.48494,26.2622
238,589,5.47131,-25.917,0.00288189,0.00261084,-0.000117505,0.00292574,0.00256699,-0.357148,0.00184259,0.031955,1462,435,5.47133,25.917
245,589,5.47961,-25.5504,0.00295095,0.00280968,1.60164e-05,0.00295274,0.00280788,0.111487,0.00192203,0.0231154,1469,435,5.47967,25.5504
252,589,5.50623,-25.2923,0.00273451,0.00255096,-2.21753e-05,0.00273715,0.00254832,-0.118543,0.0017652,0.0131864,1476,435,5.50622,25.2923
259,589,5.51831,-25.0659,0.00244364,0.0020739,-6.52451e-05,0.00245482,0.00206272,-0.169638,0.00152277,0.00952311,1483,435,5.51836,25.066
266,589,5.52209,-24.7741,0.00225362,0.0016706,-0.000110769,0.00227395,0.00165026,-0.181565,0.00135673,0.0097469,1490,435,5.52208,24.7742
273,589,5.5365,-24.5054,0.00209458,0.00142703,-7.82462e-05,0.00210363,0.00141798,-0.115135,0.00123882,0.0114532,1497,435,5.53652,24.5054
280,589,5.53882,-24.2098,0.00178292,0.000967653,-0.000105562,0.00179637,0.000954207,-0.126698,0.00103781,0.0130578,1504,435,5.53883,24.2098
287,589,5.54688,-23.9076,0.00154373,0.000764685,-5.51818e-05,0.00154762,0.000760796,-0.0703645,0.00089356,0.0122707,1511,435,5.5469,23.9076
294,589,5.54773,-23.6002,0.00134939,0.000680888,-4.01508e-06,0.00134942,0.000680864,-0.00600577,0.000779098,0.0103905,1518,435,5.5477,23.6002
301,589,5.55981,-23.2836,0.00115715,0.000789398,0.000131221,0.00119917,0.000747377,0.309913,0.000699316,0.0104615,1525,435,5.55987,23.2836
308,589,5.58069,-22.9634,0.0010032,0.00083582,0.000340409,0.00127005,0.000568963,0.664866,0.000734587,0.0106764,1532,435,5.58067,22.9634
315,589,5.57312,-22.6364,0.000847494,0.00106933,0.000554384,0.00152378,0.00039304,0.88413,0.000913475,0.0109734,1539,435,5.57316,22.6363
322,589,5.57251,-22.2871,0.000680871,0.00141421,0.000822454,0.00194802,0.000147052,0.995085,0.00125255,0.0114544,1546,435,5.57255,22.2871
329,589,5.56641,-21.9632,0.000523507,0.00174751,0.00113763,0.00242731,-0.000156297,1.03217,0.00167274,0.0101431,1553,435,5.56635,21.9632
336,589,5.55664,-21.6499,0.000389035,0.00211873,0.0014497,0.00294196,-0.000434193,1.05435,0.00212091,0.00902977,1560,435,5.55659,21.6499
343,589,5.55188,-21.3095,0.00029512,0.00239049,0.00175562,0.00338727,-0.000701659,1.05442,0.00252478,0.0101914,1567,435,5.55185,21.3095
350,589,5.54224,-20.9446,0.000219101,0.0029557,0.00214557,0.00413214,-0.000957346,1.06925,0.00312318,0.0150371,1574,435,5.54222,20.9446
357,589,5.52563,-20.5529,-3.03228e-05,0.00344224,0.00247689,0.0047308,-0.00131888,1.09109,0.00367328,0.013186,1581,435,5.52568,20.5528
364,589,5.51233,-20.1704,-0.000438891,0.00392434,0.00259898,0.00513597,-0.00165052,1.13456,0.00408681,0.0107188,1588,435,5.51237,20.1704
371,589,5.48938,-19.8028,-0.000733866,0.00451557,0.00273943,0.00568475,-0.00190304,1.16741,0.00455857,0.0105979,1595,435,5.48938,19.8028
378,589,5.47144,-19.419,-0.00111513,0.00527827,0.00286166,0.00637203,-0.00220888,1.20572,0.00514488,0.0123007,1602,435,5.47138,19.419
385,589,5.46277,-18.9973,-0.00189656,0.00576352,0.00255676,0.0065385,-0.00267155,1.27649,0.00547143,0.0149878,1609,435,5.46272,18.9973
392,589,5.41919,-18.5071,-0.00272993,0.00637077,0.00228487,0.00691221,-0.00327136,1.33812,0.00600344,0.0196434,1616,435,5.41922,18.5071
399,589,5.39148,-18.0073,-0.00345127,0.0077868,0.00243516,0.00829178,-0.00395625,1.36632,0.00721757,0.0325401,1623,435,5.39153,18.0073
406,589,5.33423,-17.6083,0,0,0,0,0,0,0,-1,1630,435,5.33421,17.6083
413,589,4.828,-17.4649,0,0,0,0,0,0,0,-1,1637,435,4.82798,17.4649
420,589,2.79724,-5.79956,0,0,0,0,0,0,0,-1,1644,435,2.7973,5.79955
427,589,4.89355,-16.5706,0,0,0,0,0,0,0,-1,1651,435,4.8935,16.5706
434,589,2.52734,-2.73029,0,0,0,0,0,0,0,-1,1658,435,2.52736,2.73029
441,589,3.17639,-2.02435,0,0,0,0,0,0,0,-1,1665,435,3.17643,2.02435
448,589,0.453735,-3.2868,0,0,0,0,0,0,0,-1,1672,435,0.453701,3.28681
455,589,0.664307,-3.46848,0,0,0,0,0,0,0,-1,1679,435,0.66425,3.46846
462,589,3.46716,-4.41891,0,0,0,0,0,0,0,-1,1686,435,3.4672,4.41891
469,589,0.0238037,-3.81497,0,0,0,0,0,0,0,-1,1693,435,0.0237965,3.81498
476,589,0,0,0,0,0,0,0,0,0,-1,1700,435,0,0
483,589,0,0,0,0,0,0,0,0,0,-1,1707,435,0,0
490,589,0,0,0,0,0,0,0,0,0,-1,1714,435,0,0
497,589,0,0,0,0,0,0,0,0,0,-1,1721,435,0,0
504,589,0,0,0,0,0,0,0,0,0,-1,1728,435,0,0
511,589,0,0,0,0,0,0,0,0,0,-1,1735,435,0,0
518,589,0,0,0,0,0,0,0,0,0,-1,1742,435,0,0
525,589,0,0,0,0,0,0,0,0,0,-1,1749,435,0,0
532,589,0,0,0,0,0,0,0,0,0,-1,1756,435,0,0
539,589,0,0,0,0,0,0,0,0,0,-1,1763,435,0,0
546,589,0,0,0,0,0,0,0,0,0,-1,1770,435,0,0
553,589,0,0,0,0,0,0,0,0,0,-1,1777,435,0,0
560,589,0,0,0,0,0,0,0,0,0,-1,1784,435,0,0
567,589,0,0,0,0,0,0,0,0,0,-1,1791,435,0,0
574,589,0,0,0,0,0,0,0,0,0,-1,1798,435,0,0
581,589,0,0,0,0,0,0,0,0,0,-1,1805,435,0,0
588,589,0,0,0,0,0,0,0,0,0,-1,1812,435,0,0
595,589,0,0,0,0,0,0,0,0,0,-1,1819,435,0,0
602,589,0,0,0,0,0,0,0,0,0,-1,1826,435,0,0
609,589,0,0,0,0,0,0,0,0,0,-1,1833,435,0,0
616,589,0,0,0,0,0,0,0,0,0,-1,1840,435,0,0
623,589,0,0,0,0,0,0,0,0,0,-1,1847,435,0,0
630,589,0,0,0,0,0,0,0,0,0,-1,1854,435,0,0
637,589,0,0,0,0,0,0,0,0,0,-1,1861,435,0,0
644,589,0,0,0,0,0,0,0,0,0,-1,1868,435,0,0
651,589,0,0,0,0,0,0,0,0,0,-1,1875,435,0,0
658,589,0,0,0,0,0,0,0,0,0,-1,1882,435,0,0
665,589,0,0,0,0,0,0,0,0,0,-1,1889,435,0,0
672,589,0,0,0,0,0,0,0,0,0,-1,1896,435,0,0
679,589,0,0,0,0,0,0,0,0,0,-1,1903,435,0,0
686,589,0,0,0,0,0,0,0,0,0,-1,1910,435,0,0
693,589,0,0,0,0,0,0,0,0,0,-1,1917,435,0,0
700,589,0,0,0,0,0,0,0,0,0,-1,1924,435,0,0
707,589,0,0,0,0,0,0,0,0,0,-1,1931,435,0,0
714,589,0,0,0,0,0,0,0,0,0,-1,1938,435,0,0
721,589,0,0,0,0,0,0,0,0,0,-1,1945,435,0,0
728,589,0,0,0,0,0,0,0,0,0,-1,1952,435,0,0
735,589,0,0,0,0,0,0,0,0,0,-1,1959,435,0,0
742,589,0,0,0,0,0,0,0,0,0,-1,1966,435,0,0
749,589,0,0,0,0,0,0,0,0,0,-1,1973,435,0,0
756,589,0,0,0,0,0,0,0,0,0,-1,1980,435,0,0
763,589,0,0,0,0,0,0,0,0,0,-1,1987,435,0,0
770,589,0,0,0,0,0,0,0,0,0,-1,1994,435,0,0
777,589,0,0,0,0,0,0,0,0,0,-1,2001,435,0,0
784,589,0,0,0,0,0,0,0,0,0,-1,2008,435,0,0
791,589,0,0,0,0,0,0,0,0,0,-1,2015,435,0,0
798,589,0,0,0,0,0,0,0,0,0,-1,2022,435,0,0
805,589,0,0,0,0,0,0,0,0,0,-1,2029,435,0,0
812,589,0,0,0,0,0,0,0,0,0,-1,2036,435,0,0
-700,582,0,0,0,0,0,0,0,0,0,-1,524,442,0,0
-693,582,0,0,0,0,0,0,0,0,0,-1,531,442,0,0
-686,582,0,0,0,0,0,0,0,0,0,-1,538,442,0,0
-679,582,0,0,0,0,0,0,0,0,0,-1,545,442,0,0
-672,582,0,0,0,0,0,0,0,0,0,-1,552,442,0,0
-665,582,0,0,0,0,0,0,0,0,0,-1,559,442,0,0
-658,582,0,0,0,0,0,0,0,0,0,-1,566,442,0,0
-651,582,0,0,0,0,0,0,0,0,0,-1,573,442,0,0
-644,582,0,0,0,0,0,0,0,0,0,-1,580,442,0,0
-637,582,0,0,0,0,0,0,0,0,0,-1,587,442,0,0
-630,582,0,0,0,0,0,0,0,0,0,-1,594,442,0,0
-623,582,0,0,0,0,0,0,0,0,0,-1,601,442,0,0
-616,582,0,0,0,0,0,0,0,0,0,-1,608,442,0,0
-609,582,0,0,0,0,0,0,0,0,0,-1,615,442,0,0
-602,582,0,0,0,0,0,0,0,0,0,-1,622,442,0,0
-595,582,0,0,0,0,0,0,0,0,0,-1,629,442,0,0
-588,582,0,0,0,0,0,0,0,0,0,-1,636,442,0,0
-581,582,0,0,0,0,0,0,0,0,0,-1,643,442,0,0
-574,582,0,0,0,0,0,0,0,0,0,-1,650,442,0,0
-567,582,0,0,0,0,0,0,0,0,0,-1,657,442,0,0
-560,582,0,0,0,0,0,0,0,0,0,-1,664,442,0,0
-553,582,0,0,0,0,0,0,0,0,0,-1,671,442,0,0
-546,582,0,0,0,0,0,0,0,0,0,-1,678,442,0,0
-539,582,0,0,0,0,0,0,0,0,0,-1,685,442,0,0
-532,582,0,0,0,0,0,0,0,0,0,-1,692,442,0,0
-525,582,0,0,0,0,0,0,0,0,0,-1,699,442,0,0
-518,582,0,0,0,0,0,0,0,0,0,-1,706,442,0,0
-511,582,0,0,0,0,0,0,0,0,0,-1,713,442,0,0
-504,582,0,0,0,0,0,0,0,0,0,-1,720,442,0,0
-497,582,0,0,0,0,0,0,0,0,0,-1,727,442,0,0
-490,582,0,0,0,0,0,0,0,0,0,-1,734,442,0,0
-483,582,0,0,0,0,0,0,0,0,0,-1,741,442,0,0
-476,582,0,0,0,0,0,0,0,0,0,-1,748,442,0,0
-469,582,0,0,0,0,0,0,0,0,0,-1,755,442,0,0
-462,582,0,0,0,0,0,0,0,0,0,-1,762,442,0,0
-455,582,0,0,0,0,0,0,0,0,0,-1,769,442,0,0
-448,582,0,0,0,0,0,0,0,0,0,-1,776,442,0,0
-441,582,0,0,0,0,0,0,0,0,0,-1,783,442,0,0
-434,582,0,0,0,0,0,0,0,0,0,-1,790,442,0,0
-427,582,0,0,0,0,0,0,0,0,0,-1,797,442,0,0
-420,582,0,0,0,0,0,0,0,0,0,-1,804,442,0,0
-413,582,0,0,0,0,0,0,0,0,0,-1,811,442,0,0
-406,582,0,0,0,0,0,0,0,0,0,-1,818,442,0,0
-399,582,0,0,0,0,0,0,0,0,0,-1,825,442,0,0
-392,582,0,0,0,0,0,0,0,0,0,-1,832,442,0,0
-385,582,0,0,0,0,0,0,0,0,0,-1,839,442,0,0
-378,582,0,0,0,0,0,0,0,0,0,-1,846,442,0,0
-371,582,0,0,0,0,0,0,0,0,0,-1,853,442,0,0
-364,582,0,0,0,0,0,0,0,0,0,-1,860,442,0,0
-357,582,-1.4903,-21.5295,0,0,0,0,0,0,0,-1,867,442,-1.49031,21.5295
-350,582,-0.880859,-19.7966,0,0,0,0,0,0,0,-1,874,442,-0.880885,19.7966
-343,582,-0.208557,-18.0078,0,0,0,0,0,0,0,-1,881,442,-0.208576,18.0078
-336,582,-0.167114,-18.7637,0,0,0,0,0,0,0,-1,888,442,-0.167108,18.7637
-329,582,2.20691,-15.373,0,0,0,0,0,0,0,-1,895,442,2.20692,15.3731
-322,582,2.73834,-16.0064,0,0,0,0,0,0,0,-1,902,442,2.73836,16.0064
-315,582,2.38165,-16.6264,-0.00606231,0.0262954,-0.015732,0.0326832,-0.01245,-1.1851,0.0269163,0.0484405,909,442,2.38165,16.6264
-308,582,1.8855,-17.1552,-0.00522326,0.0225599,-0.0111995,0.0265123,-0.00917557,-1.23154,0.0213994,0.0497314,916,442,1.88552,17.1552
-301,582,2.01355,-17.6213,-0.0042452,0.0191329,-0.00763418,0.021405,-0.00651734,-1.28152,0.0168675,0.0465462,923,442,2.01358,17.6213
-294,582,2.12683,-18.0107,-0.00329478,0.0156251,-0.00422284,0.0165248,-0.00419452,-1.36087,0.0126487,0.0415442,930,442,2.1268,18.0106
-287,582,2.30206,-18.4959,-0.0028234,0.0128151,-0.00127259,0.012918,-0.00292628,-1.49013,0.00973515,0.0328898,937,442,2.30207,18.4959
-280,582,2.38672,-18.9304,-0.00245819,0.0107023,0.000521042,0.0107229,-0.00247878,1.53129,0.00810223,0.0164849,944,442,2.38675,18.9304
-273,582,2.37323,-19.3397,-0.00202656,0.00896622,0.00151741,0.00917184,-0.00223217,1.43611,0.00697864,0.0110097,951,442,2.37325,19.3397
-266,582,2.33722,-19.7457,-0.00175208,0.00715962,0.00208615,0.00762379,-0.00221625,1.35186,0.00596025,0.0105773,958,442,2.33722,19.7457
-259,582,2.30371,-20.1409,-0.00112141,0.00577202,0.002401,0.00652586,-0.00187525,1.26657,0.00509209,0.00854754,965,442,2.30372,20.1409
-252,582,2.28876,-20.5284,-0.00063235,0.0044446,0.00233443,0.0053548,-0.00154256,1.19902,0.00418003,0.00804458,972,442,2.28878,20.5284
-245,582,2.30347,-20.8838,-0.000410218,0.00337871,0.0019982,0.00423775,-0.00126926,1.16478,0.00332989,0.011462,979,442,2.30345,20.8838
-238,582,2.27856,-21.2089,-0.000237124,0.00243328,0.00157903,0.00316596,-0.000969798,1.13636,0.00249748,0.0158947,986,442,2.27859,21.2088
-231,582,2.25525,-21.5416,-1.52078e-05,0.001613,0.00122801,0.00227225,-0.000674461,1.07811,0.0017827,0.0127911,993,442,2.25526,21.5416
-224,582,2.25836,-21.8926,0.000179353,0.00083483,0.00103935,0.00159689,-0.000582707,0.938129,0.00130301,0.0103528,1000,442,2.25836,21.8926
-217,582,2.23804,-22.2294,0.000294913,5.70932e-05,0.000792835,0.000977705,-0.000625699,0.710963,0.000933132,0.0125309,1007,442,2.23801,22.2294
-210,582,2.22736,-22.5504,0.000360184,-0.000822164,0.000807739,0.000769974,-0.00123195,0.469494,0.00116603,0.0128596,1014,442,2.22736,22.5504
-203,582,2.24133,-22.8806,0.000395487,-0.00145741,0.00112238,0.000924393,-0.00198631,0.440371,0.00171737,0.0102211,1021,442,2.24136,22.8806
-196,582,2.24109,-23.1897,0.000219871,-0.00197828,0.00158299,0.00104793,-0.00280633,0.481952,0.00230116,0.0151675,1028,442,2.24114,23.1897
-189,582,2.19653,-23.4915,-7.71149e-05,-0.00235496,0.00200473,0.00108963,-0.0035217,0.527075,0.00278305,0.0224057,1035,442,2.19659,23.4915
-182,582,2.19482,-23.7824,-0.000136215,-0.00288413,0.00241875,0.00127158,-0.00429192,0.527103,0.00336617,0.0157048,1042,442,2.19477,23.7824
-175,582,2.2074,-24.0625,-7.53388e-05,-0.00366504,0.0028533,0.00150068,-0.00524107,0.504647,0.00408716,0.0135489,1049,442,2.20734,24.0625
-168,582,2.23779,-24.3546,-3.44502e-05,-0.00494345,0.00315399,0.00150758,-0.00648548,0.454739,0.00490404,0.0121359,1056,442,2.23784,24.3546
-161,582,2.24927,-24.635,3.10893e-05,-0.00672521,0.00331428,0.00138542,-0.00807954,0.387927,0.00590261,0.0134602,1063,442,2.24927,24.6351
-154,582,2.25208,-24.8853,0.000405041,-0.00816804,0.00337691,0.00157542,-0.00933842,0.333627,0.00681175,0.0123826,1070,442,2.25202,24.8853
-147,582,2.28296,-25.1393,0.0010612,-0.0100212,0.00336109,0.00200088,-0.0109609,0.272615,0.00805746,0.0120479,1077,442,2.283,25.1393
-140,582,2.27954,-25.3752,0.00163782,-0.0122904,0.00330462,0.0023821,-0.0130346,0.22153,0.00958299,0.0137464,1084,442,2.27959,25.3752
-133,582,2.32153,-25.6137,0.00219145,-0.0149951,0.00313477,0.00274537,-0.015549,0.174896,0.011392,0.0163015,1091,442,2.32151,25.6137
-126,582,2.34937,-25.8089,0.00286341,-0.0179413,0.00306432,0.00330536,-0.0183832,0.143238,0.0134929,0.0139902,1098,442,2.34937,25.8089
-119,582,2.30457,-25.9631,0.00384396,-0.020395,0.00256376,0.00411216,-0.0206632,0.104233,0.0153311,0.0170764,1105,442,2.30454,25.9631
-112,582,2.25757,-26.2071,0.00490581,-0.0226877,0.00193813,0.00504128,-0.0228232,0.0697818,0.0171448,0.0282668,1112,442,2.25756,26.2071
-105,582,2.46729,-26.5814,0.00604865,-0.0237884,0.00122233,0.00609864,-0.0238384,0.0408757,0.0182677,0.0405913,1119,442,2.46728,26.5814
-98,582,2.55737,-26.9126,0,0,0,0,0,0,0,-1,1126,442,2.55736,26.9126
-91,582,2.16492,-24.1119,0,0,0,0,0,0,0,-1,1133,442,2.16496,24.1119
-84,582,2.10278,-16.7533,0,0,0,0,0,0,0,-1,1140,442,2.10279,16.7533
-77,582,2.30212,-11.4907,0,0,0,0,0,0,0,-1,1147,442,2.30207,11.4907
-70,582,1.49255,-6.36548,0,0,0,0,0,0,0,-1,1154,442,1.49251,6.36549
-63,582,-4.62915,-4.0347,0,0,0,0,0,0,0,-1,1161,442,-4.6292,4.03471
-56,582,-5.81714,-5.24149,0,0,0,0,0,0,0,-1,1168,442,-5.81718,5.24149
-49,582,-3.88672,-10.1064,0,0,0,0,0,0,0,-1,1175,442,-3.88678,10.1064
-42,582,-0.948975,1.13968,0,0,0,0,0,0,0,-1,1182,442,-0.949003,-1.13969
-35,582,-2.58435,-3.86911,0,0,0,0,0,0,0,-1,1189,442,-2.58437,3.86912
-28,582,-0.825317,-3.45941,0,0,0,0,0,0,0,-1,1196,442,-0.825377,3.45942
-21,582,2.521,-27.6812,0,0,0,0,0,0,0,-1,1203,442,2.52101,27.6812
-14,582,3.0144,-27.7718,0,0,0,0,0,0,0,-1,1210,442,3.01439,27.7718
-7,582,3.50781,-27.8624,0,0,0,0,0,0,0,-1,1217,442,3.50777,27.8624
0,582,0.825317,-28.6323,0,0,0,0,0,0,0,-1,1224,442,0.825357,28.6323
7,582,1.96118,-28.3199,0.0577971,-0.0154842,-0.00747402,0.0585516,-0.0162387,-0.100611,0.0454253,0.045647,1231,442,1.96119,28.3199
14,582,3.07922,-28.1912,0.0621476,-0.0119615,-0.00379881,0.0623418,-0.0121557,-0.0510812,0.0461499,0.0481199,1238,442,3.07924,28.1912
21,582,4.24719,-28.3093,0.0641367,-0.0119796,-3.78993e-05,0.0641367,-0.0119797,-0.000497913,0.0472599,0.0461371,1245,442,4.24722,28.3093
28,582,5.12451,-28.2222,0,0,0,0,0,0,0,-1,1252,442,5.12447,28.2222
35,582,6.02051,-28.1033,0,0,0,0,0,0,0,-1,1259,442,6.02049,28.1033
42,582,6.90369,-27.9413,0.0593277,-0.0171104,0.0082132,0.0602003,-0.017983,0.105839,0.0472818,0.0489175,1266,442,6.90364,27.9413
49,582,7.44983,-27.743,0,0,0,0,0,0,0,-1,1273,442,7.44978,27.743
56,582,8.10913,-27.9138,0,0,0,0,0,0,0,-1,1280,442,8.10917,27.9139
63,582,8.81409,-28.0862,0,0,0,0,0,0,0,-1,1287,442,8.81411,28.0862
70,582,6.3125,-30.4863,0.0426652,-0.0446042,0.00880725,0.0435452,-0.0454841,0.0995823,0.0514052,0.0438273,1294,442,6.31254,30.4863
77,582,6.38916,-29.7628,0.0374301,-0.0516458,0.00747863,0.0380536,-0.0522694,0.083182,0.0523628,0.0420415,1301,442,6.38919,29.7628
84,582,6.23999,-28.8134,0.0336569,-0.056256,0.0052214,0.0339591,-0.0565582,0.0578127,0.0528003,0.0464899,1308,442,6.24002,28.8134
91,582,6.2832,-27.7656,0.0320206,-0.0598101,0.0017125,0.0320525,-0.059842,0.0186398,0.0538579,0.047424,1315,442,6.28315,27.7656
98,582,6.38574,-27.528,0.0319624,-0.0612489,-0.000955594,0.0319722,-0.0612587,-0.0102505,0.054705,0.0455345,1322,442,6.38571,27.528
105,582,5.39551,-27.3846,0.0339355,-0.0597939,-0.00348856,0.0340652,-0.0599236,-0.0371509,0.0549447,0.0457849,1329,442,5.39549,27.3846
112,582,6.34045,-26.9865,0.0358856,-0.0570482,-0.00521555,0.0361774,-0.05734,-0.0558871,0.0544512,0.0432447,1336,442,6.34043,26.9864
119,582,6.18298,-27.497,0,0,0,0,0,0,0,-1,1343,442,6.18294,27.497
126,582,2.48071,-25.3467,0,0,0,0,0,0,0,-1,1350,442,2.48066,25.3467
133,582,2.90674,-25.8152,0.0438765,-0.0360868,-0.00821414,0.0447116,-0.0369218,-0.101314,0.0472026,0.0480294,1357,442,2.90673,25.8151
140,582,3.31848,-26.307,0.046117,-0.0287087,-0.00817285,0.0469993,-0.029591,-0.107536,0.0445985,0.0436175,1364,442,3.3185,26.307
147,582,3.93506,-26.5864,0.0483344,-0.0230138,-0.00730958,0.0490755,-0.0237549,-0.101051,0.0428874,0.0456098,1371,442,3.93508,26.5864
154,582,4.69678,-26.6812,0.0501576,-0.0187691,-0.00575071,0.0506341,-0.0192456,-0.0826705,0.0416797,0.0480021,1378,442,4.69674,26.6812
161,582,4.70337,-26.9203,0,0,0,0,0,0,0,-1,1385,442,4.70333,26.9202
168,582,5.30896,-25.6425,0,0,0,0,0,0,0,-1,1392,442,5.30901,25.6425
175,582,6.50549,-2.00424,0,0,0,0,0,0,0,-1,1399,442,6.50546,2.00425
182,582,5.18958,-2.18652,0,0,0,0,0,0,0,-1,1406,442,5.1896,2.18652
189,582,6.19751,-0.880951,0,0,0,0,0,0,0,-1,1413,442,6.19754,0.88096
196,582,4.87354,-2.22327,0,0,0,0,0,0,0,-1,1420,442,4.87348,2.22325
203,582,3.11401,-4.48257,0,0,0,0,0,0,0,-1,1427,442,3.11404,4.48259
210,582,2.93115,-11.0731,0,0,0,0,0,0,0,-1,1434,442,2.93113,11.0731
217,582,4.94092,-16.5476,0,0,0,0,0,0,0,-1,1441,442,4.94087,16.5476
224,582,5.21008,-20.9908,0,0,0,0,0,0,0,-1,1448,442,5.21006,20.9908
231,582,5.70032,-25.622,0,0,0,0,0,0,0,-1,1455,442,5.70026,25.6221
238,582,5.79163,-26.1636,0,0,0,0,0,0,0,-1,1462,442,5.79163,26.1636
245,582,5.8136,-25.7243,0,0,0,0,0,0,0,-1,1469,442,5.81354,25.7243
252,582,5.84631,-25.4292,0.00317966,0.00337754,-0.00015542,0.00346284,0.00309436,-1.06886,0.00219606,0.0328538,1476,442,5.84635,25.4292
259,582,5.78467,-25.1575,0.00285239,0.00230651,-0.000344493,0.00301896,0.00213994,-0.450388,0.00179296,0.0264186,1483,442,5.78466,25.1575
266,582,5.79089,-24.8545,0.00269285,0.00147211,-0.000532945,0.00289278,0.00127219,-0.358892,0.00167418,0.0190641,1490,442,5.7909,24.8545
273,582,5.8457,-24.539,0.00258111,0.000915047,-0.000577219,0.00276155,0.000734607,-0.302978,0.00165155,0.0155213,1497,442,5.8457,24.539
280,582,5.82568,-24.2416,0.00224474,3.50471e-05,-0.000731892,0.00246517,-0.00018538,-0.292535,0.00170859,0.0126149,1504,442,5.82571,24.2416
287,582,5.85669,-23.9065,0.00198572,-0.000439683,-0.00079679,0.00222406,-0.000678023,-0.290653,0.00175298,0.0116233,1511,442,5.85667,23.9065
294,582,5.88672,-23.5988,0.00177792,-0.00067188,-0.000830159,0.00203273,-0.00092669,-0.297813,0.00174795,0.00967472,1518,442,5.88669,23.5988
301,582,5.89941,-23.2723,0.00156745,-0.000642867,-0.000752412,0.00179926,-0.000874683,-0.298868,0.00157427,0.0097433,1525,442,5.89937,23.2723
308,582,5.90784,-22.9519,0.00138123,-0.000714976,-0.000611175,0.00154641,-0.000880155,-0.26396,0.00141847,0.0120778,1532,442,5.9078,22.9519
315,582,5.89539,-22.6216,0.00114436,-0.000529387,-0.000475341,0.00126993,-0.000654962,-0.258278,0.00113009,0.0134642,1539,442,5.89535,22.6216
322,582,5.88586,-22.2825,0.000897294,-0.000171362,-0.000245958,0.000951185,-0.000225253,-0.215698,0.000721033,0.0108731,1546,442,5.88589,22.2825
329,582,5.88989,-21.9726,0.0006881,0.000237317,6.39438e-05,0.000696995,0.000228422,0.138219,0.000410295,0.00995302,1553,442,5.88984,21.9725
336,582,5.90088,-21.6518,0.00051307,0.000681582,0.000382396,0.000988894,0.000205757,0.893834,0.000602504,0.00997911,1560,442,5.90089,21.6518
343,582,5.90063,-21.2809,0.000343384,0.00107101,0.000705498,0.00150097,-8.65852e-05,1.02345,0.00103072,0.0126524,1567,442,5.90061,21.2809
350,582,5.88647,-20.9188,0.000211519,0.00168818,0.00109888,0.00227373,-0.000374031,1.08121,0.00165465,0.0152341,1574,442,5.88642,20.9188
357,582,5.87427,-20.5457,1.47291e-05,0.00227417,0.00147163,0.0029997,-0.000710807,1.11275,0.00227407,0.0132075,1581,442,5.87424,20.5457
364,582,5.85876,-20.1777,-0.000299874,0.00284389,0.00168361,0.00357534,-0.00103133,1.16094,0.00279158,0.0106267,1588,442,5.85871,20.1777
371,582,5.8302,-19.7985,-0.00054633,0.00344708,0.00190912,0.00421291,-0.00131216,1.18931,0.00333322,0.0142148,1595,442,5.83019,19.7985
378,582,5.82202,-19.4343,-0.000879566,0.00413532,0.00208093,0.00488634,-0.00163058,1.22444,0.00391593,0.0159099,1602,442,5.822,19.4343
385,582,5.81909,-19.0479,-0.00145117,0.00464924,0.00195043,0.00521953,-0.00202145,1.28634,0.00431436,0.0115322,1609,442,5.81914,19.0479
392,582,5.78943,-18.6432,-0.00204354,0.00517395,0.00187508,0.00563202,-0.0025016,1.3312,0.00481049,0.010329,1616,442,5.78938,18.6432
399,582,5.74951,-18.2663,-0.00260162,0.00634945,0.00210695,0.00682059,-0.00307277,1.3508,0.00584695,0.0167881,1623,442,5.7495,18.2663
406,582,5.71619,-17.7446,-0.00323319,0.00841405,0.00238382,0.00888306,-0.0037022,1.37653,0.00746851,0.0296481,1630,442,5.71622,17.7446
413,582,5.53052,-17.3469,-0.00403401,0.00977446,0.00246988,0.0102029,-0.00446249,1.39902,0.00868062,0.046706,1637,442,5.53054,17.3469
420,582,5.65466,-16.9956,0,0,0,0,0,0,0,-1,1644,442,5.65466,16.9956
427,582,5.57446,-16.6004,0,0,0,0,0,0,0,-1,1651,442,5.57451,16.6004
434,582,5.25256,-16.2862,0,0,0,0,0,0,0,-1,1658,442,5.25251,16.2862
441,582,4.53979,-12.7726,0,0,0,0,0,0,0,-1,1665,442,4.53983,12.7726
448,582,5.80566,-14.9896,0,0,0,0,0,0,0,-1,1672,442,5.80565,14.9896
455,582,5.55774,-14.1551,0,0,0,0,0,0,0,-1,1679,442,5.55778,14.1551
462,582,1.38074,-3.94418,0,0,0,0,0,0,0,-1,1686,442,1.38074,3.94419
469,582,4.77759,-10.3864,0,0,0,0,0,0,0,-1,1693,442,4.77756,10.3864
476,582,1.93579,-8.53891,0,0,0,0,0,0,0,-1,1700,442,1.93579,8.53892
483,582,0,0,0,0,0,0,0,0,0,-1,1707,442,0,0
490,582,0,0,0,0,0,0,0,0,0,-1,1714,442,0,0
497,582,0,0,0,0,0,0,0,0,0,-1,1721,442,0,0
504,582,0,0,0,0,0,0,0,0,0,-1,1728,442,0,0
511,582,0,0,0,0,0,0,0,0,0,-1,1735,442,0,0
518,582,0,0,0,0,0,0,0,0,0,-1,1742,442,0,0
525,582,0,0,0,0,0,0,0,0,0,-1,1749,442,0,0
532,582,0,0,0,0,0,0,0,0,0,-1,1756,442,0,0
539,582,0,0,0,0,0,0,0,0,0,-1,1763,442,0,0
546,582,0,0,0,0,0,0,0,0,0,-1,1770,442,0,0
553,582,0,0,0,0,0,0,0,0,0,-1,1777,442,0,0
560,582,0,0,0,0,0,0,0,0,0,-1,1784,442,0,0
567,582,0,0,0,0,0,0,0,0,0,-1,1791,442,0,0
574,582,0,0,0,0,0,0,0,0,0,-1,1798,442,0,0
581,582,0,0,0,0,0,0,0,0,0,-1,1805,442,0,0
588,582,0,0,0,0,0,0,0,0,0,-1,1812,442,0,0
595,582,0,0,0,0,0,0,0,0,0,-1,1819,442,0,0
602,582,0,0,0,0,0,0,0,0,0,-1,1826,442,0,0
609,582,0,0,0,0,0,0,0,0,0,-1,1833,442,0,0
616,582,0,0,0,0,0,0,0,0,0,-1,1840,442,0,0
623,582,0,0,0,0,0,0,0,0,0,-1,1847,442,0,0
630,582,0,0,0,0,0,0,0,0,0,-1,1854,442,0,0
637,582,0,0,0,0,0,0,0,0,0,-1,1861,442,0,0
644,582,0,0,0,0,0,0,0,0,0,-1,1868,442,0,0
651,582,0,0,0,0,0,0,0,0,0,-1,1875,442,0,0
658,582,0,0,0,0,0,0,0,0,0,-1,1882,442,0,0
665,582,0,0,0,0,0,0,0,0,0,-1,1889,442,0,0
672,582,0,0,0,0,0,0,0,0,0,-1,1896,442,0,0
679,582,0,0,0,0,0,0,0,0,0,-1,1903,442,0,0
686,582,0,0,0,0,0,0,0,0,0,-1,1910,442,0,0
693,582,0,0,0,0,0,0,0,0,0,-1,1917,442,0,0
700,582,0,0,0,0,0,0,0,0,0,-1,1924,442,0,0
707,582,0,0,0,0,0,0,0,0,0,-1,1931,442,0,0
714,582,0,0,0,0,0,0,0,0,0,-1,1938,442,0,0
721,582,0,0,0,0,0,0,0,0,0,-1,1945,442,0,0
728,582,0,0,0,0,0,0,0,0,0,-1,1952,442,0,0
735,582,0,0,0,0,0,0,0,0,0,-1,1959,442,0,0
742,582,0,0,0,0,0,0,0,0,0,-1,1966,442,0,0
749,582,0,0,0,0,0,0,0,0,0,-1,1973,442,0,0
756,582,0,0,0,0,0,0,0,0,0,-1,1980,442,0,0
763,582,0,0,0,0,0,0,0,0,0,-1,1987,442,0,0
770,582,0,0,0,0,0,0,0,0,0,-1,1994,442,0,0
777,582,0,0,0,0,0,0,0,0,0,-1,2001,442,0,0
784,582,0,0,0,0,0,0,0,0,0,-1,2008,442,0,0
791,582,0,0,0,0,0,0,0,0,0,-1,2015,442,0,0
798,582,0,0,0,0,0,0,0,0,0,-1,2022,442,0,0
805,582,0,0,0,0,0,0,0,0,0,-1,2029,442,0,0
812,582,0,0,0,0,0,0,0,0,0,-1,2036,442,0,0
-700,575,0,0,0,0,0,0,0,0,0,-1,524,449,0,0
-693,575,0,0,0,0,0,0,0,0,0,-1,531,449,0,0
-686,575,0,0,0,0,0,0,0,0,0,-1,538,449,0,0
-679,575,0,0,0,0,0,0,0,0,0,-1,545,449,0,0
-672,575,0,0,0,0,0,0,0,0,0,-1,552,449,0,0
-665,575,0,0,0,0,0,0,0,0,0,-1,559,449,0,0
-658,575,0,0,0,0,0,0,0,0,0,-1,566,449,0,0
-651,575,0,0,0,0,0,0,0,0,0,-1,573,449,0,0
-644,575,0,0,0,0,0,0,0,0,0,-1,580,449,0,0
-637,575,0,0,0,0,0,0,0,0,0,-1,587,449,0,0
-630,575,0,0,0,0,0,0,0,0,0,-1,594,449,0,0
-623,575,0,0,0,0,0,0,0,0,0,-1,601,449,0,0
-616,575,0,0,0,0,0,0,0,0,0,-1,608,449,0,0
-609,575,0,0,0,0,0,0,0,0,0,-1,615,449,0,0
-602,575,0,0,0,0,0,0,0,0,0,-1,622,449,0,0
-595,575,0,0,0,0,0,0,0,0,0,-1,629,449,0,0
-588,575,0,0,0,0,0,0,0,0,0,-1,636,449,0,0
-581,575,0,0,0,0,0,0,0,0,0,-1,643,449,0,0
-574,575,0,0,0,0,0,0,0,0,0,-1,650,449,0,0
-567,575,0,0,0,0,0,0,0,0,0,-1,657,449,0,0
-560,575,0,0,0,0,0,0,0,0,0,-1,664,449,0,0
-553,575,0,0,0,0,0,0,0,0,0,-1,671,449,0,0
-546,575,0,0,0,0,0,0,0,0,0,-1,678,449,0,0
-539,575,0,0,0,0,0,0,0,0,0,-1,685,449,0,0
-532,575,0,0,0,0,0,0,0,0,0,-1,692,449,0,0
-525,575,0,0,0,0,0,0,0,0,0,-1,699,449,0,0
-518,575,0,0,0,0,0,0,0,0,0,-1,706,449,0,0
-511,575,0,0,0,0,0,0,0,0,0,-1,713,449,0,0
-504,575,0,0,0,0,0,0,0,0,0,-1,720,449,0,0
-497,575,0,0,0,0,0,0,0,0,0,-1,727,449,0,0
-490,575,0,0,0,0,0,0,0,0,0,-1,734,449,0,0
-483,575,0,0,0,0,0,0,0,0,0,-1,741,449,0,0
-476,575,0,0,0,0,0,0,0,0,0,-1,748,449,0,0
-469,575,0,0,0,0,0,0,0,0,0,-1,755,449,0,0
-462,575,0,0,0,0,0,0,0,0,0,-1,762,449,0,0
-455,575,0,0,0,0,0,0,0,0,0,-1,769,449,0,0
-448,575,0,0,0,0,0,0,0,0,0,-1,776,449,0,0
-441,575,0,0,0,0,0,0,0,0,0,-1,783,449,0,0
-434,575,0,0,0,0,0,0,0,0,0,-1,790,449,0,0
-427,575,0,0,0,0,0,0,0,0,0,-1,797,449,0,0
-420,575,0,0,0,0,0,0,0,0,0,-1,804,449,0,0
-413,575,0,0,0,0,0,0,0,0,0,-1,811,449,0,0
-406,575,0,0,0,0,0,0,0,0,0,-1,818,449,0,0
-399,575,0,0,0,0,0,0,0,0,0,-1,825,449,0,0
-392,575,0,0,0,0,0,0,0,0,0,-1,832,449,0,0
-385,575,0,0,0,0,0,0,0,0,0,-1,839,449,0,0
-378,575,0,0,0,0,0,0,0,0,0,-1,846,449,0,0
-371,575,0.56897,-3.52304,0,0,0,0,0,0,0,-1,853,449,0.568955,3.52306
-364,575,1.49805,-4.67191,0,0,0,0,0,0,0,-1,860,449,1.49803,4.6719
-357,575,3.15521,-8.29892,0,0,0,0,0,0,0,-1,867,449,3.15521,8.29891
-350,575,-0.825928,-18.5347,0,0,0,0,0,0,0,-1,874,449,-0.825948,18.5347
-343,575,0.465393,-16.3569,0,0,0,0,0,0,0,-1,881,449,0.465397,16.3569
-336,575,1.76959,-15.7266,0,0,0,0,0,0,0,-1,888,449,1.76957,15.7265
-329,575,1.89478,-15.4938,0,0,0,0,0,0,0,-1,895,449,1.89478,15.4938
-322,575,2.36108,-15.9753,-0.00512879,0.0237397,-0.0166782,0.0313625,-0.0127516,-1.1421,0.0262139,0.045797,902,449,2.3611,15.9753
-315,575,2.21991,-16.815,-0.00424916,0.0208099,-0.013019,0.0263492,-0.00978851,-1.16852,0.0215821,0.0430545,909,449,2.21992,16.815
-308,575,1.98425,-17.5125,-0.00365948,0.0179992,-0.00990093,0.0218431,-0.00750334,-1.20048,0.0176045,0.0432411,916,449,1.98428,17.5125
-301,575,2.05377,-17.8344,-0.00298135,0.0152739,-0.00725133,0.0178037,-0.00551114,-1.23513,0.0140706,0.0335003,923,449,2.05375,17.8344
-294,575,2.02789,-18.1769,-0.00242027,0.0126041,-0.00482919,0.0140225,-0.00383859,-1.28513,0.0108565,0.023031,930,449,2.02792,18.177
-287,575,2.02808,-18.5916,-0.00220639,0.0103467,-0.00272498,0.0109128,-0.0027724,-1.366,0.00835408,0.0159926,937,449,2.02809,18.5916
-280,575,2.04407,-18.9929,-0.00198596,0.00853506,-0.00126316,0.0086846,-0.00213549,-1.45297,0.00661743,0.0130383,944,449,2.04406,18.9929
-273,575,2.03418,-19.3892,-0.00171946,0.00695188,-0.000323347,0.00696392,-0.0017315,-1.53358,0.00531465,0.0121176,951,449,2.03416,19.3891
-266,575,2.00604,-19.7896,-0.00154401,0.00525013,0.000316436,0.00526484,-0.00155872,1.52436,0.00412873,0.0132628,958,449,2.00602,19.7897
-259,575,1.98199,-20.1584,-0.00104385,0.00385523,0.000792096,0.00398012,-0.00116874,1.41442,0.00311691,0.0122794,965,449,1.98201,20.1584
-252,575,1.94897,-20.5146,-0.000716303,0.00246514,0.00103878,0.00277427,-0.00102544,1.28155,0.0022699,0.0112338,972,449,1.94897,20.5146
-245,575,1.92706,-20.8762,-0.000597612,0.00121969,0.00108203,0.00172399,-0.00110192,1.13466,0.00164466,0.0146571,979,449,1.92704,20.8762
-238,575,1.92603,-21.2012,-0.000492542,3.51891e-05,0.00110498,0.000907374,-0.00136473,0.902601,0.00132063,0.0150689,986,449,1.92604,21.2012
-231,575,1.92072,-21.528,-0.000330303,-0.00103919,0.00117746,0.000544903,-0.00191439,0.639201,0.00149145,0.0128645,993,449,1.92073,21.528
-224,575,1.91901,-21.8724,-0.000186586,-0.00207428,0.00142124,0.000575661,-0.00283653,0.492285,0.00210926,0.0120858,1000,449,1.91899,21.8724
-217,575,1.91724,-22.21,-0.000119756,-0.0030368,0.00165942,0.000631013,-0.00378757,0.424872,0.00275954,0.0105002,1007,449,1.91725,22.21
-210,575,1.93695,-22.538,-9.87405e-05,-0.00408945,0.00207997,0.000788218,-0.00497641,0.403079,0.00360915,0.00900832,1014,449,1.93695,22.538
-203,575,1.94952,-22.8685,-8.55044e-05,-0.00480599,0.00262631,0.00108529,-0.00597679,0.419352,0.00439123,0.0118649,1021,449,1.94952,22.8685
-196,575,1.93542,-23.1833,-0.000233099,-0.00529386,0.00318685,0.00130578,-0.00683274,0.44986,0.00504704,0.0146135,1028,449,1.93546,23.1833
-189,575,1.9281,-23.4736,-0.0005147,-0.00556585,0.00372038,0.00145636,-0.00753691,0.487203,0.00557385,0.015651,1035,449,1.92811,23.4736
-182,575,1.91418,-23.764,-0.000579781,-0.00591773,0.00419318,0.00172178,-0.00821929,0.501984,0.00613453,0.0144542,1042,449,1.91421,23.764
-175,575,1.92065,-24.0449,-0.000500722,-0.00649958,0.00461933,0.00200755,-0.00900786,0.497449,0.00677432,0.0126843,1049,449,1.92067,24.0449
-168,575,1.93848,-24.3092,-0.000426655,-0.0077259,0.00486649,0.00200669,-0.0101592,0.463664,0.00753137,0.0120266,1056,449,1.93854,24.3092
-161,575,1.96399,-24.5872,-0.000400009,-0.00966204,0.00496778,0.00176052,-0.0118226,0.410234,0.00852934,0.0163888,1063,449,1.96396,24.5872
-154,575,1.97607,-24.8484,-1.76077e-05,-0.0111743,0.00496565,0.00187236,-0.0130643,0.363677,0.00939603,0.0199044,1070,449,1.97609,24.8484
-147,575,2.02747,-25.0625,0.000874068,-0.0132949,0.00482183,0.00235929,-0.0147802,0.298799,0.0107267,0.0197806,1077,449,2.02744,25.0625
-140,575,1.96655,-25.2414,0.00157319,-0.0160848,0.00467593,0.00273497,-0.0172466,0.243527,0.0125094,0.0275113,1084,449,1.96659,25.2414
-133,575,2.01416,-25.4342,0.00218315,-0.0196533,0.00435122,0.00301825,-0.0204884,0.189618,0.0147682,0.0363083,1091,449,2.01419,25.4342
-126,575,2.12305,-25.3336,0.00294178,-0.0238987,0.00429869,0.00361344,-0.0245703,0.154994,0.017708,0.0402657,1098,449,2.12306,25.3336
-119,575,2.14917,-25.2839,0.00409989,-0.027837,0.00375532,0.00453552,-0.0282726,0.115487,0.0205279,0.0347255,1105,449,2.14912,25.2839
-112,575,2.13977,-25.4355,0.00540006,-0.0317102,0.00297471,0.00563699,-0.0319471,0.0794823,0.0234045,0.0482618,1112,449,2.13978,25.4355
-105,575,2.05872,-25.5741,0,0,0,0,0,0,0,-1,1119,449,2.05873,25.5741
-98,575,1.521,-25.6961,0,0,0,0,0,0,0,-1,1126,449,1.52105,25.6961
-91,575,1.60803,-16.4247,0,0,0,0,0,0,0,-1,1133,449,1.60802,16.4247
-84,575,1.16553,-11.9056,0,0,0,0,0,0,0,-1,1140,449,1.16558,11.9056
-77,575,0.205078,-11.2584,0,0,0,0,0,0,0,-1,1147,449,0.205117,11.2584
-70,575,-4.2467,-1.78738,0,0,0,0,0,0,0,-1,1154,449,-4.24674,1.78739
-63,575,-4.52209,-3.48798,0,0,0,0,0,0,0,-1,1161,449,-4.5221,3.48796
-56,575,-5.5968,-5.4928,0,0,0,0,0,0,0,-1,1168,449,-5.59683,5.49281
-49,575,-5.96863,-7.17612,0,0,0,0,0,0,0,-1,1175,449,-5.96868,7.1761
-42,575,-0.830322,0.773499,0,0,0,0,0,0,0,-1,1182,449,-0.83038,-0.77351
-35,575,-0.62085,0.205139,0,0,0,0,0,0,0,-1,1189,449,-0.620855,-0.205126
-28,575,0.49292,-3.87988,0,0,0,0,0,0,0,-1,1196,449,0.492941,3.87989
-21,575,2.45166,-27.5476,0,0,0,0,0,0,0,-1,1203,449,2.45163,27.5476
-14,575,3.01611,-27.5339,0.0441503,-0.0221771,-0.0194125,0.0494142,-0.027441,-0.264791,0.0449728,0.0480851,1210,449,3.01609,27.5339
-7,575,3.65564,-27.4826,0.0509839,-0.0210918,-0.0168635,0.0547343,-0.0248421,-0.218835,0.0470115,0.0441595,1217,449,3.65569,27.4826
0,575,1.08472,-28.7477,0.0589081,-0.0193677,-0.0127794,0.0609417,-0.0214012,-0.157804,0.0493339,0.0454514,1224,449,1.08468,28.7477
7,575,1.68787,-28.2223,0.0662006,-0.0151444,-0.00939132,0.0672707,-0.0162145,-0.113462,0.0511165,0.0433104,1231,449,1.68782,28.2223
14,575,2.64087,-27.9886,0,0,0,0,0,0,0,-1,1238,449,2.64085,27.9886
21,575,3.81018,-28.1476,0.0749812,-0.00962295,0.000237937,0.0749819,-0.00962361,0.00281233,0.0534852,0.0482556,1245,449,3.8102,28.1476
28,575,4.64966,-28.0634,0,0,0,0,0,0,0,-1,1252,449,4.64969,28.0634
35,575,5.56506,-27.9727,0.0745663,-0.0111987,0.00810493,0.0753255,-0.0119579,0.0933999,0.0546409,0.0465501,1259,449,5.56504,27.9727
42,575,6.41162,-27.8687,0.0707547,-0.0160827,0.0114757,0.0722457,-0.0175736,0.129198,0.0549662,0.0459254,1266,449,6.41157,27.8687
49,575,7.24768,-27.7516,0,0,0,0,0,0,0,-1,1273,449,7.24771,27.7516
56,575,7.23059,-27.573,0.0618924,-0.0314183,0.016053,0.0645769,-0.0341028,0.165694,0.0578712,0.0452046,1280,449,7.23057,27.573
63,575,8.18164,-28.277,0.056987,-0.0411079,0.0148169,0.0591762,-0.043297,0.146688,0.0593992,0.0430303,1287,449,8.18167,28.277
70,575,6.21399,-29.3176,0.0519566,-0.0502215,0.0132513,0.0536472,-0.051912,0.126892,0.0609474,0.0427529,1294,449,6.21399,29.3176
77,575,6.18335,-28.3579,0.0459055,-0.0587717,0.0116418,0.0471847,-0.0600508,0.109435,0.0620608,0.0419655,1301,449,6.1834,28.3579
84,575,6.18347,-27.4094,0.0412433,-0.0640552,0.00853014,0.0419299,-0.0647417,0.0803113,0.0620545,0.0445023,1308,449,6.1835,27.4094
91,575,6.30334,-26.8255,0.0390285,-0.0683091,0.00438928,0.0392077,-0.0684883,0.0408014,0.0629397,0.0481536,1315,449,6.30339,26.8255
98,575,6.31738,-26.5356,0.0388896,-0.069697,0.00103775,0.0388995,-0.0697069,0.00955572,0.0635393,0.0470233,1322,449,6.31734,26.5356
105,575,6.31665,-26.0742,0.041102,-0.0674774,-0.00228244,0.0411499,-0.0675253,-0.0210086,0.0633567,0.0434031,1329,449,6.31661,26.0742
112,575,6.82605,-25.9054,0.0434599,-0.0636759,-0.00463013,0.0436596,-0.0638756,-0.0431103,0.0624501,0.0412122,1336,449,6.82599,25.9054
119,575,7.40845,-25.6122,0.0471782,-0.0555123,-0.00735544,0.0477024,-0.0560364,-0.0711432,0.059958,0.042569,1343,449,7.40839,25.6122
126,575,8.06323,-25.3921,0,0,0,0,0,0,0,-1,1350,449,8.0632,25.3921
133,575,2.66272,-26.0637,0.0537718,-0.0354688,-0.00927002,0.0547245,-0.0364216,-0.10242,0.0529757,0.0445991,1357,449,2.66275,26.0637
140,575,3.22351,-26.5352,0.0569575,-0.0264277,-0.00893421,0.057904,-0.0273742,-0.105548,0.0502761,0.0435084,1364,449,3.22348,26.5351
147,575,3.58838,-26.5386,0.0601386,-0.0195483,-0.0072951,0.060801,-0.0202106,-0.0905441,0.0486897,0.0473722,1371,449,3.58841,26.5386
154,575,4.54822,-26.498,0,0,0,0,0,0,0,-1,1378,449,4.54828,26.498
161,575,4.66199,-24.5717,0,0,0,0,0,0,0,-1,1385,449,4.66204,24.5717
168,575,4.30603,-21.5567,0,0,0,0,0,0,0,-1,1392,449,4.30599,21.5567
175,575,4.32617,1.93634,0,0,0,0,0,0,0,-1,1399,449,4.32612,-1.93634
182,575,6.3147,-2.88345,0,0,0,0,0,0,0,-1,1406,449,6.31466,2.88346
189,575,6.10449,-1.30817,0,0,0,0,0,0,0,-1,1413,449,6.10455,1.30817
196,575,5.79895,0.818359,0,0,0,0,0,0,0,-1,1420,449,5.79895,-0.81837
203,575,3.29724,-1.46378,0,0,0,0,0,0,0,-1,1427,449,3.29722,1.46377
210,575,2.32739,-7.74503,0,0,0,0,0,0,0,-1,1434,449,2.32741,7.74502
217,575,3.33618,-11.5521,0,0,0,0,0,0,0,-1,1441,449,3.3362,11.5521
224,575,5.51709,-16.3903,0,0,0,0,0,0,0,-1,1448,449,5.51713,16.3903
231,575,5.48572,-20.4595,0,0,0,0,0,0,0,-1,1455,449,5.48571,20.4595
238,575,5.33484,-22.3575,0,0,0,0,0,0,0,-1,1462,449,5.33478,22.3575
245,575,5.59741,-23.513,0,0,0,0,0,0,0,-1,1469,449,5.5974,23.513
252,575,6.19092,-25.7485,0,0,0,0,0,0,0,-1,1476,449,6.19089,25.7485
259,575,6.10046,-25.4367,0,0,0,0,0,0,0,-1,1483,449,6.10042,25.4367
266,575,6.06812,-25.07,0,0,0,0,0,0,0,-1,1490,449,6.06809,25.07
273,575,6.10071,-24.6367,0,0,0,0,0,0,0,-1,1497,449,6.10076,24.6366
280,575,6.0946,-24.2697,0,0,0,0,0,0,0,-1,1504,449,6.09455,24.2697
287,575,6.12817,-23.9673,0.00223676,-0.0014859,-0.00161605,0.00284042,-0.00208956,-0.35749,0.00285731,0.0256825,1511,449,6.12813,23.9674
294,575,6.22705,-23.6258,0.00198041,-0.00188695,-0.00175093,0.00265535,-0.00256189,-0.367921,0.00301233,0.0114709,1518,449,6.22711,23.6258
301,575,6.23328,-23.2872,0.00173878,-0.00196244,-0.00173006,0.00242152,-0.00264518,-0.375871,0.00292621,0.009538,1525,449,6.23323,23.2872
308,575,6.23572,-22.9578,0.00151414,-0.00219796,-0.00166126,0.00214901,-0.00283283,-0.365036,0.00288529,0.0102525,1532,449,6.2357,22.9578
315,575,6.2179,-22.628,0.00122319,-0.00208676,-0.00158413,0.00185916,-0.00272273,-0.381764,0.00266097,0.0110507,1539,449,6.21785,22.6279
322,575,6.22278,-22.2961,0.00094657,-0.00172806,-0.00136039,0.00151689,-0.00229838,-0.396976,0.0022181,0.0105049,1546,449,6.22272,22.2961
329,575,6.22668,-21.9934,0.000734308,-0.00124619,-0.00102722,0.00117086,-0.00168275,-0.40186,0.00165635,0.010748,1553,449,6.22664,21.9934
336,575,6.21948,-21.6658,0.000551362,-0.00073171,-0.000684436,0.00084792,-0.00102827,-0.40887,0.00108488,0.0125994,1560,449,6.21944,21.6658
343,575,6.24829,-21.286,0.000337057,-0.000235288,-0.000336717,0.000492782,-0.000391013,-0.433183,0.000511386,0.0133855,1567,449,6.24827,21.286
350,575,6.24817,-20.9085,0.000201371,0.000428229,8.5452e-05,0.000456815,0.000172785,1.24797,0.000266336,0.012059,1574,449,6.24812,20.9085
357,575,6.24292,-20.549,4.89902e-05,0.00110579,0.000502415,0.00130652,-0.000151737,1.1907,0.000925745,0.0106887,1581,449,6.24287,20.549
364,575,6.23047,-20.18,-0.000191786,0.00174501,0.000798978,0.00203207,-0.00047884,1.22588,0.00153935,0.0104461,1588,449,6.23042,20.18
371,575,6.22546,-19.8138,-0.000414173,0.0023421,0.00109364,0.00272332,-0.000795387,1.23539,0.00213075,0.0194934,1595,449,6.2255,19.8138
378,575,6.20557,-19.4276,-0.00071842,0.00295865,0.00130249,0.00337327,-0.00113304,1.26261,0.00270676,0.0182867,1602,449,6.20563,19.4276
385,575,6.18396,-19.0518,-0.00111726,0.00349645,0.00131054,0.00384273,-0.00146354,1.31248,0.00316456,0.0114714,1609,449,6.18395,19.0518
392,575,6.16248,-18.6737,-0.00152476,0.0039562,0.00136238,0.00427616,-0.00184472,1.34012,0.00362564,0.00926447,1616,449,6.16243,18.6737
399,575,6.14343,-18.2942,-0.00193046,0.00493072,0.00164329,0.00530399,-0.00230373,1.34744,0.00450474,0.00967973,1623,449,6.14339,18.2942
406,575,6.11414,-17.8604,-0.0023936,0.00666132,0.00194548,0.00706162,-0.0027939,1.36787,0.00586522,0.0111569,1630,449,6.11414,17.8604
413,575,6.10559,-17.429,-0.00298302,0.00777568,0.00211801,0.00817763,-0.00338496,1.38325,0.00686416,0.0137036,1637,449,6.10563,17.429
420,575,6.08728,-17.0202,-0.0038888,0.00901903,0.00252114,0.00949398,-0.00436375,1.38459,0.00818148,0.0139743,1644,449,6.08732,17.0202
427,575,6.02393,-16.6166,-0.00510781,0.0103621,0.00328198,0.0110296,-0.00577529,1.37016,0.00985912,0.018077,1651,449,6.02398,16.6166
434,575,5.90112,-16.2772,-0.00613453,0.0123036,0.00418067,0.0132072,-0.00703817,1.35792,0.0118682,0.0291238,1658,449,5.90106,16.2772
441,575,5.96301,-15.8792,0,0,0,0,0,0,0,-1,1665,449,5.96297,15.8792
448,575,6.08899,-14.5977,0,0,0,0,0,0,0,-1,1672,449,6.08904,14.5977
455,575,5.97388,-13.8753,0,0,0,0,0,0,0,-1,1679,449,5.97385,13.8753
462,575,5.76099,-13.3388,0,0,0,0,0,0,0,-1,1686,449,5.76103,13.3388
469,575,6.0249,-13.365,0,0,0,0,0,0,0,-1,1693,449,6.0249,13.365
476,575,4.78845,-14.4375,0,0,0,0,0,0,0,-1,1700,449,4.78841,14.4375
483,575,5.09131,-13.5436,0,0,0,0,0,0,0,-1,1707,449,5.09133,13.5436
490,575,5.61365,-12.8318,0,0,0,0,0,0,0,-1,1714,449,5.61365,12.8318
497,575,0,0,0,0,0,0,0,0,0,-1,1721,449,0,0
504,575,0,0,0,0,0,0,0,0,0,-1,1728,449,0,0
511,575,0,0,0,0,0,0,0,0,0,-1,1735,449,0,0
518,575,0,0,0,0,0,0,0,0,0,-1,1742,449,0,0
525,575,0,0,0,0,0,0,0,0,0,-1,1749,449,0,0
532,575,0,0,0,0,0,0,0,0,0,-1,1756,449,0,0
539,575,0,0,0,0,0,0,0,0,0,-1,1763,449,0,0
546,575,0,0,0,0,0,0,0,0,0,-1,1770,449,0,0
553,575,0,0,0,0,0,0,0,0,0,-1,1777,449,0,0
560,575,0,0,0,0,0,0,0,0,0,-1,1784,449,0,0
567,575,0,0,0,0,0,0,0,0,0,-1,1791,449,0,0
574,575,0,0,0,0,0,0,0,0,0,-1,1798,449,0,0
581,575,0,0,0,0,0,0,0,0,0,-1,1805,449,0,0
588,575,0,0,0,0,0,0,0,0,0,-1,1812,449,0,0
595,575,0,0,0,0,0,0,0,0,0,-1,1819,449,0,0
602,575,0,0,0,0,0,0,0,0,0,-1,1826,449,0,0
609,575,0,0,0,0,0,0,0,0,0,-1,1833,449,0,0
616,575,0,0,0,0,0,0,0,0,0,-1,1840,449,0,0
623,575,0,0,0,0,0,0,0,0,0,-1,1847,449,0,0
630,575,0,0,0,0,0,0,0,0,0,-1,1854,449,0,0
637,575,0,0,0,0,0,0,0,0,0,-1,1861,449,0,0
644,575,0,0,0,0,0,0,0,0,0,-1,1868,449,0,0
651,575,0,0,0,0,0,0,0,0,0,-1,1875,449,0,0
658,575,0,0,0,0,0,0,0,0,0,-1,1882,449,0,0
665,575,0,0,0,0,0,0,0,0,0,-1,1889,449,0,0
672,575,0,0,0,0,0,0,0,0,0,-1,1896,449,0,0
679,575,0,0,0,0,0,0,0,0,0,-1,1903,449,0,0
686,575,0,0,0,0,0,0,0,0,0,-1,1910,449,0,0
693,575,0,0,0,0,0,0,0,0,0,-1,1917,449,0,0
700,575,0,0,0,0,0,0,0,0,0,-1,1924,449,0,0
707,575,0,0,0,0,0,0,0,0,0,-1,1931,449,0,0
714,575,0,0,0,0,0,0,0,0,0,-1,1938,449,0,0
721,575,0,0,0,0,0,0,0,0,0,-1,1945,449,0,0
728,575,0,0,0,0,0,0,0,0,0,-1,1952,449,0,0
735,575,0,0,0,0,0,0,0,0,0,-1,1959,449,0,0
742,575,0,0,0,0,0,0,0,0,0,-1,1966,449,0,0
749,575,0,0,0,0,0,0,0,0,0,-1,1973,449,0,0
756,575,0,0,0,0,0,0,0,0,0,-1,1980,449,0,0
763,575,0,0,0,0,0,0,0,0,0,-1,1987,449,0,0
770,575,0,0,0,0,0,0,0,0,0,-1,1994,449,0,0
777,575,0,0,0,0,0,0,0,0,0,-1,2001,449,0,0
784,575,0,0,0,0,0,0,0,0,0,-1,2008,449,0,0
791,575,0,0,0,0,0,0,0,0,0,-1,2015,449,0,0
798,575,0,0,0,0,0,0,0,0,0,-1,2022,449,0,0
805,575,0,0,0,0,0,0,0,0,0,-1,2029,449,0,0
812,575,0,0,0,0,0,0,0,0,0,-1,2036,449,0,0
-700,568,0,0,0,0,0,0,0,0,0,-1,524,456,0,0
-693,568,0,0,0,0,0,0,0,0,0,-1,531,456,0,0
-686,568,0,0,0,0,0,0,0,0,0,-1,538,456,0,0
-679,568,0,0,0,0,0,0,0,0,0,-1,545,456,0,0
-672,568,0,0,0,0,0,0,0,0,0,-1,552,456,0,0
-665,568,0,0,0,0,0,0,0,0,0,-1,559,456,0,0
-658,568,0,0,0,0,0,0,0,0,0,-1,566,456,0,0
-651,568,0,0,0,0,0,0,0,0,0,-1,573,456,0,0
-644,568,0,0,0,0,0,0,0,0,0,-1,580,456,0,0
-637,568,0,0,0,0,0,0,0,0,0,-1,587,456,0,0
-630,568,0,0,0,0,0,0,0,0,0,-1,594,456,0,0
-623,568,0,0,0,0,0,0,0,0,0,-1,601,456,0,0
-616,568,0,0,0,0,0,0,0,0,0,-1,608,456,0,0
-609,568,0,0,0,0,0,0,0,0,0,-1,615,456,0,0
-602,568,0,0,0,0,0,0,0,0,0,-1,622,456,0,0
-595,568,0,0,0,0,0,0,0,0,0,-1,629,456,0,0
-588,568,0,0,0,0,0,0,0,0,0,-1,636,456,0,0
-581,568,0,0,0,0,0,0,0,0,0,-1,643,456,0,0
-574,568,0,0,0,0,0,0,0,0,0,-1,650,456,0,0
-567,568,0,0,0,0,0,0,0,0,0,-1,657,456,0,0
-560,568,0,0,0,0,0,0,0,0,0,-1,664,456,0,0
-553,568,0,0,0,0,0,0,0,0,0,-1,671,456,0,0
-546,568,0,0,0,0,0,0,0,0,0,-1,678,456,0,0
-539,568,0,0,0,0,0,0,0,0,0,-1,685,456,0,0
-532,568,0,0,0,0,0,0,0,0,0,-1,692,456,0,0
-525,568,0,0,0,0,0,0,0,0,0,-1,699,456,0,0
-518,568,0,0,0,0,0,0,0,0,0,-1,706,456,0,0
-511,568,0,0,0,0,0,0,0,0,0,-1,713,456,0,0
-504,568,0,0,0,0,0,0,0,0,0,-1,720,456,0,0
-497,568,0,0,0,0,0,0,0,0,0,-1,727,456,0,0
-490,568,0,0,0,0,0,0,0,0,0,-1,734,456,0,0
-483,568,0,0,0,0,0,0,0,0,0,-1,741,456,0,0
-476,568,0,0,0,0,0,0,0,0,0,-1,748,456,0,0
-469,568,0,0,0,0,0,0,0,0,0,-1,755,456,0,0
-462,568,0,0,0,0,0,0,0,0,0,-1,762,456,0,0
-455,568,0,0,0,0,0,0,0,0,0,-1,769,456,0,0
-448,568,0,0,0,0,0,0,0,0,0,-1,776,456,0,0
-441,568,0,0,0,0,0,0,0,0,0,-1,783,456,0,0
-434,568,0,0,0,0,0,0,0,0,0,-1,790,456,0,0
-427,568,0,0,0,0,0,0,0,0,0,-1,797,456,0,0
-420,568,0,0,0,0,0,0,0,0,0,-1,804,456,0,0
-413,568,0,0,0,0,0,0,0,0,0,-1,811,456,0,0
-406,568,0,0,0,0,0,0,0,0,0,-1,818,456,0,0
-399,568,0,0,0,0,0,0,0,0,0,-1,825,456,0,0
-392,568,0,0,0,0,0,0,0,0,0,-1,832,456,0,0
-385,568,0,0,0,0,0,0,0,0,0,-1,839,456,0,0
-378,568,0.321777,-7.29929,0,0,0,0,0,0,0,-1,846,456,0.321806,7.29927
-371,568,1.09595,-7.46707,0,0,0,0,0,0,0,-1,853,456,1.09597,7.46707
-364,568,1.87787,-7.61115,0,0,0,0,0,0,0,-1,860,456,1.87784,7.61116
-357,568,2.14166,-7.67645,0,0,0,0,0,0,0,-1,867,456,2.14167,7.67646
-350,568,2.7467,-11.2507,0,0,0,0,0,0,0,-1,874,456,2.7467,11.2507
-343,568,2.16516,-11.3762,0,0,0,0,0,0,0,-1,881,456,2.16514,11.3762
-336,568,1.59033,-15.3091,0,0,0,0,0,0,0,-1,888,456,1.59036,15.3091
-329,568,1.66455,-15.7373,0,0,0,0,0,0,0,-1,895,456,1.66454,15.7373
-322,568,1.83063,-16.2101,-0.00343185,0.0183819,-0.0128373,0.0243201,-0.00937006,-1.13754,0.0200793,0.0423845,902,456,1.83065,16.2101
-315,568,1.91833,-16.789,-0.00289717,0.0162099,-0.0103726,0.0207582,-0.00744548,-1.15755,0.0168772,0.0385795,909,456,1.91832,16.789
-308,568,1.78815,-17.4071,-0.00250065,0.0141438,-0.00824992,0.01754,-0.00589681,-1.18028,0.0140768,0.0294371,916,456,1.78816,17.4071
-301,568,1.7467,-17.8482,-0.00205372,0.0119796,-0.00629388,0.0143888,-0.0044629,-1.20522,0.0113758,0.0170864,923,456,1.7467,17.8482
-294,568,1.71252,-18.2097,-0.00166187,0.00980938,-0.00442006,0.0113149,-0.0031674,-1.24251,0.00879137,0.0121332,930,456,1.71252,18.2097
-287,568,1.69897,-18.6208,-0.00148944,0.00793195,-0.00273651,0.00866911,-0.0022266,-1.30766,0.0066471,0.0103229,937,456,1.69897,18.6208
-280,568,1.69299,-19.0258,-0.00131349,0.00633082,-0.00151563,0.00662035,-0.00160302,-1.38204,0.00503372,0.0112208,944,456,1.69301,19.0258
-273,568,1.67194,-19.4103,-0.00111664,0.00483928,-0.000624199,0.004904,-0.00118135,-1.46749,0.00372607,0.0127761,951,456,1.67192,19.4103
-266,568,1.64221,-19.8008,-0.000955741,0.00319744,5.95094e-05,0.00319829,-0.000956594,1.55647,0.00251251,0.0120552,958,456,1.64219,19.8008
-259,568,1.62799,-20.1559,-0.000527515,0.00174198,0.00063456,0.00190736,-0.00069289,1.31585,0.00155488,0.0118227,965,456,1.62802,20.1558
-252,568,1.604,-20.5047,-0.000362051,0.000250743,0.00109497,0.00108137,-0.00119268,0.92182,0.00131345,0.0120551,972,456,1.60399,20.5047
-245,568,1.57709,-20.8397,-0.000359025,-0.0012135,0.00139308,0.000670858,-0.00224338,0.636609,0.0017623,0.0145124,979,456,1.57708,20.8397
-238,568,1.57996,-21.1706,-0.000356515,-0.00267723,0.00173629,0.000571461,-0.00360521,0.490833,0.00261486,0.0133344,986,456,1.57996,21.1706
-231,568,1.58167,-21.5184,-0.000316901,-0.00404128,0.00208803,0.000618697,-0.00497688,0.421254,0.00354221,0.0114312,993,456,1.58168,21.5184
-224,568,1.56549,-21.8527,-0.000313961,-0.00535314,0.00259677,0.00078467,-0.00645177,0.40024,0.00458517,0.012453,1000,456,1.56547,21.8527
-217,568,1.58148,-22.1905,-0.000384435,-0.00652438,0.00316491,0.000954831,-0.00786364,0.400312,0.00558796,0.0109568,1007,456,1.58145,22.1905
-210,568,1.59821,-22.5266,-0.00047955,-0.00776064,0.00384722,0.00117657,-0.00941676,0.406497,0.00670453,0.0111826,1014,456,1.5982,22.5266
-203,568,1.6178,-22.8521,-0.000548516,-0.00853725,0.00451995,0.00148911,-0.0105749,0.423525,0.00759511,0.0102793,1021,456,1.61781,22.8521
-196,568,1.64673,-23.1374,-0.000718608,-0.00896771,0.00513084,0.00173996,-0.0114263,0.446849,0.00825883,0.0133692,1028,456,1.64679,23.1374
-189,568,1.61292,-23.4374,-0.00103123,-0.00908527,0.00574506,0.00195763,-0.0120741,0.479715,0.00877506,0.0137175,1035,456,1.61291,23.4374
-182,568,1.64063,-23.7519,-0.00112803,-0.00920213,0.00629492,0.00231314,-0.0126433,0.500274,0.00929635,0.0144204,1042,456,1.64061,23.7519
-175,568,1.66125,-24.0237,-0.00104741,-0.00950075,0.00677489,0.00271115,-0.0132593,0.506504,0.00986819,0.0135252,1049,456,1.6613,24.0237
-168,568,1.64429,-24.2079,-0.000970888,-0.0105996,0.0070048,0.00271449,-0.0142849,0.484326,0.0105452,0.0205394,1056,456,1.64423,24.2079
-161,568,1.64771,-24.4345,-0.00107909,-0.0126912,0.00706829,0.00226204,-0.0160324,0.441563,0.0115165,0.0369592,1063,456,1.64768,24.4345
-154,568,1.82678,-24.9744,-0.000797461,-0.014263,0.00702439,0.00219974,-0.0172602,0.403297,0.0123058,0.0468648,1070,456,1.82681,24.9744
-147,568,1.83411,-25.178,0.000263291,-0.0166501,0.00671157,0.00260293,-0.0189898,0.335425,0.0136107,0.049319,1077,456,1.8341,25.178
-140,568,1.55225,-25.3015,0.00103128,-0.0201747,0.00638422,0.00280494,-0.0219484,0.270986,0.0156513,0.0455814,1084,456,1.55221,25.3015
-133,568,1.26245,-25.6667,0,0,0,0,0,0,0,-1,1091,456,1.26244,25.6668
-126,568,1.88464,-24.7108,0,0,0,0,0,0,0,-1,1098,456,1.88467,24.7108
-119,568,1.88086,-24.3125,0,0,0,0,0,0,0,-1,1105,456,1.88083,24.3125
-112,568,1.53674,-24.3699,0,0,0,0,0,0,0,-1,1112,456,1.53674,24.3699
-105,568,2.02454,-25.038,0,0,0,0,0,0,0,-1,1119,456,2.02459,25.038
-98,568,1.58618,-14.7874,0,0,0,0,0,0,0,-1,1126,456,1.58617,14.7874
-91,568,1.11621,-11.1853,0,0,0,0,0,0,0,-1,1133,456,1.11626,11.1853
-84,568,0.461792,-9.7959,0,0,0,0,0,0,0,-1,1140,456,0.461793,9.7959
-77,568,-1.13806,-8.57822,0,0,0,0,0,0,0,-1,1147,456,-1.13807,8.57821
-70,568,-4.09766,-1.42911,0,0,0,0,0,0,0,-1,1154,456,-4.09767,1.4291
-63,568,-5.92273,-3.70752,0,0,0,0,0,0,0,-1,1161,456,-5.92272,3.70751
-56,568,-5.24158,-6.01385,0,0,0,0,0,0,0,-1,1168,456,-5.24161,6.01386
-49,568,-5.24365,-8.33557,0,0,0,0,0,0,0,-1,1175,456,-5.24371,8.33557
-42,568,-0.664795,0.521973,0,0,0,0,0,0,0,-1,1182,456,-0.664829,-0.521984
-35,568,-0.153076,-1.67731,0,0,0,0,0,0,0,-1,1189,456,-0.153068,1.67731
-28,568,1.25439,-4.48798,0,0,0,0,0,0,0,-1,1196,456,1.2544,4.48797
-21,568,2.46912,-27.4352,0,0,0,0,0,0,0,-1,1203,456,2.46909,27.4352
-14,568,3.06482,-27.4365,0.0467519,-0.0234018,-0.0243081,0.0543514,-0.0310013,-0.303005,0.0498893,0.0437234,1210,456,3.06483,27.4365
-7,568,3.5553,-27.4515,0.0548003,-0.0218173,-0.0212885,0.0603181,-0.027335,-0.253607,0.051787,0.0435063,1217,456,3.55536,27.4515
0,568,4.01099,-27.4736,0.0645427,-0.0193886,-0.0158876,0.0674494,-0.0222953,-0.180955,0.053956,0.049772,1224,456,4.01096,27.4736
7,568,1.83911,-28.1205,0.0735522,-0.0136373,-0.0114797,0.0750384,-0.0151234,-0.128742,0.0557547,0.0464087,1231,456,1.83912,28.1205
14,568,3.02197,-27.3227,0,0,0,0,0,0,0,-1,1238,456,3.02202,27.3226
21,568,3.37537,-27.992,0,0,0,0,0,0,0,-1,1245,456,3.3754,27.992
28,568,4.22705,-27.918,0,0,0,0,0,0,0,-1,1252,456,4.22705,27.918
35,568,5.11487,-27.8614,0.0866581,-0.00724162,0.0110337,0.0879372,-0.00852071,0.115411,0.0616616,0.045618,1259,456,5.11488,27.8614
42,568,5.97986,-27.8889,0.0833116,-0.0125462,0.0150922,0.0856316,-0.0148662,0.152529,0.062634,0.0434903,1266,456,5.97991,27.8889
49,568,6.80591,-27.8667,0.0789877,-0.0206878,0.0179301,0.0821149,-0.023815,0.172676,0.0641719,0.0455577,1273,456,6.80585,27.8667
56,568,6.62622,-27.3518,0.0740427,-0.0309035,0.0212669,0.0781886,-0.0350494,0.19253,0.0669407,0.0448974,1280,456,6.62624,27.3518
63,568,6.53333,-28.7864,0.0685618,-0.04308,0.0202108,0.072108,-0.0466262,0.173691,0.0690754,0.0443226,1287,456,6.53329,28.7864
70,568,6.2301,-28.0885,0.0630807,-0.0542119,0.0185015,0.0659299,-0.0570611,0.152797,0.0710704,0.0445461,1294,456,6.23014,28.0885
77,568,6.23438,-27.2352,0.0563595,-0.0641787,0.0166125,0.0586071,-0.0664263,0.13448,0.0722351,0.0446034,1301,456,6.23435,27.2352
84,568,6.12646,-25.8404,0,0,0,0,0,0,0,-1,1308,456,6.12645,25.8404
91,568,6.23669,-25.7003,0.047643,-0.0747102,0.00777207,0.0481348,-0.0752019,0.0631831,0.0717778,0.0448934,1315,456,6.23665,25.7003
98,568,6.2522,-25.5141,0.0472174,-0.0760359,0.00371631,0.0473294,-0.0761478,0.0301153,0.0719339,0.0477561,1322,456,6.25222,25.5141
105,568,6.48291,-25.2057,0.0493712,-0.0730968,-0.000449939,0.0493728,-0.0730984,-0.00367387,0.0711497,0.0473305,1329,456,6.48287,25.2056
112,568,7.13843,-25.0334,0.0519632,-0.068312,-0.00347312,0.0520634,-0.0684122,-0.0288444,0.0697698,0.0430422,1336,456,7.13847,25.0334
119,568,7.88635,-24.5714,0.0562836,-0.0576295,-0.0071595,0.0567318,-0.0580777,-0.0625227,0.0662868,0.043242,1343,456,7.88638,24.5714
126,568,1.45789,-24.9167,0,0,0,0,0,0,0,-1,1350,456,1.45793,24.9168
133,568,2.38306,-25.8762,0.0645856,-0.0319655,-0.0100969,0.0656302,-0.0330101,-0.10309,0.0579787,0.0469868,1357,456,2.38312,25.8762
140,568,3.18066,-26.8415,0.0689146,-0.0212305,-0.00929355,0.0698628,-0.0221786,-0.101671,0.0554663,0.0471515,1364,456,3.18063,26.8415
147,568,3.30933,-26.5125,0,0,0,0,0,0,0,-1,1371,456,3.30934,26.5126
154,568,13.2646,-20.8934,0,0,0,0,0,0,0,-1,1378,456,13.2646,20.8934
161,568,14.2765,-20.2551,0,0,0,0,0,0,0,-1,1385,456,14.2765,20.2551
168,568,7.26782,-25.2079,0,0,0,0,0,0,0,-1,1392,456,7.26784,25.2079
175,568,10.5151,0.747498,0,0,0,0,0,0,0,-1,1399,456,10.5152,-0.747501
182,568,6.35095,-3.63361,0,0,0,0,0,0,0,-1,1406,456,6.35093,3.63359
189,568,6.17493,-1.70911,0,0,0,0,0,0,0,-1,1413,456,6.17497,1.70911
196,568,6.04724,0.200836,0,0,0,0,0,0,0,-1,1420,456,6.04724,-0.200835
203,568,5.9281,2.08649,0,0,0,0,0,0,0,-1,1427,456,5.92812,-2.08648
210,568,1.46216,-2.50446,0,0,0,0,0,0,0,-1,1434,456,1.46219,2.50446
217,568,2.62366,-7.86703,0,0,0,0,0,0,0,-1,1441,456,2.62365,7.86704
224,568,3.43494,-12.1555,0,0,0,0,0,0,0,-1,1448,456,3.43492,12.1555
231,568,4.38245,-9.3205,0,0,0,0,0,0,0,-1,1455,456,4.38244,9.32048
238,568,5.88879,-20.7448,0,0,0,0,0,0,0,-1,1462,456,5.88876,20.7449
245,568,3.34387,-10.6774,0,0,0,0,0,0,0,-1,1469,456,3.34389,10.6774
252,568,3.56946,-9.28928,0,0,0,0,0,0,0,-1,1476,456,3.56948,9.28928
259,568,3.38843,-8.73068,0,0,0,0,0,0,0,-1,1483,456,3.38842,8.73068
266,568,3.104,-9.16876,0,0,0,0,0,0,0,-1,1490,456,3.10397,9.16876
273,568,3.77869,-13.1147,0,0,0,0,0,0,0,-1,1497,456,3.77869,13.1147
280,568,4.40002,-14.9322,0,0,0,0,0,0,0,-1,1504,456,4.4,14.9322
287,568,6.4895,-24.1116,0,0,0,0,0,0,0,-1,1511,456,6.48953,24.1116
294,568,6.56396,-23.5287,0.00238856,-0.00320641,-0.00264188,0.00343886,-0.00425671,-0.378399,0.00445139,0.0347313,1518,456,6.56399,23.5287
301,568,6.53662,-23.2239,0.00209125,-0.00332723,-0.0026742,0.00318876,-0.00442474,-0.389445,0.00441492,0.0213953,1525,456,6.53663,23.2239
308,568,6.54016,-22.9216,0.00175914,-0.00370913,-0.00270692,0.00287246,-0.00482245,-0.390199,0.00448996,0.0142903,1532,456,6.54017,22.9216
315,568,6.5509,-22.623,0.0013036,-0.00365266,-0.00273009,0.00251255,-0.00486161,-0.416869,0.00432888,0.00875227,1539,456,6.55091,22.623
322,568,6.56702,-22.3084,0.000905273,-0.00326881,-0.00253305,0.00210032,-0.00446385,-0.440819,0.00387085,0.0100215,1546,456,6.56704,22.3084
329,568,6.57434,-21.9817,0.000621741,-0.00269415,-0.00219183,0.00171205,-0.00378446,-0.461599,0.00324773,0.0110652,1553,456,6.57437,21.9817
336,568,6.56482,-21.6255,0.000377224,-0.00210915,-0.00183938,0.00135413,-0.00308606,-0.488223,0.00262775,0.0121881,1560,456,6.56482,21.6255
343,568,6.60205,-21.2545,9.04699e-05,-0.00152237,-0.00147965,0.000969182,-0.00240108,-0.535897,0.00200351,0.0127215,1567,456,6.60208,21.2545
350,568,6.61023,-20.9157,-5.3108e-05,-0.000830366,-0.0010304,0.000659517,-0.00154299,-0.605066,0.00130527,0.0113774,1574,456,6.61018,20.9157
357,568,6.59583,-20.552,-0.000143489,-7.59365e-05,-0.000553688,0.000445005,-0.00066443,-0.815862,0.000644695,0.00972028,1581,456,6.59579,20.552
364,568,6.6228,-20.2018,-0.000292211,0.000607857,-0.000152827,0.000633099,-0.000317452,-1.40711,0.000558796,0.0116253,1588,456,6.62275,20.2018
371,568,6.64673,-19.8146,-0.00042906,0.00121107,0.000240315,0.00124556,-0.000463547,1.42826,0.0010206,0.0211341,1595,456,6.64677,19.8146
378,568,6.62634,-19.4212,-0.000607808,0.00180919,0.000544087,0.00192602,-0.000724639,1.35928,0.00158189,0.0181754,1602,456,6.62635,19.4212
385,568,6.55493,-19.0548,-0.000837121,0.0024128,0.000704685,0.00255902,-0.00098334,1.3662,0.00211155,0.0089743,1609,456,6.55489,19.0548
392,568,6.54382,-18.6879,-0.00108466,0.00285839,0.000881254,0.00304639,-0.00127266,1.36062,0.00256274,0.00968338,1616,456,6.54384,18.6879
399,568,6.53088,-18.3156,-0.00137381,0.00367887,0.00120461,0.00395136,-0.0016463,1.34833,0.0033219,0.0160069,1623,456,6.53085,18.3156
406,568,6.52283,-17.8865,-0.00172,0.00512687,0.00152459,0.00545101,-0.00204414,1.36131,0.00447386,0.0147268,1630,456,6.52283,17.8865
413,568,6.50659,-17.4529,-0.0021666,0.00607384,0.00176193,0.00643476,-0.00252752,1.36875,0.00533577,0.0115478,1637,456,6.50664,17.4529
420,568,6.48962,-17.0387,-0.00288845,0.00706198,0.00216866,0.00751409,-0.00334056,1.36527,0.00641949,0.0106803,1644,456,6.48967,17.0387
427,568,6.46143,-16.614,-0.00389008,0.00810551,0.00281933,0.0087351,-0.00451967,1.35109,0.00778058,0.0130678,1651,456,6.46147,16.614
434,568,6.45422,-16.2066,-0.00471476,0.00952235,0.0035407,0.0103543,-0.0055467,1.34002,0.00931926,0.0183706,1658,456,6.4542,16.2066
441,568,6.42212,-15.8384,-0.00586014,0.0108495,0.00443056,0.0119516,-0.00696222,1.327,0.0110458,0.0275323,1665,456,6.42208,15.8384
448,568,6.44067,-14.9486,-0.00752367,0.0123101,0.00538677,0.0136787,-0.00889225,1.322,0.0131286,0.0405611,1672,456,6.44069,14.9486
455,568,6.35242,-14.1928,-0.00929307,0.0130575,0.0064853,0.014803,-0.0110385,1.30788,0.0149723,0.0469572,1679,456,6.35243,14.1928
462,568,6.30811,-13.4799,0,0,0,0,0,0,0,-1,1686,456,6.30809,13.4799
469,568,6.35376,-13.7546,0,0,0,0,0,0,0,-1,1693,456,6.3537,13.7546
476,568,6.31433,-12.9751,0,0,0,0,0,0,0,-1,1700,456,6.31429,12.9751
483,568,5.82214,-13.2298,0,0,0,0,0,0,0,-1,1707,456,5.82209,13.2298
490,568,6.19531,-11.6317,0,0,0,0,0,0,0,-1,1714,456,6.19526,11.6317
497,568,5.62695,-4.2702,0,0,0,0,0,0,0,-1,1721,456,5.62694,4.27019
504,568,0,0,0,0,0,0,0,0,0,-1,1728,456,0,0
511,568,0,0,0,0,0,0,0,0,0,-1,1735,456,0,0
518,568,0,0,0,0,0,0,0,0,0,-1,1742,456,0,0
525,568,0,0,0,0,0,0,0,0,0,-1,1749,456,0,0
532,568,0,0,0,0,0,0,0,0,0,-1,1756,456,0,0
539,568,0,0,0,0,0,0,0,0,0,-1,1763,456,0,0
546,568,0,0,0,0,0,0,0,0,0,-1,1770,456,0,0
553,568,0,0,0,0,0,0,0,0,0,-1,1777,456,0,0
560,568,0,0,0,0,0,0,0,0,0,-1,1784,456,0,0
567,568,0,0,0,0,0,0,0,0,0,-1,1791,456,0,0
574,568,0,0,0,0,0,0,0,0,0,-1,1798,456,0,0
581,568,0,0,0,0,0,0,0,0,0,-1,1805,456,0,0
588,568,0,0,0,0,0,0,0,0,0,-1,1812,456,0,0
595,568,0,0,0,0,0,0,0,0,0,-1,1819,456,0,0
602,568,0,0,0,0,0,0,0,0,0,-1,1826,456,0,0
609,568,0,0,0,0,0,0,0,0,0,-1,1833,456,0,0
616,568,0,0,0,0,0,0,0,0,0,-1,1840,456,0,0
623,568,0,0,0,0,0,0,0,0,0,-1,1847,456,0,0
630,568,0,0,0,0,0,0,0,0,0,-1,1854,456,0,0
637,568,0,0,0,0,0,0,0,0,0,-1,1861,456,0,0
644,568,0,0,0,0,0,0,0,0,0,-1,1868,456,0,0
651,568,0,0,0,0,0,0,0,0,0,-1,1875,456,0,0
658,568,0,0,0,0,0,0,0,0,0,-1,1882,456,0,0
665,568,0,0,0,0,0,0,0,0,0,-1,1889,456,0,0
672,568,0,0,0,0,0,0,0,0,0,-1,1896,456,0,0
679,568,0,0,0,0,0,0,0,0,0,-1,1903,456,0,0
686,568,0,0,0,0,0,0,0,0,0,-1,1910,456,0,0
693,568,0,0,0,0,0,0,0,0,0,-1,1917,456,0,0
700,568,0,0,0,0,0,0,0,0,0,-1,1924,456,0,0
707,568,0,0,0,0,0,0,0,0,0,-1,1931,456,0,0
714,568,0,0,0,0,0,0,0,0,0,-1,1938,456,0,0
721,568,0,0,0,0,0,0,0,0,0,-1,1945,456,0,0
728,568,0,0,0,0,0,0,0,0,0,-1,1952,456,0,0
735,568,0,0,0,0,0,0,0,0,0,-1,1959,456,0,0
742,568,0,0,0,0,0,0,0,0,0,-1,1966,456,0,0
749,568,0,0,0,0,0,0,0,0,0,-1,1973,456,0,0
756,568,0,0,0,0,0,0,0,0,0,-1,1980,456,0,0
763,568,0,0,0,0,0,0,0,0,0,-1,1987,456,0,0
770,568,0,0,0,0,0,0,0,0,0,-1,1994,456,0,0
777,568,0,0,0,0,0,0,0,0,0,-1,2001,456,0,0
784,568,0,0,0,0,0,0,0,0,0,-1,2008,456,0,0
791,568,0,0,0,0,0,0,0,0,0,-1,2015,456,0,0
798,568,0,0,0,0,0,0,0,0,0,-1,2022,456,0,0
805,568,0,0,0,0,0,0,0,0,0,-1,2029,456,0,0
812,568,0,0,0,0,0,0,0,0,0,-1,2036,456,0,0
-700,561,0,0,0,0,0,0,0,0,0,-1,524,463,0,0
-693,561,0,0,0,0,0,0,0,0,0,-1,531,463,0,0
-686,561,0,0,0,0,0,0,0,0,0,-1,538,463,0,0
-679,561,0,0,0,0,0,0,0,0,0,-1,545,463,0,0
-672,561,0,0,0,0,0,0,0,0,0,-1,552,463,0,0
-665,561,0,0,0,0,0,0,0,0,0,-1,559,463,0,0
-658,561,0,0,0,0,0,0,0,0,0,-1,566,463,0,0
-651,561,0,0,0,0,0,0,0,0,0,-1,573,463,0,0
-644,561,0,0,0,0,0,0,0,0,0,-1,580,463,0,0
-637,561,0,0,0,0,0,0,0,0,0,-1,587,463,0,0
-630,561,0,0,0,0,0,0,0,0,0,-1,594,463,0,0
-623,561,0,0,0,0,0,0,0,0,0,-1,601,463,0,0
-616,561,0,0,0,0,0,0,0,0,0,-1,608,463,0,0
-609,561,0,0,0,0,0,0,0,0,0,-1,615,463,0,0
-602,561,0,0,0,0,0,0,0,0,0,-1,622,463,0,0
-595,561,0,0,0,0,0,0,0,0,0,-1,629,463,0,0
-588,561,0,0,0,0,0,0,0,0,0,-1,636,463,0,0
-581,561,0,0,0,0,0,0,0,0,0,-1,643,463,0,0
-574,561,0,0,0,0,0,0,0,0,0,-1,650,463,0,0
-567,561,0,0,0,0,0,0,0,0,0,-1,657,463,0,0
-560,561,0,0,0,0,0,0,0,0,0,-1,664,463,0,0
-553,561,0,0,0,0,0,0,0,0,0,-1,671,463,0,0
-546,561,0,0,0,0,0,0,0,0,0,-1,678,463,0,0
-539,561,0,0,0,0,0,0,0,0,0,-1,685,463,0,0
-532,561,0,0,0,0,0,0,0,0,0,-1,692,463,0,0
-525,561,0,0,0,0,0,0,0,0,0,-1,699,463,0,0
-518,561,0,0,0,0,0,0,0,0,0,-1,706,463,0,0
-511,561,0,0,0,0,0,0,0,0,0,-1,713,463,0,0
-504,561,0,0,0,0,0,0,0,0,0,-1,720,463,0,0
-497,561,0,0,0,0,0,0,0,0,0,-1,727,463,0,0
-490,561,0,0,0,0,0,0,0,0,0,-1,734,463,0,0
-483,561,0,0,0,0,0,0,0,0,0,-1,741,463,0,0
-476,561,0,0,0,0,0,0,0,0,0,-1,748,463,0,0
-469,561,0,0,0,0,0,0,0,0,0,-1,755,463,0,0
-462,561,0,0,0,0,0,0,0,0,0,-1,762,463,0,0
-455,561,0,0,0,0,0,0,0,0,0,-1,769,463,0,0
-448,561,0,0,0,0,0,0,0,0,0,-1,776,463,0,0
-441,561,0,0,0,0,0,0,0,0,0,-1,783,463,0,0
-434,561,0,0,0,0,0,0,0,0,0,-1,790,463,0,0
-427,561,0,0,0,0,0,0,0,0,0,-1,797,463,0,0
-420,561,0,0,0,0,0,0,0,0,0,-1,804,463,0,0
-413,561,0,0,0,0,0,0,0,0,0,-1,811,463,0,0
-406,561,0,0,0,0,0,0,0,0,0,-1,818,463,0,0
-399,561,0,0,0,0,0,0,0,0,0,-1,825,463,0,0
-392,561,4.92407,-2.54578,0,0,0,0,0,0,0,-1,832,463,4.92408,2.54576
-385,561,5.55634,-1.02338,0,0,0,0,0,0,0,-1,839,463,5.55634,1.02338
-378,561,0.160522,-4.51785,0,0,0,0,0,0,0,-1,846,463,0.160542,4.51785
-371,561,1.06299,-7.56818,0,0,0,0,0,0,0,-1,853,463,1.06297,7.56817
-364,561,1.45264,-7.57684,0,0,0,0,0,0,0,-1,860,463,1.45264,7.57684
-357,561,0.948242,-12.2803,0,0,0,0,0,0,0,-1,867,463,0.948262,12.2803
-350,561,1.33124,-11.9406,0,0,0,0,0,0,0,-1,874,463,1.33127,11.9406
-343,561,1.13214,-14.1837,0,0,0,0,0,0,0,-1,881,463,1.13217,14.1837
-336,561,1.50891,-15.5872,0,0,0,0,0,0,0,-1,888,463,1.50889,15.5872
-329,561,1.43433,-15.9808,0,0,0,0,0,0,0,-1,895,463,1.4343,15.9808
-322,561,1.32831,-16.5624,-0.00232308,0.0140918,-0.00970953,0.018598,-0.0068293,-1.13628,0.0151956,0.0333012,902,463,1.32832,16.5624
-315,561,1.47955,-16.8424,-0.00199337,0.0125109,-0.008045,0.01609,-0.00557247,-1.1522,0.0129889,0.0220417,909,463,1.47958,16.8424
-308,561,1.43787,-17.338,-0.00169645,0.0109793,-0.00658634,0.0137819,-0.00449907,-1.16849,0.0109988,0.0167019,916,463,1.43785,17.3379
-301,561,1.39215,-17.8537,-0.00137675,0.00922689,-0.00513115,0.0113033,-0.00345315,-1.18628,0.00891242,0.0123849,923,463,1.39216,17.8537
-294,561,1.35248,-18.2451,-0.0010761,0.00740099,-0.00367056,0.00876943,-0.00244454,-1.21394,0.00680901,0.0112418,930,463,1.35247,18.2451
-287,561,1.32916,-18.6269,-0.000905488,0.00579282,-0.00232599,0.0065213,-0.00163396,-1.26728,0.00498231,0.00960407,937,463,1.32918,18.6269
-280,561,1.29419,-19.0017,-0.000747554,0.00432412,-0.00132965,0.00465157,-0.00107501,-1.32933,0.00351462,0.0120092,944,463,1.2942,19.0017
-273,561,1.26593,-19.384,-0.000608903,0.00284094,-0.000503983,0.00291306,-0.000681022,-1.42866,0.0022044,0.0153043,951,463,1.26591,19.384
-266,561,1.26782,-19.755,-0.000440075,0.00119372,0.00018832,0.00121514,-0.000461501,1.45751,0.00100008,0.0100901,958,463,1.26782,19.755
-259,561,1.26727,-20.1291,-6.43739e-05,-0.000393399,0.000814183,0.000601751,-0.00105952,0.685711,0.0009712,0.00991463,965,463,1.26726,20.1291
-252,561,1.24048,-20.4801,1.89162e-06,-0.00207122,0.00142934,0.000730972,-0.0028003,0.471679,0.00215231,0.0139888,972,463,1.24049,20.4801
-245,561,1.22131,-20.8255,-5.74676e-05,-0.00380549,0.00195362,0.000775651,-0.00463861,0.403097,0.00338075,0.0170572,979,463,1.22131,20.8255
-238,561,1.24194,-21.1743,-0.000121718,-0.0055669,0.00259305,0.000915533,-0.00660415,0.380517,0.00473752,0.0130669,986,463,1.24196,21.1743
-231,561,1.23938,-21.5302,-0.000173338,-0.00724942,0.00320437,0.00106206,-0.00848482,0.367975,0.00604176,0.0105985,993,463,1.23941,21.5302
-224,561,1.23499,-21.8679,-0.00030428,-0.00888455,0.00397711,0.0012556,-0.0104444,0.373777,0.007417,0.0109224,1000,463,1.23497,21.8679
-217,561,1.26282,-22.1862,-0.000514993,-0.0103079,0.00486212,0.00148895,-0.0123119,0.39094,0.00874657,0.0115666,1007,463,1.26283,22.1862
-210,561,1.28223,-22.5107,-0.000757053,-0.011768,0.00581812,0.00174752,-0.0142726,0.406501,0.0101478,0.0121779,1014,463,1.28223,22.5107
-203,561,1.2901,-22.826,-0.000973652,-0.0126592,0.00665587,0.00204014,-0.015673,0.425182,0.0111908,0.0133546,1021,463,1.29008,22.826
-196,561,1.27771,-23.1068,-0.00127163,-0.013085,0.00736274,0.0022609,-0.0166175,0.447345,0.0119038,0.0145813,1028,463,1.27777,23.1068
-189,561,1.25037,-23.3871,-0.00174596,-0.0130687,0.00809891,0.00247414,-0.0172888,0.480362,0.0124329,0.0187856,1035,463,1.25034,23.3871
-182,561,1.29956,-23.7036,-0.00202682,-0.0129672,0.00878456,0.00285149,-0.0178455,0.506925,0.0129526,0.0232506,1042,463,1.29956,23.7036
-175,561,1.23352,-23.9648,-0.00208624,-0.0129695,0.00939734,0.00333128,-0.0183871,0.522957,0.0135061,0.0339087,1049,463,1.23354,23.9648
-168,561,1.19177,-24.2741,-0.00217417,-0.0139814,0.00970715,0.00328362,-0.0194392,0.512195,0.0141813,0.0483391,1056,463,1.19177,24.2741
-161,561,1.24109,-24.4348,0,0,0,0,0,0,0,-1,1063,463,1.2411,24.4348
-154,561,1.79431,-25.3619,0,0,0,0,0,0,0,-1,1070,463,1.79436,25.3619
-147,561,1.59863,-25.3836,0,0,0,0,0,0,0,-1,1077,463,1.59867,25.3836
-140,561,1.27246,-25.2574,0,0,0,0,0,0,0,-1,1084,463,1.27248,25.2574
-133,561,1.92224,-20.9314,0,0,0,0,0,0,0,-1,1091,463,1.92219,20.9314
-126,561,2.73242,-23.6642,0,0,0,0,0,0,0,-1,1098,463,2.73238,23.6642
-119,561,1.73938,-23.203,0,0,0,0,0,0,0,-1,1105,463,1.7394,23.203
-112,561,0.74646,-22.7418,0,0,0,0,0,0,0,-1,1112,463,0.746412,22.7418
-105,561,0.530518,-13.5379,0,0,0,0,0,0,0,-1,1119,463,0.530477,13.5379
-98,561,1.5387,-7.54352,0,0,0,0,0,0,0,-1,1126,463,1.53871,7.54351
-91,561,1.29553,-6.57968,0,0,0,0,0,0,0,-1,1133,463,1.29549,6.5797
-84,561,1.23364,-5.84555,0,0,0,0,0,0,0,-1,1140,463,1.23363,5.84556
-77,561,-2.36023,1.00204,0,0,0,0,0,0,0,-1,1147,463,-2.3602,-1.00205
-70,561,-3.90015,-1.41541,0,0,0,0,0,0,0,-1,1154,463,-3.90009,1.4154
-63,561,-6.95691,-4.02756,0,0,0,0,0,0,0,-1,1161,463,-6.95696,4.02756
-56,561,-5.37988,-6.66855,0,0,0,0,0,0,0,-1,1168,463,-5.37988,6.66854
-49,561,-5.7439,-9.11029,0,0,0,0,0,0,0,-1,1175,463,-5.74387,9.1103
-42,561,-1.72644,-5.63065,0,0,0,0,0,0,0,-1,1182,463,-1.72648,5.63064
-35,561,-1.65674,-4.87994,0,0,0,0,0,0,0,-1,1189,463,-1.6567,4.87993
-28,561,-1.91418,-3.86896,0,0,0,0,0,0,0,-1,1196,463,-1.91414,3.86895
-21,561,2.4082,-27.1936,0,0,0,0,0,0,0,-1,1203,463,2.40818,27.1936
-14,561,3.03491,-27.2463,0.0473008,-0.0237703,-0.0294926,0.0579452,-0.0344147,-0.346368,0.0538978,0.0474277,1210,463,3.0349,27.2463
-7,561,3.66125,-27.3504,0.0567269,-0.0213035,-0.0258613,0.0645197,-0.0290963,-0.292679,0.055324,0.048095,1217,463,3.66127,27.3504
0,561,4.28406,-27.4487,0,0,0,0,0,0,0,-1,1224,463,4.28412,27.4487
7,561,1.90601,-28.0218,0,0,0,0,0,0,0,-1,1231,463,1.90595,28.0218
14,561,3.01892,-27.3882,0,0,0,0,0,0,0,-1,1238,463,3.01887,27.3882
21,561,3.21094,-27.2307,0,0,0,0,0,0,0,-1,1245,463,3.21095,27.2307
28,561,3.87744,-27.579,0.0989538,0.00308496,0.00838506,0.0996816,0.0023571,0.0865879,0.0656828,0.0466106,1252,463,3.8775,27.579
35,561,4.65649,-27.8273,0.0992683,0.000443585,0.0141766,0.101262,-0.00154988,0.1397,0.0680303,0.0439561,1259,463,4.65645,27.8273
42,561,5.53125,-27.8487,0.0972429,-0.00474567,0.0189244,0.100641,-0.00814395,0.177677,0.0699669,0.0443794,1266,463,5.53126,27.8487
49,561,6.52344,-27.7421,0.0936456,-0.01372,0.0227665,0.0982737,-0.0183481,0.200551,0.0724109,0.0443907,1273,463,6.52339,27.7421
56,561,6.09863,-26.7698,0.0882946,-0.0263244,0.0269298,0.0943064,-0.0323363,0.21964,0.0759791,0.0440039,1280,463,6.09868,26.7698
63,561,6.19092,-27.7284,0,0,0,0,0,0,0,-1,1287,463,6.19094,27.7284
70,561,6.20227,-26.8921,0,0,0,0,0,0,0,-1,1294,463,6.20224,26.8921
77,561,4.6189,-24.6237,0,0,0,0,0,0,0,-1,1301,463,4.61889,24.6237
84,561,5.0863,-24.5656,0.0630183,-0.0708993,0.0168388,0.0651031,-0.0729842,0.123186,0.079768,0.0464329,1308,463,5.08629,24.5656
91,561,5.66162,-24.5023,0.0586952,-0.0766061,0.0119349,0.0597399,-0.0776508,0.0873116,0.0795469,0.0438197,1315,463,5.66164,24.5023
98,561,6.41895,-24.3417,0.0575375,-0.0780773,0.00722064,0.0579208,-0.0784607,0.0530439,0.079037,0.0461705,1322,463,6.41895,24.3417
105,561,6.91992,-24.2078,0.059026,-0.0748146,0.00221794,0.0590628,-0.0748513,0.0165654,0.0774943,0.0488569,1329,463,6.91991,24.2078
112,561,7.21106,-24.5225,0.0614691,-0.0695472,-0.00145391,0.0614853,-0.0695633,-0.0110954,0.0757088,0.0471406,1336,463,7.21102,24.5225
119,561,7.9436,-23.8353,0.0661628,-0.0562493,-0.00628283,0.0664844,-0.0565709,-0.0511461,0.0711228,0.0438994,1343,463,7.9436,23.8353
126,561,8.94006,-23.672,0.0709082,-0.0405845,-0.00893232,0.0716193,-0.0412956,-0.0794405,0.0659704,0.0446544,1350,463,8.94004,23.672
133,561,2.01709,-25.9386,0.0761548,-0.0246487,-0.0104675,0.0772303,-0.0257242,-0.102385,0.0618706,0.0485353,1357,463,2.01705,25.9386
140,561,2.97546,-26.8869,0,0,0,0,0,0,0,-1,1364,463,2.97543,26.8869
147,561,12.0243,-21.9686,0.088128,-0.00298638,-0.00455536,0.0883552,-0.00321356,-0.0498304,0.0600033,0.0468129,1371,463,12.0243,21.9686
154,561,12.916,-21.1857,0.0948929,0.00213248,0.000954398,0.0949028,0.00212266,0.0102874,0.062573,0.0438337,1378,463,12.916,21.1857
161,561,13.9301,-20.5214,0,0,0,0,0,0,0,-1,1385,463,13.93,20.5214
168,561,0.288086,-24.9266,0,0,0,0,0,0,0,-1,1392,463,0.288119,24.9266
175,561,10.4185,0.276398,0,0,0,0,0,0,0,-1,1399,463,10.4185,-0.276394
182,561,6.45703,-4.02127,0,0,0,0,0,0,0,-1,1406,463,6.45704,4.02127
189,561,6.50854,-2.08685,0,0,0,0,0,0,0,-1,1413,463,6.50851,2.08686
196,561,6.44775,-0.27182,0,0,0,0,0,0,0,-1,1420,463,6.44773,0.271814
203,561,6.18591,1.1301,0,0,0,0,0,0,0,-1,1427,463,6.18592,-1.13009
210,561,5.68713,2.68427,0,0,0,0,0,0,0,-1,1434,463,5.6871,-2.68425
217,561,3.61743,-7.33582,0,0,0,0,0,0,0,-1,1441,463,3.61738,7.33581
224,561,4.27466,-8.59171,0,0,0,0,0,0,0,-1,1448,463,4.27466,8.59171
231,561,4.93188,-9.8476,0,0,0,0,0,0,0,-1,1455,463,4.93193,9.84761
238,561,2.18018,-5.18359,0,0,0,0,0,0,0,-1,1462,463,2.18023,5.18359
245,561,3.07568,-3.50238,0,0,0,0,0,0,0,-1,1469,463,3.0757,3.50238
252,561,3.47412,-3.71109,0,0,0,0,0,0,0,-1,1476,463,3.47413,3.71109
259,561,3.42212,-3.2334,0,0,0,0,0,0,0,-1,1483,463,3.42214,3.2334
266,561,4.44373,-5.90027,0,0,0,0,0,0,0,-1,1490,463,4.44372,5.90026
273,561,2.59485,-3.65268,0,0,0,0,0,0,0,-1,1497,463,2.5948,3.65268
280,561,3.10767,-6.38235,0,0,0,0,0,0,0,-1,1504,463,3.10766,6.38235
287,561,4.91809,-14.429,0,0,0,0,0,0,0,-1,1511,463,4.9181,14.429
294,561,6.86206,-23.3738,0,0,0,0,0,0,0,-1,1518,463,6.86211,23.3738
301,561,6.8905,-23.0401,0.00221354,-0.00509595,-0.00375374,0.00379786,-0.00668026,-0.39938,0.00612537,0.0433256,1525,463,6.89047,23.0401
308,561,6.87134,-22.7924,0.00177407,-0.00551492,-0.00387457,0.00344884,-0.00718969,-0.407994,0.00626745,0.0328397,1532,463,6.87139,22.7924
315,561,6.91382,-22.6151,0.00113288,-0.00542454,-0.00399615,0.00302322,-0.00731489,-0.44185,0.00613775,0.0200151,1539,463,6.91378,22.6151
322,561,6.93091,-22.3486,0.000638349,-0.00493443,-0.00379577,0.00256066,-0.00685674,-0.468782,0.00562256,0.0200737,1546,463,6.93086,22.3486
329,561,6.92383,-21.9658,0.000335674,-0.00420949,-0.00341495,0.0021651,-0.00603892,-0.491807,0.00490945,0.0147253,1553,463,6.92378,21.9658
336,561,6.93896,-21.5891,7.6021e-05,-0.00352811,-0.00303177,0.00180086,-0.00525295,-0.517254,0.00423197,0.0115622,1560,463,6.93893,21.5891
343,561,6.95715,-21.2469,-0.000248718,-0.00282973,-0.00264564,0.00140438,-0.00448283,-0.558483,0.0035505,0.0105456,1567,463,6.95716,21.2469
350,561,6.95374,-20.8983,-0.000371415,-0.00210749,-0.00215814,0.00108672,-0.00356562,-0.594191,0.00281025,0.00999461,1574,463,6.9537,20.8983
357,561,6.95093,-20.535,-0.000379663,-0.00128473,-0.00161352,0.000843579,-0.00250798,-0.648678,0.00201299,0.0101162,1581,463,6.9509,20.535
364,561,6.96667,-20.2038,-0.000424914,-0.000565321,-0.00110299,0.000610109,-0.00160034,-0.753617,0.0013182,0.00953756,1588,463,6.96662,20.2038
371,561,6.96008,-19.8363,-0.000459916,6.62884e-05,-0.000602865,0.000460962,-0.000854589,-0.99115,0.000770784,0.0160265,1595,463,6.96012,19.8363
378,561,6.93542,-19.4333,-0.000506549,0.000690697,-0.00018606,0.000718945,-0.000534798,-1.42012,0.000726447,0.0110854,1602,463,6.93547,19.4333
385,561,6.93298,-19.0485,-0.000583455,0.00139152,0.000128779,0.00139989,-0.000591817,1.50596,0.00118104,0.00936354,1609,463,6.93292,19.0485
392,561,6.92908,-18.6457,-0.00070138,0.00187128,0.00041575,0.0019368,-0.000766898,1.41449,0.00160896,0.0130897,1616,463,6.92909,18.6457
399,561,6.92139,-18.2602,-0.000870125,0.00257476,0.000782852,0.00274432,-0.00103968,1.3575,0.00225738,0.0201375,1623,463,6.9214,18.2602
406,561,6.91016,-17.8774,-0.0011031,0.00377638,0.00112085,0.00402153,-0.00134825,1.35547,0.00322576,0.0181451,1630,463,6.91017,17.8774
413,561,6.89319,-17.4709,-0.00141869,0.00461168,0.00141235,0.00492607,-0.00173308,1.35177,0.00398926,0.0158253,1637,463,6.89316,17.4709
420,561,6.86426,-17.0553,-0.00197201,0.00542624,0.00181766,0.0058487,-0.00239447,1.34243,0.0048965,0.013177,1644,463,6.86421,17.0553
427,561,6.86133,-16.6104,-0.00278763,0.00626177,0.00236588,0.00684297,-0.00336884,1.3299,0.00600845,0.0106414,1651,463,6.86133,16.6104
434,561,6.85999,-16.1812,-0.00345946,0.00730774,0.00293706,0.0080568,-0.00420852,1.32108,0.00719663,0.0122953,1658,463,6.86003,16.1812
441,561,6.86218,-15.7806,-0.00439345,0.00822972,0.00364391,0.00920608,-0.00536981,1.309,0.008512,0.0154557,1665,463,6.86213,15.7806
448,561,6.82092,-15.2974,-0.00573736,0.00916851,0.00435223,0.0103462,-0.00691507,1.30652,0.0100312,0.0204864,1672,463,6.82091,15.2974
455,561,6.81079,-14.765,-0.0071309,0.00960298,0.00515332,0.0110627,-0.00859057,1.29478,0.0113767,0.0377094,1679,463,6.81084,14.765
462,561,6.79846,-14.4853,-0.00872048,0.00965131,0.00611648,0.0115014,-0.0105705,1.27708,0.012747,0.0415519,1686,463,6.79842,14.4853
469,561,6.65735,-14.0939,-0.0107565,0.00930239,0.00727712,0.0116643,-0.0131184,1.25695,0.0143165,0.0282464,1693,463,6.65735,14.0939
476,561,6.41003,-13.5067,-0.0134919,0.0082132,0.00817664,0.0109487,-0.0162274,1.24795,0.0157885,0.0452045,1700,463,6.41,13.5067
483,561,6.11914,-12.8346,0,0,0,0,0,0,0,-1,1707,463,6.11917,12.8346
490,561,5.58984,-10.8368,0,0,0,0,0,0,0,-1,1714,463,5.58984,10.8368
497,561,8.26306,-1.31348,0,0,0,0,0,0,0,-1,1721,463,8.26305,1.31346
504,561,10.0769,-0.811401,0,0,0,0,0,0,0,-1,1728,463,10.0769,0.8114
511,561,0,0,0,0,0,0,0,0,0,-1,1735,463,0,0
518,561,0,0,0,0,0,0,0,0,0,-1,1742,463,0,0
525,561,0,0,0,0,0,0,0,0,0,-1,1749,463,0,0
532,561,0,0,0,0,0,0,0,0,0,-1,1756,463,0,0
539,561,0,0,0,0,0,0,0,0,0,-1,1763,463,0,0
546,561,0,0,0,0,0,0,0,0,0,-1,1770,463,0,0
553,561,0,0,0,0,0,0,0,0,0,-1,1777,463,0,0
560,561,0,0,0,0,0,0,0,0,0,-1,1784,463,0,0
567,561,0,0,0,0,0,0,0,0,0,-1,1791,463,0,0
574,561,0,0,0,0,0,0,0,0,0,-1,1798,463,0,0
581,561,0,0,0,0,0,0,0,0,0,-1,1805,463,0,0
588,561,0,0,0,0,0,0,0,0,0,-1,1812,463,0,0
595,561,0,0,0,0,0,0,0,0,0,-1,1819,463,0,0
602,561,0,0,0,0,0,0,0,0,0,-1,1826,463,0,0
609,561,0,0,0,0,0,0,0,0,0,-1,1833,463,0,0
616,561,0,0,0,0,0,0,0,0,0,-1,1840,463,0,0
623,561,0,0,0,0,0,0,0,0,0,-1,1847,463,0,0
630,561,0,0,0,0,0,0,0,0,0,-1,1854,463,0,0
637,561,0,0,0,0,0,0,0,0,0,-1,1861,463,0,0
644,561,0,0,0,0,0,0,0,0,0,-1,1868,463,0,0
651,561,0,0,0,0,0,0,0,0,0,-1,1875,463,0,0
658,561,0,0,0,0,0,0,0,0,0,-1,1882,463,0,0
665,561,0,0,0,0,0,0,0,0,0,-1,1889,463,0,0
672,561,0,0,0,0,0,0,0,0,0,-1,1896,463,0,0
679,561,0,0,0,0,0,0,0,0,0,-1,1903,463,0,0
686,561,0,0,0,0,0,0,0,0,0,-1,1910,463,0,0
693,561,0,0,0,0,0,0,0,0,0,-1,1917,463,0,0
700,561,0,0,0,0,0,0,0,0,0,-1,1924,463,0,0
707,561,0,0,0,0,0,0,0,0,0,-1,1931,463,0,0
714,561,0,0,0,0,0,0,0,0,0,-1,1938,463,0,0
721,561,0,0,0,0,0,0,0,0,0,-1,1945,463,0,0
728,561,0,0,0,0,0,0,0,0,0,-1,1952,463,0,0
735,561,0,0,0,0,0,0,0,0,0,-1,1959,463,0,0
742,561,0,0,0,0,0,0,0,0,0,-1,1966,463,0,0
749,561,0,0,0,0,0,0,0,0,0,-1,1973,463,0,0
756,561,0,0,0,0,0,0,0,0,0,-1,1980,463,0,0
763,561,0,0,0,0,0,0,0,0,0,-1,1987,463,0,0
770,561,0,0,0,0,0,0,0,0,0,-1,1994,463,0,0
777,561,0,0,0,0,0,0,0,0,0,-1,2001,463,0,0
784,561,0,0,0,0,0,0,0,0,0,-1,2008,463,0,0
791,561,0,0,0,0,0,0,0,0,0,-1,2015,463,0,0
798,561,0,0,0,0,0,0,0,0,0,-1,2022,463,0,0
805,561,0,0,0,0,0,0,0,0,0,-1,2029,463,0,0
812,561,0,0,0,0,0,0,0,0,0,-1,2036,463,0,0
-700,554,0,0,0,0,0,0,0,0,0,-1,524,470,0,0
-693,554,0,0,0,0,0,0,0,0,0,-1,531,470,0,0
-686,554,0,0,0,0,0,0,0,0,0,-1,538,470,0,0
-679,554,0,0,0,0,0,0,0,0,0,-1,545,470,0,0
-672,554,0,0,0,0,0,0,0,0,0,-1,552,470,0,0
-665,554,0,0,0,0,0,0,0,0,0,-1,559,470,0,0
-658,554,0,0,0,0,0,0,0,0,0,-1,566,470,0,0
-651,554,0,0,0,0,0,0,0,0,0,-1,573,470,0,0
-644,554,0,0,0,0,0,0,0,0,0,-1,580,470,0,0
-637,554,0,0,0,0,0,0,0,0,0,-1,587,470,0,0
-630,554,0,0,0,0,0,0,0,0,0,-1,594,470,0,0
-623,554,0,0,0,0,0,0,0,0,0,-1,601,470,0,0
-616,554,0,0,0,0,0,0,0,0,0,-1,608,470,0,0
-609,554,0,0,0,0,0,0,0,0,0,-1,615,470,0,0
-602,554,0,0,0,0,0,0,0,0,0,-1,622,470,0,0
-595,554,0,0,0,0,0,0,0,0,0,-1,629,470,0,0
-588,554,0,0,0,0,0,0,0,0,0,-1,636,470,0,0
-581,554,0,0,0,0,0,0,0,0,0,-1,643,470,0,0
-574,554,0,0,0,0,0,0,0,0,0,-1,650,470,0,0
-567,554,0,0,0,0,0,0,0,0,0,-1,657,470,0,0
-560,554,0,0,0,0,0,0,0,0,0,-1,664,470,0,0
-553,554,0,0,0,0,0,0,0,0,0,-1,671,470,0,0
-546,554,0,0,0,0,0,0,0,0,0,-1,678,470,0,0
-539,554,0,0,0,0,0,0,0,0,0,-1,685,470,0,0
-532,554,0,0,0,0,0,0,0,0,0,-1,692,470,0,0
-525,554,0,0,0,0,0,0,0,0,0,-1,699,470,0,0
-518,554,0,0,0,0,0,0,0,0,0,-1,706,470,0,0
-511,554,0,0,0,0,0,0,0,0,0,-1,713,470,0,0
-504,554,0,0,0,0,0,0,0,0,0,-1,720,470,0,0
-497,554,0,0,0,0,0,0,0,0,0,-1,727,470,0,0
-490,554,0,0,0,0,0,0,0,0,0,-1,734,470,0,0
-483,554,0,0,0,0,0,0,0,0,0,-1,741,470,0,0
-476,554,0,0,0,0,0,0,0,0,0,-1,748,470,0,0
-469,554,0,0,0,0,0,0,0,0,0,-1,755,470,0,0
-462,554,0,0,0,0,0,0,0,0,0,-1,762,470,0,0
-455,554,0,0,0,0,0,0,0,0,0,-1,769,470,0,0
-448,554,0,0,0,0,0,0,0,0,0,-1,776,470,0,0
-441,554,0,0,0,0,0,0,0,0,0,-1,783,470,0,0
-434,554,0,0,0,0,0,0,0,0,0,-1,790,470,0,0
-427,554,0,0,0,0,0,0,0,0,0,-1,797,470,0,0
-420,554,0,0,0,0,0,0,0,0,0,-1,804,470,0,0
-413,554,0,0,0,0,0,0,0,0,0,-1,811,470,0,0
-406,554,0,0,0,0,0,0,0,0,0,-1,818,470,0,0
-399,554,-1.32275,-3.95142,0,0,0,0,0,0,0,-1,825,470,-1.32275,3.95141
-392,554,-1.35632,-3.7406,0,0,0,0,0,0,0,-1,832,470,-1.35632,3.7406
-385,554,-0.849243,-4.14447,0,0,0,0,0,0,0,-1,839,470,-0.849262,4.14446
-378,554,-0.982666,-4.55084,0,0,0,0,0,0,0,-1,846,470,-0.982671,4.55084
-371,554,-1.74542,-4.63467,0,0,0,0,0,0,0,-1,853,470,-1.74541,4.63468
-364,554,1.04883,-7.68756,0,0,0,0,0,0,0,-1,860,470,1.0488,7.68757
-357,554,1.06714,-11.5403,0,0,0,0,0,0,0,-1,867,470,1.06715,11.5403
-350,554,0.695862,-14.566,0,0,0,0,0,0,0,-1,874,470,0.695841,14.566
-343,554,1.14539,-15.3919,0,0,0,0,0,0,0,-1,881,470,1.14538,15.3919
-336,554,1.10718,-15.7088,-0.00185114,0.0130315,-0.00922612,0.0174432,-0.00626287,-1.12476,0.014185,0.0395376,888,470,1.10717,15.7088
-329,554,1.05316,-16.1926,-0.00171444,0.0118441,-0.00833031,0.0158051,-0.0056754,-1.12695,0.0128532,0.0197024,895,470,1.05318,16.1926
-322,554,1.0105,-16.6315,-0.00153009,0.0106293,-0.00720433,0.0139765,-0.00487721,-1.13587,0.0112998,0.0119565,902,470,1.01052,16.6315
-315,554,1.02295,-17.0372,-0.00130533,0.00946145,-0.00605304,0.0121787,-0.00402257,-1.14885,0.00974089,0.0113929,909,470,1.02297,17.0372
-308,554,0.994751,-17.4528,-0.00106337,0.008308,-0.00503035,0.0104969,-0.00325228,-1.16037,0.00829729,0.0124709,916,470,0.994755,17.4528
-301,554,1.00177,-17.8661,-0.000849658,0.0068602,-0.00390339,0.00849134,-0.0024808,-1.17497,0.00664405,0.0137269,923,470,1.00175,17.8661
-294,554,0.96698,-18.2441,-0.000641834,0.00529542,-0.00272194,0.00635441,-0.00170083,-1.19976,0.00490257,0.0126377,930,470,0.966964,18.2442
-287,554,0.942566,-18.6169,-0.000479442,0.00388806,-0.00162742,0.00442778,-0.00101916,-1.25057,0.00334375,0.0116889,937,470,0.942561,18.6169
-280,554,0.927307,-18.997,-0.000357443,0.00247885,-0.000796273,0.0026871,-0.000565701,-1.31499,0.00200673,0.0109037,944,470,0.927296,18.997
-273,554,0.893738,-19.3866,-0.000264295,0.000960885,-3.61037e-05,0.000961948,-0.000265358,-1.54136,0.00074566,0.0149618,951,470,0.893742,19.3866
-266,554,0.884399,-19.756,-6.74718e-05,-0.000740069,0.000650177,0.000328232,-0.00113577,0.546726,0.000887071,0.012944,958,470,0.884395,19.756
-259,554,0.895386,-20.0825,0.000277471,-0.00252531,0.00129472,0.000784009,-0.00303185,0.372927,0.00232702,0.0120807,965,470,0.895373,20.0825
-252,554,0.859558,-20.4204,0.000264694,-0.00446476,0.00201104,0.00100419,-0.00520426,0.352373,0.00384816,0.0142913,972,470,0.859552,20.4204
-245,554,0.845215,-20.784,0.00017586,-0.00653882,0.0027111,0.00113382,-0.00749678,0.339654,0.0054155,0.0165235,979,470,0.845197,20.784
-238,554,0.887329,-21.1737,7.55654e-05,-0.00864564,0.00359585,0.00136695,-0.00993702,0.344788,0.00712418,0.0118103,986,470,0.887359,21.1737
-231,554,0.892151,-21.5234,-3.36905e-05,-0.0107235,0.00443608,0.0015674,-0.0123246,0.346373,0.00878559,0.00963427,993,470,0.892138,21.5235
-224,554,0.906372,-21.8513,-0.000279131,-0.0127804,0.00546283,0.00177162,-0.0148311,0.359122,0.0105278,0.0100848,1000,470,0.906396,21.8513
-217,554,0.931396,-22.1691,-0.000640352,-0.0145753,0.00667748,0.0020428,-0.0172584,0.382075,0.0122435,0.0105969,1007,470,0.931388,22.1691
-210,554,0.974304,-22.5028,-0.0010614,-0.0163702,0.00795694,0.00232516,-0.0197567,0.402388,0.0140107,0.0143122,1014,470,0.974323,22.5028
-203,554,0.962524,-22.8319,-0.00148613,-0.0174705,0.00904354,0.00259067,-0.0215473,0.423517,0.0153017,0.0242993,1021,470,0.962529,22.8319
-196,554,0.839722,-22.9939,-0.00202647,-0.0179693,0.00996274,0.0027614,-0.0227572,0.44799,0.0161707,0.0319084,1028,470,0.839771,22.9939
-189,554,0.884766,-23.1261,-0.00279897,-0.017804,0.0109133,0.00294191,-0.0235448,0.484267,0.0167635,0.0374426,1035,470,0.88478,23.1261
-182,554,0.915039,-23.3622,0,0,0,0,0,0,0,-1,1042,470,0.914981,23.3622
-175,554,0.7677,-23.907,0,0,0,0,0,0,0,-1,1049,470,0.767744,23.9071
-168,554,0.737915,-24.2954,0,0,0,0,0,0,0,-1,1056,470,0.737941,24.2954
-161,554,1.53125,-24.2328,0,0,0,0,0,0,0,-1,1063,470,1.53128,24.2328
-154,554,2.0105,-25.4115,0,0,0,0,0,0,0,-1,1070,470,2.01047,25.4115
-147,554,2.48352,-23.7255,0,0,0,0,0,0,0,-1,1077,470,2.48352,23.7255
-140,554,2.64673,-23.9483,0,0,0,0,0,0,0,-1,1084,470,2.64675,23.9483
-133,554,1.48523,-20.8091,0,0,0,0,0,0,0,-1,1091,470,1.48518,20.8091
-126,554,0.532715,-15.1913,0,0,0,0,0,0,0,-1,1098,470,0.532762,15.1913
-119,554,1.86731,-22.0143,0,0,0,0,0,0,0,-1,1105,470,1.8673,22.0143
-112,554,0.53186,-16.7545,0,0,0,0,0,0,0,-1,1112,470,0.531912,16.7545
-105,554,2.82129,-9.46112,0,0,0,0,0,0,0,-1,1119,470,2.82127,9.46112
-98,554,1.51929,-7.3624,0,0,0,0,0,0,0,-1,1126,470,1.51928,7.36241
-91,554,1.41089,-6.5864,0,0,0,0,0,0,0,-1,1133,470,1.41093,6.58638
-84,554,1.62305,-5.87186,0,0,0,0,0,0,0,-1,1140,470,1.62299,5.87186
-77,554,-2.56958,1.33258,0,0,0,0,0,0,0,-1,1147,470,-2.56959,-1.33257
-70,554,-3.68164,-1.18332,0,0,0,0,0,0,0,-1,1154,470,-3.68158,1.18331
-63,554,-4.86853,-3.88708,0,0,0,0,0,0,0,-1,1161,470,-4.86853,3.88708
-56,554,-5.69958,-6.45422,0,0,0,0,0,0,0,-1,1168,470,-5.69955,6.45422
-49,554,-6.23645,-8.8569,0,0,0,0,0,0,0,-1,1175,470,-6.23643,8.85689
-42,554,-6.62524,-11.5382,0,0,0,0,0,0,0,-1,1182,470,-6.62522,11.5382
-35,554,-2.40173,-4.59482,0,0,0,0,0,0,0,-1,1189,470,-2.40169,4.59481
-28,554,-0.760132,-1.65555,0,0,0,0,0,0,0,-1,1196,470,-0.760095,1.65556
-21,554,-0.750488,-32.2566,0,0,0,0,0,0,0,-1,1203,470,-0.75053,32.2566
-14,554,2.95569,-26.9893,0,0,0,0,0,0,0,-1,1210,470,2.95567,26.9893
-7,554,3.41943,-27.1386,0,0,0,0,0,0,0,-1,1217,470,3.41946,27.1386
0,554,4.05481,-27.3591,0,0,0,0,0,0,0,-1,1224,470,4.05485,27.3591
7,554,1.96118,-27.9942,0,0,0,0,0,0,0,-1,1231,470,1.96122,27.9942
14,554,1.45154,-24.011,0,0,0,0,0,0,0,-1,1238,470,1.45155,24.011
21,554,2.71704,-27.6721,0,0,0,0,0,0,0,-1,1245,470,2.71707,27.6721
28,554,3.49414,-27.7917,0.108858,0.0148409,0.0108199,0.110087,0.0136118,0.113114,0.0693014,0.0436337,1252,470,3.49414,27.7916
35,554,4.29553,-27.8333,0.111682,0.0138202,0.0172959,0.114649,0.0108534,0.169884,0.0730839,0.0412526,1259,470,4.29549,27.8333
42,554,5.08191,-27.7269,0,0,0,0,0,0,0,-1,1266,470,5.08187,27.7269
49,554,5.89612,-27.7993,0.111185,0.00101034,0.0277666,0.117787,-0.00559187,0.23344,0.0804538,0.0476787,1273,470,5.89607,27.7994
56,554,7.35938,-28.2502,0.105724,-0.0146231,0.0325915,0.113983,-0.0228825,0.248196,0.0846535,0.0456774,1280,470,7.3594,28.2502
63,554,9.13074,-28.6305,0,0,0,0,0,0,0,-1,1287,470,9.13069,28.6305
70,554,6.14087,-25.6695,0,0,0,0,0,0,0,-1,1294,470,6.14085,25.6695
77,554,4.46362,-23.0488,0,0,0,0,0,0,0,-1,1301,470,4.46361,23.0488
84,554,4.47717,-23.4039,0.0803961,-0.062453,0.0215127,0.0835655,-0.0656224,0.146276,0.0863411,0.0442517,1308,470,4.47716,23.4039
91,554,5.00574,-23.7112,0.0737859,-0.069421,0.0169568,0.0757664,-0.0714014,0.116266,0.0849798,0.0421279,1315,470,5.00571,23.7111
98,554,6.69043,-23.1238,0,0,0,0,0,0,0,-1,1322,470,6.69047,23.1238
105,554,7.21765,-23.0679,0,0,0,0,0,0,0,-1,1329,470,7.21771,23.0679
112,554,7.2666,-23.7339,0.0719818,-0.0652628,0.00189362,0.072008,-0.0652889,0.0137939,0.0793,0.0484734,1336,470,7.26657,23.7339
119,554,8.19312,-23.5353,0.0765951,-0.0496538,-0.00428464,0.0767404,-0.049799,-0.033886,0.0736074,0.041784,1343,470,8.19315,23.5353
126,554,8.93347,-23.3691,0.0816781,-0.0317422,-0.00773145,0.0822027,-0.0322668,-0.0677487,0.0681529,0.0401448,1350,470,8.93346,23.3691
133,554,9.47363,-22.9418,0.0880668,-0.0123939,-0.01005,0.0890623,-0.0133894,-0.0987352,0.0643044,0.0457048,1357,470,9.47364,22.9418
140,554,10.5159,-22.1669,0,0,0,0,0,0,0,-1,1364,470,10.5158,22.1669
147,554,11.7036,-21.5402,0.10404,0.0112125,-0.0013299,0.104059,0.0111935,-0.0143227,0.0659587,0.0465068,1371,470,11.7037,21.5402
154,554,12.9099,-21.1026,0.114554,0.0157046,0.00708444,0.115059,0.0151995,0.0711844,0.0721749,0.0468039,1378,470,12.9099,21.1026
161,554,14.4362,-20.7484,0,0,0,0,0,0,0,-1,1385,470,14.4361,20.7485
168,554,15.9479,-20.2899,0,0,0,0,0,0,0,-1,1392,470,15.9479,20.2899
175,554,10.663,0.286957,0,0,0,0,0,0,0,-1,1399,470,10.663,-0.286966
182,554,6.71106,-4.50217,0,0,0,0,0,0,0,-1,1406,470,6.71107,4.50215
189,554,6.90479,-2.50348,0,0,0,0,0,0,0,-1,1413,470,6.90477,2.50348
196,554,6.96216,-0.740906,0,0,0,0,0,0,0,-1,1420,470,6.96214,0.740912
203,554,6.43518,0.414154,0,0,0,0,0,0,0,-1,1427,470,6.43523,-0.414141
210,554,6.21167,1.96707,0,0,0,0,0,0,0,-1,1434,470,6.21165,-1.96706
217,554,5.64551,3.4989,0,0,0,0,0,0,0,-1,1441,470,5.64555,-3.49891
224,554,4.85144,-8.85172,0,0,0,0,0,0,0,-1,1448,470,4.85146,8.85173
231,554,3.25073,-5.29642,0,0,0,0,0,0,0,-1,1455,470,3.25078,5.29642
238,554,4.28625,-3.25253,0,0,0,0,0,0,0,-1,1462,470,4.28622,3.25252
245,554,4.0752,-2.90033,0,0,0,0,0,0,0,-1,1469,470,4.07515,2.90032
252,554,3.52112,-0.934998,0,0,0,0,0,0,0,-1,1476,470,3.52113,0.934996
259,554,3.96448,-2.16425,0,0,0,0,0,0,0,-1,1483,470,3.96446,2.16424
266,554,3.0592,-2.71716,0,0,0,0,0,0,0,-1,1490,470,3.05923,2.71718
273,554,2.58521,-3.06876,0,0,0,0,0,0,0,-1,1497,470,2.58524,3.06874
280,554,2.83301,-0.991699,0,0,0,0,0,0,0,-1,1504,470,2.83303,0.991704
287,554,3.54126,-4.12277,0,0,0,0,0,0,0,-1,1511,470,3.54123,4.12277
294,554,3.62036,-8.50146,0,0,0,0,0,0,0,-1,1518,470,3.62031,8.50145
301,554,7.22363,-22.6284,0,0,0,0,0,0,0,-1,1525,470,7.22363,22.6285
308,554,7.21545,-22.6873,0,0,0,0,0,0,0,-1,1532,470,7.21541,22.6874
315,554,7.302,-22.63,0,0,0,0,0,0,0,-1,1539,470,7.30204,22.63
322,554,7.29993,-22.4208,0,0,0,0,0,0,0,-1,1546,470,7.2999,22.4208
329,554,7.3042,-21.714,-0.000347015,-0.0059308,-0.00489234,0.002494,-0.00877182,-0.526112,0.00683266,0.0401295,1553,470,7.30425,21.714
336,554,7.27209,-21.5527,-0.000558035,-0.00509642,-0.00441384,0.00213576,-0.00779021,-0.547963,0.00603276,0.0228951,1560,470,7.27215,21.5527
343,554,7.30164,-21.2576,-0.000867461,-0.00423244,-0.00394796,0.00174158,-0.00684147,-0.583969,0.00523891,0.0128365,1567,470,7.3016,21.2576
350,554,7.33386,-20.8801,-0.000920139,-0.00345118,-0.00337854,0.00142212,-0.00579343,-0.606199,0.00441338,0.00900914,1574,470,7.33384,20.8801
357,554,7.34192,-20.5161,-0.000794322,-0.00254256,-0.00272868,0.00119683,-0.00453372,-0.63039,0.0034905,0.0103731,1581,470,7.34195,20.5161
364,554,7.33093,-20.1844,-0.000698131,-0.00176996,-0.0020835,0.000917277,-0.00338536,-0.659518,0.00261682,0.00890931,1588,470,7.33098,20.1844
371,554,7.31873,-19.8214,-0.00060161,-0.00108557,-0.00146171,0.000638018,-0.0023252,-0.703369,0.00180088,0.00858082,1595,470,7.3187,19.8214
378,554,7.31201,-19.4117,-0.000488982,-0.000378319,-0.000906731,0.000474767,-0.00134207,-0.815872,0.00108806,0.00963411,1602,470,7.31199,19.4117
385,554,7.31799,-19.0298,-0.000401599,0.000452339,-0.000421744,0.000625513,-0.000574773,-1.18118,0.000693191,0.00921052,1609,470,7.31797,19.0298
392,554,7.30481,-18.6473,-0.000390932,0.00100819,-2.68528e-05,0.00100871,-0.000391448,-1.55161,0.000834152,0.0130179,1616,470,7.30476,18.6473
399,554,7.30737,-18.2443,-0.000437164,0.0016318,0.000387154,0.00170188,-0.000507236,1.39174,0.00133615,0.018819,1623,470,7.30741,18.2443
406,554,7.29773,-17.8876,-0.000563243,0.00262044,0.000745173,0.00278622,-0.000729025,1.35189,0.00214225,0.0167192,1630,470,7.29776,17.8876
413,554,7.28442,-17.4597,-0.000759493,0.00338902,0.00108302,0.00365474,-0.00102521,1.3302,0.00284058,0.0146644,1637,470,7.28437,17.4597
420,554,7.27344,-17.0475,-0.00115776,0.0040904,0.00148242,0.00448018,-0.00154754,1.31368,0.0036148,0.0160409,1644,470,7.27338,17.0475
427,554,7.26868,-16.6128,-0.00181158,0.00477645,0.00193121,0.00530082,-0.00233596,1.30566,0.0045185,0.0119372,1651,470,7.26864,16.6128
434,554,7.25378,-16.1986,-0.00236751,0.00555138,0.0023698,0.00620639,-0.00302251,1.30113,0.00543298,0.0105503,1658,470,7.25375,16.1986
441,554,7.25757,-15.7877,-0.00313805,0.00617984,0.00291971,0.00701912,-0.00397733,1.29089,0.00642926,0.0112792,1665,470,7.25759,15.7877
448,554,7.23657,-15.3234,-0.00423112,0.00675908,0.00343176,0.00774264,-0.00521469,1.29167,0.00752823,0.0143136,1672,470,7.23661,15.3234
455,554,7.18835,-14.896,-0.00532631,0.00696762,0.00400969,0.00815978,-0.00651847,1.2818,0.00849213,0.0162184,1679,470,7.18841,14.896
462,554,7.13171,-14.4693,-0.00655029,0.00676467,0.00470497,0.00825942,-0.00804504,1.26319,0.00941365,0.0195049,1686,470,7.13172,14.4693
469,554,7.07263,-14.0673,-0.00813114,0.00629328,0.005542,0.00817666,-0.0100145,1.2432,0.0105205,0.0234335,1693,470,7.07267,14.0673
476,554,6.78943,-13.3381,-0.0102451,0.00523669,0.00613831,0.00737508,-0.0123835,1.23558,0.0115291,0.0426765,1700,470,6.78948,13.3381
483,554,6.47046,-12.5862,0,0,0,0,0,0,0,-1,1707,470,6.47051,12.5862
490,554,7.31543,-3.51794,0,0,0,0,0,0,0,-1,1714,470,7.3154,3.51794
497,554,10.9613,1.60983,0,0,0,0,0,0,0,-1,1721,470,10.9613,-1.60982
504,554,2.13257,-3.81628,0,0,0,0,0,0,0,-1,1728,470,2.1326,3.8163
511,554,1.31396,-4.02713,0,0,0,0,0,0,0,-1,1735,470,1.31398,4.02712
518,554,5.04236,-5.9472,0,0,0,0,0,0,0,-1,1742,470,5.04231,5.94721
525,554,0,0,0,0,0,0,0,0,0,-1,1749,470,0,0
532,554,0,0,0,0,0,0,0,0,0,-1,1756,470,0,0
539,554,0,0,0,0,0,0,0,0,0,-1,1763,470,0,0
546,554,0,0,0,0,0,0,0,0,0,-1,1770,470,0,0
553,554,0,0,0,0,0,0,0,0,0,-1,1777,470,0,0
560,554,0,0,0,0,0,0,0,0,0,-1,1784,470,0,0
567,554,0,0,0,0,0,0,0,0,0,-1,1791,470,0,0
574,554,0,0,0,0,0,0,0,0,0,-1,1798,470,0,0
581,554,0,0,0,0,0,0,0,0,0,-1,1805,470,0,0
588,554,0,0,0,0,0,0,0,0,0,-1,1812,470,0,0
595,554,0,0,0,0,0,0,0,0,0,-1,1819,470,0,0
602,554,0,0,0,0,0,0,0,0,0,-1,1826,470,0,0
609,554,0,0,0,0,0,0,0,0,0,-1,1833,470,0,0
616,554,0,0,0,0,0,0,0,0,0,-1,1840,470,0,0
623,554,0,0,0,0,0,0,0,0,0,-1,1847,470,0,0
630,554,0,0,0,0,0,0,0,0,0,-1,1854,470,0,0
637,554,0,0,0,0,0,0,0,0,0,-1,1861,470,0,0
644,554,0,0,0,0,0,0,0,0,0,-1,1868,470,0,0
651,554,0,0,0,0,0,0,0,0,0,-1,1875,470,0,0
658,554,0,0,0,0,0,0,0,0,0,-1,1882,470,0,0
665,554,0,0,0,0,0,0,0,0,0,-1,1889,470,0,0
672,554,0,0,0,0,0,0,0,0,0,-1,1896,470,0,0
679,554,0,0,0,0,0,0,0,0,0,-1,1903,470,0,0
686,554,0,0,0,0,0,0,0,0,0,-1,1910,470,0,0
693,554,0,0,0,0,0,0,0,0,0,-1,1917,470,0,0
700,554,0,0,0,0,0,0,0,0,0,-1,1924,470,0,0
707,554,0,0,0,0,0,0,0,0,0,-1,1931,470,0,0
714,554,0,0,0,0,0,0,0,0,0,-1,1938,470,0,0
721,554,0,0,0,0,0,0,0,0,0,-1,1945,470,0,0
728,554,0,0,0,0,0,0,0,0,0,-1,1952,470,0,0
735,554,0,0,0,0,0,0,0,0,0,-1,1959,470,0,0
742,554,0,0,0,0,0,0,0,0,0,-1,1966,470,0,0
749,554,0,0,0,0,0,0,0,0,0,-1,1973,470,0,0
756,554,0,0,0,0,0,0,0,0,0,-1,1980,470,0,0
763,554,0,0,0,0,0,0,0,0,0,-1,1987,470,0,0
770,554,0,0,0,0,0,0,0,0,0,-1,1994,470,0,0
777,554,0,0,0,0,0,0,0,0,0,-1,2001,470,0,0
784,554,0,0,0,0,0,0,0,0,0,-1,2008,470,0,0
791,554,0,0,0,0,0,0,0,0,0,-1,2015,470,0,0
798,554,0,0,0,0,0,0,0,0,0,-1,2022,470,0,0
805,554,0,0,0,0,0,0,0,0,0,-1,2029,470,0,0
812,554,0,0,0,0,0,0,0,0,0,-1,2036,470,0,0
-700,547,0,0,0,0,0,0,0,0,0,-1,524,477,0,0
-693,547,0,0,0,0,0,0,0,0,0,-1,531,477,0,0
-686,547,0,0,0,0,0,0,0,0,0,-1,538,477,0,0
-679,547,0,0,0,0,0,0,0,0,0,-1,545,477,0,0
-672,547,0,0,0,0,0,0,0,0,0,-1,552,477,0,0
-665,547,0,0,0,0,0,0,0,0,0,-1,559,477,0,0
-658,547,0,0,0,0,0,0,0,0,0,-1,566,477,0,0
-651,547,0,0,0,0,0,0,0,0,0,-1,573,477,0,0
-644,547,0,0,0,0,0,0,0,0,0,-1,580,477,0,0
-637,547,0,0,0,0,0,0,0,0,0,-1,587,477,0,0
-630,547,0,0,0,0,0,0,0,0,0,-1,594,477,0,0
-623,547,0,0,0,0,0,0,0,0,0,-1,601,477,0,0
-616,547,0,0,0,0,0,0,0,0,0,-1,608,477,0,0
-609,547,0,0,0,0,0,0,0,0,0,-1,615,477,0,0
-602,547,0,0,0,0,0,0,0,0,0,-1,622,477,0,0
-595,547,0,0,0,0,0,0,0,0,0,-1,629,477,0,0
-588,547,0,0,0,0,0,0,0,0,0,-1,636,477,0,0
-581,547,0,0,0,0,0,0,0,0,0,-1,643,477,0,0
-574,547,0,0,0,0,0,0,0,0,0,-1,650,477,0,0
-567,547,0,0,0,0,0,0,0,0,0,-1,657,477,0,0
-560,547,0,0,0,0,0,0,0,0,0,-1,664,477,0,0
-553,547,0,0,0,0,0,0,0,0,0,-1,671,477,0,0
-546,547,0,0,0,0,0,0,0,0,0,-1,678,477,0,0
-539,547,0,0,0,0,0,0,0,0,0,-1,685,477,0,0
-532,547,0,0,0,0,0,0,0,0,0,-1,692,477,0,0
-525,547,0,0,0,0,0,0,0,0,0,-1,699,477,0,0
-518,547,0,0,0,0,0,0,0,0,0,-1,706,477,0,0
-511,547,0,0,0,0,0,0,0,0,0,-1,713,477,0,0
-504,547,0,0,0,0,0,0,0,0,0,-1,720,477,0,0
-497,547,0,0,0,0,0,0,0,0,0,-1,727,477,0,0
-490,547,0,0,0,0,0,0,0,0,0,-1,734,477,0,0
-483,547,0,0,0,0,0,0,0,0,0,-1,741,477,0,0
-476,547,0,0,0,0,0,0,0,0,0,-1,748,477,0,0
-469,547,0,0,0,0,0,0,0,0,0,-1,755,477,0,0
-462,547,0,0,0,0,0,0,0,0,0,-1,762,477,0,0
-455,547,0,0,0,0,0,0,0,0,0,-1,769,477,0,0
-448,547,0,0,0,0,0,0,0,0,0,-1,776,477,0,0
-441,547,0,0,0,0,0,0,0,0,0,-1,783,477,0,0
-434,547,0,0,0,0,0,0,0,0,0,-1,790,477,0,0
-427,547,0,0,0,0,0,0,0,0,0,-1,797,477,0,0
-420,547,0,0,0,0,0,0,0,0,0,-1,804,477,0,0
-413,547,0,0,0,0,0,0,0,0,0,-1,811,477,0,0
-406,547,0.283997,-9.36887,0,0,0,0,0,0,0,-1,818,477,0.284005,9.36887
-399,547,0.116211,-9.90964,0,0,0,0,0,0,0,-1,825,477,0.116184,9.90965
-392,547,-1.52271,-4.41675,0,0,0,0,0,0,0,-1,832,477,-1.52273,4.41674
-385,547,-1.73743,-4.6431,0,0,0,0,0,0,0,-1,839,477,-1.73743,4.64308
-378,547,-2.41339,-4.60071,0,0,0,0,0,0,0,-1,846,477,-2.41337,4.60071
-371,547,1.64569,-11.1445,0,0,0,0,0,0,0,-1,853,477,1.64569,11.1445
-364,547,0.271729,-4.58582,0,0,0,0,0,0,0,-1,860,477,0.271753,4.5858
-357,547,0.703125,-14.3722,0,0,0,0,0,0,0,-1,867,477,0.703108,14.3722
-350,547,0.863953,-14.502,0,0,0,0,0,0,0,-1,874,477,0.86397,14.502
-343,547,0.598938,-15.2052,-0.00134647,0.0101844,-0.00718392,0.0136303,-0.00479238,-1.12355,0.0110368,0.0437035,881,477,0.598944,15.2052
-336,547,0.687317,-15.7808,-0.00117884,0.00954702,-0.00663943,0.0127189,-0.00435073,-1.12512,0.0102423,0.0176096,888,477,0.687305,15.7807
-329,547,0.653992,-16.2148,-0.00109409,0.0086533,-0.00596115,0.0114795,-0.00392028,-1.12808,0.00924122,0.0102715,895,477,0.654011,16.2148
-322,547,0.637207,-16.6453,-0.000983433,0.00773361,-0.00526767,0.0102121,-0.00346194,-1.13101,0.00820911,0.0104272,902,477,0.637185,16.6453
-315,547,0.624512,-17.074,-0.000768067,0.0068785,-0.00455794,0.00900436,-0.00289393,-1.13438,0.00716508,0.00983186,909,477,0.624521,17.074
-308,547,0.60437,-17.4717,-0.00048697,0.00601756,-0.0038922,0.00783742,-0.00230683,-1.13343,0.00614007,0.0116445,916,477,0.604386,17.4717
-301,547,0.602356,-17.8654,-0.000261478,0.00481367,-0.00305387,0.00624667,-0.00169447,-1.13206,0.00482939,0.0122212,923,477,0.60234,17.8653
-294,547,0.574219,-18.2507,-4.91611e-05,0.00342294,-0.00210468,0.00441518,-0.0010414,-1.13025,0.00334506,0.0108371,930,477,0.574217,18.2507
-287,547,0.556396,-18.6086,0.000158425,0.00215858,-0.00120145,0.00272172,-0.000404714,-1.13249,0.00196334,0.011774,937,477,0.556404,18.6086
-280,547,0.560181,-18.9857,0.000277699,0.000779007,-0.000481369,0.00107107,-1.43652e-05,-1.02544,0.000718884,0.0125956,944,477,0.560198,18.9857
-273,547,0.533203,-19.3641,0.000332224,-0.000808718,0.000278629,0.000396631,-0.000873126,0.22717,0.000750104,0.0124072,951,477,0.533214,19.3641
-266,547,0.517273,-19.7376,0.000546431,-0.00260301,0.00103396,0.000855539,-0.00291212,0.290499,0.00228072,0.012441,958,477,0.517263,19.7376
-259,547,0.522705,-20.0859,0.000826607,-0.00464211,0.00177474,0.00135207,-0.00516757,0.287855,0.00397317,0.0111,965,477,0.522715,20.0859
-252,547,0.533203,-20.4319,0.000655203,-0.0069205,0.00267296,0.00150336,-0.00776865,0.30726,0.00574615,0.0108195,972,477,0.533232,20.4319
-245,547,0.53949,-20.7847,0.000442169,-0.00944154,0.00364051,0.00163833,-0.0106377,0.317457,0.00769625,0.0124041,979,477,0.539467,20.7847
-238,547,0.550903,-21.1606,0.000225492,-0.0120044,0.00484533,0.00191246,-0.0136913,0.335038,0.00982726,0.00871457,986,477,0.550879,21.1606
-231,547,0.549927,-21.5096,-3.39903e-05,-0.0146228,0.00600924,0.00212249,-0.0167793,0.344547,0.0119567,0.00832908,993,477,0.549916,21.5095
-224,547,0.548218,-21.825,-0.000501423,-0.0172792,0.00739667,0.00229379,-0.0200744,0.361312,0.0142094,0.011572,1000,477,0.548212,21.825
-217,547,0.565491,-22.1465,-0.00113056,-0.0196481,0.00897646,0.00250646,-0.0232852,0.384959,0.0164228,0.0184249,1007,477,0.565503,22.1466
-210,547,0.633606,-22.3251,-0.00179902,-0.0219463,0.0105889,0.00274254,-0.0264879,0.405166,0.0186401,0.033419,1014,477,0.633598,22.3251
-203,547,0.516479,-22.2864,-0.00242613,-0.0233588,0.0119885,0.00302197,-0.0288069,0.426542,0.0202871,0.0446555,1021,477,0.51647,22.2864
-196,547,0.200317,-22.6349,-0.00321959,-0.0240363,0.0132201,0.00319776,-0.0304536,0.451919,0.021448,0.0466542,1028,477,0.200364,22.6349
-189,547,0.0327148,-22.9472,-0.00434195,-0.0237547,0.0144339,0.00334565,-0.0314423,0.489393,0.0221611,0.0494566,1035,477,0.0327634,22.9472
-182,547,-0.0454102,-23.1846,0,0,0,0,0,0,0,-1,1042,477,-0.0454543,23.1846
-175,547,-0.350098,-12.3584,0,0,0,0,0,0,0,-1,1049,477,-0.350098,12.3584
-168,547,1.12463,-8.66785,0,0,0,0,0,0,0,-1,1056,477,1.12461,8.66786
-161,547,1.78125,-21.8799,0,0,0,0,0,0,0,-1,1063,477,1.78127,21.8799
-154,547,1.79163,-22.1116,0,0,0,0,0,0,0,-1,1070,477,1.79164,22.1116
-147,547,2.70825,-23.9181,0,0,0,0,0,0,0,-1,1077,477,2.70826,23.9181
-140,547,1.55676,-22.5229,0,0,0,0,0,0,0,-1,1084,477,1.5568,22.5229
-133,547,2.31665,-17.9421,0,0,0,0,0,0,0,-1,1091,477,2.31667,17.9421
-126,547,0.784302,-9.76431,0,0,0,0,0,0,0,-1,1098,477,0.78428,9.76432
-119,547,0.190308,-15.7633,0,0,0,0,0,0,0,-1,1105,477,0.190348,15.7633
-112,547,4.36194,-9.23029,0,0,0,0,0,0,0,-1,1112,477,4.36195,9.23029
-105,547,4.448,-9.17819,0,0,0,0,0,0,0,-1,1119,477,4.44799,9.1782
-98,547,1.50391,-7.20621,0,0,0,0,0,0,0,-1,1126,477,1.50395,7.20621
-91,547,1.37805,-7.12024,0,0,0,0,0,0,0,-1,1133,477,1.37804,7.12025
-84,547,1.94202,-6.66241,0,0,0,0,0,0,0,-1,1140,477,1.94201,6.66241
-77,547,-2.28357,1.8588,0,0,0,0,0,0,0,-1,1147,477,-2.28356,-1.85879
-70,547,-3.70178,-0.874908,0,0,0,0,0,0,0,-1,1154,477,-3.70182,0.874918
-63,547,-5.12012,-3.60861,0,0,0,0,0,0,0,-1,1161,477,-5.12009,3.60862
-56,547,-6.01917,-6.2399,0,0,0,0,0,0,0,-1,1168,477,-6.01921,6.23991
-49,547,-6.729,-8.60349,0,0,0,0,0,0,0,-1,1175,477,-6.72899,8.60348
-42,547,-2.41736,-5.53012,0,0,0,0,0,0,0,-1,1182,477,-2.41734,5.53011
-35,547,-2.96838,-4.45734,0,0,0,0,0,0,0,-1,1189,477,-2.96839,4.45734
-28,547,-0.869141,-1.29901,0,0,0,0,0,0,0,-1,1196,477,-0.869135,1.29901
-21,547,-1.03882,-31.3449,0,0,0,0,0,0,0,-1,1203,477,-1.03885,31.3449
-14,547,-0.255859,-30.8377,0,0,0,0,0,0,0,-1,1210,477,-0.255883,30.8377
-7,547,3.01953,-26.8835,0,0,0,0,0,0,0,-1,1217,477,3.01958,26.8834
0,547,1.19202,-23.2364,0,0,0,0,0,0,0,-1,1224,477,1.19206,23.2364
7,547,1.02905,-23.2657,0,0,0,0,0,0,0,-1,1231,477,1.02904,23.2657
14,547,0,0,0,0,0,0,0,0,0,-1,1238,477,0,0
21,547,0,0,0,0,0,0,0,0,0,-1,1245,477,0,0
28,547,0,0,0,0,0,0,0,0,0,-1,1252,477,0,0
35,547,0,0,0,0,0,0,0,0,0,-1,1259,477,0,0
42,547,0,0,0,0,0,0,0,0,0,-1,1266,477,0,0
49,547,0,0,0,0,0,0,0,0,0,-1,1273,477,0,0
56,547,0,0,0,0,0,0,0,0,0,-1,1280,477,0,0
63,547,0,0,0,0,0,0,0,0,0,-1,1287,477,0,0
70,547,0,0,0,0,0,0,0,0,0,-1,1294,477,0,0
77,547,0,0,0,0,0,0,0,0,0,-1,1301,477,0,0
84,547,0,0,0,0,0,0,0,0,0,-1,1308,477,0,0
91,547,0,0,0,0,0,0,0,0,0,-1,1315,477,0,0
98,547,0,0,0,0,0,0,0,0,0,-1,1322,477,0,0
105,547,4.18933,-29.3983,0,0,0,0,0,0,0,-1,1329,477,4.18932,29.3983
112,547,7.67798,-23.4053,0,0,0,0,0,0,0,-1,1336,477,7.67802,23.4053
119,547,8.5708,-23.7494,0.0874309,-0.0389442,-0.000147042,0.0874311,-0.0389443,-0.00116354,0.0747315,0.0426331,1343,477,8.5708,23.7494
126,547,8.84827,-23.3877,0.092266,-0.0188214,-0.00466703,0.0924617,-0.0190171,-0.0419138,0.0688611,0.0421454,1350,477,8.84821,23.3877
133,547,9.47607,-22.9369,0.0995907,0.00447479,-0.0081284,0.10028,0.00378516,-0.0846399,0.0656283,0.0448886,1357,477,9.47612,22.9369
140,547,10.244,-21.8225,0,0,0,0,0,0,0,-1,1364,477,10.244,21.8225
147,547,11.2577,-21.0706,0,0,0,0,0,0,0,-1,1371,477,11.2577,21.0705
154,547,12.9296,-20.8383,0,0,0,0,0,0,0,-1,1378,477,12.9296,20.8383
161,547,14.6083,-20.4047,0,0,0,0,0,0,0,-1,1385,477,14.6082,20.4047
168,547,1.40015,-21.6681,0,0,0,0,0,0,0,-1,1392,477,1.40015,21.6681
175,547,3.35034,-0.26532,0,0,0,0,0,0,0,-1,1399,477,3.3503,0.265306
182,547,4.26038,3.72672,0,0,0,0,0,0,0,-1,1406,477,4.26039,-3.7267
189,547,3.40454,1.28671,0,0,0,0,0,0,0,-1,1413,477,3.40457,-1.28673
196,547,3.53931,1.87793,0,0,0,0,0,0,0,-1,1420,477,3.53928,-1.87794
203,547,6.49414,-0.425842,0,0,0,0,0,0,0,-1,1427,477,6.4941,0.425844
210,547,4.82092,0.53595,0,0,0,0,0,0,0,-1,1434,477,4.82096,-0.535942
217,547,4.68579,0.480072,0,0,0,0,0,0,0,-1,1441,477,4.68577,-0.480069
224,547,4.55615,0.739807,0,0,0,0,0,0,0,-1,1448,477,4.55613,-0.73981
231,547,5.90869,-3.57721,0,0,0,0,0,0,0,-1,1455,477,5.90871,3.57722
238,547,5.50049,-3.15356,0,0,0,0,0,0,0,-1,1462,477,5.50045,3.15356
245,547,5.13708,-2.65213,0,0,0,0,0,0,0,-1,1469,477,5.13708,2.65212
252,547,3.73511,-0.645233,0,0,0,0,0,0,0,-1,1476,477,3.73515,0.645237
259,547,5.86816,-3.20816,0,0,0,0,0,0,0,-1,1483,477,5.86815,3.20816
266,547,5.40222,-2.45731,0,0,0,0,0,0,0,-1,1490,477,5.40221,2.45732
273,547,3.05737,0.495789,0,0,0,0,0,0,0,-1,1497,477,3.05742,-0.49578
280,547,2.0885,1.47797,0,0,0,0,0,0,0,-1,1504,477,2.08848,-1.47795
287,547,2.31177,-2.21716,0,0,0,0,0,0,0,-1,1511,477,2.31174,2.21717
294,547,2.4823,-3.03659,0,0,0,0,0,0,0,-1,1518,477,2.48229,3.0366
301,547,4.72119,-3.93454,0,0,0,0,0,0,0,-1,1525,477,4.72119,3.93453
308,547,4.07471,-5.42175,0,0,0,0,0,0,0,-1,1532,477,4.07468,5.42174
315,547,3.58496,-6.62112,0,0,0,0,0,0,0,-1,1539,477,3.58497,6.62113
322,547,5.73926,-14.1878,0,0,0,0,0,0,0,-1,1546,477,5.73926,14.1878
329,547,7.56104,-21.6219,0,0,0,0,0,0,0,-1,1553,477,7.56106,21.6219
336,547,7.61926,-21.6978,0,0,0,0,0,0,0,-1,1560,477,7.61924,21.6978
343,547,7.82092,-21.3333,-0.00184775,-0.00580132,-0.00543134,0.00195536,-0.00960443,-0.61087,0.00714449,0.0398618,1567,477,7.82087,21.3333
350,547,7.73083,-20.8976,-0.00177459,-0.00490821,-0.00473516,0.00164625,-0.00832905,-0.625624,0.00617503,0.0239177,1574,477,7.73078,20.8976
357,547,7.71436,-20.5273,-0.00144873,-0.00387332,-0.00393859,0.00145991,-0.00678197,-0.6361,0.00507839,0.0140777,1581,477,7.71433,20.5273
364,547,7.69617,-20.1734,-0.00116275,-0.00301108,-0.00313138,0.00117799,-0.00535183,-0.641906,0.00401852,0.00969456,1588,477,7.69613,20.1734
371,547,7.68848,-19.7945,-0.000893822,-0.0022264,-0.00236657,0.000898463,-0.00401869,-0.648179,0.00302344,0.00913786,1595,477,7.68843,19.7945
378,547,7.68787,-19.418,-0.000589841,-0.00139314,-0.00165799,0.000714456,-0.00269744,-0.666562,0.0020778,0.0102851,1602,477,7.68792,19.418
385,547,7.69226,-19.0338,-0.000300191,-0.000408789,-0.000984584,0.00063159,-0.00134057,-0.757851,0.00116289,0.0104379,1609,477,7.69232,19.0338
392,547,7.67188,-18.6462,-0.000137775,0.000231919,-0.000478767,0.000560284,-0.00046614,-0.969627,0.000593436,0.0110406,1616,477,7.67193,18.6462
399,547,7.66699,-18.2527,-5.29091e-05,0.000797677,-1.42611e-05,0.000797916,-5.31482e-05,-1.55404,0.000550516,0.0137212,1623,477,7.66698,18.2526
406,547,7.70007,-17.8437,-6.84196e-05,0.00159799,0.000371672,0.00167713,-0.000147558,1.361,0.00117038,0.0135785,1630,477,7.70013,17.8437
413,547,7.70178,-17.4348,-0.000146011,0.00233704,0.000760913,0.00255167,-0.000360635,1.29588,0.00183319,0.012465,1637,477,7.70176,17.4347
420,547,7.69861,-17.0478,-0.000397646,0.00297397,0.00116373,0.00333663,-0.000760304,1.2687,0.00251643,0.0147087,1644,477,7.69858,17.0478
427,547,7.6925,-16.6077,-0.00091155,0.00355833,0.00153231,0.00403317,-0.00138639,1.27029,0.00325099,0.0150474,1651,477,7.69248,16.6077
434,547,7.64734,-16.2014,-0.0013877,0.00414908,0.00187287,0.00472309,-0.00196171,1.2734,0.00396771,0.0104661,1658,477,7.64732,16.2015
441,547,7.6322,-15.8197,-0.00203779,0.00458938,0.00230785,0.00531387,-0.00276227,1.26662,0.0047397,0.0109052,1665,477,7.63219,15.8197
448,547,7.61157,-15.3676,-0.00293694,0.00494707,0.00268638,0.0057754,-0.00376526,1.2717,0.00554891,0.011418,1672,477,7.61157,15.3676
455,547,7.60168,-14.9348,-0.00380929,0.00502873,0.00311323,0.00601526,-0.00479582,1.26392,0.006255,0.0111272,1679,477,7.60165,14.9348
462,547,7.5603,-14.4874,-0.00476189,0.00471642,0.0036362,0.00595066,-0.00599614,1.24357,0.00689751,0.0106989,1686,477,7.56024,14.4874
469,547,7.51563,-14.0216,-0.00600985,0.00423129,0.00427276,0.00577981,-0.00755837,1.2231,0.00772359,0.016896,1693,477,7.51559,14.0216
476,547,7.48792,-13.4855,-0.00769301,0.00327906,0.00468001,0.00500406,-0.00941802,1.21766,0.00845558,0.03352,1700,477,7.48794,13.4855
483,547,7.49329,-12.9145,0,0,0,0,0,0,0,-1,1707,477,7.49332,12.9145
490,547,3.65271,-3.71707,0,0,0,0,0,0,0,-1,1714,477,3.65277,3.71708
497,547,2.55481,-3.81421,0,0,0,0,0,0,0,-1,1721,477,2.55476,3.8142
504,547,4.01953,-2.22714,0,0,0,0,0,0,0,-1,1728,477,4.0195,2.22713
511,547,5.2146,-6.9552,0,0,0,0,0,0,0,-1,1735,477,5.21464,6.95521
518,547,5.24243,-6.56122,0,0,0,0,0,0,0,-1,1742,477,5.24241,6.56121
525,547,5.7533,-5.33215,0,0,0,0,0,0,0,-1,1749,477,5.75329,5.33215
532,547,0,0,0,0,0,0,0,0,0,-1,1756,477,0,0
539,547,0,0,0,0,0,0,0,0,0,-1,1763,477,0,0
546,547,0,0,0,0,0,0,0,0,0,-1,1770,477,0,0
553,547,0,0,0,0,0,0,0,0,0,-1,1777,477,0,0
560,547,0,0,0,0,0,0,0,0,0,-1,1784,477,0,0
567,547,0,0,0,0,0,0,0,0,0,-1,1791,477,0,0
574,547,0,0,0,0,0,0,0,0,0,-1,1798,477,0,0
581,547,0,0,0,0,0,0,0,0,0,-1,1805,477,0,0
588,547,0,0,0,0,0,0,0,0,0,-1,1812,477,0,0
595,547,0,0,0,0,0,0,0,0,0,-1,1819,477,0,0
602,547,0,0,0,0,0,0,0,0,0,-1,1826,477,0,0
609,547,0,0,0,0,0,0,0,0,0,-1,1833,477,0,0
616,547,0,0,0,0,0,0,0,0,0,-1,1840,477,0,0
623,547,0,0,0,0,0,0,0,0,0,-1,1847,477,0,0
630,547,0,0,0,0,0,0,0,0,0,-1,1854,477,0,0
637,547,0,0,0,0,0,0,0,0,0,-1,1861,477,0,0
644,547,0,0,0,0,0,0,0,0,0,-1,1868,477,0,0
651,547,0,0,0,0,0,0,0,0,0,-1,1875,477,0,0
658,547,0,0,0,0,0,0,0,0,0,-1,1882,477,0,0
665,547,0,0,0,0,0,0,0,0,0,-1,1889,477,0,0
672,547,0,0,0,0,0,0,0,0,0,-1,1896,477,0,0
679,547,0,0,0,0,0,0,0,0,0,-1,1903,477,0,0
686,547,0,0,0,0,0,0,0,0,0,-1,1910,477,0,0
693,547,0,0,0,0,0,0,0,0,0,-1,1917,477,0,0
700,547,0,0,0,0,0,0,0,0,0,-1,1924,477,0,0
707,547,0,0,0,0,0,0,0,0,0,-1,1931,477,0,0
714,547,0,0,0,0,0,0,0,0,0,-1,1938,477,0,0
721,547,0,0,0,0,0,0,0,0,0,-1,1945,477,0,0
728,547,0,0,0,0,0,0,0,0,0,-1,1952,477,0,0
735,547,0,0,0,0,0,0,0,0,0,-1,1959,477,0,0
742,547,0,0,0,0,0,0,0,0,0,-1,1966,477,0,0
749,547,0,0,0,0,0,0,0,0,0,-1,1973,477,0,0
756,547,0,0,0,0,0,0,0,0,0,-1,1980,477,0,0
763,547,0,0,0,0,0,0,0,0,0,-1,1987,477,0,0
770,547,0,0,0,0,0,0,0,0,0,-1,1994,477,0,0
777,547,0,0,0,0,0,0,0,0,0,-1,2001,477,0,0
784,547,0,0,0,0,0,0,0,0,0,-1,2008,477,0,0
791,547,0,0,0,0,0,0,0,0,0,-1,2015,477,0,0
798,547,0,0,0,0,0,0,0,0,0,-1,2022,477,0,0
805,547,0,0,0,0,0,0,0,0,0,-1,2029,477,0,0
812,547,0,0,0,0,0,0,0,0,0,-1,2036,477,0,0
-700,540,0,0,0,0,0,0,0,0,0,-1,524,484,0,0
-693,540,0,0,0,0,0,0,0,0,0,-1,531,484,0,0
-686,540,0,0,0,0,0,0,0,0,0,-1,538,484,0,0
-679,540,0,0,0,0,0,0,0,0,0,-1,545,484,0,0
-672,540,0,0,0,0,0,0,0,0,0,-1,552,484,0,0
-665,540,0,0,0,0,0,0,0,0,0,-1,559,484,0,0
-658,540,0,0,0,0,0,0,0,0,0,-1,566,484,0,0
-651,540,0,0,0,0,0,0,0,0,0,-1,573,484,0,0
-644,540,0,0,0,0,0,0,0,0,0,-1,580,484,0,0
-637,540,0,0,0,0,0,0,0,0,0,-1,587,484,0,0
-630,540,0,0,0,0,0,0,0,0,0,-1,594,484,0,0
-623,540,0,0,0,0,0,0,0,0,0,-1,601,484,0,0
-616,540,0,0,0,0,0,0,0,0,0,-1,608,484,0,0
-609,540,0,0,0,0,0,0,0,0,0,-1,615,484,0,0
-602,540,0,0,0,0,0,0,0,0,0,-1,622,484,0,0
-595,540,0,0,0,0,0,0,0,0,0,-1,629,484,0,0
-588,540,0,0,0,0,0,0,0,0,0,-1,636,484,0,0
-581,540,0,0,0,0,0,0,0,0,0,-1,643,484,0,0
-574,540,0,0,0,0,0,0,0,0,0,-1,650,484,0,0
-567,540,0,0,0,0,0,0,0,0,0,-1,657,484,0,0
-560,540,0,0,0,0,0,0,0,0,0,-1,664,484,0,0
-553,540,0,0,0,0,0,0,0,0,0,-1,671,484,0,0
-546,540,0,0,0,0,0,0,0,0,0,-1,678,484,0,0
-539,540,0,0,0,0,0,0,0,0,0,-1,685,484,0,0
-532,540,0,0,0,0,0,0,0,0,0,-1,692,484,0,0
-525,540,0,0,0,0,0,0,0,0,0,-1,699,484,0,0
-518,540,0,0,0,0,0,0,0,0,0,-1,706,484,0,0
-511,540,0,0,0,0,0,0,0,0,0,-1,713,484,0,0
-504,540,0,0,0,0,0,0,0,0,0,-1,720,484,0,0
-497,540,0,0,0,0,0,0,0,0,0,-1,727,484,0,0
-490,540,0,0,0,0,0,0,0,0,0,-1,734,484,0,0
-483,540,0,0,0,0,0,0,0,0,0,-1,741,484,0,0
-476,540,0,0,0,0,0,0,0,0,0,-1,748,484,0,0
-469,540,0,0,0,0,0,0,0,0,0,-1,755,484,0,0
-462,540,0,0,0,0,0,0,0,0,0,-1,762,484,0,0
-455,540,0,0,0,0,0,0,0,0,0,-1,769,484,0,0
-448,540,0,0,0,0,0,0,0,0,0,-1,776,484,0,0
-441,540,0,0,0,0,0,0,0,0,0,-1,783,484,0,0
-434,540,0,0,0,0,0,0,0,0,0,-1,790,484,0,0
-427,540,0,0,0,0,0,0,0,0,0,-1,797,484,0,0
-420,540,0.317627,-9.84128,0,0,0,0,0,0,0,-1,804,484,0.317652,9.84126
-413,540,0.314819,-9.75577,0,0,0,0,0,0,0,-1,811,484,0.314794,9.75576
-406,540,-0.755432,-8.44656,0,0,0,0,0,0,0,-1,818,484,-0.755457,8.44655
-399,540,-0.314209,-10.2027,0,0,0,0,0,0,0,-1,825,484,-0.314238,10.2027
-392,540,-0.517395,-10.6735,0,0,0,0,0,0,0,-1,832,484,-0.517377,10.6735
-385,540,-2.29407,-5.03418,0,0,0,0,0,0,0,-1,839,484,-2.29408,5.03418
-378,540,1.06445,-10.5824,0,0,0,0,0,0,0,-1,846,484,1.06446,10.5824
-371,540,1.14825,-10.7452,0,0,0,0,0,0,0,-1,853,484,1.14827,10.7452
-364,540,0.567017,-14.6083,0,0,0,0,0,0,0,-1,860,484,0.567017,14.6083
-357,540,0.432373,-14.1932,0,0,0,0,0,0,0,-1,867,484,0.432398,14.1932
-350,540,0.383728,-14.7211,-0.000527367,0.00840474,-0.00613285,0.0115254,-0.00364798,-1.10011,0.00914539,0.0353707,874,484,0.383744,14.7211
-343,540,0.317749,-15.3232,-0.000757362,0.0074091,-0.00526223,0.00998649,-0.00333475,-1.11535,0.00800425,0.0180255,881,484,0.317729,15.3233
-336,540,0.276672,-15.8401,-0.000648177,0.00685515,-0.00478395,0.00918305,-0.00297608,-1.11792,0.00731862,0.0116746,888,484,0.27669,15.8401
-329,540,0.246521,-16.2397,-0.000594436,0.00612711,-0.00421708,0.00815879,-0.00262612,-1.12184,0.00649404,0.00976879,895,484,0.246543,16.2397
-322,540,0.236694,-16.6559,-0.000490116,0.00541516,-0.00372936,0.00721922,-0.00229418,-1.12024,0.00573266,0.0139191,902,484,0.236704,16.6559
-315,540,0.223755,-17.0683,-0.000295409,0.00476036,-0.00322276,0.00632837,-0.00186342,-1.11797,0.00495818,0.0130019,909,484,0.223784,17.0683
-308,540,0.213989,-17.4597,-4.59368e-05,0.00408149,-0.00272445,0.00543561,-0.00140005,-1.10953,0.00416952,0.0127041,916,484,0.213996,17.4597
-301,540,0.187561,-17.832,0.00014308,0.00305811,-0.00203346,0.00410245,-0.000901263,-1.09634,0.00307967,0.0130567,923,484,0.187533,17.832
-294,540,0.1875,-18.2169,0.00031938,0.0017749,-0.0011875,0.00243991,-0.000345626,-1.0603,0.00175321,0.0118835,930,484,0.187483,18.2169
-287,540,0.200745,-18.6116,0.000529167,0.000605347,-0.000378379,0.000947549,0.000186965,-0.835562,0.000579519,0.00822456,937,484,0.200739,18.6116
-280,540,0.181458,-18.982,0.000607159,-0.00078119,0.000304283,0.00067092,-0.000844951,0.206557,0.000877109,0.00902238,944,484,0.181449,18.982
-273,540,0.17627,-19.3562,0.00060086,-0.002487,0.00111617,0.000962069,-0.00284821,0.312978,0.00228794,0.0115099,951,484,0.17626,19.3562
-266,540,0.179504,-19.7433,0.000835294,-0.00442432,0.00197703,0.00149555,-0.00508458,0.322318,0.00398296,0.0127511,958,484,0.179533,19.7433
-259,540,0.18512,-20.1249,0.00107273,-0.00678353,0.00282874,0.00198526,-0.00769606,0.312052,0.00590477,0.0121029,965,484,0.185121,20.125
-252,540,0.200073,-20.4367,0.000766381,-0.00949574,0.00389783,0.00207899,-0.0108083,0.324825,0.00798924,0.0118689,972,484,0.2001,20.4367
-245,540,0.206665,-20.7761,0.000475072,-0.0125957,0.00511188,0.00223683,-0.0143575,0.331891,0.0103978,0.0127413,979,484,0.206681,20.7761
-238,540,0.199036,-21.1302,0.000193901,-0.0157728,0.00661635,0.00257926,-0.0181581,0.34602,0.0130504,0.0104416,986,484,0.199017,21.1302
-231,540,0.223999,-21.4567,-0.000157915,-0.0191246,0.00809305,0.00282594,-0.0221085,0.353231,0.0157656,0.0139817,993,484,0.224016,21.4567
-224,540,0.183472,-21.7668,-0.00081282,-0.0226167,0.00985852,0.00298363,-0.0264132,0.36759,0.0186829,0.022699,1000,484,0.183461,21.7669
-217,540,0.169922,-21.8288,-0.0016216,-0.0257738,0.0117573,0.00315659,-0.030552,0.386012,0.0214976,0.0350139,1007,484,0.169905,21.8288
-210,540,0.283081,-21.9503,-0.00253162,-0.0288198,0.0137147,0.00332062,-0.034672,0.40332,0.0242973,0.0430538,1014,484,0.283064,21.9504
-203,540,-0.0134888,-22.0704,-0.00350961,-0.0307406,0.0155293,0.00352776,-0.037778,0.425485,0.0264398,0.0490047,1021,484,-0.0134617,22.0704
-196,540,-0.491699,-22.5437,0,0,0,0,0,0,0,-1,1028,484,-0.491752,22.5437
-189,540,-0.726807,-22.826,0,0,0,0,0,0,0,-1,1035,484,-0.72684,22.8259
-182,540,0.109375,-15.2948,0,0,0,0,0,0,0,-1,1042,484,0.109331,15.2948
-175,540,1.73413,-10.728,0,0,0,0,0,0,0,-1,1049,484,1.73414,10.728
-168,540,1.18164,-7.65347,0,0,0,0,0,0,0,-1,1056,484,1.18163,7.65347
-161,540,-0.405884,-9.86481,0,0,0,0,0,0,0,-1,1063,484,-0.405886,9.8648
-154,540,1.96863,-22.0727,0,0,0,0,0,0,0,-1,1070,484,1.96859,22.0727
-147,540,1.32764,-21.9952,0,0,0,0,0,0,0,-1,1077,484,1.32762,21.9952
-140,540,1.40735,-15.6289,0,0,0,0,0,0,0,-1,1084,484,1.4073,15.6289
-133,540,2.28345,-17.6413,0,0,0,0,0,0,0,-1,1091,484,2.2835,17.6413
-126,540,1.46765,-17.5085,0,0,0,0,0,0,0,-1,1098,484,1.46764,17.5085
-119,540,6.18579,-10.4846,0,0,0,0,0,0,0,-1,1105,484,6.18582,10.4846
-112,540,5.8468,-9.65106,0,0,0,0,0,0,0,-1,1112,484,5.84681,9.65106
-105,540,5.50781,-8.81754,0,0,0,0,0,0,0,-1,1119,484,5.5078,8.81753
-98,540,0.73877,-3.08093,0,0,0,0,0,0,0,-1,1126,484,0.738754,3.08092
-91,540,1.56519,-7.48666,0,0,0,0,0,0,0,-1,1133,484,1.56514,7.48667
-84,540,-0.945923,4.43073,0,0,0,0,0,0,0,-1,1140,484,-0.945891,-4.43074
-77,540,-2.28894,2.14368,0,0,0,0,0,0,0,-1,1147,484,-2.28894,-2.14368
-70,540,-3.75244,-0.452576,0,0,0,0,0,0,0,-1,1154,484,-3.75244,0.452576
-63,540,-5.26257,-3.04767,0,0,0,0,0,0,0,-1,1161,484,-5.26262,3.04766
-56,540,-5.19055,-6.12595,0,0,0,0,0,0,0,-1,1168,484,-5.19057,6.12595
-49,540,-5.63867,-8.52298,0,0,0,0,0,0,0,-1,1175,484,-5.63871,8.52298
-42,540,0,0,0,0,0,0,0,0,0,-1,1182,484,0,0
-35,540,0,0,0,0,0,0,0,0,0,-1,1189,484,0,0
-28,540,0,0,0,0,0,0,0,0,0,-1,1196,484,0,0
-21,540,0,0,0,0,0,0,0,0,0,-1,1203,484,0,0
-14,540,0,0,0,0,0,0,0,0,0,-1,1210,484,0,0
-7,540,0,0,0,0,0,0,0,0,0,-1,1217,484,0,0
0,540,0,0,0,0,0,0,0,0,0,-1,1224,484,0,0
7,540,0,0,0,0,0,0,0,0,0,-1,1231,484,0,0
14,540,0,0,0,0,0,0,0,0,0,-1,1238,484,0,0
21,540,0,0,0,0,0,0,0,0,0,-1,1245,484,0,0
28,540,0,0,0,0,0,0,0,0,0,-1,1252,484,0,0
35,540,0,0,0,0,0,0,0,0,0,-1,1259,484,0,0
42,540,0,0,0,0,0,0,0,0,0,-1,1266,484,0,0
49,540,0,0,0,0,0,0,0,0,0,-1,1273,484,0,0
56,540,0,0,0,0,0,0,0,0,0,-1,1280,484,0,0
63,540,0,0,0,0,0,0,0,0,0,-1,1287,484,0,0
70,540,0,0,0,0,0,0,0,0,0,-1,1294,484,0,0
77,540,0,0,0,0,0,0,0,0,0,-1,1301,484,0,0
84,540,0,0,0,0,0,0,0,0,0,-1,1308,484,0,0
91,540,0,0,0,0,0,0,0,0,0,-1,1315,484,0,0
98,540,0,0,0,0,0,0,0,0,0,-1,1322,484,0,0
105,540,0,0,0,0,0,0,0,0,0,-1,1329,484,0,0
112,540,0,0,0,0,0,0,0,0,0,-1,1336,484,0,0
119,540,0,0,0,0,0,0,0,0,0,-1,1343,484,0,0
126,540,0,0,0,0,0,0,0,0,0,-1,1350,484,0,0
133,540,0,0,0,0,0,0,0,0,0,-1,1357,484,0,0
140,540,0,0,0,0,0,0,0,0,0,-1,1364,484,0,0
147,540,0,0,0,0,0,0,0,0,0,-1,1371,484,0,0
154,540,0,0,0,0,0,0,0,0,0,-1,1378,484,0,0
161,540,0,0,0,0,0,0,0,0,0,-1,1385,484,0,0
168,540,3.05078,-0.0010376,0,0,0,0,0,0,0,-1,1392,484,3.05084,0.00102554
175,540,3.37708,0.617035,0,0,0,0,0,0,0,-1,1399,484,3.37707,-0.617046
182,540,3.32678,1.23267,0,0,0,0,0,0,0,-1,1406,484,3.32678,-1.23266
189,540,3.5813,2.15619,0,0,0,0,0,0,0,-1,1413,484,3.58129,-2.1562
196,540,1.84448,-0.801483,0,0,0,0,0,0,0,-1,1420,484,1.84446,0.80148
203,540,4.14648,0.702087,0,0,0,0,0,0,0,-1,1427,484,4.14645,-0.702089
210,540,4.50671,-0.56076,0,0,0,0,0,0,0,-1,1434,484,4.50667,0.560771
217,540,5.00452,-0.278717,0,0,0,0,0,0,0,-1,1441,484,5.00452,0.278709
224,540,6.44458,-2.83527,0,0,0,0,0,0,0,-1,1448,484,6.44457,2.83525
231,540,6.9231,-3.10504,0,0,0,0,0,0,0,-1,1455,484,6.92307,3.10505
238,540,6.4823,-2.58365,0,0,0,0,0,0,0,-1,1462,484,6.48225,2.58363
245,540,6.02087,-1.97916,0,0,0,0,0,0,0,-1,1469,484,6.02088,1.97915
252,540,6.50647,-3.56006,0,0,0,0,0,0,0,-1,1476,484,6.50649,3.56006
259,540,6.01941,-2.798,0,0,0,0,0,0,0,-1,1483,484,6.01941,2.79801
266,540,5.5332,-2.02853,0,0,0,0,0,0,0,-1,1490,484,5.53323,2.02855
273,540,5.06787,-1.28137,0,0,0,0,0,0,0,-1,1497,484,5.06786,1.28136
280,540,1.62903,-2.14609,0,0,0,0,0,0,0,-1,1504,484,1.62906,2.1461
287,540,1.97156,-2.45053,0,0,0,0,0,0,0,-1,1511,484,1.97159,2.45053
294,540,2.44165,-2.6185,0,0,0,0,0,0,0,-1,1518,484,2.44167,2.6185
301,540,4.36169,-2.54272,0,0,0,0,0,0,0,-1,1525,484,4.36165,2.54272
308,540,4.2019,-4.30469,0,0,0,0,0,0,0,-1,1532,484,4.20193,4.3047
315,540,4.45923,-5.32101,0,0,0,0,0,0,0,-1,1539,484,4.45923,5.32103
322,540,4.71655,-6.33737,0,0,0,0,0,0,0,-1,1546,484,4.71653,6.33736
329,540,5.8949,-12.9383,0,0,0,0,0,0,0,-1,1553,484,5.89492,12.9383
336,540,7.16467,-17.7826,0,0,0,0,0,0,0,-1,1560,484,7.16469,17.7826
343,540,8.3938,-21.5015,0,0,0,0,0,0,0,-1,1567,484,8.39385,21.5015
350,540,8.31848,-20.6481,0,0,0,0,0,0,0,-1,1574,484,8.31845,20.6481
357,540,8.18555,-20.3381,-0.00260233,-0.00562227,-0.00549648,0.00158782,-0.00981242,-0.651347,0.00713006,0.0402017,1581,484,8.1855,20.3381
364,540,8.04675,-20.1023,-0.001979,-0.0045534,-0.00441499,0.00133261,-0.007865,-0.643554,0.00573934,0.0230708,1588,484,8.0468,20.1023
371,540,8.04187,-19.7703,-0.00141915,-0.00353435,-0.00341689,0.00110008,-0.00605357,-0.635314,0.00444799,0.0153149,1595,484,8.04188,19.7703
378,540,8.07568,-19.412,-0.000832129,-0.00243656,-0.0024754,0.000967801,-0.00423649,-0.6287,0.00319615,0.0127359,1602,484,8.07566,19.4119
385,540,8.09021,-19.0325,-0.000290602,-0.00121435,-0.00156185,0.000876231,-0.00238118,-0.641634,0.00194642,0.0129058,1609,484,8.09017,19.0325
392,540,8.07458,-18.6298,2.52101e-05,-0.000481778,-0.000963242,0.000767756,-0.00122432,-0.656732,0.00116015,0.0112908,1616,484,8.0746,18.6298
399,540,8.05798,-18.252,0.000232839,6.45107e-05,-0.00045978,0.000616094,-0.000318744,-0.694874,0.000548755,0.016208,1623,484,8.05802,18.252
406,540,8.07361,-17.8559,0.000317333,0.000718356,-5.15321e-05,0.000724872,0.000310817,-1.44502,0.000419917,0.0176974,1630,484,8.07358,17.8559
413,540,8.08142,-17.4078,0.000342689,0.00144828,0.000374234,0.00156304,0.000227926,1.27324,0.000974973,0.0132285,1637,484,8.08146,17.4078
420,540,8.09644,-16.9957,0.000231229,0.0020491,0.000781559,0.00233891,-5.85841e-05,1.2157,0.00157917,0.0120214,1644,484,8.09644,16.9957
427,540,8.06543,-16.6022,-0.000152925,0.00254673,0.00108313,0.00292757,-0.000533766,1.23269,0.00215182,0.0131267,1651,484,8.06543,16.6022
434,540,8.04626,-16.1905,-0.000565067,0.00299369,0.00135516,0.00345097,-0.00102235,1.24536,0.00270658,0.0160946,1658,484,8.04623,16.1905
441,540,8.05481,-15.769,-0.00110079,0.0033083,0.00171384,0.00389611,-0.0016886,1.24039,0.00330723,0.0198624,1665,484,8.0548,15.769
448,540,8.02368,-15.3637,-0.00181189,0.00351765,0.00202107,0.00419739,-0.00249163,1.24636,0.00390354,0.0122151,1672,484,8.02362,15.3637
455,540,8.00745,-14.9238,-0.00249468,0.00353775,0.00236935,0.00435707,-0.00331401,1.23787,0.00444253,0.0105918,1679,484,8.00746,14.9238
462,540,7.974,-14.4873,-0.0032253,0.00320559,0.00280593,0.00425773,-0.00427744,1.21205,0.00492779,0.0100547,1686,484,7.97401,14.4873
469,540,7.94116,-14.0297,-0.0042046,0.00276798,0.00334237,0.00411136,-0.00554797,1.18863,0.00559734,0.0121949,1693,484,7.94117,14.0297
476,540,7.92505,-13.5921,-0.00555152,0.00195116,0.00366257,0.00344262,-0.00704299,1.18408,0.00617168,0.0184781,1700,484,7.92508,13.5921
483,540,7.9209,-13.1681,-0.0069982,0.000883254,0.00405917,0.00259993,-0.00871487,1.17069,0.00684322,0.0359897,1707,484,7.92095,13.1681
490,540,8.08008,-12.6322,0,0,0,0,0,0,0,-1,1714,484,8.08012,12.6322
497,540,7.77271,-12.2834,0,0,0,0,0,0,0,-1,1721,484,7.77272,12.2834
504,540,5.52747,-4.4433,0,0,0,0,0,0,0,-1,1728,484,5.5275,4.44329
511,540,5.82471,-6.83521,0,0,0,0,0,0,0,-1,1735,484,5.82465,6.83522
518,540,8.53809,-10.8653,0,0,0,0,0,0,0,-1,1742,484,8.5381,10.8653
525,540,5.83813,-7.04257,0,0,0,0,0,0,0,-1,1749,484,5.83816,7.04257
532,540,2.84265,-1.07925,0,0,0,0,0,0,0,-1,1756,484,2.84269,1.07927
539,540,0,0,0,0,0,0,0,0,0,-1,1763,484,0,0
546,540,0,0,0,0,0,0,0,0,0,-1,1770,484,0,0
553,540,0,0,0,0,0,0,0,0,0,-1,1777,484,0,0
560,540,0,0,0,0,0,0,0,0,0,-1,1784,484,0,0
567,540,0,0,0,0,0,0,0,0,0,-1,1791,484,0,0
574,540,0,0,0,0,0,0,0,0,0,-1,1798,484,0,0
581,540,0,0,0,0,0,0,0,0,0,-1,1805,484,0,0
588,540,0,0,0,0,0,0,0,0,0,-1,1812,484,0,0
595,540,0,0,0,0,0,0,0,0,0,-1,1819,484,0,0
602,540,0,0,0,0,0,0,0,0,0,-1,1826,484,0,0
609,540,0,0,0,0,0,0,0,0,0,-1,1833,484,0,0
616,540,0,0,0,0,0,0,0,0,0,-1,1840,484,0,0
623,540,0,0,0,0,0,0,0,0,0,-1,1847,484,0,0
630,540,0,0,0,0,0,0,0,0,0,-1,1854,484,0,0
637,540,0,0,0,0,0,0,0,0,0,-1,1861,484,0,0
644,540,0,0,0,0,0,0,0,0,0,-1,1868,484,0,0
651,540,0,0,0,0,0,0,0,0,0,-1,1875,484,0,0
658,540,0,0,0,0,0,0,0,0,0,-1,1882,484,0,0
665,540,0,0,0,0,0,0,0,0,0,-1,1889,484,0,0
672,540,0,0,0,0,0,0,0,0,0,-1,1896,484,0,0
679,540,0,0,0,0,0,0,0,0,0,-1,1903,484,0,0
686,540,0,0,0,0,0,0,0,0,0,-1,1910,484,0,0
693,540,0,0,0,0,0,0,0,0,0,-1,1917,484,0,0
700,540,0,0,0,0,0,0,0,0,0,-1,1924,484,0,0
707,540,0,0,0,0,0,0,0,0,0,-1,1931,484,0,0
714,540,0,0,0,0,0,0,0,0,0,-1,1938,484,0,0
721,540,0,0,0,0,0,0,0,0,0,-1,1945,484,0,0
728,540,0,0,0,0,0,0,0,0,0,-1,1952,484,0,0
735,540,0,0,0,0,0,0,0,0,0,-1,1959,484,0,0
742,540,0,0,0,0,0,0,0,0,0,-1,1966,484,0,0
749,540,0,0,0,0,0,0,0,0,0,-1,1973,484,0,0
756,540,0,0,0,0,0,0,0,0,0,-1,1980,484,0,0
763,540,0,0,0,0,0,0,0,0,0,-1,1987,484,0,0
770,540,0,0,0,0,0,0,0,0,0,-1,1994,484,0,0
777,540,0,0,0,0,0,0,0,0,0,-1,2001,484,0,0
784,540,0,0,0,0,0,0,0,0,0,-1,2008,484,0,0
791,540,0,0,0,0,0,0,0,0,0,-1,2015,484,0,0
798,540,0,0,0,0,0,0,0,0,0,-1,2022,484,0,0
805,540,0,0,0,0,0,0,0,0,0,-1,2029,484,0,0
812,540,0,0,0,0,0,0,0,0,0,-1,2036,484,0,0
-700,533,0,0,0,0,0,0,0,0,0,-1,524,491,0,0
-693,533,0,0,0,0,0,0,0,0,0,-1,531,491,0,0
-686,533,0,0,0,0,0,0,0,0,0,-1,538,491,0,0
-679,533,0,0,0,0,0,0,0,0,0,-1,545,491,0,0
-672,533,0,0,0,0,0,0,0,0,0,-1,552,491,0,0
-665,533,0,0,0,0,0,0,0,0,0,-1,559,491,0,0
-658,533,0,0,0,0,0,0,0,0,0,-1,566,491,0,0
-651,533,0,0,0,0,0,0,0,0,0,-1,573,491,0,0
-644,533,0,0,0,0,0,0,0,0,0,-1,580,491,0,0
-637,533,0,0,0,0,0,0,0,0,0,-1,587,491,0,0
-630,533,0,0,0,0,0,0,0,0,0,-1,594,491,0,0
-623,533,0,0,0,0,0,0,0,0,0,-1,601,491,0,0
-616,533,0,0,0,0,0,0,0,0,0,-1,608,491,0,0
-609,533,0,0,0,0,0,0,0,0,0,-1,615,491,0,0
-602,533,0,0,0,0,0,0,0,0,0,-1,622,491,0,0
-595,533,0,0,0,0,0,0,0,0,0,-1,629,491,0,0
-588,533,0,0,0,0,0,0,0,0,0,-1,636,491,0,0
-581,533,0,0,0,0,0,0,0,0,0,-1,643,491,0,0
-574,533,0,0,0,0,0,0,0,0,0,-1,650,491,0,0
-567,533,0,0,0,0,0,0,0,0,0,-1,657,491,0,0
-560,533,0,0,0,0,0,0,0,0,0,-1,664,491,0,0
-553,533,0,0,0,0,0,0,0,0,0,-1,671,491,0,0
-546,533,0,0,0,0,0,0,0,0,0,-1,678,491,0,0
-539,533,0,0,0,0,0,0,0,0,0,-1,685,491,0,0
-532,533,0,0,0,0,0,0,0,0,0,-1,692,491,0,0
-525,533,0,0,0,0,0,0,0,0,0,-1,699,491,0,0
-518,533,0,0,0,0,0,0,0,0,0,-1,706,491,0,0
-511,533,0,0,0,0,0,0,0,0,0,-1,713,491,0,0
-504,533,0,0,0,0,0,0,0,0,0,-1,720,491,0,0
-497,533,0,0,0,0,0,0,0,0,0,-1,727,491,0,0
-490,533,0,0,0,0,0,0,0,0,0,-1,734,491,0,0
-483,533,0,0,0,0,0,0,0,0,0,-1,741,491,0,0
-476,533,0,0,0,0,0,0,0,0,0,-1,748,491,0,0
-469,533,0,0,0,0,0,0,0,0,0,-1,755,491,0,0
-462,533,0,0,0,0,0,0,0,0,0,-1,762,491,0,0
-455,533,0,0,0,0,0,0,0,0,0,-1,769,491,0,0
-448,533,0,0,0,0,0,0,0,0,0,-1,776,491,0,0
-441,533,0,0,0,0,0,0,0,0,0,-1,783,491,0,0
-434,533,0,0,0,0,0,0,0,0,0,-1,790,491,0,0
-427,533,0.559814,-4.40222,0,0,0,0,0,0,0,-1,797,491,0.559816,4.40222
-420,533,-0.194275,-9.77838,0,0,0,0,0,0,0,-1,804,491,-0.194288,9.77838
-413,533,-1.59357,-8.0712,0,0,0,0,0,0,0,-1,811,491,-1.59354,8.07121
-406,533,-0.914124,-8.88712,0,0,0,0,0,0,0,-1,818,491,-0.914138,8.88713
-399,533,-0.234741,-9.70303,0,0,0,0,0,0,0,-1,825,491,-0.234737,9.70304
-392,533,-1.01978,-10.5269,0,0,0,0,0,0,0,-1,832,491,-1.0198,10.5268
-385,533,-1.69116,-6.64645,0,0,0,0,0,0,0,-1,839,491,-1.69115,6.64645
-378,533,0.538757,-10.1314,0,0,0,0,0,0,0,-1,846,491,0.538741,10.1314
-371,533,0.0545044,-14.2426,0,0,0,0,0,0,0,-1,853,491,0.0544862,14.2426
-364,533,0.0253906,-14.38,0.000848162,0.0089031,-0.00682153,0.0127974,-0.0030461,-1.05207,0.00970758,0.0436943,860,491,0.0254037,14.38
-357,533,-0.0496826,-14.5003,0.000221891,0.00756078,-0.00577372,0.0107324,-0.00294977,-1.06847,0.0083145,0.0233395,867,491,-0.0496526,14.5003
-350,533,-0.0402832,-14.9464,-0.000180656,0.00622435,-0.00474869,0.00874951,-0.00270581,-1.08207,0.00691375,0.0128414,874,491,-0.0402597,14.9464
-343,533,-0.0667114,-15.4225,-0.000421222,0.00520104,-0.00387588,0.00717791,-0.00239809,-1.09915,0.0057537,0.0116127,881,491,-0.0667282,15.4225
-336,533,-0.119019,-15.85,-0.000316216,0.00469825,-0.00342107,0.00643247,-0.00205044,-1.10162,0.00511079,0.0146462,888,491,-0.119022,15.85
-329,533,-0.156311,-16.2341,-0.000233661,0.00409572,-0.00292463,0.00556962,-0.00170756,-1.10398,0.00439428,0.0130189,895,491,-0.156317,16.2341
-322,533,-0.156372,-16.6301,-0.00012128,0.00354133,-0.00251503,0.00482114,-0.00140109,-1.10008,0.00376896,0.0113667,902,491,-0.15637,16.6301
-315,533,-0.181946,-17.0365,7.45131e-05,0.00303298,-0.00208095,0.00410687,-0.000999383,-1.09438,0.00312478,0.0129471,909,491,-0.18196,17.0365
-308,533,-0.195679,-17.4371,0.000320599,0.00247623,-0.00164172,0.00336233,-0.000565495,-1.07587,0.00245188,0.0125277,916,491,-0.19569,17.4371
-301,533,-0.224243,-17.8098,0.000496351,0.00159713,-0.00101167,0.00219843,-0.000104955,-1.03453,0.00150183,0.0134531,923,491,-0.224217,17.8098
-294,533,-0.20459,-18.1835,0.000651063,0.000391479,-0.000194339,0.000754967,0.000287575,-0.490983,0.000439982,0.0120549,930,491,-0.20456,18.1835
-287,533,-0.172302,-18.5911,0.000876718,-0.000712178,0.000571091,0.00106068,-0.000896143,0.311633,0.00113111,0.00901173,937,491,-0.172322,18.5911
-280,533,-0.182678,-18.9876,0.000923671,-0.00214537,0.00124949,0.00136803,-0.00258974,0.341686,0.00232102,0.00839093,944,491,-0.18269,18.9876
-273,533,-0.188599,-19.3485,0.000861309,-0.00402597,0.00212273,0.00165454,-0.00481921,0.357618,0.00388363,0.0113888,951,491,-0.188583,19.3485
-266,533,-0.166321,-19.7193,0.00112962,-0.00617708,0.00308422,0.00225742,-0.00730488,0.350564,0.00577148,0.0109918,958,491,-0.166296,19.7193
-259,533,-0.159302,-20.0921,0.00133645,-0.00895892,0.00403534,0.0027296,-0.0103521,0.332427,0.00796864,0.0116423,965,491,-0.159276,20.0921
-252,533,-0.160278,-20.4117,0.000870378,-0.0122579,0.0052654,0.00272125,-0.0141087,0.338025,0.0104319,0.0141232,972,491,-0.160255,20.4118
-245,533,-0.15509,-20.7298,0.000468022,-0.0161622,0.006741,0.00285721,-0.0185514,0.340613,0.0134218,0.0198247,979,491,-0.155086,20.7298
-238,533,-0.102112,-20.9634,9.05593e-05,-0.0201802,0.00854024,0.00320893,-0.0232985,0.350096,0.016705,0.0245969,986,491,-0.102133,20.9634
-231,533,0.0603027,-21.1014,-0.000372138,-0.0245015,0.0103475,0.00345745,-0.0283311,0.354465,0.0201391,0.0365042,993,491,0.0603189,21.1014
-224,533,-0.270935,-21.2803,-0.00123858,-0.0290888,0.0125543,0.00358515,-0.0339126,0.366838,0.0238933,0.0467819,1000,491,-0.270927,21.2803
-217,533,-0.156006,-21.5931,-0.00225234,-0.0332665,0.0148743,0.0037281,-0.0392469,0.382286,0.0274917,0.0480311,1007,491,-0.15602,21.5931
-210,533,0.107544,-21.6991,-0.00341251,-0.0373637,0.0173262,0.00386816,-0.0446444,0.397809,0.0311325,0.049634,1014,491,0.107571,21.6991
-203,533,0.0787964,-22.0386,0,0,0,0,0,0,0,-1,1021,491,0.0788071,22.0386
-196,533,0.688354,-19.5743,0,0,0,0,0,0,0,-1,1028,491,0.688406,19.5743
-189,533,-0.169189,-15.0303,0,0,0,0,0,0,0,-1,1035,491,-0.169241,15.0303
-182,533,1.26123,-11.4969,0,0,0,0,0,0,0,-1,1042,491,1.26128,11.4969
-175,533,0.937744,-7.36966,0,0,0,0,0,0,0,-1,1049,491,0.937769,7.36965
-168,533,2.64807,-2.7543,0,0,0,0,0,0,0,-1,1056,491,2.64812,2.7543
-161,533,1.91833,-1.76553,0,0,0,0,0,0,0,-1,1063,491,1.91836,1.76554
-154,533,0.376709,-11.0633,0,0,0,0,0,0,0,-1,1070,491,0.376715,11.0632
-147,533,0.383789,-12.1586,0,0,0,0,0,0,0,-1,1077,491,0.383829,12.1586
-140,533,1.14001,-15.4608,0,0,0,0,0,0,0,-1,1084,491,1.14005,15.4608
-133,533,0.189941,-16.0795,0,0,0,0,0,0,0,-1,1091,491,0.18994,16.0795
-126,533,2.89612,-2.59003,0,0,0,0,0,0,0,-1,1098,491,2.89608,2.59003
-119,533,3.00842,-12.8239,0,0,0,0,0,0,0,-1,1105,491,3.00841,12.8239
-112,533,7.05884,-10.21,0,0,0,0,0,0,0,-1,1112,491,7.0588,10.21
-105,533,3.84839,1.12769,0,0,0,0,0,0,0,-1,1119,491,3.84843,-1.12769
-98,533,-1.39392,-5.16367,0,0,0,0,0,0,0,-1,1126,491,-1.39394,5.16367
-91,533,0.367432,4.49753,0,0,0,0,0,0,0,-1,1133,491,0.367468,-4.49754
-84,533,-0.88623,3.03604,0,0,0,0,0,0,0,-1,1140,491,-0.886288,-3.03605
-77,533,0,0,0,0,0,0,0,0,0,-1,1147,491,0,0
-70,533,0,0,0,0,0,0,0,0,0,-1,1154,491,0,0
-63,533,0,0,0,0,0,0,0,0,0,-1,1161,491,0,0
-56,533,0,0,0,0,0,0,0,0,0,-1,1168,491,0,0
-49,533,0,0,0,0,0,0,0,0,0,-1,1175,491,0,0
-42,533,0,0,0,0,0,0,0,0,0,-1,1182,491,0,0
-35,533,0,0,0,0,0,0,0,0,0,-1,1189,491,0,0
-28,533,0,0,0,0,0,0,0,0,0,-1,1196,491,0,0
-21,533,0,0,0,0,0,0,0,0,0,-1,1203,491,0,0
-14,533,0,0,0,0,0,0,0,0,0,-1,1210,491,0,0
-7,533,0,0,0,0,0,0,0,0,0,-1,1217,491,0,0
0,533,0,0,0,0,0,0,0,0,0,-1,1224,491,0,0
7,533,0,0,0,0,0,0,0,0,0,-1,1231,491,0,0
14,533,0,0,0,0,0,0,0,0,0,-1,1238,491,0,0
21,533,0,0,0,0,0,0,0,0,0,-1,1245,491,0,0
28,533,0,0,0,0,0,0,0,0,0,-1,1252,491,0,0
35,533,0,0,0,0,0,0,0,0,0,-1,1259,491,0,0
42,533,0,0,0,0,0,0,0,0,0,-1,1266,491,0,0
49,533,0,0,0,0,0,0,0,0,0,-1,1273,491,0,0
56,533,0,0,0,0,0,0,0,0,0,-1,1280,491,0,0
63,533,0,0,0,0,0,0,0,0,0,-1,1287,491,0,0
70,533,0,0,0,0,0,0,0,0,0,-1,1294,491,0,0
77,533,0,0,0,0,0,0,0,0,0,-1,1301,491,0,0
84,533,0,0,0,0,0,0,0,0,0,-1,1308,491,0,0
91,533,0,0,0,0,0,0,0,0,0,-1,1315,491,0,0
98,533,0,0,0,0,0,0,0,0,0,-1,1322,491,0,0
105,533,0,0,0,0,0,0,0,0,0,-1,1329,491,0,0
112,533,0,0,0,0,0,0,0,0,0,-1,1336,491,0,0
119,533,0,0,0,0,0,0,0,0,0,-1,1343,491,0,0
126,533,0,0,0,0,0,0,0,0,0,-1,1350,491,0,0
133,533,0,0,0,0,0,0,0,0,0,-1,1357,491,0,0
140,533,0,0,0,0,0,0,0,0,0,-1,1364,491,0,0
147,533,0,0,0,0,0,0,0,0,0,-1,1371,491,0,0
154,533,0,0,0,0,0,0,0,0,0,-1,1378,491,0,0
161,533,0,0,0,0,0,0,0,0,0,-1,1385,491,0,0
168,533,0,0,0,0,0,0,0,0,0,-1,1392,491,0,0
175,533,0,0,0,0,0,0,0,0,0,-1,1399,491,0,0
182,533,0,0,0,0,0,0,0,0,0,-1,1406,491,0,0
189,533,0,0,0,0,0,0,0,0,0,-1,1413,491,0,0
196,533,0,0,0,0,0,0,0,0,0,-1,1420,491,0,0
203,533,3.7887,1.16193,0,0,0,0,0,0,0,-1,1427,491,3.78872,-1.16193
210,533,5.09558,-0.216034,0,0,0,0,0,0,0,-1,1434,491,5.09559,0.216028
217,533,6.91614,-2.46814,0,0,0,0,0,0,0,-1,1441,491,6.91618,2.46814
224,533,7.23621,-2.1857,0,0,0,0,0,0,0,-1,1448,491,7.23621,2.1857
231,533,7.23474,-1.92282,0,0,0,0,0,0,0,-1,1455,491,7.2347,1.92282
238,533,7.23535,-1.67258,0,0,0,0,0,0,0,-1,1462,491,7.23539,1.67258
245,533,6.86682,-1.2301,0,0,0,0,0,0,0,-1,1469,491,6.86686,1.23011
252,533,6.63354,-3.07825,0,0,0,0,0,0,0,-1,1476,491,6.6335,3.07824
259,533,6.16431,-2.35037,0,0,0,0,0,0,0,-1,1483,491,6.1643,2.35037
266,533,5.68884,-1.6214,0,0,0,0,0,0,0,-1,1490,491,5.68885,1.6214
273,533,5.21399,-0.864227,0,0,0,0,0,0,0,-1,1497,491,5.21403,0.864227
280,533,1.41089,-1.97946,0,0,0,0,0,0,0,-1,1504,491,1.41087,1.97946
287,533,1.6814,-2.44443,0,0,0,0,0,0,0,-1,1511,491,1.6814,2.44444
294,533,2.2384,-2.57626,0,0,0,0,0,0,0,-1,1518,491,2.23839,2.57625
301,533,3.39941,-4.0817,0,0,0,0,0,0,0,-1,1525,491,3.3994,4.08171
308,533,4.13733,-4.14752,0,0,0,0,0,0,0,-1,1532,491,4.13727,4.14752
315,533,4.80762,-5.29349,0,0,0,0,0,0,0,-1,1539,491,4.80762,5.29347
322,533,5.47803,-6.43942,0,0,0,0,0,0,0,-1,1546,491,5.47798,6.43943
329,533,3.88477,-3.86301,0,0,0,0,0,0,0,-1,1553,491,3.88475,3.86299
336,533,6.70923,-13.2003,0,0,0,0,0,0,0,-1,1560,491,6.70926,13.2004
343,533,7.06677,-17.1133,0,0,0,0,0,0,0,-1,1567,491,7.06673,17.1133
350,533,5.62915,-8.02426,0,0,0,0,0,0,0,-1,1574,491,5.6291,8.02426
357,533,8.58826,-20.1987,0,0,0,0,0,0,0,-1,1581,491,8.58821,20.1987
364,533,8.62122,-19.9467,-0.0032476,-0.00599332,-0.00575662,0.0012976,-0.0105385,-0.668343,0.00749575,0.0434584,1588,491,8.62122,19.9467
371,533,8.43677,-19.7083,-0.00225926,-0.00462204,-0.00445632,0.0011696,-0.00805091,-0.655826,0.00579661,0.0369786,1595,491,8.43676,19.7083
378,533,8.39868,-19.3736,-0.00127868,-0.00316807,-0.00322804,0.00114006,-0.00558682,-0.643047,0.00415701,0.0283541,1602,491,8.39874,19.3736
385,533,8.4873,-18.9886,-0.000401497,-0.00171605,-0.00204846,0.00109255,-0.0032101,-0.630155,0.00258247,0.023911,1609,491,8.48725,18.9886
392,533,8.48364,-18.6343,0.000115707,-0.000934498,-0.0013723,0.00105994,-0.00187873,-0.602671,0.00171846,0.0134565,1616,491,8.48368,18.6343
399,533,8.48999,-18.2545,0.000474378,-0.000453312,-0.000850074,0.000978922,-0.000957857,-0.535649,0.00111822,0.0121003,1623,491,8.49005,18.2546
406,533,8.49841,-17.8551,0.000677153,4.64789e-05,-0.000421116,0.000887912,-0.000164279,-0.464028,0.000653619,0.0153816,1630,491,8.49843,17.8551
413,533,8.50513,-17.4147,0.000813702,0.000746057,3.18985e-05,0.000826371,0.000733388,0.378065,0.000522684,0.0132357,1637,491,8.50509,17.4147
420,533,8.47668,-17.0016,0.00083675,0.00131024,0.000439151,0.0015724,0.000574595,1.03262,0.000918718,0.0118728,1644,491,8.47672,17.0016
427,533,8.4679,-16.5879,0.000563204,0.00172503,0.000681042,0.00203926,0.000248975,1.13851,0.00128458,0.0128369,1651,491,8.46788,16.5879
434,533,8.45801,-16.1782,0.000187026,0.0020704,0.000895029,0.00242789,-0.00017046,1.1908,0.0016783,0.0128527,1658,491,8.45796,16.1782
441,533,8.46729,-15.742,-0.000273411,0.00230893,0.00118752,0.00277199,-0.000736473,1.19899,0.00213623,0.0157454,1665,491,8.46726,15.742
448,533,8.45166,-15.3388,-0.000848911,0.00243225,0.00144244,0.00297619,-0.00139285,1.21019,0.00257709,0.016718,1672,491,8.45165,15.3388
455,533,8.41736,-14.9188,-0.00140387,0.00242832,0.00172394,0.0030897,-0.00206525,1.20447,0.00299574,0.0161081,1679,491,8.41741,14.9188
462,533,8.39136,-14.4608,-0.00198825,0.00210552,0.00208004,0.0029769,-0.00285964,1.17408,0.00336996,0.0135153,1686,491,8.3914,14.4609
469,533,8.39026,-14.0385,-0.00278266,0.0017165,0.00252764,0.00285064,-0.0039168,1.14903,0.00392331,0.0090071,1693,491,8.39031,14.0385
476,533,8.39368,-13.5703,-0.00390277,0.00101376,0.00277651,0.00226387,-0.00515288,1.14774,0.00438902,0.0111217,1700,491,8.39371,13.5703
483,533,8.43225,-13.0918,-0.00508705,0.000133832,0.00307422,0.00155641,-0.00650963,1.1374,0.00494095,0.0191353,1707,491,8.43223,13.0918
490,533,8.52344,-12.8147,-0.00650871,-0.00109932,0.00344909,0.000579088,-0.00818712,1.11791,0.00566099,0.0437453,1714,491,8.52343,12.8147
497,533,8.2113,-12.3279,-0.0083296,-0.0027578,0.00365235,-0.000950134,-0.0101373,1.11121,0.00646478,0.048891,1721,491,8.21136,12.3279
504,533,8.68054,-11.6943,0,0,0,0,0,0,0,-1,1728,491,8.68059,11.6943
511,533,8.80493,-11.4883,0,0,0,0,0,0,0,-1,1735,491,8.80499,11.4883
518,533,8.56995,-10.7924,0,0,0,0,0,0,0,-1,1742,491,8.56995,10.7924
525,533,8.07532,-10.0231,0,0,0,0,0,0,0,-1,1749,491,8.07537,10.0231
532,533,3.24243,0.0737,0,0,0,0,0,0,0,-1,1756,491,3.24239,-0.0737072
539,533,3.61609,1.62427,0,0,0,0,0,0,0,-1,1763,491,3.61606,-1.62426
546,533,3.59607,1.65799,0,0,0,0,0,0,0,-1,1770,491,3.59605,-1.658
553,533,0,0,0,0,0,0,0,0,0,-1,1777,491,0,0
560,533,0,0,0,0,0,0,0,0,0,-1,1784,491,0,0
567,533,0,0,0,0,0,0,0,0,0,-1,1791,491,0,0
574,533,0,0,0,0,0,0,0,0,0,-1,1798,491,0,0
581,533,0,0,0,0,0,0,0,0,0,-1,1805,491,0,0
588,533,0,0,0,0,0,0,0,0,0,-1,1812,491,0,0
595,533,0,0,0,0,0,0,0,0,0,-1,1819,491,0,0
602,533,0,0,0,0,0,0,0,0,0,-1,1826,491,0,0
609,533,0,0,0,0,0,0,0,0,0,-1,1833,491,0,0
616,533,0,0,0,0,0,0,0,0,0,-1,1840,491,0,0
623,533,0,0,0,0,0,0,0,0,0,-1,1847,491,0,0
630,533,0,0,0,0,0,0,0,0,0,-1,1854,491,0,0
637,533,0,0,0,0,0,0,0,0,0,-1,1861,491,0,0
644,533,0,0,0,0,0,0,0,0,0,-1,1868,491,0,0
651,533,0,0,0,0,0,0,0,0,0,-1,1875,491,0,0
658,533,0,0,0,0,0,0,0,0,0,-1,1882,491,0,0
665,533,0,0,0,0,0,0,0,0,0,-1,1889,491,0,0
672,533,0,0,0,0,0,0,0,0,0,-1,1896,491,0,0
679,533,0,0,0,0,0,0,0,0,0,-1,1903,491,0,0
686,533,0,0,0,0,0,0,0,0,0,-1,1910,491,0,0
693,533,0,0,0,0,0,0,0,0,0,-1,1917,491,0,0
700,533,0,0,0,0,0,0,0,0,0,-1,1924,491,0,0
707,533,0,0,0,0,0,0,0,0,0,-1,1931,491,0,0
714,533,0,0,0,0,0,0,0,0,0,-1,1938,491,0,0
721,533,0,0,0,0,0,0,0,0,0,-1,1945,491,0,0
728,533,0,0,0,0,0,0,0,0,0,-1,1952,491,0,0
735,533,0,0,0,0,0,0,0,0,0,-1,1959,491,0,0
742,533,0,0,0,0,0,0,0,0,0,-1,1966,491,0,0
749,533,0,0,0,0,0,0,0,0,0,-1,1973,491,0,0
756,533,0,0,0,0,0,0,0,0,0,-1,1980,491,0,0
763,533,0,0,0,0,0,0,0,0,0,-1,1987,491,0,0
770,533,0,0,0,0,0,0,0,0,0,-1,1994,491,0,0
777,533,0,0,0,0,0,0,0,0,0,-1,2001,491,0,0
784,533,0,0,0,0,0,0,0,0,0,-1,2008,491,0,0
791,533,0,0,0,0,0,0,0,0,0,-1,2015,491,0,0
798,533,0,0,0,0,0,0,0,0,0,-1,2022,491,0,0
805,533,0,0,0,0,0,0,0,0,0,-1,2029,491,0,0
812,533,0,0,0,0,0,0,0,0,0,-1,2036,491,0,0
-700,526,0,0,0,0,0,0,0,0,0,-1,524,498,0,0
-693,526,0,0,0,0,0,0,0,0,0,-1,531,498,0,0
-686,526,0,0,0,0,0,0,0,0,0,-1,538,498,0,0
-679,526,0,0,0,0,0,0,0,0,0,-1,545,498,0,0
-672,526,0,0,0,0,0,0,0,0,0,-1,552,498,0,0
-665,526,0,0,0,0,0,0,0,0,0,-1,559,498,0,0
-658,526,0,0,0,0,0,0,0,0,0,-1,566,498,0,0
-651,526,0,0,0,0,0,0,0,0,0,-1,573,498,0,0
-644,526,0,0,0,0,0,0,0,0,0,-1,580,498,0,0
-637,526,0,0,0,0,0,0,0,0,0,-1,587,498,0,0
-630,526,0,0,0,0,0,0,0,0,0,-1,594,498,0,0
-623,526,0,0,0,0,0,0,0,0,0,-1,601,498,0,0
-616,526,0,0,0,0,0,0,0,0,0,-1,608,498,0,0
-609,526,0,0,0,0,0,0,0,0,0,-1,615,498,0,0
-602,526,0,0,0,0,0,0,0,0,0,-1,622,498,0,0
-595,526,0,0,0,0,0,0,0,0,0,-1,629,498,0,0
-588,526,0,0,0,0,0,0,0,0,0,-1,636,498,0,0
-581,526,0,0,0,0,0,0,0,0,0,-1,643,498,0,0
-574,526,0,0,0,0,0,0,0,0,0,-1,650,498,0,0
-567,526,0,0,0,0,0,0,0,0,0,-1,657,498,0,0
-560,526,0,0,0,0,0,0,0,0,0,-1,664,498,0,0
-553,526,0,0,0,0,0,0,0,0,0,-1,671,498,0,0
-546,526,0,0,0,0,0,0,0,0,0,-1,678,498,0,0
-539,526,0,0,0,0,0,0,0,0,0,-1,685,498,0,0
-532,526,0,0,0,0,0,0,0,0,0,-1,692,498,0,0
-525,526,0,0,0,0,0,0,0,0,0,-1,699,498,0,0
-518,526,0,0,0,0,0,0,0,0,0,-1,706,498,0,0
-511,526,0,0,0,0,0,0,0,0,0,-1,713,498,0,0
-504,526,0,0,0,0,0,0,0,0,0,-1,720,498,0,0
-497,526,0,0,0,0,0,0,0,0,0,-1,727,498,0,0
-490,526,0,0,0,0,0,0,0,0,0,-1,734,498,0,0
-483,526,0,0,0,0,0,0,0,0,0,-1,741,498,0,0
-476,526,0,0,0,0,0,0,0,0,0,-1,748,498,0,0
-469,526,0,0,0,0,0,0,0,0,0,-1,755,498,0,0
-462,526,0,0,0,0,0,0,0,0,0,-1,762,498,0,0
-455,526,0,0,0,0,0,0,0,0,0,-1,769,498,0,0
-448,526,0,0,0,0,0,0,0,0,0,-1,776,498,0,0
-441,526,0,0,0,0,0,0,0,0,0,-1,783,498,0,0
-434,526,-0.153564,-5.96649,0,0,0,0,0,0,0,-1,790,498,-0.153589,5.9665
-427,526,1.23206,-4.59808,0,0,0,0,0,0,0,-1,797,498,1.23208,4.59809
-420,526,0.674561,-5.70255,0,0,0,0,0,0,0,-1,804,498,0.674582,5.70254
-413,526,-1.1756,-8.31906,0,0,0,0,0,0,0,-1,811,498,-1.17559,8.31907
-406,526,-0.764221,-9.21924,0,0,0,0,0,0,0,-1,818,498,-0.764197,9.21922
-399,526,-0.352783,-10.1194,0,0,0,0,0,0,0,-1,825,498,-0.352801,10.1194
-392,526,-0.542542,-10.2509,0,0,0,0,0,0,0,-1,832,498,-0.542545,10.2509
-385,526,-0.764648,-12.3108,0,0,0,0,0,0,0,-1,839,498,-0.764631,12.3108
-378,526,-0.466431,-13.2333,0,0,0,0,0,0,0,-1,846,498,-0.466459,13.2333
-371,526,-0.464844,-13.6944,0.00159863,0.00941747,-0.00760258,0.0140569,-0.0030408,-1.02288,0.0105322,0.0378879,853,498,-0.464823,13.6944
-364,526,-0.476868,-14.0763,0.0010286,0.00729452,-0.00584206,0.0107907,-0.00246755,-1.03152,0.00814191,0.0190362,860,498,-0.476844,14.0763
-357,526,-0.46521,-14.5015,0.000610111,0.00577842,-0.00461488,0.00848341,-0.00209487,-1.04063,0.00646798,0.0119082,867,498,-0.465239,14.5015
-350,526,-0.467957,-14.9341,0.000280083,0.00439076,-0.00352409,0.00641508,-0.00174424,-1.04939,0.00496141,0.0109119,874,498,-0.467942,14.9342
-343,526,-0.49054,-15.3846,7.47598e-05,0.00334845,-0.00264717,0.00482396,-0.00140075,-1.0623,0.00377064,0.0150175,881,498,-0.490547,15.3847
-336,526,-0.528259,-15.8115,0.000184897,0.00286208,-0.00220519,0.00410315,-0.00105618,-1.05818,0.00314714,0.0156615,888,498,-0.528251,15.8115
-329,526,-0.54834,-16.2145,0.000290778,0.00234414,-0.00177775,0.00337038,-0.000735459,-1.04726,0.00252799,0.0151983,895,498,-0.548337,16.2146
-322,526,-0.540955,-16.5938,0.00039692,0.00190204,-0.00144382,0.00277766,-0.000478699,-1.02564,0.00203024,0.0105289,902,498,-0.540958,16.5938
-315,526,-0.557617,-17.002,0.000567284,0.00152078,-0.00109152,0.00223512,-0.00014706,-0.991299,0.00154144,0.00924503,909,498,-0.557605,17.0019
-308,526,-0.575195,-17.4297,0.000781388,0.00108231,-0.000729703,0.0016769,0.000186796,-0.887071,0.00106116,0.00861165,916,498,-0.575222,17.4298
-301,526,-0.604553,-17.7964,0.00092314,0.000374378,-0.000194853,0.000985289,0.000312229,-0.308754,0.000581433,0.00997271,923,498,-0.604548,17.7964
-294,526,-0.593445,-18.1779,0.00103774,-0.000714902,0.000556063,0.00119927,-0.000876436,0.282716,0.00120323,0.00967824,930,498,-0.593418,18.1779
-287,526,-0.593872,-18.5803,0.00126706,-0.00171933,0.00124255,0.00171643,-0.0021687,0.347017,0.00224814,0.00974286,937,498,-0.593888,18.5803
-280,526,-0.623779,-18.9603,0.00127824,-0.00319698,0.00190906,0.00198196,-0.0039007,0.353165,0.00345605,0.0125106,944,498,-0.623777,18.9603
-273,526,-0.605347,-19.3431,0.00118324,-0.0052927,0.00285659,0.0022632,-0.00637267,0.361451,0.00517067,0.0103017,951,498,-0.605341,19.3431
-266,526,-0.572998,-19.7037,0.00152481,-0.00774251,0.00396578,0.00299019,-0.00920788,0.353944,0.0073412,0.0100792,958,498,-0.572972,19.7037
-259,526,-0.544983,-20.0323,0.00181369,-0.0110974,0.00511724,0.00359587,-0.0128796,0.335133,0.0100028,0.0195295,965,498,-0.544974,20.0323
-252,526,-0.607727,-20.2424,0.0011806,-0.015243,0.00666647,0.00354592,-0.0176083,0.340952,0.013082,0.0327391,972,498,-0.607707,20.2424
-245,526,-0.732605,-20.3075,0.000564193,-0.020265,0.00858635,0.00364734,-0.0233482,0.344737,0.0169128,0.0405168,979,498,-0.732618,20.3075
-238,526,-0.413086,-20.6995,0,0,0,0,0,0,0,-1,986,498,-0.41311,20.6995
-231,526,-0.00598145,-20.7141,0,0,0,0,0,0,0,-1,993,498,-0.00596488,20.7141
-224,526,-0.598694,-20.8766,0,0,0,0,0,0,0,-1,1000,498,-0.59872,20.8766
-217,526,-0.370239,-21.5175,0,0,0,0,0,0,0,-1,1007,498,-0.370268,21.5175
-210,526,-0.0767822,-21.5514,0,0,0,0,0,0,0,-1,1014,498,-0.0767968,21.5514
-203,526,-0.659302,-18.8818,0,0,0,0,0,0,0,-1,1021,498,-0.659273,18.8818
-196,526,-0.328247,-12.179,0,0,0,0,0,0,0,-1,1028,498,-0.328238,12.179
-189,526,0.401245,-5.96826,0,0,0,0,0,0,0,-1,1035,498,0.401197,5.96826
-182,526,1.7323,-2.99405,0,0,0,0,0,0,0,-1,1042,498,1.73226,2.99404
-175,526,2.27637,-2.07983,0,0,0,0,0,0,0,-1,1049,498,2.27639,2.07984
-168,526,2.12036,-1.66049,0,0,0,0,0,0,0,-1,1056,498,2.12035,1.66048
-161,526,2.09082,-1.20572,0,0,0,0,0,0,0,-1,1063,498,2.09086,1.2057
-154,526,-1.3446,-5.37799,0,0,0,0,0,0,0,-1,1070,498,-1.34457,5.37799
-147,526,-0.472656,-6.64996,0,0,0,0,0,0,0,-1,1077,498,-0.472659,6.64997
-140,526,0.422852,-8.03339,0,0,0,0,0,0,0,-1,1084,498,0.422844,8.0334
-133,526,1.09583,-9.2215,0,0,0,0,0,0,0,-1,1091,498,1.09581,9.2215
-126,526,3.42529,-2.36053,0,0,0,0,0,0,0,-1,1098,498,3.42523,2.36052
-119,526,2.7771,-0.764099,0,0,0,0,0,0,0,-1,1105,498,2.7771,0.764107
-112,526,2.57715,-1.1893,0,0,0,0,0,0,0,-1,1112,498,2.57718,1.1893
-105,526,0,0,0,0,0,0,0,0,0,-1,1119,498,0,0
-98,526,0,0,0,0,0,0,0,0,0,-1,1126,498,0,0
-91,526,0,0,0,0,0,0,0,0,0,-1,1133,498,0,0
-84,526,0,0,0,0,0,0,0,0,0,-1,1140,498,0,0
-77,526,0,0,0,0,0,0,0,0,0,-1,1147,498,0,0
-70,526,0,0,0,0,0,0,0,0,0,-1,1154,498,0,0
-63,526,0,0,0,0,0,0,0,0,0,-1,1161,498,0,0
-56,526,0,0,0,0,0,0,0,0,0,-1,1168,498,0,0
-49,526,0,0,0,0,0,0,0,0,0,-1,1175,498,0,0
-42,526,0,0,0,0,0,0,0,0,0,-1,1182,498,0,0
-35,526,0,0,0,0,0,0,0,0,0,-1,1189,498,0,0
-28,526,0,0,0,0,0,0,0,0,0,-1,1196,498,0,0
-21,526,0,0,0,0,0,0,0,0,0,-1,1203,498,0,0
-14,526,0,0,0,0,0,0,0,0,0,-1,1210,498,0,0
-7,526,0,0,0,0,0,0,0,0,0,-1,1217,498,0,0
0,526,0,0,0,0,0,0,0,0,0,-1,1224,498,0,0
7,526,0,0,0,0,0,0,0,0,0,-1,1231,498,0,0
14,526,0,0,0,0,0,0,0,0,0,-1,1238,498,0,0
21,526,0,0,0,0,0,0,0,0,0,-1,1245,498,0,0
28,526,0,0,0,0,0,0,0,0,0,-1,1252,498,0,0
35,526,0,0,0,0,0,0,0,0,0,-1,1259,498,0,0
42,526,0,0,0,0,0,0,0,0,0,-1,1266,498,0,0
49,526,0,0,0,0,0,0,0,0,0,-1,1273,498,0,0
56,526,0,0,0,0,0,0,0,0,0,-1,1280,498,0,0
63,526,0,0,0,0,0,0,0,0,0,-1,1287,498,0,0
70,526,0,0,0,0,0,0,0,0,0,-1,1294,498,0,0
77,526,0,0,0,0,0,0,0,0,0,-1,1301,498,0,0
84,526,0,0,0,0,0,0,0,0,0,-1,1308,498,0,0
91,526,0,0,0,0,0,0,0,0,0,-1,1315,498,0,0
98,526,0,0,0,0,0,0,0,0,0,-1,1322,498,0,0
105,526,0,0,0,0,0,0,0,0,0,-1,1329,498,0,0
112,526,0,0,0,0,0,0,0,0,0,-1,1336,498,0,0
119,526,0,0,0,0,0,0,0,0,0,-1,1343,498,0,0
126,526,0,0,0,0,0,0,0,0,0,-1,1350,498,0,0
133,526,0,0,0,0,0,0,0,0,0,-1,1357,498,0,0
140,526,0,0,0,0,0,0,0,0,0,-1,1364,498,0,0
147,526,0,0,0,0,0,0,0,0,0,-1,1371,498,0,0
154,526,0,0,0,0,0,0,0,0,0,-1,1378,498,0,0
161,526,0,0,0,0,0,0,0,0,0,-1,1385,498,0,0
168,526,0,0,0,0,0,0,0,0,0,-1,1392,498,0,0
175,526,0,0,0,0,0,0,0,0,0,-1,1399,498,0,0
182,526,0,0,0,0,0,0,0,0,0,-1,1406,498,0,0
189,526,0,0,0,0,0,0,0,0,0,-1,1413,498,0,0
196,526,0,0,0,0,0,0,0,0,0,-1,1420,498,0,0
203,526,0,0,0,0,0,0,0,0,0,-1,1427,498,0,0
210,526,0,0,0,0,0,0,0,0,0,-1,1434,498,0,0
217,526,0,0,0,0,0,0,0,0,0,-1,1441,498,0,0
224,526,0,0,0,0,0,0,0,0,0,-1,1448,498,0,0
231,526,7.93237,-1.30618,0,0,0,0,0,0,0,-1,1455,498,7.93238,1.30618
238,526,7.97717,-1.08197,0,0,0,0,0,0,0,-1,1462,498,7.97723,1.08196
245,526,7.2793,-0.792938,0,0,0,0,0,0,0,-1,1469,498,7.27931,0.792926
252,526,6.73523,-2.23608,0,0,0,0,0,0,0,-1,1476,498,6.73525,2.23608
259,526,6.22949,-1.84967,0,0,0,0,0,0,0,-1,1483,498,6.22953,1.84968
266,526,5.72375,-1.46329,0,0,0,0,0,0,0,-1,1490,498,5.72381,1.46328
273,526,4.33984,0.49173,0,0,0,0,0,0,0,-1,1497,498,4.33979,-0.491727
280,526,1.4585,-1.59897,0,0,0,0,0,0,0,-1,1504,498,1.45846,1.59895
287,526,1.46411,-2.40134,0,0,0,0,0,0,0,-1,1511,498,1.46406,2.40133
294,526,5.57471,-4.59085,0,0,0,0,0,0,0,-1,1518,498,5.57466,4.59084
301,526,4.42786,-3.99677,0,0,0,0,0,0,0,-1,1525,498,4.42788,3.99676
308,526,5.79529,-4.19366,0,0,0,0,0,0,0,-1,1532,498,5.79528,4.19368
315,526,5.09851,-5.20068,0,0,0,0,0,0,0,-1,1539,498,5.09851,5.20068
322,526,5.50708,-4.72348,0,0,0,0,0,0,0,-1,1546,498,5.50713,4.72347
329,526,3.88672,-4.345,0,0,0,0,0,0,0,-1,1553,498,3.88674,4.34501
336,526,4.97876,-2.23828,0,0,0,0,0,0,0,-1,1560,498,4.97877,2.23828
343,526,3.31665,-2.69696,0,0,0,0,0,0,0,-1,1567,498,3.31667,2.69696
350,526,6.06287,-6.12015,0,0,0,0,0,0,0,-1,1574,498,6.06286,6.12014
357,526,5.79736,-7.7854,0,0,0,0,0,0,0,-1,1581,498,5.79734,7.78539
364,526,9.19458,-20.0209,0,0,0,0,0,0,0,-1,1588,498,9.19461,20.0209
371,526,8.93945,-19.9768,0,0,0,0,0,0,0,-1,1595,498,8.93946,19.9768
378,526,8.67188,-19.6824,0,0,0,0,0,0,0,-1,1602,498,8.67192,19.6823
385,526,8.82092,-19.1254,0,0,0,0,0,0,0,-1,1609,498,8.82096,19.1254
392,526,8.96594,-18.6709,-9.60909e-05,-0.00100003,-0.00184478,0.00135128,-0.0024474,-0.665265,0.00222339,0.0441858,1616,498,8.96589,18.6709
399,526,8.87451,-18.2583,0.00050132,-0.000650636,-0.00127833,0.00132744,-0.00147675,-0.573734,0.00161977,0.0230651,1623,498,8.87451,18.2583
406,526,8.92712,-17.8231,0.000897959,-0.000363464,-0.00080166,0.00128727,-0.00075278,-0.452092,0.00119123,0.0125201,1630,498,8.92707,17.8231
413,526,8.91675,-17.433,0.00119842,0.000260976,-0.000305835,0.00128937,0.000170024,-0.289061,0.000808886,0.0120145,1637,498,8.91677,17.433
420,526,8.88013,-17.0181,0.00137529,0.00075871,0.000111342,0.00139478,0.00073922,0.17329,0.000805762,0.0124966,1644,498,8.88017,17.0181
427,526,8.88306,-16.5851,0.00121255,0.00107774,0.000310524,0.0014629,0.000827386,0.678523,0.000847022,0.0138474,1651,498,8.88302,16.5851
434,526,8.87573,-16.1556,0.000856577,0.00134003,0.000482353,0.00163783,0.000558769,1.01768,0.000961377,0.0127961,1658,498,8.87568,16.1556
441,526,8.86707,-15.725,0.000450582,0.00153522,0.000723123,0.00189679,8.90107e-05,1.10714,0.00123593,0.0118583,1665,498,8.86705,15.725
448,526,8.85144,-15.3192,-1.48673e-05,0.00161615,0.000946087,0.0020497,-0.000448412,1.1411,0.00153788,0.0107154,1672,498,8.8515,15.3192
455,526,8.82788,-14.9172,-0.000488876,0.00161443,0.00117858,0.00214234,-0.00101679,1.14967,0.00186211,0.0128783,1679,498,8.82784,14.9171
462,526,8.83728,-14.468,-0.000980887,0.00135804,0.00147721,0.00207267,-0.00169551,1.12022,0.00217919,0.00949038,1686,498,8.83726,14.468
469,526,8.84448,-14.0331,-0.00164602,0.00105127,0.00185671,0.00199744,-0.0025922,1.0995,0.00265724,0.00736908,1693,498,8.84446,14.0332
476,526,8.82263,-13.5765,-0.0025944,0.000476122,0.00206735,0.00151592,-0.0036342,1.10478,0.00305611,0.00941112,1700,498,8.82267,13.5765
483,526,8.83545,-13.089,-0.00359163,-0.000230301,0.00230124,0.000938653,-0.00476059,1.1008,0.00352847,0.0121228,1707,498,8.83543,13.089
490,526,8.91992,-12.5736,-0.00480648,-0.00121363,0.00257724,0.000131494,-0.0061516,1.08976,0.0041456,0.0234744,1714,498,8.91989,12.5736
497,526,8.80176,-12.2725,-0.00634166,-0.00248239,0.00272548,-0.0010726,-0.00775145,1.09344,0.0048498,0.0313746,1721,498,8.80171,12.2725
504,526,8.86304,-11.8189,-0.00824828,-0.0040147,0.0027753,-0.00264106,-0.00962192,1.1112,0.00574048,0.0367094,1728,498,8.86299,11.8189
511,526,8.97485,-11.4511,-0.0106314,-0.00584893,0.00286304,-0.00450988,-0.0119705,1.13332,0.0069808,0.0431077,1735,498,8.97489,11.4511
518,526,8.84485,-10.7986,-0.0135305,-0.00725494,0.00286234,-0.00614553,-0.01464,1.20104,0.00848857,0.0468463,1742,498,8.84484,10.7986
525,526,8.83154,-10.243,0,0,0,0,0,0,0,-1,1749,498,8.83152,10.243
532,526,3.54285,-2.81274,0,0,0,0,0,0,0,-1,1756,498,3.54284,2.81273
539,526,3.29407,0.932312,0,0,0,0,0,0,0,-1,1763,498,3.2941,-0.93232
546,526,3.36731,1.07721,0,0,0,0,0,0,0,-1,1770,498,3.36735,-1.07719
553,526,3.40796,1.37137,0,0,0,0,0,0,0,-1,1777,498,3.40792,-1.37138
560,526,0,0,0,0,0,0,0,0,0,-1,1784,498,0,0
567,526,0,0,0,0,0,0,0,0,0,-1,1791,498,0,0
574,526,0,0,0,0,0,0,0,0,0,-1,1798,498,0,0
581,526,0,0,0,0,0,0,0,0,0,-1,1805,498,0,0
588,526,0,0,0,0,0,0,0,0,0,-1,1812,498,0,0
595,526,0,0,0,0,0,0,0,0,0,-1,1819,498,0,0
602,526,0,0,0,0,0,0,0,0,0,-1,1826,498,0,0
609,526,0,0,0,0,0,0,0,0,0,-1,1833,498,0,0
616,526,0,0,0,0,0,0,0,0,0,-1,1840,498,0,0
623,526,0,0,0,0,0,0,0,0,0,-1,1847,498,0,0
630,526,0,0,0,0,0,0,0,0,0,-1,1854,498,0,0
637,526,0,0,0,0,0,0,0,0,0,-1,1861,498,0,0
644,526,0,0,0,0,0,0,0,0,0,-1,1868,498,0,0
651,526,0,0,0,0,0,0,0,0,0,-1,1875,498,0,0
658,526,0,0,0,0,0,0,0,0,0,-1,1882,498,0,0
665,526,0,0,0,0,0,0,0,0,0,-1,1889,498,0,0
672,526,0,0,0,0,0,0,0,0,0,-1,1896,498,0,0
679,526,0,0,0,0,0,0,0,0,0,-1,1903,498,0,0
686,526,0,0,0,0,0,0,0,0,0,-1,1910,498,0,0
693,526,0,0,0,0,0,0,0,0,0,-1,1917,498,0,0
700,526,0,0,0,0,0,0,0,0,0,-1,1924,498,0,0
707,526,0,0,0,0,0,0,0,0,0,-1,1931,498,0,0
714,526,0,0,0,0,0,0,0,0,0,-1,1938,498,0,0
721,526,0,0,0,0,0,0,0,0,0,-1,1945,498,0,0
728,526,0,0,0,0,0,0,0,0,0,-1,1952,498,0,0
735,526,0,0,0,0,0,0,0,0,0,-1,1959,498,0,0
742,526,0,0,0,0,0,0,0,0,0,-1,1966,498,0,0
749,526,0,0,0,0,0,0,0,0,0,-1,1973,498,0,0
756,526,0,0,0,0,0,0,0,0,0,-1,1980,498,0,0
763,526,0,0,0,0,0,0,0,0,0,-1,1987,498,0,0
770,526,0,0,0,0,0,0,0,0,0,-1,1994,498,0,0
777,526,0,0,0,0,0,0,0,0,0,-1,2001,498,0,0
784,526,0,0,0,0,0,0,0,0,0,-1,2008,498,0,0
791,526,0,0,0,0,0,0,0,0,0,-1,2015,498,0,0
798,526,0,0,0,0,0,0,0,0,0,-1,2022,498,0,0
805,526,0,0,0,0,0,0,0,0,0,-1,2029,498,0,0
812,526,0,0,0,0,0,0,0,0,0,-1,2036,498,0,0
-700,519,0,0,0,0,0,0,0,0,0,-1,524,505,0,0
-693,519,0,0,0,0,0,0,0,0,0,-1,531,505,0,0
-686,519,0,0,0,0,0,0,0,0,0,-1,538,505,0,0
-679,519,0,0,0,0,0,0,0,0,0,-1,545,505,0,0
-672,519,0,0,0,0,0,0,0,0,0,-1,552,505,0,0
-665,519,0,0,0,0,0,0,0,0,0,-1,559,505,0,0
-658,519,0,0,0,0,0,0,0,0,0,-1,566,505,0,0
-651,519,0,0,0,0,0,0,0,0,0,-1,573,505,0,0
-644,519,0,0,0,0,0,0,0,0,0,-1,580,505,0,0
-637,519,0,0,0,0,0,0,0,0,0,-1,587,505,0,0
-630,519,0,0,0,0,0,0,0,0,0,-1,594,505,0,0
-623,519,0,0,0,0,0,0,0,0,0,-1,601,505,0,0
-616,519,0,0,0,0,0,0,0,0,0,-1,608,505,0,0
-609,519,0,0,0,0,0,0,0,0,0,-1,615,505,0,0
-602,519,0,0,0,0,0,0,0,0,0,-1,622,505,0,0
-595,519,0,0,0,0,0,0,0,0,0,-1,629,505,0,0
-588,519,0,0,0,0,0,0,0,0,0,-1,636,505,0,0
-581,519,0,0,0,0,0,0,0,0,0,-1,643,505,0,0
-574,519,0,0,0,0,0,0,0,0,0,-1,650,505,0,0
-567,519,0,0,0,0,0,0,0,0,0,-1,657,505,0,0
-560,519,0,0,0,0,0,0,0,0,0,-1,664,505,0,0
-553,519,0,0,0,0,0,0,0,0,0,-1,671,505,0,0
-546,519,0,0,0,0,0,0,0,0,0,-1,678,505,0,0
-539,519,0,0,0,0,0,0,0,0,0,-1,685,505,0,0
-532,519,0,0,0,0,0,0,0,0,0,-1,692,505,0,0
-525,519,0,0,0,0,0,0,0,0,0,-1,699,505,0,0
-518,519,0,0,0,0,0,0,0,0,0,-1,706,505,0,0
-511,519,0,0,0,0,0,0,0,0,0,-1,713,505,0,0
-504,519,0,0,0,0,0,0,0,0,0,-1,720,505,0,0
-497,519,0,0,0,0,0,0,0,0,0,-1,727,505,0,0
-490,519,0,0,0,0,0,0,0,0,0,-1,734,505,0,0
-483,519,0,0,0,0,0,0,0,0,0,-1,741,505,0,0
-476,519,0,0,0,0,0,0,0,0,0,-1,748,505,0,0
-469,519,0,0,0,0,0,0,0,0,0,-1,755,505,0,0
-462,519,0,0,0,0,0,0,0,0,0,-1,762,505,0,0
-455,519,0,0,0,0,0,0,0,0,0,-1,769,505,0,0
-448,519,0,0,0,0,0,0,0,0,0,-1,776,505,0,0
-441,519,1.34839,-5.29346,0,0,0,0,0,0,0,-1,783,505,1.3484,5.29347
-434,519,0.949585,-5.77313,0,0,0,0,0,0,0,-1,790,505,0.949598,5.77315
-427,519,-0.0523682,-9.31567,0,0,0,0,0,0,0,-1,797,505,-0.0523854,9.31568
-420,519,-0.735046,-7.4032,0,0,0,0,0,0,0,-1,804,505,-0.735049,7.40321
-413,519,-1.03705,-8.56927,0,0,0,0,0,0,0,-1,811,505,-1.03705,8.56927
-406,519,-0.948914,-9.67413,0,0,0,0,0,0,0,-1,818,505,-0.948899,9.67416
-399,519,-0.955688,-10.7837,0,0,0,0,0,0,0,-1,825,505,-0.955693,10.7837
-392,519,-0.920898,-12.0543,0,0,0,0,0,0,0,-1,832,505,-0.920922,12.0542
-385,519,-1.00323,-12.499,0.00298857,0.0153217,-0.0118408,0.0225055,-0.00419524,-1.02547,0.0165799,0.0473461,839,505,-1.00326,12.499
-378,519,-0.940125,-13.0592,0.00203316,0.0110918,-0.00891144,0.0165589,-0.00343394,-1.02052,0.0123442,0.0300925,846,505,-0.940142,13.0592
-371,519,-0.858582,-13.5333,0.00151359,0.00817491,-0.00667552,0.0123045,-0.00261604,-1.0168,0.00919986,0.0170822,853,505,-0.858554,13.5333
-364,519,-0.869812,-14.0403,0.00108442,0.00597444,-0.00494052,0.00904185,-0.001983,-1.01517,0.00678617,0.0101507,860,505,-0.869839,14.0403
-357,519,-0.847351,-14.5037,0.000793922,0.00443355,-0.00369111,0.00672908,-0.0015016,-1.01442,0.00506139,0.00946071,867,505,-0.847373,14.5036
-350,519,-0.877014,-14.9213,0.000562038,0.0030585,-0.0026277,0.00471937,-0.00109883,-1.00713,0.00356936,0.0118538,874,505,-0.877017,14.9213
-343,519,-0.921143,-15.3386,0.000427135,0.00204164,-0.0017801,0.00318898,-0.000720202,-0.998273,0.00240231,0.0157196,881,505,-0.921121,15.3386
-336,519,-0.949219,-15.7762,0.000571292,0.00157563,-0.00136453,0.00252746,-0.000380538,-0.961715,0.00182509,0.0154878,888,505,-0.949232,15.7763
-329,519,-0.941833,-16.1882,0.000731668,0.00113043,-0.00102139,0.00197171,-0.000109618,-0.881788,0.0013525,0.0131995,895,505,-0.941818,16.1882
-322,519,-0.926147,-16.5905,0.000871824,0.00077423,-0.000775175,0.00159974,4.63179e-05,-0.753965,0.00105139,0.0113401,902,505,-0.926151,16.5905
-315,519,-0.938416,-17.0121,0.00105617,0.000478602,-0.000516923,0.0013595,0.000175265,-0.530666,0.000853931,0.00934578,909,505,-0.93843,17.0121
-308,519,-0.964844,-17.4435,0.00127641,0.000108435,-0.000240745,0.00132409,6.07583e-05,-0.195508,0.000863186,0.00749249,916,505,-0.964829,17.4435
-301,519,-0.974731,-17.8113,0.00141683,-0.000462164,0.000189007,0.00143566,-0.000480988,0.0992644,0.00115142,0.0115387,923,505,-0.974721,17.8113
-294,519,-0.984253,-18.1437,0.00148888,-0.00146516,0.000869111,0.00172561,-0.00170189,0.265931,0.00197889,0.014272,930,505,-0.984266,18.1436
-287,519,-1.00665,-18.5668,0.00168914,-0.00240865,0.00147596,0.0021654,-0.00288491,0.312133,0.00292565,0.0109057,937,505,-1.00667,18.5668
-280,519,-1.01617,-18.9598,0.00164252,-0.00398532,0.00214742,0.00236832,-0.00471111,0.32593,0.00416124,0.0166254,944,505,-1.01615,18.9598
-273,519,-0.953979,-19.3555,0.00148301,-0.00638335,0.00322382,0.00263539,-0.00753573,0.343303,0.00609525,0.0283688,951,505,-0.954002,19.3555
-266,519,-1.01031,-19.7238,0.00190035,-0.00927218,0.00459372,0.00354656,-0.0109184,0.344103,0.00870534,0.0410075,958,505,-1.01033,19.7238
-259,519,-0.888245,-20.0389,0,0,0,0,0,0,0,-1,965,505,-0.888261,20.0389
-252,519,-1.09467,-20.0578,0,0,0,0,0,0,0,-1,972,505,-1.09466,20.0578
-245,519,-1.22815,-19.7674,0,0,0,0,0,0,0,-1,979,505,-1.22813,19.7674
-238,519,0.523621,-16.4753,0,0,0,0,0,0,0,-1,986,505,0.523651,16.4753
-231,519,0.337585,-11.2798,0,0,0,0,0,0,0,-1,993,505,0.337568,11.2798
-224,519,-0.0494995,-7.97394,0,0,0,0,0,0,0,-1,1000,505,-0.0495123,7.97392
-217,519,-2.97125,-4.84393,0,0,0,0,0,0,0,-1,1007,505,-2.97128,4.84393
-210,519,-2.14398,-4.74774,0,0,0,0,0,0,0,-1,1014,505,-2.14397,4.74775
-203,519,-0.513611,-5.39017,0,0,0,0,0,0,0,-1,1021,505,-0.513585,5.39017
-196,519,-0.374023,-5.41635,0,0,0,0,0,0,0,-1,1028,505,-0.374047,5.41635
-189,519,-0.234497,-5.44254,0,0,0,0,0,0,0,-1,1035,505,-0.234508,5.44253
-182,519,2.76697,-1.19659,0,0,0,0,0,0,0,-1,1042,505,2.76696,1.19661
-175,519,2.31323,-0.960938,0,0,0,0,0,0,0,-1,1049,505,2.31319,0.960941
-168,519,2.01074,-0.721405,0,0,0,0,0,0,0,-1,1056,505,2.01072,0.721407
-161,519,2.32056,-0.522339,0,0,0,0,0,0,0,-1,1063,505,2.32057,0.522328
-154,519,2.55566,0.116669,0,0,0,0,0,0,0,-1,1070,505,2.55563,-0.116661
-147,519,-0.55127,-6.14001,0,0,0,0,0,0,0,-1,1077,505,-0.551252,6.14001
-140,519,0.240601,-7.53503,0,0,0,0,0,0,0,-1,1084,505,0.240653,7.53501
-133,519,2.70911,-4.4516,0,0,0,0,0,0,0,-1,1091,505,2.70915,4.45161
-126,519,0,0,0,0,0,0,0,0,0,-1,1098,505,0,0
-119,519,0,0,0,0,0,0,0,0,0,-1,1105,505,0,0
-112,519,0,0,0,0,0,0,0,0,0,-1,1112,505,0,0
-105,519,0,0,0,0,0,0,0,0,0,-1,1119,505,0,0
-98,519,0,0,0,0,0,0,0,0,0,-1,1126,505,0,0
-91,519,0,0,0,0,0,0,0,0,0,-1,1133,505,0,0
-84,519,0,0,0,0,0,0,0,0,0,-1,1140,505,0,0
-77,519,0,0,0,0,0,0,0,0,0,-1,1147,505,0,0
-70,519,0,0,0,0,0,0,0,0,0,-1,1154,505,0,0
-63,519,0,0,0,0,0,0,0,0,0,-1,1161,505,0,0
-56,519,0,0,0,0,0,0,0,0,0,-1,1168,505,0,0
-49,519,0,0,0,0,0,0,0,0,0,-1,1175,505,0,0
-42,519,0,0,0,0,0,0,0,0,0,-1,1182,505,0,0
-35,519,0,0,0,0,0,0,0,0,0,-1,1189,505,0,0
-28,519,0,0,0,0,0,0,0,0,0,-1,1196,505,0,0
-21,519,0,0,0,0,0,0,0,0,0,-1,1203,505,0,0
-14,519,0,0,0,0,0,0,0,0,0,-1,1210,505,0,0
-7,519,0,0,0,0,0,0,0,0,0,-1,1217,505,0,0
0,519,0,0,0,0,0,0,0,0,0,-1,1224,505,0,0
7,519,0,0,0,0,0,0,0,0,0,-1,1231,505,0,0
14,519,0,0,0,0,0,0,0,0,0,-1,1238,505,0,0
21,519,0,0,0,0,0,0,0,0,0,-1,1245,505,0,0
28,519,0,0,0,0,0,0,0,0,0,-1,1252,505,0,0
35,519,0,0,0,0,0,0,0,0,0,-1,1259,505,0,0
42,519,0,0,0,0,0,0,0,0,0,-1,1266,505,0,0
49,519,0,0,0,0,0,0,0,0,0,-1,1273,505,0,0
56,519,0,0,0,0,0,0,0,0,0,-1,1280,505,0,0
63,519,0,0,0,0,0,0,0,0,0,-1,1287,505,0,0
70,519,0,0,0,0,0,0,0,0,0,-1,1294,505,0,0
77,519,0,0,0,0,0,0,0,0,0,-1,1301,505,0,0
84,519,0,0,0,0,0,0,0,0,0,-1,1308,505,0,0
91,519,0,0,0,0,0,0,0,0,0,-1,1315,505,0,0
98,519,0,0,0,0,0,0,0,0,0,-1,1322,505,0,0
105,519,0,0,0,0,0,0,0,0,0,-1,1329,505,0,0
112,519,0,0,0,0,0,0,0,0,0,-1,1336,505,0,0
119,519,0,0,0,0,0,0,0,0,0,-1,1343,505,0,0
126,519,0,0,0,0,0,0,0,0,0,-1,1350,505,0,0
133,519,0,0,0,0,0,0,0,0,0,-1,1357,505,0,0
140,519,0,0,0,0,0,0,0,0,0,-1,1364,505,0,0
147,519,0,0,0,0,0,0,0,0,0,-1,1371,505,0,0
154,519,0,0,0,0,0,0,0,0,0,-1,1378,505,0,0
161,519,0,0,0,0,0,0,0,0,0,-1,1385,505,0,0
168,519,0,0,0,0,0,0,0,0,0,-1,1392,505,0,0
175,519,0,0,0,0,0,0,0,0,0,-1,1399,505,0,0
182,519,0,0,0,0,0,0,0,0,0,-1,1406,505,0,0
189,519,0,0,0,0,0,0,0,0,0,-1,1413,505,0,0
196,519,0,0,0,0,0,0,0,0,0,-1,1420,505,0,0
203,519,0,0,0,0,0,0,0,0,0,-1,1427,505,0,0
210,519,0,0,0,0,0,0,0,0,0,-1,1434,505,0,0
217,519,0,0,0,0,0,0,0,0,0,-1,1441,505,0,0
224,519,0,0,0,0,0,0,0,0,0,-1,1448,505,0,0
231,519,0,0,0,0,0,0,0,0,0,-1,1455,505,0,0
238,519,0,0,0,0,0,0,0,0,0,-1,1462,505,0,0
245,519,0,0,0,0,0,0,0,0,0,-1,1469,505,0,0
252,519,5.26208,0.0938416,0,0,0,0,0,0,0,-1,1476,505,5.26207,-0.0938493
259,519,6.14246,-1.36441,0,0,0,0,0,0,0,-1,1483,505,6.14241,1.36441
266,519,5.31909,-0.400787,0,0,0,0,0,0,0,-1,1490,505,5.31912,0.400773
273,519,4.02393,0.325531,0,0,0,0,0,0,0,-1,1497,505,4.0239,-0.325522
280,519,4.68848,0.53006,0,0,0,0,0,0,0,-1,1504,505,4.68842,-0.530073
287,519,7.9519,-3.80801,0,0,0,0,0,0,0,-1,1511,505,7.95193,3.808
294,519,6.92273,-3.38889,0,0,0,0,0,0,0,-1,1518,505,6.92268,3.38888
301,519,5.35669,-2.92661,0,0,0,0,0,0,0,-1,1525,505,5.35675,2.9266
308,519,7.37549,-5.64529,0,0,0,0,0,0,0,-1,1532,505,7.3755,5.64529
315,519,6.30029,-4.53754,0,0,0,0,0,0,0,-1,1539,505,6.30024,4.53753
322,519,5.84302,-5.45117,0,0,0,0,0,0,0,-1,1546,505,5.84303,5.45116
329,519,4.92407,0.62384,0,0,0,0,0,0,0,-1,1553,505,4.92403,-0.623832
336,519,3.10095,-0.329285,0,0,0,0,0,0,0,-1,1560,505,3.1009,0.329283
343,519,2.49146,-2.31119,0,0,0,0,0,0,0,-1,1567,505,2.49145,2.31119
350,519,3.47729,-2.22516,0,0,0,0,0,0,0,-1,1574,505,3.47726,2.22515
357,519,4.51917,-4.51691,0,0,0,0,0,0,0,-1,1581,505,4.51914,4.51691
364,519,3.54626,-7.20673,0,0,0,0,0,0,0,-1,1588,505,3.54622,7.20675
371,519,5.349,-8.20068,0,0,0,0,0,0,0,-1,1595,505,5.34898,8.20068
378,519,6.36597,-10.0967,0,0,0,0,0,0,0,-1,1602,505,6.36597,10.0967
385,519,6.24756,-9.72186,0,0,0,0,0,0,0,-1,1609,505,6.24752,9.72183
392,519,9.18066,-18.9354,0,0,0,0,0,0,0,-1,1616,505,9.18063,18.9354
399,519,9.17725,-18.2988,0,0,0,0,0,0,0,-1,1623,505,9.17719,18.2988
406,519,9.27588,-17.8397,0.00100493,-0.000716396,-0.00135015,0.0017454,-0.00145687,-0.501644,0.00185133,0.0346572,1630,505,9.27585,17.8397
413,519,9.33691,-17.4244,0.00146914,-0.000124411,-0.00076172,0.00177466,-0.000429938,-0.381455,0.00134945,0.0144286,1637,505,9.33697,17.4244
420,519,9.30017,-17.003,0.00179671,0.000346031,-0.000290485,0.00185272,0.000290027,-0.190461,0.00115072,0.0145519,1644,505,9.30021,17.003
427,519,9.31165,-16.5994,0.00175433,0.000607506,-7.43686e-05,0.00175913,0.000602704,-0.0644876,0.00103227,0.0143199,1651,505,9.31168,16.5994
434,519,9.31323,-16.1685,0.00141763,0.000844869,0.000110338,0.00143815,0.000824349,0.18388,0.000833276,0.0131665,1658,505,9.31318,16.1685
441,519,9.27942,-15.728,0.00106843,0.00103868,0.000337577,0.00139146,0.000715654,0.763382,0.000803471,0.0126819,1665,505,9.27946,15.728
448,519,9.27063,-15.313,0.000714932,0.00110947,0.000566425,0.00151199,0.000312406,0.952964,0.000921681,0.00968111,1672,505,9.2706,15.313
455,519,9.26587,-14.9064,0.000303539,0.00113032,0.000772229,0.00159284,-0.000158987,1.03115,0.00111866,0.0102454,1679,505,9.2659,14.9064
462,519,9.27551,-14.4784,-0.000121167,0.000958951,0.001025,0.00157746,-0.000739679,1.02786,0.00136664,0.00992745,1686,505,9.27549,14.4784
469,519,9.2821,-14.0309,-0.000678057,0.000729181,0.00135143,0.00154919,-0.00149807,1.02541,0.00175942,0.0106239,1693,505,9.28213,14.031
476,519,9.26843,-13.5662,-0.00150377,0.000267666,0.00152981,0.00114967,-0.00238577,1.04781,0.00208236,0.012532,1700,505,9.26844,13.5663
483,519,9.23938,-13.1082,-0.00239103,-0.000303596,0.0016943,0.000642659,-0.00333729,1.06146,0.00246714,0.0132438,1707,505,9.2394,13.1081
490,519,9.2262,-12.6339,-0.00348869,-0.00109643,0.00186162,-7.97845e-05,-0.00450533,1.07095,0.00297732,0.011915,1714,505,9.22616,12.6338
497,519,9.22546,-12.2015,-0.00482951,-0.00206354,0.00195046,-0.00105551,-0.00583753,1.09379,0.00359192,0.0149784,1721,505,9.2255,12.2015
504,519,9.2063,-11.7251,-0.00648119,-0.00320631,0.00192428,-0.00231708,-0.00737042,1.13792,0.00435197,0.0150476,1728,505,9.2063,11.7251
511,519,9.19507,-11.2539,-0.00855113,-0.00450908,0.00186534,-0.00377983,-0.00928039,1.19812,0.00538865,0.0207375,1735,505,9.19506,11.2539
518,519,9.1084,-10.8527,-0.0110579,-0.00558417,0.00167417,-0.00511271,-0.0115293,1.2963,0.00667064,0.0406552,1742,505,9.10838,10.8526
525,519,9.11218,-10.5067,0,0,0,0,0,0,0,-1,1749,505,9.1122,10.5067
532,519,3.5155,-2.86511,0,0,0,0,0,0,0,-1,1756,505,3.51554,2.8651
539,519,3.30005,0.0229797,0,0,0,0,0,0,0,-1,1763,505,3.30008,-0.0229869
546,519,4.62024,-2.89774,0,0,0,0,0,0,0,-1,1770,505,4.62023,2.89775
553,519,4.14136,0.0667419,0,0,0,0,0,0,0,-1,1777,505,4.14141,-0.0667503
560,519,3.77856,0.279724,0,0,0,0,0,0,0,-1,1784,505,3.77861,-0.279731
567,519,0,0,0,0,0,0,0,0,0,-1,1791,505,0,0
574,519,0,0,0,0,0,0,0,0,0,-1,1798,505,0,0
581,519,0,0,0,0,0,0,0,0,0,-1,1805,505,0,0
588,519,0,0,0,0,0,0,0,0,0,-1,1812,505,0,0
595,519,0,0,0,0,0,0,0,0,0,-1,1819,505,0,0
602,519,0,0,0,0,0,0,0,0,0,-1,1826,505,0,0
609,519,0,0,0,0,0,0,0,0,0,-1,1833,505,0,0
616,519,0,0,0,0,0,0,0,0,0,-1,1840,505,0,0
623,519,0,0,0,0,0,0,0,0,0,-1,1847,505,0,0
630,519,0,0,0,0,0,0,0,0,0,-1,1854,505,0,0
637,519,0,0,0,0,0,0,0,0,0,-1,1861,505,0,0
644,519,0,0,0,0,0,0,0,0,0,-1,1868,505,0,0
651,519,0,0,0,0,0,0,0,0,0,-1,1875,505,0,0
658,519,0,0,0,0,0,0,0,0,0,-1,1882,505,0,0
665,519,0,0,0,0,0,0,0,0,0,-1,1889,505,0,0
672,519,0,0,0,0,0,0,0,0,0,-1,1896,505,0,0
679,519,0,0,0,0,0,0,0,0,0,-1,1903,505,0,0
686,519,0,0,0,0,0,0,0,0,0,-1,1910,505,0,0
693,519,0,0,0,0,0,0,0,0,0,-1,1917,505,0,0
700,519,0,0,0,0,0,0,0,0,0,-1,1924,505,0,0
707,519,0,0,0,0,0,0,0,0,0,-1,1931,505,0,0
714,519,0,0,0,0,0,0,0,0,0,-1,1938,505,0,0
721,519,0,0,0,0,0,0,0,0,0,-1,1945,505,0,0
728,519,0,0,0,0,0,0,0,0,0,-1,1952,505,0,0
735,519,0,0,0,0,0,0,0,0,0,-1,1959,505,0,0
742,519,0,0,0,0,0,0,0,0,0,-1,1966,505,0,0
749,519,0,0,0,0,0,0,0,0,0,-1,1973,505,0,0
756,519,0,0,0,0,0,0,0,0,0,-1,1980,505,0,0
763,519,0,0,0,0,0,0,0,0,0,-1,1987,505,0,0
770,519,0,0,0,0,0,0,0,0,0,-1,1994,505,0,0
777,519,0,0,0,0,0,0,0,0,0,-1,2001,505,0,0
784,519,0,0,0,0,0,0,0,0,0,-1,2008,505,0,0
791,519,0,0,0,0,0,0,0,0,0,-1,2015,505,0,0
798,519,0,0,0,0,0,0,0,0,0,-1,2022,505,0,0
805,519,0,0,0,0,0,0,0,0,0,-1,2029,505,0,0
812,519,0,0,0,0,0,0,0,0,0,-1,2036,505,0,0
-700,512,0,0,0,0,0,0,0,0,0,-1,524,512,0,0
-693,512,0,0,0,0,0,0,0,0,0,-1,531,512,0,0
-686,512,0,0,0,0,0,0,0,0,0,-1,538,512,0,0
-679,512,0,0,0,0,0,0,0,0,0,-1,545,512,0,0
-672,512,0,0,0,0,0,0,0,0,0,-1,552,512,0,0
-665,512,0,0,0,0,0,0,0,0,0,-1,559,512,0,0
-658,512,0,0,0,0,0,0,0,0,0,-1,566,512,0,0
-651,512,0,0,0,0,0,0,0,0,0,-1,573,512,0,0
-644,512,0,0,0,0,0,0,0,0,0,-1,580,512,0,0
-637,512,0,0,0,0,0,0,0,0,0,-1,587,512,0,0
-630,512,0,0,0,0,0,0,0,0,0,-1,594,512,0,0
-623,512,0,0,0,0,0,0,0,0,0,-1,601,512,0,0
-616,512,0,0,0,0,0,0,0,0,0,-1,608,512,0,0
-609,512,0,0,0,0,0,0,0,0,0,-1,615,512,0,0
-602,512,0,0,0,0,0,0,0,0,0,-1,622,512,0,0
-595,512,0,0,0,0,0,0,0,0,0,-1,629,512,0,0
-588,512,0,0,0,0,0,0,0,0,0,-1,636,512,0,0
-581,512,0,0,0,0,0,0,0,0,0,-1,643,512,0,0
-574,512,0,0,0,0,0,0,0,0,0,-1,650,512,0,0
-567,512,0,0,0,0,0,0,0,0,0,-1,657,512,0,0
-560,512,0,0,0,0,0,0,0,0,0,-1,664,512,0,0
-553,512,0,0,0,0,0,0,0,0,0,-1,671,512,0,0
-546,512,0,0,0,0,0,0,0,0,0,-1,678,512,0,0
-539,512,0,0,0,0,0,0,0,0,0,-1,685,512,0,0
-532,512,0,0,0,0,0,0,0,0,0,-1,692,512,0,0
-525,512,0,0,0,0,0,0,0,0,0,-1,699,512,0,0
-518,512,0,0,0,0,0,0,0,0,0,-1,706,512,0,0
-511,512,0,0,0,0,0,0,0,0,0,-1,713,512,0,0
-504,512,0,0,0,0,0,0,0,0,0,-1,720,512,0,0
-497,512,0,0,0,0,0,0,0,0,0,-1,727,512,0,0
-490,512,0,0,0,0,0,0,0,0,0,-1,734,512,0,0
-483,512,0,0,0,0,0,0,0,0,0,-1,741,512,0,0
-476,512,0,0,0,0,0,0,0,0,0,-1,748,512,0,0
-469,512,0,0,0,0,0,0,0,0,0,-1,755,512,0,0
-462,512,0,0,0,0,0,0,0,0,0,-1,762,512,0,0
-455,512,0,0,0,0,0,0,0,0,0,-1,769,512,0,0
-448,512,1.96283,-4.15674,0,0,0,0,0,0,0,-1,776,512,1.96285,4.15677
-441,512,1.78198,-4.88824,0,0,0,0,0,0,0,-1,783,512,1.78201,4.88826
-434,512,0.0726929,-9.85822,0,0,0,0,0,0,0,-1,790,512,0.0727008,9.85819
-427,512,-0.384583,-9.94824,0,0,0,0,0,0,0,-1,797,512,-0.384552,9.94823
-420,512,-1.6001,-8.48761,0,0,0,0,0,0,0,-1,804,512,-1.60008,8.48761
-413,512,-1.56531,-9.23572,0,0,0,0,0,0,0,-1,811,512,-1.56534,9.23571
-406,512,-1.45514,-10.1093,0,0,0,0,0,0,0,-1,818,512,-1.45515,10.1093
-399,512,-1.49304,-10.769,0,0,0,0,0,0,0,-1,825,512,-1.49303,10.7691
-392,512,-1.065,-12.0885,0.00366669,0.0184564,-0.0131587,0.0261558,-0.0040327,-1.04139,0.0189252,0.0381535,832,512,-1.06499,12.0885
-385,512,-1.23669,-12.6862,0.00255054,0.0135479,-0.0100937,0.0195435,-0.00344503,-1.03481,0.0143162,0.0186212,839,512,-1.23671,12.6862
-378,512,-1.27405,-13.1276,0.00188648,0.00982912,-0.0076858,0.014509,-0.00279338,-1.02386,0.0107257,0.0141188,846,512,-1.27405,13.1276
-371,512,-1.26019,-13.5957,0.00145897,0.00699593,-0.00576558,0.0106233,-0.00216836,-1.00923,0.00790473,0.0116801,853,512,-1.26021,13.5957
-364,512,-1.27222,-14.0857,0.00112508,0.00484769,-0.00420482,0.00758475,-0.00161198,-0.993765,0.00567072,0.00877843,860,512,-1.27223,14.0857
-357,512,-1.26886,-14.5264,0.000942852,0.00336889,-0.00304744,0.00543586,-0.00112411,-0.974809,0.00405094,0.00998461,867,512,-1.26888,14.5264
-350,512,-1.29828,-14.9419,0.000813564,0.00206972,-0.0020854,0.00361957,-0.00073629,-0.931666,0.00269225,0.0114725,874,512,-1.29827,14.9419
-343,512,-1.34344,-15.3552,0.000756649,0.00113104,-0.00132817,0.00228514,-0.000397454,-0.855409,0.00167174,0.0127613,881,512,-1.34343,15.3552
-336,512,-1.35315,-15.7917,0.000941032,0.000698946,-0.000960647,0.00178823,-0.000148254,-0.722728,0.00124452,0.0131913,888,512,-1.35315,15.7917
-329,512,-1.33685,-16.1852,0.00117365,0.000327404,-0.000705071,0.00157281,-7.17624e-05,-0.515147,0.00107326,0.0142647,895,512,-1.33684,16.1852
-322,512,-1.3382,-16.5933,0.00138345,3.75415e-05,-0.000528105,0.00156593,-0.000144935,-0.332687,0.00109547,0.0118499,902,512,-1.33821,16.5933
-315,512,-1.35144,-17.0231,0.00162137,-0.000216284,-0.000331998,0.00167952,-0.000274424,-0.173365,0.00122147,0.0103132,909,512,-1.35143,17.0231
-308,512,-1.37305,-17.4343,0.00188985,-0.000582274,-9.4213e-05,0.00189343,-0.000585859,-0.0380366,0.00149631,0.0107073,916,512,-1.37303,17.4343
-301,512,-1.37848,-17.8094,0.00206195,-0.0010794,0.000287035,0.00208796,-0.00110541,0.0903759,0.00187256,0.0151027,923,512,-1.37849,17.8094
-294,512,-1.37903,-18.1628,0.00208673,-0.00206347,0.000958629,0.00229746,-0.00227419,0.216381,0.00263946,0.0148742,930,512,-1.37901,18.1628
-287,512,-1.44598,-18.5036,0.00225029,-0.00303137,0.00152991,0.00266145,-0.00344252,0.26254,0.00353373,0.0231554,937,512,-1.44601,18.5036
-280,512,-1.33698,-18.9433,0.00211371,-0.00482288,0.0022677,0.00278927,-0.00549844,0.289533,0.00486938,0.0380827,944,512,-1.33699,18.9433
-273,512,-1.18176,-19.3859,0,0,0,0,0,0,0,-1,951,512,-1.18177,19.3859
-266,512,-1.3877,-19.7903,0,0,0,0,0,0,0,-1,958,512,-1.38771,19.7903
-259,512,-0.525452,-14.0815,0,0,0,0,0,0,0,-1,965,512,-0.525475,14.0815
-252,512,1.45941,-3.43475,0,0,0,0,0,0,0,-1,972,512,1.45938,3.43475
-245,512,4.12927,-11.272,0,0,0,0,0,0,0,-1,979,512,4.1293,11.272
-238,512,0.227051,-8.92969,0,0,0,0,0,0,0,-1,986,512,0.227073,8.92968
-231,512,-2.54437,-10.169,0,0,0,0,0,0,0,-1,993,512,-2.54439,10.169
-224,512,-4.84601,-7.52783,0,0,0,0,0,0,0,-1,1000,512,-4.84602,7.52786
-217,512,-7.37274,-3.89563,0,0,0,0,0,0,0,-1,1007,512,-7.37274,3.89561
-210,512,-3.76642,-1.94702,0,0,0,0,0,0,0,-1,1014,512,-3.76641,1.94702
-203,512,-2.48328,-5.19061,0,0,0,0,0,0,0,-1,1021,512,-2.48328,5.19059
-196,512,-1.14929,-4.63202,0,0,0,0,0,0,0,-1,1028,512,-1.14934,4.632
-189,512,0.197998,4.55505,0,0,0,0,0,0,0,-1,1035,512,0.197996,-4.55506
-182,512,2.73938,0.0778503,0,0,0,0,0,0,0,-1,1042,512,2.73944,-0.077852
-175,512,2.29565,0.209808,0,0,0,0,0,0,0,-1,1049,512,2.29565,-0.209813
-168,512,2.09399,-0.302856,0,0,0,0,0,0,0,-1,1056,512,2.09403,0.302826
-161,512,2.76636,0.0921021,0,0,0,0,0,0,0,-1,1063,512,2.76633,-0.0921104
-154,512,3.41382,0.466187,0,0,0,0,0,0,0,-1,1070,512,3.41382,-0.466178
-147,512,0,0,0,0,0,0,0,0,0,-1,1077,512,0,0
-140,512,0,0,0,0,0,0,0,0,0,-1,1084,512,0,0
-133,512,0,0,0,0,0,0,0,0,0,-1,1091,512,0,0
-126,512,0,0,0,0,0,0,0,0,0,-1,1098,512,0,0
-119,512,0,0,0,0,0,0,0,0,0,-1,1105,512,0,0
-112,512,0,0,0,0,0,0,0,0,0,-1,1112,512,0,0
-105,512,0,0,0,0,0,0,0,0,0,-1,1119,512,0,0
-98,512,0,0,0,0,0,0,0,0,0,-1,1126,512,0,0
-91,512,0,0,0,0,0,0,0,0,0,-1,1133,512,0,0
-84,512,0,0,0,0,0,0,0,0,0,-1,1140,512,0,0
-77,512,0,0,0,0,0,0,0,0,0,-1,1147,512,0,0
-70,512,0,0,0,0,0,0,0,0,0,-1,1154,512,0,0
-63,512,0,0,0,0,0,0,0,0,0,-1,1161,512,0,0
-56,512,0,0,0,0,0,0,0,0,0,-1,1168,512,0,0
-49,512,0,0,0,0,0,0,0,0,0,-1,1175,512,0,0
-42,512,0,0,0,0,0,0,0,0,0,-1,1182,512,0,0
-35,512,0,0,0,0,0,0,0,0,0,-1,1189,512,0,0
-28,512,0,0,0,0,0,0,0,0,0,-1,1196,512,0,0
-21,512,0,0,0,0,0,0,0,0,0,-1,1203,512,0,0
-14,512,0,0,0,0,0,0,0,0,0,-1,1210,512,0,0
-7,512,0,0,0,0,0,0,0,0,0,-1,1217,512,0,0
0,512,0,0,0,0,0,0,0,0,0,-1,1224,512,0,0
7,512,0,0,0,0,0,0,0,0,0,-1,1231,512,0,0
14,512,0,0,0,0,0,0,0,0,0,-1,1238,512,0,0
21,512,0,0,0,0,0,0,0,0,0,-1,1245,512,0,0
28,512,0,0,0,0,0,0,0,0,0,-1,1252,512,0,0
35,512,0,0,0,0,0,0,0,0,0,-1,1259,512,0,0
42,512,0,0,0,0,0,0,0,0,0,-1,1266,512,0,0
49,512,0,0,0,0,0,0,0,0,0,-1,1273,512,0,0
56,512,0,0,0,0,0,0,0,0,0,-1,1280,512,0,0
63,512,0,0,0,0,0,0,0,0,0,-1,1287,512,0,0
70,512,0,0,0,0,0,0,0,0,0,-1,1294,512,0,0
77,512,0,0,0,0,0,0,0,0,0,-1,1301,512,0,0
84,512,0,0,0,0,0,0,0,0,0,-1,1308,512,0,0
91,512,0,0,0,0,0,0,0,0,0,-1,1315,512,0,0
98,512,0,0,0,0,0,0,0,0,0,-1,1322,512,0,0
105,512,0,0,0,0,0,0,0,0,0,-1,1329,512,0,0
112,512,0,0,0,0,0,0,0,0,0,-1,1336,512,0,0
119,512,0,0,0,0,0,0,0,0,0,-1,1343,512,0,0
126,512,0,0,0,0,0,0,0,0,0,-1,1350,512,0,0
133,512,0,0,0,0,0,0,0,0,0,-1,1357,512,0,0
140,512,0,0,0,0,0,0,0,0,0,-1,1364,512,0,0
147,512,0,0,0,0,0,0,0,0,0,-1,1371,512,0,0
154,512,0,0,0,0,0,0,0,0,0,-1,1378,512,0,0
161,512,0,0,0,0,0,0,0,0,0,-1,1385,512,0,0
168,512,0,0,0,0,0,0,0,0,0,-1,1392,512,0,0
175,512,0,0,0,0,0,0,0,0,0,-1,1399,512,0,0
182,512,0,0,0,0,0,0,0,0,0,-1,1406,512,0,0
189,512,0,0,0,0,0,0,0,0,0,-1,1413,512,0,0
196,512,0,0,0,0,0,0,0,0,0,-1,1420,512,0,0
203,512,0,0,0,0,0,0,0,0,0,-1,1427,512,0,0
210,512,0,0,0,0,0,0,0,0,0,-1,1434,512,0,0
217,512,0,0,0,0,0,0,0,0,0,-1,1441,512,0,0
224,512,0,0,0,0,0,0,0,0,0,-1,1448,512,0,0
231,512,0,0,0,0,0,0,0,0,0,-1,1455,512,0,0
238,512,0,0,0,0,0,0,0,0,0,-1,1462,512,0,0
245,512,0,0,0,0,0,0,0,0,0,-1,1469,512,0,0
252,512,0,0,0,0,0,0,0,0,0,-1,1476,512,0,0
259,512,0,0,0,0,0,0,0,0,0,-1,1483,512,0,0
266,512,0,0,0,0,0,0,0,0,0,-1,1490,512,0,0
273,512,4.00745,0.618622,0,0,0,0,0,0,0,-1,1497,512,4.00747,-0.618611
280,512,4.49609,0.649841,0,0,0,0,0,0,0,-1,1504,512,4.49612,-0.649834
287,512,4.77234,0.458069,0,0,0,0,0,0,0,-1,1511,512,4.77233,-0.458083
294,512,8.54956,-2.36273,0,0,0,0,0,0,0,-1,1518,512,8.54952,2.36274
301,512,6.302,-1.69092,0,0,0,0,0,0,0,-1,1525,512,6.30196,1.69093
308,512,8.2439,-6.22754,0,0,0,0,0,0,0,-1,1532,512,8.24394,6.22757
315,512,7.53687,-6.04211,0,0,0,0,0,0,0,-1,1539,512,7.53691,6.04211
322,512,6.82983,-5.85663,0,0,0,0,0,0,0,-1,1546,512,6.82988,5.85666
329,512,4.38147,-0.329651,0,0,0,0,0,0,0,-1,1553,512,4.38144,0.329662
336,512,4.41467,-0.741455,0,0,0,0,0,0,0,-1,1560,512,4.41467,0.741442
343,512,4.44727,-1.21667,0,0,0,0,0,0,0,-1,1567,512,4.44732,1.21666
350,512,4.55469,-1.65082,0,0,0,0,0,0,0,-1,1574,512,4.5547,1.65083
357,512,5.79993,-2.67456,0,0,0,0,0,0,0,-1,1581,512,5.79991,2.67454
364,512,5.18298,-6.80133,0,0,0,0,0,0,0,-1,1588,512,5.18296,6.80132
371,512,5.28467,-7.69269,0,0,0,0,0,0,0,-1,1595,512,5.28464,7.69269
378,512,6.29407,-9.88055,0,0,0,0,0,0,0,-1,1602,512,6.29412,9.88057
385,512,6.45569,-9.32233,0,0,0,0,0,0,0,-1,1609,512,6.45565,9.3223
392,512,6.35522,-8.98425,0,0,0,0,0,0,0,-1,1616,512,6.35526,8.98422
399,512,7.5304,-12.1449,0,0,0,0,0,0,0,-1,1623,512,7.53042,12.1449
406,512,9.68579,-17.9241,0,0,0,0,0,0,0,-1,1630,512,9.68574,17.9241
413,512,9.6748,-17.5748,0,0,0,0,0,0,0,-1,1637,512,9.67486,17.5748
420,512,9.73157,-17.0416,0.00227499,0.000445505,-0.000444143,0.00237711,0.000343381,-0.226006,0.00148359,0.0252805,1644,512,9.73153,17.0416
427,512,9.73804,-16.5945,0.00228376,0.000563038,-0.000295073,0.00233295,0.000513845,-0.165197,0.00141546,0.0152552,1651,512,9.73798,16.5945
434,512,9.73389,-16.1822,0.00194323,0.000743497,-0.000115654,0.00195427,0.00073245,-0.0952315,0.00114003,0.0115006,1658,512,9.73393,16.1822
441,512,9.70862,-15.7514,0.00162832,0.000854608,5.22165e-05,0.00163183,0.0008511,0.0670829,0.000942428,0.0124785,1665,512,9.70859,15.7514
448,512,9.69543,-15.3131,0.00136298,0.000845223,0.000253994,0.00146677,0.00074143,0.387938,0.000846858,0.00897744,1672,512,9.69539,15.3131
455,512,9.69934,-14.8748,0.000991404,0.000824061,0.000413069,0.00132919,0.000486274,0.68547,0.000776562,0.0087584,1679,512,9.69932,14.8748
462,512,9.70544,-14.4421,0.000614234,0.000687083,0.000612458,0.0012642,3.71187e-05,0.8151,0.000830703,0.00953155,1686,512,9.70545,14.4421
469,512,9.70386,-13.9981,0.000152458,0.000495136,0.000894551,0.00123461,-0.000587015,0.88002,0.00107364,0.0112764,1693,512,9.70389,13.9981
476,512,9.68469,-13.5492,-0.000557636,0.000127313,0.00105868,0.000897533,-0.00132786,0.941832,0.00129281,0.0139448,1700,512,9.68475,13.5492
483,512,9.67542,-13.0863,-0.00135181,-0.00032648,0.00118004,0.000447451,-0.00212574,0.990321,0.00158747,0.0126175,1707,512,9.67538,13.0863
490,512,9.66638,-12.6368,-0.00235773,-0.000946037,0.00127648,-0.000193247,-0.00311052,1.03796,0.00201236,0.0102571,1714,512,9.6664,12.6368
497,512,9.65088,-12.1713,-0.00355765,-0.00166015,0.00132528,-0.000979024,-0.00423878,1.09605,0.00256262,0.0112535,1721,512,9.65088,12.1713
504,512,9.6134,-11.6865,-0.0050214,-0.0024865,0.00125443,-0.00197069,-0.00553721,1.18068,0.00324086,0.011926,1728,512,9.61343,11.6865
511,512,9.58179,-11.1999,-0.00686347,-0.00337306,0.00109947,-0.0030556,-0.00718093,1.2897,0.00416122,0.0134112,1735,512,9.58174,11.1999
518,512,9.59387,-10.7427,-0.00908798,-0.00424249,0.000772882,-0.0041222,-0.00920827,1.41639,0.0053261,0.0176799,1742,512,9.5939,10.7426
525,512,9.26257,-10.3947,-0.011728,-0.00518317,0.000182976,-0.00517806,-0.0117331,1.54287,0.00678964,0.0437621,1749,512,9.26254,10.3946
532,512,9.11658,-9.8205,0,0,0,0,0,0,0,-1,1756,512,9.11658,9.8205
539,512,7.05908,-7.00647,0,0,0,0,0,0,0,-1,1763,512,7.05909,7.00647
546,512,2.77551,-0.66449,0,0,0,0,0,0,0,-1,1770,512,2.77548,0.664503
553,512,3.927,-0.448853,0,0,0,0,0,0,0,-1,1777,512,3.92704,0.448843
560,512,3.55762,-0.201233,0,0,0,0,0,0,0,-1,1784,512,3.55768,0.201259
567,512,3.09045,0.191193,0,0,0,0,0,0,0,-1,1791,512,3.09045,-0.191203
574,512,0,0,0,0,0,0,0,0,0,-1,1798,512,0,0
581,512,0,0,0,0,0,0,0,0,0,-1,1805,512,0,0
588,512,0,0,0,0,0,0,0,0,0,-1,1812,512,0,0
595,512,0,0,0,0,0,0,0,0,0,-1,1819,512,0,0
602,512,0,0,0,0,0,0,0,0,0,-1,1826,512,0,0
609,512,0,0,0,0,0,0,0,0,0,-1,1833,512,0,0
616,512,0,0,0,0,0,0,0,0,0,-1,1840,512,0,0
623,512,0,0,0,0,0,0,0,0,0,-1,1847,512,0,0
630,512,0,0,0,0,0,0,0,0,0,-1,1854,512,0,0
637,512,0,0,0,0,0,0,0,0,0,-1,1861,512,0,0
644,512,0,0,0,0,0,0,0,0,0,-1,1868,512,0,0
651,512,0,0,0,0,0,0,0,0,0,-1,1875,512,0,0
658,512,0,0,0,0,0,0,0,0,0,-1,1882,512,0,0
665,512,0,0,0,0,0,0,0,0,0,-1,1889,512,0,0
672,512,0,0,0,0,0,0,0,0,0,-1,1896,512,0,0
679,512,0,0,0,0,0,0,0,0,0,-1,1903,512,0,0
686,512,0,0,0,0,0,0,0,0,0,-1,1910,512,0,0
693,512,0,0,0,0,0,0,0,0,0,-1,1917,512,0,0
700,512,0,0,0,0,0,0,0,0,0,-1,1924,512,0,0
707,512,0,0,0,0,0,0,0,0,0,-1,1931,512,0,0
714,512,0,0,0,0,0,0,0,0,0,-1,1938,512,0,0
721,512,0,0,0,0,0,0,0,0,0,-1,1945,512,0,0
728,512,0,0,0,0,0,0,0,0,0,-1,1952,512,0,0
735,512,0,0,0,0,0,0,0,0,0,-1,1959,512,0,0
742,512,0,0,0,0,0,0,0,0,0,-1,1966,512,0,0
749,512,0,0,0,0,0,0,0,0,0,-1,1973,512,0,0
756,512,0,0,0,0,0,0,0,0,0,-1,1980,512,0,0
763,512,0,0,0,0,0,0,0,0,0,-1,1987,512,0,0
770,512,0,0,0,0,0,0,0,0,0,-1,1994,512,0,0
777,512,0,0,0,0,0,0,0,0,0,-1,2001,512,0,0
784,512,0,0,0,0,0,0,0,0,0,-1,2008,512,0,0
791,512,0,0,0,0,0,0,0,0,0,-1,2015,512,0,0
798,512,0,0,0,0,0,0,0,0,0,-1,2022,512,0,0
805,512,0,0,0,0,0,0,0,0,0,-1,2029,512,0,0
812,512,0,0,0,0,0,0,0,0,0,-1,2036,512,0,0
-700,505,0,0,0,0,0,0,0,0,0,-1,524,519,0,0
-693,505,0,0,0,0,0,0,0,0,0,-1,531,519,0,0
-686,505,0,0,0,0,0,0,0,0,0,-1,538,519,0,0
-679,505,0,0,0,0,0,0,0,0,0,-1,545,519,0,0
-672,505,0,0,0,0,0,0,0,0,0,-1,552,519,0,0
-665,505,0,0,0,0,0,0,0,0,0,-1,559,519,0,0
-658,505,0,0,0,0,0,0,0,0,0,-1,566,519,0,0
-651,505,0,0,0,0,0,0,0,0,0,-1,573,519,0,0
-644,505,0,0,0,0,0,0,0,0,0,-1,580,519,0,0
-637,505,0,0,0,0,0,0,0,0,0,-1,587,519,0,0
-630,505,0,0,0,0,0,0,0,0,0,-1,594,519,0,0
-623,505,0,0,0,0,0,0,0,0,0,-1,601,519,0,0
-616,505,0,0,0,0,0,0,0,0,0,-1,608,519,0,0
-609,505,0,0,0,0,0,0,0,0,0,-1,615,519,0,0
-602,505,0,0,0,0,0,0,0,0,0,-1,622,519,0,0
-595,505,0,0,0,0,0,0,0,0,0,-1,629,519,0,0
-588,505,0,0,0,0,0,0,0,0,0,-1,636,519,0,0
-581,505,0,0,0,0,0,0,0,0,0,-1,643,519,0,0
-574,505,0,0,0,0,0,0,0,0,0,-1,650,519,0,0
-567,505,0,0,0,0,0,0,0,0,0,-1,657,519,0,0
-560,505,0,0,0,0,0,0,0,0,0,-1,664,519,0,0
-553,505,0,0,0,0,0,0,0,0,0,-1,671,519,0,0
-546,505,0,0,0,0,0,0,0,0,0,-1,678,519,0,0
-539,505,0,0,0,0,0,0,0,0,0,-1,685,519,0,0
-532,505,0,0,0,0,0,0,0,0,0,-1,692,519,0,0
-525,505,0,0,0,0,0,0,0,0,0,-1,699,519,0,0
-518,505,0,0,0,0,0,0,0,0,0,-1,706,519,0,0
-511,505,0,0,0,0,0,0,0,0,0,-1,713,519,0,0
-504,505,0,0,0,0,0,0,0,0,0,-1,720,519,0,0
-497,505,0,0,0,0,0,0,0,0,0,-1,727,519,0,0
-490,505,0,0,0,0,0,0,0,0,0,-1,734,519,0,0
-483,505,0,0,0,0,0,0,0,0,0,-1,741,519,0,0
-476,505,0,0,0,0,0,0,0,0,0,-1,748,519,0,0
-469,505,0,0,0,0,0,0,0,0,0,-1,755,519,0,0
-462,505,0,0,0,0,0,0,0,0,0,-1,762,519,0,0
-455,505,2.72137,-3.26379,0,0,0,0,0,0,0,-1,769,519,2.72135,3.26377
-448,505,2.51111,-3.94989,0,0,0,0,0,0,0,-1,776,519,2.51112,3.94986
-441,505,2.80212,-6.8902,0,0,0,0,0,0,0,-1,783,519,2.80209,6.89019
-434,505,-0.155212,-10.6374,0,0,0,0,0,0,0,-1,790,519,-0.155194,10.6374
-427,505,-0.474426,-10.4702,0,0,0,0,0,0,0,-1,797,519,-0.474433,10.4702
-420,505,-0.922546,-10.1928,0,0,0,0,0,0,0,-1,804,519,-0.92257,10.1928
-413,505,-2.10413,-9.62665,0,0,0,0,0,0,0,-1,811,519,-2.10415,9.62666
-406,505,-2.00525,-10.2006,0,0,0,0,0,0,0,-1,818,519,-2.00528,10.2006
-399,505,-1.81952,-11.1054,0.00381919,0.0206514,-0.0134762,0.0281237,-0.00365305,-1.06452,0.0200779,0.0459748,825,519,-1.81954,11.1054
-392,505,-1.61334,-12.1652,0.00286813,0.0156898,-0.0107762,0.0218179,-0.00325998,-1.05373,0.0157448,0.0222731,832,519,-1.61334,12.1652
-385,505,-1.65601,-12.7082,0.00217205,0.0115924,-0.0083781,0.0164936,-0.00272915,-1.04148,0.0120092,0.00961687,839,519,-1.65603,12.7082
-378,505,-1.68829,-13.1628,0.00177689,0.00840384,-0.00643236,0.012326,-0.00214527,-1.02324,0.00901788,0.0107864,846,519,-1.68826,13.1629
-371,505,-1.68787,-13.6342,0.00148259,0.00582802,-0.00483654,0.00895746,-0.00164685,-0.996505,0.00658955,0.0134076,853,519,-1.68784,13.6342
-364,505,-1.71429,-14.0867,0.00125944,0.00380836,-0.00349337,0.00625249,-0.00118469,-0.960308,0.0046142,0.013774,860,519,-1.71429,14.0867
-357,505,-1.70282,-14.5208,0.00118662,0.00242158,-0.00247425,0.00435424,-0.000746042,-0.907682,0.00318081,0.0114176,867,519,-1.70284,14.5208
-350,505,-1.7229,-14.9388,0.00117098,0.00124443,-0.00165038,0.0028585,-0.000443087,-0.796522,0.00206923,0.0115629,874,519,-1.72288,14.9388
-343,505,-1.74762,-15.3541,0.0012113,0.000426396,-0.00102278,0.00191434,-0.000276645,-0.602206,0.00137773,0.00983358,881,519,-1.74764,15.354
-336,505,-1.76605,-15.7568,0.00144552,3.73358e-05,-0.000716423,0.00174592,-0.000263066,-0.397039,0.00126082,0.0116306,888,519,-1.76604,15.7568
-329,505,-1.75751,-16.151,0.00176325,-0.00025164,-0.00054626,0.00190182,-0.000390208,-0.248427,0.00141598,0.0158182,895,519,-1.75752,16.151
-322,505,-1.7627,-16.587,0.00206885,-0.000468404,-0.000421609,0.00213708,-0.000536628,-0.160426,0.00163325,0.0177677,902,519,-1.76268,16.587
-315,505,-1.77612,-17.0181,0.00239041,-0.000677131,-0.000262228,0.00241267,-0.000699386,-0.0846661,0.00188532,0.0135071,909,519,-1.77613,17.0181
-308,505,-1.78412,-17.4047,0.00273856,-0.0010395,-2.86432e-05,0.00273877,-0.00103972,-0.00758087,0.00225383,0.0122194,916,519,-1.78412,17.4047
-301,505,-1.77625,-17.8083,0.00297448,-0.00144524,0.00035822,0.00300332,-0.00147409,0.0803514,0.00263481,0.0184279,923,519,-1.77623,17.8083
-294,505,-1.77167,-18.1664,0,0,0,0,0,0,0,-1,930,519,-1.77168,18.1664
-287,505,-1.80298,-18.5985,0,0,0,0,0,0,0,-1,937,519,-1.80297,18.5985
-280,505,-1.64728,-19.1425,0,0,0,0,0,0,0,-1,944,519,-1.64731,19.1425
-273,505,-0.0680542,-9.44867,0,0,0,0,0,0,0,-1,951,519,-0.0680462,9.44866
-266,505,-0.036377,-9.07922,0,0,0,0,0,0,0,-1,958,519,-0.0364055,9.0792
-259,505,0.10321,-6.69824,0,0,0,0,0,0,0,-1,965,519,0.103235,6.69826
-252,505,6.82312,-15.6972,0,0,0,0,0,0,0,-1,972,519,6.82314,15.6972
-245,505,4.26727,-12.9861,0,0,0,0,0,0,0,-1,979,519,4.2673,12.9861
-238,505,1.67432,-11.2307,0,0,0,0,0,0,0,-1,986,519,1.67429,11.2307
-231,505,-0.958435,-8.3075,0,0,0,0,0,0,0,-1,993,519,-0.958421,8.30751
-224,505,-3.69653,-5.12732,0,0,0,0,0,0,0,-1,1000,519,-3.69653,5.12733
-217,505,-6.34302,-1.65533,0,0,0,0,0,0,0,-1,1007,519,-6.34299,1.65535
-210,505,-3.06128,-0.396301,0,0,0,0,0,0,0,-1,1014,519,-3.06129,0.396294
-203,505,-4.26465,2.03607,0,0,0,0,0,0,0,-1,1021,519,-4.26462,-2.03606
-196,505,-5.47595,4.27295,0,0,0,0,0,0,0,-1,1028,519,-5.47597,-4.27292
-189,505,1.51526,5.56207,0,0,0,0,0,0,0,-1,1035,519,1.51523,-5.56209
-182,505,2.97815,7.5097,0,0,0,0,0,0,0,-1,1042,519,2.97812,-7.5097
-175,505,-2.38416,-2.17548,0,0,0,0,0,0,0,-1,1049,519,-2.38411,2.1755
-168,505,0,0,0,0,0,0,0,0,0,-1,1056,519,0,0
-161,505,0,0,0,0,0,0,0,0,0,-1,1063,519,0,0
-154,505,0,0,0,0,0,0,0,0,0,-1,1070,519,0,0
-147,505,0,0,0,0,0,0,0,0,0,-1,1077,519,0,0
-140,505,0,0,0,0,0,0,0,0,0,-1,1084,519,0,0
-133,505,0,0,0,0,0,0,0,0,0,-1,1091,519,0,0
-126,505,0,0,0,0,0,0,0,0,0,-1,1098,519,0,0
-119,505,0,0,0,0,0,0,0,0,0,-1,1105,519,0,0
-112,505,0,0,0,0,0,0,0,0,0,-1,1112,519,0,0
-105,505,0,0,0,0,0,0,0,0,0,-1,1119,519,0,0
-98,505,0,0,0,0,0,0,0,0,0,-1,1126,519,0,0
-91,505,0,0,0,0,0,0,0,0,0,-1,1133,519,0,0
-84,505,0,0,0,0,0,0,0,0,0,-1,1140,519,0,0
-77,505,0,0,0,0,0,0,0,0,0,-1,1147,519,0,0
-70,505,0,0,0,0,0,0,0,0,0,-1,1154,519,0,0
-63,505,0,0,0,0,0,0,0,0,0,-1,1161,519,0,0
-56,505,0,0,0,0,0,0,0,0,0,-1,1168,519,0,0
-49,505,0,0,0,0,0,0,0,0,0,-1,1175,519,0,0
-42,505,0,0,0,0,0,0,0,0,0,-1,1182,519,0,0
-35,505,0,0,0,0,0,0,0,0,0,-1,1189,519,0,0
-28,505,0,0,0,0,0,0,0,0,0,-1,1196,519,0,0
-21,505,0,0,0,0,0,0,0,0,0,-1,1203,519,0,0
-14,505,0,0,0,0,0,0,0,0,0,-1,1210,519,0,0
-7,505,0,0,0,0,0,0,0,0,0,-1,1217,519,0,0
0,505,0,0,0,0,0,0,0,0,0,-1,1224,519,0,0
7,505,0,0,0,0,0,0,0,0,0,-1,1231,519,0,0
14,505,0,0,0,0,0,0,0,0,0,-1,1238,519,0,0
21,505,0,0,0,0,0,0,0,0,0,-1,1245,519,0,0
28,505,0,0,0,0,0,0,0,0,0,-1,1252,519,0,0
35,505,0,0,0,0,0,0,0,0,0,-1,1259,519,0,0
42,505,0,0,0,0,0,0,0,0,0,-1,1266,519,0,0
49,505,0,0,0,0,0,0,0,0,0,-1,1273,519,0,0
56,505,0,0,0,0,0,0,0,0,0,-1,1280,519,0,0
63,505,0,0,0,0,0,0,0,0,0,-1,1287,519,0,0
70,505,0,0,0,0,0,0,0,0,0,-1,1294,519,0,0
77,505,0,0,0,0,0,0,0,0,0,-1,1301,519,0,0
84,505,0,0,0,0,0,0,0,0,0,-1,1308,519,0,0
91,505,0,0,0,0,0,0,0,0,0,-1,1315,519,0,0
98,505,0,0,0,0,0,0,0,0,0,-1,1322,519,0,0
105,505,0,0,0,0,0,0,0,0,0,-1,1329,519,0,0
112,505,0,0,0,0,0,0,0,0,0,-1,1336,519,0,0
119,505,0,0,0,0,0,0,0,0,0,-1,1343,519,0,0
126,505,0,0,0,0,0,0,0,0,0,-1,1350,519,0,0
133,505,0,0,0,0,0,0,0,0,0,-1,1357,519,0,0
140,505,0,0,0,0,0,0,0,0,0,-1,1364,519,0,0
147,505,0,0,0,0,0,0,0,0,0,-1,1371,519,0,0
154,505,0,0,0,0,0,0,0,0,0,-1,1378,519,0,0
161,505,0,0,0,0,0,0,0,0,0,-1,1385,519,0,0
168,505,0,0,0,0,0,0,0,0,0,-1,1392,519,0,0
175,505,0,0,0,0,0,0,0,0,0,-1,1399,519,0,0
182,505,0,0,0,0,0,0,0,0,0,-1,1406,519,0,0
189,505,0,0,0,0,0,0,0,0,0,-1,1413,519,0,0
196,505,0,0,0,0,0,0,0,0,0,-1,1420,519,0,0
203,505,0,0,0,0,0,0,0,0,0,-1,1427,519,0,0
210,505,0,0,0,0,0,0,0,0,0,-1,1434,519,0,0
217,505,0,0,0,0,0,0,0,0,0,-1,1441,519,0,0
224,505,0,0,0,0,0,0,0,0,0,-1,1448,519,0,0
231,505,0,0,0,0,0,0,0,0,0,-1,1455,519,0,0
238,505,0,0,0,0,0,0,0,0,0,-1,1462,519,0,0
245,505,0,0,0,0,0,0,0,0,0,-1,1469,519,0,0
252,505,0,0,0,0,0,0,0,0,0,-1,1476,519,0,0
259,505,0,0,0,0,0,0,0,0,0,-1,1483,519,0,0
266,505,0,0,0,0,0,0,0,0,0,-1,1490,519,0,0
273,505,0,0,0,0,0,0,0,0,0,-1,1497,519,0,0
280,505,0,0,0,0,0,0,0,0,0,-1,1504,519,0,0
287,505,4.39478,0.499512,0,0,0,0,0,0,0,-1,1511,519,4.39476,-0.499506
294,505,4.88867,0.0822754,0,0,0,0,0,0,0,-1,1518,519,4.88871,-0.0822748
301,505,4.82153,-0.0704346,0,0,0,0,0,0,0,-1,1525,519,4.82156,0.0704312
308,505,4.67761,-0.29187,0,0,0,0,0,0,0,-1,1532,519,4.67762,0.291845
315,505,8.44055,-6.54352,0,0,0,0,0,0,0,-1,1539,519,8.44059,6.54349
322,505,4.78955,-0.594116,0,0,0,0,0,0,0,-1,1546,519,4.78957,0.594096
329,505,5.16321,0.434631,0,0,0,0,0,0,0,-1,1553,519,5.16316,-0.434614
336,505,4.94495,-0.920471,0,0,0,0,0,0,0,-1,1560,519,4.945,0.920495
343,505,5.01855,-1.4823,0,0,0,0,0,0,0,-1,1567,519,5.01851,1.48227
350,505,5.33154,-1.77838,0,0,0,0,0,0,0,-1,1574,519,5.33152,1.77838
357,505,5.56567,-1.9425,0,0,0,0,0,0,0,-1,1581,519,5.56562,1.94248
364,505,5.85205,-2.6579,0,0,0,0,0,0,0,-1,1588,519,5.85211,2.65788
371,505,5.88477,-7.00922,0,0,0,0,0,0,0,-1,1595,519,5.88473,7.00924
378,505,5.44104,-7.10162,0,0,0,0,0,0,0,-1,1602,519,5.44099,7.10162
385,505,6.64661,-8.65015,0,0,0,0,0,0,0,-1,1609,519,6.64662,8.65014
392,505,6.34558,-8.3429,0,0,0,0,0,0,0,-1,1616,519,6.34554,8.34288
399,505,7.45898,-9.70386,0,0,0,0,0,0,0,-1,1623,519,7.45899,9.70388
406,505,7.08679,-9.4928,0,0,0,0,0,0,0,-1,1630,519,7.08678,9.49278
413,505,8.4032,-14.0308,0,0,0,0,0,0,0,-1,1637,519,8.4032,14.0308
420,505,10.0848,-17.2118,0,0,0,0,0,0,0,-1,1644,519,10.0848,17.2118
427,505,10.1425,-16.6853,0.00261978,0.00054262,-0.000591906,0.00277661,0.000385792,-0.259003,0.00173682,0.0260415,1651,519,10.1425,16.6853
434,505,10.1423,-16.1841,0.00226251,0.000735838,-0.000356425,0.00234162,0.000656725,-0.218422,0.0013947,0.0116361,1658,519,10.1423,16.1841
441,505,10.1572,-15.7255,0.00199729,0.000844908,-0.000193745,0.00202899,0.000813206,-0.162187,0.0011791,0.0104025,1665,519,10.1572,15.7254
448,505,10.1511,-15.2953,0.00184216,0.000857046,4.53512e-05,0.00184424,0.000854962,0.0459071,0.00106572,0.0100179,1672,519,10.1511,15.2953
455,505,10.1416,-14.8563,0.00152926,0.000872214,0.000202509,0.00158666,0.000814814,0.276203,0.000916172,0.0106532,1679,519,10.1416,14.8563
462,505,10.1313,-14.4163,0.00122276,0.000823481,0.000372606,0.00144584,0.000600402,0.539463,0.000838743,0.0112249,1686,519,10.1314,14.4163
469,505,10.146,-13.975,0.000885738,0.00069503,0.000626422,0.00142402,0.000156746,0.709868,0.000901652,0.0113312,1693,519,10.146,13.975
476,505,10.1157,-13.5394,0.000326342,0.000429356,0.000795506,0.00117502,-0.000419322,0.817727,0.000954339,0.0115625,1700,519,10.1157,13.5393
483,505,10.1161,-13.0911,-0.000349228,7.56892e-05,0.00089604,0.000784114,-0.00105765,0.901803,0.00106725,0.0127448,1707,519,10.1161,13.0911
490,505,10.1143,-12.6276,-0.00124014,-0.000402993,0.000953357,0.000219632,-0.00186277,0.992255,0.00132115,0.0119969,1714,519,10.1142,12.6276
497,505,10.0881,-12.178,-0.00229034,-0.000929055,0.000980618,-0.000416011,-0.00280338,1.08877,0.00174684,0.0114761,1721,519,10.0882,12.178
504,505,10.0511,-11.6948,-0.00356486,-0.00158738,0.000870155,-0.00125901,-0.00389323,1.20995,0.00229403,0.0121786,1728,519,10.0512,11.6948
511,505,10.0425,-11.2275,-0.00516299,-0.00227631,0.000655679,-0.00213436,-0.00530494,1.35759,0.00308222,0.0135214,1735,519,10.0425,11.2276
518,505,10.1102,-10.7646,-0.00709161,-0.00298737,0.000274212,-0.00296913,-0.00710985,1.50438,0.00412341,0.0195799,1742,519,10.1102,10.7647
525,505,9.89282,-10.2548,-0.00931555,-0.00380717,-0.000351834,-0.00378479,-0.00933793,-1.50727,0.00542339,0.0311183,1749,519,9.89282,10.2548
532,505,9.77869,-9.51813,0,0,0,0,0,0,0,-1,1756,519,9.77871,9.5181
539,505,7.90369,-7.11932,0,0,0,0,0,0,0,-1,1763,519,7.90373,7.11932
546,505,7.94946,-6.64539,0,0,0,0,0,0,0,-1,1770,519,7.94947,6.64539
553,505,2.82837,0.162659,0,0,0,0,0,0,0,-1,1777,519,2.82841,-0.162672
560,505,3.66223,-0.479797,0,0,0,0,0,0,0,-1,1784,519,3.66219,0.47982
567,505,4.65271,-0.950256,0,0,0,0,0,0,0,-1,1791,519,4.65274,0.95028
574,505,5.54443,-1.19977,0,0,0,0,0,0,0,-1,1798,519,5.54443,1.19974
581,505,0,0,0,0,0,0,0,0,0,-1,1805,519,0,0
588,505,0,0,0,0,0,0,0,0,0,-1,1812,519,0,0
595,505,0,0,0,0,0,0,0,0,0,-1,1819,519,0,0
602,505,0,0,0,0,0,0,0,0,0,-1,1826,519,0,0
609,505,0,0,0,0,0,0,0,0,0,-1,1833,519,0,0
616,505,0,0,0,0,0,0,0,0,0,-1,1840,519,0,0
623,505,0,0,0,0,0,0,0,0,0,-1,1847,519,0,0
630,505,0,0,0,0,0,0,0,0,0,-1,1854,519,0,0
637,505,0,0,0,0,0,0,0,0,0,-1,1861,519,0,0
644,505,0,0,0,0,0,0,0,0,0,-1,1868,519,0,0
651,505,0,0,0,0,0,0,0,0,0,-1,1875,519,0,0
658,505,0,0,0,0,0,0,0,0,0,-1,1882,519,0,0
665,505,0,0,0,0,0,0,0,0,0,-1,1889,519,0,0
672,505,0,0,0,0,0,0,0,0,0,-1,1896,519,0,0
679,505,0,0,0,0,0,0,0,0,0,-1,1903,519,0,0
686,505,0,0,0,0,0,0,0,0,0,-1,1910,519,0,0
693,505,0,0,0,0,0,0,0,0,0,-1,1917,519,0,0
700,505,0,0,0,0,0,0,0,0,0,-1,1924,519,0,0
707,505,0,0,0,0,0,0,0,0,0,-1,1931,519,0,0
714,505,0,0,0,0,0,0,0,0,0,-1,1938,519,0,0
721,505,0,0,0,0,0,0,0,0,0,-1,1945,519,0,0
728,505,0,0,0,0,0,0,0,0,0,-1,1952,519,0,0
735,505,0,0,0,0,0,0,0,0,0,-1,1959,519,0,0
742,505,0,0,0,0,0,0,0,0,0,-1,1966,519,0,0
749,505,0,0,0,0,0,0,0,0,0,-1,1973,519,0,0
756,505,0,0,0,0,0,0,0,0,0,-1,1980,519,0,0
763,505,0,0,0,0,0,0,0,0,0,-1,1987,519,0,0
770,505,0,0,0,0,0,0,0,0,0,-1,1994,519,0,0
777,505,0,0,0,0,0,0,0,0,0,-1,2001,519,0,0
784,505,0,0,0,0,0,0,0,0,0,-1,2008,519,0,0
791,505,0,0,0,0,0,0,0,0,0,-1,2015,519,0,0
798,505,0,0,0,0,0,0,0,0,0,-1,2022,519,0,0
805,505,0,0,0,0,0,0,0,0,0,-1,2029,519,0,0
812,505,0,0,0,0,0,0,0,0,0,-1,2036,519,0,0
-700,498,0,0,0,0,0,0,0,0,0,-1,524,526,0,0
-693,498,0,0,0,0,0,0,0,0,0,-1,531,526,0,0
-686,498,0,0,0,0,0,0,0,0,0,-1,538,526,0,0
-679,498,0,0,0,0,0,0,0,0,0,-1,545,526,0,0
-672,498,0,0,0,0,0,0,0,0,0,-1,552,526,0,0
-665,498,0,0,0,0,0,0,0,0,0,-1,559,526,0,0
-658,498,0,0,0,0,0,0,0,0,0,-1,566,526,0,0
-651,498,0,0,0,0,0,0,0,0,0,-1,573,526,0,0
-644,498,0,0,0,0,0,0,0,0,0,-1,580,526,0,0
-637,498,0,0,0,0,0,0,0,0,0,-1,587,526,0,0
-630,498,0,0,0,0,0,0,0,0,0,-1,594,526,0,0
-623,498,0,0,0,0,0,0,0,0,0,-1,601,526,0,0
-616,498,0,0,0,0,0,0,0,0,0,-1,608,526,0,0
-609,498,0,0,0,0,0,0,0,0,0,-1,615,526,0,0
-602,498,0,0,0,0,0,0,0,0,0,-1,622,526,0,0
-595,498,0,0,0,0,0,0,0,0,0,-1,629,526,0,0
-588,498,0,0,0,0,0,0,0,0,0,-1,636,526,0,0
-581,498,0,0,0,0,0,0,0,0,0,-1,643,526,0,0
-574,498,0,0,0,0,0,0,0,0,0,-1,650,526,0,0
-567,498,0,0,0,0,0,0,0,0,0,-1,657,526,0,0
-560,498,0,0,0,0,0,0,0,0,0,-1,664,526,0,0
-553,498,0,0,0,0,0,0,0,0,0,-1,671,526,0,0
-546,498,0,0,0,0,0,0,0,0,0,-1,678,526,0,0
-539,498,0,0,0,0,0,0,0,0,0,-1,685,526,0,0
-532,498,0,0,0,0,0,0,0,0,0,-1,692,526,0,0
-525,498,0,0,0,0,0,0,0,0,0,-1,699,526,0,0
-518,498,0,0,0,0,0,0,0,0,0,-1,706,526,0,0
-511,498,0,0,0,0,0,0,0,0,0,-1,713,526,0,0
-504,498,0,0,0,0,0,0,0,0,0,-1,720,526,0,0
-497,498,0,0,0,0,0,0,0,0,0,-1,727,526,0,0
-490,498,0,0,0,0,0,0,0,0,0,-1,734,526,0,0
-483,498,0,0,0,0,0,0,0,0,0,-1,741,526,0,0
-476,498,0,0,0,0,0,0,0,0,0,-1,748,526,0,0
-469,498,0,0,0,0,0,0,0,0,0,-1,755,526,0,0
-462,498,6.81024,1.15515,0,0,0,0,0,0,0,-1,762,526,6.81026,-1.15514
-455,498,3.25757,-3.0592,0,0,0,0,0,0,0,-1,769,526,3.25754,3.05921
-448,498,3.05939,-3.74298,0,0,0,0,0,0,0,-1,776,526,3.05939,3.74296
-441,498,2.77191,-6.08209,0,0,0,0,0,0,0,-1,783,526,2.77189,6.08207
-434,498,2.10681,-6.95929,0,0,0,0,0,0,0,-1,790,526,2.10682,6.9593
-427,498,-0.368042,-10.7726,0,0,0,0,0,0,0,-1,797,526,-0.36807,10.7726
-420,498,-1.05035,-10.5142,0,0,0,0,0,0,0,-1,804,526,-1.05034,10.5142
-413,498,-2.39984,-10.0303,0,0,0,0,0,0,0,-1,811,526,-2.39985,10.0304
-406,498,-2.20831,-10.8003,0.00350545,0.0213239,-0.0127202,0.0279446,-0.00311524,-1.09089,0.0197502,0.0481138,818,526,-2.20834,10.8003
-399,498,-2.02753,-11.6583,0.00287227,0.0168309,-0.0105817,0.0225277,-0.0028245,-1.07693,0.016043,0.0253463,825,526,-2.02751,11.6584
-392,498,-2.0741,-12.2459,0.00229441,0.0128988,-0.00855959,0.0176654,-0.00247214,-1.0627,0.0126816,0.0118337,832,526,-2.07408,12.2459
-385,498,-2.09387,-12.7079,0.00190656,0.0095505,-0.00671472,0.0134548,-0.00199772,-1.04413,0.00970454,0.00812085,839,526,-2.09385,12.708
-378,498,-2.10541,-13.1566,0.00171569,0.00688058,-0.00517445,0.0100812,-0.00148494,-1.01685,0.00726654,0.0103227,846,526,-2.10542,13.1566
-371,498,-2.11591,-13.6096,0.00156028,0.00464251,-0.00385677,0.00725468,-0.00105189,-0.975473,0.00522251,0.0163225,853,526,-2.11593,13.6096
-364,498,-2.1507,-14.0677,0.00145417,0.0028256,-0.00271665,0.00494175,-0.00066197,-0.909022,0.00353587,0.0159392,860,526,-2.15072,14.0677
-357,498,-2.12659,-14.4912,0.00149084,0.00157788,-0.00184517,0.00338004,-0.000311316,-0.797189,0.00236398,0.0111074,867,526,-2.12658,14.4912
-350,498,-2.1358,-14.9061,0.00159948,0.000580048,-0.00118246,0.00237741,-0.000197883,-0.581901,0.00165485,0.0111548,874,526,-2.13581,14.9061
-343,498,-2.14905,-15.3243,0.0017574,-6.39814e-05,-0.000719676,0.00200744,-0.000314019,-0.334384,0.00145431,0.011984,881,526,-2.14907,15.3243
-336,498,-2.13818,-15.7463,0.00204547,-0.000390266,-0.000500503,0.00214431,-0.0004891,-0.194962,0.00161741,0.0149823,888,526,-2.1382,15.7463
-329,498,-2.1474,-16.1433,0.00244354,-0.000585294,-0.000442846,0.00250696,-0.000648715,-0.142244,0.00192435,0.0201136,895,526,-2.14741,16.1433
-322,498,-2.18494,-16.5678,0.00284727,-0.00072651,-0.000399748,0.00289144,-0.000770679,-0.110044,0.00222937,0.0209628,902,526,-2.18496,16.5678
-315,498,-2.19098,-16.9952,0.0032618,-0.000904115,-0.000308338,0.0032845,-0.000926813,-0.0734808,0.00255526,0.017086,909,526,-2.19099,16.9952
-308,498,-2.18463,-17.3887,0.00371988,-0.00130627,-0.000126521,0.00372306,-0.00130945,-0.0251512,0.00301486,0.0215529,916,526,-2.18464,17.3887
-301,498,-2.09399,-17.8449,0.00401584,-0.00161285,0.000249446,0.00402687,-0.00162388,0.0442013,0.00335936,0.0403508,923,526,-2.09398,17.8449
-294,498,-2.02631,-18.3169,0,0,0,0,0,0,0,-1,930,526,-2.02632,18.3169
-287,498,-0.91394,-13.4327,0,0,0,0,0,0,0,-1,937,526,-0.913935,13.4327
-280,498,-0.341614,-8.66608,0,0,0,0,0,0,0,-1,944,526,-0.341589,8.66606
-273,498,-0.988892,-8.62921,0,0,0,0,0,0,0,-1,951,526,-0.988906,8.62922
-266,498,0.362488,-6.33545,0,0,0,0,0,0,0,-1,958,526,0.362478,6.33547
-259,498,10.9454,-17.3615,0,0,0,0,0,0,0,-1,965,526,10.9454,17.3614
-252,498,8.56586,-14.6886,0,0,0,0,0,0,0,-1,972,526,8.56584,14.6886
-245,498,5.97382,-11.928,0,0,0,0,0,0,0,-1,979,526,5.97381,11.928
-238,498,2.24841,-13.8145,0,0,0,0,0,0,0,-1,986,526,2.24838,13.8145
-231,498,0.665894,-10.4898,0,0,0,0,0,0,0,-1,993,526,0.665863,10.4898
-224,498,-2.11243,-4.76312,0,0,0,0,0,0,0,-1,1000,526,-2.11245,4.76314
-217,498,-3.82239,-1.42841,0,0,0,0,0,0,0,-1,1007,526,-3.82241,1.42843
-210,498,-1.80591,-0.358215,0,0,0,0,0,0,0,-1,1014,526,-1.8059,0.3582
-203,498,-3.17316,1.06641,0,0,0,0,0,0,0,-1,1021,526,-3.17313,-1.0664
-196,498,-0.103271,5.40527,0,0,0,0,0,0,0,-1,1028,526,-0.103285,-5.40528
-189,498,3.00256,6.47137,0,0,0,0,0,0,0,-1,1035,526,3.00256,-6.47139
-182,498,0,0,0,0,0,0,0,0,0,-1,1042,526,0,0
-175,498,0,0,0,0,0,0,0,0,0,-1,1049,526,0,0
-168,498,0,0,0,0,0,0,0,0,0,-1,1056,526,0,0
-161,498,0,0,0,0,0,0,0,0,0,-1,1063,526,0,0
-154,498,0,0,0,0,0,0,0,0,0,-1,1070,526,0,0
-147,498,0,0,0,0,0,0,0,0,0,-1,1077,526,0,0
-140,498,0,0,0,0,0,0,0,0,0,-1,1084,526,0,0
-133,498,0,0,0,0,0,0,0,0,0,-1,1091,526,0,0
-126,498,0,0,0,0,0,0,0,0,0,-1,1098,526,0,0
-119,498,0,0,0,0,0,0,0,0,0,-1,1105,526,0,0
-112,498,0,0,0,0,0,0,0,0,0,-1,1112,526,0,0
-105,498,0,0,0,0,0,0,0,0,0,-1,1119,526,0,0
-98,498,0,0,0,0,0,0,0,0,0,-1,1126,526,0,0
-91,498,0,0,0,0,0,0,0,0,0,-1,1133,526,0,0
-84,498,0,0,0,0,0,0,0,0,0,-1,1140,526,0,0
-77,498,0,0,0,0,0,0,0,0,0,-1,1147,526,0,0
-70,498,0,0,0,0,0,0,0,0,0,-1,1154,526,0,0
-63,498,0,0,0,0,0,0,0,0,0,-1,1161,526,0,0
-56,498,0,0,0,0,0,0,0,0,0,-1,1168,526,0,0
-49,498,0,0,0,0,0,0,0,0,0,-1,1175,526,0,0
-42,498,0,0,0,0,0,0,0,0,0,-1,1182,526,0,0
-35,498,0,0,0,0,0,0,0,0,0,-1,1189,526,0,0
-28,498,0,0,0,0,0,0,0,0,0,-1,1196,526,0,0
-21,498,0,0,0,0,0,0,0,0,0,-1,1203,526,0,0
-14,498,0,0,0,0,0,0,0,0,0,-1,1210,526,0,0
-7,498,0,0,0,0,0,0,0,0,0,-1,1217,526,0,0
0,498,0,0,0,0,0,0,0,0,0,-1,1224,526,0,0
7,498,0,0,0,0,0,0,0,0,0,-1,1231,526,0,0
14,498,0,0,0,0,0,0,0,0,0,-1,1238,526,0,0
21,498,0,0,0,0,0,0,0,0,0,-1,1245,526,0,0
28,498,0,0,0,0,0,0,0,0,0,-1,1252,526,0,0
35,498,0,0,0,0,0,0,0,0,0,-1,1259,526,0,0
42,498,0,0,0,0,0,0,0,0,0,-1,1266,526,0,0
49,498,0,0,0,0,0,0,0,0,0,-1,1273,526,0,0
56,498,0,0,0,0,0,0,0,0,0,-1,1280,526,0,0
63,498,0,0,0,0,0,0,0,0,0,-1,1287,526,0,0
70,498,0,0,0,0,0,0,0,0,0,-1,1294,526,0,0
77,498,0,0,0,0,0,0,0,0,0,-1,1301,526,0,0
84,498,0,0,0,0,0,0,0,0,0,-1,1308,526,0,0
91,498,0,0,0,0,0,0,0,0,0,-1,1315,526,0,0
98,498,0,0,0,0,0,0,0,0,0,-1,1322,526,0,0
105,498,0,0,0,0,0,0,0,0,0,-1,1329,526,0,0
112,498,0,0,0,0,0,0,0,0,0,-1,1336,526,0,0
119,498,0,0,0,0,0,0,0,0,0,-1,1343,526,0,0
126,498,0,0,0,0,0,0,0,0,0,-1,1350,526,0,0
133,498,0,0,0,0,0,0,0,0,0,-1,1357,526,0,0
140,498,0,0,0,0,0,0,0,0,0,-1,1364,526,0,0
147,498,0,0,0,0,0,0,0,0,0,-1,1371,526,0,0
154,498,0,0,0,0,0,0,0,0,0,-1,1378,526,0,0
161,498,0,0,0,0,0,0,0,0,0,-1,1385,526,0,0
168,498,0,0,0,0,0,0,0,0,0,-1,1392,526,0,0
175,498,0,0,0,0,0,0,0,0,0,-1,1399,526,0,0
182,498,0,0,0,0,0,0,0,0,0,-1,1406,526,0,0
189,498,0,0,0,0,0,0,0,0,0,-1,1413,526,0,0
196,498,0,0,0,0,0,0,0,0,0,-1,1420,526,0,0
203,498,0,0,0,0,0,0,0,0,0,-1,1427,526,0,0
210,498,0,0,0,0,0,0,0,0,0,-1,1434,526,0,0
217,498,0,0,0,0,0,0,0,0,0,-1,1441,526,0,0
224,498,0,0,0,0,0,0,0,0,0,-1,1448,526,0,0
231,498,0,0,0,0,0,0,0,0,0,-1,1455,526,0,0
238,498,0,0,0,0,0,0,0,0,0,-1,1462,526,0,0
245,498,0,0,0,0,0,0,0,0,0,-1,1469,526,0,0
252,498,0,0,0,0,0,0,0,0,0,-1,1476,526,0,0
259,498,0,0,0,0,0,0,0,0,0,-1,1483,526,0,0
266,498,0,0,0,0,0,0,0,0,0,-1,1490,526,0,0
273,498,0,0,0,0,0,0,0,0,0,-1,1497,526,0,0
280,498,0,0,0,0,0,0,0,0,0,-1,1504,526,0,0
287,498,0,0,0,0,0,0,0,0,0,-1,1511,526,0,0
294,498,0,0,0,0,0,0,0,0,0,-1,1518,526,0,0
301,498,0,0,0,0,0,0,0,0,0,-1,1525,526,0,0
308,498,4.77942,-0.293884,0,0,0,0,0,0,0,-1,1532,526,4.77939,0.293899
315,498,4.56091,-0.564148,0,0,0,0,0,0,0,-1,1539,526,4.56097,0.564142
322,498,4.52344,-0.447266,0,0,0,0,0,0,0,-1,1546,526,4.52341,0.447295
329,498,4.63232,-0.156982,0,0,0,0,0,0,0,-1,1553,526,4.63238,0.156991
336,498,5.22644,0.0925903,0,0,0,0,0,0,0,-1,1560,526,5.22648,-0.0926188
343,498,6.22607,-1.67615,0,0,0,0,0,0,0,-1,1567,526,6.22605,1.67617
350,498,6.19373,-1.59906,0,0,0,0,0,0,0,-1,1574,526,6.19367,1.59906
357,498,6.21472,-1.58929,0,0,0,0,0,0,0,-1,1581,526,6.21476,1.58927
364,498,5.73547,-1.2019,0,0,0,0,0,0,0,-1,1588,526,5.73547,1.20192
371,498,3.27087,-4.55334,0,0,0,0,0,0,0,-1,1595,526,3.27089,4.55332
378,498,8.42944,-4.70624,0,0,0,0,0,0,0,-1,1602,526,8.42942,4.70624
385,498,4.7793,-5.15314,0,0,0,0,0,0,0,-1,1609,526,4.77935,5.15311
392,498,9.12439,-8.57953,0,0,0,0,0,0,0,-1,1616,526,9.12443,8.57955
399,498,7.98938,-9.46021,0,0,0,0,0,0,0,-1,1623,526,7.98936,9.4602
406,498,7.58081,-9.26819,0,0,0,0,0,0,0,-1,1630,526,7.58085,9.26817
413,498,7.17236,-9.07611,0,0,0,0,0,0,0,-1,1637,526,7.17234,9.07614
420,498,11.4314,-16.1147,0,0,0,0,0,0,0,-1,1644,526,11.4313,16.1147
427,498,10.4338,-16.7159,0,0,0,0,0,0,0,-1,1651,526,10.4339,16.7159
434,498,10.5178,-16.1483,0.00238451,0.000725694,-0.00049081,0.00251885,0.000591354,-0.267168,0.00152093,0.0288933,1658,526,10.5178,16.1483
441,498,10.5945,-15.7222,0.00218895,0.000928942,-0.000320394,0.00226574,0.000852152,-0.235236,0.00132144,0.0107186,1665,526,10.5945,15.7222
448,498,10.6073,-15.2879,0.00216197,0.0010392,-3.93559e-05,0.00216335,0.00103782,-0.0349951,0.00124935,0.0103418,1672,526,10.6073,15.2879
455,498,10.5746,-14.8442,0.00193368,0.0011435,0.000124226,0.00195275,0.00112443,0.152319,0.00113173,0.0138834,1679,526,10.5745,14.8443
462,498,10.5706,-14.414,0.00171034,0.00119458,0.000265576,0.00182264,0.00108228,0.400047,0.00105846,0.0162804,1686,526,10.5705,14.414
469,498,10.5789,-13.9843,0.00150974,0.00110636,0.000485921,0.00183416,0.000781932,0.588686,0.00106278,0.0140834,1693,526,10.5789,13.9843
476,498,10.5629,-13.5364,0.00111282,0.000908459,0.000665791,0.00168422,0.000337052,0.709257,0.00102903,0.0105911,1700,526,10.5628,13.5364
483,498,10.5446,-13.0822,0.000550005,0.000605106,0.000755143,0.0013332,-0.000178089,0.803632,0.000953723,0.00906537,1707,526,10.5445,13.0822
490,498,10.535,-12.628,-0.000234794,0.000215161,0.000787084,0.000808789,-0.000828423,0.924605,0.000945267,0.0110565,1714,526,10.5351,12.628
497,498,10.5308,-12.1676,-0.00115241,-0.000184184,0.000807213,0.000272955,-0.00160955,1.05551,0.00117464,0.0122665,1721,526,10.5307,12.1676
504,498,10.5126,-11.7018,-0.00226751,-0.000756839,0.000670372,-0.000502259,-0.00252209,1.20786,0.00154149,0.0145235,1728,526,10.5126,11.7018
511,498,10.5121,-11.2347,-0.00366497,-0.00135195,0.000429077,-0.00127492,-0.003742,1.39316,0.00219669,0.0157783,1735,526,10.512,11.2347
518,498,10.5496,-10.752,-0.00534281,-0.00193117,4.75202e-05,-0.00193051,-0.00534347,1.55687,0.00312438,0.015638,1742,526,10.5495,10.752
525,498,10.4402,-10.2635,-0.00720504,-0.00262837,-0.00052781,-0.00256829,-0.00726512,-1.45745,0.00425411,0.0243087,1749,526,10.4402,10.2636
532,498,10.2629,-9.83624,-0.00924103,-0.00329145,-0.00117691,-0.0030671,-0.00946538,-1.38243,0.00557651,0.0423218,1756,526,10.2629,9.83624
539,498,10.2771,-9.43195,0,0,0,0,0,0,0,-1,1763,526,10.2771,9.43196
546,498,10.2014,-8.47589,0,0,0,0,0,0,0,-1,1770,526,10.2014,8.47589
553,498,5.93958,-1.71448,0,0,0,0,0,0,0,-1,1777,526,5.93956,1.71447
560,498,3.69385,-0.615112,0,0,0,0,0,0,0,-1,1784,526,3.69381,0.615118
567,498,5.12695,-0.581604,0,0,0,0,0,0,0,-1,1791,526,5.12699,0.58159
574,498,3.88,0.0286255,0,0,0,0,0,0,0,-1,1798,526,3.87999,-0.0286535
581,498,10.8722,2.58551,0,0,0,0,0,0,0,-1,1805,526,10.8723,-2.58551
588,498,0,0,0,0,0,0,0,0,0,-1,1812,526,0,0
595,498,0,0,0,0,0,0,0,0,0,-1,1819,526,0,0
602,498,0,0,0,0,0,0,0,0,0,-1,1826,526,0,0
609,498,0,0,0,0,0,0,0,0,0,-1,1833,526,0,0
616,498,0,0,0,0,0,0,0,0,0,-1,1840,526,0,0
623,498,0,0,0,0,0,0,0,0,0,-1,1847,526,0,0
630,498,0,0,0,0,0,0,0,0,0,-1,1854,526,0,0
637,498,0,0,0,0,0,0,0,0,0,-1,1861,526,0,0
644,498,0,0,0,0,0,0,0,0,0,-1,1868,526,0,0
651,498,0,0,0,0,0,0,0,0,0,-1,1875,526,0,0
658,498,0,0,0,0,0,0,0,0,0,-1,1882,526,0,0
665,498,0,0,0,0,0,0,0,0,0,-1,1889,526,0,0
672,498,0,0,0,0,0,0,0,0,0,-1,1896,526,0,0
679,498,0,0,0,0,0,0,0,0,0,-1,1903,526,0,0
686,498,0,0,0,0,0,0,0,0,0,-1,1910,526,0,0
693,498,0,0,0,0,0,0,0,0,0,-1,1917,526,0,0
700,498,0,0,0,0,0,0,0,0,0,-1,1924,526,0,0
707,498,0,0,0,0,0,0,0,0,0,-1,1931,526,0,0
714,498,0,0,0,0,0,0,0,0,0,-1,1938,526,0,0
721,498,0,0,0,0,0,0,0,0,0,-1,1945,526,0,0
728,498,0,0,0,0,0,0,0,0,0,-1,1952,526,0,0
735,498,0,0,0,0,0,0,0,0,0,-1,1959,526,0,0
742,498,0,0,0,0,0,0,0,0,0,-1,1966,526,0,0
749,498,0,0,0,0,0,0,0,0,0,-1,1973,526,0,0
756,498,0,0,0,0,0,0,0,0,0,-1,1980,526,0,0
763,498,0,0,0,0,0,0,0,0,0,-1,1987,526,0,0
770,498,0,0,0,0,0,0,0,0,0,-1,1994,526,0,0
777,498,0,0,0,0,0,0,0,0,0,-1,2001,526,0,0
784,498,0,0,0,0,0,0,0,0,0,-1,2008,526,0,0
791,498,0,0,0,0,0,0,0,0,0,-1,2015,526,0,0
798,498,0,0,0,0,0,0,0,0,0,-1,2022,526,0,0
805,498,0,0,0,0,0,0,0,0,0,-1,2029,526,0,0
812,498,0,0,0,0,0,0,0,0,0,-1,2036,526,0,0
-700,491,0,0,0,0,0,0,0,0,0,-1,524,533,0,0
-693,491,0,0,0,0,0,0,0,0,0,-1,531,533,0,0
-686,491,0,0,0,0,0,0,0,0,0,-1,538,533,0,0
-679,491,0,0,0,0,0,0,0,0,0,-1,545,533,0,0
-672,491,0,0,0,0,0,0,0,0,0,-1,552,533,0,0
-665,491,0,0,0,0,0,0,0,0,0,-1,559,533,0,0
-658,491,0,0,0,0,0,0,0,0,0,-1,566,533,0,0
-651,491,0,0,0,0,0,0,0,0,0,-1,573,533,0,0
-644,491,0,0,0,0,0,0,0,0,0,-1,580,533,0,0
-637,491,0,0,0,0,0,0,0,0,0,-1,587,533,0,0
-630,491,0,0,0,0,0,0,0,0,0,-1,594,533,0,0
-623,491,0,0,0,0,0,0,0,0,0,-1,601,533,0,0
-616,491,0,0,0,0,0,0,0,0,0,-1,608,533,0,0
-609,491,0,0,0,0,0,0,0,0,0,-1,615,533,0,0
-602,491,0,0,0,0,0,0,0,0,0,-1,622,533,0,0
-595,491,0,0,0,0,0,0,0,0,0,-1,629,533,0,0
-588,491,0,0,0,0,0,0,0,0,0,-1,636,533,0,0
-581,491,0,0,0,0,0,0,0,0,0,-1,643,533,0,0
-574,491,0,0,0,0,0,0,0,0,0,-1,650,533,0,0
-567,491,0,0,0,0,0,0,0,0,0,-1,657,533,0,0
-560,491,0,0,0,0,0,0,0,0,0,-1,664,533,0,0
-553,491,0,0,0,0,0,0,0,0,0,-1,671,533,0,0
-546,491,0,0,0,0,0,0,0,0,0,-1,678,533,0,0
-539,491,0,0,0,0,0,0,0,0,0,-1,685,533,0,0
-532,491,0,0,0,0,0,0,0,0,0,-1,692,533,0,0
-525,491,0,0,0,0,0,0,0,0,0,-1,699,533,0,0
-518,491,0,0,0,0,0,0,0,0,0,-1,706,533,0,0
-511,491,0,0,0,0,0,0,0,0,0,-1,713,533,0,0
-504,491,0,0,0,0,0,0,0,0,0,-1,720,533,0,0
-497,491,0,0,0,0,0,0,0,0,0,-1,727,533,0,0
-490,491,0,0,0,0,0,0,0,0,0,-1,734,533,0,0
-483,491,0,0,0,0,0,0,0,0,0,-1,741,533,0,0
-476,491,0,0,0,0,0,0,0,0,0,-1,748,533,0,0
-469,491,-5.85913,4.55011,0,0,0,0,0,0,0,-1,755,533,-5.8591,-4.55009
-462,491,-9.93713,4.90381,0,0,0,0,0,0,0,-1,762,533,-9.93716,-4.9038
-455,491,1.9494,-0.27887,0,0,0,0,0,0,0,-1,769,533,1.94941,0.27885
-448,491,2.68909,-1.8999,0,0,0,0,0,0,0,-1,776,533,2.6891,1.89988
-441,491,3.46069,-3.51855,0,0,0,0,0,0,0,-1,783,533,3.46071,3.51854
-434,491,2.67145,-7.44061,0,0,0,0,0,0,0,-1,790,533,2.67146,7.44061
-427,491,2.27136,-8.34546,0,0,0,0,0,0,0,-1,797,533,2.27136,8.34546
-420,491,-1.52142,-8.1123,0,0,0,0,0,0,0,-1,804,533,-1.52142,8.11228
-413,491,-2.4787,-10.8959,0,0,0,0,0,0,0,-1,811,533,-2.47869,10.8959
-406,491,-2.47144,-11.3272,0.00229799,0.0167478,-0.00954519,0.0214941,-0.00244831,-1.10935,0.0152113,0.025058,818,533,-2.47146,11.3272
-399,491,-2.47925,-11.8303,0.00202234,0.0133511,-0.00803257,0.0175157,-0.00214217,-1.09249,0.0124527,0.0108307,825,533,-2.47925,11.8303
-392,491,-2.52893,-12.2964,0.00174705,0.0102462,-0.00653251,0.0137897,-0.00179648,-1.07377,0.00984677,0.00947018,832,533,-2.52894,12.2964
-385,491,-2.53827,-12.7314,0.00161751,0.00754493,-0.00513188,0.0105074,-0.00134497,-1.04726,0.00749361,0.00838246,839,533,-2.53829,12.7315
-378,491,-2.5401,-13.1541,0.00161265,0.00533955,-0.00393516,0.00783017,-0.000877974,-1.00653,0.00553603,0.013225,846,533,-2.54011,13.1541
-371,491,-2.53589,-13.5897,0.00160512,0.00343136,-0.0028713,0.00553124,-0.000494758,-0.939349,0.00386299,0.0156781,853,533,-2.53587,13.5897
-364,491,-2.55383,-14.0392,0.00163767,0.00185046,-0.00193146,0.00367846,-0.000190327,-0.812913,0.00251815,0.0144231,860,533,-2.5538,14.0393
-357,491,-2.55408,-14.4611,0.00181059,0.000771594,-0.0012207,0.00261773,-3.55489e-05,-0.584219,0.00175713,0.0123351,867,533,-2.55405,14.4611
-350,491,-2.55957,-14.8663,0.00208395,3.38383e-06,-0.000749437,0.00232579,-0.000238458,-0.312148,0.00163582,0.014171,874,533,-2.55959,14.8662
-343,491,-2.54895,-15.2881,0.00241741,-0.000406105,-0.000499017,0.00250301,-0.000491704,-0.169882,0.00185444,0.0229024,881,533,-2.54897,15.2881
-336,491,-2.49005,-15.7278,0.00281544,-0.000633625,-0.000409189,0.00286332,-0.000681506,-0.116484,0.00217198,0.0238335,888,533,-2.49004,15.7278
-329,491,-2.52039,-16.1011,0.00335322,-0.000708554,-0.000506387,0.0034154,-0.000770734,-0.12218,0.00257262,0.024463,895,533,-2.52038,16.1012
-322,491,-2.60052,-16.5255,0.00393353,-0.000750068,-0.000588904,0.00400645,-0.00082298,-0.123183,0.00298337,0.0227262,902,533,-2.60054,16.5255
-315,491,-2.61536,-16.918,0.00452879,-0.000914739,-0.000606272,0.00459549,-0.000981445,-0.109586,0.00343783,0.0221248,909,533,-2.61537,16.918
-308,491,-2.56244,-17.4901,0,0,0,0,0,0,0,-1,916,533,-2.56245,17.49
-301,491,-2.49463,-18.2977,0,0,0,0,0,0,0,-1,923,533,-2.49461,18.2976
-294,491,-0.777283,-8.60913,0,0,0,0,0,0,0,-1,930,533,-0.777288,8.6091
-287,491,-0.26123,-8.69055,0,0,0,0,0,0,0,-1,937,533,-0.261204,8.69053
-280,491,0.2948,-5.99219,0,0,0,0,0,0,0,-1,944,533,0.294811,5.99221
-273,491,0.369995,-5.33691,0,0,0,0,0,0,0,-1,951,533,0.369985,5.33693
-266,491,1.1167,-5.0321,0,0,0,0,0,0,0,-1,958,533,1.11668,5.0321
-259,491,12.0862,-16.9615,0,0,0,0,0,0,0,-1,965,533,12.0862,16.9615
-252,491,9.72443,-13.8417,0,0,0,0,0,0,0,-1,972,533,9.72444,13.8418
-245,491,5.27258,-14.3619,0,0,0,0,0,0,0,-1,979,533,5.27255,14.3619
-238,491,3.65381,-11.1472,0,0,0,0,0,0,0,-1,986,533,3.6538,11.1472
-231,491,2.17719,-7.86835,0,0,0,0,0,0,0,-1,993,533,2.17719,7.86832
-224,491,0.554626,-4.61725,0,0,0,0,0,0,0,-1,1000,533,0.554608,4.61727
-217,491,-2.92743,-1.0766,0,0,0,0,0,0,0,-1,1007,533,-2.92743,1.07659
-210,491,-0.92395,0.374512,0,0,0,0,0,0,0,-1,1014,533,-0.923959,-0.374531
-203,491,0.417419,4.77161,0,0,0,0,0,0,0,-1,1021,533,0.417446,-4.77162
-196,491,0,0,0,0,0,0,0,0,0,-1,1028,533,0,0
-189,491,0,0,0,0,0,0,0,0,0,-1,1035,533,0,0
-182,491,0,0,0,0,0,0,0,0,0,-1,1042,533,0,0
-175,491,0,0,0,0,0,0,0,0,0,-1,1049,533,0,0
-168,491,0,0,0,0,0,0,0,0,0,-1,1056,533,0,0
-161,491,0,0,0,0,0,0,0,0,0,-1,1063,533,0,0
-154,491,0,0,0,0,0,0,0,0,0,-1,1070,533,0,0
-147,491,0,0,0,0,0,0,0,0,0,-1,1077,533,0,0
-140,491,0,0,0,0,0,0,0,0,0,-1,1084,533,0,0
-133,491,0,0,0,0,0,0,0,0,0,-1,1091,533,0,0
-126,491,0,0,0,0,0,0,0,0,0,-1,1098,533,0,0
-119,491,0,0,0,0,0,0,0,0,0,-1,1105,533,0,0
-112,491,0,0,0,0,0,0,0,0,0,-1,1112,533,0,0
-105,491,0,0,0,0,0,0,0,0,0,-1,1119,533,0,0
-98,491,0,0,0,0,0,0,0,0,0,-1,1126,533,0,0
-91,491,0,0,0,0,0,0,0,0,0,-1,1133,533,0,0
-84,491,0,0,0,0,0,0,0,0,0,-1,1140,533,0,0
-77,491,0,0,0,0,0,0,0,0,0,-1,1147,533,0,0
-70,491,0,0,0,0,0,0,0,0,0,-1,1154,533,0,0
-63,491,0,0,0,0,0,0,0,0,0,-1,1161,533,0,0
-56,491,0,0,0,0,0,0,0,0,0,-1,1168,533,0,0
-49,491,0,0,0,0,0,0,0,0,0,-1,1175,533,0,0
-42,491,0,0,0,0,0,0,0,0,0,-1,1182,533,0,0
-35,491,0,0,0,0,0,0,0,0,0,-1,1189,533,0,0
-28,491,0,0,0,0,0,0,0,0,0,-1,1196,533,0,0
-21,491,0,0,0,0,0,0,0,0,0,-1,1203,533,0,0
-14,491,0,0,0,0,0,0,0,0,0,-1,1210,533,0,0
-7,491,0,0,0,0,0,0,0,0,0,-1,1217,533,0,0
0,491,0,0,0,0,0,0,0,0,0,-1,1224,533,0,0
7,491,0,0,0,0,0,0,0,0,0,-1,1231,533,0,0
14,491,0,0,0,0,0,0,0,0,0,-1,1238,533,0,0
21,491,0,0,0,0,0,0,0,0,0,-1,1245,533,0,0
28,491,0,0,0,0,0,0,0,0,0,-1,1252,533,0,0
35,491,0,0,0,0,0,0,0,0,0,-1,1259,533,0,0
42,491,0,0,0,0,0,0,0,0,0,-1,1266,533,0,0
49,491,0,0,0,0,0,0,0,0,0,-1,1273,533,0,0
56,491,0,0,0,0,0,0,0,0,0,-1,1280,533,0,0
63,491,0,0,0,0,0,0,0,0,0,-1,1287,533,0,0
70,491,0,0,0,0,0,0,0,0,0,-1,1294,533,0,0
77,491,0,0,0,0,0,0,0,0,0,-1,1301,533,0,0
84,491,0,0,0,0,0,0,0,0,0,-1,1308,533,0,0
91,491,0,0,0,0,0,0,0,0,0,-1,1315,533,0,0
98,491,0,0,0,0,0,0,0,0,0,-1,1322,533,0,0
105,491,0,0,0,0,0,0,0,0,0,-1,1329,533,0,0
112,491,0,0,0,0,0,0,0,0,0,-1,1336,533,0,0
119,491,0,0,0,0,0,0,0,0,0,-1,1343,533,0,0
126,491,0,0,0,0,0,0,0,0,0,-1,1350,533,0,0
133,491,0,0,0,0,0,0,0,0,0,-1,1357,533,0,0
140,491,0,0,0,0,0,0,0,0,0,-1,1364,533,0,0
147,491,0,0,0,0,0,0,0,0,0,-1,1371,533,0,0
154,491,0,0,0,0,0,0,0,0,0,-1,1378,533,0,0
161,491,0,0,0,0,0,0,0,0,0,-1,1385,533,0,0
168,491,0,0,0,0,0,0,0,0,0,-1,1392,533,0,0
175,491,0,0,0,0,0,0,0,0,0,-1,1399,533,0,0
182,491,0,0,0,0,0,0,0,0,0,-1,1406,533,0,0
189,491,0,0,0,0,0,0,0,0,0,-1,1413,533,0,0
196,491,0,0,0,0,0,0,0,0,0,-1,1420,533,0,0
203,491,0,0,0,0,0,0,0,0,0,-1,1427,533,0,0
210,491,0,0,0,0,0,0,0,0,0,-1,1434,533,0,0
217,491,0,0,0,0,0,0,0,0,0,-1,1441,533,0,0
224,491,0,0,0,0,0,0,0,0,0,-1,1448,533,0,0
231,491,0,0,0,0,0,0,0,0,0,-1,1455,533,0,0
238,491,0,0,0,0,0,0,0,0,0,-1,1462,533,0,0
245,491,0,0,0,0,0,0,0,0,0,-1,1469,533,0,0
252,491,0,0,0,0,0,0,0,0,0,-1,1476,533,0,0
259,491,0,0,0,0,0,0,0,0,0,-1,1483,533,0,0
266,491,0,0,0,0,0,0,0,0,0,-1,1490,533,0,0
273,491,0,0,0,0,0,0,0,0,0,-1,1497,533,0,0
280,491,0,0,0,0,0,0,0,0,0,-1,1504,533,0,0
287,491,0,0,0,0,0,0,0,0,0,-1,1511,533,0,0
294,491,0,0,0,0,0,0,0,0,0,-1,1518,533,0,0
301,491,0,0,0,0,0,0,0,0,0,-1,1525,533,0,0
308,491,0,0,0,0,0,0,0,0,0,-1,1532,533,0,0
315,491,0,0,0,0,0,0,0,0,0,-1,1539,533,0,0
322,491,4.26331,-0.734314,0,0,0,0,0,0,0,-1,1546,533,4.26326,0.734324
329,491,4.25354,-0.783752,0,0,0,0,0,0,0,-1,1553,533,4.25359,0.783734
336,491,4.81604,-0.722107,0,0,0,0,0,0,0,-1,1560,533,4.81605,0.722115
343,491,6.14478,-1.44281,0,0,0,0,0,0,0,-1,1567,533,6.14474,1.44281
350,491,6.36353,-1.30792,0,0,0,0,0,0,0,-1,1574,533,6.36352,1.3079
357,491,6.69482,-1.06018,0,0,0,0,0,0,0,-1,1581,533,6.69489,1.06018
364,491,8.01086,-1.69604,0,0,0,0,0,0,0,-1,1588,533,8.01087,1.69607
371,491,8.2135,-0.539307,0,0,0,0,0,0,0,-1,1595,533,8.21348,0.53929
378,491,13.3589,2.17267,0,0,0,0,0,0,0,-1,1602,533,13.3589,-2.17264
385,491,8.08228,-4.95471,0,0,0,0,0,0,0,-1,1609,533,8.08227,4.95474
392,491,2.88721,-4.30988,0,0,0,0,0,0,0,-1,1616,533,2.88716,4.30986
399,491,8.95862,-8.55518,0,0,0,0,0,0,0,-1,1623,533,8.95864,8.55516
406,491,8.16541,-9.00806,0,0,0,0,0,0,0,-1,1630,533,8.16535,9.00807
413,491,5.31848,-3.7124,0,0,0,0,0,0,0,-1,1637,533,5.31849,3.7124
420,491,4.86389,-3.95892,0,0,0,0,0,0,0,-1,1644,533,4.86387,3.95893
427,491,11.5096,-15.2742,0,0,0,0,0,0,0,-1,1651,533,11.5096,15.2742
434,491,10.9557,-16.0898,0,0,0,0,0,0,0,-1,1658,533,10.9557,16.0898
441,491,11.0734,-15.4878,0.00255898,0.00120714,-0.000444594,0.00269209,0.00107403,-0.290906,0.00156482,0.0370139,1665,533,11.0734,15.4878
448,491,11.03,-15.2896,0.00261371,0.00147826,-7.53319e-05,0.00261869,0.00147329,-0.06596,0.00151585,0.0215345,1672,533,11.0301,15.2896
455,491,11.0231,-14.8276,0.00241167,0.00167716,0.000130271,0.00243409,0.00165474,0.170435,0.0014353,0.0132361,1679,533,11.023,14.8276
462,491,11.026,-14.4008,0.00223145,0.00180019,0.000287832,0.00237547,0.00165617,0.463914,0.00140658,0.0155918,1686,533,11.026,14.4007
469,491,10.9971,-13.9814,0.00212309,0.00170505,0.000496388,0.00245267,0.00137547,0.586126,0.00141954,0.0151144,1693,533,10.9971,13.9814
476,491,11.0111,-13.5289,0.0018545,0.0015248,0.000709216,0.00241777,0.000961525,0.671205,0.00140561,0.0104562,1700,533,11.0112,13.5288
483,491,10.9962,-13.0479,0.0013727,0.00121843,0.000807656,0.0021069,0.000484236,0.737791,0.00127423,0.0123058,1707,533,10.9962,13.0479
490,491,10.9828,-12.6215,0.000671935,0.000867864,0.000825996,0.00160168,-6.18853e-05,0.844424,0.001089,0.0108547,1714,533,10.9828,12.6214
497,491,10.9794,-12.1683,-0.000133918,0.00053444,0.000841721,0.00110589,-0.000705372,0.974365,0.00105422,0.0117363,1721,533,10.9794,12.1683
504,491,10.9766,-11.6987,-0.00110869,-9.58867e-06,0.000683012,0.000317508,-0.00143579,1.12417,0.00107872,0.0137348,1728,533,10.9766,11.6986
511,491,10.9657,-11.2332,-0.00232531,-0.000570486,0.000423913,-0.000473448,-0.00242235,1.34576,0.0014825,0.0127081,1735,533,10.9657,11.2332
518,491,10.953,-10.7626,-0.00378444,-0.00106971,5.14886e-05,-0.00106874,-0.00378542,1.55184,0.00225349,0.00947012,1742,533,10.953,10.7626
525,491,10.9584,-10.2778,-0.00533234,-0.00167607,-0.000466477,-0.0016175,-0.00539092,-1.44588,0.00319433,0.0093044,1749,533,10.9583,10.2778
532,491,10.9568,-9.82196,-0.0069567,-0.00217903,-0.00101413,-0.00197268,-0.00716305,-1.37006,0.00427241,0.0212577,1756,533,10.9568,9.82193
539,491,10.7899,-9.46411,-0.00860099,-0.00245049,-0.001517,-0.00209668,-0.0089548,-1.34166,0.00540819,0.038012,1763,533,10.7899,9.46409
546,491,10.4795,-8.89056,0,0,0,0,0,0,0,-1,1770,533,10.4794,8.89054
553,491,10.5021,-7.77869,0,0,0,0,0,0,0,-1,1777,533,10.502,7.77871
560,491,6.28455,-1.43585,0,0,0,0,0,0,0,-1,1784,533,6.28458,1.43586
567,491,5.67651,-1.3562,0,0,0,0,0,0,0,-1,1791,533,5.67649,1.3562
574,491,8.0719,1.58325,0,0,0,0,0,0,0,-1,1798,533,8.07195,-1.58326
581,491,9.44812,1.60931,0,0,0,0,0,0,0,-1,1805,533,9.44808,-1.60933
588,491,11.0497,1.54962,0,0,0,0,0,0,0,-1,1812,533,11.0496,-1.54963
595,491,0,0,0,0,0,0,0,0,0,-1,1819,533,0,0
602,491,0,0,0,0,0,0,0,0,0,-1,1826,533,0,0
609,491,0,0,0,0,0,0,0,0,0,-1,1833,533,0,0
616,491,0,0,0,0,0,0,0,0,0,-1,1840,533,0,0
623,491,0,0,0,0,0,0,0,0,0,-1,1847,533,0,0
630,491,0,0,0,0,0,0,0,0,0,-1,1854,533,0,0
637,491,0,0,0,0,0,0,0,0,0,-1,1861,533,0,0
644,491,0,0,0,0,0,0,0,0,0,-1,1868,533,0,0
651,491,0,0,0,0,0,0,0,0,0,-1,1875,533,0,0
658,491,0,0,0,0,0,0,0,0,0,-1,1882,533,0,0
665,491,0,0,0,0,0,0,0,0,0,-1,1889,533,0,0
672,491,0,0,0,0,0,0,0,0,0,-1,1896,533,0,0
679,491,0,0,0,0,0,0,0,0,0,-1,1903,533,0,0
686,491,0,0,0,0,0,0,0,0,0,-1,1910,533,0,0
693,491,0,0,0,0,0,0,0,0,0,-1,1917,533,0,0
700,491,0,0,0,0,0,0,0,0,0,-1,1924,533,0,0
707,491,0,0,0,0,0,0,0,0,0,-1,1931,533,0,0
714,491,0,0,0,0,0,0,0,0,0,-1,1938,533,0,0
721,491,0,0,0,0,0,0,0,0,0,-1,1945,533,0,0
728,491,0,0,0,0,0,0,0,0,0,-1,1952,533,0,0
735,491,0,0,0,0,0,0,0,0,0,-1,1959,533,0,0
742,491,0,0,0,0,0,0,0,0,0,-1,1966,533,0,0
749,491,0,0,0,0,0,0,0,0,0,-1,1973,533,0,0
756,491,0,0,0,0,0,0,0,0,0,-1,1980,533,0,0
763,491,0,0,0,0,0,0,0,0,0,-1,1987,533,0,0
770,491,0,0,0,0,0,0,0,0,0,-1,1994,533,0,0
777,491,0,0,0,0,0,0,0,0,0,-1,2001,533,0,0
784,491,0,0,0,0,0,0,0,0,0,-1,2008,533,0,0
791,491,0,0,0,0,0,0,0,0,0,-1,2015,533,0,0
798,491,0,0,0,0,0,0,0,0,0,-1,2022,533,0,0
805,491,0,0,0,0,0,0,0,0,0,-1,2029,533,0,0
812,491,0,0,0,0,0,0,0,0,0,-1,2036,533,0,0
-700,484,0,0,0,0,0,0,0,0,0,-1,524,540,0,0
-693,484,0,0,0,0,0,0,0,0,0,-1,531,540,0,0
-686,484,0,0,0,0,0,0,0,0,0,-1,538,540,0,0
-679,484,0,0,0,0,0,0,0,0,0,-1,545,540,0,0
-672,484,0,0,0,0,0,0,0,0,0,-1,552,540,0,0
-665,484,0,0,0,0,0,0,0,0,0,-1,559,540,0,0
-658,484,0,0,0,0,0,0,0,0,0,-1,566,540,0,0
-651,484,0,0,0,0,0,0,0,0,0,-1,573,540,0,0
-644,484,0,0,0,0,0,0,0,0,0,-1,580,540,0,0
-637,484,0,0,0,0,0,0,0,0,0,-1,587,540,0,0
-630,484,0,0,0,0,0,0,0,0,0,-1,594,540,0,0
-623,484,0,0,0,0,0,0,0,0,0,-1,601,540,0,0
-616,484,0,0,0,0,0,0,0,0,0,-1,608,540,0,0
-609,484,0,0,0,0,0,0,0,0,0,-1,615,540,0,0
-602,484,0,0,0,0,0,0,0,0,0,-1,622,540,0,0
-595,484,0,0,0,0,0,0,0,0,0,-1,629,540,0,0
-588,484,0,0,0,0,0,0,0,0,0,-1,636,540,0,0
-581,484,0,0,0,0,0,0,0,0,0,-1,643,540,0,0
-574,484,0,0,0,0,0,0,0,0,0,-1,650,540,0,0
-567,484,0,0,0,0,0,0,0,0,0,-1,657,540,0,0
-560,484,0,0,0,0,0,0,0,0,0,-1,664,540,0,0
-553,484,0,0,0,0,0,0,0,0,0,-1,671,540,0,0
-546,484,0,0,0,0,0,0,0,0,0,-1,678,540,0,0
-539,484,0,0,0,0,0,0,0,0,0,-1,685,540,0,0
-532,484,0,0,0,0,0,0,0,0,0,-1,692,540,0,0
-525,484,0,0,0,0,0,0,0,0,0,-1,699,540,0,0
-518,484,0,0,0,0,0,0,0,0,0,-1,706,540,0,0
-511,484,0,0,0,0,0,0,0,0,0,-1,713,540,0,0
-504,484,0,0,0,0,0,0,0,0,0,-1,720,540,0,0
-497,484,0,0,0,0,0,0,0,0,0,-1,727,540,0,0
-490,484,0,0,0,0,0,0,0,0,0,-1,734,540,0,0
-483,484,0,0,0,0,0,0,0,0,0,-1,741,540,0,0
-476,484,-8.46552,1.44702,0,0,0,0,0,0,0,-1,748,540,-8.46554,-1.44702
-469,484,-7.82343,1.70355,0,0,0,0,0,0,0,-1,755,540,-7.82345,-1.70355
-462,484,-8.36987,3.08612,0,0,0,0,0,0,0,-1,762,540,-8.36988,-3.0861
-455,484,-6.77197,2.07092,0,0,0,0,0,0,0,-1,769,540,-6.77197,-2.07094
-448,484,3.54895,-1.40106,0,0,0,0,0,0,0,-1,776,540,3.54897,1.40106
-441,484,4.28906,-3.05884,0,0,0,0,0,0,0,-1,783,540,4.28905,3.05883
-434,484,-2.17548,-5.07245,0,0,0,0,0,0,0,-1,790,540,-2.17546,5.07243
-427,484,-2.81122,-9.50757,0,0,0,0,0,0,0,-1,797,540,-2.81119,9.50757
-420,484,-2.81665,-10.1882,0,0,0,0,0,0,0,-1,804,540,-2.81664,10.1882
-413,484,-2.80542,-10.7787,0.0012738,0.0156081,-0.0080245,0.0192002,-0.00231825,-1.14991,0.0136387,0.0305977,811,540,-2.80543,10.7787
-406,484,-2.85785,-11.3391,0.00143968,0.0128502,-0.007006,0.0161801,-0.00189021,-1.12711,0.0114688,0.0163306,818,540,-2.85785,11.3391
-399,484,-2.91022,-11.8351,0.00141695,0.0102397,-0.00590816,0.0132017,-0.00154505,-1.10608,0.00935875,0.0164165,825,540,-2.91024,11.8351
-392,484,-2.94275,-12.2856,0.00138022,0.0077819,-0.00477967,0.0103335,-0.00117139,-1.08044,0.00731081,0.0180883,832,540,-2.94276,12.2856
-385,484,-2.98077,-12.7371,0.00145782,0.00560863,-0.00370731,0.00778192,-0.00071547,-1.04057,0.00544214,0.0126488,839,540,-2.98079,12.7371
-378,484,-2.95825,-13.1541,0.00160512,0.00379922,-0.00277268,0.00568399,-0.000279647,-0.97378,0.0038859,0.0137686,846,540,-2.95823,13.1541
-371,484,-2.96271,-13.5785,0.00173217,0.00219928,-0.00191484,0.00389476,3.66934e-05,-0.846083,0.00258436,0.0157625,853,540,-2.9627,13.5785
-364,484,-2.97693,-14.0053,0.00189971,0.000873382,-0.00115725,0.00265247,0.00012062,-0.576708,0.00172951,0.0123097,860,540,-2.97692,14.0053
-357,484,-2.99634,-14.4351,0.00220338,-1.19791e-05,-0.000607104,0.00235884,-0.000167442,-0.250686,0.00163124,0.012825,867,540,-2.99634,14.4351
-350,484,-3.00952,-14.8415,0.00263812,-0.000495983,-0.00034595,0.00267586,-0.000533716,-0.10864,0.00198586,0.0143067,874,540,-3.00954,14.8415
-343,484,-2.98889,-15.2728,0.00314633,-0.000595237,-0.00034337,0.00317758,-0.000626488,-0.0907615,0.00235516,0.0218043,881,540,-2.98888,15.2728
-336,484,-2.94312,-15.7058,0.00363901,-0.000658306,-0.00041577,0.00367887,-0.000698163,-0.0955698,0.00271539,0.0258465,888,540,-2.94311,15.7058
-329,484,-2.91486,-16.0798,0.00429588,-0.000547974,-0.000711822,0.00439832,-0.000650412,-0.142929,0.00317133,0.0362116,895,540,-2.91484,16.0799
-322,484,-2.91876,-16.5781,0,0,0,0,0,0,0,-1,902,540,-2.91874,16.5781
-315,484,-2.83228,-16.9836,0,0,0,0,0,0,0,-1,909,540,-2.83227,16.9836
-308,484,-1.32623,-8.9317,0,0,0,0,0,0,0,-1,916,540,-1.32626,8.93173
-301,484,-1.33453,-6.52667,0,0,0,0,0,0,0,-1,923,540,-1.33454,6.5267
-294,484,-1.61224,-8.17059,0,0,0,0,0,0,0,-1,930,540,-1.61227,8.17058
-287,484,-0.715759,-5.62103,0,0,0,0,0,0,0,-1,937,540,-0.715772,5.62105
-280,484,2.66742,-1.6795,0,0,0,0,0,0,0,-1,944,540,2.6674,1.67949
-273,484,2.53125,-2.22296,0,0,0,0,0,0,0,-1,951,540,2.53128,2.22295
-266,484,2.6778,-2.72058,0,0,0,0,0,0,0,-1,958,540,2.6778,2.72061
-259,484,2.41718,-2.59894,0,0,0,0,0,0,0,-1,965,540,2.41717,2.59892
-252,484,10.6069,-11.696,0,0,0,0,0,0,0,-1,972,540,10.6069,11.696
-245,484,6.34106,-11.6107,0,0,0,0,0,0,0,-1,979,540,6.34104,11.6107
-238,484,4.89319,-8.54059,0,0,0,0,0,0,0,-1,986,540,4.89321,8.5406
-231,484,3.47675,-5.22064,0,0,0,0,0,0,0,-1,993,540,3.47676,5.22067
-224,484,1.71344,-2.03473,0,0,0,0,0,0,0,-1,1000,540,1.71342,2.03472
-217,484,-0.745056,1.17358,0,0,0,0,0,0,0,-1,1007,540,-0.745043,-1.17359
-210,484,0,0,0,0,0,0,0,0,0,-1,1014,540,0,0
-203,484,0,0,0,0,0,0,0,0,0,-1,1021,540,0,0
-196,484,0,0,0,0,0,0,0,0,0,-1,1028,540,0,0
-189,484,0,0,0,0,0,0,0,0,0,-1,1035,540,0,0
-182,484,0,0,0,0,0,0,0,0,0,-1,1042,540,0,0
-175,484,0,0,0,0,0,0,0,0,0,-1,1049,540,0,0
-168,484,0,0,0,0,0,0,0,0,0,-1,1056,540,0,0
-161,484,0,0,0,0,0,0,0,0,0,-1,1063,540,0,0
-154,484,0,0,0,0,0,0,0,0,0,-1,1070,540,0,0
-147,484,0,0,0,0,0,0,0,0,0,-1,1077,540,0,0
-140,484,0,0,0,0,0,0,0,0,0,-1,1084,540,0,0
-133,484,0,0,0,0,0,0,0,0,0,-1,1091,540,0,0
-126,484,0,0,0,0,0,0,0,0,0,-1,1098,540,0,0
-119,484,0,0,0,0,0,0,0,0,0,-1,1105,540,0,0
-112,484,0,0,0,0,0,0,0,0,0,-1,1112,540,0,0
-105,484,0,0,0,0,0,0,0,0,0,-1,1119,540,0,0
-98,484,0,0,0,0,0,0,0,0,0,-1,1126,540,0,0
-91,484,0,0,0,0,0,0,0,0,0,-1,1133,540,0,0
-84,484,0,0,0,0,0,0,0,0,0,-1,1140,540,0,0
-77,484,0,0,0,0,0,0,0,0,0,-1,1147,540,0,0
-70,484,0,0,0,0,0,0,0,0,0,-1,1154,540,0,0
-63,484,0,0,0,0,0,0,0,0,0,-1,1161,540,0,0
-56,484,0,0,0,0,0,0,0,0,0,-1,1168,540,0,0
-49,484,0,0,0,0,0,0,0,0,0,-1,1175,540,0,0
-42,484,0,0,0,0,0,0,0,0,0,-1,1182,540,0,0
-35,484,0,0,0,0,0,0,0,0,0,-1,1189,540,0,0
-28,484,0,0,0,0,0,0,0,0,0,-1,1196,540,0,0
-21,484,0,0,0,0,0,0,0,0,0,-1,1203,540,0,0
-14,484,0,0,0,0,0,0,0,0,0,-1,1210,540,0,0
-7,484,0,0,0,0,0,0,0,0,0,-1,1217,540,0,0
0,484,0,0,0,0,0,0,0,0,0,-1,1224,540,0,0
7,484,0,0,0,0,0,0,0,0,0,-1,1231,540,0,0
14,484,0,0,0,0,0,0,0,0,0,-1,1238,540,0,0
21,484,0,0,0,0,0,0,0,0,0,-1,1245,540,0,0
28,484,0,0,0,0,0,0,0,0,0,-1,1252,540,0,0
35,484,0,0,0,0,0,0,0,0,0,-1,1259,540,0,0
42,484,0,0,0,0,0,0,0,0,0,-1,1266,540,0,0
49,484,0,0,0,0,0,0,0,0,0,-1,1273,540,0,0
56,484,0,0,0,0,0,0,0,0,0,-1,1280,540,0,0
63,484,0,0,0,0,0,0,0,0,0,-1,1287,540,0,0
70,484,0,0,0,0,0,0,0,0,0,-1,1294,540,0,0
77,484,0,0,0,0,0,0,0,0,0,-1,1301,540,0,0
84,484,0,0,0,0,0,0,0,0,0,-1,1308,540,0,0
91,484,0,0,0,0,0,0,0,0,0,-1,1315,540,0,0
98,484,0,0,0,0,0,0,0,0,0,-1,1322,540,0,0
105,484,0,0,0,0,0,0,0,0,0,-1,1329,540,0,0
112,484,0,0,0,0,0,0,0,0,0,-1,1336,540,0,0
119,484,0,0,0,0,0,0,0,0,0,-1,1343,540,0,0
126,484,0,0,0,0,0,0,0,0,0,-1,1350,540,0,0
133,484,0,0,0,0,0,0,0,0,0,-1,1357,540,0,0
140,484,0,0,0,0,0,0,0,0,0,-1,1364,540,0,0
147,484,0,0,0,0,0,0,0,0,0,-1,1371,540,0,0
154,484,0,0,0,0,0,0,0,0,0,-1,1378,540,0,0
161,484,0,0,0,0,0,0,0,0,0,-1,1385,540,0,0
168,484,0,0,0,0,0,0,0,0,0,-1,1392,540,0,0
175,484,0,0,0,0,0,0,0,0,0,-1,1399,540,0,0
182,484,0,0,0,0,0,0,0,0,0,-1,1406,540,0,0
189,484,0,0,0,0,0,0,0,0,0,-1,1413,540,0,0
196,484,0,0,0,0,0,0,0,0,0,-1,1420,540,0,0
203,484,0,0,0,0,0,0,0,0,0,-1,1427,540,0,0
210,484,0,0,0,0,0,0,0,0,0,-1,1434,540,0,0
217,484,0,0,0,0,0,0,0,0,0,-1,1441,540,0,0
224,484,0,0,0,0,0,0,0,0,0,-1,1448,540,0,0
231,484,0,0,0,0,0,0,0,0,0,-1,1455,540,0,0
238,484,0,0,0,0,0,0,0,0,0,-1,1462,540,0,0
245,484,0,0,0,0,0,0,0,0,0,-1,1469,540,0,0
252,484,0,0,0,0,0,0,0,0,0,-1,1476,540,0,0
259,484,0,0,0,0,0,0,0,0,0,-1,1483,540,0,0
266,484,0,0,0,0,0,0,0,0,0,-1,1490,540,0,0
273,484,0,0,0,0,0,0,0,0,0,-1,1497,540,0,0
280,484,0,0,0,0,0,0,0,0,0,-1,1504,540,0,0
287,484,0,0,0,0,0,0,0,0,0,-1,1511,540,0,0
294,484,0,0,0,0,0,0,0,0,0,-1,1518,540,0,0
301,484,0,0,0,0,0,0,0,0,0,-1,1525,540,0,0
308,484,0,0,0,0,0,0,0,0,0,-1,1532,540,0,0
315,484,0,0,0,0,0,0,0,0,0,-1,1539,540,0,0
322,484,0,0,0,0,0,0,0,0,0,-1,1546,540,0,0
329,484,0,0,0,0,0,0,0,0,0,-1,1553,540,0,0
336,484,4.38708,-1.64136,0,0,0,0,0,0,0,-1,1560,540,4.38704,1.64138
343,484,7.57996,-1.05457,0,0,0,0,0,0,0,-1,1567,540,7.57995,1.05454
350,484,8.10425,-1.18878,0,0,0,0,0,0,0,-1,1574,540,8.1043,1.18877
357,484,7.74902,-3.80286,0,0,0,0,0,0,0,-1,1581,540,7.74901,3.80287
364,484,6.31262,-3.87213,0,0,0,0,0,0,0,-1,1588,540,6.31263,3.87215
371,484,7.21008,0.973511,0,0,0,0,0,0,0,-1,1595,540,7.21014,-0.973541
378,484,11.0563,1.5014,0,0,0,0,0,0,0,-1,1602,540,11.0563,-1.5014
385,484,14.3469,2.5545,0,0,0,0,0,0,0,-1,1609,540,14.3469,-2.55453
392,484,7.39453,-4.95026,0,0,0,0,0,0,0,-1,1616,540,7.39448,4.95023
399,484,7.14417,-2.5639,0,0,0,0,0,0,0,-1,1623,540,7.14417,2.56391
406,484,7.88953,-2.47321,0,0,0,0,0,0,0,-1,1630,540,7.88954,2.47323
413,484,4.4895,-1.08673,0,0,0,0,0,0,0,-1,1637,540,4.48952,1.08674
420,484,4.50012,-2.11255,0,0,0,0,0,0,0,-1,1644,540,4.50012,2.11256
427,484,5.28601,-3.54053,0,0,0,0,0,0,0,-1,1651,540,5.28599,3.54051
434,484,11.1488,-13.5359,0,0,0,0,0,0,0,-1,1658,540,11.1489,13.5359
441,484,11.4799,-15.1765,0,0,0,0,0,0,0,-1,1665,540,11.4799,15.1765
448,484,11.6823,-15.5089,0,0,0,0,0,0,0,-1,1672,540,11.6823,15.5089
455,484,11.4911,-14.9209,0.00301902,0.00235136,0.00022432,0.00308738,0.00228299,0.295828,0.00184939,0.0368691,1679,540,11.4911,14.9209
462,484,11.4938,-14.3789,0.00286578,0.00256675,0.000420502,0.00316256,0.00226997,0.614588,0.00188274,0.0183061,1686,540,11.4938,14.3789
469,484,11.4847,-13.9564,0.00281493,0.00246008,0.000622871,0.00328515,0.00198986,0.646646,0.00191076,0.0174704,1693,540,11.4847,13.9564
476,484,11.4734,-13.4854,0.002656,0.00227885,0.000875429,0.00336293,0.00157192,0.679317,0.00194296,0.0147998,1700,540,11.4734,13.4853
483,484,11.458,-13.0381,0.00223626,0.00194084,0.000991581,0.00309107,0.00108603,0.71146,0.00181073,0.0121126,1707,540,11.458,13.0381
490,484,11.4543,-12.6269,0.00159901,0.0016016,0.00100211,0.00260241,0.000598192,0.786044,0.0015739,0.0122199,1714,540,11.4543,12.6269
497,484,11.4395,-12.1523,0.000869603,0.00128793,0.00101295,0.00211309,4.44424e-05,0.887211,0.00139415,0.0132965,1721,540,11.4394,12.1523
504,484,11.4243,-11.6928,-4.46348e-06,0.000724617,0.000834176,0.00127043,-0.000550274,0.991396,0.00107824,0.0158178,1728,540,11.4243,11.6928
511,484,11.4285,-11.2366,-0.00107388,0.000150744,0.000562447,0.00036986,-0.00129299,1.19931,0.00100816,0.0178571,1735,540,11.4285,11.2366
518,484,11.4092,-10.7663,-0.00234279,-0.00031983,0.000205676,-0.000299131,-0.00236349,1.47049,0.00148602,0.0149777,1742,540,11.4092,10.7663
525,484,11.4043,-10.3004,-0.00363122,-0.000879008,-0.00025753,-0.000855118,-0.00365511,-1.47829,0.00220761,0.0131754,1749,540,11.4043,10.3003
532,484,11.4147,-9.81573,-0.00493969,-0.00130894,-0.000726032,-0.00116914,-0.00507949,-1.38057,0.0030717,0.0156709,1756,540,11.4146,9.81572
539,484,11.3638,-9.29193,-0.00623323,-0.00158509,-0.00115229,-0.00131512,-0.00650321,-1.34065,0.00397038,0.033503,1763,540,11.3638,9.2919
546,484,11.3207,-8.78973,0,0,0,0,0,0,0,-1,1770,540,11.3207,8.78973
553,484,11.2686,-8.13928,0,0,0,0,0,0,0,-1,1777,540,11.2685,8.13927
560,484,10.0549,-5.47931,0,0,0,0,0,0,0,-1,1784,540,10.055,5.47928
567,484,7.78223,-1.38312,0,0,0,0,0,0,0,-1,1791,540,7.78224,1.38311
574,484,5.74463,1.50922,0,0,0,0,0,0,0,-1,1798,540,5.74463,-1.50924
581,484,10.34,2.9491,0,0,0,0,0,0,0,-1,1805,540,10.34,-2.94912
588,484,10.6669,2.88568,0,0,0,0,0,0,0,-1,1812,540,10.6669,-2.88567
595,484,10.7233,1.04767,0,0,0,0,0,0,0,-1,1819,540,10.7233,-1.04766
602,484,0,0,0,0,0,0,0,0,0,-1,1826,540,0,0
609,484,0,0,0,0,0,0,0,0,0,-1,1833,540,0,0
616,484,0,0,0,0,0,0,0,0,0,-1,1840,540,0,0
623,484,0,0,0,0,0,0,0,0,0,-1,1847,540,0,0
630,484,0,0,0,0,0,0,0,0,0,-1,1854,540,0,0
637,484,0,0,0,0,0,0,0,0,0,-1,1861,540,0,0
644,484,0,0,0,0,0,0,0,0,0,-1,1868,540,0,0
651,484,0,0,0,0,0,0,0,0,0,-1,1875,540,0,0
658,484,0,0,0,0,0,0,0,0,0,-1,1882,540,0,0
665,484,0,0,0,0,0,0,0,0,0,-1,1889,540,0,0
672,484,0,0,0,0,0,0,0,0,0,-1,1896,540,0,0
679,484,0,0,0,0,0,0,0,0,0,-1,1903,540,0,0
686,484,0,0,0,0,0,0,0,0,0,-1,1910,540,0,0
693,484,0,0,0,0,0,0,0,0,0,-1,1917,540,0,0
700,484,0,0,0,0,0,0,0,0,0,-1,1924,540,0,0
707,484,0,0,0,0,0,0,0,0,0,-1,1931,540,0,0
714,484,0,0,0,0,0,0,0,0,0,-1,1938,540,0,0
721,484,0,0,0,0,0,0,0,0,0,-1,1945,540,0,0
728,484,0,0,0,0,0,0,0,0,0,-1,1952,540,0,0
735,484,0,0,0,0,0,0,0,0,0,-1,1959,540,0,0
742,484,0,0,0,0,0,0,0,0,0,-1,1966,540,0,0
749,484,0,0,0,0,0,0,0,0,0,-1,1973,540,0,0
756,484,0,0,0,0,0,0,0,0,0,-1,1980,540,0,0
763,484,0,0,0,0,0,0,0,0,0,-1,1987,540,0,0
770,484,0,0,0,0,0,0,0,0,0,-1,1994,540,0,0
777,484,0,0,0,0,0,0,0,0,0,-1,2001,540,0,0
784,484,0,0,0,0,0,0,0,0,0,-1,2008,540,0,0
791,484,0,0,0,0,0,0,0,0,0,-1,2015,540,0,0
798,484,0,0,0,0,0,0,0,0,0,-1,2022,540,0,0
805,484,0,0,0,0,0,0,0,0,0,-1,2029,540,0,0
812,484,0,0,0,0,0,0,0,0,0,-1,2036,540,0,0
-700,477,0,0,0,0,0,0,0,0,0,-1,524,547,0,0
-693,477,0,0,0,0,0,0,0,0,0,-1,531,547,0,0
-686,477,0,0,0,0,0,0,0,0,0,-1,538,547,0,0
-679,477,0,0,0,0,0,0,0,0,0,-1,545,547,0,0
-672,477,0,0,0,0,0,0,0,0,0,-1,552,547,0,0
-665,477,0,0,0,0,0,0,0,0,0,-1,559,547,0,0
-658,477,0,0,0,0,0,0,0,0,0,-1,566,547,0,0
-651,477,0,0,0,0,0,0,0,0,0,-1,573,547,0,0
-644,477,0,0,0,0,0,0,0,0,0,-1,580,547,0,0
-637,477,0,0,0,0,0,0,0,0,0,-1,587,547,0,0
-630,477,0,0,0,0,0,0,0,0,0,-1,594,547,0,0
-623,477,0,0,0,0,0,0,0,0,0,-1,601,547,0,0
-616,477,0,0,0,0,0,0,0,0,0,-1,608,547,0,0
-609,477,0,0,0,0,0,0,0,0,0,-1,615,547,0,0
-602,477,0,0,0,0,0,0,0,0,0,-1,622,547,0,0
-595,477,0,0,0,0,0,0,0,0,0,-1,629,547,0,0
-588,477,0,0,0,0,0,0,0,0,0,-1,636,547,0,0
-581,477,0,0,0,0,0,0,0,0,0,-1,643,547,0,0
-574,477,0,0,0,0,0,0,0,0,0,-1,650,547,0,0
-567,477,0,0,0,0,0,0,0,0,0,-1,657,547,0,0
-560,477,0,0,0,0,0,0,0,0,0,-1,664,547,0,0
-553,477,0,0,0,0,0,0,0,0,0,-1,671,547,0,0
-546,477,0,0,0,0,0,0,0,0,0,-1,678,547,0,0
-539,477,0,0,0,0,0,0,0,0,0,-1,685,547,0,0
-532,477,0,0,0,0,0,0,0,0,0,-1,692,547,0,0
-525,477,0,0,0,0,0,0,0,0,0,-1,699,547,0,0
-518,477,0,0,0,0,0,0,0,0,0,-1,706,547,0,0
-511,477,0,0,0,0,0,0,0,0,0,-1,713,547,0,0
-504,477,0,0,0,0,0,0,0,0,0,-1,720,547,0,0
-497,477,0,0,0,0,0,0,0,0,0,-1,727,547,0,0
-490,477,0,0,0,0,0,0,0,0,0,-1,734,547,0,0
-483,477,-7.73151,-0.224182,0,0,0,0,0,0,0,-1,741,547,-7.73152,0.224176
-476,477,-6.25806,-0.310547,0,0,0,0,0,0,0,-1,748,547,-6.25804,0.310549
-469,477,-7.26617,0.525085,0,0,0,0,0,0,0,-1,755,547,-7.2662,-0.525111
-462,477,-6.65143,1.06042,0,0,0,0,0,0,0,-1,762,547,-6.65143,-1.06043
-455,477,-5.31757,0.429016,0,0,0,0,0,0,0,-1,769,547,-5.31756,-0.42902
-448,477,-4.0697,0.273376,0,0,0,0,0,0,0,-1,776,547,-4.06971,-0.273363
-441,477,-2.47504,-4.76971,0,0,0,0,0,0,0,-1,783,547,-2.47505,4.76973
-434,477,-3.09833,-9.60315,0,0,0,0,0,0,0,-1,790,547,-3.09835,9.60313
-427,477,-3.2655,-9.7901,-0.000428651,0.016465,-0.00686145,0.0189006,-0.00286431,-1.22969,0.0136557,0.0372717,797,547,-3.26553,9.7901
-420,477,-3.31647,-10.1122,0.000211122,0.0140889,-0.0063578,0.0165612,-0.00226114,-1.19993,0.0118665,0.0313632,804,547,-3.31646,10.1122
-413,477,-3.30078,-10.7847,0.000632735,0.01171,-0.00574171,0.0141491,-0.00180633,-1.1691,0.0100889,0.0188224,811,547,-3.30081,10.7847
-406,477,-3.35028,-11.3215,0.000918175,0.00966571,-0.00502928,0.011957,-0.00137315,-1.1433,0.00846627,0.0109731,818,547,-3.35028,11.3215
-399,477,-3.35101,-11.8015,0.00103082,0.00767366,-0.00423667,0.00973566,-0.00103118,-1.11784,0.00686004,0.0191827,825,547,-3.35099,11.8014
-392,477,-3.39508,-12.2704,0.00114093,0.00574268,-0.00340005,0.00754721,-0.000663602,-1.08286,0.00526663,0.0179858,832,547,-3.39506,12.2704
-385,477,-3.40845,-12.7041,0.00135446,0.00401099,-0.00258578,0.00558971,-0.000224255,-1.02266,0.00380343,0.0146516,839,547,-3.40845,12.7041
-378,477,-3.39886,-13.1307,0.00160356,0.00253172,-0.00185113,0.00397605,0.00015923,-0.908217,0.00259925,0.0127472,846,547,-3.39889,13.1307
-371,477,-3.39966,-13.5512,0.00183584,0.00119576,-0.00114638,0.00270602,0.000325585,-0.649276,0.00170587,0.0126843,853,547,-3.39965,13.5512
-364,477,-3.42438,-13.9705,0.00212341,8.77932e-05,-0.000518898,0.00224805,-3.68467e-05,-0.235735,0.00151113,0.0131295,860,547,-3.42437,13.9705
-357,477,-3.44806,-14.4074,0.00254824,-0.000667474,-6.67973e-05,0.00254963,-0.000668861,-0.0207602,0.0019611,0.0106216,867,547,-3.44808,14.4074
-350,477,-3.45496,-14.8275,0.00314774,-0.000935668,5.58995e-05,0.0031485,-0.000936433,0.013686,0.00247102,0.0098287,874,547,-3.45494,14.8275
-343,477,-3.40271,-15.2791,0.00385108,-0.000801804,-0.00011056,0.0038537,-0.00080443,-0.0237438,0.00287504,0.0183737,881,547,-3.40269,15.2791
-336,477,-3.3161,-15.718,0.00447008,-0.000785288,-0.00026275,0.00448319,-0.000798392,-0.0498308,0.0032874,0.0356591,888,547,-3.31611,15.718
-329,477,-3.15649,-16.1312,0,0,0,0,0,0,0,-1,895,547,-3.15652,16.1312
-322,477,-2.04822,-12.0026,0,0,0,0,0,0,0,-1,902,547,-2.04819,12.0026
-315,477,-1.67358,-9.15253,0,0,0,0,0,0,0,-1,909,547,-1.67356,9.15253
-308,477,-1.30127,-6.55188,0,0,0,0,0,0,0,-1,916,547,-1.30128,6.55185
-301,477,-1.21185,-6.28351,0,0,0,0,0,0,0,-1,923,547,-1.21184,6.28352
-294,477,-0.352905,3.27142,0,0,0,0,0,0,0,-1,930,547,-0.35292,-3.27144
-287,477,3.54364,2.15399,0,0,0,0,0,0,0,-1,937,547,3.54362,-2.15396
-280,477,1.97308,-0.954163,0,0,0,0,0,0,0,-1,944,547,1.9731,0.954178
-273,477,2.11621,-3.76709,0,0,0,0,0,0,0,-1,951,547,2.11619,3.76706
-266,477,2.04669,-3.42389,0,0,0,0,0,0,0,-1,958,547,2.04671,3.42391
-259,477,-1.33478,-3.41205,0,0,0,0,0,0,0,-1,965,547,-1.3348,3.41206
-252,477,0.597168,-5.32922,0,0,0,0,0,0,0,-1,972,547,0.597144,5.32924
-245,477,8.2309,-8.48492,0,0,0,0,0,0,0,-1,979,547,8.23091,8.48494
-238,477,6.60938,-5.64063,0,0,0,0,0,0,0,-1,986,547,6.60938,5.64063
-231,477,4.71716,-2.52484,0,0,0,0,0,0,0,-1,993,547,4.71716,2.52483
-224,477,0,0,0,0,0,0,0,0,0,-1,1000,547,0,0
-217,477,0,0,0,0,0,0,0,0,0,-1,1007,547,0,0
-210,477,0,0,0,0,0,0,0,0,0,-1,1014,547,0,0
-203,477,0,0,0,0,0,0,0,0,0,-1,1021,547,0,0
-196,477,0,0,0,0,0,0,0,0,0,-1,1028,547,0,0
-189,477,0,0,0,0,0,0,0,0,0,-1,1035,547,0,0
-182,477,0,0,0,0,0,0,0,0,0,-1,1042,547,0,0
-175,477,0,0,0,0,0,0,0,0,0,-1,1049,547,0,0
-168,477,0,0,0,0,0,0,0,0,0,-1,1056,547,0,0
-161,477,0,0,0,0,0,0,0,0,0,-1,1063,547,0,0
-154,477,0,0,0,0,0,0,0,0,0,-1,1070,547,0,0
-147,477,0,0,0,0,0,0,0,0,0,-1,1077,547,0,0
-140,477,0,0,0,0,0,0,0,0,0,-1,1084,547,0,0
-133,477,0,0,0,0,0,0,0,0,0,-1,1091,547,0,0
-126,477,0,0,0,0,0,0,0,0,0,-1,1098,547,0,0
-119,477,0,0,0,0,0,0,0,0,0,-1,1105,547,0,0
-112,477,0,0,0,0,0,0,0,0,0,-1,1112,547,0,0
-105,477,0,0,0,0,0,0,0,0,0,-1,1119,547,0,0
-98,477,0,0,0,0,0,0,0,0,0,-1,1126,547,0,0
-91,477,0,0,0,0,0,0,0,0,0,-1,1133,547,0,0
-84,477,0,0,0,0,0,0,0,0,0,-1,1140,547,0,0
-77,477,0,0,0,0,0,0,0,0,0,-1,1147,547,0,0
-70,477,0,0,0,0,0,0,0,0,0,-1,1154,547,0,0
-63,477,0,0,0,0,0,0,0,0,0,-1,1161,547,0,0
-56,477,0,0,0,0,0,0,0,0,0,-1,1168,547,0,0
-49,477,0,0,0,0,0,0,0,0,0,-1,1175,547,0,0
-42,477,0,0,0,0,0,0,0,0,0,-1,1182,547,0,0
-35,477,0,0,0,0,0,0,0,0,0,-1,1189,547,0,0
-28,477,0,0,0,0,0,0,0,0,0,-1,1196,547,0,0
-21,477,0,0,0,0,0,0,0,0,0,-1,1203,547,0,0
-14,477,0,0,0,0,0,0,0,0,0,-1,1210,547,0,0
-7,477,0,0,0,0,0,0,0,0,0,-1,1217,547,0,0
0,477,0,0,0,0,0,0,0,0,0,-1,1224,547,0,0
7,477,0,0,0,0,0,0,0,0,0,-1,1231,547,0,0
14,477,0,0,0,0,0,0,0,0,0,-1,1238,547,0,0
21,477,0,0,0,0,0,0,0,0,0,-1,1245,547,0,0
28,477,0,0,0,0,0,0,0,0,0,-1,1252,547,0,0
35,477,0,0,0,0,0,0,0,0,0,-1,1259,547,0,0
42,477,0,0,0,0,0,0,0,0,0,-1,1266,547,0,0
49,477,0,0,0,0,0,0,0,0,0,-1,1273,547,0,0
56,477,0,0,0,0,0,0,0,0,0,-1,1280,547,0,0
63,477,0,0,0,0,0,0,0,0,0,-1,1287,547,0,0
70,477,0,0,0,0,0,0,0,0,0,-1,1294,547,0,0
77,477,0,0,0,0,0,0,0,0,0,-1,1301,547,0,0
84,477,0,0,0,0,0,0,0,0,0,-1,1308,547,0,0
91,477,0,0,0,0,0,0,0,0,0,-1,1315,547,0,0
98,477,0,0,0,0,0,0,0,0,0,-1,1322,547,0,0
105,477,0,0,0,0,0,0,0,0,0,-1,1329,547,0,0
112,477,0,0,0,0,0,0,0,0,0,-1,1336,547,0,0
119,477,0,0,0,0,0,0,0,0,0,-1,1343,547,0,0
126,477,0,0,0,0,0,0,0,0,0,-1,1350,547,0,0
133,477,0,0,0,0,0,0,0,0,0,-1,1357,547,0,0
140,477,0,0,0,0,0,0,0,0,0,-1,1364,547,0,0
147,477,0,0,0,0,0,0,0,0,0,-1,1371,547,0,0
154,477,0,0,0,0,0,0,0,0,0,-1,1378,547,0,0
161,477,0,0,0,0,0,0,0,0,0,-1,1385,547,0,0
168,477,0,0,0,0,0,0,0,0,0,-1,1392,547,0,0
175,477,0,0,0,0,0,0,0,0,0,-1,1399,547,0,0
182,477,0,0,0,0,0,0,0,0,0,-1,1406,547,0,0
189,477,0,0,0,0,0,0,0,0,0,-1,1413,547,0,0
196,477,0,0,0,0,0,0,0,0,0,-1,1420,547,0,0
203,477,0,0,0,0,0,0,0,0,0,-1,1427,547,0,0
210,477,0,0,0,0,0,0,0,0,0,-1,1434,547,0,0
217,477,0,0,0,0,0,0,0,0,0,-1,1441,547,0,0
224,477,0,0,0,0,0,0,0,0,0,-1,1448,547,0,0
231,477,0,0,0,0,0,0,0,0,0,-1,1455,547,0,0
238,477,0,0,0,0,0,0,0,0,0,-1,1462,547,0,0
245,477,0,0,0,0,0,0,0,0,0,-1,1469,547,0,0
252,477,0,0,0,0,0,0,0,0,0,-1,1476,547,0,0
259,477,0,0,0,0,0,0,0,0,0,-1,1483,547,0,0
266,477,0,0,0,0,0,0,0,0,0,-1,1490,547,0,0
273,477,0,0,0,0,0,0,0,0,0,-1,1497,547,0,0
280,477,0,0,0,0,0,0,0,0,0,-1,1504,547,0,0
287,477,0,0,0,0,0,0,0,0,0,-1,1511,547,0,0
294,477,0,0,0,0,0,0,0,0,0,-1,1518,547,0,0
301,477,0,0,0,0,0,0,0,0,0,-1,1525,547,0,0
308,477,0,0,0,0,0,0,0,0,0,-1,1532,547,0,0
315,477,0,0,0,0,0,0,0,0,0,-1,1539,547,0,0
322,477,0,0,0,0,0,0,0,0,0,-1,1546,547,0,0
329,477,0,0,0,0,0,0,0,0,0,-1,1553,547,0,0
336,477,0,0,0,0,0,0,0,0,0,-1,1560,547,0,0
343,477,0,0,0,0,0,0,0,0,0,-1,1567,547,0,0
350,477,1.7699,-3.32275,0,0,0,0,0,0,0,-1,1574,547,1.7699,3.32272
357,477,3.073,-4.83313,0,0,0,0,0,0,0,-1,1581,547,3.07303,4.83316
364,477,4.30127,-4.22864,0,0,0,0,0,0,0,-1,1588,547,4.30125,4.22865
371,477,4.57703,0.283264,0,0,0,0,0,0,0,-1,1595,547,4.57706,-0.283262
378,477,8.57947,1.05969,0,0,0,0,0,0,0,-1,1602,547,8.5795,-1.05972
385,477,12.3726,2.02356,0,0,0,0,0,0,0,-1,1609,547,12.3725,-2.02355
392,477,16.4678,2.76843,0,0,0,0,0,0,0,-1,1616,547,16.4678,-2.76845
399,477,8.00037,-2.29523,0,0,0,0,0,0,0,-1,1623,547,8.00031,2.2952
406,477,4.82495,2.7475,0,0,0,0,0,0,0,-1,1630,547,4.825,-2.74752
413,477,4.88171,-0.336426,0,0,0,0,0,0,0,-1,1637,547,4.88169,0.336398
420,477,3.34875,0.102722,0,0,0,0,0,0,0,-1,1644,547,3.34871,-0.1027
427,477,1.66772,-0.373108,0,0,0,0,0,0,0,-1,1651,547,1.66768,0.373104
434,477,3.76978,-2.30798,0,0,0,0,0,0,0,-1,1658,547,3.76974,2.30801
441,477,4.05444,-2.80402,0,0,0,0,0,0,0,-1,1665,547,4.05444,2.804
448,477,10.4247,-11.7421,0,0,0,0,0,0,0,-1,1672,547,10.4247,11.7421
455,477,12.0933,-15.1477,0,0,0,0,0,0,0,-1,1679,547,12.0932,15.1477
462,477,11.9224,-14.4581,0,0,0,0,0,0,0,-1,1686,547,11.9224,14.4581
469,477,11.9728,-13.9335,0.00352775,0.00321453,0.000906,0.00429058,0.00245171,0.699815,0.00248557,0.0341857,1693,547,11.9727,13.9335
476,477,11.9321,-13.4972,0.00349886,0.00304292,0.00119396,0.00448642,0.00205536,0.691065,0.00259326,0.0190405,1700,547,11.9322,13.4972
483,477,11.9349,-13.0433,0.00316435,0.00267316,0.00133183,0.00427304,0.00156447,0.694221,0.00249634,0.0119621,1707,547,11.9349,13.0433
490,477,11.9098,-12.6046,0.00260651,0.0023476,0.00132936,0.00381271,0.00114141,0.736861,0.00225957,0.0118174,1714,547,11.9098,12.6046
497,477,11.9,-12.1242,0.0019472,0.00204227,0.00132545,0.00332104,0.00066843,0.803321,0.00202827,0.0132564,1721,547,11.9001,12.1242
504,477,11.8925,-11.6703,0.00115435,0.00144405,0.0011188,0.00242733,0.000171063,0.849774,0.00156432,0.0178158,1728,547,11.8924,11.6703
511,477,11.9073,-11.2291,0.00020222,0.000838723,0.000825508,0.0014052,-0.000364258,0.96938,0.00107892,0.0211326,1735,547,11.9073,11.2291
518,477,11.8811,-10.7671,-0.000921402,0.000368832,0.000472267,0.000523223,-0.00107579,1.25484,0.000941387,0.0191058,1742,547,11.8811,10.7671
525,477,11.8491,-10.2843,-0.00203356,-0.000170705,4.66735e-05,-0.000169537,-0.00203473,1.54576,0.00130365,0.0173957,1749,547,11.8491,10.2843
532,477,11.8391,-9.83325,-0.003148,-0.000581951,-0.000370081,-0.000529643,-0.00320031,-1.43039,0.00198074,0.0194116,1756,547,11.8391,9.83327
539,477,11.8204,-9.26953,-0.00424032,-0.000890672,-0.000752883,-0.000729232,-0.00440177,-1.35957,0.00272416,0.0170428,1763,547,11.8204,9.26952
546,477,11.7321,-8.83978,-0.00534447,-0.00127265,-0.00118594,-0.000952426,-0.0056647,-1.30707,0.00350243,0.032203,1770,547,11.732,8.8398
553,477,11.7097,-8.30469,-0.00647411,-0.00143326,-0.00157535,-0.000981438,-0.00692593,-1.29148,0.0043274,0.0429538,1777,547,11.7097,8.3047
560,477,11.7633,-7.43939,0,0,0,0,0,0,0,-1,1784,547,11.7634,7.4394
567,477,11.9205,-7.12115,0,0,0,0,0,0,0,-1,1791,547,11.9205,7.12116
574,477,6.82593,-0.916992,0,0,0,0,0,0,0,-1,1798,547,6.82598,0.916977
581,477,9.29321,-0.557007,0,0,0,0,0,0,0,-1,1805,547,9.29324,0.55703
588,477,9.75195,0.422729,0,0,0,0,0,0,0,-1,1812,547,9.75198,-0.42273
595,477,9.89172,1.21326,0,0,0,0,0,0,0,-1,1819,547,9.89174,-1.21328
602,477,6.5271,-0.964417,0,0,0,0,0,0,0,-1,1826,547,6.52706,0.964427
609,477,0,0,0,0,0,0,0,0,0,-1,1833,547,0,0
616,477,0,0,0,0,0,0,0,0,0,-1,1840,547,0,0
623,477,0,0,0,0,0,0,0,0,0,-1,1847,547,0,0
630,477,0,0,0,0,0,0,0,0,0,-1,1854,547,0,0
637,477,0,0,0,0,0,0,0,0,0,-1,1861,547,0,0
644,477,0,0,0,0,0,0,0,0,0,-1,1868,547,0,0
651,477,0,0,0,0,0,0,0,0,0,-1,1875,547,0,0
658,477,0,0,0,0,0,0,0,0,0,-1,1882,547,0,0
665,477,0,0,0,0,0,0,0,0,0,-1,1889,547,0,0
672,477,0,0,0,0,0,0,0,0,0,-1,1896,547,0,0
679,477,0,0,0,0,0,0,0,0,0,-1,1903,547,0,0
686,477,0,0,0,0,0,0,0,0,0,-1,1910,547,0,0
693,477,0,0,0,0,0,0,0,0,0,-1,1917,547,0,0
700,477,0,0,0,0,0,0,0,0,0,-1,1924,547,0,0
707,477,0,0,0,0,0,0,0,0,0,-1,1931,547,0,0
714,477,0,0,0,0,0,0,0,0,0,-1,1938,547,0,0
721,477,0,0,0,0,0,0,0,0,0,-1,1945,547,0,0
728,477,0,0,0,0,0,0,0,0,0,-1,1952,547,0,0
735,477,0,0,0,0,0,0,0,0,0,-1,1959,547,0,0
742,477,0,0,0,0,0,0,0,0,0,-1,1966,547,0,0
749,477,0,0,0,0,0,0,0,0,0,-1,1973,547,0,0
756,477,0,0,0,0,0,0,0,0,0,-1,1980,547,0,0
763,477,0,0,0,0,0,0,0,0,0,-1,1987,547,0,0
770,477,0,0,0,0,0,0,0,0,0,-1,1994,547,0,0
777,477,0,0,0,0,0,0,0,0,0,-1,2001,547,0,0
784,477,0,0,0,0,0,0,0,0,0,-1,2008,547,0,0
791,477,0,0,0,0,0,0,0,0,0,-1,2015,547,0,0
798,477,0,0,0,0,0,0,0,0,0,-1,2022,547,0,0
805,477,0,0,0,0,0,0,0,0,0,-1,2029,547,0,0
812,477,0,0,0,0,0,0,0,0,0,-1,2036,547,0,0
-700,470,0,0,0,0,0,0,0,0,0,-1,524,554,0,0
-693,470,0,0,0,0,0,0,0,0,0,-1,531,554,0,0
-686,470,0,0,0,0,0,0,0,0,0,-1,538,554,0,0
-679,470,0,0,0,0,0,0,0,0,0,-1,545,554,0,0
-672,470,0,0,0,0,0,0,0,0,0,-1,552,554,0,0
-665,470,0,0,0,0,0,0,0,0,0,-1,559,554,0,0
-658,470,0,0,0,0,0,0,0,0,0,-1,566,554,0,0
-651,470,0,0,0,0,0,0,0,0,0,-1,573,554,0,0
-644,470,0,0,0,0,0,0,0,0,0,-1,580,554,0,0
-637,470,0,0,0,0,0,0,0,0,0,-1,587,554,0,0
-630,470,0,0,0,0,0,0,0,0,0,-1,594,554,0,0
-623,470,0,0,0,0,0,0,0,0,0,-1,601,554,0,0
-616,470,0,0,0,0,0,0,0,0,0,-1,608,554,0,0
-609,470,0,0,0,0,0,0,0,0,0,-1,615,554,0,0
-602,470,0,0,0,0,0,0,0,0,0,-1,622,554,0,0
-595,470,0,0,0,0,0,0,0,0,0,-1,629,554,0,0
-588,470,0,0,0,0,0,0,0,0,0,-1,636,554,0,0
-581,470,0,0,0,0,0,0,0,0,0,-1,643,554,0,0
-574,470,0,0,0,0,0,0,0,0,0,-1,650,554,0,0
-567,470,0,0,0,0,0,0,0,0,0,-1,657,554,0,0
-560,470,0,0,0,0,0,0,0,0,0,-1,664,554,0,0
-553,470,0,0,0,0,0,0,0,0,0,-1,671,554,0,0
-546,470,0,0,0,0,0,0,0,0,0,-1,678,554,0,0
-539,470,0,0,0,0,0,0,0,0,0,-1,685,554,0,0
-532,470,0,0,0,0,0,0,0,0,0,-1,692,554,0,0
-525,470,0,0,0,0,0,0,0,0,0,-1,699,554,0,0
-518,470,0,0,0,0,0,0,0,0,0,-1,706,554,0,0
-511,470,0,0,0,0,0,0,0,0,0,-1,713,554,0,0
-504,470,0,0,0,0,0,0,0,0,0,-1,720,554,0,0
-497,470,0,0,0,0,0,0,0,0,0,-1,727,554,0,0
-490,470,-9.13263,-1.03125,0,0,0,0,0,0,0,-1,734,554,-9.1326,1.03127
-483,470,-7.68677,-1.03955,0,0,0,0,0,0,0,-1,741,554,-7.68678,1.03958
-476,470,-6.17969,-1.03394,0,0,0,0,0,0,0,-1,748,554,-6.17971,1.03395
-469,470,-6.23016,-0.651855,0,0,0,0,0,0,0,-1,755,554,-6.23014,0.651829
-462,470,-4.87915,-1.03705,0,0,0,0,0,0,0,-1,762,554,-4.87914,1.03702
-455,470,-4.14777,-1.37079,0,0,0,0,0,0,0,-1,769,554,-4.14779,1.37078
-448,470,-2.9314,-5.74518,0,0,0,0,0,0,0,-1,776,554,-2.93137,5.74518
-441,470,-3.5921,-8.88629,0,0,0,0,0,0,0,-1,783,554,-3.5921,8.88629
-434,470,-3.59412,-9.48334,-0.00159886,0.0139886,-0.0053409,0.015643,-0.00325327,-1.27041,0.0116653,0.039999,790,554,-3.59413,9.48333
-427,470,-3.78351,-9.88379,-0.000749341,0.0122331,-0.00493988,0.013899,-0.00241522,-1.24554,0.0101672,0.0190992,797,554,-3.78349,9.88378
-420,470,-3.75256,-10.3679,-0.000138003,0.0104838,-0.00452747,0.0121517,-0.00180591,-1.21783,0.00876532,0.0135717,804,554,-3.75257,10.3678
-413,470,-3.76703,-10.8582,0.000257053,0.00862625,-0.00398983,0.0102235,-0.00134018,-1.19001,0.00730349,0.0124562,811,554,-3.76703,10.8582
-406,470,-3.80286,-11.3112,0.000564051,0.00704221,-0.00341119,0.00850716,-0.000900896,-1.16516,0.00599435,0.0104921,818,554,-3.80286,11.3111
-399,470,-3.81262,-11.7834,0.000737929,0.00548359,-0.00279138,0.00677439,-0.000552865,-1.13766,0.00471137,0.0143084,825,554,-3.81263,11.7834
-392,470,-3.82538,-12.2495,0.000924835,0.00393238,-0.00213643,0.0050412,-0.00018399,-1.09206,0.00342378,0.0146906,832,554,-3.82535,12.2494
-385,470,-3.83051,-12.6726,0.00121789,0.00252952,-0.00149357,0.00350491,0.000242496,-0.992271,0.00226011,0.0108189,839,554,-3.8305,12.6726
-378,470,-3.84558,-13.1083,0.00153542,0.00129665,-0.000896353,0.0023203,0.000511764,-0.719193,0.00140764,0.0144615,846,554,-3.84558,13.1083
-371,470,-3.85223,-13.541,0.00186241,0.000170994,-0.000312194,0.00191819,0.00011521,-0.176817,0.00124218,0.0124265,853,554,-3.85226,13.541
-364,470,-3.85956,-13.9616,0.0022802,-0.000751299,0.000187986,0.00229181,-0.000762912,0.0616958,0.0018358,0.0129321,860,554,-3.85958,13.9616
-357,470,-3.88544,-14.3872,0.00284936,-0.00142584,0.000523378,0.0029125,-0.00148898,0.12006,0.00258511,0.0130622,867,554,-3.88542,14.3872
-350,470,-3.8725,-14.8325,0.00365132,-0.00153656,0.000473364,0.00369416,-0.0015794,0.0902511,0.00312523,0.00984277,874,554,-3.87249,14.8325
-343,470,-3.7641,-15.2635,0.00463228,-0.00120789,6.76328e-05,0.00463306,-0.00120867,0.0115786,0.00356065,0.0338774,881,554,-3.76411,15.2635
-336,470,-3.61395,-15.759,0,0,0,0,0,0,0,-1,888,554,-3.61395,15.759
-329,470,-2.78516,-12.3594,0,0,0,0,0,0,0,-1,895,554,-2.78517,12.3594
-322,470,-2.30829,-11.4527,0,0,0,0,0,0,0,-1,902,554,-2.30827,11.4527
-315,470,-1.04797,-8.29529,0,0,0,0,0,0,0,-1,909,554,-1.04797,8.29526
-308,470,-1.39368,-6.68152,0,0,0,0,0,0,0,-1,916,554,-1.39369,6.68149
-301,470,-0.0340576,3.34888,0,0,0,0,0,0,0,-1,923,554,-0.0340496,-3.3489
-294,470,-1.18378,3.22266,0,0,0,0,0,0,0,-1,930,554,-1.18376,-3.22268
-287,470,-2.15454,3.2204,0,0,0,0,0,0,0,-1,937,554,-2.15452,-3.22037
-280,470,-3.00537,3.099,0,0,0,0,0,0,0,-1,944,554,-3.00536,-3.09898
-273,470,-12.3932,3.65009,0,0,0,0,0,0,0,-1,951,554,-12.3932,-3.65011
-266,470,-11.5706,1.16028,0,0,0,0,0,0,0,-1,958,554,-11.5706,-1.16031
-259,470,-7.50415,-2.77167,0,0,0,0,0,0,0,-1,965,554,-7.50413,2.7717
-252,470,-0.371155,-5.87823,0,0,0,0,0,0,0,-1,972,554,-0.37114,5.87821
-245,470,1.33221,-6.81122,0,0,0,0,0,0,0,-1,979,554,1.33223,6.8112
-238,470,0,0,0,0,0,0,0,0,0,-1,986,554,0,0
-231,470,0,0,0,0,0,0,0,0,0,-1,993,554,0,0
-224,470,0,0,0,0,0,0,0,0,0,-1,1000,554,0,0
-217,470,0,0,0,0,0,0,0,0,0,-1,1007,554,0,0
-210,470,0,0,0,0,0,0,0,0,0,-1,1014,554,0,0
-203,470,0,0,0,0,0,0,0,0,0,-1,1021,554,0,0
-196,470,0,0,0,0,0,0,0,0,0,-1,1028,554,0,0
-189,470,0,0,0,0,0,0,0,0,0,-1,1035,554,0,0
-182,470,0,0,0,0,0,0,0,0,0,-1,1042,554,0,0
-175,470,0,0,0,0,0,0,0,0,0,-1,1049,554,0,0
-168,470,0,0,0,0,0,0,0,0,0,-1,1056,554,0,0
-161,470,0,0,0,0,0,0,0,0,0,-1,1063,554,0,0
-154,470,0,0,0,0,0,0,0,0,0,-1,1070,554,0,0
-147,470,0,0,0,0,0,0,0,0,0,-1,1077,554,0,0
-140,470,0,0,0,0,0,0,0,0,0,-1,1084,554,0,0
-133,470,0,0,0,0,0,0,0,0,0,-1,1091,554,0,0
-126,470,0,0,0,0,0,0,0,0,0,-1,1098,554,0,0
-119,470,0,0,0,0,0,0,0,0,0,-1,1105,554,0,0
-112,470,0,0,0,0,0,0,0,0,0,-1,1112,554,0,0
-105,470,0,0,0,0,0,0,0,0,0,-1,1119,554,0,0
-98,470,0,0,0,0,0,0,0,0,0,-1,1126,554,0,0
-91,470,0,0,0,0,0,0,0,0,0,-1,1133,554,0,0
-84,470,0,0,0,0,0,0,0,0,0,-1,1140,554,0,0
-77,470,0,0,0,0,0,0,0,0,0,-1,1147,554,0,0
-70,470,0,0,0,0,0,0,0,0,0,-1,1154,554,0,0
-63,470,0,0,0,0,0,0,0,0,0,-1,1161,554,0,0
-56,470,0,0,0,0,0,0,0,0,0,-1,1168,554,0,0
-49,470,0,0,0,0,0,0,0,0,0,-1,1175,554,0,0
-42,470,0,0,0,0,0,0,0,0,0,-1,1182,554,0,0
-35,470,0,0,0,0,0,0,0,0,0,-1,1189,554,0,0
-28,470,0,0,0,0,0,0,0,0,0,-1,1196,554,0,0
-21,470,0,0,0,0,0,0,0,0,0,-1,1203,554,0,0
-14,470,0,0,0,0,0,0,0,0,0,-1,1210,554,0,0
-7,470,0,0,0,0,0,0,0,0,0,-1,1217,554,0,0
0,470,0,0,0,0,0,0,0,0,0,-1,1224,554,0,0
7,470,0,0,0,0,0,0,0,0,0,-1,1231,554,0,0
14,470,0,0,0,0,0,0,0,0,0,-1,1238,554,0,0
21,470,0,0,0,0,0,0,0,0,0,-1,1245,554,0,0
28,470,0,0,0,0,0,0,0,0,0,-1,1252,554,0,0
35,470,0,0,0,0,0,0,0,0,0,-1,1259,554,0,0
42,470,0,0,0,0,0,0,0,0,0,-1,1266,554,0,0
49,470,0,0,0,0,0,0,0,0,0,-1,1273,554,0,0
56,470,0,0,0,0,0,0,0,0,0,-1,1280,554,0,0
63,470,0,0,0,0,0,0,0,0,0,-1,1287,554,0,0
70,470,0,0,0,0,0,0,0,0,0,-1,1294,554,0,0
77,470,0,0,0,0,0,0,0,0,0,-1,1301,554,0,0
84,470,0,0,0,0,0,0,0,0,0,-1,1308,554,0,0
91,470,0,0,0,0,0,0,0,0,0,-1,1315,554,0,0
98,470,0,0,0,0,0,0,0,0,0,-1,1322,554,0,0
105,470,0,0,0,0,0,0,0,0,0,-1,1329,554,0,0
112,470,0,0,0,0,0,0,0,0,0,-1,1336,554,0,0
119,470,0,0,0,0,0,0,0,0,0,-1,1343,554,0,0
126,470,0,0,0,0,0,0,0,0,0,-1,1350,554,0,0
133,470,0,0,0,0,0,0,0,0,0,-1,1357,554,0,0
140,470,0,0,0,0,0,0,0,0,0,-1,1364,554,0,0
147,470,0,0,0,0,0,0,0,0,0,-1,1371,554,0,0
154,470,0,0,0,0,0,0,0,0,0,-1,1378,554,0,0
161,470,0,0,0,0,0,0,0,0,0,-1,1385,554,0,0
168,470,0,0,0,0,0,0,0,0,0,-1,1392,554,0,0
175,470,0,0,0,0,0,0,0,0,0,-1,1399,554,0,0
182,470,0,0,0,0,0,0,0,0,0,-1,1406,554,0,0
189,470,0,0,0,0,0,0,0,0,0,-1,1413,554,0,0
196,470,0,0,0,0,0,0,0,0,0,-1,1420,554,0,0
203,470,0,0,0,0,0,0,0,0,0,-1,1427,554,0,0
210,470,0,0,0,0,0,0,0,0,0,-1,1434,554,0,0
217,470,0,0,0,0,0,0,0,0,0,-1,1441,554,0,0
224,470,0,0,0,0,0,0,0,0,0,-1,1448,554,0,0
231,470,0,0,0,0,0,0,0,0,0,-1,1455,554,0,0
238,470,0,0,0,0,0,0,0,0,0,-1,1462,554,0,0
245,470,0,0,0,0,0,0,0,0,0,-1,1469,554,0,0
252,470,0,0,0,0,0,0,0,0,0,-1,1476,554,0,0
259,470,0,0,0,0,0,0,0,0,0,-1,1483,554,0,0
266,470,0,0,0,0,0,0,0,0,0,-1,1490,554,0,0
273,470,0,0,0,0,0,0,0,0,0,-1,1497,554,0,0
280,470,0,0,0,0,0,0,0,0,0,-1,1504,554,0,0
287,470,0,0,0,0,0,0,0,0,0,-1,1511,554,0,0
294,470,0,0,0,0,0,0,0,0,0,-1,1518,554,0,0
301,470,0,0,0,0,0,0,0,0,0,-1,1525,554,0,0
308,470,0,0,0,0,0,0,0,0,0,-1,1532,554,0,0
315,470,0,0,0,0,0,0,0,0,0,-1,1539,554,0,0
322,470,0,0,0,0,0,0,0,0,0,-1,1546,554,0,0
329,470,0,0,0,0,0,0,0,0,0,-1,1553,554,0,0
336,470,0,0,0,0,0,0,0,0,0,-1,1560,554,0,0
343,470,0,0,0,0,0,0,0,0,0,-1,1567,554,0,0
350,470,0,0,0,0,0,0,0,0,0,-1,1574,554,0,0
357,470,0,0,0,0,0,0,0,0,0,-1,1581,554,0,0
364,470,1.33423,0.293335,0,0,0,0,0,0,0,-1,1588,554,1.33422,-0.293348
371,470,2.22498,-0.0305176,0,0,0,0,0,0,0,-1,1595,554,2.22494,0.0305046
378,470,6.27051,0.710083,0,0,0,0,0,0,0,-1,1602,554,6.27054,-0.710093
385,470,10.3657,1.47296,0,0,0,0,0,0,0,-1,1609,554,10.3657,-1.47299
392,470,15.3881,3.01935,0,0,0,0,0,0,0,-1,1616,554,15.388,-3.01937
399,470,18.4479,2.93793,0,0,0,0,0,0,0,-1,1623,554,18.4479,-2.93792
406,470,15.1896,1.36676,0,0,0,0,0,0,0,-1,1630,554,15.1896,-1.36679
413,470,6.55383,1.99207,0,0,0,0,0,0,0,-1,1637,554,6.5538,-1.99208
420,470,4.47095,0.845703,0,0,0,0,0,0,0,-1,1644,554,4.47098,-0.845718
427,470,3.51038,1.19684,0,0,0,0,0,0,0,-1,1651,554,3.51039,-1.19684
434,470,3.31775,-1.37427,0,0,0,0,0,0,0,-1,1658,554,3.31781,1.37426
441,470,2.55457,-2.05902,0,0,0,0,0,0,0,-1,1665,554,2.55461,2.05904
448,470,3.27258,-2.64032,0,0,0,0,0,0,0,-1,1672,554,3.27257,2.64029
455,470,10.3658,-9.82233,0,0,0,0,0,0,0,-1,1679,554,10.3659,9.82233
462,470,11.0651,-11.9958,0,0,0,0,0,0,0,-1,1686,554,11.0651,11.9958
469,470,12.2683,-14.1123,0,0,0,0,0,0,0,-1,1693,554,12.2683,14.1123
476,470,12.3236,-13.542,0.00479654,0.00385802,0.00203227,0.00641302,0.00224154,0.671934,0.00375803,0.0434056,1700,554,12.3236,13.542
483,470,12.3933,-13.0471,0.00445433,0.0033969,0.0021134,0.00610415,0.00174708,0.662827,0.00363003,0.0163356,1707,554,12.3934,13.0471
490,470,12.3691,-12.5783,0.00386175,0.00307374,0.00200161,0.00550777,0.00142772,0.688218,0.00330053,0.0123755,1714,554,12.3691,12.5783
497,470,12.3628,-12.1036,0.00313728,0.00274845,0.00188376,0.00483662,0.0010491,0.733976,0.00293783,0.0128456,1721,554,12.3628,12.1036
504,470,12.3706,-11.653,0.00229838,0.00209954,0.00155328,0.00375542,0.000642501,0.753439,0.00231931,0.0191116,1728,554,12.3706,11.653
511,470,12.3704,-11.2175,0.00136061,0.001458,0.00114934,0.00255968,0.00025893,0.806571,0.00162702,0.0240849,1735,554,12.3704,11.2175
518,470,12.369,-10.7668,0.000300192,0.000977603,0.000724489,0.00143865,-0.000160856,1.00406,0.00101697,0.0231148,1742,554,12.369,10.7668
525,470,12.3394,-10.2322,-0.000723359,0.000449416,0.000272077,0.000509462,-0.000783405,1.35358,0.000752001,0.0152123,1749,554,12.3394,10.2321
532,470,12.306,-9.7251,-0.00173315,3.55775e-05,-0.000155364,4.91208e-05,-0.0017467,-1.48384,0.00118118,0.0138087,1756,554,12.306,9.72511
539,470,12.2776,-9.27399,-0.00271475,-0.000325774,-0.000546813,-0.000206562,-0.00283396,-1.35614,0.00182435,0.0163176,1763,554,12.2776,9.27402
546,470,12.264,-8.80249,-0.00368426,-0.000702159,-0.000929085,-0.000436386,-0.00395004,-1.29218,0.00250062,0.0149135,1770,554,12.2641,8.8025
553,470,12.3036,-8.3056,-0.00466981,-0.000882872,-0.00126218,-0.000500749,-0.00505193,-1.27682,0.00321407,0.0183032,1777,554,12.3036,8.30557
560,470,12.2944,-7.77112,-0.00564382,-0.000865257,-0.00143393,-0.000467997,-0.00604108,-1.30053,0.00388081,0.029101,1784,554,12.2945,7.77109
567,470,12.1722,-7.28906,-0.00664199,-0.000956257,-0.00160759,-0.000533203,-0.00706505,-1.31347,0.00454274,0.0240777,1791,554,12.1722,7.28906
574,470,12.2284,-6.56219,0,0,0,0,0,0,0,-1,1798,554,12.2283,6.56222
581,470,8.24646,-4.06317,0,0,0,0,0,0,0,-1,1805,554,8.24648,4.06318
588,470,11.1803,1.74927,0,0,0,0,0,0,0,-1,1812,554,11.1803,-1.74926
595,470,4.72192,3.44116,0,0,0,0,0,0,0,-1,1819,554,4.72191,-3.44116
602,470,14.4307,2.76141,0,0,0,0,0,0,0,-1,1826,554,14.4306,-2.76139
609,470,20.9181,4.41058,0,0,0,0,0,0,0,-1,1833,554,20.9181,-4.4106
616,470,0,0,0,0,0,0,0,0,0,-1,1840,554,0,0
623,470,0,0,0,0,0,0,0,0,0,-1,1847,554,0,0
630,470,0,0,0,0,0,0,0,0,0,-1,1854,554,0,0
637,470,0,0,0,0,0,0,0,0,0,-1,1861,554,0,0
644,470,0,0,0,0,0,0,0,0,0,-1,1868,554,0,0
651,470,0,0,0,0,0,0,0,0,0,-1,1875,554,0,0
658,470,0,0,0,0,0,0,0,0,0,-1,1882,554,0,0
665,470,0,0,0,0,0,0,0,0,0,-1,1889,554,0,0
672,470,0,0,0,0,0,0,0,0,0,-1,1896,554,0,0
679,470,0,0,0,0,0,0,0,0,0,-1,1903,554,0,0
686,470,0,0,0,0,0,0,0,0,0,-1,1910,554,0,0
693,470,0,0,0,0,0,0,0,0,0,-1,1917,554,0,0
700,470,0,0,0,0,0,0,0,0,0,-1,1924,554,0,0
707,470,0,0,0,0,0,0,0,0,0,-1,1931,554,0,0
714,470,0,0,0,0,0,0,0,0,0,-1,1938,554,0,0
721,470,0,0,0,0,0,0,0,0,0,-1,1945,554,0,0
728,470,0,0,0,0,0,0,0,0,0,-1,1952,554,0,0
735,470,0,0,0,0,0,0,0,0,0,-1,1959,554,0,0
742,470,0,0,0,0,0,0,0,0,0,-1,1966,554,0,0
749,470,0,0,0,0,0,0,0,0,0,-1,1973,554,0,0
756,470,0,0,0,0,0,0,0,0,0,-1,1980,554,0,0
763,470,0,0,0,0,0,0,0,0,0,-1,1987,554,0,0
770,470,0,0,0,0,0,0,0,0,0,-1,1994,554,0,0
777,470,0,0,0,0,0,0,0,0,0,-1,2001,554,0,0
784,470,0,0,0,0,0,0,0,0,0,-1,2008,554,0,0
791,470,0,0,0,0,0,0,0,0,0,-1,2015,554,0,0
798,470,0,0,0,0,0,0,0,0,0,-1,2022,554,0,0
805,470,0,0,0,0,0,0,0,0,0,-1,2029,554,0,0
812,470,0,0,0,0,0,0,0,0,0,-1,2036,554,0,0
-700,463,0,0,0,0,0,0,0,0,0,-1,524,561,0,0
-693,463,0,0,0,0,0,0,0,0,0,-1,531,561,0,0
-686,463,0,0,0,0,0,0,0,0,0,-1,538,561,0,0
-679,463,0,0,0,0,0,0,0,0,0,-1,545,561,0,0
-672,463,0,0,0,0,0,0,0,0,0,-1,552,561,0,0
-665,463,0,0,0,0,0,0,0,0,0,-1,559,561,0,0
-658,463,0,0,0,0,0,0,0,0,0,-1,566,561,0,0
-651,463,0,0,0,0,0,0,0,0,0,-1,573,561,0,0
-644,463,0,0,0,0,0,0,0,0,0,-1,580,561,0,0
-637,463,0,0,0,0,0,0,0,0,0,-1,587,561,0,0
-630,463,0,0,0,0,0,0,0,0,0,-1,594,561,0,0
-623,463,0,0,0,0,0,0,0,0,0,-1,601,561,0,0
-616,463,0,0,0,0,0,0,0,0,0,-1,608,561,0,0
-609,463,0,0,0,0,0,0,0,0,0,-1,615,561,0,0
-602,463,0,0,0,0,0,0,0,0,0,-1,622,561,0,0
-595,463,0,0,0,0,0,0,0,0,0,-1,629,561,0,0
-588,463,0,0,0,0,0,0,0,0,0,-1,636,561,0,0
-581,463,0,0,0,0,0,0,0,0,0,-1,643,561,0,0
-574,463,0,0,0,0,0,0,0,0,0,-1,650,561,0,0
-567,463,0,0,0,0,0,0,0,0,0,-1,657,561,0,0
-560,463,0,0,0,0,0,0,0,0,0,-1,664,561,0,0
-553,463,0,0,0,0,0,0,0,0,0,-1,671,561,0,0
-546,463,0,0,0,0,0,0,0,0,0,-1,678,561,0,0
-539,463,0,0,0,0,0,0,0,0,0,-1,685,561,0,0
-532,463,0,0,0,0,0,0,0,0,0,-1,692,561,0,0
-525,463,0,0,0,0,0,0,0,0,0,-1,699,561,0,0
-518,463,0,0,0,0,0,0,0,0,0,-1,706,561,0,0
-511,463,0,0,0,0,0,0,0,0,0,-1,713,561,0,0
-504,463,0,0,0,0,0,0,0,0,0,-1,720,561,0,0
-497,463,-9.81451,-1.67126,0,0,0,0,0,0,0,-1,727,561,-9.81452,1.67127
-490,463,-8.57043,-1.58942,0,0,0,0,0,0,0,-1,734,561,-8.57045,1.58944
-483,463,-7.29224,-1.7226,0,0,0,0,0,0,0,-1,741,561,-7.29226,1.72261
-476,463,-5.77704,-1.7312,0,0,0,0,0,0,0,-1,748,561,-5.77703,1.73121
-469,463,-5.14545,-2.138,0,0,0,0,0,0,0,-1,755,561,-5.14546,2.13799
-462,463,-3.13672,-3.07977,0,0,0,0,0,0,0,-1,762,561,-3.13672,3.07974
-455,463,-2.91406,-5.61798,0,0,0,0,0,0,0,-1,769,561,-2.91406,5.61801
-448,463,-3.86121,-8.24243,0,0,0,0,0,0,0,-1,776,561,-3.8612,8.24242
-441,463,-4.30652,-8.82904,0,0,0,0,0,0,0,-1,783,561,-4.30655,8.82905
-434,463,-4.20081,-9.44519,-0.00151168,0.0105606,-0.00416212,0.0118565,-0.00280754,-1.26896,0.00898753,0.0223205,790,561,-4.2008,9.44518
-427,463,-4.19073,-9.92523,-0.000826716,0.00907113,-0.00363332,0.0102617,-0.00201724,-1.25415,0.00760325,0.0102238,797,561,-4.19076,9.92522
-420,463,-4.18256,-10.3829,-0.000320087,0.00762694,-0.00316446,0.00873305,-0.0014262,-1.23453,0.00635104,0.0094911,804,561,-4.18253,10.3829
-413,463,-4.20923,-10.8531,-5.93173e-06,0.00602769,-0.00257907,0.00697985,-0.000958095,-1.21713,0.00500327,0.00873796,811,561,-4.20922,10.8532
-406,463,-4.24994,-11.3138,0.000273836,0.00469876,-0.00202123,0.00548302,-0.000510429,-1.20067,0.00383682,0.00878313,818,561,-4.24993,11.3138
-399,463,-4.25568,-11.7608,0.000466347,0.0033933,-0.0014665,0.00400163,-0.000141985,-1.17758,0.00271632,0.0106463,825,561,-4.25566,11.7608
-392,463,-4.26282,-12.2067,0.000689947,0.00208377,-0.000904924,0.00252903,0.000244679,-1.11353,0.00161067,0.0107137,832,561,-4.26283,12.2067
-385,463,-4.27893,-12.6532,0.00103132,0.000912973,-0.000370064,0.00134691,0.000597379,-0.706122,0.00077929,0.010613,839,561,-4.27892,12.6532
-378,463,-4.297,-13.1041,0.00140725,-0.000127964,0.000128455,0.00141792,-0.000138638,0.0829044,0.00099472,0.0106207,846,561,-4.29701,13.1042
-371,463,-4.31604,-13.5622,0.00184238,-0.00104601,0.000598336,0.00196142,-0.00116505,0.196388,0.00182448,0.0107334,853,561,-4.31603,13.5622
-364,463,-4.29901,-13.9557,0.00242541,-0.00172827,0.000943128,0.00262953,-0.00193238,0.213136,0.00264405,0.0139676,860,561,-4.29898,13.9557
-357,463,-4.31818,-14.3498,0.00318141,-0.00224177,0.00110671,0.00339856,-0.00245892,0.193752,0.00339629,0.0193826,867,561,-4.3182,14.3498
-350,463,-4.23535,-14.8328,0.00426015,-0.0020506,0.000777647,0.00435456,-0.00214501,0.120818,0.00382413,0.0309816,874,561,-4.23538,14.8328
-343,463,-4.04126,-15.1972,0,0,0,0,0,0,0,-1,881,561,-4.04124,15.1972
-336,463,-2.94928,-12.2127,0,0,0,0,0,0,0,-1,888,561,-2.94925,12.2127
-329,463,-2.64307,-12.7037,0,0,0,0,0,0,0,-1,895,561,-2.64307,12.7038
-322,463,-1.82898,-9.11957,0,0,0,0,0,0,0,-1,902,561,-1.829,9.11957
-315,463,-0.944763,-5.96234,0,0,0,0,0,0,0,-1,909,561,-0.94479,5.96237
-308,463,-1.1535,-3.17889,0,0,0,0,0,0,0,-1,916,561,-1.15352,3.17889
-301,463,-1.50366,-3.15338,0,0,0,0,0,0,0,-1,923,561,-1.50364,3.15341
-294,463,-2.35889,-3.93463,0,0,0,0,0,0,0,-1,930,561,-2.35886,3.93465
-287,463,-2.80322,2.73999,0,0,0,0,0,0,0,-1,937,561,-2.80322,-2.74
-280,463,-12.864,5.25146,0,0,0,0,0,0,0,-1,944,561,-12.864,-5.25149
-273,463,-12.4598,3.39178,0,0,0,0,0,0,0,-1,951,561,-12.4598,-3.3918
-266,463,-8.78101,-3.7356,0,0,0,0,0,0,0,-1,958,561,-8.78098,3.73562
-259,463,-6.23285,-5.68842,0,0,0,0,0,0,0,-1,965,561,-6.23288,5.68843
-252,463,0,0,0,0,0,0,0,0,0,-1,972,561,0,0
-245,463,0,0,0,0,0,0,0,0,0,-1,979,561,0,0
-238,463,0,0,0,0,0,0,0,0,0,-1,986,561,0,0
-231,463,0,0,0,0,0,0,0,0,0,-1,993,561,0,0
-224,463,0,0,0,0,0,0,0,0,0,-1,1000,561,0,0
-217,463,0,0,0,0,0,0,0,0,0,-1,1007,561,0,0
-210,463,0,0,0,0,0,0,0,0,0,-1,1014,561,0,0
-203,463,0,0,0,0,0,0,0,0,0,-1,1021,561,0,0
-196,463,0,0,0,0,0,0,0,0,0,-1,1028,561,0,0
-189,463,0,0,0,0,0,0,0,0,0,-1,1035,561,0,0
-182,463,0,0,0,0,0,0,0,0,0,-1,1042,561,0,0
-175,463,0,0,0,0,0,0,0,0,0,-1,1049,561,0,0
-168,463,0,0,0,0,0,0,0,0,0,-1,1056,561,0,0
-161,463,0,0,0,0,0,0,0,0,0,-1,1063,561,0,0
-154,463,0,0,0,0,0,0,0,0,0,-1,1070,561,0,0
-147,463,0,0,0,0,0,0,0,0,0,-1,1077,561,0,0
-140,463,0,0,0,0,0,0,0,0,0,-1,1084,561,0,0
-133,463,0,0,0,0,0,0,0,0,0,-1,1091,561,0,0
-126,463,0,0,0,0,0,0,0,0,0,-1,1098,561,0,0
-119,463,0,0,0,0,0,0,0,0,0,-1,1105,561,0,0
-112,463,0,0,0,0,0,0,0,0,0,-1,1112,561,0,0
-105,463,0,0,0,0,0,0,0,0,0,-1,1119,561,0,0
-98,463,0,0,0,0,0,0,0,0,0,-1,1126,561,0,0
-91,463,0,0,0,0,0,0,0,0,0,-1,1133,561,0,0
-84,463,0,0,0,0,0,0,0,0,0,-1,1140,561,0,0
-77,463,0,0,0,0,0,0,0,0,0,-1,1147,561,0,0
-70,463,0,0,0,0,0,0,0,0,0,-1,1154,561,0,0
-63,463,0,0,0,0,0,0,0,0,0,-1,1161,561,0,0
-56,463,0,0,0,0,0,0,0,0,0,-1,1168,561,0,0
-49,463,0,0,0,0,0,0,0,0,0,-1,1175,561,0,0
-42,463,0,0,0,0,0,0,0,0,0,-1,1182,561,0,0
-35,463,0,0,0,0,0,0,0,0,0,-1,1189,561,0,0
-28,463,0,0,0,0,0,0,0,0,0,-1,1196,561,0,0
-21,463,0,0,0,0,0,0,0,0,0,-1,1203,561,0,0
-14,463,0,0,0,0,0,0,0,0,0,-1,1210,561,0,0
-7,463,0,0,0,0,0,0,0,0,0,-1,1217,561,0,0
0,463,0,0,0,0,0,0,0,0,0,-1,1224,561,0,0
7,463,0,0,0,0,0,0,0,0,0,-1,1231,561,0,0
14,463,0,0,0,0,0,0,0,0,0,-1,1238,561,0,0
21,463,0,0,0,0,0,0,0,0,0,-1,1245,561,0,0
28,463,0,0,0,0,0,0,0,0,0,-1,1252,561,0,0
35,463,0,0,0,0,0,0,0,0,0,-1,1259,561,0,0
42,463,0,0,0,0,0,0,0,0,0,-1,1266,561,0,0
49,463,0,0,0,0,0,0,0,0,0,-1,1273,561,0,0
56,463,0,0,0,0,0,0,0,0,0,-1,1280,561,0,0
63,463,0,0,0,0,0,0,0,0,0,-1,1287,561,0,0
70,463,0,0,0,0,0,0,0,0,0,-1,1294,561,0,0
77,463,0,0,0,0,0,0,0,0,0,-1,1301,561,0,0
84,463,0,0,0,0,0,0,0,0,0,-1,1308,561,0,0
91,463,0,0,0,0,0,0,0,0,0,-1,1315,561,0,0
98,463,0,0,0,0,0,0,0,0,0,-1,1322,561,0,0
105,463,0,0,0,0,0,0,0,0,0,-1,1329,561,0,0
112,463,0,0,0,0,0,0,0,0,0,-1,1336,561,0,0
119,463,0,0,0,0,0,0,0,0,0,-1,1343,561,0,0
126,463,0,0,0,0,0,0,0,0,0,-1,1350,561,0,0
133,463,0,0,0,0,0,0,0,0,0,-1,1357,561,0,0
140,463,0,0,0,0,0,0,0,0,0,-1,1364,561,0,0
147,463,0,0,0,0,0,0,0,0,0,-1,1371,561,0,0
154,463,0,0,0,0,0,0,0,0,0,-1,1378,561,0,0
161,463,0,0,0,0,0,0,0,0,0,-1,1385,561,0,0
168,463,0,0,0,0,0,0,0,0,0,-1,1392,561,0,0
175,463,0,0,0,0,0,0,0,0,0,-1,1399,561,0,0
182,463,0,0,0,0,0,0,0,0,0,-1,1406,561,0,0
189,463,0,0,0,0,0,0,0,0,0,-1,1413,561,0,0
196,463,0,0,0,0,0,0,0,0,0,-1,1420,561,0,0
203,463,0,0,0,0,0,0,0,0,0,-1,1427,561,0,0
210,463,0,0,0,0,0,0,0,0,0,-1,1434,561,0,0
217,463,0,0,0,0,0,0,0,0,0,-1,1441,561,0,0
224,463,0,0,0,0,0,0,0,0,0,-1,1448,561,0,0
231,463,0,0,0,0,0,0,0,0,0,-1,1455,561,0,0
238,463,0,0,0,0,0,0,0,0,0,-1,1462,561,0,0
245,463,0,0,0,0,0,0,0,0,0,-1,1469,561,0,0
252,463,0,0,0,0,0,0,0,0,0,-1,1476,561,0,0
259,463,0,0,0,0,0,0,0,0,0,-1,1483,561,0,0
266,463,0,0,0,0,0,0,0,0,0,-1,1490,561,0,0
273,463,0,0,0,0,0,0,0,0,0,-1,1497,561,0,0
280,463,0,0,0,0,0,0,0,0,0,-1,1504,561,0,0
287,463,0,0,0,0,0,0,0,0,0,-1,1511,561,0,0
294,463,0,0,0,0,0,0,0,0,0,-1,1518,561,0,0
301,463,0,0,0,0,0,0,0,0,0,-1,1525,561,0,0
308,463,0,0,0,0,0,0,0,0,0,-1,1532,561,0,0
315,463,0,0,0,0,0,0,0,0,0,-1,1539,561,0,0
322,463,0,0,0,0,0,0,0,0,0,-1,1546,561,0,0
329,463,0,0,0,0,0,0,0,0,0,-1,1553,561,0,0
336,463,0,0,0,0,0,0,0,0,0,-1,1560,561,0,0
343,463,0,0,0,0,0,0,0,0,0,-1,1567,561,0,0
350,463,0,0,0,0,0,0,0,0,0,-1,1574,561,0,0
357,463,0,0,0,0,0,0,0,0,0,-1,1581,561,0,0
364,463,0,0,0,0,0,0,0,0,0,-1,1588,561,0,0
371,463,1.75842,0.152588,0,0,0,0,0,0,0,-1,1595,561,1.75844,-0.152558
378,463,4.58813,-0.0444336,0,0,0,0,0,0,0,-1,1602,561,4.58809,0.0444505
385,463,8.88574,1.65057,0,0,0,0,0,0,0,-1,1609,561,8.88575,-1.65055
392,463,14.0912,2.50513,0,0,0,0,0,0,0,-1,1616,561,14.0912,-2.5051
399,463,21.4769,2.7002,0,0,0,0,0,0,0,-1,1623,561,21.477,-2.70017
406,463,26.2987,4.32318,0,0,0,0,0,0,0,-1,1630,561,26.2987,-4.3232
413,463,26.5011,2.65222,0,0,0,0,0,0,0,-1,1637,561,26.5011,-2.65224
420,463,8.849,2.26611,0,0,0,0,0,0,0,-1,1644,561,8.84899,-2.26613
427,463,5.12207,1.69183,0,0,0,0,0,0,0,-1,1651,561,5.12206,-1.69184
434,463,4.59814,1.81995,0,0,0,0,0,0,0,-1,1658,561,4.59812,-1.81994
441,463,1.76392,-5.99225,0,0,0,0,0,0,0,-1,1665,561,1.7639,5.99225
448,463,2.49939,-4.30536,0,0,0,0,0,0,0,-1,1672,561,2.49941,4.30536
455,463,4.40295,-3.02557,0,0,0,0,0,0,0,-1,1679,561,4.40299,3.02558
462,463,5.38293,-4.06445,0,0,0,0,0,0,0,-1,1686,561,5.38289,4.06444
469,463,5.94373,-4.50647,0,0,0,0,0,0,0,-1,1693,561,5.94368,4.50646
476,463,12.4266,-13.8547,0,0,0,0,0,0,0,-1,1700,561,12.4266,13.8547
483,463,12.7019,-13.2427,0.00587445,0.00423629,0.00320274,0.00836118,0.00174956,0.66021,0.00509213,0.0499427,1707,561,12.7019,13.2428
490,463,12.8485,-12.5612,0.00521589,0.0038946,0.00293045,0.00755924,0.00155125,0.674531,0.00461024,0.0230286,1714,561,12.8486,12.5612
497,463,12.8199,-12.0904,0.00439054,0.0034882,0.0026644,0.0066417,0.00123704,0.701527,0.00407848,0.0137411,1721,561,12.8199,12.0904
504,463,12.8391,-11.6354,0.00346647,0.00274315,0.00219408,0.00532849,0.000881125,0.703715,0.00329809,0.0170012,1728,561,12.8391,11.6354
511,463,12.8311,-11.2019,0.00251567,0.00203128,0.00167876,0.00396962,0.000577328,0.713758,0.0024765,0.0221316,1735,561,12.8311,11.2019
518,463,12.8539,-10.7239,0.00149929,0.00150721,0.0011965,0.00269976,0.000306744,0.787053,0.0017068,0.0209347,1742,561,12.8539,10.7239
525,463,12.8129,-10.2324,0.000533032,0.00098013,0.000734386,0.00152424,-1.10756e-05,0.933144,0.00101987,0.0169181,1749,561,12.8128,10.2324
532,463,12.8088,-9.75177,-0.000406698,0.000550464,0.000303688,0.000638687,-0.00049492,1.28807,0.00065624,0.0156351,1756,561,12.8089,9.75174
539,463,12.7717,-9.24951,-0.00131781,0.000130387,-0.0001004,0.000137315,-0.00132473,-1.50191,0.000932304,0.0162696,1763,561,12.7717,9.24951
546,463,12.749,-8.78949,-0.0021795,-0.000239207,-0.000445568,-0.000141779,-0.00227693,-1.35552,0.00147297,0.0130208,1770,561,12.749,8.78948
553,463,12.7607,-8.29852,-0.00303079,-0.000473173,-0.000738634,-0.000275184,-0.00322878,-1.3089,0.00206691,0.010833,1777,561,12.7607,8.29854
560,463,12.7792,-7.72852,-0.00388686,-0.000464651,-0.000845429,-0.000267188,-0.00408432,-1.34134,0.00263833,0.0165751,1784,561,12.7791,7.72854
567,463,12.6393,-7.27112,-0.00474967,-0.000571375,-0.000941007,-0.000369228,-0.00495181,-1.35919,0.00318527,0.0230543,1791,561,12.6393,7.27112
574,463,12.6625,-6.79047,0,0,0,0,0,0,0,-1,1798,561,12.6625,6.79049
581,463,9.4939,-3.88245,0,0,0,0,0,0,0,-1,1805,561,9.49392,3.88245
588,463,1.97424,2.16016,0,0,0,0,0,0,0,-1,1812,561,1.97422,-2.16013
595,463,9.98657,2.99854,0,0,0,0,0,0,0,-1,1819,561,9.98662,-2.99856
602,463,17.2202,4.91302,0,0,0,0,0,0,0,-1,1826,561,17.2202,-4.91305
609,463,17.96,4.03131,0,0,0,0,0,0,0,-1,1833,561,17.96,-4.03132
616,463,20.8352,3.15131,0,0,0,0,0,0,0,-1,1840,561,20.8352,-3.1513
623,463,0,0,0,0,0,0,0,0,0,-1,1847,561,0,0
630,463,0,0,0,0,0,0,0,0,0,-1,1854,561,0,0
637,463,0,0,0,0,0,0,0,0,0,-1,1861,561,0,0
644,463,0,0,0,0,0,0,0,0,0,-1,1868,561,0,0
651,463,0,0,0,0,0,0,0,0,0,-1,1875,561,0,0
658,463,0,0,0,0,0,0,0,0,0,-1,1882,561,0,0
665,463,0,0,0,0,0,0,0,0,0,-1,1889,561,0,0
672,463,0,0,0,0,0,0,0,0,0,-1,1896,561,0,0
679,463,0,0,0,0,0,0,0,0,0,-1,1903,561,0,0
686,463,0,0,0,0,0,0,0,0,0,-1,1910,561,0,0
693,463,0,0,0,0,0,0,0,0,0,-1,1917,561,0,0
700,463,0,0,0,0,0,0,0,0,0,-1,1924,561,0,0
707,463,0,0,0,0,0,0,0,0,0,-1,1931,561,0,0
714,463,0,0,0,0,0,0,0,0,0,-1,1938,561,0,0
721,463,0,0,0,0,0,0,0,0,0,-1,1945,561,0,0
728,463,0,0,0,0,0,0,0,0,0,-1,1952,561,0,0
735,463,0,0,0,0,0,0,0,0,0,-1,1959,561,0,0
742,463,0,0,0,0,0,0,0,0,0,-1,1966,561,0,0
749,463,0,0,0,0,0,0,0,0,0,-1,1973,561,0,0
756,463,0,0,0,0,0,0,0,0,0,-1,1980,561,0,0
763,463,0,0,0,0,0,0,0,0,0,-1,1987,561,0,0
770,463,0,0,0,0,0,0,0,0,0,-1,1994,561,0,0
777,463,0,0,0,0,0,0,0,0,0,-1,2001,561,0,0
784,463,0,0,0,0,0,0,0,0,0,-1,2008,561,0,0
791,463,0,0,0,0,0,0,0,0,0,-1,2015,561,0,0
798,463,0,0,0,0,0,0,0,0,0,-1,2022,561,0,0
805,463,0,0,0,0,0,0,0,0,0,-1,2029,561,0,0
812,463,0,0,0,0,0,0,0,0,0,-1,2036,561,0,0
-700,456,0,0,0,0,0,0,0,0,0,-1,524,568,0,0
-693,456,0,0,0,0,0,0,0,0,0,-1,531,568,0,0
-686,456,0,0,0,0,0,0,0,0,0,-1,538,568,0,0
-679,456,0,0,0,0,0,0,0,0,0,-1,545,568,0,0
-672,456,0,0,0,0,0,0,0,0,0,-1,552,568,0,0
-665,456,0,0,0,0,0,0,0,0,0,-1,559,568,0,0
-658,456,0,0,0,0,0,0,0,0,0,-1,566,568,0,0
-651,456,0,0,0,0,0,0,0,0,0,-1,573,568,0,0
-644,456,0,0,0,0,0,0,0,0,0,-1,580,568,0,0
-637,456,0,0,0,0,0,0,0,0,0,-1,587,568,0,0
-630,456,0,0,0,0,0,0,0,0,0,-1,594,568,0,0
-623,456,0,0,0,0,0,0,0,0,0,-1,601,568,0,0
-616,456,0,0,0,0,0,0,0,0,0,-1,608,568,0,0
-609,456,0,0,0,0,0,0,0,0,0,-1,615,568,0,0
-602,456,0,0,0,0,0,0,0,0,0,-1,622,568,0,0
-595,456,0,0,0,0,0,0,0,0,0,-1,629,568,0,0
-588,456,0,0,0,0,0,0,0,0,0,-1,636,568,0,0
-581,456,0,0,0,0,0,0,0,0,0,-1,643,568,0,0
-574,456,0,0,0,0,0,0,0,0,0,-1,650,568,0,0
-567,456,0,0,0,0,0,0,0,0,0,-1,657,568,0,0
-560,456,0,0,0,0,0,0,0,0,0,-1,664,568,0,0
-553,456,0,0,0,0,0,0,0,0,0,-1,671,568,0,0
-546,456,0,0,0,0,0,0,0,0,0,-1,678,568,0,0
-539,456,0,0,0,0,0,0,0,0,0,-1,685,568,0,0
-532,456,0,0,0,0,0,0,0,0,0,-1,692,568,0,0
-525,456,0,0,0,0,0,0,0,0,0,-1,699,568,0,0
-518,456,0,0,0,0,0,0,0,0,0,-1,706,568,0,0
-511,456,0,0,0,0,0,0,0,0,0,-1,713,568,0,0
-504,456,-10.3994,-2.34839,0,0,0,0,0,0,0,-1,720,568,-10.3994,2.3484
-497,456,-9.21375,-2.38068,0,0,0,0,0,0,0,-1,727,568,-9.21372,2.38069
-490,456,-8.09058,-2.31824,0,0,0,0,0,0,0,-1,734,568,-8.09057,2.31821
-483,456,-6.66119,-2.24329,0,0,0,0,0,0,0,-1,741,568,-6.66121,2.24331
-476,456,-5.1499,-2.21185,0,0,0,0,0,0,0,-1,748,568,-5.14992,2.21184
-469,456,-2.81238,-3.51501,0,0,0,0,0,0,0,-1,755,568,-2.81237,3.51501
-462,456,-4.2431,-5.27478,0,0,0,0,0,0,0,-1,762,568,-4.24312,5.27476
-455,456,-4.59198,-6.98346,0,0,0,0,0,0,0,-1,769,568,-4.59201,6.98347
-448,456,-4.42999,-8.15771,0,0,0,0,0,0,0,-1,776,568,-4.43001,8.1577
-441,456,-4.57489,-8.92377,-0.00197146,0.00933405,-0.00395962,0.0105829,-0.00322032,-1.26527,0.00833863,0.0266018,783,568,-4.57487,8.92377
-434,456,-4.65198,-9.44568,-0.0012248,0.00785803,-0.0032681,0.0089117,-0.00227846,-1.25891,0.00682852,0.0143611,790,568,-4.65198,9.44567
-427,456,-4.64276,-9.9115,-0.000670409,0.00652758,-0.00264777,0.00739663,-0.00153946,-1.25365,0.00551632,0.00895832,797,568,-4.64277,9.91148
-420,456,-4.65027,-10.3686,-0.000250347,0.00526637,-0.00211079,0.00598134,-0.000965314,-1.24421,0.00434522,0.00899425,804,568,-4.65025,10.3686
-413,456,-4.67535,-10.8278,-1.43485e-05,0.00384592,-0.00146107,0.00433656,-0.000504986,-1.24682,0.00307323,0.00808726,811,568,-4.67536,10.8278
-406,456,-4.70532,-11.2866,0.000214206,0.00269527,-0.000892001,0.00298267,-7.31966e-05,-1.2591,0.00201329,0.00833821,818,568,-4.70531,11.2866
-399,456,-4.69995,-11.7311,0.000381686,0.00157585,-0.000360712,0.00167635,0.000281186,-1.29907,0.00103663,0.0108705,825,568,-4.69994,11.7312
-392,456,-4.70245,-12.1732,0.000586421,0.00045763,0.000150151,0.000685403,0.000358648,0.582826,0.000395861,0.0107116,832,568,-4.70247,12.1732
-385,456,-4.71539,-12.6221,0.000905558,-0.000519645,0.000619201,0.001137,-0.000751083,0.357691,0.00109765,0.00986622,839,568,-4.71541,12.6221
-378,456,-4.74152,-13.0871,0.00125948,-0.00139626,0.00106323,0.00163269,-0.00176948,0.337584,0.00196477,0.00976781,846,568,-4.74151,13.0871
-371,456,-4.7583,-13.5306,0.00171528,-0.00211041,0.00145924,0.00220833,-0.00260346,0.325841,0.00278121,0.0107962,853,568,-4.75831,13.5306
-364,456,-4.73407,-13.9147,0.00237545,-0.00252571,0.00168031,0.0028962,-0.00304646,0.300525,0.00343136,0.0186242,860,568,-4.73407,13.9147
-357,456,-4.6889,-14.359,0.00323723,-0.00283182,0.0016815,0.00367197,-0.00326655,0.253001,0.00400824,0.0329223,867,568,-4.6889,14.359
-350,456,-4.45172,-15.1669,0,0,0,0,0,0,0,-1,874,568,-4.45171,15.1669
-343,456,-3.39081,-12.0217,0,0,0,0,0,0,0,-1,881,568,-3.39078,12.0217
-336,456,-3.04517,-12.4623,0,0,0,0,0,0,0,-1,888,568,-3.04519,12.4624
-329,456,-1.06183,-10.7184,0,0,0,0,0,0,0,-1,895,568,-1.06184,10.7184
-322,456,-0.662537,-7.66632,0,0,0,0,0,0,0,-1,902,568,-0.662564,7.66633
-315,456,-0.675476,-3.38397,0,0,0,0,0,0,0,-1,909,568,-0.675473,3.38399
-308,456,-1.1618,-3.15314,0,0,0,0,0,0,0,-1,916,568,-1.16178,3.15314
-301,456,-1.83551,-3.26447,0,0,0,0,0,0,0,-1,923,568,-1.8355,3.26449
-294,456,-2.93414,-3.35449,0,0,0,0,0,0,0,-1,930,568,-2.93413,3.35451
-287,456,-3.7569,-3.53101,0,0,0,0,0,0,0,-1,937,568,-3.75692,3.53101
-280,456,-13.072,4.52856,0,0,0,0,0,0,0,-1,944,568,-13.072,-4.52855
-273,456,-8.76031,-5.4386,0,0,0,0,0,0,0,-1,951,568,-8.7603,5.43861
-266,456,-6.01025,-7.18506,0,0,0,0,0,0,0,-1,958,568,-6.01026,7.18508
-259,456,0,0,0,0,0,0,0,0,0,-1,965,568,0,0
-252,456,0,0,0,0,0,0,0,0,0,-1,972,568,0,0
-245,456,0,0,0,0,0,0,0,0,0,-1,979,568,0,0
-238,456,0,0,0,0,0,0,0,0,0,-1,986,568,0,0
-231,456,0,0,0,0,0,0,0,0,0,-1,993,568,0,0
-224,456,0,0,0,0,0,0,0,0,0,-1,1000,568,0,0
-217,456,0,0,0,0,0,0,0,0,0,-1,1007,568,0,0
-210,456,0,0,0,0,0,0,0,0,0,-1,1014,568,0,0
-203,456,0,0,0,0,0,0,0,0,0,-1,1021,568,0,0
-196,456,0,0,0,0,0,0,0,0,0,-1,1028,568,0,0
-189,456,0,0,0,0,0,0,0,0,0,-1,1035,568,0,0
-182,456,0,0,0,0,0,0,0,0,0,-1,1042,568,0,0
-175,456,0,0,0,0,0,0,0,0,0,-1,1049,568,0,0
-168,456,0,0,0,0,0,0,0,0,0,-1,1056,568,0,0
-161,456,0,0,0,0,0,0,0,0,0,-1,1063,568,0,0
-154,456,0,0,0,0,0,0,0,0,0,-1,1070,568,0,0
-147,456,0,0,0,0,0,0,0,0,0,-1,1077,568,0,0
-140,456,0,0,0,0,0,0,0,0,0,-1,1084,568,0,0
-133,456,0,0,0,0,0,0,0,0,0,-1,1091,568,0,0
-126,456,0,0,0,0,0,0,0,0,0,-1,1098,568,0,0
-119,456,0,0,0,0,0,0,0,0,0,-1,1105,568,0,0
-112,456,0,0,0,0,0,0,0,0,0,-1,1112,568,0,0
-105,456,0,0,0,0,0,0,0,0,0,-1,1119,568,0,0
-98,456,0,0,0,0,0,0,0,0,0,-1,1126,568,0,0
-91,456,0,0,0,0,0,0,0,0,0,-1,1133,568,0,0
-84,456,0,0,0,0,0,0,0,0,0,-1,1140,568,0,0
-77,456,0,0,0,0,0,0,0,0,0,-1,1147,568,0,0
-70,456,0,0,0,0,0,0,0,0,0,-1,1154,568,0,0
-63,456,0,0,0,0,0,0,0,0,0,-1,1161,568,0,0
-56,456,0,0,0,0,0,0,0,0,0,-1,1168,568,0,0
-49,456,0,0,0,0,0,0,0,0,0,-1,1175,568,0,0
-42,456,0,0,0,0,0,0,0,0,0,-1,1182,568,0,0
-35,456,0,0,0,0,0,0,0,0,0,-1,1189,568,0,0
-28,456,0,0,0,0,0,0,0,0,0,-1,1196,568,0,0
-21,456,0,0,0,0,0,0,0,0,0,-1,1203,568,0,0
-14,456,0,0,0,0,0,0,0,0,0,-1,1210,568,0,0
-7,456,0,0,0,0,0,0,0,0,0,-1,1217,568,0,0
0,456,0,0,0,0,0,0,0,0,0,-1,1224,568,0,0
7,456,0,0,0,0,0,0,0,0,0,-1,1231,568,0,0
14,456,0,0,0,0,0,0,0,0,0,-1,1238,568,0,0
21,456,0,0,0,0,0,0,0,0,0,-1,1245,568,0,0
28,456,0,0,0,0,0,0,0,0,0,-1,1252,568,0,0
35,456,0,0,0,0,0,0,0,0,0,-1,1259,568,0,0
42,456,0,0,0,0,0,0,0,0,0,-1,1266,568,0,0
49,456,0,0,0,0,0,0,0,0,0,-1,1273,568,0,0
56,456,0,0,0,0,0,0,0,0,0,-1,1280,568,0,0
63,456,0,0,0,0,0,0,0,0,0,-1,1287,568,0,0
70,456,0,0,0,0,0,0,0,0,0,-1,1294,568,0,0
77,456,0,0,0,0,0,0,0,0,0,-1,1301,568,0,0
84,456,0,0,0,0,0,0,0,0,0,-1,1308,568,0,0
91,456,0,0,0,0,0,0,0,0,0,-1,1315,568,0,0
98,456,0,0,0,0,0,0,0,0,0,-1,1322,568,0,0
105,456,0,0,0,0,0,0,0,0,0,-1,1329,568,0,0
112,456,0,0,0,0,0,0,0,0,0,-1,1336,568,0,0
119,456,0,0,0,0,0,0,0,0,0,-1,1343,568,0,0
126,456,0,0,0,0,0,0,0,0,0,-1,1350,568,0,0
133,456,0,0,0,0,0,0,0,0,0,-1,1357,568,0,0
140,456,0,0,0,0,0,0,0,0,0,-1,1364,568,0,0
147,456,0,0,0,0,0,0,0,0,0,-1,1371,568,0,0
154,456,0,0,0,0,0,0,0,0,0,-1,1378,568,0,0
161,456,0,0,0,0,0,0,0,0,0,-1,1385,568,0,0
168,456,0,0,0,0,0,0,0,0,0,-1,1392,568,0,0
175,456,0,0,0,0,0,0,0,0,0,-1,1399,568,0,0
182,456,0,0,0,0,0,0,0,0,0,-1,1406,568,0,0
189,456,0,0,0,0,0,0,0,0,0,-1,1413,568,0,0
196,456,0,0,0,0,0,0,0,0,0,-1,1420,568,0,0
203,456,0,0,0,0,0,0,0,0,0,-1,1427,568,0,0
210,456,0,0,0,0,0,0,0,0,0,-1,1434,568,0,0
217,456,0,0,0,0,0,0,0,0,0,-1,1441,568,0,0
224,456,0,0,0,0,0,0,0,0,0,-1,1448,568,0,0
231,456,0,0,0,0,0,0,0,0,0,-1,1455,568,0,0
238,456,0,0,0,0,0,0,0,0,0,-1,1462,568,0,0
245,456,0,0,0,0,0,0,0,0,0,-1,1469,568,0,0
252,456,0,0,0,0,0,0,0,0,0,-1,1476,568,0,0
259,456,0,0,0,0,0,0,0,0,0,-1,1483,568,0,0
266,456,0,0,0,0,0,0,0,0,0,-1,1490,568,0,0
273,456,0,0,0,0,0,0,0,0,0,-1,1497,568,0,0
280,456,0,0,0,0,0,0,0,0,0,-1,1504,568,0,0
287,456,0,0,0,0,0,0,0,0,0,-1,1511,568,0,0
294,456,0,0,0,0,0,0,0,0,0,-1,1518,568,0,0
301,456,0,0,0,0,0,0,0,0,0,-1,1525,568,0,0
308,456,0,0,0,0,0,0,0,0,0,-1,1532,568,0,0
315,456,0,0,0,0,0,0,0,0,0,-1,1539,568,0,0
322,456,0,0,0,0,0,0,0,0,0,-1,1546,568,0,0
329,456,0,0,0,0,0,0,0,0,0,-1,1553,568,0,0
336,456,0,0,0,0,0,0,0,0,0,-1,1560,568,0,0
343,456,0,0,0,0,0,0,0,0,0,-1,1567,568,0,0
350,456,0,0,0,0,0,0,0,0,0,-1,1574,568,0,0
357,456,0,0,0,0,0,0,0,0,0,-1,1581,568,0,0
364,456,0,0,0,0,0,0,0,0,0,-1,1588,568,0,0
371,456,0,0,0,0,0,0,0,0,0,-1,1595,568,0,0
378,456,0,0,0,0,0,0,0,0,0,-1,1602,568,0,0
385,456,5.66284,0.660645,0,0,0,0,0,0,0,-1,1609,568,5.66285,-0.660615
392,456,17.5027,4.32971,0,0,0,0,0,0,0,-1,1616,568,17.5026,-4.32971
399,456,24.1917,5.99652,0,0,0,0,0,0,0,-1,1623,568,24.1916,-5.99651
406,456,24.446,4.53003,0,0,0,0,0,0,0,-1,1630,568,24.446,-4.53005
413,456,24.9418,2.90521,0,0,0,0,0,0,0,-1,1637,568,24.9418,-2.90524
420,456,25.3048,1.04712,0,0,0,0,0,0,0,-1,1644,568,25.3048,-1.04713
427,456,6.21375,2.02905,0,0,0,0,0,0,0,-1,1651,568,6.21372,-2.02904
434,456,3.0719,-4.86285,0,0,0,0,0,0,0,-1,1658,568,3.07184,4.86287
441,456,2.90344,-4.70459,0,0,0,0,0,0,0,-1,1665,568,2.90346,4.7046
448,456,3.06995,-4.93689,0,0,0,0,0,0,0,-1,1672,568,3.06991,4.93687
455,456,3.46582,-3.43701,0,0,0,0,0,0,0,-1,1679,568,3.46585,3.43698
462,456,4.68445,-4.45831,0,0,0,0,0,0,0,-1,1686,568,4.68439,4.45833
469,456,4.93201,-2.289,0,0,0,0,0,0,0,-1,1693,568,4.93197,2.28903
476,456,4.8363,-2.79364,0,0,0,0,0,0,0,-1,1700,568,4.83636,2.79363
483,456,12.8522,-13.692,0,0,0,0,0,0,0,-1,1707,568,12.8522,13.6919
490,456,13.2747,-12.6035,0,0,0,0,0,0,0,-1,1714,568,13.2747,12.6034
497,456,13.3019,-12.179,0.00545607,0.00428723,0.00346103,0.00838167,0.00136162,0.701758,0.00519375,0.0412803,1721,568,13.3018,12.179
504,456,13.2827,-11.631,0.00444796,0.0033769,0.00284376,0.00680618,0.00101869,0.692329,0.00423889,0.0129878,1728,568,13.2827,11.631
511,456,13.2922,-11.1756,0.00350994,0.00254432,0.00221753,0.00529662,0.000757644,0.678208,0.00330758,0.0147108,1735,568,13.2922,11.1756
518,456,13.2948,-10.7037,0.00257206,0.00193929,0.00168756,0.00397264,0.000538714,0.692733,0.00248837,0.0162715,1742,568,13.2948,10.7037
525,456,13.2699,-10.2332,0.00167557,0.00141044,0.00122555,0.00277571,0.000310308,0.731524,0.0017562,0.0151343,1749,568,13.2699,10.2332
532,456,13.2559,-9.74664,0.000808693,0.000962892,0.000796019,0.00168554,8.60477e-05,0.833676,0.00109614,0.0146809,1756,568,13.2559,9.74665
539,456,13.2455,-9.23218,-3.39895e-05,0.000504349,0.00038438,0.000704434,-0.000234075,1.09085,0.000564076,0.0183757,1763,568,13.2455,9.23215
546,456,13.2194,-8.74689,-0.0008079,0.000155772,7.00938e-05,0.000160844,-0.000812971,1.49857,0.000602792,0.0208372,1770,568,13.2194,8.74687
553,456,13.2035,-8.26422,-0.00156939,-8.9597e-05,-0.000185803,-6.66241e-05,-0.00159236,-1.44778,0.00104008,0.0134937,1777,568,13.2035,8.26419
560,456,13.2146,-7.78711,-0.00235252,-4.84607e-05,-0.000244771,-2.27445e-05,-0.00237823,-1.46612,0.00157796,0.010299,1784,568,13.2146,7.78712
567,456,13.2063,-7.27399,-0.00310466,-5.73112e-05,-0.000267845,-3.39483e-05,-0.00312803,-1.48379,0.00207413,0.0160662,1791,568,13.2063,7.27396
574,456,13.1456,-6.94202,-0.00404599,5.81725e-05,-0.000274435,7.64418e-05,-0.00406426,-1.50432,0.00273534,0.0471629,1798,568,13.1456,6.94202
581,456,13.1526,-6.52246,0,0,0,0,0,0,0,-1,1805,568,13.1526,6.52243
588,456,5.23901,-0.0901489,0,0,0,0,0,0,0,-1,1812,568,5.23906,0.0901656
595,456,6.90063,3.14886,0,0,0,0,0,0,0,-1,1819,568,6.90066,-3.14887
602,456,16.894,4.10938,0,0,0,0,0,0,0,-1,1826,568,16.8941,-4.1094
609,456,14.9966,3.5708,0,0,0,0,0,0,0,-1,1833,568,14.9966,-3.57083
616,456,17.7407,2.6579,0,0,0,0,0,0,0,-1,1840,568,17.7408,-2.6579
623,456,20.6838,1.7121,0,0,0,0,0,0,0,-1,1847,568,20.6838,-1.71208
630,456,0,0,0,0,0,0,0,0,0,-1,1854,568,0,0
637,456,0,0,0,0,0,0,0,0,0,-1,1861,568,0,0
644,456,0,0,0,0,0,0,0,0,0,-1,1868,568,0,0
651,456,0,0,0,0,0,0,0,0,0,-1,1875,568,0,0
658,456,0,0,0,0,0,0,0,0,0,-1,1882,568,0,0
665,456,0,0,0,0,0,0,0,0,0,-1,1889,568,0,0
672,456,0,0,0,0,0,0,0,0,0,-1,1896,568,0,0
679,456,0,0,0,0,0,0,0,0,0,-1,1903,568,0,0
686,456,0,0,0,0,0,0,0,0,0,-1,1910,568,0,0
693,456,0,0,0,0,0,0,0,0,0,-1,1917,568,0,0
700,456,0,0,0,0,0,0,0,0,0,-1,1924,568,0,0
707,456,0,0,0,0,0,0,0,0,0,-1,1931,568,0,0
714,456,0,0,0,0,0,0,0,0,0,-1,1938,568,0,0
721,456,0,0,0,0,0,0,0,0,0,-1,1945,568,0,0
728,456,0,0,0,0,0,0,0,0,0,-1,1952,568,0,0
735,456,0,0,0,0,0,0,0,0,0,-1,1959,568,0,0
742,456,0,0,0,0,0,0,0,0,0,-1,1966,568,0,0
749,456,0,0,0,0,0,0,0,0,0,-1,1973,568,0,0
756,456,0,0,0,0,0,0,0,0,0,-1,1980,568,0,0
763,456,0,0,0,0,0,0,0,0,0,-1,1987,568,0,0
770,456,0,0,0,0,0,0,0,0,0,-1,1994,568,0,0
777,456,0,0,0,0,0,0,0,0,0,-1,2001,568,0,0
784,456,0,0,0,0,0,0,0,0,0,-1,2008,568,0,0
791,456,0,0,0,0,0,0,0,0,0,-1,2015,568,0,0
798,456,0,0,0,0,0,0,0,0,0,-1,2022,568,0,0
805,456,0,0,0,0,0,0,0,0,0,-1,2029,568,0,0
812,456,0,0,0,0,0,0,0,0,0,-1,2036,568,0,0
-700,449,0,0,0,0,0,0,0,0,0,-1,524,575,0,0
-693,449,0,0,0,0,0,0,0,0,0,-1,531,575,0,0
-686,449,0,0,0,0,0,0,0,0,0,-1,538,575,0,0
-679,449,0,0,0,0,0,0,0,0,0,-1,545,575,0,0
-672,449,0,0,0,0,0,0,0,0,0,-1,552,575,0,0
-665,449,0,0,0,0,0,0,0,0,0,-1,559,575,0,0
-658,449,0,0,0,0,0,0,0,0,0,-1,566,575,0,0
-651,449,0,0,0,0,0,0,0,0,0,-1,573,575,0,0
-644,449,0,0,0,0,0,0,0,0,0,-1,580,575,0,0
-637,449,0,0,0,0,0,0,0,0,0,-1,587,575,0,0
-630,449,0,0,0,0,0,0,0,0,0,-1,594,575,0,0
-623,449,0,0,0,0,0,0,0,0,0,-1,601,575,0,0
-616,449,0,0,0,0,0,0,0,0,0,-1,608,575,0,0
-609,449,0,0,0,0,0,0,0,0,0,-1,615,575,0,0
-602,449,0,0,0,0,0,0,0,0,0,-1,622,575,0,0
-595,449,0,0,0,0,0,0,0,0,0,-1,629,575,0,0
-588,449,0,0,0,0,0,0,0,0,0,-1,636,575,0,0
-581,449,0,0,0,0,0,0,0,0,0,-1,643,575,0,0
-574,449,0,0,0,0,0,0,0,0,0,-1,650,575,0,0
-567,449,0,0,0,0,0,0,0,0,0,-1,657,575,0,0
-560,449,0,0,0,0,0,0,0,0,0,-1,664,575,0,0
-553,449,0,0,0,0,0,0,0,0,0,-1,671,575,0,0
-546,449,0,0,0,0,0,0,0,0,0,-1,678,575,0,0
-539,449,0,0,0,0,0,0,0,0,0,-1,685,575,0,0
-532,449,0,0,0,0,0,0,0,0,0,-1,692,575,0,0
-525,449,0,0,0,0,0,0,0,0,0,-1,699,575,0,0
-518,449,0,0,0,0,0,0,0,0,0,-1,706,575,0,0
-511,449,-0.941345,-4.4519,0,0,0,0,0,0,0,-1,713,575,-0.941356,4.45191
-504,449,-14.1078,0.318237,0,0,0,0,0,0,0,-1,720,575,-14.1078,-0.318231
-497,449,-8.61292,-3.09009,0,0,0,0,0,0,0,-1,727,575,-8.61291,3.09011
-490,449,-7.50995,-2.96252,0,0,0,0,0,0,0,-1,734,575,-7.50995,2.96251
-483,449,-5.77789,-2.50061,0,0,0,0,0,0,0,-1,741,575,-5.77792,2.50059
-476,449,-4.1723,-2.07739,0,0,0,0,0,0,0,-1,748,575,-4.17228,2.0774
-469,449,-4.02954,-4.56329,0,0,0,0,0,0,0,-1,755,575,-4.02951,4.56329
-462,449,-5.07098,-7.36908,0,0,0,0,0,0,0,-1,762,575,-5.07097,7.36908
-455,449,-5.24176,-7.70636,0,0,0,0,0,0,0,-1,769,575,-5.24174,7.70639
-448,449,-5.05475,-8.39545,-0.00200649,0.00785954,-0.00390769,0.00921975,-0.0033667,-1.23583,0.00752414,0.0343388,776,575,-5.05472,8.39544
-441,449,-5.06036,-9.02594,-0.00136372,0.00676976,-0.0031392,0.00784043,-0.00243438,-1.24211,0.00619982,0.0174624,783,575,-5.06038,9.02592
-434,449,-5.11157,-9.44629,-0.00095992,0.00549472,-0.00235043,0.0062599,-0.00172511,-1.25607,0.00485164,0.0139548,790,575,-5.1116,9.44631
-427,449,-5.12054,-9.89679,-0.000692657,0.00429206,-0.00162058,0.0047726,-0.0011732,-1.28253,0.00363644,0.0134935,797,575,-5.12057,9.89679
-420,449,-5.12048,-10.3468,-0.000512533,0.00317697,-0.000993176,0.00342733,-0.000762896,-1.32386,0.00257711,0.0128454,804,575,-5.12048,10.3468
-413,449,-5.12811,-10.799,-0.000479122,0.00191582,-0.000265219,0.00194484,-0.000508141,-1.46181,0.00149501,0.00978285,811,575,-5.12811,10.799
-406,449,-5.15308,-11.2747,-0.000404598,0.000919534,0.000334444,0.000999212,-0.000484276,1.33692,0.000873522,0.0089318,818,575,-5.15307,11.2747
-399,449,-5.15759,-11.7399,-0.000324826,-2.96815e-05,0.000852268,0.000687696,-0.0010422,0.871124,0.00100572,0.00892177,825,575,-5.15759,11.7399
-392,449,-5.16241,-12.1795,-0.00014921,-0.000952828,0.0013041,0.000813576,-0.00191561,0.635957,0.00161795,0.0101281,832,575,-5.16244,12.1795
-385,449,-5.16656,-12.6009,0.000181815,-0.0017267,0.00168287,0.00116215,-0.00270703,0.527481,0.00229246,0.0110997,839,575,-5.16654,12.6009
-378,449,-5.19019,-13.0392,0.000594254,-0.00242323,0.00203499,0.00161879,-0.00344776,0.466411,0.00298803,0.00939962,846,575,-5.19021,13.0392
-371,449,-5.19806,-13.492,0.00119341,-0.00290606,0.00230507,0.00222827,-0.00394093,0.421982,0.00360725,0.0121831,853,575,-5.19804,13.492
-364,449,-5.26361,-13.9465,0.00208857,-0.00301496,0.0023344,0.00299526,-0.00392165,0.370471,0.0040054,0.038156,860,575,-5.2636,13.9465
-357,449,-4.79584,-14.5958,0,0,0,0,0,0,0,-1,867,575,-4.79582,14.5958
-350,449,-2.8764,-9.90204,0,0,0,0,0,0,0,-1,874,575,-2.87638,9.90203
-343,449,-2.98492,-9.2254,0,0,0,0,0,0,0,-1,881,575,-2.98491,9.22541
-336,449,-1.29523,-9.54626,0,0,0,0,0,0,0,-1,888,575,-1.29525,9.54626
-329,449,-0.733398,-7.78937,0,0,0,0,0,0,0,-1,895,575,-0.733398,7.78937
-322,449,-0.628845,-3.16669,0,0,0,0,0,0,0,-1,902,575,-0.628861,3.16667
-315,449,-0.540344,-3.21918,0,0,0,0,0,0,0,-1,909,575,-0.540336,3.21917
-308,449,-1.04413,-2.99341,0,0,0,0,0,0,0,-1,916,575,-1.04415,2.99338
-301,449,-1.58691,-2.80725,0,0,0,0,0,0,0,-1,923,575,-1.58692,2.80728
-294,449,-3.71118,-2.76086,0,0,0,0,0,0,0,-1,930,575,-3.71119,2.76087
-287,449,-4.4082,-2.69525,0,0,0,0,0,0,0,-1,937,575,-4.40822,2.69526
-280,449,-3.80438,-6.26447,0,0,0,0,0,0,0,-1,944,575,-3.80439,6.26444
-273,449,0,0,0,0,0,0,0,0,0,-1,951,575,0,0
-266,449,0,0,0,0,0,0,0,0,0,-1,958,575,0,0
-259,449,0,0,0,0,0,0,0,0,0,-1,965,575,0,0
-252,449,0,0,0,0,0,0,0,0,0,-1,972,575,0,0
-245,449,0,0,0,0,0,0,0,0,0,-1,979,575,0,0
-238,449,0,0,0,0,0,0,0,0,0,-1,986,575,0,0
-231,449,0,0,0,0,0,0,0,0,0,-1,993,575,0,0
-224,449,0,0,0,0,0,0,0,0,0,-1,1000,575,0,0
-217,449,0,0,0,0,0,0,0,0,0,-1,1007,575,0,0
-210,449,0,0,0,0,0,0,0,0,0,-1,1014,575,0,0
-203,449,0,0,0,0,0,0,0,0,0,-1,1021,575,0,0
-196,449,0,0,0,0,0,0,0,0,0,-1,1028,575,0,0
-189,449,0,0,0,0,0,0,0,0,0,-1,1035,575,0,0
-182,449,0,0,0,0,0,0,0,0,0,-1,1042,575,0,0
-175,449,0,0,0,0,0,0,0,0,0,-1,1049,575,0,0
-168,449,0,0,0,0,0,0,0,0,0,-1,1056,575,0,0
-161,449,0,0,0,0,0,0,0,0,0,-1,1063,575,0,0
-154,449,0,0,0,0,0,0,0,0,0,-1,1070,575,0,0
-147,449,0,0,0,0,0,0,0,0,0,-1,1077,575,0,0
-140,449,0,0,0,0,0,0,0,0,0,-1,1084,575,0,0
-133,449,0,0,0,0,0,0,0,0,0,-1,1091,575,0,0
-126,449,0,0,0,0,0,0,0,0,0,-1,1098,575,0,0
-119,449,0,0,0,0,0,0,0,0,0,-1,1105,575,0,0
-112,449,0,0,0,0,0,0,0,0,0,-1,1112,575,0,0
-105,449,0,0,0,0,0,0,0,0,0,-1,1119,575,0,0
-98,449,0,0,0,0,0,0,0,0,0,-1,1126,575,0,0
-91,449,0,0,0,0,0,0,0,0,0,-1,1133,575,0,0
-84,449,0,0,0,0,0,0,0,0,0,-1,1140,575,0,0
-77,449,0,0,0,0,0,0,0,0,0,-1,1147,575,0,0
-70,449,0,0,0,0,0,0,0,0,0,-1,1154,575,0,0
-63,449,0,0,0,0,0,0,0,0,0,-1,1161,575,0,0
-56,449,0,0,0,0,0,0,0,0,0,-1,1168,575,0,0
-49,449,0,0,0,0,0,0,0,0,0,-1,1175,575,0,0
-42,449,0,0,0,0,0,0,0,0,0,-1,1182,575,0,0
-35,449,0,0,0,0,0,0,0,0,0,-1,1189,575,0,0
-28,449,0,0,0,0,0,0,0,0,0,-1,1196,575,0,0
-21,449,0,0,0,0,0,0,0,0,0,-1,1203,575,0,0
-14,449,0,0,0,0,0,0,0,0,0,-1,1210,575,0,0
-7,449,0,0,0,0,0,0,0,0,0,-1,1217,575,0,0
0,449,0,0,0,0,0,0,0,0,0,-1,1224,575,0,0
7,449,0,0,0,0,0,0,0,0,0,-1,1231,575,0,0
14,449,0,0,0,0,0,0,0,0,0,-1,1238,575,0,0
21,449,0,0,0,0,0,0,0,0,0,-1,1245,575,0,0
28,449,0,0,0,0,0,0,0,0,0,-1,1252,575,0,0
35,449,0,0,0,0,0,0,0,0,0,-1,1259,575,0,0
42,449,0,0,0,0,0,0,0,0,0,-1,1266,575,0,0
49,449,0,0,0,0,0,0,0,0,0,-1,1273,575,0,0
56,449,0,0,0,0,0,0,0,0,0,-1,1280,575,0,0
63,449,0,0,0,0,0,0,0,0,0,-1,1287,575,0,0
70,449,0,0,0,0,0,0,0,0,0,-1,1294,575,0,0
77,449,0,0,0,0,0,0,0,0,0,-1,1301,575,0,0
84,449,0,0,0,0,0,0,0,0,0,-1,1308,575,0,0
91,449,0,0,0,0,0,0,0,0,0,-1,1315,575,0,0
98,449,0,0,0,0,0,0,0,0,0,-1,1322,575,0,0
105,449,0,0,0,0,0,0,0,0,0,-1,1329,575,0,0
112,449,0,0,0,0,0,0,0,0,0,-1,1336,575,0,0
119,449,0,0,0,0,0,0,0,0,0,-1,1343,575,0,0
126,449,0,0,0,0,0,0,0,0,0,-1,1350,575,0,0
133,449,0,0,0,0,0,0,0,0,0,-1,1357,575,0,0
140,449,0,0,0,0,0,0,0,0,0,-1,1364,575,0,0
147,449,0,0,0,0,0,0,0,0,0,-1,1371,575,0,0
154,449,0,0,0,0,0,0,0,0,0,-1,1378,575,0,0
161,449,0,0,0,0,0,0,0,0,0,-1,1385,575,0,0
168,449,0,0,0,0,0,0,0,0,0,-1,1392,575,0,0
175,449,0,0,0,0,0,0,0,0,0,-1,1399,575,0,0
182,449,0,0,0,0,0,0,0,0,0,-1,1406,575,0,0
189,449,0,0,0,0,0,0,0,0,0,-1,1413,575,0,0
196,449,0,0,0,0,0,0,0,0,0,-1,1420,575,0,0
203,449,0,0,0,0,0,0,0,0,0,-1,1427,575,0,0
210,449,0,0,0,0,0,0,0,0,0,-1,1434,575,0,0
217,449,0,0,0,0,0,0,0,0,0,-1,1441,575,0,0
224,449,0,0,0,0,0,0,0,0,0,-1,1448,575,0,0
231,449,0,0,0,0,0,0,0,0,0,-1,1455,575,0,0
238,449,0,0,0,0,0,0,0,0,0,-1,1462,575,0,0
245,449,0,0,0,0,0,0,0,0,0,-1,1469,575,0,0
252,449,0,0,0,0,0,0,0,0,0,-1,1476,575,0,0
259,449,0,0,0,0,0,0,0,0,0,-1,1483,575,0,0
266,449,0,0,0,0,0,0,0,0,0,-1,1490,575,0,0
273,449,0,0,0,0,0,0,0,0,0,-1,1497,575,0,0
280,449,0,0,0,0,0,0,0,0,0,-1,1504,575,0,0
287,449,0,0,0,0,0,0,0,0,0,-1,1511,575,0,0
294,449,0,0,0,0,0,0,0,0,0,-1,1518,575,0,0
301,449,0,0,0,0,0,0,0,0,0,-1,1525,575,0,0
308,449,0,0,0,0,0,0,0,0,0,-1,1532,575,0,0
315,449,0,0,0,0,0,0,0,0,0,-1,1539,575,0,0
322,449,0,0,0,0,0,0,0,0,0,-1,1546,575,0,0
329,449,0,0,0,0,0,0,0,0,0,-1,1553,575,0,0
336,449,0,0,0,0,0,0,0,0,0,-1,1560,575,0,0
343,449,0,0,0,0,0,0,0,0,0,-1,1567,575,0,0
350,449,0,0,0,0,0,0,0,0,0,-1,1574,575,0,0
357,449,0,0,0,0,0,0,0,0,0,-1,1581,575,0,0
364,449,0,0,0,0,0,0,0,0,0,-1,1588,575,0,0
371,449,0,0,0,0,0,0,0,0,0,-1,1595,575,0,0
378,449,0,0,0,0,0,0,0,0,0,-1,1602,575,0,0
385,449,0,0,0,0,0,0,0,0,0,-1,1609,575,0,0
392,449,7.95471,3.66217,0,0,0,0,0,0,0,-1,1616,575,7.95471,-3.66218
399,449,19.9791,5.565,0,0,0,0,0,0,0,-1,1623,575,19.9791,-5.56499
406,449,24.9847,4.55969,0,0,0,0,0,0,0,-1,1630,575,24.9848,-4.55968
413,449,23.5795,3.19586,0,0,0,0,0,0,0,-1,1637,575,23.5795,-3.19584
420,449,23.9675,1.29718,0,0,0,0,0,0,0,-1,1644,575,23.9675,-1.29721
427,449,24.4276,-0.596558,0,0,0,0,0,0,0,-1,1651,575,24.4277,0.596569
434,449,25.61,-2.96594,0,0,0,0,0,0,0,-1,1658,575,25.61,2.96595
441,449,3.89856,-6.06458,0,0,0,0,0,0,0,-1,1665,575,3.89855,6.06459
448,449,4.03198,-5.18207,0,0,0,0,0,0,0,-1,1672,575,4.03197,5.18207
455,449,4.21948,-4.09467,0,0,0,0,0,0,0,-1,1679,575,4.21952,4.09465
462,449,4.23181,-2.96924,0,0,0,0,0,0,0,-1,1686,575,4.23185,2.96926
469,449,4.51672,-2.95135,0,0,0,0,0,0,0,-1,1693,575,4.51672,2.95135
476,449,4.71838,-1.86688,0,0,0,0,0,0,0,-1,1700,575,4.71842,1.86689
483,449,4.87878,-1.73126,0,0,0,0,0,0,0,-1,1707,575,4.87875,1.73128
490,449,5.73279,-2.74573,0,0,0,0,0,0,0,-1,1714,575,5.73282,2.74575
497,449,13.7018,-12.3715,0,0,0,0,0,0,0,-1,1721,575,13.7018,12.3715
504,449,13.6912,-11.6622,0.00550249,0.00417733,0.00363496,0.00853476,0.00114505,0.695248,0.00534917,0.0444357,1728,575,13.6911,11.6622
511,449,13.7616,-11.1563,0.00449002,0.00314656,0.00283012,0.00672703,0.000909543,0.668879,0.00421435,0.012316,1735,575,13.7616,11.1563
518,449,13.7662,-10.6728,0.0035546,0.00239148,0.00219754,0.00524623,0.00069985,0.656044,0.00328912,0.0140359,1742,575,13.7662,10.6728
525,449,13.7289,-10.2115,0.0026447,0.00182545,0.00168808,0.00397214,0.000498006,0.666369,0.00249869,0.0124319,1749,575,13.7289,10.2115
532,449,13.6937,-9.74396,0.0017753,0.00131772,0.00121188,0.00277979,0.00031322,0.692102,0.00175811,0.0101929,1756,575,13.6937,9.74395
539,449,13.6803,-9.25092,0.000944818,0.000804128,0.000759798,0.00163752,0.000111425,0.739238,0.0010565,0.0129884,1763,575,13.6803,9.25089
546,449,13.6959,-8.74957,0.000205924,0.000452545,0.000440554,0.000786721,-0.000128251,0.921856,0.000572043,0.0226209,1770,575,13.6959,8.74959
553,449,13.6715,-8.28906,-0.000520587,0.000178951,0.000182688,0.000223788,-0.000565423,1.33013,0.000469666,0.0165324,1777,575,13.6716,8.28907
560,449,13.6973,-7.80896,-0.00128474,0.000222466,0.000118262,0.000231689,-0.00129396,1.49297,0.000949341,0.0129042,1784,575,13.6973,7.80897
567,449,13.6737,-7.31085,-0.00200336,0.000266587,9.73619e-05,0.000270755,-0.00200753,1.52801,0.00143713,0.00943816,1791,575,13.6737,7.31086
574,449,13.6718,-6.78705,-0.00285752,0.000447239,0.000123909,0.000451879,-0.00286216,1.53337,0.0020752,0.0226412,1798,575,13.6718,6.78705
581,449,13.6887,-6.18207,0,0,0,0,0,0,0,-1,1805,575,13.6887,6.18208
588,449,12.3274,-4.5672,0,0,0,0,0,0,0,-1,1812,575,12.3274,4.5672
595,449,11.2511,-2.25397,0,0,0,0,0,0,0,-1,1819,575,11.2511,2.25397
602,449,9.46167,4.17444,0,0,0,0,0,0,0,-1,1826,575,9.46164,-4.17442
609,449,12.2028,3.18652,0,0,0,0,0,0,0,-1,1833,575,12.2027,-3.18655
616,449,14.9438,2.19867,0,0,0,0,0,0,0,-1,1840,575,14.9438,-2.19867
623,449,9.83789,-0.0820313,0,0,0,0,0,0,0,-1,1847,575,9.83794,0.0820443
630,449,8.90686,4.99329,0,0,0,0,0,0,0,-1,1854,575,8.90685,-4.99327
637,449,0,0,0,0,0,0,0,0,0,-1,1861,575,0,0
644,449,0,0,0,0,0,0,0,0,0,-1,1868,575,0,0
651,449,0,0,0,0,0,0,0,0,0,-1,1875,575,0,0
658,449,0,0,0,0,0,0,0,0,0,-1,1882,575,0,0
665,449,0,0,0,0,0,0,0,0,0,-1,1889,575,0,0
672,449,0,0,0,0,0,0,0,0,0,-1,1896,575,0,0
679,449,0,0,0,0,0,0,0,0,0,-1,1903,575,0,0
686,449,0,0,0,0,0,0,0,0,0,-1,1910,575,0,0
693,449,0,0,0,0,0,0,0,0,0,-1,1917,575,0,0
700,449,0,0,0,0,0,0,0,0,0,-1,1924,575,0,0
707,449,0,0,0,0,0,0,0,0,0,-1,1931,575,0,0
714,449,0,0,0,0,0,0,0,0,0,-1,1938,575,0,0
721,449,0,0,0,0,0,0,0,0,0,-1,1945,575,0,0
728,449,0,0,0,0,0,0,0,0,0,-1,1952,575,0,0
735,449,0,0,0,0,0,0,0,0,0,-1,1959,575,0,0
742,449,0,0,0,0,0,0,0,0,0,-1,1966,575,0,0
749,449,0,0,0,0,0,0,0,0,0,-1,1973,575,0,0
756,449,0,0,0,0,0,0,0,0,0,-1,1980,575,0,0
763,449,0,0,0,0,0,0,0,0,0,-1,1987,575,0,0
770,449,0,0,0,0,0,0,0,0,0,-1,1994,575,0,0
777,449,0,0,0,0,0,0,0,0,0,-1,2001,575,0,0
784,449,0,0,0,0,0,0,0,0,0,-1,2008,575,0,0
791,449,0,0,0,0,0,0,0,0,0,-1,2015,575,0,0
798,449,0,0,0,0,0,0,0,0,0,-1,2022,575,0,0
805,449,0,0,0,0,0,0,0,0,0,-1,2029,575,0,0
812,449,0,0,0,0,0,0,0,0,0,-1,2036,575,0,0
-700,442,0,0,0,0,0,0,0,0,0,-1,524,582,0,0
-693,442,0,0,0,0,0,0,0,0,0,-1,531,582,0,0
-686,442,0,0,0,0,0,0,0,0,0,-1,538,582,0,0
-679,442,0,0,0,0,0,0,0,0,0,-1,545,582,0,0
-672,442,0,0,0,0,0,0,0,0,0,-1,552,582,0,0
-665,442,0,0,0,0,0,0,0,0,0,-1,559,582,0,0
-658,442,0,0,0,0,0,0,0,0,0,-1,566,582,0,0
-651,442,0,0,0,0,0,0,0,0,0,-1,573,582,0,0
-644,442,0,0,0,0,0,0,0,0,0,-1,580,582,0,0
-637,442,0,0,0,0,0,0,0,0,0,-1,587,582,0,0
-630,442,0,0,0,0,0,0,0,0,0,-1,594,582,0,0
-623,442,0,0,0,0,0,0,0,0,0,-1,601,582,0,0
-616,442,0,0,0,0,0,0,0,0,0,-1,608,582,0,0
-609,442,0,0,0,0,0,0,0,0,0,-1,615,582,0,0
-602,442,0,0,0,0,0,0,0,0,0,-1,622,582,0,0
-595,442,0,0,0,0,0,0,0,0,0,-1,629,582,0,0
-588,442,0,0,0,0,0,0,0,0,0,-1,636,582,0,0
-581,442,0,0,0,0,0,0,0,0,0,-1,643,582,0,0
-574,442,0,0,0,0,0,0,0,0,0,-1,650,582,0,0
-567,442,0,0,0,0,0,0,0,0,0,-1,657,582,0,0
-560,442,0,0,0,0,0,0,0,0,0,-1,664,582,0,0
-553,442,0,0,0,0,0,0,0,0,0,-1,671,582,0,0
-546,442,0,0,0,0,0,0,0,0,0,-1,678,582,0,0
-539,442,0,0,0,0,0,0,0,0,0,-1,685,582,0,0
-532,442,0,0,0,0,0,0,0,0,0,-1,692,582,0,0
-525,442,0,0,0,0,0,0,0,0,0,-1,699,582,0,0
-518,442,-0.493774,-5.72943,0,0,0,0,0,0,0,-1,706,582,-0.493791,5.72946
-511,442,-1.33008,-6.18512,0,0,0,0,0,0,0,-1,713,582,-1.33006,6.18511
-504,442,-3.20807,-6.34082,0,0,0,0,0,0,0,-1,720,582,-3.2081,6.34083
-497,442,-13.6886,-0.250122,0,0,0,0,0,0,0,-1,727,582,-13.6886,0.250143
-490,442,-9.09039,-3.64862,0,0,0,0,0,0,0,-1,734,582,-9.09037,3.64861
-483,442,-7.36499,-1.01892,0,0,0,0,0,0,0,-1,741,582,-7.365,1.01895
-476,442,-4.62225,-3.47467,0,0,0,0,0,0,0,-1,748,582,-4.62225,3.47465
-469,442,-5.23663,-6.58856,0,0,0,0,0,0,0,-1,755,582,-5.23665,6.58855
-462,442,-5.43372,-7.44354,-0.00340346,0.00790578,-0.00459975,0.00954036,-0.00503804,-1.22935,0.0085496,0.0427444,762,582,-5.43371,7.44355
-455,442,-5.5824,-7.98743,-0.00222934,0.00677118,-0.00395162,0.00825988,-0.00371804,-1.21051,0.00707923,0.0378576,769,582,-5.58241,7.98746
-448,442,-5.51398,-8.51514,-0.00162058,0.00564018,-0.00309804,0.00678238,-0.00276278,-1.21757,0.00567144,0.0164334,776,582,-5.51395,8.51511
-441,442,-5.55902,-8.98511,-0.00120086,0.00470097,-0.00231386,0.00549997,-0.00199985,-1.23831,0.00448445,0.013295,783,582,-5.55902,8.98511
-434,442,-5.56641,-9.43372,-0.000955435,0.0035736,-0.00150716,0.0040293,-0.00141113,-1.27718,0.00326002,0.0133768,790,582,-5.56638,9.43373
-427,442,-5.58533,-9.87665,-0.000809988,0.00246509,-0.000743392,0.00262593,-0.000970828,-1.35772,0.00214863,0.0137213,797,582,-5.58532,9.87666
-420,442,-5.57153,-10.3542,-0.000736651,0.00145674,-7.85225e-05,0.00145955,-0.000739459,-1.53506,0.00129209,0.0138145,804,582,-5.57151,10.3542
-413,442,-5.56909,-10.8036,-0.000805894,0.000330066,0.000687236,0.000653655,-0.00112948,1.13074,0.00104164,0.0108128,811,582,-5.5691,10.8036
-406,442,-5.58838,-11.2681,-0.000834334,-0.000547895,0.00131045,0.000627138,-0.00200937,0.839827,0.00159039,0.00891234,818,582,-5.58841,11.2681
-399,442,-5.60614,-11.7325,-0.00082917,-0.00136204,0.0018339,0.000757552,-0.00294876,0.713261,0.00226106,0.00774252,825,582,-5.60612,11.7325
-392,442,-5.62842,-12.1633,-0.000700129,-0.00210853,0.00226627,0.00096883,-0.00377748,0.634762,0.0028958,0.0104938,832,582,-5.6284,12.1634
-385,442,-5.63623,-12.576,-0.000408683,-0.00269532,0.00261317,0.00130034,-0.00440433,0.579184,0.00345229,0.0135702,839,582,-5.6362,12.576
-378,442,-5.62512,-13.0336,-7.36401e-06,-0.00322295,0.00294854,0.00174325,-0.00497356,0.53579,0.00402466,0.0142022,846,582,-5.62514,13.0336
-371,442,-5.5899,-13.496,0.000669727,-0.00346414,0.00317398,0.00239045,-0.00518487,0.496785,0.00447171,0.0366098,853,582,-5.58988,13.496
-364,442,-5.49719,-13.931,0,0,0,0,0,0,0,-1,860,582,-5.49722,13.931
-357,442,-4.9115,-11.2649,0,0,0,0,0,0,0,-1,867,582,-4.91147,11.2649
-350,442,-1.75372,-6.27618,0,0,0,0,0,0,0,-1,874,582,-1.75371,6.27618
-343,442,-1.4599,-4.63605,0,0,0,0,0,0,0,-1,881,582,-1.4599,4.63607
-336,442,-1.4054,-2.64313,0,0,0,0,0,0,0,-1,888,582,-1.40539,2.64315
-329,442,-0.952576,-2.76923,0,0,0,0,0,0,0,-1,895,582,-0.952571,2.7692
-322,442,-0.972534,-2.63208,0,0,0,0,0,0,0,-1,902,582,-0.972512,2.6321
-315,442,-0.445557,-2.89764,0,0,0,0,0,0,0,-1,909,582,-0.445582,2.89765
-308,442,-0.654175,-3.07831,0,0,0,0,0,0,0,-1,916,582,-0.654145,3.07832
-301,442,-1.37427,-2.41455,0,0,0,0,0,0,0,-1,923,582,-1.37425,2.41453
-294,442,-2.99963,-2.07855,0,0,0,0,0,0,0,-1,930,582,-2.99964,2.07857
-287,442,-5.62799,-2.76422,0,0,0,0,0,0,0,-1,937,582,-5.628,2.76424
-280,442,0,0,0,0,0,0,0,0,0,-1,944,582,0,0
-273,442,0,0,0,0,0,0,0,0,0,-1,951,582,0,0
-266,442,0,0,0,0,0,0,0,0,0,-1,958,582,0,0
-259,442,0,0,0,0,0,0,0,0,0,-1,965,582,0,0
-252,442,0,0,0,0,0,0,0,0,0,-1,972,582,0,0
-245,442,0,0,0,0,0,0,0,0,0,-1,979,582,0,0
-238,442,0,0,0,0,0,0,0,0,0,-1,986,582,0,0
-231,442,0,0,0,0,0,0,0,0,0,-1,993,582,0,0
-224,442,0,0,0,0,0,0,0,0,0,-1,1000,582,0,0
-217,442,0,0,0,0,0,0,0,0,0,-1,1007,582,0,0
-210,442,0,0,0,0,0,0,0,0,0,-1,1014,582,0,0
-203,442,0,0,0,0,0,0,0,0,0,-1,1021,582,0,0
-196,442,0,0,0,0,0,0,0,0,0,-1,1028,582,0,0
-189,442,0,0,0,0,0,0,0,0,0,-1,1035,582,0,0
-182,442,0,0,0,0,0,0,0,0,0,-1,1042,582,0,0
-175,442,0,0,0,0,0,0,0,0,0,-1,1049,582,0,0
-168,442,0,0,0,0,0,0,0,0,0,-1,1056,582,0,0
-161,442,0,0,0,0,0,0,0,0,0,-1,1063,582,0,0
-154,442,0,0,0,0,0,0,0,0,0,-1,1070,582,0,0
-147,442,0,0,0,0,0,0,0,0,0,-1,1077,582,0,0
-140,442,0,0,0,0,0,0,0,0,0,-1,1084,582,0,0
-133,442,0,0,0,0,0,0,0,0,0,-1,1091,582,0,0
-126,442,0,0,0,0,0,0,0,0,0,-1,1098,582,0,0
-119,442,0,0,0,0,0,0,0,0,0,-1,1105,582,0,0
-112,442,0,0,0,0,0,0,0,0,0,-1,1112,582,0,0
-105,442,0,0,0,0,0,0,0,0,0,-1,1119,582,0,0
-98,442,0,0,0,0,0,0,0,0,0,-1,1126,582,0,0
-91,442,0,0,0,0,0,0,0,0,0,-1,1133,582,0,0
-84,442,0,0,0,0,0,0,0,0,0,-1,1140,582,0,0
-77,442,0,0,0,0,0,0,0,0,0,-1,1147,582,0,0
-70,442,0,0,0,0,0,0,0,0,0,-1,1154,582,0,0
-63,442,0,0,0,0,0,0,0,0,0,-1,1161,582,0,0
-56,442,0,0,0,0,0,0,0,0,0,-1,1168,582,0,0
-49,442,0,0,0,0,0,0,0,0,0,-1,1175,582,0,0
-42,442,0,0,0,0,0,0,0,0,0,-1,1182,582,0,0
-35,442,0,0,0,0,0,0,0,0,0,-1,1189,582,0,0
-28,442,0,0,0,0,0,0,0,0,0,-1,1196,582,0,0
-21,442,0,0,0,0,0,0,0,0,0,-1,1203,582,0,0
-14,442,0,0,0,0,0,0,0,0,0,-1,1210,582,0,0
-7,442,0,0,0,0,0,0,0,0,0,-1,1217,582,0,0
0,442,0,0,0,0,0,0,0,0,0,-1,1224,582,0,0
7,442,0,0,0,0,0,0,0,0,0,-1,1231,582,0,0
14,442,0,0,0,0,0,0,0,0,0,-1,1238,582,0,0
21,442,0,0,0,0,0,0,0,0,0,-1,1245,582,0,0
28,442,0,0,0,0,0,0,0,0,0,-1,1252,582,0,0
35,442,0,0,0,0,0,0,0,0,0,-1,1259,582,0,0
42,442,0,0,0,0,0,0,0,0,0,-1,1266,582,0,0
49,442,0,0,0,0,0,0,0,0,0,-1,1273,582,0,0
56,442,0,0,0,0,0,0,0,0,0,-1,1280,582,0,0
63,442,0,0,0,0,0,0,0,0,0,-1,1287,582,0,0
70,442,0,0,0,0,0,0,0,0,0,-1,1294,582,0,0
77,442,0,0,0,0,0,0,0,0,0,-1,1301,582,0,0
84,442,0,0,0,0,0,0,0,0,0,-1,1308,582,0,0
91,442,0,0,0,0,0,0,0,0,0,-1,1315,582,0,0
98,442,0,0,0,0,0,0,0,0,0,-1,1322,582,0,0
105,442,0,0,0,0,0,0,0,0,0,-1,1329,582,0,0
112,442,0,0,0,0,0,0,0,0,0,-1,1336,582,0,0
119,442,0,0,0,0,0,0,0,0,0,-1,1343,582,0,0
126,442,0,0,0,0,0,0,0,0,0,-1,1350,582,0,0
133,442,0,0,0,0,0,0,0,0,0,-1,1357,582,0,0
140,442,0,0,0,0,0,0,0,0,0,-1,1364,582,0,0
147,442,0,0,0,0,0,0,0,0,0,-1,1371,582,0,0
154,442,0,0,0,0,0,0,0,0,0,-1,1378,582,0,0
161,442,0,0,0,0,0,0,0,0,0,-1,1385,582,0,0
168,442,0,0,0,0,0,0,0,0,0,-1,1392,582,0,0
175,442,0,0,0,0,0,0,0,0,0,-1,1399,582,0,0
182,442,0,0,0,0,0,0,0,0,0,-1,1406,582,0,0
189,442,0,0,0,0,0,0,0,0,0,-1,1413,582,0,0
196,442,0,0,0,0,0,0,0,0,0,-1,1420,582,0,0
203,442,0,0,0,0,0,0,0,0,0,-1,1427,582,0,0
210,442,0,0,0,0,0,0,0,0,0,-1,1434,582,0,0
217,442,0,0,0,0,0,0,0,0,0,-1,1441,582,0,0
224,442,0,0,0,0,0,0,0,0,0,-1,1448,582,0,0
231,442,0,0,0,0,0,0,0,0,0,-1,1455,582,0,0
238,442,0,0,0,0,0,0,0,0,0,-1,1462,582,0,0
245,442,0,0,0,0,0,0,0,0,0,-1,1469,582,0,0
252,442,0,0,0,0,0,0,0,0,0,-1,1476,582,0,0
259,442,0,0,0,0,0,0,0,0,0,-1,1483,582,0,0
266,442,0,0,0,0,0,0,0,0,0,-1,1490,582,0,0
273,442,0,0,0,0,0,0,0,0,0,-1,1497,582,0,0
280,442,0,0,0,0,0,0,0,0,0,-1,1504,582,0,0
287,442,0,0,0,0,0,0,0,0,0,-1,1511,582,0,0
294,442,0,0,0,0,0,0,0,0,0,-1,1518,582,0,0
301,442,0,0,0,0,0,0,0,0,0,-1,1525,582,0,0
308,442,0,0,0,0,0,0,0,0,0,-1,1532,582,0,0
315,442,0,0,0,0,0,0,0,0,0,-1,1539,582,0,0
322,442,0,0,0,0,0,0,0,0,0,-1,1546,582,0,0
329,442,0,0,0,0,0,0,0,0,0,-1,1553,582,0,0
336,442,0,0,0,0,0,0,0,0,0,-1,1560,582,0,0
343,442,0,0,0,0,0,0,0,0,0,-1,1567,582,0,0
350,442,0,0,0,0,0,0,0,0,0,-1,1574,582,0,0
357,442,0,0,0,0,0,0,0,0,0,-1,1581,582,0,0
364,442,0,0,0,0,0,0,0,0,0,-1,1588,582,0,0
371,442,0,0,0,0,0,0,0,0,0,-1,1595,582,0,0
378,442,0,0,0,0,0,0,0,0,0,-1,1602,582,0,0
385,442,0,0,0,0,0,0,0,0,0,-1,1609,582,0,0
392,442,0,0,0,0,0,0,0,0,0,-1,1616,582,0,0
399,442,0,0,0,0,0,0,0,0,0,-1,1623,582,0,0
406,442,17.6321,4.08295,0,0,0,0,0,0,0,-1,1630,582,17.6321,-4.08293
413,442,22.1273,3.56525,0,0,0,0,0,0,0,-1,1637,582,22.1273,-3.56525
420,442,22.7478,1.55011,0,0,0,0,0,0,0,-1,1644,582,22.7478,-1.55009
427,442,23.2969,-0.456787,0,0,0,0,0,0,0,-1,1651,582,23.2968,0.456769
434,442,23.9512,-2.49365,0,0,0,0,0,0,0,-1,1658,582,23.9512,2.49366
441,442,24.8251,-4.43958,0,0,0,0,0,0,0,-1,1665,582,24.8251,4.43956
448,442,4.7749,-5.88562,0,0,0,0,0,0,0,-1,1672,582,4.7749,5.8856
455,442,4.87024,-4.60687,0,0,0,0,0,0,0,-1,1679,582,4.87019,4.60686
462,442,5.02307,-3.72821,0,0,0,0,0,0,0,-1,1686,582,5.02311,3.7282
469,442,5.12976,-2.98834,0,0,0,0,0,0,0,-1,1693,582,5.12971,2.98834
476,442,5.4624,1.76947,0,0,0,0,0,0,0,-1,1700,582,5.46234,-1.76944
483,442,5.98486,1.87042,0,0,0,0,0,0,0,-1,1707,582,5.98492,-1.87045
490,442,5.04407,-2.35834,0,0,0,0,0,0,0,-1,1714,582,5.04411,2.35837
497,442,6.20984,-3.07831,0,0,0,0,0,0,0,-1,1721,582,6.2098,3.07833
504,442,14.0591,-11.6901,0,0,0,0,0,0,0,-1,1728,582,14.059,11.6901
511,442,14.1547,-11.1662,0.00534095,0.00394056,0.00340041,0.00811252,0.001169,0.68386,0.00506386,0.0307313,1735,582,14.1547,11.1662
518,442,14.2412,-10.639,0.00438692,0.00296681,0.00267198,0.00644158,0.000912157,0.655529,0.00402494,0.0120907,1742,582,14.2412,10.639
525,442,14.2061,-10.1851,0.00344097,0.00232824,0.0021232,0.00507949,0.000689723,0.657259,0.00318144,0.0104003,1749,582,14.206,10.1851
532,442,14.1962,-9.71594,0.00255267,0.00172247,0.0016036,0.00379402,0.000481113,0.65875,0.00238521,0.0105399,1756,582,14.1961,9.71593
539,442,14.1823,-9.22906,0.00173516,0.00114271,0.00112237,0.00259974,0.000278136,0.656376,0.00164829,0.0115194,1763,582,14.1823,9.22909
546,442,14.1765,-8.75873,0.00103573,0.000771565,0.000800632,0.0017151,9.2193e-05,0.703648,0.00111394,0.0151661,1770,582,14.1765,8.75874
553,442,14.1533,-8.30707,0.000349125,0.000450076,0.000533748,0.00093573,-0.000136529,0.832542,0.000673955,0.0167257,1777,582,14.1534,8.30709
560,442,14.1566,-7.81146,-0.000383198,0.000456661,0.000442533,0.000646794,-0.000573331,1.165,0.000704865,0.0150727,1784,582,14.1566,7.81148
567,442,14.1465,-7.30939,-0.00105679,0.000507095,0.000407869,0.000607077,-0.00115677,1.3304,0.00103471,0.0103472,1791,582,14.1465,7.30936
574,442,14.1412,-6.8045,-0.00179215,0.000715999,0.000458807,0.000797293,-0.00187344,1.39543,0.00158312,0.0130493,1798,582,14.1412,6.8045
581,442,14.193,-6.23145,-0.00263751,0.00116531,0.000624759,0.00126532,-0.00273752,1.41206,0.00236257,0.0251511,1805,582,14.193,6.23146
588,442,14.3003,-5.64282,0,0,0,0,0,0,0,-1,1812,582,14.3002,5.64281
595,442,14.1464,-5.48022,0,0,0,0,0,0,0,-1,1819,582,14.1464,5.48021
602,442,11.4385,-1.74512,0,0,0,0,0,0,0,-1,1826,582,11.4385,1.74509
609,442,12.761,2.97223,0,0,0,0,0,0,0,-1,1833,582,12.761,-2.97221
616,442,9.78345,-0.103394,0,0,0,0,0,0,0,-1,1840,582,9.78341,0.103424
623,442,9.23828,0.326721,0,0,0,0,0,0,0,-1,1847,582,9.23829,-0.326727
630,442,7.74304,2.3924,0,0,0,0,0,0,0,-1,1854,582,7.7431,-2.39238
637,442,5.87805,1.84027,0,0,0,0,0,0,0,-1,1861,582,5.87807,-1.84025
644,442,0,0,0,0,0,0,0,0,0,-1,1868,582,0,0
651,442,0,0,0,0,0,0,0,0,0,-1,1875,582,0,0
658,442,0,0,0,0,0,0,0,0,0,-1,1882,582,0,0
665,442,0,0,0,0,0,0,0,0,0,-1,1889,582,0,0
672,442,0,0,0,0,0,0,0,0,0,-1,1896,582,0,0
679,442,0,0,0,0,0,0,0,0,0,-1,1903,582,0,0
686,442,0,0,0,0,0,0,0,0,0,-1,1910,582,0,0
693,442,0,0,0,0,0,0,0,0,0,-1,1917,582,0,0
700,442,0,0,0,0,0,0,0,0,0,-1,1924,582,0,0
707,442,0,0,0,0,0,0,0,0,0,-1,1931,582,0,0
714,442,0,0,0,0,0,0,0,0,0,-1,1938,582,0,0
721,442,0,0,0,0,0,0,0,0,0,-1,1945,582,0,0
728,442,0,0,0,0,0,0,0,0,0,-1,1952,582,0,0
735,442,0,0,0,0,0,0,0,0,0,-1,1959,582,0,0
742,442,0,0,0,0,0,0,0,0,0,-1,1966,582,0,0
749,442,0,0,0,0,0,0,0,0,0,-1,1973,582,0,0
756,442,0,0,0,0,0,0,0,0,0,-1,1980,582,0,0
763,442,0,0,0,0,0,0,0,0,0,-1,1987,582,0,0
770,442,0,0,0,0,0,0,0,0,0,-1,1994,582,0,0
777,442,0,0,0,0,0,0,0,0,0,-1,2001,582,0,0
784,442,0,0,0,0,0,0,0,0,0,-1,2008,582,0,0
791,442,0,0,0,0,0,0,0,0,0,-1,2015,582,0,0
798,442,0,0,0,0,0,0,0,0,0,-1,2022,582,0,0
805,442,0,0,0,0,0,0,0,0,0,-1,2029,582,0,0
812,442,0,0,0,0,0,0,0,0,0,-1,2036,582,0,0
-700,435,0,0,0,0,0,0,0,0,0,-1,524,589,0,0
-693,435,0,0,0,0,0,0,0,0,0,-1,531,589,0,0
-686,435,0,0,0,0,0,0,0,0,0,-1,538,589,0,0
-679,435,0,0,0,0,0,0,0,0,0,-1,545,589,0,0
-672,435,0,0,0,0,0,0,0,0,0,-1,552,589,0,0
-665,435,0,0,0,0,0,0,0,0,0,-1,559,589,0,0
-658,435,0,0,0,0,0,0,0,0,0,-1,566,589,0,0
-651,435,0,0,0,0,0,0,0,0,0,-1,573,589,0,0
-644,435,0,0,0,0,0,0,0,0,0,-1,580,589,0,0
-637,435,0,0,0,0,0,0,0,0,0,-1,587,589,0,0
-630,435,0,0,0,0,0,0,0,0,0,-1,594,589,0,0
-623,435,0,0,0,0,0,0,0,0,0,-1,601,589,0,0
-616,435,0,0,0,0,0,0,0,0,0,-1,608,589,0,0
-609,435,0,0,0,0,0,0,0,0,0,-1,615,589,0,0
-602,435,0,0,0,0,0,0,0,0,0,-1,622,589,0,0
-595,435,0,0,0,0,0,0,0,0,0,-1,629,589,0,0
-588,435,0,0,0,0,0,0,0,0,0,-1,636,589,0,0
-581,435,0,0,0,0,0,0,0,0,0,-1,643,589,0,0
-574,435,0,0,0,0,0,0,0,0,0,-1,650,589,0,0
-567,435,0,0,0,0,0,0,0,0,0,-1,657,589,0,0
-560,435,0,0,0,0,0,0,0,0,0,-1,664,589,0,0
-553,435,0,0,0,0,0,0,0,0,0,-1,671,589,0,0
-546,435,0,0,0,0,0,0,0,0,0,-1,678,589,0,0
-539,435,0,0,0,0,0,0,0,0,0,-1,685,589,0,0
-532,435,0,0,0,0,0,0,0,0,0,-1,692,589,0,0
-525,435,-10.0776,10.0547,0,0,0,0,0,0,0,-1,699,589,-10.0776,-10.0547
-518,435,-1.83093,-5.82367,0,0,0,0,0,0,0,-1,706,589,-1.83093,5.8237
-511,435,-2.45154,-5.33118,0,0,0,0,0,0,0,-1,713,589,-2.45151,5.33115
-504,435,-3.07208,-4.83862,0,0,0,0,0,0,0,-1,720,589,-3.0721,4.8386
-497,435,-6.31012,-5.84698,0,0,0,0,0,0,0,-1,727,589,-6.31012,5.84697
-490,435,-5.81903,-0.458679,0,0,0,0,0,0,0,-1,734,589,-5.81902,0.458684
-483,435,-6.96503,-3.01624,0,0,0,0,0,0,0,-1,741,589,-6.96505,3.01623
-476,435,-5.98077,-5.85376,0,0,0,0,0,0,0,-1,748,589,-5.98077,5.85376
-469,435,-5.9007,-6.6272,-0.00356454,0.00703594,-0.00459433,0.00875,-0.0052786,-1.21371,0.00818166,0.0351556,755,589,-5.90069,6.62717
-462,435,-5.85992,-7.49164,-0.00260756,0.00607605,-0.00379747,0.00750243,-0.00403395,-1.21149,0.00676013,0.0208849,762,589,-5.85994,7.49165
-455,435,-5.98907,-7.96948,-0.00168924,0.00512117,-0.00323754,0.0064146,-0.00298266,-1.19071,0.0055448,0.0193006,769,589,-5.98906,7.96947
-448,435,-5.97974,-8.49536,-0.00121414,0.00411663,-0.00246128,0.00507921,-0.00217673,-1.19799,0.00429949,0.0129913,776,589,-5.97975,8.49535
-441,435,-6.00165,-8.95636,-0.000956891,0.00327126,-0.00169806,0.00386877,-0.0015544,-1.23245,0.00322471,0.0108689,783,589,-6.00165,8.95633
-434,435,-6.01892,-9.39435,-0.000855935,0.00226796,-0.000898174,0.00250779,-0.00109576,-1.30987,0.00213309,0.0124581,790,589,-6.01895,9.39432
-427,435,-6.03284,-9.86877,-0.00084505,0.00122393,-0.00010279,0.00122903,-0.000850144,-1.52128,0.00120704,0.0104242,797,589,-6.03286,9.8688
-420,435,-6.02631,-10.3383,-0.000915727,0.000265009,0.000625212,0.000534539,-0.00118526,1.16377,0.00101634,0.010555,804,589,-6.02628,10.3383
-413,435,-6.03027,-10.7947,-0.00114294,-0.000791746,0.00146987,0.000512978,-0.00244767,0.844849,0.00182694,0.0104526,811,589,-6.03029,10.7947
-406,435,-6.04443,-11.2462,-0.00136337,-0.00165898,0.00219498,0.000688777,-0.00371112,0.75178,0.00273276,0.0107077,818,589,-6.04444,11.2462
-399,435,-6.07208,-11.7052,-0.00154237,-0.00247872,0.00283219,0.000860077,-0.00488117,0.703486,0.00357546,0.00923217,825,589,-6.07206,11.7052
-392,435,-6.10089,-12.1497,-0.00157966,-0.00320722,0.00337846,0.00108164,-0.00586852,0.667213,0.00431829,0.0107646,832,589,-6.10089,12.1497
-385,435,-6.09253,-12.5935,-0.00147064,-0.00379294,0.00384931,0.00138884,-0.00665242,0.638913,0.0049631,0.0177123,839,589,-6.09254,12.5935
-378,435,-6.08313,-12.9573,-0.00123445,-0.00436763,0.00435386,0.00182609,-0.00742817,0.612702,0.00565987,0.0358511,846,589,-6.08311,12.9573
-371,435,-5.99402,-13.4861,0,0,0,0,0,0,0,-1,853,589,-5.99399,13.4862
-364,435,-5.62848,-11.5937,0,0,0,0,0,0,0,-1,860,589,-5.62847,11.5937
-357,435,-5.57343,-10.9666,0,0,0,0,0,0,0,-1,867,589,-5.57342,10.9666
-350,435,-0.86676,-3.69836,0,0,0,0,0,0,0,-1,874,589,-0.866784,3.69834
-343,435,-1.60706,-2.36835,0,0,0,0,0,0,0,-1,881,589,-1.60706,2.36838
-336,435,-2.07263,-1.94012,0,0,0,0,0,0,0,-1,888,589,-2.07265,1.94014
-329,435,-2.55963,-1.5517,0,0,0,0,0,0,0,-1,895,589,-2.5596,1.55168
-322,435,-3.08545,-1.55255,0,0,0,0,0,0,0,-1,902,589,-3.08544,1.55254
-315,435,-0.404297,-2.63763,0,0,0,0,0,0,0,-1,909,589,-0.404276,2.63761
-308,435,-1.70056,-1.90369,0,0,0,0,0,0,0,-1,916,589,-1.70056,1.90367
-301,435,-1.25232,-2.05511,0,0,0,0,0,0,0,-1,923,589,-1.25234,2.05514
-294,435,-1.79974,-1.97321,0,0,0,0,0,0,0,-1,930,589,-1.79973,1.97322
-287,435,0,0,0,0,0,0,0,0,0,-1,937,589,0,0
-280,435,0,0,0,0,0,0,0,0,0,-1,944,589,0,0
-273,435,0,0,0,0,0,0,0,0,0,-1,951,589,0,0
-266,435,0,0,0,0,0,0,0,0,0,-1,958,589,0,0
-259,435,0,0,0,0,0,0,0,0,0,-1,965,589,0,0
-252,435,0,0,0,0,0,0,0,0,0,-1,972,589,0,0
-245,435,0,0,0,0,0,0,0,0,0,-1,979,589,0,0
-238,435,0,0,0,0,0,0,0,0,0,-1,986,589,0,0
-231,435,0,0,0,0,0,0,0,0,0,-1,993,589,0,0
-224,435,0,0,0,0,0,0,0,0,0,-1,1000,589,0,0
-217,435,0,0,0,0,0,0,0,0,0,-1,1007,589,0,0
-210,435,0,0,0,0,0,0,0,0,0,-1,1014,589,0,0
-203,435,0,0,0,0,0,0,0,0,0,-1,1021,589,0,0
-196,435,0,0,0,0,0,0,0,0,0,-1,1028,589,0,0
-189,435,0,0,0,0,0,0,0,0,0,-1,1035,589,0,0
-182,435,0,0,0,0,0,0,0,0,0,-1,1042,589,0,0
-175,435,0,0,0,0,0,0,0,0,0,-1,1049,589,0,0
-168,435,0,0,0,0,0,0,0,0,0,-1,1056,589,0,0
-161,435,0,0,0,0,0,0,0,0,0,-1,1063,589,0,0
-154,435,0,0,0,0,0,0,0,0,0,-1,1070,589,0,0
-147,435,0,0,0,0,0,0,0,0,0,-1,1077,589,0,0
-140,435,0,0,0,0,0,0,0,0,0,-1,1084,589,0,0
-133,435,0,0,0,0,0,0,0,0,0,-1,1091,589,0,0
-126,435,0,0,0,0,0,0,0,0,0,-1,1098,589,0,0
-119,435,0,0,0,0,0,0,0,0,0,-1,1105,589,0,0
-112,435,0,0,0,0,0,0,0,0,0,-1,1112,589,0,0
-105,435,0,0,0,0,0,0,0,0,0,-1,1119,589,0,0
-98,435,0,0,0,0,0,0,0,0,0,-1,1126,589,0,0
-91,435,0,0,0,0,0,0,0,0,0,-1,1133,589,0,0
-84,435,0,0,0,0,0,0,0,0,0,-1,1140,589,0,0
-77,435,0,0,0,0,0,0,0,0,0,-1,1147,589,0,0
-70,435,0,0,0,0,0,0,0,0,0,-1,1154,589,0,0
-63,435,0,0,0,0,0,0,0,0,0,-1,1161,589,0,0
-56,435,0,0,0,0,0,0,0,0,0,-1,1168,589,0,0
-49,435,0,0,0,0,0,0,0,0,0,-1,1175,589,0,0
-42,435,0,0,0,0,0,0,0,0,0,-1,1182,589,0,0
-35,435,0,0,0,0,0,0,0,0,0,-1,1189,589,0,0
-28,435,0,0,0,0,0,0,0,0,0,-1,1196,589,0,0
-21,435,0,0,0,0,0,0,0,0,0,-1,1203,589,0,0
-14,435,0,0,0,0,0,0,0,0,0,-1,1210,589,0,0
-7,435,0,0,0,0,0,0,0,0,0,-1,1217,589,0,0
0,435,0,0,0,0,0,0,0,0,0,-1,1224,589,0,0
7,435,0,0,0,0,0,0,0,0,0,-1,1231,589,0,0
14,435,0,0,0,0,0,0,0,0,0,-1,1238,589,0,0
21,435,0,0,0,0,0,0,0,0,0,-1,1245,589,0,0
28,435,0,0,0,0,0,0,0,0,0,-1,1252,589,0,0
35,435,0,0,0,0,0,0,0,0,0,-1,1259,589,0,0
42,435,0,0,0,0,0,0,0,0,0,-1,1266,589,0,0
49,435,0,0,0,0,0,0,0,0,0,-1,1273,589,0,0
56,435,0,0,0,0,0,0,0,0,0,-1,1280,589,0,0
63,435,0,0,0,0,0,0,0,0,0,-1,1287,589,0,0
70,435,0,0,0,0,0,0,0,0,0,-1,1294,589,0,0
77,435,0,0,0,0,0,0,0,0,0,-1,1301,589,0,0
84,435,0,0,0,0,0,0,0,0,0,-1,1308,589,0,0
91,435,0,0,0,0,0,0,0,0,0,-1,1315,589,0,0
98,435,0,0,0,0,0,0,0,0,0,-1,1322,589,0,0
105,435,0,0,0,0,0,0,0,0,0,-1,1329,589,0,0
112,435,0,0,0,0,0,0,0,0,0,-1,1336,589,0,0
119,435,0,0,0,0,0,0,0,0,0,-1,1343,589,0,0
126,435,0,0,0,0,0,0,0,0,0,-1,1350,589,0,0
133,435,0,0,0,0,0,0,0,0,0,-1,1357,589,0,0
140,435,0,0,0,0,0,0,0,0,0,-1,1364,589,0,0
147,435,0,0,0,0,0,0,0,0,0,-1,1371,589,0,0
154,435,0,0,0,0,0,0,0,0,0,-1,1378,589,0,0
161,435,0,0,0,0,0,0,0,0,0,-1,1385,589,0,0
168,435,0,0,0,0,0,0,0,0,0,-1,1392,589,0,0
175,435,0,0,0,0,0,0,0,0,0,-1,1399,589,0,0
182,435,0,0,0,0,0,0,0,0,0,-1,1406,589,0,0
189,435,0,0,0,0,0,0,0,0,0,-1,1413,589,0,0
196,435,0,0,0,0,0,0,0,0,0,-1,1420,589,0,0
203,435,0,0,0,0,0,0,0,0,0,-1,1427,589,0,0
210,435,0,0,0,0,0,0,0,0,0,-1,1434,589,0,0
217,435,0,0,0,0,0,0,0,0,0,-1,1441,589,0,0
224,435,0,0,0,0,0,0,0,0,0,-1,1448,589,0,0
231,435,0,0,0,0,0,0,0,0,0,-1,1455,589,0,0
238,435,0,0,0,0,0,0,0,0,0,-1,1462,589,0,0
245,435,0,0,0,0,0,0,0,0,0,-1,1469,589,0,0
252,435,0,0,0,0,0,0,0,0,0,-1,1476,589,0,0
259,435,0,0,0,0,0,0,0,0,0,-1,1483,589,0,0
266,435,0,0,0,0,0,0,0,0,0,-1,1490,589,0,0
273,435,0,0,0,0,0,0,0,0,0,-1,1497,589,0,0
280,435,0,0,0,0,0,0,0,0,0,-1,1504,589,0,0
287,435,0,0,0,0,0,0,0,0,0,-1,1511,589,0,0
294,435,0,0,0,0,0,0,0,0,0,-1,1518,589,0,0
301,435,0,0,0,0,0,0,0,0,0,-1,1525,589,0,0
308,435,0,0,0,0,0,0,0,0,0,-1,1532,589,0,0
315,435,0,0,0,0,0,0,0,0,0,-1,1539,589,0,0
322,435,0,0,0,0,0,0,0,0,0,-1,1546,589,0,0
329,435,0,0,0,0,0,0,0,0,0,-1,1553,589,0,0
336,435,0,0,0,0,0,0,0,0,0,-1,1560,589,0,0
343,435,0,0,0,0,0,0,0,0,0,-1,1567,589,0,0
350,435,0,0,0,0,0,0,0,0,0,-1,1574,589,0,0
357,435,0,0,0,0,0,0,0,0,0,-1,1581,589,0,0
364,435,0,0,0,0,0,0,0,0,0,-1,1588,589,0,0
371,435,0,0,0,0,0,0,0,0,0,-1,1595,589,0,0
378,435,0,0,0,0,0,0,0,0,0,-1,1602,589,0,0
385,435,0,0,0,0,0,0,0,0,0,-1,1609,589,0,0
392,435,0,0,0,0,0,0,0,0,0,-1,1616,589,0,0
399,435,0,0,0,0,0,0,0,0,0,-1,1623,589,0,0
406,435,0,0,0,0,0,0,0,0,0,-1,1630,589,0,0
413,435,20.4565,3.49835,0,0,0,0,0,0,0,-1,1637,589,20.4565,-3.49836
420,435,21.4015,1.49609,0,0,0,0,0,0,0,-1,1644,589,21.4015,-1.49609
427,435,22.0464,-0.373962,0,0,0,0,0,0,0,-1,1651,589,22.0464,0.373972
434,435,22.1863,-1.54407,0,0,0,0,0,0,0,-1,1658,589,22.1862,1.54405
441,435,22.3992,-2.38287,0,0,0,0,0,0,0,-1,1665,589,22.3992,2.38289
448,435,7.4585,-0.00292969,0,0,0,0,0,0,0,-1,1672,589,7.45848,0.00294131
455,435,5.49915,-5.047,0,0,0,0,0,0,0,-1,1679,589,5.49914,5.04703
462,435,5.60669,-4.71466,0,0,0,0,0,0,0,-1,1686,589,5.60675,4.71469
469,435,5.87708,1.22351,0,0,0,0,0,0,0,-1,1693,589,5.87703,-1.22351
476,435,6.14136,1.37714,0,0,0,0,0,0,0,-1,1700,589,6.14138,-1.37712
483,435,6.49243,1.36169,0,0,0,0,0,0,0,-1,1707,589,6.49242,-1.36171
490,435,4.38391,-1.36218,0,0,0,0,0,0,0,-1,1714,589,4.38389,1.3622
497,435,7.23499,-3.64551,0,0,0,0,0,0,0,-1,1721,589,7.23495,3.64551
504,435,7.31189,-3.75909,0,0,0,0,0,0,0,-1,1728,589,7.31184,3.75911
511,435,14.5741,-11.2643,0,0,0,0,0,0,0,-1,1735,589,14.5741,11.2643
518,435,14.7229,-10.6583,0.00523946,0.00351028,0.00312277,0.00761512,0.00113462,0.650348,0.00474398,0.0291014,1742,589,14.7229,10.6582
525,435,14.6819,-10.1772,0.00420329,0.00280865,0.00251808,0.00611882,0.000893121,0.650321,0.0038165,0.0131153,1749,589,14.6819,10.1772
532,435,14.6943,-9.69769,0.00325612,0.00211313,0.00193839,0.00470551,0.000663742,0.642045,0.00294083,0.0141695,1756,589,14.6944,9.69771
539,435,14.698,-9.20044,0.00243105,0.00150104,0.00142896,0.00346877,0.000463332,0.628095,0.00217458,0.0150166,1763,589,14.698,9.20041
546,435,14.6556,-8.72443,0.00175266,0.00113178,0.00110309,0.00258815,0.00029628,0.648232,0.00163564,0.0145687,1770,589,14.6556,8.72441
553,435,14.6329,-8.26086,0.00108735,0.000771444,0.00082253,0.00176696,9.18405e-05,0.690535,0.00114858,0.011262,1777,589,14.6329,8.26084
560,435,14.6265,-7.78845,0.000370982,0.000724387,0.000694496,0.00126431,-0.000168938,0.909971,0.000904459,0.00987738,1784,589,14.6264,7.78844
567,435,14.6368,-7.27667,-0.000289539,0.00077306,0.000643796,0.00107648,-0.000592957,1.13038,0.000977231,0.00891045,1791,589,14.6369,7.27666
574,435,14.6163,-6.77698,-0.000950366,0.000989029,0.000705025,0.00121824,-0.00117957,1.25647,0.00138444,0.0101359,1798,589,14.6163,6.77695
581,435,14.6073,-6.2926,-0.00165838,0.00144514,0.000896056,0.00168527,-0.00189851,1.30896,0.00207032,0.0176193,1805,589,14.6073,6.29258
588,435,14.5988,-5.84198,-0.00233719,0.00227621,0.00131553,0.00262497,-0.00268595,1.31165,0.00306633,0.0366584,1812,589,14.5987,5.84196
595,435,14.4825,-5.4198,-0.00307157,0.00374649,0.00201704,0.00429851,-0.00362359,1.30366,0.00457936,0.039464,1819,589,14.4826,5.41979
602,435,14.3945,-4.5274,0,0,0,0,0,0,0,-1,1826,589,14.3946,4.52743
609,435,14.4912,-3.81293,0,0,0,0,0,0,0,-1,1833,589,14.4912,3.8129
616,435,5.05151,-2.75269,0,0,0,0,0,0,0,-1,1840,589,5.05157,2.7527
623,435,11.7588,3.9704,0,0,0,0,0,0,0,-1,1847,589,11.7587,-3.97043
630,435,4.72742,-0.87561,0,0,0,0,0,0,0,-1,1854,589,4.7274,0.875636
637,435,5.05286,1.48792,0,0,0,0,0,0,0,-1,1861,589,5.05291,-1.48792
644,435,0,0,0,0,0,0,0,0,0,-1,1868,589,0,0
651,435,0,0,0,0,0,0,0,0,0,-1,1875,589,0,0
658,435,0,0,0,0,0,0,0,0,0,-1,1882,589,0,0
665,435,0,0,0,0,0,0,0,0,0,-1,1889,589,0,0
672,435,0,0,0,0,0,0,0,0,0,-1,1896,589,0,0
679,435,0,0,0,0,0,0,0,0,0,-1,1903,589,0,0
686,435,0,0,0,0,0,0,0,0,0,-1,1910,589,0,0
693,435,0,0,0,0,0,0,0,0,0,-1,1917,589,0,0
700,435,0,0,0,0,0,0,0,0,0,-1,1924,589,0,0
707,435,0,0,0,0,0,0,0,0,0,-1,1931,589,0,0
714,435,0,0,0,0,0,0,0,0,0,-1,1938,589,0,0
721,435,0,0,0,0,0,0,0,0,0,-1,1945,589,0,0
728,435,0,0,0,0,0,0,0,0,0,-1,1952,589,0,0
735,435,0,0,0,0,0,0,0,0,0,-1,1959,589,0,0
742,435,0,0,0,0,0,0,0,0,0,-1,1966,589,0,0
749,435,0,0,0,0,0,0,0,0,0,-1,1973,589,0,0
756,435,0,0,0,0,0,0,0,0,0,-1,1980,589,0,0
763,435,0,0,0,0,0,0,0,0,0,-1,1987,589,0,0
770,435,0,0,0,0,0,0,0,0,0,-1,1994,589,0,0
777,435,0,0,0,0,0,0,0,0,0,-1,2001,589,0,0
784,435,0,0,0,0,0,0,0,0,0,-1,2008,589,0,0
791,435,0,0,0,0,0,0,0,0,0,-1,2015,589,0,0
798,435,0,0,0,0,0,0,0,0,0,-1,2022,589,0,0
805,435,0,0,0,0,0,0,0,0,0,-1,2029,589,0,0
812,435,0,0,0,0,0,0,0,0,0,-1,2036,589,0,0
-700,428,0,0,0,0,0,0,0,0,0,-1,524,596,0,0
-693,428,0,0,0,0,0,0,0,0,0,-1,531,596,0,0
-686,428,0,0,0,0,0,0,0,0,0,-1,538,596,0,0
-679,428,0,0,0,0,0,0,0,0,0,-1,545,596,0,0
-672,428,0,0,0,0,0,0,0,0,0,-1,552,596,0,0
-665,428,0,0,0,0,0,0,0,0,0,-1,559,596,0,0
-658,428,0,0,0,0,0,0,0,0,0,-1,566,596,0,0
-651,428,0,0,0,0,0,0,0,0,0,-1,573,596,0,0
-644,428,0,0,0,0,0,0,0,0,0,-1,580,596,0,0
-637,428,0,0,0,0,0,0,0,0,0,-1,587,596,0,0
-630,428,0,0,0,0,0,0,0,0,0,-1,594,596,0,0
-623,428,0,0,0,0,0,0,0,0,0,-1,601,596,0,0
-616,428,0,0,0,0,0,0,0,0,0,-1,608,596,0,0
-609,428,0,0,0,0,0,0,0,0,0,-1,615,596,0,0
-602,428,0,0,0,0,0,0,0,0,0,-1,622,596,0,0
-595,428,0,0,0,0,0,0,0,0,0,-1,629,596,0,0
-588,428,0,0,0,0,0,0,0,0,0,-1,636,596,0,0
-581,428,0,0,0,0,0,0,0,0,0,-1,643,596,0,0
-574,428,0,0,0,0,0,0,0,0,0,-1,650,596,0,0
-567,428,0,0,0,0,0,0,0,0,0,-1,657,596,0,0
-560,428,0,0,0,0,0,0,0,0,0,-1,664,596,0,0
-553,428,0,0,0,0,0,0,0,0,0,-1,671,596,0,0
-546,428,0,0,0,0,0,0,0,0,0,-1,678,596,0,0
-539,428,0,0,0,0,0,0,0,0,0,-1,685,596,0,0
-532,428,0,0,0,0,0,0,0,0,0,-1,692,596,0,0
-525,428,-9.59918,7.58618,0,0,0,0,0,0,0,-1,699,596,-9.59918,-7.5862
-518,428,-2.92285,-4.81854,0,0,0,0,0,0,0,-1,706,596,-2.92285,4.81856
-511,428,-3.68811,-4.79474,0,0,0,0,0,0,0,-1,713,596,-3.68811,4.79474
-504,428,-4.45337,-4.77094,0,0,0,0,0,0,0,-1,720,596,-4.45337,4.77092
-497,428,-2.98108,-3.77502,0,0,0,0,0,0,0,-1,727,596,-2.98106,3.77505
-490,428,-6.39044,-2.80481,0,0,0,0,0,0,0,-1,734,596,-6.39047,2.80483
-483,428,-7.07062,-5.73035,0,0,0,0,0,0,0,-1,741,596,-7.07059,5.73033
-476,428,-6.30786,-6.3689,0,0,0,0,0,0,0,-1,748,596,-6.30785,6.36889
-469,428,-6.29535,-6.94086,-0.00271373,0.00525583,-0.00356299,0.00661645,-0.00407436,-1.20601,0.00623024,0.0241664,755,596,-6.29538,6.94086
-462,428,-6.41949,-7.41827,-0.00194871,0.00453682,-0.00299423,0.00570778,-0.00311967,-1.19801,0.00516903,0.0241615,762,596,-6.41949,7.41829
-455,428,-6.46735,-7.96118,-0.0012394,0.00378893,-0.00253977,0.00484848,-0.00229895,-1.17556,0.00421317,0.014608,769,596,-6.46732,7.9612
-448,428,-6.45404,-8.45349,-0.000895062,0.00291607,-0.00183792,0.00365798,-0.00163697,-1.18713,0.00313039,0.0111221,776,596,-6.45405,8.45348
-441,428,-6.46594,-8.92731,-0.000802672,0.00214022,-0.00108172,0.00249505,-0.0011575,-1.25383,0.00215541,0.0129918,783,596,-6.46595,8.92729
-434,428,-6.47144,-9.40222,-0.000859108,0.00123605,-0.000271433,0.00127065,-0.000893701,-1.44403,0.00125589,0.0102839,790,596,-6.47141,9.40221
-427,428,-6.4762,-9.87592,-0.00101279,0.000235101,0.000573557,0.000458667,-0.00123636,1.19912,0.00101237,0.0108961,797,596,-6.4762,9.87591
-420,428,-6.47876,-10.3084,-0.00127376,-0.000719,0.00139588,0.000426788,-0.00241955,0.883478,0.00177251,0.0109069,804,596,-6.47877,10.3084
-413,428,-6.48151,-10.7429,-0.00171472,-0.00175405,0.0023496,0.000615296,-0.00408407,0.781214,0.00294928,0.0129886,811,596,-6.48151,10.7429
-406,428,-6.505,-11.2067,-0.0022067,-0.00270235,0.00322801,0.000782988,-0.00569204,0.747087,0.0040808,0.0161112,818,596,-6.50501,11.2067
-399,428,-6.521,-11.6724,-0.00266607,-0.00365648,0.00404492,0.000913849,-0.0072364,0.724488,0.00515595,0.0149279,825,596,-6.52098,11.6724
-392,428,-6.51709,-12.1544,-0.00297247,-0.00453037,0.00479145,0.00110294,-0.00860577,0.704818,0.00613795,0.0209191,832,596,-6.51708,12.1544
-385,428,-6.57813,-12.5791,-0.00317596,-0.00533691,0.0054979,0.00134663,-0.00985949,0.688372,0.00706478,0.0439323,839,596,-6.57813,12.5791
-378,428,-6.50818,-12.9545,0,0,0,0,0,0,0,-1,846,596,-6.50819,12.9545
-371,428,-5.96155,-11.0703,0,0,0,0,0,0,0,-1,853,596,-5.96154,11.0702
-364,428,-6.33643,-10.7223,0,0,0,0,0,0,0,-1,860,596,-6.33645,10.7223
-357,428,-3.20996,-4.70966,0,0,0,0,0,0,0,-1,867,596,-3.20997,4.70965
-350,428,-1.62793,-3.94055,0,0,0,0,0,0,0,-1,874,596,-1.62794,3.94055
-343,428,-0.0567017,-4.80994,0,0,0,0,0,0,0,-1,881,596,-0.0567096,4.80996
-336,428,-3.29175,-1.39569,0,0,0,0,0,0,0,-1,888,596,-3.29172,1.39568
-329,428,-3.71564,-0.791321,0,0,0,0,0,0,0,-1,895,596,-3.71564,0.791299
-322,428,-5.52863,-3.59827,0,0,0,0,0,0,0,-1,902,596,-5.52865,3.59829
-315,428,-4.57172,-1.22052,0,0,0,0,0,0,0,-1,909,596,-4.57171,1.22052
-308,428,-5.94324,-0.810791,0,0,0,0,0,0,0,-1,916,596,-5.94321,0.810803
-301,428,0,0,0,0,0,0,0,0,0,-1,923,596,0,0
-294,428,0,0,0,0,0,0,0,0,0,-1,930,596,0,0
-287,428,0,0,0,0,0,0,0,0,0,-1,937,596,0,0
-280,428,0,0,0,0,0,0,0,0,0,-1,944,596,0,0
-273,428,0,0,0,0,0,0,0,0,0,-1,951,596,0,0
-266,428,0,0,0,0,0,0,0,0,0,-1,958,596,0,0
-259,428,0,0,0,0,0,0,0,0,0,-1,965,596,0,0
-252,428,0,0,0,0,0,0,0,0,0,-1,972,596,0,0
-245,428,0,0,0,0,0,0,0,0,0,-1,979,596,0,0
-238,428,0,0,0,0,0,0,0,0,0,-1,986,596,0,0
-231,428,0,0,0,0,0,0,0,0,0,-1,993,596,0,0
-224,428,0,0,0,0,0,0,0,0,0,-1,1000,596,0,0
-217,428,0,0,0,0,0,0,0,0,0,-1,1007,596,0,0
-210,428,0,0,0,0,0,0,0,0,0,-1,1014,596,0,0
-203,428,0,0,0,0,0,0,0,0,0,-1,1021,596,0,0
-196,428,0,0,0,0,0,0,0,0,0,-1,1028,596,0,0
-189,428,0,0,0,0,0,0,0,0,0,-1,1035,596,0,0
-182,428,0,0,0,0,0,0,0,0,0,-1,1042,596,0,0
-175,428,0,0,0,0,0,0,0,0,0,-1,1049,596,0,0
-168,428,0,0,0,0,0,0,0,0,0,-1,1056,596,0,0
-161,428,0,0,0,0,0,0,0,0,0,-1,1063,596,0,0
-154,428,0,0,0,0,0,0,0,0,0,-1,1070,596,0,0
-147,428,0,0,0,0,0,0,0,0,0,-1,1077,596,0,0
-140,428,0,0,0,0,0,0,0,0,0,-1,1084,596,0,0
-133,428,0,0,0,0,0,0,0,0,0,-1,1091,596,0,0
-126,428,0,0,0,0,0,0,0,0,0,-1,1098,596,0,0
-119,428,0,0,0,0,0,0,0,0,0,-1,1105,596,0,0
-112,428,0,0,0,0,0,0,0,0,0,-1,1112,596,0,0
-105,428,0,0,0,0,0,0,0,0,0,-1,1119,596,0,0
-98,428,0,0,0,0,0,0,0,0,0,-1,1126,596,0,0
-91,428,0,0,0,0,0,0,0,0,0,-1,1133,596,0,0
-84,428,0,0,0,0,0,0,0,0,0,-1,1140,596,0,0
-77,428,0,0,0,0,0,0,0,0,0,-1,1147,596,0,0
-70,428,0,0,0,0,0,0,0,0,0,-1,1154,596,0,0
-63,428,0,0,0,0,0,0,0,0,0,-1,1161,596,0,0
-56,428,0,0,0,0,0,0,0,0,0,-1,1168,596,0,0
-49,428,0,0,0,0,0,0,0,0,0,-1,1175,596,0,0
-42,428,0,0,0,0,0,0,0,0,0,-1,1182,596,0,0
-35,428,0,0,0,0,0,0,0,0,0,-1,1189,596,0,0
-28,428,0,0,0,0,0,0,0,0,0,-1,1196,596,0,0
-21,428,0,0,0,0,0,0,0,0,0,-1,1203,596,0,0
-14,428,0,0,0,0,0,0,0,0,0,-1,1210,596,0,0
-7,428,0,0,0,0,0,0,0,0,0,-1,1217,596,0,0
0,428,0,0,0,0,0,0,0,0,0,-1,1224,596,0,0
7,428,0,0,0,0,0,0,0,0,0,-1,1231,596,0,0
14,428,0,0,0,0,0,0,0,0,0,-1,1238,596,0,0
21,428,0,0,0,0,0,0,0,0,0,-1,1245,596,0,0
28,428,0,0,0,0,0,0,0,0,0,-1,1252,596,0,0
35,428,0,0,0,0,0,0,0,0,0,-1,1259,596,0,0
42,428,0,0,0,0,0,0,0,0,0,-1,1266,596,0,0
49,428,0,0,0,0,0,0,0,0,0,-1,1273,596,0,0
56,428,0,0,0,0,0,0,0,0,0,-1,1280,596,0,0
63,428,0,0,0,0,0,0,0,0,0,-1,1287,596,0,0
70,428,0,0,0,0,0,0,0,0,0,-1,1294,596,0,0
77,428,0,0,0,0,0,0,0,0,0,-1,1301,596,0,0
84,428,0,0,0,0,0,0,0,0,0,-1,1308,596,0,0
91,428,0,0,0,0,0,0,0,0,0,-1,1315,596,0,0
98,428,0,0,0,0,0,0,0,0,0,-1,1322,596,0,0
105,428,0,0,0,0,0,0,0,0,0,-1,1329,596,0,0
112,428,0,0,0,0,0,0,0,0,0,-1,1336,596,0,0
119,428,0,0,0,0,0,0,0,0,0,-1,1343,596,0,0
126,428,0,0,0,0,0,0,0,0,0,-1,1350,596,0,0
133,428,0,0,0,0,0,0,0,0,0,-1,1357,596,0,0
140,428,0,0,0,0,0,0,0,0,0,-1,1364,596,0,0
147,428,0,0,0,0,0,0,0,0,0,-1,1371,596,0,0
154,428,0,0,0,0,0,0,0,0,0,-1,1378,596,0,0
161,428,0,0,0,0,0,0,0,0,0,-1,1385,596,0,0
168,428,0,0,0,0,0,0,0,0,0,-1,1392,596,0,0
175,428,0,0,0,0,0,0,0,0,0,-1,1399,596,0,0
182,428,0,0,0,0,0,0,0,0,0,-1,1406,596,0,0
189,428,0,0,0,0,0,0,0,0,0,-1,1413,596,0,0
196,428,0,0,0,0,0,0,0,0,0,-1,1420,596,0,0
203,428,0,0,0,0,0,0,0,0,0,-1,1427,596,0,0
210,428,0,0,0,0,0,0,0,0,0,-1,1434,596,0,0
217,428,0,0,0,0,0,0,0,0,0,-1,1441,596,0,0
224,428,0,0,0,0,0,0,0,0,0,-1,1448,596,0,0
231,428,0,0,0,0,0,0,0,0,0,-1,1455,596,0,0
238,428,0,0,0,0,0,0,0,0,0,-1,1462,596,0,0
245,428,0,0,0,0,0,0,0,0,0,-1,1469,596,0,0
252,428,0,0,0,0,0,0,0,0,0,-1,1476,596,0,0
259,428,0,0,0,0,0,0,0,0,0,-1,1483,596,0,0
266,428,0,0,0,0,0,0,0,0,0,-1,1490,596,0,0
273,428,0,0,0,0,0,0,0,0,0,-1,1497,596,0,0
280,428,0,0,0,0,0,0,0,0,0,-1,1504,596,0,0
287,428,0,0,0,0,0,0,0,0,0,-1,1511,596,0,0
294,428,0,0,0,0,0,0,0,0,0,-1,1518,596,0,0
301,428,0,0,0,0,0,0,0,0,0,-1,1525,596,0,0
308,428,0,0,0,0,0,0,0,0,0,-1,1532,596,0,0
315,428,0,0,0,0,0,0,0,0,0,-1,1539,596,0,0
322,428,0,0,0,0,0,0,0,0,0,-1,1546,596,0,0
329,428,0,0,0,0,0,0,0,0,0,-1,1553,596,0,0
336,428,0,0,0,0,0,0,0,0,0,-1,1560,596,0,0
343,428,0,0,0,0,0,0,0,0,0,-1,1567,596,0,0
350,428,0,0,0,0,0,0,0,0,0,-1,1574,596,0,0
357,428,0,0,0,0,0,0,0,0,0,-1,1581,596,0,0
364,428,0,0,0,0,0,0,0,0,0,-1,1588,596,0,0
371,428,0,0,0,0,0,0,0,0,0,-1,1595,596,0,0
378,428,0,0,0,0,0,0,0,0,0,-1,1602,596,0,0
385,428,0,0,0,0,0,0,0,0,0,-1,1609,596,0,0
392,428,0,0,0,0,0,0,0,0,0,-1,1616,596,0,0
399,428,0,0,0,0,0,0,0,0,0,-1,1623,596,0,0
406,428,0,0,0,0,0,0,0,0,0,-1,1630,596,0,0
413,428,0,0,0,0,0,0,0,0,0,-1,1637,596,0,0
420,428,19.8469,1.3399,0,0,0,0,0,0,0,-1,1644,596,19.8469,-1.33992
427,428,20.7299,-0.225281,0,0,0,0,0,0,0,-1,1651,596,20.7299,0.225262
434,428,19.8915,-0.583069,0,0,0,0,0,0,0,-1,1658,596,19.8915,0.583075
441,428,8.17993,0.607483,0,0,0,0,0,0,0,-1,1665,596,8.17997,-0.607513
448,428,7.84338,-0.385986,0,0,0,0,0,0,0,-1,1672,596,7.84336,0.385978
455,428,6.64038,2.1123,0,0,0,0,0,0,0,-1,1679,596,6.64037,-2.11229
462,428,4.84106,4.12341,0,0,0,0,0,0,0,-1,1686,596,4.84107,-4.12339
469,428,7.83789,3.10083,0,0,0,0,0,0,0,-1,1693,596,7.83785,-3.10086
476,428,7.61255,1.73956,0,0,0,0,0,0,0,-1,1700,596,7.61252,-1.73958
483,428,7.22766,1.05121,0,0,0,0,0,0,0,-1,1707,596,7.2277,-1.05121
490,428,5.4071,-3.2793,0,0,0,0,0,0,0,-1,1714,596,5.40707,3.27929
497,428,7.84106,-3.65491,0,0,0,0,0,0,0,-1,1721,596,7.84107,3.65491
504,428,6.92139,-2.83356,0,0,0,0,0,0,0,-1,1728,596,6.92137,2.83353
511,428,7.88501,-3.78723,0,0,0,0,0,0,0,-1,1735,596,7.88502,3.78722
518,428,15.1395,-10.7198,0,0,0,0,0,0,0,-1,1742,596,15.1396,10.7199
525,428,15.0603,-10.2438,0,0,0,0,0,0,0,-1,1749,596,15.0603,10.2438
532,428,15.1537,-9.66345,0.00410078,0.0024969,0.00226988,0.00570621,0.000891465,0.615593,0.00354455,0.0224592,1756,596,15.1537,9.66344
539,428,15.187,-9.16174,0.00320938,0.00183464,0.00166493,0.00432326,0.000720773,0.58963,0.00267449,0.0214241,1763,596,15.187,9.16174
546,428,15.1417,-8.71179,0.00250138,0.00144339,0.00128827,0.00336503,0.000579735,0.590581,0.00207725,0.0168336,1770,596,15.1417,8.71182
553,428,15.116,-8.24365,0.00180993,0.00101866,0.000960907,0.00245346,0.000375125,0.590109,0.00152605,0.0112683,1777,596,15.1159,8.24368
560,428,15.1382,-7.75024,0.00106985,0.000879171,0.000772724,0.00175309,0.000195928,0.724017,0.0011092,0.0117221,1784,596,15.1382,7.75026
567,428,15.1364,-7.26221,0.000382539,0.000906626,0.000706677,0.00139828,-0.000109115,0.962945,0.000970605,0.0113578,1791,596,15.1363,7.26221
574,428,15.1161,-6.77979,-0.000261156,0.0011127,0.000782973,0.00146737,-0.000615821,1.14547,0.00123577,0.0134587,1798,596,15.1161,6.77979
581,428,15.0852,-6.28522,-0.000916724,0.0015601,0.00101101,0.00192038,-0.001277,1.22847,0.00185843,0.0114085,1805,596,15.0853,6.28519
588,428,15.067,-5.76996,-0.00155471,0.00236425,0.00144196,0.00283763,-0.00202809,1.25359,0.00282215,0.0163965,1812,596,15.0671,5.76998
595,428,15.0283,-5.27716,-0.00217627,0.00367466,0.0021416,0.00437476,-0.00287638,1.25484,0.00421614,0.0167363,1819,596,15.0283,5.27719
602,428,14.9315,-4.75336,-0.00285613,0.00544352,0.0030874,0.00646604,-0.00387865,1.25098,0.00603446,0.0290275,1826,596,14.9316,4.75336
609,428,14.8967,-4.08649,-0.00330028,0.00784887,0.00446402,0.00941596,-0.00486737,1.23319,0.00838471,0.0492132,1833,596,14.8967,4.08648
616,428,14.8807,-3.42456,0,0,0,0,0,0,0,-1,1840,596,14.8808,3.42454
623,428,9.53577,1.12518,0,0,0,0,0,0,0,-1,1847,596,9.5358,-1.1252
630,428,7.07996,6.88562,0,0,0,0,0,0,0,-1,1854,596,7.0799,-6.88565
637,428,3.95435,1.90857,0,0,0,0,0,0,0,-1,1861,596,3.95439,-1.90858
644,428,5.75476,0.888977,0,0,0,0,0,0,0,-1,1868,596,5.75472,-0.888955
651,428,0,0,0,0,0,0,0,0,0,-1,1875,596,0,0
658,428,0,0,0,0,0,0,0,0,0,-1,1882,596,0,0
665,428,0,0,0,0,0,0,0,0,0,-1,1889,596,0,0
672,428,0,0,0,0,0,0,0,0,0,-1,1896,596,0,0
679,428,0,0,0,0,0,0,0,0,0,-1,1903,596,0,0
686,428,0,0,0,0,0,0,0,0,0,-1,1910,596,0,0
693,428,0,0,0,0,0,0,0,0,0,-1,1917,596,0,0
700,428,0,0,0,0,0,0,0,0,0,-1,1924,596,0,0
707,428,0,0,0,0,0,0,0,0,0,-1,1931,596,0,0
714,428,0,0,0,0,0,0,0,0,0,-1,1938,596,0,0
721,428,0,0,0,0,0,0,0,0,0,-1,1945,596,0,0
728,428,0,0,0,0,0,0,0,0,0,-1,1952,596,0,0
735,428,0,0,0,0,0,0,0,0,0,-1,1959,596,0,0
742,428,0,0,0,0,0,0,0,0,0,-1,1966,596,0,0
749,428,0,0,0,0,0,0,0,0,0,-1,1973,596,0,0
756,428,0,0,0,0,0,0,0,0,0,-1,1980,596,0,0
763,428,0,0,0,0,0,0,0,0,0,-1,1987,596,0,0
770,428,0,0,0,0,0,0,0,0,0,-1,1994,596,0,0
777,428,0,0,0,0,0,0,0,0,0,-1,2001,596,0,0
784,428,0,0,0,0,0,0,0,0,0,-1,2008,596,0,0
791,428,0,0,0,0,0,0,0,0,0,-1,2015,596,0,0
798,428,0,0,0,0,0,0,0,0,0,-1,2022,596,0,0
805,428,0,0,0,0,0,0,0,0,0,-1,2029,596,0,0
812,428,0,0,0,0,0,0,0,0,0,-1,2036,596,0,0
-700,421,0,0,0,0,0,0,0,0,0,-1,524,603,0,0
-693,421,0,0,0,0,0,0,0,0,0,-1,531,603,0,0
-686,421,0,0,0,0,0,0,0,0,0,-1,538,603,0,0
-679,421,0,0,0,0,0,0,0,0,0,-1,545,603,0,0
-672,421,0,0,0,0,0,0,0,0,0,-1,552,603,0,0
-665,421,0,0,0,0,0,0,0,0,0,-1,559,603,0,0
-658,421,0,0,0,0,0,0,0,0,0,-1,566,603,0,0
-651,421,0,0,0,0,0,0,0,0,0,-1,573,603,0,0
-644,421,0,0,0,0,0,0,0,0,0,-1,580,603,0,0
-637,421,0,0,0,0,0,0,0,0,0,-1,587,603,0,0
-630,421,0,0,0,0,0,0,0,0,0,-1,594,603,0,0
-623,421,0,0,0,0,0,0,0,0,0,-1,601,603,0,0
-616,421,0,0,0,0,0,0,0,0,0,-1,608,603,0,0
-609,421,0,0,0,0,0,0,0,0,0,-1,615,603,0,0
-602,421,0,0,0,0,0,0,0,0,0,-1,622,603,0,0
-595,421,0,0,0,0,0,0,0,0,0,-1,629,603,0,0
-588,421,0,0,0,0,0,0,0,0,0,-1,636,603,0,0
-581,421,0,0,0,0,0,0,0,0,0,-1,643,603,0,0
-574,421,0,0,0,0,0,0,0,0,0,-1,650,603,0,0
-567,421,0,0,0,0,0,0,0,0,0,-1,657,603,0,0
-560,421,0,0,0,0,0,0,0,0,0,-1,664,603,0,0
-553,421,0,0,0,0,0,0,0,0,0,-1,671,603,0,0
-546,421,0,0,0,0,0,0,0,0,0,-1,678,603,0,0
-539,421,0,0,0,0,0,0,0,0,0,-1,685,603,0,0
-532,421,-8.97382,6.95636,0,0,0,0,0,0,0,-1,692,603,-8.97384,-6.95634
-525,421,-2.11481,-8.04272,0,0,0,0,0,0,0,-1,699,603,-2.11483,8.0427
-518,421,-3.05908,-5.07233,0,0,0,0,0,0,0,-1,706,603,-3.0591,5.07235
-511,421,-4.63525,-4.08447,0,0,0,0,0,0,0,-1,713,603,-4.63524,4.08449
-504,421,-4.97272,-4.38385,0,0,0,0,0,0,0,-1,720,603,-4.9727,4.38383
-497,421,-6.63141,-2.32501,0,0,0,0,0,0,0,-1,727,603,-6.6314,2.32498
-490,421,-5.52075,-3.10205,0,0,0,0,0,0,0,-1,734,603,-5.52075,3.10204
-483,421,-6.83691,-5.88513,0,0,0,0,0,0,0,-1,741,603,-6.83693,5.88513
-476,421,-6.76715,-6.60431,-0.00233483,0.00413376,-0.00316214,0.00542271,-0.00362379,-1.18374,0.00525731,0.0327004,748,603,-6.76712,6.60433
-469,421,-6.88068,-6.95197,-0.00192973,0.00371049,-0.00277079,0.0048439,-0.00306314,-1.18251,0.00460356,0.0239313,755,603,-6.88069,6.95199
-462,421,-6.91559,-7.5022,-0.00136032,0.00316395,-0.00235175,0.00416494,-0.00236131,-1.16839,0.0038156,0.0190902,762,603,-6.91559,7.50218
-455,421,-6.94647,-7.98041,-0.00088416,0.00256917,-0.00194392,0.00344255,-0.00175753,-1.14854,0.00305436,0.0184802,769,603,-6.94644,7.98042
-448,421,-6.95868,-8.43774,-0.000683056,0.00180486,-0.00128147,0.00234685,-0.00122505,-1.17067,0.00209586,0.0178692,776,603,-6.95871,8.43773
-441,421,-6.93213,-8.92242,-0.000758386,0.00106789,-0.000505873,0.00119865,-0.000889148,-1.31784,0.0012098,0.014186,783,603,-6.93212,8.9224
-434,421,-6.94202,-9.39148,-0.000985737,0.000243283,0.000340921,0.000331517,-0.00107397,1.31754,0.00084836,0.0104274,790,603,-6.942,9.39149
-427,421,-6.93555,-9.85431,-0.00133647,-0.00071407,0.00126681,0.000279209,-0.00232974,0.90584,0.00165411,0.0104124,797,603,-6.93554,9.85429
-420,421,-6.93793,-10.2851,-0.00184209,-0.00166711,0.00223377,0.00048088,-0.00399008,0.804971,0.00283398,0.0117974,804,603,-6.93794,10.2851
-413,421,-6.9494,-10.7278,-0.00256922,-0.00266473,0.00335372,0.000737089,-0.00597103,0.778279,0.00424776,0.0141366,811,603,-6.94943,10.7278
-406,421,-6.99316,-11.222,-0.00343618,-0.00369852,0.00447042,0.000904995,-0.0080397,0.770731,0.00568552,0.0197745,818,603,-6.99315,11.222
-399,421,-6.93646,-11.7198,-0.00430244,-0.00481156,0.00557836,0.00102717,-0.0101412,0.762597,0.00712788,0.0257585,825,603,-6.93649,11.7198
-392,421,-7.04681,-12.0632,-0.00502567,-0.00588553,0.00668019,0.00123841,-0.0121496,0.753263,0.00854251,0.0393076,832,603,-7.04683,12.0632
-385,421,-6.97192,-12.5385,0,0,0,0,0,0,0,-1,839,603,-6.9719,12.5384
-378,421,-4.94733,-8.87909,0,0,0,0,0,0,0,-1,846,603,-4.94731,8.87906
-371,421,-5.65082,-7.01849,0,0,0,0,0,0,0,-1,853,603,-5.65082,7.0185
-364,421,-5.94189,-7.09875,0,0,0,0,0,0,0,-1,860,603,-5.94192,7.09878
-357,421,-7.62531,-8.26337,0,0,0,0,0,0,0,-1,867,603,-7.62532,8.26337
-350,421,-5.38019,-3.75024,0,0,0,0,0,0,0,-1,874,603,-5.38017,3.75026
-343,421,-6.22797,-2.57123,0,0,0,0,0,0,0,-1,881,603,-6.22798,2.57121
-336,421,-6.22882,-2.59369,0,0,0,0,0,0,0,-1,888,603,-6.22883,2.5937
-329,421,-4.50134,-1.49469,0,0,0,0,0,0,0,-1,895,603,-4.50137,1.49468
-322,421,-6.30377,-0.285339,0,0,0,0,0,0,0,-1,902,603,-6.30379,0.285355
-315,421,-4.47821,-1.26733,0,0,0,0,0,0,0,-1,909,603,-4.47824,1.26732
-308,421,0,0,0,0,0,0,0,0,0,-1,916,603,0,0
-301,421,0,0,0,0,0,0,0,0,0,-1,923,603,0,0
-294,421,0,0,0,0,0,0,0,0,0,-1,930,603,0,0
-287,421,0,0,0,0,0,0,0,0,0,-1,937,603,0,0
-280,421,0,0,0,0,0,0,0,0,0,-1,944,603,0,0
-273,421,0,0,0,0,0,0,0,0,0,-1,951,603,0,0
-266,421,0,0,0,0,0,0,0,0,0,-1,958,603,0,0
-259,421,0,0,0,0,0,0,0,0,0,-1,965,603,0,0
-252,421,0,0,0,0,0,0,0,0,0,-1,972,603,0,0
-245,421,0,0,0,0,0,0,0,0,0,-1,979,603,0,0
-238,421,0,0,0,0,0,0,0,0,0,-1,986,603,0,0
-231,421,0,0,0,0,0,0,0,0,0,-1,993,603,0,0
-224,421,0,0,0,0,0,0,0,0,0,-1,1000,603,0,0
-217,421,0,0,0,0,0,0,0,0,0,-1,1007,603,0,0
-210,421,0,0,0,0,0,0,0,0,0,-1,1014,603,0,0
-203,421,0,0,0,0,0,0,0,0,0,-1,1021,603,0,0
-196,421,0,0,0,0,0,0,0,0,0,-1,1028,603,0,0
-189,421,0,0,0,0,0,0,0,0,0,-1,1035,603,0,0
-182,421,0,0,0,0,0,0,0,0,0,-1,1042,603,0,0
-175,421,0,0,0,0,0,0,0,0,0,-1,1049,603,0,0
-168,421,0,0,0,0,0,0,0,0,0,-1,1056,603,0,0
-161,421,0,0,0,0,0,0,0,0,0,-1,1063,603,0,0
-154,421,0,0,0,0,0,0,0,0,0,-1,1070,603,0,0
-147,421,0,0,0,0,0,0,0,0,0,-1,1077,603,0,0
-140,421,0,0,0,0,0,0,0,0,0,-1,1084,603,0,0
-133,421,0,0,0,0,0,0,0,0,0,-1,1091,603,0,0
-126,421,0,0,0,0,0,0,0,0,0,-1,1098,603,0,0
-119,421,0,0,0,0,0,0,0,0,0,-1,1105,603,0,0
-112,421,0,0,0,0,0,0,0,0,0,-1,1112,603,0,0
-105,421,0,0,0,0,0,0,0,0,0,-1,1119,603,0,0
-98,421,0,0,0,0,0,0,0,0,0,-1,1126,603,0,0
-91,421,0,0,0,0,0,0,0,0,0,-1,1133,603,0,0
-84,421,0,0,0,0,0,0,0,0,0,-1,1140,603,0,0
-77,421,0,0,0,0,0,0,0,0,0,-1,1147,603,0,0
-70,421,0,0,0,0,0,0,0,0,0,-1,1154,603,0,0
-63,421,0,0,0,0,0,0,0,0,0,-1,1161,603,0,0
-56,421,0,0,0,0,0,0,0,0,0,-1,1168,603,0,0
-49,421,0,0,0,0,0,0,0,0,0,-1,1175,603,0,0
-42,421,0,0,0,0,0,0,0,0,0,-1,1182,603,0,0
-35,421,0,0,0,0,0,0,0,0,0,-1,1189,603,0,0
-28,421,0,0,0,0,0,0,0,0,0,-1,1196,603,0,0
-21,421,0,0,0,0,0,0,0,0,0,-1,1203,603,0,0
-14,421,0,0,0,0,0,0,0,0,0,-1,1210,603,0,0
-7,421,0,0,0,0,0,0,0,0,0,-1,1217,603,0,0
0,421,0,0,0,0,0,0,0,0,0,-1,1224,603,0,0
7,421,0,0,0,0,0,0,0,0,0,-1,1231,603,0,0
14,421,0,0,0,0,0,0,0,0,0,-1,1238,603,0,0
21,421,0,0,0,0,0,0,0,0,0,-1,1245,603,0,0
28,421,0,0,0,0,0,0,0,0,0,-1,1252,603,0,0
35,421,0,0,0,0,0,0,0,0,0,-1,1259,603,0,0
42,421,0,0,0,0,0,0,0,0,0,-1,1266,603,0,0
49,421,0,0,0,0,0,0,0,0,0,-1,1273,603,0,0
56,421,0,0,0,0,0,0,0,0,0,-1,1280,603,0,0
63,421,0,0,0,0,0,0,0,0,0,-1,1287,603,0,0
70,421,0,0,0,0,0,0,0,0,0,-1,1294,603,0,0
77,421,0,0,0,0,0,0,0,0,0,-1,1301,603,0,0
84,421,0,0,0,0,0,0,0,0,0,-1,1308,603,0,0
91,421,0,0,0,0,0,0,0,0,0,-1,1315,603,0,0
98,421,0,0,0,0,0,0,0,0,0,-1,1322,603,0,0
105,421,0,0,0,0,0,0,0,0,0,-1,1329,603,0,0
112,421,0,0,0,0,0,0,0,0,0,-1,1336,603,0,0
119,421,0,0,0,0,0,0,0,0,0,-1,1343,603,0,0
126,421,0,0,0,0,0,0,0,0,0,-1,1350,603,0,0
133,421,0,0,0,0,0,0,0,0,0,-1,1357,603,0,0
140,421,0,0,0,0,0,0,0,0,0,-1,1364,603,0,0
147,421,0,0,0,0,0,0,0,0,0,-1,1371,603,0,0
154,421,0,0,0,0,0,0,0,0,0,-1,1378,603,0,0
161,421,0,0,0,0,0,0,0,0,0,-1,1385,603,0,0
168,421,0,0,0,0,0,0,0,0,0,-1,1392,603,0,0
175,421,0,0,0,0,0,0,0,0,0,-1,1399,603,0,0
182,421,0,0,0,0,0,0,0,0,0,-1,1406,603,0,0
189,421,0,0,0,0,0,0,0,0,0,-1,1413,603,0,0
196,421,0,0,0,0,0,0,0,0,0,-1,1420,603,0,0
203,421,0,0,0,0,0,0,0,0,0,-1,1427,603,0,0
210,421,0,0,0,0,0,0,0,0,0,-1,1434,603,0,0
217,421,0,0,0,0,0,0,0,0,0,-1,1441,603,0,0
224,421,0,0,0,0,0,0,0,0,0,-1,1448,603,0,0
231,421,0,0,0,0,0,0,0,0,0,-1,1455,603,0,0
238,421,0,0,0,0,0,0,0,0,0,-1,1462,603,0,0
245,421,0,0,0,0,0,0,0,0,0,-1,1469,603,0,0
252,421,0,0,0,0,0,0,0,0,0,-1,1476,603,0,0
259,421,0,0,0,0,0,0,0,0,0,-1,1483,603,0,0
266,421,0,0,0,0,0,0,0,0,0,-1,1490,603,0,0
273,421,0,0,0,0,0,0,0,0,0,-1,1497,603,0,0
280,421,0,0,0,0,0,0,0,0,0,-1,1504,603,0,0
287,421,0,0,0,0,0,0,0,0,0,-1,1511,603,0,0
294,421,0,0,0,0,0,0,0,0,0,-1,1518,603,0,0
301,421,0,0,0,0,0,0,0,0,0,-1,1525,603,0,0
308,421,0,0,0,0,0,0,0,0,0,-1,1532,603,0,0
315,421,0,0,0,0,0,0,0,0,0,-1,1539,603,0,0
322,421,0,0,0,0,0,0,0,0,0,-1,1546,603,0,0
329,421,0,0,0,0,0,0,0,0,0,-1,1553,603,0,0
336,421,0,0,0,0,0,0,0,0,0,-1,1560,603,0,0
343,421,0,0,0,0,0,0,0,0,0,-1,1567,603,0,0
350,421,0,0,0,0,0,0,0,0,0,-1,1574,603,0,0
357,421,0,0,0,0,0,0,0,0,0,-1,1581,603,0,0
364,421,0,0,0,0,0,0,0,0,0,-1,1588,603,0,0
371,421,0,0,0,0,0,0,0,0,0,-1,1595,603,0,0
378,421,0,0,0,0,0,0,0,0,0,-1,1602,603,0,0
385,421,0,0,0,0,0,0,0,0,0,-1,1609,603,0,0
392,421,0,0,0,0,0,0,0,0,0,-1,1616,603,0,0
399,421,0,0,0,0,0,0,0,0,0,-1,1623,603,0,0
406,421,0,0,0,0,0,0,0,0,0,-1,1630,603,0,0
413,421,0,0,0,0,0,0,0,0,0,-1,1637,603,0,0
420,421,0,0,0,0,0,0,0,0,0,-1,1644,603,0,0
427,421,0,0,0,0,0,0,0,0,0,-1,1651,603,0,0
434,421,3.68176,-0.0327759,0,0,0,0,0,0,0,-1,1658,603,3.6818,0.0328037
441,421,8.06689,0.527832,0,0,0,0,0,0,0,-1,1665,603,8.06693,-0.527851
448,421,6.93921,0.802246,0,0,0,0,0,0,0,-1,1672,603,6.93923,-0.802251
455,421,7.29456,2.14825,0,0,0,0,0,0,0,-1,1679,603,7.29461,-2.14827
462,421,7.86902,3.53174,0,0,0,0,0,0,0,-1,1686,603,7.869,-3.53173
469,421,8.06604,2.81213,0,0,0,0,0,0,0,-1,1693,603,8.06606,-2.81212
476,421,8.26306,2.09253,0,0,0,0,0,0,0,-1,1700,603,8.26312,-2.09251
483,421,8.05322,0.798096,0,0,0,0,0,0,0,-1,1707,603,8.05323,-0.7981
490,421,7.51233,0.213074,0,0,0,0,0,0,0,-1,1714,603,7.51235,-0.213043
497,421,7.49634,-2.86688,0,0,0,0,0,0,0,-1,1721,603,7.4963,2.86688
504,421,6.90491,-2.18671,0,0,0,0,0,0,0,-1,1728,603,6.90491,2.18669
511,421,6.31348,-1.50653,0,0,0,0,0,0,0,-1,1735,603,6.31353,1.5065
518,421,6.27588,-2.49878,0,0,0,0,0,0,0,-1,1742,603,6.2759,2.4988
525,421,15.3927,-10.4361,0,0,0,0,0,0,0,-1,1749,603,15.3927,10.4361
532,421,15.5421,-9.70178,0.00493587,0.0028622,0.0024862,0.00659277,0.0012053,0.587844,0.00405359,0.0423045,1756,603,15.5422,9.7018
539,421,15.6624,-9.15698,0.00396197,0.00213987,0.00178972,0.00505918,0.00104266,0.549969,0.00308455,0.0231583,1763,603,15.6624,9.15697
546,421,15.6282,-8.70135,0.00321478,0.00170306,0.00136825,0.00402207,0.000895773,0.533044,0.00243827,0.0137262,1770,603,15.6282,8.70134
553,421,15.6167,-8.20911,0.00249274,0.00119121,0.000997954,0.00303337,0.000650584,0.496472,0.00184404,0.0119483,1777,603,15.6166,8.20911
560,421,15.6147,-7.71509,0.00172858,0.000926863,0.000749704,0.00217786,0.000477578,0.539893,0.00132179,0.01382,1784,603,15.6147,7.71511
567,421,15.6102,-7.25092,0.00101718,0.000912743,0.00067449,0.00164147,0.000288453,0.746766,0.00101196,0.0170585,1791,603,15.6103,7.25094
574,421,15.5929,-6.75635,0.000393436,0.00109755,0.000767968,0.00159032,-9.93245e-05,1.00032,0.00109482,0.0196499,1798,603,15.5929,6.75635
581,421,15.5786,-6.24066,-0.000206199,0.0015212,0.00102139,0.00199512,-0.000680116,1.13637,0.00160554,0.0164201,1805,603,15.5786,6.24067
588,421,15.5399,-5.78314,-0.000768662,0.00227626,0.00145449,0.00285937,-0.00135177,1.18951,0.0024827,0.0120462,1812,603,15.5399,5.78313
595,421,15.568,-5.27612,-0.00120312,0.0034899,0.00217694,0.0043442,-0.00205742,1.19683,0.00377376,0.0162905,1819,603,15.5681,5.27613
602,421,15.491,-4.85229,-0.00159306,0.00509918,0.00312108,0.00632884,-0.00282271,1.19549,0.00541136,0.0187401,1826,603,15.4909,4.8523
609,421,15.347,-4.271,-0.00169196,0.00724578,0.00443966,0.00907623,-0.00352241,1.17974,0.00750571,0.0321696,1833,603,15.3471,4.271
616,421,15.424,-3.62122,0,0,0,0,0,0,0,-1,1840,603,15.424,3.62124
623,421,6.19885,0.376648,0,0,0,0,0,0,0,-1,1847,603,6.19881,-0.376624
630,421,6.54993,0.778748,0,0,0,0,0,0,0,-1,1854,603,6.54991,-0.778744
637,421,3.74512,1.65405,0,0,0,0,0,0,0,-1,1861,603,3.74517,-1.65407
644,421,3.58081,0.354675,0,0,0,0,0,0,0,-1,1868,603,3.58082,-0.354704
651,421,3.28687,3.66351,0,0,0,0,0,0,0,-1,1875,603,3.28688,-3.66353
658,421,0,0,0,0,0,0,0,0,0,-1,1882,603,0,0
665,421,0,0,0,0,0,0,0,0,0,-1,1889,603,0,0
672,421,0,0,0,0,0,0,0,0,0,-1,1896,603,0,0
679,421,0,0,0,0,0,0,0,0,0,-1,1903,603,0,0
686,421,0,0,0,0,0,0,0,0,0,-1,1910,603,0,0
693,421,0,0,0,0,0,0,0,0,0,-1,1917,603,0,0
700,421,0,0,0,0,0,0,0,0,0,-1,1924,603,0,0
707,421,0,0,0,0,0,0,0,0,0,-1,1931,603,0,0
714,421,0,0,0,0,0,0,0,0,0,-1,1938,603,0,0
721,421,0,0,0,0,0,0,0,0,0,-1,1945,603,0,0
728,421,0,0,0,0,0,0,0,0,0,-1,1952,603,0,0
735,421,0,0,0,0,0,0,0,0,0,-1,1959,603,0,0
742,421,0,0,0,0,0,0,0,0,0,-1,1966,603,0,0
749,421,0,0,0,0,0,0,0,0,0,-1,1973,603,0,0
756,421,0,0,0,0,0,0,0,0,0,-1,1980,603,0,0
763,421,0,0,0,0,0,0,0,0,0,-1,1987,603,0,0
770,421,0,0,0,0,0,0,0,0,0,-1,1994,603,0,0
777,421,0,0,0,0,0,0,0,0,0,-1,2001,603,0,0
784,421,0,0,0,0,0,0,0,0,0,-1,2008,603,0,0
791,421,0,0,0,0,0,0,0,0,0,-1,2015,603,0,0
798,421,0,0,0,0,0,0,0,0,0,-1,2022,603,0,0
805,421,0,0,0,0,0,0,0,0,0,-1,2029,603,0,0
812,421,0,0,0,0,0,0,0,0,0,-1,2036,603,0,0
-700,414,0,0,0,0,0,0,0,0,0,-1,524,610,0,0
-693,414,0,0,0,0,0,0,0,0,0,-1,531,610,0,0
-686,414,0,0,0,0,0,0,0,0,0,-1,538,610,0,0
-679,414,0,0,0,0,0,0,0,0,0,-1,545,610,0,0
-672,414,0,0,0,0,0,0,0,0,0,-1,552,610,0,0
-665,414,0,0,0,0,0,0,0,0,0,-1,559,610,0,0
-658,414,0,0,0,0,0,0,0,0,0,-1,566,610,0,0
-651,414,0,0,0,0,0,0,0,0,0,-1,573,610,0,0
-644,414,0,0,0,0,0,0,0,0,0,-1,580,610,0,0
-637,414,0,0,0,0,0,0,0,0,0,-1,587,610,0,0
-630,414,0,0,0,0,0,0,0,0,0,-1,594,610,0,0
-623,414,0,0,0,0,0,0,0,0,0,-1,601,610,0,0
-616,414,0,0,0,0,0,0,0,0,0,-1,608,610,0,0
-609,414,0,0,0,0,0,0,0,0,0,-1,615,610,0,0
-602,414,0,0,0,0,0,0,0,0,0,-1,622,610,0,0
-595,414,0,0,0,0,0,0,0,0,0,-1,629,610,0,0
-588,414,0,0,0,0,0,0,0,0,0,-1,636,610,0,0
-581,414,0,0,0,0,0,0,0,0,0,-1,643,610,0,0
-574,414,0,0,0,0,0,0,0,0,0,-1,650,610,0,0
-567,414,0,0,0,0,0,0,0,0,0,-1,657,610,0,0
-560,414,0,0,0,0,0,0,0,0,0,-1,664,610,0,0
-553,414,0,0,0,0,0,0,0,0,0,-1,671,610,0,0
-546,414,0,0,0,0,0,0,0,0,0,-1,678,610,0,0
-539,414,-7.50146,5.65619,0,0,0,0,0,0,0,-1,685,610,-7.50149,-5.65617
-532,414,-8.15204,4.01605,0,0,0,0,0,0,0,-1,692,610,-8.15206,-4.01606
-525,414,-3.47137,-3.27924,0,0,0,0,0,0,0,-1,699,610,-3.47136,3.27922
-518,414,-4.12909,-4.36908,0,0,0,0,0,0,0,-1,706,610,-4.12909,4.36909
-511,414,-3.92542,-4.97021,0,0,0,0,0,0,0,-1,713,610,-3.92542,4.97023
-504,414,-1.62408,-3.64496,0,0,0,0,0,0,0,-1,720,610,-1.62406,3.64499
-497,414,-7.62585,-5.16681,0,0,0,0,0,0,0,-1,727,610,-7.62584,5.16681
-490,414,-7.39734,-5.17511,0,0,0,0,0,0,0,-1,734,610,-7.39734,5.17511
-483,414,-7.25873,-6.00665,-0.00176296,0.00305872,-0.0025917,0.00418752,-0.00289176,-1.16003,0.00410998,0.0330365,741,610,-7.25874,6.00663
-476,414,-7.32153,-6.54919,-0.00157767,0.00288427,-0.00238908,0.00392209,-0.00261548,-1.16099,0.00379951,0.0199444,748,610,-7.32152,6.54922
-469,414,-7.37457,-6.99048,-0.0012182,0.00258305,-0.0021429,0.00354675,-0.00218191,-1.14818,0.00333859,0.0137455,755,610,-7.37454,6.99049
-462,414,-7.3501,-7.48602,-0.000784998,0.00218042,-0.00184554,0.00306508,-0.00166966,-1.1238,0.00277289,0.0215384,762,610,-7.35013,7.48605
-455,414,-7.41187,-7.97327,-0.000510494,0.00171009,-0.00145342,0.00242878,-0.00122918,-1.11157,0.00214945,0.0226083,769,610,-7.41188,7.97325
-448,414,-7.44818,-8.44043,-0.000434433,0.00104094,-0.000821112,0.00140707,-0.00080056,-1.15136,0.00129051,0.0231409,776,610,-7.44816,8.44046
-441,414,-7.40106,-8.90424,-0.00066999,0.000325875,-1.99047e-05,0.000326272,-0.000670387,-1.55082,0.000586743,0.0176114,783,610,-7.40109,8.90423
-434,414,-7.40851,-9.3728,-0.0010862,-0.000449165,0.000877951,0.000166262,-0.00170163,0.959412,0.0011937,0.00998666,790,610,-7.4085,9.3728
-427,414,-7.41315,-9.82965,-0.00168665,-0.00139442,0.00191155,0.000376593,-0.00345766,0.823543,0.00244034,0.0109456,797,610,-7.41312,9.82965
-420,414,-7.41254,-10.2734,-0.00253121,-0.00240428,0.00307662,0.000609529,-0.00554502,0.795711,0.0039157,0.0112151,804,610,-7.41256,10.2734
-413,414,-7.43353,-10.7546,-0.00367451,-0.00341973,0.00443348,0.000888191,-0.00798243,0.799761,0.00564104,0.0115406,811,610,-7.43352,10.7546
-406,414,-7.44208,-11.3044,-0.00509896,-0.00463644,0.0058979,0.00103473,-0.0107701,0.804994,0.00754867,0.0237095,818,610,-7.44209,11.3044
-399,414,-7.49713,-11.5682,-0.00662507,-0.00605079,0.00746534,0.00113294,-0.0138088,0.80462,0.0096058,0.0445241,825,610,-7.49714,11.5682
-392,414,-7.56091,-11.7742,-0.00810338,-0.00753322,0.00918936,0.00137548,-0.0170121,0.800905,0.0118266,0.0459004,832,610,-7.56093,11.7742
-385,414,-7.70331,-12.5679,0,0,0,0,0,0,0,-1,839,610,-7.70329,12.5679
-378,414,-8.04907,-11.3331,0,0,0,0,0,0,0,-1,846,610,-8.04905,11.3331
-371,414,-5.20886,-8.05151,0,0,0,0,0,0,0,-1,853,610,-5.20887,8.05153
-364,414,-6.76282,-6.58759,0,0,0,0,0,0,0,-1,860,610,-6.7628,6.58756
-357,414,-9.08685,-8.86188,0,0,0,0,0,0,0,-1,867,610,-9.08688,8.86187
-350,414,-6.4502,-2.41821,0,0,0,0,0,0,0,-1,874,610,-6.45021,2.41822
-343,414,-6.80249,-2.32117,0,0,0,0,0,0,0,-1,881,610,-6.80252,2.32116
-336,414,-7.11017,-2.52026,0,0,0,0,0,0,0,-1,888,610,-7.11016,2.52026
-329,414,-7.59747,-2.70313,0,0,0,0,0,0,0,-1,895,610,-7.59747,2.70315
-322,414,-4.42236,-1.29163,0,0,0,0,0,0,0,-1,902,610,-4.42238,1.2916
-315,414,0,0,0,0,0,0,0,0,0,-1,909,610,0,0
-308,414,0,0,0,0,0,0,0,0,0,-1,916,610,0,0
-301,414,0,0,0,0,0,0,0,0,0,-1,923,610,0,0
-294,414,0,0,0,0,0,0,0,0,0,-1,930,610,0,0
-287,414,0,0,0,0,0,0,0,0,0,-1,937,610,0,0
-280,414,0,0,0,0,0,0,0,0,0,-1,944,610,0,0
-273,414,0,0,0,0,0,0,0,0,0,-1,951,610,0,0
-266,414,0,0,0,0,0,0,0,0,0,-1,958,610,0,0
-259,414,0,0,0,0,0,0,0,0,0,-1,965,610,0,0
-252,414,0,0,0,0,0,0,0,0,0,-1,972,610,0,0
-245,414,0,0,0,0,0,0,0,0,0,-1,979,610,0,0
-238,414,0,0,0,0,0,0,0,0,0,-1,986,610,0,0
-231,414,0,0,0,0,0,0,0,0,0,-1,993,610,0,0
-224,414,0,0,0,0,0,0,0,0,0,-1,1000,610,0,0
-217,414,0,0,0,0,0,0,0,0,0,-1,1007,610,0,0
-210,414,0,0,0,0,0,0,0,0,0,-1,1014,610,0,0
-203,414,0,0,0,0,0,0,0,0,0,-1,1021,610,0,0
-196,414,0,0,0,0,0,0,0,0,0,-1,1028,610,0,0
-189,414,0,0,0,0,0,0,0,0,0,-1,1035,610,0,0
-182,414,0,0,0,0,0,0,0,0,0,-1,1042,610,0,0
-175,414,0,0,0,0,0,0,0,0,0,-1,1049,610,0,0
-168,414,0,0,0,0,0,0,0,0,0,-1,1056,610,0,0
-161,414,0,0,0,0,0,0,0,0,0,-1,1063,610,0,0
-154,414,0,0,0,0,0,0,0,0,0,-1,1070,610,0,0
-147,414,0,0,0,0,0,0,0,0,0,-1,1077,610,0,0
-140,414,0,0,0,0,0,0,0,0,0,-1,1084,610,0,0
-133,414,0,0,0,0,0,0,0,0,0,-1,1091,610,0,0
-126,414,0,0,0,0,0,0,0,0,0,-1,1098,610,0,0
-119,414,0,0,0,0,0,0,0,0,0,-1,1105,610,0,0
-112,414,0,0,0,0,0,0,0,0,0,-1,1112,610,0,0
-105,414,0,0,0,0,0,0,0,0,0,-1,1119,610,0,0
-98,414,0,0,0,0,0,0,0,0,0,-1,1126,610,0,0
-91,414,0,0,0,0,0,0,0,0,0,-1,1133,610,0,0
-84,414,0,0,0,0,0,0,0,0,0,-1,1140,610,0,0
-77,414,0,0,0,0,0,0,0,0,0,-1,1147,610,0,0
-70,414,0,0,0,0,0,0,0,0,0,-1,1154,610,0,0
-63,414,0,0,0,0,0,0,0,0,0,-1,1161,610,0,0
-56,414,0,0,0,0,0,0,0,0,0,-1,1168,610,0,0
-49,414,0,0,0,0,0,0,0,0,0,-1,1175,610,0,0
-42,414,0,0,0,0,0,0,0,0,0,-1,1182,610,0,0
-35,414,0,0,0,0,0,0,0,0,0,-1,1189,610,0,0
-28,414,0,0,0,0,0,0,0,0,0,-1,1196,610,0,0
-21,414,0,0,0,0,0,0,0,0,0,-1,1203,610,0,0
-14,414,0,0,0,0,0,0,0,0,0,-1,1210,610,0,0
-7,414,0,0,0,0,0,0,0,0,0,-1,1217,610,0,0
0,414,0,0,0,0,0,0,0,0,0,-1,1224,610,0,0
7,414,0,0,0,0,0,0,0,0,0,-1,1231,610,0,0
14,414,0,0,0,0,0,0,0,0,0,-1,1238,610,0,0
21,414,0,0,0,0,0,0,0,0,0,-1,1245,610,0,0
28,414,0,0,0,0,0,0,0,0,0,-1,1252,610,0,0
35,414,0,0,0,0,0,0,0,0,0,-1,1259,610,0,0
42,414,0,0,0,0,0,0,0,0,0,-1,1266,610,0,0
49,414,0,0,0,0,0,0,0,0,0,-1,1273,610,0,0
56,414,0,0,0,0,0,0,0,0,0,-1,1280,610,0,0
63,414,0,0,0,0,0,0,0,0,0,-1,1287,610,0,0
70,414,0,0,0,0,0,0,0,0,0,-1,1294,610,0,0
77,414,0,0,0,0,0,0,0,0,0,-1,1301,610,0,0
84,414,0,0,0,0,0,0,0,0,0,-1,1308,610,0,0
91,414,0,0,0,0,0,0,0,0,0,-1,1315,610,0,0
98,414,0,0,0,0,0,0,0,0,0,-1,1322,610,0,0
105,414,0,0,0,0,0,0,0,0,0,-1,1329,610,0,0
112,414,0,0,0,0,0,0,0,0,0,-1,1336,610,0,0
119,414,0,0,0,0,0,0,0,0,0,-1,1343,610,0,0
126,414,0,0,0,0,0,0,0,0,0,-1,1350,610,0,0
133,414,0,0,0,0,0,0,0,0,0,-1,1357,610,0,0
140,414,0,0,0,0,0,0,0,0,0,-1,1364,610,0,0
147,414,0,0,0,0,0,0,0,0,0,-1,1371,610,0,0
154,414,0,0,0,0,0,0,0,0,0,-1,1378,610,0,0
161,414,0,0,0,0,0,0,0,0,0,-1,1385,610,0,0
168,414,0,0,0,0,0,0,0,0,0,-1,1392,610,0,0
175,414,0,0,0,0,0,0,0,0,0,-1,1399,610,0,0
182,414,0,0,0,0,0,0,0,0,0,-1,1406,610,0,0
189,414,0,0,0,0,0,0,0,0,0,-1,1413,610,0,0
196,414,0,0,0,0,0,0,0,0,0,-1,1420,610,0,0
203,414,0,0,0,0,0,0,0,0,0,-1,1427,610,0,0
210,414,0,0,0,0,0,0,0,0,0,-1,1434,610,0,0
217,414,0,0,0,0,0,0,0,0,0,-1,1441,610,0,0
224,414,0,0,0,0,0,0,0,0,0,-1,1448,610,0,0
231,414,0,0,0,0,0,0,0,0,0,-1,1455,610,0,0
238,414,0,0,0,0,0,0,0,0,0,-1,1462,610,0,0
245,414,0,0,0,0,0,0,0,0,0,-1,1469,610,0,0
252,414,0,0,0,0,0,0,0,0,0,-1,1476,610,0,0
259,414,0,0,0,0,0,0,0,0,0,-1,1483,610,0,0
266,414,0,0,0,0,0,0,0,0,0,-1,1490,610,0,0
273,414,0,0,0,0,0,0,0,0,0,-1,1497,610,0,0
280,414,0,0,0,0,0,0,0,0,0,-1,1504,610,0,0
287,414,0,0,0,0,0,0,0,0,0,-1,1511,610,0,0
294,414,0,0,0,0,0,0,0,0,0,-1,1518,610,0,0
301,414,0,0,0,0,0,0,0,0,0,-1,1525,610,0,0
308,414,0,0,0,0,0,0,0,0,0,-1,1532,610,0,0
315,414,0,0,0,0,0,0,0,0,0,-1,1539,610,0,0
322,414,0,0,0,0,0,0,0,0,0,-1,1546,610,0,0
329,414,0,0,0,0,0,0,0,0,0,-1,1553,610,0,0
336,414,0,0,0,0,0,0,0,0,0,-1,1560,610,0,0
343,414,0,0,0,0,0,0,0,0,0,-1,1567,610,0,0
350,414,0,0,0,0,0,0,0,0,0,-1,1574,610,0,0
357,414,0,0,0,0,0,0,0,0,0,-1,1581,610,0,0
364,414,0,0,0,0,0,0,0,0,0,-1,1588,610,0,0
371,414,0,0,0,0,0,0,0,0,0,-1,1595,610,0,0
378,414,0,0,0,0,0,0,0,0,0,-1,1602,610,0,0
385,414,0,0,0,0,0,0,0,0,0,-1,1609,610,0,0
392,414,0,0,0,0,0,0,0,0,0,-1,1616,610,0,0
399,414,0,0,0,0,0,0,0,0,0,-1,1623,610,0,0
406,414,0,0,0,0,0,0,0,0,0,-1,1630,610,0,0
413,414,0,0,0,0,0,0,0,0,0,-1,1637,610,0,0
420,414,0,0,0,0,0,0,0,0,0,-1,1644,610,0,0
427,414,0,0,0,0,0,0,0,0,0,-1,1651,610,0,0
434,414,0,0,0,0,0,0,0,0,0,-1,1658,610,0,0
441,414,7.84375,0.584412,0,0,0,0,0,0,0,-1,1665,610,7.84379,-0.584394
448,414,7.40808,1.25446,0,0,0,0,0,0,0,-1,1672,610,7.40807,-1.25446
455,414,6.3512,1.73846,0,0,0,0,0,0,0,-1,1679,610,6.3512,-1.73847
462,414,8.18103,3.22113,0,0,0,0,0,0,0,-1,1686,610,8.18108,-3.22112
469,414,8.38513,2.49579,0,0,0,0,0,0,0,-1,1693,610,8.38516,-2.49576
476,414,8.64099,1.71161,0,0,0,0,0,0,0,-1,1700,610,8.64097,-1.71164
483,414,8.62744,0.687622,0,0,0,0,0,0,0,-1,1707,610,8.62749,-0.687615
490,414,8.38831,-0.0302734,0,0,0,0,0,0,0,-1,1714,610,8.38835,0.0302913
497,414,4.71094,-0.110046,0,0,0,0,0,0,0,-1,1721,610,4.71089,0.110024
504,414,7.19568,-1.43835,0,0,0,0,0,0,0,-1,1728,610,7.19563,1.43836
511,414,5.94153,-1.28772,0,0,0,0,0,0,0,-1,1735,610,5.94151,1.28769
518,414,4.53381,-0.0996704,0,0,0,0,0,0,0,-1,1742,610,4.53378,0.0996819
525,414,6.18811,-1.64056,0,0,0,0,0,0,0,-1,1749,610,6.18814,1.64055
532,414,16.0411,-9.90753,0,0,0,0,0,0,0,-1,1756,610,16.0411,9.90753
539,414,16.0994,-9.27667,0.00478547,0.00252549,0.00203577,0.00598383,0.00132713,0.532036,0.00362866,0.0453952,1763,610,16.0993,9.27668
546,414,16.1071,-8.68988,0.00397265,0.00202785,0.00155397,0.00483339,0.00116712,0.505829,0.00291225,0.0137885,1770,610,16.107,8.68991
553,414,16.1071,-8.20435,0.0032055,0.00140579,0.00111903,0.00374161,0.000869684,0.446768,0.00226097,0.0121505,1777,610,16.1071,8.20434
560,414,16.1062,-7.7074,0.00241186,0.000981929,0.000780952,0.00275569,0.000638092,0.414741,0.00166568,0.0134695,1784,610,16.1061,7.70738
567,414,16.0884,-7.22565,0.00166975,0.000898547,0.00066524,0.00205306,0.000515231,0.522741,0.00123337,0.0222631,1791,610,16.0883,7.22567
574,414,16.0669,-6.73682,0.0010539,0.00103495,0.000736166,0.00178065,0.000308198,0.778965,0.00109887,0.02134,1798,610,16.0669,6.73684
581,414,16.0667,-6.23944,0.000485894,0.00140747,0.000966667,0.00201756,-0.000124191,1.00781,0.00138829,0.0170147,1805,610,16.0667,6.23947
588,414,16.0442,-5.7757,-4.13485e-05,0.0020806,0.00134243,0.0027307,-0.000691452,1.11981,0.00208944,0.0162736,1812,610,16.0442,5.77568
595,414,16.0353,-5.25977,-0.000353945,0.00316118,0.00200075,0.0040667,-0.00125947,1.14579,0.00321429,0.0212518,1819,610,16.0353,5.25978
602,414,16.0282,-4.7597,-0.000473748,0.00458905,0.00289045,0.00589988,-0.00178457,1.14503,0.00464385,0.0236903,1826,610,16.0281,4.7597
609,414,16.0055,-4.2467,0,0,0,0,0,0,0,-1,1833,610,16.0055,4.24668
616,414,16.2202,-3.53418,0,0,0,0,0,0,0,-1,1840,610,16.2202,3.53419
623,414,9.6969,0.0378418,0,0,0,0,0,0,0,-1,1847,610,9.69685,-0.0378644
630,414,5.47144,0.499329,0,0,0,0,0,0,0,-1,1854,610,5.47142,-0.499303
637,414,8.36707,4.16278,0,0,0,0,0,0,0,-1,1861,610,8.36709,-4.16278
644,414,5.87073,1.51422,0,0,0,0,0,0,0,-1,1868,610,5.87076,-1.51424
651,414,3.6377,0.820557,0,0,0,0,0,0,0,-1,1875,610,3.6377,-0.820543
658,414,2.29761,3.87323,0,0,0,0,0,0,0,-1,1882,610,2.29758,-3.87325
665,414,0,0,0,0,0,0,0,0,0,-1,1889,610,0,0
672,414,0,0,0,0,0,0,0,0,0,-1,1896,610,0,0
679,414,0,0,0,0,0,0,0,0,0,-1,1903,610,0,0
686,414,0,0,0,0,0,0,0,0,0,-1,1910,610,0,0
693,414,0,0,0,0,0,0,0,0,0,-1,1917,610,0,0
700,414,0,0,0,0,0,0,0,0,0,-1,1924,610,0,0
707,414,0,0,0,0,0,0,0,0,0,-1,1931,610,0,0
714,414,0,0,0,0,0,0,0,0,0,-1,1938,610,0,0
721,414,0,0,0,0,0,0,0,0,0,-1,1945,610,0,0
728,414,0,0,0,0,0,0,0,0,0,-1,1952,610,0,0
735,414,0,0,0,0,0,0,0,0,0,-1,1959,610,0,0
742,414,0,0,0,0,0,0,0,0,0,-1,1966,610,0,0
749,414,0,0,0,0,0,0,0,0,0,-1,1973,610,0,0
756,414,0,0,0,0,0,0,0,0,0,-1,1980,610,0,0
763,414,0,0,0,0,0,0,0,0,0,-1,1987,610,0,0
770,414,0,0,0,0,0,0,0,0,0,-1,1994,610,0,0
777,414,0,0,0,0,0,0,0,0,0,-1,2001,610,0,0
784,414,0,0,0,0,0,0,0,0,0,-1,2008,610,0,0
791,414,0,0,0,0,0,0,0,0,0,-1,2015,610,0,0
798,414,0,0,0,0,0,0,0,0,0,-1,2022,610,0,0
805,414,0,0,0,0,0,0,0,0,0,-1,2029,610,0,0
812,414,0,0,0,0,0,0,0,0,0,-1,2036,610,0,0
-700,407,0,0,0,0,0,0,0,0,0,-1,524,617,0,0
-693,407,0,0,0,0,0,0,0,0,0,-1,531,617,0,0
-686,407,0,0,0,0,0,0,0,0,0,-1,538,617,0,0
-679,407,0,0,0,0,0,0,0,0,0,-1,545,617,0,0
-672,407,0,0,0,0,0,0,0,0,0,-1,552,617,0,0
-665,407,0,0,0,0,0,0,0,0,0,-1,559,617,0,0
-658,407,0,0,0,0,0,0,0,0,0,-1,566,617,0,0
-651,407,0,0,0,0,0,0,0,0,0,-1,573,617,0,0
-644,407,0,0,0,0,0,0,0,0,0,-1,580,617,0,0
-637,407,0,0,0,0,0,0,0,0,0,-1,587,617,0,0
-630,407,0,0,0,0,0,0,0,0,0,-1,594,617,0,0
-623,407,0,0,0,0,0,0,0,0,0,-1,601,617,0,0
-616,407,0,0,0,0,0,0,0,0,0,-1,608,617,0,0
-609,407,0,0,0,0,0,0,0,0,0,-1,615,617,0,0
-602,407,0,0,0,0,0,0,0,0,0,-1,622,617,0,0
-595,407,0,0,0,0,0,0,0,0,0,-1,629,617,0,0
-588,407,0,0,0,0,0,0,0,0,0,-1,636,617,0,0
-581,407,0,0,0,0,0,0,0,0,0,-1,643,617,0,0
-574,407,0,0,0,0,0,0,0,0,0,-1,650,617,0,0
-567,407,0,0,0,0,0,0,0,0,0,-1,657,617,0,0
-560,407,0,0,0,0,0,0,0,0,0,-1,664,617,0,0
-553,407,0,0,0,0,0,0,0,0,0,-1,671,617,0,0
-546,407,-8.54517,-0.658142,0,0,0,0,0,0,0,-1,678,617,-8.54515,0.658112
-539,407,-6.09442,-1.01154,0,0,0,0,0,0,0,-1,685,617,-6.09441,1.01155
-532,407,-7.75665,1.62152,0,0,0,0,0,0,0,-1,692,617,-7.75667,-1.62154
-525,407,-3.78247,-2.67639,0,0,0,0,0,0,0,-1,699,617,-3.78246,2.67638
-518,407,-5.013,-5.87323,0,0,0,0,0,0,0,-1,706,617,-5.013,5.87324
-511,407,-4.26392,-4.37659,0,0,0,0,0,0,0,-1,713,617,-4.26393,4.37658
-504,407,-7.84894,-4.67639,0,0,0,0,0,0,0,-1,720,617,-7.84891,4.6764
-497,407,-7.81366,-5.14044,-0.00123859,0.0022937,-0.00190271,0.00312362,-0.00206851,-1.15949,0.00301824,0.0438747,727,617,-7.81365,5.14043
-490,407,-7.76862,-5.56342,-0.0012275,0.00233282,-0.00200546,0.00323423,-0.00212892,-1.14838,0.00311826,0.0384808,734,617,-7.7686,5.56344
-483,407,-7.71631,-6.01215,-0.00118306,0.00218453,-0.0019347,0.00306554,-0.00206408,-1.14348,0.00298034,0.0247442,741,617,-7.71628,6.01213
-476,407,-7.76331,-6.47382,-0.000995817,0.00203109,-0.0018154,0.00288115,-0.00184588,-1.13287,0.00275089,0.0144444,748,617,-7.76332,6.47384
-469,407,-7.8139,-6.95776,-0.000678155,0.00180194,-0.00165503,0.00262995,-0.00150616,-1.10691,0.00241719,0.0128403,755,617,-7.81391,6.95775
-462,407,-7.82599,-7.46106,-0.000366354,0.00149435,-0.00143193,0.00227162,-0.00114362,-1.07349,0.00200732,0.0192136,762,617,-7.826,7.46107
-455,407,-7.85663,-7.96344,-0.000276913,0.0011063,-0.00102506,0.00165125,-0.000821863,-1.08217,0.00145437,0.020366,769,617,-7.85662,7.96344
-448,407,-7.86133,-8.42767,-0.000314651,0.000515138,-0.000409186,0.000682971,-0.000482483,-1.18156,0.000676186,0.0187251,776,617,-7.8613,8.42769
-441,407,-7.84821,-8.86981,-0.00068757,-0.000198587,0.000423122,4.56019e-05,-0.000931759,1.04738,0.000636918,0.0152322,783,617,-7.8482,8.86979
-434,407,-7.88324,-9.31714,-0.00127099,-0.000949855,0.00137809,0.000276991,-0.00249783,0.843393,0.00176481,0.0107866,790,617,-7.88325,9.31717
-427,407,-7.88397,-9.79156,-0.00211432,-0.00190604,0.00252959,0.000521549,-0.00454191,0.805971,0.00321592,0.0111557,797,617,-7.88396,9.79156
-420,407,-7.86896,-10.2529,-0.00331883,-0.00302048,0.00392,0.00075318,-0.00709249,0.804417,0.00499834,0.0110334,804,617,-7.86897,10.2529
-413,407,-7.87207,-10.7166,-0.00493168,-0.0041067,0.00555822,0.00105432,-0.0100927,0.822437,0.00710602,0.0132741,811,617,-7.87206,10.7166
-406,407,-7.96436,-11.0601,-0.00704394,-0.00561748,0.00746593,0.00116921,-0.0138306,0.833019,0.00963384,0.0360041,818,617,-7.96438,11.0601
-399,407,-8.16815,-11.5162,0,0,0,0,0,0,0,-1,825,617,-8.16816,11.5162
-392,407,-7.89105,-11.741,0,0,0,0,0,0,0,-1,832,617,-7.89103,11.7409
-385,407,-7.65765,-10.7744,0,0,0,0,0,0,0,-1,839,617,-7.65767,10.7744
-378,407,-6.08655,-7.42291,0,0,0,0,0,0,0,-1,846,617,-6.08652,7.42292
-371,407,-7.4007,-5.79449,0,0,0,0,0,0,0,-1,853,617,-7.40072,5.79447
-364,407,-10.0638,-6.6228,0,0,0,0,0,0,0,-1,860,617,-10.0639,6.62279
-357,407,-6.64447,-1.83337,0,0,0,0,0,0,0,-1,867,617,-6.64446,1.8334
-350,407,-7.03351,-1.77551,0,0,0,0,0,0,0,-1,874,617,-7.03349,1.77551
-343,407,-7.40967,-1.95026,0,0,0,0,0,0,0,-1,881,617,-7.40969,1.95026
-336,407,-8.10229,-2.40662,0,0,0,0,0,0,0,-1,888,617,-8.10229,2.40664
-329,407,-8.81232,-2.76331,0,0,0,0,0,0,0,-1,895,617,-8.81235,2.76331
-322,407,0,0,0,0,0,0,0,0,0,-1,902,617,0,0
-315,407,0,0,0,0,0,0,0,0,0,-1,909,617,0,0
-308,407,0,0,0,0,0,0,0,0,0,-1,916,617,0,0
-301,407,0,0,0,0,0,0,0,0,0,-1,923,617,0,0
-294,407,0,0,0,0,0,0,0,0,0,-1,930,617,0,0
-287,407,0,0,0,0,0,0,0,0,0,-1,937,617,0,0
-280,407,0,0,0,0,0,0,0,0,0,-1,944,617,0,0
-273,407,0,0,0,0,0,0,0,0,0,-1,951,617,0,0
-266,407,0,0,0,0,0,0,0,0,0,-1,958,617,0,0
-259,407,0,0,0,0,0,0,0,0,0,-1,965,617,0,0
-252,407,0,0,0,0,0,0,0,0,0,-1,972,617,0,0
-245,407,0,0,0,0,0,0,0,0,0,-1,979,617,0,0
-238,407,0,0,0,0,0,0,0,0,0,-1,986,617,0,0
-231,407,0,0,0,0,0,0,0,0,0,-1,993,617,0,0
-224,407,0,0,0,0,0,0,0,0,0,-1,1000,617,0,0
-217,407,0,0,0,0,0,0,0,0,0,-1,1007,617,0,0
-210,407,0,0,0,0,0,0,0,0,0,-1,1014,617,0,0
-203,407,0,0,0,0,0,0,0,0,0,-1,1021,617,0,0
-196,407,0,0,0,0,0,0,0,0,0,-1,1028,617,0,0
-189,407,0,0,0,0,0,0,0,0,0,-1,1035,617,0,0
-182,407,0,0,0,0,0,0,0,0,0,-1,1042,617,0,0
-175,407,0,0,0,0,0,0,0,0,0,-1,1049,617,0,0
-168,407,0,0,0,0,0,0,0,0,0,-1,1056,617,0,0
-161,407,0,0,0,0,0,0,0,0,0,-1,1063,617,0,0
-154,407,0,0,0,0,0,0,0,0,0,-1,1070,617,0,0
-147,407,0,0,0,0,0,0,0,0,0,-1,1077,617,0,0
-140,407,0,0,0,0,0,0,0,0,0,-1,1084,617,0,0
-133,407,0,0,0,0,0,0,0,0,0,-1,1091,617,0,0
-126,407,0,0,0,0,0,0,0,0,0,-1,1098,617,0,0
-119,407,0,0,0,0,0,0,0,0,0,-1,1105,617,0,0
-112,407,0,0,0,0,0,0,0,0,0,-1,1112,617,0,0
-105,407,0,0,0,0,0,0,0,0,0,-1,1119,617,0,0
-98,407,0,0,0,0,0,0,0,0,0,-1,1126,617,0,0
-91,407,0,0,0,0,0,0,0,0,0,-1,1133,617,0,0
-84,407,0,0,0,0,0,0,0,0,0,-1,1140,617,0,0
-77,407,0,0,0,0,0,0,0,0,0,-1,1147,617,0,0
-70,407,0,0,0,0,0,0,0,0,0,-1,1154,617,0,0
-63,407,0,0,0,0,0,0,0,0,0,-1,1161,617,0,0
-56,407,0,0,0,0,0,0,0,0,0,-1,1168,617,0,0
-49,407,0,0,0,0,0,0,0,0,0,-1,1175,617,0,0
-42,407,0,0,0,0,0,0,0,0,0,-1,1182,617,0,0
-35,407,0,0,0,0,0,0,0,0,0,-1,1189,617,0,0
-28,407,0,0,0,0,0,0,0,0,0,-1,1196,617,0,0
-21,407,0,0,0,0,0,0,0,0,0,-1,1203,617,0,0
-14,407,0,0,0,0,0,0,0,0,0,-1,1210,617,0,0
-7,407,0,0,0,0,0,0,0,0,0,-1,1217,617,0,0
0,407,0,0,0,0,0,0,0,0,0,-1,1224,617,0,0
7,407,0,0,0,0,0,0,0,0,0,-1,1231,617,0,0
14,407,0,0,0,0,0,0,0,0,0,-1,1238,617,0,0
21,407,0,0,0,0,0,0,0,0,0,-1,1245,617,0,0
28,407,0,0,0,0,0,0,0,0,0,-1,1252,617,0,0
35,407,0,0,0,0,0,0,0,0,0,-1,1259,617,0,0
42,407,0,0,0,0,0,0,0,0,0,-1,1266,617,0,0
49,407,0,0,0,0,0,0,0,0,0,-1,1273,617,0,0
56,407,0,0,0,0,0,0,0,0,0,-1,1280,617,0,0
63,407,0,0,0,0,0,0,0,0,0,-1,1287,617,0,0
70,407,0,0,0,0,0,0,0,0,0,-1,1294,617,0,0
77,407,0,0,0,0,0,0,0,0,0,-1,1301,617,0,0
84,407,0,0,0,0,0,0,0,0,0,-1,1308,617,0,0
91,407,0,0,0,0,0,0,0,0,0,-1,1315,617,0,0
98,407,0,0,0,0,0,0,0,0,0,-1,1322,617,0,0
105,407,0,0,0,0,0,0,0,0,0,-1,1329,617,0,0
112,407,0,0,0,0,0,0,0,0,0,-1,1336,617,0,0
119,407,0,0,0,0,0,0,0,0,0,-1,1343,617,0,0
126,407,0,0,0,0,0,0,0,0,0,-1,1350,617,0,0
133,407,0,0,0,0,0,0,0,0,0,-1,1357,617,0,0
140,407,0,0,0,0,0,0,0,0,0,-1,1364,617,0,0
147,407,0,0,0,0,0,0,0,0,0,-1,1371,617,0,0
154,407,0,0,0,0,0,0,0,0,0,-1,1378,617,0,0
161,407,0,0,0,0,0,0,0,0,0,-1,1385,617,0,0
168,407,0,0,0,0,0,0,0,0,0,-1,1392,617,0,0
175,407,0,0,0,0,0,0,0,0,0,-1,1399,617,0,0
182,407,0,0,0,0,0,0,0,0,0,-1,1406,617,0,0
189,407,0,0,0,0,0,0,0,0,0,-1,1413,617,0,0
196,407,0,0,0,0,0,0,0,0,0,-1,1420,617,0,0
203,407,0,0,0,0,0,0,0,0,0,-1,1427,617,0,0
210,407,0,0,0,0,0,0,0,0,0,-1,1434,617,0,0
217,407,0,0,0,0,0,0,0,0,0,-1,1441,617,0,0
224,407,0,0,0,0,0,0,0,0,0,-1,1448,617,0,0
231,407,0,0,0,0,0,0,0,0,0,-1,1455,617,0,0
238,407,0,0,0,0,0,0,0,0,0,-1,1462,617,0,0
245,407,0,0,0,0,0,0,0,0,0,-1,1469,617,0,0
252,407,0,0,0,0,0,0,0,0,0,-1,1476,617,0,0
259,407,0,0,0,0,0,0,0,0,0,-1,1483,617,0,0
266,407,0,0,0,0,0,0,0,0,0,-1,1490,617,0,0
273,407,0,0,0,0,0,0,0,0,0,-1,1497,617,0,0
280,407,0,0,0,0,0,0,0,0,0,-1,1504,617,0,0
287,407,0,0,0,0,0,0,0,0,0,-1,1511,617,0,0
294,407,0,0,0,0,0,0,0,0,0,-1,1518,617,0,0
301,407,0,0,0,0,0,0,0,0,0,-1,1525,617,0,0
308,407,0,0,0,0,0,0,0,0,0,-1,1532,617,0,0
315,407,0,0,0,0,0,0,0,0,0,-1,1539,617,0,0
322,407,0,0,0,0,0,0,0,0,0,-1,1546,617,0,0
329,407,0,0,0,0,0,0,0,0,0,-1,1553,617,0,0
336,407,0,0,0,0,0,0,0,0,0,-1,1560,617,0,0
343,407,0,0,0,0,0,0,0,0,0,-1,1567,617,0,0
350,407,0,0,0,0,0,0,0,0,0,-1,1574,617,0,0
357,407,0,0,0,0,0,0,0,0,0,-1,1581,617,0,0
364,407,0,0,0,0,0,0,0,0,0,-1,1588,617,0,0
371,407,0,0,0,0,0,0,0,0,0,-1,1595,617,0,0
378,407,0,0,0,0,0,0,0,0,0,-1,1602,617,0,0
385,407,0,0,0,0,0,0,0,0,0,-1,1609,617,0,0
392,407,0,0,0,0,0,0,0,0,0,-1,1616,617,0,0
399,407,0,0,0,0,0,0,0,0,0,-1,1623,617,0,0
406,407,0,0,0,0,0,0,0,0,0,-1,1630,617,0,0
413,407,0,0,0,0,0,0,0,0,0,-1,1637,617,0,0
420,407,0,0,0,0,0,0,0,0,0,-1,1644,617,0,0
427,407,0,0,0,0,0,0,0,0,0,-1,1651,617,0,0
434,407,0,0,0,0,0,0,0,0,0,-1,1658,617,0,0
441,407,0,0,0,0,0,0,0,0,0,-1,1665,617,0,0
448,407,7.02893,2.13843,0,0,0,0,0,0,0,-1,1672,617,7.02899,-2.13844
455,407,7.55237,2.29242,0,0,0,0,0,0,0,-1,1679,617,7.55236,-2.29244
462,407,8.2926,2.46173,0,0,0,0,0,0,0,-1,1686,617,8.29261,-2.46174
469,407,8.71509,2.22681,0,0,0,0,0,0,0,-1,1693,617,8.71511,-2.22681
476,407,8.89917,1.47766,0,0,0,0,0,0,0,-1,1700,617,8.89914,-1.47768
483,407,9.02612,0.682983,0,0,0,0,0,0,0,-1,1707,617,9.02608,-0.683004
490,407,9.12659,0.000671387,0,0,0,0,0,0,0,-1,1714,617,9.12653,-0.000675931
497,407,7.76819,0.855835,0,0,0,0,0,0,0,-1,1721,617,7.7682,-0.855865
504,407,4.69336,0.160706,0,0,0,0,0,0,0,-1,1728,617,4.69337,-0.1607
511,407,4.07104,-0.00140381,0,0,0,0,0,0,0,-1,1735,617,4.07109,0.00141425
518,407,6.09534,1.9411,0,0,0,0,0,0,0,-1,1742,617,6.09532,-1.94113
525,407,5.72534,-1.35986,0,0,0,0,0,0,0,-1,1749,617,5.72529,1.35988
532,407,16.6392,-9.23566,0,0,0,0,0,0,0,-1,1756,617,16.6391,9.23565
539,407,16.4795,-9.35663,0,0,0,0,0,0,0,-1,1763,617,16.4795,9.35665
546,407,16.5948,-8.68829,0.00491219,0.0023495,0.00178797,0.00583054,0.00143115,0.474493,0.00350866,0.0190511,1770,617,16.5949,8.68827
553,407,16.5847,-8.20776,0.00409073,0.00161687,0.00127993,0.00463375,0.00107386,0.401239,0.0028007,0.0151973,1777,617,16.5847,8.20775
560,407,16.6056,-7.68524,0.00325666,0.00101753,0.00084657,0.0035407,0.00073349,0.323716,0.00215793,0.0156583,1784,617,16.6056,7.68526
567,407,16.5781,-7.20624,0.00245859,0.000852907,0.000685466,0.00271141,0.000600089,0.353347,0.00164449,0.0274862,1791,617,16.5782,7.20623
574,407,16.558,-6.73547,0.00181268,0.000935551,0.000726469,0.0022227,0.000525531,0.513833,0.00134139,0.0244053,1798,617,16.5579,6.7355
581,407,16.5332,-6.24042,0.00122484,0.00125385,0.000919396,0.00215885,0.000319833,0.793286,0.00134536,0.0167658,1805,617,16.5333,6.24044
588,407,16.521,-5.75714,0.000681172,0.00183812,0.00122667,0.00261587,-9.65782e-05,1.00573,0.00177698,0.0114935,1812,617,16.521,5.75714
595,407,16.5327,-5.27271,0.000402858,0.00275928,0.00179324,0.00372674,-0.000564602,1.07605,0.0026925,0.0222799,1819,617,16.5328,5.27268
602,407,16.5193,-4.72717,0.000390628,0.00398145,0.00259124,0.0053385,-0.000966421,1.08836,0.00392104,0.0192027,1826,617,16.5193,4.72717
609,407,16.4786,-4.20715,0.000616871,0.00555442,0.00361395,0.00746234,-0.00129105,1.08505,0.0054564,0.0152719,1833,617,16.4786,4.20715
616,407,16.537,-3.61517,0.00121477,0.0075665,0.00492649,0.0102521,-0.0014708,1.0717,0.00737403,0.0281017,1840,617,16.537,3.61519
623,407,16.8065,-2.89886,0,0,0,0,0,0,0,-1,1847,617,16.8066,2.89889
630,407,7.06177,0.814575,0,0,0,0,0,0,0,-1,1854,617,7.06178,-0.814579
637,407,8.41431,0.507019,0,0,0,0,0,0,0,-1,1861,617,8.41428,-0.507005
644,407,5.09766,2.27747,0,0,0,0,0,0,0,-1,1868,617,5.09764,-2.27746
651,407,7.37524,0.0513916,0,0,0,0,0,0,0,-1,1875,617,7.3752,-0.0513923
658,407,3.76685,0.594177,0,0,0,0,0,0,0,-1,1882,617,3.76683,-0.594184
665,407,5.76123,0.375061,0,0,0,0,0,0,0,-1,1889,617,5.76118,-0.37509
672,407,0,0,0,0,0,0,0,0,0,-1,1896,617,0,0
679,407,0,0,0,0,0,0,0,0,0,-1,1903,617,0,0
686,407,0,0,0,0,0,0,0,0,0,-1,1910,617,0,0
693,407,0,0,0,0,0,0,0,0,0,-1,1917,617,0,0
700,407,0,0,0,0,0,0,0,0,0,-1,1924,617,0,0
707,407,0,0,0,0,0,0,0,0,0,-1,1931,617,0,0
714,407,0,0,0,0,0,0,0,0,0,-1,1938,617,0,0
721,407,0,0,0,0,0,0,0,0,0,-1,1945,617,0,0
728,407,0,0,0,0,0,0,0,0,0,-1,1952,617,0,0
735,407,0,0,0,0,0,0,0,0,0,-1,1959,617,0,0
742,407,0,0,0,0,0,0,0,0,0,-1,1966,617,0,0
749,407,0,0,0,0,0,0,0,0,0,-1,1973,617,0,0
756,407,0,0,0,0,0,0,0,0,0,-1,1980,617,0,0
763,407,0,0,0,0,0,0,0,0,0,-1,1987,617,0,0
770,407,0,0,0,0,0,0,0,0,0,-1,1994,617,0,0
777,407,0,0,0,0,0,0,0,0,0,-1,2001,617,0,0
784,407,0,0,0,0,0,0,0,0,0,-1,2008,617,0,0
791,407,0,0,0,0,0,0,0,0,0,-1,2015,617,0,0
798,407,0,0,0,0,0,0,0,0,0,-1,2022,617,0,0
805,407,0,0,0,0,0,0,0,0,0,-1,2029,617,0,0
812,407,0,0,0,0,0,0,0,0,0,-1,2036,617,0,0
-700,400,0,0,0,0,0,0,0,0,0,-1,524,624,0,0
-693,400,0,0,0,0,0,0,0,0,0,-1,531,624,0,0
-686,400,0,0,0,0,0,0,0,0,0,-1,538,624,0,0
-679,400,0,0,0,0,0,0,0,0,0,-1,545,624,0,0
-672,400,0,0,0,0,0,0,0,0,0,-1,552,624,0,0
-665,400,0,0,0,0,0,0,0,0,0,-1,559,624,0,0
-658,400,0,0,0,0,0,0,0,0,0,-1,566,624,0,0
-651,400,0,0,0,0,0,0,0,0,0,-1,573,624,0,0
-644,400,0,0,0,0,0,0,0,0,0,-1,580,624,0,0
-637,400,0,0,0,0,0,0,0,0,0,-1,587,624,0,0
-630,400,0,0,0,0,0,0,0,0,0,-1,594,624,0,0
-623,400,0,0,0,0,0,0,0,0,0,-1,601,624,0,0
-616,400,0,0,0,0,0,0,0,0,0,-1,608,624,0,0
-609,400,0,0,0,0,0,0,0,0,0,-1,615,624,0,0
-602,400,0,0,0,0,0,0,0,0,0,-1,622,624,0,0
-595,400,0,0,0,0,0,0,0,0,0,-1,629,624,0,0
-588,400,0,0,0,0,0,0,0,0,0,-1,636,624,0,0
-581,400,0,0,0,0,0,0,0,0,0,-1,643,624,0,0
-574,400,0,0,0,0,0,0,0,0,0,-1,650,624,0,0
-567,400,0,0,0,0,0,0,0,0,0,-1,657,624,0,0
-560,400,0,0,0,0,0,0,0,0,0,-1,664,624,0,0
-553,400,0,0,0,0,0,0,0,0,0,-1,671,624,0,0
-546,400,-8.41174,-1.4599,0,0,0,0,0,0,0,-1,678,624,-8.41173,1.45989
-539,400,-5.69104,-1.7337,0,0,0,0,0,0,0,-1,685,624,-5.69103,1.7337
-532,400,-3.03632,-2.03912,0,0,0,0,0,0,0,-1,692,624,-3.03632,2.03909
-525,400,-6.20813,-7.04071,0,0,0,0,0,0,0,-1,699,624,-6.20814,7.04071
-518,400,-5.26544,-1.58661,0,0,0,0,0,0,0,-1,706,624,-5.26544,1.58658
-511,400,-8.35797,-5.95667,0,0,0,0,0,0,0,-1,713,624,-8.35796,5.95669
-504,400,-8.1485,-5.47534,0,0,0,0,0,0,0,-1,720,624,-8.14849,5.47536
-497,400,-8.21338,-5.05615,-0.000986624,0.0016504,-0.00117963,0.00210107,-0.00143729,-1.20587,0.00205482,0.0397736,727,624,-8.21339,5.05613
-490,400,-8.22046,-5.46545,-0.000830837,0.00164579,-0.00136311,0.00224908,-0.00143412,-1.15413,0.00214378,0.0241215,734,624,-8.22047,5.46543
-483,400,-8.23175,-5.98865,-0.000703315,0.00152564,-0.00138962,0.00219248,-0.00137016,-1.12338,0.00207507,0.01714,741,624,-8.23175,5.98866
-476,400,-8.23822,-6.45288,-0.000484512,0.00140881,-0.00136329,0.00212188,-0.00119759,-1.08888,0.0019411,0.0140021,748,624,-8.23822,6.45286
-469,400,-8.25684,-6.95679,-0.000173075,0.00126351,-0.00130175,0.00203199,-0.000941556,-1.03751,0.00175483,0.0140369,755,624,-8.25686,6.95678
-462,400,-8.28058,-7.46423,4.79783e-05,0.00102019,-0.00114362,0.00177673,-0.000708561,-0.986359,0.0014784,0.018787,762,624,-8.28056,7.46426
-455,400,-8.29669,-7.92999,-2.58325e-05,0.000694935,-0.00071795,0.00113787,-0.000468772,-1.01801,0.000954035,0.0196485,769,624,-8.29671,7.93002
-448,400,-8.31659,-8.40387,-0.000171645,0.000184364,-0.000121785,0.000222038,-0.000209319,-1.27079,0.00024908,0.0153082,776,624,-8.31661,8.40388
-441,400,-8.32019,-8.82391,-0.000674501,-0.000527871,0.000733018,0.000135489,-0.00133786,0.835242,0.00094033,0.0148005,783,624,-8.32019,8.82394
-434,400,-8.34576,-9.26727,-0.00143553,-0.00125549,0.00174463,0.000401443,-0.00309247,0.811174,0.00220766,0.0113931,790,624,-8.34576,9.26728
-427,400,-8.35895,-9.73676,-0.00256274,-0.00220735,0.00302494,0.000645113,-0.00541521,0.814736,0.00384326,0.0099009,797,624,-8.35894,9.73673
-420,400,-8.31024,-10.2445,-0.00421672,-0.00342547,0.00467535,0.000870958,-0.00851315,0.827607,0.00598691,0.0157201,804,624,-8.31024,10.2445
-413,400,-8.39044,-10.6527,-0.00646176,-0.0045878,0.00666167,0.00120246,-0.012252,0.855266,0.00859691,0.0356483,811,624,-8.39046,10.6527
-406,400,-8.94299,-10.9407,-0.00953362,-0.00645473,0.00916784,0.00130202,-0.0172904,0.868581,0.0119845,0.0492061,818,624,-8.94299,10.9407
-399,400,-9.10529,-11.3207,0,0,0,0,0,0,0,-1,825,624,-9.10526,11.3208
-392,400,-4.92285,-6.63354,0,0,0,0,0,0,0,-1,832,624,-4.92285,6.63354
-385,400,-3.68738,-5.04205,0,0,0,0,0,0,0,-1,839,624,-3.68736,5.04207
-378,400,-6.84064,-1.28662,0,0,0,0,0,0,0,-1,846,624,-6.84062,1.28662
-371,400,-6.98865,-1.2572,0,0,0,0,0,0,0,-1,853,624,-6.98865,1.25721
-364,400,-6.97247,-1.24133,0,0,0,0,0,0,0,-1,860,624,-6.97249,1.24135
-357,400,-7.18329,-1.23218,0,0,0,0,0,0,0,-1,867,624,-7.18327,1.2322
-350,400,-7.40186,-1.19409,0,0,0,0,0,0,0,-1,874,624,-7.40187,1.19407
-343,400,-8.09357,-1.51147,0,0,0,0,0,0,0,-1,881,624,-8.09355,1.51148
-336,400,0,0,0,0,0,0,0,0,0,-1,888,624,0,0
-329,400,0,0,0,0,0,0,0,0,0,-1,895,624,0,0
-322,400,0,0,0,0,0,0,0,0,0,-1,902,624,0,0
-315,400,0,0,0,0,0,0,0,0,0,-1,909,624,0,0
-308,400,0,0,0,0,0,0,0,0,0,-1,916,624,0,0
-301,400,0,0,0,0,0,0,0,0,0,-1,923,624,0,0
-294,400,0,0,0,0,0,0,0,0,0,-1,930,624,0,0
-287,400,0,0,0,0,0,0,0,0,0,-1,937,624,0,0
-280,400,0,0,0,0,0,0,0,0,0,-1,944,624,0,0
-273,400,0,0,0,0,0,0,0,0,0,-1,951,624,0,0
-266,400,0,0,0,0,0,0,0,0,0,-1,958,624,0,0
-259,400,0,0,0,0,0,0,0,0,0,-1,965,624,0,0
-252,400,0,0,0,0,0,0,0,0,0,-1,972,624,0,0
-245,400,0,0,0,0,0,0,0,0,0,-1,979,624,0,0
-238,400,0,0,0,0,0,0,0,0,0,-1,986,624,0,0
-231,400,0,0,0,0,0,0,0,0,0,-1,993,624,0,0
-224,400,0,0,0,0,0,0,0,0,0,-1,1000,624,0,0
-217,400,0,0,0,0,0,0,0,0,0,-1,1007,624,0,0
-210,400,0,0,0,0,0,0,0,0,0,-1,1014,624,0,0
-203,400,0,0,0,0,0,0,0,0,0,-1,1021,624,0,0
-196,400,0,0,0,0,0,0,0,0,0,-1,1028,624,0,0
-189,400,0,0,0,0,0,0,0,0,0,-1,1035,624,0,0
-182,400,0,0,0,0,0,0,0,0,0,-1,1042,624,0,0
-175,400,0,0,0,0,0,0,0,0,0,-1,1049,624,0,0
-168,400,0,0,0,0,0,0,0,0,0,-1,1056,624,0,0
-161,400,0,0,0,0,0,0,0,0,0,-1,1063,624,0,0
-154,400,0,0,0,0,0,0,0,0,0,-1,1070,624,0,0
-147,400,0,0,0,0,0,0,0,0,0,-1,1077,624,0,0
-140,400,0,0,0,0,0,0,0,0,0,-1,1084,624,0,0
-133,400,0,0,0,0,0,0,0,0,0,-1,1091,624,0,0
-126,400,0,0,0,0,0,0,0,0,0,-1,1098,624,0,0
-119,400,0,0,0,0,0,0,0,0,0,-1,1105,624,0,0
-112,400,0,0,0,0,0,0,0,0,0,-1,1112,624,0,0
-105,400,0,0,0,0,0,0,0,0,0,-1,1119,624,0,0
-98,400,0,0,0,0,0,0,0,0,0,-1,1126,624,0,0
-91,400,0,0,0,0,0,0,0,0,0,-1,1133,624,0,0
-84,400,0,0,0,0,0,0,0,0,0,-1,1140,624,0,0
-77,400,0,0,0,0,0,0,0,0,0,-1,1147,624,0,0
-70,400,0,0,0,0,0,0,0,0,0,-1,1154,624,0,0
-63,400,0,0,0,0,0,0,0,0,0,-1,1161,624,0,0
-56,400,0,0,0,0,0,0,0,0,0,-1,1168,624,0,0
-49,400,0,0,0,0,0,0,0,0,0,-1,1175,624,0,0
-42,400,0,0,0,0,0,0,0,0,0,-1,1182,624,0,0
-35,400,0,0,0,0,0,0,0,0,0,-1,1189,624,0,0
-28,400,0,0,0,0,0,0,0,0,0,-1,1196,624,0,0
-21,400,0,0,0,0,0,0,0,0,0,-1,1203,624,0,0
-14,400,0,0,0,0,0,0,0,0,0,-1,1210,624,0,0
-7,400,0,0,0,0,0,0,0,0,0,-1,1217,624,0,0
0,400,0,0,0,0,0,0,0,0,0,-1,1224,624,0,0
7,400,0,0,0,0,0,0,0,0,0,-1,1231,624,0,0
14,400,0,0,0,0,0,0,0,0,0,-1,1238,624,0,0
21,400,0,0,0,0,0,0,0,0,0,-1,1245,624,0,0
28,400,0,0,0,0,0,0,0,0,0,-1,1252,624,0,0
35,400,0,0,0,0,0,0,0,0,0,-1,1259,624,0,0
42,400,0,0,0,0,0,0,0,0,0,-1,1266,624,0,0
49,400,0,0,0,0,0,0,0,0,0,-1,1273,624,0,0
56,400,0,0,0,0,0,0,0,0,0,-1,1280,624,0,0
63,400,0,0,0,0,0,0,0,0,0,-1,1287,624,0,0
70,400,0,0,0,0,0,0,0,0,0,-1,1294,624,0,0
77,400,0,0,0,0,0,0,0,0,0,-1,1301,624,0,0
84,400,0,0,0,0,0,0,0,0,0,-1,1308,624,0,0
91,400,0,0,0,0,0,0,0,0,0,-1,1315,624,0,0
98,400,0,0,0,0,0,0,0,0,0,-1,1322,624,0,0
105,400,0,0,0,0,0,0,0,0,0,-1,1329,624,0,0
112,400,0,0,0,0,0,0,0,0,0,-1,1336,624,0,0
119,400,0,0,0,0,0,0,0,0,0,-1,1343,624,0,0
126,400,0,0,0,0,0,0,0,0,0,-1,1350,624,0,0
133,400,0,0,0,0,0,0,0,0,0,-1,1357,624,0,0
140,400,0,0,0,0,0,0,0,0,0,-1,1364,624,0,0
147,400,0,0,0,0,0,0,0,0,0,-1,1371,624,0,0
154,400,0,0,0,0,0,0,0,0,0,-1,1378,624,0,0
161,400,0,0,0,0,0,0,0,0,0,-1,1385,624,0,0
168,400,0,0,0,0,0,0,0,0,0,-1,1392,624,0,0
175,400,0,0,0,0,0,0,0,0,0,-1,1399,624,0,0
182,400,0,0,0,0,0,0,0,0,0,-1,1406,624,0,0
189,400,0,0,0,0,0,0,0,0,0,-1,1413,624,0,0
196,400,0,0,0,0,0,0,0,0,0,-1,1420,624,0,0
203,400,0,0,0,0,0,0,0,0,0,-1,1427,624,0,0
210,400,0,0,0,0,0,0,0,0,0,-1,1434,624,0,0
217,400,0,0,0,0,0,0,0,0,0,-1,1441,624,0,0
224,400,0,0,0,0,0,0,0,0,0,-1,1448,624,0,0
231,400,0,0,0,0,0,0,0,0,0,-1,1455,624,0,0
238,400,0,0,0,0,0,0,0,0,0,-1,1462,624,0,0
245,400,0,0,0,0,0,0,0,0,0,-1,1469,624,0,0
252,400,0,0,0,0,0,0,0,0,0,-1,1476,624,0,0
259,400,0,0,0,0,0,0,0,0,0,-1,1483,624,0,0
266,400,0,0,0,0,0,0,0,0,0,-1,1490,624,0,0
273,400,0,0,0,0,0,0,0,0,0,-1,1497,624,0,0
280,400,0,0,0,0,0,0,0,0,0,-1,1504,624,0,0
287,400,0,0,0,0,0,0,0,0,0,-1,1511,624,0,0
294,400,0,0,0,0,0,0,0,0,0,-1,1518,624,0,0
301,400,0,0,0,0,0,0,0,0,0,-1,1525,624,0,0
308,400,0,0,0,0,0,0,0,0,0,-1,1532,624,0,0
315,400,0,0,0,0,0,0,0,0,0,-1,1539,624,0,0
322,400,0,0,0,0,0,0,0,0,0,-1,1546,624,0,0
329,400,0,0,0,0,0,0,0,0,0,-1,1553,624,0,0
336,400,0,0,0,0,0,0,0,0,0,-1,1560,624,0,0
343,400,0,0,0,0,0,0,0,0,0,-1,1567,624,0,0
350,400,0,0,0,0,0,0,0,0,0,-1,1574,624,0,0
357,400,0,0,0,0,0,0,0,0,0,-1,1581,624,0,0
364,400,0,0,0,0,0,0,0,0,0,-1,1588,624,0,0
371,400,0,0,0,0,0,0,0,0,0,-1,1595,624,0,0
378,400,0,0,0,0,0,0,0,0,0,-1,1602,624,0,0
385,400,0,0,0,0,0,0,0,0,0,-1,1609,624,0,0
392,400,0,0,0,0,0,0,0,0,0,-1,1616,624,0,0
399,400,0,0,0,0,0,0,0,0,0,-1,1623,624,0,0
406,400,0,0,0,0,0,0,0,0,0,-1,1630,624,0,0
413,400,0,0,0,0,0,0,0,0,0,-1,1637,624,0,0
420,400,0,0,0,0,0,0,0,0,0,-1,1644,624,0,0
427,400,0,0,0,0,0,0,0,0,0,-1,1651,624,0,0
434,400,0,0,0,0,0,0,0,0,0,-1,1658,624,0,0
441,400,0,0,0,0,0,0,0,0,0,-1,1665,624,0,0
448,400,0,0,0,0,0,0,0,0,0,-1,1672,624,0,0
455,400,8.91309,2.75885,0,0,0,0,0,0,0,-1,1679,624,8.91312,-2.75885
462,400,8.90356,2.37878,0,0,0,0,0,0,0,-1,1686,624,8.90353,-2.37878
469,400,9.14429,1.76849,0,0,0,0,0,0,0,-1,1693,624,9.14432,-1.76847
476,400,9.23254,1.25995,0,0,0,0,0,0,0,-1,1700,624,9.23252,-1.25994
483,400,9.59766,0.562439,0,0,0,0,0,0,0,-1,1707,624,9.59771,-0.56242
490,400,9.92578,-0.213745,0,0,0,0,0,0,0,-1,1714,624,9.92579,0.21376
497,400,9.19141,0.175232,0,0,0,0,0,0,0,-1,1721,624,9.19138,-0.175209
504,400,9.23438,0.00823975,0,0,0,0,0,0,0,-1,1728,624,9.23436,-0.00823766
511,400,6.16687,3.3501,0,0,0,0,0,0,0,-1,1735,624,6.16682,-3.35007
518,400,6.55237,1.74994,0,0,0,0,0,0,0,-1,1742,624,6.55236,-1.74993
525,400,6.99731,1.08783,0,0,0,0,0,0,0,-1,1749,624,6.99736,-1.08785
532,400,6.96582,-1.74982,0,0,0,0,0,0,0,-1,1756,624,6.96585,1.74983
539,400,16.0278,-8.40637,0,0,0,0,0,0,0,-1,1763,624,16.0278,8.40635
546,400,17.113,-8.68365,0,0,0,0,0,0,0,-1,1770,624,17.1131,8.68364
553,400,17.0273,-8.20715,0.00508798,0.00173763,0.0012453,0.00550014,0.00132547,0.319628,0.00331449,0.0302329,1777,624,17.0273,8.20713
560,400,17.0978,-7.66156,0.00414716,0.000990822,0.000781078,0.00432987,0.000808111,0.229791,0.00265847,0.0141835,1784,624,17.0978,7.66156
567,400,17.0812,-7.18372,0.00323685,0.000767434,0.000617455,0.00338263,0.000621652,0.231856,0.00207909,0.0179589,1791,624,17.0811,7.18374
574,400,17.0499,-6.71991,0.00252114,0.00082462,0.000664983,0.00275072,0.000595035,0.332436,0.00167116,0.0201435,1798,624,17.0499,6.7199
581,400,17.0038,-6.21765,0.00189141,0.00111227,0.000853198,0.00243977,0.00056391,0.571232,0.00147493,0.0183378,1805,624,17.0038,6.21768
588,400,16.996,-5.70135,0.00132858,0.00162432,0.00112978,0.00261586,0.000337033,0.85047,0.00164312,0.014586,1812,624,16.9959,5.70137
595,400,17.0071,-5.23541,0.00106784,0.0024096,0.00163658,0.00350747,-3.00298e-05,0.979916,0.00234839,0.0145249,1819,624,17.0071,5.23542
602,400,17.0099,-4.73065,0.00110636,0.00345142,0.00236504,0.00491864,-0.000360857,1.01553,0.00340575,0.0144151,1826,624,17.0098,4.73065
609,400,16.9617,-4.21924,0.00126985,0.00474412,0.00322583,0.00667081,-0.000656833,1.03239,0.00468154,0.0129069,1833,624,16.9617,4.21925
616,400,16.9567,-3.72986,0.00158133,0.00626212,0.00418734,0.00871873,-0.000875282,1.04023,0.00612513,0.0169594,1840,624,16.9567,3.72984
623,400,17.1089,-2.93164,0,0,0,0,0,0,0,-1,1847,624,17.1089,2.93161
630,400,11.9432,0.09021,0,0,0,0,0,0,0,-1,1854,624,11.9432,-0.0902007
637,400,6.92896,1.01917,0,0,0,0,0,0,0,-1,1861,624,6.92899,-1.01918
644,400,8.65381,1.4599,0,0,0,0,0,0,0,-1,1868,624,8.65379,-1.45991
651,400,7.90601,0.424072,0,0,0,0,0,0,0,-1,1875,624,7.90598,-0.424097
658,400,8.69031,1.0484,0,0,0,0,0,0,0,-1,1882,624,8.6903,-1.0484
665,400,5.98438,0.522522,0,0,0,0,0,0,0,-1,1889,624,5.98442,-0.522552
672,400,0,0,0,0,0,0,0,0,0,-1,1896,624,0,0
679,400,0,0,0,0,0,0,0,0,0,-1,1903,624,0,0
686,400,0,0,0,0,0,0,0,0,0,-1,1910,624,0,0
693,400,0,0,0,0,0,0,0,0,0,-1,1917,624,0,0
700,400,0,0,0,0,0,0,0,0,0,-1,1924,624,0,0
707,400,0,0,0,0,0,0,0,0,0,-1,1931,624,0,0
714,400,0,0,0,0,0,0,0,0,0,-1,1938,624,0,0
721,400,0,0,0,0,0,0,0,0,0,-1,1945,624,0,0
728,400,0,0,0,0,0,0,0,0,0,-1,1952,624,0,0
735,400,0,0,0,0,0,0,0,0,0,-1,1959,624,0,0
742,400,0,0,0,0,0,0,0,0,0,-1,1966,624,0,0
749,400,0,0,0,0,0,0,0,0,0,-1,1973,624,0,0
756,400,0,0,0,0,0,0,0,0,0,-1,1980,624,0,0
763,400,0,0,0,0,0,0,0,0,0,-1,1987,624,0,0
770,400,0,0,0,0,0,0,0,0,0,-1,1994,624,0,0
777,400,0,0,0,0,0,0,0,0,0,-1,2001,624,0,0
784,400,0,0,0,0,0,0,0,0,0,-1,2008,624,0,0
791,400,0,0,0,0,0,0,0,0,0,-1,2015,624,0,0
798,400,0,0,0,0,0,0,0,0,0,-1,2022,624,0,0
805,400,0,0,0,0,0,0,0,0,0,-1,2029,624,0,0
812,400,0,0,0,0,0,0,0,0,0,-1,2036,624,0,0
-700,393,0,0,0,0,0,0,0,0,0,-1,524,631,0,0
-693,393,0,0,0,0,0,0,0,0,0,-1,531,631,0,0
-686,393,0,0,0,0,0,0,0,0,0,-1,538,631,0,0
-679,393,0,0,0,0,0,0,0,0,0,-1,545,631,0,0
-672,393,0,0,0,0,0,0,0,0,0,-1,552,631,0,0
-665,393,0,0,0,0,0,0,0,0,0,-1,559,631,0,0
-658,393,0,0,0,0,0,0,0,0,0,-1,566,631,0,0
-651,393,0,0,0,0,0,0,0,0,0,-1,573,631,0,0
-644,393,0,0,0,0,0,0,0,0,0,-1,580,631,0,0
-637,393,0,0,0,0,0,0,0,0,0,-1,587,631,0,0
-630,393,0,0,0,0,0,0,0,0,0,-1,594,631,0,0
-623,393,0,0,0,0,0,0,0,0,0,-1,601,631,0,0
-616,393,0,0,0,0,0,0,0,0,0,-1,608,631,0,0
-609,393,0,0,0,0,0,0,0,0,0,-1,615,631,0,0
-602,393,0,0,0,0,0,0,0,0,0,-1,622,631,0,0
-595,393,0,0,0,0,0,0,0,0,0,-1,629,631,0,0
-588,393,0,0,0,0,0,0,0,0,0,-1,636,631,0,0
-581,393,0,0,0,0,0,0,0,0,0,-1,643,631,0,0
-574,393,0,0,0,0,0,0,0,0,0,-1,650,631,0,0
-567,393,0,0,0,0,0,0,0,0,0,-1,657,631,0,0
-560,393,0,0,0,0,0,0,0,0,0,-1,664,631,0,0
-553,393,-2.35107,3.92633,0,0,0,0,0,0,0,-1,671,631,-2.35108,-3.92634
-546,393,-1.78778,2.4856,0,0,0,0,0,0,0,-1,678,631,-1.78778,-2.48557
-539,393,-5.2113,-2.20245,0,0,0,0,0,0,0,-1,685,631,-5.21128,2.20247
-532,393,-2.83643,-2.01624,0,0,0,0,0,0,0,-1,692,631,-2.83642,2.01626
-525,393,-5.9505,-0.952698,0,0,0,0,0,0,0,-1,699,631,-5.95053,0.95268
-518,393,-5.80219,-1.57739,0,0,0,0,0,0,0,-1,706,631,-5.80219,1.57738
-511,393,-6.15527,-2.09906,0,0,0,0,0,0,0,-1,713,631,-6.15526,2.09903
-504,393,-8.99377,-4.08264,0,0,0,0,0,0,0,-1,720,631,-8.99375,4.08261
-497,393,-8.74414,-4.79388,-0.000709947,0.00115773,-0.000691954,0.00138615,-0.000938372,-1.25195,0.00135034,0.0322312,727,631,-8.74414,4.79387
-490,393,-8.69952,-5.49017,-0.00048222,0.00117488,-0.000910789,0.0015776,-0.000884942,-1.15447,0.00144038,0.0173045,734,631,-8.69955,5.49016
-483,393,-8.70038,-5.97937,-0.000295181,0.00111407,-0.00101163,0.00164228,-0.000823392,-1.08959,0.00144949,0.0199697,741,631,-8.70039,5.97937
-476,393,-8.70947,-6.4339,-4.65542e-05,0.00105512,-0.0010678,0.00170578,-0.000697221,-1.02353,0.00142753,0.0163377,748,631,-8.70949,6.43388
-469,393,-8.73273,-6.93005,0.000261393,0.00099474,-0.00109093,0.00177897,-0.000522836,-0.947522,0.00139335,0.0117799,755,631,-8.73272,6.93003
-462,393,-8.75165,-7.45117,0.000429208,0.000828884,-0.00100686,0.00165555,-0.000397455,-0.883363,0.0012573,0.0138044,762,631,-8.75167,7.45115
-455,393,-8.77283,-7.93188,0.000243312,0.000576769,-0.000588733,0.00102193,-0.000201845,-0.923385,0.000757583,0.0140817,769,631,-8.77285,7.93187
-448,393,-8.80145,-8.40186,2.04368e-05,0.000176715,-3.94643e-05,0.000186116,1.10365e-05,-1.33696,0.000120567,0.0137528,776,631,-8.80146,8.40187
-441,393,-8.81293,-8.83197,-0.000569541,-0.000512343,0.000804377,0.000263943,-0.00134583,0.803168,0.000996915,0.0125809,783,631,-8.81293,8.83199
-434,393,-8.81854,-9.25812,-0.001471,-0.00120553,0.00184997,0.000516456,-0.00319299,0.821211,0.00232005,0.0114957,790,631,-8.81851,9.25813
-427,393,-8.77368,-9.75635,-0.00287462,-0.00213496,0.00325222,0.000768391,-0.00577797,0.842013,0.004132,0.0216474,797,631,-8.77371,9.75636
-420,393,-8.78967,-10.2052,-0.0050183,-0.00345629,0.00519309,0.0010142,-0.00948879,0.860035,0.0066896,0.0490281,804,631,-8.78969,10.2052
-413,393,-8.90619,-10.7106,0,0,0,0,0,0,0,-1,811,631,-8.90619,10.7106
-406,393,-9.96436,-11.0736,0,0,0,0,0,0,0,-1,818,631,-9.96436,11.0736
-399,393,-5.07343,-5.92365,0,0,0,0,0,0,0,-1,825,631,-5.07344,5.92364
-392,393,-2.08063,-3.02386,0,0,0,0,0,0,0,-1,832,631,-2.08063,3.02384
-385,393,-3.16931,-0.624756,0,0,0,0,0,0,0,-1,839,631,-3.16928,0.624764
-378,393,-7.33081,-0.872314,0,0,0,0,0,0,0,-1,846,631,-7.33081,0.872325
-371,393,-7.47858,-0.811096,0,0,0,0,0,0,0,-1,853,631,-7.47859,0.811075
-364,393,-7.64917,-0.662415,0,0,0,0,0,0,0,-1,860,631,-7.64917,0.662406
-357,393,-8.09686,-0.726013,0,0,0,0,0,0,0,-1,867,631,-8.09689,0.726029
-350,393,-8.38788,-0.511841,0,0,0,0,0,0,0,-1,874,631,-8.38785,0.511811
-343,393,0,0,0,0,0,0,0,0,0,-1,881,631,0,0
-336,393,0,0,0,0,0,0,0,0,0,-1,888,631,0,0
-329,393,0,0,0,0,0,0,0,0,0,-1,895,631,0,0
-322,393,0,0,0,0,0,0,0,0,0,-1,902,631,0,0
-315,393,0,0,0,0,0,0,0,0,0,-1,909,631,0,0
-308,393,0,0,0,0,0,0,0,0,0,-1,916,631,0,0
-301,393,0,0,0,0,0,0,0,0,0,-1,923,631,0,0
-294,393,0,0,0,0,0,0,0,0,0,-1,930,631,0,0
-287,393,0,0,0,0,0,0,0,0,0,-1,937,631,0,0
-280,393,0,0,0,0,0,0,0,0,0,-1,944,631,0,0
-273,393,0,0,0,0,0,0,0,0,0,-1,951,631,0,0
-266,393,0,0,0,0,0,0,0,0,0,-1,958,631,0,0
-259,393,0,0,0,0,0,0,0,0,0,-1,965,631,0,0
-252,393,0,0,0,0,0,0,0,0,0,-1,972,631,0,0
-245,393,0,0,0,0,0,0,0,0,0,-1,979,631,0,0
-238,393,0,0,0,0,0,0,0,0,0,-1,986,631,0,0
-231,393,0,0,0,0,0,0,0,0,0,-1,993,631,0,0
-224,393,0,0,0,0,0,0,0,0,0,-1,1000,631,0,0
-217,393,0,0,0,0,0,0,0,0,0,-1,1007,631,0,0
-210,393,0,0,0,0,0,0,0,0,0,-1,1014,631,0,0
-203,393,0,0,0,0,0,0,0,0,0,-1,1021,631,0,0
-196,393,0,0,0,0,0,0,0,0,0,-1,1028,631,0,0
-189,393,0,0,0,0,0,0,0,0,0,-1,1035,631,0,0
-182,393,0,0,0,0,0,0,0,0,0,-1,1042,631,0,0
-175,393,0,0,0,0,0,0,0,0,0,-1,1049,631,0,0
-168,393,0,0,0,0,0,0,0,0,0,-1,1056,631,0,0
-161,393,0,0,0,0,0,0,0,0,0,-1,1063,631,0,0
-154,393,0,0,0,0,0,0,0,0,0,-1,1070,631,0,0
-147,393,0,0,0,0,0,0,0,0,0,-1,1077,631,0,0
-140,393,0,0,0,0,0,0,0,0,0,-1,1084,631,0,0
-133,393,0,0,0,0,0,0,0,0,0,-1,1091,631,0,0
-126,393,0,0,0,0,0,0,0,0,0,-1,1098,631,0,0
-119,393,0,0,0,0,0,0,0,0,0,-1,1105,631,0,0
-112,393,0,0,0,0,0,0,0,0,0,-1,1112,631,0,0
-105,393,0,0,0,0,0,0,0,0,0,-1,1119,631,0,0
-98,393,0,0,0,0,0,0,0,0,0,-1,1126,631,0,0
-91,393,0,0,0,0,0,0,0,0,0,-1,1133,631,0,0
-84,393,0,0,0,0,0,0,0,0,0,-1,1140,631,0,0
-77,393,0,0,0,0,0,0,0,0,0,-1,1147,631,0,0
-70,393,0,0,0,0,0,0,0,0,0,-1,1154,631,0,0
-63,393,0,0,0,0,0,0,0,0,0,-1,1161,631,0,0
-56,393,0,0,0,0,0,0,0,0,0,-1,1168,631,0,0
-49,393,0,0,0,0,0,0,0,0,0,-1,1175,631,0,0
-42,393,0,0,0,0,0,0,0,0,0,-1,1182,631,0,0
-35,393,0,0,0,0,0,0,0,0,0,-1,1189,631,0,0
-28,393,0,0,0,0,0,0,0,0,0,-1,1196,631,0,0
-21,393,0,0,0,0,0,0,0,0,0,-1,1203,631,0,0
-14,393,0,0,0,0,0,0,0,0,0,-1,1210,631,0,0
-7,393,0,0,0,0,0,0,0,0,0,-1,1217,631,0,0
0,393,0,0,0,0,0,0,0,0,0,-1,1224,631,0,0
7,393,0,0,0,0,0,0,0,0,0,-1,1231,631,0,0
14,393,0,0,0,0,0,0,0,0,0,-1,1238,631,0,0
21,393,0,0,0,0,0,0,0,0,0,-1,1245,631,0,0
28,393,0,0,0,0,0,0,0,0,0,-1,1252,631,0,0
35,393,0,0,0,0,0,0,0,0,0,-1,1259,631,0,0
42,393,0,0,0,0,0,0,0,0,0,-1,1266,631,0,0
49,393,0,0,0,0,0,0,0,0,0,-1,1273,631,0,0
56,393,0,0,0,0,0,0,0,0,0,-1,1280,631,0,0
63,393,0,0,0,0,0,0,0,0,0,-1,1287,631,0,0
70,393,0,0,0,0,0,0,0,0,0,-1,1294,631,0,0
77,393,0,0,0,0,0,0,0,0,0,-1,1301,631,0,0
84,393,0,0,0,0,0,0,0,0,0,-1,1308,631,0,0
91,393,0,0,0,0,0,0,0,0,0,-1,1315,631,0,0
98,393,0,0,0,0,0,0,0,0,0,-1,1322,631,0,0
105,393,0,0,0,0,0,0,0,0,0,-1,1329,631,0,0
112,393,0,0,0,0,0,0,0,0,0,-1,1336,631,0,0
119,393,0,0,0,0,0,0,0,0,0,-1,1343,631,0,0
126,393,0,0,0,0,0,0,0,0,0,-1,1350,631,0,0
133,393,0,0,0,0,0,0,0,0,0,-1,1357,631,0,0
140,393,0,0,0,0,0,0,0,0,0,-1,1364,631,0,0
147,393,0,0,0,0,0,0,0,0,0,-1,1371,631,0,0
154,393,0,0,0,0,0,0,0,0,0,-1,1378,631,0,0
161,393,0,0,0,0,0,0,0,0,0,-1,1385,631,0,0
168,393,0,0,0,0,0,0,0,0,0,-1,1392,631,0,0
175,393,0,0,0,0,0,0,0,0,0,-1,1399,631,0,0
182,393,0,0,0,0,0,0,0,0,0,-1,1406,631,0,0
189,393,0,0,0,0,0,0,0,0,0,-1,1413,631,0,0
196,393,0,0,0,0,0,0,0,0,0,-1,1420,631,0,0
203,393,0,0,0,0,0,0,0,0,0,-1,1427,631,0,0
210,393,0,0,0,0,0,0,0,0,0,-1,1434,631,0,0
217,393,0,0,0,0,0,0,0,0,0,-1,1441,631,0,0
224,393,0,0,0,0,0,0,0,0,0,-1,1448,631,0,0
231,393,0,0,0,0,0,0,0,0,0,-1,1455,631,0,0
238,393,0,0,0,0,0,0,0,0,0,-1,1462,631,0,0
245,393,0,0,0,0,0,0,0,0,0,-1,1469,631,0,0
252,393,0,0,0,0,0,0,0,0,0,-1,1476,631,0,0
259,393,0,0,0,0,0,0,0,0,0,-1,1483,631,0,0
266,393,0,0,0,0,0,0,0,0,0,-1,1490,631,0,0
273,393,0,0,0,0,0,0,0,0,0,-1,1497,631,0,0
280,393,0,0,0,0,0,0,0,0,0,-1,1504,631,0,0
287,393,0,0,0,0,0,0,0,0,0,-1,1511,631,0,0
294,393,0,0,0,0,0,0,0,0,0,-1,1518,631,0,0
301,393,0,0,0,0,0,0,0,0,0,-1,1525,631,0,0
308,393,0,0,0,0,0,0,0,0,0,-1,1532,631,0,0
315,393,0,0,0,0,0,0,0,0,0,-1,1539,631,0,0
322,393,0,0,0,0,0,0,0,0,0,-1,1546,631,0,0
329,393,0,0,0,0,0,0,0,0,0,-1,1553,631,0,0
336,393,0,0,0,0,0,0,0,0,0,-1,1560,631,0,0
343,393,0,0,0,0,0,0,0,0,0,-1,1567,631,0,0
350,393,0,0,0,0,0,0,0,0,0,-1,1574,631,0,0
357,393,0,0,0,0,0,0,0,0,0,-1,1581,631,0,0
364,393,0,0,0,0,0,0,0,0,0,-1,1588,631,0,0
371,393,0,0,0,0,0,0,0,0,0,-1,1595,631,0,0
378,393,0,0,0,0,0,0,0,0,0,-1,1602,631,0,0
385,393,0,0,0,0,0,0,0,0,0,-1,1609,631,0,0
392,393,0,0,0,0,0,0,0,0,0,-1,1616,631,0,0
399,393,0,0,0,0,0,0,0,0,0,-1,1623,631,0,0
406,393,0,0,0,0,0,0,0,0,0,-1,1630,631,0,0
413,393,0,0,0,0,0,0,0,0,0,-1,1637,631,0,0
420,393,0,0,0,0,0,0,0,0,0,-1,1644,631,0,0
427,393,0,0,0,0,0,0,0,0,0,-1,1651,631,0,0
434,393,0,0,0,0,0,0,0,0,0,-1,1658,631,0,0
441,393,0,0,0,0,0,0,0,0,0,-1,1665,631,0,0
448,393,0,0,0,0,0,0,0,0,0,-1,1672,631,0,0
455,393,0,0,0,0,0,0,0,0,0,-1,1679,631,0,0
462,393,8.51099,1.89502,0,0,0,0,0,0,0,-1,1686,631,8.51103,-1.89504
469,393,9.39465,1.51703,0,0,0,0,0,0,0,-1,1693,631,9.39465,-1.51703
476,393,9.95569,1.185,0,0,0,0,0,0,0,-1,1700,631,9.95575,-1.18497
483,393,10.5267,0.887329,0,0,0,0,0,0,0,-1,1707,631,10.5267,-0.887321
490,393,10.9303,0.761414,0,0,0,0,0,0,0,-1,1714,631,10.9303,-0.761386
497,393,8.32153,1.88104,0,0,0,0,0,0,0,-1,1721,631,8.32148,-1.88103
504,393,9.46985,1.78711,0,0,0,0,0,0,0,-1,1728,631,9.46986,-1.78713
511,393,9.66565,-0.375977,0,0,0,0,0,0,0,-1,1735,631,9.66571,0.375949
518,393,7.01599,1.62482,0,0,0,0,0,0,0,-1,1742,631,7.01597,-1.62483
525,393,7.88245,-1.13422,0,0,0,0,0,0,0,-1,1749,631,7.88246,1.13423
532,393,7.06335,-1.18103,0,0,0,0,0,0,0,-1,1756,631,7.06332,1.18101
539,393,9.91626,-2.46301,0,0,0,0,0,0,0,-1,1763,631,9.91625,2.46302
546,393,16.4094,-8.04651,0,0,0,0,0,0,0,-1,1770,631,16.4094,8.04649
553,393,17.4758,-8.35529,0,0,0,0,0,0,0,-1,1777,631,17.4758,8.35528
560,393,17.5787,-7.70496,0.00523896,0.000910763,0.000733788,0.00535998,0.000789742,0.163454,0.00334133,0.0266644,1784,631,17.5787,7.70493
567,393,17.5558,-7.17169,0.00414707,0.000616139,0.000538295,0.00422731,0.000535899,0.147974,0.00265765,0.0152857,1791,631,17.5557,7.17168
574,393,17.54,-6.71033,0.00329905,0.000636678,0.000558564,0.00341149,0.00052424,0.198643,0.00212128,0.0165087,1798,631,17.54,6.7103
581,393,17.501,-6.19238,0.00257734,0.00088597,0.000718064,0.00284107,0.000622241,0.351983,0.00172447,0.0158885,1805,631,17.501,6.19239
588,393,17.4916,-5.67108,0.00195837,0.00132524,0.000955589,0.00264847,0.000635148,0.625448,0.00159661,0.0174918,1812,631,17.4915,5.67106
595,393,17.5029,-5.2019,0.00166359,0.00199306,0.00139846,0.00323645,0.000420202,0.844026,0.0020321,0.0150394,1819,631,17.5029,5.20192
602,393,17.4976,-4.72174,0.00169581,0.00289125,0.0020599,0.0044384,0.000148657,0.926605,0.00291065,0.0168076,1826,631,17.4976,4.72175
609,393,17.4774,-4.22375,0.00179892,0.00398416,0.00280023,0.00589738,-0.000114303,0.971409,0.00397024,0.0152274,1833,631,17.4774,4.22377
616,393,17.4601,-3.71948,0.00199573,0.00518372,0.00352215,0.00745578,-0.000276329,0.99789,0.00506514,0.0151357,1840,631,17.4601,3.7195
623,393,17.4937,-3.12097,0.00275315,0.00651798,0.00437799,0.00940109,-0.000129971,0.988436,0.00631117,0.0307207,1847,631,17.4937,3.12097
630,393,17.723,-2.51514,0,0,0,0,0,0,0,-1,1854,631,17.7231,2.51515
637,393,11.4626,0.608887,0,0,0,0,0,0,0,-1,1861,631,11.4627,-0.608904
644,393,8.97583,1.30585,0,0,0,0,0,0,0,-1,1868,631,8.97586,-1.30584
651,393,11.348,0.53302,0,0,0,0,0,0,0,-1,1875,631,11.348,-0.53305
658,393,9.21338,1.50836,0,0,0,0,0,0,0,-1,1882,631,9.21338,-1.50834
665,393,6.1001,2.32129,0,0,0,0,0,0,0,-1,1889,631,6.10012,-2.3213
672,393,7.14575,2.43225,0,0,0,0,0,0,0,-1,1896,631,7.14572,-2.43222
679,393,0,0,0,0,0,0,0,0,0,-1,1903,631,0,0
686,393,0,0,0,0,0,0,0,0,0,-1,1910,631,0,0
693,393,0,0,0,0,0,0,0,0,0,-1,1917,631,0,0
700,393,0,0,0,0,0,0,0,0,0,-1,1924,631,0,0
707,393,0,0,0,0,0,0,0,0,0,-1,1931,631,0,0
714,393,0,0,0,0,0,0,0,0,0,-1,1938,631,0,0
721,393,0,0,0,0,0,0,0,0,0,-1,1945,631,0,0
728,393,0,0,0,0,0,0,0,0,0,-1,1952,631,0,0
735,393,0,0,0,0,0,0,0,0,0,-1,1959,631,0,0
742,393,0,0,0,0,0,0,0,0,0,-1,1966,631,0,0
749,393,0,0,0,0,0,0,0,0,0,-1,1973,631,0,0
756,393,0,0,0,0,0,0,0,0,0,-1,1980,631,0,0
763,393,0,0,0,0,0,0,0,0,0,-1,1987,631,0,0
770,393,0,0,0,0,0,0,0,0,0,-1,1994,631,0,0
777,393,0,0,0,0,0,0,0,0,0,-1,2001,631,0,0
784,393,0,0,0,0,0,0,0,0,0,-1,2008,631,0,0
791,393,0,0,0,0,0,0,0,0,0,-1,2015,631,0,0
798,393,0,0,0,0,0,0,0,0,0,-1,2022,631,0,0
805,393,0,0,0,0,0,0,0,0,0,-1,2029,631,0,0
812,393,0,0,0,0,0,0,0,0,0,-1,2036,631,0,0
-700,386,0,0,0,0,0,0,0,0,0,-1,524,638,0,0
-693,386,0,0,0,0,0,0,0,0,0,-1,531,638,0,0
-686,386,0,0,0,0,0,0,0,0,0,-1,538,638,0,0
-679,386,0,0,0,0,0,0,0,0,0,-1,545,638,0,0
-672,386,0,0,0,0,0,0,0,0,0,-1,552,638,0,0
-665,386,0,0,0,0,0,0,0,0,0,-1,559,638,0,0
-658,386,0,0,0,0,0,0,0,0,0,-1,566,638,0,0
-651,386,0,0,0,0,0,0,0,0,0,-1,573,638,0,0
-644,386,0,0,0,0,0,0,0,0,0,-1,580,638,0,0
-637,386,0,0,0,0,0,0,0,0,0,-1,587,638,0,0
-630,386,0,0,0,0,0,0,0,0,0,-1,594,638,0,0
-623,386,0,0,0,0,0,0,0,0,0,-1,601,638,0,0
-616,386,0,0,0,0,0,0,0,0,0,-1,608,638,0,0
-609,386,0,0,0,0,0,0,0,0,0,-1,615,638,0,0
-602,386,0,0,0,0,0,0,0,0,0,-1,622,638,0,0
-595,386,0,0,0,0,0,0,0,0,0,-1,629,638,0,0
-588,386,0,0,0,0,0,0,0,0,0,-1,636,638,0,0
-581,386,0,0,0,0,0,0,0,0,0,-1,643,638,0,0
-574,386,0,0,0,0,0,0,0,0,0,-1,650,638,0,0
-567,386,0,0,0,0,0,0,0,0,0,-1,657,638,0,0
-560,386,-3.97229,-5.13898,0,0,0,0,0,0,0,-1,664,638,-3.97232,5.13897
-553,386,-4.94244,-5.54309,0,0,0,0,0,0,0,-1,671,638,-4.94242,5.5431
-546,386,-1.78668,1.72827,0,0,0,0,0,0,0,-1,678,638,-1.78668,-1.72829
-539,386,-0.879456,-2.90009,0,0,0,0,0,0,0,-1,685,638,-0.879442,2.90008
-532,386,-4.83362,1.61053,0,0,0,0,0,0,0,-1,692,638,-4.83361,-1.61051
-525,386,-6.64148,-1.50604,0,0,0,0,0,0,0,-1,699,638,-6.64149,1.50603
-518,386,-7.68927,-2.40173,0,0,0,0,0,0,0,-1,706,638,-7.68929,2.4017
-511,386,-8.97614,-3.99463,0,0,0,0,0,0,0,-1,713,638,-8.97616,3.99464
-504,386,-9.1123,-4.34692,-5.14594e-05,0.0023438,-0.00137184,0.00296723,-0.000674892,-1.14425,0.00223731,0.0350881,720,638,-9.11229,4.34691
-497,386,-9.23016,-4.99133,-8.8071e-05,0.00164138,-0.00101805,0.00211238,-0.000559079,-1.13747,0.00162696,0.0165474,727,638,-9.23019,4.99136
-490,386,-9.19269,-5.52374,-9.76814e-05,0.000985869,-0.000713488,0.00133997,-0.000451777,-1.11012,0.001076,0.0132031,734,638,-9.19267,5.52376
-483,386,-9.16522,-6.03174,9.60974e-05,0.000935219,-0.000773389,0.00139552,-0.000364207,-1.03393,0.00107256,0.0172544,741,638,-9.1652,6.03176
-476,386,-9.16742,-6.4798,0.000404082,0.000947519,-0.000915478,0.00163075,-0.00027915,-0.92966,0.00119117,0.0158914,748,638,-9.16745,6.47981
-469,386,-9.21228,-6.93365,0.000730327,0.000971635,-0.00102756,0.0018856,-0.000183637,-0.843839,0.00132254,0.0111028,755,638,-9.21226,6.93363
-462,386,-9.22607,-7.43347,0.000869313,0.000897605,-0.00103058,0.00191413,-0.000147215,-0.792261,0.00132788,0.0100031,762,638,-9.22605,7.43346
-455,386,-9.23181,-7.91058,0.000596241,0.000726414,-0.000642835,0.00130745,1.52055e-05,-0.835851,0.000866609,0.0112869,769,638,-9.23178,7.91058
-448,386,-9.255,-8.37164,0.000296203,0.000467343,-0.000166311,0.000568807,0.00019474,-1.023,0.000333797,0.0120541,776,638,-9.25503,8.37165
-441,386,-9.28973,-8.80811,-0.000369686,-0.00017861,0.00062543,0.000358537,-0.000906833,0.86119,0.000753076,0.0131279,783,638,-9.28971,8.80809
-434,386,-9.23749,-9.33813,-0.00140802,-0.00084303,0.00168334,0.000581356,-0.00283241,0.868533,0.00210894,0.0353066,790,638,-9.23751,9.33815
-427,386,-9.14764,-9.84595,0,0,0,0,0,0,0,-1,797,638,-9.14762,9.84593
-420,386,-9.22626,-10.2676,0,0,0,0,0,0,0,-1,804,638,-9.22624,10.2677
-413,386,-5.45691,-5.35785,0,0,0,0,0,0,0,-1,811,638,-5.45691,5.35783
-406,386,-4.51135,-4.10999,0,0,0,0,0,0,0,-1,818,638,-4.51135,4.10996
-399,386,-3.57117,-3.42126,0,0,0,0,0,0,0,-1,825,638,-3.57116,3.42129
-392,386,-4.00977,0.403625,0,0,0,0,0,0,0,-1,832,638,-4.0098,-0.403616
-385,386,-3.2406,-0.118469,0,0,0,0,0,0,0,-1,839,638,-3.24058,0.118485
-378,386,-2.55243,-1.22748,0,0,0,0,0,0,0,-1,846,638,-2.55243,1.22748
-371,386,-7.95807,-0.330261,0,0,0,0,0,0,0,-1,853,638,-7.95806,0.330284
-364,386,-8.90637,-0.665955,0,0,0,0,0,0,0,-1,860,638,-8.90635,0.665951
-357,386,-9.10364,-0.388733,0,0,0,0,0,0,0,-1,867,638,-9.10364,0.388744
-350,386,0,0,0,0,0,0,0,0,0,-1,874,638,0,0
-343,386,0,0,0,0,0,0,0,0,0,-1,881,638,0,0
-336,386,0,0,0,0,0,0,0,0,0,-1,888,638,0,0
-329,386,0,0,0,0,0,0,0,0,0,-1,895,638,0,0
-322,386,0,0,0,0,0,0,0,0,0,-1,902,638,0,0
-315,386,0,0,0,0,0,0,0,0,0,-1,909,638,0,0
-308,386,0,0,0,0,0,0,0,0,0,-1,916,638,0,0
-301,386,0,0,0,0,0,0,0,0,0,-1,923,638,0,0
-294,386,0,0,0,0,0,0,0,0,0,-1,930,638,0,0
-287,386,0,0,0,0,0,0,0,0,0,-1,937,638,0,0
-280,386,0,0,0,0,0,0,0,0,0,-1,944,638,0,0
-273,386,0,0,0,0,0,0,0,0,0,-1,951,638,0,0
-266,386,0,0,0,0,0,0,0,0,0,-1,958,638,0,0
-259,386,0,0,0,0,0,0,0,0,0,-1,965,638,0,0
-252,386,0,0,0,0,0,0,0,0,0,-1,972,638,0,0
-245,386,0,0,0,0,0,0,0,0,0,-1,979,638,0,0
-238,386,0,0,0,0,0,0,0,0,0,-1,986,638,0,0
-231,386,0,0,0,0,0,0,0,0,0,-1,993,638,0,0
-224,386,0,0,0,0,0,0,0,0,0,-1,1000,638,0,0
-217,386,0,0,0,0,0,0,0,0,0,-1,1007,638,0,0
-210,386,0,0,0,0,0,0,0,0,0,-1,1014,638,0,0
-203,386,0,0,0,0,0,0,0,0,0,-1,1021,638,0,0
-196,386,0,0,0,0,0,0,0,0,0,-1,1028,638,0,0
-189,386,0,0,0,0,0,0,0,0,0,-1,1035,638,0,0
-182,386,0,0,0,0,0,0,0,0,0,-1,1042,638,0,0
-175,386,0,0,0,0,0,0,0,0,0,-1,1049,638,0,0
-168,386,0,0,0,0,0,0,0,0,0,-1,1056,638,0,0
-161,386,0,0,0,0,0,0,0,0,0,-1,1063,638,0,0
-154,386,0,0,0,0,0,0,0,0,0,-1,1070,638,0,0
-147,386,0,0,0,0,0,0,0,0,0,-1,1077,638,0,0
-140,386,0,0,0,0,0,0,0,0,0,-1,1084,638,0,0
-133,386,0,0,0,0,0,0,0,0,0,-1,1091,638,0,0
-126,386,0,0,0,0,0,0,0,0,0,-1,1098,638,0,0
-119,386,0,0,0,0,0,0,0,0,0,-1,1105,638,0,0
-112,386,0,0,0,0,0,0,0,0,0,-1,1112,638,0,0
-105,386,0,0,0,0,0,0,0,0,0,-1,1119,638,0,0
-98,386,0,0,0,0,0,0,0,0,0,-1,1126,638,0,0
-91,386,0,0,0,0,0,0,0,0,0,-1,1133,638,0,0
-84,386,0,0,0,0,0,0,0,0,0,-1,1140,638,0,0
-77,386,0,0,0,0,0,0,0,0,0,-1,1147,638,0,0
-70,386,0,0,0,0,0,0,0,0,0,-1,1154,638,0,0
-63,386,0,0,0,0,0,0,0,0,0,-1,1161,638,0,0
-56,386,0,0,0,0,0,0,0,0,0,-1,1168,638,0,0
-49,386,0,0,0,0,0,0,0,0,0,-1,1175,638,0,0
-42,386,0,0,0,0,0,0,0,0,0,-1,1182,638,0,0
-35,386,0,0,0,0,0,0,0,0,0,-1,1189,638,0,0
-28,386,0,0,0,0,0,0,0,0,0,-1,1196,638,0,0
-21,386,0,0,0,0,0,0,0,0,0,-1,1203,638,0,0
-14,386,0,0,0,0,0,0,0,0,0,-1,1210,638,0,0
-7,386,0,0,0,0,0,0,0,0,0,-1,1217,638,0,0
0,386,0,0,0,0,0,0,0,0,0,-1,1224,638,0,0
7,386,0,0,0,0,0,0,0,0,0,-1,1231,638,0,0
14,386,0,0,0,0,0,0,0,0,0,-1,1238,638,0,0
21,386,0,0,0,0,0,0,0,0,0,-1,1245,638,0,0
28,386,0,0,0,0,0,0,0,0,0,-1,1252,638,0,0
35,386,0,0,0,0,0,0,0,0,0,-1,1259,638,0,0
42,386,0,0,0,0,0,0,0,0,0,-1,1266,638,0,0
49,386,0,0,0,0,0,0,0,0,0,-1,1273,638,0,0
56,386,0,0,0,0,0,0,0,0,0,-1,1280,638,0,0
63,386,0,0,0,0,0,0,0,0,0,-1,1287,638,0,0
70,386,0,0,0,0,0,0,0,0,0,-1,1294,638,0,0
77,386,0,0,0,0,0,0,0,0,0,-1,1301,638,0,0
84,386,0,0,0,0,0,0,0,0,0,-1,1308,638,0,0
91,386,0,0,0,0,0,0,0,0,0,-1,1315,638,0,0
98,386,0,0,0,0,0,0,0,0,0,-1,1322,638,0,0
105,386,0,0,0,0,0,0,0,0,0,-1,1329,638,0,0
112,386,0,0,0,0,0,0,0,0,0,-1,1336,638,0,0
119,386,0,0,0,0,0,0,0,0,0,-1,1343,638,0,0
126,386,0,0,0,0,0,0,0,0,0,-1,1350,638,0,0
133,386,0,0,0,0,0,0,0,0,0,-1,1357,638,0,0
140,386,0,0,0,0,0,0,0,0,0,-1,1364,638,0,0
147,386,0,0,0,0,0,0,0,0,0,-1,1371,638,0,0
154,386,0,0,0,0,0,0,0,0,0,-1,1378,638,0,0
161,386,0,0,0,0,0,0,0,0,0,-1,1385,638,0,0
168,386,0,0,0,0,0,0,0,0,0,-1,1392,638,0,0
175,386,0,0,0,0,0,0,0,0,0,-1,1399,638,0,0
182,386,0,0,0,0,0,0,0,0,0,-1,1406,638,0,0
189,386,0,0,0,0,0,0,0,0,0,-1,1413,638,0,0
196,386,0,0,0,0,0,0,0,0,0,-1,1420,638,0,0
203,386,0,0,0,0,0,0,0,0,0,-1,1427,638,0,0
210,386,0,0,0,0,0,0,0,0,0,-1,1434,638,0,0
217,386,0,0,0,0,0,0,0,0,0,-1,1441,638,0,0
224,386,0,0,0,0,0,0,0,0,0,-1,1448,638,0,0
231,386,0,0,0,0,0,0,0,0,0,-1,1455,638,0,0
238,386,0,0,0,0,0,0,0,0,0,-1,1462,638,0,0
245,386,0,0,0,0,0,0,0,0,0,-1,1469,638,0,0
252,386,0,0,0,0,0,0,0,0,0,-1,1476,638,0,0
259,386,0,0,0,0,0,0,0,0,0,-1,1483,638,0,0
266,386,0,0,0,0,0,0,0,0,0,-1,1490,638,0,0
273,386,0,0,0,0,0,0,0,0,0,-1,1497,638,0,0
280,386,0,0,0,0,0,0,0,0,0,-1,1504,638,0,0
287,386,0,0,0,0,0,0,0,0,0,-1,1511,638,0,0
294,386,0,0,0,0,0,0,0,0,0,-1,1518,638,0,0
301,386,0,0,0,0,0,0,0,0,0,-1,1525,638,0,0
308,386,0,0,0,0,0,0,0,0,0,-1,1532,638,0,0
315,386,0,0,0,0,0,0,0,0,0,-1,1539,638,0,0
322,386,0,0,0,0,0,0,0,0,0,-1,1546,638,0,0
329,386,0,0,0,0,0,0,0,0,0,-1,1553,638,0,0
336,386,0,0,0,0,0,0,0,0,0,-1,1560,638,0,0
343,386,0,0,0,0,0,0,0,0,0,-1,1567,638,0,0
350,386,0,0,0,0,0,0,0,0,0,-1,1574,638,0,0
357,386,0,0,0,0,0,0,0,0,0,-1,1581,638,0,0
364,386,0,0,0,0,0,0,0,0,0,-1,1588,638,0,0
371,386,0,0,0,0,0,0,0,0,0,-1,1595,638,0,0
378,386,0,0,0,0,0,0,0,0,0,-1,1602,638,0,0
385,386,0,0,0,0,0,0,0,0,0,-1,1609,638,0,0
392,386,0,0,0,0,0,0,0,0,0,-1,1616,638,0,0
399,386,0,0,0,0,0,0,0,0,0,-1,1623,638,0,0
406,386,0,0,0,0,0,0,0,0,0,-1,1630,638,0,0
413,386,0,0,0,0,0,0,0,0,0,-1,1637,638,0,0
420,386,0,0,0,0,0,0,0,0,0,-1,1644,638,0,0
427,386,0,0,0,0,0,0,0,0,0,-1,1651,638,0,0
434,386,0,0,0,0,0,0,0,0,0,-1,1658,638,0,0
441,386,0,0,0,0,0,0,0,0,0,-1,1665,638,0,0
448,386,0,0,0,0,0,0,0,0,0,-1,1672,638,0,0
455,386,0,0,0,0,0,0,0,0,0,-1,1679,638,0,0
462,386,0,0,0,0,0,0,0,0,0,-1,1686,638,0,0
469,386,9.84692,1.55804,0,0,0,0,0,0,0,-1,1693,638,9.84691,-1.55807
476,386,10.6145,0.986511,0,0,0,0,0,0,0,-1,1700,638,10.6145,-0.986529
483,386,11.4113,0.732971,0,0,0,0,0,0,0,-1,1707,638,11.4112,-0.732958
490,386,7.79785,1.79572,0,0,0,0,0,0,0,-1,1714,638,7.79788,-1.7957
497,386,8.96362,1.77081,0,0,0,0,0,0,0,-1,1721,638,8.96357,-1.77081
504,386,10.0555,1.69427,0,0,0,0,0,0,0,-1,1728,638,10.0555,-1.69426
511,386,11.2172,1.534,0,0,0,0,0,0,0,-1,1735,638,11.2172,-1.53398
518,386,7.41553,1.75238,0,0,0,0,0,0,0,-1,1742,638,7.41547,-1.75238
525,386,8.82422,-1.1449,0,0,0,0,0,0,0,-1,1749,638,8.82426,1.14492
532,386,10.6432,0.617371,0,0,0,0,0,0,0,-1,1756,638,10.6432,-0.617359
539,386,9.62061,-0.393616,0,0,0,0,0,0,0,-1,1763,638,9.62059,0.393634
546,386,10.7963,-2.854,0,0,0,0,0,0,0,-1,1770,638,10.7962,2.854
553,386,16.9939,-7.27942,0,0,0,0,0,0,0,-1,1777,638,16.9939,7.27944
560,386,17.9839,-7.87195,0,0,0,0,0,0,0,-1,1784,638,17.9839,7.87195
567,386,17.9835,-7.14099,0.0052251,0.000508874,0.000552537,0.00528897,0.000445005,0.11508,0.0033874,0.0219186,1791,638,17.9836,7.141
574,386,18.0309,-6.65546,0.0041734,0.000489161,0.000530655,0.00424831,0.000414252,0.140237,0.00270472,0.0141761,1798,638,18.0309,6.65546
581,386,18.0009,-6.2099,0.00329749,0.000688856,0.000643669,0.00344766,0.000538679,0.229214,0.00214159,0.0144249,1805,638,18.0009,6.2099
588,386,18.0084,-5.70514,0.00257522,0.00103942,0.000830476,0.00293841,0.000676229,0.412263,0.00177695,0.013404,1812,638,18.0084,5.70517
595,386,17.9825,-5.20886,0.00218699,0.00158164,0.0011901,0.0031123,0.000656334,0.660874,0.00189438,0.014356,1819,638,17.9825,5.20885
602,386,17.9651,-4.72607,0.0021569,0.00234004,0.00176355,0.00401439,0.000482548,0.811336,0.00253079,0.0154524,1826,638,17.9651,4.72609
609,386,17.9733,-4.22937,0.0021882,0.00325753,0.00238207,0.0051642,0.00028153,0.895795,0.0033529,0.0144157,1833,638,17.9733,4.22935
616,386,17.9659,-3.711,0.00228287,0.00421643,0.00291931,0.00632488,0.000174425,0.945298,0.00415966,0.0120673,1840,638,17.9659,3.71103
623,386,17.9449,-3.18921,0.00282987,0.00524478,0.00354084,0.00777838,0.00029627,0.949719,0.0050897,0.0106609,1847,638,17.945,3.18923
630,386,18.035,-2.63525,0.00352279,0.00637989,0.00421058,0.00939767,0.000505021,0.948943,0.00610374,0.0331915,1854,638,18.0351,2.63527
637,386,18.1941,-2.07312,0,0,0,0,0,0,0,-1,1861,638,18.194,2.07313
644,386,11.6521,0.723328,0,0,0,0,0,0,0,-1,1868,638,11.6521,-0.723355
651,386,9.3866,1.31097,0,0,0,0,0,0,0,-1,1875,638,9.3866,-1.31095
658,386,12.0731,-0.00415039,0,0,0,0,0,0,0,-1,1882,638,12.0731,0.00412803
665,386,6.33167,1.78601,0,0,0,0,0,0,0,-1,1889,638,6.33171,-1.78601
672,386,7.23352,2.14435,0,0,0,0,0,0,0,-1,1896,638,7.23353,-2.14433
679,386,8.07764,2.57104,0,0,0,0,0,0,0,-1,1903,638,8.07758,-2.57103
686,386,0,0,0,0,0,0,0,0,0,-1,1910,638,0,0
693,386,0,0,0,0,0,0,0,0,0,-1,1917,638,0,0
700,386,0,0,0,0,0,0,0,0,0,-1,1924,638,0,0
707,386,0,0,0,0,0,0,0,0,0,-1,1931,638,0,0
714,386,0,0,0,0,0,0,0,0,0,-1,1938,638,0,0
721,386,0,0,0,0,0,0,0,0,0,-1,1945,638,0,0
728,386,0,0,0,0,0,0,0,0,0,-1,1952,638,0,0
735,386,0,0,0,0,0,0,0,0,0,-1,1959,638,0,0
742,386,0,0,0,0,0,0,0,0,0,-1,1966,638,0,0
749,386,0,0,0,0,0,0,0,0,0,-1,1973,638,0,0
756,386,0,0,0,0,0,0,0,0,0,-1,1980,638,0,0
763,386,0,0,0,0,0,0,0,0,0,-1,1987,638,0,0
770,386,0,0,0,0,0,0,0,0,0,-1,1994,638,0,0
777,386,0,0,0,0,0,0,0,0,0,-1,2001,638,0,0
784,386,0,0,0,0,0,0,0,0,0,-1,2008,638,0,0
791,386,0,0,0,0,0,0,0,0,0,-1,2015,638,0,0
798,386,0,0,0,0,0,0,0,0,0,-1,2022,638,0,0
805,386,0,0,0,0,0,0,0,0,0,-1,2029,638,0,0
812,386,0,0,0,0,0,0,0,0,0,-1,2036,638,0,0
-700,379,0,0,0,0,0,0,0,0,0,-1,524,645,0,0
-693,379,0,0,0,0,0,0,0,0,0,-1,531,645,0,0
-686,379,0,0,0,0,0,0,0,0,0,-1,538,645,0,0
-679,379,0,0,0,0,0,0,0,0,0,-1,545,645,0,0
-672,379,0,0,0,0,0,0,0,0,0,-1,552,645,0,0
-665,379,0,0,0,0,0,0,0,0,0,-1,559,645,0,0
-658,379,0,0,0,0,0,0,0,0,0,-1,566,645,0,0
-651,379,0,0,0,0,0,0,0,0,0,-1,573,645,0,0
-644,379,0,0,0,0,0,0,0,0,0,-1,580,645,0,0
-637,379,0,0,0,0,0,0,0,0,0,-1,587,645,0,0
-630,379,0,0,0,0,0,0,0,0,0,-1,594,645,0,0
-623,379,0,0,0,0,0,0,0,0,0,-1,601,645,0,0
-616,379,0,0,0,0,0,0,0,0,0,-1,608,645,0,0
-609,379,0,0,0,0,0,0,0,0,0,-1,615,645,0,0
-602,379,0,0,0,0,0,0,0,0,0,-1,622,645,0,0
-595,379,0,0,0,0,0,0,0,0,0,-1,629,645,0,0
-588,379,0,0,0,0,0,0,0,0,0,-1,636,645,0,0
-581,379,0,0,0,0,0,0,0,0,0,-1,643,645,0,0
-574,379,0,0,0,0,0,0,0,0,0,-1,650,645,0,0
-567,379,-8.78058,0.59668,0,0,0,0,0,0,0,-1,657,645,-8.7806,-0.596692
-560,379,-9.53485,-0.211304,0,0,0,0,0,0,0,-1,664,645,-9.53487,0.211282
-553,379,-5.17108,-4.53119,0,0,0,0,0,0,0,-1,671,645,-5.17106,4.53117
-546,379,-6.23053,-4.92102,0,0,0,0,0,0,0,-1,678,645,-6.23054,4.92105
-539,379,-0.71698,-2.19427,0,0,0,0,0,0,0,-1,685,645,-0.716959,2.19427
-532,379,-7.69611,0.217224,0,0,0,0,0,0,0,-1,692,645,-7.69614,-0.217204
-525,379,-7.09833,-1.13043,0,0,0,0,0,0,0,-1,699,645,-7.0983,1.13041
-518,379,-9.65973,-3.55389,0,0,0,0,0,0,0,-1,706,645,-9.65971,3.5539
-511,379,-9.47192,-4.16595,0.000441129,0.00488045,-0.00248011,0.00598912,-0.00066755,-1.15042,0.00423285,0.0450285,713,645,-9.47194,4.16594
-504,379,-9.60162,-4.58862,0.000155945,0.00290756,-0.00139328,0.00348983,-0.000426325,-1.17494,0.0024809,0.0240794,720,645,-9.6016,4.58865
-497,379,-9.65564,-5.02417,0.000138417,0.00181356,-0.00089296,0.00220029,-0.000248308,-1.1621,0.00155625,0.0122386,727,645,-9.65564,5.02415
-490,379,-9.65137,-5.50488,0.00012232,0.000769107,-0.00045081,0.00100052,-0.000109095,-1.09654,0.000706195,0.0112587,734,645,-9.65137,5.50488
-483,379,-9.64618,-6.00122,0.000380115,0.000756489,-0.00055074,0.00115031,-1.37022e-05,-0.950028,0.000771478,0.0126441,741,645,-9.6462,6.00122
-476,379,-9.6474,-6.4425,0.000750908,0.000853466,-0.000787858,0.00159171,1.26616e-05,-0.817896,0.00105695,0.013005,748,645,-9.64737,6.44251
-469,379,-9.6745,-6.9057,0.00111312,0.000986987,-0.00101059,0.00206261,3.75019e-05,-0.754235,0.00136274,0.011836,755,645,-9.67447,6.90572
-462,379,-9.70374,-7.39734,0.00127698,0.00104827,-0.00114193,0.00231026,1.49803e-05,-0.735493,0.00153521,0.0087045,762,645,-9.70373,7.39732
-455,379,-9.7099,-7.87543,0.000986574,0.00101073,-0.000845446,0.00184419,0.000153121,-0.792542,0.00118173,0.00837925,769,645,-9.7099,7.87543
-448,379,-9.70483,-8.32379,0.000666762,0.000989637,-0.00051636,0.00136921,0.000287191,-0.936907,0.000833729,0.0106939,776,645,-9.70486,8.32377
-441,379,-9.71429,-8.82208,-2.26038e-06,0.000489025,0.000122188,0.000517737,-3.09719e-05,1.34,0.000355931,0.0215596,783,645,-9.71432,8.82206
-434,379,-9.55548,-9.46216,0,0,0,0,0,0,0,-1,790,645,-9.55547,9.46218
-427,379,-4.16113,-4.13452,0,0,0,0,0,0,0,-1,797,645,-4.16116,4.1345
-420,379,-4.63953,-3.46869,0,0,0,0,0,0,0,-1,804,645,-4.63953,3.46872
-413,379,-4.62543,-3.7912,0,0,0,0,0,0,0,-1,811,645,-4.62541,3.79123
-406,379,-4.64063,-4.38489,0,0,0,0,0,0,0,-1,818,645,-4.64065,4.3849
-399,379,-2.93536,-1.40118,0,0,0,0,0,0,0,-1,825,645,-2.93534,1.40119
-392,379,-4.16711,-0.466003,0,0,0,0,0,0,0,-1,832,645,-4.16714,0.465992
-385,379,-3.51862,0.441101,0,0,0,0,0,0,0,-1,839,645,-3.51859,-0.441072
-378,379,-5.3504,0.212219,0,0,0,0,0,0,0,-1,846,645,-5.35038,-0.212241
-371,379,-4.32092,-0.186707,0,0,0,0,0,0,0,-1,853,645,-4.3209,0.186707
-364,379,-3.40887,-0.549805,0,0,0,0,0,0,0,-1,860,645,-3.4089,0.549802
-357,379,0,0,0,0,0,0,0,0,0,-1,867,645,0,0
-350,379,0,0,0,0,0,0,0,0,0,-1,874,645,0,0
-343,379,0,0,0,0,0,0,0,0,0,-1,881,645,0,0
-336,379,0,0,0,0,0,0,0,0,0,-1,888,645,0,0
-329,379,0,0,0,0,0,0,0,0,0,-1,895,645,0,0
-322,379,0,0,0,0,0,0,0,0,0,-1,902,645,0,0
-315,379,0,0,0,0,0,0,0,0,0,-1,909,645,0,0
-308,379,0,0,0,0,0,0,0,0,0,-1,916,645,0,0
-301,379,0,0,0,0,0,0,0,0,0,-1,923,645,0,0
-294,379,0,0,0,0,0,0,0,0,0,-1,930,645,0,0
-287,379,0,0,0,0,0,0,0,0,0,-1,937,645,0,0
-280,379,0,0,0,0,0,0,0,0,0,-1,944,645,0,0
-273,379,0,0,0,0,0,0,0,0,0,-1,951,645,0,0
-266,379,0,0,0,0,0,0,0,0,0,-1,958,645,0,0
-259,379,0,0,0,0,0,0,0,0,0,-1,965,645,0,0
-252,379,0,0,0,0,0,0,0,0,0,-1,972,645,0,0
-245,379,0,0,0,0,0,0,0,0,0,-1,979,645,0,0
-238,379,0,0,0,0,0,0,0,0,0,-1,986,645,0,0
-231,379,0,0,0,0,0,0,0,0,0,-1,993,645,0,0
-224,379,0,0,0,0,0,0,0,0,0,-1,1000,645,0,0
-217,379,0,0,0,0,0,0,0,0,0,-1,1007,645,0,0
-210,379,0,0,0,0,0,0,0,0,0,-1,1014,645,0,0
-203,379,0,0,0,0,0,0,0,0,0,-1,1021,645,0,0
-196,379,0,0,0,0,0,0,0,0,0,-1,1028,645,0,0
-189,379,0,0,0,0,0,0,0,0,0,-1,1035,645,0,0
-182,379,0,0,0,0,0,0,0,0,0,-1,1042,645,0,0
-175,379,0,0,0,0,0,0,0,0,0,-1,1049,645,0,0
-168,379,0,0,0,0,0,0,0,0,0,-1,1056,645,0,0
-161,379,0,0,0,0,0,0,0,0,0,-1,1063,645,0,0
-154,379,0,0,0,0,0,0,0,0,0,-1,1070,645,0,0
-147,379,0,0,0,0,0,0,0,0,0,-1,1077,645,0,0
-140,379,0,0,0,0,0,0,0,0,0,-1,1084,645,0,0
-133,379,0,0,0,0,0,0,0,0,0,-1,1091,645,0,0
-126,379,0,0,0,0,0,0,0,0,0,-1,1098,645,0,0
-119,379,0,0,0,0,0,0,0,0,0,-1,1105,645,0,0
-112,379,0,0,0,0,0,0,0,0,0,-1,1112,645,0,0
-105,379,0,0,0,0,0,0,0,0,0,-1,1119,645,0,0
-98,379,0,0,0,0,0,0,0,0,0,-1,1126,645,0,0
-91,379,0,0,0,0,0,0,0,0,0,-1,1133,645,0,0
-84,379,0,0,0,0,0,0,0,0,0,-1,1140,645,0,0
-77,379,0,0,0,0,0,0,0,0,0,-1,1147,645,0,0
-70,379,0,0,0,0,0,0,0,0,0,-1,1154,645,0,0
-63,379,0,0,0,0,0,0,0,0,0,-1,1161,645,0,0
-56,379,0,0,0,0,0,0,0,0,0,-1,1168,645,0,0
-49,379,0,0,0,0,0,0,0,0,0,-1,1175,645,0,0
-42,379,0,0,0,0,0,0,0,0,0,-1,1182,645,0,0
-35,379,0,0,0,0,0,0,0,0,0,-1,1189,645,0,0
-28,379,0,0,0,0,0,0,0,0,0,-1,1196,645,0,0
-21,379,0,0,0,0,0,0,0,0,0,-1,1203,645,0,0
-14,379,0,0,0,0,0,0,0,0,0,-1,1210,645,0,0
-7,379,0,0,0,0,0,0,0,0,0,-1,1217,645,0,0
0,379,0,0,0,0,0,0,0,0,0,-1,1224,645,0,0
7,379,0,0,0,0,0,0,0,0,0,-1,1231,645,0,0
14,379,0,0,0,0,0,0,0,0,0,-1,1238,645,0,0
21,379,0,0,0,0,0,0,0,0,0,-1,1245,645,0,0
28,379,0,0,0,0,0,0,0,0,0,-1,1252,645,0,0
35,379,0,0,0,0,0,0,0,0,0,-1,1259,645,0,0
42,379,0,0,0,0,0,0,0,0,0,-1,1266,645,0,0
49,379,0,0,0,0,0,0,0,0,0,-1,1273,645,0,0
56,379,0,0,0,0,0,0,0,0,0,-1,1280,645,0,0
63,379,0,0,0,0,0,0,0,0,0,-1,1287,645,0,0
70,379,0,0,0,0,0,0,0,0,0,-1,1294,645,0,0
77,379,0,0,0,0,0,0,0,0,0,-1,1301,645,0,0
84,379,0,0,0,0,0,0,0,0,0,-1,1308,645,0,0
91,379,0,0,0,0,0,0,0,0,0,-1,1315,645,0,0
98,379,0,0,0,0,0,0,0,0,0,-1,1322,645,0,0
105,379,0,0,0,0,0,0,0,0,0,-1,1329,645,0,0
112,379,0,0,0,0,0,0,0,0,0,-1,1336,645,0,0
119,379,0,0,0,0,0,0,0,0,0,-1,1343,645,0,0
126,379,0,0,0,0,0,0,0,0,0,-1,1350,645,0,0
133,379,0,0,0,0,0,0,0,0,0,-1,1357,645,0,0
140,379,0,0,0,0,0,0,0,0,0,-1,1364,645,0,0
147,379,0,0,0,0,0,0,0,0,0,-1,1371,645,0,0
154,379,0,0,0,0,0,0,0,0,0,-1,1378,645,0,0
161,379,0,0,0,0,0,0,0,0,0,-1,1385,645,0,0
168,379,0,0,0,0,0,0,0,0,0,-1,1392,645,0,0
175,379,0,0,0,0,0,0,0,0,0,-1,1399,645,0,0
182,379,0,0,0,0,0,0,0,0,0,-1,1406,645,0,0
189,379,0,0,0,0,0,0,0,0,0,-1,1413,645,0,0
196,379,0,0,0,0,0,0,0,0,0,-1,1420,645,0,0
203,379,0,0,0,0,0,0,0,0,0,-1,1427,645,0,0
210,379,0,0,0,0,0,0,0,0,0,-1,1434,645,0,0
217,379,0,0,0,0,0,0,0,0,0,-1,1441,645,0,0
224,379,0,0,0,0,0,0,0,0,0,-1,1448,645,0,0
231,379,0,0,0,0,0,0,0,0,0,-1,1455,645,0,0
238,379,0,0,0,0,0,0,0,0,0,-1,1462,645,0,0
245,379,0,0,0,0,0,0,0,0,0,-1,1469,645,0,0
252,379,0,0,0,0,0,0,0,0,0,-1,1476,645,0,0
259,379,0,0,0,0,0,0,0,0,0,-1,1483,645,0,0
266,379,0,0,0,0,0,0,0,0,0,-1,1490,645,0,0
273,379,0,0,0,0,0,0,0,0,0,-1,1497,645,0,0
280,379,0,0,0,0,0,0,0,0,0,-1,1504,645,0,0
287,379,0,0,0,0,0,0,0,0,0,-1,1511,645,0,0
294,379,0,0,0,0,0,0,0,0,0,-1,1518,645,0,0
301,379,0,0,0,0,0,0,0,0,0,-1,1525,645,0,0
308,379,0,0,0,0,0,0,0,0,0,-1,1532,645,0,0
315,379,0,0,0,0,0,0,0,0,0,-1,1539,645,0,0
322,379,0,0,0,0,0,0,0,0,0,-1,1546,645,0,0
329,379,0,0,0,0,0,0,0,0,0,-1,1553,645,0,0
336,379,0,0,0,0,0,0,0,0,0,-1,1560,645,0,0
343,379,0,0,0,0,0,0,0,0,0,-1,1567,645,0,0
350,379,0,0,0,0,0,0,0,0,0,-1,1574,645,0,0
357,379,0,0,0,0,0,0,0,0,0,-1,1581,645,0,0
364,379,0,0,0,0,0,0,0,0,0,-1,1588,645,0,0
371,379,0,0,0,0,0,0,0,0,0,-1,1595,645,0,0
378,379,0,0,0,0,0,0,0,0,0,-1,1602,645,0,0
385,379,0,0,0,0,0,0,0,0,0,-1,1609,645,0,0
392,379,0,0,0,0,0,0,0,0,0,-1,1616,645,0,0
399,379,0,0,0,0,0,0,0,0,0,-1,1623,645,0,0
406,379,0,0,0,0,0,0,0,0,0,-1,1630,645,0,0
413,379,0,0,0,0,0,0,0,0,0,-1,1637,645,0,0
420,379,0,0,0,0,0,0,0,0,0,-1,1644,645,0,0
427,379,0,0,0,0,0,0,0,0,0,-1,1651,645,0,0
434,379,0,0,0,0,0,0,0,0,0,-1,1658,645,0,0
441,379,0,0,0,0,0,0,0,0,0,-1,1665,645,0,0
448,379,0,0,0,0,0,0,0,0,0,-1,1672,645,0,0
455,379,0,0,0,0,0,0,0,0,0,-1,1679,645,0,0
462,379,0,0,0,0,0,0,0,0,0,-1,1686,645,0,0
469,379,0,0,0,0,0,0,0,0,0,-1,1693,645,0,0
476,379,11.1787,0.830383,0,0,0,0,0,0,0,-1,1700,645,11.1787,-0.830365
483,379,7.4231,1.54321,0,0,0,0,0,0,0,-1,1707,645,7.42314,-1.54324
490,379,8.52881,1.56677,0,0,0,0,0,0,0,-1,1714,645,8.52878,-1.56677
497,379,9.63599,1.49573,0,0,0,0,0,0,0,-1,1721,645,9.63604,-1.4957
504,379,10.0833,1.35229,0,0,0,0,0,0,0,-1,1728,645,10.0832,-1.35227
511,379,8.14343,1.59912,0,0,0,0,0,0,0,-1,1735,645,8.14347,-1.59912
518,379,12.7955,-0.324097,0,0,0,0,0,0,0,-1,1742,645,12.7955,0.324101
525,379,6.03711,1.10352,0,0,0,0,0,0,0,-1,1749,645,6.03711,-1.10351
532,379,8.70947,0.887817,0,0,0,0,0,0,0,-1,1756,645,8.70953,-0.887808
539,379,9.87097,0.111389,0,0,0,0,0,0,0,-1,1763,645,9.87095,-0.111395
546,379,8.42383,-0.730652,0,0,0,0,0,0,0,-1,1770,645,8.42378,0.730638
553,379,19.2905,-7.67834,0,0,0,0,0,0,0,-1,1777,645,19.2905,7.67837
560,379,18.2687,-7.565,0,0,0,0,0,0,0,-1,1784,645,18.2687,7.56503
567,379,18.3942,-7.09283,0.00641496,0.000247731,0.000511431,0.00645708,0.000205608,0.0821791,0.00423785,0.025254,1791,645,18.3941,7.09284
574,379,18.5372,-6.64648,0.00513088,0.00028143,0.000524452,0.00518695,0.00022536,0.106506,0.00338535,0.0123745,1798,645,18.5372,6.64649
581,379,18.5363,-6.20239,0.00411162,0.000502775,0.000647624,0.00422432,0.000390075,0.172295,0.00269561,0.0147634,1805,645,18.5363,6.20239
588,379,18.5198,-5.69348,0.00329401,0.000813953,0.000825611,0.00354372,0.000564249,0.293701,0.00219866,0.017352,1812,645,18.5198,5.69349
595,379,18.4806,-5.19958,0.00278818,0.00127229,0.00111403,0.00337765,0.000682817,0.486685,0.00206219,0.0149113,1819,645,18.4806,5.19957
602,379,18.4561,-4.71698,0.00265562,0.00193228,0.00159671,0.00393111,0.000656793,0.674024,0.00243156,0.0147893,1826,645,18.4561,4.71698
609,379,18.4391,-4.23193,0.00259079,0.00271009,0.00210184,0.00475313,0.000547755,0.799585,0.00300287,0.0146944,1833,645,18.4391,4.23196
616,379,18.4269,-3.72351,0.00256242,0.00347195,0.00248233,0.00554083,0.000493534,0.875994,0.00354086,0.0119079,1840,645,18.4269,3.72351
623,379,18.4336,-3.17914,0.00285066,0.00426217,0.00291376,0.00655443,0.000558397,0.904218,0.00419589,0.0119686,1847,645,18.4335,3.17915
630,379,18.4149,-2.67334,0.00316697,0.00509627,0.00332115,0.00759002,0.000673212,0.926738,0.00485121,0.0135579,1854,645,18.415,2.67336
637,379,18.4056,-2.09351,0.00342064,0.00595099,0.00364078,0.00854016,0.000831481,0.952622,0.00543751,0.0342171,1861,645,18.4056,2.09352
644,379,18.5426,-1.43414,0,0,0,0,0,0,0,-1,1868,645,18.5426,1.43415
651,379,12.9515,0.220825,0,0,0,0,0,0,0,-1,1875,645,12.9515,-0.220814
658,379,13.7498,0.37439,0,0,0,0,0,0,0,-1,1882,645,13.7498,-0.374371
665,379,11.9719,0.353333,0,0,0,0,0,0,0,-1,1889,645,11.9719,-0.353321
672,379,7.57605,2.15326,0,0,0,0,0,0,0,-1,1896,645,7.57599,-2.15326
679,379,8.55078,2.50409,0,0,0,0,0,0,0,-1,1903,645,8.55073,-2.50406
686,379,0,0,0,0,0,0,0,0,0,-1,1910,645,0,0
693,379,0,0,0,0,0,0,0,0,0,-1,1917,645,0,0
700,379,0,0,0,0,0,0,0,0,0,-1,1924,645,0,0
707,379,0,0,0,0,0,0,0,0,0,-1,1931,645,0,0
714,379,0,0,0,0,0,0,0,0,0,-1,1938,645,0,0
721,379,0,0,0,0,0,0,0,0,0,-1,1945,645,0,0
728,379,0,0,0,0,0,0,0,0,0,-1,1952,645,0,0
735,379,0,0,0,0,0,0,0,0,0,-1,1959,645,0,0
742,379,0,0,0,0,0,0,0,0,0,-1,1966,645,0,0
749,379,0,0,0,0,0,0,0,0,0,-1,1973,645,0,0
756,379,0,0,0,0,0,0,0,0,0,-1,1980,645,0,0
763,379,0,0,0,0,0,0,0,0,0,-1,1987,645,0,0
770,379,0,0,0,0,0,0,0,0,0,-1,1994,645,0,0
777,379,0,0,0,0,0,0,0,0,0,-1,2001,645,0,0
784,379,0,0,0,0,0,0,0,0,0,-1,2008,645,0,0
791,379,0,0,0,0,0,0,0,0,0,-1,2015,645,0,0
798,379,0,0,0,0,0,0,0,0,0,-1,2022,645,0,0
805,379,0,0,0,0,0,0,0,0,0,-1,2029,645,0,0
812,379,0,0,0,0,0,0,0,0,0,-1,2036,645,0,0
-700,372,0,0,0,0,0,0,0,0,0,-1,524,652,0,0
-693,372,0,0,0,0,0,0,0,0,0,-1,531,652,0,0
-686,372,0,0,0,0,0,0,0,0,0,-1,538,652,0,0
-679,372,0,0,0,0,0,0,0,0,0,-1,545,652,0,0
-672,372,0,0,0,0,0,0,0,0,0,-1,552,652,0,0
-665,372,0,0,0,0,0,0,0,0,0,-1,559,652,0,0
-658,372,0,0,0,0,0,0,0,0,0,-1,566,652,0,0
-651,372,0,0,0,0,0,0,0,0,0,-1,573,652,0,0
-644,372,0,0,0,0,0,0,0,0,0,-1,580,652,0,0
-637,372,0,0,0,0,0,0,0,0,0,-1,587,652,0,0
-630,372,0,0,0,0,0,0,0,0,0,-1,594,652,0,0
-623,372,0,0,0,0,0,0,0,0,0,-1,601,652,0,0
-616,372,0,0,0,0,0,0,0,0,0,-1,608,652,0,0
-609,372,0,0,0,0,0,0,0,0,0,-1,615,652,0,0
-602,372,0,0,0,0,0,0,0,0,0,-1,622,652,0,0
-595,372,0,0,0,0,0,0,0,0,0,-1,629,652,0,0
-588,372,0,0,0,0,0,0,0,0,0,-1,636,652,0,0
-581,372,0,0,0,0,0,0,0,0,0,-1,643,652,0,0
-574,372,0,0,0,0,0,0,0,0,0,-1,650,652,0,0
-567,372,-7.93744,0.73407,0,0,0,0,0,0,0,-1,657,652,-7.93741,-0.734076
-560,372,-8.78552,-0.158203,0,0,0,0,0,0,0,-1,664,652,-8.78552,0.158216
-553,372,-7.95551,1.61694,0,0,0,0,0,0,0,-1,671,652,-7.95552,-1.61697
-546,372,-4.2403,-3.75372,0,0,0,0,0,0,0,-1,678,652,-4.24028,3.75369
-539,372,-7.92285,-0.0650024,0,0,0,0,0,0,0,-1,685,652,-7.92287,0.0649772
-532,372,-8.59589,-0.419556,0,0,0,0,0,0,0,-1,692,652,-8.59591,0.419539
-525,372,-8.03674,-1.36804,0,0,0,0,0,0,0,-1,699,652,-8.03676,1.36806
-518,372,-10.0945,-3.56366,0,0,0,0,0,0,0,-1,706,652,-10.0945,3.56364
-511,372,-10.0924,-4.11115,0.000863887,0.00520228,-0.00254515,0.00637721,-0.000311046,-1.13831,0.00435886,0.0288101,713,652,-10.0924,4.11113
-504,372,-10.1221,-4.52484,0.000541738,0.0030954,-0.00145536,0.00375464,-0.000117504,-1.14547,0.00254317,0.0142737,720,652,-10.1221,4.52484
-497,372,-10.0973,-5.02124,0.000512388,0.00189861,-0.000943201,0.00237598,3.50153e-05,-1.10226,0.00157244,0.0117524,727,652,-10.0973,5.02123
-490,372,-10.1122,-5.49005,0.000471727,0.000712417,-0.000460391,0.00106793,0.000116211,-0.913236,0.000676553,0.0126462,734,652,-10.1122,5.49007
-483,372,-10.1236,-5.96027,0.000761167,0.000748417,-0.000593704,0.00134853,0.000161054,-0.780029,0.000850434,0.0119165,741,652,-10.1236,5.96024
-476,372,-10.1241,-6.40674,0.00116616,0.000922241,-0.00089422,0.0019467,0.000141701,-0.717624,0.00125324,0.0126658,748,652,-10.1241,6.40673
-469,372,-10.1503,-6.85797,0.00153912,0.00114756,-0.00118628,0.00254567,0.000141012,-0.703616,0.00165211,0.0106662,755,652,-10.1503,6.85798
-462,372,-10.1603,-7.35974,0.00171073,0.00133313,-0.00140031,0.00293491,0.000108958,-0.718389,0.00192132,0.00945503,762,652,-10.1603,7.35977
-455,372,-10.1816,-7.84149,0.00139374,0.00142282,-0.00115357,0.00256194,0.000254623,-0.791701,0.00162973,0.00981687,769,652,-10.1816,7.8415
-448,372,-10.1786,-8.29974,0.00102428,0.00167074,-0.000923377,0.00232583,0.000369195,-0.953758,0.00144331,0.0118498,776,652,-10.1787,8.29974
-441,372,-10.1366,-8.82977,0,0,0,0,0,0,0,-1,783,652,-10.1366,8.82977
-434,372,-9.86865,-9.68494,0,0,0,0,0,0,0,-1,790,652,-9.86863,9.68492
-427,372,-4.54248,-3.56268,0,0,0,0,0,0,0,-1,797,652,-4.54247,3.56266
-420,372,-4.66168,-2.93597,0,0,0,0,0,0,0,-1,804,652,-4.66166,2.93599
-413,372,-4.74762,-3.29541,0,0,0,0,0,0,0,-1,811,652,-4.74763,3.29542
-406,372,-0.885437,-0.583923,0,0,0,0,0,0,0,-1,818,652,-0.885437,0.5839
-399,372,-3.97357,-0.825012,0,0,0,0,0,0,0,-1,825,652,-3.97359,0.825037
-392,372,-7.64337,0.173035,0,0,0,0,0,0,0,-1,832,652,-7.64337,-0.173019
-385,372,-6.48871,-0.0271606,0,0,0,0,0,0,0,-1,839,652,-6.48874,0.0271353
-378,372,-5.33044,-0.242432,0,0,0,0,0,0,0,-1,846,652,-5.33042,0.242457
-371,372,-4.40802,-0.495667,0,0,0,0,0,0,0,-1,853,652,-4.40802,0.495661
-364,372,0,0,0,0,0,0,0,0,0,-1,860,652,0,0
-357,372,0,0,0,0,0,0,0,0,0,-1,867,652,0,0
-350,372,0,0,0,0,0,0,0,0,0,-1,874,652,0,0
-343,372,0,0,0,0,0,0,0,0,0,-1,881,652,0,0
-336,372,0,0,0,0,0,0,0,0,0,-1,888,652,0,0
-329,372,0,0,0,0,0,0,0,0,0,-1,895,652,0,0
-322,372,0,0,0,0,0,0,0,0,0,-1,902,652,0,0
-315,372,0,0,0,0,0,0,0,0,0,-1,909,652,0,0
-308,372,0,0,0,0,0,0,0,0,0,-1,916,652,0,0
-301,372,0,0,0,0,0,0,0,0,0,-1,923,652,0,0
-294,372,0,0,0,0,0,0,0,0,0,-1,930,652,0,0
-287,372,0,0,0,0,0,0,0,0,0,-1,937,652,0,0
-280,372,0,0,0,0,0,0,0,0,0,-1,944,652,0,0
-273,372,0,0,0,0,0,0,0,0,0,-1,951,652,0,0
-266,372,0,0,0,0,0,0,0,0,0,-1,958,652,0,0
-259,372,0,0,0,0,0,0,0,0,0,-1,965,652,0,0
-252,372,0,0,0,0,0,0,0,0,0,-1,972,652,0,0
-245,372,0,0,0,0,0,0,0,0,0,-1,979,652,0,0
-238,372,0,0,0,0,0,0,0,0,0,-1,986,652,0,0
-231,372,0,0,0,0,0,0,0,0,0,-1,993,652,0,0
-224,372,0,0,0,0,0,0,0,0,0,-1,1000,652,0,0
-217,372,0,0,0,0,0,0,0,0,0,-1,1007,652,0,0
-210,372,0,0,0,0,0,0,0,0,0,-1,1014,652,0,0
-203,372,0,0,0,0,0,0,0,0,0,-1,1021,652,0,0
-196,372,0,0,0,0,0,0,0,0,0,-1,1028,652,0,0
-189,372,0,0,0,0,0,0,0,0,0,-1,1035,652,0,0
-182,372,0,0,0,0,0,0,0,0,0,-1,1042,652,0,0
-175,372,0,0,0,0,0,0,0,0,0,-1,1049,652,0,0
-168,372,0,0,0,0,0,0,0,0,0,-1,1056,652,0,0
-161,372,0,0,0,0,0,0,0,0,0,-1,1063,652,0,0
-154,372,0,0,0,0,0,0,0,0,0,-1,1070,652,0,0
-147,372,0,0,0,0,0,0,0,0,0,-1,1077,652,0,0
-140,372,0,0,0,0,0,0,0,0,0,-1,1084,652,0,0
-133,372,0,0,0,0,0,0,0,0,0,-1,1091,652,0,0
-126,372,0,0,0,0,0,0,0,0,0,-1,1098,652,0,0
-119,372,0,0,0,0,0,0,0,0,0,-1,1105,652,0,0
-112,372,0,0,0,0,0,0,0,0,0,-1,1112,652,0,0
-105,372,0,0,0,0,0,0,0,0,0,-1,1119,652,0,0
-98,372,0,0,0,0,0,0,0,0,0,-1,1126,652,0,0
-91,372,0,0,0,0,0,0,0,0,0,-1,1133,652,0,0
-84,372,0,0,0,0,0,0,0,0,0,-1,1140,652,0,0
-77,372,0,0,0,0,0,0,0,0,0,-1,1147,652,0,0
-70,372,0,0,0,0,0,0,0,0,0,-1,1154,652,0,0
-63,372,0,0,0,0,0,0,0,0,0,-1,1161,652,0,0
-56,372,0,0,0,0,0,0,0,0,0,-1,1168,652,0,0
-49,372,0,0,0,0,0,0,0,0,0,-1,1175,652,0,0
-42,372,0,0,0,0,0,0,0,0,0,-1,1182,652,0,0
-35,372,0,0,0,0,0,0,0,0,0,-1,1189,652,0,0
-28,372,0,0,0,0,0,0,0,0,0,-1,1196,652,0,0
-21,372,0,0,0,0,0,0,0,0,0,-1,1203,652,0,0
-14,372,0,0,0,0,0,0,0,0,0,-1,1210,652,0,0
-7,372,0,0,0,0,0,0,0,0,0,-1,1217,652,0,0
0,372,0,0,0,0,0,0,0,0,0,-1,1224,652,0,0
7,372,0,0,0,0,0,0,0,0,0,-1,1231,652,0,0
14,372,0,0,0,0,0,0,0,0,0,-1,1238,652,0,0
21,372,0,0,0,0,0,0,0,0,0,-1,1245,652,0,0
28,372,0,0,0,0,0,0,0,0,0,-1,1252,652,0,0
35,372,0,0,0,0,0,0,0,0,0,-1,1259,652,0,0
42,372,0,0,0,0,0,0,0,0,0,-1,1266,652,0,0
49,372,0,0,0,0,0,0,0,0,0,-1,1273,652,0,0
56,372,0,0,0,0,0,0,0,0,0,-1,1280,652,0,0
63,372,0,0,0,0,0,0,0,0,0,-1,1287,652,0,0
70,372,0,0,0,0,0,0,0,0,0,-1,1294,652,0,0
77,372,0,0,0,0,0,0,0,0,0,-1,1301,652,0,0
84,372,0,0,0,0,0,0,0,0,0,-1,1308,652,0,0
91,372,0,0,0,0,0,0,0,0,0,-1,1315,652,0,0
98,372,0,0,0,0,0,0,0,0,0,-1,1322,652,0,0
105,372,0,0,0,0,0,0,0,0,0,-1,1329,652,0,0
112,372,0,0,0,0,0,0,0,0,0,-1,1336,652,0,0
119,372,0,0,0,0,0,0,0,0,0,-1,1343,652,0,0
126,372,0,0,0,0,0,0,0,0,0,-1,1350,652,0,0
133,372,0,0,0,0,0,0,0,0,0,-1,1357,652,0,0
140,372,0,0,0,0,0,0,0,0,0,-1,1364,652,0,0
147,372,0,0,0,0,0,0,0,0,0,-1,1371,652,0,0
154,372,0,0,0,0,0,0,0,0,0,-1,1378,652,0,0
161,372,0,0,0,0,0,0,0,0,0,-1,1385,652,0,0
168,372,0,0,0,0,0,0,0,0,0,-1,1392,652,0,0
175,372,0,0,0,0,0,0,0,0,0,-1,1399,652,0,0
182,372,0,0,0,0,0,0,0,0,0,-1,1406,652,0,0
189,372,0,0,0,0,0,0,0,0,0,-1,1413,652,0,0
196,372,0,0,0,0,0,0,0,0,0,-1,1420,652,0,0
203,372,0,0,0,0,0,0,0,0,0,-1,1427,652,0,0
210,372,0,0,0,0,0,0,0,0,0,-1,1434,652,0,0
217,372,0,0,0,0,0,0,0,0,0,-1,1441,652,0,0
224,372,0,0,0,0,0,0,0,0,0,-1,1448,652,0,0
231,372,0,0,0,0,0,0,0,0,0,-1,1455,652,0,0
238,372,0,0,0,0,0,0,0,0,0,-1,1462,652,0,0
245,372,0,0,0,0,0,0,0,0,0,-1,1469,652,0,0
252,372,0,0,0,0,0,0,0,0,0,-1,1476,652,0,0
259,372,0,0,0,0,0,0,0,0,0,-1,1483,652,0,0
266,372,0,0,0,0,0,0,0,0,0,-1,1490,652,0,0
273,372,0,0,0,0,0,0,0,0,0,-1,1497,652,0,0
280,372,0,0,0,0,0,0,0,0,0,-1,1504,652,0,0
287,372,0,0,0,0,0,0,0,0,0,-1,1511,652,0,0
294,372,0,0,0,0,0,0,0,0,0,-1,1518,652,0,0
301,372,0,0,0,0,0,0,0,0,0,-1,1525,652,0,0
308,372,0,0,0,0,0,0,0,0,0,-1,1532,652,0,0
315,372,0,0,0,0,0,0,0,0,0,-1,1539,652,0,0
322,372,0,0,0,0,0,0,0,0,0,-1,1546,652,0,0
329,372,0,0,0,0,0,0,0,0,0,-1,1553,652,0,0
336,372,0,0,0,0,0,0,0,0,0,-1,1560,652,0,0
343,372,0,0,0,0,0,0,0,0,0,-1,1567,652,0,0
350,372,0,0,0,0,0,0,0,0,0,-1,1574,652,0,0
357,372,0,0,0,0,0,0,0,0,0,-1,1581,652,0,0
364,372,0,0,0,0,0,0,0,0,0,-1,1588,652,0,0
371,372,0,0,0,0,0,0,0,0,0,-1,1595,652,0,0
378,372,0,0,0,0,0,0,0,0,0,-1,1602,652,0,0
385,372,0,0,0,0,0,0,0,0,0,-1,1609,652,0,0
392,372,0,0,0,0,0,0,0,0,0,-1,1616,652,0,0
399,372,0,0,0,0,0,0,0,0,0,-1,1623,652,0,0
406,372,0,0,0,0,0,0,0,0,0,-1,1630,652,0,0
413,372,0,0,0,0,0,0,0,0,0,-1,1637,652,0,0
420,372,0,0,0,0,0,0,0,0,0,-1,1644,652,0,0
427,372,0,0,0,0,0,0,0,0,0,-1,1651,652,0,0
434,372,0,0,0,0,0,0,0,0,0,-1,1658,652,0,0
441,372,0,0,0,0,0,0,0,0,0,-1,1665,652,0,0
448,372,0,0,0,0,0,0,0,0,0,-1,1672,652,0,0
455,372,0,0,0,0,0,0,0,0,0,-1,1679,652,0,0
462,372,0,0,0,0,0,0,0,0,0,-1,1686,652,0,0
469,372,0,0,0,0,0,0,0,0,0,-1,1693,652,0,0
476,372,0,0,0,0,0,0,0,0,0,-1,1700,652,0,0
483,372,8.74182,1.53125,0,0,0,0,0,0,0,-1,1707,652,8.74186,-1.53126
490,372,9.78455,1.67096,0,0,0,0,0,0,0,-1,1714,652,9.7846,-1.67093
497,372,9.97644,1.46069,0,0,0,0,0,0,0,-1,1721,652,9.97647,-1.46071
504,372,10.1216,1.28375,0,0,0,0,0,0,0,-1,1728,652,10.1216,-1.28376
511,372,11.7367,-0.0272217,0,0,0,0,0,0,0,-1,1735,652,11.7367,0.0272326
518,372,12.0657,-0.0995483,0,0,0,0,0,0,0,-1,1742,652,12.0657,0.0995285
525,372,12.3947,-0.171814,0,0,0,0,0,0,0,-1,1749,652,12.3946,0.171824
532,372,9.36597,1.72034,0,0,0,0,0,0,0,-1,1756,652,9.36597,-1.72036
539,372,7.82886,-0.0865479,0,0,0,0,0,0,0,-1,1763,652,7.82882,0.0865771
546,372,10.953,-0.187195,0,0,0,0,0,0,0,-1,1770,652,10.953,0.187181
553,372,14.1201,-4.83234,0,0,0,0,0,0,0,-1,1777,652,14.1201,4.83235
560,372,19.239,-7.64435,0,0,0,0,0,0,0,-1,1784,652,19.239,7.64436
567,372,19.0018,-7.02521,0.00777118,0.000345119,0.000707803,0.00783804,0.000278257,0.0941833,0.00513512,0.0454659,1791,652,19.0018,7.02523
574,372,19.0465,-6.57422,0.00617165,0.000343195,0.000717794,0.00625875,0.000256098,0.12075,0.0040898,0.0265715,1798,652,19.0465,6.57424
581,372,19.0397,-6.17303,0.00494131,0.000501304,0.000801516,0.00508157,0.000361044,0.173239,0.00327401,0.0175588,1805,652,19.0397,6.17303
588,372,19.0189,-5.68536,0.00397736,0.000681909,0.000923172,0.00421835,0.000440919,0.255347,0.00267739,0.0155575,1812,652,19.0189,5.68538
595,372,18.986,-5.17517,0.00329053,0.000964336,0.00107115,0.00370862,0.000546242,0.372135,0.00231195,0.0140113,1819,652,18.9859,5.17518
602,372,18.9844,-4.70441,0.00300288,0.00145793,0.00140347,0.00383242,0.000628395,0.533821,0.00237338,0.0148074,1826,652,18.9844,4.70442
609,372,18.9281,-4.22308,0.00284248,0.00205294,0.00177382,0.00426493,0.000630499,0.675906,0.00265816,0.015132,1833,652,18.9281,4.22306
616,372,18.9125,-3.70953,0.00271323,0.00261423,0.00200987,0.00467421,0.000653249,0.773086,0.00292283,0.0140616,1840,652,18.9125,3.70954
623,372,18.9363,-3.16785,0.00280215,0.00320136,0.00228713,0.00529758,0.000705938,0.828925,0.00332151,0.0126022,1847,652,18.9363,3.16784
630,372,18.9224,-2.66455,0.00287916,0.00380177,0.00248832,0.00587119,0.000809748,0.877051,0.00367407,0.0177405,1854,652,18.9223,2.66457
637,372,18.9075,-2.19739,0.00287429,0.00427819,0.00257646,0.0062466,0.000905874,0.918393,0.00389769,0.0248413,1861,652,18.9075,2.19736
644,372,19.0223,-1.53204,0.00281737,0.00483307,0.00269749,0.00670483,0.000945602,0.964181,0.0041904,0.0427533,1868,652,19.0223,1.53203
651,372,19.4547,-0.772156,0,0,0,0,0,0,0,-1,1875,652,19.4547,0.772125
658,372,14.157,0.280273,0,0,0,0,0,0,0,-1,1882,652,14.157,-0.280264
665,372,13.421,0.714966,0,0,0,0,0,0,0,-1,1889,652,13.4211,-0.714941
672,372,9.34106,1.48444,0,0,0,0,0,0,0,-1,1896,652,9.34109,-1.48444
679,372,10.7308,2.32391,0,0,0,0,0,0,0,-1,1903,652,10.7309,-2.3239
686,372,11.6295,2.52997,0,0,0,0,0,0,0,-1,1910,652,11.6296,-2.52996
693,372,0,0,0,0,0,0,0,0,0,-1,1917,652,0,0
700,372,0,0,0,0,0,0,0,0,0,-1,1924,652,0,0
707,372,0,0,0,0,0,0,0,0,0,-1,1931,652,0,0
714,372,0,0,0,0,0,0,0,0,0,-1,1938,652,0,0
721,372,0,0,0,0,0,0,0,0,0,-1,1945,652,0,0
728,372,0,0,0,0,0,0,0,0,0,-1,1952,652,0,0
735,372,0,0,0,0,0,0,0,0,0,-1,1959,652,0,0
742,372,0,0,0,0,0,0,0,0,0,-1,1966,652,0,0
749,372,0,0,0,0,0,0,0,0,0,-1,1973,652,0,0
756,372,0,0,0,0,0,0,0,0,0,-1,1980,652,0,0
763,372,0,0,0,0,0,0,0,0,0,-1,1987,652,0,0
770,372,0,0,0,0,0,0,0,0,0,-1,1994,652,0,0
777,372,0,0,0,0,0,0,0,0,0,-1,2001,652,0,0
784,372,0,0,0,0,0,0,0,0,0,-1,2008,652,0,0
791,372,0,0,0,0,0,0,0,0,0,-1,2015,652,0,0
798,372,0,0,0,0,0,0,0,0,0,-1,2022,652,0,0
805,372,0,0,0,0,0,0,0,0,0,-1,2029,652,0,0
812,372,0,0,0,0,0,0,0,0,0,-1,2036,652,0,0
-700,365,0,0,0,0,0,0,0,0,0,-1,524,659,0,0
-693,365,0,0,0,0,0,0,0,0,0,-1,531,659,0,0
-686,365,0,0,0,0,0,0,0,0,0,-1,538,659,0,0
-679,365,0,0,0,0,0,0,0,0,0,-1,545,659,0,0
-672,365,0,0,0,0,0,0,0,0,0,-1,552,659,0,0
-665,365,0,0,0,0,0,0,0,0,0,-1,559,659,0,0
-658,365,0,0,0,0,0,0,0,0,0,-1,566,659,0,0
-651,365,0,0,0,0,0,0,0,0,0,-1,573,659,0,0
-644,365,0,0,0,0,0,0,0,0,0,-1,580,659,0,0
-637,365,0,0,0,0,0,0,0,0,0,-1,587,659,0,0
-630,365,0,0,0,0,0,0,0,0,0,-1,594,659,0,0
-623,365,0,0,0,0,0,0,0,0,0,-1,601,659,0,0
-616,365,0,0,0,0,0,0,0,0,0,-1,608,659,0,0
-609,365,0,0,0,0,0,0,0,0,0,-1,615,659,0,0
-602,365,0,0,0,0,0,0,0,0,0,-1,622,659,0,0
-595,365,0,0,0,0,0,0,0,0,0,-1,629,659,0,0
-588,365,0,0,0,0,0,0,0,0,0,-1,636,659,0,0
-581,365,0,0,0,0,0,0,0,0,0,-1,643,659,0,0
-574,365,-7.69281,1.59015,0,0,0,0,0,0,0,-1,650,659,-7.69282,-1.59018
-567,365,-8.2583,1.72638,0,0,0,0,0,0,0,-1,657,659,-8.25827,-1.72637
-560,365,-7.17767,0.275757,0,0,0,0,0,0,0,-1,664,659,-7.17768,-0.27577
-553,365,-10.0349,-0.169617,0,0,0,0,0,0,0,-1,671,659,-10.0349,0.169593
-546,365,-10.6303,-1.51642,0,0,0,0,0,0,0,-1,678,659,-10.6303,1.5164
-539,365,-8.38599,1.52936,0,0,0,0,0,0,0,-1,685,659,-8.38598,-1.52935
-532,365,-8.52863,0.166504,0,0,0,0,0,0,0,-1,692,659,-8.52863,-0.166501
-525,365,-9.28229,-2.62726,0,0,0,0,0,0,0,-1,699,659,-9.28227,2.62724
-518,365,-10.5814,-3.47607,0,0,0,0,0,0,0,-1,706,659,-10.5814,3.47605
-511,365,-10.5927,-4.02057,0.00113394,0.00533355,-0.00257872,0.00655925,-9.17539e-05,-1.12709,0.00440373,0.0295672,713,659,-10.5927,4.02058
-504,365,-10.5812,-4.49988,0.000844501,0.00320538,-0.0015368,0.00396277,8.71082e-05,-1.1129,0.0026133,0.0124972,720,659,-10.5812,4.49986
-497,365,-10.5683,-5.00183,0.000861558,0.0019949,-0.0010611,0.00263115,0.000225298,-1.03065,0.00168404,0.0131434,727,659,-10.5683,5.00183
-490,365,-10.5778,-5.48865,0.00080985,0.00075391,-0.000568041,0.00135061,0.000213151,-0.760799,0.000838436,0.014607,734,659,-10.5777,5.48867
-483,365,-10.6015,-5.9516,0.00111747,0.000849095,-0.000733902,0.00172935,0.000237212,-0.694978,0.00108253,0.0136687,741,659,-10.6015,5.95158
-476,365,-10.5806,-6.3996,0.00154683,0.0011096,-0.00109104,0.00244095,0.000215484,-0.686522,0.00156044,0.015149,748,659,-10.5806,6.39958
-469,365,-10.5963,-6.84937,0.00193069,0.00141981,-0.00143929,0.00313704,0.000213466,-0.697574,0.00202396,0.0149193,755,659,-10.5963,6.84938
-462,365,-10.6264,-7.34143,0.00213248,0.00172941,-0.00172967,0.00367232,0.000189575,-0.727401,0.00238753,0.0137815,762,659,-10.6264,7.34145
-455,365,-10.645,-7.82477,0.00182349,0.00193704,-0.00153396,0.00341528,0.000345252,-0.803895,0.00217094,0.0162764,769,659,-10.645,7.82479
-448,365,-10.5682,-8.36334,0.00144029,0.00250043,-0.00142167,0.00348763,0.000453083,-0.963841,0.00218974,0.0328147,776,659,-10.5682,8.36335
-441,365,-10.3587,-8.99341,0,0,0,0,0,0,0,-1,783,659,-10.3587,8.99339
-434,365,-5.45056,-3.98041,0,0,0,0,0,0,0,-1,790,659,-5.45055,3.98042
-427,365,-5.05377,-4.74689,0,0,0,0,0,0,0,-1,797,659,-5.05376,4.7469
-420,365,-4.58813,-3.16376,0,0,0,0,0,0,0,-1,804,659,-4.58816,3.16374
-413,365,0.141357,0.672729,0,0,0,0,0,0,0,-1,811,659,0.141365,-0.672714
-406,365,-1.75067,-0.934448,0,0,0,0,0,0,0,-1,818,659,-1.7507,0.934424
-399,365,-4.10242,-1.25439,0,0,0,0,0,0,0,-1,825,659,-4.10244,1.25438
-392,365,-7.46545,-0.779724,0,0,0,0,0,0,0,-1,832,659,-7.46543,0.779744
-385,365,-6.27875,-0.887573,0,0,0,0,0,0,0,-1,839,659,-6.27874,0.887545
-378,365,-5.34503,-0.263306,0,0,0,0,0,0,0,-1,846,659,-5.34504,0.263275
-371,365,0,0,0,0,0,0,0,0,0,-1,853,659,0,0
-364,365,0,0,0,0,0,0,0,0,0,-1,860,659,0,0
-357,365,0,0,0,0,0,0,0,0,0,-1,867,659,0,0
-350,365,0,0,0,0,0,0,0,0,0,-1,874,659,0,0
-343,365,0,0,0,0,0,0,0,0,0,-1,881,659,0,0
-336,365,0,0,0,0,0,0,0,0,0,-1,888,659,0,0
-329,365,0,0,0,0,0,0,0,0,0,-1,895,659,0,0
-322,365,0,0,0,0,0,0,0,0,0,-1,902,659,0,0
-315,365,0,0,0,0,0,0,0,0,0,-1,909,659,0,0
-308,365,0,0,0,0,0,0,0,0,0,-1,916,659,0,0
-301,365,0,0,0,0,0,0,0,0,0,-1,923,659,0,0
-294,365,0,0,0,0,0,0,0,0,0,-1,930,659,0,0
-287,365,0,0,0,0,0,0,0,0,0,-1,937,659,0,0
-280,365,0,0,0,0,0,0,0,0,0,-1,944,659,0,0
-273,365,0,0,0,0,0,0,0,0,0,-1,951,659,0,0
-266,365,0,0,0,0,0,0,0,0,0,-1,958,659,0,0
-259,365,0,0,0,0,0,0,0,0,0,-1,965,659,0,0
-252,365,0,0,0,0,0,0,0,0,0,-1,972,659,0,0
-245,365,0,0,0,0,0,0,0,0,0,-1,979,659,0,0
-238,365,0,0,0,0,0,0,0,0,0,-1,986,659,0,0
-231,365,0,0,0,0,0,0,0,0,0,-1,993,659,0,0
-224,365,0,0,0,0,0,0,0,0,0,-1,1000,659,0,0
-217,365,0,0,0,0,0,0,0,0,0,-1,1007,659,0,0
-210,365,0,0,0,0,0,0,0,0,0,-1,1014,659,0,0
-203,365,0,0,0,0,0,0,0,0,0,-1,1021,659,0,0
-196,365,0,0,0,0,0,0,0,0,0,-1,1028,659,0,0
-189,365,0,0,0,0,0,0,0,0,0,-1,1035,659,0,0
-182,365,0,0,0,0,0,0,0,0,0,-1,1042,659,0,0
-175,365,0,0,0,0,0,0,0,0,0,-1,1049,659,0,0
-168,365,0,0,0,0,0,0,0,0,0,-1,1056,659,0,0
-161,365,0,0,0,0,0,0,0,0,0,-1,1063,659,0,0
-154,365,0,0,0,0,0,0,0,0,0,-1,1070,659,0,0
-147,365,0,0,0,0,0,0,0,0,0,-1,1077,659,0,0
-140,365,0,0,0,0,0,0,0,0,0,-1,1084,659,0,0
-133,365,0,0,0,0,0,0,0,0,0,-1,1091,659,0,0
-126,365,0,0,0,0,0,0,0,0,0,-1,1098,659,0,0
-119,365,0,0,0,0,0,0,0,0,0,-1,1105,659,0,0
-112,365,0,0,0,0,0,0,0,0,0,-1,1112,659,0,0
-105,365,0,0,0,0,0,0,0,0,0,-1,1119,659,0,0
-98,365,0,0,0,0,0,0,0,0,0,-1,1126,659,0,0
-91,365,0,0,0,0,0,0,0,0,0,-1,1133,659,0,0
-84,365,0,0,0,0,0,0,0,0,0,-1,1140,659,0,0
-77,365,0,0,0,0,0,0,0,0,0,-1,1147,659,0,0
-70,365,0,0,0,0,0,0,0,0,0,-1,1154,659,0,0
-63,365,0,0,0,0,0,0,0,0,0,-1,1161,659,0,0
-56,365,0,0,0,0,0,0,0,0,0,-1,1168,659,0,0
-49,365,0,0,0,0,0,0,0,0,0,-1,1175,659,0,0
-42,365,0,0,0,0,0,0,0,0,0,-1,1182,659,0,0
-35,365,0,0,0,0,0,0,0,0,0,-1,1189,659,0,0
-28,365,0,0,0,0,0,0,0,0,0,-1,1196,659,0,0
-21,365,0,0,0,0,0,0,0,0,0,-1,1203,659,0,0
-14,365,0,0,0,0,0,0,0,0,0,-1,1210,659,0,0
-7,365,0,0,0,0,0,0,0,0,0,-1,1217,659,0,0
0,365,0,0,0,0,0,0,0,0,0,-1,1224,659,0,0
7,365,0,0,0,0,0,0,0,0,0,-1,1231,659,0,0
14,365,0,0,0,0,0,0,0,0,0,-1,1238,659,0,0
21,365,0,0,0,0,0,0,0,0,0,-1,1245,659,0,0
28,365,0,0,0,0,0,0,0,0,0,-1,1252,659,0,0
35,365,0,0,0,0,0,0,0,0,0,-1,1259,659,0,0
42,365,0,0,0,0,0,0,0,0,0,-1,1266,659,0,0
49,365,0,0,0,0,0,0,0,0,0,-1,1273,659,0,0
56,365,0,0,0,0,0,0,0,0,0,-1,1280,659,0,0
63,365,0,0,0,0,0,0,0,0,0,-1,1287,659,0,0
70,365,0,0,0,0,0,0,0,0,0,-1,1294,659,0,0
77,365,0,0,0,0,0,0,0,0,0,-1,1301,659,0,0
84,365,0,0,0,0,0,0,0,0,0,-1,1308,659,0,0
91,365,0,0,0,0,0,0,0,0,0,-1,1315,659,0,0
98,365,0,0,0,0,0,0,0,0,0,-1,1322,659,0,0
105,365,0,0,0,0,0,0,0,0,0,-1,1329,659,0,0
112,365,0,0,0,0,0,0,0,0,0,-1,1336,659,0,0
119,365,0,0,0,0,0,0,0,0,0,-1,1343,659,0,0
126,365,0,0,0,0,0,0,0,0,0,-1,1350,659,0,0
133,365,0,0,0,0,0,0,0,0,0,-1,1357,659,0,0
140,365,0,0,0,0,0,0,0,0,0,-1,1364,659,0,0
147,365,0,0,0,0,0,0,0,0,0,-1,1371,659,0,0
154,365,0,0,0,0,0,0,0,0,0,-1,1378,659,0,0
161,365,0,0,0,0,0,0,0,0,0,-1,1385,659,0,0
168,365,0,0,0,0,0,0,0,0,0,-1,1392,659,0,0
175,365,0,0,0,0,0,0,0,0,0,-1,1399,659,0,0
182,365,0,0,0,0,0,0,0,0,0,-1,1406,659,0,0
189,365,0,0,0,0,0,0,0,0,0,-1,1413,659,0,0
196,365,0,0,0,0,0,0,0,0,0,-1,1420,659,0,0
203,365,0,0,0,0,0,0,0,0,0,-1,1427,659,0,0
210,365,0,0,0,0,0,0,0,0,0,-1,1434,659,0,0
217,365,0,0,0,0,0,0,0,0,0,-1,1441,659,0,0
224,365,0,0,0,0,0,0,0,0,0,-1,1448,659,0,0
231,365,0,0,0,0,0,0,0,0,0,-1,1455,659,0,0
238,365,0,0,0,0,0,0,0,0,0,-1,1462,659,0,0
245,365,0,0,0,0,0,0,0,0,0,-1,1469,659,0,0
252,365,0,0,0,0,0,0,0,0,0,-1,1476,659,0,0
259,365,0,0,0,0,0,0,0,0,0,-1,1483,659,0,0
266,365,0,0,0,0,0,0,0,0,0,-1,1490,659,0,0
273,365,0,0,0,0,0,0,0,0,0,-1,1497,659,0,0
280,365,0,0,0,0,0,0,0,0,0,-1,1504,659,0,0
287,365,0,0,0,0,0,0,0,0,0,-1,1511,659,0,0
294,365,0,0,0,0,0,0,0,0,0,-1,1518,659,0,0
301,365,0,0,0,0,0,0,0,0,0,-1,1525,659,0,0
308,365,0,0,0,0,0,0,0,0,0,-1,1532,659,0,0
315,365,0,0,0,0,0,0,0,0,0,-1,1539,659,0,0
322,365,0,0,0,0,0,0,0,0,0,-1,1546,659,0,0
329,365,0,0,0,0,0,0,0,0,0,-1,1553,659,0,0
336,365,0,0,0,0,0,0,0,0,0,-1,1560,659,0,0
343,365,0,0,0,0,0,0,0,0,0,-1,1567,659,0,0
350,365,0,0,0,0,0,0,0,0,0,-1,1574,659,0,0
357,365,0,0,0,0,0,0,0,0,0,-1,1581,659,0,0
364,365,0,0,0,0,0,0,0,0,0,-1,1588,659,0,0
371,365,0,0,0,0,0,0,0,0,0,-1,1595,659,0,0
378,365,0,0,0,0,0,0,0,0,0,-1,1602,659,0,0
385,365,0,0,0,0,0,0,0,0,0,-1,1609,659,0,0
392,365,0,0,0,0,0,0,0,0,0,-1,1616,659,0,0
399,365,0,0,0,0,0,0,0,0,0,-1,1623,659,0,0
406,365,0,0,0,0,0,0,0,0,0,-1,1630,659,0,0
413,365,0,0,0,0,0,0,0,0,0,-1,1637,659,0,0
420,365,0,0,0,0,0,0,0,0,0,-1,1644,659,0,0
427,365,0,0,0,0,0,0,0,0,0,-1,1651,659,0,0
434,365,0,0,0,0,0,0,0,0,0,-1,1658,659,0,0
441,365,0,0,0,0,0,0,0,0,0,-1,1665,659,0,0
448,365,0,0,0,0,0,0,0,0,0,-1,1672,659,0,0
455,365,0,0,0,0,0,0,0,0,0,-1,1679,659,0,0
462,365,0,0,0,0,0,0,0,0,0,-1,1686,659,0,0
469,365,0,0,0,0,0,0,0,0,0,-1,1693,659,0,0
476,365,0,0,0,0,0,0,0,0,0,-1,1700,659,0,0
483,365,0,0,0,0,0,0,0,0,0,-1,1707,659,0,0
490,365,8.39551,0.471252,0,0,0,0,0,0,0,-1,1714,659,8.39551,-0.471241
497,365,9.89233,1.35394,0,0,0,0,0,0,0,-1,1721,659,9.89237,-1.35396
504,365,10.1414,1.18005,0,0,0,0,0,0,0,-1,1728,659,10.1413,-1.18004
511,365,10.5151,0.993896,0,0,0,0,0,0,0,-1,1735,659,10.5152,-0.993894
518,365,11.2029,0.398132,0,0,0,0,0,0,0,-1,1742,659,11.2029,-0.398136
525,365,15.5748,3.85303,0,0,0,0,0,0,0,-1,1749,659,15.5748,-3.85303
532,365,11.2446,1.00629,0,0,0,0,0,0,0,-1,1756,659,11.2446,-1.00631
539,365,12.6301,1.03204,0,0,0,0,0,0,0,-1,1763,659,12.6302,-1.03204
546,365,11.647,0.84198,0,0,0,0,0,0,0,-1,1770,659,11.6469,-0.841955
553,365,12.028,-0.558899,0,0,0,0,0,0,0,-1,1777,659,12.028,0.558873
560,365,14.5372,-4.55548,0,0,0,0,0,0,0,-1,1784,659,14.5373,4.55547
567,365,19.7032,-7.10736,0,0,0,0,0,0,0,-1,1791,659,19.7033,7.10734
574,365,19.6714,-6.49268,0,0,0,0,0,0,0,-1,1798,659,19.6714,6.49267
581,365,19.5231,-6.08582,0,0,0,0,0,0,0,-1,1805,659,19.5231,6.08582
588,365,19.4548,-5.74371,0.00458235,0.00068387,0.00112586,0.00488413,0.000382091,0.261888,0.00313649,0.0178529,1812,659,19.4548,5.74371
595,365,19.4777,-5.1488,0.00370818,0.000789909,0.00113752,0.00409919,0.000398899,0.331085,0.00261001,0.0126662,1819,659,19.4776,5.14879
602,365,19.4507,-4.65668,0.00325062,0.00111808,0.00131366,0.00387629,0.000492415,0.444488,0.00243669,0.0150879,1826,659,19.4507,4.65667
609,365,19.4023,-4.17474,0.00302499,0.00154633,0.00157107,0.004022,0.000549327,0.565476,0.00251828,0.0162135,1833,659,19.4024,4.17477
616,365,19.4114,-3.66095,0.00282668,0.00194635,0.00170274,0.00414523,0.0006278,0.658916,0.00257981,0.0172219,1840,659,19.4114,3.66098
623,365,19.4434,-3.15625,0.00274424,0.00236459,0.00185184,0.00441595,0.000692876,0.734324,0.00274234,0.0117514,1847,659,19.4434,3.15628
630,365,19.4309,-2.66016,0.00259539,0.00276945,0.00188778,0.0045722,0.000792633,0.808433,0.00282129,0.0164093,1854,659,19.4309,2.66015
637,365,19.3973,-2.21136,0.00229632,0.00296591,0.00179315,0.00445526,0.000806979,0.87769,0.00274106,0.0227107,1861,659,19.3973,2.21137
644,365,19.3849,-1.72229,0.00185396,0.00315811,0.00159594,0.00423004,0.000782021,0.979341,0.00259887,0.0194808,1868,659,19.3848,1.72231
651,365,19.6227,-1.05475,0.000984616,0.00310593,0.00105313,0.00353996,0.00055059,1.17988,0.00219953,0.0482026,1875,659,19.6227,1.05477
658,365,19.6991,-0.299133,0,0,0,0,0,0,0,-1,1882,659,19.6991,0.299123
665,365,14.0961,0.769043,0,0,0,0,0,0,0,-1,1889,659,14.0961,-0.769063
672,365,10.0579,2.15088,0,0,0,0,0,0,0,-1,1896,659,10.0579,-2.15088
679,365,10.9718,2.19208,0,0,0,0,0,0,0,-1,1903,659,10.9718,-2.19211
686,365,12.2134,2.17108,0,0,0,0,0,0,0,-1,1910,659,12.2134,-2.17109
693,365,13.7141,1.98279,0,0,0,0,0,0,0,-1,1917,659,13.7141,-1.98278
700,365,0,0,0,0,0,0,0,0,0,-1,1924,659,0,0
707,365,0,0,0,0,0,0,0,0,0,-1,1931,659,0,0
714,365,0,0,0,0,0,0,0,0,0,-1,1938,659,0,0
721,365,0,0,0,0,0,0,0,0,0,-1,1945,659,0,0
728,365,0,0,0,0,0,0,0,0,0,-1,1952,659,0,0
735,365,0,0,0,0,0,0,0,0,0,-1,1959,659,0,0
742,365,0,0,0,0,0,0,0,0,0,-1,1966,659,0,0
749,365,0,0,0,0,0,0,0,0,0,-1,1973,659,0,0
756,365,0,0,0,0,0,0,0,0,0,-1,1980,659,0,0
763,365,0,0,0,0,0,0,0,0,0,-1,1987,659,0,0
770,365,0,0,0,0,0,0,0,0,0,-1,1994,659,0,0
777,365,0,0,0,0,0,0,0,0,0,-1,2001,659,0,0
784,365,0,0,0,0,0,0,0,0,0,-1,2008,659,0,0
791,365,0,0,0,0,0,0,0,0,0,-1,2015,659,0,0
798,365,0,0,0,0,0,0,0,0,0,-1,2022,659,0,0
805,365,0,0,0,0,0,0,0,0,0,-1,2029,659,0,0
812,365,0,0,0,0,0,0,0,0,0,-1,2036,659,0,0
-700,358,0,0,0,0,0,0,0,0,0,-1,524,666,0,0
-693,358,0,0,0,0,0,0,0,0,0,-1,531,666,0,0
-686,358,0,0,0,0,0,0,0,0,0,-1,538,666,0,0
-679,358,0,0,0,0,0,0,0,0,0,-1,545,666,0,0
-672,358,0,0,0,0,0,0,0,0,0,-1,552,666,0,0
-665,358,0,0,0,0,0,0,0,0,0,-1,559,666,0,0
-658,358,0,0,0,0,0,0,0,0,0,-1,566,666,0,0
-651,358,0,0,0,0,0,0,0,0,0,-1,573,666,0,0
-644,358,0,0,0,0,0,0,0,0,0,-1,580,666,0,0
-637,358,0,0,0,0,0,0,0,0,0,-1,587,666,0,0
-630,358,0,0,0,0,0,0,0,0,0,-1,594,666,0,0
-623,358,0,0,0,0,0,0,0,0,0,-1,601,666,0,0
-616,358,0,0,0,0,0,0,0,0,0,-1,608,666,0,0
-609,358,0,0,0,0,0,0,0,0,0,-1,615,666,0,0
-602,358,0,0,0,0,0,0,0,0,0,-1,622,666,0,0
-595,358,0,0,0,0,0,0,0,0,0,-1,629,666,0,0
-588,358,0,0,0,0,0,0,0,0,0,-1,636,666,0,0
-581,358,-8.31616,1.61993,0,0,0,0,0,0,0,-1,643,666,-8.31614,-1.61993
-574,358,-8.22406,1.75385,0,0,0,0,0,0,0,-1,650,666,-8.22408,-1.75383
-567,358,-8.14215,1.91577,0,0,0,0,0,0,0,-1,657,666,-8.14214,-1.91579
-560,358,-10.6086,2.18872,0,0,0,0,0,0,0,-1,664,666,-10.6086,-2.18873
-553,358,-14.0237,1.3114,0,0,0,0,0,0,0,-1,671,666,-14.0237,-1.31138
-546,358,-12.319,-1.24353,0,0,0,0,0,0,0,-1,678,666,-12.319,1.24354
-539,358,-9.43884,-2.04785,0,0,0,0,0,0,0,-1,685,666,-9.43884,2.04785
-532,358,-11.0532,-2.29224,0,0,0,0,0,0,0,-1,692,666,-11.0531,2.29226
-525,358,-10.9813,-3.24048,0,0,0,0,0,0,0,-1,699,666,-10.9813,3.24047
-518,358,-11.0355,-3.54846,0,0,0,0,0,0,0,-1,706,666,-11.0355,3.54849
-511,358,-11.0417,-4.01788,0.00135208,0.00525782,-0.00249713,0.00647502,0.000134884,-1.11725,0.00427243,0.0166607,713,666,-11.0417,4.01791
-504,358,-11.0555,-4.4848,0.00109775,0.00317225,-0.00150259,0.00396084,0.000309167,-1.08749,0.00254377,0.0118565,720,666,-11.0555,4.48483
-497,358,-11.0408,-4.98157,0.00115453,0.00200003,-0.00106816,0.00272605,0.000428505,-0.973828,0.00169271,0.0110627,727,666,-11.0408,4.98157
-490,358,-11.0313,-5.46033,0.00112081,0.000788247,-0.000609595,0.00158639,0.00032266,-0.652252,0.000968133,0.0107321,734,666,-11.0313,5.46031
-483,358,-11.0569,-5.92072,0.00146158,0.000959428,-0.000835758,0.00208316,0.000337845,-0.63948,0.00129098,0.0105582,741,666,-11.057,5.92073
-476,358,-11.0427,-6.35394,0.00192403,0.00131718,-0.00127413,0.00293036,0.000310845,-0.668504,0.00185864,0.0126234,748,666,-11.0427,6.35393
-469,358,-11.0721,-6.81952,0.00234021,0.00171044,-0.00171374,0.00376775,0.000282897,-0.694541,0.00242305,0.0157104,755,666,-11.0721,6.81949
-462,358,-11.1194,-7.33105,0.00260474,0.00216706,-0.00213732,0.0045344,0.000237408,-0.73438,0.00294698,0.0173232,762,666,-11.1195,7.33108
-455,358,-11.0744,-7.85168,0.00236695,0.0025537,-0.00210474,0.00456713,0.000353513,-0.807565,0.00293403,0.0352322,769,666,-11.0744,7.85167
-448,358,-10.8936,-8.55042,0,0,0,0,0,0,0,-1,776,666,-10.8936,8.55042
-441,358,-5.56293,-3.98041,0,0,0,0,0,0,0,-1,783,666,-5.56291,3.98043
-434,358,-5.21558,-4.43127,0,0,0,0,0,0,0,-1,790,666,-5.21559,4.43125
-427,358,-3.56189,-3.15729,0,0,0,0,0,0,0,-1,797,666,-3.56192,3.15729
-420,358,0.200195,1.08234,0,0,0,0,0,0,0,-1,804,666,0.200174,-1.08231
-413,358,0.0325317,0.161072,0,0,0,0,0,0,0,-1,811,666,0.0325501,-0.161098
-406,358,-3.85846,0.753113,0,0,0,0,0,0,0,-1,818,666,-3.85846,-0.753129
-399,358,-1.31213,0.190735,0,0,0,0,0,0,0,-1,825,666,-1.31215,-0.190763
-392,358,-3.73914,-0.832214,0,0,0,0,0,0,0,-1,832,666,-3.73915,0.832202
-385,358,-5.95178,-1.69141,0,0,0,0,0,0,0,-1,839,666,-5.9518,1.69143
-378,358,0,0,0,0,0,0,0,0,0,-1,846,666,0,0
-371,358,0,0,0,0,0,0,0,0,0,-1,853,666,0,0
-364,358,0,0,0,0,0,0,0,0,0,-1,860,666,0,0
-357,358,0,0,0,0,0,0,0,0,0,-1,867,666,0,0
-350,358,0,0,0,0,0,0,0,0,0,-1,874,666,0,0
-343,358,0,0,0,0,0,0,0,0,0,-1,881,666,0,0
-336,358,0,0,0,0,0,0,0,0,0,-1,888,666,0,0
-329,358,0,0,0,0,0,0,0,0,0,-1,895,666,0,0
-322,358,0,0,0,0,0,0,0,0,0,-1,902,666,0,0
-315,358,0,0,0,0,0,0,0,0,0,-1,909,666,0,0
-308,358,0,0,0,0,0,0,0,0,0,-1,916,666,0,0
-301,358,0,0,0,0,0,0,0,0,0,-1,923,666,0,0
-294,358,0,0,0,0,0,0,0,0,0,-1,930,666,0,0
-287,358,0,0,0,0,0,0,0,0,0,-1,937,666,0,0
-280,358,0,0,0,0,0,0,0,0,0,-1,944,666,0,0
-273,358,0,0,0,0,0,0,0,0,0,-1,951,666,0,0
-266,358,0,0,0,0,0,0,0,0,0,-1,958,666,0,0
-259,358,0,0,0,0,0,0,0,0,0,-1,965,666,0,0
-252,358,0,0,0,0,0,0,0,0,0,-1,972,666,0,0
-245,358,0,0,0,0,0,0,0,0,0,-1,979,666,0,0
-238,358,0,0,0,0,0,0,0,0,0,-1,986,666,0,0
-231,358,0,0,0,0,0,0,0,0,0,-1,993,666,0,0
-224,358,0,0,0,0,0,0,0,0,0,-1,1000,666,0,0
-217,358,0,0,0,0,0,0,0,0,0,-1,1007,666,0,0
-210,358,0,0,0,0,0,0,0,0,0,-1,1014,666,0,0
-203,358,0,0,0,0,0,0,0,0,0,-1,1021,666,0,0
-196,358,0,0,0,0,0,0,0,0,0,-1,1028,666,0,0
-189,358,0,0,0,0,0,0,0,0,0,-1,1035,666,0,0
-182,358,0,0,0,0,0,0,0,0,0,-1,1042,666,0,0
-175,358,0,0,0,0,0,0,0,0,0,-1,1049,666,0,0
-168,358,0,0,0,0,0,0,0,0,0,-1,1056,666,0,0
-161,358,0,0,0,0,0,0,0,0,0,-1,1063,666,0,0
-154,358,0,0,0,0,0,0,0,0,0,-1,1070,666,0,0
-147,358,0,0,0,0,0,0,0,0,0,-1,1077,666,0,0
-140,358,0,0,0,0,0,0,0,0,0,-1,1084,666,0,0
-133,358,0,0,0,0,0,0,0,0,0,-1,1091,666,0,0
-126,358,0,0,0,0,0,0,0,0,0,-1,1098,666,0,0
-119,358,0,0,0,0,0,0,0,0,0,-1,1105,666,0,0
-112,358,0,0,0,0,0,0,0,0,0,-1,1112,666,0,0
-105,358,0,0,0,0,0,0,0,0,0,-1,1119,666,0,0
-98,358,0,0,0,0,0,0,0,0,0,-1,1126,666,0,0
-91,358,0,0,0,0,0,0,0,0,0,-1,1133,666,0,0
-84,358,0,0,0,0,0,0,0,0,0,-1,1140,666,0,0
-77,358,0,0,0,0,0,0,0,0,0,-1,1147,666,0,0
-70,358,0,0,0,0,0,0,0,0,0,-1,1154,666,0,0
-63,358,0,0,0,0,0,0,0,0,0,-1,1161,666,0,0
-56,358,0,0,0,0,0,0,0,0,0,-1,1168,666,0,0
-49,358,0,0,0,0,0,0,0,0,0,-1,1175,666,0,0
-42,358,0,0,0,0,0,0,0,0,0,-1,1182,666,0,0
-35,358,0,0,0,0,0,0,0,0,0,-1,1189,666,0,0
-28,358,0,0,0,0,0,0,0,0,0,-1,1196,666,0,0
-21,358,0,0,0,0,0,0,0,0,0,-1,1203,666,0,0
-14,358,0,0,0,0,0,0,0,0,0,-1,1210,666,0,0
-7,358,0,0,0,0,0,0,0,0,0,-1,1217,666,0,0
0,358,0,0,0,0,0,0,0,0,0,-1,1224,666,0,0
7,358,0,0,0,0,0,0,0,0,0,-1,1231,666,0,0
14,358,0,0,0,0,0,0,0,0,0,-1,1238,666,0,0
21,358,0,0,0,0,0,0,0,0,0,-1,1245,666,0,0
28,358,0,0,0,0,0,0,0,0,0,-1,1252,666,0,0
35,358,0,0,0,0,0,0,0,0,0,-1,1259,666,0,0
42,358,0,0,0,0,0,0,0,0,0,-1,1266,666,0,0
49,358,0,0,0,0,0,0,0,0,0,-1,1273,666,0,0
56,358,0,0,0,0,0,0,0,0,0,-1,1280,666,0,0
63,358,0,0,0,0,0,0,0,0,0,-1,1287,666,0,0
70,358,0,0,0,0,0,0,0,0,0,-1,1294,666,0,0
77,358,0,0,0,0,0,0,0,0,0,-1,1301,666,0,0
84,358,0,0,0,0,0,0,0,0,0,-1,1308,666,0,0
91,358,0,0,0,0,0,0,0,0,0,-1,1315,666,0,0
98,358,0,0,0,0,0,0,0,0,0,-1,1322,666,0,0
105,358,0,0,0,0,0,0,0,0,0,-1,1329,666,0,0
112,358,0,0,0,0,0,0,0,0,0,-1,1336,666,0,0
119,358,0,0,0,0,0,0,0,0,0,-1,1343,666,0,0
126,358,0,0,0,0,0,0,0,0,0,-1,1350,666,0,0
133,358,0,0,0,0,0,0,0,0,0,-1,1357,666,0,0
140,358,0,0,0,0,0,0,0,0,0,-1,1364,666,0,0
147,358,0,0,0,0,0,0,0,0,0,-1,1371,666,0,0
154,358,0,0,0,0,0,0,0,0,0,-1,1378,666,0,0
161,358,0,0,0,0,0,0,0,0,0,-1,1385,666,0,0
168,358,0,0,0,0,0,0,0,0,0,-1,1392,666,0,0
175,358,0,0,0,0,0,0,0,0,0,-1,1399,666,0,0
182,358,0,0,0,0,0,0,0,0,0,-1,1406,666,0,0
189,358,0,0,0,0,0,0,0,0,0,-1,1413,666,0,0
196,358,0,0,0,0,0,0,0,0,0,-1,1420,666,0,0
203,358,0,0,0,0,0,0,0,0,0,-1,1427,666,0,0
210,358,0,0,0,0,0,0,0,0,0,-1,1434,666,0,0
217,358,0,0,0,0,0,0,0,0,0,-1,1441,666,0,0
224,358,0,0,0,0,0,0,0,0,0,-1,1448,666,0,0
231,358,0,0,0,0,0,0,0,0,0,-1,1455,666,0,0
238,358,0,0,0,0,0,0,0,0,0,-1,1462,666,0,0
245,358,0,0,0,0,0,0,0,0,0,-1,1469,666,0,0
252,358,0,0,0,0,0,0,0,0,0,-1,1476,666,0,0
259,358,0,0,0,0,0,0,0,0,0,-1,1483,666,0,0
266,358,0,0,0,0,0,0,0,0,0,-1,1490,666,0,0
273,358,0,0,0,0,0,0,0,0,0,-1,1497,666,0,0
280,358,0,0,0,0,0,0,0,0,0,-1,1504,666,0,0
287,358,0,0,0,0,0,0,0,0,0,-1,1511,666,0,0
294,358,0,0,0,0,0,0,0,0,0,-1,1518,666,0,0
301,358,0,0,0,0,0,0,0,0,0,-1,1525,666,0,0
308,358,0,0,0,0,0,0,0,0,0,-1,1532,666,0,0
315,358,0,0,0,0,0,0,0,0,0,-1,1539,666,0,0
322,358,0,0,0,0,0,0,0,0,0,-1,1546,666,0,0
329,358,0,0,0,0,0,0,0,0,0,-1,1553,666,0,0
336,358,0,0,0,0,0,0,0,0,0,-1,1560,666,0,0
343,358,0,0,0,0,0,0,0,0,0,-1,1567,666,0,0
350,358,0,0,0,0,0,0,0,0,0,-1,1574,666,0,0
357,358,0,0,0,0,0,0,0,0,0,-1,1581,666,0,0
364,358,0,0,0,0,0,0,0,0,0,-1,1588,666,0,0
371,358,0,0,0,0,0,0,0,0,0,-1,1595,666,0,0
378,358,0,0,0,0,0,0,0,0,0,-1,1602,666,0,0
385,358,0,0,0,0,0,0,0,0,0,-1,1609,666,0,0
392,358,0,0,0,0,0,0,0,0,0,-1,1616,666,0,0
399,358,0,0,0,0,0,0,0,0,0,-1,1623,666,0,0
406,358,0,0,0,0,0,0,0,0,0,-1,1630,666,0,0
413,358,0,0,0,0,0,0,0,0,0,-1,1637,666,0,0
420,358,0,0,0,0,0,0,0,0,0,-1,1644,666,0,0
427,358,0,0,0,0,0,0,0,0,0,-1,1651,666,0,0
434,358,0,0,0,0,0,0,0,0,0,-1,1658,666,0,0
441,358,0,0,0,0,0,0,0,0,0,-1,1665,666,0,0
448,358,0,0,0,0,0,0,0,0,0,-1,1672,666,0,0
455,358,0,0,0,0,0,0,0,0,0,-1,1679,666,0,0
462,358,0,0,0,0,0,0,0,0,0,-1,1686,666,0,0
469,358,0,0,0,0,0,0,0,0,0,-1,1693,666,0,0
476,358,0,0,0,0,0,0,0,0,0,-1,1700,666,0,0
483,358,0,0,0,0,0,0,0,0,0,-1,1707,666,0,0
490,358,0,0,0,0,0,0,0,0,0,-1,1714,666,0,0
497,358,8.57239,1.1322,0,0,0,0,0,0,0,-1,1721,666,8.57234,-1.13219
504,358,10.5972,0.832947,0,0,0,0,0,0,0,-1,1728,666,10.5972,-0.832968
511,358,10.6873,0.868469,0,0,0,0,0,0,0,-1,1735,666,10.6872,-0.868484
518,358,16.5884,2.34894,0,0,0,0,0,0,0,-1,1742,666,16.5884,-2.34894
525,358,15.7626,3.65344,0,0,0,0,0,0,0,-1,1749,666,15.7626,-3.65342
532,358,14.9368,4.95789,0,0,0,0,0,0,0,-1,1756,666,14.9367,-4.9579
539,358,15.1597,3.42694,0,0,0,0,0,0,0,-1,1763,666,15.1597,-3.42692
546,358,12.3792,1.53558,0,0,0,0,0,0,0,-1,1770,666,12.3792,-1.5356
553,358,11.6584,1.26172,0,0,0,0,0,0,0,-1,1777,666,11.6585,-1.26175
560,358,10.8234,1.43042,0,0,0,0,0,0,0,-1,1784,666,10.8233,-1.43041
567,358,10.1333,-0.955139,0,0,0,0,0,0,0,-1,1791,666,10.1333,0.955132
574,358,14.7886,-2.69293,0,0,0,0,0,0,0,-1,1798,666,14.7885,2.6929
581,358,19.5903,-6.53534,0,0,0,0,0,0,0,-1,1805,666,19.5904,6.53535
588,358,19.8041,-5.81152,0.00541595,0.00065195,0.00147692,0.00583667,0.000231234,0.27751,0.00381637,0.0454708,1812,666,19.8041,5.81153
595,358,19.9675,-5.12561,0.00423676,0.0006698,0.00135544,0.00469337,0.000213187,0.324934,0.00306033,0.014138,1819,666,19.9675,5.12562
602,358,19.9207,-4.60785,0.00351353,0.000887201,0.00135096,0.00408437,0.000316358,0.399791,0.00262383,0.0127369,1826,666,19.9207,4.60788
609,358,19.8744,-4.14532,0.00317589,0.00119956,0.00149494,0.00397974,0.000395706,0.493361,0.00253159,0.0167854,1833,666,19.8744,4.14535
616,358,19.8818,-3.64386,0.00287345,0.00149736,0.00154868,0.00388005,0.000490768,0.576356,0.00243962,0.0159083,1840,666,19.8818,3.64388
623,358,19.917,-3.14697,0.00259054,0.00179024,0.00157732,0.00381768,0.000563108,0.661173,0.00237973,0.0142538,1847,666,19.917,3.14697
630,358,19.9131,-2.66681,0.00221583,0.0020375,0.00145966,0.00358905,0.000664282,0.754894,0.00220488,0.0179185,1854,666,19.9131,2.66679
637,358,19.8619,-2.22241,0.00166311,0.00204315,0.0012007,0.00306878,0.000637486,0.863876,0.00186994,0.0239496,1861,666,19.8619,2.22239
644,358,19.8811,-1.73456,0.000920869,0.00198678,0.000763067,0.00238458,0.000523064,1.09024,0.00144722,0.0189363,1868,666,19.8812,1.73453
651,358,20.0022,-1.10034,-0.000200919,0.00171321,4.50725e-05,0.00171427,-0.00020198,1.54727,0.00121578,0.0293003,1875,666,20.0021,1.10034
658,358,20.0186,-0.318359,0,0,0,0,0,0,0,-1,1882,666,20.0186,0.31836
665,358,19.0004,-0.0202637,0,0,0,0,0,0,0,-1,1889,666,19.0004,0.0202346
672,358,12.4299,1.47272,0,0,0,0,0,0,0,-1,1896,666,12.4299,-1.4727
679,358,12.1294,2.19702,0,0,0,0,0,0,0,-1,1903,666,12.1294,-2.19703
686,358,11.9557,2.2002,0,0,0,0,0,0,0,-1,1910,666,11.9557,-2.20021
693,358,13.188,2.52203,0,0,0,0,0,0,0,-1,1917,666,13.188,-2.52202
700,358,0,0,0,0,0,0,0,0,0,-1,1924,666,0,0
707,358,0,0,0,0,0,0,0,0,0,-1,1931,666,0,0
714,358,0,0,0,0,0,0,0,0,0,-1,1938,666,0,0
721,358,0,0,0,0,0,0,0,0,0,-1,1945,666,0,0
728,358,0,0,0,0,0,0,0,0,0,-1,1952,666,0,0
735,358,0,0,0,0,0,0,0,0,0,-1,1959,666,0,0
742,358,0,0,0,0,0,0,0,0,0,-1,1966,666,0,0
749,358,0,0,0,0,0,0,0,0,0,-1,1973,666,0,0
756,358,0,0,0,0,0,0,0,0,0,-1,1980,666,0,0
763,358,0,0,0,0,0,0,0,0,0,-1,1987,666,0,0
770,358,0,0,0,0,0,0,0,0,0,-1,1994,666,0,0
777,358,0,0,0,0,0,0,0,0,0,-1,2001,666,0,0
784,358,0,0,0,0,0,0,0,0,0,-1,2008,666,0,0
791,358,0,0,0,0,0,0,0,0,0,-1,2015,666,0,0
798,358,0,0,0,0,0,0,0,0,0,-1,2022,666,0,0
805,358,0,0,0,0,0,0,0,0,0,-1,2029,666,0,0
812,358,0,0,0,0,0,0,0,0,0,-1,2036,666,0,0
-700,351,0,0,0,0,0,0,0,0,0,-1,524,673,0,0
-693,351,0,0,0,0,0,0,0,0,0,-1,531,673,0,0
-686,351,0,0,0,0,0,0,0,0,0,-1,538,673,0,0
-679,351,0,0,0,0,0,0,0,0,0,-1,545,673,0,0
-672,351,0,0,0,0,0,0,0,0,0,-1,552,673,0,0
-665,351,0,0,0,0,0,0,0,0,0,-1,559,673,0,0
-658,351,0,0,0,0,0,0,0,0,0,-1,566,673,0,0
-651,351,0,0,0,0,0,0,0,0,0,-1,573,673,0,0
-644,351,0,0,0,0,0,0,0,0,0,-1,580,673,0,0
-637,351,0,0,0,0,0,0,0,0,0,-1,587,673,0,0
-630,351,0,0,0,0,0,0,0,0,0,-1,594,673,0,0
-623,351,0,0,0,0,0,0,0,0,0,-1,601,673,0,0
-616,351,0,0,0,0,0,0,0,0,0,-1,608,673,0,0
-609,351,0,0,0,0,0,0,0,0,0,-1,615,673,0,0
-602,351,0,0,0,0,0,0,0,0,0,-1,622,673,0,0
-595,351,0,0,0,0,0,0,0,0,0,-1,629,673,0,0
-588,351,0,0,0,0,0,0,0,0,0,-1,636,673,0,0
-581,351,-9.0647,1.71906,0,0,0,0,0,0,0,-1,643,673,-9.06472,-1.71908
-574,351,-8.23584,2.64764,0,0,0,0,0,0,0,-1,650,673,-8.23584,-2.64764
-567,351,-10.8027,4.56836,0,0,0,0,0,0,0,-1,657,673,-10.8027,-4.56839
-560,351,-15.6974,4.15765,0,0,0,0,0,0,0,-1,664,673,-15.6974,-4.15766
-553,351,-14.1268,1.61346,0,0,0,0,0,0,0,-1,671,673,-14.1268,-1.61348
-546,351,-12.5903,-0.861572,0,0,0,0,0,0,0,-1,678,673,-12.5903,0.861561
-539,351,-11.4187,-1.53961,0,0,0,0,0,0,0,-1,685,673,-11.4187,1.5396
-532,351,-11.3037,-2.59473,0,0,0,0,0,0,0,-1,692,673,-11.3037,2.59473
-525,351,-11.4211,-3.18921,0.0031505,0.0132501,-0.00659189,0.0165042,-0.000103511,-1.11225,0.0110374,0.0409885,699,673,-11.4211,3.18923
-518,351,-11.4994,-3.49664,0.00203969,0.00834227,-0.00404383,0.0103177,6.42664e-05,-1.11639,0.00685715,0.0165743,706,673,-11.4994,3.49661
-511,351,-11.4859,-3.9931,0.00144584,0.00511683,-0.00241463,0.0063144,0.000248265,-1.11038,0.00412933,0.0117056,713,673,-11.4859,3.99309
-504,351,-11.5092,-4.48846,0.00121362,0.00307533,-0.00146716,0.00388201,0.000406934,-1.06808,0.00246359,0.0106055,720,673,-11.5092,4.48845
-497,351,-11.5245,-4.95685,0.00130004,0.00192483,-0.00106284,0.00272024,0.000504639,-0.928335,0.00167088,0.00982933,727,673,-11.5245,4.95683
-490,351,-11.5249,-5.42236,0.00133232,0.000820087,-0.000685691,0.00180817,0.000344242,-0.606663,0.00110866,0.0093556,734,673,-11.5249,5.42235
-483,351,-11.5305,-5.88489,0.00174909,0.00105702,-0.00098606,0.00244807,0.000358044,-0.616649,0.00152676,0.0115175,741,673,-11.5305,5.88486
-476,351,-11.554,-6.33502,0.00227734,0.00149763,-0.00150116,0.00343844,0.000336534,-0.658353,0.00218876,0.0113124,748,673,-11.554,6.33504
-469,351,-11.5745,-6.8028,0.00277596,0.00195695,-0.00203257,0.00443986,0.000293048,-0.685993,0.00286722,0.0137663,755,673,-11.5745,6.80278
-462,351,-11.5931,-7.32428,0.00318208,0.00259519,-0.00263531,0.00554023,0.000237042,-0.72995,0.00361706,0.025928,762,673,-11.5932,7.32429
-455,351,-11.5961,-7.85431,0,0,0,0,0,0,0,-1,769,673,-11.5961,7.85429
-448,351,-6.61456,-4.38654,0,0,0,0,0,0,0,-1,776,673,-6.61456,4.38654
-441,351,-4.31567,-2.3009,0,0,0,0,0,0,0,-1,783,673,-4.31565,2.30089
-434,351,-3.81708,-2.28003,0,0,0,0,0,0,0,-1,790,673,-3.81706,2.28006
-427,351,-2.05157,-2.7785,0,0,0,0,0,0,0,-1,797,673,-2.05157,2.77848
-420,351,-1.06989,-2.43665,0,0,0,0,0,0,0,-1,804,673,-1.06991,2.43663
-413,351,-0.392334,-2.06671,0,0,0,0,0,0,0,-1,811,673,-0.392363,2.06672
-406,351,-1.86316,-2.58105,0,0,0,0,0,0,0,-1,818,673,-1.86313,2.58106
-399,351,1.00952,-1.53455,0,0,0,0,0,0,0,-1,825,673,1.00954,1.53457
-392,351,-1.02197,0.877136,0,0,0,0,0,0,0,-1,832,673,-1.02195,-0.877143
-385,351,-1.47205,1.04437,0,0,0,0,0,0,0,-1,839,673,-1.47207,-1.04435
-378,351,0,0,0,0,0,0,0,0,0,-1,846,673,0,0
-371,351,0,0,0,0,0,0,0,0,0,-1,853,673,0,0
-364,351,0,0,0,0,0,0,0,0,0,-1,860,673,0,0
-357,351,0,0,0,0,0,0,0,0,0,-1,867,673,0,0
-350,351,0,0,0,0,0,0,0,0,0,-1,874,673,0,0
-343,351,0,0,0,0,0,0,0,0,0,-1,881,673,0,0
-336,351,0,0,0,0,0,0,0,0,0,-1,888,673,0,0
-329,351,0,0,0,0,0,0,0,0,0,-1,895,673,0,0
-322,351,0,0,0,0,0,0,0,0,0,-1,902,673,0,0
-315,351,0,0,0,0,0,0,0,0,0,-1,909,673,0,0
-308,351,0,0,0,0,0,0,0,0,0,-1,916,673,0,0
-301,351,0,0,0,0,0,0,0,0,0,-1,923,673,0,0
-294,351,0,0,0,0,0,0,0,0,0,-1,930,673,0,0
-287,351,0,0,0,0,0,0,0,0,0,-1,937,673,0,0
-280,351,0,0,0,0,0,0,0,0,0,-1,944,673,0,0
-273,351,0,0,0,0,0,0,0,0,0,-1,951,673,0,0
-266,351,0,0,0,0,0,0,0,0,0,-1,958,673,0,0
-259,351,0,0,0,0,0,0,0,0,0,-1,965,673,0,0
-252,351,0,0,0,0,0,0,0,0,0,-1,972,673,0,0
-245,351,0,0,0,0,0,0,0,0,0,-1,979,673,0,0
-238,351,0,0,0,0,0,0,0,0,0,-1,986,673,0,0
-231,351,0,0,0,0,0,0,0,0,0,-1,993,673,0,0
-224,351,0,0,0,0,0,0,0,0,0,-1,1000,673,0,0
-217,351,0,0,0,0,0,0,0,0,0,-1,1007,673,0,0
-210,351,0,0,0,0,0,0,0,0,0,-1,1014,673,0,0
-203,351,0,0,0,0,0,0,0,0,0,-1,1021,673,0,0
-196,351,0,0,0,0,0,0,0,0,0,-1,1028,673,0,0
-189,351,0,0,0,0,0,0,0,0,0,-1,1035,673,0,0
-182,351,0,0,0,0,0,0,0,0,0,-1,1042,673,0,0
-175,351,0,0,0,0,0,0,0,0,0,-1,1049,673,0,0
-168,351,0,0,0,0,0,0,0,0,0,-1,1056,673,0,0
-161,351,0,0,0,0,0,0,0,0,0,-1,1063,673,0,0
-154,351,0,0,0,0,0,0,0,0,0,-1,1070,673,0,0
-147,351,0,0,0,0,0,0,0,0,0,-1,1077,673,0,0
-140,351,0,0,0,0,0,0,0,0,0,-1,1084,673,0,0
-133,351,0,0,0,0,0,0,0,0,0,-1,1091,673,0,0
-126,351,0,0,0,0,0,0,0,0,0,-1,1098,673,0,0
-119,351,0,0,0,0,0,0,0,0,0,-1,1105,673,0,0
-112,351,0,0,0,0,0,0,0,0,0,-1,1112,673,0,0
-105,351,0,0,0,0,0,0,0,0,0,-1,1119,673,0,0
-98,351,0,0,0,0,0,0,0,0,0,-1,1126,673,0,0
-91,351,0,0,0,0,0,0,0,0,0,-1,1133,673,0,0
-84,351,0,0,0,0,0,0,0,0,0,-1,1140,673,0,0
-77,351,0,0,0,0,0,0,0,0,0,-1,1147,673,0,0
-70,351,0,0,0,0,0,0,0,0,0,-1,1154,673,0,0
-63,351,0,0,0,0,0,0,0,0,0,-1,1161,673,0,0
-56,351,0,0,0,0,0,0,0,0,0,-1,1168,673,0,0
-49,351,0,0,0,0,0,0,0,0,0,-1,1175,673,0,0
-42,351,0,0,0,0,0,0,0,0,0,-1,1182,673,0,0
-35,351,0,0,0,0,0,0,0,0,0,-1,1189,673,0,0
-28,351,0,0,0,0,0,0,0,0,0,-1,1196,673,0,0
-21,351,0,0,0,0,0,0,0,0,0,-1,1203,673,0,0
-14,351,0,0,0,0,0,0,0,0,0,-1,1210,673,0,0
-7,351,0,0,0,0,0,0,0,0,0,-1,1217,673,0,0
0,351,0,0,0,0,0,0,0,0,0,-1,1224,673,0,0
7,351,0,0,0,0,0,0,0,0,0,-1,1231,673,0,0
14,351,0,0,0,0,0,0,0,0,0,-1,1238,673,0,0
21,351,0,0,0,0,0,0,0,0,0,-1,1245,673,0,0
28,351,0,0,0,0,0,0,0,0,0,-1,1252,673,0,0
35,351,0,0,0,0,0,0,0,0,0,-1,1259,673,0,0
42,351,0,0,0,0,0,0,0,0,0,-1,1266,673,0,0
49,351,0,0,0,0,0,0,0,0,0,-1,1273,673,0,0
56,351,0,0,0,0,0,0,0,0,0,-1,1280,673,0,0
63,351,0,0,0,0,0,0,0,0,0,-1,1287,673,0,0
70,351,0,0,0,0,0,0,0,0,0,-1,1294,673,0,0
77,351,0,0,0,0,0,0,0,0,0,-1,1301,673,0,0
84,351,0,0,0,0,0,0,0,0,0,-1,1308,673,0,0
91,351,0,0,0,0,0,0,0,0,0,-1,1315,673,0,0
98,351,0,0,0,0,0,0,0,0,0,-1,1322,673,0,0
105,351,0,0,0,0,0,0,0,0,0,-1,1329,673,0,0
112,351,0,0,0,0,0,0,0,0,0,-1,1336,673,0,0
119,351,0,0,0,0,0,0,0,0,0,-1,1343,673,0,0
126,351,0,0,0,0,0,0,0,0,0,-1,1350,673,0,0
133,351,0,0,0,0,0,0,0,0,0,-1,1357,673,0,0
140,351,0,0,0,0,0,0,0,0,0,-1,1364,673,0,0
147,351,0,0,0,0,0,0,0,0,0,-1,1371,673,0,0
154,351,0,0,0,0,0,0,0,0,0,-1,1378,673,0,0
161,351,0,0,0,0,0,0,0,0,0,-1,1385,673,0,0
168,351,0,0,0,0,0,0,0,0,0,-1,1392,673,0,0
175,351,0,0,0,0,0,0,0,0,0,-1,1399,673,0,0
182,351,0,0,0,0,0,0,0,0,0,-1,1406,673,0,0
189,351,0,0,0,0,0,0,0,0,0,-1,1413,673,0,0
196,351,0,0,0,0,0,0,0,0,0,-1,1420,673,0,0
203,351,0,0,0,0,0,0,0,0,0,-1,1427,673,0,0
210,351,0,0,0,0,0,0,0,0,0,-1,1434,673,0,0
217,351,0,0,0,0,0,0,0,0,0,-1,1441,673,0,0
224,351,0,0,0,0,0,0,0,0,0,-1,1448,673,0,0
231,351,0,0,0,0,0,0,0,0,0,-1,1455,673,0,0
238,351,0,0,0,0,0,0,0,0,0,-1,1462,673,0,0
245,351,0,0,0,0,0,0,0,0,0,-1,1469,673,0,0
252,351,0,0,0,0,0,0,0,0,0,-1,1476,673,0,0
259,351,0,0,0,0,0,0,0,0,0,-1,1483,673,0,0
266,351,0,0,0,0,0,0,0,0,0,-1,1490,673,0,0
273,351,0,0,0,0,0,0,0,0,0,-1,1497,673,0,0
280,351,0,0,0,0,0,0,0,0,0,-1,1504,673,0,0
287,351,0,0,0,0,0,0,0,0,0,-1,1511,673,0,0
294,351,0,0,0,0,0,0,0,0,0,-1,1518,673,0,0
301,351,0,0,0,0,0,0,0,0,0,-1,1525,673,0,0
308,351,0,0,0,0,0,0,0,0,0,-1,1532,673,0,0
315,351,0,0,0,0,0,0,0,0,0,-1,1539,673,0,0
322,351,0,0,0,0,0,0,0,0,0,-1,1546,673,0,0
329,351,0,0,0,0,0,0,0,0,0,-1,1553,673,0,0
336,351,0,0,0,0,0,0,0,0,0,-1,1560,673,0,0
343,351,0,0,0,0,0,0,0,0,0,-1,1567,673,0,0
350,351,0,0,0,0,0,0,0,0,0,-1,1574,673,0,0
357,351,0,0,0,0,0,0,0,0,0,-1,1581,673,0,0
364,351,0,0,0,0,0,0,0,0,0,-1,1588,673,0,0
371,351,0,0,0,0,0,0,0,0,0,-1,1595,673,0,0
378,351,0,0,0,0,0,0,0,0,0,-1,1602,673,0,0
385,351,0,0,0,0,0,0,0,0,0,-1,1609,673,0,0
392,351,0,0,0,0,0,0,0,0,0,-1,1616,673,0,0
399,351,0,0,0,0,0,0,0,0,0,-1,1623,673,0,0
406,351,0,0,0,0,0,0,0,0,0,-1,1630,673,0,0
413,351,0,0,0,0,0,0,0,0,0,-1,1637,673,0,0
420,351,0,0,0,0,0,0,0,0,0,-1,1644,673,0,0
427,351,0,0,0,0,0,0,0,0,0,-1,1651,673,0,0
434,351,0,0,0,0,0,0,0,0,0,-1,1658,673,0,0
441,351,0,0,0,0,0,0,0,0,0,-1,1665,673,0,0
448,351,0,0,0,0,0,0,0,0,0,-1,1672,673,0,0
455,351,0,0,0,0,0,0,0,0,0,-1,1679,673,0,0
462,351,0,0,0,0,0,0,0,0,0,-1,1686,673,0,0
469,351,0,0,0,0,0,0,0,0,0,-1,1693,673,0,0
476,351,0,0,0,0,0,0,0,0,0,-1,1700,673,0,0
483,351,0,0,0,0,0,0,0,0,0,-1,1707,673,0,0
490,351,0,0,0,0,0,0,0,0,0,-1,1714,673,0,0
497,351,0,0,0,0,0,0,0,0,0,-1,1721,673,0,0
504,351,10.8842,1.61615,0,0,0,0,0,0,0,-1,1728,673,10.8842,-1.61618
511,351,15.4548,0.0236816,0,0,0,0,0,0,0,-1,1735,673,15.4549,-0.0236664
518,351,16.7448,2.49268,0,0,0,0,0,0,0,-1,1742,673,16.7448,-2.49269
525,351,16.0701,3.43225,0,0,0,0,0,0,0,-1,1749,673,16.07,-3.43227
532,351,32.3822,3.03021,0,0,0,0,0,0,0,-1,1756,673,32.3822,-3.03019
539,351,15.3387,3.54486,0,0,0,0,0,0,0,-1,1763,673,15.3387,-3.54485
546,351,13.9387,4.59357,0,0,0,0,0,0,0,-1,1770,673,13.9388,-4.59359
553,351,12.0682,2.02832,0,0,0,0,0,0,0,-1,1777,673,12.0683,-2.02831
560,351,12.0173,0.55304,0,0,0,0,0,0,0,-1,1784,673,12.0174,-0.553028
567,351,10.7827,0.130188,0,0,0,0,0,0,0,-1,1791,673,10.7827,-0.130183
574,351,13.405,-1.09204,0,0,0,0,0,0,0,-1,1798,673,13.405,1.09207
581,351,15.2351,-3.06049,0,0,0,0,0,0,0,-1,1805,673,15.2351,3.06046
588,351,20.239,-5.74811,0,0,0,0,0,0,0,-1,1812,673,20.239,5.74811
595,351,20.3981,-5.20282,0.00475321,0.000685635,0.00171296,0.00537846,6.03776e-05,0.349989,0.00356569,0.0336855,1819,673,20.3981,5.20281
602,351,20.4094,-4.64191,0.00371409,0.000741557,0.00144027,0.00429745,0.000158197,0.38484,0.00281372,0.0184661,1826,673,20.4094,4.64191
609,351,20.4193,-4.15521,0.00329031,0.000906021,0.00145407,0.00397846,0.000217867,0.442029,0.00258275,0.0169114,1833,673,20.4193,4.15519
616,351,20.4199,-3.63623,0.00292624,0.00110437,0.00145555,0.0037324,0.000298199,0.505799,0.00239506,0.0143443,1840,673,20.4199,3.63622
623,351,20.4189,-3.15057,0.0024957,0.00129092,0.00138654,0.00340505,0.000381569,0.580472,0.00215414,0.0150698,1847,673,20.4189,3.15058
630,351,20.4286,-2.67725,0.00197885,0.00141184,0.00116062,0.00289009,0.000500607,0.665608,0.00178343,0.0244041,1854,673,20.4285,2.67727
637,351,20.3976,-2.17706,0.00125403,0.00129578,0.000799856,0.00207504,0.000474779,0.798443,0.00125539,0.0284687,1861,673,20.3975,2.17704
644,351,20.3861,-1.66962,0.000273548,0.00109131,0.000207008,0.00114073,0.000224133,1.33647,0.000697875,0.0208683,1868,673,20.3861,1.66962
651,351,20.3896,-1.12128,-0.00101833,0.00070773,-0.000589031,0.000889582,-0.00120018,-1.27135,0.00121096,0.0158864,1875,673,20.3896,1.12127
658,351,20.3195,-0.574707,-0.00280218,-1.86217e-05,-0.0017836,0.000851964,-0.00367276,-1.11671,0.00277642,0.0320876,1882,673,20.3195,0.574722
665,351,19.8646,-0.315002,-0.0052166,-0.00125454,-0.00345927,0.000750786,-0.00722192,-1.04544,0.00508339,0.0426311,1889,673,19.8646,0.315008
672,351,19.5618,0.162292,0,0,0,0,0,0,0,-1,1896,673,19.5617,-0.162302
679,351,14.1252,1.85681,0,0,0,0,0,0,0,-1,1903,673,14.1253,-1.85682
686,351,13.0294,2.1189,0,0,0,0,0,0,0,-1,1910,673,13.0294,-2.11892
693,351,13.5187,2.34595,0,0,0,0,0,0,0,-1,1917,673,13.5187,-2.34596
700,351,14.5629,-2.40173,0,0,0,0,0,0,0,-1,1924,673,14.5629,2.40172
707,351,0,0,0,0,0,0,0,0,0,-1,1931,673,0,0
714,351,0,0,0,0,0,0,0,0,0,-1,1938,673,0,0
721,351,0,0,0,0,0,0,0,0,0,-1,1945,673,0,0
728,351,0,0,0,0,0,0,0,0,0,-1,1952,673,0,0
735,351,0,0,0,0,0,0,0,0,0,-1,1959,673,0,0
742,351,0,0,0,0,0,0,0,0,0,-1,1966,673,0,0
749,351,0,0,0,0,0,0,0,0,0,-1,1973,673,0,0
756,351,0,0,0,0,0,0,0,0,0,-1,1980,673,0,0
763,351,0,0,0,0,0,0,0,0,0,-1,1987,673,0,0
770,351,0,0,0,0,0,0,0,0,0,-1,1994,673,0,0
777,351,0,0,0,0,0,0,0,0,0,-1,2001,673,0,0
784,351,0,0,0,0,0,0,0,0,0,-1,2008,673,0,0
791,351,0,0,0,0,0,0,0,0,0,-1,2015,673,0,0
798,351,0,0,0,0,0,0,0,0,0,-1,2022,673,0,0
805,351,0,0,0,0,0,0,0,0,0,-1,2029,673,0,0
812,351,0,0,0,0,0,0,0,0,0,-1,2036,673,0,0
-700,344,0,0,0,0,0,0,0,0,0,-1,524,680,0,0
-693,344,0,0,0,0,0,0,0,0,0,-1,531,680,0,0
-686,344,0,0,0,0,0,0,0,0,0,-1,538,680,0,0
-679,344,0,0,0,0,0,0,0,0,0,-1,545,680,0,0
-672,344,0,0,0,0,0,0,0,0,0,-1,552,680,0,0
-665,344,0,0,0,0,0,0,0,0,0,-1,559,680,0,0
-658,344,0,0,0,0,0,0,0,0,0,-1,566,680,0,0
-651,344,0,0,0,0,0,0,0,0,0,-1,573,680,0,0
-644,344,0,0,0,0,0,0,0,0,0,-1,580,680,0,0
-637,344,0,0,0,0,0,0,0,0,0,-1,587,680,0,0
-630,344,0,0,0,0,0,0,0,0,0,-1,594,680,0,0
-623,344,0,0,0,0,0,0,0,0,0,-1,601,680,0,0
-616,344,0,0,0,0,0,0,0,0,0,-1,608,680,0,0
-609,344,0,0,0,0,0,0,0,0,0,-1,615,680,0,0
-602,344,0,0,0,0,0,0,0,0,0,-1,622,680,0,0
-595,344,0,0,0,0,0,0,0,0,0,-1,629,680,0,0
-588,344,-9.27826,1.47302,0,0,0,0,0,0,0,-1,636,680,-9.27829,-1.473
-581,344,-10.0098,1.71753,0,0,0,0,0,0,0,-1,643,680,-10.0098,-1.7175
-574,344,-10.2208,3.04871,0,0,0,0,0,0,0,-1,650,680,-10.2208,-3.04869
-567,344,-14.3779,2.29016,0,0,0,0,0,0,0,-1,657,680,-14.3779,-2.29014
-560,344,-13.5002,0.457825,0,0,0,0,0,0,0,-1,664,680,-13.5002,-0.457837
-553,344,-12.9365,2.38922,0,0,0,0,0,0,0,-1,671,680,-12.9365,-2.38924
-546,344,-12.4947,0.696411,0,0,0,0,0,0,0,-1,678,680,-12.4947,-0.696399
-539,344,-11.8989,-1.66052,0,0,0,0,0,0,0,-1,685,680,-11.8989,1.66052
-532,344,-11.9078,-2.45044,0,0,0,0,0,0,0,-1,692,680,-11.9078,2.45044
-525,344,-11.9938,-2.96643,0.00303114,0.0119711,-0.00581007,0.0148317,0.000170532,-1.11328,0.00983147,0.031417,699,680,-11.9938,2.96645
-518,344,-11.9694,-3.50641,0.0020654,0.00762534,-0.0036354,0.00942188,0.000268861,-1.11182,0.00619358,0.0214432,706,680,-11.9693,3.50641
-511,344,-11.9887,-4.00275,0.00152585,0.00465525,-0.00220443,0.00579385,0.000387254,-1.09403,0.00374017,0.0182732,713,680,-11.9887,4.00272
-504,344,-12.015,-4.50214,0.00131924,0.00270052,-0.00134415,0.00352107,0.00049868,-1.02272,0.00220008,0.0175152,720,680,-12.0149,4.50213
-497,344,-11.9984,-4.96912,0.00141793,0.00158189,-0.000983801,0.00248712,0.000512699,-0.826968,0.00151635,0.0146986,727,680,-11.9984,4.96909
-490,344,-12.0178,-5.43011,0.0015292,0.000703661,-0.000756648,0.00197834,0.000254516,-0.535699,0.00124277,0.0131167,734,680,-12.0178,5.43011
-483,344,-12.0066,-5.87811,0.00200772,0.00100204,-0.00115489,0.0027645,0.000245267,-0.580075,0.00176693,0.0129744,741,680,-12.0066,5.87811
-476,344,-12.0196,-6.33185,0.00256363,0.00151027,-0.00174381,0.00385855,0.000215341,-0.63874,0.00250368,0.0140348,748,680,-12.0196,6.33185
-469,344,-12.0209,-6.83386,0.00313657,0.00203068,-0.00237504,0.00502218,0.000145064,-0.671028,0.00330083,0.016239,755,680,-12.0209,6.83383
-462,344,-12.0076,-7.38043,0.00381821,0.00290142,-0.00321046,0.00660284,0.000116794,-0.714487,0.00436348,0.0480749,762,680,-12.0076,7.38041
-455,344,-11.8574,-7.81921,0,0,0,0,0,0,0,-1,769,680,-11.8573,7.81924
-448,344,-5.67657,-2.72864,0,0,0,0,0,0,0,-1,776,680,-5.6766,2.72863
-441,344,-5.09229,-2.34167,0,0,0,0,0,0,0,-1,783,680,-5.09229,2.34168
-434,344,-4.28778,-2.08807,0,0,0,0,0,0,0,-1,790,680,-4.28778,2.08809
-427,344,-3.06506,-1.45404,0,0,0,0,0,0,0,-1,797,680,-3.06505,1.45402
-420,344,-1.96582,-1.57574,0,0,0,0,0,0,0,-1,804,680,-1.96579,1.57574
-413,344,-0.817993,-1.4751,0,0,0,0,0,0,0,-1,811,680,-0.818017,1.47511
-406,344,-0.00714111,-1.25189,0,0,0,0,0,0,0,-1,818,680,-0.00714956,1.25191
-399,344,0.240051,-1.75769,0,0,0,0,0,0,0,-1,825,680,0.240079,1.75767
-392,344,1.11353,-2.05615,0,0,0,0,0,0,0,-1,832,680,1.11351,2.05616
-385,344,0,0,0,0,0,0,0,0,0,-1,839,680,0,0
-378,344,0,0,0,0,0,0,0,0,0,-1,846,680,0,0
-371,344,0,0,0,0,0,0,0,0,0,-1,853,680,0,0
-364,344,0,0,0,0,0,0,0,0,0,-1,860,680,0,0
-357,344,0,0,0,0,0,0,0,0,0,-1,867,680,0,0
-350,344,0,0,0,0,0,0,0,0,0,-1,874,680,0,0
-343,344,0,0,0,0,0,0,0,0,0,-1,881,680,0,0
-336,344,0,0,0,0,0,0,0,0,0,-1,888,680,0,0
-329,344,0,0,0,0,0,0,0,0,0,-1,895,680,0,0
-322,344,0,0,0,0,0,0,0,0,0,-1,902,680,0,0
-315,344,0,0,0,0,0,0,0,0,0,-1,909,680,0,0
-308,344,0,0,0,0,0,0,0,0,0,-1,916,680,0,0
-301,344,0,0,0,0,0,0,0,0,0,-1,923,680,0,0
-294,344,0,0,0,0,0,0,0,0,0,-1,930,680,0,0
-287,344,0,0,0,0,0,0,0,0,0,-1,937,680,0,0
-280,344,0,0,0,0,0,0,0,0,0,-1,944,680,0,0
-273,344,0,0,0,0,0,0,0,0,0,-1,951,680,0,0
-266,344,0,0,0,0,0,0,0,0,0,-1,958,680,0,0
-259,344,0,0,0,0,0,0,0,0,0,-1,965,680,0,0
-252,344,0,0,0,0,0,0,0,0,0,-1,972,680,0,0
-245,344,0,0,0,0,0,0,0,0,0,-1,979,680,0,0
-238,344,0,0,0,0,0,0,0,0,0,-1,986,680,0,0
-231,344,0,0,0,0,0,0,0,0,0,-1,993,680,0,0
-224,344,0,0,0,0,0,0,0,0,0,-1,1000,680,0,0
-217,344,0,0,0,0,0,0,0,0,0,-1,1007,680,0,0
-210,344,0,0,0,0,0,0,0,0,0,-1,1014,680,0,0
-203,344,0,0,0,0,0,0,0,0,0,-1,1021,680,0,0
-196,344,0,0,0,0,0,0,0,0,0,-1,1028,680,0,0
-189,344,0,0,0,0,0,0,0,0,0,-1,1035,680,0,0
-182,344,0,0,0,0,0,0,0,0,0,-1,1042,680,0,0
-175,344,0,0,0,0,0,0,0,0,0,-1,1049,680,0,0
-168,344,0,0,0,0,0,0,0,0,0,-1,1056,680,0,0
-161,344,0,0,0,0,0,0,0,0,0,-1,1063,680,0,0
-154,344,0,0,0,0,0,0,0,0,0,-1,1070,680,0,0
-147,344,0,0,0,0,0,0,0,0,0,-1,1077,680,0,0
-140,344,0,0,0,0,0,0,0,0,0,-1,1084,680,0,0
-133,344,0,0,0,0,0,0,0,0,0,-1,1091,680,0,0
-126,344,0,0,0,0,0,0,0,0,0,-1,1098,680,0,0
-119,344,0,0,0,0,0,0,0,0,0,-1,1105,680,0,0
-112,344,0,0,0,0,0,0,0,0,0,-1,1112,680,0,0
-105,344,0,0,0,0,0,0,0,0,0,-1,1119,680,0,0
-98,344,0,0,0,0,0,0,0,0,0,-1,1126,680,0,0
-91,344,0,0,0,0,0,0,0,0,0,-1,1133,680,0,0
-84,344,0,0,0,0,0,0,0,0,0,-1,1140,680,0,0
-77,344,0,0,0,0,0,0,0,0,0,-1,1147,680,0,0
-70,344,0,0,0,0,0,0,0,0,0,-1,1154,680,0,0
-63,344,0,0,0,0,0,0,0,0,0,-1,1161,680,0,0
-56,344,0,0,0,0,0,0,0,0,0,-1,1168,680,0,0
-49,344,0,0,0,0,0,0,0,0,0,-1,1175,680,0,0
-42,344,0,0,0,0,0,0,0,0,0,-1,1182,680,0,0
-35,344,0,0,0,0,0,0,0,0,0,-1,1189,680,0,0
-28,344,0,0,0,0,0,0,0,0,0,-1,1196,680,0,0
-21,344,0,0,0,0,0,0,0,0,0,-1,1203,680,0,0
-14,344,0,0,0,0,0,0,0,0,0,-1,1210,680,0,0
-7,344,0,0,0,0,0,0,0,0,0,-1,1217,680,0,0
0,344,0,0,0,0,0,0,0,0,0,-1,1224,680,0,0
7,344,0,0,0,0,0,0,0,0,0,-1,1231,680,0,0
14,344,0,0,0,0,0,0,0,0,0,-1,1238,680,0,0
21,344,0,0,0,0,0,0,0,0,0,-1,1245,680,0,0
28,344,0,0,0,0,0,0,0,0,0,-1,1252,680,0,0
35,344,0,0,0,0,0,0,0,0,0,-1,1259,680,0,0
42,344,0,0,0,0,0,0,0,0,0,-1,1266,680,0,0
49,344,0,0,0,0,0,0,0,0,0,-1,1273,680,0,0
56,344,0,0,0,0,0,0,0,0,0,-1,1280,680,0,0
63,344,0,0,0,0,0,0,0,0,0,-1,1287,680,0,0
70,344,0,0,0,0,0,0,0,0,0,-1,1294,680,0,0
77,344,0,0,0,0,0,0,0,0,0,-1,1301,680,0,0
84,344,0,0,0,0,0,0,0,0,0,-1,1308,680,0,0
91,344,0,0,0,0,0,0,0,0,0,-1,1315,680,0,0
98,344,0,0,0,0,0,0,0,0,0,-1,1322,680,0,0
105,344,0,0,0,0,0,0,0,0,0,-1,1329,680,0,0
112,344,0,0,0,0,0,0,0,0,0,-1,1336,680,0,0
119,344,0,0,0,0,0,0,0,0,0,-1,1343,680,0,0
126,344,0,0,0,0,0,0,0,0,0,-1,1350,680,0,0
133,344,0,0,0,0,0,0,0,0,0,-1,1357,680,0,0
140,344,0,0,0,0,0,0,0,0,0,-1,1364,680,0,0
147,344,0,0,0,0,0,0,0,0,0,-1,1371,680,0,0
154,344,0,0,0,0,0,0,0,0,0,-1,1378,680,0,0
161,344,0,0,0,0,0,0,0,0,0,-1,1385,680,0,0
168,344,0,0,0,0,0,0,0,0,0,-1,1392,680,0,0
175,344,0,0,0,0,0,0,0,0,0,-1,1399,680,0,0
182,344,0,0,0,0,0,0,0,0,0,-1,1406,680,0,0
189,344,0,0,0,0,0,0,0,0,0,-1,1413,680,0,0
196,344,0,0,0,0,0,0,0,0,0,-1,1420,680,0,0
203,344,0,0,0,0,0,0,0,0,0,-1,1427,680,0,0
210,344,0,0,0,0,0,0,0,0,0,-1,1434,680,0,0
217,344,0,0,0,0,0,0,0,0,0,-1,1441,680,0,0
224,344,0,0,0,0,0,0,0,0,0,-1,1448,680,0,0
231,344,0,0,0,0,0,0,0,0,0,-1,1455,680,0,0
238,344,0,0,0,0,0,0,0,0,0,-1,1462,680,0,0
245,344,0,0,0,0,0,0,0,0,0,-1,1469,680,0,0
252,344,0,0,0,0,0,0,0,0,0,-1,1476,680,0,0
259,344,0,0,0,0,0,0,0,0,0,-1,1483,680,0,0
266,344,0,0,0,0,0,0,0,0,0,-1,1490,680,0,0
273,344,0,0,0,0,0,0,0,0,0,-1,1497,680,0,0
280,344,0,0,0,0,0,0,0,0,0,-1,1504,680,0,0
287,344,0,0,0,0,0,0,0,0,0,-1,1511,680,0,0
294,344,0,0,0,0,0,0,0,0,0,-1,1518,680,0,0
301,344,0,0,0,0,0,0,0,0,0,-1,1525,680,0,0
308,344,0,0,0,0,0,0,0,0,0,-1,1532,680,0,0
315,344,0,0,0,0,0,0,0,0,0,-1,1539,680,0,0
322,344,0,0,0,0,0,0,0,0,0,-1,1546,680,0,0
329,344,0,0,0,0,0,0,0,0,0,-1,1553,680,0,0
336,344,0,0,0,0,0,0,0,0,0,-1,1560,680,0,0
343,344,0,0,0,0,0,0,0,0,0,-1,1567,680,0,0
350,344,0,0,0,0,0,0,0,0,0,-1,1574,680,0,0
357,344,0,0,0,0,0,0,0,0,0,-1,1581,680,0,0
364,344,0,0,0,0,0,0,0,0,0,-1,1588,680,0,0
371,344,0,0,0,0,0,0,0,0,0,-1,1595,680,0,0
378,344,0,0,0,0,0,0,0,0,0,-1,1602,680,0,0
385,344,0,0,0,0,0,0,0,0,0,-1,1609,680,0,0
392,344,0,0,0,0,0,0,0,0,0,-1,1616,680,0,0
399,344,0,0,0,0,0,0,0,0,0,-1,1623,680,0,0
406,344,0,0,0,0,0,0,0,0,0,-1,1630,680,0,0
413,344,0,0,0,0,0,0,0,0,0,-1,1637,680,0,0
420,344,0,0,0,0,0,0,0,0,0,-1,1644,680,0,0
427,344,0,0,0,0,0,0,0,0,0,-1,1651,680,0,0
434,344,0,0,0,0,0,0,0,0,0,-1,1658,680,0,0
441,344,0,0,0,0,0,0,0,0,0,-1,1665,680,0,0
448,344,0,0,0,0,0,0,0,0,0,-1,1672,680,0,0
455,344,0,0,0,0,0,0,0,0,0,-1,1679,680,0,0
462,344,0,0,0,0,0,0,0,0,0,-1,1686,680,0,0
469,344,0,0,0,0,0,0,0,0,0,-1,1693,680,0,0
476,344,0,0,0,0,0,0,0,0,0,-1,1700,680,0,0
483,344,0,0,0,0,0,0,0,0,0,-1,1707,680,0,0
490,344,0,0,0,0,0,0,0,0,0,-1,1714,680,0,0
497,344,0,0,0,0,0,0,0,0,0,-1,1721,680,0,0
504,344,0,0,0,0,0,0,0,0,0,-1,1728,680,0,0
511,344,15.4819,0.452637,0,0,0,0,0,0,0,-1,1735,680,15.4819,-0.452656
518,344,17.1357,2.31207,0,0,0,0,0,0,0,-1,1742,680,17.1358,-2.31207
525,344,31.5201,2.6217,0,0,0,0,0,0,0,-1,1749,680,31.5201,-2.62168
532,344,31.9766,2.61047,0,0,0,0,0,0,0,-1,1756,680,31.9765,-2.6105
539,344,32.4379,2.65314,0,0,0,0,0,0,0,-1,1763,680,32.4378,-2.65316
546,344,14.6722,4.30243,0,0,0,0,0,0,0,-1,1770,680,14.6722,-4.30241
553,344,14.8136,4.35681,0,0,0,0,0,0,0,-1,1777,680,14.8136,-4.35679
560,344,11.9363,2.14185,0,0,0,0,0,0,0,-1,1784,680,11.9362,-2.14182
567,344,11.397,0.925842,0,0,0,0,0,0,0,-1,1791,680,11.397,-0.92583
574,344,10.0004,0.504639,0,0,0,0,0,0,0,-1,1798,680,10.0004,-0.504645
581,344,13.6709,-0.969604,0,0,0,0,0,0,0,-1,1805,680,13.6709,0.969629
588,344,16.1447,-3.15948,0,0,0,0,0,0,0,-1,1812,680,16.1447,3.15946
595,344,20.7384,-5.22333,0,0,0,0,0,0,0,-1,1819,680,20.7384,5.22333
602,344,20.9185,-4.65063,0.00382911,0.000710627,0.00157002,0.0044826,5.71324e-05,0.394422,0.00296954,0.0454466,1826,680,20.9184,4.65062
609,344,20.9556,-4.13232,0.00340177,0.000737764,0.00150211,0.0040774,6.21423e-05,0.422673,0.00269779,0.0152616,1833,680,20.9556,4.13232
616,344,20.9338,-3.60718,0.00303142,0.000863697,0.00150228,0.00380002,9.50991e-05,0.4729,0.00250225,0.0222563,1840,680,20.9339,3.60715
623,344,20.9398,-3.13727,0.00249856,0.000965881,0.00136457,0.00329725,0.000167191,0.529546,0.00214461,0.0192436,1847,680,20.9398,3.13724
630,344,20.9333,-2.66498,0.00189645,0.000983121,0.00106411,0.00259775,0.000281824,0.582707,0.00164595,0.0239262,1854,680,20.9334,2.66495
637,344,20.9429,-2.15057,0.00107152,0.000785197,0.000641639,0.00158578,0.000270944,0.675636,0.000979442,0.0239896,1861,680,20.9429,2.15058
644,344,20.9072,-1.63806,-1.9438e-05,0.000490681,-2.55405e-05,0.000491956,-2.07136e-05,-1.52089,0.000335089,0.0174548,1868,680,20.9073,1.63804
651,344,20.8754,-1.13593,-0.00136396,5.06311e-05,-0.000831878,0.000435255,-0.00174858,-1.13771,0.00133468,0.0124291,1875,680,20.8753,1.13592
658,344,20.8616,-0.552673,-0.00312748,-0.000654204,-0.0019328,0.000403716,-0.0041854,-1.06999,0.00293411,0.0219407,1882,680,20.8616,0.552675
665,344,20.7207,-0.102173,-0.00543368,-0.00175712,-0.00340456,0.000273742,-0.00746455,-1.03294,0.00507008,0.0355148,1889,680,20.7207,0.102189
672,344,20.7607,0.201721,-0.00843229,-0.00339549,-0.0054156,5.86384e-05,-0.0118864,-1.00304,0.0079439,0.0357527,1896,680,20.7607,-0.201729
679,344,21.1338,0.428711,0,0,0,0,0,0,0,-1,1903,680,21.1338,-0.428696
686,344,15.024,1.82709,0,0,0,0,0,0,0,-1,1910,680,15.024,-1.82706
693,344,12.4362,-1.42346,0,0,0,0,0,0,0,-1,1917,680,12.4361,1.42348
700,344,17.5396,2.61206,0,0,0,0,0,0,0,-1,1924,680,17.5396,-2.61204
707,344,18.5829,3.29352,0,0,0,0,0,0,0,-1,1931,680,18.5828,-3.2935
714,344,0,0,0,0,0,0,0,0,0,-1,1938,680,0,0
721,344,0,0,0,0,0,0,0,0,0,-1,1945,680,0,0
728,344,0,0,0,0,0,0,0,0,0,-1,1952,680,0,0
735,344,0,0,0,0,0,0,0,0,0,-1,1959,680,0,0
742,344,0,0,0,0,0,0,0,0,0,-1,1966,680,0,0
749,344,0,0,0,0,0,0,0,0,0,-1,1973,680,0,0
756,344,0,0,0,0,0,0,0,0,0,-1,1980,680,0,0
763,344,0,0,0,0,0,0,0,0,0,-1,1987,680,0,0
770,344,0,0,0,0,0,0,0,0,0,-1,1994,680,0,0
777,344,0,0,0,0,0,0,0,0,0,-1,2001,680,0,0
784,344,0,0,0,0,0,0,0,0,0,-1,2008,680,0,0
791,344,0,0,0,0,0,0,0,0,0,-1,2015,680,0,0
798,344,0,0,0,0,0,0,0,0,0,-1,2022,680,0,0
805,344,0,0,0,0,0,0,0,0,0,-1,2029,680,0,0
812,344,0,0,0,0,0,0,0,0,0,-1,2036,680,0,0
-700,337,0,0,0,0,0,0,0,0,0,-1,524,687,0,0
-693,337,0,0,0,0,0,0,0,0,0,-1,531,687,0,0
-686,337,0,0,0,0,0,0,0,0,0,-1,538,687,0,0
-679,337,0,0,0,0,0,0,0,0,0,-1,545,687,0,0
-672,337,0,0,0,0,0,0,0,0,0,-1,552,687,0,0
-665,337,0,0,0,0,0,0,0,0,0,-1,559,687,0,0
-658,337,0,0,0,0,0,0,0,0,0,-1,566,687,0,0
-651,337,0,0,0,0,0,0,0,0,0,-1,573,687,0,0
-644,337,0,0,0,0,0,0,0,0,0,-1,580,687,0,0
-637,337,0,0,0,0,0,0,0,0,0,-1,587,687,0,0
-630,337,0,0,0,0,0,0,0,0,0,-1,594,687,0,0
-623,337,0,0,0,0,0,0,0,0,0,-1,601,687,0,0
-616,337,0,0,0,0,0,0,0,0,0,-1,608,687,0,0
-609,337,0,0,0,0,0,0,0,0,0,-1,615,687,0,0
-602,337,0,0,0,0,0,0,0,0,0,-1,622,687,0,0
-595,337,0,0,0,0,0,0,0,0,0,-1,629,687,0,0
-588,337,-10.8413,1.27863,0,0,0,0,0,0,0,-1,636,687,-10.8413,-1.27861
-581,337,-11.2157,1.31567,0,0,0,0,0,0,0,-1,643,687,-11.2157,-1.3157
-574,337,-6.03339,2.0321,0,0,0,0,0,0,0,-1,650,687,-6.03337,-2.03213
-567,337,-13.8102,1.56787,0,0,0,0,0,0,0,-1,657,687,-13.8102,-1.56789
-560,337,-13.3735,2.54901,0,0,0,0,0,0,0,-1,664,687,-13.3735,-2.54901
-553,337,-13.0317,1.23596,0,0,0,0,0,0,0,-1,671,687,-13.0317,-1.23594
-546,337,-12.6591,-0.212524,0.00715397,0.0293575,-0.0140953,0.036198,0.000313411,-1.11897,0.0240282,0.0413594,678,687,-12.6591,0.212496
-539,337,-12.3148,-1.88788,0.00511512,0.0212349,-0.0101469,0.0261335,0.000216549,-1.12103,0.0173506,0.0332566,685,687,-12.3148,1.88786
-532,337,-12.3521,-2.54224,0.00362746,0.0149834,-0.00711939,0.0184118,0.000199115,-1.12202,0.0122087,0.022572,692,687,-12.352,2.54225
-525,337,-12.4495,-3.02161,0.00253414,0.0100628,-0.00473051,0.0123439,0.000252978,-1.12147,0.00814626,0.0163816,699,687,-12.4495,3.02163
-518,337,-12.4508,-3.49261,0.00180296,0.00637217,-0.00295643,0.00782386,0.000351273,-1.11435,0.00510285,0.0250921,706,687,-12.4508,3.4926
-511,337,-12.4931,-3.96851,0.00141218,0.00377192,-0.00176688,0.00471666,0.000467445,-1.07978,0.00300078,0.0253383,713,687,-12.4931,3.96851
-504,337,-12.504,-4.49921,0.00127422,0.00200156,-0.00102048,0.00272123,0.000554544,-0.956567,0.00166047,0.0243154,720,687,-12.504,4.4992
-497,337,-12.4684,-4.96259,0.00140258,0.000989498,-0.000719526,0.00194462,0.000447456,-0.64563,0.00117599,0.0169251,727,687,-12.4684,4.96256
-490,337,-12.4925,-5.42255,0.00165189,0.000514138,-0.000711164,0.00199372,0.000172315,-0.44805,0.00127559,0.0140172,734,687,-12.4925,5.42258
-483,337,-12.4973,-5.89362,0.00223142,0.000937013,-0.00125422,0.00299558,0.000172859,-0.547206,0.001942,0.0138943,741,687,-12.4973,5.89361
-476,337,-12.4862,-6.37726,0.00283161,0.00156534,-0.00195799,0.00425629,0.000140657,-0.629024,0.00279182,0.0147229,748,687,-12.4862,6.37726
-469,337,-12.4429,-6.9549,0.00352618,0.00221968,-0.00276238,0.0057115,3.43625e-05,-0.669291,0.00379626,0.0406986,755,687,-12.4429,6.95488
-462,337,-12.2811,-7.28656,0,0,0,0,0,0,0,-1,762,687,-12.2811,7.28657
-455,337,-6.00574,-3.12933,0,0,0,0,0,0,0,-1,769,687,-6.00576,3.12934
-448,337,-5.30627,-2.07202,0,0,0,0,0,0,0,-1,776,687,-5.30628,2.07205
-441,337,-4.24762,-1.49597,0,0,0,0,0,0,0,-1,783,687,-4.24762,1.49598
-434,337,-6.86908,1.37531,0,0,0,0,0,0,0,-1,790,687,-6.86908,-1.3753
-427,337,-9.92004,2.487,0,0,0,0,0,0,0,-1,797,687,-9.92002,-2.48701
-420,337,-2.95996,-1.76697,0,0,0,0,0,0,0,-1,804,687,-2.95998,1.76696
-413,337,-1.29169,-1.99487,0,0,0,0,0,0,0,-1,811,687,-1.29171,1.9949
-406,337,-1.02356,-1.89563,0,0,0,0,0,0,0,-1,818,687,-1.02357,1.89564
-399,337,-0.472839,-2.21338,0,0,0,0,0,0,0,-1,825,687,-0.472837,2.2134
-392,337,0,0,0,0,0,0,0,0,0,-1,832,687,0,0
-385,337,0,0,0,0,0,0,0,0,0,-1,839,687,0,0
-378,337,0,0,0,0,0,0,0,0,0,-1,846,687,0,0
-371,337,0,0,0,0,0,0,0,0,0,-1,853,687,0,0
-364,337,0,0,0,0,0,0,0,0,0,-1,860,687,0,0
-357,337,0,0,0,0,0,0,0,0,0,-1,867,687,0,0
-350,337,0,0,0,0,0,0,0,0,0,-1,874,687,0,0
-343,337,0,0,0,0,0,0,0,0,0,-1,881,687,0,0
-336,337,0,0,0,0,0,0,0,0,0,-1,888,687,0,0
-329,337,0,0,0,0,0,0,0,0,0,-1,895,687,0,0
-322,337,0,0,0,0,0,0,0,0,0,-1,902,687,0,0
-315,337,0,0,0,0,0,0,0,0,0,-1,909,687,0,0
-308,337,0,0,0,0,0,0,0,0,0,-1,916,687,0,0
-301,337,0,0,0,0,0,0,0,0,0,-1,923,687,0,0
-294,337,0,0,0,0,0,0,0,0,0,-1,930,687,0,0
-287,337,0,0,0,0,0,0,0,0,0,-1,937,687,0,0
-280,337,0,0,0,0,0,0,0,0,0,-1,944,687,0,0
-273,337,0,0,0,0,0,0,0,0,0,-1,951,687,0,0
-266,337,0,0,0,0,0,0,0,0,0,-1,958,687,0,0
-259,337,0,0,0,0,0,0,0,0,0,-1,965,687,0,0
-252,337,0,0,0,0,0,0,0,0,0,-1,972,687,0,0
-245,337,0,0,0,0,0,0,0,0,0,-1,979,687,0,0
-238,337,0,0,0,0,0,0,0,0,0,-1,986,687,0,0
-231,337,0,0,0,0,0,0,0,0,0,-1,993,687,0,0
-224,337,0,0,0,0,0,0,0,0,0,-1,1000,687,0,0
-217,337,0,0,0,0,0,0,0,0,0,-1,1007,687,0,0
-210,337,0,0,0,0,0,0,0,0,0,-1,1014,687,0,0
-203,337,0,0,0,0,0,0,0,0,0,-1,1021,687,0,0
-196,337,0,0,0,0,0,0,0,0,0,-1,1028,687,0,0
-189,337,0,0,0,0,0,0,0,0,0,-1,1035,687,0,0
-182,337,0,0,0,0,0,0,0,0,0,-1,1042,687,0,0
-175,337,0,0,0,0,0,0,0,0,0,-1,1049,687,0,0
-168,337,0,0,0,0,0,0,0,0,0,-1,1056,687,0,0
-161,337,0,0,0,0,0,0,0,0,0,-1,1063,687,0,0
-154,337,0,0,0,0,0,0,0,0,0,-1,1070,687,0,0
-147,337,0,0,0,0,0,0,0,0,0,-1,1077,687,0,0
-140,337,0,0,0,0,0,0,0,0,0,-1,1084,687,0,0
-133,337,0,0,0,0,0,0,0,0,0,-1,1091,687,0,0
-126,337,0,0,0,0,0,0,0,0,0,-1,1098,687,0,0
-119,337,0,0,0,0,0,0,0,0,0,-1,1105,687,0,0
-112,337,0,0,0,0,0,0,0,0,0,-1,1112,687,0,0
-105,337,0,0,0,0,0,0,0,0,0,-1,1119,687,0,0
-98,337,0,0,0,0,0,0,0,0,0,-1,1126,687,0,0
-91,337,0,0,0,0,0,0,0,0,0,-1,1133,687,0,0
-84,337,0,0,0,0,0,0,0,0,0,-1,1140,687,0,0
-77,337,0,0,0,0,0,0,0,0,0,-1,1147,687,0,0
-70,337,0,0,0,0,0,0,0,0,0,-1,1154,687,0,0
-63,337,0,0,0,0,0,0,0,0,0,-1,1161,687,0,0
-56,337,0,0,0,0,0,0,0,0,0,-1,1168,687,0,0
-49,337,0,0,0,0,0,0,0,0,0,-1,1175,687,0,0
-42,337,0,0,0,0,0,0,0,0,0,-1,1182,687,0,0
-35,337,0,0,0,0,0,0,0,0,0,-1,1189,687,0,0
-28,337,0,0,0,0,0,0,0,0,0,-1,1196,687,0,0
-21,337,0,0,0,0,0,0,0,0,0,-1,1203,687,0,0
-14,337,0,0,0,0,0,0,0,0,0,-1,1210,687,0,0
-7,337,0,0,0,0,0,0,0,0,0,-1,1217,687,0,0
0,337,0,0,0,0,0,0,0,0,0,-1,1224,687,0,0
7,337,0,0,0,0,0,0,0,0,0,-1,1231,687,0,0
14,337,0,0,0,0,0,0,0,0,0,-1,1238,687,0,0
21,337,0,0,0,0,0,0,0,0,0,-1,1245,687,0,0
28,337,0,0,0,0,0,0,0,0,0,-1,1252,687,0,0
35,337,0,0,0,0,0,0,0,0,0,-1,1259,687,0,0
42,337,0,0,0,0,0,0,0,0,0,-1,1266,687,0,0
49,337,0,0,0,0,0,0,0,0,0,-1,1273,687,0,0
56,337,0,0,0,0,0,0,0,0,0,-1,1280,687,0,0
63,337,0,0,0,0,0,0,0,0,0,-1,1287,687,0,0
70,337,0,0,0,0,0,0,0,0,0,-1,1294,687,0,0
77,337,0,0,0,0,0,0,0,0,0,-1,1301,687,0,0
84,337,0,0,0,0,0,0,0,0,0,-1,1308,687,0,0
91,337,0,0,0,0,0,0,0,0,0,-1,1315,687,0,0
98,337,0,0,0,0,0,0,0,0,0,-1,1322,687,0,0
105,337,0,0,0,0,0,0,0,0,0,-1,1329,687,0,0
112,337,0,0,0,0,0,0,0,0,0,-1,1336,687,0,0
119,337,0,0,0,0,0,0,0,0,0,-1,1343,687,0,0
126,337,0,0,0,0,0,0,0,0,0,-1,1350,687,0,0
133,337,0,0,0,0,0,0,0,0,0,-1,1357,687,0,0
140,337,0,0,0,0,0,0,0,0,0,-1,1364,687,0,0
147,337,0,0,0,0,0,0,0,0,0,-1,1371,687,0,0
154,337,0,0,0,0,0,0,0,0,0,-1,1378,687,0,0
161,337,0,0,0,0,0,0,0,0,0,-1,1385,687,0,0
168,337,0,0,0,0,0,0,0,0,0,-1,1392,687,0,0
175,337,0,0,0,0,0,0,0,0,0,-1,1399,687,0,0
182,337,0,0,0,0,0,0,0,0,0,-1,1406,687,0,0
189,337,0,0,0,0,0,0,0,0,0,-1,1413,687,0,0
196,337,0,0,0,0,0,0,0,0,0,-1,1420,687,0,0
203,337,0,0,0,0,0,0,0,0,0,-1,1427,687,0,0
210,337,0,0,0,0,0,0,0,0,0,-1,1434,687,0,0
217,337,0,0,0,0,0,0,0,0,0,-1,1441,687,0,0
224,337,0,0,0,0,0,0,0,0,0,-1,1448,687,0,0
231,337,0,0,0,0,0,0,0,0,0,-1,1455,687,0,0
238,337,0,0,0,0,0,0,0,0,0,-1,1462,687,0,0
245,337,0,0,0,0,0,0,0,0,0,-1,1469,687,0,0
252,337,0,0,0,0,0,0,0,0,0,-1,1476,687,0,0
259,337,0,0,0,0,0,0,0,0,0,-1,1483,687,0,0
266,337,0,0,0,0,0,0,0,0,0,-1,1490,687,0,0
273,337,0,0,0,0,0,0,0,0,0,-1,1497,687,0,0
280,337,0,0,0,0,0,0,0,0,0,-1,1504,687,0,0
287,337,0,0,0,0,0,0,0,0,0,-1,1511,687,0,0
294,337,0,0,0,0,0,0,0,0,0,-1,1518,687,0,0
301,337,0,0,0,0,0,0,0,0,0,-1,1525,687,0,0
308,337,0,0,0,0,0,0,0,0,0,-1,1532,687,0,0
315,337,0,0,0,0,0,0,0,0,0,-1,1539,687,0,0
322,337,0,0,0,0,0,0,0,0,0,-1,1546,687,0,0
329,337,0,0,0,0,0,0,0,0,0,-1,1553,687,0,0
336,337,0,0,0,0,0,0,0,0,0,-1,1560,687,0,0
343,337,0,0,0,0,0,0,0,0,0,-1,1567,687,0,0
350,337,0,0,0,0,0,0,0,0,0,-1,1574,687,0,0
357,337,0,0,0,0,0,0,0,0,0,-1,1581,687,0,0
364,337,0,0,0,0,0,0,0,0,0,-1,1588,687,0,0
371,337,0,0,0,0,0,0,0,0,0,-1,1595,687,0,0
378,337,0,0,0,0,0,0,0,0,0,-1,1602,687,0,0
385,337,0,0,0,0,0,0,0,0,0,-1,1609,687,0,0
392,337,0,0,0,0,0,0,0,0,0,-1,1616,687,0,0
399,337,0,0,0,0,0,0,0,0,0,-1,1623,687,0,0
406,337,0,0,0,0,0,0,0,0,0,-1,1630,687,0,0
413,337,0,0,0,0,0,0,0,0,0,-1,1637,687,0,0
420,337,0,0,0,0,0,0,0,0,0,-1,1644,687,0,0
427,337,0,0,0,0,0,0,0,0,0,-1,1651,687,0,0
434,337,0,0,0,0,0,0,0,0,0,-1,1658,687,0,0
441,337,0,0,0,0,0,0,0,0,0,-1,1665,687,0,0
448,337,0,0,0,0,0,0,0,0,0,-1,1672,687,0,0
455,337,0,0,0,0,0,0,0,0,0,-1,1679,687,0,0
462,337,0,0,0,0,0,0,0,0,0,-1,1686,687,0,0
469,337,0,0,0,0,0,0,0,0,0,-1,1693,687,0,0
476,337,0,0,0,0,0,0,0,0,0,-1,1700,687,0,0
483,337,0,0,0,0,0,0,0,0,0,-1,1707,687,0,0
490,337,0,0,0,0,0,0,0,0,0,-1,1714,687,0,0
497,337,0,0,0,0,0,0,0,0,0,-1,1721,687,0,0
504,337,0,0,0,0,0,0,0,0,0,-1,1728,687,0,0
511,337,0,0,0,0,0,0,0,0,0,-1,1735,687,0,0
518,337,18.0369,1.64581,0,0,0,0,0,0,0,-1,1742,687,18.0368,-1.64581
525,337,31.0717,2.13745,0,0,0,0,0,0,0,-1,1749,687,31.0717,-2.13747
532,337,31.5126,2.13904,0,0,0,0,0,0,0,-1,1756,687,31.5125,-2.13905
539,337,31.9684,2.15594,0,0,0,0,0,0,0,-1,1763,687,31.9684,-2.15596
546,337,32.3584,1.43719,0,0,0,0,0,0,0,-1,1770,687,32.3585,-1.43722
553,337,32.1809,1.36395,0,0,0,0,0,0,0,-1,1777,687,32.181,-1.36396
560,337,18.4053,3.62793,0,0,0,0,0,0,0,-1,1784,687,18.4052,-3.6279
567,337,11.9288,1.38776,0,0,0,0,0,0,0,-1,1791,687,11.9288,-1.38777
574,337,10.704,1.19476,0,0,0,0,0,0,0,-1,1798,687,10.704,-1.19478
581,337,8.50427,0.561768,0,0,0,0,0,0,0,-1,1805,687,8.5043,-0.561754
588,337,8.5885,-0.0536499,0,0,0,0,0,0,0,-1,1812,687,8.58844,0.0536788
595,337,13.8816,-1.70703,0,0,0,0,0,0,0,-1,1819,687,13.8816,1.70702
602,337,21.4329,-4.65295,0,0,0,0,0,0,0,-1,1826,687,21.4328,4.65296
609,337,21.4349,-4.09607,0.00371407,0.000640442,0.00166951,0.00444642,-9.1901e-05,0.41338,0.00299538,0.0285853,1833,687,21.435,4.09606
616,337,21.4186,-3.59851,0.00328474,0.000705852,0.00166356,0.00410008,-0.000109485,0.455709,0.0027706,0.017832,1840,687,21.4185,3.59852
623,337,21.4438,-3.1217,0.00262948,0.000737261,0.00144842,0.00341342,-4.66736e-05,0.496088,0.00229133,0.0153588,1847,687,21.4438,3.12173
630,337,21.4221,-2.61346,0.00194982,0.000677888,0.00108049,0.00256761,6.00985e-05,0.519403,0.00169206,0.0192441,1854,687,21.4221,2.61347
637,337,21.4349,-2.11792,0.00104517,0.000450354,0.000611453,0.00142771,6.7817e-05,0.559045,0.000930024,0.0165918,1861,687,21.435,2.11792
644,337,21.3937,-1.60065,-0.00012224,0.000130943,-7.76047e-05,0.000152837,-0.000144134,-1.29582,0.000171481,0.0113526,1868,687,21.3937,1.60064
651,337,21.3564,-1.10968,-0.00149214,-0.000268623,-0.000839687,0.000158522,-0.00191929,-1.10022,0.00133551,0.0102817,1875,687,21.3564,1.10968
658,337,21.3682,-0.610046,-0.00321084,-0.000873146,-0.00181038,0.000112925,-0.00419691,-1.07205,0.00283633,0.0114406,1882,687,21.3682,0.610034
665,337,21.3718,-0.132385,-0.00538305,-0.00175658,-0.00304496,-2.58607e-05,-0.00711377,-1.05395,0.00473391,0.0151134,1889,687,21.3718,0.132361
672,337,21.3229,0.322021,-0.00812774,-0.00300573,-0.00462947,-0.000276114,-0.0108574,-1.03805,0.00714798,0.0288437,1896,687,21.3229,-0.322016
679,337,21.5221,0.765442,0,0,0,0,0,0,0,-1,1903,687,21.5222,-0.765426
686,337,18.5614,1.68597,0,0,0,0,0,0,0,-1,1910,687,18.5614,-1.68598
693,337,16.5415,2.21411,0,0,0,0,0,0,0,-1,1917,687,16.5415,-2.2141
700,337,17.2661,2.44379,0,0,0,0,0,0,0,-1,1924,687,17.2661,-2.44378
707,337,17.3544,5.61853,0,0,0,0,0,0,0,-1,1931,687,17.3543,-5.61851
714,337,0,0,0,0,0,0,0,0,0,-1,1938,687,0,0
721,337,0,0,0,0,0,0,0,0,0,-1,1945,687,0,0
728,337,0,0,0,0,0,0,0,0,0,-1,1952,687,0,0
735,337,0,0,0,0,0,0,0,0,0,-1,1959,687,0,0
742,337,0,0,0,0,0,0,0,0,0,-1,1966,687,0,0
749,337,0,0,0,0,0,0,0,0,0,-1,1973,687,0,0
756,337,0,0,0,0,0,0,0,0,0,-1,1980,687,0,0
763,337,0,0,0,0,0,0,0,0,0,-1,1987,687,0,0
770,337,0,0,0,0,0,0,0,0,0,-1,1994,687,0,0
777,337,0,0,0,0,0,0,0,0,0,-1,2001,687,0,0
784,337,0,0,0,0,0,0,0,0,0,-1,2008,687,0,0
791,337,0,0,0,0,0,0,0,0,0,-1,2015,687,0,0
798,337,0,0,0,0,0,0,0,0,0,-1,2022,687,0,0
805,337,0,0,0,0,0,0,0,0,0,-1,2029,687,0,0
812,337,0,0,0,0,0,0,0,0,0,-1,2036,687,0,0
-700,330,0,0,0,0,0,0,0,0,0,-1,524,694,0,0
-693,330,0,0,0,0,0,0,0,0,0,-1,531,694,0,0
-686,330,0,0,0,0,0,0,0,0,0,-1,538,694,0,0
-679,330,0,0,0,0,0,0,0,0,0,-1,545,694,0,0
-672,330,0,0,0,0,0,0,0,0,0,-1,552,694,0,0
-665,330,0,0,0,0,0,0,0,0,0,-1,559,694,0,0
-658,330,0,0,0,0,0,0,0,0,0,-1,566,694,0,0
-651,330,0,0,0,0,0,0,0,0,0,-1,573,694,0,0
-644,330,0,0,0,0,0,0,0,0,0,-1,580,694,0,0
-637,330,0,0,0,0,0,0,0,0,0,-1,587,694,0,0
-630,330,0,0,0,0,0,0,0,0,0,-1,594,694,0,0
-623,330,0,0,0,0,0,0,0,0,0,-1,601,694,0,0
-616,330,0,0,0,0,0,0,0,0,0,-1,608,694,0,0
-609,330,0,0,0,0,0,0,0,0,0,-1,615,694,0,0
-602,330,0,0,0,0,0,0,0,0,0,-1,622,694,0,0
-595,330,-4.67883,1.65515,0,0,0,0,0,0,0,-1,629,694,-4.67881,-1.65515
-588,330,-8.5047,2.67346,0,0,0,0,0,0,0,-1,636,694,-8.50469,-2.67348
-581,330,-12.4227,0.947083,0,0,0,0,0,0,0,-1,643,694,-12.4227,-0.947109
-574,330,-9.02118,1.87952,0,0,0,0,0,0,0,-1,650,694,-9.02115,-1.87953
-567,330,-8.35577,0.909973,0,0,0,0,0,0,0,-1,657,694,-8.35575,-0.909945
-560,330,-13.1036,-0.584656,0,0,0,0,0,0,0,-1,664,694,-13.1035,0.584658
-553,330,-12.8569,-0.795898,0,0,0,0,0,0,0,-1,671,694,-12.8569,0.795896
-546,330,-12.7825,-1.44324,0.00484514,0.022773,-0.010267,0.0274386,0.000179577,-1.14427,0.0182328,0.0352139,678,694,-12.7825,1.44321
-539,330,-12.7598,-2.07776,0.00366892,0.016732,-0.00757546,0.0202029,0.000198037,-1.14117,0.0134031,0.0170033,685,694,-12.7598,2.07779
-532,330,-12.9221,-2.53333,0.00275443,0.011845,-0.0053798,0.0143426,0.000256851,-1.13615,0.00947724,0.0136457,692,694,-12.922,2.53329
-525,330,-12.9172,-3.05212,0.00206042,0.00788513,-0.00357464,0.00958361,0.000361938,-1.12723,0.00627191,0.0115784,699,694,-12.9172,3.05215
-518,330,-12.8986,-3.45947,0.00160379,0.00486852,-0.00220552,0.00598005,0.000492263,-1.10397,0.00383316,0.0154813,706,694,-12.8986,3.45946
-511,330,-12.9506,-3.93896,0.00138267,0.00269093,-0.0012694,0.00346482,0.000608772,-1.02331,0.00213607,0.0212038,713,694,-12.9506,3.93896
-504,330,-12.959,-4.46069,0.00134622,0.00119614,-0.000662914,0.00193833,0.000604033,-0.72904,0.00114526,0.0197761,720,694,-12.959,4.46071
-497,330,-12.9564,-4.91791,0.00152694,0.000371768,-0.000428989,0.00166883,0.000229884,-0.319415,0.00104439,0.0140325,727,694,-12.9564,4.91794
-490,330,-12.9581,-5.39752,0.00195049,0.000468136,-0.000669051,0.0022078,0.000210828,-0.367148,0.00140687,0.0137759,734,694,-12.9581,5.39752
-483,330,-12.9675,-5.89618,0.00265226,0.00113561,-0.00136888,0.00345883,0.000329045,-0.532453,0.0022044,0.0137551,741,694,-12.9675,5.89621
-476,330,-12.9427,-6.38568,0.00328038,0.00200925,-0.00219261,0.00492768,0.000361955,-0.644331,0.00317136,0.0375061,748,694,-12.9427,6.38569
-469,330,-12.7129,-6.97168,0,0,0,0,0,0,0,-1,755,694,-12.7129,6.97167
-462,330,-7.26733,-3.84833,0,0,0,0,0,0,0,-1,762,694,-7.26731,3.84832
-455,330,-5.04254,-1.79303,0,0,0,0,0,0,0,-1,769,694,-5.04252,1.79305
-448,330,-4.89886,-1.66156,0,0,0,0,0,0,0,-1,776,694,-4.89886,1.66157
-441,330,-5.30676,-2.34045,0,0,0,0,0,0,0,-1,783,694,-5.30679,2.34048
-434,330,-7.20428,1.00024,0,0,0,0,0,0,0,-1,790,694,-7.20431,-1.00027
-427,330,-16.0428,2.89258,0,0,0,0,0,0,0,-1,797,694,-16.0428,-2.89259
-420,330,-29.0331,0.271606,0,0,0,0,0,0,0,-1,804,694,-29.0331,-0.27158
-413,330,-29.0896,0.56366,0,0,0,0,0,0,0,-1,811,694,-29.0896,-0.563671
-406,330,-1.65375,-1.74371,0,0,0,0,0,0,0,-1,818,694,-1.65375,1.74371
-399,330,0,0,0,0,0,0,0,0,0,-1,825,694,0,0
-392,330,0,0,0,0,0,0,0,0,0,-1,832,694,0,0
-385,330,0,0,0,0,0,0,0,0,0,-1,839,694,0,0
-378,330,0,0,0,0,0,0,0,0,0,-1,846,694,0,0
-371,330,0,0,0,0,0,0,0,0,0,-1,853,694,0,0
-364,330,0,0,0,0,0,0,0,0,0,-1,860,694,0,0
-357,330,0,0,0,0,0,0,0,0,0,-1,867,694,0,0
-350,330,0,0,0,0,0,0,0,0,0,-1,874,694,0,0
-343,330,0,0,0,0,0,0,0,0,0,-1,881,694,0,0
-336,330,0,0,0,0,0,0,0,0,0,-1,888,694,0,0
-329,330,0,0,0,0,0,0,0,0,0,-1,895,694,0,0
-322,330,0,0,0,0,0,0,0,0,0,-1,902,694,0,0
-315,330,0,0,0,0,0,0,0,0,0,-1,909,694,0,0
-308,330,0,0,0,0,0,0,0,0,0,-1,916,694,0,0
-301,330,0,0,0,0,0,0,0,0,0,-1,923,694,0,0
-294,330,0,0,0,0,0,0,0,0,0,-1,930,694,0,0
-287,330,0,0,0,0,0,0,0,0,0,-1,937,694,0,0
-280,330,0,0,0,0,0,0,0,0,0,-1,944,694,0,0
-273,330,0,0,0,0,0,0,0,0,0,-1,951,694,0,0
-266,330,0,0,0,0,0,0,0,0,0,-1,958,694,0,0
-259,330,0,0,0,0,0,0,0,0,0,-1,965,694,0,0
-252,330,0,0,0,0,0,0,0,0,0,-1,972,694,0,0
-245,330,0,0,0,0,0,0,0,0,0,-1,979,694,0,0
-238,330,0,0,0,0,0,0,0,0,0,-1,986,694,0,0
-231,330,0,0,0,0,0,0,0,0,0,-1,993,694,0,0
-224,330,0,0,0,0,0,0,0,0,0,-1,1000,694,0,0
-217,330,0,0,0,0,0,0,0,0,0,-1,1007,694,0,0
-210,330,0,0,0,0,0,0,0,0,0,-1,1014,694,0,0
-203,330,0,0,0,0,0,0,0,0,0,-1,1021,694,0,0
-196,330,0,0,0,0,0,0,0,0,0,-1,1028,694,0,0
-189,330,0,0,0,0,0,0,0,0,0,-1,1035,694,0,0
-182,330,0,0,0,0,0,0,0,0,0,-1,1042,694,0,0
-175,330,0,0,0,0,0,0,0,0,0,-1,1049,694,0,0
-168,330,0,0,0,0,0,0,0,0,0,-1,1056,694,0,0
-161,330,0,0,0,0,0,0,0,0,0,-1,1063,694,0,0
-154,330,0,0,0,0,0,0,0,0,0,-1,1070,694,0,0
-147,330,0,0,0,0,0,0,0,0,0,-1,1077,694,0,0
-140,330,0,0,0,0,0,0,0,0,0,-1,1084,694,0,0
-133,330,0,0,0,0,0,0,0,0,0,-1,1091,694,0,0
-126,330,0,0,0,0,0,0,0,0,0,-1,1098,694,0,0
-119,330,0,0,0,0,0,0,0,0,0,-1,1105,694,0,0
-112,330,0,0,0,0,0,0,0,0,0,-1,1112,694,0,0
-105,330,0,0,0,0,0,0,0,0,0,-1,1119,694,0,0
-98,330,0,0,0,0,0,0,0,0,0,-1,1126,694,0,0
-91,330,0,0,0,0,0,0,0,0,0,-1,1133,694,0,0
-84,330,0,0,0,0,0,0,0,0,0,-1,1140,694,0,0
-77,330,0,0,0,0,0,0,0,0,0,-1,1147,694,0,0
-70,330,0,0,0,0,0,0,0,0,0,-1,1154,694,0,0
-63,330,0,0,0,0,0,0,0,0,0,-1,1161,694,0,0
-56,330,0,0,0,0,0,0,0,0,0,-1,1168,694,0,0
-49,330,0,0,0,0,0,0,0,0,0,-1,1175,694,0,0
-42,330,0,0,0,0,0,0,0,0,0,-1,1182,694,0,0
-35,330,0,0,0,0,0,0,0,0,0,-1,1189,694,0,0
-28,330,0,0,0,0,0,0,0,0,0,-1,1196,694,0,0
-21,330,0,0,0,0,0,0,0,0,0,-1,1203,694,0,0
-14,330,0,0,0,0,0,0,0,0,0,-1,1210,694,0,0
-7,330,0,0,0,0,0,0,0,0,0,-1,1217,694,0,0
0,330,0,0,0,0,0,0,0,0,0,-1,1224,694,0,0
7,330,0,0,0,0,0,0,0,0,0,-1,1231,694,0,0
14,330,0,0,0,0,0,0,0,0,0,-1,1238,694,0,0
21,330,0,0,0,0,0,0,0,0,0,-1,1245,694,0,0
28,330,0,0,0,0,0,0,0,0,0,-1,1252,694,0,0
35,330,0,0,0,0,0,0,0,0,0,-1,1259,694,0,0
42,330,0,0,0,0,0,0,0,0,0,-1,1266,694,0,0
49,330,0,0,0,0,0,0,0,0,0,-1,1273,694,0,0
56,330,0,0,0,0,0,0,0,0,0,-1,1280,694,0,0
63,330,0,0,0,0,0,0,0,0,0,-1,1287,694,0,0
70,330,0,0,0,0,0,0,0,0,0,-1,1294,694,0,0
77,330,0,0,0,0,0,0,0,0,0,-1,1301,694,0,0
84,330,0,0,0,0,0,0,0,0,0,-1,1308,694,0,0
91,330,0,0,0,0,0,0,0,0,0,-1,1315,694,0,0
98,330,0,0,0,0,0,0,0,0,0,-1,1322,694,0,0
105,330,0,0,0,0,0,0,0,0,0,-1,1329,694,0,0
112,330,0,0,0,0,0,0,0,0,0,-1,1336,694,0,0
119,330,0,0,0,0,0,0,0,0,0,-1,1343,694,0,0
126,330,0,0,0,0,0,0,0,0,0,-1,1350,694,0,0
133,330,0,0,0,0,0,0,0,0,0,-1,1357,694,0,0
140,330,0,0,0,0,0,0,0,0,0,-1,1364,694,0,0
147,330,0,0,0,0,0,0,0,0,0,-1,1371,694,0,0
154,330,0,0,0,0,0,0,0,0,0,-1,1378,694,0,0
161,330,0,0,0,0,0,0,0,0,0,-1,1385,694,0,0
168,330,0,0,0,0,0,0,0,0,0,-1,1392,694,0,0
175,330,0,0,0,0,0,0,0,0,0,-1,1399,694,0,0
182,330,0,0,0,0,0,0,0,0,0,-1,1406,694,0,0
189,330,0,0,0,0,0,0,0,0,0,-1,1413,694,0,0
196,330,0,0,0,0,0,0,0,0,0,-1,1420,694,0,0
203,330,0,0,0,0,0,0,0,0,0,-1,1427,694,0,0
210,330,0,0,0,0,0,0,0,0,0,-1,1434,694,0,0
217,330,0,0,0,0,0,0,0,0,0,-1,1441,694,0,0
224,330,0,0,0,0,0,0,0,0,0,-1,1448,694,0,0
231,330,0,0,0,0,0,0,0,0,0,-1,1455,694,0,0
238,330,0,0,0,0,0,0,0,0,0,-1,1462,694,0,0
245,330,0,0,0,0,0,0,0,0,0,-1,1469,694,0,0
252,330,0,0,0,0,0,0,0,0,0,-1,1476,694,0,0
259,330,0,0,0,0,0,0,0,0,0,-1,1483,694,0,0
266,330,0,0,0,0,0,0,0,0,0,-1,1490,694,0,0
273,330,0,0,0,0,0,0,0,0,0,-1,1497,694,0,0
280,330,0,0,0,0,0,0,0,0,0,-1,1504,694,0,0
287,330,0,0,0,0,0,0,0,0,0,-1,1511,694,0,0
294,330,0,0,0,0,0,0,0,0,0,-1,1518,694,0,0
301,330,0,0,0,0,0,0,0,0,0,-1,1525,694,0,0
308,330,0,0,0,0,0,0,0,0,0,-1,1532,694,0,0
315,330,0,0,0,0,0,0,0,0,0,-1,1539,694,0,0
322,330,0,0,0,0,0,0,0,0,0,-1,1546,694,0,0
329,330,0,0,0,0,0,0,0,0,0,-1,1553,694,0,0
336,330,0,0,0,0,0,0,0,0,0,-1,1560,694,0,0
343,330,0,0,0,0,0,0,0,0,0,-1,1567,694,0,0
350,330,0,0,0,0,0,0,0,0,0,-1,1574,694,0,0
357,330,0,0,0,0,0,0,0,0,0,-1,1581,694,0,0
364,330,0,0,0,0,0,0,0,0,0,-1,1588,694,0,0
371,330,0,0,0,0,0,0,0,0,0,-1,1595,694,0,0
378,330,0,0,0,0,0,0,0,0,0,-1,1602,694,0,0
385,330,0,0,0,0,0,0,0,0,0,-1,1609,694,0,0
392,330,0,0,0,0,0,0,0,0,0,-1,1616,694,0,0
399,330,0,0,0,0,0,0,0,0,0,-1,1623,694,0,0
406,330,0,0,0,0,0,0,0,0,0,-1,1630,694,0,0
413,330,0,0,0,0,0,0,0,0,0,-1,1637,694,0,0
420,330,0,0,0,0,0,0,0,0,0,-1,1644,694,0,0
427,330,0,0,0,0,0,0,0,0,0,-1,1651,694,0,0
434,330,0,0,0,0,0,0,0,0,0,-1,1658,694,0,0
441,330,0,0,0,0,0,0,0,0,0,-1,1665,694,0,0
448,330,0,0,0,0,0,0,0,0,0,-1,1672,694,0,0
455,330,0,0,0,0,0,0,0,0,0,-1,1679,694,0,0
462,330,0,0,0,0,0,0,0,0,0,-1,1686,694,0,0
469,330,0,0,0,0,0,0,0,0,0,-1,1693,694,0,0
476,330,0,0,0,0,0,0,0,0,0,-1,1700,694,0,0
483,330,0,0,0,0,0,0,0,0,0,-1,1707,694,0,0
490,330,0,0,0,0,0,0,0,0,0,-1,1714,694,0,0
497,330,0,0,0,0,0,0,0,0,0,-1,1721,694,0,0
504,330,0,0,0,0,0,0,0,0,0,-1,1728,694,0,0
511,330,0,0,0,0,0,0,0,0,0,-1,1735,694,0,0
518,330,0,0,0,0,0,0,0,0,0,-1,1742,694,0,0
525,330,30.6694,0.69519,0,0,0,0,0,0,0,-1,1749,694,30.6694,-0.695206
532,330,30.9469,1.32501,0,0,0,0,0,0,0,-1,1756,694,30.9469,-1.32501
539,330,31.5155,1.62506,0,0,0,0,0,0,0,-1,1763,694,31.5155,-1.62507
546,330,31.4187,1.85651,0,0,0,0,0,0,0,-1,1770,694,31.4187,-1.85651
553,330,31.8452,1.81476,0,0,0,0,0,0,0,-1,1777,694,31.8452,-1.81475
560,330,32.2401,2.43225,0,0,0,0,0,0,0,-1,1784,694,32.2401,-2.43227
567,330,18.0321,3.98578,0,0,0,0,0,0,0,-1,1791,694,18.0321,-3.98576
574,330,12.0454,2.1662,0,0,0,0,0,0,0,-1,1798,694,12.0455,-2.16618
581,330,11.4215,4.50836,0,0,0,0,0,0,0,-1,1805,694,11.4215,-4.50837
588,330,6.45667,-0.0630493,0,0,0,0,0,0,0,-1,1812,694,6.45661,0.0630695
595,330,8.23193,-0.258484,0,0,0,0,0,0,0,-1,1819,694,8.23188,0.258459
602,330,21.7283,-4.73328,0,0,0,0,0,0,0,-1,1826,694,21.7283,4.73329
609,330,21.8474,-4.10565,0.00639378,0.00247849,-0.000880418,0.00658265,0.00228963,-0.211316,0.00385872,0.0436336,1833,694,21.8474,4.10565
616,330,21.9133,-3.58282,0.00492113,0.00157774,0.000291364,0.00494633,0.00155254,0.0862798,0.00292097,0.0116536,1840,694,21.9133,3.5828
623,330,21.9226,-3.0929,0.00356262,0.000933298,0.000837124,0.00380652,0.000689398,0.283506,0.00234195,0.0127946,1847,694,21.9227,3.09287
630,330,21.9221,-2.59369,0.00245752,0.000553825,0.000881793,0.0028032,0.000208148,0.373606,0.00180343,0.0143189,1854,694,21.9221,2.59368
637,330,21.911,-2.09436,0.00129054,0.00025761,0.00061051,0.00157373,-2.55877e-05,0.434328,0.00105779,0.0127476,1861,694,21.911,2.09436
644,330,21.8658,-1.586,-1.05262e-05,-3.60147e-05,6.92084e-06,-8.76828e-06,-3.77726e-05,0.248749,2.28274e-05,0.0077121,1868,694,21.8659,1.586
651,330,21.8531,-1.08344,-0.00139338,-0.000373029,-0.000703451,-1.42282e-05,-0.00175219,-1.09913,0.00116341,0.0107579,1875,694,21.8532,1.08341
658,330,21.8442,-0.589355,-0.00306039,-0.000864183,-0.00155557,-5.81763e-05,-0.0038664,-1.09274,0.00255843,0.0118873,1882,694,21.8443,0.589365
665,330,21.8352,-0.100952,-0.00509478,-0.00154256,-0.00259105,-0.000177313,-0.00646002,-1.08586,0.00424881,0.0114015,1889,694,21.8352,0.100955
672,330,21.8706,0.422852,-0.00758956,-0.00245591,-0.00384603,-0.000398825,-0.00964664,-1.07965,0.00630236,0.0220816,1896,694,21.8706,-0.422849
679,330,21.6212,0.856934,-0.0108715,-0.00378208,-0.00548427,-0.000796689,-0.0138569,-1.0723,0.00898414,0.0379965,1903,694,21.6212,-0.856922
686,330,21.4213,1.36896,0,0,0,0,0,0,0,-1,1910,694,21.4212,-1.36896
693,330,17.3999,2.5976,0,0,0,0,0,0,0,-1,1917,694,17.4,-2.59759
700,330,17.1072,4.13,0,0,0,0,0,0,0,-1,1924,694,17.1071,-4.13002
707,330,16.663,4.88672,0,0,0,0,0,0,0,-1,1931,694,16.6629,-4.88673
714,330,16.5454,5.80896,0,0,0,0,0,0,0,-1,1938,694,16.5454,-5.80899
721,330,0,0,0,0,0,0,0,0,0,-1,1945,694,0,0
728,330,0,0,0,0,0,0,0,0,0,-1,1952,694,0,0
735,330,0,0,0,0,0,0,0,0,0,-1,1959,694,0,0
742,330,0,0,0,0,0,0,0,0,0,-1,1966,694,0,0
749,330,0,0,0,0,0,0,0,0,0,-1,1973,694,0,0
756,330,0,0,0,0,0,0,0,0,0,-1,1980,694,0,0
763,330,0,0,0,0,0,0,0,0,0,-1,1987,694,0,0
770,330,0,0,0,0,0,0,0,0,0,-1,1994,694,0,0
777,330,0,0,0,0,0,0,0,0,0,-1,2001,694,0,0
784,330,0,0,0,0,0,0,0,0,0,-1,2008,694,0,0
791,330,0,0,0,0,0,0,0,0,0,-1,2015,694,0,0
798,330,0,0,0,0,0,0,0,0,0,-1,2022,694,0,0
805,330,0,0,0,0,0,0,0,0,0,-1,2029,694,0,0
812,330,0,0,0,0,0,0,0,0,0,-1,2036,694,0,0
-700,323,0,0,0,0,0,0,0,0,0,-1,524,701,0,0
-693,323,0,0,0,0,0,0,0,0,0,-1,531,701,0,0
-686,323,0,0,0,0,0,0,0,0,0,-1,538,701,0,0
-679,323,0,0,0,0,0,0,0,0,0,-1,545,701,0,0
-672,323,0,0,0,0,0,0,0,0,0,-1,552,701,0,0
-665,323,0,0,0,0,0,0,0,0,0,-1,559,701,0,0
-658,323,0,0,0,0,0,0,0,0,0,-1,566,701,0,0
-651,323,0,0,0,0,0,0,0,0,0,-1,573,701,0,0
-644,323,0,0,0,0,0,0,0,0,0,-1,580,701,0,0
-637,323,0,0,0,0,0,0,0,0,0,-1,587,701,0,0
-630,323,0,0,0,0,0,0,0,0,0,-1,594,701,0,0
-623,323,0,0,0,0,0,0,0,0,0,-1,601,701,0,0
-616,323,0,0,0,0,0,0,0,0,0,-1,608,701,0,0
-609,323,0,0,0,0,0,0,0,0,0,-1,615,701,0,0
-602,323,-4.15833,2.12256,0,0,0,0,0,0,0,-1,622,701,-4.1583,-2.12257
-595,323,-4.052,1.79156,0,0,0,0,0,0,0,-1,629,701,-4.05198,-1.79158
-588,323,-4.07019,1.94543,0,0,0,0,0,0,0,-1,636,701,-4.07019,-1.94542
-581,323,-6.63727,0.562805,0,0,0,0,0,0,0,-1,643,701,-6.63728,-0.56279
-574,323,-6.15887,0.426697,0,0,0,0,0,0,0,-1,650,701,-6.15887,-0.426727
-567,323,-10.0015,0.0371094,0,0,0,0,0,0,0,-1,657,701,-10.0015,-0.037126
-560,323,-13.4526,-0.923157,0,0,0,0,0,0,0,-1,664,701,-13.4526,0.923187
-553,323,-13.3533,-1.29803,0.00394685,0.0229201,-0.00956022,0.0269018,-3.47737e-05,-1.17617,0.0179461,0.0421663,671,701,-13.3533,1.29804
-546,323,-13.338,-1.59479,0.00320016,0.0173861,-0.00736987,0.0205218,6.4481e-05,-1.16853,0.0136597,0.0184802,678,701,-13.338,1.59478
-539,323,-13.3138,-2.02106,0.00260177,0.0129824,-0.00556169,0.0153994,0.000184737,-1.16083,0.0102053,0.0160216,685,701,-13.3139,2.02108
-532,323,-13.3615,-2.5307,0.00209207,0.00922768,-0.00400448,0.0110232,0.000296567,-1.1493,0.00725195,0.011338,692,701,-13.3614,2.53068
-525,323,-13.3933,-3.02893,0.00167438,0.00608341,-0.00265939,0.0073332,0.000424583,-1.13147,0.0047536,0.00884828,699,701,-13.3933,3.0289
-518,323,-13.3955,-3.46912,0.00140765,0.00361641,-0.00161952,0.00447226,0.000551797,-1.08464,0.00281566,0.0107509,706,701,-13.3955,3.46913
-511,323,-13.4313,-3.94031,0.0012916,0.00175893,-0.000882753,0.00243842,0.000612109,-0.914782,0.00146485,0.0149923,713,701,-13.4314,3.9403
-504,323,-13.4511,-4.43127,0.00129095,0.00043756,-0.000370234,0.00142918,0.000299329,-0.357334,0.00087034,0.0159818,720,701,-13.4511,4.43129
-497,323,-13.4401,-4.8858,0.00144494,-0.000332877,-0.000127562,0.00145405,-0.000341983,-0.0712654,0.00110121,0.0125311,727,701,-13.4401,4.8858
-490,323,-13.4521,-5.3576,0.00198251,0.000229855,-0.000531473,0.00213108,8.12862e-05,-0.272584,0.00139442,0.0135608,734,701,-13.4521,5.3576
-483,323,-13.4435,-5.81976,0.00277343,0.00102515,-0.00130777,0.00347231,0.000326268,-0.49079,0.00221415,0.0247216,741,701,-13.4436,5.81975
-476,323,-13.3569,-6.43903,0,0,0,0,0,0,0,-1,748,701,-13.3569,6.43904
-469,323,-8.33301,-3.64001,0,0,0,0,0,0,0,-1,755,701,-8.33298,3.64
-462,323,-5.29431,-1.45697,0,0,0,0,0,0,0,-1,762,701,-5.29431,1.45699
-455,323,-5.0658,-1.36639,0,0,0,0,0,0,0,-1,769,701,-5.06578,1.3664
-448,323,-4.91608,-1.59601,0,0,0,0,0,0,0,-1,776,701,-4.91606,1.59604
-441,323,-14.4006,0.535217,0,0,0,0,0,0,0,-1,783,701,-14.4006,-0.535203
-434,323,-15.3158,2.479,0,0,0,0,0,0,0,-1,790,701,-15.3158,-2.47898
-427,323,-28.3923,1.16797,0,0,0,0,0,0,0,-1,797,701,-28.3923,-1.16796
-420,323,-28.7292,1.09302,0,0,0,0,0,0,0,-1,804,701,-28.7292,-1.09304
-413,323,-28.7955,1.22418,0,0,0,0,0,0,0,-1,811,701,-28.7956,-1.22419
-406,323,0,0,0,0,0,0,0,0,0,-1,818,701,0,0
-399,323,0,0,0,0,0,0,0,0,0,-1,825,701,0,0
-392,323,0,0,0,0,0,0,0,0,0,-1,832,701,0,0
-385,323,0,0,0,0,0,0,0,0,0,-1,839,701,0,0
-378,323,0,0,0,0,0,0,0,0,0,-1,846,701,0,0
-371,323,0,0,0,0,0,0,0,0,0,-1,853,701,0,0
-364,323,0,0,0,0,0,0,0,0,0,-1,860,701,0,0
-357,323,0,0,0,0,0,0,0,0,0,-1,867,701,0,0
-350,323,0,0,0,0,0,0,0,0,0,-1,874,701,0,0
-343,323,0,0,0,0,0,0,0,0,0,-1,881,701,0,0
-336,323,0,0,0,0,0,0,0,0,0,-1,888,701,0,0
-329,323,0,0,0,0,0,0,0,0,0,-1,895,701,0,0
-322,323,0,0,0,0,0,0,0,0,0,-1,902,701,0,0
-315,323,0,0,0,0,0,0,0,0,0,-1,909,701,0,0
-308,323,0,0,0,0,0,0,0,0,0,-1,916,701,0,0
-301,323,0,0,0,0,0,0,0,0,0,-1,923,701,0,0
-294,323,0,0,0,0,0,0,0,0,0,-1,930,701,0,0
-287,323,0,0,0,0,0,0,0,0,0,-1,937,701,0,0
-280,323,0,0,0,0,0,0,0,0,0,-1,944,701,0,0
-273,323,0,0,0,0,0,0,0,0,0,-1,951,701,0,0
-266,323,0,0,0,0,0,0,0,0,0,-1,958,701,0,0
-259,323,0,0,0,0,0,0,0,0,0,-1,965,701,0,0
-252,323,0,0,0,0,0,0,0,0,0,-1,972,701,0,0
-245,323,0,0,0,0,0,0,0,0,0,-1,979,701,0,0
-238,323,0,0,0,0,0,0,0,0,0,-1,986,701,0,0
-231,323,0,0,0,0,0,0,0,0,0,-1,993,701,0,0
-224,323,0,0,0,0,0,0,0,0,0,-1,1000,701,0,0
-217,323,0,0,0,0,0,0,0,0,0,-1,1007,701,0,0
-210,323,0,0,0,0,0,0,0,0,0,-1,1014,701,0,0
-203,323,0,0,0,0,0,0,0,0,0,-1,1021,701,0,0
-196,323,0,0,0,0,0,0,0,0,0,-1,1028,701,0,0
-189,323,0,0,0,0,0,0,0,0,0,-1,1035,701,0,0
-182,323,0,0,0,0,0,0,0,0,0,-1,1042,701,0,0
-175,323,0,0,0,0,0,0,0,0,0,-1,1049,701,0,0
-168,323,0,0,0,0,0,0,0,0,0,-1,1056,701,0,0
-161,323,0,0,0,0,0,0,0,0,0,-1,1063,701,0,0
-154,323,0,0,0,0,0,0,0,0,0,-1,1070,701,0,0
-147,323,0,0,0,0,0,0,0,0,0,-1,1077,701,0,0
-140,323,0,0,0,0,0,0,0,0,0,-1,1084,701,0,0
-133,323,0,0,0,0,0,0,0,0,0,-1,1091,701,0,0
-126,323,0,0,0,0,0,0,0,0,0,-1,1098,701,0,0
-119,323,0,0,0,0,0,0,0,0,0,-1,1105,701,0,0
-112,323,0,0,0,0,0,0,0,0,0,-1,1112,701,0,0
-105,323,0,0,0,0,0,0,0,0,0,-1,1119,701,0,0
-98,323,0,0,0,0,0,0,0,0,0,-1,1126,701,0,0
-91,323,0,0,0,0,0,0,0,0,0,-1,1133,701,0,0
-84,323,0,0,0,0,0,0,0,0,0,-1,1140,701,0,0
-77,323,0,0,0,0,0,0,0,0,0,-1,1147,701,0,0
-70,323,0,0,0,0,0,0,0,0,0,-1,1154,701,0,0
-63,323,0,0,0,0,0,0,0,0,0,-1,1161,701,0,0
-56,323,0,0,0,0,0,0,0,0,0,-1,1168,701,0,0
-49,323,0,0,0,0,0,0,0,0,0,-1,1175,701,0,0
-42,323,0,0,0,0,0,0,0,0,0,-1,1182,701,0,0
-35,323,0,0,0,0,0,0,0,0,0,-1,1189,701,0,0
-28,323,0,0,0,0,0,0,0,0,0,-1,1196,701,0,0
-21,323,0,0,0,0,0,0,0,0,0,-1,1203,701,0,0
-14,323,0,0,0,0,0,0,0,0,0,-1,1210,701,0,0
-7,323,0,0,0,0,0,0,0,0,0,-1,1217,701,0,0
0,323,0,0,0,0,0,0,0,0,0,-1,1224,701,0,0
7,323,0,0,0,0,0,0,0,0,0,-1,1231,701,0,0
14,323,0,0,0,0,0,0,0,0,0,-1,1238,701,0,0
21,323,0,0,0,0,0,0,0,0,0,-1,1245,701,0,0
28,323,0,0,0,0,0,0,0,0,0,-1,1252,701,0,0
35,323,0,0,0,0,0,0,0,0,0,-1,1259,701,0,0
42,323,0,0,0,0,0,0,0,0,0,-1,1266,701,0,0
49,323,0,0,0,0,0,0,0,0,0,-1,1273,701,0,0
56,323,0,0,0,0,0,0,0,0,0,-1,1280,701,0,0
63,323,0,0,0,0,0,0,0,0,0,-1,1287,701,0,0
70,323,0,0,0,0,0,0,0,0,0,-1,1294,701,0,0
77,323,0,0,0,0,0,0,0,0,0,-1,1301,701,0,0
84,323,0,0,0,0,0,0,0,0,0,-1,1308,701,0,0
91,323,0,0,0,0,0,0,0,0,0,-1,1315,701,0,0
98,323,0,0,0,0,0,0,0,0,0,-1,1322,701,0,0
105,323,0,0,0,0,0,0,0,0,0,-1,1329,701,0,0
112,323,0,0,0,0,0,0,0,0,0,-1,1336,701,0,0
119,323,0,0,0,0,0,0,0,0,0,-1,1343,701,0,0
126,323,0,0,0,0,0,0,0,0,0,-1,1350,701,0,0
133,323,0,0,0,0,0,0,0,0,0,-1,1357,701,0,0
140,323,0,0,0,0,0,0,0,0,0,-1,1364,701,0,0
147,323,0,0,0,0,0,0,0,0,0,-1,1371,701,0,0
154,323,0,0,0,0,0,0,0,0,0,-1,1378,701,0,0
161,323,0,0,0,0,0,0,0,0,0,-1,1385,701,0,0
168,323,0,0,0,0,0,0,0,0,0,-1,1392,701,0,0
175,323,0,0,0,0,0,0,0,0,0,-1,1399,701,0,0
182,323,0,0,0,0,0,0,0,0,0,-1,1406,701,0,0
189,323,0,0,0,0,0,0,0,0,0,-1,1413,701,0,0
196,323,0,0,0,0,0,0,0,0,0,-1,1420,701,0,0
203,323,0,0,0,0,0,0,0,0,0,-1,1427,701,0,0
210,323,0,0,0,0,0,0,0,0,0,-1,1434,701,0,0
217,323,0,0,0,0,0,0,0,0,0,-1,1441,701,0,0
224,323,0,0,0,0,0,0,0,0,0,-1,1448,701,0,0
231,323,0,0,0,0,0,0,0,0,0,-1,1455,701,0,0
238,323,0,0,0,0,0,0,0,0,0,-1,1462,701,0,0
245,323,0,0,0,0,0,0,0,0,0,-1,1469,701,0,0
252,323,0,0,0,0,0,0,0,0,0,-1,1476,701,0,0
259,323,0,0,0,0,0,0,0,0,0,-1,1483,701,0,0
266,323,0,0,0,0,0,0,0,0,0,-1,1490,701,0,0
273,323,0,0,0,0,0,0,0,0,0,-1,1497,701,0,0
280,323,0,0,0,0,0,0,0,0,0,-1,1504,701,0,0
287,323,0,0,0,0,0,0,0,0,0,-1,1511,701,0,0
294,323,0,0,0,0,0,0,0,0,0,-1,1518,701,0,0
301,323,0,0,0,0,0,0,0,0,0,-1,1525,701,0,0
308,323,0,0,0,0,0,0,0,0,0,-1,1532,701,0,0
315,323,0,0,0,0,0,0,0,0,0,-1,1539,701,0,0
322,323,0,0,0,0,0,0,0,0,0,-1,1546,701,0,0
329,323,0,0,0,0,0,0,0,0,0,-1,1553,701,0,0
336,323,0,0,0,0,0,0,0,0,0,-1,1560,701,0,0
343,323,0,0,0,0,0,0,0,0,0,-1,1567,701,0,0
350,323,0,0,0,0,0,0,0,0,0,-1,1574,701,0,0
357,323,0,0,0,0,0,0,0,0,0,-1,1581,701,0,0
364,323,0,0,0,0,0,0,0,0,0,-1,1588,701,0,0
371,323,0,0,0,0,0,0,0,0,0,-1,1595,701,0,0
378,323,0,0,0,0,0,0,0,0,0,-1,1602,701,0,0
385,323,0,0,0,0,0,0,0,0,0,-1,1609,701,0,0
392,323,0,0,0,0,0,0,0,0,0,-1,1616,701,0,0
399,323,0,0,0,0,0,0,0,0,0,-1,1623,701,0,0
406,323,0,0,0,0,0,0,0,0,0,-1,1630,701,0,0
413,323,0,0,0,0,0,0,0,0,0,-1,1637,701,0,0
420,323,0,0,0,0,0,0,0,0,0,-1,1644,701,0,0
427,323,0,0,0,0,0,0,0,0,0,-1,1651,701,0,0
434,323,0,0,0,0,0,0,0,0,0,-1,1658,701,0,0
441,323,0,0,0,0,0,0,0,0,0,-1,1665,701,0,0
448,323,0,0,0,0,0,0,0,0,0,-1,1672,701,0,0
455,323,0,0,0,0,0,0,0,0,0,-1,1679,701,0,0
462,323,0,0,0,0,0,0,0,0,0,-1,1686,701,0,0
469,323,0,0,0,0,0,0,0,0,0,-1,1693,701,0,0
476,323,0,0,0,0,0,0,0,0,0,-1,1700,701,0,0
483,323,0,0,0,0,0,0,0,0,0,-1,1707,701,0,0
490,323,0,0,0,0,0,0,0,0,0,-1,1714,701,0,0
497,323,0,0,0,0,0,0,0,0,0,-1,1721,701,0,0
504,323,0,0,0,0,0,0,0,0,0,-1,1728,701,0,0
511,323,0,0,0,0,0,0,0,0,0,-1,1735,701,0,0
518,323,0,0,0,0,0,0,0,0,0,-1,1742,701,0,0
525,323,0,0,0,0,0,0,0,0,0,-1,1749,701,0,0
532,323,33.6193,1.69446,0,0,0,0,0,0,0,-1,1756,701,33.6193,-1.69444
539,323,32.2698,2.44037,0,0,0,0,0,0,0,-1,1763,701,32.2697,-2.44036
546,323,31.1644,3.9444,0,0,0,0,0,0,0,-1,1770,701,31.1644,-3.94438
553,323,30.2488,5.8775,0,0,0,0,0,0,0,-1,1777,701,30.2487,-5.87752
560,323,40.6711,1.25153,0,0,0,0,0,0,0,-1,1784,701,40.6711,-1.25154
567,323,42.1637,2.01208,0,0,0,0,0,0,0,-1,1791,701,42.1637,-2.01207
574,323,12.514,5.89685,0,0,0,0,0,0,0,-1,1798,701,12.5141,-5.89683
581,323,11.821,5.3476,0,0,0,0,0,0,0,-1,1805,701,11.821,-5.34762
588,323,11.7933,7.00818,0,0,0,0,0,0,0,-1,1812,701,11.7933,-7.00819
595,323,6.67847,0.06604,0,0,0,0,0,0,0,-1,1819,701,6.67841,-0.0660418
602,323,11.2856,-0.595459,0,0,0,0,0,0,0,-1,1826,701,11.2856,0.595433
609,323,22.2523,-4.14972,0,0,0,0,0,0,0,-1,1833,701,22.2523,4.14974
616,323,22.3986,-3.55579,0.00676212,0.00249843,-0.00130184,0.00712819,0.00213237,-0.274112,0.0042247,0.0145436,1840,701,22.3986,3.55576
623,323,22.4069,-3.05646,0.00477215,0.00116583,3.10482e-05,0.00477242,0.00116557,0.00860853,0.00287301,0.0127248,1847,701,22.4068,3.05646
630,323,22.3976,-2.56158,0.00321896,0.000445291,0.000601683,0.00334385,0.000320393,0.204673,0.00213048,0.0138674,1854,701,22.3976,2.56157
637,323,22.3944,-2.06927,0.00175613,0.000107952,0.000617281,0.00196168,-9.75989e-05,0.321445,0.00134151,0.0104905,1861,701,22.3944,2.06929
644,323,22.3721,-1.58167,0.000309355,-0.000112646,0.000180589,0.000376084,-0.000179374,0.353945,0.000327329,0.00787875,1868,701,22.3721,1.58169
651,323,22.3638,-1.07263,-0.00104102,-0.000372672,-0.000467144,-0.000132481,-0.00128121,-1.09588,0.000813586,0.0103106,1875,701,22.3638,1.07265
658,323,22.3215,-0.560791,-0.00261894,-0.000724375,-0.00120435,-0.000139406,-0.00320391,-1.11864,0.00209102,0.0150261,1882,701,22.3215,0.560796
665,323,22.2942,-0.0764771,-0.00449651,-0.00119507,-0.00206526,-0.000201896,-0.00548968,-1.12255,0.00359438,0.0132811,1889,701,22.2942,0.0764581
672,323,22.327,0.444946,-0.00673421,-0.00179461,-0.0030539,-0.000336789,-0.00819203,-1.12542,0.00535263,0.0127864,1896,701,22.327,-0.444962
679,323,22.2734,0.929626,-0.00957994,-0.00262447,-0.00428444,-0.000583958,-0.0116205,-1.12632,0.00755984,0.027194,1903,701,22.2734,-0.929612
686,323,22.1971,1.20911,-0.013126,-0.00382504,-0.00572883,-0.00109673,-0.0158543,-1.12634,0.0102236,0.044558,1910,701,22.1971,-1.20908
693,323,22.209,1.52649,0,0,0,0,0,0,0,-1,1917,701,22.209,-1.52647
700,323,10.7705,0.828613,0,0,0,0,0,0,0,-1,1924,701,10.7705,-0.828591
707,323,16.9005,4.79193,0,0,0,0,0,0,0,-1,1931,701,16.9005,-4.7919
714,323,16.2346,6.25958,0,0,0,0,0,0,0,-1,1938,701,16.2346,-6.25956
721,323,0,0,0,0,0,0,0,0,0,-1,1945,701,0,0
728,323,0,0,0,0,0,0,0,0,0,-1,1952,701,0,0
735,323,0,0,0,0,0,0,0,0,0,-1,1959,701,0,0
742,323,0,0,0,0,0,0,0,0,0,-1,1966,701,0,0
749,323,0,0,0,0,0,0,0,0,0,-1,1973,701,0,0
756,323,0,0,0,0,0,0,0,0,0,-1,1980,701,0,0
763,323,0,0,0,0,0,0,0,0,0,-1,1987,701,0,0
770,323,0,0,0,0,0,0,0,0,0,-1,1994,701,0,0
777,323,0,0,0,0,0,0,0,0,0,-1,2001,701,0,0
784,323,0,0,0,0,0,0,0,0,0,-1,2008,701,0,0
791,323,0,0,0,0,0,0,0,0,0,-1,2015,701,0,0
798,323,0,0,0,0,0,0,0,0,0,-1,2022,701,0,0
805,323,0,0,0,0,0,0,0,0,0,-1,2029,701,0,0
812,323,0,0,0,0,0,0,0,0,0,-1,2036,701,0,0
-700,316,0,0,0,0,0,0,0,0,0,-1,524,708,0,0
-693,316,0,0,0,0,0,0,0,0,0,-1,531,708,0,0
-686,316,0,0,0,0,0,0,0,0,0,-1,538,708,0,0
-679,316,0,0,0,0,0,0,0,0,0,-1,545,708,0,0
-672,316,0,0,0,0,0,0,0,0,0,-1,552,708,0,0
-665,316,0,0,0,0,0,0,0,0,0,-1,559,708,0,0
-658,316,0,0,0,0,0,0,0,0,0,-1,566,708,0,0
-651,316,0,0,0,0,0,0,0,0,0,-1,573,708,0,0
-644,316,0,0,0,0,0,0,0,0,0,-1,580,708,0,0
-637,316,0,0,0,0,0,0,0,0,0,-1,587,708,0,0
-630,316,0,0,0,0,0,0,0,0,0,-1,594,708,0,0
-623,316,0,0,0,0,0,0,0,0,0,-1,601,708,0,0
-616,316,0,0,0,0,0,0,0,0,0,-1,608,708,0,0
-609,316,0,0,0,0,0,0,0,0,0,-1,615,708,0,0
-602,316,-0.451782,-0.0494995,0,0,0,0,0,0,0,-1,622,708,-0.451768,0.0495022
-595,316,-3.3761,2.17188,0,0,0,0,0,0,0,-1,629,708,-3.37609,-2.17189
-588,316,-5.00177,2.60675,0,0,0,0,0,0,0,-1,636,708,-5.00175,-2.60676
-581,316,-3.94653,0.393433,0,0,0,0,0,0,0,-1,643,708,-3.94655,-0.39342
-574,316,-9.67395,1.06067,0,0,0,0,0,0,0,-1,650,708,-9.67396,-1.06065
-567,316,-10.1962,0.448425,0,0,0,0,0,0,0,-1,657,708,-10.1962,-0.448411
-560,316,-13.5923,-1.20502,0,0,0,0,0,0,0,-1,664,708,-13.5924,1.20499
-553,316,-13.7066,-1.33569,0.00186138,0.0167115,-0.00624361,0.0189877,-0.000414805,-1.22121,0.012799,0.0374723,671,708,-13.7066,1.33569
-546,316,-13.875,-1.55066,0.00170313,0.0129123,-0.00493265,0.0147738,-0.000158364,-1.20994,0.00990242,0.02318,678,708,-13.875,1.55065
-539,316,-13.8045,-2.05835,0.00153364,0.009718,-0.00377837,0.0111956,5.60801e-05,-1.19802,0.00744509,0.0135805,685,708,-13.8045,2.05837
-532,316,-13.8417,-2.52325,0.00134891,0.00686082,-0.0027242,0.00797999,0.000229745,-1.18099,0.00524509,0.0109863,692,708,-13.8417,2.52326
-525,316,-13.8492,-2.98096,0.00117638,0.00437427,-0.0017604,0.00515348,0.000397169,-1.15408,0.00331121,0.00986162,699,708,-13.8492,2.98095
-518,316,-13.8438,-3.45313,0.00109265,0.00236207,-0.000995857,0.00290829,0.000546435,-1.06911,0.00178482,0.00956795,706,708,-13.8438,3.4531
-511,316,-13.8812,-3.92981,0.0010948,0.000758115,-0.000422238,0.00138102,0.000471898,-0.59571,0.00081054,0.0109734,713,708,-13.8812,3.92982
-504,316,-13.9174,-4.42169,0.0011646,-0.000454594,1.59347e-05,0.00116475,-0.000454751,0.0098399,0.000964508,0.0146209,720,708,-13.9173,4.42171
-497,316,-13.9044,-4.86401,0.00132964,-0.00127465,0.000299431,0.00136362,-0.00130863,0.113011,0.00154294,0.0131836,727,708,-13.9044,4.86402
-490,316,-13.8996,-5.32813,0.00201326,-0.00040455,-0.00020385,0.00203033,-0.000421616,-0.0835262,0.00151379,0.0167653,734,708,-13.8996,5.32814
-483,316,-13.8815,-5.83881,0,0,0,0,0,0,0,-1,741,708,-13.8815,5.83881
-476,316,-8.90894,-3.31207,0,0,0,0,0,0,0,-1,748,708,-8.90896,3.31206
-469,316,-6.24194,-1.42725,0,0,0,0,0,0,0,-1,755,708,-6.24192,1.42725
-462,316,-5.74237,-1.40039,0,0,0,0,0,0,0,-1,762,708,-5.74238,1.40039
-455,316,-5.44745,-1.21899,0,0,0,0,0,0,0,-1,769,708,-5.44746,1.21898
-448,316,-14.8945,0.655396,0,0,0,0,0,0,0,-1,776,708,-14.8946,-0.655396
-441,316,-14.9626,0.576111,0,0,0,0,0,0,0,-1,783,708,-14.9626,-0.576115
-434,316,-27.7723,1.15576,0,0,0,0,0,0,0,-1,790,708,-27.7723,-1.15579
-427,316,-28.0504,1.31427,0,0,0,0,0,0,0,-1,797,708,-28.0504,-1.31427
-420,316,-28.198,1.62891,0,0,0,0,0,0,0,-1,804,708,-28.198,-1.62889
-413,316,0,0,0,0,0,0,0,0,0,-1,811,708,0,0
-406,316,0,0,0,0,0,0,0,0,0,-1,818,708,0,0
-399,316,0,0,0,0,0,0,0,0,0,-1,825,708,0,0
-392,316,0,0,0,0,0,0,0,0,0,-1,832,708,0,0
-385,316,0,0,0,0,0,0,0,0,0,-1,839,708,0,0
-378,316,0,0,0,0,0,0,0,0,0,-1,846,708,0,0
-371,316,0,0,0,0,0,0,0,0,0,-1,853,708,0,0
-364,316,0,0,0,0,0,0,0,0,0,-1,860,708,0,0
-357,316,0,0,0,0,0,0,0,0,0,-1,867,708,0,0
-350,316,0,0,0,0,0,0,0,0,0,-1,874,708,0,0
-343,316,0,0,0,0,0,0,0,0,0,-1,881,708,0,0
-336,316,0,0,0,0,0,0,0,0,0,-1,888,708,0,0
-329,316,0,0,0,0,0,0,0,0,0,-1,895,708,0,0
-322,316,0,0,0,0,0,0,0,0,0,-1,902,708,0,0
-315,316,0,0,0,0,0,0,0,0,0,-1,909,708,0,0
-308,316,0,0,0,0,0,0,0,0,0,-1,916,708,0,0
-301,316,0,0,0,0,0,0,0,0,0,-1,923,708,0,0
-294,316,0,0,0,0,0,0,0,0,0,-1,930,708,0,0
-287,316,0,0,0,0,0,0,0,0,0,-1,937,708,0,0
-280,316,0,0,0,0,0,0,0,0,0,-1,944,708,0,0
-273,316,0,0,0,0,0,0,0,0,0,-1,951,708,0,0
-266,316,0,0,0,0,0,0,0,0,0,-1,958,708,0,0
-259,316,0,0,0,0,0,0,0,0,0,-1,965,708,0,0
-252,316,0,0,0,0,0,0,0,0,0,-1,972,708,0,0
-245,316,0,0,0,0,0,0,0,0,0,-1,979,708,0,0
-238,316,0,0,0,0,0,0,0,0,0,-1,986,708,0,0
-231,316,0,0,0,0,0,0,0,0,0,-1,993,708,0,0
-224,316,0,0,0,0,0,0,0,0,0,-1,1000,708,0,0
-217,316,0,0,0,0,0,0,0,0,0,-1,1007,708,0,0
-210,316,0,0,0,0,0,0,0,0,0,-1,1014,708,0,0
-203,316,0,0,0,0,0,0,0,0,0,-1,1021,708,0,0
-196,316,0,0,0,0,0,0,0,0,0,-1,1028,708,0,0
-189,316,0,0,0,0,0,0,0,0,0,-1,1035,708,0,0
-182,316,0,0,0,0,0,0,0,0,0,-1,1042,708,0,0
-175,316,0,0,0,0,0,0,0,0,0,-1,1049,708,0,0
-168,316,0,0,0,0,0,0,0,0,0,-1,1056,708,0,0
-161,316,0,0,0,0,0,0,0,0,0,-1,1063,708,0,0
-154,316,0,0,0,0,0,0,0,0,0,-1,1070,708,0,0
-147,316,0,0,0,0,0,0,0,0,0,-1,1077,708,0,0
-140,316,0,0,0,0,0,0,0,0,0,-1,1084,708,0,0
-133,316,0,0,0,0,0,0,0,0,0,-1,1091,708,0,0
-126,316,0,0,0,0,0,0,0,0,0,-1,1098,708,0,0
-119,316,0,0,0,0,0,0,0,0,0,-1,1105,708,0,0
-112,316,0,0,0,0,0,0,0,0,0,-1,1112,708,0,0
-105,316,0,0,0,0,0,0,0,0,0,-1,1119,708,0,0
-98,316,0,0,0,0,0,0,0,0,0,-1,1126,708,0,0
-91,316,0,0,0,0,0,0,0,0,0,-1,1133,708,0,0
-84,316,0,0,0,0,0,0,0,0,0,-1,1140,708,0,0
-77,316,0,0,0,0,0,0,0,0,0,-1,1147,708,0,0
-70,316,0,0,0,0,0,0,0,0,0,-1,1154,708,0,0
-63,316,0,0,0,0,0,0,0,0,0,-1,1161,708,0,0
-56,316,0,0,0,0,0,0,0,0,0,-1,1168,708,0,0
-49,316,0,0,0,0,0,0,0,0,0,-1,1175,708,0,0
-42,316,0,0,0,0,0,0,0,0,0,-1,1182,708,0,0
-35,316,0,0,0,0,0,0,0,0,0,-1,1189,708,0,0
-28,316,0,0,0,0,0,0,0,0,0,-1,1196,708,0,0
-21,316,0,0,0,0,0,0,0,0,0,-1,1203,708,0,0
-14,316,0,0,0,0,0,0,0,0,0,-1,1210,708,0,0
-7,316,0,0,0,0,0,0,0,0,0,-1,1217,708,0,0
0,316,0,0,0,0,0,0,0,0,0,-1,1224,708,0,0
7,316,0,0,0,0,0,0,0,0,0,-1,1231,708,0,0
14,316,0,0,0,0,0,0,0,0,0,-1,1238,708,0,0
21,316,0,0,0,0,0,0,0,0,0,-1,1245,708,0,0
28,316,0,0,0,0,0,0,0,0,0,-1,1252,708,0,0
35,316,0,0,0,0,0,0,0,0,0,-1,1259,708,0,0
42,316,0,0,0,0,0,0,0,0,0,-1,1266,708,0,0
49,316,0,0,0,0,0,0,0,0,0,-1,1273,708,0,0
56,316,0,0,0,0,0,0,0,0,0,-1,1280,708,0,0
63,316,0,0,0,0,0,0,0,0,0,-1,1287,708,0,0
70,316,0,0,0,0,0,0,0,0,0,-1,1294,708,0,0
77,316,0,0,0,0,0,0,0,0,0,-1,1301,708,0,0
84,316,0,0,0,0,0,0,0,0,0,-1,1308,708,0,0
91,316,0,0,0,0,0,0,0,0,0,-1,1315,708,0,0
98,316,0,0,0,0,0,0,0,0,0,-1,1322,708,0,0
105,316,0,0,0,0,0,0,0,0,0,-1,1329,708,0,0
112,316,0,0,0,0,0,0,0,0,0,-1,1336,708,0,0
119,316,0,0,0,0,0,0,0,0,0,-1,1343,708,0,0
126,316,0,0,0,0,0,0,0,0,0,-1,1350,708,0,0
133,316,0,0,0,0,0,0,0,0,0,-1,1357,708,0,0
140,316,0,0,0,0,0,0,0,0,0,-1,1364,708,0,0
147,316,0,0,0,0,0,0,0,0,0,-1,1371,708,0,0
154,316,0,0,0,0,0,0,0,0,0,-1,1378,708,0,0
161,316,0,0,0,0,0,0,0,0,0,-1,1385,708,0,0
168,316,0,0,0,0,0,0,0,0,0,-1,1392,708,0,0
175,316,0,0,0,0,0,0,0,0,0,-1,1399,708,0,0
182,316,0,0,0,0,0,0,0,0,0,-1,1406,708,0,0
189,316,0,0,0,0,0,0,0,0,0,-1,1413,708,0,0
196,316,0,0,0,0,0,0,0,0,0,-1,1420,708,0,0
203,316,0,0,0,0,0,0,0,0,0,-1,1427,708,0,0
210,316,0,0,0,0,0,0,0,0,0,-1,1434,708,0,0
217,316,0,0,0,0,0,0,0,0,0,-1,1441,708,0,0
224,316,0,0,0,0,0,0,0,0,0,-1,1448,708,0,0
231,316,0,0,0,0,0,0,0,0,0,-1,1455,708,0,0
238,316,0,0,0,0,0,0,0,0,0,-1,1462,708,0,0
245,316,0,0,0,0,0,0,0,0,0,-1,1469,708,0,0
252,316,0,0,0,0,0,0,0,0,0,-1,1476,708,0,0
259,316,0,0,0,0,0,0,0,0,0,-1,1483,708,0,0
266,316,0,0,0,0,0,0,0,0,0,-1,1490,708,0,0
273,316,0,0,0,0,0,0,0,0,0,-1,1497,708,0,0
280,316,0,0,0,0,0,0,0,0,0,-1,1504,708,0,0
287,316,0,0,0,0,0,0,0,0,0,-1,1511,708,0,0
294,316,0,0,0,0,0,0,0,0,0,-1,1518,708,0,0
301,316,0,0,0,0,0,0,0,0,0,-1,1525,708,0,0
308,316,0,0,0,0,0,0,0,0,0,-1,1532,708,0,0
315,316,0,0,0,0,0,0,0,0,0,-1,1539,708,0,0
322,316,0,0,0,0,0,0,0,0,0,-1,1546,708,0,0
329,316,0,0,0,0,0,0,0,0,0,-1,1553,708,0,0
336,316,0,0,0,0,0,0,0,0,0,-1,1560,708,0,0
343,316,0,0,0,0,0,0,0,0,0,-1,1567,708,0,0
350,316,0,0,0,0,0,0,0,0,0,-1,1574,708,0,0
357,316,0,0,0,0,0,0,0,0,0,-1,1581,708,0,0
364,316,0,0,0,0,0,0,0,0,0,-1,1588,708,0,0
371,316,0,0,0,0,0,0,0,0,0,-1,1595,708,0,0
378,316,0,0,0,0,0,0,0,0,0,-1,1602,708,0,0
385,316,0,0,0,0,0,0,0,0,0,-1,1609,708,0,0
392,316,0,0,0,0,0,0,0,0,0,-1,1616,708,0,0
399,316,0,0,0,0,0,0,0,0,0,-1,1623,708,0,0
406,316,0,0,0,0,0,0,0,0,0,-1,1630,708,0,0
413,316,0,0,0,0,0,0,0,0,0,-1,1637,708,0,0
420,316,0,0,0,0,0,0,0,0,0,-1,1644,708,0,0
427,316,0,0,0,0,0,0,0,0,0,-1,1651,708,0,0
434,316,0,0,0,0,0,0,0,0,0,-1,1658,708,0,0
441,316,0,0,0,0,0,0,0,0,0,-1,1665,708,0,0
448,316,0,0,0,0,0,0,0,0,0,-1,1672,708,0,0
455,316,0,0,0,0,0,0,0,0,0,-1,1679,708,0,0
462,316,0,0,0,0,0,0,0,0,0,-1,1686,708,0,0
469,316,0,0,0,0,0,0,0,0,0,-1,1693,708,0,0
476,316,0,0,0,0,0,0,0,0,0,-1,1700,708,0,0
483,316,0,0,0,0,0,0,0,0,0,-1,1707,708,0,0
490,316,0,0,0,0,0,0,0,0,0,-1,1714,708,0,0
497,316,0,0,0,0,0,0,0,0,0,-1,1721,708,0,0
504,316,0,0,0,0,0,0,0,0,0,-1,1728,708,0,0
511,316,0,0,0,0,0,0,0,0,0,-1,1735,708,0,0
518,316,0,0,0,0,0,0,0,0,0,-1,1742,708,0,0
525,316,0,0,0,0,0,0,0,0,0,-1,1749,708,0,0
532,316,33.8604,0.531128,0,0,0,0,0,0,0,-1,1756,708,33.8604,-0.531151
539,316,37.7004,1.9234,0,0,0,0,0,0,0,-1,1763,708,37.7005,-1.92343
546,316,37.8945,2.03882,0,0,0,0,0,0,0,-1,1770,708,37.8945,-2.03879
553,316,38.1301,0.431152,0,0,0,0,0,0,0,-1,1777,708,38.1301,-0.43115
560,316,39.1196,1.10046,0,0,0,0,0,0,0,-1,1784,708,39.1197,-1.10048
567,316,40.3279,1.98065,0,0,0,0,0,0,0,-1,1791,708,40.3279,-1.98067
574,316,40.1323,2.25415,0,0,0,0,0,0,0,-1,1798,708,40.1324,-2.25415
581,316,24.6815,7.77496,0,0,0,0,0,0,0,-1,1805,708,24.6815,-7.77499
588,316,19.7659,2.90198,0,0,0,0,0,0,0,-1,1812,708,19.7659,-2.902
595,316,12.5363,1.50702,0,0,0,0,0,0,0,-1,1819,708,12.5363,-1.50701
602,316,7.79919,0.0422363,0,0,0,0,0,0,0,-1,1826,708,7.79923,-0.0422066
609,316,22.8065,-4.09918,0,0,0,0,0,0,0,-1,1833,708,22.8065,4.09918
616,316,22.8723,-3.53271,0.00890939,0.00327929,-0.00290938,0.0101427,0.002046,-0.400938,0.00619348,0.0183463,1840,708,22.8723,3.53271
623,316,22.8856,-3.02356,0.00636175,0.00131662,-0.000983553,0.00654672,0.00113166,-0.185885,0.00404043,0.0107934,1847,708,22.8857,3.02353
630,316,22.8684,-2.55542,0.00427375,0.000253041,0.000111002,0.00427681,0.000249979,0.0275795,0.00277164,0.0119952,1854,708,22.8684,2.55543
637,316,22.8774,-2.06372,0.00235688,-9.73103e-05,0.000482435,0.00244831,-0.000188739,0.187294,0.00169862,0.0108595,1861,708,22.8774,2.06369
644,316,22.8722,-1.56274,0.000643734,-0.000208386,0.000297628,0.000737395,-0.000302047,0.304879,0.000617418,0.011806,1868,708,22.8721,1.56276
651,316,22.8408,-1.06183,-0.000661121,-0.000366269,-0.000273162,-0.000203289,-0.000824101,-1.03285,0.000495732,0.0141436,1875,708,22.8409,1.06182
658,316,22.814,-0.554932,-0.00212344,-0.000558704,-0.000893617,-0.000153363,-0.00252878,-1.14496,0.00163713,0.024916,1882,708,22.8139,0.554935
665,316,22.7673,-0.0536499,-0.00377732,-0.000821106,-0.00158304,-0.000133386,-0.00446504,-1.16096,0.00293324,0.0188619,1889,708,22.7673,0.0536623
672,316,22.7808,0.429199,-0.00569689,-0.00113165,-0.0023402,-0.000145185,-0.00668335,-1.17187,0.00440797,0.0129643,1896,708,22.7808,-0.429175
679,316,22.8046,0.970215,-0.00801389,-0.00153889,-0.00323206,-0.000201717,-0.00935106,-1.17852,0.0061679,0.0227793,1903,708,22.8046,-0.970206
686,316,22.5294,1.47125,-0.0107456,-0.00214227,-0.00423088,-0.000410299,-0.0124775,-1.18224,0.00818501,0.0368984,1910,708,22.5294,-1.47126
693,316,22.2087,2.03387,0,0,0,0,0,0,0,-1,1917,708,22.2087,-2.03388
700,316,12.8749,2.89136,0,0,0,0,0,0,0,-1,1924,708,12.8748,-2.89137
707,316,15.7089,5.41486,0,0,0,0,0,0,0,-1,1931,708,15.7088,-5.41487
714,316,16.1727,5.52045,0,0,0,0,0,0,0,-1,1938,708,16.1728,-5.52042
721,316,16.7094,6.53351,0,0,0,0,0,0,0,-1,1945,708,16.7094,-6.5335
728,316,0,0,0,0,0,0,0,0,0,-1,1952,708,0,0
735,316,0,0,0,0,0,0,0,0,0,-1,1959,708,0,0
742,316,0,0,0,0,0,0,0,0,0,-1,1966,708,0,0
749,316,0,0,0,0,0,0,0,0,0,-1,1973,708,0,0
756,316,0,0,0,0,0,0,0,0,0,-1,1980,708,0,0
763,316,0,0,0,0,0,0,0,0,0,-1,1987,708,0,0
770,316,0,0,0,0,0,0,0,0,0,-1,1994,708,0,0
777,316,0,0,0,0,0,0,0,0,0,-1,2001,708,0,0
784,316,0,0,0,0,0,0,0,0,0,-1,2008,708,0,0
791,316,0,0,0,0,0,0,0,0,0,-1,2015,708,0,0
798,316,0,0,0,0,0,0,0,0,0,-1,2022,708,0,0
805,316,0,0,0,0,0,0,0,0,0,-1,2029,708,0,0
812,316,0,0,0,0,0,0,0,0,0,-1,2036,708,0,0
-700,309,0,0,0,0,0,0,0,0,0,-1,524,715,0,0
-693,309,0,0,0,0,0,0,0,0,0,-1,531,715,0,0
-686,309,0,0,0,0,0,0,0,0,0,-1,538,715,0,0
-679,309,0,0,0,0,0,0,0,0,0,-1,545,715,0,0
-672,309,0,0,0,0,0,0,0,0,0,-1,552,715,0,0
-665,309,0,0,0,0,0,0,0,0,0,-1,559,715,0,0
-658,309,0,0,0,0,0,0,0,0,0,-1,566,715,0,0
-651,309,0,0,0,0,0,0,0,0,0,-1,573,715,0,0
-644,309,0,0,0,0,0,0,0,0,0,-1,580,715,0,0
-637,309,0,0,0,0,0,0,0,0,0,-1,587,715,0,0
-630,309,0,0,0,0,0,0,0,0,0,-1,594,715,0,0
-623,309,0,0,0,0,0,0,0,0,0,-1,601,715,0,0
-616,309,0,0,0,0,0,0,0,0,0,-1,608,715,0,0
-609,309,-5.95392,-3.93689,0,0,0,0,0,0,0,-1,615,715,-5.95392,3.93686
-602,309,-4.99786,-3.31287,0,0,0,0,0,0,0,-1,622,715,-4.99786,3.31284
-595,309,-6.80847,2.4046,0,0,0,0,0,0,0,-1,629,715,-6.80845,-2.40458
-588,309,-6.08795,2.19324,0,0,0,0,0,0,0,-1,636,715,-6.08793,-2.19325
-581,309,-5.97552,1.3277,0,0,0,0,0,0,0,-1,643,715,-5.97552,-1.32769
-574,309,-8.73602,0.208435,0,0,0,0,0,0,0,-1,650,715,-8.73604,-0.208437
-567,309,-10.3909,0.85968,0,0,0,0,0,0,0,-1,657,715,-10.3909,-0.859696
-560,309,-14.1326,-1.15894,0,0,0,0,0,0,0,-1,664,715,-14.1326,1.15893
-553,309,-14.2306,-1.21057,0.000722722,0.0121415,-0.00374237,0.0132587,-0.000394491,-1.28069,0.0089735,0.0381716,671,715,-14.2306,1.21059
-546,309,-14.3366,-1.55603,0.000781946,0.00939391,-0.00299267,0.0103317,-0.00015588,-1.26711,0.00694037,0.0200907,678,715,-14.3366,1.55604
-539,309,-14.2832,-2.05963,0.000817682,0.00700339,-0.00228126,0.00775369,6.73754e-05,-1.25304,0.00514682,0.0147168,685,715,-14.2832,2.05964
-532,309,-14.2925,-2.51752,0.000796592,0.00477901,-0.00159222,0.00533732,0.000238277,-1.23354,0.00348151,0.0115874,692,715,-14.2925,2.51751
-525,309,-14.3035,-2.99219,0.000787674,0.00282635,-0.000913698,0.00317591,0.000438109,-1.20539,0.0019874,0.0148132,699,715,-14.3035,2.99216
-518,309,-14.3152,-3.45062,0.000850303,0.00120667,-0.000361647,0.00143164,0.000625325,-1.01429,0.000828759,0.0153679,706,715,-14.3152,3.45062
-511,309,-14.3227,-3.89972,0.000955618,-0.000155373,8.3423e-05,0.000961847,-0.000161602,0.0745319,0.000701332,0.0128794,713,715,-14.3227,3.89974
-504,309,-14.3523,-4.38153,0.00109559,-0.0012443,0.000460865,0.00118309,-0.0013318,0.187627,0.00145282,0.010435,720,715,-14.3523,4.38156
-497,309,-14.3536,-4.83801,0.00126286,-0.00211271,0.000804727,0.00144489,-0.00229474,0.222456,0.00217758,0.0143194,727,715,-14.3536,4.83802
-490,309,-14.3237,-5.28253,0.00207093,-0.00101324,0.000261519,0.00209295,-0.00103526,0.0839946,0.00184016,0.0452089,734,715,-14.3237,5.28253
-483,309,-14.0203,-5.99487,0,0,0,0,0,0,0,-1,741,715,-14.0203,5.99484
-476,309,-5.29486,-1.2262,0,0,0,0,0,0,0,-1,748,715,-5.29484,1.22622
-469,309,-4.22717,-0.592896,0,0,0,0,0,0,0,-1,755,715,-4.2272,0.592905
-462,309,-10.428,2.46948,0,0,0,0,0,0,0,-1,762,715,-10.428,-2.46947
-455,309,-15.8216,0.00915527,0,0,0,0,0,0,0,-1,769,715,-15.8216,-0.00913359
-448,309,-19.2673,1.19257,0,0,0,0,0,0,0,-1,776,715,-19.2673,-1.19254
-441,309,-19.8181,1.4425,0,0,0,0,0,0,0,-1,783,715,-19.8181,-1.44249
-434,309,-28.3196,0.95105,0,0,0,0,0,0,0,-1,790,715,-28.3196,-0.951068
-427,309,-27.8553,1.40332,0,0,0,0,0,0,0,-1,797,715,-27.8553,-1.40334
-420,309,-27.3148,1.90747,0,0,0,0,0,0,0,-1,804,715,-27.3148,-1.90745
-413,309,0,0,0,0,0,0,0,0,0,-1,811,715,0,0
-406,309,0,0,0,0,0,0,0,0,0,-1,818,715,0,0
-399,309,0,0,0,0,0,0,0,0,0,-1,825,715,0,0
-392,309,0,0,0,0,0,0,0,0,0,-1,832,715,0,0
-385,309,0,0,0,0,0,0,0,0,0,-1,839,715,0,0
-378,309,0,0,0,0,0,0,0,0,0,-1,846,715,0,0
-371,309,0,0,0,0,0,0,0,0,0,-1,853,715,0,0
-364,309,0,0,0,0,0,0,0,0,0,-1,860,715,0,0
-357,309,0,0,0,0,0,0,0,0,0,-1,867,715,0,0
-350,309,0,0,0,0,0,0,0,0,0,-1,874,715,0,0
-343,309,0,0,0,0,0,0,0,0,0,-1,881,715,0,0
-336,309,0,0,0,0,0,0,0,0,0,-1,888,715,0,0
-329,309,0,0,0,0,0,0,0,0,0,-1,895,715,0,0
-322,309,0,0,0,0,0,0,0,0,0,-1,902,715,0,0
-315,309,0,0,0,0,0,0,0,0,0,-1,909,715,0,0
-308,309,0,0,0,0,0,0,0,0,0,-1,916,715,0,0
-301,309,0,0,0,0,0,0,0,0,0,-1,923,715,0,0
-294,309,0,0,0,0,0,0,0,0,0,-1,930,715,0,0
-287,309,0,0,0,0,0,0,0,0,0,-1,937,715,0,0
-280,309,0,0,0,0,0,0,0,0,0,-1,944,715,0,0
-273,309,0,0,0,0,0,0,0,0,0,-1,951,715,0,0
-266,309,0,0,0,0,0,0,0,0,0,-1,958,715,0,0
-259,309,0,0,0,0,0,0,0,0,0,-1,965,715,0,0
-252,309,0,0,0,0,0,0,0,0,0,-1,972,715,0,0
-245,309,0,0,0,0,0,0,0,0,0,-1,979,715,0,0
-238,309,0,0,0,0,0,0,0,0,0,-1,986,715,0,0
-231,309,0,0,0,0,0,0,0,0,0,-1,993,715,0,0
-224,309,0,0,0,0,0,0,0,0,0,-1,1000,715,0,0
-217,309,0,0,0,0,0,0,0,0,0,-1,1007,715,0,0
-210,309,0,0,0,0,0,0,0,0,0,-1,1014,715,0,0
-203,309,0,0,0,0,0,0,0,0,0,-1,1021,715,0,0
-196,309,0,0,0,0,0,0,0,0,0,-1,1028,715,0,0
-189,309,0,0,0,0,0,0,0,0,0,-1,1035,715,0,0
-182,309,0,0,0,0,0,0,0,0,0,-1,1042,715,0,0
-175,309,0,0,0,0,0,0,0,0,0,-1,1049,715,0,0
-168,309,0,0,0,0,0,0,0,0,0,-1,1056,715,0,0
-161,309,0,0,0,0,0,0,0,0,0,-1,1063,715,0,0
-154,309,0,0,0,0,0,0,0,0,0,-1,1070,715,0,0
-147,309,0,0,0,0,0,0,0,0,0,-1,1077,715,0,0
-140,309,0,0,0,0,0,0,0,0,0,-1,1084,715,0,0
-133,309,0,0,0,0,0,0,0,0,0,-1,1091,715,0,0
-126,309,0,0,0,0,0,0,0,0,0,-1,1098,715,0,0
-119,309,0,0,0,0,0,0,0,0,0,-1,1105,715,0,0
-112,309,0,0,0,0,0,0,0,0,0,-1,1112,715,0,0
-105,309,0,0,0,0,0,0,0,0,0,-1,1119,715,0,0
-98,309,0,0,0,0,0,0,0,0,0,-1,1126,715,0,0
-91,309,0,0,0,0,0,0,0,0,0,-1,1133,715,0,0
-84,309,0,0,0,0,0,0,0,0,0,-1,1140,715,0,0
-77,309,0,0,0,0,0,0,0,0,0,-1,1147,715,0,0
-70,309,0,0,0,0,0,0,0,0,0,-1,1154,715,0,0
-63,309,0,0,0,0,0,0,0,0,0,-1,1161,715,0,0
-56,309,0,0,0,0,0,0,0,0,0,-1,1168,715,0,0
-49,309,0,0,0,0,0,0,0,0,0,-1,1175,715,0,0
-42,309,0,0,0,0,0,0,0,0,0,-1,1182,715,0,0
-35,309,0,0,0,0,0,0,0,0,0,-1,1189,715,0,0
-28,309,0,0,0,0,0,0,0,0,0,-1,1196,715,0,0
-21,309,0,0,0,0,0,0,0,0,0,-1,1203,715,0,0
-14,309,0,0,0,0,0,0,0,0,0,-1,1210,715,0,0
-7,309,0,0,0,0,0,0,0,0,0,-1,1217,715,0,0
0,309,0,0,0,0,0,0,0,0,0,-1,1224,715,0,0
7,309,0,0,0,0,0,0,0,0,0,-1,1231,715,0,0
14,309,0,0,0,0,0,0,0,0,0,-1,1238,715,0,0
21,309,0,0,0,0,0,0,0,0,0,-1,1245,715,0,0
28,309,0,0,0,0,0,0,0,0,0,-1,1252,715,0,0
35,309,0,0,0,0,0,0,0,0,0,-1,1259,715,0,0
42,309,0,0,0,0,0,0,0,0,0,-1,1266,715,0,0
49,309,0,0,0,0,0,0,0,0,0,-1,1273,715,0,0
56,309,0,0,0,0,0,0,0,0,0,-1,1280,715,0,0
63,309,0,0,0,0,0,0,0,0,0,-1,1287,715,0,0
70,309,0,0,0,0,0,0,0,0,0,-1,1294,715,0,0
77,309,0,0,0,0,0,0,0,0,0,-1,1301,715,0,0
84,309,0,0,0,0,0,0,0,0,0,-1,1308,715,0,0
91,309,0,0,0,0,0,0,0,0,0,-1,1315,715,0,0
98,309,0,0,0,0,0,0,0,0,0,-1,1322,715,0,0
105,309,0,0,0,0,0,0,0,0,0,-1,1329,715,0,0
112,309,0,0,0,0,0,0,0,0,0,-1,1336,715,0,0
119,309,0,0,0,0,0,0,0,0,0,-1,1343,715,0,0
126,309,0,0,0,0,0,0,0,0,0,-1,1350,715,0,0
133,309,0,0,0,0,0,0,0,0,0,-1,1357,715,0,0
140,309,0,0,0,0,0,0,0,0,0,-1,1364,715,0,0
147,309,0,0,0,0,0,0,0,0,0,-1,1371,715,0,0
154,309,0,0,0,0,0,0,0,0,0,-1,1378,715,0,0
161,309,0,0,0,0,0,0,0,0,0,-1,1385,715,0,0
168,309,0,0,0,0,0,0,0,0,0,-1,1392,715,0,0
175,309,0,0,0,0,0,0,0,0,0,-1,1399,715,0,0
182,309,0,0,0,0,0,0,0,0,0,-1,1406,715,0,0
189,309,0,0,0,0,0,0,0,0,0,-1,1413,715,0,0
196,309,0,0,0,0,0,0,0,0,0,-1,1420,715,0,0
203,309,0,0,0,0,0,0,0,0,0,-1,1427,715,0,0
210,309,0,0,0,0,0,0,0,0,0,-1,1434,715,0,0
217,309,0,0,0,0,0,0,0,0,0,-1,1441,715,0,0
224,309,0,0,0,0,0,0,0,0,0,-1,1448,715,0,0
231,309,0,0,0,0,0,0,0,0,0,-1,1455,715,0,0
238,309,0,0,0,0,0,0,0,0,0,-1,1462,715,0,0
245,309,0,0,0,0,0,0,0,0,0,-1,1469,715,0,0
252,309,0,0,0,0,0,0,0,0,0,-1,1476,715,0,0
259,309,0,0,0,0,0,0,0,0,0,-1,1483,715,0,0
266,309,0,0,0,0,0,0,0,0,0,-1,1490,715,0,0
273,309,0,0,0,0,0,0,0,0,0,-1,1497,715,0,0
280,309,0,0,0,0,0,0,0,0,0,-1,1504,715,0,0
287,309,0,0,0,0,0,0,0,0,0,-1,1511,715,0,0
294,309,0,0,0,0,0,0,0,0,0,-1,1518,715,0,0
301,309,0,0,0,0,0,0,0,0,0,-1,1525,715,0,0
308,309,0,0,0,0,0,0,0,0,0,-1,1532,715,0,0
315,309,0,0,0,0,0,0,0,0,0,-1,1539,715,0,0
322,309,0,0,0,0,0,0,0,0,0,-1,1546,715,0,0
329,309,0,0,0,0,0,0,0,0,0,-1,1553,715,0,0
336,309,0,0,0,0,0,0,0,0,0,-1,1560,715,0,0
343,309,0,0,0,0,0,0,0,0,0,-1,1567,715,0,0
350,309,0,0,0,0,0,0,0,0,0,-1,1574,715,0,0
357,309,0,0,0,0,0,0,0,0,0,-1,1581,715,0,0
364,309,0,0,0,0,0,0,0,0,0,-1,1588,715,0,0
371,309,0,0,0,0,0,0,0,0,0,-1,1595,715,0,0
378,309,0,0,0,0,0,0,0,0,0,-1,1602,715,0,0
385,309,0,0,0,0,0,0,0,0,0,-1,1609,715,0,0
392,309,0,0,0,0,0,0,0,0,0,-1,1616,715,0,0
399,309,0,0,0,0,0,0,0,0,0,-1,1623,715,0,0
406,309,0,0,0,0,0,0,0,0,0,-1,1630,715,0,0
413,309,0,0,0,0,0,0,0,0,0,-1,1637,715,0,0
420,309,0,0,0,0,0,0,0,0,0,-1,1644,715,0,0
427,309,0,0,0,0,0,0,0,0,0,-1,1651,715,0,0
434,309,0,0,0,0,0,0,0,0,0,-1,1658,715,0,0
441,309,0,0,0,0,0,0,0,0,0,-1,1665,715,0,0
448,309,0,0,0,0,0,0,0,0,0,-1,1672,715,0,0
455,309,0,0,0,0,0,0,0,0,0,-1,1679,715,0,0
462,309,0,0,0,0,0,0,0,0,0,-1,1686,715,0,0
469,309,0,0,0,0,0,0,0,0,0,-1,1693,715,0,0
476,309,0,0,0,0,0,0,0,0,0,-1,1700,715,0,0
483,309,0,0,0,0,0,0,0,0,0,-1,1707,715,0,0
490,309,0,0,0,0,0,0,0,0,0,-1,1714,715,0,0
497,309,0,0,0,0,0,0,0,0,0,-1,1721,715,0,0
504,309,0,0,0,0,0,0,0,0,0,-1,1728,715,0,0
511,309,0,0,0,0,0,0,0,0,0,-1,1735,715,0,0
518,309,0,0,0,0,0,0,0,0,0,-1,1742,715,0,0
525,309,0,0,0,0,0,0,0,0,0,-1,1749,715,0,0
532,309,0,0,0,0,0,0,0,0,0,-1,1756,715,0,0
539,309,37.3879,2.08527,0,0,0,0,0,0,0,-1,1763,715,37.3879,-2.08529
546,309,37.6042,2.198,0,0,0,0,0,0,0,-1,1770,715,37.6043,-2.19803
553,309,36.5366,0.485413,0,0,0,0,0,0,0,-1,1777,715,36.5366,-0.485426
560,309,37.4066,1.09186,0,0,0,0,0,0,0,-1,1784,715,37.4066,-1.09187
567,309,38.2872,1.72437,0,0,0,0,0,0,0,-1,1791,715,38.2872,-1.72434
574,309,39.0372,2.01044,0,0,0,0,0,0,0,-1,1798,715,39.0372,-2.01045
581,309,39.9871,2.35028,0,0,0,0,0,0,0,-1,1805,715,39.9871,-2.3503
588,309,26.2064,7.76422,0,0,0,0,0,0,0,-1,1812,715,26.2064,-7.7642
595,309,19.585,3.71558,0,0,0,0,0,0,0,-1,1819,715,19.5849,-3.71555
602,309,11.0811,3.47772,0,0,0,0,0,0,0,-1,1826,715,11.0811,-3.47772
609,309,23.1809,-4.18488,0,0,0,0,0,0,0,-1,1833,715,23.1809,4.18485
616,309,23.3057,-3.5694,0.0100063,0.00347697,-0.00406863,0.0119581,0.00152514,-0.447299,0.00751545,0.0294958,1840,715,23.3056,3.56938
623,309,23.3782,-3.00739,0.0073365,0.00121853,-0.00185342,0.00785419,0.000700852,-0.27237,0.00501884,0.0109431,1847,715,23.3782,3.00738
630,309,23.3556,-2.53491,0.00507222,-0.000103277,-0.000392544,0.00510182,-0.000132882,-0.0752728,0.00344636,0.0104685,1854,715,23.3556,2.53491
637,309,23.3385,-2.03644,0.00282344,-0.000436205,0.000344995,0.00285955,-0.000472318,0.104299,0.00208174,0.0134042,1861,715,23.3385,2.03644
644,309,23.297,-1.52502,0.000855999,-0.000359041,0.000444557,0.00100128,-0.000504323,0.315861,0.000884905,0.0150538,1868,715,23.297,1.525
651,309,23.2941,-1.02386,-0.00032482,-0.000367592,-7.13831e-05,-0.000271688,-0.000420724,-0.639855,0.000246322,0.0146222,1875,715,23.2941,1.02386
658,309,23.3254,-0.536926,-0.00162254,-0.000382019,-0.000603595,-0.000136802,-0.00186775,-1.1849,0.00120217,0.0202764,1882,715,23.3254,0.53691
665,309,23.3175,-0.0484619,-0.00308648,-0.000469918,-0.00115215,-3.49099e-05,-0.00352149,-1.20978,0.00233611,0.0169389,1889,715,23.3175,0.0484865
672,309,23.2723,0.440552,-0.00473855,-0.000558589,-0.00173565,6.81363e-05,-0.00536527,-1.22428,0.00359978,0.0150845,1896,715,23.2723,-0.440543
679,309,23.2886,0.954712,-0.00662227,-0.000661678,-0.00238213,0.000173353,-0.0074573,-1.23364,0.00503032,0.0172591,1903,715,23.2886,-0.954689
686,309,23.1636,1.53912,-0.00872174,-0.000850144,-0.00307214,0.000206911,-0.00977879,-1.23941,0.00658925,0.0293947,1910,715,23.1636,-1.5391
693,309,22.684,1.87714,0,0,0,0,0,0,0,-1,1917,715,22.684,-1.87712
700,309,22.1288,2.6806,0,0,0,0,0,0,0,-1,1924,715,22.1288,-2.68063
707,309,15.6318,4.58655,0,0,0,0,0,0,0,-1,1931,715,15.6318,-4.58657
714,309,16.7573,6.68286,0,0,0,0,0,0,0,-1,1938,715,16.7574,-6.68284
721,309,16.8337,5.4458,0,0,0,0,0,0,0,-1,1945,715,16.8338,-5.44582
728,309,0,0,0,0,0,0,0,0,0,-1,1952,715,0,0
735,309,0,0,0,0,0,0,0,0,0,-1,1959,715,0,0
742,309,0,0,0,0,0,0,0,0,0,-1,1966,715,0,0
749,309,0,0,0,0,0,0,0,0,0,-1,1973,715,0,0
756,309,0,0,0,0,0,0,0,0,0,-1,1980,715,0,0
763,309,0,0,0,0,0,0,0,0,0,-1,1987,715,0,0
770,309,0,0,0,0,0,0,0,0,0,-1,1994,715,0,0
777,309,0,0,0,0,0,0,0,0,0,-1,2001,715,0,0
784,309,0,0,0,0,0,0,0,0,0,-1,2008,715,0,0
791,309,0,0,0,0,0,0,0,0,0,-1,2015,715,0,0
798,309,0,0,0,0,0,0,0,0,0,-1,2022,715,0,0
805,309,0,0,0,0,0,0,0,0,0,-1,2029,715,0,0
812,309,0,0,0,0,0,0,0,0,0,-1,2036,715,0,0
-700,302,0,0,0,0,0,0,0,0,0,-1,524,722,0,0
-693,302,0,0,0,0,0,0,0,0,0,-1,531,722,0,0
-686,302,0,0,0,0,0,0,0,0,0,-1,538,722,0,0
-679,302,0,0,0,0,0,0,0,0,0,-1,545,722,0,0
-672,302,0,0,0,0,0,0,0,0,0,-1,552,722,0,0
-665,302,0,0,0,0,0,0,0,0,0,-1,559,722,0,0
-658,302,0,0,0,0,0,0,0,0,0,-1,566,722,0,0
-651,302,0,0,0,0,0,0,0,0,0,-1,573,722,0,0
-644,302,0,0,0,0,0,0,0,0,0,-1,580,722,0,0
-637,302,0,0,0,0,0,0,0,0,0,-1,587,722,0,0
-630,302,0,0,0,0,0,0,0,0,0,-1,594,722,0,0
-623,302,0,0,0,0,0,0,0,0,0,-1,601,722,0,0
-616,302,0,0,0,0,0,0,0,0,0,-1,608,722,0,0
-609,302,-7.79266,-3.71649,0,0,0,0,0,0,0,-1,615,722,-7.79267,3.7165
-602,302,0.92865,-1.99158,0,0,0,0,0,0,0,-1,622,722,0.928637,1.99157
-595,302,-7.89941,2.13641,0,0,0,0,0,0,0,-1,629,722,-7.89939,-2.13639
-588,302,-7.10895,1.79163,0,0,0,0,0,0,0,-1,636,722,-7.10896,-1.79163
-581,302,-9.17566,1.09448,0,0,0,0,0,0,0,-1,643,722,-9.17569,-1.09445
-574,302,-11.5183,-0.344543,0,0,0,0,0,0,0,-1,650,722,-11.5183,0.344557
-567,302,-12.1534,-0.672241,0,0,0,0,0,0,0,-1,657,722,-12.1535,0.672246
-560,302,-14.8052,-0.628235,0,0,0,0,0,0,0,-1,664,722,-14.8052,0.628255
-553,302,-14.7572,-1.07495,0.000386325,0.00857831,-0.00198811,0.00903531,-7.06734e-05,-1.34486,0.00604724,0.0217213,671,722,-14.7572,1.07494
-546,302,-14.7699,-1.56409,0.000398964,0.00657949,-0.00157284,0.00695673,2.17296e-05,-1.3354,0.00463059,0.0162958,678,722,-14.7699,1.56406
-539,302,-14.7588,-2.00867,0.000429999,0.00478094,-0.00113814,0.00506068,0.000150265,-1.32979,0.00332483,0.0149387,685,722,-14.7588,2.00867
-532,302,-14.7487,-2.48303,0.000381072,0.00305118,-0.000687124,0.00321763,0.000214624,-1.33314,0.00207724,0.0135565,692,722,-14.7487,2.48303
-525,302,-14.7515,-2.99969,0.00038814,0.00151971,-0.000192275,0.00155148,0.000356362,-1.407,0.000938369,0.0181628,699,722,-14.7515,2.99969
-518,302,-14.7808,-3.43683,0.000474157,0.000210074,0.000232677,0.000609648,7.45831e-05,0.527313,0.000383993,0.0197532,706,722,-14.7807,3.43681
-511,302,-14.796,-3.86011,0.000564182,-0.000953017,0.000615706,0.000782602,-0.00117144,0.340898,0.00113559,0.0112874,713,722,-14.796,3.86012
-504,302,-14.8239,-4.34082,0.000675864,-0.00194053,0.000981633,0.0010032,-0.00226787,0.321869,0.00193504,0.0101081,720,722,-14.8239,4.34081
-497,302,-14.8599,-4.80383,0.000786785,-0.00284024,0.00140533,0.00126756,-0.00332102,0.32963,0.00273622,0.014828,727,722,-14.8599,4.80381
-490,302,-14.7123,-5.21405,0,0,0,0,0,0,0,-1,734,722,-14.7123,5.21404
-483,302,-9.53412,-3.1673,0,0,0,0,0,0,0,-1,741,722,-9.53411,3.1673
-476,302,-4.29749,-0.203491,0,0,0,0,0,0,0,-1,748,722,-4.29751,0.203464
-469,302,-12.369,1.42859,0,0,0,0,0,0,0,-1,755,722,-12.3689,-1.42857
-462,302,-17.4766,0.310791,0,0,0,0,0,0,0,-1,762,722,-17.4766,-0.310788
-455,302,-28.6006,-0.598206,0,0,0,0,0,0,0,-1,769,722,-28.6006,0.598234
-448,302,-27.9093,-0.356506,0,0,0,0,0,0,0,-1,776,722,-27.9093,0.356493
-441,302,-27.6344,0.371826,0,0,0,0,0,0,0,-1,783,722,-27.6344,-0.371825
-434,302,-27.6,1.27759,0,0,0,0,0,0,0,-1,790,722,-27.6,-1.27759
-427,302,-27.1735,1.81506,0,0,0,0,0,0,0,-1,797,722,-27.1735,-1.81504
-420,302,0,0,0,0,0,0,0,0,0,-1,804,722,0,0
-413,302,0,0,0,0,0,0,0,0,0,-1,811,722,0,0
-406,302,0,0,0,0,0,0,0,0,0,-1,818,722,0,0
-399,302,0,0,0,0,0,0,0,0,0,-1,825,722,0,0
-392,302,0,0,0,0,0,0,0,0,0,-1,832,722,0,0
-385,302,0,0,0,0,0,0,0,0,0,-1,839,722,0,0
-378,302,0,0,0,0,0,0,0,0,0,-1,846,722,0,0
-371,302,0,0,0,0,0,0,0,0,0,-1,853,722,0,0
-364,302,0,0,0,0,0,0,0,0,0,-1,860,722,0,0
-357,302,0,0,0,0,0,0,0,0,0,-1,867,722,0,0
-350,302,0,0,0,0,0,0,0,0,0,-1,874,722,0,0
-343,302,0,0,0,0,0,0,0,0,0,-1,881,722,0,0
-336,302,0,0,0,0,0,0,0,0,0,-1,888,722,0,0
-329,302,0,0,0,0,0,0,0,0,0,-1,895,722,0,0
-322,302,0,0,0,0,0,0,0,0,0,-1,902,722,0,0
-315,302,0,0,0,0,0,0,0,0,0,-1,909,722,0,0
-308,302,0,0,0,0,0,0,0,0,0,-1,916,722,0,0
-301,302,0,0,0,0,0,0,0,0,0,-1,923,722,0,0
-294,302,0,0,0,0,0,0,0,0,0,-1,930,722,0,0
-287,302,0,0,0,0,0,0,0,0,0,-1,937,722,0,0
-280,302,0,0,0,0,0,0,0,0,0,-1,944,722,0,0
-273,302,0,0,0,0,0,0,0,0,0,-1,951,722,0,0
-266,302,0,0,0,0,0,0,0,0,0,-1,958,722,0,0
-259,302,0,0,0,0,0,0,0,0,0,-1,965,722,0,0
-252,302,0,0,0,0,0,0,0,0,0,-1,972,722,0,0
-245,302,0,0,0,0,0,0,0,0,0,-1,979,722,0,0
-238,302,0,0,0,0,0,0,0,0,0,-1,986,722,0,0
-231,302,0,0,0,0,0,0,0,0,0,-1,993,722,0,0
-224,302,0,0,0,0,0,0,0,0,0,-1,1000,722,0,0
-217,302,0,0,0,0,0,0,0,0,0,-1,1007,722,0,0
-210,302,0,0,0,0,0,0,0,0,0,-1,1014,722,0,0
-203,302,0,0,0,0,0,0,0,0,0,-1,1021,722,0,0
-196,302,0,0,0,0,0,0,0,0,0,-1,1028,722,0,0
-189,302,0,0,0,0,0,0,0,0,0,-1,1035,722,0,0
-182,302,0,0,0,0,0,0,0,0,0,-1,1042,722,0,0
-175,302,0,0,0,0,0,0,0,0,0,-1,1049,722,0,0
-168,302,0,0,0,0,0,0,0,0,0,-1,1056,722,0,0
-161,302,0,0,0,0,0,0,0,0,0,-1,1063,722,0,0
-154,302,0,0,0,0,0,0,0,0,0,-1,1070,722,0,0
-147,302,0,0,0,0,0,0,0,0,0,-1,1077,722,0,0
-140,302,0,0,0,0,0,0,0,0,0,-1,1084,722,0,0
-133,302,0,0,0,0,0,0,0,0,0,-1,1091,722,0,0
-126,302,0,0,0,0,0,0,0,0,0,-1,1098,722,0,0
-119,302,0,0,0,0,0,0,0,0,0,-1,1105,722,0,0
-112,302,0,0,0,0,0,0,0,0,0,-1,1112,722,0,0
-105,302,0,0,0,0,0,0,0,0,0,-1,1119,722,0,0
-98,302,0,0,0,0,0,0,0,0,0,-1,1126,722,0,0
-91,302,0,0,0,0,0,0,0,0,0,-1,1133,722,0,0
-84,302,0,0,0,0,0,0,0,0,0,-1,1140,722,0,0
-77,302,0,0,0,0,0,0,0,0,0,-1,1147,722,0,0
-70,302,0,0,0,0,0,0,0,0,0,-1,1154,722,0,0
-63,302,0,0,0,0,0,0,0,0,0,-1,1161,722,0,0
-56,302,0,0,0,0,0,0,0,0,0,-1,1168,722,0,0
-49,302,0,0,0,0,0,0,0,0,0,-1,1175,722,0,0
-42,302,0,0,0,0,0,0,0,0,0,-1,1182,722,0,0
-35,302,0,0,0,0,0,0,0,0,0,-1,1189,722,0,0
-28,302,0,0,0,0,0,0,0,0,0,-1,1196,722,0,0
-21,302,0,0,0,0,0,0,0,0,0,-1,1203,722,0,0
-14,302,0,0,0,0,0,0,0,0,0,-1,1210,722,0,0
-7,302,0,0,0,0,0,0,0,0,0,-1,1217,722,0,0
0,302,0,0,0,0,0,0,0,0,0,-1,1224,722,0,0
7,302,0,0,0,0,0,0,0,0,0,-1,1231,722,0,0
14,302,0,0,0,0,0,0,0,0,0,-1,1238,722,0,0
21,302,0,0,0,0,0,0,0,0,0,-1,1245,722,0,0
28,302,0,0,0,0,0,0,0,0,0,-1,1252,722,0,0
35,302,0,0,0,0,0,0,0,0,0,-1,1259,722,0,0
42,302,0,0,0,0,0,0,0,0,0,-1,1266,722,0,0
49,302,0,0,0,0,0,0,0,0,0,-1,1273,722,0,0
56,302,0,0,0,0,0,0,0,0,0,-1,1280,722,0,0
63,302,0,0,0,0,0,0,0,0,0,-1,1287,722,0,0
70,302,0,0,0,0,0,0,0,0,0,-1,1294,722,0,0
77,302,0,0,0,0,0,0,0,0,0,-1,1301,722,0,0
84,302,0,0,0,0,0,0,0,0,0,-1,1308,722,0,0
91,302,0,0,0,0,0,0,0,0,0,-1,1315,722,0,0
98,302,0,0,0,0,0,0,0,0,0,-1,1322,722,0,0
105,302,0,0,0,0,0,0,0,0,0,-1,1329,722,0,0
112,302,0,0,0,0,0,0,0,0,0,-1,1336,722,0,0
119,302,0,0,0,0,0,0,0,0,0,-1,1343,722,0,0
126,302,0,0,0,0,0,0,0,0,0,-1,1350,722,0,0
133,302,0,0,0,0,0,0,0,0,0,-1,1357,722,0,0
140,302,0,0,0,0,0,0,0,0,0,-1,1364,722,0,0
147,302,0,0,0,0,0,0,0,0,0,-1,1371,722,0,0
154,302,0,0,0,0,0,0,0,0,0,-1,1378,722,0,0
161,302,0,0,0,0,0,0,0,0,0,-1,1385,722,0,0
168,302,0,0,0,0,0,0,0,0,0,-1,1392,722,0,0
175,302,0,0,0,0,0,0,0,0,0,-1,1399,722,0,0
182,302,0,0,0,0,0,0,0,0,0,-1,1406,722,0,0
189,302,0,0,0,0,0,0,0,0,0,-1,1413,722,0,0
196,302,0,0,0,0,0,0,0,0,0,-1,1420,722,0,0
203,302,0,0,0,0,0,0,0,0,0,-1,1427,722,0,0
210,302,0,0,0,0,0,0,0,0,0,-1,1434,722,0,0
217,302,0,0,0,0,0,0,0,0,0,-1,1441,722,0,0
224,302,0,0,0,0,0,0,0,0,0,-1,1448,722,0,0
231,302,0,0,0,0,0,0,0,0,0,-1,1455,722,0,0
238,302,0,0,0,0,0,0,0,0,0,-1,1462,722,0,0
245,302,0,0,0,0,0,0,0,0,0,-1,1469,722,0,0
252,302,0,0,0,0,0,0,0,0,0,-1,1476,722,0,0
259,302,0,0,0,0,0,0,0,0,0,-1,1483,722,0,0
266,302,0,0,0,0,0,0,0,0,0,-1,1490,722,0,0
273,302,0,0,0,0,0,0,0,0,0,-1,1497,722,0,0
280,302,0,0,0,0,0,0,0,0,0,-1,1504,722,0,0
287,302,0,0,0,0,0,0,0,0,0,-1,1511,722,0,0
294,302,0,0,0,0,0,0,0,0,0,-1,1518,722,0,0
301,302,0,0,0,0,0,0,0,0,0,-1,1525,722,0,0
308,302,0,0,0,0,0,0,0,0,0,-1,1532,722,0,0
315,302,0,0,0,0,0,0,0,0,0,-1,1539,722,0,0
322,302,0,0,0,0,0,0,0,0,0,-1,1546,722,0,0
329,302,0,0,0,0,0,0,0,0,0,-1,1553,722,0,0
336,302,0,0,0,0,0,0,0,0,0,-1,1560,722,0,0
343,302,0,0,0,0,0,0,0,0,0,-1,1567,722,0,0
350,302,0,0,0,0,0,0,0,0,0,-1,1574,722,0,0
357,302,0,0,0,0,0,0,0,0,0,-1,1581,722,0,0
364,302,0,0,0,0,0,0,0,0,0,-1,1588,722,0,0
371,302,0,0,0,0,0,0,0,0,0,-1,1595,722,0,0
378,302,0,0,0,0,0,0,0,0,0,-1,1602,722,0,0
385,302,0,0,0,0,0,0,0,0,0,-1,1609,722,0,0
392,302,0,0,0,0,0,0,0,0,0,-1,1616,722,0,0
399,302,0,0,0,0,0,0,0,0,0,-1,1623,722,0,0
406,302,0,0,0,0,0,0,0,0,0,-1,1630,722,0,0
413,302,0,0,0,0,0,0,0,0,0,-1,1637,722,0,0
420,302,0,0,0,0,0,0,0,0,0,-1,1644,722,0,0
427,302,0,0,0,0,0,0,0,0,0,-1,1651,722,0,0
434,302,0,0,0,0,0,0,0,0,0,-1,1658,722,0,0
441,302,0,0,0,0,0,0,0,0,0,-1,1665,722,0,0
448,302,0,0,0,0,0,0,0,0,0,-1,1672,722,0,0
455,302,0,0,0,0,0,0,0,0,0,-1,1679,722,0,0
462,302,0,0,0,0,0,0,0,0,0,-1,1686,722,0,0
469,302,0,0,0,0,0,0,0,0,0,-1,1693,722,0,0
476,302,0,0,0,0,0,0,0,0,0,-1,1700,722,0,0
483,302,0,0,0,0,0,0,0,0,0,-1,1707,722,0,0
490,302,0,0,0,0,0,0,0,0,0,-1,1714,722,0,0
497,302,0,0,0,0,0,0,0,0,0,-1,1721,722,0,0
504,302,0,0,0,0,0,0,0,0,0,-1,1728,722,0,0
511,302,0,0,0,0,0,0,0,0,0,-1,1735,722,0,0
518,302,0,0,0,0,0,0,0,0,0,-1,1742,722,0,0
525,302,0,0,0,0,0,0,0,0,0,-1,1749,722,0,0
532,302,0,0,0,0,0,0,0,0,0,-1,1756,722,0,0
539,302,0,0,0,0,0,0,0,0,0,-1,1763,722,0,0
546,302,37.3187,2.44489,0,0,0,0,0,0,0,-1,1770,722,37.3187,-2.4449
553,302,35.6943,0.126709,0,0,0,0,0,0,0,-1,1777,722,35.6944,-0.126737
560,302,36.204,0.8797,0,0,0,0,0,0,0,-1,1784,722,36.204,-0.879678
567,302,36.9598,1.35815,0,0,0,0,0,0,0,-1,1791,722,36.9598,-1.35817
574,302,37.9297,1.69781,0,0,0,0,0,0,0,-1,1798,722,37.9297,-1.69781
581,302,38.2401,2.2843,0,0,0,0,0,0,0,-1,1805,722,38.2402,-2.28431
588,302,26.9731,7.19983,0,0,0,0,0,0,0,-1,1812,722,26.9732,-7.19981
595,302,27.3826,8.13104,0,0,0,0,0,0,0,-1,1819,722,27.3825,-8.13102
602,302,14.7349,5.21246,0,0,0,0,0,0,0,-1,1826,722,14.7349,-5.21247
609,302,11.1578,-0.125854,0,0,0,0,0,0,0,-1,1833,722,11.1579,0.125839
616,302,23.7449,-3.59863,0,0,0,0,0,0,0,-1,1840,722,23.7449,3.59861
623,302,23.8638,-2.99158,0.00764163,0.000959688,-0.00261668,0.00854437,5.69467e-05,-0.332209,0.00567736,0.0154164,1847,722,23.8638,2.99155
630,302,23.8287,-2.50232,0.00551393,-0.00058119,-0.00096367,0.00566266,-0.000729922,-0.153131,0.00404045,0.0116224,1854,722,23.8288,2.50232
637,302,23.7986,-2.00348,0.00312531,-0.000905044,0.000128784,0.00312943,-0.000909155,0.0319102,0.00244631,0.0148243,1861,722,23.7985,2.00348
644,302,23.7822,-1.50348,0.000981124,-0.000593443,0.000571494,0.00116668,-0.000779001,0.313951,0.00113075,0.0164788,1868,722,23.7822,1.50349
651,302,23.7832,-0.992188,5.43383e-05,-0.000419923,0.000139722,9.24407e-05,-0.000458026,0.266228,0.000340374,0.0163609,1875,722,23.7832,0.992198
658,302,23.827,-0.523376,-0.000980349,-0.000219139,-0.000301324,-0.0001143,-0.00108519,-1.23597,0.000688529,0.0159907,1882,722,23.8271,0.523391
665,302,23.7933,-0.0435181,-0.00224679,-0.000157232,-0.000748576,8.32622e-05,-0.00248729,-1.25994,0.00168663,0.0136697,1889,722,23.7933,0.0435431
672,302,23.7604,0.425537,-0.00357527,-7.48957e-05,-0.00120733,0.000301133,-0.0039513,-1.26886,0.0027401,0.0113385,1896,722,23.7604,-0.425516
679,302,23.7513,0.934204,-0.00484242,1.93892e-05,-0.00161949,0.000509453,-0.00533248,-1.27695,0.0037364,0.00967328,1903,722,23.7513,-0.93421
686,302,23.764,1.45721,-0.00615038,8.99116e-05,-0.00204391,0.000699765,-0.00676023,-1.28083,0.00475726,0.0177671,1910,722,23.7641,-1.45719
693,302,23.4159,1.84839,-0.00733135,6.88433e-05,-0.00250485,0.000836964,-0.00809947,-1.27325,0.00569916,0.0471589,1917,722,23.4159,-1.84839
700,302,23.3639,2.11273,0,0,0,0,0,0,0,-1,1924,722,23.3639,-2.11276
707,302,16.7321,4.76685,0,0,0,0,0,0,0,-1,1931,722,16.7321,-4.76687
714,302,17.2,5.77594,0,0,0,0,0,0,0,-1,1938,722,17.2,-5.77595
721,302,17.7914,6.60394,0,0,0,0,0,0,0,-1,1945,722,17.7914,-6.60395
728,302,17.2798,4.81702,0,0,0,0,0,0,0,-1,1952,722,17.2798,-4.81703
735,302,0,0,0,0,0,0,0,0,0,-1,1959,722,0,0
742,302,0,0,0,0,0,0,0,0,0,-1,1966,722,0,0
749,302,0,0,0,0,0,0,0,0,0,-1,1973,722,0,0
756,302,0,0,0,0,0,0,0,0,0,-1,1980,722,0,0
763,302,0,0,0,0,0,0,0,0,0,-1,1987,722,0,0
770,302,0,0,0,0,0,0,0,0,0,-1,1994,722,0,0
777,302,0,0,0,0,0,0,0,0,0,-1,2001,722,0,0
784,302,0,0,0,0,0,0,0,0,0,-1,2008,722,0,0
791,302,0,0,0,0,0,0,0,0,0,-1,2015,722,0,0
798,302,0,0,0,0,0,0,0,0,0,-1,2022,722,0,0
805,302,0,0,0,0,0,0,0,0,0,-1,2029,722,0,0
812,302,0,0,0,0,0,0,0,0,0,-1,2036,722,0,0
-700,295,0,0,0,0,0,0,0,0,0,-1,524,729,0,0
-693,295,0,0,0,0,0,0,0,0,0,-1,531,729,0,0
-686,295,0,0,0,0,0,0,0,0,0,-1,538,729,0,0
-679,295,0,0,0,0,0,0,0,0,0,-1,545,729,0,0
-672,295,0,0,0,0,0,0,0,0,0,-1,552,729,0,0
-665,295,0,0,0,0,0,0,0,0,0,-1,559,729,0,0
-658,295,0,0,0,0,0,0,0,0,0,-1,566,729,0,0
-651,295,0,0,0,0,0,0,0,0,0,-1,573,729,0,0
-644,295,0,0,0,0,0,0,0,0,0,-1,580,729,0,0
-637,295,0,0,0,0,0,0,0,0,0,-1,587,729,0,0
-630,295,0,0,0,0,0,0,0,0,0,-1,594,729,0,0
-623,295,0,0,0,0,0,0,0,0,0,-1,601,729,0,0
-616,295,-13.4911,1.31738,0,0,0,0,0,0,0,-1,608,729,-13.4911,-1.3174
-609,295,-10.2864,0.832031,0,0,0,0,0,0,0,-1,615,729,-10.2863,-0.832034
-602,295,-8.19006,3.01587,0,0,0,0,0,0,0,-1,622,729,-8.19005,-3.01588
-595,295,-0.615479,-1.95447,0,0,0,0,0,0,0,-1,629,729,-0.615481,1.95445
-588,295,-7.98999,1.56903,0,0,0,0,0,0,0,-1,636,729,-7.98997,-1.56905
-581,295,-12.0404,0.150574,0,0,0,0,0,0,0,-1,643,729,-12.0404,-0.150604
-574,295,-12.1605,-0.0739746,0,0,0,0,0,0,0,-1,650,729,-12.1605,0.0739856
-567,295,-15.0087,-0.0557251,0,0,0,0,0,0,0,-1,657,729,-15.0086,0.0557521
-560,295,-15.1653,-0.652405,0.000440234,0.00740419,-0.00118641,0.00760076,0.000243661,-1.4066,0.00498794,0.0320573,664,729,-15.1653,0.652406
-553,295,-15.183,-1.13586,0.00032726,0.00593389,-0.000977166,0.00609932,0.000161833,-1.40309,0.00401335,0.0183603,671,729,-15.183,1.13584
-546,295,-15.2406,-1.56171,0.000241783,0.00447474,-0.000703109,0.00458847,0.00012805,-1.41043,0.0030172,0.022199,678,729,-15.2406,1.56169
-539,295,-15.2313,-1.97327,0.000188242,0.00312208,-0.00039206,0.00317357,0.000136753,-1.44021,0.00207163,0.019028,685,729,-15.2313,1.97324
-532,295,-15.2303,-2.46106,9.89863e-05,0.00172038,-5.5583e-05,0.00172229,9.70831e-05,-1.53657,0.00111724,0.0149568,692,729,-15.2304,2.46107
-525,295,-15.2313,-2.95966,0.000103839,0.00043895,0.000346867,0.000656611,-0.000113822,1.0104,0.000480199,0.0139988,699,729,-15.2314,2.95963
-518,295,-15.251,-3.39124,0.000188043,-0.000707743,0.00072054,0.000588552,-0.00110825,0.50732,0.000994849,0.0108165,706,729,-15.251,3.39122
-511,295,-15.2545,-3.83179,0.000246551,-0.00179762,0.00111245,0.000735163,-0.00228623,0.413854,0.00181941,0.00967684,713,729,-15.2545,3.83177
-504,295,-15.2786,-4.31042,0.000337383,-0.00278313,0.00151707,0.000953343,-0.00339909,0.385683,0.00264181,0.0109749,720,729,-15.2786,4.31041
-497,295,-15.3396,-4.73169,0.000405622,-0.00382611,0.00208125,0.00125767,-0.00467816,0.388576,0.00361174,0.0208835,727,729,-15.3396,4.73168
-490,295,-15.3958,-5.1239,0,0,0,0,0,0,0,-1,734,729,-15.3958,5.12392
-483,295,-6.84503,-0.454651,0,0,0,0,0,0,0,-1,741,729,-6.84505,0.454639
-476,295,-13.1738,-0.836243,0,0,0,0,0,0,0,-1,748,729,-13.1738,0.836223
-469,295,-24.4053,-1.35907,0,0,0,0,0,0,0,-1,755,729,-24.4053,1.35906
-462,295,-29.4058,-0.404785,0,0,0,0,0,0,0,-1,762,729,-29.4058,0.404798
-455,295,-28.7539,-0.198608,0,0,0,0,0,0,0,-1,769,729,-28.7539,0.198608
-448,295,-28.0727,0.0231323,0,0,0,0,0,0,0,-1,776,729,-28.0727,-0.02311
-441,295,-27.2322,0.948608,0,0,0,0,0,0,0,-1,783,729,-27.2323,-0.948608
-434,295,-26.6473,1.64215,0,0,0,0,0,0,0,-1,790,729,-26.6473,-1.64213
-427,295,0,0,0,0,0,0,0,0,0,-1,797,729,0,0
-420,295,0,0,0,0,0,0,0,0,0,-1,804,729,0,0
-413,295,0,0,0,0,0,0,0,0,0,-1,811,729,0,0
-406,295,0,0,0,0,0,0,0,0,0,-1,818,729,0,0
-399,295,0,0,0,0,0,0,0,0,0,-1,825,729,0,0
-392,295,0,0,0,0,0,0,0,0,0,-1,832,729,0,0
-385,295,0,0,0,0,0,0,0,0,0,-1,839,729,0,0
-378,295,0,0,0,0,0,0,0,0,0,-1,846,729,0,0
-371,295,0,0,0,0,0,0,0,0,0,-1,853,729,0,0
-364,295,0,0,0,0,0,0,0,0,0,-1,860,729,0,0
-357,295,0,0,0,0,0,0,0,0,0,-1,867,729,0,0
-350,295,0,0,0,0,0,0,0,0,0,-1,874,729,0,0
-343,295,0,0,0,0,0,0,0,0,0,-1,881,729,0,0
-336,295,0,0,0,0,0,0,0,0,0,-1,888,729,0,0
-329,295,0,0,0,0,0,0,0,0,0,-1,895,729,0,0
-322,295,0,0,0,0,0,0,0,0,0,-1,902,729,0,0
-315,295,0,0,0,0,0,0,0,0,0,-1,909,729,0,0
-308,295,0,0,0,0,0,0,0,0,0,-1,916,729,0,0
-301,295,0,0,0,0,0,0,0,0,0,-1,923,729,0,0
-294,295,0,0,0,0,0,0,0,0,0,-1,930,729,0,0
-287,295,0,0,0,0,0,0,0,0,0,-1,937,729,0,0
-280,295,0,0,0,0,0,0,0,0,0,-1,944,729,0,0
-273,295,0,0,0,0,0,0,0,0,0,-1,951,729,0,0
-266,295,0,0,0,0,0,0,0,0,0,-1,958,729,0,0
-259,295,0,0,0,0,0,0,0,0,0,-1,965,729,0,0
-252,295,0,0,0,0,0,0,0,0,0,-1,972,729,0,0
-245,295,0,0,0,0,0,0,0,0,0,-1,979,729,0,0
-238,295,0,0,0,0,0,0,0,0,0,-1,986,729,0,0
-231,295,0,0,0,0,0,0,0,0,0,-1,993,729,0,0
-224,295,0,0,0,0,0,0,0,0,0,-1,1000,729,0,0
-217,295,0,0,0,0,0,0,0,0,0,-1,1007,729,0,0
-210,295,0,0,0,0,0,0,0,0,0,-1,1014,729,0,0
-203,295,0,0,0,0,0,0,0,0,0,-1,1021,729,0,0
-196,295,0,0,0,0,0,0,0,0,0,-1,1028,729,0,0
-189,295,0,0,0,0,0,0,0,0,0,-1,1035,729,0,0
-182,295,0,0,0,0,0,0,0,0,0,-1,1042,729,0,0
-175,295,0,0,0,0,0,0,0,0,0,-1,1049,729,0,0
-168,295,0,0,0,0,0,0,0,0,0,-1,1056,729,0,0
-161,295,0,0,0,0,0,0,0,0,0,-1,1063,729,0,0
-154,295,0,0,0,0,0,0,0,0,0,-1,1070,729,0,0
-147,295,0,0,0,0,0,0,0,0,0,-1,1077,729,0,0
-140,295,0,0,0,0,0,0,0,0,0,-1,1084,729,0,0
-133,295,0,0,0,0,0,0,0,0,0,-1,1091,729,0,0
-126,295,0,0,0,0,0,0,0,0,0,-1,1098,729,0,0
-119,295,0,0,0,0,0,0,0,0,0,-1,1105,729,0,0
-112,295,0,0,0,0,0,0,0,0,0,-1,1112,729,0,0
-105,295,0,0,0,0,0,0,0,0,0,-1,1119,729,0,0
-98,295,0,0,0,0,0,0,0,0,0,-1,1126,729,0,0
-91,295,0,0,0,0,0,0,0,0,0,-1,1133,729,0,0
-84,295,0,0,0,0,0,0,0,0,0,-1,1140,729,0,0
-77,295,0,0,0,0,0,0,0,0,0,-1,1147,729,0,0
-70,295,0,0,0,0,0,0,0,0,0,-1,1154,729,0,0
-63,295,0,0,0,0,0,0,0,0,0,-1,1161,729,0,0
-56,295,0,0,0,0,0,0,0,0,0,-1,1168,729,0,0
-49,295,0,0,0,0,0,0,0,0,0,-1,1175,729,0,0
-42,295,0,0,0,0,0,0,0,0,0,-1,1182,729,0,0
-35,295,0,0,0,0,0,0,0,0,0,-1,1189,729,0,0
-28,295,0,0,0,0,0,0,0,0,0,-1,1196,729,0,0
-21,295,0,0,0,0,0,0,0,0,0,-1,1203,729,0,0
-14,295,0,0,0,0,0,0,0,0,0,-1,1210,729,0,0
-7,295,0,0,0,0,0,0,0,0,0,-1,1217,729,0,0
0,295,0,0,0,0,0,0,0,0,0,-1,1224,729,0,0
7,295,0,0,0,0,0,0,0,0,0,-1,1231,729,0,0
14,295,0,0,0,0,0,0,0,0,0,-1,1238,729,0,0
21,295,0,0,0,0,0,0,0,0,0,-1,1245,729,0,0
28,295,0,0,0,0,0,0,0,0,0,-1,1252,729,0,0
35,295,0,0,0,0,0,0,0,0,0,-1,1259,729,0,0
42,295,0,0,0,0,0,0,0,0,0,-1,1266,729,0,0
49,295,0,0,0,0,0,0,0,0,0,-1,1273,729,0,0
56,295,0,0,0,0,0,0,0,0,0,-1,1280,729,0,0
63,295,0,0,0,0,0,0,0,0,0,-1,1287,729,0,0
70,295,0,0,0,0,0,0,0,0,0,-1,1294,729,0,0
77,295,0,0,0,0,0,0,0,0,0,-1,1301,729,0,0
84,295,0,0,0,0,0,0,0,0,0,-1,1308,729,0,0
91,295,0,0,0,0,0,0,0,0,0,-1,1315,729,0,0
98,295,0,0,0,0,0,0,0,0,0,-1,1322,729,0,0
105,295,0,0,0,0,0,0,0,0,0,-1,1329,729,0,0
112,295,0,0,0,0,0,0,0,0,0,-1,1336,729,0,0
119,295,0,0,0,0,0,0,0,0,0,-1,1343,729,0,0
126,295,0,0,0,0,0,0,0,0,0,-1,1350,729,0,0
133,295,0,0,0,0,0,0,0,0,0,-1,1357,729,0,0
140,295,0,0,0,0,0,0,0,0,0,-1,1364,729,0,0
147,295,0,0,0,0,0,0,0,0,0,-1,1371,729,0,0
154,295,0,0,0,0,0,0,0,0,0,-1,1378,729,0,0
161,295,0,0,0,0,0,0,0,0,0,-1,1385,729,0,0
168,295,0,0,0,0,0,0,0,0,0,-1,1392,729,0,0
175,295,0,0,0,0,0,0,0,0,0,-1,1399,729,0,0
182,295,0,0,0,0,0,0,0,0,0,-1,1406,729,0,0
189,295,0,0,0,0,0,0,0,0,0,-1,1413,729,0,0
196,295,0,0,0,0,0,0,0,0,0,-1,1420,729,0,0
203,295,0,0,0,0,0,0,0,0,0,-1,1427,729,0,0
210,295,0,0,0,0,0,0,0,0,0,-1,1434,729,0,0
217,295,0,0,0,0,0,0,0,0,0,-1,1441,729,0,0
224,295,0,0,0,0,0,0,0,0,0,-1,1448,729,0,0
231,295,0,0,0,0,0,0,0,0,0,-1,1455,729,0,0
238,295,0,0,0,0,0,0,0,0,0,-1,1462,729,0,0
245,295,0,0,0,0,0,0,0,0,0,-1,1469,729,0,0
252,295,0,0,0,0,0,0,0,0,0,-1,1476,729,0,0
259,295,0,0,0,0,0,0,0,0,0,-1,1483,729,0,0
266,295,0,0,0,0,0,0,0,0,0,-1,1490,729,0,0
273,295,0,0,0,0,0,0,0,0,0,-1,1497,729,0,0
280,295,0,0,0,0,0,0,0,0,0,-1,1504,729,0,0
287,295,0,0,0,0,0,0,0,0,0,-1,1511,729,0,0
294,295,0,0,0,0,0,0,0,0,0,-1,1518,729,0,0
301,295,0,0,0,0,0,0,0,0,0,-1,1525,729,0,0
308,295,0,0,0,0,0,0,0,0,0,-1,1532,729,0,0
315,295,0,0,0,0,0,0,0,0,0,-1,1539,729,0,0
322,295,0,0,0,0,0,0,0,0,0,-1,1546,729,0,0
329,295,0,0,0,0,0,0,0,0,0,-1,1553,729,0,0
336,295,0,0,0,0,0,0,0,0,0,-1,1560,729,0,0
343,295,0,0,0,0,0,0,0,0,0,-1,1567,729,0,0
350,295,0,0,0,0,0,0,0,0,0,-1,1574,729,0,0
357,295,0,0,0,0,0,0,0,0,0,-1,1581,729,0,0
364,295,0,0,0,0,0,0,0,0,0,-1,1588,729,0,0
371,295,0,0,0,0,0,0,0,0,0,-1,1595,729,0,0
378,295,0,0,0,0,0,0,0,0,0,-1,1602,729,0,0
385,295,0,0,0,0,0,0,0,0,0,-1,1609,729,0,0
392,295,0,0,0,0,0,0,0,0,0,-1,1616,729,0,0
399,295,0,0,0,0,0,0,0,0,0,-1,1623,729,0,0
406,295,0,0,0,0,0,0,0,0,0,-1,1630,729,0,0
413,295,0,0,0,0,0,0,0,0,0,-1,1637,729,0,0
420,295,0,0,0,0,0,0,0,0,0,-1,1644,729,0,0
427,295,0,0,0,0,0,0,0,0,0,-1,1651,729,0,0
434,295,0,0,0,0,0,0,0,0,0,-1,1658,729,0,0
441,295,0,0,0,0,0,0,0,0,0,-1,1665,729,0,0
448,295,0,0,0,0,0,0,0,0,0,-1,1672,729,0,0
455,295,0,0,0,0,0,0,0,0,0,-1,1679,729,0,0
462,295,0,0,0,0,0,0,0,0,0,-1,1686,729,0,0
469,295,0,0,0,0,0,0,0,0,0,-1,1693,729,0,0
476,295,0,0,0,0,0,0,0,0,0,-1,1700,729,0,0
483,295,0,0,0,0,0,0,0,0,0,-1,1707,729,0,0
490,295,0,0,0,0,0,0,0,0,0,-1,1714,729,0,0
497,295,0,0,0,0,0,0,0,0,0,-1,1721,729,0,0
504,295,0,0,0,0,0,0,0,0,0,-1,1728,729,0,0
511,295,0,0,0,0,0,0,0,0,0,-1,1735,729,0,0
518,295,0,0,0,0,0,0,0,0,0,-1,1742,729,0,0
525,295,0,0,0,0,0,0,0,0,0,-1,1749,729,0,0
532,295,0,0,0,0,0,0,0,0,0,-1,1756,729,0,0
539,295,0,0,0,0,0,0,0,0,0,-1,1763,729,0,0
546,295,36.9579,2.52197,0,0,0,0,0,0,0,-1,1770,729,36.9579,-2.52195
553,295,36.9526,2.32092,0,0,0,0,0,0,0,-1,1777,729,36.9526,-2.32093
560,295,35.1418,-0.388306,0,0,0,0,0,0,0,-1,1784,729,35.1418,0.388314
567,295,35.4042,1.21594,0,0,0,0,0,0,0,-1,1791,729,35.4042,-1.21595
574,295,36.6705,1.65704,0,0,0,0,0,0,0,-1,1798,729,36.6706,-1.65702
581,295,37.8191,2.19592,0,0,0,0,0,0,0,-1,1805,729,37.8191,-2.19594
588,295,39.0542,2.45679,0,0,0,0,0,0,0,-1,1812,729,39.0542,-2.45676
595,295,27.2102,6.99121,0,0,0,0,0,0,0,-1,1819,729,27.2103,-6.99121
602,295,26.9065,7.82141,0,0,0,0,0,0,0,-1,1826,729,26.9064,-7.8214
609,295,11.7737,2.19989,0,0,0,0,0,0,0,-1,1833,729,11.7736,-2.19988
616,295,24.4583,-3.47656,0,0,0,0,0,0,0,-1,1840,729,24.4582,3.47656
623,295,24.3715,-2.98218,0.0082915,0.000738253,-0.00285232,0.00924759,-0.000217842,-0.323429,0.00623894,0.0340289,1847,729,24.3714,2.98218
630,295,24.3147,-2.47668,0.00620418,-0.000967446,-0.00117924,0.00639311,-0.00115637,-0.158861,0.00469524,0.0134213,1854,729,24.3148,2.47666
637,295,24.3119,-1.97205,0.00365825,-0.00136196,0.000110004,0.00366066,-0.00136436,0.0218983,0.00300047,0.0143699,1861,729,24.3119,1.97202
644,295,24.314,-1.48102,0.00125838,-0.00089328,0.000807151,0.0015275,-0.00116241,0.321834,0.00155778,0.0135803,1868,729,24.314,1.48105
651,295,24.2943,-0.999939,0.000624001,-0.000541965,0.000412132,0.000754966,-0.00067293,0.307683,0.00082485,0.0140154,1875,729,24.2943,0.999913
658,295,24.2751,-0.503845,-7.43705e-05,-0.000117323,4.50853e-05,-4.59075e-05,-0.000145786,0.563127,8.60704e-05,0.0126924,1882,729,24.2751,0.503857
665,295,24.2595,-0.0377808,-0.00112379,9.02358e-05,-0.000295181,0.000158202,-0.00119175,-1.34449,0.000852144,0.0109388,1889,729,24.2595,0.0377743
672,295,24.2378,0.427795,-0.00217843,0.000319358,-0.000638748,0.000473224,-0.00233229,-1.33441,0.00173426,0.0128376,1896,729,24.2377,-0.427767
679,295,24.2227,0.937622,-0.00302847,0.000571987,-0.000851791,0.000763334,-0.00321981,-1.34982,0.0024411,0.0102931,1903,729,24.2227,-0.937646
686,295,24.2463,1.41937,-0.00386512,0.000831762,-0.00107617,0.0010666,-0.00409995,-1.35595,0.00314962,0.0104231,1910,729,24.2463,-1.41935
693,295,24.1815,1.91437,-0.00441339,0.00103314,-0.00125049,0.00130652,-0.00468677,-1.35556,0.00363906,0.0399551,1917,729,24.1815,-1.91434
700,295,24.1642,2.40253,0,0,0,0,0,0,0,-1,1924,729,24.1642,-2.40256
707,295,22.2661,3.05206,0,0,0,0,0,0,0,-1,1931,729,22.2662,-3.05207
714,295,17.4906,4.63068,0,0,0,0,0,0,0,-1,1938,729,17.4906,-4.63066
721,295,18.3792,5.32281,0,0,0,0,0,0,0,-1,1945,729,18.3791,-5.32283
728,295,17.379,3.74866,0,0,0,0,0,0,0,-1,1952,729,17.379,-3.74863
735,295,0,0,0,0,0,0,0,0,0,-1,1959,729,0,0
742,295,0,0,0,0,0,0,0,0,0,-1,1966,729,0,0
749,295,0,0,0,0,0,0,0,0,0,-1,1973,729,0,0
756,295,0,0,0,0,0,0,0,0,0,-1,1980,729,0,0
763,295,0,0,0,0,0,0,0,0,0,-1,1987,729,0,0
770,295,0,0,0,0,0,0,0,0,0,-1,1994,729,0,0
777,295,0,0,0,0,0,0,0,0,0,-1,2001,729,0,0
784,295,0,0,0,0,0,0,0,0,0,-1,2008,729,0,0
791,295,0,0,0,0,0,0,0,0,0,-1,2015,729,0,0
798,295,0,0,0,0,0,0,0,0,0,-1,2022,729,0,0
805,295,0,0,0,0,0,0,0,0,0,-1,2029,729,0,0
812,295,0,0,0,0,0,0,0,0,0,-1,2036,729,0,0
-700,288,0,0,0,0,0,0,0,0,0,-1,524,736,0,0
-693,288,0,0,0,0,0,0,0,0,0,-1,531,736,0,0
-686,288,0,0,0,0,0,0,0,0,0,-1,538,736,0,0
-679,288,0,0,0,0,0,0,0,0,0,-1,545,736,0,0
-672,288,0,0,0,0,0,0,0,0,0,-1,552,736,0,0
-665,288,0,0,0,0,0,0,0,0,0,-1,559,736,0,0
-658,288,0,0,0,0,0,0,0,0,0,-1,566,736,0,0
-651,288,0,0,0,0,0,0,0,0,0,-1,573,736,0,0
-644,288,0,0,0,0,0,0,0,0,0,-1,580,736,0,0
-637,288,0,0,0,0,0,0,0,0,0,-1,587,736,0,0
-630,288,0,0,0,0,0,0,0,0,0,-1,594,736,0,0
-623,288,0,0,0,0,0,0,0,0,0,-1,601,736,0,0
-616,288,-11.7584,2.4425,0,0,0,0,0,0,0,-1,608,736,-11.7584,-2.44251
-609,288,-10.3007,2.32178,0,0,0,0,0,0,0,-1,615,736,-10.3007,-2.32178
-602,288,-10.1458,-1.85559,0,0,0,0,0,0,0,-1,622,736,-10.1458,1.85556
-595,288,-7.63208,1.81769,0,0,0,0,0,0,0,-1,629,736,-7.63205,-1.81766
-588,288,-8.19269,1.50598,0,0,0,0,0,0,0,-1,636,736,-8.19268,-1.50601
-581,288,-13.1915,0.659241,0,0,0,0,0,0,0,-1,643,736,-13.1915,-0.659228
-574,288,-15.3011,0.254395,0,0,0,0,0,0,0,-1,650,736,-15.3011,-0.254392
-567,288,-15.4398,-0.213745,0.000970279,0.00613109,-0.000541561,0.00618731,0.000914062,-1.46736,0.00385647,0.0344866,657,736,-15.4398,0.213744
-560,288,-15.6581,-0.694702,0.000577357,0.0049353,-0.000444129,0.0049801,0.000532555,-1.47026,0.00315756,0.0163264,664,736,-15.6581,0.694682
-553,288,-15.6313,-1.10443,0.000289113,0.00388312,-0.000245351,0.00389979,0.000272441,-1.50295,0.00251397,0.0188641,671,736,-15.6313,1.10445
-546,288,-15.6604,-1.52832,0.000107057,0.00278058,7.68232e-07,0.00278058,0.000107057,1.57051,0.00181908,0.020688,678,736,-15.6604,1.52832
-539,288,-15.6946,-1.98016,-3.68502e-05,0.00175201,0.000275291,0.00179342,-7.82568e-05,1.42151,0.00122253,0.0168482,685,736,-15.6946,1.98016
-532,288,-15.6635,-2.47046,-0.000158273,0.000605865,0.000510666,0.00086157,-0.000413979,1.10657,0.0007514,0.0127413,692,736,-15.6634,2.47044
-525,288,-15.6818,-2.94824,-0.000104442,-0.000433834,0.000774729,0.000522903,-0.00106118,0.680665,0.000932005,0.0115918,699,736,-15.6818,2.94826
-518,288,-15.7239,-3.38696,4.97751e-05,-0.00139343,0.000973808,0.000540201,-0.00188385,0.466537,0.00146945,0.0116774,706,736,-15.724,3.38695
-511,288,-15.724,-3.83246,0.000213382,-0.00233867,0.00114615,0.000652554,-0.00277784,0.365915,0.00210343,0.0093977,713,736,-15.724,3.83244
-504,288,-15.74,-4.29315,0.000516671,-0.00320807,0.00122408,0.000882929,-0.00357433,0.290734,0.00272529,0.0111128,720,736,-15.74,4.29314
-497,288,-15.7648,-4.59558,0.000969978,-0.00416795,0.00129552,0.00127816,-0.00447613,0.23354,0.00348907,0.0295899,727,736,-15.7648,4.59556
-490,288,-15.6988,-4.85071,0,0,0,0,0,0,0,-1,734,736,-15.6988,4.85068
-483,288,-17.3287,0.564758,0,0,0,0,0,0,0,-1,741,736,-17.3287,-0.56477
-476,288,-23.9319,-1.89484,0,0,0,0,0,0,0,-1,748,736,-23.9319,1.89483
-469,288,-24.4758,-0.463806,0,0,0,0,0,0,0,-1,755,736,-24.4758,0.463781
-462,288,-22.4644,4.70197,0,0,0,0,0,0,0,-1,762,736,-22.4643,-4.70197
-455,288,-28.7432,0.143738,0,0,0,0,0,0,0,-1,769,736,-28.7433,-0.143759
-448,288,-28.3674,0.0834961,0,0,0,0,0,0,0,-1,776,736,-28.3673,-0.0835032
-441,288,-28.4276,0.439209,0,0,0,0,0,0,0,-1,783,736,-28.4275,-0.439218
-434,288,-26.0831,2.26532,0,0,0,0,0,0,0,-1,790,736,-26.083,-2.26529
-427,288,0,0,0,0,0,0,0,0,0,-1,797,736,0,0
-420,288,0,0,0,0,0,0,0,0,0,-1,804,736,0,0
-413,288,0,0,0,0,0,0,0,0,0,-1,811,736,0,0
-406,288,0,0,0,0,0,0,0,0,0,-1,818,736,0,0
-399,288,0,0,0,0,0,0,0,0,0,-1,825,736,0,0
-392,288,0,0,0,0,0,0,0,0,0,-1,832,736,0,0
-385,288,0,0,0,0,0,0,0,0,0,-1,839,736,0,0
-378,288,0,0,0,0,0,0,0,0,0,-1,846,736,0,0
-371,288,0,0,0,0,0,0,0,0,0,-1,853,736,0,0
-364,288,0,0,0,0,0,0,0,0,0,-1,860,736,0,0
-357,288,0,0,0,0,0,0,0,0,0,-1,867,736,0,0
-350,288,0,0,0,0,0,0,0,0,0,-1,874,736,0,0
-343,288,0,0,0,0,0,0,0,0,0,-1,881,736,0,0
-336,288,0,0,0,0,0,0,0,0,0,-1,888,736,0,0
-329,288,0,0,0,0,0,0,0,0,0,-1,895,736,0,0
-322,288,0,0,0,0,0,0,0,0,0,-1,902,736,0,0
-315,288,0,0,0,0,0,0,0,0,0,-1,909,736,0,0
-308,288,0,0,0,0,0,0,0,0,0,-1,916,736,0,0
-301,288,0,0,0,0,0,0,0,0,0,-1,923,736,0,0
-294,288,0,0,0,0,0,0,0,0,0,-1,930,736,0,0
-287,288,0,0,0,0,0,0,0,0,0,-1,937,736,0,0
-280,288,0,0,0,0,0,0,0,0,0,-1,944,736,0,0
-273,288,0,0,0,0,0,0,0,0,0,-1,951,736,0,0
-266,288,0,0,0,0,0,0,0,0,0,-1,958,736,0,0
-259,288,0,0,0,0,0,0,0,0,0,-1,965,736,0,0
-252,288,0,0,0,0,0,0,0,0,0,-1,972,736,0,0
-245,288,0,0,0,0,0,0,0,0,0,-1,979,736,0,0
-238,288,0,0,0,0,0,0,0,0,0,-1,986,736,0,0
-231,288,0,0,0,0,0,0,0,0,0,-1,993,736,0,0
-224,288,0,0,0,0,0,0,0,0,0,-1,1000,736,0,0
-217,288,0,0,0,0,0,0,0,0,0,-1,1007,736,0,0
-210,288,0,0,0,0,0,0,0,0,0,-1,1014,736,0,0
-203,288,0,0,0,0,0,0,0,0,0,-1,1021,736,0,0
-196,288,0,0,0,0,0,0,0,0,0,-1,1028,736,0,0
-189,288,0,0,0,0,0,0,0,0,0,-1,1035,736,0,0
-182,288,0,0,0,0,0,0,0,0,0,-1,1042,736,0,0
-175,288,0,0,0,0,0,0,0,0,0,-1,1049,736,0,0
-168,288,0,0,0,0,0,0,0,0,0,-1,1056,736,0,0
-161,288,0,0,0,0,0,0,0,0,0,-1,1063,736,0,0
-154,288,0,0,0,0,0,0,0,0,0,-1,1070,736,0,0
-147,288,0,0,0,0,0,0,0,0,0,-1,1077,736,0,0
-140,288,0,0,0,0,0,0,0,0,0,-1,1084,736,0,0
-133,288,0,0,0,0,0,0,0,0,0,-1,1091,736,0,0
-126,288,0,0,0,0,0,0,0,0,0,-1,1098,736,0,0
-119,288,0,0,0,0,0,0,0,0,0,-1,1105,736,0,0
-112,288,0,0,0,0,0,0,0,0,0,-1,1112,736,0,0
-105,288,0,0,0,0,0,0,0,0,0,-1,1119,736,0,0
-98,288,0,0,0,0,0,0,0,0,0,-1,1126,736,0,0
-91,288,0,0,0,0,0,0,0,0,0,-1,1133,736,0,0
-84,288,0,0,0,0,0,0,0,0,0,-1,1140,736,0,0
-77,288,0,0,0,0,0,0,0,0,0,-1,1147,736,0,0
-70,288,0,0,0,0,0,0,0,0,0,-1,1154,736,0,0
-63,288,0,0,0,0,0,0,0,0,0,-1,1161,736,0,0
-56,288,0,0,0,0,0,0,0,0,0,-1,1168,736,0,0
-49,288,0,0,0,0,0,0,0,0,0,-1,1175,736,0,0
-42,288,0,0,0,0,0,0,0,0,0,-1,1182,736,0,0
-35,288,0,0,0,0,0,0,0,0,0,-1,1189,736,0,0
-28,288,0,0,0,0,0,0,0,0,0,-1,1196,736,0,0
-21,288,0,0,0,0,0,0,0,0,0,-1,1203,736,0,0
-14,288,0,0,0,0,0,0,0,0,0,-1,1210,736,0,0
-7,288,0,0,0,0,0,0,0,0,0,-1,1217,736,0,0
0,288,0,0,0,0,0,0,0,0,0,-1,1224,736,0,0
7,288,0,0,0,0,0,0,0,0,0,-1,1231,736,0,0
14,288,0,0,0,0,0,0,0,0,0,-1,1238,736,0,0
21,288,0,0,0,0,0,0,0,0,0,-1,1245,736,0,0
28,288,0,0,0,0,0,0,0,0,0,-1,1252,736,0,0
35,288,0,0,0,0,0,0,0,0,0,-1,1259,736,0,0
42,288,0,0,0,0,0,0,0,0,0,-1,1266,736,0,0
49,288,0,0,0,0,0,0,0,0,0,-1,1273,736,0,0
56,288,0,0,0,0,0,0,0,0,0,-1,1280,736,0,0
63,288,0,0,0,0,0,0,0,0,0,-1,1287,736,0,0
70,288,0,0,0,0,0,0,0,0,0,-1,1294,736,0,0
77,288,0,0,0,0,0,0,0,0,0,-1,1301,736,0,0
84,288,0,0,0,0,0,0,0,0,0,-1,1308,736,0,0
91,288,0,0,0,0,0,0,0,0,0,-1,1315,736,0,0
98,288,0,0,0,0,0,0,0,0,0,-1,1322,736,0,0
105,288,0,0,0,0,0,0,0,0,0,-1,1329,736,0,0
112,288,0,0,0,0,0,0,0,0,0,-1,1336,736,0,0
119,288,0,0,0,0,0,0,0,0,0,-1,1343,736,0,0
126,288,0,0,0,0,0,0,0,0,0,-1,1350,736,0,0
133,288,0,0,0,0,0,0,0,0,0,-1,1357,736,0,0
140,288,0,0,0,0,0,0,0,0,0,-1,1364,736,0,0
147,288,0,0,0,0,0,0,0,0,0,-1,1371,736,0,0
154,288,0,0,0,0,0,0,0,0,0,-1,1378,736,0,0
161,288,0,0,0,0,0,0,0,0,0,-1,1385,736,0,0
168,288,0,0,0,0,0,0,0,0,0,-1,1392,736,0,0
175,288,0,0,0,0,0,0,0,0,0,-1,1399,736,0,0
182,288,0,0,0,0,0,0,0,0,0,-1,1406,736,0,0
189,288,0,0,0,0,0,0,0,0,0,-1,1413,736,0,0
196,288,0,0,0,0,0,0,0,0,0,-1,1420,736,0,0
203,288,0,0,0,0,0,0,0,0,0,-1,1427,736,0,0
210,288,0,0,0,0,0,0,0,0,0,-1,1434,736,0,0
217,288,0,0,0,0,0,0,0,0,0,-1,1441,736,0,0
224,288,0,0,0,0,0,0,0,0,0,-1,1448,736,0,0
231,288,0,0,0,0,0,0,0,0,0,-1,1455,736,0,0
238,288,0,0,0,0,0,0,0,0,0,-1,1462,736,0,0
245,288,0,0,0,0,0,0,0,0,0,-1,1469,736,0,0
252,288,0,0,0,0,0,0,0,0,0,-1,1476,736,0,0
259,288,0,0,0,0,0,0,0,0,0,-1,1483,736,0,0
266,288,0,0,0,0,0,0,0,0,0,-1,1490,736,0,0
273,288,0,0,0,0,0,0,0,0,0,-1,1497,736,0,0
280,288,0,0,0,0,0,0,0,0,0,-1,1504,736,0,0
287,288,0,0,0,0,0,0,0,0,0,-1,1511,736,0,0
294,288,0,0,0,0,0,0,0,0,0,-1,1518,736,0,0
301,288,0,0,0,0,0,0,0,0,0,-1,1525,736,0,0
308,288,0,0,0,0,0,0,0,0,0,-1,1532,736,0,0
315,288,0,0,0,0,0,0,0,0,0,-1,1539,736,0,0
322,288,0,0,0,0,0,0,0,0,0,-1,1546,736,0,0
329,288,0,0,0,0,0,0,0,0,0,-1,1553,736,0,0
336,288,0,0,0,0,0,0,0,0,0,-1,1560,736,0,0
343,288,0,0,0,0,0,0,0,0,0,-1,1567,736,0,0
350,288,0,0,0,0,0,0,0,0,0,-1,1574,736,0,0
357,288,0,0,0,0,0,0,0,0,0,-1,1581,736,0,0
364,288,0,0,0,0,0,0,0,0,0,-1,1588,736,0,0
371,288,0,0,0,0,0,0,0,0,0,-1,1595,736,0,0
378,288,0,0,0,0,0,0,0,0,0,-1,1602,736,0,0
385,288,0,0,0,0,0,0,0,0,0,-1,1609,736,0,0
392,288,0,0,0,0,0,0,0,0,0,-1,1616,736,0,0
399,288,0,0,0,0,0,0,0,0,0,-1,1623,736,0,0
406,288,0,0,0,0,0,0,0,0,0,-1,1630,736,0,0
413,288,0,0,0,0,0,0,0,0,0,-1,1637,736,0,0
420,288,0,0,0,0,0,0,0,0,0,-1,1644,736,0,0
427,288,0,0,0,0,0,0,0,0,0,-1,1651,736,0,0
434,288,0,0,0,0,0,0,0,0,0,-1,1658,736,0,0
441,288,0,0,0,0,0,0,0,0,0,-1,1665,736,0,0
448,288,0,0,0,0,0,0,0,0,0,-1,1672,736,0,0
455,288,0,0,0,0,0,0,0,0,0,-1,1679,736,0,0
462,288,0,0,0,0,0,0,0,0,0,-1,1686,736,0,0
469,288,0,0,0,0,0,0,0,0,0,-1,1693,736,0,0
476,288,0,0,0,0,0,0,0,0,0,-1,1700,736,0,0
483,288,0,0,0,0,0,0,0,0,0,-1,1707,736,0,0
490,288,0,0,0,0,0,0,0,0,0,-1,1714,736,0,0
497,288,0,0,0,0,0,0,0,0,0,-1,1721,736,0,0
504,288,0,0,0,0,0,0,0,0,0,-1,1728,736,0,0
511,288,0,0,0,0,0,0,0,0,0,-1,1735,736,0,0
518,288,0,0,0,0,0,0,0,0,0,-1,1742,736,0,0
525,288,0,0,0,0,0,0,0,0,0,-1,1749,736,0,0
532,288,0,0,0,0,0,0,0,0,0,-1,1756,736,0,0
539,288,0,0,0,0,0,0,0,0,0,-1,1763,736,0,0
546,288,0,0,0,0,0,0,0,0,0,-1,1770,736,0,0
553,288,35.5283,4.23627,0,0,0,0,0,0,0,-1,1777,736,35.5283,-4.23627
560,288,36.3204,4.37854,0,0,0,0,0,0,0,-1,1784,736,36.3204,-4.37855
567,288,38.6501,3.78149,0,0,0,0,0,0,0,-1,1791,736,38.6501,-3.78149
574,288,38.8695,3.76654,0,0,0,0,0,0,0,-1,1798,736,38.8695,-3.76656
581,288,39.0983,3.39862,0,0,0,0,0,0,0,-1,1805,736,39.0982,-3.39862
588,288,39.6608,2.72919,0,0,0,0,0,0,0,-1,1812,736,39.6608,-2.72919
595,288,40.1831,2.50763,0,0,0,0,0,0,0,-1,1819,736,40.1831,-2.50762
602,288,26.7634,7.61279,0,0,0,0,0,0,0,-1,1826,736,26.7635,-7.61279
609,288,17.5223,4.86414,0,0,0,0,0,0,0,-1,1833,736,17.5223,-4.86412
616,288,13.4886,0.801331,0,0,0,0,0,0,0,-1,1840,736,13.4886,-0.80132
623,288,24.8875,-3.00385,0,0,0,0,0,0,0,-1,1847,736,24.8875,3.00386
630,288,24.7689,-2.43951,0.00632194,-0.0014706,-0.00141198,0.0065699,-0.00171856,-0.173836,0.00505119,0.0256256,1854,736,24.7689,2.4395
637,288,24.8094,-1.96277,0.00377782,-0.00204201,-0.000104154,0.00377968,-0.00204387,-0.0178888,0.00341165,0.0119513,1861,736,24.8094,1.96279
644,288,24.8169,-1.4765,0.00118191,-0.00153312,0.000749694,0.00137517,-0.00172638,0.252286,0.0017945,0.0112345,1868,736,24.8169,1.47652
651,288,24.7904,-1.00427,0.0008129,-0.00101814,0.000412027,0.000901344,-0.00110659,0.211446,0.0011613,0.0118031,1875,736,24.7904,1.00425
658,288,24.7726,-0.469666,0.000443901,-0.000364257,0.000145538,0.000469311,-0.000389668,0.172853,0.000496642,0.0162445,1882,736,24.7726,0.469664
665,288,24.7374,-0.00146484,-0.000446476,4.12301e-05,-5.20969e-05,4.6733e-05,-0.000451979,-1.46556,0.000318044,0.0160933,1889,736,24.7374,0.00145397
672,288,24.7345,0.439575,-0.00131318,0.000446487,-0.00026378,0.000485178,-0.00135187,-1.42516,0.00109926,0.0149314,1896,736,24.7344,-0.43958
679,288,24.729,0.94165,-0.00191474,0.000875946,-0.000313602,0.000910752,-0.00194955,-1.46026,0.00168731,0.0125471,1903,736,24.729,-0.941679
686,288,24.7206,1.40186,-0.00249367,0.00126532,-0.000406165,0.00130871,-0.00253706,-1.46438,0.00225779,0.00979017,1910,736,24.7206,-1.40188
693,288,24.7228,1.94513,-0.00271256,0.00164833,-0.000401882,0.00168506,-0.00274928,-1.47966,0.00258463,0.0185648,1917,736,24.7228,-1.94512
700,288,24.6224,2.54199,-0.00239631,0.0020452,-0.000238825,0.002058,-0.00240912,-1.51723,0.00258175,0.0411103,1924,736,24.6224,-2.54198
707,288,24.7142,3.16974,0,0,0,0,0,0,0,-1,1931,736,24.7143,-3.16976
714,288,23.0149,3.82544,0,0,0,0,0,0,0,-1,1938,736,23.0149,-3.82541
721,288,18.0732,3.69385,0,0,0,0,0,0,0,-1,1945,736,18.0732,-3.69387
728,288,19.3208,3.91455,0,0,0,0,0,0,0,-1,1952,736,19.3209,-3.91455
735,288,18.7712,3.51312,0,0,0,0,0,0,0,-1,1959,736,18.7713,-3.51309
742,288,0,0,0,0,0,0,0,0,0,-1,1966,736,0,0
749,288,0,0,0,0,0,0,0,0,0,-1,1973,736,0,0
756,288,0,0,0,0,0,0,0,0,0,-1,1980,736,0,0
763,288,0,0,0,0,0,0,0,0,0,-1,1987,736,0,0
770,288,0,0,0,0,0,0,0,0,0,-1,1994,736,0,0
777,288,0,0,0,0,0,0,0,0,0,-1,2001,736,0,0
784,288,0,0,0,0,0,0,0,0,0,-1,2008,736,0,0
791,288,0,0,0,0,0,0,0,0,0,-1,2015,736,0,0
798,288,0,0,0,0,0,0,0,0,0,-1,2022,736,0,0
805,288,0,0,0,0,0,0,0,0,0,-1,2029,736,0,0
812,288,0,0,0,0,0,0,0,0,0,-1,2036,736,0,0
-700,281,0,0,0,0,0,0,0,0,0,-1,524,743,0,0
-693,281,0,0,0,0,0,0,0,0,0,-1,531,743,0,0
-686,281,0,0,0,0,0,0,0,0,0,-1,538,743,0,0
-679,281,0,0,0,0,0,0,0,0,0,-1,545,743,0,0
-672,281,0,0,0,0,0,0,0,0,0,-1,552,743,0,0
-665,281,0,0,0,0,0,0,0,0,0,-1,559,743,0,0
-658,281,0,0,0,0,0,0,0,0,0,-1,566,743,0,0
-651,281,0,0,0,0,0,0,0,0,0,-1,573,743,0,0
-644,281,0,0,0,0,0,0,0,0,0,-1,580,743,0,0
-637,281,0,0,0,0,0,0,0,0,0,-1,587,743,0,0
-630,281,0,0,0,0,0,0,0,0,0,-1,594,743,0,0
-623,281,-19.1697,5.67017,0,0,0,0,0,0,0,-1,601,743,-19.1697,-5.67019
-616,281,-11.5906,2.6853,0,0,0,0,0,0,0,-1,608,743,-11.5906,-2.68529
-609,281,-16.1972,4.14838,0,0,0,0,0,0,0,-1,615,743,-16.1972,-4.14837
-602,281,-12.7697,3.94086,0,0,0,0,0,0,0,-1,622,743,-12.7697,-3.94086
-595,281,-10.4797,-1.07404,0,0,0,0,0,0,0,-1,629,743,-10.4798,1.07402
-588,281,-13.277,1.49817,0,0,0,0,0,0,0,-1,636,743,-13.2771,-1.49817
-581,281,-16.1553,0.678894,0,0,0,0,0,0,0,-1,643,743,-16.1553,-0.678924
-574,281,-16.0128,0.246948,0.0018532,0.00370374,0.000575486,0.0038681,0.00168883,1.29259,0.00223923,0.034134,650,743,-16.0127,-0.246931
-567,281,-16.0975,-0.189758,0.000926518,0.00303239,0.000765929,0.0032815,0.000677409,1.25635,0.00200047,0.0166578,657,743,-16.0975,0.189785
-560,281,-16.1387,-0.655457,0.000328998,0.00227081,0.000830633,0.00257764,2.21677e-05,1.21695,0.00171108,0.00856029,664,743,-16.1387,0.655476
-553,281,-16.1021,-1.11353,-8.83478e-05,0.0015785,0.000963834,0.00201927,-0.000529118,1.14188,0.0015529,0.0140658,671,743,-16.1021,1.11351
-546,281,-16.1078,-1.52594,-0.000331799,0.000849712,0.00110543,0.00151234,-0.000994428,1.0308,0.00145754,0.0153378,678,743,-16.1078,1.52593
-539,281,-16.1348,-1.98254,-0.000520663,0.000208739,0.00123393,0.00113074,-0.00144266,0.929087,0.00148939,0.0131105,685,743,-16.1348,1.98252
-532,281,-16.1475,-2.43323,-0.000631627,-0.000588587,0.00125499,0.000645069,-0.00186528,0.793971,0.00150534,0.0129706,692,743,-16.1475,2.43321
-525,281,-16.1685,-2.91101,-0.000503168,-0.00127412,0.00124806,0.000417592,-0.00219488,0.635615,0.00162049,0.0148805,699,743,-16.1685,2.91103
-518,281,-16.1825,-3.39099,-0.000272276,-0.00191212,0.00107499,0.000259794,-0.00244419,0.459601,0.0017226,0.0122743,706,743,-16.1825,3.39099
-511,281,-16.1902,-3.84149,1.63102e-05,-0.00253936,0.000778774,0.000234921,-0.00275797,0.273669,0.00192175,0.0120549,713,743,-16.1902,3.84149
-504,281,-16.2357,-4.28802,0.000510461,-0.00311567,0.000228886,0.000524852,-0.00313006,0.0627891,0.00228187,0.0156699,720,743,-16.2356,4.28803
-497,281,-16.0794,-4.68182,0.00125174,-0.00375175,-0.000602487,0.00132327,-0.00382328,-0.118163,0.003086,0.045292,727,743,-16.0794,4.68183
-490,281,-15.8415,-4.96533,0,0,0,0,0,0,0,-1,734,743,-15.8415,4.96533
-483,281,-22.8943,-1.78931,0,0,0,0,0,0,0,-1,741,743,-22.8944,1.78931
-476,281,-24.7306,0.113586,0,0,0,0,0,0,0,-1,748,743,-24.7306,-0.113601
-469,281,-23.7545,5.07465,0,0,0,0,0,0,0,-1,755,743,-23.7545,-5.07464
-462,281,-23.5911,4.14233,0,0,0,0,0,0,0,-1,762,743,-23.5911,-4.14231
-455,281,-23.4277,3.20996,0,0,0,0,0,0,0,-1,769,743,-23.4277,-3.20998
-448,281,-28.5383,0.610535,0,0,0,0,0,0,0,-1,776,743,-28.5383,-0.610546
-441,281,-28.2429,0.756775,0,0,0,0,0,0,0,-1,783,743,-28.2428,-0.756793
-434,281,0,0,0,0,0,0,0,0,0,-1,790,743,0,0
-427,281,0,0,0,0,0,0,0,0,0,-1,797,743,0,0
-420,281,0,0,0,0,0,0,0,0,0,-1,804,743,0,0
-413,281,0,0,0,0,0,0,0,0,0,-1,811,743,0,0
-406,281,0,0,0,0,0,0,0,0,0,-1,818,743,0,0
-399,281,0,0,0,0,0,0,0,0,0,-1,825,743,0,0
-392,281,0,0,0,0,0,0,0,0,0,-1,832,743,0,0
-385,281,0,0,0,0,0,0,0,0,0,-1,839,743,0,0
-378,281,0,0,0,0,0,0,0,0,0,-1,846,743,0,0
-371,281,0,0,0,0,0,0,0,0,0,-1,853,743,0,0
-364,281,0,0,0,0,0,0,0,0,0,-1,860,743,0,0
-357,281,0,0,0,0,0,0,0,0,0,-1,867,743,0,0
-350,281,0,0,0,0,0,0,0,0,0,-1,874,743,0,0
-343,281,0,0,0,0,0,0,0,0,0,-1,881,743,0,0
-336,281,0,0,0,0,0,0,0,0,0,-1,888,743,0,0
-329,281,0,0,0,0,0,0,0,0,0,-1,895,743,0,0
-322,281,0,0,0,0,0,0,0,0,0,-1,902,743,0,0
-315,281,0,0,0,0,0,0,0,0,0,-1,909,743,0,0
-308,281,0,0,0,0,0,0,0,0,0,-1,916,743,0,0
-301,281,0,0,0,0,0,0,0,0,0,-1,923,743,0,0
-294,281,0,0,0,0,0,0,0,0,0,-1,930,743,0,0
-287,281,0,0,0,0,0,0,0,0,0,-1,937,743,0,0
-280,281,0,0,0,0,0,0,0,0,0,-1,944,743,0,0
-273,281,0,0,0,0,0,0,0,0,0,-1,951,743,0,0
-266,281,0,0,0,0,0,0,0,0,0,-1,958,743,0,0
-259,281,0,0,0,0,0,0,0,0,0,-1,965,743,0,0
-252,281,0,0,0,0,0,0,0,0,0,-1,972,743,0,0
-245,281,0,0,0,0,0,0,0,0,0,-1,979,743,0,0
-238,281,0,0,0,0,0,0,0,0,0,-1,986,743,0,0
-231,281,0,0,0,0,0,0,0,0,0,-1,993,743,0,0
-224,281,0,0,0,0,0,0,0,0,0,-1,1000,743,0,0
-217,281,0,0,0,0,0,0,0,0,0,-1,1007,743,0,0
-210,281,0,0,0,0,0,0,0,0,0,-1,1014,743,0,0
-203,281,0,0,0,0,0,0,0,0,0,-1,1021,743,0,0
-196,281,0,0,0,0,0,0,0,0,0,-1,1028,743,0,0
-189,281,0,0,0,0,0,0,0,0,0,-1,1035,743,0,0
-182,281,0,0,0,0,0,0,0,0,0,-1,1042,743,0,0
-175,281,0,0,0,0,0,0,0,0,0,-1,1049,743,0,0
-168,281,0,0,0,0,0,0,0,0,0,-1,1056,743,0,0
-161,281,0,0,0,0,0,0,0,0,0,-1,1063,743,0,0
-154,281,0,0,0,0,0,0,0,0,0,-1,1070,743,0,0
-147,281,0,0,0,0,0,0,0,0,0,-1,1077,743,0,0
-140,281,0,0,0,0,0,0,0,0,0,-1,1084,743,0,0
-133,281,0,0,0,0,0,0,0,0,0,-1,1091,743,0,0
-126,281,0,0,0,0,0,0,0,0,0,-1,1098,743,0,0
-119,281,0,0,0,0,0,0,0,0,0,-1,1105,743,0,0
-112,281,0,0,0,0,0,0,0,0,0,-1,1112,743,0,0
-105,281,0,0,0,0,0,0,0,0,0,-1,1119,743,0,0
-98,281,0,0,0,0,0,0,0,0,0,-1,1126,743,0,0
-91,281,0,0,0,0,0,0,0,0,0,-1,1133,743,0,0
-84,281,0,0,0,0,0,0,0,0,0,-1,1140,743,0,0
-77,281,0,0,0,0,0,0,0,0,0,-1,1147,743,0,0
-70,281,0,0,0,0,0,0,0,0,0,-1,1154,743,0,0
-63,281,0,0,0,0,0,0,0,0,0,-1,1161,743,0,0
-56,281,0,0,0,0,0,0,0,0,0,-1,1168,743,0,0
-49,281,0,0,0,0,0,0,0,0,0,-1,1175,743,0,0
-42,281,0,0,0,0,0,0,0,0,0,-1,1182,743,0,0
-35,281,0,0,0,0,0,0,0,0,0,-1,1189,743,0,0
-28,281,0,0,0,0,0,0,0,0,0,-1,1196,743,0,0
-21,281,0,0,0,0,0,0,0,0,0,-1,1203,743,0,0
-14,281,0,0,0,0,0,0,0,0,0,-1,1210,743,0,0
-7,281,0,0,0,0,0,0,0,0,0,-1,1217,743,0,0
0,281,0,0,0,0,0,0,0,0,0,-1,1224,743,0,0
7,281,0,0,0,0,0,0,0,0,0,-1,1231,743,0,0
14,281,0,0,0,0,0,0,0,0,0,-1,1238,743,0,0
21,281,0,0,0,0,0,0,0,0,0,-1,1245,743,0,0
28,281,0,0,0,0,0,0,0,0,0,-1,1252,743,0,0
35,281,0,0,0,0,0,0,0,0,0,-1,1259,743,0,0
42,281,0,0,0,0,0,0,0,0,0,-1,1266,743,0,0
49,281,0,0,0,0,0,0,0,0,0,-1,1273,743,0,0
56,281,0,0,0,0,0,0,0,0,0,-1,1280,743,0,0
63,281,0,0,0,0,0,0,0,0,0,-1,1287,743,0,0
70,281,0,0,0,0,0,0,0,0,0,-1,1294,743,0,0
77,281,0,0,0,0,0,0,0,0,0,-1,1301,743,0,0
84,281,0,0,0,0,0,0,0,0,0,-1,1308,743,0,0
91,281,0,0,0,0,0,0,0,0,0,-1,1315,743,0,0
98,281,0,0,0,0,0,0,0,0,0,-1,1322,743,0,0
105,281,0,0,0,0,0,0,0,0,0,-1,1329,743,0,0
112,281,0,0,0,0,0,0,0,0,0,-1,1336,743,0,0
119,281,0,0,0,0,0,0,0,0,0,-1,1343,743,0,0
126,281,0,0,0,0,0,0,0,0,0,-1,1350,743,0,0
133,281,0,0,0,0,0,0,0,0,0,-1,1357,743,0,0
140,281,0,0,0,0,0,0,0,0,0,-1,1364,743,0,0
147,281,0,0,0,0,0,0,0,0,0,-1,1371,743,0,0
154,281,0,0,0,0,0,0,0,0,0,-1,1378,743,0,0
161,281,0,0,0,0,0,0,0,0,0,-1,1385,743,0,0
168,281,0,0,0,0,0,0,0,0,0,-1,1392,743,0,0
175,281,0,0,0,0,0,0,0,0,0,-1,1399,743,0,0
182,281,0,0,0,0,0,0,0,0,0,-1,1406,743,0,0
189,281,0,0,0,0,0,0,0,0,0,-1,1413,743,0,0
196,281,0,0,0,0,0,0,0,0,0,-1,1420,743,0,0
203,281,0,0,0,0,0,0,0,0,0,-1,1427,743,0,0
210,281,0,0,0,0,0,0,0,0,0,-1,1434,743,0,0
217,281,0,0,0,0,0,0,0,0,0,-1,1441,743,0,0
224,281,0,0,0,0,0,0,0,0,0,-1,1448,743,0,0
231,281,0,0,0,0,0,0,0,0,0,-1,1455,743,0,0
238,281,0,0,0,0,0,0,0,0,0,-1,1462,743,0,0
245,281,0,0,0,0,0,0,0,0,0,-1,1469,743,0,0
252,281,0,0,0,0,0,0,0,0,0,-1,1476,743,0,0
259,281,0,0,0,0,0,0,0,0,0,-1,1483,743,0,0
266,281,0,0,0,0,0,0,0,0,0,-1,1490,743,0,0
273,281,0,0,0,0,0,0,0,0,0,-1,1497,743,0,0
280,281,0,0,0,0,0,0,0,0,0,-1,1504,743,0,0
287,281,0,0,0,0,0,0,0,0,0,-1,1511,743,0,0
294,281,0,0,0,0,0,0,0,0,0,-1,1518,743,0,0
301,281,0,0,0,0,0,0,0,0,0,-1,1525,743,0,0
308,281,0,0,0,0,0,0,0,0,0,-1,1532,743,0,0
315,281,0,0,0,0,0,0,0,0,0,-1,1539,743,0,0
322,281,0,0,0,0,0,0,0,0,0,-1,1546,743,0,0
329,281,0,0,0,0,0,0,0,0,0,-1,1553,743,0,0
336,281,0,0,0,0,0,0,0,0,0,-1,1560,743,0,0
343,281,0,0,0,0,0,0,0,0,0,-1,1567,743,0,0
350,281,0,0,0,0,0,0,0,0,0,-1,1574,743,0,0
357,281,0,0,0,0,0,0,0,0,0,-1,1581,743,0,0
364,281,0,0,0,0,0,0,0,0,0,-1,1588,743,0,0
371,281,0,0,0,0,0,0,0,0,0,-1,1595,743,0,0
378,281,0,0,0,0,0,0,0,0,0,-1,1602,743,0,0
385,281,0,0,0,0,0,0,0,0,0,-1,1609,743,0,0
392,281,0,0,0,0,0,0,0,0,0,-1,1616,743,0,0
399,281,0,0,0,0,0,0,0,0,0,-1,1623,743,0,0
406,281,0,0,0,0,0,0,0,0,0,-1,1630,743,0,0
413,281,0,0,0,0,0,0,0,0,0,-1,1637,743,0,0
420,281,0,0,0,0,0,0,0,0,0,-1,1644,743,0,0
427,281,0,0,0,0,0,0,0,0,0,-1,1651,743,0,0
434,281,0,0,0,0,0,0,0,0,0,-1,1658,743,0,0
441,281,0,0,0,0,0,0,0,0,0,-1,1665,743,0,0
448,281,0,0,0,0,0,0,0,0,0,-1,1672,743,0,0
455,281,0,0,0,0,0,0,0,0,0,-1,1679,743,0,0
462,281,0,0,0,0,0,0,0,0,0,-1,1686,743,0,0
469,281,0,0,0,0,0,0,0,0,0,-1,1693,743,0,0
476,281,0,0,0,0,0,0,0,0,0,-1,1700,743,0,0
483,281,0,0,0,0,0,0,0,0,0,-1,1707,743,0,0
490,281,0,0,0,0,0,0,0,0,0,-1,1714,743,0,0
497,281,0,0,0,0,0,0,0,0,0,-1,1721,743,0,0
504,281,0,0,0,0,0,0,0,0,0,-1,1728,743,0,0
511,281,0,0,0,0,0,0,0,0,0,-1,1735,743,0,0
518,281,0,0,0,0,0,0,0,0,0,-1,1742,743,0,0
525,281,0,0,0,0,0,0,0,0,0,-1,1749,743,0,0
532,281,0,0,0,0,0,0,0,0,0,-1,1756,743,0,0
539,281,0,0,0,0,0,0,0,0,0,-1,1763,743,0,0
546,281,0,0,0,0,0,0,0,0,0,-1,1770,743,0,0
553,281,0,0,0,0,0,0,0,0,0,-1,1777,743,0,0
560,281,38.7803,3.34735,0,0,0,0,0,0,0,-1,1784,743,38.7802,-3.34733
567,281,39.0017,3.57471,0.0338603,0.0451941,-0.037702,0.0776527,0.00140162,-0.859994,0.0513077,0.0428807,1791,743,39.0018,-3.5747
574,281,39.1685,3.46973,0.0332985,0.03308,-0.0314623,0.0646518,0.0017267,-0.783662,0.0425373,0.0468192,1798,743,39.1684,-3.46973
581,281,39.4043,3.08752,0.0295173,0.0242658,-0.0246901,0.0517209,0.00206224,-0.732423,0.0338141,0.0471998,1805,743,39.4043,-3.08754
588,281,39.8359,2.50238,0.0251531,0.0173409,-0.0187335,0.0403834,0.00211062,-0.682616,0.026247,0.0444674,1812,743,39.8359,-2.50239
595,281,40.6888,2.02277,0,0,0,0,0,0,0,-1,1819,743,40.6888,-2.02277
602,281,30.1091,6.0744,0,0,0,0,0,0,0,-1,1826,743,30.1091,-6.07442
609,281,32.7925,1.28723,0,0,0,0,0,0,0,-1,1833,743,32.7925,-1.28722
616,281,21.3191,-0.253906,0,0,0,0,0,0,0,-1,1840,743,21.3191,0.253931
623,281,24.9783,-2.80432,0,0,0,0,0,0,0,-1,1847,743,24.9782,2.8043
630,281,25.1399,-2.40717,0.00597359,-0.00144107,-0.00109665,0.00613239,-0.00159987,-0.143802,0.00471295,0.0450139,1854,743,25.1399,2.40719
637,281,25.251,-1.96576,0.00348052,-0.00210468,0.000109056,0.00348265,-0.0021068,0.019516,0.0032595,0.0155094,1861,743,25.2509,1.96577
644,281,25.2754,-1.46582,0.000812323,-0.00173532,0.000923348,0.00111178,-0.00203477,0.31361,0.00184253,0.0112362,1868,743,25.2754,1.4658
651,281,25.2793,-0.983398,0.000692196,-0.00129569,0.000500235,0.000810979,-0.00141448,0.233135,0.00130052,0.0121795,1875,743,25.2793,0.983405
658,281,25.2529,-0.495239,0.000683689,-0.0006185,0.000186393,0.000709844,-0.000644655,0.13941,0.000782322,0.0212875,1882,743,25.2529,0.495248
665,281,25.1998,-0.0170288,2.93093e-05,-0.000165434,1.03216e-06,2.93148e-05,-0.000165439,0.00529993,0.000121251,0.0213081,1889,743,25.1999,0.0170279
672,281,25.2189,0.467896,-0.000601173,0.000308195,-0.000152892,0.000333212,-0.000626191,-1.4086,0.000562455,0.0125473,1896,743,25.2189,-0.467894
679,281,25.2159,0.937683,-0.000936184,0.000845099,-0.000106161,0.000851404,-0.000942489,-1.51148,0.00103615,0.0186118,1903,743,25.216,-0.937697
686,281,25.1798,1.39661,-0.00122357,0.00137042,-8.88674e-05,0.00137346,-0.00122661,-1.53659,0.00150195,0.0148496,1910,743,25.1799,-1.39663
693,281,25.1691,1.88983,-0.0011188,0.0018867,3.92975e-05,0.00188721,-0.00111932,1.55772,0.00175459,0.0113401,1917,743,25.1691,-1.88985
700,281,25.1389,2.39197,-0.000456603,0.00241947,0.000332449,0.0024574,-0.000494531,1.4572,0.00182557,0.0258517,1924,743,25.1389,-2.39194
707,281,25.1693,2.88336,0,0,0,0,0,0,0,-1,1931,743,25.1694,-2.88333
714,281,25.0125,2.5105,0,0,0,0,0,0,0,-1,1938,743,25.0124,-2.51053
721,281,16.9656,3.22174,0,0,0,0,0,0,0,-1,1945,743,16.9656,-3.22172
728,281,19.0251,3.63934,0,0,0,0,0,0,0,-1,1952,743,19.0252,-3.63932
735,281,19.0869,2.50311,0,0,0,0,0,0,0,-1,1959,743,19.0869,-2.5031
742,281,0,0,0,0,0,0,0,0,0,-1,1966,743,0,0
749,281,0,0,0,0,0,0,0,0,0,-1,1973,743,0,0
756,281,0,0,0,0,0,0,0,0,0,-1,1980,743,0,0
763,281,0,0,0,0,0,0,0,0,0,-1,1987,743,0,0
770,281,0,0,0,0,0,0,0,0,0,-1,1994,743,0,0
777,281,0,0,0,0,0,0,0,0,0,-1,2001,743,0,0
784,281,0,0,0,0,0,0,0,0,0,-1,2008,743,0,0
791,281,0,0,0,0,0,0,0,0,0,-1,2015,743,0,0
798,281,0,0,0,0,0,0,0,0,0,-1,2022,743,0,0
805,281,0,0,0,0,0,0,0,0,0,-1,2029,743,0,0
812,281,0,0,0,0,0,0,0,0,0,-1,2036,743,0,0
-700,274,0,0,0,0,0,0,0,0,0,-1,524,750,0,0
-693,274,0,0,0,0,0,0,0,0,0,-1,531,750,0,0
-686,274,0,0,0,0,0,0,0,0,0,-1,538,750,0,0
-679,274,0,0,0,0,0,0,0,0,0,-1,545,750,0,0
-672,274,0,0,0,0,0,0,0,0,0,-1,552,750,0,0
-665,274,0,0,0,0,0,0,0,0,0,-1,559,750,0,0
-658,274,0,0,0,0,0,0,0,0,0,-1,566,750,0,0
-651,274,0,0,0,0,0,0,0,0,0,-1,573,750,0,0
-644,274,0,0,0,0,0,0,0,0,0,-1,580,750,0,0
-637,274,0,0,0,0,0,0,0,0,0,-1,587,750,0,0
-630,274,0,0,0,0,0,0,0,0,0,-1,594,750,0,0
-623,274,-19.6909,5.12701,0,0,0,0,0,0,0,-1,601,750,-19.6908,-5.12703
-616,274,-17.9133,3.9024,0,0,0,0,0,0,0,-1,608,750,-17.9133,-3.90239
-609,274,-15.9735,4.90363,0,0,0,0,0,0,0,-1,615,750,-15.9735,-4.90364
-602,274,-16.0359,3.90887,0,0,0,0,0,0,0,-1,622,750,-16.0359,-3.90888
-595,274,-16.1497,2.9621,0,0,0,0,0,0,0,-1,629,750,-16.1497,-2.96207
-588,274,-16.4827,1.52832,0,0,0,0,0,0,0,-1,636,750,-16.4827,-1.52833
-581,274,-16.4894,0.894775,0.0047667,0.00282464,4.80164e-05,0.00476789,0.00282346,0.0247044,0.00276829,0.0428575,643,750,-16.4894,-0.894776
-574,274,-16.4642,0.222595,0.00298151,0.00227407,0.000365938,0.00313674,0.00211884,0.401188,0.00184781,0.021861,650,750,-16.4642,-0.222576
-567,274,-16.5915,-0.215454,0.00173824,0.00177473,0.000646937,0.00240368,0.00110929,0.799495,0.00138914,0.0213374,657,750,-16.5915,0.215476
-560,274,-16.5929,-0.627197,0.000861379,0.00117486,0.000828594,0.00186141,0.00017483,0.878875,0.00118696,0.0149594,664,750,-16.5929,0.627226
-553,274,-16.588,-1.08582,0.00021724,0.000593042,0.00105731,0.00147902,-0.000668737,0.873338,0.00126908,0.00961209,671,750,-16.588,1.08581
-546,274,-16.6084,-1.5354,-0.000213403,-2.24347e-06,0.00128108,0.0011776,-0.00139324,0.826513,0.00148601,0.0109966,678,750,-16.6084,1.53541
-539,274,-16.6191,-1.98376,-0.000588928,-0.000493341,0.00143601,0.000895669,-0.00197794,0.802033,0.00169785,0.0117949,685,750,-16.6191,1.98374
-532,274,-16.6338,-2.40692,-0.000816201,-0.00116038,0.00142693,0.00044898,-0.00242556,0.725388,0.00178561,0.0129322,692,750,-16.6338,2.40689
-525,274,-16.6542,-2.87457,-0.000727547,-0.00171058,0.0013128,0.000182734,-0.00262087,0.606274,0.00181123,0.013217,699,750,-16.6542,2.87456
-518,274,-16.6597,-3.36847,-0.00053977,-0.00220789,0.000900352,-0.00014652,-0.00260114,0.4118,0.00168738,0.0125124,706,750,-16.6597,3.36846
-511,274,-16.6704,-3.83405,-0.000232151,-0.00267814,0.000284588,-0.000199475,-0.00271082,0.114315,0.00174452,0.0131738,713,750,-16.6704,3.83405
-504,274,-16.7166,-4.30682,0.000339596,-0.00308508,-0.000708929,0.000480548,-0.00322603,-0.196264,0.00232746,0.025064,720,750,-16.7166,4.30681
-497,274,-16.7977,-4.78302,0,0,0,0,0,0,0,-1,727,750,-16.7977,4.78304
-490,274,-13.6545,-3.58826,0,0,0,0,0,0,0,-1,734,750,-13.6546,3.58825
-483,274,-23.535,-1.29095,0,0,0,0,0,0,0,-1,741,750,-23.535,1.29097
-476,274,-29.8504,0.812988,0,0,0,0,0,0,0,-1,748,750,-29.8504,-0.81298
-469,274,-24.744,4.28149,0,0,0,0,0,0,0,-1,755,750,-24.744,-4.28152
-462,274,-24.7831,3.53241,0,0,0,0,0,0,0,-1,762,750,-24.7832,-3.53241
-455,274,-24.6567,2.59772,0,0,0,0,0,0,0,-1,769,750,-24.6568,-2.5977
-448,274,-28.4673,0.724365,0,0,0,0,0,0,0,-1,776,750,-28.4673,-0.724381
-441,274,0,0,0,0,0,0,0,0,0,-1,783,750,0,0
-434,274,0,0,0,0,0,0,0,0,0,-1,790,750,0,0
-427,274,0,0,0,0,0,0,0,0,0,-1,797,750,0,0
-420,274,0,0,0,0,0,0,0,0,0,-1,804,750,0,0
-413,274,0,0,0,0,0,0,0,0,0,-1,811,750,0,0
-406,274,0,0,0,0,0,0,0,0,0,-1,818,750,0,0
-399,274,0,0,0,0,0,0,0,0,0,-1,825,750,0,0
-392,274,0,0,0,0,0,0,0,0,0,-1,832,750,0,0
-385,274,0,0,0,0,0,0,0,0,0,-1,839,750,0,0
-378,274,0,0,0,0,0,0,0,0,0,-1,846,750,0,0
-371,274,0,0,0,0,0,0,0,0,0,-1,853,750,0,0
-364,274,0,0,0,0,0,0,0,0,0,-1,860,750,0,0
-357,274,0,0,0,0,0,0,0,0,0,-1,867,750,0,0
-350,274,0,0,0,0,0,0,0,0,0,-1,874,750,0,0
-343,274,0,0,0,0,0,0,0,0,0,-1,881,750,0,0
-336,274,0,0,0,0,0,0,0,0,0,-1,888,750,0,0
-329,274,0,0,0,0,0,0,0,0,0,-1,895,750,0,0
-322,274,0,0,0,0,0,0,0,0,0,-1,902,750,0,0
-315,274,0,0,0,0,0,0,0,0,0,-1,909,750,0,0
-308,274,0,0,0,0,0,0,0,0,0,-1,916,750,0,0
-301,274,0,0,0,0,0,0,0,0,0,-1,923,750,0,0
-294,274,0,0,0,0,0,0,0,0,0,-1,930,750,0,0
-287,274,0,0,0,0,0,0,0,0,0,-1,937,750,0,0
-280,274,0,0,0,0,0,0,0,0,0,-1,944,750,0,0
-273,274,0,0,0,0,0,0,0,0,0,-1,951,750,0,0
-266,274,0,0,0,0,0,0,0,0,0,-1,958,750,0,0
-259,274,0,0,0,0,0,0,0,0,0,-1,965,750,0,0
-252,274,0,0,0,0,0,0,0,0,0,-1,972,750,0,0
-245,274,0,0,0,0,0,0,0,0,0,-1,979,750,0,0
-238,274,0,0,0,0,0,0,0,0,0,-1,986,750,0,0
-231,274,0,0,0,0,0,0,0,0,0,-1,993,750,0,0
-224,274,0,0,0,0,0,0,0,0,0,-1,1000,750,0,0
-217,274,0,0,0,0,0,0,0,0,0,-1,1007,750,0,0
-210,274,0,0,0,0,0,0,0,0,0,-1,1014,750,0,0
-203,274,0,0,0,0,0,0,0,0,0,-1,1021,750,0,0
-196,274,0,0,0,0,0,0,0,0,0,-1,1028,750,0,0
-189,274,0,0,0,0,0,0,0,0,0,-1,1035,750,0,0
-182,274,0,0,0,0,0,0,0,0,0,-1,1042,750,0,0
-175,274,0,0,0,0,0,0,0,0,0,-1,1049,750,0,0
-168,274,0,0,0,0,0,0,0,0,0,-1,1056,750,0,0
-161,274,0,0,0,0,0,0,0,0,0,-1,1063,750,0,0
-154,274,0,0,0,0,0,0,0,0,0,-1,1070,750,0,0
-147,274,0,0,0,0,0,0,0,0,0,-1,1077,750,0,0
-140,274,0,0,0,0,0,0,0,0,0,-1,1084,750,0,0
-133,274,0,0,0,0,0,0,0,0,0,-1,1091,750,0,0
-126,274,0,0,0,0,0,0,0,0,0,-1,1098,750,0,0
-119,274,0,0,0,0,0,0,0,0,0,-1,1105,750,0,0
-112,274,0,0,0,0,0,0,0,0,0,-1,1112,750,0,0
-105,274,0,0,0,0,0,0,0,0,0,-1,1119,750,0,0
-98,274,0,0,0,0,0,0,0,0,0,-1,1126,750,0,0
-91,274,0,0,0,0,0,0,0,0,0,-1,1133,750,0,0
-84,274,0,0,0,0,0,0,0,0,0,-1,1140,750,0,0
-77,274,0,0,0,0,0,0,0,0,0,-1,1147,750,0,0
-70,274,0,0,0,0,0,0,0,0,0,-1,1154,750,0,0
-63,274,0,0,0,0,0,0,0,0,0,-1,1161,750,0,0
-56,274,0,0,0,0,0,0,0,0,0,-1,1168,750,0,0
-49,274,0,0,0,0,0,0,0,0,0,-1,1175,750,0,0
-42,274,0,0,0,0,0,0,0,0,0,-1,1182,750,0,0
-35,274,0,0,0,0,0,0,0,0,0,-1,1189,750,0,0
-28,274,0,0,0,0,0,0,0,0,0,-1,1196,750,0,0
-21,274,0,0,0,0,0,0,0,0,0,-1,1203,750,0,0
-14,274,0,0,0,0,0,0,0,0,0,-1,1210,750,0,0
-7,274,0,0,0,0,0,0,0,0,0,-1,1217,750,0,0
0,274,0,0,0,0,0,0,0,0,0,-1,1224,750,0,0
7,274,0,0,0,0,0,0,0,0,0,-1,1231,750,0,0
14,274,0,0,0,0,0,0,0,0,0,-1,1238,750,0,0
21,274,0,0,0,0,0,0,0,0,0,-1,1245,750,0,0
28,274,0,0,0,0,0,0,0,0,0,-1,1252,750,0,0
35,274,0,0,0,0,0,0,0,0,0,-1,1259,750,0,0
42,274,0,0,0,0,0,0,0,0,0,-1,1266,750,0,0
49,274,0,0,0,0,0,0,0,0,0,-1,1273,750,0,0
56,274,0,0,0,0,0,0,0,0,0,-1,1280,750,0,0
63,274,0,0,0,0,0,0,0,0,0,-1,1287,750,0,0
70,274,0,0,0,0,0,0,0,0,0,-1,1294,750,0,0
77,274,0,0,0,0,0,0,0,0,0,-1,1301,750,0,0
84,274,0,0,0,0,0,0,0,0,0,-1,1308,750,0,0
91,274,0,0,0,0,0,0,0,0,0,-1,1315,750,0,0
98,274,0,0,0,0,0,0,0,0,0,-1,1322,750,0,0
105,274,0,0,0,0,0,0,0,0,0,-1,1329,750,0,0
112,274,0,0,0,0,0,0,0,0,0,-1,1336,750,0,0
119,274,0,0,0,0,0,0,0,0,0,-1,1343,750,0,0
126,274,0,0,0,0,0,0,0,0,0,-1,1350,750,0,0
133,274,0,0,0,0,0,0,0,0,0,-1,1357,750,0,0
140,274,0,0,0,0,0,0,0,0,0,-1,1364,750,0,0
147,274,0,0,0,0,0,0,0,0,0,-1,1371,750,0,0
154,274,0,0,0,0,0,0,0,0,0,-1,1378,750,0,0
161,274,0,0,0,0,0,0,0,0,0,-1,1385,750,0,0
168,274,0,0,0,0,0,0,0,0,0,-1,1392,750,0,0
175,274,0,0,0,0,0,0,0,0,0,-1,1399,750,0,0
182,274,0,0,0,0,0,0,0,0,0,-1,1406,750,0,0
189,274,0,0,0,0,0,0,0,0,0,-1,1413,750,0,0
196,274,0,0,0,0,0,0,0,0,0,-1,1420,750,0,0
203,274,0,0,0,0,0,0,0,0,0,-1,1427,750,0,0
210,274,0,0,0,0,0,0,0,0,0,-1,1434,750,0,0
217,274,0,0,0,0,0,0,0,0,0,-1,1441,750,0,0
224,274,0,0,0,0,0,0,0,0,0,-1,1448,750,0,0
231,274,0,0,0,0,0,0,0,0,0,-1,1455,750,0,0
238,274,0,0,0,0,0,0,0,0,0,-1,1462,750,0,0
245,274,0,0,0,0,0,0,0,0,0,-1,1469,750,0,0
252,274,0,0,0,0,0,0,0,0,0,-1,1476,750,0,0
259,274,0,0,0,0,0,0,0,0,0,-1,1483,750,0,0
266,274,0,0,0,0,0,0,0,0,0,-1,1490,750,0,0
273,274,0,0,0,0,0,0,0,0,0,-1,1497,750,0,0
280,274,0,0,0,0,0,0,0,0,0,-1,1504,750,0,0
287,274,0,0,0,0,0,0,0,0,0,-1,1511,750,0,0
294,274,0,0,0,0,0,0,0,0,0,-1,1518,750,0,0
301,274,0,0,0,0,0,0,0,0,0,-1,1525,750,0,0
308,274,0,0,0,0,0,0,0,0,0,-1,1532,750,0,0
315,274,0,0,0,0,0,0,0,0,0,-1,1539,750,0,0
322,274,0,0,0,0,0,0,0,0,0,-1,1546,750,0,0
329,274,0,0,0,0,0,0,0,0,0,-1,1553,750,0,0
336,274,0,0,0,0,0,0,0,0,0,-1,1560,750,0,0
343,274,0,0,0,0,0,0,0,0,0,-1,1567,750,0,0
350,274,0,0,0,0,0,0,0,0,0,-1,1574,750,0,0
357,274,0,0,0,0,0,0,0,0,0,-1,1581,750,0,0
364,274,0,0,0,0,0,0,0,0,0,-1,1588,750,0,0
371,274,0,0,0,0,0,0,0,0,0,-1,1595,750,0,0
378,274,0,0,0,0,0,0,0,0,0,-1,1602,750,0,0
385,274,0,0,0,0,0,0,0,0,0,-1,1609,750,0,0
392,274,0,0,0,0,0,0,0,0,0,-1,1616,750,0,0
399,274,0,0,0,0,0,0,0,0,0,-1,1623,750,0,0
406,274,0,0,0,0,0,0,0,0,0,-1,1630,750,0,0
413,274,0,0,0,0,0,0,0,0,0,-1,1637,750,0,0
420,274,0,0,0,0,0,0,0,0,0,-1,1644,750,0,0
427,274,0,0,0,0,0,0,0,0,0,-1,1651,750,0,0
434,274,0,0,0,0,0,0,0,0,0,-1,1658,750,0,0
441,274,0,0,0,0,0,0,0,0,0,-1,1665,750,0,0
448,274,0,0,0,0,0,0,0,0,0,-1,1672,750,0,0
455,274,0,0,0,0,0,0,0,0,0,-1,1679,750,0,0
462,274,0,0,0,0,0,0,0,0,0,-1,1686,750,0,0
469,274,0,0,0,0,0,0,0,0,0,-1,1693,750,0,0
476,274,0,0,0,0,0,0,0,0,0,-1,1700,750,0,0
483,274,0,0,0,0,0,0,0,0,0,-1,1707,750,0,0
490,274,0,0,0,0,0,0,0,0,0,-1,1714,750,0,0
497,274,0,0,0,0,0,0,0,0,0,-1,1721,750,0,0
504,274,0,0,0,0,0,0,0,0,0,-1,1728,750,0,0
511,274,0,0,0,0,0,0,0,0,0,-1,1735,750,0,0
518,274,0,0,0,0,0,0,0,0,0,-1,1742,750,0,0
525,274,0,0,0,0,0,0,0,0,0,-1,1749,750,0,0
532,274,0,0,0,0,0,0,0,0,0,-1,1756,750,0,0
539,274,0,0,0,0,0,0,0,0,0,-1,1763,750,0,0
546,274,0,0,0,0,0,0,0,0,0,-1,1770,750,0,0
553,274,0,0,0,0,0,0,0,0,0,-1,1777,750,0,0
560,274,39.4208,3.0462,0,0,0,0,0,0,0,-1,1784,750,39.4208,-3.04618
567,274,39.3633,3.2099,0.0290589,0.03997,-0.0300116,0.0650178,0.00401107,-0.875307,0.042072,0.0431162,1791,750,39.3632,-3.20987
574,274,39.5016,3.08441,0.0305591,0.0281586,-0.0264098,0.0557959,0.0029218,-0.762689,0.0362626,0.0454607,1798,750,39.5016,-3.08444
581,274,39.6552,2.79694,0.0273917,0.0202938,-0.0211837,0.0453217,0.00236376,-0.702403,0.0294582,0.0433602,1805,750,39.6552,-2.79691
588,274,40.0696,2.5705,0.0234144,0.0144647,-0.0163412,0.0358823,0.00199679,-0.651756,0.0232845,0.0446599,1812,750,40.0696,-2.57048
595,274,40.7767,2.50806,0,0,0,0,0,0,0,-1,1819,750,40.7767,-2.50803
602,274,39.6847,2.47168,0,0,0,0,0,0,0,-1,1826,750,39.6847,-2.47171
609,274,39.9415,3.19849,0,0,0,0,0,0,0,-1,1833,750,39.9416,-3.1985
616,274,32.7869,1.78436,0,0,0,0,0,0,0,-1,1840,750,32.7868,-1.78437
623,274,24.8231,-1.80353,0,0,0,0,0,0,0,-1,1847,750,24.8232,1.80351
630,274,25.7119,-2.47705,0,0,0,0,0,0,0,-1,1854,750,25.7119,2.47705
637,274,25.709,-1.95935,0.00293026,-0.00143894,0.000257654,0.0029454,-0.00145409,0.0586993,0.00258823,0.0160602,1861,750,25.709,1.95935
644,274,25.73,-1.45313,0.0003285,-0.00118389,0.000981782,0.000811549,-0.00166694,0.457237,0.00145909,0.0123011,1868,750,25.73,1.45311
651,274,25.7344,-0.984863,0.000394506,-0.000954268,0.000499018,0.000559057,-0.00111882,0.318522,0.000986528,0.014212,1875,750,25.7343,0.984839
658,274,25.7157,-0.518921,0.000702413,-0.000430943,0.000136559,0.000718635,-0.000447165,0.118236,0.000679131,0.0175498,1882,750,25.7157,0.518915
665,274,25.7056,-0.0263672,0.000318303,-0.000155259,-5.19649e-05,0.000323938,-0.000160894,-0.10802,0.000285145,0.0160391,1889,750,25.7055,0.0263524
672,274,25.7084,0.49585,-4.34304e-05,0.000191202,-0.000159873,0.000272185,-0.000124413,-1.10193,0.000234214,0.0131245,1896,750,25.7084,-0.495872
679,274,25.6915,0.975769,-0.000121627,0.000674775,-4.28551e-05,0.000677075,-0.000123926,-1.51719,0.00049786,0.0143622,1903,750,25.6915,-0.975787
686,274,25.6708,1.44574,-0.000133201,0.00124685,6.34276e-05,0.00124976,-0.00013611,1.52496,0.000882048,0.0160537,1910,750,25.6708,-1.44575
693,274,25.6477,1.91681,0.000228442,0.00185178,0.000295527,0.00190391,0.000176316,1.39621,0.00121477,0.0125077,1917,750,25.6476,-1.91681
700,274,25.6398,2.42505,0.00113938,0.0024304,0.000691133,0.00273059,0.000839186,1.16104,0.00161505,0.0141875,1924,750,25.6398,-2.42503
707,274,25.5945,2.9137,0.00283302,0.00307471,0.00145969,0.00441854,0.00148918,0.826699,0.00259582,0.0247106,1931,750,25.5944,-2.91368
714,274,25.5314,3.40308,0,0,0,0,0,0,0,-1,1938,750,25.5314,-3.40308
721,274,25.6215,3.91144,0,0,0,0,0,0,0,-1,1945,750,25.6214,-3.91141
728,274,19.2209,3.95154,0,0,0,0,0,0,0,-1,1952,750,19.221,-3.95151
735,274,20.6608,4.10931,0,0,0,0,0,0,0,-1,1959,750,20.6607,-4.10932
742,274,11.7815,-0.740234,0,0,0,0,0,0,0,-1,1966,750,11.7815,0.740253
749,274,0,0,0,0,0,0,0,0,0,-1,1973,750,0,0
756,274,0,0,0,0,0,0,0,0,0,-1,1980,750,0,0
763,274,0,0,0,0,0,0,0,0,0,-1,1987,750,0,0
770,274,0,0,0,0,0,0,0,0,0,-1,1994,750,0,0
777,274,0,0,0,0,0,0,0,0,0,-1,2001,750,0,0
784,274,0,0,0,0,0,0,0,0,0,-1,2008,750,0,0
791,274,0,0,0,0,0,0,0,0,0,-1,2015,750,0,0
798,274,0,0,0,0,0,0,0,0,0,-1,2022,750,0,0
805,274,0,0,0,0,0,0,0,0,0,-1,2029,750,0,0
812,274,0,0,0,0,0,0,0,0,0,-1,2036,750,0,0
-700,267,0,0,0,0,0,0,0,0,0,-1,524,757,0,0
-693,267,0,0,0,0,0,0,0,0,0,-1,531,757,0,0
-686,267,0,0,0,0,0,0,0,0,0,-1,538,757,0,0
-679,267,0,0,0,0,0,0,0,0,0,-1,545,757,0,0
-672,267,0,0,0,0,0,0,0,0,0,-1,552,757,0,0
-665,267,0,0,0,0,0,0,0,0,0,-1,559,757,0,0
-658,267,0,0,0,0,0,0,0,0,0,-1,566,757,0,0
-651,267,0,0,0,0,0,0,0,0,0,-1,573,757,0,0
-644,267,0,0,0,0,0,0,0,0,0,-1,580,757,0,0
-637,267,0,0,0,0,0,0,0,0,0,-1,587,757,0,0
-630,267,-21.3979,5.17529,0,0,0,0,0,0,0,-1,594,757,-21.3979,-5.17529
-623,267,-20.043,4.43115,0,0,0,0,0,0,0,-1,601,757,-20.043,-4.43116
-616,267,-16.5916,4.92358,0,0,0,0,0,0,0,-1,608,757,-16.5916,-4.9236
-609,267,-16.585,4.10229,0,0,0,0,0,0,0,-1,615,757,-16.585,-4.10229
-602,267,-16.6519,3.27295,0,0,0,0,0,0,0,-1,622,757,-16.6519,-3.27294
-595,267,-16.636,1.84229,0,0,0,0,0,0,0,-1,629,757,-16.636,-1.84228
-588,267,-16.8842,1.54169,0,0,0,0,0,0,0,-1,636,757,-16.8841,-1.54167
-581,267,-16.9152,0.856934,0.00566795,0.00228898,-0.000432273,0.00572238,0.00223455,-0.125243,0.00333012,0.0319565,643,757,-16.9152,-0.85694
-574,267,-16.9506,0.30365,0.00370485,0.00184616,-4.55591e-05,0.00370597,0.00184505,-0.0244918,0.00213965,0.018729,650,757,-16.9507,-0.303625
-567,267,-17.0322,-0.137329,0.00226001,0.00138727,0.000333276,0.00237273,0.00127456,0.326121,0.00137115,0.0246955,657,757,-17.0321,0.137315
-560,267,-17.0426,-0.572815,0.00117402,0.000821837,0.000655443,0.00167661,0.000319242,0.654168,0.00102799,0.0227303,664,757,-17.0426,0.572803
-553,267,-17.0433,-1.03979,0.000341928,0.000223899,0.00101429,0.00129891,-0.000733087,0.756339,0.00118824,0.0182102,671,757,-17.0432,1.03977
-546,267,-17.0661,-1.5177,-0.000254313,-0.00034424,0.00137416,0.00107562,-0.00167417,0.769044,0.00160008,0.0119712,678,757,-17.0661,1.51769
-539,267,-17.0716,-1.98572,-0.000786351,-0.000749807,0.00157752,0.000809546,-0.0023457,0.791189,0.00189228,0.0114815,685,757,-17.0716,1.9857
-532,267,-17.0607,-2.4223,-0.00107061,-0.00131847,0.00156617,0.000376522,-0.0027656,0.745917,0.0019812,0.011482,692,757,-17.0606,2.42233
-525,267,-17.1031,-2.86139,-0.000909524,-0.00173679,0.00138927,0.00012638,-0.00277269,0.64071,0.001892,0.0109214,699,757,-17.1031,2.86136
-518,267,-17.1237,-3.33087,-0.000666303,-0.00207454,0.00083682,-0.00027678,-0.00246406,0.435652,0.00155866,0.0112144,706,757,-17.1236,3.3309
-511,267,-17.103,-3.7934,-0.000206339,-0.00234678,3.89719e-05,-0.000205629,-0.00234749,0.0181994,0.00150115,0.0163689,713,757,-17.103,3.79341
-504,267,-17.1371,-4.11279,0.000580053,-0.00255525,-0.00117013,0.000968605,-0.0029438,-0.320603,0.00235283,0.0298957,720,757,-17.1371,4.11282
-497,267,-17.215,-4.38391,0,0,0,0,0,0,0,-1,727,757,-17.215,4.38393
-490,267,-23.4949,-0.494995,0,0,0,0,0,0,0,-1,734,757,-23.4949,0.494981
-483,267,-29.1694,0.991272,0,0,0,0,0,0,0,-1,741,757,-29.1694,-0.991267
-476,267,-29.5039,0.795105,0,0,0,0,0,0,0,-1,748,757,-29.5039,-0.795124
-469,267,-30.0829,0.613953,0,0,0,0,0,0,0,-1,755,757,-30.0829,-0.613925
-462,267,-29.5515,0.682861,0,0,0,0,0,0,0,-1,762,757,-29.5515,-0.682878
-455,267,-29.572,0.359924,0,0,0,0,0,0,0,-1,769,757,-29.572,-0.359897
-448,267,-28.3156,0.710632,0,0,0,0,0,0,0,-1,776,757,-28.3155,-0.710612
-441,267,0,0,0,0,0,0,0,0,0,-1,783,757,0,0
-434,267,0,0,0,0,0,0,0,0,0,-1,790,757,0,0
-427,267,0,0,0,0,0,0,0,0,0,-1,797,757,0,0
-420,267,0,0,0,0,0,0,0,0,0,-1,804,757,0,0
-413,267,0,0,0,0,0,0,0,0,0,-1,811,757,0,0
-406,267,0,0,0,0,0,0,0,0,0,-1,818,757,0,0
-399,267,0,0,0,0,0,0,0,0,0,-1,825,757,0,0
-392,267,0,0,0,0,0,0,0,0,0,-1,832,757,0,0
-385,267,0,0,0,0,0,0,0,0,0,-1,839,757,0,0
-378,267,0,0,0,0,0,0,0,0,0,-1,846,757,0,0
-371,267,0,0,0,0,0,0,0,0,0,-1,853,757,0,0
-364,267,0,0,0,0,0,0,0,0,0,-1,860,757,0,0
-357,267,0,0,0,0,0,0,0,0,0,-1,867,757,0,0
-350,267,0,0,0,0,0,0,0,0,0,-1,874,757,0,0
-343,267,0,0,0,0,0,0,0,0,0,-1,881,757,0,0
-336,267,0,0,0,0,0,0,0,0,0,-1,888,757,0,0
-329,267,0,0,0,0,0,0,0,0,0,-1,895,757,0,0
-322,267,0,0,0,0,0,0,0,0,0,-1,902,757,0,0
-315,267,0,0,0,0,0,0,0,0,0,-1,909,757,0,0
-308,267,0,0,0,0,0,0,0,0,0,-1,916,757,0,0
-301,267,0,0,0,0,0,0,0,0,0,-1,923,757,0,0
-294,267,0,0,0,0,0,0,0,0,0,-1,930,757,0,0
-287,267,0,0,0,0,0,0,0,0,0,-1,937,757,0,0
-280,267,0,0,0,0,0,0,0,0,0,-1,944,757,0,0
-273,267,0,0,0,0,0,0,0,0,0,-1,951,757,0,0
-266,267,0,0,0,0,0,0,0,0,0,-1,958,757,0,0
-259,267,0,0,0,0,0,0,0,0,0,-1,965,757,0,0
-252,267,0,0,0,0,0,0,0,0,0,-1,972,757,0,0
-245,267,0,0,0,0,0,0,0,0,0,-1,979,757,0,0
-238,267,0,0,0,0,0,0,0,0,0,-1,986,757,0,0
-231,267,0,0,0,0,0,0,0,0,0,-1,993,757,0,0
-224,267,0,0,0,0,0,0,0,0,0,-1,1000,757,0,0
-217,267,0,0,0,0,0,0,0,0,0,-1,1007,757,0,0
-210,267,0,0,0,0,0,0,0,0,0,-1,1014,757,0,0
-203,267,0,0,0,0,0,0,0,0,0,-1,1021,757,0,0
-196,267,0,0,0,0,0,0,0,0,0,-1,1028,757,0,0
-189,267,0,0,0,0,0,0,0,0,0,-1,1035,757,0,0
-182,267,0,0,0,0,0,0,0,0,0,-1,1042,757,0,0
-175,267,0,0,0,0,0,0,0,0,0,-1,1049,757,0,0
-168,267,0,0,0,0,0,0,0,0,0,-1,1056,757,0,0
-161,267,0,0,0,0,0,0,0,0,0,-1,1063,757,0,0
-154,267,0,0,0,0,0,0,0,0,0,-1,1070,757,0,0
-147,267,0,0,0,0,0,0,0,0,0,-1,1077,757,0,0
-140,267,0,0,0,0,0,0,0,0,0,-1,1084,757,0,0
-133,267,0,0,0,0,0,0,0,0,0,-1,1091,757,0,0
-126,267,0,0,0,0,0,0,0,0,0,-1,1098,757,0,0
-119,267,0,0,0,0,0,0,0,0,0,-1,1105,757,0,0
-112,267,0,0,0,0,0,0,0,0,0,-1,1112,757,0,0
-105,267,0,0,0,0,0,0,0,0,0,-1,1119,757,0,0
-98,267,0,0,0,0,0,0,0,0,0,-1,1126,757,0,0
-91,267,0,0,0,0,0,0,0,0,0,-1,1133,757,0,0
-84,267,0,0,0,0,0,0,0,0,0,-1,1140,757,0,0
-77,267,0,0,0,0,0,0,0,0,0,-1,1147,757,0,0
-70,267,0,0,0,0,0,0,0,0,0,-1,1154,757,0,0
-63,267,0,0,0,0,0,0,0,0,0,-1,1161,757,0,0
-56,267,0,0,0,0,0,0,0,0,0,-1,1168,757,0,0
-49,267,0,0,0,0,0,0,0,0,0,-1,1175,757,0,0
-42,267,0,0,0,0,0,0,0,0,0,-1,1182,757,0,0
-35,267,0,0,0,0,0,0,0,0,0,-1,1189,757,0,0
-28,267,0,0,0,0,0,0,0,0,0,-1,1196,757,0,0
-21,267,0,0,0,0,0,0,0,0,0,-1,1203,757,0,0
-14,267,0,0,0,0,0,0,0,0,0,-1,1210,757,0,0
-7,267,0,0,0,0,0,0,0,0,0,-1,1217,757,0,0
0,267,0,0,0,0,0,0,0,0,0,-1,1224,757,0,0
7,267,0,0,0,0,0,0,0,0,0,-1,1231,757,0,0
14,267,0,0,0,0,0,0,0,0,0,-1,1238,757,0,0
21,267,0,0,0,0,0,0,0,0,0,-1,1245,757,0,0
28,267,0,0,0,0,0,0,0,0,0,-1,1252,757,0,0
35,267,0,0,0,0,0,0,0,0,0,-1,1259,757,0,0
42,267,0,0,0,0,0,0,0,0,0,-1,1266,757,0,0
49,267,0,0,0,0,0,0,0,0,0,-1,1273,757,0,0
56,267,0,0,0,0,0,0,0,0,0,-1,1280,757,0,0
63,267,0,0,0,0,0,0,0,0,0,-1,1287,757,0,0
70,267,0,0,0,0,0,0,0,0,0,-1,1294,757,0,0
77,267,0,0,0,0,0,0,0,0,0,-1,1301,757,0,0
84,267,0,0,0,0,0,0,0,0,0,-1,1308,757,0,0
91,267,0,0,0,0,0,0,0,0,0,-1,1315,757,0,0
98,267,0,0,0,0,0,0,0,0,0,-1,1322,757,0,0
105,267,0,0,0,0,0,0,0,0,0,-1,1329,757,0,0
112,267,0,0,0,0,0,0,0,0,0,-1,1336,757,0,0
119,267,0,0,0,0,0,0,0,0,0,-1,1343,757,0,0
126,267,0,0,0,0,0,0,0,0,0,-1,1350,757,0,0
133,267,0,0,0,0,0,0,0,0,0,-1,1357,757,0,0
140,267,0,0,0,0,0,0,0,0,0,-1,1364,757,0,0
147,267,0,0,0,0,0,0,0,0,0,-1,1371,757,0,0
154,267,0,0,0,0,0,0,0,0,0,-1,1378,757,0,0
161,267,0,0,0,0,0,0,0,0,0,-1,1385,757,0,0
168,267,0,0,0,0,0,0,0,0,0,-1,1392,757,0,0
175,267,0,0,0,0,0,0,0,0,0,-1,1399,757,0,0
182,267,0,0,0,0,0,0,0,0,0,-1,1406,757,0,0
189,267,0,0,0,0,0,0,0,0,0,-1,1413,757,0,0
196,267,0,0,0,0,0,0,0,0,0,-1,1420,757,0,0
203,267,0,0,0,0,0,0,0,0,0,-1,1427,757,0,0
210,267,0,0,0,0,0,0,0,0,0,-1,1434,757,0,0
217,267,0,0,0,0,0,0,0,0,0,-1,1441,757,0,0
224,267,0,0,0,0,0,0,0,0,0,-1,1448,757,0,0
231,267,0,0,0,0,0,0,0,0,0,-1,1455,757,0,0
238,267,0,0,0,0,0,0,0,0,0,-1,1462,757,0,0
245,267,0,0,0,0,0,0,0,0,0,-1,1469,757,0,0
252,267,0,0,0,0,0,0,0,0,0,-1,1476,757,0,0
259,267,0,0,0,0,0,0,0,0,0,-1,1483,757,0,0
266,267,0,0,0,0,0,0,0,0,0,-1,1490,757,0,0
273,267,0,0,0,0,0,0,0,0,0,-1,1497,757,0,0
280,267,0,0,0,0,0,0,0,0,0,-1,1504,757,0,0
287,267,0,0,0,0,0,0,0,0,0,-1,1511,757,0,0
294,267,0,0,0,0,0,0,0,0,0,-1,1518,757,0,0
301,267,0,0,0,0,0,0,0,0,0,-1,1525,757,0,0
308,267,0,0,0,0,0,0,0,0,0,-1,1532,757,0,0
315,267,0,0,0,0,0,0,0,0,0,-1,1539,757,0,0
322,267,0,0,0,0,0,0,0,0,0,-1,1546,757,0,0
329,267,0,0,0,0,0,0,0,0,0,-1,1553,757,0,0
336,267,0,0,0,0,0,0,0,0,0,-1,1560,757,0,0
343,267,0,0,0,0,0,0,0,0,0,-1,1567,757,0,0
350,267,0,0,0,0,0,0,0,0,0,-1,1574,757,0,0
357,267,0,0,0,0,0,0,0,0,0,-1,1581,757,0,0
364,267,0,0,0,0,0,0,0,0,0,-1,1588,757,0,0
371,267,0,0,0,0,0,0,0,0,0,-1,1595,757,0,0
378,267,0,0,0,0,0,0,0,0,0,-1,1602,757,0,0
385,267,0,0,0,0,0,0,0,0,0,-1,1609,757,0,0
392,267,0,0,0,0,0,0,0,0,0,-1,1616,757,0,0
399,267,0,0,0,0,0,0,0,0,0,-1,1623,757,0,0
406,267,0,0,0,0,0,0,0,0,0,-1,1630,757,0,0
413,267,0,0,0,0,0,0,0,0,0,-1,1637,757,0,0
420,267,0,0,0,0,0,0,0,0,0,-1,1644,757,0,0
427,267,0,0,0,0,0,0,0,0,0,-1,1651,757,0,0
434,267,0,0,0,0,0,0,0,0,0,-1,1658,757,0,0
441,267,0,0,0,0,0,0,0,0,0,-1,1665,757,0,0
448,267,0,0,0,0,0,0,0,0,0,-1,1672,757,0,0
455,267,0,0,0,0,0,0,0,0,0,-1,1679,757,0,0
462,267,0,0,0,0,0,0,0,0,0,-1,1686,757,0,0
469,267,0,0,0,0,0,0,0,0,0,-1,1693,757,0,0
476,267,0,0,0,0,0,0,0,0,0,-1,1700,757,0,0
483,267,0,0,0,0,0,0,0,0,0,-1,1707,757,0,0
490,267,0,0,0,0,0,0,0,0,0,-1,1714,757,0,0
497,267,0,0,0,0,0,0,0,0,0,-1,1721,757,0,0
504,267,0,0,0,0,0,0,0,0,0,-1,1728,757,0,0
511,267,0,0,0,0,0,0,0,0,0,-1,1735,757,0,0
518,267,0,0,0,0,0,0,0,0,0,-1,1742,757,0,0
525,267,0,0,0,0,0,0,0,0,0,-1,1749,757,0,0
532,267,0,0,0,0,0,0,0,0,0,-1,1756,757,0,0
539,267,0,0,0,0,0,0,0,0,0,-1,1763,757,0,0
546,267,0,0,0,0,0,0,0,0,0,-1,1770,757,0,0
553,267,0,0,0,0,0,0,0,0,0,-1,1777,757,0,0
560,267,0,0,0,0,0,0,0,0,0,-1,1784,757,0,0
567,267,39.6353,2.94354,0.0219331,0.0368106,-0.0221657,0.0527525,0.00599124,-0.947291,0.0333511,0.0402681,1791,757,39.6353,-2.94355
574,267,39.6718,2.88422,0.025994,0.0246827,-0.020752,0.0461007,0.00457603,-0.769606,0.0293277,0.0426311,1798,757,39.6717,-2.88424
581,267,39.6626,2.86761,0.0241779,0.0173064,-0.0171625,0.0382452,0.0032391,-0.68661,0.0244886,0.0430653,1805,757,39.6626,-2.86762
588,267,40.2406,2.70074,0.020872,0.0121901,-0.0133652,0.0305835,0.00247862,-0.628374,0.0196151,0.0475994,1812,757,40.2406,-2.70072
595,267,40.7328,2.41791,0,0,0,0,0,0,0,-1,1819,757,40.7328,-2.4179
602,267,39.8379,2.29242,0,0,0,0,0,0,0,-1,1826,757,39.8379,-2.29243
609,267,39.7773,2.7196,0,0,0,0,0,0,0,-1,1833,757,39.7773,-2.71959
616,267,39.3645,3.42389,0,0,0,0,0,0,0,-1,1840,757,39.3646,-3.42389
623,267,24.1475,-1.1391,0,0,0,0,0,0,0,-1,1847,757,24.1475,1.13913
630,267,26.3108,-2.21448,0,0,0,0,0,0,0,-1,1854,757,26.3108,2.21446
637,267,26.2217,-1.82867,0.0026152,-0.000872822,0.000483083,0.00268087,-0.000938492,0.13511,0.00216885,0.0328044,1861,757,26.2216,1.82867
644,267,26.208,-1.42883,0.000168627,-0.000645871,0.00107971,0.000915337,-0.00139258,0.605056,0.00134194,0.0129937,1868,757,26.208,1.42883
651,267,26.217,-0.977844,0.000293989,-0.000561452,0.000556921,0.000568484,-0.000835946,0.457934,0.000815735,0.0150833,1875,757,26.217,0.977865
658,267,26.2168,-0.50592,0.000757445,-0.00015129,0.000132291,0.000776312,-0.000170157,0.141661,0.000582602,0.0155324,1882,757,26.2168,0.505933
665,267,26.2069,-0.00189209,0.000504821,-5.16219e-05,-0.000106326,0.000524446,-7.12469e-05,-0.182519,0.000375639,0.014881,1889,757,26.207,0.00186633
672,267,26.205,0.507263,0.000287731,0.000137294,-0.000206777,0.000432546,-7.52026e-06,-0.610956,0.000290903,0.0129533,1896,757,26.205,-0.50728
679,267,26.1722,0.989319,0.000334441,0.000528936,-6.61838e-05,0.000549321,0.000314057,-1.27201,0.000318236,0.0130255,1903,757,26.1723,-0.989308
686,267,26.1642,1.46918,0.000490153,0.00112397,0.000101162,0.00113972,0.000474399,1.4163,0.00066109,0.0138572,1910,757,26.1642,-1.46915
693,267,26.1342,1.91827,0.00103127,0.00178558,0.00042031,0.00197314,0.000843704,1.15107,0.00114317,0.0134435,1917,757,26.1341,-1.9183
700,267,26.1117,2.39661,0.00208437,0.00241261,0.000897916,0.00316128,0.0013357,0.87579,0.00183246,0.0135994,1924,757,26.1116,-2.39661
707,267,26.106,2.8598,0.0038442,0.00306083,0.00170453,0.00520147,0.00170356,0.672462,0.00306205,0.0138168,1931,757,26.1059,-2.85981
714,267,26.2413,3.26672,0.0064889,0.00361655,0.00286284,0.00825561,0.00184984,0.552911,0.00500246,0.0323121,1938,757,26.2413,-3.26675
721,267,26.4044,3.65161,0,0,0,0,0,0,0,-1,1945,757,26.4044,-3.65158
728,267,26.7886,3.90027,0,0,0,0,0,0,0,-1,1952,757,26.7886,-3.90028
735,267,24.6713,2.82483,0,0,0,0,0,0,0,-1,1959,757,24.6713,-2.82483
742,267,18.1177,3.56561,0,0,0,0,0,0,0,-1,1966,757,18.1176,-3.56564
749,267,0,0,0,0,0,0,0,0,0,-1,1973,757,0,0
756,267,0,0,0,0,0,0,0,0,0,-1,1980,757,0,0
763,267,0,0,0,0,0,0,0,0,0,-1,1987,757,0,0
770,267,0,0,0,0,0,0,0,0,0,-1,1994,757,0,0
777,267,0,0,0,0,0,0,0,0,0,-1,2001,757,0,0
784,267,0,0,0,0,0,0,0,0,0,-1,2008,757,0,0
791,267,0,0,0,0,0,0,0,0,0,-1,2015,757,0,0
798,267,0,0,0,0,0,0,0,0,0,-1,2022,757,0,0
805,267,0,0,0,0,0,0,0,0,0,-1,2029,757,0,0
812,267,0,0,0,0,0,0,0,0,0,-1,2036,757,0,0
-700,260,0,0,0,0,0,0,0,0,0,-1,524,764,0,0
-693,260,0,0,0,0,0,0,0,0,0,-1,531,764,0,0
-686,260,0,0,0,0,0,0,0,0,0,-1,538,764,0,0
-679,260,0,0,0,0,0,0,0,0,0,-1,545,764,0,0
-672,260,0,0,0,0,0,0,0,0,0,-1,552,764,0,0
-665,260,0,0,0,0,0,0,0,0,0,-1,559,764,0,0
-658,260,0,0,0,0,0,0,0,0,0,-1,566,764,0,0
-651,260,0,0,0,0,0,0,0,0,0,-1,573,764,0,0
-644,260,0,0,0,0,0,0,0,0,0,-1,580,764,0,0
-637,260,0,0,0,0,0,0,0,0,0,-1,587,764,0,0
-630,260,-21.8905,4.49341,0,0,0,0,0,0,0,-1,594,764,-21.8905,-4.49342
-623,260,-20.3127,3.53546,0,0,0,0,0,0,0,-1,601,764,-20.3127,-3.53544
-616,260,-17.5065,4.04523,0,0,0,0,0,0,0,-1,608,764,-17.5065,-4.04522
-609,260,-17.1965,3.30096,0,0,0,0,0,0,0,-1,615,764,-17.1965,-3.30094
-602,260,-17.8611,2.58118,0,0,0,0,0,0,0,-1,622,764,-17.8611,-2.58116
-595,260,-17.771,1.82092,0,0,0,0,0,0,0,-1,629,764,-17.771,-1.8209
-588,260,-17.6348,1.2135,0.0087785,0.00210833,-0.00109148,0.00895256,0.00193427,-0.158143,0.00543949,0.0423887,636,764,-17.6348,-1.21348
-581,260,-17.4826,0.705383,0.0060251,0.00188247,-0.0006032,0.00611115,0.00179643,-0.141689,0.00362675,0.0238141,643,764,-17.4826,-0.705384
-574,260,-17.4711,0.305908,0.00409179,0.00150448,-0.00020933,0.00410862,0.00148766,-0.0802111,0.002402,0.0159242,650,764,-17.4711,-0.305923
-567,260,-17.4783,-0.110229,0.00257545,0.00104734,0.000213485,0.00260471,0.00101808,0.136231,0.00151573,0.016963,657,764,-17.4783,0.110212
-560,260,-17.5054,-0.558289,0.00136104,0.000479341,0.000631762,0.00169056,0.000149818,0.480772,0.00108057,0.0198837,664,764,-17.5054,0.558318
-553,260,-17.5039,-1.02191,0.000393295,-0.000145951,0.00107211,0.00122917,-0.000981825,0.662209,0.00127918,0.017538,671,764,-17.5039,1.02192
-546,260,-17.5108,-1.49078,-0.000361101,-0.000701368,0.00152413,0.00100237,-0.00206484,0.729815,0.00180592,0.0116376,678,764,-17.5108,1.49079
-539,260,-17.5037,-1.9422,-0.00102328,-0.0010068,0.00171063,0.000695609,-0.00272568,0.787807,0.00208798,0.0120184,685,764,-17.5037,1.94221
-532,260,-17.4935,-2.36359,-0.00130158,-0.00143046,0.00165765,0.000292887,-0.00302492,0.765971,0.00212099,0.0149798,692,764,-17.4935,2.36356
-525,260,-17.5437,-2.84546,-0.000994975,-0.00168932,0.00141232,0.000112213,-0.00279651,0.664879,0.00190285,0.0135072,699,764,-17.5437,2.84547
-518,260,-17.5878,-3.28796,-0.000664751,-0.00183858,0.000759636,-0.000291709,-0.00221162,0.456485,0.00138744,0.0154224,706,764,-17.5878,3.28797
-511,260,-17.5557,-3.70386,-2.42924e-05,-0.0018964,-0.00012055,-1.65618e-05,-0.00190413,-0.06404,0.00126394,0.0277869,713,764,-17.5557,3.70386
-504,260,-17.5786,-4.11267,0,0,0,0,0,0,0,-1,720,764,-17.5786,4.1127
-497,260,-16.6542,-3.67334,0,0,0,0,0,0,0,-1,727,764,-16.6542,3.67331
-490,260,-25.7501,2.04382,0,0,0,0,0,0,0,-1,734,764,-25.7501,-2.04381
-483,260,-28.7592,0.94574,0,0,0,0,0,0,0,-1,741,764,-28.7592,-0.945747
-476,260,-29.1459,0.773682,0,0,0,0,0,0,0,-1,748,764,-29.146,-0.77369
-469,260,-29.6325,0.642273,0,0,0,0,0,0,0,-1,755,764,-29.6325,-0.642261
-462,260,-29.392,0.626282,0,0,0,0,0,0,0,-1,762,764,-29.392,-0.626271
-455,260,-29.2994,0.530151,0,0,0,0,0,0,0,-1,769,764,-29.2994,-0.530145
-448,260,0,0,0,0,0,0,0,0,0,-1,776,764,0,0
-441,260,0,0,0,0,0,0,0,0,0,-1,783,764,0,0
-434,260,0,0,0,0,0,0,0,0,0,-1,790,764,0,0
-427,260,0,0,0,0,0,0,0,0,0,-1,797,764,0,0
-420,260,0,0,0,0,0,0,0,0,0,-1,804,764,0,0
-413,260,0,0,0,0,0,0,0,0,0,-1,811,764,0,0
-406,260,0,0,0,0,0,0,0,0,0,-1,818,764,0,0
-399,260,0,0,0,0,0,0,0,0,0,-1,825,764,0,0
-392,260,0,0,0,0,0,0,0,0,0,-1,832,764,0,0
-385,260,0,0,0,0,0,0,0,0,0,-1,839,764,0,0
-378,260,0,0,0,0,0,0,0,0,0,-1,846,764,0,0
-371,260,0,0,0,0,0,0,0,0,0,-1,853,764,0,0
-364,260,0,0,0,0,0,0,0,0,0,-1,860,764,0,0
-357,260,0,0,0,0,0,0,0,0,0,-1,867,764,0,0
-350,260,0,0,0,0,0,0,0,0,0,-1,874,764,0,0
-343,260,0,0,0,0,0,0,0,0,0,-1,881,764,0,0
-336,260,0,0,0,0,0,0,0,0,0,-1,888,764,0,0
-329,260,0,0,0,0,0,0,0,0,0,-1,895,764,0,0
-322,260,0,0,0,0,0,0,0,0,0,-1,902,764,0,0
-315,260,0,0,0,0,0,0,0,0,0,-1,909,764,0,0
-308,260,0,0,0,0,0,0,0,0,0,-1,916,764,0,0
-301,260,0,0,0,0,0,0,0,0,0,-1,923,764,0,0
-294,260,0,0,0,0,0,0,0,0,0,-1,930,764,0,0
-287,260,0,0,0,0,0,0,0,0,0,-1,937,764,0,0
-280,260,0,0,0,0,0,0,0,0,0,-1,944,764,0,0
-273,260,0,0,0,0,0,0,0,0,0,-1,951,764,0,0
-266,260,0,0,0,0,0,0,0,0,0,-1,958,764,0,0
-259,260,0,0,0,0,0,0,0,0,0,-1,965,764,0,0
-252,260,0,0,0,0,0,0,0,0,0,-1,972,764,0,0
-245,260,0,0,0,0,0,0,0,0,0,-1,979,764,0,0
-238,260,0,0,0,0,0,0,0,0,0,-1,986,764,0,0
-231,260,0,0,0,0,0,0,0,0,0,-1,993,764,0,0
-224,260,0,0,0,0,0,0,0,0,0,-1,1000,764,0,0
-217,260,0,0,0,0,0,0,0,0,0,-1,1007,764,0,0
-210,260,0,0,0,0,0,0,0,0,0,-1,1014,764,0,0
-203,260,0,0,0,0,0,0,0,0,0,-1,1021,764,0,0
-196,260,0,0,0,0,0,0,0,0,0,-1,1028,764,0,0
-189,260,0,0,0,0,0,0,0,0,0,-1,1035,764,0,0
-182,260,0,0,0,0,0,0,0,0,0,-1,1042,764,0,0
-175,260,0,0,0,0,0,0,0,0,0,-1,1049,764,0,0
-168,260,0,0,0,0,0,0,0,0,0,-1,1056,764,0,0
-161,260,0,0,0,0,0,0,0,0,0,-1,1063,764,0,0
-154,260,0,0,0,0,0,0,0,0,0,-1,1070,764,0,0
-147,260,0,0,0,0,0,0,0,0,0,-1,1077,764,0,0
-140,260,0,0,0,0,0,0,0,0,0,-1,1084,764,0,0
-133,260,0,0,0,0,0,0,0,0,0,-1,1091,764,0,0
-126,260,0,0,0,0,0,0,0,0,0,-1,1098,764,0,0
-119,260,0,0,0,0,0,0,0,0,0,-1,1105,764,0,0
-112,260,0,0,0,0,0,0,0,0,0,-1,1112,764,0,0
-105,260,0,0,0,0,0,0,0,0,0,-1,1119,764,0,0
-98,260,0,0,0,0,0,0,0,0,0,-1,1126,764,0,0
-91,260,0,0,0,0,0,0,0,0,0,-1,1133,764,0,0
-84,260,0,0,0,0,0,0,0,0,0,-1,1140,764,0,0
-77,260,0,0,0,0,0,0,0,0,0,-1,1147,764,0,0
-70,260,0,0,0,0,0,0,0,0,0,-1,1154,764,0,0
-63,260,0,0,0,0,0,0,0,0,0,-1,1161,764,0,0
-56,260,0,0,0,0,0,0,0,0,0,-1,1168,764,0,0
-49,260,0,0,0,0,0,0,0,0,0,-1,1175,764,0,0
-42,260,0,0,0,0,0,0,0,0,0,-1,1182,764,0,0
-35,260,0,0,0,0,0,0,0,0,0,-1,1189,764,0,0
-28,260,0,0,0,0,0,0,0,0,0,-1,1196,764,0,0
-21,260,0,0,0,0,0,0,0,0,0,-1,1203,764,0,0
-14,260,0,0,0,0,0,0,0,0,0,-1,1210,764,0,0
-7,260,0,0,0,0,0,0,0,0,0,-1,1217,764,0,0
0,260,0,0,0,0,0,0,0,0,0,-1,1224,764,0,0
7,260,0,0,0,0,0,0,0,0,0,-1,1231,764,0,0
14,260,0,0,0,0,0,0,0,0,0,-1,1238,764,0,0
21,260,0,0,0,0,0,0,0,0,0,-1,1245,764,0,0
28,260,0,0,0,0,0,0,0,0,0,-1,1252,764,0,0
35,260,0,0,0,0,0,0,0,0,0,-1,1259,764,0,0
42,260,0,0,0,0,0,0,0,0,0,-1,1266,764,0,0
49,260,0,0,0,0,0,0,0,0,0,-1,1273,764,0,0
56,260,0,0,0,0,0,0,0,0,0,-1,1280,764,0,0
63,260,0,0,0,0,0,0,0,0,0,-1,1287,764,0,0
70,260,0,0,0,0,0,0,0,0,0,-1,1294,764,0,0
77,260,0,0,0,0,0,0,0,0,0,-1,1301,764,0,0
84,260,0,0,0,0,0,0,0,0,0,-1,1308,764,0,0
91,260,0,0,0,0,0,0,0,0,0,-1,1315,764,0,0
98,260,0,0,0,0,0,0,0,0,0,-1,1322,764,0,0
105,260,0,0,0,0,0,0,0,0,0,-1,1329,764,0,0
112,260,0,0,0,0,0,0,0,0,0,-1,1336,764,0,0
119,260,0,0,0,0,0,0,0,0,0,-1,1343,764,0,0
126,260,0,0,0,0,0,0,0,0,0,-1,1350,764,0,0
133,260,0,0,0,0,0,0,0,0,0,-1,1357,764,0,0
140,260,0,0,0,0,0,0,0,0,0,-1,1364,764,0,0
147,260,0,0,0,0,0,0,0,0,0,-1,1371,764,0,0
154,260,0,0,0,0,0,0,0,0,0,-1,1378,764,0,0
161,260,0,0,0,0,0,0,0,0,0,-1,1385,764,0,0
168,260,0,0,0,0,0,0,0,0,0,-1,1392,764,0,0
175,260,0,0,0,0,0,0,0,0,0,-1,1399,764,0,0
182,260,0,0,0,0,0,0,0,0,0,-1,1406,764,0,0
189,260,0,0,0,0,0,0,0,0,0,-1,1413,764,0,0
196,260,0,0,0,0,0,0,0,0,0,-1,1420,764,0,0
203,260,0,0,0,0,0,0,0,0,0,-1,1427,764,0,0
210,260,0,0,0,0,0,0,0,0,0,-1,1434,764,0,0
217,260,0,0,0,0,0,0,0,0,0,-1,1441,764,0,0
224,260,0,0,0,0,0,0,0,0,0,-1,1448,764,0,0
231,260,0,0,0,0,0,0,0,0,0,-1,1455,764,0,0
238,260,0,0,0,0,0,0,0,0,0,-1,1462,764,0,0
245,260,0,0,0,0,0,0,0,0,0,-1,1469,764,0,0
252,260,0,0,0,0,0,0,0,0,0,-1,1476,764,0,0
259,260,0,0,0,0,0,0,0,0,0,-1,1483,764,0,0
266,260,0,0,0,0,0,0,0,0,0,-1,1490,764,0,0
273,260,0,0,0,0,0,0,0,0,0,-1,1497,764,0,0
280,260,0,0,0,0,0,0,0,0,0,-1,1504,764,0,0
287,260,0,0,0,0,0,0,0,0,0,-1,1511,764,0,0
294,260,0,0,0,0,0,0,0,0,0,-1,1518,764,0,0
301,260,0,0,0,0,0,0,0,0,0,-1,1525,764,0,0
308,260,0,0,0,0,0,0,0,0,0,-1,1532,764,0,0
315,260,0,0,0,0,0,0,0,0,0,-1,1539,764,0,0
322,260,0,0,0,0,0,0,0,0,0,-1,1546,764,0,0
329,260,0,0,0,0,0,0,0,0,0,-1,1553,764,0,0
336,260,0,0,0,0,0,0,0,0,0,-1,1560,764,0,0
343,260,0,0,0,0,0,0,0,0,0,-1,1567,764,0,0
350,260,0,0,0,0,0,0,0,0,0,-1,1574,764,0,0
357,260,0,0,0,0,0,0,0,0,0,-1,1581,764,0,0
364,260,0,0,0,0,0,0,0,0,0,-1,1588,764,0,0
371,260,0,0,0,0,0,0,0,0,0,-1,1595,764,0,0
378,260,0,0,0,0,0,0,0,0,0,-1,1602,764,0,0
385,260,0,0,0,0,0,0,0,0,0,-1,1609,764,0,0
392,260,0,0,0,0,0,0,0,0,0,-1,1616,764,0,0
399,260,0,0,0,0,0,0,0,0,0,-1,1623,764,0,0
406,260,0,0,0,0,0,0,0,0,0,-1,1630,764,0,0
413,260,0,0,0,0,0,0,0,0,0,-1,1637,764,0,0
420,260,0,0,0,0,0,0,0,0,0,-1,1644,764,0,0
427,260,0,0,0,0,0,0,0,0,0,-1,1651,764,0,0
434,260,0,0,0,0,0,0,0,0,0,-1,1658,764,0,0
441,260,0,0,0,0,0,0,0,0,0,-1,1665,764,0,0
448,260,0,0,0,0,0,0,0,0,0,-1,1672,764,0,0
455,260,0,0,0,0,0,0,0,0,0,-1,1679,764,0,0
462,260,0,0,0,0,0,0,0,0,0,-1,1686,764,0,0
469,260,0,0,0,0,0,0,0,0,0,-1,1693,764,0,0
476,260,0,0,0,0,0,0,0,0,0,-1,1700,764,0,0
483,260,0,0,0,0,0,0,0,0,0,-1,1707,764,0,0
490,260,0,0,0,0,0,0,0,0,0,-1,1714,764,0,0
497,260,0,0,0,0,0,0,0,0,0,-1,1721,764,0,0
504,260,0,0,0,0,0,0,0,0,0,-1,1728,764,0,0
511,260,0,0,0,0,0,0,0,0,0,-1,1735,764,0,0
518,260,0,0,0,0,0,0,0,0,0,-1,1742,764,0,0
525,260,0,0,0,0,0,0,0,0,0,-1,1749,764,0,0
532,260,0,0,0,0,0,0,0,0,0,-1,1756,764,0,0
539,260,0,0,0,0,0,0,0,0,0,-1,1763,764,0,0
546,260,0,0,0,0,0,0,0,0,0,-1,1770,764,0,0
553,260,0,0,0,0,0,0,0,0,0,-1,1777,764,0,0
560,260,0,0,0,0,0,0,0,0,0,-1,1784,764,0,0
567,260,0,0,0,0,0,0,0,0,0,-1,1791,764,0,0
574,260,39.754,2.7511,0.0203883,0.0225476,-0.0151572,0.0366635,0.00627236,-0.820953,0.022643,0.0365223,1798,764,39.754,-2.7511
581,260,39.7026,2.87018,0.0203104,0.0152664,-0.0131856,0.0312131,0.00436375,-0.690906,0.0195174,0.0424008,1805,764,39.7027,-2.87021
588,260,40.1597,2.62506,0.017979,0.0105806,-0.0104156,0.0253328,0.00322675,-0.614765,0.0159223,0.0471465,1812,764,40.1596,-2.62504
595,260,40.3566,2.66528,0,0,0,0,0,0,0,-1,1819,764,40.3566,-2.66528
602,260,39.8374,2.28412,0.0120746,0.00515112,-0.00549018,0.0151033,0.00212241,-0.504116,0.00944123,0.0431158,1826,764,39.8374,-2.28412
609,260,39.4506,2.59125,0,0,0,0,0,0,0,-1,1833,764,39.4505,-2.59122
616,260,38.9865,2.90948,0,0,0,0,0,0,0,-1,1840,764,38.9864,-2.90949
623,260,32.2268,3.25836,0,0,0,0,0,0,0,-1,1847,764,32.2268,-3.25833
630,260,24.3739,-0.536316,0,0,0,0,0,0,0,-1,1854,764,24.3739,0.536343
637,260,26.7017,-1.73199,0,0,0,0,0,0,0,-1,1861,764,26.7016,1.732
644,260,26.7258,-1.33917,-2.98615e-05,-0.000179465,0.00106879,0.000966743,-0.00117607,0.750461,0.00123912,0.028811,1868,764,26.7258,1.33918
651,260,26.7291,-0.923218,0.000111007,-0.000184446,0.000491312,0.000476321,-0.000549761,0.639359,0.000592914,0.0142546,1875,764,26.7292,0.923235
658,260,26.6997,-0.471863,0.000658479,0.000147076,1.72705e-05,0.000659062,0.000146493,0.0337196,0.000399597,0.015893,1882,764,26.6997,0.471859
665,260,26.6593,0.00592041,0.000538857,9.53449e-05,-0.000264764,0.000662463,-2.8262e-05,-0.436784,0.000451358,0.0157472,1889,764,26.6593,-0.00592117
672,260,26.662,0.512451,0.000462687,8.72831e-05,-0.000363963,0.000684499,-0.000134528,-0.547327,0.000507158,0.0135878,1896,764,26.662,-0.512426
679,260,26.6404,1.00122,0.000599533,0.000314402,-0.000232309,0.000729534,0.000184401,-0.510186,0.000438024,0.0130845,1903,764,26.6403,-1.00122
686,260,26.6281,1.48615,0.00087344,0.000834594,-3.93854e-05,0.000897931,0.000810103,-0.55632,0.000571598,0.0161112,1910,764,26.628,-1.48614
693,260,26.5925,1.92194,0.00153882,0.00144683,0.000330674,0.00182668,0.00115896,0.716292,0.00106727,0.0158639,1917,764,26.5925,-1.92195
700,260,26.553,2.38501,0.00265742,0.00207583,0.000843124,0.00325849,0.00147476,0.619336,0.00188411,0.013346,1924,764,26.5529,-2.38501
707,260,26.5596,2.8454,0.00435925,0.00269237,0.0016278,0.00535457,0.00169705,0.548797,0.00315977,0.0128531,1931,764,26.5596,-2.84537
714,260,26.6113,3.31525,0.00678353,0.00321732,0.00270429,0.00823966,0.0017612,0.493934,0.00501031,0.0242125,1938,764,26.6114,-3.31526
721,260,26.6733,3.78418,0,0,0,0,0,0,0,-1,1945,764,26.6733,-3.78421
728,260,27.1959,4.20294,0,0,0,0,0,0,0,-1,1952,764,27.1959,-4.20296
735,260,26.9788,4.85681,0,0,0,0,0,0,0,-1,1959,764,26.9787,-4.85678
742,260,32.1443,1.73688,0,0,0,0,0,0,0,-1,1966,764,32.1442,-1.73688
749,260,33.6013,2.94733,0,0,0,0,0,0,0,-1,1973,764,33.6013,-2.9473
756,260,0,0,0,0,0,0,0,0,0,-1,1980,764,0,0
763,260,0,0,0,0,0,0,0,0,0,-1,1987,764,0,0
770,260,0,0,0,0,0,0,0,0,0,-1,1994,764,0,0
777,260,0,0,0,0,0,0,0,0,0,-1,2001,764,0,0
784,260,0,0,0,0,0,0,0,0,0,-1,2008,764,0,0
791,260,0,0,0,0,0,0,0,0,0,-1,2015,764,0,0
798,260,0,0,0,0,0,0,0,0,0,-1,2022,764,0,0
805,260,0,0,0,0,0,0,0,0,0,-1,2029,764,0,0
812,260,0,0,0,0,0,0,0,0,0,-1,2036,764,0,0
-700,253,0,0,0,0,0,0,0,0,0,-1,524,771,0,0
-693,253,0,0,0,0,0,0,0,0,0,-1,531,771,0,0
-686,253,0,0,0,0,0,0,0,0,0,-1,538,771,0,0
-679,253,0,0,0,0,0,0,0,0,0,-1,545,771,0,0
-672,253,0,0,0,0,0,0,0,0,0,-1,552,771,0,0
-665,253,0,0,0,0,0,0,0,0,0,-1,559,771,0,0
-658,253,0,0,0,0,0,0,0,0,0,-1,566,771,0,0
-651,253,0,0,0,0,0,0,0,0,0,-1,573,771,0,0
-644,253,0,0,0,0,0,0,0,0,0,-1,580,771,0,0
-637,253,-24.7979,-0.491394,0,0,0,0,0,0,0,-1,587,771,-24.7978,0.491371
-630,253,-25.156,0.540405,0,0,0,0,0,0,0,-1,594,771,-25.156,-0.540421
-623,253,-20.808,2.84314,0,0,0,0,0,0,0,-1,601,771,-20.8081,-2.84312
-616,253,-19.338,2.65521,0,0,0,0,0,0,0,-1,608,771,-19.338,-2.65522
-609,253,-19.6593,2.77283,0,0,0,0,0,0,0,-1,615,771,-19.6593,-2.77285
-602,253,-18.7016,2.43933,0,0,0,0,0,0,0,-1,622,771,-18.7016,-2.43932
-595,253,-18.4741,1.27563,0,0,0,0,0,0,0,-1,629,771,-18.474,-1.27562
-588,253,-18.2169,0.970642,0.00830554,0.00141518,-0.00107219,0.00846852,0.0012522,-0.150857,0.00527803,0.036465,636,771,-18.2169,-0.97063
-581,253,-17.9357,0.703979,0.00588634,0.0013645,-0.000631475,0.00597287,0.00127797,-0.13618,0.00363166,0.0225976,643,771,-17.9357,-0.703966
-574,253,-17.9229,0.283997,0.00406004,0.00108852,-0.000218007,0.00407595,0.00107261,-0.0728456,0.00243967,0.0194464,650,771,-17.9229,-0.28398
-567,253,-17.9346,-0.186279,0.0025481,0.000667258,0.000241283,0.00257856,0.000636799,0.125576,0.00155098,0.0171497,657,771,-17.9347,0.186284
-560,253,-17.9461,-0.593384,0.00126905,0.00013334,0.00073472,0.00162978,-0.000227391,0.456404,0.00116971,0.0133919,664,771,-17.9461,0.593401
-553,253,-17.9554,-1.01508,0.000224192,-0.000488638,0.00121166,0.00113077,-0.00139522,0.642356,0.00146104,0.0116809,671,771,-17.9554,1.0151
-546,253,-17.9658,-1.4447,-0.000639046,-0.00101565,0.00168767,0.000870791,-0.00252549,0.72984,0.00203694,0.0100982,678,771,-17.9658,1.44472
-539,253,-17.9869,-1.90674,-0.00137582,-0.00119939,0.00175992,0.000474522,-0.00304974,0.810439,0.00220839,0.0114873,685,771,-17.9869,1.90672
-532,253,-17.967,-2.3681,-0.00161691,-0.00143455,0.00157818,5.50878e-05,-0.00310654,0.814253,0.00208963,0.0159123,692,771,-17.967,2.36807
-525,253,-17.9811,-2.83905,-0.00123033,-0.00155357,0.00120272,-0.000178415,-0.00260548,0.718609,0.00168068,0.0133677,699,771,-17.9811,2.83903
-518,253,-18.0583,-3.27814,-0.000902001,-0.00154913,0.000410211,-0.000703103,-0.00174803,0.451467,0.00101564,0.020521,706,771,-18.0583,3.27816
-511,253,-18.2991,-3.66937,-0.000223488,-0.00143983,-0.000577924,7.31018e-06,-0.00167063,-0.379952,0.0011162,0.0482233,713,771,-18.2991,3.66937
-504,253,-18.6432,-4.07202,0,0,0,0,0,0,0,-1,720,771,-18.6432,4.07202
-497,253,-21.7737,-1.76837,0,0,0,0,0,0,0,-1,727,771,-21.7738,1.7684
-490,253,-29.5398,1.02545,0,0,0,0,0,0,0,-1,734,771,-29.5398,-1.02548
-483,253,-28.8575,1.68451,0,0,0,0,0,0,0,-1,741,771,-28.8576,-1.6845
-476,253,-28.7941,0.813232,0,0,0,0,0,0,0,-1,748,771,-28.7941,-0.813205
-469,253,-29.0874,0.794189,0,0,0,0,0,0,0,-1,755,771,-29.0874,-0.794165
-462,253,-29.1121,0.683838,0,0,0,0,0,0,0,-1,762,771,-29.112,-0.683835
-455,253,-29.0474,0.689941,0,0,0,0,0,0,0,-1,769,771,-29.0474,-0.689928
-448,253,0,0,0,0,0,0,0,0,0,-1,776,771,0,0
-441,253,0,0,0,0,0,0,0,0,0,-1,783,771,0,0
-434,253,0,0,0,0,0,0,0,0,0,-1,790,771,0,0
-427,253,0,0,0,0,0,0,0,0,0,-1,797,771,0,0
-420,253,0,0,0,0,0,0,0,0,0,-1,804,771,0,0
-413,253,0,0,0,0,0,0,0,0,0,-1,811,771,0,0
-406,253,0,0,0,0,0,0,0,0,0,-1,818,771,0,0
-399,253,0,0,0,0,0,0,0,0,0,-1,825,771,0,0
-392,253,0,0,0,0,0,0,0,0,0,-1,832,771,0,0
-385,253,0,0,0,0,0,0,0,0,0,-1,839,771,0,0
-378,253,0,0,0,0,0,0,0,0,0,-1,846,771,0,0
-371,253,0,0,0,0,0,0,0,0,0,-1,853,771,0,0
-364,253,0,0,0,0,0,0,0,0,0,-1,860,771,0,0
-357,253,0,0,0,0,0,0,0,0,0,-1,867,771,0,0
-350,253,0,0,0,0,0,0,0,0,0,-1,874,771,0,0
-343,253,0,0,0,0,0,0,0,0,0,-1,881,771,0,0
-336,253,0,0,0,0,0,0,0,0,0,-1,888,771,0,0
-329,253,0,0,0,0,0,0,0,0,0,-1,895,771,0,0
-322,253,0,0,0,0,0,0,0,0,0,-1,902,771,0,0
-315,253,0,0,0,0,0,0,0,0,0,-1,909,771,0,0
-308,253,0,0,0,0,0,0,0,0,0,-1,916,771,0,0
-301,253,0,0,0,0,0,0,0,0,0,-1,923,771,0,0
-294,253,0,0,0,0,0,0,0,0,0,-1,930,771,0,0
-287,253,0,0,0,0,0,0,0,0,0,-1,937,771,0,0
-280,253,0,0,0,0,0,0,0,0,0,-1,944,771,0,0
-273,253,0,0,0,0,0,0,0,0,0,-1,951,771,0,0
-266,253,0,0,0,0,0,0,0,0,0,-1,958,771,0,0
-259,253,0,0,0,0,0,0,0,0,0,-1,965,771,0,0
-252,253,0,0,0,0,0,0,0,0,0,-1,972,771,0,0
-245,253,0,0,0,0,0,0,0,0,0,-1,979,771,0,0
-238,253,0,0,0,0,0,0,0,0,0,-1,986,771,0,0
-231,253,0,0,0,0,0,0,0,0,0,-1,993,771,0,0
-224,253,0,0,0,0,0,0,0,0,0,-1,1000,771,0,0
-217,253,0,0,0,0,0,0,0,0,0,-1,1007,771,0,0
-210,253,0,0,0,0,0,0,0,0,0,-1,1014,771,0,0
-203,253,0,0,0,0,0,0,0,0,0,-1,1021,771,0,0
-196,253,0,0,0,0,0,0,0,0,0,-1,1028,771,0,0
-189,253,0,0,0,0,0,0,0,0,0,-1,1035,771,0,0
-182,253,0,0,0,0,0,0,0,0,0,-1,1042,771,0,0
-175,253,0,0,0,0,0,0,0,0,0,-1,1049,771,0,0
-168,253,0,0,0,0,0,0,0,0,0,-1,1056,771,0,0
-161,253,0,0,0,0,0,0,0,0,0,-1,1063,771,0,0
-154,253,0,0,0,0,0,0,0,0,0,-1,1070,771,0,0
-147,253,0,0,0,0,0,0,0,0,0,-1,1077,771,0,0
-140,253,0,0,0,0,0,0,0,0,0,-1,1084,771,0,0
-133,253,0,0,0,0,0,0,0,0,0,-1,1091,771,0,0
-126,253,0,0,0,0,0,0,0,0,0,-1,1098,771,0,0
-119,253,0,0,0,0,0,0,0,0,0,-1,1105,771,0,0
-112,253,0,0,0,0,0,0,0,0,0,-1,1112,771,0,0
-105,253,0,0,0,0,0,0,0,0,0,-1,1119,771,0,0
-98,253,0,0,0,0,0,0,0,0,0,-1,1126,771,0,0
-91,253,0,0,0,0,0,0,0,0,0,-1,1133,771,0,0
-84,253,0,0,0,0,0,0,0,0,0,-1,1140,771,0,0
-77,253,0,0,0,0,0,0,0,0,0,-1,1147,771,0,0
-70,253,0,0,0,0,0,0,0,0,0,-1,1154,771,0,0
-63,253,0,0,0,0,0,0,0,0,0,-1,1161,771,0,0
-56,253,0,0,0,0,0,0,0,0,0,-1,1168,771,0,0
-49,253,0,0,0,0,0,0,0,0,0,-1,1175,771,0,0
-42,253,0,0,0,0,0,0,0,0,0,-1,1182,771,0,0
-35,253,0,0,0,0,0,0,0,0,0,-1,1189,771,0,0
-28,253,0,0,0,0,0,0,0,0,0,-1,1196,771,0,0
-21,253,0,0,0,0,0,0,0,0,0,-1,1203,771,0,0
-14,253,0,0,0,0,0,0,0,0,0,-1,1210,771,0,0
-7,253,0,0,0,0,0,0,0,0,0,-1,1217,771,0,0
0,253,0,0,0,0,0,0,0,0,0,-1,1224,771,0,0
7,253,0,0,0,0,0,0,0,0,0,-1,1231,771,0,0
14,253,0,0,0,0,0,0,0,0,0,-1,1238,771,0,0
21,253,0,0,0,0,0,0,0,0,0,-1,1245,771,0,0
28,253,0,0,0,0,0,0,0,0,0,-1,1252,771,0,0
35,253,0,0,0,0,0,0,0,0,0,-1,1259,771,0,0
42,253,0,0,0,0,0,0,0,0,0,-1,1266,771,0,0
49,253,0,0,0,0,0,0,0,0,0,-1,1273,771,0,0
56,253,0,0,0,0,0,0,0,0,0,-1,1280,771,0,0
63,253,0,0,0,0,0,0,0,0,0,-1,1287,771,0,0
70,253,0,0,0,0,0,0,0,0,0,-1,1294,771,0,0
77,253,0,0,0,0,0,0,0,0,0,-1,1301,771,0,0
84,253,0,0,0,0,0,0,0,0,0,-1,1308,771,0,0
91,253,0,0,0,0,0,0,0,0,0,-1,1315,771,0,0
98,253,0,0,0,0,0,0,0,0,0,-1,1322,771,0,0
105,253,0,0,0,0,0,0,0,0,0,-1,1329,771,0,0
112,253,0,0,0,0,0,0,0,0,0,-1,1336,771,0,0
119,253,0,0,0,0,0,0,0,0,0,-1,1343,771,0,0
126,253,0,0,0,0,0,0,0,0,0,-1,1350,771,0,0
133,253,0,0,0,0,0,0,0,0,0,-1,1357,771,0,0
140,253,0,0,0,0,0,0,0,0,0,-1,1364,771,0,0
147,253,0,0,0,0,0,0,0,0,0,-1,1371,771,0,0
154,253,0,0,0,0,0,0,0,0,0,-1,1378,771,0,0
161,253,0,0,0,0,0,0,0,0,0,-1,1385,771,0,0
168,253,0,0,0,0,0,0,0,0,0,-1,1392,771,0,0
175,253,0,0,0,0,0,0,0,0,0,-1,1399,771,0,0
182,253,0,0,0,0,0,0,0,0,0,-1,1406,771,0,0
189,253,0,0,0,0,0,0,0,0,0,-1,1413,771,0,0
196,253,0,0,0,0,0,0,0,0,0,-1,1420,771,0,0
203,253,0,0,0,0,0,0,0,0,0,-1,1427,771,0,0
210,253,0,0,0,0,0,0,0,0,0,-1,1434,771,0,0
217,253,0,0,0,0,0,0,0,0,0,-1,1441,771,0,0
224,253,0,0,0,0,0,0,0,0,0,-1,1448,771,0,0
231,253,0,0,0,0,0,0,0,0,0,-1,1455,771,0,0
238,253,0,0,0,0,0,0,0,0,0,-1,1462,771,0,0
245,253,0,0,0,0,0,0,0,0,0,-1,1469,771,0,0
252,253,0,0,0,0,0,0,0,0,0,-1,1476,771,0,0
259,253,0,0,0,0,0,0,0,0,0,-1,1483,771,0,0
266,253,0,0,0,0,0,0,0,0,0,-1,1490,771,0,0
273,253,0,0,0,0,0,0,0,0,0,-1,1497,771,0,0
280,253,0,0,0,0,0,0,0,0,0,-1,1504,771,0,0
287,253,0,0,0,0,0,0,0,0,0,-1,1511,771,0,0
294,253,0,0,0,0,0,0,0,0,0,-1,1518,771,0,0
301,253,0,0,0,0,0,0,0,0,0,-1,1525,771,0,0
308,253,0,0,0,0,0,0,0,0,0,-1,1532,771,0,0
315,253,0,0,0,0,0,0,0,0,0,-1,1539,771,0,0
322,253,0,0,0,0,0,0,0,0,0,-1,1546,771,0,0
329,253,0,0,0,0,0,0,0,0,0,-1,1553,771,0,0
336,253,0,0,0,0,0,0,0,0,0,-1,1560,771,0,0
343,253,0,0,0,0,0,0,0,0,0,-1,1567,771,0,0
350,253,0,0,0,0,0,0,0,0,0,-1,1574,771,0,0
357,253,0,0,0,0,0,0,0,0,0,-1,1581,771,0,0
364,253,0,0,0,0,0,0,0,0,0,-1,1588,771,0,0
371,253,0,0,0,0,0,0,0,0,0,-1,1595,771,0,0
378,253,0,0,0,0,0,0,0,0,0,-1,1602,771,0,0
385,253,0,0,0,0,0,0,0,0,0,-1,1609,771,0,0
392,253,0,0,0,0,0,0,0,0,0,-1,1616,771,0,0
399,253,0,0,0,0,0,0,0,0,0,-1,1623,771,0,0
406,253,0,0,0,0,0,0,0,0,0,-1,1630,771,0,0
413,253,0,0,0,0,0,0,0,0,0,-1,1637,771,0,0
420,253,0,0,0,0,0,0,0,0,0,-1,1644,771,0,0
427,253,0,0,0,0,0,0,0,0,0,-1,1651,771,0,0
434,253,0,0,0,0,0,0,0,0,0,-1,1658,771,0,0
441,253,0,0,0,0,0,0,0,0,0,-1,1665,771,0,0
448,253,0,0,0,0,0,0,0,0,0,-1,1672,771,0,0
455,253,0,0,0,0,0,0,0,0,0,-1,1679,771,0,0
462,253,0,0,0,0,0,0,0,0,0,-1,1686,771,0,0
469,253,0,0,0,0,0,0,0,0,0,-1,1693,771,0,0
476,253,0,0,0,0,0,0,0,0,0,-1,1700,771,0,0
483,253,0,0,0,0,0,0,0,0,0,-1,1707,771,0,0
490,253,0,0,0,0,0,0,0,0,0,-1,1714,771,0,0
497,253,0,0,0,0,0,0,0,0,0,-1,1721,771,0,0
504,253,0,0,0,0,0,0,0,0,0,-1,1728,771,0,0
511,253,0,0,0,0,0,0,0,0,0,-1,1735,771,0,0
518,253,0,0,0,0,0,0,0,0,0,-1,1742,771,0,0
525,253,0,0,0,0,0,0,0,0,0,-1,1749,771,0,0
532,253,0,0,0,0,0,0,0,0,0,-1,1756,771,0,0
539,253,0,0,0,0,0,0,0,0,0,-1,1763,771,0,0
546,253,0,0,0,0,0,0,0,0,0,-1,1770,771,0,0
553,253,0,0,0,0,0,0,0,0,0,-1,1777,771,0,0
560,253,0,0,0,0,0,0,0,0,0,-1,1784,771,0,0
567,253,0,0,0,0,0,0,0,0,0,-1,1791,771,0,0
574,253,39.7395,2.60693,0.014309,0.02125,-0.00988948,0.0282602,0.00729873,-0.954149,0.0169397,0.0355785,1798,771,39.7394,-2.60691
581,253,39.6895,2.73615,0.0157825,0.0139017,-0.00927724,0.0241669,0.0055173,-0.734888,0.0146233,0.0376742,1805,771,39.6895,-2.73613
588,253,39.9205,2.66968,0.0146576,0.00945502,-0.00754324,0.0200355,0.00407715,-0.619358,0.0122267,0.0438538,1812,771,39.9206,-2.66971
595,253,40.2015,2.62823,0.0124321,0.00663774,-0.00565843,0.0158919,0.00317793,-0.548792,0.00971024,0.0476867,1819,771,40.2016,-2.62825
602,253,39.8705,2.52399,0.0100273,0.0047438,-0.00390048,0.0120964,0.00267464,-0.487739,0.00733708,0.043984,1826,771,39.8705,-2.52397
609,253,39.3998,2.93555,0,0,0,0,0,0,0,-1,1833,771,39.3998,-2.93557
616,253,38.3143,4.06482,0,0,0,0,0,0,0,-1,1840,771,38.3143,-4.06482
623,253,38.7982,2.56134,0,0,0,0,0,0,0,-1,1847,771,38.7983,-2.56134
630,253,33.561,2.96838,0,0,0,0,0,0,0,-1,1854,771,33.561,-2.96836
637,253,22.3192,-0.604004,0,0,0,0,0,0,0,-1,1861,771,22.3192,0.603986
644,253,27.2657,-1.26611,0,0,0,0,0,0,0,-1,1868,771,27.2658,1.26614
651,253,27.1763,-0.865662,-6.70615e-05,0.000371784,0.000422905,0.000628801,-0.000324079,1.0247,0.000559444,0.0245922,1875,771,27.1763,0.865679
658,253,27.1558,-0.433411,0.000520644,0.000624009,-6.9547e-05,0.000658974,0.000485678,-1.10494,0.000394451,0.0188322,1882,771,27.1558,0.433412
665,253,27.0692,0.0255737,0.000495396,0.000420716,-0.00036679,0.000826742,8.93706e-05,-0.734671,0.000523918,0.0209251,1889,771,27.0693,-0.0255757
672,253,27.0543,0.529358,0.000493752,0.000176766,-0.000449347,0.000811739,-0.000141221,-0.615851,0.000593857,0.016052,1896,771,27.0543,-0.529379
679,253,27.1176,1.05542,0.000612699,0.00016544,-0.000350718,0.000805018,-2.68792e-05,-0.501582,0.000545859,0.013187,1903,771,27.1176,-1.05544
686,253,27.1202,1.50128,0.00088373,0.000519263,-0.000178688,0.000956719,0.000446274,-0.387788,0.000552776,0.0195194,1910,771,27.1202,-1.50125
693,253,27.0557,1.95337,0.00155157,0.000984649,0.000179669,0.00160372,0.000932504,0.282464,0.000929994,0.0199629,1917,771,27.0556,-1.95337
700,253,27.0104,2.42163,0.00262082,0.00157064,0.000665829,0.00294369,0.00124776,0.451516,0.0017061,0.0161743,1924,771,27.0103,-2.42161
707,253,27.0358,2.87854,0.0041506,0.00213,0.00134346,0.00482125,0.00145935,0.463004,0.00285488,0.0147152,1931,771,27.0357,-2.87851
714,253,27.0521,3.33392,0.00623293,0.00261034,0.00223887,0.00730145,0.00154182,0.445289,0.00444377,0.0201752,1938,771,27.0521,-3.3339
721,253,27.1013,3.80426,0.00887323,0.00301545,0.00351564,0.0105202,0.00136852,0.438097,0.0066047,0.0364514,1945,771,27.1014,-3.80428
728,253,27.5869,4.31244,0.012726,0.00331764,0.00540997,0.015191,0.000852648,0.427534,0.00985543,0.0491867,1952,771,27.5869,-4.31242
735,253,28.152,4.92865,0,0,0,0,0,0,0,-1,1959,771,28.152,-4.92865
742,253,27.5789,5.78607,0,0,0,0,0,0,0,-1,1966,771,27.5788,-5.78606
749,253,33.7754,3.21533,0,0,0,0,0,0,0,-1,1973,771,33.7754,-3.21533
756,253,0,0,0,0,0,0,0,0,0,-1,1980,771,0,0
763,253,0,0,0,0,0,0,0,0,0,-1,1987,771,0,0
770,253,0,0,0,0,0,0,0,0,0,-1,1994,771,0,0
777,253,0,0,0,0,0,0,0,0,0,-1,2001,771,0,0
784,253,0,0,0,0,0,0,0,0,0,-1,2008,771,0,0
791,253,0,0,0,0,0,0,0,0,0,-1,2015,771,0,0
798,253,0,0,0,0,0,0,0,0,0,-1,2022,771,0,0
805,253,0,0,0,0,0,0,0,0,0,-1,2029,771,0,0
812,253,0,0,0,0,0,0,0,0,0,-1,2036,771,0,0
-700,246,0,0,0,0,0,0,0,0,0,-1,524,778,0,0
-693,246,0,0,0,0,0,0,0,0,0,-1,531,778,0,0
-686,246,0,0,0,0,0,0,0,0,0,-1,538,778,0,0
-679,246,0,0,0,0,0,0,0,0,0,-1,545,778,0,0
-672,246,0,0,0,0,0,0,0,0,0,-1,552,778,0,0
-665,246,0,0,0,0,0,0,0,0,0,-1,559,778,0,0
-658,246,0,0,0,0,0,0,0,0,0,-1,566,778,0,0
-651,246,0,0,0,0,0,0,0,0,0,-1,573,778,0,0
-644,246,0,0,0,0,0,0,0,0,0,-1,580,778,0,0
-637,246,-24.1234,0.130432,0,0,0,0,0,0,0,-1,587,778,-24.1234,-0.130438
-630,246,-24.0781,1.38916,0,0,0,0,0,0,0,-1,594,778,-24.0781,-1.38913
-623,246,-23.9183,2.49573,0,0,0,0,0,0,0,-1,601,778,-23.9183,-2.49575
-616,246,-20.4103,2.97504,0,0,0,0,0,0,0,-1,608,778,-20.4104,-2.97501
-609,246,-19.6846,2.64185,0,0,0,0,0,0,0,-1,615,778,-19.6845,-2.64183
-602,246,-18.807,1.65515,0,0,0,0,0,0,0,-1,622,778,-18.807,-1.65514
-595,246,-18.6487,1.44202,0.0101777,0.000450766,-0.00326732,0.0111733,-0.000544835,-0.295777,0.00763696,0.0468847,629,778,-18.6488,-1.44199
-588,246,-18.4362,1.1087,0.00734739,0.000820401,-0.00182134,0.00782124,0.00034656,-0.254518,0.00510256,0.0297264,636,778,-18.4362,-1.10873
-581,246,-18.3936,0.777344,0.00530573,0.000869218,-0.000988544,0.00551603,0.000658919,-0.209611,0.00347858,0.016937,643,778,-18.3936,-0.777328
-574,246,-18.335,0.261597,0.00364875,0.000644213,-0.000217509,0.00366441,0.000628549,-0.0718942,0.00226271,0.017769,650,778,-18.335,-0.261617
-567,246,-18.3555,-0.190125,0.00221564,0.000305858,0.000368164,0.00228415,0.000237342,0.183997,0.00145014,0.0211957,657,778,-18.3555,0.19011
-560,246,-18.3907,-0.595764,0.000960356,-0.000167103,0.000926894,0.00148149,-0.000688234,0.512187,0.00128029,0.0166824,664,778,-18.3907,0.595788
-553,246,-18.3878,-0.988647,-9.41978e-05,-0.000671658,0.00140865,0.00105501,-0.00182086,0.684314,0.0016799,0.0120372,671,778,-18.3878,0.988641
-546,246,-18.4194,-1.41357,-0.0010171,-0.00105399,0.00186268,0.000827228,-0.00289832,0.780447,0.00225902,0.0098232,678,778,-18.4194,1.41357
-539,246,-18.4343,-1.888,-0.00176071,-0.00106925,0.0017723,0.000390723,-0.00322068,0.881726,0.00228851,0.0102005,685,778,-18.4343,1.888
-532,246,-18.4323,-2.35559,-0.00191866,-0.00106998,0.0014346,1.72143e-06,-0.00299036,0.929194,0.00199415,0.0122781,692,778,-18.4323,2.35557
-525,246,-18.4518,-2.76624,-0.00146381,-0.00109661,0.000939537,-0.000322903,-0.00223752,0.88189,0.00139654,0.0160142,699,778,-18.4518,2.76627
-518,246,-18.5579,-3.09515,-0.0011405,-0.00103396,3.64224e-05,-0.0010227,-0.00115176,1.27092,0.000728641,0.0263301,706,778,-18.5578,3.09513
-511,246,-18.9471,-3.61047,0,0,0,0,0,0,0,-1,713,778,-18.9471,3.61047
-504,246,-20.0047,-2.88214,0,0,0,0,0,0,0,-1,720,778,-20.0047,2.88216
-497,246,-29.4669,1.82684,0,0,0,0,0,0,0,-1,727,778,-29.4669,-1.82687
-490,246,-29.6074,1.02423,0,0,0,0,0,0,0,-1,734,778,-29.6074,-1.02421
-483,246,-29.7762,0.691895,0,0,0,0,0,0,0,-1,741,778,-29.7762,-0.691878
-476,246,-29.6145,0.841309,0,0,0,0,0,0,0,-1,748,778,-29.6145,-0.841296
-469,246,-28.8654,0.939941,0,0,0,0,0,0,0,-1,755,778,-28.8654,-0.939972
-462,246,-28.9653,0.795349,0,0,0,0,0,0,0,-1,762,778,-28.9652,-0.795339
-455,246,0,0,0,0,0,0,0,0,0,-1,769,778,0,0
-448,246,0,0,0,0,0,0,0,0,0,-1,776,778,0,0
-441,246,0,0,0,0,0,0,0,0,0,-1,783,778,0,0
-434,246,0,0,0,0,0,0,0,0,0,-1,790,778,0,0
-427,246,0,0,0,0,0,0,0,0,0,-1,797,778,0,0
-420,246,0,0,0,0,0,0,0,0,0,-1,804,778,0,0
-413,246,0,0,0,0,0,0,0,0,0,-1,811,778,0,0
-406,246,0,0,0,0,0,0,0,0,0,-1,818,778,0,0
-399,246,0,0,0,0,0,0,0,0,0,-1,825,778,0,0
-392,246,0,0,0,0,0,0,0,0,0,-1,832,778,0,0
-385,246,0,0,0,0,0,0,0,0,0,-1,839,778,0,0
-378,246,0,0,0,0,0,0,0,0,0,-1,846,778,0,0
-371,246,0,0,0,0,0,0,0,0,0,-1,853,778,0,0
-364,246,0,0,0,0,0,0,0,0,0,-1,860,778,0,0
-357,246,0,0,0,0,0,0,0,0,0,-1,867,778,0,0
-350,246,0,0,0,0,0,0,0,0,0,-1,874,778,0,0
-343,246,0,0,0,0,0,0,0,0,0,-1,881,778,0,0
-336,246,0,0,0,0,0,0,0,0,0,-1,888,778,0,0
-329,246,0,0,0,0,0,0,0,0,0,-1,895,778,0,0
-322,246,0,0,0,0,0,0,0,0,0,-1,902,778,0,0
-315,246,0,0,0,0,0,0,0,0,0,-1,909,778,0,0
-308,246,0,0,0,0,0,0,0,0,0,-1,916,778,0,0
-301,246,0,0,0,0,0,0,0,0,0,-1,923,778,0,0
-294,246,0,0,0,0,0,0,0,0,0,-1,930,778,0,0
-287,246,0,0,0,0,0,0,0,0,0,-1,937,778,0,0
-280,246,0,0,0,0,0,0,0,0,0,-1,944,778,0,0
-273,246,0,0,0,0,0,0,0,0,0,-1,951,778,0,0
-266,246,0,0,0,0,0,0,0,0,0,-1,958,778,0,0
-259,246,0,0,0,0,0,0,0,0,0,-1,965,778,0,0
-252,246,0,0,0,0,0,0,0,0,0,-1,972,778,0,0
-245,246,0,0,0,0,0,0,0,0,0,-1,979,778,0,0
-238,246,0,0,0,0,0,0,0,0,0,-1,986,778,0,0
-231,246,0,0,0,0,0,0,0,0,0,-1,993,778,0,0
-224,246,0,0,0,0,0,0,0,0,0,-1,1000,778,0,0
-217,246,0,0,0,0,0,0,0,0,0,-1,1007,778,0,0
-210,246,0,0,0,0,0,0,0,0,0,-1,1014,778,0,0
-203,246,0,0,0,0,0,0,0,0,0,-1,1021,778,0,0
-196,246,0,0,0,0,0,0,0,0,0,-1,1028,778,0,0
-189,246,0,0,0,0,0,0,0,0,0,-1,1035,778,0,0
-182,246,0,0,0,0,0,0,0,0,0,-1,1042,778,0,0
-175,246,0,0,0,0,0,0,0,0,0,-1,1049,778,0,0
-168,246,0,0,0,0,0,0,0,0,0,-1,1056,778,0,0
-161,246,0,0,0,0,0,0,0,0,0,-1,1063,778,0,0
-154,246,0,0,0,0,0,0,0,0,0,-1,1070,778,0,0
-147,246,0,0,0,0,0,0,0,0,0,-1,1077,778,0,0
-140,246,0,0,0,0,0,0,0,0,0,-1,1084,778,0,0
-133,246,0,0,0,0,0,0,0,0,0,-1,1091,778,0,0
-126,246,0,0,0,0,0,0,0,0,0,-1,1098,778,0,0
-119,246,0,0,0,0,0,0,0,0,0,-1,1105,778,0,0
-112,246,0,0,0,0,0,0,0,0,0,-1,1112,778,0,0
-105,246,0,0,0,0,0,0,0,0,0,-1,1119,778,0,0
-98,246,0,0,0,0,0,0,0,0,0,-1,1126,778,0,0
-91,246,0,0,0,0,0,0,0,0,0,-1,1133,778,0,0
-84,246,0,0,0,0,0,0,0,0,0,-1,1140,778,0,0
-77,246,0,0,0,0,0,0,0,0,0,-1,1147,778,0,0
-70,246,0,0,0,0,0,0,0,0,0,-1,1154,778,0,0
-63,246,0,0,0,0,0,0,0,0,0,-1,1161,778,0,0
-56,246,0,0,0,0,0,0,0,0,0,-1,1168,778,0,0
-49,246,0,0,0,0,0,0,0,0,0,-1,1175,778,0,0
-42,246,0,0,0,0,0,0,0,0,0,-1,1182,778,0,0
-35,246,0,0,0,0,0,0,0,0,0,-1,1189,778,0,0
-28,246,0,0,0,0,0,0,0,0,0,-1,1196,778,0,0
-21,246,0,0,0,0,0,0,0,0,0,-1,1203,778,0,0
-14,246,0,0,0,0,0,0,0,0,0,-1,1210,778,0,0
-7,246,0,0,0,0,0,0,0,0,0,-1,1217,778,0,0
0,246,0,0,0,0,0,0,0,0,0,-1,1224,778,0,0
7,246,0,0,0,0,0,0,0,0,0,-1,1231,778,0,0
14,246,0,0,0,0,0,0,0,0,0,-1,1238,778,0,0
21,246,0,0,0,0,0,0,0,0,0,-1,1245,778,0,0
28,246,0,0,0,0,0,0,0,0,0,-1,1252,778,0,0
35,246,0,0,0,0,0,0,0,0,0,-1,1259,778,0,0
42,246,0,0,0,0,0,0,0,0,0,-1,1266,778,0,0
49,246,0,0,0,0,0,0,0,0,0,-1,1273,778,0,0
56,246,0,0,0,0,0,0,0,0,0,-1,1280,778,0,0
63,246,0,0,0,0,0,0,0,0,0,-1,1287,778,0,0
70,246,0,0,0,0,0,0,0,0,0,-1,1294,778,0,0
77,246,0,0,0,0,0,0,0,0,0,-1,1301,778,0,0
84,246,0,0,0,0,0,0,0,0,0,-1,1308,778,0,0
91,246,0,0,0,0,0,0,0,0,0,-1,1315,778,0,0
98,246,0,0,0,0,0,0,0,0,0,-1,1322,778,0,0
105,246,0,0,0,0,0,0,0,0,0,-1,1329,778,0,0
112,246,0,0,0,0,0,0,0,0,0,-1,1336,778,0,0
119,246,0,0,0,0,0,0,0,0,0,-1,1343,778,0,0
126,246,0,0,0,0,0,0,0,0,0,-1,1350,778,0,0
133,246,0,0,0,0,0,0,0,0,0,-1,1357,778,0,0
140,246,0,0,0,0,0,0,0,0,0,-1,1364,778,0,0
147,246,0,0,0,0,0,0,0,0,0,-1,1371,778,0,0
154,246,0,0,0,0,0,0,0,0,0,-1,1378,778,0,0
161,246,0,0,0,0,0,0,0,0,0,-1,1385,778,0,0
168,246,0,0,0,0,0,0,0,0,0,-1,1392,778,0,0
175,246,0,0,0,0,0,0,0,0,0,-1,1399,778,0,0
182,246,0,0,0,0,0,0,0,0,0,-1,1406,778,0,0
189,246,0,0,0,0,0,0,0,0,0,-1,1413,778,0,0
196,246,0,0,0,0,0,0,0,0,0,-1,1420,778,0,0
203,246,0,0,0,0,0,0,0,0,0,-1,1427,778,0,0
210,246,0,0,0,0,0,0,0,0,0,-1,1434,778,0,0
217,246,0,0,0,0,0,0,0,0,0,-1,1441,778,0,0
224,246,0,0,0,0,0,0,0,0,0,-1,1448,778,0,0
231,246,0,0,0,0,0,0,0,0,0,-1,1455,778,0,0
238,246,0,0,0,0,0,0,0,0,0,-1,1462,778,0,0
245,246,0,0,0,0,0,0,0,0,0,-1,1469,778,0,0
252,246,0,0,0,0,0,0,0,0,0,-1,1476,778,0,0
259,246,0,0,0,0,0,0,0,0,0,-1,1483,778,0,0
266,246,0,0,0,0,0,0,0,0,0,-1,1490,778,0,0
273,246,0,0,0,0,0,0,0,0,0,-1,1497,778,0,0
280,246,0,0,0,0,0,0,0,0,0,-1,1504,778,0,0
287,246,0,0,0,0,0,0,0,0,0,-1,1511,778,0,0
294,246,0,0,0,0,0,0,0,0,0,-1,1518,778,0,0
301,246,0,0,0,0,0,0,0,0,0,-1,1525,778,0,0
308,246,0,0,0,0,0,0,0,0,0,-1,1532,778,0,0
315,246,0,0,0,0,0,0,0,0,0,-1,1539,778,0,0
322,246,0,0,0,0,0,0,0,0,0,-1,1546,778,0,0
329,246,0,0,0,0,0,0,0,0,0,-1,1553,778,0,0
336,246,0,0,0,0,0,0,0,0,0,-1,1560,778,0,0
343,246,0,0,0,0,0,0,0,0,0,-1,1567,778,0,0
350,246,0,0,0,0,0,0,0,0,0,-1,1574,778,0,0
357,246,0,0,0,0,0,0,0,0,0,-1,1581,778,0,0
364,246,0,0,0,0,0,0,0,0,0,-1,1588,778,0,0
371,246,0,0,0,0,0,0,0,0,0,-1,1595,778,0,0
378,246,0,0,0,0,0,0,0,0,0,-1,1602,778,0,0
385,246,0,0,0,0,0,0,0,0,0,-1,1609,778,0,0
392,246,0,0,0,0,0,0,0,0,0,-1,1616,778,0,0
399,246,0,0,0,0,0,0,0,0,0,-1,1623,778,0,0
406,246,0,0,0,0,0,0,0,0,0,-1,1630,778,0,0
413,246,0,0,0,0,0,0,0,0,0,-1,1637,778,0,0
420,246,0,0,0,0,0,0,0,0,0,-1,1644,778,0,0
427,246,0,0,0,0,0,0,0,0,0,-1,1651,778,0,0
434,246,0,0,0,0,0,0,0,0,0,-1,1658,778,0,0
441,246,0,0,0,0,0,0,0,0,0,-1,1665,778,0,0
448,246,0,0,0,0,0,0,0,0,0,-1,1672,778,0,0
455,246,0,0,0,0,0,0,0,0,0,-1,1679,778,0,0
462,246,0,0,0,0,0,0,0,0,0,-1,1686,778,0,0
469,246,0,0,0,0,0,0,0,0,0,-1,1693,778,0,0
476,246,0,0,0,0,0,0,0,0,0,-1,1700,778,0,0
483,246,0,0,0,0,0,0,0,0,0,-1,1707,778,0,0
490,246,0,0,0,0,0,0,0,0,0,-1,1714,778,0,0
497,246,0,0,0,0,0,0,0,0,0,-1,1721,778,0,0
504,246,0,0,0,0,0,0,0,0,0,-1,1728,778,0,0
511,246,0,0,0,0,0,0,0,0,0,-1,1735,778,0,0
518,246,0,0,0,0,0,0,0,0,0,-1,1742,778,0,0
525,246,0,0,0,0,0,0,0,0,0,-1,1749,778,0,0
532,246,0,0,0,0,0,0,0,0,0,-1,1756,778,0,0
539,246,0,0,0,0,0,0,0,0,0,-1,1763,778,0,0
546,246,0,0,0,0,0,0,0,0,0,-1,1770,778,0,0
553,246,0,0,0,0,0,0,0,0,0,-1,1777,778,0,0
560,246,0,0,0,0,0,0,0,0,0,-1,1784,778,0,0
567,246,0,0,0,0,0,0,0,0,0,-1,1791,778,0,0
574,246,0,0,0,0,0,0,0,0,0,-1,1798,778,0,0
581,246,39.7371,2.72656,0.011281,0.0131474,-0.00595187,0.0182388,0.00618958,-0.863161,0.0107098,0.0375544,1805,778,39.7371,-2.72658
588,246,39.8353,2.67169,0.0111771,0.00883547,-0.00484218,0.014988,0.00502456,-0.666779,0.00880853,0.0429607,1812,778,39.8353,-2.6717
595,246,40.0411,2.58356,0.00981275,0.00637016,-0.00355104,0.0120377,0.00414522,-0.559719,0.00706132,0.0438737,1819,778,40.0411,-2.58355
602,246,40.0204,2.79492,0.0080296,0.00475803,-0.00227952,0.00919952,0.0035881,-0.474178,0.005354,0.0477378,1826,778,40.0204,-2.7949
609,246,40.053,3.09784,0,0,0,0,0,0,0,-1,1833,778,40.053,-3.09781
616,246,38.9021,2.32739,0,0,0,0,0,0,0,-1,1840,778,38.9021,-2.3274
623,246,39.1595,2.7124,0,0,0,0,0,0,0,-1,1847,778,39.1595,-2.7124
630,246,39.1923,2.76263,0,0,0,0,0,0,0,-1,1854,778,39.1923,-2.76263
637,246,27.627,1.09131,0,0,0,0,0,0,0,-1,1861,778,27.627,-1.09128
644,246,27.4908,-1.34576,0,0,0,0,0,0,0,-1,1868,778,27.4908,1.34576
651,246,27.5148,-0.874023,-2.46895e-05,0.000927443,0.000374094,0.00105684,-0.000154086,1.23778,0.000761139,0.0476532,1875,778,27.5148,0.874041
658,246,27.5609,-0.404358,0.000500979,0.00105894,-0.00013481,0.0010898,0.000470115,-1.34573,0.000631169,0.0265487,1882,778,27.5609,0.404335
665,246,27.532,0.0747681,0.000508858,0.000714841,-0.000443188,0.00106685,0.000156853,-0.899566,0.000665141,0.0216823,1889,778,27.532,-0.074769
672,246,27.5441,0.595642,0.000534769,0.000269074,-0.000509849,0.000928794,-0.000124951,-0.657951,0.000664772,0.0206638,1896,778,27.5441,-0.595667
679,246,27.5934,1.03894,0.00059394,3.91454e-05,-0.000453241,0.000847934,-0.000214848,-0.510789,0.000648872,0.0216902,1903,778,27.5934,-1.03894
686,246,27.6232,1.49066,0.000818001,0.000240185,-0.000311548,0.000953981,0.000104204,-0.411543,0.000604255,0.0231967,1910,778,27.6231,-1.49068
693,246,27.5928,1.94629,0.00146105,0.000576804,4.12463e-05,0.00146297,0.000574884,0.0465109,0.000851076,0.0187281,1917,778,27.5927,-1.94629
700,246,27.527,2.42633,0.00247467,0.00117228,0.000521036,0.00265746,0.000989485,0.337408,0.00155086,0.0151705,1924,778,27.527,-2.42632
707,246,27.5112,2.90546,0.00386294,0.00173046,0.0011239,0.0043459,0.00124751,0.405859,0.00258384,0.013904,1931,778,27.5112,-2.90544
714,246,27.5093,3.36536,0.00564432,0.00222707,0.00188095,0.00647684,0.00139456,0.416684,0.00393626,0.0134879,1938,778,27.5093,-3.36533
721,246,27.5021,3.79047,0.007774,0.00264842,0.00288057,0.0090668,0.00135562,0.421855,0.00564716,0.019629,1945,778,27.5021,-3.79048
728,246,27.6595,4.33069,0.0106919,0.0029686,0.00427102,0.0125882,0.00107231,0.417844,0.00805854,0.0420957,1952,778,27.6596,-4.33067
735,246,27.9468,4.95966,0,0,0,0,0,0,0,-1,1959,778,27.9468,-4.95966
742,246,27.2845,6.09308,0,0,0,0,0,0,0,-1,1966,778,27.2846,-6.0931
749,246,33.0042,3.3197,0,0,0,0,0,0,0,-1,1973,778,33.0041,-3.31969
756,246,33.6919,3.45264,0,0,0,0,0,0,0,-1,1980,778,33.6919,-3.45262
763,246,0,0,0,0,0,0,0,0,0,-1,1987,778,0,0
770,246,0,0,0,0,0,0,0,0,0,-1,1994,778,0,0
777,246,0,0,0,0,0,0,0,0,0,-1,2001,778,0,0
784,246,0,0,0,0,0,0,0,0,0,-1,2008,778,0,0
791,246,0,0,0,0,0,0,0,0,0,-1,2015,778,0,0
798,246,0,0,0,0,0,0,0,0,0,-1,2022,778,0,0
805,246,0,0,0,0,0,0,0,0,0,-1,2029,778,0,0
812,246,0,0,0,0,0,0,0,0,0,-1,2036,778,0,0
-700,239,0,0,0,0,0,0,0,0,0,-1,524,785,0,0
-693,239,0,0,0,0,0,0,0,0,0,-1,531,785,0,0
-686,239,0,0,0,0,0,0,0,0,0,-1,538,785,0,0
-679,239,0,0,0,0,0,0,0,0,0,-1,545,785,0,0
-672,239,0,0,0,0,0,0,0,0,0,-1,552,785,0,0
-665,239,0,0,0,0,0,0,0,0,0,-1,559,785,0,0
-658,239,0,0,0,0,0,0,0,0,0,-1,566,785,0,0
-651,239,0,0,0,0,0,0,0,0,0,-1,573,785,0,0
-644,239,0,0,0,0,0,0,0,0,0,-1,580,785,0,0
-637,239,-23.2709,0.465088,0,0,0,0,0,0,0,-1,587,785,-23.271,-0.465116
-630,239,-23.4006,0.956299,0,0,0,0,0,0,0,-1,594,785,-23.4005,-0.956285
-623,239,-23.3302,1.56317,0,0,0,0,0,0,0,-1,601,785,-23.3302,-1.56317
-616,239,-23.8334,2.11334,0,0,0,0,0,0,0,-1,608,785,-23.8334,-2.11337
-609,239,-19.8521,2.55859,0,0,0,0,0,0,0,-1,615,785,-19.852,-2.55859
-602,239,-18.9963,2.1532,0,0,0,0,0,0,0,-1,622,785,-18.9963,-2.15317
-595,239,-18.8763,1.68976,0.0106923,0.00423601,-0.00327812,0.0120649,0.00286339,-0.396541,0.00727901,0.0421059,629,785,-18.8763,-1.68976
-588,239,-18.7479,1.25415,0.00707133,0.00261742,-0.00201905,0.00785035,0.0018384,-0.368237,0.0047411,0.0194207,636,785,-18.7478,-1.25414
-581,239,-18.8326,0.778992,0.00462101,0.00110493,-0.00103473,0.00490292,0.000823027,-0.265986,0.00303174,0.0111462,643,785,-18.8326,-0.778985
-574,239,-18.8144,0.291321,0.00295639,0.000431753,-0.000158414,0.00296629,0.000421852,-0.0624211,0.00185298,0.0118427,650,785,-18.8144,-0.291336
-567,239,-18.8018,-0.15387,0.00171445,-1.12078e-05,0.000499073,0.00184839,-0.000145148,0.262199,0.00128338,0.0155135,657,785,-18.8018,0.15384
-560,239,-18.8257,-0.568848,0.000536843,-0.000402637,0.00110254,0.00126554,-0.00113133,0.584017,0.00138456,0.0160707,664,785,-18.8257,0.568864
-553,239,-18.8395,-0.987488,-0.000506273,-0.000771526,0.0015674,0.000934103,-0.0022119,0.743191,0.00186562,0.0138282,671,785,-18.8395,0.987458
-546,239,-18.8899,-1.41992,-0.00146401,-0.0010168,0.00199419,0.000766285,-0.00324709,0.841229,0.00246026,0.0143343,678,785,-18.8899,1.41995
-539,239,-18.9137,-1.8858,-0.00217721,-0.000931122,0.00175537,0.000308496,-0.00341683,0.955931,0.00238737,0.0161874,685,785,-18.9137,1.88577
-532,239,-18.8925,-2.32825,-0.00226148,-0.000779395,0.00134279,1.32594e-05,-0.00305414,1.03754,0.00204052,0.015972,692,785,-18.8925,2.32827
-525,239,-18.9131,-2.64478,-0.00175339,-0.000783376,0.00080334,-0.000329987,-0.00220678,1.05698,0.00137446,0.0231797,699,785,-18.9131,2.64475
-518,239,-19.0597,-2.86047,0,0,0,0,0,0,0,-1,706,785,-19.0597,2.86048
-511,239,-19.9037,-2.09027,0,0,0,0,0,0,0,-1,713,785,-19.9038,2.09026
-504,239,-25.5015,2.00421,0,0,0,0,0,0,0,-1,720,785,-25.5015,-2.00422
-497,239,-29.6268,1.84052,0,0,0,0,0,0,0,-1,727,785,-29.6268,-1.84052
-490,239,-29.6976,1.04608,0.00426069,-0.0012111,-0.00666589,0.0087303,-0.00568071,-0.590665,0.00838206,0.044922,734,785,-29.6976,-1.04608
-483,239,-29.6734,0.695679,0.00770466,-0.00213541,-0.00955073,0.0135281,-0.00795889,-0.547552,0.0125437,0.0459029,741,785,-29.6734,-0.695672
-476,239,-29.5158,0.84845,0.0117836,-0.00373294,-0.0124327,0.0186801,-0.0106295,-0.506451,0.0171334,0.0427166,748,785,-29.5158,-0.848463
-469,239,-29.5252,0.83728,0,0,0,0,0,0,0,-1,755,785,-29.5252,-0.837267
-462,239,-28.8555,0.875854,0,0,0,0,0,0,0,-1,762,785,-28.8555,-0.875878
-455,239,0,0,0,0,0,0,0,0,0,-1,769,785,0,0
-448,239,0,0,0,0,0,0,0,0,0,-1,776,785,0,0
-441,239,0,0,0,0,0,0,0,0,0,-1,783,785,0,0
-434,239,0,0,0,0,0,0,0,0,0,-1,790,785,0,0
-427,239,0,0,0,0,0,0,0,0,0,-1,797,785,0,0
-420,239,0,0,0,0,0,0,0,0,0,-1,804,785,0,0
-413,239,0,0,0,0,0,0,0,0,0,-1,811,785,0,0
-406,239,0,0,0,0,0,0,0,0,0,-1,818,785,0,0
-399,239,0,0,0,0,0,0,0,0,0,-1,825,785,0,0
-392,239,0,0,0,0,0,0,0,0,0,-1,832,785,0,0
-385,239,0,0,0,0,0,0,0,0,0,-1,839,785,0,0
-378,239,0,0,0,0,0,0,0,0,0,-1,846,785,0,0
-371,239,0,0,0,0,0,0,0,0,0,-1,853,785,0,0
-364,239,0,0,0,0,0,0,0,0,0,-1,860,785,0,0
-357,239,0,0,0,0,0,0,0,0,0,-1,867,785,0,0
-350,239,0,0,0,0,0,0,0,0,0,-1,874,785,0,0
-343,239,0,0,0,0,0,0,0,0,0,-1,881,785,0,0
-336,239,0,0,0,0,0,0,0,0,0,-1,888,785,0,0
-329,239,0,0,0,0,0,0,0,0,0,-1,895,785,0,0
-322,239,0,0,0,0,0,0,0,0,0,-1,902,785,0,0
-315,239,0,0,0,0,0,0,0,0,0,-1,909,785,0,0
-308,239,0,0,0,0,0,0,0,0,0,-1,916,785,0,0
-301,239,0,0,0,0,0,0,0,0,0,-1,923,785,0,0
-294,239,0,0,0,0,0,0,0,0,0,-1,930,785,0,0
-287,239,0,0,0,0,0,0,0,0,0,-1,937,785,0,0
-280,239,0,0,0,0,0,0,0,0,0,-1,944,785,0,0
-273,239,0,0,0,0,0,0,0,0,0,-1,951,785,0,0
-266,239,0,0,0,0,0,0,0,0,0,-1,958,785,0,0
-259,239,0,0,0,0,0,0,0,0,0,-1,965,785,0,0
-252,239,0,0,0,0,0,0,0,0,0,-1,972,785,0,0
-245,239,0,0,0,0,0,0,0,0,0,-1,979,785,0,0
-238,239,0,0,0,0,0,0,0,0,0,-1,986,785,0,0
-231,239,0,0,0,0,0,0,0,0,0,-1,993,785,0,0
-224,239,0,0,0,0,0,0,0,0,0,-1,1000,785,0,0
-217,239,0,0,0,0,0,0,0,0,0,-1,1007,785,0,0
-210,239,0,0,0,0,0,0,0,0,0,-1,1014,785,0,0
-203,239,0,0,0,0,0,0,0,0,0,-1,1021,785,0,0
-196,239,0,0,0,0,0,0,0,0,0,-1,1028,785,0,0
-189,239,0,0,0,0,0,0,0,0,0,-1,1035,785,0,0
-182,239,0,0,0,0,0,0,0,0,0,-1,1042,785,0,0
-175,239,0,0,0,0,0,0,0,0,0,-1,1049,785,0,0
-168,239,0,0,0,0,0,0,0,0,0,-1,1056,785,0,0
-161,239,0,0,0,0,0,0,0,0,0,-1,1063,785,0,0
-154,239,0,0,0,0,0,0,0,0,0,-1,1070,785,0,0
-147,239,0,0,0,0,0,0,0,0,0,-1,1077,785,0,0
-140,239,0,0,0,0,0,0,0,0,0,-1,1084,785,0,0
-133,239,0,0,0,0,0,0,0,0,0,-1,1091,785,0,0
-126,239,0,0,0,0,0,0,0,0,0,-1,1098,785,0,0
-119,239,0,0,0,0,0,0,0,0,0,-1,1105,785,0,0
-112,239,0,0,0,0,0,0,0,0,0,-1,1112,785,0,0
-105,239,0,0,0,0,0,0,0,0,0,-1,1119,785,0,0
-98,239,0,0,0,0,0,0,0,0,0,-1,1126,785,0,0
-91,239,0,0,0,0,0,0,0,0,0,-1,1133,785,0,0
-84,239,0,0,0,0,0,0,0,0,0,-1,1140,785,0,0
-77,239,0,0,0,0,0,0,0,0,0,-1,1147,785,0,0
-70,239,0,0,0,0,0,0,0,0,0,-1,1154,785,0,0
-63,239,0,0,0,0,0,0,0,0,0,-1,1161,785,0,0
-56,239,0,0,0,0,0,0,0,0,0,-1,1168,785,0,0
-49,239,0,0,0,0,0,0,0,0,0,-1,1175,785,0,0
-42,239,0,0,0,0,0,0,0,0,0,-1,1182,785,0,0
-35,239,0,0,0,0,0,0,0,0,0,-1,1189,785,0,0
-28,239,0,0,0,0,0,0,0,0,0,-1,1196,785,0,0
-21,239,0,0,0,0,0,0,0,0,0,-1,1203,785,0,0
-14,239,0,0,0,0,0,0,0,0,0,-1,1210,785,0,0
-7,239,0,0,0,0,0,0,0,0,0,-1,1217,785,0,0
0,239,0,0,0,0,0,0,0,0,0,-1,1224,785,0,0
7,239,0,0,0,0,0,0,0,0,0,-1,1231,785,0,0
14,239,0,0,0,0,0,0,0,0,0,-1,1238,785,0,0
21,239,0,0,0,0,0,0,0,0,0,-1,1245,785,0,0
28,239,0,0,0,0,0,0,0,0,0,-1,1252,785,0,0
35,239,0,0,0,0,0,0,0,0,0,-1,1259,785,0,0
42,239,0,0,0,0,0,0,0,0,0,-1,1266,785,0,0
49,239,0,0,0,0,0,0,0,0,0,-1,1273,785,0,0
56,239,0,0,0,0,0,0,0,0,0,-1,1280,785,0,0
63,239,0,0,0,0,0,0,0,0,0,-1,1287,785,0,0
70,239,0,0,0,0,0,0,0,0,0,-1,1294,785,0,0
77,239,0,0,0,0,0,0,0,0,0,-1,1301,785,0,0
84,239,0,0,0,0,0,0,0,0,0,-1,1308,785,0,0
91,239,0,0,0,0,0,0,0,0,0,-1,1315,785,0,0
98,239,0,0,0,0,0,0,0,0,0,-1,1322,785,0,0
105,239,0,0,0,0,0,0,0,0,0,-1,1329,785,0,0
112,239,0,0,0,0,0,0,0,0,0,-1,1336,785,0,0
119,239,0,0,0,0,0,0,0,0,0,-1,1343,785,0,0
126,239,0,0,0,0,0,0,0,0,0,-1,1350,785,0,0
133,239,0,0,0,0,0,0,0,0,0,-1,1357,785,0,0
140,239,0,0,0,0,0,0,0,0,0,-1,1364,785,0,0
147,239,0,0,0,0,0,0,0,0,0,-1,1371,785,0,0
154,239,0,0,0,0,0,0,0,0,0,-1,1378,785,0,0
161,239,0,0,0,0,0,0,0,0,0,-1,1385,785,0,0
168,239,0,0,0,0,0,0,0,0,0,-1,1392,785,0,0
175,239,0,0,0,0,0,0,0,0,0,-1,1399,785,0,0
182,239,0,0,0,0,0,0,0,0,0,-1,1406,785,0,0
189,239,0,0,0,0,0,0,0,0,0,-1,1413,785,0,0
196,239,0,0,0,0,0,0,0,0,0,-1,1420,785,0,0
203,239,0,0,0,0,0,0,0,0,0,-1,1427,785,0,0
210,239,0,0,0,0,0,0,0,0,0,-1,1434,785,0,0
217,239,0,0,0,0,0,0,0,0,0,-1,1441,785,0,0
224,239,0,0,0,0,0,0,0,0,0,-1,1448,785,0,0
231,239,0,0,0,0,0,0,0,0,0,-1,1455,785,0,0
238,239,0,0,0,0,0,0,0,0,0,-1,1462,785,0,0
245,239,0,0,0,0,0,0,0,0,0,-1,1469,785,0,0
252,239,0,0,0,0,0,0,0,0,0,-1,1476,785,0,0
259,239,0,0,0,0,0,0,0,0,0,-1,1483,785,0,0
266,239,0,0,0,0,0,0,0,0,0,-1,1490,785,0,0
273,239,0,0,0,0,0,0,0,0,0,-1,1497,785,0,0
280,239,0,0,0,0,0,0,0,0,0,-1,1504,785,0,0
287,239,0,0,0,0,0,0,0,0,0,-1,1511,785,0,0
294,239,0,0,0,0,0,0,0,0,0,-1,1518,785,0,0
301,239,0,0,0,0,0,0,0,0,0,-1,1525,785,0,0
308,239,0,0,0,0,0,0,0,0,0,-1,1532,785,0,0
315,239,0,0,0,0,0,0,0,0,0,-1,1539,785,0,0
322,239,0,0,0,0,0,0,0,0,0,-1,1546,785,0,0
329,239,0,0,0,0,0,0,0,0,0,-1,1553,785,0,0
336,239,0,0,0,0,0,0,0,0,0,-1,1560,785,0,0
343,239,0,0,0,0,0,0,0,0,0,-1,1567,785,0,0
350,239,0,0,0,0,0,0,0,0,0,-1,1574,785,0,0
357,239,0,0,0,0,0,0,0,0,0,-1,1581,785,0,0
364,239,0,0,0,0,0,0,0,0,0,-1,1588,785,0,0
371,239,0,0,0,0,0,0,0,0,0,-1,1595,785,0,0
378,239,0,0,0,0,0,0,0,0,0,-1,1602,785,0,0
385,239,0,0,0,0,0,0,0,0,0,-1,1609,785,0,0
392,239,0,0,0,0,0,0,0,0,0,-1,1616,785,0,0
399,239,0,0,0,0,0,0,0,0,0,-1,1623,785,0,0
406,239,0,0,0,0,0,0,0,0,0,-1,1630,785,0,0
413,239,0,0,0,0,0,0,0,0,0,-1,1637,785,0,0
420,239,0,0,0,0,0,0,0,0,0,-1,1644,785,0,0
427,239,0,0,0,0,0,0,0,0,0,-1,1651,785,0,0
434,239,0,0,0,0,0,0,0,0,0,-1,1658,785,0,0
441,239,0,0,0,0,0,0,0,0,0,-1,1665,785,0,0
448,239,0,0,0,0,0,0,0,0,0,-1,1672,785,0,0
455,239,0,0,0,0,0,0,0,0,0,-1,1679,785,0,0
462,239,0,0,0,0,0,0,0,0,0,-1,1686,785,0,0
469,239,0,0,0,0,0,0,0,0,0,-1,1693,785,0,0
476,239,0,0,0,0,0,0,0,0,0,-1,1700,785,0,0
483,239,0,0,0,0,0,0,0,0,0,-1,1707,785,0,0
490,239,0,0,0,0,0,0,0,0,0,-1,1714,785,0,0
497,239,0,0,0,0,0,0,0,0,0,-1,1721,785,0,0
504,239,0,0,0,0,0,0,0,0,0,-1,1728,785,0,0
511,239,0,0,0,0,0,0,0,0,0,-1,1735,785,0,0
518,239,0,0,0,0,0,0,0,0,0,-1,1742,785,0,0
525,239,0,0,0,0,0,0,0,0,0,-1,1749,785,0,0
532,239,0,0,0,0,0,0,0,0,0,-1,1756,785,0,0
539,239,0,0,0,0,0,0,0,0,0,-1,1763,785,0,0
546,239,0,0,0,0,0,0,0,0,0,-1,1770,785,0,0
553,239,0,0,0,0,0,0,0,0,0,-1,1777,785,0,0
560,239,0,0,0,0,0,0,0,0,0,-1,1784,785,0,0
567,239,0,0,0,0,0,0,0,0,0,-1,1791,785,0,0
574,239,0,0,0,0,0,0,0,0,0,-1,1798,785,0,0
581,239,39.7738,2.685,0.00789617,0.0127026,-0.00347114,0.0145213,0.00607751,-1.08818,0.00842087,0.0367447,1805,785,39.7738,-2.685
588,239,39.7682,2.65228,0.00820825,0.00841452,-0.00261887,0.0109323,0.00569048,-0.805079,0.00631353,0.0390803,1812,785,39.7682,-2.65225
595,239,39.8695,2.61768,0.00748096,0.00631418,-0.00172474,0.0087183,0.00507684,-0.622316,0.0050562,0.0367415,1819,785,39.8695,-2.6177
602,239,39.8989,2.63837,0.00630101,0.00496717,-0.000865687,0.00672689,0.0045413,-0.457185,0.00396236,0.0430503,1826,785,39.8989,-2.63835
609,239,39.8799,2.77881,0,0,0,0,0,0,0,-1,1833,785,39.8799,-2.77878
616,239,39.2764,2.98682,0,0,0,0,0,0,0,-1,1840,785,39.2764,-2.98681
623,239,39.4048,3.11212,0.00270204,0.00257931,0.000641291,0.0032849,0.00199646,0.737698,0.00191117,0.0456607,1847,785,39.4048,-3.1121
630,239,39.3431,3.16119,0.00210069,0.00200416,0.000774929,0.00282885,0.00127599,0.754297,0.00163584,0.045007,1854,785,39.3431,-3.16117
637,239,39.1294,3.04285,0,0,0,0,0,0,0,-1,1861,785,39.1294,-3.04282
644,239,18.3466,0.735413,0,0,0,0,0,0,0,-1,1868,785,18.3465,-0.735414
651,239,27.8856,-0.889771,0,0,0,0,0,0,0,-1,1875,785,27.8856,0.8898
658,239,28.001,-0.371582,0.000583813,0.00148602,-0.000186913,0.00152321,0.000546622,-1.37439,0.000891025,0.0342029,1882,785,28.0009,0.371557
665,239,28.0552,0.13501,0.000557506,0.001063,-0.000510618,0.00138,0.000240507,-1.01521,0.000851235,0.0155606,1889,785,28.0552,-0.13501
672,239,28.0193,0.600281,0.00052816,0.000474839,-0.000588802,0.0010909,-8.79052e-05,-0.762774,0.000758272,0.0206622,1896,785,28.0193,-0.600296
679,239,28.0586,1.04858,0.000470483,5.94327e-05,-0.000598879,0.000898121,-0.000368206,-0.620104,0.00075215,0.0238115,1903,785,28.0586,-1.04861
686,239,28.0745,1.51251,0.00055199,8.91932e-05,-0.000519351,0.00088916,-0.000247977,-0.575823,0.000690439,0.0241755,1910,785,28.0744,-1.51252
693,239,28.0708,1.97119,0.00106016,0.000260103,-0.000221259,0.00111727,0.00020299,-0.252614,0.000687249,0.0152919,1917,785,28.0708,-1.97117
700,239,28.019,2.43127,0.00191587,0.000847898,0.000222073,0.00196021,0.000803561,0.197059,0.00113783,0.0117209,1924,785,28.0191,-2.43125
707,239,27.9923,2.89502,0.00310614,0.00147111,0.000746731,0.00339585,0.0011814,0.370089,0.0019906,0.0109326,1931,785,27.9923,-2.89503
714,239,27.9825,3.34387,0.004586,0.00203577,0.00139324,0.00519954,0.00142222,0.414819,0.0031029,0.0100671,1938,785,27.9825,-3.34387
721,239,27.9376,3.81036,0.006288,0.0025666,0.00218274,0.0072955,0.00155911,0.432437,0.00443625,0.0250707,1945,785,27.9376,-3.81039
728,239,27.8333,4.26385,0.00848723,0.00307369,0.00320279,0.00997385,0.00158708,0.434569,0.00618842,0.0451071,1952,785,27.8332,-4.26386
735,239,27.9456,4.81665,0,0,0,0,0,0,0,-1,1959,785,27.9456,-4.81664
742,239,31.0596,3.20886,0,0,0,0,0,0,0,-1,1966,785,31.0596,-3.20887
749,239,32.1489,3.4411,0,0,0,0,0,0,0,-1,1973,785,32.149,-3.44109
756,239,32.9064,3.6687,0,0,0,0,0,0,0,-1,1980,785,32.9063,-3.66873
763,239,0,0,0,0,0,0,0,0,0,-1,1987,785,0,0
770,239,0,0,0,0,0,0,0,0,0,-1,1994,785,0,0
777,239,0,0,0,0,0,0,0,0,0,-1,2001,785,0,0
784,239,0,0,0,0,0,0,0,0,0,-1,2008,785,0,0
791,239,0,0,0,0,0,0,0,0,0,-1,2015,785,0,0
798,239,0,0,0,0,0,0,0,0,0,-1,2022,785,0,0
805,239,0,0,0,0,0,0,0,0,0,-1,2029,785,0,0
812,239,0,0,0,0,0,0,0,0,0,-1,2036,785,0,0
-700,232,0,0,0,0,0,0,0,0,0,-1,524,792,0,0
-693,232,0,0,0,0,0,0,0,0,0,-1,531,792,0,0
-686,232,0,0,0,0,0,0,0,0,0,-1,538,792,0,0
-679,232,0,0,0,0,0,0,0,0,0,-1,545,792,0,0
-672,232,0,0,0,0,0,0,0,0,0,-1,552,792,0,0
-665,232,0,0,0,0,0,0,0,0,0,-1,559,792,0,0
-658,232,0,0,0,0,0,0,0,0,0,-1,566,792,0,0
-651,232,0,0,0,0,0,0,0,0,0,-1,573,792,0,0
-644,232,-22.5826,0.269348,0,0,0,0,0,0,0,-1,580,792,-22.5826,-0.269357
-637,232,-22.0887,-0.86969,0,0,0,0,0,0,0,-1,587,792,-22.0887,0.869704
-630,232,-22.8522,1.33289,0,0,0,0,0,0,0,-1,594,792,-22.8523,-1.3329
-623,232,-24.0605,3.30249,0,0,0,0,0,0,0,-1,601,792,-24.0605,-3.30248
-616,232,-23.33,1.96783,0,0,0,0,0,0,0,-1,608,792,-23.33,-1.96785
-609,232,-24.4119,2.80933,0,0,0,0,0,0,0,-1,615,792,-24.4118,-2.80933
-602,232,-19.2876,2.45569,0,0,0,0,0,0,0,-1,622,792,-19.2876,-2.45566
-595,232,-19.2234,1.8562,0.0106746,0.00684701,-0.00262349,0.0120082,0.00551345,-0.470277,0.00694063,0.0364373,629,792,-19.2234,-1.85619
-588,232,-19.2304,1.25098,0.00654839,0.00405638,-0.0014526,0.00721617,0.0033886,-0.430903,0.00416883,0.0132917,636,792,-19.2304,-1.25098
-581,232,-19.2549,0.779602,0.00400597,0.0015424,-0.000622939,0.00415452,0.00139384,-0.234107,0.0024415,0.00862123,643,792,-19.2549,-0.779605
-574,232,-19.2451,0.347595,0.00242757,0.000224539,4.17717e-05,0.00242836,0.000223748,0.018952,0.00154972,0.00848099,650,792,-19.2451,-0.347588
-567,232,-19.2681,-0.10791,0.00130281,-0.00026832,0.000587534,0.00149822,-0.000463728,0.321081,0.00118406,0.0102925,657,792,-19.2681,0.107933
-560,232,-19.2856,-0.53479,0.000216818,-0.000520935,0.00113577,0.00104211,-0.00134623,0.628381,0.00138263,0.0138601,664,792,-19.2857,0.534778
-553,232,-19.317,-0.963318,-0.00078281,-0.000726879,0.00154863,0.00079404,-0.00230373,0.794426,0.00185795,0.0144037,671,792,-19.3169,0.963288
-546,232,-19.3645,-1.41333,-0.00175014,-0.000813205,0.00189843,0.000673704,-0.00323705,0.906364,0.00241414,0.021939,678,792,-19.3645,1.41332
-539,232,-19.395,-1.84955,-0.00240069,-0.000609589,0.00152744,0.000265481,-0.00327576,1.05054,0.0022775,0.0285123,685,792,-19.395,1.84956
-532,232,-19.3986,-2.27698,-0.00243602,-0.000298623,0.00108948,0.000158813,-0.00289345,1.17328,0.00198403,0.02625,692,792,-19.3986,2.277
-525,232,-19.5629,-2.62598,-0.00191462,-0.00025591,0.000556871,-8.62986e-05,-0.00208423,1.27514,0.00136163,0.0482966,699,792,-19.5628,2.62597
-518,232,-20.0289,-2.93408,0,0,0,0,0,0,0,-1,706,792,-20.0289,2.93406
-511,232,-20.7353,-1.16711,0,0,0,0,0,0,0,-1,713,792,-20.7353,1.16712
-504,232,-29.2743,0.00750732,0,0,0,0,0,0,0,-1,720,792,-29.2743,-0.00747814
-497,232,-29.4948,1.2804,0,0,0,0,0,0,0,-1,727,792,-29.4947,-1.28038
-490,232,-29.5313,1.00482,0.00399391,-0.000743523,-0.00678737,0.00881402,-0.00556363,-0.617511,0.00837135,0.046973,734,792,-29.5313,-1.00481
-483,232,-29.4983,0.80957,0.00724629,-0.00163631,-0.0095384,0.0133267,-0.00771671,-0.567513,0.0122925,0.0403139,741,792,-29.4983,-0.809541
-476,232,-29.3975,0.828369,0.0111029,-0.00304402,-0.0122355,0.0181625,-0.0101036,-0.523315,0.016539,0.0334894,748,792,-29.3975,-0.828384
-469,232,-29.4508,0.737122,0.0149346,-0.00497189,-0.0145791,0.0226341,-0.0126714,-0.485887,0.0206524,0.0339427,755,792,-29.4508,-0.737097
-462,232,0,0,0,0,0,0,0,0,0,-1,762,792,0,0
-455,232,0,0,0,0,0,0,0,0,0,-1,769,792,0,0
-448,232,0,0,0,0,0,0,0,0,0,-1,776,792,0,0
-441,232,0,0,0,0,0,0,0,0,0,-1,783,792,0,0
-434,232,0,0,0,0,0,0,0,0,0,-1,790,792,0,0
-427,232,0,0,0,0,0,0,0,0,0,-1,797,792,0,0
-420,232,0,0,0,0,0,0,0,0,0,-1,804,792,0,0
-413,232,0,0,0,0,0,0,0,0,0,-1,811,792,0,0
-406,232,0,0,0,0,0,0,0,0,0,-1,818,792,0,0
-399,232,0,0,0,0,0,0,0,0,0,-1,825,792,0,0
-392,232,0,0,0,0,0,0,0,0,0,-1,832,792,0,0
-385,232,0,0,0,0,0,0,0,0,0,-1,839,792,0,0
-378,232,0,0,0,0,0,0,0,0,0,-1,846,792,0,0
-371,232,0,0,0,0,0,0,0,0,0,-1,853,792,0,0
-364,232,0,0,0,0,0,0,0,0,0,-1,860,792,0,0
-357,232,0,0,0,0,0,0,0,0,0,-1,867,792,0,0
-350,232,0,0,0,0,0,0,0,0,0,-1,874,792,0,0
-343,232,0,0,0,0,0,0,0,0,0,-1,881,792,0,0
-336,232,0,0,0,0,0,0,0,0,0,-1,888,792,0,0
-329,232,0,0,0,0,0,0,0,0,0,-1,895,792,0,0
-322,232,0,0,0,0,0,0,0,0,0,-1,902,792,0,0
-315,232,0,0,0,0,0,0,0,0,0,-1,909,792,0,0
-308,232,0,0,0,0,0,0,0,0,0,-1,916,792,0,0
-301,232,0,0,0,0,0,0,0,0,0,-1,923,792,0,0
-294,232,0,0,0,0,0,0,0,0,0,-1,930,792,0,0
-287,232,0,0,0,0,0,0,0,0,0,-1,937,792,0,0
-280,232,0,0,0,0,0,0,0,0,0,-1,944,792,0,0
-273,232,0,0,0,0,0,0,0,0,0,-1,951,792,0,0
-266,232,0,0,0,0,0,0,0,0,0,-1,958,792,0,0
-259,232,0,0,0,0,0,0,0,0,0,-1,965,792,0,0
-252,232,0,0,0,0,0,0,0,0,0,-1,972,792,0,0
-245,232,0,0,0,0,0,0,0,0,0,-1,979,792,0,0
-238,232,0,0,0,0,0,0,0,0,0,-1,986,792,0,0
-231,232,0,0,0,0,0,0,0,0,0,-1,993,792,0,0
-224,232,0,0,0,0,0,0,0,0,0,-1,1000,792,0,0
-217,232,0,0,0,0,0,0,0,0,0,-1,1007,792,0,0
-210,232,0,0,0,0,0,0,0,0,0,-1,1014,792,0,0
-203,232,0,0,0,0,0,0,0,0,0,-1,1021,792,0,0
-196,232,0,0,0,0,0,0,0,0,0,-1,1028,792,0,0
-189,232,0,0,0,0,0,0,0,0,0,-1,1035,792,0,0
-182,232,0,0,0,0,0,0,0,0,0,-1,1042,792,0,0
-175,232,0,0,0,0,0,0,0,0,0,-1,1049,792,0,0
-168,232,0,0,0,0,0,0,0,0,0,-1,1056,792,0,0
-161,232,0,0,0,0,0,0,0,0,0,-1,1063,792,0,0
-154,232,0,0,0,0,0,0,0,0,0,-1,1070,792,0,0
-147,232,0,0,0,0,0,0,0,0,0,-1,1077,792,0,0
-140,232,0,0,0,0,0,0,0,0,0,-1,1084,792,0,0
-133,232,0,0,0,0,0,0,0,0,0,-1,1091,792,0,0
-126,232,0,0,0,0,0,0,0,0,0,-1,1098,792,0,0
-119,232,0,0,0,0,0,0,0,0,0,-1,1105,792,0,0
-112,232,0,0,0,0,0,0,0,0,0,-1,1112,792,0,0
-105,232,0,0,0,0,0,0,0,0,0,-1,1119,792,0,0
-98,232,0,0,0,0,0,0,0,0,0,-1,1126,792,0,0
-91,232,0,0,0,0,0,0,0,0,0,-1,1133,792,0,0
-84,232,0,0,0,0,0,0,0,0,0,-1,1140,792,0,0
-77,232,0,0,0,0,0,0,0,0,0,-1,1147,792,0,0
-70,232,0,0,0,0,0,0,0,0,0,-1,1154,792,0,0
-63,232,0,0,0,0,0,0,0,0,0,-1,1161,792,0,0
-56,232,0,0,0,0,0,0,0,0,0,-1,1168,792,0,0
-49,232,0,0,0,0,0,0,0,0,0,-1,1175,792,0,0
-42,232,0,0,0,0,0,0,0,0,0,-1,1182,792,0,0
-35,232,0,0,0,0,0,0,0,0,0,-1,1189,792,0,0
-28,232,0,0,0,0,0,0,0,0,0,-1,1196,792,0,0
-21,232,0,0,0,0,0,0,0,0,0,-1,1203,792,0,0
-14,232,0,0,0,0,0,0,0,0,0,-1,1210,792,0,0
-7,232,0,0,0,0,0,0,0,0,0,-1,1217,792,0,0
0,232,0,0,0,0,0,0,0,0,0,-1,1224,792,0,0
7,232,0,0,0,0,0,0,0,0,0,-1,1231,792,0,0
14,232,0,0,0,0,0,0,0,0,0,-1,1238,792,0,0
21,232,0,0,0,0,0,0,0,0,0,-1,1245,792,0,0
28,232,0,0,0,0,0,0,0,0,0,-1,1252,792,0,0
35,232,0,0,0,0,0,0,0,0,0,-1,1259,792,0,0
42,232,0,0,0,0,0,0,0,0,0,-1,1266,792,0,0
49,232,0,0,0,0,0,0,0,0,0,-1,1273,792,0,0
56,232,0,0,0,0,0,0,0,0,0,-1,1280,792,0,0
63,232,0,0,0,0,0,0,0,0,0,-1,1287,792,0,0
70,232,0,0,0,0,0,0,0,0,0,-1,1294,792,0,0
77,232,0,0,0,0,0,0,0,0,0,-1,1301,792,0,0
84,232,0,0,0,0,0,0,0,0,0,-1,1308,792,0,0
91,232,0,0,0,0,0,0,0,0,0,-1,1315,792,0,0
98,232,0,0,0,0,0,0,0,0,0,-1,1322,792,0,0
105,232,0,0,0,0,0,0,0,0,0,-1,1329,792,0,0
112,232,0,0,0,0,0,0,0,0,0,-1,1336,792,0,0
119,232,0,0,0,0,0,0,0,0,0,-1,1343,792,0,0
126,232,0,0,0,0,0,0,0,0,0,-1,1350,792,0,0
133,232,0,0,0,0,0,0,0,0,0,-1,1357,792,0,0
140,232,0,0,0,0,0,0,0,0,0,-1,1364,792,0,0
147,232,0,0,0,0,0,0,0,0,0,-1,1371,792,0,0
154,232,0,0,0,0,0,0,0,0,0,-1,1378,792,0,0
161,232,0,0,0,0,0,0,0,0,0,-1,1385,792,0,0
168,232,0,0,0,0,0,0,0,0,0,-1,1392,792,0,0
175,232,0,0,0,0,0,0,0,0,0,-1,1399,792,0,0
182,232,0,0,0,0,0,0,0,0,0,-1,1406,792,0,0
189,232,0,0,0,0,0,0,0,0,0,-1,1413,792,0,0
196,232,0,0,0,0,0,0,0,0,0,-1,1420,792,0,0
203,232,0,0,0,0,0,0,0,0,0,-1,1427,792,0,0
210,232,0,0,0,0,0,0,0,0,0,-1,1434,792,0,0
217,232,0,0,0,0,0,0,0,0,0,-1,1441,792,0,0
224,232,0,0,0,0,0,0,0,0,0,-1,1448,792,0,0
231,232,0,0,0,0,0,0,0,0,0,-1,1455,792,0,0
238,232,0,0,0,0,0,0,0,0,0,-1,1462,792,0,0
245,232,0,0,0,0,0,0,0,0,0,-1,1469,792,0,0
252,232,0,0,0,0,0,0,0,0,0,-1,1476,792,0,0
259,232,0,0,0,0,0,0,0,0,0,-1,1483,792,0,0
266,232,0,0,0,0,0,0,0,0,0,-1,1490,792,0,0
273,232,0,0,0,0,0,0,0,0,0,-1,1497,792,0,0
280,232,0,0,0,0,0,0,0,0,0,-1,1504,792,0,0
287,232,0,0,0,0,0,0,0,0,0,-1,1511,792,0,0
294,232,0,0,0,0,0,0,0,0,0,-1,1518,792,0,0
301,232,0,0,0,0,0,0,0,0,0,-1,1525,792,0,0
308,232,0,0,0,0,0,0,0,0,0,-1,1532,792,0,0
315,232,0,0,0,0,0,0,0,0,0,-1,1539,792,0,0
322,232,0,0,0,0,0,0,0,0,0,-1,1546,792,0,0
329,232,0,0,0,0,0,0,0,0,0,-1,1553,792,0,0
336,232,0,0,0,0,0,0,0,0,0,-1,1560,792,0,0
343,232,0,0,0,0,0,0,0,0,0,-1,1567,792,0,0
350,232,0,0,0,0,0,0,0,0,0,-1,1574,792,0,0
357,232,0,0,0,0,0,0,0,0,0,-1,1581,792,0,0
364,232,0,0,0,0,0,0,0,0,0,-1,1588,792,0,0
371,232,0,0,0,0,0,0,0,0,0,-1,1595,792,0,0
378,232,0,0,0,0,0,0,0,0,0,-1,1602,792,0,0
385,232,0,0,0,0,0,0,0,0,0,-1,1609,792,0,0
392,232,0,0,0,0,0,0,0,0,0,-1,1616,792,0,0
399,232,0,0,0,0,0,0,0,0,0,-1,1623,792,0,0
406,232,0,0,0,0,0,0,0,0,0,-1,1630,792,0,0
413,232,0,0,0,0,0,0,0,0,0,-1,1637,792,0,0
420,232,0,0,0,0,0,0,0,0,0,-1,1644,792,0,0
427,232,0,0,0,0,0,0,0,0,0,-1,1651,792,0,0
434,232,0,0,0,0,0,0,0,0,0,-1,1658,792,0,0
441,232,0,0,0,0,0,0,0,0,0,-1,1665,792,0,0
448,232,0,0,0,0,0,0,0,0,0,-1,1672,792,0,0
455,232,0,0,0,0,0,0,0,0,0,-1,1679,792,0,0
462,232,0,0,0,0,0,0,0,0,0,-1,1686,792,0,0
469,232,0,0,0,0,0,0,0,0,0,-1,1693,792,0,0
476,232,0,0,0,0,0,0,0,0,0,-1,1700,792,0,0
483,232,0,0,0,0,0,0,0,0,0,-1,1707,792,0,0
490,232,0,0,0,0,0,0,0,0,0,-1,1714,792,0,0
497,232,0,0,0,0,0,0,0,0,0,-1,1721,792,0,0
504,232,0,0,0,0,0,0,0,0,0,-1,1728,792,0,0
511,232,0,0,0,0,0,0,0,0,0,-1,1735,792,0,0
518,232,0,0,0,0,0,0,0,0,0,-1,1742,792,0,0
525,232,0,0,0,0,0,0,0,0,0,-1,1749,792,0,0
532,232,0,0,0,0,0,0,0,0,0,-1,1756,792,0,0
539,232,0,0,0,0,0,0,0,0,0,-1,1763,792,0,0
546,232,0,0,0,0,0,0,0,0,0,-1,1770,792,0,0
553,232,0,0,0,0,0,0,0,0,0,-1,1777,792,0,0
560,232,0,0,0,0,0,0,0,0,0,-1,1784,792,0,0
567,232,0,0,0,0,0,0,0,0,0,-1,1791,792,0,0
574,232,0,0,0,0,0,0,0,0,0,-1,1798,792,0,0
581,232,0,0,0,0,0,0,0,0,0,-1,1805,792,0,0
588,232,39.7258,2.69476,0.00570732,0.00806468,-0.000877867,0.00835567,0.00541633,-1.25072,0.00489429,0.0385071,1812,792,39.7258,-2.69474
595,232,39.7748,2.70203,0.00526738,0.00644588,-0.00018389,0.00647391,0.00523935,-1.41955,0.00396895,0.040164,1819,792,39.7748,-2.70205
602,232,39.7999,2.49432,0.0045337,0.00543966,0.000336517,0.00555098,0.00442238,1.25133,0.00338771,0.0394916,1826,792,39.7999,-2.49432
609,232,39.8409,2.62695,0.00364536,0.00477084,0.000720857,0.0051226,0.0032936,1.11681,0.00299756,0.0420084,1833,792,39.841,-2.62697
616,232,39.5345,2.93134,0.00269625,0.00425079,0.00091056,0.00467071,0.00227633,1.13869,0.00269692,0.0470949,1840,792,39.5345,-2.93131
623,232,39.5264,3.05939,0.00194842,0.0035825,0.00103963,0.00408772,0.0014432,1.11844,0.00239378,0.0454805,1847,792,39.5264,-3.05941
630,232,39.6108,3.58575,0.00153689,0.00310147,0.000980806,0.00357375,0.00106461,1.12204,0.00211875,0.0481677,1854,792,39.6109,-3.58574
637,232,39.5675,3.24969,0,0,0,0,0,0,0,-1,1861,792,39.5675,-3.24971
644,232,29.3163,4.33893,0,0,0,0,0,0,0,-1,1868,792,29.3163,-4.33891
651,232,28.8202,-0.558289,0,0,0,0,0,0,0,-1,1875,792,28.8202,0.558259
658,232,28.662,-0.24939,0.00045612,0.00202026,-0.000247365,0.00205845,0.000417932,-1.41763,0.00125638,0.0429266,1882,792,28.662,0.249366
665,232,28.5441,0.149231,0.000438403,0.00153057,-0.000576263,0.00177839,0.000190581,-1.16466,0.00112745,0.0158258,1889,792,28.5441,-0.149232
672,232,28.4526,0.627625,0.000397864,0.000795162,-0.000689007,0.00131358,-0.00012056,-0.925748,0.000918551,0.0193119,1896,792,28.4526,-0.627601
679,232,28.4778,1.08545,0.00025305,0.00011629,-0.000775399,0.000963078,-0.000593738,-0.741419,0.000907221,0.0198832,1903,792,28.4778,-1.08543
686,232,28.5045,1.54645,0.000226949,-5.80546e-05,-0.000753668,0.000851469,-0.000682575,-0.691962,0.000887468,0.0191356,1910,792,28.5045,-1.54642
693,232,28.4907,1.99298,0.000630726,-8.09665e-05,-0.000531417,0.000914435,-0.000364675,-0.490377,0.000760891,0.0109206,1917,792,28.4908,-1.993
700,232,28.5029,2.44495,0.00134301,0.000475342,-0.000157221,0.00137061,0.000447732,-0.17384,0.000807019,0.0128005,1924,792,28.5029,-2.44493
707,232,28.4801,2.90875,0.00239127,0.00116562,0.000240442,0.00243675,0.00112013,0.186947,0.00140838,0.0126848,1931,792,28.4801,-2.90878
714,232,28.4623,3.36139,0.0036678,0.00181559,0.000755933,0.00393715,0.00154625,0.342286,0.00229048,0.0131545,1938,792,28.4623,-3.3614
721,232,28.4414,3.79742,0.00510614,0.0024881,0.00131457,0.00565228,0.00194196,0.393757,0.00331615,0.0240664,1945,792,28.4414,-3.79744
728,232,28.3608,4.17365,0.00687715,0.00322613,0.00194311,0.00771775,0.00238553,0.408297,0.00456282,0.046363,1952,792,28.3608,-4.17362
735,232,28.481,4.75323,0,0,0,0,0,0,0,-1,1959,792,28.481,-4.75325
742,232,25.6461,6.00684,0,0,0,0,0,0,0,-1,1966,792,25.6461,-6.00684
749,232,31.2874,3.74713,0,0,0,0,0,0,0,-1,1973,792,31.2874,-3.74713
756,232,32.1207,3.896,0,0,0,0,0,0,0,-1,1980,792,32.1207,-3.89597
763,232,32.7255,4.05878,0,0,0,0,0,0,0,-1,1987,792,32.7255,-4.05881
770,232,0,0,0,0,0,0,0,0,0,-1,1994,792,0,0
777,232,0,0,0,0,0,0,0,0,0,-1,2001,792,0,0
784,232,0,0,0,0,0,0,0,0,0,-1,2008,792,0,0
791,232,0,0,0,0,0,0,0,0,0,-1,2015,792,0,0
798,232,0,0,0,0,0,0,0,0,0,-1,2022,792,0,0
805,232,0,0,0,0,0,0,0,0,0,-1,2029,792,0,0
812,232,0,0,0,0,0,0,0,0,0,-1,2036,792,0,0
-700,225,0,0,0,0,0,0,0,0,0,-1,524,799,0,0
-693,225,0,0,0,0,0,0,0,0,0,-1,531,799,0,0
-686,225,0,0,0,0,0,0,0,0,0,-1,538,799,0,0
-679,225,0,0,0,0,0,0,0,0,0,-1,545,799,0,0
-672,225,0,0,0,0,0,0,0,0,0,-1,552,799,0,0
-665,225,0,0,0,0,0,0,0,0,0,-1,559,799,0,0
-658,225,0,0,0,0,0,0,0,0,0,-1,566,799,0,0
-651,225,0,0,0,0,0,0,0,0,0,-1,573,799,0,0
-644,225,-22.4099,-0.204834,0,0,0,0,0,0,0,-1,580,799,-22.4099,0.20484
-637,225,-21.7047,-0.424072,0,0,0,0,0,0,0,-1,587,799,-21.7047,0.424052
-630,225,-22.612,4.17181,0,0,0,0,0,0,0,-1,594,799,-22.612,-4.17184
-623,225,-22.8936,3.12628,0,0,0,0,0,0,0,-1,601,799,-22.8936,-3.12629
-616,225,-22.8559,1.79041,0,0,0,0,0,0,0,-1,608,799,-22.8559,-1.79038
-609,225,-19.5482,3.44739,0,0,0,0,0,0,0,-1,615,799,-19.5482,-3.44736
-602,225,-19.7759,2.28619,0,0,0,0,0,0,0,-1,622,799,-19.7759,-2.2862
-595,225,-19.7207,1.72534,0.0097902,0.00716694,-0.00228537,0.0111136,0.00584356,-0.524885,0.00641928,0.0308308,629,799,-19.7207,-1.72533
-588,225,-19.6827,1.19128,0.00570859,0.00418436,-0.00118218,0.00635302,0.00353993,-0.499087,0.00367591,0.0129117,636,799,-19.6827,-1.19131
-581,225,-19.6971,0.778137,0.00316836,0.00143875,-0.00039487,0.00325425,0.00135287,-0.214164,0.00188772,0.0104891,643,799,-19.6971,-0.778149
-574,225,-19.696,0.353394,0.00167677,-7.10233e-05,0.000234936,0.0017078,-0.000102052,0.131314,0.00117403,0.00862449,650,799,-19.696,-0.35338
-567,225,-19.7178,-0.100098,0.000680149,-0.000490155,0.000719293,0.00102224,-0.000832249,0.443936,0.00107256,0.0115021,657,799,-19.7178,0.100075
-560,225,-19.7437,-0.526245,-0.000263393,-0.000561987,0.00124988,0.000846073,-0.00167145,0.725955,0.0014793,0.0128359,664,799,-19.7437,0.526274
-553,225,-19.7595,-0.955139,-0.00117704,-0.000525825,0.0016431,0.000823622,-0.00252649,0.883214,0.00201576,0.0125227,671,799,-19.7595,0.955115
-546,225,-19.8257,-1.40186,-0.0021149,-0.000351253,0.00193032,0.000889124,-0.00335528,0.999657,0.00258472,0.0211755,678,799,-19.8258,1.40185
-539,225,-19.8035,-1.83472,-0.00266766,2.05357e-05,0.00146496,0.00066458,-0.00331171,1.1566,0.00245945,0.0345552,685,799,-19.8035,1.83469
-532,225,-19.8605,-2.18878,-0.00265394,0.000547762,0.00103709,0.000854341,-0.00296052,1.28337,0.0023117,0.0336584,692,799,-19.8605,2.18881
-525,225,-20.2795,-2.4895,0,0,0,0,0,0,0,-1,699,799,-20.2795,2.4895
-518,225,-21.963,0.171326,0,0,0,0,0,0,0,-1,706,799,-21.9629,-0.171319
-511,225,-29.5098,0.683533,0,0,0,0,0,0,0,-1,713,799,-29.5098,-0.683528
-504,225,-29.3253,0.545532,0,0,0,0,0,0,0,-1,720,799,-29.3252,-0.545505
-497,225,-29.0972,1.10815,0,0,0,0,0,0,0,-1,727,799,-29.0972,-1.10818
-490,225,-29.3196,0.940979,0.00327422,0.000153374,-0.00658485,0.00848102,-0.00505342,-0.669058,0.0078972,0.0387703,734,799,-29.3196,-0.940979
-483,225,-29.3971,0.854065,0.00642529,-0.000890258,-0.00926908,0.0127322,-0.00719718,-0.597468,0.0116532,0.0321488,741,799,-29.3971,-0.854076
-476,225,-29.2548,0.912537,0.0104281,-0.00242528,-0.0118955,0.017522,-0.00951917,-0.537731,0.0158385,0.0314339,748,799,-29.2548,-0.912522
-469,225,-29.2838,0.786438,0.0148326,-0.00447445,-0.0140516,0.0222272,-0.011869,-0.484421,0.0199859,0.0359787,755,799,-29.2837,-0.786456
-462,225,0,0,0,0,0,0,0,0,0,-1,762,799,0,0
-455,225,0,0,0,0,0,0,0,0,0,-1,769,799,0,0
-448,225,0,0,0,0,0,0,0,0,0,-1,776,799,0,0
-441,225,0,0,0,0,0,0,0,0,0,-1,783,799,0,0
-434,225,0,0,0,0,0,0,0,0,0,-1,790,799,0,0
-427,225,0,0,0,0,0,0,0,0,0,-1,797,799,0,0
-420,225,0,0,0,0,0,0,0,0,0,-1,804,799,0,0
-413,225,0,0,0,0,0,0,0,0,0,-1,811,799,0,0
-406,225,0,0,0,0,0,0,0,0,0,-1,818,799,0,0
-399,225,0,0,0,0,0,0,0,0,0,-1,825,799,0,0
-392,225,0,0,0,0,0,0,0,0,0,-1,832,799,0,0
-385,225,0,0,0,0,0,0,0,0,0,-1,839,799,0,0
-378,225,0,0,0,0,0,0,0,0,0,-1,846,799,0,0
-371,225,0,0,0,0,0,0,0,0,0,-1,853,799,0,0
-364,225,0,0,0,0,0,0,0,0,0,-1,860,799,0,0
-357,225,0,0,0,0,0,0,0,0,0,-1,867,799,0,0
-350,225,0,0,0,0,0,0,0,0,0,-1,874,799,0,0
-343,225,0,0,0,0,0,0,0,0,0,-1,881,799,0,0
-336,225,0,0,0,0,0,0,0,0,0,-1,888,799,0,0
-329,225,0,0,0,0,0,0,0,0,0,-1,895,799,0,0
-322,225,0,0,0,0,0,0,0,0,0,-1,902,799,0,0
-315,225,0,0,0,0,0,0,0,0,0,-1,909,799,0,0
-308,225,0,0,0,0,0,0,0,0,0,-1,916,799,0,0
-301,225,0,0,0,0,0,0,0,0,0,-1,923,799,0,0
-294,225,0,0,0,0,0,0,0,0,0,-1,930,799,0,0
-287,225,0,0,0,0,0,0,0,0,0,-1,937,799,0,0
-280,225,0,0,0,0,0,0,0,0,0,-1,944,799,0,0
-273,225,0,0,0,0,0,0,0,0,0,-1,951,799,0,0
-266,225,0,0,0,0,0,0,0,0,0,-1,958,799,0,0
-259,225,0,0,0,0,0,0,0,0,0,-1,965,799,0,0
-252,225,0,0,0,0,0,0,0,0,0,-1,972,799,0,0
-245,225,0,0,0,0,0,0,0,0,0,-1,979,799,0,0
-238,225,0,0,0,0,0,0,0,0,0,-1,986,799,0,0
-231,225,0,0,0,0,0,0,0,0,0,-1,993,799,0,0
-224,225,0,0,0,0,0,0,0,0,0,-1,1000,799,0,0
-217,225,0,0,0,0,0,0,0,0,0,-1,1007,799,0,0
-210,225,0,0,0,0,0,0,0,0,0,-1,1014,799,0,0
-203,225,0,0,0,0,0,0,0,0,0,-1,1021,799,0,0
-196,225,0,0,0,0,0,0,0,0,0,-1,1028,799,0,0
-189,225,0,0,0,0,0,0,0,0,0,-1,1035,799,0,0
-182,225,0,0,0,0,0,0,0,0,0,-1,1042,799,0,0
-175,225,0,0,0,0,0,0,0,0,0,-1,1049,799,0,0
-168,225,0,0,0,0,0,0,0,0,0,-1,1056,799,0,0
-161,225,0,0,0,0,0,0,0,0,0,-1,1063,799,0,0
-154,225,0,0,0,0,0,0,0,0,0,-1,1070,799,0,0
-147,225,0,0,0,0,0,0,0,0,0,-1,1077,799,0,0
-140,225,0,0,0,0,0,0,0,0,0,-1,1084,799,0,0
-133,225,0,0,0,0,0,0,0,0,0,-1,1091,799,0,0
-126,225,0,0,0,0,0,0,0,0,0,-1,1098,799,0,0
-119,225,0,0,0,0,0,0,0,0,0,-1,1105,799,0,0
-112,225,0,0,0,0,0,0,0,0,0,-1,1112,799,0,0
-105,225,0,0,0,0,0,0,0,0,0,-1,1119,799,0,0
-98,225,0,0,0,0,0,0,0,0,0,-1,1126,799,0,0
-91,225,0,0,0,0,0,0,0,0,0,-1,1133,799,0,0
-84,225,0,0,0,0,0,0,0,0,0,-1,1140,799,0,0
-77,225,0,0,0,0,0,0,0,0,0,-1,1147,799,0,0
-70,225,0,0,0,0,0,0,0,0,0,-1,1154,799,0,0
-63,225,0,0,0,0,0,0,0,0,0,-1,1161,799,0,0
-56,225,0,0,0,0,0,0,0,0,0,-1,1168,799,0,0
-49,225,0,0,0,0,0,0,0,0,0,-1,1175,799,0,0
-42,225,0,0,0,0,0,0,0,0,0,-1,1182,799,0,0
-35,225,0,0,0,0,0,0,0,0,0,-1,1189,799,0,0
-28,225,0,0,0,0,0,0,0,0,0,-1,1196,799,0,0
-21,225,0,0,0,0,0,0,0,0,0,-1,1203,799,0,0
-14,225,0,0,0,0,0,0,0,0,0,-1,1210,799,0,0
-7,225,0,0,0,0,0,0,0,0,0,-1,1217,799,0,0
0,225,0,0,0,0,0,0,0,0,0,-1,1224,799,0,0
7,225,0,0,0,0,0,0,0,0,0,-1,1231,799,0,0
14,225,0,0,0,0,0,0,0,0,0,-1,1238,799,0,0
21,225,0,0,0,0,0,0,0,0,0,-1,1245,799,0,0
28,225,0,0,0,0,0,0,0,0,0,-1,1252,799,0,0
35,225,0,0,0,0,0,0,0,0,0,-1,1259,799,0,0
42,225,0,0,0,0,0,0,0,0,0,-1,1266,799,0,0
49,225,0,0,0,0,0,0,0,0,0,-1,1273,799,0,0
56,225,0,0,0,0,0,0,0,0,0,-1,1280,799,0,0
63,225,0,0,0,0,0,0,0,0,0,-1,1287,799,0,0
70,225,0,0,0,0,0,0,0,0,0,-1,1294,799,0,0
77,225,0,0,0,0,0,0,0,0,0,-1,1301,799,0,0
84,225,0,0,0,0,0,0,0,0,0,-1,1308,799,0,0
91,225,0,0,0,0,0,0,0,0,0,-1,1315,799,0,0
98,225,0,0,0,0,0,0,0,0,0,-1,1322,799,0,0
105,225,0,0,0,0,0,0,0,0,0,-1,1329,799,0,0
112,225,0,0,0,0,0,0,0,0,0,-1,1336,799,0,0
119,225,0,0,0,0,0,0,0,0,0,-1,1343,799,0,0
126,225,0,0,0,0,0,0,0,0,0,-1,1350,799,0,0
133,225,0,0,0,0,0,0,0,0,0,-1,1357,799,0,0
140,225,0,0,0,0,0,0,0,0,0,-1,1364,799,0,0
147,225,0,0,0,0,0,0,0,0,0,-1,1371,799,0,0
154,225,0,0,0,0,0,0,0,0,0,-1,1378,799,0,0
161,225,0,0,0,0,0,0,0,0,0,-1,1385,799,0,0
168,225,0,0,0,0,0,0,0,0,0,-1,1392,799,0,0
175,225,0,0,0,0,0,0,0,0,0,-1,1399,799,0,0
182,225,0,0,0,0,0,0,0,0,0,-1,1406,799,0,0
189,225,0,0,0,0,0,0,0,0,0,-1,1413,799,0,0
196,225,0,0,0,0,0,0,0,0,0,-1,1420,799,0,0
203,225,0,0,0,0,0,0,0,0,0,-1,1427,799,0,0
210,225,0,0,0,0,0,0,0,0,0,-1,1434,799,0,0
217,225,0,0,0,0,0,0,0,0,0,-1,1441,799,0,0
224,225,0,0,0,0,0,0,0,0,0,-1,1448,799,0,0
231,225,0,0,0,0,0,0,0,0,0,-1,1455,799,0,0
238,225,0,0,0,0,0,0,0,0,0,-1,1462,799,0,0
245,225,0,0,0,0,0,0,0,0,0,-1,1469,799,0,0
252,225,0,0,0,0,0,0,0,0,0,-1,1476,799,0,0
259,225,0,0,0,0,0,0,0,0,0,-1,1483,799,0,0
266,225,0,0,0,0,0,0,0,0,0,-1,1490,799,0,0
273,225,0,0,0,0,0,0,0,0,0,-1,1497,799,0,0
280,225,0,0,0,0,0,0,0,0,0,-1,1504,799,0,0
287,225,0,0,0,0,0,0,0,0,0,-1,1511,799,0,0
294,225,0,0,0,0,0,0,0,0,0,-1,1518,799,0,0
301,225,0,0,0,0,0,0,0,0,0,-1,1525,799,0,0
308,225,0,0,0,0,0,0,0,0,0,-1,1532,799,0,0
315,225,0,0,0,0,0,0,0,0,0,-1,1539,799,0,0
322,225,0,0,0,0,0,0,0,0,0,-1,1546,799,0,0
329,225,0,0,0,0,0,0,0,0,0,-1,1553,799,0,0
336,225,0,0,0,0,0,0,0,0,0,-1,1560,799,0,0
343,225,0,0,0,0,0,0,0,0,0,-1,1567,799,0,0
350,225,0,0,0,0,0,0,0,0,0,-1,1574,799,0,0
357,225,0,0,0,0,0,0,0,0,0,-1,1581,799,0,0
364,225,0,0,0,0,0,0,0,0,0,-1,1588,799,0,0
371,225,0,0,0,0,0,0,0,0,0,-1,1595,799,0,0
378,225,0,0,0,0,0,0,0,0,0,-1,1602,799,0,0
385,225,0,0,0,0,0,0,0,0,0,-1,1609,799,0,0
392,225,0,0,0,0,0,0,0,0,0,-1,1616,799,0,0
399,225,0,0,0,0,0,0,0,0,0,-1,1623,799,0,0
406,225,0,0,0,0,0,0,0,0,0,-1,1630,799,0,0
413,225,0,0,0,0,0,0,0,0,0,-1,1637,799,0,0
420,225,0,0,0,0,0,0,0,0,0,-1,1644,799,0,0
427,225,0,0,0,0,0,0,0,0,0,-1,1651,799,0,0
434,225,0,0,0,0,0,0,0,0,0,-1,1658,799,0,0
441,225,0,0,0,0,0,0,0,0,0,-1,1665,799,0,0
448,225,0,0,0,0,0,0,0,0,0,-1,1672,799,0,0
455,225,0,0,0,0,0,0,0,0,0,-1,1679,799,0,0
462,225,0,0,0,0,0,0,0,0,0,-1,1686,799,0,0
469,225,0,0,0,0,0,0,0,0,0,-1,1693,799,0,0
476,225,0,0,0,0,0,0,0,0,0,-1,1700,799,0,0
483,225,0,0,0,0,0,0,0,0,0,-1,1707,799,0,0
490,225,0,0,0,0,0,0,0,0,0,-1,1714,799,0,0
497,225,0,0,0,0,0,0,0,0,0,-1,1721,799,0,0
504,225,0,0,0,0,0,0,0,0,0,-1,1728,799,0,0
511,225,0,0,0,0,0,0,0,0,0,-1,1735,799,0,0
518,225,0,0,0,0,0,0,0,0,0,-1,1742,799,0,0
525,225,0,0,0,0,0,0,0,0,0,-1,1749,799,0,0
532,225,0,0,0,0,0,0,0,0,0,-1,1756,799,0,0
539,225,0,0,0,0,0,0,0,0,0,-1,1763,799,0,0
546,225,0,0,0,0,0,0,0,0,0,-1,1770,799,0,0
553,225,0,0,0,0,0,0,0,0,0,-1,1777,799,0,0
560,225,0,0,0,0,0,0,0,0,0,-1,1784,799,0,0
567,225,0,0,0,0,0,0,0,0,0,-1,1791,799,0,0
574,225,0,0,0,0,0,0,0,0,0,-1,1798,799,0,0
581,225,0,0,0,0,0,0,0,0,0,-1,1805,799,0,0
588,225,39.9063,2.58978,0.00376467,0.00682742,0.000523457,0.00691442,0.00367768,1.40611,0.00399475,0.037841,1812,799,39.9063,-2.58979
595,225,39.79,2.71844,0.00320783,0.00583115,0.00138438,0.00642657,0.00261241,1.16461,0.00373194,0.038103,1819,799,39.79,-2.71847
602,225,39.7522,2.56128,0.00267765,0.00533206,0.0017234,0.00618007,0.00182963,1.11352,0.00366567,0.0348171,1826,799,39.7522,-2.56128
609,225,39.7532,2.63293,0.00219859,0.00506593,0.00185947,0.00598025,0.00128427,1.1138,0.00363516,0.0328805,1833,799,39.7531,-2.63292
616,225,39.6528,2.78064,0.00165652,0.00479225,0.00174497,0.00557026,0.000878511,1.15139,0.00345807,0.0395589,1840,799,39.6529,-2.78065
623,225,39.6536,2.91211,0.00121591,0.00431752,0.00153488,0.00494865,0.000584782,1.18068,0.00312248,0.0405588,1847,799,39.6535,-2.91208
630,225,39.8818,3.11902,0.00104185,0.00394128,0.00123409,0.00439541,0.000587711,1.21818,0.00275534,0.043848,1854,799,39.8819,-3.11905
637,225,39.7765,3.2616,0.000675344,0.00349452,0.000947217,0.00378321,0.000386651,1.27496,0.00240365,0.047035,1861,799,39.7765,-3.2616
644,225,39.733,3.1543,0,0,0,0,0,0,0,-1,1868,799,39.733,-3.15428
651,225,27.9657,0.579529,0,0,0,0,0,0,0,-1,1875,799,27.9657,-0.579541
658,225,29.3772,-0.15979,0,0,0,0,0,0,0,-1,1882,799,29.3771,0.159818
665,225,29.1383,0.253113,0.000344161,0.00174537,-0.000557623,0.00194019,0.000149337,-1.23467,0.00124667,0.0207773,1889,799,29.1383,-0.253102
672,225,28.9563,0.670898,0.000260951,0.000935904,-0.000691791,0.00136814,-0.00017129,-1.01233,0.000974225,0.0198741,1896,799,28.9563,-0.670877
679,225,28.9457,1.15186,-1.60697e-05,0.000115641,-0.000843906,0.000896257,-0.000796685,-0.824338,0.000977984,0.0179509,1903,799,28.9457,-1.15184
686,225,28.9702,1.5675,-0.000153465,-0.000195533,-0.000905602,0.000731347,-0.00108034,-0.773787,0.00105243,0.0111241,1910,799,28.9702,-1.56753
693,225,28.9397,2.00629,0.000164254,-0.000354082,-0.000772858,0.000720241,-0.000910069,-0.623622,0.000943385,0.0105604,1917,799,28.9397,-2.0063
700,225,28.9398,2.45685,0.000733168,0.000197897,-0.000489732,0.00102362,-9.2559e-05,-0.535325,0.000715268,0.0118488,1924,799,28.9399,-2.45685
707,225,28.9153,2.92352,0.00166782,0.000951316,-0.000243645,0.00174282,0.000876316,-0.29862,0.00100622,0.0119588,1931,799,28.9152,-2.92354
714,225,28.9076,3.37744,0.00284346,0.00168294,0.000132303,0.00285835,0.00166805,0.112087,0.00165794,0.0126439,1938,799,28.9076,-3.37747
721,225,28.9392,3.82855,0.0041721,0.00246936,0.000463235,0.00428997,0.00235149,0.249153,0.00248064,0.0167687,1945,799,28.9393,-3.82856
728,225,28.8429,4.13342,0.00575306,0.00336559,0.00073315,0.00596023,0.00315843,0.275384,0.00344319,0.0325962,1952,799,28.8429,-4.13342
735,225,28.938,4.60724,0,0,0,0,0,0,0,-1,1959,799,28.938,-4.60726
742,225,29.0922,3.2132,0,0,0,0,0,0,0,-1,1966,799,29.0921,-3.21322
749,225,29.9529,4.45538,0,0,0,0,0,0,0,-1,1973,799,29.9529,-4.45537
756,225,31.8855,3.83466,0,0,0,0,0,0,0,-1,1980,799,31.8855,-3.83463
763,225,28.3649,5.54443,0,0,0,0,0,0,0,-1,1987,799,28.3649,-5.54444
770,225,0,0,0,0,0,0,0,0,0,-1,1994,799,0,0
777,225,0,0,0,0,0,0,0,0,0,-1,2001,799,0,0
784,225,0,0,0,0,0,0,0,0,0,-1,2008,799,0,0
791,225,0,0,0,0,0,0,0,0,0,-1,2015,799,0,0
798,225,0,0,0,0,0,0,0,0,0,-1,2022,799,0,0
805,225,0,0,0,0,0,0,0,0,0,-1,2029,799,0,0
812,225,0,0,0,0,0,0,0,0,0,-1,2036,799,0,0
-700,218,0,0,0,0,0,0,0,0,0,-1,524,806,0,0
-693,218,0,0,0,0,0,0,0,0,0,-1,531,806,0,0
-686,218,0,0,0,0,0,0,0,0,0,-1,538,806,0,0
-679,218,0,0,0,0,0,0,0,0,0,-1,545,806,0,0
-672,218,0,0,0,0,0,0,0,0,0,-1,552,806,0,0
-665,218,0,0,0,0,0,0,0,0,0,-1,559,806,0,0
-658,218,0,0,0,0,0,0,0,0,0,-1,566,806,0,0
-651,218,-25.4737,8.13727,0,0,0,0,0,0,0,-1,573,806,-25.4737,-8.13727
-644,218,-25.2296,9.31128,0,0,0,0,0,0,0,-1,580,806,-25.2296,-9.31126
-637,218,-22.6491,0.477722,0,0,0,0,0,0,0,-1,587,806,-22.6491,-0.477715
-630,218,-21.6902,4.28424,0,0,0,0,0,0,0,-1,594,806,-21.6903,-4.28424
-623,218,-22.0089,3.22638,0,0,0,0,0,0,0,-1,601,806,-22.0089,-3.2264
-616,218,-20.0258,1.87585,0,0,0,0,0,0,0,-1,608,806,-20.0258,-1.87585
-609,218,-20.1169,2.55377,0,0,0,0,0,0,0,-1,615,806,-20.117,-2.55376
-602,218,-20.1327,2.09827,0.0134946,0.0152177,-0.00174354,0.016301,0.0124114,-1.01487,0.00983072,0.041096,622,806,-20.1327,-2.09826
-595,218,-20.134,1.65192,0.00891714,0.00774816,-0.00175142,0.010179,0.00648628,-0.624347,0.00595018,0.0178954,629,806,-20.1339,-1.65189
-588,218,-20.1296,1.19092,0.00485453,0.00451105,-0.000766234,0.00546803,0.00389754,-0.675152,0.00325087,0.0112487,636,806,-20.1296,-1.19093
-581,218,-20.1389,0.788147,0.00230665,0.00146039,-2.7955e-05,0.00230757,0.00145947,-0.0329858,0.00134777,0.0105377,643,806,-20.1389,-0.788134
-574,218,-20.1625,0.372803,0.000920802,-0.000233724,0.000506468,0.00111149,-0.000424408,0.360083,0.000915847,0.0109422,650,806,-20.1626,-0.372829
-567,218,-20.1261,-0.0878906,8.2693e-05,-0.000534507,0.000845827,0.000674458,-0.00112627,0.610477,0.0010505,0.0184285,657,806,-20.1261,0.0879209
-560,218,-20.1508,-0.505859,-0.000654501,-0.000302016,0.00126918,0.000803096,-0.00175961,0.854389,0.00151354,0.0178436,664,806,-20.1508,0.50583
-553,218,-20.1547,-0.969543,-0.00141704,8.53798e-05,0.0015793,0.00108303,-0.00241469,1.00739,0.00206762,0.018117,671,806,-20.1547,0.969571
-546,218,-20.2449,-1.47864,-0.00223808,0.000577125,0.00175808,0.00142167,-0.00308263,1.12297,0.00265884,0.0188031,678,806,-20.2449,1.47863
-539,218,-20.2744,-1.93024,-0.0027015,0.00107652,0.00125545,0.00145566,-0.00308064,1.27751,0.00267446,0.0296106,685,806,-20.2744,1.93021
-532,218,-20.3044,-2.1358,-0.00267067,0.00179902,0.000869116,0.00196207,-0.00283372,1.38535,0.00278405,0.0371749,692,806,-20.3044,2.13582
-525,218,-20.5208,-2.24432,0,0,0,0,0,0,0,-1,699,806,-20.5208,2.2443
-518,218,-23.61,2.54181,0,0,0,0,0,0,0,-1,706,806,-23.61,-2.54183
-511,218,-29.2302,1.08777,0,0,0,0,0,0,0,-1,713,806,-29.2302,-1.08778
-504,218,-29.1895,1.04376,-0.000606125,0.00269828,-0.00247533,0.00402215,-0.00193,-1.07968,0.00350652,0.0490345,720,806,-29.1894,-1.04377
-497,218,-29.1631,1.00903,0.000824792,0.00244748,-0.00408374,0.0057997,-0.00252743,-0.88346,0.00492985,0.0491908,727,806,-29.1631,-1.00903
-490,218,-29.2296,0.915344,0.00291214,0.00184992,-0.00611812,0.00852217,-0.0037601,-0.742102,0.00726666,0.0360799,734,806,-29.2296,-0.915326
-483,218,-29.3193,0.861206,0.00609588,0.000735768,-0.00863277,0.012455,-0.00562339,-0.634889,0.0106831,0.0330243,741,806,-29.3194,-0.86119
-476,218,-29.0874,1,0.0104781,-0.0010659,-0.011098,0.0172154,-0.00780315,-0.545601,0.0147813,0.0366269,748,806,-29.0874,-0.999985
-469,218,0,0,0,0,0,0,0,0,0,-1,755,806,0,0
-462,218,0,0,0,0,0,0,0,0,0,-1,762,806,0,0
-455,218,0,0,0,0,0,0,0,0,0,-1,769,806,0,0
-448,218,0,0,0,0,0,0,0,0,0,-1,776,806,0,0
-441,218,0,0,0,0,0,0,0,0,0,-1,783,806,0,0
-434,218,0,0,0,0,0,0,0,0,0,-1,790,806,0,0
-427,218,0,0,0,0,0,0,0,0,0,-1,797,806,0,0
-420,218,0,0,0,0,0,0,0,0,0,-1,804,806,0,0
-413,218,0,0,0,0,0,0,0,0,0,-1,811,806,0,0
-406,218,0,0,0,0,0,0,0,0,0,-1,818,806,0,0
-399,218,0,0,0,0,0,0,0,0,0,-1,825,806,0,0
-392,218,0,0,0,0,0,0,0,0,0,-1,832,806,0,0
-385,218,0,0,0,0,0,0,0,0,0,-1,839,806,0,0
-378,218,0,0,0,0,0,0,0,0,0,-1,846,806,0,0
-371,218,0,0,0,0,0,0,0,0,0,-1,853,806,0,0
-364,218,0,0,0,0,0,0,0,0,0,-1,860,806,0,0
-357,218,0,0,0,0,0,0,0,0,0,-1,867,806,0,0
-350,218,0,0,0,0,0,0,0,0,0,-1,874,806,0,0
-343,218,0,0,0,0,0,0,0,0,0,-1,881,806,0,0
-336,218,0,0,0,0,0,0,0,0,0,-1,888,806,0,0
-329,218,0,0,0,0,0,0,0,0,0,-1,895,806,0,0
-322,218,0,0,0,0,0,0,0,0,0,-1,902,806,0,0
-315,218,0,0,0,0,0,0,0,0,0,-1,909,806,0,0
-308,218,0,0,0,0,0,0,0,0,0,-1,916,806,0,0
-301,218,0,0,0,0,0,0,0,0,0,-1,923,806,0,0
-294,218,0,0,0,0,0,0,0,0,0,-1,930,806,0,0
-287,218,0,0,0,0,0,0,0,0,0,-1,937,806,0,0
-280,218,0,0,0,0,0,0,0,0,0,-1,944,806,0,0
-273,218,0,0,0,0,0,0,0,0,0,-1,951,806,0,0
-266,218,0,0,0,0,0,0,0,0,0,-1,958,806,0,0
-259,218,0,0,0,0,0,0,0,0,0,-1,965,806,0,0
-252,218,0,0,0,0,0,0,0,0,0,-1,972,806,0,0
-245,218,0,0,0,0,0,0,0,0,0,-1,979,806,0,0
-238,218,0,0,0,0,0,0,0,0,0,-1,986,806,0,0
-231,218,0,0,0,0,0,0,0,0,0,-1,993,806,0,0
-224,218,0,0,0,0,0,0,0,0,0,-1,1000,806,0,0
-217,218,0,0,0,0,0,0,0,0,0,-1,1007,806,0,0
-210,218,0,0,0,0,0,0,0,0,0,-1,1014,806,0,0
-203,218,0,0,0,0,0,0,0,0,0,-1,1021,806,0,0
-196,218,0,0,0,0,0,0,0,0,0,-1,1028,806,0,0
-189,218,0,0,0,0,0,0,0,0,0,-1,1035,806,0,0
-182,218,0,0,0,0,0,0,0,0,0,-1,1042,806,0,0
-175,218,0,0,0,0,0,0,0,0,0,-1,1049,806,0,0
-168,218,0,0,0,0,0,0,0,0,0,-1,1056,806,0,0
-161,218,0,0,0,0,0,0,0,0,0,-1,1063,806,0,0
-154,218,0,0,0,0,0,0,0,0,0,-1,1070,806,0,0
-147,218,0,0,0,0,0,0,0,0,0,-1,1077,806,0,0
-140,218,0,0,0,0,0,0,0,0,0,-1,1084,806,0,0
-133,218,0,0,0,0,0,0,0,0,0,-1,1091,806,0,0
-126,218,0,0,0,0,0,0,0,0,0,-1,1098,806,0,0
-119,218,0,0,0,0,0,0,0,0,0,-1,1105,806,0,0
-112,218,0,0,0,0,0,0,0,0,0,-1,1112,806,0,0
-105,218,0,0,0,0,0,0,0,0,0,-1,1119,806,0,0
-98,218,0,0,0,0,0,0,0,0,0,-1,1126,806,0,0
-91,218,0,0,0,0,0,0,0,0,0,-1,1133,806,0,0
-84,218,0,0,0,0,0,0,0,0,0,-1,1140,806,0,0
-77,218,0,0,0,0,0,0,0,0,0,-1,1147,806,0,0
-70,218,0,0,0,0,0,0,0,0,0,-1,1154,806,0,0
-63,218,0,0,0,0,0,0,0,0,0,-1,1161,806,0,0
-56,218,0,0,0,0,0,0,0,0,0,-1,1168,806,0,0
-49,218,0,0,0,0,0,0,0,0,0,-1,1175,806,0,0
-42,218,0,0,0,0,0,0,0,0,0,-1,1182,806,0,0
-35,218,0,0,0,0,0,0,0,0,0,-1,1189,806,0,0
-28,218,0,0,0,0,0,0,0,0,0,-1,1196,806,0,0
-21,218,0,0,0,0,0,0,0,0,0,-1,1203,806,0,0
-14,218,0,0,0,0,0,0,0,0,0,-1,1210,806,0,0
-7,218,0,0,0,0,0,0,0,0,0,-1,1217,806,0,0
0,218,0,0,0,0,0,0,0,0,0,-1,1224,806,0,0
7,218,0,0,0,0,0,0,0,0,0,-1,1231,806,0,0
14,218,0,0,0,0,0,0,0,0,0,-1,1238,806,0,0
21,218,0,0,0,0,0,0,0,0,0,-1,1245,806,0,0
28,218,0,0,0,0,0,0,0,0,0,-1,1252,806,0,0
35,218,0,0,0,0,0,0,0,0,0,-1,1259,806,0,0
42,218,0,0,0,0,0,0,0,0,0,-1,1266,806,0,0
49,218,0,0,0,0,0,0,0,0,0,-1,1273,806,0,0
56,218,0,0,0,0,0,0,0,0,0,-1,1280,806,0,0
63,218,0,0,0,0,0,0,0,0,0,-1,1287,806,0,0
70,218,0,0,0,0,0,0,0,0,0,-1,1294,806,0,0
77,218,0,0,0,0,0,0,0,0,0,-1,1301,806,0,0
84,218,0,0,0,0,0,0,0,0,0,-1,1308,806,0,0
91,218,0,0,0,0,0,0,0,0,0,-1,1315,806,0,0
98,218,0,0,0,0,0,0,0,0,0,-1,1322,806,0,0
105,218,0,0,0,0,0,0,0,0,0,-1,1329,806,0,0
112,218,0,0,0,0,0,0,0,0,0,-1,1336,806,0,0
119,218,0,0,0,0,0,0,0,0,0,-1,1343,806,0,0
126,218,0,0,0,0,0,0,0,0,0,-1,1350,806,0,0
133,218,0,0,0,0,0,0,0,0,0,-1,1357,806,0,0
140,218,0,0,0,0,0,0,0,0,0,-1,1364,806,0,0
147,218,0,0,0,0,0,0,0,0,0,-1,1371,806,0,0
154,218,0,0,0,0,0,0,0,0,0,-1,1378,806,0,0
161,218,0,0,0,0,0,0,0,0,0,-1,1385,806,0,0
168,218,0,0,0,0,0,0,0,0,0,-1,1392,806,0,0
175,218,0,0,0,0,0,0,0,0,0,-1,1399,806,0,0
182,218,0,0,0,0,0,0,0,0,0,-1,1406,806,0,0
189,218,0,0,0,0,0,0,0,0,0,-1,1413,806,0,0
196,218,0,0,0,0,0,0,0,0,0,-1,1420,806,0,0
203,218,0,0,0,0,0,0,0,0,0,-1,1427,806,0,0
210,218,0,0,0,0,0,0,0,0,0,-1,1434,806,0,0
217,218,0,0,0,0,0,0,0,0,0,-1,1441,806,0,0
224,218,0,0,0,0,0,0,0,0,0,-1,1448,806,0,0
231,218,0,0,0,0,0,0,0,0,0,-1,1455,806,0,0
238,218,0,0,0,0,0,0,0,0,0,-1,1462,806,0,0
245,218,0,0,0,0,0,0,0,0,0,-1,1469,806,0,0
252,218,0,0,0,0,0,0,0,0,0,-1,1476,806,0,0
259,218,0,0,0,0,0,0,0,0,0,-1,1483,806,0,0
266,218,0,0,0,0,0,0,0,0,0,-1,1490,806,0,0
273,218,0,0,0,0,0,0,0,0,0,-1,1497,806,0,0
280,218,0,0,0,0,0,0,0,0,0,-1,1504,806,0,0
287,218,0,0,0,0,0,0,0,0,0,-1,1511,806,0,0
294,218,0,0,0,0,0,0,0,0,0,-1,1518,806,0,0
301,218,0,0,0,0,0,0,0,0,0,-1,1525,806,0,0
308,218,0,0,0,0,0,0,0,0,0,-1,1532,806,0,0
315,218,0,0,0,0,0,0,0,0,0,-1,1539,806,0,0
322,218,0,0,0,0,0,0,0,0,0,-1,1546,806,0,0
329,218,0,0,0,0,0,0,0,0,0,-1,1553,806,0,0
336,218,0,0,0,0,0,0,0,0,0,-1,1560,806,0,0
343,218,0,0,0,0,0,0,0,0,0,-1,1567,806,0,0
350,218,0,0,0,0,0,0,0,0,0,-1,1574,806,0,0
357,218,0,0,0,0,0,0,0,0,0,-1,1581,806,0,0
364,218,0,0,0,0,0,0,0,0,0,-1,1588,806,0,0
371,218,0,0,0,0,0,0,0,0,0,-1,1595,806,0,0
378,218,0,0,0,0,0,0,0,0,0,-1,1602,806,0,0
385,218,0,0,0,0,0,0,0,0,0,-1,1609,806,0,0
392,218,0,0,0,0,0,0,0,0,0,-1,1616,806,0,0
399,218,0,0,0,0,0,0,0,0,0,-1,1623,806,0,0
406,218,0,0,0,0,0,0,0,0,0,-1,1630,806,0,0
413,218,0,0,0,0,0,0,0,0,0,-1,1637,806,0,0
420,218,0,0,0,0,0,0,0,0,0,-1,1644,806,0,0
427,218,0,0,0,0,0,0,0,0,0,-1,1651,806,0,0
434,218,0,0,0,0,0,0,0,0,0,-1,1658,806,0,0
441,218,0,0,0,0,0,0,0,0,0,-1,1665,806,0,0
448,218,0,0,0,0,0,0,0,0,0,-1,1672,806,0,0
455,218,0,0,0,0,0,0,0,0,0,-1,1679,806,0,0
462,218,0,0,0,0,0,0,0,0,0,-1,1686,806,0,0
469,218,0,0,0,0,0,0,0,0,0,-1,1693,806,0,0
476,218,0,0,0,0,0,0,0,0,0,-1,1700,806,0,0
483,218,0,0,0,0,0,0,0,0,0,-1,1707,806,0,0
490,218,0,0,0,0,0,0,0,0,0,-1,1714,806,0,0
497,218,0,0,0,0,0,0,0,0,0,-1,1721,806,0,0
504,218,0,0,0,0,0,0,0,0,0,-1,1728,806,0,0
511,218,0,0,0,0,0,0,0,0,0,-1,1735,806,0,0
518,218,0,0,0,0,0,0,0,0,0,-1,1742,806,0,0
525,218,0,0,0,0,0,0,0,0,0,-1,1749,806,0,0
532,218,0,0,0,0,0,0,0,0,0,-1,1756,806,0,0
539,218,0,0,0,0,0,0,0,0,0,-1,1763,806,0,0
546,218,0,0,0,0,0,0,0,0,0,-1,1770,806,0,0
553,218,0,0,0,0,0,0,0,0,0,-1,1777,806,0,0
560,218,0,0,0,0,0,0,0,0,0,-1,1784,806,0,0
567,218,0,0,0,0,0,0,0,0,0,-1,1791,806,0,0
574,218,0,0,0,0,0,0,0,0,0,-1,1798,806,0,0
581,218,0,0,0,0,0,0,0,0,0,-1,1805,806,0,0
588,218,0,0,0,0,0,0,0,0,0,-1,1812,806,0,0
595,218,39.7986,2.68048,0.00181514,0.00526756,0.00245691,0.00654405,0.000538652,1.09163,0.00419469,0.0373988,1819,806,39.7986,-2.68049
602,218,39.7041,2.71313,0.00143696,0.00531407,0.00254356,0.00657359,0.000177444,1.11101,0.00432446,0.0326966,1826,806,39.704,-2.71315
609,218,39.7163,2.74243,0.00130588,0.00545247,0.00251546,0.00663895,0.000119409,1.13007,0.0043867,0.0306456,1833,806,39.7163,-2.74241
616,218,39.6614,2.72693,0.00113648,0.00540861,0.00222036,0.00635358,0.000191509,1.16842,0.00417335,0.0322136,1840,806,39.6614,-2.72692
623,218,39.7035,2.71466,0.000956516,0.00505076,0.00179144,0.00572393,0.000283351,1.21135,0.0037251,0.0349056,1847,806,39.7035,-2.71463
630,218,39.8326,2.83734,0.000936915,0.00468145,0.00135365,0.00511954,0.000498828,1.2578,0.0032595,0.0397066,1854,806,39.8326,-2.83737
637,218,39.929,2.93237,0.000725667,0.00408241,0.000964792,0.00433995,0.000468127,1.30994,0.00275057,0.0438697,1861,806,39.929,-2.93236
644,218,39.8853,2.74078,0,0,0,0,0,0,0,-1,1868,806,39.8853,-2.74078
651,218,37.3547,2.39362,0,0,0,0,0,0,0,-1,1875,806,37.3548,-2.3936
658,218,28.41,0.514954,0,0,0,0,0,0,0,-1,1882,806,28.41,-0.514983
665,218,29.7908,0.492615,0,0,0,0,0,0,0,-1,1889,806,29.7908,-0.492585
672,218,29.5543,0.733032,0.00021992,0.00102579,-0.000671914,0.00140633,-0.000160614,-1.05549,0.000995418,0.0173701,1896,806,29.5543,-0.733002
679,218,29.4817,1.15753,-0.000147885,0.000157055,-0.000870651,0.000888486,-0.000879316,-0.87208,0.00102065,0.0139676,1903,806,29.4817,-1.15754
686,218,29.4565,1.5708,-0.000380419,-0.000259033,-0.00100601,0.000688113,-0.00132757,-0.815527,0.00118311,0.0123077,1910,806,29.4566,-1.57083
693,218,29.4224,2.02081,-0.00014838,-0.00054647,-0.000956709,0.00062977,-0.00132462,-0.682835,0.00115189,0.0116781,1917,806,29.4224,-2.02081
700,218,29.3862,2.4613,0.000265641,-3.6968e-05,-0.000763133,0.000892325,-0.000663651,-0.687533,0.000901571,0.00963219,1924,806,29.3862,-2.4613
707,218,29.361,2.90973,0.00106587,0.000698234,-0.000647024,0.00155468,0.000209423,-0.646996,0.000974177,0.00796248,1931,806,29.3609,-2.90976
714,218,29.3641,3.36493,0.00215604,0.00143235,-0.000386479,0.00232363,0.00126476,-0.409153,0.0013433,0.00962067,1938,806,29.3642,-3.36496
721,218,29.3928,3.81537,0.00342687,0.00222416,-0.000222477,0.0034667,0.00218433,-0.177173,0.00202395,0.0132432,1945,806,29.3928,-3.8154
728,218,29.3638,4.29846,0.00491055,0.0031171,-0.000189973,0.00493046,0.00309719,-0.104382,0.00287761,0.0237342,1952,806,29.3638,-4.29846
735,218,29.4215,4.79462,0.00687843,0.00447899,-0.000194107,0.00689403,0.00446339,-0.080202,0.00403753,0.0422334,1959,806,29.4215,-4.7946
742,218,29.5168,5.30188,0,0,0,0,0,0,0,-1,1966,806,29.5168,-5.3019
749,218,29.5244,4.55963,0,0,0,0,0,0,0,-1,1973,806,29.5244,-4.5596
756,218,29.2709,4.80249,0,0,0,0,0,0,0,-1,1980,806,29.2709,-4.80247
763,218,28.4861,5.19104,0,0,0,0,0,0,0,-1,1987,806,28.4861,-5.19107
770,218,0,0,0,0,0,0,0,0,0,-1,1994,806,0,0
777,218,0,0,0,0,0,0,0,0,0,-1,2001,806,0,0
784,218,0,0,0,0,0,0,0,0,0,-1,2008,806,0,0
791,218,0,0,0,0,0,0,0,0,0,-1,2015,806,0,0
798,218,0,0,0,0,0,0,0,0,0,-1,2022,806,0,0
805,218,0,0,0,0,0,0,0,0,0,-1,2029,806,0,0
812,218,0,0,0,0,0,0,0,0,0,-1,2036,806,0,0
-700,211,0,0,0,0,0,0,0,0,0,-1,524,813,0,0
-693,211,0,0,0,0,0,0,0,0,0,-1,531,813,0,0
-686,211,0,0,0,0,0,0,0,0,0,-1,538,813,0,0
-679,211,0,0,0,0,0,0,0,0,0,-1,545,813,0,0
-672,211,0,0,0,0,0,0,0,0,0,-1,552,813,0,0
-665,211,0,0,0,0,0,0,0,0,0,-1,559,813,0,0
-658,211,0,0,0,0,0,0,0,0,0,-1,566,813,0,0
-651,211,-25.1097,7.41309,0,0,0,0,0,0,0,-1,573,813,-25.1097,-7.41311
-644,211,-25.0272,8.60345,0,0,0,0,0,0,0,-1,580,813,-25.0272,-8.60343
-637,211,-25.0317,9.93817,0,0,0,0,0,0,0,-1,587,813,-25.0317,-9.93814
-630,211,-16.5018,4.90027,0,0,0,0,0,0,0,-1,594,813,-16.5018,-4.90029
-623,211,-20.671,4.8623,0,0,0,0,0,0,0,-1,601,813,-20.671,-4.86228
-616,211,-20.4175,2.63544,0,0,0,0,0,0,0,-1,608,813,-20.4175,-2.63544
-609,211,-20.4597,2.33728,0.017907,0.0246527,-0.000532967,0.0246946,0.0178652,-1.49244,0.0147243,0.0411,615,813,-20.4597,-2.33727
-602,211,-20.5028,2.05304,0.0125689,0.0152447,-0.00114054,0.0156649,0.0121487,-1.21783,0.00949085,0.020595,622,813,-20.5028,-2.05304
-595,211,-20.5564,1.63776,0.00813338,0.0080443,-0.00117823,0.00926791,0.00690977,-0.766505,0.00556177,0.0103239,629,813,-20.5564,-1.63776
-588,211,-20.5587,1.20538,0.00410028,0.00461843,-0.000373246,0.00481371,0.00390501,-1.08878,0.00295321,0.0101734,636,813,-20.5587,-1.20538
-581,211,-20.569,0.791565,0.00159785,0.00134029,0.000257882,0.00175732,0.00118082,0.553827,0.00103439,0.0110412,643,813,-20.569,-0.791579
-574,211,-20.602,0.377991,0.00034333,-0.000506731,0.000616103,0.000666787,-0.000830188,0.483451,0.000865993,0.0138156,650,813,-20.602,-0.377995
-567,211,-20.6037,-0.0558472,-0.00032894,-0.000705505,0.000736919,0.00024337,-0.00127781,0.660324,0.000943521,0.0215408,657,813,-20.6037,0.055868
-560,211,-20.5927,-0.474976,-0.000828255,-0.000242731,0.00100119,0.000507623,-0.00157861,0.927639,0.00125628,0.0240395,664,813,-20.5927,0.474962
-553,211,-20.5272,-0.911072,-0.00144805,0.000391941,0.00122146,0.00100112,-0.00205723,1.10817,0.00180049,0.0270773,671,813,-20.5272,0.911072
-546,211,-20.7679,-1.22699,-0.00219776,0.00106929,0.00132413,0.00153855,-0.00266702,1.23021,0.00245705,0.0374258,678,813,-20.768,1.22697
-539,211,-20.7018,-1.72144,-0.00260998,0.00162988,0.000823956,0.00178438,-0.00276447,1.38545,0.00264652,0.026447,685,813,-20.7018,1.72144
-532,211,-20.5773,-2.37738,0,0,0,0,0,0,0,-1,692,813,-20.5773,2.37735
-525,211,-14.3009,2.3233,0,0,0,0,0,0,0,-1,699,813,-14.3009,-2.3233
-518,211,-28.4969,1.7312,0,0,0,0,0,0,0,-1,706,813,-28.4969,-1.73118
-511,211,-29.0563,1.08502,0,0,0,0,0,0,0,-1,713,813,-29.0563,-1.08503
-504,211,-29.234,0.914063,-0.00086663,0.00412783,-0.00237058,0.00507382,-0.00181263,-1.1911,0.00412183,0.0499286,720,813,-29.234,-0.914074
-497,211,-29.3227,0.806946,0.000508071,0.00402576,-0.00381125,0.00646444,-0.0019306,-1.00158,0.00507703,0.0464646,727,813,-29.3227,-0.806972
-490,211,-29.3215,0.816833,0.00260266,0.00353949,-0.005657,0.00874743,-0.00260528,-0.826705,0.00686681,0.034111,734,813,-29.3215,-0.816808
-483,211,-29.2818,0.880676,0.00601996,0.00239806,-0.00794745,0.0123602,-0.00394216,-0.673378,0.00982152,0.0308114,741,813,-29.2818,-0.880692
-476,211,-28.9993,1.05615,0.0109626,0.000242174,-0.0100609,0.0170021,-0.00579734,-0.540636,0.0136829,0.034472,748,813,-28.9993,-1.05614
-469,211,0,0,0,0,0,0,0,0,0,-1,755,813,0,0
-462,211,0,0,0,0,0,0,0,0,0,-1,762,813,0,0
-455,211,0,0,0,0,0,0,0,0,0,-1,769,813,0,0
-448,211,0,0,0,0,0,0,0,0,0,-1,776,813,0,0
-441,211,0,0,0,0,0,0,0,0,0,-1,783,813,0,0
-434,211,0,0,0,0,0,0,0,0,0,-1,790,813,0,0
-427,211,0,0,0,0,0,0,0,0,0,-1,797,813,0,0
-420,211,0,0,0,0,0,0,0,0,0,-1,804,813,0,0
-413,211,0,0,0,0,0,0,0,0,0,-1,811,813,0,0
-406,211,0,0,0,0,0,0,0,0,0,-1,818,813,0,0
-399,211,0,0,0,0,0,0,0,0,0,-1,825,813,0,0
-392,211,0,0,0,0,0,0,0,0,0,-1,832,813,0,0
-385,211,0,0,0,0,0,0,0,0,0,-1,839,813,0,0
-378,211,0,0,0,0,0,0,0,0,0,-1,846,813,0,0
-371,211,0,0,0,0,0,0,0,0,0,-1,853,813,0,0
-364,211,0,0,0,0,0,0,0,0,0,-1,860,813,0,0
-357,211,0,0,0,0,0,0,0,0,0,-1,867,813,0,0
-350,211,0,0,0,0,0,0,0,0,0,-1,874,813,0,0
-343,211,0,0,0,0,0,0,0,0,0,-1,881,813,0,0
-336,211,0,0,0,0,0,0,0,0,0,-1,888,813,0,0
-329,211,0,0,0,0,0,0,0,0,0,-1,895,813,0,0
-322,211,0,0,0,0,0,0,0,0,0,-1,902,813,0,0
-315,211,0,0,0,0,0,0,0,0,0,-1,909,813,0,0
-308,211,0,0,0,0,0,0,0,0,0,-1,916,813,0,0
-301,211,0,0,0,0,0,0,0,0,0,-1,923,813,0,0
-294,211,0,0,0,0,0,0,0,0,0,-1,930,813,0,0
-287,211,0,0,0,0,0,0,0,0,0,-1,937,813,0,0
-280,211,0,0,0,0,0,0,0,0,0,-1,944,813,0,0
-273,211,0,0,0,0,0,0,0,0,0,-1,951,813,0,0
-266,211,0,0,0,0,0,0,0,0,0,-1,958,813,0,0
-259,211,0,0,0,0,0,0,0,0,0,-1,965,813,0,0
-252,211,0,0,0,0,0,0,0,0,0,-1,972,813,0,0
-245,211,0,0,0,0,0,0,0,0,0,-1,979,813,0,0
-238,211,0,0,0,0,0,0,0,0,0,-1,986,813,0,0
-231,211,0,0,0,0,0,0,0,0,0,-1,993,813,0,0
-224,211,0,0,0,0,0,0,0,0,0,-1,1000,813,0,0
-217,211,0,0,0,0,0,0,0,0,0,-1,1007,813,0,0
-210,211,0,0,0,0,0,0,0,0,0,-1,1014,813,0,0
-203,211,0,0,0,0,0,0,0,0,0,-1,1021,813,0,0
-196,211,0,0,0,0,0,0,0,0,0,-1,1028,813,0,0
-189,211,0,0,0,0,0,0,0,0,0,-1,1035,813,0,0
-182,211,0,0,0,0,0,0,0,0,0,-1,1042,813,0,0
-175,211,0,0,0,0,0,0,0,0,0,-1,1049,813,0,0
-168,211,0,0,0,0,0,0,0,0,0,-1,1056,813,0,0
-161,211,0,0,0,0,0,0,0,0,0,-1,1063,813,0,0
-154,211,0,0,0,0,0,0,0,0,0,-1,1070,813,0,0
-147,211,0,0,0,0,0,0,0,0,0,-1,1077,813,0,0
-140,211,0,0,0,0,0,0,0,0,0,-1,1084,813,0,0
-133,211,0,0,0,0,0,0,0,0,0,-1,1091,813,0,0
-126,211,0,0,0,0,0,0,0,0,0,-1,1098,813,0,0
-119,211,0,0,0,0,0,0,0,0,0,-1,1105,813,0,0
-112,211,0,0,0,0,0,0,0,0,0,-1,1112,813,0,0
-105,211,0,0,0,0,0,0,0,0,0,-1,1119,813,0,0
-98,211,0,0,0,0,0,0,0,0,0,-1,1126,813,0,0
-91,211,0,0,0,0,0,0,0,0,0,-1,1133,813,0,0
-84,211,0,0,0,0,0,0,0,0,0,-1,1140,813,0,0
-77,211,0,0,0,0,0,0,0,0,0,-1,1147,813,0,0
-70,211,0,0,0,0,0,0,0,0,0,-1,1154,813,0,0
-63,211,0,0,0,0,0,0,0,0,0,-1,1161,813,0,0
-56,211,0,0,0,0,0,0,0,0,0,-1,1168,813,0,0
-49,211,0,0,0,0,0,0,0,0,0,-1,1175,813,0,0
-42,211,0,0,0,0,0,0,0,0,0,-1,1182,813,0,0
-35,211,0,0,0,0,0,0,0,0,0,-1,1189,813,0,0
-28,211,0,0,0,0,0,0,0,0,0,-1,1196,813,0,0
-21,211,0,0,0,0,0,0,0,0,0,-1,1203,813,0,0
-14,211,0,0,0,0,0,0,0,0,0,-1,1210,813,0,0
-7,211,0,0,0,0,0,0,0,0,0,-1,1217,813,0,0
0,211,0,0,0,0,0,0,0,0,0,-1,1224,813,0,0
7,211,0,0,0,0,0,0,0,0,0,-1,1231,813,0,0
14,211,0,0,0,0,0,0,0,0,0,-1,1238,813,0,0
21,211,0,0,0,0,0,0,0,0,0,-1,1245,813,0,0
28,211,0,0,0,0,0,0,0,0,0,-1,1252,813,0,0
35,211,0,0,0,0,0,0,0,0,0,-1,1259,813,0,0
42,211,0,0,0,0,0,0,0,0,0,-1,1266,813,0,0
49,211,0,0,0,0,0,0,0,0,0,-1,1273,813,0,0
56,211,0,0,0,0,0,0,0,0,0,-1,1280,813,0,0
63,211,0,0,0,0,0,0,0,0,0,-1,1287,813,0,0
70,211,0,0,0,0,0,0,0,0,0,-1,1294,813,0,0
77,211,0,0,0,0,0,0,0,0,0,-1,1301,813,0,0
84,211,0,0,0,0,0,0,0,0,0,-1,1308,813,0,0
91,211,0,0,0,0,0,0,0,0,0,-1,1315,813,0,0
98,211,0,0,0,0,0,0,0,0,0,-1,1322,813,0,0
105,211,0,0,0,0,0,0,0,0,0,-1,1329,813,0,0
112,211,0,0,0,0,0,0,0,0,0,-1,1336,813,0,0
119,211,0,0,0,0,0,0,0,0,0,-1,1343,813,0,0
126,211,0,0,0,0,0,0,0,0,0,-1,1350,813,0,0
133,211,0,0,0,0,0,0,0,0,0,-1,1357,813,0,0
140,211,0,0,0,0,0,0,0,0,0,-1,1364,813,0,0
147,211,0,0,0,0,0,0,0,0,0,-1,1371,813,0,0
154,211,0,0,0,0,0,0,0,0,0,-1,1378,813,0,0
161,211,0,0,0,0,0,0,0,0,0,-1,1385,813,0,0
168,211,0,0,0,0,0,0,0,0,0,-1,1392,813,0,0
175,211,0,0,0,0,0,0,0,0,0,-1,1399,813,0,0
182,211,0,0,0,0,0,0,0,0,0,-1,1406,813,0,0
189,211,0,0,0,0,0,0,0,0,0,-1,1413,813,0,0
196,211,0,0,0,0,0,0,0,0,0,-1,1420,813,0,0
203,211,0,0,0,0,0,0,0,0,0,-1,1427,813,0,0
210,211,0,0,0,0,0,0,0,0,0,-1,1434,813,0,0
217,211,0,0,0,0,0,0,0,0,0,-1,1441,813,0,0
224,211,0,0,0,0,0,0,0,0,0,-1,1448,813,0,0
231,211,0,0,0,0,0,0,0,0,0,-1,1455,813,0,0
238,211,0,0,0,0,0,0,0,0,0,-1,1462,813,0,0
245,211,0,0,0,0,0,0,0,0,0,-1,1469,813,0,0
252,211,0,0,0,0,0,0,0,0,0,-1,1476,813,0,0
259,211,0,0,0,0,0,0,0,0,0,-1,1483,813,0,0
266,211,0,0,0,0,0,0,0,0,0,-1,1490,813,0,0
273,211,0,0,0,0,0,0,0,0,0,-1,1497,813,0,0
280,211,0,0,0,0,0,0,0,0,0,-1,1504,813,0,0
287,211,0,0,0,0,0,0,0,0,0,-1,1511,813,0,0
294,211,0,0,0,0,0,0,0,0,0,-1,1518,813,0,0
301,211,0,0,0,0,0,0,0,0,0,-1,1525,813,0,0
308,211,0,0,0,0,0,0,0,0,0,-1,1532,813,0,0
315,211,0,0,0,0,0,0,0,0,0,-1,1539,813,0,0
322,211,0,0,0,0,0,0,0,0,0,-1,1546,813,0,0
329,211,0,0,0,0,0,0,0,0,0,-1,1553,813,0,0
336,211,0,0,0,0,0,0,0,0,0,-1,1560,813,0,0
343,211,0,0,0,0,0,0,0,0,0,-1,1567,813,0,0
350,211,0,0,0,0,0,0,0,0,0,-1,1574,813,0,0
357,211,0,0,0,0,0,0,0,0,0,-1,1581,813,0,0
364,211,0,0,0,0,0,0,0,0,0,-1,1588,813,0,0
371,211,0,0,0,0,0,0,0,0,0,-1,1595,813,0,0
378,211,0,0,0,0,0,0,0,0,0,-1,1602,813,0,0
385,211,0,0,0,0,0,0,0,0,0,-1,1609,813,0,0
392,211,0,0,0,0,0,0,0,0,0,-1,1616,813,0,0
399,211,0,0,0,0,0,0,0,0,0,-1,1623,813,0,0
406,211,0,0,0,0,0,0,0,0,0,-1,1630,813,0,0
413,211,0,0,0,0,0,0,0,0,0,-1,1637,813,0,0
420,211,0,0,0,0,0,0,0,0,0,-1,1644,813,0,0
427,211,0,0,0,0,0,0,0,0,0,-1,1651,813,0,0
434,211,0,0,0,0,0,0,0,0,0,-1,1658,813,0,0
441,211,0,0,0,0,0,0,0,0,0,-1,1665,813,0,0
448,211,0,0,0,0,0,0,0,0,0,-1,1672,813,0,0
455,211,0,0,0,0,0,0,0,0,0,-1,1679,813,0,0
462,211,0,0,0,0,0,0,0,0,0,-1,1686,813,0,0
469,211,0,0,0,0,0,0,0,0,0,-1,1693,813,0,0
476,211,0,0,0,0,0,0,0,0,0,-1,1700,813,0,0
483,211,0,0,0,0,0,0,0,0,0,-1,1707,813,0,0
490,211,0,0,0,0,0,0,0,0,0,-1,1714,813,0,0
497,211,0,0,0,0,0,0,0,0,0,-1,1721,813,0,0
504,211,0,0,0,0,0,0,0,0,0,-1,1728,813,0,0
511,211,0,0,0,0,0,0,0,0,0,-1,1735,813,0,0
518,211,0,0,0,0,0,0,0,0,0,-1,1742,813,0,0
525,211,0,0,0,0,0,0,0,0,0,-1,1749,813,0,0
532,211,0,0,0,0,0,0,0,0,0,-1,1756,813,0,0
539,211,0,0,0,0,0,0,0,0,0,-1,1763,813,0,0
546,211,0,0,0,0,0,0,0,0,0,-1,1770,813,0,0
553,211,0,0,0,0,0,0,0,0,0,-1,1777,813,0,0
560,211,0,0,0,0,0,0,0,0,0,-1,1784,813,0,0
567,211,0,0,0,0,0,0,0,0,0,-1,1791,813,0,0
574,211,0,0,0,0,0,0,0,0,0,-1,1798,813,0,0
581,211,0,0,0,0,0,0,0,0,0,-1,1805,813,0,0
588,211,0,0,0,0,0,0,0,0,0,-1,1812,813,0,0
595,211,39.8391,2.47046,0.00133379,0.00463865,0.00274257,0.00618812,-0.000215691,1.05653,0.00419916,0.038589,1819,813,39.8391,-2.47045
602,211,39.7933,2.76776,0.000949327,0.00522101,0.00264301,0.00648331,-0.000312969,1.12523,0.00443022,0.0359425,1826,813,39.7934,-2.76774
609,211,39.739,2.79413,0.000978324,0.00574846,0.002613,0.00690123,-0.000174448,1.15531,0.00466006,0.038356,1833,813,39.739,-2.79412
616,211,39.7417,2.71259,0.00104909,0.00595943,0.00232196,0.00688351,0.000125003,1.19204,0.00454791,0.0316437,1840,813,39.7417,-2.7126
623,211,39.7462,2.68085,0.00103108,0.00572928,0.00184706,0.00636848,0.000391885,1.23764,0.00412124,0.0307432,1847,813,39.7462,-2.68086
630,211,39.719,2.73584,0.00107603,0.00534722,0.00138856,0.00575896,0.0006643,1.28254,0.00363814,0.0370594,1854,813,39.719,-2.73583
637,211,39.7687,2.82367,0.000926251,0.00462189,0.000969827,0.00486093,0.000687206,1.32913,0.00303758,0.0434893,1861,813,39.7686,-2.82365
644,211,39.7936,2.59393,0.00062886,0.00384661,0.000588843,0.00395098,0.000524488,1.39537,0.00247773,0.0422656,1868,813,39.7936,-2.59392
651,211,39.7667,2.34241,0,0,0,0,0,0,0,-1,1875,813,39.7667,-2.34242
658,211,27.7909,1.52234,0,0,0,0,0,0,0,-1,1882,813,27.7909,-1.52234
665,211,30.1444,0.574707,0,0,0,0,0,0,0,-1,1889,813,30.1444,-0.574722
672,211,30.0145,0.810425,0.000137725,0.00117618,-0.000611865,0.00145944,-0.000145528,-1.13724,0.00102492,0.0328173,1896,813,30.0146,-0.810446
679,211,29.9614,1.13885,-0.000299545,0.000263698,-0.000837905,0.000866043,-0.000901889,-0.947518,0.00102079,0.0181936,1903,813,29.9615,-1.13883
686,211,29.8936,1.5824,-0.000586581,-0.000261974,-0.00103779,0.000626126,-0.00147468,-0.862967,0.00124545,0.0123911,1910,813,29.8935,-1.58242
693,211,29.8882,2.01685,-0.000431625,-0.000688463,-0.0010959,0.000543351,-0.00166344,-0.727073,0.00132767,0.0115868,1917,813,29.8882,-2.01685
700,211,29.824,2.43567,-0.000182144,-0.000274352,-0.00100191,0.000774722,-0.00123122,-0.762406,0.00116808,0.0133697,1924,813,29.824,-2.43567
707,211,29.819,2.91571,0.000438781,0.000402519,-0.000986126,0.00140694,-0.000565643,-0.776206,0.00117289,0.0206655,1931,813,29.819,-2.91572
714,211,29.8235,3.38904,0.00141273,0.00113069,-0.000805047,0.00208901,0.000454404,-0.698693,0.00126863,0.0202828,1938,813,29.8235,-3.38901
721,211,29.8513,3.81128,0.00261513,0.00194499,-0.000736118,0.00308885,0.00147127,-0.571818,0.00178402,0.0161775,1945,813,29.8514,-3.81127
728,211,29.8669,4.25293,0.00396512,0.00283254,-0.000801306,0.00438004,0.00241762,-0.477791,0.00253337,0.0165566,1952,813,29.8669,-4.25295
735,211,29.8333,4.73029,0.00563057,0.0039008,-0.000964965,0.00606152,0.00346985,-0.420018,0.00351184,0.0278161,1959,813,29.8333,-4.73027
742,211,29.8057,5.2132,0,0,0,0,0,0,0,-1,1966,813,29.8057,-5.21319
749,211,29.3354,5.21234,0,0,0,0,0,0,0,-1,1973,813,29.3354,-5.21236
756,211,29.4044,5.1203,0,0,0,0,0,0,0,-1,1980,813,29.4044,-5.12029
763,211,30.1315,8.54175,0,0,0,0,0,0,0,-1,1987,813,30.1314,-8.54174
770,211,27.9138,9.25177,0,0,0,0,0,0,0,-1,1994,813,27.9139,-9.25176
777,211,0,0,0,0,0,0,0,0,0,-1,2001,813,0,0
784,211,0,0,0,0,0,0,0,0,0,-1,2008,813,0,0
791,211,0,0,0,0,0,0,0,0,0,-1,2015,813,0,0
798,211,0,0,0,0,0,0,0,0,0,-1,2022,813,0,0
805,211,0,0,0,0,0,0,0,0,0,-1,2029,813,0,0
812,211,0,0,0,0,0,0,0,0,0,-1,2036,813,0,0
-700,204,0,0,0,0,0,0,0,0,0,-1,524,820,0,0
-693,204,0,0,0,0,0,0,0,0,0,-1,531,820,0,0
-686,204,0,0,0,0,0,0,0,0,0,-1,538,820,0,0
-679,204,0,0,0,0,0,0,0,0,0,-1,545,820,0,0
-672,204,0,0,0,0,0,0,0,0,0,-1,552,820,0,0
-665,204,0,0,0,0,0,0,0,0,0,-1,559,820,0,0
-658,204,0,0,0,0,0,0,0,0,0,-1,566,820,0,0
-651,204,-24.8652,6.48065,0.055284,0.125534,0.0190579,0.130371,0.0504469,1.32223,0.0759085,0.0453588,573,820,-24.8652,-6.48063
-644,204,-24.7617,7.48132,0,0,0,0,0,0,0,-1,580,820,-24.7617,-7.4813
-637,204,-24.7829,8.35876,0,0,0,0,0,0,0,-1,587,820,-24.7829,-8.35876
-630,204,-21.7065,4.63257,0,0,0,0,0,0,0,-1,594,820,-21.7065,-4.63254
-623,204,-21.0221,3.23041,0,0,0,0,0,0,0,-1,601,820,-21.0221,-3.2304
-616,204,-20.9764,2.75739,0.0230229,0.0344329,0.00073202,0.0344796,0.0229761,1.50699,0.0202708,0.0483803,608,820,-20.9764,-2.75738
-609,204,-20.8612,2.3877,0.0164022,0.023469,1.35101e-05,0.023469,0.0164022,1.56888,0.0139026,0.033809,615,820,-20.8612,-2.38772
-602,204,-20.9454,2.06909,0.011282,0.0146329,-0.000604625,0.0147387,0.0111763,-1.39763,0.0088798,0.0149795,622,820,-20.9454,-2.06908
-595,204,-20.983,1.63446,0.0070465,0.00778002,-0.000675496,0.0081819,0.00664462,-1.03411,0.00502124,0.0136648,629,820,-20.983,-1.63449
-588,204,-20.9903,1.20337,0.00320323,0.0042582,-4.42592e-05,0.00426005,0.00320137,-1.52894,0.00256115,0.0114381,636,820,-20.9903,-1.20338
-581,204,-20.9952,0.78418,0.00088568,0.000927117,0.00042845,0.00133535,0.000477448,0.809558,0.000781325,0.0116388,643,820,-20.9952,-0.784172
-574,204,-21.0168,0.379089,-0.000159667,-0.000924459,0.000563971,0.000139325,-0.00122345,0.48748,0.000865821,0.0136456,650,820,-21.0168,-0.379059
-567,204,-21.0098,-0.0446167,-0.000626894,-0.000998423,0.000451986,-0.000323987,-0.00130133,0.590424,0.000782252,0.0144419,657,820,-21.0098,0.0446123
-560,204,-21.002,-0.485352,-0.000862534,-0.000396568,0.000576326,-7.91426e-06,-0.00125119,0.977483,0.000831499,0.0154376,664,820,-21.002,0.485328
-553,204,-21.0463,-0.808044,-0.00132021,0.000313237,0.000743248,0.000600802,-0.00160778,1.20163,0.00131856,0.0170147,671,820,-21.0463,0.808028
-546,204,-21.1155,-1.15875,-0.00198645,0.00106259,0.000788641,0.00125449,-0.00217836,1.3321,0.00200574,0.0229978,678,820,-21.1155,1.15877
-539,204,-21.0674,-1.66083,-0.00233882,0.00161327,0.000308406,0.00163719,-0.00236275,1.49338,0.002322,0.0428656,685,820,-21.0674,1.66083
-532,204,-20.9915,-2.34583,0,0,0,0,0,0,0,-1,692,820,-20.9915,2.34582
-525,204,-25.7137,1.52496,0,0,0,0,0,0,0,-1,699,820,-25.7137,-1.52496
-518,204,-28.851,1.5871,0,0,0,0,0,0,0,-1,706,820,-28.851,-1.58707
-511,204,-28.9874,1.16986,0,0,0,0,0,0,0,-1,713,820,-28.9874,-1.16984
-504,204,-29.1817,0.984741,-0.000919805,0.00492106,-0.00234343,0.00574504,-0.00174378,-1.23269,0.00452471,0.0495725,720,820,-29.1817,-0.984725
-497,204,-29.3239,0.778137,0.000418683,0.00495861,-0.00360744,0.00695085,-0.00157355,-1.06622,0.00523781,0.0399014,727,820,-29.3239,-0.778119
-490,204,-29.3912,0.624023,0.00261083,0.00453623,-0.00526412,0.00892495,-0.00177789,-0.875839,0.00662263,0.033895,734,820,-29.3912,-0.624052
-483,204,-29.3503,0.586914,0.00647497,0.00326986,-0.00735093,0.012396,-0.00265117,-0.678074,0.0092749,0.0370277,741,820,-29.3503,-0.586942
-476,204,0,0,0,0,0,0,0,0,0,-1,748,820,0,0
-469,204,0,0,0,0,0,0,0,0,0,-1,755,820,0,0
-462,204,0,0,0,0,0,0,0,0,0,-1,762,820,0,0
-455,204,0,0,0,0,0,0,0,0,0,-1,769,820,0,0
-448,204,0,0,0,0,0,0,0,0,0,-1,776,820,0,0
-441,204,0,0,0,0,0,0,0,0,0,-1,783,820,0,0
-434,204,0,0,0,0,0,0,0,0,0,-1,790,820,0,0
-427,204,0,0,0,0,0,0,0,0,0,-1,797,820,0,0
-420,204,0,0,0,0,0,0,0,0,0,-1,804,820,0,0
-413,204,0,0,0,0,0,0,0,0,0,-1,811,820,0,0
-406,204,0,0,0,0,0,0,0,0,0,-1,818,820,0,0
-399,204,0,0,0,0,0,0,0,0,0,-1,825,820,0,0
-392,204,0,0,0,0,0,0,0,0,0,-1,832,820,0,0
-385,204,0,0,0,0,0,0,0,0,0,-1,839,820,0,0
-378,204,0,0,0,0,0,0,0,0,0,-1,846,820,0,0
-371,204,0,0,0,0,0,0,0,0,0,-1,853,820,0,0
-364,204,0,0,0,0,0,0,0,0,0,-1,860,820,0,0
-357,204,0,0,0,0,0,0,0,0,0,-1,867,820,0,0
-350,204,0,0,0,0,0,0,0,0,0,-1,874,820,0,0
-343,204,0,0,0,0,0,0,0,0,0,-1,881,820,0,0
-336,204,0,0,0,0,0,0,0,0,0,-1,888,820,0,0
-329,204,0,0,0,0,0,0,0,0,0,-1,895,820,0,0
-322,204,0,0,0,0,0,0,0,0,0,-1,902,820,0,0
-315,204,0,0,0,0,0,0,0,0,0,-1,909,820,0,0
-308,204,0,0,0,0,0,0,0,0,0,-1,916,820,0,0
-301,204,0,0,0,0,0,0,0,0,0,-1,923,820,0,0
-294,204,0,0,0,0,0,0,0,0,0,-1,930,820,0,0
-287,204,0,0,0,0,0,0,0,0,0,-1,937,820,0,0
-280,204,0,0,0,0,0,0,0,0,0,-1,944,820,0,0
-273,204,0,0,0,0,0,0,0,0,0,-1,951,820,0,0
-266,204,0,0,0,0,0,0,0,0,0,-1,958,820,0,0
-259,204,0,0,0,0,0,0,0,0,0,-1,965,820,0,0
-252,204,0,0,0,0,0,0,0,0,0,-1,972,820,0,0
-245,204,0,0,0,0,0,0,0,0,0,-1,979,820,0,0
-238,204,0,0,0,0,0,0,0,0,0,-1,986,820,0,0
-231,204,0,0,0,0,0,0,0,0,0,-1,993,820,0,0
-224,204,0,0,0,0,0,0,0,0,0,-1,1000,820,0,0
-217,204,0,0,0,0,0,0,0,0,0,-1,1007,820,0,0
-210,204,0,0,0,0,0,0,0,0,0,-1,1014,820,0,0
-203,204,0,0,0,0,0,0,0,0,0,-1,1021,820,0,0
-196,204,0,0,0,0,0,0,0,0,0,-1,1028,820,0,0
-189,204,0,0,0,0,0,0,0,0,0,-1,1035,820,0,0
-182,204,0,0,0,0,0,0,0,0,0,-1,1042,820,0,0
-175,204,0,0,0,0,0,0,0,0,0,-1,1049,820,0,0
-168,204,0,0,0,0,0,0,0,0,0,-1,1056,820,0,0
-161,204,0,0,0,0,0,0,0,0,0,-1,1063,820,0,0
-154,204,0,0,0,0,0,0,0,0,0,-1,1070,820,0,0
-147,204,0,0,0,0,0,0,0,0,0,-1,1077,820,0,0
-140,204,0,0,0,0,0,0,0,0,0,-1,1084,820,0,0
-133,204,0,0,0,0,0,0,0,0,0,-1,1091,820,0,0
-126,204,0,0,0,0,0,0,0,0,0,-1,1098,820,0,0
-119,204,0,0,0,0,0,0,0,0,0,-1,1105,820,0,0
-112,204,0,0,0,0,0,0,0,0,0,-1,1112,820,0,0
-105,204,0,0,0,0,0,0,0,0,0,-1,1119,820,0,0
-98,204,0,0,0,0,0,0,0,0,0,-1,1126,820,0,0
-91,204,0,0,0,0,0,0,0,0,0,-1,1133,820,0,0
-84,204,0,0,0,0,0,0,0,0,0,-1,1140,820,0,0
-77,204,0,0,0,0,0,0,0,0,0,-1,1147,820,0,0
-70,204,0,0,0,0,0,0,0,0,0,-1,1154,820,0,0
-63,204,0,0,0,0,0,0,0,0,0,-1,1161,820,0,0
-56,204,0,0,0,0,0,0,0,0,0,-1,1168,820,0,0
-49,204,0,0,0,0,0,0,0,0,0,-1,1175,820,0,0
-42,204,0,0,0,0,0,0,0,0,0,-1,1182,820,0,0
-35,204,0,0,0,0,0,0,0,0,0,-1,1189,820,0,0
-28,204,0,0,0,0,0,0,0,0,0,-1,1196,820,0,0
-21,204,0,0,0,0,0,0,0,0,0,-1,1203,820,0,0
-14,204,0,0,0,0,0,0,0,0,0,-1,1210,820,0,0
-7,204,0,0,0,0,0,0,0,0,0,-1,1217,820,0,0
0,204,0,0,0,0,0,0,0,0,0,-1,1224,820,0,0
7,204,0,0,0,0,0,0,0,0,0,-1,1231,820,0,0
14,204,0,0,0,0,0,0,0,0,0,-1,1238,820,0,0
21,204,0,0,0,0,0,0,0,0,0,-1,1245,820,0,0
28,204,0,0,0,0,0,0,0,0,0,-1,1252,820,0,0
35,204,0,0,0,0,0,0,0,0,0,-1,1259,820,0,0
42,204,0,0,0,0,0,0,0,0,0,-1,1266,820,0,0
49,204,0,0,0,0,0,0,0,0,0,-1,1273,820,0,0
56,204,0,0,0,0,0,0,0,0,0,-1,1280,820,0,0
63,204,0,0,0,0,0,0,0,0,0,-1,1287,820,0,0
70,204,0,0,0,0,0,0,0,0,0,-1,1294,820,0,0
77,204,0,0,0,0,0,0,0,0,0,-1,1301,820,0,0
84,204,0,0,0,0,0,0,0,0,0,-1,1308,820,0,0
91,204,0,0,0,0,0,0,0,0,0,-1,1315,820,0,0
98,204,0,0,0,0,0,0,0,0,0,-1,1322,820,0,0
105,204,0,0,0,0,0,0,0,0,0,-1,1329,820,0,0
112,204,0,0,0,0,0,0,0,0,0,-1,1336,820,0,0
119,204,0,0,0,0,0,0,0,0,0,-1,1343,820,0,0
126,204,0,0,0,0,0,0,0,0,0,-1,1350,820,0,0
133,204,0,0,0,0,0,0,0,0,0,-1,1357,820,0,0
140,204,0,0,0,0,0,0,0,0,0,-1,1364,820,0,0
147,204,0,0,0,0,0,0,0,0,0,-1,1371,820,0,0
154,204,0,0,0,0,0,0,0,0,0,-1,1378,820,0,0
161,204,0,0,0,0,0,0,0,0,0,-1,1385,820,0,0
168,204,0,0,0,0,0,0,0,0,0,-1,1392,820,0,0
175,204,0,0,0,0,0,0,0,0,0,-1,1399,820,0,0
182,204,0,0,0,0,0,0,0,0,0,-1,1406,820,0,0
189,204,0,0,0,0,0,0,0,0,0,-1,1413,820,0,0
196,204,0,0,0,0,0,0,0,0,0,-1,1420,820,0,0
203,204,0,0,0,0,0,0,0,0,0,-1,1427,820,0,0
210,204,0,0,0,0,0,0,0,0,0,-1,1434,820,0,0
217,204,0,0,0,0,0,0,0,0,0,-1,1441,820,0,0
224,204,0,0,0,0,0,0,0,0,0,-1,1448,820,0,0
231,204,0,0,0,0,0,0,0,0,0,-1,1455,820,0,0
238,204,0,0,0,0,0,0,0,0,0,-1,1462,820,0,0
245,204,0,0,0,0,0,0,0,0,0,-1,1469,820,0,0
252,204,0,0,0,0,0,0,0,0,0,-1,1476,820,0,0
259,204,0,0,0,0,0,0,0,0,0,-1,1483,820,0,0
266,204,0,0,0,0,0,0,0,0,0,-1,1490,820,0,0
273,204,0,0,0,0,0,0,0,0,0,-1,1497,820,0,0
280,204,0,0,0,0,0,0,0,0,0,-1,1504,820,0,0
287,204,0,0,0,0,0,0,0,0,0,-1,1511,820,0,0
294,204,0,0,0,0,0,0,0,0,0,-1,1518,820,0,0
301,204,0,0,0,0,0,0,0,0,0,-1,1525,820,0,0
308,204,0,0,0,0,0,0,0,0,0,-1,1532,820,0,0
315,204,0,0,0,0,0,0,0,0,0,-1,1539,820,0,0
322,204,0,0,0,0,0,0,0,0,0,-1,1546,820,0,0
329,204,0,0,0,0,0,0,0,0,0,-1,1553,820,0,0
336,204,0,0,0,0,0,0,0,0,0,-1,1560,820,0,0
343,204,0,0,0,0,0,0,0,0,0,-1,1567,820,0,0
350,204,0,0,0,0,0,0,0,0,0,-1,1574,820,0,0
357,204,0,0,0,0,0,0,0,0,0,-1,1581,820,0,0
364,204,0,0,0,0,0,0,0,0,0,-1,1588,820,0,0
371,204,0,0,0,0,0,0,0,0,0,-1,1595,820,0,0
378,204,0,0,0,0,0,0,0,0,0,-1,1602,820,0,0
385,204,0,0,0,0,0,0,0,0,0,-1,1609,820,0,0
392,204,0,0,0,0,0,0,0,0,0,-1,1616,820,0,0
399,204,0,0,0,0,0,0,0,0,0,-1,1623,820,0,0
406,204,0,0,0,0,0,0,0,0,0,-1,1630,820,0,0
413,204,0,0,0,0,0,0,0,0,0,-1,1637,820,0,0
420,204,0,0,0,0,0,0,0,0,0,-1,1644,820,0,0
427,204,0,0,0,0,0,0,0,0,0,-1,1651,820,0,0
434,204,0,0,0,0,0,0,0,0,0,-1,1658,820,0,0
441,204,0,0,0,0,0,0,0,0,0,-1,1665,820,0,0
448,204,0,0,0,0,0,0,0,0,0,-1,1672,820,0,0
455,204,0,0,0,0,0,0,0,0,0,-1,1679,820,0,0
462,204,0,0,0,0,0,0,0,0,0,-1,1686,820,0,0
469,204,0,0,0,0,0,0,0,0,0,-1,1693,820,0,0
476,204,0,0,0,0,0,0,0,0,0,-1,1700,820,0,0
483,204,0,0,0,0,0,0,0,0,0,-1,1707,820,0,0
490,204,0,0,0,0,0,0,0,0,0,-1,1714,820,0,0
497,204,0,0,0,0,0,0,0,0,0,-1,1721,820,0,0
504,204,0,0,0,0,0,0,0,0,0,-1,1728,820,0,0
511,204,0,0,0,0,0,0,0,0,0,-1,1735,820,0,0
518,204,0,0,0,0,0,0,0,0,0,-1,1742,820,0,0
525,204,0,0,0,0,0,0,0,0,0,-1,1749,820,0,0
532,204,0,0,0,0,0,0,0,0,0,-1,1756,820,0,0
539,204,0,0,0,0,0,0,0,0,0,-1,1763,820,0,0
546,204,0,0,0,0,0,0,0,0,0,-1,1770,820,0,0
553,204,0,0,0,0,0,0,0,0,0,-1,1777,820,0,0
560,204,0,0,0,0,0,0,0,0,0,-1,1784,820,0,0
567,204,0,0,0,0,0,0,0,0,0,-1,1791,820,0,0
574,204,0,0,0,0,0,0,0,0,0,-1,1798,820,0,0
581,204,0,0,0,0,0,0,0,0,0,-1,1805,820,0,0
588,204,0,0,0,0,0,0,0,0,0,-1,1812,820,0,0
595,204,0,0,0,0,0,0,0,0,0,-1,1819,820,0,0
602,204,39.8447,2.74329,0.000800512,0.00493755,0.00224771,0.00592369,-0.000185635,1.15735,0.00401244,0.0366354,1826,820,39.8447,-2.74326
609,204,39.7443,2.90472,0.00100649,0.00573801,0.00227101,0.00665163,9.28738e-05,1.18831,0.00440379,0.0394256,1833,820,39.7443,-2.90473
616,204,39.7493,2.77722,0.00126583,0.00615428,0.00208786,0.00692461,0.000495492,1.21733,0.00446043,0.0375027,1840,820,39.7493,-2.7772
623,204,39.7252,2.71204,0.00133943,0.00603616,0.00170981,0.00659266,0.000782928,1.25613,0.00415877,0.0288187,1847,820,39.7252,-2.71205
630,204,39.6871,2.70636,0.00137301,0.00564696,0.00131105,0.00601708,0.00100289,1.29565,0.0037224,0.0290682,1854,820,39.6872,-2.70639
637,204,39.7032,2.69672,0.00121153,0.00484303,0.000910248,0.00505841,0.00099615,1.33845,0.00309415,0.036419,1861,820,39.7032,-2.69673
644,204,39.7616,2.57715,0.000929225,0.00396987,0.000552348,0.0040671,0.000831997,1.39656,0.00248101,0.0396703,1868,820,39.7616,-2.57717
651,204,39.8464,2.45416,0,0,0,0,0,0,0,-1,1875,820,39.8464,-2.45419
658,204,34.9631,1.64844,0,0,0,0,0,0,0,-1,1882,820,34.9631,-1.64842
665,204,21.8292,1.51099,0,0,0,0,0,0,0,-1,1889,820,21.8292,-1.51099
672,204,30.3745,0.724365,0,0,0,0,0,0,0,-1,1896,820,30.3746,-0.724337
679,204,30.3281,1.00061,-0.000290468,0.000228125,-0.00081316,0.000822329,-0.000884673,-0.939739,0.000985757,0.0360524,1903,820,30.3281,-1.00059
686,204,30.3318,1.56372,-0.000582659,-0.000336677,-0.00106088,0.000608313,-0.00152765,-0.843107,0.0012707,0.0159847,1910,820,30.3318,-1.56373
693,204,30.2806,2.01068,-0.000474231,-0.000840018,-0.00121951,0.000576024,-0.00189027,-0.710966,0.00148978,0.0156359,1917,820,30.2807,-2.01071
700,204,30.3043,2.47705,-0.000384907,-0.000540124,-0.0012381,0.000778015,-0.00170305,-0.754097,0.00146525,0.0172453,1924,820,30.3043,-2.47703
707,204,30.2476,2.948,3.71915e-05,6.88957e-05,-0.0013197,0.00137284,-0.00126675,-0.791404,0.00152438,0.0154228,1931,820,30.2476,-2.94801
714,204,30.261,3.44971,0.000900112,0.000788992,-0.00120063,0.00204647,-0.000357363,-0.762277,0.00149771,0.0229567,1938,820,30.261,-3.44972
721,204,30.2745,3.84088,0.00206962,0.00160567,-0.00116835,0.00302881,0.000646492,-0.687399,0.00184192,0.021115,1945,820,30.2745,-3.84091
728,204,30.2751,4.24622,0.00338295,0.00247963,-0.00119152,0.00420554,0.00165704,-0.604236,0.00244619,0.0136778,1952,820,30.2751,-4.24621
735,204,30.2186,4.68964,0.00496358,0.00324446,-0.00131911,0.00567847,0.00252957,-0.496641,0.00328496,0.0154177,1959,820,30.2186,-4.68966
742,204,30.2471,5.05511,0.00703273,0.0041,-0.00157083,0.00771526,0.00341747,-0.409891,0.00446406,0.0315004,1966,820,30.2471,-5.05509
749,204,30.3348,5.39893,0,0,0,0,0,0,0,-1,1973,820,30.3348,-5.39895
756,204,29.8203,5.79413,0,0,0,0,0,0,0,-1,1980,820,29.8203,-5.7941
763,204,30.1774,8.16174,0,0,0,0,0,0,0,-1,1987,820,30.1774,-8.16177
770,204,30.3047,9.32019,0,0,0,0,0,0,0,-1,1994,820,30.3047,-9.32018
777,204,0,0,0,0,0,0,0,0,0,-1,2001,820,0,0
784,204,0,0,0,0,0,0,0,0,0,-1,2008,820,0,0
791,204,0,0,0,0,0,0,0,0,0,-1,2015,820,0,0
798,204,0,0,0,0,0,0,0,0,0,-1,2022,820,0,0
805,204,0,0,0,0,0,0,0,0,0,-1,2029,820,0,0
812,204,0,0,0,0,0,0,0,0,0,-1,2036,820,0,0
-700,197,0,0,0,0,0,0,0,0,0,-1,524,827,0,0
-693,197,0,0,0,0,0,0,0,0,0,-1,531,827,0,0
-686,197,0,0,0,0,0,0,0,0,0,-1,538,827,0,0
-679,197,0,0,0,0,0,0,0,0,0,-1,545,827,0,0
-672,197,0,0,0,0,0,0,0,0,0,-1,552,827,0,0
-665,197,0,0,0,0,0,0,0,0,0,-1,559,827,0,0
-658,197,-24.5864,4.68567,0.0609103,0.130878,0.0273697,0.140312,0.051476,1.23885,0.0819609,0.0416235,566,827,-24.5863,-4.68567
-651,197,-24.5098,5.50427,0.0581127,0.113203,0.018465,0.118819,0.0524962,1.27552,0.0687549,0.0463319,573,827,-24.5097,-5.50425
-644,197,-23.3681,4.39154,0,0,0,0,0,0,0,-1,580,827,-23.3681,-4.39153
-637,197,-21.4561,4.97479,0,0,0,0,0,0,0,-1,587,827,-21.4561,-4.97478
-630,197,-21.387,4.22906,0.037169,0.05889,0.00436706,0.0597351,0.0363239,1.37964,0.0347556,0.0434723,594,827,-21.387,-4.22905
-623,197,-21.3308,3.31873,0.0289212,0.044392,0.00245547,0.0447724,0.0285408,1.41711,0.026173,0.0485074,601,827,-21.3308,-3.31872
-616,197,-21.3029,2.83777,0.0213033,0.0320269,0.00136408,0.0321977,0.0211325,1.44623,0.0188898,0.0451807,608,827,-21.3029,-2.83774
-609,197,-21.2954,2.46082,0.0149012,0.0219164,0.000610178,0.0219691,0.0148485,1.48468,0.0129428,0.0314022,615,827,-21.2954,-2.46081
-602,197,-21.3651,2.0636,0.0099689,0.0137117,-5.24278e-05,0.0137124,0.00996817,-1.55679,0.0081842,0.016201,622,827,-21.3651,-2.06357
-595,197,-21.4012,1.64764,0.00593157,0.00730655,-0.000172008,0.00732774,0.00591038,-1.44821,0.00448794,0.0172755,629,827,-21.4012,-1.64765
-588,197,-21.4181,1.21082,0.00232819,0.00376272,0.0002643,0.00380986,0.00228104,1.39427,0.00221387,0.0187027,636,827,-21.4181,-1.2108
-581,197,-21.4186,0.785583,0.000255002,0.000533929,0.000541966,0.000954088,-0.000165157,0.911331,0.000697658,0.0110012,643,827,-21.4186,-0.785589
-574,197,-21.435,0.374451,-0.000584179,-0.00118749,0.000442974,-0.000349902,-0.00142176,0.486477,0.000855404,0.0119052,650,827,-21.435,-0.374427
-567,197,-21.4398,-0.0421753,-0.000889765,-0.00115032,0.000132732,-0.000834058,-0.00120602,0.397369,0.000713131,0.0140646,657,827,-21.4398,0.0421807
-560,197,-21.4367,-0.445129,-0.000885591,-0.000476306,0.000181307,-0.000407543,-0.000954354,1.20829,0.000552949,0.0196874,664,827,-21.4367,0.445136
-553,197,-21.6263,-0.766235,-0.0011859,0.000245982,0.000361715,0.000332169,-0.00127208,1.33688,0.000977771,0.0220603,671,827,-21.6263,0.766226
-546,197,-21.5288,-1.15704,-0.00174673,0.00103479,0.000397652,0.00109052,-0.00180246,1.43155,0.00168704,0.0365135,678,827,-21.5288,1.15705
-539,197,-21.3569,-1.54797,0,0,0,0,0,0,0,-1,685,827,-21.3569,1.548
-532,197,-16.0519,0.0410156,0,0,0,0,0,0,0,-1,692,827,-16.0519,-0.0410415
-525,197,-28.967,1.47668,0,0,0,0,0,0,0,-1,699,827,-28.967,-1.47669
-518,197,-29.0245,1.29999,-0.00172217,0.0040859,-0.000882562,0.00421705,-0.00185332,-1.42328,0.0035922,0.0434484,706,827,-29.0246,-1.29996
-511,197,-29.0248,1.16412,-0.00141094,0.00487154,-0.00135757,0.00515234,-0.00169175,-1.36683,0.00411637,0.043278,713,827,-29.0248,-1.16412
-504,197,-29.099,1.15424,-0.000663325,0.00540213,-0.00213239,0.00607676,-0.00133796,-1.26439,0.00456302,0.0400294,720,827,-29.099,-1.15424
-497,197,-29.3528,0.881104,0.000647502,0.00544403,-0.00320628,0.00704975,-0.000958221,-1.1065,0.00504964,0.0395312,727,827,-29.3528,-0.881084
-490,197,-29.4615,0.561829,0.00291511,0.00484888,-0.00462168,0.00860372,-0.00083974,-0.888515,0.00603523,0.0382532,734,827,-29.4615,-0.561856
-483,197,-29.3582,0.35907,0.00711627,0.00308867,-0.00640758,0.0118191,-0.00161411,-0.633144,0.00846884,0.0413858,741,827,-29.3582,-0.359085
-476,197,0,0,0,0,0,0,0,0,0,-1,748,827,0,0
-469,197,0,0,0,0,0,0,0,0,0,-1,755,827,0,0
-462,197,0,0,0,0,0,0,0,0,0,-1,762,827,0,0
-455,197,0,0,0,0,0,0,0,0,0,-1,769,827,0,0
-448,197,0,0,0,0,0,0,0,0,0,-1,776,827,0,0
-441,197,0,0,0,0,0,0,0,0,0,-1,783,827,0,0
-434,197,0,0,0,0,0,0,0,0,0,-1,790,827,0,0
-427,197,0,0,0,0,0,0,0,0,0,-1,797,827,0,0
-420,197,0,0,0,0,0,0,0,0,0,-1,804,827,0,0
-413,197,0,0,0,0,0,0,0,0,0,-1,811,827,0,0
-406,197,0,0,0,0,0,0,0,0,0,-1,818,827,0,0
-399,197,0,0,0,0,0,0,0,0,0,-1,825,827,0,0
-392,197,0,0,0,0,0,0,0,0,0,-1,832,827,0,0
-385,197,0,0,0,0,0,0,0,0,0,-1,839,827,0,0
-378,197,0,0,0,0,0,0,0,0,0,-1,846,827,0,0
-371,197,0,0,0,0,0,0,0,0,0,-1,853,827,0,0
-364,197,0,0,0,0,0,0,0,0,0,-1,860,827,0,0
-357,197,0,0,0,0,0,0,0,0,0,-1,867,827,0,0
-350,197,0,0,0,0,0,0,0,0,0,-1,874,827,0,0
-343,197,0,0,0,0,0,0,0,0,0,-1,881,827,0,0
-336,197,0,0,0,0,0,0,0,0,0,-1,888,827,0,0
-329,197,0,0,0,0,0,0,0,0,0,-1,895,827,0,0
-322,197,0,0,0,0,0,0,0,0,0,-1,902,827,0,0
-315,197,0,0,0,0,0,0,0,0,0,-1,909,827,0,0
-308,197,0,0,0,0,0,0,0,0,0,-1,916,827,0,0
-301,197,0,0,0,0,0,0,0,0,0,-1,923,827,0,0
-294,197,0,0,0,0,0,0,0,0,0,-1,930,827,0,0
-287,197,0,0,0,0,0,0,0,0,0,-1,937,827,0,0
-280,197,0,0,0,0,0,0,0,0,0,-1,944,827,0,0
-273,197,0,0,0,0,0,0,0,0,0,-1,951,827,0,0
-266,197,0,0,0,0,0,0,0,0,0,-1,958,827,0,0
-259,197,0,0,0,0,0,0,0,0,0,-1,965,827,0,0
-252,197,0,0,0,0,0,0,0,0,0,-1,972,827,0,0
-245,197,0,0,0,0,0,0,0,0,0,-1,979,827,0,0
-238,197,0,0,0,0,0,0,0,0,0,-1,986,827,0,0
-231,197,0,0,0,0,0,0,0,0,0,-1,993,827,0,0
-224,197,0,0,0,0,0,0,0,0,0,-1,1000,827,0,0
-217,197,0,0,0,0,0,0,0,0,0,-1,1007,827,0,0
-210,197,0,0,0,0,0,0,0,0,0,-1,1014,827,0,0
-203,197,0,0,0,0,0,0,0,0,0,-1,1021,827,0,0
-196,197,0,0,0,0,0,0,0,0,0,-1,1028,827,0,0
-189,197,0,0,0,0,0,0,0,0,0,-1,1035,827,0,0
-182,197,0,0,0,0,0,0,0,0,0,-1,1042,827,0,0
-175,197,0,0,0,0,0,0,0,0,0,-1,1049,827,0,0
-168,197,0,0,0,0,0,0,0,0,0,-1,1056,827,0,0
-161,197,0,0,0,0,0,0,0,0,0,-1,1063,827,0,0
-154,197,0,0,0,0,0,0,0,0,0,-1,1070,827,0,0
-147,197,0,0,0,0,0,0,0,0,0,-1,1077,827,0,0
-140,197,0,0,0,0,0,0,0,0,0,-1,1084,827,0,0
-133,197,0,0,0,0,0,0,0,0,0,-1,1091,827,0,0
-126,197,0,0,0,0,0,0,0,0,0,-1,1098,827,0,0
-119,197,0,0,0,0,0,0,0,0,0,-1,1105,827,0,0
-112,197,0,0,0,0,0,0,0,0,0,-1,1112,827,0,0
-105,197,0,0,0,0,0,0,0,0,0,-1,1119,827,0,0
-98,197,0,0,0,0,0,0,0,0,0,-1,1126,827,0,0
-91,197,0,0,0,0,0,0,0,0,0,-1,1133,827,0,0
-84,197,0,0,0,0,0,0,0,0,0,-1,1140,827,0,0
-77,197,0,0,0,0,0,0,0,0,0,-1,1147,827,0,0
-70,197,0,0,0,0,0,0,0,0,0,-1,1154,827,0,0
-63,197,0,0,0,0,0,0,0,0,0,-1,1161,827,0,0
-56,197,0,0,0,0,0,0,0,0,0,-1,1168,827,0,0
-49,197,0,0,0,0,0,0,0,0,0,-1,1175,827,0,0
-42,197,0,0,0,0,0,0,0,0,0,-1,1182,827,0,0
-35,197,0,0,0,0,0,0,0,0,0,-1,1189,827,0,0
-28,197,0,0,0,0,0,0,0,0,0,-1,1196,827,0,0
-21,197,0,0,0,0,0,0,0,0,0,-1,1203,827,0,0
-14,197,0,0,0,0,0,0,0,0,0,-1,1210,827,0,0
-7,197,0,0,0,0,0,0,0,0,0,-1,1217,827,0,0
0,197,0,0,0,0,0,0,0,0,0,-1,1224,827,0,0
7,197,0,0,0,0,0,0,0,0,0,-1,1231,827,0,0
14,197,0,0,0,0,0,0,0,0,0,-1,1238,827,0,0
21,197,0,0,0,0,0,0,0,0,0,-1,1245,827,0,0
28,197,0,0,0,0,0,0,0,0,0,-1,1252,827,0,0
35,197,0,0,0,0,0,0,0,0,0,-1,1259,827,0,0
42,197,0,0,0,0,0,0,0,0,0,-1,1266,827,0,0
49,197,0,0,0,0,0,0,0,0,0,-1,1273,827,0,0
56,197,0,0,0,0,0,0,0,0,0,-1,1280,827,0,0
63,197,0,0,0,0,0,0,0,0,0,-1,1287,827,0,0
70,197,0,0,0,0,0,0,0,0,0,-1,1294,827,0,0
77,197,0,0,0,0,0,0,0,0,0,-1,1301,827,0,0
84,197,0,0,0,0,0,0,0,0,0,-1,1308,827,0,0
91,197,0,0,0,0,0,0,0,0,0,-1,1315,827,0,0
98,197,0,0,0,0,0,0,0,0,0,-1,1322,827,0,0
105,197,0,0,0,0,0,0,0,0,0,-1,1329,827,0,0
112,197,0,0,0,0,0,0,0,0,0,-1,1336,827,0,0
119,197,0,0,0,0,0,0,0,0,0,-1,1343,827,0,0
126,197,0,0,0,0,0,0,0,0,0,-1,1350,827,0,0
133,197,0,0,0,0,0,0,0,0,0,-1,1357,827,0,0
140,197,0,0,0,0,0,0,0,0,0,-1,1364,827,0,0
147,197,0,0,0,0,0,0,0,0,0,-1,1371,827,0,0
154,197,0,0,0,0,0,0,0,0,0,-1,1378,827,0,0
161,197,0,0,0,0,0,0,0,0,0,-1,1385,827,0,0
168,197,0,0,0,0,0,0,0,0,0,-1,1392,827,0,0
175,197,0,0,0,0,0,0,0,0,0,-1,1399,827,0,0
182,197,0,0,0,0,0,0,0,0,0,-1,1406,827,0,0
189,197,0,0,0,0,0,0,0,0,0,-1,1413,827,0,0
196,197,0,0,0,0,0,0,0,0,0,-1,1420,827,0,0
203,197,0,0,0,0,0,0,0,0,0,-1,1427,827,0,0
210,197,0,0,0,0,0,0,0,0,0,-1,1434,827,0,0
217,197,0,0,0,0,0,0,0,0,0,-1,1441,827,0,0
224,197,0,0,0,0,0,0,0,0,0,-1,1448,827,0,0
231,197,0,0,0,0,0,0,0,0,0,-1,1455,827,0,0
238,197,0,0,0,0,0,0,0,0,0,-1,1462,827,0,0
245,197,0,0,0,0,0,0,0,0,0,-1,1469,827,0,0
252,197,0,0,0,0,0,0,0,0,0,-1,1476,827,0,0
259,197,0,0,0,0,0,0,0,0,0,-1,1483,827,0,0
266,197,0,0,0,0,0,0,0,0,0,-1,1490,827,0,0
273,197,0,0,0,0,0,0,0,0,0,-1,1497,827,0,0
280,197,0,0,0,0,0,0,0,0,0,-1,1504,827,0,0
287,197,0,0,0,0,0,0,0,0,0,-1,1511,827,0,0
294,197,0,0,0,0,0,0,0,0,0,-1,1518,827,0,0
301,197,0,0,0,0,0,0,0,0,0,-1,1525,827,0,0
308,197,0,0,0,0,0,0,0,0,0,-1,1532,827,0,0
315,197,0,0,0,0,0,0,0,0,0,-1,1539,827,0,0
322,197,0,0,0,0,0,0,0,0,0,-1,1546,827,0,0
329,197,0,0,0,0,0,0,0,0,0,-1,1553,827,0,0
336,197,0,0,0,0,0,0,0,0,0,-1,1560,827,0,0
343,197,0,0,0,0,0,0,0,0,0,-1,1567,827,0,0
350,197,0,0,0,0,0,0,0,0,0,-1,1574,827,0,0
357,197,0,0,0,0,0,0,0,0,0,-1,1581,827,0,0
364,197,0,0,0,0,0,0,0,0,0,-1,1588,827,0,0
371,197,0,0,0,0,0,0,0,0,0,-1,1595,827,0,0
378,197,0,0,0,0,0,0,0,0,0,-1,1602,827,0,0
385,197,0,0,0,0,0,0,0,0,0,-1,1609,827,0,0
392,197,0,0,0,0,0,0,0,0,0,-1,1616,827,0,0
399,197,0,0,0,0,0,0,0,0,0,-1,1623,827,0,0
406,197,0,0,0,0,0,0,0,0,0,-1,1630,827,0,0
413,197,0,0,0,0,0,0,0,0,0,-1,1637,827,0,0
420,197,0,0,0,0,0,0,0,0,0,-1,1644,827,0,0
427,197,0,0,0,0,0,0,0,0,0,-1,1651,827,0,0
434,197,0,0,0,0,0,0,0,0,0,-1,1658,827,0,0
441,197,0,0,0,0,0,0,0,0,0,-1,1665,827,0,0
448,197,0,0,0,0,0,0,0,0,0,-1,1672,827,0,0
455,197,0,0,0,0,0,0,0,0,0,-1,1679,827,0,0
462,197,0,0,0,0,0,0,0,0,0,-1,1686,827,0,0
469,197,0,0,0,0,0,0,0,0,0,-1,1693,827,0,0
476,197,0,0,0,0,0,0,0,0,0,-1,1700,827,0,0
483,197,0,0,0,0,0,0,0,0,0,-1,1707,827,0,0
490,197,0,0,0,0,0,0,0,0,0,-1,1714,827,0,0
497,197,0,0,0,0,0,0,0,0,0,-1,1721,827,0,0
504,197,0,0,0,0,0,0,0,0,0,-1,1728,827,0,0
511,197,0,0,0,0,0,0,0,0,0,-1,1735,827,0,0
518,197,0,0,0,0,0,0,0,0,0,-1,1742,827,0,0
525,197,0,0,0,0,0,0,0,0,0,-1,1749,827,0,0
532,197,0,0,0,0,0,0,0,0,0,-1,1756,827,0,0
539,197,0,0,0,0,0,0,0,0,0,-1,1763,827,0,0
546,197,0,0,0,0,0,0,0,0,0,-1,1770,827,0,0
553,197,0,0,0,0,0,0,0,0,0,-1,1777,827,0,0
560,197,0,0,0,0,0,0,0,0,0,-1,1784,827,0,0
567,197,0,0,0,0,0,0,0,0,0,-1,1791,827,0,0
574,197,0,0,0,0,0,0,0,0,0,-1,1798,827,0,0
581,197,0,0,0,0,0,0,0,0,0,-1,1805,827,0,0
588,197,0,0,0,0,0,0,0,0,0,-1,1812,827,0,0
595,197,0,0,0,0,0,0,0,0,0,-1,1819,827,0,0
602,197,39.7195,2.69452,0.00094972,0.0044059,0.0017976,0.00517133,0.000184283,1.16824,0.0033878,0.037182,1826,827,39.7195,-2.69455
609,197,39.7675,2.80231,0.00120277,0.00533255,0.00188463,0.0060633,0.00047202,1.2009,0.00389441,0.0382611,1833,827,39.7675,-2.80229
616,197,39.8066,2.68091,0.00154148,0.00587086,0.00181198,0.00652914,0.000883195,1.22233,0.00409027,0.0388559,1840,827,39.8067,-2.68089
623,197,39.7043,2.59247,0.00165252,0.00587759,0.0015554,0.00638842,0.00114168,1.25347,0.003934,0.034651,1847,827,39.7043,-2.59244
630,197,39.6942,2.58685,0.00163674,0.0055085,0.00122431,0.00586315,0.00128208,1.28883,0.00355923,0.0310538,1854,827,39.6943,-2.58684
637,197,39.7156,2.6189,0.00143216,0.00469179,0.000852457,0.00490126,0.00122269,1.32984,0.00294578,0.0294085,1861,827,39.7155,-2.61891
644,197,39.7646,2.60114,0.00112564,0.00377871,0.000516251,0.00387563,0.00102873,1.38523,0.00231822,0.0340255,1868,827,39.7647,-2.60116
651,197,39.8484,2.59991,0.000866231,0.00287982,0.000184669,0.00289662,0.000849434,1.48009,0.00171936,0.049058,1875,827,39.8484,-2.59994
658,197,39.938,2.6452,0,0,0,0,0,0,0,-1,1882,827,39.938,-2.64521
665,197,14.0618,1.80304,0,0,0,0,0,0,0,-1,1889,827,14.0617,-1.80303
672,197,30.7024,0.236145,0,0,0,0,0,0,0,-1,1896,827,30.7024,-0.236133
679,197,30.6604,0.868408,0,0,0,0,0,0,0,-1,1903,827,30.6604,-0.868418
686,197,30.7869,1.60846,-0.000534353,-0.000411498,-0.00101933,0.000548257,-0.00149411,-0.815493,0.00122058,0.0278002,1910,827,30.7868,-1.60846
693,197,30.7386,2.07092,-0.000434543,-0.000920819,-0.00122911,0.000575248,-0.00193061,-0.687751,0.00151566,0.0148918,1917,827,30.7386,-2.07089
700,197,30.7122,2.53149,-0.000473659,-0.000729216,-0.00133668,0.000741336,-0.00194421,-0.737746,0.00160151,0.0209379,1924,827,30.7121,-2.53152
707,197,30.7332,2.97577,-0.000289646,-0.000216544,-0.00151544,0.00126278,-0.00176897,-0.797455,0.0017585,0.0094501,1931,827,30.7331,-2.97578
714,197,30.7092,3.40479,0.000349731,0.000457282,-0.00149943,0.0019039,-0.00109688,-0.803322,0.00175326,0.0119751,1938,827,30.7092,-3.40479
721,197,30.7158,3.83405,0.00136609,0.00124463,-0.0015578,0.00286435,-0.000253617,-0.765916,0.00199947,0.0126586,1945,827,30.7158,-3.83402
728,197,30.697,4.25934,0.00252435,0.00209781,-0.00164603,0.00397087,0.00065129,-0.720973,0.00245907,0.0112412,1952,827,30.6971,-4.25933
735,197,30.6584,4.69202,0.00409163,0.00253566,-0.0018649,0.00533432,0.00129297,-0.587787,0.00321314,0.0115192,1959,827,30.6585,-4.69204
742,197,30.6702,5.11719,0.00608512,0.0030715,-0.00217694,0.00722586,0.00193075,-0.482673,0.00431996,0.0200242,1966,827,30.6702,-5.11718
749,197,30.7308,5.52899,0.00868296,0.00328373,-0.00251919,0.0096758,0.00229089,-0.37542,0.00583868,0.0457179,1973,827,30.7308,-5.52898
756,197,30.774,5.95947,0,0,0,0,0,0,0,-1,1980,827,30.7741,-5.95946
763,197,30.3898,7.93109,0,0,0,0,0,0,0,-1,1987,827,30.3898,-7.93111
770,197,30.7877,9.19574,0,0,0,0,0,0,0,-1,1994,827,30.7878,-9.19576
777,197,0,0,0,0,0,0,0,0,0,-1,2001,827,0,0
784,197,0,0,0,0,0,0,0,0,0,-1,2008,827,0,0
791,197,0,0,0,0,0,0,0,0,0,-1,2015,827,0,0
798,197,0,0,0,0,0,0,0,0,0,-1,2022,827,0,0
805,197,0,0,0,0,0,0,0,0,0,-1,2029,827,0,0
812,197,0,0,0,0,0,0,0,0,0,-1,2036,827,0,0
-700,190,0,0,0,0,0,0,0,0,0,-1,524,834,0,0
-693,190,0,0,0,0,0,0,0,0,0,-1,531,834,0,0
-686,190,0,0,0,0,0,0,0,0,0,-1,538,834,0,0
-679,190,0,0,0,0,0,0,0,0,0,-1,545,834,0,0
-672,190,0,0,0,0,0,0,0,0,0,-1,552,834,0,0
-665,190,0,0,0,0,0,0,0,0,0,-1,559,834,0,0
-658,190,-24.217,3.86798,0,0,0,0,0,0,0,-1,566,834,-24.2171,-3.86798
-651,190,-24.1994,4.14728,0,0,0,0,0,0,0,-1,573,834,-24.1994,-4.14729
-644,190,-23.5632,4.28741,0.0533573,0.0828189,0.0155396,0.0895001,0.0466761,1.16474,0.0516889,0.0498964,580,834,-23.5632,-4.28742
-637,190,-22.8552,4.86005,0.0452721,0.0671274,0.0104697,0.0713334,0.0410661,1.1888,0.0413414,0.0472458,587,834,-22.8552,-4.86003
-630,190,-20.9982,4.12982,0.0365418,0.0525956,0.00688698,0.0551452,0.0339923,1.21624,0.0321245,0.0473379,594,834,-20.9982,-4.12984
-623,190,-21.2629,3.672,0.0280323,0.0398126,0.00455782,0.0413701,0.0264748,1.24152,0.0241949,0.0464425,601,834,-21.2629,-3.67198
-616,190,-21.7471,2.49609,0.0203431,0.0289543,0.00292858,0.0298559,0.0194415,1.27215,0.017498,0.0439641,608,834,-21.7471,-2.49611
-609,190,-21.7778,2.427,0.0139835,0.0198945,0.00174909,0.0203733,0.0135047,1.30361,0.0119687,0.024406,615,834,-21.7778,-2.42697
-602,190,-21.8018,2.06238,0.00908602,0.0124496,0.000795829,0.0126284,0.00890722,1.3498,0.00749313,0.0157341,622,834,-21.8018,-2.06236
-595,190,-21.8299,1.64789,0.0051111,0.0066023,0.000453359,0.00672932,0.00498408,1.29764,0.00403239,0.0187363,629,834,-21.8299,-1.6479
-588,190,-21.8445,1.2243,0.00169816,0.00318045,0.000578252,0.00337934,0.00149927,1.23952,0.00195519,0.0169957,636,834,-21.8446,-1.2243
-581,190,-21.8394,0.819397,-5.48724e-05,0.000189024,0.000648143,0.000726591,-0.000592439,0.878386,0.000762854,0.0115299,643,834,-21.8393,-0.819401
-574,190,-21.8312,0.395935,-0.000684457,-0.00129907,0.000339969,-0.000533489,-0.00145004,0.417907,0.000846863,0.0101859,650,834,-21.8312,-0.39595
-567,190,-21.8152,-0.0739746,-0.000875567,-0.00116695,-0.000140224,-0.000819049,-0.00122347,-0.38314,0.000719764,0.0171327,657,834,-21.8152,0.0739964
-560,190,-21.8939,-0.45166,-0.00074826,-0.000459394,-0.000163452,-0.000385705,-0.00082195,-1.14725,0.000474852,0.0375077,664,834,-21.8939,0.451681
-553,190,-21.9944,-0.779297,-0.000957927,0.000260478,2.19308e-05,0.000260872,-0.000958322,1.5528,0.0007413,0.0320056,671,834,-21.9944,0.779289
-546,190,-21.9967,-1.21716,0,0,0,0,0,0,0,-1,678,834,-21.9967,1.21714
-539,190,-16.4624,-0.542542,0,0,0,0,0,0,0,-1,685,834,-16.4624,0.542527
-532,190,-21.6292,2.06122,0,0,0,0,0,0,0,-1,692,834,-21.6292,-2.06123
-525,190,-29.0928,1.06805,0,0,0,0,0,0,0,-1,699,834,-29.0928,-1.06808
-518,190,-29.1871,1.01459,-0.00150331,0.00429939,-0.000975766,0.00445908,-0.001663,-1.40858,0.0036554,0.0483637,706,834,-29.1871,-1.01457
-511,190,-29.2398,0.82251,-0.00121065,0.00516539,-0.00127536,0.00541103,-0.00145629,-1.38052,0.00417825,0.0436085,713,834,-29.2398,-0.822504
-504,190,-29.1642,1.21484,-0.000468979,0.00566682,-0.00184599,0.00617938,-0.000981539,-1.29996,0.00448273,0.0425503,720,834,-29.1642,-1.21486
-497,190,-29.4225,1.32855,0.000899506,0.00551684,-0.00267216,0.00673952,-0.000323172,-1.14167,0.00460452,0.0421324,727,834,-29.4225,-1.32854
-490,190,-29.4557,1.05811,0.00339568,0.0044555,-0.00378562,0.00774812,0.000103057,-0.854936,0.00513141,0.0420581,734,834,-29.4557,-1.05813
-483,190,0,0,0,0,0,0,0,0,0,-1,741,834,0,0
-476,190,0,0,0,0,0,0,0,0,0,-1,748,834,0,0
-469,190,0,0,0,0,0,0,0,0,0,-1,755,834,0,0
-462,190,0,0,0,0,0,0,0,0,0,-1,762,834,0,0
-455,190,0,0,0,0,0,0,0,0,0,-1,769,834,0,0
-448,190,0,0,0,0,0,0,0,0,0,-1,776,834,0,0
-441,190,0,0,0,0,0,0,0,0,0,-1,783,834,0,0
-434,190,0,0,0,0,0,0,0,0,0,-1,790,834,0,0
-427,190,0,0,0,0,0,0,0,0,0,-1,797,834,0,0
-420,190,0,0,0,0,0,0,0,0,0,-1,804,834,0,0
-413,190,0,0,0,0,0,0,0,0,0,-1,811,834,0,0
-406,190,0,0,0,0,0,0,0,0,0,-1,818,834,0,0
-399,190,0,0,0,0,0,0,0,0,0,-1,825,834,0,0
-392,190,0,0,0,0,0,0,0,0,0,-1,832,834,0,0
-385,190,0,0,0,0,0,0,0,0,0,-1,839,834,0,0
-378,190,0,0,0,0,0,0,0,0,0,-1,846,834,0,0
-371,190,0,0,0,0,0,0,0,0,0,-1,853,834,0,0
-364,190,0,0,0,0,0,0,0,0,0,-1,860,834,0,0
-357,190,0,0,0,0,0,0,0,0,0,-1,867,834,0,0
-350,190,0,0,0,0,0,0,0,0,0,-1,874,834,0,0
-343,190,0,0,0,0,0,0,0,0,0,-1,881,834,0,0
-336,190,0,0,0,0,0,0,0,0,0,-1,888,834,0,0
-329,190,0,0,0,0,0,0,0,0,0,-1,895,834,0,0
-322,190,0,0,0,0,0,0,0,0,0,-1,902,834,0,0
-315,190,0,0,0,0,0,0,0,0,0,-1,909,834,0,0
-308,190,0,0,0,0,0,0,0,0,0,-1,916,834,0,0
-301,190,0,0,0,0,0,0,0,0,0,-1,923,834,0,0
-294,190,0,0,0,0,0,0,0,0,0,-1,930,834,0,0
-287,190,0,0,0,0,0,0,0,0,0,-1,937,834,0,0
-280,190,0,0,0,0,0,0,0,0,0,-1,944,834,0,0
-273,190,0,0,0,0,0,0,0,0,0,-1,951,834,0,0
-266,190,0,0,0,0,0,0,0,0,0,-1,958,834,0,0
-259,190,0,0,0,0,0,0,0,0,0,-1,965,834,0,0
-252,190,0,0,0,0,0,0,0,0,0,-1,972,834,0,0
-245,190,0,0,0,0,0,0,0,0,0,-1,979,834,0,0
-238,190,0,0,0,0,0,0,0,0,0,-1,986,834,0,0
-231,190,0,0,0,0,0,0,0,0,0,-1,993,834,0,0
-224,190,0,0,0,0,0,0,0,0,0,-1,1000,834,0,0
-217,190,0,0,0,0,0,0,0,0,0,-1,1007,834,0,0
-210,190,0,0,0,0,0,0,0,0,0,-1,1014,834,0,0
-203,190,0,0,0,0,0,0,0,0,0,-1,1021,834,0,0
-196,190,0,0,0,0,0,0,0,0,0,-1,1028,834,0,0
-189,190,0,0,0,0,0,0,0,0,0,-1,1035,834,0,0
-182,190,0,0,0,0,0,0,0,0,0,-1,1042,834,0,0
-175,190,0,0,0,0,0,0,0,0,0,-1,1049,834,0,0
-168,190,0,0,0,0,0,0,0,0,0,-1,1056,834,0,0
-161,190,0,0,0,0,0,0,0,0,0,-1,1063,834,0,0
-154,190,0,0,0,0,0,0,0,0,0,-1,1070,834,0,0
-147,190,0,0,0,0,0,0,0,0,0,-1,1077,834,0,0
-140,190,0,0,0,0,0,0,0,0,0,-1,1084,834,0,0
-133,190,0,0,0,0,0,0,0,0,0,-1,1091,834,0,0
-126,190,0,0,0,0,0,0,0,0,0,-1,1098,834,0,0
-119,190,0,0,0,0,0,0,0,0,0,-1,1105,834,0,0
-112,190,0,0,0,0,0,0,0,0,0,-1,1112,834,0,0
-105,190,0,0,0,0,0,0,0,0,0,-1,1119,834,0,0
-98,190,0,0,0,0,0,0,0,0,0,-1,1126,834,0,0
-91,190,0,0,0,0,0,0,0,0,0,-1,1133,834,0,0
-84,190,0,0,0,0,0,0,0,0,0,-1,1140,834,0,0
-77,190,0,0,0,0,0,0,0,0,0,-1,1147,834,0,0
-70,190,0,0,0,0,0,0,0,0,0,-1,1154,834,0,0
-63,190,0,0,0,0,0,0,0,0,0,-1,1161,834,0,0
-56,190,0,0,0,0,0,0,0,0,0,-1,1168,834,0,0
-49,190,0,0,0,0,0,0,0,0,0,-1,1175,834,0,0
-42,190,0,0,0,0,0,0,0,0,0,-1,1182,834,0,0
-35,190,0,0,0,0,0,0,0,0,0,-1,1189,834,0,0
-28,190,0,0,0,0,0,0,0,0,0,-1,1196,834,0,0
-21,190,0,0,0,0,0,0,0,0,0,-1,1203,834,0,0
-14,190,0,0,0,0,0,0,0,0,0,-1,1210,834,0,0
-7,190,0,0,0,0,0,0,0,0,0,-1,1217,834,0,0
0,190,0,0,0,0,0,0,0,0,0,-1,1224,834,0,0
7,190,0,0,0,0,0,0,0,0,0,-1,1231,834,0,0
14,190,0,0,0,0,0,0,0,0,0,-1,1238,834,0,0
21,190,0,0,0,0,0,0,0,0,0,-1,1245,834,0,0
28,190,0,0,0,0,0,0,0,0,0,-1,1252,834,0,0
35,190,0,0,0,0,0,0,0,0,0,-1,1259,834,0,0
42,190,0,0,0,0,0,0,0,0,0,-1,1266,834,0,0
49,190,0,0,0,0,0,0,0,0,0,-1,1273,834,0,0
56,190,0,0,0,0,0,0,0,0,0,-1,1280,834,0,0
63,190,0,0,0,0,0,0,0,0,0,-1,1287,834,0,0
70,190,0,0,0,0,0,0,0,0,0,-1,1294,834,0,0
77,190,0,0,0,0,0,0,0,0,0,-1,1301,834,0,0
84,190,0,0,0,0,0,0,0,0,0,-1,1308,834,0,0
91,190,0,0,0,0,0,0,0,0,0,-1,1315,834,0,0
98,190,0,0,0,0,0,0,0,0,0,-1,1322,834,0,0
105,190,0,0,0,0,0,0,0,0,0,-1,1329,834,0,0
112,190,0,0,0,0,0,0,0,0,0,-1,1336,834,0,0
119,190,0,0,0,0,0,0,0,0,0,-1,1343,834,0,0
126,190,0,0,0,0,0,0,0,0,0,-1,1350,834,0,0
133,190,0,0,0,0,0,0,0,0,0,-1,1357,834,0,0
140,190,0,0,0,0,0,0,0,0,0,-1,1364,834,0,0
147,190,0,0,0,0,0,0,0,0,0,-1,1371,834,0,0
154,190,0,0,0,0,0,0,0,0,0,-1,1378,834,0,0
161,190,0,0,0,0,0,0,0,0,0,-1,1385,834,0,0
168,190,0,0,0,0,0,0,0,0,0,-1,1392,834,0,0
175,190,0,0,0,0,0,0,0,0,0,-1,1399,834,0,0
182,190,0,0,0,0,0,0,0,0,0,-1,1406,834,0,0
189,190,0,0,0,0,0,0,0,0,0,-1,1413,834,0,0
196,190,0,0,0,0,0,0,0,0,0,-1,1420,834,0,0
203,190,0,0,0,0,0,0,0,0,0,-1,1427,834,0,0
210,190,0,0,0,0,0,0,0,0,0,-1,1434,834,0,0
217,190,0,0,0,0,0,0,0,0,0,-1,1441,834,0,0
224,190,0,0,0,0,0,0,0,0,0,-1,1448,834,0,0
231,190,0,0,0,0,0,0,0,0,0,-1,1455,834,0,0
238,190,0,0,0,0,0,0,0,0,0,-1,1462,834,0,0
245,190,0,0,0,0,0,0,0,0,0,-1,1469,834,0,0
252,190,0,0,0,0,0,0,0,0,0,-1,1476,834,0,0
259,190,0,0,0,0,0,0,0,0,0,-1,1483,834,0,0
266,190,0,0,0,0,0,0,0,0,0,-1,1490,834,0,0
273,190,0,0,0,0,0,0,0,0,0,-1,1497,834,0,0
280,190,0,0,0,0,0,0,0,0,0,-1,1504,834,0,0
287,190,0,0,0,0,0,0,0,0,0,-1,1511,834,0,0
294,190,0,0,0,0,0,0,0,0,0,-1,1518,834,0,0
301,190,0,0,0,0,0,0,0,0,0,-1,1525,834,0,0
308,190,0,0,0,0,0,0,0,0,0,-1,1532,834,0,0
315,190,0,0,0,0,0,0,0,0,0,-1,1539,834,0,0
322,190,0,0,0,0,0,0,0,0,0,-1,1546,834,0,0
329,190,0,0,0,0,0,0,0,0,0,-1,1553,834,0,0
336,190,0,0,0,0,0,0,0,0,0,-1,1560,834,0,0
343,190,0,0,0,0,0,0,0,0,0,-1,1567,834,0,0
350,190,0,0,0,0,0,0,0,0,0,-1,1574,834,0,0
357,190,0,0,0,0,0,0,0,0,0,-1,1581,834,0,0
364,190,0,0,0,0,0,0,0,0,0,-1,1588,834,0,0
371,190,0,0,0,0,0,0,0,0,0,-1,1595,834,0,0
378,190,0,0,0,0,0,0,0,0,0,-1,1602,834,0,0
385,190,0,0,0,0,0,0,0,0,0,-1,1609,834,0,0
392,190,0,0,0,0,0,0,0,0,0,-1,1616,834,0,0
399,190,0,0,0,0,0,0,0,0,0,-1,1623,834,0,0
406,190,0,0,0,0,0,0,0,0,0,-1,1630,834,0,0
413,190,0,0,0,0,0,0,0,0,0,-1,1637,834,0,0
420,190,0,0,0,0,0,0,0,0,0,-1,1644,834,0,0
427,190,0,0,0,0,0,0,0,0,0,-1,1651,834,0,0
434,190,0,0,0,0,0,0,0,0,0,-1,1658,834,0,0
441,190,0,0,0,0,0,0,0,0,0,-1,1665,834,0,0
448,190,0,0,0,0,0,0,0,0,0,-1,1672,834,0,0
455,190,0,0,0,0,0,0,0,0,0,-1,1679,834,0,0
462,190,0,0,0,0,0,0,0,0,0,-1,1686,834,0,0
469,190,0,0,0,0,0,0,0,0,0,-1,1693,834,0,0
476,190,0,0,0,0,0,0,0,0,0,-1,1700,834,0,0
483,190,0,0,0,0,0,0,0,0,0,-1,1707,834,0,0
490,190,0,0,0,0,0,0,0,0,0,-1,1714,834,0,0
497,190,0,0,0,0,0,0,0,0,0,-1,1721,834,0,0
504,190,0,0,0,0,0,0,0,0,0,-1,1728,834,0,0
511,190,0,0,0,0,0,0,0,0,0,-1,1735,834,0,0
518,190,0,0,0,0,0,0,0,0,0,-1,1742,834,0,0
525,190,0,0,0,0,0,0,0,0,0,-1,1749,834,0,0
532,190,0,0,0,0,0,0,0,0,0,-1,1756,834,0,0
539,190,0,0,0,0,0,0,0,0,0,-1,1763,834,0,0
546,190,0,0,0,0,0,0,0,0,0,-1,1770,834,0,0
553,190,0,0,0,0,0,0,0,0,0,-1,1777,834,0,0
560,190,0,0,0,0,0,0,0,0,0,-1,1784,834,0,0
567,190,0,0,0,0,0,0,0,0,0,-1,1791,834,0,0
574,190,0,0,0,0,0,0,0,0,0,-1,1798,834,0,0
581,190,0,0,0,0,0,0,0,0,0,-1,1805,834,0,0
588,190,0,0,0,0,0,0,0,0,0,-1,1812,834,0,0
595,190,0,0,0,0,0,0,0,0,0,-1,1819,834,0,0
602,190,39.6412,2.61023,0.00104527,0.00387392,0.00115323,0.00428449,0.000634702,1.22877,0.00267002,0.0421904,1826,834,39.6412,-2.61022
609,190,39.7889,2.64032,0.00128307,0.00469746,0.00126963,0.00511781,0.000862711,1.25107,0.00316376,0.0389284,1833,834,39.789,-2.64029
616,190,39.9495,2.64673,0.00162861,0.0052039,0.00130583,0.00563004,0.00120246,1.25535,0.00342367,0.0398289,1840,834,39.9495,-2.64674
623,190,40.0081,2.98932,0,0,0,0,0,0,0,-1,1847,834,40.0081,-2.98932
630,190,39.7272,2.61566,0.00167581,0.00500338,0.00103789,0.00530057,0.00137863,1.29192,0.00317554,0.0396191,1854,834,39.7271,-2.61565
637,190,39.7781,2.53949,0.00143724,0.00426091,0.000752403,0.00444888,0.00124927,1.32598,0.00264956,0.0333766,1861,834,39.778,-2.53951
644,190,39.7264,2.61542,0.00111407,0.0033847,0.000468268,0.00347748,0.00102129,1.3752,0.00206391,0.0268428,1868,834,39.7264,-2.61543
651,190,39.8099,2.72955,0.000848957,0.00252599,0.000184041,0.00254595,0.000828997,1.46277,0.00149941,0.0379214,1875,834,39.8099,-2.72955
658,190,39.9225,2.85974,0,0,0,0,0,0,0,-1,1882,834,39.9225,-2.85972
665,190,25.9916,3.05157,0,0,0,0,0,0,0,-1,1889,834,25.9916,-3.05156
672,190,27.2662,1.70862,0,0,0,0,0,0,0,-1,1896,834,27.2662,-1.70861
679,190,31.2528,1.40356,0,0,0,0,0,0,0,-1,1903,834,31.2528,-1.40358
686,190,31.1744,1.73114,-0.00059317,-0.000350846,-0.000904981,0.000441048,-0.00138506,-0.851944,0.00110026,0.0234215,1910,834,31.1745,-1.73113
693,190,31.2113,2.10986,-0.000476265,-0.000779706,-0.00113541,0.000517512,-0.00177348,-0.718978,0.00138738,0.0149228,1917,834,31.2113,-2.10988
700,190,31.1553,2.54639,-0.000560485,-0.000633317,-0.00130198,0.000705592,-0.00189939,-0.771417,0.00155574,0.0116126,1924,834,31.1553,-2.54641
707,190,31.1761,2.98541,-0.000476623,-0.000229768,-0.00153776,0.00118951,-0.0018959,-0.825445,0.00179686,0.0131795,1931,834,31.1762,-2.98539
714,190,31.1721,3.39844,0.000102469,0.000308072,-0.00160339,0.00181195,-0.00140141,-0.817412,0.00186027,0.0121652,1938,834,31.1721,-3.39846
721,190,31.1718,3.8316,0.00111192,0.000952188,-0.00174701,0.00278088,-0.000716781,-0.762557,0.00213337,0.0111337,1945,834,31.1717,-3.83161
728,190,31.1393,4.24207,0.00227341,0.00167462,-0.00188892,0.00388652,6.15194e-05,-0.706801,0.00257075,0.0126734,1952,834,31.1393,-4.24205
735,190,31.1218,4.65436,0.00387521,0.00184686,-0.00217651,0.00526223,0.000459836,-0.567373,0.00336536,0.012232,1959,834,31.1218,-4.65437
742,190,31.0725,5.13446,0.00585267,0.00210594,-0.00251235,0.00711322,0.000845392,-0.465039,0.00448697,0.0159454,1966,834,31.0725,-5.13443
749,190,31.1339,5.55066,0.00840696,0.00192976,-0.00285739,0.00948729,0.000849427,-0.361472,0.00606159,0.0384467,1973,834,31.1339,-5.55067
756,190,31.2153,5.96375,0.0116922,0.00105991,-0.00316842,0.0125648,0.000187335,-0.268736,0.0083148,0.0484673,1980,834,31.2154,-5.96377
763,190,31.264,6.39911,0,0,0,0,0,0,0,-1,1987,834,31.264,-6.39911
770,190,31.3529,9.35065,0,0,0,0,0,0,0,-1,1994,834,31.3529,-9.35065
777,190,32.2881,10.6966,0,0,0,0,0,0,0,-1,2001,834,32.2881,-10.6966
784,190,0,0,0,0,0,0,0,0,0,-1,2008,834,0,0
791,190,0,0,0,0,0,0,0,0,0,-1,2015,834,0,0
798,190,0,0,0,0,0,0,0,0,0,-1,2022,834,0,0
805,190,0,0,0,0,0,0,0,0,0,-1,2029,834,0,0
812,190,0,0,0,0,0,0,0,0,0,-1,2036,834,0,0
-700,183,0,0,0,0,0,0,0,0,0,-1,524,841,0,0
-693,183,0,0,0,0,0,0,0,0,0,-1,531,841,0,0
-686,183,0,0,0,0,0,0,0,0,0,-1,538,841,0,0
-679,183,0,0,0,0,0,0,0,0,0,-1,545,841,0,0
-672,183,0,0,0,0,0,0,0,0,0,-1,552,841,0,0
-665,183,0,0,0,0,0,0,0,0,0,-1,559,841,0,0
-658,183,-24.194,3.23621,0.0693335,0.0976367,0.0407627,0.126634,0.0403358,0.952474,0.0747005,0.0447177,566,841,-24.194,-3.2362
-651,183,-24.2025,3.82489,0,0,0,0,0,0,0,-1,573,841,-24.2025,-3.8249
-644,183,-23.6505,4.24799,0.0549295,0.0709289,0.0215515,0.0859175,0.0399409,0.963112,0.0496453,0.0495601,580,841,-23.6505,-4.24799
-637,183,-22.6239,2.91461,0.0457628,0.0577324,0.0152934,0.0681704,0.0353249,0.971905,0.0393669,0.0499373,587,841,-22.6239,-2.91461
-630,183,-22.5447,2.53601,0.0363112,0.0454402,0.0106929,0.0525021,0.0292492,0.987125,0.0303779,0.0463476,594,841,-22.5447,-2.53599
-623,183,-22.2244,2.42572,0.0274633,0.0345899,0.00744998,0.0392849,0.0227683,1.00847,0.0227767,0.0449302,601,841,-22.2245,-2.4257
-616,183,-22.1548,2.57056,0.0195974,0.0253516,0.0049414,0.0281924,0.0167565,1.04903,0.0163733,0.0374223,608,841,-22.1548,-2.57056
-609,183,-22.2244,2.45764,0.0131783,0.0173765,0.00310948,0.0190291,0.0115257,1.08229,0.011068,0.0165176,615,841,-22.2244,-2.45764
-602,183,-22.239,2.04834,0.00823902,0.0107348,0.00171079,0.0116045,0.00736936,1.1005,0.00678083,0.0112387,622,841,-22.239,-2.04832
-595,183,-22.244,1.61603,0.00431825,0.00555194,0.00101854,0.00612586,0.00374433,1.05767,0.00356582,0.0112487,629,841,-22.2439,-1.61602
-588,183,-22.2394,1.21381,0.00113893,0.00239837,0.000770795,0.00276397,0.000773325,1.1279,0.00164656,0.0118388,636,841,-22.2394,-1.21382
-581,183,-22.268,0.832825,-0.000275113,-0.000170607,0.000627426,0.000406738,-0.000852458,0.826943,0.000742023,0.0125533,643,841,-22.268,-0.832832
-574,183,-22.2493,0.443604,-0.000720015,-0.00134237,0.000136461,-0.000691408,-0.00137097,0.206639,0.000791543,0.0122536,650,841,-22.2493,-0.44362
-567,183,-22.1406,-0.00164795,-0.000810419,-0.00113143,-0.000451797,-0.000491463,-0.00145038,-0.614722,0.000851754,0.0350937,657,841,-22.1406,0.00165617
-560,183,-22.3569,-0.311523,-0.000563428,-0.000450297,-0.000514874,1.1109e-05,-0.00102483,-0.84011,0.000686956,0.041955,664,841,-22.3569,0.311507
-553,183,-22.24,-0.855713,-0.000668306,0.000214572,-0.000333862,0.000326605,-0.00078034,-1.24703,0.000656748,0.0384581,671,841,-22.24,0.855737
-546,183,-21.484,-1.26715,0,0,0,0,0,0,0,-1,678,841,-21.484,1.26714
-539,183,-16.8032,-0.417297,0,0,0,0,0,0,0,-1,685,841,-16.8032,0.41732
-532,183,-28.9525,1.19678,0,0,0,0,0,0,0,-1,692,841,-28.9524,-1.19677
-525,183,-29.0943,1.09827,-0.0010976,0.00335695,-0.000909367,0.00353544,-0.00127609,-1.37698,0.00287821,0.0472791,699,841,-29.0943,-1.09828
-518,183,-29.2545,0.914001,-0.00118016,0.00435772,-0.000968602,0.00452225,-0.00134469,-1.40254,0.00354902,0.0457924,706,841,-29.2544,-0.913974
-511,183,-29.4269,0.572998,-0.000893419,0.00524809,-0.0010609,0.00542619,-0.00107152,-1.40447,0.00402249,0.0411668,713,841,-29.4269,-0.572975
-504,183,-29.1782,1.29376,-0.00014089,0.00564919,-0.00137151,0.00595763,-0.000449332,-1.34958,0.00412969,0.0401563,720,841,-29.1782,-1.29376
-497,183,-29.3347,1.51434,0.00134097,0.00526378,-0.001898,0.00603175,0.000572996,-1.18631,0.00384443,0.0419908,727,841,-29.3347,-1.51434
-490,183,-29.2447,1.24072,0.00412143,0.00378156,-0.00270729,0.00666411,0.00123888,-0.754055,0.00409277,0.0426247,734,841,-29.2447,-1.24072
-483,183,0,0,0,0,0,0,0,0,0,-1,741,841,0,0
-476,183,0,0,0,0,0,0,0,0,0,-1,748,841,0,0
-469,183,0,0,0,0,0,0,0,0,0,-1,755,841,0,0
-462,183,0,0,0,0,0,0,0,0,0,-1,762,841,0,0
-455,183,0,0,0,0,0,0,0,0,0,-1,769,841,0,0
-448,183,0,0,0,0,0,0,0,0,0,-1,776,841,0,0
-441,183,0,0,0,0,0,0,0,0,0,-1,783,841,0,0
-434,183,0,0,0,0,0,0,0,0,0,-1,790,841,0,0
-427,183,0,0,0,0,0,0,0,0,0,-1,797,841,0,0
-420,183,0,0,0,0,0,0,0,0,0,-1,804,841,0,0
-413,183,0,0,0,0,0,0,0,0,0,-1,811,841,0,0
-406,183,0,0,0,0,0,0,0,0,0,-1,818,841,0,0
-399,183,0,0,0,0,0,0,0,0,0,-1,825,841,0,0
-392,183,0,0,0,0,0,0,0,0,0,-1,832,841,0,0
-385,183,0,0,0,0,0,0,0,0,0,-1,839,841,0,0
-378,183,0,0,0,0,0,0,0,0,0,-1,846,841,0,0
-371,183,0,0,0,0,0,0,0,0,0,-1,853,841,0,0
-364,183,0,0,0,0,0,0,0,0,0,-1,860,841,0,0
-357,183,0,0,0,0,0,0,0,0,0,-1,867,841,0,0
-350,183,0,0,0,0,0,0,0,0,0,-1,874,841,0,0
-343,183,0,0,0,0,0,0,0,0,0,-1,881,841,0,0
-336,183,0,0,0,0,0,0,0,0,0,-1,888,841,0,0
-329,183,0,0,0,0,0,0,0,0,0,-1,895,841,0,0
-322,183,0,0,0,0,0,0,0,0,0,-1,902,841,0,0
-315,183,0,0,0,0,0,0,0,0,0,-1,909,841,0,0
-308,183,0,0,0,0,0,0,0,0,0,-1,916,841,0,0
-301,183,0,0,0,0,0,0,0,0,0,-1,923,841,0,0
-294,183,0,0,0,0,0,0,0,0,0,-1,930,841,0,0
-287,183,0,0,0,0,0,0,0,0,0,-1,937,841,0,0
-280,183,0,0,0,0,0,0,0,0,0,-1,944,841,0,0
-273,183,0,0,0,0,0,0,0,0,0,-1,951,841,0,0
-266,183,0,0,0,0,0,0,0,0,0,-1,958,841,0,0
-259,183,0,0,0,0,0,0,0,0,0,-1,965,841,0,0
-252,183,0,0,0,0,0,0,0,0,0,-1,972,841,0,0
-245,183,0,0,0,0,0,0,0,0,0,-1,979,841,0,0
-238,183,0,0,0,0,0,0,0,0,0,-1,986,841,0,0
-231,183,0,0,0,0,0,0,0,0,0,-1,993,841,0,0
-224,183,0,0,0,0,0,0,0,0,0,-1,1000,841,0,0
-217,183,0,0,0,0,0,0,0,0,0,-1,1007,841,0,0
-210,183,0,0,0,0,0,0,0,0,0,-1,1014,841,0,0
-203,183,0,0,0,0,0,0,0,0,0,-1,1021,841,0,0
-196,183,0,0,0,0,0,0,0,0,0,-1,1028,841,0,0
-189,183,0,0,0,0,0,0,0,0,0,-1,1035,841,0,0
-182,183,0,0,0,0,0,0,0,0,0,-1,1042,841,0,0
-175,183,0,0,0,0,0,0,0,0,0,-1,1049,841,0,0
-168,183,0,0,0,0,0,0,0,0,0,-1,1056,841,0,0
-161,183,0,0,0,0,0,0,0,0,0,-1,1063,841,0,0
-154,183,0,0,0,0,0,0,0,0,0,-1,1070,841,0,0
-147,183,0,0,0,0,0,0,0,0,0,-1,1077,841,0,0
-140,183,0,0,0,0,0,0,0,0,0,-1,1084,841,0,0
-133,183,0,0,0,0,0,0,0,0,0,-1,1091,841,0,0
-126,183,0,0,0,0,0,0,0,0,0,-1,1098,841,0,0
-119,183,0,0,0,0,0,0,0,0,0,-1,1105,841,0,0
-112,183,0,0,0,0,0,0,0,0,0,-1,1112,841,0,0
-105,183,0,0,0,0,0,0,0,0,0,-1,1119,841,0,0
-98,183,0,0,0,0,0,0,0,0,0,-1,1126,841,0,0
-91,183,0,0,0,0,0,0,0,0,0,-1,1133,841,0,0
-84,183,0,0,0,0,0,0,0,0,0,-1,1140,841,0,0
-77,183,0,0,0,0,0,0,0,0,0,-1,1147,841,0,0
-70,183,0,0,0,0,0,0,0,0,0,-1,1154,841,0,0
-63,183,0,0,0,0,0,0,0,0,0,-1,1161,841,0,0
-56,183,0,0,0,0,0,0,0,0,0,-1,1168,841,0,0
-49,183,0,0,0,0,0,0,0,0,0,-1,1175,841,0,0
-42,183,0,0,0,0,0,0,0,0,0,-1,1182,841,0,0
-35,183,0,0,0,0,0,0,0,0,0,-1,1189,841,0,0
-28,183,0,0,0,0,0,0,0,0,0,-1,1196,841,0,0
-21,183,0,0,0,0,0,0,0,0,0,-1,1203,841,0,0
-14,183,0,0,0,0,0,0,0,0,0,-1,1210,841,0,0
-7,183,0,0,0,0,0,0,0,0,0,-1,1217,841,0,0
0,183,0,0,0,0,0,0,0,0,0,-1,1224,841,0,0
7,183,0,0,0,0,0,0,0,0,0,-1,1231,841,0,0
14,183,0,0,0,0,0,0,0,0,0,-1,1238,841,0,0
21,183,0,0,0,0,0,0,0,0,0,-1,1245,841,0,0
28,183,0,0,0,0,0,0,0,0,0,-1,1252,841,0,0
35,183,0,0,0,0,0,0,0,0,0,-1,1259,841,0,0
42,183,0,0,0,0,0,0,0,0,0,-1,1266,841,0,0
49,183,0,0,0,0,0,0,0,0,0,-1,1273,841,0,0
56,183,0,0,0,0,0,0,0,0,0,-1,1280,841,0,0
63,183,0,0,0,0,0,0,0,0,0,-1,1287,841,0,0
70,183,0,0,0,0,0,0,0,0,0,-1,1294,841,0,0
77,183,0,0,0,0,0,0,0,0,0,-1,1301,841,0,0
84,183,0,0,0,0,0,0,0,0,0,-1,1308,841,0,0
91,183,0,0,0,0,0,0,0,0,0,-1,1315,841,0,0
98,183,0,0,0,0,0,0,0,0,0,-1,1322,841,0,0
105,183,0,0,0,0,0,0,0,0,0,-1,1329,841,0,0
112,183,0,0,0,0,0,0,0,0,0,-1,1336,841,0,0
119,183,0,0,0,0,0,0,0,0,0,-1,1343,841,0,0
126,183,0,0,0,0,0,0,0,0,0,-1,1350,841,0,0
133,183,0,0,0,0,0,0,0,0,0,-1,1357,841,0,0
140,183,0,0,0,0,0,0,0,0,0,-1,1364,841,0,0
147,183,0,0,0,0,0,0,0,0,0,-1,1371,841,0,0
154,183,0,0,0,0,0,0,0,0,0,-1,1378,841,0,0
161,183,0,0,0,0,0,0,0,0,0,-1,1385,841,0,0
168,183,0,0,0,0,0,0,0,0,0,-1,1392,841,0,0
175,183,0,0,0,0,0,0,0,0,0,-1,1399,841,0,0
182,183,0,0,0,0,0,0,0,0,0,-1,1406,841,0,0
189,183,0,0,0,0,0,0,0,0,0,-1,1413,841,0,0
196,183,0,0,0,0,0,0,0,0,0,-1,1420,841,0,0
203,183,0,0,0,0,0,0,0,0,0,-1,1427,841,0,0
210,183,0,0,0,0,0,0,0,0,0,-1,1434,841,0,0
217,183,0,0,0,0,0,0,0,0,0,-1,1441,841,0,0
224,183,0,0,0,0,0,0,0,0,0,-1,1448,841,0,0
231,183,0,0,0,0,0,0,0,0,0,-1,1455,841,0,0
238,183,0,0,0,0,0,0,0,0,0,-1,1462,841,0,0
245,183,0,0,0,0,0,0,0,0,0,-1,1469,841,0,0
252,183,0,0,0,0,0,0,0,0,0,-1,1476,841,0,0
259,183,0,0,0,0,0,0,0,0,0,-1,1483,841,0,0
266,183,0,0,0,0,0,0,0,0,0,-1,1490,841,0,0
273,183,0,0,0,0,0,0,0,0,0,-1,1497,841,0,0
280,183,0,0,0,0,0,0,0,0,0,-1,1504,841,0,0
287,183,0,0,0,0,0,0,0,0,0,-1,1511,841,0,0
294,183,0,0,0,0,0,0,0,0,0,-1,1518,841,0,0
301,183,0,0,0,0,0,0,0,0,0,-1,1525,841,0,0
308,183,0,0,0,0,0,0,0,0,0,-1,1532,841,0,0
315,183,0,0,0,0,0,0,0,0,0,-1,1539,841,0,0
322,183,0,0,0,0,0,0,0,0,0,-1,1546,841,0,0
329,183,0,0,0,0,0,0,0,0,0,-1,1553,841,0,0
336,183,0,0,0,0,0,0,0,0,0,-1,1560,841,0,0
343,183,0,0,0,0,0,0,0,0,0,-1,1567,841,0,0
350,183,0,0,0,0,0,0,0,0,0,-1,1574,841,0,0
357,183,0,0,0,0,0,0,0,0,0,-1,1581,841,0,0
364,183,0,0,0,0,0,0,0,0,0,-1,1588,841,0,0
371,183,0,0,0,0,0,0,0,0,0,-1,1595,841,0,0
378,183,0,0,0,0,0,0,0,0,0,-1,1602,841,0,0
385,183,0,0,0,0,0,0,0,0,0,-1,1609,841,0,0
392,183,0,0,0,0,0,0,0,0,0,-1,1616,841,0,0
399,183,0,0,0,0,0,0,0,0,0,-1,1623,841,0,0
406,183,0,0,0,0,0,0,0,0,0,-1,1630,841,0,0
413,183,0,0,0,0,0,0,0,0,0,-1,1637,841,0,0
420,183,0,0,0,0,0,0,0,0,0,-1,1644,841,0,0
427,183,0,0,0,0,0,0,0,0,0,-1,1651,841,0,0
434,183,0,0,0,0,0,0,0,0,0,-1,1658,841,0,0
441,183,0,0,0,0,0,0,0,0,0,-1,1665,841,0,0
448,183,0,0,0,0,0,0,0,0,0,-1,1672,841,0,0
455,183,0,0,0,0,0,0,0,0,0,-1,1679,841,0,0
462,183,0,0,0,0,0,0,0,0,0,-1,1686,841,0,0
469,183,0,0,0,0,0,0,0,0,0,-1,1693,841,0,0
476,183,0,0,0,0,0,0,0,0,0,-1,1700,841,0,0
483,183,0,0,0,0,0,0,0,0,0,-1,1707,841,0,0
490,183,0,0,0,0,0,0,0,0,0,-1,1714,841,0,0
497,183,0,0,0,0,0,0,0,0,0,-1,1721,841,0,0
504,183,0,0,0,0,0,0,0,0,0,-1,1728,841,0,0
511,183,0,0,0,0,0,0,0,0,0,-1,1735,841,0,0
518,183,0,0,0,0,0,0,0,0,0,-1,1742,841,0,0
525,183,0,0,0,0,0,0,0,0,0,-1,1749,841,0,0
532,183,0,0,0,0,0,0,0,0,0,-1,1756,841,0,0
539,183,0,0,0,0,0,0,0,0,0,-1,1763,841,0,0
546,183,0,0,0,0,0,0,0,0,0,-1,1770,841,0,0
553,183,0,0,0,0,0,0,0,0,0,-1,1777,841,0,0
560,183,0,0,0,0,0,0,0,0,0,-1,1784,841,0,0
567,183,0,0,0,0,0,0,0,0,0,-1,1791,841,0,0
574,183,0,0,0,0,0,0,0,0,0,-1,1798,841,0,0
581,183,0,0,0,0,0,0,0,0,0,-1,1805,841,0,0
588,183,0,0,0,0,0,0,0,0,0,-1,1812,841,0,0
595,183,0,0,0,0,0,0,0,0,0,-1,1819,841,0,0
602,183,0,0,0,0,0,0,0,0,0,-1,1826,841,0,0
609,183,39.7898,2.63293,0.00104417,0.00365358,0.00035965,0.00370224,0.00099551,1.43631,0.00221229,0.0404811,1833,841,39.7898,-2.63296
616,183,39.7888,2.60889,0.00144436,0.00420815,0.000639391,0.0043489,0.00130361,1.35412,0.00257709,0.0397361,1840,841,39.7888,-2.60891
623,183,39.7704,2.68756,0.00161557,0.00450402,0.000874989,0.0047484,0.00137119,1.29844,0.00282186,0.0452075,1847,841,39.7704,-2.68754
630,183,39.9838,2.62811,0.00159119,0.00437749,0.000926819,0.00465762,0.00131106,1.27728,0.00277336,0.0422754,1854,841,39.9838,-2.62814
637,183,39.856,2.5191,0.00137308,0.00380665,0.000794588,0.00404311,0.00113661,1.28155,0.00240769,0.0330036,1861,841,39.8559,-2.51911
644,183,39.6538,2.58716,0.00106507,0.0030144,0.000577308,0.00317255,0.000906924,1.30342,0.00188683,0.0263266,1868,841,39.6538,-2.58716
651,183,39.7,2.6452,0.000759836,0.0022245,0.000306183,0.00228593,0.000698406,1.37279,0.00135265,0.0236225,1875,841,39.7,-2.64519
658,183,39.8679,2.68823,0,0,0,0,0,0,0,-1,1882,841,39.8679,-2.68822
665,183,38.4337,2.66992,0,0,0,0,0,0,0,-1,1889,841,38.4337,-2.6699
672,183,29.168,1.54572,0,0,0,0,0,0,0,-1,1896,841,29.168,-1.54574
679,183,31.7889,1.42059,0,0,0,0,0,0,0,-1,1903,841,31.7889,-1.4206
686,183,31.7169,1.76404,-0.000662295,-0.000305819,-0.000767803,0.000304163,-0.00127228,-0.899448,0.000965674,0.0244714,1910,841,31.7169,-1.76403
693,183,31.7103,2.15094,-0.000548391,-0.000628353,-0.00102992,0.000442328,-0.00161907,-0.765998,0.00125312,0.0203733,1917,841,31.7103,-2.15091
700,183,31.6375,2.58136,-0.000648198,-0.000500073,-0.0012417,0.000669774,-0.00181804,-0.815186,0.00148647,0.0182046,1924,841,31.6374,-2.58134
707,183,31.5981,2.99969,-0.00061171,-0.000181648,-0.0015023,0.00112093,-0.00191429,-0.856483,0.00177222,0.011929,1931,841,31.5981,-2.99968
714,183,31.6168,3.41431,-4.30524e-05,0.000238353,-0.00158965,0.00169352,-0.00149821,-0.829539,0.0018439,0.0149995,1938,841,31.6168,-3.41433
721,183,31.6066,3.81567,0.0010104,0.000730699,-0.00173911,0.00261527,-0.000874179,-0.745278,0.00209656,0.0142181,1945,841,31.6066,-3.81569
728,183,31.5699,4.23096,0.00222613,0.00130877,-0.00185133,0.00367475,-0.000139852,-0.663965,0.00249776,0.0121821,1952,841,31.5699,-4.23097
735,183,31.558,4.65985,0.00390561,0.00123444,-0.00211036,0.0050675,7.2544e-05,-0.503279,0.00335441,0.0118577,1959,841,31.5579,-4.65987
742,183,31.5311,5.12653,0.00589501,0.00125401,-0.00236513,0.0068879,0.000261119,-0.397461,0.00450741,0.0113652,1966,841,31.5312,-5.12652
749,183,31.4305,5.60706,0.00840313,0.000763711,-0.00259367,0.00920049,-3.36468e-05,-0.298254,0.00614491,0.0319928,1973,841,31.4306,-5.60703
756,183,31.6547,5.70807,0.0114604,-0.00047656,-0.00279384,0.012082,-0.00109809,-0.218901,0.00844451,0.0467754,1980,841,31.6547,-5.70809
763,183,31.8474,6.04156,0,0,0,0,0,0,0,-1,1987,841,31.8474,-6.04158
770,183,31.9364,9.4939,0,0,0,0,0,0,0,-1,1994,841,31.9364,-9.4939
777,183,33.889,3.42047,0,0,0,0,0,0,0,-1,2001,841,33.889,-3.42046
784,183,0,0,0,0,0,0,0,0,0,-1,2008,841,0,0
791,183,0,0,0,0,0,0,0,0,0,-1,2015,841,0,0
798,183,0,0,0,0,0,0,0,0,0,-1,2022,841,0,0
805,183,0,0,0,0,0,0,0,0,0,-1,2029,841,0,0
812,183,0,0,0,0,0,0,0,0,0,-1,2036,841,0,0
-700,176,0,0,0,0,0,0,0,0,0,-1,524,848,0,0
-693,176,0,0,0,0,0,0,0,0,0,-1,531,848,0,0
-686,176,0,0,0,0,0,0,0,0,0,-1,538,848,0,0
-679,176,0,0,0,0,0,0,0,0,0,-1,545,848,0,0
-672,176,0,0,0,0,0,0,0,0,0,-1,552,848,0,0
-665,176,-24.4048,2.12152,0.0770526,0.0939891,0.0647381,0.15081,0.0202313,0.850433,0.094521,0.0462475,559,848,-24.4048,-2.12151
-658,176,-24.2412,2.70795,0.0744352,0.083187,0.0503157,0.129317,0.0283054,0.828774,0.078496,0.0470048,566,848,-24.2412,-2.70795
-651,176,-24.0686,4.0968,0,0,0,0,0,0,0,-1,573,848,-24.0686,-4.09682
-644,176,-23.6285,4.04272,0.0578232,0.0596606,0.029073,0.0878294,0.0296544,0.801193,0.0515918,0.0460695,580,848,-23.6285,-4.04271
-637,176,-23.39,3.75159,0.0477164,0.0484159,0.0214406,0.0695096,0.0266227,0.793553,0.0404959,0.0482465,587,848,-23.39,-3.7516
-630,176,-22.5561,3.70782,0,0,0,0,0,0,0,-1,594,848,-22.5561,-3.7078
-623,176,-22.5555,3.11163,0.0281362,0.0289124,0.0110841,0.0396152,0.0174334,0.802899,0.0229266,0.0407877,601,848,-22.5555,-3.11165
-616,176,-22.5865,2.81323,0.0198798,0.0211147,0.007535,0.0280575,0.012937,0.826277,0.0162153,0.0267491,608,848,-22.5865,-2.81326
-609,176,-22.649,2.46667,0.0131428,0.0142078,0.00483832,0.0185429,0.0088078,0.840206,0.0107102,0.0117965,615,848,-22.649,-2.46667
-602,176,-22.663,2.03668,0.00792817,0.0084206,0.00283654,0.0110216,0.00532717,0.82869,0.0063645,0.0129607,622,848,-22.663,-2.0367
-595,176,-22.6664,1.60754,0.00393898,0.00403462,0.00171862,0.00570609,0.00226752,0.799306,0.00331746,0.0121345,629,848,-22.6664,-1.60754
-588,176,-22.6503,1.21381,0.000864539,0.00130506,0.000999646,0.00210842,6.11733e-05,0.893834,0.00138567,0.0125054,636,848,-22.6503,-1.21379
-581,176,-22.6794,0.852356,-0.000349199,-0.000671905,0.000577013,8.85958e-05,-0.0011097,0.649063,0.000771031,0.0121482,643,848,-22.6794,-0.852349
-574,176,-22.6955,0.450012,-0.000666048,-0.001464,-9.1075e-05,-0.000655785,-0.00147426,-0.112214,0.000852891,0.0173738,650,848,-22.6955,-0.450039
-567,176,-22.5716,0.184937,-0.000650481,-0.00121792,-0.000746327,-0.000135765,-0.00173264,-0.603756,0.0011126,0.0441864,657,848,-22.5716,-0.184911
-560,176,-22.7653,-0.281921,-0.000290338,-0.000613969,-0.000827606,0.000391123,-0.00129543,-0.688855,0.00101932,0.0339786,664,848,-22.7652,0.281903
-553,176,-22.746,-0.765381,0,0,0,0,0,0,0,-1,671,848,-22.746,0.765364
-546,176,-16.657,-0.403198,0,0,0,0,0,0,0,-1,678,848,-16.657,0.403182
-539,176,-22.7061,1.48657,0,0,0,0,0,0,0,-1,685,848,-22.7061,-1.48657
-532,176,-29.2078,0.909241,0,0,0,0,0,0,0,-1,692,848,-29.2078,-0.90922
-525,176,-29.1328,1.0365,0,0,0,0,0,0,0,-1,699,848,-29.1328,-1.03647
-518,176,-29.2386,0.856201,0,0,0,0,0,0,0,-1,706,848,-29.2386,-0.856207
-511,176,-29.2596,0.672546,-0.000283632,0.00501701,-0.000775446,0.00512812,-0.000394745,-1.42848,0.00355764,0.0387051,713,848,-29.2596,-0.672543
-504,176,-29.1786,0.976013,0.000503155,0.00522706,-0.000722977,0.00533523,0.000394983,-1.42228,0.00343274,0.0397607,720,848,-29.1787,-0.976013
-497,176,-29.2925,1.2923,0.0020956,0.00456548,-0.000783206,0.0047929,0.00186818,-1.2882,0.0027895,0.0406697,727,848,-29.2925,-1.29229
-490,176,-29.2852,1.11945,0.00502866,0.0027968,-0.00107119,0.00545958,0.00236588,-0.382473,0.00316141,0.0398651,734,848,-29.2851,-1.11942
-483,176,0,0,0,0,0,0,0,0,0,-1,741,848,0,0
-476,176,0,0,0,0,0,0,0,0,0,-1,748,848,0,0
-469,176,0,0,0,0,0,0,0,0,0,-1,755,848,0,0
-462,176,0,0,0,0,0,0,0,0,0,-1,762,848,0,0
-455,176,0,0,0,0,0,0,0,0,0,-1,769,848,0,0
-448,176,0,0,0,0,0,0,0,0,0,-1,776,848,0,0
-441,176,0,0,0,0,0,0,0,0,0,-1,783,848,0,0
-434,176,0,0,0,0,0,0,0,0,0,-1,790,848,0,0
-427,176,0,0,0,0,0,0,0,0,0,-1,797,848,0,0
-420,176,0,0,0,0,0,0,0,0,0,-1,804,848,0,0
-413,176,0,0,0,0,0,0,0,0,0,-1,811,848,0,0
-406,176,0,0,0,0,0,0,0,0,0,-1,818,848,0,0
-399,176,0,0,0,0,0,0,0,0,0,-1,825,848,0,0
-392,176,0,0,0,0,0,0,0,0,0,-1,832,848,0,0
-385,176,0,0,0,0,0,0,0,0,0,-1,839,848,0,0
-378,176,0,0,0,0,0,0,0,0,0,-1,846,848,0,0
-371,176,0,0,0,0,0,0,0,0,0,-1,853,848,0,0
-364,176,0,0,0,0,0,0,0,0,0,-1,860,848,0,0
-357,176,0,0,0,0,0,0,0,0,0,-1,867,848,0,0
-350,176,0,0,0,0,0,0,0,0,0,-1,874,848,0,0
-343,176,0,0,0,0,0,0,0,0,0,-1,881,848,0,0
-336,176,0,0,0,0,0,0,0,0,0,-1,888,848,0,0
-329,176,0,0,0,0,0,0,0,0,0,-1,895,848,0,0
-322,176,0,0,0,0,0,0,0,0,0,-1,902,848,0,0
-315,176,0,0,0,0,0,0,0,0,0,-1,909,848,0,0
-308,176,0,0,0,0,0,0,0,0,0,-1,916,848,0,0
-301,176,0,0,0,0,0,0,0,0,0,-1,923,848,0,0
-294,176,0,0,0,0,0,0,0,0,0,-1,930,848,0,0
-287,176,0,0,0,0,0,0,0,0,0,-1,937,848,0,0
-280,176,0,0,0,0,0,0,0,0,0,-1,944,848,0,0
-273,176,0,0,0,0,0,0,0,0,0,-1,951,848,0,0
-266,176,0,0,0,0,0,0,0,0,0,-1,958,848,0,0
-259,176,0,0,0,0,0,0,0,0,0,-1,965,848,0,0
-252,176,0,0,0,0,0,0,0,0,0,-1,972,848,0,0
-245,176,0,0,0,0,0,0,0,0,0,-1,979,848,0,0
-238,176,0,0,0,0,0,0,0,0,0,-1,986,848,0,0
-231,176,0,0,0,0,0,0,0,0,0,-1,993,848,0,0
-224,176,0,0,0,0,0,0,0,0,0,-1,1000,848,0,0
-217,176,0,0,0,0,0,0,0,0,0,-1,1007,848,0,0
-210,176,0,0,0,0,0,0,0,0,0,-1,1014,848,0,0
-203,176,0,0,0,0,0,0,0,0,0,-1,1021,848,0,0
-196,176,0,0,0,0,0,0,0,0,0,-1,1028,848,0,0
-189,176,0,0,0,0,0,0,0,0,0,-1,1035,848,0,0
-182,176,0,0,0,0,0,0,0,0,0,-1,1042,848,0,0
-175,176,0,0,0,0,0,0,0,0,0,-1,1049,848,0,0
-168,176,0,0,0,0,0,0,0,0,0,-1,1056,848,0,0
-161,176,0,0,0,0,0,0,0,0,0,-1,1063,848,0,0
-154,176,0,0,0,0,0,0,0,0,0,-1,1070,848,0,0
-147,176,0,0,0,0,0,0,0,0,0,-1,1077,848,0,0
-140,176,0,0,0,0,0,0,0,0,0,-1,1084,848,0,0
-133,176,0,0,0,0,0,0,0,0,0,-1,1091,848,0,0
-126,176,0,0,0,0,0,0,0,0,0,-1,1098,848,0,0
-119,176,0,0,0,0,0,0,0,0,0,-1,1105,848,0,0
-112,176,0,0,0,0,0,0,0,0,0,-1,1112,848,0,0
-105,176,0,0,0,0,0,0,0,0,0,-1,1119,848,0,0
-98,176,0,0,0,0,0,0,0,0,0,-1,1126,848,0,0
-91,176,0,0,0,0,0,0,0,0,0,-1,1133,848,0,0
-84,176,0,0,0,0,0,0,0,0,0,-1,1140,848,0,0
-77,176,0,0,0,0,0,0,0,0,0,-1,1147,848,0,0
-70,176,0,0,0,0,0,0,0,0,0,-1,1154,848,0,0
-63,176,0,0,0,0,0,0,0,0,0,-1,1161,848,0,0
-56,176,0,0,0,0,0,0,0,0,0,-1,1168,848,0,0
-49,176,0,0,0,0,0,0,0,0,0,-1,1175,848,0,0
-42,176,0,0,0,0,0,0,0,0,0,-1,1182,848,0,0
-35,176,0,0,0,0,0,0,0,0,0,-1,1189,848,0,0
-28,176,0,0,0,0,0,0,0,0,0,-1,1196,848,0,0
-21,176,0,0,0,0,0,0,0,0,0,-1,1203,848,0,0
-14,176,0,0,0,0,0,0,0,0,0,-1,1210,848,0,0
-7,176,0,0,0,0,0,0,0,0,0,-1,1217,848,0,0
0,176,0,0,0,0,0,0,0,0,0,-1,1224,848,0,0
7,176,0,0,0,0,0,0,0,0,0,-1,1231,848,0,0
14,176,0,0,0,0,0,0,0,0,0,-1,1238,848,0,0
21,176,0,0,0,0,0,0,0,0,0,-1,1245,848,0,0
28,176,0,0,0,0,0,0,0,0,0,-1,1252,848,0,0
35,176,0,0,0,0,0,0,0,0,0,-1,1259,848,0,0
42,176,0,0,0,0,0,0,0,0,0,-1,1266,848,0,0
49,176,0,0,0,0,0,0,0,0,0,-1,1273,848,0,0
56,176,0,0,0,0,0,0,0,0,0,-1,1280,848,0,0
63,176,0,0,0,0,0,0,0,0,0,-1,1287,848,0,0
70,176,0,0,0,0,0,0,0,0,0,-1,1294,848,0,0
77,176,0,0,0,0,0,0,0,0,0,-1,1301,848,0,0
84,176,0,0,0,0,0,0,0,0,0,-1,1308,848,0,0
91,176,0,0,0,0,0,0,0,0,0,-1,1315,848,0,0
98,176,0,0,0,0,0,0,0,0,0,-1,1322,848,0,0
105,176,0,0,0,0,0,0,0,0,0,-1,1329,848,0,0
112,176,0,0,0,0,0,0,0,0,0,-1,1336,848,0,0
119,176,0,0,0,0,0,0,0,0,0,-1,1343,848,0,0
126,176,0,0,0,0,0,0,0,0,0,-1,1350,848,0,0
133,176,0,0,0,0,0,0,0,0,0,-1,1357,848,0,0
140,176,0,0,0,0,0,0,0,0,0,-1,1364,848,0,0
147,176,0,0,0,0,0,0,0,0,0,-1,1371,848,0,0
154,176,0,0,0,0,0,0,0,0,0,-1,1378,848,0,0
161,176,0,0,0,0,0,0,0,0,0,-1,1385,848,0,0
168,176,0,0,0,0,0,0,0,0,0,-1,1392,848,0,0
175,176,0,0,0,0,0,0,0,0,0,-1,1399,848,0,0
182,176,0,0,0,0,0,0,0,0,0,-1,1406,848,0,0
189,176,0,0,0,0,0,0,0,0,0,-1,1413,848,0,0
196,176,0,0,0,0,0,0,0,0,0,-1,1420,848,0,0
203,176,0,0,0,0,0,0,0,0,0,-1,1427,848,0,0
210,176,0,0,0,0,0,0,0,0,0,-1,1434,848,0,0
217,176,0,0,0,0,0,0,0,0,0,-1,1441,848,0,0
224,176,0,0,0,0,0,0,0,0,0,-1,1448,848,0,0
231,176,0,0,0,0,0,0,0,0,0,-1,1455,848,0,0
238,176,0,0,0,0,0,0,0,0,0,-1,1462,848,0,0
245,176,0,0,0,0,0,0,0,0,0,-1,1469,848,0,0
252,176,0,0,0,0,0,0,0,0,0,-1,1476,848,0,0
259,176,0,0,0,0,0,0,0,0,0,-1,1483,848,0,0
266,176,0,0,0,0,0,0,0,0,0,-1,1490,848,0,0
273,176,0,0,0,0,0,0,0,0,0,-1,1497,848,0,0
280,176,0,0,0,0,0,0,0,0,0,-1,1504,848,0,0
287,176,0,0,0,0,0,0,0,0,0,-1,1511,848,0,0
294,176,0,0,0,0,0,0,0,0,0,-1,1518,848,0,0
301,176,0,0,0,0,0,0,0,0,0,-1,1525,848,0,0
308,176,0,0,0,0,0,0,0,0,0,-1,1532,848,0,0
315,176,0,0,0,0,0,0,0,0,0,-1,1539,848,0,0
322,176,0,0,0,0,0,0,0,0,0,-1,1546,848,0,0
329,176,0,0,0,0,0,0,0,0,0,-1,1553,848,0,0
336,176,0,0,0,0,0,0,0,0,0,-1,1560,848,0,0
343,176,0,0,0,0,0,0,0,0,0,-1,1567,848,0,0
350,176,0,0,0,0,0,0,0,0,0,-1,1574,848,0,0
357,176,0,0,0,0,0,0,0,0,0,-1,1581,848,0,0
364,176,0,0,0,0,0,0,0,0,0,-1,1588,848,0,0
371,176,0,0,0,0,0,0,0,0,0,-1,1595,848,0,0
378,176,0,0,0,0,0,0,0,0,0,-1,1602,848,0,0
385,176,0,0,0,0,0,0,0,0,0,-1,1609,848,0,0
392,176,0,0,0,0,0,0,0,0,0,-1,1616,848,0,0
399,176,0,0,0,0,0,0,0,0,0,-1,1623,848,0,0
406,176,0,0,0,0,0,0,0,0,0,-1,1630,848,0,0
413,176,0,0,0,0,0,0,0,0,0,-1,1637,848,0,0
420,176,0,0,0,0,0,0,0,0,0,-1,1644,848,0,0
427,176,0,0,0,0,0,0,0,0,0,-1,1651,848,0,0
434,176,0,0,0,0,0,0,0,0,0,-1,1658,848,0,0
441,176,0,0,0,0,0,0,0,0,0,-1,1665,848,0,0
448,176,0,0,0,0,0,0,0,0,0,-1,1672,848,0,0
455,176,0,0,0,0,0,0,0,0,0,-1,1679,848,0,0
462,176,0,0,0,0,0,0,0,0,0,-1,1686,848,0,0
469,176,0,0,0,0,0,0,0,0,0,-1,1693,848,0,0
476,176,0,0,0,0,0,0,0,0,0,-1,1700,848,0,0
483,176,0,0,0,0,0,0,0,0,0,-1,1707,848,0,0
490,176,0,0,0,0,0,0,0,0,0,-1,1714,848,0,0
497,176,0,0,0,0,0,0,0,0,0,-1,1721,848,0,0
504,176,0,0,0,0,0,0,0,0,0,-1,1728,848,0,0
511,176,0,0,0,0,0,0,0,0,0,-1,1735,848,0,0
518,176,0,0,0,0,0,0,0,0,0,-1,1742,848,0,0
525,176,0,0,0,0,0,0,0,0,0,-1,1749,848,0,0
532,176,0,0,0,0,0,0,0,0,0,-1,1756,848,0,0
539,176,0,0,0,0,0,0,0,0,0,-1,1763,848,0,0
546,176,0,0,0,0,0,0,0,0,0,-1,1770,848,0,0
553,176,0,0,0,0,0,0,0,0,0,-1,1777,848,0,0
560,176,0,0,0,0,0,0,0,0,0,-1,1784,848,0,0
567,176,0,0,0,0,0,0,0,0,0,-1,1791,848,0,0
574,176,0,0,0,0,0,0,0,0,0,-1,1798,848,0,0
581,176,0,0,0,0,0,0,0,0,0,-1,1805,848,0,0
588,176,0,0,0,0,0,0,0,0,0,-1,1812,848,0,0
595,176,0,0,0,0,0,0,0,0,0,-1,1819,848,0,0
602,176,0,0,0,0,0,0,0,0,0,-1,1826,848,0,0
609,176,39.6766,2.74084,0.00104968,0.00242904,-0.000644516,0.00268332,0.000795399,-1.19502,0.00159144,0.0399677,1833,848,39.6767,-2.74087
616,176,39.4792,2.44617,0.00134361,0.00287115,-0.000258737,0.00291378,0.00130097,-1.40748,0.00168548,0.0382401,1840,848,39.4792,-2.44617
623,176,39.6372,2.24689,0.00150072,0.0032434,0.000201661,0.00326643,0.00147769,1.45708,0.00188872,0.0452195,1847,848,39.6372,-2.2469
630,176,40.0679,2.4881,0.00152716,0.00328579,0.000495885,0.00341598,0.00139697,1.31405,0.00198309,0.0431785,1854,848,40.0678,-2.48812
637,176,39.7743,2.57251,0.00139471,0.00297264,0.000585582,0.00316621,0.00120114,1.25155,0.00184566,0.0316315,1861,848,39.7743,-2.57249
644,176,39.5802,2.61499,0.00115137,0.00235476,0.000498112,0.00253419,0.000971941,1.22505,0.00147628,0.0300497,1868,848,39.5802,-2.61496
651,176,39.661,2.61694,0.000871739,0.00168554,0.00029093,0.00177885,0.000778431,1.26044,0.00102968,0.0304394,1875,848,39.6611,-2.61695
658,176,39.7592,2.60199,0.000610464,0.00116902,3.32805e-05,0.001171,0.000608488,1.51149,0.000676249,0.038815,1882,848,39.7591,-2.60199
665,176,39.7979,2.62878,0,0,0,0,0,0,0,-1,1889,848,39.7979,-2.6288
672,176,16.9304,2.80719,0,0,0,0,0,0,0,-1,1896,848,16.9305,-2.80719
679,176,32.438,1.40344,0,0,0,0,0,0,0,-1,1903,848,32.438,-1.40342
686,176,32.3081,1.84442,-0.000347998,-0.000400886,-0.00061161,0.000237739,-0.000986623,-0.763793,0.000749668,0.0349583,1910,848,32.3081,-1.84445
693,176,32.1671,2.2489,-0.00022584,-0.000626714,-0.000884819,0.000480961,-0.00133351,-0.674014,0.00108545,0.0184187,1917,848,32.1671,-2.24893
700,176,32.0442,2.65704,-0.000318079,-0.000552582,-0.00112022,0.000691012,-0.00156167,-0.733254,0.00133258,0.020249,1924,848,32.0442,-2.65702
707,176,32.056,3.04541,-0.000330951,-0.000311886,-0.00138445,0.00106307,-0.00170591,-0.788841,0.00161296,0.0139373,1931,848,32.0561,-3.04539
714,176,32.0515,3.42438,9.03499e-05,4.92972e-05,-0.00148208,0.00155204,-0.0014124,-0.778474,0.00171215,0.0116246,1938,848,32.0515,-3.4244
721,176,32.0319,3.81812,0.000994108,0.00047636,-0.00161704,0.00237286,-0.000902394,-0.706026,0.00195346,0.0119379,1945,848,32.0319,-3.81809
728,176,31.9971,4.24969,0.00207186,0.000985711,-0.00168033,0.00329469,-0.000237119,-0.629098,0.00227962,0.014994,1952,848,31.9971,-4.24972
735,176,31.9797,4.69,0.00366461,0.00077349,-0.00187608,0.00458744,-0.000149348,-0.457145,0.00310927,0.013899,1959,848,31.9797,-4.68998
742,176,31.9706,5.10895,0.00554164,0.000645571,-0.00202781,0.00627242,-8.52109e-05,-0.345892,0.00421031,0.0166505,1966,848,31.9705,-5.10897
749,176,31.9545,5.44659,0.00789184,-3.28119e-05,-0.00211252,0.00841981,-0.000560783,-0.244908,0.00580917,0.0293448,1973,848,31.9545,-5.44659
756,176,32.1932,5.45605,0.0107545,-0.0015181,-0.00211332,0.0111082,-0.00187181,-0.165836,0.00810183,0.0472902,1980,848,32.1932,-5.45605
763,176,32.4862,5.60339,0,0,0,0,0,0,0,-1,1987,848,32.4862,-5.60342
770,176,32.9862,4.45642,0,0,0,0,0,0,0,-1,1994,848,32.9862,-4.45643
777,176,33.6156,3.6582,0,0,0,0,0,0,0,-1,2001,848,33.6156,-3.65823
784,176,0,0,0,0,0,0,0,0,0,-1,2008,848,0,0
791,176,0,0,0,0,0,0,0,0,0,-1,2015,848,0,0
798,176,0,0,0,0,0,0,0,0,0,-1,2022,848,0,0
805,176,0,0,0,0,0,0,0,0,0,-1,2029,848,0,0
812,176,0,0,0,0,0,0,0,0,0,-1,2036,848,0,0
-700,169,0,0,0,0,0,0,0,0,0,-1,524,855,0,0
-693,169,0,0,0,0,0,0,0,0,0,-1,531,855,0,0
-686,169,0,0,0,0,0,0,0,0,0,-1,538,855,0,0
-679,169,0,0,0,0,0,0,0,0,0,-1,545,855,0,0
-672,169,0,0,0,0,0,0,0,0,0,-1,552,855,0,0
-665,169,-24.5069,1.46564,0,0,0,0,0,0,0,-1,559,855,-24.5069,-1.46561
-658,169,-24.5338,2.41614,0,0,0,0,0,0,0,-1,566,855,-24.5338,-2.41611
-651,169,-24.4259,3.83643,0,0,0,0,0,0,0,-1,573,855,-24.4259,-3.83645
-644,169,-23.8718,3.68475,0.0613754,0.0490878,0.0372396,0.0929746,0.0174886,0.703644,0.0570541,0.043676,580,855,-23.8718,-3.68476
-637,169,-23.6057,3.55548,0.0502867,0.0395346,0.0281472,0.0735667,0.0162546,0.691037,0.0446242,0.0438368,587,855,-23.6057,-3.55546
-630,169,-23.001,3.69232,0,0,0,0,0,0,0,-1,594,855,-23.001,-3.69235
-623,169,-23.0242,3.24835,0.0291994,0.0232821,0.01496,0.0414905,0.010991,0.687772,0.0248215,0.0400363,601,855,-23.0242,-3.24833
-616,169,-23.0372,2.84888,0.0204189,0.0168254,0.0102249,0.0290037,0.00824063,0.698424,0.0172577,0.0226847,608,855,-23.0372,-2.84887
-609,169,-23.0573,2.47473,0.0132329,0.0109403,0.00652978,0.0187162,0.00545696,0.69851,0.0111144,0.0140314,615,855,-23.0573,-2.47475
-602,169,-23.0604,2.05847,0.0076451,0.0060013,0.00382229,0.0107329,0.00291354,0.679496,0.00640875,0.0141282,622,855,-23.0603,-2.05845
-595,169,-23.0786,1.62531,0.00360352,0.00245628,0.00224971,0.00535159,0.000708214,0.660569,0.00335665,0.012263,629,855,-23.0786,-1.62528
-588,169,-23.082,1.2467,0.000739666,0.000241812,0.00113274,0.0016505,-0.000669026,0.677239,0.00137856,0.00966113,636,855,-23.0819,-1.24671
-581,169,-23.106,0.873962,-0.000319269,-0.00113427,0.000462196,-0.000110586,-0.00134295,0.424103,0.000860811,0.0127708,643,855,-23.106,-0.873992
-574,169,-22.9579,0.467651,0,0,0,0,0,0,0,-1,650,855,-22.9579,-0.46766
-567,169,-23.087,0.19873,0,0,0,0,0,0,0,-1,657,855,-23.087,-0.198743
-560,169,-22.9355,-0.241699,0,0,0,0,0,0,0,-1,664,855,-22.9355,0.241707
-553,169,-22.6982,-0.589844,0,0,0,0,0,0,0,-1,671,855,-22.6982,0.589815
-546,169,-19.0852,-1.05609,0,0,0,0,0,0,0,-1,678,855,-19.0852,1.05612
-539,169,-29.1935,0.916931,0,0,0,0,0,0,0,-1,685,855,-29.1935,-0.916954
-532,169,-29.2305,0.871948,-5.65355e-05,0.00164104,-0.00115593,0.00222634,-0.000641835,-1.10208,0.00173813,0.0429277,692,855,-29.2305,-0.871924
-525,169,-29.2318,0.873535,-9.08227e-05,0.00251925,-0.00112346,0.00293621,-0.000507787,-1.21541,0.00214685,0.047948,699,855,-29.2318,-0.873506
-518,169,-29.2621,0.610657,-0.0001522,0.00357472,-0.000787727,0.00373437,-0.000311856,-1.37083,0.00259978,0.0431808,706,855,-29.2621,-0.610673
-511,169,-29.2952,0.352051,0.0002044,0.00431976,-0.000368019,0.00435241,0.000171749,-1.48231,0.00284609,0.0403123,713,855,-29.2952,-0.352058
-504,169,-29.2454,0.504761,0.00104553,0.00423609,8.58773e-05,0.0042384,0.00104322,1.54391,0.00255001,0.0417104,720,855,-29.2454,-0.504758
-497,169,-29.2233,0.722107,0.00267958,0.0033323,0.000531814,0.00362991,0.00238197,1.0606,0.00212955,0.0409698,727,855,-29.2233,-0.722082
-490,169,0,0,0,0,0,0,0,0,0,-1,734,855,0,0
-483,169,0,0,0,0,0,0,0,0,0,-1,741,855,0,0
-476,169,0,0,0,0,0,0,0,0,0,-1,748,855,0,0
-469,169,0,0,0,0,0,0,0,0,0,-1,755,855,0,0
-462,169,0,0,0,0,0,0,0,0,0,-1,762,855,0,0
-455,169,0,0,0,0,0,0,0,0,0,-1,769,855,0,0
-448,169,0,0,0,0,0,0,0,0,0,-1,776,855,0,0
-441,169,0,0,0,0,0,0,0,0,0,-1,783,855,0,0
-434,169,0,0,0,0,0,0,0,0,0,-1,790,855,0,0
-427,169,0,0,0,0,0,0,0,0,0,-1,797,855,0,0
-420,169,0,0,0,0,0,0,0,0,0,-1,804,855,0,0
-413,169,0,0,0,0,0,0,0,0,0,-1,811,855,0,0
-406,169,0,0,0,0,0,0,0,0,0,-1,818,855,0,0
-399,169,0,0,0,0,0,0,0,0,0,-1,825,855,0,0
-392,169,0,0,0,0,0,0,0,0,0,-1,832,855,0,0
-385,169,0,0,0,0,0,0,0,0,0,-1,839,855,0,0
-378,169,0,0,0,0,0,0,0,0,0,-1,846,855,0,0
-371,169,0,0,0,0,0,0,0,0,0,-1,853,855,0,0
-364,169,0,0,0,0,0,0,0,0,0,-1,860,855,0,0
-357,169,0,0,0,0,0,0,0,0,0,-1,867,855,0,0
-350,169,0,0,0,0,0,0,0,0,0,-1,874,855,0,0
-343,169,0,0,0,0,0,0,0,0,0,-1,881,855,0,0
-336,169,0,0,0,0,0,0,0,0,0,-1,888,855,0,0
-329,169,0,0,0,0,0,0,0,0,0,-1,895,855,0,0
-322,169,0,0,0,0,0,0,0,0,0,-1,902,855,0,0
-315,169,0,0,0,0,0,0,0,0,0,-1,909,855,0,0
-308,169,0,0,0,0,0,0,0,0,0,-1,916,855,0,0
-301,169,0,0,0,0,0,0,0,0,0,-1,923,855,0,0
-294,169,0,0,0,0,0,0,0,0,0,-1,930,855,0,0
-287,169,0,0,0,0,0,0,0,0,0,-1,937,855,0,0
-280,169,0,0,0,0,0,0,0,0,0,-1,944,855,0,0
-273,169,0,0,0,0,0,0,0,0,0,-1,951,855,0,0
-266,169,0,0,0,0,0,0,0,0,0,-1,958,855,0,0
-259,169,0,0,0,0,0,0,0,0,0,-1,965,855,0,0
-252,169,0,0,0,0,0,0,0,0,0,-1,972,855,0,0
-245,169,0,0,0,0,0,0,0,0,0,-1,979,855,0,0
-238,169,0,0,0,0,0,0,0,0,0,-1,986,855,0,0
-231,169,0,0,0,0,0,0,0,0,0,-1,993,855,0,0
-224,169,0,0,0,0,0,0,0,0,0,-1,1000,855,0,0
-217,169,0,0,0,0,0,0,0,0,0,-1,1007,855,0,0
-210,169,0,0,0,0,0,0,0,0,0,-1,1014,855,0,0
-203,169,0,0,0,0,0,0,0,0,0,-1,1021,855,0,0
-196,169,0,0,0,0,0,0,0,0,0,-1,1028,855,0,0
-189,169,0,0,0,0,0,0,0,0,0,-1,1035,855,0,0
-182,169,0,0,0,0,0,0,0,0,0,-1,1042,855,0,0
-175,169,0,0,0,0,0,0,0,0,0,-1,1049,855,0,0
-168,169,0,0,0,0,0,0,0,0,0,-1,1056,855,0,0
-161,169,0,0,0,0,0,0,0,0,0,-1,1063,855,0,0
-154,169,0,0,0,0,0,0,0,0,0,-1,1070,855,0,0
-147,169,0,0,0,0,0,0,0,0,0,-1,1077,855,0,0
-140,169,0,0,0,0,0,0,0,0,0,-1,1084,855,0,0
-133,169,0,0,0,0,0,0,0,0,0,-1,1091,855,0,0
-126,169,0,0,0,0,0,0,0,0,0,-1,1098,855,0,0
-119,169,0,0,0,0,0,0,0,0,0,-1,1105,855,0,0
-112,169,0,0,0,0,0,0,0,0,0,-1,1112,855,0,0
-105,169,0,0,0,0,0,0,0,0,0,-1,1119,855,0,0
-98,169,0,0,0,0,0,0,0,0,0,-1,1126,855,0,0
-91,169,0,0,0,0,0,0,0,0,0,-1,1133,855,0,0
-84,169,0,0,0,0,0,0,0,0,0,-1,1140,855,0,0
-77,169,0,0,0,0,0,0,0,0,0,-1,1147,855,0,0
-70,169,0,0,0,0,0,0,0,0,0,-1,1154,855,0,0
-63,169,0,0,0,0,0,0,0,0,0,-1,1161,855,0,0
-56,169,0,0,0,0,0,0,0,0,0,-1,1168,855,0,0
-49,169,0,0,0,0,0,0,0,0,0,-1,1175,855,0,0
-42,169,0,0,0,0,0,0,0,0,0,-1,1182,855,0,0
-35,169,0,0,0,0,0,0,0,0,0,-1,1189,855,0,0
-28,169,0,0,0,0,0,0,0,0,0,-1,1196,855,0,0
-21,169,0,0,0,0,0,0,0,0,0,-1,1203,855,0,0
-14,169,0,0,0,0,0,0,0,0,0,-1,1210,855,0,0
-7,169,0,0,0,0,0,0,0,0,0,-1,1217,855,0,0
0,169,0,0,0,0,0,0,0,0,0,-1,1224,855,0,0
7,169,0,0,0,0,0,0,0,0,0,-1,1231,855,0,0
14,169,0,0,0,0,0,0,0,0,0,-1,1238,855,0,0
21,169,0,0,0,0,0,0,0,0,0,-1,1245,855,0,0
28,169,0,0,0,0,0,0,0,0,0,-1,1252,855,0,0
35,169,0,0,0,0,0,0,0,0,0,-1,1259,855,0,0
42,169,0,0,0,0,0,0,0,0,0,-1,1266,855,0,0
49,169,0,0,0,0,0,0,0,0,0,-1,1273,855,0,0
56,169,0,0,0,0,0,0,0,0,0,-1,1280,855,0,0
63,169,0,0,0,0,0,0,0,0,0,-1,1287,855,0,0
70,169,0,0,0,0,0,0,0,0,0,-1,1294,855,0,0
77,169,0,0,0,0,0,0,0,0,0,-1,1301,855,0,0
84,169,0,0,0,0,0,0,0,0,0,-1,1308,855,0,0
91,169,0,0,0,0,0,0,0,0,0,-1,1315,855,0,0
98,169,0,0,0,0,0,0,0,0,0,-1,1322,855,0,0
105,169,0,0,0,0,0,0,0,0,0,-1,1329,855,0,0
112,169,0,0,0,0,0,0,0,0,0,-1,1336,855,0,0
119,169,0,0,0,0,0,0,0,0,0,-1,1343,855,0,0
126,169,0,0,0,0,0,0,0,0,0,-1,1350,855,0,0
133,169,0,0,0,0,0,0,0,0,0,-1,1357,855,0,0
140,169,0,0,0,0,0,0,0,0,0,-1,1364,855,0,0
147,169,0,0,0,0,0,0,0,0,0,-1,1371,855,0,0
154,169,0,0,0,0,0,0,0,0,0,-1,1378,855,0,0
161,169,0,0,0,0,0,0,0,0,0,-1,1385,855,0,0
168,169,0,0,0,0,0,0,0,0,0,-1,1392,855,0,0
175,169,0,0,0,0,0,0,0,0,0,-1,1399,855,0,0
182,169,0,0,0,0,0,0,0,0,0,-1,1406,855,0,0
189,169,0,0,0,0,0,0,0,0,0,-1,1413,855,0,0
196,169,0,0,0,0,0,0,0,0,0,-1,1420,855,0,0
203,169,0,0,0,0,0,0,0,0,0,-1,1427,855,0,0
210,169,0,0,0,0,0,0,0,0,0,-1,1434,855,0,0
217,169,0,0,0,0,0,0,0,0,0,-1,1441,855,0,0
224,169,0,0,0,0,0,0,0,0,0,-1,1448,855,0,0
231,169,0,0,0,0,0,0,0,0,0,-1,1455,855,0,0
238,169,0,0,0,0,0,0,0,0,0,-1,1462,855,0,0
245,169,0,0,0,0,0,0,0,0,0,-1,1469,855,0,0
252,169,0,0,0,0,0,0,0,0,0,-1,1476,855,0,0
259,169,0,0,0,0,0,0,0,0,0,-1,1483,855,0,0
266,169,0,0,0,0,0,0,0,0,0,-1,1490,855,0,0
273,169,0,0,0,0,0,0,0,0,0,-1,1497,855,0,0
280,169,0,0,0,0,0,0,0,0,0,-1,1504,855,0,0
287,169,0,0,0,0,0,0,0,0,0,-1,1511,855,0,0
294,169,0,0,0,0,0,0,0,0,0,-1,1518,855,0,0
301,169,0,0,0,0,0,0,0,0,0,-1,1525,855,0,0
308,169,0,0,0,0,0,0,0,0,0,-1,1532,855,0,0
315,169,0,0,0,0,0,0,0,0,0,-1,1539,855,0,0
322,169,0,0,0,0,0,0,0,0,0,-1,1546,855,0,0
329,169,0,0,0,0,0,0,0,0,0,-1,1553,855,0,0
336,169,0,0,0,0,0,0,0,0,0,-1,1560,855,0,0
343,169,0,0,0,0,0,0,0,0,0,-1,1567,855,0,0
350,169,0,0,0,0,0,0,0,0,0,-1,1574,855,0,0
357,169,0,0,0,0,0,0,0,0,0,-1,1581,855,0,0
364,169,0,0,0,0,0,0,0,0,0,-1,1588,855,0,0
371,169,0,0,0,0,0,0,0,0,0,-1,1595,855,0,0
378,169,0,0,0,0,0,0,0,0,0,-1,1602,855,0,0
385,169,0,0,0,0,0,0,0,0,0,-1,1609,855,0,0
392,169,0,0,0,0,0,0,0,0,0,-1,1616,855,0,0
399,169,0,0,0,0,0,0,0,0,0,-1,1623,855,0,0
406,169,0,0,0,0,0,0,0,0,0,-1,1630,855,0,0
413,169,0,0,0,0,0,0,0,0,0,-1,1637,855,0,0
420,169,0,0,0,0,0,0,0,0,0,-1,1644,855,0,0
427,169,0,0,0,0,0,0,0,0,0,-1,1651,855,0,0
434,169,0,0,0,0,0,0,0,0,0,-1,1658,855,0,0
441,169,0,0,0,0,0,0,0,0,0,-1,1665,855,0,0
448,169,0,0,0,0,0,0,0,0,0,-1,1672,855,0,0
455,169,0,0,0,0,0,0,0,0,0,-1,1679,855,0,0
462,169,0,0,0,0,0,0,0,0,0,-1,1686,855,0,0
469,169,0,0,0,0,0,0,0,0,0,-1,1693,855,0,0
476,169,0,0,0,0,0,0,0,0,0,-1,1700,855,0,0
483,169,0,0,0,0,0,0,0,0,0,-1,1707,855,0,0
490,169,0,0,0,0,0,0,0,0,0,-1,1714,855,0,0
497,169,0,0,0,0,0,0,0,0,0,-1,1721,855,0,0
504,169,0,0,0,0,0,0,0,0,0,-1,1728,855,0,0
511,169,0,0,0,0,0,0,0,0,0,-1,1735,855,0,0
518,169,0,0,0,0,0,0,0,0,0,-1,1742,855,0,0
525,169,0,0,0,0,0,0,0,0,0,-1,1749,855,0,0
532,169,0,0,0,0,0,0,0,0,0,-1,1756,855,0,0
539,169,0,0,0,0,0,0,0,0,0,-1,1763,855,0,0
546,169,0,0,0,0,0,0,0,0,0,-1,1770,855,0,0
553,169,0,0,0,0,0,0,0,0,0,-1,1777,855,0,0
560,169,0,0,0,0,0,0,0,0,0,-1,1784,855,0,0
567,169,0,0,0,0,0,0,0,0,0,-1,1791,855,0,0
574,169,0,0,0,0,0,0,0,0,0,-1,1798,855,0,0
581,169,0,0,0,0,0,0,0,0,0,-1,1805,855,0,0
588,169,0,0,0,0,0,0,0,0,0,-1,1812,855,0,0
595,169,0,0,0,0,0,0,0,0,0,-1,1819,855,0,0
602,169,0,0,0,0,0,0,0,0,0,-1,1826,855,0,0
609,169,0,0,0,0,0,0,0,0,0,-1,1833,855,0,0
616,169,39.5156,2.44598,0,0,0,0,0,0,0,-1,1840,855,39.5157,-2.44598
623,169,39.7437,2.45264,0.00137208,0.00170787,-0.000675367,0.0022359,0.000844053,-0.907225,0.00130375,0.043668,1847,855,39.7436,-2.45264
630,169,39.8607,2.58679,0.00139997,0.00175493,-0.000125318,0.00179471,0.00136018,-1.26339,0.00108114,0.0423241,1854,855,39.8607,-2.5868
637,169,39.7272,2.63422,0.0013612,0.0016629,0.000224618,0.00178262,0.00124148,1.08109,0.00105534,0.0375607,1861,855,39.7272,-2.63424
644,169,39.6154,2.70508,0.00119769,0.00126819,0.000303027,0.00153801,0.00092787,0.843305,0.000894265,0.0374141,1868,855,39.6153,-2.70505
651,169,39.6541,2.69922,0.000962112,0.000788228,0.000186363,0.00108082,0.000669524,0.567144,0.000629918,0.0365303,1875,855,39.6541,-2.69921
658,169,39.7462,2.62097,0.000728464,0.000410775,-4.55878e-07,0.000728465,0.000410775,-0.00143498,0.000421722,0.0349552,1882,855,39.7462,-2.621
665,169,39.8134,2.54272,0,0,0,0,0,0,0,-1,1889,855,39.8134,-2.54275
672,169,31.2465,2.96387,0,0,0,0,0,0,0,-1,1896,855,31.2464,-2.9639
679,169,32.6367,1.49475,0,0,0,0,0,0,0,-1,1903,855,32.6367,-1.49477
686,169,32.6395,1.86865,-9.28143e-05,-0.000567036,-0.000531445,0.000252016,-0.000911866,-0.575569,0.000707049,0.0399703,1910,855,32.6395,-1.86863
693,169,32.6207,2.25488,-2.57475e-05,-0.000617934,-0.000772564,0.00050552,-0.0011492,-0.602402,0.000979151,0.0192648,1917,855,32.6207,-2.25489
700,169,32.6001,2.68549,-0.000130243,-0.000531672,-0.000987306,0.000676545,-0.00133846,-0.685117,0.0011841,0.0169665,1924,855,32.6001,-2.68549
707,169,32.5409,3.06628,-0.000155736,-0.000338648,-0.0012292,0.000985402,-0.00147979,-0.748265,0.00143279,0.0167272,1931,855,32.5409,-3.06631
714,169,32.4753,3.40979,0.000140431,-2.48296e-05,-0.00131056,0.00137096,-0.00125536,-0.753915,0.0015168,0.0143651,1938,855,32.4753,-3.40977
721,169,32.4426,3.83484,0.000876755,0.000332718,-0.00142668,0.00205712,-0.000847648,-0.691196,0.00172485,0.0160925,1945,855,32.4426,-3.83481
728,169,32.4293,4.27252,0.001801,0.00076958,-0.00144512,0.00281967,-0.000249088,-0.614009,0.00196807,0.0136821,1952,855,32.4293,-4.27253
735,169,32.4082,4.69019,0.00329704,0.000446825,-0.00157331,0.00399472,-0.000250855,-0.417392,0.00275058,0.0195177,1959,855,32.4083,-4.69017
742,169,32.401,5.09644,0.00506954,0.000190462,-0.00162087,0.00555892,-0.000298917,-0.293221,0.0038095,0.0154857,1966,855,32.401,-5.09644
749,169,32.3915,5.41278,0.00728813,-0.000645792,-0.00156485,0.00758562,-0.000943282,-0.187866,0.00539905,0.0266684,1973,855,32.3915,-5.41277
756,169,32.5967,5.52985,0.0100023,-0.00231354,-0.00137107,0.0101531,-0.00246433,-0.109539,0.00772238,0.0493635,1980,855,32.5966,-5.52983
763,169,32.9148,5.70056,0,0,0,0,0,0,0,-1,1987,855,32.9148,-5.70059
770,169,33.1968,3.9245,0,0,0,0,0,0,0,-1,1994,855,33.1967,-3.92453
777,169,33.4161,7.34302,0,0,0,0,0,0,0,-1,2001,855,33.4162,-7.34302
784,169,33.2064,7.54956,0,0,0,0,0,0,0,-1,2008,855,33.2064,-7.54955
791,169,0,0,0,0,0,0,0,0,0,-1,2015,855,0,0
798,169,0,0,0,0,0,0,0,0,0,-1,2022,855,0,0
805,169,0,0,0,0,0,0,0,0,0,-1,2029,855,0,0
812,169,0,0,0,0,0,0,0,0,0,-1,2036,855,0,0
-700,162,0,0,0,0,0,0,0,0,0,-1,524,862,0,0
-693,162,0,0,0,0,0,0,0,0,0,-1,531,862,0,0
-686,162,0,0,0,0,0,0,0,0,0,-1,538,862,0,0
-679,162,0,0,0,0,0,0,0,0,0,-1,545,862,0,0
-672,162,0,0,0,0,0,0,0,0,0,-1,552,862,0,0
-665,162,-24.4448,1.03082,0,0,0,0,0,0,0,-1,559,862,-24.4448,-1.03082
-658,162,-24.6943,1.84399,0,0,0,0,0,0,0,-1,566,862,-24.6943,-1.84399
-651,162,-24.9304,3.87335,0,0,0,0,0,0,0,-1,573,862,-24.9304,-3.87333
-644,162,-24.3043,3.60095,0.0649182,0.0386322,0.0435498,0.097265,0.00628545,0.638848,0.0628531,0.0453468,580,862,-24.3043,-3.60096
-637,162,-23.7446,3.51392,0.0527824,0.0308766,0.0334229,0.0770013,0.00665776,0.627059,0.0492651,0.044165,587,862,-23.7446,-3.51393
-630,162,-23.6208,3.38696,0.0409207,0.0240017,0.0249412,0.058798,0.00612434,0.621898,0.0373251,0.0425058,594,862,-23.6209,-3.38695
-623,162,-23.403,3.19556,0.0301314,0.0179461,0.0180638,0.0431024,0.0049751,0.622746,0.0272285,0.0324037,601,862,-23.403,-3.19554
-616,162,-23.4254,2.83679,0.0208011,0.0128388,0.0123446,0.0297907,0.00384928,0.629413,0.0187098,0.0191116,608,862,-23.4254,-2.8368
-609,162,-23.4645,2.43732,0.0131198,0.00799177,0.00776639,0.0187345,0.00237711,0.625959,0.0117775,0.0132972,615,862,-23.4646,-2.43729
-602,162,-23.4774,2.0379,0.00717333,0.00404153,0.00457515,0.0104431,0.000771726,0.620516,0.00671964,0.011775,622,862,-23.4774,-2.03788
-595,162,-23.4877,1.65338,0.00318849,0.00129478,0.00259723,0.00500608,-0.000522805,0.610604,0.0035246,0.0108746,629,862,-23.4877,-1.65338
-588,162,-23.5022,1.26727,0.000606315,-0.000416321,0.00118476,0.00138539,-0.00119539,0.581683,0.00149136,0.0108892,636,862,-23.5022,-1.2673
-581,162,-23.6154,0.900208,-0.000250141,-0.00134051,0.000378808,-0.000131457,-0.00145919,0.303623,0.000932071,0.0197982,643,862,-23.6154,-0.900213
-574,162,-23.782,0.513977,-0.000448411,-0.00158492,-0.000388254,-0.00032844,-0.00170489,-0.299694,0.00104447,0.0299385,650,862,-23.782,-0.513974
-567,162,-23.7173,0.117493,-0.000323804,-0.00144461,-0.000992336,0.000255434,-0.00202385,-0.528356,0.00144194,0.0390854,657,862,-23.7174,-0.117487
-560,162,-23.5694,-0.454773,9.21081e-05,-0.00114676,-0.00109259,0.000728638,-0.00178329,-0.52752,0.00149226,0.0363272,664,862,-23.5694,0.454802
-553,162,-23.2941,-0.979858,0,0,0,0,0,0,0,-1,671,862,-23.2941,0.979888
-546,162,-22.8181,-1.51154,0,0,0,0,0,0,0,-1,678,862,-22.8181,1.51155
-539,162,-29.1891,0.939453,0,0,0,0,0,0,0,-1,685,862,-29.1892,-0.939482
-532,162,-29.204,0.876587,0.000362782,0.00100717,-0.00126474,0.00199011,-0.000620157,-0.910121,0.0015747,0.0381176,692,862,-29.204,-0.876591
-525,162,-29.2952,0.683228,0.000259227,0.00179454,-0.00115818,0.00241637,-0.000362603,-1.07806,0.00174439,0.0408394,699,862,-29.2952,-0.683238
-518,162,-29.2965,0.463379,0.000189894,0.00271517,-0.000657455,0.00287608,2.89795e-05,-1.33076,0.0019078,0.0407973,706,862,-29.2965,-0.463371
-511,162,-29.2248,0.27063,0.000516923,0.00317452,1.4609e-05,0.0031746,0.000516843,1.5653,0.00196689,0.0426092,713,862,-29.2248,-0.270614
-504,162,-29.1068,0.327026,0.00128672,0.00261279,0.000889751,0.00305938,0.000840129,1.10561,0.00182518,0.0431928,720,862,-29.1068,-0.327036
-497,162,-29.2044,0.625977,0.00269779,0.00144373,0.00185343,0.00402739,0.000114135,0.622288,0.0026477,0.0419586,727,862,-29.2044,-0.625974
-490,162,0,0,0,0,0,0,0,0,0,-1,734,862,0,0
-483,162,0,0,0,0,0,0,0,0,0,-1,741,862,0,0
-476,162,0,0,0,0,0,0,0,0,0,-1,748,862,0,0
-469,162,0,0,0,0,0,0,0,0,0,-1,755,862,0,0
-462,162,0,0,0,0,0,0,0,0,0,-1,762,862,0,0
-455,162,0,0,0,0,0,0,0,0,0,-1,769,862,0,0
-448,162,0,0,0,0,0,0,0,0,0,-1,776,862,0,0
-441,162,0,0,0,0,0,0,0,0,0,-1,783,862,0,0
-434,162,0,0,0,0,0,0,0,0,0,-1,790,862,0,0
-427,162,0,0,0,0,0,0,0,0,0,-1,797,862,0,0
-420,162,0,0,0,0,0,0,0,0,0,-1,804,862,0,0
-413,162,0,0,0,0,0,0,0,0,0,-1,811,862,0,0
-406,162,0,0,0,0,0,0,0,0,0,-1,818,862,0,0
-399,162,0,0,0,0,0,0,0,0,0,-1,825,862,0,0
-392,162,0,0,0,0,0,0,0,0,0,-1,832,862,0,0
-385,162,0,0,0,0,0,0,0,0,0,-1,839,862,0,0
-378,162,0,0,0,0,0,0,0,0,0,-1,846,862,0,0
-371,162,0,0,0,0,0,0,0,0,0,-1,853,862,0,0
-364,162,0,0,0,0,0,0,0,0,0,-1,860,862,0,0
-357,162,0,0,0,0,0,0,0,0,0,-1,867,862,0,0
-350,162,0,0,0,0,0,0,0,0,0,-1,874,862,0,0
-343,162,0,0,0,0,0,0,0,0,0,-1,881,862,0,0
-336,162,0,0,0,0,0,0,0,0,0,-1,888,862,0,0
-329,162,0,0,0,0,0,0,0,0,0,-1,895,862,0,0
-322,162,0,0,0,0,0,0,0,0,0,-1,902,862,0,0
-315,162,0,0,0,0,0,0,0,0,0,-1,909,862,0,0
-308,162,0,0,0,0,0,0,0,0,0,-1,916,862,0,0
-301,162,0,0,0,0,0,0,0,0,0,-1,923,862,0,0
-294,162,0,0,0,0,0,0,0,0,0,-1,930,862,0,0
-287,162,0,0,0,0,0,0,0,0,0,-1,937,862,0,0
-280,162,0,0,0,0,0,0,0,0,0,-1,944,862,0,0
-273,162,0,0,0,0,0,0,0,0,0,-1,951,862,0,0
-266,162,0,0,0,0,0,0,0,0,0,-1,958,862,0,0
-259,162,0,0,0,0,0,0,0,0,0,-1,965,862,0,0
-252,162,0,0,0,0,0,0,0,0,0,-1,972,862,0,0
-245,162,0,0,0,0,0,0,0,0,0,-1,979,862,0,0
-238,162,0,0,0,0,0,0,0,0,0,-1,986,862,0,0
-231,162,0,0,0,0,0,0,0,0,0,-1,993,862,0,0
-224,162,0,0,0,0,0,0,0,0,0,-1,1000,862,0,0
-217,162,0,0,0,0,0,0,0,0,0,-1,1007,862,0,0
-210,162,0,0,0,0,0,0,0,0,0,-1,1014,862,0,0
-203,162,0,0,0,0,0,0,0,0,0,-1,1021,862,0,0
-196,162,0,0,0,0,0,0,0,0,0,-1,1028,862,0,0
-189,162,0,0,0,0,0,0,0,0,0,-1,1035,862,0,0
-182,162,0,0,0,0,0,0,0,0,0,-1,1042,862,0,0
-175,162,0,0,0,0,0,0,0,0,0,-1,1049,862,0,0
-168,162,0,0,0,0,0,0,0,0,0,-1,1056,862,0,0
-161,162,0,0,0,0,0,0,0,0,0,-1,1063,862,0,0
-154,162,0,0,0,0,0,0,0,0,0,-1,1070,862,0,0
-147,162,0,0,0,0,0,0,0,0,0,-1,1077,862,0,0
-140,162,0,0,0,0,0,0,0,0,0,-1,1084,862,0,0
-133,162,0,0,0,0,0,0,0,0,0,-1,1091,862,0,0
-126,162,0,0,0,0,0,0,0,0,0,-1,1098,862,0,0
-119,162,0,0,0,0,0,0,0,0,0,-1,1105,862,0,0
-112,162,0,0,0,0,0,0,0,0,0,-1,1112,862,0,0
-105,162,0,0,0,0,0,0,0,0,0,-1,1119,862,0,0
-98,162,0,0,0,0,0,0,0,0,0,-1,1126,862,0,0
-91,162,0,0,0,0,0,0,0,0,0,-1,1133,862,0,0
-84,162,0,0,0,0,0,0,0,0,0,-1,1140,862,0,0
-77,162,0,0,0,0,0,0,0,0,0,-1,1147,862,0,0
-70,162,0,0,0,0,0,0,0,0,0,-1,1154,862,0,0
-63,162,0,0,0,0,0,0,0,0,0,-1,1161,862,0,0
-56,162,0,0,0,0,0,0,0,0,0,-1,1168,862,0,0
-49,162,0,0,0,0,0,0,0,0,0,-1,1175,862,0,0
-42,162,0,0,0,0,0,0,0,0,0,-1,1182,862,0,0
-35,162,0,0,0,0,0,0,0,0,0,-1,1189,862,0,0
-28,162,0,0,0,0,0,0,0,0,0,-1,1196,862,0,0
-21,162,0,0,0,0,0,0,0,0,0,-1,1203,862,0,0
-14,162,0,0,0,0,0,0,0,0,0,-1,1210,862,0,0
-7,162,0,0,0,0,0,0,0,0,0,-1,1217,862,0,0
0,162,0,0,0,0,0,0,0,0,0,-1,1224,862,0,0
7,162,0,0,0,0,0,0,0,0,0,-1,1231,862,0,0
14,162,0,0,0,0,0,0,0,0,0,-1,1238,862,0,0
21,162,0,0,0,0,0,0,0,0,0,-1,1245,862,0,0
28,162,0,0,0,0,0,0,0,0,0,-1,1252,862,0,0
35,162,0,0,0,0,0,0,0,0,0,-1,1259,862,0,0
42,162,0,0,0,0,0,0,0,0,0,-1,1266,862,0,0
49,162,0,0,0,0,0,0,0,0,0,-1,1273,862,0,0
56,162,0,0,0,0,0,0,0,0,0,-1,1280,862,0,0
63,162,0,0,0,0,0,0,0,0,0,-1,1287,862,0,0
70,162,0,0,0,0,0,0,0,0,0,-1,1294,862,0,0
77,162,0,0,0,0,0,0,0,0,0,-1,1301,862,0,0
84,162,0,0,0,0,0,0,0,0,0,-1,1308,862,0,0
91,162,0,0,0,0,0,0,0,0,0,-1,1315,862,0,0
98,162,0,0,0,0,0,0,0,0,0,-1,1322,862,0,0
105,162,0,0,0,0,0,0,0,0,0,-1,1329,862,0,0
112,162,0,0,0,0,0,0,0,0,0,-1,1336,862,0,0
119,162,0,0,0,0,0,0,0,0,0,-1,1343,862,0,0
126,162,0,0,0,0,0,0,0,0,0,-1,1350,862,0,0
133,162,0,0,0,0,0,0,0,0,0,-1,1357,862,0,0
140,162,0,0,0,0,0,0,0,0,0,-1,1364,862,0,0
147,162,0,0,0,0,0,0,0,0,0,-1,1371,862,0,0
154,162,0,0,0,0,0,0,0,0,0,-1,1378,862,0,0
161,162,0,0,0,0,0,0,0,0,0,-1,1385,862,0,0
168,162,0,0,0,0,0,0,0,0,0,-1,1392,862,0,0
175,162,0,0,0,0,0,0,0,0,0,-1,1399,862,0,0
182,162,0,0,0,0,0,0,0,0,0,-1,1406,862,0,0
189,162,0,0,0,0,0,0,0,0,0,-1,1413,862,0,0
196,162,0,0,0,0,0,0,0,0,0,-1,1420,862,0,0
203,162,0,0,0,0,0,0,0,0,0,-1,1427,862,0,0
210,162,0,0,0,0,0,0,0,0,0,-1,1434,862,0,0
217,162,0,0,0,0,0,0,0,0,0,-1,1441,862,0,0
224,162,0,0,0,0,0,0,0,0,0,-1,1448,862,0,0
231,162,0,0,0,0,0,0,0,0,0,-1,1455,862,0,0
238,162,0,0,0,0,0,0,0,0,0,-1,1462,862,0,0
245,162,0,0,0,0,0,0,0,0,0,-1,1469,862,0,0
252,162,0,0,0,0,0,0,0,0,0,-1,1476,862,0,0
259,162,0,0,0,0,0,0,0,0,0,-1,1483,862,0,0
266,162,0,0,0,0,0,0,0,0,0,-1,1490,862,0,0
273,162,0,0,0,0,0,0,0,0,0,-1,1497,862,0,0
280,162,0,0,0,0,0,0,0,0,0,-1,1504,862,0,0
287,162,0,0,0,0,0,0,0,0,0,-1,1511,862,0,0
294,162,0,0,0,0,0,0,0,0,0,-1,1518,862,0,0
301,162,0,0,0,0,0,0,0,0,0,-1,1525,862,0,0
308,162,0,0,0,0,0,0,0,0,0,-1,1532,862,0,0
315,162,0,0,0,0,0,0,0,0,0,-1,1539,862,0,0
322,162,0,0,0,0,0,0,0,0,0,-1,1546,862,0,0
329,162,0,0,0,0,0,0,0,0,0,-1,1553,862,0,0
336,162,0,0,0,0,0,0,0,0,0,-1,1560,862,0,0
343,162,0,0,0,0,0,0,0,0,0,-1,1567,862,0,0
350,162,0,0,0,0,0,0,0,0,0,-1,1574,862,0,0
357,162,0,0,0,0,0,0,0,0,0,-1,1581,862,0,0
364,162,0,0,0,0,0,0,0,0,0,-1,1588,862,0,0
371,162,0,0,0,0,0,0,0,0,0,-1,1595,862,0,0
378,162,0,0,0,0,0,0,0,0,0,-1,1602,862,0,0
385,162,0,0,0,0,0,0,0,0,0,-1,1609,862,0,0
392,162,0,0,0,0,0,0,0,0,0,-1,1616,862,0,0
399,162,0,0,0,0,0,0,0,0,0,-1,1623,862,0,0
406,162,0,0,0,0,0,0,0,0,0,-1,1630,862,0,0
413,162,0,0,0,0,0,0,0,0,0,-1,1637,862,0,0
420,162,0,0,0,0,0,0,0,0,0,-1,1644,862,0,0
427,162,0,0,0,0,0,0,0,0,0,-1,1651,862,0,0
434,162,0,0,0,0,0,0,0,0,0,-1,1658,862,0,0
441,162,0,0,0,0,0,0,0,0,0,-1,1665,862,0,0
448,162,0,0,0,0,0,0,0,0,0,-1,1672,862,0,0
455,162,0,0,0,0,0,0,0,0,0,-1,1679,862,0,0
462,162,0,0,0,0,0,0,0,0,0,-1,1686,862,0,0
469,162,0,0,0,0,0,0,0,0,0,-1,1693,862,0,0
476,162,0,0,0,0,0,0,0,0,0,-1,1700,862,0,0
483,162,0,0,0,0,0,0,0,0,0,-1,1707,862,0,0
490,162,0,0,0,0,0,0,0,0,0,-1,1714,862,0,0
497,162,0,0,0,0,0,0,0,0,0,-1,1721,862,0,0
504,162,0,0,0,0,0,0,0,0,0,-1,1728,862,0,0
511,162,0,0,0,0,0,0,0,0,0,-1,1735,862,0,0
518,162,0,0,0,0,0,0,0,0,0,-1,1742,862,0,0
525,162,0,0,0,0,0,0,0,0,0,-1,1749,862,0,0
532,162,0,0,0,0,0,0,0,0,0,-1,1756,862,0,0
539,162,0,0,0,0,0,0,0,0,0,-1,1763,862,0,0
546,162,0,0,0,0,0,0,0,0,0,-1,1770,862,0,0
553,162,0,0,0,0,0,0,0,0,0,-1,1777,862,0,0
560,162,0,0,0,0,0,0,0,0,0,-1,1784,862,0,0
567,162,0,0,0,0,0,0,0,0,0,-1,1791,862,0,0
574,162,0,0,0,0,0,0,0,0,0,-1,1798,862,0,0
581,162,0,0,0,0,0,0,0,0,0,-1,1805,862,0,0
588,162,0,0,0,0,0,0,0,0,0,-1,1812,862,0,0
595,162,0,0,0,0,0,0,0,0,0,-1,1819,862,0,0
602,162,0,0,0,0,0,0,0,0,0,-1,1826,862,0,0
609,162,0,0,0,0,0,0,0,0,0,-1,1833,862,0,0
616,162,39.5825,2.65582,0.00137688,5.94718e-06,-0.00231549,0.00310623,-0.0017234,-0.64149,0.00282623,0.0436702,1840,862,39.5825,-2.6558
623,162,39.7925,2.52844,0.00121091,0.000161919,-0.00146523,0.00224269,-0.000869863,-0.613524,0.00185438,0.0439602,1847,862,39.7924,-2.52843
630,162,39.7548,2.45367,0.00114049,0.000279819,-0.000769469,0.00159178,-0.000171476,-0.530435,0.00112272,0.0412968,1854,862,39.7547,-2.45365
637,162,39.6874,2.54919,0.00111849,0.000421987,-0.000242841,0.0011948,0.000345679,-0.304461,0.000709936,0.0410282,1861,862,39.6874,-2.54919
644,162,39.7183,2.67566,0.0010204,0.000255288,-2.44285e-05,0.00102118,0.000254509,-0.0318845,0.0006138,0.0397198,1868,862,39.7182,-2.67564
651,162,39.7106,2.66315,0.000833724,-3.30739e-05,-4.98265e-05,0.000836578,-3.59287e-05,-0.0572321,0.000570073,0.0359929,1875,862,39.7106,-2.66313
658,162,39.741,2.58466,0.000647948,-0.000271708,-0.000151478,0.000672256,-0.000296016,-0.159113,0.000572927,0.0342676,1882,862,39.741,-2.58466
665,162,39.7164,2.61157,0.00049373,-0.000415758,-0.000273389,0.000569583,-0.000491612,-0.270648,0.000613232,0.0422238,1889,862,39.7164,-2.61158
672,162,39.6514,2.68933,0,0,0,0,0,0,0,-1,1896,862,39.6514,-2.68932
679,162,26.5077,2.54785,0,0,0,0,0,0,0,-1,1903,862,26.5077,-2.54787
686,162,33.0352,1.77148,0,0,0,0,0,0,0,-1,1910,862,33.0351,-1.77147
693,162,33.0254,2.30829,9.48118e-05,-0.000667996,-0.000743139,0.000548707,-0.00112189,-0.548309,0.000983262,0.0228153,1917,862,33.0254,-2.30827
700,162,33.0452,2.68475,-1.413e-05,-0.000520202,-0.000918574,0.000685622,-0.00121995,-0.650998,0.00111451,0.0205117,1924,862,33.0452,-2.68477
707,162,32.974,3.04779,-2.05348e-05,-0.00032554,-0.00110173,0.000939197,-0.00128527,-0.716625,0.00128947,0.0146424,1931,862,32.974,-3.04777
714,162,32.8979,3.41687,0.000209127,-3.06512e-05,-0.00114543,0.00124092,-0.00106245,-0.733254,0.00133118,0.0177829,1938,862,32.8979,-3.41686
721,162,32.8262,3.91321,0.00082455,0.000282602,-0.00123058,0.00181364,-0.000706489,-0.677028,0.00150107,0.0281922,1945,862,32.8262,-3.91322
728,162,32.8202,4.32074,0.00158229,0.000667654,-0.00121541,0.00242357,-0.000173626,-0.605458,0.00167659,0.02331,1952,862,32.8202,-4.32071
735,162,32.8595,4.71124,0.00293988,0.000297553,-0.00128541,0.00346202,-0.000224586,-0.385842,0.0023864,0.0119101,1959,862,32.8595,-4.71126
742,162,32.824,5.10101,0.0045887,-4.06941e-05,-0.00125358,0.00490636,-0.000358351,-0.248176,0.00339666,0.012941,1966,862,32.8239,-5.10103
749,162,32.7748,5.49841,0.00668252,-0.000957388,-0.00108262,0.00683297,-0.00110784,-0.138085,0.00496595,0.0189677,1973,862,32.7748,-5.49841
756,162,32.7817,5.87299,0.00926797,-0.00268638,-0.00072607,0.00931191,-0.00273032,-0.0604407,0.00729051,0.0429871,1980,862,32.7818,-5.873
763,162,32.8075,6.29193,0,0,0,0,0,0,0,-1,1987,862,32.8074,-6.29195
770,162,33.4303,6.91193,0,0,0,0,0,0,0,-1,1994,862,33.4302,-6.91191
777,162,33.2631,7.44995,0.0204124,-0.0161659,0.00202838,0.0205245,-0.016278,0.0552274,0.021295,0.0498182,2001,862,33.2631,-7.44996
784,162,33.2007,7.70093,0.0247219,-0.0249131,0.00338929,0.0249522,-0.0251434,0.0678646,0.0289228,0.0455274,2008,862,33.2006,-7.7009
791,162,0,0,0,0,0,0,0,0,0,-1,2015,862,0,0
798,162,0,0,0,0,0,0,0,0,0,-1,2022,862,0,0
805,162,0,0,0,0,0,0,0,0,0,-1,2029,862,0,0
812,162,0,0,0,0,0,0,0,0,0,-1,2036,862,0,0
-700,155,0,0,0,0,0,0,0,0,0,-1,524,869,0,0
-693,155,0,0,0,0,0,0,0,0,0,-1,531,869,0,0
-686,155,0,0,0,0,0,0,0,0,0,-1,538,869,0,0
-679,155,0,0,0,0,0,0,0,0,0,-1,545,869,0,0
-672,155,0,0,0,0,0,0,0,0,0,-1,552,869,0,0
-665,155,-24.3581,0.565613,0,0,0,0,0,0,0,-1,559,869,-24.3581,-0.565597
-658,155,-24.1632,1.48492,0,0,0,0,0,0,0,-1,566,869,-24.1632,-1.48491
-651,155,-24.3865,2.09509,0,0,0,0,0,0,0,-1,573,869,-24.3865,-2.09507
-644,155,-23.6204,0.199097,0,0,0,0,0,0,0,-1,580,869,-23.6204,-0.199101
-637,155,-23.8323,3.33649,0,0,0,0,0,0,0,-1,587,869,-23.8322,-3.33648
-630,155,-23.8333,3.27435,0.0410709,0.0171851,0.0270027,0.0586538,-0.000397854,0.577188,0.0392359,0.0426861,594,869,-23.8332,-3.27434
-623,155,-23.7722,3.25049,0.0300581,0.0127142,0.0196355,0.0428513,-7.90264e-05,0.577456,0.0285939,0.0246626,601,869,-23.7722,-3.25049
-616,155,-23.8132,2.82465,0.0205532,0.0089421,0.0134134,0.0293635,0.00013175,0.581162,0.0195319,0.014344,608,869,-23.8132,-2.82466
-609,155,-23.8544,2.40125,0.0126944,0.00519964,0.00833973,0.01809,-0.000195969,0.574247,0.0121258,0.0136407,615,869,-23.8544,-2.40122
-602,155,-23.8824,2.03265,0.00669137,0.00236567,0.00496802,0.00994693,-0.000889888,0.580094,0.00694694,0.0120277,622,869,-23.8824,-2.03263
-595,155,-23.9042,1.66357,0.00293614,0.000435421,0.0027451,0.00470223,-0.00133067,0.571694,0.00365992,0.0117654,629,869,-23.9043,-1.6636
-588,155,-23.9102,1.2923,0.000668608,-0.000793869,0.00116991,0.00131701,-0.00144227,0.506085,0.00159362,0.0143822,636,869,-23.9102,-1.29228
-581,155,-24.0557,1.01886,-5.97275e-05,-0.00140184,0.000304939,6.30796e-06,-0.00146788,0.21326,0.000980694,0.0252348,643,869,-24.0557,-1.01888
-574,155,-24.1418,0.707886,-0.000263188,-0.00151686,-0.000443447,-0.00012219,-0.00165786,-0.30785,0.00106684,0.0319816,650,869,-24.1418,-0.707908
-567,155,-24.0925,0.134094,-0.000135638,-0.00144383,-0.000981897,0.00039008,-0.00196955,-0.491573,0.00146053,0.0338534,657,869,-24.0925,-0.134084
-560,155,-23.9745,-0.326355,0.00026925,-0.00128655,-0.00110195,0.000840208,-0.00185751,-0.47805,0.00159402,0.029795,664,869,-23.9745,0.326348
-553,155,-23.7592,-0.996887,0,0,0,0,0,0,0,-1,671,869,-23.7591,0.996887
-546,155,-22.7988,0.873657,0,0,0,0,0,0,0,-1,678,869,-22.7988,-0.873645
-539,155,-29.211,0.881348,0,0,0,0,0,0,0,-1,685,869,-29.211,-0.881322
-532,155,-29.202,0.874084,0.000659493,0.000461912,-0.00125526,0.00181984,-0.000698437,-0.746128,0.00150121,0.0382896,692,869,-29.202,-0.874081
-525,155,-29.2302,0.842163,0.000451745,0.00111664,-0.00104417,0.00188001,-0.000311623,-0.939516,0.00136908,0.0400722,699,869,-29.2302,-0.842174
-518,155,-29.2296,0.679749,0.000347772,0.00181952,-0.000363747,0.00190451,0.00026278,-1.34126,0.00119178,0.0407131,706,869,-29.2296,-0.679758
-511,155,-29.0663,0.588379,0.000545772,0.00187566,0.000540894,0.00206788,0.00035356,1.22935,0.00127715,0.0406768,713,869,-29.0663,-0.588351
-504,155,-28.9996,0.467834,0.00104092,0.000783736,0.00174818,0.00266523,-0.000840569,0.748685,0.00211348,0.0389396,720,869,-28.9996,-0.467815
-497,155,0,0,0,0,0,0,0,0,0,-1,727,869,0,0
-490,155,0,0,0,0,0,0,0,0,0,-1,734,869,0,0
-483,155,0,0,0,0,0,0,0,0,0,-1,741,869,0,0
-476,155,0,0,0,0,0,0,0,0,0,-1,748,869,0,0
-469,155,0,0,0,0,0,0,0,0,0,-1,755,869,0,0
-462,155,0,0,0,0,0,0,0,0,0,-1,762,869,0,0
-455,155,0,0,0,0,0,0,0,0,0,-1,769,869,0,0
-448,155,0,0,0,0,0,0,0,0,0,-1,776,869,0,0
-441,155,0,0,0,0,0,0,0,0,0,-1,783,869,0,0
-434,155,0,0,0,0,0,0,0,0,0,-1,790,869,0,0
-427,155,0,0,0,0,0,0,0,0,0,-1,797,869,0,0
-420,155,0,0,0,0,0,0,0,0,0,-1,804,869,0,0
-413,155,0,0,0,0,0,0,0,0,0,-1,811,869,0,0
-406,155,0,0,0,0,0,0,0,0,0,-1,818,869,0,0
-399,155,0,0,0,0,0,0,0,0,0,-1,825,869,0,0
-392,155,0,0,0,0,0,0,0,0,0,-1,832,869,0,0
-385,155,0,0,0,0,0,0,0,0,0,-1,839,869,0,0
-378,155,0,0,0,0,0,0,0,0,0,-1,846,869,0,0
-371,155,0,0,0,0,0,0,0,0,0,-1,853,869,0,0
-364,155,0,0,0,0,0,0,0,0,0,-1,860,869,0,0
-357,155,0,0,0,0,0,0,0,0,0,-1,867,869,0,0
-350,155,0,0,0,0,0,0,0,0,0,-1,874,869,0,0
-343,155,0,0,0,0,0,0,0,0,0,-1,881,869,0,0
-336,155,0,0,0,0,0,0,0,0,0,-1,888,869,0,0
-329,155,0,0,0,0,0,0,0,0,0,-1,895,869,0,0
-322,155,0,0,0,0,0,0,0,0,0,-1,902,869,0,0
-315,155,0,0,0,0,0,0,0,0,0,-1,909,869,0,0
-308,155,0,0,0,0,0,0,0,0,0,-1,916,869,0,0
-301,155,0,0,0,0,0,0,0,0,0,-1,923,869,0,0
-294,155,0,0,0,0,0,0,0,0,0,-1,930,869,0,0
-287,155,0,0,0,0,0,0,0,0,0,-1,937,869,0,0
-280,155,0,0,0,0,0,0,0,0,0,-1,944,869,0,0
-273,155,0,0,0,0,0,0,0,0,0,-1,951,869,0,0
-266,155,0,0,0,0,0,0,0,0,0,-1,958,869,0,0
-259,155,0,0,0,0,0,0,0,0,0,-1,965,869,0,0
-252,155,0,0,0,0,0,0,0,0,0,-1,972,869,0,0
-245,155,0,0,0,0,0,0,0,0,0,-1,979,869,0,0
-238,155,0,0,0,0,0,0,0,0,0,-1,986,869,0,0
-231,155,0,0,0,0,0,0,0,0,0,-1,993,869,0,0
-224,155,0,0,0,0,0,0,0,0,0,-1,1000,869,0,0
-217,155,0,0,0,0,0,0,0,0,0,-1,1007,869,0,0
-210,155,0,0,0,0,0,0,0,0,0,-1,1014,869,0,0
-203,155,0,0,0,0,0,0,0,0,0,-1,1021,869,0,0
-196,155,0,0,0,0,0,0,0,0,0,-1,1028,869,0,0
-189,155,0,0,0,0,0,0,0,0,0,-1,1035,869,0,0
-182,155,0,0,0,0,0,0,0,0,0,-1,1042,869,0,0
-175,155,0,0,0,0,0,0,0,0,0,-1,1049,869,0,0
-168,155,0,0,0,0,0,0,0,0,0,-1,1056,869,0,0
-161,155,0,0,0,0,0,0,0,0,0,-1,1063,869,0,0
-154,155,0,0,0,0,0,0,0,0,0,-1,1070,869,0,0
-147,155,0,0,0,0,0,0,0,0,0,-1,1077,869,0,0
-140,155,0,0,0,0,0,0,0,0,0,-1,1084,869,0,0
-133,155,0,0,0,0,0,0,0,0,0,-1,1091,869,0,0
-126,155,0,0,0,0,0,0,0,0,0,-1,1098,869,0,0
-119,155,0,0,0,0,0,0,0,0,0,-1,1105,869,0,0
-112,155,0,0,0,0,0,0,0,0,0,-1,1112,869,0,0
-105,155,0,0,0,0,0,0,0,0,0,-1,1119,869,0,0
-98,155,0,0,0,0,0,0,0,0,0,-1,1126,869,0,0
-91,155,0,0,0,0,0,0,0,0,0,-1,1133,869,0,0
-84,155,0,0,0,0,0,0,0,0,0,-1,1140,869,0,0
-77,155,0,0,0,0,0,0,0,0,0,-1,1147,869,0,0
-70,155,0,0,0,0,0,0,0,0,0,-1,1154,869,0,0
-63,155,0,0,0,0,0,0,0,0,0,-1,1161,869,0,0
-56,155,0,0,0,0,0,0,0,0,0,-1,1168,869,0,0
-49,155,0,0,0,0,0,0,0,0,0,-1,1175,869,0,0
-42,155,0,0,0,0,0,0,0,0,0,-1,1182,869,0,0
-35,155,0,0,0,0,0,0,0,0,0,-1,1189,869,0,0
-28,155,0,0,0,0,0,0,0,0,0,-1,1196,869,0,0
-21,155,0,0,0,0,0,0,0,0,0,-1,1203,869,0,0
-14,155,0,0,0,0,0,0,0,0,0,-1,1210,869,0,0
-7,155,0,0,0,0,0,0,0,0,0,-1,1217,869,0,0
0,155,0,0,0,0,0,0,0,0,0,-1,1224,869,0,0
7,155,0,0,0,0,0,0,0,0,0,-1,1231,869,0,0
14,155,0,0,0,0,0,0,0,0,0,-1,1238,869,0,0
21,155,0,0,0,0,0,0,0,0,0,-1,1245,869,0,0
28,155,0,0,0,0,0,0,0,0,0,-1,1252,869,0,0
35,155,0,0,0,0,0,0,0,0,0,-1,1259,869,0,0
42,155,0,0,0,0,0,0,0,0,0,-1,1266,869,0,0
49,155,0,0,0,0,0,0,0,0,0,-1,1273,869,0,0
56,155,0,0,0,0,0,0,0,0,0,-1,1280,869,0,0
63,155,0,0,0,0,0,0,0,0,0,-1,1287,869,0,0
70,155,0,0,0,0,0,0,0,0,0,-1,1294,869,0,0
77,155,0,0,0,0,0,0,0,0,0,-1,1301,869,0,0
84,155,0,0,0,0,0,0,0,0,0,-1,1308,869,0,0
91,155,0,0,0,0,0,0,0,0,0,-1,1315,869,0,0
98,155,0,0,0,0,0,0,0,0,0,-1,1322,869,0,0
105,155,0,0,0,0,0,0,0,0,0,-1,1329,869,0,0
112,155,0,0,0,0,0,0,0,0,0,-1,1336,869,0,0
119,155,0,0,0,0,0,0,0,0,0,-1,1343,869,0,0
126,155,0,0,0,0,0,0,0,0,0,-1,1350,869,0,0
133,155,0,0,0,0,0,0,0,0,0,-1,1357,869,0,0
140,155,0,0,0,0,0,0,0,0,0,-1,1364,869,0,0
147,155,0,0,0,0,0,0,0,0,0,-1,1371,869,0,0
154,155,0,0,0,0,0,0,0,0,0,-1,1378,869,0,0
161,155,0,0,0,0,0,0,0,0,0,-1,1385,869,0,0
168,155,0,0,0,0,0,0,0,0,0,-1,1392,869,0,0
175,155,0,0,0,0,0,0,0,0,0,-1,1399,869,0,0
182,155,0,0,0,0,0,0,0,0,0,-1,1406,869,0,0
189,155,0,0,0,0,0,0,0,0,0,-1,1413,869,0,0
196,155,0,0,0,0,0,0,0,0,0,-1,1420,869,0,0
203,155,0,0,0,0,0,0,0,0,0,-1,1427,869,0,0
210,155,0,0,0,0,0,0,0,0,0,-1,1434,869,0,0
217,155,0,0,0,0,0,0,0,0,0,-1,1441,869,0,0
224,155,0,0,0,0,0,0,0,0,0,-1,1448,869,0,0
231,155,0,0,0,0,0,0,0,0,0,-1,1455,869,0,0
238,155,0,0,0,0,0,0,0,0,0,-1,1462,869,0,0
245,155,0,0,0,0,0,0,0,0,0,-1,1469,869,0,0
252,155,0,0,0,0,0,0,0,0,0,-1,1476,869,0,0
259,155,0,0,0,0,0,0,0,0,0,-1,1483,869,0,0
266,155,0,0,0,0,0,0,0,0,0,-1,1490,869,0,0
273,155,0,0,0,0,0,0,0,0,0,-1,1497,869,0,0
280,155,0,0,0,0,0,0,0,0,0,-1,1504,869,0,0
287,155,0,0,0,0,0,0,0,0,0,-1,1511,869,0,0
294,155,0,0,0,0,0,0,0,0,0,-1,1518,869,0,0
301,155,0,0,0,0,0,0,0,0,0,-1,1525,869,0,0
308,155,0,0,0,0,0,0,0,0,0,-1,1532,869,0,0
315,155,0,0,0,0,0,0,0,0,0,-1,1539,869,0,0
322,155,0,0,0,0,0,0,0,0,0,-1,1546,869,0,0
329,155,0,0,0,0,0,0,0,0,0,-1,1553,869,0,0
336,155,0,0,0,0,0,0,0,0,0,-1,1560,869,0,0
343,155,0,0,0,0,0,0,0,0,0,-1,1567,869,0,0
350,155,0,0,0,0,0,0,0,0,0,-1,1574,869,0,0
357,155,0,0,0,0,0,0,0,0,0,-1,1581,869,0,0
364,155,0,0,0,0,0,0,0,0,0,-1,1588,869,0,0
371,155,0,0,0,0,0,0,0,0,0,-1,1595,869,0,0
378,155,0,0,0,0,0,0,0,0,0,-1,1602,869,0,0
385,155,0,0,0,0,0,0,0,0,0,-1,1609,869,0,0
392,155,0,0,0,0,0,0,0,0,0,-1,1616,869,0,0
399,155,0,0,0,0,0,0,0,0,0,-1,1623,869,0,0
406,155,0,0,0,0,0,0,0,0,0,-1,1630,869,0,0
413,155,0,0,0,0,0,0,0,0,0,-1,1637,869,0,0
420,155,0,0,0,0,0,0,0,0,0,-1,1644,869,0,0
427,155,0,0,0,0,0,0,0,0,0,-1,1651,869,0,0
434,155,0,0,0,0,0,0,0,0,0,-1,1658,869,0,0
441,155,0,0,0,0,0,0,0,0,0,-1,1665,869,0,0
448,155,0,0,0,0,0,0,0,0,0,-1,1672,869,0,0
455,155,0,0,0,0,0,0,0,0,0,-1,1679,869,0,0
462,155,0,0,0,0,0,0,0,0,0,-1,1686,869,0,0
469,155,0,0,0,0,0,0,0,0,0,-1,1693,869,0,0
476,155,0,0,0,0,0,0,0,0,0,-1,1700,869,0,0
483,155,0,0,0,0,0,0,0,0,0,-1,1707,869,0,0
490,155,0,0,0,0,0,0,0,0,0,-1,1714,869,0,0
497,155,0,0,0,0,0,0,0,0,0,-1,1721,869,0,0
504,155,0,0,0,0,0,0,0,0,0,-1,1728,869,0,0
511,155,0,0,0,0,0,0,0,0,0,-1,1735,869,0,0
518,155,0,0,0,0,0,0,0,0,0,-1,1742,869,0,0
525,155,0,0,0,0,0,0,0,0,0,-1,1749,869,0,0
532,155,0,0,0,0,0,0,0,0,0,-1,1756,869,0,0
539,155,0,0,0,0,0,0,0,0,0,-1,1763,869,0,0
546,155,0,0,0,0,0,0,0,0,0,-1,1770,869,0,0
553,155,0,0,0,0,0,0,0,0,0,-1,1777,869,0,0
560,155,0,0,0,0,0,0,0,0,0,-1,1784,869,0,0
567,155,0,0,0,0,0,0,0,0,0,-1,1791,869,0,0
574,155,0,0,0,0,0,0,0,0,0,-1,1798,869,0,0
581,155,0,0,0,0,0,0,0,0,0,-1,1805,869,0,0
588,155,0,0,0,0,0,0,0,0,0,-1,1812,869,0,0
595,155,0,0,0,0,0,0,0,0,0,-1,1819,869,0,0
602,155,0,0,0,0,0,0,0,0,0,-1,1826,869,0,0
609,155,0,0,0,0,0,0,0,0,0,-1,1833,869,0,0
616,155,39.7202,2.6571,0.00132635,-0.00168324,-0.00346677,0.00360083,-0.00395772,-0.580638,0.00436555,0.0465251,1840,869,39.7202,-2.6571
623,155,39.7771,2.52417,0.00110131,-0.001393,-0.00236987,0.00253216,-0.00282385,-0.543183,0.00309382,0.0442088,1847,869,39.7772,-2.52416
630,155,39.6768,2.38708,0.000991801,-0.00109623,-0.00145522,0.00173877,-0.0018432,-0.474235,0.00206834,0.0435125,1854,869,39.6767,-2.38706
637,155,39.6086,2.49664,0.000992554,-0.000714791,-0.000727609,0.00126056,-0.000982801,-0.352922,0.00129851,0.0413967,1861,869,39.6086,-2.49662
644,155,39.6848,2.60522,0.000945151,-0.000672997,-0.000352796,0.00101872,-0.00074657,-0.205596,0.00102322,0.0381633,1868,869,39.6848,-2.60525
651,155,39.7136,2.59894,0.000796557,-0.000794546,-0.000266387,0.000839972,-0.000837961,-0.161555,0.000968755,0.0350813,1875,869,39.7136,-2.59894
658,155,39.7168,2.58228,0.000642788,-0.000914685,-0.000283552,0.000692804,-0.000964702,-0.174598,0.000961244,0.0298258,1882,869,39.7168,-2.5823
665,155,39.7338,2.54999,0.000530764,-0.000972541,-0.000367153,0.000615641,-0.00105742,-0.227187,0.000977102,0.0353251,1889,869,39.7337,-2.55002
672,155,39.7064,2.51166,0,0,0,0,0,0,0,-1,1896,869,39.7064,-2.51166
679,155,35.1565,2.78528,0,0,0,0,0,0,0,-1,1903,869,35.1565,-2.7853
686,155,33.3064,2.01752,0,0,0,0,0,0,0,-1,1910,869,33.3064,-2.01751
693,155,33.3616,2.32611,0.00024356,-0.000870593,-0.000734163,0.000608074,-0.00123511,-0.460846,0.00108449,0.0347156,1917,869,33.3615,-2.3261
700,155,33.4524,2.75336,0.000134484,-0.000671696,-0.000876478,0.00069612,-0.00123333,-0.569871,0.00112827,0.0253852,1924,869,33.4524,-2.75338
707,155,33.51,3.18579,0.00015293,-0.000450495,-0.00100341,0.000899004,-0.00119657,-0.639354,0.00121394,0.0187885,1931,869,33.51,-3.18582
714,155,33.4542,3.50281,0.000348523,-0.000110594,-0.00101002,0.00115474,-0.000916811,-0.673656,0.00119864,0.0343906,1938,869,33.4542,-3.50283
721,155,33.2775,3.90686,0.000862654,0.000234708,-0.00105516,0.00164956,-0.000552203,-0.64079,0.00132277,0.0289974,1945,869,33.2775,-3.90687
728,155,33.255,4.33374,0.00144604,0.000662567,-0.00100222,0.00213036,-2.17507e-05,-0.599092,0.00142754,0.0214882,1952,869,33.2551,-4.33373
735,155,33.2795,4.71222,0.00256264,0.000395092,-0.000913764,0.00289645,6.12868e-05,-0.350246,0.00191086,0.0160922,1959,869,33.2795,-4.7122
742,155,33.2633,5.10223,0.0039171,0.000192522,-0.000687952,0.00404011,6.9516e-05,-0.176931,0.00267053,0.0160098,1966,869,33.2633,-5.10222
749,155,33.1842,5.48126,0.00570627,-0.000562197,-0.000280589,0.0057188,-0.000574732,-0.0446429,0.00401784,0.0153289,1973,869,33.1842,-5.48123
756,155,33.1367,5.92651,0.00788959,-0.00196504,0.000421544,0.00790759,-0.00198304,0.0426723,0.0060422,0.0273924,1980,869,33.1367,-5.92653
763,155,33.309,6.38062,0.0105431,-0.004197,0.00158412,0.0107114,-0.00436532,0.10586,0.00895791,0.0439353,1987,869,33.3089,-6.38063
770,155,33.5065,6.8241,0.0136732,-0.00763216,0.00307042,0.0141068,-0.00806583,0.140312,0.0129588,0.0481201,1994,869,33.5065,-6.8241
777,155,33.4482,7.4754,0.0172386,-0.0126871,0.00511144,0.0180876,-0.013536,0.16459,0.0183208,0.0474453,2001,869,33.4482,-7.47542
784,155,33.5233,7.96136,0.0207082,-0.0195246,0.00750898,0.022064,-0.0208804,0.178629,0.0247971,0.0455659,2008,869,33.5233,-7.96139
791,155,0,0,0,0,0,0,0,0,0,-1,2015,869,0,0
798,155,0,0,0,0,0,0,0,0,0,-1,2022,869,0,0
805,155,0,0,0,0,0,0,0,0,0,-1,2029,869,0,0
812,155,0,0,0,0,0,0,0,0,0,-1,2036,869,0,0
-700,148,0,0,0,0,0,0,0,0,0,-1,524,876,0,0
-693,148,0,0,0,0,0,0,0,0,0,-1,531,876,0,0
-686,148,0,0,0,0,0,0,0,0,0,-1,538,876,0,0
-679,148,0,0,0,0,0,0,0,0,0,-1,545,876,0,0
-672,148,-27.9734,-2.03131,0,0,0,0,0,0,0,-1,552,876,-27.9734,2.03128
-665,148,-27.3091,-1.05292,0,0,0,0,0,0,0,-1,559,876,-27.3091,1.05292
-658,148,-26.7217,-0.242737,0,0,0,0,0,0,0,-1,566,876,-26.7217,0.242761
-651,148,-26.1381,0.517212,0,0,0,0,0,0,0,-1,573,876,-26.138,-0.517216
-644,148,-24.7071,0.455139,0,0,0,0,0,0,0,-1,580,876,-24.7071,-0.45516
-637,148,-23.9197,3.37311,0,0,0,0,0,0,0,-1,587,876,-23.9197,-3.37308
-630,148,-24.0178,3.3819,0.0397703,0.0119282,0.0279414,0.0570665,-0.005368,0.554285,0.039954,0.0481411,594,876,-24.0178,-3.38192
-623,148,-24.0543,3.28564,0.0291993,0.00884678,0.0204458,0.0418613,-0.00381526,0.554488,0.0292623,0.0240157,601,876,-24.0542,-3.28565
-616,148,-24.1847,2.83881,0.0197493,0.00607183,0.0139249,0.0284241,-0.00260302,0.557141,0.019874,0.013977,608,876,-24.1847,-2.8388
-609,148,-24.2678,2.43341,0.0119129,0.00320128,0.00853011,0.017135,-0.00202078,0.549336,0.0121531,0.0128954,615,876,-24.2678,-2.43344
-602,148,-24.2886,2.04724,0.00611009,0.00125452,0.00508041,0.009313,-0.00194838,0.562504,0.00694977,0.0125994,622,876,-24.2887,-2.04723
-595,148,-24.294,1.67468,0.00271242,-8.03342e-05,0.00277823,0.00442546,-0.00179337,0.55253,0.00369608,0.011218,629,876,-24.294,-1.67467
-588,148,-24.3285,1.26013,0.0007622,-0.00094002,0.00117782,0.00136424,-0.00154206,0.472526,0.001679,0.0198758,636,876,-24.3285,-1.26011
-581,148,-24.4478,0.963745,0.000101424,-0.00132083,0.000316455,0.000168658,-0.00138806,0.209346,0.000986414,0.0334235,643,876,-24.4477,-0.96375
-574,148,-24.1632,0.667969,-0.000158646,-0.00134004,-0.000398669,-3.67005e-05,-0.00146199,-0.296844,0.00096266,0.0366687,650,876,-24.1632,-0.667971
-567,148,-24.3652,0.266907,-7.50479e-05,-0.00131124,-0.000879679,0.000381974,-0.00176826,-0.479151,0.00132465,0.0459085,657,876,-24.3652,-0.266886
-560,148,-24.3998,-0.361328,0,0,0,0,0,0,0,-1,664,876,-24.3998,0.361354
-553,148,-18.3896,-0.00280762,0,0,0,0,0,0,0,-1,671,876,-18.3897,0.00278524
-546,148,-29.1,1.10712,0,0,0,0,0,0,0,-1,678,876,-29.0999,-1.10714
-539,148,-29.2039,0.835083,0.000595401,-0.000401638,-0.00115502,0.0013549,-0.00116113,-0.58167,0.00145407,0.0348745,685,876,-29.2039,-0.835076
-532,148,-29.2022,0.83728,0.000693594,0.000157462,-0.00107784,0.0015362,-0.000685145,-0.663518,0.0013135,0.0363163,692,876,-29.2022,-0.837309
-525,148,-29.1769,0.86615,0.000387724,0.000667928,-0.000724863,0.0012661,-0.000210452,-0.880861,0.000922259,0.0388742,699,876,-29.1769,-0.866139
-518,148,-29.2411,0.782898,0.000215343,0.00113627,0.000159224,0.00116303,0.000188592,1.40434,0.000720759,0.0428085,706,876,-29.2411,-0.782888
-511,148,-29.2125,0.965393,0.000189694,0.000787291,0.00129958,0.00182198,-0.000844996,0.898394,0.00157384,0.0421655,713,876,-29.2125,-0.965399
-504,148,-29.1507,0.929199,0.000338496,-0.000712898,0.00278519,0.00264716,-0.00302157,0.692122,0.00327522,0.0404319,720,876,-29.1507,-0.929204
-497,148,0,0,0,0,0,0,0,0,0,-1,727,876,0,0
-490,148,0,0,0,0,0,0,0,0,0,-1,734,876,0,0
-483,148,0,0,0,0,0,0,0,0,0,-1,741,876,0,0
-476,148,0,0,0,0,0,0,0,0,0,-1,748,876,0,0
-469,148,0,0,0,0,0,0,0,0,0,-1,755,876,0,0
-462,148,0,0,0,0,0,0,0,0,0,-1,762,876,0,0
-455,148,0,0,0,0,0,0,0,0,0,-1,769,876,0,0
-448,148,0,0,0,0,0,0,0,0,0,-1,776,876,0,0
-441,148,0,0,0,0,0,0,0,0,0,-1,783,876,0,0
-434,148,0,0,0,0,0,0,0,0,0,-1,790,876,0,0
-427,148,0,0,0,0,0,0,0,0,0,-1,797,876,0,0
-420,148,0,0,0,0,0,0,0,0,0,-1,804,876,0,0
-413,148,0,0,0,0,0,0,0,0,0,-1,811,876,0,0
-406,148,0,0,0,0,0,0,0,0,0,-1,818,876,0,0
-399,148,0,0,0,0,0,0,0,0,0,-1,825,876,0,0
-392,148,0,0,0,0,0,0,0,0,0,-1,832,876,0,0
-385,148,0,0,0,0,0,0,0,0,0,-1,839,876,0,0
-378,148,0,0,0,0,0,0,0,0,0,-1,846,876,0,0
-371,148,0,0,0,0,0,0,0,0,0,-1,853,876,0,0
-364,148,0,0,0,0,0,0,0,0,0,-1,860,876,0,0
-357,148,0,0,0,0,0,0,0,0,0,-1,867,876,0,0
-350,148,0,0,0,0,0,0,0,0,0,-1,874,876,0,0
-343,148,0,0,0,0,0,0,0,0,0,-1,881,876,0,0
-336,148,0,0,0,0,0,0,0,0,0,-1,888,876,0,0
-329,148,0,0,0,0,0,0,0,0,0,-1,895,876,0,0
-322,148,0,0,0,0,0,0,0,0,0,-1,902,876,0,0
-315,148,0,0,0,0,0,0,0,0,0,-1,909,876,0,0
-308,148,0,0,0,0,0,0,0,0,0,-1,916,876,0,0
-301,148,0,0,0,0,0,0,0,0,0,-1,923,876,0,0
-294,148,0,0,0,0,0,0,0,0,0,-1,930,876,0,0
-287,148,0,0,0,0,0,0,0,0,0,-1,937,876,0,0
-280,148,0,0,0,0,0,0,0,0,0,-1,944,876,0,0
-273,148,0,0,0,0,0,0,0,0,0,-1,951,876,0,0
-266,148,0,0,0,0,0,0,0,0,0,-1,958,876,0,0
-259,148,0,0,0,0,0,0,0,0,0,-1,965,876,0,0
-252,148,0,0,0,0,0,0,0,0,0,-1,972,876,0,0
-245,148,0,0,0,0,0,0,0,0,0,-1,979,876,0,0
-238,148,0,0,0,0,0,0,0,0,0,-1,986,876,0,0
-231,148,0,0,0,0,0,0,0,0,0,-1,993,876,0,0
-224,148,0,0,0,0,0,0,0,0,0,-1,1000,876,0,0
-217,148,0,0,0,0,0,0,0,0,0,-1,1007,876,0,0
-210,148,0,0,0,0,0,0,0,0,0,-1,1014,876,0,0
-203,148,0,0,0,0,0,0,0,0,0,-1,1021,876,0,0
-196,148,0,0,0,0,0,0,0,0,0,-1,1028,876,0,0
-189,148,0,0,0,0,0,0,0,0,0,-1,1035,876,0,0
-182,148,0,0,0,0,0,0,0,0,0,-1,1042,876,0,0
-175,148,0,0,0,0,0,0,0,0,0,-1,1049,876,0,0
-168,148,0,0,0,0,0,0,0,0,0,-1,1056,876,0,0
-161,148,0,0,0,0,0,0,0,0,0,-1,1063,876,0,0
-154,148,0,0,0,0,0,0,0,0,0,-1,1070,876,0,0
-147,148,0,0,0,0,0,0,0,0,0,-1,1077,876,0,0
-140,148,0,0,0,0,0,0,0,0,0,-1,1084,876,0,0
-133,148,0,0,0,0,0,0,0,0,0,-1,1091,876,0,0
-126,148,0,0,0,0,0,0,0,0,0,-1,1098,876,0,0
-119,148,0,0,0,0,0,0,0,0,0,-1,1105,876,0,0
-112,148,0,0,0,0,0,0,0,0,0,-1,1112,876,0,0
-105,148,0,0,0,0,0,0,0,0,0,-1,1119,876,0,0
-98,148,0,0,0,0,0,0,0,0,0,-1,1126,876,0,0
-91,148,0,0,0,0,0,0,0,0,0,-1,1133,876,0,0
-84,148,0,0,0,0,0,0,0,0,0,-1,1140,876,0,0
-77,148,0,0,0,0,0,0,0,0,0,-1,1147,876,0,0
-70,148,0,0,0,0,0,0,0,0,0,-1,1154,876,0,0
-63,148,0,0,0,0,0,0,0,0,0,-1,1161,876,0,0
-56,148,0,0,0,0,0,0,0,0,0,-1,1168,876,0,0
-49,148,0,0,0,0,0,0,0,0,0,-1,1175,876,0,0
-42,148,0,0,0,0,0,0,0,0,0,-1,1182,876,0,0
-35,148,0,0,0,0,0,0,0,0,0,-1,1189,876,0,0
-28,148,0,0,0,0,0,0,0,0,0,-1,1196,876,0,0
-21,148,0,0,0,0,0,0,0,0,0,-1,1203,876,0,0
-14,148,0,0,0,0,0,0,0,0,0,-1,1210,876,0,0
-7,148,0,0,0,0,0,0,0,0,0,-1,1217,876,0,0
0,148,0,0,0,0,0,0,0,0,0,-1,1224,876,0,0
7,148,0,0,0,0,0,0,0,0,0,-1,1231,876,0,0
14,148,0,0,0,0,0,0,0,0,0,-1,1238,876,0,0
21,148,0,0,0,0,0,0,0,0,0,-1,1245,876,0,0
28,148,0,0,0,0,0,0,0,0,0,-1,1252,876,0,0
35,148,0,0,0,0,0,0,0,0,0,-1,1259,876,0,0
42,148,0,0,0,0,0,0,0,0,0,-1,1266,876,0,0
49,148,0,0,0,0,0,0,0,0,0,-1,1273,876,0,0
56,148,0,0,0,0,0,0,0,0,0,-1,1280,876,0,0
63,148,0,0,0,0,0,0,0,0,0,-1,1287,876,0,0
70,148,0,0,0,0,0,0,0,0,0,-1,1294,876,0,0
77,148,0,0,0,0,0,0,0,0,0,-1,1301,876,0,0
84,148,0,0,0,0,0,0,0,0,0,-1,1308,876,0,0
91,148,0,0,0,0,0,0,0,0,0,-1,1315,876,0,0
98,148,0,0,0,0,0,0,0,0,0,-1,1322,876,0,0
105,148,0,0,0,0,0,0,0,0,0,-1,1329,876,0,0
112,148,0,0,0,0,0,0,0,0,0,-1,1336,876,0,0
119,148,0,0,0,0,0,0,0,0,0,-1,1343,876,0,0
126,148,0,0,0,0,0,0,0,0,0,-1,1350,876,0,0
133,148,0,0,0,0,0,0,0,0,0,-1,1357,876,0,0
140,148,0,0,0,0,0,0,0,0,0,-1,1364,876,0,0
147,148,0,0,0,0,0,0,0,0,0,-1,1371,876,0,0
154,148,0,0,0,0,0,0,0,0,0,-1,1378,876,0,0
161,148,0,0,0,0,0,0,0,0,0,-1,1385,876,0,0
168,148,0,0,0,0,0,0,0,0,0,-1,1392,876,0,0
175,148,0,0,0,0,0,0,0,0,0,-1,1399,876,0,0
182,148,0,0,0,0,0,0,0,0,0,-1,1406,876,0,0
189,148,0,0,0,0,0,0,0,0,0,-1,1413,876,0,0
196,148,0,0,0,0,0,0,0,0,0,-1,1420,876,0,0
203,148,0,0,0,0,0,0,0,0,0,-1,1427,876,0,0
210,148,0,0,0,0,0,0,0,0,0,-1,1434,876,0,0
217,148,0,0,0,0,0,0,0,0,0,-1,1441,876,0,0
224,148,0,0,0,0,0,0,0,0,0,-1,1448,876,0,0
231,148,0,0,0,0,0,0,0,0,0,-1,1455,876,0,0
238,148,0,0,0,0,0,0,0,0,0,-1,1462,876,0,0
245,148,0,0,0,0,0,0,0,0,0,-1,1469,876,0,0
252,148,0,0,0,0,0,0,0,0,0,-1,1476,876,0,0
259,148,0,0,0,0,0,0,0,0,0,-1,1483,876,0,0
266,148,0,0,0,0,0,0,0,0,0,-1,1490,876,0,0
273,148,0,0,0,0,0,0,0,0,0,-1,1497,876,0,0
280,148,0,0,0,0,0,0,0,0,0,-1,1504,876,0,0
287,148,0,0,0,0,0,0,0,0,0,-1,1511,876,0,0
294,148,0,0,0,0,0,0,0,0,0,-1,1518,876,0,0
301,148,0,0,0,0,0,0,0,0,0,-1,1525,876,0,0
308,148,0,0,0,0,0,0,0,0,0,-1,1532,876,0,0
315,148,0,0,0,0,0,0,0,0,0,-1,1539,876,0,0
322,148,0,0,0,0,0,0,0,0,0,-1,1546,876,0,0
329,148,0,0,0,0,0,0,0,0,0,-1,1553,876,0,0
336,148,0,0,0,0,0,0,0,0,0,-1,1560,876,0,0
343,148,0,0,0,0,0,0,0,0,0,-1,1567,876,0,0
350,148,0,0,0,0,0,0,0,0,0,-1,1574,876,0,0
357,148,0,0,0,0,0,0,0,0,0,-1,1581,876,0,0
364,148,0,0,0,0,0,0,0,0,0,-1,1588,876,0,0
371,148,0,0,0,0,0,0,0,0,0,-1,1595,876,0,0
378,148,0,0,0,0,0,0,0,0,0,-1,1602,876,0,0
385,148,0,0,0,0,0,0,0,0,0,-1,1609,876,0,0
392,148,0,0,0,0,0,0,0,0,0,-1,1616,876,0,0
399,148,0,0,0,0,0,0,0,0,0,-1,1623,876,0,0
406,148,0,0,0,0,0,0,0,0,0,-1,1630,876,0,0
413,148,0,0,0,0,0,0,0,0,0,-1,1637,876,0,0
420,148,0,0,0,0,0,0,0,0,0,-1,1644,876,0,0
427,148,0,0,0,0,0,0,0,0,0,-1,1651,876,0,0
434,148,0,0,0,0,0,0,0,0,0,-1,1658,876,0,0
441,148,0,0,0,0,0,0,0,0,0,-1,1665,876,0,0
448,148,0,0,0,0,0,0,0,0,0,-1,1672,876,0,0
455,148,0,0,0,0,0,0,0,0,0,-1,1679,876,0,0
462,148,0,0,0,0,0,0,0,0,0,-1,1686,876,0,0
469,148,0,0,0,0,0,0,0,0,0,-1,1693,876,0,0
476,148,0,0,0,0,0,0,0,0,0,-1,1700,876,0,0
483,148,0,0,0,0,0,0,0,0,0,-1,1707,876,0,0
490,148,0,0,0,0,0,0,0,0,0,-1,1714,876,0,0
497,148,0,0,0,0,0,0,0,0,0,-1,1721,876,0,0
504,148,0,0,0,0,0,0,0,0,0,-1,1728,876,0,0
511,148,0,0,0,0,0,0,0,0,0,-1,1735,876,0,0
518,148,0,0,0,0,0,0,0,0,0,-1,1742,876,0,0
525,148,0,0,0,0,0,0,0,0,0,-1,1749,876,0,0
532,148,0,0,0,0,0,0,0,0,0,-1,1756,876,0,0
539,148,0,0,0,0,0,0,0,0,0,-1,1763,876,0,0
546,148,0,0,0,0,0,0,0,0,0,-1,1770,876,0,0
553,148,0,0,0,0,0,0,0,0,0,-1,1777,876,0,0
560,148,0,0,0,0,0,0,0,0,0,-1,1784,876,0,0
567,148,0,0,0,0,0,0,0,0,0,-1,1791,876,0,0
574,148,0,0,0,0,0,0,0,0,0,-1,1798,876,0,0
581,148,0,0,0,0,0,0,0,0,0,-1,1805,876,0,0
588,148,0,0,0,0,0,0,0,0,0,-1,1812,876,0,0
595,148,0,0,0,0,0,0,0,0,0,-1,1819,876,0,0
602,148,0,0,0,0,0,0,0,0,0,-1,1826,876,0,0
609,148,0,0,0,0,0,0,0,0,0,-1,1833,876,0,0
616,148,0,0,0,0,0,0,0,0,0,-1,1840,876,0,0
623,148,39.7104,2.64502,0.00102624,-0.00292026,-0.00325555,0.00285987,-0.00475389,-0.512945,0.00444091,0.0433014,1847,876,39.7104,-2.64501
630,148,39.6429,2.54413,0.000888642,-0.00247919,-0.00212371,0.00191503,-0.00350557,-0.450196,0.00317418,0.0412748,1854,876,39.643,-2.54413
637,148,39.6412,2.55121,0.000871396,-0.00192134,-0.00126031,0.00135605,-0.00240599,-0.367115,0.00220003,0.0374874,1861,876,39.6412,-2.55123
644,148,39.7021,2.51636,0.000825329,-0.00167866,-0.000771106,0.00104374,-0.00189708,-0.276015,0.00172154,0.037035,1868,876,39.7022,-2.51635
651,148,39.7477,2.51282,0.00068765,-0.00162316,-0.00059998,0.000834142,-0.00176966,-0.239476,0.00153531,0.0385051,1875,876,39.7476,-2.51284
658,148,39.7457,2.57745,0.000547026,-0.00158763,-0.000535622,0.000673884,-0.00171449,-0.232557,0.00142189,0.0352403,1882,876,39.7457,-2.57748
665,148,39.6689,2.6546,0.000460818,-0.00153431,-0.000581456,0.000617907,-0.0016914,-0.263866,0.00138046,0.0266343,1889,876,39.669,-2.65462
672,148,39.6754,2.60126,0.000341874,-0.00157033,-0.000564407,0.000496037,-0.00172449,-0.266636,0.00134583,0.0310453,1896,876,39.6754,-2.60128
679,148,39.5706,2.77277,0,0,0,0,0,0,0,-1,1903,876,39.5705,-2.77278
686,148,21.6195,2.40845,0,0,0,0,0,0,0,-1,1910,876,21.6196,-2.40846
693,148,33.7108,2.39404,0,0,0,0,0,0,0,-1,1917,876,33.7108,-2.39403
700,148,33.8566,2.82037,0.000157168,-0.000792245,-0.000903851,0.000703389,-0.00133847,-0.543594,0.00119772,0.0261833,1924,876,33.8566,-2.82038
707,148,33.9983,3.33838,0.000196472,-0.000542358,-0.000977461,0.000871996,-0.00121788,-0.604728,0.00121209,0.0229782,1931,876,33.9983,-3.33839
714,148,34.0065,3.64307,0,0,0,0,0,0,0,-1,1938,876,34.0065,-3.64305
721,148,33.7043,3.92029,0.000822421,0.000226048,-0.000949679,0.00151963,-0.000471158,-0.633279,0.00120134,0.0194177,1945,876,33.7043,-3.92029
728,148,33.6919,4.31152,0.00127631,0.000737528,-0.000804841,0.00185565,0.00015819,-0.623902,0.00118788,0.0199151,1952,876,33.6919,-4.31154
735,148,33.7072,4.72534,0.00222852,0.000661757,-0.000505244,0.00237732,0.00051296,-0.286409,0.00144458,0.0187902,1959,876,33.7071,-4.72532
742,148,33.6674,5.13086,0.00343435,0.000717863,-3.24129e-05,0.00343474,0.000717476,-0.0119297,0.00209209,0.0192325,1966,876,33.6674,-5.13085
749,148,33.6118,5.47888,0.0050913,0.000282388,0.000657382,0.00517954,0.000194143,0.13344,0.00339017,0.0184238,1973,876,33.6118,-5.47888
756,148,33.5552,5.90192,0.00714801,-0.000599079,0.00174477,0.00752283,-0.000973897,0.211607,0.00536937,0.0238535,1980,876,33.5552,-5.90189
763,148,33.5626,6.45319,0.0096838,-0.00200502,0.00341388,0.0106078,-0.00292904,0.264334,0.00822398,0.0445802,1987,876,33.5626,-6.45318
770,148,33.8374,6.94635,0.0127802,-0.00428173,0.00556783,0.0144364,-0.00593792,0.289122,0.0120994,0.0487834,1994,876,33.8374,-6.94636
777,148,33.5735,7.42572,0,0,0,0,0,0,0,-1,2001,876,33.5735,-7.42572
784,148,34.1647,8.33008,0.0202369,-0.0122797,0.0119088,0.0241319,-0.0161747,0.316096,0.0234217,0.0441475,2008,876,34.1647,-8.33006
791,148,34.697,9.08472,0,0,0,0,0,0,0,-1,2015,876,34.6969,-9.0847
798,148,0,0,0,0,0,0,0,0,0,-1,2022,876,0,0
805,148,0,0,0,0,0,0,0,0,0,-1,2029,876,0,0
812,148,0,0,0,0,0,0,0,0,0,-1,2036,876,0,0
-700,141,0,0,0,0,0,0,0,0,0,-1,524,883,0,0
-693,141,0,0,0,0,0,0,0,0,0,-1,531,883,0,0
-686,141,0,0,0,0,0,0,0,0,0,-1,538,883,0,0
-679,141,0,0,0,0,0,0,0,0,0,-1,545,883,0,0
-672,141,-28.7582,-2.14948,0.0922888,0.0225195,0.100626,0.163905,-0.0490971,0.618543,0.128794,0.0461094,552,883,-28.7582,2.1495
-665,141,-28.1203,-1.26935,0.0915349,0.0208764,0.0867974,0.149918,-0.0375064,0.592122,0.114513,0.0456453,559,883,-28.1203,1.26932
-658,141,-27.5364,-0.498352,0.0840473,0.0183952,0.0730168,0.131277,-0.0288349,0.574151,0.0985463,0.0481838,566,883,-27.5364,0.498361
-651,141,-26.9456,0.311768,0.0736027,0.0156828,0.0600704,0.11133,-0.0220442,0.560786,0.0825547,0.0467632,573,883,-26.9456,-0.311738
-644,141,-25.7719,0.744324,0.0619888,0.0129821,0.0482952,0.0916412,-0.0166703,0.550637,0.0673422,0.046066,580,883,-25.7719,-0.744342
-637,141,-24.3187,4.15698,0,0,0,0,0,0,0,-1,587,883,-24.3187,-4.15696
-630,141,-24.423,3.77948,0.038849,0.00824588,0.0289953,0.0563326,-0.00923772,0.542608,0.0409828,0.0430198,594,883,-24.423,-3.77948
-623,141,-24.3987,3.22174,0.0286416,0.00629795,0.0214208,0.0416289,-0.00668929,0.545032,0.03023,0.0275155,601,883,-24.3987,-3.22172
-616,141,-24.5801,2.79773,0.0190903,0.00422561,0.0145904,0.0280324,-0.00471643,0.549829,0.0204426,0.0139734,608,883,-24.5801,-2.79771
-609,141,-24.6608,2.43555,0.0111459,0.00198298,0.00886586,0.0165441,-0.0034152,0.546918,0.0123265,0.0144622,615,883,-24.6608,-2.43553
-602,141,-24.6526,2.05249,0.00535505,0.000681328,0.00529167,0.00880289,-0.00276651,0.57747,0.00697608,0.0132168,622,883,-24.6526,-2.05249
-595,141,-24.6457,1.66406,0.00214685,-0.000342321,0.00290484,0.0040625,-0.00225797,0.583003,0.00369837,0.0124715,629,883,-24.6457,-1.66408
-588,141,-24.9131,1.3075,0.000357325,-0.000985651,0.00129047,0.00114055,-0.00176888,0.545503,0.00169277,0.0248008,636,883,-24.9131,-1.3075
-581,141,-24.8444,0.991394,-0.000328938,-0.00124307,0.000427649,-0.00016007,-0.00141193,0.376081,0.000892729,0.0329766,643,883,-24.8444,-0.991388
-574,141,-24.5373,0.742737,-0.000623058,-0.0011938,-0.000295067,-0.00049794,-0.00131892,-0.401051,0.000769053,0.0427715,650,883,-24.5373,-0.742729
-567,141,-24.5696,0.402466,-0.000519095,-0.0012714,-0.000781097,-2.82954e-05,-0.00176219,-0.561002,0.00116548,0.0397635,657,883,-24.5697,-0.40245
-560,141,-24.5566,0.169434,0,0,0,0,0,0,0,-1,664,883,-24.5566,-0.169426
-553,141,-29.1418,0.98175,0,0,0,0,0,0,0,-1,671,883,-29.1418,-0.981752
-546,141,-29.212,0.920044,9.76874e-05,-0.000992659,-0.00101831,0.00070758,-0.00160255,-0.539628,0.00136671,0.0460367,678,883,-29.212,-0.920065
-539,141,-29.2138,0.810364,0.000273189,-0.000669115,-0.00110004,0.000998732,-0.00139466,-0.583066,0.00138811,0.0291174,685,883,-29.2138,-0.810362
-532,141,-29.228,0.800232,0.000362744,-0.000221615,-0.000948921,0.00106345,-0.000922321,-0.63605,0.00114745,0.0304397,692,883,-29.228,-0.800248
-525,141,-29.221,0.81012,2.47933e-05,0.000194633,-0.000465425,0.000582822,-0.000363395,-0.875634,0.000551173,0.0392336,699,883,-29.221,-0.810129
-518,141,-29.2356,0.942322,-0.000254408,0.000553767,0.000572948,0.00085079,-0.00055143,1.09253,0.000815699,0.0431859,706,883,-29.2356,-0.94235
-511,141,-29.3109,1.04193,-0.000679572,0.000123223,0.00187147,0.00163586,-0.00219221,0.891039,0.0022179,0.042108,713,883,-29.3109,-1.04194
-504,141,-29.2747,1.01971,-0.00103775,-0.00110266,0.00353218,0.00246212,-0.00460254,0.780804,0.00414072,0.0407484,720,883,-29.2746,-1.0197
-497,141,0,0,0,0,0,0,0,0,0,-1,727,883,0,0
-490,141,0,0,0,0,0,0,0,0,0,-1,734,883,0,0
-483,141,0,0,0,0,0,0,0,0,0,-1,741,883,0,0
-476,141,0,0,0,0,0,0,0,0,0,-1,748,883,0,0
-469,141,0,0,0,0,0,0,0,0,0,-1,755,883,0,0
-462,141,0,0,0,0,0,0,0,0,0,-1,762,883,0,0
-455,141,0,0,0,0,0,0,0,0,0,-1,769,883,0,0
-448,141,0,0,0,0,0,0,0,0,0,-1,776,883,0,0
-441,141,0,0,0,0,0,0,0,0,0,-1,783,883,0,0
-434,141,0,0,0,0,0,0,0,0,0,-1,790,883,0,0
-427,141,0,0,0,0,0,0,0,0,0,-1,797,883,0,0
-420,141,0,0,0,0,0,0,0,0,0,-1,804,883,0,0
-413,141,0,0,0,0,0,0,0,0,0,-1,811,883,0,0
-406,141,0,0,0,0,0,0,0,0,0,-1,818,883,0,0
-399,141,0,0,0,0,0,0,0,0,0,-1,825,883,0,0
-392,141,0,0,0,0,0,0,0,0,0,-1,832,883,0,0
-385,141,0,0,0,0,0,0,0,0,0,-1,839,883,0,0
-378,141,0,0,0,0,0,0,0,0,0,-1,846,883,0,0
-371,141,0,0,0,0,0,0,0,0,0,-1,853,883,0,0
-364,141,0,0,0,0,0,0,0,0,0,-1,860,883,0,0
-357,141,0,0,0,0,0,0,0,0,0,-1,867,883,0,0
-350,141,0,0,0,0,0,0,0,0,0,-1,874,883,0,0
-343,141,0,0,0,0,0,0,0,0,0,-1,881,883,0,0
-336,141,0,0,0,0,0,0,0,0,0,-1,888,883,0,0
-329,141,0,0,0,0,0,0,0,0,0,-1,895,883,0,0
-322,141,0,0,0,0,0,0,0,0,0,-1,902,883,0,0
-315,141,0,0,0,0,0,0,0,0,0,-1,909,883,0,0
-308,141,0,0,0,0,0,0,0,0,0,-1,916,883,0,0
-301,141,0,0,0,0,0,0,0,0,0,-1,923,883,0,0
-294,141,0,0,0,0,0,0,0,0,0,-1,930,883,0,0
-287,141,0,0,0,0,0,0,0,0,0,-1,937,883,0,0
-280,141,0,0,0,0,0,0,0,0,0,-1,944,883,0,0
-273,141,0,0,0,0,0,0,0,0,0,-1,951,883,0,0
-266,141,0,0,0,0,0,0,0,0,0,-1,958,883,0,0
-259,141,0,0,0,0,0,0,0,0,0,-1,965,883,0,0
-252,141,0,0,0,0,0,0,0,0,0,-1,972,883,0,0
-245,141,0,0,0,0,0,0,0,0,0,-1,979,883,0,0
-238,141,0,0,0,0,0,0,0,0,0,-1,986,883,0,0
-231,141,0,0,0,0,0,0,0,0,0,-1,993,883,0,0
-224,141,0,0,0,0,0,0,0,0,0,-1,1000,883,0,0
-217,141,0,0,0,0,0,0,0,0,0,-1,1007,883,0,0
-210,141,0,0,0,0,0,0,0,0,0,-1,1014,883,0,0
-203,141,0,0,0,0,0,0,0,0,0,-1,1021,883,0,0
-196,141,0,0,0,0,0,0,0,0,0,-1,1028,883,0,0
-189,141,0,0,0,0,0,0,0,0,0,-1,1035,883,0,0
-182,141,0,0,0,0,0,0,0,0,0,-1,1042,883,0,0
-175,141,0,0,0,0,0,0,0,0,0,-1,1049,883,0,0
-168,141,0,0,0,0,0,0,0,0,0,-1,1056,883,0,0
-161,141,0,0,0,0,0,0,0,0,0,-1,1063,883,0,0
-154,141,0,0,0,0,0,0,0,0,0,-1,1070,883,0,0
-147,141,0,0,0,0,0,0,0,0,0,-1,1077,883,0,0
-140,141,0,0,0,0,0,0,0,0,0,-1,1084,883,0,0
-133,141,0,0,0,0,0,0,0,0,0,-1,1091,883,0,0
-126,141,0,0,0,0,0,0,0,0,0,-1,1098,883,0,0
-119,141,0,0,0,0,0,0,0,0,0,-1,1105,883,0,0
-112,141,0,0,0,0,0,0,0,0,0,-1,1112,883,0,0
-105,141,0,0,0,0,0,0,0,0,0,-1,1119,883,0,0
-98,141,0,0,0,0,0,0,0,0,0,-1,1126,883,0,0
-91,141,0,0,0,0,0,0,0,0,0,-1,1133,883,0,0
-84,141,0,0,0,0,0,0,0,0,0,-1,1140,883,0,0
-77,141,0,0,0,0,0,0,0,0,0,-1,1147,883,0,0
-70,141,0,0,0,0,0,0,0,0,0,-1,1154,883,0,0
-63,141,0,0,0,0,0,0,0,0,0,-1,1161,883,0,0
-56,141,0,0,0,0,0,0,0,0,0,-1,1168,883,0,0
-49,141,0,0,0,0,0,0,0,0,0,-1,1175,883,0,0
-42,141,0,0,0,0,0,0,0,0,0,-1,1182,883,0,0
-35,141,0,0,0,0,0,0,0,0,0,-1,1189,883,0,0
-28,141,0,0,0,0,0,0,0,0,0,-1,1196,883,0,0
-21,141,0,0,0,0,0,0,0,0,0,-1,1203,883,0,0
-14,141,0,0,0,0,0,0,0,0,0,-1,1210,883,0,0
-7,141,0,0,0,0,0,0,0,0,0,-1,1217,883,0,0
0,141,0,0,0,0,0,0,0,0,0,-1,1224,883,0,0
7,141,0,0,0,0,0,0,0,0,0,-1,1231,883,0,0
14,141,0,0,0,0,0,0,0,0,0,-1,1238,883,0,0
21,141,0,0,0,0,0,0,0,0,0,-1,1245,883,0,0
28,141,0,0,0,0,0,0,0,0,0,-1,1252,883,0,0
35,141,0,0,0,0,0,0,0,0,0,-1,1259,883,0,0
42,141,0,0,0,0,0,0,0,0,0,-1,1266,883,0,0
49,141,0,0,0,0,0,0,0,0,0,-1,1273,883,0,0
56,141,0,0,0,0,0,0,0,0,0,-1,1280,883,0,0
63,141,0,0,0,0,0,0,0,0,0,-1,1287,883,0,0
70,141,0,0,0,0,0,0,0,0,0,-1,1294,883,0,0
77,141,0,0,0,0,0,0,0,0,0,-1,1301,883,0,0
84,141,0,0,0,0,0,0,0,0,0,-1,1308,883,0,0
91,141,0,0,0,0,0,0,0,0,0,-1,1315,883,0,0
98,141,0,0,0,0,0,0,0,0,0,-1,1322,883,0,0
105,141,0,0,0,0,0,0,0,0,0,-1,1329,883,0,0
112,141,0,0,0,0,0,0,0,0,0,-1,1336,883,0,0
119,141,0,0,0,0,0,0,0,0,0,-1,1343,883,0,0
126,141,0,0,0,0,0,0,0,0,0,-1,1350,883,0,0
133,141,0,0,0,0,0,0,0,0,0,-1,1357,883,0,0
140,141,0,0,0,0,0,0,0,0,0,-1,1364,883,0,0
147,141,0,0,0,0,0,0,0,0,0,-1,1371,883,0,0
154,141,0,0,0,0,0,0,0,0,0,-1,1378,883,0,0
161,141,0,0,0,0,0,0,0,0,0,-1,1385,883,0,0
168,141,0,0,0,0,0,0,0,0,0,-1,1392,883,0,0
175,141,0,0,0,0,0,0,0,0,0,-1,1399,883,0,0
182,141,0,0,0,0,0,0,0,0,0,-1,1406,883,0,0
189,141,0,0,0,0,0,0,0,0,0,-1,1413,883,0,0
196,141,0,0,0,0,0,0,0,0,0,-1,1420,883,0,0
203,141,0,0,0,0,0,0,0,0,0,-1,1427,883,0,0
210,141,0,0,0,0,0,0,0,0,0,-1,1434,883,0,0
217,141,0,0,0,0,0,0,0,0,0,-1,1441,883,0,0
224,141,0,0,0,0,0,0,0,0,0,-1,1448,883,0,0
231,141,0,0,0,0,0,0,0,0,0,-1,1455,883,0,0
238,141,0,0,0,0,0,0,0,0,0,-1,1462,883,0,0
245,141,0,0,0,0,0,0,0,0,0,-1,1469,883,0,0
252,141,0,0,0,0,0,0,0,0,0,-1,1476,883,0,0
259,141,0,0,0,0,0,0,0,0,0,-1,1483,883,0,0
266,141,0,0,0,0,0,0,0,0,0,-1,1490,883,0,0
273,141,0,0,0,0,0,0,0,0,0,-1,1497,883,0,0
280,141,0,0,0,0,0,0,0,0,0,-1,1504,883,0,0
287,141,0,0,0,0,0,0,0,0,0,-1,1511,883,0,0
294,141,0,0,0,0,0,0,0,0,0,-1,1518,883,0,0
301,141,0,0,0,0,0,0,0,0,0,-1,1525,883,0,0
308,141,0,0,0,0,0,0,0,0,0,-1,1532,883,0,0
315,141,0,0,0,0,0,0,0,0,0,-1,1539,883,0,0
322,141,0,0,0,0,0,0,0,0,0,-1,1546,883,0,0
329,141,0,0,0,0,0,0,0,0,0,-1,1553,883,0,0
336,141,0,0,0,0,0,0,0,0,0,-1,1560,883,0,0
343,141,0,0,0,0,0,0,0,0,0,-1,1567,883,0,0
350,141,0,0,0,0,0,0,0,0,0,-1,1574,883,0,0
357,141,0,0,0,0,0,0,0,0,0,-1,1581,883,0,0
364,141,0,0,0,0,0,0,0,0,0,-1,1588,883,0,0
371,141,0,0,0,0,0,0,0,0,0,-1,1595,883,0,0
378,141,0,0,0,0,0,0,0,0,0,-1,1602,883,0,0
385,141,0,0,0,0,0,0,0,0,0,-1,1609,883,0,0
392,141,0,0,0,0,0,0,0,0,0,-1,1616,883,0,0
399,141,0,0,0,0,0,0,0,0,0,-1,1623,883,0,0
406,141,0,0,0,0,0,0,0,0,0,-1,1630,883,0,0
413,141,0,0,0,0,0,0,0,0,0,-1,1637,883,0,0
420,141,0,0,0,0,0,0,0,0,0,-1,1644,883,0,0
427,141,0,0,0,0,0,0,0,0,0,-1,1651,883,0,0
434,141,0,0,0,0,0,0,0,0,0,-1,1658,883,0,0
441,141,0,0,0,0,0,0,0,0,0,-1,1665,883,0,0
448,141,0,0,0,0,0,0,0,0,0,-1,1672,883,0,0
455,141,0,0,0,0,0,0,0,0,0,-1,1679,883,0,0
462,141,0,0,0,0,0,0,0,0,0,-1,1686,883,0,0
469,141,0,0,0,0,0,0,0,0,0,-1,1693,883,0,0
476,141,0,0,0,0,0,0,0,0,0,-1,1700,883,0,0
483,141,0,0,0,0,0,0,0,0,0,-1,1707,883,0,0
490,141,0,0,0,0,0,0,0,0,0,-1,1714,883,0,0
497,141,0,0,0,0,0,0,0,0,0,-1,1721,883,0,0
504,141,0,0,0,0,0,0,0,0,0,-1,1728,883,0,0
511,141,0,0,0,0,0,0,0,0,0,-1,1735,883,0,0
518,141,0,0,0,0,0,0,0,0,0,-1,1742,883,0,0
525,141,0,0,0,0,0,0,0,0,0,-1,1749,883,0,0
532,141,0,0,0,0,0,0,0,0,0,-1,1756,883,0,0
539,141,0,0,0,0,0,0,0,0,0,-1,1763,883,0,0
546,141,0,0,0,0,0,0,0,0,0,-1,1770,883,0,0
553,141,0,0,0,0,0,0,0,0,0,-1,1777,883,0,0
560,141,0,0,0,0,0,0,0,0,0,-1,1784,883,0,0
567,141,0,0,0,0,0,0,0,0,0,-1,1791,883,0,0
574,141,0,0,0,0,0,0,0,0,0,-1,1798,883,0,0
581,141,0,0,0,0,0,0,0,0,0,-1,1805,883,0,0
588,141,0,0,0,0,0,0,0,0,0,-1,1812,883,0,0
595,141,0,0,0,0,0,0,0,0,0,-1,1819,883,0,0
602,141,0,0,0,0,0,0,0,0,0,-1,1826,883,0,0
609,141,0,0,0,0,0,0,0,0,0,-1,1833,883,0,0
616,141,0,0,0,0,0,0,0,0,0,-1,1840,883,0,0
623,141,39.734,2.73932,0.000699016,-0.00451441,-0.00409792,0.00294904,-0.00676443,-0.502125,0.00575048,0.0465011,1847,883,39.734,-2.73932
630,141,39.6702,2.68469,0.000630023,-0.00378696,-0.00282394,0.00200651,-0.00516345,-0.453545,0.00427124,0.0451443,1854,883,39.6702,-2.68469
637,141,39.677,2.56433,0.0006544,-0.00296739,-0.00189577,0.0014652,-0.00377819,-0.404147,0.00312391,0.0414849,1861,883,39.677,-2.56434
644,141,39.6755,2.47992,0.000646395,-0.00244616,-0.0013208,0.00113371,-0.00293347,-0.353458,0.00242361,0.038895,1868,883,39.6755,-2.47991
651,141,39.8025,2.5495,0.000551001,-0.00214849,-0.00105217,0.000912649,-0.00251014,-0.331067,0.00204663,0.038784,1875,883,39.8024,-2.54953
658,141,39.8196,2.50812,0.000448037,-0.00191496,-0.000886356,0.00074355,-0.00221047,-0.321814,0.00177422,0.0369568,1882,883,39.8196,-2.5081
665,141,39.6884,2.57446,0.000412586,-0.00173504,-0.000857348,0.000712863,-0.00203532,-0.336887,0.00164676,0.0273972,1889,883,39.6884,-2.57445
672,141,39.663,2.62915,0.00036245,-0.00166915,-0.000785134,0.000630505,-0.00193721,-0.329005,0.00154513,0.0229521,1896,883,39.6629,-2.62915
679,141,39.67,2.57709,0.000377804,-0.00152905,-0.000746058,0.000635007,-0.00178625,-0.33199,0.00144963,0.0404541,1903,883,39.67,-2.57708
686,141,39.7064,2.45819,0,0,0,0,0,0,0,-1,1910,883,39.7064,-2.45816
693,141,33.8467,2.28442,0,0,0,0,0,0,0,-1,1917,883,33.8467,-2.28441
700,141,34.2272,2.81714,0.000184268,-0.000722033,-0.00089749,0.00073652,-0.00127429,-0.551615,0.0011747,0.024326,1924,883,34.2272,-2.81717
707,141,34.2388,3.26343,0.00023213,-0.000485169,-0.00091262,0.000854044,-0.00110708,-0.598174,0.00113539,0.0223283,1931,883,34.2388,-3.26341
714,141,34.0667,3.55121,0.000386129,-0.000105167,-0.000858921,0.00103384,-0.000752877,-0.646118,0.0010358,0.0222681,1938,883,34.0666,-3.55123
721,141,34.0784,3.91168,0.000752852,0.000262468,-0.000827264,0.0013705,-0.000355175,-0.641328,0.00105223,0.0136802,1945,883,34.0784,-3.91165
728,141,34.1082,4.27533,0.00105883,0.000800979,-0.000624773,0.00156784,0.000291968,-0.683648,0.000962777,0.0147423,1952,883,34.1081,-4.27533
735,141,34.0857,4.73431,0.00182562,0.000949241,-0.000161535,0.00185444,0.000920415,-0.176593,0.00107067,0.0164606,1959,883,34.0857,-4.73428
742,141,34.049,5.1377,0.00289525,0.00134706,0.000536758,0.00306314,0.00117917,0.303141,0.00178404,0.0170188,1966,883,34.049,-5.13771
749,141,34.043,5.46136,0.00442271,0.001341,0.00148728,0.00502341,0.000740303,0.383854,0.00313148,0.0137382,1973,883,34.0429,-5.46135
756,141,34.0548,5.89124,0.00636883,0.00108817,0.0029341,0.00767568,-0.000218686,0.419024,0.00519155,0.0210351,1980,883,34.0548,-5.89125
763,141,34.0754,6.43915,0.00880928,0.000607238,0.00507205,0.0112308,-0.00181432,0.445431,0.00815952,0.0465484,1987,883,34.0754,-6.43915
770,141,34.0811,6.96002,0,0,0,0,0,0,0,-1,1994,883,34.081,-6.96004
777,141,34.2706,8.1571,0,0,0,0,0,0,0,-1,2001,883,34.2706,-8.15708
784,141,35.0129,9.01959,0,0,0,0,0,0,0,-1,2008,883,35.0129,-9.01961
791,141,35.4685,9.67169,0,0,0,0,0,0,0,-1,2015,883,35.4684,-9.67168
798,141,0,0,0,0,0,0,0,0,0,-1,2022,883,0,0
805,141,0,0,0,0,0,0,0,0,0,-1,2029,883,0,0
812,141,0,0,0,0,0,0,0,0,0,-1,2036,883,0,0
-700,134,0,0,0,0,0,0,0,0,0,-1,524,890,0,0
-693,134,0,0,0,0,0,0,0,0,0,-1,531,890,0,0
-686,134,0,0,0,0,0,0,0,0,0,-1,538,890,0,0
-679,134,0,0,0,0,0,0,0,0,0,-1,545,890,0,0
-672,134,-29.5861,-2.10614,0.078026,0.00538892,0.0915106,0.140162,-0.0567468,0.596492,0.117036,0.0488294,552,890,-29.5861,2.10612
-665,134,-28.9567,-1.52582,0.0784352,0.00711596,0.0799892,0.130353,-0.0448023,0.575718,0.10507,0.046247,559,890,-28.9567,1.52581
-658,134,-28.3708,-0.712708,0.0727843,0.00730371,0.0680616,0.115571,-0.0354829,0.561216,0.0912054,0.0441735,566,890,-28.3708,0.712694
-651,134,-27.7507,0.148071,0.0642667,0.00671781,0.0565592,0.0989502,-0.0279657,0.550087,0.0770005,0.0449926,573,890,-27.7507,-0.148084
-644,134,-26.9927,1.05829,0.0544561,0.00574819,0.0459087,0.0820706,-0.0218663,0.541529,0.0632747,0.047525,580,890,-26.9927,-1.05827
-637,134,-26.1803,1.60028,0,0,0,0,0,0,0,-1,587,890,-26.1803,-1.60026
-630,134,-24.7365,3.39355,0,0,0,0,0,0,0,-1,594,890,-24.7365,-3.39357
-623,134,-24.8364,3.10931,0.0257279,0.00306857,0.0209832,0.0382447,-0.00944825,0.537855,0.0291606,0.0263593,601,890,-24.8364,-3.10933
-616,134,-24.9708,2.75977,0.0169458,0.00177882,0.014314,0.0255611,-0.0068365,0.5418,0.0197186,0.0133083,608,890,-24.9708,-2.75979
-609,134,-25.0322,2.41022,0.00953841,0.000308261,0.00863979,0.0147185,-0.00487181,0.540096,0.0117771,0.0126418,615,890,-25.0322,-2.4102
-602,134,-25.0317,2.03882,0.0041962,-0.000311865,0.00524956,0.00765519,-0.00377085,0.582613,0.00672269,0.0135408,622,890,-25.0317,-2.03883
-595,134,-25.0046,1.70715,0.00136499,-0.000946432,0.00298127,0.00340671,-0.00298816,0.600488,0.00369472,0.0171231,629,890,-25.0046,-1.70715
-588,134,-25.3632,1.43237,-0.000219562,-0.00136065,0.00143723,0.000756231,-0.00233644,0.596451,0.00186163,0.0309981,636,890,-25.3632,-1.43239
-581,134,-25.2614,0.907288,-0.000877304,-0.00143195,0.000567992,-0.000522549,-0.00178671,0.558296,0.00106076,0.0446946,643,890,-25.2614,-0.907285
-574,134,-25.1037,0.325684,0,0,0,0,0,0,0,-1,650,890,-25.1037,-0.325655
-567,134,-24.8189,0.296143,0,0,0,0,0,0,0,-1,657,890,-24.8189,-0.29613
-560,134,-22.9123,0.106567,0,0,0,0,0,0,0,-1,664,890,-22.9123,-0.106594
-553,134,-29.2135,0.699097,0,0,0,0,0,0,0,-1,671,890,-29.2135,-0.699124
-546,134,-29.2336,0.739807,-0.000321956,-0.00120602,-0.00101355,0.000341754,-0.00186973,-0.57977,0.00137464,0.0287459,678,890,-29.2336,-0.739792
-539,134,-29.2248,0.771912,-0.000108277,-0.000879631,-0.001093,0.000665092,-0.001653,-0.615787,0.00137827,0.0177916,685,890,-29.2248,-0.77192
-532,134,-29.2144,0.801453,-2.29181e-05,-0.000455106,-0.000944546,0.000729938,-0.00120796,-0.672943,0.00113014,0.0249053,692,890,-29.2144,-0.801433
-525,134,-29.1934,0.843994,-0.000370395,-2.08244e-05,-0.000456704,0.000293398,-0.000684617,-0.968155,0.000579521,0.0375362,699,890,-29.1934,-0.84397
-518,134,-29.1083,0.928528,-0.000798551,0.000369743,0.00050761,0.000559479,-0.000988288,1.21309,0.000904963,0.0423472,706,890,-29.1083,-0.928509
-511,134,-29.0754,1.05609,-0.00158017,0.000140133,0.00164886,0.00113971,-0.00257974,1.02581,0.00220042,0.0448542,713,890,-29.0753,-1.05607
-504,134,0,0,0,0,0,0,0,0,0,-1,720,890,0,0
-497,134,0,0,0,0,0,0,0,0,0,-1,727,890,0,0
-490,134,0,0,0,0,0,0,0,0,0,-1,734,890,0,0
-483,134,0,0,0,0,0,0,0,0,0,-1,741,890,0,0
-476,134,0,0,0,0,0,0,0,0,0,-1,748,890,0,0
-469,134,0,0,0,0,0,0,0,0,0,-1,755,890,0,0
-462,134,0,0,0,0,0,0,0,0,0,-1,762,890,0,0
-455,134,0,0,0,0,0,0,0,0,0,-1,769,890,0,0
-448,134,0,0,0,0,0,0,0,0,0,-1,776,890,0,0
-441,134,0,0,0,0,0,0,0,0,0,-1,783,890,0,0
-434,134,0,0,0,0,0,0,0,0,0,-1,790,890,0,0
-427,134,0,0,0,0,0,0,0,0,0,-1,797,890,0,0
-420,134,0,0,0,0,0,0,0,0,0,-1,804,890,0,0
-413,134,0,0,0,0,0,0,0,0,0,-1,811,890,0,0
-406,134,0,0,0,0,0,0,0,0,0,-1,818,890,0,0
-399,134,0,0,0,0,0,0,0,0,0,-1,825,890,0,0
-392,134,0,0,0,0,0,0,0,0,0,-1,832,890,0,0
-385,134,0,0,0,0,0,0,0,0,0,-1,839,890,0,0
-378,134,0,0,0,0,0,0,0,0,0,-1,846,890,0,0
-371,134,0,0,0,0,0,0,0,0,0,-1,853,890,0,0
-364,134,0,0,0,0,0,0,0,0,0,-1,860,890,0,0
-357,134,0,0,0,0,0,0,0,0,0,-1,867,890,0,0
-350,134,0,0,0,0,0,0,0,0,0,-1,874,890,0,0
-343,134,0,0,0,0,0,0,0,0,0,-1,881,890,0,0
-336,134,0,0,0,0,0,0,0,0,0,-1,888,890,0,0
-329,134,0,0,0,0,0,0,0,0,0,-1,895,890,0,0
-322,134,0,0,0,0,0,0,0,0,0,-1,902,890,0,0
-315,134,0,0,0,0,0,0,0,0,0,-1,909,890,0,0
-308,134,0,0,0,0,0,0,0,0,0,-1,916,890,0,0
-301,134,0,0,0,0,0,0,0,0,0,-1,923,890,0,0
-294,134,0,0,0,0,0,0,0,0,0,-1,930,890,0,0
-287,134,0,0,0,0,0,0,0,0,0,-1,937,890,0,0
-280,134,0,0,0,0,0,0,0,0,0,-1,944,890,0,0
-273,134,0,0,0,0,0,0,0,0,0,-1,951,890,0,0
-266,134,0,0,0,0,0,0,0,0,0,-1,958,890,0,0
-259,134,0,0,0,0,0,0,0,0,0,-1,965,890,0,0
-252,134,0,0,0,0,0,0,0,0,0,-1,972,890,0,0
-245,134,0,0,0,0,0,0,0,0,0,-1,979,890,0,0
-238,134,0,0,0,0,0,0,0,0,0,-1,986,890,0,0
-231,134,0,0,0,0,0,0,0,0,0,-1,993,890,0,0
-224,134,0,0,0,0,0,0,0,0,0,-1,1000,890,0,0
-217,134,0,0,0,0,0,0,0,0,0,-1,1007,890,0,0
-210,134,0,0,0,0,0,0,0,0,0,-1,1014,890,0,0
-203,134,0,0,0,0,0,0,0,0,0,-1,1021,890,0,0
-196,134,0,0,0,0,0,0,0,0,0,-1,1028,890,0,0
-189,134,0,0,0,0,0,0,0,0,0,-1,1035,890,0,0
-182,134,0,0,0,0,0,0,0,0,0,-1,1042,890,0,0
-175,134,0,0,0,0,0,0,0,0,0,-1,1049,890,0,0
-168,134,0,0,0,0,0,0,0,0,0,-1,1056,890,0,0
-161,134,0,0,0,0,0,0,0,0,0,-1,1063,890,0,0
-154,134,0,0,0,0,0,0,0,0,0,-1,1070,890,0,0
-147,134,0,0,0,0,0,0,0,0,0,-1,1077,890,0,0
-140,134,0,0,0,0,0,0,0,0,0,-1,1084,890,0,0
-133,134,0,0,0,0,0,0,0,0,0,-1,1091,890,0,0
-126,134,0,0,0,0,0,0,0,0,0,-1,1098,890,0,0
-119,134,0,0,0,0,0,0,0,0,0,-1,1105,890,0,0
-112,134,0,0,0,0,0,0,0,0,0,-1,1112,890,0,0
-105,134,0,0,0,0,0,0,0,0,0,-1,1119,890,0,0
-98,134,0,0,0,0,0,0,0,0,0,-1,1126,890,0,0
-91,134,0,0,0,0,0,0,0,0,0,-1,1133,890,0,0
-84,134,0,0,0,0,0,0,0,0,0,-1,1140,890,0,0
-77,134,0,0,0,0,0,0,0,0,0,-1,1147,890,0,0
-70,134,0,0,0,0,0,0,0,0,0,-1,1154,890,0,0
-63,134,0,0,0,0,0,0,0,0,0,-1,1161,890,0,0
-56,134,0,0,0,0,0,0,0,0,0,-1,1168,890,0,0
-49,134,0,0,0,0,0,0,0,0,0,-1,1175,890,0,0
-42,134,0,0,0,0,0,0,0,0,0,-1,1182,890,0,0
-35,134,0,0,0,0,0,0,0,0,0,-1,1189,890,0,0
-28,134,0,0,0,0,0,0,0,0,0,-1,1196,890,0,0
-21,134,0,0,0,0,0,0,0,0,0,-1,1203,890,0,0
-14,134,0,0,0,0,0,0,0,0,0,-1,1210,890,0,0
-7,134,0,0,0,0,0,0,0,0,0,-1,1217,890,0,0
0,134,0,0,0,0,0,0,0,0,0,-1,1224,890,0,0
7,134,0,0,0,0,0,0,0,0,0,-1,1231,890,0,0
14,134,0,0,0,0,0,0,0,0,0,-1,1238,890,0,0
21,134,0,0,0,0,0,0,0,0,0,-1,1245,890,0,0
28,134,0,0,0,0,0,0,0,0,0,-1,1252,890,0,0
35,134,0,0,0,0,0,0,0,0,0,-1,1259,890,0,0
42,134,0,0,0,0,0,0,0,0,0,-1,1266,890,0,0
49,134,0,0,0,0,0,0,0,0,0,-1,1273,890,0,0
56,134,0,0,0,0,0,0,0,0,0,-1,1280,890,0,0
63,134,0,0,0,0,0,0,0,0,0,-1,1287,890,0,0
70,134,0,0,0,0,0,0,0,0,0,-1,1294,890,0,0
77,134,0,0,0,0,0,0,0,0,0,-1,1301,890,0,0
84,134,0,0,0,0,0,0,0,0,0,-1,1308,890,0,0
91,134,0,0,0,0,0,0,0,0,0,-1,1315,890,0,0
98,134,0,0,0,0,0,0,0,0,0,-1,1322,890,0,0
105,134,0,0,0,0,0,0,0,0,0,-1,1329,890,0,0
112,134,0,0,0,0,0,0,0,0,0,-1,1336,890,0,0
119,134,0,0,0,0,0,0,0,0,0,-1,1343,890,0,0
126,134,0,0,0,0,0,0,0,0,0,-1,1350,890,0,0
133,134,0,0,0,0,0,0,0,0,0,-1,1357,890,0,0
140,134,0,0,0,0,0,0,0,0,0,-1,1364,890,0,0
147,134,0,0,0,0,0,0,0,0,0,-1,1371,890,0,0
154,134,0,0,0,0,0,0,0,0,0,-1,1378,890,0,0
161,134,0,0,0,0,0,0,0,0,0,-1,1385,890,0,0
168,134,0,0,0,0,0,0,0,0,0,-1,1392,890,0,0
175,134,0,0,0,0,0,0,0,0,0,-1,1399,890,0,0
182,134,0,0,0,0,0,0,0,0,0,-1,1406,890,0,0
189,134,0,0,0,0,0,0,0,0,0,-1,1413,890,0,0
196,134,0,0,0,0,0,0,0,0,0,-1,1420,890,0,0
203,134,0,0,0,0,0,0,0,0,0,-1,1427,890,0,0
210,134,0,0,0,0,0,0,0,0,0,-1,1434,890,0,0
217,134,0,0,0,0,0,0,0,0,0,-1,1441,890,0,0
224,134,0,0,0,0,0,0,0,0,0,-1,1448,890,0,0
231,134,0,0,0,0,0,0,0,0,0,-1,1455,890,0,0
238,134,0,0,0,0,0,0,0,0,0,-1,1462,890,0,0
245,134,0,0,0,0,0,0,0,0,0,-1,1469,890,0,0
252,134,0,0,0,0,0,0,0,0,0,-1,1476,890,0,0
259,134,0,0,0,0,0,0,0,0,0,-1,1483,890,0,0
266,134,0,0,0,0,0,0,0,0,0,-1,1490,890,0,0
273,134,0,0,0,0,0,0,0,0,0,-1,1497,890,0,0
280,134,0,0,0,0,0,0,0,0,0,-1,1504,890,0,0
287,134,0,0,0,0,0,0,0,0,0,-1,1511,890,0,0
294,134,0,0,0,0,0,0,0,0,0,-1,1518,890,0,0
301,134,0,0,0,0,0,0,0,0,0,-1,1525,890,0,0
308,134,0,0,0,0,0,0,0,0,0,-1,1532,890,0,0
315,134,0,0,0,0,0,0,0,0,0,-1,1539,890,0,0
322,134,0,0,0,0,0,0,0,0,0,-1,1546,890,0,0
329,134,0,0,0,0,0,0,0,0,0,-1,1553,890,0,0
336,134,0,0,0,0,0,0,0,0,0,-1,1560,890,0,0
343,134,0,0,0,0,0,0,0,0,0,-1,1567,890,0,0
350,134,0,0,0,0,0,0,0,0,0,-1,1574,890,0,0
357,134,0,0,0,0,0,0,0,0,0,-1,1581,890,0,0
364,134,0,0,0,0,0,0,0,0,0,-1,1588,890,0,0
371,134,0,0,0,0,0,0,0,0,0,-1,1595,890,0,0
378,134,0,0,0,0,0,0,0,0,0,-1,1602,890,0,0
385,134,0,0,0,0,0,0,0,0,0,-1,1609,890,0,0
392,134,0,0,0,0,0,0,0,0,0,-1,1616,890,0,0
399,134,0,0,0,0,0,0,0,0,0,-1,1623,890,0,0
406,134,0,0,0,0,0,0,0,0,0,-1,1630,890,0,0
413,134,0,0,0,0,0,0,0,0,0,-1,1637,890,0,0
420,134,0,0,0,0,0,0,0,0,0,-1,1644,890,0,0
427,134,0,0,0,0,0,0,0,0,0,-1,1651,890,0,0
434,134,0,0,0,0,0,0,0,0,0,-1,1658,890,0,0
441,134,0,0,0,0,0,0,0,0,0,-1,1665,890,0,0
448,134,0,0,0,0,0,0,0,0,0,-1,1672,890,0,0
455,134,0,0,0,0,0,0,0,0,0,-1,1679,890,0,0
462,134,0,0,0,0,0,0,0,0,0,-1,1686,890,0,0
469,134,0,0,0,0,0,0,0,0,0,-1,1693,890,0,0
476,134,0,0,0,0,0,0,0,0,0,-1,1700,890,0,0
483,134,0,0,0,0,0,0,0,0,0,-1,1707,890,0,0
490,134,0,0,0,0,0,0,0,0,0,-1,1714,890,0,0
497,134,0,0,0,0,0,0,0,0,0,-1,1721,890,0,0
504,134,0,0,0,0,0,0,0,0,0,-1,1728,890,0,0
511,134,0,0,0,0,0,0,0,0,0,-1,1735,890,0,0
518,134,0,0,0,0,0,0,0,0,0,-1,1742,890,0,0
525,134,0,0,0,0,0,0,0,0,0,-1,1749,890,0,0
532,134,0,0,0,0,0,0,0,0,0,-1,1756,890,0,0
539,134,0,0,0,0,0,0,0,0,0,-1,1763,890,0,0
546,134,0,0,0,0,0,0,0,0,0,-1,1770,890,0,0
553,134,0,0,0,0,0,0,0,0,0,-1,1777,890,0,0
560,134,0,0,0,0,0,0,0,0,0,-1,1784,890,0,0
567,134,0,0,0,0,0,0,0,0,0,-1,1791,890,0,0
574,134,0,0,0,0,0,0,0,0,0,-1,1798,890,0,0
581,134,0,0,0,0,0,0,0,0,0,-1,1805,890,0,0
588,134,0,0,0,0,0,0,0,0,0,-1,1812,890,0,0
595,134,0,0,0,0,0,0,0,0,0,-1,1819,890,0,0
602,134,0,0,0,0,0,0,0,0,0,-1,1826,890,0,0
609,134,0,0,0,0,0,0,0,0,0,-1,1833,890,0,0
616,134,0,0,0,0,0,0,0,0,0,-1,1840,890,0,0
623,134,39.8381,2.74023,-0.000210584,-0.00490344,-0.00497366,0.00294235,-0.00805638,-0.564993,0.00657495,0.0471617,1847,890,39.8381,-2.74021
630,134,39.6044,2.65601,3.93014e-05,-0.00405256,-0.00362295,0.00215409,-0.00616735,-0.528363,0.00498715,0.0462843,1854,890,39.6044,-2.656
637,134,39.6313,2.63434,0.000263272,-0.00320836,-0.0026831,0.00172309,-0.00466818,-0.498286,0.00381835,0.0440685,1861,890,39.6314,-2.63432
644,134,39.6917,2.71906,0.000368169,-0.0026586,-0.00203886,0.00139393,-0.00368437,-0.46613,0.00302973,0.0396048,1868,890,39.6916,-2.71903
651,134,39.6632,2.67792,0.000352642,-0.00230094,-0.00164681,0.00114064,-0.00308894,-0.446302,0.00252683,0.0418106,1875,890,39.6632,-2.67791
658,134,39.6415,2.60059,0.000296452,-0.00198525,-0.00135466,0.000926655,-0.00261546,-0.435432,0.0021211,0.0394729,1882,890,39.6415,-2.60057
665,134,39.667,2.51581,0.000300273,-0.00175266,-0.00121041,0.000860855,-0.00231324,-0.433723,0.00189544,0.0313709,1889,890,39.6669,-2.51582
672,134,39.6946,2.55792,0.000309334,-0.00163617,-0.00103298,0.000755486,-0.00208232,-0.407708,0.00169705,0.0237207,1896,890,39.6946,-2.55793
679,134,39.6874,2.51495,0.000361322,-0.00147385,-0.000911887,0.000737374,-0.00184991,-0.391141,0.00153911,0.0216086,1903,890,39.6874,-2.51494
686,134,39.7347,2.45605,0,0,0,0,0,0,0,-1,1910,890,39.7347,-2.45604
693,134,34.5778,2.48096,0,0,0,0,0,0,0,-1,1917,890,34.5777,-2.48099
700,134,34.6338,2.7431,0.000117146,-0.00066633,-0.000865296,0.000675248,-0.00122443,-0.572841,0.00111195,0.0490827,1924,890,34.6338,-2.74311
707,134,34.2566,2.93152,0.00014786,-0.000445147,-0.000823908,0.000726993,-0.00102428,-0.612676,0.00101594,0.0204399,1931,890,34.2566,-2.93154
714,134,34.2935,3.42151,0.0002756,-7.24038e-05,-0.000745007,0.000866655,-0.000663459,-0.670676,0.000886005,0.0214112,1938,890,34.2935,-3.42153
721,134,34.4884,3.91364,0.000584713,0.000284453,-0.000688045,0.00113882,-0.000269651,-0.677983,0.000863249,0.0177163,1945,890,34.4884,-3.91363
728,134,34.5381,4.2937,0.000788435,0.000842404,-0.000469398,0.00128559,0.000345247,-0.81411,0.000768287,0.0167519,1952,890,34.5381,-4.29373
735,134,34.5165,4.72363,0.00137101,0.00119341,9.24783e-05,0.00141042,0.001154,0.402843,0.000867533,0.022994,1959,890,34.5164,-4.72364
742,134,34.4647,5.11688,0.00225442,0.00189369,0.000930402,0.00302178,0.00112633,0.689657,0.00176336,0.0149667,1966,890,34.4648,-5.11686
749,134,34.4698,5.47858,0.00357337,0.00229249,0.0020753,0.0051048,0.000761055,0.635734,0.00318002,0.0116783,1973,890,34.4699,-5.47857
756,134,34.4553,5.86047,0.00530314,0.00260367,0.00379139,0.00797788,-7.10743e-05,0.614393,0.00534243,0.0164072,1980,890,34.4553,-5.86048
763,134,34.4648,6.37238,0.00748716,0.00291566,0.00626459,0.01187,-0.00146716,0.610469,0.00844496,0.0383144,1987,890,34.4648,-6.37236
770,134,34.4635,6.88257,0,0,0,0,0,0,0,-1,1994,890,34.4635,-6.88257
777,134,32.2756,6.70819,0,0,0,0,0,0,0,-1,2001,890,32.2756,-6.70821
784,134,35.7665,9.92847,0,0,0,0,0,0,0,-1,2008,890,35.7665,-9.92848
791,134,32.3794,9.50098,0,0,0,0,0,0,0,-1,2015,890,32.3794,-9.50098
798,134,0,0,0,0,0,0,0,0,0,-1,2022,890,0,0
805,134,0,0,0,0,0,0,0,0,0,-1,2029,890,0,0
812,134,0,0,0,0,0,0,0,0,0,-1,2036,890,0,0
-700,127,0,0,0,0,0,0,0,0,0,-1,524,897,0,0
-693,127,0,0,0,0,0,0,0,0,0,-1,531,897,0,0
-686,127,0,0,0,0,0,0,0,0,0,-1,538,897,0,0
-679,127,-28.1006,6.11218,0,0,0,0,0,0,0,-1,545,897,-28.1007,-6.1122
-672,127,-30.4355,-2.49451,0,0,0,0,0,0,0,-1,552,897,-30.4356,2.4945
-665,127,-29.7787,-1.72101,0.0674338,-0.00305768,0.0737899,0.113963,-0.0495873,0.562594,0.0968337,0.0452945,559,897,-29.7787,1.72103
-658,127,-29.1259,-0.886719,0.0631205,-0.000787048,0.0630948,0.101892,-0.039558,0.551005,0.0842677,0.0438528,566,897,-29.1258,0.886732
-651,127,-28.7108,0.0342407,0,0,0,0,0,0,0,-1,573,897,-28.7107,-0.0342572
-644,127,-27.8077,0.836609,0.0475825,0.000676988,0.0427795,0.0729162,-0.0246567,0.534659,0.0585855,0.044839,580,897,-27.8077,-0.836594
-637,127,-26.5927,1.86932,0.0386292,0.000684886,0.0339076,0.0585115,-0.0191974,0.530334,0.0467399,0.0498667,587,897,-26.5927,-1.86932
-630,127,-25.3341,2.83362,0.0304138,0.00093297,0.0262658,0.0457927,-0.0144459,0.529697,0.0363145,0.0416114,594,897,-25.3341,-2.8336
-623,127,-25.3087,3.03607,0.0225902,0.000995117,0.0195868,0.0341584,-0.0105731,0.533491,0.0269959,0.0155359,601,897,-25.3087,-3.03608
-616,127,-25.3737,2.74219,0.014627,0.000289934,0.0132806,0.0225503,-0.00763335,0.537919,0.018122,0.0103678,608,897,-25.3737,-2.7422
-609,127,-25.4042,2.39233,0.00780728,-0.000640486,0.00792931,0.0125676,-0.00540076,0.540669,0.0106455,0.0142069,615,897,-25.4042,-2.39234
-602,127,-25.4087,2.04724,0.0029074,-0.00083493,0.00494313,0.00632167,-0.0042492,0.604464,0.00614207,0.0160127,622,897,-25.4087,-2.04726
-595,127,-25.3957,1.7486,0.000401816,-0.00128518,0.00291829,0.00259607,-0.00347943,0.644713,0.00352003,0.0216575,629,897,-25.3957,-1.7486
-588,127,-25.5343,1.37946,-0.00102627,-0.00155423,0.00147802,0.000211158,-0.00279166,0.697029,0.00193534,0.029557,636,897,-25.5343,-1.37945
-581,127,-25.4344,0.917603,0,0,0,0,0,0,0,-1,643,897,-25.4344,-0.917612
-574,127,-25.2603,0.511169,0,0,0,0,0,0,0,-1,650,897,-25.2603,-0.51117
-567,127,-24.5417,-0.0447388,0,0,0,0,0,0,0,-1,657,897,-24.5417,0.0447226
-560,127,-18.9678,1.21667,0,0,0,0,0,0,0,-1,664,897,-18.9677,-1.2167
-553,127,-29.1943,0.711426,0,0,0,0,0,0,0,-1,671,897,-29.1943,-0.711451
-546,127,-29.2065,0.744629,-0.000977111,-0.00112516,-0.0009119,-0.000136237,-0.00196604,-0.744898,0.00126772,0.0234356,678,897,-29.2065,-0.744636
-539,127,-29.198,0.773987,-0.000719533,-0.000798658,-0.00101865,0.000260321,-0.00177851,-0.765989,0.00128129,0.0197889,685,897,-29.198,-0.773971
-532,127,-29.1594,0.777039,-0.000617176,-0.000370378,-0.000941869,0.000456141,-0.00144369,-0.850535,0.0011452,0.017126,692,897,-29.1594,-0.777052
-525,127,-29.1334,0.81189,-0.000937726,9.23559e-05,-0.000605462,0.000372206,-0.00121758,-1.13784,0.000960143,0.033531,699,897,-29.1333,-0.811917
-518,127,-29.0527,0.83252,-0.00163073,0.00048463,3.10929e-05,0.000485087,-0.00163118,1.5561,0.00128016,0.0405033,706,897,-29.0527,-0.832539
-511,127,-29.0438,0.900818,-0.00282458,0.000438751,0.000663692,0.000568568,-0.00295439,1.37764,0.00218393,0.0431081,713,897,-29.0438,-0.900789
-504,127,0,0,0,0,0,0,0,0,0,-1,720,897,0,0
-497,127,0,0,0,0,0,0,0,0,0,-1,727,897,0,0
-490,127,0,0,0,0,0,0,0,0,0,-1,734,897,0,0
-483,127,0,0,0,0,0,0,0,0,0,-1,741,897,0,0
-476,127,0,0,0,0,0,0,0,0,0,-1,748,897,0,0
-469,127,0,0,0,0,0,0,0,0,0,-1,755,897,0,0
-462,127,0,0,0,0,0,0,0,0,0,-1,762,897,0,0
-455,127,0,0,0,0,0,0,0,0,0,-1,769,897,0,0
-448,127,0,0,0,0,0,0,0,0,0,-1,776,897,0,0
-441,127,0,0,0,0,0,0,0,0,0,-1,783,897,0,0
-434,127,0,0,0,0,0,0,0,0,0,-1,790,897,0,0
-427,127,0,0,0,0,0,0,0,0,0,-1,797,897,0,0
-420,127,0,0,0,0,0,0,0,0,0,-1,804,897,0,0
-413,127,0,0,0,0,0,0,0,0,0,-1,811,897,0,0
-406,127,0,0,0,0,0,0,0,0,0,-1,818,897,0,0
-399,127,0,0,0,0,0,0,0,0,0,-1,825,897,0,0
-392,127,0,0,0,0,0,0,0,0,0,-1,832,897,0,0
-385,127,0,0,0,0,0,0,0,0,0,-1,839,897,0,0
-378,127,0,0,0,0,0,0,0,0,0,-1,846,897,0,0
-371,127,0,0,0,0,0,0,0,0,0,-1,853,897,0,0
-364,127,0,0,0,0,0,0,0,0,0,-1,860,897,0,0
-357,127,0,0,0,0,0,0,0,0,0,-1,867,897,0,0
-350,127,0,0,0,0,0,0,0,0,0,-1,874,897,0,0
-343,127,0,0,0,0,0,0,0,0,0,-1,881,897,0,0
-336,127,0,0,0,0,0,0,0,0,0,-1,888,897,0,0
-329,127,0,0,0,0,0,0,0,0,0,-1,895,897,0,0
-322,127,0,0,0,0,0,0,0,0,0,-1,902,897,0,0
-315,127,0,0,0,0,0,0,0,0,0,-1,909,897,0,0
-308,127,0,0,0,0,0,0,0,0,0,-1,916,897,0,0
-301,127,0,0,0,0,0,0,0,0,0,-1,923,897,0,0
-294,127,0,0,0,0,0,0,0,0,0,-1,930,897,0,0
-287,127,0,0,0,0,0,0,0,0,0,-1,937,897,0,0
-280,127,0,0,0,0,0,0,0,0,0,-1,944,897,0,0
-273,127,0,0,0,0,0,0,0,0,0,-1,951,897,0,0
-266,127,0,0,0,0,0,0,0,0,0,-1,958,897,0,0
-259,127,0,0,0,0,0,0,0,0,0,-1,965,897,0,0
-252,127,0,0,0,0,0,0,0,0,0,-1,972,897,0,0
-245,127,0,0,0,0,0,0,0,0,0,-1,979,897,0,0
-238,127,0,0,0,0,0,0,0,0,0,-1,986,897,0,0
-231,127,0,0,0,0,0,0,0,0,0,-1,993,897,0,0
-224,127,0,0,0,0,0,0,0,0,0,-1,1000,897,0,0
-217,127,0,0,0,0,0,0,0,0,0,-1,1007,897,0,0
-210,127,0,0,0,0,0,0,0,0,0,-1,1014,897,0,0
-203,127,0,0,0,0,0,0,0,0,0,-1,1021,897,0,0
-196,127,0,0,0,0,0,0,0,0,0,-1,1028,897,0,0
-189,127,0,0,0,0,0,0,0,0,0,-1,1035,897,0,0
-182,127,0,0,0,0,0,0,0,0,0,-1,1042,897,0,0
-175,127,0,0,0,0,0,0,0,0,0,-1,1049,897,0,0
-168,127,0,0,0,0,0,0,0,0,0,-1,1056,897,0,0
-161,127,0,0,0,0,0,0,0,0,0,-1,1063,897,0,0
-154,127,0,0,0,0,0,0,0,0,0,-1,1070,897,0,0
-147,127,0,0,0,0,0,0,0,0,0,-1,1077,897,0,0
-140,127,0,0,0,0,0,0,0,0,0,-1,1084,897,0,0
-133,127,0,0,0,0,0,0,0,0,0,-1,1091,897,0,0
-126,127,0,0,0,0,0,0,0,0,0,-1,1098,897,0,0
-119,127,0,0,0,0,0,0,0,0,0,-1,1105,897,0,0
-112,127,0,0,0,0,0,0,0,0,0,-1,1112,897,0,0
-105,127,0,0,0,0,0,0,0,0,0,-1,1119,897,0,0
-98,127,0,0,0,0,0,0,0,0,0,-1,1126,897,0,0
-91,127,0,0,0,0,0,0,0,0,0,-1,1133,897,0,0
-84,127,0,0,0,0,0,0,0,0,0,-1,1140,897,0,0
-77,127,0,0,0,0,0,0,0,0,0,-1,1147,897,0,0
-70,127,0,0,0,0,0,0,0,0,0,-1,1154,897,0,0
-63,127,0,0,0,0,0,0,0,0,0,-1,1161,897,0,0
-56,127,0,0,0,0,0,0,0,0,0,-1,1168,897,0,0
-49,127,0,0,0,0,0,0,0,0,0,-1,1175,897,0,0
-42,127,0,0,0,0,0,0,0,0,0,-1,1182,897,0,0
-35,127,0,0,0,0,0,0,0,0,0,-1,1189,897,0,0
-28,127,0,0,0,0,0,0,0,0,0,-1,1196,897,0,0
-21,127,0,0,0,0,0,0,0,0,0,-1,1203,897,0,0
-14,127,0,0,0,0,0,0,0,0,0,-1,1210,897,0,0
-7,127,0,0,0,0,0,0,0,0,0,-1,1217,897,0,0
0,127,0,0,0,0,0,0,0,0,0,-1,1224,897,0,0
7,127,0,0,0,0,0,0,0,0,0,-1,1231,897,0,0
14,127,0,0,0,0,0,0,0,0,0,-1,1238,897,0,0
21,127,0,0,0,0,0,0,0,0,0,-1,1245,897,0,0
28,127,0,0,0,0,0,0,0,0,0,-1,1252,897,0,0
35,127,0,0,0,0,0,0,0,0,0,-1,1259,897,0,0
42,127,0,0,0,0,0,0,0,0,0,-1,1266,897,0,0
49,127,0,0,0,0,0,0,0,0,0,-1,1273,897,0,0
56,127,0,0,0,0,0,0,0,0,0,-1,1280,897,0,0
63,127,0,0,0,0,0,0,0,0,0,-1,1287,897,0,0
70,127,0,0,0,0,0,0,0,0,0,-1,1294,897,0,0
77,127,0,0,0,0,0,0,0,0,0,-1,1301,897,0,0
84,127,0,0,0,0,0,0,0,0,0,-1,1308,897,0,0
91,127,0,0,0,0,0,0,0,0,0,-1,1315,897,0,0
98,127,0,0,0,0,0,0,0,0,0,-1,1322,897,0,0
105,127,0,0,0,0,0,0,0,0,0,-1,1329,897,0,0
112,127,0,0,0,0,0,0,0,0,0,-1,1336,897,0,0
119,127,0,0,0,0,0,0,0,0,0,-1,1343,897,0,0
126,127,0,0,0,0,0,0,0,0,0,-1,1350,897,0,0
133,127,0,0,0,0,0,0,0,0,0,-1,1357,897,0,0
140,127,0,0,0,0,0,0,0,0,0,-1,1364,897,0,0
147,127,0,0,0,0,0,0,0,0,0,-1,1371,897,0,0
154,127,0,0,0,0,0,0,0,0,0,-1,1378,897,0,0
161,127,0,0,0,0,0,0,0,0,0,-1,1385,897,0,0
168,127,0,0,0,0,0,0,0,0,0,-1,1392,897,0,0
175,127,0,0,0,0,0,0,0,0,0,-1,1399,897,0,0
182,127,0,0,0,0,0,0,0,0,0,-1,1406,897,0,0
189,127,0,0,0,0,0,0,0,0,0,-1,1413,897,0,0
196,127,0,0,0,0,0,0,0,0,0,-1,1420,897,0,0
203,127,0,0,0,0,0,0,0,0,0,-1,1427,897,0,0
210,127,0,0,0,0,0,0,0,0,0,-1,1434,897,0,0
217,127,0,0,0,0,0,0,0,0,0,-1,1441,897,0,0
224,127,0,0,0,0,0,0,0,0,0,-1,1448,897,0,0
231,127,0,0,0,0,0,0,0,0,0,-1,1455,897,0,0
238,127,0,0,0,0,0,0,0,0,0,-1,1462,897,0,0
245,127,0,0,0,0,0,0,0,0,0,-1,1469,897,0,0
252,127,0,0,0,0,0,0,0,0,0,-1,1476,897,0,0
259,127,0,0,0,0,0,0,0,0,0,-1,1483,897,0,0
266,127,0,0,0,0,0,0,0,0,0,-1,1490,897,0,0
273,127,0,0,0,0,0,0,0,0,0,-1,1497,897,0,0
280,127,0,0,0,0,0,0,0,0,0,-1,1504,897,0,0
287,127,0,0,0,0,0,0,0,0,0,-1,1511,897,0,0
294,127,0,0,0,0,0,0,0,0,0,-1,1518,897,0,0
301,127,0,0,0,0,0,0,0,0,0,-1,1525,897,0,0
308,127,0,0,0,0,0,0,0,0,0,-1,1532,897,0,0
315,127,0,0,0,0,0,0,0,0,0,-1,1539,897,0,0
322,127,0,0,0,0,0,0,0,0,0,-1,1546,897,0,0
329,127,0,0,0,0,0,0,0,0,0,-1,1553,897,0,0
336,127,0,0,0,0,0,0,0,0,0,-1,1560,897,0,0
343,127,0,0,0,0,0,0,0,0,0,-1,1567,897,0,0
350,127,0,0,0,0,0,0,0,0,0,-1,1574,897,0,0
357,127,0,0,0,0,0,0,0,0,0,-1,1581,897,0,0
364,127,0,0,0,0,0,0,0,0,0,-1,1588,897,0,0
371,127,0,0,0,0,0,0,0,0,0,-1,1595,897,0,0
378,127,0,0,0,0,0,0,0,0,0,-1,1602,897,0,0
385,127,0,0,0,0,0,0,0,0,0,-1,1609,897,0,0
392,127,0,0,0,0,0,0,0,0,0,-1,1616,897,0,0
399,127,0,0,0,0,0,0,0,0,0,-1,1623,897,0,0
406,127,0,0,0,0,0,0,0,0,0,-1,1630,897,0,0
413,127,0,0,0,0,0,0,0,0,0,-1,1637,897,0,0
420,127,0,0,0,0,0,0,0,0,0,-1,1644,897,0,0
427,127,0,0,0,0,0,0,0,0,0,-1,1651,897,0,0
434,127,0,0,0,0,0,0,0,0,0,-1,1658,897,0,0
441,127,0,0,0,0,0,0,0,0,0,-1,1665,897,0,0
448,127,0,0,0,0,0,0,0,0,0,-1,1672,897,0,0
455,127,0,0,0,0,0,0,0,0,0,-1,1679,897,0,0
462,127,0,0,0,0,0,0,0,0,0,-1,1686,897,0,0
469,127,0,0,0,0,0,0,0,0,0,-1,1693,897,0,0
476,127,0,0,0,0,0,0,0,0,0,-1,1700,897,0,0
483,127,0,0,0,0,0,0,0,0,0,-1,1707,897,0,0
490,127,0,0,0,0,0,0,0,0,0,-1,1714,897,0,0
497,127,0,0,0,0,0,0,0,0,0,-1,1721,897,0,0
504,127,0,0,0,0,0,0,0,0,0,-1,1728,897,0,0
511,127,0,0,0,0,0,0,0,0,0,-1,1735,897,0,0
518,127,0,0,0,0,0,0,0,0,0,-1,1742,897,0,0
525,127,0,0,0,0,0,0,0,0,0,-1,1749,897,0,0
532,127,0,0,0,0,0,0,0,0,0,-1,1756,897,0,0
539,127,0,0,0,0,0,0,0,0,0,-1,1763,897,0,0
546,127,0,0,0,0,0,0,0,0,0,-1,1770,897,0,0
553,127,0,0,0,0,0,0,0,0,0,-1,1777,897,0,0
560,127,0,0,0,0,0,0,0,0,0,-1,1784,897,0,0
567,127,0,0,0,0,0,0,0,0,0,-1,1791,897,0,0
574,127,0,0,0,0,0,0,0,0,0,-1,1798,897,0,0
581,127,0,0,0,0,0,0,0,0,0,-1,1805,897,0,0
588,127,0,0,0,0,0,0,0,0,0,-1,1812,897,0,0
595,127,0,0,0,0,0,0,0,0,0,-1,1819,897,0,0
602,127,0,0,0,0,0,0,0,0,0,-1,1826,897,0,0
609,127,0,0,0,0,0,0,0,0,0,-1,1833,897,0,0
616,127,0,0,0,0,0,0,0,0,0,-1,1840,897,0,0
623,127,0,0,0,0,0,0,0,0,0,-1,1847,897,0,0
630,127,39.6202,2.78241,-0.000197372,-0.00384495,-0.00418706,0.00254586,-0.00658818,-0.58,0.00544296,0.0417218,1854,897,39.6203,-2.78241
637,127,39.6051,2.63629,0.000130424,-0.00310634,-0.00324741,0.00214038,-0.00511629,-0.554231,0.00430547,0.0416813,1861,897,39.6051,-2.63631
644,127,39.6846,2.63947,0.000289477,-0.00266587,-0.0025619,0.00176931,-0.0041457,-0.52381,0.0035057,0.0408617,1868,897,39.6845,-2.63946
651,127,39.5232,2.68732,0.00030921,-0.00236837,-0.00206934,0.00143507,-0.00349424,-0.498279,0.00292754,0.0432831,1875,897,39.5232,-2.68733
658,127,39.4888,2.63019,0.00024605,-0.0020522,-0.00167105,0.00112495,-0.0029311,-0.484198,0.00241791,0.0414347,1882,897,39.4888,-2.63019
665,127,39.5642,2.58173,0.000240658,-0.00180307,-0.00142367,0.000971235,-0.00253365,-0.474123,0.00208949,0.0368838,1889,897,39.5642,-2.58173
672,127,39.6394,2.52484,0.000278202,-0.0016513,-0.00115632,0.000819381,-0.00219248,-0.437736,0.00179813,0.0328808,1896,897,39.6394,-2.52485
679,127,39.678,2.56702,0.000359737,-0.00145599,-0.000969491,0.000780078,-0.00187633,-0.409106,0.00157661,0.0267371,1903,897,39.6779,-2.56702
686,127,39.7261,2.45209,0.000396381,-0.00120185,-0.000945102,0.000834927,-0.00164039,-0.434451,0.00145413,0.0409742,1910,897,39.7261,-2.45206
693,127,39.77,2.16022,0,0,0,0,0,0,0,-1,1917,897,39.77,-2.16021
700,127,34.8019,2.54913,0,0,0,0,0,0,0,-1,1924,897,34.8018,-2.54914
707,127,34.6329,2.97699,7.28767e-05,-0.000462222,-0.000726818,0.000579826,-0.000969171,-0.60904,0.000903682,0.0256864,1931,897,34.633,-2.977
714,127,34.7692,3.43488,0.000171883,-8.2749e-05,-0.000645098,0.000702109,-0.000612975,-0.687971,0.000759845,0.0222127,1938,897,34.7692,-3.43489
721,127,34.9897,4.01538,0.000436235,0.000297447,-0.000574539,0.000945556,-0.000211874,-0.725298,0.000711588,0.0175117,1945,897,34.9898,-4.01539
728,127,34.9326,4.32269,0.000573703,0.000900119,-0.000333893,0.00110856,0.000365264,-1.01272,0.000652313,0.0156681,1952,897,34.9326,-4.32269
735,127,34.9196,4.72314,0.00100322,0.00145443,0.000337606,0.00163488,0.000822781,1.07995,0.000943903,0.0197863,1959,897,34.9195,-4.72314
742,127,34.8937,5.10016,0.00169887,0.00245289,0.00133578,0.00346385,0.000687918,0.922939,0.00211751,0.0169534,1966,897,34.8936,-5.10016
749,127,34.8728,5.45868,0.00280173,0.00329186,0.00271871,0.00577653,0.000317064,0.830347,0.0037498,0.0120165,1973,897,34.8728,-5.45871
756,127,34.8302,5.80511,0.00432388,0.00419886,0.00474906,0.00901085,-0.000488106,0.778817,0.00617637,0.0142312,1980,897,34.8302,-5.80514
763,127,34.7816,6.16498,0.0062797,0.00530332,0.00758134,0.0133886,-0.00180553,0.753246,0.0095844,0.0248858,1987,897,34.7816,-6.16497
770,127,34.7814,6.54419,0,0,0,0,0,0,0,-1,1994,897,34.7813,-6.54417
777,127,36.2314,6.18237,0,0,0,0,0,0,0,-1,2001,897,36.2315,-6.1824
784,127,32.9255,8.75488,0,0,0,0,0,0,0,-1,2008,897,32.9255,-8.75486
791,127,33.1067,9.79041,0,0,0,0,0,0,0,-1,2015,897,33.1066,-9.79039
798,127,0,0,0,0,0,0,0,0,0,-1,2022,897,0,0
805,127,0,0,0,0,0,0,0,0,0,-1,2029,897,0,0
812,127,0,0,0,0,0,0,0,0,0,-1,2036,897,0,0
-700,120,0,0,0,0,0,0,0,0,0,-1,524,904,0,0
-693,120,0,0,0,0,0,0,0,0,0,-1,531,904,0,0
-686,120,0,0,0,0,0,0,0,0,0,-1,538,904,0,0
-679,120,-31.835,-3.41064,0,0,0,0,0,0,0,-1,545,904,-31.835,3.41064
-672,120,-31.2003,-2.62738,0,0,0,0,0,0,0,-1,552,904,-31.2003,2.62739
-665,120,-30.5436,-1.90308,0.0546331,-0.0113735,0.0654716,0.0949492,-0.0516897,0.551943,0.0858813,0.0431499,559,904,-30.5436,1.90308
-658,120,-29.8372,-1.10071,0.0519893,-0.00667281,0.0560049,0.0858789,-0.0405624,0.544175,0.0745474,0.0424606,566,904,-29.8372,1.10072
-651,120,-29.2775,-0.393494,0,0,0,0,0,0,0,-1,573,904,-29.2775,0.393464
-644,120,-27.9623,1.19983,0,0,0,0,0,0,0,-1,580,904,-27.9623,-1.19984
-637,120,-26.8531,2.18011,0.0325406,-0.000732105,0.0301806,0.0503663,-0.0185578,0.533505,0.0411817,0.0420006,587,904,-26.8531,-2.1801
-630,120,-25.671,3.28259,0.0258173,0.000339348,0.0234518,0.0397667,-0.01361,0.536595,0.0320267,0.0255762,594,904,-25.671,-3.28259
-623,120,-25.7371,3.01727,0.0193276,0.00094963,0.0175884,0.0299828,-0.00970553,0.544677,0.0238902,0.0104683,601,904,-25.7371,-3.01728
-616,120,-25.7592,2.72345,0.0122832,0.000448201,0.0119419,0.0196933,-0.00696195,0.555369,0.0159639,0.00968674,608,904,-25.7592,-2.72343
-609,120,-25.7708,2.38733,0.00614027,-0.000308954,0.00717375,0.0107808,-0.00494951,0.574179,0.00928759,0.013094,615,904,-25.7708,-2.38735
-602,120,-25.7876,2.0448,0.00174784,-0.000483668,0.00467891,0.00544219,-0.00417802,0.668352,0.00557019,0.0144844,622,904,-25.7876,-2.04479
-595,120,-25.7494,1.75085,-0.000510131,-0.00103193,0.00287886,0.00211963,-0.00366169,0.740208,0.0033772,0.023946,629,904,-25.7494,-1.75087
-588,120,-25.759,1.37708,-0.00186843,-0.00127629,0.00151427,-2.94211e-05,-0.0031153,0.88194,0.00206713,0.0347613,636,904,-25.7591,-1.37705
-581,120,-25.6024,0.920288,0,0,0,0,0,0,0,-1,643,904,-25.6023,-0.920273
-574,120,-25.4622,0.456848,0,0,0,0,0,0,0,-1,650,904,-25.4622,-0.456835
-567,120,-25.2822,-0.410645,0,0,0,0,0,0,0,-1,657,904,-25.2821,0.410629
-560,120,-27.3358,1.10327,0,0,0,0,0,0,0,-1,664,904,-27.3358,-1.10324
-553,120,-29.1281,0.800598,0,0,0,0,0,0,0,-1,671,904,-29.1281,-0.800577
-546,120,-29.1457,0.78125,-0.00185993,-0.00082266,-0.000890137,-0.000311089,-0.0023715,-1.04918,0.00148818,0.0319564,678,904,-29.1457,-0.781258
-539,120,-29.1338,0.824219,-0.00155535,-0.000493847,-0.00102191,0.000126924,-0.00217612,-1.02491,0.00149485,0.0248913,685,904,-29.1338,-0.824224
-532,120,-29.0911,0.796448,-0.00141663,-8.28845e-05,-0.000997597,0.000450208,-0.00194973,-1.08003,0.001473,0.0260421,692,904,-29.0911,-0.796462
-525,120,-29.0649,0.804138,-0.00166279,0.000303687,-0.000787704,0.000580304,-0.00193941,-1.23308,0.00152367,0.0348368,699,904,-29.0649,-0.804131
-518,120,-29.0621,0.835388,-0.00268958,0.000432736,-0.000421739,0.000488698,-0.00274554,-1.43887,0.00201313,0.0394017,706,904,-29.062,-0.835418
-511,120,-29.1752,0.835327,-0.00411932,0.000132131,-0.000161261,0.000138239,-0.00412542,-1.53294,0.0027975,0.0398813,713,904,-29.1752,-0.835335
-504,120,0,0,0,0,0,0,0,0,0,-1,720,904,0,0
-497,120,0,0,0,0,0,0,0,0,0,-1,727,904,0,0
-490,120,0,0,0,0,0,0,0,0,0,-1,734,904,0,0
-483,120,0,0,0,0,0,0,0,0,0,-1,741,904,0,0
-476,120,0,0,0,0,0,0,0,0,0,-1,748,904,0,0
-469,120,0,0,0,0,0,0,0,0,0,-1,755,904,0,0
-462,120,0,0,0,0,0,0,0,0,0,-1,762,904,0,0
-455,120,0,0,0,0,0,0,0,0,0,-1,769,904,0,0
-448,120,0,0,0,0,0,0,0,0,0,-1,776,904,0,0
-441,120,0,0,0,0,0,0,0,0,0,-1,783,904,0,0
-434,120,0,0,0,0,0,0,0,0,0,-1,790,904,0,0
-427,120,0,0,0,0,0,0,0,0,0,-1,797,904,0,0
-420,120,0,0,0,0,0,0,0,0,0,-1,804,904,0,0
-413,120,0,0,0,0,0,0,0,0,0,-1,811,904,0,0
-406,120,0,0,0,0,0,0,0,0,0,-1,818,904,0,0
-399,120,0,0,0,0,0,0,0,0,0,-1,825,904,0,0
-392,120,0,0,0,0,0,0,0,0,0,-1,832,904,0,0
-385,120,0,0,0,0,0,0,0,0,0,-1,839,904,0,0
-378,120,0,0,0,0,0,0,0,0,0,-1,846,904,0,0
-371,120,0,0,0,0,0,0,0,0,0,-1,853,904,0,0
-364,120,0,0,0,0,0,0,0,0,0,-1,860,904,0,0
-357,120,0,0,0,0,0,0,0,0,0,-1,867,904,0,0
-350,120,0,0,0,0,0,0,0,0,0,-1,874,904,0,0
-343,120,0,0,0,0,0,0,0,0,0,-1,881,904,0,0
-336,120,0,0,0,0,0,0,0,0,0,-1,888,904,0,0
-329,120,0,0,0,0,0,0,0,0,0,-1,895,904,0,0
-322,120,0,0,0,0,0,0,0,0,0,-1,902,904,0,0
-315,120,0,0,0,0,0,0,0,0,0,-1,909,904,0,0
-308,120,0,0,0,0,0,0,0,0,0,-1,916,904,0,0
-301,120,0,0,0,0,0,0,0,0,0,-1,923,904,0,0
-294,120,0,0,0,0,0,0,0,0,0,-1,930,904,0,0
-287,120,0,0,0,0,0,0,0,0,0,-1,937,904,0,0
-280,120,0,0,0,0,0,0,0,0,0,-1,944,904,0,0
-273,120,0,0,0,0,0,0,0,0,0,-1,951,904,0,0
-266,120,0,0,0,0,0,0,0,0,0,-1,958,904,0,0
-259,120,0,0,0,0,0,0,0,0,0,-1,965,904,0,0
-252,120,0,0,0,0,0,0,0,0,0,-1,972,904,0,0
-245,120,0,0,0,0,0,0,0,0,0,-1,979,904,0,0
-238,120,0,0,0,0,0,0,0,0,0,-1,986,904,0,0
-231,120,0,0,0,0,0,0,0,0,0,-1,993,904,0,0
-224,120,0,0,0,0,0,0,0,0,0,-1,1000,904,0,0
-217,120,0,0,0,0,0,0,0,0,0,-1,1007,904,0,0
-210,120,0,0,0,0,0,0,0,0,0,-1,1014,904,0,0
-203,120,0,0,0,0,0,0,0,0,0,-1,1021,904,0,0
-196,120,0,0,0,0,0,0,0,0,0,-1,1028,904,0,0
-189,120,0,0,0,0,0,0,0,0,0,-1,1035,904,0,0
-182,120,0,0,0,0,0,0,0,0,0,-1,1042,904,0,0
-175,120,0,0,0,0,0,0,0,0,0,-1,1049,904,0,0
-168,120,0,0,0,0,0,0,0,0,0,-1,1056,904,0,0
-161,120,0,0,0,0,0,0,0,0,0,-1,1063,904,0,0
-154,120,0,0,0,0,0,0,0,0,0,-1,1070,904,0,0
-147,120,0,0,0,0,0,0,0,0,0,-1,1077,904,0,0
-140,120,0,0,0,0,0,0,0,0,0,-1,1084,904,0,0
-133,120,0,0,0,0,0,0,0,0,0,-1,1091,904,0,0
-126,120,0,0,0,0,0,0,0,0,0,-1,1098,904,0,0
-119,120,0,0,0,0,0,0,0,0,0,-1,1105,904,0,0
-112,120,0,0,0,0,0,0,0,0,0,-1,1112,904,0,0
-105,120,0,0,0,0,0,0,0,0,0,-1,1119,904,0,0
-98,120,0,0,0,0,0,0,0,0,0,-1,1126,904,0,0
-91,120,0,0,0,0,0,0,0,0,0,-1,1133,904,0,0
-84,120,0,0,0,0,0,0,0,0,0,-1,1140,904,0,0
-77,120,0,0,0,0,0,0,0,0,0,-1,1147,904,0,0
-70,120,0,0,0,0,0,0,0,0,0,-1,1154,904,0,0
-63,120,0,0,0,0,0,0,0,0,0,-1,1161,904,0,0
-56,120,0,0,0,0,0,0,0,0,0,-1,1168,904,0,0
-49,120,0,0,0,0,0,0,0,0,0,-1,1175,904,0,0
-42,120,0,0,0,0,0,0,0,0,0,-1,1182,904,0,0
-35,120,0,0,0,0,0,0,0,0,0,-1,1189,904,0,0
-28,120,0,0,0,0,0,0,0,0,0,-1,1196,904,0,0
-21,120,0,0,0,0,0,0,0,0,0,-1,1203,904,0,0
-14,120,0,0,0,0,0,0,0,0,0,-1,1210,904,0,0
-7,120,0,0,0,0,0,0,0,0,0,-1,1217,904,0,0
0,120,0,0,0,0,0,0,0,0,0,-1,1224,904,0,0
7,120,0,0,0,0,0,0,0,0,0,-1,1231,904,0,0
14,120,0,0,0,0,0,0,0,0,0,-1,1238,904,0,0
21,120,0,0,0,0,0,0,0,0,0,-1,1245,904,0,0
28,120,0,0,0,0,0,0,0,0,0,-1,1252,904,0,0
35,120,0,0,0,0,0,0,0,0,0,-1,1259,904,0,0
42,120,0,0,0,0,0,0,0,0,0,-1,1266,904,0,0
49,120,0,0,0,0,0,0,0,0,0,-1,1273,904,0,0
56,120,0,0,0,0,0,0,0,0,0,-1,1280,904,0,0
63,120,0,0,0,0,0,0,0,0,0,-1,1287,904,0,0
70,120,0,0,0,0,0,0,0,0,0,-1,1294,904,0,0
77,120,0,0,0,0,0,0,0,0,0,-1,1301,904,0,0
84,120,0,0,0,0,0,0,0,0,0,-1,1308,904,0,0
91,120,0,0,0,0,0,0,0,0,0,-1,1315,904,0,0
98,120,0,0,0,0,0,0,0,0,0,-1,1322,904,0,0
105,120,0,0,0,0,0,0,0,0,0,-1,1329,904,0,0
112,120,0,0,0,0,0,0,0,0,0,-1,1336,904,0,0
119,120,0,0,0,0,0,0,0,0,0,-1,1343,904,0,0
126,120,0,0,0,0,0,0,0,0,0,-1,1350,904,0,0
133,120,0,0,0,0,0,0,0,0,0,-1,1357,904,0,0
140,120,0,0,0,0,0,0,0,0,0,-1,1364,904,0,0
147,120,0,0,0,0,0,0,0,0,0,-1,1371,904,0,0
154,120,0,0,0,0,0,0,0,0,0,-1,1378,904,0,0
161,120,0,0,0,0,0,0,0,0,0,-1,1385,904,0,0
168,120,0,0,0,0,0,0,0,0,0,-1,1392,904,0,0
175,120,0,0,0,0,0,0,0,0,0,-1,1399,904,0,0
182,120,0,0,0,0,0,0,0,0,0,-1,1406,904,0,0
189,120,0,0,0,0,0,0,0,0,0,-1,1413,904,0,0
196,120,0,0,0,0,0,0,0,0,0,-1,1420,904,0,0
203,120,0,0,0,0,0,0,0,0,0,-1,1427,904,0,0
210,120,0,0,0,0,0,0,0,0,0,-1,1434,904,0,0
217,120,0,0,0,0,0,0,0,0,0,-1,1441,904,0,0
224,120,0,0,0,0,0,0,0,0,0,-1,1448,904,0,0
231,120,0,0,0,0,0,0,0,0,0,-1,1455,904,0,0
238,120,0,0,0,0,0,0,0,0,0,-1,1462,904,0,0
245,120,0,0,0,0,0,0,0,0,0,-1,1469,904,0,0
252,120,0,0,0,0,0,0,0,0,0,-1,1476,904,0,0
259,120,0,0,0,0,0,0,0,0,0,-1,1483,904,0,0
266,120,0,0,0,0,0,0,0,0,0,-1,1490,904,0,0
273,120,0,0,0,0,0,0,0,0,0,-1,1497,904,0,0
280,120,0,0,0,0,0,0,0,0,0,-1,1504,904,0,0
287,120,0,0,0,0,0,0,0,0,0,-1,1511,904,0,0
294,120,0,0,0,0,0,0,0,0,0,-1,1518,904,0,0
301,120,0,0,0,0,0,0,0,0,0,-1,1525,904,0,0
308,120,0,0,0,0,0,0,0,0,0,-1,1532,904,0,0
315,120,0,0,0,0,0,0,0,0,0,-1,1539,904,0,0
322,120,0,0,0,0,0,0,0,0,0,-1,1546,904,0,0
329,120,0,0,0,0,0,0,0,0,0,-1,1553,904,0,0
336,120,0,0,0,0,0,0,0,0,0,-1,1560,904,0,0
343,120,0,0,0,0,0,0,0,0,0,-1,1567,904,0,0
350,120,0,0,0,0,0,0,0,0,0,-1,1574,904,0,0
357,120,0,0,0,0,0,0,0,0,0,-1,1581,904,0,0
364,120,0,0,0,0,0,0,0,0,0,-1,1588,904,0,0
371,120,0,0,0,0,0,0,0,0,0,-1,1595,904,0,0
378,120,0,0,0,0,0,0,0,0,0,-1,1602,904,0,0
385,120,0,0,0,0,0,0,0,0,0,-1,1609,904,0,0
392,120,0,0,0,0,0,0,0,0,0,-1,1616,904,0,0
399,120,0,0,0,0,0,0,0,0,0,-1,1623,904,0,0
406,120,0,0,0,0,0,0,0,0,0,-1,1630,904,0,0
413,120,0,0,0,0,0,0,0,0,0,-1,1637,904,0,0
420,120,0,0,0,0,0,0,0,0,0,-1,1644,904,0,0
427,120,0,0,0,0,0,0,0,0,0,-1,1651,904,0,0
434,120,0,0,0,0,0,0,0,0,0,-1,1658,904,0,0
441,120,0,0,0,0,0,0,0,0,0,-1,1665,904,0,0
448,120,0,0,0,0,0,0,0,0,0,-1,1672,904,0,0
455,120,0,0,0,0,0,0,0,0,0,-1,1679,904,0,0
462,120,0,0,0,0,0,0,0,0,0,-1,1686,904,0,0
469,120,0,0,0,0,0,0,0,0,0,-1,1693,904,0,0
476,120,0,0,0,0,0,0,0,0,0,-1,1700,904,0,0
483,120,0,0,0,0,0,0,0,0,0,-1,1707,904,0,0
490,120,0,0,0,0,0,0,0,0,0,-1,1714,904,0,0
497,120,0,0,0,0,0,0,0,0,0,-1,1721,904,0,0
504,120,0,0,0,0,0,0,0,0,0,-1,1728,904,0,0
511,120,0,0,0,0,0,0,0,0,0,-1,1735,904,0,0
518,120,0,0,0,0,0,0,0,0,0,-1,1742,904,0,0
525,120,0,0,0,0,0,0,0,0,0,-1,1749,904,0,0
532,120,0,0,0,0,0,0,0,0,0,-1,1756,904,0,0
539,120,0,0,0,0,0,0,0,0,0,-1,1763,904,0,0
546,120,0,0,0,0,0,0,0,0,0,-1,1770,904,0,0
553,120,0,0,0,0,0,0,0,0,0,-1,1777,904,0,0
560,120,0,0,0,0,0,0,0,0,0,-1,1784,904,0,0
567,120,0,0,0,0,0,0,0,0,0,-1,1791,904,0,0
574,120,0,0,0,0,0,0,0,0,0,-1,1798,904,0,0
581,120,0,0,0,0,0,0,0,0,0,-1,1805,904,0,0
588,120,0,0,0,0,0,0,0,0,0,-1,1812,904,0,0
595,120,0,0,0,0,0,0,0,0,0,-1,1819,904,0,0
602,120,0,0,0,0,0,0,0,0,0,-1,1826,904,0,0
609,120,0,0,0,0,0,0,0,0,0,-1,1833,904,0,0
616,120,0,0,0,0,0,0,0,0,0,-1,1840,904,0,0
623,120,0,0,0,0,0,0,0,0,0,-1,1847,904,0,0
630,120,39.5388,2.9657,-0.000742021,-0.00307534,-0.00447603,0.0027169,-0.00653426,-0.657912,0.00549064,0.0391638,1854,904,39.5388,-2.96571
637,120,39.5081,2.97754,-0.000289072,-0.00246908,-0.0035614,0.0023454,-0.00510355,-0.636895,0.00439782,0.0421723,1861,904,39.5081,-2.97754
644,120,39.792,2.50122,-2.26204e-05,-0.00218599,-0.0028883,0.0019799,-0.0041885,-0.60623,0.00363663,0.0433687,1868,904,39.792,-2.50122
651,120,39.6163,2.51611,0.000102239,-0.00204781,-0.00235376,0.00161485,-0.00356043,-0.571182,0.00305752,0.0433803,1875,904,39.6163,-2.51614
658,120,39.5637,2.63245,9.66507e-05,-0.00184117,-0.00189406,0.00125524,-0.00299976,-0.548974,0.00252451,0.0418098,1882,904,39.5638,-2.63246
665,120,39.5922,2.74518,0.000114765,-0.001659,-0.00157821,0.00103822,-0.00258245,-0.52941,0.00215284,0.0391023,1889,904,39.5922,-2.74516
672,120,39.6219,2.62421,0.000181881,-0.00153485,-0.00125659,0.000845293,-0.00219826,-0.485754,0.00181415,0.0375322,1896,904,39.6219,-2.62422
679,120,39.6399,2.52948,0.000293353,-0.00138154,-0.00102196,0.000777166,-0.00186535,-0.442154,0.00156819,0.0326021,1903,904,39.6399,-2.52946
686,120,39.6636,2.57996,0.0003324,-0.00115907,-0.000953721,0.000797329,-0.001624,-0.453589,0.00142485,0.0243688,1910,904,39.6636,-2.57993
693,120,39.6661,2.50049,0,0,0,0,0,0,0,-1,1917,904,39.6662,-2.50049
700,120,34.6969,2.80786,0,0,0,0,0,0,0,-1,1924,904,34.6969,-2.80784
707,120,35.2057,3.24915,0,0,0,0,0,0,0,-1,1931,904,35.2057,-3.24915
714,120,35.3445,3.66547,-2.57274e-05,-0.00010425,-0.000579298,0.000515638,-0.000645615,-0.751563,0.000671848,0.021399,1938,904,35.3445,-3.66549
721,120,35.3551,4.02753,0.00017521,0.000310555,-0.000500905,0.000748338,-0.000262573,-0.852542,0.000605695,0.016158,1945,904,35.3551,-4.02753
728,120,35.3159,4.40588,0.000257435,0.000959052,-0.000234188,0.00103004,0.000186449,-1.27648,0.000633751,0.0111874,1952,904,35.3159,-4.40589
735,120,35.2698,4.72693,0.000570015,0.00173111,0.000543232,0.00194564,0.000355493,1.19469,0.00119633,0.01296,1959,904,35.2698,-4.72691
742,120,35.2612,5.10022,0.00110437,0.0030437,0.00167395,0.00400855,0.000139515,1.04792,0.0026271,0.0139336,1966,904,35.2613,-5.10021
749,120,35.2533,5.43921,0.0020245,0.00438903,0.0032614,0.00667585,-0.000262308,0.959283,0.00454053,0.0106282,1973,904,35.2534,-5.43921
756,120,35.2076,5.78864,0.00338666,0.00596552,0.00557617,0.0103994,-0.00104723,0.899021,0.00730707,0.0132224,1980,904,35.2077,-5.78865
763,120,35.1245,6.15344,0.00516947,0.00791044,0.00872221,0.0153692,-0.00228927,0.863324,0.0110883,0.0286563,1987,904,35.1246,-6.15342
770,120,35.0938,6.56628,0,0,0,0,0,0,0,-1,1994,904,35.0937,-6.5663
777,120,34.792,6.7478,0,0,0,0,0,0,0,-1,2001,904,34.792,-6.74781
784,120,28.2545,3.00208,0,0,0,0,0,0,0,-1,2008,904,28.2545,-3.00207
791,120,33.7759,9.9859,0,0,0,0,0,0,0,-1,2015,904,33.776,-9.98587
798,120,33.8569,6.19458,0,0,0,0,0,0,0,-1,2022,904,33.8568,-6.19461
805,120,0,0,0,0,0,0,0,0,0,-1,2029,904,0,0
812,120,0,0,0,0,0,0,0,0,0,-1,2036,904,0,0
-700,113,0,0,0,0,0,0,0,0,0,-1,524,911,0,0
-693,113,0,0,0,0,0,0,0,0,0,-1,531,911,0,0
-686,113,0,0,0,0,0,0,0,0,0,-1,538,911,0,0
-679,113,-24.786,0.481384,0,0,0,0,0,0,0,-1,545,911,-24.786,-0.481367
-672,113,-31.9766,-2.92365,0,0,0,0,0,0,0,-1,552,911,-31.9766,2.92366
-665,113,-31.272,-2.06549,0.0358899,-0.0164046,0.0540073,0.0697466,-0.0502613,0.559958,0.0695903,0.0476907,559,911,-31.2719,2.0655
-658,113,-30.4921,-1.31824,0.0361047,-0.0101399,0.0464207,0.064843,-0.0388782,0.554334,0.0605057,0.0446868,566,911,-30.4921,1.31822
-651,113,-25.9818,4.76202,0,0,0,0,0,0,0,-1,573,911,-25.9818,-4.76205
-644,113,-25.9528,4.20325,0,0,0,0,0,0,0,-1,580,911,-25.9528,-4.20326
-637,113,-27.1511,2.32538,0,0,0,0,0,0,0,-1,587,911,-27.151,-2.3254
-630,113,-26.0537,3.30743,0.0198875,0.000165956,0.0199427,0.0322741,-0.0122207,0.555797,0.0265445,0.0184233,594,911,-26.0537,-3.30746
-623,113,-26.1003,3.00598,0.0151109,0.00105288,0.0151264,0.0247617,-0.00859789,0.567899,0.0199996,0.0113993,601,911,-26.1003,-3.006
-616,113,-26.1156,2.69141,0.00942293,0.00060061,0.0103729,0.0162836,-0.0062601,0.584353,0.0134376,0.010083,608,911,-26.1156,-2.69138
-609,113,-26.1308,2.41351,0.00426837,-0.000105587,0.00633017,0.0087787,-0.00461592,0.619075,0.00785689,0.0108217,615,911,-26.1308,-2.4135
-602,113,-26.1273,2.06476,0.000511917,-0.000275094,0.00436438,0.0045005,-0.00426367,0.740438,0.00506061,0.0162016,622,911,-26.1273,-2.06478
-595,113,-26.1146,1.78674,-0.00151511,-0.000913578,0.00277648,0.00157838,-0.00400707,0.839351,0.00332483,0.023385,629,911,-26.1146,-1.78677
-588,113,-26.0931,1.47705,-0.00285163,-0.00116102,0.00149897,-0.000285445,-0.00372721,1.04213,0.00239534,0.027037,636,911,-26.0931,-1.47708
-581,113,-26.1188,1.15021,-0.00361129,-0.00106245,0.000715426,-0.000875374,-0.00379837,1.31503,0.00229675,0.0260164,643,911,-26.1188,-1.15022
-574,113,-26.1113,0.676758,0,0,0,0,0,0,0,-1,650,911,-26.1113,-0.676737
-567,113,-21.8396,0.437378,0,0,0,0,0,0,0,-1,657,911,-21.8396,-0.437351
-560,113,-29.1468,0.779297,0,0,0,0,0,0,0,-1,664,911,-29.1468,-0.779322
-553,113,-29.184,0.690979,-0.00311204,-0.000885862,-0.000658737,-0.000705544,-0.00329236,-1.30361,0.00200161,0.0352645,671,911,-29.184,-0.690956
-546,113,-29.1539,0.686829,-0.0028572,-0.000635007,-0.000824381,-0.000362579,-0.00312963,-1.25163,0.00197667,0.0343144,678,911,-29.1539,-0.686822
-539,113,-29.097,0.833862,-0.00245597,-0.000277119,-0.00096284,8.73846e-05,-0.00282047,-1.2089,0.00191011,0.0360428,685,911,-29.097,-0.833837
-532,113,-29.0403,0.85321,-0.00218017,0.000146167,-0.000985917,0.000507792,-0.00254179,-1.21924,0.00188671,0.0367426,692,911,-29.0403,-0.853196
-525,113,-29.0806,0.842224,-0.0022836,0.000533214,-0.000932424,0.000813896,-0.00256429,-1.2784,0.0020358,0.0377383,699,911,-29.0806,-0.842209
-518,113,-29.183,0.846191,-0.00369002,0.000595752,-0.000876244,0.000767982,-0.00386225,-1.37672,0.00286534,0.0406582,706,911,-29.183,-0.846197
-511,113,-29.2095,0.854553,-0.00532903,0.000314699,-0.0010254,0.000495226,-0.00550955,-1.39653,0.00384875,0.040932,713,911,-29.2096,-0.854573
-504,113,0,0,0,0,0,0,0,0,0,-1,720,911,0,0
-497,113,0,0,0,0,0,0,0,0,0,-1,727,911,0,0
-490,113,0,0,0,0,0,0,0,0,0,-1,734,911,0,0
-483,113,0,0,0,0,0,0,0,0,0,-1,741,911,0,0
-476,113,0,0,0,0,0,0,0,0,0,-1,748,911,0,0
-469,113,0,0,0,0,0,0,0,0,0,-1,755,911,0,0
-462,113,0,0,0,0,0,0,0,0,0,-1,762,911,0,0
-455,113,0,0,0,0,0,0,0,0,0,-1,769,911,0,0
-448,113,0,0,0,0,0,0,0,0,0,-1,776,911,0,0
-441,113,0,0,0,0,0,0,0,0,0,-1,783,911,0,0
-434,113,0,0,0,0,0,0,0,0,0,-1,790,911,0,0
-427,113,0,0,0,0,0,0,0,0,0,-1,797,911,0,0
-420,113,0,0,0,0,0,0,0,0,0,-1,804,911,0,0
-413,113,0,0,0,0,0,0,0,0,0,-1,811,911,0,0
-406,113,0,0,0,0,0,0,0,0,0,-1,818,911,0,0
-399,113,0,0,0,0,0,0,0,0,0,-1,825,911,0,0
-392,113,0,0,0,0,0,0,0,0,0,-1,832,911,0,0
-385,113,0,0,0,0,0,0,0,0,0,-1,839,911,0,0
-378,113,0,0,0,0,0,0,0,0,0,-1,846,911,0,0
-371,113,0,0,0,0,0,0,0,0,0,-1,853,911,0,0
-364,113,0,0,0,0,0,0,0,0,0,-1,860,911,0,0
-357,113,0,0,0,0,0,0,0,0,0,-1,867,911,0,0
-350,113,0,0,0,0,0,0,0,0,0,-1,874,911,0,0
-343,113,0,0,0,0,0,0,0,0,0,-1,881,911,0,0
-336,113,0,0,0,0,0,0,0,0,0,-1,888,911,0,0
-329,113,0,0,0,0,0,0,0,0,0,-1,895,911,0,0
-322,113,0,0,0,0,0,0,0,0,0,-1,902,911,0,0
-315,113,0,0,0,0,0,0,0,0,0,-1,909,911,0,0
-308,113,0,0,0,0,0,0,0,0,0,-1,916,911,0,0
-301,113,0,0,0,0,0,0,0,0,0,-1,923,911,0,0
-294,113,0,0,0,0,0,0,0,0,0,-1,930,911,0,0
-287,113,0,0,0,0,0,0,0,0,0,-1,937,911,0,0
-280,113,0,0,0,0,0,0,0,0,0,-1,944,911,0,0
-273,113,0,0,0,0,0,0,0,0,0,-1,951,911,0,0
-266,113,0,0,0,0,0,0,0,0,0,-1,958,911,0,0
-259,113,0,0,0,0,0,0,0,0,0,-1,965,911,0,0
-252,113,0,0,0,0,0,0,0,0,0,-1,972,911,0,0
-245,113,0,0,0,0,0,0,0,0,0,-1,979,911,0,0
-238,113,0,0,0,0,0,0,0,0,0,-1,986,911,0,0
-231,113,0,0,0,0,0,0,0,0,0,-1,993,911,0,0
-224,113,0,0,0,0,0,0,0,0,0,-1,1000,911,0,0
-217,113,0,0,0,0,0,0,0,0,0,-1,1007,911,0,0
-210,113,0,0,0,0,0,0,0,0,0,-1,1014,911,0,0
-203,113,0,0,0,0,0,0,0,0,0,-1,1021,911,0,0
-196,113,0,0,0,0,0,0,0,0,0,-1,1028,911,0,0
-189,113,0,0,0,0,0,0,0,0,0,-1,1035,911,0,0
-182,113,0,0,0,0,0,0,0,0,0,-1,1042,911,0,0
-175,113,0,0,0,0,0,0,0,0,0,-1,1049,911,0,0
-168,113,0,0,0,0,0,0,0,0,0,-1,1056,911,0,0
-161,113,0,0,0,0,0,0,0,0,0,-1,1063,911,0,0
-154,113,0,0,0,0,0,0,0,0,0,-1,1070,911,0,0
-147,113,0,0,0,0,0,0,0,0,0,-1,1077,911,0,0
-140,113,0,0,0,0,0,0,0,0,0,-1,1084,911,0,0
-133,113,0,0,0,0,0,0,0,0,0,-1,1091,911,0,0
-126,113,0,0,0,0,0,0,0,0,0,-1,1098,911,0,0
-119,113,0,0,0,0,0,0,0,0,0,-1,1105,911,0,0
-112,113,0,0,0,0,0,0,0,0,0,-1,1112,911,0,0
-105,113,0,0,0,0,0,0,0,0,0,-1,1119,911,0,0
-98,113,0,0,0,0,0,0,0,0,0,-1,1126,911,0,0
-91,113,0,0,0,0,0,0,0,0,0,-1,1133,911,0,0
-84,113,0,0,0,0,0,0,0,0,0,-1,1140,911,0,0
-77,113,0,0,0,0,0,0,0,0,0,-1,1147,911,0,0
-70,113,0,0,0,0,0,0,0,0,0,-1,1154,911,0,0
-63,113,0,0,0,0,0,0,0,0,0,-1,1161,911,0,0
-56,113,0,0,0,0,0,0,0,0,0,-1,1168,911,0,0
-49,113,0,0,0,0,0,0,0,0,0,-1,1175,911,0,0
-42,113,0,0,0,0,0,0,0,0,0,-1,1182,911,0,0
-35,113,0,0,0,0,0,0,0,0,0,-1,1189,911,0,0
-28,113,0,0,0,0,0,0,0,0,0,-1,1196,911,0,0
-21,113,0,0,0,0,0,0,0,0,0,-1,1203,911,0,0
-14,113,0,0,0,0,0,0,0,0,0,-1,1210,911,0,0
-7,113,0,0,0,0,0,0,0,0,0,-1,1217,911,0,0
0,113,0,0,0,0,0,0,0,0,0,-1,1224,911,0,0
7,113,0,0,0,0,0,0,0,0,0,-1,1231,911,0,0
14,113,0,0,0,0,0,0,0,0,0,-1,1238,911,0,0
21,113,0,0,0,0,0,0,0,0,0,-1,1245,911,0,0
28,113,0,0,0,0,0,0,0,0,0,-1,1252,911,0,0
35,113,0,0,0,0,0,0,0,0,0,-1,1259,911,0,0
42,113,0,0,0,0,0,0,0,0,0,-1,1266,911,0,0
49,113,0,0,0,0,0,0,0,0,0,-1,1273,911,0,0
56,113,0,0,0,0,0,0,0,0,0,-1,1280,911,0,0
63,113,0,0,0,0,0,0,0,0,0,-1,1287,911,0,0
70,113,0,0,0,0,0,0,0,0,0,-1,1294,911,0,0
77,113,0,0,0,0,0,0,0,0,0,-1,1301,911,0,0
84,113,0,0,0,0,0,0,0,0,0,-1,1308,911,0,0
91,113,0,0,0,0,0,0,0,0,0,-1,1315,911,0,0
98,113,0,0,0,0,0,0,0,0,0,-1,1322,911,0,0
105,113,0,0,0,0,0,0,0,0,0,-1,1329,911,0,0
112,113,0,0,0,0,0,0,0,0,0,-1,1336,911,0,0
119,113,0,0,0,0,0,0,0,0,0,-1,1343,911,0,0
126,113,0,0,0,0,0,0,0,0,0,-1,1350,911,0,0
133,113,0,0,0,0,0,0,0,0,0,-1,1357,911,0,0
140,113,0,0,0,0,0,0,0,0,0,-1,1364,911,0,0
147,113,0,0,0,0,0,0,0,0,0,-1,1371,911,0,0
154,113,0,0,0,0,0,0,0,0,0,-1,1378,911,0,0
161,113,0,0,0,0,0,0,0,0,0,-1,1385,911,0,0
168,113,0,0,0,0,0,0,0,0,0,-1,1392,911,0,0
175,113,0,0,0,0,0,0,0,0,0,-1,1399,911,0,0
182,113,0,0,0,0,0,0,0,0,0,-1,1406,911,0,0
189,113,0,0,0,0,0,0,0,0,0,-1,1413,911,0,0
196,113,0,0,0,0,0,0,0,0,0,-1,1420,911,0,0
203,113,0,0,0,0,0,0,0,0,0,-1,1427,911,0,0
210,113,0,0,0,0,0,0,0,0,0,-1,1434,911,0,0
217,113,0,0,0,0,0,0,0,0,0,-1,1441,911,0,0
224,113,0,0,0,0,0,0,0,0,0,-1,1448,911,0,0
231,113,0,0,0,0,0,0,0,0,0,-1,1455,911,0,0
238,113,0,0,0,0,0,0,0,0,0,-1,1462,911,0,0
245,113,0,0,0,0,0,0,0,0,0,-1,1469,911,0,0
252,113,0,0,0,0,0,0,0,0,0,-1,1476,911,0,0
259,113,0,0,0,0,0,0,0,0,0,-1,1483,911,0,0
266,113,0,0,0,0,0,0,0,0,0,-1,1490,911,0,0
273,113,0,0,0,0,0,0,0,0,0,-1,1497,911,0,0
280,113,0,0,0,0,0,0,0,0,0,-1,1504,911,0,0
287,113,0,0,0,0,0,0,0,0,0,-1,1511,911,0,0
294,113,0,0,0,0,0,0,0,0,0,-1,1518,911,0,0
301,113,0,0,0,0,0,0,0,0,0,-1,1525,911,0,0
308,113,0,0,0,0,0,0,0,0,0,-1,1532,911,0,0
315,113,0,0,0,0,0,0,0,0,0,-1,1539,911,0,0
322,113,0,0,0,0,0,0,0,0,0,-1,1546,911,0,0
329,113,0,0,0,0,0,0,0,0,0,-1,1553,911,0,0
336,113,0,0,0,0,0,0,0,0,0,-1,1560,911,0,0
343,113,0,0,0,0,0,0,0,0,0,-1,1567,911,0,0
350,113,0,0,0,0,0,0,0,0,0,-1,1574,911,0,0
357,113,0,0,0,0,0,0,0,0,0,-1,1581,911,0,0
364,113,0,0,0,0,0,0,0,0,0,-1,1588,911,0,0
371,113,0,0,0,0,0,0,0,0,0,-1,1595,911,0,0
378,113,0,0,0,0,0,0,0,0,0,-1,1602,911,0,0
385,113,0,0,0,0,0,0,0,0,0,-1,1609,911,0,0
392,113,0,0,0,0,0,0,0,0,0,-1,1616,911,0,0
399,113,0,0,0,0,0,0,0,0,0,-1,1623,911,0,0
406,113,0,0,0,0,0,0,0,0,0,-1,1630,911,0,0
413,113,0,0,0,0,0,0,0,0,0,-1,1637,911,0,0
420,113,0,0,0,0,0,0,0,0,0,-1,1644,911,0,0
427,113,0,0,0,0,0,0,0,0,0,-1,1651,911,0,0
434,113,0,0,0,0,0,0,0,0,0,-1,1658,911,0,0
441,113,0,0,0,0,0,0,0,0,0,-1,1665,911,0,0
448,113,0,0,0,0,0,0,0,0,0,-1,1672,911,0,0
455,113,0,0,0,0,0,0,0,0,0,-1,1679,911,0,0
462,113,0,0,0,0,0,0,0,0,0,-1,1686,911,0,0
469,113,0,0,0,0,0,0,0,0,0,-1,1693,911,0,0
476,113,0,0,0,0,0,0,0,0,0,-1,1700,911,0,0
483,113,0,0,0,0,0,0,0,0,0,-1,1707,911,0,0
490,113,0,0,0,0,0,0,0,0,0,-1,1714,911,0,0
497,113,0,0,0,0,0,0,0,0,0,-1,1721,911,0,0
504,113,0,0,0,0,0,0,0,0,0,-1,1728,911,0,0
511,113,0,0,0,0,0,0,0,0,0,-1,1735,911,0,0
518,113,0,0,0,0,0,0,0,0,0,-1,1742,911,0,0
525,113,0,0,0,0,0,0,0,0,0,-1,1749,911,0,0
532,113,0,0,0,0,0,0,0,0,0,-1,1756,911,0,0
539,113,0,0,0,0,0,0,0,0,0,-1,1763,911,0,0
546,113,0,0,0,0,0,0,0,0,0,-1,1770,911,0,0
553,113,0,0,0,0,0,0,0,0,0,-1,1777,911,0,0
560,113,0,0,0,0,0,0,0,0,0,-1,1784,911,0,0
567,113,0,0,0,0,0,0,0,0,0,-1,1791,911,0,0
574,113,0,0,0,0,0,0,0,0,0,-1,1798,911,0,0
581,113,0,0,0,0,0,0,0,0,0,-1,1805,911,0,0
588,113,0,0,0,0,0,0,0,0,0,-1,1812,911,0,0
595,113,0,0,0,0,0,0,0,0,0,-1,1819,911,0,0
602,113,0,0,0,0,0,0,0,0,0,-1,1826,911,0,0
609,113,0,0,0,0,0,0,0,0,0,-1,1833,911,0,0
616,113,0,0,0,0,0,0,0,0,0,-1,1840,911,0,0
623,113,0,0,0,0,0,0,0,0,0,-1,1847,911,0,0
630,113,39.5713,2.83417,-0.000751134,-0.00172521,-0.00471824,0.00350514,-0.00598149,-0.733968,0.00553896,0.0379581,1854,911,39.5713,-2.83418
637,113,39.5692,3.021,-0.000221367,-0.00135512,-0.0037523,0.00300663,-0.00458312,-0.710428,0.00441334,0.038824,1861,911,39.5692,-3.02098
644,113,39.7394,2.89404,3.6936e-05,-0.00127406,-0.00306597,0.0025167,-0.00375382,-0.680085,0.0036437,0.0391898,1868,911,39.7394,-2.89406
651,113,39.7863,2.65051,0.000130425,-0.00134563,-0.00250095,0.00199997,-0.00321517,-0.641921,0.00303809,0.04289,1875,911,39.7862,-2.65054
658,113,39.8003,2.6048,6.27335e-05,-0.00132158,-0.00198784,0.00147547,-0.00273432,-0.617865,0.00246648,0.0429467,1882,911,39.8003,-2.6048
665,113,39.7164,2.65131,2.04688e-05,-0.00126225,-0.00160458,0.00110712,-0.0023489,-0.595272,0.00203782,0.038124,1889,911,39.7164,-2.65129
672,113,39.6342,2.69232,4.45995e-05,-0.00122858,-0.00123699,0.000799191,-0.00198317,-0.547758,0.00165416,0.0373112,1896,911,39.6342,-2.69234
679,113,39.6345,2.58435,0.000128612,-0.00117739,-0.000957986,0.000634984,-0.00168376,-0.48625,0.00138362,0.0293874,1903,911,39.6346,-2.58433
686,113,39.6519,2.55634,0.000159705,-0.0010295,-0.000852338,0.000604348,-0.00147415,-0.480836,0.00123455,0.0288669,1910,911,39.6519,-2.55636
693,113,39.6108,2.61621,0,0,0,0,0,0,0,-1,1917,911,39.6108,-2.61621
700,113,38.9103,2.38635,0,0,0,0,0,0,0,-1,1924,911,38.9103,-2.38638
707,113,35.5905,3.26709,0,0,0,0,0,0,0,-1,1931,911,35.5905,-3.26711
714,113,35.6307,3.59521,-0.000303113,-7.05121e-05,-0.000463271,0.000290833,-0.000664458,-0.908378,0.000565424,0.0208109,1938,911,35.6307,-3.59519
721,113,35.6417,3.96869,-0.000144477,0.000363721,-0.000388424,0.000573776,-0.000354533,-1.07505,0.000540919,0.0190214,1945,911,35.6417,-3.96869
728,113,35.6902,4.40387,-9.4342e-05,0.00101832,-0.000135376,0.00103455,-0.000110576,-1.45145,0.000729359,0.0194918,1952,911,35.6902,-4.40388
735,113,35.6377,4.76581,0.00013441,0.00197175,0.000652139,0.00217969,-7.35254e-05,1.26214,0.00147824,0.0175659,1959,911,35.6377,-4.7658
742,113,35.6248,5.08258,0.000541106,0.00351742,0.00175622,0.0043312,-0.000272677,1.13688,0.00298252,0.0129931,1966,911,35.6248,-5.08261
749,113,35.6442,5.42706,0.00126243,0.00529861,0.00335302,0.00719401,-0.000632973,1.0563,0.00502032,0.00967739,1973,911,35.6442,-5.42706
756,113,35.5983,5.79688,0.0024318,0.00742894,0.00573953,0.0111902,-0.00132943,0.99069,0.00794044,0.0129159,1980,911,35.5983,-5.79686
763,113,35.4838,6.21649,0.00400673,0.00999316,0.00898459,0.01647,-0.00247012,0.946191,0.0118892,0.028094,1987,911,35.4838,-6.21648
770,113,35.7247,6.5589,0.0061274,0.0130138,0.0132102,0.0232222,-0.00408101,0.912885,0.0170058,0.0471326,1994,911,35.7247,-6.55889
777,113,36.1631,6.80731,0,0,0,0,0,0,0,-1,2001,911,36.163,-6.80731
784,113,36.8019,8.60223,0,0,0,0,0,0,0,-1,2008,911,36.8019,-8.60221
791,113,36.3225,9.34735,0,0,0,0,0,0,0,-1,2015,911,36.3224,-9.34737
798,113,36.8662,8.17346,0,0,0,0,0,0,0,-1,2022,911,36.8663,-8.17345
805,113,0,0,0,0,0,0,0,0,0,-1,2029,911,0,0
812,113,0,0,0,0,0,0,0,0,0,-1,2036,911,0,0
-700,106,0,0,0,0,0,0,0,0,0,-1,524,918,0,0
-693,106,0,0,0,0,0,0,0,0,0,-1,531,918,0,0
-686,106,0,0,0,0,0,0,0,0,0,-1,538,918,0,0
-679,106,-24.9626,1.28699,0,0,0,0,0,0,0,-1,545,918,-24.9626,-1.28698
-672,106,-25.457,0.956543,0,0,0,0,0,0,0,-1,552,918,-25.457,-0.956572
-665,106,-32.0143,-2.26752,0,0,0,0,0,0,0,-1,559,918,-32.0143,2.2675
-658,106,-25.9701,5.55273,0.0201014,-0.0122005,0.0372091,0.0445136,-0.0366127,0.580639,0.0469123,0.0457042,566,918,-25.9701,-5.55274
-651,106,-26.0802,4.99835,0.0202567,-0.00708651,0.0313397,0.040777,-0.0276068,0.579722,0.0397248,0.0466204,573,918,-26.0802,-4.99832
-644,106,-26.1294,4.37561,0.0186921,-0.00366186,0.0257983,0.0356305,-0.0206003,0.580982,0.0328492,0.0437166,580,918,-26.1294,-4.37559
-637,106,-26.1963,3.7547,0.0160704,-0.00152471,0.0207262,0.0297888,-0.0152432,0.584689,0.0264475,0.031156,587,918,-26.1963,-3.75468
-630,106,-26.3612,3.37903,0.0135099,0.000396283,0.0163638,0.0245816,-0.0106755,0.594849,0.0208768,0.0143995,594,918,-26.3612,-3.37903
-623,106,-26.4435,2.97559,0.010506,0.001456,0.0125669,0.0193378,-0.00737574,0.612588,0.0159301,0.0133645,601,918,-26.4435,-2.9756
-616,106,-26.4692,2.64581,0.00633987,0.000982141,0.00871541,0.0127788,-0.00545681,0.636295,0.0108075,0.0131748,608,918,-26.4692,-2.6458
-609,106,-26.464,2.36682,0.0022536,0.000285795,0.0053875,0.0067463,-0.00420691,0.69508,0.00638024,0.0115929,615,918,-26.464,-2.36685
-602,106,-26.4694,2.05127,-0.000871367,8.81407e-05,0.00391248,0.00355017,-0.0043334,0.846404,0.00455906,0.0165903,622,918,-26.4694,-2.05128
-595,106,-26.5603,1.75897,-0.00265329,-0.000634068,0.00255048,0.00109936,-0.00438672,0.97386,0.00335158,0.021062,629,918,-26.5603,-1.75899
-588,106,-26.5318,1.4472,-0.0038986,-0.00091046,0.00139445,-0.000360822,-0.00444824,1.19533,0.00285283,0.024027,636,918,-26.5318,-1.44717
-581,106,-26.3992,1.08618,-0.00464762,-0.000817691,0.000663348,-0.000706053,-0.00475925,1.40406,0.00296563,0.0153004,643,918,-26.3992,-1.08617
-574,106,-26.3445,0.728271,0,0,0,0,0,0,0,-1,650,918,-26.3445,-0.728251
-567,106,-29.0832,0.731384,0,0,0,0,0,0,0,-1,657,918,-29.0832,-0.731415
-560,106,-29.123,0.773987,-0.0044496,-0.000506904,-0.000450565,-0.00045607,-0.00450044,-1.45845,0.00286041,0.046693,664,918,-29.123,-0.773994
-553,106,-29.1569,0.802551,-0.00416713,-0.000409496,-0.00064166,-0.000302947,-0.00427368,-1.40624,0.0027537,0.0335863,671,918,-29.1569,-0.802562
-546,106,-29.118,0.86145,-0.00377974,-7.67412e-05,-0.000830306,0.000100912,-0.00395739,-1.36001,0.00267253,0.0368641,678,918,-29.118,-0.861452
-539,106,-29.0107,0.993652,-0.00320485,0.000384684,-0.00101021,0.000649457,-0.00346962,-1.31446,0.00255721,0.0404181,685,918,-29.0107,-0.993647
-532,106,-28.9716,0.830139,-0.00266347,0.000919912,-0.00115103,0.00125778,-0.00300134,-1.28528,0.00252675,0.0410899,692,918,-28.9715,-0.830132
-525,106,-29.0878,0.799866,-0.00253579,0.00147061,-0.00137262,0.00189576,-0.00296094,-1.27043,0.00282641,0.0394486,699,918,-29.0878,-0.799837
-518,106,-29.2145,0.830078,-0.00433873,0.00173607,-0.0017573,0.00220778,-0.00481045,-1.30855,0.00414382,0.0404715,706,918,-29.2145,-0.83007
-511,106,0,0,0,0,0,0,0,0,0,-1,713,918,0,0
-504,106,0,0,0,0,0,0,0,0,0,-1,720,918,0,0
-497,106,0,0,0,0,0,0,0,0,0,-1,727,918,0,0
-490,106,0,0,0,0,0,0,0,0,0,-1,734,918,0,0
-483,106,0,0,0,0,0,0,0,0,0,-1,741,918,0,0
-476,106,0,0,0,0,0,0,0,0,0,-1,748,918,0,0
-469,106,0,0,0,0,0,0,0,0,0,-1,755,918,0,0
-462,106,0,0,0,0,0,0,0,0,0,-1,762,918,0,0
-455,106,0,0,0,0,0,0,0,0,0,-1,769,918,0,0
-448,106,0,0,0,0,0,0,0,0,0,-1,776,918,0,0
-441,106,0,0,0,0,0,0,0,0,0,-1,783,918,0,0
-434,106,0,0,0,0,0,0,0,0,0,-1,790,918,0,0
-427,106,0,0,0,0,0,0,0,0,0,-1,797,918,0,0
-420,106,0,0,0,0,0,0,0,0,0,-1,804,918,0,0
-413,106,0,0,0,0,0,0,0,0,0,-1,811,918,0,0
-406,106,0,0,0,0,0,0,0,0,0,-1,818,918,0,0
-399,106,0,0,0,0,0,0,0,0,0,-1,825,918,0,0
-392,106,0,0,0,0,0,0,0,0,0,-1,832,918,0,0
-385,106,0,0,0,0,0,0,0,0,0,-1,839,918,0,0
-378,106,0,0,0,0,0,0,0,0,0,-1,846,918,0,0
-371,106,0,0,0,0,0,0,0,0,0,-1,853,918,0,0
-364,106,0,0,0,0,0,0,0,0,0,-1,860,918,0,0
-357,106,0,0,0,0,0,0,0,0,0,-1,867,918,0,0
-350,106,0,0,0,0,0,0,0,0,0,-1,874,918,0,0
-343,106,0,0,0,0,0,0,0,0,0,-1,881,918,0,0
-336,106,0,0,0,0,0,0,0,0,0,-1,888,918,0,0
-329,106,0,0,0,0,0,0,0,0,0,-1,895,918,0,0
-322,106,0,0,0,0,0,0,0,0,0,-1,902,918,0,0
-315,106,0,0,0,0,0,0,0,0,0,-1,909,918,0,0
-308,106,0,0,0,0,0,0,0,0,0,-1,916,918,0,0
-301,106,0,0,0,0,0,0,0,0,0,-1,923,918,0,0
-294,106,0,0,0,0,0,0,0,0,0,-1,930,918,0,0
-287,106,0,0,0,0,0,0,0,0,0,-1,937,918,0,0
-280,106,0,0,0,0,0,0,0,0,0,-1,944,918,0,0
-273,106,0,0,0,0,0,0,0,0,0,-1,951,918,0,0
-266,106,0,0,0,0,0,0,0,0,0,-1,958,918,0,0
-259,106,0,0,0,0,0,0,0,0,0,-1,965,918,0,0
-252,106,0,0,0,0,0,0,0,0,0,-1,972,918,0,0
-245,106,0,0,0,0,0,0,0,0,0,-1,979,918,0,0
-238,106,0,0,0,0,0,0,0,0,0,-1,986,918,0,0
-231,106,0,0,0,0,0,0,0,0,0,-1,993,918,0,0
-224,106,0,0,0,0,0,0,0,0,0,-1,1000,918,0,0
-217,106,0,0,0,0,0,0,0,0,0,-1,1007,918,0,0
-210,106,0,0,0,0,0,0,0,0,0,-1,1014,918,0,0
-203,106,0,0,0,0,0,0,0,0,0,-1,1021,918,0,0
-196,106,0,0,0,0,0,0,0,0,0,-1,1028,918,0,0
-189,106,0,0,0,0,0,0,0,0,0,-1,1035,918,0,0
-182,106,0,0,0,0,0,0,0,0,0,-1,1042,918,0,0
-175,106,0,0,0,0,0,0,0,0,0,-1,1049,918,0,0
-168,106,0,0,0,0,0,0,0,0,0,-1,1056,918,0,0
-161,106,0,0,0,0,0,0,0,0,0,-1,1063,918,0,0
-154,106,0,0,0,0,0,0,0,0,0,-1,1070,918,0,0
-147,106,0,0,0,0,0,0,0,0,0,-1,1077,918,0,0
-140,106,0,0,0,0,0,0,0,0,0,-1,1084,918,0,0
-133,106,0,0,0,0,0,0,0,0,0,-1,1091,918,0,0
-126,106,0,0,0,0,0,0,0,0,0,-1,1098,918,0,0
-119,106,0,0,0,0,0,0,0,0,0,-1,1105,918,0,0
-112,106,0,0,0,0,0,0,0,0,0,-1,1112,918,0,0
-105,106,0,0,0,0,0,0,0,0,0,-1,1119,918,0,0
-98,106,0,0,0,0,0,0,0,0,0,-1,1126,918,0,0
-91,106,0,0,0,0,0,0,0,0,0,-1,1133,918,0,0
-84,106,0,0,0,0,0,0,0,0,0,-1,1140,918,0,0
-77,106,0,0,0,0,0,0,0,0,0,-1,1147,918,0,0
-70,106,0,0,0,0,0,0,0,0,0,-1,1154,918,0,0
-63,106,0,0,0,0,0,0,0,0,0,-1,1161,918,0,0
-56,106,0,0,0,0,0,0,0,0,0,-1,1168,918,0,0
-49,106,0,0,0,0,0,0,0,0,0,-1,1175,918,0,0
-42,106,0,0,0,0,0,0,0,0,0,-1,1182,918,0,0
-35,106,0,0,0,0,0,0,0,0,0,-1,1189,918,0,0
-28,106,0,0,0,0,0,0,0,0,0,-1,1196,918,0,0
-21,106,0,0,0,0,0,0,0,0,0,-1,1203,918,0,0
-14,106,0,0,0,0,0,0,0,0,0,-1,1210,918,0,0
-7,106,0,0,0,0,0,0,0,0,0,-1,1217,918,0,0
0,106,0,0,0,0,0,0,0,0,0,-1,1224,918,0,0
7,106,0,0,0,0,0,0,0,0,0,-1,1231,918,0,0
14,106,0,0,0,0,0,0,0,0,0,-1,1238,918,0,0
21,106,0,0,0,0,0,0,0,0,0,-1,1245,918,0,0
28,106,0,0,0,0,0,0,0,0,0,-1,1252,918,0,0
35,106,0,0,0,0,0,0,0,0,0,-1,1259,918,0,0
42,106,0,0,0,0,0,0,0,0,0,-1,1266,918,0,0
49,106,0,0,0,0,0,0,0,0,0,-1,1273,918,0,0
56,106,0,0,0,0,0,0,0,0,0,-1,1280,918,0,0
63,106,0,0,0,0,0,0,0,0,0,-1,1287,918,0,0
70,106,0,0,0,0,0,0,0,0,0,-1,1294,918,0,0
77,106,0,0,0,0,0,0,0,0,0,-1,1301,918,0,0
84,106,0,0,0,0,0,0,0,0,0,-1,1308,918,0,0
91,106,0,0,0,0,0,0,0,0,0,-1,1315,918,0,0
98,106,0,0,0,0,0,0,0,0,0,-1,1322,918,0,0
105,106,0,0,0,0,0,0,0,0,0,-1,1329,918,0,0
112,106,0,0,0,0,0,0,0,0,0,-1,1336,918,0,0
119,106,0,0,0,0,0,0,0,0,0,-1,1343,918,0,0
126,106,0,0,0,0,0,0,0,0,0,-1,1350,918,0,0
133,106,0,0,0,0,0,0,0,0,0,-1,1357,918,0,0
140,106,0,0,0,0,0,0,0,0,0,-1,1364,918,0,0
147,106,0,0,0,0,0,0,0,0,0,-1,1371,918,0,0
154,106,0,0,0,0,0,0,0,0,0,-1,1378,918,0,0
161,106,0,0,0,0,0,0,0,0,0,-1,1385,918,0,0
168,106,0,0,0,0,0,0,0,0,0,-1,1392,918,0,0
175,106,0,0,0,0,0,0,0,0,0,-1,1399,918,0,0
182,106,0,0,0,0,0,0,0,0,0,-1,1406,918,0,0
189,106,0,0,0,0,0,0,0,0,0,-1,1413,918,0,0
196,106,0,0,0,0,0,0,0,0,0,-1,1420,918,0,0
203,106,0,0,0,0,0,0,0,0,0,-1,1427,918,0,0
210,106,0,0,0,0,0,0,0,0,0,-1,1434,918,0,0
217,106,0,0,0,0,0,0,0,0,0,-1,1441,918,0,0
224,106,0,0,0,0,0,0,0,0,0,-1,1448,918,0,0
231,106,0,0,0,0,0,0,0,0,0,-1,1455,918,0,0
238,106,0,0,0,0,0,0,0,0,0,-1,1462,918,0,0
245,106,0,0,0,0,0,0,0,0,0,-1,1469,918,0,0
252,106,0,0,0,0,0,0,0,0,0,-1,1476,918,0,0
259,106,0,0,0,0,0,0,0,0,0,-1,1483,918,0,0
266,106,0,0,0,0,0,0,0,0,0,-1,1490,918,0,0
273,106,0,0,0,0,0,0,0,0,0,-1,1497,918,0,0
280,106,0,0,0,0,0,0,0,0,0,-1,1504,918,0,0
287,106,0,0,0,0,0,0,0,0,0,-1,1511,918,0,0
294,106,0,0,0,0,0,0,0,0,0,-1,1518,918,0,0
301,106,0,0,0,0,0,0,0,0,0,-1,1525,918,0,0
308,106,0,0,0,0,0,0,0,0,0,-1,1532,918,0,0
315,106,0,0,0,0,0,0,0,0,0,-1,1539,918,0,0
322,106,0,0,0,0,0,0,0,0,0,-1,1546,918,0,0
329,106,0,0,0,0,0,0,0,0,0,-1,1553,918,0,0
336,106,0,0,0,0,0,0,0,0,0,-1,1560,918,0,0
343,106,0,0,0,0,0,0,0,0,0,-1,1567,918,0,0
350,106,0,0,0,0,0,0,0,0,0,-1,1574,918,0,0
357,106,0,0,0,0,0,0,0,0,0,-1,1581,918,0,0
364,106,0,0,0,0,0,0,0,0,0,-1,1588,918,0,0
371,106,0,0,0,0,0,0,0,0,0,-1,1595,918,0,0
378,106,0,0,0,0,0,0,0,0,0,-1,1602,918,0,0
385,106,0,0,0,0,0,0,0,0,0,-1,1609,918,0,0
392,106,0,0,0,0,0,0,0,0,0,-1,1616,918,0,0
399,106,0,0,0,0,0,0,0,0,0,-1,1623,918,0,0
406,106,0,0,0,0,0,0,0,0,0,-1,1630,918,0,0
413,106,0,0,0,0,0,0,0,0,0,-1,1637,918,0,0
420,106,0,0,0,0,0,0,0,0,0,-1,1644,918,0,0
427,106,0,0,0,0,0,0,0,0,0,-1,1651,918,0,0
434,106,0,0,0,0,0,0,0,0,0,-1,1658,918,0,0
441,106,0,0,0,0,0,0,0,0,0,-1,1665,918,0,0
448,106,0,0,0,0,0,0,0,0,0,-1,1672,918,0,0
455,106,0,0,0,0,0,0,0,0,0,-1,1679,918,0,0
462,106,0,0,0,0,0,0,0,0,0,-1,1686,918,0,0
469,106,0,0,0,0,0,0,0,0,0,-1,1693,918,0,0
476,106,0,0,0,0,0,0,0,0,0,-1,1700,918,0,0
483,106,0,0,0,0,0,0,0,0,0,-1,1707,918,0,0
490,106,0,0,0,0,0,0,0,0,0,-1,1714,918,0,0
497,106,0,0,0,0,0,0,0,0,0,-1,1721,918,0,0
504,106,0,0,0,0,0,0,0,0,0,-1,1728,918,0,0
511,106,0,0,0,0,0,0,0,0,0,-1,1735,918,0,0
518,106,0,0,0,0,0,0,0,0,0,-1,1742,918,0,0
525,106,0,0,0,0,0,0,0,0,0,-1,1749,918,0,0
532,106,0,0,0,0,0,0,0,0,0,-1,1756,918,0,0
539,106,0,0,0,0,0,0,0,0,0,-1,1763,918,0,0
546,106,0,0,0,0,0,0,0,0,0,-1,1770,918,0,0
553,106,0,0,0,0,0,0,0,0,0,-1,1777,918,0,0
560,106,0,0,0,0,0,0,0,0,0,-1,1784,918,0,0
567,106,0,0,0,0,0,0,0,0,0,-1,1791,918,0,0
574,106,0,0,0,0,0,0,0,0,0,-1,1798,918,0,0
581,106,0,0,0,0,0,0,0,0,0,-1,1805,918,0,0
588,106,0,0,0,0,0,0,0,0,0,-1,1812,918,0,0
595,106,0,0,0,0,0,0,0,0,0,-1,1819,918,0,0
602,106,0,0,0,0,0,0,0,0,0,-1,1826,918,0,0
609,106,0,0,0,0,0,0,0,0,0,-1,1833,918,0,0
616,106,0,0,0,0,0,0,0,0,0,-1,1840,918,0,0
623,106,0,0,0,0,0,0,0,0,0,-1,1847,918,0,0
630,106,39.5852,2.86993,-0.00136671,-0.000502543,-0.00462569,0.0037112,-0.00558045,-0.831968,0.0054006,0.0406788,1854,918,39.5852,-2.86993
637,106,39.6156,3.01685,-0.000556644,-0.000322457,-0.00371239,0.00327469,-0.00415379,-0.801164,0.00429883,0.0397894,1861,918,39.6156,-3.01685
644,106,39.6689,2.94464,-0.00017505,-0.000368056,-0.00307486,0.00280482,-0.00334792,-0.769711,0.0035569,0.0379106,1868,918,39.6689,-2.94466
651,106,39.782,2.72888,-1.91775e-05,-0.000594037,-0.00253406,0.0022437,-0.00285692,-0.728926,0.00295193,0.0409997,1875,918,39.7819,-2.72888
658,106,39.8698,2.63531,-8.22834e-05,-0.000702684,-0.00200233,0.00163373,-0.0024187,-0.708549,0.00235426,0.041194,1882,918,39.8698,-2.63529
665,106,39.761,2.61542,-0.000158857,-0.000728103,-0.0015572,0.00113952,-0.00202648,-0.695007,0.00185165,0.0386638,1889,918,39.7609,-2.61541
672,106,39.6273,2.67853,-0.00017163,-0.00076207,-0.00113965,0.000710413,-0.00164411,-0.658661,0.00139456,0.038763,1896,918,39.6273,-2.67855
679,106,39.6398,2.84009,-0.000121933,-0.00079885,-0.000809096,0.000416644,-0.00133743,-0.5873,0.0010582,0.0327504,1903,918,39.6397,-2.84009
686,106,39.6578,2.57501,-9.36247e-05,-0.000729342,-0.000668863,0.000329065,-0.00115203,-0.563583,0.000898036,0.0328076,1910,918,39.6579,-2.57501
693,106,39.6823,2.45679,-0.000145235,-0.000627623,-0.000481452,0.000152061,-0.000924918,-0.553186,0.000673049,0.0331839,1917,918,39.6823,-2.45678
700,106,39.8552,2.11536,0,0,0,0,0,0,0,-1,1924,918,39.8552,-2.11538
707,106,35.9197,3.20026,0,0,0,0,0,0,0,-1,1931,918,35.9197,-3.20023
714,106,36.0233,3.59241,-0.000574896,9.61953e-05,-0.000308018,0.000216134,-0.000694834,-1.19947,0.00054962,0.0264936,1938,918,36.0233,-3.59241
721,106,36.0308,4.00714,-0.000459534,0.000537887,-0.000237279,0.000591457,-0.000513103,-1.34875,0.000638253,0.0224432,1945,918,36.0308,-4.00714
728,106,36.0981,4.41833,-0.000407807,0.00116304,-2.86833e-05,0.00116356,-0.000408331,-1.55254,0.000941803,0.0219505,1952,918,36.0982,-4.41834
735,106,36.0625,4.75122,-0.000176289,0.00221729,0.000697035,0.00240547,-0.000364477,1.3071,0.00173793,0.0195848,1959,918,36.0625,-4.75123
742,106,36.0164,5.06995,0.000202491,0.00388553,0.00170272,0.00455209,-0.000464069,1.19767,0.00320065,0.0121108,1966,918,36.0164,-5.06995
749,106,36.0051,5.41083,0.000830671,0.00598959,0.00322112,0.00753678,-0.00071652,1.12301,0.00527959,0.00991405,1973,918,36.0051,-5.41081
756,106,35.9672,5.74176,0.00194214,0.00859914,0.00561086,0.0117945,-0.00125321,1.05311,0.00831228,0.0123386,1980,918,35.9672,-5.74174
763,106,35.8945,6.15784,0.00349297,0.0117576,0.00894832,0.0174817,-0.00223111,1.00171,0.0124649,0.0230574,1987,918,35.8945,-6.15786
770,106,35.9918,6.47076,0.00559769,0.0154479,0.013276,0.024683,-0.00363735,0.963018,0.0177921,0.0420463,1994,918,35.9919,-6.47077
777,106,36.198,6.74286,0,0,0,0,0,0,0,-1,2001,918,36.198,-6.74286
784,106,36.7014,8.04077,0.0122759,0.0247033,0.0265073,0.0457154,-0.00873627,0.900527,0.0337679,0.046703,2008,918,36.7014,-8.04075
791,106,36.345,8.97809,0.017044,0.0304804,0.0355898,0.0599805,-0.0124562,0.878685,0.0447211,0.0481556,2015,918,36.3449,-8.97807
798,106,35.8889,9.67676,0,0,0,0,0,0,0,-1,2022,918,35.8889,-9.67678
805,106,0,0,0,0,0,0,0,0,0,-1,2029,918,0,0
812,106,0,0,0,0,0,0,0,0,0,-1,2036,918,0,0
-700,99,0,0,0,0,0,0,0,0,0,-1,524,925,0,0
-693,99,0,0,0,0,0,0,0,0,0,-1,531,925,0,0
-686,99,0,0,0,0,0,0,0,0,0,-1,538,925,0,0
-679,99,-25.1573,2.07721,-0.0174886,-0.0440608,0.0420391,0.0133139,-0.0748634,0.632344,0.0548878,0.0468777,545,925,-25.1574,-2.07718
-672,99,-25.8364,2.07538,0,0,0,0,0,0,0,-1,552,925,-25.8364,-2.07539
-665,99,-25.5298,6.52863,0,0,0,0,0,0,0,-1,559,925,-25.5299,-6.5286
-658,99,-25.4932,5.95135,0.00534531,-0.0122479,0.0284989,0.0263743,-0.033277,0.635704,0.0345165,0.047561,566,925,-25.4931,-5.95134
-651,99,-26.2816,5.56683,0.00772742,-0.00682014,0.0239947,0.0255266,-0.0246193,0.63823,0.0289534,0.0468311,573,925,-26.2815,-5.56683
-644,99,-26.4523,4.65784,0.00849758,-0.00314972,0.0198104,0.0233226,-0.0179747,0.642441,0.0239096,0.0422559,580,925,-26.4523,-4.65786
-637,99,-26.5401,3.74133,0.00809897,-0.00094571,0.0160106,0.0202137,-0.0130604,0.647755,0.0193582,0.0279496,587,925,-26.5401,-3.74135
-630,99,-26.6967,3.32898,0.00740576,0.0010592,0.0127146,0.017337,-0.00887209,0.663107,0.0153927,0.0150964,594,925,-26.6966,-3.32896
-623,99,-26.8115,2.98376,0.00600557,0.00213067,0.0098713,0.0141278,-0.00599151,0.688495,0.0119283,0.00930176,601,925,-26.8115,-2.98378
-616,99,-26.8168,2.66455,0.00333067,0.00155495,0.00692255,0.00942206,-0.00453644,0.721618,0.00822185,0.0105962,608,925,-26.8169,-2.66456
-609,99,-26.8044,2.36829,0.000299599,0.000807768,0.00429568,0.00485687,-0.0037495,0.814938,0.00498258,0.0110682,615,925,-26.8044,-2.36831
-602,99,-26.801,2.09546,-0.00219023,0.000531737,0.00326177,0.00270507,-0.00436357,0.983044,0.00411836,0.0137428,622,925,-26.801,-2.09544
-595,99,-26.8944,1.82153,-0.00374253,-0.000298868,0.00212685,0.000715757,-0.00475715,1.12567,0.00343497,0.0179839,629,925,-26.8944,-1.82153
-588,99,-26.8887,1.51495,-0.00490007,-0.000644615,0.00112048,-0.000367617,-0.00517707,1.32844,0.0033356,0.0188236,636,925,-26.8887,-1.51496
-581,99,-26.7814,1.13788,-0.00562809,-0.000599145,0.000462508,-0.000556962,-0.00567027,1.47984,0.00360888,0.0132513,643,925,-26.7814,-1.1379
-574,99,-26.7269,0.740784,0,0,0,0,0,0,0,-1,650,925,-26.7269,-0.740798
-567,99,-29.0937,0.734863,0,0,0,0,0,0,0,-1,657,925,-29.0937,-0.734861
-560,99,-29.0611,0.742126,-0.00545589,-0.000145491,-0.000603402,-7.77917e-05,-0.00552359,-1.45907,0.00365674,0.0374823,664,925,-29.0611,-0.742126
-553,99,-29.0998,0.83905,-0.0050964,0.00011189,-0.000799726,0.000231921,-0.00521643,-1.42182,0.00355744,0.0358119,671,925,-29.0998,-0.839054
-546,99,-29.0413,0.917236,-0.00452672,0.000580549,-0.000998067,0.000768663,-0.00471483,-1.3845,0.00342829,0.0384104,678,925,-29.0412,-0.917263
-539,99,-28.9929,1.01843,-0.00368574,0.00119388,-0.00120663,0.00147595,-0.00396781,-1.34115,0.00325086,0.0383987,685,925,-28.9929,-1.01843
-532,99,-28.9334,0.905884,-0.00275645,0.00189135,-0.00142814,0.00229511,-0.00316021,-1.29527,0.0031628,0.0416965,692,925,-28.9334,-0.905868
-525,99,-29.1251,0.770874,-0.00234653,0.00269375,-0.00184748,0.0032984,-0.00295117,-1.2545,0.00361005,0.0424167,699,925,-29.1251,-0.77087
-518,99,-29.4059,0.623779,-0.00456329,0.0033331,-0.0024749,0.00404467,-0.00527485,-1.29083,0.00539623,0.0417526,706,925,-29.4059,-0.623807
-511,99,0,0,0,0,0,0,0,0,0,-1,713,925,0,0
-504,99,0,0,0,0,0,0,0,0,0,-1,720,925,0,0
-497,99,0,0,0,0,0,0,0,0,0,-1,727,925,0,0
-490,99,0,0,0,0,0,0,0,0,0,-1,734,925,0,0
-483,99,0,0,0,0,0,0,0,0,0,-1,741,925,0,0
-476,99,0,0,0,0,0,0,0,0,0,-1,748,925,0,0
-469,99,0,0,0,0,0,0,0,0,0,-1,755,925,0,0
-462,99,0,0,0,0,0,0,0,0,0,-1,762,925,0,0
-455,99,0,0,0,0,0,0,0,0,0,-1,769,925,0,0
-448,99,0,0,0,0,0,0,0,0,0,-1,776,925,0,0
-441,99,0,0,0,0,0,0,0,0,0,-1,783,925,0,0
-434,99,0,0,0,0,0,0,0,0,0,-1,790,925,0,0
-427,99,0,0,0,0,0,0,0,0,0,-1,797,925,0,0
-420,99,0,0,0,0,0,0,0,0,0,-1,804,925,0,0
-413,99,0,0,0,0,0,0,0,0,0,-1,811,925,0,0
-406,99,0,0,0,0,0,0,0,0,0,-1,818,925,0,0
-399,99,0,0,0,0,0,0,0,0,0,-1,825,925,0,0
-392,99,0,0,0,0,0,0,0,0,0,-1,832,925,0,0
-385,99,0,0,0,0,0,0,0,0,0,-1,839,925,0,0
-378,99,0,0,0,0,0,0,0,0,0,-1,846,925,0,0
-371,99,0,0,0,0,0,0,0,0,0,-1,853,925,0,0
-364,99,0,0,0,0,0,0,0,0,0,-1,860,925,0,0
-357,99,0,0,0,0,0,0,0,0,0,-1,867,925,0,0
-350,99,0,0,0,0,0,0,0,0,0,-1,874,925,0,0
-343,99,0,0,0,0,0,0,0,0,0,-1,881,925,0,0
-336,99,0,0,0,0,0,0,0,0,0,-1,888,925,0,0
-329,99,0,0,0,0,0,0,0,0,0,-1,895,925,0,0
-322,99,0,0,0,0,0,0,0,0,0,-1,902,925,0,0
-315,99,0,0,0,0,0,0,0,0,0,-1,909,925,0,0
-308,99,0,0,0,0,0,0,0,0,0,-1,916,925,0,0
-301,99,0,0,0,0,0,0,0,0,0,-1,923,925,0,0
-294,99,0,0,0,0,0,0,0,0,0,-1,930,925,0,0
-287,99,0,0,0,0,0,0,0,0,0,-1,937,925,0,0
-280,99,0,0,0,0,0,0,0,0,0,-1,944,925,0,0
-273,99,0,0,0,0,0,0,0,0,0,-1,951,925,0,0
-266,99,0,0,0,0,0,0,0,0,0,-1,958,925,0,0
-259,99,0,0,0,0,0,0,0,0,0,-1,965,925,0,0
-252,99,0,0,0,0,0,0,0,0,0,-1,972,925,0,0
-245,99,0,0,0,0,0,0,0,0,0,-1,979,925,0,0
-238,99,0,0,0,0,0,0,0,0,0,-1,986,925,0,0
-231,99,0,0,0,0,0,0,0,0,0,-1,993,925,0,0
-224,99,0,0,0,0,0,0,0,0,0,-1,1000,925,0,0
-217,99,0,0,0,0,0,0,0,0,0,-1,1007,925,0,0
-210,99,0,0,0,0,0,0,0,0,0,-1,1014,925,0,0
-203,99,0,0,0,0,0,0,0,0,0,-1,1021,925,0,0
-196,99,0,0,0,0,0,0,0,0,0,-1,1028,925,0,0
-189,99,0,0,0,0,0,0,0,0,0,-1,1035,925,0,0
-182,99,0,0,0,0,0,0,0,0,0,-1,1042,925,0,0
-175,99,0,0,0,0,0,0,0,0,0,-1,1049,925,0,0
-168,99,0,0,0,0,0,0,0,0,0,-1,1056,925,0,0
-161,99,0,0,0,0,0,0,0,0,0,-1,1063,925,0,0
-154,99,0,0,0,0,0,0,0,0,0,-1,1070,925,0,0
-147,99,0,0,0,0,0,0,0,0,0,-1,1077,925,0,0
-140,99,0,0,0,0,0,0,0,0,0,-1,1084,925,0,0
-133,99,0,0,0,0,0,0,0,0,0,-1,1091,925,0,0
-126,99,0,0,0,0,0,0,0,0,0,-1,1098,925,0,0
-119,99,0,0,0,0,0,0,0,0,0,-1,1105,925,0,0
-112,99,0,0,0,0,0,0,0,0,0,-1,1112,925,0,0
-105,99,0,0,0,0,0,0,0,0,0,-1,1119,925,0,0
-98,99,0,0,0,0,0,0,0,0,0,-1,1126,925,0,0
-91,99,0,0,0,0,0,0,0,0,0,-1,1133,925,0,0
-84,99,0,0,0,0,0,0,0,0,0,-1,1140,925,0,0
-77,99,0,0,0,0,0,0,0,0,0,-1,1147,925,0,0
-70,99,0,0,0,0,0,0,0,0,0,-1,1154,925,0,0
-63,99,0,0,0,0,0,0,0,0,0,-1,1161,925,0,0
-56,99,0,0,0,0,0,0,0,0,0,-1,1168,925,0,0
-49,99,0,0,0,0,0,0,0,0,0,-1,1175,925,0,0
-42,99,0,0,0,0,0,0,0,0,0,-1,1182,925,0,0
-35,99,0,0,0,0,0,0,0,0,0,-1,1189,925,0,0
-28,99,0,0,0,0,0,0,0,0,0,-1,1196,925,0,0
-21,99,0,0,0,0,0,0,0,0,0,-1,1203,925,0,0
-14,99,0,0,0,0,0,0,0,0,0,-1,1210,925,0,0
-7,99,0,0,0,0,0,0,0,0,0,-1,1217,925,0,0
0,99,0,0,0,0,0,0,0,0,0,-1,1224,925,0,0
7,99,0,0,0,0,0,0,0,0,0,-1,1231,925,0,0
14,99,0,0,0,0,0,0,0,0,0,-1,1238,925,0,0
21,99,0,0,0,0,0,0,0,0,0,-1,1245,925,0,0
28,99,0,0,0,0,0,0,0,0,0,-1,1252,925,0,0
35,99,0,0,0,0,0,0,0,0,0,-1,1259,925,0,0
42,99,0,0,0,0,0,0,0,0,0,-1,1266,925,0,0
49,99,0,0,0,0,0,0,0,0,0,-1,1273,925,0,0
56,99,0,0,0,0,0,0,0,0,0,-1,1280,925,0,0
63,99,0,0,0,0,0,0,0,0,0,-1,1287,925,0,0
70,99,0,0,0,0,0,0,0,0,0,-1,1294,925,0,0
77,99,0,0,0,0,0,0,0,0,0,-1,1301,925,0,0
84,99,0,0,0,0,0,0,0,0,0,-1,1308,925,0,0
91,99,0,0,0,0,0,0,0,0,0,-1,1315,925,0,0
98,99,0,0,0,0,0,0,0,0,0,-1,1322,925,0,0
105,99,0,0,0,0,0,0,0,0,0,-1,1329,925,0,0
112,99,0,0,0,0,0,0,0,0,0,-1,1336,925,0,0
119,99,0,0,0,0,0,0,0,0,0,-1,1343,925,0,0
126,99,0,0,0,0,0,0,0,0,0,-1,1350,925,0,0
133,99,0,0,0,0,0,0,0,0,0,-1,1357,925,0,0
140,99,0,0,0,0,0,0,0,0,0,-1,1364,925,0,0
147,99,0,0,0,0,0,0,0,0,0,-1,1371,925,0,0
154,99,0,0,0,0,0,0,0,0,0,-1,1378,925,0,0
161,99,0,0,0,0,0,0,0,0,0,-1,1385,925,0,0
168,99,0,0,0,0,0,0,0,0,0,-1,1392,925,0,0
175,99,0,0,0,0,0,0,0,0,0,-1,1399,925,0,0
182,99,0,0,0,0,0,0,0,0,0,-1,1406,925,0,0
189,99,0,0,0,0,0,0,0,0,0,-1,1413,925,0,0
196,99,0,0,0,0,0,0,0,0,0,-1,1420,925,0,0
203,99,0,0,0,0,0,0,0,0,0,-1,1427,925,0,0
210,99,0,0,0,0,0,0,0,0,0,-1,1434,925,0,0
217,99,0,0,0,0,0,0,0,0,0,-1,1441,925,0,0
224,99,0,0,0,0,0,0,0,0,0,-1,1448,925,0,0
231,99,0,0,0,0,0,0,0,0,0,-1,1455,925,0,0
238,99,0,0,0,0,0,0,0,0,0,-1,1462,925,0,0
245,99,0,0,0,0,0,0,0,0,0,-1,1469,925,0,0
252,99,0,0,0,0,0,0,0,0,0,-1,1476,925,0,0
259,99,0,0,0,0,0,0,0,0,0,-1,1483,925,0,0
266,99,0,0,0,0,0,0,0,0,0,-1,1490,925,0,0
273,99,0,0,0,0,0,0,0,0,0,-1,1497,925,0,0
280,99,0,0,0,0,0,0,0,0,0,-1,1504,925,0,0
287,99,0,0,0,0,0,0,0,0,0,-1,1511,925,0,0
294,99,0,0,0,0,0,0,0,0,0,-1,1518,925,0,0
301,99,0,0,0,0,0,0,0,0,0,-1,1525,925,0,0
308,99,0,0,0,0,0,0,0,0,0,-1,1532,925,0,0
315,99,0,0,0,0,0,0,0,0,0,-1,1539,925,0,0
322,99,0,0,0,0,0,0,0,0,0,-1,1546,925,0,0
329,99,0,0,0,0,0,0,0,0,0,-1,1553,925,0,0
336,99,0,0,0,0,0,0,0,0,0,-1,1560,925,0,0
343,99,0,0,0,0,0,0,0,0,0,-1,1567,925,0,0
350,99,0,0,0,0,0,0,0,0,0,-1,1574,925,0,0
357,99,0,0,0,0,0,0,0,0,0,-1,1581,925,0,0
364,99,0,0,0,0,0,0,0,0,0,-1,1588,925,0,0
371,99,0,0,0,0,0,0,0,0,0,-1,1595,925,0,0
378,99,0,0,0,0,0,0,0,0,0,-1,1602,925,0,0
385,99,0,0,0,0,0,0,0,0,0,-1,1609,925,0,0
392,99,0,0,0,0,0,0,0,0,0,-1,1616,925,0,0
399,99,0,0,0,0,0,0,0,0,0,-1,1623,925,0,0
406,99,0,0,0,0,0,0,0,0,0,-1,1630,925,0,0
413,99,0,0,0,0,0,0,0,0,0,-1,1637,925,0,0
420,99,0,0,0,0,0,0,0,0,0,-1,1644,925,0,0
427,99,0,0,0,0,0,0,0,0,0,-1,1651,925,0,0
434,99,0,0,0,0,0,0,0,0,0,-1,1658,925,0,0
441,99,0,0,0,0,0,0,0,0,0,-1,1665,925,0,0
448,99,0,0,0,0,0,0,0,0,0,-1,1672,925,0,0
455,99,0,0,0,0,0,0,0,0,0,-1,1679,925,0,0
462,99,0,0,0,0,0,0,0,0,0,-1,1686,925,0,0
469,99,0,0,0,0,0,0,0,0,0,-1,1693,925,0,0
476,99,0,0,0,0,0,0,0,0,0,-1,1700,925,0,0
483,99,0,0,0,0,0,0,0,0,0,-1,1707,925,0,0
490,99,0,0,0,0,0,0,0,0,0,-1,1714,925,0,0
497,99,0,0,0,0,0,0,0,0,0,-1,1721,925,0,0
504,99,0,0,0,0,0,0,0,0,0,-1,1728,925,0,0
511,99,0,0,0,0,0,0,0,0,0,-1,1735,925,0,0
518,99,0,0,0,0,0,0,0,0,0,-1,1742,925,0,0
525,99,0,0,0,0,0,0,0,0,0,-1,1749,925,0,0
532,99,0,0,0,0,0,0,0,0,0,-1,1756,925,0,0
539,99,0,0,0,0,0,0,0,0,0,-1,1763,925,0,0
546,99,0,0,0,0,0,0,0,0,0,-1,1770,925,0,0
553,99,0,0,0,0,0,0,0,0,0,-1,1777,925,0,0
560,99,0,0,0,0,0,0,0,0,0,-1,1784,925,0,0
567,99,0,0,0,0,0,0,0,0,0,-1,1791,925,0,0
574,99,0,0,0,0,0,0,0,0,0,-1,1798,925,0,0
581,99,0,0,0,0,0,0,0,0,0,-1,1805,925,0,0
588,99,0,0,0,0,0,0,0,0,0,-1,1812,925,0,0
595,99,0,0,0,0,0,0,0,0,0,-1,1819,925,0,0
602,99,0,0,0,0,0,0,0,0,0,-1,1826,925,0,0
609,99,0,0,0,0,0,0,0,0,0,-1,1833,925,0,0
616,99,0,0,0,0,0,0,0,0,0,-1,1840,925,0,0
623,99,0,0,0,0,0,0,0,0,0,-1,1847,925,0,0
630,99,0,0,0,0,0,0,0,0,0,-1,1854,925,0,0
637,99,39.668,2.96124,-0.000753965,0.00109614,-0.00355406,0.00384356,-0.00350138,-0.912714,0.00424214,0.044767,1861,925,39.6679,-2.96123
644,99,39.7113,2.86926,-0.000308687,0.000886648,-0.00295327,0.00330212,-0.00272416,-0.885237,0.0034846,0.0399635,1868,925,39.7113,-2.86929
651,99,39.7592,2.67834,-0.000135412,0.000478233,-0.00244671,0.00263728,-0.00229446,-0.847773,0.00284964,0.0386131,1875,925,39.7591,-2.67833
658,99,39.8169,2.66803,-0.000219817,0.000209274,-0.00192441,0.00193106,-0.0019416,-0.840912,0.00223589,0.0390016,1882,925,39.8169,-2.66805
665,99,39.7474,2.64807,-0.000357501,6.68627e-05,-0.00143302,0.00130333,-0.00159396,-0.858897,0.00167555,0.0397032,1889,925,39.7474,-2.64807
672,99,39.5297,3.12238,-0.000436898,-6.08683e-05,-0.000969981,0.000739151,-0.00123692,-0.881128,0.00115289,0.0411937,1896,925,39.5297,-3.1224
679,99,39.6268,2.85846,-0.000425725,-0.000204114,-0.000601627,0.000296827,-0.000926665,-0.876466,0.000736923,0.0354997,1903,925,39.6268,-2.85848
686,99,39.6626,2.60461,-0.000389342,-0.000239507,-0.000439629,0.000131543,-0.000760392,-0.869793,0.000555987,0.0309438,1910,925,39.6626,-2.60463
693,99,39.6436,2.5791,-0.000379252,-0.00023226,-0.000236516,-5.80836e-05,-0.000553428,-0.936041,0.000351195,0.0323656,1917,925,39.6436,-2.57912
700,99,39.6868,2.49536,0,0,0,0,0,0,0,-1,1924,925,39.6868,-2.49534
707,99,36.5386,3.22626,0,0,0,0,0,0,0,-1,1931,925,36.5386,-3.22627
714,99,36.4963,3.65338,-0.000855386,0.000363817,-0.000162811,0.000385184,-0.000876753,-1.4403,0.000746778,0.0310815,1938,925,36.4964,-3.6534
721,99,36.3776,3.99158,-0.000791133,0.000800977,-0.000106765,0.000808105,-0.000798261,-1.50414,0.000927442,0.0263329,1945,925,36.3775,-3.99159
728,99,36.4332,4.36163,-0.000722505,0.00140223,4.52025e-05,0.00140319,-0.000723466,1.54953,0.00124856,0.0202107,1952,925,36.4332,-4.36163
735,99,36.4231,4.72382,-0.000483175,0.00250025,0.000679397,0.00264768,-0.000630605,1.35711,0.00200859,0.0171746,1959,925,36.4231,-4.72382
742,99,36.396,5.0639,-0.000170473,0.00422109,0.00153367,0.00470366,-0.000653047,1.26595,0.00337459,0.0131022,1966,925,36.3959,-5.06389
749,99,36.3536,5.39075,0.000317217,0.00657811,0.0028629,0.00768982,-0.000794494,1.2004,0.00541086,0.0122457,1973,925,36.3536,-5.39073
756,99,36.3231,5.69031,0.00131938,0.0096255,0.00508572,0.0120384,-0.00109357,1.12779,0.00841387,0.0137028,1980,925,36.3231,-5.69032
763,99,36.2798,6.02869,0.00277382,0.0133921,0.00829205,0.017929,-0.0017631,1.07015,0.0125816,0.015352,1987,925,36.2797,-6.0287
770,99,36.233,6.47559,0.00477821,0.0177814,0.012417,0.0252959,-0.00273633,1.02657,0.0178461,0.0277921,1994,925,36.233,-6.47561
777,99,36.3732,7.13501,0.00756404,0.0229516,0.0178447,0.0346905,-0.00417486,0.988933,0.0246368,0.0423569,2001,925,36.3732,-7.135
784,99,36.5829,7.77289,0.0114604,0.029017,0.0249064,0.0466468,-0.00616938,0.954827,0.0333451,0.0452348,2008,925,36.5829,-7.77287
791,99,36.8623,8.57001,0.0166456,0.0361598,0.0334562,0.0612527,-0.0084473,0.927282,0.0439225,0.0496179,2015,925,36.8622,-8.57002
798,99,36.8733,9.48425,0,0,0,0,0,0,0,-1,2022,925,36.8734,-9.48423
805,99,0,0,0,0,0,0,0,0,0,-1,2029,925,0,0
812,99,0,0,0,0,0,0,0,0,0,-1,2036,925,0,0
-700,92,0,0,0,0,0,0,0,0,0,-1,524,932,0,0
-693,92,0,0,0,0,0,0,0,0,0,-1,531,932,0,0
-686,92,-24.5825,3.30872,-0.0449496,-0.0579373,0.0371768,-0.0137038,-0.0891831,0.698933,0.0554548,0.0439365,538,932,-24.5825,-3.30869
-679,92,-25.353,2.89056,-0.0320538,-0.0411999,0.0336037,-0.00271339,-0.0705404,0.71777,0.046149,0.0476745,545,932,-25.353,-2.89057
-672,92,-25.8753,3.16388,0,0,0,0,0,0,0,-1,552,932,-25.8753,-3.16391
-665,92,-26.2393,2.76978,0,0,0,0,0,0,0,-1,559,932,-26.2393,-2.76977
-658,92,-25.0712,6.35388,0,0,0,0,0,0,0,-1,566,932,-25.0712,-6.35391
-651,92,-27.1427,4.01636,-0.00329232,-0.00572006,0.0184896,0.0140232,-0.0230355,0.752619,0.0216057,0.0498601,573,932,-27.1427,-4.01636
-644,92,-26.9291,3.90112,-0.000507906,-0.00209369,0.0152517,0.0139715,-0.0165731,0.759428,0.0176562,0.0422914,580,932,-26.9291,-3.90111
-637,92,-26.9682,3.59106,0.0010238,-1.25618e-05,0.0123347,0.0128512,-0.01184,0.764406,0.0142595,0.0238275,587,932,-26.9682,-3.59105
-630,92,-27.0434,3.25903,0.00189893,0.00191929,0.00976481,0.0116739,-0.0078557,0.785919,0.011347,0.0126179,594,932,-27.0434,-3.25901
-623,92,-27.1102,2.97235,0.00186692,0.00288773,0.00756346,0.00995799,-0.00520334,0.819088,0.00889572,0.00862689,601,932,-27.1102,-2.97238
-616,92,-27.129,2.685,0.000563905,0.00218962,0.00528597,0.00672486,-0.00397134,0.861689,0.00624329,0.00827325,608,932,-27.129,-2.68497
-609,92,-27.1425,2.39471,-0.00149562,0.00137587,0.00317955,0.0034288,-0.00354855,0.997472,0.00402858,0.00845477,615,932,-27.1425,-2.39473
-602,92,-27.1259,2.10559,-0.00340291,0.000988937,0.00244636,0.00208038,-0.00449436,1.15115,0.00388027,0.00996331,622,932,-27.1259,-2.10561
-595,92,-27.0747,1.77521,-0.00473613,3.00234e-05,0.00149178,0.000458435,-0.00516454,1.29114,0.00360557,0.018951,629,932,-27.0747,-1.77523
-588,92,-27.0828,1.50183,-0.00579698,-0.000416946,0.000635412,-0.000342919,-0.00587101,1.45482,0.00380485,0.0210575,636,932,-27.0827,-1.5018
-581,92,-27.1694,1.19,-0.00647285,-0.000445272,5.96497e-05,-0.000444681,-0.00647344,1.5609,0.0041753,0.019179,643,932,-27.1694,-1.19001
-574,92,-27.6948,0.887756,-0.00660941,-0.000294554,-0.000360816,-0.000274004,-0.00662996,-1.51391,0.00433153,0.0371613,650,932,-27.6947,-0.887749
-567,92,-28.544,0.595764,0,0,0,0,0,0,0,-1,657,932,-28.544,-0.595754
-560,92,-29.0173,0.708374,-0.00620689,6.50052e-05,-0.000980481,0.00021471,-0.00635659,-1.41928,0.00431108,0.0347703,664,932,-29.0173,-0.708369
-553,92,-29.1401,0.68689,-0.00569431,0.000449183,-0.00118623,0.000670274,-0.0059154,-1.38653,0.00418495,0.0368658,671,932,-29.1401,-0.686917
-546,92,-29.1301,0.760071,-0.00486141,0.00102543,-0.00138461,0.00133484,-0.00517081,-1.35095,0.00396772,0.0378622,678,932,-29.1301,-0.760048
-539,92,-29.0732,0.842163,-0.00367586,0.00175553,-0.00159547,0.00218952,-0.00410986,-1.30521,0.00369285,0.0365422,685,932,-29.0732,-0.842166
-532,92,-29.153,0.810181,-0.00229242,0.00257744,-0.00186286,0.00320831,-0.00292329,-1.24426,0.00354136,0.0407892,692,932,-29.153,-0.810206
-525,92,-29.2594,0.792236,-0.00162779,0.00360675,-0.00245592,0.00457858,-0.00259963,-1.19399,0.00419651,0.0413929,699,932,-29.2594,-0.792228
-518,92,-29.3969,0.569214,-0.00421577,0.00463506,-0.00336902,0.00577153,-0.00535224,-1.24545,0.00642383,0.0425797,706,932,-29.3969,-0.569217
-511,92,0,0,0,0,0,0,0,0,0,-1,713,932,0,0
-504,92,0,0,0,0,0,0,0,0,0,-1,720,932,0,0
-497,92,0,0,0,0,0,0,0,0,0,-1,727,932,0,0
-490,92,0,0,0,0,0,0,0,0,0,-1,734,932,0,0
-483,92,0,0,0,0,0,0,0,0,0,-1,741,932,0,0
-476,92,0,0,0,0,0,0,0,0,0,-1,748,932,0,0
-469,92,0,0,0,0,0,0,0,0,0,-1,755,932,0,0
-462,92,0,0,0,0,0,0,0,0,0,-1,762,932,0,0
-455,92,0,0,0,0,0,0,0,0,0,-1,769,932,0,0
-448,92,0,0,0,0,0,0,0,0,0,-1,776,932,0,0
-441,92,0,0,0,0,0,0,0,0,0,-1,783,932,0,0
-434,92,0,0,0,0,0,0,0,0,0,-1,790,932,0,0
-427,92,0,0,0,0,0,0,0,0,0,-1,797,932,0,0
-420,92,0,0,0,0,0,0,0,0,0,-1,804,932,0,0
-413,92,0,0,0,0,0,0,0,0,0,-1,811,932,0,0
-406,92,0,0,0,0,0,0,0,0,0,-1,818,932,0,0
-399,92,0,0,0,0,0,0,0,0,0,-1,825,932,0,0
-392,92,0,0,0,0,0,0,0,0,0,-1,832,932,0,0
-385,92,0,0,0,0,0,0,0,0,0,-1,839,932,0,0
-378,92,0,0,0,0,0,0,0,0,0,-1,846,932,0,0
-371,92,0,0,0,0,0,0,0,0,0,-1,853,932,0,0
-364,92,0,0,0,0,0,0,0,0,0,-1,860,932,0,0
-357,92,0,0,0,0,0,0,0,0,0,-1,867,932,0,0
-350,92,0,0,0,0,0,0,0,0,0,-1,874,932,0,0
-343,92,0,0,0,0,0,0,0,0,0,-1,881,932,0,0
-336,92,0,0,0,0,0,0,0,0,0,-1,888,932,0,0
-329,92,0,0,0,0,0,0,0,0,0,-1,895,932,0,0
-322,92,0,0,0,0,0,0,0,0,0,-1,902,932,0,0
-315,92,0,0,0,0,0,0,0,0,0,-1,909,932,0,0
-308,92,0,0,0,0,0,0,0,0,0,-1,916,932,0,0
-301,92,0,0,0,0,0,0,0,0,0,-1,923,932,0,0
-294,92,0,0,0,0,0,0,0,0,0,-1,930,932,0,0
-287,92,0,0,0,0,0,0,0,0,0,-1,937,932,0,0
-280,92,0,0,0,0,0,0,0,0,0,-1,944,932,0,0
-273,92,0,0,0,0,0,0,0,0,0,-1,951,932,0,0
-266,92,0,0,0,0,0,0,0,0,0,-1,958,932,0,0
-259,92,0,0,0,0,0,0,0,0,0,-1,965,932,0,0
-252,92,0,0,0,0,0,0,0,0,0,-1,972,932,0,0
-245,92,0,0,0,0,0,0,0,0,0,-1,979,932,0,0
-238,92,0,0,0,0,0,0,0,0,0,-1,986,932,0,0
-231,92,0,0,0,0,0,0,0,0,0,-1,993,932,0,0
-224,92,0,0,0,0,0,0,0,0,0,-1,1000,932,0,0
-217,92,0,0,0,0,0,0,0,0,0,-1,1007,932,0,0
-210,92,0,0,0,0,0,0,0,0,0,-1,1014,932,0,0
-203,92,0,0,0,0,0,0,0,0,0,-1,1021,932,0,0
-196,92,0,0,0,0,0,0,0,0,0,-1,1028,932,0,0
-189,92,0,0,0,0,0,0,0,0,0,-1,1035,932,0,0
-182,92,0,0,0,0,0,0,0,0,0,-1,1042,932,0,0
-175,92,0,0,0,0,0,0,0,0,0,-1,1049,932,0,0
-168,92,0,0,0,0,0,0,0,0,0,-1,1056,932,0,0
-161,92,0,0,0,0,0,0,0,0,0,-1,1063,932,0,0
-154,92,0,0,0,0,0,0,0,0,0,-1,1070,932,0,0
-147,92,0,0,0,0,0,0,0,0,0,-1,1077,932,0,0
-140,92,0,0,0,0,0,0,0,0,0,-1,1084,932,0,0
-133,92,0,0,0,0,0,0,0,0,0,-1,1091,932,0,0
-126,92,0,0,0,0,0,0,0,0,0,-1,1098,932,0,0
-119,92,0,0,0,0,0,0,0,0,0,-1,1105,932,0,0
-112,92,0,0,0,0,0,0,0,0,0,-1,1112,932,0,0
-105,92,0,0,0,0,0,0,0,0,0,-1,1119,932,0,0
-98,92,0,0,0,0,0,0,0,0,0,-1,1126,932,0,0
-91,92,0,0,0,0,0,0,0,0,0,-1,1133,932,0,0
-84,92,0,0,0,0,0,0,0,0,0,-1,1140,932,0,0
-77,92,0,0,0,0,0,0,0,0,0,-1,1147,932,0,0
-70,92,0,0,0,0,0,0,0,0,0,-1,1154,932,0,0
-63,92,0,0,0,0,0,0,0,0,0,-1,1161,932,0,0
-56,92,0,0,0,0,0,0,0,0,0,-1,1168,932,0,0
-49,92,0,0,0,0,0,0,0,0,0,-1,1175,932,0,0
-42,92,0,0,0,0,0,0,0,0,0,-1,1182,932,0,0
-35,92,0,0,0,0,0,0,0,0,0,-1,1189,932,0,0
-28,92,0,0,0,0,0,0,0,0,0,-1,1196,932,0,0
-21,92,0,0,0,0,0,0,0,0,0,-1,1203,932,0,0
-14,92,0,0,0,0,0,0,0,0,0,-1,1210,932,0,0
-7,92,0,0,0,0,0,0,0,0,0,-1,1217,932,0,0
0,92,0,0,0,0,0,0,0,0,0,-1,1224,932,0,0
7,92,0,0,0,0,0,0,0,0,0,-1,1231,932,0,0
14,92,0,0,0,0,0,0,0,0,0,-1,1238,932,0,0
21,92,0,0,0,0,0,0,0,0,0,-1,1245,932,0,0
28,92,0,0,0,0,0,0,0,0,0,-1,1252,932,0,0
35,92,0,0,0,0,0,0,0,0,0,-1,1259,932,0,0
42,92,0,0,0,0,0,0,0,0,0,-1,1266,932,0,0
49,92,0,0,0,0,0,0,0,0,0,-1,1273,932,0,0
56,92,0,0,0,0,0,0,0,0,0,-1,1280,932,0,0
63,92,0,0,0,0,0,0,0,0,0,-1,1287,932,0,0
70,92,0,0,0,0,0,0,0,0,0,-1,1294,932,0,0
77,92,0,0,0,0,0,0,0,0,0,-1,1301,932,0,0
84,92,0,0,0,0,0,0,0,0,0,-1,1308,932,0,0
91,92,0,0,0,0,0,0,0,0,0,-1,1315,932,0,0
98,92,0,0,0,0,0,0,0,0,0,-1,1322,932,0,0
105,92,0,0,0,0,0,0,0,0,0,-1,1329,932,0,0
112,92,0,0,0,0,0,0,0,0,0,-1,1336,932,0,0
119,92,0,0,0,0,0,0,0,0,0,-1,1343,932,0,0
126,92,0,0,0,0,0,0,0,0,0,-1,1350,932,0,0
133,92,0,0,0,0,0,0,0,0,0,-1,1357,932,0,0
140,92,0,0,0,0,0,0,0,0,0,-1,1364,932,0,0
147,92,0,0,0,0,0,0,0,0,0,-1,1371,932,0,0
154,92,0,0,0,0,0,0,0,0,0,-1,1378,932,0,0
161,92,0,0,0,0,0,0,0,0,0,-1,1385,932,0,0
168,92,0,0,0,0,0,0,0,0,0,-1,1392,932,0,0
175,92,0,0,0,0,0,0,0,0,0,-1,1399,932,0,0
182,92,0,0,0,0,0,0,0,0,0,-1,1406,932,0,0
189,92,0,0,0,0,0,0,0,0,0,-1,1413,932,0,0
196,92,0,0,0,0,0,0,0,0,0,-1,1420,932,0,0
203,92,0,0,0,0,0,0,0,0,0,-1,1427,932,0,0
210,92,0,0,0,0,0,0,0,0,0,-1,1434,932,0,0
217,92,0,0,0,0,0,0,0,0,0,-1,1441,932,0,0
224,92,0,0,0,0,0,0,0,0,0,-1,1448,932,0,0
231,92,0,0,0,0,0,0,0,0,0,-1,1455,932,0,0
238,92,0,0,0,0,0,0,0,0,0,-1,1462,932,0,0
245,92,0,0,0,0,0,0,0,0,0,-1,1469,932,0,0
252,92,0,0,0,0,0,0,0,0,0,-1,1476,932,0,0
259,92,0,0,0,0,0,0,0,0,0,-1,1483,932,0,0
266,92,0,0,0,0,0,0,0,0,0,-1,1490,932,0,0
273,92,0,0,0,0,0,0,0,0,0,-1,1497,932,0,0
280,92,0,0,0,0,0,0,0,0,0,-1,1504,932,0,0
287,92,0,0,0,0,0,0,0,0,0,-1,1511,932,0,0
294,92,0,0,0,0,0,0,0,0,0,-1,1518,932,0,0
301,92,0,0,0,0,0,0,0,0,0,-1,1525,932,0,0
308,92,0,0,0,0,0,0,0,0,0,-1,1532,932,0,0
315,92,0,0,0,0,0,0,0,0,0,-1,1539,932,0,0
322,92,0,0,0,0,0,0,0,0,0,-1,1546,932,0,0
329,92,0,0,0,0,0,0,0,0,0,-1,1553,932,0,0
336,92,0,0,0,0,0,0,0,0,0,-1,1560,932,0,0
343,92,0,0,0,0,0,0,0,0,0,-1,1567,932,0,0
350,92,0,0,0,0,0,0,0,0,0,-1,1574,932,0,0
357,92,0,0,0,0,0,0,0,0,0,-1,1581,932,0,0
364,92,0,0,0,0,0,0,0,0,0,-1,1588,932,0,0
371,92,0,0,0,0,0,0,0,0,0,-1,1595,932,0,0
378,92,0,0,0,0,0,0,0,0,0,-1,1602,932,0,0
385,92,0,0,0,0,0,0,0,0,0,-1,1609,932,0,0
392,92,0,0,0,0,0,0,0,0,0,-1,1616,932,0,0
399,92,0,0,0,0,0,0,0,0,0,-1,1623,932,0,0
406,92,0,0,0,0,0,0,0,0,0,-1,1630,932,0,0
413,92,0,0,0,0,0,0,0,0,0,-1,1637,932,0,0
420,92,0,0,0,0,0,0,0,0,0,-1,1644,932,0,0
427,92,0,0,0,0,0,0,0,0,0,-1,1651,932,0,0
434,92,0,0,0,0,0,0,0,0,0,-1,1658,932,0,0
441,92,0,0,0,0,0,0,0,0,0,-1,1665,932,0,0
448,92,0,0,0,0,0,0,0,0,0,-1,1672,932,0,0
455,92,0,0,0,0,0,0,0,0,0,-1,1679,932,0,0
462,92,0,0,0,0,0,0,0,0,0,-1,1686,932,0,0
469,92,0,0,0,0,0,0,0,0,0,-1,1693,932,0,0
476,92,0,0,0,0,0,0,0,0,0,-1,1700,932,0,0
483,92,0,0,0,0,0,0,0,0,0,-1,1707,932,0,0
490,92,0,0,0,0,0,0,0,0,0,-1,1714,932,0,0
497,92,0,0,0,0,0,0,0,0,0,-1,1721,932,0,0
504,92,0,0,0,0,0,0,0,0,0,-1,1728,932,0,0
511,92,0,0,0,0,0,0,0,0,0,-1,1735,932,0,0
518,92,0,0,0,0,0,0,0,0,0,-1,1742,932,0,0
525,92,0,0,0,0,0,0,0,0,0,-1,1749,932,0,0
532,92,0,0,0,0,0,0,0,0,0,-1,1756,932,0,0
539,92,0,0,0,0,0,0,0,0,0,-1,1763,932,0,0
546,92,0,0,0,0,0,0,0,0,0,-1,1770,932,0,0
553,92,0,0,0,0,0,0,0,0,0,-1,1777,932,0,0
560,92,0,0,0,0,0,0,0,0,0,-1,1784,932,0,0
567,92,0,0,0,0,0,0,0,0,0,-1,1791,932,0,0
574,92,0,0,0,0,0,0,0,0,0,-1,1798,932,0,0
581,92,0,0,0,0,0,0,0,0,0,-1,1805,932,0,0
588,92,0,0,0,0,0,0,0,0,0,-1,1812,932,0,0
595,92,0,0,0,0,0,0,0,0,0,-1,1819,932,0,0
602,92,0,0,0,0,0,0,0,0,0,-1,1826,932,0,0
609,92,0,0,0,0,0,0,0,0,0,-1,1833,932,0,0
616,92,0,0,0,0,0,0,0,0,0,-1,1840,932,0,0
623,92,0,0,0,0,0,0,0,0,0,-1,1847,932,0,0
630,92,0,0,0,0,0,0,0,0,0,-1,1854,932,0,0
637,92,39.6813,3.03113,-0.000679943,0.00226025,-0.00343074,0.0045226,-0.0029423,-0.987817,0.00434193,0.0462621,1861,932,39.6812,-3.0311
644,92,39.677,2.90009,-0.000247526,0.00176313,-0.00280144,0.00373417,-0.00221856,-0.957672,0.00347374,0.0403712,1868,932,39.677,-2.90009
651,92,39.6641,2.74615,-9.91878e-05,0.00117222,-0.00228553,0.00290881,-0.00183578,-0.921041,0.00276254,0.0386852,1875,932,39.6641,-2.74614
658,92,39.6038,2.72345,-0.000225242,0.000768306,-0.00176177,0.002102,-0.00155893,-0.922818,0.00212138,0.0424733,1882,932,39.6038,-2.72344
665,92,39.5369,2.71808,-0.000455725,0.000524605,-0.00124774,0.001375,-0.00130613,-0.972559,0.00154812,0.0443627,1889,932,39.5369,-2.71807
672,92,39.6282,2.85156,-0.00064846,0.000324283,-0.000762141,0.000742022,-0.0010662,-1.0694,0.00104955,0.0423216,1896,932,39.6281,-2.85156
679,92,39.7629,2.74475,-0.000721579,0.000102878,-0.000387911,0.000256695,-0.000875396,-1.19329,0.000685377,0.0388464,1903,932,39.7629,-2.74473
686,92,39.74,2.6026,-0.000708765,-2.17212e-05,-0.000231652,4.90877e-05,-0.000779574,-1.27415,0.000536827,0.0318942,1910,932,39.74,-2.60259
693,92,39.6434,2.68707,-0.000665877,-9.80344e-05,-4.3603e-05,-9.47058e-05,-0.000669206,-1.4946,0.000418159,0.0283541,1917,932,39.6435,-2.68708
700,92,39.6245,2.65131,0,0,0,0,0,0,0,-1,1924,932,39.6245,-2.65131
707,92,32.9893,3.26874,0,0,0,0,0,0,0,-1,1931,932,32.9893,-3.26874
714,92,36.8784,3.64838,0,0,0,0,0,0,0,-1,1938,932,36.8784,-3.64841
721,92,36.8363,4.08203,-0.00123827,0.000884431,-6.36277e-05,0.000886337,-0.00124018,-1.54086,0.0012334,0.0297584,1945,932,36.8363,-4.08202
728,92,36.7762,4.45215,-0.00114405,0.00148643,4.76023e-05,0.00148729,-0.00114492,1.55271,0.00152398,0.0212426,1952,932,36.7763,-4.45217
735,92,36.7402,4.73846,-0.000899218,0.00263282,0.000601438,0.00273243,-0.000998823,1.40668,0.0022304,0.0167487,1959,932,36.7402,-4.73849
742,92,36.7725,5.0506,-0.000639323,0.00435354,0.00130388,0.00467354,-0.000959323,1.33013,0.00347983,0.0181102,1966,932,36.7724,-5.05058
749,92,36.7046,5.3714,-0.000328207,0.00682765,0.00242539,0.00757223,-0.00107279,1.27294,0.00544112,0.0174341,1973,932,36.7046,-5.37138
756,92,36.645,5.67236,0.000441666,0.010161,0.0044445,0.0118869,-0.00128425,1.20039,0.00838554,0.0160657,1980,932,36.6451,-5.67235
763,92,36.6334,6.00671,0.00158191,0.014579,0.0075992,0.0180794,-0.0019185,1.13914,0.0127407,0.0163864,1987,932,36.6334,-6.00669
770,92,36.5927,6.43158,0.00317476,0.0196492,0.0115879,0.0256293,-0.00280529,1.09438,0.0180939,0.0241165,1994,932,36.5927,-6.43157
777,92,36.5958,6.92938,0.00534598,0.0257071,0.0167805,0.0351538,-0.00410071,1.05806,0.0249155,0.0427922,2001,932,36.5958,-6.92935
784,92,36.7085,7.51917,0.0083966,0.0331055,0.0236925,0.0474712,-0.0059691,1.02573,0.0338132,0.0475436,2008,932,36.7085,-7.51915
791,92,36.9771,8.28802,0.0124408,0.0421669,0.0323428,0.0628983,-0.00829066,1.00078,0.0449514,0.0478687,2015,932,36.9771,-8.28804
798,92,37.1057,9.16949,0,0,0,0,0,0,0,-1,2022,932,37.1056,-9.16948
805,92,0,0,0,0,0,0,0,0,0,-1,2029,932,0,0
812,92,0,0,0,0,0,0,0,0,0,-1,2036,932,0,0
-700,85,0,0,0,0,0,0,0,0,0,-1,524,939,0,0
-693,85,0,0,0,0,0,0,0,0,0,-1,531,939,0,0
-686,85,-25.2189,4.19244,-0.0574278,-0.0540447,0.0282317,-0.0274539,-0.0840186,0.81532,0.0494692,0.0462849,538,939,-25.2189,-4.19243
-679,85,-25.564,3.76544,-0.045671,-0.0389159,0.0251418,-0.0169257,-0.0676611,0.852169,0.0406574,0.0470432,545,939,-25.564,-3.76542
-672,85,-26.0706,3.54169,-0.0353575,-0.0268323,0.0219562,-0.00872866,-0.053461,0.881276,0.0331168,0.0444152,552,939,-26.0705,-3.5417
-665,85,-26.4974,3.41473,-0.0266544,-0.0172912,0.0188011,-0.00259756,-0.0413481,0.90742,0.0267416,0.0436306,559,939,-26.4974,-3.41472
-658,85,-27.3501,3.71796,-0.0193976,-0.00999223,0.0158364,0.001825,-0.0312148,0.929728,0.0214441,0.0450654,566,939,-27.3501,-3.71796
-651,85,-27.0846,3.44757,-0.013522,-0.00467343,0.0131547,0.00478102,-0.0229765,0.94762,0.0171351,0.0409898,573,939,-27.0846,-3.44759
-644,85,-27.1477,3.58582,-0.00898398,-0.00108466,0.0108089,0.00647357,-0.0165422,0.960566,0.0137055,0.0302414,580,939,-27.1477,-3.58584
-637,85,-27.2764,3.47925,-0.00573893,0.000896583,0.00871061,0.00689989,-0.0117422,0.967359,0.0108834,0.0166518,587,939,-27.2764,-3.47925
-630,85,-27.3743,3.19446,-0.00345315,0.00277055,0.00679041,0.00712819,-0.00781079,1.00025,0.00862802,0.0109434,594,939,-27.3742,-3.19447
-623,85,-27.4321,2.91675,-0.0022329,0.0036474,0.00513645,0.00662566,-0.00521116,1.04534,0.00685024,0.00976761,601,939,-27.4321,-2.91673
-616,85,-27.4552,2.67651,-0.00224344,0.00284806,0.00349626,0.00462721,-0.00402258,1.10008,0.00499802,0.00973198,608,939,-27.4552,-2.67654
-609,85,-27.4771,2.39807,-0.00336895,0.0020038,0.00187683,0.00259448,-0.00395963,1.26589,0.00381129,0.0114852,615,939,-27.4771,-2.39809
-602,85,-27.4654,2.11536,-0.0046912,0.00150535,0.00141213,0.00181199,-0.00499784,1.35697,0.00407255,0.0151712,622,939,-27.4654,-2.11535
-595,85,-27.3923,1.82404,-0.00575326,0.000414627,0.000660134,0.000484489,-0.00582312,1.46536,0.00405324,0.0186642,629,939,-27.3923,-1.82401
-588,85,-27.3702,1.54291,-0.00663625,-0.000139843,-1.08412e-05,-0.000139825,-0.00663627,-1.56913,0.00437832,0.0178831,636,939,-27.3702,-1.54289
-581,85,-27.4622,1.30072,-0.00724495,-0.000240993,-0.000513933,-0.000203483,-0.00728246,-1.49794,0.00478859,0.0229595,643,939,-27.4622,-1.30071
-574,85,-28.0169,1.05402,-0.00732808,-0.000175705,-0.000884282,-6.79989e-05,-0.00743579,-1.44959,0.00493468,0.03811,650,939,-28.0169,-1.05403
-567,85,-28.8214,0.838745,0,0,0,0,0,0,0,-1,657,939,-28.8214,-0.838772
-560,85,-28.9979,0.70575,-0.00680658,0.000277852,-0.00147691,0.000573418,-0.00710214,-1.37328,0.00493702,0.0338401,664,939,-28.9979,-0.705737
-553,85,-29.1198,0.61731,-0.00609028,0.000726819,-0.00164223,0.00110181,-0.00646527,-1.34631,0.00472051,0.0409669,671,939,-29.1197,-0.617294
-546,85,-29.1588,0.708496,-0.00494596,0.00135437,-0.00178476,0.00182483,-0.00541641,-1.31306,0.00434877,0.0418403,678,939,-29.1587,-0.708501
-539,85,-29.0891,0.806946,-0.00337038,0.00212711,-0.00193047,0.00273728,-0.00398055,-1.26466,0.00390062,0.0372353,685,939,-29.0891,-0.806938
-532,85,-29.0977,0.91803,-0.00150003,0.00299207,-0.00218653,0.00388061,-0.00238857,-1.18481,0.00365352,0.0389127,692,939,-29.0977,-0.918032
-525,85,-29.1722,0.793457,-0.000584486,0.00413694,-0.00292037,0.00553143,-0.00197898,-1.12531,0.00449492,0.038861,699,939,-29.1722,-0.79348
-518,85,-29.0615,0.731445,-0.00345784,0.00545161,-0.00414912,0.00708456,-0.00509079,-1.19585,0.00706079,0.0377515,706,939,-29.0615,-0.731448
-511,85,0,0,0,0,0,0,0,0,0,-1,713,939,0,0
-504,85,0,0,0,0,0,0,0,0,0,-1,720,939,0,0
-497,85,0,0,0,0,0,0,0,0,0,-1,727,939,0,0
-490,85,0,0,0,0,0,0,0,0,0,-1,734,939,0,0
-483,85,0,0,0,0,0,0,0,0,0,-1,741,939,0,0
-476,85,0,0,0,0,0,0,0,0,0,-1,748,939,0,0
-469,85,0,0,0,0,0,0,0,0,0,-1,755,939,0,0
-462,85,0,0,0,0,0,0,0,0,0,-1,762,939,0,0
-455,85,0,0,0,0,0,0,0,0,0,-1,769,939,0,0
-448,85,0,0,0,0,0,0,0,0,0,-1,776,939,0,0
-441,85,0,0,0,0,0,0,0,0,0,-1,783,939,0,0
-434,85,0,0,0,0,0,0,0,0,0,-1,790,939,0,0
-427,85,0,0,0,0,0,0,0,0,0,-1,797,939,0,0
-420,85,0,0,0,0,0,0,0,0,0,-1,804,939,0,0
-413,85,0,0,0,0,0,0,0,0,0,-1,811,939,0,0
-406,85,0,0,0,0,0,0,0,0,0,-1,818,939,0,0
-399,85,0,0,0,0,0,0,0,0,0,-1,825,939,0,0
-392,85,0,0,0,0,0,0,0,0,0,-1,832,939,0,0
-385,85,0,0,0,0,0,0,0,0,0,-1,839,939,0,0
-378,85,0,0,0,0,0,0,0,0,0,-1,846,939,0,0
-371,85,0,0,0,0,0,0,0,0,0,-1,853,939,0,0
-364,85,0,0,0,0,0,0,0,0,0,-1,860,939,0,0
-357,85,0,0,0,0,0,0,0,0,0,-1,867,939,0,0
-350,85,0,0,0,0,0,0,0,0,0,-1,874,939,0,0
-343,85,0,0,0,0,0,0,0,0,0,-1,881,939,0,0
-336,85,0,0,0,0,0,0,0,0,0,-1,888,939,0,0
-329,85,0,0,0,0,0,0,0,0,0,-1,895,939,0,0
-322,85,0,0,0,0,0,0,0,0,0,-1,902,939,0,0
-315,85,0,0,0,0,0,0,0,0,0,-1,909,939,0,0
-308,85,0,0,0,0,0,0,0,0,0,-1,916,939,0,0
-301,85,0,0,0,0,0,0,0,0,0,-1,923,939,0,0
-294,85,0,0,0,0,0,0,0,0,0,-1,930,939,0,0
-287,85,0,0,0,0,0,0,0,0,0,-1,937,939,0,0
-280,85,0,0,0,0,0,0,0,0,0,-1,944,939,0,0
-273,85,0,0,0,0,0,0,0,0,0,-1,951,939,0,0
-266,85,0,0,0,0,0,0,0,0,0,-1,958,939,0,0
-259,85,0,0,0,0,0,0,0,0,0,-1,965,939,0,0
-252,85,0,0,0,0,0,0,0,0,0,-1,972,939,0,0
-245,85,0,0,0,0,0,0,0,0,0,-1,979,939,0,0
-238,85,0,0,0,0,0,0,0,0,0,-1,986,939,0,0
-231,85,0,0,0,0,0,0,0,0,0,-1,993,939,0,0
-224,85,0,0,0,0,0,0,0,0,0,-1,1000,939,0,0
-217,85,0,0,0,0,0,0,0,0,0,-1,1007,939,0,0
-210,85,0,0,0,0,0,0,0,0,0,-1,1014,939,0,0
-203,85,0,0,0,0,0,0,0,0,0,-1,1021,939,0,0
-196,85,0,0,0,0,0,0,0,0,0,-1,1028,939,0,0
-189,85,0,0,0,0,0,0,0,0,0,-1,1035,939,0,0
-182,85,0,0,0,0,0,0,0,0,0,-1,1042,939,0,0
-175,85,0,0,0,0,0,0,0,0,0,-1,1049,939,0,0
-168,85,0,0,0,0,0,0,0,0,0,-1,1056,939,0,0
-161,85,0,0,0,0,0,0,0,0,0,-1,1063,939,0,0
-154,85,0,0,0,0,0,0,0,0,0,-1,1070,939,0,0
-147,85,0,0,0,0,0,0,0,0,0,-1,1077,939,0,0
-140,85,0,0,0,0,0,0,0,0,0,-1,1084,939,0,0
-133,85,0,0,0,0,0,0,0,0,0,-1,1091,939,0,0
-126,85,0,0,0,0,0,0,0,0,0,-1,1098,939,0,0
-119,85,0,0,0,0,0,0,0,0,0,-1,1105,939,0,0
-112,85,0,0,0,0,0,0,0,0,0,-1,1112,939,0,0
-105,85,0,0,0,0,0,0,0,0,0,-1,1119,939,0,0
-98,85,0,0,0,0,0,0,0,0,0,-1,1126,939,0,0
-91,85,0,0,0,0,0,0,0,0,0,-1,1133,939,0,0
-84,85,0,0,0,0,0,0,0,0,0,-1,1140,939,0,0
-77,85,0,0,0,0,0,0,0,0,0,-1,1147,939,0,0
-70,85,0,0,0,0,0,0,0,0,0,-1,1154,939,0,0
-63,85,0,0,0,0,0,0,0,0,0,-1,1161,939,0,0
-56,85,0,0,0,0,0,0,0,0,0,-1,1168,939,0,0
-49,85,0,0,0,0,0,0,0,0,0,-1,1175,939,0,0
-42,85,0,0,0,0,0,0,0,0,0,-1,1182,939,0,0
-35,85,0,0,0,0,0,0,0,0,0,-1,1189,939,0,0
-28,85,0,0,0,0,0,0,0,0,0,-1,1196,939,0,0
-21,85,0,0,0,0,0,0,0,0,0,-1,1203,939,0,0
-14,85,0,0,0,0,0,0,0,0,0,-1,1210,939,0,0
-7,85,0,0,0,0,0,0,0,0,0,-1,1217,939,0,0
0,85,0,0,0,0,0,0,0,0,0,-1,1224,939,0,0
7,85,0,0,0,0,0,0,0,0,0,-1,1231,939,0,0
14,85,0,0,0,0,0,0,0,0,0,-1,1238,939,0,0
21,85,0,0,0,0,0,0,0,0,0,-1,1245,939,0,0
28,85,0,0,0,0,0,0,0,0,0,-1,1252,939,0,0
35,85,0,0,0,0,0,0,0,0,0,-1,1259,939,0,0
42,85,0,0,0,0,0,0,0,0,0,-1,1266,939,0,0
49,85,0,0,0,0,0,0,0,0,0,-1,1273,939,0,0
56,85,0,0,0,0,0,0,0,0,0,-1,1280,939,0,0
63,85,0,0,0,0,0,0,0,0,0,-1,1287,939,0,0
70,85,0,0,0,0,0,0,0,0,0,-1,1294,939,0,0
77,85,0,0,0,0,0,0,0,0,0,-1,1301,939,0,0
84,85,0,0,0,0,0,0,0,0,0,-1,1308,939,0,0
91,85,0,0,0,0,0,0,0,0,0,-1,1315,939,0,0
98,85,0,0,0,0,0,0,0,0,0,-1,1322,939,0,0
105,85,0,0,0,0,0,0,0,0,0,-1,1329,939,0,0
112,85,0,0,0,0,0,0,0,0,0,-1,1336,939,0,0
119,85,0,0,0,0,0,0,0,0,0,-1,1343,939,0,0
126,85,0,0,0,0,0,0,0,0,0,-1,1350,939,0,0
133,85,0,0,0,0,0,0,0,0,0,-1,1357,939,0,0
140,85,0,0,0,0,0,0,0,0,0,-1,1364,939,0,0
147,85,0,0,0,0,0,0,0,0,0,-1,1371,939,0,0
154,85,0,0,0,0,0,0,0,0,0,-1,1378,939,0,0
161,85,0,0,0,0,0,0,0,0,0,-1,1385,939,0,0
168,85,0,0,0,0,0,0,0,0,0,-1,1392,939,0,0
175,85,0,0,0,0,0,0,0,0,0,-1,1399,939,0,0
182,85,0,0,0,0,0,0,0,0,0,-1,1406,939,0,0
189,85,0,0,0,0,0,0,0,0,0,-1,1413,939,0,0
196,85,0,0,0,0,0,0,0,0,0,-1,1420,939,0,0
203,85,0,0,0,0,0,0,0,0,0,-1,1427,939,0,0
210,85,0,0,0,0,0,0,0,0,0,-1,1434,939,0,0
217,85,0,0,0,0,0,0,0,0,0,-1,1441,939,0,0
224,85,0,0,0,0,0,0,0,0,0,-1,1448,939,0,0
231,85,0,0,0,0,0,0,0,0,0,-1,1455,939,0,0
238,85,0,0,0,0,0,0,0,0,0,-1,1462,939,0,0
245,85,0,0,0,0,0,0,0,0,0,-1,1469,939,0,0
252,85,0,0,0,0,0,0,0,0,0,-1,1476,939,0,0
259,85,0,0,0,0,0,0,0,0,0,-1,1483,939,0,0
266,85,0,0,0,0,0,0,0,0,0,-1,1490,939,0,0
273,85,0,0,0,0,0,0,0,0,0,-1,1497,939,0,0
280,85,0,0,0,0,0,0,0,0,0,-1,1504,939,0,0
287,85,0,0,0,0,0,0,0,0,0,-1,1511,939,0,0
294,85,0,0,0,0,0,0,0,0,0,-1,1518,939,0,0
301,85,0,0,0,0,0,0,0,0,0,-1,1525,939,0,0
308,85,0,0,0,0,0,0,0,0,0,-1,1532,939,0,0
315,85,0,0,0,0,0,0,0,0,0,-1,1539,939,0,0
322,85,0,0,0,0,0,0,0,0,0,-1,1546,939,0,0
329,85,0,0,0,0,0,0,0,0,0,-1,1553,939,0,0
336,85,0,0,0,0,0,0,0,0,0,-1,1560,939,0,0
343,85,0,0,0,0,0,0,0,0,0,-1,1567,939,0,0
350,85,0,0,0,0,0,0,0,0,0,-1,1574,939,0,0
357,85,0,0,0,0,0,0,0,0,0,-1,1581,939,0,0
364,85,0,0,0,0,0,0,0,0,0,-1,1588,939,0,0
371,85,0,0,0,0,0,0,0,0,0,-1,1595,939,0,0
378,85,0,0,0,0,0,0,0,0,0,-1,1602,939,0,0
385,85,0,0,0,0,0,0,0,0,0,-1,1609,939,0,0
392,85,0,0,0,0,0,0,0,0,0,-1,1616,939,0,0
399,85,0,0,0,0,0,0,0,0,0,-1,1623,939,0,0
406,85,0,0,0,0,0,0,0,0,0,-1,1630,939,0,0
413,85,0,0,0,0,0,0,0,0,0,-1,1637,939,0,0
420,85,0,0,0,0,0,0,0,0,0,-1,1644,939,0,0
427,85,0,0,0,0,0,0,0,0,0,-1,1651,939,0,0
434,85,0,0,0,0,0,0,0,0,0,-1,1658,939,0,0
441,85,0,0,0,0,0,0,0,0,0,-1,1665,939,0,0
448,85,0,0,0,0,0,0,0,0,0,-1,1672,939,0,0
455,85,0,0,0,0,0,0,0,0,0,-1,1679,939,0,0
462,85,0,0,0,0,0,0,0,0,0,-1,1686,939,0,0
469,85,0,0,0,0,0,0,0,0,0,-1,1693,939,0,0
476,85,0,0,0,0,0,0,0,0,0,-1,1700,939,0,0
483,85,0,0,0,0,0,0,0,0,0,-1,1707,939,0,0
490,85,0,0,0,0,0,0,0,0,0,-1,1714,939,0,0
497,85,0,0,0,0,0,0,0,0,0,-1,1721,939,0,0
504,85,0,0,0,0,0,0,0,0,0,-1,1728,939,0,0
511,85,0,0,0,0,0,0,0,0,0,-1,1735,939,0,0
518,85,0,0,0,0,0,0,0,0,0,-1,1742,939,0,0
525,85,0,0,0,0,0,0,0,0,0,-1,1749,939,0,0
532,85,0,0,0,0,0,0,0,0,0,-1,1756,939,0,0
539,85,0,0,0,0,0,0,0,0,0,-1,1763,939,0,0
546,85,0,0,0,0,0,0,0,0,0,-1,1770,939,0,0
553,85,0,0,0,0,0,0,0,0,0,-1,1777,939,0,0
560,85,0,0,0,0,0,0,0,0,0,-1,1784,939,0,0
567,85,0,0,0,0,0,0,0,0,0,-1,1791,939,0,0
574,85,0,0,0,0,0,0,0,0,0,-1,1798,939,0,0
581,85,0,0,0,0,0,0,0,0,0,-1,1805,939,0,0
588,85,0,0,0,0,0,0,0,0,0,-1,1812,939,0,0
595,85,0,0,0,0,0,0,0,0,0,-1,1819,939,0,0
602,85,0,0,0,0,0,0,0,0,0,-1,1826,939,0,0
609,85,0,0,0,0,0,0,0,0,0,-1,1833,939,0,0
616,85,0,0,0,0,0,0,0,0,0,-1,1840,939,0,0
623,85,0,0,0,0,0,0,0,0,0,-1,1847,939,0,0
630,85,0,0,0,0,0,0,0,0,0,-1,1854,939,0,0
637,85,39.7927,2.9444,-0.000691985,0.00271902,-0.00290551,0.0043826,-0.00235556,-1.0508,0.00394852,0.0480602,1861,939,39.7928,-2.9444
644,85,39.7021,2.75122,-0.000238869,0.00198043,-0.00230209,0.00342636,-0.00168479,-1.00998,0.00300748,0.0412396,1868,939,39.7022,-2.7512
651,85,39.6907,2.72791,-9.47295e-05,0.0012804,-0.00184581,0.00256255,-0.00137688,-0.963686,0.00230851,0.0417806,1875,939,39.6906,-2.72789
658,85,39.655,2.74579,-0.000210629,0.000822193,-0.00137397,0.00177359,-0.00116203,-0.965158,0.00170709,0.0440781,1882,939,39.655,-2.74581
665,85,39.8086,2.57458,-0.000452812,0.000512769,-0.000873135,0.0010277,-0.000967745,-1.03795,0.00115225,0.0436522,1889,939,39.8086,-2.5746
672,85,39.8877,2.4873,-0.000691783,0.000256656,-0.000387067,0.000394568,-0.000829695,-1.22852,0.000721557,0.0423706,1896,939,39.8877,-2.48729
679,85,39.8354,2.57739,-0.000811955,-1.5308e-05,-1.45505e-05,-1.50424e-05,-0.000812221,-1.55254,0.000536537,0.0401938,1903,939,39.8355,-2.57737
686,85,39.6978,2.72522,-0.000805353,-0.000204371,0.000133924,-0.000175878,-0.000833846,1.36117,0.000507533,0.0353508,1910,939,39.6977,-2.72525
693,85,39.6199,2.70367,-0.000736035,-0.000347028,0.000301216,-0.000182976,-0.000900088,1.07208,0.00054932,0.0315798,1917,939,39.6199,-2.70366
700,85,39.6326,2.66541,-0.000890451,-0.000352512,0.000346938,-0.000182493,-0.00106047,1.11514,0.000654682,0.0420205,1924,939,39.6325,-2.66541
707,85,39.6862,2.672,0,0,0,0,0,0,0,-1,1931,939,39.6861,-2.67201
714,85,37.1726,3.7074,0,0,0,0,0,0,0,-1,1938,939,37.1726,-3.70742
721,85,37.1538,4.10468,-0.00147414,0.000681819,0.00013276,0.000689963,-0.00148228,1.50953,0.00128165,0.0293998,1945,939,37.1538,-4.10468
728,85,37.0957,4.52692,-0.00139353,0.00131349,0.000199997,0.00132818,-0.00140823,1.49745,0.00158009,0.0240703,1952,939,37.0957,-4.5269
735,85,37.079,4.76373,-0.00110675,0.0024911,0.000628677,0.00259779,-0.00121344,1.40269,0.00224828,0.0224115,1959,939,37.0789,-4.76375
742,85,37.1371,5.05951,-0.00085808,0.00416914,0.00112733,0.00441036,-0.0010993,1.36,0.00336704,0.0171118,1966,939,37.137,-5.05948
749,85,37.0748,5.36542,-0.000665224,0.0066374,0.00193372,0.00711783,-0.00114566,1.32727,0.0051696,0.0140103,1973,939,37.0748,-5.36539
756,85,36.9768,5.64691,-0.000102454,0.0100637,0.00353463,0.0111718,-0.0012106,1.26699,0.00788248,0.0134477,1980,939,36.9767,-5.64693
763,85,36.9551,5.95007,0.000678333,0.0148691,0.00629562,0.0172594,-0.00171203,1.20792,0.0121173,0.0131264,1987,939,36.9551,-5.95007
770,85,36.9409,6.27051,0.00187383,0.0203065,0.00983472,0.0245684,-0.00238806,1.16187,0.0172302,0.0174061,1994,939,36.9409,-6.27048
777,85,36.9141,6.66949,0.00335431,0.0268061,0.0143451,0.033608,-0.00344761,1.12803,0.0236385,0.0384333,2001,939,36.9141,-6.66947
784,85,36.8375,7.25568,0.00524173,0.0348896,0.0204191,0.0452983,-0.005167,1.09937,0.0320603,0.0471614,2008,939,36.8376,-7.2557
791,85,36.8931,7.9776,0,0,0,0,0,0,0,-1,2015,939,36.8931,-7.97757
798,85,36.8977,8.24866,0,0,0,0,0,0,0,-1,2022,939,36.8977,-8.24868
805,85,37.7939,4.98969,0,0,0,0,0,0,0,-1,2029,939,37.7938,-4.98966
812,85,0,0,0,0,0,0,0,0,0,-1,2036,939,0,0
-700,78,0,0,0,0,0,0,0,0,0,-1,524,946,0,0
-693,78,0,0,0,0,0,0,0,0,0,-1,531,946,0,0
-686,78,-25.4879,5.21692,0,0,0,0,0,0,0,-1,538,946,-25.4879,-5.21691
-679,78,-25.8246,3.58997,0,0,0,0,0,0,0,-1,545,946,-25.8246,-3.58999
-672,78,-26.4685,3.6286,-0.0456999,-0.0237723,0.0172201,-0.0143219,-0.0551502,1.06888,0.0330441,0.0470853,552,946,-26.4685,-3.62858
-665,78,-27.0288,3.64746,-0.0362934,-0.0148401,0.0143459,-0.00765406,-0.0434795,1.10642,0.0268018,0.0457483,559,946,-27.0288,-3.64744
-658,78,-27.1986,3.64697,-0.0280122,-0.0079592,0.0117665,-0.00252671,-0.0334447,1.13826,0.0215038,0.0488195,566,946,-27.1986,-3.64697
-651,78,-27.3105,3.58209,-0.0209316,-0.00295298,0.00954432,0.00116884,-0.0250534,1.16313,0.0171052,0.0426937,573,946,-27.3106,-3.5821
-644,78,-27.4295,3.52679,-0.0150945,0.000369385,0.00769637,0.00354693,-0.0182721,1.17925,0.0135197,0.0262092,580,946,-27.4295,-3.52677
-637,78,-27.5748,3.38629,-0.0105941,0.00210897,0.00604651,0.00452683,-0.013012,1.1904,0.0105136,0.0137277,587,946,-27.5748,-3.38629
-630,78,-27.6918,3.12946,-0.00729977,0.00374961,0.00448787,0.00534273,-0.00889289,1.22969,0.0083037,0.0125379,594,946,-27.6919,-3.12947
-623,78,-27.7399,2.86475,-0.00519675,0.00441425,0.00312071,0.00533864,-0.00612114,1.28282,0.00662145,0.0117303,601,946,-27.7399,-2.86477
-616,78,-27.7542,2.63202,-0.00424303,0.00347532,0.00187875,0.00390834,-0.00467605,1.34427,0.0049628,0.0111157,608,946,-27.7542,-2.63202
-609,78,-27.7269,2.40094,-0.00460471,0.00255536,0.000615124,0.00260782,-0.00465717,1.48572,0.00424971,0.0122215,615,946,-27.727,-2.40092
-602,78,-27.722,2.12646,-0.00543589,0.00189687,0.000311707,0.0019101,-0.00544912,1.52839,0.00440957,0.0156632,622,946,-27.722,-2.12644
-595,78,-27.6827,1.83154,-0.00626576,0.000675673,-0.000281425,0.000687064,-0.00627715,-1.53034,0.00443158,0.0149793,629,946,-27.6827,-1.83152
-588,78,-27.6605,1.62744,-0.00699144,4.02162e-05,-0.000816619,0.000133808,-0.00708503,-1.45668,0.00476858,0.0125219,636,946,-27.6605,-1.62742
-581,78,-27.7776,1.44763,-0.00750842,-0.000128894,-0.00125412,7.84139e-05,-0.00771573,-1.40698,0.00517016,0.0277211,643,946,-27.7776,-1.44764
-574,78,-28.3807,1.12787,-0.00755346,-0.00010614,-0.00155094,0.000203939,-0.00786353,-1.37347,0.00531164,0.0346409,650,946,-28.3807,-1.12785
-567,78,-29.0651,0.861511,0,0,0,0,0,0,0,-1,657,946,-29.0651,-0.861491
-560,78,-29.0147,0.761719,-0.00692562,0.0003874,-0.00203798,0.00091699,-0.00745521,-1.31656,0.0053023,0.030931,664,946,-29.0147,-0.761736
-553,78,-29.0284,0.772339,-0.00604325,0.000850663,-0.0021086,0.00144446,-0.00663705,-1.2963,0.00497656,0.0393662,671,946,-29.0284,-0.772324
-546,78,-29.0587,0.783447,-0.00467552,0.0014628,-0.00212727,0.00212794,-0.00534067,-1.26775,0.00444299,0.0419052,678,946,-29.0587,-0.783437
-539,78,-28.9699,0.860718,-0.00285094,0.00217106,-0.00212131,0.00294717,-0.00362704,-1.22006,0.00380238,0.0386986,685,946,-28.9699,-0.860715
-532,78,-28.9963,0.950134,-0.000715648,0.00292125,-0.00225938,0.00400307,-0.00179746,-1.12424,0.00342869,0.0389325,692,946,-28.9964,-0.950143
-525,78,-28.9586,0.747498,0.000256418,0.00392066,-0.00297842,0.00558534,-0.00140826,-1.06113,0.00427108,0.0386494,699,946,-28.9586,-0.747482
-518,78,-28.8954,0.584839,-0.00269661,0.00518778,-0.00434525,0.00711262,-0.00462145,-1.1538,0.00682537,0.0385386,706,946,-28.8954,-0.584842
-511,78,0,0,0,0,0,0,0,0,0,-1,713,946,0,0
-504,78,0,0,0,0,0,0,0,0,0,-1,720,946,0,0
-497,78,0,0,0,0,0,0,0,0,0,-1,727,946,0,0
-490,78,0,0,0,0,0,0,0,0,0,-1,734,946,0,0
-483,78,0,0,0,0,0,0,0,0,0,-1,741,946,0,0
-476,78,0,0,0,0,0,0,0,0,0,-1,748,946,0,0
-469,78,0,0,0,0,0,0,0,0,0,-1,755,946,0,0
-462,78,0,0,0,0,0,0,0,0,0,-1,762,946,0,0
-455,78,0,0,0,0,0,0,0,0,0,-1,769,946,0,0
-448,78,0,0,0,0,0,0,0,0,0,-1,776,946,0,0
-441,78,0,0,0,0,0,0,0,0,0,-1,783,946,0,0
-434,78,0,0,0,0,0,0,0,0,0,-1,790,946,0,0
-427,78,0,0,0,0,0,0,0,0,0,-1,797,946,0,0
-420,78,0,0,0,0,0,0,0,0,0,-1,804,946,0,0
-413,78,0,0,0,0,0,0,0,0,0,-1,811,946,0,0
-406,78,0,0,0,0,0,0,0,0,0,-1,818,946,0,0
-399,78,0,0,0,0,0,0,0,0,0,-1,825,946,0,0
-392,78,0,0,0,0,0,0,0,0,0,-1,832,946,0,0
-385,78,0,0,0,0,0,0,0,0,0,-1,839,946,0,0
-378,78,0,0,0,0,0,0,0,0,0,-1,846,946,0,0
-371,78,0,0,0,0,0,0,0,0,0,-1,853,946,0,0
-364,78,0,0,0,0,0,0,0,0,0,-1,860,946,0,0
-357,78,0,0,0,0,0,0,0,0,0,-1,867,946,0,0
-350,78,0,0,0,0,0,0,0,0,0,-1,874,946,0,0
-343,78,0,0,0,0,0,0,0,0,0,-1,881,946,0,0
-336,78,0,0,0,0,0,0,0,0,0,-1,888,946,0,0
-329,78,0,0,0,0,0,0,0,0,0,-1,895,946,0,0
-322,78,0,0,0,0,0,0,0,0,0,-1,902,946,0,0
-315,78,0,0,0,0,0,0,0,0,0,-1,909,946,0,0
-308,78,0,0,0,0,0,0,0,0,0,-1,916,946,0,0
-301,78,0,0,0,0,0,0,0,0,0,-1,923,946,0,0
-294,78,0,0,0,0,0,0,0,0,0,-1,930,946,0,0
-287,78,0,0,0,0,0,0,0,0,0,-1,937,946,0,0
-280,78,0,0,0,0,0,0,0,0,0,-1,944,946,0,0
-273,78,0,0,0,0,0,0,0,0,0,-1,951,946,0,0
-266,78,0,0,0,0,0,0,0,0,0,-1,958,946,0,0
-259,78,0,0,0,0,0,0,0,0,0,-1,965,946,0,0
-252,78,0,0,0,0,0,0,0,0,0,-1,972,946,0,0
-245,78,0,0,0,0,0,0,0,0,0,-1,979,946,0,0
-238,78,0,0,0,0,0,0,0,0,0,-1,986,946,0,0
-231,78,0,0,0,0,0,0,0,0,0,-1,993,946,0,0
-224,78,0,0,0,0,0,0,0,0,0,-1,1000,946,0,0
-217,78,0,0,0,0,0,0,0,0,0,-1,1007,946,0,0
-210,78,0,0,0,0,0,0,0,0,0,-1,1014,946,0,0
-203,78,0,0,0,0,0,0,0,0,0,-1,1021,946,0,0
-196,78,0,0,0,0,0,0,0,0,0,-1,1028,946,0,0
-189,78,0,0,0,0,0,0,0,0,0,-1,1035,946,0,0
-182,78,0,0,0,0,0,0,0,0,0,-1,1042,946,0,0
-175,78,0,0,0,0,0,0,0,0,0,-1,1049,946,0,0
-168,78,0,0,0,0,0,0,0,0,0,-1,1056,946,0,0
-161,78,0,0,0,0,0,0,0,0,0,-1,1063,946,0,0
-154,78,0,0,0,0,0,0,0,0,0,-1,1070,946,0,0
-147,78,0,0,0,0,0,0,0,0,0,-1,1077,946,0,0
-140,78,0,0,0,0,0,0,0,0,0,-1,1084,946,0,0
-133,78,0,0,0,0,0,0,0,0,0,-1,1091,946,0,0
-126,78,0,0,0,0,0,0,0,0,0,-1,1098,946,0,0
-119,78,0,0,0,0,0,0,0,0,0,-1,1105,946,0,0
-112,78,0,0,0,0,0,0,0,0,0,-1,1112,946,0,0
-105,78,0,0,0,0,0,0,0,0,0,-1,1119,946,0,0
-98,78,0,0,0,0,0,0,0,0,0,-1,1126,946,0,0
-91,78,0,0,0,0,0,0,0,0,0,-1,1133,946,0,0
-84,78,0,0,0,0,0,0,0,0,0,-1,1140,946,0,0
-77,78,0,0,0,0,0,0,0,0,0,-1,1147,946,0,0
-70,78,0,0,0,0,0,0,0,0,0,-1,1154,946,0,0
-63,78,0,0,0,0,0,0,0,0,0,-1,1161,946,0,0
-56,78,0,0,0,0,0,0,0,0,0,-1,1168,946,0,0
-49,78,0,0,0,0,0,0,0,0,0,-1,1175,946,0,0
-42,78,0,0,0,0,0,0,0,0,0,-1,1182,946,0,0
-35,78,0,0,0,0,0,0,0,0,0,-1,1189,946,0,0
-28,78,0,0,0,0,0,0,0,0,0,-1,1196,946,0,0
-21,78,0,0,0,0,0,0,0,0,0,-1,1203,946,0,0
-14,78,0,0,0,0,0,0,0,0,0,-1,1210,946,0,0
-7,78,0,0,0,0,0,0,0,0,0,-1,1217,946,0,0
0,78,0,0,0,0,0,0,0,0,0,-1,1224,946,0,0
7,78,0,0,0,0,0,0,0,0,0,-1,1231,946,0,0
14,78,0,0,0,0,0,0,0,0,0,-1,1238,946,0,0
21,78,0,0,0,0,0,0,0,0,0,-1,1245,946,0,0
28,78,0,0,0,0,0,0,0,0,0,-1,1252,946,0,0
35,78,0,0,0,0,0,0,0,0,0,-1,1259,946,0,0
42,78,0,0,0,0,0,0,0,0,0,-1,1266,946,0,0
49,78,0,0,0,0,0,0,0,0,0,-1,1273,946,0,0
56,78,0,0,0,0,0,0,0,0,0,-1,1280,946,0,0
63,78,0,0,0,0,0,0,0,0,0,-1,1287,946,0,0
70,78,0,0,0,0,0,0,0,0,0,-1,1294,946,0,0
77,78,0,0,0,0,0,0,0,0,0,-1,1301,946,0,0
84,78,0,0,0,0,0,0,0,0,0,-1,1308,946,0,0
91,78,0,0,0,0,0,0,0,0,0,-1,1315,946,0,0
98,78,0,0,0,0,0,0,0,0,0,-1,1322,946,0,0
105,78,0,0,0,0,0,0,0,0,0,-1,1329,946,0,0
112,78,0,0,0,0,0,0,0,0,0,-1,1336,946,0,0
119,78,0,0,0,0,0,0,0,0,0,-1,1343,946,0,0
126,78,0,0,0,0,0,0,0,0,0,-1,1350,946,0,0
133,78,0,0,0,0,0,0,0,0,0,-1,1357,946,0,0
140,78,0,0,0,0,0,0,0,0,0,-1,1364,946,0,0
147,78,0,0,0,0,0,0,0,0,0,-1,1371,946,0,0
154,78,0,0,0,0,0,0,0,0,0,-1,1378,946,0,0
161,78,0,0,0,0,0,0,0,0,0,-1,1385,946,0,0
168,78,0,0,0,0,0,0,0,0,0,-1,1392,946,0,0
175,78,0,0,0,0,0,0,0,0,0,-1,1399,946,0,0
182,78,0,0,0,0,0,0,0,0,0,-1,1406,946,0,0
189,78,0,0,0,0,0,0,0,0,0,-1,1413,946,0,0
196,78,0,0,0,0,0,0,0,0,0,-1,1420,946,0,0
203,78,0,0,0,0,0,0,0,0,0,-1,1427,946,0,0
210,78,0,0,0,0,0,0,0,0,0,-1,1434,946,0,0
217,78,0,0,0,0,0,0,0,0,0,-1,1441,946,0,0
224,78,0,0,0,0,0,0,0,0,0,-1,1448,946,0,0
231,78,0,0,0,0,0,0,0,0,0,-1,1455,946,0,0
238,78,0,0,0,0,0,0,0,0,0,-1,1462,946,0,0
245,78,0,0,0,0,0,0,0,0,0,-1,1469,946,0,0
252,78,0,0,0,0,0,0,0,0,0,-1,1476,946,0,0
259,78,0,0,0,0,0,0,0,0,0,-1,1483,946,0,0
266,78,0,0,0,0,0,0,0,0,0,-1,1490,946,0,0
273,78,0,0,0,0,0,0,0,0,0,-1,1497,946,0,0
280,78,0,0,0,0,0,0,0,0,0,-1,1504,946,0,0
287,78,0,0,0,0,0,0,0,0,0,-1,1511,946,0,0
294,78,0,0,0,0,0,0,0,0,0,-1,1518,946,0,0
301,78,0,0,0,0,0,0,0,0,0,-1,1525,946,0,0
308,78,0,0,0,0,0,0,0,0,0,-1,1532,946,0,0
315,78,0,0,0,0,0,0,0,0,0,-1,1539,946,0,0
322,78,0,0,0,0,0,0,0,0,0,-1,1546,946,0,0
329,78,0,0,0,0,0,0,0,0,0,-1,1553,946,0,0
336,78,0,0,0,0,0,0,0,0,0,-1,1560,946,0,0
343,78,0,0,0,0,0,0,0,0,0,-1,1567,946,0,0
350,78,0,0,0,0,0,0,0,0,0,-1,1574,946,0,0
357,78,0,0,0,0,0,0,0,0,0,-1,1581,946,0,0
364,78,0,0,0,0,0,0,0,0,0,-1,1588,946,0,0
371,78,0,0,0,0,0,0,0,0,0,-1,1595,946,0,0
378,78,0,0,0,0,0,0,0,0,0,-1,1602,946,0,0
385,78,0,0,0,0,0,0,0,0,0,-1,1609,946,0,0
392,78,0,0,0,0,0,0,0,0,0,-1,1616,946,0,0
399,78,0,0,0,0,0,0,0,0,0,-1,1623,946,0,0
406,78,0,0,0,0,0,0,0,0,0,-1,1630,946,0,0
413,78,0,0,0,0,0,0,0,0,0,-1,1637,946,0,0
420,78,0,0,0,0,0,0,0,0,0,-1,1644,946,0,0
427,78,0,0,0,0,0,0,0,0,0,-1,1651,946,0,0
434,78,0,0,0,0,0,0,0,0,0,-1,1658,946,0,0
441,78,0,0,0,0,0,0,0,0,0,-1,1665,946,0,0
448,78,0,0,0,0,0,0,0,0,0,-1,1672,946,0,0
455,78,0,0,0,0,0,0,0,0,0,-1,1679,946,0,0
462,78,0,0,0,0,0,0,0,0,0,-1,1686,946,0,0
469,78,0,0,0,0,0,0,0,0,0,-1,1693,946,0,0
476,78,0,0,0,0,0,0,0,0,0,-1,1700,946,0,0
483,78,0,0,0,0,0,0,0,0,0,-1,1707,946,0,0
490,78,0,0,0,0,0,0,0,0,0,-1,1714,946,0,0
497,78,0,0,0,0,0,0,0,0,0,-1,1721,946,0,0
504,78,0,0,0,0,0,0,0,0,0,-1,1728,946,0,0
511,78,0,0,0,0,0,0,0,0,0,-1,1735,946,0,0
518,78,0,0,0,0,0,0,0,0,0,-1,1742,946,0,0
525,78,0,0,0,0,0,0,0,0,0,-1,1749,946,0,0
532,78,0,0,0,0,0,0,0,0,0,-1,1756,946,0,0
539,78,0,0,0,0,0,0,0,0,0,-1,1763,946,0,0
546,78,0,0,0,0,0,0,0,0,0,-1,1770,946,0,0
553,78,0,0,0,0,0,0,0,0,0,-1,1777,946,0,0
560,78,0,0,0,0,0,0,0,0,0,-1,1784,946,0,0
567,78,0,0,0,0,0,0,0,0,0,-1,1791,946,0,0
574,78,0,0,0,0,0,0,0,0,0,-1,1798,946,0,0
581,78,0,0,0,0,0,0,0,0,0,-1,1805,946,0,0
588,78,0,0,0,0,0,0,0,0,0,-1,1812,946,0,0
595,78,0,0,0,0,0,0,0,0,0,-1,1819,946,0,0
602,78,0,0,0,0,0,0,0,0,0,-1,1826,946,0,0
609,78,0,0,0,0,0,0,0,0,0,-1,1833,946,0,0
616,78,0,0,0,0,0,0,0,0,0,-1,1840,946,0,0
623,78,0,0,0,0,0,0,0,0,0,-1,1847,946,0,0
630,78,0,0,0,0,0,0,0,0,0,-1,1854,946,0,0
637,78,39.8456,2.64264,-0.000498729,0.00343517,-0.00229224,0.00448869,-0.00155225,-1.13998,0.00362249,0.0464403,1861,946,39.8456,-2.64263
644,78,39.6899,2.49237,-0.000138112,0.00251347,-0.00175202,0.00338479,-0.00100943,-1.10929,0.00265769,0.0421492,1868,946,39.6899,-2.49235
651,78,39.7283,2.60657,-8.03386e-05,0.0017075,-0.00139013,0.00246632,-0.000839157,-1.07113,0.00198399,0.0424582,1875,946,39.7282,-2.60654
658,78,39.7031,2.62531,-0.000180952,0.00117366,-0.000972212,0.00168124,-0.000688525,-1.08964,0.00140763,0.0407771,1882,946,39.7032,-2.62532
665,78,39.8516,2.60327,-0.000395855,0.00081342,-0.000465421,0.000971805,-0.00055424,-1.24278,0.000891989,0.0403909,1889,946,39.8516,-2.60325
672,78,39.9072,2.49432,-0.000642533,0.000510714,5.05242e-05,0.000512923,-0.000644742,1.5271,0.000669821,0.040704,1896,946,39.9073,-2.4943
679,78,39.7393,2.64441,-0.000791051,0.000195018,0.000456333,0.000373789,-0.000969822,1.19742,0.000800772,0.0402183,1903,946,39.7392,-2.6444
686,78,39.6194,2.73334,-0.000783261,-6.17468e-05,0.000633928,0.000306887,-0.00115189,1.04409,0.00088808,0.0383185,1910,946,39.6194,-2.73335
693,78,39.6011,2.62256,-0.000691005,-0.000276149,0.000799755,0.000342639,-0.00130979,0.912285,0.00100703,0.0334066,1917,946,39.6011,-2.62253
700,78,39.5989,2.57819,-0.000843786,-0.000326949,0.000823058,0.000277306,-0.00144804,0.937512,0.00106984,0.0314553,1924,946,39.5989,-2.57818
707,78,39.6593,2.69244,0,0,0,0,0,0,0,-1,1931,946,39.6593,-2.69243
714,78,37.3186,3.91406,0,0,0,0,0,0,0,-1,1938,946,37.3186,-3.91408
721,78,37.3752,4.18127,-0.00159151,0.000657423,0.000485847,0.000757894,-0.00169198,1.36687,0.0014483,0.0285502,1945,946,37.3752,-4.18124
728,78,37.4254,4.53571,-0.00154093,0.00130145,0.000500268,0.00138692,-0.0016264,1.40157,0.00174158,0.027341,1952,946,37.4254,-4.53573
735,78,37.4502,4.81519,-0.00122997,0.0024744,0.000763667,0.00262565,-0.00138123,1.37526,0.00235027,0.019919,1959,946,37.4502,-4.81516
742,78,37.4851,5.08112,-0.0010094,0.00407756,0.00104129,0.00428246,-0.0012143,1.37651,0.00333428,0.0164732,1966,946,37.4851,-5.0811
749,78,37.4105,5.35382,-0.000974782,0.00649934,0.0015145,0.00679457,-0.00127001,1.37828,0.00500703,0.0137662,1973,946,37.4106,-5.35382
756,78,37.356,5.60754,-0.000764171,0.0099616,0.00262242,0.0105684,-0.00137101,1.34339,0.00754427,0.0144255,1980,946,37.356,-5.60752
763,78,37.2822,5.86139,-0.000564704,0.0151157,0.00485492,0.0164972,-0.00194616,1.29358,0.0117009,0.0138482,1987,946,37.2822,-5.86141
770,78,37.2389,6.11694,-2.55045e-05,0.0209386,0.00784818,0.0235511,-0.00263801,1.24945,0.0166499,0.0180852,1994,946,37.2389,-6.11695
777,78,37.2382,6.60999,0.00041895,0.0279125,0.0116369,0.0321766,-0.00384515,1.21956,0.0228409,0.0378642,2001,946,37.2382,-6.60999
784,78,37.2831,7.33264,0.000661722,0.0366885,0.0167963,0.0433044,-0.00595411,1.19557,0.0310452,0.0458177,2008,946,37.283,-7.33267
791,78,37.0657,7.87152,0,0,0,0,0,0,0,-1,2015,946,37.0657,-7.87153
798,78,33.2092,3.68036,0,0,0,0,0,0,0,-1,2022,946,33.2092,-3.68037
805,78,32.3921,1.3634,0,0,0,0,0,0,0,-1,2029,946,32.3921,-1.36342
812,78,0,0,0,0,0,0,0,0,0,-1,2036,946,0,0
-700,71,0,0,0,0,0,0,0,0,0,-1,524,953,0,0
-693,71,0,0,0,0,0,0,0,0,0,-1,531,953,0,0
-686,71,-25.6705,3.24188,0,0,0,0,0,0,0,-1,538,953,-25.6705,-3.24186
-679,71,-25.999,3.39471,-0.0585434,-0.0291037,0.0183942,-0.0202647,-0.0673825,1.12284,0.0399198,0.0494868,545,953,-25.999,-3.3947
-672,71,-26.7613,3.62769,-0.0493443,-0.0190605,0.0155073,-0.0125286,-0.0558762,1.17214,0.0338564,0.04882,552,953,-26.7613,-3.6277
-665,71,-27.3165,3.64191,-0.0406384,-0.0109671,0.0127907,-0.00621457,-0.045391,1.21504,0.0284166,0.044334,559,953,-27.3165,-3.64189
-658,71,-27.6414,3.70709,-0.032615,-0.00472867,0.0103444,-0.00131043,-0.0360333,1.25165,0.0235975,0.0469889,566,953,-27.6414,-3.70712
-651,71,-27.7212,3.60974,-0.0254517,-0.000245603,0.00823923,0.00220862,-0.027906,1.28129,0.0193822,0.0459837,573,953,-27.7212,-3.60976
-644,71,-27.7349,3.54218,-0.0192569,0.00263111,0.00648425,0.00440783,-0.0210336,1.30336,0.0156993,0.0349421,580,953,-27.7349,-3.54215
-637,71,-27.8782,3.33893,-0.0143116,0.00405073,0.0048929,0.00527313,-0.015534,1.32598,0.0124904,0.0153819,587,953,-27.8782,-3.33895
-630,71,-27.9758,3.09753,-0.0105675,0.0053985,0.00331117,0.00605796,-0.011227,1.37421,0.0101271,0.0135404,594,953,-27.9758,-3.09756
-623,71,-28.0222,2.836,-0.00786379,0.00573667,0.00187437,0.00599026,-0.00811738,1.43632,0.00817585,0.0127965,601,953,-28.0221,-2.83599
-616,71,-28.0344,2.57605,-0.0061808,0.00461776,0.000621038,0.00465336,-0.0062164,1.51354,0.00629725,0.0129658,608,953,-28.0344,-2.57602
-609,71,-27.9819,2.37671,-0.00580094,0.00355767,-0.000553934,0.00359034,-0.00583362,-1.51188,0.00549207,0.0148926,615,953,-27.9819,-2.3767
-602,71,-27.9412,2.1355,-0.00609709,0.00267321,-0.000871109,0.00275889,-0.00618278,-1.47275,0.00528713,0.0157518,622,953,-27.9411,-2.13551
-595,71,-27.9587,1.89984,-0.00663236,0.00123494,-0.00146631,0.00149934,-0.00689677,-1.39239,0.0051706,0.0163626,629,953,-27.9587,-1.89986
-588,71,-27.9325,1.72839,-0.00707565,0.000506755,-0.00192416,0.000967096,-0.00753599,-1.33597,0.00537544,0.019202,636,953,-27.9325,-1.7284
-581,71,-28.1572,1.35468,-0.00733661,0.000224321,-0.00226097,0.000848844,-0.00796113,-1.3013,0.00561181,0.0340784,643,953,-28.1572,-1.35467
-574,71,-28.8117,1.00391,-0.00726159,0.000157224,-0.00244211,0.000888944,-0.00799331,-1.27968,0.00564856,0.0388708,650,953,-28.8117,-1.00388
-567,71,-29.3251,0.655273,0,0,0,0,0,0,0,-1,657,953,-29.3251,-0.655279
-560,71,-29.0723,0.822266,-0.00648902,0.000581806,-0.00270422,0.00149745,-0.00740466,-1.24431,0.00550392,0.0263541,664,953,-29.0723,-0.822277
-553,71,-28.9997,0.862732,-0.00546435,0.000980211,-0.002611,0.00190527,-0.00638941,-1.2303,0.00501677,0.0371693,671,953,-28.9997,-0.862758
-546,71,-29.0081,0.758972,-0.0039231,0.00148216,-0.00243477,0.00241716,-0.0048581,-1.20414,0.00427845,0.0400601,678,953,-29.0081,-0.758999
-539,71,-29.0087,0.568909,-0.00189464,0.00202266,-0.00221742,0.0030226,-0.00289459,-1.14715,0.00341655,0.0405554,685,953,-29.0087,-0.568897
-532,71,-29.0746,0.584473,0.000473186,0.00258087,-0.00221261,0.00397779,-0.000923733,-1.00765,0.00300744,0.0435892,692,953,-29.0746,-0.584497
-525,71,-28.9957,0.754333,0.0016174,0.00344042,-0.00295998,0.00562606,-0.000568243,-0.934763,0.00395375,0.0421387,699,953,-28.9957,-0.754338
-518,71,0,0,0,0,0,0,0,0,0,-1,706,953,0,0
-511,71,0,0,0,0,0,0,0,0,0,-1,713,953,0,0
-504,71,0,0,0,0,0,0,0,0,0,-1,720,953,0,0
-497,71,0,0,0,0,0,0,0,0,0,-1,727,953,0,0
-490,71,0,0,0,0,0,0,0,0,0,-1,734,953,0,0
-483,71,0,0,0,0,0,0,0,0,0,-1,741,953,0,0
-476,71,0,0,0,0,0,0,0,0,0,-1,748,953,0,0
-469,71,0,0,0,0,0,0,0,0,0,-1,755,953,0,0
-462,71,0,0,0,0,0,0,0,0,0,-1,762,953,0,0
-455,71,0,0,0,0,0,0,0,0,0,-1,769,953,0,0
-448,71,0,0,0,0,0,0,0,0,0,-1,776,953,0,0
-441,71,0,0,0,0,0,0,0,0,0,-1,783,953,0,0
-434,71,0,0,0,0,0,0,0,0,0,-1,790,953,0,0
-427,71,0,0,0,0,0,0,0,0,0,-1,797,953,0,0
-420,71,0,0,0,0,0,0,0,0,0,-1,804,953,0,0
-413,71,0,0,0,0,0,0,0,0,0,-1,811,953,0,0
-406,71,0,0,0,0,0,0,0,0,0,-1,818,953,0,0
-399,71,0,0,0,0,0,0,0,0,0,-1,825,953,0,0
-392,71,0,0,0,0,0,0,0,0,0,-1,832,953,0,0
-385,71,0,0,0,0,0,0,0,0,0,-1,839,953,0,0
-378,71,0,0,0,0,0,0,0,0,0,-1,846,953,0,0
-371,71,0,0,0,0,0,0,0,0,0,-1,853,953,0,0
-364,71,0,0,0,0,0,0,0,0,0,-1,860,953,0,0
-357,71,0,0,0,0,0,0,0,0,0,-1,867,953,0,0
-350,71,0,0,0,0,0,0,0,0,0,-1,874,953,0,0
-343,71,0,0,0,0,0,0,0,0,0,-1,881,953,0,0
-336,71,0,0,0,0,0,0,0,0,0,-1,888,953,0,0
-329,71,0,0,0,0,0,0,0,0,0,-1,895,953,0,0
-322,71,0,0,0,0,0,0,0,0,0,-1,902,953,0,0
-315,71,0,0,0,0,0,0,0,0,0,-1,909,953,0,0
-308,71,0,0,0,0,0,0,0,0,0,-1,916,953,0,0
-301,71,0,0,0,0,0,0,0,0,0,-1,923,953,0,0
-294,71,0,0,0,0,0,0,0,0,0,-1,930,953,0,0
-287,71,0,0,0,0,0,0,0,0,0,-1,937,953,0,0
-280,71,0,0,0,0,0,0,0,0,0,-1,944,953,0,0
-273,71,0,0,0,0,0,0,0,0,0,-1,951,953,0,0
-266,71,0,0,0,0,0,0,0,0,0,-1,958,953,0,0
-259,71,0,0,0,0,0,0,0,0,0,-1,965,953,0,0
-252,71,0,0,0,0,0,0,0,0,0,-1,972,953,0,0
-245,71,0,0,0,0,0,0,0,0,0,-1,979,953,0,0
-238,71,0,0,0,0,0,0,0,0,0,-1,986,953,0,0
-231,71,0,0,0,0,0,0,0,0,0,-1,993,953,0,0
-224,71,0,0,0,0,0,0,0,0,0,-1,1000,953,0,0
-217,71,0,0,0,0,0,0,0,0,0,-1,1007,953,0,0
-210,71,0,0,0,0,0,0,0,0,0,-1,1014,953,0,0
-203,71,0,0,0,0,0,0,0,0,0,-1,1021,953,0,0
-196,71,0,0,0,0,0,0,0,0,0,-1,1028,953,0,0
-189,71,0,0,0,0,0,0,0,0,0,-1,1035,953,0,0
-182,71,0,0,0,0,0,0,0,0,0,-1,1042,953,0,0
-175,71,0,0,0,0,0,0,0,0,0,-1,1049,953,0,0
-168,71,0,0,0,0,0,0,0,0,0,-1,1056,953,0,0
-161,71,0,0,0,0,0,0,0,0,0,-1,1063,953,0,0
-154,71,0,0,0,0,0,0,0,0,0,-1,1070,953,0,0
-147,71,0,0,0,0,0,0,0,0,0,-1,1077,953,0,0
-140,71,0,0,0,0,0,0,0,0,0,-1,1084,953,0,0
-133,71,0,0,0,0,0,0,0,0,0,-1,1091,953,0,0
-126,71,0,0,0,0,0,0,0,0,0,-1,1098,953,0,0
-119,71,0,0,0,0,0,0,0,0,0,-1,1105,953,0,0
-112,71,0,0,0,0,0,0,0,0,0,-1,1112,953,0,0
-105,71,0,0,0,0,0,0,0,0,0,-1,1119,953,0,0
-98,71,0,0,0,0,0,0,0,0,0,-1,1126,953,0,0
-91,71,0,0,0,0,0,0,0,0,0,-1,1133,953,0,0
-84,71,0,0,0,0,0,0,0,0,0,-1,1140,953,0,0
-77,71,0,0,0,0,0,0,0,0,0,-1,1147,953,0,0
-70,71,0,0,0,0,0,0,0,0,0,-1,1154,953,0,0
-63,71,0,0,0,0,0,0,0,0,0,-1,1161,953,0,0
-56,71,0,0,0,0,0,0,0,0,0,-1,1168,953,0,0
-49,71,0,0,0,0,0,0,0,0,0,-1,1175,953,0,0
-42,71,0,0,0,0,0,0,0,0,0,-1,1182,953,0,0
-35,71,0,0,0,0,0,0,0,0,0,-1,1189,953,0,0
-28,71,0,0,0,0,0,0,0,0,0,-1,1196,953,0,0
-21,71,0,0,0,0,0,0,0,0,0,-1,1203,953,0,0
-14,71,0,0,0,0,0,0,0,0,0,-1,1210,953,0,0
-7,71,0,0,0,0,0,0,0,0,0,-1,1217,953,0,0
0,71,0,0,0,0,0,0,0,0,0,-1,1224,953,0,0
7,71,0,0,0,0,0,0,0,0,0,-1,1231,953,0,0
14,71,0,0,0,0,0,0,0,0,0,-1,1238,953,0,0
21,71,0,0,0,0,0,0,0,0,0,-1,1245,953,0,0
28,71,0,0,0,0,0,0,0,0,0,-1,1252,953,0,0
35,71,0,0,0,0,0,0,0,0,0,-1,1259,953,0,0
42,71,0,0,0,0,0,0,0,0,0,-1,1266,953,0,0
49,71,0,0,0,0,0,0,0,0,0,-1,1273,953,0,0
56,71,0,0,0,0,0,0,0,0,0,-1,1280,953,0,0
63,71,0,0,0,0,0,0,0,0,0,-1,1287,953,0,0
70,71,0,0,0,0,0,0,0,0,0,-1,1294,953,0,0
77,71,0,0,0,0,0,0,0,0,0,-1,1301,953,0,0
84,71,0,0,0,0,0,0,0,0,0,-1,1308,953,0,0
91,71,0,0,0,0,0,0,0,0,0,-1,1315,953,0,0
98,71,0,0,0,0,0,0,0,0,0,-1,1322,953,0,0
105,71,0,0,0,0,0,0,0,0,0,-1,1329,953,0,0
112,71,0,0,0,0,0,0,0,0,0,-1,1336,953,0,0
119,71,0,0,0,0,0,0,0,0,0,-1,1343,953,0,0
126,71,0,0,0,0,0,0,0,0,0,-1,1350,953,0,0
133,71,0,0,0,0,0,0,0,0,0,-1,1357,953,0,0
140,71,0,0,0,0,0,0,0,0,0,-1,1364,953,0,0
147,71,0,0,0,0,0,0,0,0,0,-1,1371,953,0,0
154,71,0,0,0,0,0,0,0,0,0,-1,1378,953,0,0
161,71,0,0,0,0,0,0,0,0,0,-1,1385,953,0,0
168,71,0,0,0,0,0,0,0,0,0,-1,1392,953,0,0
175,71,0,0,0,0,0,0,0,0,0,-1,1399,953,0,0
182,71,0,0,0,0,0,0,0,0,0,-1,1406,953,0,0
189,71,0,0,0,0,0,0,0,0,0,-1,1413,953,0,0
196,71,0,0,0,0,0,0,0,0,0,-1,1420,953,0,0
203,71,0,0,0,0,0,0,0,0,0,-1,1427,953,0,0
210,71,0,0,0,0,0,0,0,0,0,-1,1434,953,0,0
217,71,0,0,0,0,0,0,0,0,0,-1,1441,953,0,0
224,71,0,0,0,0,0,0,0,0,0,-1,1448,953,0,0
231,71,0,0,0,0,0,0,0,0,0,-1,1455,953,0,0
238,71,0,0,0,0,0,0,0,0,0,-1,1462,953,0,0
245,71,0,0,0,0,0,0,0,0,0,-1,1469,953,0,0
252,71,0,0,0,0,0,0,0,0,0,-1,1476,953,0,0
259,71,0,0,0,0,0,0,0,0,0,-1,1483,953,0,0
266,71,0,0,0,0,0,0,0,0,0,-1,1490,953,0,0
273,71,0,0,0,0,0,0,0,0,0,-1,1497,953,0,0
280,71,0,0,0,0,0,0,0,0,0,-1,1504,953,0,0
287,71,0,0,0,0,0,0,0,0,0,-1,1511,953,0,0
294,71,0,0,0,0,0,0,0,0,0,-1,1518,953,0,0
301,71,0,0,0,0,0,0,0,0,0,-1,1525,953,0,0
308,71,0,0,0,0,0,0,0,0,0,-1,1532,953,0,0
315,71,0,0,0,0,0,0,0,0,0,-1,1539,953,0,0
322,71,0,0,0,0,0,0,0,0,0,-1,1546,953,0,0
329,71,0,0,0,0,0,0,0,0,0,-1,1553,953,0,0
336,71,0,0,0,0,0,0,0,0,0,-1,1560,953,0,0
343,71,0,0,0,0,0,0,0,0,0,-1,1567,953,0,0
350,71,0,0,0,0,0,0,0,0,0,-1,1574,953,0,0
357,71,0,0,0,0,0,0,0,0,0,-1,1581,953,0,0
364,71,0,0,0,0,0,0,0,0,0,-1,1588,953,0,0
371,71,0,0,0,0,0,0,0,0,0,-1,1595,953,0,0
378,71,0,0,0,0,0,0,0,0,0,-1,1602,953,0,0
385,71,0,0,0,0,0,0,0,0,0,-1,1609,953,0,0
392,71,0,0,0,0,0,0,0,0,0,-1,1616,953,0,0
399,71,0,0,0,0,0,0,0,0,0,-1,1623,953,0,0
406,71,0,0,0,0,0,0,0,0,0,-1,1630,953,0,0
413,71,0,0,0,0,0,0,0,0,0,-1,1637,953,0,0
420,71,0,0,0,0,0,0,0,0,0,-1,1644,953,0,0
427,71,0,0,0,0,0,0,0,0,0,-1,1651,953,0,0
434,71,0,0,0,0,0,0,0,0,0,-1,1658,953,0,0
441,71,0,0,0,0,0,0,0,0,0,-1,1665,953,0,0
448,71,0,0,0,0,0,0,0,0,0,-1,1672,953,0,0
455,71,0,0,0,0,0,0,0,0,0,-1,1679,953,0,0
462,71,0,0,0,0,0,0,0,0,0,-1,1686,953,0,0
469,71,0,0,0,0,0,0,0,0,0,-1,1693,953,0,0
476,71,0,0,0,0,0,0,0,0,0,-1,1700,953,0,0
483,71,0,0,0,0,0,0,0,0,0,-1,1707,953,0,0
490,71,0,0,0,0,0,0,0,0,0,-1,1714,953,0,0
497,71,0,0,0,0,0,0,0,0,0,-1,1721,953,0,0
504,71,0,0,0,0,0,0,0,0,0,-1,1728,953,0,0
511,71,0,0,0,0,0,0,0,0,0,-1,1735,953,0,0
518,71,0,0,0,0,0,0,0,0,0,-1,1742,953,0,0
525,71,0,0,0,0,0,0,0,0,0,-1,1749,953,0,0
532,71,0,0,0,0,0,0,0,0,0,-1,1756,953,0,0
539,71,0,0,0,0,0,0,0,0,0,-1,1763,953,0,0
546,71,0,0,0,0,0,0,0,0,0,-1,1770,953,0,0
553,71,0,0,0,0,0,0,0,0,0,-1,1777,953,0,0
560,71,0,0,0,0,0,0,0,0,0,-1,1784,953,0,0
567,71,0,0,0,0,0,0,0,0,0,-1,1791,953,0,0
574,71,0,0,0,0,0,0,0,0,0,-1,1798,953,0,0
581,71,0,0,0,0,0,0,0,0,0,-1,1805,953,0,0
588,71,0,0,0,0,0,0,0,0,0,-1,1812,953,0,0
595,71,0,0,0,0,0,0,0,0,0,-1,1819,953,0,0
602,71,0,0,0,0,0,0,0,0,0,-1,1826,953,0,0
609,71,0,0,0,0,0,0,0,0,0,-1,1833,953,0,0
616,71,0,0,0,0,0,0,0,0,0,-1,1840,953,0,0
623,71,0,0,0,0,0,0,0,0,0,-1,1847,953,0,0
630,71,0,0,0,0,0,0,0,0,0,-1,1854,953,0,0
637,71,39.7909,2.5788,-0.000443671,0.00454643,-0.00152343,0.00497476,-0.000871997,-1.29671,0.00364214,0.0421612,1861,953,39.7909,-2.57882
644,71,39.4753,2.42731,-9.53586e-05,0.00337892,-0.00108334,0.00368904,-0.000405482,-1.29199,0.00260506,0.0416479,1868,953,39.4754,-2.42729
651,71,39.5424,2.5127,-4.84672e-05,0.00243089,-0.000838177,0.00268766,-0.000305232,-1.27354,0.0019017,0.0402535,1875,953,39.5424,-2.51269
658,71,39.6639,2.6275,-0.000158393,0.0018013,-0.000517877,0.00192974,-0.000286831,-1.32769,0.00139199,0.0370272,1882,953,39.664,-2.62748
665,71,39.7532,2.74341,-0.000414502,0.00143111,-5.23845e-05,0.00143259,-0.000415988,-1.54244,0.00111978,0.037296,1889,953,39.7532,-2.74342
672,71,39.7841,2.72693,-0.000727659,0.00114761,0.000454674,0.00125203,-0.000832084,1.34504,0.00121138,0.0391452,1896,953,39.784,-2.7269
679,71,39.6434,2.72223,-0.000937207,0.000845562,0.000875524,0.00120362,-0.00129527,1.18259,0.00144306,0.0410741,1903,953,39.6434,-2.72221
686,71,39.5413,2.66766,-0.000965657,0.00055681,0.00107128,0.00110977,-0.00151862,1.0943,0.00152361,0.0384266,1910,953,39.5413,-2.66765
693,71,39.5859,2.46753,-0.000880696,0.000287209,0.00122978,0.00106464,-0.00165813,1.00706,0.00158439,0.0343036,1917,953,39.586,-2.46754
700,71,39.6052,2.50848,-0.00103186,0.000195583,0.00122835,0.000954996,-0.00179127,1.01707,0.00160987,0.038514,1924,953,39.6052,-2.50846
707,71,39.6362,2.64105,0,0,0,0,0,0,0,-1,1931,953,39.6363,-2.64103
714,71,37.9496,4.00708,0,0,0,0,0,0,0,-1,1938,953,37.9496,-4.0071
721,71,37.7946,4.22504,-0.00185169,0.00104105,0.00077165,0.00123402,-0.00204466,1.32575,0.00191214,0.0393229,1945,953,37.7945,-4.22501
728,71,37.6777,4.57098,-0.00182708,0.00164917,0.000743425,0.00180148,-0.00197939,1.36871,0.00218369,0.0232022,1952,953,37.6777,-4.57101
735,71,37.7086,4.84253,-0.00149128,0.0027427,0.000862451,0.00291164,-0.00166022,1.37736,0.00267232,0.0168804,1959,953,37.7086,-4.84251
742,71,37.738,5.09698,-0.00131476,0.0041966,0.000942636,0.00435337,-0.00147153,1.406,0.00349751,0.0170614,1966,953,37.7381,-5.09696
749,71,37.7004,5.34399,-0.0014662,0.00648033,0.0011495,0.00664327,-0.00162914,1.42999,0.00506008,0.0174268,1973,953,37.7005,-5.34397
756,71,37.6779,5.57544,-0.00167661,0.00987097,0.00180917,0.0101478,-0.00195341,1.41897,0.00750159,0.0164579,1980,953,37.6778,-5.57545
763,71,37.6222,5.84503,-0.0022767,0.0152893,0.00346259,0.0159472,-0.0029346,1.38303,0.0117326,0.0174748,1987,953,37.6222,-5.84504
770,71,37.4585,6.02905,-0.00262968,0.0214621,0.00583814,0.0228023,-0.00396987,1.34515,0.016683,0.0208284,1994,953,37.4585,-6.02907
777,71,37.4425,6.37262,-0.00341788,0.0289009,0.00886935,0.0311749,-0.00569192,1.31981,0.0229174,0.0409102,2001,953,37.4425,-6.3726
784,71,37.5551,6.90289,-0.00494705,0.0382829,0.0129588,0.0418699,-0.008534,1.30076,0.03115,0.0462856,2008,953,37.555,-6.90287
791,71,37.4275,7.26453,0,0,0,0,0,0,0,-1,2015,953,37.4274,-7.26453
798,71,34.0715,5.24469,0,0,0,0,0,0,0,-1,2022,953,34.0717,-5.24471
805,71,37.8687,4.57007,0,0,0,0,0,0,0,-1,2029,953,37.8687,-4.57008
812,71,0,0,0,0,0,0,0,0,0,-1,2036,953,0,0
-700,64,0,0,0,0,0,0,0,0,0,-1,524,960,0,0
-693,64,0,0,0,0,0,0,0,0,0,-1,531,960,0,0
-686,64,-25.7501,3.19958,-0.0671632,-0.032614,0.0219725,-0.0219386,-0.0778386,1.11853,0.046344,0.0495844,538,960,-25.7501,-3.19959
-679,64,-26.3363,3.47534,-0.0586357,-0.0225323,0.0184816,-0.0147493,-0.0664187,1.17221,0.0402733,0.0469997,545,960,-26.3363,-3.47535
-672,64,-27.0558,3.64172,-0.0500869,-0.0139622,0.0152228,-0.00840291,-0.0556462,1.22065,0.034638,0.0495742,552,960,-27.0558,-3.64173
-665,64,-27.7415,3.82813,-0.0418224,-0.00699231,0.0122771,-0.00309982,-0.0457149,1.26377,0.0294977,0.0440421,559,960,-27.7415,-3.82815
-658,64,-28.0349,3.84894,-0.0340683,-0.00162113,0.00970588,0.00106055,-0.03675,1.30123,0.024861,0.0438051,566,960,-28.0349,-3.84891
-651,64,-28.0891,3.73016,-0.0270212,0.00217893,0.00754315,0.0040124,-0.0288547,1.33236,0.0207039,0.0443514,573,960,-28.089,-3.73016
-644,64,-28.1758,3.54962,-0.0207922,0.00453967,0.00573968,0.00577948,-0.022032,1.35806,0.0169462,0.0329054,580,960,-28.1758,-3.54962
-637,64,-28.1724,3.22913,-0.0157279,0.00565524,0.004054,0.00639803,-0.0164706,1.38958,0.0136235,0.0162844,587,960,-28.1724,-3.22915
-630,64,-28.2449,3.02643,-0.0118309,0.00675269,0.00233584,0.0070418,-0.01212,1.44765,0.0111918,0.0136749,594,960,-28.2449,-3.02643
-623,64,-28.2731,2.82367,-0.00888365,0.00682534,0.000788901,0.00686486,-0.00892317,1.52074,0.009141,0.0140569,601,960,-28.2731,-2.82364
-616,64,-28.2917,2.5871,-0.00685591,0.00566467,-0.000505513,0.00568505,-0.00687629,-1.53051,0.00726315,0.0166416,608,960,-28.2917,-2.58711
-609,64,-28.2404,2.39539,-0.00604527,0.00455047,-0.001621,0.00479291,-0.00628772,-1.42233,0.00641678,0.0161917,615,960,-28.2404,-2.3954
-602,64,-28.1926,2.17822,-0.00602875,0.00351743,-0.00197449,0.00390971,-0.00642102,-1.37468,0.00602291,0.016153,622,960,-28.1926,-2.17825
-595,64,-28.2136,1.97687,-0.00637207,0.00195342,-0.0026175,0.00270797,-0.00712661,-1.29014,0.00586592,0.0181987,629,960,-28.2136,-1.97688
-588,64,-28.1978,1.83984,-0.00668037,0.00113109,-0.00312028,0.00222445,-0.00777373,-1.23376,0.00606158,0.0295585,636,960,-28.1977,-1.83986
-581,64,-28.4686,1.33997,-0.00674022,0.000741253,-0.00339449,0.00205182,-0.00805079,-1.20234,0.006166,0.0388946,643,960,-28.4686,-1.33997
-574,64,-28.9789,0.912048,-0.00657708,0.000587733,-0.00347585,0.00199684,-0.00798618,-1.18564,0.00609967,0.0396723,650,960,-28.9789,-0.912078
-567,64,-29.0819,0.663757,-0.00631164,0.000666282,-0.00359317,0.00218568,-0.00783104,-1.17074,0.00608161,0.0253359,657,960,-29.0819,-0.663739
-560,64,-29.0944,0.789246,-0.00567766,0.000816667,-0.00342141,0.00228651,-0.0071475,-1.16504,0.00568263,0.032239,664,960,-29.0944,-0.789246
-553,64,-29.0057,0.852356,-0.00456123,0.001073,-0.00310545,0.00244873,-0.00593696,-1.15377,0.00497915,0.0383341,671,960,-29.0057,-0.85238
-546,64,-28.9714,0.724304,-0.00291154,0.00139893,-0.0026797,0.00268257,-0.00419518,-1.12407,0.00400275,0.0400461,678,960,-28.9714,-0.724303
-539,64,-29.0667,0.3927,-0.00073807,0.00173526,-0.00222334,0.00304272,-0.00204553,-1.0392,0.00295644,0.0413886,685,960,-29.0667,-0.392715
-532,64,-29.1827,0.541077,0.00181232,0.00216217,-0.00210607,0.00410057,-0.000126082,-0.826832,0.00277669,0.042904,692,960,-29.1828,-0.541086
-525,64,-29.1639,0.804993,0.00316263,0.00301326,-0.00292602,0.00601492,0.000160969,-0.772638,0.00395738,0.041452,699,960,-29.1639,-0.804997
-518,64,0,0,0,0,0,0,0,0,0,-1,706,960,0,0
-511,64,0,0,0,0,0,0,0,0,0,-1,713,960,0,0
-504,64,0,0,0,0,0,0,0,0,0,-1,720,960,0,0
-497,64,0,0,0,0,0,0,0,0,0,-1,727,960,0,0
-490,64,0,0,0,0,0,0,0,0,0,-1,734,960,0,0
-483,64,0,0,0,0,0,0,0,0,0,-1,741,960,0,0
-476,64,0,0,0,0,0,0,0,0,0,-1,748,960,0,0
-469,64,0,0,0,0,0,0,0,0,0,-1,755,960,0,0
-462,64,0,0,0,0,0,0,0,0,0,-1,762,960,0,0
-455,64,0,0,0,0,0,0,0,0,0,-1,769,960,0,0
-448,64,0,0,0,0,0,0,0,0,0,-1,776,960,0,0
-441,64,0,0,0,0,0,0,0,0,0,-1,783,960,0,0
-434,64,0,0,0,0,0,0,0,0,0,-1,790,960,0,0
-427,64,0,0,0,0,0,0,0,0,0,-1,797,960,0,0
-420,64,0,0,0,0,0,0,0,0,0,-1,804,960,0,0
-413,64,0,0,0,0,0,0,0,0,0,-1,811,960,0,0
-406,64,0,0,0,0,0,0,0,0,0,-1,818,960,0,0
-399,64,0,0,0,0,0,0,0,0,0,-1,825,960,0,0
-392,64,0,0,0,0,0,0,0,0,0,-1,832,960,0,0
-385,64,0,0,0,0,0,0,0,0,0,-1,839,960,0,0
-378,64,0,0,0,0,0,0,0,0,0,-1,846,960,0,0
-371,64,0,0,0,0,0,0,0,0,0,-1,853,960,0,0
-364,64,0,0,0,0,0,0,0,0,0,-1,860,960,0,0
-357,64,0,0,0,0,0,0,0,0,0,-1,867,960,0,0
-350,64,0,0,0,0,0,0,0,0,0,-1,874,960,0,0
-343,64,0,0,0,0,0,0,0,0,0,-1,881,960,0,0
-336,64,0,0,0,0,0,0,0,0,0,-1,888,960,0,0
-329,64,0,0,0,0,0,0,0,0,0,-1,895,960,0,0
-322,64,0,0,0,0,0,0,0,0,0,-1,902,960,0,0
-315,64,0,0,0,0,0,0,0,0,0,-1,909,960,0,0
-308,64,0,0,0,0,0,0,0,0,0,-1,916,960,0,0
-301,64,0,0,0,0,0,0,0,0,0,-1,923,960,0,0
-294,64,0,0,0,0,0,0,0,0,0,-1,930,960,0,0
-287,64,0,0,0,0,0,0,0,0,0,-1,937,960,0,0
-280,64,0,0,0,0,0,0,0,0,0,-1,944,960,0,0
-273,64,0,0,0,0,0,0,0,0,0,-1,951,960,0,0
-266,64,0,0,0,0,0,0,0,0,0,-1,958,960,0,0
-259,64,0,0,0,0,0,0,0,0,0,-1,965,960,0,0
-252,64,0,0,0,0,0,0,0,0,0,-1,972,960,0,0
-245,64,0,0,0,0,0,0,0,0,0,-1,979,960,0,0
-238,64,0,0,0,0,0,0,0,0,0,-1,986,960,0,0
-231,64,0,0,0,0,0,0,0,0,0,-1,993,960,0,0
-224,64,0,0,0,0,0,0,0,0,0,-1,1000,960,0,0
-217,64,0,0,0,0,0,0,0,0,0,-1,1007,960,0,0
-210,64,0,0,0,0,0,0,0,0,0,-1,1014,960,0,0
-203,64,0,0,0,0,0,0,0,0,0,-1,1021,960,0,0
-196,64,0,0,0,0,0,0,0,0,0,-1,1028,960,0,0
-189,64,0,0,0,0,0,0,0,0,0,-1,1035,960,0,0
-182,64,0,0,0,0,0,0,0,0,0,-1,1042,960,0,0
-175,64,0,0,0,0,0,0,0,0,0,-1,1049,960,0,0
-168,64,0,0,0,0,0,0,0,0,0,-1,1056,960,0,0
-161,64,0,0,0,0,0,0,0,0,0,-1,1063,960,0,0
-154,64,0,0,0,0,0,0,0,0,0,-1,1070,960,0,0
-147,64,0,0,0,0,0,0,0,0,0,-1,1077,960,0,0
-140,64,0,0,0,0,0,0,0,0,0,-1,1084,960,0,0
-133,64,0,0,0,0,0,0,0,0,0,-1,1091,960,0,0
-126,64,0,0,0,0,0,0,0,0,0,-1,1098,960,0,0
-119,64,0,0,0,0,0,0,0,0,0,-1,1105,960,0,0
-112,64,0,0,0,0,0,0,0,0,0,-1,1112,960,0,0
-105,64,0,0,0,0,0,0,0,0,0,-1,1119,960,0,0
-98,64,0,0,0,0,0,0,0,0,0,-1,1126,960,0,0
-91,64,0,0,0,0,0,0,0,0,0,-1,1133,960,0,0
-84,64,0,0,0,0,0,0,0,0,0,-1,1140,960,0,0
-77,64,0,0,0,0,0,0,0,0,0,-1,1147,960,0,0
-70,64,0,0,0,0,0,0,0,0,0,-1,1154,960,0,0
-63,64,0,0,0,0,0,0,0,0,0,-1,1161,960,0,0
-56,64,0,0,0,0,0,0,0,0,0,-1,1168,960,0,0
-49,64,0,0,0,0,0,0,0,0,0,-1,1175,960,0,0
-42,64,0,0,0,0,0,0,0,0,0,-1,1182,960,0,0
-35,64,0,0,0,0,0,0,0,0,0,-1,1189,960,0,0
-28,64,0,0,0,0,0,0,0,0,0,-1,1196,960,0,0
-21,64,0,0,0,0,0,0,0,0,0,-1,1203,960,0,0
-14,64,0,0,0,0,0,0,0,0,0,-1,1210,960,0,0
-7,64,0,0,0,0,0,0,0,0,0,-1,1217,960,0,0
0,64,0,0,0,0,0,0,0,0,0,-1,1224,960,0,0
7,64,0,0,0,0,0,0,0,0,0,-1,1231,960,0,0
14,64,0,0,0,0,0,0,0,0,0,-1,1238,960,0,0
21,64,0,0,0,0,0,0,0,0,0,-1,1245,960,0,0
28,64,0,0,0,0,0,0,0,0,0,-1,1252,960,0,0
35,64,0,0,0,0,0,0,0,0,0,-1,1259,960,0,0
42,64,0,0,0,0,0,0,0,0,0,-1,1266,960,0,0
49,64,0,0,0,0,0,0,0,0,0,-1,1273,960,0,0
56,64,0,0,0,0,0,0,0,0,0,-1,1280,960,0,0
63,64,0,0,0,0,0,0,0,0,0,-1,1287,960,0,0
70,64,0,0,0,0,0,0,0,0,0,-1,1294,960,0,0
77,64,0,0,0,0,0,0,0,0,0,-1,1301,960,0,0
84,64,0,0,0,0,0,0,0,0,0,-1,1308,960,0,0
91,64,0,0,0,0,0,0,0,0,0,-1,1315,960,0,0
98,64,0,0,0,0,0,0,0,0,0,-1,1322,960,0,0
105,64,0,0,0,0,0,0,0,0,0,-1,1329,960,0,0
112,64,0,0,0,0,0,0,0,0,0,-1,1336,960,0,0
119,64,0,0,0,0,0,0,0,0,0,-1,1343,960,0,0
126,64,0,0,0,0,0,0,0,0,0,-1,1350,960,0,0
133,64,0,0,0,0,0,0,0,0,0,-1,1357,960,0,0
140,64,0,0,0,0,0,0,0,0,0,-1,1364,960,0,0
147,64,0,0,0,0,0,0,0,0,0,-1,1371,960,0,0
154,64,0,0,0,0,0,0,0,0,0,-1,1378,960,0,0
161,64,0,0,0,0,0,0,0,0,0,-1,1385,960,0,0
168,64,0,0,0,0,0,0,0,0,0,-1,1392,960,0,0
175,64,0,0,0,0,0,0,0,0,0,-1,1399,960,0,0
182,64,0,0,0,0,0,0,0,0,0,-1,1406,960,0,0
189,64,0,0,0,0,0,0,0,0,0,-1,1413,960,0,0
196,64,0,0,0,0,0,0,0,0,0,-1,1420,960,0,0
203,64,0,0,0,0,0,0,0,0,0,-1,1427,960,0,0
210,64,0,0,0,0,0,0,0,0,0,-1,1434,960,0,0
217,64,0,0,0,0,0,0,0,0,0,-1,1441,960,0,0
224,64,0,0,0,0,0,0,0,0,0,-1,1448,960,0,0
231,64,0,0,0,0,0,0,0,0,0,-1,1455,960,0,0
238,64,0,0,0,0,0,0,0,0,0,-1,1462,960,0,0
245,64,0,0,0,0,0,0,0,0,0,-1,1469,960,0,0
252,64,0,0,0,0,0,0,0,0,0,-1,1476,960,0,0
259,64,0,0,0,0,0,0,0,0,0,-1,1483,960,0,0
266,64,0,0,0,0,0,0,0,0,0,-1,1490,960,0,0
273,64,0,0,0,0,0,0,0,0,0,-1,1497,960,0,0
280,64,0,0,0,0,0,0,0,0,0,-1,1504,960,0,0
287,64,0,0,0,0,0,0,0,0,0,-1,1511,960,0,0
294,64,0,0,0,0,0,0,0,0,0,-1,1518,960,0,0
301,64,0,0,0,0,0,0,0,0,0,-1,1525,960,0,0
308,64,0,0,0,0,0,0,0,0,0,-1,1532,960,0,0
315,64,0,0,0,0,0,0,0,0,0,-1,1539,960,0,0
322,64,0,0,0,0,0,0,0,0,0,-1,1546,960,0,0
329,64,0,0,0,0,0,0,0,0,0,-1,1553,960,0,0
336,64,0,0,0,0,0,0,0,0,0,-1,1560,960,0,0
343,64,0,0,0,0,0,0,0,0,0,-1,1567,960,0,0
350,64,0,0,0,0,0,0,0,0,0,-1,1574,960,0,0
357,64,0,0,0,0,0,0,0,0,0,-1,1581,960,0,0
364,64,0,0,0,0,0,0,0,0,0,-1,1588,960,0,0
371,64,0,0,0,0,0,0,0,0,0,-1,1595,960,0,0
378,64,0,0,0,0,0,0,0,0,0,-1,1602,960,0,0
385,64,0,0,0,0,0,0,0,0,0,-1,1609,960,0,0
392,64,0,0,0,0,0,0,0,0,0,-1,1616,960,0,0
399,64,0,0,0,0,0,0,0,0,0,-1,1623,960,0,0
406,64,0,0,0,0,0,0,0,0,0,-1,1630,960,0,0
413,64,0,0,0,0,0,0,0,0,0,-1,1637,960,0,0
420,64,0,0,0,0,0,0,0,0,0,-1,1644,960,0,0
427,64,0,0,0,0,0,0,0,0,0,-1,1651,960,0,0
434,64,0,0,0,0,0,0,0,0,0,-1,1658,960,0,0
441,64,0,0,0,0,0,0,0,0,0,-1,1665,960,0,0
448,64,0,0,0,0,0,0,0,0,0,-1,1672,960,0,0
455,64,0,0,0,0,0,0,0,0,0,-1,1679,960,0,0
462,64,0,0,0,0,0,0,0,0,0,-1,1686,960,0,0
469,64,0,0,0,0,0,0,0,0,0,-1,1693,960,0,0
476,64,0,0,0,0,0,0,0,0,0,-1,1700,960,0,0
483,64,0,0,0,0,0,0,0,0,0,-1,1707,960,0,0
490,64,0,0,0,0,0,0,0,0,0,-1,1714,960,0,0
497,64,0,0,0,0,0,0,0,0,0,-1,1721,960,0,0
504,64,0,0,0,0,0,0,0,0,0,-1,1728,960,0,0
511,64,0,0,0,0,0,0,0,0,0,-1,1735,960,0,0
518,64,0,0,0,0,0,0,0,0,0,-1,1742,960,0,0
525,64,0,0,0,0,0,0,0,0,0,-1,1749,960,0,0
532,64,0,0,0,0,0,0,0,0,0,-1,1756,960,0,0
539,64,0,0,0,0,0,0,0,0,0,-1,1763,960,0,0
546,64,0,0,0,0,0,0,0,0,0,-1,1770,960,0,0
553,64,0,0,0,0,0,0,0,0,0,-1,1777,960,0,0
560,64,0,0,0,0,0,0,0,0,0,-1,1784,960,0,0
567,64,0,0,0,0,0,0,0,0,0,-1,1791,960,0,0
574,64,0,0,0,0,0,0,0,0,0,-1,1798,960,0,0
581,64,0,0,0,0,0,0,0,0,0,-1,1805,960,0,0
588,64,0,0,0,0,0,0,0,0,0,-1,1812,960,0,0
595,64,0,0,0,0,0,0,0,0,0,-1,1819,960,0,0
602,64,0,0,0,0,0,0,0,0,0,-1,1826,960,0,0
609,64,0,0,0,0,0,0,0,0,0,-1,1833,960,0,0
616,64,0,0,0,0,0,0,0,0,0,-1,1840,960,0,0
623,64,0,0,0,0,0,0,0,0,0,-1,1847,960,0,0
630,64,0,0,0,0,0,0,0,0,0,-1,1854,960,0,0
637,64,0,0,0,0,0,0,0,0,0,-1,1861,960,0,0
644,64,39.5157,2.38049,0.000164439,0.00395455,-0.000170781,0.00396223,0.000156759,-1.52586,0.00259081,0.0417676,1868,960,39.5158,-2.38052
651,64,39.6376,2.47156,0.000182551,0.00292529,-0.00012337,0.00293083,0.000177013,-1.52594,0.00189763,0.0394444,1875,960,39.6376,-2.47153
658,64,39.7228,2.71246,4.58746e-05,0.00224674,2.87537e-05,0.00224712,4.54991e-05,1.55773,0.00148315,0.0359249,1882,960,39.7228,-2.71249
665,64,39.6738,2.57043,0,0,0,0,0,0,0,-1,1889,960,39.6739,-2.57044
672,64,39.6184,2.64069,-0.000556651,0.00166591,0.000830977,0.00194224,-0.000832983,1.24976,0.00164438,0.0417541,1896,960,39.6184,-2.64066
679,64,39.5873,2.61584,-0.000792922,0.00140577,0.00123359,0.00195879,-0.00134594,1.14936,0.00191889,0.0410744,1903,960,39.5873,-2.61585
686,64,39.4635,2.65216,-0.000842429,0.00111989,0.00145039,0.00188982,-0.00161236,1.08278,0.0020241,0.0364763,1910,960,39.4636,-2.65217
693,64,39.5353,2.45178,-0.000762549,0.000807745,0.00160079,0.00180557,-0.00176037,1.0134,0.00205885,0.0340411,1917,960,39.5352,-2.45176
700,64,39.646,2.55414,-0.000912548,0.000666009,0.00157514,0.00163855,-0.00188509,1.01766,0.00203603,0.0352987,1924,960,39.646,-2.55412
707,64,39.5231,2.96753,-0.00121131,0.000705208,0.00136802,0.0014172,-0.0019233,1.09092,0.001936,0.0479354,1931,960,39.5231,-2.96751
714,64,39.3553,3.70819,0,0,0,0,0,0,0,-1,1938,960,39.3554,-3.70818
721,64,37.9982,4.31189,0,0,0,0,0,0,0,-1,1945,960,37.9982,-4.31188
728,64,37.9175,4.60388,-0.00190648,0.00201748,0.000951622,0.00223609,-0.00212509,1.345,0.0025182,0.0179161,1952,960,37.9175,-4.60385
735,64,37.9242,4.86652,-0.00161309,0.00304358,0.00093072,0.00322272,-0.00179222,1.38066,0.00293437,0.0241883,1959,960,37.9242,-4.8665
742,64,37.9985,5.08331,-0.00151779,0.00438705,0.000827842,0.00450091,-0.00163166,1.43411,0.00366754,0.0211762,1966,960,37.9986,-5.0833
749,64,37.9702,5.33276,-0.00185254,0.00655526,0.000791875,0.00662919,-0.00192647,1.4777,0.00518238,0.0147018,1973,960,37.9702,-5.33277
756,64,37.9442,5.56268,-0.0024182,0.00989913,0.00107895,0.00999293,-0.002512,1.48408,0.00763824,0.0146842,1980,960,37.9442,-5.56266
763,64,37.9146,5.80383,-0.00363481,0.0154962,0.00224977,0.0157572,-0.00389582,1.4553,0.0120158,0.0161509,1987,960,37.9146,-5.80385
770,64,37.7587,5.9624,-0.00470783,0.0219772,0.00407099,0.0225844,-0.00531507,1.42273,0.0171055,0.0171541,1994,960,37.7587,-5.96237
777,64,37.5529,6.14648,-0.0064051,0.0298496,0.00651733,0.0309855,-0.00754109,1.39823,0.0235762,0.0332477,2001,960,37.5529,-6.14648
784,64,37.4259,6.33948,-0.00915873,0.0397068,0.00982662,0.0416089,-0.0110608,1.3796,0.0320684,0.0421371,2008,960,37.4259,-6.33946
791,64,37.54,6.62805,-0.0133344,0.0522674,0.0143635,0.0552745,-0.0163414,1.36442,0.0433363,0.0464156,2015,960,37.5401,-6.62808
798,64,37.4673,7.01892,0,0,0,0,0,0,0,-1,2022,960,37.4673,-7.01893
805,64,34.842,5.42908,0,0,0,0,0,0,0,-1,2029,960,34.842,-5.42905
812,64,0,0,0,0,0,0,0,0,0,-1,2036,960,0,0
-700,57,0,0,0,0,0,0,0,0,0,-1,524,967,0,0
-693,57,0,0,0,0,0,0,0,0,0,-1,531,967,0,0
-686,57,-26.147,3.67413,-0.0644438,-0.0241742,0.0227718,-0.0139122,-0.0747057,1.14741,0.0458751,0.044094,538,967,-26.147,-3.67414
-679,57,-26.4003,3.43176,-0.056627,-0.0154759,0.019307,-0.00783597,-0.064267,1.194,0.0404862,0.0455159,545,967,-26.4003,-3.43178
-672,57,-27.1661,3.66003,-0.0487122,-0.00816882,0.0160747,-0.00256899,-0.0543121,1.23558,0.0353828,0.0479883,552,967,-27.1661,-3.66003
-665,57,-27.9766,4.00946,-0.0409862,-0.00231634,0.0131189,0.0017142,-0.0450167,1.27272,0.0305985,0.0463328,559,967,-27.9766,-4.00949
-658,57,-28.3699,3.98956,0,0,0,0,0,0,0,-1,566,967,-28.3699,-3.98955
-651,57,-28.4455,3.64966,-0.0269126,0.0050632,0.00824323,0.00706318,-0.0289126,1.33277,0.0220105,0.0455178,573,967,-28.4455,-3.64963
-644,57,-28.4489,3.27588,-0.0208279,0.0067804,0.00627356,0.0081391,-0.0221866,1.35751,0.0181239,0.0308764,580,967,-28.4489,-3.27585
-637,57,-28.4156,3.09772,-0.0158176,0.00748727,0.00434839,0.00827219,-0.0166025,1.39221,0.0146274,0.0169007,587,967,-28.4156,-3.09774
-630,57,-28.4935,2.94122,-0.0118636,0.00817542,0.00237538,0.00845314,-0.0121413,1.45441,0.0119536,0.0134394,594,967,-28.4935,-2.9412
-623,57,-28.5122,2.80988,-0.00878816,0.00784741,0.000571771,0.00786704,-0.00880779,1.53648,0.00963232,0.0125711,601,967,-28.5122,-2.8099
-616,57,-28.5112,2.60089,-0.00662792,0.00652832,-0.000906773,0.00659052,-0.00669012,-1.5023,0.00766765,0.0138453,608,967,-28.5112,-2.60091
-609,57,-28.4982,2.3811,-0.00558219,0.00525719,-0.00212623,0.00565935,-0.00598435,-1.38386,0.00672337,0.014089,615,967,-28.4982,-2.38112
-602,57,-28.46,2.1908,-0.00539944,0.00399867,-0.00271122,0.00472473,-0.0061255,-1.30914,0.00628176,0.0113359,622,967,-28.46,-2.19079
-595,57,-28.4567,2.02771,-0.00563691,0.00233425,-0.00344126,0.00361432,-0.00691699,-1.21468,0.00617911,0.0134548,629,967,-28.4567,-2.02772
-588,57,-28.4733,1.89758,-0.00586345,0.00147319,-0.00402279,0.00324908,-0.00763934,-1.15507,0.00645452,0.0221547,636,967,-28.4733,-1.89758
-581,57,-28.7202,1.328,-0.00584616,0.00103748,-0.00433203,0.00312853,-0.00793721,-1.12109,0.00658682,0.0308039,643,967,-28.7202,-1.32798
-574,57,-29.0618,0.793335,-0.00564833,0.000834994,-0.00437484,0.00303829,-0.00785162,-1.10425,0.00648878,0.0293369,650,967,-29.0618,-0.793328
-567,57,-29.0854,0.696228,-0.00534042,0.000833025,-0.00436089,0.00308908,-0.00759647,-1.09338,0.00634962,0.0307454,657,967,-29.0855,-0.696208
-560,57,-29.0407,0.696899,-0.00466533,0.000894226,-0.00402332,0.00300467,-0.00677578,-1.0877,0.00578497,0.0385786,664,967,-29.0407,-0.696872
-553,57,-28.9684,0.771301,-0.00349136,0.00103194,-0.0035137,0.00294895,-0.00540836,-1.07135,0.00489425,0.0410145,671,967,-28.9685,-0.771307
-546,57,-28.9886,0.820374,-0.00176169,0.00120722,-0.00287907,0.002962,-0.00351647,-1.02342,0.00374491,0.0410757,678,967,-28.9886,-0.820358
-539,57,-29.0958,0.649292,0.000549413,0.00137021,-0.00223673,0.00323388,-0.00131426,-0.876129,0.00270271,0.042009,685,967,-29.0959,-0.649275
-532,57,-29.0719,0.581055,0.00329848,0.00168608,-0.00207676,0.00472004,0.000264531,-0.600251,0.00306232,0.0397319,692,967,-29.0719,-0.581072
-525,57,-29.069,0.679138,0.00491796,0.00248921,-0.00300591,0.00694553,0.000461642,-0.593425,0.0044844,0.0400916,699,967,-29.069,-0.679165
-518,57,0,0,0,0,0,0,0,0,0,-1,706,967,0,0
-511,57,0,0,0,0,0,0,0,0,0,-1,713,967,0,0
-504,57,0,0,0,0,0,0,0,0,0,-1,720,967,0,0
-497,57,0,0,0,0,0,0,0,0,0,-1,727,967,0,0
-490,57,0,0,0,0,0,0,0,0,0,-1,734,967,0,0
-483,57,0,0,0,0,0,0,0,0,0,-1,741,967,0,0
-476,57,0,0,0,0,0,0,0,0,0,-1,748,967,0,0
-469,57,0,0,0,0,0,0,0,0,0,-1,755,967,0,0
-462,57,0,0,0,0,0,0,0,0,0,-1,762,967,0,0
-455,57,0,0,0,0,0,0,0,0,0,-1,769,967,0,0
-448,57,0,0,0,0,0,0,0,0,0,-1,776,967,0,0
-441,57,0,0,0,0,0,0,0,0,0,-1,783,967,0,0
-434,57,0,0,0,0,0,0,0,0,0,-1,790,967,0,0
-427,57,0,0,0,0,0,0,0,0,0,-1,797,967,0,0
-420,57,0,0,0,0,0,0,0,0,0,-1,804,967,0,0
-413,57,0,0,0,0,0,0,0,0,0,-1,811,967,0,0
-406,57,0,0,0,0,0,0,0,0,0,-1,818,967,0,0
-399,57,0,0,0,0,0,0,0,0,0,-1,825,967,0,0
-392,57,0,0,0,0,0,0,0,0,0,-1,832,967,0,0
-385,57,0,0,0,0,0,0,0,0,0,-1,839,967,0,0
-378,57,0,0,0,0,0,0,0,0,0,-1,846,967,0,0
-371,57,0,0,0,0,0,0,0,0,0,-1,853,967,0,0
-364,57,0,0,0,0,0,0,0,0,0,-1,860,967,0,0
-357,57,0,0,0,0,0,0,0,0,0,-1,867,967,0,0
-350,57,0,0,0,0,0,0,0,0,0,-1,874,967,0,0
-343,57,0,0,0,0,0,0,0,0,0,-1,881,967,0,0
-336,57,0,0,0,0,0,0,0,0,0,-1,888,967,0,0
-329,57,0,0,0,0,0,0,0,0,0,-1,895,967,0,0
-322,57,0,0,0,0,0,0,0,0,0,-1,902,967,0,0
-315,57,0,0,0,0,0,0,0,0,0,-1,909,967,0,0
-308,57,0,0,0,0,0,0,0,0,0,-1,916,967,0,0
-301,57,0,0,0,0,0,0,0,0,0,-1,923,967,0,0
-294,57,0,0,0,0,0,0,0,0,0,-1,930,967,0,0
-287,57,0,0,0,0,0,0,0,0,0,-1,937,967,0,0
-280,57,0,0,0,0,0,0,0,0,0,-1,944,967,0,0
-273,57,0,0,0,0,0,0,0,0,0,-1,951,967,0,0
-266,57,0,0,0,0,0,0,0,0,0,-1,958,967,0,0
-259,57,0,0,0,0,0,0,0,0,0,-1,965,967,0,0
-252,57,0,0,0,0,0,0,0,0,0,-1,972,967,0,0
-245,57,0,0,0,0,0,0,0,0,0,-1,979,967,0,0
-238,57,0,0,0,0,0,0,0,0,0,-1,986,967,0,0
-231,57,0,0,0,0,0,0,0,0,0,-1,993,967,0,0
-224,57,0,0,0,0,0,0,0,0,0,-1,1000,967,0,0
-217,57,0,0,0,0,0,0,0,0,0,-1,1007,967,0,0
-210,57,0,0,0,0,0,0,0,0,0,-1,1014,967,0,0
-203,57,0,0,0,0,0,0,0,0,0,-1,1021,967,0,0
-196,57,0,0,0,0,0,0,0,0,0,-1,1028,967,0,0
-189,57,0,0,0,0,0,0,0,0,0,-1,1035,967,0,0
-182,57,0,0,0,0,0,0,0,0,0,-1,1042,967,0,0
-175,57,0,0,0,0,0,0,0,0,0,-1,1049,967,0,0
-168,57,0,0,0,0,0,0,0,0,0,-1,1056,967,0,0
-161,57,0,0,0,0,0,0,0,0,0,-1,1063,967,0,0
-154,57,0,0,0,0,0,0,0,0,0,-1,1070,967,0,0
-147,57,0,0,0,0,0,0,0,0,0,-1,1077,967,0,0
-140,57,0,0,0,0,0,0,0,0,0,-1,1084,967,0,0
-133,57,0,0,0,0,0,0,0,0,0,-1,1091,967,0,0
-126,57,0,0,0,0,0,0,0,0,0,-1,1098,967,0,0
-119,57,0,0,0,0,0,0,0,0,0,-1,1105,967,0,0
-112,57,0,0,0,0,0,0,0,0,0,-1,1112,967,0,0
-105,57,0,0,0,0,0,0,0,0,0,-1,1119,967,0,0
-98,57,0,0,0,0,0,0,0,0,0,-1,1126,967,0,0
-91,57,0,0,0,0,0,0,0,0,0,-1,1133,967,0,0
-84,57,0,0,0,0,0,0,0,0,0,-1,1140,967,0,0
-77,57,0,0,0,0,0,0,0,0,0,-1,1147,967,0,0
-70,57,0,0,0,0,0,0,0,0,0,-1,1154,967,0,0
-63,57,0,0,0,0,0,0,0,0,0,-1,1161,967,0,0
-56,57,0,0,0,0,0,0,0,0,0,-1,1168,967,0,0
-49,57,0,0,0,0,0,0,0,0,0,-1,1175,967,0,0
-42,57,0,0,0,0,0,0,0,0,0,-1,1182,967,0,0
-35,57,0,0,0,0,0,0,0,0,0,-1,1189,967,0,0
-28,57,0,0,0,0,0,0,0,0,0,-1,1196,967,0,0
-21,57,0,0,0,0,0,0,0,0,0,-1,1203,967,0,0
-14,57,0,0,0,0,0,0,0,0,0,-1,1210,967,0,0
-7,57,0,0,0,0,0,0,0,0,0,-1,1217,967,0,0
0,57,0,0,0,0,0,0,0,0,0,-1,1224,967,0,0
7,57,0,0,0,0,0,0,0,0,0,-1,1231,967,0,0
14,57,0,0,0,0,0,0,0,0,0,-1,1238,967,0,0
21,57,0,0,0,0,0,0,0,0,0,-1,1245,967,0,0
28,57,0,0,0,0,0,0,0,0,0,-1,1252,967,0,0
35,57,0,0,0,0,0,0,0,0,0,-1,1259,967,0,0
42,57,0,0,0,0,0,0,0,0,0,-1,1266,967,0,0
49,57,0,0,0,0,0,0,0,0,0,-1,1273,967,0,0
56,57,0,0,0,0,0,0,0,0,0,-1,1280,967,0,0
63,57,0,0,0,0,0,0,0,0,0,-1,1287,967,0,0
70,57,0,0,0,0,0,0,0,0,0,-1,1294,967,0,0
77,57,0,0,0,0,0,0,0,0,0,-1,1301,967,0,0
84,57,0,0,0,0,0,0,0,0,0,-1,1308,967,0,0
91,57,0,0,0,0,0,0,0,0,0,-1,1315,967,0,0
98,57,0,0,0,0,0,0,0,0,0,-1,1322,967,0,0
105,57,0,0,0,0,0,0,0,0,0,-1,1329,967,0,0
112,57,0,0,0,0,0,0,0,0,0,-1,1336,967,0,0
119,57,0,0,0,0,0,0,0,0,0,-1,1343,967,0,0
126,57,0,0,0,0,0,0,0,0,0,-1,1350,967,0,0
133,57,0,0,0,0,0,0,0,0,0,-1,1357,967,0,0
140,57,0,0,0,0,0,0,0,0,0,-1,1364,967,0,0
147,57,0,0,0,0,0,0,0,0,0,-1,1371,967,0,0
154,57,0,0,0,0,0,0,0,0,0,-1,1378,967,0,0
161,57,0,0,0,0,0,0,0,0,0,-1,1385,967,0,0
168,57,0,0,0,0,0,0,0,0,0,-1,1392,967,0,0
175,57,0,0,0,0,0,0,0,0,0,-1,1399,967,0,0
182,57,0,0,0,0,0,0,0,0,0,-1,1406,967,0,0
189,57,0,0,0,0,0,0,0,0,0,-1,1413,967,0,0
196,57,0,0,0,0,0,0,0,0,0,-1,1420,967,0,0
203,57,0,0,0,0,0,0,0,0,0,-1,1427,967,0,0
210,57,0,0,0,0,0,0,0,0,0,-1,1434,967,0,0
217,57,0,0,0,0,0,0,0,0,0,-1,1441,967,0,0
224,57,0,0,0,0,0,0,0,0,0,-1,1448,967,0,0
231,57,0,0,0,0,0,0,0,0,0,-1,1455,967,0,0
238,57,0,0,0,0,0,0,0,0,0,-1,1462,967,0,0
245,57,0,0,0,0,0,0,0,0,0,-1,1469,967,0,0
252,57,0,0,0,0,0,0,0,0,0,-1,1476,967,0,0
259,57,0,0,0,0,0,0,0,0,0,-1,1483,967,0,0
266,57,0,0,0,0,0,0,0,0,0,-1,1490,967,0,0
273,57,0,0,0,0,0,0,0,0,0,-1,1497,967,0,0
280,57,0,0,0,0,0,0,0,0,0,-1,1504,967,0,0
287,57,0,0,0,0,0,0,0,0,0,-1,1511,967,0,0
294,57,0,0,0,0,0,0,0,0,0,-1,1518,967,0,0
301,57,0,0,0,0,0,0,0,0,0,-1,1525,967,0,0
308,57,0,0,0,0,0,0,0,0,0,-1,1532,967,0,0
315,57,0,0,0,0,0,0,0,0,0,-1,1539,967,0,0
322,57,0,0,0,0,0,0,0,0,0,-1,1546,967,0,0
329,57,0,0,0,0,0,0,0,0,0,-1,1553,967,0,0
336,57,0,0,0,0,0,0,0,0,0,-1,1560,967,0,0
343,57,0,0,0,0,0,0,0,0,0,-1,1567,967,0,0
350,57,0,0,0,0,0,0,0,0,0,-1,1574,967,0,0
357,57,0,0,0,0,0,0,0,0,0,-1,1581,967,0,0
364,57,0,0,0,0,0,0,0,0,0,-1,1588,967,0,0
371,57,0,0,0,0,0,0,0,0,0,-1,1595,967,0,0
378,57,0,0,0,0,0,0,0,0,0,-1,1602,967,0,0
385,57,0,0,0,0,0,0,0,0,0,-1,1609,967,0,0
392,57,0,0,0,0,0,0,0,0,0,-1,1616,967,0,0
399,57,0,0,0,0,0,0,0,0,0,-1,1623,967,0,0
406,57,0,0,0,0,0,0,0,0,0,-1,1630,967,0,0
413,57,0,0,0,0,0,0,0,0,0,-1,1637,967,0,0
420,57,0,0,0,0,0,0,0,0,0,-1,1644,967,0,0
427,57,0,0,0,0,0,0,0,0,0,-1,1651,967,0,0
434,57,0,0,0,0,0,0,0,0,0,-1,1658,967,0,0
441,57,0,0,0,0,0,0,0,0,0,-1,1665,967,0,0
448,57,0,0,0,0,0,0,0,0,0,-1,1672,967,0,0
455,57,0,0,0,0,0,0,0,0,0,-1,1679,967,0,0
462,57,0,0,0,0,0,0,0,0,0,-1,1686,967,0,0
469,57,0,0,0,0,0,0,0,0,0,-1,1693,967,0,0
476,57,0,0,0,0,0,0,0,0,0,-1,1700,967,0,0
483,57,0,0,0,0,0,0,0,0,0,-1,1707,967,0,0
490,57,0,0,0,0,0,0,0,0,0,-1,1714,967,0,0
497,57,0,0,0,0,0,0,0,0,0,-1,1721,967,0,0
504,57,0,0,0,0,0,0,0,0,0,-1,1728,967,0,0
511,57,0,0,0,0,0,0,0,0,0,-1,1735,967,0,0
518,57,0,0,0,0,0,0,0,0,0,-1,1742,967,0,0
525,57,0,0,0,0,0,0,0,0,0,-1,1749,967,0,0
532,57,0,0,0,0,0,0,0,0,0,-1,1756,967,0,0
539,57,0,0,0,0,0,0,0,0,0,-1,1763,967,0,0
546,57,0,0,0,0,0,0,0,0,0,-1,1770,967,0,0
553,57,0,0,0,0,0,0,0,0,0,-1,1777,967,0,0
560,57,0,0,0,0,0,0,0,0,0,-1,1784,967,0,0
567,57,0,0,0,0,0,0,0,0,0,-1,1791,967,0,0
574,57,0,0,0,0,0,0,0,0,0,-1,1798,967,0,0
581,57,0,0,0,0,0,0,0,0,0,-1,1805,967,0,0
588,57,0,0,0,0,0,0,0,0,0,-1,1812,967,0,0
595,57,0,0,0,0,0,0,0,0,0,-1,1819,967,0,0
602,57,0,0,0,0,0,0,0,0,0,-1,1826,967,0,0
609,57,0,0,0,0,0,0,0,0,0,-1,1833,967,0,0
616,57,0,0,0,0,0,0,0,0,0,-1,1840,967,0,0
623,57,0,0,0,0,0,0,0,0,0,-1,1847,967,0,0
630,57,0,0,0,0,0,0,0,0,0,-1,1854,967,0,0
637,57,0,0,0,0,0,0,0,0,0,-1,1861,967,0,0
644,57,39.6808,2.57758,0.000600086,0.00445953,0.00105495,0.00472907,0.00033055,1.32065,0.00304851,0.040172,1868,967,39.6808,-2.57755
651,57,39.7241,2.58221,0.000564564,0.00331282,0.00078301,0.00352025,0.000357132,1.31183,0.00223731,0.0351395,1875,967,39.7241,-2.58221
658,57,39.6511,2.71143,0.000385673,0.00253838,0.000678918,0.00273461,0.000189444,1.28943,0.00176332,0.0343755,1882,967,39.6511,-2.71145
665,57,39.563,2.53723,8.93929e-05,0.00215561,0.000857864,0.00246535,-0.000220347,1.2243,0.00172172,0.0409271,1889,967,39.563,-2.53721
672,57,39.7275,2.27148,-0.00025375,0.00192894,0.00118113,0.00244573,-0.000770544,1.15835,0.00193906,0.043499,1896,967,39.7275,-2.27148
679,57,39.6194,2.52185,-0.000525123,0.00169092,0.00152832,0.00247061,-0.00130481,1.09905,0.00221411,0.0417126,1903,967,39.6193,-2.52188
686,57,39.4908,2.54681,-0.000612964,0.00141471,0.00174967,0.00242306,-0.0016213,1.04798,0.00235026,0.0386034,1910,967,39.4908,-2.5468
693,57,39.5814,2.49347,-0.000573285,0.00109392,0.00189423,0.00232986,-0.00180922,0.992683,0.002396,0.0332731,1917,967,39.5815,-2.49345
700,57,39.6365,2.57428,-0.00075477,0.000909925,0.00183683,0.00209419,-0.00193904,0.998131,0.00232916,0.0269441,1924,967,39.6365,-2.57426
707,57,39.5316,3.0271,-0.00107433,0.000936931,0.00159518,0.00181701,-0.00195441,1.06664,0.00217791,0.0489297,1931,967,39.5317,-3.02711
714,57,39.4114,3.66479,0,0,0,0,0,0,0,-1,1938,967,39.4114,-3.66479
721,57,38.274,4.41376,0,0,0,0,0,0,0,-1,1945,967,38.2741,-4.41377
728,57,38.1626,4.69562,-0.00209066,0.00224804,0.00110012,0.00251104,-0.00235366,1.33613,0.00280913,0.021201,1952,967,38.1626,-4.69559
735,57,38.2089,4.93103,-0.00190098,0.00323512,0.000934894,0.0034,-0.00206586,1.39623,0.00318689,0.0259507,1959,967,38.2089,-4.93101
742,57,38.2621,5.07037,-0.00196068,0.00451963,0.000664298,0.00458702,-0.00202807,1.46969,0.00391332,0.0189551,1966,967,38.2621,-5.0704
749,57,38.2339,5.3479,-0.00252631,0.00661911,0.000438111,0.00664005,-0.00254725,1.52304,0.00547693,0.0131705,1973,967,38.2339,-5.34789
756,57,38.187,5.54669,-0.0034936,0.00992037,0.000434855,0.00993445,-0.00350768,1.53842,0.00805106,0.0110755,1980,967,38.187,-5.54668
763,57,38.1266,5.72375,-0.00534968,0.015638,0.00121265,0.0157078,-0.00541952,1.51327,0.0126708,0.0121944,1987,967,38.1266,-5.72376
770,57,38.0759,5.9046,-0.00719994,0.0223805,0.00256854,0.0226019,-0.00742132,1.48482,0.0180574,0.0115443,1994,967,38.0759,-5.90461
777,57,37.9663,6.09717,-0.00985098,0.0306798,0.00455002,0.0311843,-0.0103555,1.46037,0.0249678,0.0257586,2001,967,37.9663,-6.09715
784,57,37.835,6.36298,-0.0138236,0.0409964,0.0072436,0.0419374,-0.0147646,1.44162,0.0339668,0.0429282,2008,967,37.8349,-6.36297
791,57,38.1116,6.89484,-0.0195781,0.0541176,0.0109977,0.0557238,-0.0211843,1.42577,0.0458713,0.0491379,2015,967,38.1117,-6.89484
798,57,38.0664,7.31732,0,0,0,0,0,0,0,-1,2022,967,38.0664,-7.3173
805,57,38.4548,6.97455,0,0,0,0,0,0,0,-1,2029,967,38.4548,-6.97456
812,57,0,0,0,0,0,0,0,0,0,-1,2036,967,0,0
-700,50,0,0,0,0,0,0,0,0,0,-1,524,974,0,0
-693,50,-26.2014,3.46771,-0.0652011,-0.0262442,0.0275753,-0.0119616,-0.0794837,1.09289,0.0494862,0.0450488,531,974,-26.2014,-3.46772
-686,50,-26.4762,3.52869,-0.0585483,-0.0174742,0.0236017,-0.00672533,-0.0692971,1.14344,0.0441275,0.0415651,538,974,-26.4762,-3.52866
-679,50,-26.5964,3.61951,-0.051529,-0.00980873,0.0199897,-0.00177713,-0.0595606,1.18875,0.0391281,0.0435844,545,974,-26.5964,-3.61953
-672,50,-27.2694,3.88,0,0,0,0,0,0,0,-1,552,974,-27.2694,-3.88003
-665,50,-28.1626,4.06586,0,0,0,0,0,0,0,-1,559,974,-28.1626,-4.06586
-658,50,-28.0956,3.82892,-0.0310747,0.00531308,0.0110619,0.00841197,-0.0341736,1.29766,0.0260432,0.0499146,566,974,-28.0957,-3.82892
-651,50,-28.5061,3.41138,-0.025001,0.00766753,0.00876835,0.0098722,-0.0272057,1.32447,0.022173,0.044855,573,974,-28.5061,-3.41135
-644,50,-28.5333,3.10553,-0.0194303,0.00887911,0.00667514,0.0103741,-0.0209253,1.35047,0.0184098,0.0305948,580,974,-28.5333,-3.10554
-637,50,-28.6228,3.00012,-0.014776,0.00928695,0.00452114,0.0101084,-0.0155974,1.39107,0.0149536,0.0173225,587,974,-28.6228,-3.00011
-630,50,-28.6824,2.89319,-0.0109944,0.00962971,0.00232841,0.00988931,-0.011254,1.45976,0.0122156,0.0109809,594,974,-28.6824,-2.89319
-623,50,-28.6959,2.78394,-0.0079598,0.00891427,0.00029362,0.00891938,-0.00796491,1.5534,0.00975334,0.0108531,601,974,-28.6959,-2.78392
-616,50,-28.6991,2.61609,-0.00582243,0.00743821,-0.00139431,0.00758323,-0.00596745,-1.46716,0.00784201,0.0110326,608,974,-28.6991,-2.61608
-609,50,-28.6989,2.37439,-0.004741,0.00597871,-0.00278666,0.00665984,-0.00542213,-1.33107,0.00698772,0.0107688,615,974,-28.6989,-2.37438
-602,50,-28.7099,2.19202,-0.00447984,0.00452395,-0.00360908,0.00579202,-0.00574791,-1.23291,0.0066626,0.0114543,622,974,-28.7099,-2.19203
-595,50,-28.6957,2.04724,-0.00460393,0.00273056,-0.00446866,0.00484411,-0.00671749,-1.129,0.00670424,0.0115408,629,974,-28.6957,-2.04727
-588,50,-28.7214,1.79907,-0.00473108,0.00183874,-0.00512733,0.00464318,-0.00753552,-1.07029,0.00709717,0.0156333,636,974,-28.7214,-1.79905
-581,50,-28.9243,1.17767,-0.00461652,0.00138699,-0.00545275,0.00460962,-0.00783916,-1.03701,0.00726748,0.0217313,643,974,-28.9242,-1.17767
-574,50,-29.077,0.765991,-0.00439888,0.00114336,-0.00543113,0.00446948,-0.007725,-1.0213,0.00712363,0.0255093,650,974,-29.0771,-0.765961
-567,50,-29.0497,0.716553,-0.00408509,0.00104923,-0.00524552,0.00432208,-0.00735794,-1.01296,0.00681897,0.0362481,657,974,-29.0498,-0.716534
-560,50,-28.9327,0.724854,-0.00342117,0.000998634,-0.00469261,0.00397567,-0.0063982,-1.00546,0.00604355,0.044055,664,974,-28.9327,-0.724854
-553,50,-28.8826,0.687073,-0.00227237,0.000985357,-0.00393149,0.00361205,-0.00489907,-0.98179,0.00493259,0.0417685,671,974,-28.8826,-0.687056
-546,50,-29.0129,0.756409,-0.000559526,0.000957046,-0.00302559,0.00331792,-0.0029204,-0.908181,0.00360414,0.0409504,678,974,-29.0129,-0.756416
-539,50,-29.0914,0.790466,0.00179768,0.000875369,-0.00214608,0.00353159,-0.000858541,-0.679566,0.00268669,0.0418051,685,974,-29.0913,-0.790468
-532,50,-28.9762,0.674927,0.00468589,0.000992812,-0.00193771,0.005516,0.000162705,-0.404743,0.00362431,0.0401517,692,974,-28.9762,-0.674915
-525,50,-28.8801,0.660278,0.00659501,0.00161349,-0.00298133,0.00798912,0.000219375,-0.437404,0.00525448,0.0399852,699,974,-28.8801,-0.66029
-518,50,0,0,0,0,0,0,0,0,0,-1,706,974,0,0
-511,50,0,0,0,0,0,0,0,0,0,-1,713,974,0,0
-504,50,0,0,0,0,0,0,0,0,0,-1,720,974,0,0
-497,50,0,0,0,0,0,0,0,0,0,-1,727,974,0,0
-490,50,0,0,0,0,0,0,0,0,0,-1,734,974,0,0
-483,50,0,0,0,0,0,0,0,0,0,-1,741,974,0,0
-476,50,0,0,0,0,0,0,0,0,0,-1,748,974,0,0
-469,50,0,0,0,0,0,0,0,0,0,-1,755,974,0,0
-462,50,0,0,0,0,0,0,0,0,0,-1,762,974,0,0
-455,50,0,0,0,0,0,0,0,0,0,-1,769,974,0,0
-448,50,0,0,0,0,0,0,0,0,0,-1,776,974,0,0
-441,50,0,0,0,0,0,0,0,0,0,-1,783,974,0,0
-434,50,0,0,0,0,0,0,0,0,0,-1,790,974,0,0
-427,50,0,0,0,0,0,0,0,0,0,-1,797,974,0,0
-420,50,0,0,0,0,0,0,0,0,0,-1,804,974,0,0
-413,50,0,0,0,0,0,0,0,0,0,-1,811,974,0,0
-406,50,0,0,0,0,0,0,0,0,0,-1,818,974,0,0
-399,50,0,0,0,0,0,0,0,0,0,-1,825,974,0,0
-392,50,0,0,0,0,0,0,0,0,0,-1,832,974,0,0
-385,50,0,0,0,0,0,0,0,0,0,-1,839,974,0,0
-378,50,0,0,0,0,0,0,0,0,0,-1,846,974,0,0
-371,50,0,0,0,0,0,0,0,0,0,-1,853,974,0,0
-364,50,0,0,0,0,0,0,0,0,0,-1,860,974,0,0
-357,50,0,0,0,0,0,0,0,0,0,-1,867,974,0,0
-350,50,0,0,0,0,0,0,0,0,0,-1,874,974,0,0
-343,50,0,0,0,0,0,0,0,0,0,-1,881,974,0,0
-336,50,0,0,0,0,0,0,0,0,0,-1,888,974,0,0
-329,50,0,0,0,0,0,0,0,0,0,-1,895,974,0,0
-322,50,0,0,0,0,0,0,0,0,0,-1,902,974,0,0
-315,50,0,0,0,0,0,0,0,0,0,-1,909,974,0,0
-308,50,0,0,0,0,0,0,0,0,0,-1,916,974,0,0
-301,50,0,0,0,0,0,0,0,0,0,-1,923,974,0,0
-294,50,0,0,0,0,0,0,0,0,0,-1,930,974,0,0
-287,50,0,0,0,0,0,0,0,0,0,-1,937,974,0,0
-280,50,0,0,0,0,0,0,0,0,0,-1,944,974,0,0
-273,50,0,0,0,0,0,0,0,0,0,-1,951,974,0,0
-266,50,0,0,0,0,0,0,0,0,0,-1,958,974,0,0
-259,50,0,0,0,0,0,0,0,0,0,-1,965,974,0,0
-252,50,0,0,0,0,0,0,0,0,0,-1,972,974,0,0
-245,50,0,0,0,0,0,0,0,0,0,-1,979,974,0,0
-238,50,0,0,0,0,0,0,0,0,0,-1,986,974,0,0
-231,50,0,0,0,0,0,0,0,0,0,-1,993,974,0,0
-224,50,0,0,0,0,0,0,0,0,0,-1,1000,974,0,0
-217,50,0,0,0,0,0,0,0,0,0,-1,1007,974,0,0
-210,50,0,0,0,0,0,0,0,0,0,-1,1014,974,0,0
-203,50,0,0,0,0,0,0,0,0,0,-1,1021,974,0,0
-196,50,0,0,0,0,0,0,0,0,0,-1,1028,974,0,0
-189,50,0,0,0,0,0,0,0,0,0,-1,1035,974,0,0
-182,50,0,0,0,0,0,0,0,0,0,-1,1042,974,0,0
-175,50,0,0,0,0,0,0,0,0,0,-1,1049,974,0,0
-168,50,0,0,0,0,0,0,0,0,0,-1,1056,974,0,0
-161,50,0,0,0,0,0,0,0,0,0,-1,1063,974,0,0
-154,50,0,0,0,0,0,0,0,0,0,-1,1070,974,0,0
-147,50,0,0,0,0,0,0,0,0,0,-1,1077,974,0,0
-140,50,0,0,0,0,0,0,0,0,0,-1,1084,974,0,0
-133,50,0,0,0,0,0,0,0,0,0,-1,1091,974,0,0
-126,50,0,0,0,0,0,0,0,0,0,-1,1098,974,0,0
-119,50,0,0,0,0,0,0,0,0,0,-1,1105,974,0,0
-112,50,0,0,0,0,0,0,0,0,0,-1,1112,974,0,0
-105,50,0,0,0,0,0,0,0,0,0,-1,1119,974,0,0
-98,50,0,0,0,0,0,0,0,0,0,-1,1126,974,0,0
-91,50,0,0,0,0,0,0,0,0,0,-1,1133,974,0,0
-84,50,0,0,0,0,0,0,0,0,0,-1,1140,974,0,0
-77,50,0,0,0,0,0,0,0,0,0,-1,1147,974,0,0
-70,50,0,0,0,0,0,0,0,0,0,-1,1154,974,0,0
-63,50,0,0,0,0,0,0,0,0,0,-1,1161,974,0,0
-56,50,0,0,0,0,0,0,0,0,0,-1,1168,974,0,0
-49,50,0,0,0,0,0,0,0,0,0,-1,1175,974,0,0
-42,50,0,0,0,0,0,0,0,0,0,-1,1182,974,0,0
-35,50,0,0,0,0,0,0,0,0,0,-1,1189,974,0,0
-28,50,0,0,0,0,0,0,0,0,0,-1,1196,974,0,0
-21,50,0,0,0,0,0,0,0,0,0,-1,1203,974,0,0
-14,50,0,0,0,0,0,0,0,0,0,-1,1210,974,0,0
-7,50,0,0,0,0,0,0,0,0,0,-1,1217,974,0,0
0,50,0,0,0,0,0,0,0,0,0,-1,1224,974,0,0
7,50,0,0,0,0,0,0,0,0,0,-1,1231,974,0,0
14,50,0,0,0,0,0,0,0,0,0,-1,1238,974,0,0
21,50,0,0,0,0,0,0,0,0,0,-1,1245,974,0,0
28,50,0,0,0,0,0,0,0,0,0,-1,1252,974,0,0
35,50,0,0,0,0,0,0,0,0,0,-1,1259,974,0,0
42,50,0,0,0,0,0,0,0,0,0,-1,1266,974,0,0
49,50,0,0,0,0,0,0,0,0,0,-1,1273,974,0,0
56,50,0,0,0,0,0,0,0,0,0,-1,1280,974,0,0
63,50,0,0,0,0,0,0,0,0,0,-1,1287,974,0,0
70,50,0,0,0,0,0,0,0,0,0,-1,1294,974,0,0
77,50,0,0,0,0,0,0,0,0,0,-1,1301,974,0,0
84,50,0,0,0,0,0,0,0,0,0,-1,1308,974,0,0
91,50,0,0,0,0,0,0,0,0,0,-1,1315,974,0,0
98,50,0,0,0,0,0,0,0,0,0,-1,1322,974,0,0
105,50,0,0,0,0,0,0,0,0,0,-1,1329,974,0,0
112,50,0,0,0,0,0,0,0,0,0,-1,1336,974,0,0
119,50,0,0,0,0,0,0,0,0,0,-1,1343,974,0,0
126,50,0,0,0,0,0,0,0,0,0,-1,1350,974,0,0
133,50,0,0,0,0,0,0,0,0,0,-1,1357,974,0,0
140,50,0,0,0,0,0,0,0,0,0,-1,1364,974,0,0
147,50,0,0,0,0,0,0,0,0,0,-1,1371,974,0,0
154,50,0,0,0,0,0,0,0,0,0,-1,1378,974,0,0
161,50,0,0,0,0,0,0,0,0,0,-1,1385,974,0,0
168,50,0,0,0,0,0,0,0,0,0,-1,1392,974,0,0
175,50,0,0,0,0,0,0,0,0,0,-1,1399,974,0,0
182,50,0,0,0,0,0,0,0,0,0,-1,1406,974,0,0
189,50,0,0,0,0,0,0,0,0,0,-1,1413,974,0,0
196,50,0,0,0,0,0,0,0,0,0,-1,1420,974,0,0
203,50,0,0,0,0,0,0,0,0,0,-1,1427,974,0,0
210,50,0,0,0,0,0,0,0,0,0,-1,1434,974,0,0
217,50,0,0,0,0,0,0,0,0,0,-1,1441,974,0,0
224,50,0,0,0,0,0,0,0,0,0,-1,1448,974,0,0
231,50,0,0,0,0,0,0,0,0,0,-1,1455,974,0,0
238,50,0,0,0,0,0,0,0,0,0,-1,1462,974,0,0
245,50,0,0,0,0,0,0,0,0,0,-1,1469,974,0,0
252,50,0,0,0,0,0,0,0,0,0,-1,1476,974,0,0
259,50,0,0,0,0,0,0,0,0,0,-1,1483,974,0,0
266,50,0,0,0,0,0,0,0,0,0,-1,1490,974,0,0
273,50,0,0,0,0,0,0,0,0,0,-1,1497,974,0,0
280,50,0,0,0,0,0,0,0,0,0,-1,1504,974,0,0
287,50,0,0,0,0,0,0,0,0,0,-1,1511,974,0,0
294,50,0,0,0,0,0,0,0,0,0,-1,1518,974,0,0
301,50,0,0,0,0,0,0,0,0,0,-1,1525,974,0,0
308,50,0,0,0,0,0,0,0,0,0,-1,1532,974,0,0
315,50,0,0,0,0,0,0,0,0,0,-1,1539,974,0,0
322,50,0,0,0,0,0,0,0,0,0,-1,1546,974,0,0
329,50,0,0,0,0,0,0,0,0,0,-1,1553,974,0,0
336,50,0,0,0,0,0,0,0,0,0,-1,1560,974,0,0
343,50,0,0,0,0,0,0,0,0,0,-1,1567,974,0,0
350,50,0,0,0,0,0,0,0,0,0,-1,1574,974,0,0
357,50,0,0,0,0,0,0,0,0,0,-1,1581,974,0,0
364,50,0,0,0,0,0,0,0,0,0,-1,1588,974,0,0
371,50,0,0,0,0,0,0,0,0,0,-1,1595,974,0,0
378,50,0,0,0,0,0,0,0,0,0,-1,1602,974,0,0
385,50,0,0,0,0,0,0,0,0,0,-1,1609,974,0,0
392,50,0,0,0,0,0,0,0,0,0,-1,1616,974,0,0
399,50,0,0,0,0,0,0,0,0,0,-1,1623,974,0,0
406,50,0,0,0,0,0,0,0,0,0,-1,1630,974,0,0
413,50,0,0,0,0,0,0,0,0,0,-1,1637,974,0,0
420,50,0,0,0,0,0,0,0,0,0,-1,1644,974,0,0
427,50,0,0,0,0,0,0,0,0,0,-1,1651,974,0,0
434,50,0,0,0,0,0,0,0,0,0,-1,1658,974,0,0
441,50,0,0,0,0,0,0,0,0,0,-1,1665,974,0,0
448,50,0,0,0,0,0,0,0,0,0,-1,1672,974,0,0
455,50,0,0,0,0,0,0,0,0,0,-1,1679,974,0,0
462,50,0,0,0,0,0,0,0,0,0,-1,1686,974,0,0
469,50,0,0,0,0,0,0,0,0,0,-1,1693,974,0,0
476,50,0,0,0,0,0,0,0,0,0,-1,1700,974,0,0
483,50,0,0,0,0,0,0,0,0,0,-1,1707,974,0,0
490,50,0,0,0,0,0,0,0,0,0,-1,1714,974,0,0
497,50,0,0,0,0,0,0,0,0,0,-1,1721,974,0,0
504,50,0,0,0,0,0,0,0,0,0,-1,1728,974,0,0
511,50,0,0,0,0,0,0,0,0,0,-1,1735,974,0,0
518,50,0,0,0,0,0,0,0,0,0,-1,1742,974,0,0
525,50,0,0,0,0,0,0,0,0,0,-1,1749,974,0,0
532,50,0,0,0,0,0,0,0,0,0,-1,1756,974,0,0
539,50,0,0,0,0,0,0,0,0,0,-1,1763,974,0,0
546,50,0,0,0,0,0,0,0,0,0,-1,1770,974,0,0
553,50,0,0,0,0,0,0,0,0,0,-1,1777,974,0,0
560,50,0,0,0,0,0,0,0,0,0,-1,1784,974,0,0
567,50,0,0,0,0,0,0,0,0,0,-1,1791,974,0,0
574,50,0,0,0,0,0,0,0,0,0,-1,1798,974,0,0
581,50,0,0,0,0,0,0,0,0,0,-1,1805,974,0,0
588,50,0,0,0,0,0,0,0,0,0,-1,1812,974,0,0
595,50,0,0,0,0,0,0,0,0,0,-1,1819,974,0,0
602,50,0,0,0,0,0,0,0,0,0,-1,1826,974,0,0
609,50,0,0,0,0,0,0,0,0,0,-1,1833,974,0,0
616,50,0,0,0,0,0,0,0,0,0,-1,1840,974,0,0
623,50,0,0,0,0,0,0,0,0,0,-1,1847,974,0,0
630,50,0,0,0,0,0,0,0,0,0,-1,1854,974,0,0
637,50,0,0,0,0,0,0,0,0,0,-1,1861,974,0,0
644,50,39.5927,2.58289,0.0011133,0.00471819,0.00199121,0.00560158,0.00022991,1.15324,0.00366016,0.0360543,1868,974,39.5926,-2.58291
651,50,39.4738,2.61102,0.000985611,0.00350467,0.0014145,0.00413913,0.000351146,1.14915,0.00265014,0.0320134,1875,974,39.4737,-2.611
658,50,39.5981,2.59747,0.00073726,0.0026756,0.00108515,0.00316137,0.000251492,1.1499,0.00202895,0.0376377,1882,974,39.5982,-2.59747
665,50,39.6947,2.50696,0.000399581,0.00228984,0.00111749,0.00280829,-0.000118869,1.13641,0.00191305,0.0409084,1889,974,39.6946,-2.50697
672,50,39.7548,2.3031,2.69886e-05,0.00210384,0.0013559,0.00277328,-0.000642446,1.11219,0.00209608,0.0398129,1896,974,39.7547,-2.30309
679,50,39.5542,2.4339,-0.000288371,0.00191962,0.00167572,0.00282233,-0.00119108,1.07667,0.00238009,0.0400177,1903,974,39.5542,-2.43389
686,50,39.4899,2.48682,-0.000412178,0.00167939,0.00191623,0.00281664,-0.00154942,1.03519,0.00255589,0.0422371,1910,974,39.4899,-2.48684
693,50,39.5287,2.58759,-0.000410713,0.00138213,0.00207218,0.00274347,-0.00177205,0.989543,0.00262707,0.0388393,1917,974,39.5287,-2.58761
700,50,39.5425,2.61163,-0.000606103,0.0011855,0.00201689,0.00249657,-0.00191717,0.994388,0.00255559,0.0230962,1924,974,39.5424,-2.61165
707,50,39.5951,2.73779,-0.000928715,0.00120302,0.00177272,0.00220563,-0.00193133,1.05607,0.00239023,0.0387828,1931,974,39.5951,-2.73777
714,50,39.573,2.92023,0,0,0,0,0,0,0,-1,1938,974,39.5731,-2.92024
721,50,38.4139,4.41992,0,0,0,0,0,0,0,-1,1945,974,38.414,-4.41991
728,50,38.4116,4.69781,-0.00216285,0.00248193,0.00124751,0.00279578,-0.00247671,1.32433,0.00304593,0.0223976,1952,974,38.4116,-4.69783
735,50,38.4663,4.89624,-0.00207284,0.00343478,0.000935643,0.00358939,-0.00222745,1.40703,0.0033889,0.0211692,1959,974,38.4663,-4.89624
742,50,38.4838,5.0777,-0.00227498,0.00465564,0.000497542,0.00469118,-0.00231052,1.49949,0.00411958,0.0162322,1966,974,38.4838,-5.07768
749,50,38.4613,5.28101,-0.00304112,0.00666464,8.76817e-05,0.00666544,-0.00304191,1.56176,0.00573321,0.0157138,1973,974,38.4613,-5.28102
756,50,38.4242,5.49341,-0.0043453,0.00987511,-0.000246778,0.00987939,-0.00434959,-1.55345,0.00841935,0.0129378,1980,974,38.4241,-5.49344
763,50,38.3715,5.67651,-0.00671217,0.0155386,5.21615e-06,0.0155386,-0.00671218,1.57056,0.0131791,0.0137083,1987,974,38.3715,-5.6765
770,50,38.3173,5.82739,-0.00922387,0.0223091,0.000689876,0.0223242,-0.00923895,1.54893,0.0187377,0.012469,1994,974,38.3173,-5.8274
777,50,38.3022,6.00922,-0.0126516,0.0307753,0.00192924,0.0308608,-0.0127371,1.52649,0.0258861,0.0234624,2001,974,38.3022,-6.00921
784,50,38.4446,6.33026,-0.0174929,0.0411583,0.00368402,0.0413888,-0.0177234,1.50831,0.0350283,0.0403778,2008,974,38.4446,-6.33025
791,50,38.405,6.54865,-0.0242393,0.0542903,0.00627024,0.0547878,-0.0247368,1.49162,0.0469936,0.0451022,2015,974,38.4051,-6.54864
798,50,38.4521,6.68213,-0.0335174,0.0708806,0.00997788,0.0718257,-0.0344625,1.47636,0.0626166,0.0456269,2022,974,38.4521,-6.68214
805,50,38.7546,6.80823,-0.046277,0.0922225,0.015454,0.0939259,-0.0479804,1.46101,0.0833488,0.0436093,2029,974,38.7546,-6.8082
812,50,0,0,0,0,0,0,0,0,0,-1,2036,974,0,0
-700,43,0,0,0,0,0,0,0,0,0,-1,524,981,0,0
-693,43,-26.0462,2.95795,-0.0599252,-0.0182228,0.0274535,-0.00459985,-0.0735481,1.11018,0.047573,0.0442703,531,981,-26.0462,-2.95794
-686,43,-26.5292,3.12927,-0.0536365,-0.0100396,0.0231142,-6.63884e-05,-0.0636096,1.16345,0.0423843,0.0445555,538,981,-26.5292,-3.12927
-679,43,-26.9194,3.5401,-0.0471884,-0.00339678,0.0193937,0.00395709,-0.0545423,1.20836,0.0377497,0.0427344,545,981,-26.9193,-3.54008
-672,43,-27.4229,3.72479,0,0,0,0,0,0,0,-1,552,981,-27.4229,-3.72479
-665,43,-28.1475,4.11646,0,0,0,0,0,0,0,-1,559,981,-28.1475,-4.11645
-658,43,-28.3138,3.62762,-0.0286611,0.00851898,0.0106411,0.0113491,-0.0314912,1.31085,0.0256289,0.0490729,566,981,-28.3138,-3.62765
-651,43,-28.575,3.42896,-0.0231493,0.0100262,0.00843552,0.0120479,-0.025171,1.33557,0.021929,0.0405522,573,981,-28.5749,-3.42894
-644,43,-28.7748,3.08948,-0.0180166,0.0105871,0.00633543,0.0119275,-0.019357,1.3623,0.0182311,0.0244478,580,981,-28.7748,-3.08948
-637,43,-28.8362,2.95459,-0.0136682,0.0106878,0.00407281,0.0113508,-0.0143312,1.40942,0.0148607,0.017468,587,981,-28.8362,-2.95459
-630,43,-28.8347,2.83734,-0.00995366,0.0105644,0.00177053,0.010716,-0.0101053,1.48535,0.0120229,0.0135144,594,981,-28.8346,-2.83733
-623,43,-28.8438,2.72321,-0.00690946,0.00937983,-0.000380868,0.00938873,-0.00691836,-1.54743,0.00945084,0.0114497,601,981,-28.8437,-2.72318
-616,43,-28.8487,2.56976,-0.00481291,0.00789294,-0.00218565,0.0082584,-0.00517837,-1.40512,0.00782536,0.0114386,608,981,-28.8487,-2.56974
-609,43,-28.8628,2.39893,-0.00371111,0.00636021,-0.00367758,0.00756014,-0.00491103,-1.25541,0.00725418,0.0140793,615,981,-28.8628,-2.39895
-602,43,-28.8552,2.24255,-0.00340991,0.00485883,-0.00458278,0.00689656,-0.00544765,-1.1524,0.00714328,0.0152936,622,981,-28.8552,-2.24258
-595,43,-28.8771,2.09662,-0.00341239,0.00301668,-0.00552251,0.00619208,-0.00658779,-1.04897,0.00737964,0.0140507,629,981,-28.8771,-2.09661
-588,43,-28.8667,1.72803,-0.00341609,0.00211462,-0.00622666,0.00616237,-0.00746385,-0.994373,0.00787905,0.0176747,636,981,-28.8667,-1.72804
-581,43,-28.962,1.06287,-0.00319096,0.00161254,-0.00654133,0.0061791,-0.00775753,-0.96134,0.0080635,0.0237084,643,981,-28.962,-1.06287
-574,43,-29.0321,0.763306,-0.00295737,0.0012927,-0.00642599,0.0059359,-0.00760058,-0.945085,0.00783496,0.0277466,650,981,-29.0321,-0.763289
-567,43,-29.0025,0.731567,-0.00265738,0.00105421,-0.00603427,0.0055116,-0.00711478,-0.934579,0.0073094,0.0383406,657,981,-29.0025,-0.731539
-560,43,-28.8927,0.735352,-0.00204254,0.000832332,-0.00524116,0.0048296,-0.0060398,-0.919237,0.0062884,0.0426093,664,981,-28.8927,-0.73538
-553,43,-28.8446,0.624512,-0.000971481,0.000607968,-0.0042041,0.00409587,-0.00445938,-0.878239,0.00494086,0.0408129,671,981,-28.8446,-0.624482
-546,43,-28.8856,0.741455,0.000664377,0.000326169,-0.00300688,0.00350691,-0.00251636,-0.757308,0.00349317,0.0432739,678,981,-28.8856,-0.741446
-539,43,-29.1005,0.912781,0.00301255,-2.00851e-05,-0.00189046,0.00391967,-0.000927208,-0.447392,0.00297081,0.0436496,685,981,-29.1005,-0.912801
-532,43,-29.171,0.748901,0.00600813,-6.27025e-05,-0.00166897,0.0064367,-0.000491277,-0.251358,0.00446391,0.0434645,692,981,-29.171,-0.748925
-525,43,-28.9706,0.70459,0.00824767,0.000470528,-0.00284207,0.00917556,-0.000457369,-0.315575,0.00627506,0.0435276,699,981,-28.9706,-0.704589
-518,43,0,0,0,0,0,0,0,0,0,-1,706,981,0,0
-511,43,0,0,0,0,0,0,0,0,0,-1,713,981,0,0
-504,43,0,0,0,0,0,0,0,0,0,-1,720,981,0,0
-497,43,0,0,0,0,0,0,0,0,0,-1,727,981,0,0
-490,43,0,0,0,0,0,0,0,0,0,-1,734,981,0,0
-483,43,0,0,0,0,0,0,0,0,0,-1,741,981,0,0
-476,43,0,0,0,0,0,0,0,0,0,-1,748,981,0,0
-469,43,0,0,0,0,0,0,0,0,0,-1,755,981,0,0
-462,43,0,0,0,0,0,0,0,0,0,-1,762,981,0,0
-455,43,0,0,0,0,0,0,0,0,0,-1,769,981,0,0
-448,43,0,0,0,0,0,0,0,0,0,-1,776,981,0,0
-441,43,0,0,0,0,0,0,0,0,0,-1,783,981,0,0
-434,43,0,0,0,0,0,0,0,0,0,-1,790,981,0,0
-427,43,0,0,0,0,0,0,0,0,0,-1,797,981,0,0
-420,43,0,0,0,0,0,0,0,0,0,-1,804,981,0,0
-413,43,0,0,0,0,0,0,0,0,0,-1,811,981,0,0
-406,43,0,0,0,0,0,0,0,0,0,-1,818,981,0,0
-399,43,0,0,0,0,0,0,0,0,0,-1,825,981,0,0
-392,43,0,0,0,0,0,0,0,0,0,-1,832,981,0,0
-385,43,0,0,0,0,0,0,0,0,0,-1,839,981,0,0
-378,43,0,0,0,0,0,0,0,0,0,-1,846,981,0,0
-371,43,0,0,0,0,0,0,0,0,0,-1,853,981,0,0
-364,43,0,0,0,0,0,0,0,0,0,-1,860,981,0,0
-357,43,0,0,0,0,0,0,0,0,0,-1,867,981,0,0
-350,43,0,0,0,0,0,0,0,0,0,-1,874,981,0,0
-343,43,0,0,0,0,0,0,0,0,0,-1,881,981,0,0
-336,43,0,0,0,0,0,0,0,0,0,-1,888,981,0,0
-329,43,0,0,0,0,0,0,0,0,0,-1,895,981,0,0
-322,43,0,0,0,0,0,0,0,0,0,-1,902,981,0,0
-315,43,0,0,0,0,0,0,0,0,0,-1,909,981,0,0
-308,43,0,0,0,0,0,0,0,0,0,-1,916,981,0,0
-301,43,0,0,0,0,0,0,0,0,0,-1,923,981,0,0
-294,43,0,0,0,0,0,0,0,0,0,-1,930,981,0,0
-287,43,0,0,0,0,0,0,0,0,0,-1,937,981,0,0
-280,43,0,0,0,0,0,0,0,0,0,-1,944,981,0,0
-273,43,0,0,0,0,0,0,0,0,0,-1,951,981,0,0
-266,43,0,0,0,0,0,0,0,0,0,-1,958,981,0,0
-259,43,0,0,0,0,0,0,0,0,0,-1,965,981,0,0
-252,43,0,0,0,0,0,0,0,0,0,-1,972,981,0,0
-245,43,0,0,0,0,0,0,0,0,0,-1,979,981,0,0
-238,43,0,0,0,0,0,0,0,0,0,-1,986,981,0,0
-231,43,0,0,0,0,0,0,0,0,0,-1,993,981,0,0
-224,43,0,0,0,0,0,0,0,0,0,-1,1000,981,0,0
-217,43,0,0,0,0,0,0,0,0,0,-1,1007,981,0,0
-210,43,0,0,0,0,0,0,0,0,0,-1,1014,981,0,0
-203,43,0,0,0,0,0,0,0,0,0,-1,1021,981,0,0
-196,43,0,0,0,0,0,0,0,0,0,-1,1028,981,0,0
-189,43,0,0,0,0,0,0,0,0,0,-1,1035,981,0,0
-182,43,0,0,0,0,0,0,0,0,0,-1,1042,981,0,0
-175,43,0,0,0,0,0,0,0,0,0,-1,1049,981,0,0
-168,43,0,0,0,0,0,0,0,0,0,-1,1056,981,0,0
-161,43,0,0,0,0,0,0,0,0,0,-1,1063,981,0,0
-154,43,0,0,0,0,0,0,0,0,0,-1,1070,981,0,0
-147,43,0,0,0,0,0,0,0,0,0,-1,1077,981,0,0
-140,43,0,0,0,0,0,0,0,0,0,-1,1084,981,0,0
-133,43,0,0,0,0,0,0,0,0,0,-1,1091,981,0,0
-126,43,0,0,0,0,0,0,0,0,0,-1,1098,981,0,0
-119,43,0,0,0,0,0,0,0,0,0,-1,1105,981,0,0
-112,43,0,0,0,0,0,0,0,0,0,-1,1112,981,0,0
-105,43,0,0,0,0,0,0,0,0,0,-1,1119,981,0,0
-98,43,0,0,0,0,0,0,0,0,0,-1,1126,981,0,0
-91,43,0,0,0,0,0,0,0,0,0,-1,1133,981,0,0
-84,43,0,0,0,0,0,0,0,0,0,-1,1140,981,0,0
-77,43,0,0,0,0,0,0,0,0,0,-1,1147,981,0,0
-70,43,0,0,0,0,0,0,0,0,0,-1,1154,981,0,0
-63,43,0,0,0,0,0,0,0,0,0,-1,1161,981,0,0
-56,43,0,0,0,0,0,0,0,0,0,-1,1168,981,0,0
-49,43,0,0,0,0,0,0,0,0,0,-1,1175,981,0,0
-42,43,0,0,0,0,0,0,0,0,0,-1,1182,981,0,0
-35,43,0,0,0,0,0,0,0,0,0,-1,1189,981,0,0
-28,43,0,0,0,0,0,0,0,0,0,-1,1196,981,0,0
-21,43,0,0,0,0,0,0,0,0,0,-1,1203,981,0,0
-14,43,0,0,0,0,0,0,0,0,0,-1,1210,981,0,0
-7,43,0,0,0,0,0,0,0,0,0,-1,1217,981,0,0
0,43,0,0,0,0,0,0,0,0,0,-1,1224,981,0,0
7,43,0,0,0,0,0,0,0,0,0,-1,1231,981,0,0
14,43,0,0,0,0,0,0,0,0,0,-1,1238,981,0,0
21,43,0,0,0,0,0,0,0,0,0,-1,1245,981,0,0
28,43,0,0,0,0,0,0,0,0,0,-1,1252,981,0,0
35,43,0,0,0,0,0,0,0,0,0,-1,1259,981,0,0
42,43,0,0,0,0,0,0,0,0,0,-1,1266,981,0,0
49,43,0,0,0,0,0,0,0,0,0,-1,1273,981,0,0
56,43,0,0,0,0,0,0,0,0,0,-1,1280,981,0,0
63,43,0,0,0,0,0,0,0,0,0,-1,1287,981,0,0
70,43,0,0,0,0,0,0,0,0,0,-1,1294,981,0,0
77,43,0,0,0,0,0,0,0,0,0,-1,1301,981,0,0
84,43,0,0,0,0,0,0,0,0,0,-1,1308,981,0,0
91,43,0,0,0,0,0,0,0,0,0,-1,1315,981,0,0
98,43,0,0,0,0,0,0,0,0,0,-1,1322,981,0,0
105,43,0,0,0,0,0,0,0,0,0,-1,1329,981,0,0
112,43,0,0,0,0,0,0,0,0,0,-1,1336,981,0,0
119,43,0,0,0,0,0,0,0,0,0,-1,1343,981,0,0
126,43,0,0,0,0,0,0,0,0,0,-1,1350,981,0,0
133,43,0,0,0,0,0,0,0,0,0,-1,1357,981,0,0
140,43,0,0,0,0,0,0,0,0,0,-1,1364,981,0,0
147,43,0,0,0,0,0,0,0,0,0,-1,1371,981,0,0
154,43,0,0,0,0,0,0,0,0,0,-1,1378,981,0,0
161,43,0,0,0,0,0,0,0,0,0,-1,1385,981,0,0
168,43,0,0,0,0,0,0,0,0,0,-1,1392,981,0,0
175,43,0,0,0,0,0,0,0,0,0,-1,1399,981,0,0
182,43,0,0,0,0,0,0,0,0,0,-1,1406,981,0,0
189,43,0,0,0,0,0,0,0,0,0,-1,1413,981,0,0
196,43,0,0,0,0,0,0,0,0,0,-1,1420,981,0,0
203,43,0,0,0,0,0,0,0,0,0,-1,1427,981,0,0
210,43,0,0,0,0,0,0,0,0,0,-1,1434,981,0,0
217,43,0,0,0,0,0,0,0,0,0,-1,1441,981,0,0
224,43,0,0,0,0,0,0,0,0,0,-1,1448,981,0,0
231,43,0,0,0,0,0,0,0,0,0,-1,1455,981,0,0
238,43,0,0,0,0,0,0,0,0,0,-1,1462,981,0,0
245,43,0,0,0,0,0,0,0,0,0,-1,1469,981,0,0
252,43,0,0,0,0,0,0,0,0,0,-1,1476,981,0,0
259,43,0,0,0,0,0,0,0,0,0,-1,1483,981,0,0
266,43,0,0,0,0,0,0,0,0,0,-1,1490,981,0,0
273,43,0,0,0,0,0,0,0,0,0,-1,1497,981,0,0
280,43,0,0,0,0,0,0,0,0,0,-1,1504,981,0,0
287,43,0,0,0,0,0,0,0,0,0,-1,1511,981,0,0
294,43,0,0,0,0,0,0,0,0,0,-1,1518,981,0,0
301,43,0,0,0,0,0,0,0,0,0,-1,1525,981,0,0
308,43,0,0,0,0,0,0,0,0,0,-1,1532,981,0,0
315,43,0,0,0,0,0,0,0,0,0,-1,1539,981,0,0
322,43,0,0,0,0,0,0,0,0,0,-1,1546,981,0,0
329,43,0,0,0,0,0,0,0,0,0,-1,1553,981,0,0
336,43,0,0,0,0,0,0,0,0,0,-1,1560,981,0,0
343,43,0,0,0,0,0,0,0,0,0,-1,1567,981,0,0
350,43,0,0,0,0,0,0,0,0,0,-1,1574,981,0,0
357,43,0,0,0,0,0,0,0,0,0,-1,1581,981,0,0
364,43,0,0,0,0,0,0,0,0,0,-1,1588,981,0,0
371,43,0,0,0,0,0,0,0,0,0,-1,1595,981,0,0
378,43,0,0,0,0,0,0,0,0,0,-1,1602,981,0,0
385,43,0,0,0,0,0,0,0,0,0,-1,1609,981,0,0
392,43,0,0,0,0,0,0,0,0,0,-1,1616,981,0,0
399,43,0,0,0,0,0,0,0,0,0,-1,1623,981,0,0
406,43,0,0,0,0,0,0,0,0,0,-1,1630,981,0,0
413,43,0,0,0,0,0,0,0,0,0,-1,1637,981,0,0
420,43,0,0,0,0,0,0,0,0,0,-1,1644,981,0,0
427,43,0,0,0,0,0,0,0,0,0,-1,1651,981,0,0
434,43,0,0,0,0,0,0,0,0,0,-1,1658,981,0,0
441,43,0,0,0,0,0,0,0,0,0,-1,1665,981,0,0
448,43,0,0,0,0,0,0,0,0,0,-1,1672,981,0,0
455,43,0,0,0,0,0,0,0,0,0,-1,1679,981,0,0
462,43,0,0,0,0,0,0,0,0,0,-1,1686,981,0,0
469,43,0,0,0,0,0,0,0,0,0,-1,1693,981,0,0
476,43,0,0,0,0,0,0,0,0,0,-1,1700,981,0,0
483,43,0,0,0,0,0,0,0,0,0,-1,1707,981,0,0
490,43,0,0,0,0,0,0,0,0,0,-1,1714,981,0,0
497,43,0,0,0,0,0,0,0,0,0,-1,1721,981,0,0
504,43,0,0,0,0,0,0,0,0,0,-1,1728,981,0,0
511,43,0,0,0,0,0,0,0,0,0,-1,1735,981,0,0
518,43,0,0,0,0,0,0,0,0,0,-1,1742,981,0,0
525,43,0,0,0,0,0,0,0,0,0,-1,1749,981,0,0
532,43,0,0,0,0,0,0,0,0,0,-1,1756,981,0,0
539,43,0,0,0,0,0,0,0,0,0,-1,1763,981,0,0
546,43,0,0,0,0,0,0,0,0,0,-1,1770,981,0,0
553,43,0,0,0,0,0,0,0,0,0,-1,1777,981,0,0
560,43,0,0,0,0,0,0,0,0,0,-1,1784,981,0,0
567,43,0,0,0,0,0,0,0,0,0,-1,1791,981,0,0
574,43,0,0,0,0,0,0,0,0,0,-1,1798,981,0,0
581,43,0,0,0,0,0,0,0,0,0,-1,1805,981,0,0
588,43,0,0,0,0,0,0,0,0,0,-1,1812,981,0,0
595,43,0,0,0,0,0,0,0,0,0,-1,1819,981,0,0
602,43,0,0,0,0,0,0,0,0,0,-1,1826,981,0,0
609,43,0,0,0,0,0,0,0,0,0,-1,1833,981,0,0
616,43,0,0,0,0,0,0,0,0,0,-1,1840,981,0,0
623,43,0,0,0,0,0,0,0,0,0,-1,1847,981,0,0
630,43,0,0,0,0,0,0,0,0,0,-1,1854,981,0,0
637,43,0,0,0,0,0,0,0,0,0,-1,1861,981,0,0
644,43,39.5309,2.57239,0.00168257,0.00494611,0.00289219,0.0066351,-6.41891e-06,1.04224,0.00442554,0.0361488,1868,981,39.5309,-2.57238
651,43,39.5204,2.52582,0.00139503,0.00359194,0.00195076,0.00473224,0.00025472,1.04182,0.00307344,0.0374465,1875,981,39.5203,-2.52582
658,43,39.7712,2.49194,0.00104311,0.00266963,0.00137804,0.00345649,0.000256253,1.05197,0.00222384,0.0406127,1882,981,39.7712,-2.49196
665,43,39.9113,2.45453,0.000659685,0.00223406,0.00124961,0.00292375,-3.00145e-05,1.06647,0.00195925,0.0392171,1889,981,39.9113,-2.45455
672,43,39.7241,2.42889,0.000280543,0.00204662,0.00139593,0.00281537,-0.000488201,1.06741,0.00205903,0.0382795,1896,981,39.7241,-2.42892
679,43,39.5936,2.35706,-4.93959e-05,0.00190282,0.00168236,0.00287174,-0.00101831,1.04827,0.00232935,0.0391615,1903,981,39.5937,-2.35708
686,43,39.5223,2.453,-0.000185513,0.00170527,0.00193271,0.00291142,-0.00139167,1.01286,0.00253551,0.0393637,1910,981,39.5223,-2.45297
693,43,39.4869,2.6087,-0.000203763,0.00144217,0.00210483,0.0028792,-0.00164079,0.971756,0.00264207,0.0366376,1917,981,39.487,-2.60869
700,43,39.5017,2.61841,-0.000404382,0.00124932,0.0020609,0.00264305,-0.00179812,0.976172,0.00257953,0.033725,1924,981,39.5017,-2.61842
707,43,39.6221,2.57513,-0.00071661,0.00129332,0.00183675,0.00238206,-0.00180535,1.03572,0.00242523,0.032245,1931,981,39.6221,-2.57514
714,43,39.6279,2.72748,0,0,0,0,0,0,0,-1,1938,981,39.6279,-2.72749
721,43,38.7722,4.44147,0,0,0,0,0,0,0,-1,1945,981,38.7722,-4.44147
728,43,38.7693,4.68561,-0.0021445,0.00261396,0.00128693,0.00293971,-0.00247025,1.32288,0.00312736,0.021657,1952,981,38.7693,-4.6856
735,43,38.7142,4.89813,-0.00220541,0.00357454,0.000861309,0.00370016,-0.00233103,1.42597,0.00351189,0.0155511,1959,981,38.7143,-4.89813
742,43,38.6923,5.0495,-0.00262055,0.00478512,0.000290379,0.00479649,-0.00263191,1.53167,0.00434906,0.0166326,1966,981,38.6922,-5.04953
749,43,38.6584,5.24756,-0.00366056,0.00674263,-0.000280977,0.00675021,-0.00366815,-1.54381,0.00610215,0.0179505,1973,981,38.6584,-5.24755
756,43,38.6641,5.43048,-0.00534602,0.00985613,-0.000906126,0.00990995,-0.00539984,-1.51147,0.00896605,0.0184072,1980,981,38.6641,-5.43048
763,43,38.6368,5.59772,-0.00822026,0.0153549,-0.00113902,0.0154098,-0.00827516,-1.52263,0.0138798,0.022896,1987,981,38.6368,-5.59773
770,43,38.5253,5.81976,-0.0114669,0.022005,-0.00110265,0.0220413,-0.0115032,-1.5379,0.0196829,0.0190166,1994,981,38.5253,-5.81977
777,43,38.4977,5.95929,-0.0157735,0.0304612,-0.00060579,0.0304692,-0.0157814,-1.5577,0.0271479,0.023638,2001,981,38.4977,-5.9593
784,43,38.6632,6.05469,-0.0215174,0.0406631,0.000244729,0.0406641,-0.0215184,1.56686,0.0364639,0.0425391,2008,981,38.6632,-6.05469
791,43,38.7612,6.03693,-0.0292624,0.053441,0.00169874,0.0534759,-0.0292973,1.55027,0.048464,0.0437851,2015,981,38.7613,-6.0369
798,43,38.6946,6.15143,-0.0395865,0.0694478,0.00401497,0.0695954,-0.0397341,1.53404,0.0639014,0.0435169,2022,981,38.6946,-6.15143
805,43,38.6833,6.43958,-0.0534294,0.0899167,0.00773517,0.0903328,-0.0538456,1.51704,0.0841253,0.0436453,2029,981,38.6835,-6.4396
812,43,38.4663,6.85571,-0.0718557,0.11639,0.0135266,0.117357,-0.0728227,1.49943,0.110799,0.0474351,2036,981,38.4662,-6.85574
-700,36,0,0,0,0,0,0,0,0,0,-1,524,988,0,0
-693,36,-26.4313,2.96967,-0.0547205,-0.00637823,0.0260207,0.00496568,-0.0660644,1.15968,0.045788,0.0434281,531,988,-26.4313,-2.96964
-686,36,-26.8699,3.20721,-0.0487182,0.000196849,0.0213753,0.00822124,-0.0567426,1.21167,0.0408455,0.0443684,538,988,-26.8699,-3.20719
-679,36,-27.3149,3.39514,-0.0427832,0.00506666,0.017634,0.0108631,-0.0485797,1.25321,0.0365496,0.0439953,545,988,-27.3149,-3.39512
-672,36,-28.9099,3.57202,0,0,0,0,0,0,0,-1,552,988,-28.9099,-3.572
-665,36,-28.9208,3.58435,0,0,0,0,0,0,0,-1,559,988,-28.9209,-3.58434
-658,36,-28.8767,3.40894,-0.0261141,0.0123535,0.00937403,0.0145162,-0.0282768,1.34405,0.0251288,0.0459259,566,988,-28.8767,-3.40893
-651,36,-28.892,3.1535,-0.0211999,0.0127256,0.00736323,0.0142548,-0.0227291,1.36603,0.0215387,0.0354308,573,988,-28.892,-3.15349
-644,36,-28.9635,2.93738,-0.0165643,0.0124268,0.00538719,0.0133955,-0.017533,1.39288,0.0179097,0.0230145,580,988,-28.9635,-2.93735
-637,36,-29.0197,2.85553,-0.0125469,0.0119468,0.00320328,0.0123588,-0.0129589,1.44288,0.0146185,0.0187241,587,988,-29.0197,-2.85551
-630,36,-28.9935,2.79254,-0.00902472,0.0111883,0.000929166,0.011231,-0.00906735,1.52496,0.0117414,0.014297,594,988,-28.9935,-2.79255
-623,36,-29.0032,2.69049,-0.00606693,0.00953806,-0.00121631,0.00963229,-0.00616116,-1.49347,0.00919147,0.0120143,601,988,-29.0032,-2.69052
-616,36,-29.0052,2.56958,-0.00401562,0.00808336,-0.00302859,0.00879913,-0.00473139,-1.33872,0.00792865,0.0108738,608,988,-29.0053,-2.56956
-609,36,-28.9912,2.44525,-0.00286605,0.00653766,-0.00449725,0.00834216,-0.00467055,-1.18922,0.00761193,0.0160197,615,988,-28.9912,-2.44528
-602,36,-28.9891,2.28955,-0.00239754,0.00505295,-0.0053701,0.00786341,-0.00520801,-1.08864,0.00759852,0.019473,622,988,-28.9891,-2.28955
-595,36,-29.021,2.138,-0.00216763,0.00323364,-0.00632277,0.00740839,-0.00634238,-0.987234,0.00794696,0.0218324,629,988,-29.021,-2.13799
-588,36,-29.0046,1.59735,-0.00198509,0.00234564,-0.00701875,0.00752546,-0.0071649,-0.935022,0.00848234,0.0246424,636,988,-29.0046,-1.59733
-581,36,-28.9752,0.939331,-0.0016221,0.00179089,-0.00729784,0.0075791,-0.00741031,-0.900252,0.00865432,0.0265899,643,988,-28.9752,-0.939344
-574,36,-28.9933,0.753967,-0.00138493,0.00139645,-0.00709004,0.0072309,-0.00721938,-0.882242,0.00834287,0.0271574,650,988,-28.9934,-0.75395
-567,36,-29.0231,0.795654,-0.00115116,0.00104381,-0.00650847,0.00654668,-0.00665403,-0.868924,0.00762152,0.0340936,657,988,-29.0231,-0.795648
-560,36,-29.0038,0.868103,-0.000666649,0.000679487,-0.00551268,0.00556003,-0.00554719,-0.846145,0.00641276,0.038592,664,988,-29.0038,-0.868116
-553,36,-28.8589,0.806152,0.00020414,0.000285032,-0.00424724,0.00449202,-0.00400285,-0.790159,0.00490723,0.0402103,671,988,-28.8589,-0.806166
-546,36,-28.7807,0.684998,0.00159479,-0.000193167,-0.00281047,0.00365004,-0.00224842,-0.631414,0.00343737,0.0423786,678,988,-28.7807,-0.68497
-539,36,-29.0532,0.734619,0.00370758,-0.000712743,-0.00152374,0.00418193,-0.00118709,-0.301797,0.00325659,0.0415072,685,988,-29.0531,-0.734632
-532,36,-29.0832,0.636597,0.00653719,-0.000783989,-0.00134552,0.00677664,-0.00102344,-0.17612,0.00489471,0.0445733,692,988,-29.0832,-0.636601
-525,36,-29.0193,0.601074,0.00887016,-0.000178746,-0.0026302,0.00957912,-0.000887706,-0.263289,0.00670161,0.046384,699,988,-29.0193,-0.601084
-518,36,0,0,0,0,0,0,0,0,0,-1,706,988,0,0
-511,36,0,0,0,0,0,0,0,0,0,-1,713,988,0,0
-504,36,0,0,0,0,0,0,0,0,0,-1,720,988,0,0
-497,36,0,0,0,0,0,0,0,0,0,-1,727,988,0,0
-490,36,0,0,0,0,0,0,0,0,0,-1,734,988,0,0
-483,36,0,0,0,0,0,0,0,0,0,-1,741,988,0,0
-476,36,0,0,0,0,0,0,0,0,0,-1,748,988,0,0
-469,36,0,0,0,0,0,0,0,0,0,-1,755,988,0,0
-462,36,0,0,0,0,0,0,0,0,0,-1,762,988,0,0
-455,36,0,0,0,0,0,0,0,0,0,-1,769,988,0,0
-448,36,0,0,0,0,0,0,0,0,0,-1,776,988,0,0
-441,36,0,0,0,0,0,0,0,0,0,-1,783,988,0,0
-434,36,0,0,0,0,0,0,0,0,0,-1,790,988,0,0
-427,36,0,0,0,0,0,0,0,0,0,-1,797,988,0,0
-420,36,0,0,0,0,0,0,0,0,0,-1,804,988,0,0
-413,36,0,0,0,0,0,0,0,0,0,-1,811,988,0,0
-406,36,0,0,0,0,0,0,0,0,0,-1,818,988,0,0
-399,36,0,0,0,0,0,0,0,0,0,-1,825,988,0,0
-392,36,0,0,0,0,0,0,0,0,0,-1,832,988,0,0
-385,36,0,0,0,0,0,0,0,0,0,-1,839,988,0,0
-378,36,0,0,0,0,0,0,0,0,0,-1,846,988,0,0
-371,36,0,0,0,0,0,0,0,0,0,-1,853,988,0,0
-364,36,0,0,0,0,0,0,0,0,0,-1,860,988,0,0
-357,36,0,0,0,0,0,0,0,0,0,-1,867,988,0,0
-350,36,0,0,0,0,0,0,0,0,0,-1,874,988,0,0
-343,36,0,0,0,0,0,0,0,0,0,-1,881,988,0,0
-336,36,0,0,0,0,0,0,0,0,0,-1,888,988,0,0
-329,36,0,0,0,0,0,0,0,0,0,-1,895,988,0,0
-322,36,0,0,0,0,0,0,0,0,0,-1,902,988,0,0
-315,36,0,0,0,0,0,0,0,0,0,-1,909,988,0,0
-308,36,0,0,0,0,0,0,0,0,0,-1,916,988,0,0
-301,36,0,0,0,0,0,0,0,0,0,-1,923,988,0,0
-294,36,0,0,0,0,0,0,0,0,0,-1,930,988,0,0
-287,36,0,0,0,0,0,0,0,0,0,-1,937,988,0,0
-280,36,0,0,0,0,0,0,0,0,0,-1,944,988,0,0
-273,36,0,0,0,0,0,0,0,0,0,-1,951,988,0,0
-266,36,0,0,0,0,0,0,0,0,0,-1,958,988,0,0
-259,36,0,0,0,0,0,0,0,0,0,-1,965,988,0,0
-252,36,0,0,0,0,0,0,0,0,0,-1,972,988,0,0
-245,36,0,0,0,0,0,0,0,0,0,-1,979,988,0,0
-238,36,0,0,0,0,0,0,0,0,0,-1,986,988,0,0
-231,36,0,0,0,0,0,0,0,0,0,-1,993,988,0,0
-224,36,0,0,0,0,0,0,0,0,0,-1,1000,988,0,0
-217,36,0,0,0,0,0,0,0,0,0,-1,1007,988,0,0
-210,36,0,0,0,0,0,0,0,0,0,-1,1014,988,0,0
-203,36,0,0,0,0,0,0,0,0,0,-1,1021,988,0,0
-196,36,0,0,0,0,0,0,0,0,0,-1,1028,988,0,0
-189,36,0,0,0,0,0,0,0,0,0,-1,1035,988,0,0
-182,36,0,0,0,0,0,0,0,0,0,-1,1042,988,0,0
-175,36,0,0,0,0,0,0,0,0,0,-1,1049,988,0,0
-168,36,0,0,0,0,0,0,0,0,0,-1,1056,988,0,0
-161,36,0,0,0,0,0,0,0,0,0,-1,1063,988,0,0
-154,36,0,0,0,0,0,0,0,0,0,-1,1070,988,0,0
-147,36,0,0,0,0,0,0,0,0,0,-1,1077,988,0,0
-140,36,0,0,0,0,0,0,0,0,0,-1,1084,988,0,0
-133,36,0,0,0,0,0,0,0,0,0,-1,1091,988,0,0
-126,36,0,0,0,0,0,0,0,0,0,-1,1098,988,0,0
-119,36,0,0,0,0,0,0,0,0,0,-1,1105,988,0,0
-112,36,0,0,0,0,0,0,0,0,0,-1,1112,988,0,0
-105,36,0,0,0,0,0,0,0,0,0,-1,1119,988,0,0
-98,36,0,0,0,0,0,0,0,0,0,-1,1126,988,0,0
-91,36,0,0,0,0,0,0,0,0,0,-1,1133,988,0,0
-84,36,0,0,0,0,0,0,0,0,0,-1,1140,988,0,0
-77,36,0,0,0,0,0,0,0,0,0,-1,1147,988,0,0
-70,36,0,0,0,0,0,0,0,0,0,-1,1154,988,0,0
-63,36,0,0,0,0,0,0,0,0,0,-1,1161,988,0,0
-56,36,0,0,0,0,0,0,0,0,0,-1,1168,988,0,0
-49,36,0,0,0,0,0,0,0,0,0,-1,1175,988,0,0
-42,36,0,0,0,0,0,0,0,0,0,-1,1182,988,0,0
-35,36,0,0,0,0,0,0,0,0,0,-1,1189,988,0,0
-28,36,0,0,0,0,0,0,0,0,0,-1,1196,988,0,0
-21,36,0,0,0,0,0,0,0,0,0,-1,1203,988,0,0
-14,36,0,0,0,0,0,0,0,0,0,-1,1210,988,0,0
-7,36,0,0,0,0,0,0,0,0,0,-1,1217,988,0,0
0,36,0,0,0,0,0,0,0,0,0,-1,1224,988,0,0
7,36,0,0,0,0,0,0,0,0,0,-1,1231,988,0,0
14,36,0,0,0,0,0,0,0,0,0,-1,1238,988,0,0
21,36,0,0,0,0,0,0,0,0,0,-1,1245,988,0,0
28,36,0,0,0,0,0,0,0,0,0,-1,1252,988,0,0
35,36,0,0,0,0,0,0,0,0,0,-1,1259,988,0,0
42,36,0,0,0,0,0,0,0,0,0,-1,1266,988,0,0
49,36,0,0,0,0,0,0,0,0,0,-1,1273,988,0,0
56,36,0,0,0,0,0,0,0,0,0,-1,1280,988,0,0
63,36,0,0,0,0,0,0,0,0,0,-1,1287,988,0,0
70,36,0,0,0,0,0,0,0,0,0,-1,1294,988,0,0
77,36,0,0,0,0,0,0,0,0,0,-1,1301,988,0,0
84,36,0,0,0,0,0,0,0,0,0,-1,1308,988,0,0
91,36,0,0,0,0,0,0,0,0,0,-1,1315,988,0,0
98,36,0,0,0,0,0,0,0,0,0,-1,1322,988,0,0
105,36,0,0,0,0,0,0,0,0,0,-1,1329,988,0,0
112,36,0,0,0,0,0,0,0,0,0,-1,1336,988,0,0
119,36,0,0,0,0,0,0,0,0,0,-1,1343,988,0,0
126,36,0,0,0,0,0,0,0,0,0,-1,1350,988,0,0
133,36,0,0,0,0,0,0,0,0,0,-1,1357,988,0,0
140,36,0,0,0,0,0,0,0,0,0,-1,1364,988,0,0
147,36,0,0,0,0,0,0,0,0,0,-1,1371,988,0,0
154,36,0,0,0,0,0,0,0,0,0,-1,1378,988,0,0
161,36,0,0,0,0,0,0,0,0,0,-1,1385,988,0,0
168,36,0,0,0,0,0,0,0,0,0,-1,1392,988,0,0
175,36,0,0,0,0,0,0,0,0,0,-1,1399,988,0,0
182,36,0,0,0,0,0,0,0,0,0,-1,1406,988,0,0
189,36,0,0,0,0,0,0,0,0,0,-1,1413,988,0,0
196,36,0,0,0,0,0,0,0,0,0,-1,1420,988,0,0
203,36,0,0,0,0,0,0,0,0,0,-1,1427,988,0,0
210,36,0,0,0,0,0,0,0,0,0,-1,1434,988,0,0
217,36,0,0,0,0,0,0,0,0,0,-1,1441,988,0,0
224,36,0,0,0,0,0,0,0,0,0,-1,1448,988,0,0
231,36,0,0,0,0,0,0,0,0,0,-1,1455,988,0,0
238,36,0,0,0,0,0,0,0,0,0,-1,1462,988,0,0
245,36,0,0,0,0,0,0,0,0,0,-1,1469,988,0,0
252,36,0,0,0,0,0,0,0,0,0,-1,1476,988,0,0
259,36,0,0,0,0,0,0,0,0,0,-1,1483,988,0,0
266,36,0,0,0,0,0,0,0,0,0,-1,1490,988,0,0
273,36,0,0,0,0,0,0,0,0,0,-1,1497,988,0,0
280,36,0,0,0,0,0,0,0,0,0,-1,1504,988,0,0
287,36,0,0,0,0,0,0,0,0,0,-1,1511,988,0,0
294,36,0,0,0,0,0,0,0,0,0,-1,1518,988,0,0
301,36,0,0,0,0,0,0,0,0,0,-1,1525,988,0,0
308,36,0,0,0,0,0,0,0,0,0,-1,1532,988,0,0
315,36,0,0,0,0,0,0,0,0,0,-1,1539,988,0,0
322,36,0,0,0,0,0,0,0,0,0,-1,1546,988,0,0
329,36,0,0,0,0,0,0,0,0,0,-1,1553,988,0,0
336,36,0,0,0,0,0,0,0,0,0,-1,1560,988,0,0
343,36,0,0,0,0,0,0,0,0,0,-1,1567,988,0,0
350,36,0,0,0,0,0,0,0,0,0,-1,1574,988,0,0
357,36,0,0,0,0,0,0,0,0,0,-1,1581,988,0,0
364,36,0,0,0,0,0,0,0,0,0,-1,1588,988,0,0
371,36,0,0,0,0,0,0,0,0,0,-1,1595,988,0,0
378,36,0,0,0,0,0,0,0,0,0,-1,1602,988,0,0
385,36,0,0,0,0,0,0,0,0,0,-1,1609,988,0,0
392,36,0,0,0,0,0,0,0,0,0,-1,1616,988,0,0
399,36,0,0,0,0,0,0,0,0,0,-1,1623,988,0,0
406,36,0,0,0,0,0,0,0,0,0,-1,1630,988,0,0
413,36,0,0,0,0,0,0,0,0,0,-1,1637,988,0,0
420,36,0,0,0,0,0,0,0,0,0,-1,1644,988,0,0
427,36,0,0,0,0,0,0,0,0,0,-1,1651,988,0,0
434,36,0,0,0,0,0,0,0,0,0,-1,1658,988,0,0
441,36,0,0,0,0,0,0,0,0,0,-1,1665,988,0,0
448,36,0,0,0,0,0,0,0,0,0,-1,1672,988,0,0
455,36,0,0,0,0,0,0,0,0,0,-1,1679,988,0,0
462,36,0,0,0,0,0,0,0,0,0,-1,1686,988,0,0
469,36,0,0,0,0,0,0,0,0,0,-1,1693,988,0,0
476,36,0,0,0,0,0,0,0,0,0,-1,1700,988,0,0
483,36,0,0,0,0,0,0,0,0,0,-1,1707,988,0,0
490,36,0,0,0,0,0,0,0,0,0,-1,1714,988,0,0
497,36,0,0,0,0,0,0,0,0,0,-1,1721,988,0,0
504,36,0,0,0,0,0,0,0,0,0,-1,1728,988,0,0
511,36,0,0,0,0,0,0,0,0,0,-1,1735,988,0,0
518,36,0,0,0,0,0,0,0,0,0,-1,1742,988,0,0
525,36,0,0,0,0,0,0,0,0,0,-1,1749,988,0,0
532,36,0,0,0,0,0,0,0,0,0,-1,1756,988,0,0
539,36,0,0,0,0,0,0,0,0,0,-1,1763,988,0,0
546,36,0,0,0,0,0,0,0,0,0,-1,1770,988,0,0
553,36,0,0,0,0,0,0,0,0,0,-1,1777,988,0,0
560,36,0,0,0,0,0,0,0,0,0,-1,1784,988,0,0
567,36,0,0,0,0,0,0,0,0,0,-1,1791,988,0,0
574,36,0,0,0,0,0,0,0,0,0,-1,1798,988,0,0
581,36,0,0,0,0,0,0,0,0,0,-1,1805,988,0,0
588,36,0,0,0,0,0,0,0,0,0,-1,1812,988,0,0
595,36,0,0,0,0,0,0,0,0,0,-1,1819,988,0,0
602,36,0,0,0,0,0,0,0,0,0,-1,1826,988,0,0
609,36,0,0,0,0,0,0,0,0,0,-1,1833,988,0,0
616,36,0,0,0,0,0,0,0,0,0,-1,1840,988,0,0
623,36,0,0,0,0,0,0,0,0,0,-1,1847,988,0,0
630,36,0,0,0,0,0,0,0,0,0,-1,1854,988,0,0
637,36,0,0,0,0,0,0,0,0,0,-1,1861,988,0,0
644,36,39.5521,2.62982,0.00196352,0.0054068,0.00391771,0.00796447,-0.000594143,0.992422,0.00551837,0.0387077,1868,988,39.5521,-2.62981
651,36,39.5419,2.74878,0.00147668,0.00377767,0.00260361,0.00547365,-0.000219297,0.99344,0.00372435,0.0416135,1875,988,39.5419,-2.7488
658,36,39.712,2.84045,0.00103578,0.00269203,0.00176252,0.00381129,-8.347e-05,1.00502,0.00256913,0.0430126,1882,988,39.7121,-2.84045
665,36,39.6195,2.82739,0.00064031,0.00214845,0.00144969,0.00302846,-0.000239699,1.02522,0.00210343,0.039333,1889,988,39.6195,-2.8274
672,36,39.5594,2.76257,0.000293045,0.00190516,0.00148178,0.00278593,-0.000587731,1.0345,0.00208105,0.0385949,1896,988,39.5594,-2.76255
679,36,39.6196,2.64709,-6.55548e-06,0.00177532,0.00171421,0.0028163,-0.00104753,1.02505,0.00230738,0.0380023,1903,988,39.6196,-2.64709
686,36,39.5817,2.52399,-0.000120899,0.00161381,0.00196009,0.00288988,-0.00139696,0.993701,0.00252454,0.0344276,1910,988,39.5817,-2.524
693,36,39.5751,2.58466,-0.000134777,0.00139065,0.00214624,0.00290567,-0.00164979,0.956125,0.0026632,0.0367125,1917,988,39.5751,-2.58466
700,36,39.5573,2.64923,-0.000322093,0.00121175,0.00212033,0.00269959,-0.00180993,0.958928,0.00262041,0.0370084,1924,988,39.5573,-2.6492
707,36,39.6387,2.58154,-0.000595951,0.00129198,0.0019234,0.00249057,-0.00179454,1.01352,0.00248486,0.0284195,1931,988,39.6387,-2.58157
714,36,39.626,2.88019,-0.00100878,0.00154877,0.00165552,0.00236189,-0.0018219,1.11425,0.00242221,0.0401959,1938,988,39.626,-2.88017
721,36,39.155,4.47827,0,0,0,0,0,0,0,-1,1945,988,39.155,-4.47827
728,36,38.9933,4.73267,-0.00212867,0.00268262,0.00137963,0.00305014,-0.0024962,1.31044,0.0032075,0.0224482,1952,988,38.9933,-4.73265
735,36,38.8854,4.96619,-0.0023269,0.00364623,0.000882394,0.00377385,-0.00245452,1.42716,0.00362275,0.0195533,1959,988,38.8854,-4.96616
742,36,38.8646,5.0564,-0.00293892,0.00485535,0.000219538,0.00486152,-0.0029451,1.54266,0.0045522,0.0158458,1966,988,38.8647,-5.0564
749,36,38.8605,5.24445,-0.00421742,0.00674856,-0.000471683,0.00676881,-0.00423767,-1.52789,0.00641036,0.0166444,1973,988,38.8604,-5.24444
756,36,38.8362,5.4079,-0.00620755,0.00974717,-0.00131907,0.00985549,-0.00631587,-1.48886,0.00941079,0.0155574,1980,988,38.8362,-5.40787
763,36,38.7764,5.53851,-0.00946352,0.0150617,-0.0019289,0.0152125,-0.00961431,-1.49279,0.0144547,0.0179516,1987,988,38.7763,-5.5385
770,36,38.7045,5.69037,-0.0132857,0.0215259,-0.00242685,0.0216942,-0.013454,-1.50153,0.0204779,0.0164011,1994,988,38.7045,-5.69038
777,36,38.6573,5.89581,-0.0184003,0.0299443,-0.00254792,0.0300782,-0.0185342,-1.51829,0.0283289,0.0258769,2001,988,38.6574,-5.89581
784,36,38.7313,5.95563,-0.0249726,0.0399827,-0.00245688,0.0400755,-0.0250654,-1.53304,0.0379405,0.0466415,2008,988,38.7313,-5.95562
791,36,39.1335,5.66003,-0.0336324,0.0524286,-0.00200159,0.0524751,-0.033679,-1.54756,0.0501341,0.0447235,2015,988,39.1336,-5.66004
798,36,38.8889,5.84521,-0.0449343,0.0678866,-0.000986253,0.0678953,-0.0449429,-1.56206,0.0655949,0.0408744,2022,988,38.8889,-5.84524
805,36,38.1919,5.88092,-0.0597902,0.0874613,0.000959531,0.0874676,-0.0597965,1.56428,0.0855218,0.0438793,2029,988,38.1919,-5.88092
812,36,37.1885,5.74695,-0.0792146,0.112488,0.00430386,0.112585,-0.0793111,1.54836,0.111345,0.0466826,2036,988,37.1884,-5.74698
-700,29,0,0,0,0,0,0,0,0,0,-1,524,995,0,0
-693,29,-26.4017,2.72723,-0.0522706,0.00774461,0.0234016,0.0157908,-0.0603167,1.23963,0.0463796,0.0416529,531,995,-26.4017,-2.72726
-686,29,-26.884,3.21094,-0.0461452,0.0126549,0.0185858,0.0180369,-0.0515273,1.28893,0.0416855,0.0426432,538,995,-26.884,-3.21096
-679,29,-27.7004,3.50885,-0.0402736,0.015633,0.0149378,0.0193739,-0.0440145,1.32541,0.0375077,0.0454346,545,995,-27.7004,-3.50887
-672,29,-27.9672,3.85736,-0.0345931,0.0172886,0.0119779,0.0199204,-0.037225,1.35451,0.0334933,0.0442893,552,995,-27.9672,-3.85737
-665,29,-29.1135,3.43732,0,0,0,0,0,0,0,-1,559,995,-29.1135,-3.4373
-658,29,-28.9654,3.24841,-0.0242161,0.0176885,0.00749561,0.0189889,-0.0255165,1.39902,0.0257872,0.0425236,566,995,-28.9654,-3.24842
-651,29,-28.7968,2.79022,-0.0195897,0.0166822,0.00579205,0.0175847,-0.0204921,1.41623,0.022005,0.0406387,573,995,-28.7968,-2.79025
-644,29,-28.9949,2.57507,-0.0152335,0.0152586,0.0040623,0.0157905,-0.0157654,1.4406,0.0182188,0.0235524,580,995,-28.9949,-2.57506
-637,29,-29.1085,2.71527,-0.0114016,0.0139082,0.00206518,0.0140756,-0.011569,1.48991,0.0148295,0.0160699,587,995,-29.1085,-2.71529
-630,29,-29.1415,2.72046,-0.00797919,0.0122888,-5.8644e-05,0.0122889,-0.00797936,-1.5679,0.0117897,0.0122965,594,995,-29.1415,-2.72045
-623,29,-29.1494,2.66498,-0.00510364,0.00998449,-0.00209024,0.0102687,-0.00538786,-1.43565,0.00918457,0.0111173,601,995,-29.1494,-2.66501
-616,29,-29.1705,2.54865,-0.00313511,0.0083355,-0.00383522,0.00949966,-0.00429927,-1.27609,0.00815322,0.0138377,608,995,-29.1705,-2.54865
-609,29,-29.1769,2.45587,-0.00200698,0.00668651,-0.00521349,0.0091276,-0.00444807,-1.13289,0.00799162,0.0209755,615,995,-29.1769,-2.45586
-602,29,-29.1673,2.3399,-0.00144829,0.00520962,-0.0060516,0.00878746,-0.00502613,-1.03686,0.00807323,0.021612,622,995,-29.1673,-2.33992
-595,29,-29.1376,2.17914,-0.00106686,0.00339858,-0.00700833,0.00852125,-0.00618953,-0.939605,0.00852876,0.0221347,629,995,-29.1376,-2.17916
-588,29,-29.0361,1.6236,-0.000748395,0.00255359,-0.00766984,0.00874812,-0.00694293,-0.89141,0.00907919,0.0303898,636,995,-29.0361,-1.62357
-581,29,-28.9701,1.02655,-0.000277613,0.00200438,-0.00789519,0.00884059,-0.00711382,-0.85716,0.00922925,0.0381363,643,995,-28.9701,-1.02654
-574,29,-28.9893,0.683594,-6.69645e-05,0.00159816,-0.00759129,0.0084024,-0.00687121,-0.840016,0.00883298,0.0309603,650,995,-28.9893,-0.683566
-567,29,-29.0135,0.62262,5.99747e-05,0.00121786,-0.00684068,0.00750405,-0.00622622,-0.827614,0.00793861,0.032594,657,995,-29.0135,-0.622636
-560,29,-29.0732,0.739319,0.000370388,0.00081104,-0.00566136,0.00625636,-0.00507493,-0.804847,0.00655397,0.0366055,664,995,-29.0732,-0.739288
-553,29,-29.0726,0.889221,0.000979194,0.000348465,-0.00419103,0.00486671,-0.00353905,-0.747845,0.0048732,0.0397987,671,995,-29.0726,-0.889221
-546,29,-29.0606,0.749817,0.00204039,-0.000234475,-0.00254094,0.00368686,-0.00188095,-0.574953,0.00327046,0.0404879,678,995,-29.0606,-0.749806
-539,29,-28.9335,0.549622,0.00380148,-0.000845508,-0.00113631,0.00406445,-0.00110848,-0.227426,0.00314494,0.0401909,685,995,-28.9335,-0.549616
-532,29,-28.8678,0.599365,0.00630374,-0.000891883,-0.00107094,0.00645975,-0.00104789,-0.144656,0.00469494,0.043406,692,995,-28.8678,-0.599364
-525,29,-28.9925,0.637207,0.00850516,-0.000262839,-0.00247709,0.00915658,-0.000914255,-0.257154,0.00643084,0.043135,699,995,-28.9925,-0.637212
-518,29,0,0,0,0,0,0,0,0,0,-1,706,995,0,0
-511,29,0,0,0,0,0,0,0,0,0,-1,713,995,0,0
-504,29,0,0,0,0,0,0,0,0,0,-1,720,995,0,0
-497,29,0,0,0,0,0,0,0,0,0,-1,727,995,0,0
-490,29,0,0,0,0,0,0,0,0,0,-1,734,995,0,0
-483,29,0,0,0,0,0,0,0,0,0,-1,741,995,0,0
-476,29,0,0,0,0,0,0,0,0,0,-1,748,995,0,0
-469,29,0,0,0,0,0,0,0,0,0,-1,755,995,0,0
-462,29,0,0,0,0,0,0,0,0,0,-1,762,995,0,0
-455,29,0,0,0,0,0,0,0,0,0,-1,769,995,0,0
-448,29,0,0,0,0,0,0,0,0,0,-1,776,995,0,0
-441,29,0,0,0,0,0,0,0,0,0,-1,783,995,0,0
-434,29,0,0,0,0,0,0,0,0,0,-1,790,995,0,0
-427,29,0,0,0,0,0,0,0,0,0,-1,797,995,0,0
-420,29,0,0,0,0,0,0,0,0,0,-1,804,995,0,0
-413,29,0,0,0,0,0,0,0,0,0,-1,811,995,0,0
-406,29,0,0,0,0,0,0,0,0,0,-1,818,995,0,0
-399,29,0,0,0,0,0,0,0,0,0,-1,825,995,0,0
-392,29,0,0,0,0,0,0,0,0,0,-1,832,995,0,0
-385,29,0,0,0,0,0,0,0,0,0,-1,839,995,0,0
-378,29,0,0,0,0,0,0,0,0,0,-1,846,995,0,0
-371,29,0,0,0,0,0,0,0,0,0,-1,853,995,0,0
-364,29,0,0,0,0,0,0,0,0,0,-1,860,995,0,0
-357,29,0,0,0,0,0,0,0,0,0,-1,867,995,0,0
-350,29,0,0,0,0,0,0,0,0,0,-1,874,995,0,0
-343,29,0,0,0,0,0,0,0,0,0,-1,881,995,0,0
-336,29,0,0,0,0,0,0,0,0,0,-1,888,995,0,0
-329,29,0,0,0,0,0,0,0,0,0,-1,895,995,0,0
-322,29,0,0,0,0,0,0,0,0,0,-1,902,995,0,0
-315,29,0,0,0,0,0,0,0,0,0,-1,909,995,0,0
-308,29,0,0,0,0,0,0,0,0,0,-1,916,995,0,0
-301,29,0,0,0,0,0,0,0,0,0,-1,923,995,0,0
-294,29,0,0,0,0,0,0,0,0,0,-1,930,995,0,0
-287,29,0,0,0,0,0,0,0,0,0,-1,937,995,0,0
-280,29,0,0,0,0,0,0,0,0,0,-1,944,995,0,0
-273,29,0,0,0,0,0,0,0,0,0,-1,951,995,0,0
-266,29,0,0,0,0,0,0,0,0,0,-1,958,995,0,0
-259,29,0,0,0,0,0,0,0,0,0,-1,965,995,0,0
-252,29,0,0,0,0,0,0,0,0,0,-1,972,995,0,0
-245,29,0,0,0,0,0,0,0,0,0,-1,979,995,0,0
-238,29,0,0,0,0,0,0,0,0,0,-1,986,995,0,0
-231,29,0,0,0,0,0,0,0,0,0,-1,993,995,0,0
-224,29,0,0,0,0,0,0,0,0,0,-1,1000,995,0,0
-217,29,0,0,0,0,0,0,0,0,0,-1,1007,995,0,0
-210,29,0,0,0,0,0,0,0,0,0,-1,1014,995,0,0
-203,29,0,0,0,0,0,0,0,0,0,-1,1021,995,0,0
-196,29,0,0,0,0,0,0,0,0,0,-1,1028,995,0,0
-189,29,0,0,0,0,0,0,0,0,0,-1,1035,995,0,0
-182,29,0,0,0,0,0,0,0,0,0,-1,1042,995,0,0
-175,29,0,0,0,0,0,0,0,0,0,-1,1049,995,0,0
-168,29,0,0,0,0,0,0,0,0,0,-1,1056,995,0,0
-161,29,0,0,0,0,0,0,0,0,0,-1,1063,995,0,0
-154,29,0,0,0,0,0,0,0,0,0,-1,1070,995,0,0
-147,29,0,0,0,0,0,0,0,0,0,-1,1077,995,0,0
-140,29,0,0,0,0,0,0,0,0,0,-1,1084,995,0,0
-133,29,0,0,0,0,0,0,0,0,0,-1,1091,995,0,0
-126,29,0,0,0,0,0,0,0,0,0,-1,1098,995,0,0
-119,29,0,0,0,0,0,0,0,0,0,-1,1105,995,0,0
-112,29,0,0,0,0,0,0,0,0,0,-1,1112,995,0,0
-105,29,0,0,0,0,0,0,0,0,0,-1,1119,995,0,0
-98,29,0,0,0,0,0,0,0,0,0,-1,1126,995,0,0
-91,29,0,0,0,0,0,0,0,0,0,-1,1133,995,0,0
-84,29,0,0,0,0,0,0,0,0,0,-1,1140,995,0,0
-77,29,0,0,0,0,0,0,0,0,0,-1,1147,995,0,0
-70,29,0,0,0,0,0,0,0,0,0,-1,1154,995,0,0
-63,29,0,0,0,0,0,0,0,0,0,-1,1161,995,0,0
-56,29,0,0,0,0,0,0,0,0,0,-1,1168,995,0,0
-49,29,0,0,0,0,0,0,0,0,0,-1,1175,995,0,0
-42,29,0,0,0,0,0,0,0,0,0,-1,1182,995,0,0
-35,29,0,0,0,0,0,0,0,0,0,-1,1189,995,0,0
-28,29,0,0,0,0,0,0,0,0,0,-1,1196,995,0,0
-21,29,0,0,0,0,0,0,0,0,0,-1,1203,995,0,0
-14,29,0,0,0,0,0,0,0,0,0,-1,1210,995,0,0
-7,29,0,0,0,0,0,0,0,0,0,-1,1217,995,0,0
0,29,0,0,0,0,0,0,0,0,0,-1,1224,995,0,0
7,29,0,0,0,0,0,0,0,0,0,-1,1231,995,0,0
14,29,0,0,0,0,0,0,0,0,0,-1,1238,995,0,0
21,29,0,0,0,0,0,0,0,0,0,-1,1245,995,0,0
28,29,0,0,0,0,0,0,0,0,0,-1,1252,995,0,0
35,29,0,0,0,0,0,0,0,0,0,-1,1259,995,0,0
42,29,0,0,0,0,0,0,0,0,0,-1,1266,995,0,0
49,29,0,0,0,0,0,0,0,0,0,-1,1273,995,0,0
56,29,0,0,0,0,0,0,0,0,0,-1,1280,995,0,0
63,29,0,0,0,0,0,0,0,0,0,-1,1287,995,0,0
70,29,0,0,0,0,0,0,0,0,0,-1,1294,995,0,0
77,29,0,0,0,0,0,0,0,0,0,-1,1301,995,0,0
84,29,0,0,0,0,0,0,0,0,0,-1,1308,995,0,0
91,29,0,0,0,0,0,0,0,0,0,-1,1315,995,0,0
98,29,0,0,0,0,0,0,0,0,0,-1,1322,995,0,0
105,29,0,0,0,0,0,0,0,0,0,-1,1329,995,0,0
112,29,0,0,0,0,0,0,0,0,0,-1,1336,995,0,0
119,29,0,0,0,0,0,0,0,0,0,-1,1343,995,0,0
126,29,0,0,0,0,0,0,0,0,0,-1,1350,995,0,0
133,29,0,0,0,0,0,0,0,0,0,-1,1357,995,0,0
140,29,0,0,0,0,0,0,0,0,0,-1,1364,995,0,0
147,29,0,0,0,0,0,0,0,0,0,-1,1371,995,0,0
154,29,0,0,0,0,0,0,0,0,0,-1,1378,995,0,0
161,29,0,0,0,0,0,0,0,0,0,-1,1385,995,0,0
168,29,0,0,0,0,0,0,0,0,0,-1,1392,995,0,0
175,29,0,0,0,0,0,0,0,0,0,-1,1399,995,0,0
182,29,0,0,0,0,0,0,0,0,0,-1,1406,995,0,0
189,29,0,0,0,0,0,0,0,0,0,-1,1413,995,0,0
196,29,0,0,0,0,0,0,0,0,0,-1,1420,995,0,0
203,29,0,0,0,0,0,0,0,0,0,-1,1427,995,0,0
210,29,0,0,0,0,0,0,0,0,0,-1,1434,995,0,0
217,29,0,0,0,0,0,0,0,0,0,-1,1441,995,0,0
224,29,0,0,0,0,0,0,0,0,0,-1,1448,995,0,0
231,29,0,0,0,0,0,0,0,0,0,-1,1455,995,0,0
238,29,0,0,0,0,0,0,0,0,0,-1,1462,995,0,0
245,29,0,0,0,0,0,0,0,0,0,-1,1469,995,0,0
252,29,0,0,0,0,0,0,0,0,0,-1,1476,995,0,0
259,29,0,0,0,0,0,0,0,0,0,-1,1483,995,0,0
266,29,0,0,0,0,0,0,0,0,0,-1,1490,995,0,0
273,29,0,0,0,0,0,0,0,0,0,-1,1497,995,0,0
280,29,0,0,0,0,0,0,0,0,0,-1,1504,995,0,0
287,29,0,0,0,0,0,0,0,0,0,-1,1511,995,0,0
294,29,0,0,0,0,0,0,0,0,0,-1,1518,995,0,0
301,29,0,0,0,0,0,0,0,0,0,-1,1525,995,0,0
308,29,0,0,0,0,0,0,0,0,0,-1,1532,995,0,0
315,29,0,0,0,0,0,0,0,0,0,-1,1539,995,0,0
322,29,0,0,0,0,0,0,0,0,0,-1,1546,995,0,0
329,29,0,0,0,0,0,0,0,0,0,-1,1553,995,0,0
336,29,0,0,0,0,0,0,0,0,0,-1,1560,995,0,0
343,29,0,0,0,0,0,0,0,0,0,-1,1567,995,0,0
350,29,0,0,0,0,0,0,0,0,0,-1,1574,995,0,0
357,29,0,0,0,0,0,0,0,0,0,-1,1581,995,0,0
364,29,0,0,0,0,0,0,0,0,0,-1,1588,995,0,0
371,29,0,0,0,0,0,0,0,0,0,-1,1595,995,0,0
378,29,0,0,0,0,0,0,0,0,0,-1,1602,995,0,0
385,29,0,0,0,0,0,0,0,0,0,-1,1609,995,0,0
392,29,0,0,0,0,0,0,0,0,0,-1,1616,995,0,0
399,29,0,0,0,0,0,0,0,0,0,-1,1623,995,0,0
406,29,0,0,0,0,0,0,0,0,0,-1,1630,995,0,0
413,29,0,0,0,0,0,0,0,0,0,-1,1637,995,0,0
420,29,0,0,0,0,0,0,0,0,0,-1,1644,995,0,0
427,29,0,0,0,0,0,0,0,0,0,-1,1651,995,0,0
434,29,0,0,0,0,0,0,0,0,0,-1,1658,995,0,0
441,29,0,0,0,0,0,0,0,0,0,-1,1665,995,0,0
448,29,0,0,0,0,0,0,0,0,0,-1,1672,995,0,0
455,29,0,0,0,0,0,0,0,0,0,-1,1679,995,0,0
462,29,0,0,0,0,0,0,0,0,0,-1,1686,995,0,0
469,29,0,0,0,0,0,0,0,0,0,-1,1693,995,0,0
476,29,0,0,0,0,0,0,0,0,0,-1,1700,995,0,0
483,29,0,0,0,0,0,0,0,0,0,-1,1707,995,0,0
490,29,0,0,0,0,0,0,0,0,0,-1,1714,995,0,0
497,29,0,0,0,0,0,0,0,0,0,-1,1721,995,0,0
504,29,0,0,0,0,0,0,0,0,0,-1,1728,995,0,0
511,29,0,0,0,0,0,0,0,0,0,-1,1735,995,0,0
518,29,0,0,0,0,0,0,0,0,0,-1,1742,995,0,0
525,29,0,0,0,0,0,0,0,0,0,-1,1749,995,0,0
532,29,0,0,0,0,0,0,0,0,0,-1,1756,995,0,0
539,29,0,0,0,0,0,0,0,0,0,-1,1763,995,0,0
546,29,0,0,0,0,0,0,0,0,0,-1,1770,995,0,0
553,29,0,0,0,0,0,0,0,0,0,-1,1777,995,0,0
560,29,0,0,0,0,0,0,0,0,0,-1,1784,995,0,0
567,29,0,0,0,0,0,0,0,0,0,-1,1791,995,0,0
574,29,0,0,0,0,0,0,0,0,0,-1,1798,995,0,0
581,29,0,0,0,0,0,0,0,0,0,-1,1805,995,0,0
588,29,0,0,0,0,0,0,0,0,0,-1,1812,995,0,0
595,29,0,0,0,0,0,0,0,0,0,-1,1819,995,0,0
602,29,0,0,0,0,0,0,0,0,0,-1,1826,995,0,0
609,29,0,0,0,0,0,0,0,0,0,-1,1833,995,0,0
616,29,0,0,0,0,0,0,0,0,0,-1,1840,995,0,0
623,29,0,0,0,0,0,0,0,0,0,-1,1847,995,0,0
630,29,0,0,0,0,0,0,0,0,0,-1,1854,995,0,0
637,29,0,0,0,0,0,0,0,0,0,-1,1861,995,0,0
644,29,39.5948,2.70642,0.00237274,0.00564965,0.0053287,0.0095861,-0.00156371,0.93455,0.00697068,0.0388799,1868,995,39.5948,-2.70643
651,29,39.5808,2.77771,0.00165438,0.00392036,0.003538,0.00650236,-0.000927613,0.940356,0.00467489,0.0402782,1875,995,39.5809,-2.77771
658,29,39.5455,2.93896,0.00109631,0.00276786,0.00233889,0.00441581,-0.000551643,0.956997,0.00314393,0.0435433,1882,995,39.5455,-2.93894
665,29,39.4398,3.00623,0.000668272,0.00217021,0.00175663,0.00332966,-0.000491177,0.987394,0.00240031,0.0420681,1889,995,39.4398,-3.00623
672,29,39.4689,2.81488,0.000336882,0.00189553,0.00158709,0.00288431,-0.000651897,1.01363,0.00217302,0.0391218,1896,995,39.4689,-2.81489
679,29,39.4727,2.74365,5.74815e-05,0.00177246,0.00168426,0.00280495,-0.000975009,1.02086,0.002266,0.0368895,1903,995,39.4727,-2.74362
686,29,39.5637,2.55859,-5.95677e-05,0.00162925,0.00186648,0.00283345,-0.00126376,0.997826,0.0024227,0.0342531,1910,995,39.5637,-2.55862
693,29,39.6389,2.58704,-9.33728e-05,0.00142903,0.00203297,0.00283863,-0.00150297,0.964533,0.00254586,0.0369421,1917,995,39.639,-2.58702
700,29,39.5792,2.65454,-0.000278972,0.00124415,0.00201505,0.00263675,-0.00167157,0.966069,0.00250813,0.0356872,1924,995,39.5792,-2.65453
707,29,39.5652,2.64008,-0.000530025,0.00133638,0.00183708,0.0024637,-0.00165734,1.0204,0.00239441,0.0255184,1931,995,39.5652,-2.6401
714,29,39.5835,2.96021,-0.000923175,0.00159634,0.00159848,0.00237181,-0.00169864,1.11912,0.00236076,0.0391753,1938,995,39.5836,-2.96023
721,29,39.1874,4.43988,0,0,0,0,0,0,0,-1,1945,995,39.1874,-4.43986
728,29,39.0931,4.75708,-0.00216421,0.00271703,0.00135405,0.00306748,-0.00251466,1.31754,0.00322812,0.0266441,1952,995,39.0931,-4.7571
735,29,39.0264,5.01434,-0.00248979,0.00366732,0.000858327,0.00378473,-0.0026072,1.43484,0.0037112,0.0155739,1959,995,39.0263,-5.01435
742,29,39.0258,5.09979,-0.00324038,0.00486798,0.000195525,0.00487269,-0.00324509,1.5467,0.0047181,0.0135646,1966,995,39.0258,-5.09981
749,29,39.0056,5.22717,-0.00465609,0.00667327,-0.000528988,0.00669792,-0.00468074,-1.52424,0.00660379,0.0145032,1973,995,39.0056,-5.22718
756,29,38.9902,5.38391,-0.00681312,0.00953456,-0.00152397,0.00967541,-0.00695397,-1.47863,0.00964374,0.0138084,1980,995,38.9902,-5.38393
763,29,38.9556,5.48511,-0.0102306,0.0145614,-0.00242783,0.0147969,-0.0104661,-1.47409,0.0146569,0.0120765,1987,995,38.9556,-5.48509
770,29,38.8768,5.56024,-0.0143406,0.0206932,-0.0033562,0.0210118,-0.0146593,-1.47614,0.0207033,0.0158834,1994,995,38.8768,-5.56021
777,29,38.8158,5.75354,-0.0199299,0.0288706,-0.00406279,0.0292066,-0.0202658,-1.4883,0.028718,0.0265152,2001,995,38.8157,-5.75355
784,29,39.0063,5.63531,-0.026955,0.0385057,-0.00473605,0.0388466,-0.0272959,-1.49895,0.038381,0.0446682,2008,995,39.0063,-5.63531
791,29,39.3567,5.26141,-0.0360529,0.0502742,-0.00533701,0.0506029,-0.0363816,-1.50929,0.0504438,0.043491,2015,995,39.3566,-5.26143
798,29,39.1997,5.35181,-0.047751,0.0647261,-0.00576506,0.0650208,-0.0480458,-1.51972,0.0655238,0.04262,2022,995,39.1997,-5.35183
805,29,37.4951,5.09979,-0.0628743,0.0827927,-0.00583477,0.083026,-0.0631077,-1.53083,0.0846312,0.0420184,2029,995,37.4952,-5.09979
812,29,36.1045,4.45953,-0.0823395,0.10559,-0.00530203,0.10574,-0.082489,-1.54261,0.10895,0.0462946,2036,995,36.1045,-4.45955
-700,22,0,0,0,0,0,0,0,0,0,-1,524,1002,0,0
-693,22,-27.4943,3.6062,-0.0499843,0.0248063,0.0196913,0.0296739,-0.054852,1.32846,0.0495175,0.0429106,531,1002,-27.4943,-3.60617
-686,22,-26.8266,3.3125,-0.043599,0.0267517,0.0151332,0.029869,-0.0467162,1.36765,0.0445717,0.0457019,538,1002,-26.8266,-3.31252
-679,22,-27.9667,3.68011,0,0,0,0,0,0,0,-1,545,1002,-27.9667,-3.68013
-672,22,-27.8224,4.07233,-0.0322248,0.0264039,0.00923909,0.0278254,-0.0336463,1.41814,0.0355437,0.0479705,552,1002,-27.8224,-4.07235
-665,22,-27.9536,4.29138,-0.0270709,0.0250186,0.00714792,0.0259817,-0.0280339,1.43687,0.0311934,0.0450762,559,1002,-27.9536,-4.29139
-658,22,-29.0936,2.98914,0,0,0,0,0,0,0,-1,566,1002,-29.0937,-2.98911
-651,22,-28.6257,1.25336,-0.0179954,0.020604,0.00410418,0.0210356,-0.018427,1.46603,0.0228003,0.0474796,573,1002,-28.6257,-1.25333
-644,22,-29.0248,2.34088,-0.0139295,0.0179927,0.0026298,0.0182079,-0.0141447,1.48915,0.0187278,0.0269757,580,1002,-29.0248,-2.34089
-637,22,-29.1727,2.62659,-0.0102959,0.0155961,0.000799885,0.0156208,-0.0103206,1.53994,0.0150811,0.018474,587,1002,-29.1727,-2.62657
-630,22,-29.2308,2.63568,-0.00698637,0.0131292,-0.00117351,0.0131975,-0.0070546,-1.51272,0.0118705,0.0132355,594,1002,-29.2307,-2.63567
-623,22,-29.2667,2.59735,-0.00422773,0.0102912,-0.00308225,0.0109184,-0.00485497,-1.37004,0.00932838,0.0112005,601,1002,-29.2667,-2.59734
-616,22,-29.2621,2.49548,-0.00235966,0.00834545,-0.00478593,0.0101731,-0.00418728,-1.20601,0.00852767,0.0172262,608,1002,-29.2622,-2.4955
-609,22,-29.3273,2.43115,-0.00125628,0.0065724,-0.00610752,0.00991229,-0.00459617,-1.07038,0.00856185,0.0274416,615,1002,-29.3273,-2.43114
-602,22,-29.3671,2.37006,-0.00062538,0.00510423,-0.00693061,0.00973879,-0.00525994,-0.981381,0.00878727,0.0259446,622,1002,-29.3671,-2.37004
-595,22,-29.2597,2.19611,-0.00015215,0.00332538,-0.00788365,0.00965973,-0.0064865,-0.893937,0.00938185,0.0242287,629,1002,-29.2597,-2.19612
-588,22,-29.0634,1.67175,0.000259846,0.00250919,-0.00850493,0.00996349,-0.00719445,-0.851136,0.00994905,0.0362171,636,1002,-29.0634,-1.67177
-581,22,-28.9446,1.17474,0.000803026,0.00196433,-0.00865756,0.0100607,-0.00729333,-0.818882,0.0100617,0.041774,643,1002,-28.9446,-1.17472
-574,22,-28.9827,0.73938,0.000977208,0.00155716,-0.00824155,0.00951383,-0.00697946,-0.802983,0.00955981,0.0343336,650,1002,-28.9827,-0.739387
-567,22,-28.9648,0.608337,0.00100474,0.00116132,-0.00729814,0.00838159,-0.00621553,-0.790762,0.00845852,0.032193,657,1002,-28.9648,-0.608338
-560,22,-29.0283,0.660278,0.00114733,0.000733666,-0.00589143,0.00683556,-0.00495456,-0.767852,0.00683584,0.0359845,664,1002,-29.0283,-0.660294
-553,22,-29.1119,0.84375,0.00150118,0.000216473,-0.0041563,0.00506447,-0.00334682,-0.70873,0.0048899,0.0386893,671,1002,-29.1119,-0.84375
-546,22,-29.1327,0.916748,0.0022393,-0.000474628,-0.00221913,0.00348347,-0.0017188,-0.510988,0.00306059,0.0391817,678,1002,-29.1327,-0.916767
-539,22,-29.0473,0.71405,0.00365266,-0.00119954,-0.000637599,0.00373504,-0.00128192,-0.128498,0.00300975,0.0419084,685,1002,-29.0473,-0.714067
-532,22,-28.8723,0.618652,0.00584555,-0.00128241,-0.000672182,0.00590838,-0.00134524,-0.0932073,0.00445555,0.0427236,692,1002,-28.8722,-0.61868
-525,22,0,0,0,0,0,0,0,0,0,-1,699,1002,0,0
-518,22,0,0,0,0,0,0,0,0,0,-1,706,1002,0,0
-511,22,0,0,0,0,0,0,0,0,0,-1,713,1002,0,0
-504,22,0,0,0,0,0,0,0,0,0,-1,720,1002,0,0
-497,22,0,0,0,0,0,0,0,0,0,-1,727,1002,0,0
-490,22,0,0,0,0,0,0,0,0,0,-1,734,1002,0,0
-483,22,0,0,0,0,0,0,0,0,0,-1,741,1002,0,0
-476,22,0,0,0,0,0,0,0,0,0,-1,748,1002,0,0
-469,22,0,0,0,0,0,0,0,0,0,-1,755,1002,0,0
-462,22,0,0,0,0,0,0,0,0,0,-1,762,1002,0,0
-455,22,0,0,0,0,0,0,0,0,0,-1,769,1002,0,0
-448,22,0,0,0,0,0,0,0,0,0,-1,776,1002,0,0
-441,22,0,0,0,0,0,0,0,0,0,-1,783,1002,0,0
-434,22,0,0,0,0,0,0,0,0,0,-1,790,1002,0,0
-427,22,0,0,0,0,0,0,0,0,0,-1,797,1002,0,0
-420,22,0,0,0,0,0,0,0,0,0,-1,804,1002,0,0
-413,22,0,0,0,0,0,0,0,0,0,-1,811,1002,0,0
-406,22,0,0,0,0,0,0,0,0,0,-1,818,1002,0,0
-399,22,0,0,0,0,0,0,0,0,0,-1,825,1002,0,0
-392,22,0,0,0,0,0,0,0,0,0,-1,832,1002,0,0
-385,22,0,0,0,0,0,0,0,0,0,-1,839,1002,0,0
-378,22,0,0,0,0,0,0,0,0,0,-1,846,1002,0,0
-371,22,0,0,0,0,0,0,0,0,0,-1,853,1002,0,0
-364,22,0,0,0,0,0,0,0,0,0,-1,860,1002,0,0
-357,22,0,0,0,0,0,0,0,0,0,-1,867,1002,0,0
-350,22,0,0,0,0,0,0,0,0,0,-1,874,1002,0,0
-343,22,0,0,0,0,0,0,0,0,0,-1,881,1002,0,0
-336,22,0,0,0,0,0,0,0,0,0,-1,888,1002,0,0
-329,22,0,0,0,0,0,0,0,0,0,-1,895,1002,0,0
-322,22,0,0,0,0,0,0,0,0,0,-1,902,1002,0,0
-315,22,0,0,0,0,0,0,0,0,0,-1,909,1002,0,0
-308,22,0,0,0,0,0,0,0,0,0,-1,916,1002,0,0
-301,22,0,0,0,0,0,0,0,0,0,-1,923,1002,0,0
-294,22,0,0,0,0,0,0,0,0,0,-1,930,1002,0,0
-287,22,0,0,0,0,0,0,0,0,0,-1,937,1002,0,0
-280,22,0,0,0,0,0,0,0,0,0,-1,944,1002,0,0
-273,22,0,0,0,0,0,0,0,0,0,-1,951,1002,0,0
-266,22,0,0,0,0,0,0,0,0,0,-1,958,1002,0,0
-259,22,0,0,0,0,0,0,0,0,0,-1,965,1002,0,0
-252,22,0,0,0,0,0,0,0,0,0,-1,972,1002,0,0
-245,22,0,0,0,0,0,0,0,0,0,-1,979,1002,0,0
-238,22,0,0,0,0,0,0,0,0,0,-1,986,1002,0,0
-231,22,0,0,0,0,0,0,0,0,0,-1,993,1002,0,0
-224,22,0,0,0,0,0,0,0,0,0,-1,1000,1002,0,0
-217,22,0,0,0,0,0,0,0,0,0,-1,1007,1002,0,0
-210,22,0,0,0,0,0,0,0,0,0,-1,1014,1002,0,0
-203,22,0,0,0,0,0,0,0,0,0,-1,1021,1002,0,0
-196,22,0,0,0,0,0,0,0,0,0,-1,1028,1002,0,0
-189,22,0,0,0,0,0,0,0,0,0,-1,1035,1002,0,0
-182,22,0,0,0,0,0,0,0,0,0,-1,1042,1002,0,0
-175,22,0,0,0,0,0,0,0,0,0,-1,1049,1002,0,0
-168,22,0,0,0,0,0,0,0,0,0,-1,1056,1002,0,0
-161,22,0,0,0,0,0,0,0,0,0,-1,1063,1002,0,0
-154,22,0,0,0,0,0,0,0,0,0,-1,1070,1002,0,0
-147,22,0,0,0,0,0,0,0,0,0,-1,1077,1002,0,0
-140,22,0,0,0,0,0,0,0,0,0,-1,1084,1002,0,0
-133,22,0,0,0,0,0,0,0,0,0,-1,1091,1002,0,0
-126,22,0,0,0,0,0,0,0,0,0,-1,1098,1002,0,0
-119,22,0,0,0,0,0,0,0,0,0,-1,1105,1002,0,0
-112,22,0,0,0,0,0,0,0,0,0,-1,1112,1002,0,0
-105,22,0,0,0,0,0,0,0,0,0,-1,1119,1002,0,0
-98,22,0,0,0,0,0,0,0,0,0,-1,1126,1002,0,0
-91,22,0,0,0,0,0,0,0,0,0,-1,1133,1002,0,0
-84,22,0,0,0,0,0,0,0,0,0,-1,1140,1002,0,0
-77,22,0,0,0,0,0,0,0,0,0,-1,1147,1002,0,0
-70,22,0,0,0,0,0,0,0,0,0,-1,1154,1002,0,0
-63,22,0,0,0,0,0,0,0,0,0,-1,1161,1002,0,0
-56,22,0,0,0,0,0,0,0,0,0,-1,1168,1002,0,0
-49,22,0,0,0,0,0,0,0,0,0,-1,1175,1002,0,0
-42,22,0,0,0,0,0,0,0,0,0,-1,1182,1002,0,0
-35,22,0,0,0,0,0,0,0,0,0,-1,1189,1002,0,0
-28,22,0,0,0,0,0,0,0,0,0,-1,1196,1002,0,0
-21,22,0,0,0,0,0,0,0,0,0,-1,1203,1002,0,0
-14,22,0,0,0,0,0,0,0,0,0,-1,1210,1002,0,0
-7,22,0,0,0,0,0,0,0,0,0,-1,1217,1002,0,0
0,22,0,0,0,0,0,0,0,0,0,-1,1224,1002,0,0
7,22,0,0,0,0,0,0,0,0,0,-1,1231,1002,0,0
14,22,0,0,0,0,0,0,0,0,0,-1,1238,1002,0,0
21,22,0,0,0,0,0,0,0,0,0,-1,1245,1002,0,0
28,22,0,0,0,0,0,0,0,0,0,-1,1252,1002,0,0
35,22,0,0,0,0,0,0,0,0,0,-1,1259,1002,0,0
42,22,0,0,0,0,0,0,0,0,0,-1,1266,1002,0,0
49,22,0,0,0,0,0,0,0,0,0,-1,1273,1002,0,0
56,22,0,0,0,0,0,0,0,0,0,-1,1280,1002,0,0
63,22,0,0,0,0,0,0,0,0,0,-1,1287,1002,0,0
70,22,0,0,0,0,0,0,0,0,0,-1,1294,1002,0,0
77,22,0,0,0,0,0,0,0,0,0,-1,1301,1002,0,0
84,22,0,0,0,0,0,0,0,0,0,-1,1308,1002,0,0
91,22,0,0,0,0,0,0,0,0,0,-1,1315,1002,0,0
98,22,0,0,0,0,0,0,0,0,0,-1,1322,1002,0,0
105,22,0,0,0,0,0,0,0,0,0,-1,1329,1002,0,0
112,22,0,0,0,0,0,0,0,0,0,-1,1336,1002,0,0
119,22,0,0,0,0,0,0,0,0,0,-1,1343,1002,0,0
126,22,0,0,0,0,0,0,0,0,0,-1,1350,1002,0,0
133,22,0,0,0,0,0,0,0,0,0,-1,1357,1002,0,0
140,22,0,0,0,0,0,0,0,0,0,-1,1364,1002,0,0
147,22,0,0,0,0,0,0,0,0,0,-1,1371,1002,0,0
154,22,0,0,0,0,0,0,0,0,0,-1,1378,1002,0,0
161,22,0,0,0,0,0,0,0,0,0,-1,1385,1002,0,0
168,22,0,0,0,0,0,0,0,0,0,-1,1392,1002,0,0
175,22,0,0,0,0,0,0,0,0,0,-1,1399,1002,0,0
182,22,0,0,0,0,0,0,0,0,0,-1,1406,1002,0,0
189,22,0,0,0,0,0,0,0,0,0,-1,1413,1002,0,0
196,22,0,0,0,0,0,0,0,0,0,-1,1420,1002,0,0
203,22,0,0,0,0,0,0,0,0,0,-1,1427,1002,0,0
210,22,0,0,0,0,0,0,0,0,0,-1,1434,1002,0,0
217,22,0,0,0,0,0,0,0,0,0,-1,1441,1002,0,0
224,22,0,0,0,0,0,0,0,0,0,-1,1448,1002,0,0
231,22,0,0,0,0,0,0,0,0,0,-1,1455,1002,0,0
238,22,0,0,0,0,0,0,0,0,0,-1,1462,1002,0,0
245,22,0,0,0,0,0,0,0,0,0,-1,1469,1002,0,0
252,22,0,0,0,0,0,0,0,0,0,-1,1476,1002,0,0
259,22,0,0,0,0,0,0,0,0,0,-1,1483,1002,0,0
266,22,0,0,0,0,0,0,0,0,0,-1,1490,1002,0,0
273,22,0,0,0,0,0,0,0,0,0,-1,1497,1002,0,0
280,22,0,0,0,0,0,0,0,0,0,-1,1504,1002,0,0
287,22,0,0,0,0,0,0,0,0,0,-1,1511,1002,0,0
294,22,0,0,0,0,0,0,0,0,0,-1,1518,1002,0,0
301,22,0,0,0,0,0,0,0,0,0,-1,1525,1002,0,0
308,22,0,0,0,0,0,0,0,0,0,-1,1532,1002,0,0
315,22,0,0,0,0,0,0,0,0,0,-1,1539,1002,0,0
322,22,0,0,0,0,0,0,0,0,0,-1,1546,1002,0,0
329,22,0,0,0,0,0,0,0,0,0,-1,1553,1002,0,0
336,22,0,0,0,0,0,0,0,0,0,-1,1560,1002,0,0
343,22,0,0,0,0,0,0,0,0,0,-1,1567,1002,0,0
350,22,0,0,0,0,0,0,0,0,0,-1,1574,1002,0,0
357,22,0,0,0,0,0,0,0,0,0,-1,1581,1002,0,0
364,22,0,0,0,0,0,0,0,0,0,-1,1588,1002,0,0
371,22,0,0,0,0,0,0,0,0,0,-1,1595,1002,0,0
378,22,0,0,0,0,0,0,0,0,0,-1,1602,1002,0,0
385,22,0,0,0,0,0,0,0,0,0,-1,1609,1002,0,0
392,22,0,0,0,0,0,0,0,0,0,-1,1616,1002,0,0
399,22,0,0,0,0,0,0,0,0,0,-1,1623,1002,0,0
406,22,0,0,0,0,0,0,0,0,0,-1,1630,1002,0,0
413,22,0,0,0,0,0,0,0,0,0,-1,1637,1002,0,0
420,22,0,0,0,0,0,0,0,0,0,-1,1644,1002,0,0
427,22,0,0,0,0,0,0,0,0,0,-1,1651,1002,0,0
434,22,0,0,0,0,0,0,0,0,0,-1,1658,1002,0,0
441,22,0,0,0,0,0,0,0,0,0,-1,1665,1002,0,0
448,22,0,0,0,0,0,0,0,0,0,-1,1672,1002,0,0
455,22,0,0,0,0,0,0,0,0,0,-1,1679,1002,0,0
462,22,0,0,0,0,0,0,0,0,0,-1,1686,1002,0,0
469,22,0,0,0,0,0,0,0,0,0,-1,1693,1002,0,0
476,22,0,0,0,0,0,0,0,0,0,-1,1700,1002,0,0
483,22,0,0,0,0,0,0,0,0,0,-1,1707,1002,0,0
490,22,0,0,0,0,0,0,0,0,0,-1,1714,1002,0,0
497,22,0,0,0,0,0,0,0,0,0,-1,1721,1002,0,0
504,22,0,0,0,0,0,0,0,0,0,-1,1728,1002,0,0
511,22,0,0,0,0,0,0,0,0,0,-1,1735,1002,0,0
518,22,0,0,0,0,0,0,0,0,0,-1,1742,1002,0,0
525,22,0,0,0,0,0,0,0,0,0,-1,1749,1002,0,0
532,22,0,0,0,0,0,0,0,0,0,-1,1756,1002,0,0
539,22,0,0,0,0,0,0,0,0,0,-1,1763,1002,0,0
546,22,0,0,0,0,0,0,0,0,0,-1,1770,1002,0,0
553,22,0,0,0,0,0,0,0,0,0,-1,1777,1002,0,0
560,22,0,0,0,0,0,0,0,0,0,-1,1784,1002,0,0
567,22,0,0,0,0,0,0,0,0,0,-1,1791,1002,0,0
574,22,0,0,0,0,0,0,0,0,0,-1,1798,1002,0,0
581,22,0,0,0,0,0,0,0,0,0,-1,1805,1002,0,0
588,22,0,0,0,0,0,0,0,0,0,-1,1812,1002,0,0
595,22,0,0,0,0,0,0,0,0,0,-1,1819,1002,0,0
602,22,0,0,0,0,0,0,0,0,0,-1,1826,1002,0,0
609,22,0,0,0,0,0,0,0,0,0,-1,1833,1002,0,0
616,22,0,0,0,0,0,0,0,0,0,-1,1840,1002,0,0
623,22,0,0,0,0,0,0,0,0,0,-1,1847,1002,0,0
630,22,0,0,0,0,0,0,0,0,0,-1,1854,1002,0,0
637,22,0,0,0,0,0,0,0,0,0,-1,1861,1002,0,0
644,22,39.5291,2.52069,0.00273955,0.00610381,0.00614745,0.0107951,-0.00195176,0.918945,0.00792782,0.0388305,1868,1002,39.529,-2.52069
651,22,39.6104,2.44263,0.00182726,0.00431489,0.00396728,0.00722877,-0.00108661,0.937304,0.00521922,0.0397319,1875,1002,39.6103,-2.44265
658,22,39.5677,2.6626,0.00117737,0.00309537,0.00250584,0.00481946,-0.000546712,0.968153,0.00340985,0.0405927,1882,1002,39.5678,-2.6626
665,22,39.394,2.88263,0.000719893,0.00241239,0.00174078,0.00350172,-0.000369436,1.01164,0.00246686,0.0407922,1889,1002,39.394,-2.88262
672,22,39.4362,2.74377,0.00039234,0.00205529,0.00145553,0.0029001,-0.000452466,1.04491,0.00210053,0.0387899,1896,1002,39.4362,-2.74376
679,22,39.4833,2.5332,0.000113422,0.00186281,0.00148865,0.00271472,-0.000738488,1.05102,0.00209972,0.0372759,1903,1002,39.4833,-2.53319
686,22,39.5878,2.54718,-3.51159e-05,0.00166461,0.00166616,0.00268514,-0.00105564,1.02124,0.00222699,0.0375213,1910,1002,39.5878,-2.54716
693,22,39.5919,2.76825,-0.000112147,0.00142232,0.00186242,0.00266935,-0.00135918,0.980783,0.00236652,0.0372175,1917,1002,39.592,-2.76822
700,22,39.5745,2.68494,-0.000311404,0.00119366,0.00188501,0.0024708,-0.00158855,0.975314,0.00236204,0.0323688,1924,1002,39.5745,-2.68493
707,22,39.5028,2.62781,-0.000551693,0.0012715,0.00175223,0.00233508,-0.00161527,1.02526,0.00229332,0.0323436,1931,1002,39.5028,-2.62783
714,22,39.5364,2.75165,-0.000932264,0.00151454,0.00156365,0.00227651,-0.00169423,1.11736,0.00230071,0.0371173,1938,1002,39.5364,-2.75162
721,22,39.6056,3.05194,0,0,0,0,0,0,0,-1,1945,1002,39.6056,-3.05192
728,22,39.12,4.94299,0,0,0,0,0,0,0,-1,1952,1002,39.12,-4.94296
735,22,39.1536,5.06573,-0.00274159,0.00353754,0.000899557,0.00366387,-0.00286792,1.43127,0.00378045,0.0152609,1959,1002,39.1536,-5.06573
742,22,39.1715,5.15564,-0.00360346,0.00475119,0.000247447,0.00475852,-0.00361078,1.54121,0.00484714,0.0163967,1966,1002,39.1715,-5.15565
749,22,39.1302,5.2348,-0.00509071,0.00651009,-0.000484268,0.00653027,-0.00511089,-1.52915,0.00673766,0.0131997,1973,1002,39.1303,-5.2348
756,22,39.1313,5.31049,-0.00727375,0.00921508,-0.00157945,0.00936501,-0.00742368,-1.47615,0.00971453,0.0183314,1980,1002,39.1314,-5.31046
763,22,39.0807,5.42804,-0.0106479,0.0138699,-0.00272824,0.0141698,-0.0109478,-1.4613,0.0145413,0.0179599,1987,1002,39.0807,-5.42805
770,22,38.9236,5.50208,-0.0147581,0.0195534,-0.00400504,0.0200147,-0.0152194,-1.45612,0.0204051,0.0174984,1994,1002,38.9236,-5.50206
777,22,38.6924,5.48401,-0.0204097,0.0272516,-0.00523181,0.0278192,-0.0209773,-1.46274,0.0282648,0.0374704,2001,1002,38.6924,-5.48401
784,22,38.532,5.50006,0,0,0,0,0,0,0,-1,2008,1002,38.532,-5.50005
791,22,38.5845,5.51929,-0.0361576,0.0469055,-0.00807679,0.0476836,-0.0369356,-1.47476,0.0489861,0.0483468,2015,1002,38.5845,-5.51927
798,22,38.2791,5.31403,-0.0472958,0.0598841,-0.00975054,0.0607639,-0.0481756,-1.48081,0.0630361,0.0438713,2022,1002,38.279,-5.31403
805,22,37.1948,4.43304,-0.0614768,0.0758934,-0.0115799,0.0768627,-0.0624462,-1.48728,0.0805734,0.0428339,2029,1002,37.1948,-4.43302
812,22,35.0981,3.17554,-0.0794822,0.095838,-0.0135316,0.0968762,-0.0805204,-1.49422,0.102565,0.0462458,2036,1002,35.0983,-3.17552
-700,15,0,0,0,0,0,0,0,0,0,-1,524,1009,0,0
-693,15,-27.0517,4.03149,-0.0475508,0.0492569,0.0176323,0.0523684,-0.0506623,1.39613,0.0594875,0.0446555,531,1009,-27.0517,-4.03152
-686,15,-27.4818,4.48297,-0.0410844,0.0464447,0.0133884,0.0484468,-0.0430865,1.42236,0.052877,0.0471137,538,1009,-27.4818,-4.48295
-679,15,-28.215,4.24908,0,0,0,0,0,0,0,-1,545,1009,-28.215,-4.24906
-672,15,-28.1105,4.32434,-0.0300488,0.0388015,0.00789875,0.0396961,-0.0309434,1.45802,0.0408879,0.0493926,552,1009,-28.1106,-4.32437
-665,15,-28.5059,4.38214,-0.0251441,0.0345892,0.00594776,0.0351756,-0.0257306,1.47251,0.0353049,0.0459921,559,1009,-28.5059,-4.38216
-658,15,-28.4402,1.85468,-0.0206778,0.030242,0.0043956,0.0306187,-0.0210545,1.48532,0.0300034,0.0490539,566,1009,-28.4402,-1.85466
-651,15,-28.6943,1.44312,0,0,0,0,0,0,0,-1,573,1009,-28.6943,-1.44312
-644,15,-29.0009,2.17206,-0.0128504,0.0213865,0.00171092,0.0214718,-0.0129357,1.52099,0.0200679,0.0447145,580,1009,-29.0009,-2.17204
-637,15,-29.1858,2.5661,-0.00941243,0.0175664,-5.90793e-05,0.0175665,-0.00941256,-1.56861,0.0158117,0.0255047,587,1009,-29.1858,-2.56611
-630,15,-29.2267,2.57544,-0.00619334,0.014133,-0.00198171,0.0143244,-0.00638475,-1.47451,0.0122458,0.0138158,594,1009,-29.2267,-2.57544
-623,15,-29.2968,2.54828,-0.00357805,0.0104433,-0.00394757,0.0114783,-0.00461305,-1.31438,0.00956802,0.00952445,601,1009,-29.2968,-2.54828
-616,15,-29.3315,2.50952,-0.0018097,0.00812149,-0.00565326,0.0106803,-0.0043685,-1.14576,0.00893953,0.0144184,608,1009,-29.3316,-2.50951
-609,15,-29.349,2.47729,-0.000773322,0.00625191,-0.00692771,0.0105066,-0.00502805,-1.02003,0.00915299,0.0214947,615,1009,-29.349,-2.47731
-602,15,-29.3329,2.39813,-0.00010707,0.00478006,-0.00772843,0.010442,-0.00576903,-0.938515,0.00948819,0.0209141,622,1009,-29.3329,-2.39814
-595,15,-29.1962,1.85217,0.000432301,0.00306118,-0.00863067,0.0104769,-0.00698345,-0.860967,0.0101478,0.0367322,629,1009,-29.1962,-1.85218
-588,15,-28.9404,1.2298,0.000907659,0.0022519,-0.00917881,0.0107832,-0.0076236,-0.821946,0.0106792,0.04516,636,1009,-28.9404,-1.2298
-581,15,-28.9562,0.738159,0.00148362,0.00168987,-0.00925261,0.0108399,-0.00766644,-0.790971,0.0107369,0.037217,643,1009,-28.9563,-0.738131
-574,15,-28.9528,0.780579,0.00161353,0.00126352,-0.00873836,0.0101786,-0.00730158,-0.775386,0.0101377,0.0325328,650,1009,-28.9528,-0.780591
-567,15,-29.0052,0.802979,0.00156044,0.000856504,-0.00764329,0.00885986,-0.00644292,-0.76239,0.00887172,0.0330097,657,1009,-29.0053,-0.80298
-560,15,-29.0471,0.773743,0.00156126,0.000420257,-0.00605788,0.00707544,-0.00509393,-0.738449,0.00705697,0.0379312,664,1009,-29.0471,-0.773769
-553,15,-29.0699,0.825378,0.0016939,-0.000117003,-0.00413062,0.00501715,-0.00344025,-0.677502,0.00491109,0.0405761,671,1009,-29.0699,-0.825374
-546,15,-29.0944,0.905823,0.00214283,-0.00085229,-0.00201784,0.00315811,-0.00186757,-0.466166,0.00293329,0.039704,678,1009,-29.0944,-0.905818
-539,15,-29.1014,0.807373,0.00322252,-0.00159774,-0.000431004,0.00326075,-0.00163597,-0.0884798,0.00287854,0.0444251,685,1009,-29.1014,-0.807349
-532,15,-28.9547,0.683105,0.00508038,-0.00161326,-0.000798842,0.00517439,-0.00170728,-0.117152,0.00413781,0.0440146,692,1009,-28.9547,-0.683127
-525,15,0,0,0,0,0,0,0,0,0,-1,699,1009,0,0
-518,15,0,0,0,0,0,0,0,0,0,-1,706,1009,0,0
-511,15,0,0,0,0,0,0,0,0,0,-1,713,1009,0,0
-504,15,0,0,0,0,0,0,0,0,0,-1,720,1009,0,0
-497,15,0,0,0,0,0,0,0,0,0,-1,727,1009,0,0
-490,15,0,0,0,0,0,0,0,0,0,-1,734,1009,0,0
-483,15,0,0,0,0,0,0,0,0,0,-1,741,1009,0,0
-476,15,0,0,0,0,0,0,0,0,0,-1,748,1009,0,0
-469,15,0,0,0,0,0,0,0,0,0,-1,755,1009,0,0
-462,15,0,0,0,0,0,0,0,0,0,-1,762,1009,0,0
-455,15,0,0,0,0,0,0,0,0,0,-1,769,1009,0,0
-448,15,0,0,0,0,0,0,0,0,0,-1,776,1009,0,0
-441,15,0,0,0,0,0,0,0,0,0,-1,783,1009,0,0
-434,15,0,0,0,0,0,0,0,0,0,-1,790,1009,0,0
-427,15,0,0,0,0,0,0,0,0,0,-1,797,1009,0,0
-420,15,0,0,0,0,0,0,0,0,0,-1,804,1009,0,0
-413,15,0,0,0,0,0,0,0,0,0,-1,811,1009,0,0
-406,15,0,0,0,0,0,0,0,0,0,-1,818,1009,0,0
-399,15,0,0,0,0,0,0,0,0,0,-1,825,1009,0,0
-392,15,0,0,0,0,0,0,0,0,0,-1,832,1009,0,0
-385,15,0,0,0,0,0,0,0,0,0,-1,839,1009,0,0
-378,15,0,0,0,0,0,0,0,0,0,-1,846,1009,0,0
-371,15,0,0,0,0,0,0,0,0,0,-1,853,1009,0,0
-364,15,0,0,0,0,0,0,0,0,0,-1,860,1009,0,0
-357,15,0,0,0,0,0,0,0,0,0,-1,867,1009,0,0
-350,15,0,0,0,0,0,0,0,0,0,-1,874,1009,0,0
-343,15,0,0,0,0,0,0,0,0,0,-1,881,1009,0,0
-336,15,0,0,0,0,0,0,0,0,0,-1,888,1009,0,0
-329,15,0,0,0,0,0,0,0,0,0,-1,895,1009,0,0
-322,15,0,0,0,0,0,0,0,0,0,-1,902,1009,0,0
-315,15,0,0,0,0,0,0,0,0,0,-1,909,1009,0,0
-308,15,0,0,0,0,0,0,0,0,0,-1,916,1009,0,0
-301,15,0,0,0,0,0,0,0,0,0,-1,923,1009,0,0
-294,15,0,0,0,0,0,0,0,0,0,-1,930,1009,0,0
-287,15,0,0,0,0,0,0,0,0,0,-1,937,1009,0,0
-280,15,0,0,0,0,0,0,0,0,0,-1,944,1009,0,0
-273,15,0,0,0,0,0,0,0,0,0,-1,951,1009,0,0
-266,15,0,0,0,0,0,0,0,0,0,-1,958,1009,0,0
-259,15,0,0,0,0,0,0,0,0,0,-1,965,1009,0,0
-252,15,0,0,0,0,0,0,0,0,0,-1,972,1009,0,0
-245,15,0,0,0,0,0,0,0,0,0,-1,979,1009,0,0
-238,15,0,0,0,0,0,0,0,0,0,-1,986,1009,0,0
-231,15,0,0,0,0,0,0,0,0,0,-1,993,1009,0,0
-224,15,0,0,0,0,0,0,0,0,0,-1,1000,1009,0,0
-217,15,0,0,0,0,0,0,0,0,0,-1,1007,1009,0,0
-210,15,0,0,0,0,0,0,0,0,0,-1,1014,1009,0,0
-203,15,0,0,0,0,0,0,0,0,0,-1,1021,1009,0,0
-196,15,0,0,0,0,0,0,0,0,0,-1,1028,1009,0,0
-189,15,0,0,0,0,0,0,0,0,0,-1,1035,1009,0,0
-182,15,0,0,0,0,0,0,0,0,0,-1,1042,1009,0,0
-175,15,0,0,0,0,0,0,0,0,0,-1,1049,1009,0,0
-168,15,0,0,0,0,0,0,0,0,0,-1,1056,1009,0,0
-161,15,0,0,0,0,0,0,0,0,0,-1,1063,1009,0,0
-154,15,0,0,0,0,0,0,0,0,0,-1,1070,1009,0,0
-147,15,0,0,0,0,0,0,0,0,0,-1,1077,1009,0,0
-140,15,0,0,0,0,0,0,0,0,0,-1,1084,1009,0,0
-133,15,0,0,0,0,0,0,0,0,0,-1,1091,1009,0,0
-126,15,0,0,0,0,0,0,0,0,0,-1,1098,1009,0,0
-119,15,0,0,0,0,0,0,0,0,0,-1,1105,1009,0,0
-112,15,0,0,0,0,0,0,0,0,0,-1,1112,1009,0,0
-105,15,0,0,0,0,0,0,0,0,0,-1,1119,1009,0,0
-98,15,0,0,0,0,0,0,0,0,0,-1,1126,1009,0,0
-91,15,0,0,0,0,0,0,0,0,0,-1,1133,1009,0,0
-84,15,0,0,0,0,0,0,0,0,0,-1,1140,1009,0,0
-77,15,0,0,0,0,0,0,0,0,0,-1,1147,1009,0,0
-70,15,0,0,0,0,0,0,0,0,0,-1,1154,1009,0,0
-63,15,0,0,0,0,0,0,0,0,0,-1,1161,1009,0,0
-56,15,0,0,0,0,0,0,0,0,0,-1,1168,1009,0,0
-49,15,0,0,0,0,0,0,0,0,0,-1,1175,1009,0,0
-42,15,0,0,0,0,0,0,0,0,0,-1,1182,1009,0,0
-35,15,0,0,0,0,0,0,0,0,0,-1,1189,1009,0,0
-28,15,0,0,0,0,0,0,0,0,0,-1,1196,1009,0,0
-21,15,0,0,0,0,0,0,0,0,0,-1,1203,1009,0,0
-14,15,0,0,0,0,0,0,0,0,0,-1,1210,1009,0,0
-7,15,0,0,0,0,0,0,0,0,0,-1,1217,1009,0,0
0,15,0,0,0,0,0,0,0,0,0,-1,1224,1009,0,0
7,15,0,0,0,0,0,0,0,0,0,-1,1231,1009,0,0
14,15,0,0,0,0,0,0,0,0,0,-1,1238,1009,0,0
21,15,0,0,0,0,0,0,0,0,0,-1,1245,1009,0,0
28,15,0,0,0,0,0,0,0,0,0,-1,1252,1009,0,0
35,15,0,0,0,0,0,0,0,0,0,-1,1259,1009,0,0
42,15,0,0,0,0,0,0,0,0,0,-1,1266,1009,0,0
49,15,0,0,0,0,0,0,0,0,0,-1,1273,1009,0,0
56,15,0,0,0,0,0,0,0,0,0,-1,1280,1009,0,0
63,15,0,0,0,0,0,0,0,0,0,-1,1287,1009,0,0
70,15,0,0,0,0,0,0,0,0,0,-1,1294,1009,0,0
77,15,0,0,0,0,0,0,0,0,0,-1,1301,1009,0,0
84,15,0,0,0,0,0,0,0,0,0,-1,1308,1009,0,0
91,15,0,0,0,0,0,0,0,0,0,-1,1315,1009,0,0
98,15,0,0,0,0,0,0,0,0,0,-1,1322,1009,0,0
105,15,0,0,0,0,0,0,0,0,0,-1,1329,1009,0,0
112,15,0,0,0,0,0,0,0,0,0,-1,1336,1009,0,0
119,15,0,0,0,0,0,0,0,0,0,-1,1343,1009,0,0
126,15,0,0,0,0,0,0,0,0,0,-1,1350,1009,0,0
133,15,0,0,0,0,0,0,0,0,0,-1,1357,1009,0,0
140,15,0,0,0,0,0,0,0,0,0,-1,1364,1009,0,0
147,15,0,0,0,0,0,0,0,0,0,-1,1371,1009,0,0
154,15,0,0,0,0,0,0,0,0,0,-1,1378,1009,0,0
161,15,0,0,0,0,0,0,0,0,0,-1,1385,1009,0,0
168,15,0,0,0,0,0,0,0,0,0,-1,1392,1009,0,0
175,15,0,0,0,0,0,0,0,0,0,-1,1399,1009,0,0
182,15,0,0,0,0,0,0,0,0,0,-1,1406,1009,0,0
189,15,0,0,0,0,0,0,0,0,0,-1,1413,1009,0,0
196,15,0,0,0,0,0,0,0,0,0,-1,1420,1009,0,0
203,15,0,0,0,0,0,0,0,0,0,-1,1427,1009,0,0
210,15,0,0,0,0,0,0,0,0,0,-1,1434,1009,0,0
217,15,0,0,0,0,0,0,0,0,0,-1,1441,1009,0,0
224,15,0,0,0,0,0,0,0,0,0,-1,1448,1009,0,0
231,15,0,0,0,0,0,0,0,0,0,-1,1455,1009,0,0
238,15,0,0,0,0,0,0,0,0,0,-1,1462,1009,0,0
245,15,0,0,0,0,0,0,0,0,0,-1,1469,1009,0,0
252,15,0,0,0,0,0,0,0,0,0,-1,1476,1009,0,0
259,15,0,0,0,0,0,0,0,0,0,-1,1483,1009,0,0
266,15,0,0,0,0,0,0,0,0,0,-1,1490,1009,0,0
273,15,0,0,0,0,0,0,0,0,0,-1,1497,1009,0,0
280,15,0,0,0,0,0,0,0,0,0,-1,1504,1009,0,0
287,15,0,0,0,0,0,0,0,0,0,-1,1511,1009,0,0
294,15,0,0,0,0,0,0,0,0,0,-1,1518,1009,0,0
301,15,0,0,0,0,0,0,0,0,0,-1,1525,1009,0,0
308,15,0,0,0,0,0,0,0,0,0,-1,1532,1009,0,0
315,15,0,0,0,0,0,0,0,0,0,-1,1539,1009,0,0
322,15,0,0,0,0,0,0,0,0,0,-1,1546,1009,0,0
329,15,0,0,0,0,0,0,0,0,0,-1,1553,1009,0,0
336,15,0,0,0,0,0,0,0,0,0,-1,1560,1009,0,0
343,15,0,0,0,0,0,0,0,0,0,-1,1567,1009,0,0
350,15,0,0,0,0,0,0,0,0,0,-1,1574,1009,0,0
357,15,0,0,0,0,0,0,0,0,0,-1,1581,1009,0,0
364,15,0,0,0,0,0,0,0,0,0,-1,1588,1009,0,0
371,15,0,0,0,0,0,0,0,0,0,-1,1595,1009,0,0
378,15,0,0,0,0,0,0,0,0,0,-1,1602,1009,0,0
385,15,0,0,0,0,0,0,0,0,0,-1,1609,1009,0,0
392,15,0,0,0,0,0,0,0,0,0,-1,1616,1009,0,0
399,15,0,0,0,0,0,0,0,0,0,-1,1623,1009,0,0
406,15,0,0,0,0,0,0,0,0,0,-1,1630,1009,0,0
413,15,0,0,0,0,0,0,0,0,0,-1,1637,1009,0,0
420,15,0,0,0,0,0,0,0,0,0,-1,1644,1009,0,0
427,15,0,0,0,0,0,0,0,0,0,-1,1651,1009,0,0
434,15,0,0,0,0,0,0,0,0,0,-1,1658,1009,0,0
441,15,0,0,0,0,0,0,0,0,0,-1,1665,1009,0,0
448,15,0,0,0,0,0,0,0,0,0,-1,1672,1009,0,0
455,15,0,0,0,0,0,0,0,0,0,-1,1679,1009,0,0
462,15,0,0,0,0,0,0,0,0,0,-1,1686,1009,0,0
469,15,0,0,0,0,0,0,0,0,0,-1,1693,1009,0,0
476,15,0,0,0,0,0,0,0,0,0,-1,1700,1009,0,0
483,15,0,0,0,0,0,0,0,0,0,-1,1707,1009,0,0
490,15,0,0,0,0,0,0,0,0,0,-1,1714,1009,0,0
497,15,0,0,0,0,0,0,0,0,0,-1,1721,1009,0,0
504,15,0,0,0,0,0,0,0,0,0,-1,1728,1009,0,0
511,15,0,0,0,0,0,0,0,0,0,-1,1735,1009,0,0
518,15,0,0,0,0,0,0,0,0,0,-1,1742,1009,0,0
525,15,0,0,0,0,0,0,0,0,0,-1,1749,1009,0,0
532,15,0,0,0,0,0,0,0,0,0,-1,1756,1009,0,0
539,15,0,0,0,0,0,0,0,0,0,-1,1763,1009,0,0
546,15,0,0,0,0,0,0,0,0,0,-1,1770,1009,0,0
553,15,0,0,0,0,0,0,0,0,0,-1,1777,1009,0,0
560,15,0,0,0,0,0,0,0,0,0,-1,1784,1009,0,0
567,15,0,0,0,0,0,0,0,0,0,-1,1791,1009,0,0
574,15,0,0,0,0,0,0,0,0,0,-1,1798,1009,0,0
581,15,0,0,0,0,0,0,0,0,0,-1,1805,1009,0,0
588,15,0,0,0,0,0,0,0,0,0,-1,1812,1009,0,0
595,15,0,0,0,0,0,0,0,0,0,-1,1819,1009,0,0
602,15,0,0,0,0,0,0,0,0,0,-1,1826,1009,0,0
609,15,0,0,0,0,0,0,0,0,0,-1,1833,1009,0,0
616,15,0,0,0,0,0,0,0,0,0,-1,1840,1009,0,0
623,15,0,0,0,0,0,0,0,0,0,-1,1847,1009,0,0
630,15,0,0,0,0,0,0,0,0,0,-1,1854,1009,0,0
637,15,0,0,0,0,0,0,0,0,0,-1,1861,1009,0,0
644,15,39.4292,2.27435,0.00313344,0.00690696,0.00667784,0.0119595,-0.00191906,0.92308,0.00868364,0.0402199,1868,1009,39.4292,-2.27435
651,15,39.5823,2.21863,0.00196557,0.00488202,0.00421138,0.0078805,-0.0010329,0.952067,0.00562964,0.0403563,1875,1009,39.5823,-2.21865
658,15,39.5706,2.70422,0.00118845,0.00349236,0.00256891,0.00515577,-0.000474963,0.996169,0.00360595,0.0405606,1882,1009,39.5706,-2.70422
665,15,39.4569,2.70166,0.000672593,0.00265276,0.00168351,0.00361574,-0.000290387,1.05121,0.00251289,0.0398637,1889,1009,39.4569,-2.70164
672,15,39.4495,2.59973,0.000334247,0.00216482,0.0013449,0.00287634,-0.000377274,1.08418,0.00205489,0.0368307,1896,1009,39.4495,-2.59973
679,15,39.5844,2.33582,6.94614e-05,0.00186307,0.00136037,0.00259564,-0.000663114,1.07682,0.00198867,0.0377942,1903,1009,39.5843,-2.33579
686,15,39.7506,2.3985,-7.77699e-05,0.00159165,0.00155947,0.00252575,-0.00101187,1.03112,0.00210386,0.0435186,1910,1009,39.7506,-2.39847
693,15,39.6788,2.48633,-0.000159113,0.00130298,0.00180304,0.00251754,-0.00137368,0.977996,0.00227872,0.0419882,1917,1009,39.6788,-2.48635
700,15,39.6266,2.58069,-0.000335011,0.00104596,0.001871,0.00234981,-0.00163887,0.962168,0.00231503,0.0316927,1924,1009,39.6265,-2.5807
707,15,39.5558,2.5827,-0.000531789,0.00111659,0.00178031,0.00225423,-0.00166943,1.00218,0.0022737,0.0288991,1931,1009,39.5558,-2.58272
714,15,39.5596,2.5813,-0.000878513,0.00135226,0.00163922,0.00221958,-0.00174583,1.08414,0.00229487,0.034858,1938,1009,39.5596,-2.58132
721,15,39.6445,2.51758,0,0,0,0,0,0,0,-1,1945,1009,39.6446,-2.51756
728,15,39.261,4.92517,0,0,0,0,0,0,0,-1,1952,1009,39.2609,-4.92517
735,15,39.21,5.0697,-0.00284018,0.00335515,0.00104061,0.00352527,-0.00301029,1.40875,0.00377721,0.0172682,1959,1009,39.2099,-5.06971
742,15,39.2137,5.23285,-0.00377392,0.00459113,0.00039111,0.00460938,-0.00379217,1.52418,0.00485828,0.0254674,1966,1009,39.2137,-5.23283
749,15,39.2096,5.25574,-0.00528526,0.00629878,-0.000342422,0.00630889,-0.00529537,-1.54127,0.00670824,0.0157767,1973,1009,39.2096,-5.25576
756,15,39.204,5.24286,-0.00741536,0.00882244,-0.0015009,0.00896001,-0.00755293,-1.4794,0.00954528,0.0143816,1980,1009,39.204,-5.24283
763,15,39.1649,5.34424,-0.0106338,0.0130565,-0.00284744,0.0133939,-0.0109712,-1.45284,0.0140904,0.0127873,1987,1009,39.1649,-5.34426
770,15,39.0641,5.36475,-0.0145698,0.0182387,-0.00440963,0.0188211,-0.0151522,-1.4395,0.0196525,0.0186571,1994,1009,39.064,-5.36476
777,15,38.7405,5.41553,-0.0199777,0.0253129,-0.0060768,0.0261141,-0.0207789,-1.43971,0.027132,0.0424816,2001,1009,38.7405,-5.4155
784,15,38.4819,5.48523,0,0,0,0,0,0,0,-1,2008,1009,38.4819,-5.48523
791,15,38.4072,5.55145,0,0,0,0,0,0,0,-1,2015,1009,38.4071,-5.55143
798,15,38.1675,5.63623,0,0,0,0,0,0,0,-1,2022,1009,38.1675,-5.63621
805,15,36.7976,3.60419,0,0,0,0,0,0,0,-1,2029,1009,36.7977,-3.60421
812,15,34.0615,1.89978,0,0,0,0,0,0,0,-1,2036,1009,34.0614,-1.89977
-700,8,0,0,0,0,0,0,0,0,0,-1,524,1016,0,0
-693,8,-26.7088,4.04883,-0.0416441,0.0763141,0.0144444,0.0780571,-0.0433871,1.45071,0.0710619,0.044081,531,1016,-26.7088,-4.04883
-686,8,-27.323,4.23828,-0.0350543,0.0674686,0.0111874,0.0686751,-0.0362608,1.46336,0.0615407,0.0449366,538,1016,-27.323,-4.23829
-679,8,-28.0331,4.31958,0,0,0,0,0,0,0,-1,545,1016,-28.0331,-4.31958
-672,8,-28.4006,4.37421,0,0,0,0,0,0,0,-1,552,1016,-28.4006,-4.37419
-665,8,-28.6133,4.32898,0,0,0,0,0,0,0,-1,559,1016,-28.6133,-4.32896
-658,8,-28.9,1.98499,0,0,0,0,0,0,0,-1,566,1016,-28.9,-1.98502
-651,8,-28.8248,2.22198,0,0,0,0,0,0,0,-1,573,1016,-28.8248,-2.22201
-644,8,-29.0293,2.32458,0,0,0,0,0,0,0,-1,580,1016,-29.0293,-2.3246
-637,8,-29.0558,2.42737,-0.0075733,0.0194071,-0.000501123,0.0194164,-0.00758261,-1.55223,0.0160792,0.0338819,587,1016,-29.0558,-2.42736
-630,8,-29.2399,2.53284,-0.00477913,0.0149124,-0.00243357,0.0152087,-0.00507542,-1.44964,0.0121884,0.0192538,594,1016,-29.2399,-2.53281
-623,8,-29.2678,2.54919,-0.00272121,0.0104291,-0.00453128,0.0118393,-0.00413137,-1.26909,0.00957192,0.0135815,601,1016,-29.2678,-2.54918
-616,8,-29.2948,2.51569,-0.0013435,0.00771005,-0.00633258,0.0109674,-0.0046009,-1.09571,0.00923551,0.0138318,608,1016,-29.2948,-2.51567
-609,8,-29.3027,2.46472,-0.000522761,0.00574545,-0.00764315,0.0108721,-0.00564942,-0.97997,0.00969627,0.0173289,615,1016,-29.3027,-2.46475
-602,8,-29.2785,2.45532,0.000101756,0.00426844,-0.00849287,0.0109298,-0.00655956,-0.905676,0.010202,0.0219028,622,1016,-29.2785,-2.45534
-595,8,-29.3122,2.38483,0,0,0,0,0,0,0,-1,629,1016,-29.3122,-2.38484
-588,8,-28.9705,0.687378,0,0,0,0,0,0,0,-1,636,1016,-28.9705,-0.687351
-581,8,-28.9191,0.718323,0.0017312,0.00135383,-0.00978091,0.0113252,-0.00824022,-0.775754,0.0113428,0.0290151,643,1016,-28.9191,-0.718313
-574,8,-28.9274,0.809265,0.00183458,0.000937921,-0.00915005,0.0105473,-0.00777478,-0.760919,0.0106185,0.0343657,650,1016,-28.9274,-0.809244
-567,8,-29.0605,0.88446,0.00174141,0.000569637,-0.00788978,0.00906703,-0.00675598,-0.748337,0.00916784,0.0382861,657,1016,-29.0605,-0.884463
-560,8,-29.0695,0.908325,0.00167064,0.000194757,-0.00610288,0.00708003,-0.00521464,-0.725232,0.00712551,0.0401294,664,1016,-29.0695,-0.9083
-553,8,-29.0217,0.905762,0.00168125,-0.000265763,-0.00394532,0.0047714,-0.00335591,-0.664439,0.00471597,0.0411013,671,1016,-29.0217,-0.905745
-546,8,-29.1508,0.869568,0.00196064,-0.000923541,-0.00159918,0.00267192,-0.00163482,-0.418502,0.00251042,0.0395127,678,1016,-29.1507,-0.869583
-539,8,-29.1281,0.863403,0.00282246,-0.00157243,5.58315e-05,0.00282316,-0.00157314,0.012701,0.00257218,0.0422548,685,1016,-29.1281,-0.863391
-532,8,-28.8548,0.744141,0.00444384,-0.00144964,-0.000597901,0.00450389,-0.00150969,-0.100092,0.00361255,0.0427613,692,1016,-28.8548,-0.744147
-525,8,0,0,0,0,0,0,0,0,0,-1,699,1016,0,0
-518,8,0,0,0,0,0,0,0,0,0,-1,706,1016,0,0
-511,8,0,0,0,0,0,0,0,0,0,-1,713,1016,0,0
-504,8,0,0,0,0,0,0,0,0,0,-1,720,1016,0,0
-497,8,0,0,0,0,0,0,0,0,0,-1,727,1016,0,0
-490,8,0,0,0,0,0,0,0,0,0,-1,734,1016,0,0
-483,8,0,0,0,0,0,0,0,0,0,-1,741,1016,0,0
-476,8,0,0,0,0,0,0,0,0,0,-1,748,1016,0,0
-469,8,0,0,0,0,0,0,0,0,0,-1,755,1016,0,0
-462,8,0,0,0,0,0,0,0,0,0,-1,762,1016,0,0
-455,8,0,0,0,0,0,0,0,0,0,-1,769,1016,0,0
-448,8,0,0,0,0,0,0,0,0,0,-1,776,1016,0,0
-441,8,0,0,0,0,0,0,0,0,0,-1,783,1016,0,0
-434,8,0,0,0,0,0,0,0,0,0,-1,790,1016,0,0
-427,8,0,0,0,0,0,0,0,0,0,-1,797,1016,0,0
-420,8,0,0,0,0,0,0,0,0,0,-1,804,1016,0,0
-413,8,0,0,0,0,0,0,0,0,0,-1,811,1016,0,0
-406,8,0,0,0,0,0,0,0,0,0,-1,818,1016,0,0
-399,8,0,0,0,0,0,0,0,0,0,-1,825,1016,0,0
-392,8,0,0,0,0,0,0,0,0,0,-1,832,1016,0,0
-385,8,0,0,0,0,0,0,0,0,0,-1,839,1016,0,0
-378,8,0,0,0,0,0,0,0,0,0,-1,846,1016,0,0
-371,8,0,0,0,0,0,0,0,0,0,-1,853,1016,0,0
-364,8,0,0,0,0,0,0,0,0,0,-1,860,1016,0,0
-357,8,0,0,0,0,0,0,0,0,0,-1,867,1016,0,0
-350,8,0,0,0,0,0,0,0,0,0,-1,874,1016,0,0
-343,8,0,0,0,0,0,0,0,0,0,-1,881,1016,0,0
-336,8,0,0,0,0,0,0,0,0,0,-1,888,1016,0,0
-329,8,0,0,0,0,0,0,0,0,0,-1,895,1016,0,0
-322,8,0,0,0,0,0,0,0,0,0,-1,902,1016,0,0
-315,8,0,0,0,0,0,0,0,0,0,-1,909,1016,0,0
-308,8,0,0,0,0,0,0,0,0,0,-1,916,1016,0,0
-301,8,0,0,0,0,0,0,0,0,0,-1,923,1016,0,0
-294,8,0,0,0,0,0,0,0,0,0,-1,930,1016,0,0
-287,8,0,0,0,0,0,0,0,0,0,-1,937,1016,0,0
-280,8,0,0,0,0,0,0,0,0,0,-1,944,1016,0,0
-273,8,0,0,0,0,0,0,0,0,0,-1,951,1016,0,0
-266,8,0,0,0,0,0,0,0,0,0,-1,958,1016,0,0
-259,8,0,0,0,0,0,0,0,0,0,-1,965,1016,0,0
-252,8,0,0,0,0,0,0,0,0,0,-1,972,1016,0,0
-245,8,0,0,0,0,0,0,0,0,0,-1,979,1016,0,0
-238,8,0,0,0,0,0,0,0,0,0,-1,986,1016,0,0
-231,8,0,0,0,0,0,0,0,0,0,-1,993,1016,0,0
-224,8,0,0,0,0,0,0,0,0,0,-1,1000,1016,0,0
-217,8,0,0,0,0,0,0,0,0,0,-1,1007,1016,0,0
-210,8,0,0,0,0,0,0,0,0,0,-1,1014,1016,0,0
-203,8,0,0,0,0,0,0,0,0,0,-1,1021,1016,0,0
-196,8,0,0,0,0,0,0,0,0,0,-1,1028,1016,0,0
-189,8,0,0,0,0,0,0,0,0,0,-1,1035,1016,0,0
-182,8,0,0,0,0,0,0,0,0,0,-1,1042,1016,0,0
-175,8,0,0,0,0,0,0,0,0,0,-1,1049,1016,0,0
-168,8,0,0,0,0,0,0,0,0,0,-1,1056,1016,0,0
-161,8,0,0,0,0,0,0,0,0,0,-1,1063,1016,0,0
-154,8,0,0,0,0,0,0,0,0,0,-1,1070,1016,0,0
-147,8,0,0,0,0,0,0,0,0,0,-1,1077,1016,0,0
-140,8,0,0,0,0,0,0,0,0,0,-1,1084,1016,0,0
-133,8,0,0,0,0,0,0,0,0,0,-1,1091,1016,0,0
-126,8,0,0,0,0,0,0,0,0,0,-1,1098,1016,0,0
-119,8,0,0,0,0,0,0,0,0,0,-1,1105,1016,0,0
-112,8,0,0,0,0,0,0,0,0,0,-1,1112,1016,0,0
-105,8,0,0,0,0,0,0,0,0,0,-1,1119,1016,0,0
-98,8,0,0,0,0,0,0,0,0,0,-1,1126,1016,0,0
-91,8,0,0,0,0,0,0,0,0,0,-1,1133,1016,0,0
-84,8,0,0,0,0,0,0,0,0,0,-1,1140,1016,0,0
-77,8,0,0,0,0,0,0,0,0,0,-1,1147,1016,0,0
-70,8,0,0,0,0,0,0,0,0,0,-1,1154,1016,0,0
-63,8,0,0,0,0,0,0,0,0,0,-1,1161,1016,0,0
-56,8,0,0,0,0,0,0,0,0,0,-1,1168,1016,0,0
-49,8,0,0,0,0,0,0,0,0,0,-1,1175,1016,0,0
-42,8,0,0,0,0,0,0,0,0,0,-1,1182,1016,0,0
-35,8,0,0,0,0,0,0,0,0,0,-1,1189,1016,0,0
-28,8,0,0,0,0,0,0,0,0,0,-1,1196,1016,0,0
-21,8,0,0,0,0,0,0,0,0,0,-1,1203,1016,0,0
-14,8,0,0,0,0,0,0,0,0,0,-1,1210,1016,0,0
-7,8,0,0,0,0,0,0,0,0,0,-1,1217,1016,0,0
0,8,0,0,0,0,0,0,0,0,0,-1,1224,1016,0,0
7,8,0,0,0,0,0,0,0,0,0,-1,1231,1016,0,0
14,8,0,0,0,0,0,0,0,0,0,-1,1238,1016,0,0
21,8,0,0,0,0,0,0,0,0,0,-1,1245,1016,0,0
28,8,0,0,0,0,0,0,0,0,0,-1,1252,1016,0,0
35,8,0,0,0,0,0,0,0,0,0,-1,1259,1016,0,0
42,8,0,0,0,0,0,0,0,0,0,-1,1266,1016,0,0
49,8,0,0,0,0,0,0,0,0,0,-1,1273,1016,0,0
56,8,0,0,0,0,0,0,0,0,0,-1,1280,1016,0,0
63,8,0,0,0,0,0,0,0,0,0,-1,1287,1016,0,0
70,8,0,0,0,0,0,0,0,0,0,-1,1294,1016,0,0
77,8,0,0,0,0,0,0,0,0,0,-1,1301,1016,0,0
84,8,0,0,0,0,0,0,0,0,0,-1,1308,1016,0,0
91,8,0,0,0,0,0,0,0,0,0,-1,1315,1016,0,0
98,8,0,0,0,0,0,0,0,0,0,-1,1322,1016,0,0
105,8,0,0,0,0,0,0,0,0,0,-1,1329,1016,0,0
112,8,0,0,0,0,0,0,0,0,0,-1,1336,1016,0,0
119,8,0,0,0,0,0,0,0,0,0,-1,1343,1016,0,0
126,8,0,0,0,0,0,0,0,0,0,-1,1350,1016,0,0
133,8,0,0,0,0,0,0,0,0,0,-1,1357,1016,0,0
140,8,0,0,0,0,0,0,0,0,0,-1,1364,1016,0,0
147,8,0,0,0,0,0,0,0,0,0,-1,1371,1016,0,0
154,8,0,0,0,0,0,0,0,0,0,-1,1378,1016,0,0
161,8,0,0,0,0,0,0,0,0,0,-1,1385,1016,0,0
168,8,0,0,0,0,0,0,0,0,0,-1,1392,1016,0,0
175,8,0,0,0,0,0,0,0,0,0,-1,1399,1016,0,0
182,8,0,0,0,0,0,0,0,0,0,-1,1406,1016,0,0
189,8,0,0,0,0,0,0,0,0,0,-1,1413,1016,0,0
196,8,0,0,0,0,0,0,0,0,0,-1,1420,1016,0,0
203,8,0,0,0,0,0,0,0,0,0,-1,1427,1016,0,0
210,8,0,0,0,0,0,0,0,0,0,-1,1434,1016,0,0
217,8,0,0,0,0,0,0,0,0,0,-1,1441,1016,0,0
224,8,0,0,0,0,0,0,0,0,0,-1,1448,1016,0,0
231,8,0,0,0,0,0,0,0,0,0,-1,1455,1016,0,0
238,8,0,0,0,0,0,0,0,0,0,-1,1462,1016,0,0
245,8,0,0,0,0,0,0,0,0,0,-1,1469,1016,0,0
252,8,0,0,0,0,0,0,0,0,0,-1,1476,1016,0,0
259,8,0,0,0,0,0,0,0,0,0,-1,1483,1016,0,0
266,8,0,0,0,0,0,0,0,0,0,-1,1490,1016,0,0
273,8,0,0,0,0,0,0,0,0,0,-1,1497,1016,0,0
280,8,0,0,0,0,0,0,0,0,0,-1,1504,1016,0,0
287,8,0,0,0,0,0,0,0,0,0,-1,1511,1016,0,0
294,8,0,0,0,0,0,0,0,0,0,-1,1518,1016,0,0
301,8,0,0,0,0,0,0,0,0,0,-1,1525,1016,0,0
308,8,0,0,0,0,0,0,0,0,0,-1,1532,1016,0,0
315,8,0,0,0,0,0,0,0,0,0,-1,1539,1016,0,0
322,8,0,0,0,0,0,0,0,0,0,-1,1546,1016,0,0
329,8,0,0,0,0,0,0,0,0,0,-1,1553,1016,0,0
336,8,0,0,0,0,0,0,0,0,0,-1,1560,1016,0,0
343,8,0,0,0,0,0,0,0,0,0,-1,1567,1016,0,0
350,8,0,0,0,0,0,0,0,0,0,-1,1574,1016,0,0
357,8,0,0,0,0,0,0,0,0,0,-1,1581,1016,0,0
364,8,0,0,0,0,0,0,0,0,0,-1,1588,1016,0,0
371,8,0,0,0,0,0,0,0,0,0,-1,1595,1016,0,0
378,8,0,0,0,0,0,0,0,0,0,-1,1602,1016,0,0
385,8,0,0,0,0,0,0,0,0,0,-1,1609,1016,0,0
392,8,0,0,0,0,0,0,0,0,0,-1,1616,1016,0,0
399,8,0,0,0,0,0,0,0,0,0,-1,1623,1016,0,0
406,8,0,0,0,0,0,0,0,0,0,-1,1630,1016,0,0
413,8,0,0,0,0,0,0,0,0,0,-1,1637,1016,0,0
420,8,0,0,0,0,0,0,0,0,0,-1,1644,1016,0,0
427,8,0,0,0,0,0,0,0,0,0,-1,1651,1016,0,0
434,8,0,0,0,0,0,0,0,0,0,-1,1658,1016,0,0
441,8,0,0,0,0,0,0,0,0,0,-1,1665,1016,0,0
448,8,0,0,0,0,0,0,0,0,0,-1,1672,1016,0,0
455,8,0,0,0,0,0,0,0,0,0,-1,1679,1016,0,0
462,8,0,0,0,0,0,0,0,0,0,-1,1686,1016,0,0
469,8,0,0,0,0,0,0,0,0,0,-1,1693,1016,0,0
476,8,0,0,0,0,0,0,0,0,0,-1,1700,1016,0,0
483,8,0,0,0,0,0,0,0,0,0,-1,1707,1016,0,0
490,8,0,0,0,0,0,0,0,0,0,-1,1714,1016,0,0
497,8,0,0,0,0,0,0,0,0,0,-1,1721,1016,0,0
504,8,0,0,0,0,0,0,0,0,0,-1,1728,1016,0,0
511,8,0,0,0,0,0,0,0,0,0,-1,1735,1016,0,0
518,8,0,0,0,0,0,0,0,0,0,-1,1742,1016,0,0
525,8,0,0,0,0,0,0,0,0,0,-1,1749,1016,0,0
532,8,0,0,0,0,0,0,0,0,0,-1,1756,1016,0,0
539,8,0,0,0,0,0,0,0,0,0,-1,1763,1016,0,0
546,8,0,0,0,0,0,0,0,0,0,-1,1770,1016,0,0
553,8,0,0,0,0,0,0,0,0,0,-1,1777,1016,0,0
560,8,0,0,0,0,0,0,0,0,0,-1,1784,1016,0,0
567,8,0,0,0,0,0,0,0,0,0,-1,1791,1016,0,0
574,8,0,0,0,0,0,0,0,0,0,-1,1798,1016,0,0
581,8,0,0,0,0,0,0,0,0,0,-1,1805,1016,0,0
588,8,0,0,0,0,0,0,0,0,0,-1,1812,1016,0,0
595,8,0,0,0,0,0,0,0,0,0,-1,1819,1016,0,0
602,8,0,0,0,0,0,0,0,0,0,-1,1826,1016,0,0
609,8,0,0,0,0,0,0,0,0,0,-1,1833,1016,0,0
616,8,0,0,0,0,0,0,0,0,0,-1,1840,1016,0,0
623,8,0,0,0,0,0,0,0,0,0,-1,1847,1016,0,0
630,8,0,0,0,0,0,0,0,0,0,-1,1854,1016,0,0
637,8,0,0,0,0,0,0,0,0,0,-1,1861,1016,0,0
644,8,39.4446,2.01471,0.00235019,0.00744548,0.00706154,0.0124049,-0.00260922,0.95852,0.00926299,0.0418474,1868,1016,39.4446,-2.01472
651,8,39.5842,2.50189,0.00133872,0.00511397,0.00452442,0.00812874,-0.00167605,0.983025,0.00605566,0.0391355,1875,1016,39.5843,-2.50186
658,8,39.5604,2.73462,0.000704574,0.0035545,0.00281266,0.00528256,-0.00102349,1.01986,0.00390781,0.0395768,1882,1016,39.5604,-2.7346
665,8,39.5652,2.64856,0.000311001,0.00259161,0.00182856,0.00360628,-0.000703674,1.0642,0.00266984,0.0401907,1889,1016,39.5652,-2.64853
672,8,39.585,2.47113,7.02725e-05,0.0020215,0.00141663,0.00276596,-0.000674186,1.08695,0.002105,0.0392747,1896,1016,39.585,-2.47112
679,8,39.5786,2.28961,-0.000112282,0.0016692,0.00136321,0.00240688,-0.000849964,1.07478,0.00195064,0.0390216,1903,1016,39.5787,-2.2896
686,8,39.666,2.31781,-0.000226576,0.0013791,0.00151768,0.00229321,-0.00114069,1.02868,0.00201944,0.0414506,1910,1016,39.6661,-2.31784
693,8,39.7753,2.17651,0,0,0,0,0,0,0,-1,1917,1016,39.7753,-2.17652
700,8,39.6414,2.50629,-0.000425077,0.000849882,0.00182796,0.00214833,-0.00172352,0.953174,0.00223989,0.0327828,1924,1016,39.6414,-2.50628
707,8,39.6003,2.57697,-0.000582691,0.000933574,0.00175303,0.00208538,-0.0017345,0.989489,0.00220851,0.02535,1931,1016,39.6004,-2.57695
714,8,39.5873,2.52948,-0.000908942,0.00117522,0.00164696,0.00208209,-0.00181582,1.06747,0.00225221,0.0310948,1938,1016,39.5873,-2.52947
721,8,39.7129,2.46039,0,0,0,0,0,0,0,-1,1945,1016,39.7129,-2.46036
728,8,39.2001,4.98706,0,0,0,0,0,0,0,-1,1952,1016,39.2001,-4.98709
735,8,39.1577,5.06689,0,0,0,0,0,0,0,-1,1959,1016,39.1577,-5.06687
742,8,39.2159,5.29126,0,0,0,0,0,0,0,-1,1966,1016,39.216,-5.29126
749,8,39.3141,5.22638,-0.00536983,0.00611533,-0.000228536,0.00611987,-0.00537438,-1.55091,0.00664086,0.0295292,1973,1016,39.3141,-5.22637
756,8,39.2357,5.17584,-0.00740764,0.00847997,-0.00141202,0.00860449,-0.00753216,-1.48284,0.00932335,0.0208742,1980,1016,39.2357,-5.17586
763,8,39.2511,5.23932,-0.0104153,0.0123488,-0.0029161,0.0127165,-0.010783,-1.44539,0.0135827,0.0147299,1987,1016,39.2512,-5.23935
770,8,39.192,5.22894,-0.0140788,0.0171039,-0.00473848,0.0178081,-0.014783,-1.42327,0.0188435,0.0201959,1994,1016,39.192,-5.22893
777,8,38.8937,5.297,-0.0190794,0.0235598,-0.00684814,0.0246327,-0.0201522,-1.41539,0.0258997,0.0333615,2001,1016,38.8937,-5.29702
784,8,38.6757,5.40375,-0.0249181,0.0307999,-0.00933024,0.0323207,-0.026439,-1.40921,0.0339816,0.0498011,2008,1016,38.6756,-5.40376
791,8,38.3992,5.414,-0.0319217,0.0391138,-0.0123696,0.0412061,-0.034014,-1.40323,0.0434945,0.0473846,2015,1016,38.3992,-5.41403
798,8,38.1831,5.53168,0,0,0,0,0,0,0,-1,2022,1016,38.1831,-5.53166
805,8,38.0149,5.71979,0,0,0,0,0,0,0,-1,2029,1016,38.015,-5.7198
812,8,37.0127,3.75372,0,0,0,0,0,0,0,-1,2036,1016,37.0127,-3.75375
-700,1,0,0,0,0,0,0,0,0,0,-1,524,1023,0,0
-693,1,-26.4948,3.80066,0,0,0,0,0,0,0,-1,531,1023,-26.4948,-3.80064
-686,1,-26.9288,6.52045,0,0,0,0,0,0,0,-1,538,1023,-26.9288,-6.52045
-679,1,-27.5294,6.37311,0,0,0,0,0,0,0,-1,545,1023,-27.5294,-6.3731
-672,1,-28.6101,4.414,0,0,0,0,0,0,0,-1,552,1023,-28.6101,-4.414
-665,1,-29.4944,2.54803,-0.0167335,0.0529528,0.00413099,0.0531968,-0.0169775,1.51179,0.0422757,0.0450183,559,1023,-29.4945,-2.54803
-658,1,-29.1672,2.16895,0,0,0,0,0,0,0,-1,566,1023,-29.1672,-2.16893
-651,1,-29.0532,2.34265,-0.010665,0.0354293,0.00211357,0.035526,-0.0107617,1.52507,0.02797,0.0262295,573,1023,-29.0531,-2.34266
-644,1,-28.899,2.51758,0,0,0,0,0,0,0,-1,580,1023,-28.8991,-2.51759
-637,1,-29.1044,2.44867,-0.00580788,0.0206928,-0.000836554,0.0207192,-0.00583426,-1.53927,0.0161135,0.031473,587,1023,-29.1044,-2.44865
-630,1,-29.3116,2.46442,-0.00344933,0.0152356,-0.00278914,0.0156431,-0.00385679,-1.42574,0.0119241,0.0265609,594,1023,-29.3116,-2.46443
-623,1,-29.2568,2.53088,-0.00197432,0.0100916,-0.00496144,0.0118697,-0.0037524,-1.22667,0.00941655,0.0141684,601,1023,-29.2568,-2.5309
-616,1,-29.3108,2.48846,-0.00101713,0.00701799,-0.00688831,0.0109747,-0.00497388,-1.0494,0.0094227,0.0176452,608,1023,-29.3108,-2.48849
-609,1,-29.293,2.5119,-0.000458544,0.00498372,-0.00830182,0.010999,-0.00647382,-0.943768,0.0102001,0.0186339,615,1023,-29.293,-2.51192
-602,1,-29.1959,2.53137,7.03837e-05,0.00352033,-0.00926945,0.0112239,-0.00763323,-0.877392,0.0109528,0.0136209,622,1023,-29.1959,-2.53134
-595,1,-29.1305,2.49365,0.000555886,0.00204075,-0.0101274,0.0114529,-0.00885624,-0.821987,0.0117574,0.0295139,629,1023,-29.1305,-2.49365
-588,1,-29.0526,1.61035,0.00104432,0.0013487,-0.0104987,0.0116963,-0.00930326,-0.792646,0.0121503,0.0405339,636,1023,-29.0526,-1.61035
-581,1,-28.9318,0.781982,0.00161547,0.000841123,-0.0103505,0.0115861,-0.00912948,-0.766704,0.0119881,0.0281509,643,1023,-28.9318,-0.78198
-574,1,-28.9609,0.889893,0.00170903,0.000466259,-0.00959466,0.0107024,-0.00852712,-0.753062,0.0111258,0.036778,650,1023,-28.9609,-0.889879
-567,1,-28.9703,0.791077,0.00160936,0.000189361,-0.00816392,0.0090941,-0.00729538,-0.742023,0.00948144,0.0404711,657,1023,-28.9703,-0.791048
-560,1,-29.0865,1.00623,0,0,0,0,0,0,0,-1,664,1023,-29.0865,-1.00624
-553,1,-28.869,0.730957,0.00147358,-0.000320699,-0.00370529,0.00438879,-0.00323591,-0.666622,0.00441886,0.0387518,671,1023,-28.869,-0.730959
-546,1,-28.9205,0.766235,0.00165923,-0.00075804,-0.00101659,0.00202991,-0.00112872,-0.349653,0.00184821,0.0382361,678,1023,-28.9205,-0.766245
-539,1,-29.037,0.91394,0.00236248,-0.00117018,0.000858377,0.00256,-0.00136771,0.226179,0.00230223,0.0399573,685,1023,-29.0371,-0.913967
-532,1,-28.8239,0.787781,0.00376836,-0.000807951,6.12578e-05,0.00376918,-0.000808771,0.0133827,0.00282128,0.0419896,692,1023,-28.8238,-0.787799
-525,1,0,0,0,0,0,0,0,0,0,-1,699,1023,0,0
-518,1,0,0,0,0,0,0,0,0,0,-1,706,1023,0,0
-511,1,0,0,0,0,0,0,0,0,0,-1,713,1023,0,0
-504,1,0,0,0,0,0,0,0,0,0,-1,720,1023,0,0
-497,1,0,0,0,0,0,0,0,0,0,-1,727,1023,0,0
-490,1,0,0,0,0,0,0,0,0,0,-1,734,1023,0,0
-483,1,0,0,0,0,0,0,0,0,0,-1,741,1023,0,0
-476,1,0,0,0,0,0,0,0,0,0,-1,748,1023,0,0
-469,1,0,0,0,0,0,0,0,0,0,-1,755,1023,0,0
-462,1,0,0,0,0,0,0,0,0,0,-1,762,1023,0,0
-455,1,0,0,0,0,0,0,0,0,0,-1,769,1023,0,0
-448,1,0,0,0,0,0,0,0,0,0,-1,776,1023,0,0
-441,1,0,0,0,0,0,0,0,0,0,-1,783,1023,0,0
-434,1,0,0,0,0,0,0,0,0,0,-1,790,1023,0,0
-427,1,0,0,0,0,0,0,0,0,0,-1,797,1023,0,0
-420,1,0,0,0,0,0,0,0,0,0,-1,804,1023,0,0
-413,1,0,0,0,0,0,0,0,0,0,-1,811,1023,0,0
-406,1,0,0,0,0,0,0,0,0,0,-1,818,1023,0,0
-399,1,0,0,0,0,0,0,0,0,0,-1,825,1023,0,0
-392,1,0,0,0,0,0,0,0,0,0,-1,832,1023,0,0
-385,1,0,0,0,0,0,0,0,0,0,-1,839,1023,0,0
-378,1,0,0,0,0,0,0,0,0,0,-1,846,1023,0,0
-371,1,0,0,0,0,0,0,0,0,0,-1,853,1023,0,0
-364,1,0,0,0,0,0,0,0,0,0,-1,860,1023,0,0
-357,1,0,0,0,0,0,0,0,0,0,-1,867,1023,0,0
-350,1,0,0,0,0,0,0,0,0,0,-1,874,1023,0,0
-343,1,0,0,0,0,0,0,0,0,0,-1,881,1023,0,0
-336,1,0,0,0,0,0,0,0,0,0,-1,888,1023,0,0
-329,1,0,0,0,0,0,0,0,0,0,-1,895,1023,0,0
-322,1,0,0,0,0,0,0,0,0,0,-1,902,1023,0,0
-315,1,0,0,0,0,0,0,0,0,0,-1,909,1023,0,0
-308,1,0,0,0,0,0,0,0,0,0,-1,916,1023,0,0
-301,1,0,0,0,0,0,0,0,0,0,-1,923,1023,0,0
-294,1,0,0,0,0,0,0,0,0,0,-1,930,1023,0,0
-287,1,0,0,0,0,0,0,0,0,0,-1,937,1023,0,0
-280,1,0,0,0,0,0,0,0,0,0,-1,944,1023,0,0
-273,1,0,0,0,0,0,0,0,0,0,-1,951,1023,0,0
-266,1,0,0,0,0,0,0,0,0,0,-1,958,1023,0,0
-259,1,0,0,0,0,0,0,0,0,0,-1,965,1023,0,0
-252,1,0,0,0,0,0,0,0,0,0,-1,972,1023,0,0
-245,1,0,0,0,0,0,0,0,0,0,-1,979,1023,0,0
-238,1,0,0,0,0,0,0,0,0,0,-1,986,1023,0,0
-231,1,0,0,0,0,0,0,0,0,0,-1,993,1023,0,0
-224,1,0,0,0,0,0,0,0,0,0,-1,1000,1023,0,0
-217,1,0,0,0,0,0,0,0,0,0,-1,1007,1023,0,0
-210,1,0,0,0,0,0,0,0,0,0,-1,1014,1023,0,0
-203,1,0,0,0,0,0,0,0,0,0,-1,1021,1023,0,0
-196,1,0,0,0,0,0,0,0,0,0,-1,1028,1023,0,0
-189,1,0,0,0,0,0,0,0,0,0,-1,1035,1023,0,0
-182,1,0,0,0,0,0,0,0,0,0,-1,1042,1023,0,0
-175,1,0,0,0,0,0,0,0,0,0,-1,1049,1023,0,0
-168,1,0,0,0,0,0,0,0,0,0,-1,1056,1023,0,0
-161,1,0,0,0,0,0,0,0,0,0,-1,1063,1023,0,0
-154,1,0,0,0,0,0,0,0,0,0,-1,1070,1023,0,0
-147,1,0,0,0,0,0,0,0,0,0,-1,1077,1023,0,0
-140,1,0,0,0,0,0,0,0,0,0,-1,1084,1023,0,0
-133,1,0,0,0,0,0,0,0,0,0,-1,1091,1023,0,0
-126,1,0,0,0,0,0,0,0,0,0,-1,1098,1023,0,0
-119,1,0,0,0,0,0,0,0,0,0,-1,1105,1023,0,0
-112,1,0,0,0,0,0,0,0,0,0,-1,1112,1023,0,0
-105,1,0,0,0,0,0,0,0,0,0,-1,1119,1023,0,0
-98,1,0,0,0,0,0,0,0,0,0,-1,1126,1023,0,0
-91,1,0,0,0,0,0,0,0,0,0,-1,1133,1023,0,0
-84,1,0,0,0,0,0,0,0,0,0,-1,1140,1023,0,0
-77,1,0,0,0,0,0,0,0,0,0,-1,1147,1023,0,0
-70,1,0,0,0,0,0,0,0,0,0,-1,1154,1023,0,0
-63,1,0,0,0,0,0,0,0,0,0,-1,1161,1023,0,0
-56,1,0,0,0,0,0,0,0,0,0,-1,1168,1023,0,0
-49,1,0,0,0,0,0,0,0,0,0,-1,1175,1023,0,0
-42,1,0,0,0,0,0,0,0,0,0,-1,1182,1023,0,0
-35,1,0,0,0,0,0,0,0,0,0,-1,1189,1023,0,0
-28,1,0,0,0,0,0,0,0,0,0,-1,1196,1023,0,0
-21,1,0,0,0,0,0,0,0,0,0,-1,1203,1023,0,0
-14,1,0,0,0,0,0,0,0,0,0,-1,1210,1023,0,0
-7,1,0,0,0,0,0,0,0,0,0,-1,1217,1023,0,0
0,1,0,0,0,0,0,0,0,0,0,-1,1224,1023,0,0
7,1,0,0,0,0,0,0,0,0,0,-1,1231,1023,0,0
14,1,0,0,0,0,0,0,0,0,0,-1,1238,1023,0,0
21,1,0,0,0,0,0,0,0,0,0,-1,1245,1023,0,0
28,1,0,0,0,0,0,0,0,0,0,-1,1252,1023,0,0
35,1,0,0,0,0,0,0,0,0,0,-1,1259,1023,0,0
42,1,0,0,0,0,0,0,0,0,0,-1,1266,1023,0,0
49,1,0,0,0,0,0,0,0,0,0,-1,1273,1023,0,0
56,1,0,0,0,0,0,0,0,0,0,-1,1280,1023,0,0
63,1,0,0,0,0,0,0,0,0,0,-1,1287,1023,0,0
70,1,0,0,0,0,0,0,0,0,0,-1,1294,1023,0,0
77,1,0,0,0,0,0,0,0,0,0,-1,1301,1023,0,0
84,1,0,0,0,0,0,0,0,0,0,-1,1308,1023,0,0
91,1,0,0,0,0,0,0,0,0,0,-1,1315,1023,0,0
98,1,0,0,0,0,0,0,0,0,0,-1,1322,1023,0,0
105,1,0,0,0,0,0,0,0,0,0,-1,1329,1023,0,0
112,1,0,0,0,0,0,0,0,0,0,-1,1336,1023,0,0
119,1,0,0,0,0,0,0,0,0,0,-1,1343,1023,0,0
126,1,0,0,0,0,0,0,0,0,0,-1,1350,1023,0,0
133,1,0,0,0,0,0,0,0,0,0,-1,1357,1023,0,0
140,1,0,0,0,0,0,0,0,0,0,-1,1364,1023,0,0
147,1,0,0,0,0,0,0,0,0,0,-1,1371,1023,0,0
154,1,0,0,0,0,0,0,0,0,0,-1,1378,1023,0,0
161,1,0,0,0,0,0,0,0,0,0,-1,1385,1023,0,0
168,1,0,0,0,0,0,0,0,0,0,-1,1392,1023,0,0
175,1,0,0,0,0,0,0,0,0,0,-1,1399,1023,0,0
182,1,0,0,0,0,0,0,0,0,0,-1,1406,1023,0,0
189,1,0,0,0,0,0,0,0,0,0,-1,1413,1023,0,0
196,1,0,0,0,0,0,0,0,0,0,-1,1420,1023,0,0
203,1,0,0,0,0,0,0,0,0,0,-1,1427,1023,0,0
210,1,0,0,0,0,0,0,0,0,0,-1,1434,1023,0,0
217,1,0,0,0,0,0,0,0,0,0,-1,1441,1023,0,0
224,1,0,0,0,0,0,0,0,0,0,-1,1448,1023,0,0
231,1,0,0,0,0,0,0,0,0,0,-1,1455,1023,0,0
238,1,0,0,0,0,0,0,0,0,0,-1,1462,1023,0,0
245,1,0,0,0,0,0,0,0,0,0,-1,1469,1023,0,0
252,1,0,0,0,0,0,0,0,0,0,-1,1476,1023,0,0
259,1,0,0,0,0,0,0,0,0,0,-1,1483,1023,0,0
266,1,0,0,0,0,0,0,0,0,0,-1,1490,1023,0,0
273,1,0,0,0,0,0,0,0,0,0,-1,1497,1023,0,0
280,1,0,0,0,0,0,0,0,0,0,-1,1504,1023,0,0
287,1,0,0,0,0,0,0,0,0,0,-1,1511,1023,0,0
294,1,0,0,0,0,0,0,0,0,0,-1,1518,1023,0,0
301,1,0,0,0,0,0,0,0,0,0,-1,1525,1023,0,0
308,1,0,0,0,0,0,0,0,0,0,-1,1532,1023,0,0
315,1,0,0,0,0,0,0,0,0,0,-1,1539,1023,0,0
322,1,0,0,0,0,0,0,0,0,0,-1,1546,1023,0,0
329,1,0,0,0,0,0,0,0,0,0,-1,1553,1023,0,0
336,1,0,0,0,0,0,0,0,0,0,-1,1560,1023,0,0
343,1,0,0,0,0,0,0,0,0,0,-1,1567,1023,0,0
350,1,0,0,0,0,0,0,0,0,0,-1,1574,1023,0,0
357,1,0,0,0,0,0,0,0,0,0,-1,1581,1023,0,0
364,1,0,0,0,0,0,0,0,0,0,-1,1588,1023,0,0
371,1,0,0,0,0,0,0,0,0,0,-1,1595,1023,0,0
378,1,0,0,0,0,0,0,0,0,0,-1,1602,1023,0,0
385,1,0,0,0,0,0,0,0,0,0,-1,1609,1023,0,0
392,1,0,0,0,0,0,0,0,0,0,-1,1616,1023,0,0
399,1,0,0,0,0,0,0,0,0,0,-1,1623,1023,0,0
406,1,0,0,0,0,0,0,0,0,0,-1,1630,1023,0,0
413,1,0,0,0,0,0,0,0,0,0,-1,1637,1023,0,0
420,1,0,0,0,0,0,0,0,0,0,-1,1644,1023,0,0
427,1,0,0,0,0,0,0,0,0,0,-1,1651,1023,0,0
434,1,0,0,0,0,0,0,0,0,0,-1,1658,1023,0,0
441,1,0,0,0,0,0,0,0,0,0,-1,1665,1023,0,0
448,1,0,0,0,0,0,0,0,0,0,-1,1672,1023,0,0
455,1,0,0,0,0,0,0,0,0,0,-1,1679,1023,0,0
462,1,0,0,0,0,0,0,0,0,0,-1,1686,1023,0,0
469,1,0,0,0,0,0,0,0,0,0,-1,1693,1023,0,0
476,1,0,0,0,0,0,0,0,0,0,-1,1700,1023,0,0
483,1,0,0,0,0,0,0,0,0,0,-1,1707,1023,0,0
490,1,0,0,0,0,0,0,0,0,0,-1,1714,1023,0,0
497,1,0,0,0,0,0,0,0,0,0,-1,1721,1023,0,0
504,1,0,0,0,0,0,0,0,0,0,-1,1728,1023,0,0
511,1,0,0,0,0,0,0,0,0,0,-1,1735,1023,0,0
518,1,0,0,0,0,0,0,0,0,0,-1,1742,1023,0,0
525,1,0,0,0,0,0,0,0,0,0,-1,1749,1023,0,0
532,1,0,0,0,0,0,0,0,0,0,-1,1756,1023,0,0
539,1,0,0,0,0,0,0,0,0,0,-1,1763,1023,0,0
546,1,0,0,0,0,0,0,0,0,0,-1,1770,1023,0,0
553,1,0,0,0,0,0,0,0,0,0,-1,1777,1023,0,0
560,1,0,0,0,0,0,0,0,0,0,-1,1784,1023,0,0
567,1,0,0,0,0,0,0,0,0,0,-1,1791,1023,0,0
574,1,0,0,0,0,0,0,0,0,0,-1,1798,1023,0,0
581,1,0,0,0,0,0,0,0,0,0,-1,1805,1023,0,0
588,1,0,0,0,0,0,0,0,0,0,-1,1812,1023,0,0
595,1,0,0,0,0,0,0,0,0,0,-1,1819,1023,0,0
602,1,0,0,0,0,0,0,0,0,0,-1,1826,1023,0,0
609,1,0,0,0,0,0,0,0,0,0,-1,1833,1023,0,0
616,1,0,0,0,0,0,0,0,0,0,-1,1840,1023,0,0
623,1,0,0,0,0,0,0,0,0,0,-1,1847,1023,0,0
630,1,0,0,0,0,0,0,0,0,0,-1,1854,1023,0,0
637,1,0,0,0,0,0,0,0,0,0,-1,1861,1023,0,0
644,1,0,0,0,0,0,0,0,0,0,-1,1868,1023,0,0
651,1,39.5483,2.47485,0.000726212,0.00495404,0.0046762,0.00797193,-0.00229168,0.99768,0.00622085,0.0388581,1875,1023,39.5483,-2.47485
658,1,39.5945,2.57239,0.000243936,0.00339593,0.00297557,0.0051871,-0.00154723,1.02894,0.00407297,0.0392384,1882,1023,39.5945,-2.57236
665,1,39.6876,2.53723,-2.08695e-05,0.00240341,0.00194648,0.00348432,-0.00110178,1.06388,0.00276432,0.0410336,1889,1023,39.6876,-2.53721
672,1,39.6844,2.52094,-0.000155753,0.0018028,0.00150336,0.0026177,-0.000970659,1.07407,0.00214325,0.0413851,1896,1023,39.6845,-2.52091
679,1,39.5587,2.41705,-0.000241837,0.00142079,0.00140531,0.00222226,-0.00104331,1.05249,0.0019259,0.0394911,1903,1023,39.5588,-2.41704
686,1,39.6169,2.40955,-0.000325743,0.00110643,0.00152703,0.00207694,-0.00129625,1.00464,0.00196482,0.0380707,1910,1023,39.6169,-2.40953
693,1,39.6384,2.43024,-0.000370529,0.000813892,0.00175325,0.00207225,-0.00162889,0.948271,0.00214196,0.0366888,1917,1023,39.6384,-2.43021
700,1,39.6326,2.54224,-0.000481187,0.000573222,0.0018365,0.00195669,-0.00186466,0.925175,0.00220647,0.0322876,1924,1023,39.6326,-2.54226
707,1,39.6028,2.54523,-0.000618859,0.00065814,0.00178518,0.00191557,-0.00187628,0.957143,0.00218927,0.0278328,1931,1023,39.6028,-2.54525
714,1,39.5476,2.48248,-0.000943399,0.000897895,0.00171266,0.00192168,-0.00196718,1.03202,0.00224528,0.0314547,1938,1023,39.5476,-2.48251
721,1,39.6757,2.49829,0,0,0,0,0,0,0,-1,1945,1023,39.6757,-2.49831
728,1,39.1514,5.22961,0,0,0,0,0,0,0,-1,1952,1023,39.1514,-5.22961
735,1,39.1266,5.16907,-0.00298599,0.00293669,0.00122787,0.00318115,-0.00323046,1.37427,0.00370178,0.0287379,1959,1023,39.1265,-5.16908
742,1,39.2133,5.18445,-0.00395478,0.00416906,0.000589206,0.00421158,-0.00399729,1.49877,0.00473993,0.0357194,1966,1023,39.2132,-5.18447
749,1,39.2395,5.2287,-0.00538246,0.00574578,-8.40028e-05,0.00574641,-0.00538309,-1.56325,0.00642676,0.0334164,1973,1023,39.2395,-5.2287
756,1,39.2795,5.22516,-0.00724933,0.00794664,-0.00127846,0.00805345,-0.00735614,-1.48745,0.00889976,0.0207879,1980,1023,39.2795,-5.22515
763,1,39.2327,5.19019,-0.00991848,0.0114322,-0.00291221,0.0118223,-0.0103086,-1.43764,0.0127872,0.0151625,1987,1023,39.2326,-5.19017
770,1,39.2253,5.17914,-0.0131351,0.0157158,-0.00494289,0.0165391,-0.0139585,-1.40574,0.0176288,0.0171507,1994,1023,39.2253,-5.17914
777,1,38.9833,5.14001,-0.017451,0.0214471,-0.00740685,0.0228097,-0.0188136,-1.38886,0.0240681,0.0234378,2001,1023,38.9832,-5.14004
784,1,38.6808,5.22437,-0.0223486,0.0277332,-0.010339,0.0297836,-0.0243991,-1.37501,0.0313339,0.0427342,2008,1023,38.6808,-5.22438
791,1,38.3486,5.16565,-0.0280449,0.0347662,-0.0139666,0.0377318,-0.0310105,-1.36157,0.0397516,0.0458256,2015,1023,38.3487,-5.16564
798,1,38.2305,5.35236,0,0,0,0,0,0,0,-1,2022,1023,38.2304,-5.35237
805,1,37.5571,4.37708,-0.042383,0.0517079,-0.0244086,0.057663,-0.048338,-1.3315,0.0612786,0.0484917,2029,1023,37.5572,-4.37708
812,1,37.679,3.57446,-0.0512169,0.0619375,-0.0320396,0.0703796,-0.059659,-1.31316,0.0751628,0.0473022,2036,1023,37.6789,-3.57444
-700,-6,0,0,0,0,0,0,0,0,0,-1,524,1030,0,0
-693,-6,-26.616,5.83057,0,0,0,0,0,0,0,-1,531,1030,-26.616,-5.8306
-686,-6,-27.0894,5.50513,-0.0264877,0.105044,0.00641901,0.105357,-0.0268002,1.52215,0.0806692,0.0455927,538,1030,-27.0894,-5.50514
-679,-6,-27.7909,5.26099,-0.0213548,0.0876998,0.00536152,0.0879627,-0.0216178,1.52179,0.0670202,0.0483933,545,1030,-27.7909,-5.26094
-672,-6,-28.2458,4.79431,0,0,0,0,0,0,0,-1,552,1030,-28.2458,-4.79426
-665,-6,-29.0829,2.43506,0,0,0,0,0,0,0,-1,559,1030,-29.083,-2.43508
-658,-6,-28.5086,2.66968,0,0,0,0,0,0,0,-1,566,1030,-28.5086,-2.66968
-651,-6,-29.1214,2.23975,0,0,0,0,0,0,0,-1,573,1030,-29.1214,-2.2397
-644,-6,-29.0717,2.75427,0,0,0,0,0,0,0,-1,580,1030,-29.0716,-2.75422
-637,-6,-29.1187,2.51624,-0.00432628,0.0213725,-0.000847006,0.0214003,-0.00435417,-1.53788,0.015918,0.0343375,587,1030,-29.1186,-2.51623
-630,-6,-29.2316,2.42456,-0.00235199,0.0151818,-0.00277687,0.0156111,-0.00278126,-1.41742,0.0114476,0.0195805,594,1030,-29.2316,-2.42457
-623,-6,-29.2128,2.46741,-0.00131956,0.00954347,-0.00498833,0.0114866,-0.00326265,-1.19935,0.00894583,0.0151981,601,1030,-29.2128,-2.46736
-616,-6,-29.2387,2.4873,-0.00068807,0.00622149,-0.00700913,0.010581,-0.0050476,-1.01437,0.00920977,0.0166381,608,1030,-29.2387,-2.48735
-609,-6,-29.2172,2.54602,-0.0003389,0.00418104,-0.00851206,0.010728,-0.0068859,-0.915155,0.0102497,0.0176666,615,1030,-29.2172,-2.54603
-602,-6,-29.1751,2.59106,4.32448e-05,0.00274821,-0.00958813,0.0110788,-0.00828733,-0.855465,0.0112197,0.0133245,622,1030,-29.1751,-2.59111
-595,-6,-29.0587,2.60437,0.000419901,0.00141382,-0.0104445,0.0113731,-0.00953942,-0.809171,0.0120893,0.0209444,629,1030,-29.0587,-2.60432
-588,-6,-29.0144,1.55371,0.000842678,0.000780299,-0.0107685,0.0115801,-0.0099571,-0.78395,0.0124463,0.0246806,636,1030,-29.0144,-1.55375
-581,-6,-28.9742,0.75354,0.00134888,0.000337256,-0.0105619,0.0114171,-0.00973094,-0.761471,0.0122227,0.0240063,643,1030,-28.9742,-0.753515
-574,-6,-29.0383,0.84436,0.00141116,3.69433e-05,-0.00976784,0.010516,-0.00906792,-0.750284,0.0113171,0.0326831,650,1030,-29.0383,-0.844352
-567,-6,-28.9771,0.614868,0.00128837,-0.000120379,-0.00828849,0.00890236,-0.00773437,-0.743009,0.00961311,0.0396364,657,1030,-28.977,-0.614928
-560,-6,-28.8865,0.407349,0.00115867,-0.000189117,-0.00619771,0.00671902,-0.00574947,-0.731245,0.00720593,0.0397181,664,1030,-28.8865,-0.407293
-553,-6,-28.8766,0.496948,0.00104991,-0.000249284,-0.00362826,0.00408627,-0.00328564,-0.696818,0.00426453,0.0386588,671,1030,-28.8766,-0.496932
-546,-6,-28.9402,0.807251,0.0011253,-0.000426557,-0.000761491,0.00143654,-0.000737797,-0.388004,0.00127678,0.0415174,678,1030,-28.9402,-0.807292
-539,-6,-29.0173,1.04883,0.00163517,-0.000568138,0.00120394,0.00216542,-0.00109839,0.414866,0.00191764,0.0436197,685,1030,-29.0174,-1.04885
-532,-6,-28.9367,0.797119,0.00273397,5.24045e-05,0.000218939,0.00275173,3.46464e-05,0.0809318,0.00182304,0.0419819,692,1030,-28.9367,-0.797126
-525,-6,0,0,0,0,0,0,0,0,0,-1,699,1030,0,0
-518,-6,0,0,0,0,0,0,0,0,0,-1,706,1030,0,0
-511,-6,0,0,0,0,0,0,0,0,0,-1,713,1030,0,0
-504,-6,0,0,0,0,0,0,0,0,0,-1,720,1030,0,0
-497,-6,0,0,0,0,0,0,0,0,0,-1,727,1030,0,0
-490,-6,0,0,0,0,0,0,0,0,0,-1,734,1030,0,0
-483,-6,0,0,0,0,0,0,0,0,0,-1,741,1030,0,0
-476,-6,0,0,0,0,0,0,0,0,0,-1,748,1030,0,0
-469,-6,0,0,0,0,0,0,0,0,0,-1,755,1030,0,0
-462,-6,0,0,0,0,0,0,0,0,0,-1,762,1030,0,0
-455,-6,0,0,0,0,0,0,0,0,0,-1,769,1030,0,0
-448,-6,0,0,0,0,0,0,0,0,0,-1,776,1030,0,0
-441,-6,0,0,0,0,0,0,0,0,0,-1,783,1030,0,0
-434,-6,0,0,0,0,0,0,0,0,0,-1,790,1030,0,0
-427,-6,0,0,0,0,0,0,0,0,0,-1,797,1030,0,0
-420,-6,0,0,0,0,0,0,0,0,0,-1,804,1030,0,0
-413,-6,0,0,0,0,0,0,0,0,0,-1,811,1030,0,0
-406,-6,0,0,0,0,0,0,0,0,0,-1,818,1030,0,0
-399,-6,0,0,0,0,0,0,0,0,0,-1,825,1030,0,0
-392,-6,0,0,0,0,0,0,0,0,0,-1,832,1030,0,0
-385,-6,0,0,0,0,0,0,0,0,0,-1,839,1030,0,0
-378,-6,0,0,0,0,0,0,0,0,0,-1,846,1030,0,0
-371,-6,0,0,0,0,0,0,0,0,0,-1,853,1030,0,0
-364,-6,0,0,0,0,0,0,0,0,0,-1,860,1030,0,0
-357,-6,0,0,0,0,0,0,0,0,0,-1,867,1030,0,0
-350,-6,0,0,0,0,0,0,0,0,0,-1,874,1030,0,0
-343,-6,0,0,0,0,0,0,0,0,0,-1,881,1030,0,0
-336,-6,0,0,0,0,0,0,0,0,0,-1,888,1030,0,0
-329,-6,0,0,0,0,0,0,0,0,0,-1,895,1030,0,0
-322,-6,0,0,0,0,0,0,0,0,0,-1,902,1030,0,0
-315,-6,0,0,0,0,0,0,0,0,0,-1,909,1030,0,0
-308,-6,0,0,0,0,0,0,0,0,0,-1,916,1030,0,0
-301,-6,0,0,0,0,0,0,0,0,0,-1,923,1030,0,0
-294,-6,0,0,0,0,0,0,0,0,0,-1,930,1030,0,0
-287,-6,0,0,0,0,0,0,0,0,0,-1,937,1030,0,0
-280,-6,0,0,0,0,0,0,0,0,0,-1,944,1030,0,0
-273,-6,0,0,0,0,0,0,0,0,0,-1,951,1030,0,0
-266,-6,0,0,0,0,0,0,0,0,0,-1,958,1030,0,0
-259,-6,0,0,0,0,0,0,0,0,0,-1,965,1030,0,0
-252,-6,0,0,0,0,0,0,0,0,0,-1,972,1030,0,0
-245,-6,0,0,0,0,0,0,0,0,0,-1,979,1030,0,0
-238,-6,0,0,0,0,0,0,0,0,0,-1,986,1030,0,0
-231,-6,0,0,0,0,0,0,0,0,0,-1,993,1030,0,0
-224,-6,0,0,0,0,0,0,0,0,0,-1,1000,1030,0,0
-217,-6,0,0,0,0,0,0,0,0,0,-1,1007,1030,0,0
-210,-6,0,0,0,0,0,0,0,0,0,-1,1014,1030,0,0
-203,-6,0,0,0,0,0,0,0,0,0,-1,1021,1030,0,0
-196,-6,0,0,0,0,0,0,0,0,0,-1,1028,1030,0,0
-189,-6,0,0,0,0,0,0,0,0,0,-1,1035,1030,0,0
-182,-6,0,0,0,0,0,0,0,0,0,-1,1042,1030,0,0
-175,-6,0,0,0,0,0,0,0,0,0,-1,1049,1030,0,0
-168,-6,0,0,0,0,0,0,0,0,0,-1,1056,1030,0,0
-161,-6,0,0,0,0,0,0,0,0,0,-1,1063,1030,0,0
-154,-6,0,0,0,0,0,0,0,0,0,-1,1070,1030,0,0
-147,-6,0,0,0,0,0,0,0,0,0,-1,1077,1030,0,0
-140,-6,0,0,0,0,0,0,0,0,0,-1,1084,1030,0,0
-133,-6,0,0,0,0,0,0,0,0,0,-1,1091,1030,0,0
-126,-6,0,0,0,0,0,0,0,0,0,-1,1098,1030,0,0
-119,-6,0,0,0,0,0,0,0,0,0,-1,1105,1030,0,0
-112,-6,0,0,0,0,0,0,0,0,0,-1,1112,1030,0,0
-105,-6,0,0,0,0,0,0,0,0,0,-1,1119,1030,0,0
-98,-6,0,0,0,0,0,0,0,0,0,-1,1126,1030,0,0
-91,-6,0,0,0,0,0,0,0,0,0,-1,1133,1030,0,0
-84,-6,0,0,0,0,0,0,0,0,0,-1,1140,1030,0,0
-77,-6,0,0,0,0,0,0,0,0,0,-1,1147,1030,0,0
-70,-6,0,0,0,0,0,0,0,0,0,-1,1154,1030,0,0
-63,-6,0,0,0,0,0,0,0,0,0,-1,1161,1030,0,0
-56,-6,0,0,0,0,0,0,0,0,0,-1,1168,1030,0,0
-49,-6,0,0,0,0,0,0,0,0,0,-1,1175,1030,0,0
-42,-6,0,0,0,0,0,0,0,0,0,-1,1182,1030,0,0
-35,-6,0,0,0,0,0,0,0,0,0,-1,1189,1030,0,0
-28,-6,0,0,0,0,0,0,0,0,0,-1,1196,1030,0,0
-21,-6,0,0,0,0,0,0,0,0,0,-1,1203,1030,0,0
-14,-6,0,0,0,0,0,0,0,0,0,-1,1210,1030,0,0
-7,-6,0,0,0,0,0,0,0,0,0,-1,1217,1030,0,0
0,-6,0,0,0,0,0,0,0,0,0,-1,1224,1030,0,0
7,-6,0,0,0,0,0,0,0,0,0,-1,1231,1030,0,0
14,-6,0,0,0,0,0,0,0,0,0,-1,1238,1030,0,0
21,-6,0,0,0,0,0,0,0,0,0,-1,1245,1030,0,0
28,-6,0,0,0,0,0,0,0,0,0,-1,1252,1030,0,0
35,-6,0,0,0,0,0,0,0,0,0,-1,1259,1030,0,0
42,-6,0,0,0,0,0,0,0,0,0,-1,1266,1030,0,0
49,-6,0,0,0,0,0,0,0,0,0,-1,1273,1030,0,0
56,-6,0,0,0,0,0,0,0,0,0,-1,1280,1030,0,0
63,-6,0,0,0,0,0,0,0,0,0,-1,1287,1030,0,0
70,-6,0,0,0,0,0,0,0,0,0,-1,1294,1030,0,0
77,-6,0,0,0,0,0,0,0,0,0,-1,1301,1030,0,0
84,-6,0,0,0,0,0,0,0,0,0,-1,1308,1030,0,0
91,-6,0,0,0,0,0,0,0,0,0,-1,1315,1030,0,0
98,-6,0,0,0,0,0,0,0,0,0,-1,1322,1030,0,0
105,-6,0,0,0,0,0,0,0,0,0,-1,1329,1030,0,0
112,-6,0,0,0,0,0,0,0,0,0,-1,1336,1030,0,0
119,-6,0,0,0,0,0,0,0,0,0,-1,1343,1030,0,0
126,-6,0,0,0,0,0,0,0,0,0,-1,1350,1030,0,0
133,-6,0,0,0,0,0,0,0,0,0,-1,1357,1030,0,0
140,-6,0,0,0,0,0,0,0,0,0,-1,1364,1030,0,0
147,-6,0,0,0,0,0,0,0,0,0,-1,1371,1030,0,0
154,-6,0,0,0,0,0,0,0,0,0,-1,1378,1030,0,0
161,-6,0,0,0,0,0,0,0,0,0,-1,1385,1030,0,0
168,-6,0,0,0,0,0,0,0,0,0,-1,1392,1030,0,0
175,-6,0,0,0,0,0,0,0,0,0,-1,1399,1030,0,0
182,-6,0,0,0,0,0,0,0,0,0,-1,1406,1030,0,0
189,-6,0,0,0,0,0,0,0,0,0,-1,1413,1030,0,0
196,-6,0,0,0,0,0,0,0,0,0,-1,1420,1030,0,0
203,-6,0,0,0,0,0,0,0,0,0,-1,1427,1030,0,0
210,-6,0,0,0,0,0,0,0,0,0,-1,1434,1030,0,0
217,-6,0,0,0,0,0,0,0,0,0,-1,1441,1030,0,0
224,-6,0,0,0,0,0,0,0,0,0,-1,1448,1030,0,0
231,-6,0,0,0,0,0,0,0,0,0,-1,1455,1030,0,0
238,-6,0,0,0,0,0,0,0,0,0,-1,1462,1030,0,0
245,-6,0,0,0,0,0,0,0,0,0,-1,1469,1030,0,0
252,-6,0,0,0,0,0,0,0,0,0,-1,1476,1030,0,0
259,-6,0,0,0,0,0,0,0,0,0,-1,1483,1030,0,0
266,-6,0,0,0,0,0,0,0,0,0,-1,1490,1030,0,0
273,-6,0,0,0,0,0,0,0,0,0,-1,1497,1030,0,0
280,-6,0,0,0,0,0,0,0,0,0,-1,1504,1030,0,0
287,-6,0,0,0,0,0,0,0,0,0,-1,1511,1030,0,0
294,-6,0,0,0,0,0,0,0,0,0,-1,1518,1030,0,0
301,-6,0,0,0,0,0,0,0,0,0,-1,1525,1030,0,0
308,-6,0,0,0,0,0,0,0,0,0,-1,1532,1030,0,0
315,-6,0,0,0,0,0,0,0,0,0,-1,1539,1030,0,0
322,-6,0,0,0,0,0,0,0,0,0,-1,1546,1030,0,0
329,-6,0,0,0,0,0,0,0,0,0,-1,1553,1030,0,0
336,-6,0,0,0,0,0,0,0,0,0,-1,1560,1030,0,0
343,-6,0,0,0,0,0,0,0,0,0,-1,1567,1030,0,0
350,-6,0,0,0,0,0,0,0,0,0,-1,1574,1030,0,0
357,-6,0,0,0,0,0,0,0,0,0,-1,1581,1030,0,0
364,-6,0,0,0,0,0,0,0,0,0,-1,1588,1030,0,0
371,-6,0,0,0,0,0,0,0,0,0,-1,1595,1030,0,0
378,-6,0,0,0,0,0,0,0,0,0,-1,1602,1030,0,0
385,-6,0,0,0,0,0,0,0,0,0,-1,1609,1030,0,0
392,-6,0,0,0,0,0,0,0,0,0,-1,1616,1030,0,0
399,-6,0,0,0,0,0,0,0,0,0,-1,1623,1030,0,0
406,-6,0,0,0,0,0,0,0,0,0,-1,1630,1030,0,0
413,-6,0,0,0,0,0,0,0,0,0,-1,1637,1030,0,0
420,-6,0,0,0,0,0,0,0,0,0,-1,1644,1030,0,0
427,-6,0,0,0,0,0,0,0,0,0,-1,1651,1030,0,0
434,-6,0,0,0,0,0,0,0,0,0,-1,1658,1030,0,0
441,-6,0,0,0,0,0,0,0,0,0,-1,1665,1030,0,0
448,-6,0,0,0,0,0,0,0,0,0,-1,1672,1030,0,0
455,-6,0,0,0,0,0,0,0,0,0,-1,1679,1030,0,0
462,-6,0,0,0,0,0,0,0,0,0,-1,1686,1030,0,0
469,-6,0,0,0,0,0,0,0,0,0,-1,1693,1030,0,0
476,-6,0,0,0,0,0,0,0,0,0,-1,1700,1030,0,0
483,-6,0,0,0,0,0,0,0,0,0,-1,1707,1030,0,0
490,-6,0,0,0,0,0,0,0,0,0,-1,1714,1030,0,0
497,-6,0,0,0,0,0,0,0,0,0,-1,1721,1030,0,0
504,-6,0,0,0,0,0,0,0,0,0,-1,1728,1030,0,0
511,-6,0,0,0,0,0,0,0,0,0,-1,1735,1030,0,0
518,-6,0,0,0,0,0,0,0,0,0,-1,1742,1030,0,0
525,-6,0,0,0,0,0,0,0,0,0,-1,1749,1030,0,0
532,-6,0,0,0,0,0,0,0,0,0,-1,1756,1030,0,0
539,-6,0,0,0,0,0,0,0,0,0,-1,1763,1030,0,0
546,-6,0,0,0,0,0,0,0,0,0,-1,1770,1030,0,0
553,-6,0,0,0,0,0,0,0,0,0,-1,1777,1030,0,0
560,-6,0,0,0,0,0,0,0,0,0,-1,1784,1030,0,0
567,-6,0,0,0,0,0,0,0,0,0,-1,1791,1030,0,0
574,-6,0,0,0,0,0,0,0,0,0,-1,1798,1030,0,0
581,-6,0,0,0,0,0,0,0,0,0,-1,1805,1030,0,0
588,-6,0,0,0,0,0,0,0,0,0,-1,1812,1030,0,0
595,-6,0,0,0,0,0,0,0,0,0,-1,1819,1030,0,0
602,-6,0,0,0,0,0,0,0,0,0,-1,1826,1030,0,0
609,-6,0,0,0,0,0,0,0,0,0,-1,1833,1030,0,0
616,-6,0,0,0,0,0,0,0,0,0,-1,1840,1030,0,0
623,-6,0,0,0,0,0,0,0,0,0,-1,1847,1030,0,0
630,-6,0,0,0,0,0,0,0,0,0,-1,1854,1030,0,0
637,-6,0,0,0,0,0,0,0,0,0,-1,1861,1030,0,0
644,-6,0,0,0,0,0,0,0,0,0,-1,1868,1030,0,0
651,-6,39.7085,2.52173,0.000130261,0.004337,0.00467527,0.00736026,-0.002893,0.996781,0.00610414,0.0387128,1875,1030,39.7085,-2.52175
658,-6,39.6421,2.54382,-0.000223173,0.00295617,0.00297462,0.00473925,-0.00200625,1.0308,0.00399965,0.040455,1882,1030,39.6421,-2.54385
665,-6,39.6947,2.53442,-0.000383232,0.00204742,0.0019297,0.00311262,-0.00144843,1.06642,0.00269111,0.0416371,1889,1030,39.6946,-2.53445
672,-6,39.7434,2.60657,-0.000425563,0.0014891,0.0014924,0.00230483,-0.00124129,1.07058,0.00207782,0.0405297,1896,1030,39.7434,-2.60655
679,-6,39.5621,2.54895,-0.000418727,0.00112077,0.00139295,0.0019425,-0.00124046,1.03782,0.00185253,0.0399793,1903,1030,39.5621,-2.5489
686,-6,39.4456,2.47229,-0.000464207,0.000799471,0.00152096,0.00181461,-0.00147934,0.982263,0.00190505,0.0373464,1910,1030,39.4456,-2.47224
693,-6,39.5815,2.47437,-0.000484864,0.000502031,0.00176546,0.0018417,-0.00182454,0.921671,0.00211671,0.0367637,1917,1030,39.5815,-2.47434
700,-6,39.6327,2.50244,-0.00056813,0.000268674,0.00188439,0.00178056,-0.00208001,0.894644,0.00223114,0.0310246,1924,1030,39.6327,-2.50243
707,-6,39.5447,2.52319,-0.000690893,0.000344881,0.00186692,0.00176442,-0.00211043,0.920697,0.00224012,0.0283872,1931,1030,39.5447,-2.52314
714,-6,39.5485,2.36938,-0.000998896,0.000575478,0.00183268,0.00178287,-0.00220629,0.988248,0.00230747,0.0398259,1938,1030,39.5485,-2.36936
721,-6,39.6671,2.20435,0,0,0,0,0,0,0,-1,1945,1030,39.6671,-2.20433
728,-6,39.1072,5.18896,0,0,0,0,0,0,0,-1,1952,1030,39.1071,-5.18901
735,-6,39.1598,5.13843,-0.0030137,0.00256652,0.0014066,0.00290103,-0.00334821,1.33732,0.00361108,0.0274509,1959,1030,39.1598,-5.13848
742,-6,39.243,5.14624,-0.00392941,0.00375083,0.000789263,0.0038311,-0.00400968,1.46944,0.00452727,0.026765,1966,1030,39.2431,-5.14623
749,-6,39.2334,5.23462,-0.00524703,0.00523195,0.000132586,0.00523362,-0.00524871,1.55815,0.00605198,0.0229233,1973,1030,39.2335,-5.23457
756,-6,39.2655,5.15833,-0.00691394,0.00725116,-0.00108109,0.00733319,-0.00699598,-1.49506,0.00827371,0.017645,1980,1030,39.2655,-5.1583
763,-6,39.209,5.09448,-0.00918658,0.0103548,-0.00282649,0.0107554,-0.0095872,-1.43,0.0117512,0.017399,1987,1030,39.209,-5.09449
770,-6,39.1669,5.06982,-0.0119043,0.0141596,-0.00500982,0.0150893,-0.0128341,-1.38729,0.0161391,0.0157926,1994,1030,39.1668,-5.06977
777,-6,39.0848,5.06262,-0.015445,0.0191516,-0.00773192,0.0208009,-0.0170944,-1.36063,0.0219138,0.0165927,2001,1030,39.0848,-5.06266
784,-6,38.8922,5.0238,-0.0193481,0.0245184,-0.0109809,0.0271136,-0.0219434,-1.33871,0.0283754,0.0379403,2008,1030,38.8923,-5.02374
791,-6,38.6711,4.97437,-0.0237558,0.030395,-0.0150212,0.0342827,-0.0276435,-1.31754,0.0358215,0.0472486,2015,1030,38.671,-4.97436
798,-6,38.4202,4.7887,-0.0286762,0.0368256,-0.0201237,0.0425141,-0.0343647,-1.29531,0.044469,0.0469314,2022,1030,38.4202,-4.78869
805,-6,38.1787,4.39795,-0.0339165,0.04387,-0.0267278,0.0521685,-0.042215,-1.26975,0.0545932,0.0462374,2029,1030,38.1787,-4.39798
812,-6,38.3489,3.74426,-0.0393715,0.051416,-0.0353195,0.063538,-0.0514935,-1.24018,0.0665347,0.0458739,2036,1030,38.349,-3.74421
-700,-13,0,0,0,0,0,0,0,0,0,-1,524,1037,0,0
-693,-13,-27.564,4.64453,-0.0274134,0.151459,0.00442935,0.151569,-0.027523,1.54605,0.11136,0.0496411,531,1037,-27.564,-4.64449
-686,-13,-27.8458,4.38245,-0.021245,0.123968,0.00437461,0.1241,-0.0213767,1.54071,0.0907024,0.04517,538,1037,-27.8458,-4.38247
-679,-13,-28.1069,4.15662,-0.0167674,0.101616,0.00407121,0.101756,-0.0169072,1.53646,0.0741185,0.0474273,545,1037,-28.1069,-4.15656
-672,-13,-28.5103,3.95691,0,0,0,0,0,0,0,-1,552,1037,-28.5103,-3.95694
-665,-13,-28.9624,2.44067,-0.0102635,0.0671206,0.00310805,0.0672452,-0.0103881,1.53072,0.0486638,0.0448007,559,1037,-28.9624,-2.44063
-658,-13,-28.6765,2.28076,-0.00792895,0.053472,0.00258326,0.0535804,-0.00803744,1.52882,0.0386788,0.0459049,566,1037,-28.6765,-2.2808
-651,-13,-28.8865,1.84448,-0.00604731,0.0416464,0.00201908,0.0417317,-0.00613263,1.52856,0.0300745,0.0420362,573,1037,-28.8865,-1.84447
-644,-13,-28.9384,2.17957,-0.0045725,0.0308301,0.000929289,0.0308545,-0.00459688,1.54457,0.0222607,0.030203,580,1037,-28.9384,-2.17956
-637,-13,-29.0215,2.34436,-0.00297187,0.0215424,-0.000717795,0.0215634,-0.00299287,-1.54155,0.01547,0.0240245,587,1037,-29.0216,-2.34441
-630,-13,-29.1252,2.34851,-0.00142735,0.0147437,-0.00267211,0.0151738,-0.00185745,-1.41121,0.0107885,0.0157482,594,1037,-29.1252,-2.34852
-623,-13,-29.1357,2.43005,-0.000821948,0.00884915,-0.00494648,0.010931,-0.00290378,-1.17243,0.00842376,0.0135216,601,1037,-29.1357,-2.43004
-616,-13,-29.1196,2.50122,-0.000454718,0.00538788,-0.00705451,0.010102,-0.00516887,-0.981701,0.0089687,0.0123095,608,1037,-29.1196,-2.50123
-609,-13,-29.1098,2.56091,-0.000253369,0.00337309,-0.008648,0.0103959,-0.00727618,-0.888736,0.0102558,0.017381,615,1037,-29.1098,-2.56096
-602,-13,-29.0952,2.63684,1.93698e-05,0.00200539,-0.00981383,0.0108763,-0.00885156,-0.835819,0.0114099,0.0128441,622,1037,-29.0952,-2.6369
-595,-13,-29.1059,2.69727,0,0,0,0,0,0,0,-1,629,1037,-29.1059,-2.69728
-588,-13,-28.93,0.739624,0,0,0,0,0,0,0,-1,636,1037,-28.93,-0.739666
-581,-13,-28.9626,0.710938,0.00107619,-0.000120152,-0.0107042,0.0111989,-0.0102429,-0.757486,0.0123836,0.0168402,643,1037,-28.9626,-0.710975
-574,-13,-29.0361,0.716797,0.00111035,-0.000356798,-0.00990729,0.0103112,-0.00955764,-0.748444,0.011474,0.0321475,650,1037,-29.0361,-0.716753
-567,-13,-29.0923,0.65271,0.000967321,-0.000413571,-0.00842114,0.00872627,-0.00817252,-0.744495,0.00975827,0.0377856,657,1037,-29.0923,-0.652716
-560,-13,-28.975,0.480469,0.000799925,-0.000342679,-0.00629929,0.00655376,-0.00609652,-0.740175,0.00730523,0.0408758,664,1037,-28.9751,-0.48046
-553,-13,-28.8609,0.653564,0.000616302,-0.000225239,-0.0036538,0.00387348,-0.00348242,-0.728071,0.00424893,0.0403789,671,1037,-28.8609,-0.65353
-546,-13,-28.835,0.886963,0.000551358,-0.000184801,-0.00064491,0.000925836,-0.000559279,-0.526082,0.000866093,0.0404929,678,1037,-28.8349,-0.886948
-539,-13,-28.9974,1.03186,0.000800935,-0.000127232,0.00142621,0.00183667,-0.00116296,0.628103,0.00174634,0.0412141,685,1037,-28.9974,-1.03189
-532,-13,-29.0618,0.940308,0.00142864,0.000622063,0.000292403,0.00152349,0.000527214,0.313668,0.000893377,0.0408809,692,1037,-29.0618,-0.940252
-525,-13,0,0,0,0,0,0,0,0,0,-1,699,1037,0,0
-518,-13,0,0,0,0,0,0,0,0,0,-1,706,1037,0,0
-511,-13,0,0,0,0,0,0,0,0,0,-1,713,1037,0,0
-504,-13,0,0,0,0,0,0,0,0,0,-1,720,1037,0,0
-497,-13,0,0,0,0,0,0,0,0,0,-1,727,1037,0,0
-490,-13,0,0,0,0,0,0,0,0,0,-1,734,1037,0,0
-483,-13,0,0,0,0,0,0,0,0,0,-1,741,1037,0,0
-476,-13,0,0,0,0,0,0,0,0,0,-1,748,1037,0,0
-469,-13,0,0,0,0,0,0,0,0,0,-1,755,1037,0,0
-462,-13,0,0,0,0,0,0,0,0,0,-1,762,1037,0,0
-455,-13,0,0,0,0,0,0,0,0,0,-1,769,1037,0,0
-448,-13,0,0,0,0,0,0,0,0,0,-1,776,1037,0,0
-441,-13,0,0,0,0,0,0,0,0,0,-1,783,1037,0,0
-434,-13,0,0,0,0,0,0,0,0,0,-1,790,1037,0,0
-427,-13,0,0,0,0,0,0,0,0,0,-1,797,1037,0,0
-420,-13,0,0,0,0,0,0,0,0,0,-1,804,1037,0,0
-413,-13,0,0,0,0,0,0,0,0,0,-1,811,1037,0,0
-406,-13,0,0,0,0,0,0,0,0,0,-1,818,1037,0,0
-399,-13,0,0,0,0,0,0,0,0,0,-1,825,1037,0,0
-392,-13,0,0,0,0,0,0,0,0,0,-1,832,1037,0,0
-385,-13,0,0,0,0,0,0,0,0,0,-1,839,1037,0,0
-378,-13,0,0,0,0,0,0,0,0,0,-1,846,1037,0,0
-371,-13,0,0,0,0,0,0,0,0,0,-1,853,1037,0,0
-364,-13,0,0,0,0,0,0,0,0,0,-1,860,1037,0,0
-357,-13,0,0,0,0,0,0,0,0,0,-1,867,1037,0,0
-350,-13,0,0,0,0,0,0,0,0,0,-1,874,1037,0,0
-343,-13,0,0,0,0,0,0,0,0,0,-1,881,1037,0,0
-336,-13,0,0,0,0,0,0,0,0,0,-1,888,1037,0,0
-329,-13,0,0,0,0,0,0,0,0,0,-1,895,1037,0,0
-322,-13,0,0,0,0,0,0,0,0,0,-1,902,1037,0,0
-315,-13,0,0,0,0,0,0,0,0,0,-1,909,1037,0,0
-308,-13,0,0,0,0,0,0,0,0,0,-1,916,1037,0,0
-301,-13,0,0,0,0,0,0,0,0,0,-1,923,1037,0,0
-294,-13,0,0,0,0,0,0,0,0,0,-1,930,1037,0,0
-287,-13,0,0,0,0,0,0,0,0,0,-1,937,1037,0,0
-280,-13,0,0,0,0,0,0,0,0,0,-1,944,1037,0,0
-273,-13,0,0,0,0,0,0,0,0,0,-1,951,1037,0,0
-266,-13,0,0,0,0,0,0,0,0,0,-1,958,1037,0,0
-259,-13,0,0,0,0,0,0,0,0,0,-1,965,1037,0,0
-252,-13,0,0,0,0,0,0,0,0,0,-1,972,1037,0,0
-245,-13,0,0,0,0,0,0,0,0,0,-1,979,1037,0,0
-238,-13,0,0,0,0,0,0,0,0,0,-1,986,1037,0,0
-231,-13,0,0,0,0,0,0,0,0,0,-1,993,1037,0,0
-224,-13,0,0,0,0,0,0,0,0,0,-1,1000,1037,0,0
-217,-13,0,0,0,0,0,0,0,0,0,-1,1007,1037,0,0
-210,-13,0,0,0,0,0,0,0,0,0,-1,1014,1037,0,0
-203,-13,0,0,0,0,0,0,0,0,0,-1,1021,1037,0,0
-196,-13,0,0,0,0,0,0,0,0,0,-1,1028,1037,0,0
-189,-13,0,0,0,0,0,0,0,0,0,-1,1035,1037,0,0
-182,-13,0,0,0,0,0,0,0,0,0,-1,1042,1037,0,0
-175,-13,0,0,0,0,0,0,0,0,0,-1,1049,1037,0,0
-168,-13,0,0,0,0,0,0,0,0,0,-1,1056,1037,0,0
-161,-13,0,0,0,0,0,0,0,0,0,-1,1063,1037,0,0
-154,-13,0,0,0,0,0,0,0,0,0,-1,1070,1037,0,0
-147,-13,0,0,0,0,0,0,0,0,0,-1,1077,1037,0,0
-140,-13,0,0,0,0,0,0,0,0,0,-1,1084,1037,0,0
-133,-13,0,0,0,0,0,0,0,0,0,-1,1091,1037,0,0
-126,-13,0,0,0,0,0,0,0,0,0,-1,1098,1037,0,0
-119,-13,0,0,0,0,0,0,0,0,0,-1,1105,1037,0,0
-112,-13,0,0,0,0,0,0,0,0,0,-1,1112,1037,0,0
-105,-13,0,0,0,0,0,0,0,0,0,-1,1119,1037,0,0
-98,-13,0,0,0,0,0,0,0,0,0,-1,1126,1037,0,0
-91,-13,0,0,0,0,0,0,0,0,0,-1,1133,1037,0,0
-84,-13,0,0,0,0,0,0,0,0,0,-1,1140,1037,0,0
-77,-13,0,0,0,0,0,0,0,0,0,-1,1147,1037,0,0
-70,-13,0,0,0,0,0,0,0,0,0,-1,1154,1037,0,0
-63,-13,0,0,0,0,0,0,0,0,0,-1,1161,1037,0,0
-56,-13,0,0,0,0,0,0,0,0,0,-1,1168,1037,0,0
-49,-13,0,0,0,0,0,0,0,0,0,-1,1175,1037,0,0
-42,-13,0,0,0,0,0,0,0,0,0,-1,1182,1037,0,0
-35,-13,0,0,0,0,0,0,0,0,0,-1,1189,1037,0,0
-28,-13,0,0,0,0,0,0,0,0,0,-1,1196,1037,0,0
-21,-13,0,0,0,0,0,0,0,0,0,-1,1203,1037,0,0
-14,-13,0,0,0,0,0,0,0,0,0,-1,1210,1037,0,0
-7,-13,0,0,0,0,0,0,0,0,0,-1,1217,1037,0,0
0,-13,0,0,0,0,0,0,0,0,0,-1,1224,1037,0,0
7,-13,0,0,0,0,0,0,0,0,0,-1,1231,1037,0,0
14,-13,0,0,0,0,0,0,0,0,0,-1,1238,1037,0,0
21,-13,0,0,0,0,0,0,0,0,0,-1,1245,1037,0,0
28,-13,0,0,0,0,0,0,0,0,0,-1,1252,1037,0,0
35,-13,0,0,0,0,0,0,0,0,0,-1,1259,1037,0,0
42,-13,0,0,0,0,0,0,0,0,0,-1,1266,1037,0,0
49,-13,0,0,0,0,0,0,0,0,0,-1,1273,1037,0,0
56,-13,0,0,0,0,0,0,0,0,0,-1,1280,1037,0,0
63,-13,0,0,0,0,0,0,0,0,0,-1,1287,1037,0,0
70,-13,0,0,0,0,0,0,0,0,0,-1,1294,1037,0,0
77,-13,0,0,0,0,0,0,0,0,0,-1,1301,1037,0,0
84,-13,0,0,0,0,0,0,0,0,0,-1,1308,1037,0,0
91,-13,0,0,0,0,0,0,0,0,0,-1,1315,1037,0,0
98,-13,0,0,0,0,0,0,0,0,0,-1,1322,1037,0,0
105,-13,0,0,0,0,0,0,0,0,0,-1,1329,1037,0,0
112,-13,0,0,0,0,0,0,0,0,0,-1,1336,1037,0,0
119,-13,0,0,0,0,0,0,0,0,0,-1,1343,1037,0,0
126,-13,0,0,0,0,0,0,0,0,0,-1,1350,1037,0,0
133,-13,0,0,0,0,0,0,0,0,0,-1,1357,1037,0,0
140,-13,0,0,0,0,0,0,0,0,0,-1,1364,1037,0,0
147,-13,0,0,0,0,0,0,0,0,0,-1,1371,1037,0,0
154,-13,0,0,0,0,0,0,0,0,0,-1,1378,1037,0,0
161,-13,0,0,0,0,0,0,0,0,0,-1,1385,1037,0,0
168,-13,0,0,0,0,0,0,0,0,0,-1,1392,1037,0,0
175,-13,0,0,0,0,0,0,0,0,0,-1,1399,1037,0,0
182,-13,0,0,0,0,0,0,0,0,0,-1,1406,1037,0,0
189,-13,0,0,0,0,0,0,0,0,0,-1,1413,1037,0,0
196,-13,0,0,0,0,0,0,0,0,0,-1,1420,1037,0,0
203,-13,0,0,0,0,0,0,0,0,0,-1,1427,1037,0,0
210,-13,0,0,0,0,0,0,0,0,0,-1,1434,1037,0,0
217,-13,0,0,0,0,0,0,0,0,0,-1,1441,1037,0,0
224,-13,0,0,0,0,0,0,0,0,0,-1,1448,1037,0,0
231,-13,0,0,0,0,0,0,0,0,0,-1,1455,1037,0,0
238,-13,0,0,0,0,0,0,0,0,0,-1,1462,1037,0,0
245,-13,0,0,0,0,0,0,0,0,0,-1,1469,1037,0,0
252,-13,0,0,0,0,0,0,0,0,0,-1,1476,1037,0,0
259,-13,0,0,0,0,0,0,0,0,0,-1,1483,1037,0,0
266,-13,0,0,0,0,0,0,0,0,0,-1,1490,1037,0,0
273,-13,0,0,0,0,0,0,0,0,0,-1,1497,1037,0,0
280,-13,0,0,0,0,0,0,0,0,0,-1,1504,1037,0,0
287,-13,0,0,0,0,0,0,0,0,0,-1,1511,1037,0,0
294,-13,0,0,0,0,0,0,0,0,0,-1,1518,1037,0,0
301,-13,0,0,0,0,0,0,0,0,0,-1,1525,1037,0,0
308,-13,0,0,0,0,0,0,0,0,0,-1,1532,1037,0,0
315,-13,0,0,0,0,0,0,0,0,0,-1,1539,1037,0,0
322,-13,0,0,0,0,0,0,0,0,0,-1,1546,1037,0,0
329,-13,0,0,0,0,0,0,0,0,0,-1,1553,1037,0,0
336,-13,0,0,0,0,0,0,0,0,0,-1,1560,1037,0,0
343,-13,0,0,0,0,0,0,0,0,0,-1,1567,1037,0,0
350,-13,0,0,0,0,0,0,0,0,0,-1,1574,1037,0,0
357,-13,0,0,0,0,0,0,0,0,0,-1,1581,1037,0,0
364,-13,0,0,0,0,0,0,0,0,0,-1,1588,1037,0,0
371,-13,0,0,0,0,0,0,0,0,0,-1,1595,1037,0,0
378,-13,0,0,0,0,0,0,0,0,0,-1,1602,1037,0,0
385,-13,0,0,0,0,0,0,0,0,0,-1,1609,1037,0,0
392,-13,0,0,0,0,0,0,0,0,0,-1,1616,1037,0,0
399,-13,0,0,0,0,0,0,0,0,0,-1,1623,1037,0,0
406,-13,0,0,0,0,0,0,0,0,0,-1,1630,1037,0,0
413,-13,0,0,0,0,0,0,0,0,0,-1,1637,1037,0,0
420,-13,0,0,0,0,0,0,0,0,0,-1,1644,1037,0,0
427,-13,0,0,0,0,0,0,0,0,0,-1,1651,1037,0,0
434,-13,0,0,0,0,0,0,0,0,0,-1,1658,1037,0,0
441,-13,0,0,0,0,0,0,0,0,0,-1,1665,1037,0,0
448,-13,0,0,0,0,0,0,0,0,0,-1,1672,1037,0,0
455,-13,0,0,0,0,0,0,0,0,0,-1,1679,1037,0,0
462,-13,0,0,0,0,0,0,0,0,0,-1,1686,1037,0,0
469,-13,0,0,0,0,0,0,0,0,0,-1,1693,1037,0,0
476,-13,0,0,0,0,0,0,0,0,0,-1,1700,1037,0,0
483,-13,0,0,0,0,0,0,0,0,0,-1,1707,1037,0,0
490,-13,0,0,0,0,0,0,0,0,0,-1,1714,1037,0,0
497,-13,0,0,0,0,0,0,0,0,0,-1,1721,1037,0,0
504,-13,0,0,0,0,0,0,0,0,0,-1,1728,1037,0,0
511,-13,0,0,0,0,0,0,0,0,0,-1,1735,1037,0,0
518,-13,0,0,0,0,0,0,0,0,0,-1,1742,1037,0,0
525,-13,0,0,0,0,0,0,0,0,0,-1,1749,1037,0,0
532,-13,0,0,0,0,0,0,0,0,0,-1,1756,1037,0,0
539,-13,0,0,0,0,0,0,0,0,0,-1,1763,1037,0,0
546,-13,0,0,0,0,0,0,0,0,0,-1,1770,1037,0,0
553,-13,0,0,0,0,0,0,0,0,0,-1,1777,1037,0,0
560,-13,0,0,0,0,0,0,0,0,0,-1,1784,1037,0,0
567,-13,0,0,0,0,0,0,0,0,0,-1,1791,1037,0,0
574,-13,0,0,0,0,0,0,0,0,0,-1,1798,1037,0,0
581,-13,0,0,0,0,0,0,0,0,0,-1,1805,1037,0,0
588,-13,0,0,0,0,0,0,0,0,0,-1,1812,1037,0,0
595,-13,0,0,0,0,0,0,0,0,0,-1,1819,1037,0,0
602,-13,0,0,0,0,0,0,0,0,0,-1,1826,1037,0,0
609,-13,0,0,0,0,0,0,0,0,0,-1,1833,1037,0,0
616,-13,0,0,0,0,0,0,0,0,0,-1,1840,1037,0,0
623,-13,0,0,0,0,0,0,0,0,0,-1,1847,1037,0,0
630,-13,0,0,0,0,0,0,0,0,0,-1,1854,1037,0,0
637,-13,0,0,0,0,0,0,0,0,0,-1,1861,1037,0,0
644,-13,0,0,0,0,0,0,0,0,0,-1,1868,1037,0,0
651,-13,39.9578,2.6637,-0.000370796,0.00363233,0.00493462,0.00695587,-0.00369433,0.978068,0.00624427,0.0408709,1875,1037,39.9577,-2.6637
658,-13,39.7124,2.65686,-0.000565831,0.00254746,0.00311578,0.0044738,-0.00249217,1.01706,0.00407569,0.0434771,1882,1037,39.7125,-2.65689
665,-13,39.7013,2.58337,-0.00062037,0.00182586,0.00199287,0.00294102,-0.00173553,1.06063,0.00272975,0.0434556,1889,1037,39.7013,-2.58342
672,-13,39.7551,2.56873,-0.000579201,0.00137174,0.00152347,0.00220528,-0.00141274,1.07016,0.0021055,0.0363579,1896,1037,39.7551,-2.56876
679,-13,39.5754,2.61011,-0.000489774,0.00106274,0.00139998,0.00188727,-0.0013143,1.03854,0.00185827,0.0352525,1903,1037,39.5755,-2.61007
686,-13,39.3418,2.6731,-0.000507266,0.000751484,0.0015263,0.00177308,-0.00152886,0.980953,0.00190811,0.0390604,1910,1037,39.3418,-2.6731
693,-13,39.3347,2.63965,-0.000520049,0.000444442,0.00178568,0.00181184,-0.00188745,0.917284,0.00213594,0.0402674,1917,1037,39.3347,-2.6396
700,-13,39.5662,2.41284,-0.000587914,0.000206378,0.00194726,0.00179658,-0.00217812,0.885994,0.00229832,0.0339706,1924,1037,39.5662,-2.4129
707,-13,39.5712,2.53467,-0.000714321,0.00024883,0.00196128,0.00178679,-0.00225228,0.905787,0.00233711,0.0293247,1931,1037,39.5712,-2.53463
714,-13,39.5524,2.6875,-0.00101516,0.00044225,0.0019595,0.00180415,-0.00237707,0.963416,0.00242157,0.0337161,1938,1037,39.5524,-2.68752
721,-13,39.2515,3.9126,0,0,0,0,0,0,0,-1,1945,1037,39.2515,-3.91264
728,-13,39.1833,5.26416,0,0,0,0,0,0,0,-1,1952,1037,39.1833,-5.26412
735,-13,39.1908,5.23987,-0.00297445,0.00227387,0.00160829,0.0027275,-0.00342808,1.29588,0.00356159,0.0226189,1959,1037,39.1908,-5.23989
742,-13,39.2185,5.20422,-0.00379527,0.00337038,0.00102685,0.00351462,-0.00393952,1.43123,0.00430598,0.0144214,1966,1037,39.2185,-5.20428
749,-13,39.2406,5.17029,-0.00493801,0.00473773,0.000406705,0.0047548,-0.00495507,1.52886,0.00560639,0.0198801,1973,1037,39.2407,-5.17027
756,-13,39.2296,5.10535,-0.00631739,0.00655845,-0.000805283,0.00660862,-0.00636756,-1.50858,0.00749223,0.0151282,1980,1037,39.2296,-5.10533
763,-13,39.1891,5.04834,-0.00810529,0.00920283,-0.00266823,0.00960483,-0.00850728,-1.42126,0.0104634,0.0214465,1987,1037,39.1891,-5.04834
770,-13,39.1481,5.026,-0.0101935,0.0124872,-0.00497416,0.0135302,-0.0112364,-1.36412,0.0143194,0.0193372,1994,1037,39.148,-5.02604
777,-13,39.0631,4.9458,-0.0127634,0.0166556,-0.00792065,0.0186526,-0.0147604,-1.32382,0.0193345,0.0148359,2001,1037,39.0631,-4.94577
784,-13,39.0316,4.83008,-0.0154953,0.0210011,-0.0114641,0.0243033,-0.0187975,-1.29034,0.0249519,0.0299034,2008,1037,39.0316,-4.83008
791,-13,38.8691,4.66162,-0.0184828,0.0255915,-0.0159284,0.0307454,-0.0236366,-1.25787,0.0314867,0.0459827,2015,1037,38.8692,-4.66162
798,-13,38.7004,4.50488,-0.0216086,0.0303696,-0.0216229,0.0381886,-0.0294275,-1.22382,0.0391473,0.0481871,2022,1037,38.7004,-4.5049
805,-13,38.834,4.40942,0,0,0,0,0,0,0,-1,2029,1037,38.8341,-4.40945
812,-13,38.9028,4.33667,0,0,0,0,0,0,0,-1,2036,1037,38.9028,-4.33664
-700,-20,-27.0581,3.55798,0,0,0,0,0,0,0,-1,524,1044,-27.0581,-3.55796
-693,-20,-27.4589,3.41394,-0.0198272,0.175217,0.00202732,0.175238,-0.0198483,1.5604,0.123972,0.0469941,531,1044,-27.4589,-3.41393
-686,-20,-27.8213,3.25195,-0.0147917,0.142018,0.00304438,0.142077,-0.0148508,1.55139,0.100036,0.0435291,538,1044,-27.8212,-3.25196
-679,-20,-28.1544,3.13184,-0.0113148,0.114897,0.0034513,0.114991,-0.0114091,1.54348,0.080733,0.0459731,545,1044,-28.1544,-3.13187
-672,-20,-28.4998,3.02563,-0.00863228,0.0923678,0.00348047,0.0924876,-0.00875207,1.53639,0.0647732,0.0475855,552,1044,-28.4997,-3.02566
-665,-20,-29.0993,2.30005,-0.00653488,0.0734305,0.00326838,0.0735639,-0.00666824,1.53001,0.0514097,0.0439718,559,1044,-29.0993,-2.3001
-658,-20,-29.0035,1.96985,-0.00492959,0.0574089,0.00291212,0.0575446,-0.00506534,1.52422,0.0401582,0.0474211,566,1044,-29.0035,-1.96979
-651,-20,-28.861,1.97449,-0.0036942,0.0438447,0.00242055,0.0439676,-0.00381713,1.52005,0.0306634,0.0434433,573,1044,-28.861,-1.97444
-644,-20,-28.8481,2.03149,-0.00281125,0.031704,0.0013253,0.0317548,-0.00286206,1.53247,0.0221855,0.0276039,580,1044,-28.8482,-2.03152
-637,-20,-28.9239,2.14941,-0.00174489,0.0212921,-0.00037085,0.0212981,-0.00175085,-1.5547,0.0148169,0.0191453,587,1044,-28.9239,-2.1494
-630,-20,-29.0013,2.30981,-0.000684817,0.0140199,-0.00241726,0.0144071,-0.00107199,-1.41198,0.00998125,0.0162429,594,1044,-29.0014,-2.30986
-623,-20,-29.0063,2.40588,-0.000488876,0.00802997,-0.00478522,0.0101769,-0.00263578,-1.14906,0.00781282,0.0147608,601,1044,-29.0063,-2.40588
-616,-20,-29.0023,2.47852,-0.000365956,0.00453452,-0.00697926,0.00948116,-0.00531259,-0.954214,0.00865346,0.0139654,608,1044,-29.0023,-2.47848
-609,-20,-29.028,2.56213,-0.000287713,0.00260624,-0.00865927,0.00993859,-0.00762007,-0.868184,0.0101669,0.0151938,615,1044,-29.028,-2.56213
-602,-20,-28.9963,2.65723,-0.000101923,0.00137128,-0.00991248,0.0105745,-0.00930513,-0.822485,0.0114853,0.0124811,622,1044,-28.9963,-2.65722
-595,-20,-29.0041,2.755,0,0,0,0,0,0,0,-1,629,1044,-29.0041,-2.75501
-588,-20,-28.9266,0.762085,0,0,0,0,0,0,0,-1,636,1044,-28.9266,-0.762134
-581,-20,-28.9266,0.694458,0.00073885,-0.000410246,-0.0106904,0.0108702,-0.0105416,-0.758552,0.0123626,0.0229365,643,1044,-28.9266,-0.694496
-574,-20,-28.9655,0.744995,0.000765075,-0.000579292,-0.00990163,0.0100173,-0.00983153,-0.751507,0.0114599,0.0374615,650,1044,-28.9655,-0.74494
-567,-20,-29.011,0.752563,0.000630741,-0.000547046,-0.00843451,0.00849689,-0.0084132,-0.750545,0.00976309,0.0416482,657,1044,-29.0111,-0.752537
-560,-20,-28.9594,0.540283,0.000474626,-0.000359413,-0.00631539,0.00638675,-0.00627154,-0.75243,0.00730837,0.0437215,664,1044,-28.9594,-0.540304
-553,-20,-28.7161,0.68457,0.000288867,-9.47913e-05,-0.00362848,0.00373059,-0.00353651,-0.758989,0.00419616,0.0421199,671,1044,-28.7161,-0.684543
-546,-20,-28.7516,0.791748,0.000187104,0.000127008,-0.000495467,0.000653433,-0.000339321,-0.755112,0.000582652,0.0407013,678,1044,-28.7517,-0.791709
-539,-20,-28.9444,0.770996,0.000318298,0.000336757,0.00173928,0.00206683,-0.00141178,0.788051,0.00202021,0.0421836,685,1044,-28.9444,-0.771011
-532,-20,-29.0242,0.886353,0.000631521,0.00116555,0.000585118,0.0015417,0.000255373,0.999457,0.000954137,0.039922,692,1044,-29.0242,-0.886395
-525,-20,0,0,0,0,0,0,0,0,0,-1,699,1044,0,0
-518,-20,0,0,0,0,0,0,0,0,0,-1,706,1044,0,0
-511,-20,0,0,0,0,0,0,0,0,0,-1,713,1044,0,0
-504,-20,0,0,0,0,0,0,0,0,0,-1,720,1044,0,0
-497,-20,0,0,0,0,0,0,0,0,0,-1,727,1044,0,0
-490,-20,0,0,0,0,0,0,0,0,0,-1,734,1044,0,0
-483,-20,0,0,0,0,0,0,0,0,0,-1,741,1044,0,0
-476,-20,0,0,0,0,0,0,0,0,0,-1,748,1044,0,0
-469,-20,0,0,0,0,0,0,0,0,0,-1,755,1044,0,0
-462,-20,0,0,0,0,0,0,0,0,0,-1,762,1044,0,0
-455,-20,0,0,0,0,0,0,0,0,0,-1,769,1044,0,0
-448,-20,0,0,0,0,0,0,0,0,0,-1,776,1044,0,0
-441,-20,0,0,0,0,0,0,0,0,0,-1,783,1044,0,0
-434,-20,0,0,0,0,0,0,0,0,0,-1,790,1044,0,0
-427,-20,0,0,0,0,0,0,0,0,0,-1,797,1044,0,0
-420,-20,0,0,0,0,0,0,0,0,0,-1,804,1044,0,0
-413,-20,0,0,0,0,0,0,0,0,0,-1,811,1044,0,0
-406,-20,0,0,0,0,0,0,0,0,0,-1,818,1044,0,0
-399,-20,0,0,0,0,0,0,0,0,0,-1,825,1044,0,0
-392,-20,0,0,0,0,0,0,0,0,0,-1,832,1044,0,0
-385,-20,0,0,0,0,0,0,0,0,0,-1,839,1044,0,0
-378,-20,0,0,0,0,0,0,0,0,0,-1,846,1044,0,0
-371,-20,0,0,0,0,0,0,0,0,0,-1,853,1044,0,0
-364,-20,0,0,0,0,0,0,0,0,0,-1,860,1044,0,0
-357,-20,0,0,0,0,0,0,0,0,0,-1,867,1044,0,0
-350,-20,0,0,0,0,0,0,0,0,0,-1,874,1044,0,0
-343,-20,0,0,0,0,0,0,0,0,0,-1,881,1044,0,0
-336,-20,0,0,0,0,0,0,0,0,0,-1,888,1044,0,0
-329,-20,0,0,0,0,0,0,0,0,0,-1,895,1044,0,0
-322,-20,0,0,0,0,0,0,0,0,0,-1,902,1044,0,0
-315,-20,0,0,0,0,0,0,0,0,0,-1,909,1044,0,0
-308,-20,0,0,0,0,0,0,0,0,0,-1,916,1044,0,0
-301,-20,0,0,0,0,0,0,0,0,0,-1,923,1044,0,0
-294,-20,0,0,0,0,0,0,0,0,0,-1,930,1044,0,0
-287,-20,0,0,0,0,0,0,0,0,0,-1,937,1044,0,0
-280,-20,0,0,0,0,0,0,0,0,0,-1,944,1044,0,0
-273,-20,0,0,0,0,0,0,0,0,0,-1,951,1044,0,0
-266,-20,0,0,0,0,0,0,0,0,0,-1,958,1044,0,0
-259,-20,0,0,0,0,0,0,0,0,0,-1,965,1044,0,0
-252,-20,0,0,0,0,0,0,0,0,0,-1,972,1044,0,0
-245,-20,0,0,0,0,0,0,0,0,0,-1,979,1044,0,0
-238,-20,0,0,0,0,0,0,0,0,0,-1,986,1044,0,0
-231,-20,0,0,0,0,0,0,0,0,0,-1,993,1044,0,0
-224,-20,0,0,0,0,0,0,0,0,0,-1,1000,1044,0,0
-217,-20,0,0,0,0,0,0,0,0,0,-1,1007,1044,0,0
-210,-20,0,0,0,0,0,0,0,0,0,-1,1014,1044,0,0
-203,-20,0,0,0,0,0,0,0,0,0,-1,1021,1044,0,0
-196,-20,0,0,0,0,0,0,0,0,0,-1,1028,1044,0,0
-189,-20,0,0,0,0,0,0,0,0,0,-1,1035,1044,0,0
-182,-20,0,0,0,0,0,0,0,0,0,-1,1042,1044,0,0
-175,-20,0,0,0,0,0,0,0,0,0,-1,1049,1044,0,0
-168,-20,0,0,0,0,0,0,0,0,0,-1,1056,1044,0,0
-161,-20,0,0,0,0,0,0,0,0,0,-1,1063,1044,0,0
-154,-20,0,0,0,0,0,0,0,0,0,-1,1070,1044,0,0
-147,-20,0,0,0,0,0,0,0,0,0,-1,1077,1044,0,0
-140,-20,0,0,0,0,0,0,0,0,0,-1,1084,1044,0,0
-133,-20,0,0,0,0,0,0,0,0,0,-1,1091,1044,0,0
-126,-20,0,0,0,0,0,0,0,0,0,-1,1098,1044,0,0
-119,-20,0,0,0,0,0,0,0,0,0,-1,1105,1044,0,0
-112,-20,0,0,0,0,0,0,0,0,0,-1,1112,1044,0,0
-105,-20,0,0,0,0,0,0,0,0,0,-1,1119,1044,0,0
-98,-20,0,0,0,0,0,0,0,0,0,-1,1126,1044,0,0
-91,-20,0,0,0,0,0,0,0,0,0,-1,1133,1044,0,0
-84,-20,0,0,0,0,0,0,0,0,0,-1,1140,1044,0,0
-77,-20,0,0,0,0,0,0,0,0,0,-1,1147,1044,0,0
-70,-20,0,0,0,0,0,0,0,0,0,-1,1154,1044,0,0
-63,-20,0,0,0,0,0,0,0,0,0,-1,1161,1044,0,0
-56,-20,0,0,0,0,0,0,0,0,0,-1,1168,1044,0,0
-49,-20,0,0,0,0,0,0,0,0,0,-1,1175,1044,0,0
-42,-20,0,0,0,0,0,0,0,0,0,-1,1182,1044,0,0
-35,-20,0,0,0,0,0,0,0,0,0,-1,1189,1044,0,0
-28,-20,0,0,0,0,0,0,0,0,0,-1,1196,1044,0,0
-21,-20,0,0,0,0,0,0,0,0,0,-1,1203,1044,0,0
-14,-20,0,0,0,0,0,0,0,0,0,-1,1210,1044,0,0
-7,-20,0,0,0,0,0,0,0,0,0,-1,1217,1044,0,0
0,-20,0,0,0,0,0,0,0,0,0,-1,1224,1044,0,0
7,-20,0,0,0,0,0,0,0,0,0,-1,1231,1044,0,0
14,-20,0,0,0,0,0,0,0,0,0,-1,1238,1044,0,0
21,-20,0,0,0,0,0,0,0,0,0,-1,1245,1044,0,0
28,-20,0,0,0,0,0,0,0,0,0,-1,1252,1044,0,0
35,-20,0,0,0,0,0,0,0,0,0,-1,1259,1044,0,0
42,-20,0,0,0,0,0,0,0,0,0,-1,1266,1044,0,0
49,-20,0,0,0,0,0,0,0,0,0,-1,1273,1044,0,0
56,-20,0,0,0,0,0,0,0,0,0,-1,1280,1044,0,0
63,-20,0,0,0,0,0,0,0,0,0,-1,1287,1044,0,0
70,-20,0,0,0,0,0,0,0,0,0,-1,1294,1044,0,0
77,-20,0,0,0,0,0,0,0,0,0,-1,1301,1044,0,0
84,-20,0,0,0,0,0,0,0,0,0,-1,1308,1044,0,0
91,-20,0,0,0,0,0,0,0,0,0,-1,1315,1044,0,0
98,-20,0,0,0,0,0,0,0,0,0,-1,1322,1044,0,0
105,-20,0,0,0,0,0,0,0,0,0,-1,1329,1044,0,0
112,-20,0,0,0,0,0,0,0,0,0,-1,1336,1044,0,0
119,-20,0,0,0,0,0,0,0,0,0,-1,1343,1044,0,0
126,-20,0,0,0,0,0,0,0,0,0,-1,1350,1044,0,0
133,-20,0,0,0,0,0,0,0,0,0,-1,1357,1044,0,0
140,-20,0,0,0,0,0,0,0,0,0,-1,1364,1044,0,0
147,-20,0,0,0,0,0,0,0,0,0,-1,1371,1044,0,0
154,-20,0,0,0,0,0,0,0,0,0,-1,1378,1044,0,0
161,-20,0,0,0,0,0,0,0,0,0,-1,1385,1044,0,0
168,-20,0,0,0,0,0,0,0,0,0,-1,1392,1044,0,0
175,-20,0,0,0,0,0,0,0,0,0,-1,1399,1044,0,0
182,-20,0,0,0,0,0,0,0,0,0,-1,1406,1044,0,0
189,-20,0,0,0,0,0,0,0,0,0,-1,1413,1044,0,0
196,-20,0,0,0,0,0,0,0,0,0,-1,1420,1044,0,0
203,-20,0,0,0,0,0,0,0,0,0,-1,1427,1044,0,0
210,-20,0,0,0,0,0,0,0,0,0,-1,1434,1044,0,0
217,-20,0,0,0,0,0,0,0,0,0,-1,1441,1044,0,0
224,-20,0,0,0,0,0,0,0,0,0,-1,1448,1044,0,0
231,-20,0,0,0,0,0,0,0,0,0,-1,1455,1044,0,0
238,-20,0,0,0,0,0,0,0,0,0,-1,1462,1044,0,0
245,-20,0,0,0,0,0,0,0,0,0,-1,1469,1044,0,0
252,-20,0,0,0,0,0,0,0,0,0,-1,1476,1044,0,0
259,-20,0,0,0,0,0,0,0,0,0,-1,1483,1044,0,0
266,-20,0,0,0,0,0,0,0,0,0,-1,1490,1044,0,0
273,-20,0,0,0,0,0,0,0,0,0,-1,1497,1044,0,0
280,-20,0,0,0,0,0,0,0,0,0,-1,1504,1044,0,0
287,-20,0,0,0,0,0,0,0,0,0,-1,1511,1044,0,0
294,-20,0,0,0,0,0,0,0,0,0,-1,1518,1044,0,0
301,-20,0,0,0,0,0,0,0,0,0,-1,1525,1044,0,0
308,-20,0,0,0,0,0,0,0,0,0,-1,1532,1044,0,0
315,-20,0,0,0,0,0,0,0,0,0,-1,1539,1044,0,0
322,-20,0,0,0,0,0,0,0,0,0,-1,1546,1044,0,0
329,-20,0,0,0,0,0,0,0,0,0,-1,1553,1044,0,0
336,-20,0,0,0,0,0,0,0,0,0,-1,1560,1044,0,0
343,-20,0,0,0,0,0,0,0,0,0,-1,1567,1044,0,0
350,-20,0,0,0,0,0,0,0,0,0,-1,1574,1044,0,0
357,-20,0,0,0,0,0,0,0,0,0,-1,1581,1044,0,0
364,-20,0,0,0,0,0,0,0,0,0,-1,1588,1044,0,0
371,-20,0,0,0,0,0,0,0,0,0,-1,1595,1044,0,0
378,-20,0,0,0,0,0,0,0,0,0,-1,1602,1044,0,0
385,-20,0,0,0,0,0,0,0,0,0,-1,1609,1044,0,0
392,-20,0,0,0,0,0,0,0,0,0,-1,1616,1044,0,0
399,-20,0,0,0,0,0,0,0,0,0,-1,1623,1044,0,0
406,-20,0,0,0,0,0,0,0,0,0,-1,1630,1044,0,0
413,-20,0,0,0,0,0,0,0,0,0,-1,1637,1044,0,0
420,-20,0,0,0,0,0,0,0,0,0,-1,1644,1044,0,0
427,-20,0,0,0,0,0,0,0,0,0,-1,1651,1044,0,0
434,-20,0,0,0,0,0,0,0,0,0,-1,1658,1044,0,0
441,-20,0,0,0,0,0,0,0,0,0,-1,1665,1044,0,0
448,-20,0,0,0,0,0,0,0,0,0,-1,1672,1044,0,0
455,-20,0,0,0,0,0,0,0,0,0,-1,1679,1044,0,0
462,-20,0,0,0,0,0,0,0,0,0,-1,1686,1044,0,0
469,-20,0,0,0,0,0,0,0,0,0,-1,1693,1044,0,0
476,-20,0,0,0,0,0,0,0,0,0,-1,1700,1044,0,0
483,-20,0,0,0,0,0,0,0,0,0,-1,1707,1044,0,0
490,-20,0,0,0,0,0,0,0,0,0,-1,1714,1044,0,0
497,-20,0,0,0,0,0,0,0,0,0,-1,1721,1044,0,0
504,-20,0,0,0,0,0,0,0,0,0,-1,1728,1044,0,0
511,-20,0,0,0,0,0,0,0,0,0,-1,1735,1044,0,0
518,-20,0,0,0,0,0,0,0,0,0,-1,1742,1044,0,0
525,-20,0,0,0,0,0,0,0,0,0,-1,1749,1044,0,0
532,-20,0,0,0,0,0,0,0,0,0,-1,1756,1044,0,0
539,-20,0,0,0,0,0,0,0,0,0,-1,1763,1044,0,0
546,-20,0,0,0,0,0,0,0,0,0,-1,1770,1044,0,0
553,-20,0,0,0,0,0,0,0,0,0,-1,1777,1044,0,0
560,-20,0,0,0,0,0,0,0,0,0,-1,1784,1044,0,0
567,-20,0,0,0,0,0,0,0,0,0,-1,1791,1044,0,0
574,-20,0,0,0,0,0,0,0,0,0,-1,1798,1044,0,0
581,-20,0,0,0,0,0,0,0,0,0,-1,1805,1044,0,0
588,-20,0,0,0,0,0,0,0,0,0,-1,1812,1044,0,0
595,-20,0,0,0,0,0,0,0,0,0,-1,1819,1044,0,0
602,-20,0,0,0,0,0,0,0,0,0,-1,1826,1044,0,0
609,-20,0,0,0,0,0,0,0,0,0,-1,1833,1044,0,0
616,-20,0,0,0,0,0,0,0,0,0,-1,1840,1044,0,0
623,-20,0,0,0,0,0,0,0,0,0,-1,1847,1044,0,0
630,-20,0,0,0,0,0,0,0,0,0,-1,1854,1044,0,0
637,-20,0,0,0,0,0,0,0,0,0,-1,1861,1044,0,0
644,-20,0,0,0,0,0,0,0,0,0,-1,1868,1044,0,0
651,-20,39.6963,2.56311,-8.00396e-06,0.00328017,0.00480657,0.00671606,-0.00344389,0.950186,0.00596639,0.0408682,1875,1044,39.6963,-2.56311
658,-20,39.6761,2.6416,-0.00027613,0.00235557,0.00296599,0.0042845,-0.00220505,0.994177,0.00381032,0.0424588,1882,1044,39.6761,-2.64165
665,-20,39.66,2.55164,-0.000395137,0.00174196,0.00184161,0.00280257,-0.00145575,1.04827,0.00249919,0.0402378,1889,1044,39.6601,-2.55165
672,-20,39.6162,2.53601,-0.000399656,0.001337,0.0013873,0.00210532,-0.00116797,1.06503,0.00191549,0.0241468,1896,1044,39.6162,-2.53602
679,-20,39.5334,2.61475,-0.000334587,0.00105257,0.00127295,0.00180864,-0.00109065,1.03484,0.00169093,0.0251638,1903,1044,39.5334,-2.61469
686,-20,39.5155,2.69812,-0.000389355,0.000731104,0.00142524,0.00170227,-0.00136052,0.97266,0.00177197,0.0371009,1910,1044,39.5154,-2.69814
693,-20,39.4625,2.45483,-0.000445159,0.000407883,0.00171191,0.0017456,-0.00178288,0.907487,0.00203721,0.0418048,1917,1044,39.4626,-2.45487
700,-20,39.4906,2.38452,-0.000527243,0.000159606,0.00192465,0.00177123,-0.00213887,0.873686,0.00226082,0.0367436,1924,1044,39.4907,-2.38451
707,-20,39.5566,2.53125,-0.000672849,0.000160943,0.00197645,0.00176398,-0.00227589,0.889341,0.00233865,0.030323,1931,1044,39.5566,-2.53129
714,-20,39.5773,2.6543,-0.000994259,0.000315347,0.00201941,0.00178346,-0.00246238,0.942177,0.00246176,0.0307588,1938,1044,39.5773,-2.65424
721,-20,39.5011,2.76379,0,0,0,0,0,0,0,-1,1945,1044,39.5011,-2.76383
728,-20,39.4755,5.24048,0,0,0,0,0,0,0,-1,1952,1044,39.4754,-5.24049
735,-20,39.2976,5.23132,-0.00286901,0.00195881,0.00178379,0.00254638,-0.00345658,1.2526,0.00347906,0.0246474,1959,1044,39.2977,-5.23136
742,-20,39.1632,5.17847,-0.00360284,0.00295189,0.00124263,0.00317956,-0.0038305,1.38959,0.00405308,0.0186114,1966,1044,39.1632,-5.17842
749,-20,39.1936,5.14832,-0.00456843,0.00418193,0.000698149,0.00423728,-0.00462378,1.49168,0.00511756,0.0208256,1973,1044,39.1936,-5.14835
756,-20,39.1798,5.08093,-0.00563874,0.00576085,-0.00044945,0.00577854,-0.00565644,-1.53145,0.00660212,0.0148107,1980,1044,39.1798,-5.08088
763,-20,39.1361,5.03418,-0.00689219,0.00789263,-0.0022584,0.0082299,-0.00722947,-1.42255,0.0089317,0.0223419,1987,1044,39.1361,-5.03414
770,-20,39.0719,5.05444,-0.0082766,0.0105797,-0.00449137,0.0115949,-0.00929174,-1.34851,0.0120833,0.0200625,1994,1044,39.0719,-5.05441
777,-20,39.0001,4.90894,-0.00976624,0.0137945,-0.00734996,0.0158993,-0.0118711,-1.29189,0.0160894,0.0146573,2001,1044,39.0002,-4.90888
784,-20,39.0123,4.82458,-0.0112161,0.0169503,-0.0107844,0.0206051,-0.014871,-1.24404,0.0205711,0.0188819,2008,1044,39.0124,-4.82455
791,-20,39.051,4.59888,-0.0126713,0.0199984,-0.0151224,0.0259237,-0.0185966,-1.19736,0.0258196,0.0369734,2015,1044,39.051,-4.59882
798,-20,39.0867,4.35229,0,0,0,0,0,0,0,-1,2022,1044,39.0866,-4.35231
805,-20,39.3762,4.5791,0,0,0,0,0,0,0,-1,2029,1044,39.3763,-4.57915
812,-20,39.6121,5.15332,0,0,0,0,0,0,0,-1,2036,1044,39.612,-5.15335
-700,-27,-27.1771,2.04163,0,0,0,0,0,0,0,-1,524,1051,-27.1771,-2.04159
-693,-27,-27.5145,2.01794,-0.0118513,0.192025,0.00104126,0.192031,-0.0118566,1.56569,0.13215,0.0458264,531,1051,-27.5145,-2.0179
-686,-27,-27.6982,2.047,-0.00822314,0.154506,0.00302929,0.154562,-0.00827951,1.55219,0.105909,0.0411639,538,1051,-27.6982,-2.04705
-679,-27,-28.207,2.09717,0,0,0,0,0,0,0,-1,545,1051,-28.2069,-2.09717
-672,-27,-28.5114,2.0426,-0.00417321,0.0982901,0.00439497,0.0984783,-0.00436138,1.52801,0.0671532,0.044199,552,1051,-28.5113,-2.04266
-665,-27,-28.7816,1.93298,-0.0029158,0.0770103,0.00435065,0.0772464,-0.00315192,1.51658,0.0525798,0.0461043,559,1051,-28.7816,-1.93299
-658,-27,-28.8015,1.87524,-0.00204391,0.0592204,0.00402163,0.0594833,-0.00230677,1.50553,0.0404464,0.0484564,566,1051,-28.8015,-1.8752
-651,-27,-28.7281,1.9231,-0.00144887,0.044424,0.0034586,0.0446833,-0.00170817,1.49596,0.0303743,0.0388282,573,1051,-28.7281,-1.92306
-644,-27,-28.7424,1.95544,-0.0011371,0.0314329,0.00223155,0.0315851,-0.00128929,1.5027,0.0214994,0.01769,580,1051,-28.7424,-1.95543
-637,-27,-28.8094,2.04419,-0.000610273,0.0203095,0.000383751,0.0203166,-0.00061731,1.55246,0.0137548,0.0141948,587,1051,-28.8094,-2.04417
-630,-27,-28.8907,2.27783,-5.38741e-05,0.0128848,-0.00186907,0.0131494,-0.00031846,-1.43017,0.00887435,0.0191866,594,1051,-28.8907,-2.27779
-623,-27,-28.8574,2.39014,-0.000219061,0.0070419,-0.0043768,0.00909796,-0.00227513,-1.13163,0.00694896,0.0158155,601,1051,-28.8574,-2.39016
-616,-27,-28.8334,2.48804,-0.000257552,0.00373721,-0.00672845,0.00875848,-0.00527883,-0.929683,0.00818702,0.0132449,608,1051,-28.8334,-2.48808
-609,-27,-28.867,2.61707,-0.000285368,0.00192242,-0.00848057,0.00937064,-0.00773358,-0.850118,0.00989019,0.013673,615,1051,-28.867,-2.61701
-602,-27,-28.8442,2.75732,-0.000201545,0.000845708,-0.00978747,0.0101236,-0.00947939,-0.812123,0.0113198,0.0120646,622,1051,-28.8442,-2.75728
-595,-27,-28.8666,2.85425,-0.000112877,9.88429e-05,-0.010593,0.0105865,-0.0106005,-0.790395,0.0122323,0.0133674,629,1051,-28.8666,-2.85425
-588,-27,-28.9168,1.79932,0.000114306,-0.000280804,-0.0107807,0.0106993,-0.0108658,-0.776237,0.0124507,0.0201249,636,1051,-28.9168,-1.79931
-581,-27,-28.8956,0.728638,0.0004146,-0.000505411,-0.0104793,0.010444,-0.0105348,-0.763464,0.0121122,0.0208916,643,1051,-28.8956,-0.72868
-574,-27,-28.8555,0.791504,0.00043869,-0.000575852,-0.00973657,0.0096812,-0.00981836,-0.759372,0.0112582,0.0345458,650,1051,-28.8555,-0.791474
-567,-27,-28.9892,0.581665,0.000318656,-0.000438041,-0.00835064,0.00829952,-0.0084189,-0.76276,0.00965246,0.0436154,657,1051,-28.9892,-0.581625
-560,-27,-28.9063,0.532715,0.000181712,-0.000125876,-0.00632353,0.00635332,-0.00629749,-0.77324,0.00730397,0.0461398,664,1051,-28.9062,-0.532657
-553,-27,-28.6805,0.613892,1.36827e-05,0.0002903,-0.00371095,0.00386551,-0.00356153,-0.804025,0.0042892,0.0435239,671,1051,-28.6805,-0.613834
-546,-27,-28.6296,0.659058,-8.41266e-05,0.000702461,-0.000599284,0.00102598,-0.000407646,-1.07578,0.000852981,0.0445725,678,1051,-28.6297,-0.659001
-539,-27,-28.8132,0.598389,-5.92766e-06,0.00108439,0.00167969,0.00230518,-0.00122672,0.942315,0.00207059,0.0447706,685,1051,-28.8132,-0.598433
-532,-27,-28.8858,0.78125,9.3023e-05,0.00205995,0.000436409,0.00215243,5.43194e-07,1.36197,0.00143477,0.0425729,692,1051,-28.8858,-0.781308
-525,-27,0,0,0,0,0,0,0,0,0,-1,699,1051,0,0
-518,-27,0,0,0,0,0,0,0,0,0,-1,706,1051,0,0
-511,-27,0,0,0,0,0,0,0,0,0,-1,713,1051,0,0
-504,-27,0,0,0,0,0,0,0,0,0,-1,720,1051,0,0
-497,-27,0,0,0,0,0,0,0,0,0,-1,727,1051,0,0
-490,-27,0,0,0,0,0,0,0,0,0,-1,734,1051,0,0
-483,-27,0,0,0,0,0,0,0,0,0,-1,741,1051,0,0
-476,-27,0,0,0,0,0,0,0,0,0,-1,748,1051,0,0
-469,-27,0,0,0,0,0,0,0,0,0,-1,755,1051,0,0
-462,-27,0,0,0,0,0,0,0,0,0,-1,762,1051,0,0
-455,-27,0,0,0,0,0,0,0,0,0,-1,769,1051,0,0
-448,-27,0,0,0,0,0,0,0,0,0,-1,776,1051,0,0
-441,-27,0,0,0,0,0,0,0,0,0,-1,783,1051,0,0
-434,-27,0,0,0,0,0,0,0,0,0,-1,790,1051,0,0
-427,-27,0,0,0,0,0,0,0,0,0,-1,797,1051,0,0
-420,-27,0,0,0,0,0,0,0,0,0,-1,804,1051,0,0
-413,-27,0,0,0,0,0,0,0,0,0,-1,811,1051,0,0
-406,-27,0,0,0,0,0,0,0,0,0,-1,818,1051,0,0
-399,-27,0,0,0,0,0,0,0,0,0,-1,825,1051,0,0
-392,-27,0,0,0,0,0,0,0,0,0,-1,832,1051,0,0
-385,-27,0,0,0,0,0,0,0,0,0,-1,839,1051,0,0
-378,-27,0,0,0,0,0,0,0,0,0,-1,846,1051,0,0
-371,-27,0,0,0,0,0,0,0,0,0,-1,853,1051,0,0
-364,-27,0,0,0,0,0,0,0,0,0,-1,860,1051,0,0
-357,-27,0,0,0,0,0,0,0,0,0,-1,867,1051,0,0
-350,-27,0,0,0,0,0,0,0,0,0,-1,874,1051,0,0
-343,-27,0,0,0,0,0,0,0,0,0,-1,881,1051,0,0
-336,-27,0,0,0,0,0,0,0,0,0,-1,888,1051,0,0
-329,-27,0,0,0,0,0,0,0,0,0,-1,895,1051,0,0
-322,-27,0,0,0,0,0,0,0,0,0,-1,902,1051,0,0
-315,-27,0,0,0,0,0,0,0,0,0,-1,909,1051,0,0
-308,-27,0,0,0,0,0,0,0,0,0,-1,916,1051,0,0
-301,-27,0,0,0,0,0,0,0,0,0,-1,923,1051,0,0
-294,-27,0,0,0,0,0,0,0,0,0,-1,930,1051,0,0
-287,-27,0,0,0,0,0,0,0,0,0,-1,937,1051,0,0
-280,-27,0,0,0,0,0,0,0,0,0,-1,944,1051,0,0
-273,-27,0,0,0,0,0,0,0,0,0,-1,951,1051,0,0
-266,-27,0,0,0,0,0,0,0,0,0,-1,958,1051,0,0
-259,-27,0,0,0,0,0,0,0,0,0,-1,965,1051,0,0
-252,-27,0,0,0,0,0,0,0,0,0,-1,972,1051,0,0
-245,-27,0,0,0,0,0,0,0,0,0,-1,979,1051,0,0
-238,-27,0,0,0,0,0,0,0,0,0,-1,986,1051,0,0
-231,-27,0,0,0,0,0,0,0,0,0,-1,993,1051,0,0
-224,-27,0,0,0,0,0,0,0,0,0,-1,1000,1051,0,0
-217,-27,0,0,0,0,0,0,0,0,0,-1,1007,1051,0,0
-210,-27,0,0,0,0,0,0,0,0,0,-1,1014,1051,0,0
-203,-27,0,0,0,0,0,0,0,0,0,-1,1021,1051,0,0
-196,-27,0,0,0,0,0,0,0,0,0,-1,1028,1051,0,0
-189,-27,0,0,0,0,0,0,0,0,0,-1,1035,1051,0,0
-182,-27,0,0,0,0,0,0,0,0,0,-1,1042,1051,0,0
-175,-27,0,0,0,0,0,0,0,0,0,-1,1049,1051,0,0
-168,-27,0,0,0,0,0,0,0,0,0,-1,1056,1051,0,0
-161,-27,0,0,0,0,0,0,0,0,0,-1,1063,1051,0,0
-154,-27,0,0,0,0,0,0,0,0,0,-1,1070,1051,0,0
-147,-27,0,0,0,0,0,0,0,0,0,-1,1077,1051,0,0
-140,-27,0,0,0,0,0,0,0,0,0,-1,1084,1051,0,0
-133,-27,0,0,0,0,0,0,0,0,0,-1,1091,1051,0,0
-126,-27,0,0,0,0,0,0,0,0,0,-1,1098,1051,0,0
-119,-27,0,0,0,0,0,0,0,0,0,-1,1105,1051,0,0
-112,-27,0,0,0,0,0,0,0,0,0,-1,1112,1051,0,0
-105,-27,0,0,0,0,0,0,0,0,0,-1,1119,1051,0,0
-98,-27,0,0,0,0,0,0,0,0,0,-1,1126,1051,0,0
-91,-27,0,0,0,0,0,0,0,0,0,-1,1133,1051,0,0
-84,-27,0,0,0,0,0,0,0,0,0,-1,1140,1051,0,0
-77,-27,0,0,0,0,0,0,0,0,0,-1,1147,1051,0,0
-70,-27,0,0,0,0,0,0,0,0,0,-1,1154,1051,0,0
-63,-27,0,0,0,0,0,0,0,0,0,-1,1161,1051,0,0
-56,-27,0,0,0,0,0,0,0,0,0,-1,1168,1051,0,0
-49,-27,0,0,0,0,0,0,0,0,0,-1,1175,1051,0,0
-42,-27,0,0,0,0,0,0,0,0,0,-1,1182,1051,0,0
-35,-27,0,0,0,0,0,0,0,0,0,-1,1189,1051,0,0
-28,-27,0,0,0,0,0,0,0,0,0,-1,1196,1051,0,0
-21,-27,0,0,0,0,0,0,0,0,0,-1,1203,1051,0,0
-14,-27,0,0,0,0,0,0,0,0,0,-1,1210,1051,0,0
-7,-27,0,0,0,0,0,0,0,0,0,-1,1217,1051,0,0
0,-27,0,0,0,0,0,0,0,0,0,-1,1224,1051,0,0
7,-27,0,0,0,0,0,0,0,0,0,-1,1231,1051,0,0
14,-27,0,0,0,0,0,0,0,0,0,-1,1238,1051,0,0
21,-27,0,0,0,0,0,0,0,0,0,-1,1245,1051,0,0
28,-27,0,0,0,0,0,0,0,0,0,-1,1252,1051,0,0
35,-27,0,0,0,0,0,0,0,0,0,-1,1259,1051,0,0
42,-27,0,0,0,0,0,0,0,0,0,-1,1266,1051,0,0
49,-27,0,0,0,0,0,0,0,0,0,-1,1273,1051,0,0
56,-27,0,0,0,0,0,0,0,0,0,-1,1280,1051,0,0
63,-27,0,0,0,0,0,0,0,0,0,-1,1287,1051,0,0
70,-27,0,0,0,0,0,0,0,0,0,-1,1294,1051,0,0
77,-27,0,0,0,0,0,0,0,0,0,-1,1301,1051,0,0
84,-27,0,0,0,0,0,0,0,0,0,-1,1308,1051,0,0
91,-27,0,0,0,0,0,0,0,0,0,-1,1315,1051,0,0
98,-27,0,0,0,0,0,0,0,0,0,-1,1322,1051,0,0
105,-27,0,0,0,0,0,0,0,0,0,-1,1329,1051,0,0
112,-27,0,0,0,0,0,0,0,0,0,-1,1336,1051,0,0
119,-27,0,0,0,0,0,0,0,0,0,-1,1343,1051,0,0
126,-27,0,0,0,0,0,0,0,0,0,-1,1350,1051,0,0
133,-27,0,0,0,0,0,0,0,0,0,-1,1357,1051,0,0
140,-27,0,0,0,0,0,0,0,0,0,-1,1364,1051,0,0
147,-27,0,0,0,0,0,0,0,0,0,-1,1371,1051,0,0
154,-27,0,0,0,0,0,0,0,0,0,-1,1378,1051,0,0
161,-27,0,0,0,0,0,0,0,0,0,-1,1385,1051,0,0
168,-27,0,0,0,0,0,0,0,0,0,-1,1392,1051,0,0
175,-27,0,0,0,0,0,0,0,0,0,-1,1399,1051,0,0
182,-27,0,0,0,0,0,0,0,0,0,-1,1406,1051,0,0
189,-27,0,0,0,0,0,0,0,0,0,-1,1413,1051,0,0
196,-27,0,0,0,0,0,0,0,0,0,-1,1420,1051,0,0
203,-27,0,0,0,0,0,0,0,0,0,-1,1427,1051,0,0
210,-27,0,0,0,0,0,0,0,0,0,-1,1434,1051,0,0
217,-27,0,0,0,0,0,0,0,0,0,-1,1441,1051,0,0
224,-27,0,0,0,0,0,0,0,0,0,-1,1448,1051,0,0
231,-27,0,0,0,0,0,0,0,0,0,-1,1455,1051,0,0
238,-27,0,0,0,0,0,0,0,0,0,-1,1462,1051,0,0
245,-27,0,0,0,0,0,0,0,0,0,-1,1469,1051,0,0
252,-27,0,0,0,0,0,0,0,0,0,-1,1476,1051,0,0
259,-27,0,0,0,0,0,0,0,0,0,-1,1483,1051,0,0
266,-27,0,0,0,0,0,0,0,0,0,-1,1490,1051,0,0
273,-27,0,0,0,0,0,0,0,0,0,-1,1497,1051,0,0
280,-27,0,0,0,0,0,0,0,0,0,-1,1504,1051,0,0
287,-27,0,0,0,0,0,0,0,0,0,-1,1511,1051,0,0
294,-27,0,0,0,0,0,0,0,0,0,-1,1518,1051,0,0
301,-27,0,0,0,0,0,0,0,0,0,-1,1525,1051,0,0
308,-27,0,0,0,0,0,0,0,0,0,-1,1532,1051,0,0
315,-27,0,0,0,0,0,0,0,0,0,-1,1539,1051,0,0
322,-27,0,0,0,0,0,0,0,0,0,-1,1546,1051,0,0
329,-27,0,0,0,0,0,0,0,0,0,-1,1553,1051,0,0
336,-27,0,0,0,0,0,0,0,0,0,-1,1560,1051,0,0
343,-27,0,0,0,0,0,0,0,0,0,-1,1567,1051,0,0
350,-27,0,0,0,0,0,0,0,0,0,-1,1574,1051,0,0
357,-27,0,0,0,0,0,0,0,0,0,-1,1581,1051,0,0
364,-27,0,0,0,0,0,0,0,0,0,-1,1588,1051,0,0
371,-27,0,0,0,0,0,0,0,0,0,-1,1595,1051,0,0
378,-27,0,0,0,0,0,0,0,0,0,-1,1602,1051,0,0
385,-27,0,0,0,0,0,0,0,0,0,-1,1609,1051,0,0
392,-27,0,0,0,0,0,0,0,0,0,-1,1616,1051,0,0
399,-27,0,0,0,0,0,0,0,0,0,-1,1623,1051,0,0
406,-27,0,0,0,0,0,0,0,0,0,-1,1630,1051,0,0
413,-27,0,0,0,0,0,0,0,0,0,-1,1637,1051,0,0
420,-27,0,0,0,0,0,0,0,0,0,-1,1644,1051,0,0
427,-27,0,0,0,0,0,0,0,0,0,-1,1651,1051,0,0
434,-27,0,0,0,0,0,0,0,0,0,-1,1658,1051,0,0
441,-27,0,0,0,0,0,0,0,0,0,-1,1665,1051,0,0
448,-27,0,0,0,0,0,0,0,0,0,-1,1672,1051,0,0
455,-27,0,0,0,0,0,0,0,0,0,-1,1679,1051,0,0
462,-27,0,0,0,0,0,0,0,0,0,-1,1686,1051,0,0
469,-27,0,0,0,0,0,0,0,0,0,-1,1693,1051,0,0
476,-27,0,0,0,0,0,0,0,0,0,-1,1700,1051,0,0
483,-27,0,0,0,0,0,0,0,0,0,-1,1707,1051,0,0
490,-27,0,0,0,0,0,0,0,0,0,-1,1714,1051,0,0
497,-27,0,0,0,0,0,0,0,0,0,-1,1721,1051,0,0
504,-27,0,0,0,0,0,0,0,0,0,-1,1728,1051,0,0
511,-27,0,0,0,0,0,0,0,0,0,-1,1735,1051,0,0
518,-27,0,0,0,0,0,0,0,0,0,-1,1742,1051,0,0
525,-27,0,0,0,0,0,0,0,0,0,-1,1749,1051,0,0
532,-27,0,0,0,0,0,0,0,0,0,-1,1756,1051,0,0
539,-27,0,0,0,0,0,0,0,0,0,-1,1763,1051,0,0
546,-27,0,0,0,0,0,0,0,0,0,-1,1770,1051,0,0
553,-27,0,0,0,0,0,0,0,0,0,-1,1777,1051,0,0
560,-27,0,0,0,0,0,0,0,0,0,-1,1784,1051,0,0
567,-27,0,0,0,0,0,0,0,0,0,-1,1791,1051,0,0
574,-27,0,0,0,0,0,0,0,0,0,-1,1798,1051,0,0
581,-27,0,0,0,0,0,0,0,0,0,-1,1805,1051,0,0
588,-27,0,0,0,0,0,0,0,0,0,-1,1812,1051,0,0
595,-27,0,0,0,0,0,0,0,0,0,-1,1819,1051,0,0
602,-27,0,0,0,0,0,0,0,0,0,-1,1826,1051,0,0
609,-27,0,0,0,0,0,0,0,0,0,-1,1833,1051,0,0
616,-27,0,0,0,0,0,0,0,0,0,-1,1840,1051,0,0
623,-27,0,0,0,0,0,0,0,0,0,-1,1847,1051,0,0
630,-27,0,0,0,0,0,0,0,0,0,-1,1854,1051,0,0
637,-27,0,0,0,0,0,0,0,0,0,-1,1861,1051,0,0
644,-27,0,0,0,0,0,0,0,0,0,-1,1868,1051,0,0
651,-27,39.4823,2.55872,0.000791505,0.00232559,0.00474758,0.00636769,-0.0032506,0.865489,0.00564949,0.0420818,1875,1051,39.4823,-2.55875
658,-27,39.5112,2.5741,0.000317801,0.0015537,0.00291067,0.00391129,-0.00203979,0.889997,0.00349203,0.0426044,1882,1051,39.5113,-2.57405
665,-27,39.5243,2.53223,4.30512e-05,0.00108318,0.00179295,0.00242997,-0.00130374,0.926555,0.0021881,0.0378987,1889,1051,39.5243,-2.5322
672,-27,39.5135,2.55627,-7.15311e-05,0.000759385,0.00135027,0.00175666,-0.00106881,0.934645,0.00164732,0.0270093,1896,1051,39.5136,-2.55623
679,-27,39.5289,2.60767,-0.00014264,0.00053134,0.00125434,0.00149317,-0.00110447,0.916629,0.00150533,0.0252683,1903,1051,39.5289,-2.60764
686,-27,39.5465,2.67078,-0.000346687,0.000241063,0.00144068,0.00141753,-0.00152316,0.88601,0.00169817,0.0371956,1910,1051,39.5465,-2.67076
693,-27,39.5438,2.47046,-0.000518925,-5.30949e-05,0.00176136,0.00149068,-0.0020627,0.851135,0.00206039,0.041209,1917,1051,39.5438,-2.47041
700,-27,39.5438,2.42664,-0.000682759,-0.000265573,0.00202574,0.00156228,-0.00251061,0.836703,0.00237264,0.0387376,1924,1051,39.5439,-2.42664
707,-27,39.5219,2.55688,-0.000902507,-0.000263163,0.00212081,0.00156194,-0.0027276,0.8602,0.00250686,0.0248198,1931,1051,39.5218,-2.55689
714,-27,39.5645,2.62817,-0.00127713,-0.000100276,0.0022099,0.0015982,-0.0029756,0.915513,0.0026803,0.0251123,1938,1051,39.5645,-2.62812
721,-27,39.5576,2.78491,0,0,0,0,0,0,0,-1,1945,1051,39.5576,-2.78491
728,-27,39.6028,5.25452,0,0,0,0,0,0,0,-1,1952,1051,39.6028,-5.25451
735,-27,39.2471,5.28577,-0.00303796,0.00147803,0.00207227,0.00228481,-0.00384474,1.19953,0.00357689,0.0277858,1959,1051,39.247,-5.28578
742,-27,39.0751,5.25354,-0.00361568,0.00242554,0.00153312,0.00279233,-0.00398247,1.33596,0.0039315,0.0183388,1966,1051,39.0751,-5.25359
749,-27,39.1039,5.17493,-0.00432574,0.00357942,0.00101667,0.00370808,-0.0044544,1.44492,0.00471917,0.013671,1973,1051,39.1039,-5.17498
756,-27,39.0867,5.07214,-0.00499446,0.00499542,-8.16173e-05,0.00499609,-0.00499513,-1.56263,0.00576843,0.0128195,1980,1051,39.0866,-5.07218
763,-27,39.0575,4.96814,-0.00560263,0.00675392,-0.00182018,0.00701647,-0.00586517,-1.42754,0.00744711,0.0146023,1987,1051,39.0575,-4.96812
770,-27,38.9949,4.89526,-0.00611654,0.00899743,-0.00396043,0.00997233,-0.00709143,-1.32944,0.00989846,0.0167198,1994,1051,38.9949,-4.89524
777,-27,38.9393,4.85217,-0.00635281,0.0114623,-0.00664548,0.0136681,-0.00855862,-1.25031,0.0129451,0.0189453,2001,1051,38.9393,-4.85213
784,-27,38.9625,4.77283,-0.00640841,0.0136842,-0.00981856,0.0176854,-0.0104096,-1.18383,0.0164009,0.0262968,2008,1051,38.9625,-4.77278
791,-27,38.9805,4.47925,-0.00624652,0.0155058,-0.0137817,0.0221861,-0.0129267,-1.11945,0.020506,0.0409267,2015,1051,38.9805,-4.4793
798,-27,39.0493,4.39465,-0.00555351,0.0166469,-0.0188172,0.027394,-0.0163005,-1.05188,0.0254966,0.047651,2022,1051,39.0494,-4.39465
805,-27,39.126,4.44739,-0.00392109,0.0167794,-0.0252296,0.0336993,-0.020841,-0.98005,0.0317792,0.047473,2029,1051,39.126,-4.44736
812,-27,39.22,4.50977,0,0,0,0,0,0,0,-1,2036,1051,39.22,-4.50981
-700,-34,-27.3799,0.00183105,-0.0134196,0.230766,-0.00259978,0.230793,-0.0134473,-1.56015,0.158535,0.047812,524,1058,-27.3799,-0.00181614
-693,-34,-27.428,0.0755615,-0.00809036,0.190348,0.000871338,0.190352,-0.00809418,1.56641,0.129684,0.0444457,531,1058,-27.428,-0.0755664
-686,-34,-27.4408,0.925537,0,0,0,0,0,0,0,-1,538,1058,-27.4408,-0.925539
-679,-34,-28.2582,0.860718,-0.00243952,0.124213,0.00433198,0.124361,-0.00258752,1.53665,0.0837829,0.0443933,545,1058,-28.2583,-0.860664
-672,-34,-28.5728,0.915039,-0.00098863,0.0984318,0.0047688,0.09866,-0.00121685,1.52298,0.0661827,0.0442376,552,1058,-28.5728,-0.91498
-665,-34,-28.5027,1.56274,0,0,0,0,0,0,0,-1,559,1058,-28.5027,-1.56278
-658,-34,-28.3329,1.67859,0,0,0,0,0,0,0,-1,566,1058,-28.3329,-1.67855
-651,-34,-28.5151,1.77808,0.000658767,0.0433231,0.00368742,0.0436394,0.000342416,1.48521,0.0289795,0.0299075,573,1058,-28.5151,-1.77809
-644,-34,-28.6574,1.85474,0.000565614,0.030208,0.0023962,0.0304005,0.000373161,1.49065,0.0201437,0.0152691,580,1058,-28.6574,-1.85469
-637,-34,-28.6943,1.98193,0.000716705,0.0190066,0.00046317,0.0190184,0.000704983,1.54549,0.0124506,0.0166119,587,1058,-28.6944,-1.98199
-630,-34,-28.7237,2.18054,0.000835703,0.0116835,-0.00180508,0.011976,0.000543221,-1.41016,0.00780921,0.017673,594,1058,-28.7237,-2.18059
-623,-34,-28.6667,2.34131,0.000292364,0.00611008,-0.00424744,0.00834925,-0.00194681,-1.08564,0.00631592,0.0135093,601,1058,-28.6667,-2.34127
-616,-34,-28.674,2.51648,-5.4442e-06,0.00296515,-0.00648696,0.00813468,-0.00517497,-0.897941,0.0077474,0.0202672,608,1058,-28.6739,-2.51645
-609,-34,-28.6926,2.66321,-0.000188742,0.00120906,-0.00812739,0.00866754,-0.00764722,-0.828289,0.00942547,0.0205702,615,1058,-28.6926,-2.66317
-602,-34,-28.6896,2.80078,-0.000226303,0.000210832,-0.00938926,0.00938406,-0.00939953,-0.797035,0.0108447,0.015281,622,1058,-28.6896,-2.80072
-595,-34,-28.746,2.9021,-0.000235364,-0.00039791,-0.0101218,0.00980551,-0.0104388,-0.781384,0.01169,0.0149096,629,1058,-28.7459,-2.90214
-588,-34,-28.9022,1.81213,-6.00469e-05,-0.000715636,-0.0102644,0.00988176,-0.0106574,-0.769436,0.0118611,0.0260701,636,1058,-28.9021,-1.81219
-581,-34,-28.9946,0.404663,0,0,0,0,0,0,0,-1,643,1058,-28.9946,-0.404689
-574,-34,-28.7968,0.800171,0.00019172,-0.00089024,-0.00931286,0.0089793,-0.00967782,-0.756386,0.0107742,0.0347495,650,1058,-28.7968,-0.800186
-567,-34,-28.8607,0.666382,8.17308e-05,-0.00068715,-0.00807196,0.0077784,-0.00838382,-0.761603,0.00933345,0.0408629,657,1058,-28.8607,-0.666367
-560,-34,-28.877,0.557617,-4.86828e-05,-0.000286291,-0.00623505,0.0060687,-0.00640367,-0.775872,0.00720179,0.0423913,664,1058,-28.877,-0.557566
-553,-34,-28.8053,0.628296,-0.000218997,0.000260406,-0.00383806,0.00386625,-0.00382484,-0.816585,0.00444047,0.0432535,671,1058,-28.8053,-0.628356
-546,-34,-28.7992,0.749756,-0.000347321,0.000867914,-0.000933125,0.00137381,-0.000853221,-1.07399,0.00129744,0.0427702,678,1058,-28.7992,-0.749716
-539,-34,-28.7598,0.725342,-0.000382422,0.00144923,0.00123441,0.00207045,-0.00100364,1.10455,0.0018101,0.0409158,685,1058,-28.7598,-0.725345
-532,-34,-28.9115,0.695679,-0.000596517,0.00255858,-0.000123625,0.00256342,-0.000601353,-1.53169,0.00194071,0.0408254,692,1058,-28.9115,-0.695698
-525,-34,0,0,0,0,0,0,0,0,0,-1,699,1058,0,0
-518,-34,0,0,0,0,0,0,0,0,0,-1,706,1058,0,0
-511,-34,0,0,0,0,0,0,0,0,0,-1,713,1058,0,0
-504,-34,0,0,0,0,0,0,0,0,0,-1,720,1058,0,0
-497,-34,0,0,0,0,0,0,0,0,0,-1,727,1058,0,0
-490,-34,0,0,0,0,0,0,0,0,0,-1,734,1058,0,0
-483,-34,0,0,0,0,0,0,0,0,0,-1,741,1058,0,0
-476,-34,0,0,0,0,0,0,0,0,0,-1,748,1058,0,0
-469,-34,0,0,0,0,0,0,0,0,0,-1,755,1058,0,0
-462,-34,0,0,0,0,0,0,0,0,0,-1,762,1058,0,0
-455,-34,0,0,0,0,0,0,0,0,0,-1,769,1058,0,0
-448,-34,0,0,0,0,0,0,0,0,0,-1,776,1058,0,0
-441,-34,0,0,0,0,0,0,0,0,0,-1,783,1058,0,0
-434,-34,0,0,0,0,0,0,0,0,0,-1,790,1058,0,0
-427,-34,0,0,0,0,0,0,0,0,0,-1,797,1058,0,0
-420,-34,0,0,0,0,0,0,0,0,0,-1,804,1058,0,0
-413,-34,0,0,0,0,0,0,0,0,0,-1,811,1058,0,0
-406,-34,0,0,0,0,0,0,0,0,0,-1,818,1058,0,0
-399,-34,0,0,0,0,0,0,0,0,0,-1,825,1058,0,0
-392,-34,0,0,0,0,0,0,0,0,0,-1,832,1058,0,0
-385,-34,0,0,0,0,0,0,0,0,0,-1,839,1058,0,0
-378,-34,0,0,0,0,0,0,0,0,0,-1,846,1058,0,0
-371,-34,0,0,0,0,0,0,0,0,0,-1,853,1058,0,0
-364,-34,0,0,0,0,0,0,0,0,0,-1,860,1058,0,0
-357,-34,0,0,0,0,0,0,0,0,0,-1,867,1058,0,0
-350,-34,0,0,0,0,0,0,0,0,0,-1,874,1058,0,0
-343,-34,0,0,0,0,0,0,0,0,0,-1,881,1058,0,0
-336,-34,0,0,0,0,0,0,0,0,0,-1,888,1058,0,0
-329,-34,0,0,0,0,0,0,0,0,0,-1,895,1058,0,0
-322,-34,0,0,0,0,0,0,0,0,0,-1,902,1058,0,0
-315,-34,0,0,0,0,0,0,0,0,0,-1,909,1058,0,0
-308,-34,0,0,0,0,0,0,0,0,0,-1,916,1058,0,0
-301,-34,0,0,0,0,0,0,0,0,0,-1,923,1058,0,0
-294,-34,0,0,0,0,0,0,0,0,0,-1,930,1058,0,0
-287,-34,0,0,0,0,0,0,0,0,0,-1,937,1058,0,0
-280,-34,0,0,0,0,0,0,0,0,0,-1,944,1058,0,0
-273,-34,0,0,0,0,0,0,0,0,0,-1,951,1058,0,0
-266,-34,0,0,0,0,0,0,0,0,0,-1,958,1058,0,0
-259,-34,0,0,0,0,0,0,0,0,0,-1,965,1058,0,0
-252,-34,0,0,0,0,0,0,0,0,0,-1,972,1058,0,0
-245,-34,0,0,0,0,0,0,0,0,0,-1,979,1058,0,0
-238,-34,0,0,0,0,0,0,0,0,0,-1,986,1058,0,0
-231,-34,0,0,0,0,0,0,0,0,0,-1,993,1058,0,0
-224,-34,0,0,0,0,0,0,0,0,0,-1,1000,1058,0,0
-217,-34,0,0,0,0,0,0,0,0,0,-1,1007,1058,0,0
-210,-34,0,0,0,0,0,0,0,0,0,-1,1014,1058,0,0
-203,-34,0,0,0,0,0,0,0,0,0,-1,1021,1058,0,0
-196,-34,0,0,0,0,0,0,0,0,0,-1,1028,1058,0,0
-189,-34,0,0,0,0,0,0,0,0,0,-1,1035,1058,0,0
-182,-34,0,0,0,0,0,0,0,0,0,-1,1042,1058,0,0
-175,-34,0,0,0,0,0,0,0,0,0,-1,1049,1058,0,0
-168,-34,0,0,0,0,0,0,0,0,0,-1,1056,1058,0,0
-161,-34,0,0,0,0,0,0,0,0,0,-1,1063,1058,0,0
-154,-34,0,0,0,0,0,0,0,0,0,-1,1070,1058,0,0
-147,-34,0,0,0,0,0,0,0,0,0,-1,1077,1058,0,0
-140,-34,0,0,0,0,0,0,0,0,0,-1,1084,1058,0,0
-133,-34,0,0,0,0,0,0,0,0,0,-1,1091,1058,0,0
-126,-34,0,0,0,0,0,0,0,0,0,-1,1098,1058,0,0
-119,-34,0,0,0,0,0,0,0,0,0,-1,1105,1058,0,0
-112,-34,0,0,0,0,0,0,0,0,0,-1,1112,1058,0,0
-105,-34,0,0,0,0,0,0,0,0,0,-1,1119,1058,0,0
-98,-34,0,0,0,0,0,0,0,0,0,-1,1126,1058,0,0
-91,-34,0,0,0,0,0,0,0,0,0,-1,1133,1058,0,0
-84,-34,0,0,0,0,0,0,0,0,0,-1,1140,1058,0,0
-77,-34,0,0,0,0,0,0,0,0,0,-1,1147,1058,0,0
-70,-34,0,0,0,0,0,0,0,0,0,-1,1154,1058,0,0
-63,-34,0,0,0,0,0,0,0,0,0,-1,1161,1058,0,0
-56,-34,0,0,0,0,0,0,0,0,0,-1,1168,1058,0,0
-49,-34,0,0,0,0,0,0,0,0,0,-1,1175,1058,0,0
-42,-34,0,0,0,0,0,0,0,0,0,-1,1182,1058,0,0
-35,-34,0,0,0,0,0,0,0,0,0,-1,1189,1058,0,0
-28,-34,0,0,0,0,0,0,0,0,0,-1,1196,1058,0,0
-21,-34,0,0,0,0,0,0,0,0,0,-1,1203,1058,0,0
-14,-34,0,0,0,0,0,0,0,0,0,-1,1210,1058,0,0
-7,-34,0,0,0,0,0,0,0,0,0,-1,1217,1058,0,0
0,-34,0,0,0,0,0,0,0,0,0,-1,1224,1058,0,0
7,-34,0,0,0,0,0,0,0,0,0,-1,1231,1058,0,0
14,-34,0,0,0,0,0,0,0,0,0,-1,1238,1058,0,0
21,-34,0,0,0,0,0,0,0,0,0,-1,1245,1058,0,0
28,-34,0,0,0,0,0,0,0,0,0,-1,1252,1058,0,0
35,-34,0,0,0,0,0,0,0,0,0,-1,1259,1058,0,0
42,-34,0,0,0,0,0,0,0,0,0,-1,1266,1058,0,0
49,-34,0,0,0,0,0,0,0,0,0,-1,1273,1058,0,0
56,-34,0,0,0,0,0,0,0,0,0,-1,1280,1058,0,0
63,-34,0,0,0,0,0,0,0,0,0,-1,1287,1058,0,0
70,-34,0,0,0,0,0,0,0,0,0,-1,1294,1058,0,0
77,-34,0,0,0,0,0,0,0,0,0,-1,1301,1058,0,0
84,-34,0,0,0,0,0,0,0,0,0,-1,1308,1058,0,0
91,-34,0,0,0,0,0,0,0,0,0,-1,1315,1058,0,0
98,-34,0,0,0,0,0,0,0,0,0,-1,1322,1058,0,0
105,-34,0,0,0,0,0,0,0,0,0,-1,1329,1058,0,0
112,-34,0,0,0,0,0,0,0,0,0,-1,1336,1058,0,0
119,-34,0,0,0,0,0,0,0,0,0,-1,1343,1058,0,0
126,-34,0,0,0,0,0,0,0,0,0,-1,1350,1058,0,0
133,-34,0,0,0,0,0,0,0,0,0,-1,1357,1058,0,0
140,-34,0,0,0,0,0,0,0,0,0,-1,1364,1058,0,0
147,-34,0,0,0,0,0,0,0,0,0,-1,1371,1058,0,0
154,-34,0,0,0,0,0,0,0,0,0,-1,1378,1058,0,0
161,-34,0,0,0,0,0,0,0,0,0,-1,1385,1058,0,0
168,-34,0,0,0,0,0,0,0,0,0,-1,1392,1058,0,0
175,-34,0,0,0,0,0,0,0,0,0,-1,1399,1058,0,0
182,-34,0,0,0,0,0,0,0,0,0,-1,1406,1058,0,0
189,-34,0,0,0,0,0,0,0,0,0,-1,1413,1058,0,0
196,-34,0,0,0,0,0,0,0,0,0,-1,1420,1058,0,0
203,-34,0,0,0,0,0,0,0,0,0,-1,1427,1058,0,0
210,-34,0,0,0,0,0,0,0,0,0,-1,1434,1058,0,0
217,-34,0,0,0,0,0,0,0,0,0,-1,1441,1058,0,0
224,-34,0,0,0,0,0,0,0,0,0,-1,1448,1058,0,0
231,-34,0,0,0,0,0,0,0,0,0,-1,1455,1058,0,0
238,-34,0,0,0,0,0,0,0,0,0,-1,1462,1058,0,0
245,-34,0,0,0,0,0,0,0,0,0,-1,1469,1058,0,0
252,-34,0,0,0,0,0,0,0,0,0,-1,1476,1058,0,0
259,-34,0,0,0,0,0,0,0,0,0,-1,1483,1058,0,0
266,-34,0,0,0,0,0,0,0,0,0,-1,1490,1058,0,0
273,-34,0,0,0,0,0,0,0,0,0,-1,1497,1058,0,0
280,-34,0,0,0,0,0,0,0,0,0,-1,1504,1058,0,0
287,-34,0,0,0,0,0,0,0,0,0,-1,1511,1058,0,0
294,-34,0,0,0,0,0,0,0,0,0,-1,1518,1058,0,0
301,-34,0,0,0,0,0,0,0,0,0,-1,1525,1058,0,0
308,-34,0,0,0,0,0,0,0,0,0,-1,1532,1058,0,0
315,-34,0,0,0,0,0,0,0,0,0,-1,1539,1058,0,0
322,-34,0,0,0,0,0,0,0,0,0,-1,1546,1058,0,0
329,-34,0,0,0,0,0,0,0,0,0,-1,1553,1058,0,0
336,-34,0,0,0,0,0,0,0,0,0,-1,1560,1058,0,0
343,-34,0,0,0,0,0,0,0,0,0,-1,1567,1058,0,0
350,-34,0,0,0,0,0,0,0,0,0,-1,1574,1058,0,0
357,-34,0,0,0,0,0,0,0,0,0,-1,1581,1058,0,0
364,-34,0,0,0,0,0,0,0,0,0,-1,1588,1058,0,0
371,-34,0,0,0,0,0,0,0,0,0,-1,1595,1058,0,0
378,-34,0,0,0,0,0,0,0,0,0,-1,1602,1058,0,0
385,-34,0,0,0,0,0,0,0,0,0,-1,1609,1058,0,0
392,-34,0,0,0,0,0,0,0,0,0,-1,1616,1058,0,0
399,-34,0,0,0,0,0,0,0,0,0,-1,1623,1058,0,0
406,-34,0,0,0,0,0,0,0,0,0,-1,1630,1058,0,0
413,-34,0,0,0,0,0,0,0,0,0,-1,1637,1058,0,0
420,-34,0,0,0,0,0,0,0,0,0,-1,1644,1058,0,0
427,-34,0,0,0,0,0,0,0,0,0,-1,1651,1058,0,0
434,-34,0,0,0,0,0,0,0,0,0,-1,1658,1058,0,0
441,-34,0,0,0,0,0,0,0,0,0,-1,1665,1058,0,0
448,-34,0,0,0,0,0,0,0,0,0,-1,1672,1058,0,0
455,-34,0,0,0,0,0,0,0,0,0,-1,1679,1058,0,0
462,-34,0,0,0,0,0,0,0,0,0,-1,1686,1058,0,0
469,-34,0,0,0,0,0,0,0,0,0,-1,1693,1058,0,0
476,-34,0,0,0,0,0,0,0,0,0,-1,1700,1058,0,0
483,-34,0,0,0,0,0,0,0,0,0,-1,1707,1058,0,0
490,-34,0,0,0,0,0,0,0,0,0,-1,1714,1058,0,0
497,-34,0,0,0,0,0,0,0,0,0,-1,1721,1058,0,0
504,-34,0,0,0,0,0,0,0,0,0,-1,1728,1058,0,0
511,-34,0,0,0,0,0,0,0,0,0,-1,1735,1058,0,0
518,-34,0,0,0,0,0,0,0,0,0,-1,1742,1058,0,0
525,-34,0,0,0,0,0,0,0,0,0,-1,1749,1058,0,0
532,-34,0,0,0,0,0,0,0,0,0,-1,1756,1058,0,0
539,-34,0,0,0,0,0,0,0,0,0,-1,1763,1058,0,0
546,-34,0,0,0,0,0,0,0,0,0,-1,1770,1058,0,0
553,-34,0,0,0,0,0,0,0,0,0,-1,1777,1058,0,0
560,-34,0,0,0,0,0,0,0,0,0,-1,1784,1058,0,0
567,-34,0,0,0,0,0,0,0,0,0,-1,1791,1058,0,0
574,-34,0,0,0,0,0,0,0,0,0,-1,1798,1058,0,0
581,-34,0,0,0,0,0,0,0,0,0,-1,1805,1058,0,0
588,-34,0,0,0,0,0,0,0,0,0,-1,1812,1058,0,0
595,-34,0,0,0,0,0,0,0,0,0,-1,1819,1058,0,0
602,-34,0,0,0,0,0,0,0,0,0,-1,1826,1058,0,0
609,-34,0,0,0,0,0,0,0,0,0,-1,1833,1058,0,0
616,-34,0,0,0,0,0,0,0,0,0,-1,1840,1058,0,0
623,-34,0,0,0,0,0,0,0,0,0,-1,1847,1058,0,0
630,-34,0,0,0,0,0,0,0,0,0,-1,1854,1058,0,0
637,-34,0,0,0,0,0,0,0,0,0,-1,1861,1058,0,0
644,-34,0,0,0,0,0,0,0,0,0,-1,1868,1058,0,0
651,-34,39.5128,2.52942,0.00119782,0.000810987,0.00465399,0.00566241,-0.00365361,0.76463,0.00542013,0.0427535,1875,1058,39.5128,-2.52945
658,-34,39.4902,2.49182,0.000689926,0.00033474,0.00286212,0.00337995,-0.00235529,0.754413,0.00332881,0.0454008,1882,1058,39.4902,-2.4918
665,-34,39.6095,2.54285,0.000362641,0.000104699,0.00177502,0.00201337,-0.00154603,0.749132,0.00206092,0.0410286,1889,1058,39.6095,-2.54282
672,-34,39.6063,2.5636,0.000202446,-6.72814e-05,0.00134622,0.00142054,-0.00128537,0.735475,0.00156291,0.0357812,1896,1058,39.6063,-2.56356
679,-34,39.6515,2.52502,4.56358e-05,-0.000194217,0.00127062,0.00120197,-0.00135055,0.738345,0.00147453,0.0349402,1903,1058,39.6514,-2.52507
686,-34,39.6205,2.57349,-0.000270458,-0.000425172,0.00148662,0.00114082,-0.00183645,0.759404,0.0017345,0.0403013,1910,1058,39.6205,-2.57353
693,-34,39.5123,2.5918,-0.000531143,-0.000666554,0.00183469,0.00123709,-0.00243479,0.766955,0.00215722,0.0433031,1917,1058,39.5124,-2.59181
700,-34,39.4979,2.54297,-0.000758483,-0.000812985,0.00214317,0.00135761,-0.00292908,0.779041,0.00252975,0.0411181,1924,1058,39.4979,-2.54299
707,-34,39.5031,2.59009,-0.00104446,-0.0007817,0.00227524,0.00136595,-0.00319211,0.814238,0.00270108,0.0255001,1931,1058,39.5031,-2.59005
714,-34,39.5065,2.66064,-0.00146005,-0.000592138,0.00239906,0.00141189,-0.00346409,0.874874,0.00289707,0.0218685,1938,1058,39.5065,-2.66068
721,-34,39.6541,3.27246,0,0,0,0,0,0,0,-1,1945,1058,39.654,-3.2724
728,-34,39.1113,5.3844,0,0,0,0,0,0,0,-1,1952,1058,39.1113,-5.38434
735,-34,39.0009,5.34485,-0.00302865,0.000990489,0.00233364,0.00206057,-0.00409873,1.14086,0.00362039,0.0190309,1959,1058,39.0009,-5.34486
742,-34,38.948,5.28296,-0.00342314,0.00192359,0.00181176,0.00247967,-0.00397922,1.27299,0.0037624,0.0157834,1966,1058,38.948,-5.283
749,-34,38.975,5.19568,-0.00387587,0.00305166,0.00131668,0.00329347,-0.00411768,1.38917,0.00428764,0.013141,1973,1058,38.975,-5.19567
756,-34,38.9813,5.0625,-0.00416537,0.00437924,0.000295231,0.00438943,-0.00417556,1.5363,0.00494551,0.0106291,1980,1058,38.9814,-5.06255
763,-34,38.9379,4.93054,-0.00416698,0.00588113,-0.00130095,0.00604683,-0.00433269,-1.44411,0.0060198,0.0117339,1987,1058,38.9379,-4.93052
770,-34,38.8702,4.82141,-0.00389655,0.0078224,-0.00325372,0.00866517,-0.00473933,-1.31735,0.00784895,0.0177578,1994,1058,38.8702,-4.82137
777,-34,38.796,4.74658,-0.00304026,0.00974211,-0.00558267,0.011837,-0.00513515,-1.21181,0.0100503,0.0202517,2001,1058,38.7961,-4.7466
784,-34,38.7542,4.60461,-0.00185136,0.0112707,-0.00825188,0.015252,-0.00583265,-1.12127,0.0125716,0.0355199,2008,1058,38.7542,-4.60465
791,-34,38.7268,4.35889,-0.000173239,0.0121436,-0.0115006,0.0190309,-0.00706053,-1.03121,0.0155834,0.0430356,2015,1058,38.7269,-4.35889
798,-34,38.7717,4.1665,0.00245338,0.011982,-0.0155408,0.0234724,-0.00903705,-0.934133,0.0193763,0.0476911,2022,1058,38.7718,-4.16652
805,-34,38.9385,4.29895,0.00646334,0.0103268,-0.0205767,0.0290623,-0.0122721,-0.832201,0.0245119,0.048968,2029,1058,38.9384,-4.2989
812,-34,38.9814,4.19373,0,0,0,0,0,0,0,-1,2036,1058,38.9815,-4.19369
-700,-41,-27.5031,-1.58521,-0.00715818,0.210805,-0.00594871,0.210967,-0.00732041,-1.54353,0.143147,0.0452385,524,1065,-27.5031,1.58519
-693,-41,-27.2942,-1.74219,-0.00243736,0.176369,-0.000906424,0.176374,-0.00244197,-1.56573,0.118405,0.0425974,531,1065,-27.2942,1.74215
-686,-41,-26.902,-2.11633,0,0,0,0,0,0,0,-1,538,1065,-26.902,2.11637
-679,-41,-30.4729,-0.322998,0.00190239,0.11809,0.00477739,0.118286,0.00170629,1.52977,0.0782949,0.0442891,545,1065,-30.4729,0.323041
-672,-41,-29.648,-0.0334473,0.00260456,0.0941006,0.0058083,0.0944679,0.00223732,1.50765,0.0622462,0.0441947,552,1065,-29.648,0.0334017
-665,-41,-28.5382,0.0910645,0.00280587,0.073431,0.00606987,0.0739488,0.002288,1.48568,0.0485545,0.0437071,559,1065,-28.5382,-0.0910466
-658,-41,-28.3867,0.776001,0.00263796,0.0559367,0.00576678,0.0565535,0.00202115,1.46424,0.037047,0.0412087,566,1065,-28.3867,-0.775941
-651,-41,-28.2737,1.50378,0.00225933,0.0414324,0.00506502,0.0420767,0.00161503,1.44427,0.0275286,0.0306101,573,1065,-28.2737,-1.50381
-644,-41,-28.4977,1.80212,0.00171129,0.0287981,0.00367235,0.0292872,0.00122223,1.4384,0.0191304,0.0169555,580,1065,-28.4977,-1.80211
-637,-41,-28.5256,1.95239,0.00139093,0.0180304,0.00159351,0.0181816,0.0012397,1.47618,0.0117297,0.0180005,587,1065,-28.5256,-1.95242
-630,-41,-28.5253,2.12817,0.00110876,0.0109411,-0.000828466,0.0110104,0.00103945,-1.48732,0.00701951,0.0138037,594,1065,-28.5253,-2.12818
-623,-41,-28.4816,2.33875,0.000409395,0.00557486,-0.00335637,0.00722718,-0.00124293,-1.11333,0.00528141,0.0120031,601,1065,-28.4816,-2.33872
-616,-41,-28.4996,2.53943,6.5006e-05,0.00248827,-0.00560704,0.0070131,-0.00445982,-0.891808,0.00667835,0.0168638,608,1065,-28.4996,-2.53939
-609,-41,-28.4886,2.70435,-0.00011369,0.00067236,-0.00723315,0.00752316,-0.00696449,-0.81254,0.00836652,0.0235674,615,1065,-28.4886,-2.7043
-602,-41,-28.5052,2.83044,-0.000166948,-0.00035222,-0.00852504,0.00826596,-0.00878513,-0.779965,0.00984597,0.0140337,622,1065,-28.5052,-2.83049
-595,-41,-28.586,2.92249,-0.000212159,-0.00102451,-0.00927249,0.00866305,-0.00989971,-0.76351,0.0107251,0.0203229,629,1065,-28.586,-2.92244
-588,-41,-28.8101,1.77466,-6.47219e-05,-0.00135623,-0.0094414,0.00875298,-0.0101739,-0.751253,0.0109377,0.0317478,636,1065,-28.8101,-1.77461
-581,-41,-28.9471,0.646606,0,0,0,0,0,0,0,-1,643,1065,-28.9471,-0.646603
-574,-41,-28.7701,0.821533,0.00012635,-0.00153643,-0.00865954,0.00799432,-0.00940439,-0.737541,0.0100561,0.0388442,650,1065,-28.7701,-0.821522
-567,-41,-28.7859,0.789795,1.79857e-05,-0.00134652,-0.00762567,0.00699187,-0.0083204,-0.740783,0.00885162,0.0422688,657,1065,-28.7859,-0.789783
-560,-41,-28.8633,0.6073,-0.000116431,-0.000935838,-0.00606586,0.00555354,-0.00660581,-0.751678,0.00702896,0.0429211,664,1065,-28.8633,-0.607316
-553,-41,-28.9404,0.740234,-0.00029759,-0.000334392,-0.00400393,0.00368798,-0.00431996,-0.7831,0.00462818,0.0434186,671,1065,-28.9404,-0.740177
-546,-41,-28.9422,0.744263,-0.000458849,0.000402712,-0.00145571,0.00149005,-0.00154618,-0.929255,0.00175307,0.0399214,678,1065,-28.9422,-0.744258
-539,-41,-28.8417,0.734863,-0.000553459,0.00115788,0.000450504,0.00126923,-0.000664807,1.32849,0.00113465,0.0380759,685,1065,-28.8417,-0.73487
-532,-41,-28.8826,0.842285,-0.000955546,0.00234432,-0.0011219,0.00268961,-0.00130084,-1.27222,0.00234994,0.0382402,692,1065,-28.8826,-0.842243
-525,-41,0,0,0,0,0,0,0,0,0,-1,699,1065,0,0
-518,-41,0,0,0,0,0,0,0,0,0,-1,706,1065,0,0
-511,-41,0,0,0,0,0,0,0,0,0,-1,713,1065,0,0
-504,-41,0,0,0,0,0,0,0,0,0,-1,720,1065,0,0
-497,-41,0,0,0,0,0,0,0,0,0,-1,727,1065,0,0
-490,-41,0,0,0,0,0,0,0,0,0,-1,734,1065,0,0
-483,-41,0,0,0,0,0,0,0,0,0,-1,741,1065,0,0
-476,-41,0,0,0,0,0,0,0,0,0,-1,748,1065,0,0
-469,-41,0,0,0,0,0,0,0,0,0,-1,755,1065,0,0
-462,-41,0,0,0,0,0,0,0,0,0,-1,762,1065,0,0
-455,-41,0,0,0,0,0,0,0,0,0,-1,769,1065,0,0
-448,-41,0,0,0,0,0,0,0,0,0,-1,776,1065,0,0
-441,-41,0,0,0,0,0,0,0,0,0,-1,783,1065,0,0
-434,-41,0,0,0,0,0,0,0,0,0,-1,790,1065,0,0
-427,-41,0,0,0,0,0,0,0,0,0,-1,797,1065,0,0
-420,-41,0,0,0,0,0,0,0,0,0,-1,804,1065,0,0
-413,-41,0,0,0,0,0,0,0,0,0,-1,811,1065,0,0
-406,-41,0,0,0,0,0,0,0,0,0,-1,818,1065,0,0
-399,-41,0,0,0,0,0,0,0,0,0,-1,825,1065,0,0
-392,-41,0,0,0,0,0,0,0,0,0,-1,832,1065,0,0
-385,-41,0,0,0,0,0,0,0,0,0,-1,839,1065,0,0
-378,-41,0,0,0,0,0,0,0,0,0,-1,846,1065,0,0
-371,-41,0,0,0,0,0,0,0,0,0,-1,853,1065,0,0
-364,-41,0,0,0,0,0,0,0,0,0,-1,860,1065,0,0
-357,-41,0,0,0,0,0,0,0,0,0,-1,867,1065,0,0
-350,-41,0,0,0,0,0,0,0,0,0,-1,874,1065,0,0
-343,-41,0,0,0,0,0,0,0,0,0,-1,881,1065,0,0
-336,-41,0,0,0,0,0,0,0,0,0,-1,888,1065,0,0
-329,-41,0,0,0,0,0,0,0,0,0,-1,895,1065,0,0
-322,-41,0,0,0,0,0,0,0,0,0,-1,902,1065,0,0
-315,-41,0,0,0,0,0,0,0,0,0,-1,909,1065,0,0
-308,-41,0,0,0,0,0,0,0,0,0,-1,916,1065,0,0
-301,-41,0,0,0,0,0,0,0,0,0,-1,923,1065,0,0
-294,-41,0,0,0,0,0,0,0,0,0,-1,930,1065,0,0
-287,-41,0,0,0,0,0,0,0,0,0,-1,937,1065,0,0
-280,-41,0,0,0,0,0,0,0,0,0,-1,944,1065,0,0
-273,-41,0,0,0,0,0,0,0,0,0,-1,951,1065,0,0
-266,-41,0,0,0,0,0,0,0,0,0,-1,958,1065,0,0
-259,-41,0,0,0,0,0,0,0,0,0,-1,965,1065,0,0
-252,-41,0,0,0,0,0,0,0,0,0,-1,972,1065,0,0
-245,-41,0,0,0,0,0,0,0,0,0,-1,979,1065,0,0
-238,-41,0,0,0,0,0,0,0,0,0,-1,986,1065,0,0
-231,-41,0,0,0,0,0,0,0,0,0,-1,993,1065,0,0
-224,-41,0,0,0,0,0,0,0,0,0,-1,1000,1065,0,0
-217,-41,0,0,0,0,0,0,0,0,0,-1,1007,1065,0,0
-210,-41,0,0,0,0,0,0,0,0,0,-1,1014,1065,0,0
-203,-41,0,0,0,0,0,0,0,0,0,-1,1021,1065,0,0
-196,-41,0,0,0,0,0,0,0,0,0,-1,1028,1065,0,0
-189,-41,0,0,0,0,0,0,0,0,0,-1,1035,1065,0,0
-182,-41,0,0,0,0,0,0,0,0,0,-1,1042,1065,0,0
-175,-41,0,0,0,0,0,0,0,0,0,-1,1049,1065,0,0
-168,-41,0,0,0,0,0,0,0,0,0,-1,1056,1065,0,0
-161,-41,0,0,0,0,0,0,0,0,0,-1,1063,1065,0,0
-154,-41,0,0,0,0,0,0,0,0,0,-1,1070,1065,0,0
-147,-41,0,0,0,0,0,0,0,0,0,-1,1077,1065,0,0
-140,-41,0,0,0,0,0,0,0,0,0,-1,1084,1065,0,0
-133,-41,0,0,0,0,0,0,0,0,0,-1,1091,1065,0,0
-126,-41,0,0,0,0,0,0,0,0,0,-1,1098,1065,0,0
-119,-41,0,0,0,0,0,0,0,0,0,-1,1105,1065,0,0
-112,-41,0,0,0,0,0,0,0,0,0,-1,1112,1065,0,0
-105,-41,0,0,0,0,0,0,0,0,0,-1,1119,1065,0,0
-98,-41,0,0,0,0,0,0,0,0,0,-1,1126,1065,0,0
-91,-41,0,0,0,0,0,0,0,0,0,-1,1133,1065,0,0
-84,-41,0,0,0,0,0,0,0,0,0,-1,1140,1065,0,0
-77,-41,0,0,0,0,0,0,0,0,0,-1,1147,1065,0,0
-70,-41,0,0,0,0,0,0,0,0,0,-1,1154,1065,0,0
-63,-41,0,0,0,0,0,0,0,0,0,-1,1161,1065,0,0
-56,-41,0,0,0,0,0,0,0,0,0,-1,1168,1065,0,0
-49,-41,0,0,0,0,0,0,0,0,0,-1,1175,1065,0,0
-42,-41,0,0,0,0,0,0,0,0,0,-1,1182,1065,0,0
-35,-41,0,0,0,0,0,0,0,0,0,-1,1189,1065,0,0
-28,-41,0,0,0,0,0,0,0,0,0,-1,1196,1065,0,0
-21,-41,0,0,0,0,0,0,0,0,0,-1,1203,1065,0,0
-14,-41,0,0,0,0,0,0,0,0,0,-1,1210,1065,0,0
-7,-41,0,0,0,0,0,0,0,0,0,-1,1217,1065,0,0
0,-41,0,0,0,0,0,0,0,0,0,-1,1224,1065,0,0
7,-41,0,0,0,0,0,0,0,0,0,-1,1231,1065,0,0
14,-41,0,0,0,0,0,0,0,0,0,-1,1238,1065,0,0
21,-41,0,0,0,0,0,0,0,0,0,-1,1245,1065,0,0
28,-41,0,0,0,0,0,0,0,0,0,-1,1252,1065,0,0
35,-41,0,0,0,0,0,0,0,0,0,-1,1259,1065,0,0
42,-41,0,0,0,0,0,0,0,0,0,-1,1266,1065,0,0
49,-41,0,0,0,0,0,0,0,0,0,-1,1273,1065,0,0
56,-41,0,0,0,0,0,0,0,0,0,-1,1280,1065,0,0
63,-41,0,0,0,0,0,0,0,0,0,-1,1287,1065,0,0
70,-41,0,0,0,0,0,0,0,0,0,-1,1294,1065,0,0
77,-41,0,0,0,0,0,0,0,0,0,-1,1301,1065,0,0
84,-41,0,0,0,0,0,0,0,0,0,-1,1308,1065,0,0
91,-41,0,0,0,0,0,0,0,0,0,-1,1315,1065,0,0
98,-41,0,0,0,0,0,0,0,0,0,-1,1322,1065,0,0
105,-41,0,0,0,0,0,0,0,0,0,-1,1329,1065,0,0
112,-41,0,0,0,0,0,0,0,0,0,-1,1336,1065,0,0
119,-41,0,0,0,0,0,0,0,0,0,-1,1343,1065,0,0
126,-41,0,0,0,0,0,0,0,0,0,-1,1350,1065,0,0
133,-41,0,0,0,0,0,0,0,0,0,-1,1357,1065,0,0
140,-41,0,0,0,0,0,0,0,0,0,-1,1364,1065,0,0
147,-41,0,0,0,0,0,0,0,0,0,-1,1371,1065,0,0
154,-41,0,0,0,0,0,0,0,0,0,-1,1378,1065,0,0
161,-41,0,0,0,0,0,0,0,0,0,-1,1385,1065,0,0
168,-41,0,0,0,0,0,0,0,0,0,-1,1392,1065,0,0
175,-41,0,0,0,0,0,0,0,0,0,-1,1399,1065,0,0
182,-41,0,0,0,0,0,0,0,0,0,-1,1406,1065,0,0
189,-41,0,0,0,0,0,0,0,0,0,-1,1413,1065,0,0
196,-41,0,0,0,0,0,0,0,0,0,-1,1420,1065,0,0
203,-41,0,0,0,0,0,0,0,0,0,-1,1427,1065,0,0
210,-41,0,0,0,0,0,0,0,0,0,-1,1434,1065,0,0
217,-41,0,0,0,0,0,0,0,0,0,-1,1441,1065,0,0
224,-41,0,0,0,0,0,0,0,0,0,-1,1448,1065,0,0
231,-41,0,0,0,0,0,0,0,0,0,-1,1455,1065,0,0
238,-41,0,0,0,0,0,0,0,0,0,-1,1462,1065,0,0
245,-41,0,0,0,0,0,0,0,0,0,-1,1469,1065,0,0
252,-41,0,0,0,0,0,0,0,0,0,-1,1476,1065,0,0
259,-41,0,0,0,0,0,0,0,0,0,-1,1483,1065,0,0
266,-41,0,0,0,0,0,0,0,0,0,-1,1490,1065,0,0
273,-41,0,0,0,0,0,0,0,0,0,-1,1497,1065,0,0
280,-41,0,0,0,0,0,0,0,0,0,-1,1504,1065,0,0
287,-41,0,0,0,0,0,0,0,0,0,-1,1511,1065,0,0
294,-41,0,0,0,0,0,0,0,0,0,-1,1518,1065,0,0
301,-41,0,0,0,0,0,0,0,0,0,-1,1525,1065,0,0
308,-41,0,0,0,0,0,0,0,0,0,-1,1532,1065,0,0
315,-41,0,0,0,0,0,0,0,0,0,-1,1539,1065,0,0
322,-41,0,0,0,0,0,0,0,0,0,-1,1546,1065,0,0
329,-41,0,0,0,0,0,0,0,0,0,-1,1553,1065,0,0
336,-41,0,0,0,0,0,0,0,0,0,-1,1560,1065,0,0
343,-41,0,0,0,0,0,0,0,0,0,-1,1567,1065,0,0
350,-41,0,0,0,0,0,0,0,0,0,-1,1574,1065,0,0
357,-41,0,0,0,0,0,0,0,0,0,-1,1581,1065,0,0
364,-41,0,0,0,0,0,0,0,0,0,-1,1588,1065,0,0
371,-41,0,0,0,0,0,0,0,0,0,-1,1595,1065,0,0
378,-41,0,0,0,0,0,0,0,0,0,-1,1602,1065,0,0
385,-41,0,0,0,0,0,0,0,0,0,-1,1609,1065,0,0
392,-41,0,0,0,0,0,0,0,0,0,-1,1616,1065,0,0
399,-41,0,0,0,0,0,0,0,0,0,-1,1623,1065,0,0
406,-41,0,0,0,0,0,0,0,0,0,-1,1630,1065,0,0
413,-41,0,0,0,0,0,0,0,0,0,-1,1637,1065,0,0
420,-41,0,0,0,0,0,0,0,0,0,-1,1644,1065,0,0
427,-41,0,0,0,0,0,0,0,0,0,-1,1651,1065,0,0
434,-41,0,0,0,0,0,0,0,0,0,-1,1658,1065,0,0
441,-41,0,0,0,0,0,0,0,0,0,-1,1665,1065,0,0
448,-41,0,0,0,0,0,0,0,0,0,-1,1672,1065,0,0
455,-41,0,0,0,0,0,0,0,0,0,-1,1679,1065,0,0
462,-41,0,0,0,0,0,0,0,0,0,-1,1686,1065,0,0
469,-41,0,0,0,0,0,0,0,0,0,-1,1693,1065,0,0
476,-41,0,0,0,0,0,0,0,0,0,-1,1700,1065,0,0
483,-41,0,0,0,0,0,0,0,0,0,-1,1707,1065,0,0
490,-41,0,0,0,0,0,0,0,0,0,-1,1714,1065,0,0
497,-41,0,0,0,0,0,0,0,0,0,-1,1721,1065,0,0
504,-41,0,0,0,0,0,0,0,0,0,-1,1728,1065,0,0
511,-41,0,0,0,0,0,0,0,0,0,-1,1735,1065,0,0
518,-41,0,0,0,0,0,0,0,0,0,-1,1742,1065,0,0
525,-41,0,0,0,0,0,0,0,0,0,-1,1749,1065,0,0
532,-41,0,0,0,0,0,0,0,0,0,-1,1756,1065,0,0
539,-41,0,0,0,0,0,0,0,0,0,-1,1763,1065,0,0
546,-41,0,0,0,0,0,0,0,0,0,-1,1770,1065,0,0
553,-41,0,0,0,0,0,0,0,0,0,-1,1777,1065,0,0
560,-41,0,0,0,0,0,0,0,0,0,-1,1784,1065,0,0
567,-41,0,0,0,0,0,0,0,0,0,-1,1791,1065,0,0
574,-41,0,0,0,0,0,0,0,0,0,-1,1798,1065,0,0
581,-41,0,0,0,0,0,0,0,0,0,-1,1805,1065,0,0
588,-41,0,0,0,0,0,0,0,0,0,-1,1812,1065,0,0
595,-41,0,0,0,0,0,0,0,0,0,-1,1819,1065,0,0
602,-41,0,0,0,0,0,0,0,0,0,-1,1826,1065,0,0
609,-41,0,0,0,0,0,0,0,0,0,-1,1833,1065,0,0
616,-41,0,0,0,0,0,0,0,0,0,-1,1840,1065,0,0
623,-41,0,0,0,0,0,0,0,0,0,-1,1847,1065,0,0
630,-41,0,0,0,0,0,0,0,0,0,-1,1854,1065,0,0
637,-41,0,0,0,0,0,0,0,0,0,-1,1861,1065,0,0
644,-41,0,0,0,0,0,0,0,0,0,-1,1868,1065,0,0
651,-41,39.4418,2.47437,0.00152144,-6.64443e-05,0.00471859,0.00551241,-0.00405742,0.702049,0.00554639,0.0354185,1875,1065,39.4418,-2.47435
658,-41,39.3544,2.51587,0.00105378,-0.000370839,0.00286701,0.00329564,-0.0026127,0.663638,0.00341877,0.0406147,1882,1065,39.3543,-2.51585
665,-41,39.4904,2.66919,0.000697658,-0.000473592,0.00174365,0.0019514,-0.00172734,0.623386,0.00212523,0.042488,1889,1065,39.4904,-2.66923
672,-41,39.5333,2.60522,0.000502243,-0.000573535,0.00127925,0.00135209,-0.00142338,0.586384,0.0016026,0.0417273,1896,1065,39.5334,-2.60526
679,-41,39.7191,2.59631,0.000256304,-0.000665116,0.00118641,0.00106832,-0.00147713,0.600199,0.00147592,0.0393729,1903,1065,39.7192,-2.59634
686,-41,39.6187,2.64722,-0.000168088,-0.000882209,0.00139988,0.000919554,-0.00196985,0.660528,0.00170454,0.0412147,1910,1065,39.6187,-2.64722
693,-41,39.4281,2.61279,-0.000506587,-0.00110114,0.00174835,0.000969575,-0.0025773,0.701187,0.00211675,0.0444301,1917,1065,39.4281,-2.61278
700,-41,39.4829,2.55823,-0.00079035,-0.00120638,0.00208265,0.00109465,-0.00309138,0.735623,0.00250678,0.0407006,1924,1065,39.4829,-2.55819
707,-41,39.5208,2.55115,-0.00114414,-0.00117249,0.00224658,0.00108831,-0.00340493,0.782243,0.00270667,0.0292979,1931,1065,39.5208,-2.55117
714,-41,39.5013,2.62488,-0.00160162,-0.000977121,0.00240682,0.00113762,-0.00371636,0.849905,0.00293131,0.0206413,1938,1065,39.5014,-2.62488
721,-41,39.5184,2.77271,0,0,0,0,0,0,0,-1,1945,1065,39.5185,-2.77267
728,-41,38.9329,5.47107,0,0,0,0,0,0,0,-1,1952,1065,38.9329,-5.47103
735,-41,38.8411,5.35376,-0.00300125,0.000585824,0.00246597,0.00184151,-0.00425694,1.09981,0.00361183,0.0175732,1959,1065,38.841,-5.35372
742,-41,38.8025,5.25134,-0.00325792,0.00147902,0.00199208,0.00220539,-0.00398429,1.22115,0.00362248,0.0148512,1966,1065,38.8025,-5.25136
749,-41,38.83,5.17554,-0.00354222,0.00256453,0.00155866,0.00293935,-0.00391704,1.3348,0.00397193,0.0141906,1973,1065,38.83,-5.17552
756,-41,38.8569,5.05872,-0.00363662,0.00380643,0.000636138,0.00386041,-0.0036906,1.48615,0.00435994,0.0134991,1980,1065,38.8569,-5.05871
763,-41,38.7828,4.88721,-0.00339902,0.0051765,-0.000787203,0.00524816,-0.00347069,-1.48001,0.00506858,0.0113266,1987,1065,38.7828,-4.88722
770,-41,38.7278,4.77832,-0.00283101,0.00693011,-0.00251706,0.00754095,-0.00344185,-1.33272,0.00648646,0.0126207,1994,1065,38.7277,-4.77832
777,-41,38.6405,4.65344,-0.00166924,0.00855787,-0.00447466,0.0102392,-0.00335062,-1.21136,0.0081752,0.0149208,2001,1065,38.6405,-4.65344
784,-41,38.5653,4.45215,-0.000242348,0.00977135,-0.00665072,0.0130892,-0.0035602,-1.10805,0.0101237,0.0248875,2008,1065,38.5653,-4.4522
791,-41,38.5374,3.90381,0.00156526,0.0102851,-0.00920858,0.0161138,-0.00426338,-1.0065,0.0124102,0.039752,2015,1065,38.5373,-3.90378
798,-41,38.4827,3.94238,0,0,0,0,0,0,0,-1,2022,1065,38.4827,-3.94239
805,-41,38.6638,3.95264,0,0,0,0,0,0,0,-1,2029,1065,38.6638,-3.95265
812,-41,38.5193,2.5625,0,0,0,0,0,0,0,-1,2036,1065,38.5194,-2.56246
-700,-48,-27.4006,-3.30261,0,0,0,0,0,0,0,-1,524,1072,-27.4006,3.30266
-693,-48,-27.1755,-3.44885,0,0,0,0,0,0,0,-1,531,1072,-27.1755,3.44881
-686,-48,-29.596,-1.75964,0,0,0,0,0,0,0,-1,538,1072,-29.596,1.75968
-679,-48,-29.6541,-0.883911,0.00574788,0.106412,0.00552152,0.106714,0.00544593,1.51616,0.0693986,0.044942,545,1072,-29.6541,0.883959
-672,-48,-29.0787,-0.713257,0.00579955,0.0846172,0.00682943,0.0852046,0.00521217,1.485,0.0551479,0.0451481,552,1072,-29.0787,0.713281
-665,-48,-28.5777,-0.178345,0.00533765,0.0658336,0.00719856,0.0666783,0.00449287,1.45398,0.0430329,0.0464713,559,1072,-28.5777,0.178338
-658,-48,-28.3457,0.583374,0.00454861,0.0499984,0.00686705,0.0510132,0.00353372,1.42407,0.0328943,0.0474093,566,1072,-28.3457,-0.583388
-651,-48,-28.1597,1.26245,0.00364913,0.0369546,0.00604985,0.0380195,0.00258424,1.39656,0.0245304,0.0365436,573,1072,-28.1597,-1.26242
-644,-48,-28.2275,1.77783,0.00274787,0.0256191,0.00457429,0.0265,0.00186693,1.38054,0.0170784,0.0196265,580,1072,-28.2275,-1.77786
-637,-48,-28.2682,1.89001,0.00204009,0.0160567,0.0023985,0.0164558,0.00164103,1.40592,0.0104665,0.0188655,587,1072,-28.2682,-1.88998
-630,-48,-28.2618,2.09265,0.00143985,0.00977488,-0.000129299,0.00977689,0.00143784,-1.55529,0.00609544,0.0198367,594,1072,-28.2618,-2.0927
-623,-48,-28.3052,2.30908,0.000687671,0.00497055,-0.00262621,0.00621774,-0.00055951,-1.12743,0.00434369,0.011549,601,1072,-28.3052,-2.30913
-616,-48,-28.3093,2.50537,0.000385442,0.00221069,-0.00481513,0.00619892,-0.00360279,-0.879053,0.0057248,0.0106585,608,1072,-28.3093,-2.50543
-609,-48,-28.2904,2.68127,0.000243421,0.000492519,-0.00633217,0.00670136,-0.00596542,-0.795232,0.00731729,0.012604,615,1072,-28.2904,-2.68126
-602,-48,-28.3183,2.86377,0.000178207,-0.000512996,-0.00755906,0.00739956,-0.00773435,-0.762554,0.00873828,0.0126019,622,1072,-28.3183,-2.86378
-595,-48,-28.3727,2.9906,0.000112495,-0.00118509,-0.00832494,0.00781389,-0.00888648,-0.74651,0.00964859,0.0249979,629,1072,-28.3727,-2.99065
-588,-48,-28.6658,1.83374,0.000242122,-0.00154124,-0.00854446,0.00794131,-0.00924042,-0.733408,0.00992932,0.0459592,636,1072,-28.6658,-1.83374
-581,-48,-28.7626,0.65332,0,0,0,0,0,0,0,-1,643,1072,-28.7626,-0.653331
-574,-48,-28.7633,0.703003,0,0,0,0,0,0,0,-1,650,1072,-28.7633,-0.702948
-567,-48,-28.8551,0.760376,0,0,0,0,0,0,0,-1,657,1072,-28.8551,-0.76034
-560,-48,-28.9206,0.796509,2.91923e-05,-0.00127331,-0.00586665,0.00528063,-0.00652474,-0.73012,0.00682844,0.0438103,664,1072,-28.9206,-0.796547
-553,-48,-28.9988,0.861206,-0.00024237,-0.000718846,-0.00419532,0.00372147,-0.00468268,-0.757035,0.00486271,0.0445248,671,1072,-28.9989,-0.861211
-546,-48,-29.0944,0.712158,-0.000536206,1.51235e-05,-0.00211833,0.00187565,-0.00239673,-0.850101,0.00247277,0.0401774,678,1072,-29.0944,-0.712101
-539,-48,-28.9285,0.66333,-0.000748345,0.000834653,-0.00066009,0.00107378,-0.000987472,-1.22324,0.00119041,0.039199,685,1072,-28.9285,-0.663356
-532,-48,-28.8802,0.815552,-0.00131456,0.00208697,-0.00261435,0.00350509,-0.00273267,-1.07378,0.00361057,0.0375352,692,1072,-28.8802,-0.815532
-525,-48,0,0,0,0,0,0,0,0,0,-1,699,1072,0,0
-518,-48,0,0,0,0,0,0,0,0,0,-1,706,1072,0,0
-511,-48,0,0,0,0,0,0,0,0,0,-1,713,1072,0,0
-504,-48,0,0,0,0,0,0,0,0,0,-1,720,1072,0,0
-497,-48,0,0,0,0,0,0,0,0,0,-1,727,1072,0,0
-490,-48,0,0,0,0,0,0,0,0,0,-1,734,1072,0,0
-483,-48,0,0,0,0,0,0,0,0,0,-1,741,1072,0,0
-476,-48,0,0,0,0,0,0,0,0,0,-1,748,1072,0,0
-469,-48,0,0,0,0,0,0,0,0,0,-1,755,1072,0,0
-462,-48,0,0,0,0,0,0,0,0,0,-1,762,1072,0,0
-455,-48,0,0,0,0,0,0,0,0,0,-1,769,1072,0,0
-448,-48,0,0,0,0,0,0,0,0,0,-1,776,1072,0,0
-441,-48,0,0,0,0,0,0,0,0,0,-1,783,1072,0,0
-434,-48,0,0,0,0,0,0,0,0,0,-1,790,1072,0,0
-427,-48,0,0,0,0,0,0,0,0,0,-1,797,1072,0,0
-420,-48,0,0,0,0,0,0,0,0,0,-1,804,1072,0,0
-413,-48,0,0,0,0,0,0,0,0,0,-1,811,1072,0,0
-406,-48,0,0,0,0,0,0,0,0,0,-1,818,1072,0,0
-399,-48,0,0,0,0,0,0,0,0,0,-1,825,1072,0,0
-392,-48,0,0,0,0,0,0,0,0,0,-1,832,1072,0,0
-385,-48,0,0,0,0,0,0,0,0,0,-1,839,1072,0,0
-378,-48,0,0,0,0,0,0,0,0,0,-1,846,1072,0,0
-371,-48,0,0,0,0,0,0,0,0,0,-1,853,1072,0,0
-364,-48,0,0,0,0,0,0,0,0,0,-1,860,1072,0,0
-357,-48,0,0,0,0,0,0,0,0,0,-1,867,1072,0,0
-350,-48,0,0,0,0,0,0,0,0,0,-1,874,1072,0,0
-343,-48,0,0,0,0,0,0,0,0,0,-1,881,1072,0,0
-336,-48,0,0,0,0,0,0,0,0,0,-1,888,1072,0,0
-329,-48,0,0,0,0,0,0,0,0,0,-1,895,1072,0,0
-322,-48,0,0,0,0,0,0,0,0,0,-1,902,1072,0,0
-315,-48,0,0,0,0,0,0,0,0,0,-1,909,1072,0,0
-308,-48,0,0,0,0,0,0,0,0,0,-1,916,1072,0,0
-301,-48,0,0,0,0,0,0,0,0,0,-1,923,1072,0,0
-294,-48,0,0,0,0,0,0,0,0,0,-1,930,1072,0,0
-287,-48,0,0,0,0,0,0,0,0,0,-1,937,1072,0,0
-280,-48,0,0,0,0,0,0,0,0,0,-1,944,1072,0,0
-273,-48,0,0,0,0,0,0,0,0,0,-1,951,1072,0,0
-266,-48,0,0,0,0,0,0,0,0,0,-1,958,1072,0,0
-259,-48,0,0,0,0,0,0,0,0,0,-1,965,1072,0,0
-252,-48,0,0,0,0,0,0,0,0,0,-1,972,1072,0,0
-245,-48,0,0,0,0,0,0,0,0,0,-1,979,1072,0,0
-238,-48,0,0,0,0,0,0,0,0,0,-1,986,1072,0,0
-231,-48,0,0,0,0,0,0,0,0,0,-1,993,1072,0,0
-224,-48,0,0,0,0,0,0,0,0,0,-1,1000,1072,0,0
-217,-48,0,0,0,0,0,0,0,0,0,-1,1007,1072,0,0
-210,-48,0,0,0,0,0,0,0,0,0,-1,1014,1072,0,0
-203,-48,0,0,0,0,0,0,0,0,0,-1,1021,1072,0,0
-196,-48,0,0,0,0,0,0,0,0,0,-1,1028,1072,0,0
-189,-48,0,0,0,0,0,0,0,0,0,-1,1035,1072,0,0
-182,-48,0,0,0,0,0,0,0,0,0,-1,1042,1072,0,0
-175,-48,0,0,0,0,0,0,0,0,0,-1,1049,1072,0,0
-168,-48,0,0,0,0,0,0,0,0,0,-1,1056,1072,0,0
-161,-48,0,0,0,0,0,0,0,0,0,-1,1063,1072,0,0
-154,-48,0,0,0,0,0,0,0,0,0,-1,1070,1072,0,0
-147,-48,0,0,0,0,0,0,0,0,0,-1,1077,1072,0,0
-140,-48,0,0,0,0,0,0,0,0,0,-1,1084,1072,0,0
-133,-48,0,0,0,0,0,0,0,0,0,-1,1091,1072,0,0
-126,-48,0,0,0,0,0,0,0,0,0,-1,1098,1072,0,0
-119,-48,0,0,0,0,0,0,0,0,0,-1,1105,1072,0,0
-112,-48,0,0,0,0,0,0,0,0,0,-1,1112,1072,0,0
-105,-48,0,0,0,0,0,0,0,0,0,-1,1119,1072,0,0
-98,-48,0,0,0,0,0,0,0,0,0,-1,1126,1072,0,0
-91,-48,0,0,0,0,0,0,0,0,0,-1,1133,1072,0,0
-84,-48,0,0,0,0,0,0,0,0,0,-1,1140,1072,0,0
-77,-48,0,0,0,0,0,0,0,0,0,-1,1147,1072,0,0
-70,-48,0,0,0,0,0,0,0,0,0,-1,1154,1072,0,0
-63,-48,0,0,0,0,0,0,0,0,0,-1,1161,1072,0,0
-56,-48,0,0,0,0,0,0,0,0,0,-1,1168,1072,0,0
-49,-48,0,0,0,0,0,0,0,0,0,-1,1175,1072,0,0
-42,-48,0,0,0,0,0,0,0,0,0,-1,1182,1072,0,0
-35,-48,0,0,0,0,0,0,0,0,0,-1,1189,1072,0,0
-28,-48,0,0,0,0,0,0,0,0,0,-1,1196,1072,0,0
-21,-48,0,0,0,0,0,0,0,0,0,-1,1203,1072,0,0
-14,-48,0,0,0,0,0,0,0,0,0,-1,1210,1072,0,0
-7,-48,0,0,0,0,0,0,0,0,0,-1,1217,1072,0,0
0,-48,0,0,0,0,0,0,0,0,0,-1,1224,1072,0,0
7,-48,0,0,0,0,0,0,0,0,0,-1,1231,1072,0,0
14,-48,0,0,0,0,0,0,0,0,0,-1,1238,1072,0,0
21,-48,0,0,0,0,0,0,0,0,0,-1,1245,1072,0,0
28,-48,0,0,0,0,0,0,0,0,0,-1,1252,1072,0,0
35,-48,0,0,0,0,0,0,0,0,0,-1,1259,1072,0,0
42,-48,0,0,0,0,0,0,0,0,0,-1,1266,1072,0,0
49,-48,0,0,0,0,0,0,0,0,0,-1,1273,1072,0,0
56,-48,0,0,0,0,0,0,0,0,0,-1,1280,1072,0,0
63,-48,0,0,0,0,0,0,0,0,0,-1,1287,1072,0,0
70,-48,0,0,0,0,0,0,0,0,0,-1,1294,1072,0,0
77,-48,0,0,0,0,0,0,0,0,0,-1,1301,1072,0,0
84,-48,0,0,0,0,0,0,0,0,0,-1,1308,1072,0,0
91,-48,0,0,0,0,0,0,0,0,0,-1,1315,1072,0,0
98,-48,0,0,0,0,0,0,0,0,0,-1,1322,1072,0,0
105,-48,0,0,0,0,0,0,0,0,0,-1,1329,1072,0,0
112,-48,0,0,0,0,0,0,0,0,0,-1,1336,1072,0,0
119,-48,0,0,0,0,0,0,0,0,0,-1,1343,1072,0,0
126,-48,0,0,0,0,0,0,0,0,0,-1,1350,1072,0,0
133,-48,0,0,0,0,0,0,0,0,0,-1,1357,1072,0,0
140,-48,0,0,0,0,0,0,0,0,0,-1,1364,1072,0,0
147,-48,0,0,0,0,0,0,0,0,0,-1,1371,1072,0,0
154,-48,0,0,0,0,0,0,0,0,0,-1,1378,1072,0,0
161,-48,0,0,0,0,0,0,0,0,0,-1,1385,1072,0,0
168,-48,0,0,0,0,0,0,0,0,0,-1,1392,1072,0,0
175,-48,0,0,0,0,0,0,0,0,0,-1,1399,1072,0,0
182,-48,0,0,0,0,0,0,0,0,0,-1,1406,1072,0,0
189,-48,0,0,0,0,0,0,0,0,0,-1,1413,1072,0,0
196,-48,0,0,0,0,0,0,0,0,0,-1,1420,1072,0,0
203,-48,0,0,0,0,0,0,0,0,0,-1,1427,1072,0,0
210,-48,0,0,0,0,0,0,0,0,0,-1,1434,1072,0,0
217,-48,0,0,0,0,0,0,0,0,0,-1,1441,1072,0,0
224,-48,0,0,0,0,0,0,0,0,0,-1,1448,1072,0,0
231,-48,0,0,0,0,0,0,0,0,0,-1,1455,1072,0,0
238,-48,0,0,0,0,0,0,0,0,0,-1,1462,1072,0,0
245,-48,0,0,0,0,0,0,0,0,0,-1,1469,1072,0,0
252,-48,0,0,0,0,0,0,0,0,0,-1,1476,1072,0,0
259,-48,0,0,0,0,0,0,0,0,0,-1,1483,1072,0,0
266,-48,0,0,0,0,0,0,0,0,0,-1,1490,1072,0,0
273,-48,0,0,0,0,0,0,0,0,0,-1,1497,1072,0,0
280,-48,0,0,0,0,0,0,0,0,0,-1,1504,1072,0,0
287,-48,0,0,0,0,0,0,0,0,0,-1,1511,1072,0,0
294,-48,0,0,0,0,0,0,0,0,0,-1,1518,1072,0,0
301,-48,0,0,0,0,0,0,0,0,0,-1,1525,1072,0,0
308,-48,0,0,0,0,0,0,0,0,0,-1,1532,1072,0,0
315,-48,0,0,0,0,0,0,0,0,0,-1,1539,1072,0,0
322,-48,0,0,0,0,0,0,0,0,0,-1,1546,1072,0,0
329,-48,0,0,0,0,0,0,0,0,0,-1,1553,1072,0,0
336,-48,0,0,0,0,0,0,0,0,0,-1,1560,1072,0,0
343,-48,0,0,0,0,0,0,0,0,0,-1,1567,1072,0,0
350,-48,0,0,0,0,0,0,0,0,0,-1,1574,1072,0,0
357,-48,0,0,0,0,0,0,0,0,0,-1,1581,1072,0,0
364,-48,0,0,0,0,0,0,0,0,0,-1,1588,1072,0,0
371,-48,0,0,0,0,0,0,0,0,0,-1,1595,1072,0,0
378,-48,0,0,0,0,0,0,0,0,0,-1,1602,1072,0,0
385,-48,0,0,0,0,0,0,0,0,0,-1,1609,1072,0,0
392,-48,0,0,0,0,0,0,0,0,0,-1,1616,1072,0,0
399,-48,0,0,0,0,0,0,0,0,0,-1,1623,1072,0,0
406,-48,0,0,0,0,0,0,0,0,0,-1,1630,1072,0,0
413,-48,0,0,0,0,0,0,0,0,0,-1,1637,1072,0,0
420,-48,0,0,0,0,0,0,0,0,0,-1,1644,1072,0,0
427,-48,0,0,0,0,0,0,0,0,0,-1,1651,1072,0,0
434,-48,0,0,0,0,0,0,0,0,0,-1,1658,1072,0,0
441,-48,0,0,0,0,0,0,0,0,0,-1,1665,1072,0,0
448,-48,0,0,0,0,0,0,0,0,0,-1,1672,1072,0,0
455,-48,0,0,0,0,0,0,0,0,0,-1,1679,1072,0,0
462,-48,0,0,0,0,0,0,0,0,0,-1,1686,1072,0,0
469,-48,0,0,0,0,0,0,0,0,0,-1,1693,1072,0,0
476,-48,0,0,0,0,0,0,0,0,0,-1,1700,1072,0,0
483,-48,0,0,0,0,0,0,0,0,0,-1,1707,1072,0,0
490,-48,0,0,0,0,0,0,0,0,0,-1,1714,1072,0,0
497,-48,0,0,0,0,0,0,0,0,0,-1,1721,1072,0,0
504,-48,0,0,0,0,0,0,0,0,0,-1,1728,1072,0,0
511,-48,0,0,0,0,0,0,0,0,0,-1,1735,1072,0,0
518,-48,0,0,0,0,0,0,0,0,0,-1,1742,1072,0,0
525,-48,0,0,0,0,0,0,0,0,0,-1,1749,1072,0,0
532,-48,0,0,0,0,0,0,0,0,0,-1,1756,1072,0,0
539,-48,0,0,0,0,0,0,0,0,0,-1,1763,1072,0,0
546,-48,0,0,0,0,0,0,0,0,0,-1,1770,1072,0,0
553,-48,0,0,0,0,0,0,0,0,0,-1,1777,1072,0,0
560,-48,0,0,0,0,0,0,0,0,0,-1,1784,1072,0,0
567,-48,0,0,0,0,0,0,0,0,0,-1,1791,1072,0,0
574,-48,0,0,0,0,0,0,0,0,0,-1,1798,1072,0,0
581,-48,0,0,0,0,0,0,0,0,0,-1,1805,1072,0,0
588,-48,0,0,0,0,0,0,0,0,0,-1,1812,1072,0,0
595,-48,0,0,0,0,0,0,0,0,0,-1,1819,1072,0,0
602,-48,0,0,0,0,0,0,0,0,0,-1,1826,1072,0,0
609,-48,0,0,0,0,0,0,0,0,0,-1,1833,1072,0,0
616,-48,0,0,0,0,0,0,0,0,0,-1,1840,1072,0,0
623,-48,0,0,0,0,0,0,0,0,0,-1,1847,1072,0,0
630,-48,0,0,0,0,0,0,0,0,0,-1,1854,1072,0,0
637,-48,0,0,0,0,0,0,0,0,0,-1,1861,1072,0,0
644,-48,0,0,0,0,0,0,0,0,0,-1,1868,1072,0,0
651,-48,39.5071,2.5459,0.00222722,-0.00109933,0.00435259,0.00522351,-0.00409562,0.602893,0.00539352,0.0315207,1875,1072,39.5071,-2.5459
658,-48,39.4827,2.57031,0.00171674,-0.00108873,0.00258136,0.00325188,-0.00262387,0.536514,0.00339882,0.0359005,1882,1072,39.4826,-2.57029
665,-48,39.4292,2.66565,0.00125173,-0.0009674,0.00150538,0.00201227,-0.00172794,0.467812,0.00216149,0.042332,1889,1072,39.4292,-2.66563
672,-48,39.3713,2.73303,0.000949757,-0.000914513,0.00104284,0.00141633,-0.00138109,0.420696,0.00161513,0.0413834,1896,1072,39.3714,-2.73299
679,-48,39.2537,2.60291,0.000542732,-0.000893705,0.000954011,0.00101866,-0.00136963,0.46274,0.00138383,0.0391622,1903,1072,39.2537,-2.60291
686,-48,39.2565,2.45117,-3.17213e-05,-0.00104281,0.00117704,0.000743748,-0.00181828,0.582558,0.00152193,0.0397074,1910,1072,39.2565,-2.45118
693,-48,39.5255,2.50317,-0.000473093,-0.00122188,0.00152926,0.000726937,-0.00242191,0.66535,0.00190376,0.0391496,1917,1072,39.5255,-2.50323
700,-48,39.5376,2.48218,-0.000828255,-0.00129836,0.00189625,0.000847459,-0.00297408,0.723734,0.00231744,0.0348491,1924,1072,39.5376,-2.48219
707,-48,39.5762,2.5415,-0.00125974,-0.00127121,0.00209929,0.000833822,-0.00336477,0.784032,0.00256667,0.029089,1931,1072,39.5762,-2.54153
714,-48,39.5253,2.67236,-0.00176436,-0.00108077,0.0023033,0.000905949,-0.00375109,0.859058,0.0028511,0.0345044,1938,1072,39.5253,-2.67238
721,-48,39.4974,2.9364,0,0,0,0,0,0,0,-1,1945,1072,39.4975,-2.9364
728,-48,38.8289,5.57849,0,0,0,0,0,0,0,-1,1952,1072,38.8288,-5.57846
735,-48,38.7242,5.4375,-0.00303846,0.000343346,0.00252616,0.00169228,-0.0043874,1.08033,0.00362325,0.0180815,1959,1072,38.7243,-5.43747
742,-48,38.6121,5.27246,-0.00318541,0.00113853,0.00210259,0.00199235,-0.00403923,1.18506,0.00354854,0.0147956,1966,1072,38.612,-5.27246
749,-48,38.6659,5.14868,-0.00332761,0.00211539,0.00172405,0.00261552,-0.00382774,1.28845,0.0037419,0.0141581,1973,1072,38.6659,-5.14865
756,-48,38.6627,5.02295,-0.00327855,0.00324098,0.000874959,0.00335636,-0.00339393,1.43968,0.00389731,0.0127277,1980,1072,38.6627,-5.02298
763,-48,38.6016,4.875,-0.00289585,0.00445854,-0.000414467,0.00448182,-0.00291913,-1.51468,0.00430458,0.0115657,1987,1072,38.6016,-4.87501
770,-48,38.5894,4.73975,-0.00217591,0.00599043,-0.00198356,0.00644674,-0.00263221,-1.34469,0.00539374,0.0118884,1994,1072,38.5894,-4.73978
777,-48,38.507,4.57959,-0.00092076,0.00729548,-0.00368004,0.00870273,-0.00232801,-1.20555,0.00671374,0.0116043,2001,1072,38.507,-4.57964
784,-48,38.4401,4.37097,0.000527392,0.00815657,-0.00549952,0.011035,-0.00235098,-1.08861,0.00825268,0.0235103,2008,1072,38.4401,-4.37097
791,-48,38.6646,3.96802,0.0022591,0.00825579,-0.00754141,0.013373,-0.00285815,-0.974609,0.0100051,0.0406211,2015,1072,38.6646,-3.96801
798,-48,38.7642,3.61963,0.00470341,0.00724304,-0.00986275,0.0159174,-0.00397092,-0.84942,0.0121534,0.046058,2022,1072,38.7643,-3.61967
805,-48,38.6685,3.40845,0,0,0,0,0,0,0,-1,2029,1072,38.6684,-3.40844
812,-48,38.5149,2.97681,0,0,0,0,0,0,0,-1,2036,1072,38.5148,-2.97676
-700,-55,-28.812,-2.51611,0,0,0,0,0,0,0,-1,524,1079,-28.8121,2.51612
-693,-55,-28.7523,-2.27515,0,0,0,0,0,0,0,-1,531,1079,-28.7523,2.27509
-686,-55,-28.6425,-1.86877,0.00585831,0.109472,0.00308258,0.109563,0.00576667,1.54108,0.0711978,0.0473986,538,1079,-28.6425,1.86883
-679,-55,-28.5039,-1.43103,0.00665234,0.089473,0.0059451,0.0898976,0.00622776,1.4995,0.0579674,0.0481835,545,1079,-28.5039,1.43103
-672,-55,-28.3557,-1.00952,0.0065735,0.0716598,0.00746919,0.072506,0.00572735,1.45799,0.0465458,0.0478608,552,1079,-28.3557,1.00949
-665,-55,-28.1807,-0.321045,0.0059526,0.0561175,0.00794591,0.057346,0.00472409,1.4174,0.0367573,0.0482439,559,1079,-28.1807,0.321044
-658,-55,-28.1798,0.402344,0.00500707,0.0428734,0.00762425,0.0443508,0.0035296,1.37938,0.0284637,0.0483794,566,1079,-28.1798,-0.402314
-651,-55,-28.0768,1.07007,0.00398731,0.0318662,0.00675088,0.0334149,0.00243862,1.34529,0.0215099,0.037696,573,1079,-28.0768,-1.07001
-644,-55,-28.0408,1.69556,0.00303325,0.0221582,0.00527574,0.023517,0.00167445,1.31872,0.0151507,0.0207671,580,1079,-28.0408,-1.69561
-637,-55,-28.0694,1.84961,0.00223788,0.0140489,0.00314537,0.0148343,0.00145247,1.3261,0.00944269,0.0167502,587,1079,-28.0694,-1.84966
-630,-55,-28.0548,2.07422,0.00153958,0.00862152,0.000650656,0.00868081,0.0014803,1.47993,0.00536232,0.0192974,594,1079,-28.0548,-2.07428
-623,-55,-28.1386,2.30859,0.000818004,0.00436077,-0.00172623,0.00506277,0.000115998,-1.18455,0.00333719,0.017231,601,1079,-28.1386,-2.30855
-616,-55,-28.147,2.4895,0.000599031,0.00193991,-0.00376352,0.00509224,-0.0025533,-0.873544,0.00449455,0.0151856,608,1079,-28.147,-2.48945
-609,-55,-28.1193,2.71082,0.000524171,0.000342945,-0.00510785,0.00554221,-0.00467509,-0.776529,0.00590604,0.0148325,615,1079,-28.1193,-2.71075
-602,-55,-28.1146,2.91504,0.000451874,-0.000618685,-0.0062385,0.00617802,-0.00634483,-0.742602,0.00723028,0.0133003,622,1079,-28.1146,-2.91507
-595,-55,-28.0472,3.12695,0.000392037,-0.00122884,-0.00698506,0.00661352,-0.00745032,-0.727644,0.00812455,0.0256885,629,1079,-28.0472,-3.12693
-588,-55,-28.0806,3.35168,0,0,0,0,0,0,0,-1,636,1079,-28.0806,-3.35166
-581,-55,-28.8411,0.462524,0,0,0,0,0,0,0,-1,643,1079,-28.8411,-0.462534
-574,-55,-28.8068,0.920166,0.000587582,-0.00178781,-0.00687985,0.0063815,-0.00758173,-0.699924,0.0080716,0.0412686,650,1079,-28.8068,-0.920213
-567,-55,-28.842,1.03247,0.000441918,-0.00167462,-0.00632593,0.00579749,-0.00703019,-0.70252,0.00741746,0.0412187,657,1079,-28.842,-1.03249
-560,-55,-28.8729,0.944702,0.000215583,-0.00134197,-0.00544601,0.00493822,-0.00606461,-0.71438,0.00636357,0.0430418,664,1079,-28.8729,-0.944644
-553,-55,-28.8817,0.912109,-0.000136035,-0.000796723,-0.00425912,0.00380554,-0.00473829,-0.746695,0.00494257,0.042057,671,1079,-28.8817,-0.912106
-546,-55,-28.999,0.877319,-0.000553066,-2.24609e-05,-0.00275322,0.00247821,-0.00305373,-0.83343,0.00319962,0.0388977,678,1079,-28.999,-0.877304
-539,-55,-28.9463,0.682617,-0.00087757,0.000909453,-0.00175939,0.00198921,-0.00195733,-1.02035,0.00227856,0.0401176,685,1079,-28.9463,-0.682645
-532,-55,-28.8917,0.551758,-0.0016702,0.00227282,-0.0037155,0.00450747,-0.00390485,-1.02932,0.00486101,0.0390706,692,1079,-28.8916,-0.551751
-525,-55,0,0,0,0,0,0,0,0,0,-1,699,1079,0,0
-518,-55,0,0,0,0,0,0,0,0,0,-1,706,1079,0,0
-511,-55,0,0,0,0,0,0,0,0,0,-1,713,1079,0,0
-504,-55,0,0,0,0,0,0,0,0,0,-1,720,1079,0,0
-497,-55,0,0,0,0,0,0,0,0,0,-1,727,1079,0,0
-490,-55,0,0,0,0,0,0,0,0,0,-1,734,1079,0,0
-483,-55,0,0,0,0,0,0,0,0,0,-1,741,1079,0,0
-476,-55,0,0,0,0,0,0,0,0,0,-1,748,1079,0,0
-469,-55,0,0,0,0,0,0,0,0,0,-1,755,1079,0,0
-462,-55,0,0,0,0,0,0,0,0,0,-1,762,1079,0,0
-455,-55,0,0,0,0,0,0,0,0,0,-1,769,1079,0,0
-448,-55,0,0,0,0,0,0,0,0,0,-1,776,1079,0,0
-441,-55,0,0,0,0,0,0,0,0,0,-1,783,1079,0,0
-434,-55,0,0,0,0,0,0,0,0,0,-1,790,1079,0,0
-427,-55,0,0,0,0,0,0,0,0,0,-1,797,1079,0,0
-420,-55,0,0,0,0,0,0,0,0,0,-1,804,1079,0,0
-413,-55,0,0,0,0,0,0,0,0,0,-1,811,1079,0,0
-406,-55,0,0,0,0,0,0,0,0,0,-1,818,1079,0,0
-399,-55,0,0,0,0,0,0,0,0,0,-1,825,1079,0,0
-392,-55,0,0,0,0,0,0,0,0,0,-1,832,1079,0,0
-385,-55,0,0,0,0,0,0,0,0,0,-1,839,1079,0,0
-378,-55,0,0,0,0,0,0,0,0,0,-1,846,1079,0,0
-371,-55,0,0,0,0,0,0,0,0,0,-1,853,1079,0,0
-364,-55,0,0,0,0,0,0,0,0,0,-1,860,1079,0,0
-357,-55,0,0,0,0,0,0,0,0,0,-1,867,1079,0,0
-350,-55,0,0,0,0,0,0,0,0,0,-1,874,1079,0,0
-343,-55,0,0,0,0,0,0,0,0,0,-1,881,1079,0,0
-336,-55,0,0,0,0,0,0,0,0,0,-1,888,1079,0,0
-329,-55,0,0,0,0,0,0,0,0,0,-1,895,1079,0,0
-322,-55,0,0,0,0,0,0,0,0,0,-1,902,1079,0,0
-315,-55,0,0,0,0,0,0,0,0,0,-1,909,1079,0,0
-308,-55,0,0,0,0,0,0,0,0,0,-1,916,1079,0,0
-301,-55,0,0,0,0,0,0,0,0,0,-1,923,1079,0,0
-294,-55,0,0,0,0,0,0,0,0,0,-1,930,1079,0,0
-287,-55,0,0,0,0,0,0,0,0,0,-1,937,1079,0,0
-280,-55,0,0,0,0,0,0,0,0,0,-1,944,1079,0,0
-273,-55,0,0,0,0,0,0,0,0,0,-1,951,1079,0,0
-266,-55,0,0,0,0,0,0,0,0,0,-1,958,1079,0,0
-259,-55,0,0,0,0,0,0,0,0,0,-1,965,1079,0,0
-252,-55,0,0,0,0,0,0,0,0,0,-1,972,1079,0,0
-245,-55,0,0,0,0,0,0,0,0,0,-1,979,1079,0,0
-238,-55,0,0,0,0,0,0,0,0,0,-1,986,1079,0,0
-231,-55,0,0,0,0,0,0,0,0,0,-1,993,1079,0,0
-224,-55,0,0,0,0,0,0,0,0,0,-1,1000,1079,0,0
-217,-55,0,0,0,0,0,0,0,0,0,-1,1007,1079,0,0
-210,-55,0,0,0,0,0,0,0,0,0,-1,1014,1079,0,0
-203,-55,0,0,0,0,0,0,0,0,0,-1,1021,1079,0,0
-196,-55,0,0,0,0,0,0,0,0,0,-1,1028,1079,0,0
-189,-55,0,0,0,0,0,0,0,0,0,-1,1035,1079,0,0
-182,-55,0,0,0,0,0,0,0,0,0,-1,1042,1079,0,0
-175,-55,0,0,0,0,0,0,0,0,0,-1,1049,1079,0,0
-168,-55,0,0,0,0,0,0,0,0,0,-1,1056,1079,0,0
-161,-55,0,0,0,0,0,0,0,0,0,-1,1063,1079,0,0
-154,-55,0,0,0,0,0,0,0,0,0,-1,1070,1079,0,0
-147,-55,0,0,0,0,0,0,0,0,0,-1,1077,1079,0,0
-140,-55,0,0,0,0,0,0,0,0,0,-1,1084,1079,0,0
-133,-55,0,0,0,0,0,0,0,0,0,-1,1091,1079,0,0
-126,-55,0,0,0,0,0,0,0,0,0,-1,1098,1079,0,0
-119,-55,0,0,0,0,0,0,0,0,0,-1,1105,1079,0,0
-112,-55,0,0,0,0,0,0,0,0,0,-1,1112,1079,0,0
-105,-55,0,0,0,0,0,0,0,0,0,-1,1119,1079,0,0
-98,-55,0,0,0,0,0,0,0,0,0,-1,1126,1079,0,0
-91,-55,0,0,0,0,0,0,0,0,0,-1,1133,1079,0,0
-84,-55,0,0,0,0,0,0,0,0,0,-1,1140,1079,0,0
-77,-55,0,0,0,0,0,0,0,0,0,-1,1147,1079,0,0
-70,-55,0,0,0,0,0,0,0,0,0,-1,1154,1079,0,0
-63,-55,0,0,0,0,0,0,0,0,0,-1,1161,1079,0,0
-56,-55,0,0,0,0,0,0,0,0,0,-1,1168,1079,0,0
-49,-55,0,0,0,0,0,0,0,0,0,-1,1175,1079,0,0
-42,-55,0,0,0,0,0,0,0,0,0,-1,1182,1079,0,0
-35,-55,0,0,0,0,0,0,0,0,0,-1,1189,1079,0,0
-28,-55,0,0,0,0,0,0,0,0,0,-1,1196,1079,0,0
-21,-55,0,0,0,0,0,0,0,0,0,-1,1203,1079,0,0
-14,-55,0,0,0,0,0,0,0,0,0,-1,1210,1079,0,0
-7,-55,0,0,0,0,0,0,0,0,0,-1,1217,1079,0,0
0,-55,0,0,0,0,0,0,0,0,0,-1,1224,1079,0,0
7,-55,0,0,0,0,0,0,0,0,0,-1,1231,1079,0,0
14,-55,0,0,0,0,0,0,0,0,0,-1,1238,1079,0,0
21,-55,0,0,0,0,0,0,0,0,0,-1,1245,1079,0,0
28,-55,0,0,0,0,0,0,0,0,0,-1,1252,1079,0,0
35,-55,0,0,0,0,0,0,0,0,0,-1,1259,1079,0,0
42,-55,0,0,0,0,0,0,0,0,0,-1,1266,1079,0,0
49,-55,0,0,0,0,0,0,0,0,0,-1,1273,1079,0,0
56,-55,0,0,0,0,0,0,0,0,0,-1,1280,1079,0,0
63,-55,0,0,0,0,0,0,0,0,0,-1,1287,1079,0,0
70,-55,0,0,0,0,0,0,0,0,0,-1,1294,1079,0,0
77,-55,0,0,0,0,0,0,0,0,0,-1,1301,1079,0,0
84,-55,0,0,0,0,0,0,0,0,0,-1,1308,1079,0,0
91,-55,0,0,0,0,0,0,0,0,0,-1,1315,1079,0,0
98,-55,0,0,0,0,0,0,0,0,0,-1,1322,1079,0,0
105,-55,0,0,0,0,0,0,0,0,0,-1,1329,1079,0,0
112,-55,0,0,0,0,0,0,0,0,0,-1,1336,1079,0,0
119,-55,0,0,0,0,0,0,0,0,0,-1,1343,1079,0,0
126,-55,0,0,0,0,0,0,0,0,0,-1,1350,1079,0,0
133,-55,0,0,0,0,0,0,0,0,0,-1,1357,1079,0,0
140,-55,0,0,0,0,0,0,0,0,0,-1,1364,1079,0,0
147,-55,0,0,0,0,0,0,0,0,0,-1,1371,1079,0,0
154,-55,0,0,0,0,0,0,0,0,0,-1,1378,1079,0,0
161,-55,0,0,0,0,0,0,0,0,0,-1,1385,1079,0,0
168,-55,0,0,0,0,0,0,0,0,0,-1,1392,1079,0,0
175,-55,0,0,0,0,0,0,0,0,0,-1,1399,1079,0,0
182,-55,0,0,0,0,0,0,0,0,0,-1,1406,1079,0,0
189,-55,0,0,0,0,0,0,0,0,0,-1,1413,1079,0,0
196,-55,0,0,0,0,0,0,0,0,0,-1,1420,1079,0,0
203,-55,0,0,0,0,0,0,0,0,0,-1,1427,1079,0,0
210,-55,0,0,0,0,0,0,0,0,0,-1,1434,1079,0,0
217,-55,0,0,0,0,0,0,0,0,0,-1,1441,1079,0,0
224,-55,0,0,0,0,0,0,0,0,0,-1,1448,1079,0,0
231,-55,0,0,0,0,0,0,0,0,0,-1,1455,1079,0,0
238,-55,0,0,0,0,0,0,0,0,0,-1,1462,1079,0,0
245,-55,0,0,0,0,0,0,0,0,0,-1,1469,1079,0,0
252,-55,0,0,0,0,0,0,0,0,0,-1,1476,1079,0,0
259,-55,0,0,0,0,0,0,0,0,0,-1,1483,1079,0,0
266,-55,0,0,0,0,0,0,0,0,0,-1,1490,1079,0,0
273,-55,0,0,0,0,0,0,0,0,0,-1,1497,1079,0,0
280,-55,0,0,0,0,0,0,0,0,0,-1,1504,1079,0,0
287,-55,0,0,0,0,0,0,0,0,0,-1,1511,1079,0,0
294,-55,0,0,0,0,0,0,0,0,0,-1,1518,1079,0,0
301,-55,0,0,0,0,0,0,0,0,0,-1,1525,1079,0,0
308,-55,0,0,0,0,0,0,0,0,0,-1,1532,1079,0,0
315,-55,0,0,0,0,0,0,0,0,0,-1,1539,1079,0,0
322,-55,0,0,0,0,0,0,0,0,0,-1,1546,1079,0,0
329,-55,0,0,0,0,0,0,0,0,0,-1,1553,1079,0,0
336,-55,0,0,0,0,0,0,0,0,0,-1,1560,1079,0,0
343,-55,0,0,0,0,0,0,0,0,0,-1,1567,1079,0,0
350,-55,0,0,0,0,0,0,0,0,0,-1,1574,1079,0,0
357,-55,0,0,0,0,0,0,0,0,0,-1,1581,1079,0,0
364,-55,0,0,0,0,0,0,0,0,0,-1,1588,1079,0,0
371,-55,0,0,0,0,0,0,0,0,0,-1,1595,1079,0,0
378,-55,0,0,0,0,0,0,0,0,0,-1,1602,1079,0,0
385,-55,0,0,0,0,0,0,0,0,0,-1,1609,1079,0,0
392,-55,0,0,0,0,0,0,0,0,0,-1,1616,1079,0,0
399,-55,0,0,0,0,0,0,0,0,0,-1,1623,1079,0,0
406,-55,0,0,0,0,0,0,0,0,0,-1,1630,1079,0,0
413,-55,0,0,0,0,0,0,0,0,0,-1,1637,1079,0,0
420,-55,0,0,0,0,0,0,0,0,0,-1,1644,1079,0,0
427,-55,0,0,0,0,0,0,0,0,0,-1,1651,1079,0,0
434,-55,0,0,0,0,0,0,0,0,0,-1,1658,1079,0,0
441,-55,0,0,0,0,0,0,0,0,0,-1,1665,1079,0,0
448,-55,0,0,0,0,0,0,0,0,0,-1,1672,1079,0,0
455,-55,0,0,0,0,0,0,0,0,0,-1,1679,1079,0,0
462,-55,0,0,0,0,0,0,0,0,0,-1,1686,1079,0,0
469,-55,0,0,0,0,0,0,0,0,0,-1,1693,1079,0,0
476,-55,0,0,0,0,0,0,0,0,0,-1,1700,1079,0,0
483,-55,0,0,0,0,0,0,0,0,0,-1,1707,1079,0,0
490,-55,0,0,0,0,0,0,0,0,0,-1,1714,1079,0,0
497,-55,0,0,0,0,0,0,0,0,0,-1,1721,1079,0,0
504,-55,0,0,0,0,0,0,0,0,0,-1,1728,1079,0,0
511,-55,0,0,0,0,0,0,0,0,0,-1,1735,1079,0,0
518,-55,0,0,0,0,0,0,0,0,0,-1,1742,1079,0,0
525,-55,0,0,0,0,0,0,0,0,0,-1,1749,1079,0,0
532,-55,0,0,0,0,0,0,0,0,0,-1,1756,1079,0,0
539,-55,0,0,0,0,0,0,0,0,0,-1,1763,1079,0,0
546,-55,0,0,0,0,0,0,0,0,0,-1,1770,1079,0,0
553,-55,0,0,0,0,0,0,0,0,0,-1,1777,1079,0,0
560,-55,0,0,0,0,0,0,0,0,0,-1,1784,1079,0,0
567,-55,0,0,0,0,0,0,0,0,0,-1,1791,1079,0,0
574,-55,0,0,0,0,0,0,0,0,0,-1,1798,1079,0,0
581,-55,0,0,0,0,0,0,0,0,0,-1,1805,1079,0,0
588,-55,0,0,0,0,0,0,0,0,0,-1,1812,1079,0,0
595,-55,0,0,0,0,0,0,0,0,0,-1,1819,1079,0,0
602,-55,0,0,0,0,0,0,0,0,0,-1,1826,1079,0,0
609,-55,0,0,0,0,0,0,0,0,0,-1,1833,1079,0,0
616,-55,0,0,0,0,0,0,0,0,0,-1,1840,1079,0,0
623,-55,0,0,0,0,0,0,0,0,0,-1,1847,1079,0,0
630,-55,0,0,0,0,0,0,0,0,0,-1,1854,1079,0,0
637,-55,0,0,0,0,0,0,0,0,0,-1,1861,1079,0,0
644,-55,0,0,0,0,0,0,0,0,0,-1,1868,1079,0,0
651,-55,39.5992,2.5719,0.00380234,-0.00160409,0.00450513,0.00635304,-0.00415479,0.515177,0.00611079,0.0340286,1875,1079,39.5993,-2.57192
658,-55,39.6775,2.59399,0.0029342,-0.00147212,0.0025701,0.0041162,-0.00265413,0.431061,0.00393912,0.0316893,1882,1079,39.6775,-2.59401
665,-55,39.5253,2.65186,0.00215867,-0.00125938,0.00139993,0.00265884,-0.00175955,0.343151,0.00256851,0.036937,1889,1079,39.5253,-2.65183
672,-55,39.3516,2.68689,0.00160245,-0.00114413,0.000840553,0.00183927,-0.00138095,0.274625,0.00186546,0.0378835,1896,1079,39.3515,-2.68693
679,-55,39.3063,2.56812,0.000922822,-0.00107976,0.000701783,0.00114427,-0.0013012,0.305658,0.00141286,0.0357463,1903,1079,39.3062,-2.56807
686,-55,39.4343,2.45654,0.000132092,-0.00120156,0.000912004,0.000595049,-0.00166451,0.46973,0.00135239,0.0375507,1910,1079,39.4343,-2.45657
693,-55,39.5079,2.4939,-0.000455175,-0.00136437,0.00126625,0.000435611,-0.00225516,0.613059,0.00166771,0.0387255,1917,1079,39.508,-2.49395
700,-55,39.5398,2.53101,-0.00092758,-0.0014367,0.00164004,0.000477538,-0.00284182,0.708405,0.00207215,0.0343993,1924,1079,39.5397,-2.53105
707,-55,39.5435,2.54529,-0.00145406,-0.00139796,0.00187345,0.000447646,-0.00329966,0.792885,0.00236317,0.0297256,1931,1079,39.5434,-2.54526
714,-55,39.5302,2.65369,-0.00201045,-0.00119672,0.00212743,0.000562405,-0.00376958,0.879881,0.00271997,0.0451101,1938,1079,39.5301,-2.65373
721,-55,39.578,2.8385,0,0,0,0,0,0,0,-1,1945,1079,39.578,-2.83855
728,-55,38.6138,5.61926,0,0,0,0,0,0,0,-1,1952,1079,38.6138,-5.61921
735,-55,38.521,5.45752,-0.0032369,0.000112666,0.00253634,0.00147728,-0.00460151,1.07719,0.00366084,0.0174901,1959,1079,38.5209,-5.45758
742,-55,38.5039,5.30518,-0.00334321,0.000828038,0.00218777,0.00176502,-0.0042802,1.16615,0.00358949,0.0178736,1966,1079,38.5039,-5.30519
749,-55,38.5289,5.13855,-0.00340203,0.00172039,0.00186785,0.00232914,-0.00401078,1.25574,0.00370302,0.0133983,1973,1079,38.5289,-5.13854
756,-55,38.4716,4.99536,-0.00328651,0.00274664,0.00113603,0.00295346,-0.00349333,1.39071,0.0037264,0.0111208,1980,1079,38.4716,-4.99539
763,-55,38.4232,4.86804,-0.00285961,0.00383986,6.51569e-05,0.00384049,-0.00286025,1.56107,0.00388245,0.013472,1987,1079,38.4232,-4.86802
770,-55,38.4153,4.70581,-0.00210918,0.00517216,-0.00123575,0.00537617,-0.00231319,-1.40718,0.00455535,0.0147134,1994,1079,38.4153,-4.70581
777,-55,38.3694,4.54346,-0.000924142,0.00619108,-0.00253409,0.00700133,-0.00173439,-1.26133,0.0053404,0.0124915,2001,1079,38.3694,-4.54348
784,-55,38.3098,4.36255,0.000355069,0.00674268,-0.00382703,0.0085335,-0.00143576,-1.13312,0.00622304,0.0276967,2008,1079,38.3098,-4.36255
791,-55,38.4871,3.9458,0.0017932,0.00648247,-0.0051352,0.00978297,-0.0015073,-0.999555,0.00707812,0.0421967,2015,1079,38.4871,-3.94586
798,-55,38.697,3.55762,0.00382446,0.00508034,-0.00643143,0.0109144,-0.00200961,-0.834062,0.0080304,0.0466923,2022,1079,38.6969,-3.55757
805,-55,38.8577,3.23682,0,0,0,0,0,0,0,-1,2029,1079,38.8576,-3.23684
812,-55,38.4915,3.44934,0,0,0,0,0,0,0,-1,2036,1079,38.4915,-3.44934
-700,-62,-28.5875,-2.8811,0,0,0,0,0,0,0,-1,524,1086,-28.5875,2.88112
-693,-62,-27.8181,-2.33655,0,0,0,0,0,0,0,-1,531,1086,-27.818,2.3366
-686,-62,-27.6667,-1.96582,0,0,0,0,0,0,0,-1,538,1086,-27.6667,1.96587
-679,-62,-27.584,-1.50427,0,0,0,0,0,0,0,-1,545,1086,-27.584,1.50424
-672,-62,-27.5859,-1.18433,0.00763057,0.0576487,0.00731471,0.0586965,0.00658281,1.42852,0.0371317,0.0469303,552,1086,-27.5859,1.18438
-665,-62,-27.7599,-0.450562,0.00691187,0.0454584,0.0079356,0.0470282,0.00534209,1.3755,0.0297318,0.0469135,559,1086,-27.76,0.450583
-658,-62,-27.9323,0.324829,0.00580418,0.0349609,0.00770202,0.0368704,0.00389468,1.32777,0.0233904,0.0438133,566,1086,-27.9323,-0.324785
-651,-62,-27.9042,1.1543,0.00462219,0.0261577,0.00687366,0.0281646,0.00261529,1.28672,0.0179682,0.0357302,573,1086,-27.9043,-1.15425
-644,-62,-27.8459,1.60364,0.00356938,0.0182418,0.00551342,0.0200826,0.00172856,1.24855,0.012851,0.0135555,580,1086,-27.8459,-1.60362
-637,-62,-27.8674,1.83484,0.00265609,0.0117625,0.00355321,0.0129849,0.00143375,1.23947,0.00822044,0.0122661,587,1086,-27.8673,-1.83479
-630,-62,-27.8951,2.06897,0.0018063,0.00734843,0.0012257,0.0076074,0.00154733,1.36257,0.00464259,0.014735,594,1086,-27.8952,-2.06897
-623,-62,-27.9206,2.3219,0.00109651,0.00369735,-0.000933434,0.00399768,0.000796186,-1.25951,0.00244335,0.0167971,601,1086,-27.9206,-2.32185
-616,-62,-27.9223,2.55005,0.000963073,0.00163101,-0.00273507,0.00405243,-0.00145834,-0.846151,0.00329705,0.0157428,608,1086,-27.9223,-2.55004
-609,-62,-27.9073,2.75378,0.000940315,0.000151751,-0.00386693,0.00443301,-0.00334094,-0.734592,0.00450303,0.0143897,615,1086,-27.9073,-2.75382
-602,-62,-27.8571,2.95837,0.000846025,-0.000815075,-0.00489584,0.00498127,-0.00495032,-0.701376,0.00573401,0.0146169,622,1086,-27.857,-2.95841
-595,-62,-27.7541,3.19019,0.000752539,-0.00142713,-0.00564168,0.00540869,-0.00608328,-0.689986,0.0066387,0.0270798,629,1086,-27.7541,-3.19014
-588,-62,-27.7175,3.41174,0,0,0,0,0,0,0,-1,636,1086,-27.7175,-3.41177
-581,-62,-28.9007,0.85083,0,0,0,0,0,0,0,-1,643,1086,-28.9007,-0.850861
-574,-62,-28.9132,0.924316,0.00087625,-0.00215944,-0.00584351,0.00539583,-0.00667902,-0.658332,0.00698453,0.0388541,650,1086,-28.9132,-0.924345
-567,-62,-28.8146,0.906982,0.000690743,-0.00214923,-0.00555615,0.00500549,-0.00646398,-0.660291,0.00663972,0.0394936,657,1086,-28.8146,-0.906978
-560,-62,-28.7797,0.89917,0.000391195,-0.00192617,-0.00505221,0.00441589,-0.00595087,-0.672677,0.00600708,0.0396925,664,1086,-28.7797,-0.899189
-553,-62,-28.6454,0.8927,-0.000106541,-0.00146854,-0.0043584,0.00362374,-0.00519882,-0.7079,0.00512069,0.0359404,671,1086,-28.6455,-0.89266
-546,-62,-28.7893,0.793457,-0.000735391,-0.000724062,-0.00344463,0.00271491,-0.00417436,-0.78622,0.00400716,0.0319709,678,1086,-28.7893,-0.79341
-539,-62,-28.8891,0.635742,-0.0012495,0.000292401,-0.00291735,0.00253895,-0.00349605,-0.914577,0.00349888,0.0390981,685,1086,-28.8891,-0.635779
-532,-62,-28.9025,0.546387,-0.00230013,0.00170776,-0.00472815,0.00483911,-0.00543148,-0.985839,0.00593301,0.0413907,692,1086,-28.9025,-0.546388
-525,-62,0,0,0,0,0,0,0,0,0,-1,699,1086,0,0
-518,-62,0,0,0,0,0,0,0,0,0,-1,706,1086,0,0
-511,-62,0,0,0,0,0,0,0,0,0,-1,713,1086,0,0
-504,-62,0,0,0,0,0,0,0,0,0,-1,720,1086,0,0
-497,-62,0,0,0,0,0,0,0,0,0,-1,727,1086,0,0
-490,-62,0,0,0,0,0,0,0,0,0,-1,734,1086,0,0
-483,-62,0,0,0,0,0,0,0,0,0,-1,741,1086,0,0
-476,-62,0,0,0,0,0,0,0,0,0,-1,748,1086,0,0
-469,-62,0,0,0,0,0,0,0,0,0,-1,755,1086,0,0
-462,-62,0,0,0,0,0,0,0,0,0,-1,762,1086,0,0
-455,-62,0,0,0,0,0,0,0,0,0,-1,769,1086,0,0
-448,-62,0,0,0,0,0,0,0,0,0,-1,776,1086,0,0
-441,-62,0,0,0,0,0,0,0,0,0,-1,783,1086,0,0
-434,-62,0,0,0,0,0,0,0,0,0,-1,790,1086,0,0
-427,-62,0,0,0,0,0,0,0,0,0,-1,797,1086,0,0
-420,-62,0,0,0,0,0,0,0,0,0,-1,804,1086,0,0
-413,-62,0,0,0,0,0,0,0,0,0,-1,811,1086,0,0
-406,-62,0,0,0,0,0,0,0,0,0,-1,818,1086,0,0
-399,-62,0,0,0,0,0,0,0,0,0,-1,825,1086,0,0
-392,-62,0,0,0,0,0,0,0,0,0,-1,832,1086,0,0
-385,-62,0,0,0,0,0,0,0,0,0,-1,839,1086,0,0
-378,-62,0,0,0,0,0,0,0,0,0,-1,846,1086,0,0
-371,-62,0,0,0,0,0,0,0,0,0,-1,853,1086,0,0
-364,-62,0,0,0,0,0,0,0,0,0,-1,860,1086,0,0
-357,-62,0,0,0,0,0,0,0,0,0,-1,867,1086,0,0
-350,-62,0,0,0,0,0,0,0,0,0,-1,874,1086,0,0
-343,-62,0,0,0,0,0,0,0,0,0,-1,881,1086,0,0
-336,-62,0,0,0,0,0,0,0,0,0,-1,888,1086,0,0
-329,-62,0,0,0,0,0,0,0,0,0,-1,895,1086,0,0
-322,-62,0,0,0,0,0,0,0,0,0,-1,902,1086,0,0
-315,-62,0,0,0,0,0,0,0,0,0,-1,909,1086,0,0
-308,-62,0,0,0,0,0,0,0,0,0,-1,916,1086,0,0
-301,-62,0,0,0,0,0,0,0,0,0,-1,923,1086,0,0
-294,-62,0,0,0,0,0,0,0,0,0,-1,930,1086,0,0
-287,-62,0,0,0,0,0,0,0,0,0,-1,937,1086,0,0
-280,-62,0,0,0,0,0,0,0,0,0,-1,944,1086,0,0
-273,-62,0,0,0,0,0,0,0,0,0,-1,951,1086,0,0
-266,-62,0,0,0,0,0,0,0,0,0,-1,958,1086,0,0
-259,-62,0,0,0,0,0,0,0,0,0,-1,965,1086,0,0
-252,-62,0,0,0,0,0,0,0,0,0,-1,972,1086,0,0
-245,-62,0,0,0,0,0,0,0,0,0,-1,979,1086,0,0
-238,-62,0,0,0,0,0,0,0,0,0,-1,986,1086,0,0
-231,-62,0,0,0,0,0,0,0,0,0,-1,993,1086,0,0
-224,-62,0,0,0,0,0,0,0,0,0,-1,1000,1086,0,0
-217,-62,0,0,0,0,0,0,0,0,0,-1,1007,1086,0,0
-210,-62,0,0,0,0,0,0,0,0,0,-1,1014,1086,0,0
-203,-62,0,0,0,0,0,0,0,0,0,-1,1021,1086,0,0
-196,-62,0,0,0,0,0,0,0,0,0,-1,1028,1086,0,0
-189,-62,0,0,0,0,0,0,0,0,0,-1,1035,1086,0,0
-182,-62,0,0,0,0,0,0,0,0,0,-1,1042,1086,0,0
-175,-62,0,0,0,0,0,0,0,0,0,-1,1049,1086,0,0
-168,-62,0,0,0,0,0,0,0,0,0,-1,1056,1086,0,0
-161,-62,0,0,0,0,0,0,0,0,0,-1,1063,1086,0,0
-154,-62,0,0,0,0,0,0,0,0,0,-1,1070,1086,0,0
-147,-62,0,0,0,0,0,0,0,0,0,-1,1077,1086,0,0
-140,-62,0,0,0,0,0,0,0,0,0,-1,1084,1086,0,0
-133,-62,0,0,0,0,0,0,0,0,0,-1,1091,1086,0,0
-126,-62,0,0,0,0,0,0,0,0,0,-1,1098,1086,0,0
-119,-62,0,0,0,0,0,0,0,0,0,-1,1105,1086,0,0
-112,-62,0,0,0,0,0,0,0,0,0,-1,1112,1086,0,0
-105,-62,0,0,0,0,0,0,0,0,0,-1,1119,1086,0,0
-98,-62,0,0,0,0,0,0,0,0,0,-1,1126,1086,0,0
-91,-62,0,0,0,0,0,0,0,0,0,-1,1133,1086,0,0
-84,-62,0,0,0,0,0,0,0,0,0,-1,1140,1086,0,0
-77,-62,0,0,0,0,0,0,0,0,0,-1,1147,1086,0,0
-70,-62,0,0,0,0,0,0,0,0,0,-1,1154,1086,0,0
-63,-62,0,0,0,0,0,0,0,0,0,-1,1161,1086,0,0
-56,-62,0,0,0,0,0,0,0,0,0,-1,1168,1086,0,0
-49,-62,0,0,0,0,0,0,0,0,0,-1,1175,1086,0,0
-42,-62,0,0,0,0,0,0,0,0,0,-1,1182,1086,0,0
-35,-62,0,0,0,0,0,0,0,0,0,-1,1189,1086,0,0
-28,-62,0,0,0,0,0,0,0,0,0,-1,1196,1086,0,0
-21,-62,0,0,0,0,0,0,0,0,0,-1,1203,1086,0,0
-14,-62,0,0,0,0,0,0,0,0,0,-1,1210,1086,0,0
-7,-62,0,0,0,0,0,0,0,0,0,-1,1217,1086,0,0
0,-62,0,0,0,0,0,0,0,0,0,-1,1224,1086,0,0
7,-62,0,0,0,0,0,0,0,0,0,-1,1231,1086,0,0
14,-62,0,0,0,0,0,0,0,0,0,-1,1238,1086,0,0
21,-62,0,0,0,0,0,0,0,0,0,-1,1245,1086,0,0
28,-62,0,0,0,0,0,0,0,0,0,-1,1252,1086,0,0
35,-62,0,0,0,0,0,0,0,0,0,-1,1259,1086,0,0
42,-62,0,0,0,0,0,0,0,0,0,-1,1266,1086,0,0
49,-62,0,0,0,0,0,0,0,0,0,-1,1273,1086,0,0
56,-62,0,0,0,0,0,0,0,0,0,-1,1280,1086,0,0
63,-62,0,0,0,0,0,0,0,0,0,-1,1287,1086,0,0
70,-62,0,0,0,0,0,0,0,0,0,-1,1294,1086,0,0
77,-62,0,0,0,0,0,0,0,0,0,-1,1301,1086,0,0
84,-62,0,0,0,0,0,0,0,0,0,-1,1308,1086,0,0
91,-62,0,0,0,0,0,0,0,0,0,-1,1315,1086,0,0
98,-62,0,0,0,0,0,0,0,0,0,-1,1322,1086,0,0
105,-62,0,0,0,0,0,0,0,0,0,-1,1329,1086,0,0
112,-62,0,0,0,0,0,0,0,0,0,-1,1336,1086,0,0
119,-62,0,0,0,0,0,0,0,0,0,-1,1343,1086,0,0
126,-62,0,0,0,0,0,0,0,0,0,-1,1350,1086,0,0
133,-62,0,0,0,0,0,0,0,0,0,-1,1357,1086,0,0
140,-62,0,0,0,0,0,0,0,0,0,-1,1364,1086,0,0
147,-62,0,0,0,0,0,0,0,0,0,-1,1371,1086,0,0
154,-62,0,0,0,0,0,0,0,0,0,-1,1378,1086,0,0
161,-62,0,0,0,0,0,0,0,0,0,-1,1385,1086,0,0
168,-62,0,0,0,0,0,0,0,0,0,-1,1392,1086,0,0
175,-62,0,0,0,0,0,0,0,0,0,-1,1399,1086,0,0
182,-62,0,0,0,0,0,0,0,0,0,-1,1406,1086,0,0
189,-62,0,0,0,0,0,0,0,0,0,-1,1413,1086,0,0
196,-62,0,0,0,0,0,0,0,0,0,-1,1420,1086,0,0
203,-62,0,0,0,0,0,0,0,0,0,-1,1427,1086,0,0
210,-62,0,0,0,0,0,0,0,0,0,-1,1434,1086,0,0
217,-62,0,0,0,0,0,0,0,0,0,-1,1441,1086,0,0
224,-62,0,0,0,0,0,0,0,0,0,-1,1448,1086,0,0
231,-62,0,0,0,0,0,0,0,0,0,-1,1455,1086,0,0
238,-62,0,0,0,0,0,0,0,0,0,-1,1462,1086,0,0
245,-62,0,0,0,0,0,0,0,0,0,-1,1469,1086,0,0
252,-62,0,0,0,0,0,0,0,0,0,-1,1476,1086,0,0
259,-62,0,0,0,0,0,0,0,0,0,-1,1483,1086,0,0
266,-62,0,0,0,0,0,0,0,0,0,-1,1490,1086,0,0
273,-62,0,0,0,0,0,0,0,0,0,-1,1497,1086,0,0
280,-62,0,0,0,0,0,0,0,0,0,-1,1504,1086,0,0
287,-62,0,0,0,0,0,0,0,0,0,-1,1511,1086,0,0
294,-62,0,0,0,0,0,0,0,0,0,-1,1518,1086,0,0
301,-62,0,0,0,0,0,0,0,0,0,-1,1525,1086,0,0
308,-62,0,0,0,0,0,0,0,0,0,-1,1532,1086,0,0
315,-62,0,0,0,0,0,0,0,0,0,-1,1539,1086,0,0
322,-62,0,0,0,0,0,0,0,0,0,-1,1546,1086,0,0
329,-62,0,0,0,0,0,0,0,0,0,-1,1553,1086,0,0
336,-62,0,0,0,0,0,0,0,0,0,-1,1560,1086,0,0
343,-62,0,0,0,0,0,0,0,0,0,-1,1567,1086,0,0
350,-62,0,0,0,0,0,0,0,0,0,-1,1574,1086,0,0
357,-62,0,0,0,0,0,0,0,0,0,-1,1581,1086,0,0
364,-62,0,0,0,0,0,0,0,0,0,-1,1588,1086,0,0
371,-62,0,0,0,0,0,0,0,0,0,-1,1595,1086,0,0
378,-62,0,0,0,0,0,0,0,0,0,-1,1602,1086,0,0
385,-62,0,0,0,0,0,0,0,0,0,-1,1609,1086,0,0
392,-62,0,0,0,0,0,0,0,0,0,-1,1616,1086,0,0
399,-62,0,0,0,0,0,0,0,0,0,-1,1623,1086,0,0
406,-62,0,0,0,0,0,0,0,0,0,-1,1630,1086,0,0
413,-62,0,0,0,0,0,0,0,0,0,-1,1637,1086,0,0
420,-62,0,0,0,0,0,0,0,0,0,-1,1644,1086,0,0
427,-62,0,0,0,0,0,0,0,0,0,-1,1651,1086,0,0
434,-62,0,0,0,0,0,0,0,0,0,-1,1658,1086,0,0
441,-62,0,0,0,0,0,0,0,0,0,-1,1665,1086,0,0
448,-62,0,0,0,0,0,0,0,0,0,-1,1672,1086,0,0
455,-62,0,0,0,0,0,0,0,0,0,-1,1679,1086,0,0
462,-62,0,0,0,0,0,0,0,0,0,-1,1686,1086,0,0
469,-62,0,0,0,0,0,0,0,0,0,-1,1693,1086,0,0
476,-62,0,0,0,0,0,0,0,0,0,-1,1700,1086,0,0
483,-62,0,0,0,0,0,0,0,0,0,-1,1707,1086,0,0
490,-62,0,0,0,0,0,0,0,0,0,-1,1714,1086,0,0
497,-62,0,0,0,0,0,0,0,0,0,-1,1721,1086,0,0
504,-62,0,0,0,0,0,0,0,0,0,-1,1728,1086,0,0
511,-62,0,0,0,0,0,0,0,0,0,-1,1735,1086,0,0
518,-62,0,0,0,0,0,0,0,0,0,-1,1742,1086,0,0
525,-62,0,0,0,0,0,0,0,0,0,-1,1749,1086,0,0
532,-62,0,0,0,0,0,0,0,0,0,-1,1756,1086,0,0
539,-62,0,0,0,0,0,0,0,0,0,-1,1763,1086,0,0
546,-62,0,0,0,0,0,0,0,0,0,-1,1770,1086,0,0
553,-62,0,0,0,0,0,0,0,0,0,-1,1777,1086,0,0
560,-62,0,0,0,0,0,0,0,0,0,-1,1784,1086,0,0
567,-62,0,0,0,0,0,0,0,0,0,-1,1791,1086,0,0
574,-62,0,0,0,0,0,0,0,0,0,-1,1798,1086,0,0
581,-62,0,0,0,0,0,0,0,0,0,-1,1805,1086,0,0
588,-62,0,0,0,0,0,0,0,0,0,-1,1812,1086,0,0
595,-62,0,0,0,0,0,0,0,0,0,-1,1819,1086,0,0
602,-62,0,0,0,0,0,0,0,0,0,-1,1826,1086,0,0
609,-62,0,0,0,0,0,0,0,0,0,-1,1833,1086,0,0
616,-62,0,0,0,0,0,0,0,0,0,-1,1840,1086,0,0
623,-62,0,0,0,0,0,0,0,0,0,-1,1847,1086,0,0
630,-62,0,0,0,0,0,0,0,0,0,-1,1854,1086,0,0
637,-62,0,0,0,0,0,0,0,0,0,-1,1861,1086,0,0
644,-62,0,0,0,0,0,0,0,0,0,-1,1868,1086,0,0
651,-62,39.4554,2.56921,0.00571229,-0.000833386,0.00515342,0.0085443,-0.0036654,0.502491,0.00723444,0.0392855,1875,1086,39.4555,-2.56919
658,-62,39.5964,2.62024,0.00440749,-0.000898891,0.00299079,0.00575232,-0.00224373,0.422571,0.00476236,0.0369914,1882,1086,39.5965,-2.62027
665,-62,39.5669,2.73828,0.00326019,-0.000858362,0.00163928,0.003833,-0.00143117,0.336163,0.00314295,0.0373448,1889,1086,39.5669,-2.73825
672,-62,39.37,2.61975,0.00237884,-0.000889177,0.000903244,0.00261187,-0.00112221,0.252487,0.00221232,0.0378461,1896,1086,39.37,-2.6197
679,-62,39.5037,2.59009,0.00137711,-0.000967929,0.000645086,0.00154285,-0.00113367,0.251487,0.0015513,0.0367974,1903,1086,39.5036,-2.59004
686,-62,39.6306,2.48401,0.000358591,-0.00118125,0.000783237,0.000686959,-0.00150962,0.396986,0.0012975,0.0388461,1910,1086,39.6306,-2.48403
693,-62,39.5626,2.43689,-0.000371128,-0.00139768,0.00109162,0.000321865,-0.00209068,0.565637,0.00151253,0.0388755,1917,1086,39.5626,-2.43691
700,-62,39.5862,2.46558,-0.000947586,-0.00152136,0.00143122,0.000225214,-0.00269416,0.686484,0.00187569,0.0329259,1924,1086,39.5862,-2.46563
707,-62,39.5143,2.53247,-0.0015638,-0.00150663,0.00166024,0.00012527,-0.00319571,0.794006,0.00217343,0.0265619,1931,1086,39.5143,-2.53251
714,-62,39.5436,2.58984,-0.00217225,-0.00133552,0.00193786,0.000228622,-0.00373638,0.891712,0.00257052,0.0390143,1938,1086,39.5435,-2.58984
721,-62,39.6732,2.83838,0,0,0,0,0,0,0,-1,1945,1086,39.6732,-2.83835
728,-62,38.3926,5.72278,0,0,0,0,0,0,0,-1,1952,1086,38.3925,-5.7228
735,-62,38.3722,5.4873,-0.00338448,-0.000121371,0.00251333,0.00124354,-0.00474938,1.07329,0.00365204,0.021647,1959,1086,38.3722,-5.48727
742,-62,38.3423,5.34888,-0.00347769,0.000532483,0.00224017,0.00153385,-0.00447905,1.15044,0.0036077,0.021427,1966,1086,38.3423,-5.34885
749,-62,38.3073,5.12891,-0.00348776,0.00134518,0.00198882,0.00205836,-0.00420094,1.22648,0.00368371,0.016894,1973,1086,38.3072,-5.12889
756,-62,38.2375,5.0033,-0.00335673,0.00228048,0.00135752,0.00259036,-0.00366661,1.34637,0.00363023,0.0133978,1980,1086,38.2376,-5.00325
763,-62,38.2383,4.83447,-0.00293469,0.00325426,0.000466251,0.00328919,-0.00296962,1.49602,0.00361509,0.0145489,1987,1086,38.2383,-4.83445
770,-62,38.2368,4.64563,-0.00222014,0.00437654,-0.000601856,0.004431,-0.0022746,-1.48055,0.00393765,0.0123897,1994,1086,38.2368,-4.64564
777,-62,38.1635,4.44543,-0.0011764,0.00512218,-0.00158923,0.00550045,-0.00155468,-1.33712,0.00428036,0.0134711,2001,1086,38.1634,-4.44547
784,-62,38.0908,4.20825,-9.67534e-05,0.00536038,-0.00248641,0.00632333,-0.00105971,-1.2013,0.00460958,0.0258535,2008,1086,38.0908,-4.20825
791,-62,38.3188,3.8208,0.00107553,0.00472224,-0.0032657,0.00663913,-0.00084136,-1.04001,0.00473154,0.0421556,2015,1086,38.3189,-3.82078
798,-62,38.533,3.43677,0.00280278,0.00290011,-0.00385726,0.00670901,-0.00100612,-0.791707,0.00484301,0.045981,2022,1086,38.5329,-3.43671
805,-62,38.7598,3.06653,0,0,0,0,0,0,0,-1,2029,1086,38.7599,-3.06655
812,-62,37.6018,2.43152,0,0,0,0,0,0,0,-1,2036,1086,37.6018,-2.43149
-700,-69,-29.1147,-3.30273,0,0,0,0,0,0,0,-1,524,1093,-29.1147,3.30269
-693,-69,-27.6663,-4.84875,0,0,0,0,0,0,0,-1,531,1093,-27.6663,4.84873
-686,-69,-26.7106,-2.0321,0,0,0,0,0,0,0,-1,538,1093,-26.7106,2.03215
-679,-69,-27.321,-1.37842,0,0,0,0,0,0,0,-1,545,1093,-27.321,1.37837
-672,-69,-27.0958,-0.874268,0,0,0,0,0,0,0,-1,552,1093,-27.0958,0.874214
-665,-69,-27.4079,-0.494263,0,0,0,0,0,0,0,-1,559,1093,-27.4079,0.494219
-658,-69,-27.5618,0.407593,0.00572169,0.0277158,0.00765561,0.0301181,0.00331936,1.26673,0.0190689,0.0452248,566,1093,-27.5617,-0.407548
-651,-69,-27.6221,1.36975,0.00460155,0.0211064,0.00683393,0.0235687,0.00213926,1.22497,0.0150502,0.0327114,573,1093,-27.6221,-1.3698
-644,-69,-27.5947,1.58264,0.00361249,0.0148655,0.00555281,0.0171442,0.00133386,1.18139,0.0110118,0.01014,580,1093,-27.5947,-1.5827
-637,-69,-27.6136,1.82922,0.00273653,0.00990943,0.0037227,0.0114922,0.00115373,1.16878,0.00730733,0.0120718,587,1093,-27.6136,-1.82926
-630,-69,-27.6323,2.05176,0.0019262,0.00633321,0.00155161,0.00682469,0.00143472,1.26404,0.00415496,0.0160851,594,1093,-27.6323,-2.05171
-623,-69,-27.6093,2.3136,0.00132196,0.00312286,-0.000420658,0.00321628,0.00122854,-1.35228,0.00187408,0.0163705,601,1093,-27.6093,-2.31358
-616,-69,-27.61,2.52307,0.00130538,0.00135084,-0.00199778,0.00332602,-0.000669803,-0.791087,0.00247106,0.0168314,608,1093,-27.61,-2.52306
-609,-69,-27.6367,2.71802,0.00136824,-3.06328e-07,-0.00291806,0.00368119,-0.00231325,-0.670231,0.0034908,0.0142887,615,1093,-27.6367,-2.71798
-602,-69,-27.6124,2.98535,0.00129391,-0.000951242,-0.00383111,0.00416352,-0.00382086,-0.64288,0.0046112,0.0175033,622,1093,-27.6124,-2.98534
-595,-69,-27.5255,3.19397,0.00116514,-0.0015592,-0.00454073,0.00454362,-0.00493768,-0.639675,0.0054756,0.0268888,629,1093,-27.5255,-3.19402
-588,-69,-27.4814,3.39197,0,0,0,0,0,0,0,-1,636,1093,-27.4814,-3.39199
-581,-69,-28.8964,0.787476,0,0,0,0,0,0,0,-1,643,1093,-28.8964,-0.787521
-574,-69,-28.8677,0.816528,0.0012254,-0.00243492,-0.00497047,0.00469194,-0.00590146,-0.608997,0.00612938,0.0312089,650,1093,-28.8677,-0.816539
-567,-69,-28.8206,0.999512,0.00100208,-0.00252118,-0.00489859,0.00444617,-0.00596527,-0.612789,0.00603234,0.0354661,657,1093,-28.8206,-0.999556
-560,-69,-28.7961,1.10742,0.000634699,-0.00241544,-0.00471144,0.00406175,-0.00584249,-0.628873,0.00574894,0.0385466,664,1093,-28.7961,-1.10736
-553,-69,-28.7448,0.895874,-1.29497e-05,-0.00208544,-0.00446015,0.00352975,-0.00562813,-0.671256,0.00533337,0.0385444,671,1093,-28.7448,-0.895863
-546,-69,-28.8079,0.668091,-0.000865732,-0.00145242,-0.00411909,0.00297044,-0.0052886,-0.74985,0.00483056,0.0376936,678,1093,-28.8079,-0.66809
-539,-69,-28.877,0.608032,-0.00159649,-0.000508284,-0.00413816,0.00312139,-0.00522616,-0.850765,0.00487026,0.0414229,685,1093,-28.877,-0.607993
-532,-69,-28.7926,0.592285,-0.0028291,0.00083232,-0.00599374,0.0052687,-0.00726547,-0.933617,0.00726715,0.0421193,692,1093,-28.7926,-0.592259
-525,-69,0,0,0,0,0,0,0,0,0,-1,699,1093,0,0
-518,-69,0,0,0,0,0,0,0,0,0,-1,706,1093,0,0
-511,-69,0,0,0,0,0,0,0,0,0,-1,713,1093,0,0
-504,-69,0,0,0,0,0,0,0,0,0,-1,720,1093,0,0
-497,-69,0,0,0,0,0,0,0,0,0,-1,727,1093,0,0
-490,-69,0,0,0,0,0,0,0,0,0,-1,734,1093,0,0
-483,-69,0,0,0,0,0,0,0,0,0,-1,741,1093,0,0
-476,-69,0,0,0,0,0,0,0,0,0,-1,748,1093,0,0
-469,-69,0,0,0,0,0,0,0,0,0,-1,755,1093,0,0
-462,-69,0,0,0,0,0,0,0,0,0,-1,762,1093,0,0
-455,-69,0,0,0,0,0,0,0,0,0,-1,769,1093,0,0
-448,-69,0,0,0,0,0,0,0,0,0,-1,776,1093,0,0
-441,-69,0,0,0,0,0,0,0,0,0,-1,783,1093,0,0
-434,-69,0,0,0,0,0,0,0,0,0,-1,790,1093,0,0
-427,-69,0,0,0,0,0,0,0,0,0,-1,797,1093,0,0
-420,-69,0,0,0,0,0,0,0,0,0,-1,804,1093,0,0
-413,-69,0,0,0,0,0,0,0,0,0,-1,811,1093,0,0
-406,-69,0,0,0,0,0,0,0,0,0,-1,818,1093,0,0
-399,-69,0,0,0,0,0,0,0,0,0,-1,825,1093,0,0
-392,-69,0,0,0,0,0,0,0,0,0,-1,832,1093,0,0
-385,-69,0,0,0,0,0,0,0,0,0,-1,839,1093,0,0
-378,-69,0,0,0,0,0,0,0,0,0,-1,846,1093,0,0
-371,-69,0,0,0,0,0,0,0,0,0,-1,853,1093,0,0
-364,-69,0,0,0,0,0,0,0,0,0,-1,860,1093,0,0
-357,-69,0,0,0,0,0,0,0,0,0,-1,867,1093,0,0
-350,-69,0,0,0,0,0,0,0,0,0,-1,874,1093,0,0
-343,-69,0,0,0,0,0,0,0,0,0,-1,881,1093,0,0
-336,-69,0,0,0,0,0,0,0,0,0,-1,888,1093,0,0
-329,-69,0,0,0,0,0,0,0,0,0,-1,895,1093,0,0
-322,-69,0,0,0,0,0,0,0,0,0,-1,902,1093,0,0
-315,-69,0,0,0,0,0,0,0,0,0,-1,909,1093,0,0
-308,-69,0,0,0,0,0,0,0,0,0,-1,916,1093,0,0
-301,-69,0,0,0,0,0,0,0,0,0,-1,923,1093,0,0
-294,-69,0,0,0,0,0,0,0,0,0,-1,930,1093,0,0
-287,-69,0,0,0,0,0,0,0,0,0,-1,937,1093,0,0
-280,-69,0,0,0,0,0,0,0,0,0,-1,944,1093,0,0
-273,-69,0,0,0,0,0,0,0,0,0,-1,951,1093,0,0
-266,-69,0,0,0,0,0,0,0,0,0,-1,958,1093,0,0
-259,-69,0,0,0,0,0,0,0,0,0,-1,965,1093,0,0
-252,-69,0,0,0,0,0,0,0,0,0,-1,972,1093,0,0
-245,-69,0,0,0,0,0,0,0,0,0,-1,979,1093,0,0
-238,-69,0,0,0,0,0,0,0,0,0,-1,986,1093,0,0
-231,-69,0,0,0,0,0,0,0,0,0,-1,993,1093,0,0
-224,-69,0,0,0,0,0,0,0,0,0,-1,1000,1093,0,0
-217,-69,0,0,0,0,0,0,0,0,0,-1,1007,1093,0,0
-210,-69,0,0,0,0,0,0,0,0,0,-1,1014,1093,0,0
-203,-69,0,0,0,0,0,0,0,0,0,-1,1021,1093,0,0
-196,-69,0,0,0,0,0,0,0,0,0,-1,1028,1093,0,0
-189,-69,0,0,0,0,0,0,0,0,0,-1,1035,1093,0,0
-182,-69,0,0,0,0,0,0,0,0,0,-1,1042,1093,0,0
-175,-69,0,0,0,0,0,0,0,0,0,-1,1049,1093,0,0
-168,-69,0,0,0,0,0,0,0,0,0,-1,1056,1093,0,0
-161,-69,0,0,0,0,0,0,0,0,0,-1,1063,1093,0,0
-154,-69,0,0,0,0,0,0,0,0,0,-1,1070,1093,0,0
-147,-69,0,0,0,0,0,0,0,0,0,-1,1077,1093,0,0
-140,-69,0,0,0,0,0,0,0,0,0,-1,1084,1093,0,0
-133,-69,0,0,0,0,0,0,0,0,0,-1,1091,1093,0,0
-126,-69,0,0,0,0,0,0,0,0,0,-1,1098,1093,0,0
-119,-69,0,0,0,0,0,0,0,0,0,-1,1105,1093,0,0
-112,-69,0,0,0,0,0,0,0,0,0,-1,1112,1093,0,0
-105,-69,0,0,0,0,0,0,0,0,0,-1,1119,1093,0,0
-98,-69,0,0,0,0,0,0,0,0,0,-1,1126,1093,0,0
-91,-69,0,0,0,0,0,0,0,0,0,-1,1133,1093,0,0
-84,-69,0,0,0,0,0,0,0,0,0,-1,1140,1093,0,0
-77,-69,0,0,0,0,0,0,0,0,0,-1,1147,1093,0,0
-70,-69,0,0,0,0,0,0,0,0,0,-1,1154,1093,0,0
-63,-69,0,0,0,0,0,0,0,0,0,-1,1161,1093,0,0
-56,-69,0,0,0,0,0,0,0,0,0,-1,1168,1093,0,0
-49,-69,0,0,0,0,0,0,0,0,0,-1,1175,1093,0,0
-42,-69,0,0,0,0,0,0,0,0,0,-1,1182,1093,0,0
-35,-69,0,0,0,0,0,0,0,0,0,-1,1189,1093,0,0
-28,-69,0,0,0,0,0,0,0,0,0,-1,1196,1093,0,0
-21,-69,0,0,0,0,0,0,0,0,0,-1,1203,1093,0,0
-14,-69,0,0,0,0,0,0,0,0,0,-1,1210,1093,0,0
-7,-69,0,0,0,0,0,0,0,0,0,-1,1217,1093,0,0
0,-69,0,0,0,0,0,0,0,0,0,-1,1224,1093,0,0
7,-69,0,0,0,0,0,0,0,0,0,-1,1231,1093,0,0
14,-69,0,0,0,0,0,0,0,0,0,-1,1238,1093,0,0
21,-69,0,0,0,0,0,0,0,0,0,-1,1245,1093,0,0
28,-69,0,0,0,0,0,0,0,0,0,-1,1252,1093,0,0
35,-69,0,0,0,0,0,0,0,0,0,-1,1259,1093,0,0
42,-69,0,0,0,0,0,0,0,0,0,-1,1266,1093,0,0
49,-69,0,0,0,0,0,0,0,0,0,-1,1273,1093,0,0
56,-69,0,0,0,0,0,0,0,0,0,-1,1280,1093,0,0
63,-69,0,0,0,0,0,0,0,0,0,-1,1287,1093,0,0
70,-69,0,0,0,0,0,0,0,0,0,-1,1294,1093,0,0
77,-69,0,0,0,0,0,0,0,0,0,-1,1301,1093,0,0
84,-69,0,0,0,0,0,0,0,0,0,-1,1308,1093,0,0
91,-69,0,0,0,0,0,0,0,0,0,-1,1315,1093,0,0
98,-69,0,0,0,0,0,0,0,0,0,-1,1322,1093,0,0
105,-69,0,0,0,0,0,0,0,0,0,-1,1329,1093,0,0
112,-69,0,0,0,0,0,0,0,0,0,-1,1336,1093,0,0
119,-69,0,0,0,0,0,0,0,0,0,-1,1343,1093,0,0
126,-69,0,0,0,0,0,0,0,0,0,-1,1350,1093,0,0
133,-69,0,0,0,0,0,0,0,0,0,-1,1357,1093,0,0
140,-69,0,0,0,0,0,0,0,0,0,-1,1364,1093,0,0
147,-69,0,0,0,0,0,0,0,0,0,-1,1371,1093,0,0
154,-69,0,0,0,0,0,0,0,0,0,-1,1378,1093,0,0
161,-69,0,0,0,0,0,0,0,0,0,-1,1385,1093,0,0
168,-69,0,0,0,0,0,0,0,0,0,-1,1392,1093,0,0
175,-69,0,0,0,0,0,0,0,0,0,-1,1399,1093,0,0
182,-69,0,0,0,0,0,0,0,0,0,-1,1406,1093,0,0
189,-69,0,0,0,0,0,0,0,0,0,-1,1413,1093,0,0
196,-69,0,0,0,0,0,0,0,0,0,-1,1420,1093,0,0
203,-69,0,0,0,0,0,0,0,0,0,-1,1427,1093,0,0
210,-69,0,0,0,0,0,0,0,0,0,-1,1434,1093,0,0
217,-69,0,0,0,0,0,0,0,0,0,-1,1441,1093,0,0
224,-69,0,0,0,0,0,0,0,0,0,-1,1448,1093,0,0
231,-69,0,0,0,0,0,0,0,0,0,-1,1455,1093,0,0
238,-69,0,0,0,0,0,0,0,0,0,-1,1462,1093,0,0
245,-69,0,0,0,0,0,0,0,0,0,-1,1469,1093,0,0
252,-69,0,0,0,0,0,0,0,0,0,-1,1476,1093,0,0
259,-69,0,0,0,0,0,0,0,0,0,-1,1483,1093,0,0
266,-69,0,0,0,0,0,0,0,0,0,-1,1490,1093,0,0
273,-69,0,0,0,0,0,0,0,0,0,-1,1497,1093,0,0
280,-69,0,0,0,0,0,0,0,0,0,-1,1504,1093,0,0
287,-69,0,0,0,0,0,0,0,0,0,-1,1511,1093,0,0
294,-69,0,0,0,0,0,0,0,0,0,-1,1518,1093,0,0
301,-69,0,0,0,0,0,0,0,0,0,-1,1525,1093,0,0
308,-69,0,0,0,0,0,0,0,0,0,-1,1532,1093,0,0
315,-69,0,0,0,0,0,0,0,0,0,-1,1539,1093,0,0
322,-69,0,0,0,0,0,0,0,0,0,-1,1546,1093,0,0
329,-69,0,0,0,0,0,0,0,0,0,-1,1553,1093,0,0
336,-69,0,0,0,0,0,0,0,0,0,-1,1560,1093,0,0
343,-69,0,0,0,0,0,0,0,0,0,-1,1567,1093,0,0
350,-69,0,0,0,0,0,0,0,0,0,-1,1574,1093,0,0
357,-69,0,0,0,0,0,0,0,0,0,-1,1581,1093,0,0
364,-69,0,0,0,0,0,0,0,0,0,-1,1588,1093,0,0
371,-69,0,0,0,0,0,0,0,0,0,-1,1595,1093,0,0
378,-69,0,0,0,0,0,0,0,0,0,-1,1602,1093,0,0
385,-69,0,0,0,0,0,0,0,0,0,-1,1609,1093,0,0
392,-69,0,0,0,0,0,0,0,0,0,-1,1616,1093,0,0
399,-69,0,0,0,0,0,0,0,0,0,-1,1623,1093,0,0
406,-69,0,0,0,0,0,0,0,0,0,-1,1630,1093,0,0
413,-69,0,0,0,0,0,0,0,0,0,-1,1637,1093,0,0
420,-69,0,0,0,0,0,0,0,0,0,-1,1644,1093,0,0
427,-69,0,0,0,0,0,0,0,0,0,-1,1651,1093,0,0
434,-69,0,0,0,0,0,0,0,0,0,-1,1658,1093,0,0
441,-69,0,0,0,0,0,0,0,0,0,-1,1665,1093,0,0
448,-69,0,0,0,0,0,0,0,0,0,-1,1672,1093,0,0
455,-69,0,0,0,0,0,0,0,0,0,-1,1679,1093,0,0
462,-69,0,0,0,0,0,0,0,0,0,-1,1686,1093,0,0
469,-69,0,0,0,0,0,0,0,0,0,-1,1693,1093,0,0
476,-69,0,0,0,0,0,0,0,0,0,-1,1700,1093,0,0
483,-69,0,0,0,0,0,0,0,0,0,-1,1707,1093,0,0
490,-69,0,0,0,0,0,0,0,0,0,-1,1714,1093,0,0
497,-69,0,0,0,0,0,0,0,0,0,-1,1721,1093,0,0
504,-69,0,0,0,0,0,0,0,0,0,-1,1728,1093,0,0
511,-69,0,0,0,0,0,0,0,0,0,-1,1735,1093,0,0
518,-69,0,0,0,0,0,0,0,0,0,-1,1742,1093,0,0
525,-69,0,0,0,0,0,0,0,0,0,-1,1749,1093,0,0
532,-69,0,0,0,0,0,0,0,0,0,-1,1756,1093,0,0
539,-69,0,0,0,0,0,0,0,0,0,-1,1763,1093,0,0
546,-69,0,0,0,0,0,0,0,0,0,-1,1770,1093,0,0
553,-69,0,0,0,0,0,0,0,0,0,-1,1777,1093,0,0
560,-69,0,0,0,0,0,0,0,0,0,-1,1784,1093,0,0
567,-69,0,0,0,0,0,0,0,0,0,-1,1791,1093,0,0
574,-69,0,0,0,0,0,0,0,0,0,-1,1798,1093,0,0
581,-69,0,0,0,0,0,0,0,0,0,-1,1805,1093,0,0
588,-69,0,0,0,0,0,0,0,0,0,-1,1812,1093,0,0
595,-69,0,0,0,0,0,0,0,0,0,-1,1819,1093,0,0
602,-69,0,0,0,0,0,0,0,0,0,-1,1826,1093,0,0
609,-69,0,0,0,0,0,0,0,0,0,-1,1833,1093,0,0
616,-69,0,0,0,0,0,0,0,0,0,-1,1840,1093,0,0
623,-69,0,0,0,0,0,0,0,0,0,-1,1847,1093,0,0
630,-69,0,0,0,0,0,0,0,0,0,-1,1854,1093,0,0
637,-69,0,0,0,0,0,0,0,0,0,-1,1861,1093,0,0
644,-69,0,0,0,0,0,0,0,0,0,-1,1868,1093,0,0
651,-69,39.172,2.63159,0.00749873,-2.47457e-05,0.00542504,0.0103386,-0.00286465,0.482256,0.0080197,0.0430637,1875,1093,39.172,-2.63156
658,-69,39.3401,2.81299,0.00578535,-0.000222606,0.00324399,0.00720261,-0.00163987,0.411897,0.00543152,0.0431639,1882,1093,39.3401,-2.81297
665,-69,39.5873,2.7887,0.00428703,-0.00032959,0.0018327,0.00492611,-0.000968669,0.335523,0.00365006,0.0421876,1889,1093,39.5872,-2.78864
672,-69,39.5686,2.65771,0.00309007,-0.000499408,0.000972073,0.00333641,-0.000745751,0.248195,0.00251006,0.038617,1896,1093,39.5686,-2.65767
679,-69,39.6362,2.55176,0.00180014,-0.000735711,0.000605243,0.00193719,-0.00087276,0.222682,0.00166067,0.0392116,1903,1093,39.6362,-2.55178
686,-69,39.6741,2.41785,0.000598465,-0.00106339,0.00064806,0.000821303,-0.00128623,0.331189,0.00122661,0.0397093,1910,1093,39.674,-2.41788
693,-69,39.6206,2.30518,-0.000236021,-0.00135739,0.000875639,0.000243059,-0.00183647,0.500629,0.00131286,0.0346186,1917,1093,39.6206,-2.30523
700,-69,39.5983,2.36267,-0.000881774,-0.00155338,0.0011439,-2.5405e-05,-0.00240975,0.642629,0.0015981,0.0277647,1924,1093,39.5982,-2.36261
707,-69,39.5156,2.52051,-0.00156569,-0.00157502,0.00134568,-0.00022467,-0.00291604,0.783666,0.00187363,0.0233887,1931,1093,39.5157,-2.52051
714,-69,39.5715,2.59985,-0.00221273,-0.0014524,0.00162615,-0.000162571,-0.00350256,0.900228,0.00228278,0.031375,1938,1093,39.5715,-2.59987
721,-69,39.7094,2.82227,0,0,0,0,0,0,0,-1,1945,1093,39.7094,-2.82225
728,-69,37.8966,5.84802,0,0,0,0,0,0,0,-1,1952,1093,37.8966,-5.848
735,-69,38.1155,5.59583,-0.00342905,-0.000324624,0.00231542,0.000910733,-0.00466441,1.08068,0.00345345,0.0275273,1959,1093,38.1155,-5.59587
742,-69,38.1188,5.40662,-0.00356103,0.000296132,0.00212781,0.00123931,-0.00450421,1.15356,0.00349004,0.0214965,1966,1093,38.1187,-5.40658
749,-69,37.9775,5.15881,-0.00358911,0.00107301,0.00194574,0.00177836,-0.00429445,1.22302,0.00360505,0.0232681,1973,1093,37.9775,-5.1588
756,-69,38.0183,4.99744,-0.00352058,0.00194413,0.00138834,0.00227662,-0.00385307,1.33574,0.00357778,0.0152559,1980,1093,38.0183,-4.99741
763,-69,38.0164,4.80103,-0.00320284,0.00279565,0.000602402,0.00285555,-0.00326274,1.47169,0.00353501,0.015769,1987,1093,38.0164,-4.80098
770,-69,37.9905,4.63123,-0.00268862,0.00371192,-0.000346959,0.00373068,-0.00270737,-1.5168,0.00373263,0.0164267,1994,1093,37.9905,-4.63126
777,-69,37.9158,4.46741,-0.00196657,0.00417671,-0.00125574,0.00442348,-0.00221334,-1.37675,0.00390195,0.0217288,2001,1093,37.9158,-4.46747
784,-69,37.8619,4.24854,-0.00127451,0.00405026,-0.00208196,0.00476764,-0.0019919,-1.23896,0.0040108,0.0328156,2008,1093,37.8619,-4.24849
791,-69,37.75,3.953,-0.000573781,0.00291484,-0.00281416,0.00448144,-0.00214038,-1.06284,0.00390194,0.0425092,2015,1093,37.75,-3.95297
798,-69,37.6343,3.6554,0.000616881,0.000446134,-0.00341352,0.00394609,-0.00288308,-0.772896,0.00395871,0.0471809,2022,1093,37.6342,-3.65546
805,-69,37.4873,3.31897,0.00220727,-0.00371076,-0.00358269,0.00389492,-0.0053984,-0.440224,0.00538885,0.0470423,2029,1093,37.4872,-3.31897
812,-69,37.532,2.95447,0.00390216,-0.0101171,-0.00291858,0.00448549,-0.0107004,-0.197269,0.009009,0.0446216,2036,1093,37.532,-2.95443
-700,-76,0,0,0,0,0,0,0,0,0,-1,524,1100,0,0
-693,-76,-27.0919,-4.14001,0,0,0,0,0,0,0,-1,531,1100,-27.0919,4.14004
-686,-76,-27.3253,-3.08325,0,0,0,0,0,0,0,-1,538,1100,-27.3253,3.08324
-679,-76,-26.9203,-1.27209,0,0,0,0,0,0,0,-1,545,1100,-26.9204,1.27208
-672,-76,-26.739,-0.660034,0.00657248,0.0309299,0.0066416,0.0326232,0.00487921,1.32117,0.0203186,0.04543,552,1100,-26.7389,0.660045
-665,-76,-27.9018,0.858398,0.0064636,0.0258112,0.00751236,0.0283856,0.00388922,1.24065,0.0177698,0.0436494,559,1100,-27.9018,-0.858354
-658,-76,-27.3536,0.865845,0.00571349,0.0208791,0.00744113,0.0239203,0.00267229,1.18281,0.0151349,0.0457274,566,1100,-27.3536,-0.865864
-651,-76,-27.2294,1.2511,0.00470719,0.0163167,0.00670694,0.019382,0.00164186,1.14211,0.0124103,0.0301647,573,1100,-27.2294,-1.25112
-644,-76,-27.2629,1.56067,0.00378258,0.0116853,0.00553823,0.0145372,0.000930607,1.09525,0.00939667,0.0111037,580,1100,-27.2629,-1.56063
-637,-76,-27.3275,1.79797,0.00301496,0.00816047,0.00393445,0.0102887,0.000886759,1.07496,0.00658347,0.0143082,587,1100,-27.3275,-1.79798
-630,-76,-27.3478,2.03137,0.00222345,0.00542033,0.00192266,0.00632221,0.00132157,1.13219,0.00385064,0.016511,594,1100,-27.3479,-2.03136
-623,-76,-27.3386,2.2926,0.00170884,0.00264737,0.000130745,0.00266524,0.00169097,1.43493,0.00155721,0.0165144,601,1100,-27.3386,-2.2926
-616,-76,-27.3611,2.54565,0.00177778,0.00117723,-0.00122378,0.00273759,0.000217428,-0.665091,0.00175707,0.0147879,608,1100,-27.3611,-2.54564
-609,-76,-27.3716,2.76794,0.00191427,-2.01674e-05,-0.00193699,0.00311211,-0.001218,-0.553838,0.00257848,0.0148396,615,1100,-27.3716,-2.76795
-602,-76,-27.3326,3.01819,0.00187696,-0.000957318,-0.00271772,0.00352483,-0.00260519,-0.545071,0.00355242,0.018617,622,1100,-27.3327,-3.01813
-595,-76,-27.2892,3.22717,0.00171482,-0.00153286,-0.0033649,0.00382721,-0.00364524,-0.56059,0.00431465,0.0257938,629,1100,-27.2892,-3.22722
-588,-76,-27.2455,3.42212,0,0,0,0,0,0,0,-1,636,1100,-27.2456,-3.42218
-581,-76,-28.8453,0.64209,0,0,0,0,0,0,0,-1,643,1100,-28.8453,-0.642094
-574,-76,-28.811,0.567261,0.00169084,-0.00247575,-0.00398541,0.00410461,-0.00488952,-0.544565,0.00519935,0.0316837,650,1100,-28.811,-0.567213
-567,-76,-28.6974,0.740845,0.00141188,-0.00262821,-0.00409581,0.0039587,-0.00517503,-0.556303,0.00528893,0.036997,657,1100,-28.6974,-0.740849
-560,-76,-28.7987,0.960083,0.000955737,-0.00262254,-0.00419432,0.00372657,-0.00539338,-0.583801,0.00529464,0.039937,664,1100,-28.7987,-0.960114
-553,-76,-28.8125,0.746582,0.000134554,-0.00242922,-0.00436663,0.00340357,-0.00569824,-0.642627,0.00531031,0.0435567,671,1100,-28.8125,-0.746614
-546,-76,-28.8849,0.581909,-0.00098223,-0.00196175,-0.00461569,0.00316961,-0.00611359,-0.732542,0.00544876,0.0436452,678,1100,-28.885,-0.581958
-539,-76,-28.9213,0.511108,-0.00196752,-0.00120918,-0.00526677,0.00369206,-0.00686875,-0.821333,0.00618855,0.0417087,685,1100,-28.9213,-0.51111
-532,-76,-28.7982,0.525024,-0.00323198,-3.33254e-05,-0.00720198,0.00574477,-0.00901008,-0.894659,0.00858797,0.0421411,692,1100,-28.7982,-0.525032
-525,-76,0,0,0,0,0,0,0,0,0,-1,699,1100,0,0
-518,-76,0,0,0,0,0,0,0,0,0,-1,706,1100,0,0
-511,-76,0,0,0,0,0,0,0,0,0,-1,713,1100,0,0
-504,-76,0,0,0,0,0,0,0,0,0,-1,720,1100,0,0
-497,-76,0,0,0,0,0,0,0,0,0,-1,727,1100,0,0
-490,-76,0,0,0,0,0,0,0,0,0,-1,734,1100,0,0
-483,-76,0,0,0,0,0,0,0,0,0,-1,741,1100,0,0
-476,-76,0,0,0,0,0,0,0,0,0,-1,748,1100,0,0
-469,-76,0,0,0,0,0,0,0,0,0,-1,755,1100,0,0
-462,-76,0,0,0,0,0,0,0,0,0,-1,762,1100,0,0
-455,-76,0,0,0,0,0,0,0,0,0,-1,769,1100,0,0
-448,-76,0,0,0,0,0,0,0,0,0,-1,776,1100,0,0
-441,-76,0,0,0,0,0,0,0,0,0,-1,783,1100,0,0
-434,-76,0,0,0,0,0,0,0,0,0,-1,790,1100,0,0
-427,-76,0,0,0,0,0,0,0,0,0,-1,797,1100,0,0
-420,-76,0,0,0,0,0,0,0,0,0,-1,804,1100,0,0
-413,-76,0,0,0,0,0,0,0,0,0,-1,811,1100,0,0
-406,-76,0,0,0,0,0,0,0,0,0,-1,818,1100,0,0
-399,-76,0,0,0,0,0,0,0,0,0,-1,825,1100,0,0
-392,-76,0,0,0,0,0,0,0,0,0,-1,832,1100,0,0
-385,-76,0,0,0,0,0,0,0,0,0,-1,839,1100,0,0
-378,-76,0,0,0,0,0,0,0,0,0,-1,846,1100,0,0
-371,-76,0,0,0,0,0,0,0,0,0,-1,853,1100,0,0
-364,-76,0,0,0,0,0,0,0,0,0,-1,860,1100,0,0
-357,-76,0,0,0,0,0,0,0,0,0,-1,867,1100,0,0
-350,-76,0,0,0,0,0,0,0,0,0,-1,874,1100,0,0
-343,-76,0,0,0,0,0,0,0,0,0,-1,881,1100,0,0
-336,-76,0,0,0,0,0,0,0,0,0,-1,888,1100,0,0
-329,-76,0,0,0,0,0,0,0,0,0,-1,895,1100,0,0
-322,-76,0,0,0,0,0,0,0,0,0,-1,902,1100,0,0
-315,-76,0,0,0,0,0,0,0,0,0,-1,909,1100,0,0
-308,-76,0,0,0,0,0,0,0,0,0,-1,916,1100,0,0
-301,-76,0,0,0,0,0,0,0,0,0,-1,923,1100,0,0
-294,-76,0,0,0,0,0,0,0,0,0,-1,930,1100,0,0
-287,-76,0,0,0,0,0,0,0,0,0,-1,937,1100,0,0
-280,-76,0,0,0,0,0,0,0,0,0,-1,944,1100,0,0
-273,-76,0,0,0,0,0,0,0,0,0,-1,951,1100,0,0
-266,-76,0,0,0,0,0,0,0,0,0,-1,958,1100,0,0
-259,-76,0,0,0,0,0,0,0,0,0,-1,965,1100,0,0
-252,-76,0,0,0,0,0,0,0,0,0,-1,972,1100,0,0
-245,-76,0,0,0,0,0,0,0,0,0,-1,979,1100,0,0
-238,-76,0,0,0,0,0,0,0,0,0,-1,986,1100,0,0
-231,-76,0,0,0,0,0,0,0,0,0,-1,993,1100,0,0
-224,-76,0,0,0,0,0,0,0,0,0,-1,1000,1100,0,0
-217,-76,0,0,0,0,0,0,0,0,0,-1,1007,1100,0,0
-210,-76,0,0,0,0,0,0,0,0,0,-1,1014,1100,0,0
-203,-76,0,0,0,0,0,0,0,0,0,-1,1021,1100,0,0
-196,-76,0,0,0,0,0,0,0,0,0,-1,1028,1100,0,0
-189,-76,0,0,0,0,0,0,0,0,0,-1,1035,1100,0,0
-182,-76,0,0,0,0,0,0,0,0,0,-1,1042,1100,0,0
-175,-76,0,0,0,0,0,0,0,0,0,-1,1049,1100,0,0
-168,-76,0,0,0,0,0,0,0,0,0,-1,1056,1100,0,0
-161,-76,0,0,0,0,0,0,0,0,0,-1,1063,1100,0,0
-154,-76,0,0,0,0,0,0,0,0,0,-1,1070,1100,0,0
-147,-76,0,0,0,0,0,0,0,0,0,-1,1077,1100,0,0
-140,-76,0,0,0,0,0,0,0,0,0,-1,1084,1100,0,0
-133,-76,0,0,0,0,0,0,0,0,0,-1,1091,1100,0,0
-126,-76,0,0,0,0,0,0,0,0,0,-1,1098,1100,0,0
-119,-76,0,0,0,0,0,0,0,0,0,-1,1105,1100,0,0
-112,-76,0,0,0,0,0,0,0,0,0,-1,1112,1100,0,0
-105,-76,0,0,0,0,0,0,0,0,0,-1,1119,1100,0,0
-98,-76,0,0,0,0,0,0,0,0,0,-1,1126,1100,0,0
-91,-76,0,0,0,0,0,0,0,0,0,-1,1133,1100,0,0
-84,-76,0,0,0,0,0,0,0,0,0,-1,1140,1100,0,0
-77,-76,0,0,0,0,0,0,0,0,0,-1,1147,1100,0,0
-70,-76,0,0,0,0,0,0,0,0,0,-1,1154,1100,0,0
-63,-76,0,0,0,0,0,0,0,0,0,-1,1161,1100,0,0
-56,-76,0,0,0,0,0,0,0,0,0,-1,1168,1100,0,0
-49,-76,0,0,0,0,0,0,0,0,0,-1,1175,1100,0,0
-42,-76,0,0,0,0,0,0,0,0,0,-1,1182,1100,0,0
-35,-76,0,0,0,0,0,0,0,0,0,-1,1189,1100,0,0
-28,-76,0,0,0,0,0,0,0,0,0,-1,1196,1100,0,0
-21,-76,0,0,0,0,0,0,0,0,0,-1,1203,1100,0,0
-14,-76,0,0,0,0,0,0,0,0,0,-1,1210,1100,0,0
-7,-76,0,0,0,0,0,0,0,0,0,-1,1217,1100,0,0
0,-76,0,0,0,0,0,0,0,0,0,-1,1224,1100,0,0
7,-76,0,0,0,0,0,0,0,0,0,-1,1231,1100,0,0
14,-76,0,0,0,0,0,0,0,0,0,-1,1238,1100,0,0
21,-76,0,0,0,0,0,0,0,0,0,-1,1245,1100,0,0
28,-76,0,0,0,0,0,0,0,0,0,-1,1252,1100,0,0
35,-76,0,0,0,0,0,0,0,0,0,-1,1259,1100,0,0
42,-76,0,0,0,0,0,0,0,0,0,-1,1266,1100,0,0
49,-76,0,0,0,0,0,0,0,0,0,-1,1273,1100,0,0
56,-76,0,0,0,0,0,0,0,0,0,-1,1280,1100,0,0
63,-76,0,0,0,0,0,0,0,0,0,-1,1287,1100,0,0
70,-76,0,0,0,0,0,0,0,0,0,-1,1294,1100,0,0
77,-76,0,0,0,0,0,0,0,0,0,-1,1301,1100,0,0
84,-76,0,0,0,0,0,0,0,0,0,-1,1308,1100,0,0
91,-76,0,0,0,0,0,0,0,0,0,-1,1315,1100,0,0
98,-76,0,0,0,0,0,0,0,0,0,-1,1322,1100,0,0
105,-76,0,0,0,0,0,0,0,0,0,-1,1329,1100,0,0
112,-76,0,0,0,0,0,0,0,0,0,-1,1336,1100,0,0
119,-76,0,0,0,0,0,0,0,0,0,-1,1343,1100,0,0
126,-76,0,0,0,0,0,0,0,0,0,-1,1350,1100,0,0
133,-76,0,0,0,0,0,0,0,0,0,-1,1357,1100,0,0
140,-76,0,0,0,0,0,0,0,0,0,-1,1364,1100,0,0
147,-76,0,0,0,0,0,0,0,0,0,-1,1371,1100,0,0
154,-76,0,0,0,0,0,0,0,0,0,-1,1378,1100,0,0
161,-76,0,0,0,0,0,0,0,0,0,-1,1385,1100,0,0
168,-76,0,0,0,0,0,0,0,0,0,-1,1392,1100,0,0
175,-76,0,0,0,0,0,0,0,0,0,-1,1399,1100,0,0
182,-76,0,0,0,0,0,0,0,0,0,-1,1406,1100,0,0
189,-76,0,0,0,0,0,0,0,0,0,-1,1413,1100,0,0
196,-76,0,0,0,0,0,0,0,0,0,-1,1420,1100,0,0
203,-76,0,0,0,0,0,0,0,0,0,-1,1427,1100,0,0
210,-76,0,0,0,0,0,0,0,0,0,-1,1434,1100,0,0
217,-76,0,0,0,0,0,0,0,0,0,-1,1441,1100,0,0
224,-76,0,0,0,0,0,0,0,0,0,-1,1448,1100,0,0
231,-76,0,0,0,0,0,0,0,0,0,-1,1455,1100,0,0
238,-76,0,0,0,0,0,0,0,0,0,-1,1462,1100,0,0
245,-76,0,0,0,0,0,0,0,0,0,-1,1469,1100,0,0
252,-76,0,0,0,0,0,0,0,0,0,-1,1476,1100,0,0
259,-76,0,0,0,0,0,0,0,0,0,-1,1483,1100,0,0
266,-76,0,0,0,0,0,0,0,0,0,-1,1490,1100,0,0
273,-76,0,0,0,0,0,0,0,0,0,-1,1497,1100,0,0
280,-76,0,0,0,0,0,0,0,0,0,-1,1504,1100,0,0
287,-76,0,0,0,0,0,0,0,0,0,-1,1511,1100,0,0
294,-76,0,0,0,0,0,0,0,0,0,-1,1518,1100,0,0
301,-76,0,0,0,0,0,0,0,0,0,-1,1525,1100,0,0
308,-76,0,0,0,0,0,0,0,0,0,-1,1532,1100,0,0
315,-76,0,0,0,0,0,0,0,0,0,-1,1539,1100,0,0
322,-76,0,0,0,0,0,0,0,0,0,-1,1546,1100,0,0
329,-76,0,0,0,0,0,0,0,0,0,-1,1553,1100,0,0
336,-76,0,0,0,0,0,0,0,0,0,-1,1560,1100,0,0
343,-76,0,0,0,0,0,0,0,0,0,-1,1567,1100,0,0
350,-76,0,0,0,0,0,0,0,0,0,-1,1574,1100,0,0
357,-76,0,0,0,0,0,0,0,0,0,-1,1581,1100,0,0
364,-76,0,0,0,0,0,0,0,0,0,-1,1588,1100,0,0
371,-76,0,0,0,0,0,0,0,0,0,-1,1595,1100,0,0
378,-76,0,0,0,0,0,0,0,0,0,-1,1602,1100,0,0
385,-76,0,0,0,0,0,0,0,0,0,-1,1609,1100,0,0
392,-76,0,0,0,0,0,0,0,0,0,-1,1616,1100,0,0
399,-76,0,0,0,0,0,0,0,0,0,-1,1623,1100,0,0
406,-76,0,0,0,0,0,0,0,0,0,-1,1630,1100,0,0
413,-76,0,0,0,0,0,0,0,0,0,-1,1637,1100,0,0
420,-76,0,0,0,0,0,0,0,0,0,-1,1644,1100,0,0
427,-76,0,0,0,0,0,0,0,0,0,-1,1651,1100,0,0
434,-76,0,0,0,0,0,0,0,0,0,-1,1658,1100,0,0
441,-76,0,0,0,0,0,0,0,0,0,-1,1665,1100,0,0
448,-76,0,0,0,0,0,0,0,0,0,-1,1672,1100,0,0
455,-76,0,0,0,0,0,0,0,0,0,-1,1679,1100,0,0
462,-76,0,0,0,0,0,0,0,0,0,-1,1686,1100,0,0
469,-76,0,0,0,0,0,0,0,0,0,-1,1693,1100,0,0
476,-76,0,0,0,0,0,0,0,0,0,-1,1700,1100,0,0
483,-76,0,0,0,0,0,0,0,0,0,-1,1707,1100,0,0
490,-76,0,0,0,0,0,0,0,0,0,-1,1714,1100,0,0
497,-76,0,0,0,0,0,0,0,0,0,-1,1721,1100,0,0
504,-76,0,0,0,0,0,0,0,0,0,-1,1728,1100,0,0
511,-76,0,0,0,0,0,0,0,0,0,-1,1735,1100,0,0
518,-76,0,0,0,0,0,0,0,0,0,-1,1742,1100,0,0
525,-76,0,0,0,0,0,0,0,0,0,-1,1749,1100,0,0
532,-76,0,0,0,0,0,0,0,0,0,-1,1756,1100,0,0
539,-76,0,0,0,0,0,0,0,0,0,-1,1763,1100,0,0
546,-76,0,0,0,0,0,0,0,0,0,-1,1770,1100,0,0
553,-76,0,0,0,0,0,0,0,0,0,-1,1777,1100,0,0
560,-76,0,0,0,0,0,0,0,0,0,-1,1784,1100,0,0
567,-76,0,0,0,0,0,0,0,0,0,-1,1791,1100,0,0
574,-76,0,0,0,0,0,0,0,0,0,-1,1798,1100,0,0
581,-76,0,0,0,0,0,0,0,0,0,-1,1805,1100,0,0
588,-76,0,0,0,0,0,0,0,0,0,-1,1812,1100,0,0
595,-76,0,0,0,0,0,0,0,0,0,-1,1819,1100,0,0
602,-76,0,0,0,0,0,0,0,0,0,-1,1826,1100,0,0
609,-76,0,0,0,0,0,0,0,0,0,-1,1833,1100,0,0
616,-76,0,0,0,0,0,0,0,0,0,-1,1840,1100,0,0
623,-76,0,0,0,0,0,0,0,0,0,-1,1847,1100,0,0
630,-76,0,0,0,0,0,0,0,0,0,-1,1854,1100,0,0
637,-76,0,0,0,0,0,0,0,0,0,-1,1861,1100,0,0
644,-76,0,0,0,0,0,0,0,0,0,-1,1868,1100,0,0
651,-76,39.3337,2.37573,0.00824098,0.000297692,0.00546978,0.011029,-0.00249028,0.471381,0.00830808,0.0414528,1875,1100,39.3338,-2.37569
658,-76,39.5226,2.63428,0.00638668,0.000101101,0.00336616,0.00784912,-0.00136134,0.409851,0.00574059,0.0411028,1882,1100,39.5226,-2.63431
665,-76,39.6029,2.67065,0.00474254,-4.17897e-05,0.001966,0.00544677,-0.000746012,0.343961,0.00390368,0.039543,1889,1100,39.6029,-2.6706
672,-76,39.5658,2.68335,0.00338601,-0.000266935,0.00106986,0.00367628,-0.000557206,0.264939,0.00265614,0.0385152,1896,1100,39.5658,-2.68333
679,-76,39.614,2.73572,0.00194981,-0.000591569,0.000673724,0.00211737,-0.000759127,0.243759,0.00172135,0.0390266,1903,1100,39.614,-2.73566
686,-76,39.6294,2.52356,0.000686943,-0.000990363,0.000665369,0.00091883,-0.00122225,0.335345,0.00124028,0.0377397,1910,1100,39.6295,-2.52353
693,-76,39.553,2.38477,-0.000166955,-0.00133689,0.000832262,0.00026535,-0.0017692,0.479074,0.00127714,0.0355801,1917,1100,39.553,-2.38477
700,-76,39.582,2.38513,-0.000820836,-0.00157666,0.00102213,-0.000108994,-0.0022885,0.608327,0.00149066,0.0318304,1924,1100,39.582,-2.38511
707,-76,39.5229,2.56689,-0.00151239,-0.00162626,0.00118741,-0.000380559,-0.0027581,0.761442,0.00172592,0.0254191,1931,1100,39.5229,-2.56693
714,-76,39.5874,2.77051,-0.00216336,-0.00154617,0.00145357,-0.000368796,-0.00334074,0.889994,0.00211497,0.0482706,1938,1100,39.5874,-2.77046
721,-76,38.54,5.70972,0,0,0,0,0,0,0,-1,1945,1100,38.54,-5.70974
728,-76,38.2382,5.76575,-0.00299536,-0.00100697,0.00207676,0.000301304,-0.00430364,1.00864,0.00297462,0.0434891,1952,1100,38.2382,-5.7657
735,-76,37.6072,5.6637,-0.00336233,-0.000507289,0.00216101,0.000655127,-0.00452475,1.07729,0.00325691,0.0316321,1959,1100,37.6072,-5.66365
742,-76,37.8438,5.43408,-0.00356285,0.000104357,0.00201254,0.000993333,-0.00445183,1.15485,0.00334847,0.02173,1966,1100,37.8438,-5.43406
749,-76,37.7534,5.18347,-0.00368299,0.000890269,0.00184635,0.00154263,-0.00433536,1.23116,0.00351902,0.022177,1973,1100,37.7534,-5.18342
756,-76,37.7922,5.00122,-0.0037625,0.00173647,0.00133279,0.00204247,-0.0040685,1.34511,0.00359222,0.0160285,1980,1100,37.7923,-5.00127
763,-76,37.7941,4.77197,-0.00365998,0.00253858,0.000614831,0.00259898,-0.00372037,1.47288,0.00366758,0.0161459,1987,1100,37.7941,-4.77195
770,-76,37.7064,4.60718,-0.00350881,0.00334944,-0.000263781,0.00335957,-0.00351894,-1.53241,0.00397166,0.0170502,1994,1100,37.7065,-4.60714
777,-76,37.6431,4.50659,-0.0032899,0.00366954,-0.00111969,0.00384524,-0.00346561,-1.41514,0.00422282,0.0221025,2001,1100,37.6431,-4.50664
784,-76,37.755,4.23352,-0.00320035,0.00334496,-0.00190648,0.00385978,-0.00371517,-1.30705,0.00437366,0.0344012,2008,1100,37.755,-4.23357
791,-76,38.063,3.88501,-0.0031862,0.0019223,-0.00263938,0.00304099,-0.00430489,-1.1699,0.00426202,0.0418445,2015,1100,38.0629,-3.88504
798,-76,38.3162,3.55286,0,0,0,0,0,0,0,-1,2022,1100,38.3161,-3.55288
805,-76,37.3186,3.52893,-0.00206732,-0.00563399,-0.00359867,0.000165648,-0.00786695,-0.555356,0.00530072,0.0483756,2029,1100,37.3185,-3.52895
812,-76,37.2236,3.31592,-0.00133918,-0.012772,-0.00312237,-0.000542023,-0.0135692,-0.249965,0.00887097,0.0468662,2036,1100,37.2237,-3.31586
-700,-83,0,0,0,0,0,0,0,0,0,-1,524,1107,0,0
-693,-83,-26.5042,-3.43823,-0.00291677,0.0205209,-0.00474689,0.0214458,-0.00384167,-1.37836,0.0157349,0.0439369,531,1107,-26.5042,3.43825
-686,-83,-26.7161,-2.70557,0.000940912,0.0203105,7.6968e-05,0.0203108,0.000940606,1.56682,0.0132382,0.0445767,538,1107,-26.7161,2.70559
-679,-83,-26.0576,-1.84082,0,0,0,0,0,0,0,-1,545,1107,-26.0576,1.84077
-672,-83,-27.713,0.577271,0.00493006,0.018806,0.00557039,0.0207654,0.00297058,1.23255,0.0129674,0.0440924,552,1107,-27.713,-0.577269
-665,-83,-27.4098,0.466187,0.00542418,0.0170132,0.006638,0.02003,0.00240737,1.14423,0.0126276,0.0430738,559,1107,-27.4098,-0.466187
-658,-83,-27.1088,0.637207,0.00508675,0.0146567,0.00674463,0.0181413,0.00160213,1.09392,0.0115971,0.040843,566,1107,-27.1087,-0.637221
-651,-83,-26.9518,1.10107,0.00431948,0.0120349,0.00615824,0.015444,0.000910424,1.06521,0.0100063,0.0310032,573,1107,-26.9519,-1.10113
-644,-83,-26.9669,1.47571,0.00354708,0.00892836,0.00516845,0.0120646,0.000410848,1.02539,0.00790967,0.0153826,580,1107,-26.9669,-1.47568
-637,-83,-27.0212,1.77039,0.0029641,0.00671632,0.00387789,0.00914809,0.000532336,1.0107,0.00592925,0.011659,587,1107,-27.0212,-1.77033
-630,-83,-27.0671,2.04224,0.00225794,0.0046908,0.00218259,0.00597306,0.000975691,1.03963,0.00369994,0.016548,594,1107,-27.0671,-2.04222
-623,-83,-27.0787,2.28455,0.00186795,0.00226942,0.000701372,0.00279822,0.00133915,0.924776,0.00161605,0.0162294,601,1107,-27.0787,-2.28449
-616,-83,-27.0995,2.52576,0.00203256,0.00102865,-0.000341617,0.00213778,0.000923426,-0.298783,0.00123805,0.0147994,608,1107,-27.0995,-2.5257
-609,-83,-27.0909,2.76758,0.00225115,-2.92807e-05,-0.000794286,0.00250054,-0.000278663,-0.304223,0.00176725,0.015717,615,1107,-27.0909,-2.76763
-602,-83,-27.0945,3.06653,0.00225461,-0.00100617,-0.00141426,0.00278253,-0.00153409,-0.357265,0.0025267,0.0171535,622,1107,-27.0945,-3.06653
-595,-83,-27.0151,3.33655,0.0020872,-0.00157109,-0.00199375,0.00296376,-0.00244764,-0.414215,0.003129,0.0197464,629,1107,-27.0152,-3.33654
-588,-83,-26.9583,3.54163,0,0,0,0,0,0,0,-1,636,1107,-26.9583,-3.54165
-581,-83,-28.8571,0.598511,0,0,0,0,0,0,0,-1,643,1107,-28.857,-0.598499
-574,-83,-28.7648,0.507324,0.00203396,-0.00266515,-0.00278106,0.00332511,-0.0039563,-0.434653,0.00420919,0.0335107,650,1107,-28.7648,-0.507303
-567,-83,-28.7577,0.626953,0.00174041,-0.00290476,-0.00306294,0.00326178,-0.00442613,-0.461006,0.00445555,0.0409383,657,1107,-28.7577,-0.627012
-560,-83,-28.7534,0.85437,0.00124165,-0.00300794,-0.00343071,0.00315227,-0.00491856,-0.508137,0.00469674,0.0419489,664,1107,-28.7534,-0.854407
-553,-83,-28.7709,0.815186,0.000279762,-0.0029329,-0.00401121,0.00299432,-0.00564746,-0.594946,0.0050671,0.0421041,671,1107,-28.7709,-0.815237
-546,-83,-28.7709,0.698486,-0.00108191,-0.00258249,-0.00482024,0.00304608,-0.00671048,-0.70819,0.00576386,0.0408506,678,1107,-28.7709,-0.698474
-539,-83,-28.7875,0.453003,-0.00237892,-0.00191441,-0.00604664,0.00390443,-0.00819776,-0.804594,0.00713226,0.0421408,685,1107,-28.7875,-0.452942
-532,-83,-28.6872,0.512695,-0.00376082,-0.000818541,-0.00789083,0.00573711,-0.0103165,-0.877558,0.0093934,0.0449154,692,1107,-28.6872,-0.512661
-525,-83,0,0,0,0,0,0,0,0,0,-1,699,1107,0,0
-518,-83,0,0,0,0,0,0,0,0,0,-1,706,1107,0,0
-511,-83,0,0,0,0,0,0,0,0,0,-1,713,1107,0,0
-504,-83,0,0,0,0,0,0,0,0,0,-1,720,1107,0,0
-497,-83,0,0,0,0,0,0,0,0,0,-1,727,1107,0,0
-490,-83,0,0,0,0,0,0,0,0,0,-1,734,1107,0,0
-483,-83,0,0,0,0,0,0,0,0,0,-1,741,1107,0,0
-476,-83,0,0,0,0,0,0,0,0,0,-1,748,1107,0,0
-469,-83,0,0,0,0,0,0,0,0,0,-1,755,1107,0,0
-462,-83,0,0,0,0,0,0,0,0,0,-1,762,1107,0,0
-455,-83,0,0,0,0,0,0,0,0,0,-1,769,1107,0,0
-448,-83,0,0,0,0,0,0,0,0,0,-1,776,1107,0,0
-441,-83,0,0,0,0,0,0,0,0,0,-1,783,1107,0,0
-434,-83,0,0,0,0,0,0,0,0,0,-1,790,1107,0,0
-427,-83,0,0,0,0,0,0,0,0,0,-1,797,1107,0,0
-420,-83,0,0,0,0,0,0,0,0,0,-1,804,1107,0,0
-413,-83,0,0,0,0,0,0,0,0,0,-1,811,1107,0,0
-406,-83,0,0,0,0,0,0,0,0,0,-1,818,1107,0,0
-399,-83,0,0,0,0,0,0,0,0,0,-1,825,1107,0,0
-392,-83,0,0,0,0,0,0,0,0,0,-1,832,1107,0,0
-385,-83,0,0,0,0,0,0,0,0,0,-1,839,1107,0,0
-378,-83,0,0,0,0,0,0,0,0,0,-1,846,1107,0,0
-371,-83,0,0,0,0,0,0,0,0,0,-1,853,1107,0,0
-364,-83,0,0,0,0,0,0,0,0,0,-1,860,1107,0,0
-357,-83,0,0,0,0,0,0,0,0,0,-1,867,1107,0,0
-350,-83,0,0,0,0,0,0,0,0,0,-1,874,1107,0,0
-343,-83,0,0,0,0,0,0,0,0,0,-1,881,1107,0,0
-336,-83,0,0,0,0,0,0,0,0,0,-1,888,1107,0,0
-329,-83,0,0,0,0,0,0,0,0,0,-1,895,1107,0,0
-322,-83,0,0,0,0,0,0,0,0,0,-1,902,1107,0,0
-315,-83,0,0,0,0,0,0,0,0,0,-1,909,1107,0,0
-308,-83,0,0,0,0,0,0,0,0,0,-1,916,1107,0,0
-301,-83,0,0,0,0,0,0,0,0,0,-1,923,1107,0,0
-294,-83,0,0,0,0,0,0,0,0,0,-1,930,1107,0,0
-287,-83,0,0,0,0,0,0,0,0,0,-1,937,1107,0,0
-280,-83,0,0,0,0,0,0,0,0,0,-1,944,1107,0,0
-273,-83,0,0,0,0,0,0,0,0,0,-1,951,1107,0,0
-266,-83,0,0,0,0,0,0,0,0,0,-1,958,1107,0,0
-259,-83,0,0,0,0,0,0,0,0,0,-1,965,1107,0,0
-252,-83,0,0,0,0,0,0,0,0,0,-1,972,1107,0,0
-245,-83,0,0,0,0,0,0,0,0,0,-1,979,1107,0,0
-238,-83,0,0,0,0,0,0,0,0,0,-1,986,1107,0,0
-231,-83,0,0,0,0,0,0,0,0,0,-1,993,1107,0,0
-224,-83,0,0,0,0,0,0,0,0,0,-1,1000,1107,0,0
-217,-83,0,0,0,0,0,0,0,0,0,-1,1007,1107,0,0
-210,-83,0,0,0,0,0,0,0,0,0,-1,1014,1107,0,0
-203,-83,0,0,0,0,0,0,0,0,0,-1,1021,1107,0,0
-196,-83,0,0,0,0,0,0,0,0,0,-1,1028,1107,0,0
-189,-83,0,0,0,0,0,0,0,0,0,-1,1035,1107,0,0
-182,-83,0,0,0,0,0,0,0,0,0,-1,1042,1107,0,0
-175,-83,0,0,0,0,0,0,0,0,0,-1,1049,1107,0,0
-168,-83,0,0,0,0,0,0,0,0,0,-1,1056,1107,0,0
-161,-83,0,0,0,0,0,0,0,0,0,-1,1063,1107,0,0
-154,-83,0,0,0,0,0,0,0,0,0,-1,1070,1107,0,0
-147,-83,0,0,0,0,0,0,0,0,0,-1,1077,1107,0,0
-140,-83,0,0,0,0,0,0,0,0,0,-1,1084,1107,0,0
-133,-83,0,0,0,0,0,0,0,0,0,-1,1091,1107,0,0
-126,-83,0,0,0,0,0,0,0,0,0,-1,1098,1107,0,0
-119,-83,0,0,0,0,0,0,0,0,0,-1,1105,1107,0,0
-112,-83,0,0,0,0,0,0,0,0,0,-1,1112,1107,0,0
-105,-83,0,0,0,0,0,0,0,0,0,-1,1119,1107,0,0
-98,-83,0,0,0,0,0,0,0,0,0,-1,1126,1107,0,0
-91,-83,0,0,0,0,0,0,0,0,0,-1,1133,1107,0,0
-84,-83,0,0,0,0,0,0,0,0,0,-1,1140,1107,0,0
-77,-83,0,0,0,0,0,0,0,0,0,-1,1147,1107,0,0
-70,-83,0,0,0,0,0,0,0,0,0,-1,1154,1107,0,0
-63,-83,0,0,0,0,0,0,0,0,0,-1,1161,1107,0,0
-56,-83,0,0,0,0,0,0,0,0,0,-1,1168,1107,0,0
-49,-83,0,0,0,0,0,0,0,0,0,-1,1175,1107,0,0
-42,-83,0,0,0,0,0,0,0,0,0,-1,1182,1107,0,0
-35,-83,0,0,0,0,0,0,0,0,0,-1,1189,1107,0,0
-28,-83,0,0,0,0,0,0,0,0,0,-1,1196,1107,0,0
-21,-83,0,0,0,0,0,0,0,0,0,-1,1203,1107,0,0
-14,-83,0,0,0,0,0,0,0,0,0,-1,1210,1107,0,0
-7,-83,0,0,0,0,0,0,0,0,0,-1,1217,1107,0,0
0,-83,0,0,0,0,0,0,0,0,0,-1,1224,1107,0,0
7,-83,0,0,0,0,0,0,0,0,0,-1,1231,1107,0,0
14,-83,0,0,0,0,0,0,0,0,0,-1,1238,1107,0,0
21,-83,0,0,0,0,0,0,0,0,0,-1,1245,1107,0,0
28,-83,0,0,0,0,0,0,0,0,0,-1,1252,1107,0,0
35,-83,0,0,0,0,0,0,0,0,0,-1,1259,1107,0,0
42,-83,0,0,0,0,0,0,0,0,0,-1,1266,1107,0,0
49,-83,0,0,0,0,0,0,0,0,0,-1,1273,1107,0,0
56,-83,0,0,0,0,0,0,0,0,0,-1,1280,1107,0,0
63,-83,0,0,0,0,0,0,0,0,0,-1,1287,1107,0,0
70,-83,0,0,0,0,0,0,0,0,0,-1,1294,1107,0,0
77,-83,0,0,0,0,0,0,0,0,0,-1,1301,1107,0,0
84,-83,0,0,0,0,0,0,0,0,0,-1,1308,1107,0,0
91,-83,0,0,0,0,0,0,0,0,0,-1,1315,1107,0,0
98,-83,0,0,0,0,0,0,0,0,0,-1,1322,1107,0,0
105,-83,0,0,0,0,0,0,0,0,0,-1,1329,1107,0,0
112,-83,0,0,0,0,0,0,0,0,0,-1,1336,1107,0,0
119,-83,0,0,0,0,0,0,0,0,0,-1,1343,1107,0,0
126,-83,0,0,0,0,0,0,0,0,0,-1,1350,1107,0,0
133,-83,0,0,0,0,0,0,0,0,0,-1,1357,1107,0,0
140,-83,0,0,0,0,0,0,0,0,0,-1,1364,1107,0,0
147,-83,0,0,0,0,0,0,0,0,0,-1,1371,1107,0,0
154,-83,0,0,0,0,0,0,0,0,0,-1,1378,1107,0,0
161,-83,0,0,0,0,0,0,0,0,0,-1,1385,1107,0,0
168,-83,0,0,0,0,0,0,0,0,0,-1,1392,1107,0,0
175,-83,0,0,0,0,0,0,0,0,0,-1,1399,1107,0,0
182,-83,0,0,0,0,0,0,0,0,0,-1,1406,1107,0,0
189,-83,0,0,0,0,0,0,0,0,0,-1,1413,1107,0,0
196,-83,0,0,0,0,0,0,0,0,0,-1,1420,1107,0,0
203,-83,0,0,0,0,0,0,0,0,0,-1,1427,1107,0,0
210,-83,0,0,0,0,0,0,0,0,0,-1,1434,1107,0,0
217,-83,0,0,0,0,0,0,0,0,0,-1,1441,1107,0,0
224,-83,0,0,0,0,0,0,0,0,0,-1,1448,1107,0,0
231,-83,0,0,0,0,0,0,0,0,0,-1,1455,1107,0,0
238,-83,0,0,0,0,0,0,0,0,0,-1,1462,1107,0,0
245,-83,0,0,0,0,0,0,0,0,0,-1,1469,1107,0,0
252,-83,0,0,0,0,0,0,0,0,0,-1,1476,1107,0,0
259,-83,0,0,0,0,0,0,0,0,0,-1,1483,1107,0,0
266,-83,0,0,0,0,0,0,0,0,0,-1,1490,1107,0,0
273,-83,0,0,0,0,0,0,0,0,0,-1,1497,1107,0,0
280,-83,0,0,0,0,0,0,0,0,0,-1,1504,1107,0,0
287,-83,0,0,0,0,0,0,0,0,0,-1,1511,1107,0,0
294,-83,0,0,0,0,0,0,0,0,0,-1,1518,1107,0,0
301,-83,0,0,0,0,0,0,0,0,0,-1,1525,1107,0,0
308,-83,0,0,0,0,0,0,0,0,0,-1,1532,1107,0,0
315,-83,0,0,0,0,0,0,0,0,0,-1,1539,1107,0,0
322,-83,0,0,0,0,0,0,0,0,0,-1,1546,1107,0,0
329,-83,0,0,0,0,0,0,0,0,0,-1,1553,1107,0,0
336,-83,0,0,0,0,0,0,0,0,0,-1,1560,1107,0,0
343,-83,0,0,0,0,0,0,0,0,0,-1,1567,1107,0,0
350,-83,0,0,0,0,0,0,0,0,0,-1,1574,1107,0,0
357,-83,0,0,0,0,0,0,0,0,0,-1,1581,1107,0,0
364,-83,0,0,0,0,0,0,0,0,0,-1,1588,1107,0,0
371,-83,0,0,0,0,0,0,0,0,0,-1,1595,1107,0,0
378,-83,0,0,0,0,0,0,0,0,0,-1,1602,1107,0,0
385,-83,0,0,0,0,0,0,0,0,0,-1,1609,1107,0,0
392,-83,0,0,0,0,0,0,0,0,0,-1,1616,1107,0,0
399,-83,0,0,0,0,0,0,0,0,0,-1,1623,1107,0,0
406,-83,0,0,0,0,0,0,0,0,0,-1,1630,1107,0,0
413,-83,0,0,0,0,0,0,0,0,0,-1,1637,1107,0,0
420,-83,0,0,0,0,0,0,0,0,0,-1,1644,1107,0,0
427,-83,0,0,0,0,0,0,0,0,0,-1,1651,1107,0,0
434,-83,0,0,0,0,0,0,0,0,0,-1,1658,1107,0,0
441,-83,0,0,0,0,0,0,0,0,0,-1,1665,1107,0,0
448,-83,0,0,0,0,0,0,0,0,0,-1,1672,1107,0,0
455,-83,0,0,0,0,0,0,0,0,0,-1,1679,1107,0,0
462,-83,0,0,0,0,0,0,0,0,0,-1,1686,1107,0,0
469,-83,0,0,0,0,0,0,0,0,0,-1,1693,1107,0,0
476,-83,0,0,0,0,0,0,0,0,0,-1,1700,1107,0,0
483,-83,0,0,0,0,0,0,0,0,0,-1,1707,1107,0,0
490,-83,0,0,0,0,0,0,0,0,0,-1,1714,1107,0,0
497,-83,0,0,0,0,0,0,0,0,0,-1,1721,1107,0,0
504,-83,0,0,0,0,0,0,0,0,0,-1,1728,1107,0,0
511,-83,0,0,0,0,0,0,0,0,0,-1,1735,1107,0,0
518,-83,0,0,0,0,0,0,0,0,0,-1,1742,1107,0,0
525,-83,0,0,0,0,0,0,0,0,0,-1,1749,1107,0,0
532,-83,0,0,0,0,0,0,0,0,0,-1,1756,1107,0,0
539,-83,0,0,0,0,0,0,0,0,0,-1,1763,1107,0,0
546,-83,0,0,0,0,0,0,0,0,0,-1,1770,1107,0,0
553,-83,0,0,0,0,0,0,0,0,0,-1,1777,1107,0,0
560,-83,0,0,0,0,0,0,0,0,0,-1,1784,1107,0,0
567,-83,0,0,0,0,0,0,0,0,0,-1,1791,1107,0,0
574,-83,0,0,0,0,0,0,0,0,0,-1,1798,1107,0,0
581,-83,0,0,0,0,0,0,0,0,0,-1,1805,1107,0,0
588,-83,0,0,0,0,0,0,0,0,0,-1,1812,1107,0,0
595,-83,0,0,0,0,0,0,0,0,0,-1,1819,1107,0,0
602,-83,0,0,0,0,0,0,0,0,0,-1,1826,1107,0,0
609,-83,0,0,0,0,0,0,0,0,0,-1,1833,1107,0,0
616,-83,0,0,0,0,0,0,0,0,0,-1,1840,1107,0,0
623,-83,0,0,0,0,0,0,0,0,0,-1,1847,1107,0,0
630,-83,0,0,0,0,0,0,0,0,0,-1,1854,1107,0,0
637,-83,0,0,0,0,0,0,0,0,0,-1,1861,1107,0,0
644,-83,39.5197,2.53296,0.0107891,0.000813447,0.00849467,0.0156521,-0.0040495,0.519931,0.0120142,0.0355154,1868,1107,39.5197,-2.53298
651,-83,39.5088,2.4364,0.00839601,0.000612153,0.00562267,0.0113423,-0.00233416,0.482667,0.00844778,0.0404977,1875,1107,39.5088,-2.43638
658,-83,39.5995,2.73022,0.00652603,0.000325114,0.0035804,0.00816182,-0.00131068,0.428556,0.00592662,0.0434971,1882,1107,39.5995,-2.73022
665,-83,39.5172,2.52808,0.00484619,9.94229e-05,0.00218036,0.00569569,-0.00075007,0.371518,0.00407025,0.0410085,1889,1107,39.5173,-2.52813
672,-83,39.5211,2.59241,0.00343473,-0.000199402,0.00124199,0.00381864,-0.000583307,0.299788,0.00276081,0.0386411,1896,1107,39.5211,-2.59246
679,-83,39.5297,2.71936,0.00196213,-0.0005857,0.000810863,0.0021983,-0.000821871,0.283418,0.00180305,0.0383542,1903,1107,39.5297,-2.71937
686,-83,39.5382,2.62219,0.000721777,-0.00101151,0.000735772,0.000991985,-0.00128172,0.351954,0.00131627,0.0354789,1910,1107,39.5383,-2.62225
693,-83,39.5603,2.55005,-9.62241e-05,-0.00135976,0.00082776,0.000313314,-0.00176929,0.459443,0.00129665,0.0341794,1917,1107,39.5603,-2.55
700,-83,39.5562,2.59143,-0.000713001,-0.0015986,0.00092657,-0.000128861,-0.00218274,0.562497,0.00141416,0.0323095,1924,1107,39.5562,-2.59148
707,-83,39.5258,2.56372,-0.00137818,-0.00165617,0.00104351,-0.000464452,-0.0025699,0.719189,0.00158135,0.0258075,1931,1107,39.5257,-2.56369
714,-83,39.4792,2.41479,0,0,0,0,0,0,0,-1,1938,1107,39.4793,-2.41485
721,-83,37.6167,6.12097,0,0,0,0,0,0,0,-1,1945,1107,37.6167,-6.12095
728,-83,37.5995,5.87341,-0.00282461,-0.00107329,0.00187081,0.000116651,-0.00401455,1.00429,0.00271608,0.0320297,1952,1107,37.5995,-5.87343
735,-83,37.3951,5.64514,-0.00320518,-0.000605646,0.00194953,0.000437675,-0.0042485,1.07941,0.00298893,0.0331809,1959,1107,37.3952,-5.64517
742,-83,37.5463,5.43884,-0.0034881,-1.86479e-05,0.00182878,0.000767284,-0.00427403,1.1649,0.00313655,0.0200329,1966,1107,37.5463,-5.4388
749,-83,37.5751,5.19446,-0.0037239,0.000759696,0.00166214,0.00130866,-0.00427287,1.2518,0.00337058,0.0150404,1973,1107,37.5751,-5.19451
756,-83,37.5956,4.9939,-0.00396625,0.00161476,0.00114287,0.00183973,-0.00419122,1.37644,0.0035691,0.0160111,1980,1107,37.5956,-4.99387
763,-83,37.5881,4.75208,-0.00407838,0.002432,0.000427779,0.00245999,-0.00410637,1.50546,0.00383061,0.0127286,1987,1107,37.5881,-4.75208
770,-83,37.511,4.57458,-0.00423018,0.00327828,-0.00048712,0.00330975,-0.00426165,-1.50628,0.00438285,0.0156699,1994,1107,37.511,-4.57457
777,-83,37.417,4.39124,-0.00434081,0.00372435,-0.00144845,0.00397659,-0.00459305,-1.39838,0.00495195,0.0172113,2001,1107,37.417,-4.39126
784,-83,37.4005,4.20239,-0.00457762,0.00362178,-0.00242128,0.0042834,-0.00523924,-1.30406,0.00550712,0.0269532,2008,1107,37.4005,-4.20234
791,-83,37.8965,3.76477,0,0,0,0,0,0,0,-1,2015,1107,37.8965,-3.76471
798,-83,37.6331,0.573608,0,0,0,0,0,0,0,-1,2022,1107,37.6332,-0.573653
805,-83,37.1318,3.69934,0,0,0,0,0,0,0,-1,2029,1107,37.132,-3.69938
812,-83,36.9573,2.95044,0,0,0,0,0,0,0,-1,2036,1107,36.9573,-2.95046
-700,-90,0,0,0,0,0,0,0,0,0,-1,524,1114,0,0
-693,-90,-25.9318,-2.74646,-0.00713334,-0.000804152,-0.00792033,0.0045604,-0.0124979,-0.975459,0.0101978,0.0453298,531,1114,-25.9318,2.74643
-686,-90,-25.9625,-2.11633,-0.00288885,0.00384898,-0.00337816,0.00525097,-0.00429085,-1.17741,0.00551826,0.0445089,538,1114,-25.9624,2.1163
-679,-90,-25.8296,-1.48645,0,0,0,0,0,0,0,-1,545,1114,-25.8296,1.48645
-672,-90,-26.0422,-0.800659,0.00238531,0.00914508,0.00241199,0.00991746,0.00161293,1.26089,0.00614496,0.046924,552,1114,-26.0422,0.800709
-665,-90,-26.332,-0.19873,0.0035731,0.00981857,0.00388889,0.0116833,0.00170835,1.12368,0.00728649,0.0480604,559,1114,-26.3321,0.198706
-658,-90,-26.4522,0.365356,0.00378875,0.00944516,0.00445217,0.0118915,0.00134243,1.06836,0.00752022,0.045985,566,1114,-26.4522,-0.36541
-651,-90,-26.644,0.944214,0.00340193,0.0083605,0.00431861,0.0108609,0.000901536,1.04597,0.00695958,0.033217,573,1114,-26.644,-0.944182
-644,-90,-26.7252,1.3949,0.00288767,0.00665425,0.00376363,0.00897949,0.000562428,1.01738,0.00580794,0.01509,580,1114,-26.7252,-1.3949
-637,-90,-26.7441,1.74585,0.0025849,0.00540819,0.0029662,0.00728152,0.000711563,1.00749,0.0046354,0.0116516,587,1114,-26.7441,-1.74587
-630,-90,-26.7592,2.02173,0.00207278,0.00387973,0.00180226,0.00499228,0.000960218,1.01774,0.00305878,0.0112794,594,1114,-26.7592,-2.02178
-623,-90,-26.7657,2.28491,0.00184278,0.00185254,0.000805749,0.00265343,0.0010419,0.788425,0.00154368,0.0102487,601,1114,-26.7657,-2.28489
-616,-90,-26.7812,2.5603,0.00212862,0.000787851,0.000135621,0.0021422,0.00077427,0.0998043,0.00125253,0.0121436,608,1114,-26.7812,-2.56032
-609,-90,-26.7971,2.81055,0.00247552,-0.000162855,-3.81956e-05,0.00247607,-0.000163408,-0.0144729,0.00170779,0.0168315,615,1114,-26.7971,-2.81057
-602,-90,-26.866,3.07117,0.00255304,-0.00119583,-0.000470964,0.0026113,-0.00125409,-0.12308,0.00227708,0.017129,622,1114,-26.866,-3.07123
-595,-90,-26.7181,3.42285,0.00237162,-0.00171689,-0.000979454,0.00259415,-0.00193942,-0.223405,0.00262654,0.0135147,629,1114,-26.7181,-3.42284
-588,-90,-26.6406,3.6853,0,0,0,0,0,0,0,-1,636,1114,-26.6406,-3.68532
-581,-90,-28.8753,0.691162,0,0,0,0,0,0,0,-1,643,1114,-28.8753,-0.691155
-574,-90,-28.7895,0.670166,0.00231735,-0.00288048,-0.0018363,0.00290062,-0.00346376,-0.307559,0.00367927,0.0334747,650,1114,-28.7895,-0.670135
-567,-90,-28.8035,0.654053,0.00203409,-0.00316123,-0.00220688,0.00284497,-0.00397211,-0.35212,0.00395373,0.0353146,657,1114,-28.8034,-0.65408
-560,-90,-28.7472,0.860474,0.00152909,-0.00330642,-0.00271962,0.00275027,-0.0045276,-0.422045,0.00424344,0.0402721,664,1114,-28.7472,-0.860499
-553,-90,-28.662,1.16821,0.000464412,-0.00326095,-0.00354066,0.00260246,-0.005399,-0.54325,0.00471275,0.0406614,671,1114,-28.662,-1.16826
-546,-90,-28.7343,1.1676,-0.00111164,-0.00292183,-0.00467037,0.00274053,-0.006774,-0.689687,0.00565536,0.0404262,678,1114,-28.7343,-1.16754
-539,-90,-28.7906,0.618652,-0.0027705,-0.00222337,-0.00619906,0.00370816,-0.00870203,-0.807449,0.00735585,0.0423756,685,1114,-28.7906,-0.618648
-532,-90,-28.7563,0.00524902,0,0,0,0,0,0,0,-1,692,1114,-28.7563,-0.00521133
-525,-90,0,0,0,0,0,0,0,0,0,-1,699,1114,0,0
-518,-90,0,0,0,0,0,0,0,0,0,-1,706,1114,0,0
-511,-90,0,0,0,0,0,0,0,0,0,-1,713,1114,0,0
-504,-90,0,0,0,0,0,0,0,0,0,-1,720,1114,0,0
-497,-90,0,0,0,0,0,0,0,0,0,-1,727,1114,0,0
-490,-90,0,0,0,0,0,0,0,0,0,-1,734,1114,0,0
-483,-90,0,0,0,0,0,0,0,0,0,-1,741,1114,0,0
-476,-90,0,0,0,0,0,0,0,0,0,-1,748,1114,0,0
-469,-90,0,0,0,0,0,0,0,0,0,-1,755,1114,0,0
-462,-90,0,0,0,0,0,0,0,0,0,-1,762,1114,0,0
-455,-90,0,0,0,0,0,0,0,0,0,-1,769,1114,0,0
-448,-90,0,0,0,0,0,0,0,0,0,-1,776,1114,0,0
-441,-90,0,0,0,0,0,0,0,0,0,-1,783,1114,0,0
-434,-90,0,0,0,0,0,0,0,0,0,-1,790,1114,0,0
-427,-90,0,0,0,0,0,0,0,0,0,-1,797,1114,0,0
-420,-90,0,0,0,0,0,0,0,0,0,-1,804,1114,0,0
-413,-90,0,0,0,0,0,0,0,0,0,-1,811,1114,0,0
-406,-90,0,0,0,0,0,0,0,0,0,-1,818,1114,0,0
-399,-90,0,0,0,0,0,0,0,0,0,-1,825,1114,0,0
-392,-90,0,0,0,0,0,0,0,0,0,-1,832,1114,0,0
-385,-90,0,0,0,0,0,0,0,0,0,-1,839,1114,0,0
-378,-90,0,0,0,0,0,0,0,0,0,-1,846,1114,0,0
-371,-90,0,0,0,0,0,0,0,0,0,-1,853,1114,0,0
-364,-90,0,0,0,0,0,0,0,0,0,-1,860,1114,0,0
-357,-90,0,0,0,0,0,0,0,0,0,-1,867,1114,0,0
-350,-90,0,0,0,0,0,0,0,0,0,-1,874,1114,0,0
-343,-90,0,0,0,0,0,0,0,0,0,-1,881,1114,0,0
-336,-90,0,0,0,0,0,0,0,0,0,-1,888,1114,0,0
-329,-90,0,0,0,0,0,0,0,0,0,-1,895,1114,0,0
-322,-90,0,0,0,0,0,0,0,0,0,-1,902,1114,0,0
-315,-90,0,0,0,0,0,0,0,0,0,-1,909,1114,0,0
-308,-90,0,0,0,0,0,0,0,0,0,-1,916,1114,0,0
-301,-90,0,0,0,0,0,0,0,0,0,-1,923,1114,0,0
-294,-90,0,0,0,0,0,0,0,0,0,-1,930,1114,0,0
-287,-90,0,0,0,0,0,0,0,0,0,-1,937,1114,0,0
-280,-90,0,0,0,0,0,0,0,0,0,-1,944,1114,0,0
-273,-90,0,0,0,0,0,0,0,0,0,-1,951,1114,0,0
-266,-90,0,0,0,0,0,0,0,0,0,-1,958,1114,0,0
-259,-90,0,0,0,0,0,0,0,0,0,-1,965,1114,0,0
-252,-90,0,0,0,0,0,0,0,0,0,-1,972,1114,0,0
-245,-90,0,0,0,0,0,0,0,0,0,-1,979,1114,0,0
-238,-90,0,0,0,0,0,0,0,0,0,-1,986,1114,0,0
-231,-90,0,0,0,0,0,0,0,0,0,-1,993,1114,0,0
-224,-90,0,0,0,0,0,0,0,0,0,-1,1000,1114,0,0
-217,-90,0,0,0,0,0,0,0,0,0,-1,1007,1114,0,0
-210,-90,0,0,0,0,0,0,0,0,0,-1,1014,1114,0,0
-203,-90,0,0,0,0,0,0,0,0,0,-1,1021,1114,0,0
-196,-90,0,0,0,0,0,0,0,0,0,-1,1028,1114,0,0
-189,-90,0,0,0,0,0,0,0,0,0,-1,1035,1114,0,0
-182,-90,0,0,0,0,0,0,0,0,0,-1,1042,1114,0,0
-175,-90,0,0,0,0,0,0,0,0,0,-1,1049,1114,0,0
-168,-90,0,0,0,0,0,0,0,0,0,-1,1056,1114,0,0
-161,-90,0,0,0,0,0,0,0,0,0,-1,1063,1114,0,0
-154,-90,0,0,0,0,0,0,0,0,0,-1,1070,1114,0,0
-147,-90,0,0,0,0,0,0,0,0,0,-1,1077,1114,0,0
-140,-90,0,0,0,0,0,0,0,0,0,-1,1084,1114,0,0
-133,-90,0,0,0,0,0,0,0,0,0,-1,1091,1114,0,0
-126,-90,0,0,0,0,0,0,0,0,0,-1,1098,1114,0,0
-119,-90,0,0,0,0,0,0,0,0,0,-1,1105,1114,0,0
-112,-90,0,0,0,0,0,0,0,0,0,-1,1112,1114,0,0
-105,-90,0,0,0,0,0,0,0,0,0,-1,1119,1114,0,0
-98,-90,0,0,0,0,0,0,0,0,0,-1,1126,1114,0,0
-91,-90,0,0,0,0,0,0,0,0,0,-1,1133,1114,0,0
-84,-90,0,0,0,0,0,0,0,0,0,-1,1140,1114,0,0
-77,-90,0,0,0,0,0,0,0,0,0,-1,1147,1114,0,0
-70,-90,0,0,0,0,0,0,0,0,0,-1,1154,1114,0,0
-63,-90,0,0,0,0,0,0,0,0,0,-1,1161,1114,0,0
-56,-90,0,0,0,0,0,0,0,0,0,-1,1168,1114,0,0
-49,-90,0,0,0,0,0,0,0,0,0,-1,1175,1114,0,0
-42,-90,0,0,0,0,0,0,0,0,0,-1,1182,1114,0,0
-35,-90,0,0,0,0,0,0,0,0,0,-1,1189,1114,0,0
-28,-90,0,0,0,0,0,0,0,0,0,-1,1196,1114,0,0
-21,-90,0,0,0,0,0,0,0,0,0,-1,1203,1114,0,0
-14,-90,0,0,0,0,0,0,0,0,0,-1,1210,1114,0,0
-7,-90,0,0,0,0,0,0,0,0,0,-1,1217,1114,0,0
0,-90,0,0,0,0,0,0,0,0,0,-1,1224,1114,0,0
7,-90,0,0,0,0,0,0,0,0,0,-1,1231,1114,0,0
14,-90,0,0,0,0,0,0,0,0,0,-1,1238,1114,0,0
21,-90,0,0,0,0,0,0,0,0,0,-1,1245,1114,0,0
28,-90,0,0,0,0,0,0,0,0,0,-1,1252,1114,0,0
35,-90,0,0,0,0,0,0,0,0,0,-1,1259,1114,0,0
42,-90,0,0,0,0,0,0,0,0,0,-1,1266,1114,0,0
49,-90,0,0,0,0,0,0,0,0,0,-1,1273,1114,0,0
56,-90,0,0,0,0,0,0,0,0,0,-1,1280,1114,0,0
63,-90,0,0,0,0,0,0,0,0,0,-1,1287,1114,0,0
70,-90,0,0,0,0,0,0,0,0,0,-1,1294,1114,0,0
77,-90,0,0,0,0,0,0,0,0,0,-1,1301,1114,0,0
84,-90,0,0,0,0,0,0,0,0,0,-1,1308,1114,0,0
91,-90,0,0,0,0,0,0,0,0,0,-1,1315,1114,0,0
98,-90,0,0,0,0,0,0,0,0,0,-1,1322,1114,0,0
105,-90,0,0,0,0,0,0,0,0,0,-1,1329,1114,0,0
112,-90,0,0,0,0,0,0,0,0,0,-1,1336,1114,0,0
119,-90,0,0,0,0,0,0,0,0,0,-1,1343,1114,0,0
126,-90,0,0,0,0,0,0,0,0,0,-1,1350,1114,0,0
133,-90,0,0,0,0,0,0,0,0,0,-1,1357,1114,0,0
140,-90,0,0,0,0,0,0,0,0,0,-1,1364,1114,0,0
147,-90,0,0,0,0,0,0,0,0,0,-1,1371,1114,0,0
154,-90,0,0,0,0,0,0,0,0,0,-1,1378,1114,0,0
161,-90,0,0,0,0,0,0,0,0,0,-1,1385,1114,0,0
168,-90,0,0,0,0,0,0,0,0,0,-1,1392,1114,0,0
175,-90,0,0,0,0,0,0,0,0,0,-1,1399,1114,0,0
182,-90,0,0,0,0,0,0,0,0,0,-1,1406,1114,0,0
189,-90,0,0,0,0,0,0,0,0,0,-1,1413,1114,0,0
196,-90,0,0,0,0,0,0,0,0,0,-1,1420,1114,0,0
203,-90,0,0,0,0,0,0,0,0,0,-1,1427,1114,0,0
210,-90,0,0,0,0,0,0,0,0,0,-1,1434,1114,0,0
217,-90,0,0,0,0,0,0,0,0,0,-1,1441,1114,0,0
224,-90,0,0,0,0,0,0,0,0,0,-1,1448,1114,0,0
231,-90,0,0,0,0,0,0,0,0,0,-1,1455,1114,0,0
238,-90,0,0,0,0,0,0,0,0,0,-1,1462,1114,0,0
245,-90,0,0,0,0,0,0,0,0,0,-1,1469,1114,0,0
252,-90,0,0,0,0,0,0,0,0,0,-1,1476,1114,0,0
259,-90,0,0,0,0,0,0,0,0,0,-1,1483,1114,0,0
266,-90,0,0,0,0,0,0,0,0,0,-1,1490,1114,0,0
273,-90,0,0,0,0,0,0,0,0,0,-1,1497,1114,0,0
280,-90,0,0,0,0,0,0,0,0,0,-1,1504,1114,0,0
287,-90,0,0,0,0,0,0,0,0,0,-1,1511,1114,0,0
294,-90,0,0,0,0,0,0,0,0,0,-1,1518,1114,0,0
301,-90,0,0,0,0,0,0,0,0,0,-1,1525,1114,0,0
308,-90,0,0,0,0,0,0,0,0,0,-1,1532,1114,0,0
315,-90,0,0,0,0,0,0,0,0,0,-1,1539,1114,0,0
322,-90,0,0,0,0,0,0,0,0,0,-1,1546,1114,0,0
329,-90,0,0,0,0,0,0,0,0,0,-1,1553,1114,0,0
336,-90,0,0,0,0,0,0,0,0,0,-1,1560,1114,0,0
343,-90,0,0,0,0,0,0,0,0,0,-1,1567,1114,0,0
350,-90,0,0,0,0,0,0,0,0,0,-1,1574,1114,0,0
357,-90,0,0,0,0,0,0,0,0,0,-1,1581,1114,0,0
364,-90,0,0,0,0,0,0,0,0,0,-1,1588,1114,0,0
371,-90,0,0,0,0,0,0,0,0,0,-1,1595,1114,0,0
378,-90,0,0,0,0,0,0,0,0,0,-1,1602,1114,0,0
385,-90,0,0,0,0,0,0,0,0,0,-1,1609,1114,0,0
392,-90,0,0,0,0,0,0,0,0,0,-1,1616,1114,0,0
399,-90,0,0,0,0,0,0,0,0,0,-1,1623,1114,0,0
406,-90,0,0,0,0,0,0,0,0,0,-1,1630,1114,0,0
413,-90,0,0,0,0,0,0,0,0,0,-1,1637,1114,0,0
420,-90,0,0,0,0,0,0,0,0,0,-1,1644,1114,0,0
427,-90,0,0,0,0,0,0,0,0,0,-1,1651,1114,0,0
434,-90,0,0,0,0,0,0,0,0,0,-1,1658,1114,0,0
441,-90,0,0,0,0,0,0,0,0,0,-1,1665,1114,0,0
448,-90,0,0,0,0,0,0,0,0,0,-1,1672,1114,0,0
455,-90,0,0,0,0,0,0,0,0,0,-1,1679,1114,0,0
462,-90,0,0,0,0,0,0,0,0,0,-1,1686,1114,0,0
469,-90,0,0,0,0,0,0,0,0,0,-1,1693,1114,0,0
476,-90,0,0,0,0,0,0,0,0,0,-1,1700,1114,0,0
483,-90,0,0,0,0,0,0,0,0,0,-1,1707,1114,0,0
490,-90,0,0,0,0,0,0,0,0,0,-1,1714,1114,0,0
497,-90,0,0,0,0,0,0,0,0,0,-1,1721,1114,0,0
504,-90,0,0,0,0,0,0,0,0,0,-1,1728,1114,0,0
511,-90,0,0,0,0,0,0,0,0,0,-1,1735,1114,0,0
518,-90,0,0,0,0,0,0,0,0,0,-1,1742,1114,0,0
525,-90,0,0,0,0,0,0,0,0,0,-1,1749,1114,0,0
532,-90,0,0,0,0,0,0,0,0,0,-1,1756,1114,0,0
539,-90,0,0,0,0,0,0,0,0,0,-1,1763,1114,0,0
546,-90,0,0,0,0,0,0,0,0,0,-1,1770,1114,0,0
553,-90,0,0,0,0,0,0,0,0,0,-1,1777,1114,0,0
560,-90,0,0,0,0,0,0,0,0,0,-1,1784,1114,0,0
567,-90,0,0,0,0,0,0,0,0,0,-1,1791,1114,0,0
574,-90,0,0,0,0,0,0,0,0,0,-1,1798,1114,0,0
581,-90,0,0,0,0,0,0,0,0,0,-1,1805,1114,0,0
588,-90,0,0,0,0,0,0,0,0,0,-1,1812,1114,0,0
595,-90,0,0,0,0,0,0,0,0,0,-1,1819,1114,0,0
602,-90,0,0,0,0,0,0,0,0,0,-1,1826,1114,0,0
609,-90,0,0,0,0,0,0,0,0,0,-1,1833,1114,0,0
616,-90,0,0,0,0,0,0,0,0,0,-1,1840,1114,0,0
623,-90,0,0,0,0,0,0,0,0,0,-1,1847,1114,0,0
630,-90,0,0,0,0,0,0,0,0,0,-1,1854,1114,0,0
637,-90,0,0,0,0,0,0,0,0,0,-1,1861,1114,0,0
644,-90,39.4709,2.51575,0.0110468,0.00130978,0.00867241,0.0161238,-0.00376721,0.529629,0.0122004,0.0337793,1868,1114,39.4709,-2.51573
651,-90,39.4338,2.61426,0.00855397,0.000956165,0.00588491,0.0117596,-0.00224949,0.498784,0.00868721,0.0372654,1875,1114,39.4338,-2.61422
658,-90,39.5017,2.78894,0.00663843,0.000569221,0.0038787,0.00852857,-0.00132092,0.453447,0.00617331,0.0421427,1882,1114,39.5017,-2.78898
665,-90,39.5203,2.48242,0.0049038,0.000250576,0.00245283,0.00595794,-0.000803569,0.405901,0.00426513,0.0431382,1889,1114,39.5203,-2.48242
672,-90,39.5762,2.27124,0,0,0,0,0,0,0,-1,1896,1114,39.5762,-2.27126
679,-90,39.5344,2.66382,0.00193122,-0.000552738,0.000946042,0.0022505,-0.000872011,0.32548,0.00186042,0.03972,1903,1114,39.5344,-2.66383
686,-90,39.4883,2.69287,0.000713872,-0.000986362,0.000777166,0.00101557,-0.00128806,0.370299,0.0013331,0.0348843,1910,1114,39.4882,-2.69286
693,-90,39.5223,2.6322,-6.83076e-05,-0.00132383,0.000770662,0.000297914,-0.00169006,0.443615,0.00123801,0.0335095,1917,1114,39.5223,-2.63224
700,-90,39.5582,2.61584,-0.000657002,-0.00155822,0.000767263,-0.000217812,-0.00199741,0.519887,0.00126526,0.0299393,1924,1114,39.5582,-2.61585
707,-90,39.4957,2.48047,-0.00130228,-0.00161629,0.000824073,-0.000620388,-0.00229818,0.691264,0.00137287,0.0250851,1931,1114,39.4958,-2.48044
714,-90,39.4398,2.29822,0,0,0,0,0,0,0,-1,1938,1114,39.4398,-2.29823
721,-90,37.3206,6.17944,0,0,0,0,0,0,0,-1,1945,1114,37.3206,-6.17945
728,-90,37.323,5.98364,-0.00269428,-0.00106344,0.00156691,-0.00011247,-0.00364525,1.02531,0.00239356,0.0253304,1952,1114,37.3229,-5.98362
735,-90,37.2374,5.69446,-0.00307704,-0.000647548,0.00164614,0.000183527,-0.00390812,1.10327,0.00266869,0.0299444,1959,1114,37.2374,-5.69443
742,-90,37.2987,5.40759,-0.00343625,-0.000106632,0.00158059,0.000524172,-0.00406705,1.19107,0.00290192,0.0247343,1966,1114,37.2987,-5.40763
749,-90,37.4309,5.10791,-0.00376508,0.000669048,0.00144488,0.00109831,-0.00419435,1.28201,0.00322528,0.0166316,1973,1114,37.4309,-5.10786
756,-90,37.4047,4.93115,-0.00411856,0.00157189,0.000933968,0.00172126,-0.00426793,1.41221,0.00356053,0.0157697,1980,1114,37.4047,-4.93119
763,-90,37.3673,4.72461,-0.0043851,0.0024488,0.000233353,0.00245676,-0.00439306,1.5367,0.00400707,0.0131799,1987,1114,37.3673,-4.72464
770,-90,37.3147,4.49353,-0.00472096,0.0034098,-0.000709362,0.00347122,-0.00478238,-1.48442,0.00478522,0.0166386,1994,1114,37.3147,-4.49349
777,-90,37.2412,4.33411,-0.00498408,0.00410966,-0.00178908,0.00444897,-0.0053234,-1.38336,0.00564961,0.0152173,2001,1114,37.2412,-4.33416
784,-90,37.1821,4.24084,-0.00531942,0.00443849,-0.00299694,0.00528543,-0.00616636,-1.29538,0.00661821,0.0278071,2008,1114,37.1821,-4.2408
791,-90,38.1658,-0.25061,0,0,0,0,0,0,0,-1,2015,1114,38.1657,0.250608
798,-90,37.9014,0.572876,0,0,0,0,0,0,0,-1,2022,1114,37.9014,-0.572818
805,-90,37.5593,1.56287,0,0,0,0,0,0,0,-1,2029,1114,37.5593,-1.56292
812,-90,36.8816,2.75049,0,0,0,0,0,0,0,-1,2036,1114,36.8816,-2.75045
-700,-97,0,0,0,0,0,0,0,0,0,-1,524,1121,0,0
-693,-97,-25.3606,-2.04163,0,0,0,0,0,0,0,-1,531,1121,-25.3606,2.04168
-686,-97,-25.5007,-1.54211,0,0,0,0,0,0,0,-1,538,1121,-25.5007,1.54212
-679,-97,-25.6016,-1.13208,0,0,0,0,0,0,0,-1,545,1121,-25.6015,1.13213
-672,-97,-25.5099,-0.707886,0,0,0,0,0,0,0,-1,552,1121,-25.5099,0.707896
-665,-97,-26.0806,-0.171021,0,0,0,0,0,0,0,-1,559,1121,-26.0806,0.170997
-658,-97,-26.239,0.406372,0.000183414,0.00573053,0.00215169,0.00646729,-0.000553355,1.2409,0.00450732,0.0459021,566,1121,-26.239,-0.406395
-651,-97,-26.4059,1.00928,0.000716908,0.005688,0.00238438,0.00664676,-0.000241849,1.18848,0.00451395,0.0330912,573,1121,-26.4059,-1.00934
-644,-97,-26.4526,1.4071,0.000922311,0.00496387,0.00218312,0.00591792,-3.17309e-05,1.1588,0.0039559,0.0119231,580,1121,-26.4525,-1.40715
-637,-97,-26.4586,1.71765,0.00121354,0.00430484,0.00179723,0.00512965,0.000388733,1.14054,0.00329783,0.0118904,587,1121,-26.4585,-1.7177
-630,-97,-26.4649,1.99524,0.00115734,0.00310623,0.00112996,0.00362388,0.000639691,1.14122,0.00223344,0.00972523,594,1121,-26.4649,-1.99521
-623,-97,-26.4707,2.29126,0.00128716,0.00134553,0.000561975,0.00187908,0.000753612,0.811344,0.00109194,0.011543,601,1121,-26.4707,-2.29125
-616,-97,-26.4896,2.58093,0.00176226,0.000398393,0.000231996,0.00180065,0.00036001,0.16396,0.00110024,0.0169419,608,1121,-26.4895,-2.58088
-609,-97,-26.5641,2.86279,0.00226368,-0.000431799,0.000296599,0.00229593,-0.00046405,0.108309,0.00170647,0.0230352,615,1121,-26.5641,-2.86278
-602,-97,-26.5989,3.08655,0.00244732,-0.00147668,3.75528e-05,0.00244767,-0.00147704,0.00956889,0.00228892,0.0205458,622,1121,-26.5989,-3.08659
-595,-97,-26.4756,3.39795,0.00226806,-0.0018721,-0.000415428,0.00230933,-0.00191338,-0.0990256,0.00244155,0.016407,629,1121,-26.4756,-3.39798
-588,-97,-26.4549,3.69434,0,0,0,0,0,0,0,-1,636,1121,-26.4549,-3.69437
-581,-97,-28.9616,0.700073,0,0,0,0,0,0,0,-1,643,1121,-28.9616,-0.700074
-574,-97,-28.8513,0.855225,0.00226046,-0.00289584,-0.00122193,0.00253537,-0.00317075,-0.221297,0.00330123,0.0436654,650,1121,-28.8512,-0.855221
-567,-97,-28.8039,0.875366,0.00203678,-0.00313366,-0.00159666,0.0024901,-0.00358697,-0.276634,0.0035276,0.0354516,657,1121,-28.8039,-0.875423
-560,-97,-28.7289,0.947632,0.0016001,-0.00323778,-0.00213336,0.00240644,-0.00404413,-0.361373,0.00376403,0.0410511,664,1121,-28.729,-0.94765
-553,-97,-28.5429,1.53015,0.000515661,-0.00316007,-0.00303011,0.00222171,-0.00486611,-0.512793,0.00418602,0.0473921,671,1121,-28.5429,-1.53016
-546,-97,-28.7027,1.5061,-0.00117475,-0.00281796,-0.00425587,0.0023381,-0.00633081,-0.690045,0.00517893,0.0440619,678,1121,-28.7027,-1.50606
-539,-97,-28.8211,0.880981,-0.00318256,-0.00220872,-0.00588042,0.00320491,-0.00859618,-0.826706,0.00704638,0.0411111,685,1121,-28.8211,-0.881028
-532,-97,-28.8235,0.62793,-0.00496994,-0.00126077,-0.00733149,0.00444707,-0.0106778,-0.90928,0.00897592,0.0394277,692,1121,-28.8235,-0.627904
-525,-97,0,0,0,0,0,0,0,0,0,-1,699,1121,0,0
-518,-97,0,0,0,0,0,0,0,0,0,-1,706,1121,0,0
-511,-97,0,0,0,0,0,0,0,0,0,-1,713,1121,0,0
-504,-97,0,0,0,0,0,0,0,0,0,-1,720,1121,0,0
-497,-97,0,0,0,0,0,0,0,0,0,-1,727,1121,0,0
-490,-97,0,0,0,0,0,0,0,0,0,-1,734,1121,0,0
-483,-97,0,0,0,0,0,0,0,0,0,-1,741,1121,0,0
-476,-97,0,0,0,0,0,0,0,0,0,-1,748,1121,0,0
-469,-97,0,0,0,0,0,0,0,0,0,-1,755,1121,0,0
-462,-97,0,0,0,0,0,0,0,0,0,-1,762,1121,0,0
-455,-97,0,0,0,0,0,0,0,0,0,-1,769,1121,0,0
-448,-97,0,0,0,0,0,0,0,0,0,-1,776,1121,0,0
-441,-97,0,0,0,0,0,0,0,0,0,-1,783,1121,0,0
-434,-97,0,0,0,0,0,0,0,0,0,-1,790,1121,0,0
-427,-97,0,0,0,0,0,0,0,0,0,-1,797,1121,0,0
-420,-97,0,0,0,0,0,0,0,0,0,-1,804,1121,0,0
-413,-97,0,0,0,0,0,0,0,0,0,-1,811,1121,0,0
-406,-97,0,0,0,0,0,0,0,0,0,-1,818,1121,0,0
-399,-97,0,0,0,0,0,0,0,0,0,-1,825,1121,0,0
-392,-97,0,0,0,0,0,0,0,0,0,-1,832,1121,0,0
-385,-97,0,0,0,0,0,0,0,0,0,-1,839,1121,0,0
-378,-97,0,0,0,0,0,0,0,0,0,-1,846,1121,0,0
-371,-97,0,0,0,0,0,0,0,0,0,-1,853,1121,0,0
-364,-97,0,0,0,0,0,0,0,0,0,-1,860,1121,0,0
-357,-97,0,0,0,0,0,0,0,0,0,-1,867,1121,0,0
-350,-97,0,0,0,0,0,0,0,0,0,-1,874,1121,0,0
-343,-97,0,0,0,0,0,0,0,0,0,-1,881,1121,0,0
-336,-97,0,0,0,0,0,0,0,0,0,-1,888,1121,0,0
-329,-97,0,0,0,0,0,0,0,0,0,-1,895,1121,0,0
-322,-97,0,0,0,0,0,0,0,0,0,-1,902,1121,0,0
-315,-97,0,0,0,0,0,0,0,0,0,-1,909,1121,0,0
-308,-97,0,0,0,0,0,0,0,0,0,-1,916,1121,0,0
-301,-97,0,0,0,0,0,0,0,0,0,-1,923,1121,0,0
-294,-97,0,0,0,0,0,0,0,0,0,-1,930,1121,0,0
-287,-97,0,0,0,0,0,0,0,0,0,-1,937,1121,0,0
-280,-97,0,0,0,0,0,0,0,0,0,-1,944,1121,0,0
-273,-97,0,0,0,0,0,0,0,0,0,-1,951,1121,0,0
-266,-97,0,0,0,0,0,0,0,0,0,-1,958,1121,0,0
-259,-97,0,0,0,0,0,0,0,0,0,-1,965,1121,0,0
-252,-97,0,0,0,0,0,0,0,0,0,-1,972,1121,0,0
-245,-97,0,0,0,0,0,0,0,0,0,-1,979,1121,0,0
-238,-97,0,0,0,0,0,0,0,0,0,-1,986,1121,0,0
-231,-97,0,0,0,0,0,0,0,0,0,-1,993,1121,0,0
-224,-97,0,0,0,0,0,0,0,0,0,-1,1000,1121,0,0
-217,-97,0,0,0,0,0,0,0,0,0,-1,1007,1121,0,0
-210,-97,0,0,0,0,0,0,0,0,0,-1,1014,1121,0,0
-203,-97,0,0,0,0,0,0,0,0,0,-1,1021,1121,0,0
-196,-97,0,0,0,0,0,0,0,0,0,-1,1028,1121,0,0
-189,-97,0,0,0,0,0,0,0,0,0,-1,1035,1121,0,0
-182,-97,0,0,0,0,0,0,0,0,0,-1,1042,1121,0,0
-175,-97,0,0,0,0,0,0,0,0,0,-1,1049,1121,0,0
-168,-97,0,0,0,0,0,0,0,0,0,-1,1056,1121,0,0
-161,-97,0,0,0,0,0,0,0,0,0,-1,1063,1121,0,0
-154,-97,0,0,0,0,0,0,0,0,0,-1,1070,1121,0,0
-147,-97,0,0,0,0,0,0,0,0,0,-1,1077,1121,0,0
-140,-97,0,0,0,0,0,0,0,0,0,-1,1084,1121,0,0
-133,-97,0,0,0,0,0,0,0,0,0,-1,1091,1121,0,0
-126,-97,0,0,0,0,0,0,0,0,0,-1,1098,1121,0,0
-119,-97,0,0,0,0,0,0,0,0,0,-1,1105,1121,0,0
-112,-97,0,0,0,0,0,0,0,0,0,-1,1112,1121,0,0
-105,-97,0,0,0,0,0,0,0,0,0,-1,1119,1121,0,0
-98,-97,0,0,0,0,0,0,0,0,0,-1,1126,1121,0,0
-91,-97,0,0,0,0,0,0,0,0,0,-1,1133,1121,0,0
-84,-97,0,0,0,0,0,0,0,0,0,-1,1140,1121,0,0
-77,-97,0,0,0,0,0,0,0,0,0,-1,1147,1121,0,0
-70,-97,0,0,0,0,0,0,0,0,0,-1,1154,1121,0,0
-63,-97,0,0,0,0,0,0,0,0,0,-1,1161,1121,0,0
-56,-97,0,0,0,0,0,0,0,0,0,-1,1168,1121,0,0
-49,-97,0,0,0,0,0,0,0,0,0,-1,1175,1121,0,0
-42,-97,0,0,0,0,0,0,0,0,0,-1,1182,1121,0,0
-35,-97,0,0,0,0,0,0,0,0,0,-1,1189,1121,0,0
-28,-97,0,0,0,0,0,0,0,0,0,-1,1196,1121,0,0
-21,-97,0,0,0,0,0,0,0,0,0,-1,1203,1121,0,0
-14,-97,0,0,0,0,0,0,0,0,0,-1,1210,1121,0,0
-7,-97,0,0,0,0,0,0,0,0,0,-1,1217,1121,0,0
0,-97,0,0,0,0,0,0,0,0,0,-1,1224,1121,0,0
7,-97,0,0,0,0,0,0,0,0,0,-1,1231,1121,0,0
14,-97,0,0,0,0,0,0,0,0,0,-1,1238,1121,0,0
21,-97,0,0,0,0,0,0,0,0,0,-1,1245,1121,0,0
28,-97,0,0,0,0,0,0,0,0,0,-1,1252,1121,0,0
35,-97,0,0,0,0,0,0,0,0,0,-1,1259,1121,0,0
42,-97,0,0,0,0,0,0,0,0,0,-1,1266,1121,0,0
49,-97,0,0,0,0,0,0,0,0,0,-1,1273,1121,0,0
56,-97,0,0,0,0,0,0,0,0,0,-1,1280,1121,0,0
63,-97,0,0,0,0,0,0,0,0,0,-1,1287,1121,0,0
70,-97,0,0,0,0,0,0,0,0,0,-1,1294,1121,0,0
77,-97,0,0,0,0,0,0,0,0,0,-1,1301,1121,0,0
84,-97,0,0,0,0,0,0,0,0,0,-1,1308,1121,0,0
91,-97,0,0,0,0,0,0,0,0,0,-1,1315,1121,0,0
98,-97,0,0,0,0,0,0,0,0,0,-1,1322,1121,0,0
105,-97,0,0,0,0,0,0,0,0,0,-1,1329,1121,0,0
112,-97,0,0,0,0,0,0,0,0,0,-1,1336,1121,0,0
119,-97,0,0,0,0,0,0,0,0,0,-1,1343,1121,0,0
126,-97,0,0,0,0,0,0,0,0,0,-1,1350,1121,0,0
133,-97,0,0,0,0,0,0,0,0,0,-1,1357,1121,0,0
140,-97,0,0,0,0,0,0,0,0,0,-1,1364,1121,0,0
147,-97,0,0,0,0,0,0,0,0,0,-1,1371,1121,0,0
154,-97,0,0,0,0,0,0,0,0,0,-1,1378,1121,0,0
161,-97,0,0,0,0,0,0,0,0,0,-1,1385,1121,0,0
168,-97,0,0,0,0,0,0,0,0,0,-1,1392,1121,0,0
175,-97,0,0,0,0,0,0,0,0,0,-1,1399,1121,0,0
182,-97,0,0,0,0,0,0,0,0,0,-1,1406,1121,0,0
189,-97,0,0,0,0,0,0,0,0,0,-1,1413,1121,0,0
196,-97,0,0,0,0,0,0,0,0,0,-1,1420,1121,0,0
203,-97,0,0,0,0,0,0,0,0,0,-1,1427,1121,0,0
210,-97,0,0,0,0,0,0,0,0,0,-1,1434,1121,0,0
217,-97,0,0,0,0,0,0,0,0,0,-1,1441,1121,0,0
224,-97,0,0,0,0,0,0,0,0,0,-1,1448,1121,0,0
231,-97,0,0,0,0,0,0,0,0,0,-1,1455,1121,0,0
238,-97,0,0,0,0,0,0,0,0,0,-1,1462,1121,0,0
245,-97,0,0,0,0,0,0,0,0,0,-1,1469,1121,0,0
252,-97,0,0,0,0,0,0,0,0,0,-1,1476,1121,0,0
259,-97,0,0,0,0,0,0,0,0,0,-1,1483,1121,0,0
266,-97,0,0,0,0,0,0,0,0,0,-1,1490,1121,0,0
273,-97,0,0,0,0,0,0,0,0,0,-1,1497,1121,0,0
280,-97,0,0,0,0,0,0,0,0,0,-1,1504,1121,0,0
287,-97,0,0,0,0,0,0,0,0,0,-1,1511,1121,0,0
294,-97,0,0,0,0,0,0,0,0,0,-1,1518,1121,0,0
301,-97,0,0,0,0,0,0,0,0,0,-1,1525,1121,0,0
308,-97,0,0,0,0,0,0,0,0,0,-1,1532,1121,0,0
315,-97,0,0,0,0,0,0,0,0,0,-1,1539,1121,0,0
322,-97,0,0,0,0,0,0,0,0,0,-1,1546,1121,0,0
329,-97,0,0,0,0,0,0,0,0,0,-1,1553,1121,0,0
336,-97,0,0,0,0,0,0,0,0,0,-1,1560,1121,0,0
343,-97,0,0,0,0,0,0,0,0,0,-1,1567,1121,0,0
350,-97,0,0,0,0,0,0,0,0,0,-1,1574,1121,0,0
357,-97,0,0,0,0,0,0,0,0,0,-1,1581,1121,0,0
364,-97,0,0,0,0,0,0,0,0,0,-1,1588,1121,0,0
371,-97,0,0,0,0,0,0,0,0,0,-1,1595,1121,0,0
378,-97,0,0,0,0,0,0,0,0,0,-1,1602,1121,0,0
385,-97,0,0,0,0,0,0,0,0,0,-1,1609,1121,0,0
392,-97,0,0,0,0,0,0,0,0,0,-1,1616,1121,0,0
399,-97,0,0,0,0,0,0,0,0,0,-1,1623,1121,0,0
406,-97,0,0,0,0,0,0,0,0,0,-1,1630,1121,0,0
413,-97,0,0,0,0,0,0,0,0,0,-1,1637,1121,0,0
420,-97,0,0,0,0,0,0,0,0,0,-1,1644,1121,0,0
427,-97,0,0,0,0,0,0,0,0,0,-1,1651,1121,0,0
434,-97,0,0,0,0,0,0,0,0,0,-1,1658,1121,0,0
441,-97,0,0,0,0,0,0,0,0,0,-1,1665,1121,0,0
448,-97,0,0,0,0,0,0,0,0,0,-1,1672,1121,0,0
455,-97,0,0,0,0,0,0,0,0,0,-1,1679,1121,0,0
462,-97,0,0,0,0,0,0,0,0,0,-1,1686,1121,0,0
469,-97,0,0,0,0,0,0,0,0,0,-1,1693,1121,0,0
476,-97,0,0,0,0,0,0,0,0,0,-1,1700,1121,0,0
483,-97,0,0,0,0,0,0,0,0,0,-1,1707,1121,0,0
490,-97,0,0,0,0,0,0,0,0,0,-1,1714,1121,0,0
497,-97,0,0,0,0,0,0,0,0,0,-1,1721,1121,0,0
504,-97,0,0,0,0,0,0,0,0,0,-1,1728,1121,0,0
511,-97,0,0,0,0,0,0,0,0,0,-1,1735,1121,0,0
518,-97,0,0,0,0,0,0,0,0,0,-1,1742,1121,0,0
525,-97,0,0,0,0,0,0,0,0,0,-1,1749,1121,0,0
532,-97,0,0,0,0,0,0,0,0,0,-1,1756,1121,0,0
539,-97,0,0,0,0,0,0,0,0,0,-1,1763,1121,0,0
546,-97,0,0,0,0,0,0,0,0,0,-1,1770,1121,0,0
553,-97,0,0,0,0,0,0,0,0,0,-1,1777,1121,0,0
560,-97,0,0,0,0,0,0,0,0,0,-1,1784,1121,0,0
567,-97,0,0,0,0,0,0,0,0,0,-1,1791,1121,0,0
574,-97,0,0,0,0,0,0,0,0,0,-1,1798,1121,0,0
581,-97,0,0,0,0,0,0,0,0,0,-1,1805,1121,0,0
588,-97,0,0,0,0,0,0,0,0,0,-1,1812,1121,0,0
595,-97,0,0,0,0,0,0,0,0,0,-1,1819,1121,0,0
602,-97,0,0,0,0,0,0,0,0,0,-1,1826,1121,0,0
609,-97,0,0,0,0,0,0,0,0,0,-1,1833,1121,0,0
616,-97,0,0,0,0,0,0,0,0,0,-1,1840,1121,0,0
623,-97,0,0,0,0,0,0,0,0,0,-1,1847,1121,0,0
630,-97,0,0,0,0,0,0,0,0,0,-1,1854,1121,0,0
637,-97,0,0,0,0,0,0,0,0,0,-1,1861,1121,0,0
644,-97,39.3414,2.59106,0.0108546,0.00107497,0.00829957,0.0155977,-0.00366813,0.519191,0.0118126,0.035686,1868,1121,39.3414,-2.59112
651,-97,39.3401,2.61414,0.00840747,0.000962807,0.00579235,0.0115704,-0.00220014,0.49981,0.00854196,0.0368319,1875,1121,39.34,-2.61408
658,-97,39.486,2.74414,0.00653176,0.000702807,0.00394494,0.00852204,-0.00128748,0.467254,0.00615557,0.0392163,1882,1121,39.486,-2.74419
665,-97,39.5859,2.57056,0.0048091,0.000426307,0.00257915,0.00600212,-0.000766708,0.43325,0.00427993,0.0415962,1889,1121,39.586,-2.57055
672,-97,39.6127,2.55103,0.00334425,5.23213e-05,0.00158087,0.00398046,-0.000583893,0.382614,0.00286815,0.040299,1896,1121,39.6126,-2.55101
679,-97,39.5582,2.71436,0.00185661,-0.000346117,0.00107268,0.00229266,-0.000782171,0.386104,0.00184527,0.039687,1903,1121,39.5582,-2.71437
686,-97,39.4954,2.72485,0.000670101,-0.000756411,0.00086621,0.00107892,-0.00116523,0.440968,0.00129598,0.0360071,1910,1121,39.4954,-2.72482
693,-97,39.507,2.61035,-7.50056e-05,-0.00106063,0.000804868,0.000375937,-0.00151158,0.510694,0.00115363,0.0334856,1917,1121,39.507,-2.61036
700,-97,39.515,2.52625,-0.000650897,-0.00129525,0.000725868,-0.000178919,-0.00176723,0.576534,0.00112327,0.027805,1924,1121,39.515,-2.52619
707,-97,39.4807,2.49023,-0.00128608,-0.00137125,0.000731103,-0.000596325,-0.00206101,0.756308,0.00122462,0.0233787,1931,1121,39.4807,-2.49027
714,-97,39.4468,2.41345,0,0,0,0,0,0,0,-1,1938,1121,39.4468,-2.4135
721,-97,37.124,6.13196,0,0,0,0,0,0,0,-1,1945,1121,37.124,-6.13196
728,-97,37.1455,5.953,-0.00265186,-0.000915982,0.00137424,-0.000158541,-0.0034093,1.06706,0.00222191,0.022212,1952,1121,37.1455,-5.95305
735,-97,37.0929,5.6969,-0.00302329,-0.00057611,0.00146834,0.000111633,-0.00371103,1.13276,0.00251206,0.0238322,1959,1121,37.0929,-5.69695
742,-97,37.0828,5.42493,-0.00344018,-6.81342e-05,0.00148558,0.000492982,-0.0040013,1.20965,0.00284613,0.018125,1966,1121,37.0828,-5.42488
749,-97,37.1267,5.14075,-0.00380845,0.000745551,0.00139835,0.00114065,-0.00420355,1.29543,0.00325001,0.0192204,1973,1121,37.1267,-5.14079
756,-97,37.1361,4.90405,-0.00410996,0.00176288,0.000922923,0.0019045,-0.00425158,1.41853,0.00363931,0.0157756,1980,1121,37.1362,-4.90403
763,-97,37.1022,4.70239,-0.00431703,0.00279926,0.00028496,0.00281065,-0.00432842,1.53084,0.00415268,0.0126583,1987,1121,37.1022,-4.70242
770,-97,37.0665,4.48535,-0.00448906,0.00402692,-0.000611148,0.00407056,-0.00453269,-1.49952,0.00496948,0.0109711,1994,1121,37.0666,-4.48539
777,-97,37.0461,4.30103,-0.00444082,0.00517818,-0.00170845,0.00547261,-0.00473525,-1.40014,0.00589863,0.0154772,2001,1121,37.0462,-4.30106
784,-97,36.9113,3.95105,-0.00425717,0.00622831,-0.00304819,0.00705004,-0.0050789,-1.30748,0.0070334,0.0363541,2008,1121,36.9112,-3.95107
791,-97,36.4954,3.49426,-0.0034624,0.00709785,-0.00483487,0.00897704,-0.00534158,-1.20009,0.0083552,0.0432965,2015,1121,36.4954,-3.4942
798,-97,38.1694,0.572021,0,0,0,0,0,0,0,-1,2022,1121,38.1695,-0.571983
805,-97,37.6736,1.54346,0,0,0,0,0,0,0,-1,2029,1121,37.6735,-1.5435
812,-97,36.7749,2.71277,0,0,0,0,0,0,0,-1,2036,1121,36.775,-2.71282
-700,-104,0,0,0,0,0,0,0,0,0,-1,524,1128,0,0
-693,-104,-25.1876,-2.50232,-0.0241762,-0.0142251,-0.0216385,0.00300252,-0.0414039,-0.898403,0.0286559,0.0478789,531,1128,-25.1876,2.50236
-686,-104,-25.1974,-2.06396,0,0,0,0,0,0,0,-1,538,1128,-25.1974,2.06398
-679,-104,-24.9412,-1.45203,0,0,0,0,0,0,0,-1,545,1128,-24.9412,1.45199
-672,-104,-24.9752,-0.583862,0,0,0,0,0,0,0,-1,552,1128,-24.9752,0.583875
-665,-104,-25.0462,0.278076,0,0,0,0,0,0,0,-1,559,1128,-25.0462,-0.278112
-658,-104,-26.3016,0.747925,-0.00336321,0.00441061,-0.00241255,0.00509846,-0.00405107,-1.29305,0.00529401,0.0440431,566,1128,-26.3016,-0.747892
-651,-104,-26.2089,1.07385,-0.00182293,0.00448095,-0.00100693,0.00463788,-0.00197986,-1.41619,0.00392214,0.038084,573,1128,-26.2088,-1.07381
-644,-104,-26.1484,1.38306,-0.000850949,0.00394526,-0.000278351,0.00396136,-0.000867049,-1.51302,0.00297238,0.015128,580,1128,-26.1484,-1.38306
-637,-104,-26.1461,1.68958,1.19894e-05,0.00339809,9.19401e-05,0.00340058,9.49483e-06,1.54367,0.0022639,0.0110613,587,1128,-26.1461,-1.68958
-630,-104,-26.1752,1.94458,0.000460825,0.00246377,0.000239615,0.00249203,0.000432558,1.45337,0.00153759,0.013413,594,1128,-26.1753,-1.94452
-623,-104,-26.1816,2.2666,0.000927753,0.000965819,0.000178794,0.00112659,0.000766982,0.838425,0.00066446,0.015451,601,1128,-26.1816,-2.26659
-616,-104,-26.319,2.61731,0.00153453,0.000116534,0.000183624,0.00155792,9.31415e-05,0.126711,0.001009,0.0190823,608,1128,-26.319,-2.61727
-609,-104,-26.4355,2.77661,0.00216953,-0.000569932,0.000433708,0.00223655,-0.000636956,0.153325,0.0017426,0.0249175,615,1128,-26.4355,-2.77662
-602,-104,-26.2959,3.08936,0.00246144,-0.00158309,0.000310442,0.00248513,-0.00160677,0.0761617,0.00238053,0.0218474,622,1128,-26.2959,-3.08935
-595,-104,-26.1708,3.45557,0.00226368,-0.00181967,-9.12164e-05,0.00226571,-0.00182171,-0.0223238,0.00236451,0.0165725,629,1128,-26.1707,-3.4556
-588,-104,-26.1232,3.8114,0,0,0,0,0,0,0,-1,636,1128,-26.1232,-3.81142
-581,-104,-23.9373,2.85864,0,0,0,0,0,0,0,-1,643,1128,-23.9373,-2.85861
-574,-104,-28.917,1.02649,0,0,0,0,0,0,0,-1,650,1128,-28.917,-1.02646
-567,-104,-28.7936,0.947021,0.00199513,-0.00281341,-0.00108746,0.00222963,-0.0030479,-0.212384,0.00305917,0.0363186,657,1128,-28.7936,-0.946995
-560,-104,-28.7852,0.720093,0.00159892,-0.00288,-0.0015677,0.00209312,-0.00337419,-0.305375,0.00318531,0.0414767,664,1128,-28.7852,-0.720086
-553,-104,-28.4354,1.81165,0,0,0,0,0,0,0,-1,671,1128,-28.4354,-1.81162
-546,-104,-28.8576,0.763306,-0.00134485,-0.00250232,-0.00358462,0.00170745,-0.00555462,-0.705364,0.00438449,0.0433035,678,1128,-28.8576,-0.763348
-539,-104,-28.7452,0.756226,-0.00366687,-0.00209486,-0.00505475,0.00223463,-0.00799636,-0.862529,0.00621126,0.0370084,685,1128,-28.7453,-0.756175
-532,-104,-28.8162,0.638916,-0.00568596,-0.00147326,-0.00612638,0.00289876,-0.010058,-0.950976,0.00785201,0.0384972,692,1128,-28.8162,-0.638915
-525,-104,-29.028,0.791016,-0.00806397,-0.000664983,-0.00693677,0.00349714,-0.0122261,-1.03037,0.00953272,0.0352386,699,1128,-29.028,-0.790987
-518,-104,0,0,0,0,0,0,0,0,0,-1,706,1128,0,0
-511,-104,0,0,0,0,0,0,0,0,0,-1,713,1128,0,0
-504,-104,0,0,0,0,0,0,0,0,0,-1,720,1128,0,0
-497,-104,0,0,0,0,0,0,0,0,0,-1,727,1128,0,0
-490,-104,0,0,0,0,0,0,0,0,0,-1,734,1128,0,0
-483,-104,0,0,0,0,0,0,0,0,0,-1,741,1128,0,0
-476,-104,0,0,0,0,0,0,0,0,0,-1,748,1128,0,0
-469,-104,0,0,0,0,0,0,0,0,0,-1,755,1128,0,0
-462,-104,0,0,0,0,0,0,0,0,0,-1,762,1128,0,0
-455,-104,0,0,0,0,0,0,0,0,0,-1,769,1128,0,0
-448,-104,0,0,0,0,0,0,0,0,0,-1,776,1128,0,0
-441,-104,0,0,0,0,0,0,0,0,0,-1,783,1128,0,0
-434,-104,0,0,0,0,0,0,0,0,0,-1,790,1128,0,0
-427,-104,0,0,0,0,0,0,0,0,0,-1,797,1128,0,0
-420,-104,0,0,0,0,0,0,0,0,0,-1,804,1128,0,0
-413,-104,0,0,0,0,0,0,0,0,0,-1,811,1128,0,0
-406,-104,0,0,0,0,0,0,0,0,0,-1,818,1128,0,0
-399,-104,0,0,0,0,0,0,0,0,0,-1,825,1128,0,0
-392,-104,0,0,0,0,0,0,0,0,0,-1,832,1128,0,0
-385,-104,0,0,0,0,0,0,0,0,0,-1,839,1128,0,0
-378,-104,0,0,0,0,0,0,0,0,0,-1,846,1128,0,0
-371,-104,0,0,0,0,0,0,0,0,0,-1,853,1128,0,0
-364,-104,0,0,0,0,0,0,0,0,0,-1,860,1128,0,0
-357,-104,0,0,0,0,0,0,0,0,0,-1,867,1128,0,0
-350,-104,0,0,0,0,0,0,0,0,0,-1,874,1128,0,0
-343,-104,0,0,0,0,0,0,0,0,0,-1,881,1128,0,0
-336,-104,0,0,0,0,0,0,0,0,0,-1,888,1128,0,0
-329,-104,0,0,0,0,0,0,0,0,0,-1,895,1128,0,0
-322,-104,0,0,0,0,0,0,0,0,0,-1,902,1128,0,0
-315,-104,0,0,0,0,0,0,0,0,0,-1,909,1128,0,0
-308,-104,0,0,0,0,0,0,0,0,0,-1,916,1128,0,0
-301,-104,0,0,0,0,0,0,0,0,0,-1,923,1128,0,0
-294,-104,0,0,0,0,0,0,0,0,0,-1,930,1128,0,0
-287,-104,0,0,0,0,0,0,0,0,0,-1,937,1128,0,0
-280,-104,0,0,0,0,0,0,0,0,0,-1,944,1128,0,0
-273,-104,0,0,0,0,0,0,0,0,0,-1,951,1128,0,0
-266,-104,0,0,0,0,0,0,0,0,0,-1,958,1128,0,0
-259,-104,0,0,0,0,0,0,0,0,0,-1,965,1128,0,0
-252,-104,0,0,0,0,0,0,0,0,0,-1,972,1128,0,0
-245,-104,0,0,0,0,0,0,0,0,0,-1,979,1128,0,0
-238,-104,0,0,0,0,0,0,0,0,0,-1,986,1128,0,0
-231,-104,0,0,0,0,0,0,0,0,0,-1,993,1128,0,0
-224,-104,0,0,0,0,0,0,0,0,0,-1,1000,1128,0,0
-217,-104,0,0,0,0,0,0,0,0,0,-1,1007,1128,0,0
-210,-104,0,0,0,0,0,0,0,0,0,-1,1014,1128,0,0
-203,-104,0,0,0,0,0,0,0,0,0,-1,1021,1128,0,0
-196,-104,0,0,0,0,0,0,0,0,0,-1,1028,1128,0,0
-189,-104,0,0,0,0,0,0,0,0,0,-1,1035,1128,0,0
-182,-104,0,0,0,0,0,0,0,0,0,-1,1042,1128,0,0
-175,-104,0,0,0,0,0,0,0,0,0,-1,1049,1128,0,0
-168,-104,0,0,0,0,0,0,0,0,0,-1,1056,1128,0,0
-161,-104,0,0,0,0,0,0,0,0,0,-1,1063,1128,0,0
-154,-104,0,0,0,0,0,0,0,0,0,-1,1070,1128,0,0
-147,-104,0,0,0,0,0,0,0,0,0,-1,1077,1128,0,0
-140,-104,0,0,0,0,0,0,0,0,0,-1,1084,1128,0,0
-133,-104,0,0,0,0,0,0,0,0,0,-1,1091,1128,0,0
-126,-104,0,0,0,0,0,0,0,0,0,-1,1098,1128,0,0
-119,-104,0,0,0,0,0,0,0,0,0,-1,1105,1128,0,0
-112,-104,0,0,0,0,0,0,0,0,0,-1,1112,1128,0,0
-105,-104,0,0,0,0,0,0,0,0,0,-1,1119,1128,0,0
-98,-104,0,0,0,0,0,0,0,0,0,-1,1126,1128,0,0
-91,-104,0,0,0,0,0,0,0,0,0,-1,1133,1128,0,0
-84,-104,0,0,0,0,0,0,0,0,0,-1,1140,1128,0,0
-77,-104,0,0,0,0,0,0,0,0,0,-1,1147,1128,0,0
-70,-104,0,0,0,0,0,0,0,0,0,-1,1154,1128,0,0
-63,-104,0,0,0,0,0,0,0,0,0,-1,1161,1128,0,0
-56,-104,0,0,0,0,0,0,0,0,0,-1,1168,1128,0,0
-49,-104,0,0,0,0,0,0,0,0,0,-1,1175,1128,0,0
-42,-104,0,0,0,0,0,0,0,0,0,-1,1182,1128,0,0
-35,-104,0,0,0,0,0,0,0,0,0,-1,1189,1128,0,0
-28,-104,0,0,0,0,0,0,0,0,0,-1,1196,1128,0,0
-21,-104,0,0,0,0,0,0,0,0,0,-1,1203,1128,0,0
-14,-104,0,0,0,0,0,0,0,0,0,-1,1210,1128,0,0
-7,-104,0,0,0,0,0,0,0,0,0,-1,1217,1128,0,0
0,-104,0,0,0,0,0,0,0,0,0,-1,1224,1128,0,0
7,-104,0,0,0,0,0,0,0,0,0,-1,1231,1128,0,0
14,-104,0,0,0,0,0,0,0,0,0,-1,1238,1128,0,0
21,-104,0,0,0,0,0,0,0,0,0,-1,1245,1128,0,0
28,-104,0,0,0,0,0,0,0,0,0,-1,1252,1128,0,0
35,-104,0,0,0,0,0,0,0,0,0,-1,1259,1128,0,0
42,-104,0,0,0,0,0,0,0,0,0,-1,1266,1128,0,0
49,-104,0,0,0,0,0,0,0,0,0,-1,1273,1128,0,0
56,-104,0,0,0,0,0,0,0,0,0,-1,1280,1128,0,0
63,-104,0,0,0,0,0,0,0,0,0,-1,1287,1128,0,0
70,-104,0,0,0,0,0,0,0,0,0,-1,1294,1128,0,0
77,-104,0,0,0,0,0,0,0,0,0,-1,1301,1128,0,0
84,-104,0,0,0,0,0,0,0,0,0,-1,1308,1128,0,0
91,-104,0,0,0,0,0,0,0,0,0,-1,1315,1128,0,0
98,-104,0,0,0,0,0,0,0,0,0,-1,1322,1128,0,0
105,-104,0,0,0,0,0,0,0,0,0,-1,1329,1128,0,0
112,-104,0,0,0,0,0,0,0,0,0,-1,1336,1128,0,0
119,-104,0,0,0,0,0,0,0,0,0,-1,1343,1128,0,0
126,-104,0,0,0,0,0,0,0,0,0,-1,1350,1128,0,0
133,-104,0,0,0,0,0,0,0,0,0,-1,1357,1128,0,0
140,-104,0,0,0,0,0,0,0,0,0,-1,1364,1128,0,0
147,-104,0,0,0,0,0,0,0,0,0,-1,1371,1128,0,0
154,-104,0,0,0,0,0,0,0,0,0,-1,1378,1128,0,0
161,-104,0,0,0,0,0,0,0,0,0,-1,1385,1128,0,0
168,-104,0,0,0,0,0,0,0,0,0,-1,1392,1128,0,0
175,-104,0,0,0,0,0,0,0,0,0,-1,1399,1128,0,0
182,-104,0,0,0,0,0,0,0,0,0,-1,1406,1128,0,0
189,-104,0,0,0,0,0,0,0,0,0,-1,1413,1128,0,0
196,-104,0,0,0,0,0,0,0,0,0,-1,1420,1128,0,0
203,-104,0,0,0,0,0,0,0,0,0,-1,1427,1128,0,0
210,-104,0,0,0,0,0,0,0,0,0,-1,1434,1128,0,0
217,-104,0,0,0,0,0,0,0,0,0,-1,1441,1128,0,0
224,-104,0,0,0,0,0,0,0,0,0,-1,1448,1128,0,0
231,-104,0,0,0,0,0,0,0,0,0,-1,1455,1128,0,0
238,-104,0,0,0,0,0,0,0,0,0,-1,1462,1128,0,0
245,-104,0,0,0,0,0,0,0,0,0,-1,1469,1128,0,0
252,-104,0,0,0,0,0,0,0,0,0,-1,1476,1128,0,0
259,-104,0,0,0,0,0,0,0,0,0,-1,1483,1128,0,0
266,-104,0,0,0,0,0,0,0,0,0,-1,1490,1128,0,0
273,-104,0,0,0,0,0,0,0,0,0,-1,1497,1128,0,0
280,-104,0,0,0,0,0,0,0,0,0,-1,1504,1128,0,0
287,-104,0,0,0,0,0,0,0,0,0,-1,1511,1128,0,0
294,-104,0,0,0,0,0,0,0,0,0,-1,1518,1128,0,0
301,-104,0,0,0,0,0,0,0,0,0,-1,1525,1128,0,0
308,-104,0,0,0,0,0,0,0,0,0,-1,1532,1128,0,0
315,-104,0,0,0,0,0,0,0,0,0,-1,1539,1128,0,0
322,-104,0,0,0,0,0,0,0,0,0,-1,1546,1128,0,0
329,-104,0,0,0,0,0,0,0,0,0,-1,1553,1128,0,0
336,-104,0,0,0,0,0,0,0,0,0,-1,1560,1128,0,0
343,-104,0,0,0,0,0,0,0,0,0,-1,1567,1128,0,0
350,-104,0,0,0,0,0,0,0,0,0,-1,1574,1128,0,0
357,-104,0,0,0,0,0,0,0,0,0,-1,1581,1128,0,0
364,-104,0,0,0,0,0,0,0,0,0,-1,1588,1128,0,0
371,-104,0,0,0,0,0,0,0,0,0,-1,1595,1128,0,0
378,-104,0,0,0,0,0,0,0,0,0,-1,1602,1128,0,0
385,-104,0,0,0,0,0,0,0,0,0,-1,1609,1128,0,0
392,-104,0,0,0,0,0,0,0,0,0,-1,1616,1128,0,0
399,-104,0,0,0,0,0,0,0,0,0,-1,1623,1128,0,0
406,-104,0,0,0,0,0,0,0,0,0,-1,1630,1128,0,0
413,-104,0,0,0,0,0,0,0,0,0,-1,1637,1128,0,0
420,-104,0,0,0,0,0,0,0,0,0,-1,1644,1128,0,0
427,-104,0,0,0,0,0,0,0,0,0,-1,1651,1128,0,0
434,-104,0,0,0,0,0,0,0,0,0,-1,1658,1128,0,0
441,-104,0,0,0,0,0,0,0,0,0,-1,1665,1128,0,0
448,-104,0,0,0,0,0,0,0,0,0,-1,1672,1128,0,0
455,-104,0,0,0,0,0,0,0,0,0,-1,1679,1128,0,0
462,-104,0,0,0,0,0,0,0,0,0,-1,1686,1128,0,0
469,-104,0,0,0,0,0,0,0,0,0,-1,1693,1128,0,0
476,-104,0,0,0,0,0,0,0,0,0,-1,1700,1128,0,0
483,-104,0,0,0,0,0,0,0,0,0,-1,1707,1128,0,0
490,-104,0,0,0,0,0,0,0,0,0,-1,1714,1128,0,0
497,-104,0,0,0,0,0,0,0,0,0,-1,1721,1128,0,0
504,-104,0,0,0,0,0,0,0,0,0,-1,1728,1128,0,0
511,-104,0,0,0,0,0,0,0,0,0,-1,1735,1128,0,0
518,-104,0,0,0,0,0,0,0,0,0,-1,1742,1128,0,0
525,-104,0,0,0,0,0,0,0,0,0,-1,1749,1128,0,0
532,-104,0,0,0,0,0,0,0,0,0,-1,1756,1128,0,0
539,-104,0,0,0,0,0,0,0,0,0,-1,1763,1128,0,0
546,-104,0,0,0,0,0,0,0,0,0,-1,1770,1128,0,0
553,-104,0,0,0,0,0,0,0,0,0,-1,1777,1128,0,0
560,-104,0,0,0,0,0,0,0,0,0,-1,1784,1128,0,0
567,-104,0,0,0,0,0,0,0,0,0,-1,1791,1128,0,0
574,-104,0,0,0,0,0,0,0,0,0,-1,1798,1128,0,0
581,-104,0,0,0,0,0,0,0,0,0,-1,1805,1128,0,0
588,-104,0,0,0,0,0,0,0,0,0,-1,1812,1128,0,0
595,-104,0,0,0,0,0,0,0,0,0,-1,1819,1128,0,0
602,-104,0,0,0,0,0,0,0,0,0,-1,1826,1128,0,0
609,-104,0,0,0,0,0,0,0,0,0,-1,1833,1128,0,0
616,-104,0,0,0,0,0,0,0,0,0,-1,1840,1128,0,0
623,-104,0,0,0,0,0,0,0,0,0,-1,1847,1128,0,0
630,-104,0,0,0,0,0,0,0,0,0,-1,1854,1128,0,0
637,-104,0,0,0,0,0,0,0,0,0,-1,1861,1128,0,0
644,-104,39.2633,2.65906,0.0103198,0.000161528,0.00771448,0.014477,-0.00399572,0.494273,0.0112229,0.0372169,1868,1128,39.2633,-2.65903
651,-104,39.4041,2.83704,0.0080277,0.000459538,0.00561182,0.0110121,-0.00252482,0.488762,0.0083118,0.0387725,1875,1128,39.4041,-2.83702
658,-104,39.6694,2.94812,0.00626302,0.000460903,0.00399883,0.00830229,-0.00157836,0.471588,0.0061291,0.043386,1882,1128,39.6694,-2.94816
665,-104,39.7498,2.62756,0.00461079,0.000341297,0.00273375,0.00594456,-0.000992465,0.45391,0.00433192,0.0440969,1889,1128,39.7497,-2.62757
672,-104,39.7158,2.64514,0.00320848,7.20304e-05,0.00177217,0.00400667,-0.000726157,0.423188,0.00294318,0.0424971,1896,1128,39.7158,-2.64518
679,-104,39.5748,2.81079,0.00179176,-0.0002322,0.0012644,0.00239929,-0.000839728,0.447916,0.00194096,0.0390824,1903,1128,39.5748,-2.81079
686,-104,39.5217,2.63477,0.00069968,-0.000576484,0.00102811,0.00127163,-0.00114843,0.507672,0.00139782,0.0359566,1910,1128,39.5217,-2.63479
693,-104,39.4778,2.52783,3.14804e-05,-0.000807021,0.00092708,0.000629701,-0.00140524,0.573046,0.00120298,0.0330355,1917,1128,39.4778,-2.52787
700,-104,39.4977,2.50256,-0.000496561,-0.00100562,0.000788118,7.71111e-05,-0.00157929,0.629207,0.00107948,0.026206,1924,1128,39.4976,-2.50258
707,-104,39.4978,2.54932,-0.00107614,-0.00110224,0.000740932,-0.000348143,-0.00183024,0.776591,0.00112226,0.0409289,1931,1128,39.4978,-2.54929
714,-104,39.48,2.61731,0,0,0,0,0,0,0,-1,1938,1128,39.48,-2.61735
721,-104,36.9886,6.04541,0,0,0,0,0,0,0,-1,1945,1128,36.9887,-6.04544
728,-104,36.9796,5.89355,-0.0024074,-0.00073848,0.0012349,-8.25406e-05,-0.00306334,1.08253,0.00201528,0.0225359,1952,1128,36.9796,-5.89358
735,-104,36.9419,5.67273,-0.00275518,-0.000499666,0.00132311,0.000111101,-0.00336595,1.13833,0.0022819,0.0233211,1959,1128,36.9418,-5.67275
742,-104,36.8444,5.40808,-0.00316638,-4.93393e-05,0.0014051,0.000490544,-0.00370626,1.20396,0.00264953,0.0156759,1966,1128,36.8444,-5.40804
749,-104,36.8297,5.15369,-0.0035633,0.000763391,0.00137653,0.0011642,-0.00396411,1.28746,0.00310445,0.0183314,1973,1128,36.8297,-5.15366
756,-104,36.8347,4.9093,-0.00385135,0.0018652,0.00095193,0.00201955,-0.0040057,1.41005,0.00354112,0.0173634,1980,1128,36.8348,-4.90935
763,-104,36.8152,4.69495,-0.00401815,0.00302411,0.000387197,0.00304533,-0.00403937,1.51603,0.00410375,0.0154387,1987,1128,36.8152,-4.6949
770,-104,36.795,4.46997,-0.00406356,0.00444044,-0.000441772,0.00446333,-0.00408645,-1.51903,0.00493782,0.0130499,1994,1128,36.7951,-4.47003
777,-104,36.7572,4.26331,-0.00378877,0.00592368,-0.00151582,0.00615476,-0.00401985,-1.41952,0.00591726,0.0212097,2001,1128,36.7572,-4.26332
784,-104,36.5728,3.91211,-0.00322992,0.00755006,-0.00291913,0.00828978,-0.00396963,-1.32262,0.00722298,0.0401565,2008,1128,36.5727,-3.91212
791,-104,36.1003,3.51746,-0.0018125,0.00930104,-0.0048753,0.0111366,-0.00364804,-1.21071,0.0088934,0.0454194,2015,1128,36.1003,-3.51742
798,-104,35.6406,3.21069,0,0,0,0,0,0,0,-1,2022,1128,35.6406,-3.21065
805,-104,35.1104,5.00317,0,0,0,0,0,0,0,-1,2029,1128,35.1104,-5.00312
812,-104,35.3335,5.24731,0,0,0,0,0,0,0,-1,2036,1128,35.3334,-5.2473
-700,-111,0,0,0,0,0,0,0,0,0,-1,524,1135,0,0
-693,-111,-24.9711,-2.74854,0,0,0,0,0,0,0,-1,531,1135,-24.9711,2.74849
-686,-111,-24.925,-2.46667,0,0,0,0,0,0,0,-1,538,1135,-24.925,2.46666
-679,-111,-24.5969,-1.48645,0,0,0,0,0,0,0,-1,545,1135,-24.5969,1.4865
-672,-111,-24.6384,-0.596558,0,0,0,0,0,0,0,-1,552,1135,-24.6384,0.59657
-665,-111,-26.4601,0.534424,0,0,0,0,0,0,0,-1,559,1135,-26.4601,-0.534411
-658,-111,-26.4205,1.0365,-0.0067988,0.00320424,-0.00677415,0.00662319,-0.0102178,-1.10339,0.00979667,0.044801,566,1135,-26.4205,-1.03647
-651,-111,-26.0562,1.16504,-0.00420124,0.00349097,-0.00426154,0.00538536,-0.00609563,-1.1525,0.00663278,0.0402419,573,1135,-26.0562,-1.16507
-644,-111,-25.7776,1.43457,-0.00247361,0.00320337,-0.0026145,0.00422398,-0.00349422,-1.19862,0.00446274,0.0248432,580,1135,-25.7776,-1.43463
-637,-111,-25.8407,1.68286,-0.00109949,0.00278274,-0.00152927,0.00331278,-0.00162953,-1.23716,0.00290809,0.00989618,587,1135,-25.8407,-1.68284
-630,-111,-25.876,1.92432,-0.000194858,0.00215695,-0.000648914,0.00232412,-0.000362025,-1.31867,0.00168311,0.0167487,594,1135,-25.876,-1.92434
-623,-111,-25.8745,2.23364,0.000483441,0.0009513,-0.000261904,0.00106854,0.000366206,-1.14992,0.000627011,0.0148112,601,1135,-25.8745,-2.23367
-616,-111,-25.9874,2.5365,0.00111609,0.000187141,-3.05165e-05,0.00111709,0.000186139,-0.0328035,0.000691088,0.0161793,608,1135,-25.9874,-2.53651
-609,-111,-26.1848,2.80334,0.00179509,-0.000366444,0.000319395,0.00184129,-0.000412651,0.143674,0.00138571,0.0257206,615,1135,-26.1847,-2.80333
-602,-111,-26.1003,3.12122,0.00216421,-0.00134084,0.000291195,0.00218824,-0.00136487,0.0823265,0.00206966,0.0284755,622,1135,-26.1003,-3.12119
-595,-111,-25.9337,3.47437,0.00197008,-0.00149293,-6.58269e-05,0.00197134,-0.00149418,-0.0189994,0.00200713,0.0149304,629,1135,-25.9337,-3.47437
-588,-111,-25.754,3.88489,0,0,0,0,0,0,0,-1,636,1135,-25.754,-3.88483
-581,-111,-21.0555,3.14551,0,0,0,0,0,0,0,-1,643,1135,-21.0555,-3.14548
-574,-111,-28.8973,1.03577,0,0,0,0,0,0,0,-1,650,1135,-28.8973,-1.03577
-567,-111,-28.816,0.974976,0.00174435,-0.00240101,-0.00082795,0.00190359,-0.00256026,-0.19002,0.00258649,0.038172,657,1135,-28.816,-0.975008
-560,-111,-28.7767,0.805542,0.00145525,-0.00250479,-0.00118728,0.00178393,-0.00283347,-0.270073,0.00268871,0.0401944,664,1135,-28.7767,-0.805546
-553,-111,-28.7585,0.452148,0.000411861,-0.00249817,-0.00187996,0.00133409,-0.00342041,-0.456068,0.00283173,0.0451832,671,1135,-28.7585,-0.452132
-546,-111,-28.8538,0.700073,-0.00126386,-0.00229765,-0.00276105,0.00102826,-0.00458977,-0.692864,0.003454,0.0392929,678,1135,-28.8538,-0.700049
-539,-111,-28.7903,0.607178,-0.00357313,-0.0020187,-0.0037885,0.00107149,-0.00666331,-0.88657,0.00483908,0.0379672,685,1135,-28.7903,-0.607152
-532,-111,-28.8224,0.637085,-0.0055558,-0.00156639,-0.00433684,0.00121248,-0.00833467,-1.00094,0.00600157,0.0407513,692,1135,-28.8224,-0.63703
-525,-111,-29.0905,0.732666,-0.00782013,-0.000943909,-0.00464606,0.00139781,-0.0101619,-1.10394,0.00728534,0.0384585,699,1135,-29.0905,-0.732675
-518,-111,0,0,0,0,0,0,0,0,0,-1,706,1135,0,0
-511,-111,0,0,0,0,0,0,0,0,0,-1,713,1135,0,0
-504,-111,0,0,0,0,0,0,0,0,0,-1,720,1135,0,0
-497,-111,0,0,0,0,0,0,0,0,0,-1,727,1135,0,0
-490,-111,0,0,0,0,0,0,0,0,0,-1,734,1135,0,0
-483,-111,0,0,0,0,0,0,0,0,0,-1,741,1135,0,0
-476,-111,0,0,0,0,0,0,0,0,0,-1,748,1135,0,0
-469,-111,0,0,0,0,0,0,0,0,0,-1,755,1135,0,0
-462,-111,0,0,0,0,0,0,0,0,0,-1,762,1135,0,0
-455,-111,0,0,0,0,0,0,0,0,0,-1,769,1135,0,0
-448,-111,0,0,0,0,0,0,0,0,0,-1,776,1135,0,0
-441,-111,0,0,0,0,0,0,0,0,0,-1,783,1135,0,0
-434,-111,0,0,0,0,0,0,0,0,0,-1,790,1135,0,0
-427,-111,0,0,0,0,0,0,0,0,0,-1,797,1135,0,0
-420,-111,0,0,0,0,0,0,0,0,0,-1,804,1135,0,0
-413,-111,0,0,0,0,0,0,0,0,0,-1,811,1135,0,0
-406,-111,0,0,0,0,0,0,0,0,0,-1,818,1135,0,0
-399,-111,0,0,0,0,0,0,0,0,0,-1,825,1135,0,0
-392,-111,0,0,0,0,0,0,0,0,0,-1,832,1135,0,0
-385,-111,0,0,0,0,0,0,0,0,0,-1,839,1135,0,0
-378,-111,0,0,0,0,0,0,0,0,0,-1,846,1135,0,0
-371,-111,0,0,0,0,0,0,0,0,0,-1,853,1135,0,0
-364,-111,0,0,0,0,0,0,0,0,0,-1,860,1135,0,0
-357,-111,0,0,0,0,0,0,0,0,0,-1,867,1135,0,0
-350,-111,0,0,0,0,0,0,0,0,0,-1,874,1135,0,0
-343,-111,0,0,0,0,0,0,0,0,0,-1,881,1135,0,0
-336,-111,0,0,0,0,0,0,0,0,0,-1,888,1135,0,0
-329,-111,0,0,0,0,0,0,0,0,0,-1,895,1135,0,0
-322,-111,0,0,0,0,0,0,0,0,0,-1,902,1135,0,0
-315,-111,0,0,0,0,0,0,0,0,0,-1,909,1135,0,0
-308,-111,0,0,0,0,0,0,0,0,0,-1,916,1135,0,0
-301,-111,0,0,0,0,0,0,0,0,0,-1,923,1135,0,0
-294,-111,0,0,0,0,0,0,0,0,0,-1,930,1135,0,0
-287,-111,0,0,0,0,0,0,0,0,0,-1,937,1135,0,0
-280,-111,0,0,0,0,0,0,0,0,0,-1,944,1135,0,0
-273,-111,0,0,0,0,0,0,0,0,0,-1,951,1135,0,0
-266,-111,0,0,0,0,0,0,0,0,0,-1,958,1135,0,0
-259,-111,0,0,0,0,0,0,0,0,0,-1,965,1135,0,0
-252,-111,0,0,0,0,0,0,0,0,0,-1,972,1135,0,0
-245,-111,0,0,0,0,0,0,0,0,0,-1,979,1135,0,0
-238,-111,0,0,0,0,0,0,0,0,0,-1,986,1135,0,0
-231,-111,0,0,0,0,0,0,0,0,0,-1,993,1135,0,0
-224,-111,0,0,0,0,0,0,0,0,0,-1,1000,1135,0,0
-217,-111,0,0,0,0,0,0,0,0,0,-1,1007,1135,0,0
-210,-111,0,0,0,0,0,0,0,0,0,-1,1014,1135,0,0
-203,-111,0,0,0,0,0,0,0,0,0,-1,1021,1135,0,0
-196,-111,0,0,0,0,0,0,0,0,0,-1,1028,1135,0,0
-189,-111,0,0,0,0,0,0,0,0,0,-1,1035,1135,0,0
-182,-111,0,0,0,0,0,0,0,0,0,-1,1042,1135,0,0
-175,-111,0,0,0,0,0,0,0,0,0,-1,1049,1135,0,0
-168,-111,0,0,0,0,0,0,0,0,0,-1,1056,1135,0,0
-161,-111,0,0,0,0,0,0,0,0,0,-1,1063,1135,0,0
-154,-111,0,0,0,0,0,0,0,0,0,-1,1070,1135,0,0
-147,-111,0,0,0,0,0,0,0,0,0,-1,1077,1135,0,0
-140,-111,0,0,0,0,0,0,0,0,0,-1,1084,1135,0,0
-133,-111,0,0,0,0,0,0,0,0,0,-1,1091,1135,0,0
-126,-111,0,0,0,0,0,0,0,0,0,-1,1098,1135,0,0
-119,-111,0,0,0,0,0,0,0,0,0,-1,1105,1135,0,0
-112,-111,0,0,0,0,0,0,0,0,0,-1,1112,1135,0,0
-105,-111,0,0,0,0,0,0,0,0,0,-1,1119,1135,0,0
-98,-111,0,0,0,0,0,0,0,0,0,-1,1126,1135,0,0
-91,-111,0,0,0,0,0,0,0,0,0,-1,1133,1135,0,0
-84,-111,0,0,0,0,0,0,0,0,0,-1,1140,1135,0,0
-77,-111,0,0,0,0,0,0,0,0,0,-1,1147,1135,0,0
-70,-111,0,0,0,0,0,0,0,0,0,-1,1154,1135,0,0
-63,-111,0,0,0,0,0,0,0,0,0,-1,1161,1135,0,0
-56,-111,0,0,0,0,0,0,0,0,0,-1,1168,1135,0,0
-49,-111,0,0,0,0,0,0,0,0,0,-1,1175,1135,0,0
-42,-111,0,0,0,0,0,0,0,0,0,-1,1182,1135,0,0
-35,-111,0,0,0,0,0,0,0,0,0,-1,1189,1135,0,0
-28,-111,0,0,0,0,0,0,0,0,0,-1,1196,1135,0,0
-21,-111,0,0,0,0,0,0,0,0,0,-1,1203,1135,0,0
-14,-111,0,0,0,0,0,0,0,0,0,-1,1210,1135,0,0
-7,-111,0,0,0,0,0,0,0,0,0,-1,1217,1135,0,0
0,-111,0,0,0,0,0,0,0,0,0,-1,1224,1135,0,0
7,-111,0,0,0,0,0,0,0,0,0,-1,1231,1135,0,0
14,-111,0,0,0,0,0,0,0,0,0,-1,1238,1135,0,0
21,-111,0,0,0,0,0,0,0,0,0,-1,1245,1135,0,0
28,-111,0,0,0,0,0,0,0,0,0,-1,1252,1135,0,0
35,-111,0,0,0,0,0,0,0,0,0,-1,1259,1135,0,0
42,-111,0,0,0,0,0,0,0,0,0,-1,1266,1135,0,0
49,-111,0,0,0,0,0,0,0,0,0,-1,1273,1135,0,0
56,-111,0,0,0,0,0,0,0,0,0,-1,1280,1135,0,0
63,-111,0,0,0,0,0,0,0,0,0,-1,1287,1135,0,0
70,-111,0,0,0,0,0,0,0,0,0,-1,1294,1135,0,0
77,-111,0,0,0,0,0,0,0,0,0,-1,1301,1135,0,0
84,-111,0,0,0,0,0,0,0,0,0,-1,1308,1135,0,0
91,-111,0,0,0,0,0,0,0,0,0,-1,1315,1135,0,0
98,-111,0,0,0,0,0,0,0,0,0,-1,1322,1135,0,0
105,-111,0,0,0,0,0,0,0,0,0,-1,1329,1135,0,0
112,-111,0,0,0,0,0,0,0,0,0,-1,1336,1135,0,0
119,-111,0,0,0,0,0,0,0,0,0,-1,1343,1135,0,0
126,-111,0,0,0,0,0,0,0,0,0,-1,1350,1135,0,0
133,-111,0,0,0,0,0,0,0,0,0,-1,1357,1135,0,0
140,-111,0,0,0,0,0,0,0,0,0,-1,1364,1135,0,0
147,-111,0,0,0,0,0,0,0,0,0,-1,1371,1135,0,0
154,-111,0,0,0,0,0,0,0,0,0,-1,1378,1135,0,0
161,-111,0,0,0,0,0,0,0,0,0,-1,1385,1135,0,0
168,-111,0,0,0,0,0,0,0,0,0,-1,1392,1135,0,0
175,-111,0,0,0,0,0,0,0,0,0,-1,1399,1135,0,0
182,-111,0,0,0,0,0,0,0,0,0,-1,1406,1135,0,0
189,-111,0,0,0,0,0,0,0,0,0,-1,1413,1135,0,0
196,-111,0,0,0,0,0,0,0,0,0,-1,1420,1135,0,0
203,-111,0,0,0,0,0,0,0,0,0,-1,1427,1135,0,0
210,-111,0,0,0,0,0,0,0,0,0,-1,1434,1135,0,0
217,-111,0,0,0,0,0,0,0,0,0,-1,1441,1135,0,0
224,-111,0,0,0,0,0,0,0,0,0,-1,1448,1135,0,0
231,-111,0,0,0,0,0,0,0,0,0,-1,1455,1135,0,0
238,-111,0,0,0,0,0,0,0,0,0,-1,1462,1135,0,0
245,-111,0,0,0,0,0,0,0,0,0,-1,1469,1135,0,0
252,-111,0,0,0,0,0,0,0,0,0,-1,1476,1135,0,0
259,-111,0,0,0,0,0,0,0,0,0,-1,1483,1135,0,0
266,-111,0,0,0,0,0,0,0,0,0,-1,1490,1135,0,0
273,-111,0,0,0,0,0,0,0,0,0,-1,1497,1135,0,0
280,-111,0,0,0,0,0,0,0,0,0,-1,1504,1135,0,0
287,-111,0,0,0,0,0,0,0,0,0,-1,1511,1135,0,0
294,-111,0,0,0,0,0,0,0,0,0,-1,1518,1135,0,0
301,-111,0,0,0,0,0,0,0,0,0,-1,1525,1135,0,0
308,-111,0,0,0,0,0,0,0,0,0,-1,1532,1135,0,0
315,-111,0,0,0,0,0,0,0,0,0,-1,1539,1135,0,0
322,-111,0,0,0,0,0,0,0,0,0,-1,1546,1135,0,0
329,-111,0,0,0,0,0,0,0,0,0,-1,1553,1135,0,0
336,-111,0,0,0,0,0,0,0,0,0,-1,1560,1135,0,0
343,-111,0,0,0,0,0,0,0,0,0,-1,1567,1135,0,0
350,-111,0,0,0,0,0,0,0,0,0,-1,1574,1135,0,0
357,-111,0,0,0,0,0,0,0,0,0,-1,1581,1135,0,0
364,-111,0,0,0,0,0,0,0,0,0,-1,1588,1135,0,0
371,-111,0,0,0,0,0,0,0,0,0,-1,1595,1135,0,0
378,-111,0,0,0,0,0,0,0,0,0,-1,1602,1135,0,0
385,-111,0,0,0,0,0,0,0,0,0,-1,1609,1135,0,0
392,-111,0,0,0,0,0,0,0,0,0,-1,1616,1135,0,0
399,-111,0,0,0,0,0,0,0,0,0,-1,1623,1135,0,0
406,-111,0,0,0,0,0,0,0,0,0,-1,1630,1135,0,0
413,-111,0,0,0,0,0,0,0,0,0,-1,1637,1135,0,0
420,-111,0,0,0,0,0,0,0,0,0,-1,1644,1135,0,0
427,-111,0,0,0,0,0,0,0,0,0,-1,1651,1135,0,0
434,-111,0,0,0,0,0,0,0,0,0,-1,1658,1135,0,0
441,-111,0,0,0,0,0,0,0,0,0,-1,1665,1135,0,0
448,-111,0,0,0,0,0,0,0,0,0,-1,1672,1135,0,0
455,-111,0,0,0,0,0,0,0,0,0,-1,1679,1135,0,0
462,-111,0,0,0,0,0,0,0,0,0,-1,1686,1135,0,0
469,-111,0,0,0,0,0,0,0,0,0,-1,1693,1135,0,0
476,-111,0,0,0,0,0,0,0,0,0,-1,1700,1135,0,0
483,-111,0,0,0,0,0,0,0,0,0,-1,1707,1135,0,0
490,-111,0,0,0,0,0,0,0,0,0,-1,1714,1135,0,0
497,-111,0,0,0,0,0,0,0,0,0,-1,1721,1135,0,0
504,-111,0,0,0,0,0,0,0,0,0,-1,1728,1135,0,0
511,-111,0,0,0,0,0,0,0,0,0,-1,1735,1135,0,0
518,-111,0,0,0,0,0,0,0,0,0,-1,1742,1135,0,0
525,-111,0,0,0,0,0,0,0,0,0,-1,1749,1135,0,0
532,-111,0,0,0,0,0,0,0,0,0,-1,1756,1135,0,0
539,-111,0,0,0,0,0,0,0,0,0,-1,1763,1135,0,0
546,-111,0,0,0,0,0,0,0,0,0,-1,1770,1135,0,0
553,-111,0,0,0,0,0,0,0,0,0,-1,1777,1135,0,0
560,-111,0,0,0,0,0,0,0,0,0,-1,1784,1135,0,0
567,-111,0,0,0,0,0,0,0,0,0,-1,1791,1135,0,0
574,-111,0,0,0,0,0,0,0,0,0,-1,1798,1135,0,0
581,-111,0,0,0,0,0,0,0,0,0,-1,1805,1135,0,0
588,-111,0,0,0,0,0,0,0,0,0,-1,1812,1135,0,0
595,-111,0,0,0,0,0,0,0,0,0,-1,1819,1135,0,0
602,-111,0,0,0,0,0,0,0,0,0,-1,1826,1135,0,0
609,-111,0,0,0,0,0,0,0,0,0,-1,1833,1135,0,0
616,-111,0,0,0,0,0,0,0,0,0,-1,1840,1135,0,0
623,-111,0,0,0,0,0,0,0,0,0,-1,1847,1135,0,0
630,-111,0,0,0,0,0,0,0,0,0,-1,1854,1135,0,0
637,-111,0,0,0,0,0,0,0,0,0,-1,1861,1135,0,0
644,-111,39.2986,2.48535,0.0095714,-0.00128042,0.00669489,0.012763,-0.00447205,0.444856,0.0103273,0.0386391,1868,1135,39.2986,-2.4853
651,-111,39.401,2.82764,0.00748047,-0.000514766,0.00510911,0.00997007,-0.00300436,0.453425,0.00784239,0.0403159,1875,1135,39.4011,-2.82768
658,-111,39.6718,3.07312,0.0058679,-0.000177924,0.00382282,0.00771859,-0.00202861,0.450859,0.00593857,0.0465858,1882,1135,39.6717,-3.07309
665,-111,39.9459,3.33179,0,0,0,0,0,0,0,-1,1889,1135,39.9459,-3.33176
672,-111,39.6587,2.72571,0.00305421,-0.000143665,0.00189643,0.00393581,-0.00102526,0.435152,0.00302412,0.0451957,1896,1135,39.6587,-2.72571
679,-111,39.5708,2.74927,0.00173982,-0.000279886,0.00143617,0.00248564,-0.00102571,0.478977,0.00208487,0.0392857,1903,1135,39.5708,-2.74929
686,-111,39.469,2.66357,0.00074078,-0.000513951,0.00120714,0.00147385,-0.00124702,0.545752,0.00157271,0.0353911,1910,1135,39.469,-2.66362
693,-111,39.4041,2.61389,0.00013504,-0.000626542,0.00109149,0.000910256,-0.00140176,0.617563,0.00134486,0.0344982,1917,1135,39.404,-2.61384
700,-111,39.5118,2.56311,-0.000356277,-0.000724845,0.00092273,0.000400391,-0.00148151,0.686837,0.00114472,0.0270249,1924,1135,39.5119,-2.5631
707,-111,39.5388,2.63647,0,0,0,0,0,0,0,-1,1931,1135,39.5388,-2.63644
714,-111,36.9089,6.35559,0,0,0,0,0,0,0,-1,1938,1135,36.909,-6.35562
721,-111,36.6357,6.16809,-0.00187531,-0.000664463,0.00110755,-7.66723e-06,-0.00253211,1.03553,0.00168552,0.0259996,1945,1135,36.6358,-6.16812
728,-111,36.676,5.91553,-0.00221758,-0.000514422,0.00117868,8.81201e-05,-0.00282012,1.09823,0.00191013,0.0212685,1952,1135,36.6761,-5.91557
735,-111,36.6713,5.67236,-0.00252099,-0.000425509,0.00126427,0.000168741,-0.00311524,1.13141,0.0021353,0.0207594,1959,1135,36.6712,-5.6723
742,-111,36.5955,5.43604,-0.00288343,-0.000110806,0.00140009,0.000473186,-0.00346743,1.17563,0.00248441,0.0127555,1966,1135,36.5955,-5.43598
749,-111,36.5605,5.18152,-0.00321421,0.000633937,0.00143533,0.00111033,-0.0036906,1.25033,0.0029022,0.0148935,1973,1135,36.5605,-5.1815
756,-111,36.5579,4.91284,-0.00337031,0.00173852,0.00107767,0.00195654,-0.00358834,1.37118,0.00324721,0.0153265,1980,1135,36.5579,-4.91284
763,-111,36.5542,4.67969,-0.0033066,0.0029112,0.000611923,0.00297085,-0.00336625,1.47362,0.0036611,0.0142933,1987,1135,36.5543,-4.67974
770,-111,36.5533,4.43555,-0.00299005,0.00437946,-0.000117149,0.00438132,-0.00299192,-1.55491,0.00428206,0.0127082,1994,1135,36.5533,-4.4356
777,-111,36.4355,4.19421,-0.00223938,0.00604567,-0.00112951,0.0061969,-0.0023906,-1.4377,0.00511776,0.0250928,2001,1135,36.4356,-4.19427
784,-111,36.2517,3.88794,-0.00100537,0.00809545,-0.00255324,0.00876282,-0.00167274,-1.31513,0.00647192,0.0411801,2008,1135,36.2517,-3.88789
791,-111,36.0828,3.61194,0,0,0,0,0,0,0,-1,2015,1135,36.0826,-3.61194
798,-111,34.3743,5.36194,0,0,0,0,0,0,0,-1,2022,1135,34.3743,-5.36198
805,-111,35.4585,5.505,0,0,0,0,0,0,0,-1,2029,1135,35.4585,-5.50506
812,-111,35.0906,5.34192,0,0,0,0,0,0,0,-1,2036,1135,35.0906,-5.34189
-700,-118,0,0,0,0,0,0,0,0,0,-1,524,1142,0,0
-693,-118,-24.576,-3.1886,0,0,0,0,0,0,0,-1,531,1142,-24.576,3.1886
-686,-118,-25.0097,-3.62781,0,0,0,0,0,0,0,-1,538,1142,-25.0097,3.6278
-679,-118,-24.5406,-3.57983,0,0,0,0,0,0,0,-1,545,1142,-24.5406,3.57984
-672,-118,-24.502,-3.74866,0,0,0,0,0,0,0,-1,552,1142,-24.502,3.74864
-665,-118,-25.6641,-0.302856,0,0,0,0,0,0,0,-1,559,1142,-25.6641,0.30288
-658,-118,-26.0716,0.597168,0,0,0,0,0,0,0,-1,566,1142,-26.0716,-0.597175
-651,-118,-25.7065,1.0072,-0.00670301,0.002969,-0.00831646,0.00775331,-0.0114873,-1.04875,0.0111781,0.0406772,573,1142,-25.7065,-1.00715
-644,-118,-25.3996,1.39966,-0.0041931,0.00279635,-0.00546009,0.00578435,-0.0071811,-1.07007,0.00750007,0.0282337,580,1142,-25.3996,-1.39966
-637,-118,-25.5146,1.69592,-0.00229929,0.00239921,-0.00345211,0.00422561,-0.00412569,-1.08417,0.00482174,0.0151826,587,1142,-25.5146,-1.69595
-630,-118,-25.5482,1.96509,-0.00092706,0.00199443,-0.00163824,0.0027286,-0.00166122,-1.14949,0.00255931,0.0194686,594,1142,-25.5481,-1.96515
-623,-118,-25.5325,2.25098,-8.21529e-05,0.000995769,-0.000682475,0.00132643,-0.000412819,-1.11962,0.00104932,0.0162594,601,1142,-25.5326,-2.25096
-616,-118,-25.5711,2.53003,0.000486376,0.000289193,-0.000210883,0.000620576,0.000154993,-0.566736,0.000372948,0.0179802,608,1142,-25.5711,-2.52997
-609,-118,-25.7416,2.74316,0.00113139,-0.000169938,0.000218136,0.00116699,-0.00020553,0.161738,0.000854777,0.0288389,615,1142,-25.7417,-2.74313
-602,-118,-25.6887,3.20703,0.00151439,-0.00107267,0.00026773,0.00154181,-0.00110008,0.102047,0.00153239,0.027136,622,1142,-25.6886,-3.20699
-595,-118,-25.7399,3.44934,0.00132572,-0.00114834,-6.14626e-05,0.00132724,-0.00114986,-0.0248225,0.00143138,0.0219886,629,1142,-25.7399,-3.4493
-588,-118,-25.3237,3.98486,0,0,0,0,0,0,0,-1,636,1142,-25.3237,-3.9849
-581,-118,-24.6116,3.89648,0,0,0,0,0,0,0,-1,643,1142,-24.6116,-3.89645
-574,-118,-28.7693,0.768921,0,0,0,0,0,0,0,-1,650,1142,-28.7693,-0.768871
-567,-118,-28.8146,0.917114,0.00119685,-0.00188705,-0.000620314,0.00131695,-0.00200715,-0.19124,0.00193291,0.0418741,657,1142,-28.8147,-0.917175
-560,-118,-28.8231,1.01355,0.00105095,-0.00198178,-0.000882004,0.00128881,-0.00221963,-0.263412,0.00204922,0.0401772,664,1142,-28.8231,-1.01358
-553,-118,-28.7216,0.895386,0.00020152,-0.00199802,-0.00143663,0.000910999,-0.0027075,-0.458717,0.00217327,0.0420487,671,1142,-28.7216,-0.895378
-546,-118,-28.6995,0.878296,-0.00117803,-0.00183131,-0.00209086,0.000611548,-0.0036209,-0.707913,0.00264148,0.0394969,678,1142,-28.6995,-0.878274
-539,-118,-28.8148,0.909302,-0.00324959,-0.00161701,-0.00278189,0.00046588,-0.00533247,-0.928108,0.00372001,0.0396106,685,1142,-28.8148,-0.909304
-532,-118,-28.9272,0.872803,-0.00513851,-0.00122459,-0.00292849,0.000340633,-0.00670373,-1.07995,0.00458692,0.0418597,692,1142,-28.9272,-0.872835
-525,-118,-29.0209,0.717163,-0.00722828,-0.000645383,-0.00285578,0.00042082,-0.00829448,-1.21347,0.00567513,0.0426351,699,1142,-29.0209,-0.717147
-518,-118,0,0,0,0,0,0,0,0,0,-1,706,1142,0,0
-511,-118,0,0,0,0,0,0,0,0,0,-1,713,1142,0,0
-504,-118,0,0,0,0,0,0,0,0,0,-1,720,1142,0,0
-497,-118,0,0,0,0,0,0,0,0,0,-1,727,1142,0,0
-490,-118,0,0,0,0,0,0,0,0,0,-1,734,1142,0,0
-483,-118,0,0,0,0,0,0,0,0,0,-1,741,1142,0,0
-476,-118,0,0,0,0,0,0,0,0,0,-1,748,1142,0,0
-469,-118,0,0,0,0,0,0,0,0,0,-1,755,1142,0,0
-462,-118,0,0,0,0,0,0,0,0,0,-1,762,1142,0,0
-455,-118,0,0,0,0,0,0,0,0,0,-1,769,1142,0,0
-448,-118,0,0,0,0,0,0,0,0,0,-1,776,1142,0,0
-441,-118,0,0,0,0,0,0,0,0,0,-1,783,1142,0,0
-434,-118,0,0,0,0,0,0,0,0,0,-1,790,1142,0,0
-427,-118,0,0,0,0,0,0,0,0,0,-1,797,1142,0,0
-420,-118,0,0,0,0,0,0,0,0,0,-1,804,1142,0,0
-413,-118,0,0,0,0,0,0,0,0,0,-1,811,1142,0,0
-406,-118,0,0,0,0,0,0,0,0,0,-1,818,1142,0,0
-399,-118,0,0,0,0,0,0,0,0,0,-1,825,1142,0,0
-392,-118,0,0,0,0,0,0,0,0,0,-1,832,1142,0,0
-385,-118,0,0,0,0,0,0,0,0,0,-1,839,1142,0,0
-378,-118,0,0,0,0,0,0,0,0,0,-1,846,1142,0,0
-371,-118,0,0,0,0,0,0,0,0,0,-1,853,1142,0,0
-364,-118,0,0,0,0,0,0,0,0,0,-1,860,1142,0,0
-357,-118,0,0,0,0,0,0,0,0,0,-1,867,1142,0,0
-350,-118,0,0,0,0,0,0,0,0,0,-1,874,1142,0,0
-343,-118,0,0,0,0,0,0,0,0,0,-1,881,1142,0,0
-336,-118,0,0,0,0,0,0,0,0,0,-1,888,1142,0,0
-329,-118,0,0,0,0,0,0,0,0,0,-1,895,1142,0,0
-322,-118,0,0,0,0,0,0,0,0,0,-1,902,1142,0,0
-315,-118,0,0,0,0,0,0,0,0,0,-1,909,1142,0,0
-308,-118,0,0,0,0,0,0,0,0,0,-1,916,1142,0,0
-301,-118,0,0,0,0,0,0,0,0,0,-1,923,1142,0,0
-294,-118,0,0,0,0,0,0,0,0,0,-1,930,1142,0,0
-287,-118,0,0,0,0,0,0,0,0,0,-1,937,1142,0,0
-280,-118,0,0,0,0,0,0,0,0,0,-1,944,1142,0,0
-273,-118,0,0,0,0,0,0,0,0,0,-1,951,1142,0,0
-266,-118,0,0,0,0,0,0,0,0,0,-1,958,1142,0,0
-259,-118,0,0,0,0,0,0,0,0,0,-1,965,1142,0,0
-252,-118,0,0,0,0,0,0,0,0,0,-1,972,1142,0,0
-245,-118,0,0,0,0,0,0,0,0,0,-1,979,1142,0,0
-238,-118,0,0,0,0,0,0,0,0,0,-1,986,1142,0,0
-231,-118,0,0,0,0,0,0,0,0,0,-1,993,1142,0,0
-224,-118,0,0,0,0,0,0,0,0,0,-1,1000,1142,0,0
-217,-118,0,0,0,0,0,0,0,0,0,-1,1007,1142,0,0
-210,-118,0,0,0,0,0,0,0,0,0,-1,1014,1142,0,0
-203,-118,0,0,0,0,0,0,0,0,0,-1,1021,1142,0,0
-196,-118,0,0,0,0,0,0,0,0,0,-1,1028,1142,0,0
-189,-118,0,0,0,0,0,0,0,0,0,-1,1035,1142,0,0
-182,-118,0,0,0,0,0,0,0,0,0,-1,1042,1142,0,0
-175,-118,0,0,0,0,0,0,0,0,0,-1,1049,1142,0,0
-168,-118,0,0,0,0,0,0,0,0,0,-1,1056,1142,0,0
-161,-118,0,0,0,0,0,0,0,0,0,-1,1063,1142,0,0
-154,-118,0,0,0,0,0,0,0,0,0,-1,1070,1142,0,0
-147,-118,0,0,0,0,0,0,0,0,0,-1,1077,1142,0,0
-140,-118,0,0,0,0,0,0,0,0,0,-1,1084,1142,0,0
-133,-118,0,0,0,0,0,0,0,0,0,-1,1091,1142,0,0
-126,-118,0,0,0,0,0,0,0,0,0,-1,1098,1142,0,0
-119,-118,0,0,0,0,0,0,0,0,0,-1,1105,1142,0,0
-112,-118,0,0,0,0,0,0,0,0,0,-1,1112,1142,0,0
-105,-118,0,0,0,0,0,0,0,0,0,-1,1119,1142,0,0
-98,-118,0,0,0,0,0,0,0,0,0,-1,1126,1142,0,0
-91,-118,0,0,0,0,0,0,0,0,0,-1,1133,1142,0,0
-84,-118,0,0,0,0,0,0,0,0,0,-1,1140,1142,0,0
-77,-118,0,0,0,0,0,0,0,0,0,-1,1147,1142,0,0
-70,-118,0,0,0,0,0,0,0,0,0,-1,1154,1142,0,0
-63,-118,0,0,0,0,0,0,0,0,0,-1,1161,1142,0,0
-56,-118,0,0,0,0,0,0,0,0,0,-1,1168,1142,0,0
-49,-118,0,0,0,0,0,0,0,0,0,-1,1175,1142,0,0
-42,-118,0,0,0,0,0,0,0,0,0,-1,1182,1142,0,0
-35,-118,0,0,0,0,0,0,0,0,0,-1,1189,1142,0,0
-28,-118,0,0,0,0,0,0,0,0,0,-1,1196,1142,0,0
-21,-118,0,0,0,0,0,0,0,0,0,-1,1203,1142,0,0
-14,-118,0,0,0,0,0,0,0,0,0,-1,1210,1142,0,0
-7,-118,0,0,0,0,0,0,0,0,0,-1,1217,1142,0,0
0,-118,0,0,0,0,0,0,0,0,0,-1,1224,1142,0,0
7,-118,0,0,0,0,0,0,0,0,0,-1,1231,1142,0,0
14,-118,0,0,0,0,0,0,0,0,0,-1,1238,1142,0,0
21,-118,0,0,0,0,0,0,0,0,0,-1,1245,1142,0,0
28,-118,0,0,0,0,0,0,0,0,0,-1,1252,1142,0,0
35,-118,0,0,0,0,0,0,0,0,0,-1,1259,1142,0,0
42,-118,0,0,0,0,0,0,0,0,0,-1,1266,1142,0,0
49,-118,0,0,0,0,0,0,0,0,0,-1,1273,1142,0,0
56,-118,0,0,0,0,0,0,0,0,0,-1,1280,1142,0,0
63,-118,0,0,0,0,0,0,0,0,0,-1,1287,1142,0,0
70,-118,0,0,0,0,0,0,0,0,0,-1,1294,1142,0,0
77,-118,0,0,0,0,0,0,0,0,0,-1,1301,1142,0,0
84,-118,0,0,0,0,0,0,0,0,0,-1,1308,1142,0,0
91,-118,0,0,0,0,0,0,0,0,0,-1,1315,1142,0,0
98,-118,0,0,0,0,0,0,0,0,0,-1,1322,1142,0,0
105,-118,0,0,0,0,0,0,0,0,0,-1,1329,1142,0,0
112,-118,0,0,0,0,0,0,0,0,0,-1,1336,1142,0,0
119,-118,0,0,0,0,0,0,0,0,0,-1,1343,1142,0,0
126,-118,0,0,0,0,0,0,0,0,0,-1,1350,1142,0,0
133,-118,0,0,0,0,0,0,0,0,0,-1,1357,1142,0,0
140,-118,0,0,0,0,0,0,0,0,0,-1,1364,1142,0,0
147,-118,0,0,0,0,0,0,0,0,0,-1,1371,1142,0,0
154,-118,0,0,0,0,0,0,0,0,0,-1,1378,1142,0,0
161,-118,0,0,0,0,0,0,0,0,0,-1,1385,1142,0,0
168,-118,0,0,0,0,0,0,0,0,0,-1,1392,1142,0,0
175,-118,0,0,0,0,0,0,0,0,0,-1,1399,1142,0,0
182,-118,0,0,0,0,0,0,0,0,0,-1,1406,1142,0,0
189,-118,0,0,0,0,0,0,0,0,0,-1,1413,1142,0,0
196,-118,0,0,0,0,0,0,0,0,0,-1,1420,1142,0,0
203,-118,0,0,0,0,0,0,0,0,0,-1,1427,1142,0,0
210,-118,0,0,0,0,0,0,0,0,0,-1,1434,1142,0,0
217,-118,0,0,0,0,0,0,0,0,0,-1,1441,1142,0,0
224,-118,0,0,0,0,0,0,0,0,0,-1,1448,1142,0,0
231,-118,0,0,0,0,0,0,0,0,0,-1,1455,1142,0,0
238,-118,0,0,0,0,0,0,0,0,0,-1,1462,1142,0,0
245,-118,0,0,0,0,0,0,0,0,0,-1,1469,1142,0,0
252,-118,0,0,0,0,0,0,0,0,0,-1,1476,1142,0,0
259,-118,0,0,0,0,0,0,0,0,0,-1,1483,1142,0,0
266,-118,0,0,0,0,0,0,0,0,0,-1,1490,1142,0,0
273,-118,0,0,0,0,0,0,0,0,0,-1,1497,1142,0,0
280,-118,0,0,0,0,0,0,0,0,0,-1,1504,1142,0,0
287,-118,0,0,0,0,0,0,0,0,0,-1,1511,1142,0,0
294,-118,0,0,0,0,0,0,0,0,0,-1,1518,1142,0,0
301,-118,0,0,0,0,0,0,0,0,0,-1,1525,1142,0,0
308,-118,0,0,0,0,0,0,0,0,0,-1,1532,1142,0,0
315,-118,0,0,0,0,0,0,0,0,0,-1,1539,1142,0,0
322,-118,0,0,0,0,0,0,0,0,0,-1,1546,1142,0,0
329,-118,0,0,0,0,0,0,0,0,0,-1,1553,1142,0,0
336,-118,0,0,0,0,0,0,0,0,0,-1,1560,1142,0,0
343,-118,0,0,0,0,0,0,0,0,0,-1,1567,1142,0,0
350,-118,0,0,0,0,0,0,0,0,0,-1,1574,1142,0,0
357,-118,0,0,0,0,0,0,0,0,0,-1,1581,1142,0,0
364,-118,0,0,0,0,0,0,0,0,0,-1,1588,1142,0,0
371,-118,0,0,0,0,0,0,0,0,0,-1,1595,1142,0,0
378,-118,0,0,0,0,0,0,0,0,0,-1,1602,1142,0,0
385,-118,0,0,0,0,0,0,0,0,0,-1,1609,1142,0,0
392,-118,0,0,0,0,0,0,0,0,0,-1,1616,1142,0,0
399,-118,0,0,0,0,0,0,0,0,0,-1,1623,1142,0,0
406,-118,0,0,0,0,0,0,0,0,0,-1,1630,1142,0,0
413,-118,0,0,0,0,0,0,0,0,0,-1,1637,1142,0,0
420,-118,0,0,0,0,0,0,0,0,0,-1,1644,1142,0,0
427,-118,0,0,0,0,0,0,0,0,0,-1,1651,1142,0,0
434,-118,0,0,0,0,0,0,0,0,0,-1,1658,1142,0,0
441,-118,0,0,0,0,0,0,0,0,0,-1,1665,1142,0,0
448,-118,0,0,0,0,0,0,0,0,0,-1,1672,1142,0,0
455,-118,0,0,0,0,0,0,0,0,0,-1,1679,1142,0,0
462,-118,0,0,0,0,0,0,0,0,0,-1,1686,1142,0,0
469,-118,0,0,0,0,0,0,0,0,0,-1,1693,1142,0,0
476,-118,0,0,0,0,0,0,0,0,0,-1,1700,1142,0,0
483,-118,0,0,0,0,0,0,0,0,0,-1,1707,1142,0,0
490,-118,0,0,0,0,0,0,0,0,0,-1,1714,1142,0,0
497,-118,0,0,0,0,0,0,0,0,0,-1,1721,1142,0,0
504,-118,0,0,0,0,0,0,0,0,0,-1,1728,1142,0,0
511,-118,0,0,0,0,0,0,0,0,0,-1,1735,1142,0,0
518,-118,0,0,0,0,0,0,0,0,0,-1,1742,1142,0,0
525,-118,0,0,0,0,0,0,0,0,0,-1,1749,1142,0,0
532,-118,0,0,0,0,0,0,0,0,0,-1,1756,1142,0,0
539,-118,0,0,0,0,0,0,0,0,0,-1,1763,1142,0,0
546,-118,0,0,0,0,0,0,0,0,0,-1,1770,1142,0,0
553,-118,0,0,0,0,0,0,0,0,0,-1,1777,1142,0,0
560,-118,0,0,0,0,0,0,0,0,0,-1,1784,1142,0,0
567,-118,0,0,0,0,0,0,0,0,0,-1,1791,1142,0,0
574,-118,0,0,0,0,0,0,0,0,0,-1,1798,1142,0,0
581,-118,0,0,0,0,0,0,0,0,0,-1,1805,1142,0,0
588,-118,0,0,0,0,0,0,0,0,0,-1,1812,1142,0,0
595,-118,0,0,0,0,0,0,0,0,0,-1,1819,1142,0,0
602,-118,0,0,0,0,0,0,0,0,0,-1,1826,1142,0,0
609,-118,0,0,0,0,0,0,0,0,0,-1,1833,1142,0,0
616,-118,0,0,0,0,0,0,0,0,0,-1,1840,1142,0,0
623,-118,0,0,0,0,0,0,0,0,0,-1,1847,1142,0,0
630,-118,0,0,0,0,0,0,0,0,0,-1,1854,1142,0,0
637,-118,0,0,0,0,0,0,0,0,0,-1,1861,1142,0,0
644,-118,39.3425,2.27185,0.00833071,-0.00251135,0.00571349,0.0107857,-0.00496633,0.405829,0.009299,0.0396452,1868,1142,39.3425,-2.27189
651,-118,39.3684,2.59534,0.00652933,-0.0013228,0.00457773,0.00863399,-0.00342745,0.43094,0.00717668,0.0409362,1875,1142,39.3684,-2.59534
658,-118,39.5643,2.40112,0.00515458,-0.000698768,0.00358048,0.00685233,-0.00239651,0.442768,0.00554254,0.04251,1882,1142,39.5644,-2.40111
665,-118,39.5658,2.36169,0.00384557,-0.000369287,0.00268062,0.00514797,-0.0016717,0.452272,0.00410431,0.0420033,1889,1142,39.5658,-2.3617
672,-118,39.5872,2.59045,0.00275927,-0.000304306,0.00195314,0.00370965,-0.00125468,0.452861,0.00298069,0.0449172,1896,1142,39.5872,-2.59044
679,-118,39.5094,2.7522,0.00155785,-0.00031252,0.00157047,0.00245049,-0.00120516,0.516854,0.00215103,0.0395214,1903,1142,39.5094,-2.75221
686,-118,39.4338,2.68726,0.000633243,-0.000454386,0.00138937,0.00158144,-0.00140258,0.598858,0.00172385,0.0333981,1910,1142,39.4338,-2.68728
693,-118,39.4075,2.61609,7.33546e-05,-0.000466058,0.0012917,0.0011232,-0.00151591,0.682477,0.0015293,0.0353926,1917,1142,39.4075,-2.61604
700,-118,39.5133,2.60974,-0.000407198,-0.000473985,0.00113177,0.000691668,-0.00157285,0.770649,0.00134001,0.0239508,1924,1142,39.5133,-2.60979
707,-118,39.6119,2.74927,0,0,0,0,0,0,0,-1,1931,1142,39.6119,-2.74926
714,-118,36.4661,6.58862,0,0,0,0,0,0,0,-1,1938,1142,36.4661,-6.58862
721,-118,36.3387,6.27991,-0.0019085,-0.000387513,0.00122827,0.000296637,-0.00259265,1.06259,0.00183532,0.0179458,1945,1142,36.3387,-6.27985
728,-118,36.3903,5.99792,-0.0022045,-0.000295574,0.00128705,0.000352302,-0.00285237,1.10445,0.00202924,0.0189429,1952,1142,36.3903,-5.99795
735,-118,36.348,5.72424,-0.00243357,-0.00031934,0.0013655,0.000350415,-0.00310333,1.11479,0.00219503,0.0186927,1959,1142,36.348,-5.72428
742,-118,36.3123,5.46777,-0.00261583,-0.000123555,0.00151293,0.000590358,-0.00332975,1.1299,0.00244054,0.0230134,1966,1142,36.3123,-5.46778
749,-118,36.2842,5.22693,-0.0027326,0.000569453,0.00153318,0.00117154,-0.00333469,1.19659,0.00269974,0.0198309,1973,1142,36.2842,-5.22694
756,-118,36.276,4.9635,-0.00254119,0.00169813,0.00115225,0.00199106,-0.00283413,1.32184,0.00279997,0.0169853,1980,1142,36.276,-4.96354
763,-118,36.3219,4.66003,-0.0019475,0.00291947,0.000659254,0.00300719,-0.00203522,1.43852,0.00292921,0.0103693,1987,1142,36.3218,-4.66008
770,-118,36.2722,4.42432,-0.000951167,0.00449398,-0.000123321,0.00449677,-0.000953959,-1.54816,0.00336127,0.0135226,1994,1142,36.2722,-4.42428
777,-118,36.1576,4.16858,0.000578948,0.00641227,-0.00124529,0.00666699,0.000324229,-1.36903,0.00434062,0.0270779,2001,1142,36.1576,-4.16855
784,-118,36.0422,3.87659,0.00275029,0.00895039,-0.00286769,0.0100734,0.00162731,-1.19756,0.00624423,0.0424094,2008,1142,36.0423,-3.8766
791,-118,35.95,3.61462,0,0,0,0,0,0,0,-1,2015,1142,35.9499,-3.61466
798,-118,36.686,3.39111,0,0,0,0,0,0,0,-1,2022,1142,36.6861,-3.39106
805,-118,35.5571,6.21448,0,0,0,0,0,0,0,-1,2029,1142,35.5572,-6.21443
812,-118,34.5535,5.53748,0,0,0,0,0,0,0,-1,2036,1142,34.5534,-5.53746
-700,-125,0,0,0,0,0,0,0,0,0,-1,524,1149,0,0
-693,-125,-24.2044,-3.78491,-0.0523527,-0.00842448,-0.0580878,0.0317131,-0.0924903,-0.966149,0.0745157,0.0499488,531,1149,-24.2044,3.78488
-686,-125,-24.5316,-4.01123,0,0,0,0,0,0,0,-1,538,1149,-24.5316,4.01127
-679,-125,-24.4293,-4.18396,0,0,0,0,0,0,0,-1,545,1149,-24.4293,4.18398
-672,-125,-24.3436,-4.48572,0,0,0,0,0,0,0,-1,552,1149,-24.3436,4.48575
-665,-125,-28.4418,1.37329,0,0,0,0,0,0,0,-1,559,1149,-28.4418,-1.37324
-658,-125,-26.0754,0.843506,0,0,0,0,0,0,0,-1,566,1149,-26.0754,-0.843504
-651,-125,-25.4678,0.878662,-0.0086899,0.00247602,-0.0124234,0.0105133,-0.0167271,-0.996572,0.0158631,0.0371858,573,1149,-25.4678,-0.878614
-644,-125,-25.0751,1.36121,-0.00557951,0.00234199,-0.0084155,0.00768221,-0.0109197,-1.00534,0.0107939,0.0264568,580,1149,-25.0751,-1.36117
-637,-125,-25.1731,1.67957,-0.00329715,0.00193877,-0.00549381,0.0054065,-0.00676488,-1.00775,0.00704173,0.0136631,587,1149,-25.1731,-1.67958
-630,-125,-25.1993,1.97693,-0.00158562,0.00167984,-0.00278444,0.00327494,-0.00318072,-1.05057,0.00372731,0.0143716,594,1149,-25.1993,-1.97688
-623,-125,-25.1992,2.27844,-0.000623581,0.000869051,-0.00123489,0.00156563,-0.00132016,-1.05721,0.00166812,0.012813,601,1149,-25.1991,-2.27841
-616,-125,-25.2144,2.55652,-0.000113547,0.000201474,-0.000478284,0.000547515,-0.000459589,-0.944467,0.00058219,0.0169458,608,1149,-25.2144,-2.5565
-609,-125,-25.325,2.79089,0.000484749,-0.000211396,4.42885e-05,0.000487555,-0.000214202,0.0632796,0.000415279,0.0318536,615,1149,-25.325,-2.7909
-602,-125,-25.3608,3.21143,0.000866721,-0.00103826,0.000182636,0.000884073,-0.00105561,0.0947232,0.00112134,0.0267183,622,1149,-25.3608,-3.2114
-595,-125,-25.3913,3.54797,0.000684171,-0.00102465,-0.000106639,0.0006908,-0.00103128,-0.0620842,0.0010007,0.0254945,629,1149,-25.3913,-3.54792
-588,-125,-25.0334,3.97754,0.000629265,-0.00116921,-0.000454522,0.000737608,-0.00127755,-0.234,0.00117729,0.0439965,636,1149,-25.0334,-3.97752
-581,-125,-24.6721,4.42993,0,0,0,0,0,0,0,-1,643,1149,-24.6721,-4.4299
-574,-125,-28.6239,0.515015,0,0,0,0,0,0,0,-1,650,1149,-28.6239,-0.514981
-567,-125,-28.739,0.681885,0.000700817,-0.00151299,-0.000519892,0.000816829,-0.001629,-0.21955,0.00143782,0.0411826,657,1149,-28.7389,-0.68194
-560,-125,-28.8391,0.850586,0.000661139,-0.00153262,-0.000708624,0.000870128,-0.00174161,-0.286792,0.00153561,0.0406439,664,1149,-28.8391,-0.850609
-553,-125,-28.7318,0.84729,-2.77756e-05,-0.00146256,-0.00113344,0.00059623,-0.00208657,-0.503257,0.00162663,0.0407966,671,1149,-28.7317,-0.847266
-546,-125,-28.8383,0.814209,-0.00114214,-0.00119665,-0.00156413,0.000394971,-0.00273376,-0.776687,0.00196742,0.0400739,678,1149,-28.8383,-0.814238
-539,-125,-28.8073,0.876953,-0.00302092,-0.000876792,-0.00189761,0.000230647,-0.00412836,-1.04252,0.00283226,0.0408619,685,1149,-28.8072,-0.87692
-532,-125,-28.7647,0.759888,-0.00494712,-0.000365374,-0.00158342,0.000128592,-0.00544109,-1.2684,0.00367101,0.0410734,692,1149,-28.7647,-0.759912
-525,-125,-28.8112,0.601563,-0.00698512,0.000235557,-0.0010367,0.000381452,-0.00713102,-1.43098,0.00488613,0.0440043,699,1149,-28.8112,-0.601621
-518,-125,0,0,0,0,0,0,0,0,0,-1,706,1149,0,0
-511,-125,0,0,0,0,0,0,0,0,0,-1,713,1149,0,0
-504,-125,0,0,0,0,0,0,0,0,0,-1,720,1149,0,0
-497,-125,0,0,0,0,0,0,0,0,0,-1,727,1149,0,0
-490,-125,0,0,0,0,0,0,0,0,0,-1,734,1149,0,0
-483,-125,0,0,0,0,0,0,0,0,0,-1,741,1149,0,0
-476,-125,0,0,0,0,0,0,0,0,0,-1,748,1149,0,0
-469,-125,0,0,0,0,0,0,0,0,0,-1,755,1149,0,0
-462,-125,0,0,0,0,0,0,0,0,0,-1,762,1149,0,0
-455,-125,0,0,0,0,0,0,0,0,0,-1,769,1149,0,0
-448,-125,0,0,0,0,0,0,0,0,0,-1,776,1149,0,0
-441,-125,0,0,0,0,0,0,0,0,0,-1,783,1149,0,0
-434,-125,0,0,0,0,0,0,0,0,0,-1,790,1149,0,0
-427,-125,0,0,0,0,0,0,0,0,0,-1,797,1149,0,0
-420,-125,0,0,0,0,0,0,0,0,0,-1,804,1149,0,0
-413,-125,0,0,0,0,0,0,0,0,0,-1,811,1149,0,0
-406,-125,0,0,0,0,0,0,0,0,0,-1,818,1149,0,0
-399,-125,0,0,0,0,0,0,0,0,0,-1,825,1149,0,0
-392,-125,0,0,0,0,0,0,0,0,0,-1,832,1149,0,0
-385,-125,0,0,0,0,0,0,0,0,0,-1,839,1149,0,0
-378,-125,0,0,0,0,0,0,0,0,0,-1,846,1149,0,0
-371,-125,0,0,0,0,0,0,0,0,0,-1,853,1149,0,0
-364,-125,0,0,0,0,0,0,0,0,0,-1,860,1149,0,0
-357,-125,0,0,0,0,0,0,0,0,0,-1,867,1149,0,0
-350,-125,0,0,0,0,0,0,0,0,0,-1,874,1149,0,0
-343,-125,0,0,0,0,0,0,0,0,0,-1,881,1149,0,0
-336,-125,0,0,0,0,0,0,0,0,0,-1,888,1149,0,0
-329,-125,0,0,0,0,0,0,0,0,0,-1,895,1149,0,0
-322,-125,0,0,0,0,0,0,0,0,0,-1,902,1149,0,0
-315,-125,0,0,0,0,0,0,0,0,0,-1,909,1149,0,0
-308,-125,0,0,0,0,0,0,0,0,0,-1,916,1149,0,0
-301,-125,0,0,0,0,0,0,0,0,0,-1,923,1149,0,0
-294,-125,0,0,0,0,0,0,0,0,0,-1,930,1149,0,0
-287,-125,0,0,0,0,0,0,0,0,0,-1,937,1149,0,0
-280,-125,0,0,0,0,0,0,0,0,0,-1,944,1149,0,0
-273,-125,0,0,0,0,0,0,0,0,0,-1,951,1149,0,0
-266,-125,0,0,0,0,0,0,0,0,0,-1,958,1149,0,0
-259,-125,0,0,0,0,0,0,0,0,0,-1,965,1149,0,0
-252,-125,0,0,0,0,0,0,0,0,0,-1,972,1149,0,0
-245,-125,0,0,0,0,0,0,0,0,0,-1,979,1149,0,0
-238,-125,0,0,0,0,0,0,0,0,0,-1,986,1149,0,0
-231,-125,0,0,0,0,0,0,0,0,0,-1,993,1149,0,0
-224,-125,0,0,0,0,0,0,0,0,0,-1,1000,1149,0,0
-217,-125,0,0,0,0,0,0,0,0,0,-1,1007,1149,0,0
-210,-125,0,0,0,0,0,0,0,0,0,-1,1014,1149,0,0
-203,-125,0,0,0,0,0,0,0,0,0,-1,1021,1149,0,0
-196,-125,0,0,0,0,0,0,0,0,0,-1,1028,1149,0,0
-189,-125,0,0,0,0,0,0,0,0,0,-1,1035,1149,0,0
-182,-125,0,0,0,0,0,0,0,0,0,-1,1042,1149,0,0
-175,-125,0,0,0,0,0,0,0,0,0,-1,1049,1149,0,0
-168,-125,0,0,0,0,0,0,0,0,0,-1,1056,1149,0,0
-161,-125,0,0,0,0,0,0,0,0,0,-1,1063,1149,0,0
-154,-125,0,0,0,0,0,0,0,0,0,-1,1070,1149,0,0
-147,-125,0,0,0,0,0,0,0,0,0,-1,1077,1149,0,0
-140,-125,0,0,0,0,0,0,0,0,0,-1,1084,1149,0,0
-133,-125,0,0,0,0,0,0,0,0,0,-1,1091,1149,0,0
-126,-125,0,0,0,0,0,0,0,0,0,-1,1098,1149,0,0
-119,-125,0,0,0,0,0,0,0,0,0,-1,1105,1149,0,0
-112,-125,0,0,0,0,0,0,0,0,0,-1,1112,1149,0,0
-105,-125,0,0,0,0,0,0,0,0,0,-1,1119,1149,0,0
-98,-125,0,0,0,0,0,0,0,0,0,-1,1126,1149,0,0
-91,-125,0,0,0,0,0,0,0,0,0,-1,1133,1149,0,0
-84,-125,0,0,0,0,0,0,0,0,0,-1,1140,1149,0,0
-77,-125,0,0,0,0,0,0,0,0,0,-1,1147,1149,0,0
-70,-125,0,0,0,0,0,0,0,0,0,-1,1154,1149,0,0
-63,-125,0,0,0,0,0,0,0,0,0,-1,1161,1149,0,0
-56,-125,0,0,0,0,0,0,0,0,0,-1,1168,1149,0,0
-49,-125,0,0,0,0,0,0,0,0,0,-1,1175,1149,0,0
-42,-125,0,0,0,0,0,0,0,0,0,-1,1182,1149,0,0
-35,-125,0,0,0,0,0,0,0,0,0,-1,1189,1149,0,0
-28,-125,0,0,0,0,0,0,0,0,0,-1,1196,1149,0,0
-21,-125,0,0,0,0,0,0,0,0,0,-1,1203,1149,0,0
-14,-125,0,0,0,0,0,0,0,0,0,-1,1210,1149,0,0
-7,-125,0,0,0,0,0,0,0,0,0,-1,1217,1149,0,0
0,-125,0,0,0,0,0,0,0,0,0,-1,1224,1149,0,0
7,-125,0,0,0,0,0,0,0,0,0,-1,1231,1149,0,0
14,-125,0,0,0,0,0,0,0,0,0,-1,1238,1149,0,0
21,-125,0,0,0,0,0,0,0,0,0,-1,1245,1149,0,0
28,-125,0,0,0,0,0,0,0,0,0,-1,1252,1149,0,0
35,-125,0,0,0,0,0,0,0,0,0,-1,1259,1149,0,0
42,-125,0,0,0,0,0,0,0,0,0,-1,1266,1149,0,0
49,-125,0,0,0,0,0,0,0,0,0,-1,1273,1149,0,0
56,-125,0,0,0,0,0,0,0,0,0,-1,1280,1149,0,0
63,-125,0,0,0,0,0,0,0,0,0,-1,1287,1149,0,0
70,-125,0,0,0,0,0,0,0,0,0,-1,1294,1149,0,0
77,-125,0,0,0,0,0,0,0,0,0,-1,1301,1149,0,0
84,-125,0,0,0,0,0,0,0,0,0,-1,1308,1149,0,0
91,-125,0,0,0,0,0,0,0,0,0,-1,1315,1149,0,0
98,-125,0,0,0,0,0,0,0,0,0,-1,1322,1149,0,0
105,-125,0,0,0,0,0,0,0,0,0,-1,1329,1149,0,0
112,-125,0,0,0,0,0,0,0,0,0,-1,1336,1149,0,0
119,-125,0,0,0,0,0,0,0,0,0,-1,1343,1149,0,0
126,-125,0,0,0,0,0,0,0,0,0,-1,1350,1149,0,0
133,-125,0,0,0,0,0,0,0,0,0,-1,1357,1149,0,0
140,-125,0,0,0,0,0,0,0,0,0,-1,1364,1149,0,0
147,-125,0,0,0,0,0,0,0,0,0,-1,1371,1149,0,0
154,-125,0,0,0,0,0,0,0,0,0,-1,1378,1149,0,0
161,-125,0,0,0,0,0,0,0,0,0,-1,1385,1149,0,0
168,-125,0,0,0,0,0,0,0,0,0,-1,1392,1149,0,0
175,-125,0,0,0,0,0,0,0,0,0,-1,1399,1149,0,0
182,-125,0,0,0,0,0,0,0,0,0,-1,1406,1149,0,0
189,-125,0,0,0,0,0,0,0,0,0,-1,1413,1149,0,0
196,-125,0,0,0,0,0,0,0,0,0,-1,1420,1149,0,0
203,-125,0,0,0,0,0,0,0,0,0,-1,1427,1149,0,0
210,-125,0,0,0,0,0,0,0,0,0,-1,1434,1149,0,0
217,-125,0,0,0,0,0,0,0,0,0,-1,1441,1149,0,0
224,-125,0,0,0,0,0,0,0,0,0,-1,1448,1149,0,0
231,-125,0,0,0,0,0,0,0,0,0,-1,1455,1149,0,0
238,-125,0,0,0,0,0,0,0,0,0,-1,1462,1149,0,0
245,-125,0,0,0,0,0,0,0,0,0,-1,1469,1149,0,0
252,-125,0,0,0,0,0,0,0,0,0,-1,1476,1149,0,0
259,-125,0,0,0,0,0,0,0,0,0,-1,1483,1149,0,0
266,-125,0,0,0,0,0,0,0,0,0,-1,1490,1149,0,0
273,-125,0,0,0,0,0,0,0,0,0,-1,1497,1149,0,0
280,-125,0,0,0,0,0,0,0,0,0,-1,1504,1149,0,0
287,-125,0,0,0,0,0,0,0,0,0,-1,1511,1149,0,0
294,-125,0,0,0,0,0,0,0,0,0,-1,1518,1149,0,0
301,-125,0,0,0,0,0,0,0,0,0,-1,1525,1149,0,0
308,-125,0,0,0,0,0,0,0,0,0,-1,1532,1149,0,0
315,-125,0,0,0,0,0,0,0,0,0,-1,1539,1149,0,0
322,-125,0,0,0,0,0,0,0,0,0,-1,1546,1149,0,0
329,-125,0,0,0,0,0,0,0,0,0,-1,1553,1149,0,0
336,-125,0,0,0,0,0,0,0,0,0,-1,1560,1149,0,0
343,-125,0,0,0,0,0,0,0,0,0,-1,1567,1149,0,0
350,-125,0,0,0,0,0,0,0,0,0,-1,1574,1149,0,0
357,-125,0,0,0,0,0,0,0,0,0,-1,1581,1149,0,0
364,-125,0,0,0,0,0,0,0,0,0,-1,1588,1149,0,0
371,-125,0,0,0,0,0,0,0,0,0,-1,1595,1149,0,0
378,-125,0,0,0,0,0,0,0,0,0,-1,1602,1149,0,0
385,-125,0,0,0,0,0,0,0,0,0,-1,1609,1149,0,0
392,-125,0,0,0,0,0,0,0,0,0,-1,1616,1149,0,0
399,-125,0,0,0,0,0,0,0,0,0,-1,1623,1149,0,0
406,-125,0,0,0,0,0,0,0,0,0,-1,1630,1149,0,0
413,-125,0,0,0,0,0,0,0,0,0,-1,1637,1149,0,0
420,-125,0,0,0,0,0,0,0,0,0,-1,1644,1149,0,0
427,-125,0,0,0,0,0,0,0,0,0,-1,1651,1149,0,0
434,-125,0,0,0,0,0,0,0,0,0,-1,1658,1149,0,0
441,-125,0,0,0,0,0,0,0,0,0,-1,1665,1149,0,0
448,-125,0,0,0,0,0,0,0,0,0,-1,1672,1149,0,0
455,-125,0,0,0,0,0,0,0,0,0,-1,1679,1149,0,0
462,-125,0,0,0,0,0,0,0,0,0,-1,1686,1149,0,0
469,-125,0,0,0,0,0,0,0,0,0,-1,1693,1149,0,0
476,-125,0,0,0,0,0,0,0,0,0,-1,1700,1149,0,0
483,-125,0,0,0,0,0,0,0,0,0,-1,1707,1149,0,0
490,-125,0,0,0,0,0,0,0,0,0,-1,1714,1149,0,0
497,-125,0,0,0,0,0,0,0,0,0,-1,1721,1149,0,0
504,-125,0,0,0,0,0,0,0,0,0,-1,1728,1149,0,0
511,-125,0,0,0,0,0,0,0,0,0,-1,1735,1149,0,0
518,-125,0,0,0,0,0,0,0,0,0,-1,1742,1149,0,0
525,-125,0,0,0,0,0,0,0,0,0,-1,1749,1149,0,0
532,-125,0,0,0,0,0,0,0,0,0,-1,1756,1149,0,0
539,-125,0,0,0,0,0,0,0,0,0,-1,1763,1149,0,0
546,-125,0,0,0,0,0,0,0,0,0,-1,1770,1149,0,0
553,-125,0,0,0,0,0,0,0,0,0,-1,1777,1149,0,0
560,-125,0,0,0,0,0,0,0,0,0,-1,1784,1149,0,0
567,-125,0,0,0,0,0,0,0,0,0,-1,1791,1149,0,0
574,-125,0,0,0,0,0,0,0,0,0,-1,1798,1149,0,0
581,-125,0,0,0,0,0,0,0,0,0,-1,1805,1149,0,0
588,-125,0,0,0,0,0,0,0,0,0,-1,1812,1149,0,0
595,-125,0,0,0,0,0,0,0,0,0,-1,1819,1149,0,0
602,-125,0,0,0,0,0,0,0,0,0,-1,1826,1149,0,0
609,-125,0,0,0,0,0,0,0,0,0,-1,1833,1149,0,0
616,-125,0,0,0,0,0,0,0,0,0,-1,1840,1149,0,0
623,-125,0,0,0,0,0,0,0,0,0,-1,1847,1149,0,0
630,-125,0,0,0,0,0,0,0,0,0,-1,1854,1149,0,0
637,-125,0,0,0,0,0,0,0,0,0,-1,1861,1149,0,0
644,-125,39.4664,2.14392,0.0063573,-0.00455151,0.00433494,0.00787012,-0.00606433,0.335769,0.00806755,0.0411471,1868,1149,39.4665,-2.14393
651,-125,39.4324,2.52417,0.00501244,-0.00281287,0.00372144,0.0064996,-0.00430003,0.380178,0.00627813,0.0404982,1875,1149,39.4324,-2.52417
658,-125,39.3395,2.51196,0.00401936,-0.00174535,0.00306555,0.00534481,-0.00307079,0.408094,0.00491752,0.0404393,1882,1149,39.3395,-2.51199
665,-125,39.4008,2.39331,0.00307561,-0.0010294,0.00239166,0.00417474,-0.00212853,0.430782,0.00370256,0.0404626,1889,1149,39.4007,-2.39336
672,-125,39.4824,2.38306,0.00230908,-0.000660732,0.00181136,0.00316639,-0.00151804,0.442057,0.00275981,0.0411821,1896,1149,39.4825,-2.38307
679,-125,39.4496,2.32874,0.00127984,-0.000437547,0.00152985,0.00217551,-0.00133322,0.529662,0.00204513,0.0368978,1903,1149,39.4496,-2.32871
686,-125,39.4633,2.57422,0.000461469,-0.000421874,0.00141643,0.00150349,-0.0014639,0.634265,0.00171327,0.0336339,1910,1149,39.4633,-2.57416
693,-125,39.4458,2.60095,-1.87002e-05,-0.00030105,0.00137323,0.00122059,-0.00154034,0.734175,0.00159758,0.0342098,1917,1149,39.4457,-2.6009
700,-125,39.5032,2.6427,-0.000469273,-0.000155731,0.00126084,0.000958044,-0.00158305,0.84725,0.00148182,0.0183422,1924,1149,39.5031,-2.64267
707,-125,39.6656,2.82446,0,0,0,0,0,0,0,-1,1931,1149,39.6657,-2.82449
714,-125,36.0803,6.61084,0,0,0,0,0,0,0,-1,1938,1149,36.0803,-6.61085
721,-125,36.0464,6.31824,-0.00188238,2.34488e-05,0.00129233,0.000676198,-0.00253513,1.10308,0.00195487,0.0247786,1945,1149,36.0464,-6.3182
728,-125,36.0404,6.05835,-0.00209208,6.50185e-05,0.00135416,0.000717656,-0.00274472,1.12169,0.00211011,0.0195449,1952,1149,36.0404,-6.05835
735,-125,36.0406,5.79333,-0.0022289,-6.44171e-05,0.00144752,0.000660704,-0.00295402,1.1064,0.00222256,0.020932,1959,1149,36.0406,-5.79332
742,-125,36.0455,5.49146,-0.00221852,2.79625e-05,0.0016003,0.00085988,-0.00305044,1.0914,0.00237277,0.0252839,1966,1149,36.0456,-5.49146
749,-125,36.0093,5.20837,-0.00206258,0.000643174,0.00161749,0.00139898,-0.00281839,1.13367,0.00248044,0.026136,1973,1149,36.0093,-5.20843
756,-125,35.9917,4.95142,-0.00140079,0.00179525,0.00122761,0.00221235,-0.00181788,1.24327,0.00233057,0.020356,1980,1149,35.9917,-4.95138
763,-125,36.0303,4.66125,-0.000138355,0.00314043,0.000716688,0.00329024,-0.000288166,1.36473,0.00229559,0.0116456,1987,1149,36.0302,-4.66128
770,-125,35.9788,4.37744,0.00164702,0.00493038,-0.000107376,0.00493389,0.00164352,-1.53814,0.00290099,0.0151067,1994,1149,35.9787,-4.3775
777,-125,35.8878,4.13672,0.00405121,0.0072828,-0.00133203,0.00776106,0.00357294,-1.22608,0.00448554,0.0274854,2001,1149,35.8878,-4.13676
784,-125,35.8126,3.80518,0.00721825,0.0106101,-0.00315714,0.012498,0.00533038,-1.03187,0.00724167,0.0431832,2008,1149,35.8127,-3.80523
791,-125,35.7678,3.4834,0,0,0,0,0,0,0,-1,2015,1149,35.7678,-3.48337
798,-125,33.9592,5.6936,0,0,0,0,0,0,0,-1,2022,1149,33.9592,-5.69356
805,-125,34.1406,5.93469,0,0,0,0,0,0,0,-1,2029,1149,34.1406,-5.93473
812,-125,34.468,5.57092,0,0,0,0,0,0,0,-1,2036,1149,34.468,-5.57097
-700,-132,0,0,0,0,0,0,0,0,0,-1,524,1156,0,0
-693,-132,-23.821,-4.25403,0,0,0,0,0,0,0,-1,531,1156,-23.821,4.25403
-686,-132,-24.3304,-4.45251,0,0,0,0,0,0,0,-1,538,1156,-24.3304,4.45254
-679,-132,-24.1101,-4.60364,0,0,0,0,0,0,0,-1,545,1156,-24.1101,4.60364
-672,-132,-24.398,0.24939,0,0,0,0,0,0,0,-1,552,1156,-24.398,-0.249343
-665,-132,-24.9572,0.773193,0,0,0,0,0,0,0,-1,559,1156,-24.9571,-0.773167
-658,-132,-25.2394,0.648071,0,0,0,0,0,0,0,-1,566,1156,-25.2394,-0.648129
-651,-132,-25.5217,0.523071,0,0,0,0,0,0,0,-1,573,1156,-25.5217,-0.52309
-644,-132,-24.8199,1.3396,-0.00605936,0.00170258,-0.0114981,0.00995703,-0.0143138,-0.94816,0.0140878,0.021136,580,1156,-24.82,-1.33954
-637,-132,-24.8379,1.65332,-0.00358131,0.00133621,-0.00758942,0.00685522,-0.00910033,-0.942049,0.00924229,0.0118318,587,1156,-24.8379,-1.65337
-630,-132,-24.8487,1.96606,-0.0017124,0.00125102,-0.00396182,0.00399914,-0.00446052,-0.964344,0.00488661,0.010069,594,1156,-24.8487,-1.96607
-623,-132,-24.8865,2.29858,-0.000812866,0.000681344,-0.00179835,0.0018816,-0.00201313,-0.98227,0.00224905,0.0152329,601,1156,-24.8865,-2.29859
-616,-132,-24.9344,2.57581,-0.000509648,6.63427e-05,-0.000726964,0.00056028,-0.00100359,-0.973995,0.00091491,0.0233412,608,1156,-24.9344,-2.57584
-609,-132,-24.9769,2.98511,0,0,0,0,0,0,0,-1,615,1156,-24.9769,-2.98511
-602,-132,-24.937,3.15259,0.000320961,-0.0010102,4.00276e-05,0.000322163,-0.00101141,0.0300334,0.000803485,0.024658,622,1156,-24.937,-3.15255
-595,-132,-25.0164,3.51807,0.000130903,-0.000922586,-0.000233549,0.000180357,-0.00097204,-0.208668,0.000715761,0.0328407,629,1156,-25.0164,-3.51807
-588,-132,-24.8554,4.00195,6.49129e-05,-0.00103225,-0.00057024,0.000307605,-0.00127495,-0.402376,0.000968915,0.029529,636,1156,-24.8554,-4.00192
-581,-132,-24.5222,4.55896,0,0,0,0,0,0,0,-1,643,1156,-24.5222,-4.55894
-574,-132,-27.3474,2.18237,0,0,0,0,0,0,0,-1,650,1156,-27.3474,-2.18241
-567,-132,-28.6537,0.470825,0,0,0,0,0,0,0,-1,657,1156,-28.6537,-0.470783
-560,-132,-28.8151,0.757935,0.000313881,-0.00112777,-0.000602261,0.000532367,-0.00134626,-0.348012,0.00111804,0.0353195,664,1156,-28.815,-0.757945
-553,-132,-28.8271,0.800537,-0.000206857,-0.000934042,-0.000881572,0.000383159,-0.00152406,-0.589807,0.00116495,0.0374839,671,1156,-28.8271,-0.800478
-546,-132,-28.8253,0.710815,-0.00102733,-0.000515411,-0.00107059,0.000329391,-0.00187213,-0.902737,0.00137114,0.0409858,678,1156,-28.8253,-0.710778
-539,-132,-28.718,0.750488,-0.00263571,1.29483e-05,-0.00101847,0.000359283,-0.00298205,-1.24301,0.00211797,0.0435656,685,1156,-28.7179,-0.750489
-532,-132,-28.59,0.718994,-0.00453758,0.000842498,-0.000185597,0.000848894,-0.00454398,-1.53635,0.00334835,0.042009,692,1156,-28.59,-0.718996
-525,-132,-28.653,0.769165,-0.00646283,0.00172175,0.000953387,0.00183134,-0.00657242,1.45635,0.0051028,0.0412176,699,1156,-28.653,-0.769211
-518,-132,0,0,0,0,0,0,0,0,0,-1,706,1156,0,0
-511,-132,0,0,0,0,0,0,0,0,0,-1,713,1156,0,0
-504,-132,0,0,0,0,0,0,0,0,0,-1,720,1156,0,0
-497,-132,0,0,0,0,0,0,0,0,0,-1,727,1156,0,0
-490,-132,0,0,0,0,0,0,0,0,0,-1,734,1156,0,0
-483,-132,0,0,0,0,0,0,0,0,0,-1,741,1156,0,0
-476,-132,0,0,0,0,0,0,0,0,0,-1,748,1156,0,0
-469,-132,0,0,0,0,0,0,0,0,0,-1,755,1156,0,0
-462,-132,0,0,0,0,0,0,0,0,0,-1,762,1156,0,0
-455,-132,0,0,0,0,0,0,0,0,0,-1,769,1156,0,0
-448,-132,0,0,0,0,0,0,0,0,0,-1,776,1156,0,0
-441,-132,0,0,0,0,0,0,0,0,0,-1,783,1156,0,0
-434,-132,0,0,0,0,0,0,0,0,0,-1,790,1156,0,0
-427,-132,0,0,0,0,0,0,0,0,0,-1,797,1156,0,0
-420,-132,0,0,0,0,0,0,0,0,0,-1,804,1156,0,0
-413,-132,0,0,0,0,0,0,0,0,0,-1,811,1156,0,0
-406,-132,0,0,0,0,0,0,0,0,0,-1,818,1156,0,0
-399,-132,0,0,0,0,0,0,0,0,0,-1,825,1156,0,0
-392,-132,0,0,0,0,0,0,0,0,0,-1,832,1156,0,0
-385,-132,0,0,0,0,0,0,0,0,0,-1,839,1156,0,0
-378,-132,0,0,0,0,0,0,0,0,0,-1,846,1156,0,0
-371,-132,0,0,0,0,0,0,0,0,0,-1,853,1156,0,0
-364,-132,0,0,0,0,0,0,0,0,0,-1,860,1156,0,0
-357,-132,0,0,0,0,0,0,0,0,0,-1,867,1156,0,0
-350,-132,0,0,0,0,0,0,0,0,0,-1,874,1156,0,0
-343,-132,0,0,0,0,0,0,0,0,0,-1,881,1156,0,0
-336,-132,0,0,0,0,0,0,0,0,0,-1,888,1156,0,0
-329,-132,0,0,0,0,0,0,0,0,0,-1,895,1156,0,0
-322,-132,0,0,0,0,0,0,0,0,0,-1,902,1156,0,0
-315,-132,0,0,0,0,0,0,0,0,0,-1,909,1156,0,0
-308,-132,0,0,0,0,0,0,0,0,0,-1,916,1156,0,0
-301,-132,0,0,0,0,0,0,0,0,0,-1,923,1156,0,0
-294,-132,0,0,0,0,0,0,0,0,0,-1,930,1156,0,0
-287,-132,0,0,0,0,0,0,0,0,0,-1,937,1156,0,0
-280,-132,0,0,0,0,0,0,0,0,0,-1,944,1156,0,0
-273,-132,0,0,0,0,0,0,0,0,0,-1,951,1156,0,0
-266,-132,0,0,0,0,0,0,0,0,0,-1,958,1156,0,0
-259,-132,0,0,0,0,0,0,0,0,0,-1,965,1156,0,0
-252,-132,0,0,0,0,0,0,0,0,0,-1,972,1156,0,0
-245,-132,0,0,0,0,0,0,0,0,0,-1,979,1156,0,0
-238,-132,0,0,0,0,0,0,0,0,0,-1,986,1156,0,0
-231,-132,0,0,0,0,0,0,0,0,0,-1,993,1156,0,0
-224,-132,0,0,0,0,0,0,0,0,0,-1,1000,1156,0,0
-217,-132,0,0,0,0,0,0,0,0,0,-1,1007,1156,0,0
-210,-132,0,0,0,0,0,0,0,0,0,-1,1014,1156,0,0
-203,-132,0,0,0,0,0,0,0,0,0,-1,1021,1156,0,0
-196,-132,0,0,0,0,0,0,0,0,0,-1,1028,1156,0,0
-189,-132,0,0,0,0,0,0,0,0,0,-1,1035,1156,0,0
-182,-132,0,0,0,0,0,0,0,0,0,-1,1042,1156,0,0
-175,-132,0,0,0,0,0,0,0,0,0,-1,1049,1156,0,0
-168,-132,0,0,0,0,0,0,0,0,0,-1,1056,1156,0,0
-161,-132,0,0,0,0,0,0,0,0,0,-1,1063,1156,0,0
-154,-132,0,0,0,0,0,0,0,0,0,-1,1070,1156,0,0
-147,-132,0,0,0,0,0,0,0,0,0,-1,1077,1156,0,0
-140,-132,0,0,0,0,0,0,0,0,0,-1,1084,1156,0,0
-133,-132,0,0,0,0,0,0,0,0,0,-1,1091,1156,0,0
-126,-132,0,0,0,0,0,0,0,0,0,-1,1098,1156,0,0
-119,-132,0,0,0,0,0,0,0,0,0,-1,1105,1156,0,0
-112,-132,0,0,0,0,0,0,0,0,0,-1,1112,1156,0,0
-105,-132,0,0,0,0,0,0,0,0,0,-1,1119,1156,0,0
-98,-132,0,0,0,0,0,0,0,0,0,-1,1126,1156,0,0
-91,-132,0,0,0,0,0,0,0,0,0,-1,1133,1156,0,0
-84,-132,0,0,0,0,0,0,0,0,0,-1,1140,1156,0,0
-77,-132,0,0,0,0,0,0,0,0,0,-1,1147,1156,0,0
-70,-132,0,0,0,0,0,0,0,0,0,-1,1154,1156,0,0
-63,-132,0,0,0,0,0,0,0,0,0,-1,1161,1156,0,0
-56,-132,0,0,0,0,0,0,0,0,0,-1,1168,1156,0,0
-49,-132,0,0,0,0,0,0,0,0,0,-1,1175,1156,0,0
-42,-132,0,0,0,0,0,0,0,0,0,-1,1182,1156,0,0
-35,-132,0,0,0,0,0,0,0,0,0,-1,1189,1156,0,0
-28,-132,0,0,0,0,0,0,0,0,0,-1,1196,1156,0,0
-21,-132,0,0,0,0,0,0,0,0,0,-1,1203,1156,0,0
-14,-132,0,0,0,0,0,0,0,0,0,-1,1210,1156,0,0
-7,-132,0,0,0,0,0,0,0,0,0,-1,1217,1156,0,0
0,-132,0,0,0,0,0,0,0,0,0,-1,1224,1156,0,0
7,-132,0,0,0,0,0,0,0,0,0,-1,1231,1156,0,0
14,-132,0,0,0,0,0,0,0,0,0,-1,1238,1156,0,0
21,-132,0,0,0,0,0,0,0,0,0,-1,1245,1156,0,0
28,-132,0,0,0,0,0,0,0,0,0,-1,1252,1156,0,0
35,-132,0,0,0,0,0,0,0,0,0,-1,1259,1156,0,0
42,-132,0,0,0,0,0,0,0,0,0,-1,1266,1156,0,0
49,-132,0,0,0,0,0,0,0,0,0,-1,1273,1156,0,0
56,-132,0,0,0,0,0,0,0,0,0,-1,1280,1156,0,0
63,-132,0,0,0,0,0,0,0,0,0,-1,1287,1156,0,0
70,-132,0,0,0,0,0,0,0,0,0,-1,1294,1156,0,0
77,-132,0,0,0,0,0,0,0,0,0,-1,1301,1156,0,0
84,-132,0,0,0,0,0,0,0,0,0,-1,1308,1156,0,0
91,-132,0,0,0,0,0,0,0,0,0,-1,1315,1156,0,0
98,-132,0,0,0,0,0,0,0,0,0,-1,1322,1156,0,0
105,-132,0,0,0,0,0,0,0,0,0,-1,1329,1156,0,0
112,-132,0,0,0,0,0,0,0,0,0,-1,1336,1156,0,0
119,-132,0,0,0,0,0,0,0,0,0,-1,1343,1156,0,0
126,-132,0,0,0,0,0,0,0,0,0,-1,1350,1156,0,0
133,-132,0,0,0,0,0,0,0,0,0,-1,1357,1156,0,0
140,-132,0,0,0,0,0,0,0,0,0,-1,1364,1156,0,0
147,-132,0,0,0,0,0,0,0,0,0,-1,1371,1156,0,0
154,-132,0,0,0,0,0,0,0,0,0,-1,1378,1156,0,0
161,-132,0,0,0,0,0,0,0,0,0,-1,1385,1156,0,0
168,-132,0,0,0,0,0,0,0,0,0,-1,1392,1156,0,0
175,-132,0,0,0,0,0,0,0,0,0,-1,1399,1156,0,0
182,-132,0,0,0,0,0,0,0,0,0,-1,1406,1156,0,0
189,-132,0,0,0,0,0,0,0,0,0,-1,1413,1156,0,0
196,-132,0,0,0,0,0,0,0,0,0,-1,1420,1156,0,0
203,-132,0,0,0,0,0,0,0,0,0,-1,1427,1156,0,0
210,-132,0,0,0,0,0,0,0,0,0,-1,1434,1156,0,0
217,-132,0,0,0,0,0,0,0,0,0,-1,1441,1156,0,0
224,-132,0,0,0,0,0,0,0,0,0,-1,1448,1156,0,0
231,-132,0,0,0,0,0,0,0,0,0,-1,1455,1156,0,0
238,-132,0,0,0,0,0,0,0,0,0,-1,1462,1156,0,0
245,-132,0,0,0,0,0,0,0,0,0,-1,1469,1156,0,0
252,-132,0,0,0,0,0,0,0,0,0,-1,1476,1156,0,0
259,-132,0,0,0,0,0,0,0,0,0,-1,1483,1156,0,0
266,-132,0,0,0,0,0,0,0,0,0,-1,1490,1156,0,0
273,-132,0,0,0,0,0,0,0,0,0,-1,1497,1156,0,0
280,-132,0,0,0,0,0,0,0,0,0,-1,1504,1156,0,0
287,-132,0,0,0,0,0,0,0,0,0,-1,1511,1156,0,0
294,-132,0,0,0,0,0,0,0,0,0,-1,1518,1156,0,0
301,-132,0,0,0,0,0,0,0,0,0,-1,1525,1156,0,0
308,-132,0,0,0,0,0,0,0,0,0,-1,1532,1156,0,0
315,-132,0,0,0,0,0,0,0,0,0,-1,1539,1156,0,0
322,-132,0,0,0,0,0,0,0,0,0,-1,1546,1156,0,0
329,-132,0,0,0,0,0,0,0,0,0,-1,1553,1156,0,0
336,-132,0,0,0,0,0,0,0,0,0,-1,1560,1156,0,0
343,-132,0,0,0,0,0,0,0,0,0,-1,1567,1156,0,0
350,-132,0,0,0,0,0,0,0,0,0,-1,1574,1156,0,0
357,-132,0,0,0,0,0,0,0,0,0,-1,1581,1156,0,0
364,-132,0,0,0,0,0,0,0,0,0,-1,1588,1156,0,0
371,-132,0,0,0,0,0,0,0,0,0,-1,1595,1156,0,0
378,-132,0,0,0,0,0,0,0,0,0,-1,1602,1156,0,0
385,-132,0,0,0,0,0,0,0,0,0,-1,1609,1156,0,0
392,-132,0,0,0,0,0,0,0,0,0,-1,1616,1156,0,0
399,-132,0,0,0,0,0,0,0,0,0,-1,1623,1156,0,0
406,-132,0,0,0,0,0,0,0,0,0,-1,1630,1156,0,0
413,-132,0,0,0,0,0,0,0,0,0,-1,1637,1156,0,0
420,-132,0,0,0,0,0,0,0,0,0,-1,1644,1156,0,0
427,-132,0,0,0,0,0,0,0,0,0,-1,1651,1156,0,0
434,-132,0,0,0,0,0,0,0,0,0,-1,1658,1156,0,0
441,-132,0,0,0,0,0,0,0,0,0,-1,1665,1156,0,0
448,-132,0,0,0,0,0,0,0,0,0,-1,1672,1156,0,0
455,-132,0,0,0,0,0,0,0,0,0,-1,1679,1156,0,0
462,-132,0,0,0,0,0,0,0,0,0,-1,1686,1156,0,0
469,-132,0,0,0,0,0,0,0,0,0,-1,1693,1156,0,0
476,-132,0,0,0,0,0,0,0,0,0,-1,1700,1156,0,0
483,-132,0,0,0,0,0,0,0,0,0,-1,1707,1156,0,0
490,-132,0,0,0,0,0,0,0,0,0,-1,1714,1156,0,0
497,-132,0,0,0,0,0,0,0,0,0,-1,1721,1156,0,0
504,-132,0,0,0,0,0,0,0,0,0,-1,1728,1156,0,0
511,-132,0,0,0,0,0,0,0,0,0,-1,1735,1156,0,0
518,-132,0,0,0,0,0,0,0,0,0,-1,1742,1156,0,0
525,-132,0,0,0,0,0,0,0,0,0,-1,1749,1156,0,0
532,-132,0,0,0,0,0,0,0,0,0,-1,1756,1156,0,0
539,-132,0,0,0,0,0,0,0,0,0,-1,1763,1156,0,0
546,-132,0,0,0,0,0,0,0,0,0,-1,1770,1156,0,0
553,-132,0,0,0,0,0,0,0,0,0,-1,1777,1156,0,0
560,-132,0,0,0,0,0,0,0,0,0,-1,1784,1156,0,0
567,-132,0,0,0,0,0,0,0,0,0,-1,1791,1156,0,0
574,-132,0,0,0,0,0,0,0,0,0,-1,1798,1156,0,0
581,-132,0,0,0,0,0,0,0,0,0,-1,1805,1156,0,0
588,-132,0,0,0,0,0,0,0,0,0,-1,1812,1156,0,0
595,-132,0,0,0,0,0,0,0,0,0,-1,1819,1156,0,0
602,-132,0,0,0,0,0,0,0,0,0,-1,1826,1156,0,0
609,-132,0,0,0,0,0,0,0,0,0,-1,1833,1156,0,0
616,-132,0,0,0,0,0,0,0,0,0,-1,1840,1156,0,0
623,-132,0,0,0,0,0,0,0,0,0,-1,1847,1156,0,0
630,-132,0,0,0,0,0,0,0,0,0,-1,1854,1156,0,0
637,-132,0,0,0,0,0,0,0,0,0,-1,1861,1156,0,0
644,-132,39.5151,2.29224,0.00463387,-0.00562629,0.00373626,0.00585023,-0.00684266,0.314735,0.00733571,0.0423892,1868,1156,39.5151,-2.2923
651,-132,39.4406,2.40588,0.00373823,-0.00379755,0.00321186,0.0049214,-0.00498072,0.352951,0.00571703,0.0408478,1875,1156,39.4406,-2.40584
658,-132,39.2787,2.29004,0.00311594,-0.00251285,0.00264238,0.00416198,-0.00355889,0.376942,0.00446218,0.0401206,1882,1156,39.2786,-2.29008
665,-132,39.3564,2.44421,0.00252568,-0.0015232,0.00204999,0.00338236,-0.00237987,0.395834,0.00334356,0.0390015,1889,1156,39.3565,-2.44418
672,-132,39.4872,2.47021,0.00198854,-0.000949337,0.0015819,0.00267835,-0.00163915,0.411204,0.00251666,0.0382724,1896,1156,39.4872,-2.47025
679,-132,39.4838,2.26709,0.00103914,-0.000559493,0.00140706,0.00185807,-0.00137843,0.527092,0.00187542,0.0379037,1903,1156,39.4837,-2.26704
686,-132,39.4696,2.48254,0.000240586,-0.000480501,0.00138503,0.00131123,-0.00155114,0.658067,0.00165453,0.0340839,1910,1156,39.4696,-2.48253
693,-132,39.4248,2.58972,-0.000257696,-0.000310699,0.00142227,0.00113832,-0.00170671,0.776083,0.00165347,0.0298106,1917,1156,39.4248,-2.58972
700,-132,39.5186,2.64697,-0.000728928,-6.34668e-05,0.00140191,0.00104465,-0.00183705,0.901913,0.00168459,0.0373804,1924,1156,39.5185,-2.64693
707,-132,39.6392,2.73962,0,0,0,0,0,0,0,-1,1931,1156,39.6391,-2.73961
714,-132,35.6788,6.57568,0,0,0,0,0,0,0,-1,1938,1156,35.6788,-6.57567
721,-132,35.7593,6.30786,-0.00211335,0.000216979,0.00146399,0.000922876,-0.00281925,1.12151,0.00225109,0.0322886,1945,1156,35.7592,-6.30783
728,-132,35.7361,6.05164,-0.00228188,0.000240239,0.00155231,0.000979163,-0.0030208,1.12652,0.00240757,0.0229898,1952,1156,35.7361,-6.05164
735,-132,35.7075,5.83447,-0.00234512,6.30636e-05,0.00165804,0.000908101,-0.00319016,1.09945,0.0024854,0.0241685,1959,1156,35.7075,-5.83449
742,-132,35.7378,5.51636,-0.00212897,8.27308e-05,0.00177875,0.00107136,-0.0031176,1.06351,0.00251284,0.0211398,1966,1156,35.7378,-5.51638
749,-132,35.7155,5.19153,-0.00164212,0.0005922,0.00179882,0.00159254,-0.00264246,1.06328,0.00246999,0.0243588,1973,1156,35.7155,-5.19152
756,-132,35.74,4.94727,-0.000426072,0.00169236,0.0014326,0.00241479,-0.00114851,1.10373,0.00210013,0.022048,1980,1156,35.74,-4.94721
763,-132,35.7349,4.67334,0.00156941,0.00299503,0.00097568,0.00349055,0.0010739,1.10088,0.00206437,0.0132682,1987,1156,35.7349,-4.67335
770,-132,35.6998,4.39746,0.00417697,0.00477098,0.000221738,0.00484462,0.00410332,1.25014,0.0030132,0.0134544,1994,1156,35.6998,-4.39745
777,-132,35.6184,4.07483,0.00748479,0.00720097,-0.000939568,0.00829311,0.00639266,-0.710447,0.00501671,0.0221123,2001,1156,35.6185,-4.07485
784,-132,35.5157,3.7511,0.011715,0.0107721,-0.00273923,0.014023,0.00846403,-0.700179,0.00815391,0.0413249,2008,1156,35.5158,-3.75106
791,-132,35.4341,3.43958,0,0,0,0,0,0,0,-1,2015,1156,35.4342,-3.43959
798,-132,34.3977,5.26135,0.0251768,0.0234142,-0.0101186,0.0344524,0.0141386,-0.741958,0.0199973,0.0499836,2022,1156,34.3976,-5.26136
805,-132,34.5989,5.45056,0.0352252,0.0342325,-0.0168673,0.0516035,0.0178542,-0.770688,0.0302607,0.0485598,2029,1156,34.5988,-5.45057
812,-132,34.9187,5.22864,0,0,0,0,0,0,0,-1,2036,1156,34.9186,-5.22869
-700,-139,0,0,0,0,0,0,0,0,0,-1,524,1163,0,0
-693,-139,-23.4428,-4.93689,0,0,0,0,0,0,0,-1,531,1163,-23.4428,4.93695
-686,-139,-24.0339,-5.07788,0,0,0,0,0,0,0,-1,538,1163,-24.0339,5.07784
-679,-139,-23.3986,0.414917,0,0,0,0,0,0,0,-1,545,1163,-23.3985,-0.414962
-672,-139,-23.7902,0.254883,-0.0326697,0.00020592,-0.0482472,0.0347386,-0.0672024,-0.949581,0.0598422,0.0473181,552,1163,-23.7902,-0.254842
-665,-139,-24.0822,0.541626,-0.0234671,0.000365335,-0.0372756,0.0275831,-0.0506849,-0.940104,0.0458395,0.0442594,559,1163,-24.0822,-0.54159
-658,-139,-24.4023,0.494507,-0.0161571,0.000518925,-0.0278929,0.0212934,-0.0369316,-0.930636,0.034018,0.0447548,566,1163,-24.4023,-0.494517
-651,-139,-24.5063,0.693604,-0.0104215,0.000650812,-0.0199743,0.015842,-0.0256127,-0.920587,0.0241545,0.0421637,573,1163,-24.5063,-0.693566
-644,-139,-24.4669,1.29102,-0.00646661,0.000664749,-0.013806,0.011358,-0.0171599,-0.911772,0.016578,0.0224725,580,1163,-24.4669,-1.29106
-637,-139,-24.4901,1.61682,-0.00381731,0.000397012,-0.00916923,0.00769809,-0.0111184,-0.898341,0.0109234,0.0124005,587,1163,-24.4901,-1.61686
-630,-139,-24.5073,1.94714,-0.0017954,0.000586646,-0.00491013,0.00444814,-0.00565689,-0.904382,0.00584804,0.0105959,594,1163,-24.5073,-1.94711
-623,-139,-24.5334,2.27344,-0.000993144,0.000397394,-0.00231195,0.00211635,-0.0027121,-0.931461,0.00279478,0.0162786,601,1163,-24.5334,-2.27339
-616,-139,-24.535,2.5575,-0.000836784,2.9463e-05,-0.00103478,0.000718106,-0.00152543,-0.983603,0.00132296,0.0180492,608,1163,-24.535,-2.55754
-609,-139,-24.519,2.85364,0,0,0,0,0,0,0,-1,615,1163,-24.519,-2.85368
-602,-139,-24.5885,3.24683,-0.000226974,-0.000722336,-0.000197544,-0.000157844,-0.000791466,-0.33663,0.000483692,0.0291852,622,1163,-24.5885,-3.24686
-595,-139,-24.7065,3.58459,-0.000441413,-0.000558237,-0.000454898,-4.1192e-05,-0.000958458,-0.721544,0.000625694,0.0317333,629,1163,-24.7065,-3.58461
-588,-139,-24.8387,3.89124,0,0,0,0,0,0,0,-1,636,1163,-24.8387,-3.89122
-581,-139,-23.6583,4.29724,0,0,0,0,0,0,0,-1,643,1163,-23.6583,-4.29724
-574,-139,-23.0725,2.4043,0,0,0,0,0,0,0,-1,650,1163,-23.0725,-2.40433
-567,-139,-28.8052,0.729858,0,0,0,0,0,0,0,-1,657,1163,-28.8052,-0.729878
-560,-139,-28.7761,0.849121,-0.000143749,-0.000376924,-0.000669116,0.000418861,-0.000939534,-0.699144,0.000803244,0.0340315,664,1163,-28.7761,-0.849172
-553,-139,-28.7543,0.945313,-0.00050048,-6.51016e-05,-0.00082969,0.000574982,-0.00114056,-0.913694,0.00100825,0.0375569,671,1163,-28.7543,-0.945283
-546,-139,-28.8151,1.01709,-0.000995627,0.000466303,-0.000820186,0.000833981,-0.0013633,-1.14937,0.00128081,0.0402248,678,1163,-28.8151,-1.01712
-539,-139,-28.7406,0.871948,-0.00218521,0.00109358,-0.000458172,0.0011564,-0.00224803,-1.43454,0.00199895,0.041895,685,1163,-28.7406,-0.871997
-532,-139,-28.6179,0.790771,-0.00387968,0.00210613,0.000775203,0.0022049,-0.00397845,1.44407,0.00361858,0.0397921,692,1163,-28.6179,-0.790778
-525,-139,-28.6773,0.841187,-0.00555452,0.00318134,0.00241743,0.00380568,-0.00617886,1.31805,0.0058186,0.0379518,699,1163,-28.6773,-0.841155
-518,-139,0,0,0,0,0,0,0,0,0,-1,706,1163,0,0
-511,-139,0,0,0,0,0,0,0,0,0,-1,713,1163,0,0
-504,-139,0,0,0,0,0,0,0,0,0,-1,720,1163,0,0
-497,-139,0,0,0,0,0,0,0,0,0,-1,727,1163,0,0
-490,-139,0,0,0,0,0,0,0,0,0,-1,734,1163,0,0
-483,-139,0,0,0,0,0,0,0,0,0,-1,741,1163,0,0
-476,-139,0,0,0,0,0,0,0,0,0,-1,748,1163,0,0
-469,-139,0,0,0,0,0,0,0,0,0,-1,755,1163,0,0
-462,-139,0,0,0,0,0,0,0,0,0,-1,762,1163,0,0
-455,-139,0,0,0,0,0,0,0,0,0,-1,769,1163,0,0
-448,-139,0,0,0,0,0,0,0,0,0,-1,776,1163,0,0
-441,-139,0,0,0,0,0,0,0,0,0,-1,783,1163,0,0
-434,-139,0,0,0,0,0,0,0,0,0,-1,790,1163,0,0
-427,-139,0,0,0,0,0,0,0,0,0,-1,797,1163,0,0
-420,-139,0,0,0,0,0,0,0,0,0,-1,804,1163,0,0
-413,-139,0,0,0,0,0,0,0,0,0,-1,811,1163,0,0
-406,-139,0,0,0,0,0,0,0,0,0,-1,818,1163,0,0
-399,-139,0,0,0,0,0,0,0,0,0,-1,825,1163,0,0
-392,-139,0,0,0,0,0,0,0,0,0,-1,832,1163,0,0
-385,-139,0,0,0,0,0,0,0,0,0,-1,839,1163,0,0
-378,-139,0,0,0,0,0,0,0,0,0,-1,846,1163,0,0
-371,-139,0,0,0,0,0,0,0,0,0,-1,853,1163,0,0
-364,-139,0,0,0,0,0,0,0,0,0,-1,860,1163,0,0
-357,-139,0,0,0,0,0,0,0,0,0,-1,867,1163,0,0
-350,-139,0,0,0,0,0,0,0,0,0,-1,874,1163,0,0
-343,-139,0,0,0,0,0,0,0,0,0,-1,881,1163,0,0
-336,-139,0,0,0,0,0,0,0,0,0,-1,888,1163,0,0
-329,-139,0,0,0,0,0,0,0,0,0,-1,895,1163,0,0
-322,-139,0,0,0,0,0,0,0,0,0,-1,902,1163,0,0
-315,-139,0,0,0,0,0,0,0,0,0,-1,909,1163,0,0
-308,-139,0,0,0,0,0,0,0,0,0,-1,916,1163,0,0
-301,-139,0,0,0,0,0,0,0,0,0,-1,923,1163,0,0
-294,-139,0,0,0,0,0,0,0,0,0,-1,930,1163,0,0
-287,-139,0,0,0,0,0,0,0,0,0,-1,937,1163,0,0
-280,-139,0,0,0,0,0,0,0,0,0,-1,944,1163,0,0
-273,-139,0,0,0,0,0,0,0,0,0,-1,951,1163,0,0
-266,-139,0,0,0,0,0,0,0,0,0,-1,958,1163,0,0
-259,-139,0,0,0,0,0,0,0,0,0,-1,965,1163,0,0
-252,-139,0,0,0,0,0,0,0,0,0,-1,972,1163,0,0
-245,-139,0,0,0,0,0,0,0,0,0,-1,979,1163,0,0
-238,-139,0,0,0,0,0,0,0,0,0,-1,986,1163,0,0
-231,-139,0,0,0,0,0,0,0,0,0,-1,993,1163,0,0
-224,-139,0,0,0,0,0,0,0,0,0,-1,1000,1163,0,0
-217,-139,0,0,0,0,0,0,0,0,0,-1,1007,1163,0,0
-210,-139,0,0,0,0,0,0,0,0,0,-1,1014,1163,0,0
-203,-139,0,0,0,0,0,0,0,0,0,-1,1021,1163,0,0
-196,-139,0,0,0,0,0,0,0,0,0,-1,1028,1163,0,0
-189,-139,0,0,0,0,0,0,0,0,0,-1,1035,1163,0,0
-182,-139,0,0,0,0,0,0,0,0,0,-1,1042,1163,0,0
-175,-139,0,0,0,0,0,0,0,0,0,-1,1049,1163,0,0
-168,-139,0,0,0,0,0,0,0,0,0,-1,1056,1163,0,0
-161,-139,0,0,0,0,0,0,0,0,0,-1,1063,1163,0,0
-154,-139,0,0,0,0,0,0,0,0,0,-1,1070,1163,0,0
-147,-139,0,0,0,0,0,0,0,0,0,-1,1077,1163,0,0
-140,-139,0,0,0,0,0,0,0,0,0,-1,1084,1163,0,0
-133,-139,0,0,0,0,0,0,0,0,0,-1,1091,1163,0,0
-126,-139,0,0,0,0,0,0,0,0,0,-1,1098,1163,0,0
-119,-139,0,0,0,0,0,0,0,0,0,-1,1105,1163,0,0
-112,-139,0,0,0,0,0,0,0,0,0,-1,1112,1163,0,0
-105,-139,0,0,0,0,0,0,0,0,0,-1,1119,1163,0,0
-98,-139,0,0,0,0,0,0,0,0,0,-1,1126,1163,0,0
-91,-139,0,0,0,0,0,0,0,0,0,-1,1133,1163,0,0
-84,-139,0,0,0,0,0,0,0,0,0,-1,1140,1163,0,0
-77,-139,0,0,0,0,0,0,0,0,0,-1,1147,1163,0,0
-70,-139,0,0,0,0,0,0,0,0,0,-1,1154,1163,0,0
-63,-139,0,0,0,0,0,0,0,0,0,-1,1161,1163,0,0
-56,-139,0,0,0,0,0,0,0,0,0,-1,1168,1163,0,0
-49,-139,0,0,0,0,0,0,0,0,0,-1,1175,1163,0,0
-42,-139,0,0,0,0,0,0,0,0,0,-1,1182,1163,0,0
-35,-139,0,0,0,0,0,0,0,0,0,-1,1189,1163,0,0
-28,-139,0,0,0,0,0,0,0,0,0,-1,1196,1163,0,0
-21,-139,0,0,0,0,0,0,0,0,0,-1,1203,1163,0,0
-14,-139,0,0,0,0,0,0,0,0,0,-1,1210,1163,0,0
-7,-139,0,0,0,0,0,0,0,0,0,-1,1217,1163,0,0
0,-139,0,0,0,0,0,0,0,0,0,-1,1224,1163,0,0
7,-139,0,0,0,0,0,0,0,0,0,-1,1231,1163,0,0
14,-139,0,0,0,0,0,0,0,0,0,-1,1238,1163,0,0
21,-139,0,0,0,0,0,0,0,0,0,-1,1245,1163,0,0
28,-139,0,0,0,0,0,0,0,0,0,-1,1252,1163,0,0
35,-139,0,0,0,0,0,0,0,0,0,-1,1259,1163,0,0
42,-139,0,0,0,0,0,0,0,0,0,-1,1266,1163,0,0
49,-139,0,0,0,0,0,0,0,0,0,-1,1273,1163,0,0
56,-139,0,0,0,0,0,0,0,0,0,-1,1280,1163,0,0
63,-139,0,0,0,0,0,0,0,0,0,-1,1287,1163,0,0
70,-139,0,0,0,0,0,0,0,0,0,-1,1294,1163,0,0
77,-139,0,0,0,0,0,0,0,0,0,-1,1301,1163,0,0
84,-139,0,0,0,0,0,0,0,0,0,-1,1308,1163,0,0
91,-139,0,0,0,0,0,0,0,0,0,-1,1315,1163,0,0
98,-139,0,0,0,0,0,0,0,0,0,-1,1322,1163,0,0
105,-139,0,0,0,0,0,0,0,0,0,-1,1329,1163,0,0
112,-139,0,0,0,0,0,0,0,0,0,-1,1336,1163,0,0
119,-139,0,0,0,0,0,0,0,0,0,-1,1343,1163,0,0
126,-139,0,0,0,0,0,0,0,0,0,-1,1350,1163,0,0
133,-139,0,0,0,0,0,0,0,0,0,-1,1357,1163,0,0
140,-139,0,0,0,0,0,0,0,0,0,-1,1364,1163,0,0
147,-139,0,0,0,0,0,0,0,0,0,-1,1371,1163,0,0
154,-139,0,0,0,0,0,0,0,0,0,-1,1378,1163,0,0
161,-139,0,0,0,0,0,0,0,0,0,-1,1385,1163,0,0
168,-139,0,0,0,0,0,0,0,0,0,-1,1392,1163,0,0
175,-139,0,0,0,0,0,0,0,0,0,-1,1399,1163,0,0
182,-139,0,0,0,0,0,0,0,0,0,-1,1406,1163,0,0
189,-139,0,0,0,0,0,0,0,0,0,-1,1413,1163,0,0
196,-139,0,0,0,0,0,0,0,0,0,-1,1420,1163,0,0
203,-139,0,0,0,0,0,0,0,0,0,-1,1427,1163,0,0
210,-139,0,0,0,0,0,0,0,0,0,-1,1434,1163,0,0
217,-139,0,0,0,0,0,0,0,0,0,-1,1441,1163,0,0
224,-139,0,0,0,0,0,0,0,0,0,-1,1448,1163,0,0
231,-139,0,0,0,0,0,0,0,0,0,-1,1455,1163,0,0
238,-139,0,0,0,0,0,0,0,0,0,-1,1462,1163,0,0
245,-139,0,0,0,0,0,0,0,0,0,-1,1469,1163,0,0
252,-139,0,0,0,0,0,0,0,0,0,-1,1476,1163,0,0
259,-139,0,0,0,0,0,0,0,0,0,-1,1483,1163,0,0
266,-139,0,0,0,0,0,0,0,0,0,-1,1490,1163,0,0
273,-139,0,0,0,0,0,0,0,0,0,-1,1497,1163,0,0
280,-139,0,0,0,0,0,0,0,0,0,-1,1504,1163,0,0
287,-139,0,0,0,0,0,0,0,0,0,-1,1511,1163,0,0
294,-139,0,0,0,0,0,0,0,0,0,-1,1518,1163,0,0
301,-139,0,0,0,0,0,0,0,0,0,-1,1525,1163,0,0
308,-139,0,0,0,0,0,0,0,0,0,-1,1532,1163,0,0
315,-139,0,0,0,0,0,0,0,0,0,-1,1539,1163,0,0
322,-139,0,0,0,0,0,0,0,0,0,-1,1546,1163,0,0
329,-139,0,0,0,0,0,0,0,0,0,-1,1553,1163,0,0
336,-139,0,0,0,0,0,0,0,0,0,-1,1560,1163,0,0
343,-139,0,0,0,0,0,0,0,0,0,-1,1567,1163,0,0
350,-139,0,0,0,0,0,0,0,0,0,-1,1574,1163,0,0
357,-139,0,0,0,0,0,0,0,0,0,-1,1581,1163,0,0
364,-139,0,0,0,0,0,0,0,0,0,-1,1588,1163,0,0
371,-139,0,0,0,0,0,0,0,0,0,-1,1595,1163,0,0
378,-139,0,0,0,0,0,0,0,0,0,-1,1602,1163,0,0
385,-139,0,0,0,0,0,0,0,0,0,-1,1609,1163,0,0
392,-139,0,0,0,0,0,0,0,0,0,-1,1616,1163,0,0
399,-139,0,0,0,0,0,0,0,0,0,-1,1623,1163,0,0
406,-139,0,0,0,0,0,0,0,0,0,-1,1630,1163,0,0
413,-139,0,0,0,0,0,0,0,0,0,-1,1637,1163,0,0
420,-139,0,0,0,0,0,0,0,0,0,-1,1644,1163,0,0
427,-139,0,0,0,0,0,0,0,0,0,-1,1651,1163,0,0
434,-139,0,0,0,0,0,0,0,0,0,-1,1658,1163,0,0
441,-139,0,0,0,0,0,0,0,0,0,-1,1665,1163,0,0
448,-139,0,0,0,0,0,0,0,0,0,-1,1672,1163,0,0
455,-139,0,0,0,0,0,0,0,0,0,-1,1679,1163,0,0
462,-139,0,0,0,0,0,0,0,0,0,-1,1686,1163,0,0
469,-139,0,0,0,0,0,0,0,0,0,-1,1693,1163,0,0
476,-139,0,0,0,0,0,0,0,0,0,-1,1700,1163,0,0
483,-139,0,0,0,0,0,0,0,0,0,-1,1707,1163,0,0
490,-139,0,0,0,0,0,0,0,0,0,-1,1714,1163,0,0
497,-139,0,0,0,0,0,0,0,0,0,-1,1721,1163,0,0
504,-139,0,0,0,0,0,0,0,0,0,-1,1728,1163,0,0
511,-139,0,0,0,0,0,0,0,0,0,-1,1735,1163,0,0
518,-139,0,0,0,0,0,0,0,0,0,-1,1742,1163,0,0
525,-139,0,0,0,0,0,0,0,0,0,-1,1749,1163,0,0
532,-139,0,0,0,0,0,0,0,0,0,-1,1756,1163,0,0
539,-139,0,0,0,0,0,0,0,0,0,-1,1763,1163,0,0
546,-139,0,0,0,0,0,0,0,0,0,-1,1770,1163,0,0
553,-139,0,0,0,0,0,0,0,0,0,-1,1777,1163,0,0
560,-139,0,0,0,0,0,0,0,0,0,-1,1784,1163,0,0
567,-139,0,0,0,0,0,0,0,0,0,-1,1791,1163,0,0
574,-139,0,0,0,0,0,0,0,0,0,-1,1798,1163,0,0
581,-139,0,0,0,0,0,0,0,0,0,-1,1805,1163,0,0
588,-139,0,0,0,0,0,0,0,0,0,-1,1812,1163,0,0
595,-139,0,0,0,0,0,0,0,0,0,-1,1819,1163,0,0
602,-139,0,0,0,0,0,0,0,0,0,-1,1826,1163,0,0
609,-139,0,0,0,0,0,0,0,0,0,-1,1833,1163,0,0
616,-139,0,0,0,0,0,0,0,0,0,-1,1840,1163,0,0
623,-139,0,0,0,0,0,0,0,0,0,-1,1847,1163,0,0
630,-139,0,0,0,0,0,0,0,0,0,-1,1854,1163,0,0
637,-139,0,0,0,0,0,0,0,0,0,-1,1861,1163,0,0
644,-139,39.4041,2.42908,0.00330463,-0.00566296,0.00344818,0.00447719,-0.00683552,0.327785,0.00657853,0.0405918,1868,1163,39.404,-2.42911
651,-139,39.4688,2.34619,0.00280483,-0.00401463,0.00284352,0.0038349,-0.0050447,0.347549,0.00514248,0.0401817,1875,1163,39.4688,-2.34621
658,-139,39.4648,2.39258,0.00249992,-0.00271818,0.00224361,0.00333194,-0.00355019,0.355116,0.00397407,0.0405142,1882,1163,39.4648,-2.39263
665,-139,39.4265,2.66211,0.00222477,-0.00168248,0.00172042,0.00287431,-0.00233202,0.361005,0.00301131,0.0371772,1889,1163,39.4265,-2.66214
672,-139,39.499,2.7168,0.00186444,-0.00110111,0.00140822,0.00242659,-0.00166326,0.379808,0.00237494,0.0369474,1896,1163,39.499,-2.71678
679,-139,39.5295,2.55798,0.000898275,-0.000694449,0.00141309,0.00172395,-0.00152012,0.5288,0.0018742,0.0345609,1903,1163,39.5295,-2.55794
686,-139,39.4647,2.58142,5.6565e-05,-0.000643037,0.00152816,0.00127444,-0.00186092,0.672885,0.00182073,0.0340712,1910,1163,39.4648,-2.58137
693,-139,39.4458,2.59985,-0.000478169,-0.000497197,0.00165637,0.00116871,-0.00214408,0.782526,0.00194008,0.0261797,1917,1163,39.4458,-2.59986
700,-139,39.552,2.55774,0,0,0,0,0,0,0,-1,1924,1163,39.5521,-2.55771
707,-139,32.116,6.54346,0,0,0,0,0,0,0,-1,1931,1163,32.116,-6.54343
714,-139,35.3878,6.7113,0,0,0,0,0,0,0,-1,1938,1163,35.3879,-6.71129
721,-139,35.4945,6.30591,-0.00238254,0.000121288,0.00187559,0.0011244,-0.00338565,1.07968,0.00271078,0.0295616,1945,1163,35.4945,-6.30595
728,-139,35.4094,6.07104,-0.00256673,0.000134004,0.00201088,0.00120585,-0.00363858,1.08108,0.00291212,0.0344452,1952,1163,35.4094,-6.071
735,-139,35.3435,5.88733,-0.00262815,-3.09022e-05,0.00212986,0.00116502,-0.00382407,1.05917,0.00301374,0.0258522,1959,1163,35.3435,-5.88727
742,-139,35.4352,5.49475,-0.00223109,-3.25945e-05,0.00218458,0.00131371,-0.0035774,1.01849,0.00292296,0.0227918,1966,1163,35.4352,-5.49481
749,-139,35.4496,5.19312,-0.00132252,0.000402011,0.00215162,0.00185771,-0.00277822,0.975976,0.00269409,0.0198417,1973,1163,35.4496,-5.19314
756,-139,35.3943,4.9364,0.000614908,0.00142031,0.001734,0.00279776,-0.000762544,0.899494,0.0021646,0.0113462,1980,1163,35.3943,-4.93639
763,-139,35.373,4.63855,0.00350973,0.00260154,0.00125771,0.00439281,0.00171846,0.612157,0.00255613,0.0109008,1987,1163,35.373,-4.63857
770,-139,35.3837,4.38049,0.00714194,0.00420418,0.000530255,0.00723472,0.0041114,0.173217,0.00418994,0.0116657,1994,1163,35.3837,-4.38054
777,-139,35.3489,4.14478,0.0116209,0.00643904,-0.00057543,0.0116841,0.00637591,-0.109273,0.00675518,0.0220271,2001,1163,35.3489,-4.14476
784,-139,35.3107,3.91003,0.0172224,0.00976923,-0.00229712,0.0178735,0.00911812,-0.276199,0.01032,0.0394267,2008,1163,35.3107,-3.90999
791,-139,35.2913,3.65466,0,0,0,0,0,0,0,-1,2015,1163,35.2913,-3.65467
798,-139,34.8235,4.86121,0.0339322,0.0217156,-0.00936482,0.0390047,0.0166431,-0.496417,0.0225999,0.045405,2022,1163,34.8235,-4.86125
805,-139,35.0891,5.03687,0.0457209,0.0319889,-0.0158502,0.0561283,0.0215815,-0.581007,0.0326926,0.0435427,2029,1163,35.0891,-5.03686
812,-139,0,0,0,0,0,0,0,0,0,-1,2036,1163,0,0
-700,-146,0,0,0,0,0,0,0,0,0,-1,524,1170,0,0
-693,-146,-23.5599,-5.99011,0,0,0,0,0,0,0,-1,531,1170,-23.5599,5.9901
-686,-146,-24.2523,-6.27698,0,0,0,0,0,0,0,-1,538,1170,-24.2523,6.27693
-679,-146,-22.8406,0.294678,0,0,0,0,0,0,0,-1,545,1170,-22.8406,-0.294733
-672,-146,-23.1475,0.200806,-0.035424,-0.0018881,-0.0561582,0.0399521,-0.0772641,-0.930477,0.0688082,0.0449177,552,1170,-23.1475,-0.200832
-665,-146,-23.4896,0.31604,-0.0246697,-0.00162725,-0.0434936,0.0318452,-0.0581421,-0.914872,0.0526885,0.042527,559,1170,-23.4896,-0.315998
-658,-146,-23.7503,0.433716,-0.0163836,-0.00119193,-0.032717,0.0247994,-0.042375,-0.899461,0.0392232,0.0431915,566,1170,-23.7503,-0.433762
-651,-146,-24.0746,0.887329,-0.0100856,-0.000699795,-0.0236081,0.0186773,-0.0294627,-0.883511,0.0280252,0.0388625,573,1170,-24.0746,-0.887272
-644,-146,-24.0955,1.25781,-0.00590342,-0.000309033,-0.016455,0.0135848,-0.0197973,-0.869588,0.0193841,0.0198174,580,1170,-24.0954,-1.25777
-637,-146,-24.1294,1.59399,-0.00328521,-0.000301583,-0.0110184,0.00932559,-0.0129124,-0.852685,0.0128946,0.0106516,587,1170,-24.1294,-1.59396
-630,-146,-24.1646,1.92834,-0.00133997,0.000180486,-0.00609348,0.00556098,-0.00672046,-0.847458,0.00710122,0.0106521,594,1170,-24.1646,-1.92838
-623,-146,-24.1815,2.25,-0.000834483,0.000340904,-0.00299815,0.00280841,-0.00330199,-0.882181,0.00353168,0.0134489,601,1170,-24.1815,-2.24997
-616,-146,-24.2317,2.60657,-0.00104259,0.000207369,-0.00141675,0.00113087,-0.00196609,-0.993127,0.00180958,0.019391,608,1170,-24.2317,-2.60651
-609,-146,-23.8293,3.61536,0,0,0,0,0,0,0,-1,615,1170,-23.8293,-3.61542
-602,-146,-24.1381,3.55713,-0.000792822,-0.000226516,-0.000462327,3.24769e-05,-0.00105182,-1.06016,0.000712283,0.0490583,622,1170,-24.1381,-3.55711
-595,-146,-24.4245,3.62622,-0.00102147,-3.59032e-05,-0.000719577,0.000343452,-0.00140083,-1.08563,0.00106696,0.0311965,629,1170,-24.4245,-3.62624
-588,-146,-24.5078,3.83496,0,0,0,0,0,0,0,-1,636,1170,-24.5078,-3.83491
-581,-146,-23.4489,4.37451,0,0,0,0,0,0,0,-1,643,1170,-23.4489,-4.37446
-574,-146,-17.9915,3.79114,0,0,0,0,0,0,0,-1,650,1170,-17.9915,-3.79118
-567,-146,-28.7858,0.763916,0,0,0,0,0,0,0,-1,657,1170,-28.7858,-0.76394
-560,-146,-28.7921,0.952271,-0.000555791,0.000282519,-0.000844971,0.000806586,-0.00107986,-1.01564,0.00109294,0.0367846,664,1170,-28.7921,-0.952265
-553,-146,-28.7502,1.05981,-0.000754404,0.000595102,-0.000929203,0.0010687,-0.001228,-1.09943,0.00132706,0.0372546,671,1170,-28.7502,-1.05986
-546,-146,-28.7822,0.831787,-0.00093333,0.0011104,-0.000782393,0.00137552,-0.00119846,-1.24407,0.00148726,0.0392726,678,1170,-28.7822,-0.831794
-539,-146,-28.9545,0.695557,-0.00164579,0.0016863,-0.000186782,0.00169673,-0.00165623,-1.51497,0.00193588,0.0413484,685,1170,-28.9545,-0.695546
-532,-146,-28.8859,0.754883,-0.00301991,0.00272238,0.0013681,0.00303168,-0.00332921,1.34846,0.0036738,0.0379433,692,1170,-28.8859,-0.754866
-525,-146,-28.8295,0.921387,-0.00439594,0.00390819,0.00347597,0.00517111,-0.00565886,1.2223,0.0062548,0.0387002,699,1170,-28.8294,-0.921371
-518,-146,0,0,0,0,0,0,0,0,0,-1,706,1170,0,0
-511,-146,0,0,0,0,0,0,0,0,0,-1,713,1170,0,0
-504,-146,0,0,0,0,0,0,0,0,0,-1,720,1170,0,0
-497,-146,0,0,0,0,0,0,0,0,0,-1,727,1170,0,0
-490,-146,0,0,0,0,0,0,0,0,0,-1,734,1170,0,0
-483,-146,0,0,0,0,0,0,0,0,0,-1,741,1170,0,0
-476,-146,0,0,0,0,0,0,0,0,0,-1,748,1170,0,0
-469,-146,0,0,0,0,0,0,0,0,0,-1,755,1170,0,0
-462,-146,0,0,0,0,0,0,0,0,0,-1,762,1170,0,0
-455,-146,0,0,0,0,0,0,0,0,0,-1,769,1170,0,0
-448,-146,0,0,0,0,0,0,0,0,0,-1,776,1170,0,0
-441,-146,0,0,0,0,0,0,0,0,0,-1,783,1170,0,0
-434,-146,0,0,0,0,0,0,0,0,0,-1,790,1170,0,0
-427,-146,0,0,0,0,0,0,0,0,0,-1,797,1170,0,0
-420,-146,0,0,0,0,0,0,0,0,0,-1,804,1170,0,0
-413,-146,0,0,0,0,0,0,0,0,0,-1,811,1170,0,0
-406,-146,0,0,0,0,0,0,0,0,0,-1,818,1170,0,0
-399,-146,0,0,0,0,0,0,0,0,0,-1,825,1170,0,0
-392,-146,0,0,0,0,0,0,0,0,0,-1,832,1170,0,0
-385,-146,0,0,0,0,0,0,0,0,0,-1,839,1170,0,0
-378,-146,0,0,0,0,0,0,0,0,0,-1,846,1170,0,0
-371,-146,0,0,0,0,0,0,0,0,0,-1,853,1170,0,0
-364,-146,0,0,0,0,0,0,0,0,0,-1,860,1170,0,0
-357,-146,0,0,0,0,0,0,0,0,0,-1,867,1170,0,0
-350,-146,0,0,0,0,0,0,0,0,0,-1,874,1170,0,0
-343,-146,0,0,0,0,0,0,0,0,0,-1,881,1170,0,0
-336,-146,0,0,0,0,0,0,0,0,0,-1,888,1170,0,0
-329,-146,0,0,0,0,0,0,0,0,0,-1,895,1170,0,0
-322,-146,0,0,0,0,0,0,0,0,0,-1,902,1170,0,0
-315,-146,0,0,0,0,0,0,0,0,0,-1,909,1170,0,0
-308,-146,0,0,0,0,0,0,0,0,0,-1,916,1170,0,0
-301,-146,0,0,0,0,0,0,0,0,0,-1,923,1170,0,0
-294,-146,0,0,0,0,0,0,0,0,0,-1,930,1170,0,0
-287,-146,0,0,0,0,0,0,0,0,0,-1,937,1170,0,0
-280,-146,0,0,0,0,0,0,0,0,0,-1,944,1170,0,0
-273,-146,0,0,0,0,0,0,0,0,0,-1,951,1170,0,0
-266,-146,0,0,0,0,0,0,0,0,0,-1,958,1170,0,0
-259,-146,0,0,0,0,0,0,0,0,0,-1,965,1170,0,0
-252,-146,0,0,0,0,0,0,0,0,0,-1,972,1170,0,0
-245,-146,0,0,0,0,0,0,0,0,0,-1,979,1170,0,0
-238,-146,0,0,0,0,0,0,0,0,0,-1,986,1170,0,0
-231,-146,0,0,0,0,0,0,0,0,0,-1,993,1170,0,0
-224,-146,0,0,0,0,0,0,0,0,0,-1,1000,1170,0,0
-217,-146,0,0,0,0,0,0,0,0,0,-1,1007,1170,0,0
-210,-146,0,0,0,0,0,0,0,0,0,-1,1014,1170,0,0
-203,-146,0,0,0,0,0,0,0,0,0,-1,1021,1170,0,0
-196,-146,0,0,0,0,0,0,0,0,0,-1,1028,1170,0,0
-189,-146,0,0,0,0,0,0,0,0,0,-1,1035,1170,0,0
-182,-146,0,0,0,0,0,0,0,0,0,-1,1042,1170,0,0
-175,-146,0,0,0,0,0,0,0,0,0,-1,1049,1170,0,0
-168,-146,0,0,0,0,0,0,0,0,0,-1,1056,1170,0,0
-161,-146,0,0,0,0,0,0,0,0,0,-1,1063,1170,0,0
-154,-146,0,0,0,0,0,0,0,0,0,-1,1070,1170,0,0
-147,-146,0,0,0,0,0,0,0,0,0,-1,1077,1170,0,0
-140,-146,0,0,0,0,0,0,0,0,0,-1,1084,1170,0,0
-133,-146,0,0,0,0,0,0,0,0,0,-1,1091,1170,0,0
-126,-146,0,0,0,0,0,0,0,0,0,-1,1098,1170,0,0
-119,-146,0,0,0,0,0,0,0,0,0,-1,1105,1170,0,0
-112,-146,0,0,0,0,0,0,0,0,0,-1,1112,1170,0,0
-105,-146,0,0,0,0,0,0,0,0,0,-1,1119,1170,0,0
-98,-146,0,0,0,0,0,0,0,0,0,-1,1126,1170,0,0
-91,-146,0,0,0,0,0,0,0,0,0,-1,1133,1170,0,0
-84,-146,0,0,0,0,0,0,0,0,0,-1,1140,1170,0,0
-77,-146,0,0,0,0,0,0,0,0,0,-1,1147,1170,0,0
-70,-146,0,0,0,0,0,0,0,0,0,-1,1154,1170,0,0
-63,-146,0,0,0,0,0,0,0,0,0,-1,1161,1170,0,0
-56,-146,0,0,0,0,0,0,0,0,0,-1,1168,1170,0,0
-49,-146,0,0,0,0,0,0,0,0,0,-1,1175,1170,0,0
-42,-146,0,0,0,0,0,0,0,0,0,-1,1182,1170,0,0
-35,-146,0,0,0,0,0,0,0,0,0,-1,1189,1170,0,0
-28,-146,0,0,0,0,0,0,0,0,0,-1,1196,1170,0,0
-21,-146,0,0,0,0,0,0,0,0,0,-1,1203,1170,0,0
-14,-146,0,0,0,0,0,0,0,0,0,-1,1210,1170,0,0
-7,-146,0,0,0,0,0,0,0,0,0,-1,1217,1170,0,0
0,-146,0,0,0,0,0,0,0,0,0,-1,1224,1170,0,0
7,-146,0,0,0,0,0,0,0,0,0,-1,1231,1170,0,0
14,-146,0,0,0,0,0,0,0,0,0,-1,1238,1170,0,0
21,-146,0,0,0,0,0,0,0,0,0,-1,1245,1170,0,0
28,-146,0,0,0,0,0,0,0,0,0,-1,1252,1170,0,0
35,-146,0,0,0,0,0,0,0,0,0,-1,1259,1170,0,0
42,-146,0,0,0,0,0,0,0,0,0,-1,1266,1170,0,0
49,-146,0,0,0,0,0,0,0,0,0,-1,1273,1170,0,0
56,-146,0,0,0,0,0,0,0,0,0,-1,1280,1170,0,0
63,-146,0,0,0,0,0,0,0,0,0,-1,1287,1170,0,0
70,-146,0,0,0,0,0,0,0,0,0,-1,1294,1170,0,0
77,-146,0,0,0,0,0,0,0,0,0,-1,1301,1170,0,0
84,-146,0,0,0,0,0,0,0,0,0,-1,1308,1170,0,0
91,-146,0,0,0,0,0,0,0,0,0,-1,1315,1170,0,0
98,-146,0,0,0,0,0,0,0,0,0,-1,1322,1170,0,0
105,-146,0,0,0,0,0,0,0,0,0,-1,1329,1170,0,0
112,-146,0,0,0,0,0,0,0,0,0,-1,1336,1170,0,0
119,-146,0,0,0,0,0,0,0,0,0,-1,1343,1170,0,0
126,-146,0,0,0,0,0,0,0,0,0,-1,1350,1170,0,0
133,-146,0,0,0,0,0,0,0,0,0,-1,1357,1170,0,0
140,-146,0,0,0,0,0,0,0,0,0,-1,1364,1170,0,0
147,-146,0,0,0,0,0,0,0,0,0,-1,1371,1170,0,0
154,-146,0,0,0,0,0,0,0,0,0,-1,1378,1170,0,0
161,-146,0,0,0,0,0,0,0,0,0,-1,1385,1170,0,0
168,-146,0,0,0,0,0,0,0,0,0,-1,1392,1170,0,0
175,-146,0,0,0,0,0,0,0,0,0,-1,1399,1170,0,0
182,-146,0,0,0,0,0,0,0,0,0,-1,1406,1170,0,0
189,-146,0,0,0,0,0,0,0,0,0,-1,1413,1170,0,0
196,-146,0,0,0,0,0,0,0,0,0,-1,1420,1170,0,0
203,-146,0,0,0,0,0,0,0,0,0,-1,1427,1170,0,0
210,-146,0,0,0,0,0,0,0,0,0,-1,1434,1170,0,0
217,-146,0,0,0,0,0,0,0,0,0,-1,1441,1170,0,0
224,-146,0,0,0,0,0,0,0,0,0,-1,1448,1170,0,0
231,-146,0,0,0,0,0,0,0,0,0,-1,1455,1170,0,0
238,-146,0,0,0,0,0,0,0,0,0,-1,1462,1170,0,0
245,-146,0,0,0,0,0,0,0,0,0,-1,1469,1170,0,0
252,-146,0,0,0,0,0,0,0,0,0,-1,1476,1170,0,0
259,-146,0,0,0,0,0,0,0,0,0,-1,1483,1170,0,0
266,-146,0,0,0,0,0,0,0,0,0,-1,1490,1170,0,0
273,-146,0,0,0,0,0,0,0,0,0,-1,1497,1170,0,0
280,-146,0,0,0,0,0,0,0,0,0,-1,1504,1170,0,0
287,-146,0,0,0,0,0,0,0,0,0,-1,1511,1170,0,0
294,-146,0,0,0,0,0,0,0,0,0,-1,1518,1170,0,0
301,-146,0,0,0,0,0,0,0,0,0,-1,1525,1170,0,0
308,-146,0,0,0,0,0,0,0,0,0,-1,1532,1170,0,0
315,-146,0,0,0,0,0,0,0,0,0,-1,1539,1170,0,0
322,-146,0,0,0,0,0,0,0,0,0,-1,1546,1170,0,0
329,-146,0,0,0,0,0,0,0,0,0,-1,1553,1170,0,0
336,-146,0,0,0,0,0,0,0,0,0,-1,1560,1170,0,0
343,-146,0,0,0,0,0,0,0,0,0,-1,1567,1170,0,0
350,-146,0,0,0,0,0,0,0,0,0,-1,1574,1170,0,0
357,-146,0,0,0,0,0,0,0,0,0,-1,1581,1170,0,0
364,-146,0,0,0,0,0,0,0,0,0,-1,1588,1170,0,0
371,-146,0,0,0,0,0,0,0,0,0,-1,1595,1170,0,0
378,-146,0,0,0,0,0,0,0,0,0,-1,1602,1170,0,0
385,-146,0,0,0,0,0,0,0,0,0,-1,1609,1170,0,0
392,-146,0,0,0,0,0,0,0,0,0,-1,1616,1170,0,0
399,-146,0,0,0,0,0,0,0,0,0,-1,1623,1170,0,0
406,-146,0,0,0,0,0,0,0,0,0,-1,1630,1170,0,0
413,-146,0,0,0,0,0,0,0,0,0,-1,1637,1170,0,0
420,-146,0,0,0,0,0,0,0,0,0,-1,1644,1170,0,0
427,-146,0,0,0,0,0,0,0,0,0,-1,1651,1170,0,0
434,-146,0,0,0,0,0,0,0,0,0,-1,1658,1170,0,0
441,-146,0,0,0,0,0,0,0,0,0,-1,1665,1170,0,0
448,-146,0,0,0,0,0,0,0,0,0,-1,1672,1170,0,0
455,-146,0,0,0,0,0,0,0,0,0,-1,1679,1170,0,0
462,-146,0,0,0,0,0,0,0,0,0,-1,1686,1170,0,0
469,-146,0,0,0,0,0,0,0,0,0,-1,1693,1170,0,0
476,-146,0,0,0,0,0,0,0,0,0,-1,1700,1170,0,0
483,-146,0,0,0,0,0,0,0,0,0,-1,1707,1170,0,0
490,-146,0,0,0,0,0,0,0,0,0,-1,1714,1170,0,0
497,-146,0,0,0,0,0,0,0,0,0,-1,1721,1170,0,0
504,-146,0,0,0,0,0,0,0,0,0,-1,1728,1170,0,0
511,-146,0,0,0,0,0,0,0,0,0,-1,1735,1170,0,0
518,-146,0,0,0,0,0,0,0,0,0,-1,1742,1170,0,0
525,-146,0,0,0,0,0,0,0,0,0,-1,1749,1170,0,0
532,-146,0,0,0,0,0,0,0,0,0,-1,1756,1170,0,0
539,-146,0,0,0,0,0,0,0,0,0,-1,1763,1170,0,0
546,-146,0,0,0,0,0,0,0,0,0,-1,1770,1170,0,0
553,-146,0,0,0,0,0,0,0,0,0,-1,1777,1170,0,0
560,-146,0,0,0,0,0,0,0,0,0,-1,1784,1170,0,0
567,-146,0,0,0,0,0,0,0,0,0,-1,1791,1170,0,0
574,-146,0,0,0,0,0,0,0,0,0,-1,1798,1170,0,0
581,-146,0,0,0,0,0,0,0,0,0,-1,1805,1170,0,0
588,-146,0,0,0,0,0,0,0,0,0,-1,1812,1170,0,0
595,-146,0,0,0,0,0,0,0,0,0,-1,1819,1170,0,0
602,-146,0,0,0,0,0,0,0,0,0,-1,1826,1170,0,0
609,-146,0,0,0,0,0,0,0,0,0,-1,1833,1170,0,0
616,-146,0,0,0,0,0,0,0,0,0,-1,1840,1170,0,0
623,-146,0,0,0,0,0,0,0,0,0,-1,1847,1170,0,0
630,-146,0,0,0,0,0,0,0,0,0,-1,1854,1170,0,0
637,-146,39.3306,2.50537,0.00237605,-0.00782639,0.00373512,0.00359729,-0.00904763,0.316006,0.00752321,0.0402988,1861,1170,39.3306,-2.50537
644,-146,39.3246,2.40784,0.0021446,-0.00605138,0.00305279,0.0031567,-0.00706348,0.32013,0.00604262,0.0381904,1868,1170,39.3245,-2.40785
651,-146,39.4417,2.43347,0.00196431,-0.00441882,0.00239813,0.00276488,-0.00521938,0.322197,0.00468176,0.0357956,1875,1170,39.4417,-2.43342
658,-146,39.467,2.53052,0.00194569,-0.00304328,0.00180362,0.00252944,-0.00362703,0.313012,0.00357322,0.0372507,1882,1170,39.467,-2.53049
665,-146,39.423,2.65784,0.00195227,-0.00192739,0.00137742,0.00239156,-0.00236669,0.308727,0.00274719,0.0366766,1889,1170,39.4229,-2.65787
672,-146,39.4926,2.66748,0.00174096,-0.00130677,0.00123323,0.00217745,-0.00174327,0.340186,0.00226825,0.0370122,1896,1170,39.4925,-2.66746
679,-146,39.5303,2.57556,0.000738891,-0.000877146,0.00142695,0.00157071,-0.00170897,0.527779,0.00189409,0.0302915,1903,1170,39.5303,-2.57559
686,-146,39.4468,2.57349,-0.000138854,-0.000812588,0.00164756,0.00120592,-0.00215736,0.684556,0.00196752,0.0246194,1910,1170,39.4468,-2.57351
693,-146,39.4861,2.54651,-0.000690277,-0.00066503,0.00183693,0.00115933,-0.00251463,0.788834,0.00216874,0.0194244,1917,1170,39.4861,-2.54646
700,-146,39.5858,2.46643,0,0,0,0,0,0,0,-1,1924,1170,39.5858,-2.46639
707,-146,29.9441,6.94653,0,0,0,0,0,0,0,-1,1931,1170,29.9441,-6.94652
714,-146,31.325,6.13245,0,0,0,0,0,0,0,-1,1938,1170,31.325,-6.1325
721,-146,35.2018,6.21033,0,0,0,0,0,0,0,-1,1945,1170,35.2018,-6.21038
728,-146,35.4453,5.83813,-0.00278746,2.60559e-05,0.00241722,0.00141606,-0.00417747,1.04893,0.00335804,0.0434693,1952,1170,35.4453,-5.83812
735,-146,35.0996,5.83374,-0.00289264,-8.80678e-05,0.00253672,0.00140816,-0.00438886,1.03789,0.00349127,0.022429,1959,1170,35.0996,-5.83375
742,-146,35.1605,5.49146,-0.00234469,-0.000106535,0.00254101,0.00155091,-0.00400213,0.992822,0.00330853,0.0179155,1966,1170,35.1605,-5.49147
749,-146,35.1322,5.19983,-0.000967694,0.0002453,0.0024597,0.00217217,-0.00289456,0.906274,0.00293517,0.0164542,1973,1170,35.1322,-5.19984
756,-146,35.0781,4.90881,0.00172668,0.00113981,0.00199818,0.00345285,-0.000586362,0.712493,0.0025202,0.0122078,1980,1170,35.0782,-4.90887
763,-146,35.0526,4.61792,0.00549217,0.00212254,0.00152199,0.00607783,0.00153688,0.367334,0.00364912,0.0109666,1987,1170,35.0526,-4.61798
770,-146,35.0453,4.34375,0.0101215,0.00347773,0.000839077,0.0102258,0.0033734,0.123708,0.00601671,0.0121038,1994,1170,35.0452,-4.34376
777,-146,35.0547,4.16162,0.0157838,0.00542163,-0.000179579,0.0157869,0.00541851,-0.0173232,0.00926272,0.0210418,2001,1170,35.0546,-4.16161
784,-146,35.0374,4.00671,0.0227549,0.00838649,-0.00175751,0.0229667,0.00817463,-0.119962,0.0134421,0.039525,2008,1170,35.0374,-4.00672
791,-146,35.2246,4.13196,0.0315853,0.0127637,-0.00425788,0.0325037,0.0118453,-0.212444,0.0189946,0.042936,2015,1170,35.2246,-4.1319
798,-146,35.228,4.50537,0.042845,0.0192053,-0.00829502,0.0454653,0.0165851,-0.305962,0.0265674,0.0407029,2022,1170,35.228,-4.50542
805,-146,35.8721,4.57983,0.0565634,0.0286245,-0.0143684,0.0626338,0.0225541,-0.399737,0.0366304,0.0414904,2029,1170,35.8719,-4.57989
812,-146,0,0,0,0,0,0,0,0,0,-1,2036,1170,0,0
-700,-153,0,0,0,0,0,0,0,0,0,-1,524,1177,0,0
-693,-153,0,0,0,0,0,0,0,0,0,-1,531,1177,0,0
-686,-153,-21.6118,1.69763,-0.0644876,-0.00590558,-0.0940788,0.0633366,-0.13373,-0.936315,0.116171,0.0471855,538,1177,-21.6118,-1.69763
-679,-153,-21.9904,0.891602,-0.0481246,-0.00505996,-0.0771995,0.0535538,-0.106738,-0.921401,0.0942275,0.048178,545,1177,-21.9904,-0.891592
-672,-153,-22.319,0.194824,-0.0347219,-0.00399356,-0.0617892,0.0443129,-0.0830284,-0.907254,0.0746446,0.0459745,552,1177,-22.3189,-0.194846
-665,-153,-22.8895,0.11377,-0.0238517,-0.00289292,-0.0480644,0.0358212,-0.0625659,-0.892733,0.0574991,0.0461523,559,1177,-22.8895,-0.113762
-658,-153,-23.7744,0.94873,0,0,0,0,0,0,0,-1,566,1177,-23.7744,-0.948735
-651,-153,-23.8012,1.15247,-0.00934906,-0.00102258,-0.0264339,0.0215739,-0.0319455,-0.863505,0.0310923,0.0457499,573,1177,-23.8012,-1.15246
-644,-153,-23.739,1.29248,-0.00530329,-0.000378318,-0.0185481,0.0158701,-0.0215517,-0.851393,0.0216883,0.0266916,580,1177,-23.739,-1.29247
-637,-153,-23.7715,1.59827,-0.00288455,-0.000167635,-0.0125174,0.0110648,-0.014117,-0.839449,0.0145743,0.0112491,587,1177,-23.7715,-1.59824
-630,-153,-23.7972,1.92395,-0.0010528,0.000384389,-0.00710776,0.00680979,-0.0074782,-0.835777,0.00825218,0.0105098,594,1177,-23.7973,-1.92394
-623,-153,-23.8268,2.25269,-0.000831306,0.000546715,-0.003667,0.00358887,-0.00387346,-0.878263,0.00430942,0.0105906,601,1177,-23.8268,-2.25269
-616,-153,-23.8522,2.59021,-0.00137302,0.000348087,-0.00187492,0.00155051,-0.00257544,-1.00055,0.00240649,0.0128179,608,1177,-23.8522,-2.59026
-609,-153,-23.7725,2.94421,-0.00160267,0.000161244,-0.00108319,0.000676119,-0.00211754,-1.12708,0.00168297,0.0183724,615,1177,-23.7725,-2.94426
-602,-153,-23.7681,3.66101,0,0,0,0,0,0,0,-1,622,1177,-23.7681,-3.66096
-595,-153,-23.9536,3.75293,0,0,0,0,0,0,0,-1,629,1177,-23.9536,-3.75294
-588,-153,-24.3741,4.02136,0,0,0,0,0,0,0,-1,636,1177,-24.3741,-4.02139
-581,-153,-23.4411,4.11975,0,0,0,0,0,0,0,-1,643,1177,-23.4411,-4.1198
-574,-153,-23.3375,4.35791,0,0,0,0,0,0,0,-1,650,1177,-23.3375,-4.35785
-567,-153,-28.7587,0.88147,0,0,0,0,0,0,0,-1,657,1177,-28.7586,-0.881467
-560,-153,-28.7761,0.923828,-0.00123051,6.44239e-05,-0.0012486,0.000823445,-0.00198954,-1.02459,0.00166994,0.0410301,664,1177,-28.7761,-0.923855
-553,-153,-28.6941,0.838623,-0.0012859,0.000304501,-0.00124201,0.000984063,-0.00196546,-1.07014,0.00173405,0.0381717,671,1177,-28.6941,-0.838584
-546,-153,-28.4955,0.493774,-0.00117697,0.00074524,-0.000952292,0.00113713,-0.00156885,-1.1804,0.00156891,0.0405633,678,1177,-28.4955,-0.493728
-539,-153,-28.9181,0.43042,-0.00138981,0.00127124,-0.000118157,0.00127648,-0.00139505,-1.52651,0.00154291,0.0420284,685,1177,-28.9181,-0.430475
-532,-153,-29.1794,0.672119,-0.00228904,0.00238594,0.00177019,0.00298058,-0.00288369,1.24672,0.00338589,0.041704,692,1177,-29.1794,-0.672108
-525,-153,-29.0561,1.0636,-0.00332433,0.00374642,0.00435698,0.00582195,-0.00539985,1.12623,0.00648043,0.0408734,699,1177,-29.0561,-1.06359
-518,-153,0,0,0,0,0,0,0,0,0,-1,706,1177,0,0
-511,-153,0,0,0,0,0,0,0,0,0,-1,713,1177,0,0
-504,-153,0,0,0,0,0,0,0,0,0,-1,720,1177,0,0
-497,-153,0,0,0,0,0,0,0,0,0,-1,727,1177,0,0
-490,-153,0,0,0,0,0,0,0,0,0,-1,734,1177,0,0
-483,-153,0,0,0,0,0,0,0,0,0,-1,741,1177,0,0
-476,-153,0,0,0,0,0,0,0,0,0,-1,748,1177,0,0
-469,-153,0,0,0,0,0,0,0,0,0,-1,755,1177,0,0
-462,-153,0,0,0,0,0,0,0,0,0,-1,762,1177,0,0
-455,-153,0,0,0,0,0,0,0,0,0,-1,769,1177,0,0
-448,-153,0,0,0,0,0,0,0,0,0,-1,776,1177,0,0
-441,-153,0,0,0,0,0,0,0,0,0,-1,783,1177,0,0
-434,-153,0,0,0,0,0,0,0,0,0,-1,790,1177,0,0
-427,-153,0,0,0,0,0,0,0,0,0,-1,797,1177,0,0
-420,-153,0,0,0,0,0,0,0,0,0,-1,804,1177,0,0
-413,-153,0,0,0,0,0,0,0,0,0,-1,811,1177,0,0
-406,-153,0,0,0,0,0,0,0,0,0,-1,818,1177,0,0
-399,-153,0,0,0,0,0,0,0,0,0,-1,825,1177,0,0
-392,-153,0,0,0,0,0,0,0,0,0,-1,832,1177,0,0
-385,-153,0,0,0,0,0,0,0,0,0,-1,839,1177,0,0
-378,-153,0,0,0,0,0,0,0,0,0,-1,846,1177,0,0
-371,-153,0,0,0,0,0,0,0,0,0,-1,853,1177,0,0
-364,-153,0,0,0,0,0,0,0,0,0,-1,860,1177,0,0
-357,-153,0,0,0,0,0,0,0,0,0,-1,867,1177,0,0
-350,-153,0,0,0,0,0,0,0,0,0,-1,874,1177,0,0
-343,-153,0,0,0,0,0,0,0,0,0,-1,881,1177,0,0
-336,-153,0,0,0,0,0,0,0,0,0,-1,888,1177,0,0
-329,-153,0,0,0,0,0,0,0,0,0,-1,895,1177,0,0
-322,-153,0,0,0,0,0,0,0,0,0,-1,902,1177,0,0
-315,-153,0,0,0,0,0,0,0,0,0,-1,909,1177,0,0
-308,-153,0,0,0,0,0,0,0,0,0,-1,916,1177,0,0
-301,-153,0,0,0,0,0,0,0,0,0,-1,923,1177,0,0
-294,-153,0,0,0,0,0,0,0,0,0,-1,930,1177,0,0
-287,-153,0,0,0,0,0,0,0,0,0,-1,937,1177,0,0
-280,-153,0,0,0,0,0,0,0,0,0,-1,944,1177,0,0
-273,-153,0,0,0,0,0,0,0,0,0,-1,951,1177,0,0
-266,-153,0,0,0,0,0,0,0,0,0,-1,958,1177,0,0
-259,-153,0,0,0,0,0,0,0,0,0,-1,965,1177,0,0
-252,-153,0,0,0,0,0,0,0,0,0,-1,972,1177,0,0
-245,-153,0,0,0,0,0,0,0,0,0,-1,979,1177,0,0
-238,-153,0,0,0,0,0,0,0,0,0,-1,986,1177,0,0
-231,-153,0,0,0,0,0,0,0,0,0,-1,993,1177,0,0
-224,-153,0,0,0,0,0,0,0,0,0,-1,1000,1177,0,0
-217,-153,0,0,0,0,0,0,0,0,0,-1,1007,1177,0,0
-210,-153,0,0,0,0,0,0,0,0,0,-1,1014,1177,0,0
-203,-153,0,0,0,0,0,0,0,0,0,-1,1021,1177,0,0
-196,-153,0,0,0,0,0,0,0,0,0,-1,1028,1177,0,0
-189,-153,0,0,0,0,0,0,0,0,0,-1,1035,1177,0,0
-182,-153,0,0,0,0,0,0,0,0,0,-1,1042,1177,0,0
-175,-153,0,0,0,0,0,0,0,0,0,-1,1049,1177,0,0
-168,-153,0,0,0,0,0,0,0,0,0,-1,1056,1177,0,0
-161,-153,0,0,0,0,0,0,0,0,0,-1,1063,1177,0,0
-154,-153,0,0,0,0,0,0,0,0,0,-1,1070,1177,0,0
-147,-153,0,0,0,0,0,0,0,0,0,-1,1077,1177,0,0
-140,-153,0,0,0,0,0,0,0,0,0,-1,1084,1177,0,0
-133,-153,0,0,0,0,0,0,0,0,0,-1,1091,1177,0,0
-126,-153,0,0,0,0,0,0,0,0,0,-1,1098,1177,0,0
-119,-153,0,0,0,0,0,0,0,0,0,-1,1105,1177,0,0
-112,-153,0,0,0,0,0,0,0,0,0,-1,1112,1177,0,0
-105,-153,0,0,0,0,0,0,0,0,0,-1,1119,1177,0,0
-98,-153,0,0,0,0,0,0,0,0,0,-1,1126,1177,0,0
-91,-153,0,0,0,0,0,0,0,0,0,-1,1133,1177,0,0
-84,-153,0,0,0,0,0,0,0,0,0,-1,1140,1177,0,0
-77,-153,0,0,0,0,0,0,0,0,0,-1,1147,1177,0,0
-70,-153,0,0,0,0,0,0,0,0,0,-1,1154,1177,0,0
-63,-153,0,0,0,0,0,0,0,0,0,-1,1161,1177,0,0
-56,-153,0,0,0,0,0,0,0,0,0,-1,1168,1177,0,0
-49,-153,0,0,0,0,0,0,0,0,0,-1,1175,1177,0,0
-42,-153,0,0,0,0,0,0,0,0,0,-1,1182,1177,0,0
-35,-153,0,0,0,0,0,0,0,0,0,-1,1189,1177,0,0
-28,-153,0,0,0,0,0,0,0,0,0,-1,1196,1177,0,0
-21,-153,0,0,0,0,0,0,0,0,0,-1,1203,1177,0,0
-14,-153,0,0,0,0,0,0,0,0,0,-1,1210,1177,0,0
-7,-153,0,0,0,0,0,0,0,0,0,-1,1217,1177,0,0
0,-153,0,0,0,0,0,0,0,0,0,-1,1224,1177,0,0
7,-153,0,0,0,0,0,0,0,0,0,-1,1231,1177,0,0
14,-153,0,0,0,0,0,0,0,0,0,-1,1238,1177,0,0
21,-153,0,0,0,0,0,0,0,0,0,-1,1245,1177,0,0
28,-153,0,0,0,0,0,0,0,0,0,-1,1252,1177,0,0
35,-153,0,0,0,0,0,0,0,0,0,-1,1259,1177,0,0
42,-153,0,0,0,0,0,0,0,0,0,-1,1266,1177,0,0
49,-153,0,0,0,0,0,0,0,0,0,-1,1273,1177,0,0
56,-153,0,0,0,0,0,0,0,0,0,-1,1280,1177,0,0
63,-153,0,0,0,0,0,0,0,0,0,-1,1287,1177,0,0
70,-153,0,0,0,0,0,0,0,0,0,-1,1294,1177,0,0
77,-153,0,0,0,0,0,0,0,0,0,-1,1301,1177,0,0
84,-153,0,0,0,0,0,0,0,0,0,-1,1308,1177,0,0
91,-153,0,0,0,0,0,0,0,0,0,-1,1315,1177,0,0
98,-153,0,0,0,0,0,0,0,0,0,-1,1322,1177,0,0
105,-153,0,0,0,0,0,0,0,0,0,-1,1329,1177,0,0
112,-153,0,0,0,0,0,0,0,0,0,-1,1336,1177,0,0
119,-153,0,0,0,0,0,0,0,0,0,-1,1343,1177,0,0
126,-153,0,0,0,0,0,0,0,0,0,-1,1350,1177,0,0
133,-153,0,0,0,0,0,0,0,0,0,-1,1357,1177,0,0
140,-153,0,0,0,0,0,0,0,0,0,-1,1364,1177,0,0
147,-153,0,0,0,0,0,0,0,0,0,-1,1371,1177,0,0
154,-153,0,0,0,0,0,0,0,0,0,-1,1378,1177,0,0
161,-153,0,0,0,0,0,0,0,0,0,-1,1385,1177,0,0
168,-153,0,0,0,0,0,0,0,0,0,-1,1392,1177,0,0
175,-153,0,0,0,0,0,0,0,0,0,-1,1399,1177,0,0
182,-153,0,0,0,0,0,0,0,0,0,-1,1406,1177,0,0
189,-153,0,0,0,0,0,0,0,0,0,-1,1413,1177,0,0
196,-153,0,0,0,0,0,0,0,0,0,-1,1420,1177,0,0
203,-153,0,0,0,0,0,0,0,0,0,-1,1427,1177,0,0
210,-153,0,0,0,0,0,0,0,0,0,-1,1434,1177,0,0
217,-153,0,0,0,0,0,0,0,0,0,-1,1441,1177,0,0
224,-153,0,0,0,0,0,0,0,0,0,-1,1448,1177,0,0
231,-153,0,0,0,0,0,0,0,0,0,-1,1455,1177,0,0
238,-153,0,0,0,0,0,0,0,0,0,-1,1462,1177,0,0
245,-153,0,0,0,0,0,0,0,0,0,-1,1469,1177,0,0
252,-153,0,0,0,0,0,0,0,0,0,-1,1476,1177,0,0
259,-153,0,0,0,0,0,0,0,0,0,-1,1483,1177,0,0
266,-153,0,0,0,0,0,0,0,0,0,-1,1490,1177,0,0
273,-153,0,0,0,0,0,0,0,0,0,-1,1497,1177,0,0
280,-153,0,0,0,0,0,0,0,0,0,-1,1504,1177,0,0
287,-153,0,0,0,0,0,0,0,0,0,-1,1511,1177,0,0
294,-153,0,0,0,0,0,0,0,0,0,-1,1518,1177,0,0
301,-153,0,0,0,0,0,0,0,0,0,-1,1525,1177,0,0
308,-153,0,0,0,0,0,0,0,0,0,-1,1532,1177,0,0
315,-153,0,0,0,0,0,0,0,0,0,-1,1539,1177,0,0
322,-153,0,0,0,0,0,0,0,0,0,-1,1546,1177,0,0
329,-153,0,0,0,0,0,0,0,0,0,-1,1553,1177,0,0
336,-153,0,0,0,0,0,0,0,0,0,-1,1560,1177,0,0
343,-153,0,0,0,0,0,0,0,0,0,-1,1567,1177,0,0
350,-153,0,0,0,0,0,0,0,0,0,-1,1574,1177,0,0
357,-153,0,0,0,0,0,0,0,0,0,-1,1581,1177,0,0
364,-153,0,0,0,0,0,0,0,0,0,-1,1588,1177,0,0
371,-153,0,0,0,0,0,0,0,0,0,-1,1595,1177,0,0
378,-153,0,0,0,0,0,0,0,0,0,-1,1602,1177,0,0
385,-153,0,0,0,0,0,0,0,0,0,-1,1609,1177,0,0
392,-153,0,0,0,0,0,0,0,0,0,-1,1616,1177,0,0
399,-153,0,0,0,0,0,0,0,0,0,-1,1623,1177,0,0
406,-153,0,0,0,0,0,0,0,0,0,-1,1630,1177,0,0
413,-153,0,0,0,0,0,0,0,0,0,-1,1637,1177,0,0
420,-153,0,0,0,0,0,0,0,0,0,-1,1644,1177,0,0
427,-153,0,0,0,0,0,0,0,0,0,-1,1651,1177,0,0
434,-153,0,0,0,0,0,0,0,0,0,-1,1658,1177,0,0
441,-153,0,0,0,0,0,0,0,0,0,-1,1665,1177,0,0
448,-153,0,0,0,0,0,0,0,0,0,-1,1672,1177,0,0
455,-153,0,0,0,0,0,0,0,0,0,-1,1679,1177,0,0
462,-153,0,0,0,0,0,0,0,0,0,-1,1686,1177,0,0
469,-153,0,0,0,0,0,0,0,0,0,-1,1693,1177,0,0
476,-153,0,0,0,0,0,0,0,0,0,-1,1700,1177,0,0
483,-153,0,0,0,0,0,0,0,0,0,-1,1707,1177,0,0
490,-153,0,0,0,0,0,0,0,0,0,-1,1714,1177,0,0
497,-153,0,0,0,0,0,0,0,0,0,-1,1721,1177,0,0
504,-153,0,0,0,0,0,0,0,0,0,-1,1728,1177,0,0
511,-153,0,0,0,0,0,0,0,0,0,-1,1735,1177,0,0
518,-153,0,0,0,0,0,0,0,0,0,-1,1742,1177,0,0
525,-153,0,0,0,0,0,0,0,0,0,-1,1749,1177,0,0
532,-153,0,0,0,0,0,0,0,0,0,-1,1756,1177,0,0
539,-153,0,0,0,0,0,0,0,0,0,-1,1763,1177,0,0
546,-153,0,0,0,0,0,0,0,0,0,-1,1770,1177,0,0
553,-153,0,0,0,0,0,0,0,0,0,-1,1777,1177,0,0
560,-153,0,0,0,0,0,0,0,0,0,-1,1784,1177,0,0
567,-153,0,0,0,0,0,0,0,0,0,-1,1791,1177,0,0
574,-153,0,0,0,0,0,0,0,0,0,-1,1798,1177,0,0
581,-153,0,0,0,0,0,0,0,0,0,-1,1805,1177,0,0
588,-153,0,0,0,0,0,0,0,0,0,-1,1812,1177,0,0
595,-153,0,0,0,0,0,0,0,0,0,-1,1819,1177,0,0
602,-153,0,0,0,0,0,0,0,0,0,-1,1826,1177,0,0
609,-153,0,0,0,0,0,0,0,0,0,-1,1833,1177,0,0
616,-153,0,0,0,0,0,0,0,0,0,-1,1840,1177,0,0
623,-153,0,0,0,0,0,0,0,0,0,-1,1847,1177,0,0
630,-153,0,0,0,0,0,0,0,0,0,-1,1854,1177,0,0
637,-153,39.4208,2.78809,0.00142991,-0.00772857,0.00346452,0.00259283,-0.00889148,0.323847,0.00695495,0.0400253,1861,1177,39.4208,-2.78805
644,-153,39.4569,2.59753,0.00126822,-0.00608166,0.00267272,0.00213735,-0.00695079,0.314401,0.00548688,0.0365717,1868,1177,39.4569,-2.59749
651,-153,39.4839,2.48254,0.00119781,-0.00450899,0.00200841,0.00183377,-0.00514495,0.306658,0.0041776,0.0289615,1875,1177,39.4839,-2.4825
658,-153,39.4301,2.51721,0.00133154,-0.00316544,0.00144486,0.00175575,-0.00358965,0.285574,0.00314613,0.0314468,1882,1177,39.4301,-2.51725
665,-153,39.3883,2.60437,0.001507,-0.00211074,0.00113925,0.00183586,-0.0024396,0.281027,0.00247663,0.0362099,1889,1177,39.3883,-2.60442
672,-153,39.3458,2.48145,0.00138297,-0.00157107,0.00116899,0.0017896,-0.00197769,0.334754,0.00217595,0.0384968,1896,1177,39.3458,-2.48146
679,-153,39.39,2.51367,0.000381384,-0.0012062,0.0015211,0.00130335,-0.00212817,0.544909,0.00200018,0.0293973,1903,1177,39.3901,-2.51369
686,-153,39.4525,2.5437,-0.000475891,-0.00114792,0.0017996,0.00101879,-0.00264261,0.693103,0.00218211,0.0193272,1910,1177,39.4526,-2.54375
693,-153,39.5267,2.51221,-0.000982858,-0.000996848,0.00201101,0.00102117,-0.00300088,0.783659,0.00241407,0.0328747,1917,1177,39.5268,-2.51216
700,-153,39.6057,2.46753,0,0,0,0,0,0,0,-1,1924,1177,39.6057,-2.46758
707,-153,29.6483,6.6842,0,0,0,0,0,0,0,-1,1931,1177,29.6483,-6.68415
714,-153,32.3099,6.05176,0,0,0,0,0,0,0,-1,1938,1177,32.31,-6.05175
721,-153,32.693,5.83923,0,0,0,0,0,0,0,-1,1945,1177,32.693,-5.83919
728,-153,35.2556,5.59814,0,0,0,0,0,0,0,-1,1952,1177,35.2556,-5.59818
735,-153,34.8108,5.76343,-0.00297851,-0.000272683,0.00280843,0.00149172,-0.00474291,1.00986,0.00375917,0.027027,1959,1177,34.8108,-5.76338
742,-153,34.8282,5.54065,-0.00227543,-0.000265292,0.0027826,0.00168819,-0.00422891,0.958706,0.00351965,0.0149613,1966,1177,34.8283,-5.54067
749,-153,34.7981,5.24854,-0.000389545,5.28588e-05,0.00267203,0.00251283,-0.00284952,0.826696,0.00309799,0.0159425,1973,1177,34.798,-5.24848
756,-153,34.7961,4.90771,0.00302221,0.000836021,0.00222064,0.00440421,-0.000545977,0.556686,0.00313403,0.0110872,1980,1177,34.7961,-4.9077
763,-153,34.774,4.61951,0.00758652,0.00161256,0.00178731,0.00808042,0.00111866,0.269608,0.00505549,0.0104715,1987,1177,34.774,-4.61947
770,-153,34.7468,4.31921,0.0131533,0.00270715,0.0011878,0.0132866,0.0025738,0.111805,0.00813667,0.0108474,1994,1177,34.7468,-4.31916
777,-153,34.7527,4.07178,0.0199667,0.0043139,0.00029985,0.0199725,0.00430815,0.0191469,0.0121366,0.0228539,2001,1177,34.7527,-4.07174
784,-153,34.929,3.99231,0.0282385,0.00684882,-0.00108235,0.0282932,0.00679419,-0.0504297,0.0170546,0.0420354,2008,1177,34.9289,-3.99236
791,-153,35.2646,3.97339,0.0386454,0.0106377,-0.00331945,0.0390335,0.0102496,-0.116371,0.0233675,0.0441448,2015,1177,35.2645,-3.97341
798,-153,35.6753,3.88086,0,0,0,0,0,0,0,-1,2022,1177,35.6753,-3.88092
805,-153,36.4656,4.45142,0,0,0,0,0,0,0,-1,2029,1177,36.4655,-4.45146
812,-153,0,0,0,0,0,0,0,0,0,-1,2036,1177,0,0
-700,-160,0,0,0,0,0,0,0,0,0,-1,524,1184,0,0
-693,-160,0,0,0,0,0,0,0,0,0,-1,531,1184,0,0
-686,-160,-20.0921,1.84412,-0.0633353,-0.0110218,-0.102346,0.0684566,-0.142814,-0.910506,0.12447,0.0455717,538,1184,-20.0921,-1.84409
-679,-160,-20.8461,1.26538,-0.0459804,-0.00851563,-0.0836435,0.0584674,-0.112963,-0.895558,0.100629,0.0441146,545,1184,-20.846,-1.26538
-672,-160,-21.6767,0.182861,0,0,0,0,0,0,0,-1,552,1184,-21.6767,-0.182824
-665,-160,-22.2952,-0.105591,0,0,0,0,0,0,0,-1,559,1184,-22.2952,0.10561
-658,-160,-22.5425,-0.0806885,0,0,0,0,0,0,0,-1,566,1184,-22.5425,0.0807464
-651,-160,-23.3149,1.05432,0,0,0,0,0,0,0,-1,573,1184,-23.3149,-1.05435
-644,-160,-23.3505,1.328,-0.0039473,-0.000498311,-0.0201503,0.0180011,-0.0224468,-0.828085,0.0233996,0.0378117,580,1184,-23.3505,-1.32798
-637,-160,-23.404,1.60205,-0.00191631,-5.07043e-05,-0.0135992,0.0126477,-0.0146147,-0.819641,0.0157536,0.0140304,587,1184,-23.404,-1.60202
-630,-160,-23.4569,1.90735,-0.000351831,0.000557509,-0.00786716,0.00798313,-0.00777745,-0.814263,0.00909963,0.00907931,594,1184,-23.4569,-1.90736
-623,-160,-23.5051,2.22656,-0.000492837,0.000671862,-0.00419675,0.00432647,-0.00414745,-0.854339,0.00489279,0.0117615,601,1184,-23.505,-2.22655
-616,-160,-23.5118,2.57532,-0.00139162,0.000348442,-0.00224287,0.00188411,-0.00292729,-0.970419,0.00279955,0.0104453,608,1184,-23.5118,-2.57527
-609,-160,-23.4711,2.96948,-0.00192414,1.71423e-05,-0.0013286,0.000691898,-0.0025989,-1.10087,0.00200346,0.0134871,615,1184,-23.4711,-2.96942
-602,-160,-23.294,3.51013,-0.0020582,-0.000279355,-0.00111852,0.000260262,-0.00259782,-1.1213,0.00182483,0.0371486,622,1184,-23.294,-3.51012
-595,-160,-23.3654,3.94507,-0.00235921,-0.000407868,-0.00143038,0.00034791,-0.00311499,-1.08471,0.00220181,0.0475849,629,1184,-23.3653,-3.94505
-588,-160,-23.8206,4.29932,0,0,0,0,0,0,0,-1,636,1184,-23.8205,-4.29934
-581,-160,-23.1191,4.01404,0,0,0,0,0,0,0,-1,643,1184,-23.1192,-4.01405
-574,-160,-25.4786,3.55493,0,0,0,0,0,0,0,-1,650,1184,-25.4786,-3.55488
-567,-160,-28.6198,0.811768,0,0,0,0,0,0,0,-1,657,1184,-28.6198,-0.81177
-560,-160,-28.6924,0.838013,-0.00154835,-0.000812712,-0.00151501,0.000378495,-0.00273955,-0.904485,0.00196472,0.0452929,664,1184,-28.6924,-0.837997
-553,-160,-28.6931,0.835938,-0.00147919,-0.000680252,-0.00147895,0.000452226,-0.00261167,-0.917302,0.00190979,0.0387794,671,1184,-28.6931,-0.8359
-546,-160,-28.604,0.665283,-0.00118272,-0.000344517,-0.00114888,0.000459318,-0.00198655,-0.960293,0.00150109,0.0389339,678,1184,-28.604,-0.66534
-539,-160,-28.8253,0.407349,-0.00107732,0.000135279,-0.000275624,0.000194988,-0.00113703,-1.35746,0.000830679,0.0416277,685,1184,-28.8253,-0.407363
-532,-160,-28.9171,0.403809,-0.00168948,0.00135344,0.00163193,0.00206314,-0.00239917,1.16059,0.00257875,0.0469915,692,1184,-28.9171,-0.403831
-525,-160,-29.0106,0.996216,-0.00257817,0.00296098,0.00443118,0.00541691,-0.0050341,1.0647,0.00603524,0.0468898,699,1184,-29.0106,-0.996235
-518,-160,-28.826,1.28125,-0.00419262,0.00409766,0.00705495,0.0081351,-0.00823006,1.05101,0.00944848,0.0451213,706,1184,-28.826,-1.2813
-511,-160,0,0,0,0,0,0,0,0,0,-1,713,1184,0,0
-504,-160,0,0,0,0,0,0,0,0,0,-1,720,1184,0,0
-497,-160,0,0,0,0,0,0,0,0,0,-1,727,1184,0,0
-490,-160,0,0,0,0,0,0,0,0,0,-1,734,1184,0,0
-483,-160,0,0,0,0,0,0,0,0,0,-1,741,1184,0,0
-476,-160,0,0,0,0,0,0,0,0,0,-1,748,1184,0,0
-469,-160,0,0,0,0,0,0,0,0,0,-1,755,1184,0,0
-462,-160,0,0,0,0,0,0,0,0,0,-1,762,1184,0,0
-455,-160,0,0,0,0,0,0,0,0,0,-1,769,1184,0,0
-448,-160,0,0,0,0,0,0,0,0,0,-1,776,1184,0,0
-441,-160,0,0,0,0,0,0,0,0,0,-1,783,1184,0,0
-434,-160,0,0,0,0,0,0,0,0,0,-1,790,1184,0,0
-427,-160,0,0,0,0,0,0,0,0,0,-1,797,1184,0,0
-420,-160,0,0,0,0,0,0,0,0,0,-1,804,1184,0,0
-413,-160,0,0,0,0,0,0,0,0,0,-1,811,1184,0,0
-406,-160,0,0,0,0,0,0,0,0,0,-1,818,1184,0,0
-399,-160,0,0,0,0,0,0,0,0,0,-1,825,1184,0,0
-392,-160,0,0,0,0,0,0,0,0,0,-1,832,1184,0,0
-385,-160,0,0,0,0,0,0,0,0,0,-1,839,1184,0,0
-378,-160,0,0,0,0,0,0,0,0,0,-1,846,1184,0,0
-371,-160,0,0,0,0,0,0,0,0,0,-1,853,1184,0,0
-364,-160,0,0,0,0,0,0,0,0,0,-1,860,1184,0,0
-357,-160,0,0,0,0,0,0,0,0,0,-1,867,1184,0,0
-350,-160,0,0,0,0,0,0,0,0,0,-1,874,1184,0,0
-343,-160,0,0,0,0,0,0,0,0,0,-1,881,1184,0,0
-336,-160,0,0,0,0,0,0,0,0,0,-1,888,1184,0,0
-329,-160,0,0,0,0,0,0,0,0,0,-1,895,1184,0,0
-322,-160,0,0,0,0,0,0,0,0,0,-1,902,1184,0,0
-315,-160,0,0,0,0,0,0,0,0,0,-1,909,1184,0,0
-308,-160,0,0,0,0,0,0,0,0,0,-1,916,1184,0,0
-301,-160,0,0,0,0,0,0,0,0,0,-1,923,1184,0,0
-294,-160,0,0,0,0,0,0,0,0,0,-1,930,1184,0,0
-287,-160,0,0,0,0,0,0,0,0,0,-1,937,1184,0,0
-280,-160,0,0,0,0,0,0,0,0,0,-1,944,1184,0,0
-273,-160,0,0,0,0,0,0,0,0,0,-1,951,1184,0,0
-266,-160,0,0,0,0,0,0,0,0,0,-1,958,1184,0,0
-259,-160,0,0,0,0,0,0,0,0,0,-1,965,1184,0,0
-252,-160,0,0,0,0,0,0,0,0,0,-1,972,1184,0,0
-245,-160,0,0,0,0,0,0,0,0,0,-1,979,1184,0,0
-238,-160,0,0,0,0,0,0,0,0,0,-1,986,1184,0,0
-231,-160,0,0,0,0,0,0,0,0,0,-1,993,1184,0,0
-224,-160,0,0,0,0,0,0,0,0,0,-1,1000,1184,0,0
-217,-160,0,0,0,0,0,0,0,0,0,-1,1007,1184,0,0
-210,-160,0,0,0,0,0,0,0,0,0,-1,1014,1184,0,0
-203,-160,0,0,0,0,0,0,0,0,0,-1,1021,1184,0,0
-196,-160,0,0,0,0,0,0,0,0,0,-1,1028,1184,0,0
-189,-160,0,0,0,0,0,0,0,0,0,-1,1035,1184,0,0
-182,-160,0,0,0,0,0,0,0,0,0,-1,1042,1184,0,0
-175,-160,0,0,0,0,0,0,0,0,0,-1,1049,1184,0,0
-168,-160,0,0,0,0,0,0,0,0,0,-1,1056,1184,0,0
-161,-160,0,0,0,0,0,0,0,0,0,-1,1063,1184,0,0
-154,-160,0,0,0,0,0,0,0,0,0,-1,1070,1184,0,0
-147,-160,0,0,0,0,0,0,0,0,0,-1,1077,1184,0,0
-140,-160,0,0,0,0,0,0,0,0,0,-1,1084,1184,0,0
-133,-160,0,0,0,0,0,0,0,0,0,-1,1091,1184,0,0
-126,-160,0,0,0,0,0,0,0,0,0,-1,1098,1184,0,0
-119,-160,0,0,0,0,0,0,0,0,0,-1,1105,1184,0,0
-112,-160,0,0,0,0,0,0,0,0,0,-1,1112,1184,0,0
-105,-160,0,0,0,0,0,0,0,0,0,-1,1119,1184,0,0
-98,-160,0,0,0,0,0,0,0,0,0,-1,1126,1184,0,0
-91,-160,0,0,0,0,0,0,0,0,0,-1,1133,1184,0,0
-84,-160,0,0,0,0,0,0,0,0,0,-1,1140,1184,0,0
-77,-160,0,0,0,0,0,0,0,0,0,-1,1147,1184,0,0
-70,-160,0,0,0,0,0,0,0,0,0,-1,1154,1184,0,0
-63,-160,0,0,0,0,0,0,0,0,0,-1,1161,1184,0,0
-56,-160,0,0,0,0,0,0,0,0,0,-1,1168,1184,0,0
-49,-160,0,0,0,0,0,0,0,0,0,-1,1175,1184,0,0
-42,-160,0,0,0,0,0,0,0,0,0,-1,1182,1184,0,0
-35,-160,0,0,0,0,0,0,0,0,0,-1,1189,1184,0,0
-28,-160,0,0,0,0,0,0,0,0,0,-1,1196,1184,0,0
-21,-160,0,0,0,0,0,0,0,0,0,-1,1203,1184,0,0
-14,-160,0,0,0,0,0,0,0,0,0,-1,1210,1184,0,0
-7,-160,0,0,0,0,0,0,0,0,0,-1,1217,1184,0,0
0,-160,0,0,0,0,0,0,0,0,0,-1,1224,1184,0,0
7,-160,0,0,0,0,0,0,0,0,0,-1,1231,1184,0,0
14,-160,0,0,0,0,0,0,0,0,0,-1,1238,1184,0,0
21,-160,0,0,0,0,0,0,0,0,0,-1,1245,1184,0,0
28,-160,0,0,0,0,0,0,0,0,0,-1,1252,1184,0,0
35,-160,0,0,0,0,0,0,0,0,0,-1,1259,1184,0,0
42,-160,0,0,0,0,0,0,0,0,0,-1,1266,1184,0,0
49,-160,0,0,0,0,0,0,0,0,0,-1,1273,1184,0,0
56,-160,0,0,0,0,0,0,0,0,0,-1,1280,1184,0,0
63,-160,0,0,0,0,0,0,0,0,0,-1,1287,1184,0,0
70,-160,0,0,0,0,0,0,0,0,0,-1,1294,1184,0,0
77,-160,0,0,0,0,0,0,0,0,0,-1,1301,1184,0,0
84,-160,0,0,0,0,0,0,0,0,0,-1,1308,1184,0,0
91,-160,0,0,0,0,0,0,0,0,0,-1,1315,1184,0,0
98,-160,0,0,0,0,0,0,0,0,0,-1,1322,1184,0,0
105,-160,0,0,0,0,0,0,0,0,0,-1,1329,1184,0,0
112,-160,0,0,0,0,0,0,0,0,0,-1,1336,1184,0,0
119,-160,0,0,0,0,0,0,0,0,0,-1,1343,1184,0,0
126,-160,0,0,0,0,0,0,0,0,0,-1,1350,1184,0,0
133,-160,0,0,0,0,0,0,0,0,0,-1,1357,1184,0,0
140,-160,0,0,0,0,0,0,0,0,0,-1,1364,1184,0,0
147,-160,0,0,0,0,0,0,0,0,0,-1,1371,1184,0,0
154,-160,0,0,0,0,0,0,0,0,0,-1,1378,1184,0,0
161,-160,0,0,0,0,0,0,0,0,0,-1,1385,1184,0,0
168,-160,0,0,0,0,0,0,0,0,0,-1,1392,1184,0,0
175,-160,0,0,0,0,0,0,0,0,0,-1,1399,1184,0,0
182,-160,0,0,0,0,0,0,0,0,0,-1,1406,1184,0,0
189,-160,0,0,0,0,0,0,0,0,0,-1,1413,1184,0,0
196,-160,0,0,0,0,0,0,0,0,0,-1,1420,1184,0,0
203,-160,0,0,0,0,0,0,0,0,0,-1,1427,1184,0,0
210,-160,0,0,0,0,0,0,0,0,0,-1,1434,1184,0,0
217,-160,0,0,0,0,0,0,0,0,0,-1,1441,1184,0,0
224,-160,0,0,0,0,0,0,0,0,0,-1,1448,1184,0,0
231,-160,0,0,0,0,0,0,0,0,0,-1,1455,1184,0,0
238,-160,0,0,0,0,0,0,0,0,0,-1,1462,1184,0,0
245,-160,0,0,0,0,0,0,0,0,0,-1,1469,1184,0,0
252,-160,0,0,0,0,0,0,0,0,0,-1,1476,1184,0,0
259,-160,0,0,0,0,0,0,0,0,0,-1,1483,1184,0,0
266,-160,0,0,0,0,0,0,0,0,0,-1,1490,1184,0,0
273,-160,0,0,0,0,0,0,0,0,0,-1,1497,1184,0,0
280,-160,0,0,0,0,0,0,0,0,0,-1,1504,1184,0,0
287,-160,0,0,0,0,0,0,0,0,0,-1,1511,1184,0,0
294,-160,0,0,0,0,0,0,0,0,0,-1,1518,1184,0,0
301,-160,0,0,0,0,0,0,0,0,0,-1,1525,1184,0,0
308,-160,0,0,0,0,0,0,0,0,0,-1,1532,1184,0,0
315,-160,0,0,0,0,0,0,0,0,0,-1,1539,1184,0,0
322,-160,0,0,0,0,0,0,0,0,0,-1,1546,1184,0,0
329,-160,0,0,0,0,0,0,0,0,0,-1,1553,1184,0,0
336,-160,0,0,0,0,0,0,0,0,0,-1,1560,1184,0,0
343,-160,0,0,0,0,0,0,0,0,0,-1,1567,1184,0,0
350,-160,0,0,0,0,0,0,0,0,0,-1,1574,1184,0,0
357,-160,0,0,0,0,0,0,0,0,0,-1,1581,1184,0,0
364,-160,0,0,0,0,0,0,0,0,0,-1,1588,1184,0,0
371,-160,0,0,0,0,0,0,0,0,0,-1,1595,1184,0,0
378,-160,0,0,0,0,0,0,0,0,0,-1,1602,1184,0,0
385,-160,0,0,0,0,0,0,0,0,0,-1,1609,1184,0,0
392,-160,0,0,0,0,0,0,0,0,0,-1,1616,1184,0,0
399,-160,0,0,0,0,0,0,0,0,0,-1,1623,1184,0,0
406,-160,0,0,0,0,0,0,0,0,0,-1,1630,1184,0,0
413,-160,0,0,0,0,0,0,0,0,0,-1,1637,1184,0,0
420,-160,0,0,0,0,0,0,0,0,0,-1,1644,1184,0,0
427,-160,0,0,0,0,0,0,0,0,0,-1,1651,1184,0,0
434,-160,0,0,0,0,0,0,0,0,0,-1,1658,1184,0,0
441,-160,0,0,0,0,0,0,0,0,0,-1,1665,1184,0,0
448,-160,0,0,0,0,0,0,0,0,0,-1,1672,1184,0,0
455,-160,0,0,0,0,0,0,0,0,0,-1,1679,1184,0,0
462,-160,0,0,0,0,0,0,0,0,0,-1,1686,1184,0,0
469,-160,0,0,0,0,0,0,0,0,0,-1,1693,1184,0,0
476,-160,0,0,0,0,0,0,0,0,0,-1,1700,1184,0,0
483,-160,0,0,0,0,0,0,0,0,0,-1,1707,1184,0,0
490,-160,0,0,0,0,0,0,0,0,0,-1,1714,1184,0,0
497,-160,0,0,0,0,0,0,0,0,0,-1,1721,1184,0,0
504,-160,0,0,0,0,0,0,0,0,0,-1,1728,1184,0,0
511,-160,0,0,0,0,0,0,0,0,0,-1,1735,1184,0,0
518,-160,0,0,0,0,0,0,0,0,0,-1,1742,1184,0,0
525,-160,0,0,0,0,0,0,0,0,0,-1,1749,1184,0,0
532,-160,0,0,0,0,0,0,0,0,0,-1,1756,1184,0,0
539,-160,0,0,0,0,0,0,0,0,0,-1,1763,1184,0,0
546,-160,0,0,0,0,0,0,0,0,0,-1,1770,1184,0,0
553,-160,0,0,0,0,0,0,0,0,0,-1,1777,1184,0,0
560,-160,0,0,0,0,0,0,0,0,0,-1,1784,1184,0,0
567,-160,0,0,0,0,0,0,0,0,0,-1,1791,1184,0,0
574,-160,0,0,0,0,0,0,0,0,0,-1,1798,1184,0,0
581,-160,0,0,0,0,0,0,0,0,0,-1,1805,1184,0,0
588,-160,0,0,0,0,0,0,0,0,0,-1,1812,1184,0,0
595,-160,0,0,0,0,0,0,0,0,0,-1,1819,1184,0,0
602,-160,0,0,0,0,0,0,0,0,0,-1,1826,1184,0,0
609,-160,0,0,0,0,0,0,0,0,0,-1,1833,1184,0,0
616,-160,0,0,0,0,0,0,0,0,0,-1,1840,1184,0,0
623,-160,0,0,0,0,0,0,0,0,0,-1,1847,1184,0,0
630,-160,0,0,0,0,0,0,0,0,0,-1,1854,1184,0,0
637,-160,39.3264,3.08606,0.000223572,-0.00701427,0.00363091,0.00173106,-0.00852177,0.393526,0.0063375,0.0417974,1861,1184,39.3264,-3.086
644,-160,39.4338,3.02014,0.00029498,-0.00563299,0.00261431,0.00128319,-0.0066212,0.361397,0.00489821,0.0403628,1868,1184,39.4339,-3.0201
651,-160,39.4752,2.52124,0.000487299,-0.00422194,0.00182553,0.00111207,-0.00484671,0.329747,0.00365861,0.0355679,1875,1184,39.4752,-2.52126
658,-160,39.3475,2.474,0.000927396,-0.00300373,0.001175,0.00125183,-0.00332816,0.269398,0.00273333,0.0364358,1882,1184,39.3475,-2.47402
665,-160,39.3768,2.56885,0.00136057,-0.00212331,0.000888272,0.00157397,-0.00233671,0.235781,0.00227211,0.0378283,1889,1184,39.3768,-2.5688
672,-160,39.3784,2.57837,0.00137105,-0.00174364,0.0010067,0.0016681,-0.00204069,0.286929,0.00214486,0.036895,1896,1184,39.3784,-2.57831
679,-160,39.3793,2.51892,0.000409951,-0.00148928,0.0014438,0.00118843,-0.00226776,0.494506,0.00202761,0.0285683,1903,1184,39.3793,-2.51891
686,-160,39.4664,2.55115,-0.000419349,-0.00145978,0.00173486,0.000871614,-0.00275075,0.639734,0.00218316,0.0185312,1910,1184,39.4664,-2.55117
693,-160,39.5417,2.45313,0,0,0,0,0,0,0,-1,1917,1184,39.5418,-2.45309
700,-160,38.972,2.45984,0,0,0,0,0,0,0,-1,1924,1184,38.972,-2.45989
707,-160,24.5115,6.27405,0,0,0,0,0,0,0,-1,1931,1184,24.5115,-6.27401
714,-160,32.0953,6.09717,0,0,0,0,0,0,0,-1,1938,1184,32.0954,-6.09719
721,-160,34.2949,5.88342,0,0,0,0,0,0,0,-1,1945,1184,34.295,-5.88342
728,-160,34.5249,6.11011,0,0,0,0,0,0,0,-1,1952,1184,34.5249,-6.11011
735,-160,34.5775,5.80835,-0.00289405,-0.000519886,0.00292303,0.00144792,-0.00486185,0.978281,0.00381655,0.0213053,1959,1184,34.5776,-5.80838
742,-160,34.5175,5.53076,-0.00196971,-0.000470175,0.0028848,0.0017607,-0.00420059,0.912536,0.00353654,0.0157711,1966,1184,34.5174,-5.53077
749,-160,34.4999,5.23792,0.000445524,-0.000157162,0.00276227,0.00292284,-0.00263448,0.731067,0.00320996,0.0169349,1973,1184,34.4999,-5.23787
756,-160,34.4994,4.91431,0.00446379,0.000528092,0.00234971,0.00556083,-0.00056895,0.436806,0.00391069,0.0110511,1980,1184,34.4994,-4.91429
763,-160,34.4423,4.60559,0.00966064,0.00112982,0.00197768,0.0100968,0.000693639,0.217075,0.00651232,0.0116676,1987,1184,34.4423,-4.60561
770,-160,34.3584,4.28674,0.0159894,0.00196815,0.00147533,0.0161429,0.0018146,0.103708,0.010211,0.0216471,1994,1184,34.3584,-4.28679
777,-160,34.5022,4.11511,0.0237567,0.00321068,0.000729728,0.0237826,0.0031848,0.0354571,0.0149073,0.0333387,2001,1184,34.5022,-4.11508
784,-160,34.5974,4.37927,0.0330732,0.00527527,-0.000448705,0.0330804,0.00526803,-0.0161361,0.0205242,0.0404402,2008,1184,34.5975,-4.3793
791,-160,34.8032,4.33435,0.0448345,0.00839827,-0.00243739,0.0449969,0.00823595,-0.0664997,0.0276643,0.0440423,2015,1184,34.8032,-4.3344
798,-160,35.3582,4.24878,0.0595916,0.0131563,-0.00587183,0.0603226,0.0124253,-0.123855,0.0367797,0.0453081,2022,1184,35.3583,-4.24878
805,-160,35.8467,4.1239,0,0,0,0,0,0,0,-1,2029,1184,35.8466,-4.12386
812,-160,0,0,0,0,0,0,0,0,0,-1,2036,1184,0,0
-700,-167,0,0,0,0,0,0,0,0,0,-1,524,1191,0,0
-693,-167,0,0,0,0,0,0,0,0,0,-1,531,1191,0,0
-686,-167,-19.1877,2.28162,-0.0533616,-0.0140119,-0.104766,0.0729106,-0.140284,-0.878216,0.12512,0.0471474,538,1191,-19.1877,-2.28161
-679,-167,-20.0309,1.70764,-0.0378426,-0.0105581,-0.0859345,0.0628103,-0.111211,-0.864117,0.101758,0.0433998,545,1191,-20.0309,-1.70762
-672,-167,-21.5898,-0.828247,0,0,0,0,0,0,0,-1,552,1191,-21.5898,0.828212
-665,-167,-21.6856,-0.685791,0,0,0,0,0,0,0,-1,559,1191,-21.6856,0.685816
-658,-167,-24.4548,0.693359,0,0,0,0,0,0,0,-1,566,1191,-24.4548,-0.693305
-651,-167,-24.176,0.399902,0,0,0,0,0,0,0,-1,573,1191,-24.176,-0.399864
-644,-167,-23.0677,1.27332,-0.00182325,-0.00064932,-0.0210159,0.0197878,-0.0222604,-0.799359,0.0242906,0.0406873,580,1191,-23.0677,-1.27335
-637,-167,-23.0341,1.5968,-0.000465468,-4.69299e-05,-0.0142303,0.0139756,-0.014488,-0.792751,0.0164344,0.0166081,587,1191,-23.0341,-1.59678
-630,-167,-23.0953,1.89893,0.000664302,0.000632741,-0.00832253,0.00897107,-0.00767403,-0.78445,0.00961977,0.00881405,594,1191,-23.0953,-1.89896
-623,-167,-23.1147,2.229,0.00010433,0.000748236,-0.0045018,0.00493958,-0.00408701,-0.821096,0.00521925,0.0111883,601,1191,-23.1147,-2.22896
-616,-167,-23.1195,2.58337,-0.00115198,0.000380194,-0.00243414,0.00216596,-0.00293774,-0.937854,0.00295783,0.0152041,608,1191,-23.1195,-2.58337
-609,-167,-23.1505,2.96021,-0.00199813,-3.5584e-06,-0.00139349,0.000712743,-0.00271443,-1.09598,0.00208815,0.0148759,615,1191,-23.1505,-2.96018
-602,-167,-23.1359,3.30701,-0.00232295,-0.00025641,-0.00110406,0.000222471,-0.00280183,-1.16154,0.00194629,0.0153398,622,1191,-23.1359,-3.30699
-595,-167,-23.0611,3.68225,-0.00264306,-0.000445962,-0.00141762,0.000248938,-0.00333796,-1.11503,0.00231276,0.0320068,629,1191,-23.0611,-3.68229
-588,-167,-23.2572,3.91626,-0.00250311,-0.000764474,-0.00181467,0.000378359,-0.00364594,-1.00877,0.00256606,0.0339513,636,1191,-23.2572,-3.91622
-581,-167,-23.3337,4.11694,0,0,0,0,0,0,0,-1,643,1191,-23.3337,-4.11697
-574,-167,-22.27,5,0,0,0,0,0,0,0,-1,650,1191,-22.27,-4.99996
-567,-167,-25.0102,-0.140869,0,0,0,0,0,0,0,-1,657,1191,-25.0102,0.140898
-560,-167,-28.6589,0.713013,0,0,0,0,0,0,0,-1,664,1191,-28.6589,-0.713002
-553,-167,-28.646,0.764893,-0.00169651,-0.000986682,-0.0015985,0.000295829,-0.00297902,-0.894641,0.00209161,0.0406804,671,1191,-28.646,-0.764926
-546,-167,-28.6958,0.837891,-0.00134687,-0.00077154,-0.00131912,0.000290918,-0.00240933,-0.892754,0.00171145,0.0370627,678,1191,-28.6958,-0.837905
-539,-167,-28.7209,0.6073,-0.00104509,-0.000389288,-0.000570094,-5.95231e-05,-0.00137486,-1.04638,0.00089739,0.0392569,685,1191,-28.7209,-0.607336
-532,-167,-28.5956,0.636108,-0.00134995,0.000803983,0.00106834,0.00124399,-0.00178995,1.18011,0.00176108,0.0429645,692,1191,-28.5956,-0.636103
-525,-167,-28.6222,1.14319,-0.00178419,0.00263239,0.00374219,0.00476927,-0.00392107,1.05195,0.00502533,0.0452114,699,1191,-28.6222,-1.14318
-518,-167,-28.7291,1.13245,-0.00295067,0.00395921,0.00642577,0.00779997,-0.00679142,1.03206,0.00843105,0.0461888,706,1191,-28.7291,-1.1324
-511,-167,0,0,0,0,0,0,0,0,0,-1,713,1191,0,0
-504,-167,0,0,0,0,0,0,0,0,0,-1,720,1191,0,0
-497,-167,0,0,0,0,0,0,0,0,0,-1,727,1191,0,0
-490,-167,0,0,0,0,0,0,0,0,0,-1,734,1191,0,0
-483,-167,0,0,0,0,0,0,0,0,0,-1,741,1191,0,0
-476,-167,0,0,0,0,0,0,0,0,0,-1,748,1191,0,0
-469,-167,0,0,0,0,0,0,0,0,0,-1,755,1191,0,0
-462,-167,0,0,0,0,0,0,0,0,0,-1,762,1191,0,0
-455,-167,0,0,0,0,0,0,0,0,0,-1,769,1191,0,0
-448,-167,0,0,0,0,0,0,0,0,0,-1,776,1191,0,0
-441,-167,0,0,0,0,0,0,0,0,0,-1,783,1191,0,0
-434,-167,0,0,0,0,0,0,0,0,0,-1,790,1191,0,0
-427,-167,0,0,0,0,0,0,0,0,0,-1,797,1191,0,0
-420,-167,0,0,0,0,0,0,0,0,0,-1,804,1191,0,0
-413,-167,0,0,0,0,0,0,0,0,0,-1,811,1191,0,0
-406,-167,0,0,0,0,0,0,0,0,0,-1,818,1191,0,0
-399,-167,0,0,0,0,0,0,0,0,0,-1,825,1191,0,0
-392,-167,0,0,0,0,0,0,0,0,0,-1,832,1191,0,0
-385,-167,0,0,0,0,0,0,0,0,0,-1,839,1191,0,0
-378,-167,0,0,0,0,0,0,0,0,0,-1,846,1191,0,0
-371,-167,0,0,0,0,0,0,0,0,0,-1,853,1191,0,0
-364,-167,0,0,0,0,0,0,0,0,0,-1,860,1191,0,0
-357,-167,0,0,0,0,0,0,0,0,0,-1,867,1191,0,0
-350,-167,0,0,0,0,0,0,0,0,0,-1,874,1191,0,0
-343,-167,0,0,0,0,0,0,0,0,0,-1,881,1191,0,0
-336,-167,0,0,0,0,0,0,0,0,0,-1,888,1191,0,0
-329,-167,0,0,0,0,0,0,0,0,0,-1,895,1191,0,0
-322,-167,0,0,0,0,0,0,0,0,0,-1,902,1191,0,0
-315,-167,0,0,0,0,0,0,0,0,0,-1,909,1191,0,0
-308,-167,0,0,0,0,0,0,0,0,0,-1,916,1191,0,0
-301,-167,0,0,0,0,0,0,0,0,0,-1,923,1191,0,0
-294,-167,0,0,0,0,0,0,0,0,0,-1,930,1191,0,0
-287,-167,0,0,0,0,0,0,0,0,0,-1,937,1191,0,0
-280,-167,0,0,0,0,0,0,0,0,0,-1,944,1191,0,0
-273,-167,0,0,0,0,0,0,0,0,0,-1,951,1191,0,0
-266,-167,0,0,0,0,0,0,0,0,0,-1,958,1191,0,0
-259,-167,0,0,0,0,0,0,0,0,0,-1,965,1191,0,0
-252,-167,0,0,0,0,0,0,0,0,0,-1,972,1191,0,0
-245,-167,0,0,0,0,0,0,0,0,0,-1,979,1191,0,0
-238,-167,0,0,0,0,0,0,0,0,0,-1,986,1191,0,0
-231,-167,0,0,0,0,0,0,0,0,0,-1,993,1191,0,0
-224,-167,0,0,0,0,0,0,0,0,0,-1,1000,1191,0,0
-217,-167,0,0,0,0,0,0,0,0,0,-1,1007,1191,0,0
-210,-167,0,0,0,0,0,0,0,0,0,-1,1014,1191,0,0
-203,-167,0,0,0,0,0,0,0,0,0,-1,1021,1191,0,0
-196,-167,0,0,0,0,0,0,0,0,0,-1,1028,1191,0,0
-189,-167,0,0,0,0,0,0,0,0,0,-1,1035,1191,0,0
-182,-167,0,0,0,0,0,0,0,0,0,-1,1042,1191,0,0
-175,-167,0,0,0,0,0,0,0,0,0,-1,1049,1191,0,0
-168,-167,0,0,0,0,0,0,0,0,0,-1,1056,1191,0,0
-161,-167,0,0,0,0,0,0,0,0,0,-1,1063,1191,0,0
-154,-167,0,0,0,0,0,0,0,0,0,-1,1070,1191,0,0
-147,-167,0,0,0,0,0,0,0,0,0,-1,1077,1191,0,0
-140,-167,0,0,0,0,0,0,0,0,0,-1,1084,1191,0,0
-133,-167,0,0,0,0,0,0,0,0,0,-1,1091,1191,0,0
-126,-167,0,0,0,0,0,0,0,0,0,-1,1098,1191,0,0
-119,-167,0,0,0,0,0,0,0,0,0,-1,1105,1191,0,0
-112,-167,0,0,0,0,0,0,0,0,0,-1,1112,1191,0,0
-105,-167,0,0,0,0,0,0,0,0,0,-1,1119,1191,0,0
-98,-167,0,0,0,0,0,0,0,0,0,-1,1126,1191,0,0
-91,-167,0,0,0,0,0,0,0,0,0,-1,1133,1191,0,0
-84,-167,0,0,0,0,0,0,0,0,0,-1,1140,1191,0,0
-77,-167,0,0,0,0,0,0,0,0,0,-1,1147,1191,0,0
-70,-167,0,0,0,0,0,0,0,0,0,-1,1154,1191,0,0
-63,-167,0,0,0,0,0,0,0,0,0,-1,1161,1191,0,0
-56,-167,0,0,0,0,0,0,0,0,0,-1,1168,1191,0,0
-49,-167,0,0,0,0,0,0,0,0,0,-1,1175,1191,0,0
-42,-167,0,0,0,0,0,0,0,0,0,-1,1182,1191,0,0
-35,-167,0,0,0,0,0,0,0,0,0,-1,1189,1191,0,0
-28,-167,0,0,0,0,0,0,0,0,0,-1,1196,1191,0,0
-21,-167,0,0,0,0,0,0,0,0,0,-1,1203,1191,0,0
-14,-167,0,0,0,0,0,0,0,0,0,-1,1210,1191,0,0
-7,-167,0,0,0,0,0,0,0,0,0,-1,1217,1191,0,0
0,-167,0,0,0,0,0,0,0,0,0,-1,1224,1191,0,0
7,-167,0,0,0,0,0,0,0,0,0,-1,1231,1191,0,0
14,-167,0,0,0,0,0,0,0,0,0,-1,1238,1191,0,0
21,-167,0,0,0,0,0,0,0,0,0,-1,1245,1191,0,0
28,-167,0,0,0,0,0,0,0,0,0,-1,1252,1191,0,0
35,-167,0,0,0,0,0,0,0,0,0,-1,1259,1191,0,0
42,-167,0,0,0,0,0,0,0,0,0,-1,1266,1191,0,0
49,-167,0,0,0,0,0,0,0,0,0,-1,1273,1191,0,0
56,-167,0,0,0,0,0,0,0,0,0,-1,1280,1191,0,0
63,-167,0,0,0,0,0,0,0,0,0,-1,1287,1191,0,0
70,-167,0,0,0,0,0,0,0,0,0,-1,1294,1191,0,0
77,-167,0,0,0,0,0,0,0,0,0,-1,1301,1191,0,0
84,-167,0,0,0,0,0,0,0,0,0,-1,1308,1191,0,0
91,-167,0,0,0,0,0,0,0,0,0,-1,1315,1191,0,0
98,-167,0,0,0,0,0,0,0,0,0,-1,1322,1191,0,0
105,-167,0,0,0,0,0,0,0,0,0,-1,1329,1191,0,0
112,-167,0,0,0,0,0,0,0,0,0,-1,1336,1191,0,0
119,-167,0,0,0,0,0,0,0,0,0,-1,1343,1191,0,0
126,-167,0,0,0,0,0,0,0,0,0,-1,1350,1191,0,0
133,-167,0,0,0,0,0,0,0,0,0,-1,1357,1191,0,0
140,-167,0,0,0,0,0,0,0,0,0,-1,1364,1191,0,0
147,-167,0,0,0,0,0,0,0,0,0,-1,1371,1191,0,0
154,-167,0,0,0,0,0,0,0,0,0,-1,1378,1191,0,0
161,-167,0,0,0,0,0,0,0,0,0,-1,1385,1191,0,0
168,-167,0,0,0,0,0,0,0,0,0,-1,1392,1191,0,0
175,-167,0,0,0,0,0,0,0,0,0,-1,1399,1191,0,0
182,-167,0,0,0,0,0,0,0,0,0,-1,1406,1191,0,0
189,-167,0,0,0,0,0,0,0,0,0,-1,1413,1191,0,0
196,-167,0,0,0,0,0,0,0,0,0,-1,1420,1191,0,0
203,-167,0,0,0,0,0,0,0,0,0,-1,1427,1191,0,0
210,-167,0,0,0,0,0,0,0,0,0,-1,1434,1191,0,0
217,-167,0,0,0,0,0,0,0,0,0,-1,1441,1191,0,0
224,-167,0,0,0,0,0,0,0,0,0,-1,1448,1191,0,0
231,-167,0,0,0,0,0,0,0,0,0,-1,1455,1191,0,0
238,-167,0,0,0,0,0,0,0,0,0,-1,1462,1191,0,0
245,-167,0,0,0,0,0,0,0,0,0,-1,1469,1191,0,0
252,-167,0,0,0,0,0,0,0,0,0,-1,1476,1191,0,0
259,-167,0,0,0,0,0,0,0,0,0,-1,1483,1191,0,0
266,-167,0,0,0,0,0,0,0,0,0,-1,1490,1191,0,0
273,-167,0,0,0,0,0,0,0,0,0,-1,1497,1191,0,0
280,-167,0,0,0,0,0,0,0,0,0,-1,1504,1191,0,0
287,-167,0,0,0,0,0,0,0,0,0,-1,1511,1191,0,0
294,-167,0,0,0,0,0,0,0,0,0,-1,1518,1191,0,0
301,-167,0,0,0,0,0,0,0,0,0,-1,1525,1191,0,0
308,-167,0,0,0,0,0,0,0,0,0,-1,1532,1191,0,0
315,-167,0,0,0,0,0,0,0,0,0,-1,1539,1191,0,0
322,-167,0,0,0,0,0,0,0,0,0,-1,1546,1191,0,0
329,-167,0,0,0,0,0,0,0,0,0,-1,1553,1191,0,0
336,-167,0,0,0,0,0,0,0,0,0,-1,1560,1191,0,0
343,-167,0,0,0,0,0,0,0,0,0,-1,1567,1191,0,0
350,-167,0,0,0,0,0,0,0,0,0,-1,1574,1191,0,0
357,-167,0,0,0,0,0,0,0,0,0,-1,1581,1191,0,0
364,-167,0,0,0,0,0,0,0,0,0,-1,1588,1191,0,0
371,-167,0,0,0,0,0,0,0,0,0,-1,1595,1191,0,0
378,-167,0,0,0,0,0,0,0,0,0,-1,1602,1191,0,0
385,-167,0,0,0,0,0,0,0,0,0,-1,1609,1191,0,0
392,-167,0,0,0,0,0,0,0,0,0,-1,1616,1191,0,0
399,-167,0,0,0,0,0,0,0,0,0,-1,1623,1191,0,0
406,-167,0,0,0,0,0,0,0,0,0,-1,1630,1191,0,0
413,-167,0,0,0,0,0,0,0,0,0,-1,1637,1191,0,0
420,-167,0,0,0,0,0,0,0,0,0,-1,1644,1191,0,0
427,-167,0,0,0,0,0,0,0,0,0,-1,1651,1191,0,0
434,-167,0,0,0,0,0,0,0,0,0,-1,1658,1191,0,0
441,-167,0,0,0,0,0,0,0,0,0,-1,1665,1191,0,0
448,-167,0,0,0,0,0,0,0,0,0,-1,1672,1191,0,0
455,-167,0,0,0,0,0,0,0,0,0,-1,1679,1191,0,0
462,-167,0,0,0,0,0,0,0,0,0,-1,1686,1191,0,0
469,-167,0,0,0,0,0,0,0,0,0,-1,1693,1191,0,0
476,-167,0,0,0,0,0,0,0,0,0,-1,1700,1191,0,0
483,-167,0,0,0,0,0,0,0,0,0,-1,1707,1191,0,0
490,-167,0,0,0,0,0,0,0,0,0,-1,1714,1191,0,0
497,-167,0,0,0,0,0,0,0,0,0,-1,1721,1191,0,0
504,-167,0,0,0,0,0,0,0,0,0,-1,1728,1191,0,0
511,-167,0,0,0,0,0,0,0,0,0,-1,1735,1191,0,0
518,-167,0,0,0,0,0,0,0,0,0,-1,1742,1191,0,0
525,-167,0,0,0,0,0,0,0,0,0,-1,1749,1191,0,0
532,-167,0,0,0,0,0,0,0,0,0,-1,1756,1191,0,0
539,-167,0,0,0,0,0,0,0,0,0,-1,1763,1191,0,0
546,-167,0,0,0,0,0,0,0,0,0,-1,1770,1191,0,0
553,-167,0,0,0,0,0,0,0,0,0,-1,1777,1191,0,0
560,-167,0,0,0,0,0,0,0,0,0,-1,1784,1191,0,0
567,-167,0,0,0,0,0,0,0,0,0,-1,1791,1191,0,0
574,-167,0,0,0,0,0,0,0,0,0,-1,1798,1191,0,0
581,-167,0,0,0,0,0,0,0,0,0,-1,1805,1191,0,0
588,-167,0,0,0,0,0,0,0,0,0,-1,1812,1191,0,0
595,-167,0,0,0,0,0,0,0,0,0,-1,1819,1191,0,0
602,-167,0,0,0,0,0,0,0,0,0,-1,1826,1191,0,0
609,-167,0,0,0,0,0,0,0,0,0,-1,1833,1191,0,0
616,-167,0,0,0,0,0,0,0,0,0,-1,1840,1191,0,0
623,-167,0,0,0,0,0,0,0,0,0,-1,1847,1191,0,0
630,-167,0,0,0,0,0,0,0,0,0,-1,1854,1191,0,0
637,-167,39.451,3.05188,0,0,0,0,0,0,0,-1,1861,1191,39.451,-3.05183
644,-167,39.4003,3.35791,0,0,0,0,0,0,0,-1,1868,1191,39.4003,-3.35789
651,-167,39.4186,2.56323,0.000137971,-0.00416468,0.00148635,0.000601497,-0.00462821,0.302296,0.00330427,0.0404023,1875,1191,39.4186,-2.56318
658,-167,39.3542,2.63586,0.000765071,-0.00303611,0.000780839,0.000919221,-0.00319026,0.194908,0.00249045,0.0432291,1882,1191,39.3542,-2.63591
665,-167,39.4524,2.66101,0.0012941,-0.0023027,0.000533512,0.00137157,-0.00238017,0.144194,0.002192,0.038131,1889,1191,39.4524,-2.66098
672,-167,39.4264,2.59705,0.00131928,-0.00202182,0.00073197,0.00147261,-0.00217515,0.206482,0.00211901,0.0278328,1896,1191,39.4264,-2.59706
679,-167,39.4049,2.55042,0.000383475,-0.00181911,0.00122175,0.00092703,-0.00236266,0.418603,0.00195866,0.0230615,1903,1191,39.4049,-2.55044
686,-167,39.4434,2.53564,-0.000416757,-0.00177246,0.00150759,0.000558362,-0.00274758,0.574127,0.00204343,0.0335059,1910,1191,39.4433,-2.53566
693,-167,39.4777,2.52441,0,0,0,0,0,0,0,-1,1917,1191,39.4777,-2.52439
700,-167,28.0459,2.70508,0,0,0,0,0,0,0,-1,1924,1191,28.0459,-2.70513
707,-167,29.4708,7.10168,0,0,0,0,0,0,0,-1,1931,1191,29.4708,-7.10172
714,-167,34.053,6.41882,0,0,0,0,0,0,0,-1,1938,1191,34.053,-6.41879
721,-167,34.4806,6.01697,0,0,0,0,0,0,0,-1,1945,1191,34.4806,-6.01691
728,-167,34.5188,6.01355,-0.00279199,-0.000748184,0.00292004,0.0013236,-0.00486377,0.953718,0.00376215,0.0382042,1952,1191,34.5188,-6.01358
735,-167,34.2181,5.87732,-0.00281059,-0.000582146,0.00295744,0.001464,-0.00485674,0.965551,0.0038205,0.0166752,1959,1191,34.2182,-5.87727
742,-167,34.1921,5.53259,-0.00160623,-0.000527398,0.00293104,0.00191345,-0.00404708,0.876398,0.00351404,0.0158393,1966,1191,34.1921,-5.53255
749,-167,34.1798,5.21106,0.00129039,-0.000241657,0.00280287,0.00343003,-0.00238129,0.652006,0.00337333,0.013934,1973,1191,34.1798,-5.21105
756,-167,34.1813,4.91626,0.0057203,0.000314058,0.00245068,0.00666584,-0.000631481,0.368229,0.00466864,0.010509,1980,1191,34.1813,-4.91631
763,-167,34.1152,4.58813,0.0113083,0.000736341,0.00215658,0.0117313,0.000313341,0.193685,0.00771851,0.0126331,1987,1191,34.1152,-4.58816
770,-167,33.9764,4.36499,0.0181482,0.00130973,0.00177029,0.0183323,0.00112563,0.103624,0.0118641,0.0276631,1994,1191,33.9764,-4.36499
777,-167,34.3895,4.29553,0.0265236,0.00218523,0.00118449,0.0265811,0.00212772,0.0485149,0.0170558,0.0419339,2001,1191,34.3895,-4.29548
784,-167,34.8367,4.20264,0,0,0,0,0,0,0,-1,2008,1191,34.8366,-4.20262
791,-167,34.4385,4.54236,0.0493349,0.00626328,-0.00155731,0.0493911,0.00620705,-0.0360935,0.0310658,0.0454855,2015,1191,34.4386,-4.54231
798,-167,35.3484,4.20752,0.0655624,0.0101818,-0.00480691,0.0659765,0.00976766,-0.0859413,0.041117,0.0451825,2022,1191,35.3485,-4.20748
805,-167,35.3867,4.03357,0,0,0,0,0,0,0,-1,2029,1191,35.3867,-4.03357
812,-167,0,0,0,0,0,0,0,0,0,-1,2036,1191,0,0
-700,-174,0,0,0,0,0,0,0,0,0,-1,524,1198,0,0
-693,-174,0,0,0,0,0,0,0,0,0,-1,531,1198,0,0
-686,-174,-18.288,2.73059,0,0,0,0,0,0,0,-1,538,1198,-18.288,-2.7306
-679,-174,-19.2382,2.12158,0,0,0,0,0,0,0,-1,545,1198,-19.2382,-2.12161
-672,-174,-18.5914,1.43372,0,0,0,0,0,0,0,-1,552,1198,-18.5914,-1.43366
-665,-174,-23.923,0.689697,0,0,0,0,0,0,0,-1,559,1198,-23.923,-0.689675
-658,-174,-23.7588,0.721924,-0.00426203,-0.00383791,-0.041704,0.0376545,-0.0457545,-0.787941,0.0482319,0.0465455,566,1198,-23.7588,-0.721978
-651,-174,-23.5016,0.598511,-0.000776658,-0.00217804,-0.0305289,0.0290596,-0.0320143,-0.773924,0.0352748,0.0461604,573,1198,-23.5016,-0.598461
-644,-174,-22.6683,1.02515,0,0,0,0,0,0,0,-1,580,1198,-22.6683,-1.02515
-637,-174,-22.6159,1.54333,0.00145171,-0.000249291,-0.0146331,0.015259,-0.0140566,-0.75637,0.0169301,0.0236709,587,1198,-22.6159,-1.54334
-630,-174,-22.691,1.89551,0.00196591,0.000518216,-0.00869431,0.00996645,-0.00748233,-0.743866,0.010108,0.0127922,594,1198,-22.691,-1.89548
-623,-174,-22.7133,2.24854,0.000929171,0.000679017,-0.00481853,0.00562425,-0.00401606,-0.772422,0.00559159,0.0134675,601,1198,-22.7133,-2.24859
-616,-174,-22.7426,2.62561,-0.000599163,0.000374112,-0.002685,0.00261622,-0.00284127,-0.875047,0.00315177,0.0183423,608,1198,-22.7426,-2.62559
-609,-174,-22.8047,2.96533,-0.00170408,-1.36716e-05,-0.00155126,0.000907698,-0.00262545,-1.03484,0.0021187,0.0199169,615,1198,-22.8048,-2.96529
-602,-174,-22.8089,3.29272,-0.00225924,-0.000267645,-0.00117312,0.000275333,-0.00280222,-1.13731,0.00196636,0.0137987,622,1198,-22.8089,-3.29268
-595,-174,-22.8234,3.69922,-0.00259697,-0.000549796,-0.00147065,0.000218416,-0.00336518,-1.08942,0.00231969,0.0246812,629,1198,-22.8234,-3.69921
-588,-174,-23.1225,3.91284,-0.00235248,-0.000967069,-0.00190787,0.000369954,-0.00368951,-0.959538,0.00259181,0.0271231,636,1198,-23.1225,-3.91287
-581,-174,-23.0295,4.35608,-0.00190598,-0.00121764,-0.00202123,0.000488517,-0.00361213,-0.869727,0.00258635,0.0333497,643,1198,-23.0295,-4.35609
-574,-174,-22.8716,4.90222,0,0,0,0,0,0,0,-1,650,1198,-22.8716,-4.90216
-567,-174,-22.5471,1.97351,0,0,0,0,0,0,0,-1,657,1198,-22.5471,-1.97355
-560,-174,-28.6711,0.740723,0,0,0,0,0,0,0,-1,664,1198,-28.6712,-0.740739
-553,-174,-28.6453,0.764648,-0.00162304,-0.00139072,-0.00166774,0.000164898,-0.00317865,-0.820167,0.00217615,0.0413312,671,1198,-28.6453,-0.764694
-546,-174,-28.6535,0.793213,-0.00135271,-0.00128704,-0.00140953,9.00422e-05,-0.00272979,-0.797045,0.00185061,0.0324865,678,1198,-28.6535,-0.793168
-539,-174,-28.6459,0.658447,-0.00108796,-0.001004,-0.000758729,-0.000286089,-0.00180587,-0.813035,0.00112079,0.0360899,685,1198,-28.6459,-0.658502
-532,-174,-28.3994,0.597046,-0.00139408,0.000104342,0.000640299,0.000340676,-0.00163042,1.21721,0.00121651,0.0422791,692,1198,-28.3994,-0.597078
-525,-174,-28.4373,0.838257,-0.00189112,0.00203823,0.00309431,0.0037389,-0.00359178,1.06825,0.00423265,0.0424155,699,1198,-28.4373,-0.838211
-518,-174,-28.6784,0.934204,-0.00305738,0.00383945,0.00589626,0.00722166,-0.00643959,1.05,0.00789163,0.0435053,706,1198,-28.6784,-0.934213
-511,-174,0,0,0,0,0,0,0,0,0,-1,713,1198,0,0
-504,-174,0,0,0,0,0,0,0,0,0,-1,720,1198,0,0
-497,-174,0,0,0,0,0,0,0,0,0,-1,727,1198,0,0
-490,-174,0,0,0,0,0,0,0,0,0,-1,734,1198,0,0
-483,-174,0,0,0,0,0,0,0,0,0,-1,741,1198,0,0
-476,-174,0,0,0,0,0,0,0,0,0,-1,748,1198,0,0
-469,-174,0,0,0,0,0,0,0,0,0,-1,755,1198,0,0
-462,-174,0,0,0,0,0,0,0,0,0,-1,762,1198,0,0
-455,-174,0,0,0,0,0,0,0,0,0,-1,769,1198,0,0
-448,-174,0,0,0,0,0,0,0,0,0,-1,776,1198,0,0
-441,-174,0,0,0,0,0,0,0,0,0,-1,783,1198,0,0
-434,-174,0,0,0,0,0,0,0,0,0,-1,790,1198,0,0
-427,-174,0,0,0,0,0,0,0,0,0,-1,797,1198,0,0
-420,-174,0,0,0,0,0,0,0,0,0,-1,804,1198,0,0
-413,-174,0,0,0,0,0,0,0,0,0,-1,811,1198,0,0
-406,-174,0,0,0,0,0,0,0,0,0,-1,818,1198,0,0
-399,-174,0,0,0,0,0,0,0,0,0,-1,825,1198,0,0
-392,-174,0,0,0,0,0,0,0,0,0,-1,832,1198,0,0
-385,-174,0,0,0,0,0,0,0,0,0,-1,839,1198,0,0
-378,-174,0,0,0,0,0,0,0,0,0,-1,846,1198,0,0
-371,-174,0,0,0,0,0,0,0,0,0,-1,853,1198,0,0
-364,-174,0,0,0,0,0,0,0,0,0,-1,860,1198,0,0
-357,-174,0,0,0,0,0,0,0,0,0,-1,867,1198,0,0
-350,-174,0,0,0,0,0,0,0,0,0,-1,874,1198,0,0
-343,-174,0,0,0,0,0,0,0,0,0,-1,881,1198,0,0
-336,-174,0,0,0,0,0,0,0,0,0,-1,888,1198,0,0
-329,-174,0,0,0,0,0,0,0,0,0,-1,895,1198,0,0
-322,-174,0,0,0,0,0,0,0,0,0,-1,902,1198,0,0
-315,-174,0,0,0,0,0,0,0,0,0,-1,909,1198,0,0
-308,-174,0,0,0,0,0,0,0,0,0,-1,916,1198,0,0
-301,-174,0,0,0,0,0,0,0,0,0,-1,923,1198,0,0
-294,-174,0,0,0,0,0,0,0,0,0,-1,930,1198,0,0
-287,-174,0,0,0,0,0,0,0,0,0,-1,937,1198,0,0
-280,-174,0,0,0,0,0,0,0,0,0,-1,944,1198,0,0
-273,-174,0,0,0,0,0,0,0,0,0,-1,951,1198,0,0
-266,-174,0,0,0,0,0,0,0,0,0,-1,958,1198,0,0
-259,-174,0,0,0,0,0,0,0,0,0,-1,965,1198,0,0
-252,-174,0,0,0,0,0,0,0,0,0,-1,972,1198,0,0
-245,-174,0,0,0,0,0,0,0,0,0,-1,979,1198,0,0
-238,-174,0,0,0,0,0,0,0,0,0,-1,986,1198,0,0
-231,-174,0,0,0,0,0,0,0,0,0,-1,993,1198,0,0
-224,-174,0,0,0,0,0,0,0,0,0,-1,1000,1198,0,0
-217,-174,0,0,0,0,0,0,0,0,0,-1,1007,1198,0,0
-210,-174,0,0,0,0,0,0,0,0,0,-1,1014,1198,0,0
-203,-174,0,0,0,0,0,0,0,0,0,-1,1021,1198,0,0
-196,-174,0,0,0,0,0,0,0,0,0,-1,1028,1198,0,0
-189,-174,0,0,0,0,0,0,0,0,0,-1,1035,1198,0,0
-182,-174,0,0,0,0,0,0,0,0,0,-1,1042,1198,0,0
-175,-174,0,0,0,0,0,0,0,0,0,-1,1049,1198,0,0
-168,-174,0,0,0,0,0,0,0,0,0,-1,1056,1198,0,0
-161,-174,0,0,0,0,0,0,0,0,0,-1,1063,1198,0,0
-154,-174,0,0,0,0,0,0,0,0,0,-1,1070,1198,0,0
-147,-174,0,0,0,0,0,0,0,0,0,-1,1077,1198,0,0
-140,-174,0,0,0,0,0,0,0,0,0,-1,1084,1198,0,0
-133,-174,0,0,0,0,0,0,0,0,0,-1,1091,1198,0,0
-126,-174,0,0,0,0,0,0,0,0,0,-1,1098,1198,0,0
-119,-174,0,0,0,0,0,0,0,0,0,-1,1105,1198,0,0
-112,-174,0,0,0,0,0,0,0,0,0,-1,1112,1198,0,0
-105,-174,0,0,0,0,0,0,0,0,0,-1,1119,1198,0,0
-98,-174,0,0,0,0,0,0,0,0,0,-1,1126,1198,0,0
-91,-174,0,0,0,0,0,0,0,0,0,-1,1133,1198,0,0
-84,-174,0,0,0,0,0,0,0,0,0,-1,1140,1198,0,0
-77,-174,0,0,0,0,0,0,0,0,0,-1,1147,1198,0,0
-70,-174,0,0,0,0,0,0,0,0,0,-1,1154,1198,0,0
-63,-174,0,0,0,0,0,0,0,0,0,-1,1161,1198,0,0
-56,-174,0,0,0,0,0,0,0,0,0,-1,1168,1198,0,0
-49,-174,0,0,0,0,0,0,0,0,0,-1,1175,1198,0,0
-42,-174,0,0,0,0,0,0,0,0,0,-1,1182,1198,0,0
-35,-174,0,0,0,0,0,0,0,0,0,-1,1189,1198,0,0
-28,-174,0,0,0,0,0,0,0,0,0,-1,1196,1198,0,0
-21,-174,0,0,0,0,0,0,0,0,0,-1,1203,1198,0,0
-14,-174,0,0,0,0,0,0,0,0,0,-1,1210,1198,0,0
-7,-174,0,0,0,0,0,0,0,0,0,-1,1217,1198,0,0
0,-174,0,0,0,0,0,0,0,0,0,-1,1224,1198,0,0
7,-174,0,0,0,0,0,0,0,0,0,-1,1231,1198,0,0
14,-174,0,0,0,0,0,0,0,0,0,-1,1238,1198,0,0
21,-174,0,0,0,0,0,0,0,0,0,-1,1245,1198,0,0
28,-174,0,0,0,0,0,0,0,0,0,-1,1252,1198,0,0
35,-174,0,0,0,0,0,0,0,0,0,-1,1259,1198,0,0
42,-174,0,0,0,0,0,0,0,0,0,-1,1266,1198,0,0
49,-174,0,0,0,0,0,0,0,0,0,-1,1273,1198,0,0
56,-174,0,0,0,0,0,0,0,0,0,-1,1280,1198,0,0
63,-174,0,0,0,0,0,0,0,0,0,-1,1287,1198,0,0
70,-174,0,0,0,0,0,0,0,0,0,-1,1294,1198,0,0
77,-174,0,0,0,0,0,0,0,0,0,-1,1301,1198,0,0
84,-174,0,0,0,0,0,0,0,0,0,-1,1308,1198,0,0
91,-174,0,0,0,0,0,0,0,0,0,-1,1315,1198,0,0
98,-174,0,0,0,0,0,0,0,0,0,-1,1322,1198,0,0
105,-174,0,0,0,0,0,0,0,0,0,-1,1329,1198,0,0
112,-174,0,0,0,0,0,0,0,0,0,-1,1336,1198,0,0
119,-174,0,0,0,0,0,0,0,0,0,-1,1343,1198,0,0
126,-174,0,0,0,0,0,0,0,0,0,-1,1350,1198,0,0
133,-174,0,0,0,0,0,0,0,0,0,-1,1357,1198,0,0
140,-174,0,0,0,0,0,0,0,0,0,-1,1364,1198,0,0
147,-174,0,0,0,0,0,0,0,0,0,-1,1371,1198,0,0
154,-174,0,0,0,0,0,0,0,0,0,-1,1378,1198,0,0
161,-174,0,0,0,0,0,0,0,0,0,-1,1385,1198,0,0
168,-174,0,0,0,0,0,0,0,0,0,-1,1392,1198,0,0
175,-174,0,0,0,0,0,0,0,0,0,-1,1399,1198,0,0
182,-174,0,0,0,0,0,0,0,0,0,-1,1406,1198,0,0
189,-174,0,0,0,0,0,0,0,0,0,-1,1413,1198,0,0
196,-174,0,0,0,0,0,0,0,0,0,-1,1420,1198,0,0
203,-174,0,0,0,0,0,0,0,0,0,-1,1427,1198,0,0
210,-174,0,0,0,0,0,0,0,0,0,-1,1434,1198,0,0
217,-174,0,0,0,0,0,0,0,0,0,-1,1441,1198,0,0
224,-174,0,0,0,0,0,0,0,0,0,-1,1448,1198,0,0
231,-174,0,0,0,0,0,0,0,0,0,-1,1455,1198,0,0
238,-174,0,0,0,0,0,0,0,0,0,-1,1462,1198,0,0
245,-174,0,0,0,0,0,0,0,0,0,-1,1469,1198,0,0
252,-174,0,0,0,0,0,0,0,0,0,-1,1476,1198,0,0
259,-174,0,0,0,0,0,0,0,0,0,-1,1483,1198,0,0
266,-174,0,0,0,0,0,0,0,0,0,-1,1490,1198,0,0
273,-174,0,0,0,0,0,0,0,0,0,-1,1497,1198,0,0
280,-174,0,0,0,0,0,0,0,0,0,-1,1504,1198,0,0
287,-174,0,0,0,0,0,0,0,0,0,-1,1511,1198,0,0
294,-174,0,0,0,0,0,0,0,0,0,-1,1518,1198,0,0
301,-174,0,0,0,0,0,0,0,0,0,-1,1525,1198,0,0
308,-174,0,0,0,0,0,0,0,0,0,-1,1532,1198,0,0
315,-174,0,0,0,0,0,0,0,0,0,-1,1539,1198,0,0
322,-174,0,0,0,0,0,0,0,0,0,-1,1546,1198,0,0
329,-174,0,0,0,0,0,0,0,0,0,-1,1553,1198,0,0
336,-174,0,0,0,0,0,0,0,0,0,-1,1560,1198,0,0
343,-174,0,0,0,0,0,0,0,0,0,-1,1567,1198,0,0
350,-174,0,0,0,0,0,0,0,0,0,-1,1574,1198,0,0
357,-174,0,0,0,0,0,0,0,0,0,-1,1581,1198,0,0
364,-174,0,0,0,0,0,0,0,0,0,-1,1588,1198,0,0
371,-174,0,0,0,0,0,0,0,0,0,-1,1595,1198,0,0
378,-174,0,0,0,0,0,0,0,0,0,-1,1602,1198,0,0
385,-174,0,0,0,0,0,0,0,0,0,-1,1609,1198,0,0
392,-174,0,0,0,0,0,0,0,0,0,-1,1616,1198,0,0
399,-174,0,0,0,0,0,0,0,0,0,-1,1623,1198,0,0
406,-174,0,0,0,0,0,0,0,0,0,-1,1630,1198,0,0
413,-174,0,0,0,0,0,0,0,0,0,-1,1637,1198,0,0
420,-174,0,0,0,0,0,0,0,0,0,-1,1644,1198,0,0
427,-174,0,0,0,0,0,0,0,0,0,-1,1651,1198,0,0
434,-174,0,0,0,0,0,0,0,0,0,-1,1658,1198,0,0
441,-174,0,0,0,0,0,0,0,0,0,-1,1665,1198,0,0
448,-174,0,0,0,0,0,0,0,0,0,-1,1672,1198,0,0
455,-174,0,0,0,0,0,0,0,0,0,-1,1679,1198,0,0
462,-174,0,0,0,0,0,0,0,0,0,-1,1686,1198,0,0
469,-174,0,0,0,0,0,0,0,0,0,-1,1693,1198,0,0
476,-174,0,0,0,0,0,0,0,0,0,-1,1700,1198,0,0
483,-174,0,0,0,0,0,0,0,0,0,-1,1707,1198,0,0
490,-174,0,0,0,0,0,0,0,0,0,-1,1714,1198,0,0
497,-174,0,0,0,0,0,0,0,0,0,-1,1721,1198,0,0
504,-174,0,0,0,0,0,0,0,0,0,-1,1728,1198,0,0
511,-174,0,0,0,0,0,0,0,0,0,-1,1735,1198,0,0
518,-174,0,0,0,0,0,0,0,0,0,-1,1742,1198,0,0
525,-174,0,0,0,0,0,0,0,0,0,-1,1749,1198,0,0
532,-174,0,0,0,0,0,0,0,0,0,-1,1756,1198,0,0
539,-174,0,0,0,0,0,0,0,0,0,-1,1763,1198,0,0
546,-174,0,0,0,0,0,0,0,0,0,-1,1770,1198,0,0
553,-174,0,0,0,0,0,0,0,0,0,-1,1777,1198,0,0
560,-174,0,0,0,0,0,0,0,0,0,-1,1784,1198,0,0
567,-174,0,0,0,0,0,0,0,0,0,-1,1791,1198,0,0
574,-174,0,0,0,0,0,0,0,0,0,-1,1798,1198,0,0
581,-174,0,0,0,0,0,0,0,0,0,-1,1805,1198,0,0
588,-174,0,0,0,0,0,0,0,0,0,-1,1812,1198,0,0
595,-174,0,0,0,0,0,0,0,0,0,-1,1819,1198,0,0
602,-174,0,0,0,0,0,0,0,0,0,-1,1826,1198,0,0
609,-174,0,0,0,0,0,0,0,0,0,-1,1833,1198,0,0
616,-174,0,0,0,0,0,0,0,0,0,-1,1840,1198,0,0
623,-174,0,0,0,0,0,0,0,0,0,-1,1847,1198,0,0
630,-174,0,0,0,0,0,0,0,0,0,-1,1854,1198,0,0
637,-174,39.6099,2.94934,-0.000426665,-0.00591898,0.00355879,0.00132233,-0.00766798,0.45679,0.005605,0.0404157,1861,1198,39.6098,-2.94939
644,-174,39.4937,2.698,-0.000167351,-0.0048612,0.00228168,0.000758966,-0.00578752,0.385651,0.00413462,0.0399134,1868,1198,39.4937,-2.69802
651,-174,39.317,2.56067,0.000231617,-0.00368875,0.00140308,0.000682027,-0.00413916,0.310623,0.00301263,0.0392518,1875,1198,39.317,-2.5607
658,-174,39.3015,2.57959,0.000839703,-0.00277852,0.000726084,0.000979971,-0.00291879,0.190834,0.00234189,0.0396497,1882,1198,39.3016,-2.57958
665,-174,39.3918,2.60498,0.00127385,-0.0023085,0.000539663,0.00135338,-0.00238804,0.14632,0.00218747,0.0355856,1889,1198,39.3918,-2.60492
672,-174,39.3922,2.58569,0.00120797,-0.00222076,0.000763633,0.00137035,-0.00238315,0.209524,0.00219322,0.0263286,1896,1198,39.3923,-2.58566
679,-174,39.4219,2.52832,0.000312134,-0.0021209,0.00122833,0.000824407,-0.00263317,0.395115,0.0020853,0.0219707,1903,1198,39.4219,-2.52829
686,-174,39.4133,2.48938,0,0,0,0,0,0,0,-1,1910,1198,39.4133,-2.48938
693,-174,38.9143,2.43933,0,0,0,0,0,0,0,-1,1917,1198,38.9144,-2.43931
700,-174,25.4004,6.11792,0,0,0,0,0,0,0,-1,1924,1198,25.4004,-6.11797
707,-174,33.6614,7.17334,0,0,0,0,0,0,0,-1,1931,1198,33.6614,-7.17336
714,-174,34.5439,6.67896,0,0,0,0,0,0,0,-1,1938,1198,34.5439,-6.67899
721,-174,33.8799,6.42126,0,0,0,0,0,0,0,-1,1945,1198,33.8799,-6.42131
728,-174,33.9764,6.14319,-0.00276655,-0.000928637,0.00300302,0.00129289,-0.00498807,0.933879,0.0038298,0.0321006,1952,1198,33.9764,-6.14319
735,-174,33.8612,5.85706,-0.0026321,-0.000649379,0.00300579,0.00152432,-0.00480579,0.944689,0.00381487,0.0130055,1959,1198,33.8612,-5.85708
742,-174,33.8491,5.52454,-0.00109043,-0.000568801,0.00296546,0.00214729,-0.00380652,0.82926,0.00348165,0.0192224,1966,1198,33.8491,-5.52452
749,-174,33.853,5.21472,0.00216482,-0.000280165,0.00279757,0.00399534,-0.00211068,0.579409,0.00358085,0.0170001,1973,1198,33.853,-5.21474
756,-174,33.844,4.88904,0.00678974,0.000196393,0.00248459,0.00762117,-0.000635038,0.322922,0.00530514,0.0102911,1980,1198,33.844,-4.88905
763,-174,33.8289,4.55103,0.0125716,0.000499719,0.00224168,0.0129745,9.68967e-05,0.1778,0.00861752,0.013365,1987,1198,33.8289,-4.55105
770,-174,33.8976,4.32898,0.0197082,0.000871286,0.00195692,0.0199093,0.000670133,0.10243,0.0130552,0.0299092,1994,1198,33.8976,-4.32897
777,-174,34.3661,4.26355,0.0284018,0.00144892,0.00151978,0.0284872,0.00136349,0.0561492,0.0185537,0.0497324,2001,1198,34.3661,-4.26355
784,-174,34.9336,4.1521,0,0,0,0,0,0,0,-1,2008,1198,34.9336,-4.15211
791,-174,34.1807,4.61938,0,0,0,0,0,0,0,-1,2015,1198,34.1806,-4.61933
798,-174,35.4009,4.11243,0,0,0,0,0,0,0,-1,2022,1198,35.4009,-4.11245
805,-174,35.4209,3.95325,0,0,0,0,0,0,0,-1,2029,1198,35.4209,-3.95323
812,-174,0,0,0,0,0,0,0,0,0,-1,2036,1198,0,0
-700,-181,0,0,0,0,0,0,0,0,0,-1,524,1205,0,0
-693,-181,0,0,0,0,0,0,0,0,0,-1,531,1205,0,0
-686,-181,-17.5994,0.571167,0,0,0,0,0,0,0,-1,538,1205,-17.5994,-0.571218
-679,-181,-17.1466,1.8042,0,0,0,0,0,0,0,-1,545,1205,-17.1466,-1.80422
-672,-181,-24.1122,0.699829,0,0,0,0,0,0,0,-1,552,1205,-24.1122,-0.699876
-665,-181,-23.6706,0.729004,0,0,0,0,0,0,0,-1,559,1205,-23.6706,-0.728985
-658,-181,-23.2504,0.796387,0.00198459,-0.00414828,-0.0419819,0.0410119,-0.0431756,-0.748942,0.048611,0.0442164,566,1205,-23.2504,-0.796399
-651,-181,-22.6921,0.88562,0.00375358,-0.00237823,-0.0307271,0.0315673,-0.030192,-0.735673,0.0356597,0.0447209,573,1205,-22.6921,-0.885639
-644,-181,-22.321,1.14111,0.00420775,-0.00115023,-0.0216468,0.0233407,-0.0202832,-0.723832,0.0252069,0.0434705,580,1205,-22.321,-1.14107
-637,-181,-22.2459,1.50671,0.00357665,-0.000229922,-0.0147399,0.0165356,-0.0131889,-0.721191,0.0171977,0.0261065,587,1205,-22.2459,-1.50669
-630,-181,-22.3327,1.88855,0.00332566,0.00054123,-0.00889322,0.010935,-0.0070681,-0.707755,0.0104737,0.0140056,594,1205,-22.3327,-1.88856
-623,-181,-22.359,2.24792,0.00172479,0.000650775,-0.00508323,0.0062993,-0.00392374,-0.732772,0.00595516,0.0148958,601,1205,-22.359,-2.24788
-616,-181,-22.3608,2.62158,-0.000113213,0.000342544,-0.00298513,0.00310848,-0.00287915,-0.823493,0.00345781,0.0134224,608,1205,-22.3608,-2.62156
-609,-181,-22.3828,2.99939,-0.00150694,-0.000126435,-0.00182848,0.00113774,-0.00277112,-0.965878,0.00232153,0.0127855,615,1205,-22.3828,-2.9994
-602,-181,-22.398,3.33899,-0.00230868,-0.000498365,-0.00138265,0.000249059,-0.0030561,-1.07522,0.00212529,0.012239,622,1205,-22.398,-3.33899
-595,-181,-22.552,3.62024,-0.00264871,-0.000967561,-0.00165479,4.79072e-05,-0.00366417,-1.0204,0.00245891,0.0235529,629,1205,-22.552,-3.62027
-588,-181,-22.734,4.04321,-0.00227886,-0.00157055,-0.00210299,0.000207898,-0.00405731,-0.868819,0.00277677,0.0255789,636,1205,-22.734,-4.04315
-581,-181,-22.6436,4.51404,-0.00176636,-0.00194718,-0.00225515,0.000400192,-0.00411374,-0.765364,0.00288515,0.0245964,643,1205,-22.6436,-4.51409
-574,-181,-22.5035,4.92358,0,0,0,0,0,0,0,-1,650,1205,-22.5035,-4.92359
-567,-181,-21.7781,2.03772,0,0,0,0,0,0,0,-1,657,1205,-21.7781,-2.03772
-560,-181,-28.7362,0.94812,0,0,0,0,0,0,0,-1,664,1205,-28.7362,-0.948075
-553,-181,-28.6655,0.848389,-0.0014907,-0.00243958,-0.00174293,-0.000158795,-0.00377149,-0.652513,0.0024631,0.0479117,671,1205,-28.6655,-0.848441
-546,-181,-28.6053,0.754761,-0.00130206,-0.00248156,-0.00148819,-0.000291022,-0.0034926,-0.596747,0.00223771,0.0367359,678,1205,-28.6054,-0.75473
-539,-181,-28.6331,0.745117,-0.00111243,-0.00236539,-0.00092643,-0.000620541,-0.00285728,-0.488102,0.00173539,0.0395768,685,1205,-28.6331,-0.745099
-532,-181,-28.4629,0.690552,-0.00147206,-0.00151626,0.000236395,-0.00125673,-0.00173159,0.738788,0.00103315,0.0434584,692,1205,-28.4629,-0.690547
-525,-181,-28.5104,0.593262,-0.00214794,0.000177639,0.00232443,0.0016139,-0.0035842,1.01732,0.00307215,0.0404255,699,1205,-28.5104,-0.593318
-518,-181,-28.6222,0.827881,-0.00343467,0.00208702,0.00507427,0.0051029,-0.00645055,1.03454,0.0066855,0.0395599,706,1205,-28.6222,-0.82786
-511,-181,0,0,0,0,0,0,0,0,0,-1,713,1205,0,0
-504,-181,0,0,0,0,0,0,0,0,0,-1,720,1205,0,0
-497,-181,0,0,0,0,0,0,0,0,0,-1,727,1205,0,0
-490,-181,0,0,0,0,0,0,0,0,0,-1,734,1205,0,0
-483,-181,0,0,0,0,0,0,0,0,0,-1,741,1205,0,0
-476,-181,0,0,0,0,0,0,0,0,0,-1,748,1205,0,0
-469,-181,0,0,0,0,0,0,0,0,0,-1,755,1205,0,0
-462,-181,0,0,0,0,0,0,0,0,0,-1,762,1205,0,0
-455,-181,0,0,0,0,0,0,0,0,0,-1,769,1205,0,0
-448,-181,0,0,0,0,0,0,0,0,0,-1,776,1205,0,0
-441,-181,0,0,0,0,0,0,0,0,0,-1,783,1205,0,0
-434,-181,0,0,0,0,0,0,0,0,0,-1,790,1205,0,0
-427,-181,0,0,0,0,0,0,0,0,0,-1,797,1205,0,0
-420,-181,0,0,0,0,0,0,0,0,0,-1,804,1205,0,0
-413,-181,0,0,0,0,0,0,0,0,0,-1,811,1205,0,0
-406,-181,0,0,0,0,0,0,0,0,0,-1,818,1205,0,0
-399,-181,0,0,0,0,0,0,0,0,0,-1,825,1205,0,0
-392,-181,0,0,0,0,0,0,0,0,0,-1,832,1205,0,0
-385,-181,0,0,0,0,0,0,0,0,0,-1,839,1205,0,0
-378,-181,0,0,0,0,0,0,0,0,0,-1,846,1205,0,0
-371,-181,0,0,0,0,0,0,0,0,0,-1,853,1205,0,0
-364,-181,0,0,0,0,0,0,0,0,0,-1,860,1205,0,0
-357,-181,0,0,0,0,0,0,0,0,0,-1,867,1205,0,0
-350,-181,0,0,0,0,0,0,0,0,0,-1,874,1205,0,0
-343,-181,0,0,0,0,0,0,0,0,0,-1,881,1205,0,0
-336,-181,0,0,0,0,0,0,0,0,0,-1,888,1205,0,0
-329,-181,0,0,0,0,0,0,0,0,0,-1,895,1205,0,0
-322,-181,0,0,0,0,0,0,0,0,0,-1,902,1205,0,0
-315,-181,0,0,0,0,0,0,0,0,0,-1,909,1205,0,0
-308,-181,0,0,0,0,0,0,0,0,0,-1,916,1205,0,0
-301,-181,0,0,0,0,0,0,0,0,0,-1,923,1205,0,0
-294,-181,0,0,0,0,0,0,0,0,0,-1,930,1205,0,0
-287,-181,0,0,0,0,0,0,0,0,0,-1,937,1205,0,0
-280,-181,0,0,0,0,0,0,0,0,0,-1,944,1205,0,0
-273,-181,0,0,0,0,0,0,0,0,0,-1,951,1205,0,0
-266,-181,0,0,0,0,0,0,0,0,0,-1,958,1205,0,0
-259,-181,0,0,0,0,0,0,0,0,0,-1,965,1205,0,0
-252,-181,0,0,0,0,0,0,0,0,0,-1,972,1205,0,0
-245,-181,0,0,0,0,0,0,0,0,0,-1,979,1205,0,0
-238,-181,0,0,0,0,0,0,0,0,0,-1,986,1205,0,0
-231,-181,0,0,0,0,0,0,0,0,0,-1,993,1205,0,0
-224,-181,0,0,0,0,0,0,0,0,0,-1,1000,1205,0,0
-217,-181,0,0,0,0,0,0,0,0,0,-1,1007,1205,0,0
-210,-181,0,0,0,0,0,0,0,0,0,-1,1014,1205,0,0
-203,-181,0,0,0,0,0,0,0,0,0,-1,1021,1205,0,0
-196,-181,0,0,0,0,0,0,0,0,0,-1,1028,1205,0,0
-189,-181,0,0,0,0,0,0,0,0,0,-1,1035,1205,0,0
-182,-181,0,0,0,0,0,0,0,0,0,-1,1042,1205,0,0
-175,-181,0,0,0,0,0,0,0,0,0,-1,1049,1205,0,0
-168,-181,0,0,0,0,0,0,0,0,0,-1,1056,1205,0,0
-161,-181,0,0,0,0,0,0,0,0,0,-1,1063,1205,0,0
-154,-181,0,0,0,0,0,0,0,0,0,-1,1070,1205,0,0
-147,-181,0,0,0,0,0,0,0,0,0,-1,1077,1205,0,0
-140,-181,0,0,0,0,0,0,0,0,0,-1,1084,1205,0,0
-133,-181,0,0,0,0,0,0,0,0,0,-1,1091,1205,0,0
-126,-181,0,0,0,0,0,0,0,0,0,-1,1098,1205,0,0
-119,-181,0,0,0,0,0,0,0,0,0,-1,1105,1205,0,0
-112,-181,0,0,0,0,0,0,0,0,0,-1,1112,1205,0,0
-105,-181,0,0,0,0,0,0,0,0,0,-1,1119,1205,0,0
-98,-181,0,0,0,0,0,0,0,0,0,-1,1126,1205,0,0
-91,-181,0,0,0,0,0,0,0,0,0,-1,1133,1205,0,0
-84,-181,0,0,0,0,0,0,0,0,0,-1,1140,1205,0,0
-77,-181,0,0,0,0,0,0,0,0,0,-1,1147,1205,0,0
-70,-181,0,0,0,0,0,0,0,0,0,-1,1154,1205,0,0
-63,-181,0,0,0,0,0,0,0,0,0,-1,1161,1205,0,0
-56,-181,0,0,0,0,0,0,0,0,0,-1,1168,1205,0,0
-49,-181,0,0,0,0,0,0,0,0,0,-1,1175,1205,0,0
-42,-181,0,0,0,0,0,0,0,0,0,-1,1182,1205,0,0
-35,-181,0,0,0,0,0,0,0,0,0,-1,1189,1205,0,0
-28,-181,0,0,0,0,0,0,0,0,0,-1,1196,1205,0,0
-21,-181,0,0,0,0,0,0,0,0,0,-1,1203,1205,0,0
-14,-181,0,0,0,0,0,0,0,0,0,-1,1210,1205,0,0
-7,-181,0,0,0,0,0,0,0,0,0,-1,1217,1205,0,0
0,-181,0,0,0,0,0,0,0,0,0,-1,1224,1205,0,0
7,-181,0,0,0,0,0,0,0,0,0,-1,1231,1205,0,0
14,-181,0,0,0,0,0,0,0,0,0,-1,1238,1205,0,0
21,-181,0,0,0,0,0,0,0,0,0,-1,1245,1205,0,0
28,-181,0,0,0,0,0,0,0,0,0,-1,1252,1205,0,0
35,-181,0,0,0,0,0,0,0,0,0,-1,1259,1205,0,0
42,-181,0,0,0,0,0,0,0,0,0,-1,1266,1205,0,0
49,-181,0,0,0,0,0,0,0,0,0,-1,1273,1205,0,0
56,-181,0,0,0,0,0,0,0,0,0,-1,1280,1205,0,0
63,-181,0,0,0,0,0,0,0,0,0,-1,1287,1205,0,0
70,-181,0,0,0,0,0,0,0,0,0,-1,1294,1205,0,0
77,-181,0,0,0,0,0,0,0,0,0,-1,1301,1205,0,0
84,-181,0,0,0,0,0,0,0,0,0,-1,1308,1205,0,0
91,-181,0,0,0,0,0,0,0,0,0,-1,1315,1205,0,0
98,-181,0,0,0,0,0,0,0,0,0,-1,1322,1205,0,0
105,-181,0,0,0,0,0,0,0,0,0,-1,1329,1205,0,0
112,-181,0,0,0,0,0,0,0,0,0,-1,1336,1205,0,0
119,-181,0,0,0,0,0,0,0,0,0,-1,1343,1205,0,0
126,-181,0,0,0,0,0,0,0,0,0,-1,1350,1205,0,0
133,-181,0,0,0,0,0,0,0,0,0,-1,1357,1205,0,0
140,-181,0,0,0,0,0,0,0,0,0,-1,1364,1205,0,0
147,-181,0,0,0,0,0,0,0,0,0,-1,1371,1205,0,0
154,-181,0,0,0,0,0,0,0,0,0,-1,1378,1205,0,0
161,-181,0,0,0,0,0,0,0,0,0,-1,1385,1205,0,0
168,-181,0,0,0,0,0,0,0,0,0,-1,1392,1205,0,0
175,-181,0,0,0,0,0,0,0,0,0,-1,1399,1205,0,0
182,-181,0,0,0,0,0,0,0,0,0,-1,1406,1205,0,0
189,-181,0,0,0,0,0,0,0,0,0,-1,1413,1205,0,0
196,-181,0,0,0,0,0,0,0,0,0,-1,1420,1205,0,0
203,-181,0,0,0,0,0,0,0,0,0,-1,1427,1205,0,0
210,-181,0,0,0,0,0,0,0,0,0,-1,1434,1205,0,0
217,-181,0,0,0,0,0,0,0,0,0,-1,1441,1205,0,0
224,-181,0,0,0,0,0,0,0,0,0,-1,1448,1205,0,0
231,-181,0,0,0,0,0,0,0,0,0,-1,1455,1205,0,0
238,-181,0,0,0,0,0,0,0,0,0,-1,1462,1205,0,0
245,-181,0,0,0,0,0,0,0,0,0,-1,1469,1205,0,0
252,-181,0,0,0,0,0,0,0,0,0,-1,1476,1205,0,0
259,-181,0,0,0,0,0,0,0,0,0,-1,1483,1205,0,0
266,-181,0,0,0,0,0,0,0,0,0,-1,1490,1205,0,0
273,-181,0,0,0,0,0,0,0,0,0,-1,1497,1205,0,0
280,-181,0,0,0,0,0,0,0,0,0,-1,1504,1205,0,0
287,-181,0,0,0,0,0,0,0,0,0,-1,1511,1205,0,0
294,-181,0,0,0,0,0,0,0,0,0,-1,1518,1205,0,0
301,-181,0,0,0,0,0,0,0,0,0,-1,1525,1205,0,0
308,-181,0,0,0,0,0,0,0,0,0,-1,1532,1205,0,0
315,-181,0,0,0,0,0,0,0,0,0,-1,1539,1205,0,0
322,-181,0,0,0,0,0,0,0,0,0,-1,1546,1205,0,0
329,-181,0,0,0,0,0,0,0,0,0,-1,1553,1205,0,0
336,-181,0,0,0,0,0,0,0,0,0,-1,1560,1205,0,0
343,-181,0,0,0,0,0,0,0,0,0,-1,1567,1205,0,0
350,-181,0,0,0,0,0,0,0,0,0,-1,1574,1205,0,0
357,-181,0,0,0,0,0,0,0,0,0,-1,1581,1205,0,0
364,-181,0,0,0,0,0,0,0,0,0,-1,1588,1205,0,0
371,-181,0,0,0,0,0,0,0,0,0,-1,1595,1205,0,0
378,-181,0,0,0,0,0,0,0,0,0,-1,1602,1205,0,0
385,-181,0,0,0,0,0,0,0,0,0,-1,1609,1205,0,0
392,-181,0,0,0,0,0,0,0,0,0,-1,1616,1205,0,0
399,-181,0,0,0,0,0,0,0,0,0,-1,1623,1205,0,0
406,-181,0,0,0,0,0,0,0,0,0,-1,1630,1205,0,0
413,-181,0,0,0,0,0,0,0,0,0,-1,1637,1205,0,0
420,-181,0,0,0,0,0,0,0,0,0,-1,1644,1205,0,0
427,-181,0,0,0,0,0,0,0,0,0,-1,1651,1205,0,0
434,-181,0,0,0,0,0,0,0,0,0,-1,1658,1205,0,0
441,-181,0,0,0,0,0,0,0,0,0,-1,1665,1205,0,0
448,-181,0,0,0,0,0,0,0,0,0,-1,1672,1205,0,0
455,-181,0,0,0,0,0,0,0,0,0,-1,1679,1205,0,0
462,-181,0,0,0,0,0,0,0,0,0,-1,1686,1205,0,0
469,-181,0,0,0,0,0,0,0,0,0,-1,1693,1205,0,0
476,-181,0,0,0,0,0,0,0,0,0,-1,1700,1205,0,0
483,-181,0,0,0,0,0,0,0,0,0,-1,1707,1205,0,0
490,-181,0,0,0,0,0,0,0,0,0,-1,1714,1205,0,0
497,-181,0,0,0,0,0,0,0,0,0,-1,1721,1205,0,0
504,-181,0,0,0,0,0,0,0,0,0,-1,1728,1205,0,0
511,-181,0,0,0,0,0,0,0,0,0,-1,1735,1205,0,0
518,-181,0,0,0,0,0,0,0,0,0,-1,1742,1205,0,0
525,-181,0,0,0,0,0,0,0,0,0,-1,1749,1205,0,0
532,-181,0,0,0,0,0,0,0,0,0,-1,1756,1205,0,0
539,-181,0,0,0,0,0,0,0,0,0,-1,1763,1205,0,0
546,-181,0,0,0,0,0,0,0,0,0,-1,1770,1205,0,0
553,-181,0,0,0,0,0,0,0,0,0,-1,1777,1205,0,0
560,-181,0,0,0,0,0,0,0,0,0,-1,1784,1205,0,0
567,-181,0,0,0,0,0,0,0,0,0,-1,1791,1205,0,0
574,-181,0,0,0,0,0,0,0,0,0,-1,1798,1205,0,0
581,-181,0,0,0,0,0,0,0,0,0,-1,1805,1205,0,0
588,-181,0,0,0,0,0,0,0,0,0,-1,1812,1205,0,0
595,-181,0,0,0,0,0,0,0,0,0,-1,1819,1205,0,0
602,-181,0,0,0,0,0,0,0,0,0,-1,1826,1205,0,0
609,-181,0,0,0,0,0,0,0,0,0,-1,1833,1205,0,0
616,-181,0,0,0,0,0,0,0,0,0,-1,1840,1205,0,0
623,-181,0,0,0,0,0,0,0,0,0,-1,1847,1205,0,0
630,-181,39.5419,2.54028,-0.000434628,-0.00500803,0.00492073,0.00270478,-0.00814743,0.56789,0.0065229,0.0374347,1854,1205,39.5419,-2.54034
637,-181,39.6047,2.9397,-0.000352533,-0.00430377,0.00326029,0.00148401,-0.00614031,0.513002,0.00466752,0.0379032,1861,1205,39.6047,-2.93966
644,-181,39.3735,2.98267,-5.41886e-05,-0.00345509,0.00203694,0.000898788,-0.00440806,0.437595,0.00327962,0.0400457,1868,1205,39.3735,-2.98266
651,-181,39.3201,2.68811,0.000358577,-0.00260076,0.00122488,0.000799779,-0.00304196,0.345734,0.00234057,0.0382228,1875,1205,39.32,-2.68811
658,-181,39.3104,2.66675,0.000942874,-0.00209946,0.000630892,0.00106851,-0.0022251,0.196575,0.00194026,0.0343404,1882,1205,39.3104,-2.6668
665,-181,39.3134,2.61511,0.00129299,-0.00200612,0.000527881,0.0013754,-0.00208853,0.154858,0.00201398,0.0333965,1889,1205,39.3133,-2.61509
672,-181,39.3839,2.59167,0.00119028,-0.00219674,0.000767358,0.00135602,-0.00236248,0.212721,0.00217293,0.0251095,1896,1205,39.3839,-2.59172
679,-181,39.485,2.51941,0.00039673,-0.00225623,0.00118439,0.000848541,-0.00270805,0.364433,0.00214491,0.0298576,1903,1205,39.485,-2.51943
686,-181,39.5626,2.41907,0,0,0,0,0,0,0,-1,1910,1205,39.5626,-2.41912
693,-181,36.1301,2.91016,0,0,0,0,0,0,0,-1,1917,1205,36.1302,-2.9102
700,-181,29.5845,6.58398,0,0,0,0,0,0,0,-1,1924,1205,29.5844,-6.58395
707,-181,34.1069,7.08154,0,0,0,0,0,0,0,-1,1931,1205,34.1069,-7.0815
714,-181,34.1343,6.67139,-0.00184715,-0.00146867,0.00244172,0.000791128,-0.00410695,0.824072,0.00303623,0.045305,1938,1205,34.1343,-6.67143
721,-181,33.9308,6.34338,-0.00233459,-0.00135006,0.0026612,0.000864016,-0.00454867,0.876854,0.00335771,0.0378879,1945,1205,33.9307,-6.3434
728,-181,33.5676,6.15808,-0.00249458,-0.00122894,0.00299705,0.00120137,-0.00492489,0.889443,0.00374845,0.0185116,1952,1205,33.5676,-6.15808
735,-181,33.5551,5.8551,-0.00213892,-0.000822112,0.00296048,0.00155229,-0.00451332,0.894816,0.00363842,0.0122558,1959,1205,33.5551,-5.85513
742,-181,33.525,5.54565,-0.000277995,-0.000660957,0.002928,0.00246478,-0.00340373,0.752746,0.00340261,0.0164647,1966,1205,33.525,-5.54566
749,-181,33.527,5.20508,0.00317645,-0.000311385,0.00274042,0.00468079,-0.00181572,0.502031,0.00387043,0.0148665,1973,1205,33.527,-5.20506
756,-181,33.5336,4.86182,0.00784141,0.000145952,0.00248359,0.00857333,-0.000585973,0.286592,0.00592055,0.0111457,1980,1205,33.5336,-4.86182
763,-181,33.5631,4.53833,0.0137289,0.000391162,0.00230299,0.0141154,4.7069e-06,0.166257,0.00940867,0.0127835,1987,1205,33.5631,-4.53833
770,-181,33.6733,4.19812,0.0210736,0.000622085,0.00213976,0.0212951,0.000400608,0.103138,0.0140651,0.0314626,1994,1205,33.6734,-4.19818
777,-181,34.2137,4.12781,0,0,0,0,0,0,0,-1,2001,1205,34.2137,-4.12781
784,-181,34.7717,2.39917,0,0,0,0,0,0,0,-1,2008,1205,34.7717,-2.39918
791,-181,37.5376,1.93481,0,0,0,0,0,0,0,-1,2015,1205,37.5377,-1.93479
798,-181,35.4207,4.00964,0,0,0,0,0,0,0,-1,2022,1205,35.4207,-4.00961
805,-181,0,0,0,0,0,0,0,0,0,-1,2029,1205,0,0
812,-181,0,0,0,0,0,0,0,0,0,-1,2036,1205,0,0
-700,-188,0,0,0,0,0,0,0,0,0,-1,524,1212,0,0
-693,-188,0,0,0,0,0,0,0,0,0,-1,531,1212,0,0
-686,-188,0,0,0,0,0,0,0,0,0,-1,538,1212,0,0
-679,-188,-15.5649,1.53796,0.000843147,-0.00974939,-0.0852104,0.0809217,-0.0898279,-0.75436,0.098627,0.0455263,545,1212,-15.5649,-1.53792
-672,-188,-14.9308,2.85962,0,0,0,0,0,0,0,-1,552,1212,-14.9309,-2.85964
-665,-188,-23.2144,0.756958,0,0,0,0,0,0,0,-1,559,1212,-23.2144,-0.756952
-658,-188,-22.6729,1.01135,0.0080461,-0.00364791,-0.0411114,0.0437242,-0.039326,-0.71476,0.0479715,0.045956,566,1212,-22.6729,-1.01133
-651,-188,-22.147,1.13171,0.00805666,-0.0021059,-0.0299875,0.0333903,-0.0274395,-0.701472,0.0351761,0.0475992,573,1212,-22.147,-1.13171
-644,-188,-21.9003,1.2052,0.00720062,-0.00104598,-0.0210183,0.0244963,-0.0183416,-0.68854,0.0248174,0.0434563,580,1212,-21.9002,-1.20521
-637,-188,-21.9545,1.52881,0.00559265,-0.000190777,-0.0142462,0.0172377,-0.0118358,-0.685268,0.0168819,0.0228579,587,1212,-21.9545,-1.52878
-630,-188,-21.9882,1.89807,0.00460303,0.00053173,-0.00863582,0.0114399,-0.00630512,-0.66965,0.0103871,0.0109338,594,1212,-21.9882,-1.89805
-623,-188,-21.9957,2.26062,0.00254877,0.00056003,-0.00503195,0.00668366,-0.00357486,-0.687849,0.00601273,0.011137,601,1212,-21.9957,-2.26061
-616,-188,-21.985,2.6283,0.000579873,0.000277558,-0.00308206,0.00351448,-0.00265705,-0.760896,0.00357458,0.0100627,608,1212,-21.985,-2.62824
-609,-188,-21.9738,3.02551,-0.000893125,-0.000183265,-0.00195526,0.00144902,-0.00252541,-0.875183,0.00232252,0.0123713,615,1212,-21.9738,-3.02554
-602,-188,-21.9727,3.42578,-0.00186687,-0.000581062,-0.0014269,0.000341079,-0.00278901,-0.997058,0.00198284,0.0160193,622,1212,-21.9727,-3.42576
-595,-188,-22.0505,3.74402,-0.00221805,-0.00113911,-0.00160948,1.89076e-05,-0.00337606,-0.947105,0.00225704,0.0157617,629,1212,-22.0505,-3.74408
-588,-188,-22.1605,4.09558,-0.00173492,-0.00184912,-0.00201786,0.00022665,-0.00381069,-0.771254,0.00261928,0.0194793,636,1212,-22.1605,-4.09558
-581,-188,-22.1796,4.44507,-0.00117091,-0.0023034,-0.00220593,0.000540293,-0.00401461,-0.659765,0.00287348,0.0203326,643,1212,-22.1797,-4.44502
-574,-188,-22.5162,4.75659,0,0,0,0,0,0,0,-1,650,1212,-22.5161,-4.75656
-567,-188,-19.5786,4.10388,0,0,0,0,0,0,0,-1,657,1212,-19.5785,-4.10383
-560,-188,-23.9507,0.416626,0,0,0,0,0,0,0,-1,664,1212,-23.9508,-0.416602
-553,-188,-28.6429,0.850952,0,0,0,0,0,0,0,-1,671,1212,-28.6429,-0.850985
-546,-188,-28.6199,0.83252,-0.000981265,-0.00315902,-0.00129542,-0.000377875,-0.00376241,-0.435904,0.00239228,0.0446239,678,1212,-28.6199,-0.832566
-539,-188,-28.6494,0.81665,-0.000996746,-0.00321365,-0.00087526,-0.000692843,-0.00351755,-0.334191,0.0021516,0.0380841,685,1212,-28.6494,-0.816703
-532,-188,-28.58,0.675049,-0.00154864,-0.00271226,-8.05764e-05,-0.00154309,-0.00271781,-0.0688088,0.00157393,0.0400085,692,1212,-28.58,-0.675069
-525,-188,-28.642,0.390991,-0.00250163,-0.00151493,0.00128349,-0.000633236,-0.00338333,0.968884,0.0020769,0.0403473,699,1212,-28.642,-0.390935
-518,-188,-28.6383,0.41748,-0.00401126,0.000178383,0.00329233,0.00198584,-0.00581871,1.06873,0.00468359,0.0421116,706,1212,-28.6383,-0.417469
-511,-188,-28.6136,0.545532,-0.00387243,0.00311758,0.00619368,0.0067343,-0.00748916,1.04227,0.00821577,0.0390322,713,1212,-28.6136,-0.545502
-504,-188,0,0,0,0,0,0,0,0,0,-1,720,1212,0,0
-497,-188,0,0,0,0,0,0,0,0,0,-1,727,1212,0,0
-490,-188,0,0,0,0,0,0,0,0,0,-1,734,1212,0,0
-483,-188,0,0,0,0,0,0,0,0,0,-1,741,1212,0,0
-476,-188,0,0,0,0,0,0,0,0,0,-1,748,1212,0,0
-469,-188,0,0,0,0,0,0,0,0,0,-1,755,1212,0,0
-462,-188,0,0,0,0,0,0,0,0,0,-1,762,1212,0,0
-455,-188,0,0,0,0,0,0,0,0,0,-1,769,1212,0,0
-448,-188,0,0,0,0,0,0,0,0,0,-1,776,1212,0,0
-441,-188,0,0,0,0,0,0,0,0,0,-1,783,1212,0,0
-434,-188,0,0,0,0,0,0,0,0,0,-1,790,1212,0,0
-427,-188,0,0,0,0,0,0,0,0,0,-1,797,1212,0,0
-420,-188,0,0,0,0,0,0,0,0,0,-1,804,1212,0,0
-413,-188,0,0,0,0,0,0,0,0,0,-1,811,1212,0,0
-406,-188,0,0,0,0,0,0,0,0,0,-1,818,1212,0,0
-399,-188,0,0,0,0,0,0,0,0,0,-1,825,1212,0,0
-392,-188,0,0,0,0,0,0,0,0,0,-1,832,1212,0,0
-385,-188,0,0,0,0,0,0,0,0,0,-1,839,1212,0,0
-378,-188,0,0,0,0,0,0,0,0,0,-1,846,1212,0,0
-371,-188,0,0,0,0,0,0,0,0,0,-1,853,1212,0,0
-364,-188,0,0,0,0,0,0,0,0,0,-1,860,1212,0,0
-357,-188,0,0,0,0,0,0,0,0,0,-1,867,1212,0,0
-350,-188,0,0,0,0,0,0,0,0,0,-1,874,1212,0,0
-343,-188,0,0,0,0,0,0,0,0,0,-1,881,1212,0,0
-336,-188,0,0,0,0,0,0,0,0,0,-1,888,1212,0,0
-329,-188,0,0,0,0,0,0,0,0,0,-1,895,1212,0,0
-322,-188,0,0,0,0,0,0,0,0,0,-1,902,1212,0,0
-315,-188,0,0,0,0,0,0,0,0,0,-1,909,1212,0,0
-308,-188,0,0,0,0,0,0,0,0,0,-1,916,1212,0,0
-301,-188,0,0,0,0,0,0,0,0,0,-1,923,1212,0,0
-294,-188,0,0,0,0,0,0,0,0,0,-1,930,1212,0,0
-287,-188,0,0,0,0,0,0,0,0,0,-1,937,1212,0,0
-280,-188,0,0,0,0,0,0,0,0,0,-1,944,1212,0,0
-273,-188,0,0,0,0,0,0,0,0,0,-1,951,1212,0,0
-266,-188,0,0,0,0,0,0,0,0,0,-1,958,1212,0,0
-259,-188,0,0,0,0,0,0,0,0,0,-1,965,1212,0,0
-252,-188,0,0,0,0,0,0,0,0,0,-1,972,1212,0,0
-245,-188,0,0,0,0,0,0,0,0,0,-1,979,1212,0,0
-238,-188,0,0,0,0,0,0,0,0,0,-1,986,1212,0,0
-231,-188,0,0,0,0,0,0,0,0,0,-1,993,1212,0,0
-224,-188,0,0,0,0,0,0,0,0,0,-1,1000,1212,0,0
-217,-188,0,0,0,0,0,0,0,0,0,-1,1007,1212,0,0
-210,-188,0,0,0,0,0,0,0,0,0,-1,1014,1212,0,0
-203,-188,0,0,0,0,0,0,0,0,0,-1,1021,1212,0,0
-196,-188,0,0,0,0,0,0,0,0,0,-1,1028,1212,0,0
-189,-188,0,0,0,0,0,0,0,0,0,-1,1035,1212,0,0
-182,-188,0,0,0,0,0,0,0,0,0,-1,1042,1212,0,0
-175,-188,0,0,0,0,0,0,0,0,0,-1,1049,1212,0,0
-168,-188,0,0,0,0,0,0,0,0,0,-1,1056,1212,0,0
-161,-188,0,0,0,0,0,0,0,0,0,-1,1063,1212,0,0
-154,-188,0,0,0,0,0,0,0,0,0,-1,1070,1212,0,0
-147,-188,0,0,0,0,0,0,0,0,0,-1,1077,1212,0,0
-140,-188,0,0,0,0,0,0,0,0,0,-1,1084,1212,0,0
-133,-188,0,0,0,0,0,0,0,0,0,-1,1091,1212,0,0
-126,-188,0,0,0,0,0,0,0,0,0,-1,1098,1212,0,0
-119,-188,0,0,0,0,0,0,0,0,0,-1,1105,1212,0,0
-112,-188,0,0,0,0,0,0,0,0,0,-1,1112,1212,0,0
-105,-188,0,0,0,0,0,0,0,0,0,-1,1119,1212,0,0
-98,-188,0,0,0,0,0,0,0,0,0,-1,1126,1212,0,0
-91,-188,0,0,0,0,0,0,0,0,0,-1,1133,1212,0,0
-84,-188,0,0,0,0,0,0,0,0,0,-1,1140,1212,0,0
-77,-188,0,0,0,0,0,0,0,0,0,-1,1147,1212,0,0
-70,-188,0,0,0,0,0,0,0,0,0,-1,1154,1212,0,0
-63,-188,0,0,0,0,0,0,0,0,0,-1,1161,1212,0,0
-56,-188,0,0,0,0,0,0,0,0,0,-1,1168,1212,0,0
-49,-188,0,0,0,0,0,0,0,0,0,-1,1175,1212,0,0
-42,-188,0,0,0,0,0,0,0,0,0,-1,1182,1212,0,0
-35,-188,0,0,0,0,0,0,0,0,0,-1,1189,1212,0,0
-28,-188,0,0,0,0,0,0,0,0,0,-1,1196,1212,0,0
-21,-188,0,0,0,0,0,0,0,0,0,-1,1203,1212,0,0
-14,-188,0,0,0,0,0,0,0,0,0,-1,1210,1212,0,0
-7,-188,0,0,0,0,0,0,0,0,0,-1,1217,1212,0,0
0,-188,0,0,0,0,0,0,0,0,0,-1,1224,1212,0,0
7,-188,0,0,0,0,0,0,0,0,0,-1,1231,1212,0,0
14,-188,0,0,0,0,0,0,0,0,0,-1,1238,1212,0,0
21,-188,0,0,0,0,0,0,0,0,0,-1,1245,1212,0,0
28,-188,0,0,0,0,0,0,0,0,0,-1,1252,1212,0,0
35,-188,0,0,0,0,0,0,0,0,0,-1,1259,1212,0,0
42,-188,0,0,0,0,0,0,0,0,0,-1,1266,1212,0,0
49,-188,0,0,0,0,0,0,0,0,0,-1,1273,1212,0,0
56,-188,0,0,0,0,0,0,0,0,0,-1,1280,1212,0,0
63,-188,0,0,0,0,0,0,0,0,0,-1,1287,1212,0,0
70,-188,0,0,0,0,0,0,0,0,0,-1,1294,1212,0,0
77,-188,0,0,0,0,0,0,0,0,0,-1,1301,1212,0,0
84,-188,0,0,0,0,0,0,0,0,0,-1,1308,1212,0,0
91,-188,0,0,0,0,0,0,0,0,0,-1,1315,1212,0,0
98,-188,0,0,0,0,0,0,0,0,0,-1,1322,1212,0,0
105,-188,0,0,0,0,0,0,0,0,0,-1,1329,1212,0,0
112,-188,0,0,0,0,0,0,0,0,0,-1,1336,1212,0,0
119,-188,0,0,0,0,0,0,0,0,0,-1,1343,1212,0,0
126,-188,0,0,0,0,0,0,0,0,0,-1,1350,1212,0,0
133,-188,0,0,0,0,0,0,0,0,0,-1,1357,1212,0,0
140,-188,0,0,0,0,0,0,0,0,0,-1,1364,1212,0,0
147,-188,0,0,0,0,0,0,0,0,0,-1,1371,1212,0,0
154,-188,0,0,0,0,0,0,0,0,0,-1,1378,1212,0,0
161,-188,0,0,0,0,0,0,0,0,0,-1,1385,1212,0,0
168,-188,0,0,0,0,0,0,0,0,0,-1,1392,1212,0,0
175,-188,0,0,0,0,0,0,0,0,0,-1,1399,1212,0,0
182,-188,0,0,0,0,0,0,0,0,0,-1,1406,1212,0,0
189,-188,0,0,0,0,0,0,0,0,0,-1,1413,1212,0,0
196,-188,0,0,0,0,0,0,0,0,0,-1,1420,1212,0,0
203,-188,0,0,0,0,0,0,0,0,0,-1,1427,1212,0,0
210,-188,0,0,0,0,0,0,0,0,0,-1,1434,1212,0,0
217,-188,0,0,0,0,0,0,0,0,0,-1,1441,1212,0,0
224,-188,0,0,0,0,0,0,0,0,0,-1,1448,1212,0,0
231,-188,0,0,0,0,0,0,0,0,0,-1,1455,1212,0,0
238,-188,0,0,0,0,0,0,0,0,0,-1,1462,1212,0,0
245,-188,0,0,0,0,0,0,0,0,0,-1,1469,1212,0,0
252,-188,0,0,0,0,0,0,0,0,0,-1,1476,1212,0,0
259,-188,0,0,0,0,0,0,0,0,0,-1,1483,1212,0,0
266,-188,0,0,0,0,0,0,0,0,0,-1,1490,1212,0,0
273,-188,0,0,0,0,0,0,0,0,0,-1,1497,1212,0,0
280,-188,0,0,0,0,0,0,0,0,0,-1,1504,1212,0,0
287,-188,0,0,0,0,0,0,0,0,0,-1,1511,1212,0,0
294,-188,0,0,0,0,0,0,0,0,0,-1,1518,1212,0,0
301,-188,0,0,0,0,0,0,0,0,0,-1,1525,1212,0,0
308,-188,0,0,0,0,0,0,0,0,0,-1,1532,1212,0,0
315,-188,0,0,0,0,0,0,0,0,0,-1,1539,1212,0,0
322,-188,0,0,0,0,0,0,0,0,0,-1,1546,1212,0,0
329,-188,0,0,0,0,0,0,0,0,0,-1,1553,1212,0,0
336,-188,0,0,0,0,0,0,0,0,0,-1,1560,1212,0,0
343,-188,0,0,0,0,0,0,0,0,0,-1,1567,1212,0,0
350,-188,0,0,0,0,0,0,0,0,0,-1,1574,1212,0,0
357,-188,0,0,0,0,0,0,0,0,0,-1,1581,1212,0,0
364,-188,0,0,0,0,0,0,0,0,0,-1,1588,1212,0,0
371,-188,0,0,0,0,0,0,0,0,0,-1,1595,1212,0,0
378,-188,0,0,0,0,0,0,0,0,0,-1,1602,1212,0,0
385,-188,0,0,0,0,0,0,0,0,0,-1,1609,1212,0,0
392,-188,0,0,0,0,0,0,0,0,0,-1,1616,1212,0,0
399,-188,0,0,0,0,0,0,0,0,0,-1,1623,1212,0,0
406,-188,0,0,0,0,0,0,0,0,0,-1,1630,1212,0,0
413,-188,0,0,0,0,0,0,0,0,0,-1,1637,1212,0,0
420,-188,0,0,0,0,0,0,0,0,0,-1,1644,1212,0,0
427,-188,0,0,0,0,0,0,0,0,0,-1,1651,1212,0,0
434,-188,0,0,0,0,0,0,0,0,0,-1,1658,1212,0,0
441,-188,0,0,0,0,0,0,0,0,0,-1,1665,1212,0,0
448,-188,0,0,0,0,0,0,0,0,0,-1,1672,1212,0,0
455,-188,0,0,0,0,0,0,0,0,0,-1,1679,1212,0,0
462,-188,0,0,0,0,0,0,0,0,0,-1,1686,1212,0,0
469,-188,0,0,0,0,0,0,0,0,0,-1,1693,1212,0,0
476,-188,0,0,0,0,0,0,0,0,0,-1,1700,1212,0,0
483,-188,0,0,0,0,0,0,0,0,0,-1,1707,1212,0,0
490,-188,0,0,0,0,0,0,0,0,0,-1,1714,1212,0,0
497,-188,0,0,0,0,0,0,0,0,0,-1,1721,1212,0,0
504,-188,0,0,0,0,0,0,0,0,0,-1,1728,1212,0,0
511,-188,0,0,0,0,0,0,0,0,0,-1,1735,1212,0,0
518,-188,0,0,0,0,0,0,0,0,0,-1,1742,1212,0,0
525,-188,0,0,0,0,0,0,0,0,0,-1,1749,1212,0,0
532,-188,0,0,0,0,0,0,0,0,0,-1,1756,1212,0,0
539,-188,0,0,0,0,0,0,0,0,0,-1,1763,1212,0,0
546,-188,0,0,0,0,0,0,0,0,0,-1,1770,1212,0,0
553,-188,0,0,0,0,0,0,0,0,0,-1,1777,1212,0,0
560,-188,0,0,0,0,0,0,0,0,0,-1,1784,1212,0,0
567,-188,0,0,0,0,0,0,0,0,0,-1,1791,1212,0,0
574,-188,0,0,0,0,0,0,0,0,0,-1,1798,1212,0,0
581,-188,0,0,0,0,0,0,0,0,0,-1,1805,1212,0,0
588,-188,0,0,0,0,0,0,0,0,0,-1,1812,1212,0,0
595,-188,0,0,0,0,0,0,0,0,0,-1,1819,1212,0,0
602,-188,0,0,0,0,0,0,0,0,0,-1,1826,1212,0,0
609,-188,0,0,0,0,0,0,0,0,0,-1,1833,1212,0,0
616,-188,0,0,0,0,0,0,0,0,0,-1,1840,1212,0,0
623,-188,0,0,0,0,0,0,0,0,0,-1,1847,1212,0,0
630,-188,39.4515,2.30396,-0.000392564,-0.00305135,0.00470683,0.00316901,-0.00661293,0.647764,0.0057631,0.0406037,1854,1212,39.4516,-2.30395
637,-188,39.4274,2.64209,-0.000196367,-0.00252528,0.00317239,0.00201853,-0.00474018,0.609503,0.00400621,0.0401357,1861,1212,39.4274,-2.64212
644,-188,39.2417,2.80298,0.000124563,-0.00187077,0.00199528,0.0013577,-0.00310391,0.553569,0.00264086,0.0386964,1868,1212,39.2417,-2.80303
651,-188,39.299,2.65198,0.000563805,-0.00135682,0.00122902,0.0011632,-0.00195622,0.453761,0.00182029,0.0322943,1875,1212,39.2989,-2.65204
658,-188,39.3344,2.62781,0.00112872,-0.00122038,0.000710655,0.00132698,-0.00141863,0.27206,0.00158547,0.0319321,1882,1212,39.3343,-2.62781
665,-188,39.3086,2.61243,0.00140729,-0.00140125,0.000659616,0.00155449,-0.00154845,0.219566,0.00179149,0.0304856,1889,1212,39.3086,-2.61242
672,-188,39.4093,2.57349,0.00128799,-0.00177853,0.000872887,0.00151904,-0.00200959,0.258771,0.00204381,0.0249499,1896,1212,39.4094,-2.57351
679,-188,39.4744,2.49719,0.000624792,-0.00195136,0.00120246,0.00109883,-0.00242539,0.375517,0.00208221,0.0459477,1903,1212,39.4743,-2.49715
686,-188,39.5262,2.42004,0,0,0,0,0,0,0,-1,1910,1212,39.5263,-2.42
693,-188,35.9054,2.18042,0,0,0,0,0,0,0,-1,1917,1212,35.9054,-2.18038
700,-188,33.7212,7.38586,0,0,0,0,0,0,0,-1,1924,1212,33.7212,-7.38586
707,-188,33.4913,7.10547,-0.00104792,-0.00173519,0.00211307,0.000749276,-0.00353239,0.704793,0.00264036,0.0328967,1931,1212,33.4913,-7.10542
714,-188,33.5364,6.83179,-0.00155605,-0.00158967,0.00238259,0.000809787,-0.00395551,0.781871,0.00294429,0.0296047,1938,1212,33.5363,-6.83183
721,-188,33.3358,6.54761,-0.00201209,-0.00152376,0.00258383,0.000827418,-0.00436327,0.832506,0.00322028,0.0274912,1945,1212,33.3358,-6.54766
728,-188,33.2168,6.18787,-0.00202517,-0.001401,0.00288243,0.00118619,-0.00461236,0.839324,0.00353724,0.0106346,1952,1212,33.2168,-6.1879
735,-188,33.2032,5.85889,-0.00142811,-0.000926552,0.00282376,0.00165754,-0.0040122,0.829688,0.00336621,0.0137278,1959,1212,33.2032,-5.85892
742,-188,33.1907,5.53516,0.000661384,-0.000647476,0.00288031,0.00296067,-0.00294677,0.67369,0.00341067,0.0153699,1966,1212,33.1906,-5.53516
749,-188,33.1958,5.20508,0.00415296,-0.000216669,0.0028226,0.00553753,-0.00160124,0.456042,0.00432538,0.0133698,1973,1212,33.1958,-5.20511
756,-188,33.2073,4.8606,0.00875957,0.00020765,0.00280247,0.00959611,-0.000628889,0.290081,0.00661701,0.0118159,1980,1212,33.2072,-4.86054
763,-188,33.2305,4.54077,0.0147424,0.00039704,0.00287283,0.0152963,-0.000156892,0.19048,0.0102502,0.0146376,1987,1212,33.2305,-4.54071
770,-188,33.2528,4.19177,0.0223539,0.000445039,0.00307855,0.0227782,2.06726e-05,0.136983,0.0151786,0.0262717,1994,1212,33.2528,-4.19172
777,-188,33.3428,3.81226,0,0,0,0,0,0,0,-1,2001,1212,33.3428,-3.81224
784,-188,34.7103,1.6665,0,0,0,0,0,0,0,-1,2008,1212,34.7103,-1.66656
791,-188,34.469,0.928711,0,0,0,0,0,0,0,-1,2015,1212,34.4691,-0.928766
798,-188,34.0356,3.04785,0,0,0,0,0,0,0,-1,2022,1212,34.0356,-3.04787
805,-188,0,0,0,0,0,0,0,0,0,-1,2029,1212,0,0
812,-188,0,0,0,0,0,0,0,0,0,-1,2036,1212,0,0
-700,-195,0,0,0,0,0,0,0,0,0,-1,524,1219,0,0
-693,-195,0,0,0,0,0,0,0,0,0,-1,531,1219,0,0
-686,-195,0,0,0,0,0,0,0,0,0,-1,538,1219,0,0
-679,-195,-13.8893,1.28992,0,0,0,0,0,0,0,-1,545,1219,-13.8893,-1.28987
-672,-195,-13.4337,2.51917,0,0,0,0,0,0,0,-1,552,1219,-13.4337,-2.51918
-665,-195,-22.7358,0.962524,0,0,0,0,0,0,0,-1,559,1219,-22.7358,-0.962538
-658,-195,-22.1265,1.26343,0.0152776,-0.00485737,-0.0390538,0.0455407,-0.0351204,-0.659252,0.0466991,0.0486546,566,1219,-22.1265,-1.2634
-651,-195,-21.6219,0.866943,0.0135545,-0.00339796,-0.028195,0.0345198,-0.0243633,-0.639382,0.0341644,0.0486234,573,1219,-21.6219,-0.866983
-644,-195,-21.4008,1.21997,0.0112884,-0.00222511,-0.0194544,0.025126,-0.0160627,-0.618259,0.0239715,0.0438865,580,1219,-21.4008,-1.22003
-637,-195,-21.5018,1.56189,0.00855086,-0.00115251,-0.0129148,0.0174952,-0.0100968,-0.605719,0.01612,0.0221406,587,1219,-21.5018,-1.56184
-630,-195,-21.6041,1.89563,0.00668636,-0.000232437,-0.00765913,0.0116311,-0.00517719,-0.573277,0.00993987,0.00844922,594,1219,-21.6041,-1.89563
-623,-195,-21.6153,2.25989,0.0040759,-3.16355e-05,-0.00438139,0.006861,-0.00281673,-0.566231,0.00574777,0.00833352,601,1219,-21.6153,-2.25985
-616,-195,-21.6102,2.64172,0.001816,-6.38302e-05,-0.00271103,0.00374542,-0.00199325,-0.618532,0.00336431,0.00939891,608,1219,-21.6103,-2.64175
-609,-195,-21.6057,3.04321,0.000167951,-0.000302844,-0.0017481,0.00169643,-0.00183133,-0.718471,0.00203725,0.0169763,615,1219,-21.6057,-3.04325
-602,-195,-21.6426,3.40759,-0.00101693,-0.000578544,-0.0012268,0.00044849,-0.00204397,-0.873801,0.00153415,0.0216386,622,1219,-21.6426,-3.40761
-595,-195,-21.6719,3.77673,-0.00140519,-0.00115622,-0.00134753,7.25673e-05,-0.00263397,-0.831458,0.00178066,0.0158875,629,1219,-21.6719,-3.77674
-588,-195,-21.6866,4.14929,-0.000841861,-0.00193197,-0.00171922,0.000416633,-0.00319046,-0.631892,0.00227859,0.0157296,636,1219,-21.6866,-4.14934
-581,-195,-21.7441,4.40637,-0.000278001,-0.00244862,-0.00196938,0.000885322,-0.00361195,-0.533557,0.00275097,0.0257517,643,1219,-21.7441,-4.40634
-574,-195,-22.4252,4.22266,0,0,0,0,0,0,0,-1,650,1219,-22.4252,-4.22265
-567,-195,-20.6388,3.78369,0,0,0,0,0,0,0,-1,657,1219,-20.6388,-3.78369
-560,-195,-20.878,2.10388,0,0,0,0,0,0,0,-1,664,1219,-20.878,-2.10385
-553,-195,-28.6934,1.07166,0,0,0,0,0,0,0,-1,671,1219,-28.6934,-1.07165
-546,-195,-28.6118,0.956177,-0.000685851,-0.00366147,-0.0011045,-0.000320693,-0.00402663,-0.319298,0.00258417,0.0495788,678,1219,-28.6118,-0.956218
-539,-195,-28.6162,0.846924,-0.000921723,-0.00386754,-0.000833274,-0.000702353,-0.00408691,-0.257421,0.00252329,0.0401404,685,1219,-28.6162,-0.846931
-532,-195,-28.5553,0.599487,-0.00161202,-0.00368623,-0.000367197,-0.00154893,-0.00374932,-0.170143,0.00217553,0.0365869,692,1219,-28.5553,-0.599427
-525,-195,-28.5771,0.585327,-0.002646,-0.00300769,0.000374971,-0.00241054,-0.00324315,0.560712,0.0019449,0.0406521,699,1219,-28.5771,-0.585318
-518,-195,-28.5873,0.607178,-0.0041263,-0.00175454,0.00154663,-0.000991474,-0.00488936,1.11247,0.00298449,0.0418611,706,1219,-28.5873,-0.607163
-511,-195,-28.5574,0.541992,-0.00384174,0.000982058,0.00375996,0.00303721,-0.0058969,1.07058,0.00524545,0.0410956,713,1219,-28.5574,-0.541984
-504,-195,0,0,0,0,0,0,0,0,0,-1,720,1219,0,0
-497,-195,0,0,0,0,0,0,0,0,0,-1,727,1219,0,0
-490,-195,0,0,0,0,0,0,0,0,0,-1,734,1219,0,0
-483,-195,0,0,0,0,0,0,0,0,0,-1,741,1219,0,0
-476,-195,0,0,0,0,0,0,0,0,0,-1,748,1219,0,0
-469,-195,0,0,0,0,0,0,0,0,0,-1,755,1219,0,0
-462,-195,0,0,0,0,0,0,0,0,0,-1,762,1219,0,0
-455,-195,0,0,0,0,0,0,0,0,0,-1,769,1219,0,0
-448,-195,0,0,0,0,0,0,0,0,0,-1,776,1219,0,0
-441,-195,0,0,0,0,0,0,0,0,0,-1,783,1219,0,0
-434,-195,0,0,0,0,0,0,0,0,0,-1,790,1219,0,0
-427,-195,0,0,0,0,0,0,0,0,0,-1,797,1219,0,0
-420,-195,0,0,0,0,0,0,0,0,0,-1,804,1219,0,0
-413,-195,0,0,0,0,0,0,0,0,0,-1,811,1219,0,0
-406,-195,0,0,0,0,0,0,0,0,0,-1,818,1219,0,0
-399,-195,0,0,0,0,0,0,0,0,0,-1,825,1219,0,0
-392,-195,0,0,0,0,0,0,0,0,0,-1,832,1219,0,0
-385,-195,0,0,0,0,0,0,0,0,0,-1,839,1219,0,0
-378,-195,0,0,0,0,0,0,0,0,0,-1,846,1219,0,0
-371,-195,0,0,0,0,0,0,0,0,0,-1,853,1219,0,0
-364,-195,0,0,0,0,0,0,0,0,0,-1,860,1219,0,0
-357,-195,0,0,0,0,0,0,0,0,0,-1,867,1219,0,0
-350,-195,0,0,0,0,0,0,0,0,0,-1,874,1219,0,0
-343,-195,0,0,0,0,0,0,0,0,0,-1,881,1219,0,0
-336,-195,0,0,0,0,0,0,0,0,0,-1,888,1219,0,0
-329,-195,0,0,0,0,0,0,0,0,0,-1,895,1219,0,0
-322,-195,0,0,0,0,0,0,0,0,0,-1,902,1219,0,0
-315,-195,0,0,0,0,0,0,0,0,0,-1,909,1219,0,0
-308,-195,0,0,0,0,0,0,0,0,0,-1,916,1219,0,0
-301,-195,0,0,0,0,0,0,0,0,0,-1,923,1219,0,0
-294,-195,0,0,0,0,0,0,0,0,0,-1,930,1219,0,0
-287,-195,0,0,0,0,0,0,0,0,0,-1,937,1219,0,0
-280,-195,0,0,0,0,0,0,0,0,0,-1,944,1219,0,0
-273,-195,0,0,0,0,0,0,0,0,0,-1,951,1219,0,0
-266,-195,0,0,0,0,0,0,0,0,0,-1,958,1219,0,0
-259,-195,0,0,0,0,0,0,0,0,0,-1,965,1219,0,0
-252,-195,0,0,0,0,0,0,0,0,0,-1,972,1219,0,0
-245,-195,0,0,0,0,0,0,0,0,0,-1,979,1219,0,0
-238,-195,0,0,0,0,0,0,0,0,0,-1,986,1219,0,0
-231,-195,0,0,0,0,0,0,0,0,0,-1,993,1219,0,0
-224,-195,0,0,0,0,0,0,0,0,0,-1,1000,1219,0,0
-217,-195,0,0,0,0,0,0,0,0,0,-1,1007,1219,0,0
-210,-195,0,0,0,0,0,0,0,0,0,-1,1014,1219,0,0
-203,-195,0,0,0,0,0,0,0,0,0,-1,1021,1219,0,0
-196,-195,0,0,0,0,0,0,0,0,0,-1,1028,1219,0,0
-189,-195,0,0,0,0,0,0,0,0,0,-1,1035,1219,0,0
-182,-195,0,0,0,0,0,0,0,0,0,-1,1042,1219,0,0
-175,-195,0,0,0,0,0,0,0,0,0,-1,1049,1219,0,0
-168,-195,0,0,0,0,0,0,0,0,0,-1,1056,1219,0,0
-161,-195,0,0,0,0,0,0,0,0,0,-1,1063,1219,0,0
-154,-195,0,0,0,0,0,0,0,0,0,-1,1070,1219,0,0
-147,-195,0,0,0,0,0,0,0,0,0,-1,1077,1219,0,0
-140,-195,0,0,0,0,0,0,0,0,0,-1,1084,1219,0,0
-133,-195,0,0,0,0,0,0,0,0,0,-1,1091,1219,0,0
-126,-195,0,0,0,0,0,0,0,0,0,-1,1098,1219,0,0
-119,-195,0,0,0,0,0,0,0,0,0,-1,1105,1219,0,0
-112,-195,0,0,0,0,0,0,0,0,0,-1,1112,1219,0,0
-105,-195,0,0,0,0,0,0,0,0,0,-1,1119,1219,0,0
-98,-195,0,0,0,0,0,0,0,0,0,-1,1126,1219,0,0
-91,-195,0,0,0,0,0,0,0,0,0,-1,1133,1219,0,0
-84,-195,0,0,0,0,0,0,0,0,0,-1,1140,1219,0,0
-77,-195,0,0,0,0,0,0,0,0,0,-1,1147,1219,0,0
-70,-195,0,0,0,0,0,0,0,0,0,-1,1154,1219,0,0
-63,-195,0,0,0,0,0,0,0,0,0,-1,1161,1219,0,0
-56,-195,0,0,0,0,0,0,0,0,0,-1,1168,1219,0,0
-49,-195,0,0,0,0,0,0,0,0,0,-1,1175,1219,0,0
-42,-195,0,0,0,0,0,0,0,0,0,-1,1182,1219,0,0
-35,-195,0,0,0,0,0,0,0,0,0,-1,1189,1219,0,0
-28,-195,0,0,0,0,0,0,0,0,0,-1,1196,1219,0,0
-21,-195,0,0,0,0,0,0,0,0,0,-1,1203,1219,0,0
-14,-195,0,0,0,0,0,0,0,0,0,-1,1210,1219,0,0
-7,-195,0,0,0,0,0,0,0,0,0,-1,1217,1219,0,0
0,-195,0,0,0,0,0,0,0,0,0,-1,1224,1219,0,0
7,-195,0,0,0,0,0,0,0,0,0,-1,1231,1219,0,0
14,-195,0,0,0,0,0,0,0,0,0,-1,1238,1219,0,0
21,-195,0,0,0,0,0,0,0,0,0,-1,1245,1219,0,0
28,-195,0,0,0,0,0,0,0,0,0,-1,1252,1219,0,0
35,-195,0,0,0,0,0,0,0,0,0,-1,1259,1219,0,0
42,-195,0,0,0,0,0,0,0,0,0,-1,1266,1219,0,0
49,-195,0,0,0,0,0,0,0,0,0,-1,1273,1219,0,0
56,-195,0,0,0,0,0,0,0,0,0,-1,1280,1219,0,0
63,-195,0,0,0,0,0,0,0,0,0,-1,1287,1219,0,0
70,-195,0,0,0,0,0,0,0,0,0,-1,1294,1219,0,0
77,-195,0,0,0,0,0,0,0,0,0,-1,1301,1219,0,0
84,-195,0,0,0,0,0,0,0,0,0,-1,1308,1219,0,0
91,-195,0,0,0,0,0,0,0,0,0,-1,1315,1219,0,0
98,-195,0,0,0,0,0,0,0,0,0,-1,1322,1219,0,0
105,-195,0,0,0,0,0,0,0,0,0,-1,1329,1219,0,0
112,-195,0,0,0,0,0,0,0,0,0,-1,1336,1219,0,0
119,-195,0,0,0,0,0,0,0,0,0,-1,1343,1219,0,0
126,-195,0,0,0,0,0,0,0,0,0,-1,1350,1219,0,0
133,-195,0,0,0,0,0,0,0,0,0,-1,1357,1219,0,0
140,-195,0,0,0,0,0,0,0,0,0,-1,1364,1219,0,0
147,-195,0,0,0,0,0,0,0,0,0,-1,1371,1219,0,0
154,-195,0,0,0,0,0,0,0,0,0,-1,1378,1219,0,0
161,-195,0,0,0,0,0,0,0,0,0,-1,1385,1219,0,0
168,-195,0,0,0,0,0,0,0,0,0,-1,1392,1219,0,0
175,-195,0,0,0,0,0,0,0,0,0,-1,1399,1219,0,0
182,-195,0,0,0,0,0,0,0,0,0,-1,1406,1219,0,0
189,-195,0,0,0,0,0,0,0,0,0,-1,1413,1219,0,0
196,-195,0,0,0,0,0,0,0,0,0,-1,1420,1219,0,0
203,-195,0,0,0,0,0,0,0,0,0,-1,1427,1219,0,0
210,-195,0,0,0,0,0,0,0,0,0,-1,1434,1219,0,0
217,-195,0,0,0,0,0,0,0,0,0,-1,1441,1219,0,0
224,-195,0,0,0,0,0,0,0,0,0,-1,1448,1219,0,0
231,-195,0,0,0,0,0,0,0,0,0,-1,1455,1219,0,0
238,-195,0,0,0,0,0,0,0,0,0,-1,1462,1219,0,0
245,-195,0,0,0,0,0,0,0,0,0,-1,1469,1219,0,0
252,-195,0,0,0,0,0,0,0,0,0,-1,1476,1219,0,0
259,-195,0,0,0,0,0,0,0,0,0,-1,1483,1219,0,0
266,-195,0,0,0,0,0,0,0,0,0,-1,1490,1219,0,0
273,-195,0,0,0,0,0,0,0,0,0,-1,1497,1219,0,0
280,-195,0,0,0,0,0,0,0,0,0,-1,1504,1219,0,0
287,-195,0,0,0,0,0,0,0,0,0,-1,1511,1219,0,0
294,-195,0,0,0,0,0,0,0,0,0,-1,1518,1219,0,0
301,-195,0,0,0,0,0,0,0,0,0,-1,1525,1219,0,0
308,-195,0,0,0,0,0,0,0,0,0,-1,1532,1219,0,0
315,-195,0,0,0,0,0,0,0,0,0,-1,1539,1219,0,0
322,-195,0,0,0,0,0,0,0,0,0,-1,1546,1219,0,0
329,-195,0,0,0,0,0,0,0,0,0,-1,1553,1219,0,0
336,-195,0,0,0,0,0,0,0,0,0,-1,1560,1219,0,0
343,-195,0,0,0,0,0,0,0,0,0,-1,1567,1219,0,0
350,-195,0,0,0,0,0,0,0,0,0,-1,1574,1219,0,0
357,-195,0,0,0,0,0,0,0,0,0,-1,1581,1219,0,0
364,-195,0,0,0,0,0,0,0,0,0,-1,1588,1219,0,0
371,-195,0,0,0,0,0,0,0,0,0,-1,1595,1219,0,0
378,-195,0,0,0,0,0,0,0,0,0,-1,1602,1219,0,0
385,-195,0,0,0,0,0,0,0,0,0,-1,1609,1219,0,0
392,-195,0,0,0,0,0,0,0,0,0,-1,1616,1219,0,0
399,-195,0,0,0,0,0,0,0,0,0,-1,1623,1219,0,0
406,-195,0,0,0,0,0,0,0,0,0,-1,1630,1219,0,0
413,-195,0,0,0,0,0,0,0,0,0,-1,1637,1219,0,0
420,-195,0,0,0,0,0,0,0,0,0,-1,1644,1219,0,0
427,-195,0,0,0,0,0,0,0,0,0,-1,1651,1219,0,0
434,-195,0,0,0,0,0,0,0,0,0,-1,1658,1219,0,0
441,-195,0,0,0,0,0,0,0,0,0,-1,1665,1219,0,0
448,-195,0,0,0,0,0,0,0,0,0,-1,1672,1219,0,0
455,-195,0,0,0,0,0,0,0,0,0,-1,1679,1219,0,0
462,-195,0,0,0,0,0,0,0,0,0,-1,1686,1219,0,0
469,-195,0,0,0,0,0,0,0,0,0,-1,1693,1219,0,0
476,-195,0,0,0,0,0,0,0,0,0,-1,1700,1219,0,0
483,-195,0,0,0,0,0,0,0,0,0,-1,1707,1219,0,0
490,-195,0,0,0,0,0,0,0,0,0,-1,1714,1219,0,0
497,-195,0,0,0,0,0,0,0,0,0,-1,1721,1219,0,0
504,-195,0,0,0,0,0,0,0,0,0,-1,1728,1219,0,0
511,-195,0,0,0,0,0,0,0,0,0,-1,1735,1219,0,0
518,-195,0,0,0,0,0,0,0,0,0,-1,1742,1219,0,0
525,-195,0,0,0,0,0,0,0,0,0,-1,1749,1219,0,0
532,-195,0,0,0,0,0,0,0,0,0,-1,1756,1219,0,0
539,-195,0,0,0,0,0,0,0,0,0,-1,1763,1219,0,0
546,-195,0,0,0,0,0,0,0,0,0,-1,1770,1219,0,0
553,-195,0,0,0,0,0,0,0,0,0,-1,1777,1219,0,0
560,-195,0,0,0,0,0,0,0,0,0,-1,1784,1219,0,0
567,-195,0,0,0,0,0,0,0,0,0,-1,1791,1219,0,0
574,-195,0,0,0,0,0,0,0,0,0,-1,1798,1219,0,0
581,-195,0,0,0,0,0,0,0,0,0,-1,1805,1219,0,0
588,-195,0,0,0,0,0,0,0,0,0,-1,1812,1219,0,0
595,-195,0,0,0,0,0,0,0,0,0,-1,1819,1219,0,0
602,-195,0,0,0,0,0,0,0,0,0,-1,1826,1219,0,0
609,-195,0,0,0,0,0,0,0,0,0,-1,1833,1219,0,0
616,-195,0,0,0,0,0,0,0,0,0,-1,1840,1219,0,0
623,-195,0,0,0,0,0,0,0,0,0,-1,1847,1219,0,0
630,-195,39.3771,2.14282,-0.000550694,-0.00140964,0.00438418,0.003425,-0.00538533,0.736574,0.00512845,0.0421608,1854,1219,39.3771,-2.14282
637,-195,39.3779,2.38245,-0.000294289,-0.00107997,0.00297957,0.00231822,-0.00369248,0.719854,0.00350038,0.0400777,1861,1219,39.3779,-2.38242
644,-195,39.3352,2.71509,4.44724e-05,-0.000673179,0.00193163,0.00165032,-0.00227903,0.693563,0.00227827,0.0363961,1868,1219,39.3352,-2.71503
651,-195,39.3591,2.68909,0.000535291,-0.000469586,0.00126373,0.0013928,-0.00132709,0.596187,0.00157048,0.0284015,1875,1219,39.3591,-2.68911
658,-195,39.3871,2.63416,0.00111573,-0.000587234,0.000847729,0.00146578,-0.000937278,0.391594,0.00139854,0.0254039,1882,1219,39.3871,-2.63418
665,-195,39.4026,2.60571,0.00139111,-0.000909887,0.000841236,0.00166585,-0.00118463,0.315678,0.00165353,0.0237591,1889,1219,39.4026,-2.60571
672,-195,39.4215,2.45227,0.00133641,-0.00135862,0.00101231,0.0016743,-0.00169651,0.322148,0.00194615,0.0357622,1896,1219,39.4215,-2.45229
679,-195,39.4207,2.4563,0.000872009,-0.00159072,0.00125111,0.00139607,-0.00211478,0.396675,0.0020411,0.047161,1903,1219,39.4206,-2.45635
686,-195,39.4623,2.43774,0,0,0,0,0,0,0,-1,1910,1219,39.4622,-2.4377
693,-195,24.4368,5.68298,0,0,0,0,0,0,0,-1,1917,1219,24.4368,-5.68293
700,-195,32.881,7.74927,0,0,0,0,0,0,0,-1,1924,1219,32.8809,-7.74926
707,-195,32.9211,7.31213,-0.000493046,-0.0018129,0.00202273,0.000974688,-0.00328064,0.627715,0.00257425,0.0313988,1931,1219,32.9212,-7.31214
714,-195,32.9186,6.80823,-0.00101167,-0.00174255,0.00232123,0.000972713,-0.00372693,0.707322,0.00286445,0.0350089,1938,1219,32.9185,-6.80823
721,-195,32.9081,6.52832,-0.00143177,-0.0017064,0.0024833,0.000918015,-0.00405618,0.757778,0.00305643,0.0166072,1945,1219,32.908,-6.52827
728,-195,32.8949,6.22156,-0.00131284,-0.00153671,0.00274615,0.00132365,-0.0041732,0.765029,0.0033127,0.010737,1952,1219,32.8949,-6.22156
735,-195,32.869,5.85266,-0.000575332,-0.00097063,0.00268743,0.0019217,-0.00346767,0.748691,0.00315394,0.0133996,1959,1219,32.8691,-5.85265
742,-195,32.8705,5.53296,0.00146911,-0.000521464,0.00282825,0.00347209,-0.00252444,0.616211,0.00347648,0.015193,1966,1219,32.8704,-5.533
749,-195,32.8652,5.2218,0.00467819,6.52708e-05,0.00290312,0.00607954,-0.00133608,0.449717,0.00456405,0.0142782,1973,1219,32.8653,-5.22176
756,-195,32.8556,4.87085,0.00896229,0.000587812,0.0030758,0.00997058,-0.000420478,0.316775,0.00679155,0.0135215,1980,1219,32.8556,-4.87087
763,-195,32.8691,4.55884,0.0147789,0.000913538,0.00334251,0.0155426,0.000149832,0.224627,0.0103122,0.016482,1987,1219,32.8692,-4.55889
770,-195,32.9241,4.23206,0.0223957,0.00101491,0.00386988,0.0230746,0.000336027,0.173661,0.0152723,0.0304965,1994,1219,32.924,-4.23205
777,-195,33.0212,3.90967,0,0,0,0,0,0,0,-1,2001,1219,33.0213,-3.90971
784,-195,35.6512,-2.25378,0,0,0,0,0,0,0,-1,2008,1219,35.6512,2.25374
791,-195,36.4685,1.2085,0,0,0,0,0,0,0,-1,2015,1219,36.4686,-1.20845
798,-195,36.1682,3.30457,0,0,0,0,0,0,0,-1,2022,1219,36.1683,-3.3046
805,-195,0,0,0,0,0,0,0,0,0,-1,2029,1219,0,0
812,-195,0,0,0,0,0,0,0,0,0,-1,2036,1219,0,0
-700,-202,0,0,0,0,0,0,0,0,0,-1,524,1226,0,0
-693,-202,0,0,0,0,0,0,0,0,0,-1,531,1226,0,0
-686,-202,0,0,0,0,0,0,0,0,0,-1,538,1226,0,0
-679,-202,-12.0141,1.06641,0,0,0,0,0,0,0,-1,545,1226,-12.0141,-1.06635
-672,-202,-22.7334,-2.74207,0,0,0,0,0,0,0,-1,552,1226,-22.7334,2.74205
-665,-202,-22.3343,0.986084,0,0,0,0,0,0,0,-1,559,1226,-22.3343,-0.986029
-658,-202,-21.7206,1.35229,0,0,0,0,0,0,0,-1,566,1226,-21.7206,-1.3523
-651,-202,-21.2636,0.196045,0,0,0,0,0,0,0,-1,573,1226,-21.2636,-0.196028
-644,-202,-20.9449,0.96582,0.0151784,-0.0043811,-0.0178575,0.0257587,-0.0149615,-0.534878,0.0237837,0.0491981,580,1226,-20.9449,-0.965823
-637,-202,-21.061,1.46875,0.0113709,-0.0028513,-0.0115768,0.0178463,-0.00932661,-0.509981,0.0159432,0.0351384,587,1226,-21.061,-1.4688
-630,-202,-21.1966,1.88745,0.00869287,-0.00155436,-0.00669694,0.0120014,-0.00486285,-0.45886,0.0100231,0.0152014,594,1226,-21.1966,-1.88745
-623,-202,-21.2233,2.25647,0.00563757,-0.00101639,-0.0037225,0.00730317,-0.00268199,-0.420723,0.00596718,0.00855934,601,1226,-21.2232,-2.25645
-616,-202,-21.2403,2.62939,0.00317854,-0.000680511,-0.00227293,0.0042305,-0.00173247,-0.433466,0.00354199,0.00811625,608,1226,-21.2403,-2.62941
-609,-202,-21.2473,3.0166,0.00145455,-0.000582945,-0.00140908,0.00217458,-0.00130298,-0.472404,0.00202868,0.0201737,615,1226,-21.2473,-3.0166
-602,-202,-21.292,3.36096,0.000136997,-0.000649881,-0.000854831,0.000684585,-0.00119747,-0.569724,0.00109997,0.0211615,622,1226,-21.292,-3.36102
-595,-202,-21.3199,3.7594,-0.000279616,-0.00120044,-0.00086382,0.000238831,-0.00171888,-0.540552,0.00123327,0.0155358,629,1226,-21.3199,-3.75936
-588,-202,-21.2405,4.17456,0.000342709,-0.00203684,-0.00116862,0.000820638,-0.00251477,-0.388214,0.00200679,0.0110102,636,1226,-21.2405,-4.17452
-581,-202,-21.1979,4.42053,0.000888463,-0.00265103,-0.00147433,0.00142212,-0.00318468,-0.347292,0.00272385,0.0362519,643,1226,-21.1979,-4.42052
-574,-202,-21.6061,4.50256,0.000941024,-0.00299332,-0.00134797,0.00135855,-0.00341085,-0.300373,0.00283732,0.0469861,650,1226,-21.6061,-4.50252
-567,-202,-21.9764,4.64514,0,0,0,0,0,0,0,-1,657,1226,-21.9765,-4.64514
-560,-202,-10.929,2.73096,0,0,0,0,0,0,0,-1,664,1226,-10.929,-2.73092
-553,-202,-27.9847,0.0828857,0,0,0,0,0,0,0,-1,671,1226,-27.9847,-0.0828551
-546,-202,-28.7367,1.0542,0,0,0,0,0,0,0,-1,678,1226,-28.7367,-1.05415
-539,-202,-28.6412,0.955688,-0.000708585,-0.00442925,-0.000551221,-0.000628639,-0.0045092,-0.14403,0.00282004,0.0428296,685,1226,-28.6412,-0.955695
-532,-202,-28.6265,0.822632,-0.00157138,-0.00448311,-0.000336876,-0.00153291,-0.00452158,-0.113695,0.00265525,0.0309338,692,1226,-28.6265,-0.822614
-525,-202,-28.666,0.891357,-0.00271547,-0.00421593,-7.43405e-05,-0.00271179,-0.0042196,-0.0493838,0.00246902,0.0354157,699,1226,-28.666,-0.891388
-518,-202,-28.6454,0.802368,-0.00425301,-0.00345297,0.000325406,-0.00333733,-0.00436865,1.22934,0.00263677,0.0400585,706,1226,-28.6454,-0.802309
-511,-202,-28.6558,0.679688,-0.00416152,-0.00128129,0.00159027,-0.000575973,-0.00486684,1.15334,0.00307063,0.0416931,713,1226,-28.6558,-0.679693
-504,-202,0,0,0,0,0,0,0,0,0,-1,720,1226,0,0
-497,-202,0,0,0,0,0,0,0,0,0,-1,727,1226,0,0
-490,-202,0,0,0,0,0,0,0,0,0,-1,734,1226,0,0
-483,-202,0,0,0,0,0,0,0,0,0,-1,741,1226,0,0
-476,-202,0,0,0,0,0,0,0,0,0,-1,748,1226,0,0
-469,-202,0,0,0,0,0,0,0,0,0,-1,755,1226,0,0
-462,-202,0,0,0,0,0,0,0,0,0,-1,762,1226,0,0
-455,-202,0,0,0,0,0,0,0,0,0,-1,769,1226,0,0
-448,-202,0,0,0,0,0,0,0,0,0,-1,776,1226,0,0
-441,-202,0,0,0,0,0,0,0,0,0,-1,783,1226,0,0
-434,-202,0,0,0,0,0,0,0,0,0,-1,790,1226,0,0
-427,-202,0,0,0,0,0,0,0,0,0,-1,797,1226,0,0
-420,-202,0,0,0,0,0,0,0,0,0,-1,804,1226,0,0
-413,-202,0,0,0,0,0,0,0,0,0,-1,811,1226,0,0
-406,-202,0,0,0,0,0,0,0,0,0,-1,818,1226,0,0
-399,-202,0,0,0,0,0,0,0,0,0,-1,825,1226,0,0
-392,-202,0,0,0,0,0,0,0,0,0,-1,832,1226,0,0
-385,-202,0,0,0,0,0,0,0,0,0,-1,839,1226,0,0
-378,-202,0,0,0,0,0,0,0,0,0,-1,846,1226,0,0
-371,-202,0,0,0,0,0,0,0,0,0,-1,853,1226,0,0
-364,-202,0,0,0,0,0,0,0,0,0,-1,860,1226,0,0
-357,-202,0,0,0,0,0,0,0,0,0,-1,867,1226,0,0
-350,-202,0,0,0,0,0,0,0,0,0,-1,874,1226,0,0
-343,-202,0,0,0,0,0,0,0,0,0,-1,881,1226,0,0
-336,-202,0,0,0,0,0,0,0,0,0,-1,888,1226,0,0
-329,-202,0,0,0,0,0,0,0,0,0,-1,895,1226,0,0
-322,-202,0,0,0,0,0,0,0,0,0,-1,902,1226,0,0
-315,-202,0,0,0,0,0,0,0,0,0,-1,909,1226,0,0
-308,-202,0,0,0,0,0,0,0,0,0,-1,916,1226,0,0
-301,-202,0,0,0,0,0,0,0,0,0,-1,923,1226,0,0
-294,-202,0,0,0,0,0,0,0,0,0,-1,930,1226,0,0
-287,-202,0,0,0,0,0,0,0,0,0,-1,937,1226,0,0
-280,-202,0,0,0,0,0,0,0,0,0,-1,944,1226,0,0
-273,-202,0,0,0,0,0,0,0,0,0,-1,951,1226,0,0
-266,-202,0,0,0,0,0,0,0,0,0,-1,958,1226,0,0
-259,-202,0,0,0,0,0,0,0,0,0,-1,965,1226,0,0
-252,-202,0,0,0,0,0,0,0,0,0,-1,972,1226,0,0
-245,-202,0,0,0,0,0,0,0,0,0,-1,979,1226,0,0
-238,-202,0,0,0,0,0,0,0,0,0,-1,986,1226,0,0
-231,-202,0,0,0,0,0,0,0,0,0,-1,993,1226,0,0
-224,-202,0,0,0,0,0,0,0,0,0,-1,1000,1226,0,0
-217,-202,0,0,0,0,0,0,0,0,0,-1,1007,1226,0,0
-210,-202,0,0,0,0,0,0,0,0,0,-1,1014,1226,0,0
-203,-202,0,0,0,0,0,0,0,0,0,-1,1021,1226,0,0
-196,-202,0,0,0,0,0,0,0,0,0,-1,1028,1226,0,0
-189,-202,0,0,0,0,0,0,0,0,0,-1,1035,1226,0,0
-182,-202,0,0,0,0,0,0,0,0,0,-1,1042,1226,0,0
-175,-202,0,0,0,0,0,0,0,0,0,-1,1049,1226,0,0
-168,-202,0,0,0,0,0,0,0,0,0,-1,1056,1226,0,0
-161,-202,0,0,0,0,0,0,0,0,0,-1,1063,1226,0,0
-154,-202,0,0,0,0,0,0,0,0,0,-1,1070,1226,0,0
-147,-202,0,0,0,0,0,0,0,0,0,-1,1077,1226,0,0
-140,-202,0,0,0,0,0,0,0,0,0,-1,1084,1226,0,0
-133,-202,0,0,0,0,0,0,0,0,0,-1,1091,1226,0,0
-126,-202,0,0,0,0,0,0,0,0,0,-1,1098,1226,0,0
-119,-202,0,0,0,0,0,0,0,0,0,-1,1105,1226,0,0
-112,-202,0,0,0,0,0,0,0,0,0,-1,1112,1226,0,0
-105,-202,0,0,0,0,0,0,0,0,0,-1,1119,1226,0,0
-98,-202,0,0,0,0,0,0,0,0,0,-1,1126,1226,0,0
-91,-202,0,0,0,0,0,0,0,0,0,-1,1133,1226,0,0
-84,-202,0,0,0,0,0,0,0,0,0,-1,1140,1226,0,0
-77,-202,0,0,0,0,0,0,0,0,0,-1,1147,1226,0,0
-70,-202,0,0,0,0,0,0,0,0,0,-1,1154,1226,0,0
-63,-202,0,0,0,0,0,0,0,0,0,-1,1161,1226,0,0
-56,-202,0,0,0,0,0,0,0,0,0,-1,1168,1226,0,0
-49,-202,0,0,0,0,0,0,0,0,0,-1,1175,1226,0,0
-42,-202,0,0,0,0,0,0,0,0,0,-1,1182,1226,0,0
-35,-202,0,0,0,0,0,0,0,0,0,-1,1189,1226,0,0
-28,-202,0,0,0,0,0,0,0,0,0,-1,1196,1226,0,0
-21,-202,0,0,0,0,0,0,0,0,0,-1,1203,1226,0,0
-14,-202,0,0,0,0,0,0,0,0,0,-1,1210,1226,0,0
-7,-202,0,0,0,0,0,0,0,0,0,-1,1217,1226,0,0
0,-202,0,0,0,0,0,0,0,0,0,-1,1224,1226,0,0
7,-202,0,0,0,0,0,0,0,0,0,-1,1231,1226,0,0
14,-202,0,0,0,0,0,0,0,0,0,-1,1238,1226,0,0
21,-202,0,0,0,0,0,0,0,0,0,-1,1245,1226,0,0
28,-202,0,0,0,0,0,0,0,0,0,-1,1252,1226,0,0
35,-202,0,0,0,0,0,0,0,0,0,-1,1259,1226,0,0
42,-202,0,0,0,0,0,0,0,0,0,-1,1266,1226,0,0
49,-202,0,0,0,0,0,0,0,0,0,-1,1273,1226,0,0
56,-202,0,0,0,0,0,0,0,0,0,-1,1280,1226,0,0
63,-202,0,0,0,0,0,0,0,0,0,-1,1287,1226,0,0
70,-202,0,0,0,0,0,0,0,0,0,-1,1294,1226,0,0
77,-202,0,0,0,0,0,0,0,0,0,-1,1301,1226,0,0
84,-202,0,0,0,0,0,0,0,0,0,-1,1308,1226,0,0
91,-202,0,0,0,0,0,0,0,0,0,-1,1315,1226,0,0
98,-202,0,0,0,0,0,0,0,0,0,-1,1322,1226,0,0
105,-202,0,0,0,0,0,0,0,0,0,-1,1329,1226,0,0
112,-202,0,0,0,0,0,0,0,0,0,-1,1336,1226,0,0
119,-202,0,0,0,0,0,0,0,0,0,-1,1343,1226,0,0
126,-202,0,0,0,0,0,0,0,0,0,-1,1350,1226,0,0
133,-202,0,0,0,0,0,0,0,0,0,-1,1357,1226,0,0
140,-202,0,0,0,0,0,0,0,0,0,-1,1364,1226,0,0
147,-202,0,0,0,0,0,0,0,0,0,-1,1371,1226,0,0
154,-202,0,0,0,0,0,0,0,0,0,-1,1378,1226,0,0
161,-202,0,0,0,0,0,0,0,0,0,-1,1385,1226,0,0
168,-202,0,0,0,0,0,0,0,0,0,-1,1392,1226,0,0
175,-202,0,0,0,0,0,0,0,0,0,-1,1399,1226,0,0
182,-202,0,0,0,0,0,0,0,0,0,-1,1406,1226,0,0
189,-202,0,0,0,0,0,0,0,0,0,-1,1413,1226,0,0
196,-202,0,0,0,0,0,0,0,0,0,-1,1420,1226,0,0
203,-202,0,0,0,0,0,0,0,0,0,-1,1427,1226,0,0
210,-202,0,0,0,0,0,0,0,0,0,-1,1434,1226,0,0
217,-202,0,0,0,0,0,0,0,0,0,-1,1441,1226,0,0
224,-202,0,0,0,0,0,0,0,0,0,-1,1448,1226,0,0
231,-202,0,0,0,0,0,0,0,0,0,-1,1455,1226,0,0
238,-202,0,0,0,0,0,0,0,0,0,-1,1462,1226,0,0
245,-202,0,0,0,0,0,0,0,0,0,-1,1469,1226,0,0
252,-202,0,0,0,0,0,0,0,0,0,-1,1476,1226,0,0
259,-202,0,0,0,0,0,0,0,0,0,-1,1483,1226,0,0
266,-202,0,0,0,0,0,0,0,0,0,-1,1490,1226,0,0
273,-202,0,0,0,0,0,0,0,0,0,-1,1497,1226,0,0
280,-202,0,0,0,0,0,0,0,0,0,-1,1504,1226,0,0
287,-202,0,0,0,0,0,0,0,0,0,-1,1511,1226,0,0
294,-202,0,0,0,0,0,0,0,0,0,-1,1518,1226,0,0
301,-202,0,0,0,0,0,0,0,0,0,-1,1525,1226,0,0
308,-202,0,0,0,0,0,0,0,0,0,-1,1532,1226,0,0
315,-202,0,0,0,0,0,0,0,0,0,-1,1539,1226,0,0
322,-202,0,0,0,0,0,0,0,0,0,-1,1546,1226,0,0
329,-202,0,0,0,0,0,0,0,0,0,-1,1553,1226,0,0
336,-202,0,0,0,0,0,0,0,0,0,-1,1560,1226,0,0
343,-202,0,0,0,0,0,0,0,0,0,-1,1567,1226,0,0
350,-202,0,0,0,0,0,0,0,0,0,-1,1574,1226,0,0
357,-202,0,0,0,0,0,0,0,0,0,-1,1581,1226,0,0
364,-202,0,0,0,0,0,0,0,0,0,-1,1588,1226,0,0
371,-202,0,0,0,0,0,0,0,0,0,-1,1595,1226,0,0
378,-202,0,0,0,0,0,0,0,0,0,-1,1602,1226,0,0
385,-202,0,0,0,0,0,0,0,0,0,-1,1609,1226,0,0
392,-202,0,0,0,0,0,0,0,0,0,-1,1616,1226,0,0
399,-202,0,0,0,0,0,0,0,0,0,-1,1623,1226,0,0
406,-202,0,0,0,0,0,0,0,0,0,-1,1630,1226,0,0
413,-202,0,0,0,0,0,0,0,0,0,-1,1637,1226,0,0
420,-202,0,0,0,0,0,0,0,0,0,-1,1644,1226,0,0
427,-202,0,0,0,0,0,0,0,0,0,-1,1651,1226,0,0
434,-202,0,0,0,0,0,0,0,0,0,-1,1658,1226,0,0
441,-202,0,0,0,0,0,0,0,0,0,-1,1665,1226,0,0
448,-202,0,0,0,0,0,0,0,0,0,-1,1672,1226,0,0
455,-202,0,0,0,0,0,0,0,0,0,-1,1679,1226,0,0
462,-202,0,0,0,0,0,0,0,0,0,-1,1686,1226,0,0
469,-202,0,0,0,0,0,0,0,0,0,-1,1693,1226,0,0
476,-202,0,0,0,0,0,0,0,0,0,-1,1700,1226,0,0
483,-202,0,0,0,0,0,0,0,0,0,-1,1707,1226,0,0
490,-202,0,0,0,0,0,0,0,0,0,-1,1714,1226,0,0
497,-202,0,0,0,0,0,0,0,0,0,-1,1721,1226,0,0
504,-202,0,0,0,0,0,0,0,0,0,-1,1728,1226,0,0
511,-202,0,0,0,0,0,0,0,0,0,-1,1735,1226,0,0
518,-202,0,0,0,0,0,0,0,0,0,-1,1742,1226,0,0
525,-202,0,0,0,0,0,0,0,0,0,-1,1749,1226,0,0
532,-202,0,0,0,0,0,0,0,0,0,-1,1756,1226,0,0
539,-202,0,0,0,0,0,0,0,0,0,-1,1763,1226,0,0
546,-202,0,0,0,0,0,0,0,0,0,-1,1770,1226,0,0
553,-202,0,0,0,0,0,0,0,0,0,-1,1777,1226,0,0
560,-202,0,0,0,0,0,0,0,0,0,-1,1784,1226,0,0
567,-202,0,0,0,0,0,0,0,0,0,-1,1791,1226,0,0
574,-202,0,0,0,0,0,0,0,0,0,-1,1798,1226,0,0
581,-202,0,0,0,0,0,0,0,0,0,-1,1805,1226,0,0
588,-202,0,0,0,0,0,0,0,0,0,-1,1812,1226,0,0
595,-202,0,0,0,0,0,0,0,0,0,-1,1819,1226,0,0
602,-202,0,0,0,0,0,0,0,0,0,-1,1826,1226,0,0
609,-202,0,0,0,0,0,0,0,0,0,-1,1833,1226,0,0
616,-202,0,0,0,0,0,0,0,0,0,-1,1840,1226,0,0
623,-202,0,0,0,0,0,0,0,0,0,-1,1847,1226,0,0
630,-202,39.3638,2.56128,-0.000477892,0.000113854,0.00405147,0.00388024,-0.00424428,0.821848,0.00469226,0.0369803,1854,1226,39.3638,-2.56129
637,-202,39.4999,2.60205,-0.000116682,0.000177739,0.00274025,0.00277473,-0.00271368,0.812233,0.0031688,0.0359364,1861,1226,39.4999,-2.602
644,-202,39.4417,2.72607,0.000273822,0.000245043,0.00183714,0.00209662,-0.00157776,0.781482,0.00212845,0.0341052,1868,1226,39.4417,-2.72607
651,-202,39.4033,2.68555,0.000782674,0.000141808,0.00127787,0.00177967,-0.000855188,0.662553,0.00155214,0.0291081,1875,1226,39.4033,-2.68552
658,-202,39.4347,2.59729,0.00130006,-0.000183547,0.000964205,0.00177479,-0.000658282,0.457516,0.0014532,0.0240415,1882,1226,39.4347,-2.59728
665,-202,39.4622,2.54822,0.00150394,-0.00060586,0.000991284,0.00189661,-0.000998529,0.377158,0.00169811,0.0219441,1889,1226,39.4622,-2.54824
672,-202,39.5212,2.46484,0.00144588,-0.00108738,0.00112154,0.00187105,-0.00151256,0.362361,0.00195718,0.0455561,1896,1226,39.5213,-2.46484
679,-202,39.0885,2.75024,0.00115999,-0.00135977,0.00127018,0.00168915,-0.00188893,0.394734,0.00206688,0.0458617,1903,1226,39.0884,-2.75021
686,-202,38.8961,2.73584,0,0,0,0,0,0,0,-1,1910,1226,38.8961,-2.73587
693,-202,32.3043,8.19385,0,0,0,0,0,0,0,-1,1917,1226,32.3043,-8.19379
700,-202,32.4087,7.68311,0.000497765,-0.00185706,0.00148794,0.00121779,-0.00257708,0.45069,0.00223733,0.0428856,1924,1226,32.4086,-7.68316
707,-202,32.5237,7.11902,0.000109653,-0.00202583,0.0018424,0.00117135,-0.00308753,0.522779,0.00254047,0.0336796,1931,1226,32.5237,-7.11904
714,-202,32.5682,6.76233,-0.000367476,-0.00197691,0.00214876,0.00112231,-0.00346669,0.606231,0.0027623,0.0208305,1938,1226,32.5682,-6.76238
721,-202,32.6016,6.50781,-0.000695978,-0.00188628,0.00225439,0.0010405,-0.00362276,0.656344,0.00282658,0.0134665,1945,1226,32.6015,-6.50779
728,-202,32.5758,6.20825,-0.000453008,-0.00158116,0.00251208,0.00155754,-0.00359171,0.674957,0.00304927,0.0112961,1952,1226,32.5758,-6.20827
735,-202,32.5426,5.87427,0.000346029,-0.000894672,0.00251395,0.00231504,-0.00286368,0.664433,0.00299553,0.0120618,1959,1226,32.5426,-5.87422
742,-202,32.5406,5.54736,0.00220622,-0.000317278,0.00276228,0.00398128,-0.00209233,0.57116,0.00356268,0.0117412,1966,1226,32.5407,-5.54733
749,-202,32.5215,5.20813,0.00503974,0.000349461,0.00299002,0.00649458,-0.00110539,0.452844,0.00474133,0.0119134,1973,1226,32.5215,-5.20809
756,-202,32.5125,4.87415,0.00888866,0.000925622,0.00336465,0.01012,-0.000305667,0.350812,0.0068508,0.0123021,1980,1226,32.5124,-4.87413
763,-202,32.5472,4.59534,0.0144078,0.00132231,0.00383244,0.0154476,0.000282503,0.264939,0.0102055,0.0188827,1987,1226,32.5472,-4.5953
770,-202,32.6056,4.32373,0.0218455,0.00140132,0.00469397,0.0228717,0.0003751,0.215239,0.0151243,0.0459829,1994,1226,32.6056,-4.32372
777,-202,32.6917,4.01733,0,0,0,0,0,0,0,-1,2001,1226,32.6917,-4.01737
784,-202,37.9491,-2.1272,0,0,0,0,0,0,0,-1,2008,1226,37.9491,2.12721
791,-202,37.7061,0.80896,0,0,0,0,0,0,0,-1,2015,1226,37.7061,-0.808939
798,-202,37.677,3.38306,0,0,0,0,0,0,0,-1,2022,1226,37.6769,-3.38311
805,-202,0,0,0,0,0,0,0,0,0,-1,2029,1226,0,0
812,-202,0,0,0,0,0,0,0,0,0,-1,2036,1226,0,0
-700,-209,0,0,0,0,0,0,0,0,0,-1,524,1233,0,0
-693,-209,0,0,0,0,0,0,0,0,0,-1,531,1233,0,0
-686,-209,0,0,0,0,0,0,0,0,0,-1,538,1233,0,0
-679,-209,-22.6071,-0.508545,0,0,0,0,0,0,0,-1,545,1233,-22.6071,0.508601
-672,-209,-22.3393,-2.91553,0,0,0,0,0,0,0,-1,552,1233,-22.3393,2.91552
-665,-209,-22.0096,-2.44873,0,0,0,0,0,0,0,-1,559,1233,-22.0096,2.44874
-658,-209,-21.2943,1.43896,0,0,0,0,0,0,0,-1,566,1233,-21.2943,-1.43894
-651,-209,-20.608,0.299072,0,0,0,0,0,0,0,-1,573,1233,-20.6081,-0.299024
-644,-209,-20.9226,0.654785,0,0,0,0,0,0,0,-1,580,1233,-20.9226,-0.654788
-637,-209,-20.8696,1.22607,0.013856,-0.0041225,-0.00908612,0.0176481,-0.00791466,-0.395379,0.0151111,0.046465,587,1233,-20.8695,-1.22609
-630,-209,-20.7664,1.83545,0.0100543,-0.00255996,-0.00519406,0.0119177,-0.0044234,-0.34446,0.00975968,0.0243137,594,1233,-20.7663,-1.83548
-623,-209,-20.8218,2.24036,0.00650285,-0.00181717,-0.00283944,0.00737952,-0.00269384,-0.299461,0.00602193,0.0120634,601,1233,-20.8219,-2.24036
-616,-209,-20.8453,2.63293,0.00390281,-0.00124414,-0.00174824,0.00444046,-0.00178179,-0.29836,0.00370012,0.0115577,608,1233,-20.8453,-2.6329
-609,-209,-20.873,3.02588,0.00217045,-0.000926846,-0.0010557,0.00249605,-0.00125245,-0.299165,0.00220354,0.0134379,615,1233,-20.873,-3.02586
-602,-209,-20.8784,3.40369,0.00083415,-0.00083771,-0.000514321,0.000979702,-0.000983261,-0.275785,0.00113332,0.0160097,622,1233,-20.8784,-3.40373
-595,-209,-20.8729,3.8064,0.00044587,-0.00127286,-0.000430407,0.000547628,-0.00137462,-0.232161,0.00114353,0.0119878,629,1233,-20.8729,-3.80637
-588,-209,-20.8143,4.19995,0.00117941,-0.00203937,-0.000612253,0.00129194,-0.0021519,-0.181759,0.00200886,0.0145753,636,1233,-20.8143,-4.1999
-581,-209,-20.6201,4.62976,0.001802,-0.00269662,-0.000887394,0.00197072,-0.00286534,-0.187886,0.00280798,0.035887,643,1233,-20.6201,-4.62979
-574,-209,-20.9039,4.96143,0.00187736,-0.00310109,-0.000781892,0.00199727,-0.00322101,-0.152176,0.00304026,0.0415812,650,1233,-20.9039,-4.9614
-567,-209,-21.1219,5.09521,0,0,0,0,0,0,0,-1,657,1233,-21.1219,-5.09516
-560,-209,-13.9294,4.16626,0,0,0,0,0,0,0,-1,664,1233,-13.9294,-4.16621
-553,-209,-22.7542,0.748779,0,0,0,0,0,0,0,-1,671,1233,-22.7541,-0.748796
-546,-209,-29.2456,1.1897,0,0,0,0,0,0,0,-1,678,1233,-29.2456,-1.18975
-539,-209,-28.8927,1.02917,-0.000474433,-0.00452561,-0.000113379,-0.000471263,-0.00452878,-0.0279575,0.00287501,0.0396119,685,1233,-28.8927,-1.02922
-532,-209,-28.5395,0.856567,-0.00150627,-0.00470897,-9.63388e-05,-0.00150338,-0.00471187,-0.0300443,0.00277914,0.032947,692,1233,-28.5395,-0.85661
-525,-209,-28.7036,0.920654,-0.00274715,-0.0047081,-0.00017947,-0.00273086,-0.00472439,-0.0905197,0.00273868,0.0333992,699,1233,-28.7035,-0.920612
-518,-209,-28.8442,1.02185,-0.00430459,-0.00435203,-0.000350943,-0.00397656,-0.00468005,-0.751657,0.00291398,0.0415773,706,1233,-28.8442,-1.02183
-511,-209,-28.9365,1.07117,-0.00449742,-0.00295376,-5.19447e-05,-0.00295202,-0.00449916,-1.5372,0.00263947,0.0433744,713,1233,-28.9365,-1.07119
-504,-209,0,0,0,0,0,0,0,0,0,-1,720,1233,0,0
-497,-209,0,0,0,0,0,0,0,0,0,-1,727,1233,0,0
-490,-209,0,0,0,0,0,0,0,0,0,-1,734,1233,0,0
-483,-209,0,0,0,0,0,0,0,0,0,-1,741,1233,0,0
-476,-209,0,0,0,0,0,0,0,0,0,-1,748,1233,0,0
-469,-209,0,0,0,0,0,0,0,0,0,-1,755,1233,0,0
-462,-209,0,0,0,0,0,0,0,0,0,-1,762,1233,0,0
-455,-209,0,0,0,0,0,0,0,0,0,-1,769,1233,0,0
-448,-209,0,0,0,0,0,0,0,0,0,-1,776,1233,0,0
-441,-209,0,0,0,0,0,0,0,0,0,-1,783,1233,0,0
-434,-209,0,0,0,0,0,0,0,0,0,-1,790,1233,0,0
-427,-209,0,0,0,0,0,0,0,0,0,-1,797,1233,0,0
-420,-209,0,0,0,0,0,0,0,0,0,-1,804,1233,0,0
-413,-209,0,0,0,0,0,0,0,0,0,-1,811,1233,0,0
-406,-209,0,0,0,0,0,0,0,0,0,-1,818,1233,0,0
-399,-209,0,0,0,0,0,0,0,0,0,-1,825,1233,0,0
-392,-209,0,0,0,0,0,0,0,0,0,-1,832,1233,0,0
-385,-209,0,0,0,0,0,0,0,0,0,-1,839,1233,0,0
-378,-209,0,0,0,0,0,0,0,0,0,-1,846,1233,0,0
-371,-209,0,0,0,0,0,0,0,0,0,-1,853,1233,0,0
-364,-209,0,0,0,0,0,0,0,0,0,-1,860,1233,0,0
-357,-209,0,0,0,0,0,0,0,0,0,-1,867,1233,0,0
-350,-209,0,0,0,0,0,0,0,0,0,-1,874,1233,0,0
-343,-209,0,0,0,0,0,0,0,0,0,-1,881,1233,0,0
-336,-209,0,0,0,0,0,0,0,0,0,-1,888,1233,0,0
-329,-209,0,0,0,0,0,0,0,0,0,-1,895,1233,0,0
-322,-209,0,0,0,0,0,0,0,0,0,-1,902,1233,0,0
-315,-209,0,0,0,0,0,0,0,0,0,-1,909,1233,0,0
-308,-209,0,0,0,0,0,0,0,0,0,-1,916,1233,0,0
-301,-209,0,0,0,0,0,0,0,0,0,-1,923,1233,0,0
-294,-209,0,0,0,0,0,0,0,0,0,-1,930,1233,0,0
-287,-209,0,0,0,0,0,0,0,0,0,-1,937,1233,0,0
-280,-209,0,0,0,0,0,0,0,0,0,-1,944,1233,0,0
-273,-209,0,0,0,0,0,0,0,0,0,-1,951,1233,0,0
-266,-209,0,0,0,0,0,0,0,0,0,-1,958,1233,0,0
-259,-209,0,0,0,0,0,0,0,0,0,-1,965,1233,0,0
-252,-209,0,0,0,0,0,0,0,0,0,-1,972,1233,0,0
-245,-209,0,0,0,0,0,0,0,0,0,-1,979,1233,0,0
-238,-209,0,0,0,0,0,0,0,0,0,-1,986,1233,0,0
-231,-209,0,0,0,0,0,0,0,0,0,-1,993,1233,0,0
-224,-209,0,0,0,0,0,0,0,0,0,-1,1000,1233,0,0
-217,-209,0,0,0,0,0,0,0,0,0,-1,1007,1233,0,0
-210,-209,0,0,0,0,0,0,0,0,0,-1,1014,1233,0,0
-203,-209,0,0,0,0,0,0,0,0,0,-1,1021,1233,0,0
-196,-209,0,0,0,0,0,0,0,0,0,-1,1028,1233,0,0
-189,-209,0,0,0,0,0,0,0,0,0,-1,1035,1233,0,0
-182,-209,0,0,0,0,0,0,0,0,0,-1,1042,1233,0,0
-175,-209,0,0,0,0,0,0,0,0,0,-1,1049,1233,0,0
-168,-209,0,0,0,0,0,0,0,0,0,-1,1056,1233,0,0
-161,-209,0,0,0,0,0,0,0,0,0,-1,1063,1233,0,0
-154,-209,0,0,0,0,0,0,0,0,0,-1,1070,1233,0,0
-147,-209,0,0,0,0,0,0,0,0,0,-1,1077,1233,0,0
-140,-209,0,0,0,0,0,0,0,0,0,-1,1084,1233,0,0
-133,-209,0,0,0,0,0,0,0,0,0,-1,1091,1233,0,0
-126,-209,0,0,0,0,0,0,0,0,0,-1,1098,1233,0,0
-119,-209,0,0,0,0,0,0,0,0,0,-1,1105,1233,0,0
-112,-209,0,0,0,0,0,0,0,0,0,-1,1112,1233,0,0
-105,-209,0,0,0,0,0,0,0,0,0,-1,1119,1233,0,0
-98,-209,0,0,0,0,0,0,0,0,0,-1,1126,1233,0,0
-91,-209,0,0,0,0,0,0,0,0,0,-1,1133,1233,0,0
-84,-209,0,0,0,0,0,0,0,0,0,-1,1140,1233,0,0
-77,-209,0,0,0,0,0,0,0,0,0,-1,1147,1233,0,0
-70,-209,0,0,0,0,0,0,0,0,0,-1,1154,1233,0,0
-63,-209,0,0,0,0,0,0,0,0,0,-1,1161,1233,0,0
-56,-209,0,0,0,0,0,0,0,0,0,-1,1168,1233,0,0
-49,-209,0,0,0,0,0,0,0,0,0,-1,1175,1233,0,0
-42,-209,0,0,0,0,0,0,0,0,0,-1,1182,1233,0,0
-35,-209,0,0,0,0,0,0,0,0,0,-1,1189,1233,0,0
-28,-209,0,0,0,0,0,0,0,0,0,-1,1196,1233,0,0
-21,-209,0,0,0,0,0,0,0,0,0,-1,1203,1233,0,0
-14,-209,0,0,0,0,0,0,0,0,0,-1,1210,1233,0,0
-7,-209,0,0,0,0,0,0,0,0,0,-1,1217,1233,0,0
0,-209,0,0,0,0,0,0,0,0,0,-1,1224,1233,0,0
7,-209,0,0,0,0,0,0,0,0,0,-1,1231,1233,0,0
14,-209,0,0,0,0,0,0,0,0,0,-1,1238,1233,0,0
21,-209,0,0,0,0,0,0,0,0,0,-1,1245,1233,0,0
28,-209,0,0,0,0,0,0,0,0,0,-1,1252,1233,0,0
35,-209,0,0,0,0,0,0,0,0,0,-1,1259,1233,0,0
42,-209,0,0,0,0,0,0,0,0,0,-1,1266,1233,0,0
49,-209,0,0,0,0,0,0,0,0,0,-1,1273,1233,0,0
56,-209,0,0,0,0,0,0,0,0,0,-1,1280,1233,0,0
63,-209,0,0,0,0,0,0,0,0,0,-1,1287,1233,0,0
70,-209,0,0,0,0,0,0,0,0,0,-1,1294,1233,0,0
77,-209,0,0,0,0,0,0,0,0,0,-1,1301,1233,0,0
84,-209,0,0,0,0,0,0,0,0,0,-1,1308,1233,0,0
91,-209,0,0,0,0,0,0,0,0,0,-1,1315,1233,0,0
98,-209,0,0,0,0,0,0,0,0,0,-1,1322,1233,0,0
105,-209,0,0,0,0,0,0,0,0,0,-1,1329,1233,0,0
112,-209,0,0,0,0,0,0,0,0,0,-1,1336,1233,0,0
119,-209,0,0,0,0,0,0,0,0,0,-1,1343,1233,0,0
126,-209,0,0,0,0,0,0,0,0,0,-1,1350,1233,0,0
133,-209,0,0,0,0,0,0,0,0,0,-1,1357,1233,0,0
140,-209,0,0,0,0,0,0,0,0,0,-1,1364,1233,0,0
147,-209,0,0,0,0,0,0,0,0,0,-1,1371,1233,0,0
154,-209,0,0,0,0,0,0,0,0,0,-1,1378,1233,0,0
161,-209,0,0,0,0,0,0,0,0,0,-1,1385,1233,0,0
168,-209,0,0,0,0,0,0,0,0,0,-1,1392,1233,0,0
175,-209,0,0,0,0,0,0,0,0,0,-1,1399,1233,0,0
182,-209,0,0,0,0,0,0,0,0,0,-1,1406,1233,0,0
189,-209,0,0,0,0,0,0,0,0,0,-1,1413,1233,0,0
196,-209,0,0,0,0,0,0,0,0,0,-1,1420,1233,0,0
203,-209,0,0,0,0,0,0,0,0,0,-1,1427,1233,0,0
210,-209,0,0,0,0,0,0,0,0,0,-1,1434,1233,0,0
217,-209,0,0,0,0,0,0,0,0,0,-1,1441,1233,0,0
224,-209,0,0,0,0,0,0,0,0,0,-1,1448,1233,0,0
231,-209,0,0,0,0,0,0,0,0,0,-1,1455,1233,0,0
238,-209,0,0,0,0,0,0,0,0,0,-1,1462,1233,0,0
245,-209,0,0,0,0,0,0,0,0,0,-1,1469,1233,0,0
252,-209,0,0,0,0,0,0,0,0,0,-1,1476,1233,0,0
259,-209,0,0,0,0,0,0,0,0,0,-1,1483,1233,0,0
266,-209,0,0,0,0,0,0,0,0,0,-1,1490,1233,0,0
273,-209,0,0,0,0,0,0,0,0,0,-1,1497,1233,0,0
280,-209,0,0,0,0,0,0,0,0,0,-1,1504,1233,0,0
287,-209,0,0,0,0,0,0,0,0,0,-1,1511,1233,0,0
294,-209,0,0,0,0,0,0,0,0,0,-1,1518,1233,0,0
301,-209,0,0,0,0,0,0,0,0,0,-1,1525,1233,0,0
308,-209,0,0,0,0,0,0,0,0,0,-1,1532,1233,0,0
315,-209,0,0,0,0,0,0,0,0,0,-1,1539,1233,0,0
322,-209,0,0,0,0,0,0,0,0,0,-1,1546,1233,0,0
329,-209,0,0,0,0,0,0,0,0,0,-1,1553,1233,0,0
336,-209,0,0,0,0,0,0,0,0,0,-1,1560,1233,0,0
343,-209,0,0,0,0,0,0,0,0,0,-1,1567,1233,0,0
350,-209,0,0,0,0,0,0,0,0,0,-1,1574,1233,0,0
357,-209,0,0,0,0,0,0,0,0,0,-1,1581,1233,0,0
364,-209,0,0,0,0,0,0,0,0,0,-1,1588,1233,0,0
371,-209,0,0,0,0,0,0,0,0,0,-1,1595,1233,0,0
378,-209,0,0,0,0,0,0,0,0,0,-1,1602,1233,0,0
385,-209,0,0,0,0,0,0,0,0,0,-1,1609,1233,0,0
392,-209,0,0,0,0,0,0,0,0,0,-1,1616,1233,0,0
399,-209,0,0,0,0,0,0,0,0,0,-1,1623,1233,0,0
406,-209,0,0,0,0,0,0,0,0,0,-1,1630,1233,0,0
413,-209,0,0,0,0,0,0,0,0,0,-1,1637,1233,0,0
420,-209,0,0,0,0,0,0,0,0,0,-1,1644,1233,0,0
427,-209,0,0,0,0,0,0,0,0,0,-1,1651,1233,0,0
434,-209,0,0,0,0,0,0,0,0,0,-1,1658,1233,0,0
441,-209,0,0,0,0,0,0,0,0,0,-1,1665,1233,0,0
448,-209,0,0,0,0,0,0,0,0,0,-1,1672,1233,0,0
455,-209,0,0,0,0,0,0,0,0,0,-1,1679,1233,0,0
462,-209,0,0,0,0,0,0,0,0,0,-1,1686,1233,0,0
469,-209,0,0,0,0,0,0,0,0,0,-1,1693,1233,0,0
476,-209,0,0,0,0,0,0,0,0,0,-1,1700,1233,0,0
483,-209,0,0,0,0,0,0,0,0,0,-1,1707,1233,0,0
490,-209,0,0,0,0,0,0,0,0,0,-1,1714,1233,0,0
497,-209,0,0,0,0,0,0,0,0,0,-1,1721,1233,0,0
504,-209,0,0,0,0,0,0,0,0,0,-1,1728,1233,0,0
511,-209,0,0,0,0,0,0,0,0,0,-1,1735,1233,0,0
518,-209,0,0,0,0,0,0,0,0,0,-1,1742,1233,0,0
525,-209,0,0,0,0,0,0,0,0,0,-1,1749,1233,0,0
532,-209,0,0,0,0,0,0,0,0,0,-1,1756,1233,0,0
539,-209,0,0,0,0,0,0,0,0,0,-1,1763,1233,0,0
546,-209,0,0,0,0,0,0,0,0,0,-1,1770,1233,0,0
553,-209,0,0,0,0,0,0,0,0,0,-1,1777,1233,0,0
560,-209,0,0,0,0,0,0,0,0,0,-1,1784,1233,0,0
567,-209,0,0,0,0,0,0,0,0,0,-1,1791,1233,0,0
574,-209,0,0,0,0,0,0,0,0,0,-1,1798,1233,0,0
581,-209,0,0,0,0,0,0,0,0,0,-1,1805,1233,0,0
588,-209,0,0,0,0,0,0,0,0,0,-1,1812,1233,0,0
595,-209,0,0,0,0,0,0,0,0,0,-1,1819,1233,0,0
602,-209,0,0,0,0,0,0,0,0,0,-1,1826,1233,0,0
609,-209,0,0,0,0,0,0,0,0,0,-1,1833,1233,0,0
616,-209,0,0,0,0,0,0,0,0,0,-1,1840,1233,0,0
623,-209,39.3357,2.55542,-0.00141936,0.00122933,0.00568128,0.00573858,-0.00592861,0.899907,0.00673635,0.0315086,1847,1233,39.3357,-2.55537
630,-209,39.371,2.6062,-0.000266035,0.00152529,0.00360756,0.00434671,-0.00308746,0.907075,0.0043126,0.0335522,1854,1233,39.371,-2.60614
637,-209,39.4829,2.64172,0.00024939,0.00130606,0.00246685,0.00330051,-0.00174506,0.890891,0.00295885,0.0350013,1861,1233,39.4829,-2.64173
644,-209,39.4302,2.58264,0.000700143,0.00103349,0.00179775,0.00267228,-0.000938644,0.831623,0.00216338,0.0316086,1868,1233,39.4302,-2.58265
651,-209,39.3866,2.5708,0.00118596,0.000694414,0.00136269,0.00232487,-0.000444488,0.696177,0.00171735,0.0262361,1875,1233,39.3867,-2.57079
658,-209,39.4308,2.58142,0.00159331,0.000237961,0.0011363,0.00223867,-0.000407396,0.516518,0.00164514,0.0227387,1882,1233,39.4307,-2.58139
665,-209,39.5441,2.59863,0.00170845,-0.000233362,0.00117183,0.00225933,-0.000784245,0.439447,0.00182471,0.0374528,1889,1233,39.5441,-2.59858
672,-209,39.5541,2.42126,0,0,0,0,0,0,0,-1,1896,1233,39.5541,-2.42131
679,-209,39.0205,3.04077,0,0,0,0,0,0,0,-1,1903,1233,39.0205,-3.04081
686,-209,33.3711,3.89856,0,0,0,0,0,0,0,-1,1910,1233,33.3711,-3.89855
693,-209,31.9514,8.33813,0,0,0,0,0,0,0,-1,1917,1233,31.9514,-8.33814
700,-209,32.061,7.7533,0.000847681,-0.00172081,0.00135533,0.00143058,-0.00230371,0.406161,0.00217555,0.0396845,1924,1233,32.0611,-7.75328
707,-209,32.1794,7.22192,0.000440102,-0.00196167,0.00163303,0.00126626,-0.00278783,0.468362,0.00239496,0.0308049,1931,1233,32.1795,-7.22188
714,-209,32.2137,6.88733,-5.11518e-05,-0.00187362,0.00191161,0.0011553,-0.00308007,0.562987,0.00252806,0.0152963,1938,1233,32.2137,-6.88732
721,-209,32.24,6.54224,-0.000325406,-0.00169046,0.00196082,0.00106828,-0.00308415,0.617915,0.00248979,0.0123216,1945,1233,32.24,-6.54223
728,-209,32.2524,6.22534,-2.99287e-05,-0.00125683,0.00224629,0.00168517,-0.00297193,0.652101,0.00272278,0.0124477,1952,1233,32.2525,-6.22529
735,-209,32.225,5.88953,0.000772491,-0.000468802,0.00236388,0.00259584,-0.00229215,0.657019,0.0028239,0.0141061,1959,1233,32.2249,-5.88952
742,-209,32.2057,5.54968,0.00241431,0.000238788,0.00273718,0.00427195,-0.00161885,0.596265,0.00351415,0.0132029,1966,1233,32.2057,-5.54967
749,-209,32.1854,5.20789,0.00493075,0.00105044,0.00311281,0.00665853,-0.000677346,0.506717,0.00468117,0.0120316,1973,1233,32.1855,-5.2079
756,-209,32.1686,4.89209,0.0085012,0.00187237,0.00359331,0.0100753,0.000298311,0.412875,0.00661964,0.0119047,1980,1233,32.1686,-4.89205
763,-209,32.1639,4.62524,0.0137624,0.0026498,0.00416646,0.015151,0.00126118,0.321707,0.00970762,0.0205505,1987,1233,32.164,-4.6253
770,-209,32.353,4.39636,0.0209992,0.00328744,0.0051459,0.0223857,0.00190092,0.263192,0.0143323,0.0492049,1994,1233,32.3531,-4.39642
777,-209,32.59,4.13867,0,0,0,0,0,0,0,-1,2001,1233,32.59,-4.13869
784,-209,40.3342,-2.14001,0,0,0,0,0,0,0,-1,2008,1233,40.3342,2.13997
791,-209,39.3013,0.547852,0,0,0,0,0,0,0,-1,2015,1233,39.3013,-0.547871
798,-209,39.2295,3.45898,0,0,0,0,0,0,0,-1,2022,1233,39.2294,-3.45896
805,-209,0,0,0,0,0,0,0,0,0,-1,2029,1233,0,0
812,-209,0,0,0,0,0,0,0,0,0,-1,2036,1233,0,0
-700,-216,0,0,0,0,0,0,0,0,0,-1,524,1240,0,0
-693,-216,0,0,0,0,0,0,0,0,0,-1,531,1240,0,0
-686,-216,0,0,0,0,0,0,0,0,0,-1,538,1240,0,0
-679,-216,-21.6678,-0.759155,0,0,0,0,0,0,0,-1,545,1240,-21.6678,0.759146
-672,-216,-22.9319,-3.50977,0,0,0,0,0,0,0,-1,552,1240,-22.9319,3.50973
-665,-216,-22.0292,-2.67773,0,0,0,0,0,0,0,-1,559,1240,-22.0292,2.67775
-658,-216,-21.1865,-1.96521,0,0,0,0,0,0,0,-1,566,1240,-21.1865,1.96517
-651,-216,-20.5036,0.476929,0,0,0,0,0,0,0,-1,573,1240,-20.5036,-0.476949
-644,-216,-20.5478,0.769531,0,0,0,0,0,0,0,-1,580,1240,-20.5478,-0.769578
-637,-216,-20.5518,1.20422,0.0148639,-0.00485818,-0.00667327,0.0169096,-0.00690397,-0.297469,0.0141476,0.0464357,587,1240,-20.5517,-1.20419
-630,-216,-20.4424,1.73755,0.0101444,-0.00317383,-0.00371872,0.0111124,-0.00414182,-0.25465,0.00910838,0.0295595,594,1240,-20.4424,-1.73753
-623,-216,-20.4086,2.24146,0.00638242,-0.00227366,-0.0019461,0.00679982,-0.00269106,-0.211281,0.00564813,0.0128805,601,1240,-20.4086,-2.2414
-616,-216,-20.4556,2.63892,0.00394687,-0.00157098,-0.00115531,0.004179,-0.00180312,-0.198284,0.00354341,0.0135762,608,1240,-20.4556,-2.63889
-609,-216,-20.4678,3.04236,0.00244285,-0.00116408,-0.000657967,0.00255912,-0.00128035,-0.174915,0.00225733,0.0131313,615,1240,-20.4678,-3.04241
-602,-216,-20.4706,3.42725,0.00131309,-0.000988859,-0.000206542,0.00133148,-0.00100724,-0.0887799,0.00135458,0.0130462,622,1240,-20.4706,-3.42728
-595,-216,-20.4494,3.80334,0.00108113,-0.00127804,-8.33628e-05,0.00108407,-0.00128098,-0.035277,0.00136704,0.0182568,629,1240,-20.4494,-3.80329
-588,-216,-20.4498,4.20825,0.00192624,-0.0018712,-0.000123181,0.00193023,-0.00187519,-0.0323925,0.00219714,0.0203712,636,1240,-20.4499,-4.20825
-581,-216,-20.4027,4.65442,0.0026674,-0.00244229,-0.0002818,0.00268289,-0.00245778,-0.0549281,0.00296892,0.0253801,643,1240,-20.4027,-4.65441
-574,-216,-20.3715,5.3595,0.0028359,-0.00283338,-0.000110506,0.00283805,-0.00283553,-0.0194821,0.00327565,0.043424,650,1240,-20.3715,-5.35954
-567,-216,-20.7029,6.07471,0,0,0,0,0,0,0,-1,657,1240,-20.7029,-6.07466
-560,-216,-16.5087,5.4574,0,0,0,0,0,0,0,-1,664,1240,-16.5087,-5.45746
-553,-216,-16.2355,1.22351,0,0,0,0,0,0,0,-1,671,1240,-16.2356,-1.22356
-546,-216,-28.542,0.322266,0,0,0,0,0,0,0,-1,678,1240,-28.542,-0.322248
-539,-216,-28.2098,0.827881,0,0,0,0,0,0,0,-1,685,1240,-28.2098,-0.827894
-532,-216,-28.3683,0.910645,-0.00136933,-0.00434117,0.000300581,-0.00133924,-0.00437127,0.0997963,0.00258606,0.0488057,692,1240,-28.3683,-0.910617
-525,-216,-28.5904,0.93811,-0.00274659,-0.00448863,-2.68627e-05,-0.00274617,-0.00448904,-0.0154153,0.00261324,0.0451816,699,1240,-28.5904,-0.93809
-518,-216,-28.8546,1.12927,-0.0044324,-0.00445637,-0.000577053,-0.00386721,-0.00502156,-0.775016,0.00303696,0.0427934,706,1240,-28.8546,-1.12928
-511,-216,-29.0546,1.4292,-0.00522974,-0.00385635,-0.00105508,-0.00328418,-0.00580191,-1.07388,0.00335946,0.0447292,713,1240,-29.0546,-1.42925
-504,-216,-28.7408,1.13464,-0.00216918,-0.00156446,-0.000264032,-0.0014654,-0.00226823,-1.21188,0.00132806,0.0431346,720,1240,-28.7408,-1.13464
-497,-216,0,0,0,0,0,0,0,0,0,-1,727,1240,0,0
-490,-216,0,0,0,0,0,0,0,0,0,-1,734,1240,0,0
-483,-216,0,0,0,0,0,0,0,0,0,-1,741,1240,0,0
-476,-216,0,0,0,0,0,0,0,0,0,-1,748,1240,0,0
-469,-216,0,0,0,0,0,0,0,0,0,-1,755,1240,0,0
-462,-216,0,0,0,0,0,0,0,0,0,-1,762,1240,0,0
-455,-216,0,0,0,0,0,0,0,0,0,-1,769,1240,0,0
-448,-216,0,0,0,0,0,0,0,0,0,-1,776,1240,0,0
-441,-216,0,0,0,0,0,0,0,0,0,-1,783,1240,0,0
-434,-216,0,0,0,0,0,0,0,0,0,-1,790,1240,0,0
-427,-216,0,0,0,0,0,0,0,0,0,-1,797,1240,0,0
-420,-216,0,0,0,0,0,0,0,0,0,-1,804,1240,0,0
-413,-216,0,0,0,0,0,0,0,0,0,-1,811,1240,0,0
-406,-216,0,0,0,0,0,0,0,0,0,-1,818,1240,0,0
-399,-216,0,0,0,0,0,0,0,0,0,-1,825,1240,0,0
-392,-216,0,0,0,0,0,0,0,0,0,-1,832,1240,0,0
-385,-216,0,0,0,0,0,0,0,0,0,-1,839,1240,0,0
-378,-216,0,0,0,0,0,0,0,0,0,-1,846,1240,0,0
-371,-216,0,0,0,0,0,0,0,0,0,-1,853,1240,0,0
-364,-216,0,0,0,0,0,0,0,0,0,-1,860,1240,0,0
-357,-216,0,0,0,0,0,0,0,0,0,-1,867,1240,0,0
-350,-216,0,0,0,0,0,0,0,0,0,-1,874,1240,0,0
-343,-216,0,0,0,0,0,0,0,0,0,-1,881,1240,0,0
-336,-216,0,0,0,0,0,0,0,0,0,-1,888,1240,0,0
-329,-216,0,0,0,0,0,0,0,0,0,-1,895,1240,0,0
-322,-216,0,0,0,0,0,0,0,0,0,-1,902,1240,0,0
-315,-216,0,0,0,0,0,0,0,0,0,-1,909,1240,0,0
-308,-216,0,0,0,0,0,0,0,0,0,-1,916,1240,0,0
-301,-216,0,0,0,0,0,0,0,0,0,-1,923,1240,0,0
-294,-216,0,0,0,0,0,0,0,0,0,-1,930,1240,0,0
-287,-216,0,0,0,0,0,0,0,0,0,-1,937,1240,0,0
-280,-216,0,0,0,0,0,0,0,0,0,-1,944,1240,0,0
-273,-216,0,0,0,0,0,0,0,0,0,-1,951,1240,0,0
-266,-216,0,0,0,0,0,0,0,0,0,-1,958,1240,0,0
-259,-216,0,0,0,0,0,0,0,0,0,-1,965,1240,0,0
-252,-216,0,0,0,0,0,0,0,0,0,-1,972,1240,0,0
-245,-216,0,0,0,0,0,0,0,0,0,-1,979,1240,0,0
-238,-216,0,0,0,0,0,0,0,0,0,-1,986,1240,0,0
-231,-216,0,0,0,0,0,0,0,0,0,-1,993,1240,0,0
-224,-216,0,0,0,0,0,0,0,0,0,-1,1000,1240,0,0
-217,-216,0,0,0,0,0,0,0,0,0,-1,1007,1240,0,0
-210,-216,0,0,0,0,0,0,0,0,0,-1,1014,1240,0,0
-203,-216,0,0,0,0,0,0,0,0,0,-1,1021,1240,0,0
-196,-216,0,0,0,0,0,0,0,0,0,-1,1028,1240,0,0
-189,-216,0,0,0,0,0,0,0,0,0,-1,1035,1240,0,0
-182,-216,0,0,0,0,0,0,0,0,0,-1,1042,1240,0,0
-175,-216,0,0,0,0,0,0,0,0,0,-1,1049,1240,0,0
-168,-216,0,0,0,0,0,0,0,0,0,-1,1056,1240,0,0
-161,-216,0,0,0,0,0,0,0,0,0,-1,1063,1240,0,0
-154,-216,0,0,0,0,0,0,0,0,0,-1,1070,1240,0,0
-147,-216,0,0,0,0,0,0,0,0,0,-1,1077,1240,0,0
-140,-216,0,0,0,0,0,0,0,0,0,-1,1084,1240,0,0
-133,-216,0,0,0,0,0,0,0,0,0,-1,1091,1240,0,0
-126,-216,0,0,0,0,0,0,0,0,0,-1,1098,1240,0,0
-119,-216,0,0,0,0,0,0,0,0,0,-1,1105,1240,0,0
-112,-216,0,0,0,0,0,0,0,0,0,-1,1112,1240,0,0
-105,-216,0,0,0,0,0,0,0,0,0,-1,1119,1240,0,0
-98,-216,0,0,0,0,0,0,0,0,0,-1,1126,1240,0,0
-91,-216,0,0,0,0,0,0,0,0,0,-1,1133,1240,0,0
-84,-216,0,0,0,0,0,0,0,0,0,-1,1140,1240,0,0
-77,-216,0,0,0,0,0,0,0,0,0,-1,1147,1240,0,0
-70,-216,0,0,0,0,0,0,0,0,0,-1,1154,1240,0,0
-63,-216,0,0,0,0,0,0,0,0,0,-1,1161,1240,0,0
-56,-216,0,0,0,0,0,0,0,0,0,-1,1168,1240,0,0
-49,-216,0,0,0,0,0,0,0,0,0,-1,1175,1240,0,0
-42,-216,0,0,0,0,0,0,0,0,0,-1,1182,1240,0,0
-35,-216,0,0,0,0,0,0,0,0,0,-1,1189,1240,0,0
-28,-216,0,0,0,0,0,0,0,0,0,-1,1196,1240,0,0
-21,-216,0,0,0,0,0,0,0,0,0,-1,1203,1240,0,0
-14,-216,0,0,0,0,0,0,0,0,0,-1,1210,1240,0,0
-7,-216,0,0,0,0,0,0,0,0,0,-1,1217,1240,0,0
0,-216,0,0,0,0,0,0,0,0,0,-1,1224,1240,0,0
7,-216,0,0,0,0,0,0,0,0,0,-1,1231,1240,0,0
14,-216,0,0,0,0,0,0,0,0,0,-1,1238,1240,0,0
21,-216,0,0,0,0,0,0,0,0,0,-1,1245,1240,0,0
28,-216,0,0,0,0,0,0,0,0,0,-1,1252,1240,0,0
35,-216,0,0,0,0,0,0,0,0,0,-1,1259,1240,0,0
42,-216,0,0,0,0,0,0,0,0,0,-1,1266,1240,0,0
49,-216,0,0,0,0,0,0,0,0,0,-1,1273,1240,0,0
56,-216,0,0,0,0,0,0,0,0,0,-1,1280,1240,0,0
63,-216,0,0,0,0,0,0,0,0,0,-1,1287,1240,0,0
70,-216,0,0,0,0,0,0,0,0,0,-1,1294,1240,0,0
77,-216,0,0,0,0,0,0,0,0,0,-1,1301,1240,0,0
84,-216,0,0,0,0,0,0,0,0,0,-1,1308,1240,0,0
91,-216,0,0,0,0,0,0,0,0,0,-1,1315,1240,0,0
98,-216,0,0,0,0,0,0,0,0,0,-1,1322,1240,0,0
105,-216,0,0,0,0,0,0,0,0,0,-1,1329,1240,0,0
112,-216,0,0,0,0,0,0,0,0,0,-1,1336,1240,0,0
119,-216,0,0,0,0,0,0,0,0,0,-1,1343,1240,0,0
126,-216,0,0,0,0,0,0,0,0,0,-1,1350,1240,0,0
133,-216,0,0,0,0,0,0,0,0,0,-1,1357,1240,0,0
140,-216,0,0,0,0,0,0,0,0,0,-1,1364,1240,0,0
147,-216,0,0,0,0,0,0,0,0,0,-1,1371,1240,0,0
154,-216,0,0,0,0,0,0,0,0,0,-1,1378,1240,0,0
161,-216,0,0,0,0,0,0,0,0,0,-1,1385,1240,0,0
168,-216,0,0,0,0,0,0,0,0,0,-1,1392,1240,0,0
175,-216,0,0,0,0,0,0,0,0,0,-1,1399,1240,0,0
182,-216,0,0,0,0,0,0,0,0,0,-1,1406,1240,0,0
189,-216,0,0,0,0,0,0,0,0,0,-1,1413,1240,0,0
196,-216,0,0,0,0,0,0,0,0,0,-1,1420,1240,0,0
203,-216,0,0,0,0,0,0,0,0,0,-1,1427,1240,0,0
210,-216,0,0,0,0,0,0,0,0,0,-1,1434,1240,0,0
217,-216,0,0,0,0,0,0,0,0,0,-1,1441,1240,0,0
224,-216,0,0,0,0,0,0,0,0,0,-1,1448,1240,0,0
231,-216,0,0,0,0,0,0,0,0,0,-1,1455,1240,0,0
238,-216,0,0,0,0,0,0,0,0,0,-1,1462,1240,0,0
245,-216,0,0,0,0,0,0,0,0,0,-1,1469,1240,0,0
252,-216,0,0,0,0,0,0,0,0,0,-1,1476,1240,0,0
259,-216,0,0,0,0,0,0,0,0,0,-1,1483,1240,0,0
266,-216,0,0,0,0,0,0,0,0,0,-1,1490,1240,0,0
273,-216,0,0,0,0,0,0,0,0,0,-1,1497,1240,0,0
280,-216,0,0,0,0,0,0,0,0,0,-1,1504,1240,0,0
287,-216,0,0,0,0,0,0,0,0,0,-1,1511,1240,0,0
294,-216,0,0,0,0,0,0,0,0,0,-1,1518,1240,0,0
301,-216,0,0,0,0,0,0,0,0,0,-1,1525,1240,0,0
308,-216,0,0,0,0,0,0,0,0,0,-1,1532,1240,0,0
315,-216,0,0,0,0,0,0,0,0,0,-1,1539,1240,0,0
322,-216,0,0,0,0,0,0,0,0,0,-1,1546,1240,0,0
329,-216,0,0,0,0,0,0,0,0,0,-1,1553,1240,0,0
336,-216,0,0,0,0,0,0,0,0,0,-1,1560,1240,0,0
343,-216,0,0,0,0,0,0,0,0,0,-1,1567,1240,0,0
350,-216,0,0,0,0,0,0,0,0,0,-1,1574,1240,0,0
357,-216,0,0,0,0,0,0,0,0,0,-1,1581,1240,0,0
364,-216,0,0,0,0,0,0,0,0,0,-1,1588,1240,0,0
371,-216,0,0,0,0,0,0,0,0,0,-1,1595,1240,0,0
378,-216,0,0,0,0,0,0,0,0,0,-1,1602,1240,0,0
385,-216,0,0,0,0,0,0,0,0,0,-1,1609,1240,0,0
392,-216,0,0,0,0,0,0,0,0,0,-1,1616,1240,0,0
399,-216,0,0,0,0,0,0,0,0,0,-1,1623,1240,0,0
406,-216,0,0,0,0,0,0,0,0,0,-1,1630,1240,0,0
413,-216,0,0,0,0,0,0,0,0,0,-1,1637,1240,0,0
420,-216,0,0,0,0,0,0,0,0,0,-1,1644,1240,0,0
427,-216,0,0,0,0,0,0,0,0,0,-1,1651,1240,0,0
434,-216,0,0,0,0,0,0,0,0,0,-1,1658,1240,0,0
441,-216,0,0,0,0,0,0,0,0,0,-1,1665,1240,0,0
448,-216,0,0,0,0,0,0,0,0,0,-1,1672,1240,0,0
455,-216,0,0,0,0,0,0,0,0,0,-1,1679,1240,0,0
462,-216,0,0,0,0,0,0,0,0,0,-1,1686,1240,0,0
469,-216,0,0,0,0,0,0,0,0,0,-1,1693,1240,0,0
476,-216,0,0,0,0,0,0,0,0,0,-1,1700,1240,0,0
483,-216,0,0,0,0,0,0,0,0,0,-1,1707,1240,0,0
490,-216,0,0,0,0,0,0,0,0,0,-1,1714,1240,0,0
497,-216,0,0,0,0,0,0,0,0,0,-1,1721,1240,0,0
504,-216,0,0,0,0,0,0,0,0,0,-1,1728,1240,0,0
511,-216,0,0,0,0,0,0,0,0,0,-1,1735,1240,0,0
518,-216,0,0,0,0,0,0,0,0,0,-1,1742,1240,0,0
525,-216,0,0,0,0,0,0,0,0,0,-1,1749,1240,0,0
532,-216,0,0,0,0,0,0,0,0,0,-1,1756,1240,0,0
539,-216,0,0,0,0,0,0,0,0,0,-1,1763,1240,0,0
546,-216,0,0,0,0,0,0,0,0,0,-1,1770,1240,0,0
553,-216,0,0,0,0,0,0,0,0,0,-1,1777,1240,0,0
560,-216,0,0,0,0,0,0,0,0,0,-1,1784,1240,0,0
567,-216,0,0,0,0,0,0,0,0,0,-1,1791,1240,0,0
574,-216,0,0,0,0,0,0,0,0,0,-1,1798,1240,0,0
581,-216,0,0,0,0,0,0,0,0,0,-1,1805,1240,0,0
588,-216,0,0,0,0,0,0,0,0,0,-1,1812,1240,0,0
595,-216,0,0,0,0,0,0,0,0,0,-1,1819,1240,0,0
602,-216,0,0,0,0,0,0,0,0,0,-1,1826,1240,0,0
609,-216,0,0,0,0,0,0,0,0,0,-1,1833,1240,0,0
616,-216,0,0,0,0,0,0,0,0,0,-1,1840,1240,0,0
623,-216,39.283,2.56348,-0.0015737,0.00257913,0.00452325,0.00547979,-0.00447436,1.00058,0.00575679,0.0346754,1847,1240,39.2829,-2.56353
630,-216,39.3145,2.62439,-0.000176196,0.00271395,0.00296748,0.00456951,-0.00203176,1.01198,0.00390399,0.0326054,1854,1240,39.3145,-2.62434
637,-216,39.3824,2.68042,0.000589425,0.0023785,0.00213212,0.00379613,-0.00082821,0.984022,0.00284726,0.0313073,1861,1240,39.3825,-2.68037
644,-216,39.4098,2.63245,0.00113602,0.00188762,0.00181001,0.00336043,-0.000336794,0.887756,0.00236057,0.0271331,1868,1240,39.4098,-2.63242
651,-216,39.4304,2.59937,0.00158843,0.00139213,0.00150504,0.00299852,-1.79613e-05,0.752838,0.00200503,0.0235865,1875,1240,39.4304,-2.59934
658,-216,39.476,2.62061,0.00189001,0.000842587,0.0013465,0.00281106,-7.84623e-05,0.599929,0.00190073,0.0336178,1882,1240,39.476,-2.62059
665,-216,39.5482,2.66443,0.00193325,0.000320177,0.00136818,0.00271492,-0.000461495,0.519067,0.00198177,0.0451269,1889,1240,39.5483,-2.66444
672,-216,39.7091,2.7832,0,0,0,0,0,0,0,-1,1896,1240,39.7091,-2.78321
679,-216,38.5808,2.38147,0,0,0,0,0,0,0,-1,1903,1240,38.5808,-2.38151
686,-216,21.5172,6.19458,0,0,0,0,0,0,0,-1,1910,1240,21.5172,-6.19453
693,-216,31.9493,8.05103,0,0,0,0,0,0,0,-1,1917,1240,31.9493,-8.05098
700,-216,31.8262,7.73682,0.00117501,-0.00143117,0.00130716,0.00171764,-0.00197381,0.393479,0.00213297,0.0377105,1924,1240,31.8262,-7.73686
707,-216,31.8488,7.28516,0.00075877,-0.00172343,0.00146103,0.00143468,-0.00239934,0.433306,0.00223681,0.0273301,1931,1240,31.8488,-7.28519
714,-216,31.9012,6.91455,0.000261,-0.00160785,0.00167773,0.00124698,-0.00259383,0.531314,0.00226248,0.0141224,1938,1240,31.9013,-6.9145
721,-216,31.9044,6.58777,5.55558e-05,-0.00134259,0.00168952,0.00118492,-0.00247195,0.589238,0.00215444,0.0133402,1945,1240,31.9044,-6.58777
728,-216,31.9216,6.24634,0.000353928,-0.000807092,0.00200816,0.0018638,-0.00231696,0.644696,0.00241849,0.0116416,1952,1240,31.9216,-6.24629
735,-216,31.9236,5.90271,0.0011058,6.92319e-05,0.0022333,0.00288016,-0.00170513,0.671381,0.00267614,0.011745,1959,1240,31.9235,-5.90273
742,-216,31.8734,5.58459,0.00251842,0.000944213,0.00268987,0.00453399,-0.00107135,0.643063,0.00343591,0.0136954,1966,1240,31.8734,-5.58465
749,-216,31.8569,5.22388,0.00468685,0.00196037,0.00318275,0.00678603,-0.00013881,0.583058,0.00457099,0.0112345,1973,1240,31.8569,-5.22388
756,-216,31.8228,4.87463,0.007978,0.00314555,0.00372934,0.0100054,0.00111811,0.497951,0.00633059,0.0113419,1980,1240,31.8227,-4.87459
763,-216,31.8171,4.60986,0.0129209,0.00450095,0.00436564,0.0147758,0.00264605,0.401774,0.00909771,0.018666,1987,1240,31.8172,-4.6099
770,-216,31.9773,4.37659,0.0198333,0.00603454,0.00539812,0.0216941,0.00417372,0.331961,0.0132918,0.0415044,1994,1240,31.9773,-4.37655
777,-216,32.1655,4.13306,0,0,0,0,0,0,0,-1,2001,1240,32.1655,-4.13304
784,-216,42.4829,-1.97656,0,0,0,0,0,0,0,-1,2008,1240,42.4828,1.97653
791,-216,41.0908,0.603882,0,0,0,0,0,0,0,-1,2015,1240,41.0908,-0.603931
798,-216,0,0,0,0,0,0,0,0,0,-1,2022,1240,0,0
805,-216,0,0,0,0,0,0,0,0,0,-1,2029,1240,0,0
812,-216,0,0,0,0,0,0,0,0,0,-1,2036,1240,0,0
-700,-223,0,0,0,0,0,0,0,0,0,-1,524,1247,0,0
-693,-223,0,0,0,0,0,0,0,0,0,-1,531,1247,0,0
-686,-223,0,0,0,0,0,0,0,0,0,-1,538,1247,0,0
-679,-223,0,0,0,0,0,0,0,0,0,-1,545,1247,0,0
-672,-223,-22.9034,-3.64087,0,0,0,0,0,0,0,-1,552,1247,-22.9034,3.64091
-665,-223,-22.0611,-2.9812,0,0,0,0,0,0,0,-1,559,1247,-22.0611,2.98119
-658,-223,-21.2332,-2.24817,0,0,0,0,0,0,0,-1,566,1247,-21.2332,2.24821
-651,-223,-20.5394,0.116577,0,0,0,0,0,0,0,-1,573,1247,-20.5394,-0.116524
-644,-223,-19.7653,1.27063,0,0,0,0,0,0,0,-1,580,1247,-19.7653,-1.27067
-637,-223,-19.8851,1.57397,0.0151019,-0.00545008,-0.00346056,0.0156689,-0.00601713,-0.162416,0.0129272,0.0464603,587,1247,-19.8851,-1.57403
-630,-223,-20.0341,1.79224,0.00957442,-0.00361259,-0.00153762,0.00975133,-0.00378951,-0.114554,0.00806644,0.0393495,594,1247,-20.0341,-1.79228
-623,-223,-20.0662,2.23914,0.00574462,-0.00247099,-0.000424879,0.00576653,-0.0024929,-0.0515328,0.00489185,0.0217079,601,1247,-20.0662,-2.23911
-616,-223,-20.087,2.63098,0.00355238,-0.00160723,-3.0462e-05,0.00355256,-0.00160741,-0.00590367,0.00304885,0.0164133,608,1247,-20.087,-2.63096
-609,-223,-20.0649,3.02734,0.00236537,-0.00109058,0.000170016,0.00237371,-0.00109893,0.0490373,0.00204946,0.011833,615,1247,-20.0649,-3.02734
-602,-223,-20.0529,3.40027,0.00158928,-0.00082878,0.00040705,0.00165596,-0.000895463,0.162378,0.00149472,0.0141994,622,1247,-20.0528,-3.40024
-595,-223,-20.0305,3.8125,0.00164238,-0.00098051,0.000460544,0.00172089,-0.00105903,0.16886,0.00162008,0.0200159,629,1247,-20.0304,-3.81253
-588,-223,-20.0724,4.19812,0.00261301,-0.00140328,0.000460955,0.00266524,-0.00145551,0.112817,0.00241305,0.0220357,636,1247,-20.0725,-4.19809
-581,-223,-20.1411,4.58191,0.00346422,-0.00185894,0.000376392,0.0034907,-0.00188542,0.0702426,0.00314969,0.0196117,643,1247,-20.1411,-4.58195
-574,-223,-20.063,5.0188,0.00378026,-0.00227932,0.000616311,0.00384231,-0.00234137,0.100339,0.00360503,0.0190253,650,1247,-20.063,-5.01876
-567,-223,-19.856,5.60132,0.00288384,-0.00232438,0.00100359,0.00307053,-0.00251107,0.183922,0.00322793,0.0337775,657,1247,-19.8559,-5.60129
-560,-223,-19.801,6.19019,0,0,0,0,0,0,0,-1,664,1247,-19.801,-6.19023
-553,-223,-11.4025,4.14722,0,0,0,0,0,0,0,-1,671,1247,-11.4025,-4.14719
-546,-223,-26.9034,-0.148682,0,0,0,0,0,0,0,-1,678,1247,-26.9034,0.14867
-539,-223,-28.1122,0.856934,0,0,0,0,0,0,0,-1,685,1247,-28.1122,-0.856924
-532,-223,-28.2212,0.932739,0,0,0,0,0,0,0,-1,692,1247,-28.2212,-0.932734
-525,-223,-28.5245,0.957397,0,0,0,0,0,0,0,-1,699,1247,-28.5245,-0.957381
-518,-223,-28.5267,0.829102,-0.00424302,-0.00397874,-0.000505951,-0.00358796,-0.0046338,-0.91313,0.00280632,0.0496433,706,1247,-28.5267,-0.829153
-511,-223,-28.7998,1.20264,-0.00539694,-0.00384882,-0.00146135,-0.00296919,-0.00627658,-1.02896,0.00362554,0.0416162,713,1247,-28.7998,-1.20264
-504,-223,-28.7663,1.20032,-0.00322113,-0.00263365,-0.00170264,-0.0011996,-0.00465518,-0.870817,0.00279089,0.0420233,720,1247,-28.7663,-1.20029
-497,-223,0,0,0,0,0,0,0,0,0,-1,727,1247,0,0
-490,-223,0,0,0,0,0,0,0,0,0,-1,734,1247,0,0
-483,-223,0,0,0,0,0,0,0,0,0,-1,741,1247,0,0
-476,-223,0,0,0,0,0,0,0,0,0,-1,748,1247,0,0
-469,-223,0,0,0,0,0,0,0,0,0,-1,755,1247,0,0
-462,-223,0,0,0,0,0,0,0,0,0,-1,762,1247,0,0
-455,-223,0,0,0,0,0,0,0,0,0,-1,769,1247,0,0
-448,-223,0,0,0,0,0,0,0,0,0,-1,776,1247,0,0
-441,-223,0,0,0,0,0,0,0,0,0,-1,783,1247,0,0
-434,-223,0,0,0,0,0,0,0,0,0,-1,790,1247,0,0
-427,-223,0,0,0,0,0,0,0,0,0,-1,797,1247,0,0
-420,-223,0,0,0,0,0,0,0,0,0,-1,804,1247,0,0
-413,-223,0,0,0,0,0,0,0,0,0,-1,811,1247,0,0
-406,-223,0,0,0,0,0,0,0,0,0,-1,818,1247,0,0
-399,-223,0,0,0,0,0,0,0,0,0,-1,825,1247,0,0
-392,-223,0,0,0,0,0,0,0,0,0,-1,832,1247,0,0
-385,-223,0,0,0,0,0,0,0,0,0,-1,839,1247,0,0
-378,-223,0,0,0,0,0,0,0,0,0,-1,846,1247,0,0
-371,-223,0,0,0,0,0,0,0,0,0,-1,853,1247,0,0
-364,-223,0,0,0,0,0,0,0,0,0,-1,860,1247,0,0
-357,-223,0,0,0,0,0,0,0,0,0,-1,867,1247,0,0
-350,-223,0,0,0,0,0,0,0,0,0,-1,874,1247,0,0
-343,-223,0,0,0,0,0,0,0,0,0,-1,881,1247,0,0
-336,-223,0,0,0,0,0,0,0,0,0,-1,888,1247,0,0
-329,-223,0,0,0,0,0,0,0,0,0,-1,895,1247,0,0
-322,-223,0,0,0,0,0,0,0,0,0,-1,902,1247,0,0
-315,-223,0,0,0,0,0,0,0,0,0,-1,909,1247,0,0
-308,-223,0,0,0,0,0,0,0,0,0,-1,916,1247,0,0
-301,-223,0,0,0,0,0,0,0,0,0,-1,923,1247,0,0
-294,-223,0,0,0,0,0,0,0,0,0,-1,930,1247,0,0
-287,-223,0,0,0,0,0,0,0,0,0,-1,937,1247,0,0
-280,-223,0,0,0,0,0,0,0,0,0,-1,944,1247,0,0
-273,-223,0,0,0,0,0,0,0,0,0,-1,951,1247,0,0
-266,-223,0,0,0,0,0,0,0,0,0,-1,958,1247,0,0
-259,-223,0,0,0,0,0,0,0,0,0,-1,965,1247,0,0
-252,-223,0,0,0,0,0,0,0,0,0,-1,972,1247,0,0
-245,-223,0,0,0,0,0,0,0,0,0,-1,979,1247,0,0
-238,-223,0,0,0,0,0,0,0,0,0,-1,986,1247,0,0
-231,-223,0,0,0,0,0,0,0,0,0,-1,993,1247,0,0
-224,-223,0,0,0,0,0,0,0,0,0,-1,1000,1247,0,0
-217,-223,0,0,0,0,0,0,0,0,0,-1,1007,1247,0,0
-210,-223,0,0,0,0,0,0,0,0,0,-1,1014,1247,0,0
-203,-223,0,0,0,0,0,0,0,0,0,-1,1021,1247,0,0
-196,-223,0,0,0,0,0,0,0,0,0,-1,1028,1247,0,0
-189,-223,0,0,0,0,0,0,0,0,0,-1,1035,1247,0,0
-182,-223,0,0,0,0,0,0,0,0,0,-1,1042,1247,0,0
-175,-223,0,0,0,0,0,0,0,0,0,-1,1049,1247,0,0
-168,-223,0,0,0,0,0,0,0,0,0,-1,1056,1247,0,0
-161,-223,0,0,0,0,0,0,0,0,0,-1,1063,1247,0,0
-154,-223,0,0,0,0,0,0,0,0,0,-1,1070,1247,0,0
-147,-223,0,0,0,0,0,0,0,0,0,-1,1077,1247,0,0
-140,-223,0,0,0,0,0,0,0,0,0,-1,1084,1247,0,0
-133,-223,0,0,0,0,0,0,0,0,0,-1,1091,1247,0,0
-126,-223,0,0,0,0,0,0,0,0,0,-1,1098,1247,0,0
-119,-223,0,0,0,0,0,0,0,0,0,-1,1105,1247,0,0
-112,-223,0,0,0,0,0,0,0,0,0,-1,1112,1247,0,0
-105,-223,0,0,0,0,0,0,0,0,0,-1,1119,1247,0,0
-98,-223,0,0,0,0,0,0,0,0,0,-1,1126,1247,0,0
-91,-223,0,0,0,0,0,0,0,0,0,-1,1133,1247,0,0
-84,-223,0,0,0,0,0,0,0,0,0,-1,1140,1247,0,0
-77,-223,0,0,0,0,0,0,0,0,0,-1,1147,1247,0,0
-70,-223,0,0,0,0,0,0,0,0,0,-1,1154,1247,0,0
-63,-223,0,0,0,0,0,0,0,0,0,-1,1161,1247,0,0
-56,-223,0,0,0,0,0,0,0,0,0,-1,1168,1247,0,0
-49,-223,0,0,0,0,0,0,0,0,0,-1,1175,1247,0,0
-42,-223,0,0,0,0,0,0,0,0,0,-1,1182,1247,0,0
-35,-223,0,0,0,0,0,0,0,0,0,-1,1189,1247,0,0
-28,-223,0,0,0,0,0,0,0,0,0,-1,1196,1247,0,0
-21,-223,0,0,0,0,0,0,0,0,0,-1,1203,1247,0,0
-14,-223,0,0,0,0,0,0,0,0,0,-1,1210,1247,0,0
-7,-223,0,0,0,0,0,0,0,0,0,-1,1217,1247,0,0
0,-223,0,0,0,0,0,0,0,0,0,-1,1224,1247,0,0
7,-223,0,0,0,0,0,0,0,0,0,-1,1231,1247,0,0
14,-223,0,0,0,0,0,0,0,0,0,-1,1238,1247,0,0
21,-223,0,0,0,0,0,0,0,0,0,-1,1245,1247,0,0
28,-223,0,0,0,0,0,0,0,0,0,-1,1252,1247,0,0
35,-223,0,0,0,0,0,0,0,0,0,-1,1259,1247,0,0
42,-223,0,0,0,0,0,0,0,0,0,-1,1266,1247,0,0
49,-223,0,0,0,0,0,0,0,0,0,-1,1273,1247,0,0
56,-223,0,0,0,0,0,0,0,0,0,-1,1280,1247,0,0
63,-223,0,0,0,0,0,0,0,0,0,-1,1287,1247,0,0
70,-223,0,0,0,0,0,0,0,0,0,-1,1294,1247,0,0
77,-223,0,0,0,0,0,0,0,0,0,-1,1301,1247,0,0
84,-223,0,0,0,0,0,0,0,0,0,-1,1308,1247,0,0
91,-223,0,0,0,0,0,0,0,0,0,-1,1315,1247,0,0
98,-223,0,0,0,0,0,0,0,0,0,-1,1322,1247,0,0
105,-223,0,0,0,0,0,0,0,0,0,-1,1329,1247,0,0
112,-223,0,0,0,0,0,0,0,0,0,-1,1336,1247,0,0
119,-223,0,0,0,0,0,0,0,0,0,-1,1343,1247,0,0
126,-223,0,0,0,0,0,0,0,0,0,-1,1350,1247,0,0
133,-223,0,0,0,0,0,0,0,0,0,-1,1357,1247,0,0
140,-223,0,0,0,0,0,0,0,0,0,-1,1364,1247,0,0
147,-223,0,0,0,0,0,0,0,0,0,-1,1371,1247,0,0
154,-223,0,0,0,0,0,0,0,0,0,-1,1378,1247,0,0
161,-223,0,0,0,0,0,0,0,0,0,-1,1385,1247,0,0
168,-223,0,0,0,0,0,0,0,0,0,-1,1392,1247,0,0
175,-223,0,0,0,0,0,0,0,0,0,-1,1399,1247,0,0
182,-223,0,0,0,0,0,0,0,0,0,-1,1406,1247,0,0
189,-223,0,0,0,0,0,0,0,0,0,-1,1413,1247,0,0
196,-223,0,0,0,0,0,0,0,0,0,-1,1420,1247,0,0
203,-223,0,0,0,0,0,0,0,0,0,-1,1427,1247,0,0
210,-223,0,0,0,0,0,0,0,0,0,-1,1434,1247,0,0
217,-223,0,0,0,0,0,0,0,0,0,-1,1441,1247,0,0
224,-223,0,0,0,0,0,0,0,0,0,-1,1448,1247,0,0
231,-223,0,0,0,0,0,0,0,0,0,-1,1455,1247,0,0
238,-223,0,0,0,0,0,0,0,0,0,-1,1462,1247,0,0
245,-223,0,0,0,0,0,0,0,0,0,-1,1469,1247,0,0
252,-223,0,0,0,0,0,0,0,0,0,-1,1476,1247,0,0
259,-223,0,0,0,0,0,0,0,0,0,-1,1483,1247,0,0
266,-223,0,0,0,0,0,0,0,0,0,-1,1490,1247,0,0
273,-223,0,0,0,0,0,0,0,0,0,-1,1497,1247,0,0
280,-223,0,0,0,0,0,0,0,0,0,-1,1504,1247,0,0
287,-223,0,0,0,0,0,0,0,0,0,-1,1511,1247,0,0
294,-223,0,0,0,0,0,0,0,0,0,-1,1518,1247,0,0
301,-223,0,0,0,0,0,0,0,0,0,-1,1525,1247,0,0
308,-223,0,0,0,0,0,0,0,0,0,-1,1532,1247,0,0
315,-223,0,0,0,0,0,0,0,0,0,-1,1539,1247,0,0
322,-223,0,0,0,0,0,0,0,0,0,-1,1546,1247,0,0
329,-223,0,0,0,0,0,0,0,0,0,-1,1553,1247,0,0
336,-223,0,0,0,0,0,0,0,0,0,-1,1560,1247,0,0
343,-223,0,0,0,0,0,0,0,0,0,-1,1567,1247,0,0
350,-223,0,0,0,0,0,0,0,0,0,-1,1574,1247,0,0
357,-223,0,0,0,0,0,0,0,0,0,-1,1581,1247,0,0
364,-223,0,0,0,0,0,0,0,0,0,-1,1588,1247,0,0
371,-223,0,0,0,0,0,0,0,0,0,-1,1595,1247,0,0
378,-223,0,0,0,0,0,0,0,0,0,-1,1602,1247,0,0
385,-223,0,0,0,0,0,0,0,0,0,-1,1609,1247,0,0
392,-223,0,0,0,0,0,0,0,0,0,-1,1616,1247,0,0
399,-223,0,0,0,0,0,0,0,0,0,-1,1623,1247,0,0
406,-223,0,0,0,0,0,0,0,0,0,-1,1630,1247,0,0
413,-223,0,0,0,0,0,0,0,0,0,-1,1637,1247,0,0
420,-223,0,0,0,0,0,0,0,0,0,-1,1644,1247,0,0
427,-223,0,0,0,0,0,0,0,0,0,-1,1651,1247,0,0
434,-223,0,0,0,0,0,0,0,0,0,-1,1658,1247,0,0
441,-223,0,0,0,0,0,0,0,0,0,-1,1665,1247,0,0
448,-223,0,0,0,0,0,0,0,0,0,-1,1672,1247,0,0
455,-223,0,0,0,0,0,0,0,0,0,-1,1679,1247,0,0
462,-223,0,0,0,0,0,0,0,0,0,-1,1686,1247,0,0
469,-223,0,0,0,0,0,0,0,0,0,-1,1693,1247,0,0
476,-223,0,0,0,0,0,0,0,0,0,-1,1700,1247,0,0
483,-223,0,0,0,0,0,0,0,0,0,-1,1707,1247,0,0
490,-223,0,0,0,0,0,0,0,0,0,-1,1714,1247,0,0
497,-223,0,0,0,0,0,0,0,0,0,-1,1721,1247,0,0
504,-223,0,0,0,0,0,0,0,0,0,-1,1728,1247,0,0
511,-223,0,0,0,0,0,0,0,0,0,-1,1735,1247,0,0
518,-223,0,0,0,0,0,0,0,0,0,-1,1742,1247,0,0
525,-223,0,0,0,0,0,0,0,0,0,-1,1749,1247,0,0
532,-223,0,0,0,0,0,0,0,0,0,-1,1756,1247,0,0
539,-223,0,0,0,0,0,0,0,0,0,-1,1763,1247,0,0
546,-223,0,0,0,0,0,0,0,0,0,-1,1770,1247,0,0
553,-223,0,0,0,0,0,0,0,0,0,-1,1777,1247,0,0
560,-223,0,0,0,0,0,0,0,0,0,-1,1784,1247,0,0
567,-223,0,0,0,0,0,0,0,0,0,-1,1791,1247,0,0
574,-223,0,0,0,0,0,0,0,0,0,-1,1798,1247,0,0
581,-223,0,0,0,0,0,0,0,0,0,-1,1805,1247,0,0
588,-223,0,0,0,0,0,0,0,0,0,-1,1812,1247,0,0
595,-223,0,0,0,0,0,0,0,0,0,-1,1819,1247,0,0
602,-223,0,0,0,0,0,0,0,0,0,-1,1826,1247,0,0
609,-223,0,0,0,0,0,0,0,0,0,-1,1833,1247,0,0
616,-223,0,0,0,0,0,0,0,0,0,-1,1840,1247,0,0
623,-223,39.2367,2.65332,-0.001468,0.00320648,0.00288411,0.00458149,-0.00284301,1.12592,0.00432553,0.0370466,1847,1247,39.2367,-2.65332
630,-223,39.249,2.58972,0.000238855,0.00349561,0.00203672,0.00447488,-0.000740415,1.12262,0.00325822,0.0333494,1854,1247,39.2491,-2.5897
637,-223,39.3481,2.59546,0.0012747,0.0033255,0.00173387,0.00431449,0.000285711,1.05243,0.00278598,0.0284746,1861,1247,39.3482,-2.59541
644,-223,39.3627,2.58801,0.00183456,0.00275975,0.00180368,0.00415921,0.000435094,0.910929,0.00263976,0.023691,1868,1247,39.3626,-2.588
651,-223,39.4276,2.56641,0.00217892,0.00214171,0.00159281,0.00375324,0.000567397,0.779558,0.00233611,0.0305178,1875,1247,39.4276,-2.56644
658,-223,39.2343,2.41211,0,0,0,0,0,0,0,-1,1882,1247,39.2342,-2.41206
665,-223,39.3398,2.63611,0.0023245,0.000881335,0.00147323,0.00324337,-3.75333e-05,0.557672,0.00217486,0.0452912,1889,1247,39.3398,-2.63612
672,-223,39.3079,2.92261,0,0,0,0,0,0,0,-1,1896,1247,39.3079,-2.92261
679,-223,39.4407,3.02966,0,0,0,0,0,0,0,-1,1903,1247,39.4406,-3.02966
686,-223,31.5997,8.276,0,0,0,0,0,0,0,-1,1910,1247,31.5997,-8.27596
693,-223,31.625,7.95972,0.00154835,-0.000756538,0.00122474,0.00207761,-0.00128579,0.4079,0.00195972,0.0419633,1917,1247,31.625,-7.95974
700,-223,31.5876,7.61243,0.00148553,-0.00120497,0.00124879,0.00197581,-0.00169525,0.374115,0.00212155,0.0203138,1924,1247,31.5877,-7.61237
707,-223,31.5323,7.27588,0.00108077,-0.00150794,0.00129016,0.00161395,-0.00204112,0.391888,0.00211505,0.0158936,1931,1247,31.5323,-7.27584
714,-223,31.546,6.94238,0.000581861,-0.00134138,0.00142709,0.00134108,-0.0021006,0.488924,0.00200312,0.0118441,1938,1247,31.5461,-6.94242
721,-223,31.5427,6.60522,0.000417256,-0.000980269,0.00142447,0.00130512,-0.00186813,0.557371,0.00184166,0.0153199,1945,1247,31.5427,-6.60521
728,-223,31.5449,6.24402,0.000631724,-0.000349771,0.00180786,0.00201426,-0.0017323,0.652865,0.00216512,0.0165691,1952,1247,31.5449,-6.24407
735,-223,31.5344,5.92139,0.00125581,0.000557443,0.002189,0.0031233,-0.00131005,0.706306,0.00262999,0.0151,1959,1247,31.5345,-5.92134
742,-223,31.4869,5.60962,0.00233492,0.00153579,0.00279719,0.00476094,-0.00089023,0.714456,0.00350856,0.0138423,1966,1247,31.487,-5.60958
749,-223,31.478,5.2218,0.00410379,0.00268879,0.0035169,0.00698365,-0.000191067,0.686137,0.00472074,0.0120593,1973,1247,31.4781,-5.22179
756,-223,31.4463,4.85327,0.00696371,0.00413601,0.00430306,0.0100792,0.00102047,0.62667,0.00640648,0.0151174,1980,1247,31.4463,-4.85322
763,-223,31.4436,4.59766,0.0112828,0.00592334,0.00529039,0.0145334,0.00267269,0.550972,0.00893233,0.0203897,1987,1247,31.4436,-4.59771
770,-223,31.5359,4.31091,0.0172854,0.0081656,0.00683723,0.0209438,0.00450719,0.491309,0.012729,0.0428759,1994,1247,31.5359,-4.31093
777,-223,31.6144,4.00085,0,0,0,0,0,0,0,-1,2001,1247,31.6143,-4.0008
784,-223,35.1801,2.14172,0,0,0,0,0,0,0,-1,2008,1247,35.1801,-2.14178
791,-223,34.7136,2.92554,0,0,0,0,0,0,0,-1,2015,1247,34.7137,-2.92555
798,-223,0,0,0,0,0,0,0,0,0,-1,2022,1247,0,0
805,-223,0,0,0,0,0,0,0,0,0,-1,2029,1247,0,0
812,-223,0,0,0,0,0,0,0,0,0,-1,2036,1247,0,0
-700,-230,0,0,0,0,0,0,0,0,0,-1,524,1254,0,0
-693,-230,0,0,0,0,0,0,0,0,0,-1,531,1254,0,0
-686,-230,0,0,0,0,0,0,0,0,0,-1,538,1254,0,0
-679,-230,0,0,0,0,0,0,0,0,0,-1,545,1254,0,0
-672,-230,-22.7482,-3.93103,0,0,0,0,0,0,0,-1,552,1254,-22.7482,3.93103
-665,-230,-22.0062,-3.36707,0,0,0,0,0,0,0,-1,559,1254,-22.0062,3.36701
-658,-230,-21.6861,-2.78149,0,0,0,0,0,0,0,-1,566,1254,-21.6861,2.78147
-651,-230,-21.4041,-2.09741,0,0,0,0,0,0,0,-1,573,1254,-21.4041,2.09743
-644,-230,-21.2225,0.2146,0,0,0,0,0,0,0,-1,580,1254,-21.2225,-0.214624
-637,-230,-19.4827,1.47754,0,0,0,0,0,0,0,-1,587,1254,-19.4827,-1.4775
-630,-230,-19.5613,1.82642,0.00911317,-0.00417909,0.000830772,0.0091649,-0.00423081,0.0621779,0.00790696,0.0443381,594,1254,-19.5613,-1.8264
-623,-230,-19.6653,2.23584,0.00556727,-0.00248522,0.00130453,0.00577334,-0.00269128,0.156666,0.00499387,0.0285669,601,1254,-19.6653,-2.23586
-616,-230,-19.6849,2.64282,0.00352104,-0.00136106,0.00120649,0.00380292,-0.00164294,0.229519,0.00322555,0.0175046,608,1254,-19.6849,-2.6428
-609,-230,-19.6633,3.02649,0.00251304,-0.000681629,0.00106266,0.00283423,-0.00100281,0.293518,0.00229789,0.0122029,615,1254,-19.6634,-3.02654
-602,-230,-19.6557,3.4082,0.00197221,-0.000319606,0.00103887,0.00237303,-0.000720424,0.368223,0.00186903,0.0112038,622,1254,-19.6557,-3.40823
-595,-230,-19.6595,3.81726,0.00217147,-0.000375603,0.000974064,0.00250127,-0.000705405,0.326468,0.00194575,0.0173691,629,1254,-19.6595,-3.81723
-588,-230,-19.6896,4.203,0.003133,-0.000689247,0.000978386,0.00336888,-0.000925129,0.236578,0.00260954,0.0239873,636,1254,-19.6896,-4.20297
-581,-230,-19.7515,4.60107,0.00402017,-0.00109252,0.000945477,0.00418941,-0.00126176,0.177126,0.00329506,0.0223335,643,1254,-19.7515,-4.60105
-574,-230,-19.7015,4.98389,0.00449828,-0.0016555,0.00120539,0.00472597,-0.00188319,0.186689,0.0039317,0.0162739,650,1254,-19.7015,-4.98391
-567,-230,-19.4679,5.46216,0.00357983,-0.00183141,0.00158741,0.00401112,-0.0022627,0.265294,0.00366878,0.0316741,657,1254,-19.4679,-5.46214
-560,-230,-19.1649,5.99109,0,0,0,0,0,0,0,-1,664,1254,-19.1649,-5.99115
-553,-230,-13.1939,4.9718,0,0,0,0,0,0,0,-1,671,1254,-13.1939,-4.97175
-546,-230,-15.23,0.453979,0,0,0,0,0,0,0,-1,678,1254,-15.23,-0.453996
-539,-230,-25.8232,0.512817,0,0,0,0,0,0,0,-1,685,1254,-25.8232,-0.512878
-532,-230,-21.1644,1.52966,0,0,0,0,0,0,0,-1,692,1254,-21.1644,-1.52969
-525,-230,-24.1401,0.738647,0,0,0,0,0,0,0,-1,699,1254,-24.1401,-0.738616
-518,-230,-28.1708,0.362061,0,0,0,0,0,0,0,-1,706,1254,-28.1708,-0.362016
-511,-230,-28.4679,0.710083,0,0,0,0,0,0,0,-1,713,1254,-28.4679,-0.710085
-504,-230,-28.5352,0.832275,0,0,0,0,0,0,0,-1,720,1254,-28.5352,-0.83231
-497,-230,0,0,0,0,0,0,0,0,0,-1,727,1254,0,0
-490,-230,0,0,0,0,0,0,0,0,0,-1,734,1254,0,0
-483,-230,0,0,0,0,0,0,0,0,0,-1,741,1254,0,0
-476,-230,0,0,0,0,0,0,0,0,0,-1,748,1254,0,0
-469,-230,0,0,0,0,0,0,0,0,0,-1,755,1254,0,0
-462,-230,0,0,0,0,0,0,0,0,0,-1,762,1254,0,0
-455,-230,0,0,0,0,0,0,0,0,0,-1,769,1254,0,0
-448,-230,0,0,0,0,0,0,0,0,0,-1,776,1254,0,0
-441,-230,0,0,0,0,0,0,0,0,0,-1,783,1254,0,0
-434,-230,0,0,0,0,0,0,0,0,0,-1,790,1254,0,0
-427,-230,0,0,0,0,0,0,0,0,0,-1,797,1254,0,0
-420,-230,0,0,0,0,0,0,0,0,0,-1,804,1254,0,0
-413,-230,0,0,0,0,0,0,0,0,0,-1,811,1254,0,0
-406,-230,0,0,0,0,0,0,0,0,0,-1,818,1254,0,0
-399,-230,0,0,0,0,0,0,0,0,0,-1,825,1254,0,0
-392,-230,0,0,0,0,0,0,0,0,0,-1,832,1254,0,0
-385,-230,0,0,0,0,0,0,0,0,0,-1,839,1254,0,0
-378,-230,0,0,0,0,0,0,0,0,0,-1,846,1254,0,0
-371,-230,0,0,0,0,0,0,0,0,0,-1,853,1254,0,0
-364,-230,0,0,0,0,0,0,0,0,0,-1,860,1254,0,0
-357,-230,0,0,0,0,0,0,0,0,0,-1,867,1254,0,0
-350,-230,0,0,0,0,0,0,0,0,0,-1,874,1254,0,0
-343,-230,0,0,0,0,0,0,0,0,0,-1,881,1254,0,0
-336,-230,0,0,0,0,0,0,0,0,0,-1,888,1254,0,0
-329,-230,0,0,0,0,0,0,0,0,0,-1,895,1254,0,0
-322,-230,0,0,0,0,0,0,0,0,0,-1,902,1254,0,0
-315,-230,0,0,0,0,0,0,0,0,0,-1,909,1254,0,0
-308,-230,0,0,0,0,0,0,0,0,0,-1,916,1254,0,0
-301,-230,0,0,0,0,0,0,0,0,0,-1,923,1254,0,0
-294,-230,0,0,0,0,0,0,0,0,0,-1,930,1254,0,0
-287,-230,0,0,0,0,0,0,0,0,0,-1,937,1254,0,0
-280,-230,0,0,0,0,0,0,0,0,0,-1,944,1254,0,0
-273,-230,0,0,0,0,0,0,0,0,0,-1,951,1254,0,0
-266,-230,0,0,0,0,0,0,0,0,0,-1,958,1254,0,0
-259,-230,0,0,0,0,0,0,0,0,0,-1,965,1254,0,0
-252,-230,0,0,0,0,0,0,0,0,0,-1,972,1254,0,0
-245,-230,0,0,0,0,0,0,0,0,0,-1,979,1254,0,0
-238,-230,0,0,0,0,0,0,0,0,0,-1,986,1254,0,0
-231,-230,0,0,0,0,0,0,0,0,0,-1,993,1254,0,0
-224,-230,0,0,0,0,0,0,0,0,0,-1,1000,1254,0,0
-217,-230,0,0,0,0,0,0,0,0,0,-1,1007,1254,0,0
-210,-230,0,0,0,0,0,0,0,0,0,-1,1014,1254,0,0
-203,-230,0,0,0,0,0,0,0,0,0,-1,1021,1254,0,0
-196,-230,0,0,0,0,0,0,0,0,0,-1,1028,1254,0,0
-189,-230,0,0,0,0,0,0,0,0,0,-1,1035,1254,0,0
-182,-230,0,0,0,0,0,0,0,0,0,-1,1042,1254,0,0
-175,-230,0,0,0,0,0,0,0,0,0,-1,1049,1254,0,0
-168,-230,0,0,0,0,0,0,0,0,0,-1,1056,1254,0,0
-161,-230,0,0,0,0,0,0,0,0,0,-1,1063,1254,0,0
-154,-230,0,0,0,0,0,0,0,0,0,-1,1070,1254,0,0
-147,-230,0,0,0,0,0,0,0,0,0,-1,1077,1254,0,0
-140,-230,0,0,0,0,0,0,0,0,0,-1,1084,1254,0,0
-133,-230,0,0,0,0,0,0,0,0,0,-1,1091,1254,0,0
-126,-230,0,0,0,0,0,0,0,0,0,-1,1098,1254,0,0
-119,-230,0,0,0,0,0,0,0,0,0,-1,1105,1254,0,0
-112,-230,0,0,0,0,0,0,0,0,0,-1,1112,1254,0,0
-105,-230,0,0,0,0,0,0,0,0,0,-1,1119,1254,0,0
-98,-230,0,0,0,0,0,0,0,0,0,-1,1126,1254,0,0
-91,-230,0,0,0,0,0,0,0,0,0,-1,1133,1254,0,0
-84,-230,0,0,0,0,0,0,0,0,0,-1,1140,1254,0,0
-77,-230,0,0,0,0,0,0,0,0,0,-1,1147,1254,0,0
-70,-230,0,0,0,0,0,0,0,0,0,-1,1154,1254,0,0
-63,-230,0,0,0,0,0,0,0,0,0,-1,1161,1254,0,0
-56,-230,0,0,0,0,0,0,0,0,0,-1,1168,1254,0,0
-49,-230,0,0,0,0,0,0,0,0,0,-1,1175,1254,0,0
-42,-230,0,0,0,0,0,0,0,0,0,-1,1182,1254,0,0
-35,-230,0,0,0,0,0,0,0,0,0,-1,1189,1254,0,0
-28,-230,0,0,0,0,0,0,0,0,0,-1,1196,1254,0,0
-21,-230,0,0,0,0,0,0,0,0,0,-1,1203,1254,0,0
-14,-230,0,0,0,0,0,0,0,0,0,-1,1210,1254,0,0
-7,-230,0,0,0,0,0,0,0,0,0,-1,1217,1254,0,0
0,-230,0,0,0,0,0,0,0,0,0,-1,1224,1254,0,0
7,-230,0,0,0,0,0,0,0,0,0,-1,1231,1254,0,0
14,-230,0,0,0,0,0,0,0,0,0,-1,1238,1254,0,0
21,-230,0,0,0,0,0,0,0,0,0,-1,1245,1254,0,0
28,-230,0,0,0,0,0,0,0,0,0,-1,1252,1254,0,0
35,-230,0,0,0,0,0,0,0,0,0,-1,1259,1254,0,0
42,-230,0,0,0,0,0,0,0,0,0,-1,1266,1254,0,0
49,-230,0,0,0,0,0,0,0,0,0,-1,1273,1254,0,0
56,-230,0,0,0,0,0,0,0,0,0,-1,1280,1254,0,0
63,-230,0,0,0,0,0,0,0,0,0,-1,1287,1254,0,0
70,-230,0,0,0,0,0,0,0,0,0,-1,1294,1254,0,0
77,-230,0,0,0,0,0,0,0,0,0,-1,1301,1254,0,0
84,-230,0,0,0,0,0,0,0,0,0,-1,1308,1254,0,0
91,-230,0,0,0,0,0,0,0,0,0,-1,1315,1254,0,0
98,-230,0,0,0,0,0,0,0,0,0,-1,1322,1254,0,0
105,-230,0,0,0,0,0,0,0,0,0,-1,1329,1254,0,0
112,-230,0,0,0,0,0,0,0,0,0,-1,1336,1254,0,0
119,-230,0,0,0,0,0,0,0,0,0,-1,1343,1254,0,0
126,-230,0,0,0,0,0,0,0,0,0,-1,1350,1254,0,0
133,-230,0,0,0,0,0,0,0,0,0,-1,1357,1254,0,0
140,-230,0,0,0,0,0,0,0,0,0,-1,1364,1254,0,0
147,-230,0,0,0,0,0,0,0,0,0,-1,1371,1254,0,0
154,-230,0,0,0,0,0,0,0,0,0,-1,1378,1254,0,0
161,-230,0,0,0,0,0,0,0,0,0,-1,1385,1254,0,0
168,-230,0,0,0,0,0,0,0,0,0,-1,1392,1254,0,0
175,-230,0,0,0,0,0,0,0,0,0,-1,1399,1254,0,0
182,-230,0,0,0,0,0,0,0,0,0,-1,1406,1254,0,0
189,-230,0,0,0,0,0,0,0,0,0,-1,1413,1254,0,0
196,-230,0,0,0,0,0,0,0,0,0,-1,1420,1254,0,0
203,-230,0,0,0,0,0,0,0,0,0,-1,1427,1254,0,0
210,-230,0,0,0,0,0,0,0,0,0,-1,1434,1254,0,0
217,-230,0,0,0,0,0,0,0,0,0,-1,1441,1254,0,0
224,-230,0,0,0,0,0,0,0,0,0,-1,1448,1254,0,0
231,-230,0,0,0,0,0,0,0,0,0,-1,1455,1254,0,0
238,-230,0,0,0,0,0,0,0,0,0,-1,1462,1254,0,0
245,-230,0,0,0,0,0,0,0,0,0,-1,1469,1254,0,0
252,-230,0,0,0,0,0,0,0,0,0,-1,1476,1254,0,0
259,-230,0,0,0,0,0,0,0,0,0,-1,1483,1254,0,0
266,-230,0,0,0,0,0,0,0,0,0,-1,1490,1254,0,0
273,-230,0,0,0,0,0,0,0,0,0,-1,1497,1254,0,0
280,-230,0,0,0,0,0,0,0,0,0,-1,1504,1254,0,0
287,-230,0,0,0,0,0,0,0,0,0,-1,1511,1254,0,0
294,-230,0,0,0,0,0,0,0,0,0,-1,1518,1254,0,0
301,-230,0,0,0,0,0,0,0,0,0,-1,1525,1254,0,0
308,-230,0,0,0,0,0,0,0,0,0,-1,1532,1254,0,0
315,-230,0,0,0,0,0,0,0,0,0,-1,1539,1254,0,0
322,-230,0,0,0,0,0,0,0,0,0,-1,1546,1254,0,0
329,-230,0,0,0,0,0,0,0,0,0,-1,1553,1254,0,0
336,-230,0,0,0,0,0,0,0,0,0,-1,1560,1254,0,0
343,-230,0,0,0,0,0,0,0,0,0,-1,1567,1254,0,0
350,-230,0,0,0,0,0,0,0,0,0,-1,1574,1254,0,0
357,-230,0,0,0,0,0,0,0,0,0,-1,1581,1254,0,0
364,-230,0,0,0,0,0,0,0,0,0,-1,1588,1254,0,0
371,-230,0,0,0,0,0,0,0,0,0,-1,1595,1254,0,0
378,-230,0,0,0,0,0,0,0,0,0,-1,1602,1254,0,0
385,-230,0,0,0,0,0,0,0,0,0,-1,1609,1254,0,0
392,-230,0,0,0,0,0,0,0,0,0,-1,1616,1254,0,0
399,-230,0,0,0,0,0,0,0,0,0,-1,1623,1254,0,0
406,-230,0,0,0,0,0,0,0,0,0,-1,1630,1254,0,0
413,-230,0,0,0,0,0,0,0,0,0,-1,1637,1254,0,0
420,-230,0,0,0,0,0,0,0,0,0,-1,1644,1254,0,0
427,-230,0,0,0,0,0,0,0,0,0,-1,1651,1254,0,0
434,-230,0,0,0,0,0,0,0,0,0,-1,1658,1254,0,0
441,-230,0,0,0,0,0,0,0,0,0,-1,1665,1254,0,0
448,-230,0,0,0,0,0,0,0,0,0,-1,1672,1254,0,0
455,-230,0,0,0,0,0,0,0,0,0,-1,1679,1254,0,0
462,-230,0,0,0,0,0,0,0,0,0,-1,1686,1254,0,0
469,-230,0,0,0,0,0,0,0,0,0,-1,1693,1254,0,0
476,-230,0,0,0,0,0,0,0,0,0,-1,1700,1254,0,0
483,-230,0,0,0,0,0,0,0,0,0,-1,1707,1254,0,0
490,-230,0,0,0,0,0,0,0,0,0,-1,1714,1254,0,0
497,-230,0,0,0,0,0,0,0,0,0,-1,1721,1254,0,0
504,-230,0,0,0,0,0,0,0,0,0,-1,1728,1254,0,0
511,-230,0,0,0,0,0,0,0,0,0,-1,1735,1254,0,0
518,-230,0,0,0,0,0,0,0,0,0,-1,1742,1254,0,0
525,-230,0,0,0,0,0,0,0,0,0,-1,1749,1254,0,0
532,-230,0,0,0,0,0,0,0,0,0,-1,1756,1254,0,0
539,-230,0,0,0,0,0,0,0,0,0,-1,1763,1254,0,0
546,-230,0,0,0,0,0,0,0,0,0,-1,1770,1254,0,0
553,-230,0,0,0,0,0,0,0,0,0,-1,1777,1254,0,0
560,-230,0,0,0,0,0,0,0,0,0,-1,1784,1254,0,0
567,-230,0,0,0,0,0,0,0,0,0,-1,1791,1254,0,0
574,-230,0,0,0,0,0,0,0,0,0,-1,1798,1254,0,0
581,-230,0,0,0,0,0,0,0,0,0,-1,1805,1254,0,0
588,-230,0,0,0,0,0,0,0,0,0,-1,1812,1254,0,0
595,-230,0,0,0,0,0,0,0,0,0,-1,1819,1254,0,0
602,-230,0,0,0,0,0,0,0,0,0,-1,1826,1254,0,0
609,-230,0,0,0,0,0,0,0,0,0,-1,1833,1254,0,0
616,-230,39.5216,2.81104,-0.00323668,0.00352799,0.00257747,0.00439814,-0.00410682,1.24522,0.0049113,0.0386185,1840,1254,39.5216,-2.81105
623,-230,39.4143,2.73975,-0.000685574,0.00426032,0.00203948,0.00499283,-0.00141808,1.22598,0.00388842,0.0365629,1847,1254,39.4143,-2.73975
630,-230,39.3511,2.6449,0.00131946,0.00484958,0.00153575,0.00542417,0.000744868,1.21278,0.00339517,0.0313388,1854,1254,39.3511,-2.64487
637,-230,39.3552,2.60706,0.00251929,0.00484336,0.00148835,0.00556958,0.00179307,1.11684,0.00328286,0.0263901,1861,1254,39.3552,-2.60704
644,-230,39.3217,2.50867,0.0028866,0.00406224,0.00168732,0.0052612,0.00168763,0.953011,0.00310192,0.0215066,1868,1254,39.3216,-2.5087
651,-230,39.3196,2.43884,0.00299792,0.00323743,0.0015036,0.00462604,0.00160931,0.825136,0.00271174,0.0459303,1875,1254,39.3196,-2.43886
658,-230,37.8499,2.42969,0,0,0,0,0,0,0,-1,1882,1254,37.8499,-2.4297
665,-230,38.5939,2.5531,0,0,0,0,0,0,0,-1,1889,1254,38.5939,-2.55311
672,-230,39.3378,2.67651,0,0,0,0,0,0,0,-1,1896,1254,39.3378,-2.67652
679,-230,27.9967,2.37708,0,0,0,0,0,0,0,-1,1903,1254,27.9967,-2.3771
686,-230,31.0522,8.10449,0,0,0,0,0,0,0,-1,1910,1254,31.0523,-8.10455
693,-230,31.1323,7.91272,0.00170007,-0.000514163,0.00124673,0.0022603,-0.00107439,0.422321,0.00196545,0.0414501,1917,1254,31.1323,-7.91267
700,-230,31.2178,7.66772,0.00162765,-0.00102575,0.00120928,0.00209607,-0.00149418,0.369564,0.00208252,0.0138785,1924,1254,31.2177,-7.66768
707,-230,31.1808,7.31299,0.00119418,-0.00131586,0.00113913,0.00163406,-0.00175575,0.368516,0.00195753,0.00988912,1931,1254,31.1808,-7.31305
714,-230,31.1592,6.95483,0.000624555,-0.00109034,0.00123023,0.00126667,-0.00173245,0.481049,0.00173849,0.0127201,1938,1254,31.1591,-6.95487
721,-230,31.1715,6.59167,0.000432271,-0.000636199,0.00127119,0.00127692,-0.00148085,0.586472,0.00159365,0.0138704,1945,1254,31.1715,-6.59168
728,-230,31.1581,6.2572,0.000504376,6.10827e-05,0.00172003,0.00201698,-0.00145152,0.72132,0.00201139,0.0151498,1952,1254,31.158,-6.25717
735,-230,31.1439,5.93921,0.000958719,0.000989223,0.00222567,0.0031997,-0.00125176,0.788825,0.0026508,0.0148434,1959,1254,31.144,-5.93918
742,-230,31.1129,5.59314,0.0018638,0.00203271,0.00293473,0.0048842,-0.000987691,0.799783,0.00363043,0.0111894,1966,1254,31.1129,-5.59317
749,-230,31.1105,5.21118,0.00348622,0.0033064,0.00379288,0.00719026,-0.000397635,0.773548,0.0049314,0.0111628,1973,1254,31.1105,-5.21123
756,-230,31.0935,4.86426,0.00624695,0.0049725,0.00474026,0.0103926,0.00082682,0.718584,0.00666991,0.0161499,1980,1254,31.0935,-4.86425
763,-230,31.1165,4.50452,0.0105087,0.00710496,0.00596862,0.0150133,0.00260032,0.646515,0.00926457,0.0323684,1987,1254,31.1164,-4.50451
770,-230,31.4203,4.2124,0.0165633,0.00988973,0.00784355,0.0217503,0.0047027,0.584286,0.0132146,0.0471486,1994,1254,31.4203,-4.21242
777,-230,31.723,3.98376,0,0,0,0,0,0,0,-1,2001,1254,31.7231,-3.98376
784,-230,35.8896,1.80334,0,0,0,0,0,0,0,-1,2008,1254,35.8897,-1.80338
791,-230,35.6028,2.20642,0,0,0,0,0,0,0,-1,2015,1254,35.6027,-2.2064
798,-230,0,0,0,0,0,0,0,0,0,-1,2022,1254,0,0
805,-230,0,0,0,0,0,0,0,0,0,-1,2029,1254,0,0
812,-230,0,0,0,0,0,0,0,0,0,-1,2036,1254,0,0
-700,-237,0,0,0,0,0,0,0,0,0,-1,524,1261,0,0
-693,-237,0,0,0,0,0,0,0,0,0,-1,531,1261,0,0
-686,-237,0,0,0,0,0,0,0,0,0,-1,538,1261,0,0
-679,-237,0,0,0,0,0,0,0,0,0,-1,545,1261,0,0
-672,-237,-22.6155,-3.5249,0,0,0,0,0,0,0,-1,552,1261,-22.6155,3.52492
-665,-237,-21.5444,-3.70508,0,0,0,0,0,0,0,-1,559,1261,-21.5443,3.70503
-658,-237,-21.3657,-3.0741,0,0,0,0,0,0,0,-1,566,1261,-21.3658,3.07412
-651,-237,-20.3582,-0.133057,0,0,0,0,0,0,0,-1,573,1261,-20.3582,0.13305
-644,-237,-30.4077,6.53589,0,0,0,0,0,0,0,-1,580,1261,-30.4077,-6.53586
-637,-237,-18.788,1.63818,0,0,0,0,0,0,0,-1,587,1261,-18.7879,-1.6382
-630,-237,-19.0027,1.98145,0.00812963,-0.00425471,0.0034527,0.00902717,-0.00515226,0.254326,0.00828777,0.0466849,594,1261,-19.0027,-1.98148
-623,-237,-19.214,2.26599,0.00505221,-0.00204799,0.00328616,0.00633968,-0.00333546,0.373405,0.005675,0.0305876,601,1261,-19.214,-2.26595
-616,-237,-19.241,2.65149,0.00324644,-0.000733496,0.00271054,0.00461906,-0.00210611,0.468755,0.00397211,0.0150683,608,1261,-19.241,-2.65147
-609,-237,-19.2394,3.03088,0.00244456,1.17804e-05,0.00221159,0.00375221,-0.00129586,0.533974,0.00302733,0.0169265,615,1261,-19.2394,-3.03091
-602,-237,-19.269,3.43933,0.00216202,0.000360395,0.00190505,0.00336851,-0.000846087,0.56455,0.00257447,0.0116567,622,1261,-19.269,-3.43928
-595,-237,-19.3032,3.8363,0.00249657,0.000301517,0.00166923,0.00339677,-0.000598682,0.494583,0.0024882,0.014418,629,1261,-19.3032,-3.83634
-588,-237,-19.3059,4.24219,0.00344764,1.72811e-05,0.00158071,0.00406494,-0.000600028,0.372312,0.00293052,0.0253421,636,1261,-19.3059,-4.24222
-581,-237,-19.3488,4.64648,0.00437298,-0.000344361,0.00153778,0.00482999,-0.000801376,0.288879,0.00351768,0.0240575,643,1261,-19.3488,-4.64651
-574,-237,-19.3145,5.0354,0.00503867,-0.00101505,0.00175593,0.00551112,-0.0014875,0.262836,0.00425743,0.0151394,650,1261,-19.3145,-5.03536
-567,-237,-19.2301,5.47253,0.00416559,-0.00133221,0.00208563,0.00486724,-0.00203386,0.324528,0.00409476,0.0217556,657,1261,-19.2301,-5.47252
-560,-237,-18.884,5.97766,0.00319102,-0.00194993,0.00220613,0.00400792,-0.00276684,0.354634,0.00393323,0.0473236,664,1261,-18.884,-5.97765
-553,-237,-18.4706,6.29871,0,0,0,0,0,0,0,-1,671,1261,-18.4706,-6.29872
-546,-237,-11.192,1.14014,0,0,0,0,0,0,0,-1,678,1261,-11.192,-1.14011
-539,-237,-16.512,1.53455,0,0,0,0,0,0,0,-1,685,1261,-16.512,-1.53457
-532,-237,-22.1423,1.43213,0,0,0,0,0,0,0,-1,692,1261,-22.1423,-1.43207
-525,-237,-28.2027,0.943726,0,0,0,0,0,0,0,-1,699,1261,-28.2027,-0.943674
-518,-237,-28.323,0.828613,-0.00402044,-0.00256075,-0.000866569,-0.00215762,-0.00442357,-1.13538,0.0025542,0.0479159,706,1261,-28.323,-0.828633
-511,-237,-28.5068,0.816772,-0.00484398,-0.00206166,-0.00206045,-0.000966702,-0.00593894,-1.08233,0.00367963,0.0419393,713,1261,-28.5068,-0.816719
-504,-237,-28.5568,0.816162,-0.00400293,-0.00119225,-0.00330051,0.000989655,-0.00618484,-0.98667,0.00448962,0.040718,720,1261,-28.5568,-0.816164
-497,-237,-28.5247,0.816162,-0.000218069,4.53391e-05,-0.00475522,0.00467067,-0.0048434,-0.799243,0.00549326,0.0423414,727,1261,-28.5246,-0.816149
-490,-237,0,0,0,0,0,0,0,0,0,-1,734,1261,0,0
-483,-237,0,0,0,0,0,0,0,0,0,-1,741,1261,0,0
-476,-237,0,0,0,0,0,0,0,0,0,-1,748,1261,0,0
-469,-237,0,0,0,0,0,0,0,0,0,-1,755,1261,0,0
-462,-237,0,0,0,0,0,0,0,0,0,-1,762,1261,0,0
-455,-237,0,0,0,0,0,0,0,0,0,-1,769,1261,0,0
-448,-237,0,0,0,0,0,0,0,0,0,-1,776,1261,0,0
-441,-237,0,0,0,0,0,0,0,0,0,-1,783,1261,0,0
-434,-237,0,0,0,0,0,0,0,0,0,-1,790,1261,0,0
-427,-237,0,0,0,0,0,0,0,0,0,-1,797,1261,0,0
-420,-237,0,0,0,0,0,0,0,0,0,-1,804,1261,0,0
-413,-237,0,0,0,0,0,0,0,0,0,-1,811,1261,0,0
-406,-237,0,0,0,0,0,0,0,0,0,-1,818,1261,0,0
-399,-237,0,0,0,0,0,0,0,0,0,-1,825,1261,0,0
-392,-237,0,0,0,0,0,0,0,0,0,-1,832,1261,0,0
-385,-237,0,0,0,0,0,0,0,0,0,-1,839,1261,0,0
-378,-237,0,0,0,0,0,0,0,0,0,-1,846,1261,0,0
-371,-237,0,0,0,0,0,0,0,0,0,-1,853,1261,0,0
-364,-237,0,0,0,0,0,0,0,0,0,-1,860,1261,0,0
-357,-237,0,0,0,0,0,0,0,0,0,-1,867,1261,0,0
-350,-237,0,0,0,0,0,0,0,0,0,-1,874,1261,0,0
-343,-237,0,0,0,0,0,0,0,0,0,-1,881,1261,0,0
-336,-237,0,0,0,0,0,0,0,0,0,-1,888,1261,0,0
-329,-237,0,0,0,0,0,0,0,0,0,-1,895,1261,0,0
-322,-237,0,0,0,0,0,0,0,0,0,-1,902,1261,0,0
-315,-237,0,0,0,0,0,0,0,0,0,-1,909,1261,0,0
-308,-237,0,0,0,0,0,0,0,0,0,-1,916,1261,0,0
-301,-237,0,0,0,0,0,0,0,0,0,-1,923,1261,0,0
-294,-237,0,0,0,0,0,0,0,0,0,-1,930,1261,0,0
-287,-237,0,0,0,0,0,0,0,0,0,-1,937,1261,0,0
-280,-237,0,0,0,0,0,0,0,0,0,-1,944,1261,0,0
-273,-237,0,0,0,0,0,0,0,0,0,-1,951,1261,0,0
-266,-237,0,0,0,0,0,0,0,0,0,-1,958,1261,0,0
-259,-237,0,0,0,0,0,0,0,0,0,-1,965,1261,0,0
-252,-237,0,0,0,0,0,0,0,0,0,-1,972,1261,0,0
-245,-237,0,0,0,0,0,0,0,0,0,-1,979,1261,0,0
-238,-237,0,0,0,0,0,0,0,0,0,-1,986,1261,0,0
-231,-237,0,0,0,0,0,0,0,0,0,-1,993,1261,0,0
-224,-237,0,0,0,0,0,0,0,0,0,-1,1000,1261,0,0
-217,-237,0,0,0,0,0,0,0,0,0,-1,1007,1261,0,0
-210,-237,0,0,0,0,0,0,0,0,0,-1,1014,1261,0,0
-203,-237,0,0,0,0,0,0,0,0,0,-1,1021,1261,0,0
-196,-237,0,0,0,0,0,0,0,0,0,-1,1028,1261,0,0
-189,-237,0,0,0,0,0,0,0,0,0,-1,1035,1261,0,0
-182,-237,0,0,0,0,0,0,0,0,0,-1,1042,1261,0,0
-175,-237,0,0,0,0,0,0,0,0,0,-1,1049,1261,0,0
-168,-237,0,0,0,0,0,0,0,0,0,-1,1056,1261,0,0
-161,-237,0,0,0,0,0,0,0,0,0,-1,1063,1261,0,0
-154,-237,0,0,0,0,0,0,0,0,0,-1,1070,1261,0,0
-147,-237,0,0,0,0,0,0,0,0,0,-1,1077,1261,0,0
-140,-237,0,0,0,0,0,0,0,0,0,-1,1084,1261,0,0
-133,-237,0,0,0,0,0,0,0,0,0,-1,1091,1261,0,0
-126,-237,0,0,0,0,0,0,0,0,0,-1,1098,1261,0,0
-119,-237,0,0,0,0,0,0,0,0,0,-1,1105,1261,0,0
-112,-237,0,0,0,0,0,0,0,0,0,-1,1112,1261,0,0
-105,-237,0,0,0,0,0,0,0,0,0,-1,1119,1261,0,0
-98,-237,0,0,0,0,0,0,0,0,0,-1,1126,1261,0,0
-91,-237,0,0,0,0,0,0,0,0,0,-1,1133,1261,0,0
-84,-237,0,0,0,0,0,0,0,0,0,-1,1140,1261,0,0
-77,-237,0,0,0,0,0,0,0,0,0,-1,1147,1261,0,0
-70,-237,0,0,0,0,0,0,0,0,0,-1,1154,1261,0,0
-63,-237,0,0,0,0,0,0,0,0,0,-1,1161,1261,0,0
-56,-237,0,0,0,0,0,0,0,0,0,-1,1168,1261,0,0
-49,-237,0,0,0,0,0,0,0,0,0,-1,1175,1261,0,0
-42,-237,0,0,0,0,0,0,0,0,0,-1,1182,1261,0,0
-35,-237,0,0,0,0,0,0,0,0,0,-1,1189,1261,0,0
-28,-237,0,0,0,0,0,0,0,0,0,-1,1196,1261,0,0
-21,-237,0,0,0,0,0,0,0,0,0,-1,1203,1261,0,0
-14,-237,0,0,0,0,0,0,0,0,0,-1,1210,1261,0,0
-7,-237,0,0,0,0,0,0,0,0,0,-1,1217,1261,0,0
0,-237,0,0,0,0,0,0,0,0,0,-1,1224,1261,0,0
7,-237,0,0,0,0,0,0,0,0,0,-1,1231,1261,0,0
14,-237,0,0,0,0,0,0,0,0,0,-1,1238,1261,0,0
21,-237,0,0,0,0,0,0,0,0,0,-1,1245,1261,0,0
28,-237,0,0,0,0,0,0,0,0,0,-1,1252,1261,0,0
35,-237,0,0,0,0,0,0,0,0,0,-1,1259,1261,0,0
42,-237,0,0,0,0,0,0,0,0,0,-1,1266,1261,0,0
49,-237,0,0,0,0,0,0,0,0,0,-1,1273,1261,0,0
56,-237,0,0,0,0,0,0,0,0,0,-1,1280,1261,0,0
63,-237,0,0,0,0,0,0,0,0,0,-1,1287,1261,0,0
70,-237,0,0,0,0,0,0,0,0,0,-1,1294,1261,0,0
77,-237,0,0,0,0,0,0,0,0,0,-1,1301,1261,0,0
84,-237,0,0,0,0,0,0,0,0,0,-1,1308,1261,0,0
91,-237,0,0,0,0,0,0,0,0,0,-1,1315,1261,0,0
98,-237,0,0,0,0,0,0,0,0,0,-1,1322,1261,0,0
105,-237,0,0,0,0,0,0,0,0,0,-1,1329,1261,0,0
112,-237,0,0,0,0,0,0,0,0,0,-1,1336,1261,0,0
119,-237,0,0,0,0,0,0,0,0,0,-1,1343,1261,0,0
126,-237,0,0,0,0,0,0,0,0,0,-1,1350,1261,0,0
133,-237,0,0,0,0,0,0,0,0,0,-1,1357,1261,0,0
140,-237,0,0,0,0,0,0,0,0,0,-1,1364,1261,0,0
147,-237,0,0,0,0,0,0,0,0,0,-1,1371,1261,0,0
154,-237,0,0,0,0,0,0,0,0,0,-1,1378,1261,0,0
161,-237,0,0,0,0,0,0,0,0,0,-1,1385,1261,0,0
168,-237,0,0,0,0,0,0,0,0,0,-1,1392,1261,0,0
175,-237,0,0,0,0,0,0,0,0,0,-1,1399,1261,0,0
182,-237,0,0,0,0,0,0,0,0,0,-1,1406,1261,0,0
189,-237,0,0,0,0,0,0,0,0,0,-1,1413,1261,0,0
196,-237,0,0,0,0,0,0,0,0,0,-1,1420,1261,0,0
203,-237,0,0,0,0,0,0,0,0,0,-1,1427,1261,0,0
210,-237,0,0,0,0,0,0,0,0,0,-1,1434,1261,0,0
217,-237,0,0,0,0,0,0,0,0,0,-1,1441,1261,0,0
224,-237,0,0,0,0,0,0,0,0,0,-1,1448,1261,0,0
231,-237,0,0,0,0,0,0,0,0,0,-1,1455,1261,0,0
238,-237,0,0,0,0,0,0,0,0,0,-1,1462,1261,0,0
245,-237,0,0,0,0,0,0,0,0,0,-1,1469,1261,0,0
252,-237,0,0,0,0,0,0,0,0,0,-1,1476,1261,0,0
259,-237,0,0,0,0,0,0,0,0,0,-1,1483,1261,0,0
266,-237,0,0,0,0,0,0,0,0,0,-1,1490,1261,0,0
273,-237,0,0,0,0,0,0,0,0,0,-1,1497,1261,0,0
280,-237,0,0,0,0,0,0,0,0,0,-1,1504,1261,0,0
287,-237,0,0,0,0,0,0,0,0,0,-1,1511,1261,0,0
294,-237,0,0,0,0,0,0,0,0,0,-1,1518,1261,0,0
301,-237,0,0,0,0,0,0,0,0,0,-1,1525,1261,0,0
308,-237,0,0,0,0,0,0,0,0,0,-1,1532,1261,0,0
315,-237,0,0,0,0,0,0,0,0,0,-1,1539,1261,0,0
322,-237,0,0,0,0,0,0,0,0,0,-1,1546,1261,0,0
329,-237,0,0,0,0,0,0,0,0,0,-1,1553,1261,0,0
336,-237,0,0,0,0,0,0,0,0,0,-1,1560,1261,0,0
343,-237,0,0,0,0,0,0,0,0,0,-1,1567,1261,0,0
350,-237,0,0,0,0,0,0,0,0,0,-1,1574,1261,0,0
357,-237,0,0,0,0,0,0,0,0,0,-1,1581,1261,0,0
364,-237,0,0,0,0,0,0,0,0,0,-1,1588,1261,0,0
371,-237,0,0,0,0,0,0,0,0,0,-1,1595,1261,0,0
378,-237,0,0,0,0,0,0,0,0,0,-1,1602,1261,0,0
385,-237,0,0,0,0,0,0,0,0,0,-1,1609,1261,0,0
392,-237,0,0,0,0,0,0,0,0,0,-1,1616,1261,0,0
399,-237,0,0,0,0,0,0,0,0,0,-1,1623,1261,0,0
406,-237,0,0,0,0,0,0,0,0,0,-1,1630,1261,0,0
413,-237,0,0,0,0,0,0,0,0,0,-1,1637,1261,0,0
420,-237,0,0,0,0,0,0,0,0,0,-1,1644,1261,0,0
427,-237,0,0,0,0,0,0,0,0,0,-1,1651,1261,0,0
434,-237,0,0,0,0,0,0,0,0,0,-1,1658,1261,0,0
441,-237,0,0,0,0,0,0,0,0,0,-1,1665,1261,0,0
448,-237,0,0,0,0,0,0,0,0,0,-1,1672,1261,0,0
455,-237,0,0,0,0,0,0,0,0,0,-1,1679,1261,0,0
462,-237,0,0,0,0,0,0,0,0,0,-1,1686,1261,0,0
469,-237,0,0,0,0,0,0,0,0,0,-1,1693,1261,0,0
476,-237,0,0,0,0,0,0,0,0,0,-1,1700,1261,0,0
483,-237,0,0,0,0,0,0,0,0,0,-1,1707,1261,0,0
490,-237,0,0,0,0,0,0,0,0,0,-1,1714,1261,0,0
497,-237,0,0,0,0,0,0,0,0,0,-1,1721,1261,0,0
504,-237,0,0,0,0,0,0,0,0,0,-1,1728,1261,0,0
511,-237,0,0,0,0,0,0,0,0,0,-1,1735,1261,0,0
518,-237,0,0,0,0,0,0,0,0,0,-1,1742,1261,0,0
525,-237,0,0,0,0,0,0,0,0,0,-1,1749,1261,0,0
532,-237,0,0,0,0,0,0,0,0,0,-1,1756,1261,0,0
539,-237,0,0,0,0,0,0,0,0,0,-1,1763,1261,0,0
546,-237,0,0,0,0,0,0,0,0,0,-1,1770,1261,0,0
553,-237,0,0,0,0,0,0,0,0,0,-1,1777,1261,0,0
560,-237,0,0,0,0,0,0,0,0,0,-1,1784,1261,0,0
567,-237,0,0,0,0,0,0,0,0,0,-1,1791,1261,0,0
574,-237,0,0,0,0,0,0,0,0,0,-1,1798,1261,0,0
581,-237,0,0,0,0,0,0,0,0,0,-1,1805,1261,0,0
588,-237,0,0,0,0,0,0,0,0,0,-1,1812,1261,0,0
595,-237,0,0,0,0,0,0,0,0,0,-1,1819,1261,0,0
602,-237,0,0,0,0,0,0,0,0,0,-1,1826,1261,0,0
609,-237,0,0,0,0,0,0,0,0,0,-1,1833,1261,0,0
616,-237,39.5564,2.69263,-0.00350056,0.00361671,0.000892882,0.00372702,-0.00361086,1.44788,0.00423671,0.0372256,1840,1261,39.5564,-2.6926
623,-237,39.5408,2.72791,-0.000125807,0.00493801,0.000838828,0.00507335,-0.000261143,1.41084,0.00347256,0.0330006,1847,1261,39.5407,-2.72793
630,-237,39.4246,2.66577,0.00247958,0.00598254,0.000926971,0.00621271,0.0022494,1.32741,0.00363212,0.0263919,1854,1261,39.4245,-2.66574
637,-237,39.3167,2.54468,0.00385542,0.00608534,0.00123462,0.00663393,0.00330683,1.15265,0.00383011,0.0215175,1861,1261,39.3166,-2.54469
644,-237,39.1835,2.35132,0.00393357,0.00505209,0.00144951,0.00604648,0.00293917,0.969512,0.00349139,0.0410478,1868,1261,39.1835,-2.3513
651,-237,39.3328,2.36975,0.00379645,0.00406536,0.00125295,0.00519105,0.00267076,0.838849,0.00299747,0.0496771,1875,1261,39.3328,-2.36978
658,-237,36.9263,2.0531,0,0,0,0,0,0,0,-1,1882,1261,36.9262,-2.05307
665,-237,37.7472,2.24146,0,0,0,0,0,0,0,-1,1889,1261,37.7472,-2.24146
672,-237,38.5681,2.42981,0,0,0,0,0,0,0,-1,1896,1261,38.5681,-2.42986
679,-237,23.1501,7.37488,0,0,0,0,0,0,0,-1,1903,1261,23.1502,-7.37493
686,-237,30.6765,8.39807,0,0,0,0,0,0,0,-1,1910,1261,30.6766,-8.39804
693,-237,30.7185,8.02893,0.0019095,-0.000298174,0.00112824,0.00238407,-0.000772748,0.398165,0.00190008,0.0442587,1917,1261,30.7185,-8.02889
700,-237,30.8341,7.69653,0.00185892,-0.000781831,0.00103323,0.00221513,-0.00113805,0.331998,0.00196897,0.0133816,1924,1261,30.834,-7.69656
707,-237,30.8237,7.33618,0.00143171,-0.00101367,0.000854822,0.00170089,-0.00128286,0.305071,0.0017283,0.0106541,1931,1261,30.8238,-7.33621
714,-237,30.8064,6.96704,0.000789951,-0.000739053,0.000924151,0.00122483,-0.00117393,0.43983,0.00138503,0.0138308,1938,1261,30.8064,-6.96708
721,-237,30.777,6.60107,0.000550621,-0.000217584,0.00103928,0.00127451,-0.000941469,0.608391,0.0012842,0.0168187,1945,1261,30.777,-6.60105
728,-237,30.7927,6.25586,0.000484531,0.000512204,0.00155376,0.00205218,-0.00105545,0.789851,0.0018247,0.0156235,1952,1261,30.7927,-6.25582
735,-237,30.7836,5.89038,0.000751502,0.00143886,0.00217137,0.00329359,-0.00110322,0.863886,0.00264141,0.0195905,1959,1261,30.7836,-5.89039
742,-237,30.7903,5.56287,0.00149149,0.00253826,0.00295985,0.00502064,-0.000990887,0.872908,0.00372162,0.0157063,1966,1261,30.7903,-5.56286
749,-237,30.762,5.24695,0.00299842,0.0039339,0.00393427,0.00742813,-0.000495821,0.844565,0.00512536,0.0114549,1973,1261,30.762,-5.24689
756,-237,30.7091,4.88831,0.00570902,0.00584104,0.00501643,0.0107919,0.000758162,0.791977,0.00695567,0.0175365,1980,1261,30.7091,-4.88826
763,-237,30.4755,4.45276,0.0100172,0.00837137,0.00645321,0.0156998,0.00268882,0.721979,0.00969533,0.0310399,1987,1261,30.4754,-4.45273
770,-237,31.0118,4.28784,0.0163666,0.0118167,0.00855517,0.0229441,0.00523917,0.655447,0.0138832,0.0449024,1994,1261,31.0119,-4.28788
777,-237,31.3536,4.15723,0,0,0,0,0,0,0,-1,2001,1261,31.3536,-4.15721
784,-237,36.3441,1.68591,0,0,0,0,0,0,0,-1,2008,1261,36.3441,-1.68592
791,-237,32.3025,6.03235,0,0,0,0,0,0,0,-1,2015,1261,32.3025,-6.03229
798,-237,0,0,0,0,0,0,0,0,0,-1,2022,1261,0,0
805,-237,0,0,0,0,0,0,0,0,0,-1,2029,1261,0,0
812,-237,0,0,0,0,0,0,0,0,0,-1,2036,1261,0,0
-700,-244,0,0,0,0,0,0,0,0,0,-1,524,1268,0,0
-693,-244,0,0,0,0,0,0,0,0,0,-1,531,1268,0,0
-686,-244,0,0,0,0,0,0,0,0,0,-1,538,1268,0,0
-679,-244,0,0,0,0,0,0,0,0,0,-1,545,1268,0,0
-672,-244,-22.4173,-3.02673,0,0,0,0,0,0,0,-1,552,1268,-22.4173,3.02672
-665,-244,-20.8929,-4.05994,0,0,0,0,0,0,0,-1,559,1268,-20.8929,4.05994
-658,-244,-20.7811,-3.50452,0,0,0,0,0,0,0,-1,566,1268,-20.7811,3.50447
-651,-244,-20.6628,-2.89441,0,0,0,0,0,0,0,-1,573,1268,-20.6629,2.89444
-644,-244,-20.1005,0.730835,0,0,0,0,0,0,0,-1,580,1268,-20.1005,-0.730782
-637,-244,-19.7509,1.27905,0.00973246,-0.0092568,0.00705289,0.0120654,-0.0115897,0.319448,0.0136582,0.048839,587,1268,-19.7509,-1.27908
-630,-244,-19.322,2.00989,0.00622223,-0.00455004,0.00617878,0.00903291,-0.00736072,0.426915,0.00948127,0.0435741,594,1268,-19.3219,-2.00985
-623,-244,-19.0189,2.40442,0.00393626,-0.00152045,0.00514899,0.00703509,-0.00461928,0.541765,0.00677666,0.0342514,601,1268,-19.0188,-2.40446
-616,-244,-18.8757,2.69922,0.00235302,-5.90431e-05,0.00407256,0.00539437,-0.00310039,0.641444,0.00496371,0.0174374,608,1268,-18.8757,-2.69918
-609,-244,-18.8602,3.03833,0.00175988,0.000695781,0.00322065,0.00449213,-0.00203647,0.703538,0.00385714,0.0147234,615,1268,-18.8602,-3.03836
-602,-244,-18.8649,3.44421,0.00176818,0.000968057,0.00265399,0.00405209,-0.00131585,0.710592,0.00323061,0.0141358,622,1268,-18.8649,-3.44422
-595,-244,-18.8864,3.86841,0.00230852,0.000876308,0.00226296,0.00396597,-0.000781151,0.632161,0.00293917,0.0155402,629,1268,-18.8864,-3.86845
-588,-244,-18.8837,4.27258,0.00335277,0.000568613,0.00207773,0.00446167,-0.000540281,0.490245,0.00316992,0.0209926,636,1268,-18.8837,-4.27264
-581,-244,-18.9013,4.65027,0.00442193,0.000235374,0.00203564,0.00524852,-0.000591217,0.38572,0.00371181,0.0188276,643,1268,-18.9013,-4.65031
-574,-244,-18.9116,5.06702,0.00539167,-0.000459124,0.00224519,0.00615393,-0.00122139,0.327298,0.00456455,0.0140255,650,1268,-18.9117,-5.06704
-567,-244,-18.8962,5.48804,0.00472752,-0.000836986,0.00257522,0.0057364,-0.00184587,0.373387,0.00456568,0.0121739,657,1268,-18.8963,-5.48804
-560,-244,-18.8146,5.88257,0.0036861,-0.00145912,0.0026414,0.00480066,-0.00257369,0.399295,0.00432182,0.0310574,664,1268,-18.8146,-5.88252
-553,-244,-18.6725,6.3031,0,0,0,0,0,0,0,-1,671,1268,-18.6726,-6.30311
-546,-244,-11.2686,4.41772,0,0,0,0,0,0,0,-1,678,1268,-11.2686,-4.41767
-539,-244,-12.8706,0.3302,0,0,0,0,0,0,0,-1,685,1268,-12.8706,-0.330156
-532,-244,-18.1502,0.816528,0,0,0,0,0,0,0,-1,692,1268,-18.1502,-0.816514
-525,-244,-28.3013,0.991211,0,0,0,0,0,0,0,-1,699,1268,-28.3013,-0.99119
-518,-244,-28.3474,0.950684,-0.00396836,-0.00198592,-0.00131405,-0.00133117,-0.00462311,-1.10853,0.00274801,0.0433971,706,1268,-28.3474,-0.950685
-511,-244,-28.4894,0.903931,-0.00428763,-0.00108746,-0.00263391,0.000394299,-0.00576939,-1.05835,0.0039842,0.0496929,713,1268,-28.4895,-0.90387
-504,-244,-28.5596,0.890137,-0.00315082,0.0001784,-0.00394369,0.0027944,-0.00576682,-0.985102,0.00504115,0.0491409,720,1268,-28.5596,-0.890087
-497,-244,-28.489,0.761597,-0.000434911,0.00156975,-0.00572529,0.00637979,-0.00524495,-0.872055,0.0067222,0.0450502,727,1268,-28.489,-0.76158
-490,-244,0,0,0,0,0,0,0,0,0,-1,734,1268,0,0
-483,-244,0,0,0,0,0,0,0,0,0,-1,741,1268,0,0
-476,-244,0,0,0,0,0,0,0,0,0,-1,748,1268,0,0
-469,-244,0,0,0,0,0,0,0,0,0,-1,755,1268,0,0
-462,-244,0,0,0,0,0,0,0,0,0,-1,762,1268,0,0
-455,-244,0,0,0,0,0,0,0,0,0,-1,769,1268,0,0
-448,-244,0,0,0,0,0,0,0,0,0,-1,776,1268,0,0
-441,-244,0,0,0,0,0,0,0,0,0,-1,783,1268,0,0
-434,-244,0,0,0,0,0,0,0,0,0,-1,790,1268,0,0
-427,-244,0,0,0,0,0,0,0,0,0,-1,797,1268,0,0
-420,-244,0,0,0,0,0,0,0,0,0,-1,804,1268,0,0
-413,-244,0,0,0,0,0,0,0,0,0,-1,811,1268,0,0
-406,-244,0,0,0,0,0,0,0,0,0,-1,818,1268,0,0
-399,-244,0,0,0,0,0,0,0,0,0,-1,825,1268,0,0
-392,-244,0,0,0,0,0,0,0,0,0,-1,832,1268,0,0
-385,-244,0,0,0,0,0,0,0,0,0,-1,839,1268,0,0
-378,-244,0,0,0,0,0,0,0,0,0,-1,846,1268,0,0
-371,-244,0,0,0,0,0,0,0,0,0,-1,853,1268,0,0
-364,-244,0,0,0,0,0,0,0,0,0,-1,860,1268,0,0
-357,-244,0,0,0,0,0,0,0,0,0,-1,867,1268,0,0
-350,-244,0,0,0,0,0,0,0,0,0,-1,874,1268,0,0
-343,-244,0,0,0,0,0,0,0,0,0,-1,881,1268,0,0
-336,-244,0,0,0,0,0,0,0,0,0,-1,888,1268,0,0
-329,-244,0,0,0,0,0,0,0,0,0,-1,895,1268,0,0
-322,-244,0,0,0,0,0,0,0,0,0,-1,902,1268,0,0
-315,-244,0,0,0,0,0,0,0,0,0,-1,909,1268,0,0
-308,-244,0,0,0,0,0,0,0,0,0,-1,916,1268,0,0
-301,-244,0,0,0,0,0,0,0,0,0,-1,923,1268,0,0
-294,-244,0,0,0,0,0,0,0,0,0,-1,930,1268,0,0
-287,-244,0,0,0,0,0,0,0,0,0,-1,937,1268,0,0
-280,-244,0,0,0,0,0,0,0,0,0,-1,944,1268,0,0
-273,-244,0,0,0,0,0,0,0,0,0,-1,951,1268,0,0
-266,-244,0,0,0,0,0,0,0,0,0,-1,958,1268,0,0
-259,-244,0,0,0,0,0,0,0,0,0,-1,965,1268,0,0
-252,-244,0,0,0,0,0,0,0,0,0,-1,972,1268,0,0
-245,-244,0,0,0,0,0,0,0,0,0,-1,979,1268,0,0
-238,-244,0,0,0,0,0,0,0,0,0,-1,986,1268,0,0
-231,-244,0,0,0,0,0,0,0,0,0,-1,993,1268,0,0
-224,-244,0,0,0,0,0,0,0,0,0,-1,1000,1268,0,0
-217,-244,0,0,0,0,0,0,0,0,0,-1,1007,1268,0,0
-210,-244,0,0,0,0,0,0,0,0,0,-1,1014,1268,0,0
-203,-244,0,0,0,0,0,0,0,0,0,-1,1021,1268,0,0
-196,-244,0,0,0,0,0,0,0,0,0,-1,1028,1268,0,0
-189,-244,0,0,0,0,0,0,0,0,0,-1,1035,1268,0,0
-182,-244,0,0,0,0,0,0,0,0,0,-1,1042,1268,0,0
-175,-244,0,0,0,0,0,0,0,0,0,-1,1049,1268,0,0
-168,-244,0,0,0,0,0,0,0,0,0,-1,1056,1268,0,0
-161,-244,0,0,0,0,0,0,0,0,0,-1,1063,1268,0,0
-154,-244,0,0,0,0,0,0,0,0,0,-1,1070,1268,0,0
-147,-244,0,0,0,0,0,0,0,0,0,-1,1077,1268,0,0
-140,-244,0,0,0,0,0,0,0,0,0,-1,1084,1268,0,0
-133,-244,0,0,0,0,0,0,0,0,0,-1,1091,1268,0,0
-126,-244,0,0,0,0,0,0,0,0,0,-1,1098,1268,0,0
-119,-244,0,0,0,0,0,0,0,0,0,-1,1105,1268,0,0
-112,-244,0,0,0,0,0,0,0,0,0,-1,1112,1268,0,0
-105,-244,0,0,0,0,0,0,0,0,0,-1,1119,1268,0,0
-98,-244,0,0,0,0,0,0,0,0,0,-1,1126,1268,0,0
-91,-244,0,0,0,0,0,0,0,0,0,-1,1133,1268,0,0
-84,-244,0,0,0,0,0,0,0,0,0,-1,1140,1268,0,0
-77,-244,0,0,0,0,0,0,0,0,0,-1,1147,1268,0,0
-70,-244,0,0,0,0,0,0,0,0,0,-1,1154,1268,0,0
-63,-244,0,0,0,0,0,0,0,0,0,-1,1161,1268,0,0
-56,-244,0,0,0,0,0,0,0,0,0,-1,1168,1268,0,0
-49,-244,0,0,0,0,0,0,0,0,0,-1,1175,1268,0,0
-42,-244,0,0,0,0,0,0,0,0,0,-1,1182,1268,0,0
-35,-244,0,0,0,0,0,0,0,0,0,-1,1189,1268,0,0
-28,-244,0,0,0,0,0,0,0,0,0,-1,1196,1268,0,0
-21,-244,0,0,0,0,0,0,0,0,0,-1,1203,1268,0,0
-14,-244,0,0,0,0,0,0,0,0,0,-1,1210,1268,0,0
-7,-244,0,0,0,0,0,0,0,0,0,-1,1217,1268,0,0
0,-244,0,0,0,0,0,0,0,0,0,-1,1224,1268,0,0
7,-244,0,0,0,0,0,0,0,0,0,-1,1231,1268,0,0
14,-244,0,0,0,0,0,0,0,0,0,-1,1238,1268,0,0
21,-244,0,0,0,0,0,0,0,0,0,-1,1245,1268,0,0
28,-244,0,0,0,0,0,0,0,0,0,-1,1252,1268,0,0
35,-244,0,0,0,0,0,0,0,0,0,-1,1259,1268,0,0
42,-244,0,0,0,0,0,0,0,0,0,-1,1266,1268,0,0
49,-244,0,0,0,0,0,0,0,0,0,-1,1273,1268,0,0
56,-244,0,0,0,0,0,0,0,0,0,-1,1280,1268,0,0
63,-244,0,0,0,0,0,0,0,0,0,-1,1287,1268,0,0
70,-244,0,0,0,0,0,0,0,0,0,-1,1294,1268,0,0
77,-244,0,0,0,0,0,0,0,0,0,-1,1301,1268,0,0
84,-244,0,0,0,0,0,0,0,0,0,-1,1308,1268,0,0
91,-244,0,0,0,0,0,0,0,0,0,-1,1315,1268,0,0
98,-244,0,0,0,0,0,0,0,0,0,-1,1322,1268,0,0
105,-244,0,0,0,0,0,0,0,0,0,-1,1329,1268,0,0
112,-244,0,0,0,0,0,0,0,0,0,-1,1336,1268,0,0
119,-244,0,0,0,0,0,0,0,0,0,-1,1343,1268,0,0
126,-244,0,0,0,0,0,0,0,0,0,-1,1350,1268,0,0
133,-244,0,0,0,0,0,0,0,0,0,-1,1357,1268,0,0
140,-244,0,0,0,0,0,0,0,0,0,-1,1364,1268,0,0
147,-244,0,0,0,0,0,0,0,0,0,-1,1371,1268,0,0
154,-244,0,0,0,0,0,0,0,0,0,-1,1378,1268,0,0
161,-244,0,0,0,0,0,0,0,0,0,-1,1385,1268,0,0
168,-244,0,0,0,0,0,0,0,0,0,-1,1392,1268,0,0
175,-244,0,0,0,0,0,0,0,0,0,-1,1399,1268,0,0
182,-244,0,0,0,0,0,0,0,0,0,-1,1406,1268,0,0
189,-244,0,0,0,0,0,0,0,0,0,-1,1413,1268,0,0
196,-244,0,0,0,0,0,0,0,0,0,-1,1420,1268,0,0
203,-244,0,0,0,0,0,0,0,0,0,-1,1427,1268,0,0
210,-244,0,0,0,0,0,0,0,0,0,-1,1434,1268,0,0
217,-244,0,0,0,0,0,0,0,0,0,-1,1441,1268,0,0
224,-244,0,0,0,0,0,0,0,0,0,-1,1448,1268,0,0
231,-244,0,0,0,0,0,0,0,0,0,-1,1455,1268,0,0
238,-244,0,0,0,0,0,0,0,0,0,-1,1462,1268,0,0
245,-244,0,0,0,0,0,0,0,0,0,-1,1469,1268,0,0
252,-244,0,0,0,0,0,0,0,0,0,-1,1476,1268,0,0
259,-244,0,0,0,0,0,0,0,0,0,-1,1483,1268,0,0
266,-244,0,0,0,0,0,0,0,0,0,-1,1490,1268,0,0
273,-244,0,0,0,0,0,0,0,0,0,-1,1497,1268,0,0
280,-244,0,0,0,0,0,0,0,0,0,-1,1504,1268,0,0
287,-244,0,0,0,0,0,0,0,0,0,-1,1511,1268,0,0
294,-244,0,0,0,0,0,0,0,0,0,-1,1518,1268,0,0
301,-244,0,0,0,0,0,0,0,0,0,-1,1525,1268,0,0
308,-244,0,0,0,0,0,0,0,0,0,-1,1532,1268,0,0
315,-244,0,0,0,0,0,0,0,0,0,-1,1539,1268,0,0
322,-244,0,0,0,0,0,0,0,0,0,-1,1546,1268,0,0
329,-244,0,0,0,0,0,0,0,0,0,-1,1553,1268,0,0
336,-244,0,0,0,0,0,0,0,0,0,-1,1560,1268,0,0
343,-244,0,0,0,0,0,0,0,0,0,-1,1567,1268,0,0
350,-244,0,0,0,0,0,0,0,0,0,-1,1574,1268,0,0
357,-244,0,0,0,0,0,0,0,0,0,-1,1581,1268,0,0
364,-244,0,0,0,0,0,0,0,0,0,-1,1588,1268,0,0
371,-244,0,0,0,0,0,0,0,0,0,-1,1595,1268,0,0
378,-244,0,0,0,0,0,0,0,0,0,-1,1602,1268,0,0
385,-244,0,0,0,0,0,0,0,0,0,-1,1609,1268,0,0
392,-244,0,0,0,0,0,0,0,0,0,-1,1616,1268,0,0
399,-244,0,0,0,0,0,0,0,0,0,-1,1623,1268,0,0
406,-244,0,0,0,0,0,0,0,0,0,-1,1630,1268,0,0
413,-244,0,0,0,0,0,0,0,0,0,-1,1637,1268,0,0
420,-244,0,0,0,0,0,0,0,0,0,-1,1644,1268,0,0
427,-244,0,0,0,0,0,0,0,0,0,-1,1651,1268,0,0
434,-244,0,0,0,0,0,0,0,0,0,-1,1658,1268,0,0
441,-244,0,0,0,0,0,0,0,0,0,-1,1665,1268,0,0
448,-244,0,0,0,0,0,0,0,0,0,-1,1672,1268,0,0
455,-244,0,0,0,0,0,0,0,0,0,-1,1679,1268,0,0
462,-244,0,0,0,0,0,0,0,0,0,-1,1686,1268,0,0
469,-244,0,0,0,0,0,0,0,0,0,-1,1693,1268,0,0
476,-244,0,0,0,0,0,0,0,0,0,-1,1700,1268,0,0
483,-244,0,0,0,0,0,0,0,0,0,-1,1707,1268,0,0
490,-244,0,0,0,0,0,0,0,0,0,-1,1714,1268,0,0
497,-244,0,0,0,0,0,0,0,0,0,-1,1721,1268,0,0
504,-244,0,0,0,0,0,0,0,0,0,-1,1728,1268,0,0
511,-244,0,0,0,0,0,0,0,0,0,-1,1735,1268,0,0
518,-244,0,0,0,0,0,0,0,0,0,-1,1742,1268,0,0
525,-244,0,0,0,0,0,0,0,0,0,-1,1749,1268,0,0
532,-244,0,0,0,0,0,0,0,0,0,-1,1756,1268,0,0
539,-244,0,0,0,0,0,0,0,0,0,-1,1763,1268,0,0
546,-244,0,0,0,0,0,0,0,0,0,-1,1770,1268,0,0
553,-244,0,0,0,0,0,0,0,0,0,-1,1777,1268,0,0
560,-244,0,0,0,0,0,0,0,0,0,-1,1784,1268,0,0
567,-244,0,0,0,0,0,0,0,0,0,-1,1791,1268,0,0
574,-244,0,0,0,0,0,0,0,0,0,-1,1798,1268,0,0
581,-244,0,0,0,0,0,0,0,0,0,-1,1805,1268,0,0
588,-244,0,0,0,0,0,0,0,0,0,-1,1812,1268,0,0
595,-244,0,0,0,0,0,0,0,0,0,-1,1819,1268,0,0
602,-244,0,0,0,0,0,0,0,0,0,-1,1826,1268,0,0
609,-244,0,0,0,0,0,0,0,0,0,-1,1833,1268,0,0
616,-244,39.5054,2.55481,-0.0026208,0.00450947,-0.00017957,0.00451399,-0.00262532,-1.54563,0.00416968,0.0319419,1840,1268,39.5054,-2.55483
623,-244,39.4899,2.67529,0.00174353,0.00646276,-0.0002987,0.00648159,0.0017247,-1.50784,0.00387624,0.0266923,1847,1268,39.4898,-2.67534
630,-244,39.4169,2.6969,0.00473636,0.00769582,-8.23407e-05,0.00769811,0.00473407,-1.543,0.0044835,0.0252035,1854,1268,39.4169,-2.69689
637,-244,39.3629,2.57239,0.00568642,0.00740407,0.000333047,0.00746639,0.0056241,1.38583,0.00449126,0.0401087,1861,1268,39.3629,-2.57244
644,-244,39.1493,2.4231,0.00520501,0.00600236,0.000611574,0.00633373,0.00487365,1.07425,0.00382972,0.0466801,1868,1268,39.1493,-2.42312
651,-244,39.3116,2.3833,0.00471074,0.00481757,0.000554573,0.00532129,0.00420701,0.833409,0.0032406,0.045757,1875,1268,39.3117,-2.38331
658,-244,38.9381,2.74585,0,0,0,0,0,0,0,-1,1882,1268,38.9381,-2.74588
665,-244,37.0052,1.95105,0,0,0,0,0,0,0,-1,1889,1268,37.0052,-1.95099
672,-244,32.224,3.6123,0,0,0,0,0,0,0,-1,1896,1268,32.224,-3.6123
679,-244,27.2593,7.90649,0,0,0,0,0,0,0,-1,1903,1268,27.2592,-7.9065
686,-244,30.4283,8.59937,0,0,0,0,0,0,0,-1,1910,1268,30.4283,-8.59937
693,-244,30.4167,8.16248,0.00186543,-0.000271065,0.000984218,0.00224971,-0.000655347,0.372241,0.00175942,0.0230247,1917,1268,30.4168,-8.16252
700,-244,30.4484,7.71155,0.00182362,-0.00064579,0.0008257,0.00207427,-0.00089644,0.294719,0.0017595,0.00961922,1924,1268,30.4484,-7.71151
707,-244,30.455,7.33496,0.00137661,-0.000775351,0.000574545,0.0015204,-0.00091914,0.245228,0.00142265,0.0105548,1931,1268,30.455,-7.33491
714,-244,30.4834,6.98169,0.000668481,-0.000438862,0.000650427,0.00096898,-0.000739361,0.43279,0.000989277,0.0125532,1938,1268,30.4834,-6.98169
721,-244,30.4502,6.64966,0.000393688,0.000159148,0.000853701,0.00113814,-0.0005853,0.717142,0.00101195,0.017048,1945,1268,30.4502,-6.64969
728,-244,30.415,6.26343,0.000226448,0.000932646,0.00141107,0.00203412,-0.000875031,0.907998,0.00172347,0.0213716,1952,1268,30.415,-6.26347
735,-244,30.3966,5.83301,0.000363721,0.0018806,0.00210136,0.0033562,-0.00111189,0.958586,0.00268594,0.0236514,1959,1268,30.3966,-5.83299
742,-244,30.3757,5.57166,0.000997572,0.00306398,0.00292975,0.00513738,-0.00107582,0.95492,0.00383417,0.0177224,1966,1268,30.3757,-5.57166
749,-244,30.2842,5.33069,0.00244505,0.00462154,0.00397929,0.00765871,-0.00059212,0.918873,0.00531418,0.0250601,1973,1268,30.2842,-5.33065
756,-244,30.1259,5.00818,0.00515727,0.00682948,0.0051439,0.0112048,0.000781967,0.865965,0.00722332,0.0346096,1980,1268,30.1259,-5.00816
763,-244,30.0862,4.40344,0.00953159,0.00987063,0.00665899,0.0163623,0.00303996,0.798124,0.0100493,0.043071,1987,1268,30.0862,-4.40341
770,-244,30.1781,3.88879,0.0161654,0.0140438,0.00885984,0.0240277,0.00618151,0.725816,0.014407,0.0484133,1994,1268,30.1781,-3.88877
777,-244,30.0172,3.53699,0,0,0,0,0,0,0,-1,2001,1268,30.0173,-3.53699
784,-244,31.7908,5.20081,0,0,0,0,0,0,0,-1,2008,1268,31.7907,-5.20083
791,-244,0,0,0,0,0,0,0,0,0,-1,2015,1268,0,0
798,-244,0,0,0,0,0,0,0,0,0,-1,2022,1268,0,0
805,-244,0,0,0,0,0,0,0,0,0,-1,2029,1268,0,0
812,-244,0,0,0,0,0,0,0,0,0,-1,2036,1268,0,0
-700,-251,0,0,0,0,0,0,0,0,0,-1,524,1275,0,0
-693,-251,0,0,0,0,0,0,0,0,0,-1,531,1275,0,0
-686,-251,0,0,0,0,0,0,0,0,0,-1,538,1275,0,0
-679,-251,0,0,0,0,0,0,0,0,0,-1,545,1275,0,0
-672,-251,0,0,0,0,0,0,0,0,0,-1,552,1275,0,0
-665,-251,-20.0803,-4.50146,0,0,0,0,0,0,0,-1,559,1275,-20.0803,4.50144
-658,-251,-20.0833,-3.88184,0,0,0,0,0,0,0,-1,566,1275,-20.0833,3.88178
-651,-251,-20.0338,-1.60632,0,0,0,0,0,0,0,-1,573,1275,-20.0337,1.60637
-644,-251,-19.8902,1.23889,0,0,0,0,0,0,0,-1,580,1275,-19.8902,-1.23887
-637,-251,-19.3776,1.89136,0.00756739,-0.00960385,0.0118628,0.0136255,-0.015662,0.472156,0.0169228,0.0466429,587,1275,-19.3776,-1.89131
-630,-251,-19.2236,2.1991,0.00467573,-0.00382297,0.00947961,0.0108148,-0.00996207,0.574694,0.0119989,0.0471674,594,1275,-19.2236,-2.19911
-623,-251,-18.9653,2.66333,0.00280996,-0.000420602,0.00745224,0.00881996,-0.00643061,0.678674,0.00884087,0.040518,601,1275,-18.9653,-2.66331
-616,-251,-18.4595,2.70251,0.00147298,0.00107844,0.00570529,0.00698441,-0.00443299,0.768117,0.00664648,0.0213222,608,1275,-18.4595,-2.70249
-609,-251,-18.4539,3.02966,0.00105978,0.00171145,0.00437845,0.00577617,-0.00300494,0.822539,0.00515324,0.0201949,615,1275,-18.4539,-3.02965
-602,-251,-18.4523,3.44031,0.00129286,0.00178877,0.00344706,0.00499678,-0.00191514,0.821303,0.00412069,0.0147494,622,1275,-18.4524,-3.44034
-595,-251,-18.4858,3.84705,0.00196233,0.00155352,0.00283059,0.00459589,-0.00108004,0.749354,0.00348026,0.0134881,629,1275,-18.4858,-3.847
-588,-251,-18.4957,4.22437,0.00303264,0.00112117,0.00249804,0.00475153,-0.000597727,0.602692,0.00338457,0.0162387,636,1275,-18.4957,-4.22433
-581,-251,-18.4882,4.65125,0.00416997,0.000782612,0.002399,0.00541291,-0.000460329,0.478029,0.00377143,0.0151415,643,1275,-18.4882,-4.6512
-574,-251,-18.4918,5.09839,0.00539147,0.00012761,0.00255396,0.00642693,-0.00090785,0.385182,0.00461709,0.0137252,650,1275,-18.4918,-5.09836
-567,-251,-18.4993,5.5083,0.00508261,-0.000156701,0.00290621,0.00637558,-0.00144967,0.418604,0.00480704,0.0118768,657,1275,-18.4994,-5.50833
-560,-251,-18.4474,5.96118,0.00413468,-0.000639862,0.00300233,0.00558317,-0.00208835,0.449514,0.00457979,0.0276322,664,1275,-18.4474,-5.96116
-553,-251,-18.3111,6.40845,0,0,0,0,0,0,0,-1,671,1275,-18.3111,-6.40848
-546,-251,-12.995,4.5675,0,0,0,0,0,0,0,-1,678,1275,-12.995,-4.56745
-539,-251,-10.7916,0.366333,0,0,0,0,0,0,0,-1,685,1275,-10.7916,-0.366282
-532,-251,-10.7391,-0.00769043,0,0,0,0,0,0,0,-1,692,1275,-10.7391,0.00773227
-525,-251,-28.6204,1.06458,0,0,0,0,0,0,0,-1,699,1275,-28.6203,-1.06455
-518,-251,-28.3008,1.0802,0,0,0,0,0,0,0,-1,706,1275,-28.3008,-1.08016
-511,-251,-28.4444,0.898926,0,0,0,0,0,0,0,-1,713,1275,-28.4444,-0.89896
-504,-251,-28.5251,0.863159,0,0,0,0,0,0,0,-1,720,1275,-28.5252,-0.863141
-497,-251,-28.4337,0.718018,0,0,0,0,0,0,0,-1,727,1275,-28.4337,-0.718032
-490,-251,0,0,0,0,0,0,0,0,0,-1,734,1275,0,0
-483,-251,0,0,0,0,0,0,0,0,0,-1,741,1275,0,0
-476,-251,0,0,0,0,0,0,0,0,0,-1,748,1275,0,0
-469,-251,0,0,0,0,0,0,0,0,0,-1,755,1275,0,0
-462,-251,0,0,0,0,0,0,0,0,0,-1,762,1275,0,0
-455,-251,0,0,0,0,0,0,0,0,0,-1,769,1275,0,0
-448,-251,0,0,0,0,0,0,0,0,0,-1,776,1275,0,0
-441,-251,0,0,0,0,0,0,0,0,0,-1,783,1275,0,0
-434,-251,0,0,0,0,0,0,0,0,0,-1,790,1275,0,0
-427,-251,0,0,0,0,0,0,0,0,0,-1,797,1275,0,0
-420,-251,0,0,0,0,0,0,0,0,0,-1,804,1275,0,0
-413,-251,0,0,0,0,0,0,0,0,0,-1,811,1275,0,0
-406,-251,0,0,0,0,0,0,0,0,0,-1,818,1275,0,0
-399,-251,0,0,0,0,0,0,0,0,0,-1,825,1275,0,0
-392,-251,0,0,0,0,0,0,0,0,0,-1,832,1275,0,0
-385,-251,0,0,0,0,0,0,0,0,0,-1,839,1275,0,0
-378,-251,0,0,0,0,0,0,0,0,0,-1,846,1275,0,0
-371,-251,0,0,0,0,0,0,0,0,0,-1,853,1275,0,0
-364,-251,0,0,0,0,0,0,0,0,0,-1,860,1275,0,0
-357,-251,0,0,0,0,0,0,0,0,0,-1,867,1275,0,0
-350,-251,0,0,0,0,0,0,0,0,0,-1,874,1275,0,0
-343,-251,0,0,0,0,0,0,0,0,0,-1,881,1275,0,0
-336,-251,0,0,0,0,0,0,0,0,0,-1,888,1275,0,0
-329,-251,0,0,0,0,0,0,0,0,0,-1,895,1275,0,0
-322,-251,0,0,0,0,0,0,0,0,0,-1,902,1275,0,0
-315,-251,0,0,0,0,0,0,0,0,0,-1,909,1275,0,0
-308,-251,0,0,0,0,0,0,0,0,0,-1,916,1275,0,0
-301,-251,0,0,0,0,0,0,0,0,0,-1,923,1275,0,0
-294,-251,0,0,0,0,0,0,0,0,0,-1,930,1275,0,0
-287,-251,0,0,0,0,0,0,0,0,0,-1,937,1275,0,0
-280,-251,0,0,0,0,0,0,0,0,0,-1,944,1275,0,0
-273,-251,0,0,0,0,0,0,0,0,0,-1,951,1275,0,0
-266,-251,0,0,0,0,0,0,0,0,0,-1,958,1275,0,0
-259,-251,0,0,0,0,0,0,0,0,0,-1,965,1275,0,0
-252,-251,0,0,0,0,0,0,0,0,0,-1,972,1275,0,0
-245,-251,0,0,0,0,0,0,0,0,0,-1,979,1275,0,0
-238,-251,0,0,0,0,0,0,0,0,0,-1,986,1275,0,0
-231,-251,0,0,0,0,0,0,0,0,0,-1,993,1275,0,0
-224,-251,0,0,0,0,0,0,0,0,0,-1,1000,1275,0,0
-217,-251,0,0,0,0,0,0,0,0,0,-1,1007,1275,0,0
-210,-251,0,0,0,0,0,0,0,0,0,-1,1014,1275,0,0
-203,-251,0,0,0,0,0,0,0,0,0,-1,1021,1275,0,0
-196,-251,0,0,0,0,0,0,0,0,0,-1,1028,1275,0,0
-189,-251,0,0,0,0,0,0,0,0,0,-1,1035,1275,0,0
-182,-251,0,0,0,0,0,0,0,0,0,-1,1042,1275,0,0
-175,-251,0,0,0,0,0,0,0,0,0,-1,1049,1275,0,0
-168,-251,0,0,0,0,0,0,0,0,0,-1,1056,1275,0,0
-161,-251,0,0,0,0,0,0,0,0,0,-1,1063,1275,0,0
-154,-251,0,0,0,0,0,0,0,0,0,-1,1070,1275,0,0
-147,-251,0,0,0,0,0,0,0,0,0,-1,1077,1275,0,0
-140,-251,0,0,0,0,0,0,0,0,0,-1,1084,1275,0,0
-133,-251,0,0,0,0,0,0,0,0,0,-1,1091,1275,0,0
-126,-251,0,0,0,0,0,0,0,0,0,-1,1098,1275,0,0
-119,-251,0,0,0,0,0,0,0,0,0,-1,1105,1275,0,0
-112,-251,0,0,0,0,0,0,0,0,0,-1,1112,1275,0,0
-105,-251,0,0,0,0,0,0,0,0,0,-1,1119,1275,0,0
-98,-251,0,0,0,0,0,0,0,0,0,-1,1126,1275,0,0
-91,-251,0,0,0,0,0,0,0,0,0,-1,1133,1275,0,0
-84,-251,0,0,0,0,0,0,0,0,0,-1,1140,1275,0,0
-77,-251,0,0,0,0,0,0,0,0,0,-1,1147,1275,0,0
-70,-251,0,0,0,0,0,0,0,0,0,-1,1154,1275,0,0
-63,-251,0,0,0,0,0,0,0,0,0,-1,1161,1275,0,0
-56,-251,0,0,0,0,0,0,0,0,0,-1,1168,1275,0,0
-49,-251,0,0,0,0,0,0,0,0,0,-1,1175,1275,0,0
-42,-251,0,0,0,0,0,0,0,0,0,-1,1182,1275,0,0
-35,-251,0,0,0,0,0,0,0,0,0,-1,1189,1275,0,0
-28,-251,0,0,0,0,0,0,0,0,0,-1,1196,1275,0,0
-21,-251,0,0,0,0,0,0,0,0,0,-1,1203,1275,0,0
-14,-251,0,0,0,0,0,0,0,0,0,-1,1210,1275,0,0
-7,-251,0,0,0,0,0,0,0,0,0,-1,1217,1275,0,0
0,-251,0,0,0,0,0,0,0,0,0,-1,1224,1275,0,0
7,-251,0,0,0,0,0,0,0,0,0,-1,1231,1275,0,0
14,-251,0,0,0,0,0,0,0,0,0,-1,1238,1275,0,0
21,-251,0,0,0,0,0,0,0,0,0,-1,1245,1275,0,0
28,-251,0,0,0,0,0,0,0,0,0,-1,1252,1275,0,0
35,-251,0,0,0,0,0,0,0,0,0,-1,1259,1275,0,0
42,-251,0,0,0,0,0,0,0,0,0,-1,1266,1275,0,0
49,-251,0,0,0,0,0,0,0,0,0,-1,1273,1275,0,0
56,-251,0,0,0,0,0,0,0,0,0,-1,1280,1275,0,0
63,-251,0,0,0,0,0,0,0,0,0,-1,1287,1275,0,0
70,-251,0,0,0,0,0,0,0,0,0,-1,1294,1275,0,0
77,-251,0,0,0,0,0,0,0,0,0,-1,1301,1275,0,0
84,-251,0,0,0,0,0,0,0,0,0,-1,1308,1275,0,0
91,-251,0,0,0,0,0,0,0,0,0,-1,1315,1275,0,0
98,-251,0,0,0,0,0,0,0,0,0,-1,1322,1275,0,0
105,-251,0,0,0,0,0,0,0,0,0,-1,1329,1275,0,0
112,-251,0,0,0,0,0,0,0,0,0,-1,1336,1275,0,0
119,-251,0,0,0,0,0,0,0,0,0,-1,1343,1275,0,0
126,-251,0,0,0,0,0,0,0,0,0,-1,1350,1275,0,0
133,-251,0,0,0,0,0,0,0,0,0,-1,1357,1275,0,0
140,-251,0,0,0,0,0,0,0,0,0,-1,1364,1275,0,0
147,-251,0,0,0,0,0,0,0,0,0,-1,1371,1275,0,0
154,-251,0,0,0,0,0,0,0,0,0,-1,1378,1275,0,0
161,-251,0,0,0,0,0,0,0,0,0,-1,1385,1275,0,0
168,-251,0,0,0,0,0,0,0,0,0,-1,1392,1275,0,0
175,-251,0,0,0,0,0,0,0,0,0,-1,1399,1275,0,0
182,-251,0,0,0,0,0,0,0,0,0,-1,1406,1275,0,0
189,-251,0,0,0,0,0,0,0,0,0,-1,1413,1275,0,0
196,-251,0,0,0,0,0,0,0,0,0,-1,1420,1275,0,0
203,-251,0,0,0,0,0,0,0,0,0,-1,1427,1275,0,0
210,-251,0,0,0,0,0,0,0,0,0,-1,1434,1275,0,0
217,-251,0,0,0,0,0,0,0,0,0,-1,1441,1275,0,0
224,-251,0,0,0,0,0,0,0,0,0,-1,1448,1275,0,0
231,-251,0,0,0,0,0,0,0,0,0,-1,1455,1275,0,0
238,-251,0,0,0,0,0,0,0,0,0,-1,1462,1275,0,0
245,-251,0,0,0,0,0,0,0,0,0,-1,1469,1275,0,0
252,-251,0,0,0,0,0,0,0,0,0,-1,1476,1275,0,0
259,-251,0,0,0,0,0,0,0,0,0,-1,1483,1275,0,0
266,-251,0,0,0,0,0,0,0,0,0,-1,1490,1275,0,0
273,-251,0,0,0,0,0,0,0,0,0,-1,1497,1275,0,0
280,-251,0,0,0,0,0,0,0,0,0,-1,1504,1275,0,0
287,-251,0,0,0,0,0,0,0,0,0,-1,1511,1275,0,0
294,-251,0,0,0,0,0,0,0,0,0,-1,1518,1275,0,0
301,-251,0,0,0,0,0,0,0,0,0,-1,1525,1275,0,0
308,-251,0,0,0,0,0,0,0,0,0,-1,1532,1275,0,0
315,-251,0,0,0,0,0,0,0,0,0,-1,1539,1275,0,0
322,-251,0,0,0,0,0,0,0,0,0,-1,1546,1275,0,0
329,-251,0,0,0,0,0,0,0,0,0,-1,1553,1275,0,0
336,-251,0,0,0,0,0,0,0,0,0,-1,1560,1275,0,0
343,-251,0,0,0,0,0,0,0,0,0,-1,1567,1275,0,0
350,-251,0,0,0,0,0,0,0,0,0,-1,1574,1275,0,0
357,-251,0,0,0,0,0,0,0,0,0,-1,1581,1275,0,0
364,-251,0,0,0,0,0,0,0,0,0,-1,1588,1275,0,0
371,-251,0,0,0,0,0,0,0,0,0,-1,1595,1275,0,0
378,-251,0,0,0,0,0,0,0,0,0,-1,1602,1275,0,0
385,-251,0,0,0,0,0,0,0,0,0,-1,1609,1275,0,0
392,-251,0,0,0,0,0,0,0,0,0,-1,1616,1275,0,0
399,-251,0,0,0,0,0,0,0,0,0,-1,1623,1275,0,0
406,-251,0,0,0,0,0,0,0,0,0,-1,1630,1275,0,0
413,-251,0,0,0,0,0,0,0,0,0,-1,1637,1275,0,0
420,-251,0,0,0,0,0,0,0,0,0,-1,1644,1275,0,0
427,-251,0,0,0,0,0,0,0,0,0,-1,1651,1275,0,0
434,-251,0,0,0,0,0,0,0,0,0,-1,1658,1275,0,0
441,-251,0,0,0,0,0,0,0,0,0,-1,1665,1275,0,0
448,-251,0,0,0,0,0,0,0,0,0,-1,1672,1275,0,0
455,-251,0,0,0,0,0,0,0,0,0,-1,1679,1275,0,0
462,-251,0,0,0,0,0,0,0,0,0,-1,1686,1275,0,0
469,-251,0,0,0,0,0,0,0,0,0,-1,1693,1275,0,0
476,-251,0,0,0,0,0,0,0,0,0,-1,1700,1275,0,0
483,-251,0,0,0,0,0,0,0,0,0,-1,1707,1275,0,0
490,-251,0,0,0,0,0,0,0,0,0,-1,1714,1275,0,0
497,-251,0,0,0,0,0,0,0,0,0,-1,1721,1275,0,0
504,-251,0,0,0,0,0,0,0,0,0,-1,1728,1275,0,0
511,-251,0,0,0,0,0,0,0,0,0,-1,1735,1275,0,0
518,-251,0,0,0,0,0,0,0,0,0,-1,1742,1275,0,0
525,-251,0,0,0,0,0,0,0,0,0,-1,1749,1275,0,0
532,-251,0,0,0,0,0,0,0,0,0,-1,1756,1275,0,0
539,-251,0,0,0,0,0,0,0,0,0,-1,1763,1275,0,0
546,-251,0,0,0,0,0,0,0,0,0,-1,1770,1275,0,0
553,-251,0,0,0,0,0,0,0,0,0,-1,1777,1275,0,0
560,-251,0,0,0,0,0,0,0,0,0,-1,1784,1275,0,0
567,-251,0,0,0,0,0,0,0,0,0,-1,1791,1275,0,0
574,-251,0,0,0,0,0,0,0,0,0,-1,1798,1275,0,0
581,-251,0,0,0,0,0,0,0,0,0,-1,1805,1275,0,0
588,-251,0,0,0,0,0,0,0,0,0,-1,1812,1275,0,0
595,-251,0,0,0,0,0,0,0,0,0,-1,1819,1275,0,0
602,-251,0,0,0,0,0,0,0,0,0,-1,1826,1275,0,0
609,-251,39.4471,2.59583,-0.00718875,0.00436282,-0.000767716,0.00441362,-0.00723955,-1.50472,0.00679358,0.0274698,1833,1275,39.4471,-2.59577
616,-251,39.4628,2.58435,-0.00100888,0.00692473,-0.00174597,0.00729198,-0.00137612,-1.36348,0.00537902,0.0248738,1840,1275,39.4628,-2.58436
623,-251,39.433,2.64478,0.00411895,0.00910593,-0.00188356,0.00973739,0.00348749,-1.24733,0.00569679,0.0234079,1847,1275,39.433,-2.64475
630,-251,39.4672,2.66357,0.00704063,0.00992342,-0.00151637,0.0105742,0.0063899,-1.16543,0.0061491,0.0350873,1854,1275,39.4672,-2.66353
637,-251,39.6389,2.74133,0.00722294,0.00884673,-0.000868917,0.00922403,0.00684564,-1.16114,0.00552976,0.0393686,1861,1275,39.6389,-2.74139
644,-251,38.683,2.88647,0,0,0,0,0,0,0,-1,1868,1275,38.6829,-2.88651
651,-251,39.0465,2.46484,0,0,0,0,0,0,0,-1,1875,1275,39.0465,-2.46485
658,-251,39.41,2.04321,0,0,0,0,0,0,0,-1,1882,1275,39.4101,-2.04319
665,-251,32.9579,2.60229,0,0,0,0,0,0,0,-1,1889,1275,32.9579,-2.60231
672,-251,26.0721,4.53064,0,0,0,0,0,0,0,-1,1896,1275,26.0721,-4.53063
679,-251,29.1344,8.63782,0,0,0,0,0,0,0,-1,1903,1275,29.1344,-8.63778
686,-251,30.1423,8.48828,0,0,0,0,0,0,0,-1,1910,1275,30.1424,-8.48826
693,-251,30.1112,8.12659,0.00192965,-0.000265386,0.000831157,0.00220886,-0.000544591,0.32408,0.00168372,0.0128476,1917,1275,30.1113,-8.12664
700,-251,30.0936,7.73523,0.00183377,-0.000589179,0.000667933,0.0020057,-0.000761108,0.251936,0.00165041,0.00863785,1924,1275,30.0937,-7.73529
707,-251,30.1029,7.34546,0.00128881,-0.000654702,0.000418228,0.00137499,-0.00074088,0.20321,0.00123975,0.0106861,1931,1275,30.1029,-7.34551
714,-251,30.1193,6.99194,0.000491373,-0.000288191,0.000516383,0.00074857,-0.000545388,0.462105,0.000750131,0.0127662,1938,1275,30.1193,-6.99197
721,-251,30.0652,6.65808,0.000155136,0.000384098,0.000786239,0.00106415,-0.000524912,0.857693,0.000934886,0.0173651,1945,1275,30.0651,-6.65806
728,-251,30.0176,6.30298,-0.000121606,0.00120454,0.00132573,0.00202378,-0.00094084,1.01728,0.00174927,0.0196326,1952,1275,30.0176,-6.303
735,-251,30.037,5.89368,-0.000103368,0.00221388,0.00199789,0.00336479,-0.00125428,1.04816,0.00275806,0.0161249,1959,1275,30.0369,-5.89362
742,-251,29.9921,5.61963,0.000426692,0.00352158,0.00278284,0.00515828,-0.00121001,1.03914,0.00390518,0.0184026,1966,1275,29.9921,-5.61963
749,-251,29.8096,5.38269,0.00180592,0.00529305,0.00381759,0.00774639,-0.000647424,0.999612,0.00539304,0.0352394,1973,1275,29.8096,-5.38272
756,-251,29.5227,4.97632,0,0,0,0,0,0,0,-1,1980,1275,29.5227,-4.97628
763,-251,29.7383,4.35352,0,0,0,0,0,0,0,-1,1987,1275,29.7383,-4.3535
770,-251,29.9537,3.73071,0,0,0,0,0,0,0,-1,1994,1275,29.9538,-3.73073
777,-251,31.5731,4.33252,0,0,0,0,0,0,0,-1,2001,1275,31.5731,-4.33251
784,-251,32.0776,5.78247,0,0,0,0,0,0,0,-1,2008,1275,32.0776,-5.78247
791,-251,0,0,0,0,0,0,0,0,0,-1,2015,1275,0,0
798,-251,0,0,0,0,0,0,0,0,0,-1,2022,1275,0,0
805,-251,0,0,0,0,0,0,0,0,0,-1,2029,1275,0,0
812,-251,0,0,0,0,0,0,0,0,0,-1,2036,1275,0,0
-700,-258,0,0,0,0,0,0,0,0,0,-1,524,1282,0,0
-693,-258,0,0,0,0,0,0,0,0,0,-1,531,1282,0,0
-686,-258,0,0,0,0,0,0,0,0,0,-1,538,1282,0,0
-679,-258,0,0,0,0,0,0,0,0,0,-1,545,1282,0,0
-672,-258,0,0,0,0,0,0,0,0,0,-1,552,1282,0,0
-665,-258,-19.2227,-4.82874,0,0,0,0,0,0,0,-1,559,1282,-19.2227,4.82877
-658,-258,-19.5771,-4.8302,0,0,0,0,0,0,0,-1,566,1282,-19.5771,4.83025
-651,-258,-19.3992,-0.786133,0,0,0,0,0,0,0,-1,573,1282,-19.3992,0.786164
-644,-258,-19.4771,1.74585,0,0,0,0,0,0,0,-1,580,1282,-19.477,-1.74588
-637,-258,-18.7471,2.49524,0,0,0,0,0,0,0,-1,587,1282,-18.7472,-2.49518
-630,-258,-19.0774,2.3573,0,0,0,0,0,0,0,-1,594,1282,-19.0774,-2.35736
-623,-258,-17.7748,2.11023,0,0,0,0,0,0,0,-1,601,1282,-17.7749,-2.11024
-616,-258,-17.963,2.57971,0.000713406,0.002793,0.00698793,0.00881807,-0.00531166,0.859256,0.00824111,0.0357481,608,1282,-17.963,-2.57972
-609,-258,-18.0132,3.02808,0.000407053,0.0031158,0.00535725,0.00728723,-0.00376438,0.90921,0.0064878,0.0183883,615,1282,-18.0132,-3.02805
-602,-258,-18.0427,3.44458,0.0007662,0.00291245,0.0042132,0.00618704,-0.00250839,0.9101,0.00516789,0.0145514,622,1282,-18.0427,-3.44463
-595,-258,-18.0712,3.84448,0.00154343,0.00244825,0.0034239,0.0054495,-0.00145782,0.851083,0.00420406,0.0122982,629,1282,-18.0711,-3.84449
-588,-258,-18.0839,4.23499,0.00265959,0.00187972,0.00294308,0.00523845,-0.000699142,0.719536,0.00374715,0.0136001,636,1282,-18.084,-4.23497
-581,-258,-18.0739,4.66345,0.00386371,0.00152739,0.0027528,0.00568595,-0.000294853,0.584737,0.00389264,0.0154402,643,1282,-18.0739,-4.66348
-574,-258,-18.0616,5.09814,0.00528183,0.000877273,0.00279087,0.00663469,-0.000475588,0.451369,0.00458987,0.0154447,650,1282,-18.0616,-5.09814
-567,-258,-18.094,5.50928,0.00541881,0.000609973,0.00308345,0.00692449,-0.000895712,0.454253,0.00494203,0.0143012,657,1282,-18.094,-5.50926
-560,-258,-18.0748,5.91382,0.00474121,0.000301098,0.0031747,0.00639509,-0.00135278,0.480271,0.00477858,0.0318865,664,1282,-18.0748,-5.91381
-553,-258,-17.9966,6.30969,0,0,0,0,0,0,0,-1,671,1282,-17.9966,-6.3097
-546,-258,-14.2231,5.92029,0,0,0,0,0,0,0,-1,678,1282,-14.2231,-5.92028
-539,-258,-10.2228,4.05823,0,0,0,0,0,0,0,-1,685,1282,-10.2228,-4.05823
-532,-258,-10.2173,-0.353882,0,0,0,0,0,0,0,-1,692,1282,-10.2173,0.353836
-525,-258,-21.8661,-1.5929,0,0,0,0,0,0,0,-1,699,1282,-21.8661,1.59285
-518,-258,-28.403,1.21533,0,0,0,0,0,0,0,-1,706,1282,-28.403,-1.21539
-511,-258,-23.5061,1.16833,0,0,0,0,0,0,0,-1,713,1282,-23.5061,-1.16833
-504,-258,-22.9178,0.484131,0,0,0,0,0,0,0,-1,720,1282,-22.9178,-0.484106
-497,-258,-17.8047,0.730469,0,0,0,0,0,0,0,-1,727,1282,-17.8048,-0.730489
-490,-258,-15.4346,0.632935,0,0,0,0,0,0,0,-1,734,1282,-15.4346,-0.632917
-483,-258,0,0,0,0,0,0,0,0,0,-1,741,1282,0,0
-476,-258,0,0,0,0,0,0,0,0,0,-1,748,1282,0,0
-469,-258,0,0,0,0,0,0,0,0,0,-1,755,1282,0,0
-462,-258,0,0,0,0,0,0,0,0,0,-1,762,1282,0,0
-455,-258,0,0,0,0,0,0,0,0,0,-1,769,1282,0,0
-448,-258,0,0,0,0,0,0,0,0,0,-1,776,1282,0,0
-441,-258,0,0,0,0,0,0,0,0,0,-1,783,1282,0,0
-434,-258,0,0,0,0,0,0,0,0,0,-1,790,1282,0,0
-427,-258,0,0,0,0,0,0,0,0,0,-1,797,1282,0,0
-420,-258,0,0,0,0,0,0,0,0,0,-1,804,1282,0,0
-413,-258,0,0,0,0,0,0,0,0,0,-1,811,1282,0,0
-406,-258,0,0,0,0,0,0,0,0,0,-1,818,1282,0,0
-399,-258,0,0,0,0,0,0,0,0,0,-1,825,1282,0,0
-392,-258,0,0,0,0,0,0,0,0,0,-1,832,1282,0,0
-385,-258,0,0,0,0,0,0,0,0,0,-1,839,1282,0,0
-378,-258,0,0,0,0,0,0,0,0,0,-1,846,1282,0,0
-371,-258,0,0,0,0,0,0,0,0,0,-1,853,1282,0,0
-364,-258,0,0,0,0,0,0,0,0,0,-1,860,1282,0,0
-357,-258,0,0,0,0,0,0,0,0,0,-1,867,1282,0,0
-350,-258,0,0,0,0,0,0,0,0,0,-1,874,1282,0,0
-343,-258,0,0,0,0,0,0,0,0,0,-1,881,1282,0,0
-336,-258,0,0,0,0,0,0,0,0,0,-1,888,1282,0,0
-329,-258,0,0,0,0,0,0,0,0,0,-1,895,1282,0,0
-322,-258,0,0,0,0,0,0,0,0,0,-1,902,1282,0,0
-315,-258,0,0,0,0,0,0,0,0,0,-1,909,1282,0,0
-308,-258,0,0,0,0,0,0,0,0,0,-1,916,1282,0,0
-301,-258,0,0,0,0,0,0,0,0,0,-1,923,1282,0,0
-294,-258,0,0,0,0,0,0,0,0,0,-1,930,1282,0,0
-287,-258,0,0,0,0,0,0,0,0,0,-1,937,1282,0,0
-280,-258,0,0,0,0,0,0,0,0,0,-1,944,1282,0,0
-273,-258,0,0,0,0,0,0,0,0,0,-1,951,1282,0,0
-266,-258,0,0,0,0,0,0,0,0,0,-1,958,1282,0,0
-259,-258,0,0,0,0,0,0,0,0,0,-1,965,1282,0,0
-252,-258,0,0,0,0,0,0,0,0,0,-1,972,1282,0,0
-245,-258,0,0,0,0,0,0,0,0,0,-1,979,1282,0,0
-238,-258,0,0,0,0,0,0,0,0,0,-1,986,1282,0,0
-231,-258,0,0,0,0,0,0,0,0,0,-1,993,1282,0,0
-224,-258,0,0,0,0,0,0,0,0,0,-1,1000,1282,0,0
-217,-258,0,0,0,0,0,0,0,0,0,-1,1007,1282,0,0
-210,-258,0,0,0,0,0,0,0,0,0,-1,1014,1282,0,0
-203,-258,0,0,0,0,0,0,0,0,0,-1,1021,1282,0,0
-196,-258,0,0,0,0,0,0,0,0,0,-1,1028,1282,0,0
-189,-258,0,0,0,0,0,0,0,0,0,-1,1035,1282,0,0
-182,-258,0,0,0,0,0,0,0,0,0,-1,1042,1282,0,0
-175,-258,0,0,0,0,0,0,0,0,0,-1,1049,1282,0,0
-168,-258,0,0,0,0,0,0,0,0,0,-1,1056,1282,0,0
-161,-258,0,0,0,0,0,0,0,0,0,-1,1063,1282,0,0
-154,-258,0,0,0,0,0,0,0,0,0,-1,1070,1282,0,0
-147,-258,0,0,0,0,0,0,0,0,0,-1,1077,1282,0,0
-140,-258,0,0,0,0,0,0,0,0,0,-1,1084,1282,0,0
-133,-258,0,0,0,0,0,0,0,0,0,-1,1091,1282,0,0
-126,-258,0,0,0,0,0,0,0,0,0,-1,1098,1282,0,0
-119,-258,0,0,0,0,0,0,0,0,0,-1,1105,1282,0,0
-112,-258,0,0,0,0,0,0,0,0,0,-1,1112,1282,0,0
-105,-258,0,0,0,0,0,0,0,0,0,-1,1119,1282,0,0
-98,-258,0,0,0,0,0,0,0,0,0,-1,1126,1282,0,0
-91,-258,0,0,0,0,0,0,0,0,0,-1,1133,1282,0,0
-84,-258,0,0,0,0,0,0,0,0,0,-1,1140,1282,0,0
-77,-258,0,0,0,0,0,0,0,0,0,-1,1147,1282,0,0
-70,-258,0,0,0,0,0,0,0,0,0,-1,1154,1282,0,0
-63,-258,0,0,0,0,0,0,0,0,0,-1,1161,1282,0,0
-56,-258,0,0,0,0,0,0,0,0,0,-1,1168,1282,0,0
-49,-258,0,0,0,0,0,0,0,0,0,-1,1175,1282,0,0
-42,-258,0,0,0,0,0,0,0,0,0,-1,1182,1282,0,0
-35,-258,0,0,0,0,0,0,0,0,0,-1,1189,1282,0,0
-28,-258,0,0,0,0,0,0,0,0,0,-1,1196,1282,0,0
-21,-258,0,0,0,0,0,0,0,0,0,-1,1203,1282,0,0
-14,-258,0,0,0,0,0,0,0,0,0,-1,1210,1282,0,0
-7,-258,0,0,0,0,0,0,0,0,0,-1,1217,1282,0,0
0,-258,0,0,0,0,0,0,0,0,0,-1,1224,1282,0,0
7,-258,0,0,0,0,0,0,0,0,0,-1,1231,1282,0,0
14,-258,0,0,0,0,0,0,0,0,0,-1,1238,1282,0,0
21,-258,0,0,0,0,0,0,0,0,0,-1,1245,1282,0,0
28,-258,0,0,0,0,0,0,0,0,0,-1,1252,1282,0,0
35,-258,0,0,0,0,0,0,0,0,0,-1,1259,1282,0,0
42,-258,0,0,0,0,0,0,0,0,0,-1,1266,1282,0,0
49,-258,0,0,0,0,0,0,0,0,0,-1,1273,1282,0,0
56,-258,0,0,0,0,0,0,0,0,0,-1,1280,1282,0,0
63,-258,0,0,0,0,0,0,0,0,0,-1,1287,1282,0,0
70,-258,0,0,0,0,0,0,0,0,0,-1,1294,1282,0,0
77,-258,0,0,0,0,0,0,0,0,0,-1,1301,1282,0,0
84,-258,0,0,0,0,0,0,0,0,0,-1,1308,1282,0,0
91,-258,0,0,0,0,0,0,0,0,0,-1,1315,1282,0,0
98,-258,0,0,0,0,0,0,0,0,0,-1,1322,1282,0,0
105,-258,0,0,0,0,0,0,0,0,0,-1,1329,1282,0,0
112,-258,0,0,0,0,0,0,0,0,0,-1,1336,1282,0,0
119,-258,0,0,0,0,0,0,0,0,0,-1,1343,1282,0,0
126,-258,0,0,0,0,0,0,0,0,0,-1,1350,1282,0,0
133,-258,0,0,0,0,0,0,0,0,0,-1,1357,1282,0,0
140,-258,0,0,0,0,0,0,0,0,0,-1,1364,1282,0,0
147,-258,0,0,0,0,0,0,0,0,0,-1,1371,1282,0,0
154,-258,0,0,0,0,0,0,0,0,0,-1,1378,1282,0,0
161,-258,0,0,0,0,0,0,0,0,0,-1,1385,1282,0,0
168,-258,0,0,0,0,0,0,0,0,0,-1,1392,1282,0,0
175,-258,0,0,0,0,0,0,0,0,0,-1,1399,1282,0,0
182,-258,0,0,0,0,0,0,0,0,0,-1,1406,1282,0,0
189,-258,0,0,0,0,0,0,0,0,0,-1,1413,1282,0,0
196,-258,0,0,0,0,0,0,0,0,0,-1,1420,1282,0,0
203,-258,0,0,0,0,0,0,0,0,0,-1,1427,1282,0,0
210,-258,0,0,0,0,0,0,0,0,0,-1,1434,1282,0,0
217,-258,0,0,0,0,0,0,0,0,0,-1,1441,1282,0,0
224,-258,0,0,0,0,0,0,0,0,0,-1,1448,1282,0,0
231,-258,0,0,0,0,0,0,0,0,0,-1,1455,1282,0,0
238,-258,0,0,0,0,0,0,0,0,0,-1,1462,1282,0,0
245,-258,0,0,0,0,0,0,0,0,0,-1,1469,1282,0,0
252,-258,0,0,0,0,0,0,0,0,0,-1,1476,1282,0,0
259,-258,0,0,0,0,0,0,0,0,0,-1,1483,1282,0,0
266,-258,0,0,0,0,0,0,0,0,0,-1,1490,1282,0,0
273,-258,0,0,0,0,0,0,0,0,0,-1,1497,1282,0,0
280,-258,0,0,0,0,0,0,0,0,0,-1,1504,1282,0,0
287,-258,0,0,0,0,0,0,0,0,0,-1,1511,1282,0,0
294,-258,0,0,0,0,0,0,0,0,0,-1,1518,1282,0,0
301,-258,0,0,0,0,0,0,0,0,0,-1,1525,1282,0,0
308,-258,0,0,0,0,0,0,0,0,0,-1,1532,1282,0,0
315,-258,0,0,0,0,0,0,0,0,0,-1,1539,1282,0,0
322,-258,0,0,0,0,0,0,0,0,0,-1,1546,1282,0,0
329,-258,0,0,0,0,0,0,0,0,0,-1,1553,1282,0,0
336,-258,0,0,0,0,0,0,0,0,0,-1,1560,1282,0,0
343,-258,0,0,0,0,0,0,0,0,0,-1,1567,1282,0,0
350,-258,0,0,0,0,0,0,0,0,0,-1,1574,1282,0,0
357,-258,0,0,0,0,0,0,0,0,0,-1,1581,1282,0,0
364,-258,0,0,0,0,0,0,0,0,0,-1,1588,1282,0,0
371,-258,0,0,0,0,0,0,0,0,0,-1,1595,1282,0,0
378,-258,0,0,0,0,0,0,0,0,0,-1,1602,1282,0,0
385,-258,0,0,0,0,0,0,0,0,0,-1,1609,1282,0,0
392,-258,0,0,0,0,0,0,0,0,0,-1,1616,1282,0,0
399,-258,0,0,0,0,0,0,0,0,0,-1,1623,1282,0,0
406,-258,0,0,0,0,0,0,0,0,0,-1,1630,1282,0,0
413,-258,0,0,0,0,0,0,0,0,0,-1,1637,1282,0,0
420,-258,0,0,0,0,0,0,0,0,0,-1,1644,1282,0,0
427,-258,0,0,0,0,0,0,0,0,0,-1,1651,1282,0,0
434,-258,0,0,0,0,0,0,0,0,0,-1,1658,1282,0,0
441,-258,0,0,0,0,0,0,0,0,0,-1,1665,1282,0,0
448,-258,0,0,0,0,0,0,0,0,0,-1,1672,1282,0,0
455,-258,0,0,0,0,0,0,0,0,0,-1,1679,1282,0,0
462,-258,0,0,0,0,0,0,0,0,0,-1,1686,1282,0,0
469,-258,0,0,0,0,0,0,0,0,0,-1,1693,1282,0,0
476,-258,0,0,0,0,0,0,0,0,0,-1,1700,1282,0,0
483,-258,0,0,0,0,0,0,0,0,0,-1,1707,1282,0,0
490,-258,0,0,0,0,0,0,0,0,0,-1,1714,1282,0,0
497,-258,0,0,0,0,0,0,0,0,0,-1,1721,1282,0,0
504,-258,0,0,0,0,0,0,0,0,0,-1,1728,1282,0,0
511,-258,0,0,0,0,0,0,0,0,0,-1,1735,1282,0,0
518,-258,0,0,0,0,0,0,0,0,0,-1,1742,1282,0,0
525,-258,0,0,0,0,0,0,0,0,0,-1,1749,1282,0,0
532,-258,0,0,0,0,0,0,0,0,0,-1,1756,1282,0,0
539,-258,0,0,0,0,0,0,0,0,0,-1,1763,1282,0,0
546,-258,0,0,0,0,0,0,0,0,0,-1,1770,1282,0,0
553,-258,0,0,0,0,0,0,0,0,0,-1,1777,1282,0,0
560,-258,0,0,0,0,0,0,0,0,0,-1,1784,1282,0,0
567,-258,0,0,0,0,0,0,0,0,0,-1,1791,1282,0,0
574,-258,0,0,0,0,0,0,0,0,0,-1,1798,1282,0,0
581,-258,0,0,0,0,0,0,0,0,0,-1,1805,1282,0,0
588,-258,0,0,0,0,0,0,0,0,0,-1,1812,1282,0,0
595,-258,0,0,0,0,0,0,0,0,0,-1,1819,1282,0,0
602,-258,0,0,0,0,0,0,0,0,0,-1,1826,1282,0,0
609,-258,39.3638,2.56592,-0.0057506,0.00699234,-0.00361124,0.00794457,-0.00670284,-1.31298,0.00846681,0.0246628,1833,1282,39.3638,-2.56587
616,-258,39.3458,2.60168,0.00162716,0.0101004,-0.00442569,0.0119904,-0.000262858,-1.16718,0.00808263,0.0240195,1840,1282,39.3458,-2.60165
623,-258,39.3295,2.56641,0.00685332,0.0120043,-0.00421133,0.0143652,0.00449236,-1.05984,0.00848548,0.0342686,1847,1282,39.3294,-2.56635
630,-258,39.5266,2.60352,0.00898105,0.0119587,-0.00332799,0.0141157,0.00682405,-0.99573,0.00815121,0.0427365,1854,1282,39.5266,-2.60346
637,-258,39.6925,2.74023,0.00833479,0.0101584,-0.00219959,0.0116277,0.00686551,-0.981884,0.00674976,0.0432106,1861,1282,39.6926,-2.74024
644,-258,39.8942,2.87549,0,0,0,0,0,0,0,-1,1868,1282,39.8941,-2.87547
651,-258,38.7136,2.47437,0,0,0,0,0,0,0,-1,1875,1282,38.7136,-2.4744
658,-258,34.4684,3.25745,0,0,0,0,0,0,0,-1,1882,1282,34.4684,-3.25745
665,-258,31.9969,2.59033,0,0,0,0,0,0,0,-1,1889,1282,31.9969,-2.59034
672,-258,22.703,2.80957,0,0,0,0,0,0,0,-1,1896,1282,22.703,-2.80962
679,-258,26.8693,8.19543,0,0,0,0,0,0,0,-1,1903,1282,26.8692,-8.19548
686,-258,29.7555,8.50195,0,0,0,0,0,0,0,-1,1910,1282,29.7555,-8.50199
693,-258,29.764,8.12817,0.002128,-0.00015558,0.000633727,0.00229208,-0.000319659,0.253348,0.00164499,0.0125568,1917,1282,29.764,-8.12814
700,-258,29.7417,7.73987,0.0018817,-0.000396259,0.000491301,0.00198314,-0.000497704,0.203619,0.00151549,0.00926712,1924,1282,29.7417,-7.73987
707,-258,29.7427,7.36279,0.0011678,-0.000412025,0.000308172,0.00122579,-0.000470011,0.185986,0.00101096,0.0109284,1931,1282,29.7427,-7.36282
714,-258,29.7373,7.00818,0.000253275,-9.02217e-05,0.000462446,0.000574836,-0.000411782,0.607596,0.000572211,0.0115255,1938,1282,29.7373,-7.00823
721,-258,29.718,6.63989,-0.000172177,0.000576434,0.000792355,0.00107845,-0.000674188,1.00606,0.00102082,0.0155327,1945,1282,29.718,-6.63987
728,-258,29.6735,6.3075,-0.000573868,0.00136267,0.00130216,0.0020171,-0.00122831,1.10509,0.0018921,0.0149801,1952,1282,29.6734,-6.30749
735,-258,29.6799,5.9502,-0.000657503,0.00238938,0.00190408,0.00330446,-0.00157258,1.1228,0.00287433,0.0149114,1959,1282,29.6799,-5.95025
742,-258,29.6598,5.60876,-0.000242744,0.00376679,0.00260884,0.00505218,-0.00152813,1.113,0.00397661,0.01812,1966,1282,29.6598,-5.60877
749,-258,29.4973,5.27966,0.00104364,0.00570503,0.00356979,0.00763761,-0.000888937,1.0746,0.00541244,0.0376718,1973,1282,29.4973,-5.27965
756,-258,29.2239,4.94714,0,0,0,0,0,0,0,-1,1980,1282,29.2238,-4.94714
763,-258,29.5374,4.28809,0,0,0,0,0,0,0,-1,1987,1282,29.5374,-4.28805
770,-258,29.851,3.62891,0,0,0,0,0,0,0,-1,1994,1282,29.8509,-3.62896
777,-258,31.912,4.83093,0,0,0,0,0,0,0,-1,2001,1282,31.912,-4.8309
784,-258,32.6525,6.43091,0,0,0,0,0,0,0,-1,2008,1282,32.6525,-6.43091
791,-258,0,0,0,0,0,0,0,0,0,-1,2015,1282,0,0
798,-258,0,0,0,0,0,0,0,0,0,-1,2022,1282,0,0
805,-258,0,0,0,0,0,0,0,0,0,-1,2029,1282,0,0
812,-258,0,0,0,0,0,0,0,0,0,-1,2036,1282,0,0
-700,-265,0,0,0,0,0,0,0,0,0,-1,524,1289,0,0
-693,-265,0,0,0,0,0,0,0,0,0,-1,531,1289,0,0
-686,-265,0,0,0,0,0,0,0,0,0,-1,538,1289,0,0
-679,-265,0,0,0,0,0,0,0,0,0,-1,545,1289,0,0
-672,-265,0,0,0,0,0,0,0,0,0,-1,552,1289,0,0
-665,-265,-18.373,-5.25928,0,0,0,0,0,0,0,-1,559,1289,-18.3731,5.2593
-658,-265,-17.3026,-2.26807,0,0,0,0,0,0,0,-1,566,1289,-17.3026,2.26807
-651,-265,-17.889,-1.23621,0,0,0,0,0,0,0,-1,573,1289,-17.889,1.23623
-644,-265,-17.5965,-0.560913,0,0,0,0,0,0,0,-1,580,1289,-17.5965,0.560911
-637,-265,-18.2528,3.00244,0,0,0,0,0,0,0,-1,587,1289,-18.2528,-3.00239
-630,-265,-16.5672,1.06055,0,0,0,0,0,0,0,-1,594,1289,-16.5672,-1.06052
-623,-265,-16.9091,1.75916,0.000273595,0.00492466,0.0110727,0.0139134,-0.00871511,0.888906,0.013179,0.049414,601,1289,-16.9091,-1.75918
-616,-265,-17.4177,2.26331,-0.000536654,0.00534279,0.00847067,0.0113693,-0.00656322,0.952419,0.0104766,0.0426052,608,1289,-17.4177,-2.26332
-609,-265,-17.6091,3.02527,-0.000581551,0.00502751,0.00642709,0.00923532,-0.00478936,0.991125,0.00823165,0.0197636,615,1289,-17.6091,-3.02524
-602,-265,-17.6277,3.46948,-4.34459e-05,0.00433614,0.00497697,0.00758376,-0.00329106,0.992645,0.00643957,0.0153221,622,1289,-17.6277,-3.4695
-595,-265,-17.6349,3.87927,0.000838157,0.00349754,0.00392307,0.00631013,-0.00197444,0.948793,0.00499667,0.0123094,629,1289,-17.6349,-3.87923
-588,-265,-17.6497,4.27051,0.00195294,0.00266761,0.00321154,0.00554163,-0.000921086,0.840803,0.00403663,0.0112246,636,1289,-17.6496,-4.27046
-581,-265,-17.6561,4.68713,0.00310563,0.00218838,0.00284905,0.00553273,-0.000238725,0.705596,0.00377058,0.0138876,643,1289,-17.6561,-4.68715
-574,-265,-17.6894,5.14001,0.0045346,0.00143954,0.00270539,0.0061038,-0.00012966,0.525603,0.0041131,0.0154353,650,1289,-17.6894,-5.14007
-567,-265,-17.7264,5.5564,0.00506098,0.00106997,0.00287989,0.00656916,-0.000438216,0.482422,0.00453258,0.0204653,657,1289,-17.7264,-5.55639
-560,-265,-17.7418,5.96289,0.00478853,0.000917249,0.00297704,0.00640387,-0.000698089,0.497144,0.00451995,0.021719,664,1289,-17.7418,-5.96285
-553,-265,-17.5721,6.43604,0.0042119,0.000816234,0.00282017,0.00580587,-0.000777737,0.514442,0.00415416,0.0459699,671,1289,-17.5721,-6.43599
-546,-265,-17.397,7.03357,0,0,0,0,0,0,0,-1,678,1289,-17.3971,-7.03356
-539,-265,-13.7668,6.39917,0,0,0,0,0,0,0,-1,685,1289,-13.7668,-6.39915
-532,-265,-8.53998,3.41467,0,0,0,0,0,0,0,-1,692,1289,-8.53996,-3.41473
-525,-265,-12.1317,0.514648,0,0,0,0,0,0,0,-1,699,1289,-12.1317,-0.514634
-518,-265,-24.1604,0.712402,0,0,0,0,0,0,0,-1,706,1289,-24.1604,-0.712425
-511,-265,-23.233,0.791626,0,0,0,0,0,0,0,-1,713,1289,-23.233,-0.791617
-504,-265,-22.3056,0.87085,0,0,0,0,0,0,0,-1,720,1289,-22.3056,-0.87081
-497,-265,-18.689,-0.278442,0,0,0,0,0,0,0,-1,727,1289,-18.689,0.278423
-490,-265,-15.1696,0.492676,0,0,0,0,0,0,0,-1,734,1289,-15.1696,-0.492688
-483,-265,0,0,0,0,0,0,0,0,0,-1,741,1289,0,0
-476,-265,0,0,0,0,0,0,0,0,0,-1,748,1289,0,0
-469,-265,0,0,0,0,0,0,0,0,0,-1,755,1289,0,0
-462,-265,0,0,0,0,0,0,0,0,0,-1,762,1289,0,0
-455,-265,0,0,0,0,0,0,0,0,0,-1,769,1289,0,0
-448,-265,0,0,0,0,0,0,0,0,0,-1,776,1289,0,0
-441,-265,0,0,0,0,0,0,0,0,0,-1,783,1289,0,0
-434,-265,0,0,0,0,0,0,0,0,0,-1,790,1289,0,0
-427,-265,0,0,0,0,0,0,0,0,0,-1,797,1289,0,0
-420,-265,0,0,0,0,0,0,0,0,0,-1,804,1289,0,0
-413,-265,0,0,0,0,0,0,0,0,0,-1,811,1289,0,0
-406,-265,0,0,0,0,0,0,0,0,0,-1,818,1289,0,0
-399,-265,0,0,0,0,0,0,0,0,0,-1,825,1289,0,0
-392,-265,0,0,0,0,0,0,0,0,0,-1,832,1289,0,0
-385,-265,0,0,0,0,0,0,0,0,0,-1,839,1289,0,0
-378,-265,0,0,0,0,0,0,0,0,0,-1,846,1289,0,0
-371,-265,0,0,0,0,0,0,0,0,0,-1,853,1289,0,0
-364,-265,0,0,0,0,0,0,0,0,0,-1,860,1289,0,0
-357,-265,0,0,0,0,0,0,0,0,0,-1,867,1289,0,0
-350,-265,0,0,0,0,0,0,0,0,0,-1,874,1289,0,0
-343,-265,0,0,0,0,0,0,0,0,0,-1,881,1289,0,0
-336,-265,0,0,0,0,0,0,0,0,0,-1,888,1289,0,0
-329,-265,0,0,0,0,0,0,0,0,0,-1,895,1289,0,0
-322,-265,0,0,0,0,0,0,0,0,0,-1,902,1289,0,0
-315,-265,0,0,0,0,0,0,0,0,0,-1,909,1289,0,0
-308,-265,0,0,0,0,0,0,0,0,0,-1,916,1289,0,0
-301,-265,0,0,0,0,0,0,0,0,0,-1,923,1289,0,0
-294,-265,0,0,0,0,0,0,0,0,0,-1,930,1289,0,0
-287,-265,0,0,0,0,0,0,0,0,0,-1,937,1289,0,0
-280,-265,0,0,0,0,0,0,0,0,0,-1,944,1289,0,0
-273,-265,0,0,0,0,0,0,0,0,0,-1,951,1289,0,0
-266,-265,0,0,0,0,0,0,0,0,0,-1,958,1289,0,0
-259,-265,0,0,0,0,0,0,0,0,0,-1,965,1289,0,0
-252,-265,0,0,0,0,0,0,0,0,0,-1,972,1289,0,0
-245,-265,0,0,0,0,0,0,0,0,0,-1,979,1289,0,0
-238,-265,0,0,0,0,0,0,0,0,0,-1,986,1289,0,0
-231,-265,0,0,0,0,0,0,0,0,0,-1,993,1289,0,0
-224,-265,0,0,0,0,0,0,0,0,0,-1,1000,1289,0,0
-217,-265,0,0,0,0,0,0,0,0,0,-1,1007,1289,0,0
-210,-265,0,0,0,0,0,0,0,0,0,-1,1014,1289,0,0
-203,-265,0,0,0,0,0,0,0,0,0,-1,1021,1289,0,0
-196,-265,0,0,0,0,0,0,0,0,0,-1,1028,1289,0,0
-189,-265,0,0,0,0,0,0,0,0,0,-1,1035,1289,0,0
-182,-265,0,0,0,0,0,0,0,0,0,-1,1042,1289,0,0
-175,-265,0,0,0,0,0,0,0,0,0,-1,1049,1289,0,0
-168,-265,0,0,0,0,0,0,0,0,0,-1,1056,1289,0,0
-161,-265,0,0,0,0,0,0,0,0,0,-1,1063,1289,0,0
-154,-265,0,0,0,0,0,0,0,0,0,-1,1070,1289,0,0
-147,-265,0,0,0,0,0,0,0,0,0,-1,1077,1289,0,0
-140,-265,0,0,0,0,0,0,0,0,0,-1,1084,1289,0,0
-133,-265,0,0,0,0,0,0,0,0,0,-1,1091,1289,0,0
-126,-265,0,0,0,0,0,0,0,0,0,-1,1098,1289,0,0
-119,-265,0,0,0,0,0,0,0,0,0,-1,1105,1289,0,0
-112,-265,0,0,0,0,0,0,0,0,0,-1,1112,1289,0,0
-105,-265,0,0,0,0,0,0,0,0,0,-1,1119,1289,0,0
-98,-265,0,0,0,0,0,0,0,0,0,-1,1126,1289,0,0
-91,-265,0,0,0,0,0,0,0,0,0,-1,1133,1289,0,0
-84,-265,0,0,0,0,0,0,0,0,0,-1,1140,1289,0,0
-77,-265,0,0,0,0,0,0,0,0,0,-1,1147,1289,0,0
-70,-265,0,0,0,0,0,0,0,0,0,-1,1154,1289,0,0
-63,-265,0,0,0,0,0,0,0,0,0,-1,1161,1289,0,0
-56,-265,0,0,0,0,0,0,0,0,0,-1,1168,1289,0,0
-49,-265,0,0,0,0,0,0,0,0,0,-1,1175,1289,0,0
-42,-265,0,0,0,0,0,0,0,0,0,-1,1182,1289,0,0
-35,-265,0,0,0,0,0,0,0,0,0,-1,1189,1289,0,0
-28,-265,0,0,0,0,0,0,0,0,0,-1,1196,1289,0,0
-21,-265,0,0,0,0,0,0,0,0,0,-1,1203,1289,0,0
-14,-265,0,0,0,0,0,0,0,0,0,-1,1210,1289,0,0
-7,-265,0,0,0,0,0,0,0,0,0,-1,1217,1289,0,0
0,-265,0,0,0,0,0,0,0,0,0,-1,1224,1289,0,0
7,-265,0,0,0,0,0,0,0,0,0,-1,1231,1289,0,0
14,-265,0,0,0,0,0,0,0,0,0,-1,1238,1289,0,0
21,-265,0,0,0,0,0,0,0,0,0,-1,1245,1289,0,0
28,-265,0,0,0,0,0,0,0,0,0,-1,1252,1289,0,0
35,-265,0,0,0,0,0,0,0,0,0,-1,1259,1289,0,0
42,-265,0,0,0,0,0,0,0,0,0,-1,1266,1289,0,0
49,-265,0,0,0,0,0,0,0,0,0,-1,1273,1289,0,0
56,-265,0,0,0,0,0,0,0,0,0,-1,1280,1289,0,0
63,-265,0,0,0,0,0,0,0,0,0,-1,1287,1289,0,0
70,-265,0,0,0,0,0,0,0,0,0,-1,1294,1289,0,0
77,-265,0,0,0,0,0,0,0,0,0,-1,1301,1289,0,0
84,-265,0,0,0,0,0,0,0,0,0,-1,1308,1289,0,0
91,-265,0,0,0,0,0,0,0,0,0,-1,1315,1289,0,0
98,-265,0,0,0,0,0,0,0,0,0,-1,1322,1289,0,0
105,-265,0,0,0,0,0,0,0,0,0,-1,1329,1289,0,0
112,-265,0,0,0,0,0,0,0,0,0,-1,1336,1289,0,0
119,-265,0,0,0,0,0,0,0,0,0,-1,1343,1289,0,0
126,-265,0,0,0,0,0,0,0,0,0,-1,1350,1289,0,0
133,-265,0,0,0,0,0,0,0,0,0,-1,1357,1289,0,0
140,-265,0,0,0,0,0,0,0,0,0,-1,1364,1289,0,0
147,-265,0,0,0,0,0,0,0,0,0,-1,1371,1289,0,0
154,-265,0,0,0,0,0,0,0,0,0,-1,1378,1289,0,0
161,-265,0,0,0,0,0,0,0,0,0,-1,1385,1289,0,0
168,-265,0,0,0,0,0,0,0,0,0,-1,1392,1289,0,0
175,-265,0,0,0,0,0,0,0,0,0,-1,1399,1289,0,0
182,-265,0,0,0,0,0,0,0,0,0,-1,1406,1289,0,0
189,-265,0,0,0,0,0,0,0,0,0,-1,1413,1289,0,0
196,-265,0,0,0,0,0,0,0,0,0,-1,1420,1289,0,0
203,-265,0,0,0,0,0,0,0,0,0,-1,1427,1289,0,0
210,-265,0,0,0,0,0,0,0,0,0,-1,1434,1289,0,0
217,-265,0,0,0,0,0,0,0,0,0,-1,1441,1289,0,0
224,-265,0,0,0,0,0,0,0,0,0,-1,1448,1289,0,0
231,-265,0,0,0,0,0,0,0,0,0,-1,1455,1289,0,0
238,-265,0,0,0,0,0,0,0,0,0,-1,1462,1289,0,0
245,-265,0,0,0,0,0,0,0,0,0,-1,1469,1289,0,0
252,-265,0,0,0,0,0,0,0,0,0,-1,1476,1289,0,0
259,-265,0,0,0,0,0,0,0,0,0,-1,1483,1289,0,0
266,-265,0,0,0,0,0,0,0,0,0,-1,1490,1289,0,0
273,-265,0,0,0,0,0,0,0,0,0,-1,1497,1289,0,0
280,-265,0,0,0,0,0,0,0,0,0,-1,1504,1289,0,0
287,-265,0,0,0,0,0,0,0,0,0,-1,1511,1289,0,0
294,-265,0,0,0,0,0,0,0,0,0,-1,1518,1289,0,0
301,-265,0,0,0,0,0,0,0,0,0,-1,1525,1289,0,0
308,-265,0,0,0,0,0,0,0,0,0,-1,1532,1289,0,0
315,-265,0,0,0,0,0,0,0,0,0,-1,1539,1289,0,0
322,-265,0,0,0,0,0,0,0,0,0,-1,1546,1289,0,0
329,-265,0,0,0,0,0,0,0,0,0,-1,1553,1289,0,0
336,-265,0,0,0,0,0,0,0,0,0,-1,1560,1289,0,0
343,-265,0,0,0,0,0,0,0,0,0,-1,1567,1289,0,0
350,-265,0,0,0,0,0,0,0,0,0,-1,1574,1289,0,0
357,-265,0,0,0,0,0,0,0,0,0,-1,1581,1289,0,0
364,-265,0,0,0,0,0,0,0,0,0,-1,1588,1289,0,0
371,-265,0,0,0,0,0,0,0,0,0,-1,1595,1289,0,0
378,-265,0,0,0,0,0,0,0,0,0,-1,1602,1289,0,0
385,-265,0,0,0,0,0,0,0,0,0,-1,1609,1289,0,0
392,-265,0,0,0,0,0,0,0,0,0,-1,1616,1289,0,0
399,-265,0,0,0,0,0,0,0,0,0,-1,1623,1289,0,0
406,-265,0,0,0,0,0,0,0,0,0,-1,1630,1289,0,0
413,-265,0,0,0,0,0,0,0,0,0,-1,1637,1289,0,0
420,-265,0,0,0,0,0,0,0,0,0,-1,1644,1289,0,0
427,-265,0,0,0,0,0,0,0,0,0,-1,1651,1289,0,0
434,-265,0,0,0,0,0,0,0,0,0,-1,1658,1289,0,0
441,-265,0,0,0,0,0,0,0,0,0,-1,1665,1289,0,0
448,-265,0,0,0,0,0,0,0,0,0,-1,1672,1289,0,0
455,-265,0,0,0,0,0,0,0,0,0,-1,1679,1289,0,0
462,-265,0,0,0,0,0,0,0,0,0,-1,1686,1289,0,0
469,-265,0,0,0,0,0,0,0,0,0,-1,1693,1289,0,0
476,-265,0,0,0,0,0,0,0,0,0,-1,1700,1289,0,0
483,-265,0,0,0,0,0,0,0,0,0,-1,1707,1289,0,0
490,-265,0,0,0,0,0,0,0,0,0,-1,1714,1289,0,0
497,-265,0,0,0,0,0,0,0,0,0,-1,1721,1289,0,0
504,-265,0,0,0,0,0,0,0,0,0,-1,1728,1289,0,0
511,-265,0,0,0,0,0,0,0,0,0,-1,1735,1289,0,0
518,-265,0,0,0,0,0,0,0,0,0,-1,1742,1289,0,0
525,-265,0,0,0,0,0,0,0,0,0,-1,1749,1289,0,0
532,-265,0,0,0,0,0,0,0,0,0,-1,1756,1289,0,0
539,-265,0,0,0,0,0,0,0,0,0,-1,1763,1289,0,0
546,-265,0,0,0,0,0,0,0,0,0,-1,1770,1289,0,0
553,-265,0,0,0,0,0,0,0,0,0,-1,1777,1289,0,0
560,-265,0,0,0,0,0,0,0,0,0,-1,1784,1289,0,0
567,-265,0,0,0,0,0,0,0,0,0,-1,1791,1289,0,0
574,-265,0,0,0,0,0,0,0,0,0,-1,1798,1289,0,0
581,-265,0,0,0,0,0,0,0,0,0,-1,1805,1289,0,0
588,-265,0,0,0,0,0,0,0,0,0,-1,1812,1289,0,0
595,-265,0,0,0,0,0,0,0,0,0,-1,1819,1289,0,0
602,-265,39.3729,2.58081,-0.0128681,0.00579174,-0.00742816,0.00838763,-0.015464,-1.2346,0.0139713,0.0282091,1826,1289,39.3729,-2.58077
609,-265,39.3198,2.49414,-0.00400406,0.00955361,-0.0079268,0.0132049,-0.00765531,-1.13914,0.0121849,0.0308249,1833,1289,39.3198,-2.49412
616,-265,39.2797,2.50781,0.00448565,0.0132294,-0.00858426,0.0184909,-0.0007759,-1.02092,0.0125939,0.0368757,1840,1289,39.2796,-2.50786
623,-265,39.2479,2.27039,0.00916958,0.0145529,-0.0075954,0.0199195,0.00380299,-0.955683,0.012211,0.04569,1847,1289,39.2479,-2.27042
630,-265,39.5209,2.49353,0.0101693,0.0135864,-0.00578633,0.0179112,0.00584457,-0.928956,0.010547,0.0459121,1854,1289,39.5209,-2.49358
637,-265,39.6948,2.74707,0,0,0,0,0,0,0,-1,1861,1289,39.6948,-2.74709
644,-265,39.5964,3.03723,0,0,0,0,0,0,0,-1,1868,1289,39.5965,-3.03726
651,-265,37.3177,2.37891,0,0,0,0,0,0,0,-1,1875,1289,37.3178,-2.3789
658,-265,32.7052,2.53784,0,0,0,0,0,0,0,-1,1882,1289,32.7052,-2.53779
665,-265,31.3497,2.93079,0,0,0,0,0,0,0,-1,1889,1289,31.3497,-2.93077
672,-265,20.0045,6.62671,0,0,0,0,0,0,0,-1,1896,1289,20.0045,-6.62668
679,-265,29.3722,8.88623,0,0,0,0,0,0,0,-1,1903,1289,29.3722,-8.88619
686,-265,29.3743,8.50208,0.00197731,-0.000225718,0.000364501,0.00203605,-0.00028446,0.159784,0.00146144,0.0318215,1910,1289,29.3743,-8.50205
693,-265,29.3752,8.13135,0.00172757,-0.000162043,0.000552563,0.00187729,-0.000311761,0.264599,0.00136735,0.0102174,1917,1289,29.3753,-8.13138
700,-265,29.3667,7.75916,0.0014069,-0.000275543,0.000446558,0.00151808,-0.000386722,0.244009,0.0011626,0.0107286,1924,1289,29.3667,-7.75917
707,-265,29.3757,7.37012,0.000710622,-0.000204914,0.000331786,0.000818215,-0.000312507,0.313586,0.000674235,0.010595,1931,1289,29.3757,-7.37016
714,-265,29.3569,7.00977,-9.37409e-05,0.000112704,0.000483586,0.000503962,-0.000484999,0.890546,0.000571012,0.0113894,1938,1289,29.357,-7.0098
721,-265,29.3307,6.65564,-0.000493584,0.000782514,0.000805336,0.00117192,-0.000882994,1.12041,0.00119031,0.0118411,1945,1289,29.3307,-6.65566
728,-265,29.3,6.31372,-0.000938427,0.00153445,0.00122361,0.00203755,-0.00144153,1.1807,0.00201845,0.0138156,1952,1289,29.3,-6.31368
735,-265,29.3092,5.95752,-0.00111895,0.00254725,0.00171012,0.00322109,-0.0017928,1.19545,0.00293366,0.0159778,1959,1289,29.3092,-5.95747
742,-265,29.306,5.59265,-0.000852645,0.00394099,0.00229044,0.00485942,-0.00177107,1.18944,0.00396412,0.0197336,1966,1289,29.3061,-5.59261
749,-265,29.25,5.15698,0.000268783,0.00597164,0.00310026,0.00733237,-0.00109194,1.15721,0.00528993,0.0450615,1973,1289,29.2501,-5.15696
756,-265,29.3003,4.72205,0,0,0,0,0,0,0,-1,1980,1289,29.3003,-4.72201
763,-265,29.3461,4.20813,0,0,0,0,0,0,0,-1,1987,1289,29.3461,-4.20816
770,-265,27.9132,3.49634,0,0,0,0,0,0,0,-1,1994,1289,27.9132,-3.49635
777,-265,32.1664,5.3457,0,0,0,0,0,0,0,-1,2001,1289,32.1664,-5.34568
784,-265,0,0,0,0,0,0,0,0,0,-1,2008,1289,0,0
791,-265,0,0,0,0,0,0,0,0,0,-1,2015,1289,0,0
798,-265,0,0,0,0,0,0,0,0,0,-1,2022,1289,0,0
805,-265,0,0,0,0,0,0,0,0,0,-1,2029,1289,0,0
812,-265,0,0,0,0,0,0,0,0,0,-1,2036,1289,0,0
-700,-272,0,0,0,0,0,0,0,0,0,-1,524,1296,0,0
-693,-272,0,0,0,0,0,0,0,0,0,-1,531,1296,0,0
-686,-272,0,0,0,0,0,0,0,0,0,-1,538,1296,0,0
-679,-272,0,0,0,0,0,0,0,0,0,-1,545,1296,0,0
-672,-272,0,0,0,0,0,0,0,0,0,-1,552,1296,0,0
-665,-272,0,0,0,0,0,0,0,0,0,-1,559,1296,0,0
-658,-272,-17.2499,-1.60706,0,0,0,0,0,0,0,-1,566,1296,-17.2499,1.60703
-651,-272,-17.4173,-0.866333,0,0,0,0,0,0,0,-1,573,1296,-17.4173,0.866277
-644,-272,-17.2593,-0.349976,0,0,0,0,0,0,0,-1,580,1296,-17.2593,0.349953
-637,-272,-17.3032,-0.0697021,0,0,0,0,0,0,0,-1,587,1296,-17.3032,0.0696477
-630,-272,-15.8021,0.201904,0,0,0,0,0,0,0,-1,594,1296,-15.802,-0.201864
-623,-272,-16.2629,1.10059,-0.00139228,0.00952055,0.0137995,0.0189032,-0.010775,0.973668,0.0173476,0.0488816,601,1296,-16.2629,-1.10057
-616,-272,-16.7561,2.29395,-0.00163283,0.00863838,0.0104629,0.0151581,-0.00815252,1.01355,0.0136595,0.0420253,608,1296,-16.7561,-2.29398
-609,-272,-17.1476,3.13916,-0.001361,0.00734522,0.00782842,0.0119494,-0.00596522,1.03914,0.0105336,0.0260162,615,1296,-17.1476,-3.13919
-602,-272,-17.1977,3.47974,-0.000662751,0.0059443,0.0059381,0.00943595,-0.0041544,1.03924,0.00804147,0.0151193,622,1296,-17.1977,-3.47974
-595,-272,-17.2241,3.90393,0.000265308,0.00456416,0.00450419,0.00740551,-0.00257603,1.00802,0.00598347,0.0113103,629,1296,-17.2241,-3.90389
-588,-272,-17.2286,4.30664,0.0013373,0.00334709,0.0034802,0.00596458,-0.00128018,0.925949,0.00446472,0.0109341,636,1296,-17.2286,-4.30665
-581,-272,-17.2473,4.71106,0.0024248,0.00259534,0.0028472,0.00535854,-0.000338409,0.800368,0.00369034,0.0106003,643,1296,-17.2473,-4.7111
-574,-272,-17.2927,5.14624,0.0038158,0.00166796,0.00244849,0.00541553,6.82299e-05,0.578729,0.00358782,0.0160829,650,1296,-17.2927,-5.14628
-567,-272,-17.3152,5.56689,0.00477038,0.00104401,0.00243641,0.00597437,-0.000159972,0.458968,0.00403729,0.0213188,657,1296,-17.3152,-5.56685
-560,-272,-17.3284,5.98999,0.00507971,0.00082699,0.00257843,0.00629546,-0.00038876,0.440595,0.00433238,0.0195647,664,1296,-17.3284,-5.98997
-553,-272,-17.2437,6.39417,0.00497729,0.000805639,0.00273521,0.00633124,-0.000548312,0.459646,0.00441496,0.019243,671,1296,-17.2437,-6.39419
-546,-272,-17.0903,6.95386,0.00434588,0.00095595,0.00249517,0.00566733,-0.000365508,0.487051,0.00390576,0.0360901,678,1296,-17.0903,-6.95384
-539,-272,-17.2667,7.59656,0,0,0,0,0,0,0,-1,685,1296,-17.2667,-7.59651
-532,-272,-10.5572,4.53943,0,0,0,0,0,0,0,-1,692,1296,-10.5572,-4.53943
-525,-272,-11.9599,0.0393066,0,0,0,0,0,0,0,-1,699,1296,-11.9599,-0.0393577
-518,-272,-21.1357,-1.41382,0,0,0,0,0,0,0,-1,706,1296,-21.1357,1.41379
-511,-272,-23.2565,0.226318,0,0,0,0,0,0,0,-1,713,1296,-23.2565,-0.22626
-504,-272,-19.7397,0.114746,0,0,0,0,0,0,0,-1,720,1296,-19.7397,-0.114701
-497,-272,-19.2225,1.71301,0,0,0,0,0,0,0,-1,727,1296,-19.2225,-1.71302
-490,-272,-20.1948,2.4032,0,0,0,0,0,0,0,-1,734,1296,-20.1948,-2.40322
-483,-272,-15.3736,0.792603,0,0,0,0,0,0,0,-1,741,1296,-15.3736,-0.79263
-476,-272,0,0,0,0,0,0,0,0,0,-1,748,1296,0,0
-469,-272,0,0,0,0,0,0,0,0,0,-1,755,1296,0,0
-462,-272,0,0,0,0,0,0,0,0,0,-1,762,1296,0,0
-455,-272,0,0,0,0,0,0,0,0,0,-1,769,1296,0,0
-448,-272,0,0,0,0,0,0,0,0,0,-1,776,1296,0,0
-441,-272,0,0,0,0,0,0,0,0,0,-1,783,1296,0,0
-434,-272,0,0,0,0,0,0,0,0,0,-1,790,1296,0,0
-427,-272,0,0,0,0,0,0,0,0,0,-1,797,1296,0,0
-420,-272,0,0,0,0,0,0,0,0,0,-1,804,1296,0,0
-413,-272,0,0,0,0,0,0,0,0,0,-1,811,1296,0,0
-406,-272,0,0,0,0,0,0,0,0,0,-1,818,1296,0,0
-399,-272,0,0,0,0,0,0,0,0,0,-1,825,1296,0,0
-392,-272,0,0,0,0,0,0,0,0,0,-1,832,1296,0,0
-385,-272,0,0,0,0,0,0,0,0,0,-1,839,1296,0,0
-378,-272,0,0,0,0,0,0,0,0,0,-1,846,1296,0,0
-371,-272,0,0,0,0,0,0,0,0,0,-1,853,1296,0,0
-364,-272,0,0,0,0,0,0,0,0,0,-1,860,1296,0,0
-357,-272,0,0,0,0,0,0,0,0,0,-1,867,1296,0,0
-350,-272,0,0,0,0,0,0,0,0,0,-1,874,1296,0,0
-343,-272,0,0,0,0,0,0,0,0,0,-1,881,1296,0,0
-336,-272,0,0,0,0,0,0,0,0,0,-1,888,1296,0,0
-329,-272,0,0,0,0,0,0,0,0,0,-1,895,1296,0,0
-322,-272,0,0,0,0,0,0,0,0,0,-1,902,1296,0,0
-315,-272,0,0,0,0,0,0,0,0,0,-1,909,1296,0,0
-308,-272,0,0,0,0,0,0,0,0,0,-1,916,1296,0,0
-301,-272,0,0,0,0,0,0,0,0,0,-1,923,1296,0,0
-294,-272,0,0,0,0,0,0,0,0,0,-1,930,1296,0,0
-287,-272,0,0,0,0,0,0,0,0,0,-1,937,1296,0,0
-280,-272,0,0,0,0,0,0,0,0,0,-1,944,1296,0,0
-273,-272,0,0,0,0,0,0,0,0,0,-1,951,1296,0,0
-266,-272,0,0,0,0,0,0,0,0,0,-1,958,1296,0,0
-259,-272,0,0,0,0,0,0,0,0,0,-1,965,1296,0,0
-252,-272,0,0,0,0,0,0,0,0,0,-1,972,1296,0,0
-245,-272,0,0,0,0,0,0,0,0,0,-1,979,1296,0,0
-238,-272,0,0,0,0,0,0,0,0,0,-1,986,1296,0,0
-231,-272,0,0,0,0,0,0,0,0,0,-1,993,1296,0,0
-224,-272,0,0,0,0,0,0,0,0,0,-1,1000,1296,0,0
-217,-272,0,0,0,0,0,0,0,0,0,-1,1007,1296,0,0
-210,-272,0,0,0,0,0,0,0,0,0,-1,1014,1296,0,0
-203,-272,0,0,0,0,0,0,0,0,0,-1,1021,1296,0,0
-196,-272,0,0,0,0,0,0,0,0,0,-1,1028,1296,0,0
-189,-272,0,0,0,0,0,0,0,0,0,-1,1035,1296,0,0
-182,-272,0,0,0,0,0,0,0,0,0,-1,1042,1296,0,0
-175,-272,0,0,0,0,0,0,0,0,0,-1,1049,1296,0,0
-168,-272,0,0,0,0,0,0,0,0,0,-1,1056,1296,0,0
-161,-272,0,0,0,0,0,0,0,0,0,-1,1063,1296,0,0
-154,-272,0,0,0,0,0,0,0,0,0,-1,1070,1296,0,0
-147,-272,0,0,0,0,0,0,0,0,0,-1,1077,1296,0,0
-140,-272,0,0,0,0,0,0,0,0,0,-1,1084,1296,0,0
-133,-272,0,0,0,0,0,0,0,0,0,-1,1091,1296,0,0
-126,-272,0,0,0,0,0,0,0,0,0,-1,1098,1296,0,0
-119,-272,0,0,0,0,0,0,0,0,0,-1,1105,1296,0,0
-112,-272,0,0,0,0,0,0,0,0,0,-1,1112,1296,0,0
-105,-272,0,0,0,0,0,0,0,0,0,-1,1119,1296,0,0
-98,-272,0,0,0,0,0,0,0,0,0,-1,1126,1296,0,0
-91,-272,0,0,0,0,0,0,0,0,0,-1,1133,1296,0,0
-84,-272,0,0,0,0,0,0,0,0,0,-1,1140,1296,0,0
-77,-272,0,0,0,0,0,0,0,0,0,-1,1147,1296,0,0
-70,-272,0,0,0,0,0,0,0,0,0,-1,1154,1296,0,0
-63,-272,0,0,0,0,0,0,0,0,0,-1,1161,1296,0,0
-56,-272,0,0,0,0,0,0,0,0,0,-1,1168,1296,0,0
-49,-272,0,0,0,0,0,0,0,0,0,-1,1175,1296,0,0
-42,-272,0,0,0,0,0,0,0,0,0,-1,1182,1296,0,0
-35,-272,0,0,0,0,0,0,0,0,0,-1,1189,1296,0,0
-28,-272,0,0,0,0,0,0,0,0,0,-1,1196,1296,0,0
-21,-272,0,0,0,0,0,0,0,0,0,-1,1203,1296,0,0
-14,-272,0,0,0,0,0,0,0,0,0,-1,1210,1296,0,0
-7,-272,0,0,0,0,0,0,0,0,0,-1,1217,1296,0,0
0,-272,0,0,0,0,0,0,0,0,0,-1,1224,1296,0,0
7,-272,0,0,0,0,0,0,0,0,0,-1,1231,1296,0,0
14,-272,0,0,0,0,0,0,0,0,0,-1,1238,1296,0,0
21,-272,0,0,0,0,0,0,0,0,0,-1,1245,1296,0,0
28,-272,0,0,0,0,0,0,0,0,0,-1,1252,1296,0,0
35,-272,0,0,0,0,0,0,0,0,0,-1,1259,1296,0,0
42,-272,0,0,0,0,0,0,0,0,0,-1,1266,1296,0,0
49,-272,0,0,0,0,0,0,0,0,0,-1,1273,1296,0,0
56,-272,0,0,0,0,0,0,0,0,0,-1,1280,1296,0,0
63,-272,0,0,0,0,0,0,0,0,0,-1,1287,1296,0,0
70,-272,0,0,0,0,0,0,0,0,0,-1,1294,1296,0,0
77,-272,0,0,0,0,0,0,0,0,0,-1,1301,1296,0,0
84,-272,0,0,0,0,0,0,0,0,0,-1,1308,1296,0,0
91,-272,0,0,0,0,0,0,0,0,0,-1,1315,1296,0,0
98,-272,0,0,0,0,0,0,0,0,0,-1,1322,1296,0,0
105,-272,0,0,0,0,0,0,0,0,0,-1,1329,1296,0,0
112,-272,0,0,0,0,0,0,0,0,0,-1,1336,1296,0,0
119,-272,0,0,0,0,0,0,0,0,0,-1,1343,1296,0,0
126,-272,0,0,0,0,0,0,0,0,0,-1,1350,1296,0,0
133,-272,0,0,0,0,0,0,0,0,0,-1,1357,1296,0,0
140,-272,0,0,0,0,0,0,0,0,0,-1,1364,1296,0,0
147,-272,0,0,0,0,0,0,0,0,0,-1,1371,1296,0,0
154,-272,0,0,0,0,0,0,0,0,0,-1,1378,1296,0,0
161,-272,0,0,0,0,0,0,0,0,0,-1,1385,1296,0,0
168,-272,0,0,0,0,0,0,0,0,0,-1,1392,1296,0,0
175,-272,0,0,0,0,0,0,0,0,0,-1,1399,1296,0,0
182,-272,0,0,0,0,0,0,0,0,0,-1,1406,1296,0,0
189,-272,0,0,0,0,0,0,0,0,0,-1,1413,1296,0,0
196,-272,0,0,0,0,0,0,0,0,0,-1,1420,1296,0,0
203,-272,0,0,0,0,0,0,0,0,0,-1,1427,1296,0,0
210,-272,0,0,0,0,0,0,0,0,0,-1,1434,1296,0,0
217,-272,0,0,0,0,0,0,0,0,0,-1,1441,1296,0,0
224,-272,0,0,0,0,0,0,0,0,0,-1,1448,1296,0,0
231,-272,0,0,0,0,0,0,0,0,0,-1,1455,1296,0,0
238,-272,0,0,0,0,0,0,0,0,0,-1,1462,1296,0,0
245,-272,0,0,0,0,0,0,0,0,0,-1,1469,1296,0,0
252,-272,0,0,0,0,0,0,0,0,0,-1,1476,1296,0,0
259,-272,0,0,0,0,0,0,0,0,0,-1,1483,1296,0,0
266,-272,0,0,0,0,0,0,0,0,0,-1,1490,1296,0,0
273,-272,0,0,0,0,0,0,0,0,0,-1,1497,1296,0,0
280,-272,0,0,0,0,0,0,0,0,0,-1,1504,1296,0,0
287,-272,0,0,0,0,0,0,0,0,0,-1,1511,1296,0,0
294,-272,0,0,0,0,0,0,0,0,0,-1,1518,1296,0,0
301,-272,0,0,0,0,0,0,0,0,0,-1,1525,1296,0,0
308,-272,0,0,0,0,0,0,0,0,0,-1,1532,1296,0,0
315,-272,0,0,0,0,0,0,0,0,0,-1,1539,1296,0,0
322,-272,0,0,0,0,0,0,0,0,0,-1,1546,1296,0,0
329,-272,0,0,0,0,0,0,0,0,0,-1,1553,1296,0,0
336,-272,0,0,0,0,0,0,0,0,0,-1,1560,1296,0,0
343,-272,0,0,0,0,0,0,0,0,0,-1,1567,1296,0,0
350,-272,0,0,0,0,0,0,0,0,0,-1,1574,1296,0,0
357,-272,0,0,0,0,0,0,0,0,0,-1,1581,1296,0,0
364,-272,0,0,0,0,0,0,0,0,0,-1,1588,1296,0,0
371,-272,0,0,0,0,0,0,0,0,0,-1,1595,1296,0,0
378,-272,0,0,0,0,0,0,0,0,0,-1,1602,1296,0,0
385,-272,0,0,0,0,0,0,0,0,0,-1,1609,1296,0,0
392,-272,0,0,0,0,0,0,0,0,0,-1,1616,1296,0,0
399,-272,0,0,0,0,0,0,0,0,0,-1,1623,1296,0,0
406,-272,0,0,0,0,0,0,0,0,0,-1,1630,1296,0,0
413,-272,0,0,0,0,0,0,0,0,0,-1,1637,1296,0,0
420,-272,0,0,0,0,0,0,0,0,0,-1,1644,1296,0,0
427,-272,0,0,0,0,0,0,0,0,0,-1,1651,1296,0,0
434,-272,0,0,0,0,0,0,0,0,0,-1,1658,1296,0,0
441,-272,0,0,0,0,0,0,0,0,0,-1,1665,1296,0,0
448,-272,0,0,0,0,0,0,0,0,0,-1,1672,1296,0,0
455,-272,0,0,0,0,0,0,0,0,0,-1,1679,1296,0,0
462,-272,0,0,0,0,0,0,0,0,0,-1,1686,1296,0,0
469,-272,0,0,0,0,0,0,0,0,0,-1,1693,1296,0,0
476,-272,0,0,0,0,0,0,0,0,0,-1,1700,1296,0,0
483,-272,0,0,0,0,0,0,0,0,0,-1,1707,1296,0,0
490,-272,0,0,0,0,0,0,0,0,0,-1,1714,1296,0,0
497,-272,0,0,0,0,0,0,0,0,0,-1,1721,1296,0,0
504,-272,0,0,0,0,0,0,0,0,0,-1,1728,1296,0,0
511,-272,0,0,0,0,0,0,0,0,0,-1,1735,1296,0,0
518,-272,0,0,0,0,0,0,0,0,0,-1,1742,1296,0,0
525,-272,0,0,0,0,0,0,0,0,0,-1,1749,1296,0,0
532,-272,0,0,0,0,0,0,0,0,0,-1,1756,1296,0,0
539,-272,0,0,0,0,0,0,0,0,0,-1,1763,1296,0,0
546,-272,0,0,0,0,0,0,0,0,0,-1,1770,1296,0,0
553,-272,0,0,0,0,0,0,0,0,0,-1,1777,1296,0,0
560,-272,0,0,0,0,0,0,0,0,0,-1,1784,1296,0,0
567,-272,0,0,0,0,0,0,0,0,0,-1,1791,1296,0,0
574,-272,0,0,0,0,0,0,0,0,0,-1,1798,1296,0,0
581,-272,0,0,0,0,0,0,0,0,0,-1,1805,1296,0,0
588,-272,0,0,0,0,0,0,0,0,0,-1,1812,1296,0,0
595,-272,0,0,0,0,0,0,0,0,0,-1,1819,1296,0,0
602,-272,39.3508,2.59326,-0.0111905,0.0081549,-0.0132006,0.0148473,-0.0178829,-1.10158,0.0189239,0.0321059,1826,1296,39.3508,-2.59331
609,-272,39.2914,2.44971,-0.000568907,0.0127637,-0.0138952,0.0215089,-0.00931413,-1.00906,0.0182541,0.0418589,1833,1296,39.2913,-2.44969
616,-272,39.0039,2.16626,0.00770452,0.0161188,-0.0134871,0.0260397,-0.00221639,-0.936585,0.0181438,0.0482481,1840,1296,39.0039,-2.16627
623,-272,39.1265,1.95959,0.0106772,0.0162123,-0.0109346,0.0247241,0.00216538,-0.909345,0.0158105,0.0454225,1847,1296,39.1265,-1.95964
630,-272,39.4364,2.15784,0.0105041,0.0144606,-0.00799798,0.0207214,0.00424335,-0.906638,0.0126395,0.0459039,1854,1296,39.4364,-2.15786
637,-272,39.7598,2.58081,0,0,0,0,0,0,0,-1,1861,1296,39.7597,-2.58082
644,-272,40.5067,2.94434,0,0,0,0,0,0,0,-1,1868,1296,40.5068,-2.94428
651,-272,31.4108,2.48743,0,0,0,0,0,0,0,-1,1875,1296,31.4107,-2.48747
658,-272,30.9236,2.38855,0,0,0,0,0,0,0,-1,1882,1296,30.9236,-2.38858
665,-272,22.0238,4.14417,0,0,0,0,0,0,0,-1,1889,1296,22.0238,-4.14421
672,-272,22.661,7.21765,0,0,0,0,0,0,0,-1,1896,1296,22.661,-7.21761
679,-272,28.975,8.93811,0,0,0,0,0,0,0,-1,1903,1296,28.975,-8.93817
686,-272,28.9729,8.53906,0.00147156,-0.000392464,0.000295929,0.00151741,-0.000438317,0.153724,0.00118505,0.0200366,1910,1296,28.9729,-8.53903
693,-272,28.9761,8.14331,0.00125439,-0.000273503,0.000449327,0.00137673,-0.000395846,0.265837,0.00107436,0.0111651,1917,1296,28.9761,-8.14336
700,-272,28.9841,7.77856,0.000970823,-0.000278771,0.000375912,0.00107519,-0.000383138,0.270817,0.000872996,0.0110483,1924,1296,28.9842,-7.77856
707,-272,29.0009,7.396,0.00035819,-0.000134298,0.000325544,0.000520131,-0.000296239,0.461603,0.000477204,0.0109614,1931,1296,29.0009,-7.39604
714,-272,28.9857,7.026,-0.000323117,0.000206394,0.000459581,0.000472025,-0.000588748,1.04672,0.000613672,0.0119451,1938,1296,28.9857,-7.02604
721,-272,28.9664,6.67273,-0.00073627,0.000872508,0.000763309,0.00117703,-0.00104079,1.1912,0.00128126,0.0142617,1945,1296,28.9665,-6.67278
728,-272,28.9564,6.27954,-0.00125159,0.00159744,0.0010971,0.00197095,-0.00162509,1.24266,0.00207937,0.0161949,1952,1296,28.9565,-6.27955
735,-272,28.9492,5.94885,-0.00154793,0.00260149,0.00145998,0.0030637,-0.00201014,1.26419,0.00295036,0.0152634,1959,1296,28.9492,-5.94884
742,-272,28.8956,5.62964,-0.00146181,0.0040011,0.00190045,0.00459719,-0.0020579,1.26686,0.00393444,0.0277949,1966,1296,28.8956,-5.62967
749,-272,28.8237,4.9552,0,0,0,0,0,0,0,-1,1973,1296,28.8237,-4.95524
756,-272,27.1566,4.50427,0,0,0,0,0,0,0,-1,1980,1296,27.1567,-4.50426
763,-272,27.4694,4.44592,0,0,0,0,0,0,0,-1,1987,1296,27.4694,-4.44596
770,-272,25.9485,3.67749,0,0,0,0,0,0,0,-1,1994,1296,25.9485,-3.67744
777,-272,32.3619,6.13257,0,0,0,0,0,0,0,-1,2001,1296,32.362,-6.1326
784,-272,0,0,0,0,0,0,0,0,0,-1,2008,1296,0,0
791,-272,0,0,0,0,0,0,0,0,0,-1,2015,1296,0,0
798,-272,0,0,0,0,0,0,0,0,0,-1,2022,1296,0,0
805,-272,0,0,0,0,0,0,0,0,0,-1,2029,1296,0,0
812,-272,0,0,0,0,0,0,0,0,0,-1,2036,1296,0,0
-700,-279,0,0,0,0,0,0,0,0,0,-1,524,1303,0,0
-693,-279,0,0,0,0,0,0,0,0,0,-1,531,1303,0,0
-686,-279,0,0,0,0,0,0,0,0,0,-1,538,1303,0,0
-679,-279,0,0,0,0,0,0,0,0,0,-1,545,1303,0,0
-672,-279,0,0,0,0,0,0,0,0,0,-1,552,1303,0,0
-665,-279,0,0,0,0,0,0,0,0,0,-1,559,1303,0,0
-658,-279,-17.2665,-0.783569,0,0,0,0,0,0,0,-1,566,1303,-17.2665,0.783582
-651,-279,-16.6366,-0.0836182,0,0,0,0,0,0,0,-1,573,1303,-16.6366,0.0836669
-644,-279,-16.9562,-0.209229,0,0,0,0,0,0,0,-1,580,1303,-16.9562,0.209252
-637,-279,-17.3345,-0.363403,0,0,0,0,0,0,0,-1,587,1303,-17.3345,0.363422
-630,-279,-17.7418,-0.515625,0,0,0,0,0,0,0,-1,594,1303,-17.7418,0.515681
-623,-279,-16.3451,0.547485,0,0,0,0,0,0,0,-1,601,1303,-16.3451,-0.547452
-616,-279,-16.5357,2.60034,0,0,0,0,0,0,0,-1,608,1303,-16.5357,-2.60039
-609,-279,-16.96,2.9292,-0.00174613,0.00993493,0.00947769,0.0152272,-0.00703836,1.06154,0.0131416,0.0423403,615,1303,-16.96,-2.9292
-602,-279,-16.775,3.47546,-0.00096655,0.0076719,0.00706306,0.0116317,-0.00492636,1.05982,0.00981762,0.0148868,622,1303,-16.775,-3.47548
-595,-279,-16.8092,3.89478,-6.72772e-05,0.00564702,0.00520493,0.00872743,-0.00314769,1.03641,0.00710391,0.0107704,629,1303,-16.8092,-3.8948
-588,-279,-16.8015,4.31421,0.000900943,0.00398525,0.00386814,0.00660732,-0.00172113,0.975083,0.00507679,0.0113989,636,1303,-16.8015,-4.31427
-581,-279,-16.8229,4.73193,0.0018054,0.00288724,0.00295943,0.00535478,-0.000662135,0.87579,0.00380979,0.0125796,643,1303,-16.8229,-4.73195
-574,-279,-16.861,5.14551,0.00293366,0.0017577,0.00232842,0.00474719,-5.58367e-05,0.661722,0.00318357,0.0125973,650,1303,-16.861,-5.14548
-567,-279,-16.8655,5.56482,0.00395886,0.000815583,0.0020927,0.00500436,-0.000229921,0.463324,0.00341546,0.0164072,657,1303,-16.8655,-5.56477
-560,-279,-16.8599,6.01184,0.00455987,0.000338837,0.00215697,0.0054671,-0.000568392,0.398141,0.00384822,0.0161994,664,1303,-16.8598,-6.01179
-553,-279,-16.8627,6.43665,0.00491692,4.8705e-05,0.00241233,0.0059098,-0.000944172,0.390453,0.00428937,0.0127303,671,1303,-16.8627,-6.4366
-546,-279,-16.8263,6.86255,0.00487742,-3.54029e-06,0.00246318,0.00590438,-0.00103051,0.395013,0.00432091,0.0215065,678,1303,-16.8263,-6.8625
-539,-279,-16.9482,7.35352,0,0,0,0,0,0,0,-1,685,1303,-16.9482,-7.35346
-532,-279,-14.9813,7.89917,0,0,0,0,0,0,0,-1,692,1303,-14.9813,-7.89918
-525,-279,-11.7063,-0.539185,0,0,0,0,0,0,0,-1,699,1303,-11.7063,0.539166
-518,-279,-16.8138,1.11963,0,0,0,0,0,0,0,-1,706,1303,-16.8138,-1.11968
-511,-279,-20.1063,-1.37915,0,0,0,0,0,0,0,-1,713,1303,-20.1062,1.37918
-504,-279,-18.3766,1.04578,0,0,0,0,0,0,0,-1,720,1303,-18.3767,-1.04577
-497,-279,-19.0046,2.08911,0,0,0,0,0,0,0,-1,727,1303,-19.0046,-2.08905
-490,-279,-20.0176,2.55188,0,0,0,0,0,0,0,-1,734,1303,-20.0176,-2.55183
-483,-279,-20.8064,2.99792,0,0,0,0,0,0,0,-1,741,1303,-20.8064,-2.99797
-476,-279,0,0,0,0,0,0,0,0,0,-1,748,1303,0,0
-469,-279,0,0,0,0,0,0,0,0,0,-1,755,1303,0,0
-462,-279,0,0,0,0,0,0,0,0,0,-1,762,1303,0,0
-455,-279,0,0,0,0,0,0,0,0,0,-1,769,1303,0,0
-448,-279,0,0,0,0,0,0,0,0,0,-1,776,1303,0,0
-441,-279,0,0,0,0,0,0,0,0,0,-1,783,1303,0,0
-434,-279,0,0,0,0,0,0,0,0,0,-1,790,1303,0,0
-427,-279,0,0,0,0,0,0,0,0,0,-1,797,1303,0,0
-420,-279,0,0,0,0,0,0,0,0,0,-1,804,1303,0,0
-413,-279,0,0,0,0,0,0,0,0,0,-1,811,1303,0,0
-406,-279,0,0,0,0,0,0,0,0,0,-1,818,1303,0,0
-399,-279,0,0,0,0,0,0,0,0,0,-1,825,1303,0,0
-392,-279,0,0,0,0,0,0,0,0,0,-1,832,1303,0,0
-385,-279,0,0,0,0,0,0,0,0,0,-1,839,1303,0,0
-378,-279,0,0,0,0,0,0,0,0,0,-1,846,1303,0,0
-371,-279,0,0,0,0,0,0,0,0,0,-1,853,1303,0,0
-364,-279,0,0,0,0,0,0,0,0,0,-1,860,1303,0,0
-357,-279,0,0,0,0,0,0,0,0,0,-1,867,1303,0,0
-350,-279,0,0,0,0,0,0,0,0,0,-1,874,1303,0,0
-343,-279,0,0,0,0,0,0,0,0,0,-1,881,1303,0,0
-336,-279,0,0,0,0,0,0,0,0,0,-1,888,1303,0,0
-329,-279,0,0,0,0,0,0,0,0,0,-1,895,1303,0,0
-322,-279,0,0,0,0,0,0,0,0,0,-1,902,1303,0,0
-315,-279,0,0,0,0,0,0,0,0,0,-1,909,1303,0,0
-308,-279,0,0,0,0,0,0,0,0,0,-1,916,1303,0,0
-301,-279,0,0,0,0,0,0,0,0,0,-1,923,1303,0,0
-294,-279,0,0,0,0,0,0,0,0,0,-1,930,1303,0,0
-287,-279,0,0,0,0,0,0,0,0,0,-1,937,1303,0,0
-280,-279,0,0,0,0,0,0,0,0,0,-1,944,1303,0,0
-273,-279,0,0,0,0,0,0,0,0,0,-1,951,1303,0,0
-266,-279,0,0,0,0,0,0,0,0,0,-1,958,1303,0,0
-259,-279,0,0,0,0,0,0,0,0,0,-1,965,1303,0,0
-252,-279,0,0,0,0,0,0,0,0,0,-1,972,1303,0,0
-245,-279,0,0,0,0,0,0,0,0,0,-1,979,1303,0,0
-238,-279,0,0,0,0,0,0,0,0,0,-1,986,1303,0,0
-231,-279,0,0,0,0,0,0,0,0,0,-1,993,1303,0,0
-224,-279,0,0,0,0,0,0,0,0,0,-1,1000,1303,0,0
-217,-279,0,0,0,0,0,0,0,0,0,-1,1007,1303,0,0
-210,-279,0,0,0,0,0,0,0,0,0,-1,1014,1303,0,0
-203,-279,0,0,0,0,0,0,0,0,0,-1,1021,1303,0,0
-196,-279,0,0,0,0,0,0,0,0,0,-1,1028,1303,0,0
-189,-279,0,0,0,0,0,0,0,0,0,-1,1035,1303,0,0
-182,-279,0,0,0,0,0,0,0,0,0,-1,1042,1303,0,0
-175,-279,0,0,0,0,0,0,0,0,0,-1,1049,1303,0,0
-168,-279,0,0,0,0,0,0,0,0,0,-1,1056,1303,0,0
-161,-279,0,0,0,0,0,0,0,0,0,-1,1063,1303,0,0
-154,-279,0,0,0,0,0,0,0,0,0,-1,1070,1303,0,0
-147,-279,0,0,0,0,0,0,0,0,0,-1,1077,1303,0,0
-140,-279,0,0,0,0,0,0,0,0,0,-1,1084,1303,0,0
-133,-279,0,0,0,0,0,0,0,0,0,-1,1091,1303,0,0
-126,-279,0,0,0,0,0,0,0,0,0,-1,1098,1303,0,0
-119,-279,0,0,0,0,0,0,0,0,0,-1,1105,1303,0,0
-112,-279,0,0,0,0,0,0,0,0,0,-1,1112,1303,0,0
-105,-279,0,0,0,0,0,0,0,0,0,-1,1119,1303,0,0
-98,-279,0,0,0,0,0,0,0,0,0,-1,1126,1303,0,0
-91,-279,0,0,0,0,0,0,0,0,0,-1,1133,1303,0,0
-84,-279,0,0,0,0,0,0,0,0,0,-1,1140,1303,0,0
-77,-279,0,0,0,0,0,0,0,0,0,-1,1147,1303,0,0
-70,-279,0,0,0,0,0,0,0,0,0,-1,1154,1303,0,0
-63,-279,0,0,0,0,0,0,0,0,0,-1,1161,1303,0,0
-56,-279,0,0,0,0,0,0,0,0,0,-1,1168,1303,0,0
-49,-279,0,0,0,0,0,0,0,0,0,-1,1175,1303,0,0
-42,-279,0,0,0,0,0,0,0,0,0,-1,1182,1303,0,0
-35,-279,0,0,0,0,0,0,0,0,0,-1,1189,1303,0,0
-28,-279,0,0,0,0,0,0,0,0,0,-1,1196,1303,0,0
-21,-279,0,0,0,0,0,0,0,0,0,-1,1203,1303,0,0
-14,-279,0,0,0,0,0,0,0,0,0,-1,1210,1303,0,0
-7,-279,0,0,0,0,0,0,0,0,0,-1,1217,1303,0,0
0,-279,0,0,0,0,0,0,0,0,0,-1,1224,1303,0,0
7,-279,0,0,0,0,0,0,0,0,0,-1,1231,1303,0,0
14,-279,0,0,0,0,0,0,0,0,0,-1,1238,1303,0,0
21,-279,0,0,0,0,0,0,0,0,0,-1,1245,1303,0,0
28,-279,0,0,0,0,0,0,0,0,0,-1,1252,1303,0,0
35,-279,0,0,0,0,0,0,0,0,0,-1,1259,1303,0,0
42,-279,0,0,0,0,0,0,0,0,0,-1,1266,1303,0,0
49,-279,0,0,0,0,0,0,0,0,0,-1,1273,1303,0,0
56,-279,0,0,0,0,0,0,0,0,0,-1,1280,1303,0,0
63,-279,0,0,0,0,0,0,0,0,0,-1,1287,1303,0,0
70,-279,0,0,0,0,0,0,0,0,0,-1,1294,1303,0,0
77,-279,0,0,0,0,0,0,0,0,0,-1,1301,1303,0,0
84,-279,0,0,0,0,0,0,0,0,0,-1,1308,1303,0,0
91,-279,0,0,0,0,0,0,0,0,0,-1,1315,1303,0,0
98,-279,0,0,0,0,0,0,0,0,0,-1,1322,1303,0,0
105,-279,0,0,0,0,0,0,0,0,0,-1,1329,1303,0,0
112,-279,0,0,0,0,0,0,0,0,0,-1,1336,1303,0,0
119,-279,0,0,0,0,0,0,0,0,0,-1,1343,1303,0,0
126,-279,0,0,0,0,0,0,0,0,0,-1,1350,1303,0,0
133,-279,0,0,0,0,0,0,0,0,0,-1,1357,1303,0,0
140,-279,0,0,0,0,0,0,0,0,0,-1,1364,1303,0,0
147,-279,0,0,0,0,0,0,0,0,0,-1,1371,1303,0,0
154,-279,0,0,0,0,0,0,0,0,0,-1,1378,1303,0,0
161,-279,0,0,0,0,0,0,0,0,0,-1,1385,1303,0,0
168,-279,0,0,0,0,0,0,0,0,0,-1,1392,1303,0,0
175,-279,0,0,0,0,0,0,0,0,0,-1,1399,1303,0,0
182,-279,0,0,0,0,0,0,0,0,0,-1,1406,1303,0,0
189,-279,0,0,0,0,0,0,0,0,0,-1,1413,1303,0,0
196,-279,0,0,0,0,0,0,0,0,0,-1,1420,1303,0,0
203,-279,0,0,0,0,0,0,0,0,0,-1,1427,1303,0,0
210,-279,0,0,0,0,0,0,0,0,0,-1,1434,1303,0,0
217,-279,0,0,0,0,0,0,0,0,0,-1,1441,1303,0,0
224,-279,0,0,0,0,0,0,0,0,0,-1,1448,1303,0,0
231,-279,0,0,0,0,0,0,0,0,0,-1,1455,1303,0,0
238,-279,0,0,0,0,0,0,0,0,0,-1,1462,1303,0,0
245,-279,0,0,0,0,0,0,0,0,0,-1,1469,1303,0,0
252,-279,0,0,0,0,0,0,0,0,0,-1,1476,1303,0,0
259,-279,0,0,0,0,0,0,0,0,0,-1,1483,1303,0,0
266,-279,0,0,0,0,0,0,0,0,0,-1,1490,1303,0,0
273,-279,0,0,0,0,0,0,0,0,0,-1,1497,1303,0,0
280,-279,0,0,0,0,0,0,0,0,0,-1,1504,1303,0,0
287,-279,0,0,0,0,0,0,0,0,0,-1,1511,1303,0,0
294,-279,0,0,0,0,0,0,0,0,0,-1,1518,1303,0,0
301,-279,0,0,0,0,0,0,0,0,0,-1,1525,1303,0,0
308,-279,0,0,0,0,0,0,0,0,0,-1,1532,1303,0,0
315,-279,0,0,0,0,0,0,0,0,0,-1,1539,1303,0,0
322,-279,0,0,0,0,0,0,0,0,0,-1,1546,1303,0,0
329,-279,0,0,0,0,0,0,0,0,0,-1,1553,1303,0,0
336,-279,0,0,0,0,0,0,0,0,0,-1,1560,1303,0,0
343,-279,0,0,0,0,0,0,0,0,0,-1,1567,1303,0,0
350,-279,0,0,0,0,0,0,0,0,0,-1,1574,1303,0,0
357,-279,0,0,0,0,0,0,0,0,0,-1,1581,1303,0,0
364,-279,0,0,0,0,0,0,0,0,0,-1,1588,1303,0,0
371,-279,0,0,0,0,0,0,0,0,0,-1,1595,1303,0,0
378,-279,0,0,0,0,0,0,0,0,0,-1,1602,1303,0,0
385,-279,0,0,0,0,0,0,0,0,0,-1,1609,1303,0,0
392,-279,0,0,0,0,0,0,0,0,0,-1,1616,1303,0,0
399,-279,0,0,0,0,0,0,0,0,0,-1,1623,1303,0,0
406,-279,0,0,0,0,0,0,0,0,0,-1,1630,1303,0,0
413,-279,0,0,0,0,0,0,0,0,0,-1,1637,1303,0,0
420,-279,0,0,0,0,0,0,0,0,0,-1,1644,1303,0,0
427,-279,0,0,0,0,0,0,0,0,0,-1,1651,1303,0,0
434,-279,0,0,0,0,0,0,0,0,0,-1,1658,1303,0,0
441,-279,0,0,0,0,0,0,0,0,0,-1,1665,1303,0,0
448,-279,0,0,0,0,0,0,0,0,0,-1,1672,1303,0,0
455,-279,0,0,0,0,0,0,0,0,0,-1,1679,1303,0,0
462,-279,0,0,0,0,0,0,0,0,0,-1,1686,1303,0,0
469,-279,0,0,0,0,0,0,0,0,0,-1,1693,1303,0,0
476,-279,0,0,0,0,0,0,0,0,0,-1,1700,1303,0,0
483,-279,0,0,0,0,0,0,0,0,0,-1,1707,1303,0,0
490,-279,0,0,0,0,0,0,0,0,0,-1,1714,1303,0,0
497,-279,0,0,0,0,0,0,0,0,0,-1,1721,1303,0,0
504,-279,0,0,0,0,0,0,0,0,0,-1,1728,1303,0,0
511,-279,0,0,0,0,0,0,0,0,0,-1,1735,1303,0,0
518,-279,0,0,0,0,0,0,0,0,0,-1,1742,1303,0,0
525,-279,0,0,0,0,0,0,0,0,0,-1,1749,1303,0,0
532,-279,0,0,0,0,0,0,0,0,0,-1,1756,1303,0,0
539,-279,0,0,0,0,0,0,0,0,0,-1,1763,1303,0,0
546,-279,0,0,0,0,0,0,0,0,0,-1,1770,1303,0,0
553,-279,0,0,0,0,0,0,0,0,0,-1,1777,1303,0,0
560,-279,0,0,0,0,0,0,0,0,0,-1,1784,1303,0,0
567,-279,0,0,0,0,0,0,0,0,0,-1,1791,1303,0,0
574,-279,0,0,0,0,0,0,0,0,0,-1,1798,1303,0,0
581,-279,0,0,0,0,0,0,0,0,0,-1,1805,1303,0,0
588,-279,0,0,0,0,0,0,0,0,0,-1,1812,1303,0,0
595,-279,0,0,0,0,0,0,0,0,0,-1,1819,1303,0,0
602,-279,39.2991,2.49133,0,0,0,0,0,0,0,-1,1826,1303,39.2991,-2.49133
609,-279,39.1899,2.36438,0,0,0,0,0,0,0,-1,1833,1303,39.1899,-2.36443
616,-279,38.8175,2.07166,0.0100625,0.0185046,-0.0191757,0.0339183,-0.00535128,-0.893733,0.0245908,0.0481085,1840,1303,38.8175,-2.07161
623,-279,38.9834,1.94714,0.0115371,0.0173281,-0.014941,0.0296515,-0.000786382,-0.88111,0.0200349,0.0463619,1847,1303,38.9834,-1.94712
630,-279,39.1997,1.52441,0.0107928,0.015053,-0.0109252,0.0240538,0.00179199,-0.881676,0.0154732,0.0447059,1854,1303,39.1997,-1.52438
637,-279,39.4436,1.05457,0,0,0,0,0,0,0,-1,1861,1303,39.4436,-1.05452
644,-279,33.5021,3.40234,0,0,0,0,0,0,0,-1,1868,1303,33.5021,-3.40237
651,-279,29.8456,2.3562,0,0,0,0,0,0,0,-1,1875,1303,29.8455,-2.35615
658,-279,21.5076,7.65649,0,0,0,0,0,0,0,-1,1882,1303,21.5076,-7.65648
665,-279,18.9794,6.09607,0,0,0,0,0,0,0,-1,1889,1303,18.9793,-6.09601
672,-279,23.5206,8.32507,0,0,0,0,0,0,0,-1,1896,1303,23.5206,-8.32512
679,-279,28.5519,8.91943,0,0,0,0,0,0,0,-1,1903,1303,28.5519,-8.91944
686,-279,28.5923,8.54553,0.00133398,-0.000777805,-0.000244355,0.00136189,-0.000805711,-0.113708,0.00126512,0.0238128,1910,1303,28.5923,-8.54556
693,-279,28.5925,8.15723,0.00110629,-0.000527322,-4.16614e-05,0.00110736,-0.000528384,-0.0254804,0.000963913,0.0157905,1917,1303,28.5925,-8.15726
700,-279,28.5919,7.79163,0.000755162,-0.000345773,6.01294e-05,0.000758437,-0.000349047,0.0544009,0.000653806,0.0111939,1924,1303,28.5919,-7.7916
707,-279,28.6045,7.41736,0.000117665,-9.54203e-05,0.000187254,0.000226565,-0.00020432,0.526751,0.000248882,0.00911294,1931,1303,28.6045,-7.41736
714,-279,28.5825,7.04395,-0.00059249,0.000274786,0.000406429,0.000435477,-0.000753181,1.19429,0.000694395,0.0104081,1938,1303,28.5826,-7.04398
721,-279,28.5981,6.65625,-0.00112855,0.000908661,0.000754659,0.00115776,-0.00137764,1.25198,0.00146565,0.0136516,1945,1303,28.5982,-6.65627
728,-279,28.6145,6.26575,-0.00179282,0.00158766,0.0010781,0.00190221,-0.00210737,1.28691,0.00231594,0.0151742,1952,1303,28.6145,-6.26576
735,-279,28.5885,5.94348,-0.00227143,0.00256645,0.0013834,0.0029341,-0.00263907,1.31104,0.00321918,0.0151859,1959,1303,28.5885,-5.94345
742,-279,28.4799,5.59009,-0.00244359,0.0039414,0.00175901,0.00439392,-0.00289611,1.319,0.00423841,0.0341547,1966,1303,28.4798,-5.59004
749,-279,28.55,5.15881,0,0,0,0,0,0,0,-1,1973,1303,28.5501,-5.1588
756,-279,23.2091,4.43433,0,0,0,0,0,0,0,-1,1980,1303,23.2092,-4.43432
763,-279,27.1613,3.46265,0,0,0,0,0,0,0,-1,1987,1303,27.1613,-3.4627
770,-279,21.5828,3.54199,0,0,0,0,0,0,0,-1,1994,1303,21.5827,-3.54198
777,-279,32.5369,6.99609,0,0,0,0,0,0,0,-1,2001,1303,32.5369,-6.99608
784,-279,0,0,0,0,0,0,0,0,0,-1,2008,1303,0,0
791,-279,0,0,0,0,0,0,0,0,0,-1,2015,1303,0,0
798,-279,0,0,0,0,0,0,0,0,0,-1,2022,1303,0,0
805,-279,0,0,0,0,0,0,0,0,0,-1,2029,1303,0,0
812,-279,0,0,0,0,0,0,0,0,0,-1,2036,1303,0,0
-700,-286,0,0,0,0,0,0,0,0,0,-1,524,1310,0,0
-693,-286,0,0,0,0,0,0,0,0,0,-1,531,1310,0,0
-686,-286,0,0,0,0,0,0,0,0,0,-1,538,1310,0,0
-679,-286,0,0,0,0,0,0,0,0,0,-1,545,1310,0,0
-672,-286,0,0,0,0,0,0,0,0,0,-1,552,1310,0,0
-665,-286,0,0,0,0,0,0,0,0,0,-1,559,1310,0,0
-658,-286,-17.3779,-0.0690918,0,0,0,0,0,0,0,-1,566,1310,-17.3778,0.0691253
-651,-286,-30.6509,8.27283,0,0,0,0,0,0,0,-1,573,1310,-30.6509,-8.27281
-644,-286,-17.0248,-0.608643,0,0,0,0,0,0,0,-1,580,1310,-17.0248,0.60859
-637,-286,-17.2755,-0.746826,0,0,0,0,0,0,0,-1,587,1310,-17.2754,0.746849
-630,-286,-17.7198,-0.758667,0,0,0,0,0,0,0,-1,594,1310,-17.7199,0.758666
-623,-286,-16.5986,0.79248,0,0,0,0,0,0,0,-1,601,1310,-16.5986,-0.79244
-616,-286,-16.9708,0.767334,0,0,0,0,0,0,0,-1,608,1310,-16.9708,-0.767314
-609,-286,-16.5646,2.11841,-0.00188069,0.0118895,0.0108121,0.0178226,-0.00781381,1.06892,0.0151726,0.0497976,615,1310,-16.5646,-2.11835
-602,-286,-16.391,3.40906,-0.00101095,0.00895127,0.00796238,0.0133622,-0.00542191,1.06491,0.0111633,0.0195766,622,1310,-16.391,-3.40912
-595,-286,-16.4026,3.896,-0.000154087,0.00645666,0.00575996,0.00979227,-0.0034897,1.04588,0.00795092,0.0118239,629,1310,-16.4026,-3.89594
-588,-286,-16.3787,4.30823,0.000698881,0.00451288,0.00419188,0.00721115,-0.00199939,0.99887,0.00559429,0.0130382,636,1310,-16.3787,-4.30826
-581,-286,-16.3694,4.72888,0.00143505,0.00322654,0.00310302,0.00556052,-0.000898924,0.925912,0.00404013,0.0150502,643,1310,-16.3694,-4.72892
-574,-286,-16.4147,5.15662,0.00231755,0.00199544,0.00230441,0.00446653,-0.000153537,0.75051,0.00303016,0.0144423,650,1310,-16.4147,-5.15658
-567,-286,-16.4213,5.57886,0.00323599,0.000926195,0.00188952,0.0042956,-0.000133421,0.511087,0.00290923,0.01345,657,1310,-16.4213,-5.57882
-560,-286,-16.422,6.01526,0.00384672,0.000420912,0.00183305,0.00464262,-0.000374987,0.409633,0.00322735,0.0133451,664,1310,-16.422,-6.01531
-553,-286,-16.4506,6.44727,0.00431804,0.000120188,0.00200738,0.00512343,-0.000685204,0.381554,0.00366543,0.0103671,671,1310,-16.4506,-6.44722
-546,-286,-16.4313,6.90857,0.0045917,6.58486e-05,0.0021749,0.0054674,-0.000809858,0.382783,0.00394271,0.0170541,678,1310,-16.4313,-6.90859
-539,-286,-16.3866,7.34265,0.00456712,-0.000299445,0.00225643,0.00545232,-0.00118465,0.373853,0.0040874,0.0421229,685,1310,-16.3866,-7.34266
-532,-286,-16.2446,7.76721,0,0,0,0,0,0,0,-1,692,1310,-16.2446,-7.76721
-525,-286,-11.4528,-1.11768,0,0,0,0,0,0,0,-1,699,1310,-11.4528,1.11769
-518,-286,-11.0701,1.37329,0,0,0,0,0,0,0,-1,706,1310,-11.0701,-1.37332
-511,-286,-17.7545,-0.0791016,0,0,0,0,0,0,0,-1,713,1310,-17.7544,0.0791606
-504,-286,-18.0455,1.29602,0,0,0,0,0,0,0,-1,720,1310,-18.0455,-1.29601
-497,-286,-18.3367,2.67114,0,0,0,0,0,0,0,-1,727,1310,-18.3366,-2.67118
-490,-286,-19.5795,2.47266,0,0,0,0,0,0,0,-1,734,1310,-19.5795,-2.4727
-483,-286,-19.7277,2.74744,0,0,0,0,0,0,0,-1,741,1310,-19.7277,-2.74747
-476,-286,-20.0391,3.06177,0,0,0,0,0,0,0,-1,748,1310,-20.0391,-3.06178
-469,-286,0,0,0,0,0,0,0,0,0,-1,755,1310,0,0
-462,-286,0,0,0,0,0,0,0,0,0,-1,762,1310,0,0
-455,-286,0,0,0,0,0,0,0,0,0,-1,769,1310,0,0
-448,-286,0,0,0,0,0,0,0,0,0,-1,776,1310,0,0
-441,-286,0,0,0,0,0,0,0,0,0,-1,783,1310,0,0
-434,-286,0,0,0,0,0,0,0,0,0,-1,790,1310,0,0
-427,-286,0,0,0,0,0,0,0,0,0,-1,797,1310,0,0
-420,-286,0,0,0,0,0,0,0,0,0,-1,804,1310,0,0
-413,-286,0,0,0,0,0,0,0,0,0,-1,811,1310,0,0
-406,-286,0,0,0,0,0,0,0,0,0,-1,818,1310,0,0
-399,-286,0,0,0,0,0,0,0,0,0,-1,825,1310,0,0
-392,-286,0,0,0,0,0,0,0,0,0,-1,832,1310,0,0
-385,-286,0,0,0,0,0,0,0,0,0,-1,839,1310,0,0
-378,-286,0,0,0,0,0,0,0,0,0,-1,846,1310,0,0
-371,-286,0,0,0,0,0,0,0,0,0,-1,853,1310,0,0
-364,-286,0,0,0,0,0,0,0,0,0,-1,860,1310,0,0
-357,-286,0,0,0,0,0,0,0,0,0,-1,867,1310,0,0
-350,-286,0,0,0,0,0,0,0,0,0,-1,874,1310,0,0
-343,-286,0,0,0,0,0,0,0,0,0,-1,881,1310,0,0
-336,-286,0,0,0,0,0,0,0,0,0,-1,888,1310,0,0
-329,-286,0,0,0,0,0,0,0,0,0,-1,895,1310,0,0
-322,-286,0,0,0,0,0,0,0,0,0,-1,902,1310,0,0
-315,-286,0,0,0,0,0,0,0,0,0,-1,909,1310,0,0
-308,-286,0,0,0,0,0,0,0,0,0,-1,916,1310,0,0
-301,-286,0,0,0,0,0,0,0,0,0,-1,923,1310,0,0
-294,-286,0,0,0,0,0,0,0,0,0,-1,930,1310,0,0
-287,-286,0,0,0,0,0,0,0,0,0,-1,937,1310,0,0
-280,-286,0,0,0,0,0,0,0,0,0,-1,944,1310,0,0
-273,-286,0,0,0,0,0,0,0,0,0,-1,951,1310,0,0
-266,-286,0,0,0,0,0,0,0,0,0,-1,958,1310,0,0
-259,-286,0,0,0,0,0,0,0,0,0,-1,965,1310,0,0
-252,-286,0,0,0,0,0,0,0,0,0,-1,972,1310,0,0
-245,-286,0,0,0,0,0,0,0,0,0,-1,979,1310,0,0
-238,-286,0,0,0,0,0,0,0,0,0,-1,986,1310,0,0
-231,-286,0,0,0,0,0,0,0,0,0,-1,993,1310,0,0
-224,-286,0,0,0,0,0,0,0,0,0,-1,1000,1310,0,0
-217,-286,0,0,0,0,0,0,0,0,0,-1,1007,1310,0,0
-210,-286,0,0,0,0,0,0,0,0,0,-1,1014,1310,0,0
-203,-286,0,0,0,0,0,0,0,0,0,-1,1021,1310,0,0
-196,-286,0,0,0,0,0,0,0,0,0,-1,1028,1310,0,0
-189,-286,0,0,0,0,0,0,0,0,0,-1,1035,1310,0,0
-182,-286,0,0,0,0,0,0,0,0,0,-1,1042,1310,0,0
-175,-286,0,0,0,0,0,0,0,0,0,-1,1049,1310,0,0
-168,-286,0,0,0,0,0,0,0,0,0,-1,1056,1310,0,0
-161,-286,0,0,0,0,0,0,0,0,0,-1,1063,1310,0,0
-154,-286,0,0,0,0,0,0,0,0,0,-1,1070,1310,0,0
-147,-286,0,0,0,0,0,0,0,0,0,-1,1077,1310,0,0
-140,-286,0,0,0,0,0,0,0,0,0,-1,1084,1310,0,0
-133,-286,0,0,0,0,0,0,0,0,0,-1,1091,1310,0,0
-126,-286,0,0,0,0,0,0,0,0,0,-1,1098,1310,0,0
-119,-286,0,0,0,0,0,0,0,0,0,-1,1105,1310,0,0
-112,-286,0,0,0,0,0,0,0,0,0,-1,1112,1310,0,0
-105,-286,0,0,0,0,0,0,0,0,0,-1,1119,1310,0,0
-98,-286,0,0,0,0,0,0,0,0,0,-1,1126,1310,0,0
-91,-286,0,0,0,0,0,0,0,0,0,-1,1133,1310,0,0
-84,-286,0,0,0,0,0,0,0,0,0,-1,1140,1310,0,0
-77,-286,0,0,0,0,0,0,0,0,0,-1,1147,1310,0,0
-70,-286,0,0,0,0,0,0,0,0,0,-1,1154,1310,0,0
-63,-286,0,0,0,0,0,0,0,0,0,-1,1161,1310,0,0
-56,-286,0,0,0,0,0,0,0,0,0,-1,1168,1310,0,0
-49,-286,0,0,0,0,0,0,0,0,0,-1,1175,1310,0,0
-42,-286,0,0,0,0,0,0,0,0,0,-1,1182,1310,0,0
-35,-286,0,0,0,0,0,0,0,0,0,-1,1189,1310,0,0
-28,-286,0,0,0,0,0,0,0,0,0,-1,1196,1310,0,0
-21,-286,0,0,0,0,0,0,0,0,0,-1,1203,1310,0,0
-14,-286,0,0,0,0,0,0,0,0,0,-1,1210,1310,0,0
-7,-286,0,0,0,0,0,0,0,0,0,-1,1217,1310,0,0
0,-286,0,0,0,0,0,0,0,0,0,-1,1224,1310,0,0
7,-286,0,0,0,0,0,0,0,0,0,-1,1231,1310,0,0
14,-286,0,0,0,0,0,0,0,0,0,-1,1238,1310,0,0
21,-286,0,0,0,0,0,0,0,0,0,-1,1245,1310,0,0
28,-286,0,0,0,0,0,0,0,0,0,-1,1252,1310,0,0
35,-286,0,0,0,0,0,0,0,0,0,-1,1259,1310,0,0
42,-286,0,0,0,0,0,0,0,0,0,-1,1266,1310,0,0
49,-286,0,0,0,0,0,0,0,0,0,-1,1273,1310,0,0
56,-286,0,0,0,0,0,0,0,0,0,-1,1280,1310,0,0
63,-286,0,0,0,0,0,0,0,0,0,-1,1287,1310,0,0
70,-286,0,0,0,0,0,0,0,0,0,-1,1294,1310,0,0
77,-286,0,0,0,0,0,0,0,0,0,-1,1301,1310,0,0
84,-286,0,0,0,0,0,0,0,0,0,-1,1308,1310,0,0
91,-286,0,0,0,0,0,0,0,0,0,-1,1315,1310,0,0
98,-286,0,0,0,0,0,0,0,0,0,-1,1322,1310,0,0
105,-286,0,0,0,0,0,0,0,0,0,-1,1329,1310,0,0
112,-286,0,0,0,0,0,0,0,0,0,-1,1336,1310,0,0
119,-286,0,0,0,0,0,0,0,0,0,-1,1343,1310,0,0
126,-286,0,0,0,0,0,0,0,0,0,-1,1350,1310,0,0
133,-286,0,0,0,0,0,0,0,0,0,-1,1357,1310,0,0
140,-286,0,0,0,0,0,0,0,0,0,-1,1364,1310,0,0
147,-286,0,0,0,0,0,0,0,0,0,-1,1371,1310,0,0
154,-286,0,0,0,0,0,0,0,0,0,-1,1378,1310,0,0
161,-286,0,0,0,0,0,0,0,0,0,-1,1385,1310,0,0
168,-286,0,0,0,0,0,0,0,0,0,-1,1392,1310,0,0
175,-286,0,0,0,0,0,0,0,0,0,-1,1399,1310,0,0
182,-286,0,0,0,0,0,0,0,0,0,-1,1406,1310,0,0
189,-286,0,0,0,0,0,0,0,0,0,-1,1413,1310,0,0
196,-286,0,0,0,0,0,0,0,0,0,-1,1420,1310,0,0
203,-286,0,0,0,0,0,0,0,0,0,-1,1427,1310,0,0
210,-286,0,0,0,0,0,0,0,0,0,-1,1434,1310,0,0
217,-286,0,0,0,0,0,0,0,0,0,-1,1441,1310,0,0
224,-286,0,0,0,0,0,0,0,0,0,-1,1448,1310,0,0
231,-286,0,0,0,0,0,0,0,0,0,-1,1455,1310,0,0
238,-286,0,0,0,0,0,0,0,0,0,-1,1462,1310,0,0
245,-286,0,0,0,0,0,0,0,0,0,-1,1469,1310,0,0
252,-286,0,0,0,0,0,0,0,0,0,-1,1476,1310,0,0
259,-286,0,0,0,0,0,0,0,0,0,-1,1483,1310,0,0
266,-286,0,0,0,0,0,0,0,0,0,-1,1490,1310,0,0
273,-286,0,0,0,0,0,0,0,0,0,-1,1497,1310,0,0
280,-286,0,0,0,0,0,0,0,0,0,-1,1504,1310,0,0
287,-286,0,0,0,0,0,0,0,0,0,-1,1511,1310,0,0
294,-286,0,0,0,0,0,0,0,0,0,-1,1518,1310,0,0
301,-286,0,0,0,0,0,0,0,0,0,-1,1525,1310,0,0
308,-286,0,0,0,0,0,0,0,0,0,-1,1532,1310,0,0
315,-286,0,0,0,0,0,0,0,0,0,-1,1539,1310,0,0
322,-286,0,0,0,0,0,0,0,0,0,-1,1546,1310,0,0
329,-286,0,0,0,0,0,0,0,0,0,-1,1553,1310,0,0
336,-286,0,0,0,0,0,0,0,0,0,-1,1560,1310,0,0
343,-286,0,0,0,0,0,0,0,0,0,-1,1567,1310,0,0
350,-286,0,0,0,0,0,0,0,0,0,-1,1574,1310,0,0
357,-286,0,0,0,0,0,0,0,0,0,-1,1581,1310,0,0
364,-286,0,0,0,0,0,0,0,0,0,-1,1588,1310,0,0
371,-286,0,0,0,0,0,0,0,0,0,-1,1595,1310,0,0
378,-286,0,0,0,0,0,0,0,0,0,-1,1602,1310,0,0
385,-286,0,0,0,0,0,0,0,0,0,-1,1609,1310,0,0
392,-286,0,0,0,0,0,0,0,0,0,-1,1616,1310,0,0
399,-286,0,0,0,0,0,0,0,0,0,-1,1623,1310,0,0
406,-286,0,0,0,0,0,0,0,0,0,-1,1630,1310,0,0
413,-286,0,0,0,0,0,0,0,0,0,-1,1637,1310,0,0
420,-286,0,0,0,0,0,0,0,0,0,-1,1644,1310,0,0
427,-286,0,0,0,0,0,0,0,0,0,-1,1651,1310,0,0
434,-286,0,0,0,0,0,0,0,0,0,-1,1658,1310,0,0
441,-286,0,0,0,0,0,0,0,0,0,-1,1665,1310,0,0
448,-286,0,0,0,0,0,0,0,0,0,-1,1672,1310,0,0
455,-286,0,0,0,0,0,0,0,0,0,-1,1679,1310,0,0
462,-286,0,0,0,0,0,0,0,0,0,-1,1686,1310,0,0
469,-286,0,0,0,0,0,0,0,0,0,-1,1693,1310,0,0
476,-286,0,0,0,0,0,0,0,0,0,-1,1700,1310,0,0
483,-286,0,0,0,0,0,0,0,0,0,-1,1707,1310,0,0
490,-286,0,0,0,0,0,0,0,0,0,-1,1714,1310,0,0
497,-286,0,0,0,0,0,0,0,0,0,-1,1721,1310,0,0
504,-286,0,0,0,0,0,0,0,0,0,-1,1728,1310,0,0
511,-286,0,0,0,0,0,0,0,0,0,-1,1735,1310,0,0
518,-286,0,0,0,0,0,0,0,0,0,-1,1742,1310,0,0
525,-286,0,0,0,0,0,0,0,0,0,-1,1749,1310,0,0
532,-286,0,0,0,0,0,0,0,0,0,-1,1756,1310,0,0
539,-286,0,0,0,0,0,0,0,0,0,-1,1763,1310,0,0
546,-286,0,0,0,0,0,0,0,0,0,-1,1770,1310,0,0
553,-286,0,0,0,0,0,0,0,0,0,-1,1777,1310,0,0
560,-286,0,0,0,0,0,0,0,0,0,-1,1784,1310,0,0
567,-286,0,0,0,0,0,0,0,0,0,-1,1791,1310,0,0
574,-286,0,0,0,0,0,0,0,0,0,-1,1798,1310,0,0
581,-286,0,0,0,0,0,0,0,0,0,-1,1805,1310,0,0
588,-286,0,0,0,0,0,0,0,0,0,-1,1812,1310,0,0
595,-286,39.4963,2.5946,0,0,0,0,0,0,0,-1,1819,1310,39.4964,-2.59466
602,-286,39.3685,2.29883,-0.0060497,0.0153211,-0.0310358,0.0374594,-0.0281881,-0.951189,0.0380274,0.0466473,1826,1310,39.3686,-2.29879
609,-286,39.0455,2.05176,0,0,0,0,0,0,0,-1,1833,1310,39.0455,-2.05176
616,-286,38.8292,2.11877,0.0108497,0.0199948,-0.0252566,0.0410894,-0.010245,-0.874949,0.0313706,0.0449158,1840,1310,38.8292,-2.11876
623,-286,39.0306,1.86414,0.011371,0.017811,-0.0191661,0.0340257,-0.00484373,-0.868624,0.0244588,0.0462542,1847,1310,39.0307,-1.86414
630,-286,39.2179,1.3136,0,0,0,0,0,0,0,-1,1854,1310,39.2179,-1.31365
637,-286,39.2245,2.2179,0,0,0,0,0,0,0,-1,1861,1310,39.2245,-2.21787
644,-286,25.6433,1.33862,0,0,0,0,0,0,0,-1,1868,1310,25.6433,-1.33858
651,-286,25.2507,1.88245,0,0,0,0,0,0,0,-1,1875,1310,25.2508,-1.88245
658,-286,25.9475,9.43689,0,0,0,0,0,0,0,-1,1882,1310,25.9475,-9.43693
665,-286,24.9838,8.03101,0,0,0,0,0,0,0,-1,1889,1310,24.9837,-8.03104
672,-286,28.0977,9.5116,0,0,0,0,0,0,0,-1,1896,1310,28.0977,-9.51163
679,-286,28.1632,9.02295,0.0026678,0.00174734,0.00024385,0.00272841,0.00168673,0.243618,0.00158986,0.0410833,1903,1310,28.1633,-9.02296
686,-286,28.2606,8.56165,0.000998797,-0.000970839,-0.000223403,0.00102382,-0.000995861,-0.111536,0.0011661,0.0208978,1910,1310,28.2606,-8.56165
693,-286,28.2302,8.17163,0.000754342,-0.000580524,-9.66252e-05,0.0007613,-0.000587482,-0.0718863,0.000780872,0.0162565,1917,1310,28.2302,-8.17159
700,-286,28.2214,7.7843,0.000403575,-0.000255419,1.63796e-05,0.000403982,-0.000255826,0.024835,0.000384128,0.0118383,1924,1310,28.2214,-7.7843
707,-286,28.2046,7.42712,-0.000157813,4.79824e-05,0.000177336,0.000150111,-0.000259942,1.04828,0.000239558,0.00881974,1931,1310,28.2045,-7.42712
714,-286,28.1969,7.06335,-0.000829773,0.00038774,0.000401241,0.000508078,-0.000950111,1.27942,0.000854683,0.00902568,1938,1310,28.1969,-7.06335
721,-286,28.2233,6.67896,-0.00148122,0.00094979,0.000757107,0.0011663,-0.00169773,1.29226,0.00166301,0.0117497,1945,1310,28.2233,-6.67891
728,-286,28.2288,6.29565,-0.00230154,0.0015579,0.00107848,0.00183882,-0.00258247,1.31598,0.00256464,0.0146657,1952,1310,28.2287,-6.29568
735,-286,28.256,5.92102,-0.00302162,0.00249526,0.00132084,0.00279519,-0.00332155,1.34751,0.00353586,0.0186638,1959,1310,28.256,-5.92099
742,-286,28.2582,5.58167,-0.00362471,0.00382353,0.00162317,0.00416189,-0.00396307,1.36528,0.00469142,0.0453452,1966,1310,28.2581,-5.5817
749,-286,28.459,5.18799,0,0,0,0,0,0,0,-1,1973,1310,28.459,-5.18793
756,-286,24.8226,4.43481,0,0,0,0,0,0,0,-1,1980,1310,24.8227,-4.43479
763,-286,20.6671,3.99683,0,0,0,0,0,0,0,-1,1987,1310,20.6671,-3.99683
770,-286,23.9147,4.45679,0,0,0,0,0,0,0,-1,1994,1310,23.9146,-4.45675
777,-286,0,0,0,0,0,0,0,0,0,-1,2001,1310,0,0
784,-286,0,0,0,0,0,0,0,0,0,-1,2008,1310,0,0
791,-286,0,0,0,0,0,0,0,0,0,-1,2015,1310,0,0
798,-286,0,0,0,0,0,0,0,0,0,-1,2022,1310,0,0
805,-286,0,0,0,0,0,0,0,0,0,-1,2029,1310,0,0
812,-286,0,0,0,0,0,0,0,0,0,-1,2036,1310,0,0
-700,-293,0,0,0,0,0,0,0,0,0,-1,524,1317,0,0
-693,-293,0,0,0,0,0,0,0,0,0,-1,531,1317,0,0
-686,-293,0,0,0,0,0,0,0,0,0,-1,538,1317,0,0
-679,-293,0,0,0,0,0,0,0,0,0,-1,545,1317,0,0
-672,-293,0,0,0,0,0,0,0,0,0,-1,552,1317,0,0
-665,-293,0,0,0,0,0,0,0,0,0,-1,559,1317,0,0
-658,-293,0,0,0,0,0,0,0,0,0,-1,566,1317,0,0
-651,-293,-30.93,9.1167,0,0,0,0,0,0,0,-1,573,1317,-30.93,-9.11672
-644,-293,-33.3998,9.87842,0,0,0,0,0,0,0,-1,580,1317,-33.3998,-9.87837
-637,-293,-17.0581,-1.35522,0,0,0,0,0,0,0,-1,587,1317,-17.0581,1.35528
-630,-293,-18.9351,6.5354,0,0,0,0,0,0,0,-1,594,1317,-18.935,-6.53536
-623,-293,-15.6058,0.229614,0,0,0,0,0,0,0,-1,601,1317,-15.6058,-0.229666
-616,-293,-15.5141,1.35999,0,0,0,0,0,0,0,-1,608,1317,-15.5141,-1.35997
-609,-293,-15.623,2.47583,-0.0012612,0.0136566,0.012145,0.0204503,-0.00805491,1.06078,0.0169682,0.0496344,615,1317,-15.623,-2.47589
-602,-293,-15.8492,3.25659,-0.000427896,0.0100731,0.00885287,0.0151153,-0.00547017,1.05306,0.0123122,0.0439726,622,1317,-15.8492,-3.25658
-595,-293,-15.9917,3.8949,0.000263978,0.0071446,0.00630573,0.0108875,-0.00347889,1.03512,0.00865424,0.0183814,629,1317,-15.9917,-3.89488
-588,-293,-15.9586,4.30298,0.000899379,0.00495814,0.00451406,0.00787801,-0.00202049,0.996646,0.00603924,0.0161538,636,1317,-15.9586,-4.30304
-581,-293,-15.9468,4.72021,0.00138742,0.00351824,0.00325278,0.00587564,-0.000969983,0.943661,0.00427724,0.0192073,643,1317,-15.9468,-4.72016
-574,-293,-15.9709,5.17908,0.00196116,0.00221436,0.00230743,0.00439866,-0.000223143,0.812805,0.00300958,0.0169824,650,1317,-15.9709,-5.17903
-567,-293,-15.9874,5.60608,0.00270559,0.00106683,0.00172495,0.00379588,-2.34561e-05,0.563667,0.00253844,0.0156008,657,1317,-15.9874,-5.60605
-560,-293,-15.9983,6.03516,0.00329417,0.000563398,0.00154051,0.00398728,-0.00012972,0.422795,0.00270247,0.016483,664,1317,-15.9983,-6.03518
-553,-293,-16.0165,6.46082,0.00389896,0.000301785,0.00163554,0.00453141,-0.000330661,0.368978,0.00313697,0.0114417,671,1317,-16.0166,-6.46079
-546,-293,-16.0189,6.91052,0.00458827,0.00030618,0.00193175,0.00533092,-0.000436475,0.367027,0.00370801,0.0109766,678,1317,-16.0189,-6.91051
-539,-293,-15.9791,7.31348,0.00535529,0.000144091,0.00229503,0.00622191,-0.00072253,0.361055,0.00440856,0.0330736,685,1317,-15.9791,-7.31345
-532,-293,-15.939,7.63867,0,0,0,0,0,0,0,-1,692,1317,-15.9391,-7.6387
-525,-293,-8.20642,3.62256,0,0,0,0,0,0,0,-1,699,1317,-8.20639,-3.6226
-518,-293,-10.1053,0.314209,0,0,0,0,0,0,0,-1,706,1317,-10.1053,-0.314234
-511,-293,-11.6276,0.235352,0,0,0,0,0,0,0,-1,713,1317,-11.6276,-0.235372
-504,-293,-17.9086,1.25427,0,0,0,0,0,0,0,-1,720,1317,-17.9086,-1.25423
-497,-293,-18.8006,1.62122,0,0,0,0,0,0,0,-1,727,1317,-18.8006,-1.62119
-490,-293,-18.8961,1.99255,0,0,0,0,0,0,0,-1,734,1317,-18.8961,-1.99251
-483,-293,-19.0831,2.35498,0,0,0,0,0,0,0,-1,741,1317,-19.0831,-2.35497
-476,-293,-19.5228,2.61243,0,0,0,0,0,0,0,-1,748,1317,-19.5228,-2.61237
-469,-293,0,0,0,0,0,0,0,0,0,-1,755,1317,0,0
-462,-293,0,0,0,0,0,0,0,0,0,-1,762,1317,0,0
-455,-293,0,0,0,0,0,0,0,0,0,-1,769,1317,0,0
-448,-293,0,0,0,0,0,0,0,0,0,-1,776,1317,0,0
-441,-293,0,0,0,0,0,0,0,0,0,-1,783,1317,0,0
-434,-293,0,0,0,0,0,0,0,0,0,-1,790,1317,0,0
-427,-293,0,0,0,0,0,0,0,0,0,-1,797,1317,0,0
-420,-293,0,0,0,0,0,0,0,0,0,-1,804,1317,0,0
-413,-293,0,0,0,0,0,0,0,0,0,-1,811,1317,0,0
-406,-293,0,0,0,0,0,0,0,0,0,-1,818,1317,0,0
-399,-293,0,0,0,0,0,0,0,0,0,-1,825,1317,0,0
-392,-293,0,0,0,0,0,0,0,0,0,-1,832,1317,0,0
-385,-293,0,0,0,0,0,0,0,0,0,-1,839,1317,0,0
-378,-293,0,0,0,0,0,0,0,0,0,-1,846,1317,0,0
-371,-293,0,0,0,0,0,0,0,0,0,-1,853,1317,0,0
-364,-293,0,0,0,0,0,0,0,0,0,-1,860,1317,0,0
-357,-293,0,0,0,0,0,0,0,0,0,-1,867,1317,0,0
-350,-293,0,0,0,0,0,0,0,0,0,-1,874,1317,0,0
-343,-293,0,0,0,0,0,0,0,0,0,-1,881,1317,0,0
-336,-293,0,0,0,0,0,0,0,0,0,-1,888,1317,0,0
-329,-293,0,0,0,0,0,0,0,0,0,-1,895,1317,0,0
-322,-293,0,0,0,0,0,0,0,0,0,-1,902,1317,0,0
-315,-293,0,0,0,0,0,0,0,0,0,-1,909,1317,0,0
-308,-293,0,0,0,0,0,0,0,0,0,-1,916,1317,0,0
-301,-293,0,0,0,0,0,0,0,0,0,-1,923,1317,0,0
-294,-293,0,0,0,0,0,0,0,0,0,-1,930,1317,0,0
-287,-293,0,0,0,0,0,0,0,0,0,-1,937,1317,0,0
-280,-293,0,0,0,0,0,0,0,0,0,-1,944,1317,0,0
-273,-293,0,0,0,0,0,0,0,0,0,-1,951,1317,0,0
-266,-293,0,0,0,0,0,0,0,0,0,-1,958,1317,0,0
-259,-293,0,0,0,0,0,0,0,0,0,-1,965,1317,0,0
-252,-293,0,0,0,0,0,0,0,0,0,-1,972,1317,0,0
-245,-293,0,0,0,0,0,0,0,0,0,-1,979,1317,0,0
-238,-293,0,0,0,0,0,0,0,0,0,-1,986,1317,0,0
-231,-293,0,0,0,0,0,0,0,0,0,-1,993,1317,0,0
-224,-293,0,0,0,0,0,0,0,0,0,-1,1000,1317,0,0
-217,-293,0,0,0,0,0,0,0,0,0,-1,1007,1317,0,0
-210,-293,0,0,0,0,0,0,0,0,0,-1,1014,1317,0,0
-203,-293,0,0,0,0,0,0,0,0,0,-1,1021,1317,0,0
-196,-293,0,0,0,0,0,0,0,0,0,-1,1028,1317,0,0
-189,-293,0,0,0,0,0,0,0,0,0,-1,1035,1317,0,0
-182,-293,0,0,0,0,0,0,0,0,0,-1,1042,1317,0,0
-175,-293,0,0,0,0,0,0,0,0,0,-1,1049,1317,0,0
-168,-293,0,0,0,0,0,0,0,0,0,-1,1056,1317,0,0
-161,-293,0,0,0,0,0,0,0,0,0,-1,1063,1317,0,0
-154,-293,0,0,0,0,0,0,0,0,0,-1,1070,1317,0,0
-147,-293,0,0,0,0,0,0,0,0,0,-1,1077,1317,0,0
-140,-293,0,0,0,0,0,0,0,0,0,-1,1084,1317,0,0
-133,-293,0,0,0,0,0,0,0,0,0,-1,1091,1317,0,0
-126,-293,0,0,0,0,0,0,0,0,0,-1,1098,1317,0,0
-119,-293,0,0,0,0,0,0,0,0,0,-1,1105,1317,0,0
-112,-293,0,0,0,0,0,0,0,0,0,-1,1112,1317,0,0
-105,-293,0,0,0,0,0,0,0,0,0,-1,1119,1317,0,0
-98,-293,0,0,0,0,0,0,0,0,0,-1,1126,1317,0,0
-91,-293,0,0,0,0,0,0,0,0,0,-1,1133,1317,0,0
-84,-293,0,0,0,0,0,0,0,0,0,-1,1140,1317,0,0
-77,-293,0,0,0,0,0,0,0,0,0,-1,1147,1317,0,0
-70,-293,0,0,0,0,0,0,0,0,0,-1,1154,1317,0,0
-63,-293,0,0,0,0,0,0,0,0,0,-1,1161,1317,0,0
-56,-293,0,0,0,0,0,0,0,0,0,-1,1168,1317,0,0
-49,-293,0,0,0,0,0,0,0,0,0,-1,1175,1317,0,0
-42,-293,0,0,0,0,0,0,0,0,0,-1,1182,1317,0,0
-35,-293,0,0,0,0,0,0,0,0,0,-1,1189,1317,0,0
-28,-293,0,0,0,0,0,0,0,0,0,-1,1196,1317,0,0
-21,-293,0,0,0,0,0,0,0,0,0,-1,1203,1317,0,0
-14,-293,0,0,0,0,0,0,0,0,0,-1,1210,1317,0,0
-7,-293,0,0,0,0,0,0,0,0,0,-1,1217,1317,0,0
0,-293,0,0,0,0,0,0,0,0,0,-1,1224,1317,0,0
7,-293,0,0,0,0,0,0,0,0,0,-1,1231,1317,0,0
14,-293,0,0,0,0,0,0,0,0,0,-1,1238,1317,0,0
21,-293,0,0,0,0,0,0,0,0,0,-1,1245,1317,0,0
28,-293,0,0,0,0,0,0,0,0,0,-1,1252,1317,0,0
35,-293,0,0,0,0,0,0,0,0,0,-1,1259,1317,0,0
42,-293,0,0,0,0,0,0,0,0,0,-1,1266,1317,0,0
49,-293,0,0,0,0,0,0,0,0,0,-1,1273,1317,0,0
56,-293,0,0,0,0,0,0,0,0,0,-1,1280,1317,0,0
63,-293,0,0,0,0,0,0,0,0,0,-1,1287,1317,0,0
70,-293,0,0,0,0,0,0,0,0,0,-1,1294,1317,0,0
77,-293,0,0,0,0,0,0,0,0,0,-1,1301,1317,0,0
84,-293,0,0,0,0,0,0,0,0,0,-1,1308,1317,0,0
91,-293,0,0,0,0,0,0,0,0,0,-1,1315,1317,0,0
98,-293,0,0,0,0,0,0,0,0,0,-1,1322,1317,0,0
105,-293,0,0,0,0,0,0,0,0,0,-1,1329,1317,0,0
112,-293,0,0,0,0,0,0,0,0,0,-1,1336,1317,0,0
119,-293,0,0,0,0,0,0,0,0,0,-1,1343,1317,0,0
126,-293,0,0,0,0,0,0,0,0,0,-1,1350,1317,0,0
133,-293,0,0,0,0,0,0,0,0,0,-1,1357,1317,0,0
140,-293,0,0,0,0,0,0,0,0,0,-1,1364,1317,0,0
147,-293,0,0,0,0,0,0,0,0,0,-1,1371,1317,0,0
154,-293,0,0,0,0,0,0,0,0,0,-1,1378,1317,0,0
161,-293,0,0,0,0,0,0,0,0,0,-1,1385,1317,0,0
168,-293,0,0,0,0,0,0,0,0,0,-1,1392,1317,0,0
175,-293,0,0,0,0,0,0,0,0,0,-1,1399,1317,0,0
182,-293,0,0,0,0,0,0,0,0,0,-1,1406,1317,0,0
189,-293,0,0,0,0,0,0,0,0,0,-1,1413,1317,0,0
196,-293,0,0,0,0,0,0,0,0,0,-1,1420,1317,0,0
203,-293,0,0,0,0,0,0,0,0,0,-1,1427,1317,0,0
210,-293,0,0,0,0,0,0,0,0,0,-1,1434,1317,0,0
217,-293,0,0,0,0,0,0,0,0,0,-1,1441,1317,0,0
224,-293,0,0,0,0,0,0,0,0,0,-1,1448,1317,0,0
231,-293,0,0,0,0,0,0,0,0,0,-1,1455,1317,0,0
238,-293,0,0,0,0,0,0,0,0,0,-1,1462,1317,0,0
245,-293,0,0,0,0,0,0,0,0,0,-1,1469,1317,0,0
252,-293,0,0,0,0,0,0,0,0,0,-1,1476,1317,0,0
259,-293,0,0,0,0,0,0,0,0,0,-1,1483,1317,0,0
266,-293,0,0,0,0,0,0,0,0,0,-1,1490,1317,0,0
273,-293,0,0,0,0,0,0,0,0,0,-1,1497,1317,0,0
280,-293,0,0,0,0,0,0,0,0,0,-1,1504,1317,0,0
287,-293,0,0,0,0,0,0,0,0,0,-1,1511,1317,0,0
294,-293,0,0,0,0,0,0,0,0,0,-1,1518,1317,0,0
301,-293,0,0,0,0,0,0,0,0,0,-1,1525,1317,0,0
308,-293,0,0,0,0,0,0,0,0,0,-1,1532,1317,0,0
315,-293,0,0,0,0,0,0,0,0,0,-1,1539,1317,0,0
322,-293,0,0,0,0,0,0,0,0,0,-1,1546,1317,0,0
329,-293,0,0,0,0,0,0,0,0,0,-1,1553,1317,0,0
336,-293,0,0,0,0,0,0,0,0,0,-1,1560,1317,0,0
343,-293,0,0,0,0,0,0,0,0,0,-1,1567,1317,0,0
350,-293,0,0,0,0,0,0,0,0,0,-1,1574,1317,0,0
357,-293,0,0,0,0,0,0,0,0,0,-1,1581,1317,0,0
364,-293,0,0,0,0,0,0,0,0,0,-1,1588,1317,0,0
371,-293,0,0,0,0,0,0,0,0,0,-1,1595,1317,0,0
378,-293,0,0,0,0,0,0,0,0,0,-1,1602,1317,0,0
385,-293,0,0,0,0,0,0,0,0,0,-1,1609,1317,0,0
392,-293,0,0,0,0,0,0,0,0,0,-1,1616,1317,0,0
399,-293,0,0,0,0,0,0,0,0,0,-1,1623,1317,0,0
406,-293,0,0,0,0,0,0,0,0,0,-1,1630,1317,0,0
413,-293,0,0,0,0,0,0,0,0,0,-1,1637,1317,0,0
420,-293,0,0,0,0,0,0,0,0,0,-1,1644,1317,0,0
427,-293,0,0,0,0,0,0,0,0,0,-1,1651,1317,0,0
434,-293,0,0,0,0,0,0,0,0,0,-1,1658,1317,0,0
441,-293,0,0,0,0,0,0,0,0,0,-1,1665,1317,0,0
448,-293,0,0,0,0,0,0,0,0,0,-1,1672,1317,0,0
455,-293,0,0,0,0,0,0,0,0,0,-1,1679,1317,0,0
462,-293,0,0,0,0,0,0,0,0,0,-1,1686,1317,0,0
469,-293,0,0,0,0,0,0,0,0,0,-1,1693,1317,0,0
476,-293,0,0,0,0,0,0,0,0,0,-1,1700,1317,0,0
483,-293,0,0,0,0,0,0,0,0,0,-1,1707,1317,0,0
490,-293,0,0,0,0,0,0,0,0,0,-1,1714,1317,0,0
497,-293,0,0,0,0,0,0,0,0,0,-1,1721,1317,0,0
504,-293,0,0,0,0,0,0,0,0,0,-1,1728,1317,0,0
511,-293,0,0,0,0,0,0,0,0,0,-1,1735,1317,0,0
518,-293,0,0,0,0,0,0,0,0,0,-1,1742,1317,0,0
525,-293,0,0,0,0,0,0,0,0,0,-1,1749,1317,0,0
532,-293,0,0,0,0,0,0,0,0,0,-1,1756,1317,0,0
539,-293,0,0,0,0,0,0,0,0,0,-1,1763,1317,0,0
546,-293,0,0,0,0,0,0,0,0,0,-1,1770,1317,0,0
553,-293,0,0,0,0,0,0,0,0,0,-1,1777,1317,0,0
560,-293,0,0,0,0,0,0,0,0,0,-1,1784,1317,0,0
567,-293,0,0,0,0,0,0,0,0,0,-1,1791,1317,0,0
574,-293,0,0,0,0,0,0,0,0,0,-1,1798,1317,0,0
581,-293,0,0,0,0,0,0,0,0,0,-1,1805,1317,0,0
588,-293,0,0,0,0,0,0,0,0,0,-1,1812,1317,0,0
595,-293,39.601,2.43555,0,0,0,0,0,0,0,-1,1819,1317,39.601,-2.43559
602,-293,39.3173,2.26733,0,0,0,0,0,0,0,-1,1826,1317,39.3172,-2.26729
609,-293,38.2294,3.81067,0,0,0,0,0,0,0,-1,1833,1317,38.2293,-3.81064
616,-293,38.4915,2.67627,0.0103763,0.0211372,-0.0319931,0.0481992,-0.0166856,-0.868707,0.0389062,0.0469813,1840,1317,38.4914,-2.67632
623,-293,38.7572,1.51746,0.0106625,0.018299,-0.0241687,0.0389492,-0.00998777,-0.863742,0.0298575,0.0492438,1847,1317,38.7572,-1.5175
630,-293,39.0083,0.375122,0,0,0,0,0,0,0,-1,1854,1317,39.0083,-0.375095
637,-293,30.8379,3.60046,0,0,0,0,0,0,0,-1,1861,1317,30.8379,-3.60043
644,-293,24.4565,0.520752,0,0,0,0,0,0,0,-1,1868,1317,24.4566,-0.520709
651,-293,25.8926,9.51245,0,0,0,0,0,0,0,-1,1875,1317,25.8926,-9.51246
658,-293,25.4904,9.10205,0,0,0,0,0,0,0,-1,1882,1317,25.4904,-9.10209
665,-293,28.1177,9.5481,0,0,0,0,0,0,0,-1,1889,1317,28.1177,-9.54813
672,-293,27.925,9.35437,0.00447935,0.00433411,-0.000305632,0.00472087,0.00409259,-0.668754,0.00296013,0.0299316,1896,1317,27.925,-9.35434
679,-293,27.8885,8.97058,0.00211222,0.00148497,0.000384869,0.00229507,0.00130212,0.443522,0.00132906,0.0134156,1903,1317,27.8886,-8.97053
686,-293,27.9092,8.56482,0.000559374,-0.000900418,-7.68218e-05,0.000563405,-0.00090445,-0.0524321,0.000855058,0.015576,1910,1317,27.9092,-8.56486
693,-293,27.871,8.18506,0.000337026,-0.000483534,-1.56983e-05,0.000337326,-0.000483834,-0.0191219,0.000476606,0.0126959,1917,1317,27.871,-8.185
700,-293,27.8479,7.79492,4.00558e-05,-0.000138446,9.29957e-05,7.97e-05,-0.00017809,0.402972,0.000152406,0.011274,1924,1317,27.8478,-7.79489
707,-293,27.8297,7.43982,-0.000428096,0.000154634,0.000262754,0.000255613,-0.000529075,1.20389,0.000462119,0.0119044,1931,1317,27.8297,-7.43976
714,-293,27.8265,7.06958,-0.00107754,0.000447896,0.000461433,0.000576615,-0.00120626,1.29876,0.00105052,0.00805681,1938,1317,27.8265,-7.06959
721,-293,27.8499,6.68628,-0.00189501,0.000886145,0.000739884,0.00107073,-0.00207959,1.32631,0.00184967,0.00904603,1945,1317,27.8498,-6.68628
728,-293,27.8508,6.28662,-0.00291173,0.00138205,0.000973885,0.00159261,-0.0031223,1.35786,0.0027695,0.0118466,1952,1317,27.8508,-6.28664
735,-293,27.8761,5.89441,-0.00395991,0.00221185,0.00100391,0.00237104,-0.0041191,1.41353,0.00379212,0.0229809,1959,1317,27.8761,-5.8944
742,-293,28.0614,5.52356,0,0,0,0,0,0,0,-1,1966,1317,28.0614,-5.52353
749,-293,27.9292,4.95374,0,0,0,0,0,0,0,-1,1973,1317,27.9291,-4.95371
756,-293,24.978,3.9718,0,0,0,0,0,0,0,-1,1980,1317,24.978,-3.97186
763,-293,26.6713,4.74097,0,0,0,0,0,0,0,-1,1987,1317,26.6713,-4.74098
770,-293,24.1349,4.69153,0,0,0,0,0,0,0,-1,1994,1317,24.1348,-4.69159
777,-293,0,0,0,0,0,0,0,0,0,-1,2001,1317,0,0
784,-293,0,0,0,0,0,0,0,0,0,-1,2008,1317,0,0
791,-293,0,0,0,0,0,0,0,0,0,-1,2015,1317,0,0
798,-293,0,0,0,0,0,0,0,0,0,-1,2022,1317,0,0
805,-293,0,0,0,0,0,0,0,0,0,-1,2029,1317,0,0
812,-293,0,0,0,0,0,0,0,0,0,-1,2036,1317,0,0
-700,-300,0,0,0,0,0,0,0,0,0,-1,524,1324,0,0
-693,-300,0,0,0,0,0,0,0,0,0,-1,531,1324,0,0
-686,-300,0,0,0,0,0,0,0,0,0,-1,538,1324,0,0
-679,-300,0,0,0,0,0,0,0,0,0,-1,545,1324,0,0
-672,-300,0,0,0,0,0,0,0,0,0,-1,552,1324,0,0
-665,-300,0,0,0,0,0,0,0,0,0,-1,559,1324,0,0
-658,-300,0,0,0,0,0,0,0,0,0,-1,566,1324,0,0
-651,-300,-31.1942,9.99695,0,0,0,0,0,0,0,-1,573,1324,-31.1941,-9.997
-644,-300,-33.6512,10.7505,0,0,0,0,0,0,0,-1,580,1324,-33.6512,-10.7505
-637,-300,-18.2772,6.18555,0,0,0,0,0,0,0,-1,587,1324,-18.2772,-6.1855
-630,-300,-18.9133,7.80566,0,0,0,0,0,0,0,-1,594,1324,-18.9133,-7.80568
-623,-300,-12.7067,1.48462,0,0,0,0,0,0,0,-1,601,1324,-12.7067,-1.48462
-616,-300,-14.9988,1.68628,0,0,0,0,0,0,0,-1,608,1324,-14.9988,-1.68627
-609,-300,-15.2961,2.60767,0,0,0,0,0,0,0,-1,615,1324,-15.2961,-2.60761
-602,-300,-15.5724,3.30884,0,0,0,0,0,0,0,-1,622,1324,-15.5725,-3.30884
-595,-300,-15.5815,3.88342,2.66966e-05,0.00779423,0.00649729,0.01148,-0.00365911,1.05478,0.00912108,0.0300013,629,1324,-15.5815,-3.88341
-588,-300,-15.5301,4.35156,0.000772025,0.00527082,0.00461408,0.0081546,-0.00211176,1.0122,0.0062602,0.0204092,636,1324,-15.5301,-4.35154
-581,-300,-15.5472,4.78613,0.00131719,0.00359597,0.003306,0.00595342,-0.00104026,0.951346,0.00435729,0.0207238,643,1324,-15.5472,-4.78608
-574,-300,-15.5435,5.20874,0.00182671,0.00227756,0.00234716,0.00441009,-0.000305821,0.833272,0.00304712,0.0161364,650,1324,-15.5435,-5.20876
-567,-300,-15.5479,5.6228,0.00249329,0.00112744,0.0017077,0.00364955,-2.88259e-05,0.595184,0.0024427,0.0159226,657,1324,-15.5479,-5.62278
-560,-300,-15.583,6.0542,0.00307293,0.000665502,0.00146548,0.00376568,-2.72447e-05,0.441577,0.00251958,0.0157116,664,1324,-15.583,-6.05414
-553,-300,-15.5986,6.48169,0.00374407,0.000458258,0.00152613,0.00434353,-0.000141203,0.374283,0.00294389,0.0109626,671,1324,-15.5985,-6.48174
-546,-300,-15.5909,6.8916,0.00467202,0.00053972,0.001955,0.00545034,-0.000238598,0.378882,0.00371565,0.00894702,678,1324,-15.5909,-6.89163
-539,-300,-15.5817,7.32336,0.00600869,0.000637198,0.00263461,0.00708518,-0.000439286,0.387893,0.00487648,0.0197943,685,1324,-15.5817,-7.32338
-532,-300,-15.5638,7.73413,0,0,0,0,0,0,0,-1,692,1324,-15.5638,-7.73413
-525,-300,-13.5115,6.27783,0,0,0,0,0,0,0,-1,699,1324,-13.5115,-6.2778
-518,-300,-9.8349,-0.537109,0,0,0,0,0,0,0,-1,706,1324,-9.83487,0.537068
-511,-300,-12.8644,0.081665,0,0,0,0,0,0,0,-1,713,1324,-12.8644,-0.0817016
-504,-300,-13.4829,-0.165527,0,0,0,0,0,0,0,-1,720,1324,-13.4829,0.165544
-497,-300,-18.1063,0.956543,0,0,0,0,0,0,0,-1,727,1324,-18.1063,-0.9565
-490,-300,-18.2293,1.53625,0,0,0,0,0,0,0,-1,734,1324,-18.2293,-1.53626
-483,-300,-18.3522,1.61084,0,0,0,0,0,0,0,-1,741,1324,-18.3522,-1.6108
-476,-300,-18.7489,1.96387,0,0,0,0,0,0,0,-1,748,1324,-18.7489,-1.96387
-469,-300,0,0,0,0,0,0,0,0,0,-1,755,1324,0,0
-462,-300,0,0,0,0,0,0,0,0,0,-1,762,1324,0,0
-455,-300,0,0,0,0,0,0,0,0,0,-1,769,1324,0,0
-448,-300,0,0,0,0,0,0,0,0,0,-1,776,1324,0,0
-441,-300,0,0,0,0,0,0,0,0,0,-1,783,1324,0,0
-434,-300,0,0,0,0,0,0,0,0,0,-1,790,1324,0,0
-427,-300,0,0,0,0,0,0,0,0,0,-1,797,1324,0,0
-420,-300,0,0,0,0,0,0,0,0,0,-1,804,1324,0,0
-413,-300,0,0,0,0,0,0,0,0,0,-1,811,1324,0,0
-406,-300,0,0,0,0,0,0,0,0,0,-1,818,1324,0,0
-399,-300,0,0,0,0,0,0,0,0,0,-1,825,1324,0,0
-392,-300,0,0,0,0,0,0,0,0,0,-1,832,1324,0,0
-385,-300,0,0,0,0,0,0,0,0,0,-1,839,1324,0,0
-378,-300,0,0,0,0,0,0,0,0,0,-1,846,1324,0,0
-371,-300,0,0,0,0,0,0,0,0,0,-1,853,1324,0,0
-364,-300,0,0,0,0,0,0,0,0,0,-1,860,1324,0,0
-357,-300,0,0,0,0,0,0,0,0,0,-1,867,1324,0,0
-350,-300,0,0,0,0,0,0,0,0,0,-1,874,1324,0,0
-343,-300,0,0,0,0,0,0,0,0,0,-1,881,1324,0,0
-336,-300,0,0,0,0,0,0,0,0,0,-1,888,1324,0,0
-329,-300,0,0,0,0,0,0,0,0,0,-1,895,1324,0,0
-322,-300,0,0,0,0,0,0,0,0,0,-1,902,1324,0,0
-315,-300,0,0,0,0,0,0,0,0,0,-1,909,1324,0,0
-308,-300,0,0,0,0,0,0,0,0,0,-1,916,1324,0,0
-301,-300,0,0,0,0,0,0,0,0,0,-1,923,1324,0,0
-294,-300,0,0,0,0,0,0,0,0,0,-1,930,1324,0,0
-287,-300,0,0,0,0,0,0,0,0,0,-1,937,1324,0,0
-280,-300,0,0,0,0,0,0,0,0,0,-1,944,1324,0,0
-273,-300,0,0,0,0,0,0,0,0,0,-1,951,1324,0,0
-266,-300,0,0,0,0,0,0,0,0,0,-1,958,1324,0,0
-259,-300,0,0,0,0,0,0,0,0,0,-1,965,1324,0,0
-252,-300,0,0,0,0,0,0,0,0,0,-1,972,1324,0,0
-245,-300,0,0,0,0,0,0,0,0,0,-1,979,1324,0,0
-238,-300,0,0,0,0,0,0,0,0,0,-1,986,1324,0,0
-231,-300,0,0,0,0,0,0,0,0,0,-1,993,1324,0,0
-224,-300,0,0,0,0,0,0,0,0,0,-1,1000,1324,0,0
-217,-300,0,0,0,0,0,0,0,0,0,-1,1007,1324,0,0
-210,-300,0,0,0,0,0,0,0,0,0,-1,1014,1324,0,0
-203,-300,0,0,0,0,0,0,0,0,0,-1,1021,1324,0,0
-196,-300,0,0,0,0,0,0,0,0,0,-1,1028,1324,0,0
-189,-300,0,0,0,0,0,0,0,0,0,-1,1035,1324,0,0
-182,-300,0,0,0,0,0,0,0,0,0,-1,1042,1324,0,0
-175,-300,0,0,0,0,0,0,0,0,0,-1,1049,1324,0,0
-168,-300,0,0,0,0,0,0,0,0,0,-1,1056,1324,0,0
-161,-300,0,0,0,0,0,0,0,0,0,-1,1063,1324,0,0
-154,-300,0,0,0,0,0,0,0,0,0,-1,1070,1324,0,0
-147,-300,0,0,0,0,0,0,0,0,0,-1,1077,1324,0,0
-140,-300,0,0,0,0,0,0,0,0,0,-1,1084,1324,0,0
-133,-300,0,0,0,0,0,0,0,0,0,-1,1091,1324,0,0
-126,-300,0,0,0,0,0,0,0,0,0,-1,1098,1324,0,0
-119,-300,0,0,0,0,0,0,0,0,0,-1,1105,1324,0,0
-112,-300,0,0,0,0,0,0,0,0,0,-1,1112,1324,0,0
-105,-300,0,0,0,0,0,0,0,0,0,-1,1119,1324,0,0
-98,-300,0,0,0,0,0,0,0,0,0,-1,1126,1324,0,0
-91,-300,0,0,0,0,0,0,0,0,0,-1,1133,1324,0,0
-84,-300,0,0,0,0,0,0,0,0,0,-1,1140,1324,0,0
-77,-300,0,0,0,0,0,0,0,0,0,-1,1147,1324,0,0
-70,-300,0,0,0,0,0,0,0,0,0,-1,1154,1324,0,0
-63,-300,0,0,0,0,0,0,0,0,0,-1,1161,1324,0,0
-56,-300,0,0,0,0,0,0,0,0,0,-1,1168,1324,0,0
-49,-300,0,0,0,0,0,0,0,0,0,-1,1175,1324,0,0
-42,-300,0,0,0,0,0,0,0,0,0,-1,1182,1324,0,0
-35,-300,0,0,0,0,0,0,0,0,0,-1,1189,1324,0,0
-28,-300,0,0,0,0,0,0,0,0,0,-1,1196,1324,0,0
-21,-300,0,0,0,0,0,0,0,0,0,-1,1203,1324,0,0
-14,-300,0,0,0,0,0,0,0,0,0,-1,1210,1324,0,0
-7,-300,0,0,0,0,0,0,0,0,0,-1,1217,1324,0,0
0,-300,0,0,0,0,0,0,0,0,0,-1,1224,1324,0,0
7,-300,0,0,0,0,0,0,0,0,0,-1,1231,1324,0,0
14,-300,0,0,0,0,0,0,0,0,0,-1,1238,1324,0,0
21,-300,0,0,0,0,0,0,0,0,0,-1,1245,1324,0,0
28,-300,0,0,0,0,0,0,0,0,0,-1,1252,1324,0,0
35,-300,0,0,0,0,0,0,0,0,0,-1,1259,1324,0,0
42,-300,0,0,0,0,0,0,0,0,0,-1,1266,1324,0,0
49,-300,0,0,0,0,0,0,0,0,0,-1,1273,1324,0,0
56,-300,0,0,0,0,0,0,0,0,0,-1,1280,1324,0,0
63,-300,0,0,0,0,0,0,0,0,0,-1,1287,1324,0,0
70,-300,0,0,0,0,0,0,0,0,0,-1,1294,1324,0,0
77,-300,0,0,0,0,0,0,0,0,0,-1,1301,1324,0,0
84,-300,0,0,0,0,0,0,0,0,0,-1,1308,1324,0,0
91,-300,0,0,0,0,0,0,0,0,0,-1,1315,1324,0,0
98,-300,0,0,0,0,0,0,0,0,0,-1,1322,1324,0,0
105,-300,0,0,0,0,0,0,0,0,0,-1,1329,1324,0,0
112,-300,0,0,0,0,0,0,0,0,0,-1,1336,1324,0,0
119,-300,0,0,0,0,0,0,0,0,0,-1,1343,1324,0,0
126,-300,0,0,0,0,0,0,0,0,0,-1,1350,1324,0,0
133,-300,0,0,0,0,0,0,0,0,0,-1,1357,1324,0,0
140,-300,0,0,0,0,0,0,0,0,0,-1,1364,1324,0,0
147,-300,0,0,0,0,0,0,0,0,0,-1,1371,1324,0,0
154,-300,0,0,0,0,0,0,0,0,0,-1,1378,1324,0,0
161,-300,0,0,0,0,0,0,0,0,0,-1,1385,1324,0,0
168,-300,0,0,0,0,0,0,0,0,0,-1,1392,1324,0,0
175,-300,0,0,0,0,0,0,0,0,0,-1,1399,1324,0,0
182,-300,0,0,0,0,0,0,0,0,0,-1,1406,1324,0,0
189,-300,0,0,0,0,0,0,0,0,0,-1,1413,1324,0,0
196,-300,0,0,0,0,0,0,0,0,0,-1,1420,1324,0,0
203,-300,0,0,0,0,0,0,0,0,0,-1,1427,1324,0,0
210,-300,0,0,0,0,0,0,0,0,0,-1,1434,1324,0,0
217,-300,0,0,0,0,0,0,0,0,0,-1,1441,1324,0,0
224,-300,0,0,0,0,0,0,0,0,0,-1,1448,1324,0,0
231,-300,0,0,0,0,0,0,0,0,0,-1,1455,1324,0,0
238,-300,0,0,0,0,0,0,0,0,0,-1,1462,1324,0,0
245,-300,0,0,0,0,0,0,0,0,0,-1,1469,1324,0,0
252,-300,0,0,0,0,0,0,0,0,0,-1,1476,1324,0,0
259,-300,0,0,0,0,0,0,0,0,0,-1,1483,1324,0,0
266,-300,0,0,0,0,0,0,0,0,0,-1,1490,1324,0,0
273,-300,0,0,0,0,0,0,0,0,0,-1,1497,1324,0,0
280,-300,0,0,0,0,0,0,0,0,0,-1,1504,1324,0,0
287,-300,0,0,0,0,0,0,0,0,0,-1,1511,1324,0,0
294,-300,0,0,0,0,0,0,0,0,0,-1,1518,1324,0,0
301,-300,0,0,0,0,0,0,0,0,0,-1,1525,1324,0,0
308,-300,0,0,0,0,0,0,0,0,0,-1,1532,1324,0,0
315,-300,0,0,0,0,0,0,0,0,0,-1,1539,1324,0,0
322,-300,0,0,0,0,0,0,0,0,0,-1,1546,1324,0,0
329,-300,0,0,0,0,0,0,0,0,0,-1,1553,1324,0,0
336,-300,0,0,0,0,0,0,0,0,0,-1,1560,1324,0,0
343,-300,0,0,0,0,0,0,0,0,0,-1,1567,1324,0,0
350,-300,0,0,0,0,0,0,0,0,0,-1,1574,1324,0,0
357,-300,0,0,0,0,0,0,0,0,0,-1,1581,1324,0,0
364,-300,0,0,0,0,0,0,0,0,0,-1,1588,1324,0,0
371,-300,0,0,0,0,0,0,0,0,0,-1,1595,1324,0,0
378,-300,0,0,0,0,0,0,0,0,0,-1,1602,1324,0,0
385,-300,0,0,0,0,0,0,0,0,0,-1,1609,1324,0,0
392,-300,0,0,0,0,0,0,0,0,0,-1,1616,1324,0,0
399,-300,0,0,0,0,0,0,0,0,0,-1,1623,1324,0,0
406,-300,0,0,0,0,0,0,0,0,0,-1,1630,1324,0,0
413,-300,0,0,0,0,0,0,0,0,0,-1,1637,1324,0,0
420,-300,0,0,0,0,0,0,0,0,0,-1,1644,1324,0,0
427,-300,0,0,0,0,0,0,0,0,0,-1,1651,1324,0,0
434,-300,0,0,0,0,0,0,0,0,0,-1,1658,1324,0,0
441,-300,0,0,0,0,0,0,0,0,0,-1,1665,1324,0,0
448,-300,0,0,0,0,0,0,0,0,0,-1,1672,1324,0,0
455,-300,0,0,0,0,0,0,0,0,0,-1,1679,1324,0,0
462,-300,0,0,0,0,0,0,0,0,0,-1,1686,1324,0,0
469,-300,0,0,0,0,0,0,0,0,0,-1,1693,1324,0,0
476,-300,0,0,0,0,0,0,0,0,0,-1,1700,1324,0,0
483,-300,0,0,0,0,0,0,0,0,0,-1,1707,1324,0,0
490,-300,0,0,0,0,0,0,0,0,0,-1,1714,1324,0,0
497,-300,0,0,0,0,0,0,0,0,0,-1,1721,1324,0,0
504,-300,0,0,0,0,0,0,0,0,0,-1,1728,1324,0,0
511,-300,0,0,0,0,0,0,0,0,0,-1,1735,1324,0,0
518,-300,0,0,0,0,0,0,0,0,0,-1,1742,1324,0,0
525,-300,0,0,0,0,0,0,0,0,0,-1,1749,1324,0,0
532,-300,0,0,0,0,0,0,0,0,0,-1,1756,1324,0,0
539,-300,0,0,0,0,0,0,0,0,0,-1,1763,1324,0,0
546,-300,0,0,0,0,0,0,0,0,0,-1,1770,1324,0,0
553,-300,0,0,0,0,0,0,0,0,0,-1,1777,1324,0,0
560,-300,0,0,0,0,0,0,0,0,0,-1,1784,1324,0,0
567,-300,0,0,0,0,0,0,0,0,0,-1,1791,1324,0,0
574,-300,0,0,0,0,0,0,0,0,0,-1,1798,1324,0,0
581,-300,0,0,0,0,0,0,0,0,0,-1,1805,1324,0,0
588,-300,38.2018,2.70227,0,0,0,0,0,0,0,-1,1812,1324,38.2018,-2.70226
595,-300,39.002,2.20825,0,0,0,0,0,0,0,-1,1819,1324,39.002,-2.20829
602,-300,39.2529,1.94861,0,0,0,0,0,0,0,-1,1826,1324,39.2529,-1.94855
609,-300,38.2526,3.55408,0.0058773,0.02493,-0.0493865,0.0657005,-0.0348932,-0.880675,0.0589787,0.0456874,1833,1324,38.2526,-3.55404
616,-300,38.2878,2.67029,0.00838509,0.0220649,-0.0391894,0.0550068,-0.0245568,-0.871795,0.0470441,0.0494231,1840,1324,38.2878,-2.67026
623,-300,38.3656,1.38269,0,0,0,0,0,0,0,-1,1847,1324,38.3656,-1.38273
630,-300,34.4613,4.74854,0,0,0,0,0,0,0,-1,1854,1324,34.4614,-4.74855
637,-300,31.1719,4.6366,0,0,0,0,0,0,0,-1,1861,1324,31.1718,-4.63665
644,-300,22.9836,3.44934,0,0,0,0,0,0,0,-1,1868,1324,22.9836,-3.4493
651,-300,25.5004,9.11853,0,0,0,0,0,0,0,-1,1875,1324,25.5004,-9.11851
658,-300,25.4012,9.20032,0,0,0,0,0,0,0,-1,1882,1324,25.4012,-9.20036
665,-300,27.6124,9.80042,0,0,0,0,0,0,0,-1,1889,1324,27.6124,-9.80047
672,-300,27.4846,9.41504,0.00401544,0.00401102,-0.000226869,0.00424011,0.00378635,-0.78052,0.00268828,0.0180708,1896,1324,27.4847,-9.41502
679,-300,27.5034,8.97681,0.00162324,0.0012269,0.000553077,0.00201258,0.000837562,0.61337,0.00116739,0.0122829,1903,1324,27.5034,-8.97677
686,-300,27.5199,8.57373,0.000323032,-0.000727967,0.0001427,0.000342063,-0.000746997,0.132578,0.000643094,0.0131902,1910,1324,27.5199,-8.57378
693,-300,27.4882,8.20654,0.000113994,-0.000379963,0.00012123,0.000142143,-0.000408112,0.228152,0.000329828,0.0118836,1917,1324,27.4882,-8.20656
700,-300,27.4701,7.81213,-0.00015658,-4.89226e-05,0.000187285,9.21157e-05,-0.000297618,0.925334,0.000235209,0.0127813,1924,1324,27.4701,-7.81209
707,-300,27.4698,7.41956,-0.000571487,0.00025185,0.000319736,0.000361432,-0.000681069,1.24062,0.000611246,0.0096284,1931,1324,27.4698,-7.41955
714,-300,27.4741,7.06409,-0.00120596,0.000534874,0.000495157,0.000665859,-0.00133694,1.31219,0.00117776,0.0110747,1938,1324,27.4741,-7.06405
721,-300,27.4839,6.68225,-0.00208761,0.000817628,0.000723623,0.000987887,-0.00225787,1.33971,0.00192116,0.0114772,1945,1324,27.4838,-6.68221
728,-300,27.4861,6.28052,-0.00319534,0.00116369,0.000914573,0.00134781,-0.00337945,1.37214,0.00281205,0.0140225,1952,1324,27.4861,-6.28051
735,-300,27.5736,5.91064,0,0,0,0,0,0,0,-1,1959,1324,27.5736,-5.91059
742,-300,27.1305,6.16724,0,0,0,0,0,0,0,-1,1966,1324,27.1305,-6.16719
749,-300,27.4065,5.9718,0,0,0,0,0,0,0,-1,1973,1324,27.4065,-5.97181
756,-300,22.1423,3.45642,0,0,0,0,0,0,0,-1,1980,1324,22.1423,-3.45638
763,-300,22.6136,5.1571,0,0,0,0,0,0,0,-1,1987,1324,22.6136,-5.15706
770,-300,24.859,4.77979,0,0,0,0,0,0,0,-1,1994,1324,24.859,-4.77972
777,-300,0,0,0,0,0,0,0,0,0,-1,2001,1324,0,0
784,-300,0,0,0,0,0,0,0,0,0,-1,2008,1324,0,0
791,-300,0,0,0,0,0,0,0,0,0,-1,2015,1324,0,0
798,-300,0,0,0,0,0,0,0,0,0,-1,2022,1324,0,0
805,-300,0,0,0,0,0,0,0,0,0,-1,2029,1324,0,0
812,-300,0,0,0,0,0,0,0,0,0,-1,2036,1324,0,0
-700,-307,0,0,0,0,0,0,0,0,0,-1,524,1331,0,0
-693,-307,0,0,0,0,0,0,0,0,0,-1,531,1331,0,0
-686,-307,0,0,0,0,0,0,0,0,0,-1,538,1331,0,0
-679,-307,0,0,0,0,0,0,0,0,0,-1,545,1331,0,0
-672,-307,0,0,0,0,0,0,0,0,0,-1,552,1331,0,0
-665,-307,0,0,0,0,0,0,0,0,0,-1,559,1331,0,0
-658,-307,0,0,0,0,0,0,0,0,0,-1,566,1331,0,0
-651,-307,-16.675,3.16748,0,0,0,0,0,0,0,-1,573,1331,-16.675,-3.16744
-644,-307,-17.7669,4.82324,0,0,0,0,0,0,0,-1,580,1331,-17.7669,-4.82323
-637,-307,-18.9686,6.3656,0,0,0,0,0,0,0,-1,587,1331,-18.9686,-6.36563
-630,-307,-12.0005,0.767212,0,0,0,0,0,0,0,-1,594,1331,-12.0005,-0.767266
-623,-307,-12.2128,2.93811,0,0,0,0,0,0,0,-1,601,1331,-12.2128,-2.93813
-616,-307,-12.6612,2.08289,0,0,0,0,0,0,0,-1,608,1331,-12.6612,-2.08293
-609,-307,-12.2767,1.83228,0,0,0,0,0,0,0,-1,615,1331,-12.2768,-1.83224
-602,-307,-15.1191,3.33984,0,0,0,0,0,0,0,-1,622,1331,-15.1191,-3.33989
-595,-307,-15.2059,3.89771,-0.000559818,0.00807747,0.00652808,0.0115861,-0.00406847,1.07762,0.00937913,0.0366931,629,1331,-15.2059,-3.89774
-588,-307,-15.1255,4.39929,0.000318735,0.00522317,0.00447336,0.00787235,-0.00233045,1.03612,0.00617346,0.0203942,636,1331,-15.1255,-4.39928
-581,-307,-15.1234,4.80994,0.00091589,0.00336659,0.00306993,0.00544668,-0.0011642,0.975283,0.004075,0.0163337,643,1331,-15.1233,-4.80996
-574,-307,-15.1161,5.20544,0.00143801,0.0020928,0.00213343,0.00392381,-0.000392998,0.861534,0.00275623,0.0134979,650,1331,-15.1161,-5.2054
-567,-307,-15.1229,5.63733,0.00211253,0.00102016,0.00152311,0.00318443,-5.17414e-05,0.613241,0.00214041,0.0130577,657,1331,-15.1229,-5.63732
-560,-307,-15.137,6.07642,0.00272905,0.000631625,0.00130875,0.00335743,3.24915e-06,0.447629,0.0022372,0.0142218,664,1331,-15.137,-6.07636
-553,-307,-15.1592,6.4967,0.00341563,0.0004275,0.00137034,0.00394889,-0.000105762,0.371115,0.00266855,0.0112655,671,1331,-15.1593,-6.49671
-546,-307,-15.153,6.89917,0.0043948,0.000465524,0.00178535,0.00508484,-0.000224511,0.368813,0.00346715,0.0107799,678,1331,-15.153,-6.89917
-539,-307,-15.1617,7.34399,0.00579155,0.000555142,0.00246703,0.00677073,-0.000424045,0.377839,0.00466161,0.0153051,685,1331,-15.1618,-7.34405
-532,-307,-15.1729,7.80505,0,0,0,0,0,0,0,-1,692,1331,-15.1729,-7.8051
-525,-307,-13.2009,6.91309,0,0,0,0,0,0,0,-1,699,1331,-13.2009,-6.9131
-518,-307,-9.77777,-1.56653,0,0,0,0,0,0,0,-1,706,1331,-9.77777,1.56651
-511,-307,-12.5226,0.26709,0,0,0,0,0,0,0,-1,713,1331,-12.5226,-0.267038
-504,-307,-12.5913,-0.308105,0,0,0,0,0,0,0,-1,720,1331,-12.5913,0.308124
-497,-307,-13.8586,-0.115845,0,0,0,0,0,0,0,-1,727,1331,-13.8587,0.115861
-490,-307,-17.9429,0.982178,0,0,0,0,0,0,0,-1,734,1331,-17.9429,-0.982198
-483,-307,-18.1066,0.927612,0,0,0,0,0,0,0,-1,741,1331,-18.1066,-0.927609
-476,-307,-18.1288,1.1228,0,0,0,0,0,0,0,-1,748,1331,-18.1289,-1.12286
-469,-307,-18.2028,0.798584,0,0,0,0,0,0,0,-1,755,1331,-18.2027,-0.798546
-462,-307,0,0,0,0,0,0,0,0,0,-1,762,1331,0,0
-455,-307,0,0,0,0,0,0,0,0,0,-1,769,1331,0,0
-448,-307,0,0,0,0,0,0,0,0,0,-1,776,1331,0,0
-441,-307,0,0,0,0,0,0,0,0,0,-1,783,1331,0,0
-434,-307,0,0,0,0,0,0,0,0,0,-1,790,1331,0,0
-427,-307,0,0,0,0,0,0,0,0,0,-1,797,1331,0,0
-420,-307,0,0,0,0,0,0,0,0,0,-1,804,1331,0,0
-413,-307,0,0,0,0,0,0,0,0,0,-1,811,1331,0,0
-406,-307,0,0,0,0,0,0,0,0,0,-1,818,1331,0,0
-399,-307,0,0,0,0,0,0,0,0,0,-1,825,1331,0,0
-392,-307,0,0,0,0,0,0,0,0,0,-1,832,1331,0,0
-385,-307,0,0,0,0,0,0,0,0,0,-1,839,1331,0,0
-378,-307,0,0,0,0,0,0,0,0,0,-1,846,1331,0,0
-371,-307,0,0,0,0,0,0,0,0,0,-1,853,1331,0,0
-364,-307,0,0,0,0,0,0,0,0,0,-1,860,1331,0,0
-357,-307,0,0,0,0,0,0,0,0,0,-1,867,1331,0,0
-350,-307,0,0,0,0,0,0,0,0,0,-1,874,1331,0,0
-343,-307,0,0,0,0,0,0,0,0,0,-1,881,1331,0,0
-336,-307,0,0,0,0,0,0,0,0,0,-1,888,1331,0,0
-329,-307,0,0,0,0,0,0,0,0,0,-1,895,1331,0,0
-322,-307,0,0,0,0,0,0,0,0,0,-1,902,1331,0,0
-315,-307,0,0,0,0,0,0,0,0,0,-1,909,1331,0,0
-308,-307,0,0,0,0,0,0,0,0,0,-1,916,1331,0,0
-301,-307,0,0,0,0,0,0,0,0,0,-1,923,1331,0,0
-294,-307,0,0,0,0,0,0,0,0,0,-1,930,1331,0,0
-287,-307,0,0,0,0,0,0,0,0,0,-1,937,1331,0,0
-280,-307,0,0,0,0,0,0,0,0,0,-1,944,1331,0,0
-273,-307,0,0,0,0,0,0,0,0,0,-1,951,1331,0,0
-266,-307,0,0,0,0,0,0,0,0,0,-1,958,1331,0,0
-259,-307,0,0,0,0,0,0,0,0,0,-1,965,1331,0,0
-252,-307,0,0,0,0,0,0,0,0,0,-1,972,1331,0,0
-245,-307,0,0,0,0,0,0,0,0,0,-1,979,1331,0,0
-238,-307,0,0,0,0,0,0,0,0,0,-1,986,1331,0,0
-231,-307,0,0,0,0,0,0,0,0,0,-1,993,1331,0,0
-224,-307,0,0,0,0,0,0,0,0,0,-1,1000,1331,0,0
-217,-307,0,0,0,0,0,0,0,0,0,-1,1007,1331,0,0
-210,-307,0,0,0,0,0,0,0,0,0,-1,1014,1331,0,0
-203,-307,0,0,0,0,0,0,0,0,0,-1,1021,1331,0,0
-196,-307,0,0,0,0,0,0,0,0,0,-1,1028,1331,0,0
-189,-307,0,0,0,0,0,0,0,0,0,-1,1035,1331,0,0
-182,-307,0,0,0,0,0,0,0,0,0,-1,1042,1331,0,0
-175,-307,0,0,0,0,0,0,0,0,0,-1,1049,1331,0,0
-168,-307,0,0,0,0,0,0,0,0,0,-1,1056,1331,0,0
-161,-307,0,0,0,0,0,0,0,0,0,-1,1063,1331,0,0
-154,-307,0,0,0,0,0,0,0,0,0,-1,1070,1331,0,0
-147,-307,0,0,0,0,0,0,0,0,0,-1,1077,1331,0,0
-140,-307,0,0,0,0,0,0,0,0,0,-1,1084,1331,0,0
-133,-307,0,0,0,0,0,0,0,0,0,-1,1091,1331,0,0
-126,-307,0,0,0,0,0,0,0,0,0,-1,1098,1331,0,0
-119,-307,0,0,0,0,0,0,0,0,0,-1,1105,1331,0,0
-112,-307,0,0,0,0,0,0,0,0,0,-1,1112,1331,0,0
-105,-307,0,0,0,0,0,0,0,0,0,-1,1119,1331,0,0
-98,-307,0,0,0,0,0,0,0,0,0,-1,1126,1331,0,0
-91,-307,0,0,0,0,0,0,0,0,0,-1,1133,1331,0,0
-84,-307,0,0,0,0,0,0,0,0,0,-1,1140,1331,0,0
-77,-307,0,0,0,0,0,0,0,0,0,-1,1147,1331,0,0
-70,-307,0,0,0,0,0,0,0,0,0,-1,1154,1331,0,0
-63,-307,0,0,0,0,0,0,0,0,0,-1,1161,1331,0,0
-56,-307,0,0,0,0,0,0,0,0,0,-1,1168,1331,0,0
-49,-307,0,0,0,0,0,0,0,0,0,-1,1175,1331,0,0
-42,-307,0,0,0,0,0,0,0,0,0,-1,1182,1331,0,0
-35,-307,0,0,0,0,0,0,0,0,0,-1,1189,1331,0,0
-28,-307,0,0,0,0,0,0,0,0,0,-1,1196,1331,0,0
-21,-307,0,0,0,0,0,0,0,0,0,-1,1203,1331,0,0
-14,-307,0,0,0,0,0,0,0,0,0,-1,1210,1331,0,0
-7,-307,0,0,0,0,0,0,0,0,0,-1,1217,1331,0,0
0,-307,0,0,0,0,0,0,0,0,0,-1,1224,1331,0,0
7,-307,0,0,0,0,0,0,0,0,0,-1,1231,1331,0,0
14,-307,0,0,0,0,0,0,0,0,0,-1,1238,1331,0,0
21,-307,0,0,0,0,0,0,0,0,0,-1,1245,1331,0,0
28,-307,0,0,0,0,0,0,0,0,0,-1,1252,1331,0,0
35,-307,0,0,0,0,0,0,0,0,0,-1,1259,1331,0,0
42,-307,0,0,0,0,0,0,0,0,0,-1,1266,1331,0,0
49,-307,0,0,0,0,0,0,0,0,0,-1,1273,1331,0,0
56,-307,0,0,0,0,0,0,0,0,0,-1,1280,1331,0,0
63,-307,0,0,0,0,0,0,0,0,0,-1,1287,1331,0,0
70,-307,0,0,0,0,0,0,0,0,0,-1,1294,1331,0,0
77,-307,0,0,0,0,0,0,0,0,0,-1,1301,1331,0,0
84,-307,0,0,0,0,0,0,0,0,0,-1,1308,1331,0,0
91,-307,0,0,0,0,0,0,0,0,0,-1,1315,1331,0,0
98,-307,0,0,0,0,0,0,0,0,0,-1,1322,1331,0,0
105,-307,0,0,0,0,0,0,0,0,0,-1,1329,1331,0,0
112,-307,0,0,0,0,0,0,0,0,0,-1,1336,1331,0,0
119,-307,0,0,0,0,0,0,0,0,0,-1,1343,1331,0,0
126,-307,0,0,0,0,0,0,0,0,0,-1,1350,1331,0,0
133,-307,0,0,0,0,0,0,0,0,0,-1,1357,1331,0,0
140,-307,0,0,0,0,0,0,0,0,0,-1,1364,1331,0,0
147,-307,0,0,0,0,0,0,0,0,0,-1,1371,1331,0,0
154,-307,0,0,0,0,0,0,0,0,0,-1,1378,1331,0,0
161,-307,0,0,0,0,0,0,0,0,0,-1,1385,1331,0,0
168,-307,0,0,0,0,0,0,0,0,0,-1,1392,1331,0,0
175,-307,0,0,0,0,0,0,0,0,0,-1,1399,1331,0,0
182,-307,0,0,0,0,0,0,0,0,0,-1,1406,1331,0,0
189,-307,0,0,0,0,0,0,0,0,0,-1,1413,1331,0,0
196,-307,0,0,0,0,0,0,0,0,0,-1,1420,1331,0,0
203,-307,0,0,0,0,0,0,0,0,0,-1,1427,1331,0,0
210,-307,0,0,0,0,0,0,0,0,0,-1,1434,1331,0,0
217,-307,0,0,0,0,0,0,0,0,0,-1,1441,1331,0,0
224,-307,0,0,0,0,0,0,0,0,0,-1,1448,1331,0,0
231,-307,0,0,0,0,0,0,0,0,0,-1,1455,1331,0,0
238,-307,0,0,0,0,0,0,0,0,0,-1,1462,1331,0,0
245,-307,0,0,0,0,0,0,0,0,0,-1,1469,1331,0,0
252,-307,0,0,0,0,0,0,0,0,0,-1,1476,1331,0,0
259,-307,0,0,0,0,0,0,0,0,0,-1,1483,1331,0,0
266,-307,0,0,0,0,0,0,0,0,0,-1,1490,1331,0,0
273,-307,0,0,0,0,0,0,0,0,0,-1,1497,1331,0,0
280,-307,0,0,0,0,0,0,0,0,0,-1,1504,1331,0,0
287,-307,0,0,0,0,0,0,0,0,0,-1,1511,1331,0,0
294,-307,0,0,0,0,0,0,0,0,0,-1,1518,1331,0,0
301,-307,0,0,0,0,0,0,0,0,0,-1,1525,1331,0,0
308,-307,0,0,0,0,0,0,0,0,0,-1,1532,1331,0,0
315,-307,0,0,0,0,0,0,0,0,0,-1,1539,1331,0,0
322,-307,0,0,0,0,0,0,0,0,0,-1,1546,1331,0,0
329,-307,0,0,0,0,0,0,0,0,0,-1,1553,1331,0,0
336,-307,0,0,0,0,0,0,0,0,0,-1,1560,1331,0,0
343,-307,0,0,0,0,0,0,0,0,0,-1,1567,1331,0,0
350,-307,0,0,0,0,0,0,0,0,0,-1,1574,1331,0,0
357,-307,0,0,0,0,0,0,0,0,0,-1,1581,1331,0,0
364,-307,0,0,0,0,0,0,0,0,0,-1,1588,1331,0,0
371,-307,0,0,0,0,0,0,0,0,0,-1,1595,1331,0,0
378,-307,0,0,0,0,0,0,0,0,0,-1,1602,1331,0,0
385,-307,0,0,0,0,0,0,0,0,0,-1,1609,1331,0,0
392,-307,0,0,0,0,0,0,0,0,0,-1,1616,1331,0,0
399,-307,0,0,0,0,0,0,0,0,0,-1,1623,1331,0,0
406,-307,0,0,0,0,0,0,0,0,0,-1,1630,1331,0,0
413,-307,0,0,0,0,0,0,0,0,0,-1,1637,1331,0,0
420,-307,0,0,0,0,0,0,0,0,0,-1,1644,1331,0,0
427,-307,0,0,0,0,0,0,0,0,0,-1,1651,1331,0,0
434,-307,0,0,0,0,0,0,0,0,0,-1,1658,1331,0,0
441,-307,0,0,0,0,0,0,0,0,0,-1,1665,1331,0,0
448,-307,0,0,0,0,0,0,0,0,0,-1,1672,1331,0,0
455,-307,0,0,0,0,0,0,0,0,0,-1,1679,1331,0,0
462,-307,0,0,0,0,0,0,0,0,0,-1,1686,1331,0,0
469,-307,0,0,0,0,0,0,0,0,0,-1,1693,1331,0,0
476,-307,0,0,0,0,0,0,0,0,0,-1,1700,1331,0,0
483,-307,0,0,0,0,0,0,0,0,0,-1,1707,1331,0,0
490,-307,0,0,0,0,0,0,0,0,0,-1,1714,1331,0,0
497,-307,0,0,0,0,0,0,0,0,0,-1,1721,1331,0,0
504,-307,0,0,0,0,0,0,0,0,0,-1,1728,1331,0,0
511,-307,0,0,0,0,0,0,0,0,0,-1,1735,1331,0,0
518,-307,0,0,0,0,0,0,0,0,0,-1,1742,1331,0,0
525,-307,0,0,0,0,0,0,0,0,0,-1,1749,1331,0,0
532,-307,0,0,0,0,0,0,0,0,0,-1,1756,1331,0,0
539,-307,0,0,0,0,0,0,0,0,0,-1,1763,1331,0,0
546,-307,0,0,0,0,0,0,0,0,0,-1,1770,1331,0,0
553,-307,0,0,0,0,0,0,0,0,0,-1,1777,1331,0,0
560,-307,0,0,0,0,0,0,0,0,0,-1,1784,1331,0,0
567,-307,0,0,0,0,0,0,0,0,0,-1,1791,1331,0,0
574,-307,0,0,0,0,0,0,0,0,0,-1,1798,1331,0,0
581,-307,0,0,0,0,0,0,0,0,0,-1,1805,1331,0,0
588,-307,38.3019,4.94421,0,0,0,0,0,0,0,-1,1812,1331,38.3019,-4.94427
595,-307,38.3387,4.11755,0,0,0,0,0,0,0,-1,1819,1331,38.3388,-4.11761
602,-307,38.3948,3.67627,-0.00139274,0.0296436,-0.0680054,0.0838789,-0.055628,-0.897573,0.081093,0.0443576,1826,1331,38.3948,-3.67621
609,-307,38.4529,3.24744,0.00450709,0.0271346,-0.0574504,0.0743746,-0.0427329,-0.88262,0.0684298,0.0432798,1833,1331,38.4529,-3.24742
616,-307,38.179,2.42847,0,0,0,0,0,0,0,-1,1840,1331,38.1789,-2.42847
623,-307,34.0446,-0.993896,0,0,0,0,0,0,0,-1,1847,1331,34.0446,0.993914
630,-307,29.8116,1.51184,0,0,0,0,0,0,0,-1,1854,1331,29.8116,-1.51188
637,-307,24.6407,4.09106,0,0,0,0,0,0,0,-1,1861,1331,24.6407,-4.09103
644,-307,22.6885,5.80408,0,0,0,0,0,0,0,-1,1868,1331,22.6884,-5.80408
651,-307,17.5013,5.80078,0,0,0,0,0,0,0,-1,1875,1331,17.5014,-5.80072
658,-307,27.4321,10.1338,0,0,0,0,0,0,0,-1,1882,1331,27.4321,-10.1338
665,-307,27.2058,9.71863,0.00483553,0.00374674,-0.00186797,0.00623682,0.00234545,-0.643608,0.00363751,0.0351275,1889,1331,27.2059,-9.71861
672,-307,27.1268,9.38501,0.00279204,0.0030085,-0.000168523,0.00310056,0.00269998,-1.07085,0.0019473,0.0127438,1896,1331,27.1268,-9.38502
679,-307,27.1132,8.99963,0.000809428,0.000630234,0.000588648,0.00131526,0.000124404,0.709874,0.000838453,0.0104442,1903,1331,27.1132,-8.99962
686,-307,27.1166,8.60522,3.59553e-05,-0.00066231,0.000267374,0.000126576,-0.00075293,0.326776,0.000549031,0.010682,1910,1331,27.1165,-8.60522
693,-307,27.1047,8.21484,-5.05602e-05,-0.000318146,0.000206597,6.17827e-05,-0.000430489,0.498054,0.000309648,0.0129033,1917,1331,27.1047,-8.21489
700,-307,27.099,7.80249,-0.000308134,2.18745e-05,0.000244846,0.000152126,-0.000438386,1.0819,0.000354033,0.0135686,1924,1331,27.099,-7.80248
707,-307,27.0924,7.41272,-0.000718638,0.000348818,0.000346797,0.000451591,-0.000821411,1.28269,0.000745235,0.0148412,1931,1331,27.0924,-7.41277
714,-307,27.0852,7.07495,-0.00138608,0.000636554,0.000521913,0.000763286,-0.00151281,1.33258,0.00133765,0.0136587,1938,1331,27.0852,-7.07494
721,-307,27.1176,6.70654,-0.00232285,0.000909412,0.00077597,0.00108605,-0.00249949,1.34698,0.00212305,0.0162093,1945,1331,27.1176,-6.70652
728,-307,27.0677,6.45032,-0.00349234,0.00123228,0.00100055,0.00143543,-0.00369549,1.37048,0.00305663,0.036955,1952,1331,27.0678,-6.45038
735,-307,26.7699,6.23975,0,0,0,0,0,0,0,-1,1959,1331,26.7699,-6.23978
742,-307,26.677,6.09192,0,0,0,0,0,0,0,-1,1966,1331,26.677,-6.0919
749,-307,26.7727,5.9032,0,0,0,0,0,0,0,-1,1973,1331,26.7727,-5.90323
756,-307,27.1556,5.74756,0,0,0,0,0,0,0,-1,1980,1331,27.1557,-5.7475
763,-307,18.7522,3.55298,0,0,0,0,0,0,0,-1,1987,1331,18.7522,-3.55301
770,-307,0,0,0,0,0,0,0,0,0,-1,1994,1331,0,0
777,-307,0,0,0,0,0,0,0,0,0,-1,2001,1331,0,0
784,-307,0,0,0,0,0,0,0,0,0,-1,2008,1331,0,0
791,-307,0,0,0,0,0,0,0,0,0,-1,2015,1331,0,0
798,-307,0,0,0,0,0,0,0,0,0,-1,2022,1331,0,0
805,-307,0,0,0,0,0,0,0,0,0,-1,2029,1331,0,0
812,-307,0,0,0,0,0,0,0,0,0,-1,2036,1331,0,0
-700,-314,0,0,0,0,0,0,0,0,0,-1,524,1338,0,0
-693,-314,0,0,0,0,0,0,0,0,0,-1,531,1338,0,0
-686,-314,0,0,0,0,0,0,0,0,0,-1,538,1338,0,0
-679,-314,0,0,0,0,0,0,0,0,0,-1,545,1338,0,0
-672,-314,0,0,0,0,0,0,0,0,0,-1,552,1338,0,0
-665,-314,0,0,0,0,0,0,0,0,0,-1,559,1338,0,0
-658,-314,0,0,0,0,0,0,0,0,0,-1,566,1338,0,0
-651,-314,0,0,0,0,0,0,0,0,0,-1,573,1338,0,0
-644,-314,-17.5804,5.23608,0,0,0,0,0,0,0,-1,580,1338,-17.5804,-5.23605
-637,-314,-18.8677,6.62646,0,0,0,0,0,0,0,-1,587,1338,-18.8677,-6.62651
-630,-314,-13.2771,2.98938,0,0,0,0,0,0,0,-1,594,1338,-13.2771,-2.98943
-623,-314,-13.3542,3.00903,0,0,0,0,0,0,0,-1,601,1338,-13.3542,-3.00907
-616,-314,-9.93311,1.15088,0,0,0,0,0,0,0,-1,608,1338,-9.93308,-1.15093
-609,-314,-9.4361,2.86292,0,0,0,0,0,0,0,-1,615,1338,-9.43612,-2.86286
-602,-314,-11.8027,2.42798,0,0,0,0,0,0,0,-1,622,1338,-11.8027,-2.42802
-595,-314,-14.9046,3.8219,0,0,0,0,0,0,0,-1,629,1338,-14.9046,-3.82189
-588,-314,-14.7426,4.32141,0.000659857,0.0045093,0.00413518,0.00714574,-0.00197659,1.00321,0.00554147,0.0273609,636,1338,-14.7426,-4.32146
-581,-314,-14.6827,4.79321,0.00100782,0.00289702,0.00272827,0.00483959,-0.000934738,0.952053,0.00357889,0.0126878,643,1338,-14.6828,-4.79323
-574,-314,-14.7116,5.19861,0.00135905,0.00180577,0.00182904,0.00342504,-0.000260214,0.846157,0.00237485,0.0129335,650,1338,-14.7116,-5.1986
-567,-314,-14.6919,5.63757,0.00190061,0.000893526,0.00127233,0.00276541,2.87218e-05,0.596974,0.00183411,0.0143546,657,1338,-14.6919,-5.6376
-560,-314,-14.6882,6.08264,0.00245608,0.000586016,0.00110719,0.00297024,7.18539e-05,0.43475,0.00195665,0.0153643,664,1338,-14.6882,-6.08263
-553,-314,-14.7156,6.50342,0.00310117,0.000387412,0.00118694,0.00354705,-5.84715e-05,0.359347,0.00238443,0.0177273,671,1338,-14.7156,-6.50342
-546,-314,-14.7393,6.93555,0.00404499,0.00037788,0.00158941,0.00463799,-0.000215119,0.357098,0.00316613,0.0182469,678,1338,-14.7392,-6.93555
-539,-314,-14.7356,7.35864,0.00536595,0.000440582,0.00225035,0.00623927,-0.000432735,0.370188,0.004311,0.0175316,685,1338,-14.7356,-7.35867
-532,-314,-14.6951,7.74487,0,0,0,0,0,0,0,-1,692,1338,-14.6951,-7.74484
-525,-314,-13.3017,7.50671,0,0,0,0,0,0,0,-1,699,1338,-13.3017,-7.50669
-518,-314,-8.52753,4.70032,0,0,0,0,0,0,0,-1,706,1338,-8.52755,-4.70034
-511,-314,-11.8597,0.384888,0,0,0,0,0,0,0,-1,713,1338,-11.8597,-0.384927
-504,-314,-11.4322,-0.187378,0,0,0,0,0,0,0,-1,720,1338,-11.4322,0.187381
-497,-314,-11.0047,-0.759644,0,0,0,0,0,0,0,-1,727,1338,-11.0047,0.759689
-490,-314,-18.5143,0.471069,0,0,0,0,0,0,0,-1,734,1338,-18.5143,-0.47103
-483,-314,-17.8528,0.577271,0,0,0,0,0,0,0,-1,741,1338,-17.8528,-0.577327
-476,-314,-17.714,0.665405,0,0,0,0,0,0,0,-1,748,1338,-17.714,-0.665388
-469,-314,-17.7246,0.794678,0,0,0,0,0,0,0,-1,755,1338,-17.7246,-0.794645
-462,-314,0,0,0,0,0,0,0,0,0,-1,762,1338,0,0
-455,-314,0,0,0,0,0,0,0,0,0,-1,769,1338,0,0
-448,-314,0,0,0,0,0,0,0,0,0,-1,776,1338,0,0
-441,-314,0,0,0,0,0,0,0,0,0,-1,783,1338,0,0
-434,-314,0,0,0,0,0,0,0,0,0,-1,790,1338,0,0
-427,-314,0,0,0,0,0,0,0,0,0,-1,797,1338,0,0
-420,-314,0,0,0,0,0,0,0,0,0,-1,804,1338,0,0
-413,-314,0,0,0,0,0,0,0,0,0,-1,811,1338,0,0
-406,-314,0,0,0,0,0,0,0,0,0,-1,818,1338,0,0
-399,-314,0,0,0,0,0,0,0,0,0,-1,825,1338,0,0
-392,-314,0,0,0,0,0,0,0,0,0,-1,832,1338,0,0
-385,-314,0,0,0,0,0,0,0,0,0,-1,839,1338,0,0
-378,-314,0,0,0,0,0,0,0,0,0,-1,846,1338,0,0
-371,-314,0,0,0,0,0,0,0,0,0,-1,853,1338,0,0
-364,-314,0,0,0,0,0,0,0,0,0,-1,860,1338,0,0
-357,-314,0,0,0,0,0,0,0,0,0,-1,867,1338,0,0
-350,-314,0,0,0,0,0,0,0,0,0,-1,874,1338,0,0
-343,-314,0,0,0,0,0,0,0,0,0,-1,881,1338,0,0
-336,-314,0,0,0,0,0,0,0,0,0,-1,888,1338,0,0
-329,-314,0,0,0,0,0,0,0,0,0,-1,895,1338,0,0
-322,-314,0,0,0,0,0,0,0,0,0,-1,902,1338,0,0
-315,-314,0,0,0,0,0,0,0,0,0,-1,909,1338,0,0
-308,-314,0,0,0,0,0,0,0,0,0,-1,916,1338,0,0
-301,-314,0,0,0,0,0,0,0,0,0,-1,923,1338,0,0
-294,-314,0,0,0,0,0,0,0,0,0,-1,930,1338,0,0
-287,-314,0,0,0,0,0,0,0,0,0,-1,937,1338,0,0
-280,-314,0,0,0,0,0,0,0,0,0,-1,944,1338,0,0
-273,-314,0,0,0,0,0,0,0,0,0,-1,951,1338,0,0
-266,-314,0,0,0,0,0,0,0,0,0,-1,958,1338,0,0
-259,-314,0,0,0,0,0,0,0,0,0,-1,965,1338,0,0
-252,-314,0,0,0,0,0,0,0,0,0,-1,972,1338,0,0
-245,-314,0,0,0,0,0,0,0,0,0,-1,979,1338,0,0
-238,-314,0,0,0,0,0,0,0,0,0,-1,986,1338,0,0
-231,-314,0,0,0,0,0,0,0,0,0,-1,993,1338,0,0
-224,-314,0,0,0,0,0,0,0,0,0,-1,1000,1338,0,0
-217,-314,0,0,0,0,0,0,0,0,0,-1,1007,1338,0,0
-210,-314,0,0,0,0,0,0,0,0,0,-1,1014,1338,0,0
-203,-314,0,0,0,0,0,0,0,0,0,-1,1021,1338,0,0
-196,-314,0,0,0,0,0,0,0,0,0,-1,1028,1338,0,0
-189,-314,0,0,0,0,0,0,0,0,0,-1,1035,1338,0,0
-182,-314,0,0,0,0,0,0,0,0,0,-1,1042,1338,0,0
-175,-314,0,0,0,0,0,0,0,0,0,-1,1049,1338,0,0
-168,-314,0,0,0,0,0,0,0,0,0,-1,1056,1338,0,0
-161,-314,0,0,0,0,0,0,0,0,0,-1,1063,1338,0,0
-154,-314,0,0,0,0,0,0,0,0,0,-1,1070,1338,0,0
-147,-314,0,0,0,0,0,0,0,0,0,-1,1077,1338,0,0
-140,-314,0,0,0,0,0,0,0,0,0,-1,1084,1338,0,0
-133,-314,0,0,0,0,0,0,0,0,0,-1,1091,1338,0,0
-126,-314,0,0,0,0,0,0,0,0,0,-1,1098,1338,0,0
-119,-314,0,0,0,0,0,0,0,0,0,-1,1105,1338,0,0
-112,-314,0,0,0,0,0,0,0,0,0,-1,1112,1338,0,0
-105,-314,0,0,0,0,0,0,0,0,0,-1,1119,1338,0,0
-98,-314,0,0,0,0,0,0,0,0,0,-1,1126,1338,0,0
-91,-314,0,0,0,0,0,0,0,0,0,-1,1133,1338,0,0
-84,-314,0,0,0,0,0,0,0,0,0,-1,1140,1338,0,0
-77,-314,0,0,0,0,0,0,0,0,0,-1,1147,1338,0,0
-70,-314,0,0,0,0,0,0,0,0,0,-1,1154,1338,0,0
-63,-314,0,0,0,0,0,0,0,0,0,-1,1161,1338,0,0
-56,-314,0,0,0,0,0,0,0,0,0,-1,1168,1338,0,0
-49,-314,0,0,0,0,0,0,0,0,0,-1,1175,1338,0,0
-42,-314,0,0,0,0,0,0,0,0,0,-1,1182,1338,0,0
-35,-314,0,0,0,0,0,0,0,0,0,-1,1189,1338,0,0
-28,-314,0,0,0,0,0,0,0,0,0,-1,1196,1338,0,0
-21,-314,0,0,0,0,0,0,0,0,0,-1,1203,1338,0,0
-14,-314,0,0,0,0,0,0,0,0,0,-1,1210,1338,0,0
-7,-314,0,0,0,0,0,0,0,0,0,-1,1217,1338,0,0
0,-314,0,0,0,0,0,0,0,0,0,-1,1224,1338,0,0
7,-314,0,0,0,0,0,0,0,0,0,-1,1231,1338,0,0
14,-314,0,0,0,0,0,0,0,0,0,-1,1238,1338,0,0
21,-314,0,0,0,0,0,0,0,0,0,-1,1245,1338,0,0
28,-314,0,0,0,0,0,0,0,0,0,-1,1252,1338,0,0
35,-314,0,0,0,0,0,0,0,0,0,-1,1259,1338,0,0
42,-314,0,0,0,0,0,0,0,0,0,-1,1266,1338,0,0
49,-314,0,0,0,0,0,0,0,0,0,-1,1273,1338,0,0
56,-314,0,0,0,0,0,0,0,0,0,-1,1280,1338,0,0
63,-314,0,0,0,0,0,0,0,0,0,-1,1287,1338,0,0
70,-314,0,0,0,0,0,0,0,0,0,-1,1294,1338,0,0
77,-314,0,0,0,0,0,0,0,0,0,-1,1301,1338,0,0
84,-314,0,0,0,0,0,0,0,0,0,-1,1308,1338,0,0
91,-314,0,0,0,0,0,0,0,0,0,-1,1315,1338,0,0
98,-314,0,0,0,0,0,0,0,0,0,-1,1322,1338,0,0
105,-314,0,0,0,0,0,0,0,0,0,-1,1329,1338,0,0
112,-314,0,0,0,0,0,0,0,0,0,-1,1336,1338,0,0
119,-314,0,0,0,0,0,0,0,0,0,-1,1343,1338,0,0
126,-314,0,0,0,0,0,0,0,0,0,-1,1350,1338,0,0
133,-314,0,0,0,0,0,0,0,0,0,-1,1357,1338,0,0
140,-314,0,0,0,0,0,0,0,0,0,-1,1364,1338,0,0
147,-314,0,0,0,0,0,0,0,0,0,-1,1371,1338,0,0
154,-314,0,0,0,0,0,0,0,0,0,-1,1378,1338,0,0
161,-314,0,0,0,0,0,0,0,0,0,-1,1385,1338,0,0
168,-314,0,0,0,0,0,0,0,0,0,-1,1392,1338,0,0
175,-314,0,0,0,0,0,0,0,0,0,-1,1399,1338,0,0
182,-314,0,0,0,0,0,0,0,0,0,-1,1406,1338,0,0
189,-314,0,0,0,0,0,0,0,0,0,-1,1413,1338,0,0
196,-314,0,0,0,0,0,0,0,0,0,-1,1420,1338,0,0
203,-314,0,0,0,0,0,0,0,0,0,-1,1427,1338,0,0
210,-314,0,0,0,0,0,0,0,0,0,-1,1434,1338,0,0
217,-314,0,0,0,0,0,0,0,0,0,-1,1441,1338,0,0
224,-314,0,0,0,0,0,0,0,0,0,-1,1448,1338,0,0
231,-314,0,0,0,0,0,0,0,0,0,-1,1455,1338,0,0
238,-314,0,0,0,0,0,0,0,0,0,-1,1462,1338,0,0
245,-314,0,0,0,0,0,0,0,0,0,-1,1469,1338,0,0
252,-314,0,0,0,0,0,0,0,0,0,-1,1476,1338,0,0
259,-314,0,0,0,0,0,0,0,0,0,-1,1483,1338,0,0
266,-314,0,0,0,0,0,0,0,0,0,-1,1490,1338,0,0
273,-314,0,0,0,0,0,0,0,0,0,-1,1497,1338,0,0
280,-314,0,0,0,0,0,0,0,0,0,-1,1504,1338,0,0
287,-314,0,0,0,0,0,0,0,0,0,-1,1511,1338,0,0
294,-314,0,0,0,0,0,0,0,0,0,-1,1518,1338,0,0
301,-314,0,0,0,0,0,0,0,0,0,-1,1525,1338,0,0
308,-314,0,0,0,0,0,0,0,0,0,-1,1532,1338,0,0
315,-314,0,0,0,0,0,0,0,0,0,-1,1539,1338,0,0
322,-314,0,0,0,0,0,0,0,0,0,-1,1546,1338,0,0
329,-314,0,0,0,0,0,0,0,0,0,-1,1553,1338,0,0
336,-314,0,0,0,0,0,0,0,0,0,-1,1560,1338,0,0
343,-314,0,0,0,0,0,0,0,0,0,-1,1567,1338,0,0
350,-314,0,0,0,0,0,0,0,0,0,-1,1574,1338,0,0
357,-314,0,0,0,0,0,0,0,0,0,-1,1581,1338,0,0
364,-314,0,0,0,0,0,0,0,0,0,-1,1588,1338,0,0
371,-314,0,0,0,0,0,0,0,0,0,-1,1595,1338,0,0
378,-314,0,0,0,0,0,0,0,0,0,-1,1602,1338,0,0
385,-314,0,0,0,0,0,0,0,0,0,-1,1609,1338,0,0
392,-314,0,0,0,0,0,0,0,0,0,-1,1616,1338,0,0
399,-314,0,0,0,0,0,0,0,0,0,-1,1623,1338,0,0
406,-314,0,0,0,0,0,0,0,0,0,-1,1630,1338,0,0
413,-314,0,0,0,0,0,0,0,0,0,-1,1637,1338,0,0
420,-314,0,0,0,0,0,0,0,0,0,-1,1644,1338,0,0
427,-314,0,0,0,0,0,0,0,0,0,-1,1651,1338,0,0
434,-314,0,0,0,0,0,0,0,0,0,-1,1658,1338,0,0
441,-314,0,0,0,0,0,0,0,0,0,-1,1665,1338,0,0
448,-314,0,0,0,0,0,0,0,0,0,-1,1672,1338,0,0
455,-314,0,0,0,0,0,0,0,0,0,-1,1679,1338,0,0
462,-314,0,0,0,0,0,0,0,0,0,-1,1686,1338,0,0
469,-314,0,0,0,0,0,0,0,0,0,-1,1693,1338,0,0
476,-314,0,0,0,0,0,0,0,0,0,-1,1700,1338,0,0
483,-314,0,0,0,0,0,0,0,0,0,-1,1707,1338,0,0
490,-314,0,0,0,0,0,0,0,0,0,-1,1714,1338,0,0
497,-314,0,0,0,0,0,0,0,0,0,-1,1721,1338,0,0
504,-314,0,0,0,0,0,0,0,0,0,-1,1728,1338,0,0
511,-314,0,0,0,0,0,0,0,0,0,-1,1735,1338,0,0
518,-314,0,0,0,0,0,0,0,0,0,-1,1742,1338,0,0
525,-314,0,0,0,0,0,0,0,0,0,-1,1749,1338,0,0
532,-314,0,0,0,0,0,0,0,0,0,-1,1756,1338,0,0
539,-314,0,0,0,0,0,0,0,0,0,-1,1763,1338,0,0
546,-314,0,0,0,0,0,0,0,0,0,-1,1770,1338,0,0
553,-314,0,0,0,0,0,0,0,0,0,-1,1777,1338,0,0
560,-314,0,0,0,0,0,0,0,0,0,-1,1784,1338,0,0
567,-314,0,0,0,0,0,0,0,0,0,-1,1791,1338,0,0
574,-314,0,0,0,0,0,0,0,0,0,-1,1798,1338,0,0
581,-314,38.6178,5.22827,0,0,0,0,0,0,0,-1,1805,1338,38.6178,-5.22822
588,-314,38.7457,4.63428,0,0,0,0,0,0,0,-1,1812,1338,38.7458,-4.63428
595,-314,38.8552,4.00439,0,0,0,0,0,0,0,-1,1819,1338,38.8552,-4.00435
602,-314,38.9604,3.38599,-0.00254145,0.0344337,-0.0769918,0.0951265,-0.0632342,-0.903229,0.0920455,0.0414744,1826,1338,38.9605,-3.38593
609,-314,38.9412,2.92615,0.00259767,0.0298311,-0.0638578,0.0815078,-0.049079,-0.890443,0.0761653,0.0424252,1833,1338,38.9411,-2.9262
616,-314,38.9672,2.52405,0,0,0,0,0,0,0,-1,1840,1338,38.9671,-2.524
623,-314,33.339,-1.1178,0,0,0,0,0,0,0,-1,1847,1338,33.339,1.11775
630,-314,29.4308,6.23206,0,0,0,0,0,0,0,-1,1854,1338,29.4308,-6.23202
637,-314,22.1349,5.16418,0,0,0,0,0,0,0,-1,1861,1338,22.1349,-5.16414
644,-314,18.7517,6.2605,0,0,0,0,0,0,0,-1,1868,1338,18.7517,-6.26053
651,-314,23.1317,8.005,0,0,0,0,0,0,0,-1,1875,1338,23.1317,-8.00506
658,-314,26.7965,10.1689,0,0,0,0,0,0,0,-1,1882,1338,26.7965,-10.169
665,-314,26.7325,9.7854,0.00340715,0.00255116,-0.00183387,0.00486231,0.001096,-0.670759,0.00294499,0.0234241,1889,1338,26.7326,-9.78536
672,-314,26.739,9.4071,0.00152554,0.00183647,-0.000115687,0.00187479,0.00148722,-1.25093,0.00114279,0.0121181,1896,1338,26.739,-9.40709
679,-314,26.7224,9.01587,0.00016353,9.89307e-05,0.00053754,0.00066974,-0.00040728,0.75539,0.000627942,0.0100964,1903,1338,26.7225,-9.01584
686,-314,26.7009,8.63086,-0.000121961,-0.000573363,0.000290296,2.00509e-05,-0.000715375,0.454967,0.000483739,0.0127099,1910,1338,26.7009,-8.63083
693,-314,26.6964,8.2218,-9.88249e-05,-0.000196033,0.000207543,6.57293e-05,-0.000360587,0.670377,0.000265032,0.0129558,1917,1338,26.6964,-8.22177
700,-314,26.7041,7.79565,-0.000305856,0.000151499,0.00022161,0.000241262,-0.000395619,1.18594,0.000371285,0.0138595,1924,1338,26.7041,-7.79569
707,-314,26.7203,7.42529,-0.000703914,0.000500323,0.00030382,0.000572633,-0.000776224,1.33714,0.000781714,0.0136262,1931,1338,26.7204,-7.42529
714,-314,26.6777,7.0874,-0.0014201,0.000784762,0.000508502,0.000896386,-0.00153173,1.35471,0.00141778,0.0120822,1938,1338,26.6778,-7.08738
721,-314,26.6681,6.74866,-0.00243842,0.00103514,0.000833396,0.00122475,-0.00262802,1.3471,0.00227305,0.02285,1945,1338,26.668,-6.74863
728,-314,26.8276,6.6322,0,0,0,0,0,0,0,-1,1952,1338,26.8276,-6.63223
735,-314,26.3665,6.21582,0,0,0,0,0,0,0,-1,1959,1338,26.3664,-6.21581
742,-314,26.2235,6.0166,0,0,0,0,0,0,0,-1,1966,1338,26.2235,-6.01662
749,-314,26.2223,5.47046,0,0,0,0,0,0,0,-1,1973,1338,26.2223,-5.47041
756,-314,24.2521,5.93408,0,0,0,0,0,0,0,-1,1980,1338,24.252,-5.93413
763,-314,19.2207,4.07239,0,0,0,0,0,0,0,-1,1987,1338,19.2206,-4.07239
770,-314,0,0,0,0,0,0,0,0,0,-1,1994,1338,0,0
777,-314,0,0,0,0,0,0,0,0,0,-1,2001,1338,0,0
784,-314,0,0,0,0,0,0,0,0,0,-1,2008,1338,0,0
791,-314,0,0,0,0,0,0,0,0,0,-1,2015,1338,0,0
798,-314,0,0,0,0,0,0,0,0,0,-1,2022,1338,0,0
805,-314,0,0,0,0,0,0,0,0,0,-1,2029,1338,0,0
812,-314,0,0,0,0,0,0,0,0,0,-1,2036,1338,0,0
-700,-321,0,0,0,0,0,0,0,0,0,-1,524,1345,0,0
-693,-321,0,0,0,0,0,0,0,0,0,-1,531,1345,0,0
-686,-321,0,0,0,0,0,0,0,0,0,-1,538,1345,0,0
-679,-321,0,0,0,0,0,0,0,0,0,-1,545,1345,0,0
-672,-321,0,0,0,0,0,0,0,0,0,-1,552,1345,0,0
-665,-321,0,0,0,0,0,0,0,0,0,-1,559,1345,0,0
-658,-321,0,0,0,0,0,0,0,0,0,-1,566,1345,0,0
-651,-321,0,0,0,0,0,0,0,0,0,-1,573,1345,0,0
-644,-321,-17.2769,5.65454,0,0,0,0,0,0,0,-1,580,1345,-17.2768,-5.65454
-637,-321,-13.3991,3.59241,0,0,0,0,0,0,0,-1,587,1345,-13.3991,-3.59236
-630,-321,-13.2958,3.65039,0,0,0,0,0,0,0,-1,594,1345,-13.2958,-3.65042
-623,-321,-13.2242,3.14148,0,0,0,0,0,0,0,-1,601,1345,-13.2243,-3.14146
-616,-321,-11.6754,3.13794,0,0,0,0,0,0,0,-1,608,1345,-11.6754,-3.13789
-609,-321,-7.95209,1.14758,0,0,0,0,0,0,0,-1,615,1345,-7.95208,-1.14757
-602,-321,-8.85791,2.50049,0,0,0,0,0,0,0,-1,622,1345,-8.85791,-2.50048
-595,-321,-14.7493,3.71887,0,0,0,0,0,0,0,-1,629,1345,-14.7493,-3.71886
-588,-321,-14.3724,4.24329,0.000821697,0.00320087,0.00331802,0.00553611,-0.00151354,0.957522,0.00428529,0.0391445,636,1345,-14.3724,-4.24327
-581,-321,-14.2706,4.8042,0.000767384,0.0020294,0.00195533,0.00345302,-0.000656234,0.941479,0.00254907,0.0124807,643,1345,-14.2706,-4.80425
-574,-321,-14.2861,5.22888,0.000911035,0.00124077,0.00117223,0.00225967,-0.000107862,0.855262,0.00154365,0.0148379,650,1345,-14.2861,-5.22894
-567,-321,-14.27,5.65466,0.00129695,0.000648611,0.000750338,0.00179015,0.000155411,0.581493,0.00114515,0.0220521,657,1345,-14.27,-5.65465
-560,-321,-14.2568,6.0874,0.00186892,0.000434426,0.000719849,0.00216786,0.000135491,0.393604,0.00140226,0.0249858,664,1345,-14.2568,-6.08737
-553,-321,-14.2663,6.49792,0.00261545,0.000291827,0.000922196,0.00293696,-2.96854e-05,0.335461,0.00196795,0.0261173,671,1345,-14.2663,-6.49789
-546,-321,-14.3149,6.89172,0.00366121,0.000291198,0.00139407,0.00416314,-0.000210729,0.345595,0.00284827,0.0257992,678,1345,-14.3149,-6.89174
-539,-321,-14.3356,7.33423,0.00504779,0.000378161,0.00210517,0.00585672,-0.000430764,0.366861,0.0040557,0.0234513,685,1345,-14.3357,-7.33421
-532,-321,-14.1819,7.80701,0.0069707,0.000603889,0.00310738,0.00823588,-0.000661286,0.386657,0.00572376,0.0285122,692,1345,-14.182,-7.807
-525,-321,-14.2526,8.41663,0,0,0,0,0,0,0,-1,699,1345,-14.2526,-8.41667
-518,-321,-10.3564,6.75696,0,0,0,0,0,0,0,-1,706,1345,-10.3564,-6.75694
-511,-321,-9.3302,5.29297,0,0,0,0,0,0,0,-1,713,1345,-9.33023,-5.29294
-504,-321,-10.4713,0.0145264,0,0,0,0,0,0,0,-1,720,1345,-10.4713,-0.0145296
-497,-321,-9.96771,0.313599,0,0,0,0,0,0,0,-1,727,1345,-9.96769,-0.313618
-490,-321,-10.7631,0.973511,0,0,0,0,0,0,0,-1,734,1345,-10.7631,-0.97353
-483,-321,-17.5908,0.2323,0,0,0,0,0,0,0,-1,741,1345,-17.5908,-0.232355
-476,-321,-17.2915,0.297363,0,0,0,0,0,0,0,-1,748,1345,-17.2915,-0.297342
-469,-321,-17.2441,0.478027,0,0,0,0,0,0,0,-1,755,1345,-17.2441,-0.477994
-462,-321,-17.1672,0.526489,0,0,0,0,0,0,0,-1,762,1345,-17.1672,-0.526533
-455,-321,0,0,0,0,0,0,0,0,0,-1,769,1345,0,0
-448,-321,0,0,0,0,0,0,0,0,0,-1,776,1345,0,0
-441,-321,0,0,0,0,0,0,0,0,0,-1,783,1345,0,0
-434,-321,0,0,0,0,0,0,0,0,0,-1,790,1345,0,0
-427,-321,0,0,0,0,0,0,0,0,0,-1,797,1345,0,0
-420,-321,0,0,0,0,0,0,0,0,0,-1,804,1345,0,0
-413,-321,0,0,0,0,0,0,0,0,0,-1,811,1345,0,0
-406,-321,0,0,0,0,0,0,0,0,0,-1,818,1345,0,0
-399,-321,0,0,0,0,0,0,0,0,0,-1,825,1345,0,0
-392,-321,0,0,0,0,0,0,0,0,0,-1,832,1345,0,0
-385,-321,0,0,0,0,0,0,0,0,0,-1,839,1345,0,0
-378,-321,0,0,0,0,0,0,0,0,0,-1,846,1345,0,0
-371,-321,0,0,0,0,0,0,0,0,0,-1,853,1345,0,0
-364,-321,0,0,0,0,0,0,0,0,0,-1,860,1345,0,0
-357,-321,0,0,0,0,0,0,0,0,0,-1,867,1345,0,0
-350,-321,0,0,0,0,0,0,0,0,0,-1,874,1345,0,0
-343,-321,0,0,0,0,0,0,0,0,0,-1,881,1345,0,0
-336,-321,0,0,0,0,0,0,0,0,0,-1,888,1345,0,0
-329,-321,0,0,0,0,0,0,0,0,0,-1,895,1345,0,0
-322,-321,0,0,0,0,0,0,0,0,0,-1,902,1345,0,0
-315,-321,0,0,0,0,0,0,0,0,0,-1,909,1345,0,0
-308,-321,0,0,0,0,0,0,0,0,0,-1,916,1345,0,0
-301,-321,0,0,0,0,0,0,0,0,0,-1,923,1345,0,0
-294,-321,0,0,0,0,0,0,0,0,0,-1,930,1345,0,0
-287,-321,0,0,0,0,0,0,0,0,0,-1,937,1345,0,0
-280,-321,0,0,0,0,0,0,0,0,0,-1,944,1345,0,0
-273,-321,0,0,0,0,0,0,0,0,0,-1,951,1345,0,0
-266,-321,0,0,0,0,0,0,0,0,0,-1,958,1345,0,0
-259,-321,0,0,0,0,0,0,0,0,0,-1,965,1345,0,0
-252,-321,0,0,0,0,0,0,0,0,0,-1,972,1345,0,0
-245,-321,0,0,0,0,0,0,0,0,0,-1,979,1345,0,0
-238,-321,0,0,0,0,0,0,0,0,0,-1,986,1345,0,0
-231,-321,0,0,0,0,0,0,0,0,0,-1,993,1345,0,0
-224,-321,0,0,0,0,0,0,0,0,0,-1,1000,1345,0,0
-217,-321,0,0,0,0,0,0,0,0,0,-1,1007,1345,0,0
-210,-321,0,0,0,0,0,0,0,0,0,-1,1014,1345,0,0
-203,-321,0,0,0,0,0,0,0,0,0,-1,1021,1345,0,0
-196,-321,0,0,0,0,0,0,0,0,0,-1,1028,1345,0,0
-189,-321,0,0,0,0,0,0,0,0,0,-1,1035,1345,0,0
-182,-321,0,0,0,0,0,0,0,0,0,-1,1042,1345,0,0
-175,-321,0,0,0,0,0,0,0,0,0,-1,1049,1345,0,0
-168,-321,0,0,0,0,0,0,0,0,0,-1,1056,1345,0,0
-161,-321,0,0,0,0,0,0,0,0,0,-1,1063,1345,0,0
-154,-321,0,0,0,0,0,0,0,0,0,-1,1070,1345,0,0
-147,-321,0,0,0,0,0,0,0,0,0,-1,1077,1345,0,0
-140,-321,0,0,0,0,0,0,0,0,0,-1,1084,1345,0,0
-133,-321,0,0,0,0,0,0,0,0,0,-1,1091,1345,0,0
-126,-321,0,0,0,0,0,0,0,0,0,-1,1098,1345,0,0
-119,-321,0,0,0,0,0,0,0,0,0,-1,1105,1345,0,0
-112,-321,0,0,0,0,0,0,0,0,0,-1,1112,1345,0,0
-105,-321,0,0,0,0,0,0,0,0,0,-1,1119,1345,0,0
-98,-321,0,0,0,0,0,0,0,0,0,-1,1126,1345,0,0
-91,-321,0,0,0,0,0,0,0,0,0,-1,1133,1345,0,0
-84,-321,0,0,0,0,0,0,0,0,0,-1,1140,1345,0,0
-77,-321,0,0,0,0,0,0,0,0,0,-1,1147,1345,0,0
-70,-321,0,0,0,0,0,0,0,0,0,-1,1154,1345,0,0
-63,-321,0,0,0,0,0,0,0,0,0,-1,1161,1345,0,0
-56,-321,0,0,0,0,0,0,0,0,0,-1,1168,1345,0,0
-49,-321,0,0,0,0,0,0,0,0,0,-1,1175,1345,0,0
-42,-321,0,0,0,0,0,0,0,0,0,-1,1182,1345,0,0
-35,-321,0,0,0,0,0,0,0,0,0,-1,1189,1345,0,0
-28,-321,0,0,0,0,0,0,0,0,0,-1,1196,1345,0,0
-21,-321,0,0,0,0,0,0,0,0,0,-1,1203,1345,0,0
-14,-321,0,0,0,0,0,0,0,0,0,-1,1210,1345,0,0
-7,-321,0,0,0,0,0,0,0,0,0,-1,1217,1345,0,0
0,-321,0,0,0,0,0,0,0,0,0,-1,1224,1345,0,0
7,-321,0,0,0,0,0,0,0,0,0,-1,1231,1345,0,0
14,-321,0,0,0,0,0,0,0,0,0,-1,1238,1345,0,0
21,-321,0,0,0,0,0,0,0,0,0,-1,1245,1345,0,0
28,-321,0,0,0,0,0,0,0,0,0,-1,1252,1345,0,0
35,-321,0,0,0,0,0,0,0,0,0,-1,1259,1345,0,0
42,-321,0,0,0,0,0,0,0,0,0,-1,1266,1345,0,0
49,-321,0,0,0,0,0,0,0,0,0,-1,1273,1345,0,0
56,-321,0,0,0,0,0,0,0,0,0,-1,1280,1345,0,0
63,-321,0,0,0,0,0,0,0,0,0,-1,1287,1345,0,0
70,-321,0,0,0,0,0,0,0,0,0,-1,1294,1345,0,0
77,-321,0,0,0,0,0,0,0,0,0,-1,1301,1345,0,0
84,-321,0,0,0,0,0,0,0,0,0,-1,1308,1345,0,0
91,-321,0,0,0,0,0,0,0,0,0,-1,1315,1345,0,0
98,-321,0,0,0,0,0,0,0,0,0,-1,1322,1345,0,0
105,-321,0,0,0,0,0,0,0,0,0,-1,1329,1345,0,0
112,-321,0,0,0,0,0,0,0,0,0,-1,1336,1345,0,0
119,-321,0,0,0,0,0,0,0,0,0,-1,1343,1345,0,0
126,-321,0,0,0,0,0,0,0,0,0,-1,1350,1345,0,0
133,-321,0,0,0,0,0,0,0,0,0,-1,1357,1345,0,0
140,-321,0,0,0,0,0,0,0,0,0,-1,1364,1345,0,0
147,-321,0,0,0,0,0,0,0,0,0,-1,1371,1345,0,0
154,-321,0,0,0,0,0,0,0,0,0,-1,1378,1345,0,0
161,-321,0,0,0,0,0,0,0,0,0,-1,1385,1345,0,0
168,-321,0,0,0,0,0,0,0,0,0,-1,1392,1345,0,0
175,-321,0,0,0,0,0,0,0,0,0,-1,1399,1345,0,0
182,-321,0,0,0,0,0,0,0,0,0,-1,1406,1345,0,0
189,-321,0,0,0,0,0,0,0,0,0,-1,1413,1345,0,0
196,-321,0,0,0,0,0,0,0,0,0,-1,1420,1345,0,0
203,-321,0,0,0,0,0,0,0,0,0,-1,1427,1345,0,0
210,-321,0,0,0,0,0,0,0,0,0,-1,1434,1345,0,0
217,-321,0,0,0,0,0,0,0,0,0,-1,1441,1345,0,0
224,-321,0,0,0,0,0,0,0,0,0,-1,1448,1345,0,0
231,-321,0,0,0,0,0,0,0,0,0,-1,1455,1345,0,0
238,-321,0,0,0,0,0,0,0,0,0,-1,1462,1345,0,0
245,-321,0,0,0,0,0,0,0,0,0,-1,1469,1345,0,0
252,-321,0,0,0,0,0,0,0,0,0,-1,1476,1345,0,0
259,-321,0,0,0,0,0,0,0,0,0,-1,1483,1345,0,0
266,-321,0,0,0,0,0,0,0,0,0,-1,1490,1345,0,0
273,-321,0,0,0,0,0,0,0,0,0,-1,1497,1345,0,0
280,-321,0,0,0,0,0,0,0,0,0,-1,1504,1345,0,0
287,-321,0,0,0,0,0,0,0,0,0,-1,1511,1345,0,0
294,-321,0,0,0,0,0,0,0,0,0,-1,1518,1345,0,0
301,-321,0,0,0,0,0,0,0,0,0,-1,1525,1345,0,0
308,-321,0,0,0,0,0,0,0,0,0,-1,1532,1345,0,0
315,-321,0,0,0,0,0,0,0,0,0,-1,1539,1345,0,0
322,-321,0,0,0,0,0,0,0,0,0,-1,1546,1345,0,0
329,-321,0,0,0,0,0,0,0,0,0,-1,1553,1345,0,0
336,-321,0,0,0,0,0,0,0,0,0,-1,1560,1345,0,0
343,-321,0,0,0,0,0,0,0,0,0,-1,1567,1345,0,0
350,-321,0,0,0,0,0,0,0,0,0,-1,1574,1345,0,0
357,-321,0,0,0,0,0,0,0,0,0,-1,1581,1345,0,0
364,-321,0,0,0,0,0,0,0,0,0,-1,1588,1345,0,0
371,-321,0,0,0,0,0,0,0,0,0,-1,1595,1345,0,0
378,-321,0,0,0,0,0,0,0,0,0,-1,1602,1345,0,0
385,-321,0,0,0,0,0,0,0,0,0,-1,1609,1345,0,0
392,-321,0,0,0,0,0,0,0,0,0,-1,1616,1345,0,0
399,-321,0,0,0,0,0,0,0,0,0,-1,1623,1345,0,0
406,-321,0,0,0,0,0,0,0,0,0,-1,1630,1345,0,0
413,-321,0,0,0,0,0,0,0,0,0,-1,1637,1345,0,0
420,-321,0,0,0,0,0,0,0,0,0,-1,1644,1345,0,0
427,-321,0,0,0,0,0,0,0,0,0,-1,1651,1345,0,0
434,-321,0,0,0,0,0,0,0,0,0,-1,1658,1345,0,0
441,-321,0,0,0,0,0,0,0,0,0,-1,1665,1345,0,0
448,-321,0,0,0,0,0,0,0,0,0,-1,1672,1345,0,0
455,-321,0,0,0,0,0,0,0,0,0,-1,1679,1345,0,0
462,-321,0,0,0,0,0,0,0,0,0,-1,1686,1345,0,0
469,-321,0,0,0,0,0,0,0,0,0,-1,1693,1345,0,0
476,-321,0,0,0,0,0,0,0,0,0,-1,1700,1345,0,0
483,-321,0,0,0,0,0,0,0,0,0,-1,1707,1345,0,0
490,-321,0,0,0,0,0,0,0,0,0,-1,1714,1345,0,0
497,-321,0,0,0,0,0,0,0,0,0,-1,1721,1345,0,0
504,-321,0,0,0,0,0,0,0,0,0,-1,1728,1345,0,0
511,-321,0,0,0,0,0,0,0,0,0,-1,1735,1345,0,0
518,-321,0,0,0,0,0,0,0,0,0,-1,1742,1345,0,0
525,-321,0,0,0,0,0,0,0,0,0,-1,1749,1345,0,0
532,-321,0,0,0,0,0,0,0,0,0,-1,1756,1345,0,0
539,-321,0,0,0,0,0,0,0,0,0,-1,1763,1345,0,0
546,-321,0,0,0,0,0,0,0,0,0,-1,1770,1345,0,0
553,-321,0,0,0,0,0,0,0,0,0,-1,1777,1345,0,0
560,-321,0,0,0,0,0,0,0,0,0,-1,1784,1345,0,0
567,-321,0,0,0,0,0,0,0,0,0,-1,1791,1345,0,0
574,-321,0,0,0,0,0,0,0,0,0,-1,1798,1345,0,0
581,-321,39.6094,3.73511,0,0,0,0,0,0,0,-1,1805,1345,39.6093,-3.73509
588,-321,39.1897,4.32434,0,0,0,0,0,0,0,-1,1812,1345,39.1897,-4.32429
595,-321,39.3258,3.703,0,0,0,0,0,0,0,-1,1819,1345,39.3258,-3.70304
602,-321,39.485,3.05603,0,0,0,0,0,0,0,-1,1826,1345,39.485,-3.05608
609,-321,39.4077,2.6001,0,0,0,0,0,0,0,-1,1833,1345,39.4077,-2.60005
616,-321,31.829,-1.41174,0,0,0,0,0,0,0,-1,1840,1345,31.8289,1.41173
623,-321,30.2665,2.45361,0,0,0,0,0,0,0,-1,1847,1345,30.2665,-2.4536
630,-321,23.6674,4.34106,0,0,0,0,0,0,0,-1,1854,1345,23.6674,-4.34112
637,-321,21.7925,6.79224,0,0,0,0,0,0,0,-1,1861,1345,21.7925,-6.7922
644,-321,16.8844,6.71973,0,0,0,0,0,0,0,-1,1868,1345,16.8844,-6.71971
651,-321,27.0651,10.0775,0,0,0,0,0,0,0,-1,1875,1345,27.065,-10.0775
658,-321,26.5156,10.1046,0.00323496,0.00412098,-0.00581437,0.00950919,-0.00215325,-0.823421,0.00716587,0.046084,1882,1345,26.5156,-10.1046
665,-321,26.3132,9.82739,0.00197797,0.00118066,-0.00164142,0.00326845,-0.000109823,-0.666269,0.00221648,0.0194726,1889,1345,26.3132,-9.82738
672,-321,26.3445,9.41199,0.000539059,0.000784877,-8.38165e-05,0.000810736,0.0005132,-1.27155,0.000473567,0.0134096,1896,1345,26.3445,-9.41194
679,-321,26.3335,9.01892,-0.000165319,-0.000211215,0.000409653,0.000222028,-0.000598562,0.757419,0.000490111,0.0108005,1903,1345,26.3335,-9.01897
686,-321,26.3024,8.63708,-8.32663e-05,-0.000386885,0.000217907,3.04983e-05,-0.000500649,0.481154,0.000344383,0.0113593,1910,1345,26.3024,-8.63712
693,-321,26.3,8.25623,1.45607e-05,8.31638e-06,0.000101372,0.000112859,-8.99819e-05,0.770004,0.000117358,0.0123484,1917,1345,26.3001,-8.25617
700,-321,26.3174,7.8429,-0.000123026,0.000368675,9.30328e-05,0.000385688,-0.00014004,1.38992,0.00031438,0.0128053,1924,1345,26.3173,-7.84289
707,-321,26.3215,7.46777,-0.000505484,0.000737287,0.000158504,0.000757185,-0.000525381,1.44592,0.00074451,0.0145977,1931,1345,26.3215,-7.46777
714,-321,26.2856,7.07849,-0.00129314,0.00102086,0.000410149,0.00109141,-0.00136369,1.40046,0.00142035,0.0136363,1938,1345,26.2856,-7.07845
721,-321,26.2378,6.66589,-0.00243615,0.00125984,0.000838792,0.00144129,-0.0026176,1.35775,0.00237598,0.0356087,1945,1345,26.2377,-6.66588
728,-321,26.2621,6.31006,0,0,0,0,0,0,0,-1,1952,1345,26.2621,-6.31
735,-321,22.0081,5.65479,0,0,0,0,0,0,0,-1,1959,1345,22.008,-5.65481
742,-321,24.5398,5.05725,0,0,0,0,0,0,0,-1,1966,1345,24.5398,-5.05729
749,-321,24.0675,5.4458,0,0,0,0,0,0,0,-1,1973,1345,24.0675,-5.44581
756,-321,19.6251,4.98315,0,0,0,0,0,0,0,-1,1980,1345,19.6251,-4.98311
763,-321,19.6747,4.61438,0,0,0,0,0,0,0,-1,1987,1345,19.6747,-4.61436
770,-321,0,0,0,0,0,0,0,0,0,-1,1994,1345,0,0
777,-321,0,0,0,0,0,0,0,0,0,-1,2001,1345,0,0
784,-321,0,0,0,0,0,0,0,0,0,-1,2008,1345,0,0
791,-321,0,0,0,0,0,0,0,0,0,-1,2015,1345,0,0
798,-321,0,0,0,0,0,0,0,0,0,-1,2022,1345,0,0
805,-321,0,0,0,0,0,0,0,0,0,-1,2029,1345,0,0
812,-321,0,0,0,0,0,0,0,0,0,-1,2036,1345,0,0
-700,-328,0,0,0,0,0,0,0,0,0,-1,524,1352,0,0
-693,-328,0,0,0,0,0,0,0,0,0,-1,531,1352,0,0
-686,-328,0,0,0,0,0,0,0,0,0,-1,538,1352,0,0
-679,-328,0,0,0,0,0,0,0,0,0,-1,545,1352,0,0
-672,-328,0,0,0,0,0,0,0,0,0,-1,552,1352,0,0
-665,-328,0,0,0,0,0,0,0,0,0,-1,559,1352,0,0
-658,-328,0,0,0,0,0,0,0,0,0,-1,566,1352,0,0
-651,-328,0,0,0,0,0,0,0,0,0,-1,573,1352,0,0
-644,-328,0,0,0,0,0,0,0,0,0,-1,580,1352,0,0
-637,-328,-12.0695,1.02014,0,0,0,0,0,0,0,-1,587,1352,-12.0694,-1.02017
-630,-328,-13.3971,4.54578,0,0,0,0,0,0,0,-1,594,1352,-13.3971,-4.54572
-623,-328,-10.7739,4.55042,0,0,0,0,0,0,0,-1,601,1352,-10.7739,-4.55041
-616,-328,-8.22198,-0.25708,0,0,0,0,0,0,0,-1,608,1352,-8.22201,0.257067
-609,-328,-7.87439,0.192871,0,0,0,0,0,0,0,-1,615,1352,-7.87441,-0.192822
-602,-328,-7.63062,1.31665,0,0,0,0,0,0,0,-1,622,1352,-7.63064,-1.3166
-595,-328,-9.42639,2.93494,0,0,0,0,0,0,0,-1,629,1352,-9.42638,-2.93499
-588,-328,-14.0686,3.92712,0,0,0,0,0,0,0,-1,636,1352,-14.0686,-3.92715
-581,-328,-13.8552,4.76599,0.000244118,0.00109196,0.000848742,0.00161676,-0.000280682,1.01701,0.00118256,0.0222188,643,1352,-13.8552,-4.76595
-574,-328,-13.8547,5.23193,0.000190115,0.000596547,0.000344085,0.000792945,-6.28314e-06,1.05214,0.000530736,0.0154684,650,1352,-13.8547,-5.23188
-567,-328,-13.8902,5.66956,0.000474292,0.000322348,0.000186145,0.000599372,0.000197269,0.591648,0.000352719,0.0215418,657,1352,-13.8902,-5.66952
-560,-328,-13.8514,6.10925,0.00110013,0.000177362,0.000302326,0.00119036,8.71338e-05,0.29003,0.000766184,0.0281775,664,1352,-13.8514,-6.10922
-553,-328,-13.8403,6.51343,0.00197116,0.000106403,0.000606926,0.00215129,-7.37335e-05,0.288519,0.00145939,0.0294568,671,1352,-13.8404,-6.51341
-546,-328,-13.8683,6.90564,0.00313229,0.000128994,0.00111646,0.00350185,-0.000240566,0.31966,0.00241874,0.0277176,678,1352,-13.8683,-6.90566
-539,-328,-13.9116,7.32422,0.00456965,0.000236894,0.00182904,0.00523851,-0.000431965,0.350583,0.00364487,0.0231237,685,1352,-13.9116,-7.32418
-532,-328,-13.867,7.80701,0.00641741,0.000441057,0.00277692,0.00750851,-0.000650042,0.374385,0.00523582,0.0173639,692,1352,-13.867,-7.80702
-525,-328,-13.8444,8.31616,0.0086655,0.000622577,0.00389482,0.0102424,-0.000954336,0.384701,0.00716759,0.0241753,699,1352,-13.8444,-8.31613
-518,-328,-13.892,8.70557,0,0,0,0,0,0,0,-1,706,1352,-13.892,-8.70552
-511,-328,-9.39868,7.16113,0,0,0,0,0,0,0,-1,713,1352,-9.39869,-7.16113
-504,-328,-8.60626,-0.905762,0,0,0,0,0,0,0,-1,720,1352,-8.60623,0.905787
-497,-328,-9.29102,-0.0517578,0,0,0,0,0,0,0,-1,727,1352,-9.29104,0.0518175
-490,-328,-10.0663,0.882813,0,0,0,0,0,0,0,-1,734,1352,-10.0663,-0.882795
-483,-328,-10.8181,1.72375,0,0,0,0,0,0,0,-1,741,1352,-10.8181,-1.72374
-476,-328,-16.8951,-0.150757,0,0,0,0,0,0,0,-1,748,1352,-16.8951,0.150795
-469,-328,-16.8412,0.00158691,0,0,0,0,0,0,0,-1,755,1352,-16.8412,-0.00161515
-462,-328,-16.3546,-0.203491,0,0,0,0,0,0,0,-1,762,1352,-16.3545,0.203532
-455,-328,0,0,0,0,0,0,0,0,0,-1,769,1352,0,0
-448,-328,0,0,0,0,0,0,0,0,0,-1,776,1352,0,0
-441,-328,0,0,0,0,0,0,0,0,0,-1,783,1352,0,0
-434,-328,0,0,0,0,0,0,0,0,0,-1,790,1352,0,0
-427,-328,0,0,0,0,0,0,0,0,0,-1,797,1352,0,0
-420,-328,0,0,0,0,0,0,0,0,0,-1,804,1352,0,0
-413,-328,0,0,0,0,0,0,0,0,0,-1,811,1352,0,0
-406,-328,0,0,0,0,0,0,0,0,0,-1,818,1352,0,0
-399,-328,0,0,0,0,0,0,0,0,0,-1,825,1352,0,0
-392,-328,0,0,0,0,0,0,0,0,0,-1,832,1352,0,0
-385,-328,0,0,0,0,0,0,0,0,0,-1,839,1352,0,0
-378,-328,0,0,0,0,0,0,0,0,0,-1,846,1352,0,0
-371,-328,0,0,0,0,0,0,0,0,0,-1,853,1352,0,0
-364,-328,0,0,0,0,0,0,0,0,0,-1,860,1352,0,0
-357,-328,0,0,0,0,0,0,0,0,0,-1,867,1352,0,0
-350,-328,0,0,0,0,0,0,0,0,0,-1,874,1352,0,0
-343,-328,0,0,0,0,0,0,0,0,0,-1,881,1352,0,0
-336,-328,0,0,0,0,0,0,0,0,0,-1,888,1352,0,0
-329,-328,0,0,0,0,0,0,0,0,0,-1,895,1352,0,0
-322,-328,0,0,0,0,0,0,0,0,0,-1,902,1352,0,0
-315,-328,0,0,0,0,0,0,0,0,0,-1,909,1352,0,0
-308,-328,0,0,0,0,0,0,0,0,0,-1,916,1352,0,0
-301,-328,0,0,0,0,0,0,0,0,0,-1,923,1352,0,0
-294,-328,0,0,0,0,0,0,0,0,0,-1,930,1352,0,0
-287,-328,0,0,0,0,0,0,0,0,0,-1,937,1352,0,0
-280,-328,0,0,0,0,0,0,0,0,0,-1,944,1352,0,0
-273,-328,0,0,0,0,0,0,0,0,0,-1,951,1352,0,0
-266,-328,0,0,0,0,0,0,0,0,0,-1,958,1352,0,0
-259,-328,0,0,0,0,0,0,0,0,0,-1,965,1352,0,0
-252,-328,0,0,0,0,0,0,0,0,0,-1,972,1352,0,0
-245,-328,0,0,0,0,0,0,0,0,0,-1,979,1352,0,0
-238,-328,0,0,0,0,0,0,0,0,0,-1,986,1352,0,0
-231,-328,0,0,0,0,0,0,0,0,0,-1,993,1352,0,0
-224,-328,0,0,0,0,0,0,0,0,0,-1,1000,1352,0,0
-217,-328,0,0,0,0,0,0,0,0,0,-1,1007,1352,0,0
-210,-328,0,0,0,0,0,0,0,0,0,-1,1014,1352,0,0
-203,-328,0,0,0,0,0,0,0,0,0,-1,1021,1352,0,0
-196,-328,0,0,0,0,0,0,0,0,0,-1,1028,1352,0,0
-189,-328,0,0,0,0,0,0,0,0,0,-1,1035,1352,0,0
-182,-328,0,0,0,0,0,0,0,0,0,-1,1042,1352,0,0
-175,-328,0,0,0,0,0,0,0,0,0,-1,1049,1352,0,0
-168,-328,0,0,0,0,0,0,0,0,0,-1,1056,1352,0,0
-161,-328,0,0,0,0,0,0,0,0,0,-1,1063,1352,0,0
-154,-328,0,0,0,0,0,0,0,0,0,-1,1070,1352,0,0
-147,-328,0,0,0,0,0,0,0,0,0,-1,1077,1352,0,0
-140,-328,0,0,0,0,0,0,0,0,0,-1,1084,1352,0,0
-133,-328,0,0,0,0,0,0,0,0,0,-1,1091,1352,0,0
-126,-328,0,0,0,0,0,0,0,0,0,-1,1098,1352,0,0
-119,-328,0,0,0,0,0,0,0,0,0,-1,1105,1352,0,0
-112,-328,0,0,0,0,0,0,0,0,0,-1,1112,1352,0,0
-105,-328,0,0,0,0,0,0,0,0,0,-1,1119,1352,0,0
-98,-328,0,0,0,0,0,0,0,0,0,-1,1126,1352,0,0
-91,-328,0,0,0,0,0,0,0,0,0,-1,1133,1352,0,0
-84,-328,0,0,0,0,0,0,0,0,0,-1,1140,1352,0,0
-77,-328,0,0,0,0,0,0,0,0,0,-1,1147,1352,0,0
-70,-328,0,0,0,0,0,0,0,0,0,-1,1154,1352,0,0
-63,-328,0,0,0,0,0,0,0,0,0,-1,1161,1352,0,0
-56,-328,0,0,0,0,0,0,0,0,0,-1,1168,1352,0,0
-49,-328,0,0,0,0,0,0,0,0,0,-1,1175,1352,0,0
-42,-328,0,0,0,0,0,0,0,0,0,-1,1182,1352,0,0
-35,-328,0,0,0,0,0,0,0,0,0,-1,1189,1352,0,0
-28,-328,0,0,0,0,0,0,0,0,0,-1,1196,1352,0,0
-21,-328,0,0,0,0,0,0,0,0,0,-1,1203,1352,0,0
-14,-328,0,0,0,0,0,0,0,0,0,-1,1210,1352,0,0
-7,-328,0,0,0,0,0,0,0,0,0,-1,1217,1352,0,0
0,-328,0,0,0,0,0,0,0,0,0,-1,1224,1352,0,0
7,-328,0,0,0,0,0,0,0,0,0,-1,1231,1352,0,0
14,-328,0,0,0,0,0,0,0,0,0,-1,1238,1352,0,0
21,-328,0,0,0,0,0,0,0,0,0,-1,1245,1352,0,0
28,-328,0,0,0,0,0,0,0,0,0,-1,1252,1352,0,0
35,-328,0,0,0,0,0,0,0,0,0,-1,1259,1352,0,0
42,-328,0,0,0,0,0,0,0,0,0,-1,1266,1352,0,0
49,-328,0,0,0,0,0,0,0,0,0,-1,1273,1352,0,0
56,-328,0,0,0,0,0,0,0,0,0,-1,1280,1352,0,0
63,-328,0,0,0,0,0,0,0,0,0,-1,1287,1352,0,0
70,-328,0,0,0,0,0,0,0,0,0,-1,1294,1352,0,0
77,-328,0,0,0,0,0,0,0,0,0,-1,1301,1352,0,0
84,-328,0,0,0,0,0,0,0,0,0,-1,1308,1352,0,0
91,-328,0,0,0,0,0,0,0,0,0,-1,1315,1352,0,0
98,-328,0,0,0,0,0,0,0,0,0,-1,1322,1352,0,0
105,-328,0,0,0,0,0,0,0,0,0,-1,1329,1352,0,0
112,-328,0,0,0,0,0,0,0,0,0,-1,1336,1352,0,0
119,-328,0,0,0,0,0,0,0,0,0,-1,1343,1352,0,0
126,-328,0,0,0,0,0,0,0,0,0,-1,1350,1352,0,0
133,-328,0,0,0,0,0,0,0,0,0,-1,1357,1352,0,0
140,-328,0,0,0,0,0,0,0,0,0,-1,1364,1352,0,0
147,-328,0,0,0,0,0,0,0,0,0,-1,1371,1352,0,0
154,-328,0,0,0,0,0,0,0,0,0,-1,1378,1352,0,0
161,-328,0,0,0,0,0,0,0,0,0,-1,1385,1352,0,0
168,-328,0,0,0,0,0,0,0,0,0,-1,1392,1352,0,0
175,-328,0,0,0,0,0,0,0,0,0,-1,1399,1352,0,0
182,-328,0,0,0,0,0,0,0,0,0,-1,1406,1352,0,0
189,-328,0,0,0,0,0,0,0,0,0,-1,1413,1352,0,0
196,-328,0,0,0,0,0,0,0,0,0,-1,1420,1352,0,0
203,-328,0,0,0,0,0,0,0,0,0,-1,1427,1352,0,0
210,-328,0,0,0,0,0,0,0,0,0,-1,1434,1352,0,0
217,-328,0,0,0,0,0,0,0,0,0,-1,1441,1352,0,0
224,-328,0,0,0,0,0,0,0,0,0,-1,1448,1352,0,0
231,-328,0,0,0,0,0,0,0,0,0,-1,1455,1352,0,0
238,-328,0,0,0,0,0,0,0,0,0,-1,1462,1352,0,0
245,-328,0,0,0,0,0,0,0,0,0,-1,1469,1352,0,0
252,-328,0,0,0,0,0,0,0,0,0,-1,1476,1352,0,0
259,-328,0,0,0,0,0,0,0,0,0,-1,1483,1352,0,0
266,-328,0,0,0,0,0,0,0,0,0,-1,1490,1352,0,0
273,-328,0,0,0,0,0,0,0,0,0,-1,1497,1352,0,0
280,-328,0,0,0,0,0,0,0,0,0,-1,1504,1352,0,0
287,-328,0,0,0,0,0,0,0,0,0,-1,1511,1352,0,0
294,-328,0,0,0,0,0,0,0,0,0,-1,1518,1352,0,0
301,-328,0,0,0,0,0,0,0,0,0,-1,1525,1352,0,0
308,-328,0,0,0,0,0,0,0,0,0,-1,1532,1352,0,0
315,-328,0,0,0,0,0,0,0,0,0,-1,1539,1352,0,0
322,-328,0,0,0,0,0,0,0,0,0,-1,1546,1352,0,0
329,-328,0,0,0,0,0,0,0,0,0,-1,1553,1352,0,0
336,-328,0,0,0,0,0,0,0,0,0,-1,1560,1352,0,0
343,-328,0,0,0,0,0,0,0,0,0,-1,1567,1352,0,0
350,-328,0,0,0,0,0,0,0,0,0,-1,1574,1352,0,0
357,-328,0,0,0,0,0,0,0,0,0,-1,1581,1352,0,0
364,-328,0,0,0,0,0,0,0,0,0,-1,1588,1352,0,0
371,-328,0,0,0,0,0,0,0,0,0,-1,1595,1352,0,0
378,-328,0,0,0,0,0,0,0,0,0,-1,1602,1352,0,0
385,-328,0,0,0,0,0,0,0,0,0,-1,1609,1352,0,0
392,-328,0,0,0,0,0,0,0,0,0,-1,1616,1352,0,0
399,-328,0,0,0,0,0,0,0,0,0,-1,1623,1352,0,0
406,-328,0,0,0,0,0,0,0,0,0,-1,1630,1352,0,0
413,-328,0,0,0,0,0,0,0,0,0,-1,1637,1352,0,0
420,-328,0,0,0,0,0,0,0,0,0,-1,1644,1352,0,0
427,-328,0,0,0,0,0,0,0,0,0,-1,1651,1352,0,0
434,-328,0,0,0,0,0,0,0,0,0,-1,1658,1352,0,0
441,-328,0,0,0,0,0,0,0,0,0,-1,1665,1352,0,0
448,-328,0,0,0,0,0,0,0,0,0,-1,1672,1352,0,0
455,-328,0,0,0,0,0,0,0,0,0,-1,1679,1352,0,0
462,-328,0,0,0,0,0,0,0,0,0,-1,1686,1352,0,0
469,-328,0,0,0,0,0,0,0,0,0,-1,1693,1352,0,0
476,-328,0,0,0,0,0,0,0,0,0,-1,1700,1352,0,0
483,-328,0,0,0,0,0,0,0,0,0,-1,1707,1352,0,0
490,-328,0,0,0,0,0,0,0,0,0,-1,1714,1352,0,0
497,-328,0,0,0,0,0,0,0,0,0,-1,1721,1352,0,0
504,-328,0,0,0,0,0,0,0,0,0,-1,1728,1352,0,0
511,-328,0,0,0,0,0,0,0,0,0,-1,1735,1352,0,0
518,-328,0,0,0,0,0,0,0,0,0,-1,1742,1352,0,0
525,-328,0,0,0,0,0,0,0,0,0,-1,1749,1352,0,0
532,-328,0,0,0,0,0,0,0,0,0,-1,1756,1352,0,0
539,-328,0,0,0,0,0,0,0,0,0,-1,1763,1352,0,0
546,-328,0,0,0,0,0,0,0,0,0,-1,1770,1352,0,0
553,-328,0,0,0,0,0,0,0,0,0,-1,1777,1352,0,0
560,-328,0,0,0,0,0,0,0,0,0,-1,1784,1352,0,0
567,-328,0,0,0,0,0,0,0,0,0,-1,1791,1352,0,0
574,-328,40.3912,5.00684,0,0,0,0,0,0,0,-1,1798,1352,40.3912,-5.00684
581,-328,39.8867,3.95203,0,0,0,0,0,0,0,-1,1805,1352,39.8867,-3.95207
588,-328,39.158,3.53003,0,0,0,0,0,0,0,-1,1812,1352,39.158,-3.52999
595,-328,38.418,3.03467,0,0,0,0,0,0,0,-1,1819,1352,38.418,-3.03468
602,-328,40.0042,2.67676,0,0,0,0,0,0,0,-1,1826,1352,40.0042,-2.67676
609,-328,37.208,1.96802,0,0,0,0,0,0,0,-1,1833,1352,37.208,-1.96803
616,-328,30.9546,2.59326,0,0,0,0,0,0,0,-1,1840,1352,30.9546,-2.59329
623,-328,26.8594,6.41528,0,0,0,0,0,0,0,-1,1847,1352,26.8593,-6.41528
630,-328,22.0211,5.026,0,0,0,0,0,0,0,-1,1854,1352,22.0212,-5.02603
637,-328,21.15,5.53699,0,0,0,0,0,0,0,-1,1861,1352,21.15,-5.53704
644,-328,16.9579,6.3396,0,0,0,0,0,0,0,-1,1868,1352,16.9579,-6.33959
651,-328,26.1682,10.5986,0,0,0,0,0,0,0,-1,1875,1352,26.1683,-10.5986
658,-328,25.9574,10.2198,0.00194883,0.00261146,-0.00542612,0.00771637,-0.00315608,-0.81589,0.00645865,0.0355157,1882,1352,25.9573,-10.2198
665,-328,25.967,9.80408,0.00084588,0.000101301,-0.00143095,0.00195218,-0.001005,-0.658135,0.00173628,0.0149913,1889,1352,25.967,-9.8041
672,-328,25.9473,9.42578,-2.97152e-05,8.19935e-05,-0.000123398,0.00016159,-0.000109312,-0.997919,0.000157373,0.012785,1896,1352,25.9473,-9.42576
679,-328,25.9415,9.02954,-0.000186576,-0.000329173,0.000232526,-1.46632e-05,-0.000501086,0.636635,0.000329278,0.013766,1903,1352,25.9415,-9.02957
686,-328,25.9293,8.63647,9.822e-05,-0.000152385,8.17984e-05,0.000122556,-0.000176721,0.289173,0.000173728,0.0125811,1910,1352,25.9293,-8.63645
693,-328,25.9318,8.25427,0.000231239,0.000243381,-5.97169e-05,0.000297335,0.000177285,-0.836055,0.000172723,0.00927652,1917,1352,25.9318,-8.2543
700,-328,25.9343,7.87866,0.000146649,0.000640022,-0.000124173,0.000669512,0.00011716,-1.33763,0.000412867,0.0140984,1924,1352,25.9343,-7.87862
707,-328,25.9181,7.48828,-0.000231353,0.00104568,-0.000117491,0.0010564,-0.000242072,-1.47981,0.000797305,0.0164474,1931,1352,25.9181,-7.48825
714,-328,25.9088,7.08105,-0.00109061,0.00136982,0.000116578,0.00137533,-0.00109612,1.52356,0.00142993,0.0160757,1938,1352,25.9088,-7.08104
721,-328,25.686,6.66541,-0.00233059,0.00167803,0.000544551,0.00175069,-0.00240325,1.43815,0.00240812,0.0454329,1945,1352,25.686,-6.66542
728,-328,25.7186,6.07788,0,0,0,0,0,0,0,-1,1952,1352,25.7187,-6.07785
735,-328,20.8927,5.23523,0,0,0,0,0,0,0,-1,1959,1352,20.8927,-5.23528
742,-328,20.3547,4.11316,0,0,0,0,0,0,0,-1,1966,1352,20.3547,-4.11321
749,-328,20.0669,5.66321,0,0,0,0,0,0,0,-1,1973,1352,20.0669,-5.66319
756,-328,19.9543,5.50464,0,0,0,0,0,0,0,-1,1980,1352,19.9543,-5.50463
763,-328,0,0,0,0,0,0,0,0,0,-1,1987,1352,0,0
770,-328,0,0,0,0,0,0,0,0,0,-1,1994,1352,0,0
777,-328,0,0,0,0,0,0,0,0,0,-1,2001,1352,0,0
784,-328,0,0,0,0,0,0,0,0,0,-1,2008,1352,0,0
791,-328,0,0,0,0,0,0,0,0,0,-1,2015,1352,0,0
798,-328,0,0,0,0,0,0,0,0,0,-1,2022,1352,0,0
805,-328,0,0,0,0,0,0,0,0,0,-1,2029,1352,0,0
812,-328,0,0,0,0,0,0,0,0,0,-1,2036,1352,0,0
-700,-335,0,0,0,0,0,0,0,0,0,-1,524,1359,0,0
-693,-335,0,0,0,0,0,0,0,0,0,-1,531,1359,0,0
-686,-335,0,0,0,0,0,0,0,0,0,-1,538,1359,0,0
-679,-335,0,0,0,0,0,0,0,0,0,-1,545,1359,0,0
-672,-335,0,0,0,0,0,0,0,0,0,-1,552,1359,0,0
-665,-335,0,0,0,0,0,0,0,0,0,-1,559,1359,0,0
-658,-335,0,0,0,0,0,0,0,0,0,-1,566,1359,0,0
-651,-335,0,0,0,0,0,0,0,0,0,-1,573,1359,0,0
-644,-335,0,0,0,0,0,0,0,0,0,-1,580,1359,0,0
-637,-335,-9.64746,3.53809,0,0,0,0,0,0,0,-1,587,1359,-9.64744,-3.53803
-630,-335,-6.07397,-2.99902,0,0,0,0,0,0,0,-1,594,1359,-6.07397,2.99902
-623,-335,-8.43304,1.09509,0,0,0,0,0,0,0,-1,601,1359,-8.43301,-1.09507
-616,-335,-7.80927,-0.485352,0,0,0,0,0,0,0,-1,608,1359,-7.80926,0.485291
-609,-335,-7.12256,-2.03601,0,0,0,0,0,0,0,-1,615,1359,-7.12253,2.03601
-602,-335,-9.39935,2.25146,0,0,0,0,0,0,0,-1,622,1359,-9.39935,-2.25145
-595,-335,-9.54767,3.01917,0,0,0,0,0,0,0,-1,629,1359,-9.54768,-3.01911
-588,-335,-13.5314,4.14929,0,0,0,0,0,0,0,-1,636,1359,-13.5314,-4.14929
-581,-335,-13.3895,4.82874,-0.00145911,-7.1487e-05,-0.000301826,-8.67917e-06,-0.00152192,-1.36563,0.00101173,0.0353515,643,1359,-13.3895,-4.82875
-574,-335,-13.4139,5.21692,-0.00117568,-0.000205996,-0.000542474,3.67272e-05,-0.0014184,-1.15008,0.000958076,0.0136146,650,1359,-13.4139,-5.21695
-567,-335,-13.4346,5.68298,-0.000606773,-0.000203306,-0.000476007,0.000111951,-0.000922031,-0.985827,0.0006552,0.0180053,657,1359,-13.4346,-5.683
-560,-335,-13.4125,6.10132,0.000263378,-0.000171691,-0.000187394,0.000332963,-0.000241276,-0.355551,0.000332943,0.0262733,664,1359,-13.4125,-6.10134
-553,-335,-13.3993,6.5614,0.00136494,-7.06118e-05,0.000274834,0.00141576,-0.00012143,0.182838,0.000986808,0.0293632,671,1359,-13.3993,-6.56144
-546,-335,-13.4324,7.00647,0.00268077,2.60674e-05,0.000884436,0.00294844,-0.000241601,0.29388,0.00205091,0.0266191,678,1359,-13.4324,-7.00651
-539,-335,-13.4683,7.38843,0.00419096,0.000185995,0.00164708,0.00478131,-0.000404359,0.344161,0.00333052,0.0211453,685,1359,-13.4683,-7.38844
-532,-335,-13.4763,7.84949,0.00599673,0.000405248,0.00258938,0.00701164,-0.000609657,0.373548,0.00489033,0.0157894,692,1359,-13.4763,-7.84951
-525,-335,-13.4335,8.31116,0.00812517,0.000638156,0.00369265,0.00963994,-0.000876617,0.38928,0.00673787,0.0115801,699,1359,-13.4335,-8.31118
-518,-335,-13.3845,8.7063,0.0102951,0.000744017,0.00478881,0.0122826,-0.00124346,0.393393,0.00863278,0.0379385,706,1359,-13.3845,-8.70631
-511,-335,-13.3058,9.07068,0,0,0,0,0,0,0,-1,713,1359,-13.3058,-9.0707
-504,-335,-9.35767,5.99695,0,0,0,0,0,0,0,-1,720,1359,-9.35767,-5.99694
-497,-335,-8.75024,-0.650513,0,0,0,0,0,0,0,-1,727,1359,-8.75024,0.650521
-490,-335,-9.51971,0.417603,0,0,0,0,0,0,0,-1,734,1359,-9.51974,-0.41765
-483,-335,-10.2883,1.29224,0,0,0,0,0,0,0,-1,741,1359,-10.2883,-1.2922
-476,-335,-11.9938,-0.173462,0,0,0,0,0,0,0,-1,748,1359,-11.9938,0.173429
-469,-335,-12.8704,-0.204102,0,0,0,0,0,0,0,-1,755,1359,-12.8704,0.204117
-462,-335,-13.486,0.0218506,0,0,0,0,0,0,0,-1,762,1359,-13.4859,-0.0217908
-455,-335,-14.1504,0.549561,0,0,0,0,0,0,0,-1,769,1359,-14.1504,-0.549583
-448,-335,0,0,0,0,0,0,0,0,0,-1,776,1359,0,0
-441,-335,0,0,0,0,0,0,0,0,0,-1,783,1359,0,0
-434,-335,0,0,0,0,0,0,0,0,0,-1,790,1359,0,0
-427,-335,0,0,0,0,0,0,0,0,0,-1,797,1359,0,0
-420,-335,0,0,0,0,0,0,0,0,0,-1,804,1359,0,0
-413,-335,0,0,0,0,0,0,0,0,0,-1,811,1359,0,0
-406,-335,0,0,0,0,0,0,0,0,0,-1,818,1359,0,0
-399,-335,0,0,0,0,0,0,0,0,0,-1,825,1359,0,0
-392,-335,0,0,0,0,0,0,0,0,0,-1,832,1359,0,0
-385,-335,0,0,0,0,0,0,0,0,0,-1,839,1359,0,0
-378,-335,0,0,0,0,0,0,0,0,0,-1,846,1359,0,0
-371,-335,0,0,0,0,0,0,0,0,0,-1,853,1359,0,0
-364,-335,0,0,0,0,0,0,0,0,0,-1,860,1359,0,0
-357,-335,0,0,0,0,0,0,0,0,0,-1,867,1359,0,0
-350,-335,0,0,0,0,0,0,0,0,0,-1,874,1359,0,0
-343,-335,0,0,0,0,0,0,0,0,0,-1,881,1359,0,0
-336,-335,0,0,0,0,0,0,0,0,0,-1,888,1359,0,0
-329,-335,0,0,0,0,0,0,0,0,0,-1,895,1359,0,0
-322,-335,0,0,0,0,0,0,0,0,0,-1,902,1359,0,0
-315,-335,0,0,0,0,0,0,0,0,0,-1,909,1359,0,0
-308,-335,0,0,0,0,0,0,0,0,0,-1,916,1359,0,0
-301,-335,0,0,0,0,0,0,0,0,0,-1,923,1359,0,0
-294,-335,0,0,0,0,0,0,0,0,0,-1,930,1359,0,0
-287,-335,0,0,0,0,0,0,0,0,0,-1,937,1359,0,0
-280,-335,0,0,0,0,0,0,0,0,0,-1,944,1359,0,0
-273,-335,0,0,0,0,0,0,0,0,0,-1,951,1359,0,0
-266,-335,0,0,0,0,0,0,0,0,0,-1,958,1359,0,0
-259,-335,0,0,0,0,0,0,0,0,0,-1,965,1359,0,0
-252,-335,0,0,0,0,0,0,0,0,0,-1,972,1359,0,0
-245,-335,0,0,0,0,0,0,0,0,0,-1,979,1359,0,0
-238,-335,0,0,0,0,0,0,0,0,0,-1,986,1359,0,0
-231,-335,0,0,0,0,0,0,0,0,0,-1,993,1359,0,0
-224,-335,0,0,0,0,0,0,0,0,0,-1,1000,1359,0,0
-217,-335,0,0,0,0,0,0,0,0,0,-1,1007,1359,0,0
-210,-335,0,0,0,0,0,0,0,0,0,-1,1014,1359,0,0
-203,-335,0,0,0,0,0,0,0,0,0,-1,1021,1359,0,0
-196,-335,0,0,0,0,0,0,0,0,0,-1,1028,1359,0,0
-189,-335,0,0,0,0,0,0,0,0,0,-1,1035,1359,0,0
-182,-335,0,0,0,0,0,0,0,0,0,-1,1042,1359,0,0
-175,-335,0,0,0,0,0,0,0,0,0,-1,1049,1359,0,0
-168,-335,0,0,0,0,0,0,0,0,0,-1,1056,1359,0,0
-161,-335,0,0,0,0,0,0,0,0,0,-1,1063,1359,0,0
-154,-335,0,0,0,0,0,0,0,0,0,-1,1070,1359,0,0
-147,-335,0,0,0,0,0,0,0,0,0,-1,1077,1359,0,0
-140,-335,0,0,0,0,0,0,0,0,0,-1,1084,1359,0,0
-133,-335,0,0,0,0,0,0,0,0,0,-1,1091,1359,0,0
-126,-335,0,0,0,0,0,0,0,0,0,-1,1098,1359,0,0
-119,-335,0,0,0,0,0,0,0,0,0,-1,1105,1359,0,0
-112,-335,0,0,0,0,0,0,0,0,0,-1,1112,1359,0,0
-105,-335,0,0,0,0,0,0,0,0,0,-1,1119,1359,0,0
-98,-335,0,0,0,0,0,0,0,0,0,-1,1126,1359,0,0
-91,-335,0,0,0,0,0,0,0,0,0,-1,1133,1359,0,0
-84,-335,0,0,0,0,0,0,0,0,0,-1,1140,1359,0,0
-77,-335,0,0,0,0,0,0,0,0,0,-1,1147,1359,0,0
-70,-335,0,0,0,0,0,0,0,0,0,-1,1154,1359,0,0
-63,-335,0,0,0,0,0,0,0,0,0,-1,1161,1359,0,0
-56,-335,0,0,0,0,0,0,0,0,0,-1,1168,1359,0,0
-49,-335,0,0,0,0,0,0,0,0,0,-1,1175,1359,0,0
-42,-335,0,0,0,0,0,0,0,0,0,-1,1182,1359,0,0
-35,-335,0,0,0,0,0,0,0,0,0,-1,1189,1359,0,0
-28,-335,0,0,0,0,0,0,0,0,0,-1,1196,1359,0,0
-21,-335,0,0,0,0,0,0,0,0,0,-1,1203,1359,0,0
-14,-335,0,0,0,0,0,0,0,0,0,-1,1210,1359,0,0
-7,-335,0,0,0,0,0,0,0,0,0,-1,1217,1359,0,0
0,-335,0,0,0,0,0,0,0,0,0,-1,1224,1359,0,0
7,-335,0,0,0,0,0,0,0,0,0,-1,1231,1359,0,0
14,-335,0,0,0,0,0,0,0,0,0,-1,1238,1359,0,0
21,-335,0,0,0,0,0,0,0,0,0,-1,1245,1359,0,0
28,-335,0,0,0,0,0,0,0,0,0,-1,1252,1359,0,0
35,-335,0,0,0,0,0,0,0,0,0,-1,1259,1359,0,0
42,-335,0,0,0,0,0,0,0,0,0,-1,1266,1359,0,0
49,-335,0,0,0,0,0,0,0,0,0,-1,1273,1359,0,0
56,-335,0,0,0,0,0,0,0,0,0,-1,1280,1359,0,0
63,-335,0,0,0,0,0,0,0,0,0,-1,1287,1359,0,0
70,-335,0,0,0,0,0,0,0,0,0,-1,1294,1359,0,0
77,-335,0,0,0,0,0,0,0,0,0,-1,1301,1359,0,0
84,-335,0,0,0,0,0,0,0,0,0,-1,1308,1359,0,0
91,-335,0,0,0,0,0,0,0,0,0,-1,1315,1359,0,0
98,-335,0,0,0,0,0,0,0,0,0,-1,1322,1359,0,0
105,-335,0,0,0,0,0,0,0,0,0,-1,1329,1359,0,0
112,-335,0,0,0,0,0,0,0,0,0,-1,1336,1359,0,0
119,-335,0,0,0,0,0,0,0,0,0,-1,1343,1359,0,0
126,-335,0,0,0,0,0,0,0,0,0,-1,1350,1359,0,0
133,-335,0,0,0,0,0,0,0,0,0,-1,1357,1359,0,0
140,-335,0,0,0,0,0,0,0,0,0,-1,1364,1359,0,0
147,-335,0,0,0,0,0,0,0,0,0,-1,1371,1359,0,0
154,-335,0,0,0,0,0,0,0,0,0,-1,1378,1359,0,0
161,-335,0,0,0,0,0,0,0,0,0,-1,1385,1359,0,0
168,-335,0,0,0,0,0,0,0,0,0,-1,1392,1359,0,0
175,-335,0,0,0,0,0,0,0,0,0,-1,1399,1359,0,0
182,-335,0,0,0,0,0,0,0,0,0,-1,1406,1359,0,0
189,-335,0,0,0,0,0,0,0,0,0,-1,1413,1359,0,0
196,-335,0,0,0,0,0,0,0,0,0,-1,1420,1359,0,0
203,-335,0,0,0,0,0,0,0,0,0,-1,1427,1359,0,0
210,-335,0,0,0,0,0,0,0,0,0,-1,1434,1359,0,0
217,-335,0,0,0,0,0,0,0,0,0,-1,1441,1359,0,0
224,-335,0,0,0,0,0,0,0,0,0,-1,1448,1359,0,0
231,-335,0,0,0,0,0,0,0,0,0,-1,1455,1359,0,0
238,-335,0,0,0,0,0,0,0,0,0,-1,1462,1359,0,0
245,-335,0,0,0,0,0,0,0,0,0,-1,1469,1359,0,0
252,-335,0,0,0,0,0,0,0,0,0,-1,1476,1359,0,0
259,-335,0,0,0,0,0,0,0,0,0,-1,1483,1359,0,0
266,-335,0,0,0,0,0,0,0,0,0,-1,1490,1359,0,0
273,-335,0,0,0,0,0,0,0,0,0,-1,1497,1359,0,0
280,-335,0,0,0,0,0,0,0,0,0,-1,1504,1359,0,0
287,-335,0,0,0,0,0,0,0,0,0,-1,1511,1359,0,0
294,-335,0,0,0,0,0,0,0,0,0,-1,1518,1359,0,0
301,-335,0,0,0,0,0,0,0,0,0,-1,1525,1359,0,0
308,-335,0,0,0,0,0,0,0,0,0,-1,1532,1359,0,0
315,-335,0,0,0,0,0,0,0,0,0,-1,1539,1359,0,0
322,-335,0,0,0,0,0,0,0,0,0,-1,1546,1359,0,0
329,-335,0,0,0,0,0,0,0,0,0,-1,1553,1359,0,0
336,-335,0,0,0,0,0,0,0,0,0,-1,1560,1359,0,0
343,-335,0,0,0,0,0,0,0,0,0,-1,1567,1359,0,0
350,-335,0,0,0,0,0,0,0,0,0,-1,1574,1359,0,0
357,-335,0,0,0,0,0,0,0,0,0,-1,1581,1359,0,0
364,-335,0,0,0,0,0,0,0,0,0,-1,1588,1359,0,0
371,-335,0,0,0,0,0,0,0,0,0,-1,1595,1359,0,0
378,-335,0,0,0,0,0,0,0,0,0,-1,1602,1359,0,0
385,-335,0,0,0,0,0,0,0,0,0,-1,1609,1359,0,0
392,-335,0,0,0,0,0,0,0,0,0,-1,1616,1359,0,0
399,-335,0,0,0,0,0,0,0,0,0,-1,1623,1359,0,0
406,-335,0,0,0,0,0,0,0,0,0,-1,1630,1359,0,0
413,-335,0,0,0,0,0,0,0,0,0,-1,1637,1359,0,0
420,-335,0,0,0,0,0,0,0,0,0,-1,1644,1359,0,0
427,-335,0,0,0,0,0,0,0,0,0,-1,1651,1359,0,0
434,-335,0,0,0,0,0,0,0,0,0,-1,1658,1359,0,0
441,-335,0,0,0,0,0,0,0,0,0,-1,1665,1359,0,0
448,-335,0,0,0,0,0,0,0,0,0,-1,1672,1359,0,0
455,-335,0,0,0,0,0,0,0,0,0,-1,1679,1359,0,0
462,-335,0,0,0,0,0,0,0,0,0,-1,1686,1359,0,0
469,-335,0,0,0,0,0,0,0,0,0,-1,1693,1359,0,0
476,-335,0,0,0,0,0,0,0,0,0,-1,1700,1359,0,0
483,-335,0,0,0,0,0,0,0,0,0,-1,1707,1359,0,0
490,-335,0,0,0,0,0,0,0,0,0,-1,1714,1359,0,0
497,-335,0,0,0,0,0,0,0,0,0,-1,1721,1359,0,0
504,-335,0,0,0,0,0,0,0,0,0,-1,1728,1359,0,0
511,-335,0,0,0,0,0,0,0,0,0,-1,1735,1359,0,0
518,-335,0,0,0,0,0,0,0,0,0,-1,1742,1359,0,0
525,-335,0,0,0,0,0,0,0,0,0,-1,1749,1359,0,0
532,-335,0,0,0,0,0,0,0,0,0,-1,1756,1359,0,0
539,-335,0,0,0,0,0,0,0,0,0,-1,1763,1359,0,0
546,-335,0,0,0,0,0,0,0,0,0,-1,1770,1359,0,0
553,-335,0,0,0,0,0,0,0,0,0,-1,1777,1359,0,0
560,-335,0,0,0,0,0,0,0,0,0,-1,1784,1359,0,0
567,-335,0,0,0,0,0,0,0,0,0,-1,1791,1359,0,0
574,-335,41.5282,4.86255,0,0,0,0,0,0,0,-1,1798,1359,41.5282,-4.86256
581,-335,40.1957,4.18689,0,0,0,0,0,0,0,-1,1805,1359,40.1957,-4.18683
588,-335,39.4464,3.78906,0,0,0,0,0,0,0,-1,1812,1359,39.4464,-3.78907
595,-335,39.2596,3.6593,0,0,0,0,0,0,0,-1,1819,1359,39.2597,-3.65926
602,-335,38.7072,3.53003,0,0,0,0,0,0,0,-1,1826,1359,38.7071,-3.53003
609,-335,30.826,4.40063,0,0,0,0,0,0,0,-1,1833,1359,30.826,-4.40063
616,-335,28.298,5.98853,0,0,0,0,0,0,0,-1,1840,1359,28.298,-5.98849
623,-335,26.6051,6.54333,0,0,0,0,0,0,0,-1,1847,1359,26.6051,-6.54339
630,-335,19.1707,1.00952,0,0,0,0,0,0,0,-1,1854,1359,19.1707,-1.00953
637,-335,18.2009,6.65454,0,0,0,0,0,0,0,-1,1861,1359,18.2009,-6.6546
644,-335,25.7994,10.9193,0,0,0,0,0,0,0,-1,1868,1359,25.7994,-10.9193
651,-335,25.6418,10.5807,0.0013946,0.00425513,-0.0092562,0.0121909,-0.00654118,-0.862052,0.0109777,0.0453229,1875,1359,25.6418,-10.5806
658,-335,25.5231,10.2831,0.000625025,0.00143263,-0.00425497,0.00530292,-0.00324526,-0.832707,0.00498273,0.022563,1882,1359,25.5231,-10.283
665,-335,25.5635,9.8291,2.91133e-05,-0.000477701,-0.000896622,0.00070745,-0.00115604,-0.647678,0.00108623,0.0153908,1889,1359,25.5634,-9.82913
672,-335,25.5708,9.4231,-0.000194635,-0.000256579,-1.50916e-05,-0.000191154,-0.000260061,-0.226703,0.000155577,0.0177511,1896,1359,25.5709,-9.42306
679,-335,25.5654,9.05603,2.6417e-05,-0.000281598,0.000110588,6.20091e-05,-0.00031719,0.311375,0.000234874,0.0143325,1903,1359,25.5654,-9.05604
686,-335,25.5712,8.64819,0.000424071,7.10411e-05,-6.93262e-05,0.000437197,5.79152e-05,-0.18712,0.000274206,0.0112478,1910,1359,25.5712,-8.64818
693,-335,25.5503,8.25134,0.000629472,0.000455426,-0.000227826,0.000786329,0.000298568,-0.602964,0.000458347,0.00997826,1917,1359,25.5504,-8.25136
700,-335,25.5315,7.88416,0.000639724,0.000894033,-0.000353454,0.00114251,0.000391248,-0.958065,0.000670455,0.0112607,1924,1359,25.5315,-7.88409
707,-335,25.5027,7.49866,0.000300414,0.00133894,-0.000411029,0.00148193,0.000157424,-1.23601,0.000939884,0.0146279,1931,1359,25.5027,-7.49868
714,-335,25.5056,7.00012,-0.000576889,0.00171882,-0.000201482,0.00173636,-0.000594438,-1.48392,0.00139849,0.0315947,1938,1359,25.5056,-7.00007
721,-335,25.4424,6.40759,0,0,0,0,0,0,0,-1,1945,1359,25.4424,-6.40765
728,-335,20.8126,5.21167,0,0,0,0,0,0,0,-1,1952,1359,20.8127,-5.21172
735,-335,20.2725,5.34729,0,0,0,0,0,0,0,-1,1959,1359,20.2724,-5.34734
742,-335,19.8624,4.72229,0,0,0,0,0,0,0,-1,1966,1359,19.8624,-4.72225
749,-335,20.5887,6.05322,0,0,0,0,0,0,0,-1,1973,1359,20.5887,-6.05322
756,-335,20.7832,6.00452,0,0,0,0,0,0,0,-1,1980,1359,20.7832,-6.00447
763,-335,0,0,0,0,0,0,0,0,0,-1,1987,1359,0,0
770,-335,0,0,0,0,0,0,0,0,0,-1,1994,1359,0,0
777,-335,0,0,0,0,0,0,0,0,0,-1,2001,1359,0,0
784,-335,0,0,0,0,0,0,0,0,0,-1,2008,1359,0,0
791,-335,0,0,0,0,0,0,0,0,0,-1,2015,1359,0,0
798,-335,0,0,0,0,0,0,0,0,0,-1,2022,1359,0,0
805,-335,0,0,0,0,0,0,0,0,0,-1,2029,1359,0,0
812,-335,0,0,0,0,0,0,0,0,0,-1,2036,1359,0,0
-700,-342,0,0,0,0,0,0,0,0,0,-1,524,1366,0,0
-693,-342,0,0,0,0,0,0,0,0,0,-1,531,1366,0,0
-686,-342,0,0,0,0,0,0,0,0,0,-1,538,1366,0,0
-679,-342,0,0,0,0,0,0,0,0,0,-1,545,1366,0,0
-672,-342,0,0,0,0,0,0,0,0,0,-1,552,1366,0,0
-665,-342,0,0,0,0,0,0,0,0,0,-1,559,1366,0,0
-658,-342,0,0,0,0,0,0,0,0,0,-1,566,1366,0,0
-651,-342,0,0,0,0,0,0,0,0,0,-1,573,1366,0,0
-644,-342,0,0,0,0,0,0,0,0,0,-1,580,1366,0,0
-637,-342,-8.67786,-4.58557,0,0,0,0,0,0,0,-1,587,1366,-8.67788,4.5856
-630,-342,-8.60132,2.71777,0,0,0,0,0,0,0,-1,594,1366,-8.60135,-2.71779
-623,-342,-8.41168,0.662476,0,0,0,0,0,0,0,-1,601,1366,-8.41168,-0.662442
-616,-342,-6.625,-1.28015,0,0,0,0,0,0,0,-1,608,1366,-6.62499,1.28011
-609,-342,-7.83154,0.674561,0,0,0,0,0,0,0,-1,615,1366,-7.83155,-0.674598
-602,-342,-9.65765,2.25195,0,0,0,0,0,0,0,-1,622,1366,-9.65767,-2.25192
-595,-342,-9.47687,3.00671,0,0,0,0,0,0,0,-1,629,1366,-9.47686,-3.00668
-588,-342,-9.78467,3.57727,0,0,0,0,0,0,0,-1,636,1366,-9.78468,-3.57723
-581,-342,-13.0884,4.82312,0,0,0,0,0,0,0,-1,643,1366,-13.0884,-4.82313
-574,-342,-13.0102,5.24695,-0.00305767,-0.000952238,-0.00183888,0.000113936,-0.00412385,-1.04537,0.00278799,0.0148267,650,1366,-13.0102,-5.24698
-567,-342,-12.96,5.69604,-0.00205541,-0.000694346,-0.00139468,0.000176979,-0.00292674,-1.01238,0.00201275,0.0168586,657,1366,-12.9599,-5.69607
-560,-342,-12.9915,6.09705,-0.000857419,-0.000511868,-0.00085736,0.000189952,-0.00155924,-0.884827,0.00110825,0.0263527,664,1366,-12.9915,-6.09702
-553,-342,-13.0154,6.52319,0.000537228,-0.000271003,-0.000179546,0.000575319,-0.000309094,-0.20905,0.00051827,0.0294682,671,1366,-13.0154,-6.52315
-546,-342,-13.0464,6.98816,0.00204028,-8.3828e-05,0.000559923,0.00217884,-0.000222387,0.242588,0.00153208,0.0294691,678,1366,-13.0464,-6.98816
-539,-342,-13.0262,7.46045,0.00365344,0.000158008,0.00139555,0.00414225,-0.000330805,0.336912,0.00287812,0.0239042,685,1366,-13.0262,-7.4605
-532,-342,-13.0403,7.90784,0.00545056,0.000429226,0.00235327,0.00638102,-0.000501233,0.376525,0.00443055,0.0176873,692,1366,-13.0403,-7.90784
-525,-342,-13.0036,8.33594,0.00748416,0.000754709,0.00345916,0.00894512,-0.000706246,0.399618,0.00621222,0.0122276,699,1366,-13.0036,-8.33593
-518,-342,-12.9496,8.7926,0.00950037,0.00103001,0.00457738,0.0115013,-0.000970931,0.412105,0.00801082,0.0248833,706,1366,-12.9496,-8.79265
-511,-342,-12.9553,9.25085,0,0,0,0,0,0,0,-1,713,1366,-12.9553,-9.25085
-504,-342,-8.95709,6.5719,0,0,0,0,0,0,0,-1,720,1366,-8.95707,-6.57192
-497,-342,-8.26587,-0.943604,0,0,0,0,0,0,0,-1,727,1366,-8.26586,0.943543
-490,-342,-9.07153,-0.0227051,0,0,0,0,0,0,0,-1,734,1366,-9.07155,0.0227087
-483,-342,-9.87726,0.898071,0,0,0,0,0,0,0,-1,741,1366,-9.87724,-0.898125
-476,-342,-11.6371,-0.736328,0,0,0,0,0,0,0,-1,748,1366,-11.6371,0.736281
-469,-342,-12.6245,-0.987549,0,0,0,0,0,0,0,-1,755,1366,-12.6245,0.987553
-462,-342,-13.0912,-0.533203,0,0,0,0,0,0,0,-1,762,1366,-13.0912,0.533224
-455,-342,-13.7612,0.122925,0,0,0,0,0,0,0,-1,769,1366,-13.7612,-0.122896
-448,-342,-14.5278,0.826904,0,0,0,0,0,0,0,-1,776,1366,-14.5277,-0.826861
-441,-342,0,0,0,0,0,0,0,0,0,-1,783,1366,0,0
-434,-342,0,0,0,0,0,0,0,0,0,-1,790,1366,0,0
-427,-342,0,0,0,0,0,0,0,0,0,-1,797,1366,0,0
-420,-342,0,0,0,0,0,0,0,0,0,-1,804,1366,0,0
-413,-342,0,0,0,0,0,0,0,0,0,-1,811,1366,0,0
-406,-342,0,0,0,0,0,0,0,0,0,-1,818,1366,0,0
-399,-342,0,0,0,0,0,0,0,0,0,-1,825,1366,0,0
-392,-342,0,0,0,0,0,0,0,0,0,-1,832,1366,0,0
-385,-342,0,0,0,0,0,0,0,0,0,-1,839,1366,0,0
-378,-342,0,0,0,0,0,0,0,0,0,-1,846,1366,0,0
-371,-342,0,0,0,0,0,0,0,0,0,-1,853,1366,0,0
-364,-342,0,0,0,0,0,0,0,0,0,-1,860,1366,0,0
-357,-342,0,0,0,0,0,0,0,0,0,-1,867,1366,0,0
-350,-342,0,0,0,0,0,0,0,0,0,-1,874,1366,0,0
-343,-342,0,0,0,0,0,0,0,0,0,-1,881,1366,0,0
-336,-342,0,0,0,0,0,0,0,0,0,-1,888,1366,0,0
-329,-342,0,0,0,0,0,0,0,0,0,-1,895,1366,0,0
-322,-342,0,0,0,0,0,0,0,0,0,-1,902,1366,0,0
-315,-342,0,0,0,0,0,0,0,0,0,-1,909,1366,0,0
-308,-342,0,0,0,0,0,0,0,0,0,-1,916,1366,0,0
-301,-342,0,0,0,0,0,0,0,0,0,-1,923,1366,0,0
-294,-342,0,0,0,0,0,0,0,0,0,-1,930,1366,0,0
-287,-342,0,0,0,0,0,0,0,0,0,-1,937,1366,0,0
-280,-342,0,0,0,0,0,0,0,0,0,-1,944,1366,0,0
-273,-342,0,0,0,0,0,0,0,0,0,-1,951,1366,0,0
-266,-342,0,0,0,0,0,0,0,0,0,-1,958,1366,0,0
-259,-342,0,0,0,0,0,0,0,0,0,-1,965,1366,0,0
-252,-342,0,0,0,0,0,0,0,0,0,-1,972,1366,0,0
-245,-342,0,0,0,0,0,0,0,0,0,-1,979,1366,0,0
-238,-342,0,0,0,0,0,0,0,0,0,-1,986,1366,0,0
-231,-342,0,0,0,0,0,0,0,0,0,-1,993,1366,0,0
-224,-342,0,0,0,0,0,0,0,0,0,-1,1000,1366,0,0
-217,-342,0,0,0,0,0,0,0,0,0,-1,1007,1366,0,0
-210,-342,0,0,0,0,0,0,0,0,0,-1,1014,1366,0,0
-203,-342,0,0,0,0,0,0,0,0,0,-1,1021,1366,0,0
-196,-342,0,0,0,0,0,0,0,0,0,-1,1028,1366,0,0
-189,-342,0,0,0,0,0,0,0,0,0,-1,1035,1366,0,0
-182,-342,0,0,0,0,0,0,0,0,0,-1,1042,1366,0,0
-175,-342,0,0,0,0,0,0,0,0,0,-1,1049,1366,0,0
-168,-342,0,0,0,0,0,0,0,0,0,-1,1056,1366,0,0
-161,-342,0,0,0,0,0,0,0,0,0,-1,1063,1366,0,0
-154,-342,0,0,0,0,0,0,0,0,0,-1,1070,1366,0,0
-147,-342,0,0,0,0,0,0,0,0,0,-1,1077,1366,0,0
-140,-342,0,0,0,0,0,0,0,0,0,-1,1084,1366,0,0
-133,-342,0,0,0,0,0,0,0,0,0,-1,1091,1366,0,0
-126,-342,0,0,0,0,0,0,0,0,0,-1,1098,1366,0,0
-119,-342,0,0,0,0,0,0,0,0,0,-1,1105,1366,0,0
-112,-342,0,0,0,0,0,0,0,0,0,-1,1112,1366,0,0
-105,-342,0,0,0,0,0,0,0,0,0,-1,1119,1366,0,0
-98,-342,0,0,0,0,0,0,0,0,0,-1,1126,1366,0,0
-91,-342,0,0,0,0,0,0,0,0,0,-1,1133,1366,0,0
-84,-342,0,0,0,0,0,0,0,0,0,-1,1140,1366,0,0
-77,-342,0,0,0,0,0,0,0,0,0,-1,1147,1366,0,0
-70,-342,0,0,0,0,0,0,0,0,0,-1,1154,1366,0,0
-63,-342,0,0,0,0,0,0,0,0,0,-1,1161,1366,0,0
-56,-342,0,0,0,0,0,0,0,0,0,-1,1168,1366,0,0
-49,-342,0,0,0,0,0,0,0,0,0,-1,1175,1366,0,0
-42,-342,0,0,0,0,0,0,0,0,0,-1,1182,1366,0,0
-35,-342,0,0,0,0,0,0,0,0,0,-1,1189,1366,0,0
-28,-342,0,0,0,0,0,0,0,0,0,-1,1196,1366,0,0
-21,-342,0,0,0,0,0,0,0,0,0,-1,1203,1366,0,0
-14,-342,0,0,0,0,0,0,0,0,0,-1,1210,1366,0,0
-7,-342,0,0,0,0,0,0,0,0,0,-1,1217,1366,0,0
0,-342,0,0,0,0,0,0,0,0,0,-1,1224,1366,0,0
7,-342,0,0,0,0,0,0,0,0,0,-1,1231,1366,0,0
14,-342,0,0,0,0,0,0,0,0,0,-1,1238,1366,0,0
21,-342,0,0,0,0,0,0,0,0,0,-1,1245,1366,0,0
28,-342,0,0,0,0,0,0,0,0,0,-1,1252,1366,0,0
35,-342,0,0,0,0,0,0,0,0,0,-1,1259,1366,0,0
42,-342,0,0,0,0,0,0,0,0,0,-1,1266,1366,0,0
49,-342,0,0,0,0,0,0,0,0,0,-1,1273,1366,0,0
56,-342,0,0,0,0,0,0,0,0,0,-1,1280,1366,0,0
63,-342,0,0,0,0,0,0,0,0,0,-1,1287,1366,0,0
70,-342,0,0,0,0,0,0,0,0,0,-1,1294,1366,0,0
77,-342,0,0,0,0,0,0,0,0,0,-1,1301,1366,0,0
84,-342,0,0,0,0,0,0,0,0,0,-1,1308,1366,0,0
91,-342,0,0,0,0,0,0,0,0,0,-1,1315,1366,0,0
98,-342,0,0,0,0,0,0,0,0,0,-1,1322,1366,0,0
105,-342,0,0,0,0,0,0,0,0,0,-1,1329,1366,0,0
112,-342,0,0,0,0,0,0,0,0,0,-1,1336,1366,0,0
119,-342,0,0,0,0,0,0,0,0,0,-1,1343,1366,0,0
126,-342,0,0,0,0,0,0,0,0,0,-1,1350,1366,0,0
133,-342,0,0,0,0,0,0,0,0,0,-1,1357,1366,0,0
140,-342,0,0,0,0,0,0,0,0,0,-1,1364,1366,0,0
147,-342,0,0,0,0,0,0,0,0,0,-1,1371,1366,0,0
154,-342,0,0,0,0,0,0,0,0,0,-1,1378,1366,0,0
161,-342,0,0,0,0,0,0,0,0,0,-1,1385,1366,0,0
168,-342,0,0,0,0,0,0,0,0,0,-1,1392,1366,0,0
175,-342,0,0,0,0,0,0,0,0,0,-1,1399,1366,0,0
182,-342,0,0,0,0,0,0,0,0,0,-1,1406,1366,0,0
189,-342,0,0,0,0,0,0,0,0,0,-1,1413,1366,0,0
196,-342,0,0,0,0,0,0,0,0,0,-1,1420,1366,0,0
203,-342,0,0,0,0,0,0,0,0,0,-1,1427,1366,0,0
210,-342,0,0,0,0,0,0,0,0,0,-1,1434,1366,0,0
217,-342,0,0,0,0,0,0,0,0,0,-1,1441,1366,0,0
224,-342,0,0,0,0,0,0,0,0,0,-1,1448,1366,0,0
231,-342,0,0,0,0,0,0,0,0,0,-1,1455,1366,0,0
238,-342,0,0,0,0,0,0,0,0,0,-1,1462,1366,0,0
245,-342,0,0,0,0,0,0,0,0,0,-1,1469,1366,0,0
252,-342,0,0,0,0,0,0,0,0,0,-1,1476,1366,0,0
259,-342,0,0,0,0,0,0,0,0,0,-1,1483,1366,0,0
266,-342,0,0,0,0,0,0,0,0,0,-1,1490,1366,0,0
273,-342,0,0,0,0,0,0,0,0,0,-1,1497,1366,0,0
280,-342,0,0,0,0,0,0,0,0,0,-1,1504,1366,0,0
287,-342,0,0,0,0,0,0,0,0,0,-1,1511,1366,0,0
294,-342,0,0,0,0,0,0,0,0,0,-1,1518,1366,0,0
301,-342,0,0,0,0,0,0,0,0,0,-1,1525,1366,0,0
308,-342,0,0,0,0,0,0,0,0,0,-1,1532,1366,0,0
315,-342,0,0,0,0,0,0,0,0,0,-1,1539,1366,0,0
322,-342,0,0,0,0,0,0,0,0,0,-1,1546,1366,0,0
329,-342,0,0,0,0,0,0,0,0,0,-1,1553,1366,0,0
336,-342,0,0,0,0,0,0,0,0,0,-1,1560,1366,0,0
343,-342,0,0,0,0,0,0,0,0,0,-1,1567,1366,0,0
350,-342,0,0,0,0,0,0,0,0,0,-1,1574,1366,0,0
357,-342,0,0,0,0,0,0,0,0,0,-1,1581,1366,0,0
364,-342,0,0,0,0,0,0,0,0,0,-1,1588,1366,0,0
371,-342,0,0,0,0,0,0,0,0,0,-1,1595,1366,0,0
378,-342,0,0,0,0,0,0,0,0,0,-1,1602,1366,0,0
385,-342,0,0,0,0,0,0,0,0,0,-1,1609,1366,0,0
392,-342,0,0,0,0,0,0,0,0,0,-1,1616,1366,0,0
399,-342,0,0,0,0,0,0,0,0,0,-1,1623,1366,0,0
406,-342,0,0,0,0,0,0,0,0,0,-1,1630,1366,0,0
413,-342,0,0,0,0,0,0,0,0,0,-1,1637,1366,0,0
420,-342,0,0,0,0,0,0,0,0,0,-1,1644,1366,0,0
427,-342,0,0,0,0,0,0,0,0,0,-1,1651,1366,0,0
434,-342,0,0,0,0,0,0,0,0,0,-1,1658,1366,0,0
441,-342,0,0,0,0,0,0,0,0,0,-1,1665,1366,0,0
448,-342,0,0,0,0,0,0,0,0,0,-1,1672,1366,0,0
455,-342,0,0,0,0,0,0,0,0,0,-1,1679,1366,0,0
462,-342,0,0,0,0,0,0,0,0,0,-1,1686,1366,0,0
469,-342,0,0,0,0,0,0,0,0,0,-1,1693,1366,0,0
476,-342,0,0,0,0,0,0,0,0,0,-1,1700,1366,0,0
483,-342,0,0,0,0,0,0,0,0,0,-1,1707,1366,0,0
490,-342,0,0,0,0,0,0,0,0,0,-1,1714,1366,0,0
497,-342,0,0,0,0,0,0,0,0,0,-1,1721,1366,0,0
504,-342,0,0,0,0,0,0,0,0,0,-1,1728,1366,0,0
511,-342,0,0,0,0,0,0,0,0,0,-1,1735,1366,0,0
518,-342,0,0,0,0,0,0,0,0,0,-1,1742,1366,0,0
525,-342,0,0,0,0,0,0,0,0,0,-1,1749,1366,0,0
532,-342,0,0,0,0,0,0,0,0,0,-1,1756,1366,0,0
539,-342,0,0,0,0,0,0,0,0,0,-1,1763,1366,0,0
546,-342,0,0,0,0,0,0,0,0,0,-1,1770,1366,0,0
553,-342,0,0,0,0,0,0,0,0,0,-1,1777,1366,0,0
560,-342,0,0,0,0,0,0,0,0,0,-1,1784,1366,0,0
567,-342,35.4581,5.60889,0,0,0,0,0,0,0,-1,1791,1366,35.4581,-5.6089
574,-342,35.1605,4.25122,0,0,0,0,0,0,0,-1,1798,1366,35.1605,-4.25123
581,-342,34.7644,3.17712,0,0,0,0,0,0,0,-1,1805,1366,34.7644,-3.17708
588,-342,34.6512,2.19006,0,0,0,0,0,0,0,-1,1812,1366,34.6513,-2.19011
595,-342,34.5305,1.15149,0,0,0,0,0,0,0,-1,1819,1366,34.5305,-1.15149
602,-342,31.0818,5.28552,0,0,0,0,0,0,0,-1,1826,1366,31.0818,-5.28547
609,-342,29.3829,5.81714,0,0,0,0,0,0,0,-1,1833,1366,29.3829,-5.81711
616,-342,27.7058,6.33801,0,0,0,0,0,0,0,-1,1840,1366,27.7058,-6.33796
623,-342,26.0299,6.86865,0,0,0,0,0,0,0,-1,1847,1366,26.0299,-6.86863
630,-342,17.3431,0.773071,0,0,0,0,0,0,0,-1,1854,1366,17.3432,-0.773095
637,-342,16.196,6.76172,0,0,0,0,0,0,0,-1,1861,1366,16.1961,-6.76174
644,-342,25.0591,11.0554,0,0,0,0,0,0,0,-1,1868,1366,25.0591,-11.0555
651,-342,25.1875,10.7085,0.000377479,0.0036393,-0.00742661,0.00961197,-0.00559519,-0.893484,0.00888136,0.036642,1875,1366,25.1875,-10.7085
658,-342,25.1458,10.2582,-0.0002061,0.00111791,-0.00307086,0.00359731,-0.0026855,-0.891561,0.00364009,0.0203506,1882,1366,25.1457,-10.2581
665,-342,25.1567,9.82983,-0.000326261,-0.000358098,-0.000532934,0.000190992,-0.000875351,-0.770468,0.000656558,0.0166625,1889,1366,25.1568,-9.82984
672,-342,25.1678,9.45874,-0.000100296,-0.000245662,2.17387e-05,-9.71145e-05,-0.000248844,0.14531,0.000144819,0.0124746,1896,1366,25.1679,-9.45879
679,-342,25.1644,9.08655,0.000321856,-0.000147072,4.70034e-05,0.000326521,-0.000151737,0.0989245,0.000282202,0.012275,1903,1366,25.1644,-9.08652
686,-342,25.1748,8.69751,0.00076899,0.000167024,-0.000123401,0.000793305,0.000142709,-0.194546,0.000488302,0.0107196,1910,1366,25.1748,-8.69748
693,-342,25.1567,8.28796,0.00104594,0.000532381,-0.000288238,0.00117519,0.000403132,-0.421528,0.000689548,0.0115369,1917,1366,25.1568,-8.288
700,-342,25.1232,7.89575,0.00116204,0.0010203,-0.000480253,0.00157662,0.000605712,-0.712142,0.000918365,0.0132655,1924,1366,25.1231,-7.89572
707,-342,25.1113,7.47253,0.000847975,0.00150908,-0.00061425,0.00187607,0.000480983,-1.03224,0.00112519,0.0133539,1931,1366,25.1114,-7.47259
714,-342,25.1644,6.90637,0,0,0,0,0,0,0,-1,1938,1366,25.1644,-6.90635
721,-342,22.4666,6.08679,0,0,0,0,0,0,0,-1,1945,1366,22.4666,-6.08678
728,-342,19.8912,5.26636,0,0,0,0,0,0,0,-1,1952,1366,19.8913,-5.26636
735,-342,19.481,4.41968,0,0,0,0,0,0,0,-1,1959,1366,19.4809,-4.41962
742,-342,19.309,2.66943,0,0,0,0,0,0,0,-1,1966,1366,19.3089,-2.66948
749,-342,21.0934,6.47729,0,0,0,0,0,0,0,-1,1973,1366,21.0934,-6.4773
756,-342,0,0,0,0,0,0,0,0,0,-1,1980,1366,0,0
763,-342,0,0,0,0,0,0,0,0,0,-1,1987,1366,0,0
770,-342,0,0,0,0,0,0,0,0,0,-1,1994,1366,0,0
777,-342,0,0,0,0,0,0,0,0,0,-1,2001,1366,0,0
784,-342,0,0,0,0,0,0,0,0,0,-1,2008,1366,0,0
791,-342,0,0,0,0,0,0,0,0,0,-1,2015,1366,0,0
798,-342,0,0,0,0,0,0,0,0,0,-1,2022,1366,0,0
805,-342,0,0,0,0,0,0,0,0,0,-1,2029,1366,0,0
812,-342,0,0,0,0,0,0,0,0,0,-1,2036,1366,0,0
-700,-349,0,0,0,0,0,0,0,0,0,-1,524,1373,0,0
-693,-349,0,0,0,0,0,0,0,0,0,-1,531,1373,0,0
-686,-349,0,0,0,0,0,0,0,0,0,-1,538,1373,0,0
-679,-349,0,0,0,0,0,0,0,0,0,-1,545,1373,0,0
-672,-349,0,0,0,0,0,0,0,0,0,-1,552,1373,0,0
-665,-349,0,0,0,0,0,0,0,0,0,-1,559,1373,0,0
-658,-349,0,0,0,0,0,0,0,0,0,-1,566,1373,0,0
-651,-349,0,0,0,0,0,0,0,0,0,-1,573,1373,0,0
-644,-349,0,0,0,0,0,0,0,0,0,-1,580,1373,0,0
-637,-349,0,0,0,0,0,0,0,0,0,-1,587,1373,0,0
-630,-349,-7.64117,-5.06177,0,0,0,0,0,0,0,-1,594,1373,-7.64118,5.0618
-623,-349,-8.63507,0.51123,0,0,0,0,0,0,0,-1,601,1373,-8.63505,-0.511275
-616,-349,-5.2066,-0.188232,0,0,0,0,0,0,0,-1,608,1373,-5.20659,0.188211
-609,-349,-7.12073,1.37048,0,0,0,0,0,0,0,-1,615,1373,-7.12072,-1.37044
-602,-349,-9.00623,3.39587,0,0,0,0,0,0,0,-1,622,1373,-9.0062,-3.39591
-595,-349,-9.50568,2.96912,0,0,0,0,0,0,0,-1,629,1373,-9.50569,-2.96906
-588,-349,-8.60046,3.56042,0,0,0,0,0,0,0,-1,636,1373,-8.60046,-3.56047
-581,-349,-12.5211,4.79333,0,0,0,0,0,0,0,-1,643,1373,-12.521,-4.79334
-574,-349,-12.5387,5.19897,-0.00457247,-0.00132684,-0.00289684,0.000370772,-0.00627008,-1.04072,0.00430897,0.0300448,650,1373,-12.5387,-5.199
-567,-349,-12.5804,5.69238,-0.00331134,-0.000979175,-0.00219031,0.000336116,-0.00462663,-1.03001,0.00320235,0.0169589,657,1373,-12.5804,-5.69239
-560,-349,-12.5811,6.12927,-0.00189962,-0.000740413,-0.00148335,0.000272553,-0.00291258,-0.971646,0.00203866,0.0216765,664,1373,-12.5811,-6.12924
-553,-349,-12.6557,6.53967,-0.000330162,-0.000463367,-0.000676412,0.000282918,-0.00107645,-0.736324,0.000828206,0.0283504,671,1373,-12.6557,-6.5397
-546,-349,-12.6636,6.99829,0.00130295,-0.000180724,0.000175704,0.00132347,-0.000201248,0.116282,0.000956479,0.0323458,678,1373,-12.6636,-6.99833
-539,-349,-12.6204,7.45325,0.00299859,0.000128274,0.00107902,0.00335897,-0.000232107,0.322341,0.00232055,0.0256961,685,1373,-12.6204,-7.45329
-532,-349,-12.6141,7.88892,0.00482021,0.000466652,0.00208014,0.0056543,-0.000367439,0.38135,0.00389779,0.0170497,692,1373,-12.6141,-7.88889
-525,-349,-12.5851,8.33508,0.00678749,0.000868354,0.00320021,0.00818687,-0.000531025,0.412223,0.00564325,0.0128444,699,1373,-12.5851,-8.33513
-518,-349,-12.567,8.82922,0.00872953,0.00128285,0.00436381,0.0107426,-0.000730192,0.432214,0.0074171,0.0171599,706,1373,-12.567,-8.82923
-511,-349,-12.219,9.4989,0,0,0,0,0,0,0,-1,713,1373,-12.219,-9.49885
-504,-349,-9.60516,7.88831,0,0,0,0,0,0,0,-1,720,1373,-9.60519,-7.88825
-497,-349,-7.9339,5.58789,0,0,0,0,0,0,0,-1,727,1373,-7.93388,-5.58785
-490,-349,-8.73969,-0.503784,0,0,0,0,0,0,0,-1,734,1373,-8.73966,0.503752
-483,-349,-5.66974,3.7395,0,0,0,0,0,0,0,-1,741,1373,-5.66975,-3.73949
-476,-349,-10.8496,1.15759,0,0,0,0,0,0,0,-1,748,1373,-10.8496,-1.15756
-469,-349,-12.3314,-1.74878,0,0,0,0,0,0,0,-1,755,1373,-12.3314,1.74882
-462,-349,-12.6559,-0.995361,0,0,0,0,0,0,0,-1,762,1373,-12.656,0.995351
-455,-349,-13.2897,-0.234253,0,0,0,0,0,0,0,-1,769,1373,-13.2897,0.234261
-448,-349,-14.045,0.712891,0,0,0,0,0,0,0,-1,776,1373,-14.045,-0.712838
-441,-349,0,0,0,0,0,0,0,0,0,-1,783,1373,0,0
-434,-349,0,0,0,0,0,0,0,0,0,-1,790,1373,0,0
-427,-349,0,0,0,0,0,0,0,0,0,-1,797,1373,0,0
-420,-349,0,0,0,0,0,0,0,0,0,-1,804,1373,0,0
-413,-349,0,0,0,0,0,0,0,0,0,-1,811,1373,0,0
-406,-349,0,0,0,0,0,0,0,0,0,-1,818,1373,0,0
-399,-349,0,0,0,0,0,0,0,0,0,-1,825,1373,0,0
-392,-349,0,0,0,0,0,0,0,0,0,-1,832,1373,0,0
-385,-349,0,0,0,0,0,0,0,0,0,-1,839,1373,0,0
-378,-349,0,0,0,0,0,0,0,0,0,-1,846,1373,0,0
-371,-349,0,0,0,0,0,0,0,0,0,-1,853,1373,0,0
-364,-349,0,0,0,0,0,0,0,0,0,-1,860,1373,0,0
-357,-349,0,0,0,0,0,0,0,0,0,-1,867,1373,0,0
-350,-349,0,0,0,0,0,0,0,0,0,-1,874,1373,0,0
-343,-349,0,0,0,0,0,0,0,0,0,-1,881,1373,0,0
-336,-349,0,0,0,0,0,0,0,0,0,-1,888,1373,0,0
-329,-349,0,0,0,0,0,0,0,0,0,-1,895,1373,0,0
-322,-349,0,0,0,0,0,0,0,0,0,-1,902,1373,0,0
-315,-349,0,0,0,0,0,0,0,0,0,-1,909,1373,0,0
-308,-349,0,0,0,0,0,0,0,0,0,-1,916,1373,0,0
-301,-349,0,0,0,0,0,0,0,0,0,-1,923,1373,0,0
-294,-349,0,0,0,0,0,0,0,0,0,-1,930,1373,0,0
-287,-349,0,0,0,0,0,0,0,0,0,-1,937,1373,0,0
-280,-349,0,0,0,0,0,0,0,0,0,-1,944,1373,0,0
-273,-349,0,0,0,0,0,0,0,0,0,-1,951,1373,0,0
-266,-349,0,0,0,0,0,0,0,0,0,-1,958,1373,0,0
-259,-349,0,0,0,0,0,0,0,0,0,-1,965,1373,0,0
-252,-349,0,0,0,0,0,0,0,0,0,-1,972,1373,0,0
-245,-349,0,0,0,0,0,0,0,0,0,-1,979,1373,0,0
-238,-349,0,0,0,0,0,0,0,0,0,-1,986,1373,0,0
-231,-349,0,0,0,0,0,0,0,0,0,-1,993,1373,0,0
-224,-349,0,0,0,0,0,0,0,0,0,-1,1000,1373,0,0
-217,-349,0,0,0,0,0,0,0,0,0,-1,1007,1373,0,0
-210,-349,0,0,0,0,0,0,0,0,0,-1,1014,1373,0,0
-203,-349,0,0,0,0,0,0,0,0,0,-1,1021,1373,0,0
-196,-349,0,0,0,0,0,0,0,0,0,-1,1028,1373,0,0
-189,-349,0,0,0,0,0,0,0,0,0,-1,1035,1373,0,0
-182,-349,0,0,0,0,0,0,0,0,0,-1,1042,1373,0,0
-175,-349,0,0,0,0,0,0,0,0,0,-1,1049,1373,0,0
-168,-349,0,0,0,0,0,0,0,0,0,-1,1056,1373,0,0
-161,-349,0,0,0,0,0,0,0,0,0,-1,1063,1373,0,0
-154,-349,0,0,0,0,0,0,0,0,0,-1,1070,1373,0,0
-147,-349,0,0,0,0,0,0,0,0,0,-1,1077,1373,0,0
-140,-349,0,0,0,0,0,0,0,0,0,-1,1084,1373,0,0
-133,-349,0,0,0,0,0,0,0,0,0,-1,1091,1373,0,0
-126,-349,0,0,0,0,0,0,0,0,0,-1,1098,1373,0,0
-119,-349,0,0,0,0,0,0,0,0,0,-1,1105,1373,0,0
-112,-349,0,0,0,0,0,0,0,0,0,-1,1112,1373,0,0
-105,-349,0,0,0,0,0,0,0,0,0,-1,1119,1373,0,0
-98,-349,0,0,0,0,0,0,0,0,0,-1,1126,1373,0,0
-91,-349,0,0,0,0,0,0,0,0,0,-1,1133,1373,0,0
-84,-349,0,0,0,0,0,0,0,0,0,-1,1140,1373,0,0
-77,-349,0,0,0,0,0,0,0,0,0,-1,1147,1373,0,0
-70,-349,0,0,0,0,0,0,0,0,0,-1,1154,1373,0,0
-63,-349,0,0,0,0,0,0,0,0,0,-1,1161,1373,0,0
-56,-349,0,0,0,0,0,0,0,0,0,-1,1168,1373,0,0
-49,-349,0,0,0,0,0,0,0,0,0,-1,1175,1373,0,0
-42,-349,0,0,0,0,0,0,0,0,0,-1,1182,1373,0,0
-35,-349,0,0,0,0,0,0,0,0,0,-1,1189,1373,0,0
-28,-349,0,0,0,0,0,0,0,0,0,-1,1196,1373,0,0
-21,-349,0,0,0,0,0,0,0,0,0,-1,1203,1373,0,0
-14,-349,0,0,0,0,0,0,0,0,0,-1,1210,1373,0,0
-7,-349,0,0,0,0,0,0,0,0,0,-1,1217,1373,0,0
0,-349,0,0,0,0,0,0,0,0,0,-1,1224,1373,0,0
7,-349,0,0,0,0,0,0,0,0,0,-1,1231,1373,0,0
14,-349,0,0,0,0,0,0,0,0,0,-1,1238,1373,0,0
21,-349,0,0,0,0,0,0,0,0,0,-1,1245,1373,0,0
28,-349,0,0,0,0,0,0,0,0,0,-1,1252,1373,0,0
35,-349,0,0,0,0,0,0,0,0,0,-1,1259,1373,0,0
42,-349,0,0,0,0,0,0,0,0,0,-1,1266,1373,0,0
49,-349,0,0,0,0,0,0,0,0,0,-1,1273,1373,0,0
56,-349,0,0,0,0,0,0,0,0,0,-1,1280,1373,0,0
63,-349,0,0,0,0,0,0,0,0,0,-1,1287,1373,0,0
70,-349,0,0,0,0,0,0,0,0,0,-1,1294,1373,0,0
77,-349,0,0,0,0,0,0,0,0,0,-1,1301,1373,0,0
84,-349,0,0,0,0,0,0,0,0,0,-1,1308,1373,0,0
91,-349,0,0,0,0,0,0,0,0,0,-1,1315,1373,0,0
98,-349,0,0,0,0,0,0,0,0,0,-1,1322,1373,0,0
105,-349,0,0,0,0,0,0,0,0,0,-1,1329,1373,0,0
112,-349,0,0,0,0,0,0,0,0,0,-1,1336,1373,0,0
119,-349,0,0,0,0,0,0,0,0,0,-1,1343,1373,0,0
126,-349,0,0,0,0,0,0,0,0,0,-1,1350,1373,0,0
133,-349,0,0,0,0,0,0,0,0,0,-1,1357,1373,0,0
140,-349,0,0,0,0,0,0,0,0,0,-1,1364,1373,0,0
147,-349,0,0,0,0,0,0,0,0,0,-1,1371,1373,0,0
154,-349,0,0,0,0,0,0,0,0,0,-1,1378,1373,0,0
161,-349,0,0,0,0,0,0,0,0,0,-1,1385,1373,0,0
168,-349,0,0,0,0,0,0,0,0,0,-1,1392,1373,0,0
175,-349,0,0,0,0,0,0,0,0,0,-1,1399,1373,0,0
182,-349,0,0,0,0,0,0,0,0,0,-1,1406,1373,0,0
189,-349,0,0,0,0,0,0,0,0,0,-1,1413,1373,0,0
196,-349,0,0,0,0,0,0,0,0,0,-1,1420,1373,0,0
203,-349,0,0,0,0,0,0,0,0,0,-1,1427,1373,0,0
210,-349,0,0,0,0,0,0,0,0,0,-1,1434,1373,0,0
217,-349,0,0,0,0,0,0,0,0,0,-1,1441,1373,0,0
224,-349,0,0,0,0,0,0,0,0,0,-1,1448,1373,0,0
231,-349,0,0,0,0,0,0,0,0,0,-1,1455,1373,0,0
238,-349,0,0,0,0,0,0,0,0,0,-1,1462,1373,0,0
245,-349,0,0,0,0,0,0,0,0,0,-1,1469,1373,0,0
252,-349,0,0,0,0,0,0,0,0,0,-1,1476,1373,0,0
259,-349,0,0,0,0,0,0,0,0,0,-1,1483,1373,0,0
266,-349,0,0,0,0,0,0,0,0,0,-1,1490,1373,0,0
273,-349,0,0,0,0,0,0,0,0,0,-1,1497,1373,0,0
280,-349,0,0,0,0,0,0,0,0,0,-1,1504,1373,0,0
287,-349,0,0,0,0,0,0,0,0,0,-1,1511,1373,0,0
294,-349,0,0,0,0,0,0,0,0,0,-1,1518,1373,0,0
301,-349,0,0,0,0,0,0,0,0,0,-1,1525,1373,0,0
308,-349,0,0,0,0,0,0,0,0,0,-1,1532,1373,0,0
315,-349,0,0,0,0,0,0,0,0,0,-1,1539,1373,0,0
322,-349,0,0,0,0,0,0,0,0,0,-1,1546,1373,0,0
329,-349,0,0,0,0,0,0,0,0,0,-1,1553,1373,0,0
336,-349,0,0,0,0,0,0,0,0,0,-1,1560,1373,0,0
343,-349,0,0,0,0,0,0,0,0,0,-1,1567,1373,0,0
350,-349,0,0,0,0,0,0,0,0,0,-1,1574,1373,0,0
357,-349,0,0,0,0,0,0,0,0,0,-1,1581,1373,0,0
364,-349,0,0,0,0,0,0,0,0,0,-1,1588,1373,0,0
371,-349,0,0,0,0,0,0,0,0,0,-1,1595,1373,0,0
378,-349,0,0,0,0,0,0,0,0,0,-1,1602,1373,0,0
385,-349,0,0,0,0,0,0,0,0,0,-1,1609,1373,0,0
392,-349,0,0,0,0,0,0,0,0,0,-1,1616,1373,0,0
399,-349,0,0,0,0,0,0,0,0,0,-1,1623,1373,0,0
406,-349,0,0,0,0,0,0,0,0,0,-1,1630,1373,0,0
413,-349,0,0,0,0,0,0,0,0,0,-1,1637,1373,0,0
420,-349,0,0,0,0,0,0,0,0,0,-1,1644,1373,0,0
427,-349,0,0,0,0,0,0,0,0,0,-1,1651,1373,0,0
434,-349,0,0,0,0,0,0,0,0,0,-1,1658,1373,0,0
441,-349,0,0,0,0,0,0,0,0,0,-1,1665,1373,0,0
448,-349,0,0,0,0,0,0,0,0,0,-1,1672,1373,0,0
455,-349,0,0,0,0,0,0,0,0,0,-1,1679,1373,0,0
462,-349,0,0,0,0,0,0,0,0,0,-1,1686,1373,0,0
469,-349,0,0,0,0,0,0,0,0,0,-1,1693,1373,0,0
476,-349,0,0,0,0,0,0,0,0,0,-1,1700,1373,0,0
483,-349,0,0,0,0,0,0,0,0,0,-1,1707,1373,0,0
490,-349,0,0,0,0,0,0,0,0,0,-1,1714,1373,0,0
497,-349,0,0,0,0,0,0,0,0,0,-1,1721,1373,0,0
504,-349,0,0,0,0,0,0,0,0,0,-1,1728,1373,0,0
511,-349,0,0,0,0,0,0,0,0,0,-1,1735,1373,0,0
518,-349,0,0,0,0,0,0,0,0,0,-1,1742,1373,0,0
525,-349,0,0,0,0,0,0,0,0,0,-1,1749,1373,0,0
532,-349,0,0,0,0,0,0,0,0,0,-1,1756,1373,0,0
539,-349,0,0,0,0,0,0,0,0,0,-1,1763,1373,0,0
546,-349,0,0,0,0,0,0,0,0,0,-1,1770,1373,0,0
553,-349,0,0,0,0,0,0,0,0,0,-1,1777,1373,0,0
560,-349,36.5105,6.17969,0,0,0,0,0,0,0,-1,1784,1373,36.5104,-6.17974
567,-349,36.2422,5.02686,0,0,0,0,0,0,0,-1,1791,1373,36.2422,-5.0268
574,-349,35.9885,3.77087,0,0,0,0,0,0,0,-1,1798,1373,35.9885,-3.77085
581,-349,35.2635,2.67859,0,0,0,0,0,0,0,-1,1805,1373,35.2635,-2.67863
588,-349,34.5067,2.00671,0,0,0,0,0,0,0,-1,1812,1373,34.5067,-2.00673
595,-349,32.3793,4.93115,0,0,0,0,0,0,0,-1,1819,1373,32.3793,-4.9312
602,-349,30.6421,5.56592,0,0,0,0,0,0,0,-1,1826,1373,30.6421,-5.56589
609,-349,28.8674,6.13806,0,0,0,0,0,0,0,-1,1833,1373,28.8674,-6.13809
616,-349,27.1451,6.68274,0,0,0,0,0,0,0,-1,1840,1373,27.1451,-6.6828
623,-349,18.8478,2.75769,0,0,0,0,0,0,0,-1,1847,1373,18.8478,-2.75774
630,-349,15.4948,6.47644,0,0,0,0,0,0,0,-1,1854,1373,15.4947,-6.4765
637,-349,16.5161,6.92639,0,0,0,0,0,0,0,-1,1861,1373,16.5161,-6.92636
644,-349,24.7577,11.4496,0,0,0,0,0,0,0,-1,1868,1373,24.7577,-11.4496
651,-349,24.8796,10.6333,-0.000681156,0.00258457,-0.00468237,0.00591062,-0.00400721,-0.953168,0.0057611,0.0305095,1875,1373,24.8796,-10.6333
658,-349,24.7289,10.2336,-0.000654621,0.000671087,-0.00165892,0.00179468,-0.00177821,-0.975466,0.00206281,0.0261071,1882,1373,24.7289,-10.2336
665,-349,24.7192,9.84106,-0.000321275,-0.000318564,-0.000134402,-0.00018551,-0.000454328,-0.790441,0.000263772,0.0192074,1889,1373,24.7193,-9.84103
672,-349,24.7673,9.47131,0.000233569,-0.000228555,-7.00052e-06,0.000233675,-0.000228661,-0.0151439,0.000266935,0.0137279,1896,1373,24.7674,-9.47133
679,-349,24.7567,9.11304,0.00077193,-6.00779e-05,-9.5518e-05,0.000782755,-7.09029e-05,-0.112848,0.000547005,0.0140704,1903,1373,24.7568,-9.11305
686,-349,24.803,8.73218,0.00124566,0.000207445,-0.000248861,0.00130223,0.000150875,-0.223516,0.000822488,0.0140858,1910,1373,24.8029,-8.73218
693,-349,24.7672,8.30652,0.00159093,0.000546052,-0.000425073,0.00174201,0.000394971,-0.341498,0.00105463,0.0160615,1917,1373,24.7672,-8.30651
700,-349,24.731,7.91003,0.00182868,0.00108341,-0.000693531,0.00224335,0.000668747,-0.538877,0.00132993,0.016951,1924,1373,24.7309,-7.91001
707,-349,24.7876,7.47388,0.00155979,0.00160007,-0.000920451,0.0025006,0.00065926,-0.796338,0.00149653,0.0334415,1931,1373,24.7876,-7.47387
714,-349,24.9327,6.95898,0,0,0,0,0,0,0,-1,1938,1373,24.9328,-6.95897
721,-349,19.6688,5.93604,0,0,0,0,0,0,0,-1,1945,1373,19.6688,-5.93606
728,-349,18.6333,3.73218,0,0,0,0,0,0,0,-1,1952,1373,18.6333,-3.73214
735,-349,18.1918,3.39954,0,0,0,0,0,0,0,-1,1959,1373,18.1918,-3.3995
742,-349,20.7345,2.07483,0,0,0,0,0,0,0,-1,1966,1373,20.7345,-2.07485
749,-349,21.9037,1.45789,0,0,0,0,0,0,0,-1,1973,1373,21.9037,-1.45788
756,-349,0,0,0,0,0,0,0,0,0,-1,1980,1373,0,0
763,-349,0,0,0,0,0,0,0,0,0,-1,1987,1373,0,0
770,-349,0,0,0,0,0,0,0,0,0,-1,1994,1373,0,0
777,-349,0,0,0,0,0,0,0,0,0,-1,2001,1373,0,0
784,-349,0,0,0,0,0,0,0,0,0,-1,2008,1373,0,0
791,-349,0,0,0,0,0,0,0,0,0,-1,2015,1373,0,0
798,-349,0,0,0,0,0,0,0,0,0,-1,2022,1373,0,0
805,-349,0,0,0,0,0,0,0,0,0,-1,2029,1373,0,0
812,-349,0,0,0,0,0,0,0,0,0,-1,2036,1373,0,0
-700,-356,0,0,0,0,0,0,0,0,0,-1,524,1380,0,0
-693,-356,0,0,0,0,0,0,0,0,0,-1,531,1380,0,0
-686,-356,0,0,0,0,0,0,0,0,0,-1,538,1380,0,0
-679,-356,0,0,0,0,0,0,0,0,0,-1,545,1380,0,0
-672,-356,0,0,0,0,0,0,0,0,0,-1,552,1380,0,0
-665,-356,0,0,0,0,0,0,0,0,0,-1,559,1380,0,0
-658,-356,0,0,0,0,0,0,0,0,0,-1,566,1380,0,0
-651,-356,0,0,0,0,0,0,0,0,0,-1,573,1380,0,0
-644,-356,0,0,0,0,0,0,0,0,0,-1,580,1380,0,0
-637,-356,0,0,0,0,0,0,0,0,0,-1,587,1380,0,0
-630,-356,-8.23126,-5.01917,0,0,0,0,0,0,0,-1,594,1380,-8.23124,5.0192
-623,-356,-0.263855,-0.675781,0,0,0,0,0,0,0,-1,601,1380,-0.263835,0.675841
-616,-356,-8.26532,-3.43945,0,0,0,0,0,0,0,-1,608,1380,-8.2653,3.43948
-609,-356,-4.88483,0.734497,0,0,0,0,0,0,0,-1,615,1380,-4.88485,-0.734532
-602,-356,-9.06635,2.4021,0,0,0,0,0,0,0,-1,622,1380,-9.06634,-2.40206
-595,-356,-8.45703,3.61853,0,0,0,0,0,0,0,-1,629,1380,-8.45706,-3.61848
-588,-356,-9.31738,4.14258,0,0,0,0,0,0,0,-1,636,1380,-9.31736,-4.14255
-581,-356,-12.038,5.14075,0,0,0,0,0,0,0,-1,643,1380,-12.038,-5.14073
-574,-356,-11.8842,5.42017,-0.00679901,-0.00176243,-0.00396998,0.000420614,-0.00898205,-1.06804,0.00613305,0.0416182,650,1380,-11.8842,-5.42015
-567,-356,-12.1409,5.66663,-0.00495168,-0.00125613,-0.00296647,0.000390981,-0.00659879,-1.06394,0.00453514,0.0175937,657,1380,-12.1409,-5.66658
-560,-356,-12.0966,6.13501,-0.00316787,-0.000935644,-0.00209254,0.000319835,-0.00442334,-1.03039,0.00306108,0.0175741,664,1380,-12.0966,-6.13496
-553,-356,-12.1693,6.59546,-0.00132817,-0.000587213,-0.00116493,0.000264732,-0.00218011,-0.939353,0.00154921,0.020784,671,1380,-12.1693,-6.5955
-546,-356,-12.2165,7.02454,0.000469561,-0.000252228,-0.00023092,0.000537116,-0.000319783,-0.284605,0.000500007,0.0258937,678,1380,-12.2165,-7.02455
-539,-356,-12.171,7.45325,0.00224964,9.96335e-05,0.000720857,0.00246896,-0.000119684,0.295347,0.00168728,0.0183298,685,1380,-12.171,-7.45328
-532,-356,-12.1819,7.88879,0.00406851,0.000481836,0.00173921,0.00477335,-0.000223008,0.385038,0.00325911,0.0151727,692,1380,-12.1819,-7.88877
-525,-356,-12.1811,8.32703,0.00593799,0.000874791,0.00282284,0.00719815,-0.000385364,0.419868,0.00493224,0.0121117,699,1380,-12.1811,-8.32708
-518,-356,-12.1495,8.80444,0.00776411,0.00131821,0.00395879,0.009646,-0.000563687,0.443751,0.00662656,0.0114098,706,1380,-12.1495,-8.80448
-511,-356,-11.9417,9.33826,0.00962455,0.00184207,0.00521508,0.0122401,-0.000773517,0.464881,0.00842977,0.0401887,713,1380,-11.9417,-9.33831
-504,-356,-11.7304,9.97021,0,0,0,0,0,0,0,-1,720,1380,-11.7304,-9.97027
-497,-356,-5.68604,4.96387,0,0,0,0,0,0,0,-1,727,1380,-5.68605,-4.96385
-490,-356,-7.95288,5.5625,0,0,0,0,0,0,0,-1,734,1380,-7.95285,-5.56246
-483,-356,-7.2627,4.07446,0,0,0,0,0,0,0,-1,741,1380,-7.2627,-4.07441
-476,-356,-5.1936,4.16016,0,0,0,0,0,0,0,-1,748,1380,-5.1936,-4.16012
-469,-356,-10.0883,0.536011,0,0,0,0,0,0,0,-1,755,1380,-10.0883,-0.535989
-462,-356,-12.3481,-0.215698,0,0,0,0,0,0,0,-1,762,1380,-12.3481,0.215641
-455,-356,-13.1367,-0.264648,0,0,0,0,0,0,0,-1,769,1380,-13.1367,0.264647
-448,-356,-13.9116,-0.310181,0,0,0,0,0,0,0,-1,776,1380,-13.9115,0.310207
-441,-356,-13.1602,3.05603,0,0,0,0,0,0,0,-1,783,1380,-13.1602,-3.05609
-434,-356,0,0,0,0,0,0,0,0,0,-1,790,1380,0,0
-427,-356,0,0,0,0,0,0,0,0,0,-1,797,1380,0,0
-420,-356,0,0,0,0,0,0,0,0,0,-1,804,1380,0,0
-413,-356,0,0,0,0,0,0,0,0,0,-1,811,1380,0,0
-406,-356,0,0,0,0,0,0,0,0,0,-1,818,1380,0,0
-399,-356,0,0,0,0,0,0,0,0,0,-1,825,1380,0,0
-392,-356,0,0,0,0,0,0,0,0,0,-1,832,1380,0,0
-385,-356,0,0,0,0,0,0,0,0,0,-1,839,1380,0,0
-378,-356,0,0,0,0,0,0,0,0,0,-1,846,1380,0,0
-371,-356,0,0,0,0,0,0,0,0,0,-1,853,1380,0,0
-364,-356,0,0,0,0,0,0,0,0,0,-1,860,1380,0,0
-357,-356,0,0,0,0,0,0,0,0,0,-1,867,1380,0,0
-350,-356,0,0,0,0,0,0,0,0,0,-1,874,1380,0,0
-343,-356,0,0,0,0,0,0,0,0,0,-1,881,1380,0,0
-336,-356,0,0,0,0,0,0,0,0,0,-1,888,1380,0,0
-329,-356,0,0,0,0,0,0,0,0,0,-1,895,1380,0,0
-322,-356,0,0,0,0,0,0,0,0,0,-1,902,1380,0,0
-315,-356,0,0,0,0,0,0,0,0,0,-1,909,1380,0,0
-308,-356,0,0,0,0,0,0,0,0,0,-1,916,1380,0,0
-301,-356,0,0,0,0,0,0,0,0,0,-1,923,1380,0,0
-294,-356,0,0,0,0,0,0,0,0,0,-1,930,1380,0,0
-287,-356,0,0,0,0,0,0,0,0,0,-1,937,1380,0,0
-280,-356,0,0,0,0,0,0,0,0,0,-1,944,1380,0,0
-273,-356,0,0,0,0,0,0,0,0,0,-1,951,1380,0,0
-266,-356,0,0,0,0,0,0,0,0,0,-1,958,1380,0,0
-259,-356,0,0,0,0,0,0,0,0,0,-1,965,1380,0,0
-252,-356,0,0,0,0,0,0,0,0,0,-1,972,1380,0,0
-245,-356,0,0,0,0,0,0,0,0,0,-1,979,1380,0,0
-238,-356,0,0,0,0,0,0,0,0,0,-1,986,1380,0,0
-231,-356,0,0,0,0,0,0,0,0,0,-1,993,1380,0,0
-224,-356,0,0,0,0,0,0,0,0,0,-1,1000,1380,0,0
-217,-356,0,0,0,0,0,0,0,0,0,-1,1007,1380,0,0
-210,-356,0,0,0,0,0,0,0,0,0,-1,1014,1380,0,0
-203,-356,0,0,0,0,0,0,0,0,0,-1,1021,1380,0,0
-196,-356,0,0,0,0,0,0,0,0,0,-1,1028,1380,0,0
-189,-356,0,0,0,0,0,0,0,0,0,-1,1035,1380,0,0
-182,-356,0,0,0,0,0,0,0,0,0,-1,1042,1380,0,0
-175,-356,0,0,0,0,0,0,0,0,0,-1,1049,1380,0,0
-168,-356,0,0,0,0,0,0,0,0,0,-1,1056,1380,0,0
-161,-356,0,0,0,0,0,0,0,0,0,-1,1063,1380,0,0
-154,-356,0,0,0,0,0,0,0,0,0,-1,1070,1380,0,0
-147,-356,0,0,0,0,0,0,0,0,0,-1,1077,1380,0,0
-140,-356,0,0,0,0,0,0,0,0,0,-1,1084,1380,0,0
-133,-356,0,0,0,0,0,0,0,0,0,-1,1091,1380,0,0
-126,-356,0,0,0,0,0,0,0,0,0,-1,1098,1380,0,0
-119,-356,0,0,0,0,0,0,0,0,0,-1,1105,1380,0,0
-112,-356,0,0,0,0,0,0,0,0,0,-1,1112,1380,0,0
-105,-356,0,0,0,0,0,0,0,0,0,-1,1119,1380,0,0
-98,-356,0,0,0,0,0,0,0,0,0,-1,1126,1380,0,0
-91,-356,0,0,0,0,0,0,0,0,0,-1,1133,1380,0,0
-84,-356,0,0,0,0,0,0,0,0,0,-1,1140,1380,0,0
-77,-356,0,0,0,0,0,0,0,0,0,-1,1147,1380,0,0
-70,-356,0,0,0,0,0,0,0,0,0,-1,1154,1380,0,0
-63,-356,0,0,0,0,0,0,0,0,0,-1,1161,1380,0,0
-56,-356,0,0,0,0,0,0,0,0,0,-1,1168,1380,0,0
-49,-356,0,0,0,0,0,0,0,0,0,-1,1175,1380,0,0
-42,-356,0,0,0,0,0,0,0,0,0,-1,1182,1380,0,0
-35,-356,0,0,0,0,0,0,0,0,0,-1,1189,1380,0,0
-28,-356,0,0,0,0,0,0,0,0,0,-1,1196,1380,0,0
-21,-356,0,0,0,0,0,0,0,0,0,-1,1203,1380,0,0
-14,-356,0,0,0,0,0,0,0,0,0,-1,1210,1380,0,0
-7,-356,0,0,0,0,0,0,0,0,0,-1,1217,1380,0,0
0,-356,0,0,0,0,0,0,0,0,0,-1,1224,1380,0,0
7,-356,0,0,0,0,0,0,0,0,0,-1,1231,1380,0,0
14,-356,0,0,0,0,0,0,0,0,0,-1,1238,1380,0,0
21,-356,0,0,0,0,0,0,0,0,0,-1,1245,1380,0,0
28,-356,0,0,0,0,0,0,0,0,0,-1,1252,1380,0,0
35,-356,0,0,0,0,0,0,0,0,0,-1,1259,1380,0,0
42,-356,0,0,0,0,0,0,0,0,0,-1,1266,1380,0,0
49,-356,0,0,0,0,0,0,0,0,0,-1,1273,1380,0,0
56,-356,0,0,0,0,0,0,0,0,0,-1,1280,1380,0,0
63,-356,0,0,0,0,0,0,0,0,0,-1,1287,1380,0,0
70,-356,0,0,0,0,0,0,0,0,0,-1,1294,1380,0,0
77,-356,0,0,0,0,0,0,0,0,0,-1,1301,1380,0,0
84,-356,0,0,0,0,0,0,0,0,0,-1,1308,1380,0,0
91,-356,0,0,0,0,0,0,0,0,0,-1,1315,1380,0,0
98,-356,0,0,0,0,0,0,0,0,0,-1,1322,1380,0,0
105,-356,0,0,0,0,0,0,0,0,0,-1,1329,1380,0,0
112,-356,0,0,0,0,0,0,0,0,0,-1,1336,1380,0,0
119,-356,0,0,0,0,0,0,0,0,0,-1,1343,1380,0,0
126,-356,0,0,0,0,0,0,0,0,0,-1,1350,1380,0,0
133,-356,0,0,0,0,0,0,0,0,0,-1,1357,1380,0,0
140,-356,0,0,0,0,0,0,0,0,0,-1,1364,1380,0,0
147,-356,0,0,0,0,0,0,0,0,0,-1,1371,1380,0,0
154,-356,0,0,0,0,0,0,0,0,0,-1,1378,1380,0,0
161,-356,0,0,0,0,0,0,0,0,0,-1,1385,1380,0,0
168,-356,0,0,0,0,0,0,0,0,0,-1,1392,1380,0,0
175,-356,0,0,0,0,0,0,0,0,0,-1,1399,1380,0,0
182,-356,0,0,0,0,0,0,0,0,0,-1,1406,1380,0,0
189,-356,0,0,0,0,0,0,0,0,0,-1,1413,1380,0,0
196,-356,0,0,0,0,0,0,0,0,0,-1,1420,1380,0,0
203,-356,0,0,0,0,0,0,0,0,0,-1,1427,1380,0,0
210,-356,0,0,0,0,0,0,0,0,0,-1,1434,1380,0,0
217,-356,0,0,0,0,0,0,0,0,0,-1,1441,1380,0,0
224,-356,0,0,0,0,0,0,0,0,0,-1,1448,1380,0,0
231,-356,0,0,0,0,0,0,0,0,0,-1,1455,1380,0,0
238,-356,0,0,0,0,0,0,0,0,0,-1,1462,1380,0,0
245,-356,0,0,0,0,0,0,0,0,0,-1,1469,1380,0,0
252,-356,0,0,0,0,0,0,0,0,0,-1,1476,1380,0,0
259,-356,0,0,0,0,0,0,0,0,0,-1,1483,1380,0,0
266,-356,0,0,0,0,0,0,0,0,0,-1,1490,1380,0,0
273,-356,0,0,0,0,0,0,0,0,0,-1,1497,1380,0,0
280,-356,0,0,0,0,0,0,0,0,0,-1,1504,1380,0,0
287,-356,0,0,0,0,0,0,0,0,0,-1,1511,1380,0,0
294,-356,0,0,0,0,0,0,0,0,0,-1,1518,1380,0,0
301,-356,0,0,0,0,0,0,0,0,0,-1,1525,1380,0,0
308,-356,0,0,0,0,0,0,0,0,0,-1,1532,1380,0,0
315,-356,0,0,0,0,0,0,0,0,0,-1,1539,1380,0,0
322,-356,0,0,0,0,0,0,0,0,0,-1,1546,1380,0,0
329,-356,0,0,0,0,0,0,0,0,0,-1,1553,1380,0,0
336,-356,0,0,0,0,0,0,0,0,0,-1,1560,1380,0,0
343,-356,0,0,0,0,0,0,0,0,0,-1,1567,1380,0,0
350,-356,0,0,0,0,0,0,0,0,0,-1,1574,1380,0,0
357,-356,0,0,0,0,0,0,0,0,0,-1,1581,1380,0,0
364,-356,0,0,0,0,0,0,0,0,0,-1,1588,1380,0,0
371,-356,0,0,0,0,0,0,0,0,0,-1,1595,1380,0,0
378,-356,0,0,0,0,0,0,0,0,0,-1,1602,1380,0,0
385,-356,0,0,0,0,0,0,0,0,0,-1,1609,1380,0,0
392,-356,0,0,0,0,0,0,0,0,0,-1,1616,1380,0,0
399,-356,0,0,0,0,0,0,0,0,0,-1,1623,1380,0,0
406,-356,0,0,0,0,0,0,0,0,0,-1,1630,1380,0,0
413,-356,0,0,0,0,0,0,0,0,0,-1,1637,1380,0,0
420,-356,0,0,0,0,0,0,0,0,0,-1,1644,1380,0,0
427,-356,0,0,0,0,0,0,0,0,0,-1,1651,1380,0,0
434,-356,0,0,0,0,0,0,0,0,0,-1,1658,1380,0,0
441,-356,0,0,0,0,0,0,0,0,0,-1,1665,1380,0,0
448,-356,0,0,0,0,0,0,0,0,0,-1,1672,1380,0,0
455,-356,0,0,0,0,0,0,0,0,0,-1,1679,1380,0,0
462,-356,0,0,0,0,0,0,0,0,0,-1,1686,1380,0,0
469,-356,0,0,0,0,0,0,0,0,0,-1,1693,1380,0,0
476,-356,0,0,0,0,0,0,0,0,0,-1,1700,1380,0,0
483,-356,0,0,0,0,0,0,0,0,0,-1,1707,1380,0,0
490,-356,0,0,0,0,0,0,0,0,0,-1,1714,1380,0,0
497,-356,0,0,0,0,0,0,0,0,0,-1,1721,1380,0,0
504,-356,0,0,0,0,0,0,0,0,0,-1,1728,1380,0,0
511,-356,0,0,0,0,0,0,0,0,0,-1,1735,1380,0,0
518,-356,0,0,0,0,0,0,0,0,0,-1,1742,1380,0,0
525,-356,0,0,0,0,0,0,0,0,0,-1,1749,1380,0,0
532,-356,0,0,0,0,0,0,0,0,0,-1,1756,1380,0,0
539,-356,0,0,0,0,0,0,0,0,0,-1,1763,1380,0,0
546,-356,0,0,0,0,0,0,0,0,0,-1,1770,1380,0,0
553,-356,0,0,0,0,0,0,0,0,0,-1,1777,1380,0,0
560,-356,36.9399,5.42041,0,0,0,0,0,0,0,-1,1784,1380,36.9399,-5.4204
567,-356,36.7563,4.271,0,0,0,0,0,0,0,-1,1791,1380,36.7564,-4.27096
574,-356,36.4429,3.24304,0,0,0,0,0,0,0,-1,1798,1380,36.4429,-3.24309
581,-356,35.8042,2.13818,0,0,0,0,0,0,0,-1,1805,1380,35.8042,-2.13823
588,-356,32.496,1.32678,0,0,0,0,0,0,0,-1,1812,1380,32.496,-1.32676
595,-356,32.0834,5.86084,0,0,0,0,0,0,0,-1,1819,1380,32.0834,-5.86079
602,-356,30.1604,6.07104,0,0,0,0,0,0,0,-1,1826,1380,30.1604,-6.07104
609,-356,28.3435,6.48901,0,0,0,0,0,0,0,-1,1833,1380,28.3435,-6.48899
616,-356,26.9358,6.80872,0,0,0,0,0,0,0,-1,1840,1380,26.9358,-6.80877
623,-356,16.1803,1.07532,0,0,0,0,0,0,0,-1,1847,1380,16.1803,-1.07529
630,-356,16.4138,6.91553,0,0,0,0,0,0,0,-1,1854,1380,16.4138,-6.9155
637,-356,24.3005,12.0266,0,0,0,0,0,0,0,-1,1861,1380,24.3006,-12.0267
644,-356,24.3489,11.2753,-0.000333543,0.0035446,-0.00529693,0.00724622,-0.00403516,-0.96086,0.00660067,0.0487847,1868,1380,24.3489,-11.2753
651,-356,24.4404,10.6532,-0.000501762,0.00171794,-0.00275036,0.00357394,-0.00235776,-0.977171,0.00344858,0.0169834,1875,1380,24.4405,-10.6532
658,-356,24.3695,10.2133,-0.00031618,0.000425934,-0.000897858,0.00102639,-0.000916633,-0.981345,0.0011224,0.014481,1882,1380,24.3695,-10.2132
665,-356,24.3635,9.85083,9.81535e-05,-0.000133978,-0.000164743,0.000183611,-0.000219436,-0.47852,0.000233005,0.0133888,1889,1380,24.3635,-9.8508
672,-356,24.3615,9.51636,0.000597078,-0.000116953,-0.000114664,0.000615039,-0.000134915,-0.155384,0.000461617,0.0139986,1896,1380,24.3615,-9.5164
679,-356,24.3727,9.12024,0.00109256,-6.68106e-06,-0.000161193,0.00111571,-2.9831e-05,-0.142641,0.000753945,0.0166145,1903,1380,24.3727,-9.1203
686,-356,24.3829,8.71655,0.00157626,0.000201092,-0.000288913,0.00163449,0.00014286,-0.198893,0.0010453,0.0170986,1910,1380,24.383,-8.71658
693,-356,24.3787,8.3186,0.0019902,0.0005051,-0.000471173,0.00212707,0.000368228,-0.282713,0.00131264,0.0147252,1917,1380,24.3787,-8.31866
700,-356,24.3708,7.92053,0.00238711,0.00109834,-0.000816888,0.00278318,0.000702275,-0.451452,0.00167129,0.0212514,1924,1380,24.3708,-7.92058
707,-356,24.4823,7.32214,0,0,0,0,0,0,0,-1,1931,1380,24.4823,-7.32215
714,-356,19.6907,5.82129,0,0,0,0,0,0,0,-1,1938,1380,19.6907,-5.82132
721,-356,17.2948,4.1958,0,0,0,0,0,0,0,-1,1945,1380,17.2948,-4.19584
728,-356,19.1846,2.31519,0,0,0,0,0,0,0,-1,1952,1380,19.1846,-2.31514
735,-356,20.0731,2.50842,0,0,0,0,0,0,0,-1,1959,1380,20.0731,-2.50844
742,-356,21.0111,2.43762,0,0,0,0,0,0,0,-1,1966,1380,21.0112,-2.43762
749,-356,22.1411,1.83276,0,0,0,0,0,0,0,-1,1973,1380,22.1411,-1.83275
756,-356,0,0,0,0,0,0,0,0,0,-1,1980,1380,0,0
763,-356,0,0,0,0,0,0,0,0,0,-1,1987,1380,0,0
770,-356,0,0,0,0,0,0,0,0,0,-1,1994,1380,0,0
777,-356,0,0,0,0,0,0,0,0,0,-1,2001,1380,0,0
784,-356,0,0,0,0,0,0,0,0,0,-1,2008,1380,0,0
791,-356,0,0,0,0,0,0,0,0,0,-1,2015,1380,0,0
798,-356,0,0,0,0,0,0,0,0,0,-1,2022,1380,0,0
805,-356,0,0,0,0,0,0,0,0,0,-1,2029,1380,0,0
812,-356,0,0,0,0,0,0,0,0,0,-1,2036,1380,0,0
-700,-363,0,0,0,0,0,0,0,0,0,-1,524,1387,0,0
-693,-363,0,0,0,0,0,0,0,0,0,-1,531,1387,0,0
-686,-363,0,0,0,0,0,0,0,0,0,-1,538,1387,0,0
-679,-363,0,0,0,0,0,0,0,0,0,-1,545,1387,0,0
-672,-363,0,0,0,0,0,0,0,0,0,-1,552,1387,0,0
-665,-363,0,0,0,0,0,0,0,0,0,-1,559,1387,0,0
-658,-363,0,0,0,0,0,0,0,0,0,-1,566,1387,0,0
-651,-363,0,0,0,0,0,0,0,0,0,-1,573,1387,0,0
-644,-363,0,0,0,0,0,0,0,0,0,-1,580,1387,0,0
-637,-363,0,0,0,0,0,0,0,0,0,-1,587,1387,0,0
-630,-363,0,0,0,0,0,0,0,0,0,-1,594,1387,0,0
-623,-363,-9.67566,-5.91846,0,0,0,0,0,0,0,-1,601,1387,-9.67563,5.91847
-616,-363,-9.02985,-2.98083,0,0,0,0,0,0,0,-1,608,1387,-9.02987,2.98079
-609,-363,-4.90265,0.195679,0,0,0,0,0,0,0,-1,615,1387,-4.90263,-0.195721
-602,-363,-9.65009,3.5321,0,0,0,0,0,0,0,-1,622,1387,-9.65007,-3.53211
-595,-363,-8.00256,3.48853,0,0,0,0,0,0,0,-1,629,1387,-8.00256,-3.48855
-588,-363,-9.78369,4.58679,0,0,0,0,0,0,0,-1,636,1387,-9.78372,-4.58682
-581,-363,-10.1558,5.11975,0,0,0,0,0,0,0,-1,643,1387,-10.1558,-5.11969
-574,-363,-11.4716,5.56921,0,0,0,0,0,0,0,-1,650,1387,-11.4716,-5.56926
-567,-363,-11.692,5.72754,-0.0067286,-0.00161114,-0.00373469,0.00035727,-0.00869701,-1.08573,0.00592069,0.0329248,657,1387,-11.692,-5.7276
-560,-363,-11.6741,6.10706,-0.00452183,-0.00119295,-0.00269306,0.000308514,-0.00602329,-1.06219,0.00412222,0.0129871,664,1387,-11.6741,-6.10707
-553,-363,-11.6847,6.58264,-0.00239832,-0.000765769,-0.0016603,0.000268064,-0.00343215,-1.01387,0.00238249,0.0126643,671,1387,-11.6847,-6.58269
-546,-363,-11.6976,7.02002,-0.000438227,-0.000373904,-0.00066181,0.000256525,-0.00106866,-0.809677,0.000811575,0.0141849,678,1387,-11.6976,-7.01999
-539,-363,-11.6761,7.45142,0.00141794,2.58987e-05,0.000320989,0.00148839,-4.45524e-05,0.216055,0.00100744,0.0165768,685,1387,-11.6761,-7.45136
-532,-363,-11.7156,7.90784,0.00323896,0.000459015,0.00134692,0.0037845,-8.65252e-05,0.384834,0.00255233,0.0130122,692,1387,-11.7156,-7.90788
-525,-363,-11.7289,8.3418,0.00502585,0.000880354,0.00240565,0.00612854,-0.000222337,0.429798,0.00416179,0.0112419,699,1387,-11.7289,-8.34179
-518,-363,-11.7117,8.78516,0.00671138,0.00134605,0.00348871,0.0084296,-0.000372172,0.457636,0.00574781,0.00973928,706,1387,-11.7116,-8.78521
-511,-363,-11.6517,9.27002,0.00837104,0.00187458,0.00466017,0.0108033,-0.0005577,0.481037,0.00739513,0.0214404,713,1387,-11.6518,-9.27003
-504,-363,-11.5626,9.7937,0,0,0,0,0,0,0,-1,720,1387,-11.5626,-9.79372
-497,-363,-7.18842,7.29944,0,0,0,0,0,0,0,-1,727,1387,-7.18839,-7.29945
-490,-363,-5.42413,4.6958,0,0,0,0,0,0,0,-1,734,1387,-5.42412,-4.69583
-483,-363,-6.28375,4.1394,0,0,0,0,0,0,0,-1,741,1387,-6.28374,-4.13944
-476,-363,-5.83807,4.31018,0,0,0,0,0,0,0,-1,748,1387,-5.8381,-4.31013
-469,-363,-10.7125,0.697754,0,0,0,0,0,0,0,-1,755,1387,-10.7125,-0.697811
-462,-363,-9.55951,-0.0830078,0,0,0,0,0,0,0,-1,762,1387,-9.55949,0.0830163
-455,-363,-13.1008,-0.290894,0,0,0,0,0,0,0,-1,769,1387,-13.1008,0.290921
-448,-363,-11.7324,2.46606,0,0,0,0,0,0,0,-1,776,1387,-11.7324,-2.46605
-441,-363,-12.4464,2.5354,0,0,0,0,0,0,0,-1,783,1387,-12.4463,-2.53537
-434,-363,-13.6918,2.14661,0,0,0,0,0,0,0,-1,790,1387,-13.6918,-2.14662
-427,-363,0,0,0,0,0,0,0,0,0,-1,797,1387,0,0
-420,-363,0,0,0,0,0,0,0,0,0,-1,804,1387,0,0
-413,-363,0,0,0,0,0,0,0,0,0,-1,811,1387,0,0
-406,-363,0,0,0,0,0,0,0,0,0,-1,818,1387,0,0
-399,-363,0,0,0,0,0,0,0,0,0,-1,825,1387,0,0
-392,-363,0,0,0,0,0,0,0,0,0,-1,832,1387,0,0
-385,-363,0,0,0,0,0,0,0,0,0,-1,839,1387,0,0
-378,-363,0,0,0,0,0,0,0,0,0,-1,846,1387,0,0
-371,-363,0,0,0,0,0,0,0,0,0,-1,853,1387,0,0
-364,-363,0,0,0,0,0,0,0,0,0,-1,860,1387,0,0
-357,-363,0,0,0,0,0,0,0,0,0,-1,867,1387,0,0
-350,-363,0,0,0,0,0,0,0,0,0,-1,874,1387,0,0
-343,-363,0,0,0,0,0,0,0,0,0,-1,881,1387,0,0
-336,-363,0,0,0,0,0,0,0,0,0,-1,888,1387,0,0
-329,-363,0,0,0,0,0,0,0,0,0,-1,895,1387,0,0
-322,-363,0,0,0,0,0,0,0,0,0,-1,902,1387,0,0
-315,-363,0,0,0,0,0,0,0,0,0,-1,909,1387,0,0
-308,-363,0,0,0,0,0,0,0,0,0,-1,916,1387,0,0
-301,-363,0,0,0,0,0,0,0,0,0,-1,923,1387,0,0
-294,-363,0,0,0,0,0,0,0,0,0,-1,930,1387,0,0
-287,-363,0,0,0,0,0,0,0,0,0,-1,937,1387,0,0
-280,-363,0,0,0,0,0,0,0,0,0,-1,944,1387,0,0
-273,-363,0,0,0,0,0,0,0,0,0,-1,951,1387,0,0
-266,-363,0,0,0,0,0,0,0,0,0,-1,958,1387,0,0
-259,-363,0,0,0,0,0,0,0,0,0,-1,965,1387,0,0
-252,-363,0,0,0,0,0,0,0,0,0,-1,972,1387,0,0
-245,-363,0,0,0,0,0,0,0,0,0,-1,979,1387,0,0
-238,-363,0,0,0,0,0,0,0,0,0,-1,986,1387,0,0
-231,-363,0,0,0,0,0,0,0,0,0,-1,993,1387,0,0
-224,-363,0,0,0,0,0,0,0,0,0,-1,1000,1387,0,0
-217,-363,0,0,0,0,0,0,0,0,0,-1,1007,1387,0,0
-210,-363,0,0,0,0,0,0,0,0,0,-1,1014,1387,0,0
-203,-363,0,0,0,0,0,0,0,0,0,-1,1021,1387,0,0
-196,-363,0,0,0,0,0,0,0,0,0,-1,1028,1387,0,0
-189,-363,0,0,0,0,0,0,0,0,0,-1,1035,1387,0,0
-182,-363,0,0,0,0,0,0,0,0,0,-1,1042,1387,0,0
-175,-363,0,0,0,0,0,0,0,0,0,-1,1049,1387,0,0
-168,-363,0,0,0,0,0,0,0,0,0,-1,1056,1387,0,0
-161,-363,0,0,0,0,0,0,0,0,0,-1,1063,1387,0,0
-154,-363,0,0,0,0,0,0,0,0,0,-1,1070,1387,0,0
-147,-363,0,0,0,0,0,0,0,0,0,-1,1077,1387,0,0
-140,-363,0,0,0,0,0,0,0,0,0,-1,1084,1387,0,0
-133,-363,0,0,0,0,0,0,0,0,0,-1,1091,1387,0,0
-126,-363,0,0,0,0,0,0,0,0,0,-1,1098,1387,0,0
-119,-363,0,0,0,0,0,0,0,0,0,-1,1105,1387,0,0
-112,-363,0,0,0,0,0,0,0,0,0,-1,1112,1387,0,0
-105,-363,0,0,0,0,0,0,0,0,0,-1,1119,1387,0,0
-98,-363,0,0,0,0,0,0,0,0,0,-1,1126,1387,0,0
-91,-363,0,0,0,0,0,0,0,0,0,-1,1133,1387,0,0
-84,-363,0,0,0,0,0,0,0,0,0,-1,1140,1387,0,0
-77,-363,0,0,0,0,0,0,0,0,0,-1,1147,1387,0,0
-70,-363,0,0,0,0,0,0,0,0,0,-1,1154,1387,0,0
-63,-363,0,0,0,0,0,0,0,0,0,-1,1161,1387,0,0
-56,-363,0,0,0,0,0,0,0,0,0,-1,1168,1387,0,0
-49,-363,0,0,0,0,0,0,0,0,0,-1,1175,1387,0,0
-42,-363,0,0,0,0,0,0,0,0,0,-1,1182,1387,0,0
-35,-363,0,0,0,0,0,0,0,0,0,-1,1189,1387,0,0
-28,-363,0,0,0,0,0,0,0,0,0,-1,1196,1387,0,0
-21,-363,0,0,0,0,0,0,0,0,0,-1,1203,1387,0,0
-14,-363,0,0,0,0,0,0,0,0,0,-1,1210,1387,0,0
-7,-363,0,0,0,0,0,0,0,0,0,-1,1217,1387,0,0
0,-363,0,0,0,0,0,0,0,0,0,-1,1224,1387,0,0
7,-363,0,0,0,0,0,0,0,0,0,-1,1231,1387,0,0
14,-363,0,0,0,0,0,0,0,0,0,-1,1238,1387,0,0
21,-363,0,0,0,0,0,0,0,0,0,-1,1245,1387,0,0
28,-363,0,0,0,0,0,0,0,0,0,-1,1252,1387,0,0
35,-363,0,0,0,0,0,0,0,0,0,-1,1259,1387,0,0
42,-363,0,0,0,0,0,0,0,0,0,-1,1266,1387,0,0
49,-363,0,0,0,0,0,0,0,0,0,-1,1273,1387,0,0
56,-363,0,0,0,0,0,0,0,0,0,-1,1280,1387,0,0
63,-363,0,0,0,0,0,0,0,0,0,-1,1287,1387,0,0
70,-363,0,0,0,0,0,0,0,0,0,-1,1294,1387,0,0
77,-363,0,0,0,0,0,0,0,0,0,-1,1301,1387,0,0
84,-363,0,0,0,0,0,0,0,0,0,-1,1308,1387,0,0
91,-363,0,0,0,0,0,0,0,0,0,-1,1315,1387,0,0
98,-363,0,0,0,0,0,0,0,0,0,-1,1322,1387,0,0
105,-363,0,0,0,0,0,0,0,0,0,-1,1329,1387,0,0
112,-363,0,0,0,0,0,0,0,0,0,-1,1336,1387,0,0
119,-363,0,0,0,0,0,0,0,0,0,-1,1343,1387,0,0
126,-363,0,0,0,0,0,0,0,0,0,-1,1350,1387,0,0
133,-363,0,0,0,0,0,0,0,0,0,-1,1357,1387,0,0
140,-363,0,0,0,0,0,0,0,0,0,-1,1364,1387,0,0
147,-363,0,0,0,0,0,0,0,0,0,-1,1371,1387,0,0
154,-363,0,0,0,0,0,0,0,0,0,-1,1378,1387,0,0
161,-363,0,0,0,0,0,0,0,0,0,-1,1385,1387,0,0
168,-363,0,0,0,0,0,0,0,0,0,-1,1392,1387,0,0
175,-363,0,0,0,0,0,0,0,0,0,-1,1399,1387,0,0
182,-363,0,0,0,0,0,0,0,0,0,-1,1406,1387,0,0
189,-363,0,0,0,0,0,0,0,0,0,-1,1413,1387,0,0
196,-363,0,0,0,0,0,0,0,0,0,-1,1420,1387,0,0
203,-363,0,0,0,0,0,0,0,0,0,-1,1427,1387,0,0
210,-363,0,0,0,0,0,0,0,0,0,-1,1434,1387,0,0
217,-363,0,0,0,0,0,0,0,0,0,-1,1441,1387,0,0
224,-363,0,0,0,0,0,0,0,0,0,-1,1448,1387,0,0
231,-363,0,0,0,0,0,0,0,0,0,-1,1455,1387,0,0
238,-363,0,0,0,0,0,0,0,0,0,-1,1462,1387,0,0
245,-363,0,0,0,0,0,0,0,0,0,-1,1469,1387,0,0
252,-363,0,0,0,0,0,0,0,0,0,-1,1476,1387,0,0
259,-363,0,0,0,0,0,0,0,0,0,-1,1483,1387,0,0
266,-363,0,0,0,0,0,0,0,0,0,-1,1490,1387,0,0
273,-363,0,0,0,0,0,0,0,0,0,-1,1497,1387,0,0
280,-363,0,0,0,0,0,0,0,0,0,-1,1504,1387,0,0
287,-363,0,0,0,0,0,0,0,0,0,-1,1511,1387,0,0
294,-363,0,0,0,0,0,0,0,0,0,-1,1518,1387,0,0
301,-363,0,0,0,0,0,0,0,0,0,-1,1525,1387,0,0
308,-363,0,0,0,0,0,0,0,0,0,-1,1532,1387,0,0
315,-363,0,0,0,0,0,0,0,0,0,-1,1539,1387,0,0
322,-363,0,0,0,0,0,0,0,0,0,-1,1546,1387,0,0
329,-363,0,0,0,0,0,0,0,0,0,-1,1553,1387,0,0
336,-363,0,0,0,0,0,0,0,0,0,-1,1560,1387,0,0
343,-363,0,0,0,0,0,0,0,0,0,-1,1567,1387,0,0
350,-363,0,0,0,0,0,0,0,0,0,-1,1574,1387,0,0
357,-363,0,0,0,0,0,0,0,0,0,-1,1581,1387,0,0
364,-363,0,0,0,0,0,0,0,0,0,-1,1588,1387,0,0
371,-363,0,0,0,0,0,0,0,0,0,-1,1595,1387,0,0
378,-363,0,0,0,0,0,0,0,0,0,-1,1602,1387,0,0
385,-363,0,0,0,0,0,0,0,0,0,-1,1609,1387,0,0
392,-363,0,0,0,0,0,0,0,0,0,-1,1616,1387,0,0
399,-363,0,0,0,0,0,0,0,0,0,-1,1623,1387,0,0
406,-363,0,0,0,0,0,0,0,0,0,-1,1630,1387,0,0
413,-363,0,0,0,0,0,0,0,0,0,-1,1637,1387,0,0
420,-363,0,0,0,0,0,0,0,0,0,-1,1644,1387,0,0
427,-363,0,0,0,0,0,0,0,0,0,-1,1651,1387,0,0
434,-363,0,0,0,0,0,0,0,0,0,-1,1658,1387,0,0
441,-363,0,0,0,0,0,0,0,0,0,-1,1665,1387,0,0
448,-363,0,0,0,0,0,0,0,0,0,-1,1672,1387,0,0
455,-363,0,0,0,0,0,0,0,0,0,-1,1679,1387,0,0
462,-363,0,0,0,0,0,0,0,0,0,-1,1686,1387,0,0
469,-363,0,0,0,0,0,0,0,0,0,-1,1693,1387,0,0
476,-363,0,0,0,0,0,0,0,0,0,-1,1700,1387,0,0
483,-363,0,0,0,0,0,0,0,0,0,-1,1707,1387,0,0
490,-363,0,0,0,0,0,0,0,0,0,-1,1714,1387,0,0
497,-363,0,0,0,0,0,0,0,0,0,-1,1721,1387,0,0
504,-363,0,0,0,0,0,0,0,0,0,-1,1728,1387,0,0
511,-363,0,0,0,0,0,0,0,0,0,-1,1735,1387,0,0
518,-363,0,0,0,0,0,0,0,0,0,-1,1742,1387,0,0
525,-363,0,0,0,0,0,0,0,0,0,-1,1749,1387,0,0
532,-363,0,0,0,0,0,0,0,0,0,-1,1756,1387,0,0
539,-363,0,0,0,0,0,0,0,0,0,-1,1763,1387,0,0
546,-363,0,0,0,0,0,0,0,0,0,-1,1770,1387,0,0
553,-363,37.9039,5.52307,0,0,0,0,0,0,0,-1,1777,1387,37.9039,-5.52309
560,-363,37.6345,4.26685,0,0,0,0,0,0,0,-1,1784,1387,37.6345,-4.26688
567,-363,37.2367,3.52637,0,0,0,0,0,0,0,-1,1791,1387,37.2367,-3.52642
574,-363,36.9333,2.89648,0,0,0,0,0,0,0,-1,1798,1387,36.9333,-2.89643
581,-363,37.0035,3.00439,0,0,0,0,0,0,0,-1,1805,1387,37.0035,-3.00435
588,-363,32.5608,6.72131,0,0,0,0,0,0,0,-1,1812,1387,32.5608,-6.72131
595,-363,31.4688,6.95435,0,0,0,0,0,0,0,-1,1819,1387,31.4688,-6.95431
602,-363,25.7437,5.33667,0,0,0,0,0,0,0,-1,1826,1387,25.7437,-5.33667
609,-363,27.7048,7.06885,0,0,0,0,0,0,0,-1,1833,1387,27.7048,-7.06882
616,-363,16.229,1.08704,0,0,0,0,0,0,0,-1,1840,1387,16.229,-1.08706
623,-363,15.7283,7.16663,0,0,0,0,0,0,0,-1,1847,1387,15.7282,-7.16665
630,-363,18.3192,9.27844,0,0,0,0,0,0,0,-1,1854,1387,18.3192,-9.27843
637,-363,23.9647,11.6488,0,0,0,0,0,0,0,-1,1861,1387,23.9647,-11.6488
644,-363,23.9949,11.1309,-0.000227335,0.00196816,-0.00295341,0.00402124,-0.00228041,-0.96333,0.00368424,0.0142808,1868,1387,23.9949,-11.1309
651,-363,24.0078,10.6713,-0.000162731,0.000979054,-0.00161907,0.00212494,-0.00130861,-0.954895,0.00200095,0.0116047,1875,1387,24.0079,-10.6712
658,-363,23.9954,10.2623,0.000170805,0.000301731,-0.000711229,0.000950503,-0.000477967,-0.83129,0.000839635,0.0122881,1882,1387,23.9954,-10.2624
665,-363,23.9814,9.89404,0.000573969,1.80765e-05,-0.000307476,0.000710505,-0.00011846,-0.417899,0.000517694,0.0116202,1889,1387,23.9815,-9.89404
672,-363,23.9672,9.53589,0.000997346,-1.5425e-05,-0.000205946,0.00103762,-5.57023e-05,-0.193134,0.000711044,0.0128651,1896,1387,23.9671,-9.53593
679,-363,23.9625,9.14282,0.00149385,6.17634e-05,-0.000224851,0.00152832,2.72895e-05,-0.152134,0.00100991,0.0145612,1903,1387,23.9626,-9.14282
686,-363,23.9648,8.72961,0.00201765,0.00022215,-0.000331316,0.00207684,0.000162965,-0.176772,0.00133356,0.0152788,1910,1387,23.9648,-8.72957
693,-363,23.9569,8.30737,0.00255103,0.000510696,-0.000537943,0.00268417,0.000377553,-0.242628,0.00167782,0.0141927,1917,1387,23.9569,-8.30733
700,-363,24.0804,7.87769,0.00320239,0.0011927,-0.0010021,0.00361667,0.000778422,-0.392016,0.00219807,0.0241777,1924,1387,24.0805,-7.87769
707,-363,24.3171,7.49658,0,0,0,0,0,0,0,-1,1931,1387,24.3171,-7.49663
714,-363,16.5782,5.3147,0,0,0,0,0,0,0,-1,1938,1387,16.5783,-5.31472
721,-363,14.4045,4.51685,0,0,0,0,0,0,0,-1,1945,1387,14.4045,-4.51685
728,-363,19.9756,0.853027,0,0,0,0,0,0,0,-1,1952,1387,19.9756,-0.853059
735,-363,21.4297,1.2981,0,0,0,0,0,0,0,-1,1959,1387,21.4297,-1.29811
742,-363,21.3621,2.79663,0,0,0,0,0,0,0,-1,1966,1387,21.362,-2.7966
749,-363,0,0,0,0,0,0,0,0,0,-1,1973,1387,0,0
756,-363,0,0,0,0,0,0,0,0,0,-1,1980,1387,0,0
763,-363,0,0,0,0,0,0,0,0,0,-1,1987,1387,0,0
770,-363,0,0,0,0,0,0,0,0,0,-1,1994,1387,0,0
777,-363,0,0,0,0,0,0,0,0,0,-1,2001,1387,0,0
784,-363,0,0,0,0,0,0,0,0,0,-1,2008,1387,0,0
791,-363,0,0,0,0,0,0,0,0,0,-1,2015,1387,0,0
798,-363,0,0,0,0,0,0,0,0,0,-1,2022,1387,0,0
805,-363,0,0,0,0,0,0,0,0,0,-1,2029,1387,0,0
812,-363,0,0,0,0,0,0,0,0,0,-1,2036,1387,0,0
-700,-370,0,0,0,0,0,0,0,0,0,-1,524,1394,0,0
-693,-370,0,0,0,0,0,0,0,0,0,-1,531,1394,0,0
-686,-370,0,0,0,0,0,0,0,0,0,-1,538,1394,0,0
-679,-370,0,0,0,0,0,0,0,0,0,-1,545,1394,0,0
-672,-370,0,0,0,0,0,0,0,0,0,-1,552,1394,0,0
-665,-370,0,0,0,0,0,0,0,0,0,-1,559,1394,0,0
-658,-370,0,0,0,0,0,0,0,0,0,-1,566,1394,0,0
-651,-370,0,0,0,0,0,0,0,0,0,-1,573,1394,0,0
-644,-370,0,0,0,0,0,0,0,0,0,-1,580,1394,0,0
-637,-370,0,0,0,0,0,0,0,0,0,-1,587,1394,0,0
-630,-370,0,0,0,0,0,0,0,0,0,-1,594,1394,0,0
-623,-370,-10.1758,-7.10486,0,0,0,0,0,0,0,-1,601,1394,-10.1758,7.10483
-616,-370,-8.85925,-1.61475,0,0,0,0,0,0,0,-1,608,1394,-8.85925,1.61476
-609,-370,-5.39325,0.0421143,0,0,0,0,0,0,0,-1,615,1394,-5.39328,-0.0421372
-602,-370,-12.3151,3.44592,0,0,0,0,0,0,0,-1,622,1394,-12.3151,-3.44595
-595,-370,-7.53284,5.44214,0,0,0,0,0,0,0,-1,629,1394,-7.53284,-5.44216
-588,-370,-9.82947,4.03198,0,0,0,0,0,0,0,-1,636,1394,-9.82949,-4.03199
-581,-370,-10.7834,5.07397,0,0,0,0,0,0,0,-1,643,1394,-10.7834,-5.07402
-574,-370,-10.8779,5.55615,-0.0118062,-0.00275217,-0.00607797,0.000299453,-0.0148578,-1.10549,0.0100065,0.0484924,650,1394,-10.8779,-5.55615
-567,-370,-11.0773,5.83704,-0.00854997,-0.00187188,-0.00446351,0.000363313,-0.0107852,-1.10653,0.00731422,0.042952,657,1394,-11.0773,-5.837
-560,-370,-11.2617,6.09607,-0.00596296,-0.00137297,-0.0032979,0.000349896,-0.00768582,-1.08938,0.0052444,0.0216272,664,1394,-11.2617,-6.09607
-553,-370,-11.2288,6.57861,-0.00359221,-0.0008916,-0.0021957,0.000335769,-0.00481958,-1.06108,0.00333062,0.0109441,671,1394,-11.2288,-6.5786
-546,-370,-11.2125,7.02673,-0.00149129,-0.00047225,-0.00115492,0.000280553,-0.00224409,-0.993142,0.00159781,0.0143082,678,1394,-11.2125,-7.02674
-539,-370,-11.2104,7.49158,0.000426662,-5.74334e-05,-0.000158175,0.000473761,-0.000104533,-0.289411,0.000355841,0.0184501,685,1394,-11.2104,-7.49159
-532,-370,-11.2663,7.92847,0.00226928,0.000396932,0.000875497,0.00261487,5.13426e-05,0.37596,0.00172638,0.0202899,692,1394,-11.2663,-7.92842
-525,-370,-11.2744,8.36584,0.00402804,0.000831382,0.00192797,0.00493405,-7.46278e-05,0.439304,0.00331452,0.0163961,699,1394,-11.2743,-8.36588
-518,-370,-11.2641,8.77966,0.00570537,0.001324,0.00301956,0.00724522,-0.000215851,0.471581,0.00490368,0.0116888,706,1394,-11.2641,-8.77962
-511,-370,-11.2493,9.22839,0.00734412,0.00187941,0.00418921,0.00961328,-0.000389762,0.496425,0.00654265,0.0138859,713,1394,-11.2493,-9.22845
-504,-370,-11.121,9.74084,0.00916418,0.00253468,0.00559249,0.0123505,-0.000651608,0.517875,0.00845922,0.0432359,720,1394,-11.121,-9.74085
-497,-370,-10.9431,10.2163,0,0,0,0,0,0,0,-1,727,1394,-10.9431,-10.2164
-490,-370,-5.30695,4.5271,0,0,0,0,0,0,0,-1,734,1394,-5.30698,-4.52704
-483,-370,-6.02997,4.59253,0,0,0,0,0,0,0,-1,741,1394,-6.02994,-4.5925
-476,-370,-6.75293,4.65796,0,0,0,0,0,0,0,-1,748,1394,-6.7529,-4.65795
-469,-370,-10.584,1.14294,0,0,0,0,0,0,0,-1,755,1394,-10.584,-1.14293
-462,-370,-9.54462,0.387207,0,0,0,0,0,0,0,-1,762,1394,-9.5446,-0.387176
-455,-370,-8.50525,-0.36853,0,0,0,0,0,0,0,-1,769,1394,-8.50523,0.368582
-448,-370,-10.9543,2.28833,0,0,0,0,0,0,0,-1,776,1394,-10.9543,-2.28835
-441,-370,-11.8699,1.8313,0,0,0,0,0,0,0,-1,783,1394,-11.8699,-1.83127
-434,-370,-12.7855,1.37415,0,0,0,0,0,0,0,-1,790,1394,-12.7855,-1.37419
-427,-370,0,0,0,0,0,0,0,0,0,-1,797,1394,0,0
-420,-370,0,0,0,0,0,0,0,0,0,-1,804,1394,0,0
-413,-370,0,0,0,0,0,0,0,0,0,-1,811,1394,0,0
-406,-370,0,0,0,0,0,0,0,0,0,-1,818,1394,0,0
-399,-370,0,0,0,0,0,0,0,0,0,-1,825,1394,0,0
-392,-370,0,0,0,0,0,0,0,0,0,-1,832,1394,0,0
-385,-370,0,0,0,0,0,0,0,0,0,-1,839,1394,0,0
-378,-370,0,0,0,0,0,0,0,0,0,-1,846,1394,0,0
-371,-370,0,0,0,0,0,0,0,0,0,-1,853,1394,0,0
-364,-370,0,0,0,0,0,0,0,0,0,-1,860,1394,0,0
-357,-370,0,0,0,0,0,0,0,0,0,-1,867,1394,0,0
-350,-370,0,0,0,0,0,0,0,0,0,-1,874,1394,0,0
-343,-370,0,0,0,0,0,0,0,0,0,-1,881,1394,0,0
-336,-370,0,0,0,0,0,0,0,0,0,-1,888,1394,0,0
-329,-370,0,0,0,0,0,0,0,0,0,-1,895,1394,0,0
-322,-370,0,0,0,0,0,0,0,0,0,-1,902,1394,0,0
-315,-370,0,0,0,0,0,0,0,0,0,-1,909,1394,0,0
-308,-370,0,0,0,0,0,0,0,0,0,-1,916,1394,0,0
-301,-370,0,0,0,0,0,0,0,0,0,-1,923,1394,0,0
-294,-370,0,0,0,0,0,0,0,0,0,-1,930,1394,0,0
-287,-370,0,0,0,0,0,0,0,0,0,-1,937,1394,0,0
-280,-370,0,0,0,0,0,0,0,0,0,-1,944,1394,0,0
-273,-370,0,0,0,0,0,0,0,0,0,-1,951,1394,0,0
-266,-370,0,0,0,0,0,0,0,0,0,-1,958,1394,0,0
-259,-370,0,0,0,0,0,0,0,0,0,-1,965,1394,0,0
-252,-370,0,0,0,0,0,0,0,0,0,-1,972,1394,0,0
-245,-370,0,0,0,0,0,0,0,0,0,-1,979,1394,0,0
-238,-370,0,0,0,0,0,0,0,0,0,-1,986,1394,0,0
-231,-370,0,0,0,0,0,0,0,0,0,-1,993,1394,0,0
-224,-370,0,0,0,0,0,0,0,0,0,-1,1000,1394,0,0
-217,-370,0,0,0,0,0,0,0,0,0,-1,1007,1394,0,0
-210,-370,0,0,0,0,0,0,0,0,0,-1,1014,1394,0,0
-203,-370,0,0,0,0,0,0,0,0,0,-1,1021,1394,0,0
-196,-370,0,0,0,0,0,0,0,0,0,-1,1028,1394,0,0
-189,-370,0,0,0,0,0,0,0,0,0,-1,1035,1394,0,0
-182,-370,0,0,0,0,0,0,0,0,0,-1,1042,1394,0,0
-175,-370,0,0,0,0,0,0,0,0,0,-1,1049,1394,0,0
-168,-370,0,0,0,0,0,0,0,0,0,-1,1056,1394,0,0
-161,-370,0,0,0,0,0,0,0,0,0,-1,1063,1394,0,0
-154,-370,0,0,0,0,0,0,0,0,0,-1,1070,1394,0,0
-147,-370,0,0,0,0,0,0,0,0,0,-1,1077,1394,0,0
-140,-370,0,0,0,0,0,0,0,0,0,-1,1084,1394,0,0
-133,-370,0,0,0,0,0,0,0,0,0,-1,1091,1394,0,0
-126,-370,0,0,0,0,0,0,0,0,0,-1,1098,1394,0,0
-119,-370,0,0,0,0,0,0,0,0,0,-1,1105,1394,0,0
-112,-370,0,0,0,0,0,0,0,0,0,-1,1112,1394,0,0
-105,-370,0,0,0,0,0,0,0,0,0,-1,1119,1394,0,0
-98,-370,0,0,0,0,0,0,0,0,0,-1,1126,1394,0,0
-91,-370,0,0,0,0,0,0,0,0,0,-1,1133,1394,0,0
-84,-370,0,0,0,0,0,0,0,0,0,-1,1140,1394,0,0
-77,-370,0,0,0,0,0,0,0,0,0,-1,1147,1394,0,0
-70,-370,0,0,0,0,0,0,0,0,0,-1,1154,1394,0,0
-63,-370,0,0,0,0,0,0,0,0,0,-1,1161,1394,0,0
-56,-370,0,0,0,0,0,0,0,0,0,-1,1168,1394,0,0
-49,-370,0,0,0,0,0,0,0,0,0,-1,1175,1394,0,0
-42,-370,0,0,0,0,0,0,0,0,0,-1,1182,1394,0,0
-35,-370,0,0,0,0,0,0,0,0,0,-1,1189,1394,0,0
-28,-370,0,0,0,0,0,0,0,0,0,-1,1196,1394,0,0
-21,-370,0,0,0,0,0,0,0,0,0,-1,1203,1394,0,0
-14,-370,0,0,0,0,0,0,0,0,0,-1,1210,1394,0,0
-7,-370,0,0,0,0,0,0,0,0,0,-1,1217,1394,0,0
0,-370,0,0,0,0,0,0,0,0,0,-1,1224,1394,0,0
7,-370,0,0,0,0,0,0,0,0,0,-1,1231,1394,0,0
14,-370,0,0,0,0,0,0,0,0,0,-1,1238,1394,0,0
21,-370,0,0,0,0,0,0,0,0,0,-1,1245,1394,0,0
28,-370,0,0,0,0,0,0,0,0,0,-1,1252,1394,0,0
35,-370,0,0,0,0,0,0,0,0,0,-1,1259,1394,0,0
42,-370,0,0,0,0,0,0,0,0,0,-1,1266,1394,0,0
49,-370,0,0,0,0,0,0,0,0,0,-1,1273,1394,0,0
56,-370,0,0,0,0,0,0,0,0,0,-1,1280,1394,0,0
63,-370,0,0,0,0,0,0,0,0,0,-1,1287,1394,0,0
70,-370,0,0,0,0,0,0,0,0,0,-1,1294,1394,0,0
77,-370,0,0,0,0,0,0,0,0,0,-1,1301,1394,0,0
84,-370,0,0,0,0,0,0,0,0,0,-1,1308,1394,0,0
91,-370,0,0,0,0,0,0,0,0,0,-1,1315,1394,0,0
98,-370,0,0,0,0,0,0,0,0,0,-1,1322,1394,0,0
105,-370,0,0,0,0,0,0,0,0,0,-1,1329,1394,0,0
112,-370,0,0,0,0,0,0,0,0,0,-1,1336,1394,0,0
119,-370,0,0,0,0,0,0,0,0,0,-1,1343,1394,0,0
126,-370,0,0,0,0,0,0,0,0,0,-1,1350,1394,0,0
133,-370,0,0,0,0,0,0,0,0,0,-1,1357,1394,0,0
140,-370,0,0,0,0,0,0,0,0,0,-1,1364,1394,0,0
147,-370,0,0,0,0,0,0,0,0,0,-1,1371,1394,0,0
154,-370,0,0,0,0,0,0,0,0,0,-1,1378,1394,0,0
161,-370,0,0,0,0,0,0,0,0,0,-1,1385,1394,0,0
168,-370,0,0,0,0,0,0,0,0,0,-1,1392,1394,0,0
175,-370,0,0,0,0,0,0,0,0,0,-1,1399,1394,0,0
182,-370,0,0,0,0,0,0,0,0,0,-1,1406,1394,0,0
189,-370,0,0,0,0,0,0,0,0,0,-1,1413,1394,0,0
196,-370,0,0,0,0,0,0,0,0,0,-1,1420,1394,0,0
203,-370,0,0,0,0,0,0,0,0,0,-1,1427,1394,0,0
210,-370,0,0,0,0,0,0,0,0,0,-1,1434,1394,0,0
217,-370,0,0,0,0,0,0,0,0,0,-1,1441,1394,0,0
224,-370,0,0,0,0,0,0,0,0,0,-1,1448,1394,0,0
231,-370,0,0,0,0,0,0,0,0,0,-1,1455,1394,0,0
238,-370,0,0,0,0,0,0,0,0,0,-1,1462,1394,0,0
245,-370,0,0,0,0,0,0,0,0,0,-1,1469,1394,0,0
252,-370,0,0,0,0,0,0,0,0,0,-1,1476,1394,0,0
259,-370,0,0,0,0,0,0,0,0,0,-1,1483,1394,0,0
266,-370,0,0,0,0,0,0,0,0,0,-1,1490,1394,0,0
273,-370,0,0,0,0,0,0,0,0,0,-1,1497,1394,0,0
280,-370,0,0,0,0,0,0,0,0,0,-1,1504,1394,0,0
287,-370,0,0,0,0,0,0,0,0,0,-1,1511,1394,0,0
294,-370,0,0,0,0,0,0,0,0,0,-1,1518,1394,0,0
301,-370,0,0,0,0,0,0,0,0,0,-1,1525,1394,0,0
308,-370,0,0,0,0,0,0,0,0,0,-1,1532,1394,0,0
315,-370,0,0,0,0,0,0,0,0,0,-1,1539,1394,0,0
322,-370,0,0,0,0,0,0,0,0,0,-1,1546,1394,0,0
329,-370,0,0,0,0,0,0,0,0,0,-1,1553,1394,0,0
336,-370,0,0,0,0,0,0,0,0,0,-1,1560,1394,0,0
343,-370,0,0,0,0,0,0,0,0,0,-1,1567,1394,0,0
350,-370,0,0,0,0,0,0,0,0,0,-1,1574,1394,0,0
357,-370,0,0,0,0,0,0,0,0,0,-1,1581,1394,0,0
364,-370,0,0,0,0,0,0,0,0,0,-1,1588,1394,0,0
371,-370,0,0,0,0,0,0,0,0,0,-1,1595,1394,0,0
378,-370,0,0,0,0,0,0,0,0,0,-1,1602,1394,0,0
385,-370,0,0,0,0,0,0,0,0,0,-1,1609,1394,0,0
392,-370,0,0,0,0,0,0,0,0,0,-1,1616,1394,0,0
399,-370,0,0,0,0,0,0,0,0,0,-1,1623,1394,0,0
406,-370,0,0,0,0,0,0,0,0,0,-1,1630,1394,0,0
413,-370,0,0,0,0,0,0,0,0,0,-1,1637,1394,0,0
420,-370,0,0,0,0,0,0,0,0,0,-1,1644,1394,0,0
427,-370,0,0,0,0,0,0,0,0,0,-1,1651,1394,0,0
434,-370,0,0,0,0,0,0,0,0,0,-1,1658,1394,0,0
441,-370,0,0,0,0,0,0,0,0,0,-1,1665,1394,0,0
448,-370,0,0,0,0,0,0,0,0,0,-1,1672,1394,0,0
455,-370,0,0,0,0,0,0,0,0,0,-1,1679,1394,0,0
462,-370,0,0,0,0,0,0,0,0,0,-1,1686,1394,0,0
469,-370,0,0,0,0,0,0,0,0,0,-1,1693,1394,0,0
476,-370,0,0,0,0,0,0,0,0,0,-1,1700,1394,0,0
483,-370,0,0,0,0,0,0,0,0,0,-1,1707,1394,0,0
490,-370,0,0,0,0,0,0,0,0,0,-1,1714,1394,0,0
497,-370,0,0,0,0,0,0,0,0,0,-1,1721,1394,0,0
504,-370,0,0,0,0,0,0,0,0,0,-1,1728,1394,0,0
511,-370,0,0,0,0,0,0,0,0,0,-1,1735,1394,0,0
518,-370,0,0,0,0,0,0,0,0,0,-1,1742,1394,0,0
525,-370,0,0,0,0,0,0,0,0,0,-1,1749,1394,0,0
532,-370,0,0,0,0,0,0,0,0,0,-1,1756,1394,0,0
539,-370,0,0,0,0,0,0,0,0,0,-1,1763,1394,0,0
546,-370,27.4949,2.81201,0,0,0,0,0,0,0,-1,1770,1394,27.4948,-2.81198
553,-370,26.5985,1.99329,0,0,0,0,0,0,0,-1,1777,1394,26.5985,-1.99327
560,-370,38.1403,3.45044,0,0,0,0,0,0,0,-1,1784,1394,38.1403,-3.45042
567,-370,37.7321,2.9021,0,0,0,0,0,0,0,-1,1791,1394,37.7321,-2.90213
574,-370,37.6722,2.68494,0,0,0,0,0,0,0,-1,1798,1394,37.6723,-2.68495
581,-370,26.7473,2.29626,0,0,0,0,0,0,0,-1,1805,1394,26.7473,-2.29625
588,-370,32.1333,7.8728,0,0,0,0,0,0,0,-1,1812,1394,32.1333,-7.87275
595,-370,25.793,4.5271,0,0,0,0,0,0,0,-1,1819,1394,25.793,-4.52711
602,-370,25.1077,5.34937,0,0,0,0,0,0,0,-1,1826,1394,25.1077,-5.34932
609,-370,16.712,0.993286,0,0,0,0,0,0,0,-1,1833,1394,16.7121,-0.99323
616,-370,16.7764,7.23315,0,0,0,0,0,0,0,-1,1840,1394,16.7764,-7.23313
623,-370,17.6625,8.94263,0,0,0,0,0,0,0,-1,1847,1394,17.6624,-8.94258
630,-370,20.9681,11.1785,0,0,0,0,0,0,0,-1,1854,1394,20.9681,-11.1784
637,-370,23.6062,11.5287,0,0,0,0,0,0,0,-1,1861,1394,23.6062,-11.5287
644,-370,23.6205,11.1021,0.000132597,0.000800139,-0.00121567,0.00172703,-0.000794292,-0.919375,0.00148852,0.0132058,1868,1394,23.6204,-11.102
651,-370,23.6132,10.6918,0.000221397,0.000438113,-0.000785149,0.00112235,-0.000462836,-0.85397,0.000941238,0.0125039,1875,1394,23.6132,-10.6917
658,-370,23.6042,10.3145,0.000526139,0.000182457,-0.000510953,0.000893373,-0.000184777,-0.623183,0.000665777,0.0129235,1882,1394,23.6042,-10.3144
665,-370,23.5872,9.91748,0.000874768,7.34576e-05,-0.000323341,0.000988966,-4.07406e-05,-0.339507,0.000673302,0.0136552,1889,1394,23.5871,-9.91754
672,-370,23.5631,9.50879,0.00125612,1.86508e-05,-0.000204157,0.00128893,-1.41609e-05,-0.159355,0.000864048,0.014628,1896,1394,23.5631,-9.50882
679,-370,23.5745,9.11499,0.00174627,5.01404e-05,-0.000198624,0.00176922,2.71912e-05,-0.115031,0.00117052,0.0142313,1903,1394,23.5744,-9.11503
686,-370,23.5708,8.73657,0.00230209,0.000129024,-0.000273092,0.00233589,9.52294e-05,-0.123121,0.00152651,0.0144444,1910,1394,23.5708,-8.73654
693,-370,23.5492,8.30493,0.00294096,0.000335511,-0.000481054,0.00302694,0.00024953,-0.176868,0.00194014,0.0127049,1917,1394,23.5492,-8.30499
700,-370,23.7047,7.84521,0.00382454,0.00097077,-0.00101198,0.00414697,0.000648342,-0.308443,0.00257588,0.0292797,1924,1394,23.7048,-7.84526
707,-370,24.0192,7.32227,0,0,0,0,0,0,0,-1,1931,1394,24.0192,-7.32226
714,-370,16.9116,5.93018,0,0,0,0,0,0,0,-1,1938,1394,16.9116,-5.93014
721,-370,17.2007,4.69153,0,0,0,0,0,0,0,-1,1945,1394,17.2007,-4.69158
728,-370,20.5315,-0.313354,0,0,0,0,0,0,0,-1,1952,1394,20.5315,0.313332
735,-370,22.3652,0.233398,0,0,0,0,0,0,0,-1,1959,1394,22.3652,-0.233355
742,-370,24.1989,0.780029,0,0,0,0,0,0,0,-1,1966,1394,24.1989,-0.780041
749,-370,0,0,0,0,0,0,0,0,0,-1,1973,1394,0,0
756,-370,0,0,0,0,0,0,0,0,0,-1,1980,1394,0,0
763,-370,0,0,0,0,0,0,0,0,0,-1,1987,1394,0,0
770,-370,0,0,0,0,0,0,0,0,0,-1,1994,1394,0,0
777,-370,0,0,0,0,0,0,0,0,0,-1,2001,1394,0,0
784,-370,0,0,0,0,0,0,0,0,0,-1,2008,1394,0,0
791,-370,0,0,0,0,0,0,0,0,0,-1,2015,1394,0,0
798,-370,0,0,0,0,0,0,0,0,0,-1,2022,1394,0,0
805,-370,0,0,0,0,0,0,0,0,0,-1,2029,1394,0,0
812,-370,0,0,0,0,0,0,0,0,0,-1,2036,1394,0,0
-700,-377,0,0,0,0,0,0,0,0,0,-1,524,1401,0,0
-693,-377,0,0,0,0,0,0,0,0,0,-1,531,1401,0,0
-686,-377,0,0,0,0,0,0,0,0,0,-1,538,1401,0,0
-679,-377,0,0,0,0,0,0,0,0,0,-1,545,1401,0,0
-672,-377,0,0,0,0,0,0,0,0,0,-1,552,1401,0,0
-665,-377,0,0,0,0,0,0,0,0,0,-1,559,1401,0,0
-658,-377,0,0,0,0,0,0,0,0,0,-1,566,1401,0,0
-651,-377,0,0,0,0,0,0,0,0,0,-1,573,1401,0,0
-644,-377,0,0,0,0,0,0,0,0,0,-1,580,1401,0,0
-637,-377,0,0,0,0,0,0,0,0,0,-1,587,1401,0,0
-630,-377,0,0,0,0,0,0,0,0,0,-1,594,1401,0,0
-623,-377,0,0,0,0,0,0,0,0,0,-1,601,1401,0,0
-616,-377,-9.43915,-2.4906,0,0,0,0,0,0,0,-1,608,1401,-9.43915,2.49062
-609,-377,-7.2821,-1.35278,0,0,0,0,0,0,0,-1,615,1401,-7.28208,1.35279
-602,-377,-14.9736,3.98279,0,0,0,0,0,0,0,-1,622,1401,-14.9737,-3.98276
-595,-377,-6.9082,1.18201,0,0,0,0,0,0,0,-1,629,1401,-6.90822,-1.18204
-588,-377,-9.32385,4.25415,0,0,0,0,0,0,0,-1,636,1401,-9.32383,-4.25418
-581,-377,-10.2883,5.06348,0,0,0,0,0,0,0,-1,643,1401,-10.2882,-5.06352
-574,-377,-10.4197,5.5509,-0.0147702,-0.00293916,-0.00711751,0.000400165,-0.0181096,-1.13212,0.0122086,0.0499066,650,1401,-10.4197,-5.55087
-567,-377,-10.5343,5.96985,-0.0107945,-0.00191854,-0.00520325,0.000482315,-0.0131953,-1.13849,0.00896197,0.0419812,657,1401,-10.5343,-5.96988
-560,-377,-10.8845,6.19983,-0.00782216,-0.00137795,-0.0039111,0.000467357,-0.00966746,-1.12995,0.00660627,0.0392886,664,1401,-10.8845,-6.19984
-553,-377,-10.7845,6.56506,-0.00519745,-0.00088116,-0.0027472,0.000454216,-0.00653283,-1.11834,0.00451425,0.0140412,671,1401,-10.7845,-6.56503
-546,-377,-10.8083,7.07568,-0.0029373,-0.000477371,-0.00167198,0.000368318,-0.00378299,-1.10252,0.0026533,0.0166911,678,1401,-10.8083,-7.07568
-539,-377,-10.7827,7.52026,-0.000925113,-9.38297e-05,-0.000671281,0.00028007,-0.00129901,-1.0626,0.000972897,0.0218419,685,1401,-10.7827,-7.52028
-532,-377,-10.8284,7.91772,0.000993133,0.000338738,0.000360612,0.00115286,0.000179007,0.41697,0.000716401,0.0207741,692,1401,-10.8284,-7.91777
-525,-377,-10.793,8.38525,0.00279865,0.00074506,0.00139201,0.00350159,4.2118e-05,0.467627,0.00232048,0.0199214,699,1401,-10.793,-8.38525
-518,-377,-10.8323,8.80786,0.00455407,0.00122541,0.00246899,0.00586731,-8.78333e-05,0.488835,0.00394114,0.0128481,706,1401,-10.8323,-8.80784
-511,-377,-10.8457,9.24292,0.00630676,0.00181115,0.00365316,0.00834827,-0.000230352,0.5096,0.00564386,0.0111169,713,1401,-10.8457,-9.24289
-504,-377,-10.861,9.69482,0.00816568,0.00247569,0.00498787,0.0110629,-0.00042151,0.526219,0.0075197,0.0140685,720,1401,-10.861,-9.6948
-497,-377,-10.868,10.1423,0,0,0,0,0,0,0,-1,727,1401,-10.8681,-10.1424
-490,-377,-8.88409,10.1245,0,0,0,0,0,0,0,-1,734,1401,-8.8841,-10.1245
-483,-377,-5.6524,5.07324,0,0,0,0,0,0,0,-1,741,1401,-5.6524,-5.07325
-476,-377,-6.11682,5.10535,0,0,0,0,0,0,0,-1,748,1401,-6.11681,-5.10537
-469,-377,-10.3211,1.9281,0,0,0,0,0,0,0,-1,755,1401,-10.3211,-1.92808
-462,-377,-9.2204,1.0022,0,0,0,0,0,0,0,-1,762,1401,-9.22039,-1.00218
-455,-377,-8.11969,0.0762939,0,0,0,0,0,0,0,-1,769,1401,-8.11968,-0.0762759
-448,-377,-9.05334,0.877319,0,0,0,0,0,0,0,-1,776,1401,-9.05332,-0.877324
-441,-377,-11.212,0.763428,0,0,0,0,0,0,0,-1,783,1401,-11.212,-0.763415
-434,-377,-11.0984,0.996216,0,0,0,0,0,0,0,-1,790,1401,-11.0984,-0.996265
-427,-377,-11.1733,1.25732,0,0,0,0,0,0,0,-1,797,1401,-11.1733,-1.25732
-420,-377,0,0,0,0,0,0,0,0,0,-1,804,1401,0,0
-413,-377,0,0,0,0,0,0,0,0,0,-1,811,1401,0,0
-406,-377,0,0,0,0,0,0,0,0,0,-1,818,1401,0,0
-399,-377,0,0,0,0,0,0,0,0,0,-1,825,1401,0,0
-392,-377,0,0,0,0,0,0,0,0,0,-1,832,1401,0,0
-385,-377,0,0,0,0,0,0,0,0,0,-1,839,1401,0,0
-378,-377,0,0,0,0,0,0,0,0,0,-1,846,1401,0,0
-371,-377,0,0,0,0,0,0,0,0,0,-1,853,1401,0,0
-364,-377,0,0,0,0,0,0,0,0,0,-1,860,1401,0,0
-357,-377,0,0,0,0,0,0,0,0,0,-1,867,1401,0,0
-350,-377,0,0,0,0,0,0,0,0,0,-1,874,1401,0,0
-343,-377,0,0,0,0,0,0,0,0,0,-1,881,1401,0,0
-336,-377,0,0,0,0,0,0,0,0,0,-1,888,1401,0,0
-329,-377,0,0,0,0,0,0,0,0,0,-1,895,1401,0,0
-322,-377,0,0,0,0,0,0,0,0,0,-1,902,1401,0,0
-315,-377,0,0,0,0,0,0,0,0,0,-1,909,1401,0,0
-308,-377,0,0,0,0,0,0,0,0,0,-1,916,1401,0,0
-301,-377,0,0,0,0,0,0,0,0,0,-1,923,1401,0,0
-294,-377,0,0,0,0,0,0,0,0,0,-1,930,1401,0,0
-287,-377,0,0,0,0,0,0,0,0,0,-1,937,1401,0,0
-280,-377,0,0,0,0,0,0,0,0,0,-1,944,1401,0,0
-273,-377,0,0,0,0,0,0,0,0,0,-1,951,1401,0,0
-266,-377,0,0,0,0,0,0,0,0,0,-1,958,1401,0,0
-259,-377,0,0,0,0,0,0,0,0,0,-1,965,1401,0,0
-252,-377,0,0,0,0,0,0,0,0,0,-1,972,1401,0,0
-245,-377,0,0,0,0,0,0,0,0,0,-1,979,1401,0,0
-238,-377,0,0,0,0,0,0,0,0,0,-1,986,1401,0,0
-231,-377,0,0,0,0,0,0,0,0,0,-1,993,1401,0,0
-224,-377,0,0,0,0,0,0,0,0,0,-1,1000,1401,0,0
-217,-377,0,0,0,0,0,0,0,0,0,-1,1007,1401,0,0
-210,-377,0,0,0,0,0,0,0,0,0,-1,1014,1401,0,0
-203,-377,0,0,0,0,0,0,0,0,0,-1,1021,1401,0,0
-196,-377,0,0,0,0,0,0,0,0,0,-1,1028,1401,0,0
-189,-377,0,0,0,0,0,0,0,0,0,-1,1035,1401,0,0
-182,-377,0,0,0,0,0,0,0,0,0,-1,1042,1401,0,0
-175,-377,0,0,0,0,0,0,0,0,0,-1,1049,1401,0,0
-168,-377,0,0,0,0,0,0,0,0,0,-1,1056,1401,0,0
-161,-377,0,0,0,0,0,0,0,0,0,-1,1063,1401,0,0
-154,-377,0,0,0,0,0,0,0,0,0,-1,1070,1401,0,0
-147,-377,0,0,0,0,0,0,0,0,0,-1,1077,1401,0,0
-140,-377,0,0,0,0,0,0,0,0,0,-1,1084,1401,0,0
-133,-377,0,0,0,0,0,0,0,0,0,-1,1091,1401,0,0
-126,-377,0,0,0,0,0,0,0,0,0,-1,1098,1401,0,0
-119,-377,0,0,0,0,0,0,0,0,0,-1,1105,1401,0,0
-112,-377,0,0,0,0,0,0,0,0,0,-1,1112,1401,0,0
-105,-377,0,0,0,0,0,0,0,0,0,-1,1119,1401,0,0
-98,-377,0,0,0,0,0,0,0,0,0,-1,1126,1401,0,0
-91,-377,0,0,0,0,0,0,0,0,0,-1,1133,1401,0,0
-84,-377,0,0,0,0,0,0,0,0,0,-1,1140,1401,0,0
-77,-377,0,0,0,0,0,0,0,0,0,-1,1147,1401,0,0
-70,-377,0,0,0,0,0,0,0,0,0,-1,1154,1401,0,0
-63,-377,0,0,0,0,0,0,0,0,0,-1,1161,1401,0,0
-56,-377,0,0,0,0,0,0,0,0,0,-1,1168,1401,0,0
-49,-377,0,0,0,0,0,0,0,0,0,-1,1175,1401,0,0
-42,-377,0,0,0,0,0,0,0,0,0,-1,1182,1401,0,0
-35,-377,0,0,0,0,0,0,0,0,0,-1,1189,1401,0,0
-28,-377,0,0,0,0,0,0,0,0,0,-1,1196,1401,0,0
-21,-377,0,0,0,0,0,0,0,0,0,-1,1203,1401,0,0
-14,-377,0,0,0,0,0,0,0,0,0,-1,1210,1401,0,0
-7,-377,0,0,0,0,0,0,0,0,0,-1,1217,1401,0,0
0,-377,0,0,0,0,0,0,0,0,0,-1,1224,1401,0,0
7,-377,0,0,0,0,0,0,0,0,0,-1,1231,1401,0,0
14,-377,0,0,0,0,0,0,0,0,0,-1,1238,1401,0,0
21,-377,0,0,0,0,0,0,0,0,0,-1,1245,1401,0,0
28,-377,0,0,0,0,0,0,0,0,0,-1,1252,1401,0,0
35,-377,0,0,0,0,0,0,0,0,0,-1,1259,1401,0,0
42,-377,0,0,0,0,0,0,0,0,0,-1,1266,1401,0,0
49,-377,0,0,0,0,0,0,0,0,0,-1,1273,1401,0,0
56,-377,0,0,0,0,0,0,0,0,0,-1,1280,1401,0,0
63,-377,0,0,0,0,0,0,0,0,0,-1,1287,1401,0,0
70,-377,0,0,0,0,0,0,0,0,0,-1,1294,1401,0,0
77,-377,0,0,0,0,0,0,0,0,0,-1,1301,1401,0,0
84,-377,0,0,0,0,0,0,0,0,0,-1,1308,1401,0,0
91,-377,0,0,0,0,0,0,0,0,0,-1,1315,1401,0,0
98,-377,0,0,0,0,0,0,0,0,0,-1,1322,1401,0,0
105,-377,0,0,0,0,0,0,0,0,0,-1,1329,1401,0,0
112,-377,0,0,0,0,0,0,0,0,0,-1,1336,1401,0,0
119,-377,0,0,0,0,0,0,0,0,0,-1,1343,1401,0,0
126,-377,0,0,0,0,0,0,0,0,0,-1,1350,1401,0,0
133,-377,0,0,0,0,0,0,0,0,0,-1,1357,1401,0,0
140,-377,0,0,0,0,0,0,0,0,0,-1,1364,1401,0,0
147,-377,0,0,0,0,0,0,0,0,0,-1,1371,1401,0,0
154,-377,0,0,0,0,0,0,0,0,0,-1,1378,1401,0,0
161,-377,0,0,0,0,0,0,0,0,0,-1,1385,1401,0,0
168,-377,0,0,0,0,0,0,0,0,0,-1,1392,1401,0,0
175,-377,0,0,0,0,0,0,0,0,0,-1,1399,1401,0,0
182,-377,0,0,0,0,0,0,0,0,0,-1,1406,1401,0,0
189,-377,0,0,0,0,0,0,0,0,0,-1,1413,1401,0,0
196,-377,0,0,0,0,0,0,0,0,0,-1,1420,1401,0,0
203,-377,0,0,0,0,0,0,0,0,0,-1,1427,1401,0,0
210,-377,0,0,0,0,0,0,0,0,0,-1,1434,1401,0,0
217,-377,0,0,0,0,0,0,0,0,0,-1,1441,1401,0,0
224,-377,0,0,0,0,0,0,0,0,0,-1,1448,1401,0,0
231,-377,0,0,0,0,0,0,0,0,0,-1,1455,1401,0,0
238,-377,0,0,0,0,0,0,0,0,0,-1,1462,1401,0,0
245,-377,0,0,0,0,0,0,0,0,0,-1,1469,1401,0,0
252,-377,0,0,0,0,0,0,0,0,0,-1,1476,1401,0,0
259,-377,0,0,0,0,0,0,0,0,0,-1,1483,1401,0,0
266,-377,0,0,0,0,0,0,0,0,0,-1,1490,1401,0,0
273,-377,0,0,0,0,0,0,0,0,0,-1,1497,1401,0,0
280,-377,0,0,0,0,0,0,0,0,0,-1,1504,1401,0,0
287,-377,0,0,0,0,0,0,0,0,0,-1,1511,1401,0,0
294,-377,0,0,0,0,0,0,0,0,0,-1,1518,1401,0,0
301,-377,0,0,0,0,0,0,0,0,0,-1,1525,1401,0,0
308,-377,0,0,0,0,0,0,0,0,0,-1,1532,1401,0,0
315,-377,0,0,0,0,0,0,0,0,0,-1,1539,1401,0,0
322,-377,0,0,0,0,0,0,0,0,0,-1,1546,1401,0,0
329,-377,0,0,0,0,0,0,0,0,0,-1,1553,1401,0,0
336,-377,0,0,0,0,0,0,0,0,0,-1,1560,1401,0,0
343,-377,0,0,0,0,0,0,0,0,0,-1,1567,1401,0,0
350,-377,0,0,0,0,0,0,0,0,0,-1,1574,1401,0,0
357,-377,0,0,0,0,0,0,0,0,0,-1,1581,1401,0,0
364,-377,0,0,0,0,0,0,0,0,0,-1,1588,1401,0,0
371,-377,0,0,0,0,0,0,0,0,0,-1,1595,1401,0,0
378,-377,0,0,0,0,0,0,0,0,0,-1,1602,1401,0,0
385,-377,0,0,0,0,0,0,0,0,0,-1,1609,1401,0,0
392,-377,0,0,0,0,0,0,0,0,0,-1,1616,1401,0,0
399,-377,0,0,0,0,0,0,0,0,0,-1,1623,1401,0,0
406,-377,0,0,0,0,0,0,0,0,0,-1,1630,1401,0,0
413,-377,0,0,0,0,0,0,0,0,0,-1,1637,1401,0,0
420,-377,0,0,0,0,0,0,0,0,0,-1,1644,1401,0,0
427,-377,0,0,0,0,0,0,0,0,0,-1,1651,1401,0,0
434,-377,0,0,0,0,0,0,0,0,0,-1,1658,1401,0,0
441,-377,0,0,0,0,0,0,0,0,0,-1,1665,1401,0,0
448,-377,0,0,0,0,0,0,0,0,0,-1,1672,1401,0,0
455,-377,0,0,0,0,0,0,0,0,0,-1,1679,1401,0,0
462,-377,0,0,0,0,0,0,0,0,0,-1,1686,1401,0,0
469,-377,0,0,0,0,0,0,0,0,0,-1,1693,1401,0,0
476,-377,0,0,0,0,0,0,0,0,0,-1,1700,1401,0,0
483,-377,0,0,0,0,0,0,0,0,0,-1,1707,1401,0,0
490,-377,0,0,0,0,0,0,0,0,0,-1,1714,1401,0,0
497,-377,0,0,0,0,0,0,0,0,0,-1,1721,1401,0,0
504,-377,0,0,0,0,0,0,0,0,0,-1,1728,1401,0,0
511,-377,0,0,0,0,0,0,0,0,0,-1,1735,1401,0,0
518,-377,0,0,0,0,0,0,0,0,0,-1,1742,1401,0,0
525,-377,0,0,0,0,0,0,0,0,0,-1,1749,1401,0,0
532,-377,0,0,0,0,0,0,0,0,0,-1,1756,1401,0,0
539,-377,0,0,0,0,0,0,0,0,0,-1,1763,1401,0,0
546,-377,27.8485,2.34094,0,0,0,0,0,0,0,-1,1770,1401,27.8486,-2.34091
553,-377,27.2189,2.42493,0,0,0,0,0,0,0,-1,1777,1401,27.2188,-2.42498
560,-377,26.9808,1.78674,0,0,0,0,0,0,0,-1,1784,1401,26.9808,-1.78676
567,-377,27.4503,2.03894,0,0,0,0,0,0,0,-1,1791,1401,27.4503,-2.03893
574,-377,27.812,2.3855,0,0,0,0,0,0,0,-1,1798,1401,27.812,-2.38552
581,-377,26.3328,2.77588,0,0,0,0,0,0,0,-1,1805,1401,26.3328,-2.77582
588,-377,25.882,4.35217,0,0,0,0,0,0,0,-1,1812,1401,25.8819,-4.3522
595,-377,25.5392,5.11804,0,0,0,0,0,0,0,-1,1819,1401,25.5392,-5.11808
602,-377,24.816,5.79126,0,0,0,0,0,0,0,-1,1826,1401,24.816,-5.79124
609,-377,15.0223,4.76135,0,0,0,0,0,0,0,-1,1833,1401,15.0224,-4.76129
616,-377,14.1842,5.78992,0,0,0,0,0,0,0,-1,1840,1401,14.1842,-5.78987
623,-377,15.8248,8.76721,0,0,0,0,0,0,0,-1,1847,1401,15.8248,-8.76725
630,-377,22.892,12.1967,0,0,0,0,0,0,0,-1,1854,1401,22.892,-12.1966
637,-377,23.1273,11.573,0.000688577,0.000959435,-0.00150169,0.00233179,-0.000683779,-0.830369,0.00182565,0.0265473,1861,1401,23.1273,-11.5731
644,-377,23.2096,11.113,0.000673959,0.000704816,-0.00113314,0.00182263,-0.000443858,-0.792206,0.00138692,0.0122262,1868,1401,23.2095,-11.1131
651,-377,23.2117,10.6907,0.000739414,0.000426204,-0.000774244,0.00137273,-0.000207114,-0.68561,0.00099143,0.0129524,1875,1401,23.2116,-10.6907
658,-377,23.2141,10.3116,0.000948449,0.000205025,-0.000522156,0.00121769,-6.42129e-05,-0.476071,0.00083402,0.0146422,1882,1401,23.2141,-10.3117
665,-377,23.2104,9.90039,0.00119915,0.000107686,-0.000319821,0.00128596,2.08762e-05,-0.265046,0.000850433,0.0176021,1889,1401,23.2104,-9.90043
672,-377,23.1862,9.495,0.00150422,2.87481e-05,-0.000171602,0.00152392,9.05321e-06,-0.114271,0.00101294,0.0181498,1896,1401,23.1861,-9.49495
679,-377,23.1544,9.12659,0.00193579,4.72663e-06,-0.000117992,0.00194298,-2.45625e-06,-0.0608005,0.00129614,0.0182788,1903,1401,23.1544,-9.1266
686,-377,23.1577,8.75232,0.00246216,-2.33682e-05,-0.00011808,0.00246776,-2.89653e-05,-0.047365,0.00165491,0.0155422,1910,1401,23.1577,-8.75227
693,-377,23.1852,8.31519,0.00314947,6.81469e-05,-0.000274436,0.00317373,4.38954e-05,-0.0881399,0.00210134,0.0136378,1917,1401,23.1852,-8.31514
700,-377,23.4182,7.95972,0,0,0,0,0,0,0,-1,1924,1401,23.4183,-7.95968
707,-377,23.0365,7.34973,0,0,0,0,0,0,0,-1,1931,1401,23.0365,-7.34975
714,-377,16.5369,5.45959,0,0,0,0,0,0,0,-1,1938,1401,16.5369,-5.4596
721,-377,17.0913,5.42529,0,0,0,0,0,0,0,-1,1945,1401,17.0914,-5.42529
728,-377,14.5396,2.79724,0,0,0,0,0,0,0,-1,1952,1401,14.5396,-2.7972
735,-377,23.2977,-0.991089,0,0,0,0,0,0,0,-1,1959,1401,23.2978,0.991076
742,-377,0,0,0,0,0,0,0,0,0,-1,1966,1401,0,0
749,-377,0,0,0,0,0,0,0,0,0,-1,1973,1401,0,0
756,-377,0,0,0,0,0,0,0,0,0,-1,1980,1401,0,0
763,-377,0,0,0,0,0,0,0,0,0,-1,1987,1401,0,0
770,-377,0,0,0,0,0,0,0,0,0,-1,1994,1401,0,0
777,-377,0,0,0,0,0,0,0,0,0,-1,2001,1401,0,0
784,-377,0,0,0,0,0,0,0,0,0,-1,2008,1401,0,0
791,-377,0,0,0,0,0,0,0,0,0,-1,2015,1401,0,0
798,-377,0,0,0,0,0,0,0,0,0,-1,2022,1401,0,0
805,-377,0,0,0,0,0,0,0,0,0,-1,2029,1401,0,0
812,-377,0,0,0,0,0,0,0,0,0,-1,2036,1401,0,0
-700,-384,0,0,0,0,0,0,0,0,0,-1,524,1408,0,0
-693,-384,0,0,0,0,0,0,0,0,0,-1,531,1408,0,0
-686,-384,0,0,0,0,0,0,0,0,0,-1,538,1408,0,0
-679,-384,0,0,0,0,0,0,0,0,0,-1,545,1408,0,0
-672,-384,0,0,0,0,0,0,0,0,0,-1,552,1408,0,0
-665,-384,0,0,0,0,0,0,0,0,0,-1,559,1408,0,0
-658,-384,0,0,0,0,0,0,0,0,0,-1,566,1408,0,0
-651,-384,0,0,0,0,0,0,0,0,0,-1,573,1408,0,0
-644,-384,0,0,0,0,0,0,0,0,0,-1,580,1408,0,0
-637,-384,0,0,0,0,0,0,0,0,0,-1,587,1408,0,0
-630,-384,0,0,0,0,0,0,0,0,0,-1,594,1408,0,0
-623,-384,0,0,0,0,0,0,0,0,0,-1,601,1408,0,0
-616,-384,-10.019,-3.36646,0,0,0,0,0,0,0,-1,608,1408,-10.019,3.36648
-609,-384,-7.72357,-2.3418,0,0,0,0,0,0,0,-1,615,1408,-7.72358,2.34182
-602,-384,-11.7632,-2.85156,0,0,0,0,0,0,0,-1,622,1408,-11.7632,2.85157
-595,-384,-10.2217,2.8855,0,0,0,0,0,0,0,-1,629,1408,-10.2218,-2.88548
-588,-384,-9.71045,2.79968,0,0,0,0,0,0,0,-1,636,1408,-9.71046,-2.79971
-581,-384,-9.32562,3.38843,0,0,0,0,0,0,0,-1,643,1408,-9.32559,-3.38837
-574,-384,-9.99164,5.52905,0,0,0,0,0,0,0,-1,650,1408,-9.99165,-5.52909
-567,-384,-10.3481,5.85132,0,0,0,0,0,0,0,-1,657,1408,-10.3481,-5.85129
-560,-384,-10.4633,6.07593,0,0,0,0,0,0,0,-1,664,1408,-10.4633,-6.07589
-553,-384,-10.3934,6.60278,-0.00672236,-0.000802269,-0.00312964,0.000545411,-0.00807004,-1.16418,0.00557074,0.0296215,671,1408,-10.3934,-6.60283
-546,-384,-10.3781,7.09045,-0.00431897,-0.00043316,-0.00206151,0.000456725,-0.00520885,-1.16329,0.00363439,0.0149011,678,1408,-10.3781,-7.09051
-539,-384,-10.3921,7.51331,-0.00223053,-9.37021e-05,-0.00109334,0.000366578,-0.00269081,-1.17233,0.00192772,0.0162446,685,1408,-10.3921,-7.51328
-532,-384,-10.3849,7.90576,-0.000266629,0.000303367,-0.000107865,0.000323096,-0.000286358,-1.38989,0.000352082,0.022246,692,1408,-10.3849,-7.90575
-525,-384,-10.3615,8.37988,0.0015849,0.000692493,0.00088212,0.00212725,0.000150146,0.551247,0.00137086,0.0211702,699,1408,-10.3615,-8.37983
-518,-384,-10.3868,8.83459,0.00338999,0.00115264,0.00191107,0.00448573,5.69052e-05,0.520604,0.0029717,0.0121973,706,1408,-10.3867,-8.83459
-511,-384,-10.4168,9.29199,0.00521535,0.00174245,0.00306136,0.00699845,-4.06457e-05,0.527417,0.00467924,0.0101036,713,1408,-10.4168,-9.29196
-504,-384,-10.4235,9.74365,0.00714876,0.00243582,0.00434573,0.0097358,-0.000151222,0.536961,0.00654152,0.011491,720,1408,-10.4235,-9.74365
-497,-384,-10.3688,10.2388,0.00931407,0.00332134,0.00583936,0.012881,-0.000245553,0.548349,0.00867032,0.0319459,727,1408,-10.3688,-10.2388
-490,-384,-9.99957,10.9021,0,0,0,0,0,0,0,-1,734,1408,-9.99955,-10.9021
-483,-384,-6.26471,7.61194,0,0,0,0,0,0,0,-1,741,1408,-6.26469,-7.61191
-476,-384,-6.02734,5.67761,0,0,0,0,0,0,0,-1,748,1408,-6.02736,-5.6776
-469,-384,-10.206,2.63721,0,0,0,0,0,0,0,-1,755,1408,-10.206,-2.6372
-462,-384,-9.04291,1.43542,0,0,0,0,0,0,0,-1,762,1408,-9.04293,-1.43545
-455,-384,-7.87988,0.233765,0,0,0,0,0,0,0,-1,769,1408,-7.87986,-0.233709
-448,-384,-9.35529,7.19226,0,0,0,0,0,0,0,-1,776,1408,-9.35531,-7.19226
-441,-384,-10.4697,1.79004,0,0,0,0,0,0,0,-1,783,1408,-10.4697,-1.79003
-434,-384,-10.6449,0.552246,0,0,0,0,0,0,0,-1,790,1408,-10.6449,-0.552216
-427,-384,-10.968,1.10583,0,0,0,0,0,0,0,-1,797,1408,-10.968,-1.10588
-420,-384,-12.5607,4.54858,0,0,0,0,0,0,0,-1,804,1408,-12.5607,-4.54859
-413,-384,0,0,0,0,0,0,0,0,0,-1,811,1408,0,0
-406,-384,0,0,0,0,0,0,0,0,0,-1,818,1408,0,0
-399,-384,0,0,0,0,0,0,0,0,0,-1,825,1408,0,0
-392,-384,0,0,0,0,0,0,0,0,0,-1,832,1408,0,0
-385,-384,0,0,0,0,0,0,0,0,0,-1,839,1408,0,0
-378,-384,0,0,0,0,0,0,0,0,0,-1,846,1408,0,0
-371,-384,0,0,0,0,0,0,0,0,0,-1,853,1408,0,0
-364,-384,0,0,0,0,0,0,0,0,0,-1,860,1408,0,0
-357,-384,0,0,0,0,0,0,0,0,0,-1,867,1408,0,0
-350,-384,0,0,0,0,0,0,0,0,0,-1,874,1408,0,0
-343,-384,0,0,0,0,0,0,0,0,0,-1,881,1408,0,0
-336,-384,0,0,0,0,0,0,0,0,0,-1,888,1408,0,0
-329,-384,0,0,0,0,0,0,0,0,0,-1,895,1408,0,0
-322,-384,0,0,0,0,0,0,0,0,0,-1,902,1408,0,0
-315,-384,0,0,0,0,0,0,0,0,0,-1,909,1408,0,0
-308,-384,0,0,0,0,0,0,0,0,0,-1,916,1408,0,0
-301,-384,0,0,0,0,0,0,0,0,0,-1,923,1408,0,0
-294,-384,0,0,0,0,0,0,0,0,0,-1,930,1408,0,0
-287,-384,0,0,0,0,0,0,0,0,0,-1,937,1408,0,0
-280,-384,0,0,0,0,0,0,0,0,0,-1,944,1408,0,0
-273,-384,0,0,0,0,0,0,0,0,0,-1,951,1408,0,0
-266,-384,0,0,0,0,0,0,0,0,0,-1,958,1408,0,0
-259,-384,0,0,0,0,0,0,0,0,0,-1,965,1408,0,0
-252,-384,0,0,0,0,0,0,0,0,0,-1,972,1408,0,0
-245,-384,0,0,0,0,0,0,0,0,0,-1,979,1408,0,0
-238,-384,0,0,0,0,0,0,0,0,0,-1,986,1408,0,0
-231,-384,0,0,0,0,0,0,0,0,0,-1,993,1408,0,0
-224,-384,0,0,0,0,0,0,0,0,0,-1,1000,1408,0,0
-217,-384,0,0,0,0,0,0,0,0,0,-1,1007,1408,0,0
-210,-384,0,0,0,0,0,0,0,0,0,-1,1014,1408,0,0
-203,-384,0,0,0,0,0,0,0,0,0,-1,1021,1408,0,0
-196,-384,0,0,0,0,0,0,0,0,0,-1,1028,1408,0,0
-189,-384,0,0,0,0,0,0,0,0,0,-1,1035,1408,0,0
-182,-384,0,0,0,0,0,0,0,0,0,-1,1042,1408,0,0
-175,-384,0,0,0,0,0,0,0,0,0,-1,1049,1408,0,0
-168,-384,0,0,0,0,0,0,0,0,0,-1,1056,1408,0,0
-161,-384,0,0,0,0,0,0,0,0,0,-1,1063,1408,0,0
-154,-384,0,0,0,0,0,0,0,0,0,-1,1070,1408,0,0
-147,-384,0,0,0,0,0,0,0,0,0,-1,1077,1408,0,0
-140,-384,0,0,0,0,0,0,0,0,0,-1,1084,1408,0,0
-133,-384,0,0,0,0,0,0,0,0,0,-1,1091,1408,0,0
-126,-384,0,0,0,0,0,0,0,0,0,-1,1098,1408,0,0
-119,-384,0,0,0,0,0,0,0,0,0,-1,1105,1408,0,0
-112,-384,0,0,0,0,0,0,0,0,0,-1,1112,1408,0,0
-105,-384,0,0,0,0,0,0,0,0,0,-1,1119,1408,0,0
-98,-384,0,0,0,0,0,0,0,0,0,-1,1126,1408,0,0
-91,-384,0,0,0,0,0,0,0,0,0,-1,1133,1408,0,0
-84,-384,0,0,0,0,0,0,0,0,0,-1,1140,1408,0,0
-77,-384,0,0,0,0,0,0,0,0,0,-1,1147,1408,0,0
-70,-384,0,0,0,0,0,0,0,0,0,-1,1154,1408,0,0
-63,-384,0,0,0,0,0,0,0,0,0,-1,1161,1408,0,0
-56,-384,0,0,0,0,0,0,0,0,0,-1,1168,1408,0,0
-49,-384,0,0,0,0,0,0,0,0,0,-1,1175,1408,0,0
-42,-384,0,0,0,0,0,0,0,0,0,-1,1182,1408,0,0
-35,-384,0,0,0,0,0,0,0,0,0,-1,1189,1408,0,0
-28,-384,0,0,0,0,0,0,0,0,0,-1,1196,1408,0,0
-21,-384,0,0,0,0,0,0,0,0,0,-1,1203,1408,0,0
-14,-384,0,0,0,0,0,0,0,0,0,-1,1210,1408,0,0
-7,-384,0,0,0,0,0,0,0,0,0,-1,1217,1408,0,0
0,-384,0,0,0,0,0,0,0,0,0,-1,1224,1408,0,0
7,-384,0,0,0,0,0,0,0,0,0,-1,1231,1408,0,0
14,-384,0,0,0,0,0,0,0,0,0,-1,1238,1408,0,0
21,-384,0,0,0,0,0,0,0,0,0,-1,1245,1408,0,0
28,-384,0,0,0,0,0,0,0,0,0,-1,1252,1408,0,0
35,-384,0,0,0,0,0,0,0,0,0,-1,1259,1408,0,0
42,-384,0,0,0,0,0,0,0,0,0,-1,1266,1408,0,0
49,-384,0,0,0,0,0,0,0,0,0,-1,1273,1408,0,0
56,-384,0,0,0,0,0,0,0,0,0,-1,1280,1408,0,0
63,-384,0,0,0,0,0,0,0,0,0,-1,1287,1408,0,0
70,-384,0,0,0,0,0,0,0,0,0,-1,1294,1408,0,0
77,-384,0,0,0,0,0,0,0,0,0,-1,1301,1408,0,0
84,-384,0,0,0,0,0,0,0,0,0,-1,1308,1408,0,0
91,-384,0,0,0,0,0,0,0,0,0,-1,1315,1408,0,0
98,-384,0,0,0,0,0,0,0,0,0,-1,1322,1408,0,0
105,-384,0,0,0,0,0,0,0,0,0,-1,1329,1408,0,0
112,-384,0,0,0,0,0,0,0,0,0,-1,1336,1408,0,0
119,-384,0,0,0,0,0,0,0,0,0,-1,1343,1408,0,0
126,-384,0,0,0,0,0,0,0,0,0,-1,1350,1408,0,0
133,-384,0,0,0,0,0,0,0,0,0,-1,1357,1408,0,0
140,-384,0,0,0,0,0,0,0,0,0,-1,1364,1408,0,0
147,-384,0,0,0,0,0,0,0,0,0,-1,1371,1408,0,0
154,-384,0,0,0,0,0,0,0,0,0,-1,1378,1408,0,0
161,-384,0,0,0,0,0,0,0,0,0,-1,1385,1408,0,0
168,-384,0,0,0,0,0,0,0,0,0,-1,1392,1408,0,0
175,-384,0,0,0,0,0,0,0,0,0,-1,1399,1408,0,0
182,-384,0,0,0,0,0,0,0,0,0,-1,1406,1408,0,0
189,-384,0,0,0,0,0,0,0,0,0,-1,1413,1408,0,0
196,-384,0,0,0,0,0,0,0,0,0,-1,1420,1408,0,0
203,-384,0,0,0,0,0,0,0,0,0,-1,1427,1408,0,0
210,-384,0,0,0,0,0,0,0,0,0,-1,1434,1408,0,0
217,-384,0,0,0,0,0,0,0,0,0,-1,1441,1408,0,0
224,-384,0,0,0,0,0,0,0,0,0,-1,1448,1408,0,0
231,-384,0,0,0,0,0,0,0,0,0,-1,1455,1408,0,0
238,-384,0,0,0,0,0,0,0,0,0,-1,1462,1408,0,0
245,-384,0,0,0,0,0,0,0,0,0,-1,1469,1408,0,0
252,-384,0,0,0,0,0,0,0,0,0,-1,1476,1408,0,0
259,-384,0,0,0,0,0,0,0,0,0,-1,1483,1408,0,0
266,-384,0,0,0,0,0,0,0,0,0,-1,1490,1408,0,0
273,-384,0,0,0,0,0,0,0,0,0,-1,1497,1408,0,0
280,-384,0,0,0,0,0,0,0,0,0,-1,1504,1408,0,0
287,-384,0,0,0,0,0,0,0,0,0,-1,1511,1408,0,0
294,-384,0,0,0,0,0,0,0,0,0,-1,1518,1408,0,0
301,-384,0,0,0,0,0,0,0,0,0,-1,1525,1408,0,0
308,-384,0,0,0,0,0,0,0,0,0,-1,1532,1408,0,0
315,-384,0,0,0,0,0,0,0,0,0,-1,1539,1408,0,0
322,-384,0,0,0,0,0,0,0,0,0,-1,1546,1408,0,0
329,-384,0,0,0,0,0,0,0,0,0,-1,1553,1408,0,0
336,-384,0,0,0,0,0,0,0,0,0,-1,1560,1408,0,0
343,-384,0,0,0,0,0,0,0,0,0,-1,1567,1408,0,0
350,-384,0,0,0,0,0,0,0,0,0,-1,1574,1408,0,0
357,-384,0,0,0,0,0,0,0,0,0,-1,1581,1408,0,0
364,-384,0,0,0,0,0,0,0,0,0,-1,1588,1408,0,0
371,-384,0,0,0,0,0,0,0,0,0,-1,1595,1408,0,0
378,-384,0,0,0,0,0,0,0,0,0,-1,1602,1408,0,0
385,-384,0,0,0,0,0,0,0,0,0,-1,1609,1408,0,0
392,-384,0,0,0,0,0,0,0,0,0,-1,1616,1408,0,0
399,-384,0,0,0,0,0,0,0,0,0,-1,1623,1408,0,0
406,-384,0,0,0,0,0,0,0,0,0,-1,1630,1408,0,0
413,-384,0,0,0,0,0,0,0,0,0,-1,1637,1408,0,0
420,-384,0,0,0,0,0,0,0,0,0,-1,1644,1408,0,0
427,-384,0,0,0,0,0,0,0,0,0,-1,1651,1408,0,0
434,-384,0,0,0,0,0,0,0,0,0,-1,1658,1408,0,0
441,-384,0,0,0,0,0,0,0,0,0,-1,1665,1408,0,0
448,-384,0,0,0,0,0,0,0,0,0,-1,1672,1408,0,0
455,-384,0,0,0,0,0,0,0,0,0,-1,1679,1408,0,0
462,-384,0,0,0,0,0,0,0,0,0,-1,1686,1408,0,0
469,-384,0,0,0,0,0,0,0,0,0,-1,1693,1408,0,0
476,-384,0,0,0,0,0,0,0,0,0,-1,1700,1408,0,0
483,-384,0,0,0,0,0,0,0,0,0,-1,1707,1408,0,0
490,-384,0,0,0,0,0,0,0,0,0,-1,1714,1408,0,0
497,-384,0,0,0,0,0,0,0,0,0,-1,1721,1408,0,0
504,-384,0,0,0,0,0,0,0,0,0,-1,1728,1408,0,0
511,-384,0,0,0,0,0,0,0,0,0,-1,1735,1408,0,0
518,-384,0,0,0,0,0,0,0,0,0,-1,1742,1408,0,0
525,-384,0,0,0,0,0,0,0,0,0,-1,1749,1408,0,0
532,-384,0,0,0,0,0,0,0,0,0,-1,1756,1408,0,0
539,-384,27.6886,2.85803,0,0,0,0,0,0,0,-1,1763,1408,27.6886,-2.85807
546,-384,27.5044,2.9425,0,0,0,0,0,0,0,-1,1770,1408,27.5044,-2.94255
553,-384,27.3052,2.78394,0,0,0,0,0,0,0,-1,1777,1408,27.3051,-2.78394
560,-384,26.833,3.19812,0,0,0,0,0,0,0,-1,1784,1408,26.833,-3.19816
567,-384,32.4751,6.03601,0,0,0,0,0,0,0,-1,1791,1408,32.4751,-6.03605
574,-384,25.8635,3.7915,0,0,0,0,0,0,0,-1,1798,1408,25.8636,-3.79148
581,-384,25.819,3.91846,0,0,0,0,0,0,0,-1,1805,1408,25.8189,-3.91848
588,-384,23.3721,4.25439,0,0,0,0,0,0,0,-1,1812,1408,23.3721,-4.25442
595,-384,24.981,5.59595,0,0,0,0,0,0,0,-1,1819,1408,24.981,-5.59598
602,-384,20.6605,4.17261,0,0,0,0,0,0,0,-1,1826,1408,20.6606,-4.17265
609,-384,14.158,5.49475,0,0,0,0,0,0,0,-1,1833,1408,14.158,-5.49474
616,-384,14.7997,7.6908,0,0,0,0,0,0,0,-1,1840,1408,14.7996,-7.69079
623,-384,16.4293,9.58899,0,0,0,0,0,0,0,-1,1847,1408,16.4294,-9.58901
630,-384,22.7765,11.9926,0,0,0,0,0,0,0,-1,1854,1408,22.7765,-11.9925
637,-384,22.8136,11.5424,0.000765484,0.000827547,-0.00119755,0.00199447,-0.000401435,-0.798351,0.00148169,0.0182706,1861,1408,22.8136,-11.5424
644,-384,22.7854,11.1345,0.000774106,0.000577511,-0.00089514,0.00157633,-0.000224713,-0.730711,0.00113324,0.0156607,1868,1408,22.7855,-11.1345
651,-384,22.786,10.6902,0.000860147,0.000343599,-0.000609995,0.00126429,-6.05469e-05,-0.585139,0.000863752,0.0152714,1875,1408,22.786,-10.6902
658,-384,22.7953,10.3074,0.00103617,0.000138439,-0.000393954,0.00118453,-9.92266e-06,-0.36017,0.000793014,0.0152585,1882,1408,22.7953,-10.3074
665,-384,22.811,9.93054,0.00125763,3.91581e-05,-0.000206489,0.00129167,5.11645e-06,-0.16339,0.000859412,0.0171315,1889,1408,22.811,-9.93051
672,-384,22.796,9.51135,0.00157374,-6.08377e-05,-6.679e-05,0.00157646,-6.35622e-05,-0.0407702,0.00107279,0.0156246,1896,1408,22.796,-9.51136
679,-384,22.7554,9.1084,0.00203028,-0.00014426,4.31613e-06,0.00203029,-0.000144269,0.00198484,0.00140409,0.0157633,1903,1408,22.7554,-9.10843
686,-384,22.7417,8.73438,0.00262667,-0.00029267,5.86362e-05,0.00262784,-0.000293847,0.0200747,0.00185761,0.0127348,1910,1408,22.7417,-8.73436
693,-384,22.7833,8.33228,0.00350944,-0.00033118,-6.39843e-05,0.0035105,-0.000332246,-0.0166537,0.00245858,0.0204293,1917,1408,22.7833,-8.33222
700,-384,22.851,7.93262,0,0,0,0,0,0,0,-1,1924,1408,22.851,-7.93265
707,-384,17.0566,6.62842,0,0,0,0,0,0,0,-1,1931,1408,17.0567,-6.62848
714,-384,16.038,5.0282,0,0,0,0,0,0,0,-1,1938,1408,16.038,-5.02819
721,-384,13.8843,2.8717,0,0,0,0,0,0,0,-1,1945,1408,13.8843,-2.87171
728,-384,15.4409,6.25745,0,0,0,0,0,0,0,-1,1952,1408,15.4409,-6.2574
735,-384,16.7598,6.71289,0,0,0,0,0,0,0,-1,1959,1408,16.7598,-6.71287
742,-384,0,0,0,0,0,0,0,0,0,-1,1966,1408,0,0
749,-384,0,0,0,0,0,0,0,0,0,-1,1973,1408,0,0
756,-384,0,0,0,0,0,0,0,0,0,-1,1980,1408,0,0
763,-384,0,0,0,0,0,0,0,0,0,-1,1987,1408,0,0
770,-384,0,0,0,0,0,0,0,0,0,-1,1994,1408,0,0
777,-384,0,0,0,0,0,0,0,0,0,-1,2001,1408,0,0
784,-384,0,0,0,0,0,0,0,0,0,-1,2008,1408,0,0
791,-384,0,0,0,0,0,0,0,0,0,-1,2015,1408,0,0
798,-384,0,0,0,0,0,0,0,0,0,-1,2022,1408,0,0
805,-384,0,0,0,0,0,0,0,0,0,-1,2029,1408,0,0
812,-384,0,0,0,0,0,0,0,0,0,-1,2036,1408,0,0
-700,-391,0,0,0,0,0,0,0,0,0,-1,524,1415,0,0
-693,-391,0,0,0,0,0,0,0,0,0,-1,531,1415,0,0
-686,-391,0,0,0,0,0,0,0,0,0,-1,538,1415,0,0
-679,-391,0,0,0,0,0,0,0,0,0,-1,545,1415,0,0
-672,-391,0,0,0,0,0,0,0,0,0,-1,552,1415,0,0
-665,-391,0,0,0,0,0,0,0,0,0,-1,559,1415,0,0
-658,-391,0,0,0,0,0,0,0,0,0,-1,566,1415,0,0
-651,-391,0,0,0,0,0,0,0,0,0,-1,573,1415,0,0
-644,-391,0,0,0,0,0,0,0,0,0,-1,580,1415,0,0
-637,-391,0,0,0,0,0,0,0,0,0,-1,587,1415,0,0
-630,-391,0,0,0,0,0,0,0,0,0,-1,594,1415,0,0
-623,-391,0,0,0,0,0,0,0,0,0,-1,601,1415,0,0
-616,-391,0,0,0,0,0,0,0,0,0,-1,608,1415,0,0
-609,-391,-7.71753,-3.69763,0,0,0,0,0,0,0,-1,615,1415,-7.71751,3.69759
-602,-391,-13.9493,-4.12805,0,0,0,0,0,0,0,-1,622,1415,-13.9493,4.12803
-595,-391,-10.8315,1.76172,0,0,0,0,0,0,0,-1,629,1415,-10.8315,-1.76171
-588,-391,-10.265,2.16431,0,0,0,0,0,0,0,-1,636,1415,-10.265,-2.16431
-581,-391,-10.071,3.51843,0,0,0,0,0,0,0,-1,643,1415,-10.071,-3.51848
-574,-391,-9.49866,4.55408,0,0,0,0,0,0,0,-1,650,1415,-9.49866,-4.5541
-567,-391,-10.0491,5.72925,0,0,0,0,0,0,0,-1,657,1415,-10.0491,-5.72929
-560,-391,-10.0489,6.13879,0,0,0,0,0,0,0,-1,664,1415,-10.0489,-6.13881
-553,-391,-9.87854,6.58655,-0.008245,-0.000758744,-0.0035904,0.000684843,-0.00968858,-1.18851,0.00669901,0.0473045,671,1415,-9.87851,-6.58659
-546,-391,-9.95227,7.08484,-0.0056602,-0.000430462,-0.00250806,0.000577915,-0.00666857,-1.18852,0.00465034,0.014325,678,1415,-9.95227,-7.08486
-539,-391,-9.91095,7.53125,-0.0034888,-0.000139048,-0.00155246,0.000469789,-0.00409764,-1.19705,0.00290106,0.0141876,685,1415,-9.91092,-7.53121
-532,-391,-9.92096,7.97131,-0.00149618,0.000225736,-0.00059518,0.000411433,-0.00168188,-1.26837,0.00128062,0.0252796,692,1415,-9.92095,-7.97133
-525,-391,-9.89746,8.42822,0.000380042,0.000616703,0.000382334,0.000898599,9.81454e-05,0.935471,0.000569179,0.0237603,699,1415,-9.89744,-8.42821
-518,-391,-9.94714,8.85156,0.00219178,0.00107495,0.00139439,0.00313541,0.00013132,0.594941,0.00204791,0.0139408,706,1415,-9.94716,-8.8516
-511,-391,-9.95721,9.31152,0.00401591,0.00167048,0.00252299,0.00562541,6.09821e-05,0.567847,0.00373011,0.0126099,713,1415,-9.95721,-9.31157
-504,-391,-9.96869,9.76306,0.00591434,0.00238979,0.00376985,0.00831348,-9.35001e-06,0.566757,0.00554544,0.0116175,720,1415,-9.96866,-9.76306
-497,-391,-9.9823,10.1906,0.0079172,0.00322719,0.00515971,0.0112398,-9.54047e-05,0.57211,0.0075252,0.0123849,727,1415,-9.98228,-10.1906
-490,-391,-9.91467,10.744,0.0102709,0.004274,0.00683289,0.0147343,-0.000189385,0.578636,0.0098866,0.0433584,734,1415,-9.9147,-10.7441
-483,-391,-9.73419,11.4459,0,0,0,0,0,0,0,-1,741,1415,-9.73421,-11.4459
-476,-391,-6.05731,6.85303,0,0,0,0,0,0,0,-1,748,1415,-6.05728,-6.85304
-469,-391,-3.88953,5.0979,0,0,0,0,0,0,0,-1,755,1415,-3.88955,-5.09794
-462,-391,-8.67688,2.03125,0,0,0,0,0,0,0,-1,762,1415,-8.67685,-2.03121
-455,-391,-8.65576,6.46997,0,0,0,0,0,0,0,-1,769,1415,-8.65579,-6.46999
-448,-391,-8.39618,4.38403,0,0,0,0,0,0,0,-1,776,1415,-8.39617,-4.38405
-441,-391,-9.77704,2.5946,0,0,0,0,0,0,0,-1,783,1415,-9.77702,-2.5946
-434,-391,-11.5403,2.12878,0,0,0,0,0,0,0,-1,790,1415,-11.5403,-2.12881
-427,-391,-10.5311,2.50403,0,0,0,0,0,0,0,-1,797,1415,-10.5311,-2.504
-420,-391,-14.7087,1.24365,0,0,0,0,0,0,0,-1,804,1415,-14.7088,-1.24365
-413,-391,0,0,0,0,0,0,0,0,0,-1,811,1415,0,0
-406,-391,0,0,0,0,0,0,0,0,0,-1,818,1415,0,0
-399,-391,0,0,0,0,0,0,0,0,0,-1,825,1415,0,0
-392,-391,0,0,0,0,0,0,0,0,0,-1,832,1415,0,0
-385,-391,0,0,0,0,0,0,0,0,0,-1,839,1415,0,0
-378,-391,0,0,0,0,0,0,0,0,0,-1,846,1415,0,0
-371,-391,0,0,0,0,0,0,0,0,0,-1,853,1415,0,0
-364,-391,0,0,0,0,0,0,0,0,0,-1,860,1415,0,0
-357,-391,0,0,0,0,0,0,0,0,0,-1,867,1415,0,0
-350,-391,0,0,0,0,0,0,0,0,0,-1,874,1415,0,0
-343,-391,0,0,0,0,0,0,0,0,0,-1,881,1415,0,0
-336,-391,0,0,0,0,0,0,0,0,0,-1,888,1415,0,0
-329,-391,0,0,0,0,0,0,0,0,0,-1,895,1415,0,0
-322,-391,0,0,0,0,0,0,0,0,0,-1,902,1415,0,0
-315,-391,0,0,0,0,0,0,0,0,0,-1,909,1415,0,0
-308,-391,0,0,0,0,0,0,0,0,0,-1,916,1415,0,0
-301,-391,0,0,0,0,0,0,0,0,0,-1,923,1415,0,0
-294,-391,0,0,0,0,0,0,0,0,0,-1,930,1415,0,0
-287,-391,0,0,0,0,0,0,0,0,0,-1,937,1415,0,0
-280,-391,0,0,0,0,0,0,0,0,0,-1,944,1415,0,0
-273,-391,0,0,0,0,0,0,0,0,0,-1,951,1415,0,0
-266,-391,0,0,0,0,0,0,0,0,0,-1,958,1415,0,0
-259,-391,0,0,0,0,0,0,0,0,0,-1,965,1415,0,0
-252,-391,0,0,0,0,0,0,0,0,0,-1,972,1415,0,0
-245,-391,0,0,0,0,0,0,0,0,0,-1,979,1415,0,0
-238,-391,0,0,0,0,0,0,0,0,0,-1,986,1415,0,0
-231,-391,0,0,0,0,0,0,0,0,0,-1,993,1415,0,0
-224,-391,0,0,0,0,0,0,0,0,0,-1,1000,1415,0,0
-217,-391,0,0,0,0,0,0,0,0,0,-1,1007,1415,0,0
-210,-391,0,0,0,0,0,0,0,0,0,-1,1014,1415,0,0
-203,-391,0,0,0,0,0,0,0,0,0,-1,1021,1415,0,0
-196,-391,0,0,0,0,0,0,0,0,0,-1,1028,1415,0,0
-189,-391,0,0,0,0,0,0,0,0,0,-1,1035,1415,0,0
-182,-391,0,0,0,0,0,0,0,0,0,-1,1042,1415,0,0
-175,-391,0,0,0,0,0,0,0,0,0,-1,1049,1415,0,0
-168,-391,0,0,0,0,0,0,0,0,0,-1,1056,1415,0,0
-161,-391,0,0,0,0,0,0,0,0,0,-1,1063,1415,0,0
-154,-391,0,0,0,0,0,0,0,0,0,-1,1070,1415,0,0
-147,-391,0,0,0,0,0,0,0,0,0,-1,1077,1415,0,0
-140,-391,0,0,0,0,0,0,0,0,0,-1,1084,1415,0,0
-133,-391,0,0,0,0,0,0,0,0,0,-1,1091,1415,0,0
-126,-391,0,0,0,0,0,0,0,0,0,-1,1098,1415,0,0
-119,-391,0,0,0,0,0,0,0,0,0,-1,1105,1415,0,0
-112,-391,0,0,0,0,0,0,0,0,0,-1,1112,1415,0,0
-105,-391,0,0,0,0,0,0,0,0,0,-1,1119,1415,0,0
-98,-391,0,0,0,0,0,0,0,0,0,-1,1126,1415,0,0
-91,-391,0,0,0,0,0,0,0,0,0,-1,1133,1415,0,0
-84,-391,0,0,0,0,0,0,0,0,0,-1,1140,1415,0,0
-77,-391,0,0,0,0,0,0,0,0,0,-1,1147,1415,0,0
-70,-391,0,0,0,0,0,0,0,0,0,-1,1154,1415,0,0
-63,-391,0,0,0,0,0,0,0,0,0,-1,1161,1415,0,0
-56,-391,0,0,0,0,0,0,0,0,0,-1,1168,1415,0,0
-49,-391,0,0,0,0,0,0,0,0,0,-1,1175,1415,0,0
-42,-391,0,0,0,0,0,0,0,0,0,-1,1182,1415,0,0
-35,-391,0,0,0,0,0,0,0,0,0,-1,1189,1415,0,0
-28,-391,0,0,0,0,0,0,0,0,0,-1,1196,1415,0,0
-21,-391,0,0,0,0,0,0,0,0,0,-1,1203,1415,0,0
-14,-391,0,0,0,0,0,0,0,0,0,-1,1210,1415,0,0
-7,-391,0,0,0,0,0,0,0,0,0,-1,1217,1415,0,0
0,-391,0,0,0,0,0,0,0,0,0,-1,1224,1415,0,0
7,-391,0,0,0,0,0,0,0,0,0,-1,1231,1415,0,0
14,-391,0,0,0,0,0,0,0,0,0,-1,1238,1415,0,0
21,-391,0,0,0,0,0,0,0,0,0,-1,1245,1415,0,0
28,-391,0,0,0,0,0,0,0,0,0,-1,1252,1415,0,0
35,-391,0,0,0,0,0,0,0,0,0,-1,1259,1415,0,0
42,-391,0,0,0,0,0,0,0,0,0,-1,1266,1415,0,0
49,-391,0,0,0,0,0,0,0,0,0,-1,1273,1415,0,0
56,-391,0,0,0,0,0,0,0,0,0,-1,1280,1415,0,0
63,-391,0,0,0,0,0,0,0,0,0,-1,1287,1415,0,0
70,-391,0,0,0,0,0,0,0,0,0,-1,1294,1415,0,0
77,-391,0,0,0,0,0,0,0,0,0,-1,1301,1415,0,0
84,-391,0,0,0,0,0,0,0,0,0,-1,1308,1415,0,0
91,-391,0,0,0,0,0,0,0,0,0,-1,1315,1415,0,0
98,-391,0,0,0,0,0,0,0,0,0,-1,1322,1415,0,0
105,-391,0,0,0,0,0,0,0,0,0,-1,1329,1415,0,0
112,-391,0,0,0,0,0,0,0,0,0,-1,1336,1415,0,0
119,-391,0,0,0,0,0,0,0,0,0,-1,1343,1415,0,0
126,-391,0,0,0,0,0,0,0,0,0,-1,1350,1415,0,0
133,-391,0,0,0,0,0,0,0,0,0,-1,1357,1415,0,0
140,-391,0,0,0,0,0,0,0,0,0,-1,1364,1415,0,0
147,-391,0,0,0,0,0,0,0,0,0,-1,1371,1415,0,0
154,-391,0,0,0,0,0,0,0,0,0,-1,1378,1415,0,0
161,-391,0,0,0,0,0,0,0,0,0,-1,1385,1415,0,0
168,-391,0,0,0,0,0,0,0,0,0,-1,1392,1415,0,0
175,-391,0,0,0,0,0,0,0,0,0,-1,1399,1415,0,0
182,-391,0,0,0,0,0,0,0,0,0,-1,1406,1415,0,0
189,-391,0,0,0,0,0,0,0,0,0,-1,1413,1415,0,0
196,-391,0,0,0,0,0,0,0,0,0,-1,1420,1415,0,0
203,-391,0,0,0,0,0,0,0,0,0,-1,1427,1415,0,0
210,-391,0,0,0,0,0,0,0,0,0,-1,1434,1415,0,0
217,-391,0,0,0,0,0,0,0,0,0,-1,1441,1415,0,0
224,-391,0,0,0,0,0,0,0,0,0,-1,1448,1415,0,0
231,-391,0,0,0,0,0,0,0,0,0,-1,1455,1415,0,0
238,-391,0,0,0,0,0,0,0,0,0,-1,1462,1415,0,0
245,-391,0,0,0,0,0,0,0,0,0,-1,1469,1415,0,0
252,-391,0,0,0,0,0,0,0,0,0,-1,1476,1415,0,0
259,-391,0,0,0,0,0,0,0,0,0,-1,1483,1415,0,0
266,-391,0,0,0,0,0,0,0,0,0,-1,1490,1415,0,0
273,-391,0,0,0,0,0,0,0,0,0,-1,1497,1415,0,0
280,-391,0,0,0,0,0,0,0,0,0,-1,1504,1415,0,0
287,-391,0,0,0,0,0,0,0,0,0,-1,1511,1415,0,0
294,-391,0,0,0,0,0,0,0,0,0,-1,1518,1415,0,0
301,-391,0,0,0,0,0,0,0,0,0,-1,1525,1415,0,0
308,-391,0,0,0,0,0,0,0,0,0,-1,1532,1415,0,0
315,-391,0,0,0,0,0,0,0,0,0,-1,1539,1415,0,0
322,-391,0,0,0,0,0,0,0,0,0,-1,1546,1415,0,0
329,-391,0,0,0,0,0,0,0,0,0,-1,1553,1415,0,0
336,-391,0,0,0,0,0,0,0,0,0,-1,1560,1415,0,0
343,-391,0,0,0,0,0,0,0,0,0,-1,1567,1415,0,0
350,-391,0,0,0,0,0,0,0,0,0,-1,1574,1415,0,0
357,-391,0,0,0,0,0,0,0,0,0,-1,1581,1415,0,0
364,-391,0,0,0,0,0,0,0,0,0,-1,1588,1415,0,0
371,-391,0,0,0,0,0,0,0,0,0,-1,1595,1415,0,0
378,-391,0,0,0,0,0,0,0,0,0,-1,1602,1415,0,0
385,-391,0,0,0,0,0,0,0,0,0,-1,1609,1415,0,0
392,-391,0,0,0,0,0,0,0,0,0,-1,1616,1415,0,0
399,-391,0,0,0,0,0,0,0,0,0,-1,1623,1415,0,0
406,-391,0,0,0,0,0,0,0,0,0,-1,1630,1415,0,0
413,-391,0,0,0,0,0,0,0,0,0,-1,1637,1415,0,0
420,-391,0,0,0,0,0,0,0,0,0,-1,1644,1415,0,0
427,-391,0,0,0,0,0,0,0,0,0,-1,1651,1415,0,0
434,-391,0,0,0,0,0,0,0,0,0,-1,1658,1415,0,0
441,-391,0,0,0,0,0,0,0,0,0,-1,1665,1415,0,0
448,-391,0,0,0,0,0,0,0,0,0,-1,1672,1415,0,0
455,-391,0,0,0,0,0,0,0,0,0,-1,1679,1415,0,0
462,-391,0,0,0,0,0,0,0,0,0,-1,1686,1415,0,0
469,-391,0,0,0,0,0,0,0,0,0,-1,1693,1415,0,0
476,-391,0,0,0,0,0,0,0,0,0,-1,1700,1415,0,0
483,-391,0,0,0,0,0,0,0,0,0,-1,1707,1415,0,0
490,-391,0,0,0,0,0,0,0,0,0,-1,1714,1415,0,0
497,-391,0,0,0,0,0,0,0,0,0,-1,1721,1415,0,0
504,-391,0,0,0,0,0,0,0,0,0,-1,1728,1415,0,0
511,-391,0,0,0,0,0,0,0,0,0,-1,1735,1415,0,0
518,-391,0,0,0,0,0,0,0,0,0,-1,1742,1415,0,0
525,-391,0,0,0,0,0,0,0,0,0,-1,1749,1415,0,0
532,-391,28.5959,3.02356,0,0,0,0,0,0,0,-1,1756,1415,28.596,-3.02358
539,-391,27.5881,3.25012,0,0,0,0,0,0,0,-1,1763,1415,27.5882,-3.25016
546,-391,27.2837,3.28064,0,0,0,0,0,0,0,-1,1770,1415,27.2837,-3.28064
553,-391,32.5952,5.04553,0,0,0,0,0,0,0,-1,1777,1415,32.5952,-5.04551
560,-391,31.2947,5.67017,0,0,0,0,0,0,0,-1,1784,1415,31.2947,-5.67011
567,-391,30.1473,6.17603,0,0,0,0,0,0,0,-1,1791,1415,30.1473,-6.17602
574,-391,27.5656,5.6842,0,0,0,0,0,0,0,-1,1798,1415,27.5655,-5.68422
581,-391,25.8883,5.76123,0,0,0,0,0,0,0,-1,1805,1415,25.8883,-5.76124
588,-391,24.2717,5.47986,0,0,0,0,0,0,0,-1,1812,1415,24.2717,-5.47982
595,-391,22.8827,6.1991,0,0,0,0,0,0,0,-1,1819,1415,22.8827,-6.19909
602,-391,15.1635,5.69849,0,0,0,0,0,0,0,-1,1826,1415,15.1635,-5.69847
609,-391,14.8285,7.50476,0,0,0,0,0,0,0,-1,1833,1415,14.8285,-7.50479
616,-391,20.7952,12.0503,0,0,0,0,0,0,0,-1,1840,1415,20.7952,-12.0503
623,-391,22.3989,12.2438,0,0,0,0,0,0,0,-1,1847,1415,22.3989,-12.2438
630,-391,22.4983,11.8391,0.00102547,0.00125012,-0.00136157,0.00250398,-0.000228402,-0.826554,0.00175043,0.0306872,1854,1415,22.4983,-11.8391
637,-391,22.4075,11.5168,0.0010169,0.000832625,-0.0010379,0.00196674,-0.000117216,-0.741127,0.00135193,0.0157328,1861,1415,22.4074,-11.5168
644,-391,22.3816,11.1221,0.000933731,0.000525968,-0.000721499,0.0014796,-1.99024e-05,-0.647698,0.000993102,0.0163585,1868,1415,22.3816,-11.122
651,-391,22.3811,10.7294,0.000941106,0.000292006,-0.000458843,0.00117858,5.45327e-05,-0.477586,0.000768187,0.0170789,1875,1415,22.381,-10.7294
658,-391,22.3796,10.3392,0.00101356,7.52886e-05,-0.000244494,0.00107345,1.5401e-05,-0.240215,0.000710554,0.0169614,1882,1415,22.3796,-10.3393
665,-391,22.3876,9.95129,0.0011323,-5.42405e-05,-4.38086e-05,0.00113391,-5.58558e-05,-0.0368545,0.000775231,0.013989,1889,1415,22.3875,-9.95127
672,-391,22.3713,9.53174,0.00134854,-0.000188794,0.000118451,0.00135761,-0.000197867,0.0764484,0.000977726,0.0120616,1896,1415,22.3713,-9.5317
679,-391,22.3466,9.11755,0.0017141,-0.000355226,0.000240787,0.00174175,-0.000382875,0.114325,0.00130761,0.0108772,1903,1415,22.3466,-9.11756
686,-391,22.3534,8.72156,0.00221604,-0.00066272,0.000406104,0.00227223,-0.000718912,0.137495,0.00180289,0.0137934,1910,1415,22.3533,-8.72152
693,-391,22.3308,8.46204,0.00304448,-0.000888337,0.000408393,0.00308644,-0.000930298,0.102387,0.00242788,0.0350847,1917,1415,22.3309,-8.46202
700,-391,22.349,8.21741,0,0,0,0,0,0,0,-1,1924,1415,22.349,-8.21735
707,-391,12.9524,5.96851,0,0,0,0,0,0,0,-1,1931,1415,12.9524,-5.96849
714,-391,15.6875,7.67896,0,0,0,0,0,0,0,-1,1938,1415,15.6875,-7.67893
721,-391,14.1808,8.08435,0,0,0,0,0,0,0,-1,1945,1415,14.1808,-8.08439
728,-391,13.8102,7.28174,0,0,0,0,0,0,0,-1,1952,1415,13.8102,-7.28174
735,-391,0,0,0,0,0,0,0,0,0,-1,1959,1415,0,0
742,-391,0,0,0,0,0,0,0,0,0,-1,1966,1415,0,0
749,-391,0,0,0,0,0,0,0,0,0,-1,1973,1415,0,0
756,-391,0,0,0,0,0,0,0,0,0,-1,1980,1415,0,0
763,-391,0,0,0,0,0,0,0,0,0,-1,1987,1415,0,0
770,-391,0,0,0,0,0,0,0,0,0,-1,1994,1415,0,0
777,-391,0,0,0,0,0,0,0,0,0,-1,2001,1415,0,0
784,-391,0,0,0,0,0,0,0,0,0,-1,2008,1415,0,0
791,-391,0,0,0,0,0,0,0,0,0,-1,2015,1415,0,0
798,-391,0,0,0,0,0,0,0,0,0,-1,2022,1415,0,0
805,-391,0,0,0,0,0,0,0,0,0,-1,2029,1415,0,0
812,-391,0,0,0,0,0,0,0,0,0,-1,2036,1415,0,0
-700,-398,0,0,0,0,0,0,0,0,0,-1,524,1422,0,0
-693,-398,0,0,0,0,0,0,0,0,0,-1,531,1422,0,0
-686,-398,0,0,0,0,0,0,0,0,0,-1,538,1422,0,0
-679,-398,0,0,0,0,0,0,0,0,0,-1,545,1422,0,0
-672,-398,0,0,0,0,0,0,0,0,0,-1,552,1422,0,0
-665,-398,0,0,0,0,0,0,0,0,0,-1,559,1422,0,0
-658,-398,0,0,0,0,0,0,0,0,0,-1,566,1422,0,0
-651,-398,0,0,0,0,0,0,0,0,0,-1,573,1422,0,0
-644,-398,0,0,0,0,0,0,0,0,0,-1,580,1422,0,0
-637,-398,0,0,0,0,0,0,0,0,0,-1,587,1422,0,0
-630,-398,0,0,0,0,0,0,0,0,0,-1,594,1422,0,0
-623,-398,0,0,0,0,0,0,0,0,0,-1,601,1422,0,0
-616,-398,0,0,0,0,0,0,0,0,0,-1,608,1422,0,0
-609,-398,-7.47125,-4.05322,0,0,0,0,0,0,0,-1,615,1422,-7.47128,4.05317
-602,-398,-4.58868,-2.77026,0,0,0,0,0,0,0,-1,622,1422,-4.58869,2.77023
-595,-398,-12.2224,-1.82007,0,0,0,0,0,0,0,-1,629,1422,-12.2224,1.82006
-588,-398,-10.6939,1.32336,0,0,0,0,0,0,0,-1,636,1422,-10.6939,-1.32337
-581,-398,-10.433,3.1123,0,0,0,0,0,0,0,-1,643,1422,-10.433,-3.11233
-574,-398,-6.07343,3.35437,0,0,0,0,0,0,0,-1,650,1422,-6.07343,-3.35439
-567,-398,-8.62555,6.84058,0,0,0,0,0,0,0,-1,657,1422,-8.62558,-6.84061
-560,-398,-8.87714,6.88599,0,0,0,0,0,0,0,-1,664,1422,-8.87711,-6.88598
-553,-398,-9.5556,6.52844,0,0,0,0,0,0,0,-1,671,1422,-9.55558,-6.52846
-546,-398,-9.52087,7.07141,-0.00739079,-0.000691045,-0.0030151,0.000466018,-0.00854786,-1.20437,0.00586009,0.0242424,678,1422,-9.52088,-7.07146
-539,-398,-9.45386,7.56421,-0.00507891,-0.000470425,-0.00207399,0.000325489,-0.00587482,-1.20437,0.00402943,0.0124421,685,1422,-9.45383,-7.56423
-532,-398,-9.4599,8.01587,-0.00300782,-0.00014937,-0.00115839,0.00026112,-0.00341831,-1.23024,0.00237071,0.0203724,692,1422,-9.45988,-8.01585
-525,-398,-9.45612,8.44141,-0.00104303,0.000262677,-0.000195877,0.000291428,-0.00107178,-1.42505,0.00082892,0.0201766,699,1422,-9.45612,-8.44144
-518,-398,-9.49622,8.86267,0.000837401,0.000741039,0.000790959,0.00158165,-3.2055e-06,0.754979,0.0010555,0.0177921,706,1422,-9.4962,-8.86264
-511,-398,-9.50439,9.29126,0.00269815,0.00136808,0.00188016,0.00402743,3.8808e-05,0.61541,0.00267211,0.013436,713,1422,-9.50441,-9.29122
-504,-398,-9.4939,9.74963,0.00460128,0.00213741,0.00307734,0.00668411,5.45762e-05,0.595006,0.00443799,0.0132302,720,1422,-9.49391,-9.74967
-497,-398,-9.53448,10.1941,0.00650045,0.00300857,0.00438965,0.00947863,3.03932e-05,0.59612,0.00630898,0.00993407,727,1422,-9.53451,-10.1941
-490,-398,-9.539,10.6362,0.00853251,0.00405633,0.00585617,0.0125637,2.51513e-05,0.602874,0.00836742,0.0161218,734,1422,-9.53901,-10.6363
-483,-398,-9.32135,11.2642,0.010474,0.00541161,0.00745235,0.0158133,7.2333e-05,0.621685,0.0105182,0.0482788,741,1422,-9.32133,-11.2641
-476,-398,-9.25208,11.5789,0,0,0,0,0,0,0,-1,748,1422,-9.25209,-11.5788
-469,-398,-8.91699,10.6276,0,0,0,0,0,0,0,-1,755,1422,-8.91697,-10.6275
-462,-398,-9.59753,9.32532,0,0,0,0,0,0,0,-1,762,1422,-9.59753,-9.32531
-455,-398,-8.08331,6.75024,0,0,0,0,0,0,0,-1,769,1422,-8.08333,-6.75022
-448,-398,-7.4505,5.25293,0,0,0,0,0,0,0,-1,776,1422,-7.4505,-5.25291
-441,-398,-7.61639,3.32141,0,0,0,0,0,0,0,-1,783,1422,-7.61637,-3.32145
-434,-398,-10.7618,3.297,0,0,0,0,0,0,0,-1,790,1422,-10.7618,-3.29704
-427,-398,-11.9061,2.24939,0,0,0,0,0,0,0,-1,797,1422,-11.9061,-2.24941
-420,-398,-13.467,2.32788,0,0,0,0,0,0,0,-1,804,1422,-13.467,-2.32787
-413,-398,-14.7983,2.15515,0,0,0,0,0,0,0,-1,811,1422,-14.7983,-2.15516
-406,-398,0,0,0,0,0,0,0,0,0,-1,818,1422,0,0
-399,-398,0,0,0,0,0,0,0,0,0,-1,825,1422,0,0
-392,-398,0,0,0,0,0,0,0,0,0,-1,832,1422,0,0
-385,-398,0,0,0,0,0,0,0,0,0,-1,839,1422,0,0
-378,-398,0,0,0,0,0,0,0,0,0,-1,846,1422,0,0
-371,-398,0,0,0,0,0,0,0,0,0,-1,853,1422,0,0
-364,-398,0,0,0,0,0,0,0,0,0,-1,860,1422,0,0
-357,-398,0,0,0,0,0,0,0,0,0,-1,867,1422,0,0
-350,-398,0,0,0,0,0,0,0,0,0,-1,874,1422,0,0
-343,-398,0,0,0,0,0,0,0,0,0,-1,881,1422,0,0
-336,-398,0,0,0,0,0,0,0,0,0,-1,888,1422,0,0
-329,-398,0,0,0,0,0,0,0,0,0,-1,895,1422,0,0
-322,-398,0,0,0,0,0,0,0,0,0,-1,902,1422,0,0
-315,-398,0,0,0,0,0,0,0,0,0,-1,909,1422,0,0
-308,-398,0,0,0,0,0,0,0,0,0,-1,916,1422,0,0
-301,-398,0,0,0,0,0,0,0,0,0,-1,923,1422,0,0
-294,-398,0,0,0,0,0,0,0,0,0,-1,930,1422,0,0
-287,-398,0,0,0,0,0,0,0,0,0,-1,937,1422,0,0
-280,-398,0,0,0,0,0,0,0,0,0,-1,944,1422,0,0
-273,-398,0,0,0,0,0,0,0,0,0,-1,951,1422,0,0
-266,-398,0,0,0,0,0,0,0,0,0,-1,958,1422,0,0
-259,-398,0,0,0,0,0,0,0,0,0,-1,965,1422,0,0
-252,-398,0,0,0,0,0,0,0,0,0,-1,972,1422,0,0
-245,-398,0,0,0,0,0,0,0,0,0,-1,979,1422,0,0
-238,-398,0,0,0,0,0,0,0,0,0,-1,986,1422,0,0
-231,-398,0,0,0,0,0,0,0,0,0,-1,993,1422,0,0
-224,-398,0,0,0,0,0,0,0,0,0,-1,1000,1422,0,0
-217,-398,0,0,0,0,0,0,0,0,0,-1,1007,1422,0,0
-210,-398,0,0,0,0,0,0,0,0,0,-1,1014,1422,0,0
-203,-398,0,0,0,0,0,0,0,0,0,-1,1021,1422,0,0
-196,-398,0,0,0,0,0,0,0,0,0,-1,1028,1422,0,0
-189,-398,0,0,0,0,0,0,0,0,0,-1,1035,1422,0,0
-182,-398,0,0,0,0,0,0,0,0,0,-1,1042,1422,0,0
-175,-398,0,0,0,0,0,0,0,0,0,-1,1049,1422,0,0
-168,-398,0,0,0,0,0,0,0,0,0,-1,1056,1422,0,0
-161,-398,0,0,0,0,0,0,0,0,0,-1,1063,1422,0,0
-154,-398,0,0,0,0,0,0,0,0,0,-1,1070,1422,0,0
-147,-398,0,0,0,0,0,0,0,0,0,-1,1077,1422,0,0
-140,-398,0,0,0,0,0,0,0,0,0,-1,1084,1422,0,0
-133,-398,0,0,0,0,0,0,0,0,0,-1,1091,1422,0,0
-126,-398,0,0,0,0,0,0,0,0,0,-1,1098,1422,0,0
-119,-398,0,0,0,0,0,0,0,0,0,-1,1105,1422,0,0
-112,-398,0,0,0,0,0,0,0,0,0,-1,1112,1422,0,0
-105,-398,0,0,0,0,0,0,0,0,0,-1,1119,1422,0,0
-98,-398,0,0,0,0,0,0,0,0,0,-1,1126,1422,0,0
-91,-398,0,0,0,0,0,0,0,0,0,-1,1133,1422,0,0
-84,-398,0,0,0,0,0,0,0,0,0,-1,1140,1422,0,0
-77,-398,0,0,0,0,0,0,0,0,0,-1,1147,1422,0,0
-70,-398,0,0,0,0,0,0,0,0,0,-1,1154,1422,0,0
-63,-398,0,0,0,0,0,0,0,0,0,-1,1161,1422,0,0
-56,-398,0,0,0,0,0,0,0,0,0,-1,1168,1422,0,0
-49,-398,0,0,0,0,0,0,0,0,0,-1,1175,1422,0,0
-42,-398,0,0,0,0,0,0,0,0,0,-1,1182,1422,0,0
-35,-398,0,0,0,0,0,0,0,0,0,-1,1189,1422,0,0
-28,-398,0,0,0,0,0,0,0,0,0,-1,1196,1422,0,0
-21,-398,0,0,0,0,0,0,0,0,0,-1,1203,1422,0,0
-14,-398,0,0,0,0,0,0,0,0,0,-1,1210,1422,0,0
-7,-398,0,0,0,0,0,0,0,0,0,-1,1217,1422,0,0
0,-398,0,0,0,0,0,0,0,0,0,-1,1224,1422,0,0
7,-398,0,0,0,0,0,0,0,0,0,-1,1231,1422,0,0
14,-398,0,0,0,0,0,0,0,0,0,-1,1238,1422,0,0
21,-398,0,0,0,0,0,0,0,0,0,-1,1245,1422,0,0
28,-398,0,0,0,0,0,0,0,0,0,-1,1252,1422,0,0
35,-398,0,0,0,0,0,0,0,0,0,-1,1259,1422,0,0
42,-398,0,0,0,0,0,0,0,0,0,-1,1266,1422,0,0
49,-398,0,0,0,0,0,0,0,0,0,-1,1273,1422,0,0
56,-398,0,0,0,0,0,0,0,0,0,-1,1280,1422,0,0
63,-398,0,0,0,0,0,0,0,0,0,-1,1287,1422,0,0
70,-398,0,0,0,0,0,0,0,0,0,-1,1294,1422,0,0
77,-398,0,0,0,0,0,0,0,0,0,-1,1301,1422,0,0
84,-398,0,0,0,0,0,0,0,0,0,-1,1308,1422,0,0
91,-398,0,0,0,0,0,0,0,0,0,-1,1315,1422,0,0
98,-398,0,0,0,0,0,0,0,0,0,-1,1322,1422,0,0
105,-398,0,0,0,0,0,0,0,0,0,-1,1329,1422,0,0
112,-398,0,0,0,0,0,0,0,0,0,-1,1336,1422,0,0
119,-398,0,0,0,0,0,0,0,0,0,-1,1343,1422,0,0
126,-398,0,0,0,0,0,0,0,0,0,-1,1350,1422,0,0
133,-398,0,0,0,0,0,0,0,0,0,-1,1357,1422,0,0
140,-398,0,0,0,0,0,0,0,0,0,-1,1364,1422,0,0
147,-398,0,0,0,0,0,0,0,0,0,-1,1371,1422,0,0
154,-398,0,0,0,0,0,0,0,0,0,-1,1378,1422,0,0
161,-398,0,0,0,0,0,0,0,0,0,-1,1385,1422,0,0
168,-398,0,0,0,0,0,0,0,0,0,-1,1392,1422,0,0
175,-398,0,0,0,0,0,0,0,0,0,-1,1399,1422,0,0
182,-398,0,0,0,0,0,0,0,0,0,-1,1406,1422,0,0
189,-398,0,0,0,0,0,0,0,0,0,-1,1413,1422,0,0
196,-398,0,0,0,0,0,0,0,0,0,-1,1420,1422,0,0
203,-398,0,0,0,0,0,0,0,0,0,-1,1427,1422,0,0
210,-398,0,0,0,0,0,0,0,0,0,-1,1434,1422,0,0
217,-398,0,0,0,0,0,0,0,0,0,-1,1441,1422,0,0
224,-398,0,0,0,0,0,0,0,0,0,-1,1448,1422,0,0
231,-398,0,0,0,0,0,0,0,0,0,-1,1455,1422,0,0
238,-398,0,0,0,0,0,0,0,0,0,-1,1462,1422,0,0
245,-398,0,0,0,0,0,0,0,0,0,-1,1469,1422,0,0
252,-398,0,0,0,0,0,0,0,0,0,-1,1476,1422,0,0
259,-398,0,0,0,0,0,0,0,0,0,-1,1483,1422,0,0
266,-398,0,0,0,0,0,0,0,0,0,-1,1490,1422,0,0
273,-398,0,0,0,0,0,0,0,0,0,-1,1497,1422,0,0
280,-398,0,0,0,0,0,0,0,0,0,-1,1504,1422,0,0
287,-398,0,0,0,0,0,0,0,0,0,-1,1511,1422,0,0
294,-398,0,0,0,0,0,0,0,0,0,-1,1518,1422,0,0
301,-398,0,0,0,0,0,0,0,0,0,-1,1525,1422,0,0
308,-398,0,0,0,0,0,0,0,0,0,-1,1532,1422,0,0
315,-398,0,0,0,0,0,0,0,0,0,-1,1539,1422,0,0
322,-398,0,0,0,0,0,0,0,0,0,-1,1546,1422,0,0
329,-398,0,0,0,0,0,0,0,0,0,-1,1553,1422,0,0
336,-398,0,0,0,0,0,0,0,0,0,-1,1560,1422,0,0
343,-398,0,0,0,0,0,0,0,0,0,-1,1567,1422,0,0
350,-398,0,0,0,0,0,0,0,0,0,-1,1574,1422,0,0
357,-398,0,0,0,0,0,0,0,0,0,-1,1581,1422,0,0
364,-398,0,0,0,0,0,0,0,0,0,-1,1588,1422,0,0
371,-398,0,0,0,0,0,0,0,0,0,-1,1595,1422,0,0
378,-398,0,0,0,0,0,0,0,0,0,-1,1602,1422,0,0
385,-398,0,0,0,0,0,0,0,0,0,-1,1609,1422,0,0
392,-398,0,0,0,0,0,0,0,0,0,-1,1616,1422,0,0
399,-398,0,0,0,0,0,0,0,0,0,-1,1623,1422,0,0
406,-398,0,0,0,0,0,0,0,0,0,-1,1630,1422,0,0
413,-398,0,0,0,0,0,0,0,0,0,-1,1637,1422,0,0
420,-398,0,0,0,0,0,0,0,0,0,-1,1644,1422,0,0
427,-398,0,0,0,0,0,0,0,0,0,-1,1651,1422,0,0
434,-398,0,0,0,0,0,0,0,0,0,-1,1658,1422,0,0
441,-398,0,0,0,0,0,0,0,0,0,-1,1665,1422,0,0
448,-398,0,0,0,0,0,0,0,0,0,-1,1672,1422,0,0
455,-398,0,0,0,0,0,0,0,0,0,-1,1679,1422,0,0
462,-398,0,0,0,0,0,0,0,0,0,-1,1686,1422,0,0
469,-398,0,0,0,0,0,0,0,0,0,-1,1693,1422,0,0
476,-398,0,0,0,0,0,0,0,0,0,-1,1700,1422,0,0
483,-398,0,0,0,0,0,0,0,0,0,-1,1707,1422,0,0
490,-398,0,0,0,0,0,0,0,0,0,-1,1714,1422,0,0
497,-398,0,0,0,0,0,0,0,0,0,-1,1721,1422,0,0
504,-398,0,0,0,0,0,0,0,0,0,-1,1728,1422,0,0
511,-398,0,0,0,0,0,0,0,0,0,-1,1735,1422,0,0
518,-398,0,0,0,0,0,0,0,0,0,-1,1742,1422,0,0
525,-398,0,0,0,0,0,0,0,0,0,-1,1749,1422,0,0
532,-398,28.4558,3.84094,0,0,0,0,0,0,0,-1,1756,1422,28.4558,-3.8409
539,-398,27.0594,3.33887,0,0,0,0,0,0,0,-1,1763,1422,27.0595,-3.3389
546,-398,31.6873,5.58582,0,0,0,0,0,0,0,-1,1770,1422,31.6872,-5.58585
553,-398,30.4392,5.92383,0,0,0,0,0,0,0,-1,1777,1422,30.4392,-5.92386
560,-398,29.1621,6.30469,0,0,0,0,0,0,0,-1,1784,1422,29.1621,-6.30469
567,-398,27.8411,6.55029,0,0,0,0,0,0,0,-1,1791,1422,27.8411,-6.55033
574,-398,26.411,6.8916,0,0,0,0,0,0,0,-1,1798,1422,26.411,-6.8916
581,-398,24.75,7.11145,0,0,0,0,0,0,0,-1,1805,1422,24.7499,-7.11142
588,-398,23.1649,7.67969,0,0,0,0,0,0,0,-1,1812,1422,23.1649,-7.67975
595,-398,21.4253,7.86023,0,0,0,0,0,0,0,-1,1819,1422,21.4253,-7.86029
602,-398,19.6857,8.04077,0,0,0,0,0,0,0,-1,1826,1422,19.6856,-8.04083
609,-398,21.1835,13.2628,0,0,0,0,0,0,0,-1,1833,1422,21.1835,-13.2628
616,-398,21.7407,13.0032,0,0,0,0,0,0,0,-1,1840,1422,21.7407,-13.0032
623,-398,22.0054,12.3539,0.00108693,0.00175668,-0.00153201,0.00298999,-0.00014638,-0.892999,0.00204387,0.024894,1847,1422,22.0054,-12.3538
630,-398,22.0105,11.9392,0.00105301,0.00109876,-0.00108422,0.00216035,-8.57795e-06,-0.795946,0.0014431,0.0128239,1854,1422,22.0105,-11.9392
637,-398,22.0155,11.5496,0.000981629,0.000659785,-0.000761163,0.00159869,4.27194e-05,-0.681224,0.00105185,0.0135722,1861,1422,22.0154,-11.5496
644,-398,21.9807,11.1539,0.000899101,0.000354642,-0.000475412,0.00117471,7.90345e-05,-0.525377,0.000758169,0.018986,1868,1422,21.9807,-11.1539
651,-398,22.0167,10.7909,0.000900521,0.00016563,-0.00027112,0.000989718,7.64331e-05,-0.31784,0.000635867,0.0263759,1875,1422,22.0168,-10.7909
658,-398,22.0189,10.4084,0.000932315,-3.74333e-06,-9.72556e-05,0.000942313,-1.37413e-05,-0.102441,0.000632839,0.0225603,1882,1422,22.019,-10.4085
665,-398,21.9919,9.98328,0.000994391,-9.6445e-05,7.0607e-05,0.000998942,-0.000100996,0.0643694,0.000702052,0.0153126,1889,1422,21.992,-9.98322
672,-398,21.9709,9.56653,0.00113906,-0.00019436,0.000211659,0.00117185,-0.000227151,0.153702,0.000866927,0.0134874,1896,1422,21.9709,-9.56654
679,-398,21.9489,9.14783,0.00141925,-0.000378054,0.000347098,0.00148396,-0.000442757,0.184295,0.00116527,0.0117198,1903,1422,21.9488,-9.14777
686,-398,21.9541,8.7384,0.00179934,-0.000777634,0.000600308,0.00193232,-0.000910613,0.217999,0.00167633,0.0201744,1910,1422,21.9541,-8.7384
693,-398,21.8285,8.61462,0,0,0,0,0,0,0,-1,1917,1422,21.8285,-8.61459
700,-398,14.0787,6.53918,0,0,0,0,0,0,0,-1,1924,1422,14.0787,-6.53921
707,-398,10.9731,5.479,0,0,0,0,0,0,0,-1,1931,1422,10.9732,-5.47896
714,-398,11.7313,6.17346,0,0,0,0,0,0,0,-1,1938,1422,11.7313,-6.17348
721,-398,13.9371,8.05103,0,0,0,0,0,0,0,-1,1945,1422,13.9372,-8.05102
728,-398,14.786,7.0282,0,0,0,0,0,0,0,-1,1952,1422,14.786,-7.0282
735,-398,0,0,0,0,0,0,0,0,0,-1,1959,1422,0,0
742,-398,0,0,0,0,0,0,0,0,0,-1,1966,1422,0,0
749,-398,0,0,0,0,0,0,0,0,0,-1,1973,1422,0,0
756,-398,0,0,0,0,0,0,0,0,0,-1,1980,1422,0,0
763,-398,0,0,0,0,0,0,0,0,0,-1,1987,1422,0,0
770,-398,0,0,0,0,0,0,0,0,0,-1,1994,1422,0,0
777,-398,0,0,0,0,0,0,0,0,0,-1,2001,1422,0,0
784,-398,0,0,0,0,0,0,0,0,0,-1,2008,1422,0,0
791,-398,0,0,0,0,0,0,0,0,0,-1,2015,1422,0,0
798,-398,0,0,0,0,0,0,0,0,0,-1,2022,1422,0,0
805,-398,0,0,0,0,0,0,0,0,0,-1,2029,1422,0,0
812,-398,0,0,0,0,0,0,0,0,0,-1,2036,1422,0,0
-700,-405,0,0,0,0,0,0,0,0,0,-1,524,1429,0,0
-693,-405,0,0,0,0,0,0,0,0,0,-1,531,1429,0,0
-686,-405,0,0,0,0,0,0,0,0,0,-1,538,1429,0,0
-679,-405,0,0,0,0,0,0,0,0,0,-1,545,1429,0,0
-672,-405,0,0,0,0,0,0,0,0,0,-1,552,1429,0,0
-665,-405,0,0,0,0,0,0,0,0,0,-1,559,1429,0,0
-658,-405,0,0,0,0,0,0,0,0,0,-1,566,1429,0,0
-651,-405,0,0,0,0,0,0,0,0,0,-1,573,1429,0,0
-644,-405,0,0,0,0,0,0,0,0,0,-1,580,1429,0,0
-637,-405,0,0,0,0,0,0,0,0,0,-1,587,1429,0,0
-630,-405,0,0,0,0,0,0,0,0,0,-1,594,1429,0,0
-623,-405,0,0,0,0,0,0,0,0,0,-1,601,1429,0,0
-616,-405,0,0,0,0,0,0,0,0,0,-1,608,1429,0,0
-609,-405,0,0,0,0,0,0,0,0,0,-1,615,1429,0,0
-602,-405,-5.80988,-3.46594,0,0,0,0,0,0,0,-1,622,1429,-5.80987,3.46592
-595,-405,-9.35413,2.01477,0,0,0,0,0,0,0,-1,629,1429,-9.35411,-2.01476
-588,-405,-7.35693,0.507202,0,0,0,0,0,0,0,-1,636,1429,-7.35696,-0.507187
-581,-405,-10.1284,1.62927,0,0,0,0,0,0,0,-1,643,1429,-10.1284,-1.62922
-574,-405,-9.32074,3.05896,0,0,0,0,0,0,0,-1,650,1429,-9.32077,-3.0589
-567,-405,-8.09094,7.31628,0,0,0,0,0,0,0,-1,657,1429,-8.09094,-7.31626
-560,-405,-8.19012,7.15186,0,0,0,0,0,0,0,-1,664,1429,-8.19011,-7.15187
-553,-405,-9.06158,6.62903,0,0,0,0,0,0,0,-1,671,1429,-9.06159,-6.62904
-546,-405,-9.05939,7.07227,-0.00779929,-0.000780732,-0.00306701,0.000370629,-0.00895066,-1.21167,0.0060944,0.0361762,678,1429,-9.05936,-7.07223
-539,-405,-9.05548,7.51929,-0.00547952,-0.000680376,-0.00220228,0.000177042,-0.00633693,-1.19952,0.00428486,0.0116926,685,1429,-9.05546,-7.51925
-532,-405,-9.06793,7.97461,-0.00350676,-0.000455465,-0.00141642,0.000100675,-0.0040629,-1.19665,0.00274277,0.0145363,692,1429,-9.06793,-7.97466
-525,-405,-9.06311,8.45825,-0.00165586,-6.81876e-05,-0.000554012,0.000106018,-0.00183006,-1.26614,0.00125687,0.0147191,699,1429,-9.06309,-8.45819
-518,-405,-9.06683,8.88904,5.62226e-05,0.00037314,0.000322989,0.000574447,-0.000145084,1.01345,0.000439384,0.0162837,706,1429,-9.06686,-8.88906
-511,-405,-9.08282,9.30176,0.00169582,0.000972931,0.00129105,0.00267507,-6.31681e-06,0.648912,0.00178549,0.0160606,713,1429,-9.0828,-9.30174
-504,-405,-9.07672,9.76489,0.00334908,0.00172181,0.0023653,0.00503677,3.41136e-05,0.619744,0.00334654,0.0167175,720,1429,-9.0767,-9.76495
-497,-405,-9.08423,10.2333,0.00496571,0.00255865,0.00354944,0.00751012,1.42492e-05,0.621943,0.005002,0.0141104,727,1429,-9.08426,-10.2333
-490,-405,-9.10321,10.6677,0.00663356,0.00356362,0.00482343,0.0101604,3.68096e-05,0.631349,0.00676134,0.01255,734,1429,-9.10318,-10.6677
-483,-405,-9.0321,11.1521,0.00826634,0.00482632,0.00625369,0.0130322,6.042e-05,0.651197,0.00866809,0.0175248,741,1429,-9.03209,-11.1521
-476,-405,-8.98602,11.5854,0.00993287,0.00629544,0.00798544,0.0163041,-7.57715e-05,0.673431,0.0108947,0.0466555,748,1429,-8.98604,-11.5855
-469,-405,-9.23749,12.0284,0,0,0,0,0,0,0,-1,755,1429,-9.23747,-12.0285
-462,-405,-9.14862,11.3597,0,0,0,0,0,0,0,-1,762,1429,-9.14865,-11.3597
-455,-405,-9.021,9.51111,0,0,0,0,0,0,0,-1,769,1429,-9.021,-9.51109
-448,-405,-8.4649,6.82813,0,0,0,0,0,0,0,-1,776,1429,-8.46492,-6.82817
-441,-405,-6.6712,4.23767,0,0,0,0,0,0,0,-1,783,1429,-6.67121,-4.23764
-434,-405,-9.62549,3.94189,0,0,0,0,0,0,0,-1,790,1429,-9.62546,-3.94191
-427,-405,-10.9764,3.73926,0,0,0,0,0,0,0,-1,797,1429,-10.9764,-3.73923
-420,-405,-12.1187,3.68506,0,0,0,0,0,0,0,-1,804,1429,-12.1187,-3.68512
-413,-405,-13.5353,3.75659,0,0,0,0,0,0,0,-1,811,1429,-13.5353,-3.75655
-406,-405,-14.7374,3.99817,0,0,0,0,0,0,0,-1,818,1429,-14.7374,-3.99814
-399,-405,0,0,0,0,0,0,0,0,0,-1,825,1429,0,0
-392,-405,0,0,0,0,0,0,0,0,0,-1,832,1429,0,0
-385,-405,0,0,0,0,0,0,0,0,0,-1,839,1429,0,0
-378,-405,0,0,0,0,0,0,0,0,0,-1,846,1429,0,0
-371,-405,0,0,0,0,0,0,0,0,0,-1,853,1429,0,0
-364,-405,0,0,0,0,0,0,0,0,0,-1,860,1429,0,0
-357,-405,0,0,0,0,0,0,0,0,0,-1,867,1429,0,0
-350,-405,0,0,0,0,0,0,0,0,0,-1,874,1429,0,0
-343,-405,0,0,0,0,0,0,0,0,0,-1,881,1429,0,0
-336,-405,0,0,0,0,0,0,0,0,0,-1,888,1429,0,0
-329,-405,0,0,0,0,0,0,0,0,0,-1,895,1429,0,0
-322,-405,0,0,0,0,0,0,0,0,0,-1,902,1429,0,0
-315,-405,0,0,0,0,0,0,0,0,0,-1,909,1429,0,0
-308,-405,0,0,0,0,0,0,0,0,0,-1,916,1429,0,0
-301,-405,0,0,0,0,0,0,0,0,0,-1,923,1429,0,0
-294,-405,0,0,0,0,0,0,0,0,0,-1,930,1429,0,0
-287,-405,0,0,0,0,0,0,0,0,0,-1,937,1429,0,0
-280,-405,0,0,0,0,0,0,0,0,0,-1,944,1429,0,0
-273,-405,0,0,0,0,0,0,0,0,0,-1,951,1429,0,0
-266,-405,0,0,0,0,0,0,0,0,0,-1,958,1429,0,0
-259,-405,0,0,0,0,0,0,0,0,0,-1,965,1429,0,0
-252,-405,0,0,0,0,0,0,0,0,0,-1,972,1429,0,0
-245,-405,0,0,0,0,0,0,0,0,0,-1,979,1429,0,0
-238,-405,0,0,0,0,0,0,0,0,0,-1,986,1429,0,0
-231,-405,0,0,0,0,0,0,0,0,0,-1,993,1429,0,0
-224,-405,0,0,0,0,0,0,0,0,0,-1,1000,1429,0,0
-217,-405,0,0,0,0,0,0,0,0,0,-1,1007,1429,0,0
-210,-405,0,0,0,0,0,0,0,0,0,-1,1014,1429,0,0
-203,-405,0,0,0,0,0,0,0,0,0,-1,1021,1429,0,0
-196,-405,0,0,0,0,0,0,0,0,0,-1,1028,1429,0,0
-189,-405,0,0,0,0,0,0,0,0,0,-1,1035,1429,0,0
-182,-405,0,0,0,0,0,0,0,0,0,-1,1042,1429,0,0
-175,-405,0,0,0,0,0,0,0,0,0,-1,1049,1429,0,0
-168,-405,0,0,0,0,0,0,0,0,0,-1,1056,1429,0,0
-161,-405,0,0,0,0,0,0,0,0,0,-1,1063,1429,0,0
-154,-405,0,0,0,0,0,0,0,0,0,-1,1070,1429,0,0
-147,-405,0,0,0,0,0,0,0,0,0,-1,1077,1429,0,0
-140,-405,0,0,0,0,0,0,0,0,0,-1,1084,1429,0,0
-133,-405,0,0,0,0,0,0,0,0,0,-1,1091,1429,0,0
-126,-405,0,0,0,0,0,0,0,0,0,-1,1098,1429,0,0
-119,-405,0,0,0,0,0,0,0,0,0,-1,1105,1429,0,0
-112,-405,0,0,0,0,0,0,0,0,0,-1,1112,1429,0,0
-105,-405,0,0,0,0,0,0,0,0,0,-1,1119,1429,0,0
-98,-405,0,0,0,0,0,0,0,0,0,-1,1126,1429,0,0
-91,-405,0,0,0,0,0,0,0,0,0,-1,1133,1429,0,0
-84,-405,0,0,0,0,0,0,0,0,0,-1,1140,1429,0,0
-77,-405,0,0,0,0,0,0,0,0,0,-1,1147,1429,0,0
-70,-405,0,0,0,0,0,0,0,0,0,-1,1154,1429,0,0
-63,-405,0,0,0,0,0,0,0,0,0,-1,1161,1429,0,0
-56,-405,0,0,0,0,0,0,0,0,0,-1,1168,1429,0,0
-49,-405,0,0,0,0,0,0,0,0,0,-1,1175,1429,0,0
-42,-405,0,0,0,0,0,0,0,0,0,-1,1182,1429,0,0
-35,-405,0,0,0,0,0,0,0,0,0,-1,1189,1429,0,0
-28,-405,0,0,0,0,0,0,0,0,0,-1,1196,1429,0,0
-21,-405,0,0,0,0,0,0,0,0,0,-1,1203,1429,0,0
-14,-405,0,0,0,0,0,0,0,0,0,-1,1210,1429,0,0
-7,-405,0,0,0,0,0,0,0,0,0,-1,1217,1429,0,0
0,-405,0,0,0,0,0,0,0,0,0,-1,1224,1429,0,0
7,-405,0,0,0,0,0,0,0,0,0,-1,1231,1429,0,0
14,-405,0,0,0,0,0,0,0,0,0,-1,1238,1429,0,0
21,-405,0,0,0,0,0,0,0,0,0,-1,1245,1429,0,0
28,-405,0,0,0,0,0,0,0,0,0,-1,1252,1429,0,0
35,-405,0,0,0,0,0,0,0,0,0,-1,1259,1429,0,0
42,-405,0,0,0,0,0,0,0,0,0,-1,1266,1429,0,0
49,-405,0,0,0,0,0,0,0,0,0,-1,1273,1429,0,0
56,-405,0,0,0,0,0,0,0,0,0,-1,1280,1429,0,0
63,-405,0,0,0,0,0,0,0,0,0,-1,1287,1429,0,0
70,-405,0,0,0,0,0,0,0,0,0,-1,1294,1429,0,0
77,-405,0,0,0,0,0,0,0,0,0,-1,1301,1429,0,0
84,-405,0,0,0,0,0,0,0,0,0,-1,1308,1429,0,0
91,-405,0,0,0,0,0,0,0,0,0,-1,1315,1429,0,0
98,-405,0,0,0,0,0,0,0,0,0,-1,1322,1429,0,0
105,-405,0,0,0,0,0,0,0,0,0,-1,1329,1429,0,0
112,-405,0,0,0,0,0,0,0,0,0,-1,1336,1429,0,0
119,-405,0,0,0,0,0,0,0,0,0,-1,1343,1429,0,0
126,-405,0,0,0,0,0,0,0,0,0,-1,1350,1429,0,0
133,-405,0,0,0,0,0,0,0,0,0,-1,1357,1429,0,0
140,-405,0,0,0,0,0,0,0,0,0,-1,1364,1429,0,0
147,-405,0,0,0,0,0,0,0,0,0,-1,1371,1429,0,0
154,-405,0,0,0,0,0,0,0,0,0,-1,1378,1429,0,0
161,-405,0,0,0,0,0,0,0,0,0,-1,1385,1429,0,0
168,-405,0,0,0,0,0,0,0,0,0,-1,1392,1429,0,0
175,-405,0,0,0,0,0,0,0,0,0,-1,1399,1429,0,0
182,-405,0,0,0,0,0,0,0,0,0,-1,1406,1429,0,0
189,-405,0,0,0,0,0,0,0,0,0,-1,1413,1429,0,0
196,-405,0,0,0,0,0,0,0,0,0,-1,1420,1429,0,0
203,-405,0,0,0,0,0,0,0,0,0,-1,1427,1429,0,0
210,-405,0,0,0,0,0,0,0,0,0,-1,1434,1429,0,0
217,-405,0,0,0,0,0,0,0,0,0,-1,1441,1429,0,0
224,-405,0,0,0,0,0,0,0,0,0,-1,1448,1429,0,0
231,-405,0,0,0,0,0,0,0,0,0,-1,1455,1429,0,0
238,-405,0,0,0,0,0,0,0,0,0,-1,1462,1429,0,0
245,-405,0,0,0,0,0,0,0,0,0,-1,1469,1429,0,0
252,-405,0,0,0,0,0,0,0,0,0,-1,1476,1429,0,0
259,-405,0,0,0,0,0,0,0,0,0,-1,1483,1429,0,0
266,-405,0,0,0,0,0,0,0,0,0,-1,1490,1429,0,0
273,-405,0,0,0,0,0,0,0,0,0,-1,1497,1429,0,0
280,-405,0,0,0,0,0,0,0,0,0,-1,1504,1429,0,0
287,-405,0,0,0,0,0,0,0,0,0,-1,1511,1429,0,0
294,-405,0,0,0,0,0,0,0,0,0,-1,1518,1429,0,0
301,-405,0,0,0,0,0,0,0,0,0,-1,1525,1429,0,0
308,-405,0,0,0,0,0,0,0,0,0,-1,1532,1429,0,0
315,-405,0,0,0,0,0,0,0,0,0,-1,1539,1429,0,0
322,-405,0,0,0,0,0,0,0,0,0,-1,1546,1429,0,0
329,-405,0,0,0,0,0,0,0,0,0,-1,1553,1429,0,0
336,-405,0,0,0,0,0,0,0,0,0,-1,1560,1429,0,0
343,-405,0,0,0,0,0,0,0,0,0,-1,1567,1429,0,0
350,-405,0,0,0,0,0,0,0,0,0,-1,1574,1429,0,0
357,-405,0,0,0,0,0,0,0,0,0,-1,1581,1429,0,0
364,-405,0,0,0,0,0,0,0,0,0,-1,1588,1429,0,0
371,-405,0,0,0,0,0,0,0,0,0,-1,1595,1429,0,0
378,-405,0,0,0,0,0,0,0,0,0,-1,1602,1429,0,0
385,-405,0,0,0,0,0,0,0,0,0,-1,1609,1429,0,0
392,-405,0,0,0,0,0,0,0,0,0,-1,1616,1429,0,0
399,-405,0,0,0,0,0,0,0,0,0,-1,1623,1429,0,0
406,-405,0,0,0,0,0,0,0,0,0,-1,1630,1429,0,0
413,-405,0,0,0,0,0,0,0,0,0,-1,1637,1429,0,0
420,-405,0,0,0,0,0,0,0,0,0,-1,1644,1429,0,0
427,-405,0,0,0,0,0,0,0,0,0,-1,1651,1429,0,0
434,-405,0,0,0,0,0,0,0,0,0,-1,1658,1429,0,0
441,-405,0,0,0,0,0,0,0,0,0,-1,1665,1429,0,0
448,-405,0,0,0,0,0,0,0,0,0,-1,1672,1429,0,0
455,-405,0,0,0,0,0,0,0,0,0,-1,1679,1429,0,0
462,-405,0,0,0,0,0,0,0,0,0,-1,1686,1429,0,0
469,-405,0,0,0,0,0,0,0,0,0,-1,1693,1429,0,0
476,-405,0,0,0,0,0,0,0,0,0,-1,1700,1429,0,0
483,-405,0,0,0,0,0,0,0,0,0,-1,1707,1429,0,0
490,-405,0,0,0,0,0,0,0,0,0,-1,1714,1429,0,0
497,-405,0,0,0,0,0,0,0,0,0,-1,1721,1429,0,0
504,-405,0,0,0,0,0,0,0,0,0,-1,1728,1429,0,0
511,-405,0,0,0,0,0,0,0,0,0,-1,1735,1429,0,0
518,-405,0,0,0,0,0,0,0,0,0,-1,1742,1429,0,0
525,-405,31.1563,-1.40942,0,0,0,0,0,0,0,-1,1749,1429,31.1563,1.40937
532,-405,28.156,4.8783,0,0,0,0,0,0,0,-1,1756,1429,28.1561,-4.87833
539,-405,26.5133,3.02454,0,0,0,0,0,0,0,-1,1763,1429,26.5133,-3.0246
546,-405,29.5735,6.53052,0,0,0,0,0,0,0,-1,1770,1429,29.5735,-6.53049
553,-405,28.2911,6.70654,0,0,0,0,0,0,0,-1,1777,1429,28.2912,-6.70656
560,-405,26.9299,7.08472,0,0,0,0,0,0,0,-1,1784,1429,26.9299,-7.08469
567,-405,25.804,7.14661,0,0,0,0,0,0,0,-1,1791,1429,25.8039,-7.14665
574,-405,25.1151,8.07971,0,0,0,0,0,0,0,-1,1798,1429,25.1151,-8.07965
581,-405,23.5055,8.505,0,0,0,0,0,0,0,-1,1805,1429,23.5054,-8.50501
588,-405,21.7491,8.98254,0,0,0,0,0,0,0,-1,1812,1429,21.7491,-8.98254
595,-405,21.6327,10.7795,0,0,0,0,0,0,0,-1,1819,1429,21.6327,-10.7796
602,-405,21.6461,13.9199,0,0,0,0,0,0,0,-1,1826,1429,21.6461,-13.92
609,-405,21.4167,13.3279,0,0,0,0,0,0,0,-1,1833,1429,21.4168,-13.3278
616,-405,21.5574,12.8861,0.00127534,0.00259105,-0.00179758,0.00384737,1.90221e-05,-0.960812,0.00255859,0.0230677,1840,1429,21.5573,-12.8861
623,-405,21.5758,12.4211,0.00118665,0.0016029,-0.00128213,0.00269368,9.58628e-05,-0.86586,0.0017647,0.0116451,1847,1429,21.5758,-12.4212
630,-405,21.5887,11.9819,0.00112987,0.000945769,-0.000889668,0.00193224,0.000143403,-0.733848,0.00124312,0.0100465,1854,1429,21.5887,-11.9819
637,-405,21.6085,11.5806,0.00102077,0.00048474,-0.00058162,0.00139315,0.000112353,-0.569497,0.000893675,0.0104753,1861,1429,21.6085,-11.5805
644,-405,21.6227,11.2101,0.000924948,0.000178407,-0.00032289,0.00104522,5.81304e-05,-0.356578,0.000678271,0.0272893,1868,1429,21.6227,-11.21
651,-405,21.5752,10.8391,0.000887748,2.22232e-05,-0.0001559,0.000914973,-5.00158e-06,-0.172886,0.000611656,0.0304939,1875,1429,21.5751,-10.8392
658,-405,21.5583,10.4122,0.000838871,-9.12665e-05,-3.46965e-06,0.000838884,-9.12794e-05,-0.00373019,0.000592033,0.0227274,1882,1429,21.5583,-10.4122
665,-405,21.5938,10.0073,0.000800525,-0.000137733,0.000144976,0.000822416,-0.000159624,0.149861,0.000608504,0.0184944,1889,1429,21.5937,-10.0074
672,-405,21.6093,9.60242,0.000817851,-0.00017108,0.000274235,0.000888806,-0.000242036,0.253188,0.000687566,0.0238412,1896,1429,21.6092,-9.60242
679,-405,21.6156,9.18799,0.00093633,-0.000344781,0.000433331,0.00106914,-0.000477587,0.297387,0.000914511,0.0217837,1903,1429,21.6156,-9.18801
686,-405,21.4896,8.80835,0.00108491,-0.000807253,0.000798792,0.00137703,-0.00109937,0.350593,0.00143274,0.0414883,1910,1429,21.4896,-8.80836
693,-405,21.3151,8.52478,0,0,0,0,0,0,0,-1,1917,1429,21.3151,-8.52472
700,-405,9.1958,4.02026,0,0,0,0,0,0,0,-1,1924,1429,9.19579,-4.02025
707,-405,7.40308,3.83191,0,0,0,0,0,0,0,-1,1931,1429,7.40311,-3.83194
714,-405,7.33252,3.47388,0,0,0,0,0,0,0,-1,1938,1429,7.33255,-3.47383
721,-405,9.23523,0.993896,0,0,0,0,0,0,0,-1,1945,1429,9.23523,-0.993884
728,-405,0,0,0,0,0,0,0,0,0,-1,1952,1429,0,0
735,-405,0,0,0,0,0,0,0,0,0,-1,1959,1429,0,0
742,-405,0,0,0,0,0,0,0,0,0,-1,1966,1429,0,0
749,-405,0,0,0,0,0,0,0,0,0,-1,1973,1429,0,0
756,-405,0,0,0,0,0,0,0,0,0,-1,1980,1429,0,0
763,-405,0,0,0,0,0,0,0,0,0,-1,1987,1429,0,0
770,-405,0,0,0,0,0,0,0,0,0,-1,1994,1429,0,0
777,-405,0,0,0,0,0,0,0,0,0,-1,2001,1429,0,0
784,-405,0,0,0,0,0,0,0,0,0,-1,2008,1429,0,0
791,-405,0,0,0,0,0,0,0,0,0,-1,2015,1429,0,0
798,-405,0,0,0,0,0,0,0,0,0,-1,2022,1429,0,0
805,-405,0,0,0,0,0,0,0,0,0,-1,2029,1429,0,0
812,-405,0,0,0,0,0,0,0,0,0,-1,2036,1429,0,0
-700,-412,0,0,0,0,0,0,0,0,0,-1,524,1436,0,0
-693,-412,0,0,0,0,0,0,0,0,0,-1,531,1436,0,0
-686,-412,0,0,0,0,0,0,0,0,0,-1,538,1436,0,0
-679,-412,0,0,0,0,0,0,0,0,0,-1,545,1436,0,0
-672,-412,0,0,0,0,0,0,0,0,0,-1,552,1436,0,0
-665,-412,0,0,0,0,0,0,0,0,0,-1,559,1436,0,0
-658,-412,0,0,0,0,0,0,0,0,0,-1,566,1436,0,0
-651,-412,0,0,0,0,0,0,0,0,0,-1,573,1436,0,0
-644,-412,0,0,0,0,0,0,0,0,0,-1,580,1436,0,0
-637,-412,0,0,0,0,0,0,0,0,0,-1,587,1436,0,0
-630,-412,0,0,0,0,0,0,0,0,0,-1,594,1436,0,0
-623,-412,0,0,0,0,0,0,0,0,0,-1,601,1436,0,0
-616,-412,0,0,0,0,0,0,0,0,0,-1,608,1436,0,0
-609,-412,0,0,0,0,0,0,0,0,0,-1,615,1436,0,0
-602,-412,-3.72766,-3.50012,0,0,0,0,0,0,0,-1,622,1436,-3.72764,3.50017
-595,-412,-10.3706,0.65564,0,0,0,0,0,0,0,-1,629,1436,-10.3706,-0.655672
-588,-412,-8.17957,1.94934,0,0,0,0,0,0,0,-1,636,1436,-8.17956,-1.94939
-581,-412,-6.60065,-0.0554199,0,0,0,0,0,0,0,-1,643,1436,-6.60063,0.0554733
-574,-412,-8.34131,5.25012,0,0,0,0,0,0,0,-1,650,1436,-8.34129,-5.25012
-567,-412,-7.50354,3.65454,0,0,0,0,0,0,0,-1,657,1436,-7.50356,-3.65452
-560,-412,-7.53949,7.48059,0,0,0,0,0,0,0,-1,664,1436,-7.53948,-7.48055
-553,-412,-7.36761,6.54651,0,0,0,0,0,0,0,-1,671,1436,-7.36763,-6.54654
-546,-412,-8.59277,7.11438,0,0,0,0,0,0,0,-1,678,1436,-8.5928,-7.11437
-539,-412,-8.57587,7.4812,-0.00604434,-0.000190106,-0.00207878,0.00047295,-0.0067074,-1.26203,0.00463729,0.0219887,685,1436,-8.57589,-7.48117
-532,-412,-8.6051,8.00085,-0.00418155,-0.000181525,-0.0014671,0.000298872,-0.00466195,-1.25435,0.00321223,0.0138347,692,1436,-8.60511,-8.00083
-525,-412,-8.62744,8.47876,-0.00240774,6.61098e-05,-0.000733293,0.000267135,-0.00260877,-1.30323,0.00183472,0.0157166,699,1436,-8.62744,-8.47876
-518,-412,-8.62048,8.90613,-0.00081333,0.000342895,6.75161e-07,0.000342895,-0.00081333,1.57021,0.000685718,0.0169736,706,1436,-8.62047,-8.90609
-511,-412,-8.65924,9.32983,0.000690469,0.000786876,0.000823109,0.00156319,-8.58475e-05,0.814646,0.00107189,0.0190864,713,1436,-8.65922,-9.32978
-504,-412,-8.677,9.776,0.00220936,0.00139,0.00176124,0.00360795,-8.5833e-06,0.671125,0.00240816,0.0179162,720,1436,-8.67701,-9.77597
-497,-412,-8.67554,10.2407,0.00367182,0.00207728,0.00279888,0.00578477,-3.56622e-05,0.646646,0.00386846,0.0145041,727,1436,-8.67553,-10.2407
-490,-412,-8.66864,10.6742,0.00513193,0.00294181,0.0038966,0.00808442,-1.06725e-05,0.648416,0.00539317,0.0123307,734,1436,-8.66864,-10.6742
-483,-412,-8.67365,11.1007,0.00663884,0.00402091,0.00517349,0.0106664,-6.64266e-06,0.661492,0.00711314,0.00888678,741,1436,-8.67363,-11.1007
-476,-412,-8.54846,11.722,0.00797194,0.00523116,0.0066153,0.0133573,-0.000154196,0.683265,0.00895671,0.0232425,748,1436,-8.54843,-11.722
-469,-412,-8.64734,12.0941,0.00978013,0.00613365,0.00841395,0.0165661,-0.000652337,0.678702,0.0112678,0.0440352,755,1436,-8.64732,-12.0942
-462,-412,-8.60681,12.5101,0,0,0,0,0,0,0,-1,762,1436,-8.6068,-12.5101
-455,-412,-8.25006,11.2572,0,0,0,0,0,0,0,-1,769,1436,-8.25007,-11.2572
-448,-412,-7.38086,8.78186,0,0,0,0,0,0,0,-1,776,1436,-7.38088,-8.78183
-441,-412,-8.79523,9.05286,0,0,0,0,0,0,0,-1,783,1436,-8.79521,-9.0529
-434,-412,-10.6305,8.03577,0,0,0,0,0,0,0,-1,790,1436,-10.6305,-8.0358
-427,-412,-10.0004,5.15271,0,0,0,0,0,0,0,-1,797,1436,-10.0004,-5.15266
-420,-412,-10.4468,4.9043,0,0,0,0,0,0,0,-1,804,1436,-10.4468,-4.90429
-413,-412,-11.5704,4.97766,0,0,0,0,0,0,0,-1,811,1436,-11.5704,-4.97771
-406,-412,-13.1968,5.70093,0,0,0,0,0,0,0,-1,818,1436,-13.1968,-5.70096
-399,-412,-10.5506,0.771973,0,0,0,0,0,0,0,-1,825,1436,-10.5506,-0.771954
-392,-412,0,0,0,0,0,0,0,0,0,-1,832,1436,0,0
-385,-412,0,0,0,0,0,0,0,0,0,-1,839,1436,0,0
-378,-412,0,0,0,0,0,0,0,0,0,-1,846,1436,0,0
-371,-412,0,0,0,0,0,0,0,0,0,-1,853,1436,0,0
-364,-412,0,0,0,0,0,0,0,0,0,-1,860,1436,0,0
-357,-412,0,0,0,0,0,0,0,0,0,-1,867,1436,0,0
-350,-412,0,0,0,0,0,0,0,0,0,-1,874,1436,0,0
-343,-412,0,0,0,0,0,0,0,0,0,-1,881,1436,0,0
-336,-412,0,0,0,0,0,0,0,0,0,-1,888,1436,0,0
-329,-412,0,0,0,0,0,0,0,0,0,-1,895,1436,0,0
-322,-412,0,0,0,0,0,0,0,0,0,-1,902,1436,0,0
-315,-412,0,0,0,0,0,0,0,0,0,-1,909,1436,0,0
-308,-412,0,0,0,0,0,0,0,0,0,-1,916,1436,0,0
-301,-412,0,0,0,0,0,0,0,0,0,-1,923,1436,0,0
-294,-412,0,0,0,0,0,0,0,0,0,-1,930,1436,0,0
-287,-412,0,0,0,0,0,0,0,0,0,-1,937,1436,0,0
-280,-412,0,0,0,0,0,0,0,0,0,-1,944,1436,0,0
-273,-412,0,0,0,0,0,0,0,0,0,-1,951,1436,0,0
-266,-412,0,0,0,0,0,0,0,0,0,-1,958,1436,0,0
-259,-412,0,0,0,0,0,0,0,0,0,-1,965,1436,0,0
-252,-412,0,0,0,0,0,0,0,0,0,-1,972,1436,0,0
-245,-412,0,0,0,0,0,0,0,0,0,-1,979,1436,0,0
-238,-412,0,0,0,0,0,0,0,0,0,-1,986,1436,0,0
-231,-412,0,0,0,0,0,0,0,0,0,-1,993,1436,0,0
-224,-412,0,0,0,0,0,0,0,0,0,-1,1000,1436,0,0
-217,-412,0,0,0,0,0,0,0,0,0,-1,1007,1436,0,0
-210,-412,0,0,0,0,0,0,0,0,0,-1,1014,1436,0,0
-203,-412,0,0,0,0,0,0,0,0,0,-1,1021,1436,0,0
-196,-412,0,0,0,0,0,0,0,0,0,-1,1028,1436,0,0
-189,-412,0,0,0,0,0,0,0,0,0,-1,1035,1436,0,0
-182,-412,0,0,0,0,0,0,0,0,0,-1,1042,1436,0,0
-175,-412,0,0,0,0,0,0,0,0,0,-1,1049,1436,0,0
-168,-412,0,0,0,0,0,0,0,0,0,-1,1056,1436,0,0
-161,-412,0,0,0,0,0,0,0,0,0,-1,1063,1436,0,0
-154,-412,0,0,0,0,0,0,0,0,0,-1,1070,1436,0,0
-147,-412,0,0,0,0,0,0,0,0,0,-1,1077,1436,0,0
-140,-412,0,0,0,0,0,0,0,0,0,-1,1084,1436,0,0
-133,-412,0,0,0,0,0,0,0,0,0,-1,1091,1436,0,0
-126,-412,0,0,0,0,0,0,0,0,0,-1,1098,1436,0,0
-119,-412,0,0,0,0,0,0,0,0,0,-1,1105,1436,0,0
-112,-412,0,0,0,0,0,0,0,0,0,-1,1112,1436,0,0
-105,-412,0,0,0,0,0,0,0,0,0,-1,1119,1436,0,0
-98,-412,0,0,0,0,0,0,0,0,0,-1,1126,1436,0,0
-91,-412,0,0,0,0,0,0,0,0,0,-1,1133,1436,0,0
-84,-412,0,0,0,0,0,0,0,0,0,-1,1140,1436,0,0
-77,-412,0,0,0,0,0,0,0,0,0,-1,1147,1436,0,0
-70,-412,0,0,0,0,0,0,0,0,0,-1,1154,1436,0,0
-63,-412,0,0,0,0,0,0,0,0,0,-1,1161,1436,0,0
-56,-412,0,0,0,0,0,0,0,0,0,-1,1168,1436,0,0
-49,-412,0,0,0,0,0,0,0,0,0,-1,1175,1436,0,0
-42,-412,0,0,0,0,0,0,0,0,0,-1,1182,1436,0,0
-35,-412,0,0,0,0,0,0,0,0,0,-1,1189,1436,0,0
-28,-412,0,0,0,0,0,0,0,0,0,-1,1196,1436,0,0
-21,-412,0,0,0,0,0,0,0,0,0,-1,1203,1436,0,0
-14,-412,0,0,0,0,0,0,0,0,0,-1,1210,1436,0,0
-7,-412,0,0,0,0,0,0,0,0,0,-1,1217,1436,0,0
0,-412,0,0,0,0,0,0,0,0,0,-1,1224,1436,0,0
7,-412,0,0,0,0,0,0,0,0,0,-1,1231,1436,0,0
14,-412,0,0,0,0,0,0,0,0,0,-1,1238,1436,0,0
21,-412,0,0,0,0,0,0,0,0,0,-1,1245,1436,0,0
28,-412,0,0,0,0,0,0,0,0,0,-1,1252,1436,0,0
35,-412,0,0,0,0,0,0,0,0,0,-1,1259,1436,0,0
42,-412,0,0,0,0,0,0,0,0,0,-1,1266,1436,0,0
49,-412,0,0,0,0,0,0,0,0,0,-1,1273,1436,0,0
56,-412,0,0,0,0,0,0,0,0,0,-1,1280,1436,0,0
63,-412,0,0,0,0,0,0,0,0,0,-1,1287,1436,0,0
70,-412,0,0,0,0,0,0,0,0,0,-1,1294,1436,0,0
77,-412,0,0,0,0,0,0,0,0,0,-1,1301,1436,0,0
84,-412,0,0,0,0,0,0,0,0,0,-1,1308,1436,0,0
91,-412,0,0,0,0,0,0,0,0,0,-1,1315,1436,0,0
98,-412,0,0,0,0,0,0,0,0,0,-1,1322,1436,0,0
105,-412,0,0,0,0,0,0,0,0,0,-1,1329,1436,0,0
112,-412,0,0,0,0,0,0,0,0,0,-1,1336,1436,0,0
119,-412,0,0,0,0,0,0,0,0,0,-1,1343,1436,0,0
126,-412,0,0,0,0,0,0,0,0,0,-1,1350,1436,0,0
133,-412,0,0,0,0,0,0,0,0,0,-1,1357,1436,0,0
140,-412,0,0,0,0,0,0,0,0,0,-1,1364,1436,0,0
147,-412,0,0,0,0,0,0,0,0,0,-1,1371,1436,0,0
154,-412,0,0,0,0,0,0,0,0,0,-1,1378,1436,0,0
161,-412,0,0,0,0,0,0,0,0,0,-1,1385,1436,0,0
168,-412,0,0,0,0,0,0,0,0,0,-1,1392,1436,0,0
175,-412,0,0,0,0,0,0,0,0,0,-1,1399,1436,0,0
182,-412,0,0,0,0,0,0,0,0,0,-1,1406,1436,0,0
189,-412,0,0,0,0,0,0,0,0,0,-1,1413,1436,0,0
196,-412,0,0,0,0,0,0,0,0,0,-1,1420,1436,0,0
203,-412,0,0,0,0,0,0,0,0,0,-1,1427,1436,0,0
210,-412,0,0,0,0,0,0,0,0,0,-1,1434,1436,0,0
217,-412,0,0,0,0,0,0,0,0,0,-1,1441,1436,0,0
224,-412,0,0,0,0,0,0,0,0,0,-1,1448,1436,0,0
231,-412,0,0,0,0,0,0,0,0,0,-1,1455,1436,0,0
238,-412,0,0,0,0,0,0,0,0,0,-1,1462,1436,0,0
245,-412,0,0,0,0,0,0,0,0,0,-1,1469,1436,0,0
252,-412,0,0,0,0,0,0,0,0,0,-1,1476,1436,0,0
259,-412,0,0,0,0,0,0,0,0,0,-1,1483,1436,0,0
266,-412,0,0,0,0,0,0,0,0,0,-1,1490,1436,0,0
273,-412,0,0,0,0,0,0,0,0,0,-1,1497,1436,0,0
280,-412,0,0,0,0,0,0,0,0,0,-1,1504,1436,0,0
287,-412,0,0,0,0,0,0,0,0,0,-1,1511,1436,0,0
294,-412,0,0,0,0,0,0,0,0,0,-1,1518,1436,0,0
301,-412,0,0,0,0,0,0,0,0,0,-1,1525,1436,0,0
308,-412,0,0,0,0,0,0,0,0,0,-1,1532,1436,0,0
315,-412,0,0,0,0,0,0,0,0,0,-1,1539,1436,0,0
322,-412,0,0,0,0,0,0,0,0,0,-1,1546,1436,0,0
329,-412,0,0,0,0,0,0,0,0,0,-1,1553,1436,0,0
336,-412,0,0,0,0,0,0,0,0,0,-1,1560,1436,0,0
343,-412,0,0,0,0,0,0,0,0,0,-1,1567,1436,0,0
350,-412,0,0,0,0,0,0,0,0,0,-1,1574,1436,0,0
357,-412,0,0,0,0,0,0,0,0,0,-1,1581,1436,0,0
364,-412,0,0,0,0,0,0,0,0,0,-1,1588,1436,0,0
371,-412,0,0,0,0,0,0,0,0,0,-1,1595,1436,0,0
378,-412,0,0,0,0,0,0,0,0,0,-1,1602,1436,0,0
385,-412,0,0,0,0,0,0,0,0,0,-1,1609,1436,0,0
392,-412,0,0,0,0,0,0,0,0,0,-1,1616,1436,0,0
399,-412,0,0,0,0,0,0,0,0,0,-1,1623,1436,0,0
406,-412,0,0,0,0,0,0,0,0,0,-1,1630,1436,0,0
413,-412,0,0,0,0,0,0,0,0,0,-1,1637,1436,0,0
420,-412,0,0,0,0,0,0,0,0,0,-1,1644,1436,0,0
427,-412,0,0,0,0,0,0,0,0,0,-1,1651,1436,0,0
434,-412,0,0,0,0,0,0,0,0,0,-1,1658,1436,0,0
441,-412,0,0,0,0,0,0,0,0,0,-1,1665,1436,0,0
448,-412,0,0,0,0,0,0,0,0,0,-1,1672,1436,0,0
455,-412,0,0,0,0,0,0,0,0,0,-1,1679,1436,0,0
462,-412,0,0,0,0,0,0,0,0,0,-1,1686,1436,0,0
469,-412,0,0,0,0,0,0,0,0,0,-1,1693,1436,0,0
476,-412,0,0,0,0,0,0,0,0,0,-1,1700,1436,0,0
483,-412,0,0,0,0,0,0,0,0,0,-1,1707,1436,0,0
490,-412,0,0,0,0,0,0,0,0,0,-1,1714,1436,0,0
497,-412,0,0,0,0,0,0,0,0,0,-1,1721,1436,0,0
504,-412,0,0,0,0,0,0,0,0,0,-1,1728,1436,0,0
511,-412,0,0,0,0,0,0,0,0,0,-1,1735,1436,0,0
518,-412,30.1038,-2.43384,0,0,0,0,0,0,0,-1,1742,1436,30.1038,2.43383
525,-412,29.5283,-1.42493,0,0,0,0,0,0,0,-1,1749,1436,29.5283,1.42495
532,-412,28.8533,-0.386597,0,0,0,0,0,0,0,-1,1756,1436,28.8533,0.386632
539,-412,25.8654,2.74683,0,0,0,0,0,0,0,-1,1763,1436,25.8654,-2.74685
546,-412,25.4265,2.4342,0,0,0,0,0,0,0,-1,1770,1436,25.4265,-2.4342
553,-412,26.3595,7.49255,0,0,0,0,0,0,0,-1,1777,1436,26.3595,-7.4925
560,-412,24.9116,7.94324,0,0,0,0,0,0,0,-1,1784,1436,24.9116,-7.94327
567,-412,23.668,7.94531,0,0,0,0,0,0,0,-1,1791,1436,23.6679,-7.94534
574,-412,23.0142,9.17236,0,0,0,0,0,0,0,-1,1798,1436,23.0141,-9.17235
581,-412,22.2615,10.0349,0,0,0,0,0,0,0,-1,1805,1436,22.2615,-10.0349
588,-412,21.6893,10.8069,0,0,0,0,0,0,0,-1,1812,1436,21.6893,-10.8069
595,-412,21.5137,14.3157,0,0,0,0,0,0,0,-1,1819,1436,21.5137,-14.3157
602,-412,21.3275,13.7194,0.00124844,0.00489522,-0.0027283,0.00635335,-0.000209682,-1.07997,0.00430716,0.0475897,1826,1436,21.3275,-13.7194
609,-412,21.2194,13.2194,0.00129791,0.00350931,-0.00209086,0.00476883,3.839e-05,-1.02862,0.0031665,0.0170989,1833,1436,21.2194,-13.2194
616,-412,21.2307,12.8134,0.00113407,0.00224061,-0.00146789,0.00325604,0.000118642,-0.965622,0.00213224,0.00944402,1840,1436,21.2307,-12.8134
623,-412,21.2015,12.4119,0.0010473,0.00138109,-0.00101147,0.00223935,0.00018905,-0.867163,0.00143404,0.00917807,1847,1436,21.2015,-12.4119
630,-412,21.1992,11.9735,0.000993463,0.000762783,-0.000655016,0.00154322,0.00021303,-0.698248,0.000965666,0.0109064,1854,1436,21.1993,-11.9735
637,-412,21.2047,11.5681,0.000893627,0.000312724,-0.000358123,0.00106428,0.000142074,-0.444681,0.000667221,0.0127939,1861,1436,21.2047,-11.5681
644,-412,21.2115,11.1766,0.00083094,2.54397e-05,-0.000129932,0.00085138,4.99949e-06,-0.156036,0.000565928,0.0143889,1868,1436,21.2115,-11.1766
651,-412,21.1769,10.7817,0.000811787,-9.55528e-05,-5.22482e-06,0.000811817,-9.55829e-05,-0.00575814,0.000575723,0.025115,1875,1436,21.1768,-10.7817
658,-412,21.1686,10.376,0.000756666,-0.000139879,9.70817e-05,0.000767058,-0.000150271,0.106637,0.000568126,0.017448,1882,1436,21.1685,-10.376
665,-412,21.1888,9.99817,0.00069733,-0.000133458,0.000183539,0.000736071,-0.0001722,0.208025,0.000557058,0.0225802,1889,1436,21.1889,-9.9982
672,-412,21.2156,9.60144,0.000673184,-8.17487e-05,0.000238289,0.000742106,-0.000150671,0.281553,0.00055186,0.0282475,1896,1436,21.2155,-9.60141
679,-412,21.2223,9.16663,0.000719002,-0.000230367,0.00033977,0.000828072,-0.000339437,0.310619,0.000693461,0.0392483,1903,1436,21.2223,-9.16659
686,-412,21.0605,8.75793,0,0,0,0,0,0,0,-1,1910,1436,21.0605,-8.75788
693,-412,11.9346,6.02344,0,0,0,0,0,0,0,-1,1917,1436,11.9346,-6.02343
700,-412,8.82764,5.8844,0,0,0,0,0,0,0,-1,1924,1436,8.82761,-5.88444
707,-412,6.59998,1.68994,0,0,0,0,0,0,0,-1,1931,1436,6.60002,-1.68995
714,-412,4.77283,-2.39832,0,0,0,0,0,0,0,-1,1938,1436,4.77288,2.39835
721,-412,0,0,0,0,0,0,0,0,0,-1,1945,1436,0,0
728,-412,0,0,0,0,0,0,0,0,0,-1,1952,1436,0,0
735,-412,0,0,0,0,0,0,0,0,0,-1,1959,1436,0,0
742,-412,0,0,0,0,0,0,0,0,0,-1,1966,1436,0,0
749,-412,0,0,0,0,0,0,0,0,0,-1,1973,1436,0,0
756,-412,0,0,0,0,0,0,0,0,0,-1,1980,1436,0,0
763,-412,0,0,0,0,0,0,0,0,0,-1,1987,1436,0,0
770,-412,0,0,0,0,0,0,0,0,0,-1,1994,1436,0,0
777,-412,0,0,0,0,0,0,0,0,0,-1,2001,1436,0,0
784,-412,0,0,0,0,0,0,0,0,0,-1,2008,1436,0,0
791,-412,0,0,0,0,0,0,0,0,0,-1,2015,1436,0,0
798,-412,0,0,0,0,0,0,0,0,0,-1,2022,1436,0,0
805,-412,0,0,0,0,0,0,0,0,0,-1,2029,1436,0,0
812,-412,0,0,0,0,0,0,0,0,0,-1,2036,1436,0,0
-700,-419,0,0,0,0,0,0,0,0,0,-1,524,1443,0,0
-693,-419,0,0,0,0,0,0,0,0,0,-1,531,1443,0,0
-686,-419,0,0,0,0,0,0,0,0,0,-1,538,1443,0,0
-679,-419,0,0,0,0,0,0,0,0,0,-1,545,1443,0,0
-672,-419,0,0,0,0,0,0,0,0,0,-1,552,1443,0,0
-665,-419,0,0,0,0,0,0,0,0,0,-1,559,1443,0,0
-658,-419,0,0,0,0,0,0,0,0,0,-1,566,1443,0,0
-651,-419,0,0,0,0,0,0,0,0,0,-1,573,1443,0,0
-644,-419,0,0,0,0,0,0,0,0,0,-1,580,1443,0,0
-637,-419,0,0,0,0,0,0,0,0,0,-1,587,1443,0,0
-630,-419,0,0,0,0,0,0,0,0,0,-1,594,1443,0,0
-623,-419,0,0,0,0,0,0,0,0,0,-1,601,1443,0,0
-616,-419,0,0,0,0,0,0,0,0,0,-1,608,1443,0,0
-609,-419,0,0,0,0,0,0,0,0,0,-1,615,1443,0,0
-602,-419,0,0,0,0,0,0,0,0,0,-1,622,1443,0,0
-595,-419,-11.4904,-0.622681,0,0,0,0,0,0,0,-1,629,1443,-11.4903,0.622714
-588,-419,-9.09369,0.742432,0,0,0,0,0,0,0,-1,636,1443,-9.09366,-0.742482
-581,-419,-6.39172,2.14673,0,0,0,0,0,0,0,-1,643,1443,-6.39175,-2.14668
-574,-419,-4.09772,3.54773,0,0,0,0,0,0,0,-1,650,1443,-4.09772,-3.54767
-567,-419,-6.14038,3.22498,0,0,0,0,0,0,0,-1,657,1443,-6.14037,-3.22497
-560,-419,-4.52814,5.22253,0,0,0,0,0,0,0,-1,664,1443,-4.52816,-5.22251
-553,-419,-5.08331,6.11829,0,0,0,0,0,0,0,-1,671,1443,-5.08331,-6.1183
-546,-419,-7.83093,7.12122,0,0,0,0,0,0,0,-1,678,1443,-7.8309,-7.12122
-539,-419,-7.93268,7.58105,-0.00678711,8.69405e-05,-0.00188595,0.000570368,-0.00727054,-1.31987,0.0050479,0.0446557,685,1443,-7.93268,-7.58111
-532,-419,-8.15271,8.00134,-0.00482532,-3.31149e-05,-0.00138613,0.000338936,-0.00519737,-1.30857,0.00358324,0.0207831,692,1443,-8.15274,-8.00133
-525,-419,-8.13019,8.49976,-0.00299058,0.000144277,-0.000744844,0.000312252,-0.00315855,-1.34899,0.00221713,0.013371,699,1443,-8.13018,-8.49979
-518,-419,-8.14545,8.92883,-0.00139802,0.000338368,-0.000113561,0.000345763,-0.00140542,-1.50576,0.00107097,0.01732,706,1443,-8.14546,-8.92882
-511,-419,-8.18219,9.3667,2.41547e-05,0.000664289,0.000555667,0.000985477,-0.000297034,1.04669,0.000775203,0.0187679,713,1443,-8.1822,-9.36673
-504,-419,-8.22046,9.80908,0.00143092,0.00116485,0.00134822,0.00265265,-5.6884e-05,0.736221,0.0017877,0.0175126,720,1443,-8.22044,-9.80907
-497,-419,-8.23682,10.2251,0.00276821,0.00175715,0.00223666,0.00455576,-3.04056e-05,0.674255,0.00304736,0.013206,727,1443,-8.2368,-10.2251
-490,-419,-8.22949,10.6533,0.00405507,0.00252206,0.00315881,0.00653904,3.80862e-05,0.66637,0.00434672,0.011122,734,1443,-8.22948,-10.6533
-483,-419,-8.23492,11.1139,0.00545218,0.00347258,0.00427054,0.00884612,7.86306e-05,0.671522,0.00587138,0.00913478,741,1443,-8.23495,-11.1139
-476,-419,-8.21448,11.5975,0.00663941,0.00450524,0.00547859,0.0111539,-9.21311e-06,0.689216,0.00743898,0.0115811,748,1443,-8.2145,-11.5975
-469,-419,-8.14819,12.1782,0.00810643,0.00509613,0.00682562,0.0135909,-0.000388328,0.676878,0.00919277,0.022737,755,1443,-8.14817,-12.1782
-462,-419,-8.0282,12.7344,0,0,0,0,0,0,0,-1,762,1443,-8.02822,-12.7343
-455,-419,-7.35645,11.9451,0,0,0,0,0,0,0,-1,769,1443,-7.35646,-11.9451
-448,-419,-7.49109,9.92444,0,0,0,0,0,0,0,-1,776,1443,-7.49109,-9.92442
-441,-419,-7.65527,8.75574,0,0,0,0,0,0,0,-1,783,1443,-7.65525,-8.75568
-434,-419,-11.3724,12.3643,0,0,0,0,0,0,0,-1,790,1443,-11.3724,-12.3643
-427,-419,-8.23193,7.89404,0,0,0,0,0,0,0,-1,797,1443,-8.23193,-7.89404
-420,-419,-8.74091,6.36597,0,0,0,0,0,0,0,-1,804,1443,-8.74089,-6.366
-413,-419,-9.88391,6.53955,0,0,0,0,0,0,0,-1,811,1443,-9.8839,-6.53955
-406,-419,-10.3372,2.75195,0,0,0,0,0,0,0,-1,818,1443,-10.3372,-2.75201
-399,-419,-11.5999,1.40002,0,0,0,0,0,0,0,-1,825,1443,-11.5999,-1.39998
-392,-419,0,0,0,0,0,0,0,0,0,-1,832,1443,0,0
-385,-419,0,0,0,0,0,0,0,0,0,-1,839,1443,0,0
-378,-419,0,0,0,0,0,0,0,0,0,-1,846,1443,0,0
-371,-419,0,0,0,0,0,0,0,0,0,-1,853,1443,0,0
-364,-419,0,0,0,0,0,0,0,0,0,-1,860,1443,0,0
-357,-419,0,0,0,0,0,0,0,0,0,-1,867,1443,0,0
-350,-419,0,0,0,0,0,0,0,0,0,-1,874,1443,0,0
-343,-419,0,0,0,0,0,0,0,0,0,-1,881,1443,0,0
-336,-419,0,0,0,0,0,0,0,0,0,-1,888,1443,0,0
-329,-419,0,0,0,0,0,0,0,0,0,-1,895,1443,0,0
-322,-419,0,0,0,0,0,0,0,0,0,-1,902,1443,0,0
-315,-419,0,0,0,0,0,0,0,0,0,-1,909,1443,0,0
-308,-419,0,0,0,0,0,0,0,0,0,-1,916,1443,0,0
-301,-419,0,0,0,0,0,0,0,0,0,-1,923,1443,0,0
-294,-419,0,0,0,0,0,0,0,0,0,-1,930,1443,0,0
-287,-419,0,0,0,0,0,0,0,0,0,-1,937,1443,0,0
-280,-419,0,0,0,0,0,0,0,0,0,-1,944,1443,0,0
-273,-419,0,0,0,0,0,0,0,0,0,-1,951,1443,0,0
-266,-419,0,0,0,0,0,0,0,0,0,-1,958,1443,0,0
-259,-419,0,0,0,0,0,0,0,0,0,-1,965,1443,0,0
-252,-419,0,0,0,0,0,0,0,0,0,-1,972,1443,0,0
-245,-419,0,0,0,0,0,0,0,0,0,-1,979,1443,0,0
-238,-419,0,0,0,0,0,0,0,0,0,-1,986,1443,0,0
-231,-419,0,0,0,0,0,0,0,0,0,-1,993,1443,0,0
-224,-419,0,0,0,0,0,0,0,0,0,-1,1000,1443,0,0
-217,-419,0,0,0,0,0,0,0,0,0,-1,1007,1443,0,0
-210,-419,0,0,0,0,0,0,0,0,0,-1,1014,1443,0,0
-203,-419,0,0,0,0,0,0,0,0,0,-1,1021,1443,0,0
-196,-419,0,0,0,0,0,0,0,0,0,-1,1028,1443,0,0
-189,-419,0,0,0,0,0,0,0,0,0,-1,1035,1443,0,0
-182,-419,0,0,0,0,0,0,0,0,0,-1,1042,1443,0,0
-175,-419,0,0,0,0,0,0,0,0,0,-1,1049,1443,0,0
-168,-419,0,0,0,0,0,0,0,0,0,-1,1056,1443,0,0
-161,-419,0,0,0,0,0,0,0,0,0,-1,1063,1443,0,0
-154,-419,0,0,0,0,0,0,0,0,0,-1,1070,1443,0,0
-147,-419,0,0,0,0,0,0,0,0,0,-1,1077,1443,0,0
-140,-419,0,0,0,0,0,0,0,0,0,-1,1084,1443,0,0
-133,-419,0,0,0,0,0,0,0,0,0,-1,1091,1443,0,0
-126,-419,0,0,0,0,0,0,0,0,0,-1,1098,1443,0,0
-119,-419,0,0,0,0,0,0,0,0,0,-1,1105,1443,0,0
-112,-419,0,0,0,0,0,0,0,0,0,-1,1112,1443,0,0
-105,-419,0,0,0,0,0,0,0,0,0,-1,1119,1443,0,0
-98,-419,0,0,0,0,0,0,0,0,0,-1,1126,1443,0,0
-91,-419,0,0,0,0,0,0,0,0,0,-1,1133,1443,0,0
-84,-419,0,0,0,0,0,0,0,0,0,-1,1140,1443,0,0
-77,-419,0,0,0,0,0,0,0,0,0,-1,1147,1443,0,0
-70,-419,0,0,0,0,0,0,0,0,0,-1,1154,1443,0,0
-63,-419,0,0,0,0,0,0,0,0,0,-1,1161,1443,0,0
-56,-419,0,0,0,0,0,0,0,0,0,-1,1168,1443,0,0
-49,-419,0,0,0,0,0,0,0,0,0,-1,1175,1443,0,0
-42,-419,0,0,0,0,0,0,0,0,0,-1,1182,1443,0,0
-35,-419,0,0,0,0,0,0,0,0,0,-1,1189,1443,0,0
-28,-419,0,0,0,0,0,0,0,0,0,-1,1196,1443,0,0
-21,-419,0,0,0,0,0,0,0,0,0,-1,1203,1443,0,0
-14,-419,0,0,0,0,0,0,0,0,0,-1,1210,1443,0,0
-7,-419,0,0,0,0,0,0,0,0,0,-1,1217,1443,0,0
0,-419,0,0,0,0,0,0,0,0,0,-1,1224,1443,0,0
7,-419,0,0,0,0,0,0,0,0,0,-1,1231,1443,0,0
14,-419,0,0,0,0,0,0,0,0,0,-1,1238,1443,0,0
21,-419,0,0,0,0,0,0,0,0,0,-1,1245,1443,0,0
28,-419,0,0,0,0,0,0,0,0,0,-1,1252,1443,0,0
35,-419,0,0,0,0,0,0,0,0,0,-1,1259,1443,0,0
42,-419,0,0,0,0,0,0,0,0,0,-1,1266,1443,0,0
49,-419,0,0,0,0,0,0,0,0,0,-1,1273,1443,0,0
56,-419,0,0,0,0,0,0,0,0,0,-1,1280,1443,0,0
63,-419,0,0,0,0,0,0,0,0,0,-1,1287,1443,0,0
70,-419,0,0,0,0,0,0,0,0,0,-1,1294,1443,0,0
77,-419,0,0,0,0,0,0,0,0,0,-1,1301,1443,0,0
84,-419,0,0,0,0,0,0,0,0,0,-1,1308,1443,0,0
91,-419,0,0,0,0,0,0,0,0,0,-1,1315,1443,0,0
98,-419,0,0,0,0,0,0,0,0,0,-1,1322,1443,0,0
105,-419,0,0,0,0,0,0,0,0,0,-1,1329,1443,0,0
112,-419,0,0,0,0,0,0,0,0,0,-1,1336,1443,0,0
119,-419,0,0,0,0,0,0,0,0,0,-1,1343,1443,0,0
126,-419,0,0,0,0,0,0,0,0,0,-1,1350,1443,0,0
133,-419,0,0,0,0,0,0,0,0,0,-1,1357,1443,0,0
140,-419,0,0,0,0,0,0,0,0,0,-1,1364,1443,0,0
147,-419,0,0,0,0,0,0,0,0,0,-1,1371,1443,0,0
154,-419,0,0,0,0,0,0,0,0,0,-1,1378,1443,0,0
161,-419,0,0,0,0,0,0,0,0,0,-1,1385,1443,0,0
168,-419,0,0,0,0,0,0,0,0,0,-1,1392,1443,0,0
175,-419,0,0,0,0,0,0,0,0,0,-1,1399,1443,0,0
182,-419,0,0,0,0,0,0,0,0,0,-1,1406,1443,0,0
189,-419,0,0,0,0,0,0,0,0,0,-1,1413,1443,0,0
196,-419,0,0,0,0,0,0,0,0,0,-1,1420,1443,0,0
203,-419,0,0,0,0,0,0,0,0,0,-1,1427,1443,0,0
210,-419,0,0,0,0,0,0,0,0,0,-1,1434,1443,0,0
217,-419,0,0,0,0,0,0,0,0,0,-1,1441,1443,0,0
224,-419,0,0,0,0,0,0,0,0,0,-1,1448,1443,0,0
231,-419,0,0,0,0,0,0,0,0,0,-1,1455,1443,0,0
238,-419,0,0,0,0,0,0,0,0,0,-1,1462,1443,0,0
245,-419,0,0,0,0,0,0,0,0,0,-1,1469,1443,0,0
252,-419,0,0,0,0,0,0,0,0,0,-1,1476,1443,0,0
259,-419,0,0,0,0,0,0,0,0,0,-1,1483,1443,0,0
266,-419,0,0,0,0,0,0,0,0,0,-1,1490,1443,0,0
273,-419,0,0,0,0,0,0,0,0,0,-1,1497,1443,0,0
280,-419,0,0,0,0,0,0,0,0,0,-1,1504,1443,0,0
287,-419,0,0,0,0,0,0,0,0,0,-1,1511,1443,0,0
294,-419,0,0,0,0,0,0,0,0,0,-1,1518,1443,0,0
301,-419,0,0,0,0,0,0,0,0,0,-1,1525,1443,0,0
308,-419,0,0,0,0,0,0,0,0,0,-1,1532,1443,0,0
315,-419,0,0,0,0,0,0,0,0,0,-1,1539,1443,0,0
322,-419,0,0,0,0,0,0,0,0,0,-1,1546,1443,0,0
329,-419,0,0,0,0,0,0,0,0,0,-1,1553,1443,0,0
336,-419,0,0,0,0,0,0,0,0,0,-1,1560,1443,0,0
343,-419,0,0,0,0,0,0,0,0,0,-1,1567,1443,0,0
350,-419,0,0,0,0,0,0,0,0,0,-1,1574,1443,0,0
357,-419,0,0,0,0,0,0,0,0,0,-1,1581,1443,0,0
364,-419,0,0,0,0,0,0,0,0,0,-1,1588,1443,0,0
371,-419,0,0,0,0,0,0,0,0,0,-1,1595,1443,0,0
378,-419,0,0,0,0,0,0,0,0,0,-1,1602,1443,0,0
385,-419,0,0,0,0,0,0,0,0,0,-1,1609,1443,0,0
392,-419,0,0,0,0,0,0,0,0,0,-1,1616,1443,0,0
399,-419,0,0,0,0,0,0,0,0,0,-1,1623,1443,0,0
406,-419,0,0,0,0,0,0,0,0,0,-1,1630,1443,0,0
413,-419,0,0,0,0,0,0,0,0,0,-1,1637,1443,0,0
420,-419,0,0,0,0,0,0,0,0,0,-1,1644,1443,0,0
427,-419,0,0,0,0,0,0,0,0,0,-1,1651,1443,0,0
434,-419,0,0,0,0,0,0,0,0,0,-1,1658,1443,0,0
441,-419,0,0,0,0,0,0,0,0,0,-1,1665,1443,0,0
448,-419,0,0,0,0,0,0,0,0,0,-1,1672,1443,0,0
455,-419,0,0,0,0,0,0,0,0,0,-1,1679,1443,0,0
462,-419,0,0,0,0,0,0,0,0,0,-1,1686,1443,0,0
469,-419,0,0,0,0,0,0,0,0,0,-1,1693,1443,0,0
476,-419,0,0,0,0,0,0,0,0,0,-1,1700,1443,0,0
483,-419,0,0,0,0,0,0,0,0,0,-1,1707,1443,0,0
490,-419,0,0,0,0,0,0,0,0,0,-1,1714,1443,0,0
497,-419,0,0,0,0,0,0,0,0,0,-1,1721,1443,0,0
504,-419,0,0,0,0,0,0,0,0,0,-1,1728,1443,0,0
511,-419,20.3005,3.7959,0,0,0,0,0,0,0,-1,1735,1443,20.3005,-3.79584
518,-419,21.3154,2.03027,0,0,0,0,0,0,0,-1,1742,1443,21.3155,-2.03029
525,-419,28.3439,-1.24475,0,0,0,0,0,0,0,-1,1749,1443,28.3438,1.24471
532,-419,27.5902,-0.272583,0,0,0,0,0,0,0,-1,1756,1443,27.5902,0.272526
539,-419,26.5278,1.60583,0,0,0,0,0,0,0,-1,1763,1443,26.5279,-1.60579
546,-419,24.9509,2.77539,0,0,0,0,0,0,0,-1,1770,1443,24.9509,-2.77537
553,-419,24.118,3.75525,0,0,0,0,0,0,0,-1,1777,1443,24.1181,-3.75526
560,-419,11.8199,8.26343,0,0,0,0,0,0,0,-1,1784,1443,11.82,-8.26341
567,-419,21.5143,8.74719,0,0,0,0,0,0,0,-1,1791,1443,21.5143,-8.74722
574,-419,19.5886,6.46155,0,0,0,0,0,0,0,-1,1798,1443,19.5886,-6.46157
581,-419,20.7926,11.4265,0,0,0,0,0,0,0,-1,1805,1443,20.7926,-11.4265
588,-419,19.4242,12.5363,0,0,0,0,0,0,0,-1,1812,1443,19.4242,-12.5362
595,-419,20.6843,14.213,0,0,0,0,0,0,0,-1,1819,1443,20.6843,-14.2131
602,-419,20.8347,13.6229,0.0013435,0.00404349,-0.00243666,0.00547914,-9.21488e-05,-1.03837,0.00368386,0.0213822,1826,1443,20.8347,-13.6229
609,-419,20.8323,13.2207,0.00133475,0.00300965,-0.00188176,0.0042319,0.000112504,-0.994757,0.00278452,0.0134266,1833,1443,20.8322,-13.2207
616,-419,20.8201,12.84,0.00118452,0.00198144,-0.00134324,0.00298407,0.00018188,-0.929583,0.00193161,0.0114152,1840,1443,20.8201,-12.84
623,-419,20.8066,12.4148,0.00108925,0.00122817,-0.00090837,0.00206974,0.000247692,-0.823558,0.00130512,0.00922595,1847,1443,20.8067,-12.4148
630,-419,20.8187,11.9829,0.00102564,0.000648814,-0.000558933,0.00142706,0.000247391,-0.622834,0.00088057,0.0113051,1854,1443,20.8187,-11.983
637,-419,20.8167,11.5844,0.000921258,0.00021085,-0.000247799,0.000999152,0.000132956,-0.304565,0.000626503,0.0121884,1861,1443,20.8166,-11.5843
644,-419,20.8043,11.1998,0.000862037,-6.05822e-05,-1.41949e-05,0.000862255,-6.08006e-05,-0.0153806,0.000596138,0.0113288,1868,1443,20.8044,-11.1999
651,-419,20.7864,10.8124,0.000818884,-0.000166659,0.000116958,0.000832574,-0.000180349,0.116517,0.000623916,0.0118497,1875,1443,20.7863,-10.8124
658,-419,20.765,10.3911,0.000721509,-0.000158476,0.000219262,0.000773115,-0.000210082,0.231156,0.00059787,0.0137342,1882,1443,20.765,-10.3912
665,-419,20.7755,10.0033,0.000592561,-0.000121804,0.000294208,0.000698128,-0.000227372,0.34451,0.000556902,0.020589,1889,1443,20.7755,-10.0033
672,-419,20.7853,9.55127,0.00046453,5.64008e-06,0.000319669,0.000628574,-0.000158404,0.474126,0.000480632,0.02757,1896,1443,20.7853,-9.55122
679,-419,20.9115,9.18274,0,0,0,0,0,0,0,-1,1903,1443,20.9115,-9.18275
686,-419,17.4127,8.03076,0,0,0,0,0,0,0,-1,1910,1443,17.4127,-8.03071
693,-419,8.76086,5.60535,0,0,0,0,0,0,0,-1,1917,1443,8.76091,-5.6054
700,-419,11.0498,4.85156,0,0,0,0,0,0,0,-1,1924,1443,11.0498,-4.85153
707,-419,9.5752,1.80042,0,0,0,0,0,0,0,-1,1931,1443,9.57523,-1.80037
714,-419,5.77576,-1.25061,0,0,0,0,0,0,0,-1,1938,1443,5.7757,1.25056
721,-419,0,0,0,0,0,0,0,0,0,-1,1945,1443,0,0
728,-419,0,0,0,0,0,0,0,0,0,-1,1952,1443,0,0
735,-419,0,0,0,0,0,0,0,0,0,-1,1959,1443,0,0
742,-419,0,0,0,0,0,0,0,0,0,-1,1966,1443,0,0
749,-419,0,0,0,0,0,0,0,0,0,-1,1973,1443,0,0
756,-419,0,0,0,0,0,0,0,0,0,-1,1980,1443,0,0
763,-419,0,0,0,0,0,0,0,0,0,-1,1987,1443,0,0
770,-419,0,0,0,0,0,0,0,0,0,-1,1994,1443,0,0
777,-419,0,0,0,0,0,0,0,0,0,-1,2001,1443,0,0
784,-419,0,0,0,0,0,0,0,0,0,-1,2008,1443,0,0
791,-419,0,0,0,0,0,0,0,0,0,-1,2015,1443,0,0
798,-419,0,0,0,0,0,0,0,0,0,-1,2022,1443,0,0
805,-419,0,0,0,0,0,0,0,0,0,-1,2029,1443,0,0
812,-419,0,0,0,0,0,0,0,0,0,-1,2036,1443,0,0
-700,-426,0,0,0,0,0,0,0,0,0,-1,524,1450,0,0
-693,-426,0,0,0,0,0,0,0,0,0,-1,531,1450,0,0
-686,-426,0,0,0,0,0,0,0,0,0,-1,538,1450,0,0
-679,-426,0,0,0,0,0,0,0,0,0,-1,545,1450,0,0
-672,-426,0,0,0,0,0,0,0,0,0,-1,552,1450,0,0
-665,-426,0,0,0,0,0,0,0,0,0,-1,559,1450,0,0
-658,-426,0,0,0,0,0,0,0,0,0,-1,566,1450,0,0
-651,-426,0,0,0,0,0,0,0,0,0,-1,573,1450,0,0
-644,-426,0,0,0,0,0,0,0,0,0,-1,580,1450,0,0
-637,-426,0,0,0,0,0,0,0,0,0,-1,587,1450,0,0
-630,-426,0,0,0,0,0,0,0,0,0,-1,594,1450,0,0
-623,-426,0,0,0,0,0,0,0,0,0,-1,601,1450,0,0
-616,-426,0,0,0,0,0,0,0,0,0,-1,608,1450,0,0
-609,-426,0,0,0,0,0,0,0,0,0,-1,615,1450,0,0
-602,-426,0,0,0,0,0,0,0,0,0,-1,622,1450,0,0
-595,-426,0,0,0,0,0,0,0,0,0,-1,629,1450,0,0
-588,-426,-10.184,-0.554321,0,0,0,0,0,0,0,-1,636,1450,-10.184,0.554321
-581,-426,-7.3349,1.48157,0,0,0,0,0,0,0,-1,643,1450,-7.33491,-1.48152
-574,-426,-5.02856,2.89319,0,0,0,0,0,0,0,-1,650,1450,-5.02858,-2.89319
-567,-426,-3.04797,1.72644,0,0,0,0,0,0,0,-1,657,1450,-3.04797,-1.72639
-560,-426,-5.55682,3.44397,0,0,0,0,0,0,0,-1,664,1450,-5.55684,-3.44399
-553,-426,-4.67017,6.66614,0,0,0,0,0,0,0,-1,671,1450,-4.67015,-6.66619
-546,-426,-6.93115,6.96362,0,0,0,0,0,0,0,-1,678,1450,-6.93118,-6.96357
-539,-426,-7.19611,7.56445,-0.00572827,0.00099298,-0.000484008,0.00102766,-0.00576295,-1.49928,0.00422637,0.049445,685,1450,-7.1961,-7.56442
-532,-426,-7.59637,8.03186,-0.00389765,0.000687489,-0.000249533,0.000701029,-0.00391119,-1.51659,0.00286982,0.0408427,692,1450,-7.59637,-8.03182
-525,-426,-7.72467,8.44958,-0.00222604,0.00072725,0.000152203,0.000735073,-0.00223386,1.51944,0.00178544,0.016638,699,1450,-7.72466,-8.44954
-518,-426,-7.72034,8.92859,-0.000865911,0.000773336,0.000530424,0.000929998,-0.00102257,1.28361,0.00112774,0.0157175,706,1450,-7.72031,-8.92855
-511,-426,-7.73468,9.39722,0.00024493,0.000903007,0.000899868,0.00153211,-0.00038417,0.960673,0.00117066,0.0152746,713,1450,-7.73466,-9.39727
-504,-426,-7.74518,9.8313,0.00132035,0.00121263,0.00139912,0.00266664,-0.00013366,0.766161,0.00182395,0.0148593,720,1450,-7.74521,-9.8313
-497,-426,-7.76715,10.2393,0.00232853,0.00163063,0.00199748,0.00400731,-4.81543e-05,0.698923,0.00268773,0.0123759,727,1450,-7.76718,-10.2392
-490,-426,-7.78473,10.6599,0.00326026,0.00221758,0.00261977,0.00541006,6.77845e-05,0.687181,0.00358432,0.0124729,734,1450,-7.78472,-10.66
-483,-426,-7.79431,11.1304,0.00435752,0.00296728,0.00344454,0.00717638,0.00014842,0.685834,0.00473556,0.0122118,741,1450,-7.79433,-11.1304
-476,-426,-7.79834,11.5775,0.00524224,0.00378089,0.00433362,0.00890635,0.000116775,0.701881,0.00589903,0.00928749,748,1450,-7.79832,-11.5776
-469,-426,-7.80682,12.01,0.00625947,0.00411023,0.0052399,0.0105338,-0.000164111,0.684258,0.00707788,0.00854583,755,1450,-7.80684,-12.01
-462,-426,-7.6665,12.619,0.00751463,0.00511664,0.00626269,0.0126921,-6.07939e-05,0.690817,0.00848171,0.030919,762,1450,-7.66648,-12.6191
-455,-426,-7.50195,13.2997,0,0,0,0,0,0,0,-1,769,1450,-7.50194,-13.2996
-448,-426,-6.46545,10.1322,0,0,0,0,0,0,0,-1,776,1450,-6.46543,-10.1322
-441,-426,-10.9547,11.4747,0,0,0,0,0,0,0,-1,783,1450,-10.9546,-11.4748
-434,-426,-8.60004,11.0076,0,0,0,0,0,0,0,-1,790,1450,-8.60002,-11.0075
-427,-426,-9.36627,13.7396,0,0,0,0,0,0,0,-1,797,1450,-9.36628,-13.7396
-420,-426,-5.33765,7.95044,0,0,0,0,0,0,0,-1,804,1450,-5.33766,-7.95041
-413,-426,-10.1148,5.0415,0,0,0,0,0,0,0,-1,811,1450,-10.1148,-5.04152
-406,-426,-11.4199,3.6438,0,0,0,0,0,0,0,-1,818,1450,-11.4198,-3.64382
-399,-426,-12.7595,2.29004,0,0,0,0,0,0,0,-1,825,1450,-12.7595,-2.29003
-392,-426,-12.4147,0.537354,0,0,0,0,0,0,0,-1,832,1450,-12.4147,-0.53731
-385,-426,0,0,0,0,0,0,0,0,0,-1,839,1450,0,0
-378,-426,0,0,0,0,0,0,0,0,0,-1,846,1450,0,0
-371,-426,0,0,0,0,0,0,0,0,0,-1,853,1450,0,0
-364,-426,0,0,0,0,0,0,0,0,0,-1,860,1450,0,0
-357,-426,0,0,0,0,0,0,0,0,0,-1,867,1450,0,0
-350,-426,0,0,0,0,0,0,0,0,0,-1,874,1450,0,0
-343,-426,0,0,0,0,0,0,0,0,0,-1,881,1450,0,0
-336,-426,0,0,0,0,0,0,0,0,0,-1,888,1450,0,0
-329,-426,0,0,0,0,0,0,0,0,0,-1,895,1450,0,0
-322,-426,0,0,0,0,0,0,0,0,0,-1,902,1450,0,0
-315,-426,0,0,0,0,0,0,0,0,0,-1,909,1450,0,0
-308,-426,0,0,0,0,0,0,0,0,0,-1,916,1450,0,0
-301,-426,0,0,0,0,0,0,0,0,0,-1,923,1450,0,0
-294,-426,0,0,0,0,0,0,0,0,0,-1,930,1450,0,0
-287,-426,0,0,0,0,0,0,0,0,0,-1,937,1450,0,0
-280,-426,0,0,0,0,0,0,0,0,0,-1,944,1450,0,0
-273,-426,0,0,0,0,0,0,0,0,0,-1,951,1450,0,0
-266,-426,0,0,0,0,0,0,0,0,0,-1,958,1450,0,0
-259,-426,0,0,0,0,0,0,0,0,0,-1,965,1450,0,0
-252,-426,0,0,0,0,0,0,0,0,0,-1,972,1450,0,0
-245,-426,0,0,0,0,0,0,0,0,0,-1,979,1450,0,0
-238,-426,0,0,0,0,0,0,0,0,0,-1,986,1450,0,0
-231,-426,0,0,0,0,0,0,0,0,0,-1,993,1450,0,0
-224,-426,0,0,0,0,0,0,0,0,0,-1,1000,1450,0,0
-217,-426,0,0,0,0,0,0,0,0,0,-1,1007,1450,0,0
-210,-426,0,0,0,0,0,0,0,0,0,-1,1014,1450,0,0
-203,-426,0,0,0,0,0,0,0,0,0,-1,1021,1450,0,0
-196,-426,0,0,0,0,0,0,0,0,0,-1,1028,1450,0,0
-189,-426,0,0,0,0,0,0,0,0,0,-1,1035,1450,0,0
-182,-426,0,0,0,0,0,0,0,0,0,-1,1042,1450,0,0
-175,-426,0,0,0,0,0,0,0,0,0,-1,1049,1450,0,0
-168,-426,0,0,0,0,0,0,0,0,0,-1,1056,1450,0,0
-161,-426,0,0,0,0,0,0,0,0,0,-1,1063,1450,0,0
-154,-426,0,0,0,0,0,0,0,0,0,-1,1070,1450,0,0
-147,-426,0,0,0,0,0,0,0,0,0,-1,1077,1450,0,0
-140,-426,0,0,0,0,0,0,0,0,0,-1,1084,1450,0,0
-133,-426,0,0,0,0,0,0,0,0,0,-1,1091,1450,0,0
-126,-426,0,0,0,0,0,0,0,0,0,-1,1098,1450,0,0
-119,-426,0,0,0,0,0,0,0,0,0,-1,1105,1450,0,0
-112,-426,0,0,0,0,0,0,0,0,0,-1,1112,1450,0,0
-105,-426,0,0,0,0,0,0,0,0,0,-1,1119,1450,0,0
-98,-426,0,0,0,0,0,0,0,0,0,-1,1126,1450,0,0
-91,-426,0,0,0,0,0,0,0,0,0,-1,1133,1450,0,0
-84,-426,0,0,0,0,0,0,0,0,0,-1,1140,1450,0,0
-77,-426,0,0,0,0,0,0,0,0,0,-1,1147,1450,0,0
-70,-426,0,0,0,0,0,0,0,0,0,-1,1154,1450,0,0
-63,-426,0,0,0,0,0,0,0,0,0,-1,1161,1450,0,0
-56,-426,0,0,0,0,0,0,0,0,0,-1,1168,1450,0,0
-49,-426,0,0,0,0,0,0,0,0,0,-1,1175,1450,0,0
-42,-426,0,0,0,0,0,0,0,0,0,-1,1182,1450,0,0
-35,-426,0,0,0,0,0,0,0,0,0,-1,1189,1450,0,0
-28,-426,0,0,0,0,0,0,0,0,0,-1,1196,1450,0,0
-21,-426,0,0,0,0,0,0,0,0,0,-1,1203,1450,0,0
-14,-426,0,0,0,0,0,0,0,0,0,-1,1210,1450,0,0
-7,-426,0,0,0,0,0,0,0,0,0,-1,1217,1450,0,0
0,-426,0,0,0,0,0,0,0,0,0,-1,1224,1450,0,0
7,-426,0,0,0,0,0,0,0,0,0,-1,1231,1450,0,0
14,-426,0,0,0,0,0,0,0,0,0,-1,1238,1450,0,0
21,-426,0,0,0,0,0,0,0,0,0,-1,1245,1450,0,0
28,-426,0,0,0,0,0,0,0,0,0,-1,1252,1450,0,0
35,-426,0,0,0,0,0,0,0,0,0,-1,1259,1450,0,0
42,-426,0,0,0,0,0,0,0,0,0,-1,1266,1450,0,0
49,-426,0,0,0,0,0,0,0,0,0,-1,1273,1450,0,0
56,-426,0,0,0,0,0,0,0,0,0,-1,1280,1450,0,0
63,-426,0,0,0,0,0,0,0,0,0,-1,1287,1450,0,0
70,-426,0,0,0,0,0,0,0,0,0,-1,1294,1450,0,0
77,-426,0,0,0,0,0,0,0,0,0,-1,1301,1450,0,0
84,-426,0,0,0,0,0,0,0,0,0,-1,1308,1450,0,0
91,-426,0,0,0,0,0,0,0,0,0,-1,1315,1450,0,0
98,-426,0,0,0,0,0,0,0,0,0,-1,1322,1450,0,0
105,-426,0,0,0,0,0,0,0,0,0,-1,1329,1450,0,0
112,-426,0,0,0,0,0,0,0,0,0,-1,1336,1450,0,0
119,-426,0,0,0,0,0,0,0,0,0,-1,1343,1450,0,0
126,-426,0,0,0,0,0,0,0,0,0,-1,1350,1450,0,0
133,-426,0,0,0,0,0,0,0,0,0,-1,1357,1450,0,0
140,-426,0,0,0,0,0,0,0,0,0,-1,1364,1450,0,0
147,-426,0,0,0,0,0,0,0,0,0,-1,1371,1450,0,0
154,-426,0,0,0,0,0,0,0,0,0,-1,1378,1450,0,0
161,-426,0,0,0,0,0,0,0,0,0,-1,1385,1450,0,0
168,-426,0,0,0,0,0,0,0,0,0,-1,1392,1450,0,0
175,-426,0,0,0,0,0,0,0,0,0,-1,1399,1450,0,0
182,-426,0,0,0,0,0,0,0,0,0,-1,1406,1450,0,0
189,-426,0,0,0,0,0,0,0,0,0,-1,1413,1450,0,0
196,-426,0,0,0,0,0,0,0,0,0,-1,1420,1450,0,0
203,-426,0,0,0,0,0,0,0,0,0,-1,1427,1450,0,0
210,-426,0,0,0,0,0,0,0,0,0,-1,1434,1450,0,0
217,-426,0,0,0,0,0,0,0,0,0,-1,1441,1450,0,0
224,-426,0,0,0,0,0,0,0,0,0,-1,1448,1450,0,0
231,-426,0,0,0,0,0,0,0,0,0,-1,1455,1450,0,0
238,-426,0,0,0,0,0,0,0,0,0,-1,1462,1450,0,0
245,-426,0,0,0,0,0,0,0,0,0,-1,1469,1450,0,0
252,-426,0,0,0,0,0,0,0,0,0,-1,1476,1450,0,0
259,-426,0,0,0,0,0,0,0,0,0,-1,1483,1450,0,0
266,-426,0,0,0,0,0,0,0,0,0,-1,1490,1450,0,0
273,-426,0,0,0,0,0,0,0,0,0,-1,1497,1450,0,0
280,-426,0,0,0,0,0,0,0,0,0,-1,1504,1450,0,0
287,-426,0,0,0,0,0,0,0,0,0,-1,1511,1450,0,0
294,-426,0,0,0,0,0,0,0,0,0,-1,1518,1450,0,0
301,-426,0,0,0,0,0,0,0,0,0,-1,1525,1450,0,0
308,-426,0,0,0,0,0,0,0,0,0,-1,1532,1450,0,0
315,-426,0,0,0,0,0,0,0,0,0,-1,1539,1450,0,0
322,-426,0,0,0,0,0,0,0,0,0,-1,1546,1450,0,0
329,-426,0,0,0,0,0,0,0,0,0,-1,1553,1450,0,0
336,-426,0,0,0,0,0,0,0,0,0,-1,1560,1450,0,0
343,-426,0,0,0,0,0,0,0,0,0,-1,1567,1450,0,0
350,-426,0,0,0,0,0,0,0,0,0,-1,1574,1450,0,0
357,-426,0,0,0,0,0,0,0,0,0,-1,1581,1450,0,0
364,-426,0,0,0,0,0,0,0,0,0,-1,1588,1450,0,0
371,-426,0,0,0,0,0,0,0,0,0,-1,1595,1450,0,0
378,-426,0,0,0,0,0,0,0,0,0,-1,1602,1450,0,0
385,-426,0,0,0,0,0,0,0,0,0,-1,1609,1450,0,0
392,-426,0,0,0,0,0,0,0,0,0,-1,1616,1450,0,0
399,-426,0,0,0,0,0,0,0,0,0,-1,1623,1450,0,0
406,-426,0,0,0,0,0,0,0,0,0,-1,1630,1450,0,0
413,-426,0,0,0,0,0,0,0,0,0,-1,1637,1450,0,0
420,-426,0,0,0,0,0,0,0,0,0,-1,1644,1450,0,0
427,-426,0,0,0,0,0,0,0,0,0,-1,1651,1450,0,0
434,-426,0,0,0,0,0,0,0,0,0,-1,1658,1450,0,0
441,-426,0,0,0,0,0,0,0,0,0,-1,1665,1450,0,0
448,-426,0,0,0,0,0,0,0,0,0,-1,1672,1450,0,0
455,-426,0,0,0,0,0,0,0,0,0,-1,1679,1450,0,0
462,-426,0,0,0,0,0,0,0,0,0,-1,1686,1450,0,0
469,-426,0,0,0,0,0,0,0,0,0,-1,1693,1450,0,0
476,-426,0,0,0,0,0,0,0,0,0,-1,1700,1450,0,0
483,-426,0,0,0,0,0,0,0,0,0,-1,1707,1450,0,0
490,-426,0,0,0,0,0,0,0,0,0,-1,1714,1450,0,0
497,-426,0,0,0,0,0,0,0,0,0,-1,1721,1450,0,0
504,-426,20.6873,3.38367,0,0,0,0,0,0,0,-1,1728,1450,20.6873,-3.38361
511,-426,19.6676,3.53748,0,0,0,0,0,0,0,-1,1735,1450,19.6676,-3.53749
518,-426,18.6853,3.32288,0,0,0,0,0,0,0,-1,1742,1450,18.6853,-3.3229
525,-426,18.9552,2.71033,0,0,0,0,0,0,0,-1,1749,1450,18.9552,-2.71034
532,-426,19.4333,2.70764,0,0,0,0,0,0,0,-1,1756,1450,19.4334,-2.70764
539,-426,25.1482,2.56287,0,0,0,0,0,0,0,-1,1763,1450,25.1482,-2.56286
546,-426,24.1136,3.75659,0,0,0,0,0,0,0,-1,1770,1450,24.1136,-3.7566
553,-426,23.0791,4.95032,0,0,0,0,0,0,0,-1,1777,1450,23.0791,-4.95034
560,-426,12.9688,11.8289,0,0,0,0,0,0,0,-1,1784,1450,12.9688,-11.8288
567,-426,13.6388,11.5623,0,0,0,0,0,0,0,-1,1791,1450,13.6388,-11.5623
574,-426,14.3943,11.0286,0,0,0,0,0,0,0,-1,1798,1450,14.3942,-11.0285
581,-426,16.3879,11.4653,0,0,0,0,0,0,0,-1,1805,1450,16.3879,-11.4653
588,-426,18.1212,12.5547,0,0,0,0,0,0,0,-1,1812,1450,18.1212,-12.5547
595,-426,20.2968,14.0962,0,0,0,0,0,0,0,-1,1819,1450,20.2968,-14.0962
602,-426,20.3716,13.6532,0.00144851,0.00353084,-0.00211942,0.00485103,0.000128333,-1.01371,0.0031921,0.0233321,1826,1450,20.3716,-13.6531
609,-426,20.4115,13.2322,0.00140829,0.00265975,-0.00166079,0.00380878,0.00025926,-0.965556,0.00245733,0.012944,1833,1450,20.4115,-13.2321
616,-426,20.4095,12.8409,0.00128263,0.00176322,-0.00119775,0.00274454,0.000301302,-0.884394,0.00173799,0.0148079,1840,1450,20.4095,-12.841
623,-426,20.4008,12.4155,0.00117997,0.00105541,-0.000801865,0.00192197,0.000313406,-0.746642,0.00119067,0.0114594,1847,1450,20.4008,-12.4155
630,-426,20.4312,12.0037,0.00111522,0.000471864,-0.000483737,0.00137447,0.000212614,-0.491978,0.000854309,0.011368,1854,1450,20.4311,-12.0036
637,-426,20.4102,11.6029,0.00101055,1.27845e-05,-0.000189609,0.00104537,-2.20325e-05,-0.181602,0.000704371,0.0117209,1861,1450,20.4102,-11.6029
644,-426,20.3702,11.2242,0.000948646,-0.000273406,2.73414e-05,0.000949258,-0.000274017,0.0223584,0.000741257,0.0119845,1868,1450,20.3703,-11.2242
651,-426,20.3574,10.826,0.000868638,-0.000399505,0.000154807,0.000887262,-0.000418129,0.119731,0.00076972,0.0120964,1875,1450,20.3575,-10.826
658,-426,20.3647,10.3691,0.000715313,-0.000364017,0.000257136,0.000773442,-0.000422146,0.222325,0.000700135,0.0122086,1882,1450,20.3647,-10.3691
665,-426,20.4052,9.92004,0.000492645,-0.000312255,0.000329293,0.000610194,-0.000429805,0.342876,0.000603447,0.0198653,1889,1450,20.4052,-9.92001
672,-426,20.4592,9.55811,0,0,0,0,0,0,0,-1,1896,1450,20.4592,-9.5581
679,-426,17.1522,8.15784,0,0,0,0,0,0,0,-1,1903,1450,17.1522,-8.15784
686,-426,13.5326,8.03711,0,0,0,0,0,0,0,-1,1910,1450,13.5326,-8.03717
693,-426,11.8607,6.45215,0,0,0,0,0,0,0,-1,1917,1450,11.8607,-6.45215
700,-426,9.24304,2.95447,0,0,0,0,0,0,0,-1,1924,1450,9.24305,-2.95442
707,-426,8.44519,-1.21448,0,0,0,0,0,0,0,-1,1931,1450,8.44514,1.21454
714,-426,0,0,0,0,0,0,0,0,0,-1,1938,1450,0,0
721,-426,0,0,0,0,0,0,0,0,0,-1,1945,1450,0,0
728,-426,0,0,0,0,0,0,0,0,0,-1,1952,1450,0,0
735,-426,0,0,0,0,0,0,0,0,0,-1,1959,1450,0,0
742,-426,0,0,0,0,0,0,0,0,0,-1,1966,1450,0,0
749,-426,0,0,0,0,0,0,0,0,0,-1,1973,1450,0,0
756,-426,0,0,0,0,0,0,0,0,0,-1,1980,1450,0,0
763,-426,0,0,0,0,0,0,0,0,0,-1,1987,1450,0,0
770,-426,0,0,0,0,0,0,0,0,0,-1,1994,1450,0,0
777,-426,0,0,0,0,0,0,0,0,0,-1,2001,1450,0,0
784,-426,0,0,0,0,0,0,0,0,0,-1,2008,1450,0,0
791,-426,0,0,0,0,0,0,0,0,0,-1,2015,1450,0,0
798,-426,0,0,0,0,0,0,0,0,0,-1,2022,1450,0,0
805,-426,0,0,0,0,0,0,0,0,0,-1,2029,1450,0,0
812,-426,0,0,0,0,0,0,0,0,0,-1,2036,1450,0,0
-700,-433,0,0,0,0,0,0,0,0,0,-1,524,1457,0,0
-693,-433,0,0,0,0,0,0,0,0,0,-1,531,1457,0,0
-686,-433,0,0,0,0,0,0,0,0,0,-1,538,1457,0,0
-679,-433,0,0,0,0,0,0,0,0,0,-1,545,1457,0,0
-672,-433,0,0,0,0,0,0,0,0,0,-1,552,1457,0,0
-665,-433,0,0,0,0,0,0,0,0,0,-1,559,1457,0,0
-658,-433,0,0,0,0,0,0,0,0,0,-1,566,1457,0,0
-651,-433,0,0,0,0,0,0,0,0,0,-1,573,1457,0,0
-644,-433,0,0,0,0,0,0,0,0,0,-1,580,1457,0,0
-637,-433,0,0,0,0,0,0,0,0,0,-1,587,1457,0,0
-630,-433,0,0,0,0,0,0,0,0,0,-1,594,1457,0,0
-623,-433,0,0,0,0,0,0,0,0,0,-1,601,1457,0,0
-616,-433,0,0,0,0,0,0,0,0,0,-1,608,1457,0,0
-609,-433,0,0,0,0,0,0,0,0,0,-1,615,1457,0,0
-602,-433,0,0,0,0,0,0,0,0,0,-1,622,1457,0,0
-595,-433,0,0,0,0,0,0,0,0,0,-1,629,1457,0,0
-588,-433,-10.3756,-0.467041,0,0,0,0,0,0,0,-1,636,1457,-10.3756,0.467081
-581,-433,-8.12201,0.884033,0,0,0,0,0,0,0,-1,643,1457,-8.12204,-0.884056
-574,-433,-5.86847,2.23523,0,0,0,0,0,0,0,-1,650,1457,-5.86844,-2.23519
-567,-433,-5.42255,1.16833,0,0,0,0,0,0,0,-1,657,1457,-5.42254,-1.1683
-560,-433,-6.84027,1.86414,0,0,0,0,0,0,0,-1,664,1457,-6.84026,-1.86412
-553,-433,-5.74017,1.79163,0,0,0,0,0,0,0,-1,671,1457,-5.74015,-1.79166
-546,-433,-6.90277,7.73633,0,0,0,0,0,0,0,-1,678,1457,-6.90276,-7.73637
-539,-433,-6.61823,7.48633,0,0,0,0,0,0,0,-1,685,1457,-6.61824,-7.48635
-532,-433,-7.02747,8.06384,-0.00246464,0.00146048,0.000894997,0.00165492,-0.00265908,1.35687,0.00251308,0.0467728,692,1457,-7.02748,-8.06388
-525,-433,-7.24615,8.52356,-0.000918458,0.00138652,0.00110465,0.00183043,-0.00136237,1.18869,0.00184995,0.0318048,699,1457,-7.24612,-8.52351
-518,-433,-7.28021,8.95398,0.000238505,0.00130482,0.00127541,0.00215402,-0.0006107,0.983373,0.00167706,0.0167446,706,1457,-7.28024,-8.95398
-511,-433,-7.30688,9.40527,0.00103192,0.00126647,0.00139218,0.0025463,-0.000247914,0.827417,0.00178592,0.0171377,713,1457,-7.3069,-9.4053
-504,-433,-7.31848,9.85498,0.00176283,0.00138721,0.00162712,0.00321295,-6.2908e-05,0.72794,0.00216324,0.0140995,720,1457,-7.31847,-9.85503
-497,-433,-7.32672,10.2592,0.00244327,0.00164494,0.00198408,0.00406794,2.02744e-05,0.68613,0.00270523,0.0138932,727,1457,-7.32674,-10.2591
-490,-433,-7.35382,10.6746,0.00303469,0.00207402,0.00237415,0.00497661,0.000132099,0.685586,0.00327459,0.0153553,734,1457,-7.35379,-10.6745
-483,-433,-7.36298,11.1426,0.00382156,0.00264756,0.00297238,0.00626434,0.000204776,0.68791,0.00410967,0.0160097,741,1457,-7.36296,-11.1426
-476,-433,-7.35431,11.592,0.00440959,0.00326948,0.00363365,0.00751763,0.000161436,0.707591,0.00495882,0.0104704,748,1457,-7.35432,-11.5921
-469,-433,-7.36658,12.0189,0.00503176,0.00341917,0.00425713,0.00855828,-0.000107353,0.691807,0.00574164,0.0101956,755,1457,-7.3666,-12.0189
-462,-433,-7.40186,12.4637,0.00585677,0.00409257,0.00503557,0.0100869,-0.000137573,0.698691,0.00677093,0.0122499,762,1457,-7.40183,-12.4638
-455,-433,-7.15033,13.1517,0.00680728,0.00479779,0.00619514,0.0120786,-0.000473556,0.705007,0.00821482,0.0466018,769,1457,-7.15036,-13.1518
-448,-433,-6.75903,13.8557,0,0,0,0,0,0,0,-1,776,1457,-6.75902,-13.8557
-441,-433,-8.24884,13.2478,0,0,0,0,0,0,0,-1,783,1457,-8.24883,-13.2478
-434,-433,-8.10785,12.1105,0,0,0,0,0,0,0,-1,790,1457,-8.10787,-12.1105
-427,-433,-7.8573,12.4749,0,0,0,0,0,0,0,-1,797,1457,-7.85731,-12.4748
-420,-433,-5.74658,9.49121,0,0,0,0,0,0,0,-1,804,1457,-5.7466,-9.49119
-413,-433,-3.63074,5.5813,0,0,0,0,0,0,0,-1,811,1457,-3.63072,-5.58129
-406,-433,-12.3472,4.69373,0,0,0,0,0,0,0,-1,818,1457,-12.3472,-4.69374
-399,-433,-12.055,2.83594,0,0,0,0,0,0,0,-1,825,1457,-12.055,-2.83594
-392,-433,-12.9772,1.6228,0,0,0,0,0,0,0,-1,832,1457,-12.9772,-1.62282
-385,-433,-13.7999,0.514771,0,0,0,0,0,0,0,-1,839,1457,-13.7999,-0.514788
-378,-433,0,0,0,0,0,0,0,0,0,-1,846,1457,0,0
-371,-433,0,0,0,0,0,0,0,0,0,-1,853,1457,0,0
-364,-433,0,0,0,0,0,0,0,0,0,-1,860,1457,0,0
-357,-433,0,0,0,0,0,0,0,0,0,-1,867,1457,0,0
-350,-433,0,0,0,0,0,0,0,0,0,-1,874,1457,0,0
-343,-433,0,0,0,0,0,0,0,0,0,-1,881,1457,0,0
-336,-433,0,0,0,0,0,0,0,0,0,-1,888,1457,0,0
-329,-433,0,0,0,0,0,0,0,0,0,-1,895,1457,0,0
-322,-433,0,0,0,0,0,0,0,0,0,-1,902,1457,0,0
-315,-433,0,0,0,0,0,0,0,0,0,-1,909,1457,0,0
-308,-433,0,0,0,0,0,0,0,0,0,-1,916,1457,0,0
-301,-433,0,0,0,0,0,0,0,0,0,-1,923,1457,0,0
-294,-433,0,0,0,0,0,0,0,0,0,-1,930,1457,0,0
-287,-433,0,0,0,0,0,0,0,0,0,-1,937,1457,0,0
-280,-433,0,0,0,0,0,0,0,0,0,-1,944,1457,0,0
-273,-433,0,0,0,0,0,0,0,0,0,-1,951,1457,0,0
-266,-433,0,0,0,0,0,0,0,0,0,-1,958,1457,0,0
-259,-433,0,0,0,0,0,0,0,0,0,-1,965,1457,0,0
-252,-433,0,0,0,0,0,0,0,0,0,-1,972,1457,0,0
-245,-433,0,0,0,0,0,0,0,0,0,-1,979,1457,0,0
-238,-433,0,0,0,0,0,0,0,0,0,-1,986,1457,0,0
-231,-433,0,0,0,0,0,0,0,0,0,-1,993,1457,0,0
-224,-433,0,0,0,0,0,0,0,0,0,-1,1000,1457,0,0
-217,-433,0,0,0,0,0,0,0,0,0,-1,1007,1457,0,0
-210,-433,0,0,0,0,0,0,0,0,0,-1,1014,1457,0,0
-203,-433,0,0,0,0,0,0,0,0,0,-1,1021,1457,0,0
-196,-433,0,0,0,0,0,0,0,0,0,-1,1028,1457,0,0
-189,-433,0,0,0,0,0,0,0,0,0,-1,1035,1457,0,0
-182,-433,0,0,0,0,0,0,0,0,0,-1,1042,1457,0,0
-175,-433,0,0,0,0,0,0,0,0,0,-1,1049,1457,0,0
-168,-433,0,0,0,0,0,0,0,0,0,-1,1056,1457,0,0
-161,-433,0,0,0,0,0,0,0,0,0,-1,1063,1457,0,0
-154,-433,0,0,0,0,0,0,0,0,0,-1,1070,1457,0,0
-147,-433,0,0,0,0,0,0,0,0,0,-1,1077,1457,0,0
-140,-433,0,0,0,0,0,0,0,0,0,-1,1084,1457,0,0
-133,-433,0,0,0,0,0,0,0,0,0,-1,1091,1457,0,0
-126,-433,0,0,0,0,0,0,0,0,0,-1,1098,1457,0,0
-119,-433,0,0,0,0,0,0,0,0,0,-1,1105,1457,0,0
-112,-433,0,0,0,0,0,0,0,0,0,-1,1112,1457,0,0
-105,-433,0,0,0,0,0,0,0,0,0,-1,1119,1457,0,0
-98,-433,0,0,0,0,0,0,0,0,0,-1,1126,1457,0,0
-91,-433,0,0,0,0,0,0,0,0,0,-1,1133,1457,0,0
-84,-433,0,0,0,0,0,0,0,0,0,-1,1140,1457,0,0
-77,-433,0,0,0,0,0,0,0,0,0,-1,1147,1457,0,0
-70,-433,0,0,0,0,0,0,0,0,0,-1,1154,1457,0,0
-63,-433,0,0,0,0,0,0,0,0,0,-1,1161,1457,0,0
-56,-433,0,0,0,0,0,0,0,0,0,-1,1168,1457,0,0
-49,-433,0,0,0,0,0,0,0,0,0,-1,1175,1457,0,0
-42,-433,0,0,0,0,0,0,0,0,0,-1,1182,1457,0,0
-35,-433,0,0,0,0,0,0,0,0,0,-1,1189,1457,0,0
-28,-433,0,0,0,0,0,0,0,0,0,-1,1196,1457,0,0
-21,-433,0,0,0,0,0,0,0,0,0,-1,1203,1457,0,0
-14,-433,0,0,0,0,0,0,0,0,0,-1,1210,1457,0,0
-7,-433,0,0,0,0,0,0,0,0,0,-1,1217,1457,0,0
0,-433,0,0,0,0,0,0,0,0,0,-1,1224,1457,0,0
7,-433,0,0,0,0,0,0,0,0,0,-1,1231,1457,0,0
14,-433,0,0,0,0,0,0,0,0,0,-1,1238,1457,0,0
21,-433,0,0,0,0,0,0,0,0,0,-1,1245,1457,0,0
28,-433,0,0,0,0,0,0,0,0,0,-1,1252,1457,0,0
35,-433,0,0,0,0,0,0,0,0,0,-1,1259,1457,0,0
42,-433,0,0,0,0,0,0,0,0,0,-1,1266,1457,0,0
49,-433,0,0,0,0,0,0,0,0,0,-1,1273,1457,0,0
56,-433,0,0,0,0,0,0,0,0,0,-1,1280,1457,0,0
63,-433,0,0,0,0,0,0,0,0,0,-1,1287,1457,0,0
70,-433,0,0,0,0,0,0,0,0,0,-1,1294,1457,0,0
77,-433,0,0,0,0,0,0,0,0,0,-1,1301,1457,0,0
84,-433,0,0,0,0,0,0,0,0,0,-1,1308,1457,0,0
91,-433,0,0,0,0,0,0,0,0,0,-1,1315,1457,0,0
98,-433,0,0,0,0,0,0,0,0,0,-1,1322,1457,0,0
105,-433,0,0,0,0,0,0,0,0,0,-1,1329,1457,0,0
112,-433,0,0,0,0,0,0,0,0,0,-1,1336,1457,0,0
119,-433,0,0,0,0,0,0,0,0,0,-1,1343,1457,0,0
126,-433,0,0,0,0,0,0,0,0,0,-1,1350,1457,0,0
133,-433,0,0,0,0,0,0,0,0,0,-1,1357,1457,0,0
140,-433,0,0,0,0,0,0,0,0,0,-1,1364,1457,0,0
147,-433,0,0,0,0,0,0,0,0,0,-1,1371,1457,0,0
154,-433,0,0,0,0,0,0,0,0,0,-1,1378,1457,0,0
161,-433,0,0,0,0,0,0,0,0,0,-1,1385,1457,0,0
168,-433,0,0,0,0,0,0,0,0,0,-1,1392,1457,0,0
175,-433,0,0,0,0,0,0,0,0,0,-1,1399,1457,0,0
182,-433,0,0,0,0,0,0,0,0,0,-1,1406,1457,0,0
189,-433,0,0,0,0,0,0,0,0,0,-1,1413,1457,0,0
196,-433,0,0,0,0,0,0,0,0,0,-1,1420,1457,0,0
203,-433,0,0,0,0,0,0,0,0,0,-1,1427,1457,0,0
210,-433,0,0,0,0,0,0,0,0,0,-1,1434,1457,0,0
217,-433,0,0,0,0,0,0,0,0,0,-1,1441,1457,0,0
224,-433,0,0,0,0,0,0,0,0,0,-1,1448,1457,0,0
231,-433,0,0,0,0,0,0,0,0,0,-1,1455,1457,0,0
238,-433,0,0,0,0,0,0,0,0,0,-1,1462,1457,0,0
245,-433,0,0,0,0,0,0,0,0,0,-1,1469,1457,0,0
252,-433,0,0,0,0,0,0,0,0,0,-1,1476,1457,0,0
259,-433,0,0,0,0,0,0,0,0,0,-1,1483,1457,0,0
266,-433,0,0,0,0,0,0,0,0,0,-1,1490,1457,0,0
273,-433,0,0,0,0,0,0,0,0,0,-1,1497,1457,0,0
280,-433,0,0,0,0,0,0,0,0,0,-1,1504,1457,0,0
287,-433,0,0,0,0,0,0,0,0,0,-1,1511,1457,0,0
294,-433,0,0,0,0,0,0,0,0,0,-1,1518,1457,0,0
301,-433,0,0,0,0,0,0,0,0,0,-1,1525,1457,0,0
308,-433,0,0,0,0,0,0,0,0,0,-1,1532,1457,0,0
315,-433,0,0,0,0,0,0,0,0,0,-1,1539,1457,0,0
322,-433,0,0,0,0,0,0,0,0,0,-1,1546,1457,0,0
329,-433,0,0,0,0,0,0,0,0,0,-1,1553,1457,0,0
336,-433,0,0,0,0,0,0,0,0,0,-1,1560,1457,0,0
343,-433,0,0,0,0,0,0,0,0,0,-1,1567,1457,0,0
350,-433,0,0,0,0,0,0,0,0,0,-1,1574,1457,0,0
357,-433,0,0,0,0,0,0,0,0,0,-1,1581,1457,0,0
364,-433,0,0,0,0,0,0,0,0,0,-1,1588,1457,0,0
371,-433,0,0,0,0,0,0,0,0,0,-1,1595,1457,0,0
378,-433,0,0,0,0,0,0,0,0,0,-1,1602,1457,0,0
385,-433,0,0,0,0,0,0,0,0,0,-1,1609,1457,0,0
392,-433,0,0,0,0,0,0,0,0,0,-1,1616,1457,0,0
399,-433,0,0,0,0,0,0,0,0,0,-1,1623,1457,0,0
406,-433,0,0,0,0,0,0,0,0,0,-1,1630,1457,0,0
413,-433,0,0,0,0,0,0,0,0,0,-1,1637,1457,0,0
420,-433,0,0,0,0,0,0,0,0,0,-1,1644,1457,0,0
427,-433,0,0,0,0,0,0,0,0,0,-1,1651,1457,0,0
434,-433,0,0,0,0,0,0,0,0,0,-1,1658,1457,0,0
441,-433,0,0,0,0,0,0,0,0,0,-1,1665,1457,0,0
448,-433,0,0,0,0,0,0,0,0,0,-1,1672,1457,0,0
455,-433,0,0,0,0,0,0,0,0,0,-1,1679,1457,0,0
462,-433,0,0,0,0,0,0,0,0,0,-1,1686,1457,0,0
469,-433,0,0,0,0,0,0,0,0,0,-1,1693,1457,0,0
476,-433,0,0,0,0,0,0,0,0,0,-1,1700,1457,0,0
483,-433,0,0,0,0,0,0,0,0,0,-1,1707,1457,0,0
490,-433,0,0,0,0,0,0,0,0,0,-1,1714,1457,0,0
497,-433,0,0,0,0,0,0,0,0,0,-1,1721,1457,0,0
504,-433,19.9058,3.03662,0,0,0,0,0,0,0,-1,1728,1457,19.9058,-3.03656
511,-433,19.0145,3.07837,0,0,0,0,0,0,0,-1,1735,1457,19.0146,-3.07834
518,-433,18.071,3.06433,0,0,0,0,0,0,0,-1,1742,1457,18.071,-3.06432
525,-433,17.2048,3.37085,0,0,0,0,0,0,0,-1,1749,1457,17.2049,-3.37083
532,-433,16.5637,3.36646,0,0,0,0,0,0,0,-1,1756,1457,16.5637,-3.36643
539,-433,15.9193,3.30396,0,0,0,0,0,0,0,-1,1763,1457,15.9193,-3.30394
546,-433,23.1903,4.81775,0,0,0,0,0,0,0,-1,1770,1457,23.1903,-4.81775
553,-433,13.9674,11.5781,0,0,0,0,0,0,0,-1,1777,1457,13.9674,-11.5781
560,-433,13.9855,11.7341,0,0,0,0,0,0,0,-1,1784,1457,13.9855,-11.7341
567,-433,13.9264,11.3364,0,0,0,0,0,0,0,-1,1791,1457,13.9263,-11.3364
574,-433,15.5305,12.3673,0,0,0,0,0,0,0,-1,1798,1457,15.5305,-12.3673
581,-433,16.6405,12.1898,0,0,0,0,0,0,0,-1,1805,1457,16.6405,-12.1898
588,-433,20.071,14.7334,0,0,0,0,0,0,0,-1,1812,1457,20.071,-14.7333
595,-433,20.0143,14.1136,0.00150953,0.0037437,-0.00214605,0.00504599,0.000207237,-1.02537,0.00329709,0.0346269,1819,1457,20.0143,-14.1137
602,-433,20.0126,13.6648,0.00135618,0.00301391,-0.00181768,0.00418278,0.000187299,-0.999315,0.00272823,0.0224183,1826,1457,20.0126,-13.6648
609,-433,20.0206,13.2255,0.00135026,0.00223996,-0.001423,0.00328602,0.000304199,-0.936892,0.00209665,0.0164661,1833,1457,20.0206,-13.2255
616,-433,20.0178,12.8367,0.00130765,0.00142392,-0.00101885,0.00238629,0.000345284,-0.813896,0.00148917,0.0141658,1840,1457,20.0178,-12.8366
623,-433,20.0088,12.4203,0.00128525,0.000734105,-0.000657845,0.00172291,0.000296446,-0.587051,0.00106365,0.0109191,1847,1457,20.0088,-12.4203
630,-433,20.0149,12.0184,0.00131058,0.00012271,-0.000366236,0.00141442,1.88719e-05,-0.276278,0.000936718,0.0138695,1854,1457,20.0149,-12.0185
637,-433,19.9958,11.631,0.00130167,-0.000376064,-9.79771e-05,0.00130737,-0.000381767,-0.0581351,0.00102287,0.0144068,1861,1457,19.9958,-11.631
644,-433,19.96,11.2513,0.00133636,-0.000701476,8.82024e-05,0.00134017,-0.000705287,0.0431747,0.00119976,0.0148348,1868,1457,19.96,-11.2514
651,-433,19.9614,10.829,0.00134807,-0.000868923,0.000189458,0.00136414,-0.000884997,0.0846394,0.00130833,0.0111665,1875,1457,19.9614,-10.8289
658,-433,19.9371,10.3774,0.00127364,-0.000832078,0.000263904,0.00130621,-0.000864648,0.122798,0.00126196,0.020148,1882,1457,19.9371,-10.3774
665,-433,20.1124,9.84363,0,0,0,0,0,0,0,-1,1889,1457,20.1124,-9.84368
672,-433,18.115,8.7207,0,0,0,0,0,0,0,-1,1896,1457,18.115,-8.72074
679,-433,17.2969,9.6355,0,0,0,0,0,0,0,-1,1903,1457,17.2968,-9.63548
686,-433,13.6356,8.61694,0,0,0,0,0,0,0,-1,1910,1457,13.6356,-8.61694
693,-433,13.4081,8.39624,0,0,0,0,0,0,0,-1,1917,1457,13.4081,-8.39624
700,-433,7.16809,-1.5166,0,0,0,0,0,0,0,-1,1924,1457,7.16806,1.51656
707,-433,8.68359,-2.82202,0,0,0,0,0,0,0,-1,1931,1457,8.68359,2.82197
714,-433,0,0,0,0,0,0,0,0,0,-1,1938,1457,0,0
721,-433,0,0,0,0,0,0,0,0,0,-1,1945,1457,0,0
728,-433,0,0,0,0,0,0,0,0,0,-1,1952,1457,0,0
735,-433,0,0,0,0,0,0,0,0,0,-1,1959,1457,0,0
742,-433,0,0,0,0,0,0,0,0,0,-1,1966,1457,0,0
749,-433,0,0,0,0,0,0,0,0,0,-1,1973,1457,0,0
756,-433,0,0,0,0,0,0,0,0,0,-1,1980,1457,0,0
763,-433,0,0,0,0,0,0,0,0,0,-1,1987,1457,0,0
770,-433,0,0,0,0,0,0,0,0,0,-1,1994,1457,0,0
777,-433,0,0,0,0,0,0,0,0,0,-1,2001,1457,0,0
784,-433,0,0,0,0,0,0,0,0,0,-1,2008,1457,0,0
791,-433,0,0,0,0,0,0,0,0,0,-1,2015,1457,0,0
798,-433,0,0,0,0,0,0,0,0,0,-1,2022,1457,0,0
805,-433,0,0,0,0,0,0,0,0,0,-1,2029,1457,0,0
812,-433,0,0,0,0,0,0,0,0,0,-1,2036,1457,0,0
-700,-440,0,0,0,0,0,0,0,0,0,-1,524,1464,0,0
-693,-440,0,0,0,0,0,0,0,0,0,-1,531,1464,0,0
-686,-440,0,0,0,0,0,0,0,0,0,-1,538,1464,0,0
-679,-440,0,0,0,0,0,0,0,0,0,-1,545,1464,0,0
-672,-440,0,0,0,0,0,0,0,0,0,-1,552,1464,0,0
-665,-440,0,0,0,0,0,0,0,0,0,-1,559,1464,0,0
-658,-440,0,0,0,0,0,0,0,0,0,-1,566,1464,0,0
-651,-440,0,0,0,0,0,0,0,0,0,-1,573,1464,0,0
-644,-440,0,0,0,0,0,0,0,0,0,-1,580,1464,0,0
-637,-440,0,0,0,0,0,0,0,0,0,-1,587,1464,0,0
-630,-440,0,0,0,0,0,0,0,0,0,-1,594,1464,0,0
-623,-440,0,0,0,0,0,0,0,0,0,-1,601,1464,0,0
-616,-440,0,0,0,0,0,0,0,0,0,-1,608,1464,0,0
-609,-440,0,0,0,0,0,0,0,0,0,-1,615,1464,0,0
-602,-440,0,0,0,0,0,0,0,0,0,-1,622,1464,0,0
-595,-440,0,0,0,0,0,0,0,0,0,-1,629,1464,0,0
-588,-440,0,0,0,0,0,0,0,0,0,-1,636,1464,0,0
-581,-440,-8.97278,0.254517,0,0,0,0,0,0,0,-1,643,1464,-8.97276,-0.254526
-574,-440,-7.00818,-0.918579,0,0,0,0,0,0,0,-1,650,1464,-7.00817,0.918538
-567,-440,-6.12152,-0.0766602,0,0,0,0,0,0,0,-1,657,1464,-6.12151,0.0767097
-560,-440,-5.46747,0.82251,0,0,0,0,0,0,0,-1,664,1464,-5.46748,-0.822551
-553,-440,-6.84729,0.0831299,0,0,0,0,0,0,0,-1,671,1464,-6.84732,-0.083136
-546,-440,-5.63446,-0.153198,0,0,0,0,0,0,0,-1,678,1464,-5.63447,0.153147
-539,-440,-6.69006,7.25293,0,0,0,0,0,0,0,-1,685,1464,-6.69007,-7.25294
-532,-440,-6.76434,7.88782,0,0,0,0,0,0,0,-1,692,1464,-6.76434,-7.8878
-525,-440,-6.87811,8.54956,0.000746864,0.00224287,0.00236199,0.00397246,-0.000982734,0.938744,0.00302949,0.0357078,699,1464,-6.8781,-8.54954
-518,-440,-6.87823,8.90332,0.00154293,0.00195923,0.00218996,0.00395091,-0.000448752,0.83278,0.00279556,0.0189746,706,1464,-6.87821,-8.90337
-511,-440,-6.87006,9.40881,0.0019327,0.00170004,0.00197549,0.00379528,-0.000162544,0.755988,0.00258607,0.0167432,713,1464,-6.87003,-9.40881
-504,-440,-6.90662,9.87659,0.00225338,0.00159929,0.00190399,0.00385821,-5.53916e-06,0.700345,0.00257399,0.0193583,720,1464,-6.90662,-9.87658
-497,-440,-6.90424,10.2816,0.00259485,0.00167106,0.00200966,0.00419501,7.09011e-05,0.672442,0.00277334,0.0220982,727,1464,-6.90421,-10.2816
-490,-440,-6.89624,10.6205,0.00289647,0.00193828,0.00219356,0.00466264,0.000172106,0.677882,0.00305268,0.0228072,734,1464,-6.89622,-10.6204
-483,-440,-6.92249,11.088,0.00343461,0.00235534,0.00260221,0.00555255,0.000237404,0.683159,0.00362515,0.0200287,741,1464,-6.92249,-11.088
-476,-440,-6.9212,11.5712,0.00383023,0.0028212,0.0030984,0.00646492,0.000186502,0.704691,0.00424914,0.0130693,748,1464,-6.92119,-11.5712
-469,-440,-6.93958,12.0215,0.00421042,0.00288568,0.00352823,0.00713792,-4.18185e-05,0.692611,0.00477262,0.0121738,755,1464,-6.93957,-12.0215
-462,-440,-6.98907,12.4622,0.00478995,0.00332428,0.00415163,0.00827292,-0.000158696,0.698039,0.00556893,0.0151343,762,1464,-6.98905,-12.4621
-455,-440,-6.8584,12.9944,0.00551821,0.00378265,0.00505709,0.00978144,-0.000480579,0.700427,0.00668691,0.0288322,769,1464,-6.85841,-12.9943
-448,-440,-6.45734,13.6163,0,0,0,0,0,0,0,-1,776,1464,-6.45735,-13.6163
-441,-440,-7.4917,13.4994,0,0,0,0,0,0,0,-1,783,1464,-7.4917,-13.4994
-434,-440,-8.245,13.818,0,0,0,0,0,0,0,-1,790,1464,-8.24497,-13.818
-427,-440,-8.05737,13.4551,0,0,0,0,0,0,0,-1,797,1464,-8.05736,-13.455
-420,-440,-6.86603,8.09216,0,0,0,0,0,0,0,-1,804,1464,-6.86602,-8.09222
-413,-440,-3.46796,5.72278,0,0,0,0,0,0,0,-1,811,1464,-3.46797,-5.72276
-406,-440,-5.2887,5.20264,0,0,0,0,0,0,0,-1,818,1464,-5.2887,-5.20261
-399,-440,-12.7318,3.94421,0,0,0,0,0,0,0,-1,825,1464,-12.7318,-3.94419
-392,-440,-13.5565,2.51855,0,0,0,0,0,0,0,-1,832,1464,-13.5565,-2.51861
-385,-440,-14.6741,1.39795,0,0,0,0,0,0,0,-1,839,1464,-14.6741,-1.39801
-378,-440,-15.8063,0.293457,0,0,0,0,0,0,0,-1,846,1464,-15.8063,-0.293412
-371,-440,0,0,0,0,0,0,0,0,0,-1,853,1464,0,0
-364,-440,0,0,0,0,0,0,0,0,0,-1,860,1464,0,0
-357,-440,0,0,0,0,0,0,0,0,0,-1,867,1464,0,0
-350,-440,0,0,0,0,0,0,0,0,0,-1,874,1464,0,0
-343,-440,0,0,0,0,0,0,0,0,0,-1,881,1464,0,0
-336,-440,0,0,0,0,0,0,0,0,0,-1,888,1464,0,0
-329,-440,0,0,0,0,0,0,0,0,0,-1,895,1464,0,0
-322,-440,0,0,0,0,0,0,0,0,0,-1,902,1464,0,0
-315,-440,0,0,0,0,0,0,0,0,0,-1,909,1464,0,0
-308,-440,0,0,0,0,0,0,0,0,0,-1,916,1464,0,0
-301,-440,0,0,0,0,0,0,0,0,0,-1,923,1464,0,0
-294,-440,0,0,0,0,0,0,0,0,0,-1,930,1464,0,0
-287,-440,0,0,0,0,0,0,0,0,0,-1,937,1464,0,0
-280,-440,0,0,0,0,0,0,0,0,0,-1,944,1464,0,0
-273,-440,0,0,0,0,0,0,0,0,0,-1,951,1464,0,0
-266,-440,0,0,0,0,0,0,0,0,0,-1,958,1464,0,0
-259,-440,0,0,0,0,0,0,0,0,0,-1,965,1464,0,0
-252,-440,0,0,0,0,0,0,0,0,0,-1,972,1464,0,0
-245,-440,0,0,0,0,0,0,0,0,0,-1,979,1464,0,0
-238,-440,0,0,0,0,0,0,0,0,0,-1,986,1464,0,0
-231,-440,0,0,0,0,0,0,0,0,0,-1,993,1464,0,0
-224,-440,0,0,0,0,0,0,0,0,0,-1,1000,1464,0,0
-217,-440,0,0,0,0,0,0,0,0,0,-1,1007,1464,0,0
-210,-440,0,0,0,0,0,0,0,0,0,-1,1014,1464,0,0
-203,-440,0,0,0,0,0,0,0,0,0,-1,1021,1464,0,0
-196,-440,0,0,0,0,0,0,0,0,0,-1,1028,1464,0,0
-189,-440,0,0,0,0,0,0,0,0,0,-1,1035,1464,0,0
-182,-440,0,0,0,0,0,0,0,0,0,-1,1042,1464,0,0
-175,-440,0,0,0,0,0,0,0,0,0,-1,1049,1464,0,0
-168,-440,0,0,0,0,0,0,0,0,0,-1,1056,1464,0,0
-161,-440,0,0,0,0,0,0,0,0,0,-1,1063,1464,0,0
-154,-440,0,0,0,0,0,0,0,0,0,-1,1070,1464,0,0
-147,-440,0,0,0,0,0,0,0,0,0,-1,1077,1464,0,0
-140,-440,0,0,0,0,0,0,0,0,0,-1,1084,1464,0,0
-133,-440,0,0,0,0,0,0,0,0,0,-1,1091,1464,0,0
-126,-440,0,0,0,0,0,0,0,0,0,-1,1098,1464,0,0
-119,-440,0,0,0,0,0,0,0,0,0,-1,1105,1464,0,0
-112,-440,0,0,0,0,0,0,0,0,0,-1,1112,1464,0,0
-105,-440,0,0,0,0,0,0,0,0,0,-1,1119,1464,0,0
-98,-440,0,0,0,0,0,0,0,0,0,-1,1126,1464,0,0
-91,-440,0,0,0,0,0,0,0,0,0,-1,1133,1464,0,0
-84,-440,0,0,0,0,0,0,0,0,0,-1,1140,1464,0,0
-77,-440,0,0,0,0,0,0,0,0,0,-1,1147,1464,0,0
-70,-440,0,0,0,0,0,0,0,0,0,-1,1154,1464,0,0
-63,-440,0,0,0,0,0,0,0,0,0,-1,1161,1464,0,0
-56,-440,0,0,0,0,0,0,0,0,0,-1,1168,1464,0,0
-49,-440,0,0,0,0,0,0,0,0,0,-1,1175,1464,0,0
-42,-440,0,0,0,0,0,0,0,0,0,-1,1182,1464,0,0
-35,-440,0,0,0,0,0,0,0,0,0,-1,1189,1464,0,0
-28,-440,0,0,0,0,0,0,0,0,0,-1,1196,1464,0,0
-21,-440,0,0,0,0,0,0,0,0,0,-1,1203,1464,0,0
-14,-440,0,0,0,0,0,0,0,0,0,-1,1210,1464,0,0
-7,-440,0,0,0,0,0,0,0,0,0,-1,1217,1464,0,0
0,-440,0,0,0,0,0,0,0,0,0,-1,1224,1464,0,0
7,-440,0,0,0,0,0,0,0,0,0,-1,1231,1464,0,0
14,-440,0,0,0,0,0,0,0,0,0,-1,1238,1464,0,0
21,-440,0,0,0,0,0,0,0,0,0,-1,1245,1464,0,0
28,-440,0,0,0,0,0,0,0,0,0,-1,1252,1464,0,0
35,-440,0,0,0,0,0,0,0,0,0,-1,1259,1464,0,0
42,-440,0,0,0,0,0,0,0,0,0,-1,1266,1464,0,0
49,-440,0,0,0,0,0,0,0,0,0,-1,1273,1464,0,0
56,-440,0,0,0,0,0,0,0,0,0,-1,1280,1464,0,0
63,-440,0,0,0,0,0,0,0,0,0,-1,1287,1464,0,0
70,-440,0,0,0,0,0,0,0,0,0,-1,1294,1464,0,0
77,-440,0,0,0,0,0,0,0,0,0,-1,1301,1464,0,0
84,-440,0,0,0,0,0,0,0,0,0,-1,1308,1464,0,0
91,-440,0,0,0,0,0,0,0,0,0,-1,1315,1464,0,0
98,-440,0,0,0,0,0,0,0,0,0,-1,1322,1464,0,0
105,-440,0,0,0,0,0,0,0,0,0,-1,1329,1464,0,0
112,-440,0,0,0,0,0,0,0,0,0,-1,1336,1464,0,0
119,-440,0,0,0,0,0,0,0,0,0,-1,1343,1464,0,0
126,-440,0,0,0,0,0,0,0,0,0,-1,1350,1464,0,0
133,-440,0,0,0,0,0,0,0,0,0,-1,1357,1464,0,0
140,-440,0,0,0,0,0,0,0,0,0,-1,1364,1464,0,0
147,-440,0,0,0,0,0,0,0,0,0,-1,1371,1464,0,0
154,-440,0,0,0,0,0,0,0,0,0,-1,1378,1464,0,0
161,-440,0,0,0,0,0,0,0,0,0,-1,1385,1464,0,0
168,-440,0,0,0,0,0,0,0,0,0,-1,1392,1464,0,0
175,-440,0,0,0,0,0,0,0,0,0,-1,1399,1464,0,0
182,-440,0,0,0,0,0,0,0,0,0,-1,1406,1464,0,0
189,-440,0,0,0,0,0,0,0,0,0,-1,1413,1464,0,0
196,-440,0,0,0,0,0,0,0,0,0,-1,1420,1464,0,0
203,-440,0,0,0,0,0,0,0,0,0,-1,1427,1464,0,0
210,-440,0,0,0,0,0,0,0,0,0,-1,1434,1464,0,0
217,-440,0,0,0,0,0,0,0,0,0,-1,1441,1464,0,0
224,-440,0,0,0,0,0,0,0,0,0,-1,1448,1464,0,0
231,-440,0,0,0,0,0,0,0,0,0,-1,1455,1464,0,0
238,-440,0,0,0,0,0,0,0,0,0,-1,1462,1464,0,0
245,-440,0,0,0,0,0,0,0,0,0,-1,1469,1464,0,0
252,-440,0,0,0,0,0,0,0,0,0,-1,1476,1464,0,0
259,-440,0,0,0,0,0,0,0,0,0,-1,1483,1464,0,0
266,-440,0,0,0,0,0,0,0,0,0,-1,1490,1464,0,0
273,-440,0,0,0,0,0,0,0,0,0,-1,1497,1464,0,0
280,-440,0,0,0,0,0,0,0,0,0,-1,1504,1464,0,0
287,-440,0,0,0,0,0,0,0,0,0,-1,1511,1464,0,0
294,-440,0,0,0,0,0,0,0,0,0,-1,1518,1464,0,0
301,-440,0,0,0,0,0,0,0,0,0,-1,1525,1464,0,0
308,-440,0,0,0,0,0,0,0,0,0,-1,1532,1464,0,0
315,-440,0,0,0,0,0,0,0,0,0,-1,1539,1464,0,0
322,-440,0,0,0,0,0,0,0,0,0,-1,1546,1464,0,0
329,-440,0,0,0,0,0,0,0,0,0,-1,1553,1464,0,0
336,-440,0,0,0,0,0,0,0,0,0,-1,1560,1464,0,0
343,-440,0,0,0,0,0,0,0,0,0,-1,1567,1464,0,0
350,-440,0,0,0,0,0,0,0,0,0,-1,1574,1464,0,0
357,-440,0,0,0,0,0,0,0,0,0,-1,1581,1464,0,0
364,-440,0,0,0,0,0,0,0,0,0,-1,1588,1464,0,0
371,-440,0,0,0,0,0,0,0,0,0,-1,1595,1464,0,0
378,-440,0,0,0,0,0,0,0,0,0,-1,1602,1464,0,0
385,-440,0,0,0,0,0,0,0,0,0,-1,1609,1464,0,0
392,-440,0,0,0,0,0,0,0,0,0,-1,1616,1464,0,0
399,-440,0,0,0,0,0,0,0,0,0,-1,1623,1464,0,0
406,-440,0,0,0,0,0,0,0,0,0,-1,1630,1464,0,0
413,-440,0,0,0,0,0,0,0,0,0,-1,1637,1464,0,0
420,-440,0,0,0,0,0,0,0,0,0,-1,1644,1464,0,0
427,-440,0,0,0,0,0,0,0,0,0,-1,1651,1464,0,0
434,-440,0,0,0,0,0,0,0,0,0,-1,1658,1464,0,0
441,-440,0,0,0,0,0,0,0,0,0,-1,1665,1464,0,0
448,-440,0,0,0,0,0,0,0,0,0,-1,1672,1464,0,0
455,-440,0,0,0,0,0,0,0,0,0,-1,1679,1464,0,0
462,-440,0,0,0,0,0,0,0,0,0,-1,1686,1464,0,0
469,-440,0,0,0,0,0,0,0,0,0,-1,1693,1464,0,0
476,-440,0,0,0,0,0,0,0,0,0,-1,1700,1464,0,0
483,-440,0,0,0,0,0,0,0,0,0,-1,1707,1464,0,0
490,-440,0,0,0,0,0,0,0,0,0,-1,1714,1464,0,0
497,-440,16.965,-0.528442,0,0,0,0,0,0,0,-1,1721,1464,16.965,0.528492
504,-440,15.8052,0.670166,0,0,0,0,0,0,0,-1,1728,1464,15.8052,-0.670145
511,-440,17.5754,2.77832,0,0,0,0,0,0,0,-1,1735,1464,17.5754,-2.77826
518,-440,16.9017,3.07861,0,0,0,0,0,0,0,-1,1742,1464,16.9018,-3.07859
525,-440,18.4495,12.0867,0,0,0,0,0,0,0,-1,1749,1464,18.4495,-12.0867
532,-440,15.4319,3.64392,0,0,0,0,0,0,0,-1,1756,1464,15.4318,-3.64391
539,-440,14.8214,3.41321,0,0,0,0,0,0,0,-1,1763,1464,14.8214,-3.4132
546,-440,14.8651,10.7683,0,0,0,0,0,0,0,-1,1770,1464,14.8651,-10.7683
553,-440,15.1213,11.4121,0,0,0,0,0,0,0,-1,1777,1464,15.1213,-11.4121
560,-440,17.4325,12.5394,0,0,0,0,0,0,0,-1,1784,1464,17.4325,-12.5394
567,-440,16.9025,12.4249,0,0,0,0,0,0,0,-1,1791,1464,16.9025,-12.425
574,-440,19.2841,14.8679,0,0,0,0,0,0,0,-1,1798,1464,19.2841,-14.868
581,-440,19.5044,15.3074,0,0,0,0,0,0,0,-1,1805,1464,19.5044,-15.3073
588,-440,19.54,14.5653,0.00194409,0.00258004,-0.00160238,0.00389569,0.000628438,-0.883344,0.00241506,0.0452015,1812,1464,19.54,-14.5653
595,-440,19.5906,14.1068,0.00160414,0.00293814,-0.00175949,0.00415281,0.000389474,-0.966573,0.00264828,0.0207923,1819,1464,19.5906,-14.1068
602,-440,19.6331,13.649,0.00147367,0.00239562,-0.00155983,0.00356116,0.000308126,-0.929073,0.00227835,0.0182544,1826,1464,19.633,-13.649
609,-440,19.6099,13.2407,0.00147133,0.00172422,-0.0012209,0.0028252,0.00037035,-0.836996,0.00177296,0.0162834,1833,1464,19.6098,-13.2407
616,-440,19.5891,12.8398,0.00147364,0.000998524,-0.000874052,0.00214184,0.000330322,-0.652709,0.00133151,0.0173685,1840,1464,19.5891,-12.8398
623,-440,19.6149,12.4366,0.00149627,0.000344745,-0.000546149,0.00171409,0.00012692,-0.379505,0.00110286,0.0138474,1847,1464,19.6149,-12.4366
630,-440,19.5957,12.0083,0.00157101,-0.000268072,-0.000272053,0.00161041,-0.000307472,-0.143826,0.00118942,0.0120872,1854,1464,19.5957,-12.0083
637,-440,19.5973,11.6449,0.00161831,-0.000773597,-2.33005e-05,0.00161854,-0.000773824,-0.00974015,0.00140964,0.0165228,1861,1464,19.5973,-11.6449
644,-440,19.5947,11.2633,0.00170179,-0.00111174,0.00013846,0.00170858,-0.00111854,0.0490542,0.00164404,0.0147746,1868,1464,19.5947,-11.2634
651,-440,19.5996,10.823,0.00175652,-0.00131325,0.000230043,0.00177366,-0.00133039,0.0743846,0.00179821,0.0168213,1875,1464,19.5996,-10.8229
658,-440,19.4395,10.5133,0.00171535,-0.0012865,0.000294485,0.00174397,-0.00131512,0.0968706,0.00177194,0.03784,1882,1464,19.4394,-10.5133
665,-440,19.3452,10.0085,0,0,0,0,0,0,0,-1,1889,1464,19.3453,-10.0085
672,-440,18.9385,9.6394,0,0,0,0,0,0,0,-1,1896,1464,18.9384,-9.63939
679,-440,16.9508,10.2336,0,0,0,0,0,0,0,-1,1903,1464,16.9508,-10.2337
686,-440,15.2556,8.44177,0,0,0,0,0,0,0,-1,1910,1464,15.2556,-8.44177
693,-440,9.88635,2.89795,0,0,0,0,0,0,0,-1,1917,1464,9.88638,-2.89798
700,-440,7.07825,-2.62061,0,0,0,0,0,0,0,-1,1924,1464,7.07829,2.62057
707,-440,0,0,0,0,0,0,0,0,0,-1,1931,1464,0,0
714,-440,0,0,0,0,0,0,0,0,0,-1,1938,1464,0,0
721,-440,0,0,0,0,0,0,0,0,0,-1,1945,1464,0,0
728,-440,0,0,0,0,0,0,0,0,0,-1,1952,1464,0,0
735,-440,0,0,0,0,0,0,0,0,0,-1,1959,1464,0,0
742,-440,0,0,0,0,0,0,0,0,0,-1,1966,1464,0,0
749,-440,0,0,0,0,0,0,0,0,0,-1,1973,1464,0,0
756,-440,0,0,0,0,0,0,0,0,0,-1,1980,1464,0,0
763,-440,0,0,0,0,0,0,0,0,0,-1,1987,1464,0,0
770,-440,0,0,0,0,0,0,0,0,0,-1,1994,1464,0,0
777,-440,0,0,0,0,0,0,0,0,0,-1,2001,1464,0,0
784,-440,0,0,0,0,0,0,0,0,0,-1,2008,1464,0,0
791,-440,0,0,0,0,0,0,0,0,0,-1,2015,1464,0,0
798,-440,0,0,0,0,0,0,0,0,0,-1,2022,1464,0,0
805,-440,0,0,0,0,0,0,0,0,0,-1,2029,1464,0,0
812,-440,0,0,0,0,0,0,0,0,0,-1,2036,1464,0,0
-700,-447,0,0,0,0,0,0,0,0,0,-1,524,1471,0,0
-693,-447,0,0,0,0,0,0,0,0,0,-1,531,1471,0,0
-686,-447,0,0,0,0,0,0,0,0,0,-1,538,1471,0,0
-679,-447,0,0,0,0,0,0,0,0,0,-1,545,1471,0,0
-672,-447,0,0,0,0,0,0,0,0,0,-1,552,1471,0,0
-665,-447,0,0,0,0,0,0,0,0,0,-1,559,1471,0,0
-658,-447,0,0,0,0,0,0,0,0,0,-1,566,1471,0,0
-651,-447,0,0,0,0,0,0,0,0,0,-1,573,1471,0,0
-644,-447,0,0,0,0,0,0,0,0,0,-1,580,1471,0,0
-637,-447,0,0,0,0,0,0,0,0,0,-1,587,1471,0,0
-630,-447,0,0,0,0,0,0,0,0,0,-1,594,1471,0,0
-623,-447,0,0,0,0,0,0,0,0,0,-1,601,1471,0,0
-616,-447,0,0,0,0,0,0,0,0,0,-1,608,1471,0,0
-609,-447,0,0,0,0,0,0,0,0,0,-1,615,1471,0,0
-602,-447,0,0,0,0,0,0,0,0,0,-1,622,1471,0,0
-595,-447,0,0,0,0,0,0,0,0,0,-1,629,1471,0,0
-588,-447,0,0,0,0,0,0,0,0,0,-1,636,1471,0,0
-581,-447,-7.06482,-1.50476,0,0,0,0,0,0,0,-1,643,1471,-7.0648,1.50474
-574,-447,-6.88092,-0.00585938,0,0,0,0,0,0,0,-1,650,1471,-6.88095,0.00589852
-567,-447,-6.8205,-1.32178,0,0,0,0,0,0,0,-1,657,1471,-6.82047,1.32172
-560,-447,-8.85748,2.80774,0,0,0,0,0,0,0,-1,664,1471,-8.85748,-2.80775
-553,-447,-7.60486,3.26794,0,0,0,0,0,0,0,-1,671,1471,-7.60487,-3.26799
-546,-447,-3.94501,1.8656,0,0,0,0,0,0,0,-1,678,1471,-3.945,-1.86554
-539,-447,-5.35492,4.50024,0,0,0,0,0,0,0,-1,685,1471,-5.35492,-4.50018
-532,-447,-6.06799,8.33508,0,0,0,0,0,0,0,-1,692,1471,-6.068,-8.3351
-525,-447,-6.27185,8.78735,0.00343742,0.00359983,0.00432176,0.00784115,-0.0008039,0.794792,0.00551497,0.0443345,699,1471,-6.27186,-8.78732
-518,-447,-6.43884,8.89893,0.00354032,0.00293976,0.00359817,0.00685072,-0.000370637,0.743768,0.00469557,0.0396432,706,1471,-6.43884,-8.89891
-511,-447,-6.43964,9.38428,0.00328945,0.00232409,0.00290136,0.005748,-0.000134463,0.702971,0.0038776,0.0191115,713,1471,-6.43961,-9.38431
-504,-447,-6.45465,9.89038,0.00302703,0.00189393,0.00240486,0.00493118,-1.02154e-05,0.669715,0.00329086,0.0196706,720,1471,-6.45463,-9.89035
-497,-447,-6.48602,10.3262,0.00291425,0.00170351,0.00217007,0.00456181,5.59543e-05,0.649375,0.00302273,0.0252971,727,1471,-6.48602,-10.3261
-490,-447,-6.41589,10.6886,0.00287345,0.00175611,0.00209566,0.00448363,0.000145931,0.655136,0.00294165,0.0258329,734,1471,-6.4159,-10.6886
-483,-447,-6.48297,11.0992,0.00313113,0.00199389,0.00227675,0.00490919,0.000215827,0.663025,0.00320328,0.0232292,741,1471,-6.48298,-11.0993
-476,-447,-6.48376,11.5706,0.00334072,0.00231172,0.00259409,0.00547084,0.000181601,0.687501,0.00358823,0.0144164,748,1471,-6.48377,-11.5705
-469,-447,-6.49426,12.0382,0.00353787,0.0023205,0.00284532,0.00583889,1.94872e-05,0.680024,0.00388611,0.012454,755,1471,-6.49425,-12.0382
-462,-447,-6.52405,12.495,0.00396264,0.00258173,0.00333701,0.00667988,-0.0001355,0.683383,0.0044991,0.0130611,762,1471,-6.52404,-12.495
-455,-447,-6.55157,12.9191,0.00455499,0.00286838,0.00402559,0.00782466,-0.00040129,0.682148,0.00535522,0.0178317,769,1471,-6.55158,-12.919
-448,-447,-6.40808,13.496,0.00518448,0.00263443,0.00467735,0.00875748,-0.000938558,0.652333,0.00617499,0.0347619,776,1471,-6.40811,-13.496
-441,-447,-6.58777,14.0172,0.00522,0.00142801,0.00463851,0.00833505,-0.00168704,0.591385,0.00619608,0.0446937,783,1471,-6.58779,-14.0172
-434,-447,-6.53571,14.4377,0,0,0,0,0,0,0,-1,790,1471,-6.5357,-14.4377
-427,-447,-7.68536,13.0878,0,0,0,0,0,0,0,-1,797,1471,-7.68538,-13.0877
-420,-447,-8.34583,12.5817,0,0,0,0,0,0,0,-1,804,1471,-8.3458,-12.5816
-413,-447,-4.27393,6.59705,0,0,0,0,0,0,0,-1,811,1471,-4.27392,-6.59707
-406,-447,-1.04279,6.18591,0,0,0,0,0,0,0,-1,818,1471,-1.04276,-6.18586
-399,-447,0.0134888,0.687622,0,0,0,0,0,0,0,-1,825,1471,0.0134841,-0.68767
-392,-447,-14.0646,3.76147,0,0,0,0,0,0,0,-1,832,1471,-14.0646,-3.7615
-385,-447,-15.1695,2.61865,0,0,0,0,0,0,0,-1,839,1471,-15.1695,-2.61871
-378,-447,-15.9424,1.49316,0,0,0,0,0,0,0,-1,846,1471,-15.9424,-1.49313
-371,-447,-17.3655,0.73291,0,0,0,0,0,0,0,-1,853,1471,-17.3655,-0.732946
-364,-447,0,0,0,0,0,0,0,0,0,-1,860,1471,0,0
-357,-447,0,0,0,0,0,0,0,0,0,-1,867,1471,0,0
-350,-447,0,0,0,0,0,0,0,0,0,-1,874,1471,0,0
-343,-447,0,0,0,0,0,0,0,0,0,-1,881,1471,0,0
-336,-447,0,0,0,0,0,0,0,0,0,-1,888,1471,0,0
-329,-447,0,0,0,0,0,0,0,0,0,-1,895,1471,0,0
-322,-447,0,0,0,0,0,0,0,0,0,-1,902,1471,0,0
-315,-447,0,0,0,0,0,0,0,0,0,-1,909,1471,0,0
-308,-447,0,0,0,0,0,0,0,0,0,-1,916,1471,0,0
-301,-447,0,0,0,0,0,0,0,0,0,-1,923,1471,0,0
-294,-447,0,0,0,0,0,0,0,0,0,-1,930,1471,0,0
-287,-447,0,0,0,0,0,0,0,0,0,-1,937,1471,0,0
-280,-447,0,0,0,0,0,0,0,0,0,-1,944,1471,0,0
-273,-447,0,0,0,0,0,0,0,0,0,-1,951,1471,0,0
-266,-447,0,0,0,0,0,0,0,0,0,-1,958,1471,0,0
-259,-447,0,0,0,0,0,0,0,0,0,-1,965,1471,0,0
-252,-447,0,0,0,0,0,0,0,0,0,-1,972,1471,0,0
-245,-447,0,0,0,0,0,0,0,0,0,-1,979,1471,0,0
-238,-447,0,0,0,0,0,0,0,0,0,-1,986,1471,0,0
-231,-447,0,0,0,0,0,0,0,0,0,-1,993,1471,0,0
-224,-447,0,0,0,0,0,0,0,0,0,-1,1000,1471,0,0
-217,-447,0,0,0,0,0,0,0,0,0,-1,1007,1471,0,0
-210,-447,0,0,0,0,0,0,0,0,0,-1,1014,1471,0,0
-203,-447,0,0,0,0,0,0,0,0,0,-1,1021,1471,0,0
-196,-447,0,0,0,0,0,0,0,0,0,-1,1028,1471,0,0
-189,-447,0,0,0,0,0,0,0,0,0,-1,1035,1471,0,0
-182,-447,0,0,0,0,0,0,0,0,0,-1,1042,1471,0,0
-175,-447,0,0,0,0,0,0,0,0,0,-1,1049,1471,0,0
-168,-447,0,0,0,0,0,0,0,0,0,-1,1056,1471,0,0
-161,-447,0,0,0,0,0,0,0,0,0,-1,1063,1471,0,0
-154,-447,0,0,0,0,0,0,0,0,0,-1,1070,1471,0,0
-147,-447,0,0,0,0,0,0,0,0,0,-1,1077,1471,0,0
-140,-447,0,0,0,0,0,0,0,0,0,-1,1084,1471,0,0
-133,-447,0,0,0,0,0,0,0,0,0,-1,1091,1471,0,0
-126,-447,0,0,0,0,0,0,0,0,0,-1,1098,1471,0,0
-119,-447,0,0,0,0,0,0,0,0,0,-1,1105,1471,0,0
-112,-447,0,0,0,0,0,0,0,0,0,-1,1112,1471,0,0
-105,-447,0,0,0,0,0,0,0,0,0,-1,1119,1471,0,0
-98,-447,0,0,0,0,0,0,0,0,0,-1,1126,1471,0,0
-91,-447,0,0,0,0,0,0,0,0,0,-1,1133,1471,0,0
-84,-447,0,0,0,0,0,0,0,0,0,-1,1140,1471,0,0
-77,-447,0,0,0,0,0,0,0,0,0,-1,1147,1471,0,0
-70,-447,0,0,0,0,0,0,0,0,0,-1,1154,1471,0,0
-63,-447,0,0,0,0,0,0,0,0,0,-1,1161,1471,0,0
-56,-447,0,0,0,0,0,0,0,0,0,-1,1168,1471,0,0
-49,-447,0,0,0,0,0,0,0,0,0,-1,1175,1471,0,0
-42,-447,0,0,0,0,0,0,0,0,0,-1,1182,1471,0,0
-35,-447,0,0,0,0,0,0,0,0,0,-1,1189,1471,0,0
-28,-447,0,0,0,0,0,0,0,0,0,-1,1196,1471,0,0
-21,-447,0,0,0,0,0,0,0,0,0,-1,1203,1471,0,0
-14,-447,0,0,0,0,0,0,0,0,0,-1,1210,1471,0,0
-7,-447,0,0,0,0,0,0,0,0,0,-1,1217,1471,0,0
0,-447,0,0,0,0,0,0,0,0,0,-1,1224,1471,0,0
7,-447,0,0,0,0,0,0,0,0,0,-1,1231,1471,0,0
14,-447,0,0,0,0,0,0,0,0,0,-1,1238,1471,0,0
21,-447,0,0,0,0,0,0,0,0,0,-1,1245,1471,0,0
28,-447,0,0,0,0,0,0,0,0,0,-1,1252,1471,0,0
35,-447,0,0,0,0,0,0,0,0,0,-1,1259,1471,0,0
42,-447,0,0,0,0,0,0,0,0,0,-1,1266,1471,0,0
49,-447,0,0,0,0,0,0,0,0,0,-1,1273,1471,0,0
56,-447,0,0,0,0,0,0,0,0,0,-1,1280,1471,0,0
63,-447,0,0,0,0,0,0,0,0,0,-1,1287,1471,0,0
70,-447,0,0,0,0,0,0,0,0,0,-1,1294,1471,0,0
77,-447,0,0,0,0,0,0,0,0,0,-1,1301,1471,0,0
84,-447,0,0,0,0,0,0,0,0,0,-1,1308,1471,0,0
91,-447,0,0,0,0,0,0,0,0,0,-1,1315,1471,0,0
98,-447,0,0,0,0,0,0,0,0,0,-1,1322,1471,0,0
105,-447,0,0,0,0,0,0,0,0,0,-1,1329,1471,0,0
112,-447,0,0,0,0,0,0,0,0,0,-1,1336,1471,0,0
119,-447,0,0,0,0,0,0,0,0,0,-1,1343,1471,0,0
126,-447,0,0,0,0,0,0,0,0,0,-1,1350,1471,0,0
133,-447,0,0,0,0,0,0,0,0,0,-1,1357,1471,0,0
140,-447,0,0,0,0,0,0,0,0,0,-1,1364,1471,0,0
147,-447,0,0,0,0,0,0,0,0,0,-1,1371,1471,0,0
154,-447,0,0,0,0,0,0,0,0,0,-1,1378,1471,0,0
161,-447,0,0,0,0,0,0,0,0,0,-1,1385,1471,0,0
168,-447,0,0,0,0,0,0,0,0,0,-1,1392,1471,0,0
175,-447,0,0,0,0,0,0,0,0,0,-1,1399,1471,0,0
182,-447,0,0,0,0,0,0,0,0,0,-1,1406,1471,0,0
189,-447,0,0,0,0,0,0,0,0,0,-1,1413,1471,0,0
196,-447,0,0,0,0,0,0,0,0,0,-1,1420,1471,0,0
203,-447,0,0,0,0,0,0,0,0,0,-1,1427,1471,0,0
210,-447,0,0,0,0,0,0,0,0,0,-1,1434,1471,0,0
217,-447,0,0,0,0,0,0,0,0,0,-1,1441,1471,0,0
224,-447,0,0,0,0,0,0,0,0,0,-1,1448,1471,0,0
231,-447,0,0,0,0,0,0,0,0,0,-1,1455,1471,0,0
238,-447,0,0,0,0,0,0,0,0,0,-1,1462,1471,0,0
245,-447,0,0,0,0,0,0,0,0,0,-1,1469,1471,0,0
252,-447,0,0,0,0,0,0,0,0,0,-1,1476,1471,0,0
259,-447,0,0,0,0,0,0,0,0,0,-1,1483,1471,0,0
266,-447,0,0,0,0,0,0,0,0,0,-1,1490,1471,0,0
273,-447,0,0,0,0,0,0,0,0,0,-1,1497,1471,0,0
280,-447,0,0,0,0,0,0,0,0,0,-1,1504,1471,0,0
287,-447,0,0,0,0,0,0,0,0,0,-1,1511,1471,0,0
294,-447,0,0,0,0,0,0,0,0,0,-1,1518,1471,0,0
301,-447,0,0,0,0,0,0,0,0,0,-1,1525,1471,0,0
308,-447,0,0,0,0,0,0,0,0,0,-1,1532,1471,0,0
315,-447,0,0,0,0,0,0,0,0,0,-1,1539,1471,0,0
322,-447,0,0,0,0,0,0,0,0,0,-1,1546,1471,0,0
329,-447,0,0,0,0,0,0,0,0,0,-1,1553,1471,0,0
336,-447,0,0,0,0,0,0,0,0,0,-1,1560,1471,0,0
343,-447,0,0,0,0,0,0,0,0,0,-1,1567,1471,0,0
350,-447,0,0,0,0,0,0,0,0,0,-1,1574,1471,0,0
357,-447,0,0,0,0,0,0,0,0,0,-1,1581,1471,0,0
364,-447,0,0,0,0,0,0,0,0,0,-1,1588,1471,0,0
371,-447,0,0,0,0,0,0,0,0,0,-1,1595,1471,0,0
378,-447,0,0,0,0,0,0,0,0,0,-1,1602,1471,0,0
385,-447,0,0,0,0,0,0,0,0,0,-1,1609,1471,0,0
392,-447,0,0,0,0,0,0,0,0,0,-1,1616,1471,0,0
399,-447,0,0,0,0,0,0,0,0,0,-1,1623,1471,0,0
406,-447,0,0,0,0,0,0,0,0,0,-1,1630,1471,0,0
413,-447,0,0,0,0,0,0,0,0,0,-1,1637,1471,0,0
420,-447,0,0,0,0,0,0,0,0,0,-1,1644,1471,0,0
427,-447,0,0,0,0,0,0,0,0,0,-1,1651,1471,0,0
434,-447,0,0,0,0,0,0,0,0,0,-1,1658,1471,0,0
441,-447,0,0,0,0,0,0,0,0,0,-1,1665,1471,0,0
448,-447,0,0,0,0,0,0,0,0,0,-1,1672,1471,0,0
455,-447,0,0,0,0,0,0,0,0,0,-1,1679,1471,0,0
462,-447,0,0,0,0,0,0,0,0,0,-1,1686,1471,0,0
469,-447,0,0,0,0,0,0,0,0,0,-1,1693,1471,0,0
476,-447,0,0,0,0,0,0,0,0,0,-1,1700,1471,0,0
483,-447,0,0,0,0,0,0,0,0,0,-1,1707,1471,0,0
490,-447,18.2214,-0.810303,0,0,0,0,0,0,0,-1,1714,1471,18.2215,0.810307
497,-447,17.0237,0.352417,0,0,0,0,0,0,0,-1,1721,1471,17.0237,-0.352442
504,-447,15.8998,1.53479,0,0,0,0,0,0,0,-1,1728,1471,15.8997,-1.53478
511,-447,14.7201,2.76111,0,0,0,0,0,0,0,-1,1735,1471,14.7201,-2.76107
518,-447,17.7618,13.2864,0,0,0,0,0,0,0,-1,1742,1471,17.7619,-13.2863
525,-447,17.1191,11.9014,0,0,0,0,0,0,0,-1,1749,1471,17.1191,-11.9013
532,-447,16.3959,10.0455,0,0,0,0,0,0,0,-1,1756,1471,16.3959,-10.0456
539,-447,14.1699,10.0204,0,0,0,0,0,0,0,-1,1763,1471,14.1699,-10.0204
546,-447,16.3715,11.8046,0,0,0,0,0,0,0,-1,1770,1471,16.3714,-11.8046
553,-447,17.5106,13.4012,0,0,0,0,0,0,0,-1,1777,1471,17.5107,-13.4012
560,-447,17.0187,13.168,0,0,0,0,0,0,0,-1,1784,1471,17.0187,-13.168
567,-447,18.9286,15.1703,0,0,0,0,0,0,0,-1,1791,1471,18.9286,-15.1703
574,-447,19.0906,15.5182,0,0,0,0,0,0,0,-1,1798,1471,19.0905,-15.5182
581,-447,19.1696,15.052,0.00210727,0.000904273,-0.00064314,0.00238635,0.000625186,-0.409422,0.00142885,0.0295382,1805,1471,19.1696,-15.052
588,-447,19.2505,14.495,0.00189125,0.00178079,-0.00117597,0.00301329,0.000658749,-0.761931,0.00182925,0.0178122,1812,1471,19.2505,-14.495
595,-447,19.2385,14.0653,0.00167757,0.00226789,-0.00144302,0.00344563,0.000499828,-0.886278,0.00214993,0.0122523,1819,1471,19.2385,-14.0653
602,-447,19.2238,13.629,0.00158996,0.00184575,-0.00134844,0.00307234,0.000363364,-0.832681,0.00193849,0.0110324,1826,1471,19.2237,-13.629
609,-447,19.1969,13.2192,0.00161592,0.00124371,-0.00107184,0.00251769,0.000341937,-0.69944,0.00157689,0.0122906,1833,1471,19.1969,-13.2193
616,-447,19.189,12.8175,0.00168013,0.000575901,-0.000781566,0.00208493,0.000171107,-0.477886,0.00133657,0.014184,1840,1471,19.189,-12.8175
623,-447,19.2102,12.4493,0.00176609,-6.97139e-05,-0.000482469,0.00188516,-0.000188788,-0.241967,0.0013242,0.0168796,1847,1471,19.2103,-12.4493
630,-447,19.2025,12.0538,0.00190348,-0.000704381,-0.000214621,0.00192103,-0.000721926,-0.0815662,0.00157739,0.00996187,1854,1471,19.2025,-12.0538
637,-447,19.2091,11.6469,0.00202543,-0.00123363,2.39763e-05,0.00202561,-0.0012338,0.0073563,0.00190024,0.0104059,1861,1471,19.2091,-11.6469
644,-447,19.209,11.2478,0.00218196,-0.00160832,0.000164118,0.00218906,-0.00161541,0.0431919,0.00220482,0.0112276,1868,1471,19.2089,-11.2478
651,-447,19.2183,10.8446,0.00229592,-0.00188566,0.000257592,0.00231173,-0.00190147,0.0612928,0.00243633,0.0410031,1875,1471,19.2182,-10.8447
658,-447,19.3376,10.3684,0,0,0,0,0,0,0,-1,1882,1471,19.3376,-10.3684
665,-447,18.4946,9.79919,0,0,0,0,0,0,0,-1,1889,1471,18.4946,-9.79922
672,-447,18.9784,9.66077,0,0,0,0,0,0,0,-1,1896,1471,18.9784,-9.66081
679,-447,14.844,7.4248,0,0,0,0,0,0,0,-1,1903,1471,14.844,-7.42477
686,-447,9.81079,4.30859,0,0,0,0,0,0,0,-1,1910,1471,9.8108,-4.30864
693,-447,10.48,2.08643,0,0,0,0,0,0,0,-1,1917,1471,10.48,-2.08642
700,-447,0,0,0,0,0,0,0,0,0,-1,1924,1471,0,0
707,-447,0,0,0,0,0,0,0,0,0,-1,1931,1471,0,0
714,-447,0,0,0,0,0,0,0,0,0,-1,1938,1471,0,0
721,-447,0,0,0,0,0,0,0,0,0,-1,1945,1471,0,0
728,-447,0,0,0,0,0,0,0,0,0,-1,1952,1471,0,0
735,-447,0,0,0,0,0,0,0,0,0,-1,1959,1471,0,0
742,-447,0,0,0,0,0,0,0,0,0,-1,1966,1471,0,0
749,-447,0,0,0,0,0,0,0,0,0,-1,1973,1471,0,0
756,-447,0,0,0,0,0,0,0,0,0,-1,1980,1471,0,0
763,-447,0,0,0,0,0,0,0,0,0,-1,1987,1471,0,0
770,-447,0,0,0,0,0,0,0,0,0,-1,1994,1471,0,0
777,-447,0,0,0,0,0,0,0,0,0,-1,2001,1471,0,0
784,-447,0,0,0,0,0,0,0,0,0,-1,2008,1471,0,0
791,-447,0,0,0,0,0,0,0,0,0,-1,2015,1471,0,0
798,-447,0,0,0,0,0,0,0,0,0,-1,2022,1471,0,0
805,-447,0,0,0,0,0,0,0,0,0,-1,2029,1471,0,0
812,-447,0,0,0,0,0,0,0,0,0,-1,2036,1471,0,0
-700,-454,0,0,0,0,0,0,0,0,0,-1,524,1478,0,0
-693,-454,0,0,0,0,0,0,0,0,0,-1,531,1478,0,0
-686,-454,0,0,0,0,0,0,0,0,0,-1,538,1478,0,0
-679,-454,0,0,0,0,0,0,0,0,0,-1,545,1478,0,0
-672,-454,0,0,0,0,0,0,0,0,0,-1,552,1478,0,0
-665,-454,0,0,0,0,0,0,0,0,0,-1,559,1478,0,0
-658,-454,0,0,0,0,0,0,0,0,0,-1,566,1478,0,0
-651,-454,0,0,0,0,0,0,0,0,0,-1,573,1478,0,0
-644,-454,0,0,0,0,0,0,0,0,0,-1,580,1478,0,0
-637,-454,0,0,0,0,0,0,0,0,0,-1,587,1478,0,0
-630,-454,0,0,0,0,0,0,0,0,0,-1,594,1478,0,0
-623,-454,0,0,0,0,0,0,0,0,0,-1,601,1478,0,0
-616,-454,0,0,0,0,0,0,0,0,0,-1,608,1478,0,0
-609,-454,0,0,0,0,0,0,0,0,0,-1,615,1478,0,0
-602,-454,0,0,0,0,0,0,0,0,0,-1,622,1478,0,0
-595,-454,0,0,0,0,0,0,0,0,0,-1,629,1478,0,0
-588,-454,0,0,0,0,0,0,0,0,0,-1,636,1478,0,0
-581,-454,0,0,0,0,0,0,0,0,0,-1,643,1478,0,0
-574,-454,-8.4881,-0.465942,0,0,0,0,0,0,0,-1,650,1478,-8.4881,0.465885
-567,-454,-8.10046,0.922974,0,0,0,0,0,0,0,-1,657,1478,-8.10047,-0.923034
-560,-454,-10.656,3.51172,0,0,0,0,0,0,0,-1,664,1478,-10.656,-3.51176
-553,-454,-9.01129,3.95251,0,0,0,0,0,0,0,-1,671,1478,-9.0113,-3.95256
-546,-454,-9.61896,6.05237,0,0,0,0,0,0,0,-1,678,1478,-9.61897,-6.05239
-539,-454,-7.72589,4.96533,0,0,0,0,0,0,0,-1,685,1478,-7.72592,-4.96532
-532,-454,-7.19812,8.31677,0,0,0,0,0,0,0,-1,692,1478,-7.19809,-8.31672
-525,-454,-6.55676,8.89233,0.00740006,0.00561657,0.00710245,0.0136665,-0.000649899,0.722948,0.0093352,0.0491352,699,1478,-6.55679,-8.89228
-518,-454,-5.96552,9.32043,0.00638309,0.00438662,0.00552744,0.0110017,-0.000232002,0.696063,0.00741302,0.0477076,706,1478,-5.96553,-9.3204
-511,-454,-6.0647,9.34729,0.00520072,0.00328408,0.00415204,0.00850359,-1.87932e-05,0.671981,0.00567534,0.0323093,713,1478,-6.06468,-9.34728
-504,-454,-6.01361,9.8512,0.00414488,0.00242925,0.00309079,0.00649468,7.9442e-05,0.650036,0.00430355,0.016804,720,1478,-6.01359,-9.85124
-497,-454,-6.03082,10.3265,0.00343832,0.00190831,0.0024224,0.00521364,0.000132988,0.632452,0.00343229,0.0198844,727,1478,-6.03083,-10.3265
-490,-454,-6.034,10.7823,0.00295906,0.00169262,0.00203386,0.004456,0.000195687,0.634485,0.00290763,0.0185102,734,1478,-6.03403,-10.7824
-483,-454,-6.06488,11.1658,0.00285613,0.0017189,0.00195763,0.00432605,0.000248979,0.644057,0.00280473,0.0171088,741,1478,-6.06489,-11.1658
-476,-454,-6.0686,11.574,0.00283484,0.0018727,0.00209004,0.00449846,0.000209077,0.672283,0.00293177,0.0142534,748,1478,-6.0686,-11.574
-469,-454,-6.06628,12.0457,0.00284581,0.00181077,0.00219559,0.00458404,7.25312e-05,0.669657,0.00303214,0.0102752,755,1478,-6.0663,-12.0456
-462,-454,-6.0929,12.4937,0.00312232,0.0018889,0.00258223,0.00516046,-0.00014924,0.668179,0.00349112,0.0102386,762,1478,-6.09291,-12.4936
-455,-454,-6.11816,12.9177,0.00359699,0.00199902,0.00310926,0.00600828,-0.000412265,0.659635,0.00414977,0.0115493,769,1478,-6.11816,-12.9177
-448,-454,-6.09772,13.3802,0.00421158,0.00181392,0.00373102,0.00693164,-0.000906143,0.629951,0.00495086,0.0160245,776,1478,-6.0977,-13.3802
-441,-454,-5.87854,14.0192,0.00443253,0.000851829,0.00387832,0.0069138,-0.00162943,0.569156,0.00523752,0.0356475,783,1478,-5.87853,-14.0191
-434,-454,-5.90497,14.356,0,0,0,0,0,0,0,-1,790,1478,-5.90498,-14.3559
-427,-454,-5.82581,14.7017,0,0,0,0,0,0,0,-1,797,1478,-5.82578,-14.7016
-420,-454,-6.01678,14.1237,0,0,0,0,0,0,0,-1,804,1478,-6.01677,-14.1237
-413,-454,-5.4408,13.674,0,0,0,0,0,0,0,-1,811,1478,-5.44079,-13.6739
-406,-454,-2.38208,10.0308,0,0,0,0,0,0,0,-1,818,1478,-2.38209,-10.0308
-399,-454,-1.21033,6.95447,0,0,0,0,0,0,0,-1,825,1478,-1.21035,-6.95452
-392,-454,0.0967407,0.985474,0,0,0,0,0,0,0,-1,832,1478,0.0967364,-0.985529
-385,-454,2.38629,3.297,0,0,0,0,0,0,0,-1,839,1478,2.38629,-3.29702
-378,-454,-15.9756,2.83997,0,0,0,0,0,0,0,-1,846,1478,-15.9756,-2.83994
-371,-454,-17.2753,2.01453,0,0,0,0,0,0,0,-1,853,1478,-17.2753,-2.01455
-364,-454,1.08124,0.819458,0,0,0,0,0,0,0,-1,860,1478,1.08124,-0.819513
-357,-454,0,0,0,0,0,0,0,0,0,-1,867,1478,0,0
-350,-454,0,0,0,0,0,0,0,0,0,-1,874,1478,0,0
-343,-454,0,0,0,0,0,0,0,0,0,-1,881,1478,0,0
-336,-454,0,0,0,0,0,0,0,0,0,-1,888,1478,0,0
-329,-454,0,0,0,0,0,0,0,0,0,-1,895,1478,0,0
-322,-454,0,0,0,0,0,0,0,0,0,-1,902,1478,0,0
-315,-454,0,0,0,0,0,0,0,0,0,-1,909,1478,0,0
-308,-454,0,0,0,0,0,0,0,0,0,-1,916,1478,0,0
-301,-454,0,0,0,0,0,0,0,0,0,-1,923,1478,0,0
-294,-454,0,0,0,0,0,0,0,0,0,-1,930,1478,0,0
-287,-454,0,0,0,0,0,0,0,0,0,-1,937,1478,0,0
-280,-454,0,0,0,0,0,0,0,0,0,-1,944,1478,0,0
-273,-454,0,0,0,0,0,0,0,0,0,-1,951,1478,0,0
-266,-454,0,0,0,0,0,0,0,0,0,-1,958,1478,0,0
-259,-454,0,0,0,0,0,0,0,0,0,-1,965,1478,0,0
-252,-454,0,0,0,0,0,0,0,0,0,-1,972,1478,0,0
-245,-454,0,0,0,0,0,0,0,0,0,-1,979,1478,0,0
-238,-454,0,0,0,0,0,0,0,0,0,-1,986,1478,0,0
-231,-454,0,0,0,0,0,0,0,0,0,-1,993,1478,0,0
-224,-454,0,0,0,0,0,0,0,0,0,-1,1000,1478,0,0
-217,-454,0,0,0,0,0,0,0,0,0,-1,1007,1478,0,0
-210,-454,0,0,0,0,0,0,0,0,0,-1,1014,1478,0,0
-203,-454,0,0,0,0,0,0,0,0,0,-1,1021,1478,0,0
-196,-454,0,0,0,0,0,0,0,0,0,-1,1028,1478,0,0
-189,-454,0,0,0,0,0,0,0,0,0,-1,1035,1478,0,0
-182,-454,0,0,0,0,0,0,0,0,0,-1,1042,1478,0,0
-175,-454,0,0,0,0,0,0,0,0,0,-1,1049,1478,0,0
-168,-454,0,0,0,0,0,0,0,0,0,-1,1056,1478,0,0
-161,-454,0,0,0,0,0,0,0,0,0,-1,1063,1478,0,0
-154,-454,0,0,0,0,0,0,0,0,0,-1,1070,1478,0,0
-147,-454,0,0,0,0,0,0,0,0,0,-1,1077,1478,0,0
-140,-454,0,0,0,0,0,0,0,0,0,-1,1084,1478,0,0
-133,-454,0,0,0,0,0,0,0,0,0,-1,1091,1478,0,0
-126,-454,0,0,0,0,0,0,0,0,0,-1,1098,1478,0,0
-119,-454,0,0,0,0,0,0,0,0,0,-1,1105,1478,0,0
-112,-454,0,0,0,0,0,0,0,0,0,-1,1112,1478,0,0
-105,-454,0,0,0,0,0,0,0,0,0,-1,1119,1478,0,0
-98,-454,0,0,0,0,0,0,0,0,0,-1,1126,1478,0,0
-91,-454,0,0,0,0,0,0,0,0,0,-1,1133,1478,0,0
-84,-454,0,0,0,0,0,0,0,0,0,-1,1140,1478,0,0
-77,-454,0,0,0,0,0,0,0,0,0,-1,1147,1478,0,0
-70,-454,0,0,0,0,0,0,0,0,0,-1,1154,1478,0,0
-63,-454,0,0,0,0,0,0,0,0,0,-1,1161,1478,0,0
-56,-454,0,0,0,0,0,0,0,0,0,-1,1168,1478,0,0
-49,-454,0,0,0,0,0,0,0,0,0,-1,1175,1478,0,0
-42,-454,0,0,0,0,0,0,0,0,0,-1,1182,1478,0,0
-35,-454,0,0,0,0,0,0,0,0,0,-1,1189,1478,0,0
-28,-454,0,0,0,0,0,0,0,0,0,-1,1196,1478,0,0
-21,-454,0,0,0,0,0,0,0,0,0,-1,1203,1478,0,0
-14,-454,0,0,0,0,0,0,0,0,0,-1,1210,1478,0,0
-7,-454,0,0,0,0,0,0,0,0,0,-1,1217,1478,0,0
0,-454,0,0,0,0,0,0,0,0,0,-1,1224,1478,0,0
7,-454,0,0,0,0,0,0,0,0,0,-1,1231,1478,0,0
14,-454,0,0,0,0,0,0,0,0,0,-1,1238,1478,0,0
21,-454,0,0,0,0,0,0,0,0,0,-1,1245,1478,0,0
28,-454,0,0,0,0,0,0,0,0,0,-1,1252,1478,0,0
35,-454,0,0,0,0,0,0,0,0,0,-1,1259,1478,0,0
42,-454,0,0,0,0,0,0,0,0,0,-1,1266,1478,0,0
49,-454,0,0,0,0,0,0,0,0,0,-1,1273,1478,0,0
56,-454,0,0,0,0,0,0,0,0,0,-1,1280,1478,0,0
63,-454,0,0,0,0,0,0,0,0,0,-1,1287,1478,0,0
70,-454,0,0,0,0,0,0,0,0,0,-1,1294,1478,0,0
77,-454,0,0,0,0,0,0,0,0,0,-1,1301,1478,0,0
84,-454,0,0,0,0,0,0,0,0,0,-1,1308,1478,0,0
91,-454,0,0,0,0,0,0,0,0,0,-1,1315,1478,0,0
98,-454,0,0,0,0,0,0,0,0,0,-1,1322,1478,0,0
105,-454,0,0,0,0,0,0,0,0,0,-1,1329,1478,0,0
112,-454,0,0,0,0,0,0,0,0,0,-1,1336,1478,0,0
119,-454,0,0,0,0,0,0,0,0,0,-1,1343,1478,0,0
126,-454,0,0,0,0,0,0,0,0,0,-1,1350,1478,0,0
133,-454,0,0,0,0,0,0,0,0,0,-1,1357,1478,0,0
140,-454,0,0,0,0,0,0,0,0,0,-1,1364,1478,0,0
147,-454,0,0,0,0,0,0,0,0,0,-1,1371,1478,0,0
154,-454,0,0,0,0,0,0,0,0,0,-1,1378,1478,0,0
161,-454,0,0,0,0,0,0,0,0,0,-1,1385,1478,0,0
168,-454,0,0,0,0,0,0,0,0,0,-1,1392,1478,0,0
175,-454,0,0,0,0,0,0,0,0,0,-1,1399,1478,0,0
182,-454,0,0,0,0,0,0,0,0,0,-1,1406,1478,0,0
189,-454,0,0,0,0,0,0,0,0,0,-1,1413,1478,0,0
196,-454,0,0,0,0,0,0,0,0,0,-1,1420,1478,0,0
203,-454,0,0,0,0,0,0,0,0,0,-1,1427,1478,0,0
210,-454,0,0,0,0,0,0,0,0,0,-1,1434,1478,0,0
217,-454,0,0,0,0,0,0,0,0,0,-1,1441,1478,0,0
224,-454,0,0,0,0,0,0,0,0,0,-1,1448,1478,0,0
231,-454,0,0,0,0,0,0,0,0,0,-1,1455,1478,0,0
238,-454,0,0,0,0,0,0,0,0,0,-1,1462,1478,0,0
245,-454,0,0,0,0,0,0,0,0,0,-1,1469,1478,0,0
252,-454,0,0,0,0,0,0,0,0,0,-1,1476,1478,0,0
259,-454,0,0,0,0,0,0,0,0,0,-1,1483,1478,0,0
266,-454,0,0,0,0,0,0,0,0,0,-1,1490,1478,0,0
273,-454,0,0,0,0,0,0,0,0,0,-1,1497,1478,0,0
280,-454,0,0,0,0,0,0,0,0,0,-1,1504,1478,0,0
287,-454,0,0,0,0,0,0,0,0,0,-1,1511,1478,0,0
294,-454,0,0,0,0,0,0,0,0,0,-1,1518,1478,0,0
301,-454,0,0,0,0,0,0,0,0,0,-1,1525,1478,0,0
308,-454,0,0,0,0,0,0,0,0,0,-1,1532,1478,0,0
315,-454,0,0,0,0,0,0,0,0,0,-1,1539,1478,0,0
322,-454,0,0,0,0,0,0,0,0,0,-1,1546,1478,0,0
329,-454,0,0,0,0,0,0,0,0,0,-1,1553,1478,0,0
336,-454,0,0,0,0,0,0,0,0,0,-1,1560,1478,0,0
343,-454,0,0,0,0,0,0,0,0,0,-1,1567,1478,0,0
350,-454,0,0,0,0,0,0,0,0,0,-1,1574,1478,0,0
357,-454,0,0,0,0,0,0,0,0,0,-1,1581,1478,0,0
364,-454,0,0,0,0,0,0,0,0,0,-1,1588,1478,0,0
371,-454,0,0,0,0,0,0,0,0,0,-1,1595,1478,0,0
378,-454,0,0,0,0,0,0,0,0,0,-1,1602,1478,0,0
385,-454,0,0,0,0,0,0,0,0,0,-1,1609,1478,0,0
392,-454,0,0,0,0,0,0,0,0,0,-1,1616,1478,0,0
399,-454,0,0,0,0,0,0,0,0,0,-1,1623,1478,0,0
406,-454,0,0,0,0,0,0,0,0,0,-1,1630,1478,0,0
413,-454,0,0,0,0,0,0,0,0,0,-1,1637,1478,0,0
420,-454,0,0,0,0,0,0,0,0,0,-1,1644,1478,0,0
427,-454,0,0,0,0,0,0,0,0,0,-1,1651,1478,0,0
434,-454,0,0,0,0,0,0,0,0,0,-1,1658,1478,0,0
441,-454,0,0,0,0,0,0,0,0,0,-1,1665,1478,0,0
448,-454,0,0,0,0,0,0,0,0,0,-1,1672,1478,0,0
455,-454,0,0,0,0,0,0,0,0,0,-1,1679,1478,0,0
462,-454,0,0,0,0,0,0,0,0,0,-1,1686,1478,0,0
469,-454,0,0,0,0,0,0,0,0,0,-1,1693,1478,0,0
476,-454,0,0,0,0,0,0,0,0,0,-1,1700,1478,0,0
483,-454,14.2399,3.97498,0,0,0,0,0,0,0,-1,1707,1478,14.2399,-3.97502
490,-454,18.1821,-0.175781,0,0,0,0,0,0,0,-1,1714,1478,18.1821,0.175822
497,-454,16.8854,1.01208,0,0,0,0,0,0,0,-1,1721,1478,16.8854,-1.01209
504,-454,15.587,2.05994,0,0,0,0,0,0,0,-1,1728,1478,15.5871,-2.05998
511,-454,17.0273,14.5258,0,0,0,0,0,0,0,-1,1735,1478,17.0273,-14.5258
518,-454,16.4158,13.1039,0,0,0,0,0,0,0,-1,1742,1478,16.4157,-13.1038
525,-454,15.7842,11.6628,0,0,0,0,0,0,0,-1,1749,1478,15.7841,-11.6629
532,-454,15.1094,10.2476,0,0,0,0,0,0,0,-1,1756,1478,15.1094,-10.2475
539,-454,13.7905,10.9373,0,0,0,0,0,0,0,-1,1763,1478,13.7906,-10.9372
546,-454,16.2002,13.2458,0,0,0,0,0,0,0,-1,1770,1478,16.2002,-13.2459
553,-454,15.6747,12.1868,0,0,0,0,0,0,0,-1,1777,1478,15.6747,-12.1868
560,-454,16.3895,14.0527,0,0,0,0,0,0,0,-1,1784,1478,16.3895,-14.0528
567,-454,18.9419,15.8206,0,0,0,0,0,0,0,-1,1791,1478,18.9419,-15.8206
574,-454,18.8531,15.307,0.00176688,-0.00126539,0.000795892,0.00196308,-0.0014616,0.241703,0.00198429,0.0268603,1798,1478,18.8531,-15.307
581,-454,18.8308,14.8745,0.00164587,0.000186898,-0.000108317,0.00165387,0.000178901,-0.0737036,0.00104805,0.0161372,1805,1478,18.8308,-14.8745
588,-454,18.8536,14.4606,0.00161419,0.00110473,-0.000747112,0.0021488,0.000570113,-0.621102,0.00128536,0.0128845,1812,1478,18.8536,-14.4605
595,-454,18.817,14.0668,0.00159496,0.00164722,-0.00110756,0.00272895,0.000513228,-0.797193,0.00167465,0.0127982,1819,1478,18.817,-14.0668
602,-454,18.8184,13.6422,0.00165951,0.0013111,-0.00114127,0.00263979,0.000330815,-0.709661,0.00166061,0.00940203,1826,1478,18.8184,-13.6422
609,-454,18.8302,13.2572,0.00183931,0.000754472,-0.000975832,0.00241334,0.000180439,-0.531735,0.00155225,0.010679,1833,1478,18.8302,-13.2572
616,-454,18.821,12.8636,0.00208952,0.000114607,-0.000791006,0.00236727,-0.000163149,-0.337692,0.00163528,0.0140874,1840,1478,18.821,-12.8636
623,-454,18.8229,12.4644,0.00237308,-0.000547028,-0.000575068,0.00248225,-0.000656197,-0.187604,0.00191149,0.0130132,1847,1478,18.8229,-12.4643
630,-454,18.8243,12.0707,0.00270968,-0.0012195,-0.000364878,0.00274327,-0.0012531,-0.0918174,0.00236017,0.0118014,1854,1478,18.8243,-12.0707
637,-454,18.7822,11.6776,0.00304491,-0.00178126,-0.000182231,0.00305178,-0.00178813,-0.0376874,0.00282589,0.0103758,1861,1478,18.7822,-11.6776
644,-454,18.8519,11.2662,0.00340616,-0.00225013,-7.27483e-05,0.00340709,-0.00225107,-0.0128586,0.00328939,0.0212717,1868,1478,18.8519,-11.2662
651,-454,18.9102,10.7465,0,0,0,0,0,0,0,-1,1875,1478,18.9102,-10.7465
658,-454,17.2583,10.0765,0,0,0,0,0,0,0,-1,1882,1478,17.2583,-10.0765
665,-454,17.683,9.67566,0,0,0,0,0,0,0,-1,1889,1478,17.683,-9.67572
672,-454,16.5476,6.41931,0,0,0,0,0,0,0,-1,1896,1478,16.5476,-6.41929
679,-454,14.2161,5.45007,0,0,0,0,0,0,0,-1,1903,1478,14.2161,-5.45013
686,-454,10.3767,2.12842,0,0,0,0,0,0,0,-1,1910,1478,10.3767,-2.12839
693,-454,11.1857,1.48486,0,0,0,0,0,0,0,-1,1917,1478,11.1857,-1.48487
700,-454,0,0,0,0,0,0,0,0,0,-1,1924,1478,0,0
707,-454,0,0,0,0,0,0,0,0,0,-1,1931,1478,0,0
714,-454,0,0,0,0,0,0,0,0,0,-1,1938,1478,0,0
721,-454,0,0,0,0,0,0,0,0,0,-1,1945,1478,0,0
728,-454,0,0,0,0,0,0,0,0,0,-1,1952,1478,0,0
735,-454,0,0,0,0,0,0,0,0,0,-1,1959,1478,0,0
742,-454,0,0,0,0,0,0,0,0,0,-1,1966,1478,0,0
749,-454,0,0,0,0,0,0,0,0,0,-1,1973,1478,0,0
756,-454,0,0,0,0,0,0,0,0,0,-1,1980,1478,0,0
763,-454,0,0,0,0,0,0,0,0,0,-1,1987,1478,0,0
770,-454,0,0,0,0,0,0,0,0,0,-1,1994,1478,0,0
777,-454,0,0,0,0,0,0,0,0,0,-1,2001,1478,0,0
784,-454,0,0,0,0,0,0,0,0,0,-1,2008,1478,0,0
791,-454,0,0,0,0,0,0,0,0,0,-1,2015,1478,0,0
798,-454,0,0,0,0,0,0,0,0,0,-1,2022,1478,0,0
805,-454,0,0,0,0,0,0,0,0,0,-1,2029,1478,0,0
812,-454,0,0,0,0,0,0,0,0,0,-1,2036,1478,0,0
-700,-461,0,0,0,0,0,0,0,0,0,-1,524,1485,0,0
-693,-461,0,0,0,0,0,0,0,0,0,-1,531,1485,0,0
-686,-461,0,0,0,0,0,0,0,0,0,-1,538,1485,0,0
-679,-461,0,0,0,0,0,0,0,0,0,-1,545,1485,0,0
-672,-461,0,0,0,0,0,0,0,0,0,-1,552,1485,0,0
-665,-461,0,0,0,0,0,0,0,0,0,-1,559,1485,0,0
-658,-461,0,0,0,0,0,0,0,0,0,-1,566,1485,0,0
-651,-461,0,0,0,0,0,0,0,0,0,-1,573,1485,0,0
-644,-461,0,0,0,0,0,0,0,0,0,-1,580,1485,0,0
-637,-461,0,0,0,0,0,0,0,0,0,-1,587,1485,0,0
-630,-461,0,0,0,0,0,0,0,0,0,-1,594,1485,0,0
-623,-461,0,0,0,0,0,0,0,0,0,-1,601,1485,0,0
-616,-461,0,0,0,0,0,0,0,0,0,-1,608,1485,0,0
-609,-461,0,0,0,0,0,0,0,0,0,-1,615,1485,0,0
-602,-461,0,0,0,0,0,0,0,0,0,-1,622,1485,0,0
-595,-461,0,0,0,0,0,0,0,0,0,-1,629,1485,0,0
-588,-461,0,0,0,0,0,0,0,0,0,-1,636,1485,0,0
-581,-461,0,0,0,0,0,0,0,0,0,-1,643,1485,0,0
-574,-461,0,0,0,0,0,0,0,0,0,-1,650,1485,0,0
-567,-461,-9.69031,0.513306,0,0,0,0,0,0,0,-1,657,1485,-9.69032,-0.513305
-560,-461,-7.28815,1.54004,0,0,0,0,0,0,0,-1,664,1485,-7.28817,-1.54005
-553,-461,-11.9607,5.27783,0,0,0,0,0,0,0,-1,671,1485,-11.9607,-5.27778
-546,-461,-11.4215,4.44666,0,0,0,0,0,0,0,-1,678,1485,-11.4215,-4.4467
-539,-461,-9.36493,5.23438,0,0,0,0,0,0,0,-1,685,1485,-9.3649,-5.23432
-532,-461,-6.83673,5.70691,0,0,0,0,0,0,0,-1,692,1485,-6.83675,-5.70696
-525,-461,-5.63751,7.96436,0,0,0,0,0,0,0,-1,699,1485,-5.63753,-7.96437
-518,-461,-5.55823,8.81287,0.00963885,0.00617797,0.0078108,0.0159086,-9.178e-05,0.676387,0.0106365,0.0475556,706,1485,-5.5582,-8.81281
-511,-461,-5.48267,9.50647,0.0072162,0.0044874,0.00556431,0.011581,0.000122657,0.665168,0.00768008,0.0369153,713,1485,-5.48268,-9.50652
-504,-461,-5.62103,9.82971,0.00519916,0.00315529,0.00383516,0.00814621,0.000208246,0.655191,0.00536274,0.0196935,720,1485,-5.62104,-9.82976
-497,-461,-5.56653,10.3462,0.0038299,0.0022836,0.00269348,0.005859,0.000254497,0.645633,0.00382399,0.0110217,727,1485,-5.56652,-10.3462
-490,-461,-5.58759,10.7802,0.00289789,0.00178968,0.00199,0.00440949,0.000278085,0.649615,0.00285149,0.0117865,734,1485,-5.58761,-10.7801
-483,-461,-5.62097,11.1862,0.00246925,0.00161514,0.00168059,0.0037762,0.000308196,0.660976,0.00242128,0.0131427,741,1485,-5.62094,-11.1861
-476,-461,-5.64612,11.6234,0.00228037,0.00161687,0.00166062,0.00364205,0.000255185,0.686809,0.0023476,0.0117498,748,1485,-5.64612,-11.6234
-469,-461,-5.6463,12.084,0.0021976,0.00149742,0.00167515,0.00355885,0.000136172,0.682386,0.0023285,0.0132589,755,1485,-5.64632,-12.084
-462,-461,-5.66235,12.5022,0.00242213,0.001417,0.00199354,0.00397548,-0.000136348,0.661923,0.00269692,0.0180068,762,1485,-5.66238,-12.5022
-455,-461,-5.68634,12.9478,0.0028458,0.00136652,0.00238794,0.00460603,-0.000393702,0.635213,0.00320998,0.0202946,769,1485,-5.68633,-12.9477
-448,-461,-5.66516,13.401,0.00349228,0.00120957,0.00297544,0.00553777,-0.000835917,0.602257,0.00399971,0.0182991,776,1485,-5.66513,-13.401
-441,-461,-5.61432,13.8546,0.0039845,0.000519027,0.00332527,0.00600141,-0.00149788,0.545213,0.00458257,0.0195998,783,1485,-5.61435,-13.8547
-434,-461,-5.27429,14.2742,0,0,0,0,0,0,0,-1,790,1485,-5.27427,-14.2742
-427,-461,-5.32715,14.5669,0.00336803,-0.00323902,0.00283322,0.00441656,-0.00428755,0.354455,0.00502551,0.0394456,797,1485,-5.32712,-14.5669
-420,-461,-5.64978,14.6334,0.00244455,-0.00658331,0.00206931,0.00289626,-0.00703502,0.21492,0.00589746,0.0491572,804,1485,-5.64978,-14.6335
-413,-461,-5.9176,14.7791,0,0,0,0,0,0,0,-1,811,1485,-5.91759,-14.779
-406,-461,-5.52667,14.839,0,0,0,0,0,0,0,-1,818,1485,-5.52666,-14.839
-399,-461,-1.93439,9.82849,0,0,0,0,0,0,0,-1,825,1485,-1.9344,-9.82846
-392,-461,-0.357544,5.55225,0,0,0,0,0,0,0,-1,832,1485,-0.357536,-5.55228
-385,-461,1.71509,3.35254,0,0,0,0,0,0,0,-1,839,1485,1.71511,-3.35255
-378,-461,1.95996,3.01111,0,0,0,0,0,0,0,-1,846,1485,1.95993,-3.01111
-371,-461,0.702881,2.33459,0,0,0,0,0,0,0,-1,853,1485,0.702859,-2.33459
-364,-461,-1.93097,2.56458,0,0,0,0,0,0,0,-1,860,1485,-1.93095,-2.56456
-357,-461,-2.41516,3.49487,0,0,0,0,0,0,0,-1,867,1485,-2.41517,-3.49487
-350,-461,0,0,0,0,0,0,0,0,0,-1,874,1485,0,0
-343,-461,0,0,0,0,0,0,0,0,0,-1,881,1485,0,0
-336,-461,0,0,0,0,0,0,0,0,0,-1,888,1485,0,0
-329,-461,0,0,0,0,0,0,0,0,0,-1,895,1485,0,0
-322,-461,0,0,0,0,0,0,0,0,0,-1,902,1485,0,0
-315,-461,0,0,0,0,0,0,0,0,0,-1,909,1485,0,0
-308,-461,0,0,0,0,0,0,0,0,0,-1,916,1485,0,0
-301,-461,0,0,0,0,0,0,0,0,0,-1,923,1485,0,0
-294,-461,0,0,0,0,0,0,0,0,0,-1,930,1485,0,0
-287,-461,0,0,0,0,0,0,0,0,0,-1,937,1485,0,0
-280,-461,0,0,0,0,0,0,0,0,0,-1,944,1485,0,0
-273,-461,0,0,0,0,0,0,0,0,0,-1,951,1485,0,0
-266,-461,0,0,0,0,0,0,0,0,0,-1,958,1485,0,0
-259,-461,0,0,0,0,0,0,0,0,0,-1,965,1485,0,0
-252,-461,0,0,0,0,0,0,0,0,0,-1,972,1485,0,0
-245,-461,0,0,0,0,0,0,0,0,0,-1,979,1485,0,0
-238,-461,0,0,0,0,0,0,0,0,0,-1,986,1485,0,0
-231,-461,0,0,0,0,0,0,0,0,0,-1,993,1485,0,0
-224,-461,0,0,0,0,0,0,0,0,0,-1,1000,1485,0,0
-217,-461,0,0,0,0,0,0,0,0,0,-1,1007,1485,0,0
-210,-461,0,0,0,0,0,0,0,0,0,-1,1014,1485,0,0
-203,-461,0,0,0,0,0,0,0,0,0,-1,1021,1485,0,0
-196,-461,0,0,0,0,0,0,0,0,0,-1,1028,1485,0,0
-189,-461,0,0,0,0,0,0,0,0,0,-1,1035,1485,0,0
-182,-461,0,0,0,0,0,0,0,0,0,-1,1042,1485,0,0
-175,-461,0,0,0,0,0,0,0,0,0,-1,1049,1485,0,0
-168,-461,0,0,0,0,0,0,0,0,0,-1,1056,1485,0,0
-161,-461,0,0,0,0,0,0,0,0,0,-1,1063,1485,0,0
-154,-461,0,0,0,0,0,0,0,0,0,-1,1070,1485,0,0
-147,-461,0,0,0,0,0,0,0,0,0,-1,1077,1485,0,0
-140,-461,0,0,0,0,0,0,0,0,0,-1,1084,1485,0,0
-133,-461,0,0,0,0,0,0,0,0,0,-1,1091,1485,0,0
-126,-461,0,0,0,0,0,0,0,0,0,-1,1098,1485,0,0
-119,-461,0,0,0,0,0,0,0,0,0,-1,1105,1485,0,0
-112,-461,0,0,0,0,0,0,0,0,0,-1,1112,1485,0,0
-105,-461,0,0,0,0,0,0,0,0,0,-1,1119,1485,0,0
-98,-461,0,0,0,0,0,0,0,0,0,-1,1126,1485,0,0
-91,-461,0,0,0,0,0,0,0,0,0,-1,1133,1485,0,0
-84,-461,0,0,0,0,0,0,0,0,0,-1,1140,1485,0,0
-77,-461,0,0,0,0,0,0,0,0,0,-1,1147,1485,0,0
-70,-461,0,0,0,0,0,0,0,0,0,-1,1154,1485,0,0
-63,-461,0,0,0,0,0,0,0,0,0,-1,1161,1485,0,0
-56,-461,0,0,0,0,0,0,0,0,0,-1,1168,1485,0,0
-49,-461,0,0,0,0,0,0,0,0,0,-1,1175,1485,0,0
-42,-461,0,0,0,0,0,0,0,0,0,-1,1182,1485,0,0
-35,-461,0,0,0,0,0,0,0,0,0,-1,1189,1485,0,0
-28,-461,0,0,0,0,0,0,0,0,0,-1,1196,1485,0,0
-21,-461,0,0,0,0,0,0,0,0,0,-1,1203,1485,0,0
-14,-461,0,0,0,0,0,0,0,0,0,-1,1210,1485,0,0
-7,-461,0,0,0,0,0,0,0,0,0,-1,1217,1485,0,0
0,-461,0,0,0,0,0,0,0,0,0,-1,1224,1485,0,0
7,-461,0,0,0,0,0,0,0,0,0,-1,1231,1485,0,0
14,-461,0,0,0,0,0,0,0,0,0,-1,1238,1485,0,0
21,-461,0,0,0,0,0,0,0,0,0,-1,1245,1485,0,0
28,-461,0,0,0,0,0,0,0,0,0,-1,1252,1485,0,0
35,-461,0,0,0,0,0,0,0,0,0,-1,1259,1485,0,0
42,-461,0,0,0,0,0,0,0,0,0,-1,1266,1485,0,0
49,-461,0,0,0,0,0,0,0,0,0,-1,1273,1485,0,0
56,-461,0,0,0,0,0,0,0,0,0,-1,1280,1485,0,0
63,-461,0,0,0,0,0,0,0,0,0,-1,1287,1485,0,0
70,-461,0,0,0,0,0,0,0,0,0,-1,1294,1485,0,0
77,-461,0,0,0,0,0,0,0,0,0,-1,1301,1485,0,0
84,-461,0,0,0,0,0,0,0,0,0,-1,1308,1485,0,0
91,-461,0,0,0,0,0,0,0,0,0,-1,1315,1485,0,0
98,-461,0,0,0,0,0,0,0,0,0,-1,1322,1485,0,0
105,-461,0,0,0,0,0,0,0,0,0,-1,1329,1485,0,0
112,-461,0,0,0,0,0,0,0,0,0,-1,1336,1485,0,0
119,-461,0,0,0,0,0,0,0,0,0,-1,1343,1485,0,0
126,-461,0,0,0,0,0,0,0,0,0,-1,1350,1485,0,0
133,-461,0,0,0,0,0,0,0,0,0,-1,1357,1485,0,0
140,-461,0,0,0,0,0,0,0,0,0,-1,1364,1485,0,0
147,-461,0,0,0,0,0,0,0,0,0,-1,1371,1485,0,0
154,-461,0,0,0,0,0,0,0,0,0,-1,1378,1485,0,0
161,-461,0,0,0,0,0,0,0,0,0,-1,1385,1485,0,0
168,-461,0,0,0,0,0,0,0,0,0,-1,1392,1485,0,0
175,-461,0,0,0,0,0,0,0,0,0,-1,1399,1485,0,0
182,-461,0,0,0,0,0,0,0,0,0,-1,1406,1485,0,0
189,-461,0,0,0,0,0,0,0,0,0,-1,1413,1485,0,0
196,-461,0,0,0,0,0,0,0,0,0,-1,1420,1485,0,0
203,-461,0,0,0,0,0,0,0,0,0,-1,1427,1485,0,0
210,-461,0,0,0,0,0,0,0,0,0,-1,1434,1485,0,0
217,-461,0,0,0,0,0,0,0,0,0,-1,1441,1485,0,0
224,-461,0,0,0,0,0,0,0,0,0,-1,1448,1485,0,0
231,-461,0,0,0,0,0,0,0,0,0,-1,1455,1485,0,0
238,-461,0,0,0,0,0,0,0,0,0,-1,1462,1485,0,0
245,-461,0,0,0,0,0,0,0,0,0,-1,1469,1485,0,0
252,-461,0,0,0,0,0,0,0,0,0,-1,1476,1485,0,0
259,-461,0,0,0,0,0,0,0,0,0,-1,1483,1485,0,0
266,-461,0,0,0,0,0,0,0,0,0,-1,1490,1485,0,0
273,-461,0,0,0,0,0,0,0,0,0,-1,1497,1485,0,0
280,-461,0,0,0,0,0,0,0,0,0,-1,1504,1485,0,0
287,-461,0,0,0,0,0,0,0,0,0,-1,1511,1485,0,0
294,-461,0,0,0,0,0,0,0,0,0,-1,1518,1485,0,0
301,-461,0,0,0,0,0,0,0,0,0,-1,1525,1485,0,0
308,-461,0,0,0,0,0,0,0,0,0,-1,1532,1485,0,0
315,-461,0,0,0,0,0,0,0,0,0,-1,1539,1485,0,0
322,-461,0,0,0,0,0,0,0,0,0,-1,1546,1485,0,0
329,-461,0,0,0,0,0,0,0,0,0,-1,1553,1485,0,0
336,-461,0,0,0,0,0,0,0,0,0,-1,1560,1485,0,0
343,-461,0,0,0,0,0,0,0,0,0,-1,1567,1485,0,0
350,-461,0,0,0,0,0,0,0,0,0,-1,1574,1485,0,0
357,-461,0,0,0,0,0,0,0,0,0,-1,1581,1485,0,0
364,-461,0,0,0,0,0,0,0,0,0,-1,1588,1485,0,0
371,-461,0,0,0,0,0,0,0,0,0,-1,1595,1485,0,0
378,-461,0,0,0,0,0,0,0,0,0,-1,1602,1485,0,0
385,-461,0,0,0,0,0,0,0,0,0,-1,1609,1485,0,0
392,-461,0,0,0,0,0,0,0,0,0,-1,1616,1485,0,0
399,-461,0,0,0,0,0,0,0,0,0,-1,1623,1485,0,0
406,-461,0,0,0,0,0,0,0,0,0,-1,1630,1485,0,0
413,-461,0,0,0,0,0,0,0,0,0,-1,1637,1485,0,0
420,-461,0,0,0,0,0,0,0,0,0,-1,1644,1485,0,0
427,-461,0,0,0,0,0,0,0,0,0,-1,1651,1485,0,0
434,-461,0,0,0,0,0,0,0,0,0,-1,1658,1485,0,0
441,-461,0,0,0,0,0,0,0,0,0,-1,1665,1485,0,0
448,-461,0,0,0,0,0,0,0,0,0,-1,1672,1485,0,0
455,-461,0,0,0,0,0,0,0,0,0,-1,1679,1485,0,0
462,-461,0,0,0,0,0,0,0,0,0,-1,1686,1485,0,0
469,-461,0,0,0,0,0,0,0,0,0,-1,1693,1485,0,0
476,-461,14.1906,0.690552,0,0,0,0,0,0,0,-1,1700,1485,14.1906,-0.690525
483,-461,10.6361,3.09106,0,0,0,0,0,0,0,-1,1707,1485,10.6361,-3.091
490,-461,17.9972,0.665894,0,0,0,0,0,0,0,-1,1714,1485,17.9972,-0.665876
497,-461,16.6829,1.87732,0,0,0,0,0,0,0,-1,1721,1485,16.6828,-1.87736
504,-461,15.3884,3.09216,0,0,0,0,0,0,0,-1,1728,1485,15.3885,-3.09212
511,-461,15.4292,14.3512,0,0,0,0,0,0,0,-1,1735,1485,15.4292,-14.3512
518,-461,14.8081,10.0085,0,0,0,0,0,0,0,-1,1742,1485,14.8081,-10.0086
525,-461,14.0022,10.8033,0,0,0,0,0,0,0,-1,1749,1485,14.0022,-10.8033
532,-461,17.1704,14.077,0,0,0,0,0,0,0,-1,1756,1485,17.1704,-14.077
539,-461,17.0229,14.7386,0,0,0,0,0,0,0,-1,1763,1485,17.0229,-14.7387
546,-461,16.2106,14.1372,0,0,0,0,0,0,0,-1,1770,1485,16.2106,-14.1372
553,-461,18.064,16.3263,0,0,0,0,0,0,0,-1,1777,1485,18.064,-16.3263
560,-461,18.4155,16.0597,0,0,0,0,0,0,0,-1,1784,1485,18.4156,-16.0597
567,-461,18.4657,15.5934,0.00156566,-0.00394837,0.00238606,0.0024548,-0.0048375,0.356697,0.00428447,0.0264527,1791,1485,18.4657,-15.5934
574,-461,18.4833,15.2507,0.00141689,-0.00175263,0.00111919,0.00177225,-0.00210798,0.307443,0.00224305,0.0218636,1798,1485,18.4833,-15.2508
581,-461,18.491,14.8544,0.00141549,-0.000428694,0.000233166,0.00144452,-0.000457718,0.123837,0.00114646,0.0154176,1805,1485,18.491,-14.8544
588,-461,18.4486,14.4841,0.00153447,0.000457577,-0.000464258,0.00170698,0.000285066,-0.355772,0.00105587,0.0111153,1812,1485,18.4486,-14.4841
595,-461,18.4226,14.085,0.00167396,0.000994607,-0.000873694,0.00227168,0.000396881,-0.6,0.00140103,0.00934688,1819,1485,18.4226,-14.085
602,-461,18.4348,13.6725,0.00186717,0.000703967,-0.000991435,0.002435,0.000136131,-0.520135,0.00157991,0.00963477,1826,1485,18.4348,-13.6725
609,-461,18.4423,13.2687,0.00216718,0.000171895,-0.000908914,0.00251913,-0.000180061,-0.369447,0.00174255,0.0108906,1833,1485,18.4423,-13.2687
616,-461,18.437,12.8723,0.00256214,-0.000457671,-0.000805937,0.00276377,-0.000659299,-0.245147,0.00209711,0.0132905,1840,1485,18.437,-12.8723
623,-461,18.4255,12.4893,0.00301652,-0.00114607,-0.000662341,0.00311937,-0.00124892,-0.15405,0.00259796,0.0140493,1847,1485,18.4256,-12.4892
630,-461,18.4163,12.1003,0.0035504,-0.00186288,-0.000509823,0.003598,-0.00191048,-0.0930893,0.00322969,0.0131968,1854,1485,18.4163,-12.1003
637,-461,18.3915,11.7059,0.00415388,-0.00245442,-0.000399508,0.00417795,-0.00247849,-0.0601634,0.00388462,0.01315,1861,1485,18.3915,-11.7059
644,-461,18.4744,11.3884,0.00479896,-0.00302041,-0.000345208,0.00481417,-0.00303562,-0.0440336,0.00457069,0.0302635,1868,1485,18.4744,-11.3885
651,-461,18.6329,11.0219,0,0,0,0,0,0,0,-1,1875,1485,18.6329,-11.0218
658,-461,16.8987,10.1084,0,0,0,0,0,0,0,-1,1882,1485,16.8986,-10.1084
665,-461,17.2638,9.81384,0,0,0,0,0,0,0,-1,1889,1485,17.2638,-9.81385
672,-461,14.4877,6.89429,0,0,0,0,0,0,0,-1,1896,1485,14.4876,-6.89431
679,-461,10.0535,2.16321,0,0,0,0,0,0,0,-1,1903,1485,10.0535,-2.16317
686,-461,10.8195,1.84192,0,0,0,0,0,0,0,-1,1910,1485,10.8194,-1.84195
693,-461,0,0,0,0,0,0,0,0,0,-1,1917,1485,0,0
700,-461,0,0,0,0,0,0,0,0,0,-1,1924,1485,0,0
707,-461,0,0,0,0,0,0,0,0,0,-1,1931,1485,0,0
714,-461,0,0,0,0,0,0,0,0,0,-1,1938,1485,0,0
721,-461,0,0,0,0,0,0,0,0,0,-1,1945,1485,0,0
728,-461,0,0,0,0,0,0,0,0,0,-1,1952,1485,0,0
735,-461,0,0,0,0,0,0,0,0,0,-1,1959,1485,0,0
742,-461,0,0,0,0,0,0,0,0,0,-1,1966,1485,0,0
749,-461,0,0,0,0,0,0,0,0,0,-1,1973,1485,0,0
756,-461,0,0,0,0,0,0,0,0,0,-1,1980,1485,0,0
763,-461,0,0,0,0,0,0,0,0,0,-1,1987,1485,0,0
770,-461,0,0,0,0,0,0,0,0,0,-1,1994,1485,0,0
777,-461,0,0,0,0,0,0,0,0,0,-1,2001,1485,0,0
784,-461,0,0,0,0,0,0,0,0,0,-1,2008,1485,0,0
791,-461,0,0,0,0,0,0,0,0,0,-1,2015,1485,0,0
798,-461,0,0,0,0,0,0,0,0,0,-1,2022,1485,0,0
805,-461,0,0,0,0,0,0,0,0,0,-1,2029,1485,0,0
812,-461,0,0,0,0,0,0,0,0,0,-1,2036,1485,0,0
-700,-468,0,0,0,0,0,0,0,0,0,-1,524,1492,0,0
-693,-468,0,0,0,0,0,0,0,0,0,-1,531,1492,0,0
-686,-468,0,0,0,0,0,0,0,0,0,-1,538,1492,0,0
-679,-468,0,0,0,0,0,0,0,0,0,-1,545,1492,0,0
-672,-468,0,0,0,0,0,0,0,0,0,-1,552,1492,0,0
-665,-468,0,0,0,0,0,0,0,0,0,-1,559,1492,0,0
-658,-468,0,0,0,0,0,0,0,0,0,-1,566,1492,0,0
-651,-468,0,0,0,0,0,0,0,0,0,-1,573,1492,0,0
-644,-468,0,0,0,0,0,0,0,0,0,-1,580,1492,0,0
-637,-468,0,0,0,0,0,0,0,0,0,-1,587,1492,0,0
-630,-468,0,0,0,0,0,0,0,0,0,-1,594,1492,0,0
-623,-468,0,0,0,0,0,0,0,0,0,-1,601,1492,0,0
-616,-468,0,0,0,0,0,0,0,0,0,-1,608,1492,0,0
-609,-468,0,0,0,0,0,0,0,0,0,-1,615,1492,0,0
-602,-468,0,0,0,0,0,0,0,0,0,-1,622,1492,0,0
-595,-468,0,0,0,0,0,0,0,0,0,-1,629,1492,0,0
-588,-468,0,0,0,0,0,0,0,0,0,-1,636,1492,0,0
-581,-468,0,0,0,0,0,0,0,0,0,-1,643,1492,0,0
-574,-468,0,0,0,0,0,0,0,0,0,-1,650,1492,0,0
-567,-468,-11.2603,1.8042,0,0,0,0,0,0,0,-1,657,1492,-11.2603,-1.80424
-560,-468,-8.77441,2.23694,0,0,0,0,0,0,0,-1,664,1492,-8.77443,-2.23692
-553,-468,-5.94061,9.26318,0,0,0,0,0,0,0,-1,671,1492,-5.94062,-9.26322
-546,-468,-10.47,5.43237,0,0,0,0,0,0,0,-1,678,1492,-10.47,-5.4324
-539,-468,-10.2468,5.45203,0,0,0,0,0,0,0,-1,685,1492,-10.2468,-5.45197
-532,-468,-6.52325,4.98694,0,0,0,0,0,0,0,-1,692,1492,-6.52324,-4.98697
-525,-468,-6.72412,7.61353,0,0,0,0,0,0,0,-1,699,1492,-6.7241,-7.61358
-518,-468,-5.39868,8.52283,0,0,0,0,0,0,0,-1,706,1492,-5.39871,-8.52281
-511,-468,-5.1153,9.396,0.00959767,0.00590351,0.00727487,0.0152563,0.000244894,0.661076,0.0100902,0.0490143,713,1492,-5.11529,-9.39595
-504,-468,-5.08441,9.8645,0.00643995,0.00392083,0.0047421,0.0100869,0.000273859,0.655589,0.00663521,0.0284995,720,1492,-5.08439,-9.86445
-497,-468,-5.15186,10.3256,0.0043155,0.0025944,0.0030531,0.00662701,0.000282897,0.648031,0.00432679,0.0135597,727,1492,-5.15187,-10.3255
-490,-468,-5.14655,10.8008,0.00289143,0.00176295,0.00200361,0.00440873,0.000245648,0.648147,0.00286079,0.00752879,734,1492,-5.14655,-10.8008
-483,-468,-5.17981,11.2174,0.00212071,0.00136725,0.00144541,0.00323768,0.000250285,0.657915,0.00208005,0.00863682,741,1492,-5.17983,-11.2174
-476,-468,-5.19623,11.6533,0.00175514,0.00123456,0.00126686,0.00278818,0.000201527,0.684078,0.00179539,0.00936278,748,1492,-5.19625,-11.6534
-469,-468,-5.19818,12.0991,0.0015824,0.00110309,0.00120347,0.00256985,0.000115638,0.687115,0.00167602,0.0129307,755,1492,-5.19819,-12.0992
-462,-468,-5.18018,12.5177,0.0017609,0.000942448,0.00145997,0.00286791,-0.000164566,0.648756,0.00196909,0.022643,762,1492,-5.18017,-12.5177
-455,-468,-5.21356,12.9114,0.0021251,0.000824158,0.00174062,0.00333282,-0.000383557,0.606582,0.00236014,0.0220996,769,1492,-5.21355,-12.9113
-448,-468,-5.21777,13.3629,0.00276476,0.000764475,0.00228792,0.00426159,-0.000732349,0.579343,0.00311401,0.0138439,776,1492,-5.21775,-13.3629
-441,-468,-5.22577,13.7931,0.00343151,0.000376332,0.00279054,0.00508522,-0.00127738,0.534969,0.00388655,0.0133201,783,1492,-5.22576,-13.7931
-434,-468,-5.20374,14.2714,0.00381735,-0.000454316,0.00308815,0.00543631,-0.00207328,0.482858,0.00447824,0.017102,790,1492,-5.20373,-14.2714
-427,-468,-5.12219,14.7161,0.00382577,-0.00183906,0.00312997,0.00521464,-0.00322793,0.417631,0.0049191,0.0283975,797,1492,-5.12219,-14.7161
-420,-468,-5.03192,15.0796,0.00374357,-0.0036867,0.00313638,0.00489044,-0.00483357,0.350563,0.00561419,0.0442698,804,1492,-5.03194,-15.0796
-413,-468,-4.77856,15.4932,0,0,0,0,0,0,0,-1,811,1492,-4.77855,-15.4931
-406,-468,-2.2356,9.396,0,0,0,0,0,0,0,-1,818,1492,-2.2356,-9.396
-399,-468,-0.940369,8.1936,0,0,0,0,0,0,0,-1,825,1492,-0.940365,-8.19357
-392,-468,-0.35144,8.14673,0,0,0,0,0,0,0,-1,832,1492,-0.351449,-8.14674
-385,-468,0.465759,5.35864,0,0,0,0,0,0,0,-1,839,1492,0.465732,-5.35864
-378,-468,1.99835,3.25391,0,0,0,0,0,0,0,-1,846,1492,1.99837,-3.2539
-371,-468,-0.31842,3.1532,0,0,0,0,0,0,0,-1,853,1492,-0.318441,-3.15324
-364,-468,-0.966736,2.14563,0,0,0,0,0,0,0,-1,860,1492,-0.966735,-2.14557
-357,-468,-3.06787,3.22742,0,0,0,0,0,0,0,-1,867,1492,-3.06784,-3.2274
-350,-468,-3.18658,4.12659,0,0,0,0,0,0,0,-1,874,1492,-3.18659,-4.12658
-343,-468,0,0,0,0,0,0,0,0,0,-1,881,1492,0,0
-336,-468,0,0,0,0,0,0,0,0,0,-1,888,1492,0,0
-329,-468,0,0,0,0,0,0,0,0,0,-1,895,1492,0,0
-322,-468,0,0,0,0,0,0,0,0,0,-1,902,1492,0,0
-315,-468,0,0,0,0,0,0,0,0,0,-1,909,1492,0,0
-308,-468,0,0,0,0,0,0,0,0,0,-1,916,1492,0,0
-301,-468,0,0,0,0,0,0,0,0,0,-1,923,1492,0,0
-294,-468,0,0,0,0,0,0,0,0,0,-1,930,1492,0,0
-287,-468,0,0,0,0,0,0,0,0,0,-1,937,1492,0,0
-280,-468,0,0,0,0,0,0,0,0,0,-1,944,1492,0,0
-273,-468,0,0,0,0,0,0,0,0,0,-1,951,1492,0,0
-266,-468,0,0,0,0,0,0,0,0,0,-1,958,1492,0,0
-259,-468,0,0,0,0,0,0,0,0,0,-1,965,1492,0,0
-252,-468,0,0,0,0,0,0,0,0,0,-1,972,1492,0,0
-245,-468,0,0,0,0,0,0,0,0,0,-1,979,1492,0,0
-238,-468,0,0,0,0,0,0,0,0,0,-1,986,1492,0,0
-231,-468,0,0,0,0,0,0,0,0,0,-1,993,1492,0,0
-224,-468,0,0,0,0,0,0,0,0,0,-1,1000,1492,0,0
-217,-468,0,0,0,0,0,0,0,0,0,-1,1007,1492,0,0
-210,-468,0,0,0,0,0,0,0,0,0,-1,1014,1492,0,0
-203,-468,0,0,0,0,0,0,0,0,0,-1,1021,1492,0,0
-196,-468,0,0,0,0,0,0,0,0,0,-1,1028,1492,0,0
-189,-468,0,0,0,0,0,0,0,0,0,-1,1035,1492,0,0
-182,-468,0,0,0,0,0,0,0,0,0,-1,1042,1492,0,0
-175,-468,0,0,0,0,0,0,0,0,0,-1,1049,1492,0,0
-168,-468,0,0,0,0,0,0,0,0,0,-1,1056,1492,0,0
-161,-468,0,0,0,0,0,0,0,0,0,-1,1063,1492,0,0
-154,-468,0,0,0,0,0,0,0,0,0,-1,1070,1492,0,0
-147,-468,0,0,0,0,0,0,0,0,0,-1,1077,1492,0,0
-140,-468,0,0,0,0,0,0,0,0,0,-1,1084,1492,0,0
-133,-468,0,0,0,0,0,0,0,0,0,-1,1091,1492,0,0
-126,-468,0,0,0,0,0,0,0,0,0,-1,1098,1492,0,0
-119,-468,0,0,0,0,0,0,0,0,0,-1,1105,1492,0,0
-112,-468,0,0,0,0,0,0,0,0,0,-1,1112,1492,0,0
-105,-468,0,0,0,0,0,0,0,0,0,-1,1119,1492,0,0
-98,-468,0,0,0,0,0,0,0,0,0,-1,1126,1492,0,0
-91,-468,0,0,0,0,0,0,0,0,0,-1,1133,1492,0,0
-84,-468,0,0,0,0,0,0,0,0,0,-1,1140,1492,0,0
-77,-468,0,0,0,0,0,0,0,0,0,-1,1147,1492,0,0
-70,-468,0,0,0,0,0,0,0,0,0,-1,1154,1492,0,0
-63,-468,0,0,0,0,0,0,0,0,0,-1,1161,1492,0,0
-56,-468,0,0,0,0,0,0,0,0,0,-1,1168,1492,0,0
-49,-468,0,0,0,0,0,0,0,0,0,-1,1175,1492,0,0
-42,-468,0,0,0,0,0,0,0,0,0,-1,1182,1492,0,0
-35,-468,0,0,0,0,0,0,0,0,0,-1,1189,1492,0,0
-28,-468,0,0,0,0,0,0,0,0,0,-1,1196,1492,0,0
-21,-468,0,0,0,0,0,0,0,0,0,-1,1203,1492,0,0
-14,-468,0,0,0,0,0,0,0,0,0,-1,1210,1492,0,0
-7,-468,0,0,0,0,0,0,0,0,0,-1,1217,1492,0,0
0,-468,0,0,0,0,0,0,0,0,0,-1,1224,1492,0,0
7,-468,0,0,0,0,0,0,0,0,0,-1,1231,1492,0,0
14,-468,0,0,0,0,0,0,0,0,0,-1,1238,1492,0,0
21,-468,0,0,0,0,0,0,0,0,0,-1,1245,1492,0,0
28,-468,0,0,0,0,0,0,0,0,0,-1,1252,1492,0,0
35,-468,0,0,0,0,0,0,0,0,0,-1,1259,1492,0,0
42,-468,0,0,0,0,0,0,0,0,0,-1,1266,1492,0,0
49,-468,0,0,0,0,0,0,0,0,0,-1,1273,1492,0,0
56,-468,0,0,0,0,0,0,0,0,0,-1,1280,1492,0,0
63,-468,0,0,0,0,0,0,0,0,0,-1,1287,1492,0,0
70,-468,0,0,0,0,0,0,0,0,0,-1,1294,1492,0,0
77,-468,0,0,0,0,0,0,0,0,0,-1,1301,1492,0,0
84,-468,0,0,0,0,0,0,0,0,0,-1,1308,1492,0,0
91,-468,0,0,0,0,0,0,0,0,0,-1,1315,1492,0,0
98,-468,0,0,0,0,0,0,0,0,0,-1,1322,1492,0,0
105,-468,0,0,0,0,0,0,0,0,0,-1,1329,1492,0,0
112,-468,0,0,0,0,0,0,0,0,0,-1,1336,1492,0,0
119,-468,0,0,0,0,0,0,0,0,0,-1,1343,1492,0,0
126,-468,0,0,0,0,0,0,0,0,0,-1,1350,1492,0,0
133,-468,0,0,0,0,0,0,0,0,0,-1,1357,1492,0,0
140,-468,0,0,0,0,0,0,0,0,0,-1,1364,1492,0,0
147,-468,0,0,0,0,0,0,0,0,0,-1,1371,1492,0,0
154,-468,0,0,0,0,0,0,0,0,0,-1,1378,1492,0,0
161,-468,0,0,0,0,0,0,0,0,0,-1,1385,1492,0,0
168,-468,0,0,0,0,0,0,0,0,0,-1,1392,1492,0,0
175,-468,0,0,0,0,0,0,0,0,0,-1,1399,1492,0,0
182,-468,0,0,0,0,0,0,0,0,0,-1,1406,1492,0,0
189,-468,0,0,0,0,0,0,0,0,0,-1,1413,1492,0,0
196,-468,0,0,0,0,0,0,0,0,0,-1,1420,1492,0,0
203,-468,0,0,0,0,0,0,0,0,0,-1,1427,1492,0,0
210,-468,0,0,0,0,0,0,0,0,0,-1,1434,1492,0,0
217,-468,0,0,0,0,0,0,0,0,0,-1,1441,1492,0,0
224,-468,0,0,0,0,0,0,0,0,0,-1,1448,1492,0,0
231,-468,0,0,0,0,0,0,0,0,0,-1,1455,1492,0,0
238,-468,0,0,0,0,0,0,0,0,0,-1,1462,1492,0,0
245,-468,0,0,0,0,0,0,0,0,0,-1,1469,1492,0,0
252,-468,0,0,0,0,0,0,0,0,0,-1,1476,1492,0,0
259,-468,0,0,0,0,0,0,0,0,0,-1,1483,1492,0,0
266,-468,0,0,0,0,0,0,0,0,0,-1,1490,1492,0,0
273,-468,0,0,0,0,0,0,0,0,0,-1,1497,1492,0,0
280,-468,0,0,0,0,0,0,0,0,0,-1,1504,1492,0,0
287,-468,0,0,0,0,0,0,0,0,0,-1,1511,1492,0,0
294,-468,0,0,0,0,0,0,0,0,0,-1,1518,1492,0,0
301,-468,0,0,0,0,0,0,0,0,0,-1,1525,1492,0,0
308,-468,0,0,0,0,0,0,0,0,0,-1,1532,1492,0,0
315,-468,0,0,0,0,0,0,0,0,0,-1,1539,1492,0,0
322,-468,0,0,0,0,0,0,0,0,0,-1,1546,1492,0,0
329,-468,0,0,0,0,0,0,0,0,0,-1,1553,1492,0,0
336,-468,0,0,0,0,0,0,0,0,0,-1,1560,1492,0,0
343,-468,0,0,0,0,0,0,0,0,0,-1,1567,1492,0,0
350,-468,0,0,0,0,0,0,0,0,0,-1,1574,1492,0,0
357,-468,0,0,0,0,0,0,0,0,0,-1,1581,1492,0,0
364,-468,0,0,0,0,0,0,0,0,0,-1,1588,1492,0,0
371,-468,0,0,0,0,0,0,0,0,0,-1,1595,1492,0,0
378,-468,0,0,0,0,0,0,0,0,0,-1,1602,1492,0,0
385,-468,0,0,0,0,0,0,0,0,0,-1,1609,1492,0,0
392,-468,0,0,0,0,0,0,0,0,0,-1,1616,1492,0,0
399,-468,0,0,0,0,0,0,0,0,0,-1,1623,1492,0,0
406,-468,0,0,0,0,0,0,0,0,0,-1,1630,1492,0,0
413,-468,0,0,0,0,0,0,0,0,0,-1,1637,1492,0,0
420,-468,0,0,0,0,0,0,0,0,0,-1,1644,1492,0,0
427,-468,0,0,0,0,0,0,0,0,0,-1,1651,1492,0,0
434,-468,0,0,0,0,0,0,0,0,0,-1,1658,1492,0,0
441,-468,0,0,0,0,0,0,0,0,0,-1,1665,1492,0,0
448,-468,0,0,0,0,0,0,0,0,0,-1,1672,1492,0,0
455,-468,0,0,0,0,0,0,0,0,0,-1,1679,1492,0,0
462,-468,0,0,0,0,0,0,0,0,0,-1,1686,1492,0,0
469,-468,15.6879,1.2677,0,0,0,0,0,0,0,-1,1693,1492,15.6879,-1.26772
476,-468,14.9318,1.61865,0,0,0,0,0,0,0,-1,1700,1492,14.9318,-1.61869
483,-468,11.265,4.64795,0,0,0,0,0,0,0,-1,1707,1492,11.265,-4.64798
490,-468,12.1316,3.51624,0,0,0,0,0,0,0,-1,1714,1492,12.1316,-3.51628
497,-468,16.5355,3.14587,0,0,0,0,0,0,0,-1,1721,1492,16.5356,-3.14583
504,-468,15.0642,4.10437,0,0,0,0,0,0,0,-1,1728,1492,15.0643,-4.10431
511,-468,15.6877,9.4801,0,0,0,0,0,0,0,-1,1735,1492,15.6878,-9.48007
518,-468,13.759,11.0887,0,0,0,0,0,0,0,-1,1742,1492,13.759,-11.0887
525,-468,16.6531,14.2238,0,0,0,0,0,0,0,-1,1749,1492,16.653,-14.2237
532,-468,16.9696,15.9641,0,0,0,0,0,0,0,-1,1756,1492,16.9696,-15.9641
539,-468,17.7821,16.156,0,0,0,0,0,0,0,-1,1763,1492,17.7821,-16.156
546,-468,17.9542,16.712,0,0,0,0,0,0,0,-1,1770,1492,17.9542,-16.712
553,-468,18.0798,16.3427,0.000989191,-0.0111416,0.00674663,0.00399606,-0.0141485,0.419259,0.0110088,0.0454348,1777,1492,18.0799,-16.3427
560,-468,18.0498,16.0469,0.00125348,-0.00705577,0.00427965,0.00306344,-0.00886574,0.40011,0.00715373,0.0335082,1784,1492,18.0498,-16.0469
567,-468,18.0526,15.6765,0.00133113,-0.00392479,0.00241276,0.00227075,-0.0048644,0.371366,0.00420922,0.0193514,1791,1492,18.0526,-15.6765
574,-468,18.0775,15.2546,0.00132429,-0.00200523,0.00122393,0.00172579,-0.00240673,0.316981,0.00239669,0.0157549,1798,1492,18.0775,-15.2546
581,-468,18.0874,14.8779,0.00141306,-0.000859754,0.000382667,0.00147576,-0.000922453,0.162404,0.00139684,0.0155059,1805,1492,18.0874,-14.878
588,-468,18.0566,14.506,0.00165663,-6.55401e-05,-0.000342729,0.00172233,-0.00013124,-0.189399,0.00119437,0.0124304,1812,1492,18.0566,-14.506
595,-468,18.0542,14.1108,0.00193471,0.00040285,-0.00077493,0.00225836,7.92099e-05,-0.395619,0.00147987,0.0105879,1819,1492,18.0543,-14.1109
602,-468,18.0444,13.6786,0.00225518,0.000116855,-0.000954882,0.00261951,-0.000247478,-0.364499,0.00183441,0.00938054,1826,1492,18.0444,-13.6786
609,-468,18.0317,13.2698,0.00268216,-0.000410632,-0.000952105,0.00295176,-0.000680234,-0.275939,0.00222945,0.00930171,1833,1492,18.0317,-13.2697
616,-468,18.0208,12.8789,0.00322992,-0.00104613,-0.000933926,0.003425,-0.00124121,-0.205918,0.00279065,0.00920298,1840,1492,18.0207,-12.879
623,-468,18.0186,12.4998,0.00387754,-0.00177865,-0.00087917,0.00401104,-0.00191215,-0.1507,0.00349059,0.010392,1847,1492,18.0186,-12.4998
630,-468,18.0253,12.1003,0.00462371,-0.00255834,-0.000805584,0.00471296,-0.00264759,-0.11034,0.00430502,0.0107946,1854,1492,18.0253,-12.1004
637,-468,18,11.6854,0.00548285,-0.00321978,-0.000784211,0.00555295,-0.00328988,-0.0891548,0.00516084,0.0145656,1861,1492,18,-11.6855
644,-468,18.0656,11.3965,0.00640506,-0.0039552,-0.000805797,0.00646736,-0.0040175,-0.0771592,0.00610827,0.0427952,1868,1492,18.0656,-11.3965
651,-468,18.2782,11.0715,0,0,0,0,0,0,0,-1,1875,1492,18.2782,-11.0716
658,-468,16.4969,10.0774,0,0,0,0,0,0,0,-1,1882,1492,16.497,-10.0774
665,-468,15.4673,8.59546,0,0,0,0,0,0,0,-1,1889,1492,15.4672,-8.59548
672,-468,9.96814,3.61133,0,0,0,0,0,0,0,-1,1896,1492,9.96817,-3.61139
679,-468,11.2191,1.91968,0,0,0,0,0,0,0,-1,1903,1492,11.2191,-1.91965
686,-468,11.9252,1.42285,0,0,0,0,0,0,0,-1,1910,1492,11.9252,-1.42291
693,-468,0,0,0,0,0,0,0,0,0,-1,1917,1492,0,0
700,-468,0,0,0,0,0,0,0,0,0,-1,1924,1492,0,0
707,-468,0,0,0,0,0,0,0,0,0,-1,1931,1492,0,0
714,-468,0,0,0,0,0,0,0,0,0,-1,1938,1492,0,0
721,-468,0,0,0,0,0,0,0,0,0,-1,1945,1492,0,0
728,-468,0,0,0,0,0,0,0,0,0,-1,1952,1492,0,0
735,-468,0,0,0,0,0,0,0,0,0,-1,1959,1492,0,0
742,-468,0,0,0,0,0,0,0,0,0,-1,1966,1492,0,0
749,-468,0,0,0,0,0,0,0,0,0,-1,1973,1492,0,0
756,-468,0,0,0,0,0,0,0,0,0,-1,1980,1492,0,0
763,-468,0,0,0,0,0,0,0,0,0,-1,1987,1492,0,0
770,-468,0,0,0,0,0,0,0,0,0,-1,1994,1492,0,0
777,-468,0,0,0,0,0,0,0,0,0,-1,2001,1492,0,0
784,-468,0,0,0,0,0,0,0,0,0,-1,2008,1492,0,0
791,-468,0,0,0,0,0,0,0,0,0,-1,2015,1492,0,0
798,-468,0,0,0,0,0,0,0,0,0,-1,2022,1492,0,0
805,-468,0,0,0,0,0,0,0,0,0,-1,2029,1492,0,0
812,-468,0,0,0,0,0,0,0,0,0,-1,2036,1492,0,0
-700,-475,0,0,0,0,0,0,0,0,0,-1,524,1499,0,0
-693,-475,0,0,0,0,0,0,0,0,0,-1,531,1499,0,0
-686,-475,0,0,0,0,0,0,0,0,0,-1,538,1499,0,0
-679,-475,0,0,0,0,0,0,0,0,0,-1,545,1499,0,0
-672,-475,0,0,0,0,0,0,0,0,0,-1,552,1499,0,0
-665,-475,0,0,0,0,0,0,0,0,0,-1,559,1499,0,0
-658,-475,0,0,0,0,0,0,0,0,0,-1,566,1499,0,0
-651,-475,0,0,0,0,0,0,0,0,0,-1,573,1499,0,0
-644,-475,0,0,0,0,0,0,0,0,0,-1,580,1499,0,0
-637,-475,0,0,0,0,0,0,0,0,0,-1,587,1499,0,0
-630,-475,0,0,0,0,0,0,0,0,0,-1,594,1499,0,0
-623,-475,0,0,0,0,0,0,0,0,0,-1,601,1499,0,0
-616,-475,0,0,0,0,0,0,0,0,0,-1,608,1499,0,0
-609,-475,0,0,0,0,0,0,0,0,0,-1,615,1499,0,0
-602,-475,0,0,0,0,0,0,0,0,0,-1,622,1499,0,0
-595,-475,0,0,0,0,0,0,0,0,0,-1,629,1499,0,0
-588,-475,0,0,0,0,0,0,0,0,0,-1,636,1499,0,0
-581,-475,0,0,0,0,0,0,0,0,0,-1,643,1499,0,0
-574,-475,0,0,0,0,0,0,0,0,0,-1,650,1499,0,0
-567,-475,0,0,0,0,0,0,0,0,0,-1,657,1499,0,0
-560,-475,-9.42731,9.29517,0,0,0,0,0,0,0,-1,664,1499,-9.42731,-9.29519
-553,-475,-8.15131,8.78369,0,0,0,0,0,0,0,-1,671,1499,-8.15131,-8.78367
-546,-475,-8.41254,8.20654,0,0,0,0,0,0,0,-1,678,1499,-8.41251,-8.20655
-539,-475,-4.7345,4.17419,0,0,0,0,0,0,0,-1,685,1499,-4.73449,-4.17418
-532,-475,-7.07379,4.25024,0,0,0,0,0,0,0,-1,692,1499,-7.07378,-4.2503
-525,-475,-6.03851,5.6167,0,0,0,0,0,0,0,-1,699,1499,-6.03849,-5.61674
-518,-475,-5.60608,8.01575,0,0,0,0,0,0,0,-1,706,1499,-5.60609,-8.01577
-511,-475,-5.22876,8.96655,0.0121418,0.00741963,0.00913918,0.0192199,0.000341453,0.65899,0.012701,0.0461769,713,1499,-5.22879,-8.96656
-504,-475,-4.69208,9.9845,0.0076385,0.00462216,0.00565742,0.0119853,0.000275332,0.655136,0.00790004,0.0351091,720,1499,-4.69208,-9.98445
-497,-475,-4.7254,10.4186,0.0046652,0.00275648,0.00335063,0.00719474,0.000226946,0.646657,0.00472266,0.0243829,727,1499,-4.72543,-10.4186
-490,-475,-4.73242,10.7871,0.00272086,0.00153902,0.00192947,0.00414787,0.000112006,0.636802,0.00272868,0.0099799,734,1499,-4.73242,-10.7871
-483,-475,-4.74078,11.2537,0.00159729,0.000903807,0.00111434,0.00241759,8.35099e-05,0.634564,0.00158462,0.00877642,741,1499,-4.74076,-11.2536
-476,-475,-4.75226,11.6702,0.00106741,0.000643542,0.000780877,0.0016646,4.63518e-05,0.652887,0.00109461,0.00987728,748,1499,-4.75225,-11.6702
-469,-475,-4.75787,12.0966,0.000830663,0.000525676,0.000663246,0.00135872,-2.38162e-06,0.672402,0.000906609,0.0122833,755,1499,-4.75789,-12.0966
-462,-475,-4.73169,12.5223,0.000987095,0.000338734,0.000875444,0.00159645,-0.000270625,0.608074,0.00116504,0.0175153,762,1499,-4.73167,-12.5224
-455,-475,-4.74701,12.9294,0.00131161,0.000218068,0.00107864,0.00197414,-0.000444467,0.550819,0.00148657,0.0152028,769,1499,-4.74704,-12.9294
-448,-475,-4.78809,13.3717,0.00194393,0.000304889,0.00160722,0.0029285,-0.00067969,0.549631,0.00221396,0.0135009,776,1499,-4.78806,-13.3717
-441,-475,-4.80878,13.827,0.00274101,0.00023588,0.00224195,0.00405657,-0.00107968,0.530651,0.00312703,0.0167208,783,1499,-4.80878,-13.8271
-434,-475,-4.79553,14.2246,0.00340994,-4.43862e-05,0.0027996,0.00497228,-0.00160673,0.50901,0.0039606,0.010793,790,1499,-4.79551,-14.2246
-427,-475,-4.74054,14.7288,0.00385518,-0.000506116,0.00326422,0.00560013,-0.00225107,0.49092,0.00466834,0.0219654,797,1499,-4.74052,-14.7287
-420,-475,-4.63245,15.2111,0.00430056,-0.00110565,0.0038187,0.00627605,-0.00308114,0.477407,0.00550634,0.0376175,804,1499,-4.63247,-15.2111
-413,-475,-4.37988,15.7935,0,0,0,0,0,0,0,-1,811,1499,-4.37989,-15.7935
-406,-475,-2.56116,12.4956,0,0,0,0,0,0,0,-1,818,1499,-2.56116,-12.4956
-399,-475,-1.39667,6.1615,0,0,0,0,0,0,0,-1,825,1499,-1.39664,-6.16155
-392,-475,0.217163,8.61389,0,0,0,0,0,0,0,-1,832,1499,0.217167,-8.6139
-385,-475,1.18372,2.73999,0,0,0,0,0,0,0,-1,839,1499,1.18372,-2.73995
-378,-475,1.31409,2.90149,0,0,0,0,0,0,0,-1,846,1499,1.31411,-2.90151
-371,-475,2.3476,3.31116,0,0,0,0,0,0,0,-1,853,1499,2.34761,-3.31121
-364,-475,1.04462,9.05823,0,0,0,0,0,0,0,-1,860,1499,1.04461,-9.05825
-357,-475,-0.262756,7.97205,0,0,0,0,0,0,0,-1,867,1499,-0.262784,-7.97205
-350,-475,-2.77173,4.35486,0,0,0,0,0,0,0,-1,874,1499,-2.77175,-4.35491
-343,-475,-6.81641,-1.95203,0,0,0,0,0,0,0,-1,881,1499,-6.81643,1.95198
-336,-475,0,0,0,0,0,0,0,0,0,-1,888,1499,0,0
-329,-475,0,0,0,0,0,0,0,0,0,-1,895,1499,0,0
-322,-475,0,0,0,0,0,0,0,0,0,-1,902,1499,0,0
-315,-475,0,0,0,0,0,0,0,0,0,-1,909,1499,0,0
-308,-475,0,0,0,0,0,0,0,0,0,-1,916,1499,0,0
-301,-475,0,0,0,0,0,0,0,0,0,-1,923,1499,0,0
-294,-475,0,0,0,0,0,0,0,0,0,-1,930,1499,0,0
-287,-475,0,0,0,0,0,0,0,0,0,-1,937,1499,0,0
-280,-475,0,0,0,0,0,0,0,0,0,-1,944,1499,0,0
-273,-475,0,0,0,0,0,0,0,0,0,-1,951,1499,0,0
-266,-475,0,0,0,0,0,0,0,0,0,-1,958,1499,0,0
-259,-475,0,0,0,0,0,0,0,0,0,-1,965,1499,0,0
-252,-475,0,0,0,0,0,0,0,0,0,-1,972,1499,0,0
-245,-475,0,0,0,0,0,0,0,0,0,-1,979,1499,0,0
-238,-475,0,0,0,0,0,0,0,0,0,-1,986,1499,0,0
-231,-475,0,0,0,0,0,0,0,0,0,-1,993,1499,0,0
-224,-475,0,0,0,0,0,0,0,0,0,-1,1000,1499,0,0
-217,-475,0,0,0,0,0,0,0,0,0,-1,1007,1499,0,0
-210,-475,0,0,0,0,0,0,0,0,0,-1,1014,1499,0,0
-203,-475,0,0,0,0,0,0,0,0,0,-1,1021,1499,0,0
-196,-475,0,0,0,0,0,0,0,0,0,-1,1028,1499,0,0
-189,-475,0,0,0,0,0,0,0,0,0,-1,1035,1499,0,0
-182,-475,0,0,0,0,0,0,0,0,0,-1,1042,1499,0,0
-175,-475,0,0,0,0,0,0,0,0,0,-1,1049,1499,0,0
-168,-475,0,0,0,0,0,0,0,0,0,-1,1056,1499,0,0
-161,-475,0,0,0,0,0,0,0,0,0,-1,1063,1499,0,0
-154,-475,0,0,0,0,0,0,0,0,0,-1,1070,1499,0,0
-147,-475,0,0,0,0,0,0,0,0,0,-1,1077,1499,0,0
-140,-475,0,0,0,0,0,0,0,0,0,-1,1084,1499,0,0
-133,-475,0,0,0,0,0,0,0,0,0,-1,1091,1499,0,0
-126,-475,0,0,0,0,0,0,0,0,0,-1,1098,1499,0,0
-119,-475,0,0,0,0,0,0,0,0,0,-1,1105,1499,0,0
-112,-475,0,0,0,0,0,0,0,0,0,-1,1112,1499,0,0
-105,-475,0,0,0,0,0,0,0,0,0,-1,1119,1499,0,0
-98,-475,0,0,0,0,0,0,0,0,0,-1,1126,1499,0,0
-91,-475,0,0,0,0,0,0,0,0,0,-1,1133,1499,0,0
-84,-475,0,0,0,0,0,0,0,0,0,-1,1140,1499,0,0
-77,-475,0,0,0,0,0,0,0,0,0,-1,1147,1499,0,0
-70,-475,0,0,0,0,0,0,0,0,0,-1,1154,1499,0,0
-63,-475,0,0,0,0,0,0,0,0,0,-1,1161,1499,0,0
-56,-475,0,0,0,0,0,0,0,0,0,-1,1168,1499,0,0
-49,-475,0,0,0,0,0,0,0,0,0,-1,1175,1499,0,0
-42,-475,0,0,0,0,0,0,0,0,0,-1,1182,1499,0,0
-35,-475,0,0,0,0,0,0,0,0,0,-1,1189,1499,0,0
-28,-475,0,0,0,0,0,0,0,0,0,-1,1196,1499,0,0
-21,-475,0,0,0,0,0,0,0,0,0,-1,1203,1499,0,0
-14,-475,0,0,0,0,0,0,0,0,0,-1,1210,1499,0,0
-7,-475,0,0,0,0,0,0,0,0,0,-1,1217,1499,0,0
0,-475,0,0,0,0,0,0,0,0,0,-1,1224,1499,0,0
7,-475,0,0,0,0,0,0,0,0,0,-1,1231,1499,0,0
14,-475,0,0,0,0,0,0,0,0,0,-1,1238,1499,0,0
21,-475,0,0,0,0,0,0,0,0,0,-1,1245,1499,0,0
28,-475,0,0,0,0,0,0,0,0,0,-1,1252,1499,0,0
35,-475,0,0,0,0,0,0,0,0,0,-1,1259,1499,0,0
42,-475,0,0,0,0,0,0,0,0,0,-1,1266,1499,0,0
49,-475,0,0,0,0,0,0,0,0,0,-1,1273,1499,0,0
56,-475,0,0,0,0,0,0,0,0,0,-1,1280,1499,0,0
63,-475,0,0,0,0,0,0,0,0,0,-1,1287,1499,0,0
70,-475,0,0,0,0,0,0,0,0,0,-1,1294,1499,0,0
77,-475,0,0,0,0,0,0,0,0,0,-1,1301,1499,0,0
84,-475,0,0,0,0,0,0,0,0,0,-1,1308,1499,0,0
91,-475,0,0,0,0,0,0,0,0,0,-1,1315,1499,0,0
98,-475,0,0,0,0,0,0,0,0,0,-1,1322,1499,0,0
105,-475,0,0,0,0,0,0,0,0,0,-1,1329,1499,0,0
112,-475,0,0,0,0,0,0,0,0,0,-1,1336,1499,0,0
119,-475,0,0,0,0,0,0,0,0,0,-1,1343,1499,0,0
126,-475,0,0,0,0,0,0,0,0,0,-1,1350,1499,0,0
133,-475,0,0,0,0,0,0,0,0,0,-1,1357,1499,0,0
140,-475,0,0,0,0,0,0,0,0,0,-1,1364,1499,0,0
147,-475,0,0,0,0,0,0,0,0,0,-1,1371,1499,0,0
154,-475,0,0,0,0,0,0,0,0,0,-1,1378,1499,0,0
161,-475,0,0,0,0,0,0,0,0,0,-1,1385,1499,0,0
168,-475,0,0,0,0,0,0,0,0,0,-1,1392,1499,0,0
175,-475,0,0,0,0,0,0,0,0,0,-1,1399,1499,0,0
182,-475,0,0,0,0,0,0,0,0,0,-1,1406,1499,0,0
189,-475,0,0,0,0,0,0,0,0,0,-1,1413,1499,0,0
196,-475,0,0,0,0,0,0,0,0,0,-1,1420,1499,0,0
203,-475,0,0,0,0,0,0,0,0,0,-1,1427,1499,0,0
210,-475,0,0,0,0,0,0,0,0,0,-1,1434,1499,0,0
217,-475,0,0,0,0,0,0,0,0,0,-1,1441,1499,0,0
224,-475,0,0,0,0,0,0,0,0,0,-1,1448,1499,0,0
231,-475,0,0,0,0,0,0,0,0,0,-1,1455,1499,0,0
238,-475,0,0,0,0,0,0,0,0,0,-1,1462,1499,0,0
245,-475,0,0,0,0,0,0,0,0,0,-1,1469,1499,0,0
252,-475,0,0,0,0,0,0,0,0,0,-1,1476,1499,0,0
259,-475,0,0,0,0,0,0,0,0,0,-1,1483,1499,0,0
266,-475,0,0,0,0,0,0,0,0,0,-1,1490,1499,0,0
273,-475,0,0,0,0,0,0,0,0,0,-1,1497,1499,0,0
280,-475,0,0,0,0,0,0,0,0,0,-1,1504,1499,0,0
287,-475,0,0,0,0,0,0,0,0,0,-1,1511,1499,0,0
294,-475,0,0,0,0,0,0,0,0,0,-1,1518,1499,0,0
301,-475,0,0,0,0,0,0,0,0,0,-1,1525,1499,0,0
308,-475,0,0,0,0,0,0,0,0,0,-1,1532,1499,0,0
315,-475,0,0,0,0,0,0,0,0,0,-1,1539,1499,0,0
322,-475,0,0,0,0,0,0,0,0,0,-1,1546,1499,0,0
329,-475,0,0,0,0,0,0,0,0,0,-1,1553,1499,0,0
336,-475,0,0,0,0,0,0,0,0,0,-1,1560,1499,0,0
343,-475,0,0,0,0,0,0,0,0,0,-1,1567,1499,0,0
350,-475,0,0,0,0,0,0,0,0,0,-1,1574,1499,0,0
357,-475,0,0,0,0,0,0,0,0,0,-1,1581,1499,0,0
364,-475,0,0,0,0,0,0,0,0,0,-1,1588,1499,0,0
371,-475,0,0,0,0,0,0,0,0,0,-1,1595,1499,0,0
378,-475,0,0,0,0,0,0,0,0,0,-1,1602,1499,0,0
385,-475,0,0,0,0,0,0,0,0,0,-1,1609,1499,0,0
392,-475,0,0,0,0,0,0,0,0,0,-1,1616,1499,0,0
399,-475,0,0,0,0,0,0,0,0,0,-1,1623,1499,0,0
406,-475,0,0,0,0,0,0,0,0,0,-1,1630,1499,0,0
413,-475,0,0,0,0,0,0,0,0,0,-1,1637,1499,0,0
420,-475,0,0,0,0,0,0,0,0,0,-1,1644,1499,0,0
427,-475,0,0,0,0,0,0,0,0,0,-1,1651,1499,0,0
434,-475,0,0,0,0,0,0,0,0,0,-1,1658,1499,0,0
441,-475,0,0,0,0,0,0,0,0,0,-1,1665,1499,0,0
448,-475,0,0,0,0,0,0,0,0,0,-1,1672,1499,0,0
455,-475,0,0,0,0,0,0,0,0,0,-1,1679,1499,0,0
462,-475,12.6372,0.275391,0,0,0,0,0,0,0,-1,1686,1499,12.6372,-0.27536
469,-475,15.6437,2.28296,0,0,0,0,0,0,0,-1,1693,1499,15.6437,-2.28293
476,-475,15.3302,2.71436,0,0,0,0,0,0,0,-1,1700,1499,15.3303,-2.7143
483,-475,10.7461,5.91479,0,0,0,0,0,0,0,-1,1707,1499,10.7461,-5.91476
490,-475,11.9305,4.4364,0,0,0,0,0,0,0,-1,1714,1499,11.9305,-4.43644
497,-475,15.3451,4.3479,0,0,0,0,0,0,0,-1,1721,1499,15.3451,-4.34789
504,-475,16.9646,7.71265,0,0,0,0,0,0,0,-1,1728,1499,16.9646,-7.71265
511,-475,18.941,12.7572,0,0,0,0,0,0,0,-1,1735,1499,18.941,-12.7572
518,-475,17.0021,13.8564,0,0,0,0,0,0,0,-1,1742,1499,17.0021,-13.8564
525,-475,17.5637,15.2103,0,0,0,0,0,0,0,-1,1749,1499,17.5637,-15.2103
532,-475,17.4496,16.3982,0,0,0,0,0,0,0,-1,1756,1499,17.4496,-16.3982
539,-475,17.5282,16.4883,0.000577176,-0.0194146,0.0115973,0.0058919,-0.0247293,0.429713,0.0187611,0.0437889,1763,1499,17.5282,-16.4883
546,-475,17.6594,16.7316,0.000600292,-0.0137009,0.00837722,0.00446372,-0.0175643,0.432115,0.0134467,0.0431718,1770,1499,17.6595,-16.7315
553,-475,17.7891,16.4585,0.000816584,-0.0094109,0.00581781,0.00344863,-0.0120429,0.424858,0.00939166,0.0283804,1777,1499,17.7891,-16.4585
560,-475,17.5731,16.144,0.00104218,-0.00613499,0.00377071,0.00265899,-0.0077518,0.40507,0.00624581,0.0221603,1784,1499,17.5731,-16.1441
567,-475,17.6925,15.6572,0.00114539,-0.00362349,0.0022025,0.00200696,-0.00448506,0.372878,0.00383811,0.0145527,1791,1499,17.6925,-15.6572
574,-475,17.6632,15.2546,0.00124627,-0.00199384,0.00111947,0.00159542,-0.002343,0.302333,0.00228746,0.0140634,1798,1499,17.6632,-15.2547
581,-475,17.6626,14.8872,0.00142932,-0.00102754,0.000336206,0.0014745,-0.00107272,0.133573,0.00147672,0.0119051,1805,1499,17.6626,-14.8873
588,-475,17.6571,14.5212,0.00179615,-0.000351228,-0.000391958,0.00186546,-0.000420535,-0.175013,0.00140496,0.0101667,1812,1499,17.657,-14.5213
595,-475,17.6571,14.1233,0.00222092,3.47965e-06,-0.000829347,0.00249678,-0.000272386,-0.321117,0.00176235,0.0116654,1819,1499,17.657,-14.1233
602,-475,17.649,13.6821,0.00270239,-0.000305263,-0.00106187,0.0030395,-0.000642378,-0.307409,0.00227095,0.0134597,1826,1499,17.6491,-13.6821
609,-475,17.6343,13.2788,0.00330444,-0.000849793,-0.00114321,0.00359826,-0.00114361,-0.251568,0.00285737,0.0115221,1833,1499,17.6343,-13.2788
616,-475,17.6151,12.9092,0.00406924,-0.00152092,-0.00121311,0.00432114,-0.00177282,-0.204741,0.00361944,0.0100485,1840,1499,17.6151,-12.9092
623,-475,17.6187,12.5146,0.00499992,-0.00234082,-0.00125721,0.00520927,-0.00255016,-0.165002,0.00456675,0.0104986,1847,1499,17.6187,-12.5146
630,-475,17.6444,12.1118,0.00606406,-0.00321893,-0.00128005,0.00623733,-0.00339221,-0.134548,0.00563992,0.0127355,1854,1499,17.6444,-12.1119
637,-475,17.6566,11.6827,0.00731519,-0.00401765,-0.00135521,0.00747499,-0.00417746,-0.117378,0.00681675,0.0247934,1861,1499,17.6567,-11.6827
644,-475,17.6996,11.271,0,0,0,0,0,0,0,-1,1868,1499,17.6996,-11.271
651,-475,11.7965,7.57593,0,0,0,0,0,0,0,-1,1875,1499,11.7965,-7.5759
658,-475,14.6708,8.80322,0,0,0,0,0,0,0,-1,1882,1499,14.6708,-8.8032
665,-475,9.33435,5.43335,0,0,0,0,0,0,0,-1,1889,1499,9.33439,-5.43332
672,-475,9.38635,1.10474,0,0,0,0,0,0,0,-1,1896,1499,9.38629,-1.10475
679,-475,12.2594,1.31079,0,0,0,0,0,0,0,-1,1903,1499,12.2594,-1.31077
686,-475,0,0,0,0,0,0,0,0,0,-1,1910,1499,0,0
693,-475,0,0,0,0,0,0,0,0,0,-1,1917,1499,0,0
700,-475,0,0,0,0,0,0,0,0,0,-1,1924,1499,0,0
707,-475,0,0,0,0,0,0,0,0,0,-1,1931,1499,0,0
714,-475,0,0,0,0,0,0,0,0,0,-1,1938,1499,0,0
721,-475,0,0,0,0,0,0,0,0,0,-1,1945,1499,0,0
728,-475,0,0,0,0,0,0,0,0,0,-1,1952,1499,0,0
735,-475,0,0,0,0,0,0,0,0,0,-1,1959,1499,0,0
742,-475,0,0,0,0,0,0,0,0,0,-1,1966,1499,0,0
749,-475,0,0,0,0,0,0,0,0,0,-1,1973,1499,0,0
756,-475,0,0,0,0,0,0,0,0,0,-1,1980,1499,0,0
763,-475,0,0,0,0,0,0,0,0,0,-1,1987,1499,0,0
770,-475,0,0,0,0,0,0,0,0,0,-1,1994,1499,0,0
777,-475,0,0,0,0,0,0,0,0,0,-1,2001,1499,0,0
784,-475,0,0,0,0,0,0,0,0,0,-1,2008,1499,0,0
791,-475,0,0,0,0,0,0,0,0,0,-1,2015,1499,0,0
798,-475,0,0,0,0,0,0,0,0,0,-1,2022,1499,0,0
805,-475,0,0,0,0,0,0,0,0,0,-1,2029,1499,0,0
812,-475,0,0,0,0,0,0,0,0,0,-1,2036,1499,0,0
-700,-482,0,0,0,0,0,0,0,0,0,-1,524,1506,0,0
-693,-482,0,0,0,0,0,0,0,0,0,-1,531,1506,0,0
-686,-482,0,0,0,0,0,0,0,0,0,-1,538,1506,0,0
-679,-482,0,0,0,0,0,0,0,0,0,-1,545,1506,0,0
-672,-482,0,0,0,0,0,0,0,0,0,-1,552,1506,0,0
-665,-482,0,0,0,0,0,0,0,0,0,-1,559,1506,0,0
-658,-482,0,0,0,0,0,0,0,0,0,-1,566,1506,0,0
-651,-482,0,0,0,0,0,0,0,0,0,-1,573,1506,0,0
-644,-482,0,0,0,0,0,0,0,0,0,-1,580,1506,0,0
-637,-482,0,0,0,0,0,0,0,0,0,-1,587,1506,0,0
-630,-482,0,0,0,0,0,0,0,0,0,-1,594,1506,0,0
-623,-482,0,0,0,0,0,0,0,0,0,-1,601,1506,0,0
-616,-482,0,0,0,0,0,0,0,0,0,-1,608,1506,0,0
-609,-482,0,0,0,0,0,0,0,0,0,-1,615,1506,0,0
-602,-482,0,0,0,0,0,0,0,0,0,-1,622,1506,0,0
-595,-482,0,0,0,0,0,0,0,0,0,-1,629,1506,0,0
-588,-482,0,0,0,0,0,0,0,0,0,-1,636,1506,0,0
-581,-482,0,0,0,0,0,0,0,0,0,-1,643,1506,0,0
-574,-482,0,0,0,0,0,0,0,0,0,-1,650,1506,0,0
-567,-482,0,0,0,0,0,0,0,0,0,-1,657,1506,0,0
-560,-482,0,0,0,0,0,0,0,0,0,-1,664,1506,0,0
-553,-482,-9.06055,9.34314,0,0,0,0,0,0,0,-1,671,1506,-9.06056,-9.34312
-546,-482,-4.08624,8.34241,0,0,0,0,0,0,0,-1,678,1506,-4.08624,-8.3424
-539,-482,-4.29877,2.73499,0,0,0,0,0,0,0,-1,685,1506,-4.29879,-2.73494
-532,-482,-3.63611,4.23987,0,0,0,0,0,0,0,-1,692,1506,-3.63609,-4.23983
-525,-482,-6.32782,4.88269,0,0,0,0,0,0,0,-1,699,1506,-6.32781,-4.88274
-518,-482,-4.74774,5.74902,0,0,0,0,0,0,0,-1,706,1506,-4.74771,-5.74908
-511,-482,-5.34204,8.67139,0,0,0,0,0,0,0,-1,713,1506,-5.34206,-8.6714
-504,-482,-4.63434,9.83215,0.00891279,0.00520131,0.00648465,0.013802,0.00031209,0.646036,0.00909909,0.0431958,720,1506,-4.63436,-9.83212
-497,-482,-4.21228,10.4501,0.00499105,0.00274669,0.00351483,0.00755849,0.000179251,0.630878,0.00498032,0.0363626,727,1506,-4.21228,-10.4501
-490,-482,-4.32361,10.7634,0.0025133,0.00112592,0.00173409,0.00368731,-4.80759e-05,0.595131,0.00247438,0.0237,734,1506,-4.32361,-10.7635
-483,-482,-4.31573,11.2383,0.00105029,0.000262156,0.000696449,0.00145643,-0.000143984,0.527944,0.00102233,0.00888004,741,1506,-4.31571,-11.2383
-476,-482,-4.31781,11.6768,0.000380725,-0.000111561,0.000233626,0.000473946,-0.000204782,0.379657,0.000402004,0.00927646,748,1506,-4.31781,-11.6767
-469,-482,-4.32776,12.1219,0.000106466,-0.000202714,9.08677e-05,0.000131194,-0.000227443,0.265699,0.00020953,0.0113961,755,1506,-4.32778,-12.122
-462,-482,-4.32251,12.5474,0.000262873,-0.000374716,0.000284879,0.000371614,-0.000483456,0.364638,0.000495081,0.0130787,762,1506,-4.32254,-12.5474
-455,-482,-4.32745,12.9557,0.000563714,-0.000451563,0.000450452,0.000734753,-0.000622603,0.36289,0.000784561,0.0133257,769,1506,-4.32748,-12.9557
-448,-482,-4.35315,13.4048,0.00117836,-0.000208181,0.000975528,0.00168186,-0.000711689,0.476476,0.00141925,0.0139189,776,1506,-4.35314,-13.4048
-441,-482,-4.37335,13.8423,0.00204593,1.94628e-05,0.00171655,0.00302598,-0.000960589,0.51878,0.00240241,0.0134994,783,1506,-4.37337,-13.8422
-434,-482,-4.38403,14.267,0.00288055,0.000197719,0.00245356,0.00433545,-0.00125718,0.535237,0.00338802,0.0149115,790,1506,-4.38402,-14.267
-427,-482,-4.38959,14.7076,0.0035851,0.000412291,0.00317122,0.00554458,-0.00154719,0.553474,0.0043058,0.0173819,797,1506,-4.38962,-14.7076
-420,-482,-4.30371,15.3627,0.00433475,0.000677646,0.00403437,0.00693562,-0.00192322,0.572624,0.00538063,0.0394537,804,1506,-4.30371,-15.3626
-413,-482,-4.07086,16.0002,0,0,0,0,0,0,0,-1,811,1506,-4.07086,-16.0002
-406,-482,-2.51373,12.7556,0,0,0,0,0,0,0,-1,818,1506,-2.51376,-12.7556
-399,-482,-1.3822,9.22595,0,0,0,0,0,0,0,-1,825,1506,-1.38221,-9.22598
-392,-482,-1.06836,9.22729,0,0,0,0,0,0,0,-1,832,1506,-1.06835,-9.2273
-385,-482,0.0647583,8.90649,0,0,0,0,0,0,0,-1,839,1506,0.0647778,-8.90644
-378,-482,0.215698,5.96948,0,0,0,0,0,0,0,-1,846,1506,0.215681,-5.9695
-371,-482,-0.10907,8.10437,0,0,0,0,0,0,0,-1,853,1506,-0.109063,-8.10433
-364,-482,-0.154968,10.5032,0,0,0,0,0,0,0,-1,860,1506,-0.154976,-10.5032
-357,-482,2.14807,4.60144,0,0,0,0,0,0,0,-1,867,1506,2.14807,-4.60144
-350,-482,-7.5813,-1.45935,0,0,0,0,0,0,0,-1,874,1506,-7.58133,1.45937
-343,-482,-7.19983,-1.26416,0,0,0,0,0,0,0,-1,881,1506,-7.19981,1.26414
-336,-482,-6.78491,-1.18127,0,0,0,0,0,0,0,-1,888,1506,-6.78488,1.18125
-329,-482,0,0,0,0,0,0,0,0,0,-1,895,1506,0,0
-322,-482,0,0,0,0,0,0,0,0,0,-1,902,1506,0,0
-315,-482,0,0,0,0,0,0,0,0,0,-1,909,1506,0,0
-308,-482,0,0,0,0,0,0,0,0,0,-1,916,1506,0,0
-301,-482,0,0,0,0,0,0,0,0,0,-1,923,1506,0,0
-294,-482,0,0,0,0,0,0,0,0,0,-1,930,1506,0,0
-287,-482,0,0,0,0,0,0,0,0,0,-1,937,1506,0,0
-280,-482,0,0,0,0,0,0,0,0,0,-1,944,1506,0,0
-273,-482,0,0,0,0,0,0,0,0,0,-1,951,1506,0,0
-266,-482,0,0,0,0,0,0,0,0,0,-1,958,1506,0,0
-259,-482,0,0,0,0,0,0,0,0,0,-1,965,1506,0,0
-252,-482,0,0,0,0,0,0,0,0,0,-1,972,1506,0,0
-245,-482,0,0,0,0,0,0,0,0,0,-1,979,1506,0,0
-238,-482,0,0,0,0,0,0,0,0,0,-1,986,1506,0,0
-231,-482,0,0,0,0,0,0,0,0,0,-1,993,1506,0,0
-224,-482,0,0,0,0,0,0,0,0,0,-1,1000,1506,0,0
-217,-482,0,0,0,0,0,0,0,0,0,-1,1007,1506,0,0
-210,-482,0,0,0,0,0,0,0,0,0,-1,1014,1506,0,0
-203,-482,0,0,0,0,0,0,0,0,0,-1,1021,1506,0,0
-196,-482,0,0,0,0,0,0,0,0,0,-1,1028,1506,0,0
-189,-482,0,0,0,0,0,0,0,0,0,-1,1035,1506,0,0
-182,-482,0,0,0,0,0,0,0,0,0,-1,1042,1506,0,0
-175,-482,0,0,0,0,0,0,0,0,0,-1,1049,1506,0,0
-168,-482,0,0,0,0,0,0,0,0,0,-1,1056,1506,0,0
-161,-482,0,0,0,0,0,0,0,0,0,-1,1063,1506,0,0
-154,-482,0,0,0,0,0,0,0,0,0,-1,1070,1506,0,0
-147,-482,0,0,0,0,0,0,0,0,0,-1,1077,1506,0,0
-140,-482,0,0,0,0,0,0,0,0,0,-1,1084,1506,0,0
-133,-482,0,0,0,0,0,0,0,0,0,-1,1091,1506,0,0
-126,-482,0,0,0,0,0,0,0,0,0,-1,1098,1506,0,0
-119,-482,0,0,0,0,0,0,0,0,0,-1,1105,1506,0,0
-112,-482,0,0,0,0,0,0,0,0,0,-1,1112,1506,0,0
-105,-482,0,0,0,0,0,0,0,0,0,-1,1119,1506,0,0
-98,-482,0,0,0,0,0,0,0,0,0,-1,1126,1506,0,0
-91,-482,0,0,0,0,0,0,0,0,0,-1,1133,1506,0,0
-84,-482,0,0,0,0,0,0,0,0,0,-1,1140,1506,0,0
-77,-482,0,0,0,0,0,0,0,0,0,-1,1147,1506,0,0
-70,-482,0,0,0,0,0,0,0,0,0,-1,1154,1506,0,0
-63,-482,0,0,0,0,0,0,0,0,0,-1,1161,1506,0,0
-56,-482,0,0,0,0,0,0,0,0,0,-1,1168,1506,0,0
-49,-482,0,0,0,0,0,0,0,0,0,-1,1175,1506,0,0
-42,-482,0,0,0,0,0,0,0,0,0,-1,1182,1506,0,0
-35,-482,0,0,0,0,0,0,0,0,0,-1,1189,1506,0,0
-28,-482,0,0,0,0,0,0,0,0,0,-1,1196,1506,0,0
-21,-482,0,0,0,0,0,0,0,0,0,-1,1203,1506,0,0
-14,-482,0,0,0,0,0,0,0,0,0,-1,1210,1506,0,0
-7,-482,0,0,0,0,0,0,0,0,0,-1,1217,1506,0,0
0,-482,0,0,0,0,0,0,0,0,0,-1,1224,1506,0,0
7,-482,0,0,0,0,0,0,0,0,0,-1,1231,1506,0,0
14,-482,0,0,0,0,0,0,0,0,0,-1,1238,1506,0,0
21,-482,0,0,0,0,0,0,0,0,0,-1,1245,1506,0,0
28,-482,0,0,0,0,0,0,0,0,0,-1,1252,1506,0,0
35,-482,0,0,0,0,0,0,0,0,0,-1,1259,1506,0,0
42,-482,0,0,0,0,0,0,0,0,0,-1,1266,1506,0,0
49,-482,0,0,0,0,0,0,0,0,0,-1,1273,1506,0,0
56,-482,0,0,0,0,0,0,0,0,0,-1,1280,1506,0,0
63,-482,0,0,0,0,0,0,0,0,0,-1,1287,1506,0,0
70,-482,0,0,0,0,0,0,0,0,0,-1,1294,1506,0,0
77,-482,0,0,0,0,0,0,0,0,0,-1,1301,1506,0,0
84,-482,0,0,0,0,0,0,0,0,0,-1,1308,1506,0,0
91,-482,0,0,0,0,0,0,0,0,0,-1,1315,1506,0,0
98,-482,0,0,0,0,0,0,0,0,0,-1,1322,1506,0,0
105,-482,0,0,0,0,0,0,0,0,0,-1,1329,1506,0,0
112,-482,0,0,0,0,0,0,0,0,0,-1,1336,1506,0,0
119,-482,0,0,0,0,0,0,0,0,0,-1,1343,1506,0,0
126,-482,0,0,0,0,0,0,0,0,0,-1,1350,1506,0,0
133,-482,0,0,0,0,0,0,0,0,0,-1,1357,1506,0,0
140,-482,0,0,0,0,0,0,0,0,0,-1,1364,1506,0,0
147,-482,0,0,0,0,0,0,0,0,0,-1,1371,1506,0,0
154,-482,0,0,0,0,0,0,0,0,0,-1,1378,1506,0,0
161,-482,0,0,0,0,0,0,0,0,0,-1,1385,1506,0,0
168,-482,0,0,0,0,0,0,0,0,0,-1,1392,1506,0,0
175,-482,0,0,0,0,0,0,0,0,0,-1,1399,1506,0,0
182,-482,0,0,0,0,0,0,0,0,0,-1,1406,1506,0,0
189,-482,0,0,0,0,0,0,0,0,0,-1,1413,1506,0,0
196,-482,0,0,0,0,0,0,0,0,0,-1,1420,1506,0,0
203,-482,0,0,0,0,0,0,0,0,0,-1,1427,1506,0,0
210,-482,0,0,0,0,0,0,0,0,0,-1,1434,1506,0,0
217,-482,0,0,0,0,0,0,0,0,0,-1,1441,1506,0,0
224,-482,0,0,0,0,0,0,0,0,0,-1,1448,1506,0,0
231,-482,0,0,0,0,0,0,0,0,0,-1,1455,1506,0,0
238,-482,0,0,0,0,0,0,0,0,0,-1,1462,1506,0,0
245,-482,0,0,0,0,0,0,0,0,0,-1,1469,1506,0,0
252,-482,0,0,0,0,0,0,0,0,0,-1,1476,1506,0,0
259,-482,0,0,0,0,0,0,0,0,0,-1,1483,1506,0,0
266,-482,0,0,0,0,0,0,0,0,0,-1,1490,1506,0,0
273,-482,0,0,0,0,0,0,0,0,0,-1,1497,1506,0,0
280,-482,0,0,0,0,0,0,0,0,0,-1,1504,1506,0,0
287,-482,0,0,0,0,0,0,0,0,0,-1,1511,1506,0,0
294,-482,0,0,0,0,0,0,0,0,0,-1,1518,1506,0,0
301,-482,0,0,0,0,0,0,0,0,0,-1,1525,1506,0,0
308,-482,0,0,0,0,0,0,0,0,0,-1,1532,1506,0,0
315,-482,0,0,0,0,0,0,0,0,0,-1,1539,1506,0,0
322,-482,0,0,0,0,0,0,0,0,0,-1,1546,1506,0,0
329,-482,0,0,0,0,0,0,0,0,0,-1,1553,1506,0,0
336,-482,0,0,0,0,0,0,0,0,0,-1,1560,1506,0,0
343,-482,0,0,0,0,0,0,0,0,0,-1,1567,1506,0,0
350,-482,0,0,0,0,0,0,0,0,0,-1,1574,1506,0,0
357,-482,0,0,0,0,0,0,0,0,0,-1,1581,1506,0,0
364,-482,0,0,0,0,0,0,0,0,0,-1,1588,1506,0,0
371,-482,0,0,0,0,0,0,0,0,0,-1,1595,1506,0,0
378,-482,0,0,0,0,0,0,0,0,0,-1,1602,1506,0,0
385,-482,0,0,0,0,0,0,0,0,0,-1,1609,1506,0,0
392,-482,0,0,0,0,0,0,0,0,0,-1,1616,1506,0,0
399,-482,0,0,0,0,0,0,0,0,0,-1,1623,1506,0,0
406,-482,0,0,0,0,0,0,0,0,0,-1,1630,1506,0,0
413,-482,0,0,0,0,0,0,0,0,0,-1,1637,1506,0,0
420,-482,0,0,0,0,0,0,0,0,0,-1,1644,1506,0,0
427,-482,0,0,0,0,0,0,0,0,0,-1,1651,1506,0,0
434,-482,0,0,0,0,0,0,0,0,0,-1,1658,1506,0,0
441,-482,0,0,0,0,0,0,0,0,0,-1,1665,1506,0,0
448,-482,4.24146,1.55383,0,0,0,0,0,0,0,-1,1672,1506,4.24149,-1.55381
455,-482,12.4122,1.09729,0,0,0,0,0,0,0,-1,1679,1506,12.4122,-1.09734
462,-482,15.0673,3.13135,0,0,0,0,0,0,0,-1,1686,1506,15.0672,-3.13134
469,-482,15.3793,3.46301,0,0,0,0,0,0,0,-1,1693,1506,15.3793,-3.46307
476,-482,8.69751,9.18738,0,0,0,0,0,0,0,-1,1700,1506,8.69753,-9.18739
483,-482,10.0902,7.17432,0,0,0,0,0,0,0,-1,1707,1506,10.0902,-7.1743
490,-482,11.6289,5.4928,0,0,0,0,0,0,0,-1,1714,1506,11.6289,-5.49283
497,-482,15.9539,7.40222,0,0,0,0,0,0,0,-1,1721,1506,15.9538,-7.40219
504,-482,20.4233,12.006,0,0,0,0,0,0,0,-1,1728,1506,20.4233,-12.006
511,-482,18.4937,12.9175,0,0,0,0,0,0,0,-1,1735,1506,18.4936,-12.9174
518,-482,16.6002,13.9679,0,0,0,0,0,0,0,-1,1742,1506,16.6003,-13.9679
525,-482,18.4061,15.5964,0,0,0,0,0,0,0,-1,1749,1506,18.4062,-15.5965
532,-482,17.2599,17.2123,0,0,0,0,0,0,0,-1,1756,1506,17.2599,-17.2123
539,-482,17.3521,17.0414,0.00084412,-0.0147164,0.00904006,0.00499093,-0.0188632,0.430078,0.0145278,0.0365129,1763,1506,17.352,-17.0414
546,-482,17.3285,16.8973,0.000735553,-0.0106677,0.00671588,0.00384366,-0.0137758,0.433448,0.0106978,0.0217602,1770,1506,17.3285,-16.8973
553,-482,17.262,16.4279,0.00083931,-0.00749834,0.00476046,0.00299829,-0.00965732,0.42578,0.00763643,0.019819,1777,1506,17.2619,-16.4278
560,-482,17.2415,16.0819,0.000981334,-0.00498627,0.00314422,0.00233218,-0.00633712,0.405785,0.00518019,0.0134579,1784,1506,17.2415,-16.082
567,-482,17.3033,15.675,0.00109108,-0.00308569,0.00187529,0.00180948,-0.00380409,0.365844,0.00330849,0.0141939,1791,1506,17.3033,-15.6751
574,-482,17.292,15.2878,0.00129191,-0.00176665,0.000896278,0.00153521,-0.00200994,0.26506,0.0020529,0.0127573,1798,1506,17.292,-15.2878
581,-482,17.2722,14.9001,0.00156241,-0.00100278,0.000172393,0.00157394,-0.00101432,0.0668044,0.00150593,0.00970724,1805,1506,17.2722,-14.9001
588,-482,17.2555,14.5234,0.00204506,-0.000482185,-0.00054282,0.00215672,-0.000593843,-0.20287,0.0016713,0.0106126,1812,1506,17.2555,-14.5235
595,-482,17.2484,14.1099,0.00262439,-0.000288005,-0.000984674,0.00292606,-0.000589674,-0.297285,0.00217408,0.016119,1819,1506,17.2484,-14.1099
602,-482,17.2603,13.6815,0.00329322,-0.000645998,-0.00127866,0.00367188,-0.00102465,-0.287904,0.00285151,0.0203194,1826,1506,17.2602,-13.6815
609,-482,17.2417,13.2891,0.00410623,-0.0012294,-0.00146942,0.00448414,-0.00160731,-0.251727,0.00364529,0.0155403,1833,1506,17.2417,-13.289
616,-482,17.2163,12.91,0.00513821,-0.00196022,-0.00165508,0.00550514,-0.00232715,-0.218172,0.0046444,0.0105551,1840,1506,17.2163,-12.91
623,-482,17.2064,12.5311,0.00642519,-0.00287753,-0.0018419,0.00677661,-0.00322894,-0.188523,0.00589651,0.0126402,1847,1506,17.2065,-12.5311
630,-482,17.274,12.1741,0.00789192,-0.00387595,-0.0020159,0.00822767,-0.00421171,-0.165038,0.00730557,0.0260439,1854,1506,17.274,-12.1741
637,-482,17.4501,11.8425,0.00965229,-0.00484708,-0.00224401,0.00999164,-0.00518644,-0.150089,0.00890825,0.0486031,1861,1506,17.45,-11.8425
644,-482,17.5909,11.6163,0,0,0,0,0,0,0,-1,1868,1506,17.5909,-11.6163
651,-482,4.03845,7.05273,0,0,0,0,0,0,0,-1,1875,1506,4.03843,-7.05279
658,-482,10.0278,5.87903,0,0,0,0,0,0,0,-1,1882,1506,10.0279,-5.87902
665,-482,8.15198,3.22229,0,0,0,0,0,0,0,-1,1889,1506,8.15199,-3.22232
672,-482,9.87415,1.3147,0,0,0,0,0,0,0,-1,1896,1506,9.87416,-1.31473
679,-482,0,0,0,0,0,0,0,0,0,-1,1903,1506,0,0
686,-482,0,0,0,0,0,0,0,0,0,-1,1910,1506,0,0
693,-482,0,0,0,0,0,0,0,0,0,-1,1917,1506,0,0
700,-482,0,0,0,0,0,0,0,0,0,-1,1924,1506,0,0
707,-482,0,0,0,0,0,0,0,0,0,-1,1931,1506,0,0
714,-482,0,0,0,0,0,0,0,0,0,-1,1938,1506,0,0
721,-482,0,0,0,0,0,0,0,0,0,-1,1945,1506,0,0
728,-482,0,0,0,0,0,0,0,0,0,-1,1952,1506,0,0
735,-482,0,0,0,0,0,0,0,0,0,-1,1959,1506,0,0
742,-482,0,0,0,0,0,0,0,0,0,-1,1966,1506,0,0
749,-482,0,0,0,0,0,0,0,0,0,-1,1973,1506,0,0
756,-482,0,0,0,0,0,0,0,0,0,-1,1980,1506,0,0
763,-482,0,0,0,0,0,0,0,0,0,-1,1987,1506,0,0
770,-482,0,0,0,0,0,0,0,0,0,-1,1994,1506,0,0
777,-482,0,0,0,0,0,0,0,0,0,-1,2001,1506,0,0
784,-482,0,0,0,0,0,0,0,0,0,-1,2008,1506,0,0
791,-482,0,0,0,0,0,0,0,0,0,-1,2015,1506,0,0
798,-482,0,0,0,0,0,0,0,0,0,-1,2022,1506,0,0
805,-482,0,0,0,0,0,0,0,0,0,-1,2029,1506,0,0
812,-482,0,0,0,0,0,0,0,0,0,-1,2036,1506,0,0
-700,-489,0,0,0,0,0,0,0,0,0,-1,524,1513,0,0
-693,-489,0,0,0,0,0,0,0,0,0,-1,531,1513,0,0
-686,-489,0,0,0,0,0,0,0,0,0,-1,538,1513,0,0
-679,-489,0,0,0,0,0,0,0,0,0,-1,545,1513,0,0
-672,-489,0,0,0,0,0,0,0,0,0,-1,552,1513,0,0
-665,-489,0,0,0,0,0,0,0,0,0,-1,559,1513,0,0
-658,-489,0,0,0,0,0,0,0,0,0,-1,566,1513,0,0
-651,-489,0,0,0,0,0,0,0,0,0,-1,573,1513,0,0
-644,-489,0,0,0,0,0,0,0,0,0,-1,580,1513,0,0
-637,-489,0,0,0,0,0,0,0,0,0,-1,587,1513,0,0
-630,-489,0,0,0,0,0,0,0,0,0,-1,594,1513,0,0
-623,-489,0,0,0,0,0,0,0,0,0,-1,601,1513,0,0
-616,-489,0,0,0,0,0,0,0,0,0,-1,608,1513,0,0
-609,-489,0,0,0,0,0,0,0,0,0,-1,615,1513,0,0
-602,-489,0,0,0,0,0,0,0,0,0,-1,622,1513,0,0
-595,-489,0,0,0,0,0,0,0,0,0,-1,629,1513,0,0
-588,-489,0,0,0,0,0,0,0,0,0,-1,636,1513,0,0
-581,-489,0,0,0,0,0,0,0,0,0,-1,643,1513,0,0
-574,-489,0,0,0,0,0,0,0,0,0,-1,650,1513,0,0
-567,-489,0,0,0,0,0,0,0,0,0,-1,657,1513,0,0
-560,-489,0,0,0,0,0,0,0,0,0,-1,664,1513,0,0
-553,-489,-9.42206,8.5116,0,0,0,0,0,0,0,-1,671,1513,-9.42205,-8.51158
-546,-489,-7.80951,8.18506,0,0,0,0,0,0,0,-1,678,1513,-7.8095,-8.18503
-539,-489,-3.06879,2.82349,0,0,0,0,0,0,0,-1,685,1513,-3.06881,-2.82354
-532,-489,-3.14215,2.5835,0,0,0,0,0,0,0,-1,692,1513,-3.14213,-2.58353
-525,-489,-2.604,4.06274,0,0,0,0,0,0,0,-1,699,1513,-2.60399,-4.06274
-518,-489,-5.94751,7.97607,0,0,0,0,0,0,0,-1,706,1513,-5.94753,-7.97609
-511,-489,-4.2146,9.43323,0,0,0,0,0,0,0,-1,713,1513,-4.2146,-9.43319
-504,-489,-3.64532,10.1857,0,0,0,0,0,0,0,-1,720,1513,-3.64535,-10.1857
-497,-489,-3.6582,10.5198,0.0046431,0.00268356,0.00337106,0.00717389,0.000152771,0.643974,0.00473249,0.0469819,727,1513,-3.65822,-10.5198
-490,-489,-3.74597,10.8265,0.00177895,0.000665471,0.0013154,0.00265058,-0.00020616,0.585206,0.00183963,0.0322608,734,1513,-3.74597,-10.8265
-483,-489,-3.89667,11.2021,0.000154725,-0.000401088,0.000155415,0.00019523,-0.000441592,0.254952,0.000376729,0.0140865,741,1513,-3.89667,-11.2022
-476,-489,-3.89374,11.6776,-0.000578841,-0.000856849,-0.000381908,-0.000311426,-0.00112426,-0.610864,0.000670267,0.00902421,748,1513,-3.89371,-11.6776
-469,-489,-3.89832,12.1239,-0.00083254,-0.000902541,-0.000505338,-0.000360992,-0.00137409,-0.750823,0.000822571,0.0107101,755,1513,-3.89834,-12.1239
-462,-489,-3.90277,12.5537,-0.000618741,-0.00102978,-0.000298559,-0.000461803,-0.00118672,-0.483957,0.000690745,0.0164493,762,1513,-3.90277,-12.5537
-455,-489,-3.93634,12.9883,-0.000282475,-0.001047,-0.000135789,-0.000259073,-0.0010704,-0.170661,0.00064483,0.0198243,769,1513,-3.93631,-12.9882
-448,-489,-3.9552,13.3906,0.000358993,-0.000682397,0.000393237,0.0004908,-0.000814204,0.323415,0.000761117,0.0177326,776,1513,-3.95519,-13.3906
-441,-489,-3.93359,13.8398,0.00130988,-0.000240763,0.00120615,0.00196841,-0.00089929,0.499747,0.00169359,0.0160709,783,1513,-3.93357,-13.8398
-434,-489,-3.97632,14.2723,0.00229148,0.000252587,0.0020534,0.00356457,-0.00102051,0.55499,0.00277971,0.0175265,790,1513,-3.97632,-14.2723
-427,-489,-4.00708,14.7157,0.00319404,0.00087011,0.00291029,0.00516575,-0.0011016,0.595463,0.00386374,0.0187031,797,1513,-4.00708,-14.7156
-420,-489,-3.99976,15.2501,0.00413131,0.00159883,0.00390562,0.00697082,-0.00124068,0.62864,0.00511122,0.0224712,804,1513,-3.99978,-15.2501
-413,-489,-3.67871,15.7321,0,0,0,0,0,0,0,-1,811,1513,-3.67873,-15.732
-406,-489,-3.10559,15.8143,0,0,0,0,0,0,0,-1,818,1513,-3.10556,-15.8143
-399,-489,-1.41241,9.10718,0,0,0,0,0,0,0,-1,825,1513,-1.41244,-9.10722
-392,-489,-1.0368,9.30469,0,0,0,0,0,0,0,-1,832,1513,-1.03682,-9.30466
-385,-489,-1.75165,10.6559,0,0,0,0,0,0,0,-1,839,1513,-1.75165,-10.6559
-378,-489,-0.401428,9.87048,0,0,0,0,0,0,0,-1,846,1513,-0.401415,-9.87047
-371,-489,-1.11633,10.6606,0,0,0,0,0,0,0,-1,853,1513,-1.11633,-10.6606
-364,-489,-0.503113,8.98486,0,0,0,0,0,0,0,-1,860,1513,-0.503097,-8.98482
-357,-489,-0.609924,10.9606,0,0,0,0,0,0,0,-1,867,1513,-0.609947,-10.9605
-350,-489,-7.94659,-0.358887,0,0,0,0,0,0,0,-1,874,1513,-7.94657,0.358912
-343,-489,-7.49323,-0.437866,0,0,0,0,0,0,0,-1,881,1513,-7.49322,0.437823
-336,-489,-7.02332,-0.53125,0,0,0,0,0,0,0,-1,888,1513,-7.0233,0.531295
-329,-489,-6.70221,-0.242432,0,0,0,0,0,0,0,-1,895,1513,-6.70221,0.2424
-322,-489,0,0,0,0,0,0,0,0,0,-1,902,1513,0,0
-315,-489,0,0,0,0,0,0,0,0,0,-1,909,1513,0,0
-308,-489,0,0,0,0,0,0,0,0,0,-1,916,1513,0,0
-301,-489,0,0,0,0,0,0,0,0,0,-1,923,1513,0,0
-294,-489,0,0,0,0,0,0,0,0,0,-1,930,1513,0,0
-287,-489,0,0,0,0,0,0,0,0,0,-1,937,1513,0,0
-280,-489,0,0,0,0,0,0,0,0,0,-1,944,1513,0,0
-273,-489,0,0,0,0,0,0,0,0,0,-1,951,1513,0,0
-266,-489,0,0,0,0,0,0,0,0,0,-1,958,1513,0,0
-259,-489,0,0,0,0,0,0,0,0,0,-1,965,1513,0,0
-252,-489,0,0,0,0,0,0,0,0,0,-1,972,1513,0,0
-245,-489,0,0,0,0,0,0,0,0,0,-1,979,1513,0,0
-238,-489,0,0,0,0,0,0,0,0,0,-1,986,1513,0,0
-231,-489,0,0,0,0,0,0,0,0,0,-1,993,1513,0,0
-224,-489,0,0,0,0,0,0,0,0,0,-1,1000,1513,0,0
-217,-489,0,0,0,0,0,0,0,0,0,-1,1007,1513,0,0
-210,-489,0,0,0,0,0,0,0,0,0,-1,1014,1513,0,0
-203,-489,0,0,0,0,0,0,0,0,0,-1,1021,1513,0,0
-196,-489,0,0,0,0,0,0,0,0,0,-1,1028,1513,0,0
-189,-489,0,0,0,0,0,0,0,0,0,-1,1035,1513,0,0
-182,-489,0,0,0,0,0,0,0,0,0,-1,1042,1513,0,0
-175,-489,0,0,0,0,0,0,0,0,0,-1,1049,1513,0,0
-168,-489,0,0,0,0,0,0,0,0,0,-1,1056,1513,0,0
-161,-489,0,0,0,0,0,0,0,0,0,-1,1063,1513,0,0
-154,-489,0,0,0,0,0,0,0,0,0,-1,1070,1513,0,0
-147,-489,0,0,0,0,0,0,0,0,0,-1,1077,1513,0,0
-140,-489,0,0,0,0,0,0,0,0,0,-1,1084,1513,0,0
-133,-489,0,0,0,0,0,0,0,0,0,-1,1091,1513,0,0
-126,-489,0,0,0,0,0,0,0,0,0,-1,1098,1513,0,0
-119,-489,0,0,0,0,0,0,0,0,0,-1,1105,1513,0,0
-112,-489,0,0,0,0,0,0,0,0,0,-1,1112,1513,0,0
-105,-489,0,0,0,0,0,0,0,0,0,-1,1119,1513,0,0
-98,-489,0,0,0,0,0,0,0,0,0,-1,1126,1513,0,0
-91,-489,0,0,0,0,0,0,0,0,0,-1,1133,1513,0,0
-84,-489,0,0,0,0,0,0,0,0,0,-1,1140,1513,0,0
-77,-489,0,0,0,0,0,0,0,0,0,-1,1147,1513,0,0
-70,-489,0,0,0,0,0,0,0,0,0,-1,1154,1513,0,0
-63,-489,0,0,0,0,0,0,0,0,0,-1,1161,1513,0,0
-56,-489,0,0,0,0,0,0,0,0,0,-1,1168,1513,0,0
-49,-489,0,0,0,0,0,0,0,0,0,-1,1175,1513,0,0
-42,-489,0,0,0,0,0,0,0,0,0,-1,1182,1513,0,0
-35,-489,0,0,0,0,0,0,0,0,0,-1,1189,1513,0,0
-28,-489,0,0,0,0,0,0,0,0,0,-1,1196,1513,0,0
-21,-489,0,0,0,0,0,0,0,0,0,-1,1203,1513,0,0
-14,-489,0,0,0,0,0,0,0,0,0,-1,1210,1513,0,0
-7,-489,0,0,0,0,0,0,0,0,0,-1,1217,1513,0,0
0,-489,0,0,0,0,0,0,0,0,0,-1,1224,1513,0,0
7,-489,0,0,0,0,0,0,0,0,0,-1,1231,1513,0,0
14,-489,0,0,0,0,0,0,0,0,0,-1,1238,1513,0,0
21,-489,0,0,0,0,0,0,0,0,0,-1,1245,1513,0,0
28,-489,0,0,0,0,0,0,0,0,0,-1,1252,1513,0,0
35,-489,0,0,0,0,0,0,0,0,0,-1,1259,1513,0,0
42,-489,0,0,0,0,0,0,0,0,0,-1,1266,1513,0,0
49,-489,0,0,0,0,0,0,0,0,0,-1,1273,1513,0,0
56,-489,0,0,0,0,0,0,0,0,0,-1,1280,1513,0,0
63,-489,0,0,0,0,0,0,0,0,0,-1,1287,1513,0,0
70,-489,0,0,0,0,0,0,0,0,0,-1,1294,1513,0,0
77,-489,0,0,0,0,0,0,0,0,0,-1,1301,1513,0,0
84,-489,0,0,0,0,0,0,0,0,0,-1,1308,1513,0,0
91,-489,0,0,0,0,0,0,0,0,0,-1,1315,1513,0,0
98,-489,0,0,0,0,0,0,0,0,0,-1,1322,1513,0,0
105,-489,0,0,0,0,0,0,0,0,0,-1,1329,1513,0,0
112,-489,0,0,0,0,0,0,0,0,0,-1,1336,1513,0,0
119,-489,0,0,0,0,0,0,0,0,0,-1,1343,1513,0,0
126,-489,0,0,0,0,0,0,0,0,0,-1,1350,1513,0,0
133,-489,0,0,0,0,0,0,0,0,0,-1,1357,1513,0,0
140,-489,0,0,0,0,0,0,0,0,0,-1,1364,1513,0,0
147,-489,0,0,0,0,0,0,0,0,0,-1,1371,1513,0,0
154,-489,0,0,0,0,0,0,0,0,0,-1,1378,1513,0,0
161,-489,0,0,0,0,0,0,0,0,0,-1,1385,1513,0,0
168,-489,0,0,0,0,0,0,0,0,0,-1,1392,1513,0,0
175,-489,0,0,0,0,0,0,0,0,0,-1,1399,1513,0,0
182,-489,0,0,0,0,0,0,0,0,0,-1,1406,1513,0,0
189,-489,0,0,0,0,0,0,0,0,0,-1,1413,1513,0,0
196,-489,0,0,0,0,0,0,0,0,0,-1,1420,1513,0,0
203,-489,0,0,0,0,0,0,0,0,0,-1,1427,1513,0,0
210,-489,0,0,0,0,0,0,0,0,0,-1,1434,1513,0,0
217,-489,0,0,0,0,0,0,0,0,0,-1,1441,1513,0,0
224,-489,0,0,0,0,0,0,0,0,0,-1,1448,1513,0,0
231,-489,0,0,0,0,0,0,0,0,0,-1,1455,1513,0,0
238,-489,0,0,0,0,0,0,0,0,0,-1,1462,1513,0,0
245,-489,0,0,0,0,0,0,0,0,0,-1,1469,1513,0,0
252,-489,0,0,0,0,0,0,0,0,0,-1,1476,1513,0,0
259,-489,0,0,0,0,0,0,0,0,0,-1,1483,1513,0,0
266,-489,0,0,0,0,0,0,0,0,0,-1,1490,1513,0,0
273,-489,0,0,0,0,0,0,0,0,0,-1,1497,1513,0,0
280,-489,0,0,0,0,0,0,0,0,0,-1,1504,1513,0,0
287,-489,0,0,0,0,0,0,0,0,0,-1,1511,1513,0,0
294,-489,0,0,0,0,0,0,0,0,0,-1,1518,1513,0,0
301,-489,0,0,0,0,0,0,0,0,0,-1,1525,1513,0,0
308,-489,0,0,0,0,0,0,0,0,0,-1,1532,1513,0,0
315,-489,0,0,0,0,0,0,0,0,0,-1,1539,1513,0,0
322,-489,0,0,0,0,0,0,0,0,0,-1,1546,1513,0,0
329,-489,0,0,0,0,0,0,0,0,0,-1,1553,1513,0,0
336,-489,0,0,0,0,0,0,0,0,0,-1,1560,1513,0,0
343,-489,0,0,0,0,0,0,0,0,0,-1,1567,1513,0,0
350,-489,0,0,0,0,0,0,0,0,0,-1,1574,1513,0,0
357,-489,0,0,0,0,0,0,0,0,0,-1,1581,1513,0,0
364,-489,0,0,0,0,0,0,0,0,0,-1,1588,1513,0,0
371,-489,0,0,0,0,0,0,0,0,0,-1,1595,1513,0,0
378,-489,0,0,0,0,0,0,0,0,0,-1,1602,1513,0,0
385,-489,0,0,0,0,0,0,0,0,0,-1,1609,1513,0,0
392,-489,0,0,0,0,0,0,0,0,0,-1,1616,1513,0,0
399,-489,0,0,0,0,0,0,0,0,0,-1,1623,1513,0,0
406,-489,0,0,0,0,0,0,0,0,0,-1,1630,1513,0,0
413,-489,0,0,0,0,0,0,0,0,0,-1,1637,1513,0,0
420,-489,0,0,0,0,0,0,0,0,0,-1,1644,1513,0,0
427,-489,0,0,0,0,0,0,0,0,0,-1,1651,1513,0,0
434,-489,0,0,0,0,0,0,0,0,0,-1,1658,1513,0,0
441,-489,11.4602,2.56787,0,0,0,0,0,0,0,-1,1665,1513,11.4602,-2.56786
448,-489,12.4425,1.72351,0,0,0,0,0,0,0,-1,1672,1513,12.4425,-1.72349
455,-489,12.5575,1.37463,0,0,0,0,0,0,0,-1,1679,1513,12.5575,-1.37469
462,-489,14.9784,3.84888,0,0,0,0,0,0,0,-1,1686,1513,14.9784,-3.84892
469,-489,15.1367,4.53101,0,0,0,0,0,0,0,-1,1693,1513,15.1368,-4.531
476,-489,15.5536,5.09338,0,0,0,0,0,0,0,-1,1700,1513,15.5536,-5.09339
483,-489,8.96912,8.37805,0,0,0,0,0,0,0,-1,1707,1513,8.96909,-8.37809
490,-489,10.5366,7.49561,0,0,0,0,0,0,0,-1,1714,1513,10.5367,-7.49558
497,-489,14.6051,11.8397,0,0,0,0,0,0,0,-1,1721,1513,14.6051,-11.8397
504,-489,16.7527,14.1735,0,0,0,0,0,0,0,-1,1728,1513,16.7527,-14.1735
511,-489,17.83,17.7993,0,0,0,0,0,0,0,-1,1735,1513,17.83,-17.7993
518,-489,16.4751,14.3682,0,0,0,0,0,0,0,-1,1742,1513,16.4751,-14.3682
525,-489,17.2606,17.4949,0,0,0,0,0,0,0,-1,1749,1513,17.2606,-17.4949
532,-489,17.2386,17.1926,0.00156851,-0.0139873,0.00864401,0.00541879,-0.0178376,0.419046,0.0140507,0.0491788,1756,1513,17.2387,-17.1927
539,-489,16.9866,17.1805,0.00117311,-0.0106198,0.00669923,0.00420122,-0.0136479,0.424522,0.0107756,0.0232349,1763,1513,16.9866,-17.1806
546,-489,16.8857,16.9719,0.000961154,-0.00789181,0.00510838,0.00329406,-0.0102247,0.428396,0.00813979,0.015792,1770,1513,16.8858,-16.972
553,-489,16.8839,16.5112,0.000971116,-0.00566131,0.00367999,0.00260865,-0.00729885,0.418674,0.0059299,0.0152778,1777,1513,16.8839,-16.5113
560,-489,16.8949,16.0861,0.00105203,-0.00379769,0.00244497,0.00207069,-0.00481635,0.394765,0.0040802,0.0130303,1784,1513,16.8949,-16.086
567,-489,16.908,15.7008,0.00117461,-0.00243905,0.0014503,0.00168468,-0.00294912,0.338186,0.00270832,0.0142481,1791,1513,16.908,-15.7008
574,-489,16.8646,15.3372,0.00147346,-0.0014165,0.000575765,0.00158395,-0.00152699,0.189588,0.0017962,0.0135702,1798,1513,16.8646,-15.3371
581,-489,16.8723,14.9333,0.00183462,-0.000857244,-8.5189e-05,0.00183731,-0.000859938,-0.0316047,0.00159097,0.00999401,1805,1513,16.8724,-14.9334
588,-489,16.8632,14.5375,0.00242996,-0.000512737,-0.000769502,0.00261904,-0.00070181,-0.240935,0.002021,0.0121745,1812,1513,16.8632,-14.5374
595,-489,16.8578,14.1295,0.00316871,-0.000507437,-0.00121312,0.00353295,-0.000871671,-0.291684,0.00269329,0.0179996,1819,1513,16.8578,-14.1295
602,-489,16.8613,13.709,0.00404641,-0.000930912,-0.00157323,0.00450197,-0.00138648,-0.281865,0.00355478,0.0236585,1826,1513,16.8613,-13.709
609,-489,16.8508,13.3151,0.00511218,-0.00156418,-0.00190084,0.00561544,-0.00206744,-0.258817,0.00459067,0.0167593,1833,1513,16.8508,-13.315
616,-489,16.8435,12.9181,0.00647291,-0.00234679,-0.0022489,0.00701325,-0.00288713,-0.235797,0.00587913,0.013991,1840,1513,16.8435,-12.918
623,-489,16.837,12.5331,0.00820693,-0.00333795,-0.00264723,0.00878499,-0.00391602,-0.21499,0.00751039,0.0265907,1847,1513,16.837,-12.533
630,-489,16.8508,12.0675,0,0,0,0,0,0,0,-1,1854,1513,16.8508,-12.0675
637,-489,17.2048,11.8091,0,0,0,0,0,0,0,-1,1861,1513,17.2048,-11.8091
644,-489,9.67578,8.45874,0,0,0,0,0,0,0,-1,1868,1513,9.67576,-8.45879
651,-489,6.13818,6.85095,0,0,0,0,0,0,0,-1,1875,1513,6.13823,-6.85097
658,-489,5.43848,7.75513,0,0,0,0,0,0,0,-1,1882,1513,5.43844,-7.75509
665,-489,5.48438,8.59912,0,0,0,0,0,0,0,-1,1889,1513,5.48434,-8.59907
672,-489,0,0,0,0,0,0,0,0,0,-1,1896,1513,0,0
679,-489,0,0,0,0,0,0,0,0,0,-1,1903,1513,0,0
686,-489,0,0,0,0,0,0,0,0,0,-1,1910,1513,0,0
693,-489,0,0,0,0,0,0,0,0,0,-1,1917,1513,0,0
700,-489,0,0,0,0,0,0,0,0,0,-1,1924,1513,0,0
707,-489,0,0,0,0,0,0,0,0,0,-1,1931,1513,0,0
714,-489,0,0,0,0,0,0,0,0,0,-1,1938,1513,0,0
721,-489,0,0,0,0,0,0,0,0,0,-1,1945,1513,0,0
728,-489,0,0,0,0,0,0,0,0,0,-1,1952,1513,0,0
735,-489,0,0,0,0,0,0,0,0,0,-1,1959,1513,0,0
742,-489,0,0,0,0,0,0,0,0,0,-1,1966,1513,0,0
749,-489,0,0,0,0,0,0,0,0,0,-1,1973,1513,0,0
756,-489,0,0,0,0,0,0,0,0,0,-1,1980,1513,0,0
763,-489,0,0,0,0,0,0,0,0,0,-1,1987,1513,0,0
770,-489,0,0,0,0,0,0,0,0,0,-1,1994,1513,0,0
777,-489,0,0,0,0,0,0,0,0,0,-1,2001,1513,0,0
784,-489,0,0,0,0,0,0,0,0,0,-1,2008,1513,0,0
791,-489,0,0,0,0,0,0,0,0,0,-1,2015,1513,0,0
798,-489,0,0,0,0,0,0,0,0,0,-1,2022,1513,0,0
805,-489,0,0,0,0,0,0,0,0,0,-1,2029,1513,0,0
812,-489,0,0,0,0,0,0,0,0,0,-1,2036,1513,0,0
-700,-496,0,0,0,0,0,0,0,0,0,-1,524,1520,0,0
-693,-496,0,0,0,0,0,0,0,0,0,-1,531,1520,0,0
-686,-496,0,0,0,0,0,0,0,0,0,-1,538,1520,0,0
-679,-496,0,0,0,0,0,0,0,0,0,-1,545,1520,0,0
-672,-496,0,0,0,0,0,0,0,0,0,-1,552,1520,0,0
-665,-496,0,0,0,0,0,0,0,0,0,-1,559,1520,0,0
-658,-496,0,0,0,0,0,0,0,0,0,-1,566,1520,0,0
-651,-496,0,0,0,0,0,0,0,0,0,-1,573,1520,0,0
-644,-496,0,0,0,0,0,0,0,0,0,-1,580,1520,0,0
-637,-496,0,0,0,0,0,0,0,0,0,-1,587,1520,0,0
-630,-496,0,0,0,0,0,0,0,0,0,-1,594,1520,0,0
-623,-496,0,0,0,0,0,0,0,0,0,-1,601,1520,0,0
-616,-496,0,0,0,0,0,0,0,0,0,-1,608,1520,0,0
-609,-496,0,0,0,0,0,0,0,0,0,-1,615,1520,0,0
-602,-496,0,0,0,0,0,0,0,0,0,-1,622,1520,0,0
-595,-496,0,0,0,0,0,0,0,0,0,-1,629,1520,0,0
-588,-496,0,0,0,0,0,0,0,0,0,-1,636,1520,0,0
-581,-496,0,0,0,0,0,0,0,0,0,-1,643,1520,0,0
-574,-496,0,0,0,0,0,0,0,0,0,-1,650,1520,0,0
-567,-496,0,0,0,0,0,0,0,0,0,-1,657,1520,0,0
-560,-496,0,0,0,0,0,0,0,0,0,-1,664,1520,0,0
-553,-496,0,0,0,0,0,0,0,0,0,-1,671,1520,0,0
-546,-496,-8.09711,7.94836,0,0,0,0,0,0,0,-1,678,1520,-8.09712,-7.94842
-539,-496,-3.20129,1.16052,0,0,0,0,0,0,0,-1,685,1520,-3.20131,-1.16054
-532,-496,-2.98279,2.62146,0,0,0,0,0,0,0,-1,692,1520,-2.98278,-2.62151
-525,-496,-2.75201,4.08032,0,0,0,0,0,0,0,-1,699,1520,-2.75201,-4.08031
-518,-496,-2.6333,5.36072,0,0,0,0,0,0,0,-1,706,1520,-2.63328,-5.36077
-511,-496,-2.539,7.88379,0,0,0,0,0,0,0,-1,713,1520,-2.53901,-7.88385
-504,-496,-2.60529,9.39355,0,0,0,0,0,0,0,-1,720,1520,-2.60526,-9.39355
-497,-496,-3.15314,10.611,0,0,0,0,0,0,0,-1,727,1520,-3.15312,-10.611
-490,-496,-3.14789,10.9645,0.000447933,-2.60594e-05,0.000718532,0.000967545,-0.000545671,0.626099,0.000884901,0.0428739,734,1520,-3.14789,-10.9644
-483,-496,-3.37445,11.319,-0.00110051,-0.0012038,-0.0004408,-0.000708339,-0.00159597,-0.72708,0.000923369,0.0255814,741,1520,-3.37448,-11.3189
-476,-496,-3.48328,11.6915,-0.0016916,-0.0016482,-0.000947828,-0.000721821,-0.00261797,-0.796843,0.00156135,0.0128241,748,1520,-3.48325,-11.6916
-469,-496,-3.4873,12.1399,-0.00180556,-0.00160219,-0.00100682,-0.000691933,-0.00271581,-0.835727,0.00162962,0.0106644,755,1520,-3.48731,-12.1399
-462,-496,-3.48901,12.5621,-0.00145883,-0.00162762,-0.000750307,-0.000788188,-0.00229826,-0.729393,0.00134855,0.0164574,762,1520,-3.48899,-12.5622
-455,-496,-3.51685,13.0002,-0.00102773,-0.00154142,-0.000556288,-0.000671856,-0.0018973,-0.569121,0.00111084,0.0211578,769,1520,-3.51684,-13.0003
-448,-496,-3.51788,13.4419,-0.000331693,-0.00106489,-2.76382e-05,-0.000330653,-0.00106593,-0.0376241,0.000630023,0.0193455,776,1520,-3.51787,-13.4419
-441,-496,-3.51221,13.8486,0.000687779,-0.000460819,0.000808446,0.00110515,-0.000878187,0.476571,0.00114757,0.0158258,783,1520,-3.51219,-13.8486
-434,-496,-3.54034,14.2723,0.00176537,0.000249399,0.00169297,0.00286229,-0.000847525,0.574918,0.00224469,0.0145529,790,1520,-3.54034,-14.2723
-427,-496,-3.55878,14.7206,0.00278882,0.00112,0.00260591,0.00469065,-0.000781827,0.630457,0.00341765,0.0176336,797,1520,-3.55878,-14.7205
-420,-496,-3.54938,15.1273,0.00381127,0.00209944,0.00362546,0.00668048,-0.00076977,0.669479,0.00473116,0.0188237,804,1520,-3.5494,-15.1273
-413,-496,-3.492,15.5918,0.00507815,0.00325629,0.00498082,0.00923066,-0.000896216,0.694954,0.00647323,0.0253896,811,1520,-3.49201,-15.5918
-406,-496,-3.32153,16.0604,0,0,0,0,0,0,0,-1,818,1520,-3.32153,-16.0604
-399,-496,-3.05194,16.8667,0,0,0,0,0,0,0,-1,825,1520,-3.05192,-16.8667
-392,-496,-1.49786,12.387,0,0,0,0,0,0,0,-1,832,1520,-1.49788,-12.387
-385,-496,-1.72437,11.4985,0,0,0,0,0,0,0,-1,839,1520,-1.72436,-11.4985
-378,-496,-1.45532,14.0719,0,0,0,0,0,0,0,-1,846,1520,-1.45533,-14.0719
-371,-496,0.0877075,12.5299,0,0,0,0,0,0,0,-1,853,1520,0.0876896,-12.5299
-364,-496,0.0881348,10.6422,0,0,0,0,0,0,0,-1,860,1520,0.0881368,-10.6423
-357,-496,0.323792,7.56812,0,0,0,0,0,0,0,-1,867,1520,0.323782,-7.56806
-350,-496,2.1535,7.18945,0,0,0,0,0,0,0,-1,874,1520,2.15348,-7.1894
-343,-496,-7.56244,0.335327,0,0,0,0,0,0,0,-1,881,1520,-7.56242,-0.335322
-336,-496,-3.99249,6.02222,0,0,0,0,0,0,0,-1,888,1520,-3.99246,-6.0222
-329,-496,-6.93689,-0.100342,0,0,0,0,0,0,0,-1,895,1520,-6.93686,0.1003
-322,-496,-6.17505,0.494385,0,0,0,0,0,0,0,-1,902,1520,-6.17507,-0.49437
-315,-496,-6.26971,4.62341,0,0,0,0,0,0,0,-1,909,1520,-6.26973,-4.62344
-308,-496,0,0,0,0,0,0,0,0,0,-1,916,1520,0,0
-301,-496,0,0,0,0,0,0,0,0,0,-1,923,1520,0,0
-294,-496,0,0,0,0,0,0,0,0,0,-1,930,1520,0,0
-287,-496,0,0,0,0,0,0,0,0,0,-1,937,1520,0,0
-280,-496,0,0,0,0,0,0,0,0,0,-1,944,1520,0,0
-273,-496,0,0,0,0,0,0,0,0,0,-1,951,1520,0,0
-266,-496,0,0,0,0,0,0,0,0,0,-1,958,1520,0,0
-259,-496,0,0,0,0,0,0,0,0,0,-1,965,1520,0,0
-252,-496,0,0,0,0,0,0,0,0,0,-1,972,1520,0,0
-245,-496,0,0,0,0,0,0,0,0,0,-1,979,1520,0,0
-238,-496,0,0,0,0,0,0,0,0,0,-1,986,1520,0,0
-231,-496,0,0,0,0,0,0,0,0,0,-1,993,1520,0,0
-224,-496,0,0,0,0,0,0,0,0,0,-1,1000,1520,0,0
-217,-496,0,0,0,0,0,0,0,0,0,-1,1007,1520,0,0
-210,-496,0,0,0,0,0,0,0,0,0,-1,1014,1520,0,0
-203,-496,0,0,0,0,0,0,0,0,0,-1,1021,1520,0,0
-196,-496,0,0,0,0,0,0,0,0,0,-1,1028,1520,0,0
-189,-496,0,0,0,0,0,0,0,0,0,-1,1035,1520,0,0
-182,-496,0,0,0,0,0,0,0,0,0,-1,1042,1520,0,0
-175,-496,0,0,0,0,0,0,0,0,0,-1,1049,1520,0,0
-168,-496,0,0,0,0,0,0,0,0,0,-1,1056,1520,0,0
-161,-496,0,0,0,0,0,0,0,0,0,-1,1063,1520,0,0
-154,-496,0,0,0,0,0,0,0,0,0,-1,1070,1520,0,0
-147,-496,0,0,0,0,0,0,0,0,0,-1,1077,1520,0,0
-140,-496,0,0,0,0,0,0,0,0,0,-1,1084,1520,0,0
-133,-496,0,0,0,0,0,0,0,0,0,-1,1091,1520,0,0
-126,-496,0,0,0,0,0,0,0,0,0,-1,1098,1520,0,0
-119,-496,0,0,0,0,0,0,0,0,0,-1,1105,1520,0,0
-112,-496,0,0,0,0,0,0,0,0,0,-1,1112,1520,0,0
-105,-496,0,0,0,0,0,0,0,0,0,-1,1119,1520,0,0
-98,-496,0,0,0,0,0,0,0,0,0,-1,1126,1520,0,0
-91,-496,0,0,0,0,0,0,0,0,0,-1,1133,1520,0,0
-84,-496,0,0,0,0,0,0,0,0,0,-1,1140,1520,0,0
-77,-496,0,0,0,0,0,0,0,0,0,-1,1147,1520,0,0
-70,-496,0,0,0,0,0,0,0,0,0,-1,1154,1520,0,0
-63,-496,0,0,0,0,0,0,0,0,0,-1,1161,1520,0,0
-56,-496,0,0,0,0,0,0,0,0,0,-1,1168,1520,0,0
-49,-496,0,0,0,0,0,0,0,0,0,-1,1175,1520,0,0
-42,-496,0,0,0,0,0,0,0,0,0,-1,1182,1520,0,0
-35,-496,0,0,0,0,0,0,0,0,0,-1,1189,1520,0,0
-28,-496,0,0,0,0,0,0,0,0,0,-1,1196,1520,0,0
-21,-496,0,0,0,0,0,0,0,0,0,-1,1203,1520,0,0
-14,-496,0,0,0,0,0,0,0,0,0,-1,1210,1520,0,0
-7,-496,0,0,0,0,0,0,0,0,0,-1,1217,1520,0,0
0,-496,0,0,0,0,0,0,0,0,0,-1,1224,1520,0,0
7,-496,0,0,0,0,0,0,0,0,0,-1,1231,1520,0,0
14,-496,0,0,0,0,0,0,0,0,0,-1,1238,1520,0,0
21,-496,0,0,0,0,0,0,0,0,0,-1,1245,1520,0,0
28,-496,0,0,0,0,0,0,0,0,0,-1,1252,1520,0,0
35,-496,0,0,0,0,0,0,0,0,0,-1,1259,1520,0,0
42,-496,0,0,0,0,0,0,0,0,0,-1,1266,1520,0,0
49,-496,0,0,0,0,0,0,0,0,0,-1,1273,1520,0,0
56,-496,0,0,0,0,0,0,0,0,0,-1,1280,1520,0,0
63,-496,0,0,0,0,0,0,0,0,0,-1,1287,1520,0,0
70,-496,0,0,0,0,0,0,0,0,0,-1,1294,1520,0,0
77,-496,0,0,0,0,0,0,0,0,0,-1,1301,1520,0,0
84,-496,0,0,0,0,0,0,0,0,0,-1,1308,1520,0,0
91,-496,0,0,0,0,0,0,0,0,0,-1,1315,1520,0,0
98,-496,0,0,0,0,0,0,0,0,0,-1,1322,1520,0,0
105,-496,0,0,0,0,0,0,0,0,0,-1,1329,1520,0,0
112,-496,0,0,0,0,0,0,0,0,0,-1,1336,1520,0,0
119,-496,0,0,0,0,0,0,0,0,0,-1,1343,1520,0,0
126,-496,0,0,0,0,0,0,0,0,0,-1,1350,1520,0,0
133,-496,0,0,0,0,0,0,0,0,0,-1,1357,1520,0,0
140,-496,0,0,0,0,0,0,0,0,0,-1,1364,1520,0,0
147,-496,0,0,0,0,0,0,0,0,0,-1,1371,1520,0,0
154,-496,0,0,0,0,0,0,0,0,0,-1,1378,1520,0,0
161,-496,0,0,0,0,0,0,0,0,0,-1,1385,1520,0,0
168,-496,0,0,0,0,0,0,0,0,0,-1,1392,1520,0,0
175,-496,0,0,0,0,0,0,0,0,0,-1,1399,1520,0,0
182,-496,0,0,0,0,0,0,0,0,0,-1,1406,1520,0,0
189,-496,0,0,0,0,0,0,0,0,0,-1,1413,1520,0,0
196,-496,0,0,0,0,0,0,0,0,0,-1,1420,1520,0,0
203,-496,0,0,0,0,0,0,0,0,0,-1,1427,1520,0,0
210,-496,0,0,0,0,0,0,0,0,0,-1,1434,1520,0,0
217,-496,0,0,0,0,0,0,0,0,0,-1,1441,1520,0,0
224,-496,0,0,0,0,0,0,0,0,0,-1,1448,1520,0,0
231,-496,0,0,0,0,0,0,0,0,0,-1,1455,1520,0,0
238,-496,0,0,0,0,0,0,0,0,0,-1,1462,1520,0,0
245,-496,0,0,0,0,0,0,0,0,0,-1,1469,1520,0,0
252,-496,0,0,0,0,0,0,0,0,0,-1,1476,1520,0,0
259,-496,0,0,0,0,0,0,0,0,0,-1,1483,1520,0,0
266,-496,0,0,0,0,0,0,0,0,0,-1,1490,1520,0,0
273,-496,0,0,0,0,0,0,0,0,0,-1,1497,1520,0,0
280,-496,0,0,0,0,0,0,0,0,0,-1,1504,1520,0,0
287,-496,0,0,0,0,0,0,0,0,0,-1,1511,1520,0,0
294,-496,0,0,0,0,0,0,0,0,0,-1,1518,1520,0,0
301,-496,0,0,0,0,0,0,0,0,0,-1,1525,1520,0,0
308,-496,0,0,0,0,0,0,0,0,0,-1,1532,1520,0,0
315,-496,0,0,0,0,0,0,0,0,0,-1,1539,1520,0,0
322,-496,0,0,0,0,0,0,0,0,0,-1,1546,1520,0,0
329,-496,0,0,0,0,0,0,0,0,0,-1,1553,1520,0,0
336,-496,0,0,0,0,0,0,0,0,0,-1,1560,1520,0,0
343,-496,0,0,0,0,0,0,0,0,0,-1,1567,1520,0,0
350,-496,0,0,0,0,0,0,0,0,0,-1,1574,1520,0,0
357,-496,0,0,0,0,0,0,0,0,0,-1,1581,1520,0,0
364,-496,0,0,0,0,0,0,0,0,0,-1,1588,1520,0,0
371,-496,0,0,0,0,0,0,0,0,0,-1,1595,1520,0,0
378,-496,0,0,0,0,0,0,0,0,0,-1,1602,1520,0,0
385,-496,0,0,0,0,0,0,0,0,0,-1,1609,1520,0,0
392,-496,0,0,0,0,0,0,0,0,0,-1,1616,1520,0,0
399,-496,0,0,0,0,0,0,0,0,0,-1,1623,1520,0,0
406,-496,0,0,0,0,0,0,0,0,0,-1,1630,1520,0,0
413,-496,0,0,0,0,0,0,0,0,0,-1,1637,1520,0,0
420,-496,0,0,0,0,0,0,0,0,0,-1,1644,1520,0,0
427,-496,0,0,0,0,0,0,0,0,0,-1,1651,1520,0,0
434,-496,11.0457,3.37732,0,0,0,0,0,0,0,-1,1658,1520,11.0456,-3.37736
441,-496,11.788,2.75488,0,0,0,0,0,0,0,-1,1665,1520,11.7879,-2.75485
448,-496,12.2146,2.18494,0,0,0,0,0,0,0,-1,1672,1520,12.2146,-2.18489
455,-496,12.3489,1.65173,0,0,0,0,0,0,0,-1,1679,1520,12.3489,-1.65178
462,-496,12.1912,1.32361,0,0,0,0,0,0,0,-1,1686,1520,12.1911,-1.32357
469,-496,14.8138,5.77954,0,0,0,0,0,0,0,-1,1693,1520,14.8138,-5.77958
476,-496,15.2449,6.27942,0,0,0,0,0,0,0,-1,1700,1520,15.2449,-6.27936
483,-496,9.19812,6.88367,0,0,0,0,0,0,0,-1,1707,1520,9.19812,-6.88361
490,-496,10.2123,7.97144,0,0,0,0,0,0,0,-1,1714,1520,10.2122,-7.97145
497,-496,13.9297,12.2981,0,0,0,0,0,0,0,-1,1721,1520,13.9297,-12.2982
504,-496,16.3271,16.6501,0,0,0,0,0,0,0,-1,1728,1520,16.3272,-16.6502
511,-496,17.6753,18.0685,0,0,0,0,0,0,0,-1,1735,1520,17.6753,-18.0685
518,-496,17.0537,17.3118,0,0,0,0,0,0,0,-1,1742,1520,17.0538,-17.3118
525,-496,16.0947,17.8428,0,0,0,0,0,0,0,-1,1749,1520,16.0947,-17.8428
532,-496,16.4856,17.5773,0.00180174,-0.0095849,0.00602772,0.00439982,-0.012183,0.40696,0.00991938,0.0475339,1756,1520,16.4856,-17.5772
539,-496,16.5247,17.3168,0.00141465,-0.00747145,0.00480985,0.00351953,-0.00957633,0.41251,0.00782581,0.0205762,1763,1520,16.5247,-17.3167
546,-496,16.4706,16.9025,0.00118127,-0.00562279,0.00372717,0.00282559,-0.0072671,0.415487,0.00601216,0.0115037,1770,1520,16.4706,-16.9025
553,-496,16.5258,16.4723,0.00113636,-0.00406297,0.00268719,0.00227558,-0.00520219,0.400976,0.00442614,0.0152364,1777,1520,16.5257,-16.4723
560,-496,16.5339,16.0885,0.00118454,-0.00268538,0.00174248,0.00185348,-0.00335432,0.366552,0.00304806,0.0145396,1784,1520,16.534,-16.0885
567,-496,16.5199,15.6948,0.00133341,-0.00176982,0.000971593,0.00161251,-0.00204891,0.279725,0.00211892,0.0115362,1791,1520,16.5199,-15.6949
574,-496,16.4845,15.308,0.00173733,-0.00100302,0.000177242,0.00174875,-0.00101444,0.0643212,0.00161399,0.0113565,1798,1520,16.4845,-15.308
581,-496,16.4696,14.9464,0.00220426,-0.000623257,-0.00043856,0.00227072,-0.000689718,-0.150398,0.00178861,0.0117542,1805,1520,16.4696,-14.9464
588,-496,16.4818,14.5638,0.0029284,-0.000457174,-0.00109468,0.00325151,-0.000780287,-0.287016,0.00246921,0.0144718,1812,1520,16.4818,-14.5639
595,-496,16.4777,14.1544,0.00385762,-0.000648116,-0.00155878,0.00434432,-0.00113481,-0.302638,0.00333939,0.0165697,1819,1520,16.4776,-14.1545
602,-496,16.4691,13.7325,0.0050028,-0.00112697,-0.00201764,0.0056073,-0.00173147,-0.291096,0.00442963,0.0178088,1826,1520,16.4691,-13.7326
609,-496,16.4689,13.3219,0.00641934,-0.00179394,-0.00254453,0.00714376,-0.00251836,-0.277358,0.00578757,0.0149017,1833,1520,16.4689,-13.3219
616,-496,16.5009,12.8627,0.00823073,-0.00260274,-0.00313131,0.00907068,-0.00344269,-0.262073,0.00746419,0.0256254,1840,1520,16.5009,-12.8627
623,-496,16.48,12.5714,0.0105947,-0.00364395,-0.00385133,0.0115697,-0.00461891,-0.24794,0.00962939,0.0419215,1847,1520,16.48,-12.5714
630,-496,16.635,12.2356,0,0,0,0,0,0,0,-1,1854,1520,16.635,-12.2356
637,-496,14.6411,10.1016,0,0,0,0,0,0,0,-1,1861,1520,14.6411,-10.1016
644,-496,12.4537,10.087,0,0,0,0,0,0,0,-1,1868,1520,12.4537,-10.0871
651,-496,8.18506,5.47803,0,0,0,0,0,0,0,-1,1875,1520,8.18505,-5.47806
658,-496,7.79993,4.02563,0,0,0,0,0,0,0,-1,1882,1520,7.79997,-4.02568
665,-496,5.47583,7.90625,0,0,0,0,0,0,0,-1,1889,1520,5.47581,-7.90628
672,-496,0,0,0,0,0,0,0,0,0,-1,1896,1520,0,0
679,-496,0,0,0,0,0,0,0,0,0,-1,1903,1520,0,0
686,-496,0,0,0,0,0,0,0,0,0,-1,1910,1520,0,0
693,-496,0,0,0,0,0,0,0,0,0,-1,1917,1520,0,0
700,-496,0,0,0,0,0,0,0,0,0,-1,1924,1520,0,0
707,-496,0,0,0,0,0,0,0,0,0,-1,1931,1520,0,0
714,-496,0,0,0,0,0,0,0,0,0,-1,1938,1520,0,0
721,-496,0,0,0,0,0,0,0,0,0,-1,1945,1520,0,0
728,-496,0,0,0,0,0,0,0,0,0,-1,1952,1520,0,0
735,-496,0,0,0,0,0,0,0,0,0,-1,1959,1520,0,0
742,-496,0,0,0,0,0,0,0,0,0,-1,1966,1520,0,0
749,-496,0,0,0,0,0,0,0,0,0,-1,1973,1520,0,0
756,-496,0,0,0,0,0,0,0,0,0,-1,1980,1520,0,0
763,-496,0,0,0,0,0,0,0,0,0,-1,1987,1520,0,0
770,-496,0,0,0,0,0,0,0,0,0,-1,1994,1520,0,0
777,-496,0,0,0,0,0,0,0,0,0,-1,2001,1520,0,0
784,-496,0,0,0,0,0,0,0,0,0,-1,2008,1520,0,0
791,-496,0,0,0,0,0,0,0,0,0,-1,2015,1520,0,0
798,-496,0,0,0,0,0,0,0,0,0,-1,2022,1520,0,0
805,-496,0,0,0,0,0,0,0,0,0,-1,2029,1520,0,0
812,-496,0,0,0,0,0,0,0,0,0,-1,2036,1520,0,0
-700,-503,0,0,0,0,0,0,0,0,0,-1,524,1527,0,0
-693,-503,0,0,0,0,0,0,0,0,0,-1,531,1527,0,0
-686,-503,0,0,0,0,0,0,0,0,0,-1,538,1527,0,0
-679,-503,0,0,0,0,0,0,0,0,0,-1,545,1527,0,0
-672,-503,0,0,0,0,0,0,0,0,0,-1,552,1527,0,0
-665,-503,0,0,0,0,0,0,0,0,0,-1,559,1527,0,0
-658,-503,0,0,0,0,0,0,0,0,0,-1,566,1527,0,0
-651,-503,0,0,0,0,0,0,0,0,0,-1,573,1527,0,0
-644,-503,0,0,0,0,0,0,0,0,0,-1,580,1527,0,0
-637,-503,0,0,0,0,0,0,0,0,0,-1,587,1527,0,0
-630,-503,0,0,0,0,0,0,0,0,0,-1,594,1527,0,0
-623,-503,0,0,0,0,0,0,0,0,0,-1,601,1527,0,0
-616,-503,0,0,0,0,0,0,0,0,0,-1,608,1527,0,0
-609,-503,0,0,0,0,0,0,0,0,0,-1,615,1527,0,0
-602,-503,0,0,0,0,0,0,0,0,0,-1,622,1527,0,0
-595,-503,0,0,0,0,0,0,0,0,0,-1,629,1527,0,0
-588,-503,0,0,0,0,0,0,0,0,0,-1,636,1527,0,0
-581,-503,0,0,0,0,0,0,0,0,0,-1,643,1527,0,0
-574,-503,0,0,0,0,0,0,0,0,0,-1,650,1527,0,0
-567,-503,0,0,0,0,0,0,0,0,0,-1,657,1527,0,0
-560,-503,0,0,0,0,0,0,0,0,0,-1,664,1527,0,0
-553,-503,0,0,0,0,0,0,0,0,0,-1,671,1527,0,0
-546,-503,0,0,0,0,0,0,0,0,0,-1,678,1527,0,0
-539,-503,3.50177,4.26428,0,0,0,0,0,0,0,-1,685,1527,3.50177,-4.26424
-532,-503,-3.13196,1.05298,0,0,0,0,0,0,0,-1,692,1527,-3.13194,-1.05299
-525,-503,-2.94293,2.59314,0,0,0,0,0,0,0,-1,699,1527,-2.94296,-2.59314
-518,-503,-2.7395,4.05872,0,0,0,0,0,0,0,-1,706,1527,-2.73948,-4.05871
-511,-503,-2.46967,5.46399,0,0,0,0,0,0,0,-1,713,1527,-2.46967,-5.46394
-504,-503,-1.99615,9.11853,0,0,0,0,0,0,0,-1,720,1527,-1.99617,-9.11856
-497,-503,-2.18781,10.6128,0,0,0,0,0,0,0,-1,727,1527,-2.18782,-10.6128
-490,-503,-2.56781,11.104,0,0,0,0,0,0,0,-1,734,1527,-2.56783,-11.1041
-483,-503,-2.81775,11.4287,-0.00210796,-0.00197051,-0.000980184,-0.00105665,-0.00302183,-0.820398,0.00177074,0.0447625,741,1527,-2.81777,-11.4287
-476,-503,-2.96674,11.7793,-0.00245355,-0.00237296,-0.00141955,-0.000993127,-0.00383338,-0.799587,0.00229725,0.0229711,748,1527,-2.96673,-11.7793
-469,-503,-3.05609,12.1597,-0.00236734,-0.00222517,-0.00138819,-0.000906248,-0.00368626,-0.810979,0.00221802,0.0109771,755,1527,-3.05611,-12.1597
-462,-503,-3.05884,12.5963,-0.00185312,-0.00215222,-0.00108145,-0.000910928,-0.00309441,-0.716691,0.00183623,0.0124962,762,1527,-3.05885,-12.5963
-455,-503,-3.06158,13.0518,-0.00131507,-0.00195127,-0.00084637,-0.000728998,-0.00253734,-0.605646,0.00150847,0.0178311,769,1527,-3.06161,-13.0517
-448,-503,-3.04358,13.4818,-0.00059858,-0.00139875,-0.000334707,-0.000477036,-0.00152029,-0.348329,0.000897804,0.0163584,776,1527,-3.04358,-13.4819
-441,-503,-3.05865,13.8719,0.000399202,-0.000703833,0.000477241,0.00057702,-0.000881652,0.356662,0.000848264,0.0137451,783,1527,-3.05867,-13.872
-434,-503,-3.104,14.28,0.00143917,0.000114252,0.00134164,0.00227299,-0.000719566,0.556073,0.00180368,0.0114136,790,1527,-3.10401,-14.28
-427,-503,-3.13715,14.6956,0.00242559,0.00109854,0.00224629,0.0041043,-0.00058018,0.641789,0.00294868,0.0173385,797,1527,-3.13716,-14.6956
-420,-503,-3.10999,15.1194,0.0033715,0.00217778,0.00322784,0.0060572,-0.000507914,0.693976,0.00421764,0.0186339,804,1527,-3.10999,-15.1194
-413,-503,-3.10339,15.5623,0.00447841,0.00344386,0.0044565,0.00844756,-0.000525289,0.72762,0.00581472,0.0161161,811,1527,-3.10339,-15.5622
-406,-503,-3.10065,15.9744,0.00580235,0.00495074,0.00592978,0.0113216,-0.000568506,0.749556,0.00774419,0.0221796,818,1527,-3.10066,-15.9743
-399,-503,-2.97552,16.5516,0.00734623,0.00674992,0.00769941,0.0147533,-0.000657101,0.766045,0.0100617,0.0359992,825,1527,-2.9755,-16.5517
-392,-503,-2.73297,17.3013,0,0,0,0,0,0,0,-1,832,1527,-2.73294,-17.3013
-385,-503,-2.00403,14.1218,0,0,0,0,0,0,0,-1,839,1527,-2.00403,-14.1218
-378,-503,-2.07043,13.8632,0,0,0,0,0,0,0,-1,846,1527,-2.07043,-13.8631
-371,-503,-1.67285,13.8081,0,0,0,0,0,0,0,-1,853,1527,-1.67285,-13.8081
-364,-503,0.181396,12.3768,0,0,0,0,0,0,0,-1,860,1527,0.18138,-12.3768
-357,-503,0.558533,9.25452,0,0,0,0,0,0,0,-1,867,1527,0.558542,-9.25446
-350,-503,0.219971,6.84827,0,0,0,0,0,0,0,-1,874,1527,0.21996,-6.84831
-343,-503,-3.5802,4.43274,0,0,0,0,0,0,0,-1,881,1527,-3.58018,-4.43276
-336,-503,-3.2384,6.40637,0,0,0,0,0,0,0,-1,888,1527,-3.2384,-6.40643
-329,-503,-1.70691,11.886,0,0,0,0,0,0,0,-1,895,1527,-1.70689,-11.886
-322,-503,-3.31317,8.81519,0,0,0,0,0,0,0,-1,902,1527,-3.31315,-8.81524
-315,-503,-3.90265,7.73853,0,0,0,0,0,0,0,-1,909,1527,-3.90264,-7.73854
-308,-503,-1.70264,7.35413,0,0,0,0,0,0,0,-1,916,1527,-1.70262,-7.35416
-301,-503,0,0,0,0,0,0,0,0,0,-1,923,1527,0,0
-294,-503,0,0,0,0,0,0,0,0,0,-1,930,1527,0,0
-287,-503,0,0,0,0,0,0,0,0,0,-1,937,1527,0,0
-280,-503,0,0,0,0,0,0,0,0,0,-1,944,1527,0,0
-273,-503,0,0,0,0,0,0,0,0,0,-1,951,1527,0,0
-266,-503,0,0,0,0,0,0,0,0,0,-1,958,1527,0,0
-259,-503,0,0,0,0,0,0,0,0,0,-1,965,1527,0,0
-252,-503,0,0,0,0,0,0,0,0,0,-1,972,1527,0,0
-245,-503,0,0,0,0,0,0,0,0,0,-1,979,1527,0,0
-238,-503,0,0,0,0,0,0,0,0,0,-1,986,1527,0,0
-231,-503,0,0,0,0,0,0,0,0,0,-1,993,1527,0,0
-224,-503,0,0,0,0,0,0,0,0,0,-1,1000,1527,0,0
-217,-503,0,0,0,0,0,0,0,0,0,-1,1007,1527,0,0
-210,-503,0,0,0,0,0,0,0,0,0,-1,1014,1527,0,0
-203,-503,0,0,0,0,0,0,0,0,0,-1,1021,1527,0,0
-196,-503,0,0,0,0,0,0,0,0,0,-1,1028,1527,0,0
-189,-503,0,0,0,0,0,0,0,0,0,-1,1035,1527,0,0
-182,-503,0,0,0,0,0,0,0,0,0,-1,1042,1527,0,0
-175,-503,0,0,0,0,0,0,0,0,0,-1,1049,1527,0,0
-168,-503,0,0,0,0,0,0,0,0,0,-1,1056,1527,0,0
-161,-503,0,0,0,0,0,0,0,0,0,-1,1063,1527,0,0
-154,-503,0,0,0,0,0,0,0,0,0,-1,1070,1527,0,0
-147,-503,0,0,0,0,0,0,0,0,0,-1,1077,1527,0,0
-140,-503,0,0,0,0,0,0,0,0,0,-1,1084,1527,0,0
-133,-503,0,0,0,0,0,0,0,0,0,-1,1091,1527,0,0
-126,-503,0,0,0,0,0,0,0,0,0,-1,1098,1527,0,0
-119,-503,0,0,0,0,0,0,0,0,0,-1,1105,1527,0,0
-112,-503,0,0,0,0,0,0,0,0,0,-1,1112,1527,0,0
-105,-503,0,0,0,0,0,0,0,0,0,-1,1119,1527,0,0
-98,-503,0,0,0,0,0,0,0,0,0,-1,1126,1527,0,0
-91,-503,0,0,0,0,0,0,0,0,0,-1,1133,1527,0,0
-84,-503,0,0,0,0,0,0,0,0,0,-1,1140,1527,0,0
-77,-503,0,0,0,0,0,0,0,0,0,-1,1147,1527,0,0
-70,-503,0,0,0,0,0,0,0,0,0,-1,1154,1527,0,0
-63,-503,0,0,0,0,0,0,0,0,0,-1,1161,1527,0,0
-56,-503,0,0,0,0,0,0,0,0,0,-1,1168,1527,0,0
-49,-503,0,0,0,0,0,0,0,0,0,-1,1175,1527,0,0
-42,-503,0,0,0,0,0,0,0,0,0,-1,1182,1527,0,0
-35,-503,0,0,0,0,0,0,0,0,0,-1,1189,1527,0,0
-28,-503,0,0,0,0,0,0,0,0,0,-1,1196,1527,0,0
-21,-503,0,0,0,0,0,0,0,0,0,-1,1203,1527,0,0
-14,-503,0,0,0,0,0,0,0,0,0,-1,1210,1527,0,0
-7,-503,0,0,0,0,0,0,0,0,0,-1,1217,1527,0,0
0,-503,0,0,0,0,0,0,0,0,0,-1,1224,1527,0,0
7,-503,0,0,0,0,0,0,0,0,0,-1,1231,1527,0,0
14,-503,0,0,0,0,0,0,0,0,0,-1,1238,1527,0,0
21,-503,0,0,0,0,0,0,0,0,0,-1,1245,1527,0,0
28,-503,0,0,0,0,0,0,0,0,0,-1,1252,1527,0,0
35,-503,0,0,0,0,0,0,0,0,0,-1,1259,1527,0,0
42,-503,0,0,0,0,0,0,0,0,0,-1,1266,1527,0,0
49,-503,0,0,0,0,0,0,0,0,0,-1,1273,1527,0,0
56,-503,0,0,0,0,0,0,0,0,0,-1,1280,1527,0,0
63,-503,0,0,0,0,0,0,0,0,0,-1,1287,1527,0,0
70,-503,0,0,0,0,0,0,0,0,0,-1,1294,1527,0,0
77,-503,0,0,0,0,0,0,0,0,0,-1,1301,1527,0,0
84,-503,0,0,0,0,0,0,0,0,0,-1,1308,1527,0,0
91,-503,0,0,0,0,0,0,0,0,0,-1,1315,1527,0,0
98,-503,0,0,0,0,0,0,0,0,0,-1,1322,1527,0,0
105,-503,0,0,0,0,0,0,0,0,0,-1,1329,1527,0,0
112,-503,0,0,0,0,0,0,0,0,0,-1,1336,1527,0,0
119,-503,0,0,0,0,0,0,0,0,0,-1,1343,1527,0,0
126,-503,0,0,0,0,0,0,0,0,0,-1,1350,1527,0,0
133,-503,0,0,0,0,0,0,0,0,0,-1,1357,1527,0,0
140,-503,0,0,0,0,0,0,0,0,0,-1,1364,1527,0,0
147,-503,0,0,0,0,0,0,0,0,0,-1,1371,1527,0,0
154,-503,0,0,0,0,0,0,0,0,0,-1,1378,1527,0,0
161,-503,0,0,0,0,0,0,0,0,0,-1,1385,1527,0,0
168,-503,0,0,0,0,0,0,0,0,0,-1,1392,1527,0,0
175,-503,0,0,0,0,0,0,0,0,0,-1,1399,1527,0,0
182,-503,0,0,0,0,0,0,0,0,0,-1,1406,1527,0,0
189,-503,0,0,0,0,0,0,0,0,0,-1,1413,1527,0,0
196,-503,0,0,0,0,0,0,0,0,0,-1,1420,1527,0,0
203,-503,0,0,0,0,0,0,0,0,0,-1,1427,1527,0,0
210,-503,0,0,0,0,0,0,0,0,0,-1,1434,1527,0,0
217,-503,0,0,0,0,0,0,0,0,0,-1,1441,1527,0,0
224,-503,0,0,0,0,0,0,0,0,0,-1,1448,1527,0,0
231,-503,0,0,0,0,0,0,0,0,0,-1,1455,1527,0,0
238,-503,0,0,0,0,0,0,0,0,0,-1,1462,1527,0,0
245,-503,0,0,0,0,0,0,0,0,0,-1,1469,1527,0,0
252,-503,0,0,0,0,0,0,0,0,0,-1,1476,1527,0,0
259,-503,0,0,0,0,0,0,0,0,0,-1,1483,1527,0,0
266,-503,0,0,0,0,0,0,0,0,0,-1,1490,1527,0,0
273,-503,0,0,0,0,0,0,0,0,0,-1,1497,1527,0,0
280,-503,0,0,0,0,0,0,0,0,0,-1,1504,1527,0,0
287,-503,0,0,0,0,0,0,0,0,0,-1,1511,1527,0,0
294,-503,0,0,0,0,0,0,0,0,0,-1,1518,1527,0,0
301,-503,0,0,0,0,0,0,0,0,0,-1,1525,1527,0,0
308,-503,0,0,0,0,0,0,0,0,0,-1,1532,1527,0,0
315,-503,0,0,0,0,0,0,0,0,0,-1,1539,1527,0,0
322,-503,0,0,0,0,0,0,0,0,0,-1,1546,1527,0,0
329,-503,0,0,0,0,0,0,0,0,0,-1,1553,1527,0,0
336,-503,0,0,0,0,0,0,0,0,0,-1,1560,1527,0,0
343,-503,0,0,0,0,0,0,0,0,0,-1,1567,1527,0,0
350,-503,0,0,0,0,0,0,0,0,0,-1,1574,1527,0,0
357,-503,0,0,0,0,0,0,0,0,0,-1,1581,1527,0,0
364,-503,0,0,0,0,0,0,0,0,0,-1,1588,1527,0,0
371,-503,0,0,0,0,0,0,0,0,0,-1,1595,1527,0,0
378,-503,0,0,0,0,0,0,0,0,0,-1,1602,1527,0,0
385,-503,0,0,0,0,0,0,0,0,0,-1,1609,1527,0,0
392,-503,0,0,0,0,0,0,0,0,0,-1,1616,1527,0,0
399,-503,0,0,0,0,0,0,0,0,0,-1,1623,1527,0,0
406,-503,0,0,0,0,0,0,0,0,0,-1,1630,1527,0,0
413,-503,0,0,0,0,0,0,0,0,0,-1,1637,1527,0,0
420,-503,0,0,0,0,0,0,0,0,0,-1,1644,1527,0,0
427,-503,10.5968,4.9856,0,0,0,0,0,0,0,-1,1651,1527,10.5969,-4.98563
434,-503,11.4329,3.97217,0,0,0,0,0,0,0,-1,1658,1527,11.4328,-3.97222
441,-503,12.0957,2.96509,0,0,0,0,0,0,0,-1,1665,1527,12.0957,-2.96512
448,-503,12.3259,2.53894,0,0,0,0,0,0,0,-1,1672,1527,12.326,-2.53895
455,-503,12.1669,2.18762,0,0,0,0,0,0,0,-1,1679,1527,12.1668,-2.18767
462,-503,11.59,2.60791,0,0,0,0,0,0,0,-1,1686,1527,11.5899,-2.60794
469,-503,11.1625,1.61853,0,0,0,0,0,0,0,-1,1693,1527,11.1625,-1.61856
476,-503,9.07703,5.81042,0,0,0,0,0,0,0,-1,1700,1527,9.07699,-5.81047
483,-503,9.74414,6.92432,0,0,0,0,0,0,0,-1,1707,1527,9.74417,-6.9243
490,-503,10.5033,10.1071,0,0,0,0,0,0,0,-1,1714,1527,10.5032,-10.107
497,-503,15.0057,17.9476,0,0,0,0,0,0,0,-1,1721,1527,15.0058,-17.9476
504,-503,16.4764,18.4486,0,0,0,0,0,0,0,-1,1728,1527,16.4764,-18.4486
511,-503,16.8276,18.3271,0,0,0,0,0,0,0,-1,1735,1527,16.8276,-18.3272
518,-503,17.2533,18.2738,0,0,0,0,0,0,0,-1,1742,1527,17.2533,-18.2738
525,-503,15.6323,18.2122,0,0,0,0,0,0,0,-1,1749,1527,15.6323,-18.2122
532,-503,16.0255,17.7197,0.0020476,-0.00614794,0.0039486,0.00364044,-0.00774079,0.383431,0.0067116,0.0250132,1756,1527,16.0256,-17.7197
539,-503,16.1013,17.2756,0.00162045,-0.00492511,0.00324,0.00295296,-0.00625762,0.390182,0.00543063,0.0153647,1763,1527,16.1013,-17.2757
546,-503,16.1163,16.8462,0.00137562,-0.00375205,0.00253077,0.00241429,-0.00479072,0.389454,0.00423457,0.0119078,1770,1527,16.1164,-16.8462
553,-503,16.1406,16.4716,0.0012985,-0.00272222,0.00179996,0.00198655,-0.00341027,0.365118,0.00315179,0.0143135,1777,1527,16.1407,-16.4716
560,-503,16.1434,16.0948,0.00133483,-0.00174078,0.00109552,0.00168514,-0.0020911,0.309496,0.00218441,0.0140863,1784,1527,16.1434,-16.0948
567,-503,16.1403,15.6927,0.00152288,-0.00118256,0.000509264,0.00161557,-0.00127524,0.180031,0.00167286,0.0117658,1791,1527,16.1402,-15.6927
574,-503,16.1101,15.3063,0.00204063,-0.000617889,-0.000228794,0.00206018,-0.000637436,-0.0852257,0.00162807,0.011893,1798,1527,16.1101,-15.3062
581,-503,16.0765,14.9464,0.00263274,-0.000363889,-0.000826002,0.00284534,-0.000576489,-0.251916,0.0021154,0.0131465,1805,1527,16.0766,-14.9464
588,-503,16.0704,14.5878,0.00350836,-0.000345167,-0.0014676,0.00400363,-0.000840439,-0.32547,0.00298889,0.0161989,1812,1527,16.0705,-14.5878
595,-503,16.0872,14.1674,0.00465915,-0.000698871,-0.00198355,0.00531354,-0.00135326,-0.318666,0.00406916,0.0128556,1819,1527,16.0872,-14.1674
602,-503,16.1227,13.7302,0.00610961,-0.00119371,-0.00258045,0.00692934,-0.00201344,-0.307588,0.00541691,0.0217979,1826,1527,16.1227,-13.7302
609,-503,16.1647,13.2708,0.00791054,-0.00188502,-0.00334876,0.00894593,-0.0029204,-0.299861,0.00713938,0.0432119,1833,1527,16.1646,-13.2707
616,-503,15.9916,13.1691,0.0102529,-0.0026791,-0.00426182,0.0115311,-0.00395728,-0.291377,0.00929178,0.0369108,1840,1527,15.9915,-13.1691
623,-503,16.3856,12.4663,0.0133305,-0.00378231,-0.00539366,0.0148887,-0.00534043,-0.281223,0.0121052,0.0443563,1847,1527,16.3857,-12.4663
630,-503,17.0222,11.8264,0,0,0,0,0,0,0,-1,1854,1527,17.0222,-11.8264
637,-503,14.5564,9.20496,0,0,0,0,0,0,0,-1,1861,1527,14.5564,-9.2049
644,-503,11.4802,7.57214,0,0,0,0,0,0,0,-1,1868,1527,11.4802,-7.57215
651,-503,11.5718,6.5448,0,0,0,0,0,0,0,-1,1875,1527,11.5718,-6.54476
658,-503,8.25635,3.10498,0,0,0,0,0,0,0,-1,1882,1527,8.2563,-3.10493
665,-503,0,0,0,0,0,0,0,0,0,-1,1889,1527,0,0
672,-503,0,0,0,0,0,0,0,0,0,-1,1896,1527,0,0
679,-503,0,0,0,0,0,0,0,0,0,-1,1903,1527,0,0
686,-503,0,0,0,0,0,0,0,0,0,-1,1910,1527,0,0
693,-503,0,0,0,0,0,0,0,0,0,-1,1917,1527,0,0
700,-503,0,0,0,0,0,0,0,0,0,-1,1924,1527,0,0
707,-503,0,0,0,0,0,0,0,0,0,-1,1931,1527,0,0
714,-503,0,0,0,0,0,0,0,0,0,-1,1938,1527,0,0
721,-503,0,0,0,0,0,0,0,0,0,-1,1945,1527,0,0
728,-503,0,0,0,0,0,0,0,0,0,-1,1952,1527,0,0
735,-503,0,0,0,0,0,0,0,0,0,-1,1959,1527,0,0
742,-503,0,0,0,0,0,0,0,0,0,-1,1966,1527,0,0
749,-503,0,0,0,0,0,0,0,0,0,-1,1973,1527,0,0
756,-503,0,0,0,0,0,0,0,0,0,-1,1980,1527,0,0
763,-503,0,0,0,0,0,0,0,0,0,-1,1987,1527,0,0
770,-503,0,0,0,0,0,0,0,0,0,-1,1994,1527,0,0
777,-503,0,0,0,0,0,0,0,0,0,-1,2001,1527,0,0
784,-503,0,0,0,0,0,0,0,0,0,-1,2008,1527,0,0
791,-503,0,0,0,0,0,0,0,0,0,-1,2015,1527,0,0
798,-503,0,0,0,0,0,0,0,0,0,-1,2022,1527,0,0
805,-503,0,0,0,0,0,0,0,0,0,-1,2029,1527,0,0
812,-503,0,0,0,0,0,0,0,0,0,-1,2036,1527,0,0
-700,-510,0,0,0,0,0,0,0,0,0,-1,524,1534,0,0
-693,-510,0,0,0,0,0,0,0,0,0,-1,531,1534,0,0
-686,-510,0,0,0,0,0,0,0,0,0,-1,538,1534,0,0
-679,-510,0,0,0,0,0,0,0,0,0,-1,545,1534,0,0
-672,-510,0,0,0,0,0,0,0,0,0,-1,552,1534,0,0
-665,-510,0,0,0,0,0,0,0,0,0,-1,559,1534,0,0
-658,-510,0,0,0,0,0,0,0,0,0,-1,566,1534,0,0
-651,-510,0,0,0,0,0,0,0,0,0,-1,573,1534,0,0
-644,-510,0,0,0,0,0,0,0,0,0,-1,580,1534,0,0
-637,-510,0,0,0,0,0,0,0,0,0,-1,587,1534,0,0
-630,-510,0,0,0,0,0,0,0,0,0,-1,594,1534,0,0
-623,-510,0,0,0,0,0,0,0,0,0,-1,601,1534,0,0
-616,-510,0,0,0,0,0,0,0,0,0,-1,608,1534,0,0
-609,-510,0,0,0,0,0,0,0,0,0,-1,615,1534,0,0
-602,-510,0,0,0,0,0,0,0,0,0,-1,622,1534,0,0
-595,-510,0,0,0,0,0,0,0,0,0,-1,629,1534,0,0
-588,-510,0,0,0,0,0,0,0,0,0,-1,636,1534,0,0
-581,-510,0,0,0,0,0,0,0,0,0,-1,643,1534,0,0
-574,-510,0,0,0,0,0,0,0,0,0,-1,650,1534,0,0
-567,-510,0,0,0,0,0,0,0,0,0,-1,657,1534,0,0
-560,-510,0,0,0,0,0,0,0,0,0,-1,664,1534,0,0
-553,-510,0,0,0,0,0,0,0,0,0,-1,671,1534,0,0
-546,-510,0,0,0,0,0,0,0,0,0,-1,678,1534,0,0
-539,-510,0,0,0,0,0,0,0,0,0,-1,685,1534,0,0
-532,-510,-3.95129,4.52014,0,0,0,0,0,0,0,-1,692,1534,-3.95131,-4.5202
-525,-510,-2.77411,0.316772,0,0,0,0,0,0,0,-1,699,1534,-2.77409,-0.3168
-518,-510,-2.86847,2.71423,0,0,0,0,0,0,0,-1,706,1534,-2.86849,-2.71424
-511,-510,-2.28571,4.48083,0,0,0,0,0,0,0,-1,713,1534,-2.28571,-4.48086
-504,-510,-1.15045,9.35095,0,0,0,0,0,0,0,-1,720,1534,-1.15043,-9.35093
-497,-510,-1.88647,10.9132,0,0,0,0,0,0,0,-1,727,1534,-1.8865,-10.9133
-490,-510,-2.03412,11.1611,0,0,0,0,0,0,0,-1,734,1534,-2.03411,-11.1611
-483,-510,-2.14008,11.4281,-0.00378742,-0.00316871,-0.00175466,-0.00169634,-0.00525979,-0.872654,0.00309986,0.0448519,741,1534,-2.14009,-11.4281
-476,-510,-2.40704,11.7404,-0.00369543,-0.00339234,-0.00199694,-0.0015412,-0.00554657,-0.82327,0.00330598,0.0354943,748,1534,-2.40703,-11.7404
-469,-510,-2.60791,12.1769,-0.00323412,-0.00304237,-0.00177301,-0.00136265,-0.00491385,-0.81241,0.0029293,0.0144772,755,1534,-2.60792,-12.1769
-462,-510,-2.63684,12.609,-0.00255806,-0.00277388,-0.00141164,-0.00125021,-0.00408173,-0.747252,0.00241482,0.0115267,762,1534,-2.63686,-12.6089
-455,-510,-2.65167,13.0535,-0.00196355,-0.00241786,-0.00113374,-0.00103443,-0.00334698,-0.686527,0.00197879,0.0138335,769,1534,-2.65166,-13.0535
-448,-510,-2.62811,13.4788,-0.00125512,-0.00177298,-0.000634724,-0.000828546,-0.00219956,-0.591731,0.00128273,0.0131094,776,1534,-2.62809,-13.4787
-441,-510,-2.65869,13.8942,-0.000295978,-0.00099501,0.000135946,-0.00027047,-0.00102052,0.185474,0.000610497,0.0136451,783,1534,-2.65868,-13.8942
-434,-510,-2.70844,14.2993,0.000720906,-0.000102338,0.000954292,0.00134857,-0.000729997,0.581785,0.00121764,0.0143983,790,1534,-2.70842,-14.2993
-427,-510,-2.73999,14.6709,0.00172453,0.000932498,0.00181811,0.00318925,-0.000532221,0.678164,0.00232398,0.0225724,797,1534,-2.74002,-14.6709
-420,-510,-2.72803,15.1113,0.00268674,0.00203741,0.00273034,0.00511165,-0.000387503,0.726222,0.003544,0.0219764,804,1534,-2.728,-15.1114
-413,-510,-2.70972,15.564,0.00376314,0.00332127,0.0038047,0.00735331,-0.0002689,0.756397,0.00499426,0.0115698,811,1534,-2.70973,-15.564
-406,-510,-2.73822,15.9768,0.00502939,0.0048058,0.00508742,0.0100062,-0.000171056,0.774413,0.00672857,0.0110487,818,1534,-2.73823,-15.9768
-399,-510,-2.73096,16.3702,0.00645027,0.00652643,0.00657874,0.0130672,-9.05013e-05,0.788292,0.00874179,0.0136615,825,1534,-2.73093,-16.3703
-392,-510,-2.57654,16.9688,0.00776821,0.00901092,0.00847627,0.0168886,-0.000109443,0.821985,0.0112957,0.0364367,832,1534,-2.57651,-16.9688
-385,-510,-2.45367,17.6775,0,0,0,0,0,0,0,-1,839,1534,-2.45365,-17.6775
-378,-510,-1.78308,13.8044,0,0,0,0,0,0,0,-1,846,1534,-1.78309,-13.8044
-371,-510,-1.74982,13.8027,0,0,0,0,0,0,0,-1,853,1534,-1.74981,-13.8028
-364,-510,-1.3479,13.7771,0,0,0,0,0,0,0,-1,860,1534,-1.34791,-13.7771
-357,-510,-0.254395,8.89575,0,0,0,0,0,0,0,-1,867,1534,-0.254397,-8.89569
-350,-510,0.471191,6.06458,0,0,0,0,0,0,0,-1,874,1534,0.47118,-6.06453
-343,-510,-2.94617,5.00989,0,0,0,0,0,0,0,-1,881,1534,-2.94615,-5.00992
-336,-510,-1.85938,19.839,0,0,0,0,0,0,0,-1,888,1534,-1.85937,-19.839
-329,-510,-4.87781,20.6893,0,0,0,0,0,0,0,-1,895,1534,-4.87782,-20.6894
-322,-510,-0.251526,11.973,0,0,0,0,0,0,0,-1,902,1534,-0.251497,-11.9731
-315,-510,-1.73047,10.9796,0,0,0,0,0,0,0,-1,909,1534,-1.73049,-10.9796
-308,-510,-2.05328,9.72034,0,0,0,0,0,0,0,-1,916,1534,-2.05327,-9.72036
-301,-510,-1.85437,11.5869,0,0,0,0,0,0,0,-1,923,1534,-1.85437,-11.5869
-294,-510,0,0,0,0,0,0,0,0,0,-1,930,1534,0,0
-287,-510,0,0,0,0,0,0,0,0,0,-1,937,1534,0,0
-280,-510,0,0,0,0,0,0,0,0,0,-1,944,1534,0,0
-273,-510,0,0,0,0,0,0,0,0,0,-1,951,1534,0,0
-266,-510,0,0,0,0,0,0,0,0,0,-1,958,1534,0,0
-259,-510,0,0,0,0,0,0,0,0,0,-1,965,1534,0,0
-252,-510,0,0,0,0,0,0,0,0,0,-1,972,1534,0,0
-245,-510,0,0,0,0,0,0,0,0,0,-1,979,1534,0,0
-238,-510,0,0,0,0,0,0,0,0,0,-1,986,1534,0,0
-231,-510,0,0,0,0,0,0,0,0,0,-1,993,1534,0,0
-224,-510,0,0,0,0,0,0,0,0,0,-1,1000,1534,0,0
-217,-510,0,0,0,0,0,0,0,0,0,-1,1007,1534,0,0
-210,-510,0,0,0,0,0,0,0,0,0,-1,1014,1534,0,0
-203,-510,0,0,0,0,0,0,0,0,0,-1,1021,1534,0,0
-196,-510,0,0,0,0,0,0,0,0,0,-1,1028,1534,0,0
-189,-510,0,0,0,0,0,0,0,0,0,-1,1035,1534,0,0
-182,-510,0,0,0,0,0,0,0,0,0,-1,1042,1534,0,0
-175,-510,0,0,0,0,0,0,0,0,0,-1,1049,1534,0,0
-168,-510,0,0,0,0,0,0,0,0,0,-1,1056,1534,0,0
-161,-510,0,0,0,0,0,0,0,0,0,-1,1063,1534,0,0
-154,-510,0,0,0,0,0,0,0,0,0,-1,1070,1534,0,0
-147,-510,0,0,0,0,0,0,0,0,0,-1,1077,1534,0,0
-140,-510,0,0,0,0,0,0,0,0,0,-1,1084,1534,0,0
-133,-510,0,0,0,0,0,0,0,0,0,-1,1091,1534,0,0
-126,-510,0,0,0,0,0,0,0,0,0,-1,1098,1534,0,0
-119,-510,0,0,0,0,0,0,0,0,0,-1,1105,1534,0,0
-112,-510,0,0,0,0,0,0,0,0,0,-1,1112,1534,0,0
-105,-510,0,0,0,0,0,0,0,0,0,-1,1119,1534,0,0
-98,-510,0,0,0,0,0,0,0,0,0,-1,1126,1534,0,0
-91,-510,0,0,0,0,0,0,0,0,0,-1,1133,1534,0,0
-84,-510,0,0,0,0,0,0,0,0,0,-1,1140,1534,0,0
-77,-510,0,0,0,0,0,0,0,0,0,-1,1147,1534,0,0
-70,-510,0,0,0,0,0,0,0,0,0,-1,1154,1534,0,0
-63,-510,0,0,0,0,0,0,0,0,0,-1,1161,1534,0,0
-56,-510,0,0,0,0,0,0,0,0,0,-1,1168,1534,0,0
-49,-510,0,0,0,0,0,0,0,0,0,-1,1175,1534,0,0
-42,-510,0,0,0,0,0,0,0,0,0,-1,1182,1534,0,0
-35,-510,0,0,0,0,0,0,0,0,0,-1,1189,1534,0,0
-28,-510,0,0,0,0,0,0,0,0,0,-1,1196,1534,0,0
-21,-510,0,0,0,0,0,0,0,0,0,-1,1203,1534,0,0
-14,-510,0,0,0,0,0,0,0,0,0,-1,1210,1534,0,0
-7,-510,0,0,0,0,0,0,0,0,0,-1,1217,1534,0,0
0,-510,0,0,0,0,0,0,0,0,0,-1,1224,1534,0,0
7,-510,0,0,0,0,0,0,0,0,0,-1,1231,1534,0,0
14,-510,0,0,0,0,0,0,0,0,0,-1,1238,1534,0,0
21,-510,0,0,0,0,0,0,0,0,0,-1,1245,1534,0,0
28,-510,0,0,0,0,0,0,0,0,0,-1,1252,1534,0,0
35,-510,0,0,0,0,0,0,0,0,0,-1,1259,1534,0,0
42,-510,0,0,0,0,0,0,0,0,0,-1,1266,1534,0,0
49,-510,0,0,0,0,0,0,0,0,0,-1,1273,1534,0,0
56,-510,0,0,0,0,0,0,0,0,0,-1,1280,1534,0,0
63,-510,0,0,0,0,0,0,0,0,0,-1,1287,1534,0,0
70,-510,0,0,0,0,0,0,0,0,0,-1,1294,1534,0,0
77,-510,0,0,0,0,0,0,0,0,0,-1,1301,1534,0,0
84,-510,0,0,0,0,0,0,0,0,0,-1,1308,1534,0,0
91,-510,0,0,0,0,0,0,0,0,0,-1,1315,1534,0,0
98,-510,0,0,0,0,0,0,0,0,0,-1,1322,1534,0,0
105,-510,0,0,0,0,0,0,0,0,0,-1,1329,1534,0,0
112,-510,0,0,0,0,0,0,0,0,0,-1,1336,1534,0,0
119,-510,0,0,0,0,0,0,0,0,0,-1,1343,1534,0,0
126,-510,0,0,0,0,0,0,0,0,0,-1,1350,1534,0,0
133,-510,0,0,0,0,0,0,0,0,0,-1,1357,1534,0,0
140,-510,0,0,0,0,0,0,0,0,0,-1,1364,1534,0,0
147,-510,0,0,0,0,0,0,0,0,0,-1,1371,1534,0,0
154,-510,0,0,0,0,0,0,0,0,0,-1,1378,1534,0,0
161,-510,0,0,0,0,0,0,0,0,0,-1,1385,1534,0,0
168,-510,0,0,0,0,0,0,0,0,0,-1,1392,1534,0,0
175,-510,0,0,0,0,0,0,0,0,0,-1,1399,1534,0,0
182,-510,0,0,0,0,0,0,0,0,0,-1,1406,1534,0,0
189,-510,0,0,0,0,0,0,0,0,0,-1,1413,1534,0,0
196,-510,0,0,0,0,0,0,0,0,0,-1,1420,1534,0,0
203,-510,0,0,0,0,0,0,0,0,0,-1,1427,1534,0,0
210,-510,0,0,0,0,0,0,0,0,0,-1,1434,1534,0,0
217,-510,0,0,0,0,0,0,0,0,0,-1,1441,1534,0,0
224,-510,0,0,0,0,0,0,0,0,0,-1,1448,1534,0,0
231,-510,0,0,0,0,0,0,0,0,0,-1,1455,1534,0,0
238,-510,0,0,0,0,0,0,0,0,0,-1,1462,1534,0,0
245,-510,0,0,0,0,0,0,0,0,0,-1,1469,1534,0,0
252,-510,0,0,0,0,0,0,0,0,0,-1,1476,1534,0,0
259,-510,0,0,0,0,0,0,0,0,0,-1,1483,1534,0,0
266,-510,0,0,0,0,0,0,0,0,0,-1,1490,1534,0,0
273,-510,0,0,0,0,0,0,0,0,0,-1,1497,1534,0,0
280,-510,0,0,0,0,0,0,0,0,0,-1,1504,1534,0,0
287,-510,0,0,0,0,0,0,0,0,0,-1,1511,1534,0,0
294,-510,0,0,0,0,0,0,0,0,0,-1,1518,1534,0,0
301,-510,0,0,0,0,0,0,0,0,0,-1,1525,1534,0,0
308,-510,0,0,0,0,0,0,0,0,0,-1,1532,1534,0,0
315,-510,0,0,0,0,0,0,0,0,0,-1,1539,1534,0,0
322,-510,0,0,0,0,0,0,0,0,0,-1,1546,1534,0,0
329,-510,0,0,0,0,0,0,0,0,0,-1,1553,1534,0,0
336,-510,0,0,0,0,0,0,0,0,0,-1,1560,1534,0,0
343,-510,0,0,0,0,0,0,0,0,0,-1,1567,1534,0,0
350,-510,0,0,0,0,0,0,0,0,0,-1,1574,1534,0,0
357,-510,0,0,0,0,0,0,0,0,0,-1,1581,1534,0,0
364,-510,0,0,0,0,0,0,0,0,0,-1,1588,1534,0,0
371,-510,0,0,0,0,0,0,0,0,0,-1,1595,1534,0,0
378,-510,0,0,0,0,0,0,0,0,0,-1,1602,1534,0,0
385,-510,0,0,0,0,0,0,0,0,0,-1,1609,1534,0,0
392,-510,0,0,0,0,0,0,0,0,0,-1,1616,1534,0,0
399,-510,0,0,0,0,0,0,0,0,0,-1,1623,1534,0,0
406,-510,0,0,0,0,0,0,0,0,0,-1,1630,1534,0,0
413,-510,0,0,0,0,0,0,0,0,0,-1,1637,1534,0,0
420,-510,13.9399,6.59412,0,0,0,0,0,0,0,-1,1644,1534,13.94,-6.59417
427,-510,10.9799,5.12341,0,0,0,0,0,0,0,-1,1651,1534,10.9798,-5.12337
434,-510,11.8219,4.07898,0,0,0,0,0,0,0,-1,1658,1534,11.8219,-4.07895
441,-510,12.6812,3.02991,0,0,0,0,0,0,0,-1,1665,1534,12.6811,-3.0299
448,-510,13.2379,2.2804,0,0,0,0,0,0,0,-1,1672,1534,13.2379,-2.28037
455,-510,9.76892,2.20642,0,0,0,0,0,0,0,-1,1679,1534,9.76894,-2.20647
462,-510,9.84692,2.49182,0,0,0,0,0,0,0,-1,1686,1534,9.84695,-2.49185
469,-510,16.6072,7.26941,0,0,0,0,0,0,0,-1,1693,1534,16.6072,-7.26945
476,-510,15.9199,7.8645,0,0,0,0,0,0,0,-1,1700,1534,15.9199,-7.86455
483,-510,13.0833,8.10938,0,0,0,0,0,0,0,-1,1707,1534,13.0833,-8.10932
490,-510,13.0841,15.3286,0,0,0,0,0,0,0,-1,1714,1534,13.0841,-15.3286
497,-510,15.5652,18.823,0,0,0,0,0,0,0,-1,1721,1534,15.5652,-18.823
504,-510,15.998,18.7478,0,0,0,0,0,0,0,-1,1728,1534,15.998,-18.7478
511,-510,15.9443,18.0476,0,0,0,0,0,0,0,-1,1735,1534,15.9443,-18.0476
518,-510,15.7831,18.8807,0,0,0,0,0,0,0,-1,1742,1534,15.7831,-18.8808
525,-510,15.668,18.2034,0.00281453,-0.00416094,0.00255677,0.0036513,-0.00499772,0.31629,0.00501364,0.0417994,1749,1534,15.6679,-18.2033
532,-510,15.7262,17.6722,0.00217381,-0.00357795,0.00231469,0.00298961,-0.00439374,0.338849,0.0042884,0.0178482,1756,1534,15.7262,-17.6723
539,-510,15.7534,17.2346,0.00178221,-0.00297384,0.00196889,0.0024915,-0.00368313,0.345776,0.00358699,0.0136085,1763,1534,15.7534,-17.2346
546,-510,15.7336,16.8733,0.00156913,-0.00230342,0.00154496,0.00210996,-0.00284425,0.33673,0.00287077,0.0121216,1770,1534,15.7337,-16.8734
553,-510,15.7417,16.4801,0.00149296,-0.00168337,0.00106547,0.00181725,-0.00200766,0.295457,0.00220923,0.0131995,1777,1534,15.7417,-16.4801
560,-510,15.7223,16.0892,0.00154124,-0.00101575,0.000563959,0.0016601,-0.00113461,0.207719,0.00162301,0.0134703,1784,1534,15.7223,-16.0892
567,-510,15.7126,15.7047,0.00178032,-0.000729256,0.0001312,0.00178716,-0.000736096,0.0520903,0.00149834,0.0117687,1791,1534,15.7127,-15.7047
574,-510,15.7039,15.3223,0.00240757,-0.000320401,-0.000557725,0.00251719,-0.000430021,-0.194075,0.00183831,0.0129158,1798,1534,15.7038,-15.3222
581,-510,15.6814,14.9796,0.00313104,-0.000150438,-0.00114714,0.00349229,-0.000511684,-0.30508,0.00251616,0.0125045,1805,1534,15.6814,-14.9796
588,-510,15.6818,14.5854,0.00416159,-0.000266803,-0.00176933,0.00478168,-0.000886897,-0.337091,0.00352085,0.0128229,1812,1534,15.6818,-14.5855
595,-510,15.7974,14.079,0.00552754,-0.000763639,-0.00233647,0.00630035,-0.00153645,-0.319431,0.00479514,0.0218197,1819,1534,15.7974,-14.079
602,-510,15.8285,13.6193,0,0,0,0,0,0,0,-1,1826,1534,15.8285,-13.6193
609,-510,15.8943,13.2585,0,0,0,0,0,0,0,-1,1833,1534,15.8943,-13.2585
616,-510,15.6001,13.3451,0,0,0,0,0,0,0,-1,1840,1534,15.6,-13.3452
623,-510,16.0367,12.2749,0,0,0,0,0,0,0,-1,1847,1534,16.0368,-12.275
630,-510,13.7461,9.30334,0,0,0,0,0,0,0,-1,1854,1534,13.7461,-9.30335
637,-510,11.0155,7.38464,0,0,0,0,0,0,0,-1,1861,1534,11.0155,-7.38463
644,-510,11.5809,7.17126,0,0,0,0,0,0,0,-1,1868,1534,11.5809,-7.17123
651,-510,8.70471,3.5061,0,0,0,0,0,0,0,-1,1875,1534,8.70475,-3.50611
658,-510,0,0,0,0,0,0,0,0,0,-1,1882,1534,0,0
665,-510,0,0,0,0,0,0,0,0,0,-1,1889,1534,0,0
672,-510,0,0,0,0,0,0,0,0,0,-1,1896,1534,0,0
679,-510,0,0,0,0,0,0,0,0,0,-1,1903,1534,0,0
686,-510,0,0,0,0,0,0,0,0,0,-1,1910,1534,0,0
693,-510,0,0,0,0,0,0,0,0,0,-1,1917,1534,0,0
700,-510,0,0,0,0,0,0,0,0,0,-1,1924,1534,0,0
707,-510,0,0,0,0,0,0,0,0,0,-1,1931,1534,0,0
714,-510,0,0,0,0,0,0,0,0,0,-1,1938,1534,0,0
721,-510,0,0,0,0,0,0,0,0,0,-1,1945,1534,0,0
728,-510,0,0,0,0,0,0,0,0,0,-1,1952,1534,0,0
735,-510,0,0,0,0,0,0,0,0,0,-1,1959,1534,0,0
742,-510,0,0,0,0,0,0,0,0,0,-1,1966,1534,0,0
749,-510,0,0,0,0,0,0,0,0,0,-1,1973,1534,0,0
756,-510,0,0,0,0,0,0,0,0,0,-1,1980,1534,0,0
763,-510,0,0,0,0,0,0,0,0,0,-1,1987,1534,0,0
770,-510,0,0,0,0,0,0,0,0,0,-1,1994,1534,0,0
777,-510,0,0,0,0,0,0,0,0,0,-1,2001,1534,0,0
784,-510,0,0,0,0,0,0,0,0,0,-1,2008,1534,0,0
791,-510,0,0,0,0,0,0,0,0,0,-1,2015,1534,0,0
798,-510,0,0,0,0,0,0,0,0,0,-1,2022,1534,0,0
805,-510,0,0,0,0,0,0,0,0,0,-1,2029,1534,0,0
812,-510,0,0,0,0,0,0,0,0,0,-1,2036,1534,0,0
-700,-517,0,0,0,0,0,0,0,0,0,-1,524,1541,0,0
-693,-517,0,0,0,0,0,0,0,0,0,-1,531,1541,0,0
-686,-517,0,0,0,0,0,0,0,0,0,-1,538,1541,0,0
-679,-517,0,0,0,0,0,0,0,0,0,-1,545,1541,0,0
-672,-517,0,0,0,0,0,0,0,0,0,-1,552,1541,0,0
-665,-517,0,0,0,0,0,0,0,0,0,-1,559,1541,0,0
-658,-517,0,0,0,0,0,0,0,0,0,-1,566,1541,0,0
-651,-517,0,0,0,0,0,0,0,0,0,-1,573,1541,0,0
-644,-517,0,0,0,0,0,0,0,0,0,-1,580,1541,0,0
-637,-517,0,0,0,0,0,0,0,0,0,-1,587,1541,0,0
-630,-517,0,0,0,0,0,0,0,0,0,-1,594,1541,0,0
-623,-517,0,0,0,0,0,0,0,0,0,-1,601,1541,0,0
-616,-517,0,0,0,0,0,0,0,0,0,-1,608,1541,0,0
-609,-517,0,0,0,0,0,0,0,0,0,-1,615,1541,0,0
-602,-517,0,0,0,0,0,0,0,0,0,-1,622,1541,0,0
-595,-517,0,0,0,0,0,0,0,0,0,-1,629,1541,0,0
-588,-517,0,0,0,0,0,0,0,0,0,-1,636,1541,0,0
-581,-517,0,0,0,0,0,0,0,0,0,-1,643,1541,0,0
-574,-517,0,0,0,0,0,0,0,0,0,-1,650,1541,0,0
-567,-517,0,0,0,0,0,0,0,0,0,-1,657,1541,0,0
-560,-517,0,0,0,0,0,0,0,0,0,-1,664,1541,0,0
-553,-517,0,0,0,0,0,0,0,0,0,-1,671,1541,0,0
-546,-517,0,0,0,0,0,0,0,0,0,-1,678,1541,0,0
-539,-517,0,0,0,0,0,0,0,0,0,-1,685,1541,0,0
-532,-517,0,0,0,0,0,0,0,0,0,-1,692,1541,0,0
-525,-517,-3.62903,4.3606,0,0,0,0,0,0,0,-1,699,1541,-3.62904,-4.36056
-518,-517,-1.664,2.27209,0,0,0,0,0,0,0,-1,706,1541,-1.66399,-2.27207
-511,-517,-0.999146,5.52063,0,0,0,0,0,0,0,-1,713,1541,-0.999126,-5.52059
-504,-517,-1.06946,8.67432,0,0,0,0,0,0,0,-1,720,1541,-1.06947,-8.6743
-497,-517,-3.01086,11.3365,0,0,0,0,0,0,0,-1,727,1541,-3.01085,-11.3366
-490,-517,-1.52472,11.0715,0,0,0,0,0,0,0,-1,734,1541,-1.52475,-11.0715
-483,-517,-1.63672,11.3953,0,0,0,0,0,0,0,-1,741,1541,-1.63674,-11.3952
-476,-517,-1.95758,11.6768,0,0,0,0,0,0,0,-1,748,1541,-1.95755,-11.6768
-469,-517,-2.14227,12.1991,-0.00396047,-0.00427023,-0.00220602,-0.0019039,-0.00632679,-0.750352,0.00374804,0.0192089,755,1541,-2.14224,-12.1991
-462,-517,-2.24066,12.6097,-0.00308633,-0.00361061,-0.00169093,-0.00163733,-0.0050596,-0.708497,0.00298114,0.0177986,762,1541,-2.24069,-12.6097
-455,-517,-2.23889,13.0541,-0.00236722,-0.00299956,-0.00132565,-0.00132056,-0.00404622,-0.668333,0.00238258,0.0142447,769,1541,-2.23888,-13.054
-448,-517,-2.24213,13.4814,-0.00161443,-0.00219454,-0.000830593,-0.0010247,-0.00278427,-0.617413,0.00162605,0.0135149,776,1541,-2.24216,-13.4814
-441,-517,-2.27252,13.8948,-0.000650821,-0.0012778,-9.9879e-05,-0.000635294,-0.00129332,-0.154219,0.000746739,0.0115556,783,1541,-2.27251,-13.8948
-434,-517,-2.27325,14.3105,0.000367252,-0.00027109,0.000674351,0.00079415,-0.000697989,0.564368,0.000862083,0.0137476,790,1541,-2.27326,-14.3105
-427,-517,-2.29504,14.7192,0.00139093,0.000841071,0.00150759,0.00264846,-0.000416456,0.695207,0.00191958,0.0137787,797,1541,-2.29507,-14.7192
-420,-517,-2.33679,15.141,0.00235734,0.0019963,0.00236866,0.00455234,-0.000198708,0.747366,0.00310325,0.0188965,804,1541,-2.33678,-15.141
-413,-517,-2.32825,15.5536,0.00338036,0.00331039,0.00332448,0.00667004,2.07126e-05,0.780137,0.00443981,0.0101749,811,1541,-2.32825,-15.5536
-406,-517,-2.33221,15.973,0.0045595,0.00477846,0.0044694,0.00913972,0.000198244,0.797643,0.00602815,0.0107485,818,1541,-2.33223,-15.973
-399,-517,-2.32025,16.3861,0.00582818,0.00642061,0.00575374,0.0118858,0.000363039,0.811117,0.00780564,0.0110731,825,1541,-2.32025,-16.3861
-392,-517,-2.29865,16.819,0.00691424,0.0086388,0.00733751,0.0151645,0.000388519,0.843889,0.00998269,0.0150905,832,1541,-2.29864,-16.819
-385,-517,-2.2171,17.4875,0.0073552,0.0124849,0.00864984,0.0189421,0.00089794,0.929528,0.0123397,0.0320366,839,1541,-2.21709,-17.4876
-378,-517,-2.13031,18.4351,0,0,0,0,0,0,0,-1,846,1541,-2.1303,-18.4351
-371,-517,-1.37585,13.2646,0,0,0,0,0,0,0,-1,853,1541,-1.37586,-13.2647
-364,-517,-1.26245,12.6289,0,0,0,0,0,0,0,-1,860,1541,-1.26243,-12.6289
-357,-517,-1.23889,12.979,0,0,0,0,0,0,0,-1,867,1541,-1.23891,-12.979
-350,-517,0.722412,10.0829,0,0,0,0,0,0,0,-1,874,1541,0.722399,-10.0828
-343,-517,-2.89331,17.5468,0,0,0,0,0,0,0,-1,881,1541,-2.89334,-17.5468
-336,-517,-1.67847,19.3165,0,0,0,0,0,0,0,-1,888,1541,-1.67849,-19.3165
-329,-517,-0.463623,21.0862,0,0,0,0,0,0,0,-1,895,1541,-0.463643,-21.0862
-322,-517,-4.21246,19.5819,0,0,0,0,0,0,0,-1,902,1541,-4.21244,-19.5819
-315,-517,-0.987976,7.29749,0,0,0,0,0,0,0,-1,909,1541,-0.987993,-7.29743
-308,-517,3.27911,17.621,0,0,0,0,0,0,0,-1,916,1541,3.27913,-17.621
-301,-517,-1.69141,8.87488,0,0,0,0,0,0,0,-1,923,1541,-1.69141,-8.87485
-294,-517,-1.72583,9.92566,0,0,0,0,0,0,0,-1,930,1541,-1.72584,-9.92571
-287,-517,-3.09045,12.1472,0,0,0,0,0,0,0,-1,937,1541,-3.09043,-12.1472
-280,-517,0,0,0,0,0,0,0,0,0,-1,944,1541,0,0
-273,-517,0,0,0,0,0,0,0,0,0,-1,951,1541,0,0
-266,-517,0,0,0,0,0,0,0,0,0,-1,958,1541,0,0
-259,-517,0,0,0,0,0,0,0,0,0,-1,965,1541,0,0
-252,-517,0,0,0,0,0,0,0,0,0,-1,972,1541,0,0
-245,-517,0,0,0,0,0,0,0,0,0,-1,979,1541,0,0
-238,-517,0,0,0,0,0,0,0,0,0,-1,986,1541,0,0
-231,-517,0,0,0,0,0,0,0,0,0,-1,993,1541,0,0
-224,-517,0,0,0,0,0,0,0,0,0,-1,1000,1541,0,0
-217,-517,0,0,0,0,0,0,0,0,0,-1,1007,1541,0,0
-210,-517,0,0,0,0,0,0,0,0,0,-1,1014,1541,0,0
-203,-517,0,0,0,0,0,0,0,0,0,-1,1021,1541,0,0
-196,-517,0,0,0,0,0,0,0,0,0,-1,1028,1541,0,0
-189,-517,0,0,0,0,0,0,0,0,0,-1,1035,1541,0,0
-182,-517,0,0,0,0,0,0,0,0,0,-1,1042,1541,0,0
-175,-517,0,0,0,0,0,0,0,0,0,-1,1049,1541,0,0
-168,-517,0,0,0,0,0,0,0,0,0,-1,1056,1541,0,0
-161,-517,0,0,0,0,0,0,0,0,0,-1,1063,1541,0,0
-154,-517,0,0,0,0,0,0,0,0,0,-1,1070,1541,0,0
-147,-517,0,0,0,0,0,0,0,0,0,-1,1077,1541,0,0
-140,-517,0,0,0,0,0,0,0,0,0,-1,1084,1541,0,0
-133,-517,0,0,0,0,0,0,0,0,0,-1,1091,1541,0,0
-126,-517,0,0,0,0,0,0,0,0,0,-1,1098,1541,0,0
-119,-517,0,0,0,0,0,0,0,0,0,-1,1105,1541,0,0
-112,-517,0,0,0,0,0,0,0,0,0,-1,1112,1541,0,0
-105,-517,0,0,0,0,0,0,0,0,0,-1,1119,1541,0,0
-98,-517,0,0,0,0,0,0,0,0,0,-1,1126,1541,0,0
-91,-517,0,0,0,0,0,0,0,0,0,-1,1133,1541,0,0
-84,-517,0,0,0,0,0,0,0,0,0,-1,1140,1541,0,0
-77,-517,0,0,0,0,0,0,0,0,0,-1,1147,1541,0,0
-70,-517,0,0,0,0,0,0,0,0,0,-1,1154,1541,0,0
-63,-517,0,0,0,0,0,0,0,0,0,-1,1161,1541,0,0
-56,-517,0,0,0,0,0,0,0,0,0,-1,1168,1541,0,0
-49,-517,0,0,0,0,0,0,0,0,0,-1,1175,1541,0,0
-42,-517,0,0,0,0,0,0,0,0,0,-1,1182,1541,0,0
-35,-517,0,0,0,0,0,0,0,0,0,-1,1189,1541,0,0
-28,-517,0,0,0,0,0,0,0,0,0,-1,1196,1541,0,0
-21,-517,0,0,0,0,0,0,0,0,0,-1,1203,1541,0,0
-14,-517,0,0,0,0,0,0,0,0,0,-1,1210,1541,0,0
-7,-517,0,0,0,0,0,0,0,0,0,-1,1217,1541,0,0
0,-517,0,0,0,0,0,0,0,0,0,-1,1224,1541,0,0
7,-517,0,0,0,0,0,0,0,0,0,-1,1231,1541,0,0
14,-517,0,0,0,0,0,0,0,0,0,-1,1238,1541,0,0
21,-517,0,0,0,0,0,0,0,0,0,-1,1245,1541,0,0
28,-517,0,0,0,0,0,0,0,0,0,-1,1252,1541,0,0
35,-517,0,0,0,0,0,0,0,0,0,-1,1259,1541,0,0
42,-517,0,0,0,0,0,0,0,0,0,-1,1266,1541,0,0
49,-517,0,0,0,0,0,0,0,0,0,-1,1273,1541,0,0
56,-517,0,0,0,0,0,0,0,0,0,-1,1280,1541,0,0
63,-517,0,0,0,0,0,0,0,0,0,-1,1287,1541,0,0
70,-517,0,0,0,0,0,0,0,0,0,-1,1294,1541,0,0
77,-517,0,0,0,0,0,0,0,0,0,-1,1301,1541,0,0
84,-517,0,0,0,0,0,0,0,0,0,-1,1308,1541,0,0
91,-517,0,0,0,0,0,0,0,0,0,-1,1315,1541,0,0
98,-517,0,0,0,0,0,0,0,0,0,-1,1322,1541,0,0
105,-517,0,0,0,0,0,0,0,0,0,-1,1329,1541,0,0
112,-517,0,0,0,0,0,0,0,0,0,-1,1336,1541,0,0
119,-517,0,0,0,0,0,0,0,0,0,-1,1343,1541,0,0
126,-517,0,0,0,0,0,0,0,0,0,-1,1350,1541,0,0
133,-517,0,0,0,0,0,0,0,0,0,-1,1357,1541,0,0
140,-517,0,0,0,0,0,0,0,0,0,-1,1364,1541,0,0
147,-517,0,0,0,0,0,0,0,0,0,-1,1371,1541,0,0
154,-517,0,0,0,0,0,0,0,0,0,-1,1378,1541,0,0
161,-517,0,0,0,0,0,0,0,0,0,-1,1385,1541,0,0
168,-517,0,0,0,0,0,0,0,0,0,-1,1392,1541,0,0
175,-517,0,0,0,0,0,0,0,0,0,-1,1399,1541,0,0
182,-517,0,0,0,0,0,0,0,0,0,-1,1406,1541,0,0
189,-517,0,0,0,0,0,0,0,0,0,-1,1413,1541,0,0
196,-517,0,0,0,0,0,0,0,0,0,-1,1420,1541,0,0
203,-517,0,0,0,0,0,0,0,0,0,-1,1427,1541,0,0
210,-517,0,0,0,0,0,0,0,0,0,-1,1434,1541,0,0
217,-517,0,0,0,0,0,0,0,0,0,-1,1441,1541,0,0
224,-517,0,0,0,0,0,0,0,0,0,-1,1448,1541,0,0
231,-517,0,0,0,0,0,0,0,0,0,-1,1455,1541,0,0
238,-517,0,0,0,0,0,0,0,0,0,-1,1462,1541,0,0
245,-517,0,0,0,0,0,0,0,0,0,-1,1469,1541,0,0
252,-517,0,0,0,0,0,0,0,0,0,-1,1476,1541,0,0
259,-517,0,0,0,0,0,0,0,0,0,-1,1483,1541,0,0
266,-517,0,0,0,0,0,0,0,0,0,-1,1490,1541,0,0
273,-517,0,0,0,0,0,0,0,0,0,-1,1497,1541,0,0
280,-517,0,0,0,0,0,0,0,0,0,-1,1504,1541,0,0
287,-517,0,0,0,0,0,0,0,0,0,-1,1511,1541,0,0
294,-517,0,0,0,0,0,0,0,0,0,-1,1518,1541,0,0
301,-517,0,0,0,0,0,0,0,0,0,-1,1525,1541,0,0
308,-517,0,0,0,0,0,0,0,0,0,-1,1532,1541,0,0
315,-517,0,0,0,0,0,0,0,0,0,-1,1539,1541,0,0
322,-517,0,0,0,0,0,0,0,0,0,-1,1546,1541,0,0
329,-517,0,0,0,0,0,0,0,0,0,-1,1553,1541,0,0
336,-517,0,0,0,0,0,0,0,0,0,-1,1560,1541,0,0
343,-517,0,0,0,0,0,0,0,0,0,-1,1567,1541,0,0
350,-517,0,0,0,0,0,0,0,0,0,-1,1574,1541,0,0
357,-517,0,0,0,0,0,0,0,0,0,-1,1581,1541,0,0
364,-517,0,0,0,0,0,0,0,0,0,-1,1588,1541,0,0
371,-517,0,0,0,0,0,0,0,0,0,-1,1595,1541,0,0
378,-517,0,0,0,0,0,0,0,0,0,-1,1602,1541,0,0
385,-517,0,0,0,0,0,0,0,0,0,-1,1609,1541,0,0
392,-517,0,0,0,0,0,0,0,0,0,-1,1616,1541,0,0
399,-517,0,0,0,0,0,0,0,0,0,-1,1623,1541,0,0
406,-517,13.1395,7.01978,0,0,0,0,0,0,0,-1,1630,1541,13.1396,-7.01981
413,-517,12.8859,6.31592,0,0,0,0,0,0,0,-1,1637,1541,12.8858,-6.31588
420,-517,12.4789,6.20337,0,0,0,0,0,0,0,-1,1644,1541,12.4789,-6.20333
427,-517,11.647,4.66516,0,0,0,0,0,0,0,-1,1651,1541,11.647,-4.66519
434,-517,12.3719,3.92773,0,0,0,0,0,0,0,-1,1658,1541,12.3719,-3.92776
441,-517,13.146,3.14124,0,0,0,0,0,0,0,-1,1665,1541,13.146,-3.14121
448,-517,13.8861,2.36682,0,0,0,0,0,0,0,-1,1672,1541,13.8861,-2.36684
455,-517,13.6012,4.06335,0,0,0,0,0,0,0,-1,1679,1541,13.6012,-4.06335
462,-517,14.8956,7.0752,0,0,0,0,0,0,0,-1,1686,1541,14.8956,-7.07525
469,-517,13.6292,6.87744,0,0,0,0,0,0,0,-1,1693,1541,13.6292,-6.87739
476,-517,17.1632,14.1487,0,0,0,0,0,0,0,-1,1700,1541,17.1632,-14.1487
483,-517,16.5157,15.0776,0,0,0,0,0,0,0,-1,1707,1541,16.5157,-15.0777
490,-517,15.5439,18.0258,0,0,0,0,0,0,0,-1,1714,1541,15.5439,-18.0258
497,-517,16.0292,18.7786,0,0,0,0,0,0,0,-1,1721,1541,16.0291,-18.7786
504,-517,15.035,19.1802,0,0,0,0,0,0,0,-1,1728,1541,15.0351,-19.1802
511,-517,15.1594,19.3545,0,0,0,0,0,0,0,-1,1735,1541,15.1594,-19.3545
518,-517,15.1117,18.4692,0,0,0,0,0,0,0,-1,1742,1541,15.1117,-18.4693
525,-517,15.2739,18.0616,0.0029704,-0.00179213,0.000941491,0.00314977,-0.0019715,0.188256,0.00298273,0.019149,1749,1541,15.274,-18.0616
532,-517,15.3864,17.6063,0.00224958,-0.00173249,0.00107595,0.00252171,-0.00200461,0.247721,0.00261895,0.0120765,1756,1541,15.3863,-17.6063
539,-517,15.3782,17.2415,0.00182039,-0.00159287,0.00105707,0.00212124,-0.00189372,0.277277,0.00231928,0.0128229,1763,1541,15.3781,-17.2415
546,-517,15.3665,16.8846,0.00155335,-0.00132963,0.000924114,0.00182414,-0.00160042,0.28504,0.00197857,0.0125624,1770,1541,15.3665,-16.8846
553,-517,15.3536,16.5125,0.00140707,-0.0010604,0.000713341,0.00159845,-0.00125178,0.262116,0.00164964,0.0155656,1777,1541,15.3537,-16.5125
560,-517,15.3397,16.1113,0.00141523,-0.000678372,0.000432744,0.00150115,-0.000764293,0.196001,0.00133082,0.015005,1784,1541,15.3397,-16.1114
567,-517,15.3407,15.7407,0.00166741,-0.000624113,0.000162357,0.00167886,-0.000635559,0.0703826,0.00138074,0.0116436,1791,1541,15.3407,-15.7408
574,-517,15.3319,15.3459,0.00237537,-0.000367742,-0.000454427,0.00244869,-0.000441063,-0.15997,0.00179761,0.0131268,1798,1541,15.3319,-15.346
581,-517,15.3049,14.9644,0.0032317,-0.000270618,-0.00103009,0.0035122,-0.000551121,-0.265862,0.00254514,0.0155192,1805,1541,15.3049,-14.9643
588,-517,15.3209,14.5806,0.00444032,-0.000542818,-0.00162763,0.00492484,-0.00102734,-0.289331,0.00367387,0.0163329,1812,1541,15.3209,-14.5806
595,-517,15.3944,14.1757,0.00605127,-0.00119903,-0.00225727,0.00669659,-0.00184436,-0.278461,0.0051896,0.0493387,1819,1541,15.3944,-14.1756
602,-517,15.8027,13.5498,0,0,0,0,0,0,0,-1,1826,1541,15.8027,-13.5498
609,-517,12.6417,10.8751,0,0,0,0,0,0,0,-1,1833,1541,12.6417,-10.8751
616,-517,14.205,10.3193,0,0,0,0,0,0,0,-1,1840,1541,14.205,-10.3194
623,-517,12.578,10.0779,0,0,0,0,0,0,0,-1,1847,1541,12.578,-10.0779
630,-517,11.7035,7.47815,0,0,0,0,0,0,0,-1,1854,1541,11.7035,-7.47812
637,-517,11.5172,5.79822,0,0,0,0,0,0,0,-1,1861,1541,11.5173,-5.79825
644,-517,11.4232,3.30579,0,0,0,0,0,0,0,-1,1868,1541,11.4232,-3.30574
651,-517,0,0,0,0,0,0,0,0,0,-1,1875,1541,0,0
658,-517,0,0,0,0,0,0,0,0,0,-1,1882,1541,0,0
665,-517,0,0,0,0,0,0,0,0,0,-1,1889,1541,0,0
672,-517,0,0,0,0,0,0,0,0,0,-1,1896,1541,0,0
679,-517,0,0,0,0,0,0,0,0,0,-1,1903,1541,0,0
686,-517,0,0,0,0,0,0,0,0,0,-1,1910,1541,0,0
693,-517,0,0,0,0,0,0,0,0,0,-1,1917,1541,0,0
700,-517,0,0,0,0,0,0,0,0,0,-1,1924,1541,0,0
707,-517,0,0,0,0,0,0,0,0,0,-1,1931,1541,0,0
714,-517,0,0,0,0,0,0,0,0,0,-1,1938,1541,0,0
721,-517,0,0,0,0,0,0,0,0,0,-1,1945,1541,0,0
728,-517,0,0,0,0,0,0,0,0,0,-1,1952,1541,0,0
735,-517,0,0,0,0,0,0,0,0,0,-1,1959,1541,0,0
742,-517,0,0,0,0,0,0,0,0,0,-1,1966,1541,0,0
749,-517,0,0,0,0,0,0,0,0,0,-1,1973,1541,0,0
756,-517,0,0,0,0,0,0,0,0,0,-1,1980,1541,0,0
763,-517,0,0,0,0,0,0,0,0,0,-1,1987,1541,0,0
770,-517,0,0,0,0,0,0,0,0,0,-1,1994,1541,0,0
777,-517,0,0,0,0,0,0,0,0,0,-1,2001,1541,0,0
784,-517,0,0,0,0,0,0,0,0,0,-1,2008,1541,0,0
791,-517,0,0,0,0,0,0,0,0,0,-1,2015,1541,0,0
798,-517,0,0,0,0,0,0,0,0,0,-1,2022,1541,0,0
805,-517,0,0,0,0,0,0,0,0,0,-1,2029,1541,0,0
812,-517,0,0,0,0,0,0,0,0,0,-1,2036,1541,0,0
-700,-524,0,0,0,0,0,0,0,0,0,-1,524,1548,0,0
-693,-524,0,0,0,0,0,0,0,0,0,-1,531,1548,0,0
-686,-524,0,0,0,0,0,0,0,0,0,-1,538,1548,0,0
-679,-524,0,0,0,0,0,0,0,0,0,-1,545,1548,0,0
-672,-524,0,0,0,0,0,0,0,0,0,-1,552,1548,0,0
-665,-524,0,0,0,0,0,0,0,0,0,-1,559,1548,0,0
-658,-524,0,0,0,0,0,0,0,0,0,-1,566,1548,0,0
-651,-524,0,0,0,0,0,0,0,0,0,-1,573,1548,0,0
-644,-524,0,0,0,0,0,0,0,0,0,-1,580,1548,0,0
-637,-524,0,0,0,0,0,0,0,0,0,-1,587,1548,0,0
-630,-524,0,0,0,0,0,0,0,0,0,-1,594,1548,0,0
-623,-524,0,0,0,0,0,0,0,0,0,-1,601,1548,0,0
-616,-524,0,0,0,0,0,0,0,0,0,-1,608,1548,0,0
-609,-524,0,0,0,0,0,0,0,0,0,-1,615,1548,0,0
-602,-524,0,0,0,0,0,0,0,0,0,-1,622,1548,0,0
-595,-524,0,0,0,0,0,0,0,0,0,-1,629,1548,0,0
-588,-524,0,0,0,0,0,0,0,0,0,-1,636,1548,0,0
-581,-524,0,0,0,0,0,0,0,0,0,-1,643,1548,0,0
-574,-524,0,0,0,0,0,0,0,0,0,-1,650,1548,0,0
-567,-524,0,0,0,0,0,0,0,0,0,-1,657,1548,0,0
-560,-524,0,0,0,0,0,0,0,0,0,-1,664,1548,0,0
-553,-524,0,0,0,0,0,0,0,0,0,-1,671,1548,0,0
-546,-524,0,0,0,0,0,0,0,0,0,-1,678,1548,0,0
-539,-524,0,0,0,0,0,0,0,0,0,-1,685,1548,0,0
-532,-524,0,0,0,0,0,0,0,0,0,-1,692,1548,0,0
-525,-524,-0.215515,3.97131,0,0,0,0,0,0,0,-1,699,1548,-0.215501,-3.97136
-518,-524,-0.806274,4.35632,0,0,0,0,0,0,0,-1,706,1548,-0.806259,-4.35633
-511,-524,-1.08301,4.29004,0,0,0,0,0,0,0,-1,713,1548,-1.08301,-4.29006
-504,-524,-1.28821,3.98145,0,0,0,0,0,0,0,-1,720,1548,-1.28822,-3.98151
-497,-524,-0.328491,8.63416,0,0,0,0,0,0,0,-1,727,1548,-0.328487,-8.63411
-490,-524,-1.37286,10.9142,0,0,0,0,0,0,0,-1,734,1548,-1.37286,-10.9141
-483,-524,-1.15887,11.4011,0,0,0,0,0,0,0,-1,741,1548,-1.1589,-11.4011
-476,-524,-1.90295,12.0321,0,0,0,0,0,0,0,-1,748,1548,-1.90298,-12.0321
-469,-524,-1.78363,12.3738,-0.00396683,-0.00536649,-0.00235607,-0.00220885,-0.00712447,-0.641032,0.0042111,0.0351616,755,1548,-1.78364,-12.3737
-462,-524,-1.79333,12.78,-0.00308989,-0.00442718,-0.00175581,-0.00187971,-0.00563736,-0.603467,0.00331438,0.0279596,762,1548,-1.79336,-12.7801
-455,-524,-1.85065,13.1036,-0.00241758,-0.00350461,-0.00132108,-0.00153258,-0.00438961,-0.590243,0.00257251,0.0212435,769,1548,-1.85062,-13.1037
-448,-524,-1.83362,13.5078,-0.00181083,-0.0025936,-0.000900532,-0.00122031,-0.00318412,-0.580405,0.00185498,0.0133434,776,1548,-1.83362,-13.5078
-441,-524,-1.84637,13.9055,-0.00104171,-0.00161809,-0.000300638,-0.000913447,-0.00174636,-0.403269,0.00100862,0.010258,783,1548,-1.84638,-13.9055
-434,-524,-1.83386,14.3058,-0.000211981,-0.000600725,0.000336908,-1.73961e-05,-0.00079531,0.523757,0.000524504,0.0118833,790,1548,-1.83389,-14.3058
-427,-524,-1.85254,14.7308,0.000653728,0.00047562,0.0010505,0.00161894,-0.000489596,0.743113,0.00127424,0.0123369,797,1548,-1.85251,-14.7309
-420,-524,-1.88635,15.157,0.00146931,0.0015742,0.00177912,0.00330164,-0.000258134,0.800134,0.00229199,0.0101286,804,1548,-1.88636,-15.157
-413,-524,-1.89136,15.5729,0.00231437,0.00280947,0.00255111,0.00512502,-1.17207e-06,0.833765,0.00341707,0.00987491,811,1548,-1.89136,-15.5728
-406,-524,-1.89319,15.9845,0.00331862,0.00415372,0.00350322,0.00726419,0.000208146,0.844714,0.00477492,0.0106569,818,1548,-1.89319,-15.9845
-399,-524,-1.8974,16.3927,0.00438156,0.00561807,0.00454097,0.00958268,0.000416948,0.853057,0.0062541,0.00912224,825,1548,-1.8974,-16.3928
-392,-524,-1.90717,16.8004,0.00520477,0.00746129,0.00576393,0.0122063,0.000459713,0.882049,0.00798874,0.0103601,832,1548,-1.90719,-16.8004
-385,-524,-1.92346,17.2478,0.00551466,0.0106787,0.00674161,0.0153158,0.000877533,0.968281,0.00993098,0.0143744,839,1548,-1.92345,-17.2478
-378,-524,-1.85468,17.9031,0.00558333,0.0134068,0.0076713,0.0181061,0.000883979,1.02117,0.0117871,0.0406986,846,1548,-1.85471,-17.9031
-371,-524,-1.76654,18.5249,0,0,0,0,0,0,0,-1,853,1548,-1.76655,-18.5249
-364,-524,-0.712097,14.9871,0,0,0,0,0,0,0,-1,860,1548,-0.712116,-14.9871
-357,-524,-1.34052,14.7448,0,0,0,0,0,0,0,-1,867,1548,-1.34054,-14.7447
-350,-524,-2.63245,12.7522,0,0,0,0,0,0,0,-1,874,1548,-2.63245,-12.7522
-343,-524,-2.24896,17.5641,0,0,0,0,0,0,0,-1,881,1548,-2.24899,-17.5641
-336,-524,-1.38391,18.9946,0,0,0,0,0,0,0,-1,888,1548,-1.38392,-18.9946
-329,-524,-0.51886,20.425,0,0,0,0,0,0,0,-1,895,1548,-0.51886,-20.4251
-322,-524,-2.88702,18.4606,0,0,0,0,0,0,0,-1,902,1548,-2.88699,-18.4606
-315,-524,-1.90839,19.4824,0,0,0,0,0,0,0,-1,909,1548,-1.90838,-19.4824
-308,-524,-2.36938,19.3059,0,0,0,0,0,0,0,-1,916,1548,-2.3694,-19.3058
-301,-524,2.72394,17.7618,0,0,0,0,0,0,0,-1,923,1548,2.72396,-17.7619
-294,-524,-1.52515,9.05408,0,0,0,0,0,0,0,-1,930,1548,-1.52512,-9.05411
-287,-524,-0.962219,10.3199,0,0,0,0,0,0,0,-1,937,1548,-0.962241,-10.32
-280,-524,-1.36255,10.3859,0,0,0,0,0,0,0,-1,944,1548,-1.36253,-10.3859
-273,-524,0,0,0,0,0,0,0,0,0,-1,951,1548,0,0
-266,-524,0,0,0,0,0,0,0,0,0,-1,958,1548,0,0
-259,-524,0,0,0,0,0,0,0,0,0,-1,965,1548,0,0
-252,-524,0,0,0,0,0,0,0,0,0,-1,972,1548,0,0
-245,-524,0,0,0,0,0,0,0,0,0,-1,979,1548,0,0
-238,-524,0,0,0,0,0,0,0,0,0,-1,986,1548,0,0
-231,-524,0,0,0,0,0,0,0,0,0,-1,993,1548,0,0
-224,-524,0,0,0,0,0,0,0,0,0,-1,1000,1548,0,0
-217,-524,0,0,0,0,0,0,0,0,0,-1,1007,1548,0,0
-210,-524,0,0,0,0,0,0,0,0,0,-1,1014,1548,0,0
-203,-524,0,0,0,0,0,0,0,0,0,-1,1021,1548,0,0
-196,-524,0,0,0,0,0,0,0,0,0,-1,1028,1548,0,0
-189,-524,0,0,0,0,0,0,0,0,0,-1,1035,1548,0,0
-182,-524,0,0,0,0,0,0,0,0,0,-1,1042,1548,0,0
-175,-524,0,0,0,0,0,0,0,0,0,-1,1049,1548,0,0
-168,-524,0,0,0,0,0,0,0,0,0,-1,1056,1548,0,0
-161,-524,0,0,0,0,0,0,0,0,0,-1,1063,1548,0,0
-154,-524,0,0,0,0,0,0,0,0,0,-1,1070,1548,0,0
-147,-524,0,0,0,0,0,0,0,0,0,-1,1077,1548,0,0
-140,-524,0,0,0,0,0,0,0,0,0,-1,1084,1548,0,0
-133,-524,0,0,0,0,0,0,0,0,0,-1,1091,1548,0,0
-126,-524,0,0,0,0,0,0,0,0,0,-1,1098,1548,0,0
-119,-524,0,0,0,0,0,0,0,0,0,-1,1105,1548,0,0
-112,-524,0,0,0,0,0,0,0,0,0,-1,1112,1548,0,0
-105,-524,0,0,0,0,0,0,0,0,0,-1,1119,1548,0,0
-98,-524,0,0,0,0,0,0,0,0,0,-1,1126,1548,0,0
-91,-524,0,0,0,0,0,0,0,0,0,-1,1133,1548,0,0
-84,-524,0,0,0,0,0,0,0,0,0,-1,1140,1548,0,0
-77,-524,0,0,0,0,0,0,0,0,0,-1,1147,1548,0,0
-70,-524,0,0,0,0,0,0,0,0,0,-1,1154,1548,0,0
-63,-524,0,0,0,0,0,0,0,0,0,-1,1161,1548,0,0
-56,-524,0,0,0,0,0,0,0,0,0,-1,1168,1548,0,0
-49,-524,0,0,0,0,0,0,0,0,0,-1,1175,1548,0,0
-42,-524,0,0,0,0,0,0,0,0,0,-1,1182,1548,0,0
-35,-524,0,0,0,0,0,0,0,0,0,-1,1189,1548,0,0
-28,-524,0,0,0,0,0,0,0,0,0,-1,1196,1548,0,0
-21,-524,0,0,0,0,0,0,0,0,0,-1,1203,1548,0,0
-14,-524,0,0,0,0,0,0,0,0,0,-1,1210,1548,0,0
-7,-524,0,0,0,0,0,0,0,0,0,-1,1217,1548,0,0
0,-524,0,0,0,0,0,0,0,0,0,-1,1224,1548,0,0
7,-524,0,0,0,0,0,0,0,0,0,-1,1231,1548,0,0
14,-524,0,0,0,0,0,0,0,0,0,-1,1238,1548,0,0
21,-524,0,0,0,0,0,0,0,0,0,-1,1245,1548,0,0
28,-524,0,0,0,0,0,0,0,0,0,-1,1252,1548,0,0
35,-524,0,0,0,0,0,0,0,0,0,-1,1259,1548,0,0
42,-524,0,0,0,0,0,0,0,0,0,-1,1266,1548,0,0
49,-524,0,0,0,0,0,0,0,0,0,-1,1273,1548,0,0
56,-524,0,0,0,0,0,0,0,0,0,-1,1280,1548,0,0
63,-524,0,0,0,0,0,0,0,0,0,-1,1287,1548,0,0
70,-524,0,0,0,0,0,0,0,0,0,-1,1294,1548,0,0
77,-524,0,0,0,0,0,0,0,0,0,-1,1301,1548,0,0
84,-524,0,0,0,0,0,0,0,0,0,-1,1308,1548,0,0
91,-524,0,0,0,0,0,0,0,0,0,-1,1315,1548,0,0
98,-524,0,0,0,0,0,0,0,0,0,-1,1322,1548,0,0
105,-524,0,0,0,0,0,0,0,0,0,-1,1329,1548,0,0
112,-524,0,0,0,0,0,0,0,0,0,-1,1336,1548,0,0
119,-524,0,0,0,0,0,0,0,0,0,-1,1343,1548,0,0
126,-524,0,0,0,0,0,0,0,0,0,-1,1350,1548,0,0
133,-524,0,0,0,0,0,0,0,0,0,-1,1357,1548,0,0
140,-524,0,0,0,0,0,0,0,0,0,-1,1364,1548,0,0
147,-524,0,0,0,0,0,0,0,0,0,-1,1371,1548,0,0
154,-524,0,0,0,0,0,0,0,0,0,-1,1378,1548,0,0
161,-524,0,0,0,0,0,0,0,0,0,-1,1385,1548,0,0
168,-524,0,0,0,0,0,0,0,0,0,-1,1392,1548,0,0
175,-524,0,0,0,0,0,0,0,0,0,-1,1399,1548,0,0
182,-524,0,0,0,0,0,0,0,0,0,-1,1406,1548,0,0
189,-524,0,0,0,0,0,0,0,0,0,-1,1413,1548,0,0
196,-524,0,0,0,0,0,0,0,0,0,-1,1420,1548,0,0
203,-524,0,0,0,0,0,0,0,0,0,-1,1427,1548,0,0
210,-524,0,0,0,0,0,0,0,0,0,-1,1434,1548,0,0
217,-524,0,0,0,0,0,0,0,0,0,-1,1441,1548,0,0
224,-524,0,0,0,0,0,0,0,0,0,-1,1448,1548,0,0
231,-524,0,0,0,0,0,0,0,0,0,-1,1455,1548,0,0
238,-524,0,0,0,0,0,0,0,0,0,-1,1462,1548,0,0
245,-524,0,0,0,0,0,0,0,0,0,-1,1469,1548,0,0
252,-524,0,0,0,0,0,0,0,0,0,-1,1476,1548,0,0
259,-524,0,0,0,0,0,0,0,0,0,-1,1483,1548,0,0
266,-524,0,0,0,0,0,0,0,0,0,-1,1490,1548,0,0
273,-524,0,0,0,0,0,0,0,0,0,-1,1497,1548,0,0
280,-524,0,0,0,0,0,0,0,0,0,-1,1504,1548,0,0
287,-524,0,0,0,0,0,0,0,0,0,-1,1511,1548,0,0
294,-524,0,0,0,0,0,0,0,0,0,-1,1518,1548,0,0
301,-524,0,0,0,0,0,0,0,0,0,-1,1525,1548,0,0
308,-524,0,0,0,0,0,0,0,0,0,-1,1532,1548,0,0
315,-524,0,0,0,0,0,0,0,0,0,-1,1539,1548,0,0
322,-524,0,0,0,0,0,0,0,0,0,-1,1546,1548,0,0
329,-524,0,0,0,0,0,0,0,0,0,-1,1553,1548,0,0
336,-524,0,0,0,0,0,0,0,0,0,-1,1560,1548,0,0
343,-524,0,0,0,0,0,0,0,0,0,-1,1567,1548,0,0
350,-524,0,0,0,0,0,0,0,0,0,-1,1574,1548,0,0
357,-524,0,0,0,0,0,0,0,0,0,-1,1581,1548,0,0
364,-524,0,0,0,0,0,0,0,0,0,-1,1588,1548,0,0
371,-524,0,0,0,0,0,0,0,0,0,-1,1595,1548,0,0
378,-524,0,0,0,0,0,0,0,0,0,-1,1602,1548,0,0
385,-524,0,0,0,0,0,0,0,0,0,-1,1609,1548,0,0
392,-524,0,0,0,0,0,0,0,0,0,-1,1616,1548,0,0
399,-524,8.81848,5.05774,0,0,0,0,0,0,0,-1,1623,1548,8.81843,-5.05769
406,-524,8.64294,6.06799,0,0,0,0,0,0,0,-1,1630,1548,8.6429,-6.06805
413,-524,11.677,6.41858,0,0,0,0,0,0,0,-1,1637,1548,11.677,-6.41864
420,-524,11.4913,6.36401,0,0,0,0,0,0,0,-1,1644,1548,11.4913,-6.36402
427,-524,7.68335,6.17249,0,0,0,0,0,0,0,-1,1651,1548,7.68341,-6.17245
434,-524,10.432,11.6801,0,0,0,0,0,0,0,-1,1658,1548,10.432,-11.68
441,-524,8.78552,4.12305,0,0,0,0,0,0,0,-1,1665,1548,8.78553,-4.12301
448,-524,14.1854,4.78674,0,0,0,0,0,0,0,-1,1672,1548,14.1854,-4.78674
455,-524,12.4784,3.65576,0,0,0,0,0,0,0,-1,1679,1548,12.4784,-3.65572
462,-524,14.7551,9.29395,0,0,0,0,0,0,0,-1,1686,1548,14.7552,-9.29397
469,-524,16.3314,14.3779,0,0,0,0,0,0,0,-1,1693,1548,16.3314,-14.3779
476,-524,15.9106,15.1875,0,0,0,0,0,0,0,-1,1700,1548,15.9107,-15.1876
483,-524,15.2776,16.2268,0,0,0,0,0,0,0,-1,1707,1548,15.2776,-16.2269
490,-524,15.2563,18.5848,0,0,0,0,0,0,0,-1,1714,1548,15.2564,-18.5848
497,-524,15.144,19.3533,0,0,0,0,0,0,0,-1,1721,1548,15.144,-19.3533
504,-524,14.8749,19.0587,0.00559162,0.00120138,-0.00130363,0.00594954,0.000843456,-0.267953,0.00371724,0.0379623,1728,1548,14.8749,-19.0587
511,-524,14.859,18.8665,0.00476427,0.000746004,-0.000993981,0.0049967,0.000513572,-0.229712,0.00317383,0.0348813,1735,1548,14.8591,-18.8665
518,-524,14.9962,18.3544,0.00387415,0.00012725,-0.000459266,0.00392963,7.17776e-05,-0.120202,0.00259616,0.0219927,1742,1548,14.9962,-18.3544
525,-524,14.9976,17.9973,0.00292493,-0.000362007,3.34381e-05,0.00292527,-0.000362347,0.0101716,0.0020815,0.0142232,1749,1548,14.9976,-17.9973
532,-524,15.0065,17.6267,0.00207395,-0.000624015,0.000424404,0.00213914,-0.000689202,0.152403,0.00170297,0.0100795,1756,1548,15.0065,-17.6267
539,-524,14.9915,17.2385,0.00153724,-0.000795567,0.000645781,0.00170408,-0.000962404,0.252821,0.00155922,0.0107698,1763,1548,14.9915,-17.2385
546,-524,14.9803,16.8606,0.00114828,-0.000837871,0.000755243,0.00140284,-0.00109243,0.325097,0.00144435,0.0134142,1770,1548,14.9803,-16.8607
553,-524,14.9908,16.4912,0.000881232,-0.000848707,0.000779049,0.00118035,-0.00114782,0.366592,0.00134421,0.0215078,1777,1548,14.9908,-16.4912
560,-524,14.9972,16.1005,0.000814304,-0.000718976,0.000696641,0.00108354,-0.000988215,0.368799,0.00119655,0.0276128,1784,1548,14.9972,-16.1005
567,-524,14.9655,15.7368,0.00105409,-0.000856538,0.000569817,0.00121112,-0.00101357,0.268911,0.00128611,0.0156645,1791,1548,14.9654,-15.7368
574,-524,14.9504,15.3497,0.00182201,-0.000752679,3.21331e-05,0.00182241,-0.00075308,0.0124778,0.00152909,0.0120922,1798,1548,14.9504,-15.3497
581,-524,14.9524,14.967,0.00282759,-0.00071606,-0.000534844,0.00290655,-0.000795024,-0.146581,0.00225003,0.0138492,1805,1548,14.9524,-14.967
588,-524,15.0037,14.5863,0.00425745,-0.00116423,-0.00110518,0.00447408,-0.00138085,-0.193559,0.0035341,0.0245112,1812,1548,15.0036,-14.5863
595,-524,15.3215,14.2417,0,0,0,0,0,0,0,-1,1819,1548,15.3215,-14.2417
602,-524,13.837,12.0682,0,0,0,0,0,0,0,-1,1826,1548,13.837,-12.0683
609,-524,13.0056,10.5138,0,0,0,0,0,0,0,-1,1833,1548,13.0056,-10.5138
616,-524,11.6941,8.65515,0,0,0,0,0,0,0,-1,1840,1548,11.6941,-8.65514
623,-524,9.38452,5.15356,0,0,0,0,0,0,0,-1,1847,1548,9.38456,-5.15359
630,-524,11.0541,3.57434,0,0,0,0,0,0,0,-1,1854,1548,11.0541,-3.57438
637,-524,11.6067,3.20728,0,0,0,0,0,0,0,-1,1861,1548,11.6067,-3.20724
644,-524,12.2134,0.727173,0,0,0,0,0,0,0,-1,1868,1548,12.2134,-0.727222
651,-524,0,0,0,0,0,0,0,0,0,-1,1875,1548,0,0
658,-524,0,0,0,0,0,0,0,0,0,-1,1882,1548,0,0
665,-524,0,0,0,0,0,0,0,0,0,-1,1889,1548,0,0
672,-524,0,0,0,0,0,0,0,0,0,-1,1896,1548,0,0
679,-524,0,0,0,0,0,0,0,0,0,-1,1903,1548,0,0
686,-524,0,0,0,0,0,0,0,0,0,-1,1910,1548,0,0
693,-524,0,0,0,0,0,0,0,0,0,-1,1917,1548,0,0
700,-524,0,0,0,0,0,0,0,0,0,-1,1924,1548,0,0
707,-524,0,0,0,0,0,0,0,0,0,-1,1931,1548,0,0
714,-524,0,0,0,0,0,0,0,0,0,-1,1938,1548,0,0
721,-524,0,0,0,0,0,0,0,0,0,-1,1945,1548,0,0
728,-524,0,0,0,0,0,0,0,0,0,-1,1952,1548,0,0
735,-524,0,0,0,0,0,0,0,0,0,-1,1959,1548,0,0
742,-524,0,0,0,0,0,0,0,0,0,-1,1966,1548,0,0
749,-524,0,0,0,0,0,0,0,0,0,-1,1973,1548,0,0
756,-524,0,0,0,0,0,0,0,0,0,-1,1980,1548,0,0
763,-524,0,0,0,0,0,0,0,0,0,-1,1987,1548,0,0
770,-524,0,0,0,0,0,0,0,0,0,-1,1994,1548,0,0
777,-524,0,0,0,0,0,0,0,0,0,-1,2001,1548,0,0
784,-524,0,0,0,0,0,0,0,0,0,-1,2008,1548,0,0
791,-524,0,0,0,0,0,0,0,0,0,-1,2015,1548,0,0
798,-524,0,0,0,0,0,0,0,0,0,-1,2022,1548,0,0
805,-524,0,0,0,0,0,0,0,0,0,-1,2029,1548,0,0
812,-524,0,0,0,0,0,0,0,0,0,-1,2036,1548,0,0
-700,-531,0,0,0,0,0,0,0,0,0,-1,524,1555,0,0
-693,-531,0,0,0,0,0,0,0,0,0,-1,531,1555,0,0
-686,-531,0,0,0,0,0,0,0,0,0,-1,538,1555,0,0
-679,-531,0,0,0,0,0,0,0,0,0,-1,545,1555,0,0
-672,-531,0,0,0,0,0,0,0,0,0,-1,552,1555,0,0
-665,-531,0,0,0,0,0,0,0,0,0,-1,559,1555,0,0
-658,-531,0,0,0,0,0,0,0,0,0,-1,566,1555,0,0
-651,-531,0,0,0,0,0,0,0,0,0,-1,573,1555,0,0
-644,-531,0,0,0,0,0,0,0,0,0,-1,580,1555,0,0
-637,-531,0,0,0,0,0,0,0,0,0,-1,587,1555,0,0
-630,-531,0,0,0,0,0,0,0,0,0,-1,594,1555,0,0
-623,-531,0,0,0,0,0,0,0,0,0,-1,601,1555,0,0
-616,-531,0,0,0,0,0,0,0,0,0,-1,608,1555,0,0
-609,-531,0,0,0,0,0,0,0,0,0,-1,615,1555,0,0
-602,-531,0,0,0,0,0,0,0,0,0,-1,622,1555,0,0
-595,-531,0,0,0,0,0,0,0,0,0,-1,629,1555,0,0
-588,-531,0,0,0,0,0,0,0,0,0,-1,636,1555,0,0
-581,-531,0,0,0,0,0,0,0,0,0,-1,643,1555,0,0
-574,-531,0,0,0,0,0,0,0,0,0,-1,650,1555,0,0
-567,-531,0,0,0,0,0,0,0,0,0,-1,657,1555,0,0
-560,-531,0,0,0,0,0,0,0,0,0,-1,664,1555,0,0
-553,-531,0,0,0,0,0,0,0,0,0,-1,671,1555,0,0
-546,-531,0,0,0,0,0,0,0,0,0,-1,678,1555,0,0
-539,-531,0,0,0,0,0,0,0,0,0,-1,685,1555,0,0
-532,-531,0,0,0,0,0,0,0,0,0,-1,692,1555,0,0
-525,-531,0,0,0,0,0,0,0,0,0,-1,699,1555,0,0
-518,-531,-1.63983,4.03821,0,0,0,0,0,0,0,-1,706,1555,-1.63982,-4.03821
-511,-531,-2.9682,8.07483,0,0,0,0,0,0,0,-1,713,1555,-2.9682,-8.07479
-504,-531,-2.95978,0.557861,0,0,0,0,0,0,0,-1,720,1555,-2.95978,-0.557917
-497,-531,-2.46039,8.07422,0,0,0,0,0,0,0,-1,727,1555,-2.46039,-8.07423
-490,-531,-0.423462,7.92065,0,0,0,0,0,0,0,-1,734,1555,-0.42344,-7.92066
-483,-531,-1.44385,10.7439,0,0,0,0,0,0,0,-1,741,1555,-1.44384,-10.7439
-476,-531,-1.79791,12.2938,0,0,0,0,0,0,0,-1,748,1555,-1.79791,-12.2938
-469,-531,-1.46228,12.4766,-0.00385623,-0.0064934,-0.0024008,-0.00243575,-0.00791389,-0.534273,0.00468028,0.0436435,755,1555,-1.46229,-12.4765
-462,-531,-1.31818,12.9337,-0.00286391,-0.00513436,-0.00161602,-0.00202422,-0.00597404,-0.479204,0.00350833,0.0404393,762,1555,-1.31819,-12.9337
-455,-531,-1.47839,13.3271,-0.00214263,-0.0038246,-0.00104156,-0.00164492,-0.00432231,-0.445769,0.00251911,0.0347115,769,1555,-1.47839,-13.3271
-448,-531,-1.38049,13.5112,-0.00172677,-0.00281249,-0.000749751,-0.00134398,-0.00319528,-0.472055,0.00185253,0.0164808,776,1555,-1.38047,-13.5112
-441,-531,-1.44025,13.9037,-0.00122124,-0.00182746,-0.00037204,-0.00104447,-0.00200424,-0.443572,0.00115749,0.0112107,783,1555,-1.44027,-13.9037
-434,-531,-1.43878,14.3394,-0.000627602,-0.000874783,6.02237e-05,-0.00061371,-0.000888675,0.226711,0.000525355,0.0113337,790,1555,-1.4388,-14.3393
-427,-531,-1.43463,14.7623,4.42254e-05,8.21107e-05,0.000599714,0.000663181,-0.000536845,0.801186,0.000694114,0.0123935,797,1555,-1.43466,-14.7624
-420,-531,-1.45294,15.184,0.000692499,0.00105399,0.0011615,0.00204873,-0.000302239,0.862586,0.00147691,0.0115313,804,1555,-1.45292,-15.1839
-413,-531,-1.47632,15.5863,0.00136497,0.00214649,0.00174276,0.00354176,-3.03006e-05,0.895684,0.00237134,0.0106279,811,1555,-1.4763,-15.5863
-406,-531,-1.47522,15.9926,0.0022124,0.00331178,0.00251275,0.00533426,0.000189924,0.893082,0.00349459,0.0113529,818,1555,-1.47525,-15.9926
-399,-531,-1.46741,16.4158,0.00310295,0.00455036,0.00333866,0.00724285,0.000410452,0.89213,0.00469773,0.0127523,825,1555,-1.46743,-16.4158
-392,-531,-1.48682,16.8101,0.00371425,0.00599744,0.00425151,0.00925795,0.000453734,0.916562,0.00602642,0.017677,832,1555,-1.48681,-16.8101
-385,-531,-1.53912,17.2115,0.00395492,0.00857701,0.00498264,0.0117585,0.00077346,1.00254,0.0075943,0.0158739,839,1555,-1.53913,-17.2116
-378,-531,-1.54346,17.5835,0.00403635,0.0106529,0.00564977,0.0138917,0.000797519,1.05027,0.00900709,0.0159942,846,1555,-1.54344,-17.5835
-371,-531,-1.44385,18.0973,0.00382437,0.0133218,0.00638413,0.0165297,0.000616486,1.10517,0.0108201,0.0296582,853,1555,-1.44384,-18.0972
-364,-531,-1.34863,18.5524,0,0,0,0,0,0,0,-1,860,1555,-1.34862,-18.5524
-357,-531,-1.35156,18.9957,0,0,0,0,0,0,0,-1,867,1555,-1.35154,-18.9957
-350,-531,-1.84521,19.4094,0,0,0,0,0,0,0,-1,874,1555,-1.84519,-19.4094
-343,-531,-1.41809,20.1655,0,0,0,0,0,0,0,-1,881,1555,-1.41808,-20.1655
-336,-531,-1.69067,20.9908,0,0,0,0,0,0,0,-1,888,1555,-1.69065,-20.9908
-329,-531,-0.659546,19.5396,0,0,0,0,0,0,0,-1,895,1555,-0.659566,-19.5395
-322,-531,-1.46075,17.7992,0,0,0,0,0,0,0,-1,902,1555,-1.46076,-17.7992
-315,-531,2.65302,22.1924,0,0,0,0,0,0,0,-1,909,1555,2.65303,-22.1924
-308,-531,-1.66455,19.0624,0,0,0,0,0,0,0,-1,916,1555,-1.66455,-19.0623
-301,-531,-2.02405,18.8912,0,0,0,0,0,0,0,-1,923,1555,-2.02407,-18.8913
-294,-531,-1.3244,8.1825,0,0,0,0,0,0,0,-1,930,1555,-1.3244,-8.18251
-287,-531,-1.78192,10.1661,0,0,0,0,0,0,0,-1,937,1555,-1.78192,-10.1661
-280,-531,-2.14508,10.3945,0,0,0,0,0,0,0,-1,944,1555,-2.14506,-10.3945
-273,-531,-2.50818,10.6229,0,0,0,0,0,0,0,-1,951,1555,-2.5082,-10.6229
-266,-531,-4.97742,17.9215,0,0,0,0,0,0,0,-1,958,1555,-4.97744,-17.9215
-259,-531,0,0,0,0,0,0,0,0,0,-1,965,1555,0,0
-252,-531,0,0,0,0,0,0,0,0,0,-1,972,1555,0,0
-245,-531,0,0,0,0,0,0,0,0,0,-1,979,1555,0,0
-238,-531,0,0,0,0,0,0,0,0,0,-1,986,1555,0,0
-231,-531,0,0,0,0,0,0,0,0,0,-1,993,1555,0,0
-224,-531,0,0,0,0,0,0,0,0,0,-1,1000,1555,0,0
-217,-531,0,0,0,0,0,0,0,0,0,-1,1007,1555,0,0
-210,-531,0,0,0,0,0,0,0,0,0,-1,1014,1555,0,0
-203,-531,0,0,0,0,0,0,0,0,0,-1,1021,1555,0,0
-196,-531,0,0,0,0,0,0,0,0,0,-1,1028,1555,0,0
-189,-531,0,0,0,0,0,0,0,0,0,-1,1035,1555,0,0
-182,-531,0,0,0,0,0,0,0,0,0,-1,1042,1555,0,0
-175,-531,0,0,0,0,0,0,0,0,0,-1,1049,1555,0,0
-168,-531,0,0,0,0,0,0,0,0,0,-1,1056,1555,0,0
-161,-531,0,0,0,0,0,0,0,0,0,-1,1063,1555,0,0
-154,-531,0,0,0,0,0,0,0,0,0,-1,1070,1555,0,0
-147,-531,0,0,0,0,0,0,0,0,0,-1,1077,1555,0,0
-140,-531,0,0,0,0,0,0,0,0,0,-1,1084,1555,0,0
-133,-531,0,0,0,0,0,0,0,0,0,-1,1091,1555,0,0
-126,-531,0,0,0,0,0,0,0,0,0,-1,1098,1555,0,0
-119,-531,0,0,0,0,0,0,0,0,0,-1,1105,1555,0,0
-112,-531,0,0,0,0,0,0,0,0,0,-1,1112,1555,0,0
-105,-531,0,0,0,0,0,0,0,0,0,-1,1119,1555,0,0
-98,-531,0,0,0,0,0,0,0,0,0,-1,1126,1555,0,0
-91,-531,0,0,0,0,0,0,0,0,0,-1,1133,1555,0,0
-84,-531,0,0,0,0,0,0,0,0,0,-1,1140,1555,0,0
-77,-531,0,0,0,0,0,0,0,0,0,-1,1147,1555,0,0
-70,-531,0,0,0,0,0,0,0,0,0,-1,1154,1555,0,0
-63,-531,0,0,0,0,0,0,0,0,0,-1,1161,1555,0,0
-56,-531,0,0,0,0,0,0,0,0,0,-1,1168,1555,0,0
-49,-531,0,0,0,0,0,0,0,0,0,-1,1175,1555,0,0
-42,-531,0,0,0,0,0,0,0,0,0,-1,1182,1555,0,0
-35,-531,0,0,0,0,0,0,0,0,0,-1,1189,1555,0,0
-28,-531,0,0,0,0,0,0,0,0,0,-1,1196,1555,0,0
-21,-531,0,0,0,0,0,0,0,0,0,-1,1203,1555,0,0
-14,-531,0,0,0,0,0,0,0,0,0,-1,1210,1555,0,0
-7,-531,0,0,0,0,0,0,0,0,0,-1,1217,1555,0,0
0,-531,0,0,0,0,0,0,0,0,0,-1,1224,1555,0,0
7,-531,0,0,0,0,0,0,0,0,0,-1,1231,1555,0,0
14,-531,0,0,0,0,0,0,0,0,0,-1,1238,1555,0,0
21,-531,0,0,0,0,0,0,0,0,0,-1,1245,1555,0,0
28,-531,0,0,0,0,0,0,0,0,0,-1,1252,1555,0,0
35,-531,0,0,0,0,0,0,0,0,0,-1,1259,1555,0,0
42,-531,0,0,0,0,0,0,0,0,0,-1,1266,1555,0,0
49,-531,0,0,0,0,0,0,0,0,0,-1,1273,1555,0,0
56,-531,0,0,0,0,0,0,0,0,0,-1,1280,1555,0,0
63,-531,0,0,0,0,0,0,0,0,0,-1,1287,1555,0,0
70,-531,0,0,0,0,0,0,0,0,0,-1,1294,1555,0,0
77,-531,0,0,0,0,0,0,0,0,0,-1,1301,1555,0,0
84,-531,0,0,0,0,0,0,0,0,0,-1,1308,1555,0,0
91,-531,0,0,0,0,0,0,0,0,0,-1,1315,1555,0,0
98,-531,0,0,0,0,0,0,0,0,0,-1,1322,1555,0,0
105,-531,0,0,0,0,0,0,0,0,0,-1,1329,1555,0,0
112,-531,0,0,0,0,0,0,0,0,0,-1,1336,1555,0,0
119,-531,0,0,0,0,0,0,0,0,0,-1,1343,1555,0,0
126,-531,0,0,0,0,0,0,0,0,0,-1,1350,1555,0,0
133,-531,0,0,0,0,0,0,0,0,0,-1,1357,1555,0,0
140,-531,0,0,0,0,0,0,0,0,0,-1,1364,1555,0,0
147,-531,0,0,0,0,0,0,0,0,0,-1,1371,1555,0,0
154,-531,0,0,0,0,0,0,0,0,0,-1,1378,1555,0,0
161,-531,0,0,0,0,0,0,0,0,0,-1,1385,1555,0,0
168,-531,0,0,0,0,0,0,0,0,0,-1,1392,1555,0,0
175,-531,0,0,0,0,0,0,0,0,0,-1,1399,1555,0,0
182,-531,0,0,0,0,0,0,0,0,0,-1,1406,1555,0,0
189,-531,0,0,0,0,0,0,0,0,0,-1,1413,1555,0,0
196,-531,0,0,0,0,0,0,0,0,0,-1,1420,1555,0,0
203,-531,0,0,0,0,0,0,0,0,0,-1,1427,1555,0,0
210,-531,0,0,0,0,0,0,0,0,0,-1,1434,1555,0,0
217,-531,0,0,0,0,0,0,0,0,0,-1,1441,1555,0,0
224,-531,0,0,0,0,0,0,0,0,0,-1,1448,1555,0,0
231,-531,0,0,0,0,0,0,0,0,0,-1,1455,1555,0,0
238,-531,0,0,0,0,0,0,0,0,0,-1,1462,1555,0,0
245,-531,0,0,0,0,0,0,0,0,0,-1,1469,1555,0,0
252,-531,0,0,0,0,0,0,0,0,0,-1,1476,1555,0,0
259,-531,0,0,0,0,0,0,0,0,0,-1,1483,1555,0,0
266,-531,0,0,0,0,0,0,0,0,0,-1,1490,1555,0,0
273,-531,0,0,0,0,0,0,0,0,0,-1,1497,1555,0,0
280,-531,0,0,0,0,0,0,0,0,0,-1,1504,1555,0,0
287,-531,0,0,0,0,0,0,0,0,0,-1,1511,1555,0,0
294,-531,0,0,0,0,0,0,0,0,0,-1,1518,1555,0,0
301,-531,0,0,0,0,0,0,0,0,0,-1,1525,1555,0,0
308,-531,0,0,0,0,0,0,0,0,0,-1,1532,1555,0,0
315,-531,0,0,0,0,0,0,0,0,0,-1,1539,1555,0,0
322,-531,0,0,0,0,0,0,0,0,0,-1,1546,1555,0,0
329,-531,0,0,0,0,0,0,0,0,0,-1,1553,1555,0,0
336,-531,0,0,0,0,0,0,0,0,0,-1,1560,1555,0,0
343,-531,0,0,0,0,0,0,0,0,0,-1,1567,1555,0,0
350,-531,0,0,0,0,0,0,0,0,0,-1,1574,1555,0,0
357,-531,0,0,0,0,0,0,0,0,0,-1,1581,1555,0,0
364,-531,0,0,0,0,0,0,0,0,0,-1,1588,1555,0,0
371,-531,0,0,0,0,0,0,0,0,0,-1,1595,1555,0,0
378,-531,0,0,0,0,0,0,0,0,0,-1,1602,1555,0,0
385,-531,3.48169,1.78625,0,0,0,0,0,0,0,-1,1609,1555,3.48165,-1.78624
392,-531,10.8781,9.09204,0,0,0,0,0,0,0,-1,1616,1555,10.8781,-9.09205
399,-531,8.26306,5.29602,0,0,0,0,0,0,0,-1,1623,1555,8.26302,-5.29607
406,-531,8.26147,5.42712,0,0,0,0,0,0,0,-1,1630,1555,8.26145,-5.42716
413,-531,8.20618,5.75012,0,0,0,0,0,0,0,-1,1637,1555,8.20619,-5.75017
420,-531,7.64868,7.09558,0,0,0,0,0,0,0,-1,1644,1555,7.64867,-7.09564
427,-531,9.93054,11.8412,0,0,0,0,0,0,0,-1,1651,1555,9.93059,-11.8412
434,-531,10.244,11.7072,0,0,0,0,0,0,0,-1,1658,1555,10.244,-11.7071
441,-531,11.4528,12.9397,0,0,0,0,0,0,0,-1,1665,1555,11.4528,-12.9397
448,-531,11.928,18.8029,0,0,0,0,0,0,0,-1,1672,1555,11.928,-18.8028
455,-531,14.4877,9.67065,0,0,0,0,0,0,0,-1,1679,1555,14.4876,-9.67066
462,-531,13.5253,12.2002,0,0,0,0,0,0,0,-1,1686,1555,13.5252,-12.2002
469,-531,15.5087,15.7894,0,0,0,0,0,0,0,-1,1693,1555,15.5086,-15.7895
476,-531,14.6582,16.2264,0,0,0,0,0,0,0,-1,1700,1555,14.6582,-16.2264
483,-531,14.755,18.5994,0,0,0,0,0,0,0,-1,1707,1555,14.7551,-18.5994
490,-531,14.3357,20.303,0,0,0,0,0,0,0,-1,1714,1555,14.3357,-20.3029
497,-531,14.4698,19.7123,0,0,0,0,0,0,0,-1,1721,1555,14.4699,-19.7123
504,-531,14.5375,19.2023,0.0049743,0.00288639,-0.00223002,0.00639262,0.00146806,-0.566481,0.00386644,0.0234546,1728,1555,14.5375,-19.2022
511,-531,14.6044,18.7703,0.0041729,0.00214334,-0.00174849,0.00517975,0.00113649,-0.522465,0.00314358,0.0151463,1735,1555,14.6043,-18.7703
518,-531,14.6165,18.3724,0.00327884,0.00131529,-0.00109733,0.00376949,0.000824646,-0.42046,0.00228819,0.0143582,1742,1555,14.6165,-18.3725
525,-531,14.6106,18.0201,0.00234572,0.000607094,-0.000462569,0.00246113,0.000491686,-0.244502,0.00150389,0.0131617,1749,1555,14.6106,-18.0202
532,-531,14.6295,17.6379,0.00151466,0.000109039,8.20831e-05,0.00151944,0.000104262,0.0581327,0.000980058,0.0103896,1756,1555,14.6295,-17.6379
539,-531,14.614,17.2457,0.000992717,-0.000321478,0.000473062,0.00114529,-0.00047405,0.311987,0.000961327,0.0121698,1763,1555,14.614,-17.2457
546,-531,14.5814,16.8318,0.000582539,-0.00066387,0.000796477,0.00097065,-0.00105198,0.453424,0.00116808,0.0149583,1770,1555,14.5814,-16.8317
553,-531,14.6165,16.5377,0.000282167,-0.000974983,0.00105664,0.000883057,-0.00157587,0.517074,0.00143833,0.0292098,1777,1555,14.6164,-16.5377
560,-531,14.6204,16.1775,0.000200444,-0.00115242,0.00120227,0.000903513,-0.00185549,0.529155,0.00162421,0.031644,1784,1555,14.6204,-16.1775
567,-531,14.5573,15.7379,0.000460923,-0.0015212,0.00126213,0.0010746,-0.00213487,0.452564,0.00188639,0.0177155,1791,1555,14.5573,-15.7379
574,-531,14.546,15.3533,0.0013023,-0.00162869,0.00086943,0.0015408,-0.00186718,0.267727,0.0019706,0.0126533,1798,1555,14.5461,-15.3533
581,-531,14.5792,14.962,0.00247794,-0.0016776,0.000365661,0.00250987,-0.00170953,0.0871018,0.00245063,0.0148805,1805,1555,14.5792,-14.9621
588,-531,14.6116,14.4962,0.00415317,-0.00231553,-9.65388e-05,0.00415461,-0.00231697,-0.0149196,0.00378625,0.0283133,1812,1555,14.6116,-14.4962
595,-531,14.5938,13.9576,0,0,0,0,0,0,0,-1,1819,1555,14.5937,-13.9576
602,-531,13.701,11.8346,0,0,0,0,0,0,0,-1,1826,1555,13.701,-11.8347
609,-531,10.9072,8.50903,0,0,0,0,0,0,0,-1,1833,1555,10.9073,-8.50902
616,-531,10.5723,7.17859,0,0,0,0,0,0,0,-1,1840,1555,10.5723,-7.17855
623,-531,10.0674,5.08984,0,0,0,0,0,0,0,-1,1847,1555,10.0674,-5.08981
630,-531,11.672,3.18909,0,0,0,0,0,0,0,-1,1854,1555,11.672,-3.18904
637,-531,13.2546,1.38965,0,0,0,0,0,0,0,-1,1861,1555,13.2547,-1.3896
644,-531,0,0,0,0,0,0,0,0,0,-1,1868,1555,0,0
651,-531,0,0,0,0,0,0,0,0,0,-1,1875,1555,0,0
658,-531,0,0,0,0,0,0,0,0,0,-1,1882,1555,0,0
665,-531,0,0,0,0,0,0,0,0,0,-1,1889,1555,0,0
672,-531,0,0,0,0,0,0,0,0,0,-1,1896,1555,0,0
679,-531,0,0,0,0,0,0,0,0,0,-1,1903,1555,0,0
686,-531,0,0,0,0,0,0,0,0,0,-1,1910,1555,0,0
693,-531,0,0,0,0,0,0,0,0,0,-1,1917,1555,0,0
700,-531,0,0,0,0,0,0,0,0,0,-1,1924,1555,0,0
707,-531,0,0,0,0,0,0,0,0,0,-1,1931,1555,0,0
714,-531,0,0,0,0,0,0,0,0,0,-1,1938,1555,0,0
721,-531,0,0,0,0,0,0,0,0,0,-1,1945,1555,0,0
728,-531,0,0,0,0,0,0,0,0,0,-1,1952,1555,0,0
735,-531,0,0,0,0,0,0,0,0,0,-1,1959,1555,0,0
742,-531,0,0,0,0,0,0,0,0,0,-1,1966,1555,0,0
749,-531,0,0,0,0,0,0,0,0,0,-1,1973,1555,0,0
756,-531,0,0,0,0,0,0,0,0,0,-1,1980,1555,0,0
763,-531,0,0,0,0,0,0,0,0,0,-1,1987,1555,0,0
770,-531,0,0,0,0,0,0,0,0,0,-1,1994,1555,0,0
777,-531,0,0,0,0,0,0,0,0,0,-1,2001,1555,0,0
784,-531,0,0,0,0,0,0,0,0,0,-1,2008,1555,0,0
791,-531,0,0,0,0,0,0,0,0,0,-1,2015,1555,0,0
798,-531,0,0,0,0,0,0,0,0,0,-1,2022,1555,0,0
805,-531,0,0,0,0,0,0,0,0,0,-1,2029,1555,0,0
812,-531,0,0,0,0,0,0,0,0,0,-1,2036,1555,0,0
-700,-538,0,0,0,0,0,0,0,0,0,-1,524,1562,0,0
-693,-538,0,0,0,0,0,0,0,0,0,-1,531,1562,0,0
-686,-538,0,0,0,0,0,0,0,0,0,-1,538,1562,0,0
-679,-538,0,0,0,0,0,0,0,0,0,-1,545,1562,0,0
-672,-538,0,0,0,0,0,0,0,0,0,-1,552,1562,0,0
-665,-538,0,0,0,0,0,0,0,0,0,-1,559,1562,0,0
-658,-538,0,0,0,0,0,0,0,0,0,-1,566,1562,0,0
-651,-538,0,0,0,0,0,0,0,0,0,-1,573,1562,0,0
-644,-538,0,0,0,0,0,0,0,0,0,-1,580,1562,0,0
-637,-538,0,0,0,0,0,0,0,0,0,-1,587,1562,0,0
-630,-538,0,0,0,0,0,0,0,0,0,-1,594,1562,0,0
-623,-538,0,0,0,0,0,0,0,0,0,-1,601,1562,0,0
-616,-538,0,0,0,0,0,0,0,0,0,-1,608,1562,0,0
-609,-538,0,0,0,0,0,0,0,0,0,-1,615,1562,0,0
-602,-538,0,0,0,0,0,0,0,0,0,-1,622,1562,0,0
-595,-538,0,0,0,0,0,0,0,0,0,-1,629,1562,0,0
-588,-538,0,0,0,0,0,0,0,0,0,-1,636,1562,0,0
-581,-538,0,0,0,0,0,0,0,0,0,-1,643,1562,0,0
-574,-538,0,0,0,0,0,0,0,0,0,-1,650,1562,0,0
-567,-538,0,0,0,0,0,0,0,0,0,-1,657,1562,0,0
-560,-538,0,0,0,0,0,0,0,0,0,-1,664,1562,0,0
-553,-538,0,0,0,0,0,0,0,0,0,-1,671,1562,0,0
-546,-538,0,0,0,0,0,0,0,0,0,-1,678,1562,0,0
-539,-538,0,0,0,0,0,0,0,0,0,-1,685,1562,0,0
-532,-538,0,0,0,0,0,0,0,0,0,-1,692,1562,0,0
-525,-538,0,0,0,0,0,0,0,0,0,-1,699,1562,0,0
-518,-538,0,0,0,0,0,0,0,0,0,-1,706,1562,0,0
-511,-538,-2.6582,-1.54321,0,0,0,0,0,0,0,-1,713,1562,-2.65821,1.54327
-504,-538,-2.66455,-0.71167,0,0,0,0,0,0,0,-1,720,1562,-2.66456,0.711667
-497,-538,-0.763855,6.77747,0,0,0,0,0,0,0,-1,727,1562,-0.76385,-6.77743
-490,-538,-2.70453,8.01465,0,0,0,0,0,0,0,-1,734,1562,-2.70451,-8.0147
-483,-538,-0.933533,7.84644,0,0,0,0,0,0,0,-1,741,1562,-0.933548,-7.84638
-476,-538,-1.86597,11.7867,0,0,0,0,0,0,0,-1,748,1562,-1.866,-11.7868
-469,-538,-0.604797,12.4847,0,0,0,0,0,0,0,-1,755,1562,-0.604784,-12.4848
-462,-538,-0.762024,13.0643,0,0,0,0,0,0,0,-1,762,1562,-0.762032,-13.0643
-455,-538,-1.01617,12.7933,0,0,0,0,0,0,0,-1,769,1562,-1.01619,-12.7933
-448,-538,-0.929321,13.5881,-0.00145559,-0.00266069,-0.000276842,-0.00139503,-0.00272124,-0.215343,0.00157128,0.0181216,776,1562,-0.929346,-13.5881
-441,-538,-1.00397,13.9994,-0.00130063,-0.00170098,-0.000241929,-0.0011868,-0.00181481,-0.439786,0.00106421,0.0193913,783,1562,-1.00398,-13.9994
-434,-538,-1.04504,14.356,-0.00101543,-0.0008928,-9.76546e-05,-0.000838806,-0.00106942,-1.06572,0.000649862,0.0124504,790,1562,-1.04505,-14.356
-427,-538,-1.0387,14.7777,-0.00057003,-0.000120427,0.000217353,-3.25339e-05,-0.000657923,1.18652,0.000428183,0.0130061,797,1562,-1.03867,-14.7777
-420,-538,-1.06989,15.1975,-9.46658e-05,0.000681584,0.000586059,0.000996386,-0.000409468,1.07787,0.000834915,0.0173205,804,1562,-1.06991,-15.1975
-413,-538,-1.09753,15.5983,0.000425194,0.00159673,0.000979626,0.00215236,-0.000130436,1.05485,0.0014803,0.018295,811,1562,-1.09756,-15.5983
-406,-538,-1.06982,15.9869,0.00115243,0.00254975,0.00158395,0.00358229,0.000119895,0.993108,0.00234925,0.0149177,818,1562,-1.0698,-15.987
-399,-538,-1.0658,16.4166,0.00193597,0.00353367,0.00223926,0.0051123,0.000357333,0.956734,0.00329555,0.0138587,825,1562,-1.06583,-16.4166
-392,-538,-1.07825,16.8151,0.00243134,0.00459017,0.00290323,0.00660815,0.000413361,0.963379,0.00427432,0.0156625,832,1562,-1.07823,-16.8151
-385,-538,-1.11676,17.2162,0.00270599,0.00655032,0.00347579,0.00860004,0.000656277,1.03798,0.0055276,0.0136866,839,1562,-1.11676,-17.2162
-378,-538,-1.11334,17.6204,0.00290988,0.00806169,0.00399359,0.0102381,0.000733512,1.07183,0.00659448,0.0107852,846,1562,-1.11336,-17.6204
-371,-538,-1.15021,17.9939,0.00287221,0.0100243,0.00452533,0.012216,0.000680527,1.11978,0.0079269,0.0130814,853,1562,-1.15018,-17.9939
-364,-538,-1.07806,18.4469,0.00248119,0.0123923,0.00494648,0.0144385,0.000434943,1.17855,0.00948401,0.0158302,860,1562,-1.07808,-18.4469
-357,-538,-1.01563,18.9166,0.00175359,0.0150979,0.00522274,0.0168989,-4.74304e-05,1.23872,0.0112818,0.0339442,867,1562,-1.0156,-18.9167
-350,-538,-0.885254,19.4707,0,0,0,0,0,0,0,-1,874,1562,-0.885244,-19.4707
-343,-538,-1.03326,19.7974,-0.0013049,0.0220652,0.0052344,0.0231841,-0.00242373,1.36022,0.016324,0.046929,881,1562,-1.03325,-19.7974
-336,-538,-1.27606,20.4929,-0.00368263,0.0262128,0.00480873,0.0269673,-0.00443708,1.41517,0.0196251,0.0427829,888,1562,-1.27605,-20.4929
-329,-538,-1.49719,20.9967,0,0,0,0,0,0,0,-1,895,1562,-1.49717,-20.9967
-322,-538,-1.33038,17.9833,0,0,0,0,0,0,0,-1,902,1562,-1.33038,-17.9833
-315,-538,1.97791,21.545,0,0,0,0,0,0,0,-1,909,1562,1.97789,-21.545
-308,-538,2.00873,22.4119,0,0,0,0,0,0,0,-1,916,1562,2.00876,-22.4118
-301,-538,-0.452393,18.5101,0,0,0,0,0,0,0,-1,923,1562,-0.452367,-18.5102
-294,-538,1.23138,14.0757,0,0,0,0,0,0,0,-1,930,1562,1.23137,-14.0757
-287,-538,-2.60419,10.2361,0,0,0,0,0,0,0,-1,937,1562,-2.6042,-10.2361
-280,-538,-2.93475,10.5106,0,0,0,0,0,0,0,-1,944,1562,-2.93475,-10.5106
-273,-538,-3.26532,10.785,0,0,0,0,0,0,0,-1,951,1562,-3.26531,-10.785
-266,-538,-5.03412,15.9951,0,0,0,0,0,0,0,-1,958,1562,-5.03409,-15.9951
-259,-538,-5.89642,16.5184,0,0,0,0,0,0,0,-1,965,1562,-5.89644,-16.5184
-252,-538,0,0,0,0,0,0,0,0,0,-1,972,1562,0,0
-245,-538,0,0,0,0,0,0,0,0,0,-1,979,1562,0,0
-238,-538,0,0,0,0,0,0,0,0,0,-1,986,1562,0,0
-231,-538,0,0,0,0,0,0,0,0,0,-1,993,1562,0,0
-224,-538,0,0,0,0,0,0,0,0,0,-1,1000,1562,0,0
-217,-538,0,0,0,0,0,0,0,0,0,-1,1007,1562,0,0
-210,-538,0,0,0,0,0,0,0,0,0,-1,1014,1562,0,0
-203,-538,0,0,0,0,0,0,0,0,0,-1,1021,1562,0,0
-196,-538,0,0,0,0,0,0,0,0,0,-1,1028,1562,0,0
-189,-538,0,0,0,0,0,0,0,0,0,-1,1035,1562,0,0
-182,-538,0,0,0,0,0,0,0,0,0,-1,1042,1562,0,0
-175,-538,0,0,0,0,0,0,0,0,0,-1,1049,1562,0,0
-168,-538,0,0,0,0,0,0,0,0,0,-1,1056,1562,0,0
-161,-538,0,0,0,0,0,0,0,0,0,-1,1063,1562,0,0
-154,-538,0,0,0,0,0,0,0,0,0,-1,1070,1562,0,0
-147,-538,0,0,0,0,0,0,0,0,0,-1,1077,1562,0,0
-140,-538,0,0,0,0,0,0,0,0,0,-1,1084,1562,0,0
-133,-538,0,0,0,0,0,0,0,0,0,-1,1091,1562,0,0
-126,-538,0,0,0,0,0,0,0,0,0,-1,1098,1562,0,0
-119,-538,0,0,0,0,0,0,0,0,0,-1,1105,1562,0,0
-112,-538,0,0,0,0,0,0,0,0,0,-1,1112,1562,0,0
-105,-538,0,0,0,0,0,0,0,0,0,-1,1119,1562,0,0
-98,-538,0,0,0,0,0,0,0,0,0,-1,1126,1562,0,0
-91,-538,0,0,0,0,0,0,0,0,0,-1,1133,1562,0,0
-84,-538,0,0,0,0,0,0,0,0,0,-1,1140,1562,0,0
-77,-538,0,0,0,0,0,0,0,0,0,-1,1147,1562,0,0
-70,-538,0,0,0,0,0,0,0,0,0,-1,1154,1562,0,0
-63,-538,0,0,0,0,0,0,0,0,0,-1,1161,1562,0,0
-56,-538,0,0,0,0,0,0,0,0,0,-1,1168,1562,0,0
-49,-538,0,0,0,0,0,0,0,0,0,-1,1175,1562,0,0
-42,-538,0,0,0,0,0,0,0,0,0,-1,1182,1562,0,0
-35,-538,0,0,0,0,0,0,0,0,0,-1,1189,1562,0,0
-28,-538,0,0,0,0,0,0,0,0,0,-1,1196,1562,0,0
-21,-538,0,0,0,0,0,0,0,0,0,-1,1203,1562,0,0
-14,-538,0,0,0,0,0,0,0,0,0,-1,1210,1562,0,0
-7,-538,0,0,0,0,0,0,0,0,0,-1,1217,1562,0,0
0,-538,0,0,0,0,0,0,0,0,0,-1,1224,1562,0,0
7,-538,0,0,0,0,0,0,0,0,0,-1,1231,1562,0,0
14,-538,0,0,0,0,0,0,0,0,0,-1,1238,1562,0,0
21,-538,0,0,0,0,0,0,0,0,0,-1,1245,1562,0,0
28,-538,0,0,0,0,0,0,0,0,0,-1,1252,1562,0,0
35,-538,0,0,0,0,0,0,0,0,0,-1,1259,1562,0,0
42,-538,0,0,0,0,0,0,0,0,0,-1,1266,1562,0,0
49,-538,0,0,0,0,0,0,0,0,0,-1,1273,1562,0,0
56,-538,0,0,0,0,0,0,0,0,0,-1,1280,1562,0,0
63,-538,0,0,0,0,0,0,0,0,0,-1,1287,1562,0,0
70,-538,0,0,0,0,0,0,0,0,0,-1,1294,1562,0,0
77,-538,0,0,0,0,0,0,0,0,0,-1,1301,1562,0,0
84,-538,0,0,0,0,0,0,0,0,0,-1,1308,1562,0,0
91,-538,0,0,0,0,0,0,0,0,0,-1,1315,1562,0,0
98,-538,0,0,0,0,0,0,0,0,0,-1,1322,1562,0,0
105,-538,0,0,0,0,0,0,0,0,0,-1,1329,1562,0,0
112,-538,0,0,0,0,0,0,0,0,0,-1,1336,1562,0,0
119,-538,0,0,0,0,0,0,0,0,0,-1,1343,1562,0,0
126,-538,0,0,0,0,0,0,0,0,0,-1,1350,1562,0,0
133,-538,0,0,0,0,0,0,0,0,0,-1,1357,1562,0,0
140,-538,0,0,0,0,0,0,0,0,0,-1,1364,1562,0,0
147,-538,0,0,0,0,0,0,0,0,0,-1,1371,1562,0,0
154,-538,0,0,0,0,0,0,0,0,0,-1,1378,1562,0,0
161,-538,0,0,0,0,0,0,0,0,0,-1,1385,1562,0,0
168,-538,0,0,0,0,0,0,0,0,0,-1,1392,1562,0,0
175,-538,0,0,0,0,0,0,0,0,0,-1,1399,1562,0,0
182,-538,0,0,0,0,0,0,0,0,0,-1,1406,1562,0,0
189,-538,0,0,0,0,0,0,0,0,0,-1,1413,1562,0,0
196,-538,0,0,0,0,0,0,0,0,0,-1,1420,1562,0,0
203,-538,0,0,0,0,0,0,0,0,0,-1,1427,1562,0,0
210,-538,0,0,0,0,0,0,0,0,0,-1,1434,1562,0,0
217,-538,0,0,0,0,0,0,0,0,0,-1,1441,1562,0,0
224,-538,0,0,0,0,0,0,0,0,0,-1,1448,1562,0,0
231,-538,0,0,0,0,0,0,0,0,0,-1,1455,1562,0,0
238,-538,0,0,0,0,0,0,0,0,0,-1,1462,1562,0,0
245,-538,0,0,0,0,0,0,0,0,0,-1,1469,1562,0,0
252,-538,0,0,0,0,0,0,0,0,0,-1,1476,1562,0,0
259,-538,0,0,0,0,0,0,0,0,0,-1,1483,1562,0,0
266,-538,0,0,0,0,0,0,0,0,0,-1,1490,1562,0,0
273,-538,0,0,0,0,0,0,0,0,0,-1,1497,1562,0,0
280,-538,0,0,0,0,0,0,0,0,0,-1,1504,1562,0,0
287,-538,0,0,0,0,0,0,0,0,0,-1,1511,1562,0,0
294,-538,0,0,0,0,0,0,0,0,0,-1,1518,1562,0,0
301,-538,0,0,0,0,0,0,0,0,0,-1,1525,1562,0,0
308,-538,0,0,0,0,0,0,0,0,0,-1,1532,1562,0,0
315,-538,0,0,0,0,0,0,0,0,0,-1,1539,1562,0,0
322,-538,0,0,0,0,0,0,0,0,0,-1,1546,1562,0,0
329,-538,0,0,0,0,0,0,0,0,0,-1,1553,1562,0,0
336,-538,0,0,0,0,0,0,0,0,0,-1,1560,1562,0,0
343,-538,0,0,0,0,0,0,0,0,0,-1,1567,1562,0,0
350,-538,0,0,0,0,0,0,0,0,0,-1,1574,1562,0,0
357,-538,0,0,0,0,0,0,0,0,0,-1,1581,1562,0,0
364,-538,0,0,0,0,0,0,0,0,0,-1,1588,1562,0,0
371,-538,0,0,0,0,0,0,0,0,0,-1,1595,1562,0,0
378,-538,9.65479,5.82434,0,0,0,0,0,0,0,-1,1602,1562,9.6548,-5.82439
385,-538,10.5449,7.9502,0,0,0,0,0,0,0,-1,1609,1562,10.5449,-7.95014
392,-538,8.20361,7.07214,0,0,0,0,0,0,0,-1,1616,1562,8.20362,-7.07211
399,-538,7.85425,4.70508,0,0,0,0,0,0,0,-1,1623,1562,7.85425,-4.70512
406,-538,7.77734,4.96094,0,0,0,0,0,0,0,-1,1630,1562,7.77729,-4.96097
413,-538,13.0446,13.1765,0,0,0,0,0,0,0,-1,1637,1562,13.0446,-13.1765
420,-538,9.96216,12.7653,0,0,0,0,0,0,0,-1,1644,1562,9.96221,-12.7653
427,-538,10.1732,14.5863,0,0,0,0,0,0,0,-1,1651,1562,10.1732,-14.5863
434,-538,9.64331,14.7745,0,0,0,0,0,0,0,-1,1658,1562,9.64326,-14.7746
441,-538,11.5039,20.5195,0,0,0,0,0,0,0,-1,1665,1562,11.5039,-20.5195
448,-538,12.8766,22.4932,0,0,0,0,0,0,0,-1,1672,1562,12.8766,-22.4932
455,-538,12.5693,17.4128,0,0,0,0,0,0,0,-1,1679,1562,12.5694,-17.4128
462,-538,12.1389,17.017,0,0,0,0,0,0,0,-1,1686,1562,12.1389,-17.017
469,-538,14.3802,16.6945,0,0,0,0,0,0,0,-1,1693,1562,14.3803,-16.6945
476,-538,13.724,19.0608,0,0,0,0,0,0,0,-1,1700,1562,13.724,-19.0608
483,-538,14.2515,20.3199,0,0,0,0,0,0,0,-1,1707,1562,14.2515,-20.32
490,-538,14.1609,19.8687,0.00599052,0.00556602,-0.00364454,0.00942899,0.00212755,-0.756313,0.00571048,0.0329698,1714,1562,14.1608,-19.8686
497,-538,14.1947,19.5773,0.00507386,0.00424868,-0.00275238,0.0074444,0.00187814,-0.711001,0.00447039,0.023188,1721,1562,14.1947,-19.5773
504,-538,14.2605,19.1285,0.00438271,0.00327268,-0.00229609,0.00618992,0.00146548,-0.666812,0.00373521,0.0123808,1728,1562,14.2606,-19.1286
511,-538,14.2344,18.7589,0.00359569,0.00241268,-0.00174149,0.00484339,0.00116498,-0.621685,0.00291914,0.0101197,1735,1562,14.2344,-18.7589
518,-538,14.2335,18.3984,0.00270565,0.00150883,-0.00105377,0.00331907,0.000895406,-0.527166,0.00198282,0.0108055,1742,1562,14.2335,-18.3985
525,-538,14.2377,18.0161,0.0017735,0.000711565,-0.000350502,0.00187875,0.000606311,-0.291728,0.00110719,0.0115457,1749,1562,14.2376,-18.0161
532,-538,14.2488,17.6449,0.000929337,9.58624e-05,0.000286458,0.0010183,6.90419e-06,0.301104,0.000676574,0.0136515,1756,1562,14.2488,-17.6449
539,-538,14.2307,17.2756,0.000357095,-0.000486232,0.000803533,0.000842881,-0.000972019,0.543768,0.00104872,0.0170637,1763,1562,14.2307,-17.2757
546,-538,14.2108,16.8805,-0.000156462,-0.0010433,0.00130989,0.000783024,-0.00198278,0.622194,0.00164616,0.0178546,1770,1562,14.2109,-16.8804
553,-538,14.245,16.5508,-0.000577067,-0.0015829,0.00178114,0.000770796,-0.00293077,0.647802,0.00225512,0.0279607,1777,1562,14.245,-16.5508
560,-538,14.2225,16.2086,-0.000777114,-0.00203647,0.0021487,0.000832274,-0.00364586,0.642864,0.0027503,0.0288988,1784,1562,14.2225,-16.2087
567,-538,14.1611,15.7806,-0.000610685,-0.0026019,0.00239662,0.000988903,-0.00420149,0.588533,0.00318226,0.0205315,1791,1562,14.1612,-15.7807
574,-538,14.132,15.3589,0.000191037,-0.00293246,0.0021735,0.00130569,-0.00404712,0.473867,0.00322272,0.0177725,1798,1562,14.132,-15.3589
581,-538,14.1925,14.9468,0.00141802,-0.00308164,0.00175503,0.00202159,-0.00368521,0.331235,0.00334116,0.0227895,1805,1562,14.1925,-14.9468
588,-538,14.228,14.5591,0.00315427,-0.00390279,0.00143187,0.00343373,-0.00418225,0.192747,0.00440416,0.0422876,1812,1562,14.2281,-14.559
595,-538,14.2994,14.0618,0,0,0,0,0,0,0,-1,1819,1562,14.2994,-14.0617
602,-538,10.314,8.94238,0,0,0,0,0,0,0,-1,1826,1562,10.314,-8.94238
609,-538,10.1046,7.05713,0,0,0,0,0,0,0,-1,1833,1562,10.1046,-7.05719
616,-538,9.92249,5.43506,0,0,0,0,0,0,0,-1,1840,1562,9.92254,-5.43507
623,-538,11.1711,4.31604,0,0,0,0,0,0,0,-1,1847,1562,11.1711,-4.316
630,-538,12.6112,2.61633,0,0,0,0,0,0,0,-1,1854,1562,12.6112,-2.61637
637,-538,0,0,0,0,0,0,0,0,0,-1,1861,1562,0,0
644,-538,0,0,0,0,0,0,0,0,0,-1,1868,1562,0,0
651,-538,0,0,0,0,0,0,0,0,0,-1,1875,1562,0,0
658,-538,0,0,0,0,0,0,0,0,0,-1,1882,1562,0,0
665,-538,0,0,0,0,0,0,0,0,0,-1,1889,1562,0,0
672,-538,0,0,0,0,0,0,0,0,0,-1,1896,1562,0,0
679,-538,0,0,0,0,0,0,0,0,0,-1,1903,1562,0,0
686,-538,0,0,0,0,0,0,0,0,0,-1,1910,1562,0,0
693,-538,0,0,0,0,0,0,0,0,0,-1,1917,1562,0,0
700,-538,0,0,0,0,0,0,0,0,0,-1,1924,1562,0,0
707,-538,0,0,0,0,0,0,0,0,0,-1,1931,1562,0,0
714,-538,0,0,0,0,0,0,0,0,0,-1,1938,1562,0,0
721,-538,0,0,0,0,0,0,0,0,0,-1,1945,1562,0,0
728,-538,0,0,0,0,0,0,0,0,0,-1,1952,1562,0,0
735,-538,0,0,0,0,0,0,0,0,0,-1,1959,1562,0,0
742,-538,0,0,0,0,0,0,0,0,0,-1,1966,1562,0,0
749,-538,0,0,0,0,0,0,0,0,0,-1,1973,1562,0,0
756,-538,0,0,0,0,0,0,0,0,0,-1,1980,1562,0,0
763,-538,0,0,0,0,0,0,0,0,0,-1,1987,1562,0,0
770,-538,0,0,0,0,0,0,0,0,0,-1,1994,1562,0,0
777,-538,0,0,0,0,0,0,0,0,0,-1,2001,1562,0,0
784,-538,0,0,0,0,0,0,0,0,0,-1,2008,1562,0,0
791,-538,0,0,0,0,0,0,0,0,0,-1,2015,1562,0,0
798,-538,0,0,0,0,0,0,0,0,0,-1,2022,1562,0,0
805,-538,0,0,0,0,0,0,0,0,0,-1,2029,1562,0,0
812,-538,0,0,0,0,0,0,0,0,0,-1,2036,1562,0,0
-700,-545,0,0,0,0,0,0,0,0,0,-1,524,1569,0,0
-693,-545,0,0,0,0,0,0,0,0,0,-1,531,1569,0,0
-686,-545,0,0,0,0,0,0,0,0,0,-1,538,1569,0,0
-679,-545,0,0,0,0,0,0,0,0,0,-1,545,1569,0,0
-672,-545,0,0,0,0,0,0,0,0,0,-1,552,1569,0,0
-665,-545,0,0,0,0,0,0,0,0,0,-1,559,1569,0,0
-658,-545,0,0,0,0,0,0,0,0,0,-1,566,1569,0,0
-651,-545,0,0,0,0,0,0,0,0,0,-1,573,1569,0,0
-644,-545,0,0,0,0,0,0,0,0,0,-1,580,1569,0,0
-637,-545,0,0,0,0,0,0,0,0,0,-1,587,1569,0,0
-630,-545,0,0,0,0,0,0,0,0,0,-1,594,1569,0,0
-623,-545,0,0,0,0,0,0,0,0,0,-1,601,1569,0,0
-616,-545,0,0,0,0,0,0,0,0,0,-1,608,1569,0,0
-609,-545,0,0,0,0,0,0,0,0,0,-1,615,1569,0,0
-602,-545,0,0,0,0,0,0,0,0,0,-1,622,1569,0,0
-595,-545,0,0,0,0,0,0,0,0,0,-1,629,1569,0,0
-588,-545,0,0,0,0,0,0,0,0,0,-1,636,1569,0,0
-581,-545,0,0,0,0,0,0,0,0,0,-1,643,1569,0,0
-574,-545,0,0,0,0,0,0,0,0,0,-1,650,1569,0,0
-567,-545,0,0,0,0,0,0,0,0,0,-1,657,1569,0,0
-560,-545,0,0,0,0,0,0,0,0,0,-1,664,1569,0,0
-553,-545,0,0,0,0,0,0,0,0,0,-1,671,1569,0,0
-546,-545,0,0,0,0,0,0,0,0,0,-1,678,1569,0,0
-539,-545,0,0,0,0,0,0,0,0,0,-1,685,1569,0,0
-532,-545,0,0,0,0,0,0,0,0,0,-1,692,1569,0,0
-525,-545,0,0,0,0,0,0,0,0,0,-1,699,1569,0,0
-518,-545,0,0,0,0,0,0,0,0,0,-1,706,1569,0,0
-511,-545,0,0,0,0,0,0,0,0,0,-1,713,1569,0,0
-504,-545,-3.55237,-2.5354,0,0,0,0,0,0,0,-1,720,1569,-3.55236,2.53545
-497,-545,2.26575,5.69214,0,0,0,0,0,0,0,-1,727,1569,2.26573,-5.6922
-490,-545,-2.17334,7.81396,0,0,0,0,0,0,0,-1,734,1569,-2.17334,-7.81399
-483,-545,-1.88336,5.8446,0,0,0,0,0,0,0,-1,741,1569,-1.88334,-5.84466
-476,-545,-1.13147,6.5741,0,0,0,0,0,0,0,-1,748,1569,-1.13149,-6.57405
-469,-545,-1.96332,11.137,0,0,0,0,0,0,0,-1,755,1569,-1.96332,-11.137
-462,-545,-1.01929,11.8105,0,0,0,0,0,0,0,-1,762,1569,-1.01931,-11.8106
-455,-545,-0.847168,12.6938,0,0,0,0,0,0,0,-1,769,1569,-0.847193,-12.6939
-448,-545,-0.50885,13.5125,-0.00097536,-0.00189627,0.00049849,-0.000757206,-0.00211443,0.41252,0.00123704,0.03036,776,1569,-0.508864,-13.5125
-441,-545,-0.52655,14.0586,-0.00138617,-0.0010504,0.000136401,-0.00100197,-0.00143459,1.22965,0.000849727,0.0234771,783,1569,-0.526552,-14.0586
-434,-545,-0.687134,14.4049,-0.00150632,-0.000519785,-3.1356e-05,-0.00051879,-0.00150732,-1.53905,0.000884223,0.0203541,790,1569,-0.687134,-14.4049
-427,-545,-0.678833,14.8038,-0.00132771,-4.12589e-05,5.21914e-05,-3.91449e-05,-0.00132982,1.53031,0.000873793,0.0190202,797,1569,-0.67882,-14.8038
-420,-545,-0.668335,15.203,-0.00102056,0.000539419,0.000242703,0.000576306,-0.00105745,1.41996,0.000956785,0.0253693,804,1569,-0.668317,-15.2029
-413,-545,-0.669434,15.5958,-0.000631228,0.00124689,0.000475085,0.00136023,-0.000744565,1.33661,0.00123241,0.0239849,811,1569,-0.66943,-15.5958
-406,-545,-0.657043,15.9935,3.58125e-06,0.00197116,0.000931997,0.00234253,-0.000367791,1.19161,0.00169761,0.0176044,818,1569,-0.657018,-15.9935
-399,-545,-0.656738,16.4158,0.00072662,0.00270668,0.00143438,0.00345952,-2.6225e-05,1.08746,0.00231514,0.0125323,825,1569,-0.656733,-16.4157
-392,-545,-0.680603,16.8186,0.00117915,0.00342221,0.00187559,0.004486,0.00011535,1.05486,0.00295297,0.0121453,832,1569,-0.680598,-16.8186
-385,-545,-0.685242,17.2286,0.00155732,0.00484031,0.00232124,0.00604181,0.000355809,1.09316,0.00391467,0.0101256,839,1569,-0.685228,-17.2287
-378,-545,-0.699646,17.6388,0.00194061,0.00592979,0.00272744,0.00731415,0.000556247,1.10111,0.00470166,0.0119768,846,1569,-0.69963,-17.6388
-371,-545,-0.740662,18.0503,0.0021107,0.00736965,0.00309917,0.00880453,0.000675818,1.13719,0.00565789,0.0150023,853,1569,-0.740678,-18.0503
-364,-545,-0.737915,18.4047,0.00198084,0.00912279,0.00338857,0.0104746,0.000628985,1.1912,0.00678316,0.0102339,860,1569,-0.737937,-18.4047
-357,-545,-0.653198,18.8732,0.00162396,0.0110623,0.00355685,0.0122526,0.000433676,1.24786,0.00802777,0.0150589,867,1569,-0.653177,-18.8731
-350,-545,-0.613525,19.2654,0.00100459,0.0133197,0.00367242,0.0143317,-7.38446e-06,1.30191,0.00955692,0.0218693,874,1569,-0.613514,-19.2654
-343,-545,-0.61792,19.6138,-5.65941e-06,0.0159291,0.00358812,0.0166998,-0.00077634,1.35922,0.0114008,0.0309483,881,1569,-0.617903,-19.6138
-336,-545,-0.723389,19.7449,-0.00141064,0.0189324,0.00342173,0.0194925,-0.00197076,1.40854,0.0136993,0.0412451,888,1569,-0.723418,-19.7448
-329,-545,-0.8526,19.778,0,0,0,0,0,0,0,-1,895,1569,-0.852612,-19.7779
-322,-545,-0.57019,18.6997,0,0,0,0,0,0,0,-1,902,1569,-0.570164,-18.6997
-315,-545,1.34119,21.0093,0,0,0,0,0,0,0,-1,909,1569,1.34116,-21.0093
-308,-545,1.29767,21.9224,0,0,0,0,0,0,0,-1,916,1569,1.29764,-21.9223
-301,-545,1.52191,17.5009,0,0,0,0,0,0,0,-1,923,1569,1.52192,-17.5008
-294,-545,-2.69287,8.42102,0,0,0,0,0,0,0,-1,930,1569,-2.69287,-8.42097
-287,-545,-3.47784,9.96021,0,0,0,0,0,0,0,-1,937,1569,-3.47785,-9.96021
-280,-545,-3.7879,10.5448,0,0,0,0,0,0,0,-1,944,1569,-3.78793,-10.5448
-273,-545,-5.10333,12.864,0,0,0,0,0,0,0,-1,951,1569,-5.10331,-12.864
-266,-545,-5.78955,13.3704,0,0,0,0,0,0,0,-1,958,1569,-5.78952,-13.3703
-259,-545,-6.32184,13.8101,0,0,0,0,0,0,0,-1,965,1569,-6.32182,-13.81
-252,-545,0.369263,7.54053,0,0,0,0,0,0,0,-1,972,1569,0.369276,-7.54056
-245,-545,-0.236633,6.65564,0,0,0,0,0,0,0,-1,979,1569,-0.236605,-6.65566
-238,-545,0,0,0,0,0,0,0,0,0,-1,986,1569,0,0
-231,-545,0,0,0,0,0,0,0,0,0,-1,993,1569,0,0
-224,-545,0,0,0,0,0,0,0,0,0,-1,1000,1569,0,0
-217,-545,0,0,0,0,0,0,0,0,0,-1,1007,1569,0,0
-210,-545,0,0,0,0,0,0,0,0,0,-1,1014,1569,0,0
-203,-545,0,0,0,0,0,0,0,0,0,-1,1021,1569,0,0
-196,-545,0,0,0,0,0,0,0,0,0,-1,1028,1569,0,0
-189,-545,0,0,0,0,0,0,0,0,0,-1,1035,1569,0,0
-182,-545,0,0,0,0,0,0,0,0,0,-1,1042,1569,0,0
-175,-545,0,0,0,0,0,0,0,0,0,-1,1049,1569,0,0
-168,-545,0,0,0,0,0,0,0,0,0,-1,1056,1569,0,0
-161,-545,0,0,0,0,0,0,0,0,0,-1,1063,1569,0,0
-154,-545,0,0,0,0,0,0,0,0,0,-1,1070,1569,0,0
-147,-545,0,0,0,0,0,0,0,0,0,-1,1077,1569,0,0
-140,-545,0,0,0,0,0,0,0,0,0,-1,1084,1569,0,0
-133,-545,0,0,0,0,0,0,0,0,0,-1,1091,1569,0,0
-126,-545,0,0,0,0,0,0,0,0,0,-1,1098,1569,0,0
-119,-545,0,0,0,0,0,0,0,0,0,-1,1105,1569,0,0
-112,-545,0,0,0,0,0,0,0,0,0,-1,1112,1569,0,0
-105,-545,0,0,0,0,0,0,0,0,0,-1,1119,1569,0,0
-98,-545,0,0,0,0,0,0,0,0,0,-1,1126,1569,0,0
-91,-545,0,0,0,0,0,0,0,0,0,-1,1133,1569,0,0
-84,-545,0,0,0,0,0,0,0,0,0,-1,1140,1569,0,0
-77,-545,0,0,0,0,0,0,0,0,0,-1,1147,1569,0,0
-70,-545,0,0,0,0,0,0,0,0,0,-1,1154,1569,0,0
-63,-545,0,0,0,0,0,0,0,0,0,-1,1161,1569,0,0
-56,-545,0,0,0,0,0,0,0,0,0,-1,1168,1569,0,0
-49,-545,0,0,0,0,0,0,0,0,0,-1,1175,1569,0,0
-42,-545,0,0,0,0,0,0,0,0,0,-1,1182,1569,0,0
-35,-545,0,0,0,0,0,0,0,0,0,-1,1189,1569,0,0
-28,-545,0,0,0,0,0,0,0,0,0,-1,1196,1569,0,0
-21,-545,0,0,0,0,0,0,0,0,0,-1,1203,1569,0,0
-14,-545,0,0,0,0,0,0,0,0,0,-1,1210,1569,0,0
-7,-545,0,0,0,0,0,0,0,0,0,-1,1217,1569,0,0
0,-545,0,0,0,0,0,0,0,0,0,-1,1224,1569,0,0
7,-545,0,0,0,0,0,0,0,0,0,-1,1231,1569,0,0
14,-545,0,0,0,0,0,0,0,0,0,-1,1238,1569,0,0
21,-545,0,0,0,0,0,0,0,0,0,-1,1245,1569,0,0
28,-545,0,0,0,0,0,0,0,0,0,-1,1252,1569,0,0
35,-545,0,0,0,0,0,0,0,0,0,-1,1259,1569,0,0
42,-545,0,0,0,0,0,0,0,0,0,-1,1266,1569,0,0
49,-545,0,0,0,0,0,0,0,0,0,-1,1273,1569,0,0
56,-545,0,0,0,0,0,0,0,0,0,-1,1280,1569,0,0
63,-545,0,0,0,0,0,0,0,0,0,-1,1287,1569,0,0
70,-545,0,0,0,0,0,0,0,0,0,-1,1294,1569,0,0
77,-545,0,0,0,0,0,0,0,0,0,-1,1301,1569,0,0
84,-545,0,0,0,0,0,0,0,0,0,-1,1308,1569,0,0
91,-545,0,0,0,0,0,0,0,0,0,-1,1315,1569,0,0
98,-545,0,0,0,0,0,0,0,0,0,-1,1322,1569,0,0
105,-545,0,0,0,0,0,0,0,0,0,-1,1329,1569,0,0
112,-545,0,0,0,0,0,0,0,0,0,-1,1336,1569,0,0
119,-545,0,0,0,0,0,0,0,0,0,-1,1343,1569,0,0
126,-545,0,0,0,0,0,0,0,0,0,-1,1350,1569,0,0
133,-545,0,0,0,0,0,0,0,0,0,-1,1357,1569,0,0
140,-545,0,0,0,0,0,0,0,0,0,-1,1364,1569,0,0
147,-545,0,0,0,0,0,0,0,0,0,-1,1371,1569,0,0
154,-545,0,0,0,0,0,0,0,0,0,-1,1378,1569,0,0
161,-545,0,0,0,0,0,0,0,0,0,-1,1385,1569,0,0
168,-545,0,0,0,0,0,0,0,0,0,-1,1392,1569,0,0
175,-545,0,0,0,0,0,0,0,0,0,-1,1399,1569,0,0
182,-545,0,0,0,0,0,0,0,0,0,-1,1406,1569,0,0
189,-545,0,0,0,0,0,0,0,0,0,-1,1413,1569,0,0
196,-545,0,0,0,0,0,0,0,0,0,-1,1420,1569,0,0
203,-545,0,0,0,0,0,0,0,0,0,-1,1427,1569,0,0
210,-545,0,0,0,0,0,0,0,0,0,-1,1434,1569,0,0
217,-545,0,0,0,0,0,0,0,0,0,-1,1441,1569,0,0
224,-545,0,0,0,0,0,0,0,0,0,-1,1448,1569,0,0
231,-545,0,0,0,0,0,0,0,0,0,-1,1455,1569,0,0
238,-545,0,0,0,0,0,0,0,0,0,-1,1462,1569,0,0
245,-545,0,0,0,0,0,0,0,0,0,-1,1469,1569,0,0
252,-545,0,0,0,0,0,0,0,0,0,-1,1476,1569,0,0
259,-545,0,0,0,0,0,0,0,0,0,-1,1483,1569,0,0
266,-545,0,0,0,0,0,0,0,0,0,-1,1490,1569,0,0
273,-545,0,0,0,0,0,0,0,0,0,-1,1497,1569,0,0
280,-545,0,0,0,0,0,0,0,0,0,-1,1504,1569,0,0
287,-545,0,0,0,0,0,0,0,0,0,-1,1511,1569,0,0
294,-545,0,0,0,0,0,0,0,0,0,-1,1518,1569,0,0
301,-545,0,0,0,0,0,0,0,0,0,-1,1525,1569,0,0
308,-545,0,0,0,0,0,0,0,0,0,-1,1532,1569,0,0
315,-545,0,0,0,0,0,0,0,0,0,-1,1539,1569,0,0
322,-545,0,0,0,0,0,0,0,0,0,-1,1546,1569,0,0
329,-545,0,0,0,0,0,0,0,0,0,-1,1553,1569,0,0
336,-545,0,0,0,0,0,0,0,0,0,-1,1560,1569,0,0
343,-545,0,0,0,0,0,0,0,0,0,-1,1567,1569,0,0
350,-545,0,0,0,0,0,0,0,0,0,-1,1574,1569,0,0
357,-545,0,0,0,0,0,0,0,0,0,-1,1581,1569,0,0
364,-545,7.19495,4.88098,0,0,0,0,0,0,0,-1,1588,1569,7.19497,-4.88095
371,-545,7.82324,3.84302,0,0,0,0,0,0,0,-1,1595,1569,7.82324,-3.84307
378,-545,7.65674,5.52673,0,0,0,0,0,0,0,-1,1602,1569,7.6567,-5.52667
385,-545,8.58447,1.16125,0,0,0,0,0,0,0,-1,1609,1569,8.5845,-1.1612
392,-545,12.5654,3.89526,0,0,0,0,0,0,0,-1,1616,1569,12.5655,-3.89532
399,-545,11.5869,5.6333,0,0,0,0,0,0,0,-1,1623,1569,11.5869,-5.63326
406,-545,11.234,6.36414,0,0,0,0,0,0,0,-1,1630,1569,11.234,-6.3641
413,-545,12.1521,13.4817,0,0,0,0,0,0,0,-1,1637,1569,12.1521,-13.4817
420,-545,11.1954,13.6047,0,0,0,0,0,0,0,-1,1644,1569,11.1954,-13.6047
427,-545,9.61072,14.9135,0,0,0,0,0,0,0,-1,1651,1569,9.61076,-14.9134
434,-545,13.1598,23.9921,0,0,0,0,0,0,0,-1,1658,1569,13.1598,-23.992
441,-545,12.2833,22.2238,0,0,0,0,0,0,0,-1,1665,1569,12.2833,-22.2237
448,-545,13.0082,21.941,0,0,0,0,0,0,0,-1,1672,1569,13.0082,-21.941
455,-545,13.733,21.6583,0,0,0,0,0,0,0,-1,1679,1569,13.733,-21.6583
462,-545,12.449,20.7413,0,0,0,0,0,0,0,-1,1686,1569,12.4489,-20.7413
469,-545,12.7837,17.7919,0,0,0,0,0,0,0,-1,1693,1569,12.7837,-17.7919
476,-545,13.6938,21.0562,0,0,0,0,0,0,0,-1,1700,1569,13.6939,-21.0561
483,-545,13.946,20.2789,0.00594079,0.00687479,-0.00436227,0.010795,0.00202059,-0.838722,0.00662662,0.0363517,1707,1569,13.946,-20.279
490,-545,13.8479,19.9076,0.00529137,0.00536013,-0.00349913,0.00882505,0.00182646,-0.790311,0.00537893,0.0194696,1714,1569,13.848,-19.9075
497,-545,13.8541,19.5354,0.00451241,0.00415034,-0.00277503,0.00711231,0.00155045,-0.752825,0.00431851,0.0195805,1721,1569,13.8542,-19.5354
504,-545,13.9303,19.1548,0.0038334,0.00320222,-0.00228751,0.00582699,0.00120863,-0.71685,0.00355102,0.0158774,1728,1569,13.9303,-19.1548
511,-545,13.8851,18.7625,0.00304892,0.00228824,-0.00168461,0.00439559,0.000941566,-0.674373,0.00267241,0.0118358,1735,1569,13.8851,-18.7625
518,-545,13.8793,18.3843,0.00214957,0.00134903,-0.000965058,0.00279408,0.000704524,-0.588813,0.00167792,0.0136141,1742,1569,13.8792,-18.3842
525,-545,13.8872,17.9968,0.00118119,0.000490882,-0.000178342,0.00122455,0.00044753,-0.238459,0.000715472,0.0145684,1749,1569,13.8872,-17.9968
532,-545,13.8752,17.6444,0.00026139,-0.000229287,0.000595336,0.000659958,-0.000627855,0.589951,0.000743596,0.0147916,1756,1569,13.8753,-17.6444
539,-545,13.8508,17.2966,-0.000457314,-0.00095767,0.00131719,0.000633245,-0.00204823,0.691549,0.0016184,0.01711,1763,1569,13.8508,-17.2966
546,-545,13.8098,16.9065,-0.00118806,-0.00173708,0.00211348,0.000668663,-0.0035938,0.720817,0.00264706,0.0185491,1770,1569,13.8099,-16.9065
553,-545,13.8501,16.5366,-0.00185426,-0.00252551,0.00292378,0.000753095,-0.00513287,0.728252,0.00369859,0.0265983,1777,1569,13.8501,-16.5366
560,-545,13.8821,16.1063,-0.00233499,-0.00331502,0.00367081,0.000878371,-0.00652838,0.719046,0.00467264,0.0268722,1784,1569,13.8821,-16.1063
567,-545,13.8555,15.7006,0,0,0,0,0,0,0,-1,1791,1569,13.8555,-15.7005
574,-545,13.8586,15.2279,0,0,0,0,0,0,0,-1,1798,1569,13.8587,-15.2279
581,-545,13.897,14.837,0,0,0,0,0,0,0,-1,1805,1569,13.897,-14.8371
588,-545,13.9365,14.5389,0,0,0,0,0,0,0,-1,1812,1569,13.9365,-14.539
595,-545,10.2859,9.11218,0,0,0,0,0,0,0,-1,1819,1569,10.2858,-9.11215
602,-545,8.82117,6.32214,0,0,0,0,0,0,0,-1,1826,1569,8.82121,-6.32217
609,-545,10.2406,5.22351,0,0,0,0,0,0,0,-1,1833,1569,10.2406,-5.22353
616,-545,11.701,3.93188,0,0,0,0,0,0,0,-1,1840,1569,11.701,-3.93191
623,-545,13.2139,2.32043,0,0,0,0,0,0,0,-1,1847,1569,13.2139,-2.32042
630,-545,0,0,0,0,0,0,0,0,0,-1,1854,1569,0,0
637,-545,0,0,0,0,0,0,0,0,0,-1,1861,1569,0,0
644,-545,0,0,0,0,0,0,0,0,0,-1,1868,1569,0,0
651,-545,0,0,0,0,0,0,0,0,0,-1,1875,1569,0,0
658,-545,0,0,0,0,0,0,0,0,0,-1,1882,1569,0,0
665,-545,0,0,0,0,0,0,0,0,0,-1,1889,1569,0,0
672,-545,0,0,0,0,0,0,0,0,0,-1,1896,1569,0,0
679,-545,0,0,0,0,0,0,0,0,0,-1,1903,1569,0,0
686,-545,0,0,0,0,0,0,0,0,0,-1,1910,1569,0,0
693,-545,0,0,0,0,0,0,0,0,0,-1,1917,1569,0,0
700,-545,0,0,0,0,0,0,0,0,0,-1,1924,1569,0,0
707,-545,0,0,0,0,0,0,0,0,0,-1,1931,1569,0,0
714,-545,0,0,0,0,0,0,0,0,0,-1,1938,1569,0,0
721,-545,0,0,0,0,0,0,0,0,0,-1,1945,1569,0,0
728,-545,0,0,0,0,0,0,0,0,0,-1,1952,1569,0,0
735,-545,0,0,0,0,0,0,0,0,0,-1,1959,1569,0,0
742,-545,0,0,0,0,0,0,0,0,0,-1,1966,1569,0,0
749,-545,0,0,0,0,0,0,0,0,0,-1,1973,1569,0,0
756,-545,0,0,0,0,0,0,0,0,0,-1,1980,1569,0,0
763,-545,0,0,0,0,0,0,0,0,0,-1,1987,1569,0,0
770,-545,0,0,0,0,0,0,0,0,0,-1,1994,1569,0,0
777,-545,0,0,0,0,0,0,0,0,0,-1,2001,1569,0,0
784,-545,0,0,0,0,0,0,0,0,0,-1,2008,1569,0,0
791,-545,0,0,0,0,0,0,0,0,0,-1,2015,1569,0,0
798,-545,0,0,0,0,0,0,0,0,0,-1,2022,1569,0,0
805,-545,0,0,0,0,0,0,0,0,0,-1,2029,1569,0,0
812,-545,0,0,0,0,0,0,0,0,0,-1,2036,1569,0,0
-700,-552,0,0,0,0,0,0,0,0,0,-1,524,1576,0,0
-693,-552,0,0,0,0,0,0,0,0,0,-1,531,1576,0,0
-686,-552,0,0,0,0,0,0,0,0,0,-1,538,1576,0,0
-679,-552,0,0,0,0,0,0,0,0,0,-1,545,1576,0,0
-672,-552,0,0,0,0,0,0,0,0,0,-1,552,1576,0,0
-665,-552,0,0,0,0,0,0,0,0,0,-1,559,1576,0,0
-658,-552,0,0,0,0,0,0,0,0,0,-1,566,1576,0,0
-651,-552,0,0,0,0,0,0,0,0,0,-1,573,1576,0,0
-644,-552,0,0,0,0,0,0,0,0,0,-1,580,1576,0,0
-637,-552,0,0,0,0,0,0,0,0,0,-1,587,1576,0,0
-630,-552,0,0,0,0,0,0,0,0,0,-1,594,1576,0,0
-623,-552,0,0,0,0,0,0,0,0,0,-1,601,1576,0,0
-616,-552,0,0,0,0,0,0,0,0,0,-1,608,1576,0,0
-609,-552,0,0,0,0,0,0,0,0,0,-1,615,1576,0,0
-602,-552,0,0,0,0,0,0,0,0,0,-1,622,1576,0,0
-595,-552,0,0,0,0,0,0,0,0,0,-1,629,1576,0,0
-588,-552,0,0,0,0,0,0,0,0,0,-1,636,1576,0,0
-581,-552,0,0,0,0,0,0,0,0,0,-1,643,1576,0,0
-574,-552,0,0,0,0,0,0,0,0,0,-1,650,1576,0,0
-567,-552,0,0,0,0,0,0,0,0,0,-1,657,1576,0,0
-560,-552,0,0,0,0,0,0,0,0,0,-1,664,1576,0,0
-553,-552,0,0,0,0,0,0,0,0,0,-1,671,1576,0,0
-546,-552,0,0,0,0,0,0,0,0,0,-1,678,1576,0,0
-539,-552,0,0,0,0,0,0,0,0,0,-1,685,1576,0,0
-532,-552,0,0,0,0,0,0,0,0,0,-1,692,1576,0,0
-525,-552,0,0,0,0,0,0,0,0,0,-1,699,1576,0,0
-518,-552,0,0,0,0,0,0,0,0,0,-1,706,1576,0,0
-511,-552,0,0,0,0,0,0,0,0,0,-1,713,1576,0,0
-504,-552,0,0,0,0,0,0,0,0,0,-1,720,1576,0,0
-497,-552,1.51282,3.96924,0,0,0,0,0,0,0,-1,727,1576,1.5128,-3.96924
-490,-552,-3.82312,6.32104,0,0,0,0,0,0,0,-1,734,1576,-3.82314,-6.3211
-483,-552,-3.50586,6.47986,0,0,0,0,0,0,0,-1,741,1576,-3.50587,-6.47983
-476,-552,-1.95129,4.43054,0,0,0,0,0,0,0,-1,748,1576,-1.95128,-4.43054
-469,-552,-1.40491,7.9895,0,0,0,0,0,0,0,-1,755,1576,-1.40491,-7.98947
-462,-552,-1.99573,11.4446,0,0,0,0,0,0,0,-1,762,1576,-1.99571,-11.4445
-455,-552,-0.678223,12.5944,0,0,0,0,0,0,0,-1,769,1576,-0.678194,-12.5944
-448,-552,-0.448059,13.4248,-0.000177329,-0.00043914,0.00143098,0.00112872,-0.00174519,0.739785,0.00167193,0.0443239,776,1576,-0.448042,-13.4247
-441,-552,-0.0655518,13.9259,-0.00131452,0.000154592,0.000622296,0.000382753,-0.00154268,1.21937,0.00117697,0.0413348,783,1576,-0.065541,-13.9259
-434,-552,-0.112122,14.4906,-0.00204431,0.000271478,0.000108431,0.000276544,-0.00204938,1.52411,0.00146715,0.0289016,790,1576,-0.112117,-14.4906
-427,-552,-0.281311,14.7466,-0.00222541,0.000323537,-5.53672e-05,0.000324739,-0.00222661,-1.54909,0.00160365,0.0247148,797,1576,-0.281326,-14.7466
-420,-552,-0.233582,15.2301,-0.00211156,0.000637071,-3.65656e-05,0.000637558,-0.00211205,-1.5575,0.00166183,0.0220435,804,1576,-0.233567,-15.23
-413,-552,-0.225952,15.6171,-0.00185104,0.00112734,6.52317e-05,0.00112877,-0.00185246,1.54891,0.00173804,0.0181368,811,1576,-0.225977,-15.617
-406,-552,-0.25415,16.0149,-0.00129702,0.00162477,0.000407286,0.00168048,-0.00135273,1.43485,0.00175463,0.0142951,818,1576,-0.254155,-16.0149
-399,-552,-0.272888,16.4192,-0.000608663,0.00213602,0.000800759,0.00235256,-0.0008252,1.3067,0.00190401,0.0145729,825,1576,-0.272882,-16.4192
-392,-552,-0.292542,16.8198,-0.000160696,0.00256784,0.00108036,0.0029438,-0.000536658,1.23591,0.00216372,0.0149569,832,1576,-0.292569,-16.8198
-385,-552,-0.305725,17.2343,0.000347002,0.00352248,0.001457,0.00408968,-0.0002202,1.19955,0.00280274,0.0135506,839,1576,-0.305735,-17.2343
-378,-552,-0.326477,17.6117,0.000916983,0.00429955,0.00181263,0.00508739,0.000129136,1.16079,0.00334938,0.0152873,846,1576,-0.326507,-17.6116
-371,-552,-0.345459,18.0166,0.00128835,0.00534618,0.00209256,0.00623194,0.000402589,1.17038,0.00402714,0.0186377,853,1576,-0.345448,-18.0166
-364,-552,-0.330627,18.4193,0.00140369,0.00661888,0.00231224,0.0074964,0.000526176,1.20808,0.00483177,0.0143191,860,1576,-0.330616,-18.4193
-357,-552,-0.30603,18.8007,0.00136752,0.00797981,0.00244233,0.00878409,0.000563245,1.25267,0.00567763,0.00979205,867,1576,-0.306025,-18.8007
-350,-552,-0.294617,19.2028,0.00117875,0.00954249,0.00255148,0.0102594,0.000461838,1.29688,0.00669097,0.0111372,874,1576,-0.294601,-19.2028
-343,-552,-0.307129,19.5641,0.000785012,0.0113376,0.0025676,0.0119291,0.000193439,1.34435,0.00788907,0.0133988,881,1576,-0.307113,-19.564
-336,-552,-0.25061,19.8838,0.000159474,0.0133634,0.00255949,0.0138422,-0.000319307,1.38587,0.00933637,0.0240477,888,1576,-0.250583,-19.8837
-329,-552,-0.39856,20.1978,-0.000613757,0.0153081,0.00258989,0.0157188,-0.00102444,1.41353,0.0108368,0.0460223,895,1576,-0.398535,-20.1977
-322,-552,-0.296875,20.8563,0,0,0,0,0,0,0,-1,902,1576,-0.296891,-20.8563
-315,-552,0.443115,21.4369,0,0,0,0,0,0,0,-1,909,1576,0.443108,-21.4369
-308,-552,0.289551,22.7799,0,0,0,0,0,0,0,-1,916,1576,0.289523,-22.7799
-301,-552,1.39453,18.4995,0,0,0,0,0,0,0,-1,923,1576,1.3945,-18.4995
-294,-552,0.842163,13.7863,0,0,0,0,0,0,0,-1,930,1576,0.842149,-13.7863
-287,-552,-0.663757,13.3474,0,0,0,0,0,0,0,-1,937,1576,-0.663744,-13.3474
-280,-552,-5.47241,8.96765,0,0,0,0,0,0,0,-1,944,1576,-5.47239,-8.96766
-273,-552,1.64587,10.6685,0,0,0,0,0,0,0,-1,951,1576,1.6459,-10.6685
-266,-552,-1.32678,8.05688,0,0,0,0,0,0,0,-1,958,1576,-1.32677,-8.05683
-259,-552,-5.54321,8.31213,0,0,0,0,0,0,0,-1,965,1576,-5.54324,-8.31214
-252,-552,-1.93445,7.81543,0,0,0,0,0,0,0,-1,972,1576,-1.93445,-7.81546
-245,-552,-2.53613,6.92212,0,0,0,0,0,0,0,-1,979,1576,-2.53614,-6.92216
-238,-552,-6.5365,2.81885,0,0,0,0,0,0,0,-1,986,1576,-6.53649,-2.8188
-231,-552,-4.32239,4.34583,0,0,0,0,0,0,0,-1,993,1576,-4.32239,-4.34587
-224,-552,0,0,0,0,0,0,0,0,0,-1,1000,1576,0,0
-217,-552,0,0,0,0,0,0,0,0,0,-1,1007,1576,0,0
-210,-552,0,0,0,0,0,0,0,0,0,-1,1014,1576,0,0
-203,-552,0,0,0,0,0,0,0,0,0,-1,1021,1576,0,0
-196,-552,0,0,0,0,0,0,0,0,0,-1,1028,1576,0,0
-189,-552,0,0,0,0,0,0,0,0,0,-1,1035,1576,0,0
-182,-552,0,0,0,0,0,0,0,0,0,-1,1042,1576,0,0
-175,-552,0,0,0,0,0,0,0,0,0,-1,1049,1576,0,0
-168,-552,0,0,0,0,0,0,0,0,0,-1,1056,1576,0,0
-161,-552,0,0,0,0,0,0,0,0,0,-1,1063,1576,0,0
-154,-552,0,0,0,0,0,0,0,0,0,-1,1070,1576,0,0
-147,-552,0,0,0,0,0,0,0,0,0,-1,1077,1576,0,0
-140,-552,0,0,0,0,0,0,0,0,0,-1,1084,1576,0,0
-133,-552,0,0,0,0,0,0,0,0,0,-1,1091,1576,0,0
-126,-552,0,0,0,0,0,0,0,0,0,-1,1098,1576,0,0
-119,-552,0,0,0,0,0,0,0,0,0,-1,1105,1576,0,0
-112,-552,0,0,0,0,0,0,0,0,0,-1,1112,1576,0,0
-105,-552,0,0,0,0,0,0,0,0,0,-1,1119,1576,0,0
-98,-552,0,0,0,0,0,0,0,0,0,-1,1126,1576,0,0
-91,-552,0,0,0,0,0,0,0,0,0,-1,1133,1576,0,0
-84,-552,0,0,0,0,0,0,0,0,0,-1,1140,1576,0,0
-77,-552,0,0,0,0,0,0,0,0,0,-1,1147,1576,0,0
-70,-552,0,0,0,0,0,0,0,0,0,-1,1154,1576,0,0
-63,-552,0,0,0,0,0,0,0,0,0,-1,1161,1576,0,0
-56,-552,0,0,0,0,0,0,0,0,0,-1,1168,1576,0,0
-49,-552,0,0,0,0,0,0,0,0,0,-1,1175,1576,0,0
-42,-552,0,0,0,0,0,0,0,0,0,-1,1182,1576,0,0
-35,-552,0,0,0,0,0,0,0,0,0,-1,1189,1576,0,0
-28,-552,0,0,0,0,0,0,0,0,0,-1,1196,1576,0,0
-21,-552,0,0,0,0,0,0,0,0,0,-1,1203,1576,0,0
-14,-552,0,0,0,0,0,0,0,0,0,-1,1210,1576,0,0
-7,-552,0,0,0,0,0,0,0,0,0,-1,1217,1576,0,0
0,-552,0,0,0,0,0,0,0,0,0,-1,1224,1576,0,0
7,-552,0,0,0,0,0,0,0,0,0,-1,1231,1576,0,0
14,-552,0,0,0,0,0,0,0,0,0,-1,1238,1576,0,0
21,-552,0,0,0,0,0,0,0,0,0,-1,1245,1576,0,0
28,-552,0,0,0,0,0,0,0,0,0,-1,1252,1576,0,0
35,-552,0,0,0,0,0,0,0,0,0,-1,1259,1576,0,0
42,-552,0,0,0,0,0,0,0,0,0,-1,1266,1576,0,0
49,-552,0,0,0,0,0,0,0,0,0,-1,1273,1576,0,0
56,-552,0,0,0,0,0,0,0,0,0,-1,1280,1576,0,0
63,-552,0,0,0,0,0,0,0,0,0,-1,1287,1576,0,0
70,-552,0,0,0,0,0,0,0,0,0,-1,1294,1576,0,0
77,-552,0,0,0,0,0,0,0,0,0,-1,1301,1576,0,0
84,-552,0,0,0,0,0,0,0,0,0,-1,1308,1576,0,0
91,-552,0,0,0,0,0,0,0,0,0,-1,1315,1576,0,0
98,-552,0,0,0,0,0,0,0,0,0,-1,1322,1576,0,0
105,-552,0,0,0,0,0,0,0,0,0,-1,1329,1576,0,0
112,-552,0,0,0,0,0,0,0,0,0,-1,1336,1576,0,0
119,-552,0,0,0,0,0,0,0,0,0,-1,1343,1576,0,0
126,-552,0,0,0,0,0,0,0,0,0,-1,1350,1576,0,0
133,-552,0,0,0,0,0,0,0,0,0,-1,1357,1576,0,0
140,-552,0,0,0,0,0,0,0,0,0,-1,1364,1576,0,0
147,-552,0,0,0,0,0,0,0,0,0,-1,1371,1576,0,0
154,-552,0,0,0,0,0,0,0,0,0,-1,1378,1576,0,0
161,-552,0,0,0,0,0,0,0,0,0,-1,1385,1576,0,0
168,-552,0,0,0,0,0,0,0,0,0,-1,1392,1576,0,0
175,-552,0,0,0,0,0,0,0,0,0,-1,1399,1576,0,0
182,-552,0,0,0,0,0,0,0,0,0,-1,1406,1576,0,0
189,-552,0,0,0,0,0,0,0,0,0,-1,1413,1576,0,0
196,-552,0,0,0,0,0,0,0,0,0,-1,1420,1576,0,0
203,-552,0,0,0,0,0,0,0,0,0,-1,1427,1576,0,0
210,-552,0,0,0,0,0,0,0,0,0,-1,1434,1576,0,0
217,-552,0,0,0,0,0,0,0,0,0,-1,1441,1576,0,0
224,-552,0,0,0,0,0,0,0,0,0,-1,1448,1576,0,0
231,-552,0,0,0,0,0,0,0,0,0,-1,1455,1576,0,0
238,-552,0,0,0,0,0,0,0,0,0,-1,1462,1576,0,0
245,-552,0,0,0,0,0,0,0,0,0,-1,1469,1576,0,0
252,-552,0,0,0,0,0,0,0,0,0,-1,1476,1576,0,0
259,-552,0,0,0,0,0,0,0,0,0,-1,1483,1576,0,0
266,-552,0,0,0,0,0,0,0,0,0,-1,1490,1576,0,0
273,-552,0,0,0,0,0,0,0,0,0,-1,1497,1576,0,0
280,-552,0,0,0,0,0,0,0,0,0,-1,1504,1576,0,0
287,-552,0,0,0,0,0,0,0,0,0,-1,1511,1576,0,0
294,-552,0,0,0,0,0,0,0,0,0,-1,1518,1576,0,0
301,-552,0,0,0,0,0,0,0,0,0,-1,1525,1576,0,0
308,-552,0,0,0,0,0,0,0,0,0,-1,1532,1576,0,0
315,-552,0,0,0,0,0,0,0,0,0,-1,1539,1576,0,0
322,-552,0,0,0,0,0,0,0,0,0,-1,1546,1576,0,0
329,-552,0,0,0,0,0,0,0,0,0,-1,1553,1576,0,0
336,-552,0,0,0,0,0,0,0,0,0,-1,1560,1576,0,0
343,-552,0,0,0,0,0,0,0,0,0,-1,1567,1576,0,0
350,-552,4.97876,4.09888,0,0,0,0,0,0,0,-1,1574,1576,4.97875,-4.09883
357,-552,5.18469,4.10706,0,0,0,0,0,0,0,-1,1581,1576,5.1847,-4.10702
364,-552,5.80872,5.07031,0,0,0,0,0,0,0,-1,1588,1576,5.80874,-5.07037
371,-552,7.10657,5.64783,0,0,0,0,0,0,0,-1,1595,1576,7.10651,-5.64786
378,-552,6.44446,4.91492,0,0,0,0,0,0,0,-1,1602,1576,6.44448,-4.91496
385,-552,12.8276,3.16504,0,0,0,0,0,0,0,-1,1609,1576,12.8276,-3.16503
392,-552,12.1301,4.3363,0,0,0,0,0,0,0,-1,1616,1576,12.1302,-4.33631
399,-552,11.3486,5.6012,0,0,0,0,0,0,0,-1,1623,1576,11.3486,-5.60115
406,-552,10.7863,6.42542,0,0,0,0,0,0,0,-1,1630,1576,10.7863,-6.42536
413,-552,8.39307,10.365,0,0,0,0,0,0,0,-1,1637,1576,8.3931,-10.365
420,-552,10.2306,12.7225,0,0,0,0,0,0,0,-1,1644,1576,10.2305,-12.7226
427,-552,9.73267,14.783,0,0,0,0,0,0,0,-1,1651,1576,9.73269,-14.783
434,-552,12.0377,20.1364,0,0,0,0,0,0,0,-1,1658,1576,12.0377,-20.1364
441,-552,12.4963,21.5277,0,0,0,0,0,0,0,-1,1665,1576,12.4964,-21.5277
448,-552,12.9141,21.5482,0,0,0,0,0,0,0,-1,1672,1576,12.9141,-21.5482
455,-552,13.3318,21.5687,0,0,0,0,0,0,0,-1,1679,1576,13.3317,-21.5687
462,-552,12.745,20.5947,0,0,0,0,0,0,0,-1,1686,1576,12.745,-20.5947
469,-552,13.153,21.443,0,0,0,0,0,0,0,-1,1693,1576,13.153,-21.443
476,-552,13.4393,20.661,0.00479575,0.00783719,-0.00408299,0.0106735,0.00195947,-0.963666,0.00656076,0.0372797,1700,1576,13.4394,-20.661
483,-552,13.5658,20.1672,0.00482871,0.00614708,-0.00366642,0.0092131,0.00176269,-0.874342,0.00564697,0.0241277,1707,1576,13.5658,-20.1673
490,-552,13.5382,19.8503,0.0043102,0.00480011,-0.00299473,0.00755989,0.00155043,-0.826205,0.00461084,0.0150501,1714,1576,13.5382,-19.8504
497,-552,13.618,19.5155,0.00360564,0.00367351,-0.00238952,0.00602934,0.00124981,-0.792499,0.0036745,0.0223516,1721,1576,13.618,-19.5155
504,-552,13.5879,19.1642,0.00289847,0.0027348,-0.00187478,0.00469321,0.000940065,-0.763587,0.00286728,0.0237726,1728,1576,13.5879,-19.1642
511,-552,13.5385,18.7585,0.0021005,0.00177037,-0.00123009,0.00317655,0.00069432,-0.718704,0.00192838,0.0175008,1735,1576,13.5384,-18.7585
518,-552,13.5374,18.3694,0.00119093,0.000800586,-0.000489344,0.00152259,0.000468929,-0.595642,0.000900416,0.0154081,1742,1576,13.5374,-18.3694
525,-552,13.5214,18.0018,0.00019489,-0.000109877,0.000359292,0.000432778,-0.000347765,0.584835,0.000451536,0.0154055,1749,1576,13.5214,-18.0018
532,-552,13.5045,17.6521,-0.000784115,-0.000928852,0.00125027,0.000395878,-0.00210885,0.756489,0.00155475,0.0150834,1756,1576,13.5046,-17.6521
539,-552,13.4871,17.295,-0.001643,-0.00179131,0.00217097,0.000455082,-0.00388939,0.768327,0.00275717,0.0176564,1763,1576,13.487,-17.2951
546,-552,13.4697,16.9302,-0.00258044,-0.0027812,0.00326471,0.000585428,-0.00594707,0.770029,0.00417356,0.0217128,1770,1576,13.4697,-16.9302
553,-552,13.4952,16.5087,-0.00348049,-0.00380824,0.00444213,0.000800786,-0.00808952,0.766961,0.00567879,0.0254223,1777,1576,13.4953,-16.5086
560,-552,13.4745,16.2238,-0.00426636,-0.00495479,0.00563892,0.00103884,-0.01026,0.754915,0.00721126,0.0457593,1784,1576,13.4745,-16.2237
567,-552,13.4861,15.6227,0,0,0,0,0,0,0,-1,1791,1576,13.486,-15.6226
574,-552,12.8835,14.8463,0,0,0,0,0,0,0,-1,1798,1576,12.8836,-14.8463
581,-552,9.74841,9.98645,0,0,0,0,0,0,0,-1,1805,1576,9.74847,-9.9864
588,-552,10.5619,9.34924,0,0,0,0,0,0,0,-1,1812,1576,10.5619,-9.34921
595,-552,5.36194,6.62744,0,0,0,0,0,0,0,-1,1819,1576,5.36193,-6.62742
602,-552,10.6863,4.31616,0,0,0,0,0,0,0,-1,1826,1576,10.6862,-4.31619
609,-552,12.146,3.18286,0,0,0,0,0,0,0,-1,1833,1576,12.1459,-3.18281
616,-552,13.8762,2.08167,0,0,0,0,0,0,0,-1,1840,1576,13.8763,-2.08167
623,-552,0,0,0,0,0,0,0,0,0,-1,1847,1576,0,0
630,-552,0,0,0,0,0,0,0,0,0,-1,1854,1576,0,0
637,-552,0,0,0,0,0,0,0,0,0,-1,1861,1576,0,0
644,-552,0,0,0,0,0,0,0,0,0,-1,1868,1576,0,0
651,-552,0,0,0,0,0,0,0,0,0,-1,1875,1576,0,0
658,-552,0,0,0,0,0,0,0,0,0,-1,1882,1576,0,0
665,-552,0,0,0,0,0,0,0,0,0,-1,1889,1576,0,0
672,-552,0,0,0,0,0,0,0,0,0,-1,1896,1576,0,0
679,-552,0,0,0,0,0,0,0,0,0,-1,1903,1576,0,0
686,-552,0,0,0,0,0,0,0,0,0,-1,1910,1576,0,0
693,-552,0,0,0,0,0,0,0,0,0,-1,1917,1576,0,0
700,-552,0,0,0,0,0,0,0,0,0,-1,1924,1576,0,0
707,-552,0,0,0,0,0,0,0,0,0,-1,1931,1576,0,0
714,-552,0,0,0,0,0,0,0,0,0,-1,1938,1576,0,0
721,-552,0,0,0,0,0,0,0,0,0,-1,1945,1576,0,0
728,-552,0,0,0,0,0,0,0,0,0,-1,1952,1576,0,0
735,-552,0,0,0,0,0,0,0,0,0,-1,1959,1576,0,0
742,-552,0,0,0,0,0,0,0,0,0,-1,1966,1576,0,0
749,-552,0,0,0,0,0,0,0,0,0,-1,1973,1576,0,0
756,-552,0,0,0,0,0,0,0,0,0,-1,1980,1576,0,0
763,-552,0,0,0,0,0,0,0,0,0,-1,1987,1576,0,0
770,-552,0,0,0,0,0,0,0,0,0,-1,1994,1576,0,0
777,-552,0,0,0,0,0,0,0,0,0,-1,2001,1576,0,0
784,-552,0,0,0,0,0,0,0,0,0,-1,2008,1576,0,0
791,-552,0,0,0,0,0,0,0,0,0,-1,2015,1576,0,0
798,-552,0,0,0,0,0,0,0,0,0,-1,2022,1576,0,0
805,-552,0,0,0,0,0,0,0,0,0,-1,2029,1576,0,0
812,-552,0,0,0,0,0,0,0,0,0,-1,2036,1576,0,0
-700,-559,0,0,0,0,0,0,0,0,0,-1,524,1583,0,0
-693,-559,0,0,0,0,0,0,0,0,0,-1,531,1583,0,0
-686,-559,0,0,0,0,0,0,0,0,0,-1,538,1583,0,0
-679,-559,0,0,0,0,0,0,0,0,0,-1,545,1583,0,0
-672,-559,0,0,0,0,0,0,0,0,0,-1,552,1583,0,0
-665,-559,0,0,0,0,0,0,0,0,0,-1,559,1583,0,0
-658,-559,0,0,0,0,0,0,0,0,0,-1,566,1583,0,0
-651,-559,0,0,0,0,0,0,0,0,0,-1,573,1583,0,0
-644,-559,0,0,0,0,0,0,0,0,0,-1,580,1583,0,0
-637,-559,0,0,0,0,0,0,0,0,0,-1,587,1583,0,0
-630,-559,0,0,0,0,0,0,0,0,0,-1,594,1583,0,0
-623,-559,0,0,0,0,0,0,0,0,0,-1,601,1583,0,0
-616,-559,0,0,0,0,0,0,0,0,0,-1,608,1583,0,0
-609,-559,0,0,0,0,0,0,0,0,0,-1,615,1583,0,0
-602,-559,0,0,0,0,0,0,0,0,0,-1,622,1583,0,0
-595,-559,0,0,0,0,0,0,0,0,0,-1,629,1583,0,0
-588,-559,0,0,0,0,0,0,0,0,0,-1,636,1583,0,0
-581,-559,0,0,0,0,0,0,0,0,0,-1,643,1583,0,0
-574,-559,0,0,0,0,0,0,0,0,0,-1,650,1583,0,0
-567,-559,0,0,0,0,0,0,0,0,0,-1,657,1583,0,0
-560,-559,0,0,0,0,0,0,0,0,0,-1,664,1583,0,0
-553,-559,0,0,0,0,0,0,0,0,0,-1,671,1583,0,0
-546,-559,0,0,0,0,0,0,0,0,0,-1,678,1583,0,0
-539,-559,0,0,0,0,0,0,0,0,0,-1,685,1583,0,0
-532,-559,0,0,0,0,0,0,0,0,0,-1,692,1583,0,0
-525,-559,0,0,0,0,0,0,0,0,0,-1,699,1583,0,0
-518,-559,0,0,0,0,0,0,0,0,0,-1,706,1583,0,0
-511,-559,0,0,0,0,0,0,0,0,0,-1,713,1583,0,0
-504,-559,0,0,0,0,0,0,0,0,0,-1,720,1583,0,0
-497,-559,0,0,0,0,0,0,0,0,0,-1,727,1583,0,0
-490,-559,-5.49835,4.47424,0,0,0,0,0,0,0,-1,734,1583,-5.49833,-4.4743
-483,-559,-5.24078,4.74561,0,0,0,0,0,0,0,-1,741,1583,-5.24079,-4.74563
-476,-559,-4.98022,4.99316,0,0,0,0,0,0,0,-1,748,1583,-4.98024,-4.99321
-469,-559,-4.6424,5.38062,0,0,0,0,0,0,0,-1,755,1583,-4.64237,-5.38058
-462,-559,-0.161865,6.49438,0,0,0,0,0,0,0,-1,762,1583,-0.161835,-6.49444
-455,-559,1.08826,7.02527,0,0,0,0,0,0,0,-1,769,1583,1.08823,-7.02529
-448,-559,-0.224609,13.3629,0,0,0,0,0,0,0,-1,776,1583,-0.224616,-13.3629
-441,-559,0.856506,14.0414,0,0,0,0,0,0,0,-1,783,1583,0.856518,-14.0414
-434,-559,0.540161,14.4192,-0.00261399,0.00167671,0.000558972,0.00174833,-0.00268561,1.44335,0.00257893,0.0431418,790,1583,0.540166,-14.4192
-427,-559,0.271606,14.9159,-0.00317725,0.00118102,6.12037e-05,0.00118188,-0.00317811,1.55676,0.00260371,0.0313585,797,1583,0.271577,-14.9159
-420,-559,0.113098,15.2004,-0.00326427,0.00115614,-0.00014928,0.00116118,-0.00326931,-1.53708,0.00265271,0.0358137,804,1583,0.113087,-15.2004
-413,-559,0.148315,15.6276,-0.0031269,0.00135235,-0.000196931,0.00136099,-0.00313554,-1.52694,0.00266261,0.0155965,811,1583,0.148312,-15.6275
-406,-559,0.135925,16.0479,-0.00263828,0.00158,1.77587e-05,0.00158007,-0.00263835,1.56659,0.00246092,0.010734,818,1583,0.135933,-16.0479
-399,-559,0.126404,16.4519,-0.00196364,0.00183213,0.000307369,0.00185686,-0.00198836,1.49052,0.00222047,0.0130854,825,1583,0.126415,-16.4519
-392,-559,0.108032,16.8416,-0.00149515,0.00198565,0.000454079,0.00204391,-0.00155341,1.44319,0.00208334,0.0156814,832,1583,0.108008,-16.8416
-385,-559,0.0795898,17.2377,-0.000856287,0.00251233,0.000788676,0.00268783,-0.00103179,1.35183,0.00221734,0.0161237,839,1583,0.0795936,-17.2377
-378,-559,0.0720215,17.6029,-0.000122953,0.00303902,0.00112217,0.00339679,-0.000480725,1.26216,0.0024406,0.0147536,846,1583,0.0720204,-17.603
-371,-559,0.0648804,18.0103,0.00041393,0.00378192,0.00134829,0.00425517,-5.9328e-05,1.23323,0.00285676,0.0216691,853,1583,0.0648694,-18.0102
-364,-559,0.088623,18.4147,0.000724827,0.00469068,0.00153599,0.005216,0.000199514,1.24126,0.00341277,0.0195417,860,1583,0.0886209,-18.4146
-357,-559,0.0828247,18.8032,0.000926643,0.00565663,0.00165402,0.00617763,0.000405639,1.26564,0.00399009,0.0119558,867,1583,0.0828294,-18.8032
-350,-559,0.069458,19.1597,0.00105582,0.00674728,0.00176808,0.00725182,0.000551287,1.29283,0.00466166,0.0100031,874,1583,0.0694823,-19.1596
-343,-559,0.0635986,19.5549,0.00108811,0.00802712,0.00186641,0.00849728,0.000617948,1.32403,0.00547052,0.0117732,881,1583,0.0635851,-19.5549
-336,-559,0.0327148,19.9105,0.000952799,0.00942901,0.00193242,0.00984878,0.000533029,1.3569,0.00639559,0.0175313,888,1583,0.0327326,-19.9105
-329,-559,0.10144,20.4501,0.000727664,0.0108087,0.0020453,0.0112079,0.000328508,1.37806,0.00736487,0.0293899,895,1583,0.10146,-20.4501
-322,-559,0.272339,21.1265,0,0,0,0,0,0,0,-1,902,1583,0.27233,-21.1265
-315,-559,0.266052,20.9811,0,0,0,0,0,0,0,-1,909,1583,0.26607,-20.9811
-308,-559,0.0523682,22.0435,0,0,0,0,0,0,0,-1,916,1583,0.0523501,-22.0434
-301,-559,0.257202,23.5885,0,0,0,0,0,0,0,-1,923,1583,0.25721,-23.5885
-294,-559,0.945129,18.5165,0,0,0,0,0,0,0,-1,930,1583,0.945117,-18.5165
-287,-559,-0.11792,15.4912,0,0,0,0,0,0,0,-1,937,1583,-0.117939,-15.4912
-280,-559,0.191467,13.5093,0,0,0,0,0,0,0,-1,944,1583,0.191441,-13.5093
-273,-559,2.12836,10.3059,0,0,0,0,0,0,0,-1,951,1583,2.12839,-10.3059
-266,-559,-0.597046,6.68933,0,0,0,0,0,0,0,-1,958,1583,-0.597031,-6.68937
-259,-559,-7.00311,8.62756,0,0,0,0,0,0,0,-1,965,1583,-7.00312,-8.6275
-252,-559,-9.4483,2.87805,0,0,0,0,0,0,0,-1,972,1583,-9.44829,-2.87805
-245,-559,-4.80804,7.1803,0,0,0,0,0,0,0,-1,979,1583,-4.80804,-7.18027
-238,-559,-8.45764,2.54858,0,0,0,0,0,0,0,-1,986,1583,-8.45763,-2.54862
-231,-559,-5.86914,4.34021,0,0,0,0,0,0,0,-1,993,1583,-5.86914,-4.34019
-224,-559,-3.30505,6.22864,0,0,0,0,0,0,0,-1,1000,1583,-3.30505,-6.22859
-217,-559,0,0,0,0,0,0,0,0,0,-1,1007,1583,0,0
-210,-559,0,0,0,0,0,0,0,0,0,-1,1014,1583,0,0
-203,-559,0,0,0,0,0,0,0,0,0,-1,1021,1583,0,0
-196,-559,0,0,0,0,0,0,0,0,0,-1,1028,1583,0,0
-189,-559,0,0,0,0,0,0,0,0,0,-1,1035,1583,0,0
-182,-559,0,0,0,0,0,0,0,0,0,-1,1042,1583,0,0
-175,-559,0,0,0,0,0,0,0,0,0,-1,1049,1583,0,0
-168,-559,0,0,0,0,0,0,0,0,0,-1,1056,1583,0,0
-161,-559,0,0,0,0,0,0,0,0,0,-1,1063,1583,0,0
-154,-559,0,0,0,0,0,0,0,0,0,-1,1070,1583,0,0
-147,-559,0,0,0,0,0,0,0,0,0,-1,1077,1583,0,0
-140,-559,0,0,0,0,0,0,0,0,0,-1,1084,1583,0,0
-133,-559,0,0,0,0,0,0,0,0,0,-1,1091,1583,0,0
-126,-559,0,0,0,0,0,0,0,0,0,-1,1098,1583,0,0
-119,-559,0,0,0,0,0,0,0,0,0,-1,1105,1583,0,0
-112,-559,0,0,0,0,0,0,0,0,0,-1,1112,1583,0,0
-105,-559,0,0,0,0,0,0,0,0,0,-1,1119,1583,0,0
-98,-559,0,0,0,0,0,0,0,0,0,-1,1126,1583,0,0
-91,-559,0,0,0,0,0,0,0,0,0,-1,1133,1583,0,0
-84,-559,0,0,0,0,0,0,0,0,0,-1,1140,1583,0,0
-77,-559,0,0,0,0,0,0,0,0,0,-1,1147,1583,0,0
-70,-559,0,0,0,0,0,0,0,0,0,-1,1154,1583,0,0
-63,-559,0,0,0,0,0,0,0,0,0,-1,1161,1583,0,0
-56,-559,0,0,0,0,0,0,0,0,0,-1,1168,1583,0,0
-49,-559,0,0,0,0,0,0,0,0,0,-1,1175,1583,0,0
-42,-559,0,0,0,0,0,0,0,0,0,-1,1182,1583,0,0
-35,-559,0,0,0,0,0,0,0,0,0,-1,1189,1583,0,0
-28,-559,0,0,0,0,0,0,0,0,0,-1,1196,1583,0,0
-21,-559,0,0,0,0,0,0,0,0,0,-1,1203,1583,0,0
-14,-559,0,0,0,0,0,0,0,0,0,-1,1210,1583,0,0
-7,-559,0,0,0,0,0,0,0,0,0,-1,1217,1583,0,0
0,-559,0,0,0,0,0,0,0,0,0,-1,1224,1583,0,0
7,-559,0,0,0,0,0,0,0,0,0,-1,1231,1583,0,0
14,-559,0,0,0,0,0,0,0,0,0,-1,1238,1583,0,0
21,-559,0,0,0,0,0,0,0,0,0,-1,1245,1583,0,0
28,-559,0,0,0,0,0,0,0,0,0,-1,1252,1583,0,0
35,-559,0,0,0,0,0,0,0,0,0,-1,1259,1583,0,0
42,-559,0,0,0,0,0,0,0,0,0,-1,1266,1583,0,0
49,-559,0,0,0,0,0,0,0,0,0,-1,1273,1583,0,0
56,-559,0,0,0,0,0,0,0,0,0,-1,1280,1583,0,0
63,-559,0,0,0,0,0,0,0,0,0,-1,1287,1583,0,0
70,-559,0,0,0,0,0,0,0,0,0,-1,1294,1583,0,0
77,-559,0,0,0,0,0,0,0,0,0,-1,1301,1583,0,0
84,-559,0,0,0,0,0,0,0,0,0,-1,1308,1583,0,0
91,-559,0,0,0,0,0,0,0,0,0,-1,1315,1583,0,0
98,-559,0,0,0,0,0,0,0,0,0,-1,1322,1583,0,0
105,-559,0,0,0,0,0,0,0,0,0,-1,1329,1583,0,0
112,-559,0,0,0,0,0,0,0,0,0,-1,1336,1583,0,0
119,-559,0,0,0,0,0,0,0,0,0,-1,1343,1583,0,0
126,-559,0,0,0,0,0,0,0,0,0,-1,1350,1583,0,0
133,-559,0,0,0,0,0,0,0,0,0,-1,1357,1583,0,0
140,-559,0,0,0,0,0,0,0,0,0,-1,1364,1583,0,0
147,-559,0,0,0,0,0,0,0,0,0,-1,1371,1583,0,0
154,-559,0,0,0,0,0,0,0,0,0,-1,1378,1583,0,0
161,-559,0,0,0,0,0,0,0,0,0,-1,1385,1583,0,0
168,-559,0,0,0,0,0,0,0,0,0,-1,1392,1583,0,0
175,-559,0,0,0,0,0,0,0,0,0,-1,1399,1583,0,0
182,-559,0,0,0,0,0,0,0,0,0,-1,1406,1583,0,0
189,-559,0,0,0,0,0,0,0,0,0,-1,1413,1583,0,0
196,-559,0,0,0,0,0,0,0,0,0,-1,1420,1583,0,0
203,-559,0,0,0,0,0,0,0,0,0,-1,1427,1583,0,0
210,-559,0,0,0,0,0,0,0,0,0,-1,1434,1583,0,0
217,-559,0,0,0,0,0,0,0,0,0,-1,1441,1583,0,0
224,-559,0,0,0,0,0,0,0,0,0,-1,1448,1583,0,0
231,-559,0,0,0,0,0,0,0,0,0,-1,1455,1583,0,0
238,-559,0,0,0,0,0,0,0,0,0,-1,1462,1583,0,0
245,-559,0,0,0,0,0,0,0,0,0,-1,1469,1583,0,0
252,-559,0,0,0,0,0,0,0,0,0,-1,1476,1583,0,0
259,-559,0,0,0,0,0,0,0,0,0,-1,1483,1583,0,0
266,-559,0,0,0,0,0,0,0,0,0,-1,1490,1583,0,0
273,-559,0,0,0,0,0,0,0,0,0,-1,1497,1583,0,0
280,-559,0,0,0,0,0,0,0,0,0,-1,1504,1583,0,0
287,-559,0,0,0,0,0,0,0,0,0,-1,1511,1583,0,0
294,-559,0,0,0,0,0,0,0,0,0,-1,1518,1583,0,0
301,-559,0,0,0,0,0,0,0,0,0,-1,1525,1583,0,0
308,-559,0,0,0,0,0,0,0,0,0,-1,1532,1583,0,0
315,-559,0,0,0,0,0,0,0,0,0,-1,1539,1583,0,0
322,-559,0,0,0,0,0,0,0,0,0,-1,1546,1583,0,0
329,-559,0,0,0,0,0,0,0,0,0,-1,1553,1583,0,0
336,-559,5.97668,3.09827,0,0,0,0,0,0,0,-1,1560,1583,5.97667,-3.09824
343,-559,5.44824,2.88696,0,0,0,0,0,0,0,-1,1567,1583,5.44819,-2.88693
350,-559,4.69775,3.27051,0,0,0,0,0,0,0,-1,1574,1583,4.69771,-3.27048
357,-559,3.88025,3.60999,0,0,0,0,0,0,0,-1,1581,1583,3.88027,-3.60998
364,-559,5.00928,5.32605,0,0,0,0,0,0,0,-1,1588,1583,5.00928,-5.32607
371,-559,1.84436,2.52441,0,0,0,0,0,0,0,-1,1595,1583,1.84441,-2.52447
378,-559,6.34753,1.53137,0,0,0,0,0,0,0,-1,1602,1583,6.34752,-1.53139
385,-559,6.95911,1.48181,0,0,0,0,0,0,0,-1,1609,1583,6.95916,-1.48175
392,-559,11.6949,4.77734,0,0,0,0,0,0,0,-1,1616,1583,11.6949,-4.77731
399,-559,11.1104,5.56909,0,0,0,0,0,0,0,-1,1623,1583,11.1103,-5.56905
406,-559,10.3385,6.48657,0,0,0,0,0,0,0,-1,1630,1583,10.3385,-6.48661
413,-559,9.76147,6.97571,0,0,0,0,0,0,0,-1,1637,1583,9.76143,-6.97574
420,-559,7.77124,10.5851,0,0,0,0,0,0,0,-1,1644,1583,7.77128,-10.585
427,-559,10.1022,12.5565,0,0,0,0,0,0,0,-1,1651,1583,10.1021,-12.5565
434,-559,9.62769,14.6309,0,0,0,0,0,0,0,-1,1658,1583,9.62771,-14.6309
441,-559,12.6149,21.3678,0,0,0,0,0,0,0,-1,1665,1583,12.6149,-21.3678
448,-559,13.0046,21.3988,0,0,0,0,0,0,0,-1,1672,1583,13.0046,-21.3988
455,-559,13.144,21.6616,0,0,0,0,0,0,0,-1,1679,1583,13.144,-21.6617
462,-559,12.8488,21.7275,0,0,0,0,0,0,0,-1,1686,1583,12.8488,-21.7275
469,-559,12.985,21.145,0.00376187,0.00822952,-0.00364647,0.010272,0.00171939,-1.06021,0.0063529,0.0336829,1693,1583,12.985,-21.1451
476,-559,13.1112,20.6377,0.00386217,0.00666041,-0.00332228,0.00886615,0.00165642,-0.984693,0.00544329,0.0153933,1700,1583,13.1113,-20.6377
483,-559,13.1796,20.1826,0.00390306,0.00521949,-0.00301912,0.00765132,0.00147123,-0.892726,0.00468806,0.0126869,1707,1583,13.1796,-20.1826
490,-559,13.1649,19.8337,0.00344926,0.00401178,-0.00245048,0.00619709,0.00126395,-0.842537,0.00378116,0.0160017,1714,1583,13.1649,-19.8337
497,-559,13.1992,19.5195,0.00276777,0.00298142,-0.00191563,0.0047932,0.000955988,-0.813251,0.00292927,0.0193078,1721,1583,13.1992,-19.5195
504,-559,13.184,19.1556,0.00199383,0.00206228,-0.0013467,0.00337519,0.00068092,-0.798103,0.00206099,0.0235393,1728,1583,13.1839,-19.1557
511,-559,13.1671,18.7604,0.00114716,0.00106801,-0.000638362,0.00174718,0.000468,-0.754439,0.00104434,0.0203676,1735,1583,13.1672,-18.7603
518,-559,13.1882,18.3848,0.000196531,8.96818e-05,0.000141597,0.000294446,-8.23368e-06,0.605005,0.000199099,0.013643,1742,1583,13.1883,-18.3848
525,-559,13.1599,18.0203,-0.000859677,-0.000850959,0.0010599,0.000204595,-0.00191523,0.787454,0.0013502,0.0124848,1749,1583,13.1599,-18.0202
532,-559,13.1342,17.665,-0.00193714,-0.00175666,0.0020781,0.000233157,-0.00392696,0.807097,0.00269905,0.0137256,1756,1583,13.1341,-17.665
539,-559,13.1173,17.2977,-0.00299813,-0.00274773,0.00321847,0.000347971,-0.00609384,0.804839,0.00418338,0.0183684,1763,1583,13.1173,-17.2977
546,-559,13.0945,16.9172,-0.00421926,-0.00395545,0.00464553,0.000560047,-0.00873476,0.799592,0.00601855,0.0170355,1770,1583,13.0944,-16.9173
553,-559,13.1793,16.4922,-0.00544545,-0.00523751,0.00625053,0.000909917,-0.0115929,0.793714,0.00804905,0.0221772,1777,1583,13.1793,-16.4922
560,-559,13.1713,16.3044,-0.0066527,-0.00680652,0.00798614,0.0012569,-0.0147161,0.780583,0.0102554,0.0450467,1784,1583,13.1713,-16.3045
567,-559,13.0775,15.947,0,0,0,0,0,0,0,-1,1791,1583,13.0776,-15.947
574,-559,10.5109,10.7317,0,0,0,0,0,0,0,-1,1798,1583,10.5108,-10.7317
581,-559,5.97095,5.96179,0,0,0,0,0,0,0,-1,1805,1583,5.97093,-5.96181
588,-559,5.79102,5.89954,0,0,0,0,0,0,0,-1,1812,1583,5.79098,-5.89949
595,-559,5.79089,6.24231,0,0,0,0,0,0,0,-1,1819,1583,5.7909,-6.24227
602,-559,12.478,2.35669,0,0,0,0,0,0,0,-1,1826,1583,12.4781,-2.35675
609,-559,14.0479,1.22681,0,0,0,0,0,0,0,-1,1833,1583,14.0479,-1.22681
616,-559,0,0,0,0,0,0,0,0,0,-1,1840,1583,0,0
623,-559,0,0,0,0,0,0,0,0,0,-1,1847,1583,0,0
630,-559,0,0,0,0,0,0,0,0,0,-1,1854,1583,0,0
637,-559,0,0,0,0,0,0,0,0,0,-1,1861,1583,0,0
644,-559,0,0,0,0,0,0,0,0,0,-1,1868,1583,0,0
651,-559,0,0,0,0,0,0,0,0,0,-1,1875,1583,0,0
658,-559,0,0,0,0,0,0,0,0,0,-1,1882,1583,0,0
665,-559,0,0,0,0,0,0,0,0,0,-1,1889,1583,0,0
672,-559,0,0,0,0,0,0,0,0,0,-1,1896,1583,0,0
679,-559,0,0,0,0,0,0,0,0,0,-1,1903,1583,0,0
686,-559,0,0,0,0,0,0,0,0,0,-1,1910,1583,0,0
693,-559,0,0,0,0,0,0,0,0,0,-1,1917,1583,0,0
700,-559,0,0,0,0,0,0,0,0,0,-1,1924,1583,0,0
707,-559,0,0,0,0,0,0,0,0,0,-1,1931,1583,0,0
714,-559,0,0,0,0,0,0,0,0,0,-1,1938,1583,0,0
721,-559,0,0,0,0,0,0,0,0,0,-1,1945,1583,0,0
728,-559,0,0,0,0,0,0,0,0,0,-1,1952,1583,0,0
735,-559,0,0,0,0,0,0,0,0,0,-1,1959,1583,0,0
742,-559,0,0,0,0,0,0,0,0,0,-1,1966,1583,0,0
749,-559,0,0,0,0,0,0,0,0,0,-1,1973,1583,0,0
756,-559,0,0,0,0,0,0,0,0,0,-1,1980,1583,0,0
763,-559,0,0,0,0,0,0,0,0,0,-1,1987,1583,0,0
770,-559,0,0,0,0,0,0,0,0,0,-1,1994,1583,0,0
777,-559,0,0,0,0,0,0,0,0,0,-1,2001,1583,0,0
784,-559,0,0,0,0,0,0,0,0,0,-1,2008,1583,0,0
791,-559,0,0,0,0,0,0,0,0,0,-1,2015,1583,0,0
798,-559,0,0,0,0,0,0,0,0,0,-1,2022,1583,0,0
805,-559,0,0,0,0,0,0,0,0,0,-1,2029,1583,0,0
812,-559,0,0,0,0,0,0,0,0,0,-1,2036,1583,0,0
-700,-566,0,0,0,0,0,0,0,0,0,-1,524,1590,0,0
-693,-566,0,0,0,0,0,0,0,0,0,-1,531,1590,0,0
-686,-566,0,0,0,0,0,0,0,0,0,-1,538,1590,0,0
-679,-566,0,0,0,0,0,0,0,0,0,-1,545,1590,0,0
-672,-566,0,0,0,0,0,0,0,0,0,-1,552,1590,0,0
-665,-566,0,0,0,0,0,0,0,0,0,-1,559,1590,0,0
-658,-566,0,0,0,0,0,0,0,0,0,-1,566,1590,0,0
-651,-566,0,0,0,0,0,0,0,0,0,-1,573,1590,0,0
-644,-566,0,0,0,0,0,0,0,0,0,-1,580,1590,0,0
-637,-566,0,0,0,0,0,0,0,0,0,-1,587,1590,0,0
-630,-566,0,0,0,0,0,0,0,0,0,-1,594,1590,0,0
-623,-566,0,0,0,0,0,0,0,0,0,-1,601,1590,0,0
-616,-566,0,0,0,0,0,0,0,0,0,-1,608,1590,0,0
-609,-566,0,0,0,0,0,0,0,0,0,-1,615,1590,0,0
-602,-566,0,0,0,0,0,0,0,0,0,-1,622,1590,0,0
-595,-566,0,0,0,0,0,0,0,0,0,-1,629,1590,0,0
-588,-566,0,0,0,0,0,0,0,0,0,-1,636,1590,0,0
-581,-566,0,0,0,0,0,0,0,0,0,-1,643,1590,0,0
-574,-566,0,0,0,0,0,0,0,0,0,-1,650,1590,0,0
-567,-566,0,0,0,0,0,0,0,0,0,-1,657,1590,0,0
-560,-566,0,0,0,0,0,0,0,0,0,-1,664,1590,0,0
-553,-566,0,0,0,0,0,0,0,0,0,-1,671,1590,0,0
-546,-566,0,0,0,0,0,0,0,0,0,-1,678,1590,0,0
-539,-566,0,0,0,0,0,0,0,0,0,-1,685,1590,0,0
-532,-566,0,0,0,0,0,0,0,0,0,-1,692,1590,0,0
-525,-566,0,0,0,0,0,0,0,0,0,-1,699,1590,0,0
-518,-566,0,0,0,0,0,0,0,0,0,-1,706,1590,0,0
-511,-566,0,0,0,0,0,0,0,0,0,-1,713,1590,0,0
-504,-566,0,0,0,0,0,0,0,0,0,-1,720,1590,0,0
-497,-566,0,0,0,0,0,0,0,0,0,-1,727,1590,0,0
-490,-566,0,0,0,0,0,0,0,0,0,-1,734,1590,0,0
-483,-566,-7.17084,2.78613,0,0,0,0,0,0,0,-1,741,1590,-7.17083,-2.78618
-476,-566,-7.13971,2.87183,0,0,0,0,0,0,0,-1,748,1590,-7.13971,-2.87184
-469,-566,-6.43829,3.2998,0,0,0,0,0,0,0,-1,755,1590,-6.43829,-3.2998
-462,-566,-0.459106,3.89343,0,0,0,0,0,0,0,-1,762,1590,-0.459095,-3.89341
-455,-566,0.280212,4.74023,0,0,0,0,0,0,0,-1,769,1590,0.280207,-4.74023
-448,-566,0.436951,5.51306,0,0,0,0,0,0,0,-1,776,1590,0.436971,-5.51301
-441,-566,-0.440735,12.4063,0,0,0,0,0,0,0,-1,783,1590,-0.440753,-12.4062
-434,-566,0.325073,14.1099,0,0,0,0,0,0,0,-1,790,1590,0.325096,-14.1099
-427,-566,0.347351,14.8324,0,0,0,0,0,0,0,-1,797,1590,0.347333,-14.8325
-420,-566,0.414551,15.1608,0,0,0,0,0,0,0,-1,804,1590,0.414527,-15.1608
-413,-566,0.527039,15.6387,-0.00463826,0.00198391,-0.000308946,0.00199829,-0.00465264,-1.52428,0.00394053,0.0244582,811,1590,0.527025,-15.6387
-406,-566,0.534485,16.0566,-0.00418137,0.0018935,-0.00022086,0.00190152,-0.00418938,-1.5345,0.00359833,0.0114547,818,1590,0.534515,-16.0566
-399,-566,0.517761,16.4585,-0.00347936,0.00183644,-3.19578e-05,0.00183663,-0.00347955,-1.56478,0.00311777,0.00966942,825,1590,0.51775,-16.4585
-392,-566,0.499817,16.8397,-0.00293296,0.00169121,7.90269e-06,0.00169122,-0.00293298,1.56909,0.00270168,0.0119085,832,1590,0.499847,-16.8398
-385,-566,0.510925,17.2594,-0.00212727,0.00180135,0.00031288,0.00182611,-0.00215203,1.49182,0.00229935,0.0149772,839,1590,0.510945,-17.2593
-378,-566,0.51001,17.6613,-0.00121921,0.00209772,0.000632495,0.00221423,-0.00133572,1.38862,0.00207038,0.0150589,846,1590,0.510002,-17.6613
-371,-566,0.440247,18.0315,-0.000511411,0.00257212,0.000824368,0.00277867,-0.000717966,1.32529,0.00213245,0.0213988,853,1590,0.440239,-18.0315
-364,-566,0.456116,18.424,-6.62367e-06,0.0031838,0.00100353,0.00347321,-0.000296027,1.29003,0.00242019,0.0217802,860,1590,0.456136,-18.4239
-357,-566,0.457031,18.8021,0.000409565,0.00386559,0.00113262,0.0042037,7.14569e-05,1.2807,0.00277895,0.0176952,867,1590,0.457015,-18.8021
-350,-566,0.454102,19.1807,0.000787147,0.00464726,0.00126249,0.0050235,0.00041091,1.28116,0.00322078,0.020155,874,1590,0.454111,-19.1807
-343,-566,0.454102,19.5137,0.00111245,0.00559173,0.00142104,0.00600451,0.000699668,1.2881,0.00379137,0.0251252,881,1590,0.454109,-19.5137
-336,-566,0.382996,19.9008,0.00133228,0.00661549,0.00156007,0.00704176,0.000906001,1.30407,0.00442355,0.0257004,888,1590,0.382988,-19.9007
-329,-566,0.450134,20.2461,0.0014595,0.00768169,0.0017196,0.0081253,0.00101589,1.31833,0.005112,0.0203722,895,1590,0.450136,-20.2461
-322,-566,0.523071,20.7422,0.00161309,0.00854144,0.00191411,0.00903508,0.00111945,1.3184,0.00568708,0.0270626,902,1590,0.523049,-20.7422
-315,-566,0.796143,21.2086,0,0,0,0,0,0,0,-1,909,1590,0.796144,-21.2086
-308,-566,0.532288,21.673,0,0,0,0,0,0,0,-1,916,1590,0.532271,-21.6729
-301,-566,0.849548,22.2687,0,0,0,0,0,0,0,-1,923,1590,0.849529,-22.2687
-294,-566,0.542358,22.799,0,0,0,0,0,0,0,-1,930,1590,0.542332,-22.7989
-287,-566,1.06854,22.946,0,0,0,0,0,0,0,-1,937,1590,1.06853,-22.946
-280,-566,1.59406,17.8762,0,0,0,0,0,0,0,-1,944,1590,1.59405,-17.8762
-273,-566,0.49762,11.2427,0,0,0,0,0,0,0,-1,951,1590,0.497591,-11.2426
-266,-566,0.392151,6.90295,0,0,0,0,0,0,0,-1,958,1590,0.392151,-6.90294
-259,-566,0.343628,6.47437,0,0,0,0,0,0,0,-1,965,1590,0.34363,-6.47438
-252,-566,-7.68311,1.01343,0,0,0,0,0,0,0,-1,972,1590,-7.68308,-1.01348
-245,-566,-11.1835,1.97522,0,0,0,0,0,0,0,-1,979,1590,-11.1835,-1.97527
-238,-566,-10.4883,2.40491,0,0,0,0,0,0,0,-1,986,1590,-10.4883,-2.40487
-231,-566,-7.41827,4.22803,0,0,0,0,0,0,0,-1,993,1590,-7.41827,-4.22803
-224,-566,-4.67188,6.30859,0,0,0,0,0,0,0,-1,1000,1590,-4.67185,-6.30853
-217,-566,-2.82867,7.52527,0,0,0,0,0,0,0,-1,1007,1590,-2.82869,-7.52531
-210,-566,-1.03436,8.67737,0,0,0,0,0,0,0,-1,1014,1590,-1.03439,-8.67733
-203,-566,0,0,0,0,0,0,0,0,0,-1,1021,1590,0,0
-196,-566,0,0,0,0,0,0,0,0,0,-1,1028,1590,0,0
-189,-566,0,0,0,0,0,0,0,0,0,-1,1035,1590,0,0
-182,-566,0,0,0,0,0,0,0,0,0,-1,1042,1590,0,0
-175,-566,0,0,0,0,0,0,0,0,0,-1,1049,1590,0,0
-168,-566,0,0,0,0,0,0,0,0,0,-1,1056,1590,0,0
-161,-566,0,0,0,0,0,0,0,0,0,-1,1063,1590,0,0
-154,-566,0,0,0,0,0,0,0,0,0,-1,1070,1590,0,0
-147,-566,0,0,0,0,0,0,0,0,0,-1,1077,1590,0,0
-140,-566,0,0,0,0,0,0,0,0,0,-1,1084,1590,0,0
-133,-566,0,0,0,0,0,0,0,0,0,-1,1091,1590,0,0
-126,-566,0,0,0,0,0,0,0,0,0,-1,1098,1590,0,0
-119,-566,0,0,0,0,0,0,0,0,0,-1,1105,1590,0,0
-112,-566,0,0,0,0,0,0,0,0,0,-1,1112,1590,0,0
-105,-566,0,0,0,0,0,0,0,0,0,-1,1119,1590,0,0
-98,-566,0,0,0,0,0,0,0,0,0,-1,1126,1590,0,0
-91,-566,0,0,0,0,0,0,0,0,0,-1,1133,1590,0,0
-84,-566,0,0,0,0,0,0,0,0,0,-1,1140,1590,0,0
-77,-566,0,0,0,0,0,0,0,0,0,-1,1147,1590,0,0
-70,-566,0,0,0,0,0,0,0,0,0,-1,1154,1590,0,0
-63,-566,0,0,0,0,0,0,0,0,0,-1,1161,1590,0,0
-56,-566,0,0,0,0,0,0,0,0,0,-1,1168,1590,0,0
-49,-566,0,0,0,0,0,0,0,0,0,-1,1175,1590,0,0
-42,-566,0,0,0,0,0,0,0,0,0,-1,1182,1590,0,0
-35,-566,0,0,0,0,0,0,0,0,0,-1,1189,1590,0,0
-28,-566,0,0,0,0,0,0,0,0,0,-1,1196,1590,0,0
-21,-566,0,0,0,0,0,0,0,0,0,-1,1203,1590,0,0
-14,-566,0,0,0,0,0,0,0,0,0,-1,1210,1590,0,0
-7,-566,0,0,0,0,0,0,0,0,0,-1,1217,1590,0,0
0,-566,0,0,0,0,0,0,0,0,0,-1,1224,1590,0,0
7,-566,0,0,0,0,0,0,0,0,0,-1,1231,1590,0,0
14,-566,0,0,0,0,0,0,0,0,0,-1,1238,1590,0,0
21,-566,0,0,0,0,0,0,0,0,0,-1,1245,1590,0,0
28,-566,0,0,0,0,0,0,0,0,0,-1,1252,1590,0,0
35,-566,0,0,0,0,0,0,0,0,0,-1,1259,1590,0,0
42,-566,0,0,0,0,0,0,0,0,0,-1,1266,1590,0,0
49,-566,0,0,0,0,0,0,0,0,0,-1,1273,1590,0,0
56,-566,0,0,0,0,0,0,0,0,0,-1,1280,1590,0,0
63,-566,0,0,0,0,0,0,0,0,0,-1,1287,1590,0,0
70,-566,0,0,0,0,0,0,0,0,0,-1,1294,1590,0,0
77,-566,0,0,0,0,0,0,0,0,0,-1,1301,1590,0,0
84,-566,0,0,0,0,0,0,0,0,0,-1,1308,1590,0,0
91,-566,0,0,0,0,0,0,0,0,0,-1,1315,1590,0,0
98,-566,0,0,0,0,0,0,0,0,0,-1,1322,1590,0,0
105,-566,0,0,0,0,0,0,0,0,0,-1,1329,1590,0,0
112,-566,0,0,0,0,0,0,0,0,0,-1,1336,1590,0,0
119,-566,0,0,0,0,0,0,0,0,0,-1,1343,1590,0,0
126,-566,0,0,0,0,0,0,0,0,0,-1,1350,1590,0,0
133,-566,0,0,0,0,0,0,0,0,0,-1,1357,1590,0,0
140,-566,0,0,0,0,0,0,0,0,0,-1,1364,1590,0,0
147,-566,0,0,0,0,0,0,0,0,0,-1,1371,1590,0,0
154,-566,0,0,0,0,0,0,0,0,0,-1,1378,1590,0,0
161,-566,0,0,0,0,0,0,0,0,0,-1,1385,1590,0,0
168,-566,0,0,0,0,0,0,0,0,0,-1,1392,1590,0,0
175,-566,0,0,0,0,0,0,0,0,0,-1,1399,1590,0,0
182,-566,0,0,0,0,0,0,0,0,0,-1,1406,1590,0,0
189,-566,0,0,0,0,0,0,0,0,0,-1,1413,1590,0,0
196,-566,0,0,0,0,0,0,0,0,0,-1,1420,1590,0,0
203,-566,0,0,0,0,0,0,0,0,0,-1,1427,1590,0,0
210,-566,0,0,0,0,0,0,0,0,0,-1,1434,1590,0,0
217,-566,0,0,0,0,0,0,0,0,0,-1,1441,1590,0,0
224,-566,0,0,0,0,0,0,0,0,0,-1,1448,1590,0,0
231,-566,0,0,0,0,0,0,0,0,0,-1,1455,1590,0,0
238,-566,0,0,0,0,0,0,0,0,0,-1,1462,1590,0,0
245,-566,0,0,0,0,0,0,0,0,0,-1,1469,1590,0,0
252,-566,0,0,0,0,0,0,0,0,0,-1,1476,1590,0,0
259,-566,0,0,0,0,0,0,0,0,0,-1,1483,1590,0,0
266,-566,0,0,0,0,0,0,0,0,0,-1,1490,1590,0,0
273,-566,0,0,0,0,0,0,0,0,0,-1,1497,1590,0,0
280,-566,0,0,0,0,0,0,0,0,0,-1,1504,1590,0,0
287,-566,0,0,0,0,0,0,0,0,0,-1,1511,1590,0,0
294,-566,0,0,0,0,0,0,0,0,0,-1,1518,1590,0,0
301,-566,0,0,0,0,0,0,0,0,0,-1,1525,1590,0,0
308,-566,0,0,0,0,0,0,0,0,0,-1,1532,1590,0,0
315,-566,0,0,0,0,0,0,0,0,0,-1,1539,1590,0,0
322,-566,6.07983,4.44873,0,0,0,0,0,0,0,-1,1546,1590,6.07983,-4.44873
329,-566,5.77026,3.47534,0,0,0,0,0,0,0,-1,1553,1590,5.77026,-3.47535
336,-566,5.41138,2.62915,0,0,0,0,0,0,0,-1,1560,1590,5.41138,-2.62909
343,-566,4.81873,1.79089,0,0,0,0,0,0,0,-1,1567,1590,4.81878,-1.79095
350,-566,4.41663,2.44214,0,0,0,0,0,0,0,-1,1574,1590,4.41666,-2.44214
357,-566,6.34058,5.18579,0,0,0,0,0,0,0,-1,1581,1590,6.34059,-5.1858
364,-566,6.06262,4.20251,0,0,0,0,0,0,0,-1,1588,1590,6.06259,-4.20246
371,-566,5.78455,3.21912,0,0,0,0,0,0,0,-1,1595,1590,5.7846,-3.21912
378,-566,5.7439,0.695557,0,0,0,0,0,0,0,-1,1602,1590,5.74392,-0.695531
385,-566,5.67615,-0.573975,0,0,0,0,0,0,0,-1,1609,1590,5.67612,0.573956
392,-566,5.78638,1.82434,0,0,0,0,0,0,0,-1,1616,1590,5.78637,-1.82439
399,-566,5.36621,1.7373,0,0,0,0,0,0,0,-1,1623,1590,5.36627,-1.7373
406,-566,4.30359,5.26868,0,0,0,0,0,0,0,-1,1630,1590,4.30364,-5.26867
413,-566,4.27124,5.79492,0,0,0,0,0,0,0,-1,1637,1590,4.27123,-5.7949
420,-566,7.19812,8.25146,0,0,0,0,0,0,0,-1,1644,1590,7.19817,-8.25149
427,-566,10.455,10.6842,0,0,0,0,0,0,0,-1,1651,1590,10.455,-10.6842
434,-566,9.18567,14.3304,0,0,0,0,0,0,0,-1,1658,1590,9.18571,-14.3305
441,-566,12.8701,21.7938,0,0,0,0,0,0,0,-1,1665,1590,12.8702,-21.7938
448,-566,12.8297,21.6892,0,0,0,0,0,0,0,-1,1672,1590,12.8298,-21.6892
455,-566,12.6823,21.7372,0.00167596,0.00830878,-0.00226777,0.00901,0.000974739,-1.27091,0.00570956,0.0457973,1679,1590,12.6823,-21.7372
462,-566,12.6681,21.4536,0.00246945,0.0078595,-0.00275168,0.00901609,0.00131286,-1.1729,0.00562441,0.0281993,1686,1590,12.6681,-21.4536
469,-566,12.7534,20.9346,0.00292538,0.00669891,-0.00282009,0.0082052,0.0014191,-1.08022,0.00506382,0.0153819,1693,1590,12.7534,-20.9346
476,-566,12.8116,20.5444,0.00299618,0.00538877,-0.00261403,0.00706724,0.00131771,-0.999994,0.00433947,0.0104159,1700,1590,12.8117,-20.5445
483,-566,12.8107,20.192,0.00303857,0.00417667,-0.00240097,0.00607511,0.00114014,-0.901755,0.00372859,0.0102459,1707,1590,12.8106,-20.192
490,-566,12.7877,19.8323,0.00264527,0.00313071,-0.00193111,0.0048343,0.000941684,-0.847914,0.00295934,0.0120229,1714,1590,12.7878,-19.8323
497,-566,12.8348,19.5037,0.0019914,0.00222363,-0.00147021,0.0035823,0.000632727,-0.824805,0.00220773,0.0155784,1721,1590,12.8349,-19.5036
504,-566,12.8357,19.172,0.00116245,0.00135636,-0.000864149,0.00212898,0.000389834,-0.841262,0.00130887,0.019659,1728,1590,12.8357,-19.172
511,-566,12.8232,18.8,0.00027241,0.000375127,-0.000109854,0.000445035,0.000202502,-1.00406,0.000257287,0.0192979,1735,1590,12.8233,-18.8001
518,-566,12.8013,18.4313,-0.000722611,-0.000571399,0.000702146,5.92e-05,-0.00135321,0.839031,0.000922507,0.0118186,1742,1590,12.8013,-18.4312
525,-566,12.7837,18.0505,-0.00185519,-0.0015099,0.00168745,1.37188e-05,-0.0033788,0.836377,0.00225712,0.0110919,1749,1590,12.7837,-18.0506
532,-566,12.7859,17.6775,-0.00307259,-0.002488,0.00285047,8.51245e-05,-0.00564571,0.836491,0.0037925,0.0136578,1756,1590,12.7859,-17.6775
539,-566,12.7712,17.3008,-0.0044257,-0.00360588,0.00426077,0.000264646,-0.00829623,0.833353,0.00562111,0.01864,1763,1590,12.7713,-17.3008
546,-566,12.7933,16.8767,-0.0060704,-0.00504773,0.00610619,0.000568503,-0.0116866,0.827171,0.00798733,0.0222147,1770,1590,12.7933,-16.8767
553,-566,12.7815,16.6398,-0.00779166,-0.0066424,0.0082521,0.00105505,-0.0154891,0.820159,0.0106951,0.0358847,1777,1590,12.7815,-16.6398
560,-566,12.4767,16.5547,-0.00973163,-0.00868089,0.0107099,0.00151653,-0.019929,0.809906,0.0138193,0.0465353,1784,1590,12.4767,-16.5547
567,-566,12.3503,16.3699,0,0,0,0,0,0,0,-1,1791,1590,12.3503,-16.3699
574,-566,7.99548,3.14514,0,0,0,0,0,0,0,-1,1798,1590,7.99543,-3.14511
581,-566,2.54102,5.1311,0,0,0,0,0,0,0,-1,1805,1590,2.54099,-5.13111
588,-566,-1.91321,8.39197,0,0,0,0,0,0,0,-1,1812,1590,-1.91316,-8.39199
595,-566,9.0271,4.66467,0,0,0,0,0,0,0,-1,1819,1590,9.02705,-4.66468
602,-566,9.953,3.54895,0,0,0,0,0,0,0,-1,1826,1590,9.953,-3.54898
609,-566,0,0,0,0,0,0,0,0,0,-1,1833,1590,0,0
616,-566,0,0,0,0,0,0,0,0,0,-1,1840,1590,0,0
623,-566,0,0,0,0,0,0,0,0,0,-1,1847,1590,0,0
630,-566,0,0,0,0,0,0,0,0,0,-1,1854,1590,0,0
637,-566,0,0,0,0,0,0,0,0,0,-1,1861,1590,0,0
644,-566,0,0,0,0,0,0,0,0,0,-1,1868,1590,0,0
651,-566,0,0,0,0,0,0,0,0,0,-1,1875,1590,0,0
658,-566,0,0,0,0,0,0,0,0,0,-1,1882,1590,0,0
665,-566,0,0,0,0,0,0,0,0,0,-1,1889,1590,0,0
672,-566,0,0,0,0,0,0,0,0,0,-1,1896,1590,0,0
679,-566,0,0,0,0,0,0,0,0,0,-1,1903,1590,0,0
686,-566,0,0,0,0,0,0,0,0,0,-1,1910,1590,0,0
693,-566,0,0,0,0,0,0,0,0,0,-1,1917,1590,0,0
700,-566,0,0,0,0,0,0,0,0,0,-1,1924,1590,0,0
707,-566,0,0,0,0,0,0,0,0,0,-1,1931,1590,0,0
714,-566,0,0,0,0,0,0,0,0,0,-1,1938,1590,0,0
721,-566,0,0,0,0,0,0,0,0,0,-1,1945,1590,0,0
728,-566,0,0,0,0,0,0,0,0,0,-1,1952,1590,0,0
735,-566,0,0,0,0,0,0,0,0,0,-1,1959,1590,0,0
742,-566,0,0,0,0,0,0,0,0,0,-1,1966,1590,0,0
749,-566,0,0,0,0,0,0,0,0,0,-1,1973,1590,0,0
756,-566,0,0,0,0,0,0,0,0,0,-1,1980,1590,0,0
763,-566,0,0,0,0,0,0,0,0,0,-1,1987,1590,0,0
770,-566,0,0,0,0,0,0,0,0,0,-1,1994,1590,0,0
777,-566,0,0,0,0,0,0,0,0,0,-1,2001,1590,0,0
784,-566,0,0,0,0,0,0,0,0,0,-1,2008,1590,0,0
791,-566,0,0,0,0,0,0,0,0,0,-1,2015,1590,0,0
798,-566,0,0,0,0,0,0,0,0,0,-1,2022,1590,0,0
805,-566,0,0,0,0,0,0,0,0,0,-1,2029,1590,0,0
812,-566,0,0,0,0,0,0,0,0,0,-1,2036,1590,0,0
-700,-573,0,0,0,0,0,0,0,0,0,-1,524,1597,0,0
-693,-573,0,0,0,0,0,0,0,0,0,-1,531,1597,0,0
-686,-573,0,0,0,0,0,0,0,0,0,-1,538,1597,0,0
-679,-573,0,0,0,0,0,0,0,0,0,-1,545,1597,0,0
-672,-573,0,0,0,0,0,0,0,0,0,-1,552,1597,0,0
-665,-573,0,0,0,0,0,0,0,0,0,-1,559,1597,0,0
-658,-573,0,0,0,0,0,0,0,0,0,-1,566,1597,0,0
-651,-573,0,0,0,0,0,0,0,0,0,-1,573,1597,0,0
-644,-573,0,0,0,0,0,0,0,0,0,-1,580,1597,0,0
-637,-573,0,0,0,0,0,0,0,0,0,-1,587,1597,0,0
-630,-573,0,0,0,0,0,0,0,0,0,-1,594,1597,0,0
-623,-573,0,0,0,0,0,0,0,0,0,-1,601,1597,0,0
-616,-573,0,0,0,0,0,0,0,0,0,-1,608,1597,0,0
-609,-573,0,0,0,0,0,0,0,0,0,-1,615,1597,0,0
-602,-573,0,0,0,0,0,0,0,0,0,-1,622,1597,0,0
-595,-573,0,0,0,0,0,0,0,0,0,-1,629,1597,0,0
-588,-573,0,0,0,0,0,0,0,0,0,-1,636,1597,0,0
-581,-573,0,0,0,0,0,0,0,0,0,-1,643,1597,0,0
-574,-573,0,0,0,0,0,0,0,0,0,-1,650,1597,0,0
-567,-573,0,0,0,0,0,0,0,0,0,-1,657,1597,0,0
-560,-573,0,0,0,0,0,0,0,0,0,-1,664,1597,0,0
-553,-573,0,0,0,0,0,0,0,0,0,-1,671,1597,0,0
-546,-573,0,0,0,0,0,0,0,0,0,-1,678,1597,0,0
-539,-573,0,0,0,0,0,0,0,0,0,-1,685,1597,0,0
-532,-573,0,0,0,0,0,0,0,0,0,-1,692,1597,0,0
-525,-573,0,0,0,0,0,0,0,0,0,-1,699,1597,0,0
-518,-573,0,0,0,0,0,0,0,0,0,-1,706,1597,0,0
-511,-573,0,0,0,0,0,0,0,0,0,-1,713,1597,0,0
-504,-573,0,0,0,0,0,0,0,0,0,-1,720,1597,0,0
-497,-573,0,0,0,0,0,0,0,0,0,-1,727,1597,0,0
-490,-573,0,0,0,0,0,0,0,0,0,-1,734,1597,0,0
-483,-573,0,0,0,0,0,0,0,0,0,-1,741,1597,0,0
-476,-573,-9.3327,0.972778,0,0,0,0,0,0,0,-1,748,1597,-9.33268,-0.972776
-469,-573,-1.41681,1.13379,0,0,0,0,0,0,0,-1,755,1597,-1.41681,-1.13382
-462,-573,-0.748535,2.02588,0,0,0,0,0,0,0,-1,762,1597,-0.748533,-2.02584
-455,-573,-0.112976,2.70703,0,0,0,0,0,0,0,-1,769,1597,-0.112988,-2.70697
-448,-573,-1.26172,3.33252,0,0,0,0,0,0,0,-1,776,1597,-1.26173,-3.33248
-441,-573,0.108582,5.06726,0,0,0,0,0,0,0,-1,783,1597,0.108584,-5.06721
-434,-573,1.61768,7.05444,0,0,0,0,0,0,0,-1,790,1597,1.61767,-7.05446
-427,-573,0.29541,14.7676,0,0,0,0,0,0,0,-1,797,1597,0.295423,-14.7675
-420,-573,1.17322,14.9247,0,0,0,0,0,0,0,-1,804,1597,1.1732,-14.9246
-413,-573,0.875916,15.4406,0,0,0,0,0,0,0,-1,811,1597,0.875916,-15.4405
-406,-573,0.93158,15.9984,-0.00609124,0.0026449,-0.000282445,0.00265403,-0.00610036,-1.53851,0.00518325,0.0258037,818,1597,0.931604,-15.9984
-399,-573,0.900208,16.451,-0.00526968,0.00221959,-0.000178388,0.00222384,-0.00527393,-1.547,0.00444663,0.0119016,825,1597,0.900217,-16.4511
-392,-573,0.911621,16.8629,-0.00452337,0.00171977,-0.000221132,0.0017276,-0.00453119,-1.53544,0.0037324,0.0107323,832,1597,0.9116,-16.8629
-385,-573,0.900208,17.271,-0.00347232,0.00140393,5.44098e-05,0.00140454,-0.00347293,1.55964,0.00289918,0.0138817,839,1597,0.900236,-17.271
-378,-573,0.881165,17.6595,-0.00235292,0.00146308,0.000352252,0.00149532,-0.00238516,1.47951,0.00225995,0.0153864,846,1597,0.881152,-17.6596
-371,-573,0.858887,18.0629,-0.0014559,0.0016801,0.000507017,0.00176004,-0.00153584,1.41443,0.00190434,0.0160525,853,1597,0.858868,-18.0629
-364,-573,0.84729,18.4421,-0.000753793,0.00202786,0.000668207,0.00218005,-0.000905983,1.34686,0.00183163,0.0182508,860,1597,0.847271,-18.4421
-357,-573,0.846497,18.8099,-0.000142964,0.00248385,0.000797464,0.00270699,-0.000366107,1.29796,0.00193826,0.0208789,867,1597,0.846487,-18.8099
-350,-573,0.863098,19.2004,0.000430414,0.0030381,0.000929602,0.00333556,0.000132955,1.26111,0.00218074,0.0163044,874,1597,0.863071,-19.2004
-343,-573,0.858337,19.5565,0.000943482,0.00374095,0.00111481,0.00413086,0.000553568,1.23434,0.00258919,0.0190302,881,1597,0.858318,-19.5566
-336,-573,0.836365,19.9396,0.00137176,0.00449954,0.00127512,0.00495349,0.000917806,1.22878,0.00304288,0.015491,888,1597,0.83635,-19.9396
-329,-573,0.839294,20.3142,0.00172332,0.00539062,0.00146147,0.00590178,0.00121215,1.23433,0.00359917,0.0174757,895,1597,0.839266,-20.3142
-322,-573,0.844116,20.7125,0.00201894,0.00609525,0.001642,0.00667439,0.0014398,1.23171,0.00405576,0.0152131,902,1597,0.844129,-20.7126
-315,-573,0.96167,21.2253,0.00240314,0.00679097,0.00173588,0.00739465,0.00179946,1.23611,0.00445284,0.0318132,909,1597,0.961673,-21.2253
-308,-573,0.937622,21.5251,0.00295746,0.0073118,0.00186748,0.008003,0.00226626,1.21631,0.00476315,0.0480966,916,1597,0.937636,-21.5251
-301,-573,1.04425,21.8749,0.00382754,0.00776586,0.00226823,0.00880044,0.00279295,1.14287,0.00519269,0.039896,923,1597,1.04423,-21.8748
-294,-573,0.949463,22.2966,0,0,0,0,0,0,0,-1,930,1597,0.949442,-22.2967
-287,-573,0.956543,22.8295,0,0,0,0,0,0,0,-1,937,1597,0.956547,-22.8295
-280,-573,0.669861,23.1145,0,0,0,0,0,0,0,-1,944,1597,0.669856,-23.1145
-273,-573,0.589294,23.2689,0,0,0,0,0,0,0,-1,951,1597,0.589302,-23.2689
-266,-573,1.31116,7.1814,0,0,0,0,0,0,0,-1,958,1597,1.31118,-7.18142
-259,-573,1.2514,6.70959,0,0,0,0,0,0,0,-1,965,1597,1.25137,-6.70965
-252,-573,2.07874,5.27161,0,0,0,0,0,0,0,-1,972,1597,2.07875,-5.27157
-245,-573,-10.2592,1.09827,0,0,0,0,0,0,0,-1,979,1597,-10.2592,-1.09823
-238,-573,-11.5463,4.44141,0,0,0,0,0,0,0,-1,986,1597,-11.5463,-4.44146
-231,-573,-9.23431,4.14539,0,0,0,0,0,0,0,-1,993,1597,-9.23431,-4.14534
-224,-573,-6.70044,7.40857,0,0,0,0,0,0,0,-1,1000,1597,-6.70045,-7.40851
-217,-573,-4.25824,8.59119,0,0,0,0,0,0,0,-1,1007,1597,-4.25824,-8.59122
-210,-573,-2.39661,9.73914,0,0,0,0,0,0,0,-1,1014,1597,-2.39658,-9.73915
-203,-573,-0.557373,10.9005,0,0,0,0,0,0,0,-1,1021,1597,-0.557387,-10.9006
-196,-573,-1.65344,9.02246,0,0,0,0,0,0,0,-1,1028,1597,-1.65349,-9.02241
-189,-573,-6.12915,6.66882,0,0,0,0,0,0,0,-1,1035,1597,-6.12913,-6.66884
-182,-573,0,0,0,0,0,0,0,0,0,-1,1042,1597,0,0
-175,-573,0,0,0,0,0,0,0,0,0,-1,1049,1597,0,0
-168,-573,0,0,0,0,0,0,0,0,0,-1,1056,1597,0,0
-161,-573,0,0,0,0,0,0,0,0,0,-1,1063,1597,0,0
-154,-573,0,0,0,0,0,0,0,0,0,-1,1070,1597,0,0
-147,-573,0,0,0,0,0,0,0,0,0,-1,1077,1597,0,0
-140,-573,0,0,0,0,0,0,0,0,0,-1,1084,1597,0,0
-133,-573,0,0,0,0,0,0,0,0,0,-1,1091,1597,0,0
-126,-573,0,0,0,0,0,0,0,0,0,-1,1098,1597,0,0
-119,-573,0,0,0,0,0,0,0,0,0,-1,1105,1597,0,0
-112,-573,0,0,0,0,0,0,0,0,0,-1,1112,1597,0,0
-105,-573,0,0,0,0,0,0,0,0,0,-1,1119,1597,0,0
-98,-573,0,0,0,0,0,0,0,0,0,-1,1126,1597,0,0
-91,-573,0,0,0,0,0,0,0,0,0,-1,1133,1597,0,0
-84,-573,0,0,0,0,0,0,0,0,0,-1,1140,1597,0,0
-77,-573,0,0,0,0,0,0,0,0,0,-1,1147,1597,0,0
-70,-573,0,0,0,0,0,0,0,0,0,-1,1154,1597,0,0
-63,-573,0,0,0,0,0,0,0,0,0,-1,1161,1597,0,0
-56,-573,0,0,0,0,0,0,0,0,0,-1,1168,1597,0,0
-49,-573,0,0,0,0,0,0,0,0,0,-1,1175,1597,0,0
-42,-573,0,0,0,0,0,0,0,0,0,-1,1182,1597,0,0
-35,-573,0,0,0,0,0,0,0,0,0,-1,1189,1597,0,0
-28,-573,0,0,0,0,0,0,0,0,0,-1,1196,1597,0,0
-21,-573,0,0,0,0,0,0,0,0,0,-1,1203,1597,0,0
-14,-573,0,0,0,0,0,0,0,0,0,-1,1210,1597,0,0
-7,-573,0,0,0,0,0,0,0,0,0,-1,1217,1597,0,0
0,-573,0,0,0,0,0,0,0,0,0,-1,1224,1597,0,0
7,-573,0,0,0,0,0,0,0,0,0,-1,1231,1597,0,0
14,-573,0,0,0,0,0,0,0,0,0,-1,1238,1597,0,0
21,-573,0,0,0,0,0,0,0,0,0,-1,1245,1597,0,0
28,-573,0,0,0,0,0,0,0,0,0,-1,1252,1597,0,0
35,-573,0,0,0,0,0,0,0,0,0,-1,1259,1597,0,0
42,-573,0,0,0,0,0,0,0,0,0,-1,1266,1597,0,0
49,-573,0,0,0,0,0,0,0,0,0,-1,1273,1597,0,0
56,-573,0,0,0,0,0,0,0,0,0,-1,1280,1597,0,0
63,-573,0,0,0,0,0,0,0,0,0,-1,1287,1597,0,0
70,-573,0,0,0,0,0,0,0,0,0,-1,1294,1597,0,0
77,-573,0,0,0,0,0,0,0,0,0,-1,1301,1597,0,0
84,-573,0,0,0,0,0,0,0,0,0,-1,1308,1597,0,0
91,-573,0,0,0,0,0,0,0,0,0,-1,1315,1597,0,0
98,-573,0,0,0,0,0,0,0,0,0,-1,1322,1597,0,0
105,-573,0,0,0,0,0,0,0,0,0,-1,1329,1597,0,0
112,-573,0,0,0,0,0,0,0,0,0,-1,1336,1597,0,0
119,-573,0,0,0,0,0,0,0,0,0,-1,1343,1597,0,0
126,-573,0,0,0,0,0,0,0,0,0,-1,1350,1597,0,0
133,-573,0,0,0,0,0,0,0,0,0,-1,1357,1597,0,0
140,-573,0,0,0,0,0,0,0,0,0,-1,1364,1597,0,0
147,-573,0,0,0,0,0,0,0,0,0,-1,1371,1597,0,0
154,-573,0,0,0,0,0,0,0,0,0,-1,1378,1597,0,0
161,-573,0,0,0,0,0,0,0,0,0,-1,1385,1597,0,0
168,-573,0,0,0,0,0,0,0,0,0,-1,1392,1597,0,0
175,-573,0,0,0,0,0,0,0,0,0,-1,1399,1597,0,0
182,-573,0,0,0,0,0,0,0,0,0,-1,1406,1597,0,0
189,-573,0,0,0,0,0,0,0,0,0,-1,1413,1597,0,0
196,-573,0,0,0,0,0,0,0,0,0,-1,1420,1597,0,0
203,-573,0,0,0,0,0,0,0,0,0,-1,1427,1597,0,0
210,-573,0,0,0,0,0,0,0,0,0,-1,1434,1597,0,0
217,-573,0,0,0,0,0,0,0,0,0,-1,1441,1597,0,0
224,-573,0,0,0,0,0,0,0,0,0,-1,1448,1597,0,0
231,-573,0,0,0,0,0,0,0,0,0,-1,1455,1597,0,0
238,-573,0,0,0,0,0,0,0,0,0,-1,1462,1597,0,0
245,-573,0,0,0,0,0,0,0,0,0,-1,1469,1597,0,0
252,-573,0,0,0,0,0,0,0,0,0,-1,1476,1597,0,0
259,-573,0,0,0,0,0,0,0,0,0,-1,1483,1597,0,0
266,-573,0,0,0,0,0,0,0,0,0,-1,1490,1597,0,0
273,-573,0,0,0,0,0,0,0,0,0,-1,1497,1597,0,0
280,-573,0,0,0,0,0,0,0,0,0,-1,1504,1597,0,0
287,-573,0,0,0,0,0,0,0,0,0,-1,1511,1597,0,0
294,-573,0,0,0,0,0,0,0,0,0,-1,1518,1597,0,0
301,-573,0,0,0,0,0,0,0,0,0,-1,1525,1597,0,0
308,-573,5.93042,9.71143,0,0,0,0,0,0,0,-1,1532,1597,5.93046,-9.71144
315,-573,4.34204,11.719,0,0,0,0,0,0,0,-1,1539,1597,4.34205,-11.719
322,-573,10.3269,7.77563,0,0,0,0,0,0,0,-1,1546,1597,10.327,-7.77565
329,-573,4.99573,3.80273,0,0,0,0,0,0,0,-1,1553,1597,4.9957,-3.80273
336,-573,4.85693,2.53455,0,0,0,0,0,0,0,-1,1560,1597,4.8569,-2.53459
343,-573,5.5946,2.15894,0,0,0,0,0,0,0,-1,1567,1597,5.59456,-2.1589
350,-573,2.53748,1.56433,0,0,0,0,0,0,0,-1,1574,1597,2.53753,-1.5643
357,-573,7.40247,4.03613,0,0,0,0,0,0,0,-1,1581,1597,7.40244,-4.03614
364,-573,7.14551,3.02087,0,0,0,0,0,0,0,-1,1588,1597,7.14556,-3.02084
371,-573,6.88867,2.00549,0,0,0,0,0,0,0,-1,1595,1597,6.88868,-2.00553
378,-573,8.62012,6.09106,0,0,0,0,0,0,0,-1,1602,1597,8.62012,-6.09103
385,-573,6.54346,-0.951904,0,0,0,0,0,0,0,-1,1609,1597,6.54349,0.951901
392,-573,6.41833,-2.18225,0,0,0,0,0,0,0,-1,1616,1597,6.41831,2.18228
399,-573,4.26282,4.73657,0,0,0,0,0,0,0,-1,1623,1597,4.26285,-4.73652
406,-573,6.82715,10.823,0,0,0,0,0,0,0,-1,1630,1597,6.82719,-10.823
413,-573,8.90552,13.1737,0,0,0,0,0,0,0,-1,1637,1597,8.90553,-13.1737
420,-573,13.5127,22.7925,0,0,0,0,0,0,0,-1,1644,1597,13.5126,-22.7925
427,-573,13.3623,23.131,0,0,0,0,0,0,0,-1,1651,1597,13.3622,-23.131
434,-573,12.5115,22.8359,0,0,0,0,0,0,0,-1,1658,1597,12.5115,-22.8359
441,-573,12.6552,22.4014,0,0,0,0,0,0,0,-1,1665,1597,12.6552,-22.4014
448,-573,12.6549,21.9796,0,0,0,0,0,0,0,-1,1672,1597,12.6549,-21.9796
455,-573,12.3937,21.6833,0.00110689,0.00623763,-0.00136429,0.00657784,0.000766674,-1.32641,0.00415332,0.0255056,1679,1597,12.3937,-21.6834
462,-573,12.4568,21.2371,0.00177042,0.0059485,-0.00186583,0.00666043,0.00105849,-1.20629,0.00413289,0.0202183,1686,1597,12.4567,-21.237
469,-573,12.4579,20.8811,0.00216038,0.00513481,-0.00206106,0.0061892,0.00110599,-1.09793,0.00381134,0.0158435,1693,1597,12.4578,-20.8811
476,-573,12.4604,20.5178,0.00221097,0.00416158,-0.00200149,0.00541275,0.0009598,-1.01211,0.00333493,0.0142849,1700,1597,12.4604,-20.5178
483,-573,12.473,20.1881,0.00225003,0.00325243,-0.00191635,0.00473204,0.000770424,-0.913303,0.00293182,0.0120712,1707,1597,12.4731,-20.1881
490,-573,12.4543,19.8466,0.00191264,0.00244696,-0.00158553,0.00378768,0.000571921,-0.868865,0.00235772,0.011962,1714,1597,12.4544,-19.8465
497,-573,12.4797,19.49,0.00129419,0.00173004,-0.00123682,0.00276798,0.000256246,-0.872601,0.00176611,0.0181108,1721,1597,12.4797,-19.4899
504,-573,12.4866,19.1539,0.000428196,0.000968505,-0.000637994,0.00139119,5.51523e-06,-0.985674,0.000925624,0.019277,1728,1597,12.4866,-19.1539
511,-573,12.4591,18.7854,-0.00050032,4.68458e-05,0.000132105,7.7071e-05,-0.000530545,1.34587,0.000381988,0.0202083,1735,1597,12.4592,-18.7854
518,-573,12.4243,18.4375,-0.00154309,-0.000846644,0.0009694,-0.000164822,-0.00222492,0.957829,0.0014315,0.0143414,1742,1597,12.4243,-18.4376
525,-573,12.424,18.0753,-0.00276063,-0.00178928,0.00203349,-0.000184274,-0.00436564,0.902622,0.00285098,0.0156599,1749,1597,12.424,-18.0753
532,-573,12.4207,17.683,-0.00414329,-0.00287462,0.00338398,-6.60387e-05,-0.00695187,0.878049,0.00461273,0.0153169,1756,1597,12.4206,-17.6829
539,-573,12.396,17.3176,-0.00584185,-0.00416839,0.00514453,0.000207007,-0.0102172,0.866015,0.00688154,0.0232705,1763,1597,12.396,-17.3176
546,-573,12.3926,16.9808,-0.00799479,-0.0059997,0.00754451,0.000612929,-0.0146074,0.851127,0.00994888,0.0415909,1770,1597,12.3926,-16.9808
553,-573,11.8842,16.8663,-0.0103494,-0.00805897,0.0104508,0.00130923,-0.0197176,0.83997,0.0136025,0.0478683,1777,1597,11.8841,-16.8663
560,-573,11.4373,16.7075,0,0,0,0,0,0,0,-1,1784,1597,11.4373,-16.7075
567,-573,4.99597,2.77759,0,0,0,0,0,0,0,-1,1791,1597,4.99596,-2.7776
574,-573,0.83374,5.7041,0,0,0,0,0,0,0,-1,1798,1597,0.833718,-5.70405
581,-573,-0.224854,7.41602,0,0,0,0,0,0,0,-1,1805,1597,-0.224904,-7.41596
588,-573,-0.134033,7.67065,0,0,0,0,0,0,0,-1,1812,1597,-0.134037,-7.67063
595,-573,-0.0825195,8.35083,0,0,0,0,0,0,0,-1,1819,1597,-0.0824684,-8.35088
602,-573,0,0,0,0,0,0,0,0,0,-1,1826,1597,0,0
609,-573,0,0,0,0,0,0,0,0,0,-1,1833,1597,0,0
616,-573,0,0,0,0,0,0,0,0,0,-1,1840,1597,0,0
623,-573,0,0,0,0,0,0,0,0,0,-1,1847,1597,0,0
630,-573,0,0,0,0,0,0,0,0,0,-1,1854,1597,0,0
637,-573,0,0,0,0,0,0,0,0,0,-1,1861,1597,0,0
644,-573,0,0,0,0,0,0,0,0,0,-1,1868,1597,0,0
651,-573,0,0,0,0,0,0,0,0,0,-1,1875,1597,0,0
658,-573,0,0,0,0,0,0,0,0,0,-1,1882,1597,0,0
665,-573,0,0,0,0,0,0,0,0,0,-1,1889,1597,0,0
672,-573,0,0,0,0,0,0,0,0,0,-1,1896,1597,0,0
679,-573,0,0,0,0,0,0,0,0,0,-1,1903,1597,0,0
686,-573,0,0,0,0,0,0,0,0,0,-1,1910,1597,0,0
693,-573,0,0,0,0,0,0,0,0,0,-1,1917,1597,0,0
700,-573,0,0,0,0,0,0,0,0,0,-1,1924,1597,0,0
707,-573,0,0,0,0,0,0,0,0,0,-1,1931,1597,0,0
714,-573,0,0,0,0,0,0,0,0,0,-1,1938,1597,0,0
721,-573,0,0,0,0,0,0,0,0,0,-1,1945,1597,0,0
728,-573,0,0,0,0,0,0,0,0,0,-1,1952,1597,0,0
735,-573,0,0,0,0,0,0,0,0,0,-1,1959,1597,0,0
742,-573,0,0,0,0,0,0,0,0,0,-1,1966,1597,0,0
749,-573,0,0,0,0,0,0,0,0,0,-1,1973,1597,0,0
756,-573,0,0,0,0,0,0,0,0,0,-1,1980,1597,0,0
763,-573,0,0,0,0,0,0,0,0,0,-1,1987,1597,0,0
770,-573,0,0,0,0,0,0,0,0,0,-1,1994,1597,0,0
777,-573,0,0,0,0,0,0,0,0,0,-1,2001,1597,0,0
784,-573,0,0,0,0,0,0,0,0,0,-1,2008,1597,0,0
791,-573,0,0,0,0,0,0,0,0,0,-1,2015,1597,0,0
798,-573,0,0,0,0,0,0,0,0,0,-1,2022,1597,0,0
805,-573,0,0,0,0,0,0,0,0,0,-1,2029,1597,0,0
812,-573,0,0,0,0,0,0,0,0,0,-1,2036,1597,0,0
-700,-580,0,0,0,0,0,0,0,0,0,-1,524,1604,0,0
-693,-580,0,0,0,0,0,0,0,0,0,-1,531,1604,0,0
-686,-580,0,0,0,0,0,0,0,0,0,-1,538,1604,0,0
-679,-580,0,0,0,0,0,0,0,0,0,-1,545,1604,0,0
-672,-580,0,0,0,0,0,0,0,0,0,-1,552,1604,0,0
-665,-580,0,0,0,0,0,0,0,0,0,-1,559,1604,0,0
-658,-580,0,0,0,0,0,0,0,0,0,-1,566,1604,0,0
-651,-580,0,0,0,0,0,0,0,0,0,-1,573,1604,0,0
-644,-580,0,0,0,0,0,0,0,0,0,-1,580,1604,0,0
-637,-580,0,0,0,0,0,0,0,0,0,-1,587,1604,0,0
-630,-580,0,0,0,0,0,0,0,0,0,-1,594,1604,0,0
-623,-580,0,0,0,0,0,0,0,0,0,-1,601,1604,0,0
-616,-580,0,0,0,0,0,0,0,0,0,-1,608,1604,0,0
-609,-580,0,0,0,0,0,0,0,0,0,-1,615,1604,0,0
-602,-580,0,0,0,0,0,0,0,0,0,-1,622,1604,0,0
-595,-580,0,0,0,0,0,0,0,0,0,-1,629,1604,0,0
-588,-580,0,0,0,0,0,0,0,0,0,-1,636,1604,0,0
-581,-580,0,0,0,0,0,0,0,0,0,-1,643,1604,0,0
-574,-580,0,0,0,0,0,0,0,0,0,-1,650,1604,0,0
-567,-580,0,0,0,0,0,0,0,0,0,-1,657,1604,0,0
-560,-580,0,0,0,0,0,0,0,0,0,-1,664,1604,0,0
-553,-580,0,0,0,0,0,0,0,0,0,-1,671,1604,0,0
-546,-580,0,0,0,0,0,0,0,0,0,-1,678,1604,0,0
-539,-580,0,0,0,0,0,0,0,0,0,-1,685,1604,0,0
-532,-580,0,0,0,0,0,0,0,0,0,-1,692,1604,0,0
-525,-580,0,0,0,0,0,0,0,0,0,-1,699,1604,0,0
-518,-580,0,0,0,0,0,0,0,0,0,-1,706,1604,0,0
-511,-580,0,0,0,0,0,0,0,0,0,-1,713,1604,0,0
-504,-580,0,0,0,0,0,0,0,0,0,-1,720,1604,0,0
-497,-580,0,0,0,0,0,0,0,0,0,-1,727,1604,0,0
-490,-580,0,0,0,0,0,0,0,0,0,-1,734,1604,0,0
-483,-580,0,0,0,0,0,0,0,0,0,-1,741,1604,0,0
-476,-580,0,0,0,0,0,0,0,0,0,-1,748,1604,0,0
-469,-580,-1.69189,-0.38916,0,0,0,0,0,0,0,-1,755,1604,-1.69192,0.389188
-462,-580,-0.859863,0.675293,0,0,0,0,0,0,0,-1,762,1604,-0.859834,-0.675245
-455,-580,-0.730164,0.651978,0,0,0,0,0,0,0,-1,769,1604,-0.730153,-0.651957
-448,-580,-3.31891,2.07544,0,0,0,0,0,0,0,-1,776,1604,-3.3189,-2.07539
-441,-580,-1.63843,3.9469,0,0,0,0,0,0,0,-1,783,1604,-1.63842,-3.94695
-434,-580,0.23291,5.97876,0,0,0,0,0,0,0,-1,790,1604,0.232901,-5.97878
-427,-580,1.62756,8.05493,0,0,0,0,0,0,0,-1,797,1604,1.62758,-8.05488
-420,-580,0.986572,11.2383,0,0,0,0,0,0,0,-1,804,1604,0.986544,-11.2382
-413,-580,1.83209,15.0063,0,0,0,0,0,0,0,-1,811,1604,1.83209,-15.0063
-406,-580,1.28973,16.0338,0,0,0,0,0,0,0,-1,818,1604,1.28971,-16.0338
-399,-580,1.29901,16.4701,-0.00750005,0.003069,-0.000168558,0.00307168,-0.00750273,-1.55485,0.00628127,0.0254362,825,1604,1.299,-16.4701
-392,-580,1.29028,16.8988,-0.00637238,0.0021081,-0.000272491,0.00211685,-0.00638113,-1.53871,0.00510806,0.014216,832,1604,1.29027,-16.8988
-385,-580,1.28357,17.2944,-0.00495486,0.00133371,-2.41272e-05,0.00133381,-0.00495495,-1.56696,0.0038262,0.0122732,839,1604,1.28356,-17.2944
-378,-580,1.26508,17.6791,-0.00355783,0.00112686,0.000242172,0.00113935,-0.00357032,1.51929,0.0028373,0.0146394,846,1604,1.26506,-17.6791
-371,-580,1.2442,18.0951,-0.00243315,0.00108333,0.000351423,0.00111811,-0.00246793,1.47216,0.00211872,0.0133198,853,1604,1.24421,-18.0951
-364,-580,1.24274,18.4633,-0.00151573,0.0011801,0.000480458,0.00126317,-0.00159879,1.39959,0.00165614,0.0186178,860,1604,1.24271,-18.4633
-357,-580,1.24121,18.806,-0.000718062,0.00144043,0.00059661,0.00159436,-0.000871989,1.3183,0.00144416,0.0128993,867,1604,1.24119,-18.8061
-350,-580,1.23645,19.1877,1.6906e-05,0.00181288,0.000717087,0.00206407,-0.000234278,1.23387,0.00146041,0.0105355,874,1604,1.23647,-19.1878
-343,-580,1.24738,19.5652,0.000659154,0.00233341,0.000908914,0.00273196,0.0002606,1.15755,0.00174095,0.0106117,881,1604,1.24736,-19.5652
-336,-580,1.22516,19.9238,0.00121941,0.00289231,0.00106087,0.00340682,0.000704904,1.11923,0.00207652,0.0185384,888,1604,1.22517,-19.9238
-329,-580,1.21942,20.3158,0.00170011,0.00365576,0.00123936,0.0042566,0.00109927,1.11939,0.0025515,0.0173507,895,1604,1.21942,-20.3157
-322,-580,1.21301,20.6963,0.00206179,0.00430389,0.00141986,0.00499191,0.00137376,1.11957,0.0029776,0.0187759,902,1604,1.21299,-20.6963
-315,-580,1.23364,21.071,0.00243237,0.00486752,0.00149802,0.00558038,0.00171952,1.12664,0.00329995,0.0190227,909,1604,1.23365,-21.071
-308,-580,1.31079,21.554,0.00294457,0.0052604,0.00160989,0.00608554,0.00211943,1.09716,0.003567,0.0282367,916,1604,1.31081,-21.554
-301,-580,1.37042,21.827,0.00375862,0.00561812,0.00195812,0.00685601,0.00252073,1.00705,0.00400426,0.0282387,923,1604,1.37045,-21.827
-294,-580,1.44446,22.3157,0,0,0,0,0,0,0,-1,930,1604,1.44448,-22.3157
-287,-580,0.964844,22.8416,0,0,0,0,0,0,0,-1,937,1604,0.964838,-22.8416
-280,-580,1.01556,23,0,0,0,0,0,0,0,-1,944,1604,1.01557,-23
-273,-580,0.966309,23.1733,0,0,0,0,0,0,0,-1,951,1604,0.966279,-23.1734
-266,-580,0.772949,23.4791,0,0,0,0,0,0,0,-1,958,1604,0.772973,-23.4792
-259,-580,1.31091,9.11536,0,0,0,0,0,0,0,-1,965,1604,1.31092,-9.11539
-252,-580,1.07629,7.74097,0,0,0,0,0,0,0,-1,972,1604,1.07627,-7.74101
-245,-580,3.80304,9.16028,0,0,0,0,0,0,0,-1,979,1604,3.80306,-9.16034
-238,-580,-10.3588,1.57556,0,0,0,0,0,0,0,-1,986,1604,-10.3588,-1.5755
-231,-580,-10.576,6.43787,0,0,0,0,0,0,0,-1,993,1604,-10.576,-6.43783
-224,-580,-8.27435,7.58972,0,0,0,0,0,0,0,-1,1000,1604,-8.27435,-7.5897
-217,-580,-5.85632,9.51221,0,0,0,0,0,0,0,-1,1007,1604,-5.85632,-9.5122
-210,-580,-3.6684,11.1569,0,0,0,0,0,0,0,-1,1014,1604,-3.66839,-11.1569
-203,-580,-1.92474,12.7845,0,0,0,0,0,0,0,-1,1021,1604,-1.92477,-12.7845
-196,-580,-2.28552,10.3289,0,0,0,0,0,0,0,-1,1028,1604,-2.28552,-10.3288
-189,-580,-4.58252,7.59058,0,0,0,0,0,0,0,-1,1035,1604,-4.58256,-7.59057
-182,-580,-5.45874,7.65942,0,0,0,0,0,0,0,-1,1042,1604,-5.45876,-7.65939
-175,-580,-6.38977,7.55005,0,0,0,0,0,0,0,-1,1049,1604,-6.38981,-7.5501
-168,-580,0,0,0,0,0,0,0,0,0,-1,1056,1604,0,0
-161,-580,0,0,0,0,0,0,0,0,0,-1,1063,1604,0,0
-154,-580,0,0,0,0,0,0,0,0,0,-1,1070,1604,0,0
-147,-580,0,0,0,0,0,0,0,0,0,-1,1077,1604,0,0
-140,-580,0,0,0,0,0,0,0,0,0,-1,1084,1604,0,0
-133,-580,0,0,0,0,0,0,0,0,0,-1,1091,1604,0,0
-126,-580,0,0,0,0,0,0,0,0,0,-1,1098,1604,0,0
-119,-580,0,0,0,0,0,0,0,0,0,-1,1105,1604,0,0
-112,-580,0,0,0,0,0,0,0,0,0,-1,1112,1604,0,0
-105,-580,0,0,0,0,0,0,0,0,0,-1,1119,1604,0,0
-98,-580,0,0,0,0,0,0,0,0,0,-1,1126,1604,0,0
-91,-580,0,0,0,0,0,0,0,0,0,-1,1133,1604,0,0
-84,-580,0,0,0,0,0,0,0,0,0,-1,1140,1604,0,0
-77,-580,0,0,0,0,0,0,0,0,0,-1,1147,1604,0,0
-70,-580,0,0,0,0,0,0,0,0,0,-1,1154,1604,0,0
-63,-580,0,0,0,0,0,0,0,0,0,-1,1161,1604,0,0
-56,-580,0,0,0,0,0,0,0,0,0,-1,1168,1604,0,0
-49,-580,0,0,0,0,0,0,0,0,0,-1,1175,1604,0,0
-42,-580,0,0,0,0,0,0,0,0,0,-1,1182,1604,0,0
-35,-580,0,0,0,0,0,0,0,0,0,-1,1189,1604,0,0
-28,-580,0,0,0,0,0,0,0,0,0,-1,1196,1604,0,0
-21,-580,0,0,0,0,0,0,0,0,0,-1,1203,1604,0,0
-14,-580,0,0,0,0,0,0,0,0,0,-1,1210,1604,0,0
-7,-580,0,0,0,0,0,0,0,0,0,-1,1217,1604,0,0
0,-580,0,0,0,0,0,0,0,0,0,-1,1224,1604,0,0
7,-580,0,0,0,0,0,0,0,0,0,-1,1231,1604,0,0
14,-580,0,0,0,0,0,0,0,0,0,-1,1238,1604,0,0
21,-580,0,0,0,0,0,0,0,0,0,-1,1245,1604,0,0
28,-580,0,0,0,0,0,0,0,0,0,-1,1252,1604,0,0
35,-580,0,0,0,0,0,0,0,0,0,-1,1259,1604,0,0
42,-580,0,0,0,0,0,0,0,0,0,-1,1266,1604,0,0
49,-580,0,0,0,0,0,0,0,0,0,-1,1273,1604,0,0
56,-580,0,0,0,0,0,0,0,0,0,-1,1280,1604,0,0
63,-580,0,0,0,0,0,0,0,0,0,-1,1287,1604,0,0
70,-580,0,0,0,0,0,0,0,0,0,-1,1294,1604,0,0
77,-580,0,0,0,0,0,0,0,0,0,-1,1301,1604,0,0
84,-580,0,0,0,0,0,0,0,0,0,-1,1308,1604,0,0
91,-580,0,0,0,0,0,0,0,0,0,-1,1315,1604,0,0
98,-580,0,0,0,0,0,0,0,0,0,-1,1322,1604,0,0
105,-580,0,0,0,0,0,0,0,0,0,-1,1329,1604,0,0
112,-580,0,0,0,0,0,0,0,0,0,-1,1336,1604,0,0
119,-580,0,0,0,0,0,0,0,0,0,-1,1343,1604,0,0
126,-580,0,0,0,0,0,0,0,0,0,-1,1350,1604,0,0
133,-580,0,0,0,0,0,0,0,0,0,-1,1357,1604,0,0
140,-580,0,0,0,0,0,0,0,0,0,-1,1364,1604,0,0
147,-580,0,0,0,0,0,0,0,0,0,-1,1371,1604,0,0
154,-580,0,0,0,0,0,0,0,0,0,-1,1378,1604,0,0
161,-580,0,0,0,0,0,0,0,0,0,-1,1385,1604,0,0
168,-580,0,0,0,0,0,0,0,0,0,-1,1392,1604,0,0
175,-580,0,0,0,0,0,0,0,0,0,-1,1399,1604,0,0
182,-580,0,0,0,0,0,0,0,0,0,-1,1406,1604,0,0
189,-580,0,0,0,0,0,0,0,0,0,-1,1413,1604,0,0
196,-580,0,0,0,0,0,0,0,0,0,-1,1420,1604,0,0
203,-580,0,0,0,0,0,0,0,0,0,-1,1427,1604,0,0
210,-580,0,0,0,0,0,0,0,0,0,-1,1434,1604,0,0
217,-580,0,0,0,0,0,0,0,0,0,-1,1441,1604,0,0
224,-580,0,0,0,0,0,0,0,0,0,-1,1448,1604,0,0
231,-580,0,0,0,0,0,0,0,0,0,-1,1455,1604,0,0
238,-580,0,0,0,0,0,0,0,0,0,-1,1462,1604,0,0
245,-580,0,0,0,0,0,0,0,0,0,-1,1469,1604,0,0
252,-580,0,0,0,0,0,0,0,0,0,-1,1476,1604,0,0
259,-580,0,0,0,0,0,0,0,0,0,-1,1483,1604,0,0
266,-580,0,0,0,0,0,0,0,0,0,-1,1490,1604,0,0
273,-580,0,0,0,0,0,0,0,0,0,-1,1497,1604,0,0
280,-580,0,0,0,0,0,0,0,0,0,-1,1504,1604,0,0
287,-580,0,0,0,0,0,0,0,0,0,-1,1511,1604,0,0
294,-580,4.0437,0.177368,0,0,0,0,0,0,0,-1,1518,1604,4.04369,-0.177371
301,-580,7.55164,8.05798,0,0,0,0,0,0,0,-1,1525,1604,7.55158,-8.05802
308,-580,5.9126,9.99341,0,0,0,0,0,0,0,-1,1532,1604,5.91255,-9.99337
315,-580,4.27356,11.9287,0,0,0,0,0,0,0,-1,1539,1604,4.27352,-11.9287
322,-580,10.2366,7.50281,0,0,0,0,0,0,0,-1,1546,1604,10.2366,-7.50282
329,-580,10.5962,8.69641,0,0,0,0,0,0,0,-1,1553,1604,10.5962,-8.69642
336,-580,3.66431,1.58862,0,0,0,0,0,0,0,-1,1560,1604,3.6643,-1.58864
343,-580,3.32227,1.39636,0,0,0,0,0,0,0,-1,1567,1604,3.32222,-1.39633
350,-580,8.71277,4.0564,0,0,0,0,0,0,0,-1,1574,1604,8.71271,-4.05638
357,-580,8.52332,3.08154,0,0,0,0,0,0,0,-1,1581,1604,8.52332,-3.08157
364,-580,8.25818,2.07605,0,0,0,0,0,0,0,-1,1588,1604,8.25812,-2.07608
371,-580,7.42114,7.14282,0,0,0,0,0,0,0,-1,1595,1604,7.42119,-7.14281
378,-580,7.9718,6.6731,0,0,0,0,0,0,0,-1,1602,1604,7.9718,-6.67307
385,-580,8.52246,6.20337,0,0,0,0,0,0,0,-1,1609,1604,8.52241,-6.20334
392,-580,11.9287,23.7726,0,0,0,0,0,0,0,-1,1616,1604,11.9287,-23.7725
399,-580,6.52625,10.7247,0,0,0,0,0,0,0,-1,1623,1604,6.52628,-10.7248
406,-580,12.3422,23.4119,0,0,0,0,0,0,0,-1,1630,1604,12.3421,-23.4118
413,-580,12.3573,23.2609,0,0,0,0,0,0,0,-1,1637,1604,12.3573,-23.2609
420,-580,12.213,23.275,0,0,0,0,0,0,0,-1,1644,1604,12.213,-23.275
427,-580,12.5377,23.0222,-0.00118336,0.00821746,0.000382121,0.00823297,-0.00119887,1.53024,0.00592881,0.0398507,1651,1604,12.5378,-23.0222
434,-580,12.1587,22.6434,-0.00084898,0.00735519,0.000110227,0.00735667,-0.000850461,1.55736,0.00521112,0.0291065,1658,1604,12.1587,-22.6435
441,-580,12.0549,22.2539,-0.000264349,0.0064936,-0.000270748,0.00650443,-0.000275178,-1.53082,0.00443086,0.0144816,1665,1604,12.055,-22.2539
448,-580,12.1188,21.8978,0.000163956,0.0054745,-0.000451642,0.00551264,0.000125819,-1.48656,0.00363388,0.0137731,1672,1604,12.1188,-21.8978
455,-580,12.1573,21.5789,0.000696347,0.00484856,-0.000898852,0.00503479,0.00051012,-1.3665,0.00320007,0.019166,1679,1604,12.1573,-21.5789
462,-580,12.1163,21.2286,0.00124136,0.00461438,-0.00137412,0.00510331,0.00075243,-1.22895,0.00318119,0.0224021,1686,1604,12.1163,-21.2286
469,-580,12.1147,20.8862,0.00156137,0.00399375,-0.00161609,0.00480014,0.000754972,-1.10796,0.00298048,0.019522,1693,1604,12.1148,-20.8862
476,-580,12.119,20.5194,0.00159827,0.00322827,-0.00162755,0.00423348,0.000593061,-1.01752,0.00264687,0.014672,1700,1604,12.119,-20.5194
483,-580,12.109,20.1863,0.00161185,0.00250597,-0.00159397,0.00371439,0.00040343,-0.922121,0.00235334,0.0128985,1707,1604,12.109,-20.1863
490,-580,12.0903,19.8595,0.00130463,0.00185296,-0.00134446,0.00295092,0.00020667,-0.885979,0.00190214,0.015758,1714,1604,12.0903,-19.8595
497,-580,12.0797,19.5105,0.0007144,0.00126382,-0.00106845,0.00209231,-0.000114095,-0.911227,0.00143442,0.0130579,1721,1604,12.0797,-19.5105
504,-580,12.0828,19.1656,-0.000183816,0.000577548,-0.000467483,0.000799742,-0.000406009,-1.12711,0.000708405,0.0187337,1728,1604,12.0828,-19.1656
511,-580,12.0863,18.7987,-0.00115268,-0.000279891,0.000310438,-0.000180738,-0.00125184,1.26164,0.000781312,0.0186617,1735,1604,12.0863,-18.7987
518,-580,12.0811,18.4424,-0.00225033,-0.00111011,0.00116384,-0.000384249,-0.00297619,1.01315,0.00186926,0.0161011,1742,1604,12.0811,-18.4423
525,-580,12.0217,18.0839,-0.00357694,-0.00204605,0.0022954,-0.000391825,-0.00523116,0.946334,0.00336444,0.016448,1749,1604,12.0217,-18.0839
532,-580,12.0189,17.7062,-0.00519339,-0.00323333,0.00383984,-0.000250428,-0.0081763,0.910344,0.00536934,0.0187611,1756,1604,12.019,-17.7062
539,-580,12.0212,17.4076,-0.00734692,-0.00476529,0.00601975,0.000100486,-0.0122127,0.891014,0.0081755,0.031151,1763,1604,12.0213,-17.4076
546,-580,12.0592,17.0377,0,0,0,0,0,0,0,-1,1770,1604,12.0592,-17.0377
553,-580,10.9425,16.9786,0,0,0,0,0,0,0,-1,1777,1604,10.9425,-16.9786
560,-580,7.09021,6.49438,0,0,0,0,0,0,0,-1,1784,1604,7.09016,-6.4944
567,-580,3.87708,4.0647,0,0,0,0,0,0,0,-1,1791,1604,3.87711,-4.06471
574,-580,2.31653,5.62952,0,0,0,0,0,0,0,-1,1798,1604,2.31654,-5.62947
581,-580,1.60876,6.67664,0,0,0,0,0,0,0,-1,1805,1604,1.60873,-6.67667
588,-580,1.38684,7.14441,0,0,0,0,0,0,0,-1,1812,1604,1.38689,-7.14443
595,-580,0,0,0,0,0,0,0,0,0,-1,1819,1604,0,0
602,-580,0,0,0,0,0,0,0,0,0,-1,1826,1604,0,0
609,-580,0,0,0,0,0,0,0,0,0,-1,1833,1604,0,0
616,-580,0,0,0,0,0,0,0,0,0,-1,1840,1604,0,0
623,-580,0,0,0,0,0,0,0,0,0,-1,1847,1604,0,0
630,-580,0,0,0,0,0,0,0,0,0,-1,1854,1604,0,0
637,-580,0,0,0,0,0,0,0,0,0,-1,1861,1604,0,0
644,-580,0,0,0,0,0,0,0,0,0,-1,1868,1604,0,0
651,-580,0,0,0,0,0,0,0,0,0,-1,1875,1604,0,0
658,-580,0,0,0,0,0,0,0,0,0,-1,1882,1604,0,0
665,-580,0,0,0,0,0,0,0,0,0,-1,1889,1604,0,0
672,-580,0,0,0,0,0,0,0,0,0,-1,1896,1604,0,0
679,-580,0,0,0,0,0,0,0,0,0,-1,1903,1604,0,0
686,-580,0,0,0,0,0,0,0,0,0,-1,1910,1604,0,0
693,-580,0,0,0,0,0,0,0,0,0,-1,1917,1604,0,0
700,-580,0,0,0,0,0,0,0,0,0,-1,1924,1604,0,0
707,-580,0,0,0,0,0,0,0,0,0,-1,1931,1604,0,0
714,-580,0,0,0,0,0,0,0,0,0,-1,1938,1604,0,0
721,-580,0,0,0,0,0,0,0,0,0,-1,1945,1604,0,0
728,-580,0,0,0,0,0,0,0,0,0,-1,1952,1604,0,0
735,-580,0,0,0,0,0,0,0,0,0,-1,1959,1604,0,0
742,-580,0,0,0,0,0,0,0,0,0,-1,1966,1604,0,0
749,-580,0,0,0,0,0,0,0,0,0,-1,1973,1604,0,0
756,-580,0,0,0,0,0,0,0,0,0,-1,1980,1604,0,0
763,-580,0,0,0,0,0,0,0,0,0,-1,1987,1604,0,0
770,-580,0,0,0,0,0,0,0,0,0,-1,1994,1604,0,0
777,-580,0,0,0,0,0,0,0,0,0,-1,2001,1604,0,0
784,-580,0,0,0,0,0,0,0,0,0,-1,2008,1604,0,0
791,-580,0,0,0,0,0,0,0,0,0,-1,2015,1604,0,0
798,-580,0,0,0,0,0,0,0,0,0,-1,2022,1604,0,0
805,-580,0,0,0,0,0,0,0,0,0,-1,2029,1604,0,0
812,-580,0,0,0,0,0,0,0,0,0,-1,2036,1604,0,0
-700,-587,0,0,0,0,0,0,0,0,0,-1,524,1611,0,0
-693,-587,0,0,0,0,0,0,0,0,0,-1,531,1611,0,0
-686,-587,0,0,0,0,0,0,0,0,0,-1,538,1611,0,0
-679,-587,0,0,0,0,0,0,0,0,0,-1,545,1611,0,0
-672,-587,0,0,0,0,0,0,0,0,0,-1,552,1611,0,0
-665,-587,0,0,0,0,0,0,0,0,0,-1,559,1611,0,0
-658,-587,0,0,0,0,0,0,0,0,0,-1,566,1611,0,0
-651,-587,0,0,0,0,0,0,0,0,0,-1,573,1611,0,0
-644,-587,0,0,0,0,0,0,0,0,0,-1,580,1611,0,0
-637,-587,0,0,0,0,0,0,0,0,0,-1,587,1611,0,0
-630,-587,0,0,0,0,0,0,0,0,0,-1,594,1611,0,0
-623,-587,0,0,0,0,0,0,0,0,0,-1,601,1611,0,0
-616,-587,0,0,0,0,0,0,0,0,0,-1,608,1611,0,0
-609,-587,0,0,0,0,0,0,0,0,0,-1,615,1611,0,0
-602,-587,0,0,0,0,0,0,0,0,0,-1,622,1611,0,0
-595,-587,0,0,0,0,0,0,0,0,0,-1,629,1611,0,0
-588,-587,0,0,0,0,0,0,0,0,0,-1,636,1611,0,0
-581,-587,0,0,0,0,0,0,0,0,0,-1,643,1611,0,0
-574,-587,0,0,0,0,0,0,0,0,0,-1,650,1611,0,0
-567,-587,0,0,0,0,0,0,0,0,0,-1,657,1611,0,0
-560,-587,0,0,0,0,0,0,0,0,0,-1,664,1611,0,0
-553,-587,0,0,0,0,0,0,0,0,0,-1,671,1611,0,0
-546,-587,0,0,0,0,0,0,0,0,0,-1,678,1611,0,0
-539,-587,0,0,0,0,0,0,0,0,0,-1,685,1611,0,0
-532,-587,0,0,0,0,0,0,0,0,0,-1,692,1611,0,0
-525,-587,0,0,0,0,0,0,0,0,0,-1,699,1611,0,0
-518,-587,0,0,0,0,0,0,0,0,0,-1,706,1611,0,0
-511,-587,0,0,0,0,0,0,0,0,0,-1,713,1611,0,0
-504,-587,0,0,0,0,0,0,0,0,0,-1,720,1611,0,0
-497,-587,0,0,0,0,0,0,0,0,0,-1,727,1611,0,0
-490,-587,0,0,0,0,0,0,0,0,0,-1,734,1611,0,0
-483,-587,0,0,0,0,0,0,0,0,0,-1,741,1611,0,0
-476,-587,0,0,0,0,0,0,0,0,0,-1,748,1611,0,0
-469,-587,0,0,0,0,0,0,0,0,0,-1,755,1611,0,0
-462,-587,-0.714355,-0.418457,0,0,0,0,0,0,0,-1,762,1611,-0.714359,0.418483
-455,-587,-0.619812,-0.522461,0,0,0,0,0,0,0,-1,769,1611,-0.619802,0.522515
-448,-587,-0.461731,-0.686523,0,0,0,0,0,0,0,-1,776,1611,-0.461739,0.686559
-441,-587,-3.56555,2.72253,0,0,0,0,0,0,0,-1,783,1611,-3.56555,-2.72259
-434,-587,-1.77319,4.76318,0,0,0,0,0,0,0,-1,790,1611,-1.77318,-4.76323
-427,-587,0.0346069,6.92944,0,0,0,0,0,0,0,-1,797,1611,0.034587,-6.92941
-420,-587,-0.647156,10.1157,0,0,0,0,0,0,0,-1,804,1611,-0.647128,-10.1158
-413,-587,2.13971,10.3901,0,0,0,0,0,0,0,-1,811,1611,2.13971,-10.3902
-406,-587,2.08118,15.9092,0,0,0,0,0,0,0,-1,818,1611,2.0812,-15.9092
-399,-587,1.90253,16.4038,-0.0103041,0.00419006,-0.000166615,0.00419198,-0.010306,-1.5593,0.00861497,0.045729,825,1611,1.90251,-16.4038
-392,-587,1.80688,16.8015,-0.00859866,0.00274543,-0.000264457,0.00275159,-0.00860482,-1.5475,0.00684077,0.0349524,832,1611,1.80688,-16.8015
-385,-587,1.62103,17.2659,-0.00663622,0.00154802,1.40783e-05,0.00154805,-0.00663624,1.56908,0.00502037,0.0186648,839,1611,1.62101,-17.2658
-378,-587,1.60358,17.7042,-0.00486313,0.00108711,0.0002766,0.00109994,-0.00487596,1.52444,0.00367261,0.0128635,846,1611,1.60358,-17.7043
-371,-587,1.58722,18.129,-0.00345726,0.00080302,0.000359279,0.000833107,-0.00348735,1.48725,0.00264667,0.0132022,853,1611,1.58722,-18.1291
-364,-587,1.61676,18.4841,-0.00229616,0.000667536,0.000460741,0.000737511,-0.00236614,1.42007,0.00187232,0.0170773,860,1611,1.61678,-18.4842
-357,-587,1.59943,18.7894,-0.0013049,0.000754597,0.000559569,0.000896813,-0.00144712,1.32191,0.00136564,0.0172975,867,1611,1.59945,-18.7894
-350,-587,1.58466,19.1941,-0.000422468,0.000970374,0.000655099,0.00123007,-0.000682162,1.19338,0.00111903,0.0099524,874,1611,1.58467,-19.1941
-343,-587,1.57977,19.5768,0.00031927,0.00133477,0.000828213,0.00179849,-0.000144446,1.06038,0.00124993,0.0119462,881,1611,1.57975,-19.5768
-336,-587,1.56421,19.9437,0.000973726,0.00173101,0.000942353,0.00236795,0.00033679,0.976429,0.0014792,0.0122933,888,1611,1.5642,-19.9437
-329,-587,1.55945,20.316,0.00153043,0.00238563,0.00107201,0.00311217,0.000803888,0.975167,0.00186548,0.0145362,895,1611,1.55942,-20.3161
-322,-587,1.59271,20.7057,0.00190215,0.00298127,0.001204,0.00376108,0.00112234,0.99605,0.00222952,0.0172258,902,1611,1.5927,-20.7056
-315,-587,1.57489,21.0527,0.00223496,0.00347138,0.00125743,0.00425435,0.00145199,1.01387,0.00249715,0.0140158,909,1611,1.5749,-21.0527
-308,-587,1.56537,21.4154,0.00267513,0.00379907,0.0013242,0.00467562,0.00179858,0.986073,0.0027233,0.0139948,916,1611,1.56537,-21.4154
-301,-587,1.62231,21.7765,0.0033904,0.00410922,0.00159584,0.00538563,0.002114,0.896158,0.00313325,0.0143918,923,1611,1.62234,-21.7765
-294,-587,1.68494,22.1851,0.00454027,0.00460169,0.00215236,0.00672356,0.0024184,0.792531,0.00393247,0.0235127,930,1611,1.68491,-22.185
-287,-587,1.68903,22.5741,0,0,0,0,0,0,0,-1,937,1611,1.68901,-22.5742
-280,-587,1.59747,22.7467,0,0,0,0,0,0,0,-1,944,1611,1.5975,-22.7467
-273,-587,1.36499,23.0699,0,0,0,0,0,0,0,-1,951,1611,1.365,-23.07
-266,-587,1.62811,23.605,0,0,0,0,0,0,0,-1,958,1611,1.62812,-23.605
-259,-587,0.317444,23.6786,0,0,0,0,0,0,0,-1,965,1611,0.317428,-23.6785
-252,-587,1.30188,10.3103,0,0,0,0,0,0,0,-1,972,1611,1.30188,-10.3104
-245,-587,1.09857,25.0017,0,0,0,0,0,0,0,-1,979,1611,1.09855,-25.0017
-238,-587,2.87799,9.53821,0,0,0,0,0,0,0,-1,986,1611,2.87797,-9.53823
-231,-587,2.49548,9.14465,0,0,0,0,0,0,0,-1,993,1611,2.49551,-9.14468
-224,-587,-9.72528,9.21069,0,0,0,0,0,0,0,-1,1000,1611,-9.72529,-9.21072
-217,-587,-7.07495,10.7847,0,0,0,0,0,0,0,-1,1007,1611,-7.07495,-10.7847
-210,-587,-4.72308,12.5889,0,0,0,0,0,0,0,-1,1014,1611,-4.72307,-12.5888
-203,-587,-3.2583,13.7289,0,0,0,0,0,0,0,-1,1021,1611,-3.25828,-13.7289
-196,-587,-1.953,14.8145,0,0,0,0,0,0,0,-1,1028,1611,-1.95302,-14.8144
-189,-587,-3.04138,8.66638,0,0,0,0,0,0,0,-1,1035,1611,-3.04136,-8.66635
-182,-587,-3.97095,9.7146,0,0,0,0,0,0,0,-1,1042,1611,-3.97093,-9.71461
-175,-587,-4.80969,8.37878,0,0,0,0,0,0,0,-1,1049,1611,-4.80964,-8.37883
-168,-587,-5.91394,8.72546,0,0,0,0,0,0,0,-1,1056,1611,-5.91398,-8.72542
-161,-587,-7.06946,8.88501,0,0,0,0,0,0,0,-1,1063,1611,-7.06947,-8.885
-154,-587,-2.24731,6.56519,0,0,0,0,0,0,0,-1,1070,1611,-2.24728,-6.56517
-147,-587,0,0,0,0,0,0,0,0,0,-1,1077,1611,0,0
-140,-587,0,0,0,0,0,0,0,0,0,-1,1084,1611,0,0
-133,-587,0,0,0,0,0,0,0,0,0,-1,1091,1611,0,0
-126,-587,0,0,0,0,0,0,0,0,0,-1,1098,1611,0,0
-119,-587,0,0,0,0,0,0,0,0,0,-1,1105,1611,0,0
-112,-587,0,0,0,0,0,0,0,0,0,-1,1112,1611,0,0
-105,-587,0,0,0,0,0,0,0,0,0,-1,1119,1611,0,0
-98,-587,0,0,0,0,0,0,0,0,0,-1,1126,1611,0,0
-91,-587,0,0,0,0,0,0,0,0,0,-1,1133,1611,0,0
-84,-587,0,0,0,0,0,0,0,0,0,-1,1140,1611,0,0
-77,-587,0,0,0,0,0,0,0,0,0,-1,1147,1611,0,0
-70,-587,0,0,0,0,0,0,0,0,0,-1,1154,1611,0,0
-63,-587,0,0,0,0,0,0,0,0,0,-1,1161,1611,0,0
-56,-587,0,0,0,0,0,0,0,0,0,-1,1168,1611,0,0
-49,-587,0,0,0,0,0,0,0,0,0,-1,1175,1611,0,0
-42,-587,0,0,0,0,0,0,0,0,0,-1,1182,1611,0,0
-35,-587,0,0,0,0,0,0,0,0,0,-1,1189,1611,0,0
-28,-587,0,0,0,0,0,0,0,0,0,-1,1196,1611,0,0
-21,-587,0,0,0,0,0,0,0,0,0,-1,1203,1611,0,0
-14,-587,0,0,0,0,0,0,0,0,0,-1,1210,1611,0,0
-7,-587,0,0,0,0,0,0,0,0,0,-1,1217,1611,0,0
0,-587,0,0,0,0,0,0,0,0,0,-1,1224,1611,0,0
7,-587,0,0,0,0,0,0,0,0,0,-1,1231,1611,0,0
14,-587,0,0,0,0,0,0,0,0,0,-1,1238,1611,0,0
21,-587,0,0,0,0,0,0,0,0,0,-1,1245,1611,0,0
28,-587,0,0,0,0,0,0,0,0,0,-1,1252,1611,0,0
35,-587,0,0,0,0,0,0,0,0,0,-1,1259,1611,0,0
42,-587,0,0,0,0,0,0,0,0,0,-1,1266,1611,0,0
49,-587,0,0,0,0,0,0,0,0,0,-1,1273,1611,0,0
56,-587,0,0,0,0,0,0,0,0,0,-1,1280,1611,0,0
63,-587,0,0,0,0,0,0,0,0,0,-1,1287,1611,0,0
70,-587,0,0,0,0,0,0,0,0,0,-1,1294,1611,0,0
77,-587,0,0,0,0,0,0,0,0,0,-1,1301,1611,0,0
84,-587,0,0,0,0,0,0,0,0,0,-1,1308,1611,0,0
91,-587,0,0,0,0,0,0,0,0,0,-1,1315,1611,0,0
98,-587,0,0,0,0,0,0,0,0,0,-1,1322,1611,0,0
105,-587,0,0,0,0,0,0,0,0,0,-1,1329,1611,0,0
112,-587,0,0,0,0,0,0,0,0,0,-1,1336,1611,0,0
119,-587,0,0,0,0,0,0,0,0,0,-1,1343,1611,0,0
126,-587,0,0,0,0,0,0,0,0,0,-1,1350,1611,0,0
133,-587,0,0,0,0,0,0,0,0,0,-1,1357,1611,0,0
140,-587,0,0,0,0,0,0,0,0,0,-1,1364,1611,0,0
147,-587,0,0,0,0,0,0,0,0,0,-1,1371,1611,0,0
154,-587,0,0,0,0,0,0,0,0,0,-1,1378,1611,0,0
161,-587,0,0,0,0,0,0,0,0,0,-1,1385,1611,0,0
168,-587,0,0,0,0,0,0,0,0,0,-1,1392,1611,0,0
175,-587,0,0,0,0,0,0,0,0,0,-1,1399,1611,0,0
182,-587,0,0,0,0,0,0,0,0,0,-1,1406,1611,0,0
189,-587,0,0,0,0,0,0,0,0,0,-1,1413,1611,0,0
196,-587,0,0,0,0,0,0,0,0,0,-1,1420,1611,0,0
203,-587,0,0,0,0,0,0,0,0,0,-1,1427,1611,0,0
210,-587,0,0,0,0,0,0,0,0,0,-1,1434,1611,0,0
217,-587,0,0,0,0,0,0,0,0,0,-1,1441,1611,0,0
224,-587,0,0,0,0,0,0,0,0,0,-1,1448,1611,0,0
231,-587,0,0,0,0,0,0,0,0,0,-1,1455,1611,0,0
238,-587,0,0,0,0,0,0,0,0,0,-1,1462,1611,0,0
245,-587,0,0,0,0,0,0,0,0,0,-1,1469,1611,0,0
252,-587,0,0,0,0,0,0,0,0,0,-1,1476,1611,0,0
259,-587,0,0,0,0,0,0,0,0,0,-1,1483,1611,0,0
266,-587,0,0,0,0,0,0,0,0,0,-1,1490,1611,0,0
273,-587,10.2936,6.35083,0,0,0,0,0,0,0,-1,1497,1611,10.2936,-6.35087
280,-587,2.09204,1.1217,0,0,0,0,0,0,0,-1,1504,1611,2.092,-1.12176
287,-587,3.2865,0.671509,0,0,0,0,0,0,0,-1,1511,1611,3.28656,-0.671538
294,-587,4.24646,1.58765,0,0,0,0,0,0,0,-1,1518,1611,4.24648,-1.58761
301,-587,7.60474,8.37085,0,0,0,0,0,0,0,-1,1525,1611,7.60478,-8.37084
308,-587,5.99316,10.2291,0,0,0,0,0,0,0,-1,1532,1611,5.99315,-10.2291
315,-587,4.34558,12.3289,0,0,0,0,0,0,0,-1,1539,1611,4.34556,-12.3288
322,-587,10.4526,6.38245,0,0,0,0,0,0,0,-1,1546,1611,10.4526,-6.38245
329,-587,10.7738,8.42444,0,0,0,0,0,0,0,-1,1553,1611,10.7738,-8.42438
336,-587,7.5531,5.96619,0,0,0,0,0,0,0,-1,1560,1611,7.55311,-5.96617
343,-587,9.57495,4.38391,0,0,0,0,0,0,0,-1,1567,1611,9.57494,-4.38397
350,-587,9.50378,3.45093,0,0,0,0,0,0,0,-1,1574,1611,9.50376,-3.4509
357,-587,9.40027,2.50806,0,0,0,0,0,0,0,-1,1581,1611,9.40022,-2.50803
364,-587,9.26477,1.34131,0,0,0,0,0,0,0,-1,1588,1611,9.26479,-1.34126
371,-587,6.98926,7.87561,0,0,0,0,0,0,0,-1,1595,1611,6.98928,-7.87564
378,-587,9.25146,13.8358,0,0,0,0,0,0,0,-1,1602,1611,9.2515,-13.8359
385,-587,11.6848,24.6086,0,0,0,0,0,0,0,-1,1609,1611,11.6848,-24.6087
392,-587,11.7263,24.2314,0,0,0,0,0,0,0,-1,1616,1611,11.7263,-24.2314
399,-587,11.9277,24.1387,0,0,0,0,0,0,0,-1,1623,1611,11.9277,-24.1387
406,-587,11.9404,23.6061,0.00129835,0.0101027,-0.000266663,0.0101108,0.00129028,-1.54055,0.00635423,0.0451841,1630,1611,11.9404,-23.6061
413,-587,11.8933,23.4341,2.14067e-05,0.00847688,0.000474533,0.00850343,-5.14183e-06,1.51491,0.00567067,0.0344028,1637,1611,11.8933,-23.4341
420,-587,11.8318,23.2681,-0.000450314,0.00735722,0.000550494,0.00739584,-0.000488937,1.50075,0.00510135,0.0291204,1644,1611,11.8318,-23.2681
427,-587,11.8312,22.9703,-0.000441108,0.00655919,0.000282142,0.00657054,-0.000452461,1.53058,0.0045387,0.0225956,1651,1611,11.8311,-22.9703
434,-587,11.7568,22.5544,-0.00039663,0.00564148,0.000182543,0.005647,-0.000402143,1.5406,0.00390562,0.0153499,1658,1611,11.7568,-22.5545
441,-587,11.7627,22.1763,-9.33162e-05,0.00493611,-9.9478e-05,0.00493807,-9.52829e-05,-1.55103,0.00332426,0.0175368,1665,1611,11.7627,-22.1762
448,-587,11.7915,21.907,0.000118957,0.00408631,-0.000233653,0.00410003,0.000105243,-1.51217,0.00269895,0.0150674,1672,1611,11.7915,-21.907
455,-587,11.7891,21.5963,0.000463919,0.00359343,-0.000582538,0.00369835,0.000359001,-1.3926,0.00235504,0.0146815,1679,1611,11.7891,-21.5963
462,-587,11.7727,21.2478,0.000871101,0.00338819,-0.000986957,0.00372903,0.000530265,-1.23828,0.00232947,0.0182089,1686,1611,11.7728,-21.2478
469,-587,11.775,20.9186,0.00110405,0.00291005,-0.0012301,0.00353301,0.000481092,-1.10202,0.00221248,0.0160676,1693,1611,11.7751,-20.9185
476,-587,11.7759,20.5743,0.00109869,0.00232556,-0.00128039,0.00313188,0.000292368,-1.00879,0.00199761,0.010742,1700,1611,11.7759,-20.5744
483,-587,11.7379,20.2064,0.00105086,0.00177492,-0.00127461,0.00273791,8.78673e-05,-0.923771,0.0017967,0.0131011,1707,1611,11.7379,-20.2064
490,-587,11.7224,19.8483,0.000744604,0.00127743,-0.00110286,0.0021456,-0.000123569,-0.90391,0.00147332,0.0158442,1714,1611,11.7224,-19.8482
497,-587,11.7032,19.5132,0.000177589,0.000832812,-0.000912415,0.00147465,-0.000464248,-0.95776,0.00116899,0.0133825,1721,1611,11.7032,-19.5132
504,-587,11.6929,19.1971,-0.000733436,0.000255936,-0.000355175,0.000370235,-0.000847735,-1.25945,0.000720984,0.0128537,1728,1611,11.6929,-19.1971
511,-587,11.7007,18.8423,-0.00172569,-0.000484559,0.000373741,-0.000380705,-0.00182954,1.29976,0.00111468,0.0143844,1735,1611,11.7007,-18.8423
518,-587,11.7366,18.4662,-0.00286519,-0.00118779,0.00118806,-0.000572219,-0.00348076,1.09275,0.00215524,0.013627,1742,1611,11.7366,-18.4662
525,-587,11.6857,18.1085,-0.00428767,-0.00204322,0.00232041,-0.000587915,-0.00574298,1.01063,0.0036485,0.0152069,1749,1611,11.6857,-18.1085
532,-587,11.6796,17.7478,-0.0061442,-0.00326612,0.00398015,-0.00047285,-0.00893748,0.958864,0.00580712,0.0279546,1756,1611,11.6796,-17.7478
539,-587,11.7252,17.3999,0,0,0,0,0,0,0,-1,1763,1611,11.7252,-17.3999
546,-587,9.57629,12.9152,0,0,0,0,0,0,0,-1,1770,1611,9.57624,-12.9152
553,-587,7.5813,8.45068,0,0,0,0,0,0,0,-1,1777,1611,7.58125,-8.45068
560,-587,4.21179,5.23547,0,0,0,0,0,0,0,-1,1784,1611,4.21185,-5.23553
567,-587,4.03711,5.46387,0,0,0,0,0,0,0,-1,1791,1611,4.03715,-5.46382
574,-587,3.83142,5.68884,0,0,0,0,0,0,0,-1,1798,1611,3.83141,-5.68881
581,-587,3.47168,6.00977,0,0,0,0,0,0,0,-1,1805,1611,3.47167,-6.00983
588,-587,0,0,0,0,0,0,0,0,0,-1,1812,1611,0,0
595,-587,0,0,0,0,0,0,0,0,0,-1,1819,1611,0,0
602,-587,0,0,0,0,0,0,0,0,0,-1,1826,1611,0,0
609,-587,0,0,0,0,0,0,0,0,0,-1,1833,1611,0,0
616,-587,0,0,0,0,0,0,0,0,0,-1,1840,1611,0,0
623,-587,0,0,0,0,0,0,0,0,0,-1,1847,1611,0,0
630,-587,0,0,0,0,0,0,0,0,0,-1,1854,1611,0,0
637,-587,0,0,0,0,0,0,0,0,0,-1,1861,1611,0,0
644,-587,0,0,0,0,0,0,0,0,0,-1,1868,1611,0,0
651,-587,0,0,0,0,0,0,0,0,0,-1,1875,1611,0,0
658,-587,0,0,0,0,0,0,0,0,0,-1,1882,1611,0,0
665,-587,0,0,0,0,0,0,0,0,0,-1,1889,1611,0,0
672,-587,0,0,0,0,0,0,0,0,0,-1,1896,1611,0,0
679,-587,0,0,0,0,0,0,0,0,0,-1,1903,1611,0,0
686,-587,0,0,0,0,0,0,0,0,0,-1,1910,1611,0,0
693,-587,0,0,0,0,0,0,0,0,0,-1,1917,1611,0,0
700,-587,0,0,0,0,0,0,0,0,0,-1,1924,1611,0,0
707,-587,0,0,0,0,0,0,0,0,0,-1,1931,1611,0,0
714,-587,0,0,0,0,0,0,0,0,0,-1,1938,1611,0,0
721,-587,0,0,0,0,0,0,0,0,0,-1,1945,1611,0,0
728,-587,0,0,0,0,0,0,0,0,0,-1,1952,1611,0,0
735,-587,0,0,0,0,0,0,0,0,0,-1,1959,1611,0,0
742,-587,0,0,0,0,0,0,0,0,0,-1,1966,1611,0,0
749,-587,0,0,0,0,0,0,0,0,0,-1,1973,1611,0,0
756,-587,0,0,0,0,0,0,0,0,0,-1,1980,1611,0,0
763,-587,0,0,0,0,0,0,0,0,0,-1,1987,1611,0,0
770,-587,0,0,0,0,0,0,0,0,0,-1,1994,1611,0,0
777,-587,0,0,0,0,0,0,0,0,0,-1,2001,1611,0,0
784,-587,0,0,0,0,0,0,0,0,0,-1,2008,1611,0,0
791,-587,0,0,0,0,0,0,0,0,0,-1,2015,1611,0,0
798,-587,0,0,0,0,0,0,0,0,0,-1,2022,1611,0,0
805,-587,0,0,0,0,0,0,0,0,0,-1,2029,1611,0,0
812,-587,0,0,0,0,0,0,0,0,0,-1,2036,1611,0,0
-700,-594,0,0,0,0,0,0,0,0,0,-1,524,1618,0,0
-693,-594,0,0,0,0,0,0,0,0,0,-1,531,1618,0,0
-686,-594,0,0,0,0,0,0,0,0,0,-1,538,1618,0,0
-679,-594,0,0,0,0,0,0,0,0,0,-1,545,1618,0,0
-672,-594,0,0,0,0,0,0,0,0,0,-1,552,1618,0,0
-665,-594,0,0,0,0,0,0,0,0,0,-1,559,1618,0,0
-658,-594,0,0,0,0,0,0,0,0,0,-1,566,1618,0,0
-651,-594,0,0,0,0,0,0,0,0,0,-1,573,1618,0,0
-644,-594,0,0,0,0,0,0,0,0,0,-1,580,1618,0,0
-637,-594,0,0,0,0,0,0,0,0,0,-1,587,1618,0,0
-630,-594,0,0,0,0,0,0,0,0,0,-1,594,1618,0,0
-623,-594,0,0,0,0,0,0,0,0,0,-1,601,1618,0,0
-616,-594,0,0,0,0,0,0,0,0,0,-1,608,1618,0,0
-609,-594,0,0,0,0,0,0,0,0,0,-1,615,1618,0,0
-602,-594,0,0,0,0,0,0,0,0,0,-1,622,1618,0,0
-595,-594,0,0,0,0,0,0,0,0,0,-1,629,1618,0,0
-588,-594,0,0,0,0,0,0,0,0,0,-1,636,1618,0,0
-581,-594,0,0,0,0,0,0,0,0,0,-1,643,1618,0,0
-574,-594,0,0,0,0,0,0,0,0,0,-1,650,1618,0,0
-567,-594,0,0,0,0,0,0,0,0,0,-1,657,1618,0,0
-560,-594,0,0,0,0,0,0,0,0,0,-1,664,1618,0,0
-553,-594,0,0,0,0,0,0,0,0,0,-1,671,1618,0,0
-546,-594,0,0,0,0,0,0,0,0,0,-1,678,1618,0,0
-539,-594,0,0,0,0,0,0,0,0,0,-1,685,1618,0,0
-532,-594,0,0,0,0,0,0,0,0,0,-1,692,1618,0,0
-525,-594,0,0,0,0,0,0,0,0,0,-1,699,1618,0,0
-518,-594,0,0,0,0,0,0,0,0,0,-1,706,1618,0,0
-511,-594,0,0,0,0,0,0,0,0,0,-1,713,1618,0,0
-504,-594,0,0,0,0,0,0,0,0,0,-1,720,1618,0,0
-497,-594,0,0,0,0,0,0,0,0,0,-1,727,1618,0,0
-490,-594,0,0,0,0,0,0,0,0,0,-1,734,1618,0,0
-483,-594,0,0,0,0,0,0,0,0,0,-1,741,1618,0,0
-476,-594,0,0,0,0,0,0,0,0,0,-1,748,1618,0,0
-469,-594,0,0,0,0,0,0,0,0,0,-1,755,1618,0,0
-462,-594,0,0,0,0,0,0,0,0,0,-1,762,1618,0,0
-455,-594,-0.509216,-1.58411,0,0,0,0,0,0,0,-1,769,1618,-0.509245,1.58415
-448,-594,-7.71887,-0.0559082,0,0,0,0,0,0,0,-1,776,1618,-7.71885,0.055939
-441,-594,-5.78473,1.18298,0,0,0,0,0,0,0,-1,783,1618,-5.78474,-1.18295
-434,-594,-3.93628,3.06213,0,0,0,0,0,0,0,-1,790,1618,-3.93631,-3.06208
-427,-594,-3.97693,6.77759,0,0,0,0,0,0,0,-1,797,1618,-3.97695,-6.77764
-420,-594,-2.53046,7.71606,0,0,0,0,0,0,0,-1,804,1618,-2.53047,-7.71609
-413,-594,-0.860413,8.00391,0,0,0,0,0,0,0,-1,811,1618,-0.860423,-8.00389
-406,-594,2.38037,13.179,0,0,0,0,0,0,0,-1,818,1618,2.38037,-13.1789
-399,-594,2.50525,16.056,0,0,0,0,0,0,0,-1,825,1618,2.50526,-16.056
-392,-594,2.42603,16.6445,-0.0115113,0.00361273,-0.000102762,0.00361342,-0.011512,-1.564,0.00912091,0.0476056,832,1618,2.42601,-16.6446
-385,-594,2.15521,17.3535,-0.00887174,0.00230318,0.000262913,0.00230936,-0.00887792,1.54729,0.00682,0.0312157,839,1618,2.15521,-17.3536
-378,-594,1.96637,17.6995,-0.00653232,0.00151496,0.000506258,0.00154669,-0.00656405,1.50821,0.00497243,0.0136764,846,1618,1.96636,-17.6994
-371,-594,1.97015,18.1163,-0.00472292,0.000877939,0.000526214,0.000926949,-0.00477193,1.47793,0.00353106,0.0118463,853,1618,1.97017,-18.1163
-364,-594,1.98486,18.4821,-0.0032271,0.000426101,0.000548947,0.000506805,-0.0033078,1.42483,0.0023921,0.010378,860,1618,1.98484,-18.4821
-357,-594,1.9809,18.8337,-0.00197105,0.000253318,0.000581803,0.000396302,-0.00211403,1.32981,0.00155834,0.0106151,867,1618,1.98088,-18.8337
-350,-594,1.94604,19.2449,-0.000891759,0.000223772,0.000606754,0.000490175,-0.00115816,1.15708,0.000977368,0.0149422,874,1618,1.94603,-19.2449
-343,-594,1.9278,19.6298,-1.35083e-05,0.000356841,0.000717876,0.00091304,-0.000569707,0.911621,0.000863681,0.0160976,881,1618,1.92778,-19.6298
-336,-594,1.90894,19.9519,0.000764843,0.000543945,0.000764719,0.00142705,-0.00011826,0.713678,0.000993135,0.0136187,888,1618,1.90897,-19.9519
-329,-594,1.91455,20.3424,0.001416,0.00105854,0.000832554,0.0020888,0.000385749,0.679664,0.00128342,0.0137593,895,1618,1.91453,-20.3425
-322,-594,1.94617,20.7388,0.00180533,0.00159234,0.000915732,0.00262074,0.00077693,0.72751,0.00155431,0.0161027,902,1618,1.94616,-20.7388
-315,-594,1.95526,21.0649,0.00209941,0.00204446,0.000950401,0.00302274,0.00112114,0.770948,0.00176446,0.0162351,909,1618,1.95524,-21.065
-308,-594,1.94067,21.4169,0.00248123,0.00238049,0.00100288,0.003435,0.00142672,0.760306,0.00199265,0.0144342,916,1618,1.94069,-21.4169
-301,-594,1.92999,21.7532,0.00309315,0.00271769,0.0012288,0.00414848,0.00166237,0.709596,0.00241081,0.0113842,923,1618,1.93002,-21.7531
-294,-594,1.96729,22.0806,0.00405489,0.00325868,0.00168815,0.00539124,0.00192233,0.669602,0.00315504,0.0127707,930,1618,1.96726,-22.0806
-287,-594,1.92548,22.4146,0.00537223,0.00354746,0.00232745,0.00695974,0.00195995,0.598598,0.004144,0.0211049,937,1618,1.9255,-22.4146
-280,-594,1.92999,22.8763,0,0,0,0,0,0,0,-1,944,1618,1.92999,-22.8763
-273,-594,1.95612,23.1108,0.00880356,0.00421261,0.00402561,0.0111422,0.001874,0.526281,0.00688894,0.0344664,951,1618,1.95614,-23.1108
-266,-594,1.93054,23.4438,0.0107959,0.00406942,0.00502881,0.0134825,0.00138284,0.490661,0.00856467,0.0442404,958,1618,1.93055,-23.4438
-259,-594,2.1098,23.7034,0,0,0,0,0,0,0,-1,965,1618,2.10983,-23.7034
-252,-594,2.34747,24.189,0,0,0,0,0,0,0,-1,972,1618,2.34745,-24.1889
-245,-594,2.44519,24.7969,0,0,0,0,0,0,0,-1,979,1618,2.44518,-24.7968
-238,-594,2.24548,25.8239,0,0,0,0,0,0,0,-1,986,1618,2.24551,-25.8239
-231,-594,1.93774,9.35388,0,0,0,0,0,0,0,-1,993,1618,1.93776,-9.35393
-224,-594,1.81824,8.62744,0,0,0,0,0,0,0,-1,1000,1618,1.81822,-8.62745
-217,-594,-8.24066,12.0752,0,0,0,0,0,0,0,-1,1007,1618,-8.24068,-12.0751
-210,-594,-5.61438,14.2119,0,0,0,0,0,0,0,-1,1014,1618,-5.6144,-14.212
-203,-594,-3.94507,15.5768,0,0,0,0,0,0,0,-1,1021,1618,-3.94506,-15.5768
-196,-594,2.78613,10.5815,0,0,0,0,0,0,0,-1,1028,1618,2.78612,-10.5815
-189,-594,2.60913,9.48865,0,0,0,0,0,0,0,-1,1035,1618,2.6091,-9.48871
-182,-594,1.2395,9.38806,0,0,0,0,0,0,0,-1,1042,1618,1.23951,-9.38804
-175,-594,0.234863,8.73792,0,0,0,0,0,0,0,-1,1049,1618,0.234812,-8.73786
-168,-594,-0.495483,8.46289,0,0,0,0,0,0,0,-1,1056,1618,-0.495513,-8.46285
-161,-594,-1.39734,8.28699,0,0,0,0,0,0,0,-1,1063,1618,-1.39729,-8.28699
-154,-594,-0.000854492,7.68445,0,0,0,0,0,0,0,-1,1070,1618,-0.000805755,-7.6845
-147,-594,0.348267,9.3385,0,0,0,0,0,0,0,-1,1077,1618,0.348237,-9.33849
-140,-594,0.675171,11.5884,0,0,0,0,0,0,0,-1,1084,1618,0.675204,-11.5884
-133,-594,0,0,0,0,0,0,0,0,0,-1,1091,1618,0,0
-126,-594,0,0,0,0,0,0,0,0,0,-1,1098,1618,0,0
-119,-594,0,0,0,0,0,0,0,0,0,-1,1105,1618,0,0
-112,-594,0,0,0,0,0,0,0,0,0,-1,1112,1618,0,0
-105,-594,0,0,0,0,0,0,0,0,0,-1,1119,1618,0,0
-98,-594,0,0,0,0,0,0,0,0,0,-1,1126,1618,0,0
-91,-594,0,0,0,0,0,0,0,0,0,-1,1133,1618,0,0
-84,-594,0,0,0,0,0,0,0,0,0,-1,1140,1618,0,0
-77,-594,0,0,0,0,0,0,0,0,0,-1,1147,1618,0,0
-70,-594,0,0,0,0,0,0,0,0,0,-1,1154,1618,0,0
-63,-594,0,0,0,0,0,0,0,0,0,-1,1161,1618,0,0
-56,-594,0,0,0,0,0,0,0,0,0,-1,1168,1618,0,0
-49,-594,0,0,0,0,0,0,0,0,0,-1,1175,1618,0,0
-42,-594,0,0,0,0,0,0,0,0,0,-1,1182,1618,0,0
-35,-594,0,0,0,0,0,0,0,0,0,-1,1189,1618,0,0
-28,-594,0,0,0,0,0,0,0,0,0,-1,1196,1618,0,0
-21,-594,0,0,0,0,0,0,0,0,0,-1,1203,1618,0,0
-14,-594,0,0,0,0,0,0,0,0,0,-1,1210,1618,0,0
-7,-594,0,0,0,0,0,0,0,0,0,-1,1217,1618,0,0
0,-594,0,0,0,0,0,0,0,0,0,-1,1224,1618,0,0
7,-594,0,0,0,0,0,0,0,0,0,-1,1231,1618,0,0
14,-594,0,0,0,0,0,0,0,0,0,-1,1238,1618,0,0
21,-594,0,0,0,0,0,0,0,0,0,-1,1245,1618,0,0
28,-594,0,0,0,0,0,0,0,0,0,-1,1252,1618,0,0
35,-594,0,0,0,0,0,0,0,0,0,-1,1259,1618,0,0
42,-594,0,0,0,0,0,0,0,0,0,-1,1266,1618,0,0
49,-594,0,0,0,0,0,0,0,0,0,-1,1273,1618,0,0
56,-594,0,0,0,0,0,0,0,0,0,-1,1280,1618,0,0
63,-594,0,0,0,0,0,0,0,0,0,-1,1287,1618,0,0
70,-594,0,0,0,0,0,0,0,0,0,-1,1294,1618,0,0
77,-594,0,0,0,0,0,0,0,0,0,-1,1301,1618,0,0
84,-594,0,0,0,0,0,0,0,0,0,-1,1308,1618,0,0
91,-594,0,0,0,0,0,0,0,0,0,-1,1315,1618,0,0
98,-594,0,0,0,0,0,0,0,0,0,-1,1322,1618,0,0
105,-594,0,0,0,0,0,0,0,0,0,-1,1329,1618,0,0
112,-594,0,0,0,0,0,0,0,0,0,-1,1336,1618,0,0
119,-594,0,0,0,0,0,0,0,0,0,-1,1343,1618,0,0
126,-594,0,0,0,0,0,0,0,0,0,-1,1350,1618,0,0
133,-594,0,0,0,0,0,0,0,0,0,-1,1357,1618,0,0
140,-594,0,0,0,0,0,0,0,0,0,-1,1364,1618,0,0
147,-594,0,0,0,0,0,0,0,0,0,-1,1371,1618,0,0
154,-594,0,0,0,0,0,0,0,0,0,-1,1378,1618,0,0
161,-594,0,0,0,0,0,0,0,0,0,-1,1385,1618,0,0
168,-594,0,0,0,0,0,0,0,0,0,-1,1392,1618,0,0
175,-594,0,0,0,0,0,0,0,0,0,-1,1399,1618,0,0
182,-594,0,0,0,0,0,0,0,0,0,-1,1406,1618,0,0
189,-594,0,0,0,0,0,0,0,0,0,-1,1413,1618,0,0
196,-594,0,0,0,0,0,0,0,0,0,-1,1420,1618,0,0
203,-594,0,0,0,0,0,0,0,0,0,-1,1427,1618,0,0
210,-594,0,0,0,0,0,0,0,0,0,-1,1434,1618,0,0
217,-594,0,0,0,0,0,0,0,0,0,-1,1441,1618,0,0
224,-594,0,0,0,0,0,0,0,0,0,-1,1448,1618,0,0
231,-594,0,0,0,0,0,0,0,0,0,-1,1455,1618,0,0
238,-594,0,0,0,0,0,0,0,0,0,-1,1462,1618,0,0
245,-594,0,0,0,0,0,0,0,0,0,-1,1469,1618,0,0
252,-594,3.03674,1.20996,0,0,0,0,0,0,0,-1,1476,1618,3.0368,-1.20999
259,-594,4.79834,1.53113,0,0,0,0,0,0,0,-1,1483,1618,4.79837,-1.53118
266,-594,3.71606,2.68152,0,0,0,0,0,0,0,-1,1490,1618,3.71609,-2.68149
273,-594,9.7655,6.33557,0,0,0,0,0,0,0,-1,1497,1618,9.76555,-6.33554
280,-594,3.13281,0.911255,0,0,0,0,0,0,0,-1,1504,1618,3.13277,-0.911207
287,-594,4.42749,1.51563,0,0,0,0,0,0,0,-1,1511,1618,4.42747,-1.51564
294,-594,5.36475,3.34937,0,0,0,0,0,0,0,-1,1518,1618,5.36475,-3.3494
301,-594,7.97144,9.04333,0,0,0,0,0,0,0,-1,1525,1618,7.9714,-9.04328
308,-594,6.30347,10.4633,0,0,0,0,0,0,0,-1,1532,1618,6.30351,-10.4633
315,-594,4.62012,11.934,0,0,0,0,0,0,0,-1,1539,1618,4.62006,-11.934
322,-594,2.91528,13.3134,0,0,0,0,0,0,0,-1,1546,1618,2.91523,-13.3133
329,-594,4.19861,9.77258,0,0,0,0,0,0,0,-1,1553,1618,4.19865,-9.77264
336,-594,10.1353,4.66528,0,0,0,0,0,0,0,-1,1560,1618,10.1353,-4.66533
343,-594,10.5729,3.71228,0,0,0,0,0,0,0,-1,1567,1618,10.5729,-3.71232
350,-594,10.219,2.98792,0,0,0,0,0,0,0,-1,1574,1618,10.219,-2.98797
357,-594,9.83154,1.96326,0,0,0,0,0,0,0,-1,1581,1618,9.8315,-1.96321
364,-594,9.74939,0.700562,0,0,0,0,0,0,0,-1,1588,1618,9.74939,-0.700615
371,-594,8.54297,14.3988,0,0,0,0,0,0,0,-1,1595,1618,8.54296,-14.3989
378,-594,8.9137,16.3073,0,0,0,0,0,0,0,-1,1602,1618,8.91369,-16.3072
385,-594,11.1162,25.646,0,0,0,0,0,0,0,-1,1609,1618,11.1162,-25.6459
392,-594,11.3209,24.9628,0.00558046,0.0148713,-0.00408349,0.0164109,0.00404082,-1.21024,0.00987325,0.0493004,1616,1618,11.321,-24.9627
399,-594,11.5126,24.3107,0.00365195,0.0115531,-0.00212817,0.0120899,0.00311519,-1.32373,0.00724821,0.0429382,1623,1618,11.5126,-24.3107
406,-594,11.5138,23.8574,0.00207665,0.00915921,-0.000852204,0.00926031,0.00197555,-1.45272,0.00563173,0.0284449,1630,1618,11.5138,-23.8574
413,-594,11.4447,23.5404,0.000931513,0.00748124,-0.000115078,0.00748326,0.000929492,-1.55323,0.00470968,0.0199506,1637,1618,11.4447,-23.5405
420,-594,11.4729,23.1995,0.000341008,0.00619287,0.000170225,0.00619782,0.000336061,1.54174,0.00402454,0.0150329,1644,1618,11.4729,-23.1995
427,-594,11.4659,22.9148,0.000133371,0.00529546,0.000124175,0.00529845,0.000130385,1.54676,0.00348965,0.0116187,1651,1618,11.4659,-22.9148
434,-594,11.4156,22.5861,1.69952e-07,0.00429878,0.000159676,0.00430471,-5.75325e-06,1.53372,0.00287172,0.0165812,1658,1618,11.4156,-22.586
441,-594,11.4175,22.2471,9.39966e-05,0.00366199,-2.35757e-05,0.00366214,9.38408e-05,-1.56419,0.00241076,0.0153236,1665,1618,11.4175,-22.2471
448,-594,11.4619,21.9093,0.000136082,0.00291245,-0.000108739,0.0029167,0.000131829,-1.53171,0.00190205,0.0162338,1672,1618,11.4619,-21.9093
455,-594,11.4443,21.5831,0.000326627,0.00246206,-0.000358533,0.00252065,0.000268038,-1.40881,0.00159859,0.0129929,1679,1618,11.4444,-21.5831
462,-594,11.4366,21.2511,0.000600098,0.00224286,-0.000681983,0.00248908,0.00035388,-1.22433,0.00155491,0.0139584,1686,1618,11.4366,-21.2511
469,-594,11.4331,20.9307,0.000735782,0.0018571,-0.000901647,0.00235819,0.000234694,-1.06355,0.00150003,0.0118707,1693,1618,11.4331,-20.9307
476,-594,11.4202,20.5911,0.000673848,0.00142244,-0.000969426,0.00208732,8.96829e-06,-0.969631,0.00138856,0.0129342,1700,1618,11.4201,-20.5911
483,-594,11.416,20.2435,0.000542879,0.00103271,-0.000977094,0.00179512,-0.000219528,-0.908196,0.00127623,0.0159661,1707,1618,11.416,-20.2435
490,-594,11.3921,19.8807,0.000208814,0.000698218,-0.00087896,0.0013659,-0.000458871,-0.92116,0.00109606,0.0132708,1714,1618,11.392,-19.8807
497,-594,11.389,19.5187,-0.000342336,0.000422787,-0.000778053,0.000907244,-0.000826793,-1.01389,0.00100151,0.0101084,1721,1618,11.3891,-19.5187
504,-594,11.3911,19.1794,-0.00125086,-2.22192e-06,-0.00029094,6.22408e-05,-0.00131532,-1.35275,0.000898349,0.0104583,1728,1618,11.3912,-19.1794
511,-594,11.407,18.8314,-0.00226736,-0.000552909,0.000345374,-0.00048595,-0.00233432,1.3793,0.00142218,0.0140625,1735,1618,11.407,-18.8315
518,-594,11.3784,18.4364,-0.00346565,-0.00106172,0.00107134,-0.000653562,-0.0038738,1.2068,0.0023946,0.0183468,1742,1618,11.3785,-18.4364
525,-594,11.3679,18.0465,-0.00498484,-0.00172013,0.00215366,-0.000650111,-0.00605485,1.10968,0.00383826,0.0297837,1749,1618,11.3679,-18.0465
532,-594,11.3341,17.7495,-0.00707772,-0.00285235,0.00384208,-0.000580407,-0.00934967,1.03677,0.00604893,0.0463326,1756,1618,11.3342,-17.7496
539,-594,11.3312,17.3696,0,0,0,0,0,0,0,-1,1763,1618,11.3312,-17.3696
546,-594,7.48645,8.54785,0,0,0,0,0,0,0,-1,1770,1618,7.48639,-8.54789
553,-594,3.69714,5.68762,0,0,0,0,0,0,0,-1,1777,1618,3.69715,-5.68764
560,-594,6.06616,4.44482,0,0,0,0,0,0,0,-1,1784,1618,6.06621,-4.44477
567,-594,5.97266,4.73303,0,0,0,0,0,0,0,-1,1791,1618,5.97271,-4.73309
574,-594,5.9906,4.96326,0,0,0,0,0,0,0,-1,1798,1618,5.99065,-4.96326
581,-594,0,0,0,0,0,0,0,0,0,-1,1805,1618,0,0
588,-594,0,0,0,0,0,0,0,0,0,-1,1812,1618,0,0
595,-594,0,0,0,0,0,0,0,0,0,-1,1819,1618,0,0
602,-594,0,0,0,0,0,0,0,0,0,-1,1826,1618,0,0
609,-594,0,0,0,0,0,0,0,0,0,-1,1833,1618,0,0
616,-594,0,0,0,0,0,0,0,0,0,-1,1840,1618,0,0
623,-594,0,0,0,0,0,0,0,0,0,-1,1847,1618,0,0
630,-594,0,0,0,0,0,0,0,0,0,-1,1854,1618,0,0
637,-594,0,0,0,0,0,0,0,0,0,-1,1861,1618,0,0
644,-594,0,0,0,0,0,0,0,0,0,-1,1868,1618,0,0
651,-594,0,0,0,0,0,0,0,0,0,-1,1875,1618,0,0
658,-594,0,0,0,0,0,0,0,0,0,-1,1882,1618,0,0
665,-594,0,0,0,0,0,0,0,0,0,-1,1889,1618,0,0
672,-594,0,0,0,0,0,0,0,0,0,-1,1896,1618,0,0
679,-594,0,0,0,0,0,0,0,0,0,-1,1903,1618,0,0
686,-594,0,0,0,0,0,0,0,0,0,-1,1910,1618,0,0
693,-594,0,0,0,0,0,0,0,0,0,-1,1917,1618,0,0
700,-594,0,0,0,0,0,0,0,0,0,-1,1924,1618,0,0
707,-594,0,0,0,0,0,0,0,0,0,-1,1931,1618,0,0
714,-594,0,0,0,0,0,0,0,0,0,-1,1938,1618,0,0
721,-594,0,0,0,0,0,0,0,0,0,-1,1945,1618,0,0
728,-594,0,0,0,0,0,0,0,0,0,-1,1952,1618,0,0
735,-594,0,0,0,0,0,0,0,0,0,-1,1959,1618,0,0
742,-594,0,0,0,0,0,0,0,0,0,-1,1966,1618,0,0
749,-594,0,0,0,0,0,0,0,0,0,-1,1973,1618,0,0
756,-594,0,0,0,0,0,0,0,0,0,-1,1980,1618,0,0
763,-594,0,0,0,0,0,0,0,0,0,-1,1987,1618,0,0
770,-594,0,0,0,0,0,0,0,0,0,-1,1994,1618,0,0
777,-594,0,0,0,0,0,0,0,0,0,-1,2001,1618,0,0
784,-594,0,0,0,0,0,0,0,0,0,-1,2008,1618,0,0
791,-594,0,0,0,0,0,0,0,0,0,-1,2015,1618,0,0
798,-594,0,0,0,0,0,0,0,0,0,-1,2022,1618,0,0
805,-594,0,0,0,0,0,0,0,0,0,-1,2029,1618,0,0
812,-594,0,0,0,0,0,0,0,0,0,-1,2036,1618,0,0
-700,-601,0,0,0,0,0,0,0,0,0,-1,524,1625,0,0
-693,-601,0,0,0,0,0,0,0,0,0,-1,531,1625,0,0
-686,-601,0,0,0,0,0,0,0,0,0,-1,538,1625,0,0
-679,-601,0,0,0,0,0,0,0,0,0,-1,545,1625,0,0
-672,-601,0,0,0,0,0,0,0,0,0,-1,552,1625,0,0
-665,-601,0,0,0,0,0,0,0,0,0,-1,559,1625,0,0
-658,-601,0,0,0,0,0,0,0,0,0,-1,566,1625,0,0
-651,-601,0,0,0,0,0,0,0,0,0,-1,573,1625,0,0
-644,-601,0,0,0,0,0,0,0,0,0,-1,580,1625,0,0
-637,-601,0,0,0,0,0,0,0,0,0,-1,587,1625,0,0
-630,-601,0,0,0,0,0,0,0,0,0,-1,594,1625,0,0
-623,-601,0,0,0,0,0,0,0,0,0,-1,601,1625,0,0
-616,-601,0,0,0,0,0,0,0,0,0,-1,608,1625,0,0
-609,-601,0,0,0,0,0,0,0,0,0,-1,615,1625,0,0
-602,-601,0,0,0,0,0,0,0,0,0,-1,622,1625,0,0
-595,-601,0,0,0,0,0,0,0,0,0,-1,629,1625,0,0
-588,-601,0,0,0,0,0,0,0,0,0,-1,636,1625,0,0
-581,-601,0,0,0,0,0,0,0,0,0,-1,643,1625,0,0
-574,-601,0,0,0,0,0,0,0,0,0,-1,650,1625,0,0
-567,-601,0,0,0,0,0,0,0,0,0,-1,657,1625,0,0
-560,-601,0,0,0,0,0,0,0,0,0,-1,664,1625,0,0
-553,-601,0,0,0,0,0,0,0,0,0,-1,671,1625,0,0
-546,-601,0,0,0,0,0,0,0,0,0,-1,678,1625,0,0
-539,-601,0,0,0,0,0,0,0,0,0,-1,685,1625,0,0
-532,-601,0,0,0,0,0,0,0,0,0,-1,692,1625,0,0
-525,-601,0,0,0,0,0,0,0,0,0,-1,699,1625,0,0
-518,-601,0,0,0,0,0,0,0,0,0,-1,706,1625,0,0
-511,-601,0,0,0,0,0,0,0,0,0,-1,713,1625,0,0
-504,-601,0,0,0,0,0,0,0,0,0,-1,720,1625,0,0
-497,-601,0,0,0,0,0,0,0,0,0,-1,727,1625,0,0
-490,-601,0,0,0,0,0,0,0,0,0,-1,734,1625,0,0
-483,-601,0,0,0,0,0,0,0,0,0,-1,741,1625,0,0
-476,-601,0,0,0,0,0,0,0,0,0,-1,748,1625,0,0
-469,-601,0,0,0,0,0,0,0,0,0,-1,755,1625,0,0
-462,-601,0,0,0,0,0,0,0,0,0,-1,762,1625,0,0
-455,-601,0,0,0,0,0,0,0,0,0,-1,769,1625,0,0
-448,-601,-7.07623,2.7616,0,0,0,0,0,0,0,-1,776,1625,-7.07626,-2.76161
-441,-601,-6.06689,3.33447,0,0,0,0,0,0,0,-1,783,1625,-6.06691,-3.33448
-434,-601,-5.02655,3.8468,0,0,0,0,0,0,0,-1,790,1625,-5.02657,-3.84674
-427,-601,-5.78601,4.2406,0,0,0,0,0,0,0,-1,797,1625,-5.786,-4.24058
-420,-601,-5.5191,5.60364,0,0,0,0,0,0,0,-1,804,1625,-5.51907,-5.60368
-413,-601,-4.30756,5.86047,0,0,0,0,0,0,0,-1,811,1625,-4.30757,-5.86046
-406,-601,-1.67493,7.20422,0,0,0,0,0,0,0,-1,818,1625,-1.67493,-7.20428
-399,-601,1.40094,15.3108,0,0,0,0,0,0,0,-1,825,1625,1.40096,-15.3107
-392,-601,2.77814,16.8622,0,0,0,0,0,0,0,-1,832,1625,2.77812,-16.8622
-385,-601,2.65997,17.3474,-0.0114323,0.00322748,0.000309501,0.00323402,-0.0114388,1.5497,0.0089019,0.0450887,839,1625,2.65996,-17.3474
-378,-601,2.38385,17.8157,-0.00834308,0.00207543,0.000556658,0.00210509,-0.00837274,1.51757,0.00639998,0.0356971,846,1625,2.38388,-17.8157
-371,-601,2.32043,18.0856,-0.00603736,0.00102226,0.00040797,0.00104576,-0.00606086,1.51326,0.00443049,0.0195868,853,1625,2.32046,-18.0856
-364,-601,2.32996,18.4762,-0.00419022,0.000299141,0.000303999,0.000319633,-0.00421071,1.50349,0.00291952,0.0115972,860,1625,2.32997,-18.4762
-357,-601,2.31427,18.8572,-0.00269038,-5.71511e-05,0.000313973,-2.02322e-05,-0.0027273,1.45375,0.00181149,0.0100892,867,1625,2.31428,-18.8571
-350,-601,2.33478,19.2852,-0.00145254,-0.000256112,0.000330328,-0.000170968,-0.00153768,1.31853,0.000973149,0.0205053,874,1625,2.3348,-19.2852
-343,-601,2.30603,19.6908,-0.000481359,-0.000270626,0.000441028,7.7448e-05,-0.000829433,0.902656,0.000580496,0.0216876,881,1625,2.30602,-19.6908
-336,-601,2.26996,20.0015,0.00037607,-0.000196298,0.000492203,0.000659241,-0.000479469,0.52207,0.00066016,0.0179286,888,1625,2.26994,-20.0014
-329,-601,2.27222,20.3682,0.00107592,0.000253592,0.000575761,0.00137225,-4.27452e-05,0.475328,0.000929412,0.0146908,895,1625,2.27221,-20.3682
-322,-601,2.28107,20.735,0.00145402,0.000779235,0.000688005,0.00188291,0.000350347,0.557432,0.00115632,0.0122738,902,1625,2.28109,-20.735
-315,-601,2.30554,21.0535,0.00170029,0.00121788,0.000769942,0.00226592,0.000652246,0.633604,0.00134691,0.0125959,909,1625,2.30552,-21.0535
-308,-601,2.29535,21.4121,0.00202719,0.00156741,0.000861436,0.00268889,0.000905719,0.655003,0.00157974,0.0118023,916,1625,2.29535,-21.4122
-301,-601,2.30298,21.7626,0.00255074,0.0019181,0.00108377,0.00336341,0.00110543,0.643408,0.00197951,0.0100441,923,1625,2.303,-21.7626
-294,-601,2.28864,22.0858,0.00336566,0.00246823,0.00148376,0.00446707,0.00136682,0.638561,0.002643,0.0103182,930,1625,2.28862,-22.0858
-287,-601,2.25354,22.447,0.00444025,0.0028123,0.00199677,0.00578258,0.00146998,0.591858,0.00347043,0.0104829,937,1625,2.25353,-22.4471
-280,-601,2.27533,22.8116,0.00573549,0.00315214,0.00258699,0.00733534,0.00155228,0.553856,0.00446369,0.0131082,944,1625,2.27534,-22.8117
-273,-601,2.28827,23.1671,0.00721104,0.0034225,0.00324322,0.00907266,0.00156087,0.521086,0.00560112,0.0150081,951,1625,2.28829,-23.1671
-266,-601,2.33008,23.4924,0.00888004,0.00326476,0.00396136,0.0109278,0.00121697,0.477109,0.00691535,0.0189772,958,1625,2.33009,-23.4925
-259,-601,2.39282,23.6968,0.010987,0.00320434,0.00491784,0.0133669,0.000824502,0.450701,0.00864951,0.0294743,965,1625,2.39284,-23.6968
-252,-601,2.54413,24.1067,0.0134873,0.00330847,0.00632737,0.0165181,0.000277676,0.446704,0.0109207,0.0444506,972,1625,2.54411,-24.1067
-245,-601,2.71234,24.6619,0.0163216,0.00316552,0.00794827,0.0200608,-0.000573689,0.439724,0.0135691,0.0444437,979,1625,2.71232,-24.6619
-238,-601,3.10114,24.7166,0,0,0,0,0,0,0,-1,986,1625,3.10116,-24.7165
-231,-601,2.66772,13.7051,0,0,0,0,0,0,0,-1,993,1625,2.6677,-13.7051
-224,-601,-0.0305176,9.13684,0,0,0,0,0,0,0,-1,1000,1625,-0.030498,-9.13681
-217,-601,3.39429,10.3898,0,0,0,0,0,0,0,-1,1007,1625,3.39431,-10.3898
-210,-601,-6.53699,15.7931,0,0,0,0,0,0,0,-1,1014,1625,-6.53697,-15.7931
-203,-601,2.69348,15.9099,0,0,0,0,0,0,0,-1,1021,1625,2.69351,-15.91
-196,-601,2.66992,16.1815,0,0,0,0,0,0,0,-1,1028,1625,2.66995,-16.1815
-189,-601,2.849,16.6105,0,0,0,0,0,0,0,-1,1035,1625,2.84902,-16.6104
-182,-601,1.82153,13.9752,0,0,0,0,0,0,0,-1,1042,1625,1.82155,-13.9752
-175,-601,0.544922,9.28687,0,0,0,0,0,0,0,-1,1049,1625,0.544879,-9.28685
-168,-601,-0.247559,8.97461,0,0,0,0,0,0,0,-1,1056,1625,-0.247598,-8.97466
-161,-601,-1.16833,8.80078,0,0,0,0,0,0,0,-1,1063,1625,-1.16837,-8.80081
-154,-601,1.12756,7.94861,0,0,0,0,0,0,0,-1,1070,1625,1.12762,-7.94855
-147,-601,1.35352,9.55432,0,0,0,0,0,0,0,-1,1077,1625,1.35351,-9.55429
-140,-601,1.72437,11.1498,0,0,0,0,0,0,0,-1,1084,1625,1.72432,-11.1498
-133,-601,2.13281,12.8347,0,0,0,0,0,0,0,-1,1091,1625,2.13287,-12.8348
-126,-601,3.09534,15.427,0,0,0,0,0,0,0,-1,1098,1625,3.0953,-15.4271
-119,-601,1.22485,9.43457,0,0,0,0,0,0,0,-1,1105,1625,1.22489,-9.43456
-112,-601,0,0,0,0,0,0,0,0,0,-1,1112,1625,0,0
-105,-601,0,0,0,0,0,0,0,0,0,-1,1119,1625,0,0
-98,-601,0,0,0,0,0,0,0,0,0,-1,1126,1625,0,0
-91,-601,0,0,0,0,0,0,0,0,0,-1,1133,1625,0,0
-84,-601,0,0,0,0,0,0,0,0,0,-1,1140,1625,0,0
-77,-601,0,0,0,0,0,0,0,0,0,-1,1147,1625,0,0
-70,-601,0,0,0,0,0,0,0,0,0,-1,1154,1625,0,0
-63,-601,0,0,0,0,0,0,0,0,0,-1,1161,1625,0,0
-56,-601,0,0,0,0,0,0,0,0,0,-1,1168,1625,0,0
-49,-601,0,0,0,0,0,0,0,0,0,-1,1175,1625,0,0
-42,-601,0,0,0,0,0,0,0,0,0,-1,1182,1625,0,0
-35,-601,0,0,0,0,0,0,0,0,0,-1,1189,1625,0,0
-28,-601,0,0,0,0,0,0,0,0,0,-1,1196,1625,0,0
-21,-601,0,0,0,0,0,0,0,0,0,-1,1203,1625,0,0
-14,-601,0,0,0,0,0,0,0,0,0,-1,1210,1625,0,0
-7,-601,0,0,0,0,0,0,0,0,0,-1,1217,1625,0,0
0,-601,0,0,0,0,0,0,0,0,0,-1,1224,1625,0,0
7,-601,0,0,0,0,0,0,0,0,0,-1,1231,1625,0,0
14,-601,0,0,0,0,0,0,0,0,0,-1,1238,1625,0,0
21,-601,0,0,0,0,0,0,0,0,0,-1,1245,1625,0,0
28,-601,0,0,0,0,0,0,0,0,0,-1,1252,1625,0,0
35,-601,0,0,0,0,0,0,0,0,0,-1,1259,1625,0,0
42,-601,0,0,0,0,0,0,0,0,0,-1,1266,1625,0,0
49,-601,0,0,0,0,0,0,0,0,0,-1,1273,1625,0,0
56,-601,0,0,0,0,0,0,0,0,0,-1,1280,1625,0,0
63,-601,0,0,0,0,0,0,0,0,0,-1,1287,1625,0,0
70,-601,0,0,0,0,0,0,0,0,0,-1,1294,1625,0,0
77,-601,0,0,0,0,0,0,0,0,0,-1,1301,1625,0,0
84,-601,0,0,0,0,0,0,0,0,0,-1,1308,1625,0,0
91,-601,0,0,0,0,0,0,0,0,0,-1,1315,1625,0,0
98,-601,0,0,0,0,0,0,0,0,0,-1,1322,1625,0,0
105,-601,0,0,0,0,0,0,0,0,0,-1,1329,1625,0,0
112,-601,0,0,0,0,0,0,0,0,0,-1,1336,1625,0,0
119,-601,0,0,0,0,0,0,0,0,0,-1,1343,1625,0,0
126,-601,0,0,0,0,0,0,0,0,0,-1,1350,1625,0,0
133,-601,0,0,0,0,0,0,0,0,0,-1,1357,1625,0,0
140,-601,0,0,0,0,0,0,0,0,0,-1,1364,1625,0,0
147,-601,0,0,0,0,0,0,0,0,0,-1,1371,1625,0,0
154,-601,0,0,0,0,0,0,0,0,0,-1,1378,1625,0,0
161,-601,0,0,0,0,0,0,0,0,0,-1,1385,1625,0,0
168,-601,0,0,0,0,0,0,0,0,0,-1,1392,1625,0,0
175,-601,0,0,0,0,0,0,0,0,0,-1,1399,1625,0,0
182,-601,0,0,0,0,0,0,0,0,0,-1,1406,1625,0,0
189,-601,0,0,0,0,0,0,0,0,0,-1,1413,1625,0,0
196,-601,0,0,0,0,0,0,0,0,0,-1,1420,1625,0,0
203,-601,0,0,0,0,0,0,0,0,0,-1,1427,1625,0,0
210,-601,0,0,0,0,0,0,0,0,0,-1,1434,1625,0,0
217,-601,0,0,0,0,0,0,0,0,0,-1,1441,1625,0,0
224,-601,0,0,0,0,0,0,0,0,0,-1,1448,1625,0,0
231,-601,-0.0371094,0.525879,0,0,0,0,0,0,0,-1,1455,1625,-0.0371518,-0.525824
238,-601,2.03369,-1.32861,0,0,0,0,0,0,0,-1,1462,1625,2.03364,1.32858
245,-601,2.71375,2.44983,0,0,0,0,0,0,0,-1,1469,1625,2.71371,-2.44979
252,-601,4.66943,2.28381,0,0,0,0,0,0,0,-1,1476,1625,4.66947,-2.28376
259,-601,6.42712,2.61987,0,0,0,0,0,0,0,-1,1483,1625,6.42711,-2.61985
266,-601,6.75317,1.68701,0,0,0,0,0,0,0,-1,1490,1625,6.75323,-1.687
273,-601,5.4314,2.92053,0,0,0,0,0,0,0,-1,1497,1625,5.43144,-2.92051
280,-601,4.64722,1.17786,0,0,0,0,0,0,0,-1,1504,1625,4.64722,-1.1779
287,-601,5.32532,2.6217,0,0,0,0,0,0,0,-1,1511,1625,5.32535,-2.62171
294,-601,5.97693,4.22693,0,0,0,0,0,0,0,-1,1518,1625,5.97697,-4.22694
301,-601,7.28162,9.50024,0,0,0,0,0,0,0,-1,1525,1625,7.28162,-9.50025
308,-601,6.53528,10.3927,0,0,0,0,0,0,0,-1,1532,1625,6.53529,-10.3927
315,-601,4.88013,11.7184,0,0,0,0,0,0,0,-1,1539,1625,4.88015,-11.7184
322,-601,3.38098,12.7864,0,0,0,0,0,0,0,-1,1546,1625,3.38104,-12.7864
329,-601,1.8772,13.8768,0,0,0,0,0,0,0,-1,1553,1625,1.87716,-13.8768
336,-601,4.67847,9.53308,0,0,0,0,0,0,0,-1,1560,1625,4.67848,-9.53309
343,-601,11.1404,3.14575,0,0,0,0,0,0,0,-1,1567,1625,11.1404,-3.1458
350,-601,10.9462,2.37769,0,0,0,0,0,0,0,-1,1574,1625,10.9461,-2.37764
357,-601,10.7518,1.6095,0,0,0,0,0,0,0,-1,1581,1625,10.7518,-1.60948
364,-601,5.33643,9.74426,0,0,0,0,0,0,0,-1,1588,1625,5.33637,-9.74429
371,-601,8.46387,16.2725,0,0,0,0,0,0,0,-1,1595,1625,8.46385,-16.2725
378,-601,10.6035,25.7844,0,0,0,0,0,0,0,-1,1602,1625,10.6036,-25.7844
385,-601,10.7748,25.053,0,0,0,0,0,0,0,-1,1609,1625,10.7748,-25.053
392,-601,10.963,24.7411,0.00494388,0.0126209,-0.003589,0.0140374,0.00352739,-1.19489,0.00843209,0.0393481,1616,1625,10.963,-24.7411
399,-601,11.0742,24.1536,0.00357919,0.00994472,-0.00215524,0.0106058,0.00291812,-1.27318,0.00632628,0.0225084,1623,1625,11.0742,-24.1536
406,-601,11.1285,23.8265,0.0023695,0.00795321,-0.00114507,0.00817891,0.0021438,-1.37618,0.00489701,0.0142943,1630,1625,11.1286,-23.8265
413,-601,11.1204,23.5049,0.00140469,0.00638716,-0.000469302,0.00643098,0.00136087,-1.4777,0.00391338,0.0123696,1637,1625,11.1204,-23.5049
420,-601,11.1234,23.1934,0.000797376,0.00504599,-8.38456e-05,0.00504764,0.000795722,-1.55107,0.00313371,0.0103888,1644,1625,11.1234,-23.1933
427,-601,11.1188,22.8871,0.000469799,0.00408663,3.14057e-05,0.00408691,0.000469527,1.56211,0.00258236,0.0145205,1651,1625,11.1187,-22.8871
434,-601,11.1023,22.5629,0.000237244,0.0030205,0.00016807,0.00303061,0.000227132,1.5107,0.00194911,0.0153714,1658,1625,11.1023,-22.5629
441,-601,11.1107,22.2289,0.000197817,0.00238513,8.0814e-05,0.00238811,0.000194836,1.53392,0.00153127,0.0167219,1665,1625,11.1107,-22.2289
448,-601,11.1235,21.8949,0.000127575,0.00169565,4.11379e-05,0.00169672,0.000126497,1.54459,0.00109143,0.0144218,1672,1625,11.1235,-21.8949
455,-601,11.1229,21.5626,0.000200882,0.00125234,-0.000123933,0.00126675,0.000186472,-1.45504,0.000789716,0.0128471,1679,1625,11.1229,-21.5626
462,-601,11.1169,21.2439,0.000357034,0.000999874,-0.000367596,0.00116675,0.000190153,-1.14464,0.000722838,0.0111157,1686,1625,11.117,-21.2438
469,-601,11.1071,20.9286,0.00040348,0.000693541,-0.000562634,0.00112954,-3.25147e-05,-0.911537,0.000764093,0.010732,1693,1625,11.1071,-20.9286
476,-601,11.0875,20.598,0.000288273,0.000419523,-0.000653336,0.00101052,-0.000302726,-0.835453,0.000794063,0.0127072,1700,1625,11.0875,-20.5981
483,-601,11.0763,20.2534,6.49565e-05,0.000225905,-0.000687574,0.000837698,-0.000546837,-0.843654,0.00080522,0.0159755,1707,1625,11.0764,-20.2535
490,-601,11.0685,19.9044,-0.00032031,0.000113679,-0.000687678,0.000617786,-0.000824418,-0.938227,0.000835501,0.0124688,1714,1625,11.0684,-19.9044
497,-601,11.0842,19.5457,-0.000869104,0.000104782,-0.000713078,0.000481317,-0.00124564,-1.08497,0.00102909,0.00988012,1721,1625,11.0843,-19.5456
504,-601,11.1093,19.1693,-0.00177508,-5.50738e-05,-0.000361202,1.76998e-05,-0.00184785,-1.37198,0.00123784,0.0177312,1728,1625,11.1092,-19.1694
511,-601,11.0488,18.8951,-0.00283297,-0.000220274,8.55508e-05,-0.000217475,-0.00283577,1.5381,0.00182235,0.0313126,1735,1625,11.0488,-18.8952
518,-601,11.0526,18.4073,-0.00414563,-0.000431426,0.000651859,-0.000320344,-0.00425671,1.40201,0.00273728,0.0465321,1742,1625,11.0526,-18.4073
525,-601,11.0353,17.9318,0,0,0,0,0,0,0,-1,1749,1625,11.0353,-17.9317
532,-601,11.0183,17.7864,0,0,0,0,0,0,0,-1,1756,1625,11.0183,-17.7864
539,-601,7.77112,11.4299,0,0,0,0,0,0,0,-1,1763,1625,7.77116,-11.4299
546,-601,6.56873,3.62354,0,0,0,0,0,0,0,-1,1770,1625,6.56867,-3.62352
553,-601,7.03015,4.25049,0,0,0,0,0,0,0,-1,1777,1625,7.03011,-4.25048
560,-601,7.50745,4.83374,0,0,0,0,0,0,0,-1,1784,1625,7.50744,-4.83376
567,-601,7.82043,3.83301,0,0,0,0,0,0,0,-1,1791,1625,7.82041,-3.83303
574,-601,0,0,0,0,0,0,0,0,0,-1,1798,1625,0,0
581,-601,0,0,0,0,0,0,0,0,0,-1,1805,1625,0,0
588,-601,0,0,0,0,0,0,0,0,0,-1,1812,1625,0,0
595,-601,0,0,0,0,0,0,0,0,0,-1,1819,1625,0,0
602,-601,0,0,0,0,0,0,0,0,0,-1,1826,1625,0,0
609,-601,0,0,0,0,0,0,0,0,0,-1,1833,1625,0,0
616,-601,0,0,0,0,0,0,0,0,0,-1,1840,1625,0,0
623,-601,0,0,0,0,0,0,0,0,0,-1,1847,1625,0,0
630,-601,0,0,0,0,0,0,0,0,0,-1,1854,1625,0,0
637,-601,0,0,0,0,0,0,0,0,0,-1,1861,1625,0,0
644,-601,0,0,0,0,0,0,0,0,0,-1,1868,1625,0,0
651,-601,0,0,0,0,0,0,0,0,0,-1,1875,1625,0,0
658,-601,0,0,0,0,0,0,0,0,0,-1,1882,1625,0,0
665,-601,0,0,0,0,0,0,0,0,0,-1,1889,1625,0,0
672,-601,0,0,0,0,0,0,0,0,0,-1,1896,1625,0,0
679,-601,0,0,0,0,0,0,0,0,0,-1,1903,1625,0,0
686,-601,0,0,0,0,0,0,0,0,0,-1,1910,1625,0,0
693,-601,0,0,0,0,0,0,0,0,0,-1,1917,1625,0,0
700,-601,0,0,0,0,0,0,0,0,0,-1,1924,1625,0,0
707,-601,0,0,0,0,0,0,0,0,0,-1,1931,1625,0,0
714,-601,0,0,0,0,0,0,0,0,0,-1,1938,1625,0,0
721,-601,0,0,0,0,0,0,0,0,0,-1,1945,1625,0,0
728,-601,0,0,0,0,0,0,0,0,0,-1,1952,1625,0,0
735,-601,0,0,0,0,0,0,0,0,0,-1,1959,1625,0,0
742,-601,0,0,0,0,0,0,0,0,0,-1,1966,1625,0,0
749,-601,0,0,0,0,0,0,0,0,0,-1,1973,1625,0,0
756,-601,0,0,0,0,0,0,0,0,0,-1,1980,1625,0,0
763,-601,0,0,0,0,0,0,0,0,0,-1,1987,1625,0,0
770,-601,0,0,0,0,0,0,0,0,0,-1,1994,1625,0,0
777,-601,0,0,0,0,0,0,0,0,0,-1,2001,1625,0,0
784,-601,0,0,0,0,0,0,0,0,0,-1,2008,1625,0,0
791,-601,0,0,0,0,0,0,0,0,0,-1,2015,1625,0,0
798,-601,0,0,0,0,0,0,0,0,0,-1,2022,1625,0,0
805,-601,0,0,0,0,0,0,0,0,0,-1,2029,1625,0,0
812,-601,0,0,0,0,0,0,0,0,0,-1,2036,1625,0,0
-700,-608,0,0,0,0,0,0,0,0,0,-1,524,1632,0,0
-693,-608,0,0,0,0,0,0,0,0,0,-1,531,1632,0,0
-686,-608,0,0,0,0,0,0,0,0,0,-1,538,1632,0,0
-679,-608,0,0,0,0,0,0,0,0,0,-1,545,1632,0,0
-672,-608,0,0,0,0,0,0,0,0,0,-1,552,1632,0,0
-665,-608,0,0,0,0,0,0,0,0,0,-1,559,1632,0,0
-658,-608,0,0,0,0,0,0,0,0,0,-1,566,1632,0,0
-651,-608,0,0,0,0,0,0,0,0,0,-1,573,1632,0,0
-644,-608,0,0,0,0,0,0,0,0,0,-1,580,1632,0,0
-637,-608,0,0,0,0,0,0,0,0,0,-1,587,1632,0,0
-630,-608,0,0,0,0,0,0,0,0,0,-1,594,1632,0,0
-623,-608,0,0,0,0,0,0,0,0,0,-1,601,1632,0,0
-616,-608,0,0,0,0,0,0,0,0,0,-1,608,1632,0,0
-609,-608,0,0,0,0,0,0,0,0,0,-1,615,1632,0,0
-602,-608,0,0,0,0,0,0,0,0,0,-1,622,1632,0,0
-595,-608,0,0,0,0,0,0,0,0,0,-1,629,1632,0,0
-588,-608,0,0,0,0,0,0,0,0,0,-1,636,1632,0,0
-581,-608,0,0,0,0,0,0,0,0,0,-1,643,1632,0,0
-574,-608,0,0,0,0,0,0,0,0,0,-1,650,1632,0,0
-567,-608,0,0,0,0,0,0,0,0,0,-1,657,1632,0,0
-560,-608,0,0,0,0,0,0,0,0,0,-1,664,1632,0,0
-553,-608,0,0,0,0,0,0,0,0,0,-1,671,1632,0,0
-546,-608,0,0,0,0,0,0,0,0,0,-1,678,1632,0,0
-539,-608,0,0,0,0,0,0,0,0,0,-1,685,1632,0,0
-532,-608,0,0,0,0,0,0,0,0,0,-1,692,1632,0,0
-525,-608,0,0,0,0,0,0,0,0,0,-1,699,1632,0,0
-518,-608,0,0,0,0,0,0,0,0,0,-1,706,1632,0,0
-511,-608,0,0,0,0,0,0,0,0,0,-1,713,1632,0,0
-504,-608,0,0,0,0,0,0,0,0,0,-1,720,1632,0,0
-497,-608,0,0,0,0,0,0,0,0,0,-1,727,1632,0,0
-490,-608,0,0,0,0,0,0,0,0,0,-1,734,1632,0,0
-483,-608,0,0,0,0,0,0,0,0,0,-1,741,1632,0,0
-476,-608,0,0,0,0,0,0,0,0,0,-1,748,1632,0,0
-469,-608,0,0,0,0,0,0,0,0,0,-1,755,1632,0,0
-462,-608,0,0,0,0,0,0,0,0,0,-1,762,1632,0,0
-455,-608,0,0,0,0,0,0,0,0,0,-1,769,1632,0,0
-448,-608,0,0,0,0,0,0,0,0,0,-1,776,1632,0,0
-441,-608,-7.34601,2.78052,0,0,0,0,0,0,0,-1,783,1632,-7.346,-2.78056
-434,-608,-6.34558,3.27405,0,0,0,0,0,0,0,-1,790,1632,-6.34555,-3.27406
-427,-608,-7.74335,4.17688,0,0,0,0,0,0,0,-1,797,1632,-7.74334,-4.17693
-420,-608,-6.82794,4.34839,0,0,0,0,0,0,0,-1,804,1632,-6.82794,-4.34838
-413,-608,-5.41919,5.66138,0,0,0,0,0,0,0,-1,811,1632,-5.41917,-5.66133
-406,-608,-4.79681,4.98999,0,0,0,0,0,0,0,-1,818,1632,-4.79684,-4.98997
-399,-608,-2.60645,6.34167,0,0,0,0,0,0,0,-1,825,1632,-2.60643,-6.34169
-392,-608,2.08356,15.437,0,0,0,0,0,0,0,-1,832,1632,2.08354,-15.437
-385,-608,3.20758,17.3069,0,0,0,0,0,0,0,-1,839,1632,3.20756,-17.3069
-378,-608,2.78687,17.885,0,0,0,0,0,0,0,-1,846,1632,2.78684,-17.885
-371,-608,2.79877,17.9557,0,0,0,0,0,0,0,-1,853,1632,2.79877,-17.9557
-364,-608,2.74408,18.3646,-0.00522871,-0.000184121,-0.000468886,-0.000140909,-0.00527193,-1.4789,0.0034686,0.0255496,860,1632,2.74405,-18.3647
-357,-608,2.69189,18.7971,-0.00355947,-0.000582961,-0.000494427,-0.000502981,-0.00363945,-1.41042,0.00227723,0.0180664,867,1632,2.69188,-18.7971
-350,-608,2.70618,19.2455,-0.00217741,-0.000818792,-0.000469722,-0.000672209,-0.002324,-1.26831,0.00138092,0.0191509,874,1632,2.70618,-19.2455
-343,-608,2.69885,19.65,-0.00111878,-0.000845319,-0.000345812,-0.000610188,-0.00135391,-0.973663,0.000782949,0.0227469,881,1632,2.69884,-19.6501
-336,-608,2.66931,20.0178,-0.000192856,-0.000758242,-0.000265486,-8.77369e-05,-0.000863361,-0.37701,0.000548672,0.0152913,888,1632,2.66933,-20.0179
-329,-608,2.63867,20.3849,0.000543167,-0.00028461,-0.000126845,0.000562168,-0.000303612,-0.148692,0.000507234,0.0134679,895,1632,2.63868,-20.3849
-322,-608,2.62347,20.7284,0.000917318,0.000285898,6.4096e-05,0.000923759,0.000279457,0.10015,0.000547023,0.0137377,902,1632,2.6235,-20.7284
-315,-608,2.65247,21.0658,0.00114323,0.000737014,0.000250134,0.00126233,0.000617911,0.444394,0.00072886,0.013093,909,1632,2.65248,-21.0658
-308,-608,2.64575,21.4285,0.00144925,0.00109747,0.000433114,0.00174082,0.000805894,0.592522,0.00100598,0.0142469,916,1632,2.64575,-21.4284
-301,-608,2.6355,21.771,0.00192397,0.00143533,0.000703871,0.00242472,0.000934581,0.618347,0.00141211,0.0107474,923,1632,2.63549,-21.771
-294,-608,2.63116,22.0925,0.00264564,0.00194713,0.00110006,0.00345055,0.00114222,0.631687,0.00202974,0.011074,930,1632,2.63115,-22.0925
-287,-608,2.59375,22.432,0.00356301,0.00228317,0.00156332,0.00461231,0.00123387,0.591134,0.0027572,0.0107804,937,1632,2.59372,-22.432
-280,-608,2.60742,22.7572,0.00463912,0.00255726,0.0020584,0.00590482,0.00129155,0.5513,0.00358445,0.0082339,944,1632,2.60743,-22.7571
-273,-608,2.61328,23.0885,0.00583596,0.00273083,0.00255639,0.00727431,0.00129248,0.512503,0.00448128,0.00979519,951,1632,2.6133,-23.0885
-266,-608,2.64746,23.4395,0.00722505,0.00263099,0.00308961,0.00877796,0.00107809,0.465744,0.00552777,0.011014,958,1632,2.64744,-23.4395
-259,-608,2.698,23.7605,0.00887383,0.00263526,0.0037609,0.0106407,0.000868417,0.439192,0.00682276,0.0137051,965,1632,2.69798,-23.7606
-252,-608,2.77704,24.0508,0.0107464,0.00274362,0.00478404,0.0129819,0.000508175,0.437123,0.00849027,0.0250901,972,1632,2.77702,-24.0508
-245,-608,2.91266,24.5273,0.0128474,0.00264003,0.00596437,0.0155936,-0.000106214,0.431503,0.0104313,0.0352233,979,1632,2.91267,-24.5273
-238,-608,3.17194,24.723,0.0149497,0.00233174,0.00707259,0.0181183,-0.000836875,0.421201,0.0123673,0.0494218,986,1632,3.17192,-24.723
-231,-608,3.32788,25.166,0,0,0,0,0,0,0,-1,993,1632,3.32785,-25.166
-224,-608,2.51642,15.3452,0,0,0,0,0,0,0,-1,1000,1632,2.5164,-15.3452
-217,-608,1.04419,12.8451,0,0,0,0,0,0,0,-1,1007,1632,1.04418,-12.8451
-210,-608,2.75903,15.9414,0,0,0,0,0,0,0,-1,1014,1632,2.75903,-15.9414
-203,-608,2.76776,16.217,0,0,0,0,0,0,0,-1,1021,1632,2.76773,-16.217
-196,-608,1.53955,18.6058,0,0,0,0,0,0,0,-1,1028,1632,1.53959,-18.6058
-189,-608,1.37634,19.119,0,0,0,0,0,0,0,-1,1035,1632,1.37634,-19.1191
-182,-608,2.89221,16.7092,0,0,0,0,0,0,0,-1,1042,1632,2.89224,-16.7093
-175,-608,0.219116,15.1643,0,0,0,0,0,0,0,-1,1049,1632,0.219173,-15.1644
-168,-608,0.000366211,9.48645,0,0,0,0,0,0,0,-1,1056,1632,0.000317105,-9.48648
-161,-608,2.27832,15.4423,0,0,0,0,0,0,0,-1,1063,1632,2.27826,-15.4423
-154,-608,1.3999,16.4037,0,0,0,0,0,0,0,-1,1070,1632,1.39987,-16.4037
-147,-608,2.4386,9.50317,0,0,0,0,0,0,0,-1,1077,1632,2.43858,-9.50313
-140,-608,2.60132,10.8401,0,0,0,0,0,0,0,-1,1084,1632,2.60134,-10.8401
-133,-608,3.2312,12.4738,0,0,0,0,0,0,0,-1,1091,1632,3.23116,-12.4738
-126,-608,3.76465,13.9644,0,0,0,0,0,0,0,-1,1098,1632,3.76466,-13.9644
-119,-608,4.28906,15.4196,0,0,0,0,0,0,0,-1,1105,1632,4.28911,-15.4195
-112,-608,0.745117,10.5587,0,0,0,0,0,0,0,-1,1112,1632,0.745145,-10.5587
-105,-608,-0.252319,1.42419,0,0,0,0,0,0,0,-1,1119,1632,-0.252331,-1.42418
-98,-608,-2.8595,3.0863,0,0,0,0,0,0,0,-1,1126,1632,-2.85948,-3.08625
-91,-608,-3.71948,1.73608,0,0,0,0,0,0,0,-1,1133,1632,-3.7195,-1.73607
-84,-608,0,0,0,0,0,0,0,0,0,-1,1140,1632,0,0
-77,-608,0,0,0,0,0,0,0,0,0,-1,1147,1632,0,0
-70,-608,0,0,0,0,0,0,0,0,0,-1,1154,1632,0,0
-63,-608,0,0,0,0,0,0,0,0,0,-1,1161,1632,0,0
-56,-608,0,0,0,0,0,0,0,0,0,-1,1168,1632,0,0
-49,-608,0,0,0,0,0,0,0,0,0,-1,1175,1632,0,0
-42,-608,0,0,0,0,0,0,0,0,0,-1,1182,1632,0,0
-35,-608,0,0,0,0,0,0,0,0,0,-1,1189,1632,0,0
-28,-608,0,0,0,0,0,0,0,0,0,-1,1196,1632,0,0
-21,-608,0,0,0,0,0,0,0,0,0,-1,1203,1632,0,0
-14,-608,0,0,0,0,0,0,0,0,0,-1,1210,1632,0,0
-7,-608,0,0,0,0,0,0,0,0,0,-1,1217,1632,0,0
0,-608,0,0,0,0,0,0,0,0,0,-1,1224,1632,0,0
7,-608,0,0,0,0,0,0,0,0,0,-1,1231,1632,0,0
14,-608,0,0,0,0,0,0,0,0,0,-1,1238,1632,0,0
21,-608,0,0,0,0,0,0,0,0,0,-1,1245,1632,0,0
28,-608,0,0,0,0,0,0,0,0,0,-1,1252,1632,0,0
35,-608,0,0,0,0,0,0,0,0,0,-1,1259,1632,0,0
42,-608,0,0,0,0,0,0,0,0,0,-1,1266,1632,0,0
49,-608,0,0,0,0,0,0,0,0,0,-1,1273,1632,0,0
56,-608,0,0,0,0,0,0,0,0,0,-1,1280,1632,0,0
63,-608,0,0,0,0,0,0,0,0,0,-1,1287,1632,0,0
70,-608,0,0,0,0,0,0,0,0,0,-1,1294,1632,0,0
77,-608,0,0,0,0,0,0,0,0,0,-1,1301,1632,0,0
84,-608,0,0,0,0,0,0,0,0,0,-1,1308,1632,0,0
91,-608,0,0,0,0,0,0,0,0,0,-1,1315,1632,0,0
98,-608,0,0,0,0,0,0,0,0,0,-1,1322,1632,0,0
105,-608,0,0,0,0,0,0,0,0,0,-1,1329,1632,0,0
112,-608,0,0,0,0,0,0,0,0,0,-1,1336,1632,0,0
119,-608,0,0,0,0,0,0,0,0,0,-1,1343,1632,0,0
126,-608,0,0,0,0,0,0,0,0,0,-1,1350,1632,0,0
133,-608,0,0,0,0,0,0,0,0,0,-1,1357,1632,0,0
140,-608,0,0,0,0,0,0,0,0,0,-1,1364,1632,0,0
147,-608,0,0,0,0,0,0,0,0,0,-1,1371,1632,0,0
154,-608,0,0,0,0,0,0,0,0,0,-1,1378,1632,0,0
161,-608,0,0,0,0,0,0,0,0,0,-1,1385,1632,0,0
168,-608,0,0,0,0,0,0,0,0,0,-1,1392,1632,0,0
175,-608,0,0,0,0,0,0,0,0,0,-1,1399,1632,0,0
182,-608,0,0,0,0,0,0,0,0,0,-1,1406,1632,0,0
189,-608,0,0,0,0,0,0,0,0,0,-1,1413,1632,0,0
196,-608,0,0,0,0,0,0,0,0,0,-1,1420,1632,0,0
203,-608,0,0,0,0,0,0,0,0,0,-1,1427,1632,0,0
210,-608,5.7157,-0.333008,0,0,0,0,0,0,0,-1,1434,1632,5.71566,0.333004
217,-608,4.49402,-0.831787,0,0,0,0,0,0,0,-1,1441,1632,4.49396,0.831738
224,-608,4.18018,-1.11792,0,0,0,0,0,0,0,-1,1448,1632,4.1802,1.11796
231,-608,0.361816,0.825195,0,0,0,0,0,0,0,-1,1455,1632,0.36185,-0.825226
238,-608,2.85388,-0.28833,0,0,0,0,0,0,0,-1,1462,1632,2.85391,0.288282
245,-608,3.87537,4.02173,0,0,0,0,0,0,0,-1,1469,1632,3.87538,-4.02168
252,-608,5.66956,3.5282,0,0,0,0,0,0,0,-1,1476,1632,5.6696,-3.52815
259,-608,7.47437,3.07178,0,0,0,0,0,0,0,-1,1483,1632,7.4744,-3.07172
266,-608,9.46936,2.34766,0,0,0,0,0,0,0,-1,1490,1632,9.46932,-2.34764
273,-608,6.03003,3.34241,0,0,0,0,0,0,0,-1,1497,1632,6.02997,-3.34245
280,-608,5.72461,2.0769,0,0,0,0,0,0,0,-1,1504,1632,5.72457,-2.07688
287,-608,6.20581,3.59338,0,0,0,0,0,0,0,-1,1511,1632,6.20585,-3.59341
294,-608,6.94922,5.17151,0,0,0,0,0,0,0,-1,1518,1632,6.94925,-5.17151
301,-608,7.60083,6.68018,0,0,0,0,0,0,0,-1,1525,1632,7.60086,-6.68013
308,-608,7.64746,9.93848,0,0,0,0,0,0,0,-1,1532,1632,7.64745,-9.93842
315,-608,5.30688,11.2054,0,0,0,0,0,0,0,-1,1539,1632,5.30694,-11.2054
322,-608,5.32617,13.7581,0,0,0,0,0,0,0,-1,1546,1632,5.32613,-13.758
329,-608,7.12231,13.9607,0,0,0,0,0,0,0,-1,1553,1632,7.12231,-13.9607
336,-608,5.48633,7.82446,0,0,0,0,0,0,0,-1,1560,1632,5.48634,-7.82446
343,-608,5.47192,5.61047,0,0,0,0,0,0,0,-1,1567,1632,5.47192,-5.61045
350,-608,11.6957,1.71387,0,0,0,0,0,0,0,-1,1574,1632,11.6957,-1.71388
357,-608,3.77002,5.10046,0,0,0,0,0,0,0,-1,1581,1632,3.77002,-5.10043
364,-608,5.6925,11.2163,0,0,0,0,0,0,0,-1,1588,1632,5.69255,-11.2163
371,-608,10.4904,25.6984,0,0,0,0,0,0,0,-1,1595,1632,10.4903,-25.6984
378,-608,10.521,25.3861,0.00635442,0.0148698,-0.00508578,0.0172449,0.00397939,-1.1339,0.0104264,0.0435508,1602,1632,10.521,-25.3861
385,-608,10.6486,24.8403,0.00515362,0.0124601,-0.0040287,0.0142453,0.00336843,-1.15368,0.00859693,0.035356,1609,1632,10.6486,-24.8404
392,-608,10.715,24.4717,0.00414086,0.0103194,-0.00303189,0.0115586,0.00290162,-1.18278,0.00694366,0.0222193,1616,1632,10.7149,-24.4717
399,-608,10.7722,24.1246,0.00315894,0.00818277,-0.00199913,0.00888119,0.00246053,-1.23469,0.00529475,0.0111027,1623,1632,10.7722,-24.1247
406,-608,10.8047,23.7986,0.00222798,0.00650797,-0.00120135,0.00682212,0.00191383,-1.31503,0.00406326,0.00989249,1630,1632,10.8047,-23.7985
413,-608,10.7954,23.505,0.00144339,0.0051093,-0.000610739,0.00520837,0.00134432,-1.40998,0.00312215,0.0104327,1637,1632,10.7955,-23.5051
420,-608,10.7625,23.2065,0.000889868,0.00380112,-0.000190365,0.00381351,0.000877473,-1.50578,0.00230618,0.0176522,1644,1632,10.7625,-23.2065
427,-608,10.7677,22.8798,0.000523776,0.00283175,4.19788e-05,0.00283251,0.000523012,1.55262,0.0017404,0.0197518,1651,1632,10.7677,-22.8797
434,-608,10.7704,22.5693,0.000240621,0.00175634,0.00025551,0.00179826,0.000198708,1.40821,0.0011384,0.0156536,1658,1632,10.7703,-22.5693
441,-608,10.7749,22.2526,0.000119582,0.00113301,0.000249299,0.00119101,6.15751e-05,1.34219,0.0007743,0.0140056,1665,1632,10.7749,-22.2526
448,-608,10.7961,21.9182,-9.20154e-06,0.00052062,0.000242665,0.000614963,-0.000103545,1.2,0.000448493,0.0150265,1672,1632,10.7961,-21.9183
455,-608,10.8168,21.5775,-8.91878e-06,9.23124e-05,0.000150981,0.000200936,-0.000117543,0.947133,0.000185963,0.0109836,1679,1632,10.8167,-21.5775
462,-608,10.8037,21.2542,5.80268e-05,-0.000179894,-1.89523e-05,5.9527e-05,-0.000181394,-0.0789943,0.000144906,0.0101051,1686,1632,10.8037,-21.2542
469,-608,10.7734,20.9351,4.29783e-05,-0.000403992,-0.000191921,0.000114077,-0.000475091,-0.35478,0.000360815,0.00822139,1693,1632,10.7735,-20.9351
476,-608,10.7551,20.6012,-9.12045e-05,-0.000513415,-0.000310009,7.27514e-05,-0.000677371,-0.48648,0.000477681,0.00835844,1700,1632,10.7552,-20.6012
483,-608,10.7554,20.2611,-0.00037144,-0.00050482,-0.000381988,-5.03645e-05,-0.000825896,-0.698975,0.0005346,0.00792282,1707,1632,10.7554,-20.2611
490,-608,10.7637,19.917,-0.000775173,-0.000355012,-0.000514334,-9.50875e-06,-0.00112068,-0.979283,0.000743968,0.00861246,1714,1632,10.7637,-19.917
497,-608,10.7595,19.5574,-0.00126734,-1.97616e-05,-0.000714952,0.000305274,-0.00159238,-1.1441,0.00117662,0.0174656,1721,1632,10.7595,-19.5573
504,-608,10.6782,19.2319,-0.00211317,0.000139011,-0.000525152,0.000255444,-0.0022296,-1.35261,0.00157845,0.0408731,1728,1632,10.6783,-19.232
511,-608,10.657,19.0128,0,0,0,0,0,0,0,-1,1735,1632,10.657,-19.0128
518,-608,10.8344,18.3038,0,0,0,0,0,0,0,-1,1742,1632,10.8344,-18.3038
525,-608,11.2109,16.2579,0,0,0,0,0,0,0,-1,1749,1632,11.2109,-16.2579
532,-608,8.27917,11.6693,0,0,0,0,0,0,0,-1,1756,1632,8.27919,-11.6694
539,-608,9.40796,1.43457,0,0,0,0,0,0,0,-1,1763,1632,9.40801,-1.43463
546,-608,9.94031,2.1134,0,0,0,0,0,0,0,-1,1770,1632,9.94031,-2.11346
553,-608,10.363,2.81335,0,0,0,0,0,0,0,-1,1777,1632,10.3631,-2.81333
560,-608,9.23999,4.5636,0,0,0,0,0,0,0,-1,1784,1632,9.24,-4.56354
567,-608,0,0,0,0,0,0,0,0,0,-1,1791,1632,0,0
574,-608,0,0,0,0,0,0,0,0,0,-1,1798,1632,0,0
581,-608,0,0,0,0,0,0,0,0,0,-1,1805,1632,0,0
588,-608,0,0,0,0,0,0,0,0,0,-1,1812,1632,0,0
595,-608,0,0,0,0,0,0,0,0,0,-1,1819,1632,0,0
602,-608,0,0,0,0,0,0,0,0,0,-1,1826,1632,0,0
609,-608,0,0,0,0,0,0,0,0,0,-1,1833,1632,0,0
616,-608,0,0,0,0,0,0,0,0,0,-1,1840,1632,0,0
623,-608,0,0,0,0,0,0,0,0,0,-1,1847,1632,0,0
630,-608,0,0,0,0,0,0,0,0,0,-1,1854,1632,0,0
637,-608,0,0,0,0,0,0,0,0,0,-1,1861,1632,0,0
644,-608,0,0,0,0,0,0,0,0,0,-1,1868,1632,0,0
651,-608,0,0,0,0,0,0,0,0,0,-1,1875,1632,0,0
658,-608,0,0,0,0,0,0,0,0,0,-1,1882,1632,0,0
665,-608,0,0,0,0,0,0,0,0,0,-1,1889,1632,0,0
672,-608,0,0,0,0,0,0,0,0,0,-1,1896,1632,0,0
679,-608,0,0,0,0,0,0,0,0,0,-1,1903,1632,0,0
686,-608,0,0,0,0,0,0,0,0,0,-1,1910,1632,0,0
693,-608,0,0,0,0,0,0,0,0,0,-1,1917,1632,0,0
700,-608,0,0,0,0,0,0,0,0,0,-1,1924,1632,0,0
707,-608,0,0,0,0,0,0,0,0,0,-1,1931,1632,0,0
714,-608,0,0,0,0,0,0,0,0,0,-1,1938,1632,0,0
721,-608,0,0,0,0,0,0,0,0,0,-1,1945,1632,0,0
728,-608,0,0,0,0,0,0,0,0,0,-1,1952,1632,0,0
735,-608,0,0,0,0,0,0,0,0,0,-1,1959,1632,0,0
742,-608,0,0,0,0,0,0,0,0,0,-1,1966,1632,0,0
749,-608,0,0,0,0,0,0,0,0,0,-1,1973,1632,0,0
756,-608,0,0,0,0,0,0,0,0,0,-1,1980,1632,0,0
763,-608,0,0,0,0,0,0,0,0,0,-1,1987,1632,0,0
770,-608,0,0,0,0,0,0,0,0,0,-1,1994,1632,0,0
777,-608,0,0,0,0,0,0,0,0,0,-1,2001,1632,0,0
784,-608,0,0,0,0,0,0,0,0,0,-1,2008,1632,0,0
791,-608,0,0,0,0,0,0,0,0,0,-1,2015,1632,0,0
798,-608,0,0,0,0,0,0,0,0,0,-1,2022,1632,0,0
805,-608,0,0,0,0,0,0,0,0,0,-1,2029,1632,0,0
812,-608,0,0,0,0,0,0,0,0,0,-1,2036,1632,0,0
-700,-615,0,0,0,0,0,0,0,0,0,-1,524,1639,0,0
-693,-615,0,0,0,0,0,0,0,0,0,-1,531,1639,0,0
-686,-615,0,0,0,0,0,0,0,0,0,-1,538,1639,0,0
-679,-615,0,0,0,0,0,0,0,0,0,-1,545,1639,0,0
-672,-615,0,0,0,0,0,0,0,0,0,-1,552,1639,0,0
-665,-615,0,0,0,0,0,0,0,0,0,-1,559,1639,0,0
-658,-615,0,0,0,0,0,0,0,0,0,-1,566,1639,0,0
-651,-615,0,0,0,0,0,0,0,0,0,-1,573,1639,0,0
-644,-615,0,0,0,0,0,0,0,0,0,-1,580,1639,0,0
-637,-615,0,0,0,0,0,0,0,0,0,-1,587,1639,0,0
-630,-615,0,0,0,0,0,0,0,0,0,-1,594,1639,0,0
-623,-615,0,0,0,0,0,0,0,0,0,-1,601,1639,0,0
-616,-615,0,0,0,0,0,0,0,0,0,-1,608,1639,0,0
-609,-615,0,0,0,0,0,0,0,0,0,-1,615,1639,0,0
-602,-615,0,0,0,0,0,0,0,0,0,-1,622,1639,0,0
-595,-615,0,0,0,0,0,0,0,0,0,-1,629,1639,0,0
-588,-615,0,0,0,0,0,0,0,0,0,-1,636,1639,0,0
-581,-615,0,0,0,0,0,0,0,0,0,-1,643,1639,0,0
-574,-615,0,0,0,0,0,0,0,0,0,-1,650,1639,0,0
-567,-615,0,0,0,0,0,0,0,0,0,-1,657,1639,0,0
-560,-615,0,0,0,0,0,0,0,0,0,-1,664,1639,0,0
-553,-615,0,0,0,0,0,0,0,0,0,-1,671,1639,0,0
-546,-615,0,0,0,0,0,0,0,0,0,-1,678,1639,0,0
-539,-615,0,0,0,0,0,0,0,0,0,-1,685,1639,0,0
-532,-615,0,0,0,0,0,0,0,0,0,-1,692,1639,0,0
-525,-615,0,0,0,0,0,0,0,0,0,-1,699,1639,0,0
-518,-615,0,0,0,0,0,0,0,0,0,-1,706,1639,0,0
-511,-615,0,0,0,0,0,0,0,0,0,-1,713,1639,0,0
-504,-615,0,0,0,0,0,0,0,0,0,-1,720,1639,0,0
-497,-615,0,0,0,0,0,0,0,0,0,-1,727,1639,0,0
-490,-615,0,0,0,0,0,0,0,0,0,-1,734,1639,0,0
-483,-615,0,0,0,0,0,0,0,0,0,-1,741,1639,0,0
-476,-615,0,0,0,0,0,0,0,0,0,-1,748,1639,0,0
-469,-615,0,0,0,0,0,0,0,0,0,-1,755,1639,0,0
-462,-615,0,0,0,0,0,0,0,0,0,-1,762,1639,0,0
-455,-615,0,0,0,0,0,0,0,0,0,-1,769,1639,0,0
-448,-615,0,0,0,0,0,0,0,0,0,-1,776,1639,0,0
-441,-615,0,0,0,0,0,0,0,0,0,-1,783,1639,0,0
-434,-615,-7.64508,2.98596,0,0,0,0,0,0,0,-1,790,1639,-7.64505,-2.98594
-427,-615,-9.0011,2.89404,0,0,0,0,0,0,0,-1,797,1639,-9.00107,-2.89399
-420,-615,-8.07568,3.0752,0,0,0,0,0,0,0,-1,804,1639,-8.07569,-3.07514
-413,-615,-7.09149,3.396,0,0,0,0,0,0,0,-1,811,1639,-7.09147,-3.39599
-406,-615,-6.21368,3.7312,0,0,0,0,0,0,0,-1,818,1639,-6.21366,-3.73114
-399,-615,-4.84875,3.91907,0,0,0,0,0,0,0,-1,825,1639,-4.84877,-3.91901
-392,-615,1.7395,13.3127,0,0,0,0,0,0,0,-1,832,1639,1.73953,-13.3128
-385,-615,3.42297,14.9401,0,0,0,0,0,0,0,-1,839,1639,3.42296,-14.94
-378,-615,2.54102,17.2609,0,0,0,0,0,0,0,-1,846,1639,2.54099,-17.2608
-371,-615,3.16229,18.0109,0,0,0,0,0,0,0,-1,853,1639,3.1623,-18.0109
-364,-615,3.03394,18.5686,0,0,0,0,0,0,0,-1,860,1639,3.03395,-18.5686
-357,-615,3.01624,18.7822,0,0,0,0,0,0,0,-1,867,1639,3.01623,-18.7823
-350,-615,3.06543,19.3278,-0.00265087,-0.00148644,-0.00124208,-0.000696893,-0.00344041,-1.00456,0.00210021,0.0342577,874,1639,3.06542,-19.3277
-343,-615,3.01685,19.6217,-0.0015332,-0.00152333,-0.00109818,-0.000430073,-0.00262645,-0.787644,0.00162667,0.0200587,881,1639,3.01687,-19.6218
-336,-615,3.02899,19.9907,-0.000594507,-0.00144283,-0.00101293,7.94808e-05,-0.00211682,-0.587116,0.00143844,0.0106548,888,1639,3.02898,-19.9907
-329,-615,2.99762,20.3618,0.000114726,-0.000972872,-0.000862347,0.000590416,-0.00144856,-0.504089,0.00121146,0.0102495,895,1639,2.99762,-20.3618
-322,-615,2.97974,20.7444,0.000434072,-0.000375481,-0.000636835,0.000783883,-0.000725292,-0.502303,0.000871542,0.0105081,902,1639,2.97975,-20.7444
-315,-615,2.99146,21.1208,0.000595498,8.94551e-05,-0.000386406,0.000804352,-0.000119399,-0.495524,0.000580145,0.0126918,909,1639,2.99144,-21.1208
-308,-615,2.95563,21.4626,0.000839349,0.000481327,-0.000143675,0.000889876,0.000430801,-0.338164,0.000513856,0.0199026,916,1639,2.95561,-21.4627
-301,-615,2.96082,21.7797,0.00122784,0.000830182,0.000156763,0.00128221,0.000775817,0.333822,0.000745711,0.0127066,923,1639,2.96079,-21.7797
-294,-615,2.9751,22.1021,0.00183378,0.00132238,0.000553,0.00218734,0.000968828,0.568844,0.0012656,0.0109444,930,1639,2.97512,-22.1021
-287,-615,2.94635,22.4294,0.00258864,0.00167621,0.00099284,0.00322506,0.00103978,0.570033,0.00190074,0.00829861,937,1639,2.94634,-22.4294
-280,-615,2.94354,22.7584,0.00347984,0.00194193,0.00145392,0.00435562,0.00106615,0.542155,0.00262165,0.00829102,944,1639,2.94356,-22.7584
-273,-615,2.94836,23.0924,0.00448661,0.00212707,0.00189863,0.00554216,0.00107152,0.507402,0.00339445,0.00967596,951,1639,2.94834,-23.0924
-266,-615,2.96332,23.4128,0.00561286,0.0020985,0.00239174,0.00682353,0.000887836,0.468584,0.00428385,0.0105071,958,1639,2.9633,-23.4129
-259,-615,2.98523,23.7236,0.00693022,0.00214293,0.00294145,0.0083289,0.000744256,0.443859,0.00532189,0.0117549,965,1639,2.98521,-23.7236
-252,-615,2.99329,24.0521,0.00837312,0.00223369,0.00367579,0.0100924,0.000514398,0.437503,0.00656353,0.0133203,972,1639,2.9933,-24.0521
-245,-615,3.06677,24.4049,0.00990779,0.00217833,0.00450011,0.0119749,0.000111179,0.430606,0.00794649,0.0196222,979,1639,3.06676,-24.4049
-238,-615,3.10706,24.7279,0.0114819,0.00198611,0.00530503,0.0138534,-0.000385394,0.420381,0.0093667,0.0310495,986,1639,3.10708,-24.7279
-231,-615,3.28564,24.9806,0.0131011,0.00186009,0.00617686,0.0158319,-0.000870673,0.416261,0.0108565,0.0491736,993,1639,3.28563,-24.9806
-224,-615,3.25848,25.1606,0,0,0,0,0,0,0,-1,1000,1639,3.25849,-25.1607
-217,-615,3.62433,25.2393,0,0,0,0,0,0,0,-1,1007,1639,3.62434,-25.2393
-210,-615,2.48901,18.9324,0,0,0,0,0,0,0,-1,1014,1639,2.48902,-18.9323
-203,-615,2.13684,18.6173,0,0,0,0,0,0,0,-1,1021,1639,2.13683,-18.6173
-196,-615,4.27161,21.3264,0,0,0,0,0,0,0,-1,1028,1639,4.27165,-21.3264
-189,-615,1.8269,19.6761,0,0,0,0,0,0,0,-1,1035,1639,1.82691,-19.6761
-182,-615,1.63489,20.2278,0,0,0,0,0,0,0,-1,1042,1639,1.63492,-20.2277
-175,-615,-0.609985,13.8434,0,0,0,0,0,0,0,-1,1049,1639,-0.610016,-13.8434
-168,-615,3.85754,15.472,0,0,0,0,0,0,0,-1,1056,1639,3.85757,-15.472
-161,-615,1.03137,24.9369,0,0,0,0,0,0,0,-1,1063,1639,1.03133,-24.9368
-154,-615,2.42737,24.3593,0,0,0,0,0,0,0,-1,1070,1639,2.42742,-24.3593
-147,-615,1.52502,17.3442,0,0,0,0,0,0,0,-1,1077,1639,1.52501,-17.3442
-140,-615,3.73401,10.2349,0,0,0,0,0,0,0,-1,1084,1639,3.73402,-10.2348
-133,-615,2.6178,17.45,0,0,0,0,0,0,0,-1,1091,1639,2.61776,-17.4499
-126,-615,4.43408,12.5017,0,0,0,0,0,0,0,-1,1098,1639,4.43403,-12.5018
-119,-615,4.82983,13.9279,0,0,0,0,0,0,0,-1,1105,1639,4.82986,-13.9278
-112,-615,3.65698,14.4874,0,0,0,0,0,0,0,-1,1112,1639,3.65695,-14.4875
-105,-615,0.958496,2.45398,0,0,0,0,0,0,0,-1,1119,1639,0.958452,-2.45398
-98,-615,-0.647705,2.12109,0,0,0,0,0,0,0,-1,1126,1639,-0.647756,-2.12105
-91,-615,-3.07983,2.97375,0,0,0,0,0,0,0,-1,1133,1639,-3.07989,-2.97376
-84,-615,-2.46509,0.703247,0,0,0,0,0,0,0,-1,1140,1639,-2.46505,-0.703273
-77,-615,-3.17859,1.23755,0,0,0,0,0,0,0,-1,1147,1639,-3.17865,-1.23752
-70,-615,-4.03943,1.43335,0,0,0,0,0,0,0,-1,1154,1639,-4.03942,-1.43339
-63,-615,-4.8877,1.45544,0,0,0,0,0,0,0,-1,1161,1639,-4.88766,-1.45549
-56,-615,0,0,0,0,0,0,0,0,0,-1,1168,1639,0,0
-49,-615,0,0,0,0,0,0,0,0,0,-1,1175,1639,0,0
-42,-615,0,0,0,0,0,0,0,0,0,-1,1182,1639,0,0
-35,-615,0,0,0,0,0,0,0,0,0,-1,1189,1639,0,0
-28,-615,0,0,0,0,0,0,0,0,0,-1,1196,1639,0,0
-21,-615,0,0,0,0,0,0,0,0,0,-1,1203,1639,0,0
-14,-615,0,0,0,0,0,0,0,0,0,-1,1210,1639,0,0
-7,-615,0,0,0,0,0,0,0,0,0,-1,1217,1639,0,0
0,-615,0,0,0,0,0,0,0,0,0,-1,1224,1639,0,0
7,-615,0,0,0,0,0,0,0,0,0,-1,1231,1639,0,0
14,-615,0,0,0,0,0,0,0,0,0,-1,1238,1639,0,0
21,-615,0,0,0,0,0,0,0,0,0,-1,1245,1639,0,0
28,-615,0,0,0,0,0,0,0,0,0,-1,1252,1639,0,0
35,-615,0,0,0,0,0,0,0,0,0,-1,1259,1639,0,0
42,-615,0,0,0,0,0,0,0,0,0,-1,1266,1639,0,0
49,-615,0,0,0,0,0,0,0,0,0,-1,1273,1639,0,0
56,-615,0,0,0,0,0,0,0,0,0,-1,1280,1639,0,0
63,-615,0,0,0,0,0,0,0,0,0,-1,1287,1639,0,0
70,-615,0,0,0,0,0,0,0,0,0,-1,1294,1639,0,0
77,-615,0,0,0,0,0,0,0,0,0,-1,1301,1639,0,0
84,-615,0,0,0,0,0,0,0,0,0,-1,1308,1639,0,0
91,-615,0,0,0,0,0,0,0,0,0,-1,1315,1639,0,0
98,-615,0,0,0,0,0,0,0,0,0,-1,1322,1639,0,0
105,-615,0,0,0,0,0,0,0,0,0,-1,1329,1639,0,0
112,-615,0,0,0,0,0,0,0,0,0,-1,1336,1639,0,0
119,-615,0,0,0,0,0,0,0,0,0,-1,1343,1639,0,0
126,-615,0,0,0,0,0,0,0,0,0,-1,1350,1639,0,0
133,-615,0,0,0,0,0,0,0,0,0,-1,1357,1639,0,0
140,-615,0,0,0,0,0,0,0,0,0,-1,1364,1639,0,0
147,-615,0,0,0,0,0,0,0,0,0,-1,1371,1639,0,0
154,-615,0,0,0,0,0,0,0,0,0,-1,1378,1639,0,0
161,-615,0,0,0,0,0,0,0,0,0,-1,1385,1639,0,0
168,-615,0,0,0,0,0,0,0,0,0,-1,1392,1639,0,0
175,-615,5.39648,-2.00879,0,0,0,0,0,0,0,-1,1399,1639,5.3965,2.00881
182,-615,5.65393,-1.51025,0,0,0,0,0,0,0,-1,1406,1639,5.65388,1.51028
189,-615,5.58972,-1.35608,0,0,0,0,0,0,0,-1,1413,1639,5.58967,1.35607
196,-615,5.49915,-0.693604,0,0,0,0,0,0,0,-1,1420,1639,5.4991,0.693602
203,-615,5.33411,-0.226685,0,0,0,0,0,0,0,-1,1427,1639,5.33414,0.226689
210,-615,5.60278,0.108276,0,0,0,0,0,0,0,-1,1434,1639,5.60284,-0.10831
217,-615,6.26331,-0.307373,0,0,0,0,0,0,0,-1,1441,1639,6.26331,0.307372
224,-615,5.45422,-0.333984,0,0,0,0,0,0,0,-1,1448,1639,5.45422,0.333992
231,-615,4.92542,1.80298,0,0,0,0,0,0,0,-1,1455,1639,4.92537,-1.80297
238,-615,4.76355,1.96729,0,0,0,0,0,0,0,-1,1462,1639,4.76357,-1.96734
245,-615,4.08643,3.15906,0,0,0,0,0,0,0,-1,1469,1639,4.08638,-3.159
252,-615,6.37805,3.73889,0,0,0,0,0,0,0,-1,1476,1639,6.37806,-3.73891
259,-615,8.35974,3.16443,0,0,0,0,0,0,0,-1,1483,1639,8.35975,-3.16444
266,-615,10.3414,2.58997,0,0,0,0,0,0,0,-1,1490,1639,10.3414,-2.58996
273,-615,6.57043,1.84766,0,0,0,0,0,0,0,-1,1497,1639,6.5704,-1.84771
280,-615,7.10449,3.23438,0,0,0,0,0,0,0,-1,1504,1639,7.10447,-3.23435
287,-615,7.35779,4.68542,0,0,0,0,0,0,0,-1,1511,1639,7.35776,-4.68546
294,-615,7.63733,6.29114,0,0,0,0,0,0,0,-1,1518,1639,7.63735,-6.29109
301,-615,8.47925,11.452,0,0,0,0,0,0,0,-1,1525,1639,8.47922,-11.452
308,-615,6.8114,10.9059,0,0,0,0,0,0,0,-1,1532,1639,6.81137,-10.9058
315,-615,5.1427,14.7251,0,0,0,0,0,0,0,-1,1539,1639,5.14269,-14.7251
322,-615,7.17981,17.6864,0,0,0,0,0,0,0,-1,1546,1639,7.17985,-17.6864
329,-615,7.62134,20.4354,0,0,0,0,0,0,0,-1,1553,1639,7.62139,-20.4354
336,-615,6.45007,14.1138,0,0,0,0,0,0,0,-1,1560,1639,6.45011,-14.1138
343,-615,2.40491,6.50134,0,0,0,0,0,0,0,-1,1567,1639,2.40489,-6.50137
350,-615,6.4458,15.4594,0,0,0,0,0,0,0,-1,1574,1639,6.44578,-15.4593
357,-615,9.16479,24.2725,0,0,0,0,0,0,0,-1,1581,1639,9.1648,-24.2724
364,-615,10.4575,26.1761,0,0,0,0,0,0,0,-1,1588,1639,10.4575,-26.1762
371,-615,10.4897,25.2848,0,0,0,0,0,0,0,-1,1595,1639,10.4898,-25.2848
378,-615,10.4572,24.9973,0.00475864,0.0116231,-0.00370647,0.0132424,0.00313932,-1.1589,0.00799012,0.0207322,1602,1639,10.4571,-24.9974
385,-615,10.4569,24.709,0.00398356,0.00987167,-0.00307359,0.0111837,0.00267151,-1.16734,0.00674405,0.012511,1609,1639,10.4569,-24.709
392,-615,10.4733,24.3955,0.00331128,0.00823678,-0.00243838,0.00923969,0.00230836,-1.18058,0.00555265,0.01048,1616,1639,10.4733,-24.3955
399,-615,10.4827,24.1012,0.00260379,0.00649847,-0.00170411,0.00713881,0.00196345,-1.21135,0.00425838,0.010983,1623,1639,10.4826,-24.1012
406,-615,10.4729,23.7985,0.00189724,0.00506057,-0.00108659,0.00539785,0.00155997,-1.26983,0.00320762,0.0117211,1630,1639,10.4729,-23.7984
413,-615,10.4685,23.5079,0.00127943,0.00380705,-0.000593904,0.00393964,0.00114684,-1.35114,0.00233979,0.0129462,1637,1639,10.4684,-23.5079
420,-615,10.4677,23.2087,0.000794762,0.00252934,-0.00017323,0.00254647,0.000777631,-1.47222,0.00150688,0.0143175,1644,1639,10.4677,-23.2087
427,-615,10.4596,22.8851,0.000451002,0.00153993,0.000125035,0.0015541,0.000436829,1.45793,0.000925483,0.0155125,1651,1639,10.4596,-22.8852
434,-615,10.4594,22.576,0.000165,0.000457155,0.000386591,0.000724346,-0.000102191,0.966036,0.000520317,0.0144286,1658,1639,10.4594,-22.576
441,-615,10.4714,22.2526,5.38692e-06,-0.000173164,0.000448292,0.000373207,-0.000540984,0.687111,0.000530763,0.0146582,1665,1639,10.4715,-22.2526
448,-615,10.4744,21.9182,-0.00014735,-0.000725919,0.000469771,0.000115063,-0.000988332,0.509421,0.0007004,0.0145808,1672,1639,10.4743,-21.9183
455,-615,10.4712,21.5927,-0.000200594,-0.00115243,0.000449694,-2.17421e-05,-0.00133128,0.378538,0.000880361,0.013207,1679,1639,10.4712,-21.5927
462,-615,10.4661,21.2703,-0.000210809,-0.00144091,0.000356617,-0.0001149,-0.00153682,0.262724,0.000988474,0.0133521,1686,1639,10.4661,-21.2703
469,-615,10.4435,20.9386,-0.000275281,-0.00156249,0.000208687,-0.000242294,-0.00159547,0.156776,0.00099279,0.011835,1693,1639,10.4435,-20.9387
476,-615,10.4315,20.6101,-0.000416619,-0.00149105,6.49246e-05,-0.00041271,-0.00149496,0.0601354,0.000891501,0.0107246,1700,1639,10.4315,-20.6101
483,-615,10.447,20.2424,-0.00073052,-0.00122811,-6.11284e-05,-0.000723121,-0.00123551,-0.120462,0.000716773,0.015489,1707,1639,10.447,-20.2425
490,-615,10.4467,19.9111,-0.00113824,-0.000745184,-0.000342786,-0.000546586,-0.00133684,-1.04569,0.000776089,0.0199232,1714,1639,10.4467,-19.9112
497,-615,10.3732,19.6406,-0.00155624,2.17909e-05,-0.000742866,0.000316471,-0.00185092,-1.19316,0.00135184,0.0310124,1721,1639,10.3732,-19.6406
504,-615,10.0336,19.2838,0,0,0,0,0,0,0,-1,1728,1639,10.0336,-19.2838
511,-615,9.48206,18.0985,0,0,0,0,0,0,0,-1,1735,1639,9.48203,-18.0985
518,-615,13.2416,9.81812,0,0,0,0,0,0,0,-1,1742,1639,13.2416,-9.81813
525,-615,4.37524,3.90491,0,0,0,0,0,0,0,-1,1749,1639,4.37518,-3.90495
532,-615,7.3645,0.848145,0,0,0,0,0,0,0,-1,1756,1639,7.36451,-0.848093
539,-615,12.8112,-0.0476074,0,0,0,0,0,0,0,-1,1763,1639,12.8111,0.0475553
546,-615,8.33813,2.94556,0,0,0,0,0,0,0,-1,1770,1639,8.33813,-2.9455
553,-615,5.82532,-2.04199,0,0,0,0,0,0,0,-1,1777,1639,5.82534,2.04195
560,-615,0,0,0,0,0,0,0,0,0,-1,1784,1639,0,0
567,-615,0,0,0,0,0,0,0,0,0,-1,1791,1639,0,0
574,-615,0,0,0,0,0,0,0,0,0,-1,1798,1639,0,0
581,-615,0,0,0,0,0,0,0,0,0,-1,1805,1639,0,0
588,-615,0,0,0,0,0,0,0,0,0,-1,1812,1639,0,0
595,-615,0,0,0,0,0,0,0,0,0,-1,1819,1639,0,0
602,-615,0,0,0,0,0,0,0,0,0,-1,1826,1639,0,0
609,-615,0,0,0,0,0,0,0,0,0,-1,1833,1639,0,0
616,-615,0,0,0,0,0,0,0,0,0,-1,1840,1639,0,0
623,-615,0,0,0,0,0,0,0,0,0,-1,1847,1639,0,0
630,-615,0,0,0,0,0,0,0,0,0,-1,1854,1639,0,0
637,-615,0,0,0,0,0,0,0,0,0,-1,1861,1639,0,0
644,-615,0,0,0,0,0,0,0,0,0,-1,1868,1639,0,0
651,-615,0,0,0,0,0,0,0,0,0,-1,1875,1639,0,0
658,-615,0,0,0,0,0,0,0,0,0,-1,1882,1639,0,0
665,-615,0,0,0,0,0,0,0,0,0,-1,1889,1639,0,0
672,-615,0,0,0,0,0,0,0,0,0,-1,1896,1639,0,0
679,-615,0,0,0,0,0,0,0,0,0,-1,1903,1639,0,0
686,-615,0,0,0,0,0,0,0,0,0,-1,1910,1639,0,0
693,-615,0,0,0,0,0,0,0,0,0,-1,1917,1639,0,0
700,-615,0,0,0,0,0,0,0,0,0,-1,1924,1639,0,0
707,-615,0,0,0,0,0,0,0,0,0,-1,1931,1639,0,0
714,-615,0,0,0,0,0,0,0,0,0,-1,1938,1639,0,0
721,-615,0,0,0,0,0,0,0,0,0,-1,1945,1639,0,0
728,-615,0,0,0,0,0,0,0,0,0,-1,1952,1639,0,0
735,-615,0,0,0,0,0,0,0,0,0,-1,1959,1639,0,0
742,-615,0,0,0,0,0,0,0,0,0,-1,1966,1639,0,0
749,-615,0,0,0,0,0,0,0,0,0,-1,1973,1639,0,0
756,-615,0,0,0,0,0,0,0,0,0,-1,1980,1639,0,0
763,-615,0,0,0,0,0,0,0,0,0,-1,1987,1639,0,0
770,-615,0,0,0,0,0,0,0,0,0,-1,1994,1639,0,0
777,-615,0,0,0,0,0,0,0,0,0,-1,2001,1639,0,0
784,-615,0,0,0,0,0,0,0,0,0,-1,2008,1639,0,0
791,-615,0,0,0,0,0,0,0,0,0,-1,2015,1639,0,0
798,-615,0,0,0,0,0,0,0,0,0,-1,2022,1639,0,0
805,-615,0,0,0,0,0,0,0,0,0,-1,2029,1639,0,0
812,-615,0,0,0,0,0,0,0,0,0,-1,2036,1639,0,0
-700,-622,0,0,0,0,0,0,0,0,0,-1,524,1646,0,0
-693,-622,0,0,0,0,0,0,0,0,0,-1,531,1646,0,0
-686,-622,0,0,0,0,0,0,0,0,0,-1,538,1646,0,0
-679,-622,0,0,0,0,0,0,0,0,0,-1,545,1646,0,0
-672,-622,0,0,0,0,0,0,0,0,0,-1,552,1646,0,0
-665,-622,0,0,0,0,0,0,0,0,0,-1,559,1646,0,0
-658,-622,0,0,0,0,0,0,0,0,0,-1,566,1646,0,0
-651,-622,0,0,0,0,0,0,0,0,0,-1,573,1646,0,0
-644,-622,0,0,0,0,0,0,0,0,0,-1,580,1646,0,0
-637,-622,0,0,0,0,0,0,0,0,0,-1,587,1646,0,0
-630,-622,0,0,0,0,0,0,0,0,0,-1,594,1646,0,0
-623,-622,0,0,0,0,0,0,0,0,0,-1,601,1646,0,0
-616,-622,0,0,0,0,0,0,0,0,0,-1,608,1646,0,0
-609,-622,0,0,0,0,0,0,0,0,0,-1,615,1646,0,0
-602,-622,0,0,0,0,0,0,0,0,0,-1,622,1646,0,0
-595,-622,0,0,0,0,0,0,0,0,0,-1,629,1646,0,0
-588,-622,0,0,0,0,0,0,0,0,0,-1,636,1646,0,0
-581,-622,0,0,0,0,0,0,0,0,0,-1,643,1646,0,0
-574,-622,0,0,0,0,0,0,0,0,0,-1,650,1646,0,0
-567,-622,0,0,0,0,0,0,0,0,0,-1,657,1646,0,0
-560,-622,0,0,0,0,0,0,0,0,0,-1,664,1646,0,0
-553,-622,0,0,0,0,0,0,0,0,0,-1,671,1646,0,0
-546,-622,0,0,0,0,0,0,0,0,0,-1,678,1646,0,0
-539,-622,0,0,0,0,0,0,0,0,0,-1,685,1646,0,0
-532,-622,0,0,0,0,0,0,0,0,0,-1,692,1646,0,0
-525,-622,0,0,0,0,0,0,0,0,0,-1,699,1646,0,0
-518,-622,0,0,0,0,0,0,0,0,0,-1,706,1646,0,0
-511,-622,0,0,0,0,0,0,0,0,0,-1,713,1646,0,0
-504,-622,0,0,0,0,0,0,0,0,0,-1,720,1646,0,0
-497,-622,0,0,0,0,0,0,0,0,0,-1,727,1646,0,0
-490,-622,0,0,0,0,0,0,0,0,0,-1,734,1646,0,0
-483,-622,0,0,0,0,0,0,0,0,0,-1,741,1646,0,0
-476,-622,0,0,0,0,0,0,0,0,0,-1,748,1646,0,0
-469,-622,0,0,0,0,0,0,0,0,0,-1,755,1646,0,0
-462,-622,0,0,0,0,0,0,0,0,0,-1,762,1646,0,0
-455,-622,0,0,0,0,0,0,0,0,0,-1,769,1646,0,0
-448,-622,0,0,0,0,0,0,0,0,0,-1,776,1646,0,0
-441,-622,0,0,0,0,0,0,0,0,0,-1,783,1646,0,0
-434,-622,0,0,0,0,0,0,0,0,0,-1,790,1646,0,0
-427,-622,-7.62891,3.48096,0,0,0,0,0,0,0,-1,797,1646,-7.62892,-3.48092
-420,-622,-9.35791,1.77185,0,0,0,0,0,0,0,-1,804,1646,-9.35789,-1.77183
-413,-622,-8.46075,1.96777,0,0,0,0,0,0,0,-1,811,1646,-8.46074,-1.96774
-406,-622,-4.44318,2.16858,0,0,0,0,0,0,0,-1,818,1646,-4.44315,-2.16859
-399,-622,-7.06976,1.51001,0,0,0,0,0,0,0,-1,825,1646,-7.06976,-1.51005
-392,-622,3.89551,5.85376,0,0,0,0,0,0,0,-1,832,1646,3.8955,-5.85379
-385,-622,2.00543,14.0448,0,0,0,0,0,0,0,-1,839,1646,2.00544,-14.0448
-378,-622,1.49036,15.3436,0,0,0,0,0,0,0,-1,846,1646,1.49033,-15.3436
-371,-622,3.14221,17.8623,0,0,0,0,0,0,0,-1,853,1646,3.14218,-17.8623
-364,-622,3.08319,18.5219,0,0,0,0,0,0,0,-1,860,1646,3.0832,-18.5218
-357,-622,3.02423,19.1814,0,0,0,0,0,0,0,-1,867,1646,3.02421,-19.1814
-350,-622,3.23712,19.327,0,0,0,0,0,0,0,-1,874,1646,3.23711,-19.327
-343,-622,3.31335,19.6772,-0.00185047,-0.00230581,-0.00227813,0.000211338,-0.00436762,-0.735595,0.00298469,0.0274713,881,1646,3.31334,-19.6772
-336,-622,3.36279,20.0079,-0.000921918,-0.00209223,-0.00212268,0.000694779,-0.00370893,-0.650904,0.0027338,0.00975817,888,1646,3.36282,-20.008
-329,-622,3.33862,20.3702,-0.000272593,-0.00153911,-0.00189692,0.00109398,-0.00290568,-0.624297,0.00238686,0.00862164,895,1646,3.33861,-20.3702
-322,-622,3.3172,20.7441,-3.23736e-05,-0.000852891,-0.00157021,0.00118029,-0.00206556,-0.657617,0.00189708,0.00993984,902,1646,3.31722,-20.7442
-315,-622,3.30969,21.1,5.23805e-05,-0.000321487,-0.00119865,0.00107858,-0.00134769,-0.708044,0.00140368,0.0133141,909,1646,3.30971,-21.1
-308,-622,3.29224,21.422,0.000230331,0.000138723,-0.000840936,0.00102671,-0.000657655,-0.758191,0.000980219,0.0143749,916,1646,3.29225,-21.4219
-301,-622,3.30707,21.745,0.000542203,0.000519209,-0.000455704,0.000986555,7.4857e-05,-0.772786,0.000634225,0.0143736,923,1646,3.30709,-21.745
-294,-622,3.29669,22.0963,0.00105,0.000983823,-1.2228e-05,0.00105219,0.000981636,-0.176996,0.000679163,0.0109377,930,1646,3.29672,-22.0963
-287,-622,3.28656,22.433,0.00167096,0.00132608,0.000444892,0.00197566,0.00102138,0.600515,0.00114087,0.00830817,937,1646,3.28656,-22.433
-280,-622,3.28143,22.762,0.00240887,0.00154337,0.000896836,0.00297191,0.000980335,0.560611,0.00174863,0.00820696,944,1646,3.28143,-22.762
-273,-622,3.29352,23.0809,0.00326205,0.00169482,0.0013158,0.00400989,0.000946974,0.51683,0.00242017,0.0116705,951,1646,3.29353,-23.0809
-266,-622,3.27942,23.4285,0.00419431,0.00167487,0.00180871,0.00513875,0.000730428,0.481221,0.00321018,0.0121741,958,1646,3.27942,-23.4284
-259,-622,3.29504,23.7607,0.00527573,0.00166864,0.00227391,0.0063745,0.00056987,0.450123,0.00407302,0.0115454,965,1646,3.29504,-23.7607
-252,-622,3.29266,24.0327,0.00641932,0.00168196,0.00278339,0.00770548,0.000395797,0.43286,0.00501027,0.0122498,972,1646,3.29264,-24.0327
-245,-622,3.33527,24.3281,0.0075709,0.00162003,0.00333781,0.00906695,0.000123978,0.421367,0.00600374,0.00990483,979,1646,3.33525,-24.3281
-238,-622,3.33246,24.6428,0.008748,0.00147349,0.00387002,0.0104217,-0.000200252,0.408196,0.00701553,0.0117139,986,1646,3.33244,-24.6428
-231,-622,3.39349,25.0129,0.00999783,0.00149877,0.00446587,0.0119129,-0.000416318,0.405108,0.00808429,0.0186252,993,1646,3.39349,-25.013
-224,-622,3.45667,25.2007,0.010963,0.00156347,0.00496978,0.0131033,-0.000576835,0.406658,0.00893401,0.0323104,1000,1646,3.45669,-25.2007
-217,-622,3.57037,25.3605,0.011607,0.00156944,0.00534071,0.013917,-0.000740592,0.408233,0.00953445,0.0478654,1007,1646,3.57035,-25.3605
-210,-622,3.59668,25.9459,0,0,0,0,0,0,0,-1,1014,1646,3.59671,-25.9459
-203,-622,4.21375,20.9574,0,0,0,0,0,0,0,-1,1021,1646,4.21375,-20.9574
-196,-622,4.18518,21.2491,0,0,0,0,0,0,0,-1,1028,1646,4.18521,-21.2491
-189,-622,4.98254,25.8979,0,0,0,0,0,0,0,-1,1035,1646,4.98255,-25.8979
-182,-622,2.21411,20.6752,0,0,0,0,0,0,0,-1,1042,1646,2.21416,-20.6751
-175,-622,2.56091,11.0195,0,0,0,0,0,0,0,-1,1049,1646,2.56095,-11.0195
-168,-622,3.06982,25.405,0,0,0,0,0,0,0,-1,1056,1646,3.06986,-25.4051
-161,-622,2.52295,25.5879,0,0,0,0,0,0,0,-1,1063,1646,2.52299,-25.5879
-154,-622,1.97607,25.7706,0,0,0,0,0,0,0,-1,1070,1646,1.97613,-25.7706
-147,-622,3.7146,25.5477,0,0,0,0,0,0,0,-1,1077,1646,3.71464,-25.5478
-140,-622,3.27515,16.0353,0,0,0,0,0,0,0,-1,1084,1646,3.27519,-16.0353
-133,-622,3.09644,17.677,0,0,0,0,0,0,0,-1,1091,1646,3.09638,-17.677
-126,-622,3.5061,19.5251,0,0,0,0,0,0,0,-1,1098,1646,3.50616,-19.5252
-119,-622,4.06384,13.1715,0,0,0,0,0,0,0,-1,1105,1646,4.06379,-13.1716
-112,-622,4.33276,14.6605,0,0,0,0,0,0,0,-1,1112,1646,4.33281,-14.6605
-105,-622,0.306519,4.38159,0,0,0,0,0,0,0,-1,1119,1646,0.306536,-4.38159
-98,-622,-0.510376,3.5033,0,0,0,0,0,0,0,-1,1126,1646,-0.510393,-3.50324
-91,-622,-1.146,0.975952,0,0,0,0,0,0,0,-1,1133,1646,-1.14599,-0.97597
-84,-622,-2.04895,1.31787,0,0,0,0,0,0,0,-1,1140,1646,-2.0489,-1.31781
-77,-622,-1.80627,0.332275,0,0,0,0,0,0,0,-1,1147,1646,-1.80622,-0.33223
-70,-622,-3.65588,2.28149,0,0,0,0,0,0,0,-1,1154,1646,-3.65589,-2.28155
-63,-622,-2.49683,1.27087,0,0,0,0,0,0,0,-1,1161,1646,-2.49679,-1.27093
-56,-622,-2.44238,-0.575562,0,0,0,0,0,0,0,-1,1168,1646,-2.44242,0.575508
-49,-622,-2.41089,1.38818,0,0,0,0,0,0,0,-1,1175,1646,-2.41088,-1.38815
-42,-622,-2.71497,2.85242,0,0,0,0,0,0,0,-1,1182,1646,-2.71491,-2.85247
-35,-622,-3.0177,4.25842,0,0,0,0,0,0,0,-1,1189,1646,-3.01773,-4.25838
-28,-622,-0.896606,0.678833,0,0,0,0,0,0,0,-1,1196,1646,-0.89661,-0.678835
-21,-622,3.69312,26.7708,0,0,0,0,0,0,0,-1,1203,1646,3.69309,-26.7708
-14,-622,9.37463,27.5419,0,0,0,0,0,0,0,-1,1210,1646,9.37465,-27.5419
-7,-622,3.39685,31.1973,0,0,0,0,0,0,0,-1,1217,1646,3.3969,-31.1973
0,-622,0,0,0,0,0,0,0,0,0,-1,1224,1646,0,0
7,-622,0,0,0,0,0,0,0,0,0,-1,1231,1646,0,0
14,-622,0,0,0,0,0,0,0,0,0,-1,1238,1646,0,0
21,-622,0,0,0,0,0,0,0,0,0,-1,1245,1646,0,0
28,-622,0,0,0,0,0,0,0,0,0,-1,1252,1646,0,0
35,-622,0,0,0,0,0,0,0,0,0,-1,1259,1646,0,0
42,-622,0,0,0,0,0,0,0,0,0,-1,1266,1646,0,0
49,-622,0,0,0,0,0,0,0,0,0,-1,1273,1646,0,0
56,-622,0,0,0,0,0,0,0,0,0,-1,1280,1646,0,0
63,-622,0,0,0,0,0,0,0,0,0,-1,1287,1646,0,0
70,-622,0,0,0,0,0,0,0,0,0,-1,1294,1646,0,0
77,-622,0,0,0,0,0,0,0,0,0,-1,1301,1646,0,0
84,-622,0,0,0,0,0,0,0,0,0,-1,1308,1646,0,0
91,-622,0,0,0,0,0,0,0,0,0,-1,1315,1646,0,0
98,-622,0,0,0,0,0,0,0,0,0,-1,1322,1646,0,0
105,-622,0,0,0,0,0,0,0,0,0,-1,1329,1646,0,0
112,-622,0,0,0,0,0,0,0,0,0,-1,1336,1646,0,0
119,-622,0,0,0,0,0,0,0,0,0,-1,1343,1646,0,0
126,-622,13.3984,36.5005,0,0,0,0,0,0,0,-1,1350,1646,13.3984,-36.5005
133,-622,13.0741,36.2756,0,0,0,0,0,0,0,-1,1357,1646,13.0741,-36.2757
140,-622,12.5538,36.1538,0,0,0,0,0,0,0,-1,1364,1646,12.5538,-36.1538
147,-622,12.1464,35.6417,0,0,0,0,0,0,0,-1,1371,1646,12.1464,-35.6417
154,-622,15.0535,51.2202,0,0,0,0,0,0,0,-1,1378,1646,15.0535,-51.2202
161,-622,10.6884,6.46448,0,0,0,0,0,0,0,-1,1385,1646,10.6883,-6.46442
168,-622,12.2402,5.18091,0,0,0,0,0,0,0,-1,1392,1646,12.2403,-5.1809
175,-622,5.64355,-1.77075,0,0,0,0,0,0,0,-1,1399,1646,5.64351,1.77077
182,-622,5.88586,-1.32251,0,0,0,0,0,0,0,-1,1406,1646,5.88587,1.32256
189,-622,5.97986,-1.18005,0,0,0,0,0,0,0,-1,1413,1646,5.97986,1.18003
196,-622,5.85022,-0.244507,0,0,0,0,0,0,0,-1,1420,1646,5.85026,0.244478
203,-622,5.25159,0.138794,0,0,0,0,0,0,0,-1,1427,1646,5.25162,-0.138822
210,-622,6.66833,0.0397949,0,0,0,0,0,0,0,-1,1434,1646,6.6684,-0.0398278
217,-622,6.12061,0.0506592,0,0,0,0,0,0,0,-1,1441,1646,6.12058,-0.0507181
224,-622,5.57275,0.0616455,0,0,0,0,0,0,0,-1,1448,1646,5.57276,-0.0616084
231,-622,5.31348,1.3949,0,0,0,0,0,0,0,-1,1455,1646,5.31342,-1.39495
238,-622,3.76477,2.90686,0,0,0,0,0,0,0,-1,1462,1646,3.7648,-2.90686
245,-622,5.13794,2.67993,0,0,0,0,0,0,0,-1,1469,1646,5.13796,-2.67992
252,-622,6.66528,2.53992,0,0,0,0,0,0,0,-1,1476,1646,6.66522,-2.53991
259,-622,8.93787,3.31458,0,0,0,0,0,0,0,-1,1483,1646,8.93791,-3.31454
266,-622,5.72644,3.11926,0,0,0,0,0,0,0,-1,1490,1646,5.72647,-3.1192
273,-622,7.28076,3.61218,0,0,0,0,0,0,0,-1,1497,1646,7.28071,-3.61212
280,-622,8.43127,4.4447,0,0,0,0,0,0,0,-1,1504,1646,8.43123,-4.44467
287,-622,8.60315,5.94617,0,0,0,0,0,0,0,-1,1511,1646,8.60319,-5.94622
294,-622,7.62756,11.5143,0,0,0,0,0,0,0,-1,1518,1646,7.62762,-11.5143
301,-622,7.36548,11.6569,0,0,0,0,0,0,0,-1,1525,1646,7.36549,-11.6569
308,-622,7.10339,11.7994,0,0,0,0,0,0,0,-1,1532,1646,7.10335,-11.7995
315,-622,8.28687,16.5842,0,0,0,0,0,0,0,-1,1539,1646,8.28689,-16.5843
322,-622,7.43689,20.5786,0,0,0,0,0,0,0,-1,1546,1646,7.43685,-20.5786
329,-622,9.76477,26.4202,0,0,0,0,0,0,0,-1,1553,1646,9.7648,-26.4202
336,-622,9.38635,26.4626,0,0,0,0,0,0,0,-1,1560,1646,9.3863,-26.4626
343,-622,10.1895,26.6921,0,0,0,0,0,0,0,-1,1567,1646,10.1894,-26.6921
350,-622,10.2822,26.1342,0,0,0,0,0,0,0,-1,1574,1646,10.2822,-26.1342
357,-622,10.057,26.0643,0,0,0,0,0,0,0,-1,1581,1646,10.057,-26.0643
364,-622,10.1559,25.7719,0.00457721,0.0115999,-0.00354709,0.0130797,0.00309743,-1.17557,0.00789258,0.0393757,1588,1646,10.1559,-25.7719
371,-622,10.1724,25.2526,0.00418458,0.0103645,-0.00312877,0.0116719,0.00287715,-1.17498,0.00702154,0.0220956,1595,1646,10.1724,-25.2525
378,-622,10.1582,24.9534,0.00356622,0.00909231,-0.00268605,0.0101827,0.00247579,-1.18516,0.00613216,0.0110247,1602,1646,10.1582,-24.9533
385,-622,10.163,24.67,0.00305102,0.00771302,-0.00232455,0.00867399,0.00209004,-1.17879,0.00522717,0.0105255,1609,1646,10.163,-24.6701
392,-622,10.1587,24.3865,0.0025814,0.00632756,-0.00191694,0.00713461,0.00177436,-1.17231,0.00428909,0.0117234,1616,1646,10.1587,-24.3864
399,-622,10.1583,24.1049,0.00204389,0.00479203,-0.00138206,0.00536685,0.00146908,-1.17665,0.00320256,0.0115736,1623,1646,10.1583,-24.1049
406,-622,10.1414,23.7919,0.00148842,0.00344592,-0.00088424,0.0037862,0.00114815,-1.20344,0.00224167,0.0148127,1630,1646,10.1414,-23.7919
413,-622,10.1471,23.4949,0.000988536,0.00224161,-0.000450648,0.00238685,0.000843302,-1.25903,0.00139768,0.0167702,1637,1646,10.1471,-23.4949
420,-622,10.1587,23.2251,0.000574062,0.000985326,-4.39941e-05,0.000989979,0.000569409,-1.46541,0.000573714,0.016872,1644,1646,10.1586,-23.2251
427,-622,10.145,22.9004,0.000267551,-3.17649e-05,0.000303726,0.000456488,-0.000220703,0.556487,0.000398798,0.0127299,1651,1646,10.145,-22.9004
434,-622,10.1467,22.5634,-2.62837e-06,-0.00111635,0.000604427,0.000262354,-0.00138133,0.413168,0.00101965,0.0128247,1658,1646,10.1467,-22.5634
441,-622,10.1558,22.2371,-0.00017702,-0.00175017,0.000732291,0.000111092,-0.00203828,0.374837,0.00139736,0.0142354,1665,1646,10.1558,-22.2371
448,-622,10.1348,21.9386,-0.000332216,-0.00223569,0.000790284,-4.68784e-05,-0.00252102,0.346491,0.00166528,0.0139056,1672,1646,10.1347,-21.9386
455,-622,10.1145,21.5867,-0.000425042,-0.00263437,0.000849602,-0.000136112,-0.0029233,0.327808,0.00190512,0.0162651,1679,1646,10.1145,-21.5867
462,-622,10.1318,21.2745,-0.000502064,-0.00288661,0.00083821,-0.000236904,-0.00315177,0.30638,0.00202683,0.0166115,1686,1646,10.1319,-21.2746
469,-622,10.12,20.9489,-0.000608258,-0.00285384,0.000725005,-0.000394526,-0.00306757,0.286679,0.00192705,0.0182528,1693,1646,10.12,-20.9489
476,-622,10.1545,20.6278,-0.000760285,-0.00258396,0.000573374,-0.000594995,-0.00274925,0.280667,0.00167021,0.0196349,1700,1646,10.1545,-20.6278
483,-622,10.1588,20.3365,-0.001122,-0.00201331,0.000400325,-0.000968595,-0.00216671,0.365934,0.00125329,0.0268767,1707,1646,10.1588,-20.3366
490,-622,10.1702,19.9241,-0.00156531,-0.00108677,-4.19529e-05,-0.00108311,-0.00156896,-1.48401,0.00092746,0.0330522,1714,1646,10.1702,-19.9241
497,-622,10.1255,19.4169,-0.00192675,0.000313078,-0.000691425,0.000509324,-0.00212299,-1.29424,0.00161215,0.0489064,1721,1646,10.1255,-19.4169
504,-622,10.1399,18.9224,0,0,0,0,0,0,0,-1,1728,1646,10.1398,-18.9224
511,-622,5.29004,4.14587,0,0,0,0,0,0,0,-1,1735,1646,5.29008,-4.14589
518,-622,5.6001,1.55359,0,0,0,0,0,0,0,-1,1742,1646,5.60015,-1.5536
525,-622,5.83093,2.01807,0,0,0,0,0,0,0,-1,1749,1646,5.83097,-2.01802
532,-622,5.44202,0.57373,0,0,0,0,0,0,0,-1,1756,1646,5.44196,-0.573705
539,-622,9.32129,1.06116,0,0,0,0,0,0,0,-1,1763,1646,9.32131,-1.0612
546,-622,6.50977,-3.45618,0,0,0,0,0,0,0,-1,1770,1646,6.50981,3.4562
553,-622,0,0,0,0,0,0,0,0,0,-1,1777,1646,0,0
560,-622,0,0,0,0,0,0,0,0,0,-1,1784,1646,0,0
567,-622,0,0,0,0,0,0,0,0,0,-1,1791,1646,0,0
574,-622,0,0,0,0,0,0,0,0,0,-1,1798,1646,0,0
581,-622,0,0,0,0,0,0,0,0,0,-1,1805,1646,0,0
588,-622,0,0,0,0,0,0,0,0,0,-1,1812,1646,0,0
595,-622,0,0,0,0,0,0,0,0,0,-1,1819,1646,0,0
602,-622,0,0,0,0,0,0,0,0,0,-1,1826,1646,0,0
609,-622,0,0,0,0,0,0,0,0,0,-1,1833,1646,0,0
616,-622,0,0,0,0,0,0,0,0,0,-1,1840,1646,0,0
623,-622,0,0,0,0,0,0,0,0,0,-1,1847,1646,0,0
630,-622,0,0,0,0,0,0,0,0,0,-1,1854,1646,0,0
637,-622,0,0,0,0,0,0,0,0,0,-1,1861,1646,0,0
644,-622,0,0,0,0,0,0,0,0,0,-1,1868,1646,0,0
651,-622,0,0,0,0,0,0,0,0,0,-1,1875,1646,0,0
658,-622,0,0,0,0,0,0,0,0,0,-1,1882,1646,0,0
665,-622,0,0,0,0,0,0,0,0,0,-1,1889,1646,0,0
672,-622,0,0,0,0,0,0,0,0,0,-1,1896,1646,0,0
679,-622,0,0,0,0,0,0,0,0,0,-1,1903,1646,0,0
686,-622,0,0,0,0,0,0,0,0,0,-1,1910,1646,0,0
693,-622,0,0,0,0,0,0,0,0,0,-1,1917,1646,0,0
700,-622,0,0,0,0,0,0,0,0,0,-1,1924,1646,0,0
707,-622,0,0,0,0,0,0,0,0,0,-1,1931,1646,0,0
714,-622,0,0,0,0,0,0,0,0,0,-1,1938,1646,0,0
721,-622,0,0,0,0,0,0,0,0,0,-1,1945,1646,0,0
728,-622,0,0,0,0,0,0,0,0,0,-1,1952,1646,0,0
735,-622,0,0,0,0,0,0,0,0,0,-1,1959,1646,0,0
742,-622,0,0,0,0,0,0,0,0,0,-1,1966,1646,0,0
749,-622,0,0,0,0,0,0,0,0,0,-1,1973,1646,0,0
756,-622,0,0,0,0,0,0,0,0,0,-1,1980,1646,0,0
763,-622,0,0,0,0,0,0,0,0,0,-1,1987,1646,0,0
770,-622,0,0,0,0,0,0,0,0,0,-1,1994,1646,0,0
777,-622,0,0,0,0,0,0,0,0,0,-1,2001,1646,0,0
784,-622,0,0,0,0,0,0,0,0,0,-1,2008,1646,0,0
791,-622,0,0,0,0,0,0,0,0,0,-1,2015,1646,0,0
798,-622,0,0,0,0,0,0,0,0,0,-1,2022,1646,0,0
805,-622,0,0,0,0,0,0,0,0,0,-1,2029,1646,0,0
812,-622,0,0,0,0,0,0,0,0,0,-1,2036,1646,0,0
-700,-629,0,0,0,0,0,0,0,0,0,-1,524,1653,0,0
-693,-629,0,0,0,0,0,0,0,0,0,-1,531,1653,0,0
-686,-629,0,0,0,0,0,0,0,0,0,-1,538,1653,0,0
-679,-629,0,0,0,0,0,0,0,0,0,-1,545,1653,0,0
-672,-629,0,0,0,0,0,0,0,0,0,-1,552,1653,0,0
-665,-629,0,0,0,0,0,0,0,0,0,-1,559,1653,0,0
-658,-629,0,0,0,0,0,0,0,0,0,-1,566,1653,0,0
-651,-629,0,0,0,0,0,0,0,0,0,-1,573,1653,0,0
-644,-629,0,0,0,0,0,0,0,0,0,-1,580,1653,0,0
-637,-629,0,0,0,0,0,0,0,0,0,-1,587,1653,0,0
-630,-629,0,0,0,0,0,0,0,0,0,-1,594,1653,0,0
-623,-629,0,0,0,0,0,0,0,0,0,-1,601,1653,0,0
-616,-629,0,0,0,0,0,0,0,0,0,-1,608,1653,0,0
-609,-629,0,0,0,0,0,0,0,0,0,-1,615,1653,0,0
-602,-629,0,0,0,0,0,0,0,0,0,-1,622,1653,0,0
-595,-629,0,0,0,0,0,0,0,0,0,-1,629,1653,0,0
-588,-629,0,0,0,0,0,0,0,0,0,-1,636,1653,0,0
-581,-629,0,0,0,0,0,0,0,0,0,-1,643,1653,0,0
-574,-629,0,0,0,0,0,0,0,0,0,-1,650,1653,0,0
-567,-629,0,0,0,0,0,0,0,0,0,-1,657,1653,0,0
-560,-629,0,0,0,0,0,0,0,0,0,-1,664,1653,0,0
-553,-629,0,0,0,0,0,0,0,0,0,-1,671,1653,0,0
-546,-629,0,0,0,0,0,0,0,0,0,-1,678,1653,0,0
-539,-629,0,0,0,0,0,0,0,0,0,-1,685,1653,0,0
-532,-629,0,0,0,0,0,0,0,0,0,-1,692,1653,0,0
-525,-629,0,0,0,0,0,0,0,0,0,-1,699,1653,0,0
-518,-629,0,0,0,0,0,0,0,0,0,-1,706,1653,0,0
-511,-629,0,0,0,0,0,0,0,0,0,-1,713,1653,0,0
-504,-629,0,0,0,0,0,0,0,0,0,-1,720,1653,0,0
-497,-629,0,0,0,0,0,0,0,0,0,-1,727,1653,0,0
-490,-629,0,0,0,0,0,0,0,0,0,-1,734,1653,0,0
-483,-629,0,0,0,0,0,0,0,0,0,-1,741,1653,0,0
-476,-629,0,0,0,0,0,0,0,0,0,-1,748,1653,0,0
-469,-629,0,0,0,0,0,0,0,0,0,-1,755,1653,0,0
-462,-629,0,0,0,0,0,0,0,0,0,-1,762,1653,0,0
-455,-629,0,0,0,0,0,0,0,0,0,-1,769,1653,0,0
-448,-629,0,0,0,0,0,0,0,0,0,-1,776,1653,0,0
-441,-629,0,0,0,0,0,0,0,0,0,-1,783,1653,0,0
-434,-629,0,0,0,0,0,0,0,0,0,-1,790,1653,0,0
-427,-629,0,0,0,0,0,0,0,0,0,-1,797,1653,0,0
-420,-629,-3.87103,3.37634,0,0,0,0,0,0,0,-1,804,1653,-3.87101,-3.37633
-413,-629,-5.69751,1.33582,0,0,0,0,0,0,0,-1,811,1653,-5.69754,-1.3358
-406,-629,2.85406,6.01501,0,0,0,0,0,0,0,-1,818,1653,2.85405,-6.01507
-399,-629,-0.455627,10.8687,0,0,0,0,0,0,0,-1,825,1653,-0.455625,-10.8687
-392,-629,1.15369,11.1295,0,0,0,0,0,0,0,-1,832,1653,1.1537,-11.1295
-385,-629,1.81976,11.6935,0,0,0,0,0,0,0,-1,839,1653,1.81975,-11.6935
-378,-629,2.19452,14.7941,0,0,0,0,0,0,0,-1,846,1653,2.19451,-14.7941
-371,-629,3.60114,14.7299,0,0,0,0,0,0,0,-1,853,1653,3.60113,-14.7299
-364,-629,3.12482,18.519,0,0,0,0,0,0,0,-1,860,1653,3.1248,-18.519
-357,-629,4.38782,16.3444,0,0,0,0,0,0,0,-1,867,1653,4.38783,-16.3443
-350,-629,3.5282,19.4503,0,0,0,0,0,0,0,-1,874,1653,3.52817,-19.4503
-343,-629,3.60315,19.7814,-0.00211385,-0.00323894,-0.00413005,0.00149179,-0.00684458,-0.717711,0.00513309,0.0452355,881,1653,3.60317,-19.7813
-336,-629,3.65167,20.0365,-0.00124613,-0.00254684,-0.00368843,0.00184884,-0.00564181,-0.698133,0.00450575,0.0192371,888,1653,3.65169,-20.0365
-329,-629,3.69464,20.3894,-0.000698247,-0.00170932,-0.0031859,0.00202198,-0.00442955,-0.706715,0.00381026,0.011898,895,1653,3.69463,-20.3894
-322,-629,3.68488,20.7383,-0.000530558,-0.000802015,-0.00256672,0.00190402,-0.00323659,-0.758983,0.00300099,0.0118292,902,1653,3.68487,-20.7383
-315,-629,3.65698,21.0739,-0.000503627,-0.000107329,-0.00191677,0.00162151,-0.00223246,-0.836904,0.00223439,0.0152075,909,1653,3.65696,-21.0739
-308,-629,3.64435,21.4125,-0.00037442,0.000473085,-0.00133005,0.00144526,-0.00134659,-0.939613,0.00161221,0.0128832,916,1653,3.64435,-21.4125
-301,-629,3.64789,21.7776,-0.000109625,0.000908851,-0.000781692,0.00133255,-0.000533321,-1.0741,0.00110971,0.0121072,923,1653,3.64789,-21.7775
-294,-629,3.62219,22.1152,0.000330949,0.00133598,-0.000244418,0.00139227,0.00027466,-1.34445,0.00085152,0.0131672,930,1653,3.62221,-22.1153
-287,-629,3.61267,22.4417,0.000853796,0.00162544,0.000245204,0.00169676,0.000782471,1.28773,0.000980612,0.0100706,937,1653,3.61268,-22.4416
-280,-629,3.61438,22.7827,0.00146986,0.00173883,0.000677934,0.00229549,0.000913203,0.883313,0.00133449,0.00942102,944,1653,3.61438,-22.7827
-273,-629,3.61548,23.0946,0.00219224,0.00177365,0.00103853,0.00304235,0.000923541,0.685964,0.00180112,0.0119164,951,1653,3.61545,-23.0946
-266,-629,3.60394,23.4388,0.00296478,0.00168608,0.00149039,0.00394717,0.000703696,0.582779,0.00243107,0.013225,958,1653,3.60395,-23.4388
-259,-629,3.60138,23.79,0.00386402,0.00154032,0.0018386,0.00487711,0.000527234,0.503619,0.00309069,0.0149005,965,1653,3.60138,-23.7901
-252,-629,3.60907,24.053,0.00477276,0.00138998,0.00210277,0.00577998,0.000382771,0.446701,0.00373228,0.0117502,972,1653,3.60908,-24.0529
-245,-629,3.62457,24.3488,0.00562385,0.00125309,0.00239738,0.00668244,0.0001945,0.415813,0.00439156,0.00853116,979,1653,3.62458,-24.3488
-238,-629,3.62207,24.6439,0.00649941,0.00109744,0.00269206,0.00761189,-1.50348e-05,0.391872,0.00507961,0.0103738,986,1653,3.6221,-24.6439
-231,-629,3.60297,24.941,0.00744281,0.00123064,0.00310237,0.00872677,-5.33182e-05,0.3924,0.0058357,0.0127424,993,1653,3.60296,-24.9411
-224,-629,3.69238,25.3151,0.00816666,0.00144644,0.00347438,0.00963994,-2.68328e-05,0.401058,0.00643559,0.0154626,1000,1653,3.69241,-25.315
-217,-629,3.66077,25.5717,0.00862924,0.00157378,0.00373355,0.0102381,-3.50541e-05,0.406868,0.0068371,0.0277686,1007,1653,3.66078,-25.5716
-210,-629,3.5506,26.1317,0,0,0,0,0,0,0,-1,1014,1653,3.55063,-26.1317
-203,-629,4.00928,26.6055,0,0,0,0,0,0,0,-1,1021,1653,4.00922,-26.6054
-196,-629,4.12244,26.5977,0,0,0,0,0,0,0,-1,1028,1653,4.12245,-26.5976
-189,-629,3.99475,26.7377,0,0,0,0,0,0,0,-1,1035,1653,3.9948,-26.7377
-182,-629,4.10461,27.1948,0,0,0,0,0,0,0,-1,1042,1653,4.10467,-27.1949
-175,-629,3.29102,19.1411,0,0,0,0,0,0,0,-1,1049,1653,3.29096,-19.1411
-168,-629,3.87695,26.1963,0,0,0,0,0,0,0,-1,1056,1653,3.87692,-26.1962
-161,-629,3.66675,26.2295,0.0089648,-0.0243695,-0.00612742,0.0100554,-0.0254602,-0.176149,0.0211381,0.0451849,1063,1653,3.66677,-26.2295
-154,-629,3.70154,26.2426,0,0,0,0,0,0,0,-1,1070,1653,3.7015,-26.2426
-147,-629,3.97644,26.3405,0,0,0,0,0,0,0,-1,1077,1653,3.9764,-26.3405
-140,-629,2.34851,19.2911,0,0,0,0,0,0,0,-1,1084,1653,2.34853,-19.2911
-133,-629,3.41248,17.6686,0,0,0,0,0,0,0,-1,1091,1653,3.41243,-17.6686
-126,-629,4.01025,19.5328,0,0,0,0,0,0,0,-1,1098,1653,4.01022,-19.5328
-119,-629,4.94177,13.5525,0,0,0,0,0,0,0,-1,1105,1653,4.94172,-13.5525
-112,-629,5.63123,15.9187,0,0,0,0,0,0,0,-1,1112,1653,5.63118,-15.9187
-105,-629,2.15881,4.38342,0,0,0,0,0,0,0,-1,1119,1653,2.15878,-4.38347
-98,-629,0.825806,4.19385,0,0,0,0,0,0,0,-1,1126,1653,0.825779,-4.1939
-91,-629,-0.452271,3.64465,0,0,0,0,0,0,0,-1,1133,1653,-0.452278,-3.6446
-84,-629,-2.6084,0.466797,0,0,0,0,0,0,0,-1,1140,1653,-2.6084,-0.466786
-77,-629,-3.50903,2.10706,0,0,0,0,0,0,0,-1,1147,1653,-3.509,-2.10707
-70,-629,-1.20886,2.52502,0,0,0,0,0,0,0,-1,1154,1653,-1.20886,-2.525
-63,-629,-0.960693,4.30212,0,0,0,0,0,0,0,-1,1161,1653,-0.960691,-4.30215
-56,-629,-1.31934,5.64343,0,0,0,0,0,0,0,-1,1168,1653,-1.31928,-5.6434
-49,-629,-2.15662,2.57458,0,0,0,0,0,0,0,-1,1175,1653,-2.15656,-2.57459
-42,-629,-2.46326,3.91467,0,0,0,0,0,0,0,-1,1182,1653,-2.4633,-3.91466
-35,-629,-2.67261,5.24292,0,0,0,0,0,0,0,-1,1189,1653,-2.67257,-5.24298
-28,-629,-0.402954,-0.866577,0,0,0,0,0,0,0,-1,1196,1653,-0.402943,0.866612
-21,-629,3.45508,27.0596,0,0,0,0,0,0,0,-1,1203,1653,3.45508,-27.0596
-14,-629,3.80542,30.0188,0,0,0,0,0,0,0,-1,1210,1653,3.80544,-30.0188
-7,-629,3.97388,30.7375,0.0386922,0.0361305,0.0660814,0.103505,-0.0286825,0.775708,0.0802906,0.0494729,1217,1653,3.97383,-30.7376
0,-629,4.17493,31.3984,0.0501701,0.0521092,0.0810141,0.13216,-0.0298802,0.791382,0.0995723,0.0486968,1224,1653,4.17488,-31.3984
7,-629,3.9353,31.5699,0.0653024,0.0716915,0.0923911,0.160943,-0.0239494,0.802679,0.116105,0.0458676,1231,1653,3.93526,-31.5699
14,-629,5.6543,33.7003,0.0741669,0.091709,0.0967828,0.180117,-0.0142414,0.830588,0.125096,0.0397313,1238,1653,5.6543,-33.7004
21,-629,5.69238,34.9382,0.0772929,0.1127,0.0947541,0.19139,-0.00139729,0.877752,0.128062,0.0452677,1245,1653,5.69235,-34.9383
28,-629,8.0144,36.2542,0.0760694,0.132658,0.0908171,0.199486,0.00924101,0.936409,0.13002,0.0478153,1252,1653,8.01442,-36.2541
35,-629,7.42627,37.2847,0.0705446,0.149663,0.0834497,0.202456,0.0177525,1.00674,0.129459,0.0435155,1259,1653,7.42628,-37.2847
42,-629,7.80774,37.3153,0.0631056,0.166636,0.0755597,0.206462,0.0232798,1.08572,0.130575,0.0484266,1266,1653,7.80778,-37.3153
49,-629,8.33118,37.4604,0,0,0,0,0,0,0,-1,1273,1653,8.33114,-37.4604
56,-629,7.34509,38.6969,0,0,0,0,0,0,0,-1,1280,1653,7.34513,-38.6969
63,-629,7.51196,39.0765,0.0444998,0.195557,0.0489983,0.210058,0.0299983,1.28305,0.131188,0.0456711,1287,1653,7.51194,-39.0765
70,-629,7.70398,39.1332,0.0367422,0.197856,0.0393686,0.206961,0.027637,1.34351,0.129747,0.0442177,1294,1653,7.70393,-39.1331
77,-629,8.04126,39.6434,0.0311399,0.192683,0.0327304,0.199062,0.0247603,1.3783,0.125273,0.0462103,1301,1653,8.04126,-39.6435
84,-629,6.59058,38.6219,0,0,0,0,0,0,0,-1,1308,1653,6.59056,-38.622
91,-629,4.04736,24.5216,0,0,0,0,0,0,0,-1,1315,1653,4.04731,-24.5216
98,-629,6.99036,39.6719,0,0,0,0,0,0,0,-1,1322,1653,6.99041,-39.6719
105,-629,7.95386,40.043,0,0,0,0,0,0,0,-1,1329,1653,7.95388,-40.0429
112,-629,9.09863,40.0687,0,0,0,0,0,0,0,-1,1336,1653,9.09859,-40.0687
119,-629,10.4083,40.047,0,0,0,0,0,0,0,-1,1343,1653,10.4084,-40.047
126,-629,10.6282,35.0887,0,0,0,0,0,0,0,-1,1350,1653,10.6281,-35.0887
133,-629,11.8104,35.5245,0,0,0,0,0,0,0,-1,1357,1653,11.8105,-35.5245
140,-629,11.3291,34.9828,0,0,0,0,0,0,0,-1,1364,1653,11.3291,-34.9828
147,-629,11.061,34.1191,0,0,0,0,0,0,0,-1,1371,1653,11.061,-34.1191
154,-629,10.6113,33.5126,0,0,0,0,0,0,0,-1,1378,1653,10.6113,-33.5126
161,-629,10.5461,6.83752,0,0,0,0,0,0,0,-1,1385,1653,10.5461,-6.83758
168,-629,12.0059,5.56348,0,0,0,0,0,0,0,-1,1392,1653,12.0059,-5.56352
175,-629,5.84485,-1.78845,0,0,0,0,0,0,0,-1,1399,1653,5.84479,1.7884
182,-629,5.99036,-1.27783,0,0,0,0,0,0,0,-1,1406,1653,5.99041,1.27778
189,-629,5.97668,-0.748535,0,0,0,0,0,0,0,-1,1413,1653,5.97671,0.748544
196,-629,4.52869,9.24695,0,0,0,0,0,0,0,-1,1420,1653,4.52869,-9.2469
203,-629,3.75085,6.88037,0,0,0,0,0,0,0,-1,1427,1653,3.75087,-6.88032
210,-629,3.5907,6.52637,0,0,0,0,0,0,0,-1,1434,1653,3.59067,-6.52642
217,-629,2.4585,4.84448,0,0,0,0,0,0,0,-1,1441,1653,2.45855,-4.84448
224,-629,1.31982,3.68481,0,0,0,0,0,0,0,-1,1448,1653,1.31986,-3.68487
231,-629,3.63025,1.73499,0,0,0,0,0,0,0,-1,1455,1653,3.6303,-1.735
238,-629,4.26428,2.11255,0,0,0,0,0,0,0,-1,1462,1653,4.26429,-2.11253
245,-629,5.61816,1.95361,0,0,0,0,0,0,0,-1,1469,1653,5.61815,-1.95359
252,-629,7.27136,2.18982,0,0,0,0,0,0,0,-1,1476,1653,7.27131,-2.18985
259,-629,8.67334,2.18628,0,0,0,0,0,0,0,-1,1483,1653,8.6733,-2.18633
266,-629,6.86475,3.72058,0,0,0,0,0,0,0,-1,1490,1653,6.86479,-3.72063
273,-629,7.9021,3.8717,0,0,0,0,0,0,0,-1,1497,1653,7.90205,-3.87171
280,-629,9.70837,4.39087,0,0,0,0,0,0,0,-1,1504,1653,9.7084,-4.39082
287,-629,9.82947,7.19348,0,0,0,0,0,0,0,-1,1511,1653,9.8295,-7.19347
294,-629,6.56555,11.6359,0,0,0,0,0,0,0,-1,1518,1653,6.5656,-11.6358
301,-629,6.93835,15.6102,0,0,0,0,0,0,0,-1,1525,1653,6.93835,-15.6103
308,-629,6.08264,12.1423,0,0,0,0,0,0,0,-1,1532,1653,6.08263,-12.1423
315,-629,6.82043,18.2764,0,0,0,0,0,0,0,-1,1539,1653,6.82049,-18.2764
322,-629,9.15906,26.3816,0,0,0,0,0,0,0,-1,1546,1653,9.1591,-26.3816
329,-629,9.88257,27.0159,0,0,0,0,0,0,0,-1,1553,1653,9.88261,-27.0159
336,-629,9.91504,26.6118,0,0,0,0,0,0,0,-1,1560,1653,9.91508,-26.6118
343,-629,9.85535,26.5076,0.00439784,0.01076,-0.00265337,0.0117213,0.0034365,-1.2232,0.00695762,0.0471995,1567,1653,9.85539,-26.5075
350,-629,9.89453,26.0903,0.00384339,0.0103002,-0.00266242,0.0112564,0.00288716,-1.22599,0.00675089,0.0293716,1574,1653,9.89449,-26.0903
357,-629,9.89172,25.7415,0.0035201,0.00969508,-0.00261043,0.0106507,0.00256445,-1.21986,0.00641876,0.0164807,1581,1653,9.89173,-25.7415
364,-629,9.85925,25.468,0.00328135,0.00878612,-0.00242727,0.00970351,0.00236396,-1.20944,0.00584267,0.0139395,1588,1653,9.8593,-25.4681
371,-629,9.84753,25.2131,0.00298859,0.0078278,-0.00218362,0.00866744,0.00214895,-1.20371,0.00521181,0.0109581,1595,1653,9.84755,-25.2131
378,-629,9.85645,24.9418,0.00257247,0.00676946,-0.00191947,0.00751491,0.00182702,-1.20036,0.00452558,0.0101935,1602,1653,9.85641,-24.9418
385,-629,9.87964,24.6711,0.00225449,0.00553449,-0.00167315,0.00623736,0.00155162,-1.17309,0.00374962,0.0124313,1609,1653,9.87968,-24.6712
392,-629,9.86853,24.3944,0.00194782,0.00419877,-0.00136268,0.00484066,0.00130593,-1.13057,0.00289182,0.0110623,1616,1653,9.86855,-24.3944
399,-629,9.84607,24.1056,0.00155487,0.0027131,-0.000934992,0.0032338,0.00103418,-1.06267,0.00190702,0.0112672,1623,1653,9.84603,-24.1056
406,-629,9.85156,23.7986,0.00112311,0.00134513,-0.000497018,0.00174338,0.000724857,-0.895268,0.00101129,0.0145545,1630,1653,9.85151,-23.7986
413,-629,9.85974,23.5027,0.000729519,0.000142988,-0.000108551,0.000748964,0.000123543,-0.177253,0.000463648,0.0231031,1637,1653,9.85976,-23.5027
420,-629,9.85876,23.2291,0.000383751,-0.00109041,0.000268254,0.000431048,-0.00113771,0.17452,0.000935852,0.0208447,1644,1653,9.85873,-23.2291
427,-629,9.84937,22.9181,0.000106639,-0.00211612,0.000645896,0.000280695,-0.00229018,0.263228,0.00162843,0.0124458,1651,1653,9.84941,-22.9181
434,-629,9.85364,22.5881,-0.00015724,-0.00316527,0.000965411,0.000125944,-0.00344846,0.285326,0.00234208,0.0101884,1658,1653,9.85367,-22.5882
441,-629,9.85107,22.2721,-0.000353832,-0.00377031,0.00114304,-6.68154e-06,-0.00411746,0.294854,0.00274275,0.0139192,1665,1653,9.85113,-22.2721
448,-629,9.82581,21.9452,-0.000522182,-0.00416035,0.00122012,-0.000150888,-0.00453164,0.295406,0.00297208,0.0145185,1672,1653,9.82583,-21.9452
455,-629,9.81812,21.5979,-0.000669804,-0.00449452,0.00134527,-0.000244032,-0.00492029,0.306522,0.00320195,0.0147175,1679,1653,9.8181,-21.598
462,-629,9.82703,21.2963,-0.000841614,-0.00462787,0.00144141,-0.00035533,-0.00511415,0.325376,0.00329738,0.0173162,1686,1653,9.82707,-21.2963
469,-629,9.79407,20.9515,-0.00102943,-0.0044098,0.0014323,-0.000504166,-0.00493506,0.351497,0.00313553,0.0204904,1693,1653,9.7941,-20.9516
476,-629,9.88477,20.6764,-0.00119203,-0.00401042,0.00131686,-0.000672512,-0.00452994,0.37577,0.00282262,0.0293723,1700,1653,9.88475,-20.6764
483,-629,9.79785,19.7867,0,0,0,0,0,0,0,-1,1707,1653,9.79785,-19.7867
490,-629,9.98291,19.207,0,0,0,0,0,0,0,-1,1714,1653,9.98291,-19.2071
497,-629,9.79968,19.1727,0,0,0,0,0,0,0,-1,1721,1653,9.79972,-19.1728
504,-629,7.89453,15.5316,0,0,0,0,0,0,0,-1,1728,1653,7.89447,-15.5316
511,-629,6.29138,3.40295,0,0,0,0,0,0,0,-1,1735,1653,6.29137,-3.403
518,-629,5.84387,1.41858,0,0,0,0,0,0,0,-1,1742,1653,5.84391,-1.4186
525,-629,6.4729,1.02319,0,0,0,0,0,0,0,-1,1749,1653,6.47284,-1.02316
532,-629,6.86511,0.903687,0,0,0,0,0,0,0,-1,1756,1653,6.86514,-0.903691
539,-629,6.60803,0.746704,0,0,0,0,0,0,0,-1,1763,1653,6.60809,-0.746691
546,-629,0,0,0,0,0,0,0,0,0,-1,1770,1653,0,0
553,-629,0,0,0,0,0,0,0,0,0,-1,1777,1653,0,0
560,-629,0,0,0,0,0,0,0,0,0,-1,1784,1653,0,0
567,-629,0,0,0,0,0,0,0,0,0,-1,1791,1653,0,0
574,-629,0,0,0,0,0,0,0,0,0,-1,1798,1653,0,0
581,-629,0,0,0,0,0,0,0,0,0,-1,1805,1653,0,0
588,-629,0,0,0,0,0,0,0,0,0,-1,1812,1653,0,0
595,-629,0,0,0,0,0,0,0,0,0,-1,1819,1653,0,0
602,-629,0,0,0,0,0,0,0,0,0,-1,1826,1653,0,0
609,-629,0,0,0,0,0,0,0,0,0,-1,1833,1653,0,0
616,-629,0,0,0,0,0,0,0,0,0,-1,1840,1653,0,0
623,-629,0,0,0,0,0,0,0,0,0,-1,1847,1653,0,0
630,-629,0,0,0,0,0,0,0,0,0,-1,1854,1653,0,0
637,-629,0,0,0,0,0,0,0,0,0,-1,1861,1653,0,0
644,-629,0,0,0,0,0,0,0,0,0,-1,1868,1653,0,0
651,-629,0,0,0,0,0,0,0,0,0,-1,1875,1653,0,0
658,-629,0,0,0,0,0,0,0,0,0,-1,1882,1653,0,0
665,-629,0,0,0,0,0,0,0,0,0,-1,1889,1653,0,0
672,-629,0,0,0,0,0,0,0,0,0,-1,1896,1653,0,0
679,-629,0,0,0,0,0,0,0,0,0,-1,1903,1653,0,0
686,-629,0,0,0,0,0,0,0,0,0,-1,1910,1653,0,0
693,-629,0,0,0,0,0,0,0,0,0,-1,1917,1653,0,0
700,-629,0,0,0,0,0,0,0,0,0,-1,1924,1653,0,0
707,-629,0,0,0,0,0,0,0,0,0,-1,1931,1653,0,0
714,-629,0,0,0,0,0,0,0,0,0,-1,1938,1653,0,0
721,-629,0,0,0,0,0,0,0,0,0,-1,1945,1653,0,0
728,-629,0,0,0,0,0,0,0,0,0,-1,1952,1653,0,0
735,-629,0,0,0,0,0,0,0,0,0,-1,1959,1653,0,0
742,-629,0,0,0,0,0,0,0,0,0,-1,1966,1653,0,0
749,-629,0,0,0,0,0,0,0,0,0,-1,1973,1653,0,0
756,-629,0,0,0,0,0,0,0,0,0,-1,1980,1653,0,0
763,-629,0,0,0,0,0,0,0,0,0,-1,1987,1653,0,0
770,-629,0,0,0,0,0,0,0,0,0,-1,1994,1653,0,0
777,-629,0,0,0,0,0,0,0,0,0,-1,2001,1653,0,0
784,-629,0,0,0,0,0,0,0,0,0,-1,2008,1653,0,0
791,-629,0,0,0,0,0,0,0,0,0,-1,2015,1653,0,0
798,-629,0,0,0,0,0,0,0,0,0,-1,2022,1653,0,0
805,-629,0,0,0,0,0,0,0,0,0,-1,2029,1653,0,0
812,-629,0,0,0,0,0,0,0,0,0,-1,2036,1653,0,0
-700,-636,0,0,0,0,0,0,0,0,0,-1,524,1660,0,0
-693,-636,0,0,0,0,0,0,0,0,0,-1,531,1660,0,0
-686,-636,0,0,0,0,0,0,0,0,0,-1,538,1660,0,0
-679,-636,0,0,0,0,0,0,0,0,0,-1,545,1660,0,0
-672,-636,0,0,0,0,0,0,0,0,0,-1,552,1660,0,0
-665,-636,0,0,0,0,0,0,0,0,0,-1,559,1660,0,0
-658,-636,0,0,0,0,0,0,0,0,0,-1,566,1660,0,0
-651,-636,0,0,0,0,0,0,0,0,0,-1,573,1660,0,0
-644,-636,0,0,0,0,0,0,0,0,0,-1,580,1660,0,0
-637,-636,0,0,0,0,0,0,0,0,0,-1,587,1660,0,0
-630,-636,0,0,0,0,0,0,0,0,0,-1,594,1660,0,0
-623,-636,0,0,0,0,0,0,0,0,0,-1,601,1660,0,0
-616,-636,0,0,0,0,0,0,0,0,0,-1,608,1660,0,0
-609,-636,0,0,0,0,0,0,0,0,0,-1,615,1660,0,0
-602,-636,0,0,0,0,0,0,0,0,0,-1,622,1660,0,0
-595,-636,0,0,0,0,0,0,0,0,0,-1,629,1660,0,0
-588,-636,0,0,0,0,0,0,0,0,0,-1,636,1660,0,0
-581,-636,0,0,0,0,0,0,0,0,0,-1,643,1660,0,0
-574,-636,0,0,0,0,0,0,0,0,0,-1,650,1660,0,0
-567,-636,0,0,0,0,0,0,0,0,0,-1,657,1660,0,0
-560,-636,0,0,0,0,0,0,0,0,0,-1,664,1660,0,0
-553,-636,0,0,0,0,0,0,0,0,0,-1,671,1660,0,0
-546,-636,0,0,0,0,0,0,0,0,0,-1,678,1660,0,0
-539,-636,0,0,0,0,0,0,0,0,0,-1,685,1660,0,0
-532,-636,0,0,0,0,0,0,0,0,0,-1,692,1660,0,0
-525,-636,0,0,0,0,0,0,0,0,0,-1,699,1660,0,0
-518,-636,0,0,0,0,0,0,0,0,0,-1,706,1660,0,0
-511,-636,0,0,0,0,0,0,0,0,0,-1,713,1660,0,0
-504,-636,0,0,0,0,0,0,0,0,0,-1,720,1660,0,0
-497,-636,0,0,0,0,0,0,0,0,0,-1,727,1660,0,0
-490,-636,0,0,0,0,0,0,0,0,0,-1,734,1660,0,0
-483,-636,0,0,0,0,0,0,0,0,0,-1,741,1660,0,0
-476,-636,0,0,0,0,0,0,0,0,0,-1,748,1660,0,0
-469,-636,0,0,0,0,0,0,0,0,0,-1,755,1660,0,0
-462,-636,0,0,0,0,0,0,0,0,0,-1,762,1660,0,0
-455,-636,0,0,0,0,0,0,0,0,0,-1,769,1660,0,0
-448,-636,0,0,0,0,0,0,0,0,0,-1,776,1660,0,0
-441,-636,0,0,0,0,0,0,0,0,0,-1,783,1660,0,0
-434,-636,0,0,0,0,0,0,0,0,0,-1,790,1660,0,0
-427,-636,0,0,0,0,0,0,0,0,0,-1,797,1660,0,0
-420,-636,0,0,0,0,0,0,0,0,0,-1,804,1660,0,0
-413,-636,0,0,0,0,0,0,0,0,0,-1,811,1660,0,0
-406,-636,-0.591125,10.6943,0,0,0,0,0,0,0,-1,818,1660,-0.59115,-10.6943
-399,-636,0.0766602,11.2408,0,0,0,0,0,0,0,-1,825,1660,0.076685,-11.2409
-392,-636,0.75946,11.9233,0,0,0,0,0,0,0,-1,832,1660,0.759481,-11.9233
-385,-636,1.68878,12.517,0,0,0,0,0,0,0,-1,839,1660,1.6888,-12.5169
-378,-636,2.22107,13.0013,0,0,0,0,0,0,0,-1,846,1660,2.22107,-13.0014
-371,-636,2.52185,11.9684,0,0,0,0,0,0,0,-1,853,1660,2.52184,-11.9684
-364,-636,4.51947,14.8503,0,0,0,0,0,0,0,-1,860,1660,4.51949,-14.8504
-357,-636,4.55682,15.8809,0,0,0,0,0,0,0,-1,867,1660,4.55681,-15.8808
-350,-636,2.63104,14.4946,0,0,0,0,0,0,0,-1,874,1660,2.63102,-14.4946
-343,-636,3.91907,19.9487,0,0,0,0,0,0,0,-1,881,1660,3.91906,-19.9488
-336,-636,3.94214,20.0093,-0.00156432,-0.00309194,-0.00600824,0.00372846,-0.00838472,-0.722174,0.00716371,0.034427,888,1660,3.94216,-20.0093
-329,-636,4.0354,20.3683,-0.00115739,-0.00194503,-0.00510237,0.00356634,-0.00666876,-0.746883,0.00599904,0.0195901,895,1660,4.03539,-20.3682
-322,-636,4.03113,20.7391,-0.00107937,-0.00080382,-0.00406832,0.00312905,-0.00501224,-0.802324,0.00474211,0.0124328,902,1660,4.03115,-20.7391
-315,-636,3.98358,21.0823,-0.00108277,6.94395e-05,-0.00299248,0.00254076,-0.00355409,-0.880494,0.00353504,0.0126529,909,1660,3.98355,-21.0823
-308,-636,3.97852,21.4303,-0.000969381,0.000763977,-0.00207131,0.00214262,-0.00234802,-0.983541,0.00259357,0.011156,916,1660,3.9785,-21.4303
-301,-636,3.98187,21.7875,-0.00072697,0.00125979,-0.0012787,0.00188564,-0.00135281,-1.11564,0.00187814,0.011504,923,1660,3.98188,-21.7875
-294,-636,3.95618,22.13,-0.0003343,0.00166074,-0.000576876,0.00181553,-0.000489097,-1.30864,0.00140212,0.0155219,930,1660,3.95618,-22.13
-287,-636,3.93878,22.444,0.00011443,0.00191837,6.41246e-06,0.00191839,0.000114408,1.56724,0.00124255,0.0128285,937,1660,3.93875,-22.444
-280,-636,3.94153,22.778,0.000634073,0.00196277,0.000476495,0.00211598,0.00048086,1.2597,0.00128082,0.0113692,944,1660,3.94152,-22.7779
-273,-636,3.93347,23.0905,0.00125487,0.00193048,0.000834721,0.00249316,0.000692188,0.977672,0.00148612,0.0112223,951,1660,3.93348,-23.0904
-266,-636,3.93964,23.4313,0.0019009,0.00182448,0.00130308,0.00316633,0.000559044,0.770742,0.00195142,0.0127006,958,1660,3.93962,-23.4312
-259,-636,3.95172,23.7825,0.00267068,0.00158529,0.0015986,0.00381619,0.000439782,0.621762,0.00241094,0.0145836,965,1660,3.95174,-23.7825
-252,-636,3.93658,24.0562,0.00341381,0.00134438,0.00170917,0.00437707,0.000381121,0.513212,0.00279966,0.0117127,972,1660,3.93661,-24.0562
-245,-636,3.94324,24.3639,0.00405565,0.00117405,0.0018356,0.00494837,0.000281333,0.452659,0.00320925,0.0110283,979,1660,3.94322,-24.3639
-238,-636,3.96277,24.6606,0.00471444,0.00102447,0.00198435,0.005579,0.000159912,0.410888,0.00366719,0.012147,986,1660,3.96277,-24.6606
-231,-636,3.95239,24.943,0.00544011,0.00110282,0.00225238,0.00639816,0.000144761,0.402168,0.00421802,0.0112247,993,1660,3.95241,-24.943
-224,-636,3.95728,25.2356,0.00599524,0.00131652,0.0024991,0.00707906,0.000232709,0.409201,0.00464374,0.00900631,1000,1660,3.9573,-25.2356
-217,-636,3.94885,25.5826,0.00632894,0.00146758,0.00264041,0.00748713,0.000309388,0.413366,0.00489155,0.0150506,1007,1660,3.94888,-25.5827
-210,-636,3.95129,25.8315,0.00672166,0.000242805,0.00232723,0.00747096,-0.00050649,0.311487,0.00515777,0.0248487,1014,1660,3.95128,-25.8316
-203,-636,4.03711,26.1611,0.00730894,-0.00119643,0.00199284,0.00775272,-0.00164021,0.21911,0.00579314,0.0309329,1021,1660,4.03716,-26.1611
-196,-636,4.14478,26.381,0.00743871,-0.00278524,0.00140135,0.00762731,-0.00297384,0.133779,0.00631408,0.0321553,1028,1660,4.1448,-26.3809
-189,-636,4.13867,26.6088,0.00732209,-0.00496973,0.000527433,0.00734468,-0.00499232,0.0428044,0.0071658,0.0307017,1035,1660,4.13866,-26.6088
-182,-636,4.25366,26.9463,0.00701845,-0.00713091,-0.000612412,0.0070449,-0.00715737,-0.0431743,0.00819977,0.0463141,1042,1660,4.2537,-26.9463
-175,-636,4.42822,27.4003,0,0,0,0,0,0,0,-1,1049,1660,4.42821,-27.4003
-168,-636,4.2887,27.2865,0,0,0,0,0,0,0,-1,1056,1660,4.28866,-27.2865
-161,-636,3.97107,26.8588,0,0,0,0,0,0,0,-1,1063,1660,3.97108,-26.8587
-154,-636,4.35046,27.1272,0,0,0,0,0,0,0,-1,1070,1660,4.35043,-27.1272
-147,-636,4.32471,28.3247,0,0,0,0,0,0,0,-1,1077,1660,4.32471,-28.3247
-140,-636,3.4729,27.1271,0,0,0,0,0,0,0,-1,1084,1660,3.47287,-27.1271
-133,-636,4.68311,18.0922,0,0,0,0,0,0,0,-1,1091,1660,4.68316,-18.0921
-126,-636,3.79028,18.2225,0,0,0,0,0,0,0,-1,1098,1660,3.79025,-18.2226
-119,-636,1.8667,13.8916,0,0,0,0,0,0,0,-1,1105,1660,1.86668,-13.8916
-112,-636,-1.24963,9.7998,0,0,0,0,0,0,0,-1,1112,1660,-1.24968,-9.79978
-105,-636,3.51624,4.72791,0,0,0,0,0,0,0,-1,1119,1660,3.51618,-4.7279
-98,-636,1.54504,5.11914,0,0,0,0,0,0,0,-1,1126,1660,1.54503,-5.11912
-91,-636,-1.87964,-2.25012,0,0,0,0,0,0,0,-1,1133,1660,-1.87966,2.25016
-84,-636,-2.84143,0.133667,0,0,0,0,0,0,0,-1,1140,1660,-2.84144,-0.133701
-77,-636,-3.57349,2.45935,0,0,0,0,0,0,0,-1,1147,1660,-3.57345,-2.45939
-70,-636,-4.23682,4.82312,0,0,0,0,0,0,0,-1,1154,1660,-4.23681,-4.82307
-63,-636,-2.21033,6.97168,0,0,0,0,0,0,0,-1,1161,1660,-2.21034,-6.97165
-56,-636,-2.51917,8.80359,0,0,0,0,0,0,0,-1,1168,1660,-2.51916,-8.80361
-49,-636,-3.13,10.4113,0,0,0,0,0,0,0,-1,1175,1660,-3.12996,-10.4112
-42,-636,-2.27771,4.90173,0,0,0,0,0,0,0,-1,1182,1660,-2.27775,-4.90173
-35,-636,-2.27698,5.89685,0,0,0,0,0,0,0,-1,1189,1660,-2.27695,-5.89686
-28,-636,-1.70654,4.83936,0,0,0,0,0,0,0,-1,1196,1660,-1.70656,-4.8393
-21,-636,4.24683,27.7834,0,0,0,0,0,0,0,-1,1203,1660,4.24687,-27.7835
-14,-636,4.36719,29.3376,0,0,0,0,0,0,0,-1,1210,1660,4.36721,-29.3376
-7,-636,4.48169,30.1449,0.037287,0.0291085,0.0524092,0.0857662,-0.0193707,0.746464,0.0646096,0.0460303,1217,1660,4.48174,-30.1449
0,-636,4.44983,30.7784,0.0474914,0.0442427,0.0639467,0.109834,-0.0181003,0.7727,0.0799423,0.0480624,1224,1660,4.44988,-30.7784
7,-636,4.37219,31.8243,0.0613939,0.0630104,0.0725752,0.134782,-0.0103776,0.790966,0.0935059,0.0455287,1231,1660,4.37222,-31.8243
14,-636,5.28149,33.4041,0.0700838,0.0818759,0.0758204,0.152029,-6.94916e-05,0.824202,0.101376,0.0409144,1238,1660,5.28154,-33.4041
21,-636,5.34619,34.2782,0.0736147,0.101353,0.0740487,0.16282,0.0121477,0.877976,0.104733,0.0431334,1245,1660,5.34614,-34.2782
28,-636,5.37256,35.0183,0.0730343,0.120713,0.0710662,0.171832,0.0219156,0.947227,0.107993,0.0448052,1252,1660,5.3725,-35.0183
35,-636,7.28174,36.3186,0.0684606,0.137144,0.0658569,0.177075,0.0285292,1.02573,0.109783,0.0439832,1259,1660,7.28179,-36.3185
42,-636,7.63892,36.618,0.0621223,0.152736,0.0600972,0.182691,0.0321669,1.10839,0.112614,0.0471658,1266,1660,7.63896,-36.618
49,-636,7.45044,37.0609,0,0,0,0,0,0,0,-1,1273,1660,7.45048,-37.0609
56,-636,7.35779,37.2628,0.0524981,0.173837,0.0486455,0.190931,0.035404,1.23287,0.117281,0.0478251,1280,1660,7.35783,-37.2628
63,-636,7.45801,37.4972,0.0446933,0.182837,0.0425803,0.194907,0.0326233,1.29458,0.120544,0.0438893,1287,1660,7.45804,-37.4972
70,-636,7.48145,37.5272,0.0372445,0.185894,0.0360879,0.194192,0.0289466,1.34479,0.120972,0.0446697,1294,1660,7.48147,-37.5272
77,-636,7.3905,37.8939,0.0313381,0.183134,0.0318637,0.189551,0.0249208,1.37206,0.118934,0.0461631,1301,1660,7.39045,-37.894
84,-636,6.94214,37.9487,0.0279063,0.171675,0.0275287,0.176766,0.0228154,1.38793,0.111023,0.048597,1308,1660,6.9422,-37.9488
91,-636,6.81616,38.4069,0,0,0,0,0,0,0,-1,1315,1660,6.81612,-38.4068
98,-636,7.25647,39.0985,0.0376704,0.131313,0.0267028,0.138392,0.0305911,1.31164,0.0839433,0.0461768,1322,1660,7.25649,-39.0985
105,-636,8.18555,39.4116,0.0420592,0.106375,0.0244469,0.114612,0.0338217,1.24579,0.0679982,0.0467455,1329,1660,8.18558,-39.4117
112,-636,9.23413,39.4382,0,0,0,0,0,0,0,-1,1336,1660,9.23413,-39.4383
119,-636,9.85193,36.9596,0,0,0,0,0,0,0,-1,1343,1660,9.85198,-36.9596
126,-636,10.1436,34.3221,0,0,0,0,0,0,0,-1,1350,1660,10.1436,-34.3222
133,-636,9.59473,34.0691,0,0,0,0,0,0,0,-1,1357,1660,9.59472,-34.0691
140,-636,10.1222,33.886,0,0,0,0,0,0,0,-1,1364,1660,10.1222,-33.8859
147,-636,7.90259,31.9662,0,0,0,0,0,0,0,-1,1371,1660,7.90255,-31.9662
154,-636,9.02283,34.1239,0,0,0,0,0,0,0,-1,1378,1660,9.02279,-34.1239
161,-636,10.2961,7.13025,0,0,0,0,0,0,0,-1,1385,1660,10.2961,-7.13021
168,-636,11.7659,5.83899,0,0,0,0,0,0,0,-1,1392,1660,11.7658,-5.83899
175,-636,5.94592,-1.72888,0,0,0,0,0,0,0,-1,1399,1660,5.94598,1.72886
182,-636,5.93994,-1.11938,0,0,0,0,0,0,0,-1,1406,1660,5.93998,1.11936
189,-636,5.32544,11.9595,0,0,0,0,0,0,0,-1,1413,1660,5.32542,-11.9595
196,-636,5.3623,9.38025,0,0,0,0,0,0,0,-1,1420,1660,5.36225,-9.38027
203,-636,5.18542,9.02429,0,0,0,0,0,0,0,-1,1427,1660,5.18547,-9.0243
210,-636,4.09167,7.17041,0,0,0,0,0,0,0,-1,1434,1660,4.09173,-7.17041
217,-636,2.94897,5.28992,0,0,0,0,0,0,0,-1,1441,1660,2.94899,-5.28991
224,-636,1.49194,3.63916,0,0,0,0,0,0,0,-1,1448,1660,1.49197,-3.63918
231,-636,0.17749,2.24854,0,0,0,0,0,0,0,-1,1455,1660,0.177501,-2.24855
238,-636,-0.764648,1.00598,0,0,0,0,0,0,0,-1,1462,1660,-0.764704,-1.00595
245,-636,6.21204,1.18005,0,0,0,0,0,0,0,-1,1469,1660,6.21206,-1.18001
252,-636,7.70251,0.865723,0,0,0,0,0,0,0,-1,1476,1660,7.7025,-0.865692
259,-636,9.03601,0.787231,0,0,0,0,0,0,0,-1,1483,1660,9.03598,-0.787243
266,-636,10.1071,3.24109,0,0,0,0,0,0,0,-1,1490,1660,10.1071,-3.24103
273,-636,8.48535,5.02466,0,0,0,0,0,0,0,-1,1497,1660,8.48533,-5.02472
280,-636,8.81384,5.66992,0,0,0,0,0,0,0,-1,1504,1660,8.81381,-5.66998
287,-636,6.08606,11.49,0,0,0,0,0,0,0,-1,1511,1660,6.08606,-11.49
294,-636,6.69592,15.9669,0,0,0,0,0,0,0,-1,1518,1660,6.69595,-15.9669
301,-636,8.25903,23.0582,0,0,0,0,0,0,0,-1,1525,1660,8.25903,-23.0583
308,-636,9.50745,28.2856,0,0,0,0,0,0,0,-1,1532,1660,9.50744,-28.2857
315,-636,9.34814,27.6357,0,0,0,0,0,0,0,-1,1539,1660,9.34812,-27.6357
322,-636,9.62781,27.1697,0,0,0,0,0,0,0,-1,1546,1660,9.62777,-27.1696
329,-636,9.58313,26.7811,0.00583033,0.00905259,-0.00250269,0.0104179,0.00446502,-1.07139,0.00603519,0.0302414,1553,1660,9.58318,-26.7811
336,-636,9.57959,26.5208,0.0047201,0.00839105,-0.00198953,0.00926245,0.0038487,-1.15797,0.00537307,0.0241487,1560,1660,9.57964,-26.5207
343,-636,9.54419,26.3584,0.00356888,0.00764791,-0.00157258,0.00818379,0.00303301,-1.24237,0.00477735,0.0215696,1567,1660,9.54419,-26.3583
350,-636,9.51538,26.0455,0.00294203,0.00732249,-0.00165677,0.00787853,0.00238599,-1.24699,0.00466505,0.0117515,1574,1660,9.51537,-26.0455
357,-636,9.56421,25.7539,0.002656,0.00690919,-0.00169987,0.00750509,0.0020601,-1.23363,0.00447756,0.00987141,1581,1660,9.56417,-25.7539
364,-636,9.57166,25.491,0.00244528,0.00611267,-0.00159617,0.00671007,0.00184789,-1.21267,0.00400224,0.0102727,1588,1660,9.57171,-25.491
371,-636,9.56714,25.2267,0.00216211,0.00525939,-0.00140517,0.00580187,0.00161962,-1.20236,0.00345691,0.00902756,1595,1660,9.56713,-25.2267
378,-636,9.58179,24.9489,0.00186204,0.0042943,-0.0012116,0.00479484,0.00136151,-1.17903,0.00285314,0.00961946,1602,1660,9.58184,-24.9489
385,-636,9.59827,24.6675,0.00165317,0.0031353,-0.000983402,0.0036256,0.00116287,-1.10829,0.00213761,0.0153734,1609,1660,9.59822,-24.6675
392,-636,9.58752,24.3878,0.00142724,0.00182391,-0.000679302,0.00233324,0.000917912,-0.927436,0.00135726,0.0157239,1616,1660,9.58752,-24.3878
399,-636,9.56799,24.1089,0.00111421,0.000397202,-0.000289618,0.00121657,0.000294833,-0.339756,0.000732816,0.0114564,1623,1660,9.56795,-24.1089
406,-636,9.57178,23.8029,0.000763591,-0.000970961,0.000125289,0.000772594,-0.000979964,0.0717351,0.0010142,0.0137705,1630,1660,9.57179,-23.8029
413,-636,9.5741,23.4838,0.0004458,-0.00214327,0.000487096,0.000534408,-0.00223188,0.179942,0.00169438,0.0211594,1637,1660,9.57406,-23.4838
420,-636,9.55493,23.1902,0.000137368,-0.00333175,0.000837467,0.000328957,-0.00352334,0.224902,0.00246587,0.0206817,1644,1660,9.55495,-23.1901
427,-636,9.54041,22.9009,-0.000143339,-0.00435973,0.00124285,0.000195743,-0.00469881,0.266344,0.00319979,0.012337,1651,1660,9.54042,-22.9009
434,-636,9.53955,22.5887,-0.000435383,-0.00535919,0.00157807,2.69674e-05,-0.00582154,0.285009,0.00389005,0.0106411,1658,1660,9.5395,-22.5887
441,-636,9.54419,22.266,-0.000677839,-0.00597413,0.00180643,-0.000120384,-0.00653158,0.299323,0.00431482,0.0111976,1665,1660,9.54424,-22.266
448,-636,9.55359,21.9758,-0.000913129,-0.00633062,0.00189507,-0.000316032,-0.00692771,0.305233,0.00451682,0.013895,1672,1660,9.55359,-21.9758
455,-636,9.5238,21.6696,-0.00122806,-0.00666642,0.00209632,-0.000513807,-0.00738068,0.328384,0.00475844,0.015033,1679,1660,9.52384,-21.6696
462,-636,9.5094,21.3293,-0.00159285,-0.00677284,0.00239095,-0.000657975,-0.00770772,0.372729,0.0049338,0.0190924,1686,1660,9.50937,-21.3293
469,-636,9.48987,20.9888,-0.00196226,-0.00644838,0.00259675,-0.000773934,-0.00763671,0.429174,0.00485377,0.0284711,1693,1660,9.48983,-20.9888
476,-636,9.50647,20.7997,-0.00222236,-0.00601404,0.00263648,-0.000870856,-0.00736554,0.47369,0.00464735,0.0420813,1700,1660,9.50645,-20.7996
483,-636,9.58044,20.5989,0,0,0,0,0,0,0,-1,1707,1660,9.58049,-20.5989
490,-636,9.55591,18.5341,0,0,0,0,0,0,0,-1,1714,1660,9.55587,-18.5341
497,-636,9.55579,18.0111,0,0,0,0,0,0,0,-1,1721,1660,9.55574,-18.0111
504,-636,6.26428,19.4268,0,0,0,0,0,0,0,-1,1728,1660,6.26433,-19.4268
511,-636,5.65466,9.23218,0,0,0,0,0,0,0,-1,1735,1660,5.65461,-9.23216
518,-636,6.72791,1.07605,0,0,0,0,0,0,0,-1,1742,1660,6.7279,-1.0761
525,-636,7.04309,0.93335,0,0,0,0,0,0,0,-1,1749,1660,7.04308,-0.933298
532,-636,0,0,0,0,0,0,0,0,0,-1,1756,1660,0,0
539,-636,0,0,0,0,0,0,0,0,0,-1,1763,1660,0,0
546,-636,0,0,0,0,0,0,0,0,0,-1,1770,1660,0,0
553,-636,0,0,0,0,0,0,0,0,0,-1,1777,1660,0,0
560,-636,0,0,0,0,0,0,0,0,0,-1,1784,1660,0,0
567,-636,0,0,0,0,0,0,0,0,0,-1,1791,1660,0,0
574,-636,0,0,0,0,0,0,0,0,0,-1,1798,1660,0,0
581,-636,0,0,0,0,0,0,0,0,0,-1,1805,1660,0,0
588,-636,0,0,0,0,0,0,0,0,0,-1,1812,1660,0,0
595,-636,0,0,0,0,0,0,0,0,0,-1,1819,1660,0,0
602,-636,0,0,0,0,0,0,0,0,0,-1,1826,1660,0,0
609,-636,0,0,0,0,0,0,0,0,0,-1,1833,1660,0,0
616,-636,0,0,0,0,0,0,0,0,0,-1,1840,1660,0,0
623,-636,0,0,0,0,0,0,0,0,0,-1,1847,1660,0,0
630,-636,0,0,0,0,0,0,0,0,0,-1,1854,1660,0,0
637,-636,0,0,0,0,0,0,0,0,0,-1,1861,1660,0,0
644,-636,0,0,0,0,0,0,0,0,0,-1,1868,1660,0,0
651,-636,0,0,0,0,0,0,0,0,0,-1,1875,1660,0,0
658,-636,0,0,0,0,0,0,0,0,0,-1,1882,1660,0,0
665,-636,0,0,0,0,0,0,0,0,0,-1,1889,1660,0,0
672,-636,0,0,0,0,0,0,0,0,0,-1,1896,1660,0,0
679,-636,0,0,0,0,0,0,0,0,0,-1,1903,1660,0,0
686,-636,0,0,0,0,0,0,0,0,0,-1,1910,1660,0,0
693,-636,0,0,0,0,0,0,0,0,0,-1,1917,1660,0,0
700,-636,0,0,0,0,0,0,0,0,0,-1,1924,1660,0,0
707,-636,0,0,0,0,0,0,0,0,0,-1,1931,1660,0,0
714,-636,0,0,0,0,0,0,0,0,0,-1,1938,1660,0,0
721,-636,0,0,0,0,0,0,0,0,0,-1,1945,1660,0,0
728,-636,0,0,0,0,0,0,0,0,0,-1,1952,1660,0,0
735,-636,0,0,0,0,0,0,0,0,0,-1,1959,1660,0,0
742,-636,0,0,0,0,0,0,0,0,0,-1,1966,1660,0,0
749,-636,0,0,0,0,0,0,0,0,0,-1,1973,1660,0,0
756,-636,0,0,0,0,0,0,0,0,0,-1,1980,1660,0,0
763,-636,0,0,0,0,0,0,0,0,0,-1,1987,1660,0,0
770,-636,0,0,0,0,0,0,0,0,0,-1,1994,1660,0,0
777,-636,0,0,0,0,0,0,0,0,0,-1,2001,1660,0,0
784,-636,0,0,0,0,0,0,0,0,0,-1,2008,1660,0,0
791,-636,0,0,0,0,0,0,0,0,0,-1,2015,1660,0,0
798,-636,0,0,0,0,0,0,0,0,0,-1,2022,1660,0,0
805,-636,0,0,0,0,0,0,0,0,0,-1,2029,1660,0,0
812,-636,0,0,0,0,0,0,0,0,0,-1,2036,1660,0,0
-700,-643,0,0,0,0,0,0,0,0,0,-1,524,1667,0,0
-693,-643,0,0,0,0,0,0,0,0,0,-1,531,1667,0,0
-686,-643,0,0,0,0,0,0,0,0,0,-1,538,1667,0,0
-679,-643,0,0,0,0,0,0,0,0,0,-1,545,1667,0,0
-672,-643,0,0,0,0,0,0,0,0,0,-1,552,1667,0,0
-665,-643,0,0,0,0,0,0,0,0,0,-1,559,1667,0,0
-658,-643,0,0,0,0,0,0,0,0,0,-1,566,1667,0,0
-651,-643,0,0,0,0,0,0,0,0,0,-1,573,1667,0,0
-644,-643,0,0,0,0,0,0,0,0,0,-1,580,1667,0,0
-637,-643,0,0,0,0,0,0,0,0,0,-1,587,1667,0,0
-630,-643,0,0,0,0,0,0,0,0,0,-1,594,1667,0,0
-623,-643,0,0,0,0,0,0,0,0,0,-1,601,1667,0,0
-616,-643,0,0,0,0,0,0,0,0,0,-1,608,1667,0,0
-609,-643,0,0,0,0,0,0,0,0,0,-1,615,1667,0,0
-602,-643,0,0,0,0,0,0,0,0,0,-1,622,1667,0,0
-595,-643,0,0,0,0,0,0,0,0,0,-1,629,1667,0,0
-588,-643,0,0,0,0,0,0,0,0,0,-1,636,1667,0,0
-581,-643,0,0,0,0,0,0,0,0,0,-1,643,1667,0,0
-574,-643,0,0,0,0,0,0,0,0,0,-1,650,1667,0,0
-567,-643,0,0,0,0,0,0,0,0,0,-1,657,1667,0,0
-560,-643,0,0,0,0,0,0,0,0,0,-1,664,1667,0,0
-553,-643,0,0,0,0,0,0,0,0,0,-1,671,1667,0,0
-546,-643,0,0,0,0,0,0,0,0,0,-1,678,1667,0,0
-539,-643,0,0,0,0,0,0,0,0,0,-1,685,1667,0,0
-532,-643,0,0,0,0,0,0,0,0,0,-1,692,1667,0,0
-525,-643,0,0,0,0,0,0,0,0,0,-1,699,1667,0,0
-518,-643,0,0,0,0,0,0,0,0,0,-1,706,1667,0,0
-511,-643,0,0,0,0,0,0,0,0,0,-1,713,1667,0,0
-504,-643,0,0,0,0,0,0,0,0,0,-1,720,1667,0,0
-497,-643,0,0,0,0,0,0,0,0,0,-1,727,1667,0,0
-490,-643,0,0,0,0,0,0,0,0,0,-1,734,1667,0,0
-483,-643,0,0,0,0,0,0,0,0,0,-1,741,1667,0,0
-476,-643,0,0,0,0,0,0,0,0,0,-1,748,1667,0,0
-469,-643,0,0,0,0,0,0,0,0,0,-1,755,1667,0,0
-462,-643,0,0,0,0,0,0,0,0,0,-1,762,1667,0,0
-455,-643,0,0,0,0,0,0,0,0,0,-1,769,1667,0,0
-448,-643,0,0,0,0,0,0,0,0,0,-1,776,1667,0,0
-441,-643,0,0,0,0,0,0,0,0,0,-1,783,1667,0,0
-434,-643,0,0,0,0,0,0,0,0,0,-1,790,1667,0,0
-427,-643,0,0,0,0,0,0,0,0,0,-1,797,1667,0,0
-420,-643,0,0,0,0,0,0,0,0,0,-1,804,1667,0,0
-413,-643,0,0,0,0,0,0,0,0,0,-1,811,1667,0,0
-406,-643,0,0,0,0,0,0,0,0,0,-1,818,1667,0,0
-399,-643,0.589417,11.6465,0,0,0,0,0,0,0,-1,825,1667,0.58939,-11.6465
-392,-643,0.865295,12.6523,0,0,0,0,0,0,0,-1,832,1667,0.865315,-12.6523
-385,-643,1.72968,13.2692,0,0,0,0,0,0,0,-1,839,1667,1.72967,-13.2692
-378,-643,2.66522,13.8193,0,0,0,0,0,0,0,-1,846,1667,2.66524,-13.8193
-371,-643,0.466125,3.35095,0,0,0,0,0,0,0,-1,853,1667,0.466148,-3.351
-364,-643,1.69513,9.922,0,0,0,0,0,0,0,-1,860,1667,1.69511,-9.92205
-357,-643,1.14227,10.8429,0,0,0,0,0,0,0,-1,867,1667,1.14228,-10.8429
-350,-643,2.50061,9.96948,0,0,0,0,0,0,0,-1,874,1667,2.50059,-9.96954
-343,-643,2.61505,6.17407,0,0,0,0,0,0,0,-1,881,1667,2.61504,-6.17412
-336,-643,4.38281,20.1169,0,0,0,0,0,0,0,-1,888,1667,4.3828,-20.1169
-329,-643,4.34723,20.4532,-0.00176216,-0.00185995,-0.00765743,0.00584653,-0.00946864,-0.782206,0.00892427,0.0430796,895,1667,4.34722,-20.4533
-322,-643,4.34619,20.8086,-0.00173877,-0.00033746,-0.00595372,0.00495669,-0.00703292,-0.843971,0.00695671,0.0290093,902,1667,4.34622,-20.8086
-315,-643,4.31189,21.1228,-0.00173499,0.000787826,-0.00427485,0.00398348,-0.00493065,-0.928865,0.00515625,0.0165727,909,1667,4.31188,-21.1228
-308,-643,4.30933,21.4266,-0.00160786,0.00162055,-0.00288937,0.00331605,-0.00330335,-1.04014,0.00382172,0.0118449,916,1667,4.30931,-21.4267
-301,-643,4.32104,21.7758,-0.00135625,0.00216807,-0.00175901,0.00289575,-0.00208394,-1.17854,0.00288773,0.013574,923,1667,4.32104,-21.7757
-294,-643,4.30865,22.1205,-0.000999873,0.00249797,-0.000841698,0.00268998,-0.00119187,-1.34652,0.00229615,0.0126489,930,1667,4.30863,-22.1205
-287,-643,4.29034,22.444,-0.000611273,0.00265746,-0.000133504,0.0026629,-0.000616716,-1.53004,0.00201259,0.010447,937,1667,4.29032,-22.4439
-280,-643,4.27301,22.7689,-0.000174268,0.00255553,0.000395755,0.00261175,-0.000230485,1.42969,0.00182286,0.0138879,944,1667,4.27299,-22.769
-273,-643,4.258,23.0953,0.00035756,0.00238252,0.00075717,0.00263433,0.000105753,1.24974,0.00172205,0.0118767,951,1667,4.25803,-23.0954
-266,-643,4.25287,23.4269,0.00089805,0.00218862,0.00125205,0.00295188,0.000134785,1.02334,0.00192457,0.0114172,958,1667,4.25286,-23.4269
-259,-643,4.26398,23.7458,0.00157204,0.00178702,0.00149998,0.00318336,0.000175702,0.821167,0.00206616,0.0113039,965,1667,4.26396,-23.7459
-252,-643,4.2558,24.0486,0.00219882,0.00140076,0.00147511,0.00332792,0.000271663,0.653306,0.00213383,0.0125753,972,1667,4.2558,-24.0486
-245,-643,4.24963,24.3658,0.00270187,0.00114554,0.00146721,0.0035845,0.000262903,0.541575,0.00230703,0.0118593,979,1667,4.24965,-24.3659
-238,-643,4.2981,24.6688,0.00322491,0.000956006,0.00150078,0.00397177,0.000209146,0.461763,0.00258096,0.0153401,986,1667,4.29811,-24.6688
-231,-643,4.25696,24.9521,0.003819,0.000921145,0.00165486,0.00456961,0.000170536,0.425825,0.00299118,0.0114054,993,1667,4.25693,-24.9522
-224,-643,4.23633,25.2189,0.00428968,0.0010851,0.00180606,0.00510176,0.000273019,0.422557,0.00331392,0.0091028,1000,1667,4.23632,-25.2189
-217,-643,4.24255,25.4729,0.00457786,0.00122992,0.00186855,0.0054126,0.000395175,0.420134,0.00348416,0.00858065,1007,1667,4.24257,-25.4728
-210,-643,4.24829,25.7732,0.00494298,0.00041675,0.00160203,0.00545262,-9.28931e-05,0.308,0.00366644,0.0112769,1014,1667,4.24828,-25.7732
-203,-643,4.26343,26.1206,0.00546899,-0.00060104,0.0013505,0.0057559,-0.000887945,0.209332,0.00416492,0.0148848,1021,1667,4.26337,-26.1206
-196,-643,4.28149,26.3857,0.00563162,-0.00168021,0.000950939,0.00575327,-0.00180186,0.127235,0.00455648,0.0150923,1028,1667,4.28148,-26.3858
-189,-643,4.37793,26.6019,0.00559137,-0.00307851,0.000362493,0.0056065,-0.00309364,0.0417136,0.00509239,0.0151622,1035,1667,4.37795,-26.6019
-182,-643,4.42334,26.8617,0.00540107,-0.00442116,-0.000423127,0.00541926,-0.00443935,-0.0429724,0.00570124,0.0218714,1042,1667,4.42329,-26.8617
-175,-643,4.53772,27.2128,0.00539387,-0.00596764,-0.00111035,0.00550137,-0.00607514,-0.0965119,0.00668644,0.0347957,1049,1667,4.53768,-27.2127
-168,-643,4.42676,27.2905,0.00540616,-0.00741097,-0.00180168,0.0056546,-0.00765941,-0.137031,0.00771584,0.0403555,1056,1667,4.42674,-27.2905
-161,-643,4.29028,27.3239,0.00539956,-0.00867081,-0.00254635,0.0058462,-0.00911746,-0.173638,0.00870782,0.0435111,1063,1667,4.29034,-27.3238
-154,-643,4.56775,27.3601,0.00520375,-0.00955555,-0.00320348,0.00586907,-0.0102209,-0.204775,0.0094021,0.0458013,1070,1667,4.56778,-27.3601
-147,-643,4.47729,27.8416,0,0,0,0,0,0,0,-1,1077,1667,4.4773,-27.8416
-140,-643,4.30322,22.9166,0,0,0,0,0,0,0,-1,1084,1667,4.30327,-22.9167
-133,-643,3.66748,21.6034,0,0,0,0,0,0,0,-1,1091,1667,3.66743,-21.6034
-126,-643,3.13904,17.689,0,0,0,0,0,0,0,-1,1098,1667,3.13909,-17.689
-119,-643,3.76282,14.1458,0,0,0,0,0,0,0,-1,1105,1667,3.76283,-14.1458
-112,-643,3.81458,16.2069,0,0,0,0,0,0,0,-1,1112,1667,3.81463,-16.2069
-105,-643,-2.23413,10.0996,0,0,0,0,0,0,0,-1,1119,1667,-2.23415,-10.0996
-98,-643,3.11035,4.68066,0,0,0,0,0,0,0,-1,1126,1667,3.11041,-4.68071
-91,-643,-1.74146,-2.5885,0,0,0,0,0,0,0,-1,1133,1667,-1.74146,2.58856
-84,-643,-3.07446,-0.199341,0,0,0,0,0,0,0,-1,1140,1667,-3.07449,0.199383
-77,-643,-3.63794,2.81165,0,0,0,0,0,0,0,-1,1147,1667,-3.63791,-2.8117
-70,-643,-3.36938,4.45203,0,0,0,0,0,0,0,-1,1154,1667,-3.36941,-4.452
-63,-643,-3.67822,6.26855,0,0,0,0,0,0,0,-1,1161,1667,-3.67823,-6.26856
-56,-643,-3.95142,8.1073,0,0,0,0,0,0,0,-1,1168,1667,-3.95139,-8.10732
-49,-643,-4.23535,9.90552,0,0,0,0,0,0,0,-1,1175,1667,-4.23537,-9.90557
-42,-643,-4.25195,10.7059,0,0,0,0,0,0,0,-1,1182,1667,-4.25192,-10.706
-35,-643,-4.10986,11.6588,0,0,0,0,0,0,0,-1,1189,1667,-4.10982,-11.6589
-28,-643,-1.38513,5.604,0,0,0,0,0,0,0,-1,1196,1667,-1.3851,-5.60403
-21,-643,1.61011,23.1276,0,0,0,0,0,0,0,-1,1203,1667,1.61011,-23.1275
-14,-643,5.88721,32.3837,0,0,0,0,0,0,0,-1,1210,1667,5.88715,-32.3837
-7,-643,4.90796,28.9844,0,0,0,0,0,0,0,-1,1217,1667,4.90792,-28.9843
0,-643,4.89758,30.3656,0.0452216,0.040151,0.0504597,0.0932096,-0.00783711,0.760297,0.06491,0.0476929,1224,1667,4.89759,-30.3656
7,-643,4.92139,31.7754,0.056935,0.056764,0.0567276,0.113577,0.000121821,0.784644,0.0756775,0.0437757,1231,1667,4.92134,-31.7754
14,-643,4.9198,33.1952,0.0647763,0.0737072,0.0590567,0.128467,0.0100165,0.823133,0.0825087,0.044002,1238,1667,4.91981,-33.1952
21,-643,4.14624,34.3573,0.0682315,0.0909973,0.057732,0.138458,0.0207709,0.882734,0.0862197,0.0434354,1245,1667,4.14623,-34.3572
28,-643,3.45886,35.4985,0,0,0,0,0,0,0,-1,1252,1667,3.45888,-35.4986
35,-643,7.31189,35.4252,0.064023,0.124057,0.0523255,0.154364,0.0337161,1.04581,0.0937146,0.0409861,1259,1667,7.31186,-35.4252
42,-643,7.45313,35.7158,0.0586512,0.137817,0.0483322,0.160707,0.0357618,1.1285,0.0974302,0.0433853,1266,1667,7.45311,-35.7158
49,-643,7.45361,35.8365,0,0,0,0,0,0,0,-1,1273,1667,7.45359,-35.8366
56,-643,7.51086,36.0166,0.0493164,0.158099,0.0412634,0.17198,0.0354356,1.24629,0.104856,0.0447397,1280,1667,7.51081,-36.0166
63,-643,7.5426,36.1396,0.0424346,0.166487,0.0374127,0.176897,0.0320249,1.29942,0.108838,0.0432471,1287,1667,7.54265,-36.1397
70,-643,7.72168,35.9716,0.0354171,0.169645,0.0329774,0.177309,0.0277528,1.34244,0.110127,0.0471121,1294,1667,7.72169,-35.9716
77,-643,7.87256,35.8163,0,0,0,0,0,0,0,-1,1301,1667,7.87254,-35.8163
84,-643,7.34583,37.2925,0.0241467,0.159248,0.0276841,0.164701,0.0186939,1.37632,0.10413,0.0441598,1308,1667,7.34579,-37.2925
91,-643,7.23364,37.7772,0.0245617,0.146597,0.0279213,0.152682,0.0184768,1.35622,0.0962221,0.0448573,1315,1667,7.23366,-37.7772
98,-643,7.5188,38.5342,0.0268147,0.128761,0.0271708,0.135551,0.0200253,1.32593,0.0844869,0.0453948,1322,1667,7.51874,-38.5342
105,-643,8.17676,39.1384,0.0289786,0.108639,0.0250935,0.115884,0.021733,1.2897,0.0711273,0.0447951,1329,1667,8.17671,-39.1384
112,-643,7.87781,34.1035,0,0,0,0,0,0,0,-1,1336,1667,7.87775,-34.1035
119,-643,9.42542,35.5082,0,0,0,0,0,0,0,-1,1343,1667,9.42544,-35.5082
126,-643,9.57568,33.5878,0,0,0,0,0,0,0,-1,1350,1667,9.57574,-33.5878
133,-643,9.29224,33.0073,0,0,0,0,0,0,0,-1,1357,1667,9.29219,-33.0073
140,-643,8.83911,32.6295,0,0,0,0,0,0,0,-1,1364,1667,8.83917,-32.6295
147,-643,8.05969,31.3414,0,0,0,0,0,0,0,-1,1371,1667,8.05967,-31.3414
154,-643,7.95618,30.6273,0,0,0,0,0,0,0,-1,1378,1667,7.95612,-30.6273
161,-643,5.57935,26.2754,0,0,0,0,0,0,0,-1,1385,1667,5.57931,-26.2754
168,-643,10.5563,10.9818,0,0,0,0,0,0,0,-1,1392,1667,10.5562,-10.9819
175,-643,5.88525,-1.1698,0,0,0,0,0,0,0,-1,1399,1667,5.88526,1.16977
182,-643,5.80945,-0.418701,0,0,0,0,0,0,0,-1,1406,1667,5.80949,0.418712
189,-643,5.42297,12.9208,0,0,0,0,0,0,0,-1,1413,1667,5.42298,-12.9208
196,-643,5.51953,11.2415,0,0,0,0,0,0,0,-1,1420,1667,5.51948,-11.2414
203,-643,5.60828,9.82153,0,0,0,0,0,0,0,-1,1427,1667,5.60833,-9.82148
210,-643,4.73218,7.58728,0,0,0,0,0,0,0,-1,1434,1667,4.73222,-7.58728
217,-643,3.8031,5.28955,0,0,0,0,0,0,0,-1,1441,1667,3.80305,-5.28955
224,-643,2.96436,2.97095,0,0,0,0,0,0,0,-1,1448,1667,2.96432,-2.97095
231,-643,2.13403,1.08472,0,0,0,0,0,0,0,-1,1455,1667,2.13403,-1.08467
238,-643,1.18152,-0.261963,0,0,0,0,0,0,0,-1,1462,1667,1.18152,0.26192
245,-643,-0.157471,-1.79016,0,0,0,0,0,0,0,-1,1469,1667,-0.157517,1.7901
252,-643,8.08789,0.0202637,0,0,0,0,0,0,0,-1,1476,1667,8.08791,-0.0203056
259,-643,9.02979,-0.46936,0,0,0,0,0,0,0,-1,1483,1667,9.02974,0.46933
266,-643,4.55066,5.17554,0,0,0,0,0,0,0,-1,1490,1667,4.55063,-5.17556
273,-643,4.34363,6.56836,0,0,0,0,0,0,0,-1,1497,1667,4.34363,-6.5684
280,-643,5.75854,14.5217,0,0,0,0,0,0,0,-1,1504,1667,5.75854,-14.5218
287,-643,7.90332,28.9143,0,0,0,0,0,0,0,-1,1511,1667,7.90328,-28.9143
294,-643,8.755,28.1528,0,0,0,0,0,0,0,-1,1518,1667,8.75504,-28.1528
301,-643,9.2843,27.8451,0,0,0,0,0,0,0,-1,1525,1667,9.28428,-27.845
308,-643,9.19763,27.6936,0.0110514,0.00941489,-0.00529145,0.0155875,0.00487878,-0.70869,0.00920685,0.047126,1532,1667,9.19763,-27.6936
315,-643,9.13855,27.3286,0.00838567,0.008245,-0.00366719,0.0119832,0.00464747,-0.775809,0.00697629,0.0412447,1539,1667,9.1386,-27.3286
322,-643,9.26233,26.9875,0.0062878,0.00704695,-0.00241142,0.00910848,0.00422627,-0.863461,0.00526333,0.0252228,1546,1667,9.2623,-26.9876
329,-643,9.28674,26.7401,0.00485893,0.00662663,-0.00180435,0.00775198,0.00373359,-1.01314,0.00447661,0.0149041,1553,1667,9.2867,-26.7401
336,-643,9.22864,26.5537,0.00386655,0.00607598,-0.00135179,0.00671704,0.00322549,-1.12798,0.0038791,0.0124395,1560,1667,9.22867,-26.5537
343,-643,9.2478,26.3268,0.00274774,0.00533454,-0.000890995,0.00561173,0.00247055,-1.26918,0.00324764,0.0126368,1567,1667,9.24777,-26.3267
350,-643,9.28442,26.0261,0.00212611,0.00495754,-0.000892564,0.00521542,0.00186823,-1.28954,0.00305121,0.0125068,1574,1667,9.28437,-26.0262
357,-643,9.29077,25.7701,0.00188019,0.00456387,-0.00094352,0.00486239,0.00158168,-1.26438,0.00286386,0.0107645,1581,1667,9.29077,-25.7701
364,-643,9.29272,25.514,0.0017148,0.00374797,-0.000866346,0.00406705,0.00139572,-1.21791,0.0023863,0.00926035,1588,1667,9.29271,-25.514
371,-643,9.29358,25.2468,0.00147349,0.00288801,-0.000698395,0.00317471,0.00118678,-1.18125,0.00185227,0.00777932,1595,1667,9.29361,-25.2468
378,-643,9.29944,24.9785,0.00123007,0.00191262,-0.000525457,0.0021979,0.000944785,-1.0734,0.00127311,0.0101011,1602,1667,9.29943,-24.9785
385,-643,9.32581,24.7007,0.00108033,0.000747422,-0.000299688,0.00125669,0.000571064,-0.531901,0.000726552,0.0169125,1609,1667,9.32584,-24.7006
392,-643,9.3103,24.4064,0.000902807,-0.000612291,6.20183e-06,0.000902832,-0.000612317,0.00409326,0.000880115,0.0166518,1616,1667,9.31028,-24.4063
399,-643,9.28271,24.1392,0.000642787,-0.00205682,0.000371586,0.000693,-0.00210703,0.134318,0.00168391,0.0130598,1623,1667,9.28273,-24.1392
406,-643,9.28088,23.8068,0.00033881,-0.00350672,0.000786212,0.00049334,-0.00366125,0.194076,0.0026208,0.0124064,1630,1667,9.28085,-23.8068
413,-643,9.28687,23.4707,6.54763e-05,-0.00474511,0.00116087,0.000330963,-0.00501059,0.224829,0.003456,0.0174502,1637,1667,9.28681,-23.4707
420,-643,9.25745,23.1943,-0.00023077,-0.00598013,0.00152911,0.000150618,-0.00636151,0.24443,0.0042921,0.0170873,1644,1667,9.25742,-23.1943
427,-643,9.23914,22.9163,-0.000529271,-0.00710943,0.00200497,3.3509e-05,-0.00767221,0.273651,0.00512601,0.015053,1651,1667,9.23915,-22.9163
434,-643,9.24121,22.6072,-0.000844712,-0.00811362,0.00240523,-0.000120913,-0.00883742,0.292308,0.00585173,0.0164521,1658,1667,9.24124,-22.6072
441,-643,9.25269,22.2773,-0.0011341,-0.00886136,0.00277343,-0.000241732,-0.00975373,0.311296,0.00642343,0.0163691,1665,1667,9.25265,-22.2773
448,-643,9.18274,21.981,-0.00143407,-0.00931227,0.00297151,-0.000438964,-0.0103074,0.323143,0.00673003,0.0223037,1672,1667,9.18272,-21.981
455,-643,9.13196,21.6077,-0.00192326,-0.00975803,0.00334475,-0.000689595,-0.0109917,0.353355,0.00710908,0.0296891,1679,1667,9.13195,-21.6077
462,-643,9.14307,21.3516,-0.00248975,-0.00978742,0.00390969,-0.000790719,-0.0114865,0.409948,0.00740814,0.0415262,1686,1667,9.14301,-21.3515
469,-643,9.1958,21.1201,-0.00306807,-0.00933487,0.00442146,-0.000782288,-0.0116206,0.477134,0.00749995,0.0499704,1693,1667,9.19582,-21.1201
476,-643,9.09314,20.8983,-0.00342459,-0.00906741,0.0047102,-0.000755431,-0.0117366,0.515556,0.00758512,0.0485485,1700,1667,9.09319,-20.8983
483,-643,9.16113,20.7249,0,0,0,0,0,0,0,-1,1707,1667,9.16112,-20.7249
490,-643,9.33325,17.5446,0,0,0,0,0,0,0,-1,1714,1667,9.33326,-17.5445
497,-643,9.23706,16.8604,0,0,0,0,0,0,0,-1,1721,1667,9.23707,-16.8604
504,-643,8.05591,19.0656,0,0,0,0,0,0,0,-1,1728,1667,8.0559,-19.0655
511,-643,7.74719,18.1564,0,0,0,0,0,0,0,-1,1735,1667,7.74724,-18.1563
518,-643,7.40564,0.922607,0,0,0,0,0,0,0,-1,1742,1667,7.4057,-0.922598
525,-643,0,0,0,0,0,0,0,0,0,-1,1749,1667,0,0
532,-643,0,0,0,0,0,0,0,0,0,-1,1756,1667,0,0
539,-643,0,0,0,0,0,0,0,0,0,-1,1763,1667,0,0
546,-643,0,0,0,0,0,0,0,0,0,-1,1770,1667,0,0
553,-643,0,0,0,0,0,0,0,0,0,-1,1777,1667,0,0
560,-643,0,0,0,0,0,0,0,0,0,-1,1784,1667,0,0
567,-643,0,0,0,0,0,0,0,0,0,-1,1791,1667,0,0
574,-643,0,0,0,0,0,0,0,0,0,-1,1798,1667,0,0
581,-643,0,0,0,0,0,0,0,0,0,-1,1805,1667,0,0
588,-643,0,0,0,0,0,0,0,0,0,-1,1812,1667,0,0
595,-643,0,0,0,0,0,0,0,0,0,-1,1819,1667,0,0
602,-643,0,0,0,0,0,0,0,0,0,-1,1826,1667,0,0
609,-643,0,0,0,0,0,0,0,0,0,-1,1833,1667,0,0
616,-643,0,0,0,0,0,0,0,0,0,-1,1840,1667,0,0
623,-643,0,0,0,0,0,0,0,0,0,-1,1847,1667,0,0
630,-643,0,0,0,0,0,0,0,0,0,-1,1854,1667,0,0
637,-643,0,0,0,0,0,0,0,0,0,-1,1861,1667,0,0
644,-643,0,0,0,0,0,0,0,0,0,-1,1868,1667,0,0
651,-643,0,0,0,0,0,0,0,0,0,-1,1875,1667,0,0
658,-643,0,0,0,0,0,0,0,0,0,-1,1882,1667,0,0
665,-643,0,0,0,0,0,0,0,0,0,-1,1889,1667,0,0
672,-643,0,0,0,0,0,0,0,0,0,-1,1896,1667,0,0
679,-643,0,0,0,0,0,0,0,0,0,-1,1903,1667,0,0
686,-643,0,0,0,0,0,0,0,0,0,-1,1910,1667,0,0
693,-643,0,0,0,0,0,0,0,0,0,-1,1917,1667,0,0
700,-643,0,0,0,0,0,0,0,0,0,-1,1924,1667,0,0
707,-643,0,0,0,0,0,0,0,0,0,-1,1931,1667,0,0
714,-643,0,0,0,0,0,0,0,0,0,-1,1938,1667,0,0
721,-643,0,0,0,0,0,0,0,0,0,-1,1945,1667,0,0
728,-643,0,0,0,0,0,0,0,0,0,-1,1952,1667,0,0
735,-643,0,0,0,0,0,0,0,0,0,-1,1959,1667,0,0
742,-643,0,0,0,0,0,0,0,0,0,-1,1966,1667,0,0
749,-643,0,0,0,0,0,0,0,0,0,-1,1973,1667,0,0
756,-643,0,0,0,0,0,0,0,0,0,-1,1980,1667,0,0
763,-643,0,0,0,0,0,0,0,0,0,-1,1987,1667,0,0
770,-643,0,0,0,0,0,0,0,0,0,-1,1994,1667,0,0
777,-643,0,0,0,0,0,0,0,0,0,-1,2001,1667,0,0
784,-643,0,0,0,0,0,0,0,0,0,-1,2008,1667,0,0
791,-643,0,0,0,0,0,0,0,0,0,-1,2015,1667,0,0
798,-643,0,0,0,0,0,0,0,0,0,-1,2022,1667,0,0
805,-643,0,0,0,0,0,0,0,0,0,-1,2029,1667,0,0
812,-643,0,0,0,0,0,0,0,0,0,-1,2036,1667,0,0
-700,-650,0,0,0,0,0,0,0,0,0,-1,524,1674,0,0
-693,-650,0,0,0,0,0,0,0,0,0,-1,531,1674,0,0
-686,-650,0,0,0,0,0,0,0,0,0,-1,538,1674,0,0
-679,-650,0,0,0,0,0,0,0,0,0,-1,545,1674,0,0
-672,-650,0,0,0,0,0,0,0,0,0,-1,552,1674,0,0
-665,-650,0,0,0,0,0,0,0,0,0,-1,559,1674,0,0
-658,-650,0,0,0,0,0,0,0,0,0,-1,566,1674,0,0
-651,-650,0,0,0,0,0,0,0,0,0,-1,573,1674,0,0
-644,-650,0,0,0,0,0,0,0,0,0,-1,580,1674,0,0
-637,-650,0,0,0,0,0,0,0,0,0,-1,587,1674,0,0
-630,-650,0,0,0,0,0,0,0,0,0,-1,594,1674,0,0
-623,-650,0,0,0,0,0,0,0,0,0,-1,601,1674,0,0
-616,-650,0,0,0,0,0,0,0,0,0,-1,608,1674,0,0
-609,-650,0,0,0,0,0,0,0,0,0,-1,615,1674,0,0
-602,-650,0,0,0,0,0,0,0,0,0,-1,622,1674,0,0
-595,-650,0,0,0,0,0,0,0,0,0,-1,629,1674,0,0
-588,-650,0,0,0,0,0,0,0,0,0,-1,636,1674,0,0
-581,-650,0,0,0,0,0,0,0,0,0,-1,643,1674,0,0
-574,-650,0,0,0,0,0,0,0,0,0,-1,650,1674,0,0
-567,-650,0,0,0,0,0,0,0,0,0,-1,657,1674,0,0
-560,-650,0,0,0,0,0,0,0,0,0,-1,664,1674,0,0
-553,-650,0,0,0,0,0,0,0,0,0,-1,671,1674,0,0
-546,-650,0,0,0,0,0,0,0,0,0,-1,678,1674,0,0
-539,-650,0,0,0,0,0,0,0,0,0,-1,685,1674,0,0
-532,-650,0,0,0,0,0,0,0,0,0,-1,692,1674,0,0
-525,-650,0,0,0,0,0,0,0,0,0,-1,699,1674,0,0
-518,-650,0,0,0,0,0,0,0,0,0,-1,706,1674,0,0
-511,-650,0,0,0,0,0,0,0,0,0,-1,713,1674,0,0
-504,-650,0,0,0,0,0,0,0,0,0,-1,720,1674,0,0
-497,-650,0,0,0,0,0,0,0,0,0,-1,727,1674,0,0
-490,-650,0,0,0,0,0,0,0,0,0,-1,734,1674,0,0
-483,-650,0,0,0,0,0,0,0,0,0,-1,741,1674,0,0
-476,-650,0,0,0,0,0,0,0,0,0,-1,748,1674,0,0
-469,-650,0,0,0,0,0,0,0,0,0,-1,755,1674,0,0
-462,-650,0,0,0,0,0,0,0,0,0,-1,762,1674,0,0
-455,-650,0,0,0,0,0,0,0,0,0,-1,769,1674,0,0
-448,-650,0,0,0,0,0,0,0,0,0,-1,776,1674,0,0
-441,-650,0,0,0,0,0,0,0,0,0,-1,783,1674,0,0
-434,-650,0,0,0,0,0,0,0,0,0,-1,790,1674,0,0
-427,-650,0,0,0,0,0,0,0,0,0,-1,797,1674,0,0
-420,-650,0,0,0,0,0,0,0,0,0,-1,804,1674,0,0
-413,-650,0,0,0,0,0,0,0,0,0,-1,811,1674,0,0
-406,-650,0,0,0,0,0,0,0,0,0,-1,818,1674,0,0
-399,-650,0,0,0,0,0,0,0,0,0,-1,825,1674,0,0
-392,-650,5.44415,6.85669,0,0,0,0,0,0,0,-1,832,1674,5.44414,-6.85674
-385,-650,1.74451,14.0183,0,0,0,0,0,0,0,-1,839,1674,1.74453,-14.0183
-378,-650,0.997986,4.11108,0,0,0,0,0,0,0,-1,846,1674,0.998006,-4.11113
-371,-650,-1.80096,3.78625,0,0,0,0,0,0,0,-1,853,1674,-1.80094,-3.78625
-364,-650,-2.95679,2.57507,0,0,0,0,0,0,0,-1,860,1674,-2.95681,-2.57506
-357,-650,1.97833,10.8362,0,0,0,0,0,0,0,-1,867,1674,1.97835,-10.8362
-350,-650,-5.30243,0.159912,0,0,0,0,0,0,0,-1,874,1674,-5.30244,-0.159866
-343,-650,-6.21338,-1.4425,0,0,0,0,0,0,0,-1,881,1674,-6.21341,1.44248
-336,-650,4.20111,17.2285,0,0,0,0,0,0,0,-1,888,1674,4.20113,-17.2285
-329,-650,4.49335,21.0516,0,0,0,0,0,0,0,-1,895,1674,4.49336,-21.0516
-322,-650,4.76379,21.1494,-0.00271865,0.000669957,-0.00847713,0.00762044,-0.00966913,-0.884032,0.0100055,0.0445286,902,1674,4.76378,-21.1494
-315,-650,4.75745,21.1083,-0.00260809,0.00216975,-0.0058788,0.00612648,-0.00656481,-0.978388,0.00732878,0.0367479,909,1674,4.75747,-21.1083
-308,-650,4.64899,21.39,-0.00236932,0.00318092,-0.00378486,0.00509903,-0.00428743,-1.10173,0.00542603,0.0220085,916,1674,4.64897,-21.3901
-301,-650,4.6413,21.7909,-0.00202216,0.00376926,-0.00216348,0.00448821,-0.00274112,-1.24996,0.00421428,0.0130323,923,1674,4.6413,-21.7909
-294,-650,4.62292,22.136,-0.00163068,0.00397838,-0.000943474,0.00413282,-0.00178513,-1.40854,0.0035052,0.0107308,930,1674,4.62292,-22.136
-287,-650,4.61353,22.4589,-0.00123964,0.00396477,-6.64563e-05,0.00396562,-0.00124049,-1.55803,0.00314001,0.0136009,937,1674,4.61351,-22.4588
-280,-650,4.5896,22.7751,-0.000788909,0.00360715,0.000537916,0.00367201,-0.000853773,1.45079,0.0027767,0.0139095,944,1674,4.58958,-22.7751
-273,-650,4.57672,23.1077,-0.000279495,0.00319903,0.000887892,0.00341256,-0.000493021,1.33479,0.00245593,0.0127786,951,1674,4.57673,-23.1077
-266,-650,4.54596,23.4392,0.000201082,0.00283365,0.00139305,0.00343392,-0.000399191,1.16393,0.00243328,0.0112873,958,1674,4.54599,-23.4393
-259,-650,4.55328,23.7373,0.000823669,0.00219551,0.00158522,0.00323684,-0.000217663,0.989585,0.00223399,0.0142969,965,1674,4.55329,-23.7373
-252,-650,4.54529,24.0399,0.00136564,0.00159326,0.00142061,0.00290461,5.42917e-05,0.825369,0.00191857,0.0129822,972,1674,4.54527,-24.04
-245,-650,4.54126,24.3411,0.00174685,0.00119377,0.0012788,0.00277867,0.000161949,0.678913,0.00180089,0.0114273,979,1674,4.54128,-24.3411
-238,-650,4.52826,24.6549,0.00213624,0.000907949,0.00120218,0.00287206,0.000172126,0.54925,0.00185999,0.0130097,986,1674,4.52827,-24.6549
-231,-650,4.51202,24.9734,0.00258854,0.000701256,0.00125302,0.0032135,7.62944e-05,0.462659,0.00211736,0.0182671,993,1674,4.51202,-24.9734
-224,-650,4.52423,25.2488,0.00295673,0.000781066,0.00132364,0.00358219,0.000155599,0.441437,0.00233799,0.0144932,1000,1674,4.52423,-25.2488
-217,-650,4.53961,25.4946,0.00317172,0.000907095,0.00132795,0.00378457,0.000294245,0.432376,0.00243091,0.0098312,1007,1674,4.53963,-25.4946
-210,-650,4.55267,25.7666,0.00347718,0.000404315,0.00110259,0.00383186,4.96311e-05,0.311229,0.00253819,0.00940094,1014,1674,4.55268,-25.7666
-203,-650,4.59448,26.0461,0.00392917,-0.000276622,0.00092579,0.00412393,-0.00047139,0.207356,0.00291913,0.0133349,1021,1674,4.59443,-26.0462
-196,-650,4.59583,26.3007,0.00410411,-0.000989218,0.000664171,0.00418929,-0.0010744,0.127559,0.00321147,0.012835,1028,1674,4.59585,-26.3007
-189,-650,4.57312,26.5692,0.00412988,-0.00185455,0.000271713,0.00414219,-0.00186686,0.0452791,0.00355126,0.0106307,1035,1674,4.57317,-26.5693
-182,-650,4.61377,26.8743,0.00404002,-0.00263768,-0.000280234,0.00405176,-0.00264942,-0.0418676,0.00389706,0.0098008,1042,1674,4.61377,-26.8742
-175,-650,4.65442,27.1034,0.0041343,-0.00349147,-0.000720201,0.00420172,-0.0035589,-0.0933433,0.00448571,0.0146733,1049,1674,4.65445,-27.1034
-168,-650,4.62744,27.3159,0.00419454,-0.00418461,-0.00117176,0.00435532,-0.00434539,-0.136358,0.00502336,0.0189322,1056,1674,4.62741,-27.3159
-161,-650,4.61133,27.5907,0.00422181,-0.004669,-0.00161002,0.00450438,-0.00495157,-0.17374,0.00546143,0.0278502,1063,1674,4.61136,-27.5907
-154,-650,4.76245,27.7928,0.00413005,-0.00473762,-0.00197754,0.00455106,-0.00515863,-0.209766,0.00560955,0.0322376,1070,1674,4.76248,-27.7929
-147,-650,4.73499,27.9329,0.00396625,-0.00413615,-0.00237388,0.00461053,-0.00478042,-0.265019,0.00542217,0.0475431,1077,1674,4.73503,-27.9329
-140,-650,4.77881,28.2021,0,0,0,0,0,0,0,-1,1084,1674,4.77879,-28.2022
-133,-650,4.08167,28.8931,0,0,0,0,0,0,0,-1,1091,1674,4.08164,-28.8931
-126,-650,5.25488,26.2078,0,0,0,0,0,0,0,-1,1098,1674,5.25489,-26.2078
-119,-650,5.16663,20.6232,0,0,0,0,0,0,0,-1,1105,1674,5.16665,-20.6232
-112,-650,3.86292,14.4513,0,0,0,0,0,0,0,-1,1112,1674,3.8629,-14.4513
-105,-650,4.9259,12.0626,0,0,0,0,0,0,0,-1,1119,1674,4.92591,-12.0626
-98,-650,3.3761,6.78003,0,0,0,0,0,0,0,-1,1126,1674,3.37611,-6.78009
-91,-650,3.66809,7.04443,0,0,0,0,0,0,0,-1,1133,1674,3.66806,-7.04439
-84,-650,-3.82666,-1.59521,0,0,0,0,0,0,0,-1,1140,1674,-3.82661,1.59517
-77,-650,-4.70557,1.90198,0,0,0,0,0,0,0,-1,1147,1674,-4.7056,-1.90194
-70,-650,-4.88171,3.81653,0,0,0,0,0,0,0,-1,1154,1674,-4.88176,-3.81651
-63,-650,-5.14612,5.56543,0,0,0,0,0,0,0,-1,1161,1674,-5.14612,-5.56547
-56,-650,-5.38367,7.41101,0,0,0,0,0,0,0,-1,1168,1674,-5.38361,-7.41102
-49,-650,-5.11316,8.23706,0,0,0,0,0,0,0,-1,1175,1674,-5.11317,-8.23708
-42,-650,-4.99487,9.6792,0,0,0,0,0,0,0,-1,1182,1674,-4.99484,-9.67921
-35,-650,-4.77771,11.3369,0,0,0,0,0,0,0,-1,1189,1674,-4.77769,-11.3369
-28,-650,-4.1936,13.1501,0,0,0,0,0,0,0,-1,1196,1674,-4.19358,-13.1501
-21,-650,4.11938,31.3551,0,0,0,0,0,0,0,-1,1203,1674,4.11944,-31.3551
-14,-650,6.57336,30.4391,0,0,0,0,0,0,0,-1,1210,1674,6.5734,-30.4391
-7,-650,5.37756,28.5038,0,0,0,0,0,0,0,-1,1217,1674,5.3776,-28.5038
0,-650,5.37878,29.9104,0.0433154,0.0385745,0.0402609,0.0812756,0.000614315,0.755993,0.0539801,0.0445816,1224,1674,5.37884,-29.9104
7,-650,5.37866,31.3805,0.0523127,0.0520662,0.044073,0.0962626,0.00811628,0.784,0.061648,0.0415092,1231,1674,5.37861,-31.3805
14,-650,5.12073,32.6984,0.058785,0.0663418,0.0455756,0.108295,0.0168315,0.826756,0.0672918,0.042652,1238,1674,5.12077,-32.6984
21,-650,4.44556,34.1725,0.061828,0.0810346,0.0447531,0.117203,0.0256595,0.891087,0.0711418,0.0427073,1245,1674,4.4456,-34.1725
28,-650,3.93262,35.5914,0.0615404,0.0970019,0.0436752,0.126408,0.032134,0.978219,0.0758643,0.0416666,1252,1674,3.93264,-35.5915
35,-650,7.19397,34.5547,0.0582596,0.110411,0.0417601,0.133568,0.0351027,1.06449,0.0799554,0.0430356,1259,1674,7.19393,-34.5547
42,-650,8.09717,34.4946,0.0537581,0.122207,0.0391822,0.140007,0.0359579,1.14438,0.0839591,0.0449297,1266,1674,8.09715,-34.4947
49,-650,8.76978,34.6914,0,0,0,0,0,0,0,-1,1273,1674,8.76978,-34.6914
56,-650,7.56494,34.9858,0.0451191,0.140574,0.0354123,0.152276,0.0334164,1.25162,0.092415,0.0461583,1280,1674,7.56491,-34.9858
63,-650,7.64319,35.0182,0.0391465,0.147988,0.0331558,0.157293,0.0298419,1.2972,0.0964657,0.0439173,1287,1674,7.64317,-35.0182
70,-650,7.68958,35.21,0.0327626,0.150827,0.0301859,0.158097,0.0254925,1.33446,0.0980121,0.0464848,1294,1674,7.68961,-35.2099
77,-650,7.65747,35.9066,0.0273259,0.150195,0.0285439,0.156502,0.0210186,1.35332,0.0980822,0.0442569,1301,1674,7.65746,-35.9067
84,-650,7.66602,36.4895,0.0211221,0.142969,0.0270828,0.148717,0.0153737,1.36165,0.0944385,0.0463102,1308,1674,7.66601,-36.4895
91,-650,7.75427,37.0509,0.0190521,0.13346,0.0273095,0.139645,0.0128676,1.34809,0.0891174,0.0476646,1315,1674,7.75432,-37.0509
98,-650,7.81226,37.7117,0,0,0,0,0,0,0,-1,1322,1674,7.81231,-37.7116
105,-650,8.48169,33.2178,0,0,0,0,0,0,0,-1,1329,1674,8.48164,-33.2178
112,-650,7.98376,33.3267,0,0,0,0,0,0,0,-1,1336,1674,7.98372,-33.3267
119,-650,7.34387,33.1277,0,0,0,0,0,0,0,-1,1343,1674,7.34387,-33.1277
126,-650,8.93372,32.4536,0,0,0,0,0,0,0,-1,1350,1674,8.93375,-32.4536
133,-650,9.07947,31.9774,0,0,0,0,0,0,0,-1,1357,1674,9.07946,-31.9774
140,-650,8.37878,31.5582,0,0,0,0,0,0,0,-1,1364,1674,8.37884,-31.5582
147,-650,8.11633,31.0369,0,0,0,0,0,0,0,-1,1371,1674,8.11627,-31.0369
154,-650,8.4408,29.7015,0,0,0,0,0,0,0,-1,1378,1674,8.44075,-29.7016
161,-650,8.77869,28.6459,0,0,0,0,0,0,0,-1,1385,1674,8.77865,-28.6459
168,-650,11.2113,7.87231,0,0,0,0,0,0,0,-1,1392,1674,11.2113,-7.87236
175,-650,5.62537,-0.230713,0,0,0,0,0,0,0,-1,1399,1674,5.62538,0.230745
182,-650,5.56006,0.421631,0,0,0,0,0,0,0,-1,1406,1674,5.56,-0.421652
189,-650,4.81543,11.0654,0,0,0,0,0,0,0,-1,1413,1674,4.81542,-11.0654
196,-650,5.39575,11.9077,0,0,0,0,0,0,0,-1,1420,1674,5.39575,-11.9078
203,-650,3.93628,11.8215,0,0,0,0,0,0,0,-1,1427,1674,3.93624,-11.8216
210,-650,5.40955,8.08594,0,0,0,0,0,0,0,-1,1434,1674,5.40958,-8.086
217,-650,5.12451,4.69739,0,0,0,0,0,0,0,-1,1441,1674,5.12451,-4.69738
224,-650,4.79041,1.45813,0,0,0,0,0,0,0,-1,1448,1674,4.79046,-1.45816
231,-650,4.04102,-0.642212,0,0,0,0,0,0,0,-1,1455,1674,4.04101,0.642209
238,-650,3.23022,-1.43396,0,0,0,0,0,0,0,-1,1462,1674,3.23023,1.43394
245,-650,1.65894,-2.55042,0,0,0,0,0,0,0,-1,1469,1674,1.65889,2.55036
252,-650,8.75342,0.355103,0,0,0,0,0,0,0,-1,1476,1674,8.75337,-0.355147
259,-650,5.61255,3.17566,0,0,0,0,0,0,0,-1,1483,1674,5.61257,-3.17572
266,-650,4.00403,6.10229,0,0,0,0,0,0,0,-1,1490,1674,4.00401,-6.10225
273,-650,5.4093,14.3718,0,0,0,0,0,0,0,-1,1497,1674,5.40929,-14.3718
280,-650,8.55762,28.1248,0,0,0,0,0,0,0,-1,1504,1674,8.55759,-28.1248
287,-650,8.22314,28.5215,0.0162135,0.0105625,-0.00892383,0.0227484,0.0040275,-0.632079,0.0140173,0.0474954,1511,1674,8.22318,-28.5215
294,-650,8.77112,28.0426,0.0134968,0.00936175,-0.00710511,0.0188291,0.00402948,-0.643811,0.0114485,0.0457727,1518,1674,8.77113,-28.0426
301,-650,8.93054,27.6801,0.0110105,0.00794072,-0.00538386,0.015074,0.00387724,-0.646535,0.00903851,0.0332146,1525,1674,8.93053,-27.6801
308,-650,8.94714,27.4749,0.00872823,0.00666083,-0.00384305,0.0116742,0.00371488,-0.654018,0.00688698,0.022682,1532,1674,8.94709,-27.4749
315,-650,8.95691,27.2867,0.00673826,0.00586048,-0.00268666,0.00902164,0.0035771,-0.704434,0.00524571,0.017021,1539,1674,8.95694,-27.2867
322,-650,8.96265,27.0564,0.00511472,0.00503923,-0.00178011,0.00685749,0.00329646,-0.774798,0.00396015,0.0132841,1546,1674,8.96261,-27.0564
329,-650,8.9939,26.7742,0.00394271,0.00461272,-0.00127787,0.00559877,0.00295666,-0.913592,0.00323415,0.0159475,1553,1674,8.99385,-26.7741
336,-650,8.99109,26.5441,0.00306699,0.00414158,-0.000886721,0.00464108,0.00256748,-1.05778,0.00268458,0.0140864,1560,1674,8.99105,-26.5441
343,-650,8.99817,26.3035,0.0019965,0.0033995,-0.000391212,0.00350121,0.00189478,-1.31644,0.00202371,0.0134204,1567,1674,8.99816,-26.3035
350,-650,9.02771,26.0278,0.00138574,0.00293801,-0.000295985,0.00299253,0.00133122,-1.38863,0.00173124,0.0162252,1574,1674,9.02765,-26.0279
357,-650,9.01965,25.7666,0.00114003,0.00241128,-0.000275246,0.00246832,0.00108299,-1.36647,0.00142864,0.0137987,1581,1674,9.01962,-25.7666
364,-650,9.0144,25.5143,0.000978485,0.00145366,-0.000146766,0.00149534,0.000936809,-1.29412,0.000872493,0.00966221,1588,1674,9.0144,-25.5143
371,-650,9.01782,25.2422,0.000751112,0.000491847,5.87374e-05,0.000763798,0.000479161,0.212718,0.000445721,0.0113128,1595,1674,9.01781,-25.2422
378,-650,9.00916,24.9684,0.000547408,-0.000592446,0.000276327,0.000610863,-0.000655901,0.225726,0.000731521,0.0122616,1602,1674,9.00911,-24.9684
385,-650,9.01147,24.6936,0.000445184,-0.00186713,0.000553033,0.000570645,-0.00199259,0.223084,0.00155394,0.0138074,1609,1674,9.01151,-24.6937
392,-650,9.02686,24.4209,0.000316948,-0.00337935,0.000910667,0.000529131,-0.00359153,0.228914,0.00258882,0.0167977,1616,1674,9.02685,-24.4209
399,-650,9.00403,24.1447,0.000129634,-0.00494523,0.00129421,0.000440627,-0.00525623,0.235826,0.00365988,0.0146759,1623,1674,9.00409,-24.1447
406,-650,8.97729,23.8309,-9.74716e-05,-0.00657501,0.00173981,0.000340247,-0.00701273,0.246475,0.00479259,0.013607,1630,1674,8.97728,-23.8309
413,-650,9.00122,23.5142,-0.000287814,-0.00796559,0.00214017,0.000268452,-0.00852186,0.25429,0.0057728,0.0141548,1637,1674,9.00117,-23.5142
420,-650,8.98743,23.229,-0.000531854,-0.00931333,0.0025265,0.000143156,-0.00998833,0.261074,0.00670712,0.0157448,1644,1674,8.98738,-23.229
427,-650,8.94543,22.95,-0.000834874,-0.0106182,0.0030734,5.04991e-05,-0.0115036,0.280482,0.00768593,0.0154396,1651,1674,8.94543,-22.9499
434,-650,8.93323,22.6638,-0.00116475,-0.0117042,0.0035439,-8.39517e-05,-0.012785,0.296015,0.0084955,0.018138,1658,1674,8.9332,-22.6638
441,-650,8.91492,22.3982,-0.00149388,-0.012666,0.00405871,-0.000175071,-0.0139848,0.314172,0.00926537,0.0295497,1665,1674,8.91497,-22.3982
448,-650,8.80981,22.1592,-0.00193257,-0.0133399,0.00438907,-0.000439307,-0.0148331,0.327939,0.00974562,0.04624,1672,1674,8.80983,-22.1591
455,-650,8.6897,21.964,-0.00272763,-0.0139988,0.00494049,-0.000868668,-0.0158578,0.359884,0.0102945,0.0494822,1679,1674,8.68969,-21.964
462,-650,8.6355,21.4365,0,0,0,0,0,0,0,-1,1686,1674,8.6355,-21.4366
469,-650,8.81763,21.2124,0,0,0,0,0,0,0,-1,1693,1674,8.81763,-21.2124
476,-650,8.68115,20.9589,0,0,0,0,0,0,0,-1,1700,1674,8.68112,-20.9589
483,-650,9.35193,20.7261,0,0,0,0,0,0,0,-1,1707,1674,9.35189,-20.7261
490,-650,9.0553,16.6405,0,0,0,0,0,0,0,-1,1714,1674,9.05532,-16.6405
497,-650,10.4985,20.1362,0,0,0,0,0,0,0,-1,1721,1674,10.4986,-20.1362
504,-650,9.69458,18.7721,0,0,0,0,0,0,0,-1,1728,1674,9.6946,-18.772
511,-650,9.37158,17.7506,0,0,0,0,0,0,0,-1,1735,1674,9.37159,-17.7506
518,-650,0,0,0,0,0,0,0,0,0,-1,1742,1674,0,0
525,-650,0,0,0,0,0,0,0,0,0,-1,1749,1674,0,0
532,-650,0,0,0,0,0,0,0,0,0,-1,1756,1674,0,0
539,-650,0,0,0,0,0,0,0,0,0,-1,1763,1674,0,0
546,-650,0,0,0,0,0,0,0,0,0,-1,1770,1674,0,0
553,-650,0,0,0,0,0,0,0,0,0,-1,1777,1674,0,0
560,-650,0,0,0,0,0,0,0,0,0,-1,1784,1674,0,0
567,-650,0,0,0,0,0,0,0,0,0,-1,1791,1674,0,0
574,-650,0,0,0,0,0,0,0,0,0,-1,1798,1674,0,0
581,-650,0,0,0,0,0,0,0,0,0,-1,1805,1674,0,0
588,-650,0,0,0,0,0,0,0,0,0,-1,1812,1674,0,0
595,-650,0,0,0,0,0,0,0,0,0,-1,1819,1674,0,0
602,-650,0,0,0,0,0,0,0,0,0,-1,1826,1674,0,0
609,-650,0,0,0,0,0,0,0,0,0,-1,1833,1674,0,0
616,-650,0,0,0,0,0,0,0,0,0,-1,1840,1674,0,0
623,-650,0,0,0,0,0,0,0,0,0,-1,1847,1674,0,0
630,-650,0,0,0,0,0,0,0,0,0,-1,1854,1674,0,0
637,-650,0,0,0,0,0,0,0,0,0,-1,1861,1674,0,0
644,-650,0,0,0,0,0,0,0,0,0,-1,1868,1674,0,0
651,-650,0,0,0,0,0,0,0,0,0,-1,1875,1674,0,0
658,-650,0,0,0,0,0,0,0,0,0,-1,1882,1674,0,0
665,-650,0,0,0,0,0,0,0,0,0,-1,1889,1674,0,0
672,-650,0,0,0,0,0,0,0,0,0,-1,1896,1674,0,0
679,-650,0,0,0,0,0,0,0,0,0,-1,1903,1674,0,0
686,-650,0,0,0,0,0,0,0,0,0,-1,1910,1674,0,0
693,-650,0,0,0,0,0,0,0,0,0,-1,1917,1674,0,0
700,-650,0,0,0,0,0,0,0,0,0,-1,1924,1674,0,0
707,-650,0,0,0,0,0,0,0,0,0,-1,1931,1674,0,0
714,-650,0,0,0,0,0,0,0,0,0,-1,1938,1674,0,0
721,-650,0,0,0,0,0,0,0,0,0,-1,1945,1674,0,0
728,-650,0,0,0,0,0,0,0,0,0,-1,1952,1674,0,0
735,-650,0,0,0,0,0,0,0,0,0,-1,1959,1674,0,0
742,-650,0,0,0,0,0,0,0,0,0,-1,1966,1674,0,0
749,-650,0,0,0,0,0,0,0,0,0,-1,1973,1674,0,0
756,-650,0,0,0,0,0,0,0,0,0,-1,1980,1674,0,0
763,-650,0,0,0,0,0,0,0,0,0,-1,1987,1674,0,0
770,-650,0,0,0,0,0,0,0,0,0,-1,1994,1674,0,0
777,-650,0,0,0,0,0,0,0,0,0,-1,2001,1674,0,0
784,-650,0,0,0,0,0,0,0,0,0,-1,2008,1674,0,0
791,-650,0,0,0,0,0,0,0,0,0,-1,2015,1674,0,0
798,-650,0,0,0,0,0,0,0,0,0,-1,2022,1674,0,0
805,-650,0,0,0,0,0,0,0,0,0,-1,2029,1674,0,0
812,-650,0,0,0,0,0,0,0,0,0,-1,2036,1674,0,0
-700,-657,0,0,0,0,0,0,0,0,0,-1,524,1681,0,0
-693,-657,0,0,0,0,0,0,0,0,0,-1,531,1681,0,0
-686,-657,0,0,0,0,0,0,0,0,0,-1,538,1681,0,0
-679,-657,0,0,0,0,0,0,0,0,0,-1,545,1681,0,0
-672,-657,0,0,0,0,0,0,0,0,0,-1,552,1681,0,0
-665,-657,0,0,0,0,0,0,0,0,0,-1,559,1681,0,0
-658,-657,0,0,0,0,0,0,0,0,0,-1,566,1681,0,0
-651,-657,0,0,0,0,0,0,0,0,0,-1,573,1681,0,0
-644,-657,0,0,0,0,0,0,0,0,0,-1,580,1681,0,0
-637,-657,0,0,0,0,0,0,0,0,0,-1,587,1681,0,0
-630,-657,0,0,0,0,0,0,0,0,0,-1,594,1681,0,0
-623,-657,0,0,0,0,0,0,0,0,0,-1,601,1681,0,0
-616,-657,0,0,0,0,0,0,0,0,0,-1,608,1681,0,0
-609,-657,0,0,0,0,0,0,0,0,0,-1,615,1681,0,0
-602,-657,0,0,0,0,0,0,0,0,0,-1,622,1681,0,0
-595,-657,0,0,0,0,0,0,0,0,0,-1,629,1681,0,0
-588,-657,0,0,0,0,0,0,0,0,0,-1,636,1681,0,0
-581,-657,0,0,0,0,0,0,0,0,0,-1,643,1681,0,0
-574,-657,0,0,0,0,0,0,0,0,0,-1,650,1681,0,0
-567,-657,0,0,0,0,0,0,0,0,0,-1,657,1681,0,0
-560,-657,0,0,0,0,0,0,0,0,0,-1,664,1681,0,0
-553,-657,0,0,0,0,0,0,0,0,0,-1,671,1681,0,0
-546,-657,0,0,0,0,0,0,0,0,0,-1,678,1681,0,0
-539,-657,0,0,0,0,0,0,0,0,0,-1,685,1681,0,0
-532,-657,0,0,0,0,0,0,0,0,0,-1,692,1681,0,0
-525,-657,0,0,0,0,0,0,0,0,0,-1,699,1681,0,0
-518,-657,0,0,0,0,0,0,0,0,0,-1,706,1681,0,0
-511,-657,0,0,0,0,0,0,0,0,0,-1,713,1681,0,0
-504,-657,0,0,0,0,0,0,0,0,0,-1,720,1681,0,0
-497,-657,0,0,0,0,0,0,0,0,0,-1,727,1681,0,0
-490,-657,0,0,0,0,0,0,0,0,0,-1,734,1681,0,0
-483,-657,0,0,0,0,0,0,0,0,0,-1,741,1681,0,0
-476,-657,0,0,0,0,0,0,0,0,0,-1,748,1681,0,0
-469,-657,0,0,0,0,0,0,0,0,0,-1,755,1681,0,0
-462,-657,0,0,0,0,0,0,0,0,0,-1,762,1681,0,0
-455,-657,0,0,0,0,0,0,0,0,0,-1,769,1681,0,0
-448,-657,0,0,0,0,0,0,0,0,0,-1,776,1681,0,0
-441,-657,0,0,0,0,0,0,0,0,0,-1,783,1681,0,0
-434,-657,0,0,0,0,0,0,0,0,0,-1,790,1681,0,0
-427,-657,0,0,0,0,0,0,0,0,0,-1,797,1681,0,0
-420,-657,0,0,0,0,0,0,0,0,0,-1,804,1681,0,0
-413,-657,0,0,0,0,0,0,0,0,0,-1,811,1681,0,0
-406,-657,0,0,0,0,0,0,0,0,0,-1,818,1681,0,0
-399,-657,0,0,0,0,0,0,0,0,0,-1,825,1681,0,0
-392,-657,0,0,0,0,0,0,0,0,0,-1,832,1681,0,0
-385,-657,1.09814,6.18896,0,0,0,0,0,0,0,-1,839,1681,1.09814,-6.18894
-378,-657,0.31488,4.46753,0,0,0,0,0,0,0,-1,846,1681,0.31487,-4.46755
-371,-657,-0.519043,2.69421,0,0,0,0,0,0,0,-1,853,1681,-0.519064,-2.69422
-364,-657,-3.42017,4.18323,0,0,0,0,0,0,0,-1,860,1681,-3.42019,-4.18319
-357,-657,-4.41913,2.97168,0,0,0,0,0,0,0,-1,867,1681,-4.41913,-2.97165
-350,-657,-5.42291,1.70276,0,0,0,0,0,0,0,-1,874,1681,-5.42291,-1.70277
-343,-657,-6.51294,0.397339,0,0,0,0,0,0,0,-1,881,1681,-6.51295,-0.397335
-336,-657,3.07172,15.946,0,0,0,0,0,0,0,-1,888,1681,3.07169,-15.946
-329,-657,5.17676,21.1191,0,0,0,0,0,0,0,-1,895,1681,5.17676,-21.1192
-322,-657,5.49194,21.2452,-0.00393429,0.0027792,-0.0116457,0.0115423,-0.0126974,-0.925714,0.0140001,0.0449177,902,1681,5.49196,-21.2452
-315,-657,5.53784,21.1079,-0.00357789,0.0047604,-0.00773423,0.00937761,-0.0081951,-1.0326,0.0101533,0.0424485,909,1681,5.53787,-21.1079
-308,-657,4.97296,21.2999,-0.00311685,0.00588861,-0.00469455,0.00789076,-0.00511899,-1.16767,0.00756779,0.0403332,916,1681,4.97297,-21.2999
-301,-657,4.90765,21.8148,-0.00258574,0.00644218,-0.00240831,0.00704445,-0.003188,-1.32574,0.00604595,0.0330115,923,1681,4.90765,-21.8148
-294,-657,4.9046,22.1998,-0.00212392,0.0064037,-0.000790965,0.00647645,-0.00219666,-1.47909,0.00520667,0.0196339,930,1681,4.9046,-22.1998
-287,-657,4.88934,22.5144,-0.00173789,0.00603093,0.000272913,0.00604051,-0.00174746,1.53572,0.00471861,0.0139564,937,1681,4.88932,-22.5144
-280,-657,4.87451,22.7828,-0.00130149,0.0052332,0.000931776,0.00536347,-0.00143175,1.43189,0.00413634,0.0132297,944,1681,4.87453,-22.7828
-273,-657,4.87262,23.1031,-0.000850252,0.00442304,0.00123173,0.00469656,-0.00112377,1.35228,0.00356516,0.00901272,951,1681,4.87263,-23.1031
-266,-657,4.836,23.4343,-0.000517502,0.00374545,0.00170005,0.00434039,-0.00111244,1.23416,0.00332699,0.0140992,958,1681,4.83599,-23.4343
-259,-657,4.82117,23.7427,-5.61542e-06,0.0027584,0.00181093,0.00365442,-0.000901632,1.11133,0.00278589,0.019149,965,1681,4.82115,-23.7427
-252,-657,4.82092,24.0453,0.000431034,0.00186893,0.00150728,0.00281995,-0.000519982,1.00793,0.00207512,0.0129686,972,1681,4.82089,-24.0452
-245,-657,4.81738,24.3618,0.000688184,0.00127568,0.00125445,0.00227031,-0.000306446,0.900409,0.00162535,0.0144297,979,1681,4.81737,-24.3618
-238,-657,4.8114,24.6407,0.000962902,0.000850675,0.00109553,0.00200375,-0.000190173,0.75981,0.00140353,0.0196446,986,1681,4.81139,-24.6408
-231,-657,4.80817,24.9469,0.00132555,0.00043598,0.00106886,0.00203847,-0.000276944,0.588231,0.00146008,0.0221121,993,1681,4.80816,-24.9469
-224,-657,4.83618,25.261,0.00165784,0.000412044,0.00107667,0.00227882,-0.000208929,0.523151,0.00159343,0.0169552,1000,1681,4.83618,-25.261
-217,-657,4.83832,25.5396,0.00189173,0.00052203,0.00103948,0.00245169,-3.79266e-05,0.494116,0.00164725,0.00903312,1007,1681,4.83833,-25.5396
-210,-657,4.84003,25.8048,0.00221836,0.000260172,0.00084611,0.00253331,-5.47683e-05,0.356333,0.00170742,0.00983502,1014,1681,4.84006,-25.8049
-203,-657,4.86255,26.0715,0.00266001,-0.000159401,0.000713764,0.00283041,-0.000329799,0.234346,0.00200593,0.012349,1021,1681,4.86254,-26.0716
-196,-657,4.86731,26.3309,0.00288996,-0.000608317,0.000532825,0.00296931,-0.000687671,0.147846,0.00224417,0.0131431,1028,1681,4.8673,-26.3309
-189,-657,4.86438,26.5924,0.00300239,-0.0011164,0.000250308,0.00301755,-0.00113156,0.0604755,0.00247661,0.00979926,1035,1681,4.86437,-26.5925
-182,-657,4.85828,26.8469,0.00299503,-0.00154718,-0.00018921,0.0030029,-0.00155505,-0.0415599,0.00267542,0.00802788,1042,1681,4.85824,-26.8469
-175,-657,4.87659,27.0928,0.00311906,-0.00193968,-0.000515178,0.00317099,-0.00199161,-0.100465,0.00300645,0.010185,1049,1681,4.87656,-27.0928
-168,-657,4.86536,27.34,0.00320592,-0.0021704,-0.000821439,0.00332862,-0.00229311,-0.148283,0.00326401,0.0118776,1056,1681,4.86533,-27.3399
-161,-657,4.87415,27.5792,0.00324596,-0.00220247,-0.00108845,0.00345535,-0.00241187,-0.190058,0.00340525,0.0118379,1063,1681,4.87414,-27.5792
-154,-657,4.94006,27.803,0.00323185,-0.00183383,-0.00129584,0.00354409,-0.00214607,-0.236448,0.0033181,0.0124015,1070,1681,4.94004,-27.803
-147,-657,4.95227,28.0197,0.00323537,-0.000951367,-0.00150447,0.00371992,-0.00143591,-0.311578,0.00307254,0.0195673,1077,1681,4.95224,-28.0196
-140,-657,4.84937,28.3622,0.00326139,0.000518871,-0.00160189,0.00399878,-0.000218518,-0.431407,0.0027416,0.0342882,1084,1681,4.84931,-28.3621
-133,-657,4.61523,28.718,0.00322782,0.00242519,-0.00160162,0.00447764,0.00117537,-0.662641,0.00268062,0.0465441,1091,1681,4.61524,-28.7181
-126,-657,4.93103,29.4059,0,0,0,0,0,0,0,-1,1098,1681,4.93102,-29.4059
-119,-657,5.08496,29.5975,0,0,0,0,0,0,0,-1,1105,1681,5.085,-29.5976
-112,-657,4.6051,21.3439,0,0,0,0,0,0,0,-1,1112,1681,4.60512,-21.3438
-105,-657,3.82434,14.4906,0,0,0,0,0,0,0,-1,1119,1681,3.8244,-14.4906
-98,-657,3.78662,8.16785,0,0,0,0,0,0,0,-1,1126,1681,3.78663,-8.16786
-91,-657,3.6521,16.6017,0,0,0,0,0,0,0,-1,1133,1681,3.65215,-16.6017
-84,-657,4.08008,10.4579,0,0,0,0,0,0,0,-1,1140,1681,4.08006,-10.4579
-77,-657,-5.29846,0.396606,0,0,0,0,0,0,0,-1,1147,1681,-5.29842,-0.396573
-70,-657,-4.14893,2.14575,0,0,0,0,0,0,0,-1,1154,1681,-4.14893,-2.1458
-63,-657,-4.1239,3.177,0,0,0,0,0,0,0,-1,1161,1681,-4.12391,-3.17698
-56,-657,-6.40576,5.73987,0,0,0,0,0,0,0,-1,1168,1681,-6.40577,-5.7399
-49,-657,-5.98462,7.54053,0,0,0,0,0,0,0,-1,1175,1681,-5.98466,-7.5405
-42,-657,-5.71948,9.28955,0,0,0,0,0,0,0,-1,1182,1681,-5.71951,-9.2895
-35,-657,-5.44556,11.015,0,0,0,0,0,0,0,-1,1189,1681,-5.44555,-11.015
-28,-657,-1.3446,8.92847,0,0,0,0,0,0,0,-1,1196,1681,-1.34459,-8.92848
-21,-657,5.58093,31.0286,0,0,0,0,0,0,0,-1,1203,1681,5.58088,-31.0286
-14,-657,3.58398,31.339,0,0,0,0,0,0,0,-1,1210,1681,3.58396,-31.339
-7,-657,3.60583,31.4658,0.0356289,0.0283014,0.0285824,0.0607814,0.00314888,0.721655,0.0395132,0.0455517,1217,1681,3.60586,-31.4658
0,-657,5.46985,30.7451,0.0405782,0.0367056,0.0313069,0.0700087,0.00727515,0.754513,0.0444463,0.0408223,1224,1681,5.46989,-30.7452
7,-657,5.22693,31.2068,0.0472328,0.0473641,0.0336247,0.0809233,0.0136737,0.786375,0.0500179,0.0440588,1231,1681,5.22692,-31.2068
14,-657,5.12134,32.2377,0.0523139,0.0589953,0.0346358,0.0904511,0.0208581,0.833476,0.0546903,0.0439817,1238,1681,5.12135,-32.2377
21,-657,5.26636,33.2223,0.0548092,0.0710491,0.034333,0.0982093,0.027649,0.901518,0.0584775,0.0439893,1245,1681,5.2663,-33.2223
28,-657,5.01074,34.2657,0.0544873,0.0847934,0.034057,0.106916,0.0323644,0.994714,0.0633097,0.0426987,1252,1681,5.01078,-34.2657
35,-657,7.10876,34.0403,0.0517265,0.0963809,0.0332832,0.114132,0.0339753,1.08084,0.0676684,0.040039,1259,1681,7.10877,-34.0402
42,-657,8.00317,34.5649,0.0480085,0.106267,0.03178,0.120248,0.0340277,1.15635,0.071572,0.0419348,1266,1681,8.00316,-34.5649
49,-657,9.01001,35.2095,0,0,0,0,0,0,0,-1,1273,1681,9.01001,-35.2095
56,-657,7.68066,33.7885,0,0,0,0,0,0,0,-1,1280,1681,7.6806,-33.7884
63,-657,7.84644,33.5801,0.0351534,0.12865,0.0291665,0.137002,0.026801,1.29189,0.0838415,0.0469149,1287,1681,7.84639,-33.58
70,-657,8.37952,32.8719,0.0294809,0.131012,0.0272092,0.137844,0.0226488,1.32479,0.085354,0.0478466,1294,1681,8.3795,-32.8719
77,-657,7.7843,35.2732,0.024628,0.130708,0.0262531,0.136849,0.0184863,1.34099,0.0857377,0.0421772,1301,1681,7.78427,-35.2732
84,-657,7.61768,35.6931,0.0184095,0.124888,0.0254903,0.130675,0.0126219,1.34753,0.0832291,0.0447987,1308,1681,7.61767,-35.6931
91,-657,7.57178,36.3428,0.0150638,0.117648,0.0256272,0.123693,0.00901799,1.33912,0.0796267,0.0470321,1315,1681,7.57178,-36.3427
98,-657,8.72327,32.705,0,0,0,0,0,0,0,-1,1322,1681,8.72323,-32.7049
105,-657,8.42993,32.7262,0.0142078,0.094808,0.023831,0.101327,0.00768894,1.30378,0.0651397,0.048132,1329,1681,8.42994,-32.7262
112,-657,8.10559,32.7579,0.0136995,0.0817951,0.0225168,0.0885671,0.00692742,1.27865,0.0568764,0.0478767,1336,1681,8.10563,-32.7579
119,-657,7.75195,32.7814,0,0,0,0,0,0,0,-1,1343,1681,7.75194,-32.7813
126,-657,8.74939,31.6377,0,0,0,0,0,0,0,-1,1350,1681,8.74942,-31.6377
133,-657,8.81775,30.8212,0,0,0,0,0,0,0,-1,1357,1681,8.81771,-30.8211
140,-657,7.56543,30.1447,0,0,0,0,0,0,0,-1,1364,1681,7.56542,-30.1446
147,-657,8.01782,29.2122,0,0,0,0,0,0,0,-1,1371,1681,8.01781,-29.2121
154,-657,8.93835,29.1625,0,0,0,0,0,0,0,-1,1378,1681,8.93834,-29.1625
161,-657,4.2926,24.9226,0,0,0,0,0,0,0,-1,1385,1681,4.29264,-24.9226
168,-657,5.21643,0.70105,0,0,0,0,0,0,0,-1,1392,1681,5.21648,-0.7011
175,-657,5.52771,0.649048,0,0,0,0,0,0,0,-1,1399,1681,5.52774,-0.649019
182,-657,5.73999,1.02612,0,0,0,0,0,0,0,-1,1406,1681,5.73995,-1.02611
189,-657,5.92126,1.44116,0,0,0,0,0,0,0,-1,1413,1681,5.92126,-1.44115
196,-657,4.92834,9.59021,0,0,0,0,0,0,0,-1,1420,1681,4.9284,-9.59018
203,-657,6.26343,5.16492,0,0,0,0,0,0,0,-1,1427,1681,6.26345,-5.16488
210,-657,3.9856,5.28088,0,0,0,0,0,0,0,-1,1434,1681,3.98555,-5.28084
217,-657,3.95178,5.2843,0,0,0,0,0,0,0,-1,1441,1681,3.95174,-5.28431
224,-657,6.66736,-0.250244,0,0,0,0,0,0,0,-1,1448,1681,6.66737,0.250229
231,-657,6.85498,-1.70752,0,0,0,0,0,0,0,-1,1455,1681,6.855,1.70758
238,-657,5.34143,-2.89819,0,0,0,0,0,0,0,-1,1462,1681,5.34143,2.89813
245,-657,8.66003,-0.102783,0,0,0,0,0,0,0,-1,1469,1681,8.66,0.102824
252,-657,4.78955,0.623779,0,0,0,0,0,0,0,-1,1476,1681,4.7895,-0.623826
259,-657,2.61523,4.31909,0,0,0,0,0,0,0,-1,1483,1681,2.61523,-4.31908
266,-657,5.35437,11.4742,0,0,0,0,0,0,0,-1,1490,1681,5.35441,-11.4742
273,-657,8.5437,28.2755,0,0,0,0,0,0,0,-1,1497,1681,8.54371,-28.2756
280,-657,8.43774,28.2982,0.0135391,0.00786984,-0.00715038,0.0183962,0.00301271,-0.596686,0.0113935,0.047778,1504,1681,8.43779,-28.2983
287,-657,8.52698,28.1346,0.0119085,0.00696072,-0.00594471,0.0158735,0.00299569,-0.588223,0.00973861,0.0368885,1511,1681,8.52701,-28.1347
294,-657,8.71277,27.9114,0.0100556,0.00620502,-0.00481271,0.0133138,0.00294677,-0.595129,0.00807487,0.0264007,1518,1681,8.71278,-27.9114
301,-657,8.66858,27.7328,0.00829661,0.00528115,-0.00371,0.0107935,0.00278421,-0.592395,0.00647048,0.0173827,1525,1681,8.66861,-27.7327
308,-657,8.67603,27.5083,0.00668158,0.00452605,-0.0027318,0.00854054,0.00266709,-0.597509,0.00504538,0.0126446,1532,1681,8.67598,-27.5083
315,-657,8.70251,27.2507,0.00522423,0.00401776,-0.00196611,0.00667756,0.00256443,-0.636549,0.0038897,0.0110312,1539,1681,8.70249,-27.2507
322,-657,8.73535,27.0022,0.00398823,0.0035013,-0.00135084,0.00511737,0.00237216,-0.696239,0.00295713,0.0127468,1546,1681,8.73533,-27.0022
329,-657,8.74475,26.7529,0.00306179,0.00312172,-0.000977492,0.00406971,0.0021138,-0.80072,0.00235024,0.0190061,1553,1681,8.74481,-26.753
336,-657,8.7511,26.5226,0.00231781,0.00272814,-0.000665608,0.00321949,0.00182646,-0.934899,0.00186438,0.0170923,1560,1681,8.75109,-26.5225
343,-657,8.75342,26.3057,0.00137904,0.00202004,-0.000181228,0.00206773,0.00133135,-1.31348,0.00121016,0.0127708,1567,1681,8.75347,-26.3056
350,-657,8.75134,26.0376,0.000834893,0.00146893,1.42663e-05,0.00146925,0.000834573,1.54831,0.000850885,0.0146994,1574,1681,8.75132,-26.0376
357,-657,8.7583,25.7782,0.000600279,0.000719921,0.000146859,0.000818675,0.000501525,0.978806,0.000476641,0.0144487,1581,1681,8.75836,-25.7783
364,-657,8.76709,25.5259,0.000446748,-0.000487665,0.000384242,0.000584458,-0.000625375,0.344133,0.000698631,0.010743,1588,1681,8.76706,-25.5259
371,-657,8.75806,25.2706,0.000236705,-0.00167611,0.000691775,0.000460666,-0.00190007,0.313099,0.00144495,0.0143205,1595,1681,8.75807,-25.2706
378,-657,8.73083,24.9919,5.99556e-05,-0.00302783,0.00103106,0.000372589,-0.00334046,0.294404,0.00236099,0.0137478,1602,1681,8.73085,-24.992
385,-657,8.71558,24.7057,-1.53733e-05,-0.00456087,0.00144472,0.000404942,-0.00498118,0.283118,0.00346367,0.0120615,1609,1681,8.71559,-24.7057
392,-657,8.7229,24.4238,-0.000106919,-0.00639721,0.0019284,0.000437198,-0.00694133,0.275011,0.00477995,0.0119597,1616,1681,8.72285,-24.4239
399,-657,8.72461,24.1294,-0.000234603,-0.00825914,0.00239382,0.000425245,-0.00891899,0.268967,0.00609269,0.0119354,1623,1681,8.72465,-24.1294
406,-657,8.70605,23.8395,-0.000401532,-0.0102336,0.00293361,0.00040724,-0.0110424,0.26901,0.00750103,0.0132209,1630,1681,8.70609,-23.8395
413,-657,8.72852,23.5355,-0.000496441,-0.0119,0.00340107,0.000440869,-0.0128374,0.268917,0.00870891,0.013527,1637,1681,8.72857,-23.5355
420,-657,8.74817,23.2029,-0.000677862,-0.0134832,0.00384683,0.000388897,-0.0145499,0.270511,0.00983214,0.0169547,1644,1681,8.74816,-23.2029
427,-657,8.67981,22.8622,-0.000980598,-0.0150864,0.00449992,0.000332664,-0.0163997,0.283955,0.0110457,0.0222452,1651,1681,8.67985,-22.8622
434,-657,8.70923,22.588,-0.00131343,-0.0163521,0.00507888,0.000241124,-0.0179066,0.297027,0.0120189,0.0300544,1658,1681,8.70921,-22.588
441,-657,8.64709,22.6442,-0.00167428,-0.017678,0.0057995,0.000206363,-0.0195587,0.313578,0.0131084,0.0496394,1665,1681,8.64713,-22.6442
448,-657,8.6167,22.6064,0,0,0,0,0,0,0,-1,1672,1681,8.6167,-22.6065
455,-657,8.26428,22.2666,0,0,0,0,0,0,0,-1,1679,1681,8.26423,-22.2666
462,-657,6.51733,15.4801,0,0,0,0,0,0,0,-1,1686,1681,6.51737,-15.4801
469,-657,9.70483,21.9269,0,0,0,0,0,0,0,-1,1693,1681,9.70488,-21.9269
476,-657,8.9519,20.5712,0,0,0,0,0,0,0,-1,1700,1681,8.95194,-20.5712
483,-657,10.0663,21.8628,0,0,0,0,0,0,0,-1,1707,1681,10.0663,-21.8628
490,-657,11.6039,21.2185,0,0,0,0,0,0,0,-1,1714,1681,11.6038,-21.2185
497,-657,9.20862,17.8127,0,0,0,0,0,0,0,-1,1721,1681,9.2086,-17.8127
504,-657,0,0,0,0,0,0,0,0,0,-1,1728,1681,0,0
511,-657,0,0,0,0,0,0,0,0,0,-1,1735,1681,0,0
518,-657,0,0,0,0,0,0,0,0,0,-1,1742,1681,0,0
525,-657,0,0,0,0,0,0,0,0,0,-1,1749,1681,0,0
532,-657,0,0,0,0,0,0,0,0,0,-1,1756,1681,0,0
539,-657,0,0,0,0,0,0,0,0,0,-1,1763,1681,0,0
546,-657,0,0,0,0,0,0,0,0,0,-1,1770,1681,0,0
553,-657,0,0,0,0,0,0,0,0,0,-1,1777,1681,0,0
560,-657,0,0,0,0,0,0,0,0,0,-1,1784,1681,0,0
567,-657,0,0,0,0,0,0,0,0,0,-1,1791,1681,0,0
574,-657,0,0,0,0,0,0,0,0,0,-1,1798,1681,0,0
581,-657,0,0,0,0,0,0,0,0,0,-1,1805,1681,0,0
588,-657,0,0,0,0,0,0,0,0,0,-1,1812,1681,0,0
595,-657,0,0,0,0,0,0,0,0,0,-1,1819,1681,0,0
602,-657,0,0,0,0,0,0,0,0,0,-1,1826,1681,0,0
609,-657,0,0,0,0,0,0,0,0,0,-1,1833,1681,0,0
616,-657,0,0,0,0,0,0,0,0,0,-1,1840,1681,0,0
623,-657,0,0,0,0,0,0,0,0,0,-1,1847,1681,0,0
630,-657,0,0,0,0,0,0,0,0,0,-1,1854,1681,0,0
637,-657,0,0,0,0,0,0,0,0,0,-1,1861,1681,0,0
644,-657,0,0,0,0,0,0,0,0,0,-1,1868,1681,0,0
651,-657,0,0,0,0,0,0,0,0,0,-1,1875,1681,0,0
658,-657,0,0,0,0,0,0,0,0,0,-1,1882,1681,0,0
665,-657,0,0,0,0,0,0,0,0,0,-1,1889,1681,0,0
672,-657,0,0,0,0,0,0,0,0,0,-1,1896,1681,0,0
679,-657,0,0,0,0,0,0,0,0,0,-1,1903,1681,0,0
686,-657,0,0,0,0,0,0,0,0,0,-1,1910,1681,0,0
693,-657,0,0,0,0,0,0,0,0,0,-1,1917,1681,0,0
700,-657,0,0,0,0,0,0,0,0,0,-1,1924,1681,0,0
707,-657,0,0,0,0,0,0,0,0,0,-1,1931,1681,0,0
714,-657,0,0,0,0,0,0,0,0,0,-1,1938,1681,0,0
721,-657,0,0,0,0,0,0,0,0,0,-1,1945,1681,0,0
728,-657,0,0,0,0,0,0,0,0,0,-1,1952,1681,0,0
735,-657,0,0,0,0,0,0,0,0,0,-1,1959,1681,0,0
742,-657,0,0,0,0,0,0,0,0,0,-1,1966,1681,0,0
749,-657,0,0,0,0,0,0,0,0,0,-1,1973,1681,0,0
756,-657,0,0,0,0,0,0,0,0,0,-1,1980,1681,0,0
763,-657,0,0,0,0,0,0,0,0,0,-1,1987,1681,0,0
770,-657,0,0,0,0,0,0,0,0,0,-1,1994,1681,0,0
777,-657,0,0,0,0,0,0,0,0,0,-1,2001,1681,0,0
784,-657,0,0,0,0,0,0,0,0,0,-1,2008,1681,0,0
791,-657,0,0,0,0,0,0,0,0,0,-1,2015,1681,0,0
798,-657,0,0,0,0,0,0,0,0,0,-1,2022,1681,0,0
805,-657,0,0,0,0,0,0,0,0,0,-1,2029,1681,0,0
812,-657,0,0,0,0,0,0,0,0,0,-1,2036,1681,0,0
-700,-664,0,0,0,0,0,0,0,0,0,-1,524,1688,0,0
-693,-664,0,0,0,0,0,0,0,0,0,-1,531,1688,0,0
-686,-664,0,0,0,0,0,0,0,0,0,-1,538,1688,0,0
-679,-664,0,0,0,0,0,0,0,0,0,-1,545,1688,0,0
-672,-664,0,0,0,0,0,0,0,0,0,-1,552,1688,0,0
-665,-664,0,0,0,0,0,0,0,0,0,-1,559,1688,0,0
-658,-664,0,0,0,0,0,0,0,0,0,-1,566,1688,0,0
-651,-664,0,0,0,0,0,0,0,0,0,-1,573,1688,0,0
-644,-664,0,0,0,0,0,0,0,0,0,-1,580,1688,0,0
-637,-664,0,0,0,0,0,0,0,0,0,-1,587,1688,0,0
-630,-664,0,0,0,0,0,0,0,0,0,-1,594,1688,0,0
-623,-664,0,0,0,0,0,0,0,0,0,-1,601,1688,0,0
-616,-664,0,0,0,0,0,0,0,0,0,-1,608,1688,0,0
-609,-664,0,0,0,0,0,0,0,0,0,-1,615,1688,0,0
-602,-664,0,0,0,0,0,0,0,0,0,-1,622,1688,0,0
-595,-664,0,0,0,0,0,0,0,0,0,-1,629,1688,0,0
-588,-664,0,0,0,0,0,0,0,0,0,-1,636,1688,0,0
-581,-664,0,0,0,0,0,0,0,0,0,-1,643,1688,0,0
-574,-664,0,0,0,0,0,0,0,0,0,-1,650,1688,0,0
-567,-664,0,0,0,0,0,0,0,0,0,-1,657,1688,0,0
-560,-664,0,0,0,0,0,0,0,0,0,-1,664,1688,0,0
-553,-664,0,0,0,0,0,0,0,0,0,-1,671,1688,0,0
-546,-664,0,0,0,0,0,0,0,0,0,-1,678,1688,0,0
-539,-664,0,0,0,0,0,0,0,0,0,-1,685,1688,0,0
-532,-664,0,0,0,0,0,0,0,0,0,-1,692,1688,0,0
-525,-664,0,0,0,0,0,0,0,0,0,-1,699,1688,0,0
-518,-664,0,0,0,0,0,0,0,0,0,-1,706,1688,0,0
-511,-664,0,0,0,0,0,0,0,0,0,-1,713,1688,0,0
-504,-664,0,0,0,0,0,0,0,0,0,-1,720,1688,0,0
-497,-664,0,0,0,0,0,0,0,0,0,-1,727,1688,0,0
-490,-664,0,0,0,0,0,0,0,0,0,-1,734,1688,0,0
-483,-664,0,0,0,0,0,0,0,0,0,-1,741,1688,0,0
-476,-664,0,0,0,0,0,0,0,0,0,-1,748,1688,0,0
-469,-664,0,0,0,0,0,0,0,0,0,-1,755,1688,0,0
-462,-664,0,0,0,0,0,0,0,0,0,-1,762,1688,0,0
-455,-664,0,0,0,0,0,0,0,0,0,-1,769,1688,0,0
-448,-664,0,0,0,0,0,0,0,0,0,-1,776,1688,0,0
-441,-664,0,0,0,0,0,0,0,0,0,-1,783,1688,0,0
-434,-664,0,0,0,0,0,0,0,0,0,-1,790,1688,0,0
-427,-664,0,0,0,0,0,0,0,0,0,-1,797,1688,0,0
-420,-664,0,0,0,0,0,0,0,0,0,-1,804,1688,0,0
-413,-664,0,0,0,0,0,0,0,0,0,-1,811,1688,0,0
-406,-664,0,0,0,0,0,0,0,0,0,-1,818,1688,0,0
-399,-664,0,0,0,0,0,0,0,0,0,-1,825,1688,0,0
-392,-664,0,0,0,0,0,0,0,0,0,-1,832,1688,0,0
-385,-664,0,0,0,0,0,0,0,0,0,-1,839,1688,0,0
-378,-664,0,0,0,0,0,0,0,0,0,-1,846,1688,0,0
-371,-664,-1.61676,5.92737,0,0,0,0,0,0,0,-1,853,1688,-1.61675,-5.92735
-364,-664,-3.901,5.87024,0,0,0,0,0,0,0,-1,860,1688,-3.90097,-5.87027
-357,-664,-4.81012,4.53479,0,0,0,0,0,0,0,-1,867,1688,-4.81012,-4.5348
-350,-664,-5.7193,3.19934,0,0,0,0,0,0,0,-1,874,1688,-5.71927,-3.19932
-343,-664,2.96515,14.8083,0,0,0,0,0,0,0,-1,881,1688,2.96517,-14.8083
-336,-664,2.79852,15.5814,0,0,0,0,0,0,0,-1,888,1688,2.79853,-15.5814
-329,-664,3.0072,16.3878,0,0,0,0,0,0,0,-1,895,1688,3.00721,-16.3878
-322,-664,6.20441,21.296,0,0,0,0,0,0,0,-1,902,1688,6.20444,-21.296
-315,-664,6.32715,21.2341,0,0,0,0,0,0,0,-1,909,1688,6.32712,-21.2341
-308,-664,5.23083,21.1814,0,0,0,0,0,0,0,-1,916,1688,5.23082,-21.1814
-301,-664,4.99847,21.8307,0,0,0,0,0,0,0,-1,923,1688,4.99846,-21.8307
-294,-664,5.12207,22.1528,-0.0024657,0.0101908,-0.000268989,0.0101965,-0.00247142,-1.54956,0.0077539,0.0450996,930,1688,5.12205,-22.1528
-287,-664,5.17169,22.6094,-0.00199804,0.00920183,0.00101741,0.0092935,-0.00208971,1.48094,0.00699704,0.0334622,937,1688,5.17171,-22.6094
-280,-664,5.11591,22.8525,-0.00153606,0.00767877,0.00170613,0.00798452,-0.0018418,1.39347,0.00603142,0.0227215,944,1688,5.1159,-22.8525
-273,-664,5.19098,23.0968,-0.00113317,0.00622874,0.00190171,0.00669096,-0.0015954,1.33236,0.0050767,0.0160911,951,1688,5.19096,-23.0968
-266,-664,5.15344,23.42,-0.000945101,0.0050399,0.00227437,0.00580609,-0.0017113,1.24585,0.00454974,0.0209995,958,1688,5.15343,-23.4201
-259,-664,5.12335,23.7419,-0.000547415,0.00356259,0.00225119,0.00455568,-0.00154051,1.15533,0.00366033,0.0186186,965,1688,5.12337,-23.742
-252,-664,5.13983,24.0554,-0.000254268,0.00230901,0.00181573,0.00324986,-0.00119512,1.09272,0.00265614,0.015184,972,1688,5.13983,-24.0554
-245,-664,5.1109,24.3889,-0.000127632,0.00148289,0.00150272,0.00238251,-0.00102725,1.03136,0.0020198,0.0191185,979,1688,5.1109,-24.389
-238,-664,5.11536,24.673,6.3361e-05,0.000886087,0.00130992,0.00184772,-0.00089827,0.93754,0.00161668,0.0222558,986,1688,5.11535,-24.673
-231,-664,5.10339,24.9382,0.000379784,0.00022168,0.00123625,0.00153951,-0.000938047,0.753469,0.0014444,0.0202969,993,1688,5.10338,-24.9383
-224,-664,5.11115,25.2731,0.000682537,8.74813e-05,0.00121914,0.00163993,-0.000869915,0.665714,0.00147162,0.014548,1000,1688,5.11113,-25.2731
-217,-664,5.11578,25.5435,0.000936481,0.000191559,0.00118234,0.00180364,-0.000675596,0.632808,0.00147995,0.00984472,1007,1688,5.1158,-25.5434
-210,-664,5.11713,25.812,0.00127104,0.000122409,0.00105429,0.00189729,-0.000503843,0.535999,0.00146204,0.0109659,1014,1688,5.11711,-25.812
-203,-664,5.12073,26.085,0.00168768,-7.89222e-05,0.000977479,0.00212183,-0.000513075,0.417983,0.00161301,0.0134127,1021,1688,5.1207,-26.0849
-196,-664,5.11536,26.3342,0.0019414,-0.000350144,0.00084257,0.00221785,-0.000626595,0.317037,0.00172578,0.0137739,1028,1688,5.11532,-26.3342
-189,-664,5.11194,26.5918,0.00210371,-0.000644617,0.000593797,0.00222652,-0.000767423,0.203941,0.00179567,0.0096609,1035,1688,5.11199,-26.5918
-182,-664,5.11108,26.8383,0.00215722,-0.000864441,0.000200109,0.00217042,-0.000877636,0.0658416,0.00181179,0.0090972,1042,1688,5.11108,-26.8383
-175,-664,5.12561,27.0571,0.00225941,-0.000983438,-0.000117801,0.00226368,-0.000987711,-0.0362628,0.00192477,0.0119494,1049,1688,5.12557,-27.0571
-168,-664,5.1377,27.293,0.00233041,-0.000959204,-0.000396452,0.00237751,-0.00100631,-0.118261,0.0020064,0.0133566,1056,1688,5.13769,-27.293
-161,-664,5.13074,27.545,0.00239068,-0.000753896,-0.000634603,0.00251392,-0.000877135,-0.191811,0.00203242,0.00990697,1063,1688,5.13079,-27.545
-154,-664,5.1637,27.7758,0.00241181,-0.000161199,-0.000843785,0.00266383,-0.000413222,-0.290247,0.00192844,0.00967631,1070,1688,5.16374,-27.7758
-147,-664,5.16589,28.0107,0.00245798,0.000826628,-0.00100824,0.00293917,0.000345435,-0.445293,0.00185505,0.0123071,1077,1688,5.16585,-28.0107
-140,-664,5.19592,28.2688,0.00258006,0.00226312,-0.00102193,0.00345573,0.00138744,-0.708476,0.00200804,0.0142061,1084,1688,5.19589,-28.2688
-133,-664,5.15381,28.5454,0.00274886,0.00396342,-0.000959173,0.00449139,0.00222089,-1.06761,0.00259316,0.0167887,1091,1688,5.15382,-28.5454
-126,-664,5.26404,28.96,0.00300324,0.00590787,-0.00100711,0.00622289,0.00268821,-1.26764,0.00360385,0.0294571,1098,1688,5.264,-28.9599
-119,-664,5.29041,29.1852,0.00343452,0.00785325,-0.00100711,0.00807197,0.00321581,-1.35695,0.00469232,0.0428355,1105,1688,5.29035,-29.1851
-112,-664,5.77197,29.0719,0,0,0,0,0,0,0,-1,1112,1688,5.77199,-29.072
-105,-664,4.48108,21.4276,0,0,0,0,0,0,0,-1,1119,1688,4.48104,-21.4276
-98,-664,4.98584,19.8645,0,0,0,0,0,0,0,-1,1126,1688,4.98586,-19.8645
-91,-664,5.41931,25.6302,0,0,0,0,0,0,0,-1,1133,1688,5.41932,-25.6302
-84,-664,3.48389,16.6913,0,0,0,0,0,0,0,-1,1140,1688,3.4839,-16.6913
-77,-664,4.52014,11.2122,0,0,0,0,0,0,0,-1,1147,1688,4.5202,-11.2122
-70,-664,4.20374,8.24524,0,0,0,0,0,0,0,-1,1154,1688,4.20379,-8.24519
-63,-664,-4.677,2.40503,0,0,0,0,0,0,0,-1,1161,1688,-4.67702,-2.40498
-56,-664,-4.66504,3.32727,0,0,0,0,0,0,0,-1,1168,1688,-4.6651,-3.32724
-49,-664,-2.54297,3.31848,0,0,0,0,0,0,0,-1,1175,1688,-2.54297,-3.31852
-42,-664,-0.359253,4.38684,0,0,0,0,0,0,0,-1,1182,1688,-0.359261,-4.38685
-35,-664,-0.705566,3.55017,0,0,0,0,0,0,0,-1,1189,1688,-0.705567,-3.55023
-28,-664,-1.54236,10.2538,0,0,0,0,0,0,0,-1,1196,1688,-1.54236,-10.2538
-21,-664,4.46313,31.5101,0,0,0,0,0,0,0,-1,1203,1688,4.46312,-31.5101
-14,-664,4.67371,31.4789,0,0,0,0,0,0,0,-1,1210,1688,4.67369,-31.4789
-7,-664,4.76257,31.4784,0,0,0,0,0,0,0,-1,1217,1688,4.7626,-31.4784
0,-664,5.23962,31.8243,0,0,0,0,0,0,0,-1,1224,1688,5.23963,-31.8243
7,-664,5.27271,31.5552,0.0417312,0.0423506,0.0250365,0.0670793,0.0170025,0.791583,0.0402669,0.0427883,1231,1688,5.27272,-31.5552
14,-664,5.39368,32.0809,0.0455657,0.0515827,0.0258346,0.0745834,0.022565,0.843363,0.0441658,0.0432985,1238,1688,5.3937,-32.0809
21,-664,5.51257,32.5602,0.0474963,0.0611711,0.0260167,0.0812338,0.0274335,0.913896,0.0477168,0.0439591,1245,1688,5.51263,-32.5602
28,-664,5.75012,32.9679,0.0471186,0.0726734,0.0263656,0.0891945,0.0305975,1.01103,0.0523354,0.0456112,1252,1688,5.75014,-32.9679
35,-664,7.09009,33.5067,0.0448305,0.0824447,0.026417,0.0960654,0.0312097,1.09474,0.056586,0.0432789,1259,1688,7.09007,-33.5067
42,-664,7.58789,33.9055,0,0,0,0,0,0,0,-1,1266,1688,7.58791,-33.9055
49,-664,6.83643,30.978,0,0,0,0,0,0,0,-1,1273,1688,6.83646,-30.978
56,-664,8.43237,31.2969,0,0,0,0,0,0,0,-1,1280,1688,8.43241,-31.2969
63,-664,8.05176,32.5177,0.0307877,0.109337,0.0253573,0.116812,0.0233131,1.28414,0.0713839,0.0466729,1287,1688,8.05172,-32.5177
70,-664,8.1283,32.3971,0.0258568,0.111143,0.0240972,0.11748,0.0195192,1.31362,0.0726927,0.0431472,1294,1688,8.12828,-32.3971
77,-664,8.26758,32.3239,0.0216651,0.110899,0.0235762,0.116745,0.015819,1.32774,0.0731294,0.0439581,1301,1688,8.26753,-32.3238
84,-664,7.65698,35.0734,0.0159133,0.106161,0.0232202,0.111785,0.0102894,1.33317,0.0713413,0.0423544,1308,1688,7.65703,-35.0733
91,-664,7.05615,32.298,0,0,0,0,0,0,0,-1,1315,1688,7.05614,-32.298
98,-664,8.776,32.2528,0,0,0,0,0,0,0,-1,1322,1688,8.77599,-32.2528
105,-664,8.45374,32.2036,0.0103148,0.0826448,0.0217351,0.0886737,0.00428591,1.30022,0.0577402,0.0495229,1329,1688,8.45379,-32.2036
112,-664,7.97791,32.3542,0.00952753,0.0728261,0.0206848,0.078986,0.00336757,1.28136,0.0515715,0.0467652,1336,1688,7.97788,-32.3543
119,-664,7.23474,31.2155,0.00836604,0.0628842,0.0194745,0.0691261,0.00212419,1.26063,0.0453925,0.0480285,1343,1688,7.2348,-31.2154
126,-664,6.42944,30.7258,0,0,0,0,0,0,0,-1,1350,1688,6.42947,-30.7259
133,-664,6.39954,29.3976,0,0,0,0,0,0,0,-1,1357,1688,6.39955,-29.3975
140,-664,7.51965,30.1824,0,0,0,0,0,0,0,-1,1364,1688,7.51964,-30.1824
147,-664,7.81348,30.6941,0,0,0,0,0,0,0,-1,1371,1688,7.8135,-30.694
154,-664,4.76721,26.2594,0,0,0,0,0,0,0,-1,1378,1688,4.76723,-26.2594
161,-664,4.60132,1.56238,0,0,0,0,0,0,0,-1,1385,1688,4.60134,-1.56233
168,-664,5.172,1.25488,0,0,0,0,0,0,0,-1,1392,1688,5.17203,-1.25484
175,-664,5.58313,1.16467,0,0,0,0,0,0,0,-1,1399,1688,5.58317,-1.16466
182,-664,5.74268,1.41113,0,0,0,0,0,0,0,-1,1406,1688,5.74263,-1.41115
189,-664,5.87744,1.87061,0,0,0,0,0,0,0,-1,1413,1688,5.87745,-1.87065
196,-664,6.7594,5.97473,0,0,0,0,0,0,0,-1,1420,1688,6.75943,-5.97478
203,-664,5.38452,5.22034,0,0,0,0,0,0,0,-1,1427,1688,5.38453,-5.2203
210,-664,5.25549,6.45715,0,0,0,0,0,0,0,-1,1434,1688,5.25549,-6.45721
217,-664,5.72009,6.73975,0,0,0,0,0,0,0,-1,1441,1688,5.72014,-6.73972
224,-664,5.05725,7.42908,0,0,0,0,0,0,0,-1,1448,1688,5.05723,-7.42912
231,-664,5.13318,7.60864,0,0,0,0,0,0,0,-1,1455,1688,5.13313,-7.60862
238,-664,4.23193,6.45471,0,0,0,0,0,0,0,-1,1462,1688,4.23197,-6.45476
245,-664,4.42004,6.80896,0,0,0,0,0,0,0,-1,1469,1688,4.4201,-6.80901
252,-664,3.67346,6.85461,0,0,0,0,0,0,0,-1,1476,1688,3.6734,-6.85462
259,-664,4.55823,11.7435,0,0,0,0,0,0,0,-1,1483,1688,4.55826,-11.7435
266,-664,8.11548,28.2363,0,0,0,0,0,0,0,-1,1490,1688,8.11552,-28.2364
273,-664,8.38391,28.4165,0,0,0,0,0,0,0,-1,1497,1688,8.38392,-28.4165
280,-664,8.37183,28.2911,0.00942913,0.00469089,-0.00465552,0.0122837,0.00183635,-0.550033,0.00765081,0.029573,1504,1688,8.37187,-28.2911
287,-664,8.37134,28.0892,0.00844662,0.0042867,-0.00397564,0.0108535,0.0018798,-0.54439,0.0066976,0.022357,1511,1688,8.37131,-28.0893
294,-664,8.43738,27.8979,0.00726392,0.00398364,-0.00332923,0.00933509,0.00191247,-0.556524,0.00569399,0.0157601,1518,1688,8.43736,-27.8979
301,-664,8.45728,27.6976,0.00610996,0.00351965,-0.00268295,0.00779401,0.0018356,-0.560528,0.00470505,0.0106943,1525,1688,8.45733,-27.6976
308,-664,8.45923,27.4739,0.00501125,0.00316385,-0.00209245,0.00637481,0.00180029,-0.57754,0.00379489,0.010588,1532,1688,8.45925,-27.4739
315,-664,8.46667,27.2375,0.00399028,0.00288881,-0.0016018,0.00513338,0.00174571,-0.619818,0.00301387,0.0114113,1539,1688,8.46668,-27.2376
322,-664,8.49768,27.0139,0.00309025,0.00258969,-0.00118805,0.0040541,0.00162585,-0.681582,0.00235587,0.0143758,1546,1688,8.49765,-27.0139
329,-664,8.5155,26.7927,0.00237554,0.00217577,-0.000869238,0.00315061,0.0014007,-0.728193,0.00182273,0.0167438,1553,1688,8.51548,-26.7927
336,-664,8.51025,26.5394,0.00173897,0.00176126,-0.000578272,0.00232849,0.00117173,-0.795034,0.00134436,0.013748,1560,1688,8.51031,-26.5394
343,-664,8.49084,26.3151,0.000926848,0.00102007,-8.3918e-05,0.00106945,0.000877465,-1.0389,0.00065837,0.0107247,1567,1688,8.4908,-26.315
350,-664,8.47668,26.0569,0.000437146,0.000281731,0.000257139,0.000628063,9.08147e-05,0.638661,0.00039196,0.0128087,1574,1688,8.47669,-26.0569
357,-664,8.48535,25.7875,0.000185341,-0.000791953,0.00055189,0.000433822,-0.00104043,0.423052,0.000874851,0.0125576,1581,1688,8.48538,-25.7875
364,-664,8.50635,25.5159,1.71675e-05,-0.00234731,0.000940936,0.000345904,-0.00267605,0.336115,0.00190981,0.010094,1588,1688,8.50638,-25.5159
371,-664,8.49915,25.2666,-0.000195717,-0.00387238,0.00140199,0.000277884,-0.00434598,0.325772,0.00299425,0.0125994,1595,1688,8.49913,-25.2666
378,-664,8.4801,25.001,-0.000373078,-0.00562496,0.00190206,0.000243415,-0.00624146,0.313435,0.00424444,0.0126859,1602,1688,8.48009,-25.0009
385,-664,8.47278,24.7064,-0.000446629,-0.00750488,0.00248107,0.000338226,-0.00828973,0.306377,0.00564261,0.0134989,1609,1688,8.47282,-24.7064
392,-664,8.40906,24.4454,-0.000473392,-0.00977376,0.00312679,0.000480084,-0.0107272,0.295981,0.00731677,0.0153704,1616,1688,8.40907,-24.4454
399,-664,8.4104,24.1284,-0.000498826,-0.0120706,0.00371636,0.0005919,-0.0131614,0.285476,0.00897805,0.0130411,1623,1688,8.41045,-24.1284
406,-664,8.43604,23.8342,-0.000556577,-0.0145568,0.0043916,0.000706945,-0.0158204,0.280147,0.0107903,0.0145697,1630,1688,8.43603,-23.8343
413,-664,8.48218,23.5067,-0.000509338,-0.0167042,0.00497434,0.000896519,-0.01811,0.275438,0.012383,0.0184183,1637,1688,8.48222,-23.5067
420,-664,8.52612,23.2053,-0.000586933,-0.0187445,0.00553527,0.000967423,-0.0202988,0.273759,0.0138663,0.0403465,1644,1688,8.52608,-23.2053
427,-664,8.50745,22.6951,0,0,0,0,0,0,0,-1,1651,1688,8.50743,-22.695
434,-664,8.31763,22.7976,0,0,0,0,0,0,0,-1,1658,1688,8.31769,-22.7976
441,-664,8.22522,22.7561,0,0,0,0,0,0,0,-1,1665,1688,8.22519,-22.7561
448,-664,7.27502,19.7417,0,0,0,0,0,0,0,-1,1672,1688,7.27505,-19.7417
455,-664,7.53198,11.3838,0,0,0,0,0,0,0,-1,1679,1688,7.53195,-11.3838
462,-664,4.3147,4.25439,0,0,0,0,0,0,0,-1,1686,1688,4.31467,-4.25435
469,-664,6.05469,7.49341,0,0,0,0,0,0,0,-1,1693,1688,6.05474,-7.49339
476,-664,10.2377,22.7128,0,0,0,0,0,0,0,-1,1700,1688,10.2377,-22.7128
483,-664,8.41895,10.9768,0,0,0,0,0,0,0,-1,1707,1688,8.41897,-10.9769
490,-664,3.90771,13.2842,0,0,0,0,0,0,0,-1,1714,1688,3.90776,-13.2841
497,-664,0,0,0,0,0,0,0,0,0,-1,1721,1688,0,0
504,-664,0,0,0,0,0,0,0,0,0,-1,1728,1688,0,0
511,-664,0,0,0,0,0,0,0,0,0,-1,1735,1688,0,0
518,-664,0,0,0,0,0,0,0,0,0,-1,1742,1688,0,0
525,-664,0,0,0,0,0,0,0,0,0,-1,1749,1688,0,0
532,-664,0,0,0,0,0,0,0,0,0,-1,1756,1688,0,0
539,-664,0,0,0,0,0,0,0,0,0,-1,1763,1688,0,0
546,-664,0,0,0,0,0,0,0,0,0,-1,1770,1688,0,0
553,-664,0,0,0,0,0,0,0,0,0,-1,1777,1688,0,0
560,-664,0,0,0,0,0,0,0,0,0,-1,1784,1688,0,0
567,-664,0,0,0,0,0,0,0,0,0,-1,1791,1688,0,0
574,-664,0,0,0,0,0,0,0,0,0,-1,1798,1688,0,0
581,-664,0,0,0,0,0,0,0,0,0,-1,1805,1688,0,0
588,-664,0,0,0,0,0,0,0,0,0,-1,1812,1688,0,0
595,-664,0,0,0,0,0,0,0,0,0,-1,1819,1688,0,0
602,-664,0,0,0,0,0,0,0,0,0,-1,1826,1688,0,0
609,-664,0,0,0,0,0,0,0,0,0,-1,1833,1688,0,0
616,-664,0,0,0,0,0,0,0,0,0,-1,1840,1688,0,0
623,-664,0,0,0,0,0,0,0,0,0,-1,1847,1688,0,0
630,-664,0,0,0,0,0,0,0,0,0,-1,1854,1688,0,0
637,-664,0,0,0,0,0,0,0,0,0,-1,1861,1688,0,0
644,-664,0,0,0,0,0,0,0,0,0,-1,1868,1688,0,0
651,-664,0,0,0,0,0,0,0,0,0,-1,1875,1688,0,0
658,-664,0,0,0,0,0,0,0,0,0,-1,1882,1688,0,0
665,-664,0,0,0,0,0,0,0,0,0,-1,1889,1688,0,0
672,-664,0,0,0,0,0,0,0,0,0,-1,1896,1688,0,0
679,-664,0,0,0,0,0,0,0,0,0,-1,1903,1688,0,0
686,-664,0,0,0,0,0,0,0,0,0,-1,1910,1688,0,0
693,-664,0,0,0,0,0,0,0,0,0,-1,1917,1688,0,0
700,-664,0,0,0,0,0,0,0,0,0,-1,1924,1688,0,0
707,-664,0,0,0,0,0,0,0,0,0,-1,1931,1688,0,0
714,-664,0,0,0,0,0,0,0,0,0,-1,1938,1688,0,0
721,-664,0,0,0,0,0,0,0,0,0,-1,1945,1688,0,0
728,-664,0,0,0,0,0,0,0,0,0,-1,1952,1688,0,0
735,-664,0,0,0,0,0,0,0,0,0,-1,1959,1688,0,0
742,-664,0,0,0,0,0,0,0,0,0,-1,1966,1688,0,0
749,-664,0,0,0,0,0,0,0,0,0,-1,1973,1688,0,0
756,-664,0,0,0,0,0,0,0,0,0,-1,1980,1688,0,0
763,-664,0,0,0,0,0,0,0,0,0,-1,1987,1688,0,0
770,-664,0,0,0,0,0,0,0,0,0,-1,1994,1688,0,0
777,-664,0,0,0,0,0,0,0,0,0,-1,2001,1688,0,0
784,-664,0,0,0,0,0,0,0,0,0,-1,2008,1688,0,0
791,-664,0,0,0,0,0,0,0,0,0,-1,2015,1688,0,0
798,-664,0,0,0,0,0,0,0,0,0,-1,2022,1688,0,0
805,-664,0,0,0,0,0,0,0,0,0,-1,2029,1688,0,0
812,-664,0,0,0,0,0,0,0,0,0,-1,2036,1688,0,0
-700,-671,0,0,0,0,0,0,0,0,0,-1,524,1695,0,0
-693,-671,0,0,0,0,0,0,0,0,0,-1,531,1695,0,0
-686,-671,0,0,0,0,0,0,0,0,0,-1,538,1695,0,0
-679,-671,0,0,0,0,0,0,0,0,0,-1,545,1695,0,0
-672,-671,0,0,0,0,0,0,0,0,0,-1,552,1695,0,0
-665,-671,0,0,0,0,0,0,0,0,0,-1,559,1695,0,0
-658,-671,0,0,0,0,0,0,0,0,0,-1,566,1695,0,0
-651,-671,0,0,0,0,0,0,0,0,0,-1,573,1695,0,0
-644,-671,0,0,0,0,0,0,0,0,0,-1,580,1695,0,0
-637,-671,0,0,0,0,0,0,0,0,0,-1,587,1695,0,0
-630,-671,0,0,0,0,0,0,0,0,0,-1,594,1695,0,0
-623,-671,0,0,0,0,0,0,0,0,0,-1,601,1695,0,0
-616,-671,0,0,0,0,0,0,0,0,0,-1,608,1695,0,0
-609,-671,0,0,0,0,0,0,0,0,0,-1,615,1695,0,0
-602,-671,0,0,0,0,0,0,0,0,0,-1,622,1695,0,0
-595,-671,0,0,0,0,0,0,0,0,0,-1,629,1695,0,0
-588,-671,0,0,0,0,0,0,0,0,0,-1,636,1695,0,0
-581,-671,0,0,0,0,0,0,0,0,0,-1,643,1695,0,0
-574,-671,0,0,0,0,0,0,0,0,0,-1,650,1695,0,0
-567,-671,0,0,0,0,0,0,0,0,0,-1,657,1695,0,0
-560,-671,0,0,0,0,0,0,0,0,0,-1,664,1695,0,0
-553,-671,0,0,0,0,0,0,0,0,0,-1,671,1695,0,0
-546,-671,0,0,0,0,0,0,0,0,0,-1,678,1695,0,0
-539,-671,0,0,0,0,0,0,0,0,0,-1,685,1695,0,0
-532,-671,0,0,0,0,0,0,0,0,0,-1,692,1695,0,0
-525,-671,0,0,0,0,0,0,0,0,0,-1,699,1695,0,0
-518,-671,0,0,0,0,0,0,0,0,0,-1,706,1695,0,0
-511,-671,0,0,0,0,0,0,0,0,0,-1,713,1695,0,0
-504,-671,0,0,0,0,0,0,0,0,0,-1,720,1695,0,0
-497,-671,0,0,0,0,0,0,0,0,0,-1,727,1695,0,0
-490,-671,0,0,0,0,0,0,0,0,0,-1,734,1695,0,0
-483,-671,0,0,0,0,0,0,0,0,0,-1,741,1695,0,0
-476,-671,0,0,0,0,0,0,0,0,0,-1,748,1695,0,0
-469,-671,0,0,0,0,0,0,0,0,0,-1,755,1695,0,0
-462,-671,0,0,0,0,0,0,0,0,0,-1,762,1695,0,0
-455,-671,0,0,0,0,0,0,0,0,0,-1,769,1695,0,0
-448,-671,0,0,0,0,0,0,0,0,0,-1,776,1695,0,0
-441,-671,0,0,0,0,0,0,0,0,0,-1,783,1695,0,0
-434,-671,0,0,0,0,0,0,0,0,0,-1,790,1695,0,0
-427,-671,0,0,0,0,0,0,0,0,0,-1,797,1695,0,0
-420,-671,0,0,0,0,0,0,0,0,0,-1,804,1695,0,0
-413,-671,0,0,0,0,0,0,0,0,0,-1,811,1695,0,0
-406,-671,0,0,0,0,0,0,0,0,0,-1,818,1695,0,0
-399,-671,0,0,0,0,0,0,0,0,0,-1,825,1695,0,0
-392,-671,0,0,0,0,0,0,0,0,0,-1,832,1695,0,0
-385,-671,0,0,0,0,0,0,0,0,0,-1,839,1695,0,0
-378,-671,0,0,0,0,0,0,0,0,0,-1,846,1695,0,0
-371,-671,0,0,0,0,0,0,0,0,0,-1,853,1695,0,0
-364,-671,-4.18738,7.51416,0,0,0,0,0,0,0,-1,860,1695,-4.18739,-7.51419
-357,-671,-5.02393,6.07129,0,0,0,0,0,0,0,-1,867,1695,-5.0239,-6.07135
-350,-671,-5.72333,4.58386,0,0,0,0,0,0,0,-1,874,1695,-5.72333,-4.58386
-343,-671,-6.4884,3.11353,0,0,0,0,0,0,0,-1,881,1695,-6.48839,-3.11349
-336,-671,2.55884,15.6338,0,0,0,0,0,0,0,-1,888,1695,2.55886,-15.6338
-329,-671,2.71729,16.1058,0,0,0,0,0,0,0,-1,895,1695,2.71729,-16.1058
-322,-671,5.17535,20.5297,0,0,0,0,0,0,0,-1,902,1695,5.17538,-20.5297
-315,-671,6.86176,21.0839,0,0,0,0,0,0,0,-1,909,1695,6.86173,-21.0839
-308,-671,5.94727,21.9783,0,0,0,0,0,0,0,-1,916,1695,5.94724,-21.9782
-301,-671,5.42084,21.1414,0,0,0,0,0,0,0,-1,923,1695,5.42084,-21.1413
-294,-671,5.46594,22.4576,0,0,0,0,0,0,0,-1,930,1695,5.46596,-22.4577
-287,-671,5.57587,22.7152,-0.00215849,0.013797,0.00230155,0.0141224,-0.00248385,1.43036,0.0103428,0.0457449,937,1695,5.57584,-22.7152
-280,-671,5.62317,22.9028,-0.00155758,0.0111517,0.00297344,0.011813,-0.00221883,1.35197,0.00870966,0.0396747,944,1695,5.62319,-22.9028
-273,-671,5.62579,23.1104,-0.00117074,0.00872811,0.00296902,0.00955033,-0.00199296,1.30063,0.00712474,0.0349261,951,1695,5.6258,-23.1104
-266,-671,5.59381,23.4857,-0.00115116,0.00677129,0.0031501,0.00787114,-0.00225101,1.23488,0.00613695,0.0264141,958,1695,5.59383,-23.4857
-259,-671,5.44629,23.7543,-0.000873334,0.00462495,0.00293037,0.00589387,-0.00214226,1.16215,0.00480524,0.0233205,965,1695,5.44632,-23.7543
-252,-671,5.41919,24.057,-0.000713413,0.0028895,0.00232576,0.00402988,-0.0018538,1.11492,0.00347352,0.0171602,972,1695,5.41922,-24.057
-245,-671,5.40778,24.3693,-0.000709535,0.0017478,0.0019236,0.00280164,-0.00176338,1.06961,0.00265824,0.0192713,979,1695,5.40776,-24.3693
-238,-671,5.42297,24.6653,-0.000611051,0.000931071,0.00167354,0.00200263,-0.00168261,1.00127,0.00213035,0.0187916,986,1695,5.42297,-24.6653
-231,-671,5.4054,24.9658,-0.00038888,-7.16462e-05,0.0015429,0.00132077,-0.0017813,0.83662,0.00179755,0.0144039,993,1695,5.40537,-24.9658
-224,-671,5.36993,25.2416,-0.000140382,-0.000337158,0.00149926,0.00126371,-0.00174125,0.752633,0.0017422,0.0114048,1000,1695,5.36996,-25.2416
-217,-671,5.37207,25.5032,0.000106612,-0.000244879,0.00147683,0.00141811,-0.00155638,0.726176,0.00171794,0.0115756,1007,1695,5.37205,-25.5032
-210,-671,5.3866,25.8145,0.00045966,-0.000182077,0.00144707,0.00162101,-0.00134342,0.676295,0.00171401,0.0114848,1014,1695,5.38658,-25.8144
-203,-671,5.37256,26.0685,0.000872454,-0.000209205,0.00145735,0.00188609,-0.00122285,0.607723,0.00180851,0.0189529,1021,1695,5.3726,-26.0685
-196,-671,5.36768,26.3098,0.00116977,-0.000361033,0.00139179,0.00199274,-0.001184,0.534,0.0018538,0.0161633,1028,1695,5.36766,-26.3099
-189,-671,5.36365,26.6121,0.0014069,-0.000513337,0.00119684,0.00198114,-0.00108758,0.447355,0.00179659,0.0121105,1035,1695,5.3637,-26.6121
-182,-671,5.35608,26.8618,0.00154273,-0.00059552,0.000845542,0.00183667,-0.000889469,0.334576,0.0016053,0.00947399,1042,1695,5.3561,-26.8618
-175,-671,5.36694,27.0764,0.00167676,-0.00054702,0.00053668,0.00179951,-0.000669766,0.224846,0.00147453,0.0119319,1049,1695,5.36698,-27.0765
-168,-671,5.38464,27.2944,0.00176748,-0.000383253,0.000263988,0.00179941,-0.000415182,0.120363,0.0013593,0.0131515,1056,1695,5.38463,-27.2945
-161,-671,5.38904,27.5431,0.00187036,-5.82654e-05,1.02728e-05,0.00187042,-5.83201e-05,0.00532629,0.00126683,0.00941313,1063,1695,5.389,-27.5431
-154,-671,5.38403,27.7747,0.00191376,0.00062845,-0.00025128,0.00196114,0.000581071,-0.186363,0.00116316,0.00873384,1070,1695,5.38404,-27.7747
-147,-671,5.39587,28.0195,0.00197497,0.00158614,-0.000473178,0.00229212,0.001269,-0.590476,0.00132589,0.0100684,1077,1695,5.39582,-28.0195
-140,-671,5.42297,28.2427,0.00209069,0.00285605,-0.000566171,0.00315674,0.00179,-1.08259,0.001828,0.0120477,1084,1695,5.42297,-28.2426
-133,-671,5.43445,28.4376,0.00224477,0.00428549,-0.000579265,0.00443845,0.00209181,-1.31263,0.00256395,0.0157174,1091,1695,5.43447,-28.4377
-126,-671,5.47107,28.6903,0.00246329,0.00579221,-0.000627006,0.00590639,0.00234911,-1.39067,0.00343376,0.0214471,1098,1695,5.47104,-28.6903
-119,-671,5.53125,29.0421,0.0028556,0.00724944,-0.000645819,0.0073424,0.00276264,-1.42784,0.00428219,0.0372258,1105,1695,5.53128,-29.0421
-112,-671,5.62708,29.2699,0.00338094,0.0087459,-0.000652704,0.00882417,0.00330267,-1.45145,0.00514804,0.0475382,1112,1695,5.62709,-29.2699
-105,-671,5.58557,29.5243,0,0,0,0,0,0,0,-1,1119,1695,5.58563,-29.5243
-98,-671,5.43958,29.5302,0,0,0,0,0,0,0,-1,1126,1695,5.43957,-29.5301
-91,-671,5.55408,29.7328,0,0,0,0,0,0,0,-1,1133,1695,5.55408,-29.7328
-84,-671,5.4209,26.2415,0,0,0,0,0,0,0,-1,1140,1695,5.42096,-26.2414
-77,-671,4.31763,16.489,0,0,0,0,0,0,0,-1,1147,1695,4.31757,-16.489
-70,-671,3.06067,10.7737,0,0,0,0,0,0,0,-1,1154,1695,3.0607,-10.7737
-63,-671,2.94592,6.90198,0,0,0,0,0,0,0,-1,1161,1695,2.94594,-6.90198
-56,-671,-3.07678,2.87976,0,0,0,0,0,0,0,-1,1168,1695,-3.07675,-2.87979
-49,-671,-1.05957,4.76917,0,0,0,0,0,0,0,-1,1175,1695,-1.05958,-4.76921
-42,-671,0.539307,3.7865,0,0,0,0,0,0,0,-1,1182,1695,0.539266,-3.78648
-35,-671,-0.272461,0.347534,0,0,0,0,0,0,0,-1,1189,1695,-0.272434,-0.347569
-28,-671,-10.4878,17.2009,0,0,0,0,0,0,0,-1,1196,1695,-10.4878,-17.2009
-21,-671,5.93298,29.9669,0,0,0,0,0,0,0,-1,1203,1695,5.93294,-29.9669
-14,-671,5.7793,31.2139,0,0,0,0,0,0,0,-1,1210,1695,5.77924,-31.2139
-7,-671,5.7323,31.439,0.0296693,0.0257356,0.0157501,0.0435749,0.01183,0.723281,0.0260191,0.0465352,1217,1695,5.73234,-31.439
0,-671,5.71912,31.6459,0.032505,0.0307675,0.016911,0.0485696,0.014703,0.759735,0.02876,0.0454022,1224,1695,5.7191,-31.6459
7,-671,5.65747,31.8107,0.0358902,0.0369982,0.0181201,0.0545728,0.0183156,0.80068,0.0320702,0.0438799,1231,1695,5.65748,-31.8107
14,-671,5.62585,32.0128,0.0387138,0.0441523,0.0188813,0.0605092,0.0223569,0.856916,0.0353295,0.0419385,1238,1695,5.62588,-32.0128
21,-671,5.98987,32.194,0.0401467,0.0515605,0.019458,0.0661313,0.0255759,0.928045,0.038506,0.0433774,1245,1695,5.98984,-32.194
28,-671,6.54736,32.4409,0.0397352,0.0609327,0.0202319,0.0731739,0.027494,1.02668,0.0426797,0.0452532,1252,1695,6.54737,-32.4409
35,-671,7.06714,32.9216,0.0378862,0.0689785,0.0208226,0.0794182,0.0274465,1.10606,0.0465752,0.0462705,1259,1695,7.06714,-32.9216
42,-671,7.56934,33.3518,0,0,0,0,0,0,0,-1,1266,1695,7.5694,-33.3518
49,-671,7.93042,31.2853,0,0,0,0,0,0,0,-1,1273,1695,7.93039,-31.2853
56,-671,8.06067,31.2883,0.0298935,0.0864746,0.0216718,0.0938214,0.0225466,1.24395,0.0565507,0.0487171,1280,1695,8.06063,-31.2884
63,-671,7.64612,32.1693,0.0262837,0.0906897,0.021692,0.0973143,0.0196591,1.2744,0.0594173,0.0476975,1287,1695,7.64609,-32.1694
70,-671,7.91101,31.978,0.0220894,0.0919221,0.0209009,0.0976998,0.0163117,1.3011,0.0604342,0.0433863,1294,1695,7.91101,-31.978
77,-671,6.23413,32.7246,0,0,0,0,0,0,0,-1,1301,1695,6.23414,-32.7246
84,-671,6.80701,32.4231,0.0135689,0.0876706,0.0204919,0.0929598,0.00827965,1.3182,0.0594059,0.0497135,1308,1695,6.80696,-32.4231
91,-671,7.1084,32.0026,0.00984374,0.0831305,0.0203564,0.0884051,0.00456911,1.31726,0.0574743,0.046132,1315,1695,7.10834,-32.0026
98,-671,6.92017,31.5426,0,0,0,0,0,0,0,-1,1322,1695,6.92016,-31.5426
105,-671,6.79004,29.8453,0.00778468,0.0689721,0.0190399,0.074413,0.00234378,1.29245,0.0488462,0.0431946,1329,1695,6.79005,-29.8453
112,-671,7.85608,31.9996,0.00698173,0.0614026,0.0181191,0.0668833,0.00150103,1.27706,0.0440971,0.0425601,1336,1695,7.85609,-31.9996
119,-671,7.23718,31.6853,0.00570017,0.0534804,0.0173688,0.0591269,5.3674e-05,1.25648,0.0394001,0.0453891,1343,1695,7.23724,-31.6853
126,-671,7.35071,32.0155,0,0,0,0,0,0,0,-1,1350,1695,7.35071,-32.0154
133,-671,6.85608,30.037,0,0,0,0,0,0,0,-1,1357,1695,6.85607,-30.037
140,-671,7.68237,32.265,0,0,0,0,0,0,0,-1,1364,1695,7.68239,-32.265
147,-671,7.65222,30.7036,0,0,0,0,0,0,0,-1,1371,1695,7.6522,-30.7036
154,-671,9.26685,30.965,0,0,0,0,0,0,0,-1,1378,1695,9.26684,-30.965
161,-671,4.49292,4.91272,0,0,0,0,0,0,0,-1,1385,1695,4.49297,-4.91273
168,-671,5.17639,6.1416,0,0,0,0,0,0,0,-1,1392,1695,5.1764,-6.14164
175,-671,5.6731,1.64685,0,0,0,0,0,0,0,-1,1399,1695,5.67313,-1.64691
182,-671,5.56812,1.71692,0,0,0,0,0,0,0,-1,1406,1695,5.56809,-1.71686
189,-671,6.98315,6.36169,0,0,0,0,0,0,0,-1,1413,1695,6.98312,-6.36175
196,-671,5.38123,5.69775,0,0,0,0,0,0,0,-1,1420,1695,5.38125,-5.69769
203,-671,5.95117,8.11658,0,0,0,0,0,0,0,-1,1427,1695,5.9512,-8.11662
210,-671,4.73596,8.39624,0,0,0,0,0,0,0,-1,1434,1695,4.736,-8.39618
217,-671,5.37097,11.863,0,0,0,0,0,0,0,-1,1441,1695,5.37094,-11.863
224,-671,5.08167,13.6694,0,0,0,0,0,0,0,-1,1448,1695,5.08165,-13.6695
231,-671,5.66663,15.3348,0,0,0,0,0,0,0,-1,1455,1695,5.66667,-15.3349
238,-671,6.32959,16.2036,0,0,0,0,0,0,0,-1,1462,1695,6.32961,-16.2037
245,-671,8.54431,28.5038,0,0,0,0,0,0,0,-1,1469,1695,8.54433,-28.5038
252,-671,8.16931,28.7811,0,0,0,0,0,0,0,-1,1476,1695,8.16932,-28.7811
259,-671,8.01196,28.5607,0,0,0,0,0,0,0,-1,1483,1695,8.01196,-28.5607
266,-671,8.11902,28.6497,0.00694636,0.00280578,-0.00302827,0.00854439,0.00120776,-0.485563,0.0053394,0.0373189,1490,1695,8.119,-28.6497
273,-671,8.19543,28.5216,0.00690683,0.00263612,-0.00306303,0.00850536,0.00103759,-0.480997,0.00535797,0.0122232,1497,1695,8.19541,-28.5216
280,-671,8.1991,28.3538,0.00661281,0.00259387,-0.00297124,0.0081903,0.00101639,-0.488074,0.00515491,0.00898576,1504,1695,8.19915,-28.3538
287,-671,8.19934,28.0912,0.00602129,0.0025693,-0.0026444,0.00745313,0.00113746,-0.496263,0.00463635,0.0106114,1511,1695,8.1993,-28.0911
294,-671,8.19934,27.8584,0.00526142,0.00261792,-0.0023366,0.00662421,0.00125514,-0.528,0.0040629,0.0109075,1518,1695,8.19938,-27.8584
301,-671,8.21741,27.6858,0.00450045,0.00251161,-0.00202464,0.0057617,0.00125036,-0.557124,0.00349961,0.00984055,1525,1695,8.21746,-27.6858
308,-671,8.22681,27.4954,0.00374219,0.00245132,-0.00172876,0.00494207,0.00125144,-0.606735,0.00296689,0.0114211,1532,1695,8.22683,-27.4954
315,-671,8.23511,27.2635,0.00301958,0.00234954,-0.0014602,0.0041827,0.00118642,-0.672634,0.0024891,0.012812,1539,1695,8.23507,-27.2635
322,-671,8.24731,27.0417,0.00236006,0.00219823,-0.00121248,0.00349432,0.00106397,-0.752079,0.00206822,0.0142837,1546,1695,8.2473,-27.0418
329,-671,8.23462,26.8398,0.00181844,0.00176223,-0.000977376,0.00276812,0.000812555,-0.771024,0.00164296,0.0139624,1553,1695,8.23464,-26.8399
336,-671,8.24792,26.5748,0.00127528,0.00130175,-0.000735531,0.00202417,0.000552865,-0.794396,0.00120809,0.0104855,1560,1695,8.24796,-26.5748
343,-671,8.25415,26.3011,0.000571339,0.000492957,-0.000243095,0.000778381,0.000285914,-0.705477,0.000454642,0.00976372,1567,1695,8.25418,-26.3011
350,-671,8.23816,26.0586,0.000129238,-0.000475896,0.0002514,0.000220052,-0.00056671,0.346647,0.000468704,0.0100594,1574,1695,8.2382,-26.0586
357,-671,8.24072,25.7755,-0.000136982,-0.00192499,0.000731652,0.000124244,-0.00218622,0.34293,0.00150061,0.00979366,1581,1695,8.24077,-25.7755
364,-671,8.2345,25.5077,-0.000320582,-0.00390185,0.00132036,0.000113579,-0.00433602,0.317684,0.00292927,0.011768,1588,1695,8.23453,-25.5077
371,-671,8.21936,25.2612,-0.000544107,-0.00589964,0.00202214,0.000133643,-0.00657739,0.323398,0.00443015,0.0136662,1595,1695,8.21933,-25.2613
378,-671,8.22388,24.979,-0.000739976,-0.00819651,0.00277577,0.000179859,-0.00911635,0.319992,0.0061384,0.0124804,1602,1695,8.22384,-24.979
385,-671,8.20422,24.6815,-0.000839424,-0.0106159,0.00364114,0.000367647,-0.011823,0.320108,0.00800733,0.0147102,1609,1695,8.20417,-24.6815
392,-671,8.13159,24.4607,-0.000832621,-0.0135524,0.00458094,0.00064542,-0.0150305,0.312105,0.0102422,0.0192272,1616,1695,8.13162,-24.4607
399,-671,8.09436,24.1349,-0.000779548,-0.0165724,0.0054402,0.000913048,-0.018265,0.301634,0.0124921,0.0189019,1623,1695,8.09436,-24.1349
406,-671,8.16785,23.8394,-0.000739268,-0.0198912,0.00640073,0.00120295,-0.0218334,0.294607,0.0149727,0.0325499,1630,1695,8.16788,-23.8394
413,-671,8.15271,23.7979,-0.000527679,-0.022839,0.00722664,0.0016085,-0.0249752,0.287413,0.0172114,0.0469987,1637,1695,8.15271,-23.7978
420,-671,8.28918,23.3496,0,0,0,0,0,0,0,-1,1644,1695,8.28916,-23.3496
427,-671,9.31738,21.7188,0,0,0,0,0,0,0,-1,1651,1695,9.31735,-21.7187
434,-671,7.9895,23.3105,0,0,0,0,0,0,0,-1,1658,1695,7.98956,-23.3106
441,-671,8.34961,20.6522,0,0,0,0,0,0,0,-1,1665,1695,8.34964,-20.6522
448,-671,7.44873,20.2306,0,0,0,0,0,0,0,-1,1672,1695,7.44872,-20.2306
455,-671,6.62805,19.8612,0,0,0,0,0,0,0,-1,1679,1695,6.62811,-19.8612
462,-671,5.86255,4.47961,0,0,0,0,0,0,0,-1,1686,1695,5.8625,-4.4796
469,-671,3.71301,3.76978,0,0,0,0,0,0,0,-1,1693,1695,3.71297,-3.76974
476,-671,3.75574,3.18848,0,0,0,0,0,0,0,-1,1700,1695,3.7558,-3.18847
483,-671,7.81824,12.1041,0,0,0,0,0,0,0,-1,1707,1695,7.81826,-12.1041
490,-671,0,0,0,0,0,0,0,0,0,-1,1714,1695,0,0
497,-671,0,0,0,0,0,0,0,0,0,-1,1721,1695,0,0
504,-671,0,0,0,0,0,0,0,0,0,-1,1728,1695,0,0
511,-671,0,0,0,0,0,0,0,0,0,-1,1735,1695,0,0
518,-671,0,0,0,0,0,0,0,0,0,-1,1742,1695,0,0
525,-671,0,0,0,0,0,0,0,0,0,-1,1749,1695,0,0
532,-671,0,0,0,0,0,0,0,0,0,-1,1756,1695,0,0
539,-671,0,0,0,0,0,0,0,0,0,-1,1763,1695,0,0
546,-671,0,0,0,0,0,0,0,0,0,-1,1770,1695,0,0
553,-671,0,0,0,0,0,0,0,0,0,-1,1777,1695,0,0
560,-671,0,0,0,0,0,0,0,0,0,-1,1784,1695,0,0
567,-671,0,0,0,0,0,0,0,0,0,-1,1791,1695,0,0
574,-671,0,0,0,0,0,0,0,0,0,-1,1798,1695,0,0
581,-671,0,0,0,0,0,0,0,0,0,-1,1805,1695,0,0
588,-671,0,0,0,0,0,0,0,0,0,-1,1812,1695,0,0
595,-671,0,0,0,0,0,0,0,0,0,-1,1819,1695,0,0
602,-671,0,0,0,0,0,0,0,0,0,-1,1826,1695,0,0
609,-671,0,0,0,0,0,0,0,0,0,-1,1833,1695,0,0
616,-671,0,0,0,0,0,0,0,0,0,-1,1840,1695,0,0
623,-671,0,0,0,0,0,0,0,0,0,-1,1847,1695,0,0
630,-671,0,0,0,0,0,0,0,0,0,-1,1854,1695,0,0
637,-671,0,0,0,0,0,0,0,0,0,-1,1861,1695,0,0
644,-671,0,0,0,0,0,0,0,0,0,-1,1868,1695,0,0
651,-671,0,0,0,0,0,0,0,0,0,-1,1875,1695,0,0
658,-671,0,0,0,0,0,0,0,0,0,-1,1882,1695,0,0
665,-671,0,0,0,0,0,0,0,0,0,-1,1889,1695,0,0
672,-671,0,0,0,0,0,0,0,0,0,-1,1896,1695,0,0
679,-671,0,0,0,0,0,0,0,0,0,-1,1903,1695,0,0
686,-671,0,0,0,0,0,0,0,0,0,-1,1910,1695,0,0
693,-671,0,0,0,0,0,0,0,0,0,-1,1917,1695,0,0
700,-671,0,0,0,0,0,0,0,0,0,-1,1924,1695,0,0
707,-671,0,0,0,0,0,0,0,0,0,-1,1931,1695,0,0
714,-671,0,0,0,0,0,0,0,0,0,-1,1938,1695,0,0
721,-671,0,0,0,0,0,0,0,0,0,-1,1945,1695,0,0
728,-671,0,0,0,0,0,0,0,0,0,-1,1952,1695,0,0
735,-671,0,0,0,0,0,0,0,0,0,-1,1959,1695,0,0
742,-671,0,0,0,0,0,0,0,0,0,-1,1966,1695,0,0
749,-671,0,0,0,0,0,0,0,0,0,-1,1973,1695,0,0
756,-671,0,0,0,0,0,0,0,0,0,-1,1980,1695,0,0
763,-671,0,0,0,0,0,0,0,0,0,-1,1987,1695,0,0
770,-671,0,0,0,0,0,0,0,0,0,-1,1994,1695,0,0
777,-671,0,0,0,0,0,0,0,0,0,-1,2001,1695,0,0
784,-671,0,0,0,0,0,0,0,0,0,-1,2008,1695,0,0
791,-671,0,0,0,0,0,0,0,0,0,-1,2015,1695,0,0
798,-671,0,0,0,0,0,0,0,0,0,-1,2022,1695,0,0
805,-671,0,0,0,0,0,0,0,0,0,-1,2029,1695,0,0
812,-671,0,0,0,0,0,0,0,0,0,-1,2036,1695,0,0
-700,-678,0,0,0,0,0,0,0,0,0,-1,524,1702,0,0
-693,-678,0,0,0,0,0,0,0,0,0,-1,531,1702,0,0
-686,-678,0,0,0,0,0,0,0,0,0,-1,538,1702,0,0
-679,-678,0,0,0,0,0,0,0,0,0,-1,545,1702,0,0
-672,-678,0,0,0,0,0,0,0,0,0,-1,552,1702,0,0
-665,-678,0,0,0,0,0,0,0,0,0,-1,559,1702,0,0
-658,-678,0,0,0,0,0,0,0,0,0,-1,566,1702,0,0
-651,-678,0,0,0,0,0,0,0,0,0,-1,573,1702,0,0
-644,-678,0,0,0,0,0,0,0,0,0,-1,580,1702,0,0
-637,-678,0,0,0,0,0,0,0,0,0,-1,587,1702,0,0
-630,-678,0,0,0,0,0,0,0,0,0,-1,594,1702,0,0
-623,-678,0,0,0,0,0,0,0,0,0,-1,601,1702,0,0
-616,-678,0,0,0,0,0,0,0,0,0,-1,608,1702,0,0
-609,-678,0,0,0,0,0,0,0,0,0,-1,615,1702,0,0
-602,-678,0,0,0,0,0,0,0,0,0,-1,622,1702,0,0
-595,-678,0,0,0,0,0,0,0,0,0,-1,629,1702,0,0
-588,-678,0,0,0,0,0,0,0,0,0,-1,636,1702,0,0
-581,-678,0,0,0,0,0,0,0,0,0,-1,643,1702,0,0
-574,-678,0,0,0,0,0,0,0,0,0,-1,650,1702,0,0
-567,-678,0,0,0,0,0,0,0,0,0,-1,657,1702,0,0
-560,-678,0,0,0,0,0,0,0,0,0,-1,664,1702,0,0
-553,-678,0,0,0,0,0,0,0,0,0,-1,671,1702,0,0
-546,-678,0,0,0,0,0,0,0,0,0,-1,678,1702,0,0
-539,-678,0,0,0,0,0,0,0,0,0,-1,685,1702,0,0
-532,-678,0,0,0,0,0,0,0,0,0,-1,692,1702,0,0
-525,-678,0,0,0,0,0,0,0,0,0,-1,699,1702,0,0
-518,-678,0,0,0,0,0,0,0,0,0,-1,706,1702,0,0
-511,-678,0,0,0,0,0,0,0,0,0,-1,713,1702,0,0
-504,-678,0,0,0,0,0,0,0,0,0,-1,720,1702,0,0
-497,-678,0,0,0,0,0,0,0,0,0,-1,727,1702,0,0
-490,-678,0,0,0,0,0,0,0,0,0,-1,734,1702,0,0
-483,-678,0,0,0,0,0,0,0,0,0,-1,741,1702,0,0
-476,-678,0,0,0,0,0,0,0,0,0,-1,748,1702,0,0
-469,-678,0,0,0,0,0,0,0,0,0,-1,755,1702,0,0
-462,-678,0,0,0,0,0,0,0,0,0,-1,762,1702,0,0
-455,-678,0,0,0,0,0,0,0,0,0,-1,769,1702,0,0
-448,-678,0,0,0,0,0,0,0,0,0,-1,776,1702,0,0
-441,-678,0,0,0,0,0,0,0,0,0,-1,783,1702,0,0
-434,-678,0,0,0,0,0,0,0,0,0,-1,790,1702,0,0
-427,-678,0,0,0,0,0,0,0,0,0,-1,797,1702,0,0
-420,-678,0,0,0,0,0,0,0,0,0,-1,804,1702,0,0
-413,-678,0,0,0,0,0,0,0,0,0,-1,811,1702,0,0
-406,-678,0,0,0,0,0,0,0,0,0,-1,818,1702,0,0
-399,-678,0,0,0,0,0,0,0,0,0,-1,825,1702,0,0
-392,-678,0,0,0,0,0,0,0,0,0,-1,832,1702,0,0
-385,-678,0,0,0,0,0,0,0,0,0,-1,839,1702,0,0
-378,-678,0,0,0,0,0,0,0,0,0,-1,846,1702,0,0
-371,-678,0,0,0,0,0,0,0,0,0,-1,853,1702,0,0
-364,-678,0,0,0,0,0,0,0,0,0,-1,860,1702,0,0
-357,-678,0,0,0,0,0,0,0,0,0,-1,867,1702,0,0
-350,-678,-5.79944,6.11865,0,0,0,0,0,0,0,-1,874,1702,-5.79942,-6.11864
-343,-678,-6.44891,4.52759,0,0,0,0,0,0,0,-1,881,1702,-6.4489,-4.52758
-336,-678,-6.91888,2.99438,0,0,0,0,0,0,0,-1,888,1702,-6.9189,-2.99435
-329,-678,-7.14575,1.29761,0,0,0,0,0,0,0,-1,895,1702,-7.14577,-1.29755
-322,-678,3.78455,20.3917,0,0,0,0,0,0,0,-1,902,1702,3.78457,-20.3917
-315,-678,5.94086,21.9404,0,0,0,0,0,0,0,-1,909,1702,5.94086,-21.9404
-308,-678,6.20105,22.7914,0,0,0,0,0,0,0,-1,916,1702,6.20108,-22.7914
-301,-678,5.29895,22.3046,0,0,0,0,0,0,0,-1,923,1702,5.29895,-22.3045
-294,-678,5.78693,21.5417,0,0,0,0,0,0,0,-1,930,1702,5.7869,-21.5418
-287,-678,5.75195,21.8961,-0.00216127,0.02018,0.00427782,0.0209711,-0.00295236,1.38793,0.0150616,0.0481762,937,1702,5.75197,-21.8961
-280,-678,5.66498,22.4207,-0.00138263,0.0158491,0.00480442,0.0170981,-0.00263162,1.31646,0.0123696,0.046229,944,1702,5.66498,-22.4207
-273,-678,5.69073,22.928,-0.000981062,0.0119871,0.00443142,0.0133567,-0.0023507,1.27104,0.00978265,0.0427926,951,1702,5.69073,-22.928
-266,-678,5.80872,23.4786,-0.00118328,0.00889324,0.00429727,0.010477,-0.002767,1.2177,0.00806674,0.0370086,958,1702,5.8087,-23.4787
-259,-678,5.7005,23.8384,-0.0010668,0.00584048,0.00380271,0.00752379,-0.00275011,1.15406,0.00614136,0.0246329,965,1702,5.7005,-23.8384
-252,-678,5.68793,24.0818,-0.00106942,0.00350977,0.00302855,0.0050168,-0.00257645,1.10906,0.0044588,0.0195497,972,1702,5.68795,-24.0818
-245,-678,5.70734,24.3512,-0.00119076,0.0020072,0.00257699,0.00344098,-0.00262454,1.06307,0.00351248,0.01802,979,1702,5.70736,-24.3512
-238,-678,5.69287,24.6545,-0.00116698,0.000956825,0.00230575,0.00243345,-0.00264361,1.00119,0.00293208,0.0148142,986,1702,5.69289,-24.6546
-231,-678,5.65887,24.9657,-0.0010105,-0.000370305,0.00213346,0.00146693,-0.00284774,0.859862,0.00253324,0.012721,993,1702,5.6589,-24.9657
-224,-678,5.62787,25.2264,-0.000806592,-0.000725409,0.0020836,0.00131799,-0.00284999,0.795138,0.00245997,0.0124351,1000,1702,5.62788,-25.2264
-217,-678,5.62781,25.5051,-0.000560435,-0.000603054,0.00209427,0.00151263,-0.00267612,0.780311,0.00244928,0.0130016,1007,1702,5.62779,-25.5051
-210,-678,5.62866,25.8456,-0.000198969,-0.000415079,0.00215398,0.00184966,-0.00246371,0.760336,0.00249872,0.0136828,1014,1702,5.62864,-25.8456
-203,-678,5.63953,26.1017,0.000211384,-0.000291741,0.00223636,0.00221028,-0.00229064,0.72939,0.00259875,0.0182975,1021,1702,5.63959,-26.1017
-196,-678,5.62451,26.34,0.0005517,-0.000362661,0.00221246,0.00235372,-0.00216468,0.683512,0.00260946,0.0183244,1028,1702,5.62448,-26.34
-189,-678,5.6228,26.6107,0.00087903,-0.000444185,0.0020312,0.00235366,-0.00191881,0.627955,0.00247096,0.0103865,1035,1702,5.62283,-26.6107
-182,-678,5.61389,26.8708,0.00109802,-0.000467843,0.00167637,0.00216528,-0.0015351,0.566931,0.00214672,0.00928559,1042,1702,5.61392,-26.8708
-175,-678,5.61304,27.1121,0.00124629,-0.000352726,0.00133377,0.00200182,-0.00110826,0.515397,0.00182015,0.0102325,1049,1702,5.61304,-27.112
-168,-678,5.62012,27.3339,0.00137041,-0.000177187,0.00103021,0.00188506,-0.000691834,0.463292,0.00154002,0.00989509,1056,1702,5.62015,-27.3338
-161,-678,5.61353,27.5637,0.00153579,0.000125799,0.000723392,0.0018409,-0.000179312,0.399139,0.00129119,0.00910548,1063,1702,5.6135,-27.5637
-154,-678,5.60657,27.7949,0.0015999,0.000769308,0.000377357,0.00174573,0.000623472,0.368787,0.00102152,0.00842173,1070,1702,5.60656,-27.795
-147,-678,5.61316,28.0151,0.0016684,0.00158315,6.97147e-05,0.00170749,0.00154406,0.511009,0.00108795,0.00966656,1077,1702,5.61311,-28.0151
-140,-678,5.6311,28.2317,0.0017595,0.00262728,-0.000124629,0.00264482,0.00174196,-1.43094,0.00155239,0.0111368,1084,1702,5.63113,-28.2317
-133,-678,5.65137,28.4283,0.0018682,0.00379052,-0.000218578,0.00381506,0.00184366,-1.45899,0.00220304,0.0125247,1091,1702,5.65135,-28.4284
-126,-678,5.6626,28.6515,0.00205004,0.00498514,-0.000293657,0.00501423,0.00202095,-1.47205,0.00291305,0.0110635,1098,1702,5.66257,-28.6515
-119,-678,5.7135,29.0308,0.00236545,0.00606687,-0.000336653,0.00609724,0.00233508,-1.48083,0.00355224,0.0251172,1105,1702,5.71344,-29.0308
-112,-678,5.70203,29.2799,0.00276241,0.00709231,-0.000387764,0.00712676,0.00272796,-1.48218,0.00415216,0.0377888,1112,1702,5.70199,-29.28
-105,-678,5.74927,29.4304,0.00303785,0.00818436,-0.000270614,0.00819855,0.00302366,-1.51841,0.00478744,0.0391308,1119,1702,5.74931,-29.4304
-98,-678,5.71875,29.4413,0.00307449,0.00894937,-0.000407205,0.00897746,0.0030464,-1.50192,0.00527158,0.0242185,1126,1702,5.71876,-29.4413
-91,-678,5.76953,29.5437,0.00349516,0.00902848,-0.000703019,0.00911641,0.00340724,-1.44638,0.005319,0.0276482,1133,1702,5.76955,-29.5436
-84,-678,5.78064,29.8815,0,0,0,0,0,0,0,-1,1140,1702,5.7807,-29.8814
-77,-678,5.95154,29.1879,0,0,0,0,0,0,0,-1,1147,1702,5.95156,-29.1878
-70,-678,4.75891,19.6552,0,0,0,0,0,0,0,-1,1154,1702,4.75895,-19.6551
-63,-678,3.41687,11.0365,0,0,0,0,0,0,0,-1,1161,1702,3.41682,-11.0365
-56,-678,1.72388,6.13159,0,0,0,0,0,0,0,-1,1168,1702,1.72388,-6.13157
-49,-678,-0.241699,5.29895,0,0,0,0,0,0,0,-1,1175,1702,-0.241682,-5.29897
-42,-678,0.297119,3.90649,0,0,0,0,0,0,0,-1,1182,1702,0.297139,-3.90655
-35,-678,0.498413,3.64038,0,0,0,0,0,0,0,-1,1189,1702,0.498471,-3.64038
-28,-678,0.132446,3.55994,0,0,0,0,0,0,0,-1,1196,1702,0.132432,-3.55993
-21,-678,6.13342,30.8706,0,0,0,0,0,0,0,-1,1203,1702,6.13345,-30.8706
-14,-678,6.42029,30.9584,0.0237646,0.0199807,0.00998537,0.0320357,0.0117097,0.691773,0.0187175,0.0413392,1210,1702,6.42028,-30.9584
-7,-678,6.10217,31.2379,0.0252759,0.0229344,0.0106645,0.0348337,0.0133767,0.730726,0.0202908,0.0431786,1217,1702,6.10213,-31.2379
0,-678,6.25757,31.5341,0.027493,0.0267886,0.0116185,0.0387646,0.015517,0.770245,0.0225286,0.0439664,1224,1702,6.25756,-31.5341
7,-678,6.41724,31.6755,0.0298956,0.0314151,0.0127166,0.0433947,0.017916,0.815234,0.0251804,0.0453348,1231,1702,6.4172,-31.6756
14,-678,7.17627,31.9175,0.0319597,0.0368352,0.0135146,0.0481302,0.0206647,0.874628,0.0278803,0.0483935,1238,1702,7.17632,-31.9174
21,-678,6.24744,31.8597,0.0330007,0.042401,0.0143636,0.0528139,0.0225878,0.94352,0.0305983,0.0429728,1245,1702,6.24739,-31.8597
28,-678,6.72144,31.9542,0.032594,0.0498331,0.0153726,0.0588378,0.0235893,1.04091,0.0341916,0.0440182,1252,1702,6.72146,-31.9542
35,-678,7.375,32.4027,0.031151,0.0562941,0.0162625,0.0642776,0.0231674,1.11444,0.0375896,0.044253,1259,1702,7.37503,-32.4027
42,-678,7.18994,31.1927,0,0,0,0,0,0,0,-1,1266,1702,7.18988,-31.1928
49,-678,7.46838,31.2263,0,0,0,0,0,0,0,-1,1273,1702,7.46833,-31.2264
56,-678,7.62537,31.2389,0.0247771,0.0699679,0.0179198,0.0762112,0.0185338,1.23555,0.0458944,0.0471909,1280,1702,7.62538,-31.2389
63,-678,7.7334,31.4282,0.0218366,0.0731857,0.0182029,0.0789838,0.0160385,1.26243,0.0482074,0.0458047,1287,1702,7.73343,-31.4282
70,-678,7.98926,31.689,0.0183542,0.0738803,0.0177135,0.0790498,0.0131846,1.28684,0.0489011,0.0436129,1294,1702,7.98921,-31.689
77,-678,6.65271,32.7202,0.0154963,0.0733573,0.0175821,0.078281,0.0105727,1.29775,0.0490444,0.0489418,1301,1702,6.65267,-32.7202
84,-678,6.76379,32.1549,0.0113617,0.070107,0.0175101,0.0749302,0.0065385,1.30201,0.0479229,0.0483572,1308,1702,6.76384,-32.1549
91,-678,7.14087,31.7081,0.00805119,0.0663548,0.0172392,0.0710706,0.00333537,1.30378,0.0463087,0.0429681,1315,1702,7.14091,-31.7082
98,-678,7.45435,31.0074,0,0,0,0,0,0,0,-1,1322,1702,7.45436,-31.0074
105,-678,7.20886,30.4255,0.00611267,0.0550651,0.0160006,0.059831,0.00134669,1.2813,0.0394461,0.0421042,1329,1702,7.20889,-30.4256
112,-678,7.78369,31.6284,0.00541755,0.0491499,0.015137,0.053878,0.000689408,1.26804,0.0356911,0.0391531,1336,1702,7.78372,-31.6285
119,-678,7.31152,31.4713,0.00424423,0.0427448,0.0145634,0.0476329,-0.000643946,1.24696,0.0319721,0.0415666,1343,1702,7.3115,-31.4713
126,-678,7.09204,31.4449,0.00314461,0.0366443,0.0135808,0.0414582,-0.00166933,1.23015,0.0282117,0.0447283,1350,1702,7.09205,-31.4449
133,-678,7.01526,31.9154,0,0,0,0,0,0,0,-1,1357,1702,7.0152,-31.9154
140,-678,7.70142,31.6846,0,0,0,0,0,0,0,-1,1364,1702,7.70138,-31.6846
147,-678,7.84192,31.3043,0,0,0,0,0,0,0,-1,1371,1702,7.84187,-31.3043
154,-678,7.62073,31.2122,0,0,0,0,0,0,0,-1,1378,1702,7.62067,-31.2121
161,-678,7.77563,27.5094,0,0,0,0,0,0,0,-1,1385,1702,7.77565,-27.5094
168,-678,4.21863,5.25781,0,0,0,0,0,0,0,-1,1392,1702,4.21865,-5.25781
175,-678,5.21899,5.9635,0,0,0,0,0,0,0,-1,1399,1702,5.21894,-5.96346
182,-678,7.31262,6.75122,0,0,0,0,0,0,0,-1,1406,1702,7.3126,-6.75123
189,-678,5.96021,6.36853,0,0,0,0,0,0,0,-1,1413,1702,5.96018,-6.36851
196,-678,5.01599,8.15771,0,0,0,0,0,0,0,-1,1420,1702,5.01596,-8.15767
203,-678,4.64771,13.0559,0,0,0,0,0,0,0,-1,1427,1702,4.64766,-13.0559
210,-678,5.6532,18.5957,0,0,0,0,0,0,0,-1,1434,1702,5.65318,-18.5958
217,-678,6.88049,23.4835,0,0,0,0,0,0,0,-1,1441,1702,6.88047,-23.4835
224,-678,8.02588,30.0308,0,0,0,0,0,0,0,-1,1448,1702,8.02585,-30.0307
231,-678,7.76233,29.6449,0,0,0,0,0,0,0,-1,1455,1702,7.76229,-29.6449
238,-678,7.95801,29.5829,0,0,0,0,0,0,0,-1,1462,1702,7.95796,-29.5829
245,-678,7.96082,29.3326,0.00349061,0.00192033,-0.000860877,0.00387061,0.00154033,-0.415689,0.00225016,0.0434904,1469,1702,7.96081,-29.3327
252,-678,7.95996,29.0481,0.0040456,0.00165286,-0.0012414,0.00457329,0.00112518,-0.401934,0.00275158,0.0292469,1476,1702,7.95997,-29.0481
259,-678,7.94849,28.924,0.00437425,0.00173606,-0.00155914,0.00509744,0.00101287,-0.434303,0.00311603,0.0155912,1483,1702,7.94849,-28.9239
266,-678,7.99414,28.738,0.00461805,0.00166795,-0.00181178,0.00547931,0.000806696,-0.443745,0.00341587,0.0105407,1490,1702,7.99413,-28.738
273,-678,8.01294,28.5511,0.00466317,0.00162923,-0.0019584,0.0056234,0.000669004,-0.455869,0.00354702,0.0108742,1497,1702,8.01295,-28.5511
280,-678,7.9939,28.3512,0.00455409,0.00164284,-0.00202342,0.00559107,0.000605857,-0.473588,0.00354274,0.0109462,1504,1702,7.99388,-28.3512
287,-678,8.00293,28.1161,0.00419002,0.00175618,-0.00189808,0.00522778,0.000718421,-0.50034,0.00327211,0.0104578,1511,1702,8.00299,-28.1161
294,-678,8.00952,27.8889,0.00370419,0.00195724,-0.0017912,0.00482354,0.000837889,-0.55854,0.00297598,0.0109526,1518,1702,8.00948,-27.8889
301,-678,8.00439,27.6959,0.00322321,0.00204611,-0.00169809,0.00443186,0.000837468,-0.61858,0.00271876,0.0108037,1525,1702,8.00434,-27.6959
308,-678,8.00989,27.4963,0.00272151,0.00215437,-0.00160549,0.00406828,0.000807599,-0.697987,0.00248708,0.0135226,1532,1702,8.00992,-27.4963
315,-678,8.00293,27.2675,0.00223945,0.00213473,-0.00148774,0.00367575,0.000698432,-0.767808,0.00225405,0.0145799,1539,1702,8.00298,-27.2675
322,-678,7.99072,27.0742,0.00178654,0.00207385,-0.00135751,0.00329528,0.000565106,-0.838115,0.00203481,0.0166478,1546,1702,7.99077,-27.0743
329,-678,7.98889,26.8372,0.00139026,0.00160898,-0.00117852,0.0026832,0.000316036,-0.831663,0.00169331,0.0153639,1553,1702,7.98887,-26.8372
336,-678,7.99451,26.5695,0.000930939,0.00108864,-0.00097377,0.00198675,3.28328e-05,-0.825797,0.00131369,0.0124255,1560,1702,7.99455,-26.5694
343,-678,8.00342,26.3118,0.000322188,0.00020295,-0.000472431,0.000738747,-0.000213609,-0.722632,0.000577034,0.0113742,1567,1702,8.0034,-26.3117
350,-678,7.99951,26.057,-8.13647e-05,-0.00100166,0.000184606,-4.57146e-05,-0.00103731,0.190766,0.000676815,0.010919,1574,1702,7.99951,-26.057
357,-678,7.99792,25.7817,-0.000379015,-0.00283487,0.000866972,-0.000103797,-0.00311009,0.307385,0.00203967,0.00891303,1581,1702,7.9979,-25.7817
364,-678,7.9751,25.5137,-0.000599078,-0.00526449,0.00168328,-5.51639e-05,-0.0058084,0.312538,0.00385401,0.0116089,1588,1702,7.97506,-25.5136
371,-678,7.95142,25.2622,-0.000859556,-0.00782128,0.00267902,5.20237e-05,-0.00873286,0.327977,0.00583932,0.0122006,1595,1702,7.95136,-25.2622
378,-678,7.94604,24.957,-0.00111047,-0.0108359,0.00377092,0.000180341,-0.0121267,0.329804,0.00814523,0.0132817,1602,1702,7.94602,-24.957
385,-678,7.94287,24.6973,-0.00127813,-0.0139918,0.00503841,0.000476433,-0.0157464,0.335105,0.01066,0.0164096,1609,1702,7.94286,-24.6972
392,-678,7.91064,24.5107,-0.00124215,-0.0178883,0.00640993,0.000940051,-0.0200705,0.328133,0.0137044,0.0307233,1616,1702,7.91069,-24.5107
399,-678,7.89636,24.4509,-0.0011,-0.0220221,0.00770189,0.00142944,-0.0245515,0.31732,0.0168643,0.0409075,1623,1702,7.89632,-24.4509
406,-678,7.96484,24.4973,-0.000930115,-0.0266452,0.009135,0.00198462,-0.0295599,0.308862,0.0204004,0.0444406,1630,1702,7.96479,-24.4973
413,-678,8.09009,24.2965,-0.000464534,-0.0308735,0.0103626,0.00273101,-0.034069,0.299119,0.0236756,0.0459334,1637,1702,8.09003,-24.2965
420,-678,7.9989,24.2035,0,0,0,0,0,0,0,-1,1644,1702,7.99889,-24.2034
427,-678,4.57483,10.1555,0,0,0,0,0,0,0,-1,1651,1702,4.57485,-10.1555
434,-678,9.48169,21.6665,0,0,0,0,0,0,0,-1,1658,1702,9.48169,-21.6665
441,-678,8.64539,21.1864,0,0,0,0,0,0,0,-1,1665,1702,8.64536,-21.1865
448,-678,7.62244,20.7195,0,0,0,0,0,0,0,-1,1672,1702,7.6224,-20.7195
455,-678,5.44678,5.54297,0,0,0,0,0,0,0,-1,1679,1702,5.44676,-5.54294
462,-678,3.86792,2.87402,0,0,0,0,0,0,0,-1,1686,1702,3.86796,-2.87406
469,-678,2.26587,1.98755,0,0,0,0,0,0,0,-1,1693,1702,2.26592,-1.98755
476,-678,0,0,0,0,0,0,0,0,0,-1,1700,1702,0,0
483,-678,0,0,0,0,0,0,0,0,0,-1,1707,1702,0,0
490,-678,0,0,0,0,0,0,0,0,0,-1,1714,1702,0,0
497,-678,0,0,0,0,0,0,0,0,0,-1,1721,1702,0,0
504,-678,0,0,0,0,0,0,0,0,0,-1,1728,1702,0,0
511,-678,0,0,0,0,0,0,0,0,0,-1,1735,1702,0,0
518,-678,0,0,0,0,0,0,0,0,0,-1,1742,1702,0,0
525,-678,0,0,0,0,0,0,0,0,0,-1,1749,1702,0,0
532,-678,0,0,0,0,0,0,0,0,0,-1,1756,1702,0,0
539,-678,0,0,0,0,0,0,0,0,0,-1,1763,1702,0,0
546,-678,0,0,0,0,0,0,0,0,0,-1,1770,1702,0,0
553,-678,0,0,0,0,0,0,0,0,0,-1,1777,1702,0,0
560,-678,0,0,0,0,0,0,0,0,0,-1,1784,1702,0,0
567,-678,0,0,0,0,0,0,0,0,0,-1,1791,1702,0,0
574,-678,0,0,0,0,0,0,0,0,0,-1,1798,1702,0,0
581,-678,0,0,0,0,0,0,0,0,0,-1,1805,1702,0,0
588,-678,0,0,0,0,0,0,0,0,0,-1,1812,1702,0,0
595,-678,0,0,0,0,0,0,0,0,0,-1,1819,1702,0,0
602,-678,0,0,0,0,0,0,0,0,0,-1,1826,1702,0,0
609,-678,0,0,0,0,0,0,0,0,0,-1,1833,1702,0,0
616,-678,0,0,0,0,0,0,0,0,0,-1,1840,1702,0,0
623,-678,0,0,0,0,0,0,0,0,0,-1,1847,1702,0,0
630,-678,0,0,0,0,0,0,0,0,0,-1,1854,1702,0,0
637,-678,0,0,0,0,0,0,0,0,0,-1,1861,1702,0,0
644,-678,0,0,0,0,0,0,0,0,0,-1,1868,1702,0,0
651,-678,0,0,0,0,0,0,0,0,0,-1,1875,1702,0,0
658,-678,0,0,0,0,0,0,0,0,0,-1,1882,1702,0,0
665,-678,0,0,0,0,0,0,0,0,0,-1,1889,1702,0,0
672,-678,0,0,0,0,0,0,0,0,0,-1,1896,1702,0,0
679,-678,0,0,0,0,0,0,0,0,0,-1,1903,1702,0,0
686,-678,0,0,0,0,0,0,0,0,0,-1,1910,1702,0,0
693,-678,0,0,0,0,0,0,0,0,0,-1,1917,1702,0,0
700,-678,0,0,0,0,0,0,0,0,0,-1,1924,1702,0,0
707,-678,0,0,0,0,0,0,0,0,0,-1,1931,1702,0,0
714,-678,0,0,0,0,0,0,0,0,0,-1,1938,1702,0,0
721,-678,0,0,0,0,0,0,0,0,0,-1,1945,1702,0,0
728,-678,0,0,0,0,0,0,0,0,0,-1,1952,1702,0,0
735,-678,0,0,0,0,0,0,0,0,0,-1,1959,1702,0,0
742,-678,0,0,0,0,0,0,0,0,0,-1,1966,1702,0,0
749,-678,0,0,0,0,0,0,0,0,0,-1,1973,1702,0,0
756,-678,0,0,0,0,0,0,0,0,0,-1,1980,1702,0,0
763,-678,0,0,0,0,0,0,0,0,0,-1,1987,1702,0,0
770,-678,0,0,0,0,0,0,0,0,0,-1,1994,1702,0,0
777,-678,0,0,0,0,0,0,0,0,0,-1,2001,1702,0,0
784,-678,0,0,0,0,0,0,0,0,0,-1,2008,1702,0,0
791,-678,0,0,0,0,0,0,0,0,0,-1,2015,1702,0,0
798,-678,0,0,0,0,0,0,0,0,0,-1,2022,1702,0,0
805,-678,0,0,0,0,0,0,0,0,0,-1,2029,1702,0,0
812,-678,0,0,0,0,0,0,0,0,0,-1,2036,1702,0,0
-700,-685,0,0,0,0,0,0,0,0,0,-1,524,1709,0,0
-693,-685,0,0,0,0,0,0,0,0,0,-1,531,1709,0,0
-686,-685,0,0,0,0,0,0,0,0,0,-1,538,1709,0,0
-679,-685,0,0,0,0,0,0,0,0,0,-1,545,1709,0,0
-672,-685,0,0,0,0,0,0,0,0,0,-1,552,1709,0,0
-665,-685,0,0,0,0,0,0,0,0,0,-1,559,1709,0,0
-658,-685,0,0,0,0,0,0,0,0,0,-1,566,1709,0,0
-651,-685,0,0,0,0,0,0,0,0,0,-1,573,1709,0,0
-644,-685,0,0,0,0,0,0,0,0,0,-1,580,1709,0,0
-637,-685,0,0,0,0,0,0,0,0,0,-1,587,1709,0,0
-630,-685,0,0,0,0,0,0,0,0,0,-1,594,1709,0,0
-623,-685,0,0,0,0,0,0,0,0,0,-1,601,1709,0,0
-616,-685,0,0,0,0,0,0,0,0,0,-1,608,1709,0,0
-609,-685,0,0,0,0,0,0,0,0,0,-1,615,1709,0,0
-602,-685,0,0,0,0,0,0,0,0,0,-1,622,1709,0,0
-595,-685,0,0,0,0,0,0,0,0,0,-1,629,1709,0,0
-588,-685,0,0,0,0,0,0,0,0,0,-1,636,1709,0,0
-581,-685,0,0,0,0,0,0,0,0,0,-1,643,1709,0,0
-574,-685,0,0,0,0,0,0,0,0,0,-1,650,1709,0,0
-567,-685,0,0,0,0,0,0,0,0,0,-1,657,1709,0,0
-560,-685,0,0,0,0,0,0,0,0,0,-1,664,1709,0,0
-553,-685,0,0,0,0,0,0,0,0,0,-1,671,1709,0,0
-546,-685,0,0,0,0,0,0,0,0,0,-1,678,1709,0,0
-539,-685,0,0,0,0,0,0,0,0,0,-1,685,1709,0,0
-532,-685,0,0,0,0,0,0,0,0,0,-1,692,1709,0,0
-525,-685,0,0,0,0,0,0,0,0,0,-1,699,1709,0,0
-518,-685,0,0,0,0,0,0,0,0,0,-1,706,1709,0,0
-511,-685,0,0,0,0,0,0,0,0,0,-1,713,1709,0,0
-504,-685,0,0,0,0,0,0,0,0,0,-1,720,1709,0,0
-497,-685,0,0,0,0,0,0,0,0,0,-1,727,1709,0,0
-490,-685,0,0,0,0,0,0,0,0,0,-1,734,1709,0,0
-483,-685,0,0,0,0,0,0,0,0,0,-1,741,1709,0,0
-476,-685,0,0,0,0,0,0,0,0,0,-1,748,1709,0,0
-469,-685,0,0,0,0,0,0,0,0,0,-1,755,1709,0,0
-462,-685,0,0,0,0,0,0,0,0,0,-1,762,1709,0,0
-455,-685,0,0,0,0,0,0,0,0,0,-1,769,1709,0,0
-448,-685,0,0,0,0,0,0,0,0,0,-1,776,1709,0,0
-441,-685,0,0,0,0,0,0,0,0,0,-1,783,1709,0,0
-434,-685,0,0,0,0,0,0,0,0,0,-1,790,1709,0,0
-427,-685,0,0,0,0,0,0,0,0,0,-1,797,1709,0,0
-420,-685,0,0,0,0,0,0,0,0,0,-1,804,1709,0,0
-413,-685,0,0,0,0,0,0,0,0,0,-1,811,1709,0,0
-406,-685,0,0,0,0,0,0,0,0,0,-1,818,1709,0,0
-399,-685,0,0,0,0,0,0,0,0,0,-1,825,1709,0,0
-392,-685,0,0,0,0,0,0,0,0,0,-1,832,1709,0,0
-385,-685,0,0,0,0,0,0,0,0,0,-1,839,1709,0,0
-378,-685,0,0,0,0,0,0,0,0,0,-1,846,1709,0,0
-371,-685,0,0,0,0,0,0,0,0,0,-1,853,1709,0,0
-364,-685,0,0,0,0,0,0,0,0,0,-1,860,1709,0,0
-357,-685,0,0,0,0,0,0,0,0,0,-1,867,1709,0,0
-350,-685,0,0,0,0,0,0,0,0,0,-1,874,1709,0,0
-343,-685,-5.98505,6.56335,0,0,0,0,0,0,0,-1,881,1709,-5.98505,-6.56329
-336,-685,-6.51312,5.10571,0,0,0,0,0,0,0,-1,888,1709,-6.51311,-5.10575
-329,-685,-6.81384,3.34106,0,0,0,0,0,0,0,-1,895,1709,-6.81385,-3.341
-322,-685,3.83191,16.7219,0,0,0,0,0,0,0,-1,902,1709,3.8319,-16.7219
-315,-685,5.15784,21.4388,0,0,0,0,0,0,0,-1,909,1709,5.15783,-21.4389
-308,-685,6.36969,21.0303,0,0,0,0,0,0,0,-1,916,1709,6.36968,-21.0302
-301,-685,7.71271,20.1454,0,0,0,0,0,0,0,-1,923,1709,7.71272,-20.1454
-294,-685,5.5744,23.4772,0,0,0,0,0,0,0,-1,930,1709,5.57441,-23.4771
-287,-685,6.13586,21.9209,0,0,0,0,0,0,0,-1,937,1709,6.13587,-21.921
-280,-685,5.82251,22.2177,0,0,0,0,0,0,0,-1,944,1709,5.82252,-22.2177
-273,-685,5.85901,22.9321,0,0,0,0,0,0,0,-1,951,1709,5.85901,-22.9322
-266,-685,5.98151,23.4482,-0.00114285,0.011511,0.00573118,0.0137209,-0.00335269,1.20278,0.0104457,0.0451758,958,1709,5.98148,-23.4482
-259,-685,6.06036,23.9431,-0.00127279,0.0072404,0.00484678,0.00943437,-0.00346677,1.14573,0.00770952,0.0440731,965,1709,6.06035,-23.9431
-252,-685,6.10327,24.1403,-0.00148913,0.00418561,0.00391278,0.00618151,-0.00348503,1.0991,0.00565289,0.0392319,972,1709,6.1033,-24.1403
-245,-685,6.03448,24.406,-0.00173045,0.00227012,0.0034714,0.0042763,-0.00373662,1.04677,0.00462976,0.0328365,979,1709,6.03447,-24.406
-238,-685,5.98511,24.6888,-0.00173726,0.000951789,0.00322475,0.00310108,-0.00388655,0.98291,0.0040428,0.0251553,986,1709,5.98512,-24.6889
-231,-685,5.91443,24.9908,-0.00160561,-0.000748126,0.00303203,0.00188533,-0.00423906,0.855634,0.00362191,0.0168812,993,1709,5.9144,-24.9908
-224,-685,5.9057,25.252,-0.00141435,-0.00118474,0.00300374,0.00170639,-0.00430548,0.8045,0.00357745,0.0147597,1000,1709,5.9057,-25.2519
-217,-685,5.89752,25.542,-0.00113764,-0.00102266,0.00307422,0.00199461,-0.0041549,0.794747,0.00362271,0.0111146,1007,1709,5.89755,-25.542
-210,-685,5.89087,25.8708,-0.000729648,-0.000764901,0.00323368,0.00248645,-0.003981,0.782673,0.00376707,0.0143256,1014,1709,5.89088,-25.8709
-203,-685,5.89661,26.1288,-0.00028677,-0.000517201,0.00338112,0.0029811,-0.00378507,0.768367,0.00391563,0.0149094,1021,1709,5.89655,-26.1288
-196,-685,5.88745,26.3657,0.000118302,-0.00053331,0.00337788,0.00318605,-0.00360106,0.73732,0.00392098,0.0136129,1028,1709,5.88745,-26.3657
-189,-685,5.87012,26.5959,0.000534377,-0.000606356,0.00313211,0.00314763,-0.00321961,0.695334,0.00367621,0.00936847,1035,1709,5.87013,-26.596
-182,-685,5.85254,26.861,0.000809639,-0.000609266,0.00269873,0.00289061,-0.00269023,0.656864,0.00322279,0.012484,1042,1709,5.85248,-26.861
-175,-685,5.84106,27.1072,0.00093581,-0.000460494,0.0022559,0.00259912,-0.00212381,0.635334,0.00273138,0.0124431,1049,1709,5.84105,-27.1072
-168,-685,5.85107,27.3433,0.0010668,-0.0002924,0.00186332,0.00237059,-0.00159619,0.610532,0.00230472,0.0100517,1056,1709,5.85105,-27.3433
-161,-685,5.849,27.5802,0.00126891,-1.84455e-05,0.00144275,0.00220506,-0.000954591,0.575575,0.00187124,0.0112172,1063,1709,5.84903,-27.5802
-154,-685,5.84802,27.8173,0.00133236,0.000570003,0.000968632,0.00199212,-8.97518e-05,0.597942,0.00135898,0.00990737,1070,1709,5.84807,-27.8172
-147,-685,5.83948,28.0145,0.00139224,0.00126433,0.00054198,0.00187402,0.000782543,0.726669,0.00108686,0.00865022,1077,1709,5.83943,-28.0146
-140,-685,5.83838,28.2068,0.00144695,0.00214963,0.000232768,0.00221974,0.00137684,1.27823,0.00129387,0.0121014,1084,1709,5.83839,-28.2067
-133,-685,5.85718,28.4193,0.00150581,0.00315424,7.5051e-05,0.00315765,0.0015024,1.52539,0.00182378,0.0115628,1091,1709,5.85714,-28.4193
-126,-685,5.8667,28.6382,0.00165666,0.00417043,-3.09479e-07,0.00417043,0.00165666,-1.57067,0.00242469,0.00917879,1098,1709,5.86667,-28.6382
-119,-685,5.88794,28.8562,0.00192412,0.00503,-2.60622e-05,0.00503021,0.0019239,-1.56241,0.00293082,0.0123335,1105,1709,5.888,-28.8562
-112,-685,5.90051,29.049,0.00224468,0.00577111,-6.24058e-05,0.00577221,0.00224357,-1.55311,0.00336,0.0122656,1112,1709,5.90052,-29.049
-105,-685,5.8844,29.2155,0.00249083,0.00625296,-4.66047e-05,0.00625354,0.00249026,-1.55841,0.00363533,0.0125064,1119,1709,5.88444,-29.2155
-98,-685,5.95972,29.3525,0.00259754,0.00656948,-0.000132363,0.00657389,0.00259314,-1.53752,0.00382351,0.0167196,1126,1709,5.95977,-29.3525
-91,-685,5.96741,29.4742,0.00292016,0.00641137,-0.000330943,0.00644247,0.00288907,-1.47711,0.00372615,0.0229398,1133,1709,5.96744,-29.4742
-84,-685,5.95276,29.6537,0.00347264,0.00583897,-0.000664076,0.0060126,0.00329902,-1.31507,0.00347686,0.0337806,1140,1709,5.95281,-29.6537
-77,-685,6.00012,29.8994,0,0,0,0,0,0,0,-1,1147,1709,6.00013,-29.8994
-70,-685,6.11328,30.1023,0,0,0,0,0,0,0,-1,1154,1709,6.11331,-30.1022
-63,-685,6.03015,29.7728,0,0,0,0,0,0,0,-1,1161,1709,6.0302,-29.7728
-56,-685,3.93909,15.8704,0,0,0,0,0,0,0,-1,1168,1709,3.93905,-15.8704
-49,-685,3.07471,9.86011,0,0,0,0,0,0,0,-1,1175,1709,3.07467,-9.86009
-42,-685,2.70618,7.54504,0,0,0,0,0,0,0,-1,1182,1709,2.7062,-7.54504
-35,-685,2.95264,7.91516,0,0,0,0,0,0,0,-1,1189,1709,2.95262,-7.91517
-28,-685,6.23157,30.915,0,0,0,0,0,0,0,-1,1196,1709,6.23156,-30.9151
-21,-685,6.28992,30.8369,0.0161829,0.0143815,0.00436872,0.0197428,0.0108216,0.683742,0.0114161,0.049782,1203,1709,6.28987,-30.8369
-14,-685,6.44629,30.9076,0.0184197,0.016607,0.00497495,0.0225702,0.0124565,0.695293,0.0130543,0.0289198,1210,1709,6.44631,-30.9076
-7,-685,6.44324,31.0455,0.0198579,0.0190824,0.00564695,0.0251304,0.0138099,0.751117,0.0145327,0.0398173,1217,1709,6.44321,-31.0455
0,-685,6.4801,31.1512,0.0216617,0.0221114,0.00645083,0.0283413,0.0154318,0.802818,0.0163844,0.0449185,1224,1709,6.48012,-31.1513
7,-685,6.53137,31.3923,0.0234256,0.0255804,0.0074706,0.0320509,0.0169551,0.857014,0.0185149,0.0410711,1231,1709,6.53143,-31.3923
14,-685,6.86047,31.6589,0.0250277,0.029627,0.00829759,0.0359377,0.018717,0.92058,0.0207547,0.0432846,1238,1709,6.86052,-31.659
21,-685,6.88696,31.6263,0.025872,0.0336878,0.00931803,0.0398842,0.0196756,0.983955,0.0230279,0.0388249,1245,1709,6.88702,-31.6263
28,-685,6.87231,31.5898,0.0255809,0.0394278,0.0104481,0.0450382,0.0199705,1.07801,0.0260582,0.0418613,1252,1709,6.87229,-31.5898
35,-685,7.0636,31.7961,0.02455,0.0445016,0.0115531,0.0497898,0.0192618,1.14153,0.0289904,0.0451766,1259,1709,7.06365,-31.7961
42,-685,6.94788,31.8383,0.0232678,0.0483684,0.0119731,0.0531636,0.0184726,1.18986,0.0311665,0.0493861,1266,1709,6.9479,-31.8382
49,-685,7.05359,31.2225,0,0,0,0,0,0,0,-1,1273,1709,7.05361,-31.2225
56,-685,7.22534,31.2673,0.0197195,0.0546741,0.013875,0.0595121,0.0148815,1.2353,0.0357617,0.0463311,1280,1709,7.22538,-31.2673
63,-685,7.38879,31.3553,0.0174466,0.0568996,0.0144004,0.0615966,0.0127497,1.25551,0.0375432,0.0443214,1287,1709,7.38884,-31.3553
70,-685,7.56799,31.5452,0.0146845,0.0570531,0.0142489,0.0613993,0.0103383,1.27474,0.037959,0.0428666,1294,1709,7.56804,-31.5451
77,-685,7.67004,31.5138,0.0124977,0.0562947,0.0142916,0.0605457,0.00824675,1.28168,0.037915,0.0449577,1301,1709,7.67007,-31.5138
84,-685,7.15869,31.563,0.00921224,0.0535613,0.0143981,0.0578257,0.00494785,1.28285,0.0370116,0.0471414,1308,1709,7.15875,-31.563
91,-685,7.27673,31.4377,0.0063785,0.050375,0.0140189,0.0544623,0.00229126,1.28711,0.035569,0.0420919,1315,1709,7.27676,-31.4378
98,-685,7.31128,31.1067,0.00542203,0.0463474,0.0135923,0.0504504,0.00131902,1.27763,0.0332027,0.040367,1322,1709,7.31124,-31.1067
105,-685,7.15356,30.6735,0.0048022,0.0414088,0.0128185,0.0454511,0.000759907,1.26532,0.0300506,0.0444652,1329,1709,7.15359,-30.6735
112,-685,7.16443,31.2943,0,0,0,0,0,0,0,-1,1336,1709,7.16439,-31.2943
119,-685,7.15283,31.1786,0.00332557,0.0317775,0.011454,0.0358154,-0.000712411,1.23186,0.0241179,0.0403688,1343,1709,7.15289,-31.1786
126,-685,7.15808,31.0663,0.00257666,0.026994,0.0105781,0.0309393,-0.00136857,1.21381,0.0210972,0.0451227,1350,1709,7.15812,-31.0663
133,-685,7.47522,30.9667,0,0,0,0,0,0,0,-1,1357,1709,7.47519,-30.9666
140,-685,7.56189,31.1993,0.00188542,0.0167321,0.00773114,0.0200268,-0.00140928,1.16794,0.0138449,0.0460328,1364,1709,7.56192,-31.1994
147,-685,7.58179,31.1732,0.00130562,0.0139872,0.00729651,0.0173131,-0.00202026,1.14311,0.0122711,0.0457132,1371,1709,7.58182,-31.1733
154,-685,7.34534,30.9539,0,0,0,0,0,0,0,-1,1378,1709,7.34537,-30.9539
161,-685,7.67468,30.9669,0,0,0,0,0,0,0,-1,1385,1709,7.67472,-30.967
168,-685,4.37524,10.8778,0,0,0,0,0,0,0,-1,1392,1709,4.37525,-10.8778
175,-685,3.97522,8.94324,0,0,0,0,0,0,0,-1,1399,1709,3.97519,-8.94328
182,-685,3.98218,9.19739,0,0,0,0,0,0,0,-1,1406,1709,3.98221,-9.1974
189,-685,4.53479,15.2343,0,0,0,0,0,0,0,-1,1413,1709,4.53474,-15.2343
196,-685,7.573,30.588,0,0,0,0,0,0,0,-1,1420,1709,7.57294,-30.5881
203,-685,7.57605,30.3037,0,0,0,0,0,0,0,-1,1427,1709,7.576,-30.3037
210,-685,7.69263,30.0513,0,0,0,0,0,0,0,-1,1434,1709,7.69262,-30.0513
217,-685,7.68494,29.8771,0,0,0,0,0,0,0,-1,1441,1709,7.6849,-29.8771
224,-685,7.87659,29.8787,0.0002579,0.00146771,0.00166451,0.00263383,-0.000908214,0.959686,0.00212435,0.0408373,1448,1709,7.87662,-29.8787
231,-685,7.70789,29.6304,0.000457642,0.00107981,0.001224,0.00203164,-0.000494193,0.909839,0.00154572,0.0252943,1455,1709,7.70794,-29.6304
238,-685,7.73132,29.4114,0.00141406,0.00134705,0.000258833,0.00164155,0.00111956,0.721031,0.000968454,0.0194357,1462,1709,7.73135,-29.4113
245,-685,7.71252,29.2494,0.00208731,0.00125048,-0.000245097,0.00215382,0.00118398,-0.264947,0.00124555,0.0201997,1469,1709,7.71254,-29.2494
252,-685,7.74744,29.0848,0.00248838,0.00103334,-0.00058268,0.00269296,0.000828766,-0.337648,0.00159263,0.0143909,1476,1709,7.74738,-29.0848
259,-685,7.76367,28.9371,0.00276792,0.00103091,-0.000890621,0.00314341,0.000655427,-0.398984,0.00191489,0.0103587,1483,1709,7.76366,-28.9372
266,-685,7.80505,28.7495,0.00296352,0.0010015,-0.00116457,0.00350521,0.000459812,-0.435372,0.00219962,0.0119126,1490,1709,7.80502,-28.7495
273,-685,7.81213,28.5377,0.0030221,0.0010786,-0.00134964,0.00371343,0.000387278,-0.473384,0.00235716,0.0146668,1497,1709,7.81215,-28.5377
280,-685,7.78516,28.3289,0.00300804,0.00113157,-0.00149258,0.00383278,0.000306834,-0.504806,0.0024593,0.0158713,1504,1709,7.78511,-28.3288
287,-685,7.79077,28.1329,0.00278799,0.00136897,-0.00150364,0.00374111,0.000415844,-0.564956,0.00236766,0.0113387,1511,1709,7.7908,-28.1329
294,-685,7.79614,27.9237,0.00249946,0.00170806,-0.00153579,0.0036897,0.000517817,-0.659313,0.00230665,0.00976323,1518,1709,7.7962,-27.9237
301,-685,7.80725,27.7142,0.00223353,0.00197875,-0.00161182,0.00372299,0.000489299,-0.745963,0.00233604,0.0119694,1525,1709,7.80719,-27.7142
308,-685,7.81348,27.4983,0.00193146,0.00222264,-0.00167907,0.00376242,0.000391677,-0.828645,0.00238845,0.0136067,1532,1709,7.8135,-27.4983
315,-685,7.79443,27.2618,0.00164891,0.00230806,-0.00169393,0.00370418,0.000252793,-0.881479,0.00238965,0.0120306,1539,1709,7.79447,-27.2619
322,-685,7.77539,27.0382,0.00138577,0.0023472,-0.00167071,0.00360498,0.000127992,-0.92548,0.00236181,0.0190623,1546,1709,7.77544,-27.0382
329,-685,7.77539,26.8156,0.00112061,0.00185185,-0.00153765,0.00306676,-9.42928e-05,-0.902119,0.00207665,0.0184811,1553,1709,7.77539,-26.8156
336,-685,7.78076,26.5619,0.000743582,0.00127388,-0.00136931,0.00240348,-0.000386011,-0.881034,0.00174528,0.0128201,1560,1709,7.78078,-26.5618
343,-685,7.76074,26.3129,0.000220029,0.000296847,-0.000855022,0.00111432,-0.000597446,-0.807844,0.0010032,0.0120008,1567,1709,7.76072,-26.3129
350,-685,7.75757,26.0466,-0.000155916,-0.00116,-2.04757e-05,-0.000155498,-0.00116041,-0.0203812,0.000727338,0.0129758,1574,1709,7.75757,-26.0466
357,-685,7.74792,25.7843,-0.000498345,-0.00341079,0.000901326,-0.000241974,-0.00366716,0.277118,0.00236824,0.0103172,1581,1709,7.7479,-25.7843
364,-685,7.71582,25.5327,-0.00077271,-0.0063699,0.00201576,-0.000122329,-0.00702028,0.312103,0.00463995,0.00967676,1588,1709,7.71586,-25.5327
371,-685,7.73706,25.2791,-0.00110183,-0.00966744,0.00343092,0.000102946,-0.0108722,0.337703,0.00728271,0.0153657,1595,1709,7.73703,-25.2791
378,-685,7.68665,25.0439,-0.00146608,-0.0136769,0.00501517,0.000329649,-0.0154726,0.343837,0.0104267,0.021999,1602,1709,7.68665,-25.044
385,-685,7.61816,24.8585,-0.00177216,-0.0178655,0.00688458,0.000771089,-0.0204087,0.353863,0.01387,0.0405957,1609,1709,7.61812,-24.8585
392,-685,7.224,24.7285,-0.00172107,-0.0231541,0.00891846,0.00150454,-0.0263797,0.34704,0.0181088,0.0406956,1616,1709,7.22401,-24.7285
399,-685,7.29919,24.6844,-0.00150991,-0.0289125,0.0108837,0.00228682,-0.0327093,0.335645,0.022607,0.04237,1623,1709,7.29919,-24.6844
406,-685,7.90417,25.1917,0,0,0,0,0,0,0,-1,1630,1709,7.90422,-25.1917
413,-685,8.21472,24.8219,0,0,0,0,0,0,0,-1,1637,1709,8.21475,-24.8219
420,-685,4.84631,10.3781,0,0,0,0,0,0,0,-1,1644,1709,4.84634,-10.378
427,-685,6.05151,9.21155,0,0,0,0,0,0,0,-1,1651,1709,6.05156,-9.21156
434,-685,4.87769,8.91418,0,0,0,0,0,0,0,-1,1658,1709,4.87768,-8.91413
441,-685,5.62,8.75549,0,0,0,0,0,0,0,-1,1665,1709,5.61996,-8.75545
448,-685,6.4043,8.58972,0,0,0,0,0,0,0,-1,1672,1709,6.40435,-8.58971
455,-685,2.31958,4.09802,0,0,0,0,0,0,0,-1,1679,1709,2.31957,-4.09803
462,-685,0,0,0,0,0,0,0,0,0,-1,1686,1709,0,0
469,-685,0,0,0,0,0,0,0,0,0,-1,1693,1709,0,0
476,-685,0,0,0,0,0,0,0,0,0,-1,1700,1709,0,0
483,-685,0,0,0,0,0,0,0,0,0,-1,1707,1709,0,0
490,-685,0,0,0,0,0,0,0,0,0,-1,1714,1709,0,0
497,-685,0,0,0,0,0,0,0,0,0,-1,1721,1709,0,0
504,-685,0,0,0,0,0,0,0,0,0,-1,1728,1709,0,0
511,-685,0,0,0,0,0,0,0,0,0,-1,1735,1709,0,0
518,-685,0,0,0,0,0,0,0,0,0,-1,1742,1709,0,0
525,-685,0,0,0,0,0,0,0,0,0,-1,1749,1709,0,0
532,-685,0,0,0,0,0,0,0,0,0,-1,1756,1709,0,0
539,-685,0,0,0,0,0,0,0,0,0,-1,1763,1709,0,0
546,-685,0,0,0,0,0,0,0,0,0,-1,1770,1709,0,0
553,-685,0,0,0,0,0,0,0,0,0,-1,1777,1709,0,0
560,-685,0,0,0,0,0,0,0,0,0,-1,1784,1709,0,0
567,-685,0,0,0,0,0,0,0,0,0,-1,1791,1709,0,0
574,-685,0,0,0,0,0,0,0,0,0,-1,1798,1709,0,0
581,-685,0,0,0,0,0,0,0,0,0,-1,1805,1709,0,0
588,-685,0,0,0,0,0,0,0,0,0,-1,1812,1709,0,0
595,-685,0,0,0,0,0,0,0,0,0,-1,1819,1709,0,0
602,-685,0,0,0,0,0,0,0,0,0,-1,1826,1709,0,0
609,-685,0,0,0,0,0,0,0,0,0,-1,1833,1709,0,0
616,-685,0,0,0,0,0,0,0,0,0,-1,1840,1709,0,0
623,-685,0,0,0,0,0,0,0,0,0,-1,1847,1709,0,0
630,-685,0,0,0,0,0,0,0,0,0,-1,1854,1709,0,0
637,-685,0,0,0,0,0,0,0,0,0,-1,1861,1709,0,0
644,-685,0,0,0,0,0,0,0,0,0,-1,1868,1709,0,0
651,-685,0,0,0,0,0,0,0,0,0,-1,1875,1709,0,0
658,-685,0,0,0,0,0,0,0,0,0,-1,1882,1709,0,0
665,-685,0,0,0,0,0,0,0,0,0,-1,1889,1709,0,0
672,-685,0,0,0,0,0,0,0,0,0,-1,1896,1709,0,0
679,-685,0,0,0,0,0,0,0,0,0,-1,1903,1709,0,0
686,-685,0,0,0,0,0,0,0,0,0,-1,1910,1709,0,0
693,-685,0,0,0,0,0,0,0,0,0,-1,1917,1709,0,0
700,-685,0,0,0,0,0,0,0,0,0,-1,1924,1709,0,0
707,-685,0,0,0,0,0,0,0,0,0,-1,1931,1709,0,0
714,-685,0,0,0,0,0,0,0,0,0,-1,1938,1709,0,0
721,-685,0,0,0,0,0,0,0,0,0,-1,1945,1709,0,0
728,-685,0,0,0,0,0,0,0,0,0,-1,1952,1709,0,0
735,-685,0,0,0,0,0,0,0,0,0,-1,1959,1709,0,0
742,-685,0,0,0,0,0,0,0,0,0,-1,1966,1709,0,0
749,-685,0,0,0,0,0,0,0,0,0,-1,1973,1709,0,0
756,-685,0,0,0,0,0,0,0,0,0,-1,1980,1709,0,0
763,-685,0,0,0,0,0,0,0,0,0,-1,1987,1709,0,0
770,-685,0,0,0,0,0,0,0,0,0,-1,1994,1709,0,0
777,-685,0,0,0,0,0,0,0,0,0,-1,2001,1709,0,0
784,-685,0,0,0,0,0,0,0,0,0,-1,2008,1709,0,0
791,-685,0,0,0,0,0,0,0,0,0,-1,2015,1709,0,0
798,-685,0,0,0,0,0,0,0,0,0,-1,2022,1709,0,0
805,-685,0,0,0,0,0,0,0,0,0,-1,2029,1709,0,0
812,-685,0,0,0,0,0,0,0,0,0,-1,2036,1709,0,0
-700,-692,0,0,0,0,0,0,0,0,0,-1,524,1716,0,0
-693,-692,0,0,0,0,0,0,0,0,0,-1,531,1716,0,0
-686,-692,0,0,0,0,0,0,0,0,0,-1,538,1716,0,0
-679,-692,0,0,0,0,0,0,0,0,0,-1,545,1716,0,0
-672,-692,0,0,0,0,0,0,0,0,0,-1,552,1716,0,0
-665,-692,0,0,0,0,0,0,0,0,0,-1,559,1716,0,0
-658,-692,0,0,0,0,0,0,0,0,0,-1,566,1716,0,0
-651,-692,0,0,0,0,0,0,0,0,0,-1,573,1716,0,0
-644,-692,0,0,0,0,0,0,0,0,0,-1,580,1716,0,0
-637,-692,0,0,0,0,0,0,0,0,0,-1,587,1716,0,0
-630,-692,0,0,0,0,0,0,0,0,0,-1,594,1716,0,0
-623,-692,0,0,0,0,0,0,0,0,0,-1,601,1716,0,0
-616,-692,0,0,0,0,0,0,0,0,0,-1,608,1716,0,0
-609,-692,0,0,0,0,0,0,0,0,0,-1,615,1716,0,0
-602,-692,0,0,0,0,0,0,0,0,0,-1,622,1716,0,0
-595,-692,0,0,0,0,0,0,0,0,0,-1,629,1716,0,0
-588,-692,0,0,0,0,0,0,0,0,0,-1,636,1716,0,0
-581,-692,0,0,0,0,0,0,0,0,0,-1,643,1716,0,0
-574,-692,0,0,0,0,0,0,0,0,0,-1,650,1716,0,0
-567,-692,0,0,0,0,0,0,0,0,0,-1,657,1716,0,0
-560,-692,0,0,0,0,0,0,0,0,0,-1,664,1716,0,0
-553,-692,0,0,0,0,0,0,0,0,0,-1,671,1716,0,0
-546,-692,0,0,0,0,0,0,0,0,0,-1,678,1716,0,0
-539,-692,0,0,0,0,0,0,0,0,0,-1,685,1716,0,0
-532,-692,0,0,0,0,0,0,0,0,0,-1,692,1716,0,0
-525,-692,0,0,0,0,0,0,0,0,0,-1,699,1716,0,0
-518,-692,0,0,0,0,0,0,0,0,0,-1,706,1716,0,0
-511,-692,0,0,0,0,0,0,0,0,0,-1,713,1716,0,0
-504,-692,0,0,0,0,0,0,0,0,0,-1,720,1716,0,0
-497,-692,0,0,0,0,0,0,0,0,0,-1,727,1716,0,0
-490,-692,0,0,0,0,0,0,0,0,0,-1,734,1716,0,0
-483,-692,0,0,0,0,0,0,0,0,0,-1,741,1716,0,0
-476,-692,0,0,0,0,0,0,0,0,0,-1,748,1716,0,0
-469,-692,0,0,0,0,0,0,0,0,0,-1,755,1716,0,0
-462,-692,0,0,0,0,0,0,0,0,0,-1,762,1716,0,0
-455,-692,0,0,0,0,0,0,0,0,0,-1,769,1716,0,0
-448,-692,0,0,0,0,0,0,0,0,0,-1,776,1716,0,0
-441,-692,0,0,0,0,0,0,0,0,0,-1,783,1716,0,0
-434,-692,0,0,0,0,0,0,0,0,0,-1,790,1716,0,0
-427,-692,0,0,0,0,0,0,0,0,0,-1,797,1716,0,0
-420,-692,0,0,0,0,0,0,0,0,0,-1,804,1716,0,0
-413,-692,0,0,0,0,0,0,0,0,0,-1,811,1716,0,0
-406,-692,0,0,0,0,0,0,0,0,0,-1,818,1716,0,0
-399,-692,0,0,0,0,0,0,0,0,0,-1,825,1716,0,0
-392,-692,0,0,0,0,0,0,0,0,0,-1,832,1716,0,0
-385,-692,0,0,0,0,0,0,0,0,0,-1,839,1716,0,0
-378,-692,0,0,0,0,0,0,0,0,0,-1,846,1716,0,0
-371,-692,0,0,0,0,0,0,0,0,0,-1,853,1716,0,0
-364,-692,0,0,0,0,0,0,0,0,0,-1,860,1716,0,0
-357,-692,0,0,0,0,0,0,0,0,0,-1,867,1716,0,0
-350,-692,0,0,0,0,0,0,0,0,0,-1,874,1716,0,0
-343,-692,0,0,0,0,0,0,0,0,0,-1,881,1716,0,0
-336,-692,0,0,0,0,0,0,0,0,0,-1,888,1716,0,0
-329,-692,3.03107,4.10266,0,0,0,0,0,0,0,-1,895,1716,3.03105,-4.10267
-322,-692,4.43713,18.5242,0,0,0,0,0,0,0,-1,902,1716,4.43711,-18.5241
-315,-692,5.38965,17.975,0,0,0,0,0,0,0,-1,909,1716,5.38963,-17.975
-308,-692,5.86938,17.4392,0,0,0,0,0,0,0,-1,916,1716,5.86937,-17.4392
-301,-692,8.65558,20.7662,0,0,0,0,0,0,0,-1,923,1716,8.65556,-20.7663
-294,-692,6.66138,19.0796,0,0,0,0,0,0,0,-1,930,1716,6.66141,-19.0796
-287,-692,6.9306,22.2611,0,0,0,0,0,0,0,-1,937,1716,6.93061,-22.2611
-280,-692,6.85999,23.188,0,0,0,0,0,0,0,-1,944,1716,6.85997,-23.188
-273,-692,6.86981,24.1425,0,0,0,0,0,0,0,-1,951,1716,6.86982,-24.1425
-266,-692,6.2619,23.4598,0,0,0,0,0,0,0,-1,958,1716,6.2619,-23.4599
-259,-692,6.47559,24.0016,0,0,0,0,0,0,0,-1,965,1716,6.47558,-24.0015
-252,-692,6.56293,24.2207,0,0,0,0,0,0,0,-1,972,1716,6.56293,-24.2207
-245,-692,6.4126,24.4186,-0.00227143,0.00285523,0.0046912,0.00563774,-0.00505394,1.03544,0.00617591,0.0468585,979,1716,6.41261,-24.4186
-238,-692,6.29181,24.723,-0.0022701,0.0011873,0.00455088,0.00432676,-0.00540955,0.96691,0.00563284,0.0425906,986,1716,6.29182,-24.7231
-231,-692,6.23236,25.0638,-0.00212869,-0.00100257,0.0043876,0.00285795,-0.00598921,0.849214,0.00521346,0.0362174,993,1716,6.23235,-25.0639
-224,-692,6.18958,25.3151,-0.00194646,-0.00154677,0.00441752,0.00267542,-0.00616866,0.808002,0.00523722,0.0181514,1000,1716,6.1896,-25.3151
-217,-692,6.15234,25.5616,-0.00162817,-0.00135762,0.00457656,0.00308566,-0.00607146,0.800173,0.00537973,0.0121339,1007,1716,6.15234,-25.5617
-210,-692,6.15125,25.8296,-0.00114294,-0.00109117,0.00484416,0.00372718,-0.00596129,0.78807,0.00564299,0.0131622,1014,1716,6.15126,-25.8296
-203,-692,6.15308,26.0878,-0.000641722,-0.000805384,0.00501826,0.00429537,-0.00574248,0.777246,0.0058154,0.0146902,1021,1716,6.15305,-26.0877
-196,-692,6.1095,26.3521,-0.000157128,-0.000863357,0.0049774,0.00447967,-0.00550015,0.749986,0.00577188,0.0174732,1028,1716,6.10948,-26.3521
-189,-692,6.099,26.5974,0.000358727,-0.00101102,0.0045951,0.00431971,-0.00497201,0.711421,0.00536898,0.00936397,1035,1716,6.09897,-26.5974
-182,-692,6.07251,26.8402,0.000688616,-0.00107674,0.00400817,0.00391015,-0.00429828,0.677018,0.0047409,0.0129153,1042,1716,6.07249,-26.8402
-175,-692,6.052,27.0919,0.000778929,-0.000984243,0.00339231,0.00340234,-0.00360765,0.658272,0.0040478,0.0145946,1049,1716,6.05196,-27.0919
-168,-692,6.078,27.342,0.000902928,-0.00090268,0.00283935,0.00297954,-0.0029793,0.631472,0.00344034,0.0114572,1056,1716,6.07805,-27.3421
-161,-692,6.10278,27.5865,0.00113902,-0.000720128,0.00224136,0.00263593,-0.00221704,0.588826,0.00280534,0.013361,1063,1716,6.10273,-27.5865
-154,-692,6.08398,27.8352,0.00117901,-0.000240581,0.00158183,0.00220299,-0.00126456,0.574504,0.00202629,0.014045,1070,1716,6.08396,-27.8353
-147,-692,6.0813,28.0325,0.00120225,0.000301935,0.000977825,0.00182856,-0.000324376,0.569677,0.00134031,0.012863,1077,1716,6.08126,-28.0324
-140,-692,6.07886,28.225,0.00118044,0.00103464,0.000496685,0.00160954,0.000605531,0.712534,0.000938715,0.0104518,1084,1716,6.07881,-28.2249
-133,-692,6.06921,28.436,0.00114244,0.00193752,0.000233004,0.00200077,0.00107919,1.30572,0.00115634,0.00971206,1091,1716,6.06917,-28.436
-126,-692,6.07544,28.6311,0.00122368,0.00288247,0.000124009,0.00289169,0.00121446,1.49659,0.00167663,0.00744372,1098,1716,6.07546,-28.6311
-119,-692,6.07373,28.826,0.00141251,0.00365302,8.4436e-05,0.0036562,0.00140934,1.53318,0.00212929,0.0106953,1105,1716,6.07379,-28.8261
-112,-692,6.07629,29.0104,0.0016419,0.0042994,3.93575e-05,0.00429999,0.00164132,1.55599,0.00250565,0.0105955,1112,1716,6.07625,-29.0103
-105,-692,6.12134,29.1893,0.00182375,0.00470084,3.94533e-07,0.00470084,0.00182375,1.57066,0.00273665,0.0155627,1119,1716,6.12131,-29.1894
-98,-692,6.17236,29.3522,0.00193585,0.00492013,-5.38887e-05,0.0049211,0.00193487,-1.55275,0.00286273,0.0176615,1126,1716,6.17232,-29.3522
-91,-692,6.15735,29.5238,0.00218017,0.00482941,-0.000183818,0.0048421,0.00216748,-1.50185,0.00280069,0.0200553,1133,1716,6.1574,-29.5238
-84,-692,6.1626,29.6749,0.00258852,0.00442678,-0.0004233,0.00451957,0.00249573,-1.355,0.00261411,0.0218944,1140,1716,6.16255,-29.6749
-77,-692,6.17041,29.8669,0.0031335,0.00410258,-0.000836449,0.00458469,0.00265138,-1.04792,0.00265777,0.0167539,1147,1716,6.17044,-29.867
-70,-692,6.22253,30.0291,0.00364716,0.00346669,-0.00140982,0.00496963,0.00214422,-0.753441,0.00287819,0.0308246,1154,1716,6.22258,-30.0291
-63,-692,6.23022,30.1552,0,0,0,0,0,0,0,-1,1161,1716,6.23019,-30.1551
-56,-692,6.18713,30.2712,0,0,0,0,0,0,0,-1,1168,1716,6.18707,-30.2713
-49,-692,6.16565,30.4838,0,0,0,0,0,0,0,-1,1175,1716,6.16561,-30.4838
-42,-692,6.16528,30.7577,0,0,0,0,0,0,0,-1,1182,1716,6.1653,-30.7577
-35,-692,6.33032,30.8247,0,0,0,0,0,0,0,-1,1189,1716,6.33028,-30.8247
-28,-692,6.31677,30.8853,0.0102227,0.0082803,0.000769329,0.0104905,0.00801251,0.33496,0.00633144,0.0466712,1196,1716,6.31674,-30.8853
-21,-692,6.42944,30.7855,0.0120441,0.0108011,0.000750996,0.0123974,0.0104478,0.439743,0.00769779,0.0317981,1203,1716,6.42943,-30.7855
-14,-692,6.45618,30.8624,0.0141228,0.0128796,0.0013316,0.0149708,0.0120317,0.567034,0.00915937,0.0165598,1210,1716,6.45614,-30.8624
-7,-692,6.48596,31.0212,0.0153733,0.0149075,0.00193748,0.0170918,0.013189,0.725584,0.0103421,0.0154649,1217,1716,6.48596,-31.0213
0,-692,6.4978,31.1176,0.0167822,0.0172953,0.00260225,0.0196536,0.0144238,0.834535,0.0117536,0.0190148,1224,1716,6.49786,-31.1175
7,-692,6.52844,31.1672,0.0180674,0.0198065,0.00355872,0.0226004,0.0152735,0.905218,0.0133145,0.0241595,1231,1716,6.52844,-31.1672
14,-692,6.67896,31.327,0.0192509,0.0227225,0.00440205,0.0257186,0.0162548,0.973194,0.0150202,0.0254038,1238,1716,6.67899,-31.327
21,-692,6.77808,31.3503,0.0198596,0.0255228,0.00549561,0.0288734,0.016509,1.02329,0.0167272,0.0243072,1245,1716,6.77804,-31.3503
28,-692,6.75085,31.3374,0.0196353,0.0297462,0.00663843,0.033035,0.0163465,1.11082,0.0190731,0.0252996,1252,1716,6.7508,-31.3374
35,-692,6.73962,31.4456,0.018982,0.0336029,0.00785847,0.0370255,0.0155594,1.16004,0.0214672,0.0262554,1259,1716,6.73965,-31.4455
42,-692,6.81506,31.6052,0.0181342,0.0364257,0.00846699,0.0397433,0.0148166,1.19736,0.0231919,0.0237553,1266,1716,6.81504,-31.6052
49,-692,6.85498,31.6145,0.0165639,0.0388725,0.00943445,0.0423273,0.0131091,1.21977,0.0250207,0.0277231,1273,1716,6.855,-31.6145
56,-692,6.84094,31.2734,0,0,0,0,0,0,0,-1,1280,1716,6.8409,-31.2735
63,-692,6.80347,31.4954,0.0136535,0.0424315,0.0113338,0.0463591,0.00972588,1.23721,0.0282282,0.0321379,1287,1716,6.80352,-31.4954
70,-692,6.92395,31.5765,0.0114572,0.0422918,0.0114193,0.0460603,0.00768868,1.25204,0.0284919,0.0280113,1294,1716,6.924,-31.5766
77,-692,6.98389,31.5883,0.00970972,0.0414933,0.0115857,0.0452681,0.00593486,1.25582,0.0284079,0.0335298,1301,1716,6.9839,-31.5883
84,-692,7.04053,31.4946,0.00715464,0.0393552,0.0117997,0.0432162,0.00329365,1.25457,0.0277781,0.042787,1308,1716,7.04053,-31.4947
91,-692,7.11597,31.4662,0.00484705,0.0367737,0.0113871,0.0404189,0.00120186,1.26099,0.0265544,0.0377951,1315,1716,7.11601,-31.4662
98,-692,7.07434,31.4081,0.00396925,0.0336472,0.0109403,0.0372442,0.000372253,1.25315,0.0247063,0.0318889,1322,1716,7.07432,-31.4081
105,-692,7.20227,31.2803,0.00333723,0.0298812,0.0102362,0.03337,-0.000151614,1.24231,0.0222974,0.0387812,1329,1716,7.2023,-31.2802
112,-692,7.26111,31.2365,0.00283289,0.0263853,0.00942739,0.029694,-0.000475815,1.23326,0.0199565,0.0383956,1336,1716,7.2611,-31.2365
119,-692,7.1748,31.2499,0.00198917,0.0224845,0.00888629,0.0258008,-0.00132712,1.21361,0.0176595,0.0337597,1343,1716,7.17474,-31.2499
126,-692,7.14929,31.1855,0.0014131,0.0187763,0.00805623,0.0219384,-0.00174899,1.19677,0.0152421,0.0352052,1350,1716,7.14924,-31.1856
133,-692,7.18799,31.0996,0.00128707,0.0140624,0.00706607,0.0172,-0.00185058,1.15291,0.0121307,0.0261856,1357,1716,7.18804,-31.0996
140,-692,7.23376,31.1119,0.000943103,0.010453,0.00585545,0.013241,-0.00184487,1.12642,0.00950218,0.0287466,1364,1716,7.23379,-31.112
147,-692,7.33215,31.106,0.000673496,0.00849706,0.00556423,0.0113869,-0.00221639,1.09177,0.0084278,0.0331294,1371,1716,7.3322,-31.1059
154,-692,7.2583,30.9454,0.000851413,0.00766306,0.00501718,0.0103212,-0.00180673,1.08359,0.0075554,0.02778,1378,1716,7.2583,-30.9454
161,-692,7.45544,30.9321,-0.000328539,0.00466924,0.00250535,0.00570889,-0.00136819,1.17745,0.00433457,0.0360959,1385,1716,7.45547,-30.9321
168,-692,7.63745,30.9204,0,0,0,0,0,0,0,-1,1392,1716,7.63751,-30.9205
175,-692,7.47351,30.7181,0,0,0,0,0,0,0,-1,1399,1716,7.47354,-30.7181
182,-692,7.45447,30.5581,0,0,0,0,0,0,0,-1,1406,1716,7.45442,-30.5581
189,-692,7.45557,30.4368,0,0,0,0,0,0,0,-1,1413,1716,7.45552,-30.4368
196,-692,7.46082,30.3175,0.00215956,0.00244358,0.00235561,0.00466146,-5.83173e-05,0.815505,0.00312726,0.0368316,1420,1716,7.46082,-30.3175
203,-692,7.47327,30.2003,0.00147234,0.0019195,0.00190585,0.00361484,-0.000223005,0.843786,0.00248756,0.0231873,1427,1716,7.47321,-30.2003
210,-692,7.52942,30.0634,0.000805691,0.00189937,0.0018252,0.00325789,-0.000552825,0.930946,0.00237772,0.0177893,1434,1716,7.52947,-30.0634
217,-692,7.5332,29.9032,0.000261253,0.00149867,0.00143645,0.00244399,-0.000684074,0.98875,0.00189888,0.0159425,1441,1716,7.53318,-29.9032
224,-692,7.54248,29.7722,0.000152933,0.00122749,0.00126685,0.00206628,-0.00068586,0.985955,0.00165423,0.013167,1448,1716,7.54253,-29.7722
231,-692,7.53955,29.6194,0.000228352,0.000909171,0.000927185,0.00155646,-0.000418939,0.96133,0.00120188,0.0117685,1455,1716,7.53953,-29.6194
238,-692,7.54004,29.4221,0.00076291,0.000949054,0.000313296,0.00118281,0.000529154,0.929784,0.000684156,0.0184969,1462,1716,7.54004,-29.4221
245,-692,7.53821,29.2646,0.00118746,0.000810391,-6.51838e-05,0.00119841,0.000799441,-0.166437,0.000704663,0.0202361,1469,1716,7.53825,-29.2647
252,-692,7.56079,29.1066,0.00146588,0.000632851,-0.000358826,0.00159913,0.000499602,-0.355565,0.000944668,0.0169088,1476,1716,7.56073,-29.1065
259,-692,7.56482,28.9454,0.00167289,0.000599902,-0.000646824,0.00197676,0.000296035,-0.439183,0.00123108,0.00944914,1483,1716,7.56477,-28.9454
266,-692,7.57764,28.7676,0.00179895,0.000649945,-0.000934768,0.00232165,0.000127249,-0.509857,0.00150714,0.00991452,1490,1716,7.57767,-28.7676
273,-692,7.58984,28.5511,0.00184685,0.000879268,-0.00114039,0.00260182,0.000124292,-0.584788,0.00169464,0.0144754,1497,1716,7.58989,-28.5511
280,-692,7.59094,28.3344,0.00189135,0.00099737,-0.00133052,0.00284796,4.076e-05,-0.623346,0.0018852,0.0137651,1504,1716,7.59097,-28.3343
287,-692,7.59094,28.1525,0.00177012,0.0013785,-0.00144724,0.00303474,0.000113879,-0.718158,0.00198629,0.0103571,1511,1716,7.59091,-28.1525
294,-692,7.59229,27.9514,0.00163959,0.00188631,-0.00158538,0.00335312,0.000172785,-0.824225,0.0021801,0.0101201,1518,1716,7.59233,-27.9514
301,-692,7.59558,27.7363,0.00154155,0.00236227,-0.00179271,0.00379099,0.000112837,-0.897913,0.00249056,0.0132644,1525,1716,7.59561,-27.7364
308,-692,7.58862,27.525,0.00138207,0.00272554,-0.00197029,0.00413546,-2.78444e-05,-0.949685,0.0027663,0.0163632,1532,1716,7.58864,-27.525
315,-692,7.58508,27.2854,0.00126985,0.00292829,-0.00209327,0.0043506,-0.000152458,-0.973984,0.00295253,0.014973,1539,1716,7.58506,-27.2853
322,-692,7.51794,27.0205,0.00117965,0.00307559,-0.00215813,0.00448477,-0.000229539,-0.992339,0.00306922,0.018715,1546,1716,7.51798,-27.0205
329,-692,7.52832,26.8003,0.00103566,0.00256309,-0.00205107,0.00398801,-0.000389262,-0.963622,0.00279747,0.0165541,1553,1716,7.52836,-26.8003
336,-692,7.53101,26.5522,0.000746507,0.00192468,-0.00190566,0.00333023,-0.000659035,-0.935302,0.00246932,0.0118605,1560,1716,7.53098,-26.5522
343,-692,7.52808,26.3116,0.000302435,0.000823226,-0.00136135,0.00194886,-0.000823198,-0.879896,0.00164384,0.0126448,1567,1716,7.52802,-26.3117
350,-692,7.52832,26.0735,-5.66962e-05,-0.000937287,-0.000313543,4.35354e-05,-0.00103752,-0.309407,0.000706638,0.0142935,1574,1716,7.52826,-26.0734
357,-692,7.50232,25.7816,-0.000454679,-0.00369017,0.000908983,-0.000216797,-0.00392805,0.25596,0.00254951,0.0176313,1581,1716,7.50233,-25.7816
364,-692,7.4718,25.5127,-0.000793728,-0.00731728,0.00241293,1.76113e-06,-0.00811276,0.318457,0.0054091,0.0232761,1588,1716,7.4718,-25.5127
371,-692,7.5105,25.3646,-0.00121742,-0.0116237,0.00439851,0.000392625,-0.0132338,0.350895,0.00895627,0.0381927,1595,1716,7.51053,-25.3646
378,-692,7.43542,25.4882,-0.0017635,-0.0170069,0.00664646,0.000727451,-0.0194979,0.358576,0.0132477,0.0488902,1602,1716,7.43546,-25.4882
385,-692,7.30078,25.0287,0,0,0,0,0,0,0,-1,1609,1716,7.30081,-25.0287
392,-692,6.28064,24.7661,0,0,0,0,0,0,0,-1,1616,1716,6.2807,-24.7661
399,-692,6.41821,24.7065,0,0,0,0,0,0,0,-1,1623,1716,6.41827,-24.7066
406,-692,4.73633,10.6808,0,0,0,0,0,0,0,-1,1630,1716,4.73637,-10.6808
413,-692,4.25085,10.5685,0,0,0,0,0,0,0,-1,1637,1716,4.2508,-10.5685
420,-692,5.48901,10.4845,0,0,0,0,0,0,0,-1,1644,1716,5.48906,-10.4845
427,-692,3.79578,8.60339,0,0,0,0,0,0,0,-1,1651,1716,3.79577,-8.6034
434,-692,4.78516,8.64636,0,0,0,0,0,0,0,-1,1658,1716,4.78512,-8.64634
441,-692,5.8208,8.74036,0,0,0,0,0,0,0,-1,1665,1716,5.82084,-8.7404
448,-692,6.73792,8.51013,0,0,0,0,0,0,0,-1,1672,1716,6.73793,-8.5101
455,-692,0,0,0,0,0,0,0,0,0,-1,1679,1716,0,0
462,-692,0,0,0,0,0,0,0,0,0,-1,1686,1716,0,0
469,-692,0,0,0,0,0,0,0,0,0,-1,1693,1716,0,0
476,-692,0,0,0,0,0,0,0,0,0,-1,1700,1716,0,0
483,-692,0,0,0,0,0,0,0,0,0,-1,1707,1716,0,0
490,-692,0,0,0,0,0,0,0,0,0,-1,1714,1716,0,0
497,-692,0,0,0,0,0,0,0,0,0,-1,1721,1716,0,0
504,-692,0,0,0,0,0,0,0,0,0,-1,1728,1716,0,0
511,-692,0,0,0,0,0,0,0,0,0,-1,1735,1716,0,0
518,-692,0,0,0,0,0,0,0,0,0,-1,1742,1716,0,0
525,-692,0,0,0,0,0,0,0,0,0,-1,1749,1716,0,0
532,-692,0,0,0,0,0,0,0,0,0,-1,1756,1716,0,0
539,-692,0,0,0,0,0,0,0,0,0,-1,1763,1716,0,0
546,-692,0,0,0,0,0,0,0,0,0,-1,1770,1716,0,0
553,-692,0,0,0,0,0,0,0,0,0,-1,1777,1716,0,0
560,-692,0,0,0,0,0,0,0,0,0,-1,1784,1716,0,0
567,-692,0,0,0,0,0,0,0,0,0,-1,1791,1716,0,0
574,-692,0,0,0,0,0,0,0,0,0,-1,1798,1716,0,0
581,-692,0,0,0,0,0,0,0,0,0,-1,1805,1716,0,0
588,-692,0,0,0,0,0,0,0,0,0,-1,1812,1716,0,0
595,-692,0,0,0,0,0,0,0,0,0,-1,1819,1716,0,0
602,-692,0,0,0,0,0,0,0,0,0,-1,1826,1716,0,0
609,-692,0,0,0,0,0,0,0,0,0,-1,1833,1716,0,0
616,-692,0,0,0,0,0,0,0,0,0,-1,1840,1716,0,0
623,-692,0,0,0,0,0,0,0,0,0,-1,1847,1716,0,0
630,-692,0,0,0,0,0,0,0,0,0,-1,1854,1716,0,0
637,-692,0,0,0,0,0,0,0,0,0,-1,1861,1716,0,0
644,-692,0,0,0,0,0,0,0,0,0,-1,1868,1716,0,0
651,-692,0,0,0,0,0,0,0,0,0,-1,1875,1716,0,0
658,-692,0,0,0,0,0,0,0,0,0,-1,1882,1716,0,0
665,-692,0,0,0,0,0,0,0,0,0,-1,1889,1716,0,0
672,-692,0,0,0,0,0,0,0,0,0,-1,1896,1716,0,0
679,-692,0,0,0,0,0,0,0,0,0,-1,1903,1716,0,0
686,-692,0,0,0,0,0,0,0,0,0,-1,1910,1716,0,0
693,-692,0,0,0,0,0,0,0,0,0,-1,1917,1716,0,0
700,-692,0,0,0,0,0,0,0,0,0,-1,1924,1716,0,0
707,-692,0,0,0,0,0,0,0,0,0,-1,1931,1716,0,0
714,-692,0,0,0,0,0,0,0,0,0,-1,1938,1716,0,0
721,-692,0,0,0,0,0,0,0,0,0,-1,1945,1716,0,0
728,-692,0,0,0,0,0,0,0,0,0,-1,1952,1716,0,0
735,-692,0,0,0,0,0,0,0,0,0,-1,1959,1716,0,0
742,-692,0,0,0,0,0,0,0,0,0,-1,1966,1716,0,0
749,-692,0,0,0,0,0,0,0,0,0,-1,1973,1716,0,0
756,-692,0,0,0,0,0,0,0,0,0,-1,1980,1716,0,0
763,-692,0,0,0,0,0,0,0,0,0,-1,1987,1716,0,0
770,-692,0,0,0,0,0,0,0,0,0,-1,1994,1716,0,0
777,-692,0,0,0,0,0,0,0,0,0,-1,2001,1716,0,0
784,-692,0,0,0,0,0,0,0,0,0,-1,2008,1716,0,0
791,-692,0,0,0,0,0,0,0,0,0,-1,2015,1716,0,0
798,-692,0,0,0,0,0,0,0,0,0,-1,2022,1716,0,0
805,-692,0,0,0,0,0,0,0,0,0,-1,2029,1716,0,0
812,-692,0,0,0,0,0,0,0,0,0,-1,2036,1716,0,0
-700,-699,0,0,0,0,0,0,0,0,0,-1,524,1723,0,0
-693,-699,0,0,0,0,0,0,0,0,0,-1,531,1723,0,0
-686,-699,0,0,0,0,0,0,0,0,0,-1,538,1723,0,0
-679,-699,0,0,0,0,0,0,0,0,0,-1,545,1723,0,0
-672,-699,0,0,0,0,0,0,0,0,0,-1,552,1723,0,0
-665,-699,0,0,0,0,0,0,0,0,0,-1,559,1723,0,0
-658,-699,0,0,0,0,0,0,0,0,0,-1,566,1723,0,0
-651,-699,0,0,0,0,0,0,0,0,0,-1,573,1723,0,0
-644,-699,0,0,0,0,0,0,0,0,0,-1,580,1723,0,0
-637,-699,0,0,0,0,0,0,0,0,0,-1,587,1723,0,0
-630,-699,0,0,0,0,0,0,0,0,0,-1,594,1723,0,0
-623,-699,0,0,0,0,0,0,0,0,0,-1,601,1723,0,0
-616,-699,0,0,0,0,0,0,0,0,0,-1,608,1723,0,0
-609,-699,0,0,0,0,0,0,0,0,0,-1,615,1723,0,0
-602,-699,0,0,0,0,0,0,0,0,0,-1,622,1723,0,0
-595,-699,0,0,0,0,0,0,0,0,0,-1,629,1723,0,0
-588,-699,0,0,0,0,0,0,0,0,0,-1,636,1723,0,0
-581,-699,0,0,0,0,0,0,0,0,0,-1,643,1723,0,0
-574,-699,0,0,0,0,0,0,0,0,0,-1,650,1723,0,0
-567,-699,0,0,0,0,0,0,0,0,0,-1,657,1723,0,0
-560,-699,0,0,0,0,0,0,0,0,0,-1,664,1723,0,0
-553,-699,0,0,0,0,0,0,0,0,0,-1,671,1723,0,0
-546,-699,0,0,0,0,0,0,0,0,0,-1,678,1723,0,0
-539,-699,0,0,0,0,0,0,0,0,0,-1,685,1723,0,0
-532,-699,0,0,0,0,0,0,0,0,0,-1,692,1723,0,0
-525,-699,0,0,0,0,0,0,0,0,0,-1,699,1723,0,0
-518,-699,0,0,0,0,0,0,0,0,0,-1,706,1723,0,0
-511,-699,0,0,0,0,0,0,0,0,0,-1,713,1723,0,0
-504,-699,0,0,0,0,0,0,0,0,0,-1,720,1723,0,0
-497,-699,0,0,0,0,0,0,0,0,0,-1,727,1723,0,0
-490,-699,0,0,0,0,0,0,0,0,0,-1,734,1723,0,0
-483,-699,0,0,0,0,0,0,0,0,0,-1,741,1723,0,0
-476,-699,0,0,0,0,0,0,0,0,0,-1,748,1723,0,0
-469,-699,0,0,0,0,0,0,0,0,0,-1,755,1723,0,0
-462,-699,0,0,0,0,0,0,0,0,0,-1,762,1723,0,0
-455,-699,0,0,0,0,0,0,0,0,0,-1,769,1723,0,0
-448,-699,0,0,0,0,0,0,0,0,0,-1,776,1723,0,0
-441,-699,0,0,0,0,0,0,0,0,0,-1,783,1723,0,0
-434,-699,0,0,0,0,0,0,0,0,0,-1,790,1723,0,0
-427,-699,0,0,0,0,0,0,0,0,0,-1,797,1723,0,0
-420,-699,0,0,0,0,0,0,0,0,0,-1,804,1723,0,0
-413,-699,0,0,0,0,0,0,0,0,0,-1,811,1723,0,0
-406,-699,0,0,0,0,0,0,0,0,0,-1,818,1723,0,0
-399,-699,0,0,0,0,0,0,0,0,0,-1,825,1723,0,0
-392,-699,0,0,0,0,0,0,0,0,0,-1,832,1723,0,0
-385,-699,0,0,0,0,0,0,0,0,0,-1,839,1723,0,0
-378,-699,0,0,0,0,0,0,0,0,0,-1,846,1723,0,0
-371,-699,0,0,0,0,0,0,0,0,0,-1,853,1723,0,0
-364,-699,0,0,0,0,0,0,0,0,0,-1,860,1723,0,0
-357,-699,0,0,0,0,0,0,0,0,0,-1,867,1723,0,0
-350,-699,0,0,0,0,0,0,0,0,0,-1,874,1723,0,0
-343,-699,0,0,0,0,0,0,0,0,0,-1,881,1723,0,0
-336,-699,0,0,0,0,0,0,0,0,0,-1,888,1723,0,0
-329,-699,0,0,0,0,0,0,0,0,0,-1,895,1723,0,0
-322,-699,0,0,0,0,0,0,0,0,0,-1,902,1723,0,0
-315,-699,6.20001,19.5193,0,0,0,0,0,0,0,-1,909,1723,6.20001,-19.5193
-308,-699,6.98151,18.9218,0,0,0,0,0,0,0,-1,916,1723,6.98151,-18.9217
-301,-699,4.72729,12.8752,0,0,0,0,0,0,0,-1,923,1723,4.72732,-12.8752
-294,-699,6.90332,19.8601,0,0,0,0,0,0,0,-1,930,1723,6.90332,-19.8601
-287,-699,7.09802,22.7235,0,0,0,0,0,0,0,-1,937,1723,7.09805,-22.7235
-280,-699,7.36841,23.5389,0,0,0,0,0,0,0,-1,944,1723,7.36842,-23.539
-273,-699,7.37561,24.6039,0,0,0,0,0,0,0,-1,951,1723,7.37561,-24.6039
-266,-699,6.81915,20.8951,0,0,0,0,0,0,0,-1,958,1723,6.81914,-20.8952
-259,-699,5.39758,14.5466,0,0,0,0,0,0,0,-1,965,1723,5.39759,-14.5466
-252,-699,5.95953,22.7152,0,0,0,0,0,0,0,-1,972,1723,5.95951,-22.7152
-245,-699,6.81909,24.4838,0,0,0,0,0,0,0,-1,979,1723,6.81911,-24.4838
-238,-699,6.5451,24.8351,0,0,0,0,0,0,0,-1,986,1723,6.54513,-24.8351
-231,-699,6.2782,25.1854,-0.00267613,-0.00109526,0.00636287,0.00452608,-0.00829747,0.847194,0.00750965,0.0447171,993,1723,6.27818,-25.1854
-224,-699,6.53143,25.3307,-0.00247618,-0.00171466,0.00651165,0.00442735,-0.00861819,0.814602,0.0076603,0.0389604,1000,1723,6.53143,-25.3307
-217,-699,6.46393,25.5706,-0.00211,-0.00151193,0.00678725,0.00498287,-0.0086048,0.807413,0.0079372,0.0248127,1007,1723,6.46391,-25.5705
-210,-699,6.44031,25.8412,-0.00145921,-0.00134399,0.00716568,0.00576431,-0.00856751,0.789418,0.00832707,0.0174688,1014,1723,6.44031,-25.8412
-203,-699,6.43311,26.0613,-0.000789182,-0.00115636,0.0073323,0.00636183,-0.00830737,0.772882,0.00849406,0.0209904,1021,1723,6.43315,-26.0613
-196,-699,6.3811,26.3164,-0.000170462,-0.00133648,0.00719825,0.00646835,-0.00797529,0.74499,0.00835415,0.0169354,1028,1723,6.38106,-26.3165
-189,-699,6.33337,26.6005,0.000475122,-0.00163809,0.00655784,0.00606093,-0.0072239,0.705524,0.00767979,0.0090231,1035,1723,6.33342,-26.6004
-182,-699,6.30505,26.8423,0.00084795,-0.00180405,0.00570647,0.00538045,-0.00633655,0.67124,0.00677232,0.0118275,1042,1723,6.3051,-26.8423
-175,-699,6.30212,27.1021,0.000870269,-0.00178545,0.00482787,0.00454956,-0.00546474,0.651196,0.0057898,0.0144583,1049,1723,6.30207,-27.1021
-168,-699,6.33313,27.3469,0.000954823,-0.0017843,0.00402956,0.00384121,-0.00467069,0.621583,0.00492212,0.01527,1056,1723,6.33316,-27.3469
-161,-699,6.33093,27.5781,0.00118946,-0.00166375,0.00319125,0.00325847,-0.00373275,0.575205,0.00403948,0.0130524,1063,1723,6.33096,-27.5781
-154,-699,6.2981,27.8231,0.00115302,-0.0012417,0.00230216,0.00255058,-0.00263926,0.545597,0.0029965,0.0135448,1070,1723,6.29804,-27.8232
-147,-699,6.28821,28.0217,0.00108677,-0.000783291,0.001481,0.00190321,-0.00159973,0.503822,0.00202495,0.0143603,1077,1723,6.28817,-28.0217
-140,-699,6.28638,28.2274,0.000941411,-0.000118471,0.000794277,0.00136631,-0.000543366,0.491213,0.00113616,0.00969209,1084,1723,6.28641,-28.2275
-133,-699,6.2804,28.4556,0.000765208,0.000772635,0.000409276,0.00117821,0.000359629,0.789935,0.000697233,0.00891347,1091,1723,6.28036,-28.4555
-126,-699,6.29028,28.6388,0.000745527,0.00172922,0.000249659,0.00178895,0.000685791,1.33594,0.00104218,0.0110067,1098,1723,6.29031,-28.6388
-119,-699,6.27087,28.8136,0.000847672,0.00248062,0.000192468,0.002503,0.000825293,1.45504,0.00147277,0.0158175,1105,1723,6.27086,-28.8136
-112,-699,6.25562,29.0186,0.000984847,0.00309411,0.000133775,0.00310256,0.000976397,1.50771,0.00183181,0.0109952,1112,1723,6.25558,-29.0185
-105,-699,6.26758,29.21,0.00109602,0.00347446,3.37584e-05,0.00347493,0.00109554,1.55661,0.00205139,0.0117231,1119,1723,6.26752,-29.21
-98,-699,6.32117,29.3635,0.00121497,0.00365144,7.36048e-06,0.00365146,0.00121494,1.56778,0.00214713,0.014202,1126,1723,6.32118,-29.3635
-91,-699,6.3335,29.5455,0.00139991,0.00367649,-5.81151e-05,0.00367797,0.00139843,-1.54529,0.00214369,0.020543,1133,1723,6.33349,-29.5455
-84,-699,6.33081,29.7335,0.00169268,0.0034597,-0.000200558,0.00348218,0.0016702,-1.45919,0.00201099,0.0246151,1140,1723,6.33075,-29.7335
-77,-699,6.32776,29.8523,0.00209656,0.00325889,-0.000493123,0.00343991,0.00191554,-1.21898,0.00199031,0.0159378,1147,1723,6.32771,-29.8523
-70,-699,6.34155,30.02,0.00250028,0.00284439,-0.00089142,0.00358021,0.00176446,-0.880733,0.0020671,0.0160046,1154,1723,6.34152,-30.02
-63,-699,6.3584,30.1879,0.0023819,0.00255497,-0.000799583,0.00327269,0.00166418,-0.839302,0.00188958,0.0136691,1161,1723,6.35838,-30.1879
-56,-699,6.35059,30.2906,0.00404206,0.00316526,-0.00186649,0.00552094,0.00168637,-0.67005,0.00326696,0.0102177,1168,1723,6.35058,-30.2907
-49,-699,6.3407,30.4563,0.00522457,0.00313759,-0.00187417,0.00632617,0.002036,-0.531385,0.0037289,0.0239067,1175,1723,6.34075,-30.4563
-42,-699,6.33484,30.636,0.00615005,0.00357897,-0.00130917,0.00669932,0.0030297,-0.397253,0.00387373,0.0285145,1182,1723,6.33485,-30.636
-35,-699,6.38953,30.7192,0.0068674,0.00469409,-0.000928468,0.00721004,0.00435146,-0.35353,0.00419236,0.027017,1189,1723,6.38952,-30.7192
-28,-699,6.4657,30.7782,0.00735376,0.00618355,-0.000760247,0.00772799,0.00580932,-0.457426,0.00464641,0.0212172,1196,1723,6.46571,-30.7782
-21,-699,6.47717,30.8093,0.00886397,0.00809818,-0.00081546,0.00938196,0.0075802,-0.565904,0.00574895,0.0138116,1203,1723,6.47712,-30.8093
-14,-699,6.48743,30.9005,0.0106764,0.00975726,-0.000347256,0.0107929,0.00964082,-0.32353,0.00684364,0.0121177,1210,1723,6.48748,-30.9006
-7,-699,6.51331,31.0134,0.0118286,0.0112815,0.000160704,0.0118723,0.0112378,0.265582,0.00771205,0.00906282,1217,1723,6.51327,-31.0134
0,-699,6.54785,31.0955,0.0130513,0.0131063,0.000720252,0.0137996,0.012358,0.804494,0.00875884,0.0102761,1224,1723,6.54788,-31.0954
7,-699,6.5592,31.1622,0.0141356,0.0148713,0.00160666,0.0161517,0.0128552,0.89794,0.0098545,0.015939,1231,1723,6.55923,-31.1623
14,-699,6.60522,31.2428,0.0151013,0.0168848,0.00246962,0.0186187,0.0133674,0.958655,0.0110847,0.0175928,1238,1723,6.60527,-31.2428
21,-699,6.66748,31.2732,0.0155792,0.0187417,0.00358626,0.0210798,0.013241,0.993038,0.0123029,0.0155781,1245,1723,6.66748,-31.2732
28,-699,6.70447,31.2773,0.0153553,0.0217746,0.00468271,0.0242421,0.0128878,1.08584,0.0140055,0.0156162,1252,1723,6.70445,-31.2774
35,-699,6.72144,31.3464,0.0148832,0.0245563,0.00583083,0.0272955,0.0121441,1.13163,0.0157909,0.0146467,1259,1723,6.72146,-31.3464
42,-699,6.74744,31.3982,0.0142642,0.0265301,0.00648019,0.0293194,0.011475,1.16433,0.0170602,0.0130415,1266,1723,6.74745,-31.3982
49,-699,6.79749,31.4512,0.0130237,0.028126,0.00737452,0.0311296,0.0100201,1.18401,0.0183489,0.0145325,1273,1723,6.79754,-31.4511
56,-699,6.84973,31.4871,0.0120358,0.0294686,0.00845366,0.0328947,0.00860972,1.18575,0.0196974,0.0154362,1280,1723,6.84972,-31.487
63,-699,6.8811,31.4703,0.0105941,0.0304021,0.00910539,0.0339516,0.0070446,1.19909,0.0206899,0.0127685,1287,1723,6.88108,-31.4704
70,-699,6.90393,31.4846,0.00875159,0.030086,0.00918701,0.0334968,0.00534078,1.21531,0.020781,0.0105998,1294,1723,6.90395,-31.4846
77,-699,6.88867,31.4889,0.00729921,0.0292819,0.00926922,0.0326686,0.00391251,1.2205,0.0205991,0.0109263,1301,1723,6.8887,-31.4889
84,-699,6.89465,31.4506,0.00535224,0.0275855,0.00927323,0.0309455,0.00199226,1.22318,0.0199993,0.0136064,1308,1723,6.89462,-31.4505
91,-699,6.96558,31.4215,0.00356722,0.0255299,0.00878349,0.0286105,0.000486569,1.23347,0.0189136,0.0133208,1315,1723,6.96553,-31.4215
98,-699,7.02209,31.4089,0.00289004,0.0231787,0.0082883,0.0261341,-6.53826e-05,1.22827,0.0174446,0.0117034,1322,1723,7.02209,-31.4089
105,-699,7.05054,31.3917,0.00239972,0.0203583,0.00764114,0.0231695,-0.000411431,1.21827,0.0155853,0.0155732,1329,1723,7.05056,-31.3917
112,-699,7.09631,31.3456,0.00203877,0.0177656,0.00688139,0.0203514,-0.000547072,1.21135,0.0137536,0.0212071,1336,1723,7.09637,-31.3456
119,-699,7.0592,31.3077,0.00143528,0.0148312,0.00633593,0.0173531,-0.00108667,1.19198,0.0119475,0.0164175,1343,1723,7.05917,-31.3078
126,-699,7.08032,31.2391,0.00111236,0.0120848,0.00558841,0.0144299,-0.00123269,1.17348,0.010056,0.0180576,1350,1723,7.08029,-31.2391
133,-699,7.13818,31.1696,0.001165,0.00847813,0.00489384,0.0109306,-0.00128746,1.10624,0.00775193,0.0156741,1357,1723,7.13814,-31.1696
140,-699,7.18237,31.1102,0.000981773,0.00596734,0.00407021,0.00824745,-0.00129834,1.06016,0.00597827,0.0167865,1364,1723,7.18242,-31.1103
147,-699,7.19238,31.0535,0.000899878,0.0048812,0.00387535,0.00724727,-0.00146619,1.02266,0.00538716,0.0143781,1371,1723,7.19237,-31.0535
154,-699,7.18457,30.9658,0.00126022,0.00463503,0.00350907,0.00684133,-0.00094608,1.00951,0.00490675,0.0141584,1378,1723,7.18459,-30.9658
161,-699,7.24792,30.8767,0.00077784,0.00313582,0.00200149,0.00427976,-0.000366096,1.05156,0.0029827,0.0104164,1385,1723,7.24794,-30.8767
168,-699,7.27795,30.8044,0.00146392,0.0020049,0.00151074,0.00326918,0.000199647,0.873983,0.00211604,0.0117316,1392,1723,7.27799,-30.8044
175,-699,7.32532,30.7123,0.00306397,0.00242232,0.00244744,0.00521152,0.00027477,0.720227,0.00338648,0.0137567,1399,1723,7.32535,-30.7123
182,-699,7.328,30.5697,0.00295677,0.00188045,0.00245814,0.00493497,-9.77544e-05,0.677634,0.00332304,0.0147404,1406,1723,7.32799,-30.5697
189,-699,7.3208,30.4381,0.00230045,0.0019225,0.00214376,0.00426354,-4.05987e-05,0.741436,0.00285599,0.0170006,1413,1723,7.32081,-30.4381
196,-699,7.3291,30.3029,0.00166156,0.00182889,0.00158458,0.00333201,0.000158442,0.811774,0.00217045,0.0164676,1420,1723,7.3291,-30.3028
203,-699,7.34241,30.1821,0.00113877,0.0014716,0.00126251,0.00257862,3.17554e-05,0.850927,0.00170859,0.0135715,1427,1723,7.34237,-30.1821
210,-699,7.35645,30.0624,0.00062345,0.00145018,0.00117425,0.0022817,-0.000208068,0.954637,0.00159502,0.0129953,1434,1723,7.3565,-30.0624
217,-699,7.36853,29.9303,0.00018756,0.00116204,0.000862563,0.00166546,-0.000315866,1.04249,0.0012292,0.0131894,1441,1723,7.36847,-29.9303
224,-699,7.36255,29.7804,8.05684e-05,0.000942511,0.000681866,0.00131819,-0.000295106,1.06722,0.000991902,0.0145323,1448,1723,7.36258,-29.7804
231,-699,7.38916,29.6151,8.49294e-05,0.000682573,0.000413038,0.00089355,-0.000126048,1.09855,0.000641855,0.0115107,1455,1723,7.38918,-29.6152
238,-699,7.38672,29.4408,0.000371861,0.000628598,2.73201e-05,0.000631473,0.000368985,1.46595,0.000366305,0.0104482,1462,1723,7.38675,-29.4408
245,-699,7.37952,29.267,0.000638205,0.000503747,-0.000249548,0.000829421,0.00031253,-0.653821,0.000483688,0.0120516,1469,1723,7.37949,-29.267
252,-699,7.37537,29.1067,0.000817559,0.000392784,-0.000485731,0.00113531,7.50363e-05,-0.579297,0.00073314,0.0101339,1476,1723,7.37542,-29.1067
259,-699,7.35828,28.9489,0.000949002,0.000362359,-0.000724357,0.00143717,-0.000125812,-0.593019,0.00100269,0.0104576,1483,1723,7.35833,-28.9488
266,-699,7.36487,28.7802,0.000994688,0.000527168,-0.00100133,0.00178918,-0.000267324,-0.670727,0.00129115,0.0123589,1490,1723,7.36492,-28.7801
273,-699,7.39465,28.5836,0.00101826,0.00094387,-0.001208,0.00218964,-0.000227507,-0.770007,0.0015412,0.0115121,1497,1723,7.39465,-28.5837
280,-699,7.3999,28.363,0.00109627,0.00115532,-0.00141942,0.00254552,-0.00029393,-0.795798,0.00180299,0.011203,1504,1723,7.39995,-28.3631
287,-699,7.39233,28.1434,0.00104048,0.00170469,-0.00161714,0.00302348,-0.000278308,-0.886672,0.00211454,0.0094657,1511,1723,7.39227,-28.1435
294,-699,7.39258,27.9421,0.00103022,0.00241909,-0.00184144,0.00369268,-0.000243377,-0.96571,0.00254679,0.0103147,1518,1723,7.39253,-27.9421
301,-699,7.36987,27.7441,0.00107246,0.00313607,-0.00216468,0.00450228,-0.000293755,-1.0078,0.00310407,0.0123175,1525,1723,7.36984,-27.7441
308,-699,7.35168,27.5172,0.0010355,0.00365226,-0.00244218,0.00511446,-0.000426702,-1.03131,0.0035604,0.0169185,1532,1723,7.35163,-27.5172
315,-699,7.37366,27.278,0.00108007,0.00401361,-0.0026662,0.00558987,-0.00049619,-1.03687,0.00390251,0.0193883,1539,1723,7.37365,-27.2779
322,-699,7.32141,27.0339,0.00117318,0.00431964,-0.00282585,0.00598068,-0.000487853,-1.0394,0.00415929,0.0186954,1546,1723,7.32137,-27.0339
329,-699,7.28674,26.8191,0.00117008,0.0038275,-0.00275212,0.00555487,-0.000557296,-1.01029,0.0039023,0.01523,1553,1723,7.28674,-26.8191
336,-699,7.29907,26.597,0.00101041,0.00313522,-0.0026462,0.00492433,-0.000778693,-0.97629,0.00357086,0.0175415,1560,1723,7.29906,-26.5971
343,-699,7.34363,26.3453,0.000680678,0.00187652,-0.0020848,0.00344745,-0.000890248,-0.92505,0.00264546,0.022447,1567,1723,7.34367,-26.3454
350,-699,7.33093,26.0752,0.000361974,-0.000253039,-0.000800252,0.000911768,-0.000802833,-0.601965,0.000990591,0.030741,1574,1723,7.33096,-26.0753
357,-699,7.3186,25.8245,-7.24472e-05,-0.00361367,0.000782882,9.29085e-05,-0.00377903,0.208155,0.00255089,0.0381874,1581,1723,7.31865,-25.8244
364,-699,7.25537,25.6708,-0.000437442,-0.00809673,0.00277936,0.00046483,-0.008999,0.3139,0.00616013,0.042974,1588,1723,7.25539,-25.6708
371,-699,7.25378,25.494,0,0,0,0,0,0,0,-1,1595,1723,7.25381,-25.494
378,-699,7.21777,25.9105,0,0,0,0,0,0,0,-1,1602,1723,7.21773,-25.9105
385,-699,6.32727,24.7136,0,0,0,0,0,0,0,-1,1609,1723,6.32725,-24.7136
392,-699,6.84766,24.4685,0,0,0,0,0,0,0,-1,1616,1723,6.84761,-24.4686
399,-699,3.91516,9.81726,0,0,0,0,0,0,0,-1,1623,1723,3.9152,-9.81721
406,-699,5.50757,21.6672,0,0,0,0,0,0,0,-1,1630,1723,5.50755,-21.6672
413,-699,9.31396,23.2781,0,0,0,0,0,0,0,-1,1637,1723,9.31396,-23.278
420,-699,2.15076,7.65527,0,0,0,0,0,0,0,-1,1644,1723,2.15079,-7.65522
427,-699,3.36328,8.2428,0,0,0,0,0,0,0,-1,1651,1723,3.36332,-8.24283
434,-699,4.66455,8.90222,0,0,0,0,0,0,0,-1,1658,1723,4.66456,-8.90223
441,-699,0,0,0,0,0,0,0,0,0,-1,1665,1723,0,0
448,-699,0,0,0,0,0,0,0,0,0,-1,1672,1723,0,0
455,-699,0,0,0,0,0,0,0,0,0,-1,1679,1723,0,0
462,-699,0,0,0,0,0,0,0,0,0,-1,1686,1723,0,0
469,-699,0,0,0,0,0,0,0,0,0,-1,1693,1723,0,0
476,-699,0,0,0,0,0,0,0,0,0,-1,1700,1723,0,0
483,-699,0,0,0,0,0,0,0,0,0,-1,1707,1723,0,0
490,-699,0,0,0,0,0,0,0,0,0,-1,1714,1723,0,0
497,-699,0,0,0,0,0,0,0,0,0,-1,1721,1723,0,0
504,-699,0,0,0,0,0,0,0,0,0,-1,1728,1723,0,0
511,-699,0,0,0,0,0,0,0,0,0,-1,1735,1723,0,0
518,-699,0,0,0,0,0,0,0,0,0,-1,1742,1723,0,0
525,-699,0,0,0,0,0,0,0,0,0,-1,1749,1723,0,0
532,-699,0,0,0,0,0,0,0,0,0,-1,1756,1723,0,0
539,-699,0,0,0,0,0,0,0,0,0,-1,1763,1723,0,0
546,-699,0,0,0,0,0,0,0,0,0,-1,1770,1723,0,0
553,-699,0,0,0,0,0,0,0,0,0,-1,1777,1723,0,0
560,-699,0,0,0,0,0,0,0,0,0,-1,1784,1723,0,0
567,-699,0,0,0,0,0,0,0,0,0,-1,1791,1723,0,0
574,-699,0,0,0,0,0,0,0,0,0,-1,1798,1723,0,0
581,-699,0,0,0,0,0,0,0,0,0,-1,1805,1723,0,0
588,-699,0,0,0,0,0,0,0,0,0,-1,1812,1723,0,0
595,-699,0,0,0,0,0,0,0,0,0,-1,1819,1723,0,0
602,-699,0,0,0,0,0,0,0,0,0,-1,1826,1723,0,0
609,-699,0,0,0,0,0,0,0,0,0,-1,1833,1723,0,0
616,-699,0,0,0,0,0,0,0,0,0,-1,1840,1723,0,0
623,-699,0,0,0,0,0,0,0,0,0,-1,1847,1723,0,0
630,-699,0,0,0,0,0,0,0,0,0,-1,1854,1723,0,0
637,-699,0,0,0,0,0,0,0,0,0,-1,1861,1723,0,0
644,-699,0,0,0,0,0,0,0,0,0,-1,1868,1723,0,0
651,-699,0,0,0,0,0,0,0,0,0,-1,1875,1723,0,0
658,-699,0,0,0,0,0,0,0,0,0,-1,1882,1723,0,0
665,-699,0,0,0,0,0,0,0,0,0,-1,1889,1723,0,0
672,-699,0,0,0,0,0,0,0,0,0,-1,1896,1723,0,0
679,-699,0,0,0,0,0,0,0,0,0,-1,1903,1723,0,0
686,-699,0,0,0,0,0,0,0,0,0,-1,1910,1723,0,0
693,-699,0,0,0,0,0,0,0,0,0,-1,1917,1723,0,0
700,-699,0,0,0,0,0,0,0,0,0,-1,1924,1723,0,0
707,-699,0,0,0,0,0,0,0,0,0,-1,1931,1723,0,0
714,-699,0,0,0,0,0,0,0,0,0,-1,1938,1723,0,0
721,-699,0,0,0,0,0,0,0,0,0,-1,1945,1723,0,0
728,-699,0,0,0,0,0,0,0,0,0,-1,1952,1723,0,0
735,-699,0,0,0,0,0,0,0,0,0,-1,1959,1723,0,0
742,-699,0,0,0,0,0,0,0,0,0,-1,1966,1723,0,0
749,-699,0,0,0,0,0,0,0,0,0,-1,1973,1723,0,0
756,-699,0,0,0,0,0,0,0,0,0,-1,1980,1723,0,0
763,-699,0,0,0,0,0,0,0,0,0,-1,1987,1723,0,0
770,-699,0,0,0,0,0,0,0,0,0,-1,1994,1723,0,0
777,-699,0,0,0,0,0,0,0,0,0,-1,2001,1723,0,0
784,-699,0,0,0,0,0,0,0,0,0,-1,2008,1723,0,0
791,-699,0,0,0,0,0,0,0,0,0,-1,2015,1723,0,0
798,-699,0,0,0,0,0,0,0,0,0,-1,2022,1723,0,0
805,-699,0,0,0,0,0,0,0,0,0,-1,2029,1723,0,0
812,-699,0,0,0,0,0,0,0,0,0,-1,2036,1723,0,0
-700,-706,0,0,0,0,0,0,0,0,0,-1,524,1730,0,0
-693,-706,0,0,0,0,0,0,0,0,0,-1,531,1730,0,0
-686,-706,0,0,0,0,0,0,0,0,0,-1,538,1730,0,0
-679,-706,0,0,0,0,0,0,0,0,0,-1,545,1730,0,0
-672,-706,0,0,0,0,0,0,0,0,0,-1,552,1730,0,0
-665,-706,0,0,0,0,0,0,0,0,0,-1,559,1730,0,0
-658,-706,0,0,0,0,0,0,0,0,0,-1,566,1730,0,0
-651,-706,0,0,0,0,0,0,0,0,0,-1,573,1730,0,0
-644,-706,0,0,0,0,0,0,0,0,0,-1,580,1730,0,0
-637,-706,0,0,0,0,0,0,0,0,0,-1,587,1730,0,0
-630,-706,0,0,0,0,0,0,0,0,0,-1,594,1730,0,0
-623,-706,0,0,0,0,0,0,0,0,0,-1,601,1730,0,0
-616,-706,0,0,0,0,0,0,0,0,0,-1,608,1730,0,0
-609,-706,0,0,0,0,0,0,0,0,0,-1,615,1730,0,0
-602,-706,0,0,0,0,0,0,0,0,0,-1,622,1730,0,0
-595,-706,0,0,0,0,0,0,0,0,0,-1,629,1730,0,0
-588,-706,0,0,0,0,0,0,0,0,0,-1,636,1730,0,0
-581,-706,0,0,0,0,0,0,0,0,0,-1,643,1730,0,0
-574,-706,0,0,0,0,0,0,0,0,0,-1,650,1730,0,0
-567,-706,0,0,0,0,0,0,0,0,0,-1,657,1730,0,0
-560,-706,0,0,0,0,0,0,0,0,0,-1,664,1730,0,0
-553,-706,0,0,0,0,0,0,0,0,0,-1,671,1730,0,0
-546,-706,0,0,0,0,0,0,0,0,0,-1,678,1730,0,0
-539,-706,0,0,0,0,0,0,0,0,0,-1,685,1730,0,0
-532,-706,0,0,0,0,0,0,0,0,0,-1,692,1730,0,0
-525,-706,0,0,0,0,0,0,0,0,0,-1,699,1730,0,0
-518,-706,0,0,0,0,0,0,0,0,0,-1,706,1730,0,0
-511,-706,0,0,0,0,0,0,0,0,0,-1,713,1730,0,0
-504,-706,0,0,0,0,0,0,0,0,0,-1,720,1730,0,0
-497,-706,0,0,0,0,0,0,0,0,0,-1,727,1730,0,0
-490,-706,0,0,0,0,0,0,0,0,0,-1,734,1730,0,0
-483,-706,0,0,0,0,0,0,0,0,0,-1,741,1730,0,0
-476,-706,0,0,0,0,0,0,0,0,0,-1,748,1730,0,0
-469,-706,0,0,0,0,0,0,0,0,0,-1,755,1730,0,0
-462,-706,0,0,0,0,0,0,0,0,0,-1,762,1730,0,0
-455,-706,0,0,0,0,0,0,0,0,0,-1,769,1730,0,0
-448,-706,0,0,0,0,0,0,0,0,0,-1,776,1730,0,0
-441,-706,0,0,0,0,0,0,0,0,0,-1,783,1730,0,0
-434,-706,0,0,0,0,0,0,0,0,0,-1,790,1730,0,0
-427,-706,0,0,0,0,0,0,0,0,0,-1,797,1730,0,0
-420,-706,0,0,0,0,0,0,0,0,0,-1,804,1730,0,0
-413,-706,0,0,0,0,0,0,0,0,0,-1,811,1730,0,0
-406,-706,0,0,0,0,0,0,0,0,0,-1,818,1730,0,0
-399,-706,0,0,0,0,0,0,0,0,0,-1,825,1730,0,0
-392,-706,0,0,0,0,0,0,0,0,0,-1,832,1730,0,0
-385,-706,0,0,0,0,0,0,0,0,0,-1,839,1730,0,0
-378,-706,0,0,0,0,0,0,0,0,0,-1,846,1730,0,0
-371,-706,0,0,0,0,0,0,0,0,0,-1,853,1730,0,0
-364,-706,0,0,0,0,0,0,0,0,0,-1,860,1730,0,0
-357,-706,0,0,0,0,0,0,0,0,0,-1,867,1730,0,0
-350,-706,0,0,0,0,0,0,0,0,0,-1,874,1730,0,0
-343,-706,0,0,0,0,0,0,0,0,0,-1,881,1730,0,0
-336,-706,0,0,0,0,0,0,0,0,0,-1,888,1730,0,0
-329,-706,0,0,0,0,0,0,0,0,0,-1,895,1730,0,0
-322,-706,0,0,0,0,0,0,0,0,0,-1,902,1730,0,0
-315,-706,0,0,0,0,0,0,0,0,0,-1,909,1730,0,0
-308,-706,5.08191,14.6245,0,0,0,0,0,0,0,-1,916,1730,5.08188,-14.6245
-301,-706,7.45007,21.1975,0,0,0,0,0,0,0,-1,923,1730,7.45005,-21.1976
-294,-706,11.8603,21.026,0,0,0,0,0,0,0,-1,930,1730,11.8603,-21.026
-287,-706,10.3292,20.8425,0,0,0,0,0,0,0,-1,937,1730,10.3292,-20.8425
-280,-706,7.9162,21.8951,0,0,0,0,0,0,0,-1,944,1730,7.9162,-21.8952
-273,-706,7.38953,20.6355,0,0,0,0,0,0,0,-1,951,1730,7.38955,-20.6355
-266,-706,9.66724,22.8231,0,0,0,0,0,0,0,-1,958,1730,9.66722,-22.8231
-259,-706,3.47852,20.7363,0,0,0,0,0,0,0,-1,965,1730,3.47851,-20.7364
-252,-706,3.84259,20.1979,0,0,0,0,0,0,0,-1,972,1730,3.84256,-20.1979
-245,-706,4.698,19.2992,0,0,0,0,0,0,0,-1,979,1730,4.69799,-19.2991
-238,-706,6.65125,26.0468,0,0,0,0,0,0,0,-1,986,1730,6.65124,-26.0468
-231,-706,6.52405,25.3418,0,0,0,0,0,0,0,-1,993,1730,6.52407,-25.3418
-224,-706,6.96124,25.4143,0,0,0,0,0,0,0,-1,1000,1730,6.96124,-25.4143
-217,-706,6.84229,25.5315,-0.00259641,-0.00166621,0.00994529,0.00782484,-0.0120875,0.808764,0.0115838,0.0441726,1007,1730,6.8423,-25.5315
-210,-706,6.47583,25.9069,-0.00166685,-0.00166135,0.0104708,0.00880667,-0.0121349,0.785529,0.0121414,0.0395589,1014,1730,6.47583,-25.9069
-203,-706,6.57275,26.1188,-0.000753678,-0.00167327,0.0105907,0.00938724,-0.0118142,0.763704,0.0122674,0.0290716,1021,1730,6.57278,-26.1188
-196,-706,6.63391,26.3462,5.01132e-05,-0.00209458,0.010281,0.0093145,-0.011359,0.733434,0.0119553,0.0221924,1028,1730,6.63391,-26.3462
-189,-706,6.6012,26.5891,0.000855283,-0.00265029,0.0091837,0.00845197,-0.010247,0.691103,0.0108124,0.0170153,1035,1730,6.60117,-26.5891
-182,-706,6.5553,26.8717,0.00125514,-0.00296228,0.00789423,0.00731745,-0.00902458,0.654885,0.00945222,0.0128582,1042,1730,6.55531,-26.8717
-175,-706,6.56909,27.1248,0.00117998,-0.00304481,0.0066149,0.00601158,-0.00787641,0.630847,0.0080423,0.0143857,1049,1730,6.56913,-27.1247
-168,-706,6.57495,27.3368,0.00120943,-0.00313413,0.00543976,0.00489492,-0.00681962,0.595472,0.00679375,0.0162541,1056,1730,6.57501,-27.3368
-161,-706,6.54431,27.5614,0.00142722,-0.00306979,0.004254,0.0039904,-0.00563297,0.542281,0.00558297,0.013548,1063,1730,6.54426,-27.5614
-154,-706,6.50891,27.816,0.00128696,-0.00268033,0.00305201,0.00294332,-0.00433668,0.497229,0.0042287,0.0127425,1070,1730,6.50894,-27.816
-147,-706,6.48279,28.0199,0.00110822,-0.00225556,0.00194772,0.00199973,-0.00314706,0.429253,0.00299601,0.0111898,1077,1730,6.48283,-28.0199
-140,-706,6.48901,28.2303,0.000807296,-0.00157819,0.00101278,0.00117928,-0.00195017,0.351992,0.00182497,0.00971349,1084,1730,6.489,-28.2304
-133,-706,6.50085,28.4463,0.000462296,-0.000599521,0.000494261,0.000656755,-0.00079398,0.374833,0.00083883,0.00798935,1091,1730,6.50087,-28.4462
-126,-706,6.49048,28.6333,0.000323569,0.000477215,0.000280007,0.000690747,0.000110038,0.919284,0.000428554,0.0129844,1098,1730,6.49047,-28.6332
-119,-706,6.46875,28.8517,0.0003275,0.00130127,0.000209498,0.00134443,0.000284341,1.36763,0.000818143,0.016558,1105,1730,6.46875,-28.8517
-112,-706,6.45203,29.0314,0.000379666,0.00198961,0.00016031,0.00200542,0.000363859,1.47251,0.00123368,0.0113468,1112,1730,6.45197,-29.0314
-105,-706,6.45386,29.2159,0.000393585,0.00248421,3.19413e-05,0.0024847,0.000393097,1.55552,0.00154223,0.00877624,1119,1730,6.45391,-29.2159
-98,-706,6.47778,29.3639,0.000460771,0.00276975,5.20903e-05,0.00277093,0.000459596,1.54825,0.00171474,0.0112228,1126,1730,6.47776,-29.3639
-91,-706,6.48865,29.5439,0.00059556,0.00293751,4.60521e-05,0.00293841,0.000594654,1.55114,0.00179388,0.0149306,1133,1730,6.4887,-29.5439
-84,-706,6.46033,29.7184,0.000793893,0.00292135,6.89332e-06,0.00292137,0.000793871,1.56756,0.00174426,0.0176876,1140,1730,6.46036,-29.7184
-77,-706,6.4646,29.8627,0.00110813,0.00281355,-0.000167063,0.00282976,0.00109192,-1.47406,0.00164789,0.0165957,1147,1730,6.46459,-29.8627
-70,-706,6.479,30.038,0.00143098,0.00254527,-0.000433553,0.00269409,0.00128216,-1.24015,0.00155603,0.0179481,1154,1730,6.47903,-30.0379
-63,-706,6.48596,30.1837,0.00147233,0.00232923,-0.000420805,0.00250132,0.00130024,-1.1826,0.00144452,0.012739,1161,1730,6.48601,-30.1837
-56,-706,6.51294,30.2987,0.00230367,0.00262584,-0.000928551,0.00340718,0.00152234,-0.871284,0.00197084,0.012617,1168,1730,6.51298,-30.2987
-49,-706,6.49939,30.4237,0.00295893,0.00273984,-0.0011338,0.00398847,0.00171031,-0.737238,0.00231051,0.0136331,1175,1730,6.49944,-30.4237
-42,-706,6.48962,30.5646,0.00366672,0.00299812,-0.00105917,0.00444309,0.00222175,-0.632534,0.00256522,0.0177139,1182,1730,6.48962,-30.5646
-35,-706,6.4989,30.658,0.00436825,0.00362648,-0.00107208,0.00513178,0.00286294,-0.618868,0.00296945,0.018211,1189,1730,6.49892,-30.658
-28,-706,6.54541,30.7365,0.00491975,0.00448884,-0.00118262,0.00590638,0.00350221,-0.695294,0.00342964,0.0113648,1196,1730,6.5454,-30.7364
-21,-706,6.56677,30.8341,0.00583576,0.00557374,-0.00121568,0.00692747,0.00448204,-0.731722,0.00405678,0.0108304,1203,1730,6.56679,-30.8342
-14,-706,6.58704,30.9188,0.00694539,0.0066818,-0.000864197,0.00768779,0.00593941,-0.709728,0.00465321,0.0105066,1210,1730,6.58707,-30.9188
-7,-706,6.61121,31.0098,0.00769933,0.00770009,-0.000464696,0.00816441,0.00723502,-0.785807,0.00516111,0.00875553,1217,1730,6.61123,-31.0097
0,-706,6.63,31.0945,0.00851441,0.0089599,-7.6559e-06,0.00896003,0.00851428,-1.55362,0.00583045,0.0116634,1224,1730,6.62996,-31.0945
7,-706,6.65308,31.16,0.00920843,0.0101026,0.000762427,0.0105394,0.00877168,1.05058,0.00651743,0.0139647,1231,1730,6.65303,-31.16
14,-706,6.65149,31.2347,0.00981672,0.0113839,0.00157372,0.0123583,0.0088423,1.01639,0.00735265,0.0145058,1238,1730,6.65143,-31.2348
21,-706,6.68933,31.2722,0.0100803,0.0124885,0.00259295,0.0141433,0.00842553,1.00277,0.00821538,0.0115429,1245,1730,6.68931,-31.2722
28,-706,6.71045,31.3162,0.00984696,0.0145593,0.00354687,0.0164613,0.00794498,1.07858,0.00950582,0.0122877,1252,1730,6.7105,-31.3162
35,-706,6.72778,31.371,0.00952421,0.0164712,0.00450437,0.0186858,0.0073096,1.11385,0.0108731,0.0152679,1259,1730,6.72777,-31.371
42,-706,6.75464,31.4138,0.00916049,0.017776,0.00504549,0.0201025,0.00683397,1.13874,0.0118027,0.0122874,1266,1730,6.75464,-31.4138
49,-706,6.79492,31.4452,0.00834013,0.018686,0.0057457,0.0212443,0.00578181,1.15189,0.0126828,0.0134521,1273,1730,6.79494,-31.4452
56,-706,6.85022,31.4701,0.00778673,0.0194086,0.00658553,0.0223803,0.00481494,1.14689,0.0136023,0.0134932,1280,1730,6.85027,-31.4701
63,-706,6.85803,31.4523,0.00689284,0.0199391,0.00706209,0.0230297,0.0038022,1.15827,0.0142558,0.0115656,1287,1730,6.85799,-31.4522
70,-706,6.87,31.4427,0.00569901,0.0196021,0.00704449,0.0225475,0.00275365,1.17478,0.014203,0.0119077,1294,1730,6.86994,-31.4427
77,-706,6.87781,31.4537,0.00482972,0.0189393,0.00697878,0.0218079,0.00196113,1.18081,0.013931,0.0106303,1301,1730,6.87784,-31.4538
84,-706,6.88904,31.4492,0.00375094,0.0177072,0.00676631,0.020449,0.00100913,1.1858,0.0133091,0.0087432,1308,1730,6.88899,-31.4492
91,-706,6.93628,31.4442,0.00275565,0.0161711,0.00626042,0.0186387,0.00028806,1.19534,0.0123309,0.00999185,1315,1730,6.93625,-31.4442
98,-706,6.9707,31.4297,0.00238676,0.0145409,0.00581828,0.0168771,5.05578e-05,1.18897,0.0112346,0.014148,1322,1730,6.97066,-31.4297
105,-706,6.99158,31.4015,0.00205333,0.0126338,0.00531462,0.0148423,-0.00015522,1.17695,0.00994703,0.0160756,1329,1730,6.99162,-31.4015
112,-706,6.99292,31.3547,0.00182633,0.0108951,0.00470848,0.0128975,-0.000176137,1.16868,0.00865766,0.0153734,1336,1730,6.9929,-31.3547
119,-706,7.00012,31.3152,0.00142755,0.00893226,0.00426178,0.0108582,-0.000498383,1.14636,0.00741051,0.0133191,1343,1730,7.00007,-31.3152
126,-706,7.01672,31.2667,0.00124691,0.00717003,0.00371039,0.00895587,-0.000538934,1.12221,0.00615809,0.0146028,1350,1730,7.01676,-31.2667
133,-706,7.05359,31.1902,0.00133218,0.00478599,0.00328317,0.00676872,-0.000650557,1.02751,0.00474423,0.0125985,1357,1730,7.05359,-31.1902
140,-706,7.08618,31.115,0.00122816,0.00327533,0.00278597,0.0052198,-0.00071631,0.961447,0.00374156,0.0127967,1364,1730,7.08615,-31.115
147,-706,7.10742,31.0392,0.00117363,0.00274235,0.00264557,0.00471738,-0.000801398,0.92951,0.00344328,0.0226028,1371,1730,7.10737,-31.0392
154,-706,7.12549,30.9661,0.00137284,0.00268173,0.00235469,0.00447123,-0.000416662,0.920943,0.00312897,0.0219485,1378,1730,7.12552,-30.966
161,-706,7.13403,30.8667,0.00104874,0.00200322,0.00144212,0.00304501,6.94627e-06,0.94519,0.0020277,0.0112384,1385,1730,7.13404,-30.8666
168,-706,7.15735,30.7698,0.00137639,0.00142563,0.00109756,0.00249885,0.000303172,0.796611,0.0015746,0.00994931,1392,1730,7.15735,-30.7698
175,-706,7.18689,30.6809,0.00214072,0.00164939,0.00151852,0.00343332,0.000356797,0.705204,0.0021797,0.0103065,1399,1730,7.18688,-30.6809
182,-706,7.19043,30.5609,0.00197938,0.00137191,0.00147136,0.00317803,0.000173263,0.683613,0.00206336,0.010972,1406,1730,7.19045,-30.5609
189,-706,7.1958,30.4255,0.00149457,0.00138783,0.00123822,0.00268057,0.000201826,0.763861,0.00172371,0.0137403,1413,1730,7.19586,-30.4256
196,-706,7.20251,30.297,0.00104926,0.00130609,0.000858122,0.00204535,0.000309996,0.85967,0.00127288,0.0122142,1420,1730,7.2025,-30.2969
203,-706,7.19971,30.1791,0.000721044,0.00110864,0.000606517,0.00155157,0.000278116,0.940035,0.000955265,0.0129216,1427,1730,7.19967,-30.1791
210,-706,7.19812,30.0548,0.00037345,0.00108659,0.000494899,0.00133999,0.000120046,1.09757,0.000856121,0.0121544,1434,1730,7.19812,-30.0548
217,-706,7.2002,29.9335,6.24349e-05,0.000870185,0.000229786,0.000930978,1.64146e-06,1.31216,0.000620106,0.0129876,1441,1730,7.20025,-29.9335
224,-706,7.16858,29.7882,-1.97184e-05,0.000680326,3.30903e-05,0.000681887,-2.1279e-05,1.52367,0.000461848,0.0180297,1448,1730,7.1686,-29.7882
231,-706,7.21436,29.6039,-5.13374e-05,0.000455324,-0.000189954,0.00051863,-0.000114644,-1.2491,0.000389631,0.0135762,1455,1730,7.2144,-29.6039
238,-706,7.21399,29.4373,3.98606e-05,0.000324681,-0.000388189,0.000595757,-0.000231216,-0.961205,0.000492673,0.0087658,1462,1730,7.21404,-29.4373
245,-706,7.2019,29.262,0.000183027,0.0002156,-0.000575447,0.000774991,-0.000376364,-0.799546,0.000677885,0.0114288,1469,1730,7.20191,-29.262
252,-706,7.19641,29.1121,0.000288252,0.000177314,-0.000762338,0.000997137,-0.00053157,-0.749081,0.000896139,0.0113795,1476,1730,7.19638,-29.1121
259,-706,7.19556,28.9432,0.000349802,0.000216444,-0.000976059,0.00126146,-0.000695211,-0.751294,0.00114534,0.0123812,1483,1730,7.19556,-28.9432
266,-706,7.19214,28.7712,0.000346884,0.000552491,-0.00127944,0.00173325,-0.000833879,-0.825487,0.00151215,0.0124818,1490,1730,7.19209,-28.7713
273,-706,7.2063,28.5835,0.000396368,0.00121217,-0.00151894,0.00237702,-0.00076849,-0.916574,0.00189356,0.0121882,1497,1730,7.20635,-28.5835
280,-706,7.19128,28.3691,0.000558913,0.0015919,-0.00178059,0.0029294,-0.000778582,-0.926559,0.00225766,0.0101326,1504,1730,7.19123,-28.3692
287,-706,7.16504,28.1401,0.000628183,0.00239653,-0.00209672,0.00378788,-0.000763168,-0.984931,0.00281435,0.0101643,1511,1730,7.165,-28.1402
294,-706,7.18335,27.9423,0.000812399,0.00341765,-0.00244533,0.00488567,-0.000655616,-1.03013,0.0034962,0.0102374,1518,1730,7.18341,-27.9422
301,-706,7.16882,27.7349,0.00106273,0.00448277,-0.00291774,0.00615467,-0.000609168,-1.05046,0.00432051,0.00984776,1525,1730,7.16887,-27.7349
308,-706,7.15601,27.5122,0.0012051,0.00522736,-0.00331157,0.00709065,-0.000658192,-1.05828,0.00496107,0.0119741,1532,1730,7.15596,-27.5122
315,-706,7.14355,27.2869,0.00146774,0.00583362,-0.00365246,0.00790576,-0.000604394,-1.05475,0.00548308,0.0197576,1539,1730,7.14354,-27.2868
322,-706,7.0957,27.1056,0.0018179,0.0063861,-0.00392437,0.00864269,-0.000438679,-1.04895,0.00591345,0.0268401,1546,1730,7.09574,-27.1056
329,-706,7.13867,26.8145,0.00200286,0.00596086,-0.00388098,0.00833828,-0.000374571,-1.02118,0.00568783,0.0253221,1553,1730,7.13872,-26.8145
336,-706,7.10889,26.45,0.00202905,0.00521718,-0.00381452,0.00775731,-0.000511087,-0.983316,0.00535005,0.035554,1560,1730,7.10889,-26.45
343,-706,7.13086,26.1427,0.00167848,0.00364585,-0.00310483,0.0059191,-0.000594768,-0.938808,0.00415853,0.0416267,1567,1730,7.13085,-26.1427
350,-706,7.25952,25.9148,0.0012825,0.0010608,-0.00148749,0.00266326,-0.000319967,-0.748207,0.00189121,0.0469484,1574,1730,7.25956,-25.9149
357,-706,7.13721,25.9282,0,0,0,0,0,0,0,-1,1581,1730,7.13723,-25.9283
364,-706,7.06763,25.8376,0,0,0,0,0,0,0,-1,1588,1730,7.06764,-25.8376
371,-706,6.27881,24.0759,0,0,0,0,0,0,0,-1,1595,1730,6.27883,-24.0759
378,-706,4.80444,25.0989,0,0,0,0,0,0,0,-1,1602,1730,4.80445,-25.0989
385,-706,5.55212,24.9753,0,0,0,0,0,0,0,-1,1609,1730,5.55214,-24.9753
392,-706,6.2998,24.8518,0,0,0,0,0,0,0,-1,1616,1730,6.29983,-24.8518
399,-706,3.9502,25.5428,0,0,0,0,0,0,0,-1,1623,1730,3.95019,-25.5428
406,-706,6.04211,18.8085,0,0,0,0,0,0,0,-1,1630,1730,6.04216,-18.8085
413,-706,6.23413,20.7725,0,0,0,0,0,0,0,-1,1637,1730,6.23413,-20.7725
420,-706,6.51294,21.9171,0,0,0,0,0,0,0,-1,1644,1730,6.51292,-21.9171
427,-706,0,0,0,0,0,0,0,0,0,-1,1651,1730,0,0
434,-706,0,0,0,0,0,0,0,0,0,-1,1658,1730,0,0
441,-706,0,0,0,0,0,0,0,0,0,-1,1665,1730,0,0
448,-706,0,0,0,0,0,0,0,0,0,-1,1672,1730,0,0
455,-706,0,0,0,0,0,0,0,0,0,-1,1679,1730,0,0
462,-706,0,0,0,0,0,0,0,0,0,-1,1686,1730,0,0
469,-706,0,0,0,0,0,0,0,0,0,-1,1693,1730,0,0
476,-706,0,0,0,0,0,0,0,0,0,-1,1700,1730,0,0
483,-706,0,0,0,0,0,0,0,0,0,-1,1707,1730,0,0
490,-706,0,0,0,0,0,0,0,0,0,-1,1714,1730,0,0
497,-706,0,0,0,0,0,0,0,0,0,-1,1721,1730,0,0
504,-706,0,0,0,0,0,0,0,0,0,-1,1728,1730,0,0
511,-706,0,0,0,0,0,0,0,0,0,-1,1735,1730,0,0
518,-706,0,0,0,0,0,0,0,0,0,-1,1742,1730,0,0
525,-706,0,0,0,0,0,0,0,0,0,-1,1749,1730,0,0
532,-706,0,0,0,0,0,0,0,0,0,-1,1756,1730,0,0
539,-706,0,0,0,0,0,0,0,0,0,-1,1763,1730,0,0
546,-706,0,0,0,0,0,0,0,0,0,-1,1770,1730,0,0
553,-706,0,0,0,0,0,0,0,0,0,-1,1777,1730,0,0
560,-706,0,0,0,0,0,0,0,0,0,-1,1784,1730,0,0
567,-706,0,0,0,0,0,0,0,0,0,-1,1791,1730,0,0
574,-706,0,0,0,0,0,0,0,0,0,-1,1798,1730,0,0
581,-706,0,0,0,0,0,0,0,0,0,-1,1805,1730,0,0
588,-706,0,0,0,0,0,0,0,0,0,-1,1812,1730,0,0
595,-706,0,0,0,0,0,0,0,0,0,-1,1819,1730,0,0
602,-706,0,0,0,0,0,0,0,0,0,-1,1826,1730,0,0
609,-706,0,0,0,0,0,0,0,0,0,-1,1833,1730,0,0
616,-706,0,0,0,0,0,0,0,0,0,-1,1840,1730,0,0
623,-706,0,0,0,0,0,0,0,0,0,-1,1847,1730,0,0
630,-706,0,0,0,0,0,0,0,0,0,-1,1854,1730,0,0
637,-706,0,0,0,0,0,0,0,0,0,-1,1861,1730,0,0
644,-706,0,0,0,0,0,0,0,0,0,-1,1868,1730,0,0
651,-706,0,0,0,0,0,0,0,0,0,-1,1875,1730,0,0
658,-706,0,0,0,0,0,0,0,0,0,-1,1882,1730,0,0
665,-706,0,0,0,0,0,0,0,0,0,-1,1889,1730,0,0
672,-706,0,0,0,0,0,0,0,0,0,-1,1896,1730,0,0
679,-706,0,0,0,0,0,0,0,0,0,-1,1903,1730,0,0
686,-706,0,0,0,0,0,0,0,0,0,-1,1910,1730,0,0
693,-706,0,0,0,0,0,0,0,0,0,-1,1917,1730,0,0
700,-706,0,0,0,0,0,0,0,0,0,-1,1924,1730,0,0
707,-706,0,0,0,0,0,0,0,0,0,-1,1931,1730,0,0
714,-706,0,0,0,0,0,0,0,0,0,-1,1938,1730,0,0
721,-706,0,0,0,0,0,0,0,0,0,-1,1945,1730,0,0
728,-706,0,0,0,0,0,0,0,0,0,-1,1952,1730,0,0
735,-706,0,0,0,0,0,0,0,0,0,-1,1959,1730,0,0
742,-706,0,0,0,0,0,0,0,0,0,-1,1966,1730,0,0
749,-706,0,0,0,0,0,0,0,0,0,-1,1973,1730,0,0
756,-706,0,0,0,0,0,0,0,0,0,-1,1980,1730,0,0
763,-706,0,0,0,0,0,0,0,0,0,-1,1987,1730,0,0
770,-706,0,0,0,0,0,0,0,0,0,-1,1994,1730,0,0
777,-706,0,0,0,0,0,0,0,0,0,-1,2001,1730,0,0
784,-706,0,0,0,0,0,0,0,0,0,-1,2008,1730,0,0
791,-706,0,0,0,0,0,0,0,0,0,-1,2015,1730,0,0
798,-706,0,0,0,0,0,0,0,0,0,-1,2022,1730,0,0
805,-706,0,0,0,0,0,0,0,0,0,-1,2029,1730,0,0
812,-706,0,0,0,0,0,0,0,0,0,-1,2036,1730,0,0
-700,-713,0,0,0,0,0,0,0,0,0,-1,524,1737,0,0
-693,-713,0,0,0,0,0,0,0,0,0,-1,531,1737,0,0
-686,-713,0,0,0,0,0,0,0,0,0,-1,538,1737,0,0
-679,-713,0,0,0,0,0,0,0,0,0,-1,545,1737,0,0
-672,-713,0,0,0,0,0,0,0,0,0,-1,552,1737,0,0
-665,-713,0,0,0,0,0,0,0,0,0,-1,559,1737,0,0
-658,-713,0,0,0,0,0,0,0,0,0,-1,566,1737,0,0
-651,-713,0,0,0,0,0,0,0,0,0,-1,573,1737,0,0
-644,-713,0,0,0,0,0,0,0,0,0,-1,580,1737,0,0
-637,-713,0,0,0,0,0,0,0,0,0,-1,587,1737,0,0
-630,-713,0,0,0,0,0,0,0,0,0,-1,594,1737,0,0
-623,-713,0,0,0,0,0,0,0,0,0,-1,601,1737,0,0
-616,-713,0,0,0,0,0,0,0,0,0,-1,608,1737,0,0
-609,-713,0,0,0,0,0,0,0,0,0,-1,615,1737,0,0
-602,-713,0,0,0,0,0,0,0,0,0,-1,622,1737,0,0
-595,-713,0,0,0,0,0,0,0,0,0,-1,629,1737,0,0
-588,-713,0,0,0,0,0,0,0,0,0,-1,636,1737,0,0
-581,-713,0,0,0,0,0,0,0,0,0,-1,643,1737,0,0
-574,-713,0,0,0,0,0,0,0,0,0,-1,650,1737,0,0
-567,-713,0,0,0,0,0,0,0,0,0,-1,657,1737,0,0
-560,-713,0,0,0,0,0,0,0,0,0,-1,664,1737,0,0
-553,-713,0,0,0,0,0,0,0,0,0,-1,671,1737,0,0
-546,-713,0,0,0,0,0,0,0,0,0,-1,678,1737,0,0
-539,-713,0,0,0,0,0,0,0,0,0,-1,685,1737,0,0
-532,-713,0,0,0,0,0,0,0,0,0,-1,692,1737,0,0
-525,-713,0,0,0,0,0,0,0,0,0,-1,699,1737,0,0
-518,-713,0,0,0,0,0,0,0,0,0,-1,706,1737,0,0
-511,-713,0,0,0,0,0,0,0,0,0,-1,713,1737,0,0
-504,-713,0,0,0,0,0,0,0,0,0,-1,720,1737,0,0
-497,-713,0,0,0,0,0,0,0,0,0,-1,727,1737,0,0
-490,-713,0,0,0,0,0,0,0,0,0,-1,734,1737,0,0
-483,-713,0,0,0,0,0,0,0,0,0,-1,741,1737,0,0
-476,-713,0,0,0,0,0,0,0,0,0,-1,748,1737,0,0
-469,-713,0,0,0,0,0,0,0,0,0,-1,755,1737,0,0
-462,-713,0,0,0,0,0,0,0,0,0,-1,762,1737,0,0
-455,-713,0,0,0,0,0,0,0,0,0,-1,769,1737,0,0
-448,-713,0,0,0,0,0,0,0,0,0,-1,776,1737,0,0
-441,-713,0,0,0,0,0,0,0,0,0,-1,783,1737,0,0
-434,-713,0,0,0,0,0,0,0,0,0,-1,790,1737,0,0
-427,-713,0,0,0,0,0,0,0,0,0,-1,797,1737,0,0
-420,-713,0,0,0,0,0,0,0,0,0,-1,804,1737,0,0
-413,-713,0,0,0,0,0,0,0,0,0,-1,811,1737,0,0
-406,-713,0,0,0,0,0,0,0,0,0,-1,818,1737,0,0
-399,-713,0,0,0,0,0,0,0,0,0,-1,825,1737,0,0
-392,-713,0,0,0,0,0,0,0,0,0,-1,832,1737,0,0
-385,-713,0,0,0,0,0,0,0,0,0,-1,839,1737,0,0
-378,-713,0,0,0,0,0,0,0,0,0,-1,846,1737,0,0
-371,-713,0,0,0,0,0,0,0,0,0,-1,853,1737,0,0
-364,-713,0,0,0,0,0,0,0,0,0,-1,860,1737,0,0
-357,-713,0,0,0,0,0,0,0,0,0,-1,867,1737,0,0
-350,-713,0,0,0,0,0,0,0,0,0,-1,874,1737,0,0
-343,-713,0,0,0,0,0,0,0,0,0,-1,881,1737,0,0
-336,-713,0,0,0,0,0,0,0,0,0,-1,888,1737,0,0
-329,-713,0,0,0,0,0,0,0,0,0,-1,895,1737,0,0
-322,-713,0,0,0,0,0,0,0,0,0,-1,902,1737,0,0
-315,-713,0,0,0,0,0,0,0,0,0,-1,909,1737,0,0
-308,-713,0,0,0,0,0,0,0,0,0,-1,916,1737,0,0
-301,-713,0,0,0,0,0,0,0,0,0,-1,923,1737,0,0
-294,-713,7.17883,22.0453,0,0,0,0,0,0,0,-1,930,1737,7.17881,-22.0453
-287,-713,11.8916,21.5834,0,0,0,0,0,0,0,-1,937,1737,11.8916,-21.5833
-280,-713,10.2786,21.3551,0,0,0,0,0,0,0,-1,944,1737,10.2787,-21.3551
-273,-713,11.1981,23.8683,0,0,0,0,0,0,0,-1,951,1737,11.198,-23.8683
-266,-713,3.17981,19.8851,0,0,0,0,0,0,0,-1,958,1737,3.17983,-19.8851
-259,-713,3.5921,19.6868,0,0,0,0,0,0,0,-1,965,1737,3.59207,-19.6868
-252,-713,4.55469,20.5758,0,0,0,0,0,0,0,-1,972,1737,4.55466,-20.5758
-245,-713,3.89014,25.9825,0,0,0,0,0,0,0,-1,979,1737,3.89013,-25.9826
-238,-713,5.06873,23.7134,0,0,0,0,0,0,0,-1,986,1737,5.06872,-23.7133
-231,-713,6.71777,25.8722,0,0,0,0,0,0,0,-1,993,1737,6.71777,-25.8722
-224,-713,6.64856,25.6387,0,0,0,0,0,0,0,-1,1000,1737,6.64857,-25.6387
-217,-713,7.21686,25.4268,0,0,0,0,0,0,0,-1,1007,1737,7.21683,-25.4267
-210,-713,6.46545,25.9401,0,0,0,0,0,0,0,-1,1014,1737,6.46545,-25.9401
-203,-713,6.29919,25.9873,-0.000483618,-0.00239725,0.0150966,0.0136865,-0.0165673,0.753751,0.0174934,0.0416989,1021,1737,6.29919,-25.9873
-196,-713,6.14087,26.203,0.000557384,-0.00316736,0.0145043,0.0133184,-0.0159284,0.721547,0.016908,0.0428638,1028,1737,6.14081,-26.2031
-189,-713,6.37073,26.6316,0.00146833,-0.00402946,0.012659,0.0116735,-0.0142346,0.678483,0.0149824,0.0422701,1035,1737,6.37076,-26.6316
-182,-713,6.7135,26.8146,0.00176826,-0.00443047,0.0106946,0.00980353,-0.0124657,0.644358,0.0128878,0.0274644,1042,1737,6.7135,-26.8146
-175,-713,6.83728,27.1592,0,0,0,0,0,0,0,-1,1049,1737,6.83726,-27.1592
-168,-713,6.82886,27.3488,0,0,0,0,0,0,0,-1,1056,1737,6.82891,-27.3487
-161,-713,6.78845,27.5619,0.00163257,-0.00471057,0.00547152,0.00478527,-0.00786327,0.522737,0.00737436,0.0181251,1063,1737,6.78849,-27.5618
-154,-713,6.71448,27.8298,0.0013591,-0.00432919,0.00386726,0.00331546,-0.00628555,0.468339,0.00563086,0.0125838,1070,1737,6.71447,-27.8298
-147,-713,6.69019,28.0599,0.00105945,-0.00389855,0.00241207,0.00203928,-0.00487838,0.385857,0.0041045,0.0174889,1077,1737,6.69013,-28.0599
-140,-713,6.71094,28.2675,0.000603076,-0.00314849,0.0011883,0.000947793,-0.0034932,0.282343,0.00270075,0.0159386,1084,1737,6.71093,-28.2675
-133,-713,6.69031,28.4467,9.61912e-05,-0.00200901,0.000524495,0.000219628,-0.00213244,0.231138,0.00150021,0.00990597,1091,1737,6.6903,-28.4467
-126,-713,6.67883,28.6512,-0.000144459,-0.000732027,0.000252823,-5.06494e-05,-0.000825836,0.355301,0.000534475,0.0163032,1098,1737,6.67885,-28.6513
-119,-713,6.66492,28.8427,-0.000226531,0.000236112,0.000171421,0.000292705,-0.000283124,1.25192,0.00033247,0.0240697,1105,1737,6.66497,-28.8426
-112,-713,6.64905,29.0411,-0.000245927,0.00107981,0.000139486,0.00109432,-0.000260444,1.4671,0.000830096,0.0120063,1112,1737,6.64904,-29.0412
-105,-713,6.65405,29.2065,-0.000330373,0.00176855,-2.95583e-06,0.00176855,-0.000330377,-1.56939,0.00130319,0.0101958,1119,1737,6.65405,-29.2065
-98,-713,6.65039,29.3624,-0.000314014,0.00223654,6.97066e-05,0.00223844,-0.000315918,1.54349,0.00160798,0.0104581,1126,1737,6.65041,-29.3624
-91,-713,6.62598,29.5349,-0.000210124,0.00259006,0.000128854,0.00259598,-0.00021604,1.52491,0.00180698,0.0101656,1133,1737,6.62604,-29.5349
-84,-713,6.60669,29.7112,-9.37199e-05,0.00278846,0.000203253,0.00280272,-0.000107983,1.50074,0.0019055,0.0094445,1140,1737,6.60667,-29.7112
-77,-713,6.61426,29.8853,0.00016045,0.00274546,0.000143095,0.00275335,0.000152553,1.51567,0.00178689,0.0127564,1147,1737,6.61422,-29.8852
-70,-713,6.62598,30.0497,0.000422983,0.00255773,-2.32125e-05,0.00255798,0.000422731,-1.55992,0.00158333,0.0145439,1154,1737,6.62597,-30.0497
-63,-713,6.63782,30.1719,0.000536087,0.00230282,-3.90616e-05,0.00230368,0.000535224,-1.5487,0.00139211,0.0124242,1161,1737,6.63778,-30.1719
-56,-713,6.64111,30.2959,0.000681222,0.00228294,-9.8689e-05,0.002289,0.000675164,-1.50949,0.00135809,0.0125793,1168,1737,6.64106,-30.2959
-49,-713,6.60974,30.4137,0.00082811,0.00233938,-0.000152119,0.00235454,0.000812951,-1.47147,0.00138092,0.0142414,1175,1737,6.60968,-30.4137
-42,-713,6.60559,30.5387,0.00118345,0.00242053,-0.000134511,0.00243498,0.00116899,-1.46373,0.00140621,0.016706,1182,1737,6.60563,-30.5387
-35,-713,6.62781,30.6273,0.00158718,0.00268826,-0.00017766,0.00271622,0.00155923,-1.41472,0.00157393,0.0147603,1189,1737,6.62779,-30.6273
-28,-713,6.65991,30.7322,0.00191411,0.0030762,-0.000297032,0.00314772,0.00184259,-1.33451,0.00182615,0.0131214,1196,1737,6.65997,-30.7322
-21,-713,6.64709,30.8511,0.00237903,0.00359146,-0.000305434,0.00366406,0.00230643,-1.33744,0.00213896,0.00956869,1203,1737,6.6471,-30.8511
-14,-713,6.66553,30.937,0.00298285,0.00423257,-9.24338e-05,0.00423937,0.00297605,-1.49736,0.0025133,0.0108115,1210,1737,6.66556,-30.937
-7,-713,6.69836,31.0118,0.00344189,0.00488489,0.000138386,0.00489805,0.00342874,1.47605,0.00290233,0.00956896,1217,1737,6.69837,-31.0118
0,-713,6.69971,31.0948,0.00401268,0.00571427,0.000417902,0.00581136,0.00391558,1.34251,0.00342208,0.0139337,1224,1737,6.69967,-31.0948
7,-713,6.71851,31.147,0.00454095,0.00648482,0.000910946,0.00684498,0.00418079,1.19429,0.00398415,0.0175534,1231,1737,6.71853,-31.147
14,-713,6.75122,31.2159,0.00501086,0.00728585,0.00149688,0.00802839,0.00426832,1.11031,0.00463829,0.0128569,1238,1737,6.75128,-31.2159
21,-713,6.75562,31.2808,0.00527114,0.00793811,0.00219094,0.00916946,0.00403979,1.05877,0.00530644,0.0104681,1245,1737,6.75563,-31.2807
28,-713,6.74719,31.33,0.00520326,0.00919505,0.00279248,0.0106316,0.00376673,1.09567,0.00622441,0.0108578,1252,1737,6.74717,-31.33
35,-713,6.75647,31.3839,0.00511373,0.0104137,0.00339842,0.0120732,0.00345424,1.11654,0.00717994,0.0117424,1259,1737,6.75649,-31.3839
42,-713,6.77893,31.4327,0.00501848,0.0111775,0.00369357,0.0129069,0.00328905,1.13289,0.00774467,0.011347,1266,1737,6.77898,-31.4328
49,-713,6.7998,31.4299,0.00468581,0.0115604,0.0040463,0.0134323,0.00281391,1.1375,0.00817985,0.010952,1273,1737,6.79976,-31.4299
56,-713,6.8197,31.4279,0.00453963,0.0117642,0.00457505,0.0139811,0.00232271,1.11957,0.00865107,0.011533,1280,1737,6.81971,-31.4279
63,-713,6.8197,31.4561,0.0040994,0.011964,0.00486173,0.0142846,0.00177875,1.12545,0.00898903,0.0122898,1287,1737,6.81976,-31.4561
70,-713,6.8418,31.4532,0.00346741,0.011639,0.00476952,0.0138335,0.00127291,1.13957,0.00882866,0.0119046,1294,1737,6.84174,-31.4532
77,-713,6.86816,31.4484,0.00307335,0.0111157,0.00462894,0.0132262,0.000962899,1.14303,0.00851466,0.0117819,1301,1737,6.86815,-31.4484
84,-713,6.88086,31.4502,0.002576,0.0102291,0.00436772,0.0122094,0.000595705,1.14512,0.00794846,0.0114987,1308,1737,6.88089,-31.4502
91,-713,6.89856,31.4613,0.00212067,0.00910893,0.00397926,0.0109104,0.000319192,1.14568,0.00716958,0.0113688,1315,1737,6.89862,-31.4612
98,-713,6.91858,31.4293,0.00201486,0.00801601,0.00369277,0.00977359,0.000257284,1.12657,0.00643168,0.0117901,1322,1737,6.91859,-31.4294
105,-713,6.93457,31.4032,0.00185735,0.00683509,0.00334772,0.00851775,0.000174686,1.10505,0.00562118,0.0134384,1329,1737,6.93457,-31.4031
112,-713,6.94617,31.377,0.00174744,0.00574486,0.0029343,0.0072965,0.000195801,1.08438,0.0048004,0.013819,1336,1737,6.94613,-31.377
119,-713,6.95715,31.324,0.00153015,0.0045698,0.00259038,0.0060533,4.66532e-05,1.0507,0.00402007,0.0150911,1343,1737,6.95712,-31.324
126,-713,6.96448,31.2896,0.00142217,0.00357085,0.00225771,0.0049968,-3.77907e-06,1.00747,0.00333246,0.0141838,1350,1737,6.96446,-31.2896
133,-713,6.9845,31.2189,0.00144879,0.00224856,0.00205482,0.00394205,-0.000244695,0.8815,0.00271328,0.0128681,1357,1737,6.98452,-31.2189
140,-713,7.01196,31.1428,0.00132844,0.00144303,0.00177692,0.00316358,-0.00039211,0.801515,0.00225117,0.0144631,1364,1737,7.01193,-31.1428
147,-713,7.01257,31.0675,0.00122833,0.00125963,0.00168297,0.00292702,-0.00043906,0.790047,0.00211296,0.0152374,1371,1737,7.01255,-31.0675
154,-713,6.99255,30.9867,0.00127456,0.00131229,0.00144618,0.00273973,-0.000152884,0.79192,0.00187952,0.0144854,1378,1737,6.99258,-30.9867
161,-713,7.00867,30.8717,0.000993935,0.00113408,0.000916895,0.00198358,0.000144438,0.823536,0.00127696,0.0104658,1385,1737,7.00863,-30.8717
168,-713,7.03455,30.7651,0.00103977,0.000916971,0.000681532,0.00166266,0.000294078,0.740475,0.00102458,0.00964304,1392,1737,7.03459,-30.7651
175,-713,7.05139,30.6755,0.00128148,0.00104148,0.000777787,0.00194847,0.00037449,0.708861,0.00119389,0.0127305,1399,1737,7.05141,-30.6756
182,-713,7.04907,30.5754,0.0011,0.000945248,0.000657767,0.00168492,0.000360321,0.726851,0.00102452,0.011487,1406,1737,7.04913,-30.5755
189,-713,7.05652,30.4518,0.000763339,0.000956809,0.000435186,0.00130588,0.000414266,0.894762,0.000770558,0.0107783,1413,1737,7.05654,-30.4518
196,-713,7.08569,30.3164,0.000471186,0.000890869,0.000145361,0.000936298,0.000425757,1.26788,0.00054131,0.0121679,1420,1737,7.08565,-30.3163
203,-713,7.08325,30.1891,0.00029621,0.000844794,-8.97295e-05,0.000859098,0.000281907,-1.41272,0.000505672,0.0158682,1427,1737,7.08328,-30.1891
210,-713,7.06653,30.0482,7.67285e-05,0.000789326,-0.000217212,0.000850316,1.57384e-05,-1.29706,0.000561705,0.0128454,1434,1737,7.06652,-30.0482
217,-713,7.07239,29.9132,-0.000101041,0.000610292,-0.000460518,0.000836498,-0.000327247,-1.11421,0.000693,0.0105134,1441,1737,7.07234,-29.9132
224,-713,7.05334,29.776,-0.000136088,0.00043104,-0.000678916,0.000883231,-0.000588279,-0.983222,0.000855247,0.0119275,1448,1737,7.05333,-29.776
231,-713,7.05786,29.6166,-0.000175866,0.000219036,-0.000874386,0.000917987,-0.000874817,-0.896444,0.00103518,0.0117141,1455,1737,7.0579,-29.6166
238,-713,7.05127,29.4526,-9.99984e-05,0.000105406,-0.0010226,0.00103045,-0.00102504,-0.835446,0.00118674,0.00849657,1462,1737,7.05126,-29.4527
245,-713,7.04663,29.292,5.61475e-05,5.14804e-05,-0.00119832,0.00125213,-0.00114451,-0.784424,0.00138417,0.0108834,1469,1737,7.04667,-29.292
252,-713,7.03955,29.1206,0.000169973,0.000101818,-0.00137979,0.00151611,-0.00124432,-0.773052,0.00159631,0.0111707,1476,1737,7.03953,-29.1206
259,-713,7.03894,28.9388,0.000218927,0.00025445,-0.00159745,0.00183423,-0.00136086,-0.790957,0.00185142,0.0111894,1483,1737,7.03892,-28.9388
266,-713,7.02759,28.7616,0.000204241,0.000809166,-0.00194986,0.00247988,-0.00146647,-0.862345,0.00230333,0.0106358,1490,1737,7.02753,-28.7616
273,-713,7.01355,28.583,0.000288531,0.00175821,-0.00223059,0.00337189,-0.00132514,-0.944519,0.00279633,0.0092377,1497,1737,7.01351,-28.5831
280,-713,6.9895,28.374,0.000520298,0.00236574,-0.00253385,0.00413965,-0.00125361,-0.960014,0.00325902,0.0101661,1504,1737,6.98946,-28.3741
287,-713,6.9624,28.1787,0.000674563,0.00349352,-0.00295532,0.00535826,-0.00119018,-1.00791,0.00402795,0.0108668,1511,1737,6.96237,-28.1788
294,-713,6.96826,27.9908,0.0010066,0.00490311,-0.00340715,0.0068797,-0.000969982,-1.04512,0.00494163,0.0172688,1518,1737,6.96831,-27.9908
301,-713,6.99841,27.7697,0.00141321,0.00642175,-0.00400856,0.00864399,-0.000809034,-1.0646,0.0060504,0.020239,1525,1737,6.99836,-27.7696
308,-713,7.00586,27.5488,0.00167424,0.00745871,-0.00448257,0.00990111,-0.000768171,-1.0719,0.00687113,0.0220504,1532,1737,7.00584,-27.5488
315,-713,6.92236,27.246,0.00214427,0.00841421,-0.00492896,0.0111207,-0.000562219,-1.06864,0.00760813,0.0296771,1539,1737,6.92235,-27.246
322,-713,6.98901,26.777,0.00278418,0.00933551,-0.00531877,0.0123064,-0.000186701,-1.0614,0.00826719,0.0396172,1546,1737,6.98897,-26.777
329,-713,7.22546,26.9915,0.00319807,0.00905317,-0.00530782,0.0121873,6.39725e-05,-1.03742,0.0081036,0.0494299,1553,1737,7.22541,-26.9914
336,-713,7.06787,26.405,0,0,0,0,0,0,0,-1,1560,1737,7.06784,-26.405
343,-713,6.79358,26.0166,0,0,0,0,0,0,0,-1,1567,1737,6.79352,-26.0167
350,-713,6.95959,25.7601,0,0,0,0,0,0,0,-1,1574,1737,6.95959,-25.7601
357,-713,6.4093,25.454,0,0,0,0,0,0,0,-1,1581,1737,6.40932,-25.454
364,-713,7.35474,20.9537,0,0,0,0,0,0,0,-1,1588,1737,7.35472,-20.9537
371,-713,3.07507,25.4108,0,0,0,0,0,0,0,-1,1595,1737,3.07502,-25.4107
378,-713,4.21838,25.306,0,0,0,0,0,0,0,-1,1602,1737,4.21837,-25.306
385,-713,5.078,25.3104,0,0,0,0,0,0,0,-1,1609,1737,5.07795,-25.3104
392,-713,5.92114,25.3118,0,0,0,0,0,0,0,-1,1616,1737,5.92112,-25.3118
399,-713,3.14368,25.2808,0,0,0,0,0,0,0,-1,1623,1737,3.14369,-25.2808
406,-713,1.82678,26.7354,0,0,0,0,0,0,0,-1,1630,1737,1.82679,-26.7354
413,-713,3.24731,18.2787,0,0,0,0,0,0,0,-1,1637,1737,3.24726,-18.2787
420,-713,0,0,0,0,0,0,0,0,0,-1,1644,1737,0,0
427,-713,0,0,0,0,0,0,0,0,0,-1,1651,1737,0,0
434,-713,0,0,0,0,0,0,0,0,0,-1,1658,1737,0,0
441,-713,0,0,0,0,0,0,0,0,0,-1,1665,1737,0,0
448,-713,0,0,0,0,0,0,0,0,0,-1,1672,1737,0,0
455,-713,0,0,0,0,0,0,0,0,0,-1,1679,1737,0,0
462,-713,0,0,0,0,0,0,0,0,0,-1,1686,1737,0,0
469,-713,0,0,0,0,0,0,0,0,0,-1,1693,1737,0,0
476,-713,0,0,0,0,0,0,0,0,0,-1,1700,1737,0,0
483,-713,0,0,0,0,0,0,0,0,0,-1,1707,1737,0,0
490,-713,0,0,0,0,0,0,0,0,0,-1,1714,1737,0,0
497,-713,0,0,0,0,0,0,0,0,0,-1,1721,1737,0,0
504,-713,0,0,0,0,0,0,0,0,0,-1,1728,1737,0,0
511,-713,0,0,0,0,0,0,0,0,0,-1,1735,1737,0,0
518,-713,0,0,0,0,0,0,0,0,0,-1,1742,1737,0,0
525,-713,0,0,0,0,0,0,0,0,0,-1,1749,1737,0,0
532,-713,0,0,0,0,0,0,0,0,0,-1,1756,1737,0,0
539,-713,0,0,0,0,0,0,0,0,0,-1,1763,1737,0,0
546,-713,0,0,0,0,0,0,0,0,0,-1,1770,1737,0,0
553,-713,0,0,0,0,0,0,0,0,0,-1,1777,1737,0,0
560,-713,0,0,0,0,0,0,0,0,0,-1,1784,1737,0,0
567,-713,0,0,0,0,0,0,0,0,0,-1,1791,1737,0,0
574,-713,0,0,0,0,0,0,0,0,0,-1,1798,1737,0,0
581,-713,0,0,0,0,0,0,0,0,0,-1,1805,1737,0,0
588,-713,0,0,0,0,0,0,0,0,0,-1,1812,1737,0,0
595,-713,0,0,0,0,0,0,0,0,0,-1,1819,1737,0,0
602,-713,0,0,0,0,0,0,0,0,0,-1,1826,1737,0,0
609,-713,0,0,0,0,0,0,0,0,0,-1,1833,1737,0,0
616,-713,0,0,0,0,0,0,0,0,0,-1,1840,1737,0,0
623,-713,0,0,0,0,0,0,0,0,0,-1,1847,1737,0,0
630,-713,0,0,0,0,0,0,0,0,0,-1,1854,1737,0,0
637,-713,0,0,0,0,0,0,0,0,0,-1,1861,1737,0,0
644,-713,0,0,0,0,0,0,0,0,0,-1,1868,1737,0,0
651,-713,0,0,0,0,0,0,0,0,0,-1,1875,1737,0,0
658,-713,0,0,0,0,0,0,0,0,0,-1,1882,1737,0,0
665,-713,0,0,0,0,0,0,0,0,0,-1,1889,1737,0,0
672,-713,0,0,0,0,0,0,0,0,0,-1,1896,1737,0,0
679,-713,0,0,0,0,0,0,0,0,0,-1,1903,1737,0,0
686,-713,0,0,0,0,0,0,0,0,0,-1,1910,1737,0,0
693,-713,0,0,0,0,0,0,0,0,0,-1,1917,1737,0,0
700,-713,0,0,0,0,0,0,0,0,0,-1,1924,1737,0,0
707,-713,0,0,0,0,0,0,0,0,0,-1,1931,1737,0,0
714,-713,0,0,0,0,0,0,0,0,0,-1,1938,1737,0,0
721,-713,0,0,0,0,0,0,0,0,0,-1,1945,1737,0,0
728,-713,0,0,0,0,0,0,0,0,0,-1,1952,1737,0,0
735,-713,0,0,0,0,0,0,0,0,0,-1,1959,1737,0,0
742,-713,0,0,0,0,0,0,0,0,0,-1,1966,1737,0,0
749,-713,0,0,0,0,0,0,0,0,0,-1,1973,1737,0,0
756,-713,0,0,0,0,0,0,0,0,0,-1,1980,1737,0,0
763,-713,0,0,0,0,0,0,0,0,0,-1,1987,1737,0,0
770,-713,0,0,0,0,0,0,0,0,0,-1,1994,1737,0,0
777,-713,0,0,0,0,0,0,0,0,0,-1,2001,1737,0,0
784,-713,0,0,0,0,0,0,0,0,0,-1,2008,1737,0,0
791,-713,0,0,0,0,0,0,0,0,0,-1,2015,1737,0,0
798,-713,0,0,0,0,0,0,0,0,0,-1,2022,1737,0,0
805,-713,0,0,0,0,0,0,0,0,0,-1,2029,1737,0,0
812,-713,0,0,0,0,0,0,0,0,0,-1,2036,1737,0,0
-700,-720,0,0,0,0,0,0,0,0,0,-1,524,1744,0,0
-693,-720,0,0,0,0,0,0,0,0,0,-1,531,1744,0,0
-686,-720,0,0,0,0,0,0,0,0,0,-1,538,1744,0,0
-679,-720,0,0,0,0,0,0,0,0,0,-1,545,1744,0,0
-672,-720,0,0,0,0,0,0,0,0,0,-1,552,1744,0,0
-665,-720,0,0,0,0,0,0,0,0,0,-1,559,1744,0,0
-658,-720,0,0,0,0,0,0,0,0,0,-1,566,1744,0,0
-651,-720,0,0,0,0,0,0,0,0,0,-1,573,1744,0,0
-644,-720,0,0,0,0,0,0,0,0,0,-1,580,1744,0,0
-637,-720,0,0,0,0,0,0,0,0,0,-1,587,1744,0,0
-630,-720,0,0,0,0,0,0,0,0,0,-1,594,1744,0,0
-623,-720,0,0,0,0,0,0,0,0,0,-1,601,1744,0,0
-616,-720,0,0,0,0,0,0,0,0,0,-1,608,1744,0,0
-609,-720,0,0,0,0,0,0,0,0,0,-1,615,1744,0,0
-602,-720,0,0,0,0,0,0,0,0,0,-1,622,1744,0,0
-595,-720,0,0,0,0,0,0,0,0,0,-1,629,1744,0,0
-588,-720,0,0,0,0,0,0,0,0,0,-1,636,1744,0,0
-581,-720,0,0,0,0,0,0,0,0,0,-1,643,1744,0,0
-574,-720,0,0,0,0,0,0,0,0,0,-1,650,1744,0,0
-567,-720,0,0,0,0,0,0,0,0,0,-1,657,1744,0,0
-560,-720,0,0,0,0,0,0,0,0,0,-1,664,1744,0,0
-553,-720,0,0,0,0,0,0,0,0,0,-1,671,1744,0,0
-546,-720,0,0,0,0,0,0,0,0,0,-1,678,1744,0,0
-539,-720,0,0,0,0,0,0,0,0,0,-1,685,1744,0,0
-532,-720,0,0,0,0,0,0,0,0,0,-1,692,1744,0,0
-525,-720,0,0,0,0,0,0,0,0,0,-1,699,1744,0,0
-518,-720,0,0,0,0,0,0,0,0,0,-1,706,1744,0,0
-511,-720,0,0,0,0,0,0,0,0,0,-1,713,1744,0,0
-504,-720,0,0,0,0,0,0,0,0,0,-1,720,1744,0,0
-497,-720,0,0,0,0,0,0,0,0,0,-1,727,1744,0,0
-490,-720,0,0,0,0,0,0,0,0,0,-1,734,1744,0,0
-483,-720,0,0,0,0,0,0,0,0,0,-1,741,1744,0,0
-476,-720,0,0,0,0,0,0,0,0,0,-1,748,1744,0,0
-469,-720,0,0,0,0,0,0,0,0,0,-1,755,1744,0,0
-462,-720,0,0,0,0,0,0,0,0,0,-1,762,1744,0,0
-455,-720,0,0,0,0,0,0,0,0,0,-1,769,1744,0,0
-448,-720,0,0,0,0,0,0,0,0,0,-1,776,1744,0,0
-441,-720,0,0,0,0,0,0,0,0,0,-1,783,1744,0,0
-434,-720,0,0,0,0,0,0,0,0,0,-1,790,1744,0,0
-427,-720,0,0,0,0,0,0,0,0,0,-1,797,1744,0,0
-420,-720,0,0,0,0,0,0,0,0,0,-1,804,1744,0,0
-413,-720,0,0,0,0,0,0,0,0,0,-1,811,1744,0,0
-406,-720,0,0,0,0,0,0,0,0,0,-1,818,1744,0,0
-399,-720,0,0,0,0,0,0,0,0,0,-1,825,1744,0,0
-392,-720,0,0,0,0,0,0,0,0,0,-1,832,1744,0,0
-385,-720,0,0,0,0,0,0,0,0,0,-1,839,1744,0,0
-378,-720,0,0,0,0,0,0,0,0,0,-1,846,1744,0,0
-371,-720,0,0,0,0,0,0,0,0,0,-1,853,1744,0,0
-364,-720,0,0,0,0,0,0,0,0,0,-1,860,1744,0,0
-357,-720,0,0,0,0,0,0,0,0,0,-1,867,1744,0,0
-350,-720,0,0,0,0,0,0,0,0,0,-1,874,1744,0,0
-343,-720,0,0,0,0,0,0,0,0,0,-1,881,1744,0,0
-336,-720,0,0,0,0,0,0,0,0,0,-1,888,1744,0,0
-329,-720,0,0,0,0,0,0,0,0,0,-1,895,1744,0,0
-322,-720,0,0,0,0,0,0,0,0,0,-1,902,1744,0,0
-315,-720,0,0,0,0,0,0,0,0,0,-1,909,1744,0,0
-308,-720,0,0,0,0,0,0,0,0,0,-1,916,1744,0,0
-301,-720,0,0,0,0,0,0,0,0,0,-1,923,1744,0,0
-294,-720,0,0,0,0,0,0,0,0,0,-1,930,1744,0,0
-287,-720,0,0,0,0,0,0,0,0,0,-1,937,1744,0,0
-280,-720,6.46796,22.6417,0,0,0,0,0,0,0,-1,944,1744,6.46793,-22.6417
-273,-720,8.54633,13.262,0,0,0,0,0,0,0,-1,951,1744,8.54636,-13.2619
-266,-720,7.28027,13.3165,0,0,0,0,0,0,0,-1,958,1744,7.28026,-13.3166
-259,-720,3.70563,18.6372,0,0,0,0,0,0,0,-1,965,1744,3.70564,-18.6372
-252,-720,4.00989,18.5059,0,0,0,0,0,0,0,-1,972,1744,4.00988,-18.5058
-245,-720,4.63318,20.3199,0,0,0,0,0,0,0,-1,979,1744,4.6332,-20.32
-238,-720,5.02216,24.1455,0,0,0,0,0,0,0,-1,986,1744,5.02217,-24.1455
-231,-720,6.34106,21.7759,0,0,0,0,0,0,0,-1,993,1744,6.34103,-21.7758
-224,-720,7.65991,19.4061,0,0,0,0,0,0,0,-1,1000,1744,7.6599,-19.4061
-217,-720,6.88,25.8169,0,0,0,0,0,0,0,-1,1007,1744,6.88,-25.8168
-210,-720,6.91589,25.3929,0,0,0,0,0,0,0,-1,1014,1744,6.91588,-25.3929
-203,-720,5.97998,25.9202,0,0,0,0,0,0,0,-1,1021,1744,5.97995,-25.9202
-196,-720,5.76599,26.0751,0,0,0,0,0,0,0,-1,1028,1744,5.766,-26.0751
-189,-720,6.16382,26.7277,0,0,0,0,0,0,0,-1,1035,1744,6.16386,-26.7277
-182,-720,6.76819,27.1121,0.00271208,-0.00641619,0.0141687,0.0130336,-0.0167377,0.629582,0.0172328,0.0450209,1042,1744,6.76821,-27.1121
-175,-720,6.57434,27.3906,0,0,0,0,0,0,0,-1,1049,1744,6.57432,-27.3906
-168,-720,6.64844,27.4775,0,0,0,0,0,0,0,-1,1056,1744,6.64842,-27.4775
-161,-720,6.68506,27.6373,0.00217191,-0.00646394,0.00687388,0.00597154,-0.0102636,0.504963,0.0094819,0.0383398,1063,1744,6.68504,-27.6373
-154,-720,6.95288,27.9369,0.00168054,-0.00600022,0.00476065,0.00395672,-0.0082764,0.445994,0.00720808,0.0306832,1070,1744,6.95289,-27.9369
-147,-720,6.89307,28.2084,0.00117878,-0.00546852,0.00287305,0.00224843,-0.00653817,0.356405,0.00527062,0.0274051,1077,1744,6.89312,-28.2083
-140,-720,6.90466,28.3721,0.000476265,-0.00454662,0.00131139,0.000798034,-0.00486839,0.240612,0.0035417,0.0215002,1084,1744,6.90471,-28.3721
-133,-720,6.86426,28.4827,-0.000266971,-0.00315809,0.000490543,-0.000186007,-0.00323905,0.163576,0.00210011,0.0136478,1091,1744,6.86422,-28.4827
-126,-720,6.84399,28.6598,-0.000650476,-0.00161061,0.000158188,-0.000625085,-0.001636,0.159153,0.000953264,0.0123781,1098,1744,6.84404,-28.6598
-119,-720,6.83691,28.8689,-0.000850808,-0.000445216,6.80201e-05,-0.000434112,-0.000861911,1.40899,0.000497629,0.013934,1105,1744,6.83697,-28.8689
-112,-720,6.82129,29.0304,-0.00095138,0.000601452,6.29025e-05,0.000603996,-0.000953924,1.53038,0.000906997,0.0123841,1112,1744,6.82133,-29.0304
-105,-720,6.8208,29.1956,-0.00113532,0.0015129,-7.56752e-05,0.00151506,-0.00113748,-1.54225,0.00153661,0.0116182,1119,1744,6.82085,-29.1956
-98,-720,6.80688,29.3604,-0.00116401,0.0021729,5.59594e-05,0.00217383,-0.00116494,1.55403,0.00195676,0.00971811,1126,1744,6.80688,-29.3603
-91,-720,6.7821,29.5355,-0.00107299,0.00270976,0.000181258,0.00271843,-0.00108166,1.52303,0.0022608,0.00956585,1133,1744,6.78213,-29.5355
-84,-720,6.77087,29.7167,-0.00100365,0.00310561,0.000383376,0.00314107,-0.00103911,1.47856,0.00251308,0.0103866,1140,1744,6.77084,-29.7166
-77,-720,6.771,29.8936,-0.000748827,0.0030435,0.00044132,0.00309418,-0.000799507,1.45646,0.00237459,0.012837,1147,1744,6.77097,-29.8935
-70,-720,6.77209,30.0468,-0.000528944,0.00285384,0.000344975,0.00288866,-0.000563766,1.4702,0.00213861,0.0114428,1154,1744,6.77212,-30.0468
-63,-720,6.76086,30.1637,-0.000409138,0.00245912,0.000336467,0.00249806,-0.000448079,1.45557,0.00183308,0.0115108,1161,1744,6.7609,-30.1637
-56,-720,6.75757,30.2827,-0.000208274,0.00214829,0.000319027,0.00219071,-0.000250699,1.43859,0.00155081,0.013275,1168,1744,6.75762,-30.2827
-49,-720,6.71753,30.3958,-5.36369e-05,0.00185461,0.000264335,0.00189055,-8.95763e-05,1.43566,0.00129126,0.0175272,1175,1744,6.71756,-30.3958
-42,-720,6.72302,30.5254,0.000128935,0.00153443,0.000273022,0.0015856,7.77625e-05,1.38552,0.00103212,0.0189517,1182,1744,6.723,-30.5254
-35,-720,6.76709,30.6331,0.000409416,0.00135086,0.000253556,0.00141481,0.00034547,1.32375,0.000851733,0.0168809,1189,1744,6.76714,-30.633
-28,-720,6.76929,30.735,0.000607001,0.00134037,0.000186157,0.00138492,0.000562454,1.33591,0.000804267,0.0106068,1196,1744,6.76924,-30.735
-21,-720,6.74255,30.8687,0.000810658,0.00147869,0.000211183,0.00153985,0.000749496,1.2889,0.000889136,0.00954322,1203,1744,6.74261,-30.8687
-14,-720,6.74341,30.9514,0.00109389,0.00174073,0.000360185,0.00190139,0.000933225,1.15123,0.00109783,0.0118044,1210,1744,6.7434,-30.9514
-7,-720,6.76978,31.0277,0.00136282,0.00211403,0.000550953,0.00240523,0.00107162,1.08458,0.0013914,0.0118191,1217,1744,6.7698,-31.0277
0,-720,6.7821,31.106,0.00171066,0.00269582,0.000757322,0.00310666,0.00129982,1.07373,0.00180158,0.0122566,1224,1744,6.7821,-31.1059
7,-720,6.78101,31.174,0.00204422,0.00332339,0.00107569,0.00393528,0.00143234,1.05361,0.00229989,0.0153731,1231,1744,6.78101,-31.174
14,-720,6.81189,31.236,0.00235836,0.00400369,0.00146439,0.00486067,0.00150138,1.04132,0.00287383,0.0141843,1238,1744,6.81189,-31.236
21,-720,6.81238,31.2919,0.00256321,0.00465171,0.00191499,0.00578866,0.00142626,1.03501,0.00348244,0.0110084,1245,1744,6.81233,-31.2919
28,-720,6.79956,31.3431,0.00255852,0.00543656,0.00223829,0.00665851,0.00133658,1.07109,0.00406735,0.0111165,1252,1744,6.79961,-31.3431
35,-720,6.80151,31.3984,0.00253512,0.00620131,0.00243183,0.00741355,0.00132289,1.10836,0.00456574,0.0114452,1259,1744,6.80152,-31.3984
42,-720,6.79492,31.4283,0.00252124,0.00667867,0.00249316,0.00784602,0.00135389,1.13289,0.00484288,0.0116693,1266,1744,6.79491,-31.4283
49,-720,6.80774,31.427,0.00235637,0.00681247,0.0025813,0.00799431,0.00117454,1.14144,0.00498437,0.0118194,1273,1744,6.80777,-31.427
56,-720,6.83667,31.449,0.00239314,0.00667874,0.0027469,0.00801978,0.00105211,1.11664,0.00503261,0.00999888,1280,1744,6.83665,-31.449
63,-720,6.84253,31.4734,0.00225069,0.00659408,0.00278481,0.00795387,0.000890895,1.11656,0.00503197,0.0118784,1287,1744,6.84249,-31.4733
70,-720,6.86743,31.468,0.00199531,0.00626271,0.00261976,0.00750774,0.000750277,1.12715,0.00477476,0.012969,1294,1744,6.86747,-31.468
77,-720,6.88379,31.4629,0.00187259,0.00576403,0.0024311,0.00693216,0.000704455,1.12287,0.00440544,0.0145128,1301,1744,6.88373,-31.4629
84,-720,6.87708,31.4456,0.00168572,0.00502354,0.00220889,0.00612311,0.000586154,1.10892,0.00390139,0.0131894,1308,1744,6.87703,-31.4456
91,-720,6.88123,31.4343,0.00153173,0.00417491,0.00199991,0.00525045,0.000456193,1.07737,0.00335858,0.0120312,1315,1744,6.88117,-31.4343
98,-720,6.88196,31.4052,0.00152852,0.00345002,0.00190925,0.00462662,0.000351924,1.0185,0.00297406,0.0117147,1322,1744,6.88201,-31.4051
105,-720,6.87976,31.3823,0.00151614,0.00274267,0.0017881,0.00401975,0.00023906,0.950597,0.00260381,0.0113056,1329,1744,6.87972,-31.3824
112,-720,6.89661,31.3684,0.00151945,0.00211847,0.00162253,0.0034689,0.000169022,0.876668,0.00225837,0.0110199,1336,1744,6.8966,-31.3684
119,-720,6.90784,31.3372,0.00142581,0.00149962,0.00146696,0.00293014,-4.70632e-06,0.797975,0.00195499,0.0118512,1343,1744,6.90782,-31.3371
126,-720,6.9126,31.2881,0.00137383,0.00103148,0.00131291,0.00252668,-0.000121372,0.720574,0.00172633,0.011639,1350,1744,6.91258,-31.2881
133,-720,6.92651,31.239,0.00136617,0.000617607,0.00125419,0.00230073,-0.000316952,0.640391,0.00164965,0.012758,1357,1744,6.92653,-31.2391
140,-720,6.94397,31.1896,0.00126033,0.000403656,0.00116993,0.00207787,-0.000413883,0.609916,0.00154184,0.0193472,1364,1744,6.94392,-31.1896
147,-720,6.92505,31.0931,0.00113922,0.00041184,0.00101414,0.00185291,-0.000301847,0.613231,0.00134721,0.0196018,1371,1744,6.92504,-31.0931
154,-720,6.89856,30.98,0.00106113,0.000503896,0.000775219,0.00160628,-4.12535e-05,0.612884,0.00108487,0.0122023,1378,1744,6.8986,-30.98
161,-720,6.92749,30.8762,0.000820553,0.000584322,0.000484699,0.00120132,0.000203554,0.665883,0.00074239,0.00921517,1385,1744,6.9275,-30.8762
168,-720,6.94116,30.7798,0.000707969,0.000504447,0.000277096,0.000901398,0.000311017,0.609422,0.000528688,0.00971813,1392,1744,6.94118,-30.7798
175,-720,6.93567,30.6678,0.00060085,0.000564391,0.000137478,0.000721302,0.000443939,0.719483,0.000420129,0.0151653,1399,1744,6.93564,-30.6678
182,-720,6.92017,30.5697,0.000403599,0.000600123,-5.68235e-05,0.000615371,0.000388352,-1.30865,0.000359331,0.0154327,1406,1744,6.92018,-30.5697
189,-720,6.92468,30.4613,0.000162417,0.000626283,-0.000309201,0.000780871,7.82931e-06,-1.10718,0.000517991,0.0129323,1413,1744,6.92469,-30.4613
196,-720,6.94702,30.3236,-4.42874e-05,0.000565733,-0.000566953,0.000904513,-0.000383068,-1.03218,0.000763436,0.0131217,1420,1744,6.94703,-30.3236
203,-720,6.94434,30.1804,-0.000124676,0.000659414,-0.000825369,0.00118112,-0.000646378,-1.00712,0.00107005,0.0146265,1427,1744,6.94434,-30.1804
210,-720,6.93408,30.0566,-0.000256801,0.000539042,-0.000962061,0.00118223,-0.000899986,-0.981491,0.00120584,0.0126505,1434,1744,6.9341,-30.0566
217,-720,6.91333,29.9164,-0.000290622,0.000369123,-0.00120843,0.0012919,-0.00121339,-0.91864,0.00144667,0.0120863,1441,1744,6.91331,-29.9164
224,-720,6.91626,29.7676,-0.000256905,0.000184214,-0.00145501,0.00143529,-0.00150798,-0.860619,0.00169947,0.00942441,1448,1744,6.91622,-29.7676
231,-720,6.91003,29.6047,-0.000266121,-3.51932e-05,-0.00165228,0.00150565,-0.00180697,-0.820282,0.00191518,0.00984209,1455,1744,6.91002,-29.6047
238,-720,6.90112,29.438,-0.000159312,-0.00012555,-0.00179453,0.00165217,-0.00193704,-0.790101,0.00207441,0.00847771,1462,1744,6.9011,-29.438
245,-720,6.89209,29.293,4.81135e-05,-0.000129765,-0.00198167,0.00194284,-0.00202449,-0.762973,0.0022907,0.0103886,1469,1744,6.8921,-29.293
252,-720,6.88586,29.1171,0.000198881,4.27382e-06,-0.00217505,0.0022788,-0.00207564,-0.763045,0.00251495,0.0104204,1476,1744,6.88588,-29.1171
259,-720,6.87634,28.9352,0.000259492,0.000274036,-0.0024094,0.00267618,-0.00214265,-0.786907,0.00278783,0.00968888,1483,1744,6.87638,-28.9352
266,-720,6.84448,28.7694,0.00025134,0.00106105,-0.00282067,0.00350577,-0.00219338,-0.856677,0.00331936,0.00852381,1490,1744,6.84453,-28.7694
273,-720,6.823,28.5626,0.000376009,0.00231736,-0.00314812,0.00464105,-0.00194768,-0.934941,0.00390851,0.0153548,1497,1744,6.823,-28.5626
280,-720,6.74023,28.3683,0.000677233,0.00319262,-0.00348989,0.00564452,-0.00177467,-0.958345,0.00447349,0.0232757,1504,1744,6.74025,-28.3682
287,-720,6.66553,28.12,0.000915659,0.00469622,-0.00401664,0.00724515,-0.00163327,-1.00533,0.00545662,0.0389035,1511,1744,6.66558,-28.12
294,-720,6.83716,27.8271,0.00140528,0.00657518,-0.00457012,0.00924075,-0.00126029,-1.04278,0.00662071,0.0397269,1518,1744,6.83711,-27.8271
301,-720,6.87952,27.6639,0.00197357,0.0086764,-0.00530309,0.0115983,-0.000948349,-1.0672,0.00806694,0.0401472,1525,1744,6.8795,-27.6639
308,-720,6.81689,27.4823,0.00234807,0.0100941,-0.00583738,0.0132264,-0.000784291,-1.0783,0.00909034,0.0412016,1532,1744,6.81688,-27.4823
315,-720,6.75378,27.0309,0.00309237,0.0115804,-0.00640867,0.0150229,-0.000350145,-1.07786,0.010134,0.0465313,1539,1744,6.75378,-27.0309
322,-720,6.92334,26.3379,0,0,0,0,0,0,0,-1,1546,1744,6.92335,-26.3379
329,-720,7.34082,27.2889,0,0,0,0,0,0,0,-1,1553,1744,7.34085,-27.2889
336,-720,6.14148,26.5682,0,0,0,0,0,0,0,-1,1560,1744,6.14151,-26.5683
343,-720,6.78552,21.3625,0,0,0,0,0,0,0,-1,1567,1744,6.78551,-21.3625
350,-720,4.0741,11.1836,0,0,0,0,0,0,0,-1,1574,1744,4.07412,-11.1836
357,-720,6.90833,21.4504,0,0,0,0,0,0,0,-1,1581,1744,6.90827,-21.4505
364,-720,5.83777,24.1599,0,0,0,0,0,0,0,-1,1588,1744,5.83773,-24.1599
371,-720,5.46997,23.6176,0,0,0,0,0,0,0,-1,1595,1744,5.47001,-23.6176
378,-720,3.88257,25.5404,0,0,0,0,0,0,0,-1,1602,1744,3.88262,-25.5404
385,-720,4.63611,25.6746,0,0,0,0,0,0,0,-1,1609,1744,4.63612,-25.6746
392,-720,3.49377,23.5042,0,0,0,0,0,0,0,-1,1616,1744,3.4938,-23.5042
399,-720,2.37317,24.7166,0,0,0,0,0,0,0,-1,1623,1744,2.37317,-24.7166
406,-720,0,0,0,0,0,0,0,0,0,-1,1630,1744,0,0
413,-720,0,0,0,0,0,0,0,0,0,-1,1637,1744,0,0
420,-720,0,0,0,0,0,0,0,0,0,-1,1644,1744,0,0
427,-720,0,0,0,0,0,0,0,0,0,-1,1651,1744,0,0
434,-720,0,0,0,0,0,0,0,0,0,-1,1658,1744,0,0
441,-720,0,0,0,0,0,0,0,0,0,-1,1665,1744,0,0
448,-720,0,0,0,0,0,0,0,0,0,-1,1672,1744,0,0
455,-720,0,0,0,0,0,0,0,0,0,-1,1679,1744,0,0
462,-720,0,0,0,0,0,0,0,0,0,-1,1686,1744,0,0
469,-720,0,0,0,0,0,0,0,0,0,-1,1693,1744,0,0
476,-720,0,0,0,0,0,0,0,0,0,-1,1700,1744,0,0
483,-720,0,0,0,0,0,0,0,0,0,-1,1707,1744,0,0
490,-720,0,0,0,0,0,0,0,0,0,-1,1714,1744,0,0
497,-720,0,0,0,0,0,0,0,0,0,-1,1721,1744,0,0
504,-720,0,0,0,0,0,0,0,0,0,-1,1728,1744,0,0
511,-720,0,0,0,0,0,0,0,0,0,-1,1735,1744,0,0
518,-720,0,0,0,0,0,0,0,0,0,-1,1742,1744,0,0
525,-720,0,0,0,0,0,0,0,0,0,-1,1749,1744,0,0
532,-720,0,0,0,0,0,0,0,0,0,-1,1756,1744,0,0
539,-720,0,0,0,0,0,0,0,0,0,-1,1763,1744,0,0
546,-720,0,0,0,0,0,0,0,0,0,-1,1770,1744,0,0
553,-720,0,0,0,0,0,0,0,0,0,-1,1777,1744,0,0
560,-720,0,0,0,0,0,0,0,0,0,-1,1784,1744,0,0
567,-720,0,0,0,0,0,0,0,0,0,-1,1791,1744,0,0
574,-720,0,0,0,0,0,0,0,0,0,-1,1798,1744,0,0
581,-720,0,0,0,0,0,0,0,0,0,-1,1805,1744,0,0
588,-720,0,0,0,0,0,0,0,0,0,-1,1812,1744,0,0
595,-720,0,0,0,0,0,0,0,0,0,-1,1819,1744,0,0
602,-720,0,0,0,0,0,0,0,0,0,-1,1826,1744,0,0
609,-720,0,0,0,0,0,0,0,0,0,-1,1833,1744,0,0
616,-720,0,0,0,0,0,0,0,0,0,-1,1840,1744,0,0
623,-720,0,0,0,0,0,0,0,0,0,-1,1847,1744,0,0
630,-720,0,0,0,0,0,0,0,0,0,-1,1854,1744,0,0
637,-720,0,0,0,0,0,0,0,0,0,-1,1861,1744,0,0
644,-720,0,0,0,0,0,0,0,0,0,-1,1868,1744,0,0
651,-720,0,0,0,0,0,0,0,0,0,-1,1875,1744,0,0
658,-720,0,0,0,0,0,0,0,0,0,-1,1882,1744,0,0
665,-720,0,0,0,0,0,0,0,0,0,-1,1889,1744,0,0
672,-720,0,0,0,0,0,0,0,0,0,-1,1896,1744,0,0
679,-720,0,0,0,0,0,0,0,0,0,-1,1903,1744,0,0
686,-720,0,0,0,0,0,0,0,0,0,-1,1910,1744,0,0
693,-720,0,0,0,0,0,0,0,0,0,-1,1917,1744,0,0
700,-720,0,0,0,0,0,0,0,0,0,-1,1924,1744,0,0
707,-720,0,0,0,0,0,0,0,0,0,-1,1931,1744,0,0
714,-720,0,0,0,0,0,0,0,0,0,-1,1938,1744,0,0
721,-720,0,0,0,0,0,0,0,0,0,-1,1945,1744,0,0
728,-720,0,0,0,0,0,0,0,0,0,-1,1952,1744,0,0
735,-720,0,0,0,0,0,0,0,0,0,-1,1959,1744,0,0
742,-720,0,0,0,0,0,0,0,0,0,-1,1966,1744,0,0
749,-720,0,0,0,0,0,0,0,0,0,-1,1973,1744,0,0
756,-720,0,0,0,0,0,0,0,0,0,-1,1980,1744,0,0
763,-720,0,0,0,0,0,0,0,0,0,-1,1987,1744,0,0
770,-720,0,0,0,0,0,0,0,0,0,-1,1994,1744,0,0
777,-720,0,0,0,0,0,0,0,0,0,-1,2001,1744,0,0
784,-720,0,0,0,0,0,0,0,0,0,-1,2008,1744,0,0
791,-720,0,0,0,0,0,0,0,0,0,-1,2015,1744,0,0
798,-720,0,0,0,0,0,0,0,0,0,-1,2022,1744,0,0
805,-720,0,0,0,0,0,0,0,0,0,-1,2029,1744,0,0
812,-720,0,0,0,0,0,0,0,0,0,-1,2036,1744,0,0
-700,-727,0,0,0,0,0,0,0,0,0,-1,524,1751,0,0
-693,-727,0,0,0,0,0,0,0,0,0,-1,531,1751,0,0
-686,-727,0,0,0,0,0,0,0,0,0,-1,538,1751,0,0
-679,-727,0,0,0,0,0,0,0,0,0,-1,545,1751,0,0
-672,-727,0,0,0,0,0,0,0,0,0,-1,552,1751,0,0
-665,-727,0,0,0,0,0,0,0,0,0,-1,559,1751,0,0
-658,-727,0,0,0,0,0,0,0,0,0,-1,566,1751,0,0
-651,-727,0,0,0,0,0,0,0,0,0,-1,573,1751,0,0
-644,-727,0,0,0,0,0,0,0,0,0,-1,580,1751,0,0
-637,-727,0,0,0,0,0,0,0,0,0,-1,587,1751,0,0
-630,-727,0,0,0,0,0,0,0,0,0,-1,594,1751,0,0
-623,-727,0,0,0,0,0,0,0,0,0,-1,601,1751,0,0
-616,-727,0,0,0,0,0,0,0,0,0,-1,608,1751,0,0
-609,-727,0,0,0,0,0,0,0,0,0,-1,615,1751,0,0
-602,-727,0,0,0,0,0,0,0,0,0,-1,622,1751,0,0
-595,-727,0,0,0,0,0,0,0,0,0,-1,629,1751,0,0
-588,-727,0,0,0,0,0,0,0,0,0,-1,636,1751,0,0
-581,-727,0,0,0,0,0,0,0,0,0,-1,643,1751,0,0
-574,-727,0,0,0,0,0,0,0,0,0,-1,650,1751,0,0
-567,-727,0,0,0,0,0,0,0,0,0,-1,657,1751,0,0
-560,-727,0,0,0,0,0,0,0,0,0,-1,664,1751,0,0
-553,-727,0,0,0,0,0,0,0,0,0,-1,671,1751,0,0
-546,-727,0,0,0,0,0,0,0,0,0,-1,678,1751,0,0
-539,-727,0,0,0,0,0,0,0,0,0,-1,685,1751,0,0
-532,-727,0,0,0,0,0,0,0,0,0,-1,692,1751,0,0
-525,-727,0,0,0,0,0,0,0,0,0,-1,699,1751,0,0
-518,-727,0,0,0,0,0,0,0,0,0,-1,706,1751,0,0
-511,-727,0,0,0,0,0,0,0,0,0,-1,713,1751,0,0
-504,-727,0,0,0,0,0,0,0,0,0,-1,720,1751,0,0
-497,-727,0,0,0,0,0,0,0,0,0,-1,727,1751,0,0
-490,-727,0,0,0,0,0,0,0,0,0,-1,734,1751,0,0
-483,-727,0,0,0,0,0,0,0,0,0,-1,741,1751,0,0
-476,-727,0,0,0,0,0,0,0,0,0,-1,748,1751,0,0
-469,-727,0,0,0,0,0,0,0,0,0,-1,755,1751,0,0
-462,-727,0,0,0,0,0,0,0,0,0,-1,762,1751,0,0
-455,-727,0,0,0,0,0,0,0,0,0,-1,769,1751,0,0
-448,-727,0,0,0,0,0,0,0,0,0,-1,776,1751,0,0
-441,-727,0,0,0,0,0,0,0,0,0,-1,783,1751,0,0
-434,-727,0,0,0,0,0,0,0,0,0,-1,790,1751,0,0
-427,-727,0,0,0,0,0,0,0,0,0,-1,797,1751,0,0
-420,-727,0,0,0,0,0,0,0,0,0,-1,804,1751,0,0
-413,-727,0,0,0,0,0,0,0,0,0,-1,811,1751,0,0
-406,-727,0,0,0,0,0,0,0,0,0,-1,818,1751,0,0
-399,-727,0,0,0,0,0,0,0,0,0,-1,825,1751,0,0
-392,-727,0,0,0,0,0,0,0,0,0,-1,832,1751,0,0
-385,-727,0,0,0,0,0,0,0,0,0,-1,839,1751,0,0
-378,-727,0,0,0,0,0,0,0,0,0,-1,846,1751,0,0
-371,-727,0,0,0,0,0,0,0,0,0,-1,853,1751,0,0
-364,-727,0,0,0,0,0,0,0,0,0,-1,860,1751,0,0
-357,-727,0,0,0,0,0,0,0,0,0,-1,867,1751,0,0
-350,-727,0,0,0,0,0,0,0,0,0,-1,874,1751,0,0
-343,-727,0,0,0,0,0,0,0,0,0,-1,881,1751,0,0
-336,-727,0,0,0,0,0,0,0,0,0,-1,888,1751,0,0
-329,-727,0,0,0,0,0,0,0,0,0,-1,895,1751,0,0
-322,-727,0,0,0,0,0,0,0,0,0,-1,902,1751,0,0
-315,-727,0,0,0,0,0,0,0,0,0,-1,909,1751,0,0
-308,-727,0,0,0,0,0,0,0,0,0,-1,916,1751,0,0
-301,-727,0,0,0,0,0,0,0,0,0,-1,923,1751,0,0
-294,-727,0,0,0,0,0,0,0,0,0,-1,930,1751,0,0
-287,-727,0,0,0,0,0,0,0,0,0,-1,937,1751,0,0
-280,-727,0,0,0,0,0,0,0,0,0,-1,944,1751,0,0
-273,-727,0,0,0,0,0,0,0,0,0,-1,951,1751,0,0
-266,-727,4.24805,7.61145,0,0,0,0,0,0,0,-1,958,1751,4.24802,-7.6115
-259,-727,3.65228,5.4082,0,0,0,0,0,0,0,-1,965,1751,3.65229,-5.40818
-252,-727,6.35193,19.5046,0,0,0,0,0,0,0,-1,972,1751,6.35193,-19.5046
-245,-727,6.6543,20.9005,0,0,0,0,0,0,0,-1,979,1751,6.65433,-20.9005
-238,-727,4.31769,18.0181,0,0,0,0,0,0,0,-1,986,1751,4.31766,-18.018
-231,-727,6.50403,21.7985,0,0,0,0,0,0,0,-1,993,1751,6.50403,-21.7985
-224,-727,5.36774,18.8488,0,0,0,0,0,0,0,-1,1000,1751,5.36772,-18.8487
-217,-727,5.94122,16.1447,0,0,0,0,0,0,0,-1,1007,1751,5.9412,-16.1446
-210,-727,7.2597,25.5667,0,0,0,0,0,0,0,-1,1014,1751,7.25973,-25.5667
-203,-727,6.22131,26.5745,0,0,0,0,0,0,0,-1,1021,1751,6.22136,-26.5744
-196,-727,7.47058,25.4301,0,0,0,0,0,0,0,-1,1028,1751,7.47064,-25.4301
-189,-727,7.33447,26.5482,0,0,0,0,0,0,0,-1,1035,1751,7.33446,-26.5482
-182,-727,6.94971,27.5308,0,0,0,0,0,0,0,-1,1042,1751,6.94972,-27.5308
-175,-727,6.41211,27.8855,0,0,0,0,0,0,0,-1,1049,1751,6.41217,-27.8855
-168,-727,6.2345,27.9065,0,0,0,0,0,0,0,-1,1056,1751,6.23448,-27.9065
-161,-727,6.43311,27.8783,0,0,0,0,0,0,0,-1,1063,1751,6.43308,-27.8783
-154,-727,7.15613,27.9696,0,0,0,0,0,0,0,-1,1070,1751,7.15608,-27.9696
-147,-727,7.1958,28.2563,0,0,0,0,0,0,0,-1,1077,1751,7.19574,-28.2564
-140,-727,6.94373,28.1082,0.000544056,-0.00608769,0.0014193,0.00083504,-0.00637868,0.202217,0.00455638,0.0339519,1084,1751,6.94376,-28.1081
-133,-727,7.06763,28.3624,-0.000476716,-0.0042685,0.000438325,-0.000426706,-0.00431851,0.113603,0.00274783,0.0242481,1091,1751,7.06762,-28.3624
-126,-727,6.99646,28.6351,-0.00102069,-0.00230879,4.99224e-05,-0.00101876,-0.00231072,0.0386794,0.0013372,0.0154024,1098,1751,6.99646,-28.6352
-119,-727,6.99573,28.8658,-0.00136612,-0.000827591,-4.07077e-05,-0.000824531,-0.00136918,-1.49577,0.000795982,0.0115002,1105,1751,6.99573,-28.8659
-112,-727,7.00061,29.0231,-0.00156188,0.000514909,-4.05828e-06,0.000514917,-0.00156189,-1.56884,0.0012488,0.012117,1112,1751,7.00057,-29.023
-105,-727,6.96667,29.201,-0.00185276,0.00170267,-0.00011328,0.00170628,-0.00185637,-1.53898,0.0020575,0.0117295,1119,1751,6.96662,-29.2011
-98,-727,6.97693,29.3837,-0.00193609,0.00257477,8.29846e-05,0.00257629,-0.00193761,1.55241,0.00261478,0.0103894,1126,1751,6.97696,-29.3837
-91,-727,6.96399,29.5471,-0.00186837,0.00328756,0.000274201,0.0033021,-0.00188291,1.51781,0.00303072,0.0106981,1133,1751,6.96397,-29.5471
-84,-727,6.92358,29.7012,-0.00185253,0.00387126,0.000612532,0.00393607,-0.00191735,1.46537,0.00344582,0.0108742,1140,1751,6.92357,-29.7012
-77,-727,6.90942,29.8718,-0.00158831,0.00370773,0.000770236,0.00381747,-0.00169806,1.42927,0.00326182,0.0114654,1147,1751,6.9094,-29.8719
-70,-727,6.91418,30.0481,-0.00140893,0.00340833,0.000697565,0.00350731,-0.00150791,1.42985,0.00297125,0.0129805,1154,1751,6.91416,-30.0481
-63,-727,6.90271,30.1892,-0.00134957,0.00274918,0.000717713,0.00287123,-0.00147161,1.40237,0.00255037,0.0112452,1161,1751,6.9027,-30.1892
-56,-727,6.88574,30.2972,-0.001149,0.00218177,0.000730035,0.00233475,-0.00130198,1.36423,0.0021277,0.0109199,1168,1751,6.88577,-30.2972
-49,-727,6.86707,30.4066,-0.00101176,0.00155454,0.000652644,0.00171098,-0.0011682,1.33553,0.00167211,0.0127613,1175,1751,6.86702,-30.4067
-42,-727,6.88916,30.5348,-0.000996259,0.000742599,0.000678993,0.000976319,-0.00122998,1.23928,0.00127661,0.0154445,1182,1751,6.88916,-30.5348
-35,-727,6.88013,30.6315,-0.00093914,5.43729e-05,0.000650749,0.000376299,-0.00126107,1.1114,0.000990269,0.0140082,1189,1751,6.88009,-30.6315
-28,-727,6.85034,30.733,-0.000887184,-0.000185583,0.000666436,0.000216742,-0.00128951,1.02766,0.000940284,0.00882621,1196,1751,6.85033,-30.733
-21,-727,6.83459,30.8556,-0.000825646,-0.000210767,0.000762637,0.000304067,-0.00134048,0.976998,0.00101038,0.0101268,1203,1751,6.83465,-30.8556
-14,-727,6.83838,30.9537,-0.000678009,-0.000166529,0.000989971,0.000600202,-0.00144474,0.9118,0.00121374,0.0115482,1210,1751,6.83832,-30.9538
-7,-727,6.86609,31.0431,-0.000513171,4.7848e-05,0.00121712,0.00101636,-0.00148168,0.898656,0.00145056,0.0140371,1217,1751,6.86604,-31.0431
0,-727,6.8656,31.1206,-0.000292992,0.00051548,0.00143783,0.00160481,-0.00138233,0.922433,0.00172622,0.0138685,1224,1751,6.86564,-31.1206
7,-727,6.84448,31.1768,-4.77554e-05,0.00111131,0.00166095,0.00229094,-0.00122738,0.953253,0.002062,0.013791,1231,1751,6.84448,-31.1768
14,-727,6.85535,31.2472,0.000217345,0.00165187,0.00186996,0.0029374,-0.00106819,0.96853,0.0023951,0.0141278,1238,1751,6.8554,-31.2472
21,-727,6.8457,31.3092,0.000450329,0.00239158,0.00209717,0.00373185,-0.000889942,1.00213,0.00283155,0.0124451,1245,1751,6.84575,-31.3092
28,-727,6.8562,31.3446,0.000581227,0.00291254,0.00220145,0.0042379,-0.000744128,1.02888,0.00310319,0.0111931,1252,1751,6.85619,-31.3446
35,-727,6.87317,31.3822,0.000657088,0.00341656,0.00217847,0.00461547,-0.000541822,1.06769,0.00327257,0.011931,1259,1751,6.87311,-31.3821
42,-727,6.83813,31.3982,0.00075466,0.00369427,0.00203997,0.00473879,-0.000289857,1.09758,0.00326011,0.0125021,1266,1751,6.83812,-31.3981
49,-727,6.82825,31.4146,0.000744832,0.00374817,0.00191509,0.00468014,-0.000187136,1.11789,0.00318431,0.0112445,1273,1751,6.82819,-31.4146
56,-727,6.84534,31.4547,0.000770483,0.00348866,0.00174787,0.00434365,-8.45091e-05,1.11586,0.00292435,0.00939275,1280,1751,6.8454,-31.4547
63,-727,6.85291,31.4695,0.000692014,0.00331323,0.0015332,0.00401965,-1.44048e-05,1.13904,0.00268458,0.0115073,1287,1751,6.85287,-31.4695
70,-727,6.87952,31.4646,0.000665244,0.00307756,0.00111746,0.00351564,0.000227158,1.19717,0.00227183,0.0140418,1294,1751,6.87949,-31.4646
77,-727,6.8916,31.4769,0.000679673,0.00260573,0.000701127,0.00283392,0.000451482,1.25615,0.00175822,0.016021,1301,1751,6.89165,-31.4769
84,-727,6.87854,31.4402,0.000553351,0.00200906,0.000335492,0.00208266,0.000479752,1.35484,0.00125936,0.0147852,1308,1751,6.87857,-31.4402
91,-727,6.8739,31.4086,0.000462415,0.00142366,9.18121e-06,0.00142375,0.000462327,1.56125,0.000838667,0.0151956,1315,1751,6.87394,-31.4085
98,-727,6.86646,31.3978,0.000509583,0.000980837,-0.000156661,0.00102816,0.000462256,-1.27742,0.000594615,0.013299,1322,1751,6.86643,-31.3978
105,-727,6.86536,31.3741,0.000612723,0.000614506,-0.000326041,0.000939656,0.000287573,-0.786765,0.000555951,0.0129775,1329,1751,6.86536,-31.3741
112,-727,6.87769,31.3561,0.000725219,0.000301823,-0.000454772,0.00101515,1.18903e-05,-0.567562,0.000672839,0.0116399,1336,1751,6.87763,-31.356
119,-727,6.88477,31.3226,0.000795283,0.000103183,-0.000558202,0.001106,-0.000207532,-0.507923,0.000815361,0.00913025,1343,1751,6.88477,-31.3227
126,-727,6.87671,31.2594,0.000896679,-0.000173014,-0.000637049,0.00119363,-0.000469968,-0.436195,0.000990308,0.0105916,1350,1751,6.87667,-31.2595
133,-727,6.87756,31.2378,0.00097982,-7.22782e-05,-0.000604233,0.00125491,-0.000347369,-0.42723,0.000973284,0.0152015,1357,1751,6.87754,-31.2378
140,-727,6.90308,31.2015,0.00103559,-1.25593e-05,-0.000549429,0.00127081,-0.000247777,-0.404505,0.00094074,0.0212485,1364,1751,6.90308,-31.2015
147,-727,6.87244,31.0835,0.00102493,0.000128065,-0.000538405,0.00127719,-0.000124196,-0.438159,0.000895735,0.0182152,1371,1751,6.87249,-31.0834
154,-727,6.849,30.9578,0.000943979,0.000135778,-0.000589096,0.00125425,-0.000174496,-0.484775,0.000899991,0.0109474,1378,1751,6.84898,-30.9578
161,-727,6.85217,30.8678,0.000767409,0.000173107,-0.000637808,0.00117389,-0.000233373,-0.567402,0.000870871,0.00879911,1385,1751,6.85218,-30.8678
168,-727,6.85083,30.7839,0.000569014,0.000125426,-0.00069801,0.00107962,-0.000385181,-0.631567,0.000876811,0.0117538,1392,1751,6.85089,-30.7839
175,-727,6.84302,30.6824,0.000213532,0.00012051,-0.000616615,0.000785388,-0.000451346,-0.747755,0.000722659,0.0171302,1399,1751,6.84306,-30.6824
182,-727,6.83606,30.5575,-0.000127113,0.000310071,-0.000681886,0.000807545,-0.000624587,-0.940508,0.000829088,0.0201042,1406,1751,6.83602,-30.5575
189,-727,6.81335,30.4355,-0.000302714,0.000371198,-0.000998126,0.00108771,-0.00101923,-0.948186,0.00121665,0.0122738,1413,1751,6.81338,-30.4355
196,-727,6.81152,30.3268,-0.000472196,0.000309994,-0.00128001,0.00125733,-0.00141953,-0.933664,0.00154643,0.0125316,1420,1751,6.81156,-30.3268
203,-727,6.8042,30.1779,-0.000516778,0.000543862,-0.00160658,0.00170539,-0.00167831,-0.944813,0.0019536,0.0148829,1427,1751,6.80418,-30.1779
210,-727,6.79297,30.0493,-0.000618566,0.000316321,-0.00173989,0.00165047,-0.00195272,-0.91663,0.00208274,0.0149864,1434,1751,6.79298,-30.0493
217,-727,6.77429,29.9244,-0.000484859,0.000119862,-0.00201827,0.0018583,-0.00222329,-0.859751,0.00235964,0.0113316,1441,1751,6.7743,-29.9245
224,-727,6.77295,29.7574,-0.000352425,-9.21822e-05,-0.00230158,0.00208295,-0.00252756,-0.813636,0.002666,0.0113161,1448,1751,6.77289,-29.7575
231,-727,6.76709,29.6002,-0.000300597,-0.000346511,-0.00252162,0.00219818,-0.00284528,-0.780846,0.00291982,0.00936709,1455,1751,6.76705,-29.6002
238,-727,6.76392,29.4386,-0.00013392,-0.00045443,-0.00268356,0.00239417,-0.00298252,-0.755575,0.00311042,0.00976555,1462,1751,6.76394,-29.4386
245,-727,6.75024,29.2821,0.000155207,-0.000448349,-0.00289895,0.00276804,-0.00306119,-0.733535,0.00336692,0.00956501,1469,1751,6.75028,-29.2821
252,-727,6.72314,29.1132,0.000380781,-0.00026525,-0.00312006,0.0031945,-0.00307897,-0.733818,0.00362219,0.0105414,1476,1751,6.72311,-29.1131
259,-727,6.71448,28.933,0.000493385,9.33354e-05,-0.00338562,0.00368489,-0.00309817,-0.755892,0.00392108,0.0144284,1483,1751,6.71446,-28.9329
266,-727,6.70789,28.8011,0.000533016,0.00109199,-0.00387219,0.00469477,-0.00306976,-0.821425,0.00451546,0.0210608,1490,1751,6.70791,-28.8012
273,-727,6.77197,28.6285,0.00073077,0.00264757,-0.00426617,0.00606167,-0.00268333,-0.895889,0.00517299,0.040539,1497,1751,6.77203,-28.6285
280,-727,6.61182,28.4658,0,0,0,0,0,0,0,-1,1504,1751,6.61186,-28.4658
287,-727,6.39026,27.718,0,0,0,0,0,0,0,-1,1511,1751,6.39028,-27.718
294,-727,6.76416,27.3865,0,0,0,0,0,0,0,-1,1518,1751,6.76413,-27.3865
301,-727,6.65234,27.717,0,0,0,0,0,0,0,-1,1525,1751,6.65239,-27.717
308,-727,6.63672,27.6191,0,0,0,0,0,0,0,-1,1532,1751,6.63673,-27.6192
315,-727,6.57068,26.8339,0,0,0,0,0,0,0,-1,1539,1751,6.57072,-26.8338
322,-727,5.75818,18.2477,0,0,0,0,0,0,0,-1,1546,1751,5.75815,-18.2477
329,-727,6.61853,11.6267,0,0,0,0,0,0,0,-1,1553,1751,6.61859,-11.6267
336,-727,5.55823,20.2439,0,0,0,0,0,0,0,-1,1560,1751,5.55829,-20.2438
343,-727,2.41699,8.72095,0,0,0,0,0,0,0,-1,1567,1751,2.41702,-8.72098
350,-727,3.89783,7.50195,0,0,0,0,0,0,0,-1,1574,1751,3.89782,-7.50193
357,-727,4.48462,10.2948,0,0,0,0,0,0,0,-1,1581,1751,4.48464,-10.2948
364,-727,6.96729,17.2365,0,0,0,0,0,0,0,-1,1588,1751,6.96732,-17.2365
371,-727,5.04565,23.2227,0,0,0,0,0,0,0,-1,1595,1751,5.04564,-23.2227
378,-727,4.56726,23.0574,0,0,0,0,0,0,0,-1,1602,1751,4.56727,-23.0574
385,-727,3.52307,22.6431,0,0,0,0,0,0,0,-1,1609,1751,3.52303,-22.643
392,-727,0,0,0,0,0,0,0,0,0,-1,1616,1751,0,0
399,-727,0,0,0,0,0,0,0,0,0,-1,1623,1751,0,0
406,-727,0,0,0,0,0,0,0,0,0,-1,1630,1751,0,0
413,-727,0,0,0,0,0,0,0,0,0,-1,1637,1751,0,0
420,-727,0,0,0,0,0,0,0,0,0,-1,1644,1751,0,0
427,-727,0,0,0,0,0,0,0,0,0,-1,1651,1751,0,0
434,-727,0,0,0,0,0,0,0,0,0,-1,1658,1751,0,0
441,-727,0,0,0,0,0,0,0,0,0,-1,1665,1751,0,0
448,-727,0,0,0,0,0,0,0,0,0,-1,1672,1751,0,0
455,-727,0,0,0,0,0,0,0,0,0,-1,1679,1751,0,0
462,-727,0,0,0,0,0,0,0,0,0,-1,1686,1751,0,0
469,-727,0,0,0,0,0,0,0,0,0,-1,1693,1751,0,0
476,-727,0,0,0,0,0,0,0,0,0,-1,1700,1751,0,0
483,-727,0,0,0,0,0,0,0,0,0,-1,1707,1751,0,0
490,-727,0,0,0,0,0,0,0,0,0,-1,1714,1751,0,0
497,-727,0,0,0,0,0,0,0,0,0,-1,1721,1751,0,0
504,-727,0,0,0,0,0,0,0,0,0,-1,1728,1751,0,0
511,-727,0,0,0,0,0,0,0,0,0,-1,1735,1751,0,0
518,-727,0,0,0,0,0,0,0,0,0,-1,1742,1751,0,0
525,-727,0,0,0,0,0,0,0,0,0,-1,1749,1751,0,0
532,-727,0,0,0,0,0,0,0,0,0,-1,1756,1751,0,0
539,-727,0,0,0,0,0,0,0,0,0,-1,1763,1751,0,0
546,-727,0,0,0,0,0,0,0,0,0,-1,1770,1751,0,0
553,-727,0,0,0,0,0,0,0,0,0,-1,1777,1751,0,0
560,-727,0,0,0,0,0,0,0,0,0,-1,1784,1751,0,0
567,-727,0,0,0,0,0,0,0,0,0,-1,1791,1751,0,0
574,-727,0,0,0,0,0,0,0,0,0,-1,1798,1751,0,0
581,-727,0,0,0,0,0,0,0,0,0,-1,1805,1751,0,0
588,-727,0,0,0,0,0,0,0,0,0,-1,1812,1751,0,0
595,-727,0,0,0,0,0,0,0,0,0,-1,1819,1751,0,0
602,-727,0,0,0,0,0,0,0,0,0,-1,1826,1751,0,0
609,-727,0,0,0,0,0,0,0,0,0,-1,1833,1751,0,0
616,-727,0,0,0,0,0,0,0,0,0,-1,1840,1751,0,0
623,-727,0,0,0,0,0,0,0,0,0,-1,1847,1751,0,0
630,-727,0,0,0,0,0,0,0,0,0,-1,1854,1751,0,0
637,-727,0,0,0,0,0,0,0,0,0,-1,1861,1751,0,0
644,-727,0,0,0,0,0,0,0,0,0,-1,1868,1751,0,0
651,-727,0,0,0,0,0,0,0,0,0,-1,1875,1751,0,0
658,-727,0,0,0,0,0,0,0,0,0,-1,1882,1751,0,0
665,-727,0,0,0,0,0,0,0,0,0,-1,1889,1751,0,0
672,-727,0,0,0,0,0,0,0,0,0,-1,1896,1751,0,0
679,-727,0,0,0,0,0,0,0,0,0,-1,1903,1751,0,0
686,-727,0,0,0,0,0,0,0,0,0,-1,1910,1751,0,0
693,-727,0,0,0,0,0,0,0,0,0,-1,1917,1751,0,0
700,-727,0,0,0,0,0,0,0,0,0,-1,1924,1751,0,0
707,-727,0,0,0,0,0,0,0,0,0,-1,1931,1751,0,0
714,-727,0,0,0,0,0,0,0,0,0,-1,1938,1751,0,0
721,-727,0,0,0,0,0,0,0,0,0,-1,1945,1751,0,0
728,-727,0,0,0,0,0,0,0,0,0,-1,1952,1751,0,0
735,-727,0,0,0,0,0,0,0,0,0,-1,1959,1751,0,0
742,-727,0,0,0,0,0,0,0,0,0,-1,1966,1751,0,0
749,-727,0,0,0,0,0,0,0,0,0,-1,1973,1751,0,0
756,-727,0,0,0,0,0,0,0,0,0,-1,1980,1751,0,0
763,-727,0,0,0,0,0,0,0,0,0,-1,1987,1751,0,0
770,-727,0,0,0,0,0,0,0,0,0,-1,1994,1751,0,0
777,-727,0,0,0,0,0,0,0,0,0,-1,2001,1751,0,0
784,-727,0,0,0,0,0,0,0,0,0,-1,2008,1751,0,0
791,-727,0,0,0,0,0,0,0,0,0,-1,2015,1751,0,0
798,-727,0,0,0,0,0,0,0,0,0,-1,2022,1751,0,0
805,-727,0,0,0,0,0,0,0,0,0,-1,2029,1751,0,0
812,-727,0,0,0,0,0,0,0,0,0,-1,2036,1751,0,0
-700,-734,0,0,0,0,0,0,0,0,0,-1,524,1758,0,0
-693,-734,0,0,0,0,0,0,0,0,0,-1,531,1758,0,0
-686,-734,0,0,0,0,0,0,0,0,0,-1,538,1758,0,0
-679,-734,0,0,0,0,0,0,0,0,0,-1,545,1758,0,0
-672,-734,0,0,0,0,0,0,0,0,0,-1,552,1758,0,0
-665,-734,0,0,0,0,0,0,0,0,0,-1,559,1758,0,0
-658,-734,0,0,0,0,0,0,0,0,0,-1,566,1758,0,0
-651,-734,0,0,0,0,0,0,0,0,0,-1,573,1758,0,0
-644,-734,0,0,0,0,0,0,0,0,0,-1,580,1758,0,0
-637,-734,0,0,0,0,0,0,0,0,0,-1,587,1758,0,0
-630,-734,0,0,0,0,0,0,0,0,0,-1,594,1758,0,0
-623,-734,0,0,0,0,0,0,0,0,0,-1,601,1758,0,0
-616,-734,0,0,0,0,0,0,0,0,0,-1,608,1758,0,0
-609,-734,0,0,0,0,0,0,0,0,0,-1,615,1758,0,0
-602,-734,0,0,0,0,0,0,0,0,0,-1,622,1758,0,0
-595,-734,0,0,0,0,0,0,0,0,0,-1,629,1758,0,0
-588,-734,0,0,0,0,0,0,0,0,0,-1,636,1758,0,0
-581,-734,0,0,0,0,0,0,0,0,0,-1,643,1758,0,0
-574,-734,0,0,0,0,0,0,0,0,0,-1,650,1758,0,0
-567,-734,0,0,0,0,0,0,0,0,0,-1,657,1758,0,0
-560,-734,0,0,0,0,0,0,0,0,0,-1,664,1758,0,0
-553,-734,0,0,0,0,0,0,0,0,0,-1,671,1758,0,0
-546,-734,0,0,0,0,0,0,0,0,0,-1,678,1758,0,0
-539,-734,0,0,0,0,0,0,0,0,0,-1,685,1758,0,0
-532,-734,0,0,0,0,0,0,0,0,0,-1,692,1758,0,0
-525,-734,0,0,0,0,0,0,0,0,0,-1,699,1758,0,0
-518,-734,0,0,0,0,0,0,0,0,0,-1,706,1758,0,0
-511,-734,0,0,0,0,0,0,0,0,0,-1,713,1758,0,0
-504,-734,0,0,0,0,0,0,0,0,0,-1,720,1758,0,0
-497,-734,0,0,0,0,0,0,0,0,0,-1,727,1758,0,0
-490,-734,0,0,0,0,0,0,0,0,0,-1,734,1758,0,0
-483,-734,0,0,0,0,0,0,0,0,0,-1,741,1758,0,0
-476,-734,0,0,0,0,0,0,0,0,0,-1,748,1758,0,0
-469,-734,0,0,0,0,0,0,0,0,0,-1,755,1758,0,0
-462,-734,0,0,0,0,0,0,0,0,0,-1,762,1758,0,0
-455,-734,0,0,0,0,0,0,0,0,0,-1,769,1758,0,0
-448,-734,0,0,0,0,0,0,0,0,0,-1,776,1758,0,0
-441,-734,0,0,0,0,0,0,0,0,0,-1,783,1758,0,0
-434,-734,0,0,0,0,0,0,0,0,0,-1,790,1758,0,0
-427,-734,0,0,0,0,0,0,0,0,0,-1,797,1758,0,0
-420,-734,0,0,0,0,0,0,0,0,0,-1,804,1758,0,0
-413,-734,0,0,0,0,0,0,0,0,0,-1,811,1758,0,0
-406,-734,0,0,0,0,0,0,0,0,0,-1,818,1758,0,0
-399,-734,0,0,0,0,0,0,0,0,0,-1,825,1758,0,0
-392,-734,0,0,0,0,0,0,0,0,0,-1,832,1758,0,0
-385,-734,0,0,0,0,0,0,0,0,0,-1,839,1758,0,0
-378,-734,0,0,0,0,0,0,0,0,0,-1,846,1758,0,0
-371,-734,0,0,0,0,0,0,0,0,0,-1,853,1758,0,0
-364,-734,0,0,0,0,0,0,0,0,0,-1,860,1758,0,0
-357,-734,0,0,0,0,0,0,0,0,0,-1,867,1758,0,0
-350,-734,0,0,0,0,0,0,0,0,0,-1,874,1758,0,0
-343,-734,0,0,0,0,0,0,0,0,0,-1,881,1758,0,0
-336,-734,0,0,0,0,0,0,0,0,0,-1,888,1758,0,0
-329,-734,0,0,0,0,0,0,0,0,0,-1,895,1758,0,0
-322,-734,0,0,0,0,0,0,0,0,0,-1,902,1758,0,0
-315,-734,0,0,0,0,0,0,0,0,0,-1,909,1758,0,0
-308,-734,0,0,0,0,0,0,0,0,0,-1,916,1758,0,0
-301,-734,0,0,0,0,0,0,0,0,0,-1,923,1758,0,0
-294,-734,0,0,0,0,0,0,0,0,0,-1,930,1758,0,0
-287,-734,0,0,0,0,0,0,0,0,0,-1,937,1758,0,0
-280,-734,0,0,0,0,0,0,0,0,0,-1,944,1758,0,0
-273,-734,0,0,0,0,0,0,0,0,0,-1,951,1758,0,0
-266,-734,0,0,0,0,0,0,0,0,0,-1,958,1758,0,0
-259,-734,0,0,0,0,0,0,0,0,0,-1,965,1758,0,0
-252,-734,6.93439,18.351,0,0,0,0,0,0,0,-1,972,1758,6.93438,-18.3509
-245,-734,6.95746,19.5341,0,0,0,0,0,0,0,-1,979,1758,6.95746,-19.5341
-238,-734,6.69128,15.3165,0,0,0,0,0,0,0,-1,986,1758,6.69128,-15.3166
-231,-734,7.35022,15.5492,0,0,0,0,0,0,0,-1,993,1758,7.3502,-15.5492
-224,-734,7.4632,15.9962,0,0,0,0,0,0,0,-1,1000,1758,7.46319,-15.9962
-217,-734,7.54193,16.1692,0,0,0,0,0,0,0,-1,1007,1758,7.54194,-16.1691
-210,-734,7.62262,16.1628,0,0,0,0,0,0,0,-1,1014,1758,7.6226,-16.1628
-203,-734,5.32764,21.4656,0,0,0,0,0,0,0,-1,1021,1758,5.32762,-21.4655
-196,-734,7.18115,22.1609,0,0,0,0,0,0,0,-1,1028,1758,7.18112,-22.1609
-189,-734,7.63635,26.9941,0,0,0,0,0,0,0,-1,1035,1758,7.63638,-26.9942
-182,-734,6.91113,27.7288,0,0,0,0,0,0,0,-1,1042,1758,6.91108,-27.7288
-175,-734,7.3667,26.2832,0,0,0,0,0,0,0,-1,1049,1758,7.3667,-26.2832
-168,-734,7.36365,28.0737,0,0,0,0,0,0,0,-1,1056,1758,7.36368,-28.0737
-161,-734,6.38452,28.2504,0,0,0,0,0,0,0,-1,1063,1758,6.38451,-28.2504
-154,-734,7.18542,28.424,0,0,0,0,0,0,0,-1,1070,1758,7.18546,-28.424
-147,-734,7.29517,28.4906,0,0,0,0,0,0,0,-1,1077,1758,7.29522,-28.4906
-140,-734,7.35645,28.3851,0.000620528,-0.0075485,0.0012917,0.000819908,-0.00774788,0.153146,0.00545912,0.0462169,1084,1758,7.35643,-28.3851
-133,-734,7.30176,28.416,-0.000712755,-0.00505355,0.00013856,-0.000708337,-0.00505797,0.0318773,0.00316242,0.0450836,1091,1758,7.30175,-28.416
-126,-734,7.13123,28.6232,-0.00142224,-0.00248057,-0.000303628,-0.00134132,-0.00256149,-0.260461,0.00147943,0.0393252,1098,1758,7.13121,-28.6231
-119,-734,7.15186,28.8558,-0.00192908,-0.000523174,-0.000376826,-0.000428543,-0.00202371,-1.32476,0.0012314,0.0367523,1105,1758,7.15188,-28.8559
-112,-734,7.21472,29.0107,-0.00222181,0.0012547,-0.000272083,0.00127586,-0.00224297,-1.49316,0.00205702,0.0317422,1112,1758,7.21474,-29.0108
-105,-734,7.17285,29.1984,-0.00261157,0.00281187,-0.000311215,0.00282967,-0.00262937,-1.51366,0.00315248,0.0258341,1119,1758,7.17291,-29.1984
-98,-734,7.21118,29.2861,-0.00274395,0.00393275,-3.28437e-05,0.00393291,-0.00274411,-1.56588,0.0038753,0.0271468,1126,1758,7.21116,-29.2861
-91,-734,7.17273,29.4314,-0.00269565,0.0047991,0.000237251,0.0048066,-0.00270315,1.53918,0.00439209,0.0307461,1133,1758,7.17278,-29.4314
-84,-734,7.06519,29.6201,-0.00272091,0.00551624,0.000742169,0.00558257,-0.00278725,1.48165,0.00492133,0.0264672,1140,1758,7.06518,-29.6201
-77,-734,7.01221,29.8413,-0.00240571,0.00505059,0.00100755,0.00518434,-0.00253946,1.43882,0.00454566,0.0284303,1147,1758,7.01217,-29.8413
-70,-734,6.9751,29.906,-0.00224458,0.00444425,0.000946804,0.00457569,-0.00237602,1.43286,0.00408,0.0259188,1154,1758,6.97508,-29.906
-63,-734,6.97974,30.0574,-0.00240601,0.003284,0.00109629,0.00348792,-0.00260993,1.38689,0.00353274,0.0214815,1161,1758,6.97976,-30.0574
-56,-734,7.01538,30.254,-0.0019069,0.00255055,0.00139334,0.00295025,-0.0023066,1.29143,0.00304262,0.0152793,1168,1758,7.01537,-30.2541
-49,-734,6.99634,30.4268,-0.00124767,0.00182125,0.0014827,0.00242056,-0.00184697,1.18667,0.00247127,0.0121402,1175,1758,6.99637,-30.4268
-42,-734,6.98584,30.5416,-0.000721964,0.000759495,0.00172232,0.00189362,-0.00185609,0.988479,0.00216493,0.013278,1182,1758,6.98583,-30.5416
-35,-734,6.97229,30.6296,-0.000734786,-0.000329554,0.00166927,0.00114935,-0.00221369,0.845793,0.0019738,0.0139245,1189,1758,6.97232,-30.6296
-28,-734,6.95398,30.7382,-0.000663294,-0.00055369,0.0017811,0.00117345,-0.00239044,0.800778,0.00209722,0.00994143,1196,1758,6.95398,-30.7381
-21,-734,6.97522,30.8593,-0.000522277,-0.000591225,0.00195646,0.00140001,-0.00251352,0.776589,0.00228976,0.0145725,1203,1758,6.97517,-30.8592
-14,-734,6.93604,30.9752,-0.000375387,-0.000699234,0.0022513,0.00171981,-0.00279443,0.749498,0.0026308,0.0147503,1210,1758,6.936,-30.9753
-7,-734,6.94397,31.0516,0.000195508,-0.000533571,0.00189446,0.00176018,-0.00209824,0.690348,0.00223051,0.0169375,1217,1758,6.94393,-31.0517
0,-734,6.93066,31.1198,0.00072342,-0.000595999,0.00184973,0.00202756,-0.00190014,0.614104,0.00226806,0.0170866,1224,1758,6.9307,-31.1197
7,-734,6.89917,31.186,0.00115038,-0.000110771,0.00183326,0.00245848,-0.00141887,0.619755,0.00226525,0.0128684,1231,1758,6.8992,-31.1861
14,-734,6.90027,31.2694,0.00168692,6.41707e-05,0.0014824,0.00256547,-0.00081438,0.535,0.00203679,0.0134555,1238,1758,6.90032,-31.2694
21,-734,6.88879,31.3051,0.00236037,0.00054646,0.00112563,0.00289896,7.86327e-06,0.446287,0.00193003,0.01211,1245,1758,6.88877,-31.305
28,-734,6.88513,31.3469,0.00291211,0.000405034,0.000820507,0.00315676,0.000160376,0.289785,0.00205314,0.0110532,1252,1758,6.88512,-31.3469
35,-734,6.88916,31.4006,0.00324492,0.000469318,0.000397864,0.00330082,0.000413413,0.139599,0.00207651,0.0143388,1259,1758,6.88918,-31.4006
42,-734,6.88318,31.3948,0.00346967,0.00028679,-3.59088e-05,0.00347007,0.000286385,-0.01128,0.00222407,0.0126143,1266,1758,6.88318,-31.3948
49,-734,6.86536,31.4139,0.00352822,1.72352e-05,-0.000375608,0.00356795,-2.24981e-05,-0.105392,0.00238617,0.0102043,1273,1758,6.86535,-31.4139
56,-734,6.85535,31.4485,0.00347153,-0.000428609,-0.000661883,0.0035808,-0.000537874,-0.163607,0.00258521,0.00900655,1280,1758,6.85536,-31.4484
63,-734,6.86426,31.4523,0.00317868,-0.000703365,-0.000947633,0.00339765,-0.000922337,-0.227087,0.00262708,0.0121438,1287,1758,6.86429,-31.4523
70,-734,6.85767,31.4677,0.00288683,-0.000811239,-0.00137766,0.00334363,-0.00126804,-0.320169,0.00275097,0.0134925,1294,1758,6.8577,-31.4676
77,-734,6.85144,31.501,0.00245074,-0.00118286,-0.00180291,0.00319348,-0.0019256,-0.390781,0.00298557,0.017824,1301,1758,6.85146,-31.501
84,-734,6.83948,31.4579,0.00180562,-0.00147546,-0.00206956,0.002806,-0.00247584,-0.450262,0.00305146,0.0161477,1308,1758,6.83942,-31.4579
91,-734,6.82886,31.4204,0.00119042,-0.00158877,-0.00229483,0.00248358,-0.00288194,-0.513159,0.00310063,0.0177649,1315,1758,6.8288,-31.4205
98,-734,6.83899,31.4288,0.000502672,-0.00158358,-0.00210732,0.00181091,-0.00289182,-0.555578,0.00273892,0.0133251,1322,1758,6.83901,-31.4288
105,-734,6.83081,31.3971,0.000137995,-0.00114912,-0.00233888,0.00192024,-0.00293137,-0.651142,0.00282129,0.0148029,1329,1758,6.83076,-31.3971
112,-734,6.84729,31.3398,2.54893e-05,-0.00113618,-0.00261182,0.00212028,-0.00323097,-0.675985,0.00311165,0.0134935,1336,1758,6.84734,-31.3399
119,-734,6.8446,31.2827,-8.03935e-05,-0.00079156,-0.00263307,0.00222099,-0.00309295,-0.718282,0.00308174,0.013901,1343,1758,6.8446,-31.2827
126,-734,6.82715,31.2295,-0.000140177,-0.00076015,-0.00270892,0.00227644,-0.00317677,-0.72843,0.00316268,0.0161404,1350,1758,6.82709,-31.2295
133,-734,6.80273,31.1713,-5.41007e-06,-5.94154e-05,-0.00279327,0.00276099,-0.00282582,-0.780565,0.00322562,0.0140443,1357,1758,6.80279,-31.1712
140,-734,6.81006,31.1215,0.000257643,7.26103e-05,-0.00267267,0.0028394,-0.00250914,-0.768097,0.00308994,0.0181456,1364,1758,6.81006,-31.1214
147,-734,6.79541,31.019,0.000404312,0.000315019,-0.00253421,0.00289427,-0.00217494,-0.77659,0.00293652,0.0140774,1371,1758,6.79546,-31.0191
154,-734,6.77588,30.963,0.000368549,0.000200537,-0.00244215,0.00272814,-0.00215905,-0.768206,0.00282799,0.00991542,1378,1758,6.77582,-30.963
161,-734,6.77234,30.8834,0.000193271,0.000156572,-0.00235205,0.00252704,-0.0021772,-0.781498,0.0027185,0.00894392,1385,1758,6.77236,-30.8835
168,-734,6.73193,30.7891,0.000106191,-3.90618e-06,-0.00215496,0.00220681,-0.00210452,-0.772628,0.00248938,0.0136809,1392,1758,6.73195,-30.789
175,-734,6.71863,30.6868,-0.000193403,-0.000221106,-0.00156193,0.00135474,-0.00176925,-0.780964,0.00180892,0.0166298,1399,1758,6.71867,-30.6867
182,-734,6.74377,30.5417,-0.000427917,5.77673e-05,-0.00123746,0.00107599,-0.00144614,-0.882288,0.00146137,0.0155612,1406,1758,6.7438,-30.5417
189,-734,6.73279,30.4181,-0.000566334,0.000181296,-0.00164716,0.00149653,-0.00188156,-0.896981,0.00195456,0.011308,1413,1758,6.7328,-30.4181
196,-734,6.70447,30.3308,-0.000750344,0.000128572,-0.00201126,0.00174783,-0.0023696,-0.892957,0.00238622,0.0124122,1420,1758,6.70448,-30.3308
203,-734,6.71509,30.1796,-0.000843349,0.000514304,-0.00246136,0.00238873,-0.00271777,-0.91995,0.00295028,0.015948,1427,1758,6.71503,-30.1796
210,-734,6.70959,30.0314,-0.00100619,0.000118529,-0.00257434,0.00219122,-0.00307888,-0.892932,0.00305705,0.0209899,1434,1758,6.70958,-30.0314
217,-734,6.65759,29.8943,-0.000681407,-0.000120522,-0.00293082,0.00254324,-0.00334517,-0.833097,0.00341017,0.0164718,1441,1758,6.65762,-29.8943
224,-734,6.70776,29.7054,-0.0004265,-0.000367231,-0.00327351,0.00287678,-0.00367051,-0.789924,0.00378933,0.0158683,1448,1758,6.70773,-29.7054
231,-734,6.65833,29.6069,-0.000279234,-0.000671422,-0.00354359,0.00307369,-0.00402434,-0.757758,0.00411028,0.0148038,1455,1758,6.65836,-29.607
238,-734,6.59778,29.4637,-2.12171e-05,-0.000847483,-0.00375772,0.00334601,-0.00421471,-0.730647,0.00437478,0.0178585,1462,1758,6.59778,-29.4637
245,-734,6.60181,29.2231,0.000379173,-0.000884837,-0.00403104,0.00382745,-0.00433312,-0.707639,0.00471452,0.0234589,1469,1758,6.60177,-29.2232
252,-734,6.6106,29.0616,0.000720134,-0.000691995,-0.00431171,0.00438321,-0.00435507,-0.704241,0.00504506,0.0276302,1476,1758,6.61061,-29.0616
259,-734,6.70459,28.9911,0.000926068,-0.000262346,-0.00464098,0.00501073,-0.00434701,-0.721727,0.00540722,0.0369799,1483,1758,6.70464,-28.9911
266,-734,6.68066,28.905,0.00104652,0.000955461,-0.00524185,0.00624304,-0.00424106,-0.781055,0.00608967,0.0485132,1490,1758,6.68066,-28.905
273,-734,6.71228,28.797,0,0,0,0,0,0,0,-1,1497,1758,6.71225,-28.797
280,-734,16.6191,7.38013,0,0,0,0,0,0,0,-1,1504,1758,16.6192,-7.38011
287,-734,5.95215,27.3528,0,0,0,0,0,0,0,-1,1511,1758,5.95214,-27.3528
294,-734,12.0439,5.7876,0,0,0,0,0,0,0,-1,1518,1758,12.044,-5.78759
301,-734,10.1803,10.5541,0,0,0,0,0,0,0,-1,1525,1758,10.1803,-10.5541
308,-734,9.00854,5.43774,0,0,0,0,0,0,0,-1,1532,1758,9.00857,-5.4377
315,-734,5.3158,17.4298,0,0,0,0,0,0,0,-1,1539,1758,5.31581,-17.4299
322,-734,9.85913,7.48096,0,0,0,0,0,0,0,-1,1546,1758,9.85916,-7.48098
329,-734,5.45972,12.4125,0,0,0,0,0,0,0,-1,1553,1758,5.45969,-12.4125
336,-734,5.92188,13.8751,0,0,0,0,0,0,0,-1,1560,1758,5.92183,-13.8751
343,-734,5.54968,5.14221,0,0,0,0,0,0,0,-1,1567,1758,5.54973,-5.14225
350,-734,5.07397,6.73242,0,0,0,0,0,0,0,-1,1574,1758,5.07402,-6.73243
357,-734,5.05542,7.19189,0,0,0,0,0,0,0,-1,1581,1758,5.05541,-7.19184
364,-734,4.43896,10.4904,0,0,0,0,0,0,0,-1,1588,1758,4.43893,-10.4904
371,-734,7.36975,17.4751,0,0,0,0,0,0,0,-1,1595,1758,7.36972,-17.4752
378,-734,0,0,0,0,0,0,0,0,0,-1,1602,1758,0,0
385,-734,0,0,0,0,0,0,0,0,0,-1,1609,1758,0,0
392,-734,0,0,0,0,0,0,0,0,0,-1,1616,1758,0,0
399,-734,0,0,0,0,0,0,0,0,0,-1,1623,1758,0,0
406,-734,0,0,0,0,0,0,0,0,0,-1,1630,1758,0,0
413,-734,0,0,0,0,0,0,0,0,0,-1,1637,1758,0,0
420,-734,0,0,0,0,0,0,0,0,0,-1,1644,1758,0,0
427,-734,0,0,0,0,0,0,0,0,0,-1,1651,1758,0,0
434,-734,0,0,0,0,0,0,0,0,0,-1,1658,1758,0,0
441,-734,0,0,0,0,0,0,0,0,0,-1,1665,1758,0,0
448,-734,0,0,0,0,0,0,0,0,0,-1,1672,1758,0,0
455,-734,0,0,0,0,0,0,0,0,0,-1,1679,1758,0,0
462,-734,0,0,0,0,0,0,0,0,0,-1,1686,1758,0,0
469,-734,0,0,0,0,0,0,0,0,0,-1,1693,1758,0,0
476,-734,0,0,0,0,0,0,0,0,0,-1,1700,1758,0,0
483,-734,0,0,0,0,0,0,0,0,0,-1,1707,1758,0,0
490,-734,0,0,0,0,0,0,0,0,0,-1,1714,1758,0,0
497,-734,0,0,0,0,0,0,0,0,0,-1,1721,1758,0,0
504,-734,0,0,0,0,0,0,0,0,0,-1,1728,1758,0,0
511,-734,0,0,0,0,0,0,0,0,0,-1,1735,1758,0,0
518,-734,0,0,0,0,0,0,0,0,0,-1,1742,1758,0,0
525,-734,0,0,0,0,0,0,0,0,0,-1,1749,1758,0,0
532,-734,0,0,0,0,0,0,0,0,0,-1,1756,1758,0,0
539,-734,0,0,0,0,0,0,0,0,0,-1,1763,1758,0,0
546,-734,0,0,0,0,0,0,0,0,0,-1,1770,1758,0,0
553,-734,0,0,0,0,0,0,0,0,0,-1,1777,1758,0,0
560,-734,0,0,0,0,0,0,0,0,0,-1,1784,1758,0,0
567,-734,0,0,0,0,0,0,0,0,0,-1,1791,1758,0,0
574,-734,0,0,0,0,0,0,0,0,0,-1,1798,1758,0,0
581,-734,0,0,0,0,0,0,0,0,0,-1,1805,1758,0,0
588,-734,0,0,0,0,0,0,0,0,0,-1,1812,1758,0,0
595,-734,0,0,0,0,0,0,0,0,0,-1,1819,1758,0,0
602,-734,0,0,0,0,0,0,0,0,0,-1,1826,1758,0,0
609,-734,0,0,0,0,0,0,0,0,0,-1,1833,1758,0,0
616,-734,0,0,0,0,0,0,0,0,0,-1,1840,1758,0,0
623,-734,0,0,0,0,0,0,0,0,0,-1,1847,1758,0,0
630,-734,0,0,0,0,0,0,0,0,0,-1,1854,1758,0,0
637,-734,0,0,0,0,0,0,0,0,0,-1,1861,1758,0,0
644,-734,0,0,0,0,0,0,0,0,0,-1,1868,1758,0,0
651,-734,0,0,0,0,0,0,0,0,0,-1,1875,1758,0,0
658,-734,0,0,0,0,0,0,0,0,0,-1,1882,1758,0,0
665,-734,0,0,0,0,0,0,0,0,0,-1,1889,1758,0,0
672,-734,0,0,0,0,0,0,0,0,0,-1,1896,1758,0,0
679,-734,0,0,0,0,0,0,0,0,0,-1,1903,1758,0,0
686,-734,0,0,0,0,0,0,0,0,0,-1,1910,1758,0,0
693,-734,0,0,0,0,0,0,0,0,0,-1,1917,1758,0,0
700,-734,0,0,0,0,0,0,0,0,0,-1,1924,1758,0,0
707,-734,0,0,0,0,0,0,0,0,0,-1,1931,1758,0,0
714,-734,0,0,0,0,0,0,0,0,0,-1,1938,1758,0,0
721,-734,0,0,0,0,0,0,0,0,0,-1,1945,1758,0,0
728,-734,0,0,0,0,0,0,0,0,0,-1,1952,1758,0,0
735,-734,0,0,0,0,0,0,0,0,0,-1,1959,1758,0,0
742,-734,0,0,0,0,0,0,0,0,0,-1,1966,1758,0,0
749,-734,0,0,0,0,0,0,0,0,0,-1,1973,1758,0,0
756,-734,0,0,0,0,0,0,0,0,0,-1,1980,1758,0,0
763,-734,0,0,0,0,0,0,0,0,0,-1,1987,1758,0,0
770,-734,0,0,0,0,0,0,0,0,0,-1,1994,1758,0,0
777,-734,0,0,0,0,0,0,0,0,0,-1,2001,1758,0,0
784,-734,0,0,0,0,0,0,0,0,0,-1,2008,1758,0,0
791,-734,0,0,0,0,0,0,0,0,0,-1,2015,1758,0,0
798,-734,0,0,0,0,0,0,0,0,0,-1,2022,1758,0,0
805,-734,0,0,0,0,0,0,0,0,0,-1,2029,1758,0,0
812,-734,0,0,0,0,0,0,0,0,0,-1,2036,1758,0,0
-700,-741,0,0,0,0,0,0,0,0,0,-1,524,1765,0,0
-693,-741,0,0,0,0,0,0,0,0,0,-1,531,1765,0,0
-686,-741,0,0,0,0,0,0,0,0,0,-1,538,1765,0,0
-679,-741,0,0,0,0,0,0,0,0,0,-1,545,1765,0,0
-672,-741,0,0,0,0,0,0,0,0,0,-1,552,1765,0,0
-665,-741,0,0,0,0,0,0,0,0,0,-1,559,1765,0,0
-658,-741,0,0,0,0,0,0,0,0,0,-1,566,1765,0,0
-651,-741,0,0,0,0,0,0,0,0,0,-1,573,1765,0,0
-644,-741,0,0,0,0,0,0,0,0,0,-1,580,1765,0,0
-637,-741,0,0,0,0,0,0,0,0,0,-1,587,1765,0,0
-630,-741,0,0,0,0,0,0,0,0,0,-1,594,1765,0,0
-623,-741,0,0,0,0,0,0,0,0,0,-1,601,1765,0,0
-616,-741,0,0,0,0,0,0,0,0,0,-1,608,1765,0,0
-609,-741,0,0,0,0,0,0,0,0,0,-1,615,1765,0,0
-602,-741,0,0,0,0,0,0,0,0,0,-1,622,1765,0,0
-595,-741,0,0,0,0,0,0,0,0,0,-1,629,1765,0,0
-588,-741,0,0,0,0,0,0,0,0,0,-1,636,1765,0,0
-581,-741,0,0,0,0,0,0,0,0,0,-1,643,1765,0,0
-574,-741,0,0,0,0,0,0,0,0,0,-1,650,1765,0,0
-567,-741,0,0,0,0,0,0,0,0,0,-1,657,1765,0,0
-560,-741,0,0,0,0,0,0,0,0,0,-1,664,1765,0,0
-553,-741,0,0,0,0,0,0,0,0,0,-1,671,1765,0,0
-546,-741,0,0,0,0,0,0,0,0,0,-1,678,1765,0,0
-539,-741,0,0,0,0,0,0,0,0,0,-1,685,1765,0,0
-532,-741,0,0,0,0,0,0,0,0,0,-1,692,1765,0,0
-525,-741,0,0,0,0,0,0,0,0,0,-1,699,1765,0,0
-518,-741,0,0,0,0,0,0,0,0,0,-1,706,1765,0,0
-511,-741,0,0,0,0,0,0,0,0,0,-1,713,1765,0,0
-504,-741,0,0,0,0,0,0,0,0,0,-1,720,1765,0,0
-497,-741,0,0,0,0,0,0,0,0,0,-1,727,1765,0,0
-490,-741,0,0,0,0,0,0,0,0,0,-1,734,1765,0,0
-483,-741,0,0,0,0,0,0,0,0,0,-1,741,1765,0,0
-476,-741,0,0,0,0,0,0,0,0,0,-1,748,1765,0,0
-469,-741,0,0,0,0,0,0,0,0,0,-1,755,1765,0,0
-462,-741,0,0,0,0,0,0,0,0,0,-1,762,1765,0,0
-455,-741,0,0,0,0,0,0,0,0,0,-1,769,1765,0,0
-448,-741,0,0,0,0,0,0,0,0,0,-1,776,1765,0,0
-441,-741,0,0,0,0,0,0,0,0,0,-1,783,1765,0,0
-434,-741,0,0,0,0,0,0,0,0,0,-1,790,1765,0,0
-427,-741,0,0,0,0,0,0,0,0,0,-1,797,1765,0,0
-420,-741,0,0,0,0,0,0,0,0,0,-1,804,1765,0,0
-413,-741,0,0,0,0,0,0,0,0,0,-1,811,1765,0,0
-406,-741,0,0,0,0,0,0,0,0,0,-1,818,1765,0,0
-399,-741,0,0,0,0,0,0,0,0,0,-1,825,1765,0,0
-392,-741,0,0,0,0,0,0,0,0,0,-1,832,1765,0,0
-385,-741,0,0,0,0,0,0,0,0,0,-1,839,1765,0,0
-378,-741,0,0,0,0,0,0,0,0,0,-1,846,1765,0,0
-371,-741,0,0,0,0,0,0,0,0,0,-1,853,1765,0,0
-364,-741,0,0,0,0,0,0,0,0,0,-1,860,1765,0,0
-357,-741,0,0,0,0,0,0,0,0,0,-1,867,1765,0,0
-350,-741,0,0,0,0,0,0,0,0,0,-1,874,1765,0,0
-343,-741,0,0,0,0,0,0,0,0,0,-1,881,1765,0,0
-336,-741,0,0,0,0,0,0,0,0,0,-1,888,1765,0,0
-329,-741,0,0,0,0,0,0,0,0,0,-1,895,1765,0,0
-322,-741,0,0,0,0,0,0,0,0,0,-1,902,1765,0,0
-315,-741,0,0,0,0,0,0,0,0,0,-1,909,1765,0,0
-308,-741,0,0,0,0,0,0,0,0,0,-1,916,1765,0,0
-301,-741,0,0,0,0,0,0,0,0,0,-1,923,1765,0,0
-294,-741,0,0,0,0,0,0,0,0,0,-1,930,1765,0,0
-287,-741,0,0,0,0,0,0,0,0,0,-1,937,1765,0,0
-280,-741,0,0,0,0,0,0,0,0,0,-1,944,1765,0,0
-273,-741,0,0,0,0,0,0,0,0,0,-1,951,1765,0,0
-266,-741,0,0,0,0,0,0,0,0,0,-1,958,1765,0,0
-259,-741,0,0,0,0,0,0,0,0,0,-1,965,1765,0,0
-252,-741,0,0,0,0,0,0,0,0,0,-1,972,1765,0,0
-245,-741,0,0,0,0,0,0,0,0,0,-1,979,1765,0,0
-238,-741,5.63202,14.9113,0,0,0,0,0,0,0,-1,986,1765,5.632,-14.9112
-231,-741,6.10602,15.245,0,0,0,0,0,0,0,-1,993,1765,6.10605,-15.245
-224,-741,6.60541,15.9323,0,0,0,0,0,0,0,-1,1000,1765,6.60538,-15.9323
-217,-741,6.99121,16.5245,0,0,0,0,0,0,0,-1,1007,1765,6.99118,-16.5245
-210,-741,5.80957,23.4917,0,0,0,0,0,0,0,-1,1014,1765,5.8096,-23.4917
-203,-741,5.50122,22.6226,0,0,0,0,0,0,0,-1,1021,1765,5.50125,-22.6225
-196,-741,6.81299,22.079,0,0,0,0,0,0,0,-1,1028,1765,6.81296,-22.079
-189,-741,7.14319,22.3441,0,0,0,0,0,0,0,-1,1035,1765,7.1432,-22.3441
-182,-741,7.4458,23.6536,0,0,0,0,0,0,0,-1,1042,1765,7.44582,-23.6536
-175,-741,7.26477,24.616,0,0,0,0,0,0,0,-1,1049,1765,7.26471,-24.616
-168,-741,5.4801,16.3933,0,0,0,0,0,0,0,-1,1056,1765,5.4801,-16.3933
-161,-741,3.73047,14.4974,0,0,0,0,0,0,0,-1,1063,1765,3.73043,-14.4974
-154,-741,2.46143,9.75415,0,0,0,0,0,0,0,-1,1070,1765,2.46145,-9.75416
-147,-741,7.56738,29.0496,0,0,0,0,0,0,0,-1,1077,1765,7.56736,-29.0496
-140,-741,7.70471,28.7158,0,0,0,0,0,0,0,-1,1084,1765,7.70474,-28.7158
-133,-741,7.61414,28.6552,0,0,0,0,0,0,0,-1,1091,1765,7.61414,-28.6552
-126,-741,7.30066,28.772,0,0,0,0,0,0,0,-1,1098,1765,7.30063,-28.772
-119,-741,7.31519,28.9237,0,0,0,0,0,0,0,-1,1105,1765,7.31517,-28.9237
-112,-741,7.44397,28.9879,0,0,0,0,0,0,0,-1,1112,1765,7.444,-28.9879
-105,-741,7.4209,29.1431,0,0,0,0,0,0,0,-1,1119,1765,7.42084,-29.1431
-98,-741,7.44556,29.2179,0,0,0,0,0,0,0,-1,1126,1765,7.44554,-29.2178
-91,-741,7.29041,29.2915,0,0,0,0,0,0,0,-1,1133,1765,7.29035,-29.2915
-84,-741,7.08521,29.2687,0,0,0,0,0,0,0,-1,1140,1765,7.08522,-29.2686
-77,-741,7.07117,29.1943,0,0,0,0,0,0,0,-1,1147,1765,7.07119,-29.1943
-70,-741,6.97485,29.4587,0,0,0,0,0,0,0,-1,1154,1765,6.97481,-29.4588
-63,-741,6.94104,29.8171,0,0,0,0,0,0,0,-1,1161,1765,6.94108,-29.8172
-56,-741,7.1731,30.1663,0,0,0,0,0,0,0,-1,1168,1765,7.17311,-30.1662
-49,-741,7.12109,30.4867,0,0,0,0,0,0,0,-1,1175,1765,7.12115,-30.4867
-42,-741,7.05481,30.3821,0,0,0,0,0,0,0,-1,1182,1765,7.05475,-30.3821
-35,-741,7.0675,30.6213,0.00192609,0.00056513,0.00378504,0.00509134,-0.00260012,0.696458,0.00451764,0.0237592,1189,1765,7.06755,-30.6214
-28,-741,7.05945,30.7644,0.00198921,0.000512174,0.00401247,0.00533056,-0.00282918,0.694389,0.00478424,0.0141245,1196,1765,7.05951,-30.7644
-21,-741,7.0564,30.8756,0.00206383,0.000514032,0.00423923,0.0055984,-0.00302054,0.695,0.00504979,0.0168872,1203,1765,7.05642,-30.8756
-14,-741,7.01379,30.9694,0.00200441,0.000271401,0.00454519,0.00576496,-0.00348914,0.691207,0.00539644,0.0171926,1210,1765,7.0138,-30.9694
-7,-741,7.01538,31.0177,0.00247469,0.000411384,0.00368891,0.00527349,-0.00238742,0.64905,0.00452644,0.0157239,1217,1765,7.01542,-31.0177
0,-741,7.00598,31.0869,0.00284168,-0.000479088,0.00331937,0.00489278,-0.00253019,0.55349,0.00435741,0.0155679,1224,1765,7.00595,-31.0869
7,-741,6.96509,31.1776,0.00305957,-0.000222938,0.002881,0.00473402,-0.00189738,0.526484,0.00394367,0.0168989,1231,1765,6.96513,-31.1776
14,-741,6.96082,31.2493,0.00343545,-0.000392886,0.00190541,0.00422214,-0.00117958,0.391553,0.00327945,0.0156213,1238,1765,6.96077,-31.2492
21,-741,6.94214,31.2914,0.00402767,-0.000341514,0.000875936,0.00419674,-0.00051058,0.190667,0.00298262,0.0118104,1245,1765,6.9422,-31.2914
28,-741,6.90906,31.351,0.0045502,-0.00104297,-3.50962e-06,0.0045502,-0.00104297,-0.000627484,0.00343433,0.0119433,1252,1765,6.90912,-31.351
35,-741,6.9054,31.3885,0.00482801,-0.00141038,-0.00100299,0.0049853,-0.00156768,-0.155556,0.00395116,0.0143772,1259,1765,6.90542,-31.3886
42,-741,6.90649,31.4059,0.00495419,-0.00201938,-0.00192332,0.00544947,-0.00251466,-0.252036,0.00470101,0.0149968,1266,1765,6.90654,-31.4059
49,-741,6.88733,31.4235,0.00488031,-0.00258357,-0.00266776,0.00573578,-0.00343904,-0.31031,0.00535213,0.00940516,1273,1765,6.88727,-31.4235
56,-741,6.8645,31.4537,0.00468593,-0.00323579,-0.00319711,0.00581525,-0.00436511,-0.339551,0.00589748,0.00900647,1280,1765,6.86452,-31.4537
63,-741,6.87036,31.4489,0.00413659,-0.00356528,-0.00368991,0.00561905,-0.00504774,-0.382024,0.00616142,0.0140239,1287,1765,6.87038,-31.4488
70,-741,6.85681,31.4725,0.00363895,-0.00350841,-0.00427943,0.00564064,-0.0055101,-0.437513,0.00643803,0.0170331,1294,1765,6.85683,-31.4725
77,-741,6.83313,31.5126,0.00292354,-0.00372432,-0.00485068,0.00547988,-0.00628067,-0.485019,0.0067952,0.0141577,1301,1765,6.83317,-31.5126
84,-741,6.8031,31.4963,0.00194585,-0.0037471,-0.00512278,0.00495986,-0.00676111,-0.531813,0.00679369,0.0159444,1308,1765,6.80305,-31.4963
91,-741,6.79211,31.4601,0.00099011,-0.00343067,-0.00530433,0.00452617,-0.00696673,-0.587982,0.00668512,0.0129149,1315,1765,6.79209,-31.46
98,-741,6.78857,31.418,-9.64642e-05,-0.00307083,-0.00487859,0.00351658,-0.00668388,-0.637453,0.00598312,0.0102634,1322,1765,6.78857,-31.418
105,-741,6.78638,31.3793,-0.000718308,-0.00173096,-0.00517921,0.00397926,-0.00642853,-0.736672,0.00606415,0.0108971,1329,1765,6.78637,-31.3793
112,-741,6.81482,31.3115,-0.000986738,-0.00159615,-0.00556584,0.00428273,-0.00686561,-0.758053,0.00649383,0.0113876,1336,1765,6.81487,-31.3115
119,-741,6.78833,31.269,-0.00123715,-0.000944295,-0.00560866,0.00451985,-0.00670129,-0.798449,0.00651921,0.014376,1343,1765,6.78832,-31.269
126,-741,6.776,31.2301,-0.00141997,-0.000585328,-0.00577525,0.00478766,-0.00679296,-0.821466,0.0067194,0.0185288,1350,1765,6.77602,-31.2301
133,-741,6.75598,31.1555,-0.00125807,0.000499304,-0.00602608,0.00571042,-0.00646919,-0.857795,0.00703644,0.0129391,1357,1765,6.75593,-31.1555
140,-741,6.72144,31.0641,-0.000832393,0.000603958,-0.00589687,0.00582623,-0.00605466,-0.845994,0.00685986,0.00974983,1364,1765,6.72144,-31.0641
147,-741,6.70923,31.016,-0.000532036,0.000876277,-0.00564583,0.00586169,-0.00551745,-0.847439,0.00657075,0.0100833,1371,1765,6.70925,-31.016
154,-741,6.69568,30.9806,-0.000447391,0.000635054,-0.00536952,0.00549055,-0.00530289,-0.835626,0.00623191,0.00929078,1378,1765,6.6957,-30.9806
161,-741,6.68323,30.8931,-0.000498931,0.000549479,-0.00501907,0.00507164,-0.00502109,-0.837431,0.00582707,0.0109614,1385,1765,6.68317,-30.8931
168,-741,6.65894,30.7994,-0.000232498,0.000227142,-0.00435072,0.00435411,-0.00435947,-0.811785,0.00503079,0.0249089,1392,1765,6.6589,-30.7994
175,-741,6.57764,30.6914,0,0,0,0,0,0,0,-1,1399,1765,6.57763,-30.6914
182,-741,6.64612,30.5474,0,0,0,0,0,0,0,-1,1406,1765,6.64613,-30.5474
189,-741,6.62756,30.4425,0,0,0,0,0,0,0,-1,1413,1765,6.62762,-30.4426
196,-741,6.59863,30.3503,0,0,0,0,0,0,0,-1,1420,1765,6.59866,-30.3504
203,-741,6.60657,30.1573,0,0,0,0,0,0,0,-1,1427,1765,6.60661,-30.1574
210,-741,6.55554,29.9053,0,0,0,0,0,0,0,-1,1434,1765,6.5556,-29.9052
217,-741,6.63538,29.7532,0,0,0,0,0,0,0,-1,1441,1765,6.63535,-29.7532
224,-741,6.71729,29.5746,0,0,0,0,0,0,0,-1,1448,1765,6.71725,-29.5746
231,-741,6.50562,29.7253,0,0,0,0,0,0,0,-1,1455,1765,6.50564,-29.7253
238,-741,6.45691,29.5397,-6.20497e-05,-0.00123938,-0.005012,0.00439573,-0.00569716,-0.72694,0.00584326,0.042888,1462,1765,6.45694,-29.5397
245,-741,6.37756,29.3562,0.000529082,-0.00140543,-0.00536909,0.00501735,-0.0058937,-0.696278,0.00630627,0.0465821,1469,1765,6.37752,-29.3562
252,-741,6.5,28.9602,0.00108232,-0.00126936,-0.00573765,0.00576338,-0.00595042,-0.684331,0.00676325,0.0479143,1476,1765,6.49999,-28.9602
259,-741,6.6571,29.1241,0,0,0,0,0,0,0,-1,1483,1765,6.65708,-29.1242
266,-741,6.58264,29.0973,0,0,0,0,0,0,0,-1,1490,1765,6.58262,-29.0973
273,-741,17.0328,7.54468,0,0,0,0,0,0,0,-1,1497,1765,17.0328,-7.54474
280,-741,16.2363,9.84546,0,0,0,0,0,0,0,-1,1504,1765,16.2363,-9.84547
287,-741,14.5045,8.71423,0,0,0,0,0,0,0,-1,1511,1765,14.5045,-8.71429
294,-741,12.1156,8.16724,0,0,0,0,0,0,0,-1,1518,1765,12.1156,-8.16724
301,-741,11.036,7.02612,0,0,0,0,0,0,0,-1,1525,1765,11.036,-7.02617
308,-741,10.4718,6.09814,0,0,0,0,0,0,0,-1,1532,1765,10.4718,-6.0981
315,-741,9.70715,6.86963,0,0,0,0,0,0,0,-1,1539,1765,9.70712,-6.86963
322,-741,9.21252,8.54858,0,0,0,0,0,0,0,-1,1546,1765,9.21251,-8.54858
329,-741,8.5603,10.1146,0,0,0,0,0,0,0,-1,1553,1765,8.56033,-10.1146
336,-741,4.74475,14.6453,0,0,0,0,0,0,0,-1,1560,1765,4.7447,-14.6452
343,-741,5.42297,5.93701,0,0,0,0,0,0,0,-1,1567,1765,5.42296,-5.937
350,-741,4.90369,5.44666,0,0,0,0,0,0,0,-1,1574,1765,4.90368,-5.44664
357,-741,4.02063,5.16626,0,0,0,0,0,0,0,-1,1581,1765,4.02058,-5.1662
364,-741,0,0,0,0,0,0,0,0,0,-1,1588,1765,0,0
371,-741,0,0,0,0,0,0,0,0,0,-1,1595,1765,0,0
378,-741,0,0,0,0,0,0,0,0,0,-1,1602,1765,0,0
385,-741,0,0,0,0,0,0,0,0,0,-1,1609,1765,0,0
392,-741,0,0,0,0,0,0,0,0,0,-1,1616,1765,0,0
399,-741,0,0,0,0,0,0,0,0,0,-1,1623,1765,0,0
406,-741,0,0,0,0,0,0,0,0,0,-1,1630,1765,0,0
413,-741,0,0,0,0,0,0,0,0,0,-1,1637,1765,0,0
420,-741,0,0,0,0,0,0,0,0,0,-1,1644,1765,0,0
427,-741,0,0,0,0,0,0,0,0,0,-1,1651,1765,0,0
434,-741,0,0,0,0,0,0,0,0,0,-1,1658,1765,0,0
441,-741,0,0,0,0,0,0,0,0,0,-1,1665,1765,0,0
448,-741,0,0,0,0,0,0,0,0,0,-1,1672,1765,0,0
455,-741,0,0,0,0,0,0,0,0,0,-1,1679,1765,0,0
462,-741,0,0,0,0,0,0,0,0,0,-1,1686,1765,0,0
469,-741,0,0,0,0,0,0,0,0,0,-1,1693,1765,0,0
476,-741,0,0,0,0,0,0,0,0,0,-1,1700,1765,0,0
483,-741,0,0,0,0,0,0,0,0,0,-1,1707,1765,0,0
490,-741,0,0,0,0,0,0,0,0,0,-1,1714,1765,0,0
497,-741,0,0,0,0,0,0,0,0,0,-1,1721,1765,0,0
504,-741,0,0,0,0,0,0,0,0,0,-1,1728,1765,0,0
511,-741,0,0,0,0,0,0,0,0,0,-1,1735,1765,0,0
518,-741,0,0,0,0,0,0,0,0,0,-1,1742,1765,0,0
525,-741,0,0,0,0,0,0,0,0,0,-1,1749,1765,0,0
532,-741,0,0,0,0,0,0,0,0,0,-1,1756,1765,0,0
539,-741,0,0,0,0,0,0,0,0,0,-1,1763,1765,0,0
546,-741,0,0,0,0,0,0,0,0,0,-1,1770,1765,0,0
553,-741,0,0,0,0,0,0,0,0,0,-1,1777,1765,0,0
560,-741,0,0,0,0,0,0,0,0,0,-1,1784,1765,0,0
567,-741,0,0,0,0,0,0,0,0,0,-1,1791,1765,0,0
574,-741,0,0,0,0,0,0,0,0,0,-1,1798,1765,0,0
581,-741,0,0,0,0,0,0,0,0,0,-1,1805,1765,0,0
588,-741,0,0,0,0,0,0,0,0,0,-1,1812,1765,0,0
595,-741,0,0,0,0,0,0,0,0,0,-1,1819,1765,0,0
602,-741,0,0,0,0,0,0,0,0,0,-1,1826,1765,0,0
609,-741,0,0,0,0,0,0,0,0,0,-1,1833,1765,0,0
616,-741,0,0,0,0,0,0,0,0,0,-1,1840,1765,0,0
623,-741,0,0,0,0,0,0,0,0,0,-1,1847,1765,0,0
630,-741,0,0,0,0,0,0,0,0,0,-1,1854,1765,0,0
637,-741,0,0,0,0,0,0,0,0,0,-1,1861,1765,0,0
644,-741,0,0,0,0,0,0,0,0,0,-1,1868,1765,0,0
651,-741,0,0,0,0,0,0,0,0,0,-1,1875,1765,0,0
658,-741,0,0,0,0,0,0,0,0,0,-1,1882,1765,0,0
665,-741,0,0,0,0,0,0,0,0,0,-1,1889,1765,0,0
672,-741,0,0,0,0,0,0,0,0,0,-1,1896,1765,0,0
679,-741,0,0,0,0,0,0,0,0,0,-1,1903,1765,0,0
686,-741,0,0,0,0,0,0,0,0,0,-1,1910,1765,0,0
693,-741,0,0,0,0,0,0,0,0,0,-1,1917,1765,0,0
700,-741,0,0,0,0,0,0,0,0,0,-1,1924,1765,0,0
707,-741,0,0,0,0,0,0,0,0,0,-1,1931,1765,0,0
714,-741,0,0,0,0,0,0,0,0,0,-1,1938,1765,0,0
721,-741,0,0,0,0,0,0,0,0,0,-1,1945,1765,0,0
728,-741,0,0,0,0,0,0,0,0,0,-1,1952,1765,0,0
735,-741,0,0,0,0,0,0,0,0,0,-1,1959,1765,0,0
742,-741,0,0,0,0,0,0,0,0,0,-1,1966,1765,0,0
749,-741,0,0,0,0,0,0,0,0,0,-1,1973,1765,0,0
756,-741,0,0,0,0,0,0,0,0,0,-1,1980,1765,0,0
763,-741,0,0,0,0,0,0,0,0,0,-1,1987,1765,0,0
770,-741,0,0,0,0,0,0,0,0,0,-1,1994,1765,0,0
777,-741,0,0,0,0,0,0,0,0,0,-1,2001,1765,0,0
784,-741,0,0,0,0,0,0,0,0,0,-1,2008,1765,0,0
791,-741,0,0,0,0,0,0,0,0,0,-1,2015,1765,0,0
798,-741,0,0,0,0,0,0,0,0,0,-1,2022,1765,0,0
805,-741,0,0,0,0,0,0,0,0,0,-1,2029,1765,0,0
812,-741,0,0,0,0,0,0,0,0,0,-1,2036,1765,0,0
-700,-748,0,0,0,0,0,0,0,0,0,-1,524,1772,0,0
-693,-748,0,0,0,0,0,0,0,0,0,-1,531,1772,0,0
-686,-748,0,0,0,0,0,0,0,0,0,-1,538,1772,0,0
-679,-748,0,0,0,0,0,0,0,0,0,-1,545,1772,0,0
-672,-748,0,0,0,0,0,0,0,0,0,-1,552,1772,0,0
-665,-748,0,0,0,0,0,0,0,0,0,-1,559,1772,0,0
-658,-748,0,0,0,0,0,0,0,0,0,-1,566,1772,0,0
-651,-748,0,0,0,0,0,0,0,0,0,-1,573,1772,0,0
-644,-748,0,0,0,0,0,0,0,0,0,-1,580,1772,0,0
-637,-748,0,0,0,0,0,0,0,0,0,-1,587,1772,0,0
-630,-748,0,0,0,0,0,0,0,0,0,-1,594,1772,0,0
-623,-748,0,0,0,0,0,0,0,0,0,-1,601,1772,0,0
-616,-748,0,0,0,0,0,0,0,0,0,-1,608,1772,0,0
-609,-748,0,0,0,0,0,0,0,0,0,-1,615,1772,0,0
-602,-748,0,0,0,0,0,0,0,0,0,-1,622,1772,0,0
-595,-748,0,0,0,0,0,0,0,0,0,-1,629,1772,0,0
-588,-748,0,0,0,0,0,0,0,0,0,-1,636,1772,0,0
-581,-748,0,0,0,0,0,0,0,0,0,-1,643,1772,0,0
-574,-748,0,0,0,0,0,0,0,0,0,-1,650,1772,0,0
-567,-748,0,0,0,0,0,0,0,0,0,-1,657,1772,0,0
-560,-748,0,0,0,0,0,0,0,0,0,-1,664,1772,0,0
-553,-748,0,0,0,0,0,0,0,0,0,-1,671,1772,0,0
-546,-748,0,0,0,0,0,0,0,0,0,-1,678,1772,0,0
-539,-748,0,0,0,0,0,0,0,0,0,-1,685,1772,0,0
-532,-748,0,0,0,0,0,0,0,0,0,-1,692,1772,0,0
-525,-748,0,0,0,0,0,0,0,0,0,-1,699,1772,0,0
-518,-748,0,0,0,0,0,0,0,0,0,-1,706,1772,0,0
-511,-748,0,0,0,0,0,0,0,0,0,-1,713,1772,0,0
-504,-748,0,0,0,0,0,0,0,0,0,-1,720,1772,0,0
-497,-748,0,0,0,0,0,0,0,0,0,-1,727,1772,0,0
-490,-748,0,0,0,0,0,0,0,0,0,-1,734,1772,0,0
-483,-748,0,0,0,0,0,0,0,0,0,-1,741,1772,0,0
-476,-748,0,0,0,0,0,0,0,0,0,-1,748,1772,0,0
-469,-748,0,0,0,0,0,0,0,0,0,-1,755,1772,0,0
-462,-748,0,0,0,0,0,0,0,0,0,-1,762,1772,0,0
-455,-748,0,0,0,0,0,0,0,0,0,-1,769,1772,0,0
-448,-748,0,0,0,0,0,0,0,0,0,-1,776,1772,0,0
-441,-748,0,0,0,0,0,0,0,0,0,-1,783,1772,0,0
-434,-748,0,0,0,0,0,0,0,0,0,-1,790,1772,0,0
-427,-748,0,0,0,0,0,0,0,0,0,-1,797,1772,0,0
-420,-748,0,0,0,0,0,0,0,0,0,-1,804,1772,0,0
-413,-748,0,0,0,0,0,0,0,0,0,-1,811,1772,0,0
-406,-748,0,0,0,0,0,0,0,0,0,-1,818,1772,0,0
-399,-748,0,0,0,0,0,0,0,0,0,-1,825,1772,0,0
-392,-748,0,0,0,0,0,0,0,0,0,-1,832,1772,0,0
-385,-748,0,0,0,0,0,0,0,0,0,-1,839,1772,0,0
-378,-748,0,0,0,0,0,0,0,0,0,-1,846,1772,0,0
-371,-748,0,0,0,0,0,0,0,0,0,-1,853,1772,0,0
-364,-748,0,0,0,0,0,0,0,0,0,-1,860,1772,0,0
-357,-748,0,0,0,0,0,0,0,0,0,-1,867,1772,0,0
-350,-748,0,0,0,0,0,0,0,0,0,-1,874,1772,0,0
-343,-748,0,0,0,0,0,0,0,0,0,-1,881,1772,0,0
-336,-748,0,0,0,0,0,0,0,0,0,-1,888,1772,0,0
-329,-748,0,0,0,0,0,0,0,0,0,-1,895,1772,0,0
-322,-748,0,0,0,0,0,0,0,0,0,-1,902,1772,0,0
-315,-748,0,0,0,0,0,0,0,0,0,-1,909,1772,0,0
-308,-748,0,0,0,0,0,0,0,0,0,-1,916,1772,0,0
-301,-748,0,0,0,0,0,0,0,0,0,-1,923,1772,0,0
-294,-748,0,0,0,0,0,0,0,0,0,-1,930,1772,0,0
-287,-748,0,0,0,0,0,0,0,0,0,-1,937,1772,0,0
-280,-748,0,0,0,0,0,0,0,0,0,-1,944,1772,0,0
-273,-748,0,0,0,0,0,0,0,0,0,-1,951,1772,0,0
-266,-748,0,0,0,0,0,0,0,0,0,-1,958,1772,0,0
-259,-748,0,0,0,0,0,0,0,0,0,-1,965,1772,0,0
-252,-748,0,0,0,0,0,0,0,0,0,-1,972,1772,0,0
-245,-748,0,0,0,0,0,0,0,0,0,-1,979,1772,0,0
-238,-748,0,0,0,0,0,0,0,0,0,-1,986,1772,0,0
-231,-748,0,0,0,0,0,0,0,0,0,-1,993,1772,0,0
-224,-748,0,0,0,0,0,0,0,0,0,-1,1000,1772,0,0
-217,-748,6.45807,16.5496,0,0,0,0,0,0,0,-1,1007,1772,6.45805,-16.5495
-210,-748,5.46893,25.1432,0,0,0,0,0,0,0,-1,1014,1772,5.4689,-25.1432
-203,-748,5.40662,24.1573,0,0,0,0,0,0,0,-1,1021,1772,5.40657,-24.1574
-196,-748,5.15344,22.8755,0,0,0,0,0,0,0,-1,1028,1772,5.15342,-22.8754
-189,-748,7.13208,21.4095,0,0,0,0,0,0,0,-1,1035,1772,7.13211,-21.4095
-182,-748,3.94958,20.8662,0,0,0,0,0,0,0,-1,1042,1772,3.94959,-20.8662
-175,-748,3.56726,19.4518,0,0,0,0,0,0,0,-1,1049,1772,3.5673,-19.4518
-168,-748,3.04858,18.0109,0,0,0,0,0,0,0,-1,1056,1772,3.04853,-18.0108
-161,-748,3.50562,13.2729,0,0,0,0,0,0,0,-1,1063,1772,3.5056,-13.2729
-154,-748,-3.38562,10.6989,0,0,0,0,0,0,0,-1,1070,1772,-3.38564,-10.6989
-147,-748,-6.38733,11.0702,0,0,0,0,0,0,0,-1,1077,1772,-6.38731,-11.0702
-140,-748,7.42126,23.8113,0,0,0,0,0,0,0,-1,1084,1772,7.42133,-23.8113
-133,-748,7.44727,22.0308,0,0,0,0,0,0,0,-1,1091,1772,7.44728,-22.0308
-126,-748,5.98035,22.6067,0,0,0,0,0,0,0,-1,1098,1772,5.9803,-22.6067
-119,-748,6.63342,26.309,0,0,0,0,0,0,0,-1,1105,1772,6.6334,-26.3089
-112,-748,6.91333,24.923,0,0,0,0,0,0,0,-1,1112,1772,6.91339,-24.923
-105,-748,6.83313,25.0537,0,0,0,0,0,0,0,-1,1119,1772,6.83311,-25.0537
-98,-748,6.99341,13.5935,0,0,0,0,0,0,0,-1,1126,1772,6.99343,-13.5935
-91,-748,4.85352,15.3033,0,0,0,0,0,0,0,-1,1133,1772,4.85351,-15.3033
-84,-748,-0.192017,7.26196,0,0,0,0,0,0,0,-1,1140,1772,-0.192047,-7.26201
-77,-748,4.42615,13.5537,0,0,0,0,0,0,0,-1,1147,1772,4.4261,-13.5538
-70,-748,4.46191,13.7446,0,0,0,0,0,0,0,-1,1154,1772,4.4619,-13.7446
-63,-748,4.49768,13.9355,0,0,0,0,0,0,0,-1,1161,1772,4.49769,-13.9355
-56,-748,3.05762,7.87817,0,0,0,0,0,0,0,-1,1168,1772,3.05768,-7.87822
-49,-748,3.04102,7.82471,0,0,0,0,0,0,0,-1,1175,1772,3.04096,-7.82468
-42,-748,0.793457,14.9474,0,0,0,0,0,0,0,-1,1182,1772,0.793413,-14.9474
-35,-748,7.04858,30.7655,0,0,0,0,0,0,0,-1,1189,1772,7.04864,-30.7655
-28,-748,7.13403,30.8442,0.00564957,0.00221513,0.00714048,0.0112764,-0.00341172,0.667394,0.00887617,0.0492215,1196,1772,7.134,-30.8442
-21,-748,7.16455,30.8915,0.00552163,0.00229218,0.00747468,0.011554,-0.0037402,0.67902,0.00920624,0.0230409,1203,1772,7.16452,-30.8915
-14,-748,7.08911,30.9314,0.00511653,0.00194678,0.0077933,0.0114845,-0.00442117,0.685084,0.00948015,0.0157625,1210,1772,7.08908,-30.9314
-7,-748,7.07312,30.988,0.00542061,0.0020665,0.00642031,0.0103793,-0.00289217,0.657647,0.00805848,0.0161588,1217,1772,7.07312,-30.988
0,-748,7.0658,31.0752,0.00560809,0.000584326,0.00569332,0.00931902,-0.00312661,0.577643,0.00747609,0.0154812,1224,1772,7.06576,-31.0752
7,-748,7.03772,31.1344,0.00566448,0.000618972,0.00483101,0.00859177,-0.00230832,0.544774,0.00663256,0.0144308,1231,1772,7.03778,-31.1344
14,-748,7.01318,31.223,0.00597384,0.000122195,0.00312959,0.00733226,-0.00123623,0.409518,0.00534809,0.0157654,1238,1772,7.0132,-31.2231
21,-748,6.99561,31.2854,0.00659816,-0.00012911,0.0013139,0.00684567,-0.000376621,0.186197,0.00469436,0.010811,1245,1772,6.99559,-31.2854
28,-748,6.95178,31.3344,0.0071606,-0.0013465,-0.000304649,0.0071715,-0.0013574,-0.0357501,0.00529182,0.0104506,1252,1772,6.95174,-31.3343
35,-748,6.94299,31.3865,0.00736768,-0.0021056,-0.00206353,0.00779766,-0.00253558,-0.205429,0.0062184,0.0118892,1259,1772,6.943,-31.3864
42,-748,6.93616,31.4049,0.0073867,-0.00314355,-0.00364768,0.00852682,-0.00428367,-0.302939,0.00753016,0.0132915,1266,1772,6.93621,-31.4049
49,-748,6.90918,31.4114,0.00714091,-0.00402978,-0.0049684,0.00903092,-0.0059198,-0.363503,0.00869388,0.00985432,1273,1772,6.90919,-31.4114
56,-748,6.88257,31.4425,0.00670613,-0.00495282,-0.00593566,0.0091962,-0.00744289,-0.397212,0.00962435,0.00937562,1280,1772,6.88254,-31.4426
63,-748,6.86938,31.4467,0.00564151,-0.00537467,-0.00684751,0.00892134,-0.00865449,-0.446691,0.0101478,0.0116078,1287,1772,6.86943,-31.4467
70,-748,6.86426,31.4537,0.00460754,-0.00520331,-0.00786828,0.00897428,-0.00957005,-0.506659,0.0107084,0.0138105,1294,1772,6.86425,-31.4537
77,-748,6.84412,31.4636,0.0033481,-0.00536725,-0.00878001,0.00879236,-0.0108115,-0.555049,0.0113383,0.0128064,1301,1772,6.84417,-31.4637
84,-748,6.80029,31.4746,0.00174769,-0.00521658,-0.00924577,0.0081453,-0.0116142,-0.605303,0.0114666,0.0141796,1308,1772,6.80025,-31.4746
91,-748,6.78247,31.4446,0.000181187,-0.00455667,-0.00949329,0.00759665,-0.0119721,-0.663127,0.0113918,0.0115144,1315,1772,6.78248,-31.4446
98,-748,6.75684,31.4021,-0.00156087,-0.00389933,-0.00891701,0.00626324,-0.0117234,-0.720208,0.0105429,0.0109379,1322,1772,6.75688,-31.4021
105,-748,6.74609,31.3523,-0.00263967,-0.00184824,-0.00936852,0.00713292,-0.0116208,-0.806505,0.0109303,0.0121416,1329,1772,6.74604,-31.3523
112,-748,6.75391,31.3224,-0.00322251,-0.00159086,-0.00996528,0.00759193,-0.0124053,-0.82624,0.0116564,0.0149922,1336,1772,6.75388,-31.3223
119,-748,6.73706,31.2849,-0.00374668,-0.000682599,-0.0100451,0.00794666,-0.0123759,-0.861073,0.0118258,0.0130383,1343,1772,6.73705,-31.2849
126,-748,6.72437,31.2402,-0.0041183,-0.000135826,-0.0103102,0.00837367,-0.0126278,-0.88079,0.0122078,0.0142806,1350,1772,6.72437,-31.2402
133,-748,6.67419,31.1617,-0.00388095,0.00132514,-0.0107169,0.00975057,-0.0123064,-0.904537,0.0127631,0.0083103,1357,1772,6.67424,-31.1617
140,-748,6.64539,31.0968,-0.00319326,0.0013781,-0.010548,0.00988527,-0.0117004,-0.892095,0.0124772,0.0104727,1364,1772,6.64537,-31.0969
147,-748,6.6687,31.0316,-0.00261491,0.00165269,-0.0101622,0.00990271,-0.0108649,-0.888882,0.0119945,0.0125863,1371,1772,6.6687,-31.0316
154,-748,6.63647,30.9685,-0.00223094,0.00124851,-0.00964812,0.0093125,-0.0102949,-0.874599,0.0113251,0.0118551,1378,1772,6.63648,-30.9685
161,-748,6.5813,30.8993,-0.00194733,0.00113632,-0.00897354,0.00869953,-0.00951055,-0.870477,0.0105171,0.0184767,1385,1772,6.58128,-30.8993
168,-748,6.59009,30.8151,0,0,0,0,0,0,0,-1,1392,1772,6.59004,-30.815
175,-748,11.6235,16.8242,0,0,0,0,0,0,0,-1,1399,1772,11.6236,-16.8242
182,-748,7.62476,10.3058,0,0,0,0,0,0,0,-1,1406,1772,7.62476,-10.3058
189,-748,6.15857,6.95898,0,0,0,0,0,0,0,-1,1413,1772,6.15862,-6.95896
196,-748,3.9425,8.46021,0,0,0,0,0,0,0,-1,1420,1772,3.9425,-8.46026
203,-748,3.9668,12.9835,0,0,0,0,0,0,0,-1,1427,1772,3.96678,-12.9836
210,-748,4.71472,16.8318,0,0,0,0,0,0,0,-1,1434,1772,4.71471,-16.8317
217,-748,5.38452,21.5551,0,0,0,0,0,0,0,-1,1441,1772,5.38455,-21.555
224,-748,6.14258,25.2345,0,0,0,0,0,0,0,-1,1448,1772,6.14263,-25.2345
231,-748,6.56714,29.4252,0,0,0,0,0,0,0,-1,1455,1772,6.56712,-29.4252
238,-748,6.34644,29.5891,0,0,0,0,0,0,0,-1,1462,1772,6.34644,-29.5891
245,-748,6.15295,29.4771,0,0,0,0,0,0,0,-1,1469,1772,6.15293,-29.4771
252,-748,6.38464,28.853,0,0,0,0,0,0,0,-1,1476,1772,6.38462,-28.8531
259,-748,3.5614,20.4832,0,0,0,0,0,0,0,-1,1483,1772,3.56142,-20.4832
266,-748,17.9011,7.59448,0,0,0,0,0,0,0,-1,1490,1772,17.9011,-7.59452
273,-748,16.4131,7.57129,0,0,0,0,0,0,0,-1,1497,1772,16.413,-7.57125
280,-748,15.2177,7.24829,0,0,0,0,0,0,0,-1,1504,1772,15.2176,-7.24833
287,-748,14.161,8.32813,0,0,0,0,0,0,0,-1,1511,1772,14.161,-8.32808
294,-748,12.2117,7.453,0,0,0,0,0,0,0,-1,1518,1772,12.2116,-7.45297
301,-748,11.7134,7.3595,0,0,0,0,0,0,0,-1,1525,1772,11.7133,-7.35949
308,-748,9.92456,7.80225,0,0,0,0,0,0,0,-1,1532,1772,9.92453,-7.80224
315,-748,8.91541,8.29773,0,0,0,0,0,0,0,-1,1539,1772,8.91544,-8.29773
322,-748,7.83618,8.87122,0,0,0,0,0,0,0,-1,1546,1772,7.83613,-8.87124
329,-748,3.48315,14.6533,0,0,0,0,0,0,0,-1,1553,1772,3.48316,-14.6534
336,-748,3.76001,15.8163,0,0,0,0,0,0,0,-1,1560,1772,3.75995,-15.8163
343,-748,0,0,0,0,0,0,0,0,0,-1,1567,1772,0,0
350,-748,0,0,0,0,0,0,0,0,0,-1,1574,1772,0,0
357,-748,0,0,0,0,0,0,0,0,0,-1,1581,1772,0,0
364,-748,0,0,0,0,0,0,0,0,0,-1,1588,1772,0,0
371,-748,0,0,0,0,0,0,0,0,0,-1,1595,1772,0,0
378,-748,0,0,0,0,0,0,0,0,0,-1,1602,1772,0,0
385,-748,0,0,0,0,0,0,0,0,0,-1,1609,1772,0,0
392,-748,0,0,0,0,0,0,0,0,0,-1,1616,1772,0,0
399,-748,0,0,0,0,0,0,0,0,0,-1,1623,1772,0,0
406,-748,0,0,0,0,0,0,0,0,0,-1,1630,1772,0,0
413,-748,0,0,0,0,0,0,0,0,0,-1,1637,1772,0,0
420,-748,0,0,0,0,0,0,0,0,0,-1,1644,1772,0,0
427,-748,0,0,0,0,0,0,0,0,0,-1,1651,1772,0,0
434,-748,0,0,0,0,0,0,0,0,0,-1,1658,1772,0,0
441,-748,0,0,0,0,0,0,0,0,0,-1,1665,1772,0,0
448,-748,0,0,0,0,0,0,0,0,0,-1,1672,1772,0,0
455,-748,0,0,0,0,0,0,0,0,0,-1,1679,1772,0,0
462,-748,0,0,0,0,0,0,0,0,0,-1,1686,1772,0,0
469,-748,0,0,0,0,0,0,0,0,0,-1,1693,1772,0,0
476,-748,0,0,0,0,0,0,0,0,0,-1,1700,1772,0,0
483,-748,0,0,0,0,0,0,0,0,0,-1,1707,1772,0,0
490,-748,0,0,0,0,0,0,0,0,0,-1,1714,1772,0,0
497,-748,0,0,0,0,0,0,0,0,0,-1,1721,1772,0,0
504,-748,0,0,0,0,0,0,0,0,0,-1,1728,1772,0,0
511,-748,0,0,0,0,0,0,0,0,0,-1,1735,1772,0,0
518,-748,0,0,0,0,0,0,0,0,0,-1,1742,1772,0,0
525,-748,0,0,0,0,0,0,0,0,0,-1,1749,1772,0,0
532,-748,0,0,0,0,0,0,0,0,0,-1,1756,1772,0,0
539,-748,0,0,0,0,0,0,0,0,0,-1,1763,1772,0,0
546,-748,0,0,0,0,0,0,0,0,0,-1,1770,1772,0,0
553,-748,0,0,0,0,0,0,0,0,0,-1,1777,1772,0,0
560,-748,0,0,0,0,0,0,0,0,0,-1,1784,1772,0,0
567,-748,0,0,0,0,0,0,0,0,0,-1,1791,1772,0,0
574,-748,0,0,0,0,0,0,0,0,0,-1,1798,1772,0,0
581,-748,0,0,0,0,0,0,0,0,0,-1,1805,1772,0,0
588,-748,0,0,0,0,0,0,0,0,0,-1,1812,1772,0,0
595,-748,0,0,0,0,0,0,0,0,0,-1,1819,1772,0,0
602,-748,0,0,0,0,0,0,0,0,0,-1,1826,1772,0,0
609,-748,0,0,0,0,0,0,0,0,0,-1,1833,1772,0,0
616,-748,0,0,0,0,0,0,0,0,0,-1,1840,1772,0,0
623,-748,0,0,0,0,0,0,0,0,0,-1,1847,1772,0,0
630,-748,0,0,0,0,0,0,0,0,0,-1,1854,1772,0,0
637,-748,0,0,0,0,0,0,0,0,0,-1,1861,1772,0,0
644,-748,0,0,0,0,0,0,0,0,0,-1,1868,1772,0,0
651,-748,0,0,0,0,0,0,0,0,0,-1,1875,1772,0,0
658,-748,0,0,0,0,0,0,0,0,0,-1,1882,1772,0,0
665,-748,0,0,0,0,0,0,0,0,0,-1,1889,1772,0,0
672,-748,0,0,0,0,0,0,0,0,0,-1,1896,1772,0,0
679,-748,0,0,0,0,0,0,0,0,0,-1,1903,1772,0,0
686,-748,0,0,0,0,0,0,0,0,0,-1,1910,1772,0,0
693,-748,0,0,0,0,0,0,0,0,0,-1,1917,1772,0,0
700,-748,0,0,0,0,0,0,0,0,0,-1,1924,1772,0,0
707,-748,0,0,0,0,0,0,0,0,0,-1,1931,1772,0,0
714,-748,0,0,0,0,0,0,0,0,0,-1,1938,1772,0,0
721,-748,0,0,0,0,0,0,0,0,0,-1,1945,1772,0,0
728,-748,0,0,0,0,0,0,0,0,0,-1,1952,1772,0,0
735,-748,0,0,0,0,0,0,0,0,0,-1,1959,1772,0,0
742,-748,0,0,0,0,0,0,0,0,0,-1,1966,1772,0,0
749,-748,0,0,0,0,0,0,0,0,0,-1,1973,1772,0,0
756,-748,0,0,0,0,0,0,0,0,0,-1,1980,1772,0,0
763,-748,0,0,0,0,0,0,0,0,0,-1,1987,1772,0,0
770,-748,0,0,0,0,0,0,0,0,0,-1,1994,1772,0,0
777,-748,0,0,0,0,0,0,0,0,0,-1,2001,1772,0,0
784,-748,0,0,0,0,0,0,0,0,0,-1,2008,1772,0,0
791,-748,0,0,0,0,0,0,0,0,0,-1,2015,1772,0,0
798,-748,0,0,0,0,0,0,0,0,0,-1,2022,1772,0,0
805,-748,0,0,0,0,0,0,0,0,0,-1,2029,1772,0,0
812,-748,0,0,0,0,0,0,0,0,0,-1,2036,1772,0,0
-700,-755,0,0,0,0,0,0,0,0,0,-1,524,1779,0,0
-693,-755,0,0,0,0,0,0,0,0,0,-1,531,1779,0,0
-686,-755,0,0,0,0,0,0,0,0,0,-1,538,1779,0,0
-679,-755,0,0,0,0,0,0,0,0,0,-1,545,1779,0,0
-672,-755,0,0,0,0,0,0,0,0,0,-1,552,1779,0,0
-665,-755,0,0,0,0,0,0,0,0,0,-1,559,1779,0,0
-658,-755,0,0,0,0,0,0,0,0,0,-1,566,1779,0,0
-651,-755,0,0,0,0,0,0,0,0,0,-1,573,1779,0,0
-644,-755,0,0,0,0,0,0,0,0,0,-1,580,1779,0,0
-637,-755,0,0,0,0,0,0,0,0,0,-1,587,1779,0,0
-630,-755,0,0,0,0,0,0,0,0,0,-1,594,1779,0,0
-623,-755,0,0,0,0,0,0,0,0,0,-1,601,1779,0,0
-616,-755,0,0,0,0,0,0,0,0,0,-1,608,1779,0,0
-609,-755,0,0,0,0,0,0,0,0,0,-1,615,1779,0,0
-602,-755,0,0,0,0,0,0,0,0,0,-1,622,1779,0,0
-595,-755,0,0,0,0,0,0,0,0,0,-1,629,1779,0,0
-588,-755,0,0,0,0,0,0,0,0,0,-1,636,1779,0,0
-581,-755,0,0,0,0,0,0,0,0,0,-1,643,1779,0,0
-574,-755,0,0,0,0,0,0,0,0,0,-1,650,1779,0,0
-567,-755,0,0,0,0,0,0,0,0,0,-1,657,1779,0,0
-560,-755,0,0,0,0,0,0,0,0,0,-1,664,1779,0,0
-553,-755,0,0,0,0,0,0,0,0,0,-1,671,1779,0,0
-546,-755,0,0,0,0,0,0,0,0,0,-1,678,1779,0,0
-539,-755,0,0,0,0,0,0,0,0,0,-1,685,1779,0,0
-532,-755,0,0,0,0,0,0,0,0,0,-1,692,1779,0,0
-525,-755,0,0,0,0,0,0,0,0,0,-1,699,1779,0,0
-518,-755,0,0,0,0,0,0,0,0,0,-1,706,1779,0,0
-511,-755,0,0,0,0,0,0,0,0,0,-1,713,1779,0,0
-504,-755,0,0,0,0,0,0,0,0,0,-1,720,1779,0,0
-497,-755,0,0,0,0,0,0,0,0,0,-1,727,1779,0,0
-490,-755,0,0,0,0,0,0,0,0,0,-1,734,1779,0,0
-483,-755,0,0,0,0,0,0,0,0,0,-1,741,1779,0,0
-476,-755,0,0,0,0,0,0,0,0,0,-1,748,1779,0,0
-469,-755,0,0,0,0,0,0,0,0,0,-1,755,1779,0,0
-462,-755,0,0,0,0,0,0,0,0,0,-1,762,1779,0,0
-455,-755,0,0,0,0,0,0,0,0,0,-1,769,1779,0,0
-448,-755,0,0,0,0,0,0,0,0,0,-1,776,1779,0,0
-441,-755,0,0,0,0,0,0,0,0,0,-1,783,1779,0,0
-434,-755,0,0,0,0,0,0,0,0,0,-1,790,1779,0,0
-427,-755,0,0,0,0,0,0,0,0,0,-1,797,1779,0,0
-420,-755,0,0,0,0,0,0,0,0,0,-1,804,1779,0,0
-413,-755,0,0,0,0,0,0,0,0,0,-1,811,1779,0,0
-406,-755,0,0,0,0,0,0,0,0,0,-1,818,1779,0,0
-399,-755,0,0,0,0,0,0,0,0,0,-1,825,1779,0,0
-392,-755,0,0,0,0,0,0,0,0,0,-1,832,1779,0,0
-385,-755,0,0,0,0,0,0,0,0,0,-1,839,1779,0,0
-378,-755,0,0,0,0,0,0,0,0,0,-1,846,1779,0,0
-371,-755,0,0,0,0,0,0,0,0,0,-1,853,1779,0,0
-364,-755,0,0,0,0,0,0,0,0,0,-1,860,1779,0,0
-357,-755,0,0,0,0,0,0,0,0,0,-1,867,1779,0,0
-350,-755,0,0,0,0,0,0,0,0,0,-1,874,1779,0,0
-343,-755,0,0,0,0,0,0,0,0,0,-1,881,1779,0,0
-336,-755,0,0,0,0,0,0,0,0,0,-1,888,1779,0,0
-329,-755,0,0,0,0,0,0,0,0,0,-1,895,1779,0,0
-322,-755,0,0,0,0,0,0,0,0,0,-1,902,1779,0,0
-315,-755,0,0,0,0,0,0,0,0,0,-1,909,1779,0,0
-308,-755,0,0,0,0,0,0,0,0,0,-1,916,1779,0,0
-301,-755,0,0,0,0,0,0,0,0,0,-1,923,1779,0,0
-294,-755,0,0,0,0,0,0,0,0,0,-1,930,1779,0,0
-287,-755,0,0,0,0,0,0,0,0,0,-1,937,1779,0,0
-280,-755,0,0,0,0,0,0,0,0,0,-1,944,1779,0,0
-273,-755,0,0,0,0,0,0,0,0,0,-1,951,1779,0,0
-266,-755,0,0,0,0,0,0,0,0,0,-1,958,1779,0,0
-259,-755,0,0,0,0,0,0,0,0,0,-1,965,1779,0,0
-252,-755,0,0,0,0,0,0,0,0,0,-1,972,1779,0,0
-245,-755,0,0,0,0,0,0,0,0,0,-1,979,1779,0,0
-238,-755,0,0,0,0,0,0,0,0,0,-1,986,1779,0,0
-231,-755,0,0,0,0,0,0,0,0,0,-1,993,1779,0,0
-224,-755,0,0,0,0,0,0,0,0,0,-1,1000,1779,0,0
-217,-755,0,0,0,0,0,0,0,0,0,-1,1007,1779,0,0
-210,-755,0,0,0,0,0,0,0,0,0,-1,1014,1779,0,0
-203,-755,5.47998,25.527,0,0,0,0,0,0,0,-1,1021,1779,5.47993,-25.527
-196,-755,5.18445,23.9307,0,0,0,0,0,0,0,-1,1028,1779,5.1844,-23.9306
-189,-755,4.8175,22.4788,0,0,0,0,0,0,0,-1,1035,1779,4.81745,-22.4788
-182,-755,4.021,20.8032,0,0,0,0,0,0,0,-1,1042,1779,4.02094,-20.8032
-175,-755,3.79993,18.8242,0,0,0,0,0,0,0,-1,1049,1779,3.79995,-18.8242
-168,-755,3.14294,16.9865,0,0,0,0,0,0,0,-1,1056,1779,3.14291,-16.9864
-161,-755,-2.85889,11.5868,0,0,0,0,0,0,0,-1,1063,1779,-2.85887,-11.5868
-154,-755,-5.39026,8.51416,0,0,0,0,0,0,0,-1,1070,1779,-5.3903,-8.51417
-147,-755,-6.45593,10.2422,0,0,0,0,0,0,0,-1,1077,1779,-6.45594,-10.2422
-140,-755,1.33521,21.3856,0,0,0,0,0,0,0,-1,1084,1779,1.33522,-21.3857
-133,-755,2.89417,21.0964,0,0,0,0,0,0,0,-1,1091,1779,2.89422,-21.0964
-126,-755,3.26404,20.9304,0,0,0,0,0,0,0,-1,1098,1779,3.26399,-20.9305
-119,-755,5.17761,21.9325,0,0,0,0,0,0,0,-1,1105,1779,5.17761,-21.9325
-112,-755,5.40247,24.5646,0,0,0,0,0,0,0,-1,1112,1779,5.40244,-24.5646
-105,-755,6.6344,19.6062,0,0,0,0,0,0,0,-1,1119,1779,6.63439,-19.6062
-98,-755,6.32544,15.6812,0,0,0,0,0,0,0,-1,1126,1779,6.32543,-15.6812
-91,-755,5.51025,12.0438,0,0,0,0,0,0,0,-1,1133,1779,5.51022,-12.0439
-84,-755,0.169312,8.66443,0,0,0,0,0,0,0,-1,1140,1779,0.16932,-8.66446
-77,-755,-0.0491943,6.87439,0,0,0,0,0,0,0,-1,1147,1779,-0.0491385,-6.87443
-70,-755,4.5686,13.2169,0,0,0,0,0,0,0,-1,1154,1779,4.56865,-13.2169
-63,-755,-1.36316,7.3147,0,0,0,0,0,0,0,-1,1161,1779,-1.36312,-7.31473
-56,-755,0.0483398,5.06079,0,0,0,0,0,0,0,-1,1168,1779,0.0483138,-5.06084
-49,-755,-1.32263,5.33716,0,0,0,0,0,0,0,-1,1175,1779,-1.32264,-5.33718
-42,-755,-2.03613,4.01672,0,0,0,0,0,0,0,-1,1182,1779,-2.0361,-4.01671
-35,-755,-2.72498,2.37476,0,0,0,0,0,0,0,-1,1189,1779,-2.72502,-2.37473
-28,-755,7.06091,30.9771,0,0,0,0,0,0,0,-1,1196,1779,7.06086,-30.9771
-21,-755,7.29016,30.8989,0,0,0,0,0,0,0,-1,1203,1779,7.29015,-30.8989
-14,-755,7.21472,30.9248,0.0100905,0.00428695,0.0116205,0.0191661,-0.00478861,0.663044,0.0146371,0.0322554,1210,1779,7.21472,-30.9248
-7,-755,7.11829,30.9554,0.00992026,0.0044141,0.00968312,0.0172341,-0.00289971,0.646894,0.012568,0.0237252,1217,1779,7.11834,-30.9555
0,-755,7.11523,31.0514,0.0097357,0.00231926,0.00851048,0.0153108,-0.00325579,0.579939,0.0114478,0.0145326,1224,1779,7.11523,-31.0514
7,-755,7.10742,31.1438,0.00953375,0.00209026,0.00708331,0.0138135,-0.00218954,0.543508,0.0100189,0.0122271,1231,1779,7.10745,-31.1438
14,-755,7.09058,31.2206,0.00973754,0.00120197,0.00437077,0.0115786,-0.00063906,0.398659,0.00794064,0.0113643,1238,1779,7.09061,-31.2206
21,-755,7.03113,31.3032,0.0103633,0.000563124,0.00147629,0.0105809,0.000345567,0.146314,0.00694161,0.0153121,1245,1779,7.03107,-31.3032
28,-755,6.98083,31.343,0.0108825,-0.00131907,-0.00109524,0.01098,-0.0014166,-0.0888166,0.007835,0.0174202,1252,1779,6.98082,-31.3431
35,-755,7.026,31.3945,0.0109122,-0.00259025,-0.0038076,0.0119119,-0.00358995,-0.256759,0.00937002,0.0177446,1259,1779,7.02603,-31.3946
42,-755,6.97974,31.4022,0.0107435,-0.00417346,-0.00620104,0.0129846,-0.00641456,-0.3468,0.0114122,0.0137593,1266,1779,6.97979,-31.4023
49,-755,6.93689,31.4037,0.0102331,-0.00549118,-0.0082157,0.0137424,-0.00900054,-0.403693,0.0132255,0.00947652,1273,1779,6.93695,-31.4037
56,-755,6.90662,31.4297,0.00944838,-0.00679921,-0.00969572,0.0139738,-0.0113246,-0.436692,0.0146327,0.00859233,1280,1779,6.90659,-31.4296
63,-755,6.8988,31.4446,0.00776374,-0.00740023,-0.0110197,0.0135579,-0.0131944,-0.484072,0.0154459,0.00913956,1287,1779,6.89884,-31.4446
70,-755,6.89404,31.4333,0.00613122,-0.00716905,-0.0124156,0.0135655,-0.0146034,-0.539528,0.016267,0.0121143,1294,1779,6.894,-31.4333
77,-755,6.84534,31.4188,0.0042321,-0.00732324,-0.0136369,0.0132648,-0.0163559,-0.585022,0.0171325,0.0112907,1301,1779,6.84539,-31.4188
84,-755,6.81604,31.4202,0.00191499,-0.00701522,-0.0142761,0.012408,-0.0175082,-0.633834,0.0173556,0.0120838,1308,1779,6.81606,-31.4202
91,-755,6.78687,31.3915,-0.000362095,-0.00600301,-0.0145919,0.0116794,-0.0180445,-0.689931,0.0172918,0.0122186,1315,1779,6.78692,-31.3915
98,-755,6.74182,31.3749,-0.00286286,-0.00503219,-0.0138841,0.00997884,-0.0178739,-0.746416,0.0162947,0.0130842,1322,1779,6.74179,-31.3749
105,-755,6.74915,31.3806,-0.00447986,-0.00214296,-0.014575,0.0113104,-0.0179332,-0.825397,0.0170275,0.0166336,1329,1779,6.7492,-31.3806
112,-755,6.72729,31.3218,-0.00543506,-0.00170027,-0.0154887,0.0120332,-0.0191685,-0.845391,0.0181706,0.0223427,1336,1779,6.72733,-31.3218
119,-755,6.7334,31.2482,-0.00634692,-0.000441617,-0.0156627,0.0125443,-0.0193329,-0.878562,0.0185429,0.0218266,1343,1779,6.73338,-31.2482
126,-755,6.7196,31.2473,-0.00696717,0.000397519,-0.0161268,0.013257,-0.0198267,-0.897642,0.019226,0.0239224,1350,1779,6.71966,-31.2473
133,-755,6.59509,31.1812,-0.00662468,0.00236063,-0.0168594,0.0153158,-0.0195798,-0.915611,0.020197,0.0237889,1357,1779,6.59506,-31.1811
140,-755,6.47961,31.1433,-0.00564618,0.00243025,-0.0167664,0.0156379,-0.0188539,-0.903573,0.0199427,0.0288753,1364,1779,6.47962,-31.1433
147,-755,6.57654,31.1019,-0.00480107,0.00274158,-0.0163143,0.0157148,-0.0177743,-0.898986,0.0193471,0.0306942,1371,1779,6.57652,-31.1019
154,-755,6.60767,31.0392,-0.00411832,0.00218199,-0.0156307,0.0149768,-0.0169131,-0.884834,0.018423,0.0320949,1378,1779,6.60766,-31.0392
161,-755,6.50659,30.9233,0,0,0,0,0,0,0,-1,1385,1779,6.5066,-30.9233
168,-755,3.98181,7.35901,0,0,0,0,0,0,0,-1,1392,1779,3.98184,-7.35904
175,-755,8.17065,1.34363,0,0,0,0,0,0,0,-1,1399,1779,8.1706,-1.34368
182,-755,8.09216,2.96924,0,0,0,0,0,0,0,-1,1406,1779,8.09213,-2.9693
189,-755,8.04419,4.68042,0,0,0,0,0,0,0,-1,1413,1779,8.04419,-4.68046
196,-755,7.74841,7.4541,0,0,0,0,0,0,0,-1,1420,1779,7.74842,-7.45405
203,-755,4.80554,6.88696,0,0,0,0,0,0,0,-1,1427,1779,4.80554,-6.88697
210,-755,25.1694,7.35693,0,0,0,0,0,0,0,-1,1434,1779,25.1694,-7.35688
217,-755,5.01648,16.411,0,0,0,0,0,0,0,-1,1441,1779,5.01646,-16.411
224,-755,5.18103,22.6283,0,0,0,0,0,0,0,-1,1448,1779,5.18101,-22.6283
231,-755,6.64978,28.835,0,0,0,0,0,0,0,-1,1455,1779,6.64982,-28.8349
238,-755,6.28455,29.2909,0,0,0,0,0,0,0,-1,1462,1779,6.28459,-29.2909
245,-755,5.44385,28.3828,0,0,0,0,0,0,0,-1,1469,1779,5.44389,-28.3829
252,-755,4.95776,27.9108,0,0,0,0,0,0,0,-1,1476,1779,4.95779,-27.9107
259,-755,7.58691,23.2006,0,0,0,0,0,0,0,-1,1483,1779,7.58687,-23.2005
266,-755,17.255,7.86096,0,0,0,0,0,0,0,-1,1490,1779,17.255,-7.86092
273,-755,15.7932,7.59778,0,0,0,0,0,0,0,-1,1497,1779,15.7932,-7.59777
280,-755,14.6255,7.34802,0,0,0,0,0,0,0,-1,1504,1779,14.6254,-7.34806
287,-755,13.8279,7.83105,0,0,0,0,0,0,0,-1,1511,1779,13.8279,-7.83104
294,-755,12.5695,7.96814,0,0,0,0,0,0,0,-1,1518,1779,12.5694,-7.9682
301,-755,11.2659,8.27087,0,0,0,0,0,0,0,-1,1525,1779,11.2658,-8.27087
308,-755,9.94434,8.55811,0,0,0,0,0,0,0,-1,1532,1779,9.94428,-8.55806
315,-755,8.64502,9.04492,0,0,0,0,0,0,0,-1,1539,1779,8.64497,-9.04488
322,-755,0,0,0,0,0,0,0,0,0,-1,1546,1779,0,0
329,-755,0,0,0,0,0,0,0,0,0,-1,1553,1779,0,0
336,-755,0,0,0,0,0,0,0,0,0,-1,1560,1779,0,0
343,-755,0,0,0,0,0,0,0,0,0,-1,1567,1779,0,0
350,-755,0,0,0,0,0,0,0,0,0,-1,1574,1779,0,0
357,-755,0,0,0,0,0,0,0,0,0,-1,1581,1779,0,0
364,-755,0,0,0,0,0,0,0,0,0,-1,1588,1779,0,0
371,-755,0,0,0,0,0,0,0,0,0,-1,1595,1779,0,0
378,-755,0,0,0,0,0,0,0,0,0,-1,1602,1779,0,0
385,-755,0,0,0,0,0,0,0,0,0,-1,1609,1779,0,0
392,-755,0,0,0,0,0,0,0,0,0,-1,1616,1779,0,0
399,-755,0,0,0,0,0,0,0,0,0,-1,1623,1779,0,0
406,-755,0,0,0,0,0,0,0,0,0,-1,1630,1779,0,0
413,-755,0,0,0,0,0,0,0,0,0,-1,1637,1779,0,0
420,-755,0,0,0,0,0,0,0,0,0,-1,1644,1779,0,0
427,-755,0,0,0,0,0,0,0,0,0,-1,1651,1779,0,0
434,-755,0,0,0,0,0,0,0,0,0,-1,1658,1779,0,0
441,-755,0,0,0,0,0,0,0,0,0,-1,1665,1779,0,0
448,-755,0,0,0,0,0,0,0,0,0,-1,1672,1779,0,0
455,-755,0,0,0,0,0,0,0,0,0,-1,1679,1779,0,0
462,-755,0,0,0,0,0,0,0,0,0,-1,1686,1779,0,0
469,-755,0,0,0,0,0,0,0,0,0,-1,1693,1779,0,0
476,-755,0,0,0,0,0,0,0,0,0,-1,1700,1779,0,0
483,-755,0,0,0,0,0,0,0,0,0,-1,1707,1779,0,0
490,-755,0,0,0,0,0,0,0,0,0,-1,1714,1779,0,0
497,-755,0,0,0,0,0,0,0,0,0,-1,1721,1779,0,0
504,-755,0,0,0,0,0,0,0,0,0,-1,1728,1779,0,0
511,-755,0,0,0,0,0,0,0,0,0,-1,1735,1779,0,0
518,-755,0,0,0,0,0,0,0,0,0,-1,1742,1779,0,0
525,-755,0,0,0,0,0,0,0,0,0,-1,1749,1779,0,0
532,-755,0,0,0,0,0,0,0,0,0,-1,1756,1779,0,0
539,-755,0,0,0,0,0,0,0,0,0,-1,1763,1779,0,0
546,-755,0,0,0,0,0,0,0,0,0,-1,1770,1779,0,0
553,-755,0,0,0,0,0,0,0,0,0,-1,1777,1779,0,0
560,-755,0,0,0,0,0,0,0,0,0,-1,1784,1779,0,0
567,-755,0,0,0,0,0,0,0,0,0,-1,1791,1779,0,0
574,-755,0,0,0,0,0,0,0,0,0,-1,1798,1779,0,0
581,-755,0,0,0,0,0,0,0,0,0,-1,1805,1779,0,0
588,-755,0,0,0,0,0,0,0,0,0,-1,1812,1779,0,0
595,-755,0,0,0,0,0,0,0,0,0,-1,1819,1779,0,0
602,-755,0,0,0,0,0,0,0,0,0,-1,1826,1779,0,0
609,-755,0,0,0,0,0,0,0,0,0,-1,1833,1779,0,0
616,-755,0,0,0,0,0,0,0,0,0,-1,1840,1779,0,0
623,-755,0,0,0,0,0,0,0,0,0,-1,1847,1779,0,0
630,-755,0,0,0,0,0,0,0,0,0,-1,1854,1779,0,0
637,-755,0,0,0,0,0,0,0,0,0,-1,1861,1779,0,0
644,-755,0,0,0,0,0,0,0,0,0,-1,1868,1779,0,0
651,-755,0,0,0,0,0,0,0,0,0,-1,1875,1779,0,0
658,-755,0,0,0,0,0,0,0,0,0,-1,1882,1779,0,0
665,-755,0,0,0,0,0,0,0,0,0,-1,1889,1779,0,0
672,-755,0,0,0,0,0,0,0,0,0,-1,1896,1779,0,0
679,-755,0,0,0,0,0,0,0,0,0,-1,1903,1779,0,0
686,-755,0,0,0,0,0,0,0,0,0,-1,1910,1779,0,0
693,-755,0,0,0,0,0,0,0,0,0,-1,1917,1779,0,0
700,-755,0,0,0,0,0,0,0,0,0,-1,1924,1779,0,0
707,-755,0,0,0,0,0,0,0,0,0,-1,1931,1779,0,0
714,-755,0,0,0,0,0,0,0,0,0,-1,1938,1779,0,0
721,-755,0,0,0,0,0,0,0,0,0,-1,1945,1779,0,0
728,-755,0,0,0,0,0,0,0,0,0,-1,1952,1779,0,0
735,-755,0,0,0,0,0,0,0,0,0,-1,1959,1779,0,0
742,-755,0,0,0,0,0,0,0,0,0,-1,1966,1779,0,0
749,-755,0,0,0,0,0,0,0,0,0,-1,1973,1779,0,0
756,-755,0,0,0,0,0,0,0,0,0,-1,1980,1779,0,0
763,-755,0,0,0,0,0,0,0,0,0,-1,1987,1779,0,0
770,-755,0,0,0,0,0,0,0,0,0,-1,1994,1779,0,0
777,-755,0,0,0,0,0,0,0,0,0,-1,2001,1779,0,0
784,-755,0,0,0,0,0,0,0,0,0,-1,2008,1779,0,0
791,-755,0,0,0,0,0,0,0,0,0,-1,2015,1779,0,0
798,-755,0,0,0,0,0,0,0,0,0,-1,2022,1779,0,0
805,-755,0,0,0,0,0,0,0,0,0,-1,2029,1779,0,0
812,-755,0,0,0,0,0,0,0,0,0,-1,2036,1779,0,0
-700,-762,0,0,0,0,0,0,0,0,0,-1,524,1786,0,0
-693,-762,0,0,0,0,0,0,0,0,0,-1,531,1786,0,0
-686,-762,0,0,0,0,0,0,0,0,0,-1,538,1786,0,0
-679,-762,0,0,0,0,0,0,0,0,0,-1,545,1786,0,0
-672,-762,0,0,0,0,0,0,0,0,0,-1,552,1786,0,0
-665,-762,0,0,0,0,0,0,0,0,0,-1,559,1786,0,0
-658,-762,0,0,0,0,0,0,0,0,0,-1,566,1786,0,0
-651,-762,0,0,0,0,0,0,0,0,0,-1,573,1786,0,0
-644,-762,0,0,0,0,0,0,0,0,0,-1,580,1786,0,0
-637,-762,0,0,0,0,0,0,0,0,0,-1,587,1786,0,0
-630,-762,0,0,0,0,0,0,0,0,0,-1,594,1786,0,0
-623,-762,0,0,0,0,0,0,0,0,0,-1,601,1786,0,0
-616,-762,0,0,0,0,0,0,0,0,0,-1,608,1786,0,0
-609,-762,0,0,0,0,0,0,0,0,0,-1,615,1786,0,0
-602,-762,0,0,0,0,0,0,0,0,0,-1,622,1786,0,0
-595,-762,0,0,0,0,0,0,0,0,0,-1,629,1786,0,0
-588,-762,0,0,0,0,0,0,0,0,0,-1,636,1786,0,0
-581,-762,0,0,0,0,0,0,0,0,0,-1,643,1786,0,0
-574,-762,0,0,0,0,0,0,0,0,0,-1,650,1786,0,0
-567,-762,0,0,0,0,0,0,0,0,0,-1,657,1786,0,0
-560,-762,0,0,0,0,0,0,0,0,0,-1,664,1786,0,0
-553,-762,0,0,0,0,0,0,0,0,0,-1,671,1786,0,0
-546,-762,0,0,0,0,0,0,0,0,0,-1,678,1786,0,0
-539,-762,0,0,0,0,0,0,0,0,0,-1,685,1786,0,0
-532,-762,0,0,0,0,0,0,0,0,0,-1,692,1786,0,0
-525,-762,0,0,0,0,0,0,0,0,0,-1,699,1786,0,0
-518,-762,0,0,0,0,0,0,0,0,0,-1,706,1786,0,0
-511,-762,0,0,0,0,0,0,0,0,0,-1,713,1786,0,0
-504,-762,0,0,0,0,0,0,0,0,0,-1,720,1786,0,0
-497,-762,0,0,0,0,0,0,0,0,0,-1,727,1786,0,0
-490,-762,0,0,0,0,0,0,0,0,0,-1,734,1786,0,0
-483,-762,0,0,0,0,0,0,0,0,0,-1,741,1786,0,0
-476,-762,0,0,0,0,0,0,0,0,0,-1,748,1786,0,0
-469,-762,0,0,0,0,0,0,0,0,0,-1,755,1786,0,0
-462,-762,0,0,0,0,0,0,0,0,0,-1,762,1786,0,0
-455,-762,0,0,0,0,0,0,0,0,0,-1,769,1786,0,0
-448,-762,0,0,0,0,0,0,0,0,0,-1,776,1786,0,0
-441,-762,0,0,0,0,0,0,0,0,0,-1,783,1786,0,0
-434,-762,0,0,0,0,0,0,0,0,0,-1,790,1786,0,0
-427,-762,0,0,0,0,0,0,0,0,0,-1,797,1786,0,0
-420,-762,0,0,0,0,0,0,0,0,0,-1,804,1786,0,0
-413,-762,0,0,0,0,0,0,0,0,0,-1,811,1786,0,0
-406,-762,0,0,0,0,0,0,0,0,0,-1,818,1786,0,0
-399,-762,0,0,0,0,0,0,0,0,0,-1,825,1786,0,0
-392,-762,0,0,0,0,0,0,0,0,0,-1,832,1786,0,0
-385,-762,0,0,0,0,0,0,0,0,0,-1,839,1786,0,0
-378,-762,0,0,0,0,0,0,0,0,0,-1,846,1786,0,0
-371,-762,0,0,0,0,0,0,0,0,0,-1,853,1786,0,0
-364,-762,0,0,0,0,0,0,0,0,0,-1,860,1786,0,0
-357,-762,0,0,0,0,0,0,0,0,0,-1,867,1786,0,0
-350,-762,0,0,0,0,0,0,0,0,0,-1,874,1786,0,0
-343,-762,0,0,0,0,0,0,0,0,0,-1,881,1786,0,0
-336,-762,0,0,0,0,0,0,0,0,0,-1,888,1786,0,0
-329,-762,0,0,0,0,0,0,0,0,0,-1,895,1786,0,0
-322,-762,0,0,0,0,0,0,0,0,0,-1,902,1786,0,0
-315,-762,0,0,0,0,0,0,0,0,0,-1,909,1786,0,0
-308,-762,0,0,0,0,0,0,0,0,0,-1,916,1786,0,0
-301,-762,0,0,0,0,0,0,0,0,0,-1,923,1786,0,0
-294,-762,0,0,0,0,0,0,0,0,0,-1,930,1786,0,0
-287,-762,0,0,0,0,0,0,0,0,0,-1,937,1786,0,0
-280,-762,0,0,0,0,0,0,0,0,0,-1,944,1786,0,0
-273,-762,0,0,0,0,0,0,0,0,0,-1,951,1786,0,0
-266,-762,0,0,0,0,0,0,0,0,0,-1,958,1786,0,0
-259,-762,0,0,0,0,0,0,0,0,0,-1,965,1786,0,0
-252,-762,0,0,0,0,0,0,0,0,0,-1,972,1786,0,0
-245,-762,0,0,0,0,0,0,0,0,0,-1,979,1786,0,0
-238,-762,0,0,0,0,0,0,0,0,0,-1,986,1786,0,0
-231,-762,0,0,0,0,0,0,0,0,0,-1,993,1786,0,0
-224,-762,0,0,0,0,0,0,0,0,0,-1,1000,1786,0,0
-217,-762,0,0,0,0,0,0,0,0,0,-1,1007,1786,0,0
-210,-762,0,0,0,0,0,0,0,0,0,-1,1014,1786,0,0
-203,-762,0,0,0,0,0,0,0,0,0,-1,1021,1786,0,0
-196,-762,0,0,0,0,0,0,0,0,0,-1,1028,1786,0,0
-189,-762,0,0,0,0,0,0,0,0,0,-1,1035,1786,0,0
-182,-762,4.44226,13.2462,0,0,0,0,0,0,0,-1,1042,1786,4.44227,-13.2462
-175,-762,4.3219,18.3975,0,0,0,0,0,0,0,-1,1049,1786,4.32192,-18.3974
-168,-762,-2.08618,13.0768,0,0,0,0,0,0,0,-1,1056,1786,-2.08623,-13.0768
-161,-762,-3.29077,11.9508,0,0,0,0,0,0,0,-1,1063,1786,-3.29076,-11.9508
-154,-762,-4.55823,11.1176,0,0,0,0,0,0,0,-1,1070,1786,-4.55828,-11.1175
-147,-762,-6.52454,9.41418,0,0,0,0,0,0,0,-1,1077,1786,-6.52458,-9.41419
-140,-762,4.99792,5.28589,0,0,0,0,0,0,0,-1,1084,1786,4.99793,-5.28587
-133,-762,0.689819,19.2172,0,0,0,0,0,0,0,-1,1091,1786,0.689867,-19.2171
-126,-762,1.48743,19.9288,0,0,0,0,0,0,0,-1,1098,1786,1.48738,-19.9289
-119,-762,2.65637,20.208,0,0,0,0,0,0,0,-1,1105,1786,2.65632,-20.208
-112,-762,3.09082,20.488,0,0,0,0,0,0,0,-1,1112,1786,3.09077,-20.488
-105,-762,6.20923,21.3702,0,0,0,0,0,0,0,-1,1119,1786,6.20928,-21.3703
-98,-762,5.58447,17.7201,0,0,0,0,0,0,0,-1,1126,1786,5.58445,-17.7201
-91,-762,4.74573,14.093,0,0,0,0,0,0,0,-1,1133,1786,4.74571,-14.0931
-84,-762,3.96375,10.4547,0,0,0,0,0,0,0,-1,1140,1786,3.96371,-10.4548
-77,-762,0.305054,8.49365,0,0,0,0,0,0,0,-1,1147,1786,0.305008,-8.49362
-70,-762,0.183716,6.74622,0,0,0,0,0,0,0,-1,1154,1786,0.183696,-6.74621
-63,-762,-0.883057,9.08813,0,0,0,0,0,0,0,-1,1161,1786,-0.88311,-9.08808
-56,-762,-0.578979,5.10254,0,0,0,0,0,0,0,-1,1168,1786,-0.578951,-5.10249
-49,-762,-2.04541,3.66321,0,0,0,0,0,0,0,-1,1175,1786,-2.0454,-3.66319
-42,-762,-2.23462,3.474,0,0,0,0,0,0,0,-1,1182,1786,-2.23459,-3.47399
-35,-762,-3.28992,1.68164,0,0,0,0,0,0,0,-1,1189,1786,-3.28998,-1.68164
-28,-762,-3.75378,1.37769,0,0,0,0,0,0,0,-1,1196,1786,-3.75373,-1.37767
-21,-762,6.76465,31.5552,0,0,0,0,0,0,0,-1,1203,1786,6.76465,-31.5552
-14,-762,6.62488,31.4998,0,0,0,0,0,0,0,-1,1210,1786,6.62486,-31.4997
-7,-762,7.30493,31.0483,0,0,0,0,0,0,0,-1,1217,1786,7.3049,-31.0483
0,-762,7.255,31.1117,0.0157161,0.00521115,0.0123563,0.02389,-0.00296273,0.584427,0.0170005,0.0368481,1224,1786,7.255,-31.1116
7,-762,7.19824,31.1984,0.0151202,0.00452689,0.0101713,0.0212913,-0.00164428,0.545347,0.0147728,0.0195019,1231,1786,7.1982,-31.1983
14,-762,7.14771,31.3884,0.0151181,0.0030767,0.00624108,0.0177692,0.000425622,0.401683,0.0117069,0.0336289,1238,1786,7.14765,-31.3884
21,-762,6.90771,31.5049,0.0156913,0.001768,0.00198274,0.0159682,0.00149115,0.138731,0.0101849,0.0407214,1245,1786,6.90769,-31.5049
28,-762,6.77722,31.4927,0.0161351,-0.00106279,-0.00182425,0.0163264,-0.00125417,-0.104524,0.0113255,0.0387193,1252,1786,6.77716,-31.4927
35,-762,6.828,31.5028,0.0159458,-0.00313023,-0.00575727,0.0175487,-0.00473313,-0.271537,0.0135551,0.0392301,1259,1786,6.82806,-31.5029
42,-762,7.01123,31.4697,0.0155297,-0.00554803,-0.00919503,0.0189771,-0.00899546,-0.358703,0.0164891,0.0406266,1266,1786,7.01128,-31.4697
49,-762,6.99805,31.4702,0.0146847,-0.00756389,-0.0121106,0.0200047,-0.012884,-0.413912,0.0191361,0.033498,1273,1786,6.99802,-31.4702
56,-762,6.98938,31.4102,0.0134491,-0.00951477,-0.0142548,0.0202711,-0.0163368,-0.446362,0.0211762,0.0242896,1280,1786,6.98933,-31.4101
63,-762,6.94299,31.4148,0.0109027,-0.0104459,-0.0161016,0.0195468,-0.0190901,-0.49269,0.0223075,0.0233141,1287,1786,6.94298,-31.4148
70,-762,6.88525,31.4246,0.00841463,-0.010185,-0.0179904,0.0193667,-0.0211371,-0.546847,0.0233924,0.0236475,1294,1786,6.8852,-31.4246
77,-762,6.84558,31.379,0.00563211,-0.010327,-0.0196242,0.018837,-0.0235319,-0.592298,0.0245117,0.0291083,1301,1786,6.84562,-31.379
84,-762,6.87842,31.4279,0.00232055,-0.00977129,-0.0205229,0.0176695,-0.0251202,-0.642153,0.0248292,0.0370116,1308,1786,6.87843,-31.4279
91,-762,6.76868,31.4956,-0.000982948,-0.00819375,-0.0209564,0.0166759,-0.0258526,-0.700211,0.0247437,0.0452736,1315,1786,6.76864,-31.4956
98,-762,6.70654,31.4772,-0.00457733,-0.00670557,-0.0201606,0.0145472,-0.0258301,-0.759032,0.0236133,0.04479,1322,1786,6.70649,-31.4772
105,-762,6.69397,31.4758,-0.00700786,-0.00261181,-0.0212662,0.0165697,-0.0261893,-0.836894,0.0248943,0.0438317,1329,1786,6.69401,-31.4759
112,-762,6.67822,31.1974,-0.00856182,-0.00179438,-0.0226865,0.0177594,-0.0281156,-0.859428,0.0267099,0.0468778,1336,1786,6.67824,-31.1974
119,-762,6.78174,31.1433,-0.0100528,3.85687e-05,-0.0231554,0.0186917,-0.0287059,-0.892674,0.0275678,0.0465184,1343,1786,6.78169,-31.1433
126,-762,6.82422,31.1257,0,0,0,0,0,0,0,-1,1350,1786,6.82421,-31.1257
133,-762,6.36621,31.3689,-0.0107147,0.00402953,-0.0252841,0.0229944,-0.0296795,-0.927251,0.0304928,0.0467418,1357,1786,6.36616,-31.3689
140,-762,6.27551,31.2546,-0.00952187,0.00417572,-0.0254295,0.0236625,-0.0290087,-0.916939,0.0304619,0.0421596,1364,1786,6.27555,-31.2546
147,-762,6.41919,31.1409,-0.00841551,0.00447703,-0.024985,0.023834,-0.0277724,-0.911648,0.0298239,0.0424327,1371,1786,6.41922,-31.1408
154,-762,6.64539,30.8947,-0.00736369,0.00376632,-0.0241812,0.0230146,-0.0266119,-0.898498,0.028677,0.0495137,1378,1786,6.64544,-30.8946
161,-762,7.08264,30.7461,0,0,0,0,0,0,0,-1,1385,1786,7.08263,-30.7461
168,-762,8.19287,0.880615,0,0,0,0,0,0,0,-1,1392,1786,8.19291,-0.880603
175,-762,8.33997,1.95947,0,0,0,0,0,0,0,-1,1399,1786,8.33997,-1.95942
182,-762,8.28418,3.56482,0,0,0,0,0,0,0,-1,1406,1786,8.28415,-3.56485
189,-762,8.21179,5.23389,0,0,0,0,0,0,0,-1,1413,1786,8.21183,-5.23383
196,-762,8.05969,6.95483,0,0,0,0,0,0,0,-1,1420,1786,8.05972,-6.9548
203,-762,24.0077,7.10425,0,0,0,0,0,0,0,-1,1427,1786,24.0077,-7.10426
210,-762,23.8073,7.6499,0,0,0,0,0,0,0,-1,1434,1786,23.8073,-7.64987
217,-762,23.3193,8.24426,0,0,0,0,0,0,0,-1,1441,1786,23.3194,-8.2442
224,-762,2.65149,20.6106,0,0,0,0,0,0,0,-1,1448,1786,2.65153,-20.6106
231,-762,5.46655,23.521,0,0,0,0,0,0,0,-1,1455,1786,5.46653,-23.521
238,-762,5.82751,28.6143,0,0,0,0,0,0,0,-1,1462,1786,5.82751,-28.6143
245,-762,5.2041,28.0883,0,0,0,0,0,0,0,-1,1469,1786,5.20409,-28.0883
252,-762,8.42493,20.2113,0,0,0,0,0,0,0,-1,1476,1786,8.42497,-20.2113
259,-762,10.7311,18.3031,0,0,0,0,0,0,0,-1,1483,1786,10.7311,-18.3031
266,-762,16.451,7.67773,0,0,0,0,0,0,0,-1,1490,1786,16.4511,-7.67773
273,-762,15.287,7.5304,0,0,0,0,0,0,0,-1,1497,1786,15.2869,-7.53044
280,-762,14.1501,7.38379,0,0,0,0,0,0,0,-1,1504,1786,14.1502,-7.38376
287,-762,12.6891,7.99133,0,0,0,0,0,0,0,-1,1511,1786,12.6891,-7.99135
294,-762,12.6959,8.30371,0,0,0,0,0,0,0,-1,1518,1786,12.6959,-8.30368
301,-762,11.4222,8.84143,0,0,0,0,0,0,0,-1,1525,1786,11.4223,-8.84149
308,-762,0,0,0,0,0,0,0,0,0,-1,1532,1786,0,0
315,-762,0,0,0,0,0,0,0,0,0,-1,1539,1786,0,0
322,-762,0,0,0,0,0,0,0,0,0,-1,1546,1786,0,0
329,-762,0,0,0,0,0,0,0,0,0,-1,1553,1786,0,0
336,-762,0,0,0,0,0,0,0,0,0,-1,1560,1786,0,0
343,-762,0,0,0,0,0,0,0,0,0,-1,1567,1786,0,0
350,-762,0,0,0,0,0,0,0,0,0,-1,1574,1786,0,0
357,-762,0,0,0,0,0,0,0,0,0,-1,1581,1786,0,0
364,-762,0,0,0,0,0,0,0,0,0,-1,1588,1786,0,0
371,-762,0,0,0,0,0,0,0,0,0,-1,1595,1786,0,0
378,-762,0,0,0,0,0,0,0,0,0,-1,1602,1786,0,0
385,-762,0,0,0,0,0,0,0,0,0,-1,1609,1786,0,0
392,-762,0,0,0,0,0,0,0,0,0,-1,1616,1786,0,0
399,-762,0,0,0,0,0,0,0,0,0,-1,1623,1786,0,0
406,-762,0,0,0,0,0,0,0,0,0,-1,1630,1786,0,0
413,-762,0,0,0,0,0,0,0,0,0,-1,1637,1786,0,0
420,-762,0,0,0,0,0,0,0,0,0,-1,1644,1786,0,0
427,-762,0,0,0,0,0,0,0,0,0,-1,1651,1786,0,0
434,-762,0,0,0,0,0,0,0,0,0,-1,1658,1786,0,0
441,-762,0,0,0,0,0,0,0,0,0,-1,1665,1786,0,0
448,-762,0,0,0,0,0,0,0,0,0,-1,1672,1786,0,0
455,-762,0,0,0,0,0,0,0,0,0,-1,1679,1786,0,0
462,-762,0,0,0,0,0,0,0,0,0,-1,1686,1786,0,0
469,-762,0,0,0,0,0,0,0,0,0,-1,1693,1786,0,0
476,-762,0,0,0,0,0,0,0,0,0,-1,1700,1786,0,0
483,-762,0,0,0,0,0,0,0,0,0,-1,1707,1786,0,0
490,-762,0,0,0,0,0,0,0,0,0,-1,1714,1786,0,0
497,-762,0,0,0,0,0,0,0,0,0,-1,1721,1786,0,0
504,-762,0,0,0,0,0,0,0,0,0,-1,1728,1786,0,0
511,-762,0,0,0,0,0,0,0,0,0,-1,1735,1786,0,0
518,-762,0,0,0,0,0,0,0,0,0,-1,1742,1786,0,0
525,-762,0,0,0,0,0,0,0,0,0,-1,1749,1786,0,0
532,-762,0,0,0,0,0,0,0,0,0,-1,1756,1786,0,0
539,-762,0,0,0,0,0,0,0,0,0,-1,1763,1786,0,0
546,-762,0,0,0,0,0,0,0,0,0,-1,1770,1786,0,0
553,-762,0,0,0,0,0,0,0,0,0,-1,1777,1786,0,0
560,-762,0,0,0,0,0,0,0,0,0,-1,1784,1786,0,0
567,-762,0,0,0,0,0,0,0,0,0,-1,1791,1786,0,0
574,-762,0,0,0,0,0,0,0,0,0,-1,1798,1786,0,0
581,-762,0,0,0,0,0,0,0,0,0,-1,1805,1786,0,0
588,-762,0,0,0,0,0,0,0,0,0,-1,1812,1786,0,0
595,-762,0,0,0,0,0,0,0,0,0,-1,1819,1786,0,0
602,-762,0,0,0,0,0,0,0,0,0,-1,1826,1786,0,0
609,-762,0,0,0,0,0,0,0,0,0,-1,1833,1786,0,0
616,-762,0,0,0,0,0,0,0,0,0,-1,1840,1786,0,0
623,-762,0,0,0,0,0,0,0,0,0,-1,1847,1786,0,0
630,-762,0,0,0,0,0,0,0,0,0,-1,1854,1786,0,0
637,-762,0,0,0,0,0,0,0,0,0,-1,1861,1786,0,0
644,-762,0,0,0,0,0,0,0,0,0,-1,1868,1786,0,0
651,-762,0,0,0,0,0,0,0,0,0,-1,1875,1786,0,0
658,-762,0,0,0,0,0,0,0,0,0,-1,1882,1786,0,0
665,-762,0,0,0,0,0,0,0,0,0,-1,1889,1786,0,0
672,-762,0,0,0,0,0,0,0,0,0,-1,1896,1786,0,0
679,-762,0,0,0,0,0,0,0,0,0,-1,1903,1786,0,0
686,-762,0,0,0,0,0,0,0,0,0,-1,1910,1786,0,0
693,-762,0,0,0,0,0,0,0,0,0,-1,1917,1786,0,0
700,-762,0,0,0,0,0,0,0,0,0,-1,1924,1786,0,0
707,-762,0,0,0,0,0,0,0,0,0,-1,1931,1786,0,0
714,-762,0,0,0,0,0,0,0,0,0,-1,1938,1786,0,0
721,-762,0,0,0,0,0,0,0,0,0,-1,1945,1786,0,0
728,-762,0,0,0,0,0,0,0,0,0,-1,1952,1786,0,0
735,-762,0,0,0,0,0,0,0,0,0,-1,1959,1786,0,0
742,-762,0,0,0,0,0,0,0,0,0,-1,1966,1786,0,0
749,-762,0,0,0,0,0,0,0,0,0,-1,1973,1786,0,0
756,-762,0,0,0,0,0,0,0,0,0,-1,1980,1786,0,0
763,-762,0,0,0,0,0,0,0,0,0,-1,1987,1786,0,0
770,-762,0,0,0,0,0,0,0,0,0,-1,1994,1786,0,0
777,-762,0,0,0,0,0,0,0,0,0,-1,2001,1786,0,0
784,-762,0,0,0,0,0,0,0,0,0,-1,2008,1786,0,0
791,-762,0,0,0,0,0,0,0,0,0,-1,2015,1786,0,0
798,-762,0,0,0,0,0,0,0,0,0,-1,2022,1786,0,0
805,-762,0,0,0,0,0,0,0,0,0,-1,2029,1786,0,0
812,-762,0,0,0,0,0,0,0,0,0,-1,2036,1786,0,0
-700,-769,0,0,0,0,0,0,0,0,0,-1,524,1793,0,0
-693,-769,0,0,0,0,0,0,0,0,0,-1,531,1793,0,0
-686,-769,0,0,0,0,0,0,0,0,0,-1,538,1793,0,0
-679,-769,0,0,0,0,0,0,0,0,0,-1,545,1793,0,0
-672,-769,0,0,0,0,0,0,0,0,0,-1,552,1793,0,0
-665,-769,0,0,0,0,0,0,0,0,0,-1,559,1793,0,0
-658,-769,0,0,0,0,0,0,0,0,0,-1,566,1793,0,0
-651,-769,0,0,0,0,0,0,0,0,0,-1,573,1793,0,0
-644,-769,0,0,0,0,0,0,0,0,0,-1,580,1793,0,0
-637,-769,0,0,0,0,0,0,0,0,0,-1,587,1793,0,0
-630,-769,0,0,0,0,0,0,0,0,0,-1,594,1793,0,0
-623,-769,0,0,0,0,0,0,0,0,0,-1,601,1793,0,0
-616,-769,0,0,0,0,0,0,0,0,0,-1,608,1793,0,0
-609,-769,0,0,0,0,0,0,0,0,0,-1,615,1793,0,0
-602,-769,0,0,0,0,0,0,0,0,0,-1,622,1793,0,0
-595,-769,0,0,0,0,0,0,0,0,0,-1,629,1793,0,0
-588,-769,0,0,0,0,0,0,0,0,0,-1,636,1793,0,0
-581,-769,0,0,0,0,0,0,0,0,0,-1,643,1793,0,0
-574,-769,0,0,0,0,0,0,0,0,0,-1,650,1793,0,0
-567,-769,0,0,0,0,0,0,0,0,0,-1,657,1793,0,0
-560,-769,0,0,0,0,0,0,0,0,0,-1,664,1793,0,0
-553,-769,0,0,0,0,0,0,0,0,0,-1,671,1793,0,0
-546,-769,0,0,0,0,0,0,0,0,0,-1,678,1793,0,0
-539,-769,0,0,0,0,0,0,0,0,0,-1,685,1793,0,0
-532,-769,0,0,0,0,0,0,0,0,0,-1,692,1793,0,0
-525,-769,0,0,0,0,0,0,0,0,0,-1,699,1793,0,0
-518,-769,0,0,0,0,0,0,0,0,0,-1,706,1793,0,0
-511,-769,0,0,0,0,0,0,0,0,0,-1,713,1793,0,0
-504,-769,0,0,0,0,0,0,0,0,0,-1,720,1793,0,0
-497,-769,0,0,0,0,0,0,0,0,0,-1,727,1793,0,0
-490,-769,0,0,0,0,0,0,0,0,0,-1,734,1793,0,0
-483,-769,0,0,0,0,0,0,0,0,0,-1,741,1793,0,0
-476,-769,0,0,0,0,0,0,0,0,0,-1,748,1793,0,0
-469,-769,0,0,0,0,0,0,0,0,0,-1,755,1793,0,0
-462,-769,0,0,0,0,0,0,0,0,0,-1,762,1793,0,0
-455,-769,0,0,0,0,0,0,0,0,0,-1,769,1793,0,0
-448,-769,0,0,0,0,0,0,0,0,0,-1,776,1793,0,0
-441,-769,0,0,0,0,0,0,0,0,0,-1,783,1793,0,0
-434,-769,0,0,0,0,0,0,0,0,0,-1,790,1793,0,0
-427,-769,0,0,0,0,0,0,0,0,0,-1,797,1793,0,0
-420,-769,0,0,0,0,0,0,0,0,0,-1,804,1793,0,0
-413,-769,0,0,0,0,0,0,0,0,0,-1,811,1793,0,0
-406,-769,0,0,0,0,0,0,0,0,0,-1,818,1793,0,0
-399,-769,0,0,0,0,0,0,0,0,0,-1,825,1793,0,0
-392,-769,0,0,0,0,0,0,0,0,0,-1,832,1793,0,0
-385,-769,0,0,0,0,0,0,0,0,0,-1,839,1793,0,0
-378,-769,0,0,0,0,0,0,0,0,0,-1,846,1793,0,0
-371,-769,0,0,0,0,0,0,0,0,0,-1,853,1793,0,0
-364,-769,0,0,0,0,0,0,0,0,0,-1,860,1793,0,0
-357,-769,0,0,0,0,0,0,0,0,0,-1,867,1793,0,0
-350,-769,0,0,0,0,0,0,0,0,0,-1,874,1793,0,0
-343,-769,0,0,0,0,0,0,0,0,0,-1,881,1793,0,0
-336,-769,0,0,0,0,0,0,0,0,0,-1,888,1793,0,0
-329,-769,0,0,0,0,0,0,0,0,0,-1,895,1793,0,0
-322,-769,0,0,0,0,0,0,0,0,0,-1,902,1793,0,0
-315,-769,0,0,0,0,0,0,0,0,0,-1,909,1793,0,0
-308,-769,0,0,0,0,0,0,0,0,0,-1,916,1793,0,0
-301,-769,0,0,0,0,0,0,0,0,0,-1,923,1793,0,0
-294,-769,0,0,0,0,0,0,0,0,0,-1,930,1793,0,0
-287,-769,0,0,0,0,0,0,0,0,0,-1,937,1793,0,0
-280,-769,0,0,0,0,0,0,0,0,0,-1,944,1793,0,0
-273,-769,0,0,0,0,0,0,0,0,0,-1,951,1793,0,0
-266,-769,0,0,0,0,0,0,0,0,0,-1,958,1793,0,0
-259,-769,0,0,0,0,0,0,0,0,0,-1,965,1793,0,0
-252,-769,0,0,0,0,0,0,0,0,0,-1,972,1793,0,0
-245,-769,0,0,0,0,0,0,0,0,0,-1,979,1793,0,0
-238,-769,0,0,0,0,0,0,0,0,0,-1,986,1793,0,0
-231,-769,0,0,0,0,0,0,0,0,0,-1,993,1793,0,0
-224,-769,0,0,0,0,0,0,0,0,0,-1,1000,1793,0,0
-217,-769,0,0,0,0,0,0,0,0,0,-1,1007,1793,0,0
-210,-769,0,0,0,0,0,0,0,0,0,-1,1014,1793,0,0
-203,-769,0,0,0,0,0,0,0,0,0,-1,1021,1793,0,0
-196,-769,0,0,0,0,0,0,0,0,0,-1,1028,1793,0,0
-189,-769,0,0,0,0,0,0,0,0,0,-1,1035,1793,0,0
-182,-769,0,0,0,0,0,0,0,0,0,-1,1042,1793,0,0
-175,-769,0,0,0,0,0,0,0,0,0,-1,1049,1793,0,0
-168,-769,0,0,0,0,0,0,0,0,0,-1,1056,1793,0,0
-161,-769,-3.61145,12.4761,0,0,0,0,0,0,0,-1,1063,1793,-3.6114,-12.476
-154,-769,-0.813232,5.32874,0,0,0,0,0,0,0,-1,1070,1793,-0.813269,-5.32872
-147,-769,4.26587,4.7002,0,0,0,0,0,0,0,-1,1077,1793,4.26593,-4.70022
-140,-769,4.10376,5.28589,0,0,0,0,0,0,0,-1,1084,1793,4.10371,-5.28584
-133,-769,6.422,8.21777,0,0,0,0,0,0,0,-1,1091,1793,6.42198,-8.21773
-126,-769,-0.352295,19.326,0,0,0,0,0,0,0,-1,1098,1793,-0.352235,-19.326
-119,-769,6.01685,16.2577,0,0,0,0,0,0,0,-1,1105,1793,6.01689,-16.2576
-112,-769,2.77722,20.0741,0,0,0,0,0,0,0,-1,1112,1793,2.77727,-20.0741
-105,-769,4.55212,21.8363,0,0,0,0,0,0,0,-1,1119,1793,4.55214,-21.8363
-98,-769,4.71545,19.8396,0,0,0,0,0,0,0,-1,1126,1793,4.71539,-19.8396
-91,-769,3.96802,16.1481,0,0,0,0,0,0,0,-1,1133,1793,3.96803,-16.1481
-84,-769,3.2207,12.4565,0,0,0,0,0,0,0,-1,1140,1793,3.22066,-12.4565
-77,-769,2.48816,8.98486,0,0,0,0,0,0,0,-1,1147,1793,2.48815,-8.98489
-70,-769,1.04944,11.9852,0,0,0,0,0,0,0,-1,1154,1793,1.04947,-11.9852
-63,-769,-2.39709,9.60339,0,0,0,0,0,0,0,-1,1161,1793,-2.39706,-9.6034
-56,-769,-5.84363,7.22156,0,0,0,0,0,0,0,-1,1168,1793,-5.84359,-7.22157
-49,-769,-2.41443,3.95471,0,0,0,0,0,0,0,-1,1175,1793,-2.41446,-3.95471
-42,-769,-3.1991,2.64941,0,0,0,0,0,0,0,-1,1182,1793,-3.19914,-2.64944
-35,-769,-3.50183,1.73389,0,0,0,0,0,0,0,-1,1189,1793,-3.50189,-1.7339
-28,-769,-3.96985,1.14075,0,0,0,0,0,0,0,-1,1196,1793,-3.96985,-1.14078
-21,-769,5.89856,30.3566,0,0,0,0,0,0,0,-1,1203,1793,5.89861,-30.3566
-14,-769,6.0553,31.9552,0,0,0,0,0,0,0,-1,1210,1793,6.0553,-31.9552
-7,-769,6.91736,30.5499,0,0,0,0,0,0,0,-1,1217,1793,6.91732,-30.5499
0,-769,7.31628,31.2559,0,0,0,0,0,0,0,-1,1224,1793,7.31631,-31.2559
7,-769,7.0719,31.5322,0.0225376,0.00812204,0.014227,0.0312784,-0.000618821,0.550931,0.0210616,0.0444653,1231,1793,7.07186,-31.5322
14,-769,6.80981,31.7185,0.0222339,0.00592462,0.00875837,0.0260461,0.00211233,0.41054,0.0167046,0.0416377,1238,1793,6.80979,-31.7185
21,-769,6.76892,31.6818,0.022643,0.00365831,0.00272435,0.0230262,0.00327509,0.139747,0.0143839,0.0434484,1245,1793,6.76887,-31.6817
28,-769,6.47046,31.5841,0.0228599,-0.000349241,-0.00270585,0.0231712,-0.000660531,-0.114539,0.0156723,0.041208,1252,1793,6.47044,-31.5841
35,-769,6.79529,31.4645,0.0222724,-0.00344401,-0.00820421,0.0246668,-0.00583843,-0.283965,0.018697,0.0455833,1259,1793,6.79534,-31.4645
42,-769,6.97144,31.5608,0.0214622,-0.00690274,-0.0129941,0.0265148,-0.0119553,-0.370848,0.0227348,0.0461959,1266,1793,6.97149,-31.5608
49,-769,7.24817,31.4272,0.0201253,-0.00978875,-0.017082,0.0278731,-0.0175365,-0.425813,0.0264427,0.0414105,1273,1793,7.2482,-31.4272
56,-769,7.16638,31.106,0.0182515,-0.012523,-0.020101,0.0281787,-0.0224501,-0.458726,0.0292929,0.0435386,1280,1793,7.16638,-31.1059
63,-769,6.96729,30.8973,0.0145536,-0.0138383,-0.0225931,0.0270405,-0.0263251,-0.504903,0.0308116,0.0465922,1287,1793,6.96727,-30.8973
70,-769,6.93262,30.9939,0.010919,-0.0135332,-0.0250574,0.0265739,-0.0291881,-0.558429,0.032206,0.045476,1294,1793,6.9326,-30.9939
77,-769,6.99963,31.4896,0,0,0,0,0,0,0,-1,1301,1793,6.99963,-31.4896
84,-769,7.0083,31.469,0.00242704,-0.0126799,-0.0283475,0.0242101,-0.034463,-0.655193,0.0340469,0.0488077,1308,1793,7.00827,-31.469
91,-769,6.55371,31.6854,-0.00220523,-0.0103516,-0.0288939,0.0229012,-0.035458,-0.715374,0.0339527,0.0464737,1315,1793,6.55369,-31.6855
98,-769,6.54565,31.5394,-0.00716268,-0.00817894,-0.0280949,0.0204287,-0.0357703,-0.776356,0.0328471,0.0449081,1322,1793,6.54561,-31.5394
105,-769,6.69312,31.5087,-0.0106583,-0.00268452,-0.0297499,0.0233445,-0.0366873,-0.852008,0.0349436,0.0471334,1329,1793,6.69309,-31.5087
112,-769,6.65881,30.9938,0,0,0,0,0,0,0,-1,1336,1793,6.65876,-30.9938
119,-769,6.87732,30.9813,0,0,0,0,0,0,0,-1,1343,1793,6.87733,-30.9814
126,-769,0.356201,32.3492,0,0,0,0,0,0,0,-1,1350,1793,0.356221,-32.3492
133,-769,0.737183,32.1019,0,0,0,0,0,0,0,-1,1357,1793,0.737172,-32.102
140,-769,6.172,31.3402,0,0,0,0,0,0,0,-1,1364,1793,6.17198,-31.3402
147,-769,6.24402,31.1608,0,0,0,0,0,0,0,-1,1371,1793,6.24405,-31.1608
154,-769,6.68298,30.837,0,0,0,0,0,0,0,-1,1378,1793,6.68301,-30.8371
161,-769,6.57019,1.53223,0,0,0,0,0,0,0,-1,1385,1793,6.57019,-1.53226
168,-769,8.27637,0.756958,0,0,0,0,0,0,0,-1,1392,1793,8.27639,-0.756944
175,-769,8.47144,2.41174,0,0,0,0,0,0,0,-1,1399,1793,8.47147,-2.4118
182,-769,8.41479,4.05994,0,0,0,0,0,0,0,-1,1406,1793,8.41479,-4.05997
189,-769,8.25049,5.68433,0,0,0,0,0,0,0,-1,1413,1793,8.25054,-5.68428
196,-769,7.97729,7.42847,0,0,0,0,0,0,0,-1,1420,1793,7.9773,-7.42848
203,-769,22.0977,6.73889,0,0,0,0,0,0,0,-1,1427,1793,22.0977,-6.7389
210,-769,22.1115,7.77246,0,0,0,0,0,0,0,-1,1434,1793,22.1115,-7.77248
217,-769,22.4723,8.79102,0,0,0,0,0,0,0,-1,1441,1793,22.4723,-8.79099
224,-769,22.1348,9.35278,0,0,0,0,0,0,0,-1,1448,1793,22.1348,-9.35283
231,-769,3.13318,19.7184,0,0,0,0,0,0,0,-1,1455,1793,3.13323,-19.7184
238,-769,5.74512,18.6597,0,0,0,0,0,0,0,-1,1462,1793,5.74512,-18.6596
245,-769,5.80798,22.87,0,0,0,0,0,0,0,-1,1469,1793,5.80796,-22.87
252,-769,8.39099,20.3199,0,0,0,0,0,0,0,-1,1476,1793,8.39098,-20.3199
259,-769,10.974,17.7698,0,0,0,0,0,0,0,-1,1483,1793,10.974,-17.7698
266,-769,15.8488,7.3905,0,0,0,0,0,0,0,-1,1490,1793,15.8488,-7.39046
273,-769,14.8075,7.56152,0,0,0,0,0,0,0,-1,1497,1793,14.8075,-7.56152
280,-769,13.6519,7.43054,0,0,0,0,0,0,0,-1,1504,1793,13.6518,-7.43058
287,-769,0,0,0,0,0,0,0,0,0,-1,1511,1793,0,0
294,-769,0,0,0,0,0,0,0,0,0,-1,1518,1793,0,0
301,-769,0,0,0,0,0,0,0,0,0,-1,1525,1793,0,0
308,-769,0,0,0,0,0,0,0,0,0,-1,1532,1793,0,0
315,-769,0,0,0,0,0,0,0,0,0,-1,1539,1793,0,0
322,-769,0,0,0,0,0,0,0,0,0,-1,1546,1793,0,0
329,-769,0,0,0,0,0,0,0,0,0,-1,1553,1793,0,0
336,-769,0,0,0,0,0,0,0,0,0,-1,1560,1793,0,0
343,-769,0,0,0,0,0,0,0,0,0,-1,1567,1793,0,0
350,-769,0,0,0,0,0,0,0,0,0,-1,1574,1793,0,0
357,-769,0,0,0,0,0,0,0,0,0,-1,1581,1793,0,0
364,-769,0,0,0,0,0,0,0,0,0,-1,1588,1793,0,0
371,-769,0,0,0,0,0,0,0,0,0,-1,1595,1793,0,0
378,-769,0,0,0,0,0,0,0,0,0,-1,1602,1793,0,0
385,-769,0,0,0,0,0,0,0,0,0,-1,1609,1793,0,0
392,-769,0,0,0,0,0,0,0,0,0,-1,1616,1793,0,0
399,-769,0,0,0,0,0,0,0,0,0,-1,1623,1793,0,0
406,-769,0,0,0,0,0,0,0,0,0,-1,1630,1793,0,0
413,-769,0,0,0,0,0,0,0,0,0,-1,1637,1793,0,0
420,-769,0,0,0,0,0,0,0,0,0,-1,1644,1793,0,0
427,-769,0,0,0,0,0,0,0,0,0,-1,1651,1793,0,0
434,-769,0,0,0,0,0,0,0,0,0,-1,1658,1793,0,0
441,-769,0,0,0,0,0,0,0,0,0,-1,1665,1793,0,0
448,-769,0,0,0,0,0,0,0,0,0,-1,1672,1793,0,0
455,-769,0,0,0,0,0,0,0,0,0,-1,1679,1793,0,0
462,-769,0,0,0,0,0,0,0,0,0,-1,1686,1793,0,0
469,-769,0,0,0,0,0,0,0,0,0,-1,1693,1793,0,0
476,-769,0,0,0,0,0,0,0,0,0,-1,1700,1793,0,0
483,-769,0,0,0,0,0,0,0,0,0,-1,1707,1793,0,0
490,-769,0,0,0,0,0,0,0,0,0,-1,1714,1793,0,0
497,-769,0,0,0,0,0,0,0,0,0,-1,1721,1793,0,0
504,-769,0,0,0,0,0,0,0,0,0,-1,1728,1793,0,0
511,-769,0,0,0,0,0,0,0,0,0,-1,1735,1793,0,0
518,-769,0,0,0,0,0,0,0,0,0,-1,1742,1793,0,0
525,-769,0,0,0,0,0,0,0,0,0,-1,1749,1793,0,0
532,-769,0,0,0,0,0,0,0,0,0,-1,1756,1793,0,0
539,-769,0,0,0,0,0,0,0,0,0,-1,1763,1793,0,0
546,-769,0,0,0,0,0,0,0,0,0,-1,1770,1793,0,0
553,-769,0,0,0,0,0,0,0,0,0,-1,1777,1793,0,0
560,-769,0,0,0,0,0,0,0,0,0,-1,1784,1793,0,0
567,-769,0,0,0,0,0,0,0,0,0,-1,1791,1793,0,0
574,-769,0,0,0,0,0,0,0,0,0,-1,1798,1793,0,0
581,-769,0,0,0,0,0,0,0,0,0,-1,1805,1793,0,0
588,-769,0,0,0,0,0,0,0,0,0,-1,1812,1793,0,0
595,-769,0,0,0,0,0,0,0,0,0,-1,1819,1793,0,0
602,-769,0,0,0,0,0,0,0,0,0,-1,1826,1793,0,0
609,-769,0,0,0,0,0,0,0,0,0,-1,1833,1793,0,0
616,-769,0,0,0,0,0,0,0,0,0,-1,1840,1793,0,0
623,-769,0,0,0,0,0,0,0,0,0,-1,1847,1793,0,0
630,-769,0,0,0,0,0,0,0,0,0,-1,1854,1793,0,0
637,-769,0,0,0,0,0,0,0,0,0,-1,1861,1793,0,0
644,-769,0,0,0,0,0,0,0,0,0,-1,1868,1793,0,0
651,-769,0,0,0,0,0,0,0,0,0,-1,1875,1793,0,0
658,-769,0,0,0,0,0,0,0,0,0,-1,1882,1793,0,0
665,-769,0,0,0,0,0,0,0,0,0,-1,1889,1793,0,0
672,-769,0,0,0,0,0,0,0,0,0,-1,1896,1793,0,0
679,-769,0,0,0,0,0,0,0,0,0,-1,1903,1793,0,0
686,-769,0,0,0,0,0,0,0,0,0,-1,1910,1793,0,0
693,-769,0,0,0,0,0,0,0,0,0,-1,1917,1793,0,0
700,-769,0,0,0,0,0,0,0,0,0,-1,1924,1793,0,0
707,-769,0,0,0,0,0,0,0,0,0,-1,1931,1793,0,0
714,-769,0,0,0,0,0,0,0,0,0,-1,1938,1793,0,0
721,-769,0,0,0,0,0,0,0,0,0,-1,1945,1793,0,0
728,-769,0,0,0,0,0,0,0,0,0,-1,1952,1793,0,0
735,-769,0,0,0,0,0,0,0,0,0,-1,1959,1793,0,0
742,-769,0,0,0,0,0,0,0,0,0,-1,1966,1793,0,0
749,-769,0,0,0,0,0,0,0,0,0,-1,1973,1793,0,0
756,-769,0,0,0,0,0,0,0,0,0,-1,1980,1793,0,0
763,-769,0,0,0,0,0,0,0,0,0,-1,1987,1793,0,0
770,-769,0,0,0,0,0,0,0,0,0,-1,1994,1793,0,0
777,-769,0,0,0,0,0,0,0,0,0,-1,2001,1793,0,0
784,-769,0,0,0,0,0,0,0,0,0,-1,2008,1793,0,0
791,-769,0,0,0,0,0,0,0,0,0,-1,2015,1793,0,0
798,-769,0,0,0,0,0,0,0,0,0,-1,2022,1793,0,0
805,-769,0,0,0,0,0,0,0,0,0,-1,2029,1793,0,0
812,-769,0,0,0,0,0,0,0,0,0,-1,2036,1793,0,0
-700,-776,0,0,0,0,0,0,0,0,0,-1,524,1800,0,0
-693,-776,0,0,0,0,0,0,0,0,0,-1,531,1800,0,0
-686,-776,0,0,0,0,0,0,0,0,0,-1,538,1800,0,0
-679,-776,0,0,0,0,0,0,0,0,0,-1,545,1800,0,0
-672,-776,0,0,0,0,0,0,0,0,0,-1,552,1800,0,0
-665,-776,0,0,0,0,0,0,0,0,0,-1,559,1800,0,0
-658,-776,0,0,0,0,0,0,0,0,0,-1,566,1800,0,0
-651,-776,0,0,0,0,0,0,0,0,0,-1,573,1800,0,0
-644,-776,0,0,0,0,0,0,0,0,0,-1,580,1800,0,0
-637,-776,0,0,0,0,0,0,0,0,0,-1,587,1800,0,0
-630,-776,0,0,0,0,0,0,0,0,0,-1,594,1800,0,0
-623,-776,0,0,0,0,0,0,0,0,0,-1,601,1800,0,0
-616,-776,0,0,0,0,0,0,0,0,0,-1,608,1800,0,0
-609,-776,0,0,0,0,0,0,0,0,0,-1,615,1800,0,0
-602,-776,0,0,0,0,0,0,0,0,0,-1,622,1800,0,0
-595,-776,0,0,0,0,0,0,0,0,0,-1,629,1800,0,0
-588,-776,0,0,0,0,0,0,0,0,0,-1,636,1800,0,0
-581,-776,0,0,0,0,0,0,0,0,0,-1,643,1800,0,0
-574,-776,0,0,0,0,0,0,0,0,0,-1,650,1800,0,0
-567,-776,0,0,0,0,0,0,0,0,0,-1,657,1800,0,0
-560,-776,0,0,0,0,0,0,0,0,0,-1,664,1800,0,0
-553,-776,0,0,0,0,0,0,0,0,0,-1,671,1800,0,0
-546,-776,0,0,0,0,0,0,0,0,0,-1,678,1800,0,0
-539,-776,0,0,0,0,0,0,0,0,0,-1,685,1800,0,0
-532,-776,0,0,0,0,0,0,0,0,0,-1,692,1800,0,0
-525,-776,0,0,0,0,0,0,0,0,0,-1,699,1800,0,0
-518,-776,0,0,0,0,0,0,0,0,0,-1,706,1800,0,0
-511,-776,0,0,0,0,0,0,0,0,0,-1,713,1800,0,0
-504,-776,0,0,0,0,0,0,0,0,0,-1,720,1800,0,0
-497,-776,0,0,0,0,0,0,0,0,0,-1,727,1800,0,0
-490,-776,0,0,0,0,0,0,0,0,0,-1,734,1800,0,0
-483,-776,0,0,0,0,0,0,0,0,0,-1,741,1800,0,0
-476,-776,0,0,0,0,0,0,0,0,0,-1,748,1800,0,0
-469,-776,0,0,0,0,0,0,0,0,0,-1,755,1800,0,0
-462,-776,0,0,0,0,0,0,0,0,0,-1,762,1800,0,0
-455,-776,0,0,0,0,0,0,0,0,0,-1,769,1800,0,0
-448,-776,0,0,0,0,0,0,0,0,0,-1,776,1800,0,0
-441,-776,0,0,0,0,0,0,0,0,0,-1,783,1800,0,0
-434,-776,0,0,0,0,0,0,0,0,0,-1,790,1800,0,0
-427,-776,0,0,0,0,0,0,0,0,0,-1,797,1800,0,0
-420,-776,0,0,0,0,0,0,0,0,0,-1,804,1800,0,0
-413,-776,0,0,0,0,0,0,0,0,0,-1,811,1800,0,0
-406,-776,0,0,0,0,0,0,0,0,0,-1,818,1800,0,0
-399,-776,0,0,0,0,0,0,0,0,0,-1,825,1800,0,0
-392,-776,0,0,0,0,0,0,0,0,0,-1,832,1800,0,0
-385,-776,0,0,0,0,0,0,0,0,0,-1,839,1800,0,0
-378,-776,0,0,0,0,0,0,0,0,0,-1,846,1800,0,0
-371,-776,0,0,0,0,0,0,0,0,0,-1,853,1800,0,0
-364,-776,0,0,0,0,0,0,0,0,0,-1,860,1800,0,0
-357,-776,0,0,0,0,0,0,0,0,0,-1,867,1800,0,0
-350,-776,0,0,0,0,0,0,0,0,0,-1,874,1800,0,0
-343,-776,0,0,0,0,0,0,0,0,0,-1,881,1800,0,0
-336,-776,0,0,0,0,0,0,0,0,0,-1,888,1800,0,0
-329,-776,0,0,0,0,0,0,0,0,0,-1,895,1800,0,0
-322,-776,0,0,0,0,0,0,0,0,0,-1,902,1800,0,0
-315,-776,0,0,0,0,0,0,0,0,0,-1,909,1800,0,0
-308,-776,0,0,0,0,0,0,0,0,0,-1,916,1800,0,0
-301,-776,0,0,0,0,0,0,0,0,0,-1,923,1800,0,0
-294,-776,0,0,0,0,0,0,0,0,0,-1,930,1800,0,0
-287,-776,0,0,0,0,0,0,0,0,0,-1,937,1800,0,0
-280,-776,0,0,0,0,0,0,0,0,0,-1,944,1800,0,0
-273,-776,0,0,0,0,0,0,0,0,0,-1,951,1800,0,0
-266,-776,0,0,0,0,0,0,0,0,0,-1,958,1800,0,0
-259,-776,0,0,0,0,0,0,0,0,0,-1,965,1800,0,0
-252,-776,0,0,0,0,0,0,0,0,0,-1,972,1800,0,0
-245,-776,0,0,0,0,0,0,0,0,0,-1,979,1800,0,0
-238,-776,0,0,0,0,0,0,0,0,0,-1,986,1800,0,0
-231,-776,0,0,0,0,0,0,0,0,0,-1,993,1800,0,0
-224,-776,0,0,0,0,0,0,0,0,0,-1,1000,1800,0,0
-217,-776,0,0,0,0,0,0,0,0,0,-1,1007,1800,0,0
-210,-776,0,0,0,0,0,0,0,0,0,-1,1014,1800,0,0
-203,-776,0,0,0,0,0,0,0,0,0,-1,1021,1800,0,0
-196,-776,0,0,0,0,0,0,0,0,0,-1,1028,1800,0,0
-189,-776,0,0,0,0,0,0,0,0,0,-1,1035,1800,0,0
-182,-776,0,0,0,0,0,0,0,0,0,-1,1042,1800,0,0
-175,-776,0,0,0,0,0,0,0,0,0,-1,1049,1800,0,0
-168,-776,0,0,0,0,0,0,0,0,0,-1,1056,1800,0,0
-161,-776,0,0,0,0,0,0,0,0,0,-1,1063,1800,0,0
-154,-776,0,0,0,0,0,0,0,0,0,-1,1070,1800,0,0
-147,-776,0,0,0,0,0,0,0,0,0,-1,1077,1800,0,0
-140,-776,2.98499,5.20911,0,0,0,0,0,0,0,-1,1084,1800,2.98493,-5.2091
-133,-776,6.72363,9.35828,0,0,0,0,0,0,0,-1,1091,1800,6.72358,-9.35824
-126,-776,6.55029,13.7832,0,0,0,0,0,0,0,-1,1098,1800,6.55029,-13.7832
-119,-776,5.72107,13.7787,0,0,0,0,0,0,0,-1,1105,1800,5.72106,-13.7787
-112,-776,6.84998,20.4421,0,0,0,0,0,0,0,-1,1112,1800,6.84993,-20.4421
-105,-776,2.15039,19.7095,0,0,0,0,0,0,0,-1,1119,1800,2.1504,-19.7095
-98,-776,3.92517,21.9519,0,0,0,0,0,0,0,-1,1126,1800,3.92517,-21.9519
-91,-776,3.30225,18.134,0,0,0,0,0,0,0,-1,1133,1800,3.30222,-18.134
-84,-776,2.67932,14.3162,0,0,0,0,0,0,0,-1,1140,1800,2.67926,-14.3161
-77,-776,0.580078,11.1272,0,0,0,0,0,0,0,-1,1147,1800,0.58002,-11.1272
-70,-776,-0.562866,12.3163,0,0,0,0,0,0,0,-1,1154,1800,-0.562897,-12.3163
-63,-776,-3.96106,9.97656,0,0,0,0,0,0,0,-1,1161,1800,-3.961,-9.97654
-56,-776,-7.35913,7.63672,0,0,0,0,0,0,0,-1,1168,1800,-7.3591,-7.63676
-49,-776,-7.62952,3.1908,0,0,0,0,0,0,0,-1,1175,1800,-7.62955,-3.19076
-42,-776,-3.41272,3.0249,0,0,0,0,0,0,0,-1,1182,1800,-3.41269,-3.02488
-35,-776,-3.71753,1.63635,0,0,0,0,0,0,0,-1,1189,1800,-3.71755,-1.63631
-28,-776,-4.03979,0.716064,0,0,0,0,0,0,0,-1,1196,1800,-4.03977,-0.716055
-21,-776,7.0907,30.7811,0,0,0,0,0,0,0,-1,1203,1800,7.09068,-30.7811
-14,-776,7.22046,30.7543,0,0,0,0,0,0,0,-1,1210,1800,7.22044,-30.7543
-7,-776,4.19788,30.1149,0,0,0,0,0,0,0,-1,1217,1800,4.19788,-30.1149
0,-776,4.75464,30.5295,0,0,0,0,0,0,0,-1,1224,1800,4.75464,-30.5295
7,-776,6.93823,31.8314,0,0,0,0,0,0,0,-1,1231,1800,6.93828,-31.8315
14,-776,6.63257,31.9065,0.0311448,0.0099171,0.0120189,0.0365656,0.00449634,0.4237,0.0230251,0.0450522,1238,1800,6.63253,-31.9065
21,-776,6.07288,31.4647,0.0312188,0.00640269,0.00375412,0.0317743,0.00584721,0.1469,0.0195278,0.04265,1245,1800,6.07291,-31.4647
28,-776,6.00964,31.2498,0.0309633,0.00104153,-0.00371414,0.0314174,0.00058739,-0.121668,0.0207519,0.0420146,1252,1800,6.00959,-31.2497
35,-776,5.92151,31.4142,0.0297052,-0.00327461,-0.0111284,0.033109,-0.0066784,-0.296828,0.0246028,0.0448683,1259,1800,5.92156,-31.4142
42,-776,7.00134,31.6127,0,0,0,0,0,0,0,-1,1266,1800,7.00139,-31.6126
49,-776,7.64014,31.2662,0,0,0,0,0,0,0,-1,1273,1800,7.64018,-31.2662
56,-776,7.26758,30.729,0,0,0,0,0,0,0,-1,1280,1800,7.26754,-30.729
63,-776,6.97949,30.1106,0.018349,-0.0171633,-0.0305742,0.035949,-0.0347634,-0.522323,0.0408277,0.046226,1287,1800,6.97953,-30.1106
70,-776,7.00793,30.0237,0.0132592,-0.0167952,-0.0336838,0.0351158,-0.0386518,-0.575585,0.0426061,0.047516,1294,1800,7.00789,-30.0236
77,-776,7.15417,30.2251,0.00796742,-0.0167115,-0.0362585,0.0339287,-0.0426728,-0.621386,0.0443218,0.0491366,1301,1800,7.15421,-30.2251
84,-776,7.07471,31.432,0,0,0,0,0,0,0,-1,1308,1800,7.07468,-31.432
91,-776,6.19568,32.1157,-0.00443487,-0.0120081,-0.0383927,0.0303575,-0.0468004,-0.736243,0.044883,0.0478269,1315,1800,6.19566,-32.1157
98,-776,6.11902,31.2649,-0.0110092,-0.00897725,-0.0377183,0.0277388,-0.0477253,-0.798863,0.0440756,0.0418431,1322,1800,6.11898,-31.2648
105,-776,6.77234,31.4747,0,0,0,0,0,0,0,-1,1329,1800,6.77232,-31.4747
112,-776,2.51233,32.8357,0,0,0,0,0,0,0,-1,1336,1800,2.51235,-32.8357
119,-776,1.19348,32.9817,-0.0227904,0.00345879,-0.0444587,0.0366897,-0.0560212,-0.928926,0.0539131,0.0450986,1343,1800,1.19342,-32.9817
126,-776,1.64355,32.556,-0.0250975,0.00680287,-0.046717,0.0402175,-0.0585122,-0.949904,0.0573269,0.0457692,1350,1800,1.6435,-32.556
133,-776,2.10217,32.23,0,0,0,0,0,0,0,-1,1357,1800,2.10219,-32.2299
140,-776,5.96436,31.0582,0,0,0,0,0,0,0,-1,1364,1800,5.96437,-31.0583
147,-776,5.58093,28.9237,0,0,0,0,0,0,0,-1,1371,1800,5.58088,-28.9237
154,-776,6.43774,0.344116,0,0,0,0,0,0,0,-1,1378,1800,6.43776,-0.344162
161,-776,6.50293,1.1731,0,0,0,0,0,0,0,-1,1385,1800,6.5029,-1.17313
168,-776,8.44971,1.22913,0,0,0,0,0,0,0,-1,1392,1800,8.44974,-1.22915
175,-776,8.61523,2.87061,0,0,0,0,0,0,0,-1,1399,1800,8.6152,-2.87063
182,-776,8.54065,4.60645,0,0,0,0,0,0,0,-1,1406,1800,8.5407,-4.60643
189,-776,8.35303,6.28223,0,0,0,0,0,0,0,-1,1413,1800,8.35297,-6.28225
196,-776,8.0387,8.21704,0,0,0,0,0,0,0,-1,1420,1800,8.03865,-8.217
203,-776,7.91736,9.79919,0,0,0,0,0,0,0,-1,1427,1800,7.91735,-9.79922
210,-776,20.2479,7.85718,0,0,0,0,0,0,0,-1,1434,1800,20.248,-7.85719
217,-776,21.5171,9.3418,0,0,0,0,0,0,0,-1,1441,1800,21.5171,-9.34182
224,-776,3.09253,14.9313,0,0,0,0,0,0,0,-1,1448,1800,3.09254,-14.9313
231,-776,20.8671,9.21057,0,0,0,0,0,0,0,-1,1455,1800,20.867,-9.21054
238,-776,20.7511,9.05847,0,0,0,0,0,0,0,-1,1462,1800,20.7511,-9.05848
245,-776,3.80823,15.4108,0,0,0,0,0,0,0,-1,1469,1800,3.80826,-15.4108
252,-776,8.57837,20.2009,0,0,0,0,0,0,0,-1,1476,1800,8.57841,-20.2009
259,-776,14.1882,7.69055,0,0,0,0,0,0,0,-1,1483,1800,14.1882,-7.69061
266,-776,0,0,0,0,0,0,0,0,0,-1,1490,1800,0,0
273,-776,0,0,0,0,0,0,0,0,0,-1,1497,1800,0,0
280,-776,0,0,0,0,0,0,0,0,0,-1,1504,1800,0,0
287,-776,0,0,0,0,0,0,0,0,0,-1,1511,1800,0,0
294,-776,0,0,0,0,0,0,0,0,0,-1,1518,1800,0,0
301,-776,0,0,0,0,0,0,0,0,0,-1,1525,1800,0,0
308,-776,0,0,0,0,0,0,0,0,0,-1,1532,1800,0,0
315,-776,0,0,0,0,0,0,0,0,0,-1,1539,1800,0,0
322,-776,0,0,0,0,0,0,0,0,0,-1,1546,1800,0,0
329,-776,0,0,0,0,0,0,0,0,0,-1,1553,1800,0,0
336,-776,0,0,0,0,0,0,0,0,0,-1,1560,1800,0,0
343,-776,0,0,0,0,0,0,0,0,0,-1,1567,1800,0,0
350,-776,0,0,0,0,0,0,0,0,0,-1,1574,1800,0,0
357,-776,0,0,0,0,0,0,0,0,0,-1,1581,1800,0,0
364,-776,0,0,0,0,0,0,0,0,0,-1,1588,1800,0,0
371,-776,0,0,0,0,0,0,0,0,0,-1,1595,1800,0,0
378,-776,0,0,0,0,0,0,0,0,0,-1,1602,1800,0,0
385,-776,0,0,0,0,0,0,0,0,0,-1,1609,1800,0,0
392,-776,0,0,0,0,0,0,0,0,0,-1,1616,1800,0,0
399,-776,0,0,0,0,0,0,0,0,0,-1,1623,1800,0,0
406,-776,0,0,0,0,0,0,0,0,0,-1,1630,1800,0,0
413,-776,0,0,0,0,0,0,0,0,0,-1,1637,1800,0,0
420,-776,0,0,0,0,0,0,0,0,0,-1,1644,1800,0,0
427,-776,0,0,0,0,0,0,0,0,0,-1,1651,1800,0,0
434,-776,0,0,0,0,0,0,0,0,0,-1,1658,1800,0,0
441,-776,0,0,0,0,0,0,0,0,0,-1,1665,1800,0,0
448,-776,0,0,0,0,0,0,0,0,0,-1,1672,1800,0,0
455,-776,0,0,0,0,0,0,0,0,0,-1,1679,1800,0,0
462,-776,0,0,0,0,0,0,0,0,0,-1,1686,1800,0,0
469,-776,0,0,0,0,0,0,0,0,0,-1,1693,1800,0,0
476,-776,0,0,0,0,0,0,0,0,0,-1,1700,1800,0,0
483,-776,0,0,0,0,0,0,0,0,0,-1,1707,1800,0,0
490,-776,0,0,0,0,0,0,0,0,0,-1,1714,1800,0,0
497,-776,0,0,0,0,0,0,0,0,0,-1,1721,1800,0,0
504,-776,0,0,0,0,0,0,0,0,0,-1,1728,1800,0,0
511,-776,0,0,0,0,0,0,0,0,0,-1,1735,1800,0,0
518,-776,0,0,0,0,0,0,0,0,0,-1,1742,1800,0,0
525,-776,0,0,0,0,0,0,0,0,0,-1,1749,1800,0,0
532,-776,0,0,0,0,0,0,0,0,0,-1,1756,1800,0,0
539,-776,0,0,0,0,0,0,0,0,0,-1,1763,1800,0,0
546,-776,0,0,0,0,0,0,0,0,0,-1,1770,1800,0,0
553,-776,0,0,0,0,0,0,0,0,0,-1,1777,1800,0,0
560,-776,0,0,0,0,0,0,0,0,0,-1,1784,1800,0,0
567,-776,0,0,0,0,0,0,0,0,0,-1,1791,1800,0,0
574,-776,0,0,0,0,0,0,0,0,0,-1,1798,1800,0,0
581,-776,0,0,0,0,0,0,0,0,0,-1,1805,1800,0,0
588,-776,0,0,0,0,0,0,0,0,0,-1,1812,1800,0,0
595,-776,0,0,0,0,0,0,0,0,0,-1,1819,1800,0,0
602,-776,0,0,0,0,0,0,0,0,0,-1,1826,1800,0,0
609,-776,0,0,0,0,0,0,0,0,0,-1,1833,1800,0,0
616,-776,0,0,0,0,0,0,0,0,0,-1,1840,1800,0,0
623,-776,0,0,0,0,0,0,0,0,0,-1,1847,1800,0,0
630,-776,0,0,0,0,0,0,0,0,0,-1,1854,1800,0,0
637,-776,0,0,0,0,0,0,0,0,0,-1,1861,1800,0,0
644,-776,0,0,0,0,0,0,0,0,0,-1,1868,1800,0,0
651,-776,0,0,0,0,0,0,0,0,0,-1,1875,1800,0,0
658,-776,0,0,0,0,0,0,0,0,0,-1,1882,1800,0,0
665,-776,0,0,0,0,0,0,0,0,0,-1,1889,1800,0,0
672,-776,0,0,0,0,0,0,0,0,0,-1,1896,1800,0,0
679,-776,0,0,0,0,0,0,0,0,0,-1,1903,1800,0,0
686,-776,0,0,0,0,0,0,0,0,0,-1,1910,1800,0,0
693,-776,0,0,0,0,0,0,0,0,0,-1,1917,1800,0,0
700,-776,0,0,0,0,0,0,0,0,0,-1,1924,1800,0,0
707,-776,0,0,0,0,0,0,0,0,0,-1,1931,1800,0,0
714,-776,0,0,0,0,0,0,0,0,0,-1,1938,1800,0,0
721,-776,0,0,0,0,0,0,0,0,0,-1,1945,1800,0,0
728,-776,0,0,0,0,0,0,0,0,0,-1,1952,1800,0,0
735,-776,0,0,0,0,0,0,0,0,0,-1,1959,1800,0,0
742,-776,0,0,0,0,0,0,0,0,0,-1,1966,1800,0,0
749,-776,0,0,0,0,0,0,0,0,0,-1,1973,1800,0,0
756,-776,0,0,0,0,0,0,0,0,0,-1,1980,1800,0,0
763,-776,0,0,0,0,0,0,0,0,0,-1,1987,1800,0,0
770,-776,0,0,0,0,0,0,0,0,0,-1,1994,1800,0,0
777,-776,0,0,0,0,0,0,0,0,0,-1,2001,1800,0,0
784,-776,0,0,0,0,0,0,0,0,0,-1,2008,1800,0,0
791,-776,0,0,0,0,0,0,0,0,0,-1,2015,1800,0,0
798,-776,0,0,0,0,0,0,0,0,0,-1,2022,1800,0,0
805,-776,0,0,0,0,0,0,0,0,0,-1,2029,1800,0,0
812,-776,0,0,0,0,0,0,0,0,0,-1,2036,1800,0,0
-700,-783,0,0,0,0,0,0,0,0,0,-1,524,1807,0,0
-693,-783,0,0,0,0,0,0,0,0,0,-1,531,1807,0,0
-686,-783,0,0,0,0,0,0,0,0,0,-1,538,1807,0,0
-679,-783,0,0,0,0,0,0,0,0,0,-1,545,1807,0,0
-672,-783,0,0,0,0,0,0,0,0,0,-1,552,1807,0,0
-665,-783,0,0,0,0,0,0,0,0,0,-1,559,1807,0,0
-658,-783,0,0,0,0,0,0,0,0,0,-1,566,1807,0,0
-651,-783,0,0,0,0,0,0,0,0,0,-1,573,1807,0,0
-644,-783,0,0,0,0,0,0,0,0,0,-1,580,1807,0,0
-637,-783,0,0,0,0,0,0,0,0,0,-1,587,1807,0,0
-630,-783,0,0,0,0,0,0,0,0,0,-1,594,1807,0,0
-623,-783,0,0,0,0,0,0,0,0,0,-1,601,1807,0,0
-616,-783,0,0,0,0,0,0,0,0,0,-1,608,1807,0,0
-609,-783,0,0,0,0,0,0,0,0,0,-1,615,1807,0,0
-602,-783,0,0,0,0,0,0,0,0,0,-1,622,1807,0,0
-595,-783,0,0,0,0,0,0,0,0,0,-1,629,1807,0,0
-588,-783,0,0,0,0,0,0,0,0,0,-1,636,1807,0,0
-581,-783,0,0,0,0,0,0,0,0,0,-1,643,1807,0,0
-574,-783,0,0,0,0,0,0,0,0,0,-1,650,1807,0,0
-567,-783,0,0,0,0,0,0,0,0,0,-1,657,1807,0,0
-560,-783,0,0,0,0,0,0,0,0,0,-1,664,1807,0,0
-553,-783,0,0,0,0,0,0,0,0,0,-1,671,1807,0,0
-546,-783,0,0,0,0,0,0,0,0,0,-1,678,1807,0,0
-539,-783,0,0,0,0,0,0,0,0,0,-1,685,1807,0,0
-532,-783,0,0,0,0,0,0,0,0,0,-1,692,1807,0,0
-525,-783,0,0,0,0,0,0,0,0,0,-1,699,1807,0,0
-518,-783,0,0,0,0,0,0,0,0,0,-1,706,1807,0,0
-511,-783,0,0,0,0,0,0,0,0,0,-1,713,1807,0,0
-504,-783,0,0,0,0,0,0,0,0,0,-1,720,1807,0,0
-497,-783,0,0,0,0,0,0,0,0,0,-1,727,1807,0,0
-490,-783,0,0,0,0,0,0,0,0,0,-1,734,1807,0,0
-483,-783,0,0,0,0,0,0,0,0,0,-1,741,1807,0,0
-476,-783,0,0,0,0,0,0,0,0,0,-1,748,1807,0,0
-469,-783,0,0,0,0,0,0,0,0,0,-1,755,1807,0,0
-462,-783,0,0,0,0,0,0,0,0,0,-1,762,1807,0,0
-455,-783,0,0,0,0,0,0,0,0,0,-1,769,1807,0,0
-448,-783,0,0,0,0,0,0,0,0,0,-1,776,1807,0,0
-441,-783,0,0,0,0,0,0,0,0,0,-1,783,1807,0,0
-434,-783,0,0,0,0,0,0,0,0,0,-1,790,1807,0,0
-427,-783,0,0,0,0,0,0,0,0,0,-1,797,1807,0,0
-420,-783,0,0,0,0,0,0,0,0,0,-1,804,1807,0,0
-413,-783,0,0,0,0,0,0,0,0,0,-1,811,1807,0,0
-406,-783,0,0,0,0,0,0,0,0,0,-1,818,1807,0,0
-399,-783,0,0,0,0,0,0,0,0,0,-1,825,1807,0,0
-392,-783,0,0,0,0,0,0,0,0,0,-1,832,1807,0,0
-385,-783,0,0,0,0,0,0,0,0,0,-1,839,1807,0,0
-378,-783,0,0,0,0,0,0,0,0,0,-1,846,1807,0,0
-371,-783,0,0,0,0,0,0,0,0,0,-1,853,1807,0,0
-364,-783,0,0,0,0,0,0,0,0,0,-1,860,1807,0,0
-357,-783,0,0,0,0,0,0,0,0,0,-1,867,1807,0,0
-350,-783,0,0,0,0,0,0,0,0,0,-1,874,1807,0,0
-343,-783,0,0,0,0,0,0,0,0,0,-1,881,1807,0,0
-336,-783,0,0,0,0,0,0,0,0,0,-1,888,1807,0,0
-329,-783,0,0,0,0,0,0,0,0,0,-1,895,1807,0,0
-322,-783,0,0,0,0,0,0,0,0,0,-1,902,1807,0,0
-315,-783,0,0,0,0,0,0,0,0,0,-1,909,1807,0,0
-308,-783,0,0,0,0,0,0,0,0,0,-1,916,1807,0,0
-301,-783,0,0,0,0,0,0,0,0,0,-1,923,1807,0,0
-294,-783,0,0,0,0,0,0,0,0,0,-1,930,1807,0,0
-287,-783,0,0,0,0,0,0,0,0,0,-1,937,1807,0,0
-280,-783,0,0,0,0,0,0,0,0,0,-1,944,1807,0,0
-273,-783,0,0,0,0,0,0,0,0,0,-1,951,1807,0,0
-266,-783,0,0,0,0,0,0,0,0,0,-1,958,1807,0,0
-259,-783,0,0,0,0,0,0,0,0,0,-1,965,1807,0,0
-252,-783,0,0,0,0,0,0,0,0,0,-1,972,1807,0,0
-245,-783,0,0,0,0,0,0,0,0,0,-1,979,1807,0,0
-238,-783,0,0,0,0,0,0,0,0,0,-1,986,1807,0,0
-231,-783,0,0,0,0,0,0,0,0,0,-1,993,1807,0,0
-224,-783,0,0,0,0,0,0,0,0,0,-1,1000,1807,0,0
-217,-783,0,0,0,0,0,0,0,0,0,-1,1007,1807,0,0
-210,-783,0,0,0,0,0,0,0,0,0,-1,1014,1807,0,0
-203,-783,0,0,0,0,0,0,0,0,0,-1,1021,1807,0,0
-196,-783,0,0,0,0,0,0,0,0,0,-1,1028,1807,0,0
-189,-783,0,0,0,0,0,0,0,0,0,-1,1035,1807,0,0
-182,-783,0,0,0,0,0,0,0,0,0,-1,1042,1807,0,0
-175,-783,0,0,0,0,0,0,0,0,0,-1,1049,1807,0,0
-168,-783,0,0,0,0,0,0,0,0,0,-1,1056,1807,0,0
-161,-783,0,0,0,0,0,0,0,0,0,-1,1063,1807,0,0
-154,-783,0,0,0,0,0,0,0,0,0,-1,1070,1807,0,0
-147,-783,0,0,0,0,0,0,0,0,0,-1,1077,1807,0,0
-140,-783,0,0,0,0,0,0,0,0,0,-1,1084,1807,0,0
-133,-783,0,0,0,0,0,0,0,0,0,-1,1091,1807,0,0
-126,-783,0,0,0,0,0,0,0,0,0,-1,1098,1807,0,0
-119,-783,0,0,0,0,0,0,0,0,0,-1,1105,1807,0,0
-112,-783,5.33936,14.7699,0,0,0,0,0,0,0,-1,1112,1807,5.33931,-14.7699
-105,-783,6.44263,21.2224,0,0,0,0,0,0,0,-1,1119,1807,6.44263,-21.2224
-98,-783,5.54773,20.5695,0,0,0,0,0,0,0,-1,1126,1807,5.54772,-20.5695
-91,-783,2.6106,20.2491,0,0,0,0,0,0,0,-1,1133,1807,2.61056,-20.2492
-84,-783,-0.0491943,14.5743,0,0,0,0,0,0,0,-1,1140,1807,-0.0491562,-14.5743
-77,-783,0.332764,12.7788,0,0,0,0,0,0,0,-1,1147,1807,0.332743,-12.7788
-70,-783,-1.93176,5.12817,0,0,0,0,0,0,0,-1,1154,1807,-1.93171,-5.12813
-63,-783,-5.31702,10.54,0,0,0,0,0,0,0,-1,1161,1807,-5.31703,-10.54
-56,-783,-6.26135,6.9679,0,0,0,0,0,0,0,-1,1168,1807,-6.26136,-6.96785
-49,-783,-3.17688,4.59705,0,0,0,0,0,0,0,-1,1175,1807,-3.17685,-4.5971
-42,-783,-3.72876,3.1405,0,0,0,0,0,0,0,-1,1182,1807,-3.72874,-3.14055
-35,-783,-3.97046,1.59399,0,0,0,0,0,0,0,-1,1189,1807,-3.97041,-1.59401
-28,-783,-4.12195,0.270386,0,0,0,0,0,0,0,-1,1196,1807,-4.12197,-0.270408
-21,-783,7.32007,30.9943,0,0,0,0,0,0,0,-1,1203,1807,7.3201,-30.9942
-14,-783,2.95789,29.5259,0,0,0,0,0,0,0,-1,1210,1807,2.95785,-29.5259
-7,-783,3.49353,29.6445,0.0503761,0.0247637,0.0361484,0.0759196,-0.000779886,0.615162,0.050875,0.0472141,1217,1807,3.49359,-29.6445
0,-783,3.89026,29.9652,0.0453,0.0234252,0.0319953,0.0681757,0.000549506,0.620703,0.0452684,0.045663,1224,1807,3.8903,-29.9652
7,-783,4.7373,30.2203,0.043075,0.019406,0.0257631,0.0595918,0.00288922,0.570094,0.0388006,0.0474285,1231,1807,4.73733,-30.2204
14,-783,5.39563,30.5131,0,0,0,0,0,0,0,-1,1238,1807,5.39557,-30.513
21,-783,5.61096,30.7496,0.0413115,0.010199,0.0051197,0.0421323,0.00937815,0.158972,0.0255426,0.0478007,1245,1807,5.61093,-30.7496
28,-783,5.76917,30.9351,0.0401952,0.0034248,-0.00477759,0.0408058,0.00281419,-0.127119,0.026316,0.0471113,1252,1807,5.76921,-30.9351
35,-783,5.96582,31.1093,0,0,0,0,0,0,0,-1,1259,1807,5.96584,-31.1092
42,-783,8.32202,38.3878,0.0355785,-0.00814708,-0.0229585,0.0454186,-0.0179872,-0.40492,0.0377321,0.0455034,1266,1807,8.32204,-38.3878
49,-783,8.28638,31.6797,0.0325587,-0.0130952,-0.0303157,0.0476805,-0.028217,-0.462697,0.0442972,0.0453948,1273,1807,8.28633,-31.6796
56,-783,7.76477,36.7997,0.0286619,-0.0176223,-0.0358346,0.0481775,-0.0371379,-0.498689,0.0493941,0.044966,1280,1807,7.76475,-36.7997
63,-783,7.88013,35.7897,0.0217503,-0.0197441,-0.040012,0.0460742,-0.044068,-0.546219,0.0520479,0.0478966,1287,1807,7.88011,-35.7897
70,-783,7.06018,29.0452,0.0149034,-0.0193074,-0.0438252,0.0448431,-0.0492471,-0.599336,0.0543429,0.0439353,1294,1807,7.06022,-29.0451
77,-783,7.19995,32.7074,0.00800665,-0.0189748,-0.0468732,0.0432919,-0.05426,-0.645279,0.0564401,0.0476176,1301,1807,7.19993,-32.7073
84,-783,6.71265,32.7253,7.52409e-05,-0.0168801,-0.0486629,0.0409934,-0.0577982,-0.699158,0.0573118,0.0459853,1308,1807,6.71268,-32.7254
91,-783,6.43396,32.5524,-0.00816483,-0.0125182,-0.049306,0.0390125,-0.0596955,-0.763339,0.0574046,0.0480422,1315,1807,6.43396,-32.5524
98,-783,6.146,32.3912,0,0,0,0,0,0,0,-1,1322,1807,6.14604,-32.3912
105,-783,4.22241,32.8214,0,0,0,0,0,0,0,-1,1329,1807,4.22244,-32.8214
112,-783,3.70532,32.7042,-0.027995,0.00308461,-0.0556259,0.0453006,-0.0702109,-0.921607,0.0672055,0.048096,1336,1807,3.70534,-32.7043
119,-783,3.20984,32.8015,-0.0327917,0.00718415,-0.0581031,0.0486412,-0.0742487,-0.951062,0.0714622,0.0432421,1343,1807,3.20983,-32.8015
126,-783,2.69336,32.8485,-0.0359425,0.0118479,-0.0613677,0.0538084,-0.077903,-0.971056,0.0764666,0.0467039,1350,1807,2.69339,-32.8485
133,-783,2.93677,32.5435,0,0,0,0,0,0,0,-1,1357,1807,2.93679,-32.5435
140,-783,7.49292,31.0187,0,0,0,0,0,0,0,-1,1364,1807,7.49291,-31.0186
147,-783,7.31079,30.9807,0,0,0,0,0,0,0,-1,1371,1807,7.31076,-30.9807
154,-783,33.9521,16.4598,0,0,0,0,0,0,0,-1,1378,1807,33.9521,-16.4598
161,-783,6.57568,1.16174,0,0,0,0,0,0,0,-1,1385,1807,6.57562,-1.1617
168,-783,8.62561,1.79944,0,0,0,0,0,0,0,-1,1392,1807,8.62561,-1.79946
175,-783,8.78699,3.40857,0,0,0,0,0,0,0,-1,1399,1807,8.78697,-3.40854
182,-783,8.70984,5.14661,0,0,0,0,0,0,0,-1,1406,1807,8.70989,-5.14666
189,-783,8.55762,6.79871,0,0,0,0,0,0,0,-1,1413,1807,8.55766,-6.79872
196,-783,8.25488,8.66626,0,0,0,0,0,0,0,-1,1420,1807,8.25492,-8.66628
203,-783,7.86755,10.5735,0,0,0,0,0,0,0,-1,1427,1807,7.8676,-10.5734
210,-783,5.6969,8.99231,0,0,0,0,0,0,0,-1,1434,1807,5.69693,-8.99234
217,-783,5.28503,3.80872,0,0,0,0,0,0,0,-1,1441,1807,5.285,-3.80868
224,-783,3.22571,6.62903,0,0,0,0,0,0,0,-1,1448,1807,3.2257,-6.62907
231,-783,4.27942,4.56262,0,0,0,0,0,0,0,-1,1455,1807,4.27948,-4.56267
238,-783,0,0,0,0,0,0,0,0,0,-1,1462,1807,0,0
245,-783,0,0,0,0,0,0,0,0,0,-1,1469,1807,0,0
252,-783,0,0,0,0,0,0,0,0,0,-1,1476,1807,0,0
259,-783,0,0,0,0,0,0,0,0,0,-1,1483,1807,0,0
266,-783,0,0,0,0,0,0,0,0,0,-1,1490,1807,0,0
273,-783,0,0,0,0,0,0,0,0,0,-1,1497,1807,0,0
280,-783,0,0,0,0,0,0,0,0,0,-1,1504,1807,0,0
287,-783,0,0,0,0,0,0,0,0,0,-1,1511,1807,0,0
294,-783,0,0,0,0,0,0,0,0,0,-1,1518,1807,0,0
301,-783,0,0,0,0,0,0,0,0,0,-1,1525,1807,0,0
308,-783,0,0,0,0,0,0,0,0,0,-1,1532,1807,0,0
315,-783,0,0,0,0,0,0,0,0,0,-1,1539,1807,0,0
322,-783,0,0,0,0,0,0,0,0,0,-1,1546,1807,0,0
329,-783,0,0,0,0,0,0,0,0,0,-1,1553,1807,0,0
336,-783,0,0,0,0,0,0,0,0,0,-1,1560,1807,0,0
343,-783,0,0,0,0,0,0,0,0,0,-1,1567,1807,0,0
350,-783,0,0,0,0,0,0,0,0,0,-1,1574,1807,0,0
357,-783,0,0,0,0,0,0,0,0,0,-1,1581,1807,0,0
364,-783,0,0,0,0,0,0,0,0,0,-1,1588,1807,0,0
371,-783,0,0,0,0,0,0,0,0,0,-1,1595,1807,0,0
378,-783,0,0,0,0,0,0,0,0,0,-1,1602,1807,0,0
385,-783,0,0,0,0,0,0,0,0,0,-1,1609,1807,0,0
392,-783,0,0,0,0,0,0,0,0,0,-1,1616,1807,0,0
399,-783,0,0,0,0,0,0,0,0,0,-1,1623,1807,0,0
406,-783,0,0,0,0,0,0,0,0,0,-1,1630,1807,0,0
413,-783,0,0,0,0,0,0,0,0,0,-1,1637,1807,0,0
420,-783,0,0,0,0,0,0,0,0,0,-1,1644,1807,0,0
427,-783,0,0,0,0,0,0,0,0,0,-1,1651,1807,0,0
434,-783,0,0,0,0,0,0,0,0,0,-1,1658,1807,0,0
441,-783,0,0,0,0,0,0,0,0,0,-1,1665,1807,0,0
448,-783,0,0,0,0,0,0,0,0,0,-1,1672,1807,0,0
455,-783,0,0,0,0,0,0,0,0,0,-1,1679,1807,0,0
462,-783,0,0,0,0,0,0,0,0,0,-1,1686,1807,0,0
469,-783,0,0,0,0,0,0,0,0,0,-1,1693,1807,0,0
476,-783,0,0,0,0,0,0,0,0,0,-1,1700,1807,0,0
483,-783,0,0,0,0,0,0,0,0,0,-1,1707,1807,0,0
490,-783,0,0,0,0,0,0,0,0,0,-1,1714,1807,0,0
497,-783,0,0,0,0,0,0,0,0,0,-1,1721,1807,0,0
504,-783,0,0,0,0,0,0,0,0,0,-1,1728,1807,0,0
511,-783,0,0,0,0,0,0,0,0,0,-1,1735,1807,0,0
518,-783,0,0,0,0,0,0,0,0,0,-1,1742,1807,0,0
525,-783,0,0,0,0,0,0,0,0,0,-1,1749,1807,0,0
532,-783,0,0,0,0,0,0,0,0,0,-1,1756,1807,0,0
539,-783,0,0,0,0,0,0,0,0,0,-1,1763,1807,0,0
546,-783,0,0,0,0,0,0,0,0,0,-1,1770,1807,0,0
553,-783,0,0,0,0,0,0,0,0,0,-1,1777,1807,0,0
560,-783,0,0,0,0,0,0,0,0,0,-1,1784,1807,0,0
567,-783,0,0,0,0,0,0,0,0,0,-1,1791,1807,0,0
574,-783,0,0,0,0,0,0,0,0,0,-1,1798,1807,0,0
581,-783,0,0,0,0,0,0,0,0,0,-1,1805,1807,0,0
588,-783,0,0,0,0,0,0,0,0,0,-1,1812,1807,0,0
595,-783,0,0,0,0,0,0,0,0,0,-1,1819,1807,0,0
602,-783,0,0,0,0,0,0,0,0,0,-1,1826,1807,0,0
609,-783,0,0,0,0,0,0,0,0,0,-1,1833,1807,0,0
616,-783,0,0,0,0,0,0,0,0,0,-1,1840,1807,0,0
623,-783,0,0,0,0,0,0,0,0,0,-1,1847,1807,0,0
630,-783,0,0,0,0,0,0,0,0,0,-1,1854,1807,0,0
637,-783,0,0,0,0,0,0,0,0,0,-1,1861,1807,0,0
644,-783,0,0,0,0,0,0,0,0,0,-1,1868,1807,0,0
651,-783,0,0,0,0,0,0,0,0,0,-1,1875,1807,0,0
658,-783,0,0,0,0,0,0,0,0,0,-1,1882,1807,0,0
665,-783,0,0,0,0,0,0,0,0,0,-1,1889,1807,0,0
672,-783,0,0,0,0,0,0,0,0,0,-1,1896,1807,0,0
679,-783,0,0,0,0,0,0,0,0,0,-1,1903,1807,0,0
686,-783,0,0,0,0,0,0,0,0,0,-1,1910,1807,0,0
693,-783,0,0,0,0,0,0,0,0,0,-1,1917,1807,0,0
700,-783,0,0,0,0,0,0,0,0,0,-1,1924,1807,0,0
707,-783,0,0,0,0,0,0,0,0,0,-1,1931,1807,0,0
714,-783,0,0,0,0,0,0,0,0,0,-1,1938,1807,0,0
721,-783,0,0,0,0,0,0,0,0,0,-1,1945,1807,0,0
728,-783,0,0,0,0,0,0,0,0,0,-1,1952,1807,0,0
735,-783,0,0,0,0,0,0,0,0,0,-1,1959,1807,0,0
742,-783,0,0,0,0,0,0,0,0,0,-1,1966,1807,0,0
749,-783,0,0,0,0,0,0,0,0,0,-1,1973,1807,0,0
756,-783,0,0,0,0,0,0,0,0,0,-1,1980,1807,0,0
763,-783,0,0,0,0,0,0,0,0,0,-1,1987,1807,0,0
770,-783,0,0,0,0,0,0,0,0,0,-1,1994,1807,0,0
777,-783,0,0,0,0,0,0,0,0,0,-1,2001,1807,0,0
784,-783,0,0,0,0,0,0,0,0,0,-1,2008,1807,0,0
791,-783,0,0,0,0,0,0,0,0,0,-1,2015,1807,0,0
798,-783,0,0,0,0,0,0,0,0,0,-1,2022,1807,0,0
805,-783,0,0,0,0,0,0,0,0,0,-1,2029,1807,0,0
812,-783,0,0,0,0,0,0,0,0,0,-1,2036,1807,0,0
-700,-790,0,0,0,0,0,0,0,0,0,-1,524,1814,0,0
-693,-790,0,0,0,0,0,0,0,0,0,-1,531,1814,0,0
-686,-790,0,0,0,0,0,0,0,0,0,-1,538,1814,0,0
-679,-790,0,0,0,0,0,0,0,0,0,-1,545,1814,0,0
-672,-790,0,0,0,0,0,0,0,0,0,-1,552,1814,0,0
-665,-790,0,0,0,0,0,0,0,0,0,-1,559,1814,0,0
-658,-790,0,0,0,0,0,0,0,0,0,-1,566,1814,0,0
-651,-790,0,0,0,0,0,0,0,0,0,-1,573,1814,0,0
-644,-790,0,0,0,0,0,0,0,0,0,-1,580,1814,0,0
-637,-790,0,0,0,0,0,0,0,0,0,-1,587,1814,0,0
-630,-790,0,0,0,0,0,0,0,0,0,-1,594,1814,0,0
-623,-790,0,0,0,0,0,0,0,0,0,-1,601,1814,0,0
-616,-790,0,0,0,0,0,0,0,0,0,-1,608,1814,0,0
-609,-790,0,0,0,0,0,0,0,0,0,-1,615,1814,0,0
-602,-790,0,0,0,0,0,0,0,0,0,-1,622,1814,0,0
-595,-790,0,0,0,0,0,0,0,0,0,-1,629,1814,0,0
-588,-790,0,0,0,0,0,0,0,0,0,-1,636,1814,0,0
-581,-790,0,0,0,0,0,0,0,0,0,-1,643,1814,0,0
-574,-790,0,0,0,0,0,0,0,0,0,-1,650,1814,0,0
-567,-790,0,0,0,0,0,0,0,0,0,-1,657,1814,0,0
-560,-790,0,0,0,0,0,0,0,0,0,-1,664,1814,0,0
-553,-790,0,0,0,0,0,0,0,0,0,-1,671,1814,0,0
-546,-790,0,0,0,0,0,0,0,0,0,-1,678,1814,0,0
-539,-790,0,0,0,0,0,0,0,0,0,-1,685,1814,0,0
-532,-790,0,0,0,0,0,0,0,0,0,-1,692,1814,0,0
-525,-790,0,0,0,0,0,0,0,0,0,-1,699,1814,0,0
-518,-790,0,0,0,0,0,0,0,0,0,-1,706,1814,0,0
-511,-790,0,0,0,0,0,0,0,0,0,-1,713,1814,0,0
-504,-790,0,0,0,0,0,0,0,0,0,-1,720,1814,0,0
-497,-790,0,0,0,0,0,0,0,0,0,-1,727,1814,0,0
-490,-790,0,0,0,0,0,0,0,0,0,-1,734,1814,0,0
-483,-790,0,0,0,0,0,0,0,0,0,-1,741,1814,0,0
-476,-790,0,0,0,0,0,0,0,0,0,-1,748,1814,0,0
-469,-790,0,0,0,0,0,0,0,0,0,-1,755,1814,0,0
-462,-790,0,0,0,0,0,0,0,0,0,-1,762,1814,0,0
-455,-790,0,0,0,0,0,0,0,0,0,-1,769,1814,0,0
-448,-790,0,0,0,0,0,0,0,0,0,-1,776,1814,0,0
-441,-790,0,0,0,0,0,0,0,0,0,-1,783,1814,0,0
-434,-790,0,0,0,0,0,0,0,0,0,-1,790,1814,0,0
-427,-790,0,0,0,0,0,0,0,0,0,-1,797,1814,0,0
-420,-790,0,0,0,0,0,0,0,0,0,-1,804,1814,0,0
-413,-790,0,0,0,0,0,0,0,0,0,-1,811,1814,0,0
-406,-790,0,0,0,0,0,0,0,0,0,-1,818,1814,0,0
-399,-790,0,0,0,0,0,0,0,0,0,-1,825,1814,0,0
-392,-790,0,0,0,0,0,0,0,0,0,-1,832,1814,0,0
-385,-790,0,0,0,0,0,0,0,0,0,-1,839,1814,0,0
-378,-790,0,0,0,0,0,0,0,0,0,-1,846,1814,0,0
-371,-790,0,0,0,0,0,0,0,0,0,-1,853,1814,0,0
-364,-790,0,0,0,0,0,0,0,0,0,-1,860,1814,0,0
-357,-790,0,0,0,0,0,0,0,0,0,-1,867,1814,0,0
-350,-790,0,0,0,0,0,0,0,0,0,-1,874,1814,0,0
-343,-790,0,0,0,0,0,0,0,0,0,-1,881,1814,0,0
-336,-790,0,0,0,0,0,0,0,0,0,-1,888,1814,0,0
-329,-790,0,0,0,0,0,0,0,0,0,-1,895,1814,0,0
-322,-790,0,0,0,0,0,0,0,0,0,-1,902,1814,0,0
-315,-790,0,0,0,0,0,0,0,0,0,-1,909,1814,0,0
-308,-790,0,0,0,0,0,0,0,0,0,-1,916,1814,0,0
-301,-790,0,0,0,0,0,0,0,0,0,-1,923,1814,0,0
-294,-790,0,0,0,0,0,0,0,0,0,-1,930,1814,0,0
-287,-790,0,0,0,0,0,0,0,0,0,-1,937,1814,0,0
-280,-790,0,0,0,0,0,0,0,0,0,-1,944,1814,0,0
-273,-790,0,0,0,0,0,0,0,0,0,-1,951,1814,0,0
-266,-790,0,0,0,0,0,0,0,0,0,-1,958,1814,0,0
-259,-790,0,0,0,0,0,0,0,0,0,-1,965,1814,0,0
-252,-790,0,0,0,0,0,0,0,0,0,-1,972,1814,0,0
-245,-790,0,0,0,0,0,0,0,0,0,-1,979,1814,0,0
-238,-790,0,0,0,0,0,0,0,0,0,-1,986,1814,0,0
-231,-790,0,0,0,0,0,0,0,0,0,-1,993,1814,0,0
-224,-790,0,0,0,0,0,0,0,0,0,-1,1000,1814,0,0
-217,-790,0,0,0,0,0,0,0,0,0,-1,1007,1814,0,0
-210,-790,0,0,0,0,0,0,0,0,0,-1,1014,1814,0,0
-203,-790,0,0,0,0,0,0,0,0,0,-1,1021,1814,0,0
-196,-790,0,0,0,0,0,0,0,0,0,-1,1028,1814,0,0
-189,-790,0,0,0,0,0,0,0,0,0,-1,1035,1814,0,0
-182,-790,0,0,0,0,0,0,0,0,0,-1,1042,1814,0,0
-175,-790,0,0,0,0,0,0,0,0,0,-1,1049,1814,0,0
-168,-790,0,0,0,0,0,0,0,0,0,-1,1056,1814,0,0
-161,-790,0,0,0,0,0,0,0,0,0,-1,1063,1814,0,0
-154,-790,0,0,0,0,0,0,0,0,0,-1,1070,1814,0,0
-147,-790,0,0,0,0,0,0,0,0,0,-1,1077,1814,0,0
-140,-790,0,0,0,0,0,0,0,0,0,-1,1084,1814,0,0
-133,-790,0,0,0,0,0,0,0,0,0,-1,1091,1814,0,0
-126,-790,0,0,0,0,0,0,0,0,0,-1,1098,1814,0,0
-119,-790,0,0,0,0,0,0,0,0,0,-1,1105,1814,0,0
-112,-790,0,0,0,0,0,0,0,0,0,-1,1112,1814,0,0
-105,-790,0,0,0,0,0,0,0,0,0,-1,1119,1814,0,0
-98,-790,0,0,0,0,0,0,0,0,0,-1,1126,1814,0,0
-91,-790,0,0,0,0,0,0,0,0,0,-1,1133,1814,0,0
-84,-790,0,0,0,0,0,0,0,0,0,-1,1140,1814,0,0
-77,-790,-0.969238,5.30847,0,0,0,0,0,0,0,-1,1147,1814,-0.969277,-5.3085
-70,-790,-1.23169,4.98914,0,0,0,0,0,0,0,-1,1154,1814,-1.23163,-4.98916
-63,-790,-1.69128,4.32263,0,0,0,0,0,0,0,-1,1161,1814,-1.69128,-4.32258
-56,-790,-2.24756,3.75305,0,0,0,0,0,0,0,-1,1168,1814,-2.24758,-3.75302
-49,-790,-3.11011,3.35779,0,0,0,0,0,0,0,-1,1175,1814,-3.11006,-3.35781
-42,-790,0.593262,1.19165,0,0,0,0,0,0,0,-1,1182,1814,0.593225,-1.19165
-35,-790,0.307129,-0.20105,0,0,0,0,0,0,0,-1,1189,1814,0.307178,0.201006
-28,-790,-2.78467,0.785156,0,0,0,0,0,0,0,-1,1196,1814,-2.78471,-0.785183
-21,-790,1.97949,29.1373,0,0,0,0,0,0,0,-1,1203,1814,1.97951,-29.1374
-14,-790,2.75403,29.1759,0,0,0,0,0,0,0,-1,1210,1814,2.75406,-29.176
-7,-790,3.26624,29.5006,0.0660329,0.0320113,0.0473672,0.0993513,-0.00130706,0.613007,0.0666741,0.0485087,1217,1814,3.2662,-29.5006
0,-790,3.74036,29.7335,0.0589758,0.0333646,0.0418223,0.0899091,0.00243132,0.636835,0.0591456,0.0476544,1224,1814,3.74036,-29.7335
7,-790,4.41272,29.9369,0.0562834,0.0273586,0.0333834,0.0782025,0.00543946,0.580991,0.0504197,0.0465351,1231,1814,4.41271,-29.9369
14,-790,5.12878,30.2606,0.0542991,0.0219954,0.0209087,0.0645681,0.0117265,0.456527,0.0397178,0.0476157,1238,1814,5.12883,-30.2606
21,-790,5.36182,30.4921,0.052652,0.0152908,0.00684333,0.053866,0.0140768,0.175576,0.032259,0.0481727,1245,1814,5.36185,-30.4921
28,-790,5.55823,30.7072,0.0500577,0.0072562,-0.00576775,0.0508213,0.00649259,-0.131628,0.0319374,0.048331,1252,1814,5.55819,-30.7072
35,-790,5.77209,30.9333,0,0,0,0,0,0,0,-1,1259,1814,5.77211,-30.9333
42,-790,8.83142,37.6904,0.0425883,-0.0067788,-0.0287963,0.0558323,-0.0200229,-0.431075,0.0453926,0.0479923,1266,1814,8.83147,-37.6905
49,-790,8.52075,36.8755,0.0382588,-0.0127447,-0.0382718,0.058747,-0.0332328,-0.491512,0.0537813,0.0488922,1273,1814,8.52081,-36.8755
56,-790,8.30652,36.0131,0.0329091,-0.0181284,-0.0454689,0.0595308,-0.0447501,-0.529684,0.0604079,0.0454058,1280,1814,8.30651,-36.0131
63,-790,8.06482,35.0706,0.0240092,-0.0206244,-0.0507161,0.0571015,-0.0537167,-0.57813,0.0639908,0.0425677,1287,1814,8.06485,-35.0705
70,-790,7.88257,33.9595,0.0151417,-0.0201574,-0.0552833,0.0555244,-0.0605401,-0.630884,0.0670308,0.0430645,1294,1814,7.88259,-33.9595
77,-790,7.26685,32.8336,0,0,0,0,0,0,0,-1,1301,1814,7.2668,-32.8337
84,-790,7.17639,32.9213,0,0,0,0,0,0,0,-1,1308,1814,7.17634,-32.9213
91,-790,6.59949,33.0066,0,0,0,0,0,0,0,-1,1315,1814,6.5995,-33.0066
98,-790,6.39819,32.6531,0,0,0,0,0,0,0,-1,1322,1814,6.39824,-32.6531
105,-790,5.96741,32.5731,0,0,0,0,0,0,0,-1,1329,1814,5.96746,-32.5731
112,-790,4.89478,32.5466,-0.0394177,0.00802089,-0.0697619,0.0579856,-0.0893824,-0.949269,0.0857242,0.0469901,1336,1814,4.89479,-32.5467
119,-790,4.36121,32.6897,-0.0459357,0.0128547,-0.0733447,0.0624755,-0.0955565,-0.975988,0.0919038,0.0429989,1343,1814,4.36119,-32.6898
126,-790,4.0968,32.865,-0.0500182,0.0190403,-0.0778532,0.0696779,-0.100656,-0.994123,0.0988828,0.0475675,1350,1814,4.09684,-32.865
133,-790,3.99854,32.7003,0,0,0,0,0,0,0,-1,1357,1814,3.99857,-32.7003
140,-790,8.14697,29.9866,0,0,0,0,0,0,0,-1,1364,1814,8.147,-29.9866
147,-790,8.18335,29.6893,0,0,0,0,0,0,0,-1,1371,1814,8.18331,-29.6894
154,-790,36.2247,12.8053,0,0,0,0,0,0,0,-1,1378,1814,36.2248,-12.8053
161,-790,36.4535,12.302,0,0,0,0,0,0,0,-1,1385,1814,36.4535,-12.302
168,-790,7.04077,2.23279,0,0,0,0,0,0,0,-1,1392,1814,7.04082,-2.23275
175,-790,9.03918,3.98535,0,0,0,0,0,0,0,-1,1399,1814,9.0392,-3.98535
182,-790,8.96997,5.67896,0,0,0,0,0,0,0,-1,1406,1814,8.97001,-5.6789
189,-790,8.59729,6.86975,0,0,0,0,0,0,0,-1,1413,1814,8.59728,-6.86972
196,-790,8.21924,9.29053,0,0,0,0,0,0,0,-1,1420,1814,8.21924,-9.29048
203,-790,0,0,0,0,0,0,0,0,0,-1,1427,1814,0,0
210,-790,0,0,0,0,0,0,0,0,0,-1,1434,1814,0,0
217,-790,0,0,0,0,0,0,0,0,0,-1,1441,1814,0,0
224,-790,0,0,0,0,0,0,0,0,0,-1,1448,1814,0,0
231,-790,0,0,0,0,0,0,0,0,0,-1,1455,1814,0,0
238,-790,0,0,0,0,0,0,0,0,0,-1,1462,1814,0,0
245,-790,0,0,0,0,0,0,0,0,0,-1,1469,1814,0,0
252,-790,0,0,0,0,0,0,0,0,0,-1,1476,1814,0,0
259,-790,0,0,0,0,0,0,0,0,0,-1,1483,1814,0,0
266,-790,0,0,0,0,0,0,0,0,0,-1,1490,1814,0,0
273,-790,0,0,0,0,0,0,0,0,0,-1,1497,1814,0,0
280,-790,0,0,0,0,0,0,0,0,0,-1,1504,1814,0,0
287,-790,0,0,0,0,0,0,0,0,0,-1,1511,1814,0,0
294,-790,0,0,0,0,0,0,0,0,0,-1,1518,1814,0,0
301,-790,0,0,0,0,0,0,0,0,0,-1,1525,1814,0,0
308,-790,0,0,0,0,0,0,0,0,0,-1,1532,1814,0,0
315,-790,0,0,0,0,0,0,0,0,0,-1,1539,1814,0,0
322,-790,0,0,0,0,0,0,0,0,0,-1,1546,1814,0,0
329,-790,0,0,0,0,0,0,0,0,0,-1,1553,1814,0,0
336,-790,0,0,0,0,0,0,0,0,0,-1,1560,1814,0,0
343,-790,0,0,0,0,0,0,0,0,0,-1,1567,1814,0,0
350,-790,0,0,0,0,0,0,0,0,0,-1,1574,1814,0,0
357,-790,0,0,0,0,0,0,0,0,0,-1,1581,1814,0,0
364,-790,0,0,0,0,0,0,0,0,0,-1,1588,1814,0,0
371,-790,0,0,0,0,0,0,0,0,0,-1,1595,1814,0,0
378,-790,0,0,0,0,0,0,0,0,0,-1,1602,1814,0,0
385,-790,0,0,0,0,0,0,0,0,0,-1,1609,1814,0,0
392,-790,0,0,0,0,0,0,0,0,0,-1,1616,1814,0,0
399,-790,0,0,0,0,0,0,0,0,0,-1,1623,1814,0,0
406,-790,0,0,0,0,0,0,0,0,0,-1,1630,1814,0,0
413,-790,0,0,0,0,0,0,0,0,0,-1,1637,1814,0,0
420,-790,0,0,0,0,0,0,0,0,0,-1,1644,1814,0,0
427,-790,0,0,0,0,0,0,0,0,0,-1,1651,1814,0,0
434,-790,0,0,0,0,0,0,0,0,0,-1,1658,1814,0,0
441,-790,0,0,0,0,0,0,0,0,0,-1,1665,1814,0,0
448,-790,0,0,0,0,0,0,0,0,0,-1,1672,1814,0,0
455,-790,0,0,0,0,0,0,0,0,0,-1,1679,1814,0,0
462,-790,0,0,0,0,0,0,0,0,0,-1,1686,1814,0,0
469,-790,0,0,0,0,0,0,0,0,0,-1,1693,1814,0,0
476,-790,0,0,0,0,0,0,0,0,0,-1,1700,1814,0,0
483,-790,0,0,0,0,0,0,0,0,0,-1,1707,1814,0,0
490,-790,0,0,0,0,0,0,0,0,0,-1,1714,1814,0,0
497,-790,0,0,0,0,0,0,0,0,0,-1,1721,1814,0,0
504,-790,0,0,0,0,0,0,0,0,0,-1,1728,1814,0,0
511,-790,0,0,0,0,0,0,0,0,0,-1,1735,1814,0,0
518,-790,0,0,0,0,0,0,0,0,0,-1,1742,1814,0,0
525,-790,0,0,0,0,0,0,0,0,0,-1,1749,1814,0,0
532,-790,0,0,0,0,0,0,0,0,0,-1,1756,1814,0,0
539,-790,0,0,0,0,0,0,0,0,0,-1,1763,1814,0,0
546,-790,0,0,0,0,0,0,0,0,0,-1,1770,1814,0,0
553,-790,0,0,0,0,0,0,0,0,0,-1,1777,1814,0,0
560,-790,0,0,0,0,0,0,0,0,0,-1,1784,1814,0,0
567,-790,0,0,0,0,0,0,0,0,0,-1,1791,1814,0,0
574,-790,0,0,0,0,0,0,0,0,0,-1,1798,1814,0,0
581,-790,0,0,0,0,0,0,0,0,0,-1,1805,1814,0,0
588,-790,0,0,0,0,0,0,0,0,0,-1,1812,1814,0,0
595,-790,0,0,0,0,0,0,0,0,0,-1,1819,1814,0,0
602,-790,0,0,0,0,0,0,0,0,0,-1,1826,1814,0,0
609,-790,0,0,0,0,0,0,0,0,0,-1,1833,1814,0,0
616,-790,0,0,0,0,0,0,0,0,0,-1,1840,1814,0,0
623,-790,0,0,0,0,0,0,0,0,0,-1,1847,1814,0,0
630,-790,0,0,0,0,0,0,0,0,0,-1,1854,1814,0,0
637,-790,0,0,0,0,0,0,0,0,0,-1,1861,1814,0,0
644,-790,0,0,0,0,0,0,0,0,0,-1,1868,1814,0,0
651,-790,0,0,0,0,0,0,0,0,0,-1,1875,1814,0,0
658,-790,0,0,0,0,0,0,0,0,0,-1,1882,1814,0,0
665,-790,0,0,0,0,0,0,0,0,0,-1,1889,1814,0,0
672,-790,0,0,0,0,0,0,0,0,0,-1,1896,1814,0,0
679,-790,0,0,0,0,0,0,0,0,0,-1,1903,1814,0,0
686,-790,0,0,0,0,0,0,0,0,0,-1,1910,1814,0,0
693,-790,0,0,0,0,0,0,0,0,0,-1,1917,1814,0,0
700,-790,0,0,0,0,0,0,0,0,0,-1,1924,1814,0,0
707,-790,0,0,0,0,0,0,0,0,0,-1,1931,1814,0,0
714,-790,0,0,0,0,0,0,0,0,0,-1,1938,1814,0,0
721,-790,0,0,0,0,0,0,0,0,0,-1,1945,1814,0,0
728,-790,0,0,0,0,0,0,0,0,0,-1,1952,1814,0,0
735,-790,0,0,0,0,0,0,0,0,0,-1,1959,1814,0,0
742,-790,0,0,0,0,0,0,0,0,0,-1,1966,1814,0,0
749,-790,0,0,0,0,0,0,0,0,0,-1,1973,1814,0,0
756,-790,0,0,0,0,0,0,0,0,0,-1,1980,1814,0,0
763,-790,0,0,0,0,0,0,0,0,0,-1,1987,1814,0,0
770,-790,0,0,0,0,0,0,0,0,0,-1,1994,1814,0,0
777,-790,0,0,0,0,0,0,0,0,0,-1,2001,1814,0,0
784,-790,0,0,0,0,0,0,0,0,0,-1,2008,1814,0,0
791,-790,0,0,0,0,0,0,0,0,0,-1,2015,1814,0,0
798,-790,0,0,0,0,0,0,0,0,0,-1,2022,1814,0,0
805,-790,0,0,0,0,0,0,0,0,0,-1,2029,1814,0,0
812,-790,0,0,0,0,0,0,0,0,0,-1,2036,1814,0,0
-700,-797,0,0,0,0,0,0,0,0,0,-1,524,1821,0,0
-693,-797,0,0,0,0,0,0,0,0,0,-1,531,1821,0,0
-686,-797,0,0,0,0,0,0,0,0,0,-1,538,1821,0,0
-679,-797,0,0,0,0,0,0,0,0,0,-1,545,1821,0,0
-672,-797,0,0,0,0,0,0,0,0,0,-1,552,1821,0,0
-665,-797,0,0,0,0,0,0,0,0,0,-1,559,1821,0,0
-658,-797,0,0,0,0,0,0,0,0,0,-1,566,1821,0,0
-651,-797,0,0,0,0,0,0,0,0,0,-1,573,1821,0,0
-644,-797,0,0,0,0,0,0,0,0,0,-1,580,1821,0,0
-637,-797,0,0,0,0,0,0,0,0,0,-1,587,1821,0,0
-630,-797,0,0,0,0,0,0,0,0,0,-1,594,1821,0,0
-623,-797,0,0,0,0,0,0,0,0,0,-1,601,1821,0,0
-616,-797,0,0,0,0,0,0,0,0,0,-1,608,1821,0,0
-609,-797,0,0,0,0,0,0,0,0,0,-1,615,1821,0,0
-602,-797,0,0,0,0,0,0,0,0,0,-1,622,1821,0,0
-595,-797,0,0,0,0,0,0,0,0,0,-1,629,1821,0,0
-588,-797,0,0,0,0,0,0,0,0,0,-1,636,1821,0,0
-581,-797,0,0,0,0,0,0,0,0,0,-1,643,1821,0,0
-574,-797,0,0,0,0,0,0,0,0,0,-1,650,1821,0,0
-567,-797,0,0,0,0,0,0,0,0,0,-1,657,1821,0,0
-560,-797,0,0,0,0,0,0,0,0,0,-1,664,1821,0,0
-553,-797,0,0,0,0,0,0,0,0,0,-1,671,1821,0,0
-546,-797,0,0,0,0,0,0,0,0,0,-1,678,1821,0,0
-539,-797,0,0,0,0,0,0,0,0,0,-1,685,1821,0,0
-532,-797,0,0,0,0,0,0,0,0,0,-1,692,1821,0,0
-525,-797,0,0,0,0,0,0,0,0,0,-1,699,1821,0,0
-518,-797,0,0,0,0,0,0,0,0,0,-1,706,1821,0,0
-511,-797,0,0,0,0,0,0,0,0,0,-1,713,1821,0,0
-504,-797,0,0,0,0,0,0,0,0,0,-1,720,1821,0,0
-497,-797,0,0,0,0,0,0,0,0,0,-1,727,1821,0,0
-490,-797,0,0,0,0,0,0,0,0,0,-1,734,1821,0,0
-483,-797,0,0,0,0,0,0,0,0,0,-1,741,1821,0,0
-476,-797,0,0,0,0,0,0,0,0,0,-1,748,1821,0,0
-469,-797,0,0,0,0,0,0,0,0,0,-1,755,1821,0,0
-462,-797,0,0,0,0,0,0,0,0,0,-1,762,1821,0,0
-455,-797,0,0,0,0,0,0,0,0,0,-1,769,1821,0,0
-448,-797,0,0,0,0,0,0,0,0,0,-1,776,1821,0,0
-441,-797,0,0,0,0,0,0,0,0,0,-1,783,1821,0,0
-434,-797,0,0,0,0,0,0,0,0,0,-1,790,1821,0,0
-427,-797,0,0,0,0,0,0,0,0,0,-1,797,1821,0,0
-420,-797,0,0,0,0,0,0,0,0,0,-1,804,1821,0,0
-413,-797,0,0,0,0,0,0,0,0,0,-1,811,1821,0,0
-406,-797,0,0,0,0,0,0,0,0,0,-1,818,1821,0,0
-399,-797,0,0,0,0,0,0,0,0,0,-1,825,1821,0,0
-392,-797,0,0,0,0,0,0,0,0,0,-1,832,1821,0,0
-385,-797,0,0,0,0,0,0,0,0,0,-1,839,1821,0,0
-378,-797,0,0,0,0,0,0,0,0,0,-1,846,1821,0,0
-371,-797,0,0,0,0,0,0,0,0,0,-1,853,1821,0,0
-364,-797,0,0,0,0,0,0,0,0,0,-1,860,1821,0,0
-357,-797,0,0,0,0,0,0,0,0,0,-1,867,1821,0,0
-350,-797,0,0,0,0,0,0,0,0,0,-1,874,1821,0,0
-343,-797,0,0,0,0,0,0,0,0,0,-1,881,1821,0,0
-336,-797,0,0,0,0,0,0,0,0,0,-1,888,1821,0,0
-329,-797,0,0,0,0,0,0,0,0,0,-1,895,1821,0,0
-322,-797,0,0,0,0,0,0,0,0,0,-1,902,1821,0,0
-315,-797,0,0,0,0,0,0,0,0,0,-1,909,1821,0,0
-308,-797,0,0,0,0,0,0,0,0,0,-1,916,1821,0,0
-301,-797,0,0,0,0,0,0,0,0,0,-1,923,1821,0,0
-294,-797,0,0,0,0,0,0,0,0,0,-1,930,1821,0,0
-287,-797,0,0,0,0,0,0,0,0,0,-1,937,1821,0,0
-280,-797,0,0,0,0,0,0,0,0,0,-1,944,1821,0,0
-273,-797,0,0,0,0,0,0,0,0,0,-1,951,1821,0,0
-266,-797,0,0,0,0,0,0,0,0,0,-1,958,1821,0,0
-259,-797,0,0,0,0,0,0,0,0,0,-1,965,1821,0,0
-252,-797,0,0,0,0,0,0,0,0,0,-1,972,1821,0,0
-245,-797,0,0,0,0,0,0,0,0,0,-1,979,1821,0,0
-238,-797,0,0,0,0,0,0,0,0,0,-1,986,1821,0,0
-231,-797,0,0,0,0,0,0,0,0,0,-1,993,1821,0,0
-224,-797,0,0,0,0,0,0,0,0,0,-1,1000,1821,0,0
-217,-797,0,0,0,0,0,0,0,0,0,-1,1007,1821,0,0
-210,-797,0,0,0,0,0,0,0,0,0,-1,1014,1821,0,0
-203,-797,0,0,0,0,0,0,0,0,0,-1,1021,1821,0,0
-196,-797,0,0,0,0,0,0,0,0,0,-1,1028,1821,0,0
-189,-797,0,0,0,0,0,0,0,0,0,-1,1035,1821,0,0
-182,-797,0,0,0,0,0,0,0,0,0,-1,1042,1821,0,0
-175,-797,0,0,0,0,0,0,0,0,0,-1,1049,1821,0,0
-168,-797,0,0,0,0,0,0,0,0,0,-1,1056,1821,0,0
-161,-797,0,0,0,0,0,0,0,0,0,-1,1063,1821,0,0
-154,-797,0,0,0,0,0,0,0,0,0,-1,1070,1821,0,0
-147,-797,0,0,0,0,0,0,0,0,0,-1,1077,1821,0,0
-140,-797,0,0,0,0,0,0,0,0,0,-1,1084,1821,0,0
-133,-797,0,0,0,0,0,0,0,0,0,-1,1091,1821,0,0
-126,-797,0,0,0,0,0,0,0,0,0,-1,1098,1821,0,0
-119,-797,0,0,0,0,0,0,0,0,0,-1,1105,1821,0,0
-112,-797,0,0,0,0,0,0,0,0,0,-1,1112,1821,0,0
-105,-797,0,0,0,0,0,0,0,0,0,-1,1119,1821,0,0
-98,-797,0,0,0,0,0,0,0,0,0,-1,1126,1821,0,0
-91,-797,0,0,0,0,0,0,0,0,0,-1,1133,1821,0,0
-84,-797,0,0,0,0,0,0,0,0,0,-1,1140,1821,0,0
-77,-797,0,0,0,0,0,0,0,0,0,-1,1147,1821,0,0
-70,-797,0,0,0,0,0,0,0,0,0,-1,1154,1821,0,0
-63,-797,0,0,0,0,0,0,0,0,0,-1,1161,1821,0,0
-56,-797,0,0,0,0,0,0,0,0,0,-1,1168,1821,0,0
-49,-797,0,0,0,0,0,0,0,0,0,-1,1175,1821,0,0
-42,-797,0.579834,0.692871,0,0,0,0,0,0,0,-1,1182,1821,0.579856,-0.692816
-35,-797,-0.185425,5.55396,0,0,0,0,0,0,0,-1,1189,1821,-0.18542,-5.55396
-28,-797,-0.310181,4.71509,0,0,0,0,0,0,0,-1,1196,1821,-0.310228,-4.71503
-21,-797,1.74866,35.1671,0,0,0,0,0,0,0,-1,1203,1821,1.74863,-35.1672
-14,-797,2.18555,28.9478,0,0,0,0,0,0,0,-1,1210,1821,2.18552,-28.9478
-7,-797,2.97192,29.3458,0,0,0,0,0,0,0,-1,1217,1821,2.97188,-29.3459
0,-797,3.50476,29.5499,0,0,0,0,0,0,0,-1,1224,1821,3.50473,-29.55
7,-797,4.09302,29.6046,0,0,0,0,0,0,0,-1,1231,1821,4.09297,-29.6047
14,-797,4.55029,29.8846,0.0683194,0.0305945,0.0262499,0.081781,0.0171329,0.473857,0.0498019,0.047876,1238,1821,4.55034,-29.8846
21,-797,4.93359,30.3097,0.0646535,0.0221813,0.00887456,0.0664333,0.0204015,0.197921,0.0392952,0.0457065,1245,1821,4.93361,-30.3097
28,-797,5.10815,30.6018,0.0596059,0.0134136,-0.00649041,0.0605006,0.012519,-0.136976,0.036876,0.0450544,1252,1821,5.1082,-30.6018
35,-797,5.26172,30.8168,0,0,0,0,0,0,0,-1,1259,1821,5.26176,-30.8168
42,-797,9.31836,36.9893,0,0,0,0,0,0,0,-1,1266,1821,9.31834,-36.9893
49,-797,8.71216,36.1774,0,0,0,0,0,0,0,-1,1273,1821,8.71216,-36.1774
56,-797,8.43848,35.3684,0,0,0,0,0,0,0,-1,1280,1821,8.43852,-35.3684
63,-797,8.25732,34.4805,0.0240526,-0.0182568,-0.0623609,0.0687492,-0.0629534,-0.621874,0.0760631,0.0393297,1287,1821,8.25731,-34.4805
70,-797,8.23132,33.7052,0.0129792,-0.017884,-0.0677369,0.0670201,-0.0719248,-0.673401,0.0802365,0.0407847,1294,1821,8.23129,-33.7052
77,-797,8.05298,33.2643,0.00233426,-0.0167788,-0.071577,0.0649899,-0.0794345,-0.719034,0.0835223,0.041205,1301,1821,8.05299,-33.2643
84,-797,7.81067,32.8802,-0.00982071,-0.0130233,-0.0737053,0.0623007,-0.0851447,-0.774537,0.0854676,0.0446819,1308,1821,7.81069,-32.8803
91,-797,7.56653,32.4404,0,0,0,0,0,0,0,-1,1315,1821,7.5665,-32.4404
98,-797,7.19067,32.3488,0,0,0,0,0,0,0,-1,1322,1821,7.19062,-32.3487
105,-797,6.68713,32.5518,0,0,0,0,0,0,0,-1,1329,1821,6.68716,-32.5518
112,-797,6.10986,32.6219,-0.0543434,0.0158321,-0.0847867,0.0725045,-0.111016,-0.981586,0.10673,0.0471656,1336,1821,6.10984,-32.622
119,-797,5.18591,32.4103,-0.063014,0.0211756,-0.0897322,0.0781961,-0.120034,-1.00472,0.115295,0.0435921,1343,1821,5.18594,-32.4103
126,-797,4.31628,32.4331,0,0,0,0,0,0,0,-1,1350,1821,4.31629,-32.4331
133,-797,8.87598,29.6044,0,0,0,0,0,0,0,-1,1357,1821,8.87602,-29.6044
140,-797,9.00989,29.2389,0,0,0,0,0,0,0,-1,1364,1821,9.00983,-29.239
147,-797,9.14502,28.9406,0,0,0,0,0,0,0,-1,1371,1821,9.14503,-28.9406
154,-797,36.3716,9.00574,0,0,0,0,0,0,0,-1,1378,1821,36.3716,-9.00578
161,-797,37.5005,8.91833,0,0,0,0,0,0,0,-1,1385,1821,37.5005,-8.9183
168,-797,0,0,0,0,0,0,0,0,0,-1,1392,1821,0,0
175,-797,0,0,0,0,0,0,0,0,0,-1,1399,1821,0,0
182,-797,0,0,0,0,0,0,0,0,0,-1,1406,1821,0,0
189,-797,0,0,0,0,0,0,0,0,0,-1,1413,1821,0,0
196,-797,0,0,0,0,0,0,0,0,0,-1,1420,1821,0,0
203,-797,0,0,0,0,0,0,0,0,0,-1,1427,1821,0,0
210,-797,0,0,0,0,0,0,0,0,0,-1,1434,1821,0,0
217,-797,0,0,0,0,0,0,0,0,0,-1,1441,1821,0,0
224,-797,0,0,0,0,0,0,0,0,0,-1,1448,1821,0,0
231,-797,0,0,0,0,0,0,0,0,0,-1,1455,1821,0,0
238,-797,0,0,0,0,0,0,0,0,0,-1,1462,1821,0,0
245,-797,0,0,0,0,0,0,0,0,0,-1,1469,1821,0,0
252,-797,0,0,0,0,0,0,0,0,0,-1,1476,1821,0,0
259,-797,0,0,0,0,0,0,0,0,0,-1,1483,1821,0,0
266,-797,0,0,0,0,0,0,0,0,0,-1,1490,1821,0,0
273,-797,0,0,0,0,0,0,0,0,0,-1,1497,1821,0,0
280,-797,0,0,0,0,0,0,0,0,0,-1,1504,1821,0,0
287,-797,0,0,0,0,0,0,0,0,0,-1,1511,1821,0,0
294,-797,0,0,0,0,0,0,0,0,0,-1,1518,1821,0,0
301,-797,0,0,0,0,0,0,0,0,0,-1,1525,1821,0,0
308,-797,0,0,0,0,0,0,0,0,0,-1,1532,1821,0,0
315,-797,0,0,0,0,0,0,0,0,0,-1,1539,1821,0,0
322,-797,0,0,0,0,0,0,0,0,0,-1,1546,1821,0,0
329,-797,0,0,0,0,0,0,0,0,0,-1,1553,1821,0,0
336,-797,0,0,0,0,0,0,0,0,0,-1,1560,1821,0,0
343,-797,0,0,0,0,0,0,0,0,0,-1,1567,1821,0,0
350,-797,0,0,0,0,0,0,0,0,0,-1,1574,1821,0,0
357,-797,0,0,0,0,0,0,0,0,0,-1,1581,1821,0,0
364,-797,0,0,0,0,0,0,0,0,0,-1,1588,1821,0,0
371,-797,0,0,0,0,0,0,0,0,0,-1,1595,1821,0,0
378,-797,0,0,0,0,0,0,0,0,0,-1,1602,1821,0,0
385,-797,0,0,0,0,0,0,0,0,0,-1,1609,1821,0,0
392,-797,0,0,0,0,0,0,0,0,0,-1,1616,1821,0,0
399,-797,0,0,0,0,0,0,0,0,0,-1,1623,1821,0,0
406,-797,0,0,0,0,0,0,0,0,0,-1,1630,1821,0,0
413,-797,0,0,0,0,0,0,0,0,0,-1,1637,1821,0,0
420,-797,0,0,0,0,0,0,0,0,0,-1,1644,1821,0,0
427,-797,0,0,0,0,0,0,0,0,0,-1,1651,1821,0,0
434,-797,0,0,0,0,0,0,0,0,0,-1,1658,1821,0,0
441,-797,0,0,0,0,0,0,0,0,0,-1,1665,1821,0,0
448,-797,0,0,0,0,0,0,0,0,0,-1,1672,1821,0,0
455,-797,0,0,0,0,0,0,0,0,0,-1,1679,1821,0,0
462,-797,0,0,0,0,0,0,0,0,0,-1,1686,1821,0,0
469,-797,0,0,0,0,0,0,0,0,0,-1,1693,1821,0,0
476,-797,0,0,0,0,0,0,0,0,0,-1,1700,1821,0,0
483,-797,0,0,0,0,0,0,0,0,0,-1,1707,1821,0,0
490,-797,0,0,0,0,0,0,0,0,0,-1,1714,1821,0,0
497,-797,0,0,0,0,0,0,0,0,0,-1,1721,1821,0,0
504,-797,0,0,0,0,0,0,0,0,0,-1,1728,1821,0,0
511,-797,0,0,0,0,0,0,0,0,0,-1,1735,1821,0,0
518,-797,0,0,0,0,0,0,0,0,0,-1,1742,1821,0,0
525,-797,0,0,0,0,0,0,0,0,0,-1,1749,1821,0,0
532,-797,0,0,0,0,0,0,0,0,0,-1,1756,1821,0,0
539,-797,0,0,0,0,0,0,0,0,0,-1,1763,1821,0,0
546,-797,0,0,0,0,0,0,0,0,0,-1,1770,1821,0,0
553,-797,0,0,0,0,0,0,0,0,0,-1,1777,1821,0,0
560,-797,0,0,0,0,0,0,0,0,0,-1,1784,1821,0,0
567,-797,0,0,0,0,0,0,0,0,0,-1,1791,1821,0,0
574,-797,0,0,0,0,0,0,0,0,0,-1,1798,1821,0,0
581,-797,0,0,0,0,0,0,0,0,0,-1,1805,1821,0,0
588,-797,0,0,0,0,0,0,0,0,0,-1,1812,1821,0,0
595,-797,0,0,0,0,0,0,0,0,0,-1,1819,1821,0,0
602,-797,0,0,0,0,0,0,0,0,0,-1,1826,1821,0,0
609,-797,0,0,0,0,0,0,0,0,0,-1,1833,1821,0,0
616,-797,0,0,0,0,0,0,0,0,0,-1,1840,1821,0,0
623,-797,0,0,0,0,0,0,0,0,0,-1,1847,1821,0,0
630,-797,0,0,0,0,0,0,0,0,0,-1,1854,1821,0,0
637,-797,0,0,0,0,0,0,0,0,0,-1,1861,1821,0,0
644,-797,0,0,0,0,0,0,0,0,0,-1,1868,1821,0,0
651,-797,0,0,0,0,0,0,0,0,0,-1,1875,1821,0,0
658,-797,0,0,0,0,0,0,0,0,0,-1,1882,1821,0,0
665,-797,0,0,0,0,0,0,0,0,0,-1,1889,1821,0,0
672,-797,0,0,0,0,0,0,0,0,0,-1,1896,1821,0,0
679,-797,0,0,0,0,0,0,0,0,0,-1,1903,1821,0,0
686,-797,0,0,0,0,0,0,0,0,0,-1,1910,1821,0,0
693,-797,0,0,0,0,0,0,0,0,0,-1,1917,1821,0,0
700,-797,0,0,0,0,0,0,0,0,0,-1,1924,1821,0,0
707,-797,0,0,0,0,0,0,0,0,0,-1,1931,1821,0,0
714,-797,0,0,0,0,0,0,0,0,0,-1,1938,1821,0,0
721,-797,0,0,0,0,0,0,0,0,0,-1,1945,1821,0,0
728,-797,0,0,0,0,0,0,0,0,0,-1,1952,1821,0,0
735,-797,0,0,0,0,0,0,0,0,0,-1,1959,1821,0,0
742,-797,0,0,0,0,0,0,0,0,0,-1,1966,1821,0,0
749,-797,0,0,0,0,0,0,0,0,0,-1,1973,1821,0,0
756,-797,0,0,0,0,0,0,0,0,0,-1,1980,1821,0,0
763,-797,0,0,0,0,0,0,0,0,0,-1,1987,1821,0,0
770,-797,0,0,0,0,0,0,0,0,0,-1,1994,1821,0,0
777,-797,0,0,0,0,0,0,0,0,0,-1,2001,1821,0,0
784,-797,0,0,0,0,0,0,0,0,0,-1,2008,1821,0,0
791,-797,0,0,0,0,0,0,0,0,0,-1,2015,1821,0,0
798,-797,0,0,0,0,0,0,0,0,0,-1,2022,1821,0,0
805,-797,0,0,0,0,0,0,0,0,0,-1,2029,1821,0,0
812,-797,0,0,0,0,0,0,0,0,0,-1,2036,1821,0,0
-700,-804,0,0,0,0,0,0,0,0,0,-1,524,1828,0,0
-693,-804,0,0,0,0,0,0,0,0,0,-1,531,1828,0,0
-686,-804,0,0,0,0,0,0,0,0,0,-1,538,1828,0,0
-679,-804,0,0,0,0,0,0,0,0,0,-1,545,1828,0,0
-672,-804,0,0,0,0,0,0,0,0,0,-1,552,1828,0,0
-665,-804,0,0,0,0,0,0,0,0,0,-1,559,1828,0,0
-658,-804,0,0,0,0,0,0,0,0,0,-1,566,1828,0,0
-651,-804,0,0,0,0,0,0,0,0,0,-1,573,1828,0,0
-644,-804,0,0,0,0,0,0,0,0,0,-1,580,1828,0,0
-637,-804,0,0,0,0,0,0,0,0,0,-1,587,1828,0,0
-630,-804,0,0,0,0,0,0,0,0,0,-1,594,1828,0,0
-623,-804,0,0,0,0,0,0,0,0,0,-1,601,1828,0,0
-616,-804,0,0,0,0,0,0,0,0,0,-1,608,1828,0,0
-609,-804,0,0,0,0,0,0,0,0,0,-1,615,1828,0,0
-602,-804,0,0,0,0,0,0,0,0,0,-1,622,1828,0,0
-595,-804,0,0,0,0,0,0,0,0,0,-1,629,1828,0,0
-588,-804,0,0,0,0,0,0,0,0,0,-1,636,1828,0,0
-581,-804,0,0,0,0,0,0,0,0,0,-1,643,1828,0,0
-574,-804,0,0,0,0,0,0,0,0,0,-1,650,1828,0,0
-567,-804,0,0,0,0,0,0,0,0,0,-1,657,1828,0,0
-560,-804,0,0,0,0,0,0,0,0,0,-1,664,1828,0,0
-553,-804,0,0,0,0,0,0,0,0,0,-1,671,1828,0,0
-546,-804,0,0,0,0,0,0,0,0,0,-1,678,1828,0,0
-539,-804,0,0,0,0,0,0,0,0,0,-1,685,1828,0,0
-532,-804,0,0,0,0,0,0,0,0,0,-1,692,1828,0,0
-525,-804,0,0,0,0,0,0,0,0,0,-1,699,1828,0,0
-518,-804,0,0,0,0,0,0,0,0,0,-1,706,1828,0,0
-511,-804,0,0,0,0,0,0,0,0,0,-1,713,1828,0,0
-504,-804,0,0,0,0,0,0,0,0,0,-1,720,1828,0,0
-497,-804,0,0,0,0,0,0,0,0,0,-1,727,1828,0,0
-490,-804,0,0,0,0,0,0,0,0,0,-1,734,1828,0,0
-483,-804,0,0,0,0,0,0,0,0,0,-1,741,1828,0,0
-476,-804,0,0,0,0,0,0,0,0,0,-1,748,1828,0,0
-469,-804,0,0,0,0,0,0,0,0,0,-1,755,1828,0,0
-462,-804,0,0,0,0,0,0,0,0,0,-1,762,1828,0,0
-455,-804,0,0,0,0,0,0,0,0,0,-1,769,1828,0,0
-448,-804,0,0,0,0,0,0,0,0,0,-1,776,1828,0,0
-441,-804,0,0,0,0,0,0,0,0,0,-1,783,1828,0,0
-434,-804,0,0,0,0,0,0,0,0,0,-1,790,1828,0,0
-427,-804,0,0,0,0,0,0,0,0,0,-1,797,1828,0,0
-420,-804,0,0,0,0,0,0,0,0,0,-1,804,1828,0,0
-413,-804,0,0,0,0,0,0,0,0,0,-1,811,1828,0,0
-406,-804,0,0,0,0,0,0,0,0,0,-1,818,1828,0,0
-399,-804,0,0,0,0,0,0,0,0,0,-1,825,1828,0,0
-392,-804,0,0,0,0,0,0,0,0,0,-1,832,1828,0,0
-385,-804,0,0,0,0,0,0,0,0,0,-1,839,1828,0,0
-378,-804,0,0,0,0,0,0,0,0,0,-1,846,1828,0,0
-371,-804,0,0,0,0,0,0,0,0,0,-1,853,1828,0,0
-364,-804,0,0,0,0,0,0,0,0,0,-1,860,1828,0,0
-357,-804,0,0,0,0,0,0,0,0,0,-1,867,1828,0,0
-350,-804,0,0,0,0,0,0,0,0,0,-1,874,1828,0,0
-343,-804,0,0,0,0,0,0,0,0,0,-1,881,1828,0,0
-336,-804,0,0,0,0,0,0,0,0,0,-1,888,1828,0,0
-329,-804,0,0,0,0,0,0,0,0,0,-1,895,1828,0,0
-322,-804,0,0,0,0,0,0,0,0,0,-1,902,1828,0,0
-315,-804,0,0,0,0,0,0,0,0,0,-1,909,1828,0,0
-308,-804,0,0,0,0,0,0,0,0,0,-1,916,1828,0,0
-301,-804,0,0,0,0,0,0,0,0,0,-1,923,1828,0,0
-294,-804,0,0,0,0,0,0,0,0,0,-1,930,1828,0,0
-287,-804,0,0,0,0,0,0,0,0,0,-1,937,1828,0,0
-280,-804,0,0,0,0,0,0,0,0,0,-1,944,1828,0,0
-273,-804,0,0,0,0,0,0,0,0,0,-1,951,1828,0,0
-266,-804,0,0,0,0,0,0,0,0,0,-1,958,1828,0,0
-259,-804,0,0,0,0,0,0,0,0,0,-1,965,1828,0,0
-252,-804,0,0,0,0,0,0,0,0,0,-1,972,1828,0,0
-245,-804,0,0,0,0,0,0,0,0,0,-1,979,1828,0,0
-238,-804,0,0,0,0,0,0,0,0,0,-1,986,1828,0,0
-231,-804,0,0,0,0,0,0,0,0,0,-1,993,1828,0,0
-224,-804,0,0,0,0,0,0,0,0,0,-1,1000,1828,0,0
-217,-804,0,0,0,0,0,0,0,0,0,-1,1007,1828,0,0
-210,-804,0,0,0,0,0,0,0,0,0,-1,1014,1828,0,0
-203,-804,0,0,0,0,0,0,0,0,0,-1,1021,1828,0,0
-196,-804,0,0,0,0,0,0,0,0,0,-1,1028,1828,0,0
-189,-804,0,0,0,0,0,0,0,0,0,-1,1035,1828,0,0
-182,-804,0,0,0,0,0,0,0,0,0,-1,1042,1828,0,0
-175,-804,0,0,0,0,0,0,0,0,0,-1,1049,1828,0,0
-168,-804,0,0,0,0,0,0,0,0,0,-1,1056,1828,0,0
-161,-804,0,0,0,0,0,0,0,0,0,-1,1063,1828,0,0
-154,-804,0,0,0,0,0,0,0,0,0,-1,1070,1828,0,0
-147,-804,0,0,0,0,0,0,0,0,0,-1,1077,1828,0,0
-140,-804,0,0,0,0,0,0,0,0,0,-1,1084,1828,0,0
-133,-804,0,0,0,0,0,0,0,0,0,-1,1091,1828,0,0
-126,-804,0,0,0,0,0,0,0,0,0,-1,1098,1828,0,0
-119,-804,0,0,0,0,0,0,0,0,0,-1,1105,1828,0,0
-112,-804,0,0,0,0,0,0,0,0,0,-1,1112,1828,0,0
-105,-804,0,0,0,0,0,0,0,0,0,-1,1119,1828,0,0
-98,-804,0,0,0,0,0,0,0,0,0,-1,1126,1828,0,0
-91,-804,0,0,0,0,0,0,0,0,0,-1,1133,1828,0,0
-84,-804,0,0,0,0,0,0,0,0,0,-1,1140,1828,0,0
-77,-804,0,0,0,0,0,0,0,0,0,-1,1147,1828,0,0
-70,-804,0,0,0,0,0,0,0,0,0,-1,1154,1828,0,0
-63,-804,0,0,0,0,0,0,0,0,0,-1,1161,1828,0,0
-56,-804,0,0,0,0,0,0,0,0,0,-1,1168,1828,0,0
-49,-804,0,0,0,0,0,0,0,0,0,-1,1175,1828,0,0
-42,-804,0,0,0,0,0,0,0,0,0,-1,1182,1828,0,0
-35,-804,0,0,0,0,0,0,0,0,0,-1,1189,1828,0,0
-28,-804,0,0,0,0,0,0,0,0,0,-1,1196,1828,0,0
-21,-804,0,0,0,0,0,0,0,0,0,-1,1203,1828,0,0
-14,-804,0,0,0,0,0,0,0,0,0,-1,1210,1828,0,0
-7,-804,0,0,0,0,0,0,0,0,0,-1,1217,1828,0,0
0,-804,0,0,0,0,0,0,0,0,0,-1,1224,1828,0,0
7,-804,0,0,0,0,0,0,0,0,0,-1,1231,1828,0,0
14,-804,0,0,0,0,0,0,0,0,0,-1,1238,1828,0,0
21,-804,0,0,0,0,0,0,0,0,0,-1,1245,1828,0,0
28,-804,0,0,0,0,0,0,0,0,0,-1,1252,1828,0,0
35,-804,8.44678,39.3842,0,0,0,0,0,0,0,-1,1259,1828,8.44677,-39.3841
42,-804,8.35181,37.8151,0,0,0,0,0,0,0,-1,1266,1828,8.35183,-37.815
49,-804,8.60571,36.246,0,0,0,0,0,0,0,-1,1273,1828,8.60576,-36.246
56,-804,8.80774,35.2633,0,0,0,0,0,0,0,-1,1280,1828,8.80772,-35.2633
63,-804,8.6449,34.2294,0.0201511,-0.0100607,-0.0743499,0.0809142,-0.0708238,-0.685176,0.0876705,0.0444824,1287,1828,8.64496,-34.2294
70,-804,8.79529,33.1804,0.00683389,-0.0100382,-0.0806144,0.0794524,-0.0826568,-0.733264,0.0935999,0.0460829,1294,1828,8.79527,-33.1805
77,-804,8.46179,33.1115,-0.00585985,-0.00837606,-0.0846758,0.0775672,-0.0918031,-0.77797,0.097901,0.0458202,1301,1828,8.46181,-33.1115
84,-804,8.16663,32.8518,-0.0202545,-0.00369539,-0.0867434,0.0751627,-0.0991127,-0.832979,0.100934,0.0452903,1308,1828,8.16662,-32.8518
91,-804,0,0,0,0,0,0,0,0,0,-1,1315,1828,0,0
98,-804,0,0,0,0,0,0,0,0,0,-1,1322,1828,0,0
105,-804,0,0,0,0,0,0,0,0,0,-1,1329,1828,0,0
112,-804,0,0,0,0,0,0,0,0,0,-1,1336,1828,0,0
119,-804,0,0,0,0,0,0,0,0,0,-1,1343,1828,0,0
126,-804,0,0,0,0,0,0,0,0,0,-1,1350,1828,0,0
133,-804,0,0,0,0,0,0,0,0,0,-1,1357,1828,0,0
140,-804,0,0,0,0,0,0,0,0,0,-1,1364,1828,0,0
147,-804,0,0,0,0,0,0,0,0,0,-1,1371,1828,0,0
154,-804,0,0,0,0,0,0,0,0,0,-1,1378,1828,0,0
161,-804,0,0,0,0,0,0,0,0,0,-1,1385,1828,0,0
168,-804,0,0,0,0,0,0,0,0,0,-1,1392,1828,0,0
175,-804,0,0,0,0,0,0,0,0,0,-1,1399,1828,0,0
182,-804,0,0,0,0,0,0,0,0,0,-1,1406,1828,0,0
189,-804,0,0,0,0,0,0,0,0,0,-1,1413,1828,0,0
196,-804,0,0,0,0,0,0,0,0,0,-1,1420,1828,0,0
203,-804,0,0,0,0,0,0,0,0,0,-1,1427,1828,0,0
210,-804,0,0,0,0,0,0,0,0,0,-1,1434,1828,0,0
217,-804,0,0,0,0,0,0,0,0,0,-1,1441,1828,0,0
224,-804,0,0,0,0,0,0,0,0,0,-1,1448,1828,0,0
231,-804,0,0,0,0,0,0,0,0,0,-1,1455,1828,0,0
238,-804,0,0,0,0,0,0,0,0,0,-1,1462,1828,0,0
245,-804,0,0,0,0,0,0,0,0,0,-1,1469,1828,0,0
252,-804,0,0,0,0,0,0,0,0,0,-1,1476,1828,0,0
259,-804,0,0,0,0,0,0,0,0,0,-1,1483,1828,0,0
266,-804,0,0,0,0,0,0,0,0,0,-1,1490,1828,0,0
273,-804,0,0,0,0,0,0,0,0,0,-1,1497,1828,0,0
280,-804,0,0,0,0,0,0,0,0,0,-1,1504,1828,0,0
287,-804,0,0,0,0,0,0,0,0,0,-1,1511,1828,0,0
294,-804,0,0,0,0,0,0,0,0,0,-1,1518,1828,0,0
301,-804,0,0,0,0,0,0,0,0,0,-1,1525,1828,0,0
308,-804,0,0,0,0,0,0,0,0,0,-1,1532,1828,0,0
315,-804,0,0,0,0,0,0,0,0,0,-1,1539,1828,0,0
322,-804,0,0,0,0,0,0,0,0,0,-1,1546,1828,0,0
329,-804,0,0,0,0,0,0,0,0,0,-1,1553,1828,0,0
336,-804,0,0,0,0,0,0,0,0,0,-1,1560,1828,0,0
343,-804,0,0,0,0,0,0,0,0,0,-1,1567,1828,0,0
350,-804,0,0,0,0,0,0,0,0,0,-1,1574,1828,0,0
357,-804,0,0,0,0,0,0,0,0,0,-1,1581,1828,0,0
364,-804,0,0,0,0,0,0,0,0,0,-1,1588,1828,0,0
371,-804,0,0,0,0,0,0,0,0,0,-1,1595,1828,0,0
378,-804,0,0,0,0,0,0,0,0,0,-1,1602,1828,0,0
385,-804,0,0,0,0,0,0,0,0,0,-1,1609,1828,0,0
392,-804,0,0,0,0,0,0,0,0,0,-1,1616,1828,0,0
399,-804,0,0,0,0,0,0,0,0,0,-1,1623,1828,0,0
406,-804,0,0,0,0,0,0,0,0,0,-1,1630,1828,0,0
413,-804,0,0,0,0,0,0,0,0,0,-1,1637,1828,0,0
420,-804,0,0,0,0,0,0,0,0,0,-1,1644,1828,0,0
427,-804,0,0,0,0,0,0,0,0,0,-1,1651,1828,0,0
434,-804,0,0,0,0,0,0,0,0,0,-1,1658,1828,0,0
441,-804,0,0,0,0,0,0,0,0,0,-1,1665,1828,0,0
448,-804,0,0,0,0,0,0,0,0,0,-1,1672,1828,0,0
455,-804,0,0,0,0,0,0,0,0,0,-1,1679,1828,0,0
462,-804,0,0,0,0,0,0,0,0,0,-1,1686,1828,0,0
469,-804,0,0,0,0,0,0,0,0,0,-1,1693,1828,0,0
476,-804,0,0,0,0,0,0,0,0,0,-1,1700,1828,0,0
483,-804,0,0,0,0,0,0,0,0,0,-1,1707,1828,0,0
490,-804,0,0,0,0,0,0,0,0,0,-1,1714,1828,0,0
497,-804,0,0,0,0,0,0,0,0,0,-1,1721,1828,0,0
504,-804,0,0,0,0,0,0,0,0,0,-1,1728,1828,0,0
511,-804,0,0,0,0,0,0,0,0,0,-1,1735,1828,0,0
518,-804,0,0,0,0,0,0,0,0,0,-1,1742,1828,0,0
525,-804,0,0,0,0,0,0,0,0,0,-1,1749,1828,0,0
532,-804,0,0,0,0,0,0,0,0,0,-1,1756,1828,0,0
539,-804,0,0,0,0,0,0,0,0,0,-1,1763,1828,0,0
546,-804,0,0,0,0,0,0,0,0,0,-1,1770,1828,0,0
553,-804,0,0,0,0,0,0,0,0,0,-1,1777,1828,0,0
560,-804,0,0,0,0,0,0,0,0,0,-1,1784,1828,0,0
567,-804,0,0,0,0,0,0,0,0,0,-1,1791,1828,0,0
574,-804,0,0,0,0,0,0,0,0,0,-1,1798,1828,0,0
581,-804,0,0,0,0,0,0,0,0,0,-1,1805,1828,0,0
588,-804,0,0,0,0,0,0,0,0,0,-1,1812,1828,0,0
595,-804,0,0,0,0,0,0,0,0,0,-1,1819,1828,0,0
602,-804,0,0,0,0,0,0,0,0,0,-1,1826,1828,0,0
609,-804,0,0,0,0,0,0,0,0,0,-1,1833,1828,0,0
616,-804,0,0,0,0,0,0,0,0,0,-1,1840,1828,0,0
623,-804,0,0,0,0,0,0,0,0,0,-1,1847,1828,0,0
630,-804,0,0,0,0,0,0,0,0,0,-1,1854,1828,0,0
637,-804,0,0,0,0,0,0,0,0,0,-1,1861,1828,0,0
644,-804,0,0,0,0,0,0,0,0,0,-1,1868,1828,0,0
651,-804,0,0,0,0,0,0,0,0,0,-1,1875,1828,0,0
658,-804,0,0,0,0,0,0,0,0,0,-1,1882,1828,0,0
665,-804,0,0,0,0,0,0,0,0,0,-1,1889,1828,0,0
672,-804,0,0,0,0,0,0,0,0,0,-1,1896,1828,0,0
679,-804,0,0,0,0,0,0,0,0,0,-1,1903,1828,0,0
686,-804,0,0,0,0,0,0,0,0,0,-1,1910,1828,0,0
693,-804,0,0,0,0,0,0,0,0,0,-1,1917,1828,0,0
700,-804,0,0,0,0,0,0,0,0,0,-1,1924,1828,0,0
707,-804,0,0,0,0,0,0,0,0,0,-1,1931,1828,0,0
714,-804,0,0,0,0,0,0,0,0,0,-1,1938,1828,0,0
721,-804,0,0,0,0,0,0,0,0,0,-1,1945,1828,0,0
728,-804,0,0,0,0,0,0,0,0,0,-1,1952,1828,0,0
735,-804,0,0,0,0,0,0,0,0,0,-1,1959,1828,0,0
742,-804,0,0,0,0,0,0,0,0,0,-1,1966,1828,0,0
749,-804,0,0,0,0,0,0,0,0,0,-1,1973,1828,0,0
756,-804,0,0,0,0,0,0,0,0,0,-1,1980,1828,0,0
763,-804,0,0,0,0,0,0,0,0,0,-1,1987,1828,0,0
770,-804,0,0,0,0,0,0,0,0,0,-1,1994,1828,0,0
777,-804,0,0,0,0,0,0,0,0,0,-1,2001,1828,0,0
784,-804,0,0,0,0,0,0,0,0,0,-1,2008,1828,0,0
791,-804,0,0,0,0,0,0,0,0,0,-1,2015,1828,0,0
798,-804,0,0,0,0,0,0,0,0,0,-1,2022,1828,0,0
805,-804,0,0,0,0,0,0,0,0,0,-1,2029,1828,0,0
812,-804,0,0,0,0,0,0,0,0,0,-1,2036,1828,0,0

